 "x_c",  "y_c",  "u_c",  "v_c",  "exx",  "eyy",  "exy",  "e1",  "e2",  "gamma",  "e_vonmises",  "sigma",  "x",  "y",  "u",  "v"
-700,715,0,0,0,0,0,0,0,0,0,-1,524,309,0,0
-693,715,0,0,0,0,0,0,0,0,0,-1,531,309,0,0
-686,715,0,0,0,0,0,0,0,0,0,-1,538,309,0,0
-679,715,0,0,0,0,0,0,0,0,0,-1,545,309,0,0
-672,715,0,0,0,0,0,0,0,0,0,-1,552,309,0,0
-665,715,0,0,0,0,0,0,0,0,0,-1,559,309,0,0
-658,715,0,0,0,0,0,0,0,0,0,-1,566,309,0,0
-651,715,0,0,0,0,0,0,0,0,0,-1,573,309,0,0
-644,715,0,0,0,0,0,0,0,0,0,-1,580,309,0,0
-637,715,0,0,0,0,0,0,0,0,0,-1,587,309,0,0
-630,715,0,0,0,0,0,0,0,0,0,-1,594,309,0,0
-623,715,0,0,0,0,0,0,0,0,0,-1,601,309,0,0
-616,715,0,0,0,0,0,0,0,0,0,-1,608,309,0,0
-609,715,0,0,0,0,0,0,0,0,0,-1,615,309,0,0
-602,715,0,0,0,0,0,0,0,0,0,-1,622,309,0,0
-595,715,0,0,0,0,0,0,0,0,0,-1,629,309,0,0
-588,715,0,0,0,0,0,0,0,0,0,-1,636,309,0,0
-581,715,0,0,0,0,0,0,0,0,0,-1,643,309,0,0
-574,715,0,0,0,0,0,0,0,0,0,-1,650,309,0,0
-567,715,0,0,0,0,0,0,0,0,0,-1,657,309,0,0
-560,715,0,0,0,0,0,0,0,0,0,-1,664,309,0,0
-553,715,0,0,0,0,0,0,0,0,0,-1,671,309,0,0
-546,715,0,0,0,0,0,0,0,0,0,-1,678,309,0,0
-539,715,0,0,0,0,0,0,0,0,0,-1,685,309,0,0
-532,715,0,0,0,0,0,0,0,0,0,-1,692,309,0,0
-525,715,0,0,0,0,0,0,0,0,0,-1,699,309,0,0
-518,715,0,0,0,0,0,0,0,0,0,-1,706,309,0,0
-511,715,0,0,0,0,0,0,0,0,0,-1,713,309,0,0
-504,715,0,0,0,0,0,0,0,0,0,-1,720,309,0,0
-497,715,0,0,0,0,0,0,0,0,0,-1,727,309,0,0
-490,715,0,0,0,0,0,0,0,0,0,-1,734,309,0,0
-483,715,0,0,0,0,0,0,0,0,0,-1,741,309,0,0
-476,715,0,0,0,0,0,0,0,0,0,-1,748,309,0,0
-469,715,0,0,0,0,0,0,0,0,0,-1,755,309,0,0
-462,715,0,0,0,0,0,0,0,0,0,-1,762,309,0,0
-455,715,0,0,0,0,0,0,0,0,0,-1,769,309,0,0
-448,715,0,0,0,0,0,0,0,0,0,-1,776,309,0,0
-441,715,0,0,0,0,0,0,0,0,0,-1,783,309,0,0
-434,715,0,0,0,0,0,0,0,0,0,-1,790,309,0,0
-427,715,0,0,0,0,0,0,0,0,0,-1,797,309,0,0
-420,715,0,0,0,0,0,0,0,0,0,-1,804,309,0,0
-413,715,0,0,0,0,0,0,0,0,0,-1,811,309,0,0
-406,715,0,0,0,0,0,0,0,0,0,-1,818,309,0,0
-399,715,0,0,0,0,0,0,0,0,0,-1,825,309,0,0
-392,715,0,0,0,0,0,0,0,0,0,-1,832,309,0,0
-385,715,0,0,0,0,0,0,0,0,0,-1,839,309,0,0
-378,715,0,0,0,0,0,0,0,0,0,-1,846,309,0,0
-371,715,0,0,0,0,0,0,0,0,0,-1,853,309,0,0
-364,715,0,0,0,0,0,0,0,0,0,-1,860,309,0,0
-357,715,0,0,0,0,0,0,0,0,0,-1,867,309,0,0
-350,715,0,0,0,0,0,0,0,0,0,-1,874,309,0,0
-343,715,0,0,0,0,0,0,0,0,0,-1,881,309,0,0
-336,715,0,0,0,0,0,0,0,0,0,-1,888,309,0,0
-329,715,0,0,0,0,0,0,0,0,0,-1,895,309,0,0
-322,715,0,0,0,0,0,0,0,0,0,-1,902,309,0,0
-315,715,0,0,0,0,0,0,0,0,0,-1,909,309,0,0
-308,715,0,0,0,0,0,0,0,0,0,-1,916,309,0,0
-301,715,0,0,0,0,0,0,0,0,0,-1,923,309,0,0
-294,715,0,0,0,0,0,0,0,0,0,-1,930,309,0,0
-287,715,0,0,0,0,0,0,0,0,0,-1,937,309,0,0
-280,715,0,0,0,0,0,0,0,0,0,-1,944,309,0,0
-273,715,0,0,0,0,0,0,0,0,0,-1,951,309,0,0
-266,715,0,0,0,0,0,0,0,0,0,-1,958,309,0,0
-259,715,0,0,0,0,0,0,0,0,0,-1,965,309,0,0
-252,715,0,0,0,0,0,0,0,0,0,-1,972,309,0,0
-245,715,0,0,0,0,0,0,0,0,0,-1,979,309,0,0
-238,715,0,0,0,0,0,0,0,0,0,-1,986,309,0,0
-231,715,0,0,0,0,0,0,0,0,0,-1,993,309,0,0
-224,715,0,0,0,0,0,0,0,0,0,-1,1000,309,0,0
-217,715,0,0,0,0,0,0,0,0,0,-1,1007,309,0,0
-210,715,0,0,0,0,0,0,0,0,0,-1,1014,309,0,0
-203,715,0,0,0,0,0,0,0,0,0,-1,1021,309,0,0
-196,715,0,0,0,0,0,0,0,0,0,-1,1028,309,0,0
-189,715,0,0,0,0,0,0,0,0,0,-1,1035,309,0,0
-182,715,0,0,0,0,0,0,0,0,0,-1,1042,309,0,0
-175,715,0,0,0,0,0,0,0,0,0,-1,1049,309,0,0
-168,715,0,0,0,0,0,0,0,0,0,-1,1056,309,0,0
-161,715,0,0,0,0,0,0,0,0,0,-1,1063,309,0,0
-154,715,0,0,0,0,0,0,0,0,0,-1,1070,309,0,0
-147,715,0,0,0,0,0,0,0,0,0,-1,1077,309,0,0
-140,715,0,0,0,0,0,0,0,0,0,-1,1084,309,0,0
-133,715,0,0,0,0,0,0,0,0,0,-1,1091,309,0,0
-126,715,0,0,0,0,0,0,0,0,0,-1,1098,309,0,0
-119,715,0,0,0,0,0,0,0,0,0,-1,1105,309,0,0
-112,715,0,0,0,0,0,0,0,0,0,-1,1112,309,0,0
-105,715,0,0,0,0,0,0,0,0,0,-1,1119,309,0,0
-98,715,0,0,0,0,0,0,0,0,0,-1,1126,309,0,0
-91,715,0,0,0,0,0,0,0,0,0,-1,1133,309,0,0
-84,715,0,0,0,0,0,0,0,0,0,-1,1140,309,0,0
-77,715,0,0,0,0,0,0,0,0,0,-1,1147,309,0,0
-70,715,0,0,0,0,0,0,0,0,0,-1,1154,309,0,0
-63,715,0,0,0,0,0,0,0,0,0,-1,1161,309,0,0
-56,715,0,0,0,0,0,0,0,0,0,-1,1168,309,0,0
-49,715,0,0,0,0,0,0,0,0,0,-1,1175,309,0,0
-42,715,0,0,0,0,0,0,0,0,0,-1,1182,309,0,0
-35,715,0,0,0,0,0,0,0,0,0,-1,1189,309,0,0
-28,715,0,0,0,0,0,0,0,0,0,-1,1196,309,0,0
-21,715,0,0,0,0,0,0,0,0,0,-1,1203,309,0,0
-14,715,0,0,0,0,0,0,0,0,0,-1,1210,309,0,0
-7,715,0,0,0,0,0,0,0,0,0,-1,1217,309,0,0
0,715,0,0,0,0,0,0,0,0,0,-1,1224,309,0,0
7,715,0,0,0,0,0,0,0,0,0,-1,1231,309,0,0
14,715,0,0,0,0,0,0,0,0,0,-1,1238,309,0,0
21,715,0,0,0,0,0,0,0,0,0,-1,1245,309,0,0
28,715,0,0,0,0,0,0,0,0,0,-1,1252,309,0,0
35,715,0,0,0,0,0,0,0,0,0,-1,1259,309,0,0
42,715,0,0,0,0,0,0,0,0,0,-1,1266,309,0,0
49,715,0,0,0,0,0,0,0,0,0,-1,1273,309,0,0
56,715,0,0,0,0,0,0,0,0,0,-1,1280,309,0,0
63,715,0.162476,1.25473,0.131665,0.010391,0.0348154,0.140949,0.00110692,0.260603,0.093599,0.0466816,1287,309,0.162423,-1.25475
70,715,0.956909,2.10583,0.151063,0.0110239,0.0354472,0.159524,0.00256262,0.234317,0.105505,0.0454129,1294,309,0.956861,-2.10583
77,715,0,0,0,0,0,0,0,0,0,-1,1301,309,0,0
84,715,0,0,0,0,0,0,0,0,0,-1,1308,309,0,0
91,715,0,0,0,0,0,0,0,0,0,-1,1315,309,0,0
98,715,0,0,0,0,0,0,0,0,0,-1,1322,309,0,0
105,715,0,0,0,0,0,0,0,0,0,-1,1329,309,0,0
112,715,0,0,0,0,0,0,0,0,0,-1,1336,309,0,0
119,715,0,0,0,0,0,0,0,0,0,-1,1343,309,0,0
126,715,0,0,0,0,0,0,0,0,0,-1,1350,309,0,0
133,715,0,0,0,0,0,0,0,0,0,-1,1357,309,0,0
140,715,0,0,0,0,0,0,0,0,0,-1,1364,309,0,0
147,715,0,0,0,0,0,0,0,0,0,-1,1371,309,0,0
154,715,0,0,0,0,0,0,0,0,0,-1,1378,309,0,0
161,715,0,0,0,0,0,0,0,0,0,-1,1385,309,0,0
168,715,0,0,0,0,0,0,0,0,0,-1,1392,309,0,0
175,715,0,0,0,0,0,0,0,0,0,-1,1399,309,0,0
182,715,0,0,0,0,0,0,0,0,0,-1,1406,309,0,0
189,715,0,0,0,0,0,0,0,0,0,-1,1413,309,0,0
196,715,0,0,0,0,0,0,0,0,0,-1,1420,309,0,0
203,715,0,0,0,0,0,0,0,0,0,-1,1427,309,0,0
210,715,0,0,0,0,0,0,0,0,0,-1,1434,309,0,0
217,715,0,0,0,0,0,0,0,0,0,-1,1441,309,0,0
224,715,0,0,0,0,0,0,0,0,0,-1,1448,309,0,0
231,715,0,0,0,0,0,0,0,0,0,-1,1455,309,0,0
238,715,0,0,0,0,0,0,0,0,0,-1,1462,309,0,0
245,715,0,0,0,0,0,0,0,0,0,-1,1469,309,0,0
252,715,0,0,0,0,0,0,0,0,0,-1,1476,309,0,0
259,715,0,0,0,0,0,0,0,0,0,-1,1483,309,0,0
266,715,0,0,0,0,0,0,0,0,0,-1,1490,309,0,0
273,715,0,0,0,0,0,0,0,0,0,-1,1497,309,0,0
280,715,0,0,0,0,0,0,0,0,0,-1,1504,309,0,0
287,715,0,0,0,0,0,0,0,0,0,-1,1511,309,0,0
294,715,0,0,0,0,0,0,0,0,0,-1,1518,309,0,0
301,715,0,0,0,0,0,0,0,0,0,-1,1525,309,0,0
308,715,0,0,0,0,0,0,0,0,0,-1,1532,309,0,0
315,715,0,0,0,0,0,0,0,0,0,-1,1539,309,0,0
322,715,0,0,0,0,0,0,0,0,0,-1,1546,309,0,0
329,715,0,0,0,0,0,0,0,0,0,-1,1553,309,0,0
336,715,0,0,0,0,0,0,0,0,0,-1,1560,309,0,0
343,715,0,0,0,0,0,0,0,0,0,-1,1567,309,0,0
350,715,0,0,0,0,0,0,0,0,0,-1,1574,309,0,0
357,715,0,0,0,0,0,0,0,0,0,-1,1581,309,0,0
364,715,0,0,0,0,0,0,0,0,0,-1,1588,309,0,0
371,715,0,0,0,0,0,0,0,0,0,-1,1595,309,0,0
378,715,0,0,0,0,0,0,0,0,0,-1,1602,309,0,0
385,715,0,0,0,0,0,0,0,0,0,-1,1609,309,0,0
392,715,0,0,0,0,0,0,0,0,0,-1,1616,309,0,0
399,715,0,0,0,0,0,0,0,0,0,-1,1623,309,0,0
406,715,0,0,0,0,0,0,0,0,0,-1,1630,309,0,0
413,715,0,0,0,0,0,0,0,0,0,-1,1637,309,0,0
420,715,0,0,0,0,0,0,0,0,0,-1,1644,309,0,0
427,715,0,0,0,0,0,0,0,0,0,-1,1651,309,0,0
434,715,0,0,0,0,0,0,0,0,0,-1,1658,309,0,0
441,715,0,0,0,0,0,0,0,0,0,-1,1665,309,0,0
448,715,0,0,0,0,0,0,0,0,0,-1,1672,309,0,0
455,715,0,0,0,0,0,0,0,0,0,-1,1679,309,0,0
462,715,0,0,0,0,0,0,0,0,0,-1,1686,309,0,0
469,715,0,0,0,0,0,0,0,0,0,-1,1693,309,0,0
476,715,0,0,0,0,0,0,0,0,0,-1,1700,309,0,0
483,715,0,0,0,0,0,0,0,0,0,-1,1707,309,0,0
490,715,0,0,0,0,0,0,0,0,0,-1,1714,309,0,0
497,715,0,0,0,0,0,0,0,0,0,-1,1721,309,0,0
504,715,0,0,0,0,0,0,0,0,0,-1,1728,309,0,0
511,715,0,0,0,0,0,0,0,0,0,-1,1735,309,0,0
518,715,0,0,0,0,0,0,0,0,0,-1,1742,309,0,0
525,715,0,0,0,0,0,0,0,0,0,-1,1749,309,0,0
532,715,0,0,0,0,0,0,0,0,0,-1,1756,309,0,0
539,715,0,0,0,0,0,0,0,0,0,-1,1763,309,0,0
546,715,0,0,0,0,0,0,0,0,0,-1,1770,309,0,0
553,715,0,0,0,0,0,0,0,0,0,-1,1777,309,0,0
560,715,0,0,0,0,0,0,0,0,0,-1,1784,309,0,0
567,715,0,0,0,0,0,0,0,0,0,-1,1791,309,0,0
574,715,0,0,0,0,0,0,0,0,0,-1,1798,309,0,0
581,715,0,0,0,0,0,0,0,0,0,-1,1805,309,0,0
588,715,0,0,0,0,0,0,0,0,0,-1,1812,309,0,0
595,715,0,0,0,0,0,0,0,0,0,-1,1819,309,0,0
602,715,0,0,0,0,0,0,0,0,0,-1,1826,309,0,0
609,715,0,0,0,0,0,0,0,0,0,-1,1833,309,0,0
616,715,0,0,0,0,0,0,0,0,0,-1,1840,309,0,0
623,715,0,0,0,0,0,0,0,0,0,-1,1847,309,0,0
630,715,0,0,0,0,0,0,0,0,0,-1,1854,309,0,0
637,715,0,0,0,0,0,0,0,0,0,-1,1861,309,0,0
644,715,0,0,0,0,0,0,0,0,0,-1,1868,309,0,0
651,715,0,0,0,0,0,0,0,0,0,-1,1875,309,0,0
658,715,0,0,0,0,0,0,0,0,0,-1,1882,309,0,0
665,715,0,0,0,0,0,0,0,0,0,-1,1889,309,0,0
672,715,0,0,0,0,0,0,0,0,0,-1,1896,309,0,0
679,715,0,0,0,0,0,0,0,0,0,-1,1903,309,0,0
686,715,0,0,0,0,0,0,0,0,0,-1,1910,309,0,0
693,715,0,0,0,0,0,0,0,0,0,-1,1917,309,0,0
700,715,0,0,0,0,0,0,0,0,0,-1,1924,309,0,0
707,715,0,0,0,0,0,0,0,0,0,-1,1931,309,0,0
714,715,0,0,0,0,0,0,0,0,0,-1,1938,309,0,0
721,715,0,0,0,0,0,0,0,0,0,-1,1945,309,0,0
728,715,0,0,0,0,0,0,0,0,0,-1,1952,309,0,0
735,715,0,0,0,0,0,0,0,0,0,-1,1959,309,0,0
742,715,0,0,0,0,0,0,0,0,0,-1,1966,309,0,0
749,715,0,0,0,0,0,0,0,0,0,-1,1973,309,0,0
756,715,0,0,0,0,0,0,0,0,0,-1,1980,309,0,0
763,715,0,0,0,0,0,0,0,0,0,-1,1987,309,0,0
770,715,0,0,0,0,0,0,0,0,0,-1,1994,309,0,0
777,715,0,0,0,0,0,0,0,0,0,-1,2001,309,0,0
784,715,0,0,0,0,0,0,0,0,0,-1,2008,309,0,0
791,715,0,0,0,0,0,0,0,0,0,-1,2015,309,0,0
798,715,0,0,0,0,0,0,0,0,0,-1,2022,309,0,0
805,715,0,0,0,0,0,0,0,0,0,-1,2029,309,0,0
812,715,0,0,0,0,0,0,0,0,0,-1,2036,309,0,0
-700,708,0,0,0,0,0,0,0,0,0,-1,524,316,0,0
-693,708,0,0,0,0,0,0,0,0,0,-1,531,316,0,0
-686,708,0,0,0,0,0,0,0,0,0,-1,538,316,0,0
-679,708,0,0,0,0,0,0,0,0,0,-1,545,316,0,0
-672,708,0,0,0,0,0,0,0,0,0,-1,552,316,0,0
-665,708,0,0,0,0,0,0,0,0,0,-1,559,316,0,0
-658,708,0,0,0,0,0,0,0,0,0,-1,566,316,0,0
-651,708,0,0,0,0,0,0,0,0,0,-1,573,316,0,0
-644,708,0,0,0,0,0,0,0,0,0,-1,580,316,0,0
-637,708,0,0,0,0,0,0,0,0,0,-1,587,316,0,0
-630,708,0,0,0,0,0,0,0,0,0,-1,594,316,0,0
-623,708,0,0,0,0,0,0,0,0,0,-1,601,316,0,0
-616,708,0,0,0,0,0,0,0,0,0,-1,608,316,0,0
-609,708,0,0,0,0,0,0,0,0,0,-1,615,316,0,0
-602,708,0,0,0,0,0,0,0,0,0,-1,622,316,0,0
-595,708,0,0,0,0,0,0,0,0,0,-1,629,316,0,0
-588,708,0,0,0,0,0,0,0,0,0,-1,636,316,0,0
-581,708,0,0,0,0,0,0,0,0,0,-1,643,316,0,0
-574,708,0,0,0,0,0,0,0,0,0,-1,650,316,0,0
-567,708,0,0,0,0,0,0,0,0,0,-1,657,316,0,0
-560,708,0,0,0,0,0,0,0,0,0,-1,664,316,0,0
-553,708,0,0,0,0,0,0,0,0,0,-1,671,316,0,0
-546,708,0,0,0,0,0,0,0,0,0,-1,678,316,0,0
-539,708,0,0,0,0,0,0,0,0,0,-1,685,316,0,0
-532,708,0,0,0,0,0,0,0,0,0,-1,692,316,0,0
-525,708,0,0,0,0,0,0,0,0,0,-1,699,316,0,0
-518,708,0,0,0,0,0,0,0,0,0,-1,706,316,0,0
-511,708,0,0,0,0,0,0,0,0,0,-1,713,316,0,0
-504,708,0,0,0,0,0,0,0,0,0,-1,720,316,0,0
-497,708,0,0,0,0,0,0,0,0,0,-1,727,316,0,0
-490,708,0,0,0,0,0,0,0,0,0,-1,734,316,0,0
-483,708,0,0,0,0,0,0,0,0,0,-1,741,316,0,0
-476,708,0,0,0,0,0,0,0,0,0,-1,748,316,0,0
-469,708,0,0,0,0,0,0,0,0,0,-1,755,316,0,0
-462,708,0,0,0,0,0,0,0,0,0,-1,762,316,0,0
-455,708,0,0,0,0,0,0,0,0,0,-1,769,316,0,0
-448,708,0,0,0,0,0,0,0,0,0,-1,776,316,0,0
-441,708,0,0,0,0,0,0,0,0,0,-1,783,316,0,0
-434,708,0,0,0,0,0,0,0,0,0,-1,790,316,0,0
-427,708,0,0,0,0,0,0,0,0,0,-1,797,316,0,0
-420,708,0,0,0,0,0,0,0,0,0,-1,804,316,0,0
-413,708,0,0,0,0,0,0,0,0,0,-1,811,316,0,0
-406,708,0,0,0,0,0,0,0,0,0,-1,818,316,0,0
-399,708,0,0,0,0,0,0,0,0,0,-1,825,316,0,0
-392,708,0,0,0,0,0,0,0,0,0,-1,832,316,0,0
-385,708,0,0,0,0,0,0,0,0,0,-1,839,316,0,0
-378,708,0,0,0,0,0,0,0,0,0,-1,846,316,0,0
-371,708,0,0,0,0,0,0,0,0,0,-1,853,316,0,0
-364,708,0,0,0,0,0,0,0,0,0,-1,860,316,0,0
-357,708,0,0,0,0,0,0,0,0,0,-1,867,316,0,0
-350,708,0,0,0,0,0,0,0,0,0,-1,874,316,0,0
-343,708,0,0,0,0,0,0,0,0,0,-1,881,316,0,0
-336,708,0,0,0,0,0,0,0,0,0,-1,888,316,0,0
-329,708,0,0,0,0,0,0,0,0,0,-1,895,316,0,0
-322,708,0,0,0,0,0,0,0,0,0,-1,902,316,0,0
-315,708,0,0,0,0,0,0,0,0,0,-1,909,316,0,0
-308,708,0,0,0,0,0,0,0,0,0,-1,916,316,0,0
-301,708,0,0,0,0,0,0,0,0,0,-1,923,316,0,0
-294,708,0,0,0,0,0,0,0,0,0,-1,930,316,0,0
-287,708,0,0,0,0,0,0,0,0,0,-1,937,316,0,0
-280,708,0,0,0,0,0,0,0,0,0,-1,944,316,0,0
-273,708,0,0,0,0,0,0,0,0,0,-1,951,316,0,0
-266,708,0,0,0,0,0,0,0,0,0,-1,958,316,0,0
-259,708,0,0,0,0,0,0,0,0,0,-1,965,316,0,0
-252,708,0,0,0,0,0,0,0,0,0,-1,972,316,0,0
-245,708,0,0,0,0,0,0,0,0,0,-1,979,316,0,0
-238,708,0,0,0,0,0,0,0,0,0,-1,986,316,0,0
-231,708,0,0,0,0,0,0,0,0,0,-1,993,316,0,0
-224,708,0,0,0,0,0,0,0,0,0,-1,1000,316,0,0
-217,708,0,0,0,0,0,0,0,0,0,-1,1007,316,0,0
-210,708,0,0,0,0,0,0,0,0,0,-1,1014,316,0,0
-203,708,0,0,0,0,0,0,0,0,0,-1,1021,316,0,0
-196,708,0,0,0,0,0,0,0,0,0,-1,1028,316,0,0
-189,708,0,0,0,0,0,0,0,0,0,-1,1035,316,0,0
-182,708,0,0,0,0,0,0,0,0,0,-1,1042,316,0,0
-175,708,0,0,0,0,0,0,0,0,0,-1,1049,316,0,0
-168,708,0,0,0,0,0,0,0,0,0,-1,1056,316,0,0
-161,708,0,0,0,0,0,0,0,0,0,-1,1063,316,0,0
-154,708,0,0,0,0,0,0,0,0,0,-1,1070,316,0,0
-147,708,0,0,0,0,0,0,0,0,0,-1,1077,316,0,0
-140,708,0,0,0,0,0,0,0,0,0,-1,1084,316,0,0
-133,708,0,0,0,0,0,0,0,0,0,-1,1091,316,0,0
-126,708,0,0,0,0,0,0,0,0,0,-1,1098,316,0,0
-119,708,0,0,0,0,0,0,0,0,0,-1,1105,316,0,0
-112,708,0,0,0,0,0,0,0,0,0,-1,1112,316,0,0
-105,708,0,0,0,0,0,0,0,0,0,-1,1119,316,0,0
-98,708,0,0,0,0,0,0,0,0,0,-1,1126,316,0,0
-91,708,0,0,0,0,0,0,0,0,0,-1,1133,316,0,0
-84,708,0,0,0,0,0,0,0,0,0,-1,1140,316,0,0
-77,708,0,0,0,0,0,0,0,0,0,-1,1147,316,0,0
-70,708,0,0,0,0,0,0,0,0,0,-1,1154,316,0,0
-63,708,0,0,0,0,0,0,0,0,0,-1,1161,316,0,0
-56,708,0,0,0,0,0,0,0,0,0,-1,1168,316,0,0
-49,708,0,0,0,0,0,0,0,0,0,-1,1175,316,0,0
-42,708,0,0,0,0,0,0,0,0,0,-1,1182,316,0,0
-35,708,-0.0255127,0.511292,0,0,0,0,0,0,0,-1,1189,316,-0.0255226,-0.511295
-28,708,0.166138,-0.140808,-0.0170766,-0.0104237,-0.0498935,0.0362541,-0.0637544,-0.818684,0.0584631,0.0451459,1196,316,0.166143,0.14082
-21,708,0.440186,-0.749298,0,0,0,0,0,0,0,-1,1203,316,0.440152,0.749302
-14,708,0.875732,-1.23807,-0.0223016,-0.0306468,-0.0630889,0.0367525,-0.0897009,-0.752377,0.075111,0.0488168,1210,316,0.875733,1.23807
-7,708,0.234009,-1.86926,-0.0233214,-0.040289,-0.0684,0.0371189,-0.100729,-0.723697,0.0823628,0.0484288,1217,316,0.234065,1.86925
0,708,0.145752,-3.16904,-0.0195637,-0.046383,-0.0640804,0.032495,-0.0984417,-0.682255,0.0787276,0.0482734,1224,316,0.145791,3.16902
7,708,-0.0704346,-4.33368,-0.011894,-0.0480906,-0.0559037,0.028768,-0.0887526,-0.628852,0.0707353,0.0486029,1231,316,-0.0704038,4.33368
14,708,-0.172363,-5.3096,0,0,0,0,0,0,0,-1,1238,316,-0.17233,5.3096
21,708,-0.302856,-6.24042,0,0,0,0,0,0,0,-1,1245,316,-0.302834,6.24042
28,708,-0.83667,-2.22217,0,0,0,0,0,0,0,-1,1252,316,-0.836696,2.22217
35,708,-0.585938,-1.79733,0,0,0,0,0,0,0,-1,1259,316,-0.585995,1.79735
42,708,-0.249878,-1.28616,0,0,0,0,0,0,0,-1,1266,316,-0.249825,1.28615
49,708,0.060791,-0.694366,0.0947723,-0.00819399,0.0139752,0.0966354,-0.0100571,0.132532,0.0680242,0.0446897,1273,316,0.0608065,0.694353
56,708,0.0882568,0.244324,0.112451,0.000613217,0.0250752,0.117816,-0.00475156,0.21077,0.0801749,0.0437591,1280,316,0.0881996,-0.244315
63,708,0.696411,1.1261,0.132563,0.00715475,0.0332043,0.140811,-0.00109418,0.2435,0.0942411,0.0458854,1287,316,0.696368,-1.1261
70,708,1.5708,1.81406,0.150433,0.00738476,0.0341345,0.158161,-0.000342987,0.222638,0.105555,0.0458018,1294,316,1.57085,-1.81404
77,708,2.64392,2.39557,0.165195,0.00712685,0.0345994,0.172437,-0.000114799,0.206321,0.114996,0.0445533,1301,316,2.64392,-2.39558
84,708,3.46558,3.13971,0.173382,0.00540339,0.0345785,0.180221,-0.00143614,0.195277,0.120629,0.0460992,1308,316,3.46563,-3.13972
91,708,4.44397,3.8934,0.175977,0.00108735,0.0343164,0.182469,-0.00540511,0.186984,0.123487,0.0473199,1315,316,4.444,-3.89339
98,708,5.17688,4.86084,0.17475,-0.00445762,0.0346265,0.181207,-0.0109154,0.184381,0.124603,0.0455427,1322,316,5.17685,-4.86085
105,708,5.76868,5.72107,0.170541,-0.0107506,0.0342349,0.17679,-0.017,0.180559,0.123916,0.0462265,1329,316,5.76862,-5.72107
112,708,6.42224,6.51019,0.15844,-0.0164516,0.0326898,0.16435,-0.022362,0.178872,0.117731,0.0462155,1336,316,6.42223,-6.51019
119,708,7.58276,7.20871,0.146539,-0.021345,0.0313495,0.152202,-0.027008,0.178713,0.111566,0.0468039,1343,316,7.58279,-7.20871
126,708,8.29919,8.16208,0,0,0,0,0,0,0,-1,1350,316,8.29919,-8.16208
133,708,8.99976,9.10846,0,0,0,0,0,0,0,-1,1357,316,8.99974,-9.10845
140,708,0.957031,-0.324463,0,0,0,0,0,0,0,-1,1364,316,0.957074,0.324461
147,708,-1.94995,-0.549225,0,0,0,0,0,0,0,-1,1371,316,-1.94989,0.549219
154,708,0,0,0,0,0,0,0,0,0,-1,1378,316,0,0
161,708,0,0,0,0,0,0,0,0,0,-1,1385,316,0,0
168,708,0,0,0,0,0,0,0,0,0,-1,1392,316,0,0
175,708,0,0,0,0,0,0,0,0,0,-1,1399,316,0,0
182,708,0,0,0,0,0,0,0,0,0,-1,1406,316,0,0
189,708,0,0,0,0,0,0,0,0,0,-1,1413,316,0,0
196,708,0,0,0,0,0,0,0,0,0,-1,1420,316,0,0
203,708,0,0,0,0,0,0,0,0,0,-1,1427,316,0,0
210,708,0,0,0,0,0,0,0,0,0,-1,1434,316,0,0
217,708,0,0,0,0,0,0,0,0,0,-1,1441,316,0,0
224,708,0,0,0,0,0,0,0,0,0,-1,1448,316,0,0
231,708,0,0,0,0,0,0,0,0,0,-1,1455,316,0,0
238,708,0,0,0,0,0,0,0,0,0,-1,1462,316,0,0
245,708,0,0,0,0,0,0,0,0,0,-1,1469,316,0,0
252,708,0,0,0,0,0,0,0,0,0,-1,1476,316,0,0
259,708,0,0,0,0,0,0,0,0,0,-1,1483,316,0,0
266,708,0,0,0,0,0,0,0,0,0,-1,1490,316,0,0
273,708,0,0,0,0,0,0,0,0,0,-1,1497,316,0,0
280,708,0,0,0,0,0,0,0,0,0,-1,1504,316,0,0
287,708,0,0,0,0,0,0,0,0,0,-1,1511,316,0,0
294,708,0,0,0,0,0,0,0,0,0,-1,1518,316,0,0
301,708,0,0,0,0,0,0,0,0,0,-1,1525,316,0,0
308,708,0,0,0,0,0,0,0,0,0,-1,1532,316,0,0
315,708,0,0,0,0,0,0,0,0,0,-1,1539,316,0,0
322,708,0,0,0,0,0,0,0,0,0,-1,1546,316,0,0
329,708,0,0,0,0,0,0,0,0,0,-1,1553,316,0,0
336,708,0,0,0,0,0,0,0,0,0,-1,1560,316,0,0
343,708,0,0,0,0,0,0,0,0,0,-1,1567,316,0,0
350,708,0,0,0,0,0,0,0,0,0,-1,1574,316,0,0
357,708,0,0,0,0,0,0,0,0,0,-1,1581,316,0,0
364,708,0,0,0,0,0,0,0,0,0,-1,1588,316,0,0
371,708,0,0,0,0,0,0,0,0,0,-1,1595,316,0,0
378,708,0,0,0,0,0,0,0,0,0,-1,1602,316,0,0
385,708,0,0,0,0,0,0,0,0,0,-1,1609,316,0,0
392,708,0,0,0,0,0,0,0,0,0,-1,1616,316,0,0
399,708,0,0,0,0,0,0,0,0,0,-1,1623,316,0,0
406,708,0,0,0,0,0,0,0,0,0,-1,1630,316,0,0
413,708,0,0,0,0,0,0,0,0,0,-1,1637,316,0,0
420,708,0,0,0,0,0,0,0,0,0,-1,1644,316,0,0
427,708,0,0,0,0,0,0,0,0,0,-1,1651,316,0,0
434,708,0,0,0,0,0,0,0,0,0,-1,1658,316,0,0
441,708,0,0,0,0,0,0,0,0,0,-1,1665,316,0,0
448,708,0,0,0,0,0,0,0,0,0,-1,1672,316,0,0
455,708,0,0,0,0,0,0,0,0,0,-1,1679,316,0,0
462,708,0,0,0,0,0,0,0,0,0,-1,1686,316,0,0
469,708,0,0,0,0,0,0,0,0,0,-1,1693,316,0,0
476,708,0,0,0,0,0,0,0,0,0,-1,1700,316,0,0
483,708,0,0,0,0,0,0,0,0,0,-1,1707,316,0,0
490,708,0,0,0,0,0,0,0,0,0,-1,1714,316,0,0
497,708,0,0,0,0,0,0,0,0,0,-1,1721,316,0,0
504,708,0,0,0,0,0,0,0,0,0,-1,1728,316,0,0
511,708,0,0,0,0,0,0,0,0,0,-1,1735,316,0,0
518,708,0,0,0,0,0,0,0,0,0,-1,1742,316,0,0
525,708,0,0,0,0,0,0,0,0,0,-1,1749,316,0,0
532,708,0,0,0,0,0,0,0,0,0,-1,1756,316,0,0
539,708,0,0,0,0,0,0,0,0,0,-1,1763,316,0,0
546,708,0,0,0,0,0,0,0,0,0,-1,1770,316,0,0
553,708,0,0,0,0,0,0,0,0,0,-1,1777,316,0,0
560,708,0,0,0,0,0,0,0,0,0,-1,1784,316,0,0
567,708,0,0,0,0,0,0,0,0,0,-1,1791,316,0,0
574,708,0,0,0,0,0,0,0,0,0,-1,1798,316,0,0
581,708,0,0,0,0,0,0,0,0,0,-1,1805,316,0,0
588,708,0,0,0,0,0,0,0,0,0,-1,1812,316,0,0
595,708,0,0,0,0,0,0,0,0,0,-1,1819,316,0,0
602,708,0,0,0,0,0,0,0,0,0,-1,1826,316,0,0
609,708,0,0,0,0,0,0,0,0,0,-1,1833,316,0,0
616,708,0,0,0,0,0,0,0,0,0,-1,1840,316,0,0
623,708,0,0,0,0,0,0,0,0,0,-1,1847,316,0,0
630,708,0,0,0,0,0,0,0,0,0,-1,1854,316,0,0
637,708,0,0,0,0,0,0,0,0,0,-1,1861,316,0,0
644,708,0,0,0,0,0,0,0,0,0,-1,1868,316,0,0
651,708,0,0,0,0,0,0,0,0,0,-1,1875,316,0,0
658,708,0,0,0,0,0,0,0,0,0,-1,1882,316,0,0
665,708,0,0,0,0,0,0,0,0,0,-1,1889,316,0,0
672,708,0,0,0,0,0,0,0,0,0,-1,1896,316,0,0
679,708,0,0,0,0,0,0,0,0,0,-1,1903,316,0,0
686,708,0,0,0,0,0,0,0,0,0,-1,1910,316,0,0
693,708,0,0,0,0,0,0,0,0,0,-1,1917,316,0,0
700,708,0,0,0,0,0,0,0,0,0,-1,1924,316,0,0
707,708,0,0,0,0,0,0,0,0,0,-1,1931,316,0,0
714,708,0,0,0,0,0,0,0,0,0,-1,1938,316,0,0
721,708,0,0,0,0,0,0,0,0,0,-1,1945,316,0,0
728,708,0,0,0,0,0,0,0,0,0,-1,1952,316,0,0
735,708,0,0,0,0,0,0,0,0,0,-1,1959,316,0,0
742,708,0,0,0,0,0,0,0,0,0,-1,1966,316,0,0
749,708,0,0,0,0,0,0,0,0,0,-1,1973,316,0,0
756,708,0,0,0,0,0,0,0,0,0,-1,1980,316,0,0
763,708,0,0,0,0,0,0,0,0,0,-1,1987,316,0,0
770,708,0,0,0,0,0,0,0,0,0,-1,1994,316,0,0
777,708,0,0,0,0,0,0,0,0,0,-1,2001,316,0,0
784,708,0,0,0,0,0,0,0,0,0,-1,2008,316,0,0
791,708,0,0,0,0,0,0,0,0,0,-1,2015,316,0,0
798,708,0,0,0,0,0,0,0,0,0,-1,2022,316,0,0
805,708,0,0,0,0,0,0,0,0,0,-1,2029,316,0,0
812,708,0,0,0,0,0,0,0,0,0,-1,2036,316,0,0
-700,701,0,0,0,0,0,0,0,0,0,-1,524,323,0,0
-693,701,0,0,0,0,0,0,0,0,0,-1,531,323,0,0
-686,701,0,0,0,0,0,0,0,0,0,-1,538,323,0,0
-679,701,0,0,0,0,0,0,0,0,0,-1,545,323,0,0
-672,701,0,0,0,0,0,0,0,0,0,-1,552,323,0,0
-665,701,0,0,0,0,0,0,0,0,0,-1,559,323,0,0
-658,701,0,0,0,0,0,0,0,0,0,-1,566,323,0,0
-651,701,0,0,0,0,0,0,0,0,0,-1,573,323,0,0
-644,701,0,0,0,0,0,0,0,0,0,-1,580,323,0,0
-637,701,0,0,0,0,0,0,0,0,0,-1,587,323,0,0
-630,701,0,0,0,0,0,0,0,0,0,-1,594,323,0,0
-623,701,0,0,0,0,0,0,0,0,0,-1,601,323,0,0
-616,701,0,0,0,0,0,0,0,0,0,-1,608,323,0,0
-609,701,0,0,0,0,0,0,0,0,0,-1,615,323,0,0
-602,701,0,0,0,0,0,0,0,0,0,-1,622,323,0,0
-595,701,0,0,0,0,0,0,0,0,0,-1,629,323,0,0
-588,701,0,0,0,0,0,0,0,0,0,-1,636,323,0,0
-581,701,0,0,0,0,0,0,0,0,0,-1,643,323,0,0
-574,701,0,0,0,0,0,0,0,0,0,-1,650,323,0,0
-567,701,0,0,0,0,0,0,0,0,0,-1,657,323,0,0
-560,701,0,0,0,0,0,0,0,0,0,-1,664,323,0,0
-553,701,0,0,0,0,0,0,0,0,0,-1,671,323,0,0
-546,701,0,0,0,0,0,0,0,0,0,-1,678,323,0,0
-539,701,0,0,0,0,0,0,0,0,0,-1,685,323,0,0
-532,701,0,0,0,0,0,0,0,0,0,-1,692,323,0,0
-525,701,0,0,0,0,0,0,0,0,0,-1,699,323,0,0
-518,701,0,0,0,0,0,0,0,0,0,-1,706,323,0,0
-511,701,0,0,0,0,0,0,0,0,0,-1,713,323,0,0
-504,701,0,0,0,0,0,0,0,0,0,-1,720,323,0,0
-497,701,0,0,0,0,0,0,0,0,0,-1,727,323,0,0
-490,701,0,0,0,0,0,0,0,0,0,-1,734,323,0,0
-483,701,0,0,0,0,0,0,0,0,0,-1,741,323,0,0
-476,701,0,0,0,0,0,0,0,0,0,-1,748,323,0,0
-469,701,0,0,0,0,0,0,0,0,0,-1,755,323,0,0
-462,701,0,0,0,0,0,0,0,0,0,-1,762,323,0,0
-455,701,0,0,0,0,0,0,0,0,0,-1,769,323,0,0
-448,701,0,0,0,0,0,0,0,0,0,-1,776,323,0,0
-441,701,0,0,0,0,0,0,0,0,0,-1,783,323,0,0
-434,701,0,0,0,0,0,0,0,0,0,-1,790,323,0,0
-427,701,0,0,0,0,0,0,0,0,0,-1,797,323,0,0
-420,701,0,0,0,0,0,0,0,0,0,-1,804,323,0,0
-413,701,0,0,0,0,0,0,0,0,0,-1,811,323,0,0
-406,701,0,0,0,0,0,0,0,0,0,-1,818,323,0,0
-399,701,0,0,0,0,0,0,0,0,0,-1,825,323,0,0
-392,701,0,0,0,0,0,0,0,0,0,-1,832,323,0,0
-385,701,0,0,0,0,0,0,0,0,0,-1,839,323,0,0
-378,701,0,0,0,0,0,0,0,0,0,-1,846,323,0,0
-371,701,0,0,0,0,0,0,0,0,0,-1,853,323,0,0
-364,701,0,0,0,0,0,0,0,0,0,-1,860,323,0,0
-357,701,0,0,0,0,0,0,0,0,0,-1,867,323,0,0
-350,701,0,0,0,0,0,0,0,0,0,-1,874,323,0,0
-343,701,0,0,0,0,0,0,0,0,0,-1,881,323,0,0
-336,701,0,0,0,0,0,0,0,0,0,-1,888,323,0,0
-329,701,0,0,0,0,0,0,0,0,0,-1,895,323,0,0
-322,701,0,0,0,0,0,0,0,0,0,-1,902,323,0,0
-315,701,0,0,0,0,0,0,0,0,0,-1,909,323,0,0
-308,701,0,0,0,0,0,0,0,0,0,-1,916,323,0,0
-301,701,0,0,0,0,0,0,0,0,0,-1,923,323,0,0
-294,701,0,0,0,0,0,0,0,0,0,-1,930,323,0,0
-287,701,0,0,0,0,0,0,0,0,0,-1,937,323,0,0
-280,701,0,0,0,0,0,0,0,0,0,-1,944,323,0,0
-273,701,0,0,0,0,0,0,0,0,0,-1,951,323,0,0
-266,701,0,0,0,0,0,0,0,0,0,-1,958,323,0,0
-259,701,0,0,0,0,0,0,0,0,0,-1,965,323,0,0
-252,701,0,0,0,0,0,0,0,0,0,-1,972,323,0,0
-245,701,0,0,0,0,0,0,0,0,0,-1,979,323,0,0
-238,701,0,0,0,0,0,0,0,0,0,-1,986,323,0,0
-231,701,0,0,0,0,0,0,0,0,0,-1,993,323,0,0
-224,701,0,0,0,0,0,0,0,0,0,-1,1000,323,0,0
-217,701,0,0,0,0,0,0,0,0,0,-1,1007,323,0,0
-210,701,0,0,0,0,0,0,0,0,0,-1,1014,323,0,0
-203,701,0,0,0,0,0,0,0,0,0,-1,1021,323,0,0
-196,701,0,0,0,0,0,0,0,0,0,-1,1028,323,0,0
-189,701,0,0,0,0,0,0,0,0,0,-1,1035,323,0,0
-182,701,0,0,0,0,0,0,0,0,0,-1,1042,323,0,0
-175,701,0,0,0,0,0,0,0,0,0,-1,1049,323,0,0
-168,701,0,0,0,0,0,0,0,0,0,-1,1056,323,0,0
-161,701,0,0,0,0,0,0,0,0,0,-1,1063,323,0,0
-154,701,0,0,0,0,0,0,0,0,0,-1,1070,323,0,0
-147,701,0,0,0,0,0,0,0,0,0,-1,1077,323,0,0
-140,701,0,0,0,0,0,0,0,0,0,-1,1084,323,0,0
-133,701,0,0,0,0,0,0,0,0,0,-1,1091,323,0,0
-126,701,0,0,0,0,0,0,0,0,0,-1,1098,323,0,0
-119,701,0,0,0,0,0,0,0,0,0,-1,1105,323,0,0
-112,701,0,0,0,0,0,0,0,0,0,-1,1112,323,0,0
-105,701,0,0,0,0,0,0,0,0,0,-1,1119,323,0,0
-98,701,0,0,0,0,0,0,0,0,0,-1,1126,323,0,0
-91,701,0,0,0,0,0,0,0,0,0,-1,1133,323,0,0
-84,701,0,0,0,0,0,0,0,0,0,-1,1140,323,0,0
-77,701,0,0,0,0,0,0,0,0,0,-1,1147,323,0,0
-70,701,-0.323608,0.297058,-0.00283212,0.0135751,-0.00700138,0.0161566,-0.00541362,-1.21755,0.0129582,0.0398284,1154,323,-0.323655,-0.297069
-63,701,-0.291992,0.335693,-0.00473457,0.0154591,-0.0107868,0.0201373,-0.00941273,-1.16158,0.0174312,0.0437351,1161,323,-0.292007,-0.335693
-56,701,-0.255859,0.270844,-0.00739888,0.0144504,-0.0165479,0.0233545,-0.016303,-1.07715,0.0230166,0.0472436,1168,323,-0.255884,-0.270851
-49,701,-0.21875,0.295135,-0.00883119,0.0100115,-0.0231484,0.0255824,-0.0244021,-0.97866,0.0288612,0.0498606,1175,323,-0.218695,-0.295123
-42,701,-0.122559,0.192902,0,0,0,0,0,0,0,-1,1182,323,-0.122522,-0.192914
-35,701,-0.182495,0.501831,0,0,0,0,0,0,0,-1,1189,323,-0.182471,-0.501841
-28,701,0.022583,-1.08295,0,0,0,0,0,0,0,-1,1196,323,0.0226101,1.08294
-21,701,0.934937,-0.432495,0,0,0,0,0,0,0,-1,1203,323,0.934916,0.432486
-14,701,0.813354,-0.946106,-0.0192474,-0.0253468,-0.0516977,0.0294905,-0.0740847,-0.755937,0.061619,0.0469586,1210,323,0.81333,0.946115
-7,701,0.712646,-1.53967,-0.0195315,-0.0326891,-0.0556222,0.0298996,-0.0821202,-0.726533,0.0669762,0.045606,1217,323,0.7127,1.53966
0,701,0.133179,-2.81961,-0.0163673,-0.0377704,-0.0526601,0.0266677,-0.0808054,-0.685153,0.0646205,0.0453293,1224,323,0.133138,2.81962
7,701,-0.0749512,-3.83194,-0.0104542,-0.0395329,-0.0466378,0.023858,-0.0738451,-0.634297,0.0588184,0.0463233,1231,323,-0.0748938,3.83193
14,701,-0.256836,-4.84149,0,0,0,0,0,0,0,-1,1238,323,-0.256811,4.84149
21,701,-1.42957,-0.375214,0,0,0,0,0,0,0,-1,1245,323,-1.4296,0.375201
28,701,-1.04834,-1.74228,0,0,0,0,0,0,0,-1,1252,323,-1.0484,1.74227
35,701,-0.737183,-1.32199,0,0,0,0,0,0,0,-1,1259,323,-0.737194,1.322
42,701,-0.161743,-0.522888,0,0,0,0,0,0,0,-1,1266,323,-0.161736,0.522897
49,701,0.0430908,-0.415131,0.088602,-0.0070005,0.0139325,0.0905911,-0.00898956,0.141805,0.0636027,0.0448223,1273,323,0.043076,0.415117
56,701,0.386963,0.312836,0.105496,-9.08723e-05,0.0231022,0.11033,-0.00492431,0.206245,0.0752483,0.0434653,1280,323,0.387018,-0.312848
63,701,1.04004,1.31265,0.123371,0.00479202,0.0296487,0.130371,-0.00220796,0.231851,0.087659,0.044073,1287,323,1.03999,-1.31265
70,701,2.10278,1.8909,0.139133,0.00480505,0.0306624,0.145801,-0.00186308,0.214135,0.0978278,0.0461889,1294,323,2.10276,-1.89089
77,701,3.27502,2.18512,0.152124,0.00443089,0.0312177,0.158451,-0.0018965,0.199977,0.106272,0.0486537,1301,323,3.27505,-2.18513
84,701,4.03967,2.8493,0.159333,0.00289677,0.0314191,0.165407,-0.00317767,0.19098,0.111346,0.0463705,1308,323,4.03966,-2.8493
91,701,4.82935,3.72824,0.161779,-0.000733806,0.0313118,0.167603,-0.00655801,0.183905,0.113984,0.0427884,1315,323,4.82938,-3.72825
98,701,5.46924,4.87241,0.161004,-0.00529316,0.0317208,0.166849,-0.0111384,0.182227,0.115125,0.0420096,1322,323,5.46925,-4.87241
105,701,6.25403,5.77612,0.157613,-0.0101885,0.0313013,0.163262,-0.0158372,0.178541,0.114486,0.0435195,1329,323,6.25408,-5.77613
112,701,7.08704,6.7825,0.147044,-0.014993,0.0299157,0.152391,-0.0203397,0.176858,0.109008,0.0434607,1336,323,7.08706,-6.78249
119,701,8.0813,7.57281,0.135111,-0.0193584,0.0286863,0.140266,-0.0245136,0.177813,0.102662,0.0450139,1343,323,8.08124,-7.57281
126,701,0.951416,-1.06366,0,0,0,0,0,0,0,-1,1350,323,0.951371,1.06367
133,701,1.6051,-1.12292,0,0,0,0,0,0,0,-1,1357,323,1.60511,1.12293
140,701,2.17065,-1.20935,0,0,0,0,0,0,0,-1,1364,323,2.17071,1.20935
147,701,-1.85303,-0.679962,0,0,0,0,0,0,0,-1,1371,323,-1.85306,0.679959
154,701,-0.175049,-0.676056,0,0,0,0,0,0,0,-1,1378,323,-0.175107,0.676067
161,701,-0.0778809,-0.416779,0.0409803,-0.0305146,0.0114303,0.0427633,-0.0322976,0.154739,0.0434766,0.0427916,1385,323,-0.0779029,0.416773
168,701,-0.00537109,-0.417114,0.0258491,-0.0270142,0.00935956,0.0274573,-0.0286224,0.170163,0.03238,0.0460996,1392,323,-0.00542855,0.417113
175,701,-0.0510254,-0.522125,0,0,0,0,0,0,0,-1,1399,323,-0.0510495,0.522111
182,701,0.195923,-0.595245,0,0,0,0,0,0,0,-1,1406,323,0.19595,0.59524
189,701,0.257813,-0.348907,0,0,0,0,0,0,0,-1,1413,323,0.257765,0.348899
196,701,0,0,0,0,0,0,0,0,0,-1,1420,323,0,0
203,701,0,0,0,0,0,0,0,0,0,-1,1427,323,0,0
210,701,0,0,0,0,0,0,0,0,0,-1,1434,323,0,0
217,701,0,0,0,0,0,0,0,0,0,-1,1441,323,0,0
224,701,0,0,0,0,0,0,0,0,0,-1,1448,323,0,0
231,701,0,0,0,0,0,0,0,0,0,-1,1455,323,0,0
238,701,0,0,0,0,0,0,0,0,0,-1,1462,323,0,0
245,701,0,0,0,0,0,0,0,0,0,-1,1469,323,0,0
252,701,0,0,0,0,0,0,0,0,0,-1,1476,323,0,0
259,701,0,0,0,0,0,0,0,0,0,-1,1483,323,0,0
266,701,0,0,0,0,0,0,0,0,0,-1,1490,323,0,0
273,701,0,0,0,0,0,0,0,0,0,-1,1497,323,0,0
280,701,0,0,0,0,0,0,0,0,0,-1,1504,323,0,0
287,701,0,0,0,0,0,0,0,0,0,-1,1511,323,0,0
294,701,0,0,0,0,0,0,0,0,0,-1,1518,323,0,0
301,701,0,0,0,0,0,0,0,0,0,-1,1525,323,0,0
308,701,0,0,0,0,0,0,0,0,0,-1,1532,323,0,0
315,701,0,0,0,0,0,0,0,0,0,-1,1539,323,0,0
322,701,0,0,0,0,0,0,0,0,0,-1,1546,323,0,0
329,701,0,0,0,0,0,0,0,0,0,-1,1553,323,0,0
336,701,0,0,0,0,0,0,0,0,0,-1,1560,323,0,0
343,701,0,0,0,0,0,0,0,0,0,-1,1567,323,0,0
350,701,0,0,0,0,0,0,0,0,0,-1,1574,323,0,0
357,701,0,0,0,0,0,0,0,0,0,-1,1581,323,0,0
364,701,0,0,0,0,0,0,0,0,0,-1,1588,323,0,0
371,701,0,0,0,0,0,0,0,0,0,-1,1595,323,0,0
378,701,0,0,0,0,0,0,0,0,0,-1,1602,323,0,0
385,701,0,0,0,0,0,0,0,0,0,-1,1609,323,0,0
392,701,0,0,0,0,0,0,0,0,0,-1,1616,323,0,0
399,701,0,0,0,0,0,0,0,0,0,-1,1623,323,0,0
406,701,0,0,0,0,0,0,0,0,0,-1,1630,323,0,0
413,701,0,0,0,0,0,0,0,0,0,-1,1637,323,0,0
420,701,0,0,0,0,0,0,0,0,0,-1,1644,323,0,0
427,701,0,0,0,0,0,0,0,0,0,-1,1651,323,0,0
434,701,0,0,0,0,0,0,0,0,0,-1,1658,323,0,0
441,701,0,0,0,0,0,0,0,0,0,-1,1665,323,0,0
448,701,0,0,0,0,0,0,0,0,0,-1,1672,323,0,0
455,701,0,0,0,0,0,0,0,0,0,-1,1679,323,0,0
462,701,0,0,0,0,0,0,0,0,0,-1,1686,323,0,0
469,701,0,0,0,0,0,0,0,0,0,-1,1693,323,0,0
476,701,0,0,0,0,0,0,0,0,0,-1,1700,323,0,0
483,701,0,0,0,0,0,0,0,0,0,-1,1707,323,0,0
490,701,0,0,0,0,0,0,0,0,0,-1,1714,323,0,0
497,701,0,0,0,0,0,0,0,0,0,-1,1721,323,0,0
504,701,0,0,0,0,0,0,0,0,0,-1,1728,323,0,0
511,701,0,0,0,0,0,0,0,0,0,-1,1735,323,0,0
518,701,0,0,0,0,0,0,0,0,0,-1,1742,323,0,0
525,701,0,0,0,0,0,0,0,0,0,-1,1749,323,0,0
532,701,0,0,0,0,0,0,0,0,0,-1,1756,323,0,0
539,701,0,0,0,0,0,0,0,0,0,-1,1763,323,0,0
546,701,0,0,0,0,0,0,0,0,0,-1,1770,323,0,0
553,701,0,0,0,0,0,0,0,0,0,-1,1777,323,0,0
560,701,0,0,0,0,0,0,0,0,0,-1,1784,323,0,0
567,701,0,0,0,0,0,0,0,0,0,-1,1791,323,0,0
574,701,0,0,0,0,0,0,0,0,0,-1,1798,323,0,0
581,701,0,0,0,0,0,0,0,0,0,-1,1805,323,0,0
588,701,0,0,0,0,0,0,0,0,0,-1,1812,323,0,0
595,701,0,0,0,0,0,0,0,0,0,-1,1819,323,0,0
602,701,0,0,0,0,0,0,0,0,0,-1,1826,323,0,0
609,701,0,0,0,0,0,0,0,0,0,-1,1833,323,0,0
616,701,0,0,0,0,0,0,0,0,0,-1,1840,323,0,0
623,701,0,0,0,0,0,0,0,0,0,-1,1847,323,0,0
630,701,0,0,0,0,0,0,0,0,0,-1,1854,323,0,0
637,701,0,0,0,0,0,0,0,0,0,-1,1861,323,0,0
644,701,0,0,0,0,0,0,0,0,0,-1,1868,323,0,0
651,701,0,0,0,0,0,0,0,0,0,-1,1875,323,0,0
658,701,0,0,0,0,0,0,0,0,0,-1,1882,323,0,0
665,701,0,0,0,0,0,0,0,0,0,-1,1889,323,0,0
672,701,0,0,0,0,0,0,0,0,0,-1,1896,323,0,0
679,701,0,0,0,0,0,0,0,0,0,-1,1903,323,0,0
686,701,0,0,0,0,0,0,0,0,0,-1,1910,323,0,0
693,701,0,0,0,0,0,0,0,0,0,-1,1917,323,0,0
700,701,0,0,0,0,0,0,0,0,0,-1,1924,323,0,0
707,701,0,0,0,0,0,0,0,0,0,-1,1931,323,0,0
714,701,0,0,0,0,0,0,0,0,0,-1,1938,323,0,0
721,701,0,0,0,0,0,0,0,0,0,-1,1945,323,0,0
728,701,0,0,0,0,0,0,0,0,0,-1,1952,323,0,0
735,701,0,0,0,0,0,0,0,0,0,-1,1959,323,0,0
742,701,0,0,0,0,0,0,0,0,0,-1,1966,323,0,0
749,701,0,0,0,0,0,0,0,0,0,-1,1973,323,0,0
756,701,0,0,0,0,0,0,0,0,0,-1,1980,323,0,0
763,701,0,0,0,0,0,0,0,0,0,-1,1987,323,0,0
770,701,0,0,0,0,0,0,0,0,0,-1,1994,323,0,0
777,701,0,0,0,0,0,0,0,0,0,-1,2001,323,0,0
784,701,0,0,0,0,0,0,0,0,0,-1,2008,323,0,0
791,701,0,0,0,0,0,0,0,0,0,-1,2015,323,0,0
798,701,0,0,0,0,0,0,0,0,0,-1,2022,323,0,0
805,701,0,0,0,0,0,0,0,0,0,-1,2029,323,0,0
812,701,0,0,0,0,0,0,0,0,0,-1,2036,323,0,0
-700,694,0,0,0,0,0,0,0,0,0,-1,524,330,0,0
-693,694,0,0,0,0,0,0,0,0,0,-1,531,330,0,0
-686,694,0,0,0,0,0,0,0,0,0,-1,538,330,0,0
-679,694,0,0,0,0,0,0,0,0,0,-1,545,330,0,0
-672,694,0,0,0,0,0,0,0,0,0,-1,552,330,0,0
-665,694,0,0,0,0,0,0,0,0,0,-1,559,330,0,0
-658,694,0,0,0,0,0,0,0,0,0,-1,566,330,0,0
-651,694,0,0,0,0,0,0,0,0,0,-1,573,330,0,0
-644,694,0,0,0,0,0,0,0,0,0,-1,580,330,0,0
-637,694,0,0,0,0,0,0,0,0,0,-1,587,330,0,0
-630,694,0,0,0,0,0,0,0,0,0,-1,594,330,0,0
-623,694,0,0,0,0,0,0,0,0,0,-1,601,330,0,0
-616,694,0,0,0,0,0,0,0,0,0,-1,608,330,0,0
-609,694,0,0,0,0,0,0,0,0,0,-1,615,330,0,0
-602,694,0,0,0,0,0,0,0,0,0,-1,622,330,0,0
-595,694,0,0,0,0,0,0,0,0,0,-1,629,330,0,0
-588,694,0,0,0,0,0,0,0,0,0,-1,636,330,0,0
-581,694,0,0,0,0,0,0,0,0,0,-1,643,330,0,0
-574,694,0,0,0,0,0,0,0,0,0,-1,650,330,0,0
-567,694,0,0,0,0,0,0,0,0,0,-1,657,330,0,0
-560,694,0,0,0,0,0,0,0,0,0,-1,664,330,0,0
-553,694,0,0,0,0,0,0,0,0,0,-1,671,330,0,0
-546,694,0,0,0,0,0,0,0,0,0,-1,678,330,0,0
-539,694,0,0,0,0,0,0,0,0,0,-1,685,330,0,0
-532,694,0,0,0,0,0,0,0,0,0,-1,692,330,0,0
-525,694,0,0,0,0,0,0,0,0,0,-1,699,330,0,0
-518,694,0,0,0,0,0,0,0,0,0,-1,706,330,0,0
-511,694,0,0,0,0,0,0,0,0,0,-1,713,330,0,0
-504,694,0,0,0,0,0,0,0,0,0,-1,720,330,0,0
-497,694,0,0,0,0,0,0,0,0,0,-1,727,330,0,0
-490,694,0,0,0,0,0,0,0,0,0,-1,734,330,0,0
-483,694,0,0,0,0,0,0,0,0,0,-1,741,330,0,0
-476,694,0,0,0,0,0,0,0,0,0,-1,748,330,0,0
-469,694,0,0,0,0,0,0,0,0,0,-1,755,330,0,0
-462,694,0,0,0,0,0,0,0,0,0,-1,762,330,0,0
-455,694,0,0,0,0,0,0,0,0,0,-1,769,330,0,0
-448,694,0,0,0,0,0,0,0,0,0,-1,776,330,0,0
-441,694,0,0,0,0,0,0,0,0,0,-1,783,330,0,0
-434,694,0,0,0,0,0,0,0,0,0,-1,790,330,0,0
-427,694,0,0,0,0,0,0,0,0,0,-1,797,330,0,0
-420,694,0,0,0,0,0,0,0,0,0,-1,804,330,0,0
-413,694,0,0,0,0,0,0,0,0,0,-1,811,330,0,0
-406,694,0,0,0,0,0,0,0,0,0,-1,818,330,0,0
-399,694,0,0,0,0,0,0,0,0,0,-1,825,330,0,0
-392,694,0,0,0,0,0,0,0,0,0,-1,832,330,0,0
-385,694,0,0,0,0,0,0,0,0,0,-1,839,330,0,0
-378,694,0,0,0,0,0,0,0,0,0,-1,846,330,0,0
-371,694,0,0,0,0,0,0,0,0,0,-1,853,330,0,0
-364,694,0,0,0,0,0,0,0,0,0,-1,860,330,0,0
-357,694,0,0,0,0,0,0,0,0,0,-1,867,330,0,0
-350,694,0,0,0,0,0,0,0,0,0,-1,874,330,0,0
-343,694,0,0,0,0,0,0,0,0,0,-1,881,330,0,0
-336,694,0,0,0,0,0,0,0,0,0,-1,888,330,0,0
-329,694,0,0,0,0,0,0,0,0,0,-1,895,330,0,0
-322,694,0,0,0,0,0,0,0,0,0,-1,902,330,0,0
-315,694,0,0,0,0,0,0,0,0,0,-1,909,330,0,0
-308,694,0,0,0,0,0,0,0,0,0,-1,916,330,0,0
-301,694,0,0,0,0,0,0,0,0,0,-1,923,330,0,0
-294,694,0,0,0,0,0,0,0,0,0,-1,930,330,0,0
-287,694,0,0,0,0,0,0,0,0,0,-1,937,330,0,0
-280,694,0,0,0,0,0,0,0,0,0,-1,944,330,0,0
-273,694,0,0,0,0,0,0,0,0,0,-1,951,330,0,0
-266,694,0,0,0,0,0,0,0,0,0,-1,958,330,0,0
-259,694,0,0,0,0,0,0,0,0,0,-1,965,330,0,0
-252,694,0,0,0,0,0,0,0,0,0,-1,972,330,0,0
-245,694,0,0,0,0,0,0,0,0,0,-1,979,330,0,0
-238,694,0,0,0,0,0,0,0,0,0,-1,986,330,0,0
-231,694,0,0,0,0,0,0,0,0,0,-1,993,330,0,0
-224,694,0,0,0,0,0,0,0,0,0,-1,1000,330,0,0
-217,694,0,0,0,0,0,0,0,0,0,-1,1007,330,0,0
-210,694,0,0,0,0,0,0,0,0,0,-1,1014,330,0,0
-203,694,0,0,0,0,0,0,0,0,0,-1,1021,330,0,0
-196,694,0,0,0,0,0,0,0,0,0,-1,1028,330,0,0
-189,694,0,0,0,0,0,0,0,0,0,-1,1035,330,0,0
-182,694,0,0,0,0,0,0,0,0,0,-1,1042,330,0,0
-175,694,0,0,0,0,0,0,0,0,0,-1,1049,330,0,0
-168,694,0,0,0,0,0,0,0,0,0,-1,1056,330,0,0
-161,694,0,0,0,0,0,0,0,0,0,-1,1063,330,0,0
-154,694,0,0,0,0,0,0,0,0,0,-1,1070,330,0,0
-147,694,0,0,0,0,0,0,0,0,0,-1,1077,330,0,0
-140,694,0,0,0,0,0,0,0,0,0,-1,1084,330,0,0
-133,694,0,0,0,0,0,0,0,0,0,-1,1091,330,0,0
-126,694,0,0,0,0,0,0,0,0,0,-1,1098,330,0,0
-119,694,0,0,0,0,0,0,0,0,0,-1,1105,330,0,0
-112,694,0,0,0,0,0,0,0,0,0,-1,1112,330,0,0
-105,694,0.112793,-0.25058,-0.0107791,-0.0203509,0.00816362,-0.00610189,-0.025028,0.520275,0.015069,0.0425442,1119,330,0.112817,0.250593
-98,694,-0.153442,-0.400726,-0.00835979,-0.0152277,0.00486313,-0.00584043,-0.0177471,0.477986,0.0104439,0.0424016,1126,330,-0.153396,0.400738
-91,694,-0.175415,-0.411835,-0.0065574,-0.010352,0.00214763,-0.00558902,-0.0113203,0.423605,0.00653597,0.0416268,1133,330,-0.175363,0.411832
-84,694,-0.241455,-0.024231,-0.00539751,-0.00478203,-0.000661927,-0.0043598,-0.00581974,-1.00299,0.0034963,0.0450295,1140,330,-0.241437,0.0242282
-77,694,-0.151367,0.222137,-0.00370665,0.00271429,-0.00380889,0.00448526,-0.00547762,-1.13557,0.00576158,0.040723,1147,330,-0.151345,-0.222122
-70,694,-0.228638,0.332764,-0.00302636,0.00932811,-0.00656082,0.0121621,-0.00586037,-1.16305,0.0106152,0.0374086,1154,330,-0.228684,-0.332776
-63,694,-0.21167,0.407715,-0.00453122,0.0113829,-0.00957406,0.0158749,-0.00902314,-1.13211,0.0145552,0.0420373,1161,330,-0.211622,-0.407722
-56,694,-0.266602,0.263947,-0.00689531,0.011089,-0.0138902,0.0186437,-0.0144499,-1.07266,0.0191577,0.0430525,1168,330,-0.266601,-0.263953
-49,694,-0.258545,0.012207,-0.00816085,0.00781447,-0.0190401,0.0204746,-0.0208209,-0.984007,0.0238422,0.0438795,1175,330,-0.258511,-0.0122169
-42,694,0.0324707,1.76776,0,0,0,0,0,0,0,-1,1182,330,0.0324483,-1.76775
-35,694,-0.135742,0.44162,0,0,0,0,0,0,0,-1,1189,330,-0.135709,-0.441615
-28,694,-0.303833,-0.884521,0,0,0,0,0,0,0,-1,1196,330,-0.303865,0.884524
-21,694,0.813965,-0.176056,0,0,0,0,0,0,0,-1,1203,330,0.814022,0.176056
-14,694,0.661011,-0.661621,-0.0161675,-0.0201723,-0.0413283,0.0232069,-0.0595467,-0.761191,0.0492895,0.0451278,1210,330,0.660971,0.661635
-7,694,0.511108,-1.23056,-0.0159885,-0.0257501,-0.0441638,0.0235634,-0.0653019,-0.730364,0.0531593,0.0423112,1217,330,0.511167,1.23057
0,694,0.182739,-2.20425,-0.0133197,-0.0298471,-0.0420383,0.0212595,-0.0644263,-0.688348,0.0515208,0.0413025,1224,330,0.182704,2.20424
7,694,-0.0445557,-3.24628,-0.008748,-0.0313634,-0.0375042,0.0191161,-0.0592274,-0.63898,0.0471664,0.0443592,1231,330,-0.0446016,3.24629
14,694,-0.247437,-4.1864,0,0,0,0,0,0,0,-1,1238,330,-0.24747,4.18642
21,694,-0.420288,-5.09836,0,0,0,0,0,0,0,-1,1245,330,-0.420331,5.09835
28,694,-0.741455,-0.115387,0,0,0,0,0,0,0,-1,1252,330,-0.741451,0.115373
35,694,-0.572632,-0.35968,0,0,0,0,0,0,0,-1,1259,330,-0.572654,0.359667
42,694,-0.13208,0.030304,0,0,0,0,0,0,0,-1,1266,330,-0.132082,-0.0303019
49,694,0.0181885,-0.0818481,0.078355,-0.0057988,0.0127563,0.0802462,-0.00768995,0.14718,0.0562363,0.0450712,1273,330,0.018224,0.0818427
56,694,0.414917,0.311432,0.0936099,-0.000518962,0.0201246,0.097732,-0.00464106,0.202034,0.0667555,0.0427117,1280,330,0.414934,-0.311422
63,694,1.15039,1.09915,0.109018,0.00305837,0.025277,0.114739,-0.00266262,0.222582,0.0773955,0.0425553,1287,330,1.15043,-1.09916
70,694,2.09802,1.97186,0.122581,0.00295281,0.0262671,0.128095,-0.00256063,0.206895,0.0862626,0.0431481,1294,330,2.09807,-1.97187
77,694,3.89148,1.99179,0,0,0,0,0,0,0,-1,1301,330,3.89147,-1.99179
84,694,4.54883,2.73697,0,0,0,0,0,0,0,-1,1308,330,4.54887,-2.73697
91,694,5.20825,3.90918,0.141944,-0.00181671,0.0270887,0.146879,-0.0067516,0.180199,0.100246,0.0449012,1315,330,5.20823,-3.90919
98,694,5.8064,4.88925,0.141417,-0.00550099,0.0274954,0.146394,-0.0104781,0.179077,0.101269,0.0446668,1322,330,5.80634,-4.88924
105,694,-0.187134,0.36438,0,0,0,0,0,0,0,-1,1329,330,-0.187086,-0.364375
112,694,-0.513062,0.110596,0,0,0,0,0,0,0,-1,1336,330,-0.5131,-0.110595
119,694,-0.60376,-0.206635,0,0,0,0,0,0,0,-1,1343,330,-0.603803,0.206643
126,694,0.58606,-0.937286,0,0,0,0,0,0,0,-1,1350,330,0.586098,0.937297
133,694,1.18201,-0.941376,0.0921049,-0.0239217,0.0221966,0.0962063,-0.028023,0.182714,0.0752387,0.0439269,1357,330,1.182,0.941381
140,694,1.79578,-1.00552,0.073075,-0.0276007,0.0194057,0.076686,-0.0312117,0.183976,0.0641125,0.0456017,1364,330,1.79579,1.00554
147,694,2.50195,-0.999512,0,0,0,0,0,0,0,-1,1371,330,2.5019,0.999524
154,694,-0.106079,-0.0659485,0,0,0,0,0,0,0,-1,1378,330,-0.10608,0.0659534
161,694,0.196289,-0.24707,0.0328226,-0.0269126,0.0111849,0.0348482,-0.0289382,0.179158,0.0368797,0.0465582,1385,330,0.196337,0.247061
168,694,0.0644531,-0.327515,0.0213318,-0.0244189,0.00974862,0.0233225,-0.0264095,0.201427,0.0287312,0.0463655,1392,330,0.0644553,0.327525
175,694,-0.157227,-0.32016,0.0103789,-0.0200999,0.00759011,0.0121644,-0.0218855,0.231046,0.019924,0.0495076,1399,330,-0.157214,0.320158
182,694,0.273438,-1.3898,0,0,0,0,0,0,0,-1,1406,330,0.27341,1.38981
189,694,0.0374756,-0.907806,0,0,0,0,0,0,0,-1,1413,330,0.0374511,0.907816
196,694,-0.0550537,-0.702057,-0.00698244,-0.0061415,0.0039777,-0.0025621,-0.0105618,0.838056,0.00636156,0.0413847,1420,330,-0.0550991,0.702058
203,694,-0.149048,-0.439514,-0.0118048,-0.00255558,0.00378324,-0.00120525,-0.0131551,1.22796,0.00839719,0.0429685,1427,330,-0.14903,0.439503
210,694,-0.259033,-0.184265,-0.0148173,0.000759426,0.00571486,0.00263119,-0.0166891,1.25428,0.0120989,0.0427823,1434,330,-0.258985,0.184256
217,694,-0.30835,-0.187195,0,0,0,0,0,0,0,-1,1441,330,-0.308344,0.187182
224,694,-0.314941,-0.0141296,0,0,0,0,0,0,0,-1,1448,330,-0.314918,0.0141382
231,694,0,0,0,0,0,0,0,0,0,-1,1455,330,0,0
238,694,0,0,0,0,0,0,0,0,0,-1,1462,330,0,0
245,694,0,0,0,0,0,0,0,0,0,-1,1469,330,0,0
252,694,0,0,0,0,0,0,0,0,0,-1,1476,330,0,0
259,694,0,0,0,0,0,0,0,0,0,-1,1483,330,0,0
266,694,0,0,0,0,0,0,0,0,0,-1,1490,330,0,0
273,694,0,0,0,0,0,0,0,0,0,-1,1497,330,0,0
280,694,0,0,0,0,0,0,0,0,0,-1,1504,330,0,0
287,694,0,0,0,0,0,0,0,0,0,-1,1511,330,0,0
294,694,0,0,0,0,0,0,0,0,0,-1,1518,330,0,0
301,694,0,0,0,0,0,0,0,0,0,-1,1525,330,0,0
308,694,0,0,0,0,0,0,0,0,0,-1,1532,330,0,0
315,694,0,0,0,0,0,0,0,0,0,-1,1539,330,0,0
322,694,0,0,0,0,0,0,0,0,0,-1,1546,330,0,0
329,694,0,0,0,0,0,0,0,0,0,-1,1553,330,0,0
336,694,0,0,0,0,0,0,0,0,0,-1,1560,330,0,0
343,694,0,0,0,0,0,0,0,0,0,-1,1567,330,0,0
350,694,0,0,0,0,0,0,0,0,0,-1,1574,330,0,0
357,694,0,0,0,0,0,0,0,0,0,-1,1581,330,0,0
364,694,0,0,0,0,0,0,0,0,0,-1,1588,330,0,0
371,694,0,0,0,0,0,0,0,0,0,-1,1595,330,0,0
378,694,0,0,0,0,0,0,0,0,0,-1,1602,330,0,0
385,694,0,0,0,0,0,0,0,0,0,-1,1609,330,0,0
392,694,0,0,0,0,0,0,0,0,0,-1,1616,330,0,0
399,694,0,0,0,0,0,0,0,0,0,-1,1623,330,0,0
406,694,0,0,0,0,0,0,0,0,0,-1,1630,330,0,0
413,694,0,0,0,0,0,0,0,0,0,-1,1637,330,0,0
420,694,0,0,0,0,0,0,0,0,0,-1,1644,330,0,0
427,694,0,0,0,0,0,0,0,0,0,-1,1651,330,0,0
434,694,0,0,0,0,0,0,0,0,0,-1,1658,330,0,0
441,694,0,0,0,0,0,0,0,0,0,-1,1665,330,0,0
448,694,0,0,0,0,0,0,0,0,0,-1,1672,330,0,0
455,694,0,0,0,0,0,0,0,0,0,-1,1679,330,0,0
462,694,0,0,0,0,0,0,0,0,0,-1,1686,330,0,0
469,694,0,0,0,0,0,0,0,0,0,-1,1693,330,0,0
476,694,0,0,0,0,0,0,0,0,0,-1,1700,330,0,0
483,694,0,0,0,0,0,0,0,0,0,-1,1707,330,0,0
490,694,0,0,0,0,0,0,0,0,0,-1,1714,330,0,0
497,694,0,0,0,0,0,0,0,0,0,-1,1721,330,0,0
504,694,0,0,0,0,0,0,0,0,0,-1,1728,330,0,0
511,694,0,0,0,0,0,0,0,0,0,-1,1735,330,0,0
518,694,0,0,0,0,0,0,0,0,0,-1,1742,330,0,0
525,694,0,0,0,0,0,0,0,0,0,-1,1749,330,0,0
532,694,0,0,0,0,0,0,0,0,0,-1,1756,330,0,0
539,694,0,0,0,0,0,0,0,0,0,-1,1763,330,0,0
546,694,0,0,0,0,0,0,0,0,0,-1,1770,330,0,0
553,694,0,0,0,0,0,0,0,0,0,-1,1777,330,0,0
560,694,0,0,0,0,0,0,0,0,0,-1,1784,330,0,0
567,694,0,0,0,0,0,0,0,0,0,-1,1791,330,0,0
574,694,0,0,0,0,0,0,0,0,0,-1,1798,330,0,0
581,694,0,0,0,0,0,0,0,0,0,-1,1805,330,0,0
588,694,0,0,0,0,0,0,0,0,0,-1,1812,330,0,0
595,694,0,0,0,0,0,0,0,0,0,-1,1819,330,0,0
602,694,0,0,0,0,0,0,0,0,0,-1,1826,330,0,0
609,694,0,0,0,0,0,0,0,0,0,-1,1833,330,0,0
616,694,0,0,0,0,0,0,0,0,0,-1,1840,330,0,0
623,694,0,0,0,0,0,0,0,0,0,-1,1847,330,0,0
630,694,0,0,0,0,0,0,0,0,0,-1,1854,330,0,0
637,694,0,0,0,0,0,0,0,0,0,-1,1861,330,0,0
644,694,0,0,0,0,0,0,0,0,0,-1,1868,330,0,0
651,694,0,0,0,0,0,0,0,0,0,-1,1875,330,0,0
658,694,0,0,0,0,0,0,0,0,0,-1,1882,330,0,0
665,694,0,0,0,0,0,0,0,0,0,-1,1889,330,0,0
672,694,0,0,0,0,0,0,0,0,0,-1,1896,330,0,0
679,694,0,0,0,0,0,0,0,0,0,-1,1903,330,0,0
686,694,0,0,0,0,0,0,0,0,0,-1,1910,330,0,0
693,694,0,0,0,0,0,0,0,0,0,-1,1917,330,0,0
700,694,0,0,0,0,0,0,0,0,0,-1,1924,330,0,0
707,694,0,0,0,0,0,0,0,0,0,-1,1931,330,0,0
714,694,0,0,0,0,0,0,0,0,0,-1,1938,330,0,0
721,694,0,0,0,0,0,0,0,0,0,-1,1945,330,0,0
728,694,0,0,0,0,0,0,0,0,0,-1,1952,330,0,0
735,694,0,0,0,0,0,0,0,0,0,-1,1959,330,0,0
742,694,0,0,0,0,0,0,0,0,0,-1,1966,330,0,0
749,694,0,0,0,0,0,0,0,0,0,-1,1973,330,0,0
756,694,0,0,0,0,0,0,0,0,0,-1,1980,330,0,0
763,694,0,0,0,0,0,0,0,0,0,-1,1987,330,0,0
770,694,0,0,0,0,0,0,0,0,0,-1,1994,330,0,0
777,694,0,0,0,0,0,0,0,0,0,-1,2001,330,0,0
784,694,0,0,0,0,0,0,0,0,0,-1,2008,330,0,0
791,694,0,0,0,0,0,0,0,0,0,-1,2015,330,0,0
798,694,0,0,0,0,0,0,0,0,0,-1,2022,330,0,0
805,694,0,0,0,0,0,0,0,0,0,-1,2029,330,0,0
812,694,0,0,0,0,0,0,0,0,0,-1,2036,330,0,0
-700,687,0,0,0,0,0,0,0,0,0,-1,524,337,0,0
-693,687,0,0,0,0,0,0,0,0,0,-1,531,337,0,0
-686,687,0,0,0,0,0,0,0,0,0,-1,538,337,0,0
-679,687,0,0,0,0,0,0,0,0,0,-1,545,337,0,0
-672,687,0,0,0,0,0,0,0,0,0,-1,552,337,0,0
-665,687,0,0,0,0,0,0,0,0,0,-1,559,337,0,0
-658,687,0,0,0,0,0,0,0,0,0,-1,566,337,0,0
-651,687,0,0,0,0,0,0,0,0,0,-1,573,337,0,0
-644,687,0,0,0,0,0,0,0,0,0,-1,580,337,0,0
-637,687,0,0,0,0,0,0,0,0,0,-1,587,337,0,0
-630,687,0,0,0,0,0,0,0,0,0,-1,594,337,0,0
-623,687,0,0,0,0,0,0,0,0,0,-1,601,337,0,0
-616,687,0,0,0,0,0,0,0,0,0,-1,608,337,0,0
-609,687,0,0,0,0,0,0,0,0,0,-1,615,337,0,0
-602,687,0,0,0,0,0,0,0,0,0,-1,622,337,0,0
-595,687,0,0,0,0,0,0,0,0,0,-1,629,337,0,0
-588,687,0,0,0,0,0,0,0,0,0,-1,636,337,0,0
-581,687,0,0,0,0,0,0,0,0,0,-1,643,337,0,0
-574,687,0,0,0,0,0,0,0,0,0,-1,650,337,0,0
-567,687,0,0,0,0,0,0,0,0,0,-1,657,337,0,0
-560,687,0,0,0,0,0,0,0,0,0,-1,664,337,0,0
-553,687,0,0,0,0,0,0,0,0,0,-1,671,337,0,0
-546,687,0,0,0,0,0,0,0,0,0,-1,678,337,0,0
-539,687,0,0,0,0,0,0,0,0,0,-1,685,337,0,0
-532,687,0,0,0,0,0,0,0,0,0,-1,692,337,0,0
-525,687,0,0,0,0,0,0,0,0,0,-1,699,337,0,0
-518,687,0,0,0,0,0,0,0,0,0,-1,706,337,0,0
-511,687,0,0,0,0,0,0,0,0,0,-1,713,337,0,0
-504,687,0,0,0,0,0,0,0,0,0,-1,720,337,0,0
-497,687,0,0,0,0,0,0,0,0,0,-1,727,337,0,0
-490,687,0,0,0,0,0,0,0,0,0,-1,734,337,0,0
-483,687,0,0,0,0,0,0,0,0,0,-1,741,337,0,0
-476,687,0,0,0,0,0,0,0,0,0,-1,748,337,0,0
-469,687,0,0,0,0,0,0,0,0,0,-1,755,337,0,0
-462,687,0,0,0,0,0,0,0,0,0,-1,762,337,0,0
-455,687,0,0,0,0,0,0,0,0,0,-1,769,337,0,0
-448,687,0,0,0,0,0,0,0,0,0,-1,776,337,0,0
-441,687,0,0,0,0,0,0,0,0,0,-1,783,337,0,0
-434,687,0,0,0,0,0,0,0,0,0,-1,790,337,0,0
-427,687,0,0,0,0,0,0,0,0,0,-1,797,337,0,0
-420,687,0,0,0,0,0,0,0,0,0,-1,804,337,0,0
-413,687,0,0,0,0,0,0,0,0,0,-1,811,337,0,0
-406,687,0,0,0,0,0,0,0,0,0,-1,818,337,0,0
-399,687,0,0,0,0,0,0,0,0,0,-1,825,337,0,0
-392,687,0,0,0,0,0,0,0,0,0,-1,832,337,0,0
-385,687,0,0,0,0,0,0,0,0,0,-1,839,337,0,0
-378,687,0,0,0,0,0,0,0,0,0,-1,846,337,0,0
-371,687,0,0,0,0,0,0,0,0,0,-1,853,337,0,0
-364,687,0,0,0,0,0,0,0,0,0,-1,860,337,0,0
-357,687,0,0,0,0,0,0,0,0,0,-1,867,337,0,0
-350,687,0,0,0,0,0,0,0,0,0,-1,874,337,0,0
-343,687,0,0,0,0,0,0,0,0,0,-1,881,337,0,0
-336,687,0,0,0,0,0,0,0,0,0,-1,888,337,0,0
-329,687,0,0,0,0,0,0,0,0,0,-1,895,337,0,0
-322,687,0,0,0,0,0,0,0,0,0,-1,902,337,0,0
-315,687,0,0,0,0,0,0,0,0,0,-1,909,337,0,0
-308,687,0,0,0,0,0,0,0,0,0,-1,916,337,0,0
-301,687,0,0,0,0,0,0,0,0,0,-1,923,337,0,0
-294,687,0,0,0,0,0,0,0,0,0,-1,930,337,0,0
-287,687,0,0,0,0,0,0,0,0,0,-1,937,337,0,0
-280,687,0,0,0,0,0,0,0,0,0,-1,944,337,0,0
-273,687,0,0,0,0,0,0,0,0,0,-1,951,337,0,0
-266,687,0,0,0,0,0,0,0,0,0,-1,958,337,0,0
-259,687,0,0,0,0,0,0,0,0,0,-1,965,337,0,0
-252,687,0,0,0,0,0,0,0,0,0,-1,972,337,0,0
-245,687,0,0,0,0,0,0,0,0,0,-1,979,337,0,0
-238,687,0,0,0,0,0,0,0,0,0,-1,986,337,0,0
-231,687,0,0,0,0,0,0,0,0,0,-1,993,337,0,0
-224,687,0,0,0,0,0,0,0,0,0,-1,1000,337,0,0
-217,687,0,0,0,0,0,0,0,0,0,-1,1007,337,0,0
-210,687,0,0,0,0,0,0,0,0,0,-1,1014,337,0,0
-203,687,0,0,0,0,0,0,0,0,0,-1,1021,337,0,0
-196,687,0,0,0,0,0,0,0,0,0,-1,1028,337,0,0
-189,687,0,0,0,0,0,0,0,0,0,-1,1035,337,0,0
-182,687,0,0,0,0,0,0,0,0,0,-1,1042,337,0,0
-175,687,0,0,0,0,0,0,0,0,0,-1,1049,337,0,0
-168,687,0,0,0,0,0,0,0,0,0,-1,1056,337,0,0
-161,687,0,0,0,0,0,0,0,0,0,-1,1063,337,0,0
-154,687,0,0,0,0,0,0,0,0,0,-1,1070,337,0,0
-147,687,0,0,0,0,0,0,0,0,0,-1,1077,337,0,0
-140,687,0,0,0,0,0,0,0,0,0,-1,1084,337,0,0
-133,687,0.582764,-0.897614,0,0,0,0,0,0,0,-1,1091,337,0.582705,0.897613
-126,687,0.283325,-0.931091,0,0,0,0,0,0,0,-1,1098,337,0.283299,0.93108
-119,687,0.182739,-0.474976,-0.0116502,-0.0209552,0.0116804,-0.00372977,-0.0288756,0.59587,0.0181355,0.0393462,1105,337,0.182765,0.474975
-112,687,0.0924072,0.0322571,-0.00995397,-0.0191349,0.00911122,-0.00434216,-0.0247468,0.552046,0.0152578,0.0420468,1112,337,0.0923641,-0.0322503
-105,687,-0.0975342,-0.0842285,-0.00845603,-0.0164436,0.00610535,-0.00515422,-0.0197454,0.495758,0.011826,0.043584,1119,337,-0.0975701,0.0842357
-98,687,-0.369263,-0.314697,-0.00672116,-0.012503,0.00333694,-0.00519703,-0.0140271,0.428448,0.00818858,0.0419724,1126,337,-0.369236,0.314684
-91,687,-0.309814,-0.411102,-0.00544245,-0.00875371,0.001216,-0.00504387,-0.00915229,0.316742,0.00529327,0.0421374,1133,337,-0.309875,0.411114
-84,687,-0.145996,-0.193604,-0.00460008,-0.00448715,-0.000986954,-0.00355504,-0.00553218,-0.813974,0.00323702,0.0406574,1140,337,-0.145949,0.1936
-77,687,0.286011,-0.0238647,-0.00331803,0.00120272,-0.00353641,0.00313942,-0.00525474,-1.06976,0.0048974,0.0414598,1147,337,0.286023,0.0238647
-70,687,0.227295,0.0147705,-0.00279428,0.00639629,-0.00581431,0.009212,-0.00560999,-1.11981,0.0086413,0.0401388,1154,337,0.227339,-0.0147743
-63,687,0.14209,-0.0222473,-0.00396365,0.00832805,-0.00818776,0.0124199,-0.00805553,-1.10735,0.0119107,0.0400226,1161,337,0.142131,0.0222606
-56,687,-0.297119,-0.152191,-0.00597703,0.00844951,-0.0113552,0.0146888,-0.0122163,-1.06836,0.0155555,0.0399288,1168,337,-0.297078,0.152202
-49,687,-0.379761,-0.367828,-0.00707525,0.0061801,-0.015243,0.0161739,-0.0170691,-0.99047,0.0191952,0.0407668,1175,337,-0.379706,0.367827
-42,687,0.0725098,1.60648,0,0,0,0,0,0,0,-1,1182,337,0.0724613,-1.60648
-35,687,-0.0855713,0.352081,0,0,0,0,0,0,0,-1,1189,337,-0.0855853,-0.352091
-28,687,-0.243652,-0.902283,0,0,0,0,0,0,0,-1,1196,337,-0.243632,0.902294
-21,687,0.541382,0.203094,0,0,0,0,0,0,0,-1,1203,337,0.541398,-0.203084
-14,687,0.412109,-0.260986,0,0,0,0,0,0,0,-1,1210,337,0.412146,0.261
-7,687,-0.374268,-0.099884,0,0,0,0,0,0,0,-1,1217,337,-0.374279,0.099896
0,687,0.20752,-1.57974,-0.0105287,-0.0227594,-0.0325448,0.0164703,-0.0497584,-0.692528,0.0398146,0.0451469,1224,337,0.207475,1.57973
7,687,0.281616,-2.7197,-0.00702037,-0.0239304,-0.0290996,0.0148276,-0.0457784,-0.644014,0.0364802,0.0445004,1231,337,0.281651,2.71971
14,687,0.316406,-3.67566,0,0,0,0,0,0,0,-1,1238,337,0.316424,3.67565
21,687,-0.524414,-0.0259705,0,0,0,0,0,0,0,-1,1245,337,-0.524463,0.025981
28,687,-0.341309,-0.055481,0,0,0,0,0,0,0,-1,1252,337,-0.341255,0.0554802
35,687,-0.307861,0.0583191,0,0,0,0,0,0,0,-1,1259,337,-0.307907,-0.0583224
42,687,-0.136719,0.018158,0.0521761,-0.00854519,0.00427162,0.0524752,-0.00884421,0.0698891,0.0382737,0.0470426,1266,337,-0.136691,-0.018166
49,687,0.0772705,-0.047699,0.0660855,-0.00472371,0.0109371,0.0677364,-0.00637457,0.149809,0.0474255,0.0473407,1273,337,0.0773074,0.0477122
56,687,0.319336,0.0534363,0.0792608,-0.000801344,0.0166953,0.0826028,-0.00414329,0.197562,0.0565003,0.0441776,1280,337,0.319341,-0.0534298
63,687,0.0020752,-0.167419,0,0,0,0,0,0,0,-1,1287,337,0.00207499,0.167432
70,687,-0.0980225,-0.197021,0,0,0,0,0,0,0,-1,1294,337,-0.0979672,0.197032
77,687,-0.649658,-0.716309,0,0,0,0,0,0,0,-1,1301,337,-0.64961,0.716297
84,687,-0.693726,-0.623505,0.117919,-5.61269e-09,0.0223878,0.122026,-0.00410744,0.181449,0.082754,0.0457621,1308,337,-0.693786,0.623507
91,687,5.61633,3.93384,0.119718,-0.00240059,0.0223837,0.123691,-0.00637413,0.175689,0.0846655,0.0458768,1315,337,5.61638,-3.93383
98,687,-1.03198,-0.0151367,0,0,0,0,0,0,0,-1,1322,337,-1.03201,0.0151473
105,687,-0.39978,0.186188,0.116916,-0.00822652,0.0222792,0.120764,-0.0120746,0.171032,0.084821,0.0455387,1329,337,-0.399769,-0.186178
112,687,-0.547729,-0.0155029,0.109099,-0.0115,0.0212261,0.112726,-0.0151269,0.169233,0.0806671,0.0472095,1336,337,-0.547718,0.0155119
119,687,-0.670776,-0.309174,0,0,0,0,0,0,0,-1,1343,337,-0.670824,0.309162
126,687,-0.800293,-0.613037,0,0,0,0,0,0,0,-1,1350,337,-0.800235,0.613031
133,687,0.612793,-0.70285,0.0755118,-0.0200329,0.018131,0.0788367,-0.0233578,0.181367,0.0618323,0.0437483,1357,337,0.612846,0.702852
140,687,1.26331,-0.216461,0.0582286,-0.0229272,0.015751,0.0611784,-0.0258769,0.185132,0.0516205,0.0450725,1364,337,1.26326,0.216448
147,687,2.5531,0.164124,0.041525,-0.0239049,0.0127447,0.0439198,-0.0262997,0.18574,0.0409645,0.048103,1371,337,2.55312,-0.164111
154,687,4.0105,0.36496,0,0,0,0,0,0,0,-1,1378,337,4.01052,-0.364952
161,687,0.219971,-0.264282,0.0255664,-0.0227668,0.00998785,0.0275491,-0.0247495,0.195956,0.030209,0.0456536,1385,337,0.219953,0.26427
168,687,0.138916,-0.243561,0.0170556,-0.0210136,0.00905095,0.0190979,-0.0230559,0.221928,0.0243732,0.0445083,1392,337,0.13889,0.243554
175,687,-0.098999,-0.253632,0.00929491,-0.0178917,0.00756054,0.011256,-0.0198528,0.253794,0.0181878,0.0457554,1399,337,-0.0990521,0.253627
182,687,0.167725,-1.34219,0,0,0,0,0,0,0,-1,1406,337,0.16776,1.34219
189,687,0.360474,-1.24316,0.000731141,-0.0116658,0.00540886,0.00275927,-0.0136939,0.358739,0.0101745,0.0448615,1413,337,0.360457,1.24315
196,687,0.415161,-0.977173,-0.00368378,-0.00731062,0.00526101,6.75744e-05,-0.011062,0.619429,0.00739728,0.0411738,1420,337,0.41515,0.977163
203,687,0.342163,-0.821259,-0.00754445,-0.00444961,0.00510763,-0.000660143,-0.0113339,0.932485,0.00734579,0.0427794,1427,337,0.342208,0.82125
210,687,-0.0600586,-0.308319,-0.00984059,-0.00173388,0.0067247,0.0020646,-0.0136391,1.05662,0.00985328,0.0425397,1434,337,-0.0600227,0.308318
217,687,-0.314575,-0.294708,0,0,0,0,0,0,0,-1,1441,337,-0.314579,0.294705
224,687,-0.300903,-0.0559387,-0.0132706,0.00248027,0.00901433,0.00657482,-0.0173652,1.14443,0.0142821,0.0446214,1448,337,-0.300905,0.0559449
231,687,-0.296509,0.216553,0,0,0,0,0,0,0,-1,1455,337,-0.296538,-0.216567
238,687,-0.405396,0.298584,0,0,0,0,0,0,0,-1,1462,337,-0.405381,-0.298584
245,687,-0.543579,0.328552,0,0,0,0,0,0,0,-1,1469,337,-0.543553,-0.32855
252,687,0.366943,-0.109528,0,0,0,0,0,0,0,-1,1476,337,0.366923,0.109526
259,687,0,0,0,0,0,0,0,0,0,-1,1483,337,0,0
266,687,0,0,0,0,0,0,0,0,0,-1,1490,337,0,0
273,687,0,0,0,0,0,0,0,0,0,-1,1497,337,0,0
280,687,0,0,0,0,0,0,0,0,0,-1,1504,337,0,0
287,687,0,0,0,0,0,0,0,0,0,-1,1511,337,0,0
294,687,0,0,0,0,0,0,0,0,0,-1,1518,337,0,0
301,687,0,0,0,0,0,0,0,0,0,-1,1525,337,0,0
308,687,0,0,0,0,0,0,0,0,0,-1,1532,337,0,0
315,687,0,0,0,0,0,0,0,0,0,-1,1539,337,0,0
322,687,0,0,0,0,0,0,0,0,0,-1,1546,337,0,0
329,687,0,0,0,0,0,0,0,0,0,-1,1553,337,0,0
336,687,0,0,0,0,0,0,0,0,0,-1,1560,337,0,0
343,687,0,0,0,0,0,0,0,0,0,-1,1567,337,0,0
350,687,0,0,0,0,0,0,0,0,0,-1,1574,337,0,0
357,687,0,0,0,0,0,0,0,0,0,-1,1581,337,0,0
364,687,0,0,0,0,0,0,0,0,0,-1,1588,337,0,0
371,687,0,0,0,0,0,0,0,0,0,-1,1595,337,0,0
378,687,0,0,0,0,0,0,0,0,0,-1,1602,337,0,0
385,687,0,0,0,0,0,0,0,0,0,-1,1609,337,0,0
392,687,0,0,0,0,0,0,0,0,0,-1,1616,337,0,0
399,687,0,0,0,0,0,0,0,0,0,-1,1623,337,0,0
406,687,0,0,0,0,0,0,0,0,0,-1,1630,337,0,0
413,687,0,0,0,0,0,0,0,0,0,-1,1637,337,0,0
420,687,0,0,0,0,0,0,0,0,0,-1,1644,337,0,0
427,687,0,0,0,0,0,0,0,0,0,-1,1651,337,0,0
434,687,0,0,0,0,0,0,0,0,0,-1,1658,337,0,0
441,687,0,0,0,0,0,0,0,0,0,-1,1665,337,0,0
448,687,0,0,0,0,0,0,0,0,0,-1,1672,337,0,0
455,687,0,0,0,0,0,0,0,0,0,-1,1679,337,0,0
462,687,0,0,0,0,0,0,0,0,0,-1,1686,337,0,0
469,687,0,0,0,0,0,0,0,0,0,-1,1693,337,0,0
476,687,0,0,0,0,0,0,0,0,0,-1,1700,337,0,0
483,687,0,0,0,0,0,0,0,0,0,-1,1707,337,0,0
490,687,0,0,0,0,0,0,0,0,0,-1,1714,337,0,0
497,687,0,0,0,0,0,0,0,0,0,-1,1721,337,0,0
504,687,0,0,0,0,0,0,0,0,0,-1,1728,337,0,0
511,687,0,0,0,0,0,0,0,0,0,-1,1735,337,0,0
518,687,0,0,0,0,0,0,0,0,0,-1,1742,337,0,0
525,687,0,0,0,0,0,0,0,0,0,-1,1749,337,0,0
532,687,0,0,0,0,0,0,0,0,0,-1,1756,337,0,0
539,687,0,0,0,0,0,0,0,0,0,-1,1763,337,0,0
546,687,0,0,0,0,0,0,0,0,0,-1,1770,337,0,0
553,687,0,0,0,0,0,0,0,0,0,-1,1777,337,0,0
560,687,0,0,0,0,0,0,0,0,0,-1,1784,337,0,0
567,687,0,0,0,0,0,0,0,0,0,-1,1791,337,0,0
574,687,0,0,0,0,0,0,0,0,0,-1,1798,337,0,0
581,687,0,0,0,0,0,0,0,0,0,-1,1805,337,0,0
588,687,0,0,0,0,0,0,0,0,0,-1,1812,337,0,0
595,687,0,0,0,0,0,0,0,0,0,-1,1819,337,0,0
602,687,0,0,0,0,0,0,0,0,0,-1,1826,337,0,0
609,687,0,0,0,0,0,0,0,0,0,-1,1833,337,0,0
616,687,0,0,0,0,0,0,0,0,0,-1,1840,337,0,0
623,687,0,0,0,0,0,0,0,0,0,-1,1847,337,0,0
630,687,0,0,0,0,0,0,0,0,0,-1,1854,337,0,0
637,687,0,0,0,0,0,0,0,0,0,-1,1861,337,0,0
644,687,0,0,0,0,0,0,0,0,0,-1,1868,337,0,0
651,687,0,0,0,0,0,0,0,0,0,-1,1875,337,0,0
658,687,0,0,0,0,0,0,0,0,0,-1,1882,337,0,0
665,687,0,0,0,0,0,0,0,0,0,-1,1889,337,0,0
672,687,0,0,0,0,0,0,0,0,0,-1,1896,337,0,0
679,687,0,0,0,0,0,0,0,0,0,-1,1903,337,0,0
686,687,0,0,0,0,0,0,0,0,0,-1,1910,337,0,0
693,687,0,0,0,0,0,0,0,0,0,-1,1917,337,0,0
700,687,0,0,0,0,0,0,0,0,0,-1,1924,337,0,0
707,687,0,0,0,0,0,0,0,0,0,-1,1931,337,0,0
714,687,0,0,0,0,0,0,0,0,0,-1,1938,337,0,0
721,687,0,0,0,0,0,0,0,0,0,-1,1945,337,0,0
728,687,0,0,0,0,0,0,0,0,0,-1,1952,337,0,0
735,687,0,0,0,0,0,0,0,0,0,-1,1959,337,0,0
742,687,0,0,0,0,0,0,0,0,0,-1,1966,337,0,0
749,687,0,0,0,0,0,0,0,0,0,-1,1973,337,0,0
756,687,0,0,0,0,0,0,0,0,0,-1,1980,337,0,0
763,687,0,0,0,0,0,0,0,0,0,-1,1987,337,0,0
770,687,0,0,0,0,0,0,0,0,0,-1,1994,337,0,0
777,687,0,0,0,0,0,0,0,0,0,-1,2001,337,0,0
784,687,0,0,0,0,0,0,0,0,0,-1,2008,337,0,0
791,687,0,0,0,0,0,0,0,0,0,-1,2015,337,0,0
798,687,0,0,0,0,0,0,0,0,0,-1,2022,337,0,0
805,687,0,0,0,0,0,0,0,0,0,-1,2029,337,0,0
812,687,0,0,0,0,0,0,0,0,0,-1,2036,337,0,0
-700,680,0,0,0,0,0,0,0,0,0,-1,524,344,0,0
-693,680,0,0,0,0,0,0,0,0,0,-1,531,344,0,0
-686,680,0,0,0,0,0,0,0,0,0,-1,538,344,0,0
-679,680,0,0,0,0,0,0,0,0,0,-1,545,344,0,0
-672,680,0,0,0,0,0,0,0,0,0,-1,552,344,0,0
-665,680,0,0,0,0,0,0,0,0,0,-1,559,344,0,0
-658,680,0,0,0,0,0,0,0,0,0,-1,566,344,0,0
-651,680,0,0,0,0,0,0,0,0,0,-1,573,344,0,0
-644,680,0,0,0,0,0,0,0,0,0,-1,580,344,0,0
-637,680,0,0,0,0,0,0,0,0,0,-1,587,344,0,0
-630,680,0,0,0,0,0,0,0,0,0,-1,594,344,0,0
-623,680,0,0,0,0,0,0,0,0,0,-1,601,344,0,0
-616,680,0,0,0,0,0,0,0,0,0,-1,608,344,0,0
-609,680,0,0,0,0,0,0,0,0,0,-1,615,344,0,0
-602,680,0,0,0,0,0,0,0,0,0,-1,622,344,0,0
-595,680,0,0,0,0,0,0,0,0,0,-1,629,344,0,0
-588,680,0,0,0,0,0,0,0,0,0,-1,636,344,0,0
-581,680,0,0,0,0,0,0,0,0,0,-1,643,344,0,0
-574,680,0,0,0,0,0,0,0,0,0,-1,650,344,0,0
-567,680,0,0,0,0,0,0,0,0,0,-1,657,344,0,0
-560,680,0,0,0,0,0,0,0,0,0,-1,664,344,0,0
-553,680,0,0,0,0,0,0,0,0,0,-1,671,344,0,0
-546,680,0,0,0,0,0,0,0,0,0,-1,678,344,0,0
-539,680,0,0,0,0,0,0,0,0,0,-1,685,344,0,0
-532,680,0,0,0,0,0,0,0,0,0,-1,692,344,0,0
-525,680,0,0,0,0,0,0,0,0,0,-1,699,344,0,0
-518,680,0,0,0,0,0,0,0,0,0,-1,706,344,0,0
-511,680,0,0,0,0,0,0,0,0,0,-1,713,344,0,0
-504,680,0,0,0,0,0,0,0,0,0,-1,720,344,0,0
-497,680,0,0,0,0,0,0,0,0,0,-1,727,344,0,0
-490,680,0,0,0,0,0,0,0,0,0,-1,734,344,0,0
-483,680,0,0,0,0,0,0,0,0,0,-1,741,344,0,0
-476,680,0,0,0,0,0,0,0,0,0,-1,748,344,0,0
-469,680,0,0,0,0,0,0,0,0,0,-1,755,344,0,0
-462,680,0,0,0,0,0,0,0,0,0,-1,762,344,0,0
-455,680,0,0,0,0,0,0,0,0,0,-1,769,344,0,0
-448,680,0,0,0,0,0,0,0,0,0,-1,776,344,0,0
-441,680,0,0,0,0,0,0,0,0,0,-1,783,344,0,0
-434,680,0,0,0,0,0,0,0,0,0,-1,790,344,0,0
-427,680,0,0,0,0,0,0,0,0,0,-1,797,344,0,0
-420,680,0,0,0,0,0,0,0,0,0,-1,804,344,0,0
-413,680,0,0,0,0,0,0,0,0,0,-1,811,344,0,0
-406,680,0,0,0,0,0,0,0,0,0,-1,818,344,0,0
-399,680,0,0,0,0,0,0,0,0,0,-1,825,344,0,0
-392,680,0,0,0,0,0,0,0,0,0,-1,832,344,0,0
-385,680,0,0,0,0,0,0,0,0,0,-1,839,344,0,0
-378,680,0,0,0,0,0,0,0,0,0,-1,846,344,0,0
-371,680,0,0,0,0,0,0,0,0,0,-1,853,344,0,0
-364,680,0,0,0,0,0,0,0,0,0,-1,860,344,0,0
-357,680,0,0,0,0,0,0,0,0,0,-1,867,344,0,0
-350,680,0,0,0,0,0,0,0,0,0,-1,874,344,0,0
-343,680,0,0,0,0,0,0,0,0,0,-1,881,344,0,0
-336,680,0,0,0,0,0,0,0,0,0,-1,888,344,0,0
-329,680,0,0,0,0,0,0,0,0,0,-1,895,344,0,0
-322,680,0,0,0,0,0,0,0,0,0,-1,902,344,0,0
-315,680,0,0,0,0,0,0,0,0,0,-1,909,344,0,0
-308,680,0,0,0,0,0,0,0,0,0,-1,916,344,0,0
-301,680,0,0,0,0,0,0,0,0,0,-1,923,344,0,0
-294,680,0,0,0,0,0,0,0,0,0,-1,930,344,0,0
-287,680,0,0,0,0,0,0,0,0,0,-1,937,344,0,0
-280,680,0,0,0,0,0,0,0,0,0,-1,944,344,0,0
-273,680,0,0,0,0,0,0,0,0,0,-1,951,344,0,0
-266,680,0,0,0,0,0,0,0,0,0,-1,958,344,0,0
-259,680,0,0,0,0,0,0,0,0,0,-1,965,344,0,0
-252,680,0,0,0,0,0,0,0,0,0,-1,972,344,0,0
-245,680,0,0,0,0,0,0,0,0,0,-1,979,344,0,0
-238,680,0,0,0,0,0,0,0,0,0,-1,986,344,0,0
-231,680,0,0,0,0,0,0,0,0,0,-1,993,344,0,0
-224,680,0,0,0,0,0,0,0,0,0,-1,1000,344,0,0
-217,680,0,0,0,0,0,0,0,0,0,-1,1007,344,0,0
-210,680,0,0,0,0,0,0,0,0,0,-1,1014,344,0,0
-203,680,0,0,0,0,0,0,0,0,0,-1,1021,344,0,0
-196,680,0,0,0,0,0,0,0,0,0,-1,1028,344,0,0
-189,680,0,0,0,0,0,0,0,0,0,-1,1035,344,0,0
-182,680,0,0,0,0,0,0,0,0,0,-1,1042,344,0,0
-175,680,0,0,0,0,0,0,0,0,0,-1,1049,344,0,0
-168,680,0,0,0,0,0,0,0,0,0,-1,1056,344,0,0
-161,680,0,0,0,0,0,0,0,0,0,-1,1063,344,0,0
-154,680,0.413452,0.0462036,-0.0153955,-0.0096419,0.0105829,-0.00155179,-0.0234856,0.918109,0.0151663,0.040232,1070,344,0.413495,-0.0462064
-147,680,0.136597,0.0231018,-0.0147221,-0.0118091,0.0103523,-0.00281131,-0.0237198,0.855285,0.0149644,0.0423087,1077,344,0.136553,-0.0231059
-140,680,0.796387,-1.0549,0,0,0,0,0,0,0,-1,1084,344,0.796333,1.05492
-133,680,0.515137,-0.838867,-0.0111149,-0.0159197,0.0109046,-0.00235122,-0.0246833,0.676974,0.0157305,0.0429576,1091,344,0.515111,0.838876
-126,680,0.0938721,-0.681519,-0.00987311,-0.0169352,0.0104895,-0.00233625,-0.0244721,0.623042,0.0155944,0.0388073,1098,344,0.0938719,0.681516
-119,680,-0.0697021,-0.186768,-0.00869885,-0.0164655,0.00900761,-0.00277313,-0.0223912,0.581879,0.0140943,0.0388454,1105,344,-0.069682,0.18676
-112,680,-0.122803,0.251068,-0.00763138,-0.015003,0.00711727,-0.00330215,-0.0193322,0.546479,0.0119406,0.0397096,1112,344,-0.122756,-0.25106
-105,680,-0.0606689,0.451233,-0.00661136,-0.0128838,0.00461546,-0.0041674,-0.0153277,0.486981,0.00915132,0.0407318,1119,344,-0.0606199,-0.451238
-98,680,0.0175781,0.420013,-0.00535813,-0.00988009,0.00230642,-0.00438931,-0.0108489,0.397673,0.00630152,0.0417232,1126,344,0.017586,-0.420024
-91,680,0.0474854,0.266998,-0.00444295,-0.00704364,0.000647373,-0.00429071,-0.00719587,0.230962,0.00418013,0.0422494,1133,344,0.0475167,-0.266997
-84,680,0.370483,0.269745,0,0,0,0,0,0,0,-1,1140,344,0.370499,-0.269735
-77,680,0.385986,0.181885,-0.00279961,0.000401875,-0.00311375,0.00230225,-0.00469999,-1.02283,0.00412099,0.0416342,1147,344,0.385989,-0.181889
-70,680,0.328491,-0.0411072,-0.00236382,0.0044016,-0.00496926,0.00703023,-0.00499245,-1.08424,0.00697446,0.0431226,1154,344,0.328526,0.041121
-63,680,0.184937,-0.0651855,-0.00325142,0.00606582,-0.0068046,0.00965373,-0.00683933,-1.08557,0.00956837,0.0434636,1161,344,0.184888,0.0651933
-56,680,-0.292847,-0.0796814,-0.00490061,0.00638181,-0.00906624,0.0114186,-0.00993741,-1.0637,0.0123398,0.0421821,1168,344,-0.292813,0.0796959
-49,680,-0.379028,-0.488617,-0.00582925,0.00490857,-0.0118847,0.0125808,-0.0135015,-0.997552,0.0150618,0.0429895,1175,344,-0.379058,0.488616
-42,680,0.0430908,1.4064,0,0,0,0,0,0,0,-1,1182,344,0.0430433,-1.40639
-35,680,-0.136841,0.312988,0,0,0,0,0,0,0,-1,1189,344,-0.136809,-0.313003
-28,680,-0.31665,-0.780396,0,0,0,0,0,0,0,-1,1196,344,-0.316662,0.780389
-21,680,0.396851,0.747925,-0.0102098,-0.0075983,-0.0221511,0.0132855,-0.0310936,-0.814837,0.0263009,0.0404514,1203,344,0.396856,-0.747913
-14,680,0.415649,-0.0782776,-0.0104789,-0.0112241,-0.0242401,0.0133915,-0.0350945,-0.777713,0.0289131,0.0426043,1210,344,0.415706,0.0782867
-7,680,-0.181152,-0.166443,-0.00988245,-0.0142766,-0.0255397,0.0135545,-0.0377136,-0.742491,0.0306756,0.0438295,1217,344,-0.181157,0.166444
0,680,0.00012207,-0.0748596,0,0,0,0,0,0,0,-1,1224,344,0.000119301,0.0748702
7,680,0.622314,-2.18402,0,0,0,0,0,0,0,-1,1231,344,0.622307,2.18402
14,680,-0.0917969,-0.0852661,-0.000185664,-0.0160472,-0.0173036,0.0109181,-0.027151,-0.570518,0.0226354,0.0462244,1238,344,-0.0918147,0.0852698
21,680,-0.29126,-0.0180969,0.00638956,-0.0139569,-0.0125049,0.0123368,-0.0199041,-0.443928,0.0187844,0.0438478,1245,344,-0.291287,0.0180941
28,680,-0.221191,-0.0551453,0.0126034,-0.0120071,-0.00798048,0.0149647,-0.0143684,-0.287675,0.0169366,0.0422683,1252,344,-0.221211,0.0551469
35,680,-0.171875,-0.14325,0.0258296,-0.00958228,-0.00205886,0.0259489,-0.00970159,-0.0578804,0.0212834,0.0409666,1259,344,-0.171889,0.143237
42,680,-0.0354004,-0.00894165,0.0415306,-0.00658491,0.00373762,0.0418192,-0.00687352,0.077064,0.0304305,0.0433222,1266,344,-0.0353794,0.00894802
49,680,0.0296631,-0.04422,0.0532318,-0.00381293,0.00884133,0.0545707,-0.00515182,0.150293,0.0382137,0.0435381,1273,344,0.0296349,0.0442267
56,680,0.0563965,-0.109283,0.0641494,-0.000979813,0.0132048,0.0667248,-0.0035552,0.192617,0.0457144,0.0423739,1280,344,0.0564442,0.109279
63,680,-0.0187988,-0.132629,0.0746724,0.000826764,0.0161678,0.0780571,-0.00255788,0.206365,0.0529113,0.0399279,1287,344,-0.0187693,0.132628
70,680,-0.0860596,-0.149719,0.0840714,0.000661582,0.016944,0.087382,-0.00264904,0.192955,0.0591574,0.0402328,1294,344,-0.0860839,0.149706
77,680,-0.107422,-0.192261,0,0,0,0,0,0,0,-1,1301,344,-0.107438,0.192257
84,680,-0.834595,-0.346527,0,0,0,0,0,0,0,-1,1308,344,-0.834652,0.34652
91,680,-0.814453,-0.0570374,0,0,0,0,0,0,0,-1,1315,344,-0.814465,0.0570424
98,680,-0.786377,0.0194397,0.0968468,-0.00489825,0.0179543,0.0999221,-0.00797356,0.16964,0.0694254,0.0451028,1322,344,-0.786392,-0.0194422
105,680,-0.704956,0.078125,0.0947302,-0.00709963,0.0174976,0.097653,-0.0100224,0.165509,0.0686869,0.0421778,1329,344,-0.704914,-0.0781176
112,680,-0.602417,-0.177826,0.0882078,-0.00970894,0.0166159,0.0909505,-0.0124517,0.163595,0.0651819,0.0420414,1336,344,-0.602376,0.177839
119,680,-0.49646,-0.308594,0,0,0,0,0,0,0,-1,1343,344,-0.4965,0.308605
126,680,-0.161499,-0.565521,0.0696302,-0.0143145,0.0147806,0.0721566,-0.0168409,0.169295,0.0545909,0.0424664,1350,344,-0.161555,0.565529
133,680,0.280029,-0.568085,0.0594865,-0.0163003,0.014112,0.0620289,-0.0188428,0.17825,0.0488601,0.0459756,1357,344,0.280052,0.568079
140,680,-0.0164795,-0.0222168,0,0,0,0,0,0,0,-1,1364,344,-0.0164202,0.02221
147,680,1.13367,0.949738,0,0,0,0,0,0,0,-1,1371,344,1.13361,-0.949747
154,680,2.7644,1.2077,0,0,0,0,0,0,0,-1,1378,344,2.7644,-1.2077
161,680,0.161621,-0.349518,0.019391,-0.0186647,0.00839246,0.0211596,-0.0204333,0.207698,0.0240149,0.0464119,1385,344,0.161631,0.349521
168,680,0.176514,-0.128387,0.0132559,-0.0174704,0.00783797,0.0151398,-0.0193543,0.235879,0.0199647,0.0462297,1392,344,0.176551,0.128374
175,680,0.0264893,-0.151978,0.00791289,-0.0152662,0.0068653,0.00979369,-0.017147,0.267396,0.0157461,0.0475341,1399,344,0.0264651,0.151978
182,680,-0.0837402,-0.134155,0,0,0,0,0,0,0,-1,1406,344,-0.08377,0.134167
189,680,0.250854,-0.791168,0.00180709,-0.0106493,0.00555042,0.00392141,-0.0127636,0.363959,0.0100739,0.0475898,1413,344,0.250884,0.791166
196,680,0.400391,-0.566528,-0.00151036,-0.00731711,0.00554245,0.00184313,-0.0106706,0.544129,0.00780103,0.0436599,1420,344,0.400432,0.566536
203,680,0.332642,-0.446777,-0.00450911,-0.00504726,0.00544675,0.000675208,-0.0102316,0.760717,0.0070569,0.0416327,1427,344,0.33269,0.446791
210,680,0.37561,-0.546295,0,0,0,0,0,0,0,-1,1434,344,0.375656,0.546289
217,680,0.0241699,-0.454956,0,0,0,0,0,0,0,-1,1441,344,0.0241432,0.454969
224,680,-0.267822,-0.107361,0,0,0,0,0,0,0,-1,1448,344,-0.267851,0.107367
231,680,-0.114746,0.124084,0,0,0,0,0,0,0,-1,1455,344,-0.114734,-0.124081
238,680,-0.514648,-0.00601196,0,0,0,0,0,0,0,-1,1462,344,-0.514596,0.00602489
245,680,1.12207,0.424133,-0.0128176,0.00390036,0.00718547,0.00656424,-0.0154815,1.21577,0.0130706,0.0464509,1469,344,1.12205,-0.424122
252,680,0.3302,-0.0940857,-0.0134667,0.00330477,0.00605696,0.00526347,-0.0154254,1.25803,0.0124157,0.0463268,1476,344,0.330259,0.0940707
259,680,0.247559,-0.00170898,-0.0129082,0.00118823,0.00397065,0.00222972,-0.0139497,1.31428,0.0101252,0.0441793,1483,344,0.247545,0.00170754
266,680,0.18811,0.0733337,0,0,0,0,0,0,0,-1,1490,344,0.188152,-0.073328
273,680,-0.503174,0.18219,0,0,0,0,0,0,0,-1,1497,344,-0.503234,-0.182196
280,680,0,0,0,0,0,0,0,0,0,-1,1504,344,0,0
287,680,0,0,0,0,0,0,0,0,0,-1,1511,344,0,0
294,680,0,0,0,0,0,0,0,0,0,-1,1518,344,0,0
301,680,0,0,0,0,0,0,0,0,0,-1,1525,344,0,0
308,680,0,0,0,0,0,0,0,0,0,-1,1532,344,0,0
315,680,0,0,0,0,0,0,0,0,0,-1,1539,344,0,0
322,680,0,0,0,0,0,0,0,0,0,-1,1546,344,0,0
329,680,0,0,0,0,0,0,0,0,0,-1,1553,344,0,0
336,680,0,0,0,0,0,0,0,0,0,-1,1560,344,0,0
343,680,0,0,0,0,0,0,0,0,0,-1,1567,344,0,0
350,680,0,0,0,0,0,0,0,0,0,-1,1574,344,0,0
357,680,0,0,0,0,0,0,0,0,0,-1,1581,344,0,0
364,680,0,0,0,0,0,0,0,0,0,-1,1588,344,0,0
371,680,0,0,0,0,0,0,0,0,0,-1,1595,344,0,0
378,680,0,0,0,0,0,0,0,0,0,-1,1602,344,0,0
385,680,0,0,0,0,0,0,0,0,0,-1,1609,344,0,0
392,680,0,0,0,0,0,0,0,0,0,-1,1616,344,0,0
399,680,0,0,0,0,0,0,0,0,0,-1,1623,344,0,0
406,680,0,0,0,0,0,0,0,0,0,-1,1630,344,0,0
413,680,0,0,0,0,0,0,0,0,0,-1,1637,344,0,0
420,680,0,0,0,0,0,0,0,0,0,-1,1644,344,0,0
427,680,0,0,0,0,0,0,0,0,0,-1,1651,344,0,0
434,680,0,0,0,0,0,0,0,0,0,-1,1658,344,0,0
441,680,0,0,0,0,0,0,0,0,0,-1,1665,344,0,0
448,680,0,0,0,0,0,0,0,0,0,-1,1672,344,0,0
455,680,0,0,0,0,0,0,0,0,0,-1,1679,344,0,0
462,680,0,0,0,0,0,0,0,0,0,-1,1686,344,0,0
469,680,0,0,0,0,0,0,0,0,0,-1,1693,344,0,0
476,680,0,0,0,0,0,0,0,0,0,-1,1700,344,0,0
483,680,0,0,0,0,0,0,0,0,0,-1,1707,344,0,0
490,680,0,0,0,0,0,0,0,0,0,-1,1714,344,0,0
497,680,0,0,0,0,0,0,0,0,0,-1,1721,344,0,0
504,680,0,0,0,0,0,0,0,0,0,-1,1728,344,0,0
511,680,0,0,0,0,0,0,0,0,0,-1,1735,344,0,0
518,680,0,0,0,0,0,0,0,0,0,-1,1742,344,0,0
525,680,0,0,0,0,0,0,0,0,0,-1,1749,344,0,0
532,680,0,0,0,0,0,0,0,0,0,-1,1756,344,0,0
539,680,0,0,0,0,0,0,0,0,0,-1,1763,344,0,0
546,680,0,0,0,0,0,0,0,0,0,-1,1770,344,0,0
553,680,0,0,0,0,0,0,0,0,0,-1,1777,344,0,0
560,680,0,0,0,0,0,0,0,0,0,-1,1784,344,0,0
567,680,0,0,0,0,0,0,0,0,0,-1,1791,344,0,0
574,680,0,0,0,0,0,0,0,0,0,-1,1798,344,0,0
581,680,0,0,0,0,0,0,0,0,0,-1,1805,344,0,0
588,680,0,0,0,0,0,0,0,0,0,-1,1812,344,0,0
595,680,0,0,0,0,0,0,0,0,0,-1,1819,344,0,0
602,680,0,0,0,0,0,0,0,0,0,-1,1826,344,0,0
609,680,0,0,0,0,0,0,0,0,0,-1,1833,344,0,0
616,680,0,0,0,0,0,0,0,0,0,-1,1840,344,0,0
623,680,0,0,0,0,0,0,0,0,0,-1,1847,344,0,0
630,680,0,0,0,0,0,0,0,0,0,-1,1854,344,0,0
637,680,0,0,0,0,0,0,0,0,0,-1,1861,344,0,0
644,680,0,0,0,0,0,0,0,0,0,-1,1868,344,0,0
651,680,0,0,0,0,0,0,0,0,0,-1,1875,344,0,0
658,680,0,0,0,0,0,0,0,0,0,-1,1882,344,0,0
665,680,0,0,0,0,0,0,0,0,0,-1,1889,344,0,0
672,680,0,0,0,0,0,0,0,0,0,-1,1896,344,0,0
679,680,0,0,0,0,0,0,0,0,0,-1,1903,344,0,0
686,680,0,0,0,0,0,0,0,0,0,-1,1910,344,0,0
693,680,0,0,0,0,0,0,0,0,0,-1,1917,344,0,0
700,680,0,0,0,0,0,0,0,0,0,-1,1924,344,0,0
707,680,0,0,0,0,0,0,0,0,0,-1,1931,344,0,0
714,680,0,0,0,0,0,0,0,0,0,-1,1938,344,0,0
721,680,0,0,0,0,0,0,0,0,0,-1,1945,344,0,0
728,680,0,0,0,0,0,0,0,0,0,-1,1952,344,0,0
735,680,0,0,0,0,0,0,0,0,0,-1,1959,344,0,0
742,680,0,0,0,0,0,0,0,0,0,-1,1966,344,0,0
749,680,0,0,0,0,0,0,0,0,0,-1,1973,344,0,0
756,680,0,0,0,0,0,0,0,0,0,-1,1980,344,0,0
763,680,0,0,0,0,0,0,0,0,0,-1,1987,344,0,0
770,680,0,0,0,0,0,0,0,0,0,-1,1994,344,0,0
777,680,0,0,0,0,0,0,0,0,0,-1,2001,344,0,0
784,680,0,0,0,0,0,0,0,0,0,-1,2008,344,0,0
791,680,0,0,0,0,0,0,0,0,0,-1,2015,344,0,0
798,680,0,0,0,0,0,0,0,0,0,-1,2022,344,0,0
805,680,0,0,0,0,0,0,0,0,0,-1,2029,344,0,0
812,680,0,0,0,0,0,0,0,0,0,-1,2036,344,0,0
-700,673,0,0,0,0,0,0,0,0,0,-1,524,351,0,0
-693,673,0,0,0,0,0,0,0,0,0,-1,531,351,0,0
-686,673,0,0,0,0,0,0,0,0,0,-1,538,351,0,0
-679,673,0,0,0,0,0,0,0,0,0,-1,545,351,0,0
-672,673,0,0,0,0,0,0,0,0,0,-1,552,351,0,0
-665,673,0,0,0,0,0,0,0,0,0,-1,559,351,0,0
-658,673,0,0,0,0,0,0,0,0,0,-1,566,351,0,0
-651,673,0,0,0,0,0,0,0,0,0,-1,573,351,0,0
-644,673,0,0,0,0,0,0,0,0,0,-1,580,351,0,0
-637,673,0,0,0,0,0,0,0,0,0,-1,587,351,0,0
-630,673,0,0,0,0,0,0,0,0,0,-1,594,351,0,0
-623,673,0,0,0,0,0,0,0,0,0,-1,601,351,0,0
-616,673,0,0,0,0,0,0,0,0,0,-1,608,351,0,0
-609,673,0,0,0,0,0,0,0,0,0,-1,615,351,0,0
-602,673,0,0,0,0,0,0,0,0,0,-1,622,351,0,0
-595,673,0,0,0,0,0,0,0,0,0,-1,629,351,0,0
-588,673,0,0,0,0,0,0,0,0,0,-1,636,351,0,0
-581,673,0,0,0,0,0,0,0,0,0,-1,643,351,0,0
-574,673,0,0,0,0,0,0,0,0,0,-1,650,351,0,0
-567,673,0,0,0,0,0,0,0,0,0,-1,657,351,0,0
-560,673,0,0,0,0,0,0,0,0,0,-1,664,351,0,0
-553,673,0,0,0,0,0,0,0,0,0,-1,671,351,0,0
-546,673,0,0,0,0,0,0,0,0,0,-1,678,351,0,0
-539,673,0,0,0,0,0,0,0,0,0,-1,685,351,0,0
-532,673,0,0,0,0,0,0,0,0,0,-1,692,351,0,0
-525,673,0,0,0,0,0,0,0,0,0,-1,699,351,0,0
-518,673,0,0,0,0,0,0,0,0,0,-1,706,351,0,0
-511,673,0,0,0,0,0,0,0,0,0,-1,713,351,0,0
-504,673,0,0,0,0,0,0,0,0,0,-1,720,351,0,0
-497,673,0,0,0,0,0,0,0,0,0,-1,727,351,0,0
-490,673,0,0,0,0,0,0,0,0,0,-1,734,351,0,0
-483,673,0,0,0,0,0,0,0,0,0,-1,741,351,0,0
-476,673,0,0,0,0,0,0,0,0,0,-1,748,351,0,0
-469,673,0,0,0,0,0,0,0,0,0,-1,755,351,0,0
-462,673,0,0,0,0,0,0,0,0,0,-1,762,351,0,0
-455,673,0,0,0,0,0,0,0,0,0,-1,769,351,0,0
-448,673,0,0,0,0,0,0,0,0,0,-1,776,351,0,0
-441,673,0,0,0,0,0,0,0,0,0,-1,783,351,0,0
-434,673,0,0,0,0,0,0,0,0,0,-1,790,351,0,0
-427,673,0,0,0,0,0,0,0,0,0,-1,797,351,0,0
-420,673,0,0,0,0,0,0,0,0,0,-1,804,351,0,0
-413,673,0,0,0,0,0,0,0,0,0,-1,811,351,0,0
-406,673,0,0,0,0,0,0,0,0,0,-1,818,351,0,0
-399,673,0,0,0,0,0,0,0,0,0,-1,825,351,0,0
-392,673,0,0,0,0,0,0,0,0,0,-1,832,351,0,0
-385,673,0,0,0,0,0,0,0,0,0,-1,839,351,0,0
-378,673,0,0,0,0,0,0,0,0,0,-1,846,351,0,0
-371,673,0,0,0,0,0,0,0,0,0,-1,853,351,0,0
-364,673,0,0,0,0,0,0,0,0,0,-1,860,351,0,0
-357,673,0,0,0,0,0,0,0,0,0,-1,867,351,0,0
-350,673,0,0,0,0,0,0,0,0,0,-1,874,351,0,0
-343,673,0,0,0,0,0,0,0,0,0,-1,881,351,0,0
-336,673,0,0,0,0,0,0,0,0,0,-1,888,351,0,0
-329,673,0,0,0,0,0,0,0,0,0,-1,895,351,0,0
-322,673,0,0,0,0,0,0,0,0,0,-1,902,351,0,0
-315,673,0,0,0,0,0,0,0,0,0,-1,909,351,0,0
-308,673,0,0,0,0,0,0,0,0,0,-1,916,351,0,0
-301,673,0,0,0,0,0,0,0,0,0,-1,923,351,0,0
-294,673,0,0,0,0,0,0,0,0,0,-1,930,351,0,0
-287,673,0,0,0,0,0,0,0,0,0,-1,937,351,0,0
-280,673,0,0,0,0,0,0,0,0,0,-1,944,351,0,0
-273,673,0,0,0,0,0,0,0,0,0,-1,951,351,0,0
-266,673,0,0,0,0,0,0,0,0,0,-1,958,351,0,0
-259,673,0,0,0,0,0,0,0,0,0,-1,965,351,0,0
-252,673,0,0,0,0,0,0,0,0,0,-1,972,351,0,0
-245,673,0,0,0,0,0,0,0,0,0,-1,979,351,0,0
-238,673,0,0,0,0,0,0,0,0,0,-1,986,351,0,0
-231,673,0,0,0,0,0,0,0,0,0,-1,993,351,0,0
-224,673,0,0,0,0,0,0,0,0,0,-1,1000,351,0,0
-217,673,0,0,0,0,0,0,0,0,0,-1,1007,351,0,0
-210,673,0,0,0,0,0,0,0,0,0,-1,1014,351,0,0
-203,673,0,0,0,0,0,0,0,0,0,-1,1021,351,0,0
-196,673,0,0,0,0,0,0,0,0,0,-1,1028,351,0,0
-189,673,0,0,0,0,0,0,0,0,0,-1,1035,351,0,0
-182,673,0,0,0,0,0,0,0,0,0,-1,1042,351,0,0
-175,673,-0.315552,0.623047,0,0,0,0,0,0,0,-1,1049,351,-0.315538,-0.623038
-168,673,-0.184814,-0.0541992,0,0,0,0,0,0,0,-1,1056,351,-0.184811,0.0542108
-161,673,-0.0550537,-0.337311,-0.0116256,-0.00558801,0.00567383,-0.00217988,-0.0150338,1.02988,0.0093807,0.0406416,1063,351,-0.0549995,0.337315
-154,673,0.0101318,0.0724487,-0.0114342,-0.00754104,0.00638325,-0.00281417,-0.0161611,0.933396,0.00996931,0.0401555,1070,351,0.0100997,-0.0724633
-147,673,0.0244141,0.0232544,-0.0111156,-0.00918854,0.00686512,-0.00321966,-0.0170845,0.855118,0.0104826,0.0406559,1077,351,0.0244297,-0.0232397
-140,673,0.130371,-0.0657043,-0.00975749,-0.0111165,0.0072323,-0.00317284,-0.0177011,0.738559,0.0108982,0.0426651,1084,351,0.130424,0.0656975
-133,673,0.424683,-0.689362,-0.00825297,-0.0123038,0.00784514,-0.00217599,-0.0183807,0.659071,0.0115967,0.0427997,1091,351,0.424675,0.689361
-126,673,0.0993652,-0.457397,-0.00723599,-0.0130696,0.00784078,-0.00178706,-0.0185186,0.607327,0.0117952,0.0393806,1098,351,0.0993307,0.457386
-119,673,-0.124023,-0.10495,-0.0064871,-0.0126691,0.00693359,-0.00198672,-0.0171695,0.575721,0.0108449,0.0391255,1105,351,-0.123983,0.104939
-112,673,-0.158813,0.259399,0,0,0,0,0,0,0,-1,1112,351,-0.158798,-0.259405
-105,673,-0.276733,0.631042,-0.00513287,-0.00981383,0.0035162,-0.00324943,-0.0116973,0.491757,0.00697219,0.0424107,1119,351,-0.276726,-0.631031
-98,673,-0.17395,0.301727,-0.00422859,-0.00753873,0.00161699,-0.00356981,-0.00819751,0.38688,0.00474595,0.043632,1126,351,-0.173904,-0.30172
-91,673,-0.713623,0.0809021,0,0,0,0,0,0,0,-1,1133,351,-0.713594,-0.0809029
-84,673,-0.661377,0.182037,0,0,0,0,0,0,0,-1,1140,351,-0.661413,-0.182037
-77,673,-0.195923,0.0487976,-0.0022524,5.30301e-05,-0.00262586,0.00176805,-0.00396742,-0.992226,0.00339156,0.042174,1147,351,-0.195964,-0.0488075
-70,673,0.138062,0.120819,-0.00186988,0.0030694,-0.00411341,0.0053976,-0.00419808,-1.05575,0.00555448,0.0426054,1154,351,0.138117,-0.120824
-63,673,-0.0336914,0.160767,-0.00252279,0.00440751,-0.00550174,0.00744439,-0.00555967,-1.06643,0.00753414,0.0433297,1161,351,-0.0336481,-0.160769
-56,673,-0.271973,-0.236725,-0.00382353,0.00476361,-0.00706435,0.00873683,-0.00779675,-1.05846,0.00955081,0.0431209,1168,351,-0.271973,0.236739
-49,673,-0.293701,-0.354767,-0.00458475,0.00386759,-0.00901277,0.00959585,-0.010313,-1.00463,0.0114969,0.0420778,1175,351,-0.293737,0.354755
-42,673,-0.0544434,0.0467834,0,0,0,0,0,0,0,-1,1182,351,-0.0544094,-0.046778
-35,673,-0.138306,0.351563,0,0,0,0,0,0,0,-1,1189,351,-0.138323,-0.351563
-28,673,-0.323608,-0.328735,0,0,0,0,0,0,0,-1,1196,351,-0.323656,0.328729
-21,673,0.147949,0.41922,-0.00795635,-0.00514767,-0.0161858,0.00969461,-0.0227986,-0.828672,0.0192618,0.0391126,1203,351,0.147964,-0.419207
-14,673,0.196045,-0.0271606,-0.00803033,-0.00777605,-0.017612,0.00970928,-0.0255157,-0.789008,0.0210085,0.0411004,1210,351,0.19601,0.0271591
-7,673,-0.0375977,-0.0427246,-0.00740151,-0.00994234,-0.0184071,0.00977897,-0.0271228,-0.750944,0.0220757,0.0389128,1217,351,-0.0376327,0.042721
0,673,-0.0360107,-0.0475769,-0.00595583,-0.0116637,-0.0174718,0.00889355,-0.0265131,-0.704441,0.021269,0.0421859,1224,351,-0.0360137,0.0475897
7,673,-0.0675049,-0.068512,-0.00402191,-0.0122243,-0.015538,0.00794706,-0.0241932,-0.656369,0.0193303,0.0445121,1231,351,-0.0674824,0.0685086
14,673,-0.101196,-0.070343,-0.000390208,-0.0112862,-0.0124653,0.00776564,-0.0194421,-0.57938,0.0161834,0.0375693,1238,351,-0.101255,0.0703583
21,673,-0.0861816,-0.0665283,0.00423515,-0.00990806,-0.0090648,0.00866043,-0.0143333,-0.454149,0.0134095,0.0243267,1245,351,-0.086237,0.0665184
28,673,-0.0863037,-0.0471497,0.00862412,-0.00854079,-0.00583635,0.0104206,-0.0103372,-0.2986,0.0119845,0.0160328,1252,351,-0.0863319,0.0471587
35,673,-0.074707,-0.0680847,0.0188839,-0.00705292,-0.00142413,0.0189619,-0.00713088,-0.0546887,0.0155723,0.0217506,1259,351,-0.0746609,0.0680899
42,673,-0.0412598,-0.059845,0.0315551,-0.00495743,0.00299722,0.0317995,-0.00520183,0.0813618,0.0231294,0.0251712,1266,351,-0.0412134,0.0598521
49,673,-0.0284424,-0.0153198,0.0409104,-0.003027,0.00674941,0.0419238,-0.00404043,0.149038,0.0293888,0.0163319,1273,351,-0.0284269,0.0153291
56,673,-0.0328369,-0.0261841,0.0495812,-0.00104178,0.00994117,0.0514634,-0.00292401,0.187122,0.035324,0.0136102,1280,351,-0.0328366,0.0261753
63,673,-0.0603027,-0.0845032,0.0578762,0.000196716,0.0120859,0.0603063,-0.00223333,0.198419,0.0409689,0.0157898,1287,351,-0.0602504,0.0845024
70,673,-0.0976563,-0.0776978,0.0653765,4.33649e-05,0.0127093,0.0677617,-0.00234189,0.18552,0.045975,0.0246013,1294,351,-0.0976836,0.0776834
77,673,-0.150513,-0.118164,0.0712296,-0.000366757,0.0130294,0.073527,-0.00266419,0.174533,0.0499298,0.0347167,1301,351,-0.150487,0.118165
84,673,-0.41394,-0.206268,0.0745187,-0.00116777,0.0133016,0.0767884,-0.00343743,0.169002,0.0523757,0.0393287,1308,351,-0.413918,0.206264
91,673,-0.412109,-0.139923,0.0756734,-0.00259637,0.0133019,0.0778723,-0.00479524,0.163824,0.0535848,0.0424489,1315,351,-0.412097,0.139936
98,673,-0.453003,0.00253296,0.0754394,-0.0043121,0.0135022,0.0776634,-0.00653605,0.163244,0.0540861,0.0426165,1322,351,-0.453059,-0.00253524
105,673,-0.480103,0.0492249,0.0735877,-0.00595071,0.0130685,0.0756799,-0.00804287,0.158746,0.0533367,0.0386064,1329,351,-0.480136,-0.049222
112,673,-0.389526,-0.141479,0.0683104,-0.00797141,0.0123632,0.0702641,-0.00992509,0.156729,0.0504774,0.0385701,1336,351,-0.389531,0.141481
119,673,-0.263184,-0.176331,0.0610225,-0.0098517,0.0117391,0.0629163,-0.0117455,0.159945,0.046358,0.0393553,1343,351,-0.263204,0.176339
126,673,-0.21228,-0.225586,0.0530398,-0.011449,0.0109387,0.0548447,-0.0132539,0.163531,0.0416894,0.0385726,1350,351,-0.212306,0.225585
133,673,0.029541,-0.288635,0.0450112,-0.0128756,0.0104829,0.0468511,-0.0147155,0.173744,0.0371244,0.0411779,1357,351,0.0295893,0.288622
140,673,-0.0469971,-0.0283813,0.0332948,-0.0145002,0.00908532,0.0349636,-0.016169,0.181651,0.0301788,0.0454461,1364,351,-0.0469619,0.0283851
147,673,-0.085083,-0.0382385,0,0,0,0,0,0,0,-1,1371,351,-0.0851296,0.0382316
154,673,-0.208618,-0.111786,0.0184787,-0.0152895,0.00707617,0.0199016,-0.0167123,0.198432,0.0211658,0.0383928,1378,351,-0.208665,0.111776
161,673,0.0286865,-0.248627,0.0143237,-0.0148253,0.00673307,0.0158038,-0.0163054,0.216384,0.018539,0.0422819,1385,351,0.0286641,0.248642
168,673,0.0618896,-0.0793152,0.0100262,-0.0140361,0.00645692,0.0116494,-0.0156593,0.24628,0.0158232,0.0409609,1392,351,0.0618914,0.0793275
175,673,-0.0267334,-0.0361023,0.00646804,-0.0125154,0.00586869,0.00813581,-0.0141832,0.276882,0.0130426,0.0444835,1399,351,-0.0267299,0.0360871
182,673,-0.0368652,-0.0750732,0.0044592,-0.0108359,0.00556694,0.00627082,-0.0126475,0.314616,0.0111274,0.0465252,1406,351,-0.0368053,0.0750813
189,673,0.0599365,0.0154724,0.00225548,-0.00912014,0.00515584,0.00424451,-0.0111092,0.36819,0.00915503,0.0428509,1413,351,0.0599316,-0.0154824
196,673,0.362671,-0.225067,-0.000167575,-0.00660906,0.00524101,0.00276321,-0.00953985,0.509882,0.0074537,0.0407394,1420,351,0.362655,0.225057
203,673,0.28479,-0.11438,-0.00242733,-0.00482968,0.00519747,0.00170596,-0.00896297,0.671838,0.00661767,0.0451895,1427,351,0.284768,0.11437
210,673,0.154541,-0.0209045,-0.00371328,-0.0030365,0.00620985,0.00284417,-0.00959396,0.812617,0.00752537,0.0435605,1434,351,0.154509,0.0208977
217,673,-0.513184,-0.355804,0,0,0,0,0,0,0,-1,1441,351,-0.513219,0.355795
224,673,-0.0946045,-0.117157,-0.00518306,0.000159321,0.00739757,0.0053532,-0.0103769,0.958658,0.0092349,0.0386518,1448,351,-0.094628,0.117166
231,673,0.321045,0.158386,-0.00599201,0.00160418,0.00780416,0.0064854,-0.0108732,1.01186,0.0101282,0.0406469,1455,351,0.321095,-0.158389
238,673,0.821167,0.286255,0,0,0,0,0,0,0,-1,1462,351,0.821173,-0.286266
245,673,0.578735,0.342285,-0.00822419,0.00327891,0.00619961,0.00598405,-0.0109293,1.15936,0.0099031,0.0453074,1469,351,0.57874,-0.342288
252,673,0.351196,0.085968,-0.00852538,0.00323348,0.00512908,0.0051563,-0.0104482,1.21213,0.00918033,0.0449348,1476,351,0.351257,-0.0859784
259,673,-0.380005,0.00982666,-0.0079702,0.00185931,0.00325011,0.00283676,-0.00894765,1.27866,0.00710211,0.043254,1483,351,-0.380021,-0.00982765
266,673,-0.352783,-0.133728,-0.0067917,-0.00129893,0.000945769,-0.00114065,-0.00694999,1.40497,0.00430379,0.0420364,1490,351,-0.352817,0.133743
273,673,-0.283203,0.147766,-0.00567417,-0.0034826,-0.00175371,-0.00251047,-0.00664629,-1.06464,0.0038753,0.0431805,1497,351,-0.283244,-0.147761
280,673,0.0650635,0.234192,-0.00497363,-0.00611486,-0.00493276,-0.000578588,-0.0105099,-0.727815,0.00682192,0.0423817,1504,351,0.0650764,-0.234204
287,673,-0.140259,0.113495,-0.00381483,-0.00936331,-0.00820977,0.00207676,-0.0152549,-0.622462,0.0109282,0.0441736,1511,351,-0.140227,-0.113483
294,673,-0.137573,0.34201,-0.00195229,-0.0129776,-0.0106556,0.00453217,-0.019462,-0.546684,0.0147198,0.0459198,1518,351,-0.137516,-0.342022
301,673,0,0,0,0,0,0,0,0,0,-1,1525,351,0,0
308,673,0,0,0,0,0,0,0,0,0,-1,1532,351,0,0
315,673,0,0,0,0,0,0,0,0,0,-1,1539,351,0,0
322,673,0,0,0,0,0,0,0,0,0,-1,1546,351,0,0
329,673,0,0,0,0,0,0,0,0,0,-1,1553,351,0,0
336,673,0,0,0,0,0,0,0,0,0,-1,1560,351,0,0
343,673,0,0,0,0,0,0,0,0,0,-1,1567,351,0,0
350,673,0,0,0,0,0,0,0,0,0,-1,1574,351,0,0
357,673,0,0,0,0,0,0,0,0,0,-1,1581,351,0,0
364,673,0,0,0,0,0,0,0,0,0,-1,1588,351,0,0
371,673,0,0,0,0,0,0,0,0,0,-1,1595,351,0,0
378,673,0,0,0,0,0,0,0,0,0,-1,1602,351,0,0
385,673,0,0,0,0,0,0,0,0,0,-1,1609,351,0,0
392,673,0,0,0,0,0,0,0,0,0,-1,1616,351,0,0
399,673,0,0,0,0,0,0,0,0,0,-1,1623,351,0,0
406,673,0,0,0,0,0,0,0,0,0,-1,1630,351,0,0
413,673,0,0,0,0,0,0,0,0,0,-1,1637,351,0,0
420,673,0,0,0,0,0,0,0,0,0,-1,1644,351,0,0
427,673,0,0,0,0,0,0,0,0,0,-1,1651,351,0,0
434,673,0,0,0,0,0,0,0,0,0,-1,1658,351,0,0
441,673,0,0,0,0,0,0,0,0,0,-1,1665,351,0,0
448,673,0,0,0,0,0,0,0,0,0,-1,1672,351,0,0
455,673,0,0,0,0,0,0,0,0,0,-1,1679,351,0,0
462,673,0,0,0,0,0,0,0,0,0,-1,1686,351,0,0
469,673,0,0,0,0,0,0,0,0,0,-1,1693,351,0,0
476,673,0,0,0,0,0,0,0,0,0,-1,1700,351,0,0
483,673,0,0,0,0,0,0,0,0,0,-1,1707,351,0,0
490,673,0,0,0,0,0,0,0,0,0,-1,1714,351,0,0
497,673,0,0,0,0,0,0,0,0,0,-1,1721,351,0,0
504,673,0,0,0,0,0,0,0,0,0,-1,1728,351,0,0
511,673,0,0,0,0,0,0,0,0,0,-1,1735,351,0,0
518,673,0,0,0,0,0,0,0,0,0,-1,1742,351,0,0
525,673,0,0,0,0,0,0,0,0,0,-1,1749,351,0,0
532,673,0,0,0,0,0,0,0,0,0,-1,1756,351,0,0
539,673,0,0,0,0,0,0,0,0,0,-1,1763,351,0,0
546,673,0,0,0,0,0,0,0,0,0,-1,1770,351,0,0
553,673,0,0,0,0,0,0,0,0,0,-1,1777,351,0,0
560,673,0,0,0,0,0,0,0,0,0,-1,1784,351,0,0
567,673,0,0,0,0,0,0,0,0,0,-1,1791,351,0,0
574,673,0,0,0,0,0,0,0,0,0,-1,1798,351,0,0
581,673,0,0,0,0,0,0,0,0,0,-1,1805,351,0,0
588,673,0,0,0,0,0,0,0,0,0,-1,1812,351,0,0
595,673,0,0,0,0,0,0,0,0,0,-1,1819,351,0,0
602,673,0,0,0,0,0,0,0,0,0,-1,1826,351,0,0
609,673,0,0,0,0,0,0,0,0,0,-1,1833,351,0,0
616,673,0,0,0,0,0,0,0,0,0,-1,1840,351,0,0
623,673,0,0,0,0,0,0,0,0,0,-1,1847,351,0,0
630,673,0,0,0,0,0,0,0,0,0,-1,1854,351,0,0
637,673,0,0,0,0,0,0,0,0,0,-1,1861,351,0,0
644,673,0,0,0,0,0,0,0,0,0,-1,1868,351,0,0
651,673,0,0,0,0,0,0,0,0,0,-1,1875,351,0,0
658,673,0,0,0,0,0,0,0,0,0,-1,1882,351,0,0
665,673,0,0,0,0,0,0,0,0,0,-1,1889,351,0,0
672,673,0,0,0,0,0,0,0,0,0,-1,1896,351,0,0
679,673,0,0,0,0,0,0,0,0,0,-1,1903,351,0,0
686,673,0,0,0,0,0,0,0,0,0,-1,1910,351,0,0
693,673,0,0,0,0,0,0,0,0,0,-1,1917,351,0,0
700,673,0,0,0,0,0,0,0,0,0,-1,1924,351,0,0
707,673,0,0,0,0,0,0,0,0,0,-1,1931,351,0,0
714,673,0,0,0,0,0,0,0,0,0,-1,1938,351,0,0
721,673,0,0,0,0,0,0,0,0,0,-1,1945,351,0,0
728,673,0,0,0,0,0,0,0,0,0,-1,1952,351,0,0
735,673,0,0,0,0,0,0,0,0,0,-1,1959,351,0,0
742,673,0,0,0,0,0,0,0,0,0,-1,1966,351,0,0
749,673,0,0,0,0,0,0,0,0,0,-1,1973,351,0,0
756,673,0,0,0,0,0,0,0,0,0,-1,1980,351,0,0
763,673,0,0,0,0,0,0,0,0,0,-1,1987,351,0,0
770,673,0,0,0,0,0,0,0,0,0,-1,1994,351,0,0
777,673,0,0,0,0,0,0,0,0,0,-1,2001,351,0,0
784,673,0,0,0,0,0,0,0,0,0,-1,2008,351,0,0
791,673,0,0,0,0,0,0,0,0,0,-1,2015,351,0,0
798,673,0,0,0,0,0,0,0,0,0,-1,2022,351,0,0
805,673,0,0,0,0,0,0,0,0,0,-1,2029,351,0,0
812,673,0,0,0,0,0,0,0,0,0,-1,2036,351,0,0
-700,666,0,0,0,0,0,0,0,0,0,-1,524,358,0,0
-693,666,0,0,0,0,0,0,0,0,0,-1,531,358,0,0
-686,666,0,0,0,0,0,0,0,0,0,-1,538,358,0,0
-679,666,0,0,0,0,0,0,0,0,0,-1,545,358,0,0
-672,666,0,0,0,0,0,0,0,0,0,-1,552,358,0,0
-665,666,0,0,0,0,0,0,0,0,0,-1,559,358,0,0
-658,666,0,0,0,0,0,0,0,0,0,-1,566,358,0,0
-651,666,0,0,0,0,0,0,0,0,0,-1,573,358,0,0
-644,666,0,0,0,0,0,0,0,0,0,-1,580,358,0,0
-637,666,0,0,0,0,0,0,0,0,0,-1,587,358,0,0
-630,666,0,0,0,0,0,0,0,0,0,-1,594,358,0,0
-623,666,0,0,0,0,0,0,0,0,0,-1,601,358,0,0
-616,666,0,0,0,0,0,0,0,0,0,-1,608,358,0,0
-609,666,0,0,0,0,0,0,0,0,0,-1,615,358,0,0
-602,666,0,0,0,0,0,0,0,0,0,-1,622,358,0,0
-595,666,0,0,0,0,0,0,0,0,0,-1,629,358,0,0
-588,666,0,0,0,0,0,0,0,0,0,-1,636,358,0,0
-581,666,0,0,0,0,0,0,0,0,0,-1,643,358,0,0
-574,666,0,0,0,0,0,0,0,0,0,-1,650,358,0,0
-567,666,0,0,0,0,0,0,0,0,0,-1,657,358,0,0
-560,666,0,0,0,0,0,0,0,0,0,-1,664,358,0,0
-553,666,0,0,0,0,0,0,0,0,0,-1,671,358,0,0
-546,666,0,0,0,0,0,0,0,0,0,-1,678,358,0,0
-539,666,0,0,0,0,0,0,0,0,0,-1,685,358,0,0
-532,666,0,0,0,0,0,0,0,0,0,-1,692,358,0,0
-525,666,0,0,0,0,0,0,0,0,0,-1,699,358,0,0
-518,666,0,0,0,0,0,0,0,0,0,-1,706,358,0,0
-511,666,0,0,0,0,0,0,0,0,0,-1,713,358,0,0
-504,666,0,0,0,0,0,0,0,0,0,-1,720,358,0,0
-497,666,0,0,0,0,0,0,0,0,0,-1,727,358,0,0
-490,666,0,0,0,0,0,0,0,0,0,-1,734,358,0,0
-483,666,0,0,0,0,0,0,0,0,0,-1,741,358,0,0
-476,666,0,0,0,0,0,0,0,0,0,-1,748,358,0,0
-469,666,0,0,0,0,0,0,0,0,0,-1,755,358,0,0
-462,666,0,0,0,0,0,0,0,0,0,-1,762,358,0,0
-455,666,0,0,0,0,0,0,0,0,0,-1,769,358,0,0
-448,666,0,0,0,0,0,0,0,0,0,-1,776,358,0,0
-441,666,0,0,0,0,0,0,0,0,0,-1,783,358,0,0
-434,666,0,0,0,0,0,0,0,0,0,-1,790,358,0,0
-427,666,0,0,0,0,0,0,0,0,0,-1,797,358,0,0
-420,666,0,0,0,0,0,0,0,0,0,-1,804,358,0,0
-413,666,0,0,0,0,0,0,0,0,0,-1,811,358,0,0
-406,666,0,0,0,0,0,0,0,0,0,-1,818,358,0,0
-399,666,0,0,0,0,0,0,0,0,0,-1,825,358,0,0
-392,666,0,0,0,0,0,0,0,0,0,-1,832,358,0,0
-385,666,0,0,0,0,0,0,0,0,0,-1,839,358,0,0
-378,666,0,0,0,0,0,0,0,0,0,-1,846,358,0,0
-371,666,0,0,0,0,0,0,0,0,0,-1,853,358,0,0
-364,666,0,0,0,0,0,0,0,0,0,-1,860,358,0,0
-357,666,0,0,0,0,0,0,0,0,0,-1,867,358,0,0
-350,666,0,0,0,0,0,0,0,0,0,-1,874,358,0,0
-343,666,0,0,0,0,0,0,0,0,0,-1,881,358,0,0
-336,666,0,0,0,0,0,0,0,0,0,-1,888,358,0,0
-329,666,0,0,0,0,0,0,0,0,0,-1,895,358,0,0
-322,666,0,0,0,0,0,0,0,0,0,-1,902,358,0,0
-315,666,0,0,0,0,0,0,0,0,0,-1,909,358,0,0
-308,666,0,0,0,0,0,0,0,0,0,-1,916,358,0,0
-301,666,0,0,0,0,0,0,0,0,0,-1,923,358,0,0
-294,666,0,0,0,0,0,0,0,0,0,-1,930,358,0,0
-287,666,0,0,0,0,0,0,0,0,0,-1,937,358,0,0
-280,666,0,0,0,0,0,0,0,0,0,-1,944,358,0,0
-273,666,0,0,0,0,0,0,0,0,0,-1,951,358,0,0
-266,666,0,0,0,0,0,0,0,0,0,-1,958,358,0,0
-259,666,0,0,0,0,0,0,0,0,0,-1,965,358,0,0
-252,666,0,0,0,0,0,0,0,0,0,-1,972,358,0,0
-245,666,0,0,0,0,0,0,0,0,0,-1,979,358,0,0
-238,666,0,0,0,0,0,0,0,0,0,-1,986,358,0,0
-231,666,0,0,0,0,0,0,0,0,0,-1,993,358,0,0
-224,666,0,0,0,0,0,0,0,0,0,-1,1000,358,0,0
-217,666,0,0,0,0,0,0,0,0,0,-1,1007,358,0,0
-210,666,0,0,0,0,0,0,0,0,0,-1,1014,358,0,0
-203,666,0,0,0,0,0,0,0,0,0,-1,1021,358,0,0
-196,666,-0.132935,0.376495,-0.0103237,-0.00453219,-0.0029756,-0.00327587,-0.01158,-1.1713,0.00689259,0.0402025,1028,358,-0.132936,-0.376507
-189,666,-0.541992,0.497925,-0.00919142,-0.00207277,-0.00340522,-0.000706208,-0.010558,-1.18916,0.00681546,0.045323,1035,358,-0.541942,-0.497913
-182,666,-0.774536,0.639099,-0.00916037,-0.00140608,-0.0025561,-0.000639318,-0.00992714,-1.27936,0.00641561,0.0474958,1042,358,-0.774526,-0.6391
-175,666,-0.56543,0.633453,0,0,0,0,0,0,0,-1,1049,358,-0.565385,-0.633445
-168,666,-0.0393066,0.490509,0,0,0,0,0,0,0,-1,1056,358,-0.0393523,-0.490501
-161,666,-0.48999,-0.485077,0,0,0,0,0,0,0,-1,1063,358,-0.490001,0.485063
-154,666,-0.180298,0.000335693,0,0,0,0,0,0,0,-1,1070,358,-0.180341,-0.000324184
-147,666,0.0950928,-0.154022,-0.00842947,-0.00682644,0.00443711,-0.00311903,-0.0121369,0.874754,0.00727788,0.042984,1077,358,0.0951371,0.154024
-140,666,0.328857,-0.331726,-0.00739158,-0.00828459,0.00492448,-0.00289341,-0.0127828,0.740187,0.0077398,0.0425913,1084,358,0.328894,0.331736
-133,666,0.268188,-0.303314,-0.00610979,-0.00924322,0.0055692,-0.00189113,-0.0134619,0.648283,0.00841534,0.0406672,1091,358,0.268141,0.3033
-126,666,0.0216064,0.0317688,-0.00527348,-0.00982906,0.00581401,-0.00130699,-0.0137956,0.5987,0.00879381,0.0398778,1098,358,0.0216363,-0.0317727
-119,666,-0.0256348,0.0488281,-0.00481737,-0.00948517,0.00532218,-0.00133985,-0.0129627,0.578764,0.00823161,0.0409355,1105,358,-0.025611,-0.0488376
-112,666,0.0219727,0.197937,0,0,0,0,0,0,0,-1,1112,358,0.0219639,-0.197943
-105,666,0.00646973,0.100586,0,0,0,0,0,0,0,-1,1119,358,0.00642173,-0.100592
-98,666,-0.0731201,-0.113037,0,0,0,0,0,0,0,-1,1126,358,-0.0731,0.113039
-91,666,-0.30835,0.266876,-0.00280854,-0.00393805,0.00015454,-0.00278778,-0.00395882,0.133551,0.0023483,0.0424635,1133,358,-0.308349,-0.266878
-84,666,-0.292358,0.159943,-0.00239979,-0.00223557,-0.000860063,-0.0014537,-0.00318165,-0.83299,0.0018392,0.0458717,1140,358,-0.292333,-0.159934
-77,666,0.104492,0.0766602,-0.00173005,1.14346e-05,-0.00213416,0.00144565,-0.00316427,-0.979091,0.00272249,0.0454856,1147,358,0.104501,-0.0766604
-70,666,-0.138184,0.0131531,-0.00138744,0.00223238,-0.00330466,0.0041903,-0.00334536,-1.03593,0.00435982,0.0397225,1154,358,-0.13815,-0.0131535
-63,666,-0.0853271,0.00476074,-0.0018527,0.0032401,-0.0043272,0.00571454,-0.00432714,-1.05135,0.00581598,0.0365131,1161,358,-0.0853051,-0.0047743
-56,666,-0.201294,-0.141235,-0.00284264,0.00354402,-0.00536592,0.00659492,-0.00589354,-1.05381,0.00721401,0.0354102,1168,358,-0.201334,0.14123
-49,666,-0.167969,-0.170807,-0.00344567,0.0030283,-0.00664129,0.00717946,-0.00759683,-1.01216,0.00853223,0.0310256,1175,358,-0.168024,0.170805
-42,666,-0.0567627,-0.0168152,-0.00402389,0.00168352,-0.00817475,0.00748834,-0.00982871,-0.953329,0.0100284,0.0302056,1182,358,-0.0567391,0.0168237
-35,666,-0.03125,-0.0280762,-0.00476758,0.000524129,-0.00916499,0.00741754,-0.011661,-0.925923,0.0111054,0.0297287,1189,358,-0.0312134,0.0280687
-28,666,-0.0482178,0.00842285,-0.0054975,-0.00139312,-0.0102815,0.00703896,-0.0139296,-0.883904,0.0123222,0.0276569,1196,358,-0.0481845,-0.00843038
-21,666,-0.0166016,0.0154419,-0.00597863,-0.00324275,-0.0113678,0.0068391,-0.0160605,-0.845278,0.0135737,0.0284892,1203,358,-0.0165493,-0.0154447
-14,666,-0.0405273,-0.0318909,-0.00593345,-0.00508166,-0.01229,0.00678981,-0.0178049,-0.802718,0.0146668,0.024378,1210,358,-0.0405431,0.0318967
-7,666,-0.0646973,-0.0394897,-0.00534777,-0.00657118,-0.0127325,0.00678772,-0.0187067,-0.761395,0.015246,0.0164843,1217,358,-0.0646683,0.0394898
0,666,-0.0761719,-0.0239868,-0.00424689,-0.00776272,-0.012021,0.00614403,-0.0181537,-0.712794,0.0145883,0.0108665,1224,358,-0.0761228,0.0239861
7,666,-0.0993652,-0.0348511,-0.00288211,-0.0081204,-0.0106315,0.00544816,-0.0164507,-0.664625,0.0131645,0.0143891,1231,358,-0.0993534,0.0348442
14,666,-0.0915527,-0.0472412,-0.00045491,-0.00757476,-0.00859364,0.00528697,-0.0133166,-0.589033,0.0110693,0.014204,1238,358,-0.0915305,0.0472399
21,666,-0.09375,-0.032959,0.0026752,-0.00673213,-0.00630055,0.0058342,-0.00989112,-0.464754,0.00917918,0.0108554,1245,358,-0.0937599,0.0329453
28,666,-0.0925293,-0.0276794,0.00563584,-0.00584605,-0.00411563,0.00695867,-0.00716887,-0.310986,0.00815684,0.0110112,1252,358,-0.0925792,0.027689
35,666,-0.0662842,-0.0317688,0.013199,-0.00502665,-0.00098386,0.013252,-0.0050796,-0.0537738,0.0109287,0.00954341,1259,358,-0.066254,0.0317813
42,666,-0.053833,-0.0418701,0.0228564,-0.00363855,0.00221649,0.0230406,-0.00382269,0.0828893,0.0167804,0.0106982,1266,358,-0.0538853,0.041878
49,666,-0.0632324,-0.0379333,0.02996,-0.00235386,0.00485441,0.0306735,-0.00306737,0.145936,0.0215444,0.00964964,1273,358,-0.0632861,0.0379211
56,666,-0.0566406,-0.0397339,0.0365403,-0.00101245,0.00709426,0.0378359,-0.00230796,0.180624,0.0260274,0.0110359,1280,358,-0.0566511,0.0397209
63,666,-0.0603027,-0.0290833,0.0428372,-0.000192258,0.00858357,0.0444863,-0.00184132,0.189806,0.03029,0.01231,1287,358,-0.060264,0.0290777
70,666,-0.0834961,-0.0366516,0.048601,-0.000327471,0.00904422,0.0502193,-0.00194573,0.177054,0.0341466,0.0120963,1294,358,-0.0835312,0.0366563
77,666,-0.0828857,-0.0640564,0.0530364,-0.000688287,0.00926727,0.0545901,-0.00224192,0.166103,0.0371632,0.0159798,1301,358,-0.0828599,0.0640715
84,666,-0.0977783,-0.0791931,0.0555736,-0.00132687,0.00948601,0.0571134,-0.00286664,0.160916,0.0390662,0.0227917,1308,358,-0.0977681,0.0791859
91,666,-0.10022,-0.0619202,0.056455,-0.0023747,0.00947965,0.0579448,-0.0038645,0.155882,0.0399804,0.0206113,1315,358,-0.100163,0.0619068
98,666,-0.0997314,-0.0410156,0.0562514,-0.00363072,0.00961121,0.0577562,-0.00513552,0.155307,0.0403251,0.0168875,1322,358,-0.0996751,0.0410054
105,666,-0.108032,-0.0217896,0.054664,-0.00481492,0.00922643,0.0560623,-0.00621326,0.150413,0.0396087,0.0173238,1329,358,-0.108013,0.021779
112,666,-0.125488,-0.0400696,0.050563,-0.00632224,0.00869748,0.0518631,-0.00762233,0.14838,0.0373762,0.0215662,1336,358,-0.125507,0.04008
119,666,-0.0637207,-0.0442505,0.0448929,-0.00769989,0.00825386,0.0461579,-0.00896482,0.15207,0.0341546,0.0234472,1343,358,-0.0637491,0.044243
126,666,-0.0472412,-0.0411072,0.0387032,-0.00884349,0.00768533,0.0399146,-0.0100549,0.156335,0.0305186,0.022338,1350,358,-0.0472439,0.0411086
133,666,-0.083252,-0.0144653,0.0326861,-0.00982456,0.00741668,0.0339429,-0.0110814,0.167862,0.0270888,0.0206582,1357,358,-0.0832132,0.01446
140,666,-0.0593262,-0.0273132,0.0238483,-0.0109808,0.00646653,0.0250101,-0.0121426,0.177774,0.0218748,0.0199396,1364,358,-0.0592688,0.0273253
147,666,-0.0697021,-0.0431519,0.0160699,-0.0115027,0.0054818,0.0171198,-0.0125526,0.189229,0.0171989,0.0191713,1371,358,-0.0696925,0.0431653
154,666,-0.0841064,-0.0141602,0.0131543,-0.0116564,0.00530145,0.0142396,-0.0127417,0.20193,0.0155857,0.0176806,1378,358,-0.0840731,0.0141745
161,666,-0.0516357,-0.0190125,0.0103035,-0.0113641,0.00517717,0.011477,-0.0125376,0.222894,0.0138693,0.0213827,1385,358,-0.0516014,0.0190114
168,666,-0.039917,-0.0411682,0.00738249,-0.0108624,0.00508896,0.00870593,-0.0121858,0.254425,0.0121175,0.0232861,1392,358,-0.039958,0.0411799
175,666,-0.0759277,-0.0721741,0.00510001,-0.00984313,0.00477152,0.00649364,-0.0112368,0.284168,0.010358,0.021922,1399,358,-0.0759219,0.0721857
182,666,-0.0339355,-0.0665588,0.00380078,-0.00863984,0.00467634,0.00536252,-0.0102016,0.322321,0.00912956,0.0245019,1406,358,-0.0339638,0.0665625
189,666,-0.0412598,-0.0244141,0.00229204,-0.00737873,0.00446914,0.00404104,-0.00912773,0.373028,0.00778976,0.0232855,1413,358,-0.0412432,0.0244256
196,666,-0.0389404,0.00445557,0.000574321,-0.00552154,0.00460832,0.00305147,-0.00799869,0.493225,0.00658949,0.0290231,1420,358,-0.0388907,-0.00445244
203,666,0.0286865,-0.0301514,-0.00107739,-0.00415276,0.00460496,0.00223983,-0.00746998,0.62426,0.00587079,0.040471,1427,358,0.0286407,0.0301651
210,666,0.0847168,-0.065033,-0.00201975,-0.00273784,0.00536831,0.00300151,-0.0077591,0.752007,0.00641185,0.0415395,1434,358,0.0847458,0.0650419
217,666,0.067627,-0.0796204,0,0,0,0,0,0,0,-1,1441,358,0.0675755,0.0796282
224,666,-0.165894,-0.127197,-0.00298484,-8.26409e-05,0.00618138,0.00481568,-0.00788316,0.900687,0.00740263,0.0436892,1448,358,-0.165902,0.127191
231,666,0.288208,-0.0132446,-0.00353252,0.00115434,0.00641937,0.00564464,-0.00802283,0.960411,0.00793064,0.0462801,1455,358,0.288241,0.0132365
238,666,0.260986,0.157135,-0.00451291,0.00167314,0.00593237,0.0052704,-0.00811017,1.0257,0.00778305,0.0464631,1462,358,0.261002,-0.157123
245,666,0.0888672,0.208099,-0.00503093,0.00279622,0.00513,0.00533501,-0.00756971,1.11125,0.00748769,0.0424105,1469,358,0.0888455,-0.208104
252,666,-0.207764,0.0500183,-0.00512831,0.00306043,0.00422613,0.00485028,-0.00691816,1.17018,0.00682939,0.0449297,1476,358,-0.207706,-0.0500331
259,666,-0.394043,-0.065918,-0.0046603,0.00219681,0.0026767,0.00311793,-0.00558142,1.23936,0.00508926,0.0454173,1483,358,-0.394066,0.0659073
266,666,-0.315063,0.010376,-0.003827,-3.96078e-05,0.00087582,0.000153115,-0.00401972,1.3542,0.00273228,0.0434932,1490,358,-0.315009,-0.010362
273,666,-0.0327148,0.14035,-0.00309732,-0.00139157,-0.00110804,-0.000846177,-0.00364271,-1.1134,0.00220131,0.0405714,1497,358,-0.0327709,-0.140349
280,666,0.240356,0.230377,-0.00272427,-0.00304767,-0.0034527,0.000570518,-0.00634246,-0.761999,0.00443074,0.0378277,1504,358,0.24039,-0.230375
287,666,0.201782,0.361633,-0.00203387,-0.00530467,-0.00588325,0.00243705,-0.0097756,-0.649833,0.00746325,0.0425717,1511,358,0.201747,-0.361639
294,666,0.0505371,0.509216,-0.000628919,-0.00789938,-0.00751229,0.00408147,-0.0126098,-0.560054,0.0100472,0.0453906,1518,358,0.0505834,-0.509204
301,666,0.195068,0.42691,0.00119927,-0.0104892,-0.00908427,0.00615684,-0.0154468,-0.49956,0.0128515,0.0436787,1525,358,0.195011,-0.426919
308,666,0.22229,0.0707092,0.00241998,-0.0131382,-0.0104744,0.00768801,-0.0184062,-0.465999,0.0154834,0.042183,1532,358,0.222268,-0.0707055
315,666,0.321533,-0.374756,0.00327595,-0.0164418,-0.011908,0.00887666,-0.0220425,-0.439631,0.0183827,0.0468742,1539,358,0.321554,0.374758
322,666,0,0,0,0,0,0,0,0,0,-1,1546,358,0,0
329,666,0,0,0,0,0,0,0,0,0,-1,1553,358,0,0
336,666,0,0,0,0,0,0,0,0,0,-1,1560,358,0,0
343,666,0,0,0,0,0,0,0,0,0,-1,1567,358,0,0
350,666,0,0,0,0,0,0,0,0,0,-1,1574,358,0,0
357,666,0,0,0,0,0,0,0,0,0,-1,1581,358,0,0
364,666,0,0,0,0,0,0,0,0,0,-1,1588,358,0,0
371,666,0,0,0,0,0,0,0,0,0,-1,1595,358,0,0
378,666,0,0,0,0,0,0,0,0,0,-1,1602,358,0,0
385,666,0,0,0,0,0,0,0,0,0,-1,1609,358,0,0
392,666,0,0,0,0,0,0,0,0,0,-1,1616,358,0,0
399,666,0,0,0,0,0,0,0,0,0,-1,1623,358,0,0
406,666,0,0,0,0,0,0,0,0,0,-1,1630,358,0,0
413,666,0,0,0,0,0,0,0,0,0,-1,1637,358,0,0
420,666,0,0,0,0,0,0,0,0,0,-1,1644,358,0,0
427,666,0,0,0,0,0,0,0,0,0,-1,1651,358,0,0
434,666,0,0,0,0,0,0,0,0,0,-1,1658,358,0,0
441,666,0,0,0,0,0,0,0,0,0,-1,1665,358,0,0
448,666,0,0,0,0,0,0,0,0,0,-1,1672,358,0,0
455,666,0,0,0,0,0,0,0,0,0,-1,1679,358,0,0
462,666,0,0,0,0,0,0,0,0,0,-1,1686,358,0,0
469,666,0,0,0,0,0,0,0,0,0,-1,1693,358,0,0
476,666,0,0,0,0,0,0,0,0,0,-1,1700,358,0,0
483,666,0,0,0,0,0,0,0,0,0,-1,1707,358,0,0
490,666,0,0,0,0,0,0,0,0,0,-1,1714,358,0,0
497,666,0,0,0,0,0,0,0,0,0,-1,1721,358,0,0
504,666,0,0,0,0,0,0,0,0,0,-1,1728,358,0,0
511,666,0,0,0,0,0,0,0,0,0,-1,1735,358,0,0
518,666,0,0,0,0,0,0,0,0,0,-1,1742,358,0,0
525,666,0,0,0,0,0,0,0,0,0,-1,1749,358,0,0
532,666,0,0,0,0,0,0,0,0,0,-1,1756,358,0,0
539,666,0,0,0,0,0,0,0,0,0,-1,1763,358,0,0
546,666,0,0,0,0,0,0,0,0,0,-1,1770,358,0,0
553,666,0,0,0,0,0,0,0,0,0,-1,1777,358,0,0
560,666,0,0,0,0,0,0,0,0,0,-1,1784,358,0,0
567,666,0,0,0,0,0,0,0,0,0,-1,1791,358,0,0
574,666,0,0,0,0,0,0,0,0,0,-1,1798,358,0,0
581,666,0,0,0,0,0,0,0,0,0,-1,1805,358,0,0
588,666,0,0,0,0,0,0,0,0,0,-1,1812,358,0,0
595,666,0,0,0,0,0,0,0,0,0,-1,1819,358,0,0
602,666,0,0,0,0,0,0,0,0,0,-1,1826,358,0,0
609,666,0,0,0,0,0,0,0,0,0,-1,1833,358,0,0
616,666,0,0,0,0,0,0,0,0,0,-1,1840,358,0,0
623,666,0,0,0,0,0,0,0,0,0,-1,1847,358,0,0
630,666,0,0,0,0,0,0,0,0,0,-1,1854,358,0,0
637,666,0,0,0,0,0,0,0,0,0,-1,1861,358,0,0
644,666,0,0,0,0,0,0,0,0,0,-1,1868,358,0,0
651,666,0,0,0,0,0,0,0,0,0,-1,1875,358,0,0
658,666,0,0,0,0,0,0,0,0,0,-1,1882,358,0,0
665,666,0,0,0,0,0,0,0,0,0,-1,1889,358,0,0
672,666,0,0,0,0,0,0,0,0,0,-1,1896,358,0,0
679,666,0,0,0,0,0,0,0,0,0,-1,1903,358,0,0
686,666,0,0,0,0,0,0,0,0,0,-1,1910,358,0,0
693,666,0,0,0,0,0,0,0,0,0,-1,1917,358,0,0
700,666,0,0,0,0,0,0,0,0,0,-1,1924,358,0,0
707,666,0,0,0,0,0,0,0,0,0,-1,1931,358,0,0
714,666,0,0,0,0,0,0,0,0,0,-1,1938,358,0,0
721,666,0,0,0,0,0,0,0,0,0,-1,1945,358,0,0
728,666,0,0,0,0,0,0,0,0,0,-1,1952,358,0,0
735,666,0,0,0,0,0,0,0,0,0,-1,1959,358,0,0
742,666,0,0,0,0,0,0,0,0,0,-1,1966,358,0,0
749,666,0,0,0,0,0,0,0,0,0,-1,1973,358,0,0
756,666,0,0,0,0,0,0,0,0,0,-1,1980,358,0,0
763,666,0,0,0,0,0,0,0,0,0,-1,1987,358,0,0
770,666,0,0,0,0,0,0,0,0,0,-1,1994,358,0,0
777,666,0,0,0,0,0,0,0,0,0,-1,2001,358,0,0
784,666,0,0,0,0,0,0,0,0,0,-1,2008,358,0,0
791,666,0,0,0,0,0,0,0,0,0,-1,2015,358,0,0
798,666,0,0,0,0,0,0,0,0,0,-1,2022,358,0,0
805,666,0,0,0,0,0,0,0,0,0,-1,2029,358,0,0
812,666,0,0,0,0,0,0,0,0,0,-1,2036,358,0,0
-700,659,0,0,0,0,0,0,0,0,0,-1,524,365,0,0
-693,659,0,0,0,0,0,0,0,0,0,-1,531,365,0,0
-686,659,0,0,0,0,0,0,0,0,0,-1,538,365,0,0
-679,659,0,0,0,0,0,0,0,0,0,-1,545,365,0,0
-672,659,0,0,0,0,0,0,0,0,0,-1,552,365,0,0
-665,659,0,0,0,0,0,0,0,0,0,-1,559,365,0,0
-658,659,0,0,0,0,0,0,0,0,0,-1,566,365,0,0
-651,659,0,0,0,0,0,0,0,0,0,-1,573,365,0,0
-644,659,0,0,0,0,0,0,0,0,0,-1,580,365,0,0
-637,659,0,0,0,0,0,0,0,0,0,-1,587,365,0,0
-630,659,0,0,0,0,0,0,0,0,0,-1,594,365,0,0
-623,659,0,0,0,0,0,0,0,0,0,-1,601,365,0,0
-616,659,0,0,0,0,0,0,0,0,0,-1,608,365,0,0
-609,659,0,0,0,0,0,0,0,0,0,-1,615,365,0,0
-602,659,0,0,0,0,0,0,0,0,0,-1,622,365,0,0
-595,659,0,0,0,0,0,0,0,0,0,-1,629,365,0,0
-588,659,0,0,0,0,0,0,0,0,0,-1,636,365,0,0
-581,659,0,0,0,0,0,0,0,0,0,-1,643,365,0,0
-574,659,0,0,0,0,0,0,0,0,0,-1,650,365,0,0
-567,659,0,0,0,0,0,0,0,0,0,-1,657,365,0,0
-560,659,0,0,0,0,0,0,0,0,0,-1,664,365,0,0
-553,659,0,0,0,0,0,0,0,0,0,-1,671,365,0,0
-546,659,0,0,0,0,0,0,0,0,0,-1,678,365,0,0
-539,659,0,0,0,0,0,0,0,0,0,-1,685,365,0,0
-532,659,0,0,0,0,0,0,0,0,0,-1,692,365,0,0
-525,659,0,0,0,0,0,0,0,0,0,-1,699,365,0,0
-518,659,0,0,0,0,0,0,0,0,0,-1,706,365,0,0
-511,659,0,0,0,0,0,0,0,0,0,-1,713,365,0,0
-504,659,0,0,0,0,0,0,0,0,0,-1,720,365,0,0
-497,659,0,0,0,0,0,0,0,0,0,-1,727,365,0,0
-490,659,0,0,0,0,0,0,0,0,0,-1,734,365,0,0
-483,659,0,0,0,0,0,0,0,0,0,-1,741,365,0,0
-476,659,0,0,0,0,0,0,0,0,0,-1,748,365,0,0
-469,659,0,0,0,0,0,0,0,0,0,-1,755,365,0,0
-462,659,0,0,0,0,0,0,0,0,0,-1,762,365,0,0
-455,659,0,0,0,0,0,0,0,0,0,-1,769,365,0,0
-448,659,0,0,0,0,0,0,0,0,0,-1,776,365,0,0
-441,659,0,0,0,0,0,0,0,0,0,-1,783,365,0,0
-434,659,0,0,0,0,0,0,0,0,0,-1,790,365,0,0
-427,659,0,0,0,0,0,0,0,0,0,-1,797,365,0,0
-420,659,0,0,0,0,0,0,0,0,0,-1,804,365,0,0
-413,659,0,0,0,0,0,0,0,0,0,-1,811,365,0,0
-406,659,0,0,0,0,0,0,0,0,0,-1,818,365,0,0
-399,659,0,0,0,0,0,0,0,0,0,-1,825,365,0,0
-392,659,0,0,0,0,0,0,0,0,0,-1,832,365,0,0
-385,659,0,0,0,0,0,0,0,0,0,-1,839,365,0,0
-378,659,0,0,0,0,0,0,0,0,0,-1,846,365,0,0
-371,659,0,0,0,0,0,0,0,0,0,-1,853,365,0,0
-364,659,0,0,0,0,0,0,0,0,0,-1,860,365,0,0
-357,659,0,0,0,0,0,0,0,0,0,-1,867,365,0,0
-350,659,0,0,0,0,0,0,0,0,0,-1,874,365,0,0
-343,659,0,0,0,0,0,0,0,0,0,-1,881,365,0,0
-336,659,0,0,0,0,0,0,0,0,0,-1,888,365,0,0
-329,659,0,0,0,0,0,0,0,0,0,-1,895,365,0,0
-322,659,0,0,0,0,0,0,0,0,0,-1,902,365,0,0
-315,659,0,0,0,0,0,0,0,0,0,-1,909,365,0,0
-308,659,0,0,0,0,0,0,0,0,0,-1,916,365,0,0
-301,659,0,0,0,0,0,0,0,0,0,-1,923,365,0,0
-294,659,0,0,0,0,0,0,0,0,0,-1,930,365,0,0
-287,659,0,0,0,0,0,0,0,0,0,-1,937,365,0,0
-280,659,0,0,0,0,0,0,0,0,0,-1,944,365,0,0
-273,659,0,0,0,0,0,0,0,0,0,-1,951,365,0,0
-266,659,0,0,0,0,0,0,0,0,0,-1,958,365,0,0
-259,659,0,0,0,0,0,0,0,0,0,-1,965,365,0,0
-252,659,0,0,0,0,0,0,0,0,0,-1,972,365,0,0
-245,659,0,0,0,0,0,0,0,0,0,-1,979,365,0,0
-238,659,0,0,0,0,0,0,0,0,0,-1,986,365,0,0
-231,659,0,0,0,0,0,0,0,0,0,-1,993,365,0,0
-224,659,0,0,0,0,0,0,0,0,0,-1,1000,365,0,0
-217,659,-0.108337,0.390564,0.00278366,-0.00435473,-0.00368116,0.00434185,-0.00591292,-0.400419,0.00594371,0.040676,1007,365,-0.108335,-0.390559
-210,659,-0.0948486,0.298767,-0.00319371,-0.00281401,-0.00505,0.00204971,-0.00805742,-0.804187,0.00616941,0.0395727,1014,365,-0.0948435,-0.298782
-203,659,0.00439453,0.238342,-0.00671731,-0.00226765,-0.00519886,0.00116243,-0.0101474,-0.987579,0.00718382,0.0397695,1021,365,0.0044029,-0.238336
-196,659,0.200317,0.457489,-0.00673461,-0.0010128,-0.00513896,0.00200793,-0.00975534,-1.03939,0.00726595,0.0413116,1028,365,0.200344,-0.45748
-189,659,-0.269653,0.667084,-0.00619553,0.000516888,-0.00525653,0.00339728,-0.00907592,-1.06952,0.00744603,0.0442264,1035,365,-0.269638,-0.667092
-182,659,-0.537598,0.623383,-0.00632341,0.000732831,-0.0043518,0.00280701,-0.00839759,-1.12602,0.00673204,0.045034,1042,365,-0.537607,-0.62337
-175,659,-0.639404,0.425354,0,0,0,0,0,0,0,-1,1049,365,-0.639379,-0.42536
-168,659,-0.513916,0.262573,0,0,0,0,0,0,0,-1,1056,365,-0.513873,-0.262566
-161,659,-0.7948,-0.633453,0,0,0,0,0,0,0,-1,1063,365,-0.794802,0.633441
-154,659,-0.00927734,0.0675659,0,0,0,0,0,0,0,-1,1070,365,-0.00924415,-0.0675536
-147,659,0.215088,-0.0927429,-0.00640932,-0.00479365,0.0027416,-0.00274334,-0.00845963,0.928672,0.00498369,0.0437005,1077,365,0.215041,0.0927329
-140,659,0.38501,-0.405884,-0.00560876,-0.00590016,0.00326628,-0.00248493,-0.00902398,0.763109,0.00538241,0.0435249,1084,365,0.385046,0.405882
-133,659,0.347778,-0.420166,-0.0045071,-0.00670274,0.00387801,-0.00157451,-0.00963533,0.647463,0.00596835,0.042123,1091,365,0.34773,0.420172
-126,659,-0.00012207,0.0148315,-0.00381372,-0.00717367,0.00425834,-0.000915952,-0.0100714,0.597514,0.00643076,0.0388213,1098,365,-0.000163918,-0.01482
-119,659,0.0432129,0.0887756,-0.00355236,-0.00689493,0.00405646,-0.000836378,-0.00961091,0.589992,0.00614747,0.0378191,1105,365,0.0431711,-0.0887821
-112,659,0.00439453,0.109253,-0.00334671,-0.00612932,0.00341031,-0.00105481,-0.00842122,0.591719,0.00529766,0.0373534,1112,365,0.0043683,-0.109256
-105,659,-0.0367432,0.0372314,-0.00299161,-0.00509988,0.00208477,-0.00170962,-0.00638187,0.551325,0.00381462,0.0377311,1119,365,-0.0368005,-0.0372358
-98,659,-0.0811768,-0.0847168,-0.00252508,-0.00383641,0.000856569,-0.00210204,-0.00425946,0.458739,0.00245927,0.0378365,1126,365,-0.0811369,0.0847204
-91,659,-0.207764,0.202759,-0.00216166,-0.00269297,7.4965e-05,-0.00215129,-0.00270334,0.13752,0.0016493,0.0367593,1133,365,-0.207706,-0.202758
-84,659,-0.0101318,-0.00497437,-0.00181869,-0.00148032,-0.00069423,-0.000934956,-0.00236405,-0.904922,0.00137479,0.0386784,1140,365,-0.0101301,0.00496145
-77,659,0.0368652,0.0167542,-0.00126618,0.00011365,-0.00167639,0.00123654,-0.00238907,-0.980609,0.00212821,0.0346605,1147,365,0.0368272,-0.0167393
-70,659,-0.048584,-0.00180054,-0.000962781,0.00170751,-0.00257487,0.00327281,-0.00252808,-1.02458,0.00335833,0.0249218,1154,365,-0.0485547,0.00179201
-63,659,-0.086792,-0.026886,-0.00128233,0.00242117,-0.00330288,0.00435598,-0.00321714,-1.04089,0.00438879,0.0210457,1161,365,-0.0868004,0.0268719
-56,659,-0.0947266,-0.0072937,-0.00200961,0.00263644,-0.0039617,0.00490597,-0.00427914,-1.05057,0.00530714,0.019276,1168,365,-0.0947433,0.00729484
-49,659,-0.0854492,-0.0333862,-0.00247229,0.00235103,-0.00474335,0.0052606,-0.00538186,-1.02058,0.00614456,0.0139335,1175,365,-0.0855097,0.0333888
-42,659,-0.0665283,-0.0511169,-0.00291338,0.0014849,-0.0057153,0.00540955,-0.00683803,-0.969057,0.00708716,0.0105055,1182,365,-0.0665404,0.0511134
-35,659,-0.0606689,-0.0417175,-0.00346025,0.000701382,-0.0062853,0.00524135,-0.00800022,-0.94525,0.00770013,0.010205,1189,365,-0.0607157,0.0417247
-28,659,-0.0706787,-0.0223083,-0.00399923,-0.000612737,-0.00695382,0.00485101,-0.00946299,-0.904824,0.00840596,0.0107783,1196,365,-0.0706573,0.0223231
-21,659,-0.071167,-0.013031,-0.00432693,-0.00186411,-0.00764873,0.0046517,-0.0108427,-0.865211,0.00918067,0.0112097,1203,365,-0.0711943,0.0130181
-14,659,-0.0756836,-0.0327759,-0.0042216,-0.00310522,-0.00821332,0.00456886,-0.0118957,-0.819327,0.00981453,0.00868142,1210,365,-0.0756476,0.0327659
-7,659,-0.0762939,-0.0461121,-0.00372522,-0.00409862,-0.00843215,0.00452229,-0.0123461,-0.774329,0.0100821,0.00813609,1217,365,-0.0763328,0.0461078
0,659,-0.0927734,-0.0377808,-0.00292393,-0.00489532,-0.00790823,0.0040598,-0.011879,-0.723397,0.00956429,0.00714938,1224,365,-0.0927924,0.0377671
7,659,-0.104492,-0.0256348,-0.00200086,-0.00512002,-0.00695053,0.00356292,-0.0106838,-0.675035,0.00856098,0.00697402,1231,365,-0.104551,0.0256452
14,659,-0.0963135,-0.0198059,-0.000532098,-0.00487972,-0.00569102,0.00338615,-0.00879796,-0.602964,0.00726212,0.00945183,1238,365,-0.0962903,0.0197987
21,659,-0.0848389,-0.0211487,0.00140425,-0.00446579,-0.00424149,0.00362719,-0.00668873,-0.482738,0.0060427,0.010218,1245,365,-0.084882,0.0211371
28,659,-0.0782471,-0.0232544,0.00326115,-0.00396096,-0.0028486,0.00424947,-0.00494928,-0.333955,0.00531602,0.00969715,1252,365,-0.078305,0.023263
35,659,-0.0720215,-0.0255737,0.00857572,-0.00360379,-0.000725666,0.0086188,-0.00364687,-0.0593013,0.00727294,0.00971009,1259,365,-0.0720767,0.0255724
42,659,-0.0672607,-0.0334167,0.0156036,-0.00275569,0.00148624,0.0157231,-0.00287523,0.0802567,0.0115603,0.0105161,1266,365,-0.0672302,0.0334262
49,659,-0.0690918,-0.0469055,0.0207696,-0.00195333,0.00326432,0.0212292,-0.00241297,0.13989,0.0150219,0.0110229,1273,365,-0.0691279,0.0469146
56,659,-0.0599365,-0.049408,0.0255845,-0.00108437,0.00477301,0.026413,-0.00191288,0.171868,0.0182797,0.0140398,1280,365,-0.0599284,0.0494118
63,659,-0.0653076,-0.0393677,0.0302258,-0.000559433,0.00575846,0.0312677,-0.00160131,0.178993,0.0213989,0.0150913,1287,365,-0.0653567,0.0393806
70,659,-0.0560303,-0.0456848,0.034517,-0.000674786,0.00605597,0.0355299,-0.00168777,0.165736,0.0242688,0.0158503,1294,365,-0.0559889,0.0456787
77,659,-0.0675049,-0.0289307,0.0377847,-0.000975168,0.00618245,0.038747,-0.00193742,0.154404,0.0265007,0.0156251,1301,365,-0.0674998,0.0289169
84,659,-0.0769043,-0.0420227,0.0396969,-0.00146009,0.00633608,0.0406503,-0.00241344,0.149343,0.0279394,0.0116498,1308,365,-0.0768694,0.0420147
91,659,-0.0925293,-0.0530701,0.0403477,-0.00218883,0.00631421,0.0412652,-0.00310634,0.144298,0.0286018,0.0103427,1315,365,-0.092553,0.0530619
98,659,-0.0817871,-0.0593567,0.0401567,-0.00306093,0.00638795,0.0410811,-0.00398536,0.143716,0.0288079,0.00728057,1322,365,-0.0817701,0.0593558
105,659,-0.072876,-0.0327454,0.0388367,-0.00386911,0.006072,0.0396833,-0.00471565,0.138525,0.0281593,0.00846126,1329,365,-0.072884,0.0327531
112,659,-0.0744629,-0.0261536,0.0357773,-0.00492812,0.00570682,0.0365622,-0.00571307,0.136688,0.0264854,0.0101181,1336,365,-0.074497,0.0261621
119,659,-0.0539551,-0.0466614,0.0315763,-0.00585723,0.00542741,0.0323474,-0.00662825,0.141117,0.0240804,0.0109804,1343,365,-0.0539704,0.0466629
126,659,-0.0653076,-0.0427246,0.0270353,-0.00659801,0.00506885,0.0277826,-0.00734533,0.146379,0.0213947,0.0110399,1350,365,-0.0653008,0.0427277
133,659,-0.0963135,-0.0358887,0.0227688,-0.00724158,0.00496204,0.023568,-0.00804074,0.159684,0.0189691,0.0100105,1357,365,-0.0962965,0.0358909
140,659,-0.0997314,-0.0481567,0.016464,-0.0080293,0.00438577,0.0172256,-0.00879093,0.171945,0.0152815,0.00857535,1364,365,-0.0997168,0.0481612
147,659,-0.0769043,-0.0319214,0.0110256,-0.00841848,0.00381345,0.0117468,-0.00913964,0.186903,0.0120901,0.00801907,1371,365,-0.0769057,0.0319117
154,659,-0.0703125,-0.0151978,0.00910303,-0.00857704,0.00381412,0.00989075,-0.00936476,0.203665,0.0111186,0.00884205,1378,365,-0.0702997,0.0151827
161,659,-0.0736084,-0.0272827,0.00721912,-0.00840665,0.00382229,0.00810399,-0.00929153,0.227497,0.0100511,0.00956062,1385,365,-0.0736227,0.0272937
168,659,-0.081665,-0.0373535,0.00529414,-0.00810223,0.00384812,0.00632084,-0.00912893,0.26073,0.0089689,0.010749,1392,365,-0.0817044,0.0373418
175,659,-0.081665,-0.0429382,0.0038876,-0.00744225,0.00370902,0.0049938,-0.00854845,0.289848,0.0079079,0.00952347,1399,365,-0.0817018,0.04294
182,659,-0.0432129,-0.0412598,0.00308124,-0.0065956,0.00373627,0.00435592,-0.00787028,0.328782,0.00715534,0.0112655,1406,365,-0.0432029,0.041268
189,659,-0.052124,-0.0240173,0.00207913,-0.00568013,0.00366415,0.00353593,-0.00713693,0.378421,0.0062778,0.011666,1413,365,-0.052113,0.0240029
196,659,-0.0866699,-0.000823975,0.000898601,-0.00433695,0.00382638,0.00291698,-0.00635532,0.485397,0.00547468,0.0128835,1420,365,-0.0866574,0.000825948
203,659,-0.0595703,-0.0285645,-0.000270588,-0.00331132,0.0038506,0.00234893,-0.00593084,0.597373,0.00492718,0.0185991,1427,365,-0.0595097,0.028576
210,659,0.0270996,-0.067627,-0.000947677,-0.00222867,0.00440892,0.00286703,-0.00604338,0.713266,0.00525225,0.0251763,1434,365,0.0271584,0.0676403
217,659,0.0124512,-0.0510559,-0.00139439,-0.00124425,0.00472615,0.00340743,-0.00604607,0.793339,0.0055284,0.0341963,1441,365,0.0124407,0.0510485
224,659,-0.043457,-0.0337524,-0.00158424,-0.000103323,0.00495081,0.0041621,-0.00584966,0.859629,0.0058076,0.0414045,1448,365,-0.0434785,0.0337513
231,659,0.0181885,-0.0708313,-0.00194006,0.00089949,0.00507836,0.00475281,-0.00579337,0.921705,0.00609871,0.0429784,1455,365,0.0181796,0.0708318
238,659,0.010376,-0.0433044,-0.00261072,0.00139945,0.0047109,0.00451423,-0.0057255,0.986599,0.00592568,0.042542,1462,365,0.0104228,0.0432941
245,659,-0.0637207,0.00195313,-0.00287818,0.00236875,0.00410946,0.00462076,-0.00513019,1.06949,0.00563227,0.0380828,1469,365,-0.0637696,-0.00196835
252,659,-0.203979,-0.0614319,-0.00286324,0.00278996,0.00341563,0.00439689,-0.00447017,1.13106,0.00511946,0.0388878,1476,365,-0.203941,0.0614182
259,659,-0.193726,-0.158234,-0.00249894,0.00228356,0.00222337,0.0031575,-0.00337288,1.19628,0.003771,0.0432363,1483,365,-0.193672,0.15822
266,659,-0.0715332,-0.0772095,-0.00193925,0.000778572,0.000882861,0.00104018,-0.00220086,1.28272,0.00191079,0.0417884,1490,365,-0.0714752,0.0772033
273,659,-0.0126953,0.0415955,-0.00147434,3.62151e-05,-0.000528782,0.000202922,-0.00164104,-1.26539,0.00116756,0.040134,1497,365,-0.0126941,-0.0416095
280,659,-0.114624,0.0375671,0,0,0,0,0,0,0,-1,1504,365,-0.114605,-0.0375695
287,659,0.56311,0.59021,0,0,0,0,0,0,0,-1,1511,365,0.563118,-0.590213
294,659,0.315918,0.557861,0.000191009,-0.00424576,-0.00499788,0.00344072,-0.00749546,-0.576528,0.00645705,0.0439163,1518,365,0.315957,-0.557862
301,659,0.394653,0.409027,0.00143582,-0.00591195,-0.00600399,0.00480078,-0.00927692,-0.510834,0.00826358,0.0455162,1525,365,0.39461,-0.409021
308,659,0.368408,0.17804,0.00228191,-0.00797614,-0.0069839,0.00581786,-0.0115121,-0.468675,0.0101839,0.0433526,1532,365,0.368444,-0.178039
315,659,0.0667725,0.21991,0.0031605,-0.0105438,-0.00784423,0.00672391,-0.0141072,-0.4264,0.0122761,0.0432017,1539,365,0.0667524,-0.219922
322,659,-0.0963135,0.486298,0.0038507,-0.0136847,-0.00753014,0.00664049,-0.0164745,-0.354804,0.0137422,0.0437883,1546,365,-0.0963437,-0.486299
329,659,-0.0407715,0.312988,0.0046459,-0.0172121,-0.00681856,0.00659851,-0.0191648,-0.278902,0.015453,0.042805,1553,365,-0.0407557,-0.313003
336,659,0.382446,0.20993,0,0,0,0,0,0,0,-1,1560,365,0.382441,-0.209933
343,659,0,0,0,0,0,0,0,0,0,-1,1567,365,0,0
350,659,0,0,0,0,0,0,0,0,0,-1,1574,365,0,0
357,659,0,0,0,0,0,0,0,0,0,-1,1581,365,0,0
364,659,0,0,0,0,0,0,0,0,0,-1,1588,365,0,0
371,659,0,0,0,0,0,0,0,0,0,-1,1595,365,0,0
378,659,0,0,0,0,0,0,0,0,0,-1,1602,365,0,0
385,659,0,0,0,0,0,0,0,0,0,-1,1609,365,0,0
392,659,0,0,0,0,0,0,0,0,0,-1,1616,365,0,0
399,659,0,0,0,0,0,0,0,0,0,-1,1623,365,0,0
406,659,0,0,0,0,0,0,0,0,0,-1,1630,365,0,0
413,659,0,0,0,0,0,0,0,0,0,-1,1637,365,0,0
420,659,0,0,0,0,0,0,0,0,0,-1,1644,365,0,0
427,659,0,0,0,0,0,0,0,0,0,-1,1651,365,0,0
434,659,0,0,0,0,0,0,0,0,0,-1,1658,365,0,0
441,659,0,0,0,0,0,0,0,0,0,-1,1665,365,0,0
448,659,0,0,0,0,0,0,0,0,0,-1,1672,365,0,0
455,659,0,0,0,0,0,0,0,0,0,-1,1679,365,0,0
462,659,0,0,0,0,0,0,0,0,0,-1,1686,365,0,0
469,659,0,0,0,0,0,0,0,0,0,-1,1693,365,0,0
476,659,0,0,0,0,0,0,0,0,0,-1,1700,365,0,0
483,659,0,0,0,0,0,0,0,0,0,-1,1707,365,0,0
490,659,0,0,0,0,0,0,0,0,0,-1,1714,365,0,0
497,659,0,0,0,0,0,0,0,0,0,-1,1721,365,0,0
504,659,0,0,0,0,0,0,0,0,0,-1,1728,365,0,0
511,659,0,0,0,0,0,0,0,0,0,-1,1735,365,0,0
518,659,0,0,0,0,0,0,0,0,0,-1,1742,365,0,0
525,659,0,0,0,0,0,0,0,0,0,-1,1749,365,0,0
532,659,0,0,0,0,0,0,0,0,0,-1,1756,365,0,0
539,659,0,0,0,0,0,0,0,0,0,-1,1763,365,0,0
546,659,0,0,0,0,0,0,0,0,0,-1,1770,365,0,0
553,659,0,0,0,0,0,0,0,0,0,-1,1777,365,0,0
560,659,0,0,0,0,0,0,0,0,0,-1,1784,365,0,0
567,659,0,0,0,0,0,0,0,0,0,-1,1791,365,0,0
574,659,0,0,0,0,0,0,0,0,0,-1,1798,365,0,0
581,659,0,0,0,0,0,0,0,0,0,-1,1805,365,0,0
588,659,0,0,0,0,0,0,0,0,0,-1,1812,365,0,0
595,659,0,0,0,0,0,0,0,0,0,-1,1819,365,0,0
602,659,0,0,0,0,0,0,0,0,0,-1,1826,365,0,0
609,659,0,0,0,0,0,0,0,0,0,-1,1833,365,0,0
616,659,0,0,0,0,0,0,0,0,0,-1,1840,365,0,0
623,659,0,0,0,0,0,0,0,0,0,-1,1847,365,0,0
630,659,0,0,0,0,0,0,0,0,0,-1,1854,365,0,0
637,659,0,0,0,0,0,0,0,0,0,-1,1861,365,0,0
644,659,0,0,0,0,0,0,0,0,0,-1,1868,365,0,0
651,659,0,0,0,0,0,0,0,0,0,-1,1875,365,0,0
658,659,0,0,0,0,0,0,0,0,0,-1,1882,365,0,0
665,659,0,0,0,0,0,0,0,0,0,-1,1889,365,0,0
672,659,0,0,0,0,0,0,0,0,0,-1,1896,365,0,0
679,659,0,0,0,0,0,0,0,0,0,-1,1903,365,0,0
686,659,0,0,0,0,0,0,0,0,0,-1,1910,365,0,0
693,659,0,0,0,0,0,0,0,0,0,-1,1917,365,0,0
700,659,0,0,0,0,0,0,0,0,0,-1,1924,365,0,0
707,659,0,0,0,0,0,0,0,0,0,-1,1931,365,0,0
714,659,0,0,0,0,0,0,0,0,0,-1,1938,365,0,0
721,659,0,0,0,0,0,0,0,0,0,-1,1945,365,0,0
728,659,0,0,0,0,0,0,0,0,0,-1,1952,365,0,0
735,659,0,0,0,0,0,0,0,0,0,-1,1959,365,0,0
742,659,0,0,0,0,0,0,0,0,0,-1,1966,365,0,0
749,659,0,0,0,0,0,0,0,0,0,-1,1973,365,0,0
756,659,0,0,0,0,0,0,0,0,0,-1,1980,365,0,0
763,659,0,0,0,0,0,0,0,0,0,-1,1987,365,0,0
770,659,0,0,0,0,0,0,0,0,0,-1,1994,365,0,0
777,659,0,0,0,0,0,0,0,0,0,-1,2001,365,0,0
784,659,0,0,0,0,0,0,0,0,0,-1,2008,365,0,0
791,659,0,0,0,0,0,0,0,0,0,-1,2015,365,0,0
798,659,0,0,0,0,0,0,0,0,0,-1,2022,365,0,0
805,659,0,0,0,0,0,0,0,0,0,-1,2029,365,0,0
812,659,0,0,0,0,0,0,0,0,0,-1,2036,365,0,0
-700,652,0,0,0,0,0,0,0,0,0,-1,524,372,0,0
-693,652,0,0,0,0,0,0,0,0,0,-1,531,372,0,0
-686,652,0,0,0,0,0,0,0,0,0,-1,538,372,0,0
-679,652,0,0,0,0,0,0,0,0,0,-1,545,372,0,0
-672,652,0,0,0,0,0,0,0,0,0,-1,552,372,0,0
-665,652,0,0,0,0,0,0,0,0,0,-1,559,372,0,0
-658,652,0,0,0,0,0,0,0,0,0,-1,566,372,0,0
-651,652,0,0,0,0,0,0,0,0,0,-1,573,372,0,0
-644,652,0,0,0,0,0,0,0,0,0,-1,580,372,0,0
-637,652,0,0,0,0,0,0,0,0,0,-1,587,372,0,0
-630,652,0,0,0,0,0,0,0,0,0,-1,594,372,0,0
-623,652,0,0,0,0,0,0,0,0,0,-1,601,372,0,0
-616,652,0,0,0,0,0,0,0,0,0,-1,608,372,0,0
-609,652,0,0,0,0,0,0,0,0,0,-1,615,372,0,0
-602,652,0,0,0,0,0,0,0,0,0,-1,622,372,0,0
-595,652,0,0,0,0,0,0,0,0,0,-1,629,372,0,0
-588,652,0,0,0,0,0,0,0,0,0,-1,636,372,0,0
-581,652,0,0,0,0,0,0,0,0,0,-1,643,372,0,0
-574,652,0,0,0,0,0,0,0,0,0,-1,650,372,0,0
-567,652,0,0,0,0,0,0,0,0,0,-1,657,372,0,0
-560,652,0,0,0,0,0,0,0,0,0,-1,664,372,0,0
-553,652,0,0,0,0,0,0,0,0,0,-1,671,372,0,0
-546,652,0,0,0,0,0,0,0,0,0,-1,678,372,0,0
-539,652,0,0,0,0,0,0,0,0,0,-1,685,372,0,0
-532,652,0,0,0,0,0,0,0,0,0,-1,692,372,0,0
-525,652,0,0,0,0,0,0,0,0,0,-1,699,372,0,0
-518,652,0,0,0,0,0,0,0,0,0,-1,706,372,0,0
-511,652,0,0,0,0,0,0,0,0,0,-1,713,372,0,0
-504,652,0,0,0,0,0,0,0,0,0,-1,720,372,0,0
-497,652,0,0,0,0,0,0,0,0,0,-1,727,372,0,0
-490,652,0,0,0,0,0,0,0,0,0,-1,734,372,0,0
-483,652,0,0,0,0,0,0,0,0,0,-1,741,372,0,0
-476,652,0,0,0,0,0,0,0,0,0,-1,748,372,0,0
-469,652,0,0,0,0,0,0,0,0,0,-1,755,372,0,0
-462,652,0,0,0,0,0,0,0,0,0,-1,762,372,0,0
-455,652,0,0,0,0,0,0,0,0,0,-1,769,372,0,0
-448,652,0,0,0,0,0,0,0,0,0,-1,776,372,0,0
-441,652,0,0,0,0,0,0,0,0,0,-1,783,372,0,0
-434,652,0,0,0,0,0,0,0,0,0,-1,790,372,0,0
-427,652,0,0,0,0,0,0,0,0,0,-1,797,372,0,0
-420,652,0,0,0,0,0,0,0,0,0,-1,804,372,0,0
-413,652,0,0,0,0,0,0,0,0,0,-1,811,372,0,0
-406,652,0,0,0,0,0,0,0,0,0,-1,818,372,0,0
-399,652,0,0,0,0,0,0,0,0,0,-1,825,372,0,0
-392,652,0,0,0,0,0,0,0,0,0,-1,832,372,0,0
-385,652,0,0,0,0,0,0,0,0,0,-1,839,372,0,0
-378,652,0,0,0,0,0,0,0,0,0,-1,846,372,0,0
-371,652,0,0,0,0,0,0,0,0,0,-1,853,372,0,0
-364,652,0,0,0,0,0,0,0,0,0,-1,860,372,0,0
-357,652,0,0,0,0,0,0,0,0,0,-1,867,372,0,0
-350,652,0,0,0,0,0,0,0,0,0,-1,874,372,0,0
-343,652,0,0,0,0,0,0,0,0,0,-1,881,372,0,0
-336,652,0,0,0,0,0,0,0,0,0,-1,888,372,0,0
-329,652,0,0,0,0,0,0,0,0,0,-1,895,372,0,0
-322,652,0,0,0,0,0,0,0,0,0,-1,902,372,0,0
-315,652,0,0,0,0,0,0,0,0,0,-1,909,372,0,0
-308,652,0,0,0,0,0,0,0,0,0,-1,916,372,0,0
-301,652,0,0,0,0,0,0,0,0,0,-1,923,372,0,0
-294,652,0,0,0,0,0,0,0,0,0,-1,930,372,0,0
-287,652,0,0,0,0,0,0,0,0,0,-1,937,372,0,0
-280,652,0,0,0,0,0,0,0,0,0,-1,944,372,0,0
-273,652,0,0,0,0,0,0,0,0,0,-1,951,372,0,0
-266,652,0,0,0,0,0,0,0,0,0,-1,958,372,0,0
-259,652,0,0,0,0,0,0,0,0,0,-1,965,372,0,0
-252,652,0,0,0,0,0,0,0,0,0,-1,972,372,0,0
-245,652,0,0,0,0,0,0,0,0,0,-1,979,372,0,0
-238,652,0,0,0,0,0,0,0,0,0,-1,986,372,0,0
-231,652,0.145996,0.207794,0.0204397,-0.00106059,3.18057e-05,0.0204398,-0.00106064,0.00147931,0.0139935,0.0388881,993,372,0.146008,-0.207801
-224,652,0.0443726,0.302216,0,0,0,0,0,0,0,-1,1000,372,0.0443684,-0.302209
-217,652,-0.0776978,0.349518,0.00506278,0.000644532,-0.00452609,0.0078901,-0.00218279,-0.558363,0.00611885,0.0417612,1007,372,-0.077703,-0.349528
-210,652,-0.107788,0.202362,-0.000697451,0.00135372,-0.0057281,0.00614733,-0.00549105,-0.873982,0.00672298,0.0396836,1014,372,-0.107793,-0.202357
-203,652,-0.0628052,0.229584,-0.00424582,0.0012442,-0.00608085,0.00517091,-0.00817253,-0.997414,0.00776854,0.0378418,1021,372,-0.0628155,-0.229578
-196,652,-0.0125732,0.403137,-0.00441998,0.00185682,-0.00593878,0.00543547,-0.00799863,-1.02848,0.00780309,0.0386061,1028,372,-0.0126107,-0.403132
-189,652,0.017334,0.554077,-0.00418078,0.00266763,-0.00590413,0.00606867,-0.00758182,-1.04818,0.00789724,0.0384935,1035,372,0.0173445,-0.554079
-182,652,-0.289429,0.573242,-0.00434792,0.0025113,-0.0050689,0.00520182,-0.00703844,-1.08282,0.00709339,0.0405124,1042,372,-0.289461,-0.573253
-175,652,-0.360229,0.361633,-0.00464819,0.00138961,-0.00411285,0.0034726,-0.00673118,-1.10199,0.00599045,0.0427951,1049,372,-0.360203,-0.361646
-168,652,-0.304199,0.121063,-0.0048072,0.000242948,-0.00220914,0.00107291,-0.00563716,-1.21142,0.0041621,0.0430391,1056,372,-0.304253,-0.121074
-161,652,-0.356201,0.0993347,0,0,0,0,0,0,0,-1,1063,372,-0.356218,-0.0993331
-154,652,-0.0505371,-0.174591,-0.00483859,-0.00212749,0.000607584,-0.00199755,-0.00496853,1.36011,0.00288687,0.0430392,1070,372,-0.0505128,0.174577
-147,652,0.328979,-0.0625305,-0.00488963,-0.00314011,0.00159744,-0.00219361,-0.00583614,1.0359,0.00340393,0.0414241,1077,372,0.32893,0.0625276
-140,652,0.316162,-0.199066,-0.00426363,-0.00399482,0.00210382,-0.00202112,-0.00623733,0.817297,0.00367471,0.0422111,1084,372,0.316144,0.199052
-133,652,0.129028,-0.285828,-0.00331063,-0.00469283,0.00264212,-0.00127072,-0.00673274,0.657479,0.0041306,0.0414707,1091,372,0.128978,0.285836
-126,652,0.0308838,-0.10907,-0.00273073,-0.00509222,0.00307532,-0.000617269,-0.00720567,0.602105,0.00461182,0.0359591,1098,372,0.0308337,0.109074
-119,652,-0.0125732,0.0164795,-0.00259226,-0.00487951,0.0030638,-0.000465602,-0.00700617,0.606771,0.00452358,0.0289263,1105,372,-0.0125135,-0.0164755
-112,652,-0.0375977,0.00540161,-0.00249132,-0.00427279,0.00264544,-0.000590682,-0.00617342,0.623007,0.00393353,0.0229809,1112,372,-0.0375437,-0.00538733
-105,652,-0.0834961,-0.0421143,-0.00223038,-0.00346974,0.00161196,-0.00112309,-0.00457703,0.601894,0.0027544,0.0197836,1119,372,-0.0834613,0.042122
-98,652,-0.0941162,-0.0596008,-0.00189803,-0.00254008,0.000651692,-0.00149259,-0.00294552,0.556544,0.00170065,0.0201502,1126,372,-0.0940593,0.0596069
-91,652,-0.107788,-0.0427856,-0.00162304,-0.00171338,4.90789e-05,-0.00160151,-0.00173491,0.413426,0.0011148,0.0196375,1133,372,-0.107764,0.042798
-84,652,-0.0756836,-0.026825,-0.00133488,-0.0008619,-0.000526205,-0.000521485,-0.0016753,-0.996586,0.000989932,0.0171802,1140,372,-0.0757016,0.0268252
-77,652,-0.0631104,-0.0153198,-0.000915014,0.000155801,-0.0012457,0.000976284,-0.0017355,-0.988364,0.00158597,0.0138416,1147,372,-0.0631703,0.0153152
-70,652,-0.0734863,-0.0384827,-0.000668936,0.00121458,-0.00190318,0.00239626,-0.00185062,-1.01515,0.00245868,0.0100956,1154,372,-0.0734584,0.0384859
-63,652,-0.0710449,-0.028595,-0.000847583,0.00164902,-0.00236952,0.00307894,-0.0022775,-1.02783,0.00310406,0.00973081,1161,372,-0.0710599,0.0285901
-56,652,-0.0811768,-0.0196228,-0.00134591,0.00173828,-0.00268357,0.00329127,-0.00289891,-1.04618,0.0035763,0.0104089,1168,372,-0.0812209,0.0196099
-49,652,-0.0693359,-0.0185547,-0.00168051,0.00155057,-0.0030345,0.00337278,-0.00350273,-1.03001,0.00396981,0.0087744,1175,372,-0.0693465,0.0185498
-42,652,-0.0679932,-0.025177,-0.00198763,0.000999813,-0.00351893,0.00332893,-0.00431675,-0.986114,0.0044265,0.00834582,1182,372,-0.067992,0.0251847
-35,652,-0.0760498,-0.0379639,-0.00235826,0.000469292,-0.00372795,0.00304254,-0.00493151,-0.966638,0.00464668,0.00819526,1189,372,-0.0761065,0.0379658
-28,652,-0.0826416,-0.0285034,-0.00272323,-0.000413144,-0.00402958,0.00262367,-0.00576004,-0.924976,0.00495195,0.00767687,1196,372,-0.0826382,0.0284995
-21,652,-0.0876465,-0.0283813,-0.00291149,-0.00121298,-0.00439082,0.00240997,-0.00653443,-0.880926,0.00534393,0.00756482,1203,372,-0.0876439,0.0283948
-14,652,-0.0844727,-0.0437012,-0.00275914,-0.00198962,-0.00467454,0.00231597,-0.00706473,-0.82646,0.00564253,0.00886943,1210,372,-0.084516,0.043708
-7,652,-0.0789795,-0.0507507,-0.00233779,-0.00258948,-0.00474123,0.00227927,-0.00720654,-0.77213,0.00571761,0.0108584,1217,372,-0.0790172,0.05076
0,652,-0.0985107,-0.0434875,-0.00176687,-0.00305371,-0.00441912,0.00205543,-0.006876,-0.713107,0.00540113,0.0104288,1224,372,-0.0984824,0.0435009
7,652,-0.102661,-0.0234375,-0.00120232,-0.00315051,-0.00385791,0.00180258,-0.0061554,-0.661736,0.0048182,0.0115131,1231,372,-0.102649,0.0234288
14,652,-0.104126,-0.0126038,-0.000368151,-0.00302222,-0.00319985,0.00176893,-0.0051593,-0.588834,0.0041566,0.0103362,1238,372,-0.104145,0.0125974
21,652,-0.0917969,-0.0153809,0.000747546,-0.0027876,-0.00242509,0.00198087,-0.00402092,-0.470478,0.00353123,0.00918446,1245,372,-0.091766,0.0153762
28,652,-0.0894775,-0.0429688,0.00176141,-0.00242031,-0.00170971,0.00237144,-0.00303034,-0.342723,0.00312644,0.00830754,1252,372,-0.0895256,0.042968
35,652,-0.088623,-0.04599,0.00523417,-0.00234112,-0.000432222,0.00525876,-0.0023657,-0.0568111,0.00450637,0.0093348,1259,372,-0.0885928,0.0459815
42,652,-0.0811768,-0.0340576,0.0100067,-0.00186174,0.000913699,0.0100766,-0.00193167,0.0763859,0.00744562,0.0107851,1266,372,-0.081175,0.0340667
49,652,-0.057251,-0.0371094,0.0135191,-0.00138717,0.00192535,0.0137637,-0.00163184,0.126401,0.00976531,0.0128742,1273,372,-0.0572559,0.0371135
56,652,-0.0634766,-0.0491028,0.0168586,-0.000853247,0.00280985,0.0172937,-0.00128832,0.153619,0.0119817,0.014076,1280,372,-0.0634828,0.0491141
63,652,-0.097168,-0.0357361,0.0201141,-0.000545368,0.00337351,0.020651,-0.00108228,0.157832,0.0141419,0.0168098,1287,372,-0.0972009,0.0357212
70,652,-0.0700684,-0.0343018,0.0232179,-0.00064948,0.0035328,0.0237299,-0.00116142,0.143908,0.0162209,0.0149911,1294,372,-0.0700621,0.0343038
77,652,-0.0444336,-0.0287781,0.0255378,-0.000916244,0.00357928,0.0260135,-0.00139197,0.132137,0.0178245,0.0141346,1301,372,-0.0443886,0.0287644
84,652,-0.0865479,-0.0549011,0.0269173,-0.00132424,0.00367416,0.0273875,-0.00179442,0.127276,0.0188849,0.0117722,1308,372,-0.086553,0.0548989
91,652,-0.104492,-0.0743713,0.0273461,-0.00187227,0.0036437,0.0277936,-0.00231981,0.122212,0.0193488,0.0144039,1315,372,-0.104525,0.0743858
98,652,-0.0917969,-0.0587769,0.0271271,-0.00251401,0.00369334,0.0275804,-0.00296727,0.122115,0.0194516,0.0118172,1322,372,-0.0918032,0.0587872
105,652,-0.0804443,-0.0235901,0.0259733,-0.00309692,0.00347867,0.0263838,-0.0035074,0.117455,0.0188673,0.00990249,1329,372,-0.0804861,0.0235945
112,652,-0.0639648,-0.00747681,0.0237019,-0.00383696,0.0032619,0.024083,-0.00421805,0.116303,0.0176303,0.00894853,1336,372,-0.0639298,0.00747287
119,652,-0.0655518,-0.0283508,0.0207159,-0.00445808,0.00313047,0.0210993,-0.00484152,0.121881,0.0159272,0.00982681,1343,372,-0.0655615,0.0283495
126,652,-0.0788574,-0.0419006,0.0175454,-0.00493397,0.00296069,0.0179288,-0.00531737,0.128782,0.0140641,0.0113135,1350,372,-0.0788495,0.0419044
133,652,-0.098999,-0.0315247,0.0146862,-0.00531182,0.00300034,0.0151267,-0.00575226,0.145757,0.0124529,0.0115024,1357,372,-0.0989544,0.0315229
140,652,-0.0981445,-0.0335083,0.0104054,-0.00579239,0.00272141,0.0108504,-0.00623739,0.162084,0.00998475,0.00923416,1364,372,-0.0982018,0.0335084
147,652,-0.0870361,-0.0294189,0.00685082,-0.00604708,0.00247357,0.00730893,-0.00650519,0.183128,0.00798009,0.00895555,1371,372,-0.0870418,0.0294221
154,652,-0.0809326,-0.023468,0.00578727,-0.00617882,0.00261548,0.00633397,-0.00672552,0.206058,0.00754103,0.00938485,1378,372,-0.0809117,0.0234732
161,652,-0.0905762,-0.0451355,0.00471764,-0.00607058,0.00271171,0.0053609,-0.00671384,0.232909,0.00698592,0.0102108,1385,372,-0.0905877,0.0451394
168,652,-0.088623,-0.0712891,0.00360809,-0.00588097,0.00280341,0.00437443,-0.0066473,0.26684,0.00640834,0.0103682,1392,372,-0.0886653,0.0712996
175,652,-0.0874023,-0.0561218,0.0028685,-0.00546463,0.00277961,0.00371058,-0.00630671,0.294159,0.00584787,0.0086976,1399,372,-0.0874339,0.0561077
182,652,-0.0771484,-0.0272217,0.0023894,-0.00486874,0.00286918,0.00338659,-0.00586593,0.334494,0.0054055,0.0106644,1406,372,-0.0771555,0.0272369
189,652,-0.081665,-0.0151367,0.00174086,-0.00420586,0.00287677,0.00290473,-0.00536973,0.384445,0.00484741,0.0113886,1413,372,-0.0816113,0.015146
196,652,-0.0880127,-0.0110474,0.000953615,-0.00325224,0.00303707,0.00254475,-0.00484338,0.482588,0.00433381,0.00930137,1420,372,-0.0880159,0.0110437
203,652,-0.0861816,-0.0212708,0.000152522,-0.00250116,0.0030738,0.00217363,-0.00452227,0.581648,0.00394435,0.0103689,1427,372,-0.0861665,0.0212707
210,652,-0.0458984,-0.0423889,-0.000325258,-0.0016961,0.00346637,0.0025228,-0.00454416,0.68779,0.00413537,0.0130582,1434,372,-0.0459231,0.0424015
217,652,-0.0332031,-0.0185852,-0.00063649,-0.000937059,0.00367216,0.00288846,-0.00446201,0.764947,0.00427609,0.0142171,1441,372,-0.033177,0.0185946
224,652,-0.0754395,0.00222778,-0.000752631,-5.64598e-05,0.00381836,0.00342965,-0.00423874,0.830853,0.00443556,0.0183426,1448,372,-0.0754496,-0.00223875
231,652,-0.11438,-0.0172424,-0.000967347,0.000721522,0.00388222,0.00385008,-0.00409591,0.892487,0.00458835,0.0232461,1455,372,-0.114327,0.0172394
238,652,-0.0924072,0.00860596,-0.00139388,0.00116197,0.00362684,0.00372944,-0.00396136,0.954782,0.00444096,0.0243378,1462,372,-0.092384,-0.00860526
245,652,-0.0930176,-0.0289917,-0.00148665,0.00196563,0.00320859,0.00388293,-0.00340395,1.03218,0.00421011,0.0219872,1469,372,-0.0930701,0.0289937
252,652,-0.0100098,-0.124084,-0.00141147,0.00244588,0.00272419,0.00385502,-0.0028206,1.09343,0.00386956,0.0258254,1476,372,-0.0100084,0.12408
259,652,0.0372314,-0.17627,-0.00113652,0.00218422,0.00186486,0.00302076,-0.00197305,1.14913,0.00290425,0.0362783,1483,372,0.0372562,0.176275
266,652,-0.019165,-0.0838013,-0.000773912,0.00124356,0.000915657,0.00159716,-0.00112752,1.20226,0.00158087,0.0350318,1490,372,-0.0192173,0.0837989
273,652,-0.064209,-0.020813,-0.000481042,0.0009333,-5.02167e-05,0.000935081,-0.000482822,-1.53535,0.000832392,0.03456,1497,372,-0.0641775,0.0208206
280,652,-0.0965576,0.0577393,-0.000437676,0.000485302,-0.00122697,0.0013347,-0.00128708,-0.965275,0.00151377,0.0383204,1504,372,-0.0965098,-0.0577325
287,652,0.0826416,0.0428162,0,0,0,0,0,0,0,-1,1511,372,0.0826772,-0.0428071
294,652,0.341309,0.263794,0.000684942,-0.00170426,-0.00305081,0.00276669,-0.00378601,-0.59879,0.00379843,0.0435626,1518,372,0.341282,-0.263796
301,652,0.78479,0.462616,0.00151826,-0.00269818,-0.00366886,0.00364149,-0.0048214,-0.524622,0.00490185,0.0448615,1525,372,0.784733,-0.462616
308,652,0.635498,0.45932,0.00211848,-0.00432933,-0.00438526,0.00433737,-0.00654823,-0.468428,0.00632786,0.045815,1532,372,0.635486,-0.45933
315,652,0.511719,0.316956,0.00301221,-0.00638351,-0.00491471,0.00511319,-0.00848449,-0.403977,0.00793064,0.0423774,1539,372,0.511769,-0.316968
322,652,0.174316,0.372284,0.00383128,-0.0091066,-0.00461773,0.00531034,-0.0105857,-0.309974,0.0093445,0.0398561,1546,372,0.174336,-0.372292
329,652,0.301514,0.468781,0.00464889,-0.0121812,-0.00404472,0.00557048,-0.0131027,-0.224026,0.0110695,0.0402574,1553,372,0.30146,-0.468776
336,652,0.665283,0.72879,0,0,0,0,0,0,0,-1,1560,372,0.665263,-0.728789
343,652,0.281738,-0.0593567,0.00673329,-0.0176663,0.00233858,0.00695541,-0.0178884,0.0946964,0.0147993,0.0431774,1567,372,0.281705,0.0593576
350,652,0.205566,0.431671,0.00800415,-0.0200452,0.0054857,0.00903884,-0.0210799,0.186425,0.0178462,0.0430036,1574,372,0.20561,-0.431676
357,652,0,0,0,0,0,0,0,0,0,-1,1581,372,0,0
364,652,0,0,0,0,0,0,0,0,0,-1,1588,372,0,0
371,652,0,0,0,0,0,0,0,0,0,-1,1595,372,0,0
378,652,0,0,0,0,0,0,0,0,0,-1,1602,372,0,0
385,652,0,0,0,0,0,0,0,0,0,-1,1609,372,0,0
392,652,0,0,0,0,0,0,0,0,0,-1,1616,372,0,0
399,652,0,0,0,0,0,0,0,0,0,-1,1623,372,0,0
406,652,0,0,0,0,0,0,0,0,0,-1,1630,372,0,0
413,652,0,0,0,0,0,0,0,0,0,-1,1637,372,0,0
420,652,0,0,0,0,0,0,0,0,0,-1,1644,372,0,0
427,652,0,0,0,0,0,0,0,0,0,-1,1651,372,0,0
434,652,0,0,0,0,0,0,0,0,0,-1,1658,372,0,0
441,652,0,0,0,0,0,0,0,0,0,-1,1665,372,0,0
448,652,0,0,0,0,0,0,0,0,0,-1,1672,372,0,0
455,652,0,0,0,0,0,0,0,0,0,-1,1679,372,0,0
462,652,0,0,0,0,0,0,0,0,0,-1,1686,372,0,0
469,652,0,0,0,0,0,0,0,0,0,-1,1693,372,0,0
476,652,0,0,0,0,0,0,0,0,0,-1,1700,372,0,0
483,652,0,0,0,0,0,0,0,0,0,-1,1707,372,0,0
490,652,0,0,0,0,0,0,0,0,0,-1,1714,372,0,0
497,652,0,0,0,0,0,0,0,0,0,-1,1721,372,0,0
504,652,0,0,0,0,0,0,0,0,0,-1,1728,372,0,0
511,652,0,0,0,0,0,0,0,0,0,-1,1735,372,0,0
518,652,0,0,0,0,0,0,0,0,0,-1,1742,372,0,0
525,652,0,0,0,0,0,0,0,0,0,-1,1749,372,0,0
532,652,0,0,0,0,0,0,0,0,0,-1,1756,372,0,0
539,652,0,0,0,0,0,0,0,0,0,-1,1763,372,0,0
546,652,0,0,0,0,0,0,0,0,0,-1,1770,372,0,0
553,652,0,0,0,0,0,0,0,0,0,-1,1777,372,0,0
560,652,0,0,0,0,0,0,0,0,0,-1,1784,372,0,0
567,652,0,0,0,0,0,0,0,0,0,-1,1791,372,0,0
574,652,0,0,0,0,0,0,0,0,0,-1,1798,372,0,0
581,652,0,0,0,0,0,0,0,0,0,-1,1805,372,0,0
588,652,0,0,0,0,0,0,0,0,0,-1,1812,372,0,0
595,652,0,0,0,0,0,0,0,0,0,-1,1819,372,0,0
602,652,0,0,0,0,0,0,0,0,0,-1,1826,372,0,0
609,652,0,0,0,0,0,0,0,0,0,-1,1833,372,0,0
616,652,0,0,0,0,0,0,0,0,0,-1,1840,372,0,0
623,652,0,0,0,0,0,0,0,0,0,-1,1847,372,0,0
630,652,0,0,0,0,0,0,0,0,0,-1,1854,372,0,0
637,652,0,0,0,0,0,0,0,0,0,-1,1861,372,0,0
644,652,0,0,0,0,0,0,0,0,0,-1,1868,372,0,0
651,652,0,0,0,0,0,0,0,0,0,-1,1875,372,0,0
658,652,0,0,0,0,0,0,0,0,0,-1,1882,372,0,0
665,652,0,0,0,0,0,0,0,0,0,-1,1889,372,0,0
672,652,0,0,0,0,0,0,0,0,0,-1,1896,372,0,0
679,652,0,0,0,0,0,0,0,0,0,-1,1903,372,0,0
686,652,0,0,0,0,0,0,0,0,0,-1,1910,372,0,0
693,652,0,0,0,0,0,0,0,0,0,-1,1917,372,0,0
700,652,0,0,0,0,0,0,0,0,0,-1,1924,372,0,0
707,652,0,0,0,0,0,0,0,0,0,-1,1931,372,0,0
714,652,0,0,0,0,0,0,0,0,0,-1,1938,372,0,0
721,652,0,0,0,0,0,0,0,0,0,-1,1945,372,0,0
728,652,0,0,0,0,0,0,0,0,0,-1,1952,372,0,0
735,652,0,0,0,0,0,0,0,0,0,-1,1959,372,0,0
742,652,0,0,0,0,0,0,0,0,0,-1,1966,372,0,0
749,652,0,0,0,0,0,0,0,0,0,-1,1973,372,0,0
756,652,0,0,0,0,0,0,0,0,0,-1,1980,372,0,0
763,652,0,0,0,0,0,0,0,0,0,-1,1987,372,0,0
770,652,0,0,0,0,0,0,0,0,0,-1,1994,372,0,0
777,652,0,0,0,0,0,0,0,0,0,-1,2001,372,0,0
784,652,0,0,0,0,0,0,0,0,0,-1,2008,372,0,0
791,652,0,0,0,0,0,0,0,0,0,-1,2015,372,0,0
798,652,0,0,0,0,0,0,0,0,0,-1,2022,372,0,0
805,652,0,0,0,0,0,0,0,0,0,-1,2029,372,0,0
812,652,0,0,0,0,0,0,0,0,0,-1,2036,372,0,0
-700,645,0,0,0,0,0,0,0,0,0,-1,524,379,0,0
-693,645,0,0,0,0,0,0,0,0,0,-1,531,379,0,0
-686,645,0,0,0,0,0,0,0,0,0,-1,538,379,0,0
-679,645,0,0,0,0,0,0,0,0,0,-1,545,379,0,0
-672,645,0,0,0,0,0,0,0,0,0,-1,552,379,0,0
-665,645,0,0,0,0,0,0,0,0,0,-1,559,379,0,0
-658,645,0,0,0,0,0,0,0,0,0,-1,566,379,0,0
-651,645,0,0,0,0,0,0,0,0,0,-1,573,379,0,0
-644,645,0,0,0,0,0,0,0,0,0,-1,580,379,0,0
-637,645,0,0,0,0,0,0,0,0,0,-1,587,379,0,0
-630,645,0,0,0,0,0,0,0,0,0,-1,594,379,0,0
-623,645,0,0,0,0,0,0,0,0,0,-1,601,379,0,0
-616,645,0,0,0,0,0,0,0,0,0,-1,608,379,0,0
-609,645,0,0,0,0,0,0,0,0,0,-1,615,379,0,0
-602,645,0,0,0,0,0,0,0,0,0,-1,622,379,0,0
-595,645,0,0,0,0,0,0,0,0,0,-1,629,379,0,0
-588,645,0,0,0,0,0,0,0,0,0,-1,636,379,0,0
-581,645,0,0,0,0,0,0,0,0,0,-1,643,379,0,0
-574,645,0,0,0,0,0,0,0,0,0,-1,650,379,0,0
-567,645,0,0,0,0,0,0,0,0,0,-1,657,379,0,0
-560,645,0,0,0,0,0,0,0,0,0,-1,664,379,0,0
-553,645,0,0,0,0,0,0,0,0,0,-1,671,379,0,0
-546,645,0,0,0,0,0,0,0,0,0,-1,678,379,0,0
-539,645,0,0,0,0,0,0,0,0,0,-1,685,379,0,0
-532,645,0,0,0,0,0,0,0,0,0,-1,692,379,0,0
-525,645,0,0,0,0,0,0,0,0,0,-1,699,379,0,0
-518,645,0,0,0,0,0,0,0,0,0,-1,706,379,0,0
-511,645,0,0,0,0,0,0,0,0,0,-1,713,379,0,0
-504,645,0,0,0,0,0,0,0,0,0,-1,720,379,0,0
-497,645,0,0,0,0,0,0,0,0,0,-1,727,379,0,0
-490,645,0,0,0,0,0,0,0,0,0,-1,734,379,0,0
-483,645,0,0,0,0,0,0,0,0,0,-1,741,379,0,0
-476,645,0,0,0,0,0,0,0,0,0,-1,748,379,0,0
-469,645,0,0,0,0,0,0,0,0,0,-1,755,379,0,0
-462,645,0,0,0,0,0,0,0,0,0,-1,762,379,0,0
-455,645,0,0,0,0,0,0,0,0,0,-1,769,379,0,0
-448,645,0,0,0,0,0,0,0,0,0,-1,776,379,0,0
-441,645,0,0,0,0,0,0,0,0,0,-1,783,379,0,0
-434,645,0,0,0,0,0,0,0,0,0,-1,790,379,0,0
-427,645,0,0,0,0,0,0,0,0,0,-1,797,379,0,0
-420,645,0,0,0,0,0,0,0,0,0,-1,804,379,0,0
-413,645,0,0,0,0,0,0,0,0,0,-1,811,379,0,0
-406,645,0,0,0,0,0,0,0,0,0,-1,818,379,0,0
-399,645,0,0,0,0,0,0,0,0,0,-1,825,379,0,0
-392,645,0,0,0,0,0,0,0,0,0,-1,832,379,0,0
-385,645,0,0,0,0,0,0,0,0,0,-1,839,379,0,0
-378,645,0,0,0,0,0,0,0,0,0,-1,846,379,0,0
-371,645,0,0,0,0,0,0,0,0,0,-1,853,379,0,0
-364,645,0,0,0,0,0,0,0,0,0,-1,860,379,0,0
-357,645,0,0,0,0,0,0,0,0,0,-1,867,379,0,0
-350,645,0,0,0,0,0,0,0,0,0,-1,874,379,0,0
-343,645,0,0,0,0,0,0,0,0,0,-1,881,379,0,0
-336,645,0,0,0,0,0,0,0,0,0,-1,888,379,0,0
-329,645,0,0,0,0,0,0,0,0,0,-1,895,379,0,0
-322,645,0,0,0,0,0,0,0,0,0,-1,902,379,0,0
-315,645,0,0,0,0,0,0,0,0,0,-1,909,379,0,0
-308,645,0,0,0,0,0,0,0,0,0,-1,916,379,0,0
-301,645,0,0,0,0,0,0,0,0,0,-1,923,379,0,0
-294,645,0,0,0,0,0,0,0,0,0,-1,930,379,0,0
-287,645,0,0,0,0,0,0,0,0,0,-1,937,379,0,0
-280,645,0,0,0,0,0,0,0,0,0,-1,944,379,0,0
-273,645,0,0,0,0,0,0,0,0,0,-1,951,379,0,0
-266,645,0,0,0,0,0,0,0,0,0,-1,958,379,0,0
-259,645,0,0,0,0,0,0,0,0,0,-1,965,379,0,0
-252,645,1.81787,1.7114,0,0,0,0,0,0,0,-1,972,379,1.81786,-1.7114
-245,645,-0.195801,-0.035553,0.0406374,0.00247751,0.00404536,0.0410616,0.00205337,0.104464,0.0267162,0.0377467,979,379,-0.195801,0.0355533
-238,645,-0.121643,-0.0875854,0.0286326,0.00294409,0.00116281,0.0286851,0.00289156,0.0451428,0.0182361,0.0401048,986,379,-0.121668,0.0875799
-231,645,-0.059082,-0.129944,0.0193224,0.00374802,-0.00111871,0.0194023,0.00366807,-0.0713418,0.0119021,0.0394634,993,379,-0.0590783,0.129937
-224,645,-1.60364,0.519684,0,0,0,0,0,0,0,-1,1000,379,-1.60365,-0.519677
-217,645,-0.612305,0.411377,0,0,0,0,0,0,0,-1,1007,379,-0.612323,-0.411385
-210,645,-0.0997314,0.252228,0.000616633,0.00432679,-0.00564701,0.00841562,-0.00347219,-0.944098,0.00705847,0.0377798,1014,379,-0.0997568,-0.252236
-203,645,-0.0686646,0.44986,-0.0027158,0.00377207,-0.00607276,0.00741301,-0.00635674,-1.03071,0.00795777,0.0382388,1021,379,-0.068642,-0.449846
-196,645,-0.0871582,0.592102,-0.00292379,0.00393225,-0.00589325,0.00732198,-0.00631352,-1.04882,0.00787963,0.0391073,1028,379,-0.087112,-0.592103
-189,645,-0.0802002,0.665222,-0.00282769,0.00423362,-0.00578833,0.0074831,-0.00607718,-1.05925,0.00784304,0.0371429,1035,379,-0.0801809,-0.665212
-182,645,-0.131348,0.608734,-0.00297838,0.00381538,-0.00506768,0.00651934,-0.00568233,-1.08066,0.00705016,0.0380132,1042,379,-0.131324,-0.608731
-175,645,-0.191162,0.495605,-0.00332365,0.00257244,-0.00419968,0.0047555,-0.00550672,-1.09142,0.00593019,0.0409268,1049,379,-0.19111,-0.495618
-168,645,-0.125,0.233521,-0.00359443,0.00131638,-0.00254293,0.00239587,-0.00467392,-1.16934,0.00415178,0.0415675,1056,379,-0.125009,-0.23351
-161,645,-0.0870361,0.0379333,0,0,0,0,0,0,0,-1,1063,379,-0.0870121,-0.0379241
-154,645,0.143555,-0.0645447,-0.00366967,-0.000953286,-4.92397e-05,-0.000952393,-0.00367056,-1.55268,0.00219942,0.0382603,1070,379,0.143498,0.0645538
-147,645,0.164673,-0.0341187,-0.0037374,-0.00184346,0.000867469,-0.0015062,-0.00407466,1.19999,0.00237901,0.0333983,1077,379,0.16464,0.034106
-140,645,0.130615,-0.0429993,-0.0032426,-0.00251743,0.00131623,-0.00151475,-0.00424527,0.9198,0.00248429,0.0321943,1084,379,0.130557,0.0430044
-133,645,0.0324707,-0.0816956,-0.00241997,-0.0031376,0.00175798,-0.000984561,-0.00457301,0.684728,0.00277924,0.027941,1091,379,0.0325275,0.0816811
-126,645,-0.0186768,-0.0744629,-0.00193348,-0.00348844,0.00218568,-0.000391114,-0.0050308,0.614519,0.0032314,0.0202928,1098,379,-0.0186173,0.0744636
-119,645,-0.060791,-0.038147,-0.00187294,-0.00333888,0.00229534,-0.000196377,-0.00501544,0.63085,0.00328013,0.0136819,1105,379,-0.0607945,0.0381533
-112,645,-0.0769043,-0.0397034,-0.00183696,-0.00285913,0.00204599,-0.000239191,-0.0044569,0.663004,0.00289483,0.0104021,1112,379,-0.0768798,0.0397009
-105,645,-0.0858154,-0.0492554,-0.00164975,-0.00223007,0.00125785,-0.000649029,-0.00323079,0.672041,0.00197342,0.0106972,1119,379,-0.0857844,0.0492634
-98,645,-0.0955811,-0.0385132,-0.00142329,-0.00155506,0.000515667,-0.000969316,-0.00200903,0.721857,0.00116015,0.0114567,1126,379,-0.0955727,0.0385185
-91,645,-0.0791016,-0.0367432,-0.00122336,-0.000958085,5.21589e-05,-0.000948198,-0.00123325,1.38346,0.00074554,0.0118654,1133,379,-0.0791257,0.0367409
-84,645,-0.0750732,-0.0424805,-0.000999394,-0.000370314,-0.000375524,-0.000195003,-0.0011747,-1.13402,0.000726907,0.0120768,1140,379,-0.0750888,0.0424677
-77,645,-0.0845947,-0.0489502,-0.000671741,0.000320937,-0.00091103,0.00086206,-0.00121286,-1.03482,0.00120365,0.010803,1147,379,-0.0846099,0.0489624
-70,645,-0.0687256,-0.0455933,-0.000465111,0.0010078,-0.00138752,0.0018422,-0.00129951,-1.02938,0.00182286,0.00978635,1154,379,-0.0687347,0.0455811
-63,645,-0.0668945,-0.0233765,-0.000581107,0.00122889,-0.00168728,0.00223855,-0.00159077,-1.03156,0.00222138,0.0104029,1161,379,-0.0668434,0.0233769
-56,645,-0.0722656,-0.0166321,-0.000921942,0.00118864,-0.00182384,0.00224048,-0.00197379,-1.04767,0.00243473,0.0121547,1168,379,-0.0722251,0.0166258
-49,645,-0.06604,-0.0218506,-0.00113401,0.00100217,-0.0019336,0.00214307,-0.0022749,-1.03773,0.0025511,0.00968645,1175,379,-0.0660398,0.0218643
-42,645,-0.0661621,-0.0325012,-0.00130303,0.000573395,-0.00212769,0.00196055,-0.00269018,-0.993051,0.00269609,0.00877869,1182,379,-0.0662016,0.0324885
-35,645,-0.0778809,-0.0431213,-0.00151433,8.17066e-05,-0.00216961,0.00159541,-0.00302803,-0.961627,0.00271172,0.0103117,1189,379,-0.0778961,0.0431253
-28,645,-0.0894775,-0.0499573,-0.00174841,-0.000654981,-0.00231196,0.00117403,-0.00357742,-0.901502,0.00285783,0.00860088,1196,379,-0.0895016,0.0499528
-21,645,-0.100342,-0.0446167,-0.00183783,-0.00125272,-0.00249961,0.000971393,-0.00406194,-0.843653,0.0030832,0.00914547,1203,379,-0.100281,0.0446078
-14,645,-0.0845947,-0.0427246,-0.001658,-0.00183097,-0.00264476,0.000901686,-0.00439065,-0.769053,0.00326938,0.00842873,1210,379,-0.0846291,0.0427269
-7,645,-0.0667725,-0.0544128,-0.00132664,-0.00228922,-0.00265286,0.000888238,-0.0045041,-0.695662,0.00333843,0.0114055,1217,379,-0.0668144,0.0544228
0,645,-0.0665283,-0.0603027,-0.0009801,-0.00263194,-0.00246981,0.000798232,-0.00441027,-0.624041,0.00323921,0.020874,1224,379,-0.0665886,0.0602949
7,645,-0.0810547,-0.0686035,-0.000711692,-0.00271697,-0.00218195,0.000686956,-0.00411562,-0.570029,0.00299907,0.0150441,1231,379,-0.0811006,0.0685914
14,645,-0.0876465,-0.0509338,-0.000324506,-0.00270486,-0.00190482,0.000731396,-0.00376077,-0.506162,0.0027832,0.0144722,1238,379,-0.0876299,0.0509277
21,645,-0.0942383,-0.0337524,0.00024742,-0.00251303,-0.00156178,0.000951464,-0.00321708,-0.423516,0.00252241,0.00908613,1245,379,-0.0942826,0.0337605
28,645,-0.09021,-0.0531311,0.000691952,-0.00216736,-0.00123727,0.001153,-0.0026284,-0.356692,0.0022379,0.0078967,1252,379,-0.0901585,0.0531463
35,645,-0.0874023,-0.0574036,0.00277478,-0.00200805,-0.000527876,0.00283235,-0.00206562,-0.108627,0.00283937,0.0082134,1259,379,-0.0873488,0.0573987
42,645,-0.0786133,-0.0415039,0.00579408,-0.00152233,0.000202278,0.00579966,-0.00152792,0.027619,0.00446378,0.00856093,1266,379,-0.0785773,0.0415157
49,645,-0.0578613,-0.0376282,0.00798158,-0.00103597,0.000683109,0.00803303,-0.00108743,0.0751815,0.0057522,0.0112449,1273,379,-0.0579074,0.0376151
56,645,-0.0625,-0.0350952,0.0100747,-0.00054071,0.00109788,0.0101871,-0.000653067,0.101985,0.00701922,0.0109109,1280,379,-0.0624556,0.0350923
63,645,-0.0947266,-0.0391235,0.0121227,-0.000198928,0.00131847,0.0122622,-0.000338431,0.105414,0.00828991,0.0107367,1287,379,-0.0946822,0.0391275
70,645,-0.0834961,-0.0417175,0.0140915,-0.000167927,0.00132859,0.0142142,-0.000290659,0.0921161,0.00957451,0.0136758,1294,379,-0.083455,0.0417211
77,645,-0.0534668,-0.0539246,0.0155762,-0.000328997,0.00127405,0.0156776,-0.000430406,0.0794279,0.0105981,0.0166102,1301,379,-0.0534492,0.0539196
84,645,-0.0792236,-0.0574341,0.0164612,-0.000673449,0.00125622,0.0165529,-0.000765059,0.0727959,0.0112989,0.0119388,1308,379,-0.0792359,0.0574389
91,645,-0.102051,-0.0588074,0.016664,-0.00110644,0.00117218,0.0167409,-0.00118342,0.0655835,0.0115753,0.013023,1315,379,-0.101995,0.0588125
98,645,-0.0963135,-0.0456848,0.0164077,-0.00162587,0.00116738,0.016483,-0.00170112,0.0643757,0.0115974,0.0118104,1322,379,-0.0962973,0.0456953
105,645,-0.0742188,-0.0238647,0.0155067,-0.00210851,0.00104026,0.015568,-0.00216973,0.0587825,0.0111723,0.00904827,1329,379,-0.0742544,0.02386
112,645,-0.0720215,-0.0142212,0.0140303,-0.00265899,0.00100402,0.0140905,-0.00271917,0.0598719,0.010419,0.00840641,1336,379,-0.0720793,0.0142066
119,645,-0.081665,-0.0269775,0.0121649,-0.0031217,0.00106228,0.0122384,-0.00319516,0.0690484,0.00940665,0.00869152,1343,379,-0.0816726,0.0269817
126,645,-0.0836182,-0.0406189,0.0102034,-0.00350177,0.00111825,0.010294,-0.00359241,0.0808804,0.00832273,0.010527,1350,379,-0.083566,0.0406093
133,645,-0.0778809,-0.0155945,0.00854406,-0.00376963,0.00132456,0.00868493,-0.0039105,0.105953,0.00744409,0.0110243,1357,379,-0.0778709,0.0156064
140,645,-0.0778809,-0.00259399,0.00593571,-0.00409392,0.00133467,0.00611028,-0.00426849,0.130058,0.00602355,0.0108096,1364,379,-0.0778599,0.00258522
147,645,-0.0909424,-0.0237122,0.00383148,-0.00428704,0.00137507,0.00405806,-0.00451362,0.163308,0.00495119,0.0121168,1371,379,-0.0909303,0.0237146
154,645,-0.0826416,-0.043396,0.00338341,-0.00438513,0.00163626,0.00371398,-0.0047157,0.199347,0.00487832,0.0111364,1378,379,-0.0826856,0.0433907
161,645,-0.09375,-0.0582275,0.00289318,-0.00429215,0.00181022,0.00332346,-0.00472244,0.233368,0.00466865,0.0133804,1385,379,-0.0937378,0.0582303
168,645,-0.0793457,-0.0636292,0.00234509,-0.0041531,0.00196788,0.00289456,-0.00470258,0.272289,0.00442742,0.0157547,1392,379,-0.0793592,0.0636274
175,645,-0.0627441,-0.0582275,0.0020297,-0.00384748,0.00203103,0.00266328,-0.00448106,0.302384,0.00416905,0.0131566,1399,379,-0.0627341,0.0582377
182,645,-0.0704346,-0.0314331,0.00176385,-0.00340919,0.00216591,0.00255094,-0.00419628,0.348562,0.00393393,0.0097845,1406,379,-0.0703838,0.0314403
189,645,-0.0776367,-0.0198059,0.00135353,-0.00293373,0.00221807,0.00229454,-0.00387474,0.401231,0.00360057,0.0109256,1413,379,-0.0776792,0.019807
196,645,-0.0841064,-0.0266724,0.000843126,-0.00227703,0.00236014,0.0021122,-0.0035461,0.49336,0.0033016,0.0114829,1420,379,-0.0841603,0.0266854
203,645,-0.095459,-0.0281982,0.000315685,-0.00175068,0.00239689,0.00189258,-0.00332758,0.581905,0.00305158,0.010715,1427,379,-0.0954067,0.0281845
210,645,-0.060791,-0.0483398,-8.20391e-06,-0.00118058,0.00265863,0.00212809,-0.00331688,0.676891,0.00316854,0.0127409,1434,379,-0.060811,0.0483544
217,645,-0.0720215,-0.047821,-0.000221735,-0.000639843,0.00277035,0.00234743,-0.00320901,0.747739,0.00322085,0.012241,1441,379,-0.0719673,0.047814
224,645,-0.0853271,-0.0305176,-0.000293707,2.75787e-06,0.00285494,0.00271331,-0.00300426,0.811336,0.00330247,0.0108925,1448,379,-0.0853566,0.0305209
231,645,-0.0861816,-0.0235291,-0.000413413,0.00057715,0.00288422,0.0030083,-0.00284457,0.870429,0.0033796,0.011157,1455,379,-0.0861579,0.0235311
238,645,-0.108398,-0.0361633,-0.000659123,0.000942871,0.00272018,0.00297754,-0.00269379,0.928584,0.00327571,0.00894956,1462,379,-0.108432,0.0361772
245,645,-0.0875244,-0.0368958,-0.000641435,0.00159382,0.0024504,0.00316943,-0.00221705,0.999355,0.00312605,0.0100309,1469,379,-0.0874665,0.0368843
252,645,-0.0411377,-0.0361938,-0.000539111,0.0020754,0.00214532,0.00328038,-0.00174409,1.05903,0.00294573,0.0140161,1476,379,-0.0411359,0.0361832
259,645,0.0185547,-0.0523376,-0.000331894,0.00197832,0.00156821,0.00277092,-0.0011245,1.10282,0.00231501,0.020887,1483,379,0.0185767,0.0523316
266,645,-0.0090332,-0.0286255,-0.000100762,0.00145742,0.000932899,0.00189376,-0.000537107,1.1333,0.00147452,0.0187001,1490,379,-0.00897326,0.0286356
273,645,-0.0684814,-0.0272522,8.63035e-05,0.0014373,0.000303607,0.00150239,2.12108e-05,1.3596,0.000994601,0.0168657,1497,379,-0.0684979,0.0272658
280,645,0.0222168,0.090271,7.15975e-05,0.00132816,-0.000485257,0.00149374,-9.39801e-05,-1.24197,0.00102858,0.0294251,1504,379,0.0222453,-0.0902563
287,645,0.161377,0.172089,0.000255782,0.000780497,-0.00128952,0.00183408,-0.000797801,-0.885755,0.00155828,0.0396596,1511,379,0.161354,-0.172074
294,645,0.232422,0.216492,0.000955598,-2.33124e-05,-0.00160122,0.0021405,-0.00120821,-0.63707,0.00195819,0.0437255,1518,379,0.232449,-0.216491
301,645,0.0683594,0.260498,0.0014999,-0.000540411,-0.00195409,0.0026841,-0.00172461,-0.544828,0.00256538,0.0452752,1525,379,0.0683866,-0.260504
308,645,-0.0511475,0.0245667,0,0,0,0,0,0,0,-1,1532,379,-0.0511485,-0.0245572
315,645,0.83252,0.228546,0,0,0,0,0,0,0,-1,1539,379,0.832514,-0.228542
322,645,0.449341,0.111237,0.00369103,-0.00588495,-0.00257175,0.004338,-0.00653192,-0.246453,0.00631821,0.0409957,1546,379,0.449309,-0.111243
329,645,0.0090332,0.202728,0.00446686,-0.00856155,-0.00210719,0.0047992,-0.00889389,-0.156426,0.00802266,0.0478227,1553,379,0.00904964,-0.202724
336,645,-0.394653,0.285004,0,0,0,0,0,0,0,-1,1560,379,-0.394601,-0.284996
343,645,0.286743,0.140289,0.00586603,-0.0135716,0.00309859,0.00634803,-0.0140536,0.154318,0.0120557,0.043355,1567,379,0.286694,-0.140298
350,645,0.592529,0.470093,0.00679864,-0.0158529,0.00539765,0.00801909,-0.0170733,0.222369,0.0147982,0.0447868,1574,379,0.592508,-0.470087
357,645,0.565063,0.94989,0,0,0,0,0,0,0,-1,1581,379,0.565103,-0.949895
364,645,0.138062,-1.15735,0,0,0,0,0,0,0,-1,1588,379,0.138045,1.15735
371,645,0,0,0,0,0,0,0,0,0,-1,1595,379,0,0
378,645,0,0,0,0,0,0,0,0,0,-1,1602,379,0,0
385,645,0,0,0,0,0,0,0,0,0,-1,1609,379,0,0
392,645,0,0,0,0,0,0,0,0,0,-1,1616,379,0,0
399,645,0,0,0,0,0,0,0,0,0,-1,1623,379,0,0
406,645,0,0,0,0,0,0,0,0,0,-1,1630,379,0,0
413,645,0,0,0,0,0,0,0,0,0,-1,1637,379,0,0
420,645,0,0,0,0,0,0,0,0,0,-1,1644,379,0,0
427,645,0,0,0,0,0,0,0,0,0,-1,1651,379,0,0
434,645,0,0,0,0,0,0,0,0,0,-1,1658,379,0,0
441,645,0,0,0,0,0,0,0,0,0,-1,1665,379,0,0
448,645,0,0,0,0,0,0,0,0,0,-1,1672,379,0,0
455,645,0,0,0,0,0,0,0,0,0,-1,1679,379,0,0
462,645,0,0,0,0,0,0,0,0,0,-1,1686,379,0,0
469,645,0,0,0,0,0,0,0,0,0,-1,1693,379,0,0
476,645,0,0,0,0,0,0,0,0,0,-1,1700,379,0,0
483,645,0,0,0,0,0,0,0,0,0,-1,1707,379,0,0
490,645,0,0,0,0,0,0,0,0,0,-1,1714,379,0,0
497,645,0,0,0,0,0,0,0,0,0,-1,1721,379,0,0
504,645,0,0,0,0,0,0,0,0,0,-1,1728,379,0,0
511,645,0,0,0,0,0,0,0,0,0,-1,1735,379,0,0
518,645,0,0,0,0,0,0,0,0,0,-1,1742,379,0,0
525,645,0,0,0,0,0,0,0,0,0,-1,1749,379,0,0
532,645,0,0,0,0,0,0,0,0,0,-1,1756,379,0,0
539,645,0,0,0,0,0,0,0,0,0,-1,1763,379,0,0
546,645,0,0,0,0,0,0,0,0,0,-1,1770,379,0,0
553,645,0,0,0,0,0,0,0,0,0,-1,1777,379,0,0
560,645,0,0,0,0,0,0,0,0,0,-1,1784,379,0,0
567,645,0,0,0,0,0,0,0,0,0,-1,1791,379,0,0
574,645,0,0,0,0,0,0,0,0,0,-1,1798,379,0,0
581,645,0,0,0,0,0,0,0,0,0,-1,1805,379,0,0
588,645,0,0,0,0,0,0,0,0,0,-1,1812,379,0,0
595,645,0,0,0,0,0,0,0,0,0,-1,1819,379,0,0
602,645,0,0,0,0,0,0,0,0,0,-1,1826,379,0,0
609,645,0,0,0,0,0,0,0,0,0,-1,1833,379,0,0
616,645,0,0,0,0,0,0,0,0,0,-1,1840,379,0,0
623,645,0,0,0,0,0,0,0,0,0,-1,1847,379,0,0
630,645,0,0,0,0,0,0,0,0,0,-1,1854,379,0,0
637,645,0,0,0,0,0,0,0,0,0,-1,1861,379,0,0
644,645,0,0,0,0,0,0,0,0,0,-1,1868,379,0,0
651,645,0,0,0,0,0,0,0,0,0,-1,1875,379,0,0
658,645,0,0,0,0,0,0,0,0,0,-1,1882,379,0,0
665,645,0,0,0,0,0,0,0,0,0,-1,1889,379,0,0
672,645,0,0,0,0,0,0,0,0,0,-1,1896,379,0,0
679,645,0,0,0,0,0,0,0,0,0,-1,1903,379,0,0
686,645,0,0,0,0,0,0,0,0,0,-1,1910,379,0,0
693,645,0,0,0,0,0,0,0,0,0,-1,1917,379,0,0
700,645,0,0,0,0,0,0,0,0,0,-1,1924,379,0,0
707,645,0,0,0,0,0,0,0,0,0,-1,1931,379,0,0
714,645,0,0,0,0,0,0,0,0,0,-1,1938,379,0,0
721,645,0,0,0,0,0,0,0,0,0,-1,1945,379,0,0
728,645,0,0,0,0,0,0,0,0,0,-1,1952,379,0,0
735,645,0,0,0,0,0,0,0,0,0,-1,1959,379,0,0
742,645,0,0,0,0,0,0,0,0,0,-1,1966,379,0,0
749,645,0,0,0,0,0,0,0,0,0,-1,1973,379,0,0
756,645,0,0,0,0,0,0,0,0,0,-1,1980,379,0,0
763,645,0,0,0,0,0,0,0,0,0,-1,1987,379,0,0
770,645,0,0,0,0,0,0,0,0,0,-1,1994,379,0,0
777,645,0,0,0,0,0,0,0,0,0,-1,2001,379,0,0
784,645,0,0,0,0,0,0,0,0,0,-1,2008,379,0,0
791,645,0,0,0,0,0,0,0,0,0,-1,2015,379,0,0
798,645,0,0,0,0,0,0,0,0,0,-1,2022,379,0,0
805,645,0,0,0,0,0,0,0,0,0,-1,2029,379,0,0
812,645,0,0,0,0,0,0,0,0,0,-1,2036,379,0,0
-700,638,0,0,0,0,0,0,0,0,0,-1,524,386,0,0
-693,638,0,0,0,0,0,0,0,0,0,-1,531,386,0,0
-686,638,0,0,0,0,0,0,0,0,0,-1,538,386,0,0
-679,638,0,0,0,0,0,0,0,0,0,-1,545,386,0,0
-672,638,0,0,0,0,0,0,0,0,0,-1,552,386,0,0
-665,638,0,0,0,0,0,0,0,0,0,-1,559,386,0,0
-658,638,0,0,0,0,0,0,0,0,0,-1,566,386,0,0
-651,638,0,0,0,0,0,0,0,0,0,-1,573,386,0,0
-644,638,0,0,0,0,0,0,0,0,0,-1,580,386,0,0
-637,638,0,0,0,0,0,0,0,0,0,-1,587,386,0,0
-630,638,0,0,0,0,0,0,0,0,0,-1,594,386,0,0
-623,638,0,0,0,0,0,0,0,0,0,-1,601,386,0,0
-616,638,0,0,0,0,0,0,0,0,0,-1,608,386,0,0
-609,638,0,0,0,0,0,0,0,0,0,-1,615,386,0,0
-602,638,0,0,0,0,0,0,0,0,0,-1,622,386,0,0
-595,638,0,0,0,0,0,0,0,0,0,-1,629,386,0,0
-588,638,0,0,0,0,0,0,0,0,0,-1,636,386,0,0
-581,638,0,0,0,0,0,0,0,0,0,-1,643,386,0,0
-574,638,0,0,0,0,0,0,0,0,0,-1,650,386,0,0
-567,638,0,0,0,0,0,0,0,0,0,-1,657,386,0,0
-560,638,0,0,0,0,0,0,0,0,0,-1,664,386,0,0
-553,638,0,0,0,0,0,0,0,0,0,-1,671,386,0,0
-546,638,0,0,0,0,0,0,0,0,0,-1,678,386,0,0
-539,638,0,0,0,0,0,0,0,0,0,-1,685,386,0,0
-532,638,0,0,0,0,0,0,0,0,0,-1,692,386,0,0
-525,638,0,0,0,0,0,0,0,0,0,-1,699,386,0,0
-518,638,0,0,0,0,0,0,0,0,0,-1,706,386,0,0
-511,638,0,0,0,0,0,0,0,0,0,-1,713,386,0,0
-504,638,0,0,0,0,0,0,0,0,0,-1,720,386,0,0
-497,638,0,0,0,0,0,0,0,0,0,-1,727,386,0,0
-490,638,0,0,0,0,0,0,0,0,0,-1,734,386,0,0
-483,638,0,0,0,0,0,0,0,0,0,-1,741,386,0,0
-476,638,0,0,0,0,0,0,0,0,0,-1,748,386,0,0
-469,638,0,0,0,0,0,0,0,0,0,-1,755,386,0,0
-462,638,0,0,0,0,0,0,0,0,0,-1,762,386,0,0
-455,638,0,0,0,0,0,0,0,0,0,-1,769,386,0,0
-448,638,0,0,0,0,0,0,0,0,0,-1,776,386,0,0
-441,638,0,0,0,0,0,0,0,0,0,-1,783,386,0,0
-434,638,0,0,0,0,0,0,0,0,0,-1,790,386,0,0
-427,638,0,0,0,0,0,0,0,0,0,-1,797,386,0,0
-420,638,0,0,0,0,0,0,0,0,0,-1,804,386,0,0
-413,638,0,0,0,0,0,0,0,0,0,-1,811,386,0,0
-406,638,0,0,0,0,0,0,0,0,0,-1,818,386,0,0
-399,638,0,0,0,0,0,0,0,0,0,-1,825,386,0,0
-392,638,0,0,0,0,0,0,0,0,0,-1,832,386,0,0
-385,638,0,0,0,0,0,0,0,0,0,-1,839,386,0,0
-378,638,0,0,0,0,0,0,0,0,0,-1,846,386,0,0
-371,638,0,0,0,0,0,0,0,0,0,-1,853,386,0,0
-364,638,0,0,0,0,0,0,0,0,0,-1,860,386,0,0
-357,638,0,0,0,0,0,0,0,0,0,-1,867,386,0,0
-350,638,0,0,0,0,0,0,0,0,0,-1,874,386,0,0
-343,638,0,0,0,0,0,0,0,0,0,-1,881,386,0,0
-336,638,0,0,0,0,0,0,0,0,0,-1,888,386,0,0
-329,638,0,0,0,0,0,0,0,0,0,-1,895,386,0,0
-322,638,0,0,0,0,0,0,0,0,0,-1,902,386,0,0
-315,638,0,0,0,0,0,0,0,0,0,-1,909,386,0,0
-308,638,0,0,0,0,0,0,0,0,0,-1,916,386,0,0
-301,638,0,0,0,0,0,0,0,0,0,-1,923,386,0,0
-294,638,0,0,0,0,0,0,0,0,0,-1,930,386,0,0
-287,638,0,0,0,0,0,0,0,0,0,-1,937,386,0,0
-280,638,0,0,0,0,0,0,0,0,0,-1,944,386,0,0
-273,638,0,0,0,0,0,0,0,0,0,-1,951,386,0,0
-266,638,0.328857,1.17966,0.0683523,0.0097023,0.0162839,0.0725701,0.00548447,0.253448,0.0466595,0.0397903,958,386,0.328832,-1.17967
-259,638,1.28857,1.36478,0.0575897,0.00964192,0.00913909,0.0592725,0.00795903,0.182102,0.0371473,0.0424919,965,386,1.28859,-1.36477
-252,638,2.44189,1.53107,0,0,0,0,0,0,0,-1,972,386,2.44191,-1.53106
-245,638,-0.155579,0.331543,0.0359316,0.00723085,0.0014589,0.0360056,0.00715688,0.0506573,0.0220095,0.041379,979,386,-0.155596,-0.331539
-238,638,-0.00933838,0.421295,0.0256559,0.00700012,-0.000329838,0.0256617,0.00699429,-0.0176728,0.0153182,0.0450541,986,386,-0.00933926,-0.421294
-231,638,-0.424866,0.467102,0.0174672,0.00710439,-0.0017244,0.0177466,0.00682498,-0.160637,0.0103366,0.0428911,993,386,-0.424845,-0.467109
-224,638,-0.415466,0.512115,0.0111694,0.00686509,-0.00316895,0.0128479,0.00518656,-0.487106,0.00746346,0.0396449,1000,386,-0.415496,-0.51211
-217,638,-0.158569,0.371674,0.00585316,0.00660588,-0.00433401,0.0105798,0.0018792,-0.828709,0.00651777,0.0406615,1007,386,-0.158563,-0.371661
-210,638,0.290222,0.227753,0.00120573,0.00625008,-0.00513366,0.00944768,-0.00199188,-1.01373,0.00705675,0.0414141,1014,386,0.290247,-0.227758
-203,638,0.739502,0.281189,-0.00179603,0.00540831,-0.00555204,0.00842435,-0.00481208,-1.07316,0.00773633,0.0455903,1021,386,0.739506,-0.281184
-196,638,1.12268,0.324005,0,0,0,0,0,0,0,-1,1028,386,1.12273,-0.324003
-189,638,0.17627,0.430481,-0.00193126,0.0052028,-0.00522219,0.00795993,-0.00468839,-1.08503,0.00738348,0.0419013,1035,386,0.176318,-0.430483
-182,638,-0.0333252,0.628357,-0.00203824,0.00461383,-0.00462551,0.00698498,-0.00440938,-1.0971,0.00663432,0.0417269,1042,386,-0.0333819,-0.628357
-175,638,-0.161621,0.473816,-0.00239121,0.00332382,-0.00386658,0.0052742,-0.00434158,-1.10362,0.00556037,0.0365893,1049,386,-0.161612,-0.473811
-168,638,-0.0584717,0.028717,-0.00271774,0.002034,-0.00246983,0.0030852,-0.00376894,-1.1684,0.0039638,0.0298251,1056,386,-0.0584644,-0.028726
-161,638,-0.00866699,-0.0735779,-0.00276651,0.00106606,-0.00127214,0.00144988,-0.00315033,-1.27777,0.00271574,0.0264246,1063,386,-0.00869656,0.073568
-154,638,-0.000488281,-0.0603027,-0.0027701,-8.29113e-05,-0.000359232,-3.57168e-05,-0.0028173,-1.44017,0.00186641,0.0202273,1070,386,-0.000428744,0.0603165
-147,638,-0.0357666,-0.0456238,-0.00281624,-0.000859933,0.000435293,-0.000767449,-0.00290872,1.36145,0.00174067,0.0151136,1077,386,-0.0357558,0.0456113
-140,638,-0.0854492,-0.0341492,-0.00241094,-0.00140875,0.000802001,-0.000964169,-0.00285552,1.06463,0.00167735,0.0130172,1084,386,-0.0855053,0.0341353
-133,638,-0.0731201,-0.0466919,-0.00169944,-0.00198271,0.00113618,-0.000696105,-0.00298604,0.72339,0.001804,0.0114004,1091,386,-0.0731284,0.0466785
-126,638,-0.0570068,-0.0376892,-0.0012874,-0.00232971,0.00153291,-0.000189472,-0.00342764,0.62154,0.00222463,0.0120015,1098,386,-0.0569926,0.0377042
-119,638,-0.072998,-0.0349731,-0.00125381,-0.00225674,0.00170829,2.50948e-05,-0.00353564,0.642635,0.00236551,0.0132104,1105,386,-0.0729844,0.0349773
-112,638,-0.0933838,-0.0540771,-0.00123101,-0.00191576,0.0015776,4.09328e-05,-0.00318771,0.678544,0.00213891,0.0125003,1112,386,-0.09344,0.0540876
-105,638,-0.0838623,-0.0577698,-0.00107848,-0.00148144,0.000989483,-0.000270174,-0.00228975,0.684961,0.00144489,0.0148203,1119,386,-0.0838524,0.0577792
-98,638,-0.0679932,-0.0476379,-0.000920083,-0.00104186,0.000448615,-0.000528242,-0.0014337,0.71795,0.000837241,0.014854,1126,386,-0.068016,0.0476261
-91,638,-0.0740967,-0.0524292,-0.000775358,-0.000663107,0.000120558,-0.00058625,-0.000852215,1.00325,0.000503476,0.0117873,1133,386,-0.0740754,0.0524275
-84,638,-0.0671387,-0.0497742,-0.000607587,-0.000313426,-0.000164473,-0.000239861,-0.000681151,-1.15021,0.000398953,0.0132941,1140,386,-0.0670827,0.0497751
-77,638,-0.0795898,-0.0610046,-0.00036211,9.76377e-05,-0.000528636,0.000444217,-0.000708689,-0.990487,0.000671443,0.0101725,1147,386,-0.0796453,0.0610041
-70,638,-0.0666504,-0.0438538,-0.000189196,0.000452821,-0.00082866,0.00102048,-0.000756851,-0.970189,0.0010299,0.0090046,1154,386,-0.0666183,0.0438627
-63,638,-0.0684814,-0.0304565,-0.000247476,0.000483288,-0.000976548,0.00116057,-0.000924758,-0.964414,0.00120653,0.00987409,1161,386,-0.0684294,0.0304609
-56,638,-0.0644531,-0.0369873,-0.000481017,0.000324135,-0.0009733,0.000974831,-0.00113171,-0.981494,0.00121734,0.013151,1168,386,-0.0644293,0.0369791
-49,638,-0.0775146,-0.0409241,-0.000619901,0.000102127,-0.000892161,0.000703548,-0.00122132,-0.977653,0.00112465,0.0113718,1175,386,-0.0775607,0.0409193
-42,638,-0.0720215,-0.0393982,-0.000643986,-0.000343716,-0.000893007,0.000411689,-0.00139939,-0.868681,0.00109624,0.0102553,1182,386,-0.0720377,0.0393955
-35,638,-0.0725098,-0.0533752,-0.000644357,-0.0008893,-0.000844414,8.64207e-05,-0.00162008,-0.713382,0.00110998,0.0102439,1189,386,-0.072566,0.0533656
-28,638,-0.0797119,-0.0566406,-0.000647859,-0.00161533,-0.000931323,-8.21361e-05,-0.00218105,-0.545872,0.00142744,0.010082,1196,386,-0.079738,0.0566285
-21,638,-0.0976563,-0.0414124,-0.000568793,-0.0021523,-0.00106201,-3.58822e-05,-0.00268521,-0.465083,0.0017783,0.0105675,1203,386,-0.0976507,0.0414266
-14,638,-0.0876465,-0.0338135,-0.000341173,-0.00266635,-0.00118372,0.000155399,-0.00316293,-0.397202,0.00216228,0.0105298,1210,386,-0.0876512,0.0337988
-7,638,-0.0610352,-0.0784302,-3.83011e-05,-0.00305686,-0.00118522,0.00037145,-0.00346661,-0.332854,0.00244431,0.0156869,1217,386,-0.0610893,0.0784408
0,638,-0.026123,-0.0494385,0.000232341,-0.00331997,-0.0010889,0.000539559,-0.00362719,-0.274987,0.00261659,0.026854,1224,386,-0.0261151,0.0494388
7,638,-0.0515137,-0.0529785,0.000368264,-0.0033682,-0.00099751,0.000617889,-0.00361783,-0.245212,0.00264204,0.0218668,1231,386,-0.0514538,0.0529852
14,638,-0.0723877,-0.0480957,0.000561009,-0.00331666,-0.000958229,0.000784877,-0.00354053,-0.22951,0.00266085,0.0116123,1238,386,-0.072352,0.0480856
21,638,-0.0720215,-0.0386047,0.000880808,-0.00298949,-0.000919451,0.00108813,-0.00319681,-0.221778,0.00257183,0.00919501,1245,386,-0.0720315,0.0386044
28,638,-0.0817871,-0.0328369,0.00107101,-0.00241885,-0.000868083,0.00127501,-0.00262285,-0.230819,0.00229484,0.0078412,1252,386,-0.081793,0.0328252
35,638,-0.0826416,-0.0373535,0.00224614,-0.00182172,-0.000579363,0.00232705,-0.00190263,-0.13875,0.0024461,0.00972293,1259,386,-0.0826054,0.0373516
42,638,-0.0705566,-0.0412903,0.00398927,-0.000854049,-0.000308454,0.00400883,-0.000873615,-0.0633454,0.00300637,0.00909568,1266,386,-0.0705524,0.0412956
49,638,-0.0717773,-0.0284729,0.00520777,0.000299536,-0.000230121,0.00521853,0.00028877,-0.0467481,0.00338687,0.00766168,1273,386,-0.0718186,0.0284652
56,638,-0.0847168,-0.0138855,0.00638995,0.00126715,-0.000220943,0.00639946,0.00125764,-0.0430228,0.00391502,0.00989537,1280,386,-0.0847225,0.013873
63,638,-0.103516,-0.0221558,0.00749951,0.00215926,-0.00030076,0.0075164,0.00214237,-0.0560831,0.0044713,0.0121868,1287,386,-0.103527,0.0221407
70,638,-0.0861816,-0.0401001,0.00856798,0.00269345,-0.000446972,0.0086018,0.00265964,-0.0755072,0.00508536,0.0158757,1294,386,-0.086123,0.0401029
77,638,-0.0588379,-0.0521851,0.00935157,0.0029793,-0.000597805,0.00940716,0.00292371,-0.0927354,0.00555934,0.0163065,1301,386,-0.0588416,0.052179
84,638,-0.0695801,-0.0619812,0.00979221,0.00290462,-0.00075524,0.00987405,0.00282278,-0.107944,0.00587245,0.011681,1308,386,-0.0695433,0.0619743
91,638,-0.0899658,-0.055481,0.0097316,0.00268748,-0.000922744,0.00985047,0.00256861,-0.128115,0.00590019,0.0129391,1315,386,-0.0900065,0.0554703
98,638,-0.0825195,-0.0358887,0.00931808,0.00219034,-0.0010113,0.00945879,0.00204963,-0.138248,0.00574583,0.0117256,1322,386,-0.0824993,0.0358915
105,638,-0.0720215,-0.0329895,0.00852491,0.00160935,-0.00108003,0.00868966,0.00144461,-0.151373,0.00537665,0.00849658,1329,386,-0.0720348,0.0329935
112,638,-0.0849609,-0.028656,0.00754372,0.000913936,-0.000967651,0.00768207,0.00077559,-0.142009,0.00488342,0.00856551,1336,386,-0.0849429,0.028657
119,638,-0.0787354,-0.0506897,0.00638794,0.000220831,-0.000741089,0.00647575,0.000133026,-0.117931,0.00427351,0.0106915,1343,386,-0.0787529,0.0506965
126,638,-0.0644531,-0.0583191,0.00523371,-0.000453744,-0.00048198,0.00527427,-0.0004943,-0.0839466,0.00369199,0.0132016,1350,386,-0.0644506,0.058327
133,638,-0.0626221,-0.0173035,0.0043569,-0.00104605,-0.000155639,0.00436138,-0.00105053,-0.0287746,0.00331374,0.0129239,1357,386,-0.0625693,0.0173041
140,638,-0.0686035,0.000213623,0.0029334,-0.0016401,6.49866e-05,0.00293433,-0.00164102,0.0142056,0.00267652,0.0142699,1364,386,-0.0686179,-0.00022814
147,638,-0.0776367,-0.019165,0.00186934,-0.00215512,0.000319248,0.00189451,-0.00218029,0.0786712,0.00235451,0.0173365,1371,386,-0.0775831,0.0191687
154,638,-0.0766602,-0.0578918,0.00185569,-0.00257921,0.000688447,0.0019601,-0.00268363,0.150516,0.00269188,0.0154483,1378,386,-0.0766448,0.0579001
161,638,-0.0926514,-0.0234985,0.00174735,-0.00257118,0.00097468,0.00195714,-0.00278097,0.212007,0.0027493,0.0172532,1385,386,-0.0926949,0.0235076
168,638,-0.0467529,0.00326538,0.00155791,-0.00254308,0.00124081,0.00190411,-0.00288928,0.27209,0.00278688,0.0230072,1392,386,-0.0467323,-0.00326683
175,638,-0.0319824,-0.0214844,0.00146998,-0.00237798,0.00140509,0.00192843,-0.00283643,0.315388,0.00276759,0.0185384,1399,386,-0.0319334,0.0214722
182,638,-0.0662842,-0.0202637,0.00137448,-0.00214927,0.00160891,0.00199857,-0.00277335,0.370025,0.00276715,0.012089,1406,386,-0.0663166,0.0202512
189,638,-0.0740967,-0.0142517,0.00117523,-0.00191841,0.00174204,0.00195807,-0.00270126,0.422343,0.00270145,0.0112233,1413,386,-0.0741254,0.0142552
196,638,-0.0675049,-0.0148926,0.000877263,-0.00158743,0.00190644,0.00191498,-0.00262515,0.498473,0.00263191,0.0137636,1420,386,-0.0675302,0.0148912
203,638,-0.0770264,-0.027771,0.000513526,-0.00128007,0.00195406,0.00176675,-0.00253329,0.570266,0.00249574,0.0174261,1427,386,-0.0770085,0.0277725
210,638,-0.0627441,-0.0650024,0.000270227,-0.000934746,0.00213221,0.00188344,-0.00254796,0.647706,0.00256804,0.0145327,1434,386,-0.0626972,0.0650044
217,638,-0.0770264,-0.0757751,8.92786e-05,-0.000586288,0.0021865,0.00196393,-0.00246094,0.708761,0.00256007,0.0116206,1441,386,-0.0770583,0.0757706
224,638,-0.0899658,-0.0447998,1.24615e-05,-0.00013863,0.00222059,0.00215879,-0.00228495,0.768394,0.00256594,0.010612,1448,386,-0.0899489,0.0447888
231,638,-0.083252,-0.0264587,-7.04016e-05,0.000274991,0.00221177,0.00232079,-0.00211621,0.824359,0.00256261,0.0111001,1455,386,-0.0832587,0.0264726
238,638,-0.0963135,-0.0331421,-0.000199355,0.000588325,0.00208992,0.00232119,-0.00193222,0.87853,0.00245913,0.0115476,1462,386,-0.0963483,0.0331291
245,638,-0.0957031,-0.0328064,-0.000129698,0.00113565,0.00190247,0.00250789,-0.00150194,0.945923,0.00233923,0.0126527,1469,386,-0.0957101,0.0328191
252,638,-0.0936279,-0.0240479,-3.57939e-05,0.00162484,0.00170536,0.00269127,-0.00110223,1.01195,0.00225332,0.0135485,1476,386,-0.0935814,0.0240394
259,638,-0.0892334,-0.0155334,0.000109385,0.00166874,0.0013265,0.00242773,-0.000649601,1.05109,0.00187296,0.0130763,1483,386,-0.0892609,0.015546
266,638,-0.0788574,-0.0317993,0.000251226,0.00146296,0.000917093,0.00195625,-0.000242058,1.07731,0.00139188,0.00966024,1490,386,-0.0788776,0.0318144
273,638,-0.0753174,-0.0365601,0.000376093,0.00163393,0.00052849,0.00182649,0.000183525,1.22137,0.00116133,0.00910108,1497,386,-0.0752823,0.0365698
280,638,-0.0595703,-0.0219116,0.000341012,0.00174393,2.30624e-05,0.00174431,0.000340633,1.55436,0.0010676,0.0150919,1504,386,-0.0595994,0.0219219
287,638,0.0246582,0.0420532,0.000491283,0.00147597,-0.000478561,0.00167023,0.000297024,-1.18519,0.00102887,0.0267671,1511,386,0.0246284,-0.0420514
294,638,0.0939941,0.103485,0.00106262,0.000992145,-0.000593365,0.00162179,0.000432972,-0.75574,0.000969648,0.0337231,1518,386,0.0940053,-0.103491
301,638,-0.0483398,-0.0457458,0.00140501,0.000799823,-0.000769887,0.00192963,0.000275198,-0.598154,0.00120521,0.0406292,1525,386,-0.0483524,0.0457468
308,638,-0.0294189,0.0145569,0.00173345,-0.000246905,-0.0011878,0.00228966,-0.000803118,-0.437943,0.0018531,0.0424224,1532,386,-0.0293735,-0.0145444
315,638,0.00146484,0.0792236,0,0,0,0,0,0,0,-1,1539,386,0.00142098,-0.0792152
322,638,0.0230713,0.299011,0.00344505,-0.00368054,-0.00119833,0.00364118,-0.00387667,-0.16223,0.00434114,0.0393161,1546,386,0.0231188,-0.299
329,638,0.333252,0.11969,0.00414172,-0.00598949,-0.000815414,0.00420693,-0.0060547,-0.0798008,0.00595648,0.047328,1553,386,0.333278,-0.119697
336,638,-0.0723877,-0.227173,0.00449109,-0.00887275,0.000910012,0.00455277,-0.00893443,0.0676787,0.00792263,0.0436669,1560,386,-0.0723414,0.227187
343,638,0.362061,0.400269,0.00497968,-0.0103967,0.00338093,0.00569024,-0.0111072,0.207152,0.00986468,0.0426798,1567,386,0.3621,-0.400282
350,638,0.718872,0.687775,0.00561597,-0.0123968,0.00501356,0.00691739,-0.0136982,0.253974,0.0121151,0.0464154,1574,386,0.718885,-0.687783
357,638,-0.19043,-1.02359,0,0,0,0,0,0,0,-1,1581,386,-0.190453,1.0236
364,638,0.135864,-1.07251,0.00689482,-0.0138052,0.0104199,0.0112314,-0.0181418,0.39438,0.0171144,0.0484025,1588,386,0.135831,1.07251
371,638,0.422729,-1.16214,0.00749469,-0.0134374,0.013571,0.0141667,-0.0201094,0.456931,0.0198882,0.0438883,1595,386,0.422766,1.16213
378,638,0.683838,-1.28183,0,0,0,0,0,0,0,-1,1602,386,0.683806,1.28184
385,638,0,0,0,0,0,0,0,0,0,-1,1609,386,0,0
392,638,0,0,0,0,0,0,0,0,0,-1,1616,386,0,0
399,638,0,0,0,0,0,0,0,0,0,-1,1623,386,0,0
406,638,0,0,0,0,0,0,0,0,0,-1,1630,386,0,0
413,638,0,0,0,0,0,0,0,0,0,-1,1637,386,0,0
420,638,0,0,0,0,0,0,0,0,0,-1,1644,386,0,0
427,638,0,0,0,0,0,0,0,0,0,-1,1651,386,0,0
434,638,0,0,0,0,0,0,0,0,0,-1,1658,386,0,0
441,638,0,0,0,0,0,0,0,0,0,-1,1665,386,0,0
448,638,0,0,0,0,0,0,0,0,0,-1,1672,386,0,0
455,638,0,0,0,0,0,0,0,0,0,-1,1679,386,0,0
462,638,0,0,0,0,0,0,0,0,0,-1,1686,386,0,0
469,638,0,0,0,0,0,0,0,0,0,-1,1693,386,0,0
476,638,0,0,0,0,0,0,0,0,0,-1,1700,386,0,0
483,638,0,0,0,0,0,0,0,0,0,-1,1707,386,0,0
490,638,0,0,0,0,0,0,0,0,0,-1,1714,386,0,0
497,638,0,0,0,0,0,0,0,0,0,-1,1721,386,0,0
504,638,0,0,0,0,0,0,0,0,0,-1,1728,386,0,0
511,638,0,0,0,0,0,0,0,0,0,-1,1735,386,0,0
518,638,0,0,0,0,0,0,0,0,0,-1,1742,386,0,0
525,638,0,0,0,0,0,0,0,0,0,-1,1749,386,0,0
532,638,0,0,0,0,0,0,0,0,0,-1,1756,386,0,0
539,638,0,0,0,0,0,0,0,0,0,-1,1763,386,0,0
546,638,0,0,0,0,0,0,0,0,0,-1,1770,386,0,0
553,638,0,0,0,0,0,0,0,0,0,-1,1777,386,0,0
560,638,0,0,0,0,0,0,0,0,0,-1,1784,386,0,0
567,638,0,0,0,0,0,0,0,0,0,-1,1791,386,0,0
574,638,0,0,0,0,0,0,0,0,0,-1,1798,386,0,0
581,638,0,0,0,0,0,0,0,0,0,-1,1805,386,0,0
588,638,0,0,0,0,0,0,0,0,0,-1,1812,386,0,0
595,638,0,0,0,0,0,0,0,0,0,-1,1819,386,0,0
602,638,0,0,0,0,0,0,0,0,0,-1,1826,386,0,0
609,638,0,0,0,0,0,0,0,0,0,-1,1833,386,0,0
616,638,0,0,0,0,0,0,0,0,0,-1,1840,386,0,0
623,638,0,0,0,0,0,0,0,0,0,-1,1847,386,0,0
630,638,0,0,0,0,0,0,0,0,0,-1,1854,386,0,0
637,638,0,0,0,0,0,0,0,0,0,-1,1861,386,0,0
644,638,0,0,0,0,0,0,0,0,0,-1,1868,386,0,0
651,638,0,0,0,0,0,0,0,0,0,-1,1875,386,0,0
658,638,0,0,0,0,0,0,0,0,0,-1,1882,386,0,0
665,638,0,0,0,0,0,0,0,0,0,-1,1889,386,0,0
672,638,0,0,0,0,0,0,0,0,0,-1,1896,386,0,0
679,638,0,0,0,0,0,0,0,0,0,-1,1903,386,0,0
686,638,0,0,0,0,0,0,0,0,0,-1,1910,386,0,0
693,638,0,0,0,0,0,0,0,0,0,-1,1917,386,0,0
700,638,0,0,0,0,0,0,0,0,0,-1,1924,386,0,0
707,638,0,0,0,0,0,0,0,0,0,-1,1931,386,0,0
714,638,0,0,0,0,0,0,0,0,0,-1,1938,386,0,0
721,638,0,0,0,0,0,0,0,0,0,-1,1945,386,0,0
728,638,0,0,0,0,0,0,0,0,0,-1,1952,386,0,0
735,638,0,0,0,0,0,0,0,0,0,-1,1959,386,0,0
742,638,0,0,0,0,0,0,0,0,0,-1,1966,386,0,0
749,638,0,0,0,0,0,0,0,0,0,-1,1973,386,0,0
756,638,0,0,0,0,0,0,0,0,0,-1,1980,386,0,0
763,638,0,0,0,0,0,0,0,0,0,-1,1987,386,0,0
770,638,0,0,0,0,0,0,0,0,0,-1,1994,386,0,0
777,638,0,0,0,0,0,0,0,0,0,-1,2001,386,0,0
784,638,0,0,0,0,0,0,0,0,0,-1,2008,386,0,0
791,638,0,0,0,0,0,0,0,0,0,-1,2015,386,0,0
798,638,0,0,0,0,0,0,0,0,0,-1,2022,386,0,0
805,638,0,0,0,0,0,0,0,0,0,-1,2029,386,0,0
812,638,0,0,0,0,0,0,0,0,0,-1,2036,386,0,0
-700,631,0,0,0,0,0,0,0,0,0,-1,524,393,0,0
-693,631,0,0,0,0,0,0,0,0,0,-1,531,393,0,0
-686,631,0,0,0,0,0,0,0,0,0,-1,538,393,0,0
-679,631,0,0,0,0,0,0,0,0,0,-1,545,393,0,0
-672,631,0,0,0,0,0,0,0,0,0,-1,552,393,0,0
-665,631,0,0,0,0,0,0,0,0,0,-1,559,393,0,0
-658,631,0,0,0,0,0,0,0,0,0,-1,566,393,0,0
-651,631,0,0,0,0,0,0,0,0,0,-1,573,393,0,0
-644,631,0,0,0,0,0,0,0,0,0,-1,580,393,0,0
-637,631,0,0,0,0,0,0,0,0,0,-1,587,393,0,0
-630,631,0,0,0,0,0,0,0,0,0,-1,594,393,0,0
-623,631,0,0,0,0,0,0,0,0,0,-1,601,393,0,0
-616,631,0,0,0,0,0,0,0,0,0,-1,608,393,0,0
-609,631,0,0,0,0,0,0,0,0,0,-1,615,393,0,0
-602,631,0,0,0,0,0,0,0,0,0,-1,622,393,0,0
-595,631,0,0,0,0,0,0,0,0,0,-1,629,393,0,0
-588,631,0,0,0,0,0,0,0,0,0,-1,636,393,0,0
-581,631,0,0,0,0,0,0,0,0,0,-1,643,393,0,0
-574,631,0,0,0,0,0,0,0,0,0,-1,650,393,0,0
-567,631,0,0,0,0,0,0,0,0,0,-1,657,393,0,0
-560,631,0,0,0,0,0,0,0,0,0,-1,664,393,0,0
-553,631,0,0,0,0,0,0,0,0,0,-1,671,393,0,0
-546,631,0,0,0,0,0,0,0,0,0,-1,678,393,0,0
-539,631,0,0,0,0,0,0,0,0,0,-1,685,393,0,0
-532,631,0,0,0,0,0,0,0,0,0,-1,692,393,0,0
-525,631,0,0,0,0,0,0,0,0,0,-1,699,393,0,0
-518,631,0,0,0,0,0,0,0,0,0,-1,706,393,0,0
-511,631,0,0,0,0,0,0,0,0,0,-1,713,393,0,0
-504,631,0,0,0,0,0,0,0,0,0,-1,720,393,0,0
-497,631,0,0,0,0,0,0,0,0,0,-1,727,393,0,0
-490,631,0,0,0,0,0,0,0,0,0,-1,734,393,0,0
-483,631,0,0,0,0,0,0,0,0,0,-1,741,393,0,0
-476,631,0,0,0,0,0,0,0,0,0,-1,748,393,0,0
-469,631,0,0,0,0,0,0,0,0,0,-1,755,393,0,0
-462,631,0,0,0,0,0,0,0,0,0,-1,762,393,0,0
-455,631,0,0,0,0,0,0,0,0,0,-1,769,393,0,0
-448,631,0,0,0,0,0,0,0,0,0,-1,776,393,0,0
-441,631,0,0,0,0,0,0,0,0,0,-1,783,393,0,0
-434,631,0,0,0,0,0,0,0,0,0,-1,790,393,0,0
-427,631,0,0,0,0,0,0,0,0,0,-1,797,393,0,0
-420,631,0,0,0,0,0,0,0,0,0,-1,804,393,0,0
-413,631,0,0,0,0,0,0,0,0,0,-1,811,393,0,0
-406,631,0,0,0,0,0,0,0,0,0,-1,818,393,0,0
-399,631,0,0,0,0,0,0,0,0,0,-1,825,393,0,0
-392,631,0,0,0,0,0,0,0,0,0,-1,832,393,0,0
-385,631,0,0,0,0,0,0,0,0,0,-1,839,393,0,0
-378,631,0,0,0,0,0,0,0,0,0,-1,846,393,0,0
-371,631,0,0,0,0,0,0,0,0,0,-1,853,393,0,0
-364,631,0,0,0,0,0,0,0,0,0,-1,860,393,0,0
-357,631,0,0,0,0,0,0,0,0,0,-1,867,393,0,0
-350,631,0,0,0,0,0,0,0,0,0,-1,874,393,0,0
-343,631,0,0,0,0,0,0,0,0,0,-1,881,393,0,0
-336,631,0,0,0,0,0,0,0,0,0,-1,888,393,0,0
-329,631,0,0,0,0,0,0,0,0,0,-1,895,393,0,0
-322,631,0,0,0,0,0,0,0,0,0,-1,902,393,0,0
-315,631,0,0,0,0,0,0,0,0,0,-1,909,393,0,0
-308,631,0,0,0,0,0,0,0,0,0,-1,916,393,0,0
-301,631,0,0,0,0,0,0,0,0,0,-1,923,393,0,0
-294,631,0,0,0,0,0,0,0,0,0,-1,930,393,0,0
-287,631,0,0,0,0,0,0,0,0,0,-1,937,393,0,0
-280,631,-1.7677,1.17322,0,0,0,0,0,0,0,-1,944,393,-1.76769,-1.17321
-273,631,-0.838806,1.0946,0.0661074,0.0173049,0.0168513,0.0713606,0.0120517,0.302192,0.0441087,0.0429638,951,393,-0.838803,-1.09461
-266,631,-0.0845947,1.12683,0.0578676,0.015874,0.00993311,0.0600986,0.013643,0.220939,0.036381,0.0446488,958,393,-0.0845971,-1.12683
-259,631,0.69165,0.872803,0.0490407,0.0146732,0.00459436,0.0496442,0.0140696,0.130628,0.0295449,0.0441094,965,393,0.691675,-0.87281
-252,631,0.646606,0.149536,0,0,0,0,0,0,0,-1,972,393,0.646622,-0.149542
-245,631,0.242432,0.220062,0.0310793,0.0104416,-0.000399034,0.031087,0.0104338,-0.0193256,0.0182685,0.0455194,979,393,0.242456,-0.220059
-238,631,-0.0878906,0.40976,0.0223782,0.00963138,-0.00131975,0.0225134,0.00949617,-0.102093,0.013051,0.0467996,986,393,-0.0879153,-0.409757
-231,631,-0.318481,0.359711,0.015257,0.00915272,-0.00197639,0.015841,0.00856869,-0.287324,0.00915601,0.0482183,993,393,-0.318463,-0.359697
-224,631,0.174316,0.412628,0.00988498,0.00849303,-0.00292532,0.012196,0.00618203,-0.668612,0.00704158,0.0481233,1000,393,0.174312,-0.412635
-217,631,0.213684,0.335785,0.00534388,0.00792072,-0.00379526,0.0106403,0.00262431,-0.949035,0.00640068,0.0451366,1007,393,0.213688,-0.335789
-210,631,0.182617,-0.199005,0.00134949,0.00726394,-0.00440143,0.00960933,-0.000995907,-1.0812,0.00676268,0.0425453,1014,393,0.182594,0.199007
-203,631,0.430481,-0.631042,0,0,0,0,0,0,0,-1,1021,393,0.430466,0.631044
-196,631,0.639771,0.319733,0,0,0,0,0,0,0,-1,1028,393,0.63983,-0.319725
-189,631,0.482788,0.294891,-0.00134763,0.00560813,-0.00442986,0.00776224,-0.00350173,-1.11819,0.00665652,0.0425059,1035,393,0.482787,-0.294902
-182,631,0.109131,0.579193,-0.0014014,0.004924,-0.00394951,0.00682107,-0.00329847,-1.12301,0.00595935,0.0397914,1042,393,0.109102,-0.579198
-175,631,0.0324707,0.0432434,-0.00173444,0.00365468,-0.00330353,0.00522321,-0.00330298,-1.12751,0.00496404,0.0290173,1049,393,0.0324557,-0.0432492
-168,631,-0.064209,-0.00964355,-0.00207038,0.00242856,-0.00219838,0.0033244,-0.00296623,-1.18384,0.00363386,0.0156002,1056,393,-0.0641506,0.00965316
-161,631,-0.0856934,-0.0335388,-0.00211215,0.00153383,-0.00126387,0.0019291,-0.00250742,-1.26769,0.00256867,0.00855206,1063,393,-0.0857206,0.0335337
-154,631,-0.0760498,-0.048645,-0.00209061,0.000551391,-0.00052931,0.00065349,-0.00219271,-1.38025,0.00172149,0.00804354,1070,393,-0.0760425,0.0486482
-147,631,-0.0767822,-0.0480957,-0.00212425,-8.28028e-05,0.000118959,-7.58942e-05,-0.00213116,1.51279,0.00139616,0.0088313,1077,393,-0.0767498,0.0481032
-140,631,-0.085083,-0.0598145,-0.00180231,-0.000492839,0.000411565,-0.000374228,-0.00192092,1.29021,0.00117589,0.00865822,1084,393,-0.0850996,0.0598189
-133,631,-0.0782471,-0.0601807,-0.0012205,-0.000995971,0.0006529,-0.000445756,-0.00177072,0.870541,0.0010635,0.00782426,1091,393,-0.078273,0.0601927
-126,631,-0.055542,-0.0241394,-0.000911522,-0.00130519,0.000998607,-9.05342e-05,-0.00212618,0.688092,0.00138826,0.011559,1098,393,-0.0555543,0.0241436
-119,631,-0.0769043,-0.0237122,-0.00090824,-0.0012791,0.00120657,0.000127069,-0.00231441,0.709153,0.00158699,0.014339,1105,393,-0.0769374,0.0237217
-112,631,-0.0932617,-0.0415039,-0.000880034,-0.00103839,0.00117847,0.000221912,-0.00214034,0.751854,0.00150632,0.0125296,1112,393,-0.0932474,0.0415104
-105,631,-0.0666504,-0.0400696,-0.000757488,-0.000783861,0.000778926,8.36246e-06,-0.00154971,0.776935,0.00103594,0.0166518,1119,393,-0.0666392,0.0400659
-98,631,-0.0623779,-0.0486755,-0.000682418,-0.000543676,0.00042505,-0.000182373,-0.00104372,0.866288,0.000643693,0.0152195,1126,393,-0.062407,0.0486608
-91,631,-0.0782471,-0.0591431,-0.000584925,-0.000346663,0.000222418,-0.000213481,-0.000718107,1.03126,0.000425806,0.0162554,1133,393,-0.0783017,0.0591313
-84,631,-0.0802002,-0.046051,-0.000458375,-0.0002022,6.4278e-05,-0.000186976,-0.000473598,1.33824,0.000275442,0.0148561,1140,393,-0.0802198,0.046036
-77,631,-0.0861816,-0.0489502,-0.000271519,-2.5134e-05,-0.000160458,5.39679e-05,-0.000350621,-1.11278,0.000253657,0.0089247,1147,393,-0.0861463,0.0489565
-70,631,-0.0664063,-0.0270996,-0.000124802,4.48444e-05,-0.000317166,0.000288334,-0.000368291,-0.916061,0.000380038,0.00932471,1154,393,-0.0663584,0.0271128
-63,631,-0.0618896,-0.0344543,-0.000188264,-0.000114445,-0.000371666,0.00022214,-0.000524848,-0.834891,0.00044292,0.00888872,1161,393,-0.0618399,0.0344543
-56,631,-0.0605469,-0.0613403,-0.000409823,-0.000395928,-0.000295635,-0.00010716,-0.000698592,-0.797146,0.000434436,0.00979501,1168,393,-0.0605999,0.0613285
-49,631,-0.0726318,-0.0550842,-0.000587841,-0.000692499,-0.000136591,-0.000493899,-0.000786442,-0.602469,0.000458986,0.00968373,1175,393,-0.0725931,0.0550917
-42,631,-0.06604,-0.046875,-0.000600747,-0.00123167,-6.25881e-05,-0.000594598,-0.00123782,-0.097929,0.000714839,0.00847959,1182,393,-0.0660373,0.0468635
-35,631,-0.0574951,-0.0434265,-0.000486914,-0.00191392,-1.0923e-05,-0.00048683,-0.001914,-0.0076539,0.00114864,0.00921071,1189,393,-0.0574505,0.0434174
-28,631,-0.0854492,-0.0438538,-0.000323152,-0.00271915,-9.22046e-05,-0.000319609,-0.00272269,-0.0384071,0.00171853,0.0120506,1196,393,-0.0854023,0.043869
-21,631,-0.0979004,-0.0444641,-6.67861e-05,-0.00327258,-0.000191519,-5.53851e-05,-0.00328398,-0.0594596,0.0021711,0.0108889,1203,393,-0.0979284,0.0444701
-14,631,-0.0942383,-0.056366,0.000217876,-0.00380836,-0.000301646,0.00024035,-0.00383084,-0.0743667,0.00263766,0.0130704,1210,393,-0.0941816,0.0563775
-7,631,-0.0612793,-0.0858154,0.000630997,-0.00413783,-0.000221751,0.000641287,-0.00414812,-0.0463669,0.00300209,0.0195936,1217,393,-0.0613277,0.0858075
0,631,-0.034668,-0.0726318,0.00113105,-0.00429067,-0.000100345,0.00113291,-0.00429253,-0.0184994,0.0033047,0.0192051,1224,393,-0.0346187,0.0726448
7,631,-0.059082,-0.050354,0.00154506,-0.00420422,-6.09193e-05,0.00154571,-0.00420487,-0.0105944,0.00343638,0.016175,1231,393,-0.0590279,0.0503572
14,631,-0.072876,-0.0449524,0.0019978,-0.00391822,-6.32404e-05,0.00199847,-0.0039189,-0.0106881,0.00347585,0.00938496,1238,393,-0.0728315,0.0449417
21,631,-0.0594482,-0.0324097,0.0025849,-0.00331029,-0.000115059,0.00258715,-0.00331254,-0.0195076,0.00341475,0.0109467,1245,393,-0.0594498,0.0324248
28,631,-0.0717773,-0.0100098,0.00297036,-0.00239041,-0.000193322,0.00297732,-0.00239737,-0.036,0.00310909,0.012503,1252,393,-0.0717842,0.00999741
35,631,-0.0743408,-0.0215149,0.00315826,-0.00123948,-0.000351077,0.00318611,-0.00126733,-0.079163,0.00264955,0.0125896,1259,393,-0.0743741,0.0215297
42,631,-0.0693359,-0.0391235,0.0033792,0.000609866,-0.000611249,0.00350812,0.000480952,-0.207857,0.00219605,0.0110444,1266,393,-0.069301,0.0391212
49,631,-0.0876465,-0.0215149,0.00359437,0.00283265,-0.000888809,0.00418048,0.00224654,-0.582979,0.00241585,0.00977265,1273,393,-0.08767,0.0215232
56,631,-0.0981445,-0.017395,0.00366143,0.00461001,-0.0012659,0.00548755,0.00278389,-0.964637,0.00316835,0.0115562,1280,393,-0.0981568,0.0173805
63,631,-0.0998535,-0.0266418,0.00342207,0.00631526,-0.00173674,0.00712895,0.00260838,-1.13265,0.00416496,0.0132847,1287,393,-0.099866,0.0266413
70,631,-0.0953369,-0.0180359,0.00309681,0.00762101,-0.00215878,0.0084858,0.00223202,-1.18978,0.00507938,0.0135252,1294,393,-0.0953608,0.0180302
77,631,-0.081543,-0.037262,0.00284911,0.00864656,-0.00256477,0.00961832,0.00187735,-1.20862,0.00588707,0.0135481,1301,393,-0.0815267,0.0372477
84,631,-0.0679932,-0.0601501,0.00260647,0.00901439,-0.00295812,0.0101711,0.00144971,-1.19803,0.0063529,0.0116497,1308,393,-0.0680475,0.0601368
91,631,-0.0797119,-0.0539856,0.00229796,0.00881862,-0.00319179,0.0101209,0.000995702,-1.18341,0.00644106,0.0148642,1315,393,-0.0797552,0.0539773
98,631,-0.0915527,-0.0449219,0.00184766,0.0082593,-0.00342995,0.00974836,0.000358604,-1.16122,0.00638273,0.0126813,1322,393,-0.0915299,0.044935
105,631,-0.0932617,-0.0389404,0.00145763,0.00739599,-0.0033933,0.00893575,-8.2125e-05,-1.14482,0.00598473,0.0099207,1329,393,-0.0933177,0.0389523
112,631,-0.0887451,-0.0326843,0.00121039,0.0061767,-0.00311161,0.00767452,-0.000287426,-1.12217,0.00521479,0.010247,1336,393,-0.0887315,0.0326831
119,631,-0.0837402,-0.054657,0.000931631,0.00480559,-0.00272248,0.00620984,-0.000472615,-1.09459,0.00430608,0.0118063,1343,393,-0.0837843,0.0546473
126,631,-0.0804443,-0.0391541,0.000625794,0.0034257,-0.0022751,0.00469707,-0.000645574,-1.06121,0.00336726,0.0158587,1350,393,-0.0804227,0.0391575
133,631,-0.0701904,0.000762939,0.000558366,0.00213617,-0.00178932,0.00330278,-0.00060824,-0.993027,0.00243011,0.0156952,1357,393,-0.0701493,-0.000760976
140,631,-0.0662842,-0.0198059,0.000587832,0.000964489,-0.00124146,0.00203182,-0.0004795,-0.860674,0.00153948,0.01755,1364,393,-0.0662648,0.0198198
147,631,-0.0797119,-0.0413208,0.000630578,-0.000277677,-0.00072921,0.00103551,-0.000682607,-0.506902,0.000998904,0.0218312,1371,393,-0.0797081,0.0413249
154,631,-0.10144,-0.0143738,0.000667471,-0.00116395,-0.000395308,0.000749154,-0.00124563,-0.203765,0.00116352,0.0204742,1378,393,-0.101496,0.0143724
161,631,-0.0795898,0.000244141,0.000702351,-0.00111526,-4.8096e-05,0.000703623,-0.00111653,-0.0264364,0.00105984,0.0222086,1385,393,-0.07955,-0.000258301
168,631,-0.038208,0.0237732,0.000775775,-0.00105195,0.000385478,0.000853748,-0.00112992,0.199584,0.00114897,0.0268146,1392,393,-0.0382439,-0.0237658
175,631,-0.0517578,-0.003479,0.000897558,-0.000886387,0.000681218,0.00112794,-0.00111677,0.326112,0.00129599,0.0200476,1399,393,-0.0517921,0.00348413
182,631,-0.0739746,-0.0298157,0.000957181,-0.000798469,0.00102853,0.00143156,-0.00127285,0.432145,0.00156229,0.0108036,1406,393,-0.0739748,0.0298092
189,631,-0.0716553,-0.0227661,0.000955582,-0.000711426,0.00126549,0.0016374,-0.00139324,0.494185,0.00175163,0.0105306,1413,393,-0.0716948,0.0227628
196,631,-0.0714111,-0.0291138,0.000885819,-0.000455041,0.00141983,0.00178555,-0.00135477,0.564821,0.00181874,0.0109626,1420,393,-0.0713644,0.0291143
203,631,-0.0513916,-0.0415039,0.000732293,-0.000407879,0.00151351,0.00177953,-0.00145511,0.605284,0.00187065,0.0121075,1427,393,-0.0514456,0.0415032
210,631,-0.0599365,-0.0585327,0.0005187,-0.00033816,0.00159779,0.00174451,-0.00156397,0.65441,0.0019111,0.0132164,1434,393,-0.0598936,0.0585403
217,631,-0.0755615,-0.0793457,0.000347273,-0.00021083,0.00161309,0.00170527,-0.00156882,0.69975,0.00189084,0.0144556,1441,393,-0.0755335,0.0793501
224,631,-0.0986328,-0.0658264,0.000257428,-2.40154e-06,0.00161734,0.00175007,-0.00149504,0.745321,0.00187549,0.0126128,1448,393,-0.0986293,0.0658133
231,631,-0.0917969,-0.0201416,0.000203172,0.000209004,0.00158553,0.00179162,-0.00137945,0.786318,0.00183596,0.0112024,1455,393,-0.0917887,0.0201472
238,631,-0.104492,0.00320435,0.000131644,0.000401318,0.00151221,0.00178469,-0.00125173,0.829863,0.00176205,0.0156794,1462,393,-0.104453,-0.00319194
245,631,-0.104736,-0.0118408,0.000206517,0.000769934,0.00139921,0.00191551,-0.000939063,0.884737,0.00167992,0.0156199,1469,393,-0.104723,0.011843
252,631,-0.108887,-0.0327759,0.000269719,0.0011771,0.00130412,0.0021042,-0.000657374,0.952796,0.00166574,0.0142713,1476,393,-0.108921,0.0327709
259,631,-0.100708,-0.0304871,0.000347289,0.00126613,0.00108699,0.0019868,-0.000373386,0.985338,0.00146494,0.0114088,1483,393,-0.100755,0.0304881
266,631,-0.0662842,-0.0248413,0.000411312,0.00128324,0.000846282,0.00179925,-0.000104699,1.02325,0.00123588,0.0113632,1490,393,-0.0662413,0.0248415
273,631,-0.0638428,-0.0184937,0.000499591,0.00158303,0.00062426,0.00186785,0.000214776,1.14276,0.00118017,0.0135641,1497,393,-0.0638255,0.0184838
280,631,-0.0614014,-0.0335083,0.000464298,0.00182863,0.000331135,0.00190475,0.000388176,1.34484,0.00116225,0.0114731,1504,393,-0.061458,0.0335214
287,631,-0.052124,-0.0426941,0.000598902,0.00175128,4.40502e-05,0.00175296,0.00059722,1.53264,0.00102905,0.0110707,1511,393,-0.0520926,0.0426983
294,631,-0.0552979,-0.0429382,0.0010608,0.00149933,4.74564e-05,0.00150441,0.00105572,1.46422,0.000891829,0.0139135,1518,393,-0.0552653,0.0429477
301,631,-0.0585938,-0.0346375,0.00126169,0.00151794,-1.98409e-05,0.00151947,0.00126017,-1.49398,0.000938563,0.0217282,1525,393,-0.0586254,0.0346236
308,631,-0.0323486,-0.0145874,0.00151534,0.000676628,-0.000352224,0.00164364,0.000548334,-0.349305,0.000966311,0.0292076,1532,393,-0.0323569,0.0145823
315,631,-0.101074,0.198334,0.00230437,-0.000472624,-0.000504831,0.00239329,-0.00056155,-0.174361,0.00181195,0.0312379,1539,393,-0.101045,-0.198344
322,631,-0.081665,0.181427,0.00311072,-0.00223229,-0.00034666,0.00313312,-0.00225469,-0.0645204,0.00312441,0.0362191,1546,393,-0.0816151,-0.181431
329,631,0.00183105,0.0985413,0.00370424,-0.00420401,-2.56204e-05,0.00370433,-0.00420409,-0.00323967,0.00456896,0.0431262,1553,393,0.0018484,-0.0985549
336,631,0.184937,0.0785217,0.00387855,-0.00667023,0.00141578,0.00406526,-0.00685694,0.131122,0.00637423,0.0428009,1560,393,0.184974,-0.0785155
343,631,0.432129,0.336334,0.00410304,-0.00796425,0.00332581,0.00495895,-0.00882015,0.251886,0.00805881,0.0441422,1567,393,0.432121,-0.336322
350,631,0.394897,0.31424,0.00449538,-0.00962616,0.00444932,0.00578032,-0.0109111,0.281146,0.00978738,0.0459412,1574,393,0.394937,-0.31424
357,631,-0.31665,-1.04041,0.00483751,-0.010446,0.00593679,0.00687263,-0.0124811,0.330244,0.0113292,0.0452616,1581,393,-0.316671,1.04041
364,631,0.171509,-0.974609,0.00510265,-0.0108788,0.00827309,0.00861391,-0.0143901,0.401379,0.0134202,0.0459125,1588,393,0.171502,0.974605
371,631,0.113281,-0.681427,0.00525968,-0.0107882,0.0104687,0.0104258,-0.0159543,0.45842,0.0153416,0.0458,1595,393,0.113336,0.681422
378,631,0.42981,-0.708557,0,0,0,0,0,0,0,-1,1602,393,0.429815,0.708543
385,631,-0.408447,-0.540375,0.00290017,-0.00883419,0.0140368,0.0122466,-0.0181807,0.587441,0.0176782,0.0418556,1609,393,-0.40841,0.540368
392,631,-0.755127,1.33112,0.00120805,-0.00548161,0.014519,0.0127626,-0.0170361,0.672186,0.0172632,0.043871,1616,393,-0.755115,-1.33112
399,631,0,0,0,0,0,0,0,0,0,-1,1623,393,0,0
406,631,0,0,0,0,0,0,0,0,0,-1,1630,393,0,0
413,631,0,0,0,0,0,0,0,0,0,-1,1637,393,0,0
420,631,0,0,0,0,0,0,0,0,0,-1,1644,393,0,0
427,631,0,0,0,0,0,0,0,0,0,-1,1651,393,0,0
434,631,0,0,0,0,0,0,0,0,0,-1,1658,393,0,0
441,631,0,0,0,0,0,0,0,0,0,-1,1665,393,0,0
448,631,0,0,0,0,0,0,0,0,0,-1,1672,393,0,0
455,631,0,0,0,0,0,0,0,0,0,-1,1679,393,0,0
462,631,0,0,0,0,0,0,0,0,0,-1,1686,393,0,0
469,631,0,0,0,0,0,0,0,0,0,-1,1693,393,0,0
476,631,0,0,0,0,0,0,0,0,0,-1,1700,393,0,0
483,631,0,0,0,0,0,0,0,0,0,-1,1707,393,0,0
490,631,0,0,0,0,0,0,0,0,0,-1,1714,393,0,0
497,631,0,0,0,0,0,0,0,0,0,-1,1721,393,0,0
504,631,0,0,0,0,0,0,0,0,0,-1,1728,393,0,0
511,631,0,0,0,0,0,0,0,0,0,-1,1735,393,0,0
518,631,0,0,0,0,0,0,0,0,0,-1,1742,393,0,0
525,631,0,0,0,0,0,0,0,0,0,-1,1749,393,0,0
532,631,0,0,0,0,0,0,0,0,0,-1,1756,393,0,0
539,631,0,0,0,0,0,0,0,0,0,-1,1763,393,0,0
546,631,0,0,0,0,0,0,0,0,0,-1,1770,393,0,0
553,631,0,0,0,0,0,0,0,0,0,-1,1777,393,0,0
560,631,0,0,0,0,0,0,0,0,0,-1,1784,393,0,0
567,631,0,0,0,0,0,0,0,0,0,-1,1791,393,0,0
574,631,0,0,0,0,0,0,0,0,0,-1,1798,393,0,0
581,631,0,0,0,0,0,0,0,0,0,-1,1805,393,0,0
588,631,0,0,0,0,0,0,0,0,0,-1,1812,393,0,0
595,631,0,0,0,0,0,0,0,0,0,-1,1819,393,0,0
602,631,0,0,0,0,0,0,0,0,0,-1,1826,393,0,0
609,631,0,0,0,0,0,0,0,0,0,-1,1833,393,0,0
616,631,0,0,0,0,0,0,0,0,0,-1,1840,393,0,0
623,631,0,0,0,0,0,0,0,0,0,-1,1847,393,0,0
630,631,0,0,0,0,0,0,0,0,0,-1,1854,393,0,0
637,631,0,0,0,0,0,0,0,0,0,-1,1861,393,0,0
644,631,0,0,0,0,0,0,0,0,0,-1,1868,393,0,0
651,631,0,0,0,0,0,0,0,0,0,-1,1875,393,0,0
658,631,0,0,0,0,0,0,0,0,0,-1,1882,393,0,0
665,631,0,0,0,0,0,0,0,0,0,-1,1889,393,0,0
672,631,0,0,0,0,0,0,0,0,0,-1,1896,393,0,0
679,631,0,0,0,0,0,0,0,0,0,-1,1903,393,0,0
686,631,0,0,0,0,0,0,0,0,0,-1,1910,393,0,0
693,631,0,0,0,0,0,0,0,0,0,-1,1917,393,0,0
700,631,0,0,0,0,0,0,0,0,0,-1,1924,393,0,0
707,631,0,0,0,0,0,0,0,0,0,-1,1931,393,0,0
714,631,0,0,0,0,0,0,0,0,0,-1,1938,393,0,0
721,631,0,0,0,0,0,0,0,0,0,-1,1945,393,0,0
728,631,0,0,0,0,0,0,0,0,0,-1,1952,393,0,0
735,631,0,0,0,0,0,0,0,0,0,-1,1959,393,0,0
742,631,0,0,0,0,0,0,0,0,0,-1,1966,393,0,0
749,631,0,0,0,0,0,0,0,0,0,-1,1973,393,0,0
756,631,0,0,0,0,0,0,0,0,0,-1,1980,393,0,0
763,631,0,0,0,0,0,0,0,0,0,-1,1987,393,0,0
770,631,0,0,0,0,0,0,0,0,0,-1,1994,393,0,0
777,631,0,0,0,0,0,0,0,0,0,-1,2001,393,0,0
784,631,0,0,0,0,0,0,0,0,0,-1,2008,393,0,0
791,631,0,0,0,0,0,0,0,0,0,-1,2015,393,0,0
798,631,0,0,0,0,0,0,0,0,0,-1,2022,393,0,0
805,631,0,0,0,0,0,0,0,0,0,-1,2029,393,0,0
812,631,0,0,0,0,0,0,0,0,0,-1,2036,393,0,0
-700,624,0,0,0,0,0,0,0,0,0,-1,524,400,0,0
-693,624,0,0,0,0,0,0,0,0,0,-1,531,400,0,0
-686,624,0,0,0,0,0,0,0,0,0,-1,538,400,0,0
-679,624,0,0,0,0,0,0,0,0,0,-1,545,400,0,0
-672,624,0,0,0,0,0,0,0,0,0,-1,552,400,0,0
-665,624,0,0,0,0,0,0,0,0,0,-1,559,400,0,0
-658,624,0,0,0,0,0,0,0,0,0,-1,566,400,0,0
-651,624,0,0,0,0,0,0,0,0,0,-1,573,400,0,0
-644,624,0,0,0,0,0,0,0,0,0,-1,580,400,0,0
-637,624,0,0,0,0,0,0,0,0,0,-1,587,400,0,0
-630,624,0,0,0,0,0,0,0,0,0,-1,594,400,0,0
-623,624,0,0,0,0,0,0,0,0,0,-1,601,400,0,0
-616,624,0,0,0,0,0,0,0,0,0,-1,608,400,0,0
-609,624,0,0,0,0,0,0,0,0,0,-1,615,400,0,0
-602,624,0,0,0,0,0,0,0,0,0,-1,622,400,0,0
-595,624,0,0,0,0,0,0,0,0,0,-1,629,400,0,0
-588,624,0,0,0,0,0,0,0,0,0,-1,636,400,0,0
-581,624,0,0,0,0,0,0,0,0,0,-1,643,400,0,0
-574,624,0,0,0,0,0,0,0,0,0,-1,650,400,0,0
-567,624,0,0,0,0,0,0,0,0,0,-1,657,400,0,0
-560,624,0,0,0,0,0,0,0,0,0,-1,664,400,0,0
-553,624,0,0,0,0,0,0,0,0,0,-1,671,400,0,0
-546,624,0,0,0,0,0,0,0,0,0,-1,678,400,0,0
-539,624,0,0,0,0,0,0,0,0,0,-1,685,400,0,0
-532,624,0,0,0,0,0,0,0,0,0,-1,692,400,0,0
-525,624,0,0,0,0,0,0,0,0,0,-1,699,400,0,0
-518,624,0,0,0,0,0,0,0,0,0,-1,706,400,0,0
-511,624,0,0,0,0,0,0,0,0,0,-1,713,400,0,0
-504,624,0,0,0,0,0,0,0,0,0,-1,720,400,0,0
-497,624,0,0,0,0,0,0,0,0,0,-1,727,400,0,0
-490,624,0,0,0,0,0,0,0,0,0,-1,734,400,0,0
-483,624,0,0,0,0,0,0,0,0,0,-1,741,400,0,0
-476,624,0,0,0,0,0,0,0,0,0,-1,748,400,0,0
-469,624,0,0,0,0,0,0,0,0,0,-1,755,400,0,0
-462,624,0,0,0,0,0,0,0,0,0,-1,762,400,0,0
-455,624,0,0,0,0,0,0,0,0,0,-1,769,400,0,0
-448,624,0,0,0,0,0,0,0,0,0,-1,776,400,0,0
-441,624,0,0,0,0,0,0,0,0,0,-1,783,400,0,0
-434,624,0,0,0,0,0,0,0,0,0,-1,790,400,0,0
-427,624,0,0,0,0,0,0,0,0,0,-1,797,400,0,0
-420,624,0,0,0,0,0,0,0,0,0,-1,804,400,0,0
-413,624,0,0,0,0,0,0,0,0,0,-1,811,400,0,0
-406,624,0,0,0,0,0,0,0,0,0,-1,818,400,0,0
-399,624,0,0,0,0,0,0,0,0,0,-1,825,400,0,0
-392,624,0,0,0,0,0,0,0,0,0,-1,832,400,0,0
-385,624,0,0,0,0,0,0,0,0,0,-1,839,400,0,0
-378,624,0,0,0,0,0,0,0,0,0,-1,846,400,0,0
-371,624,0,0,0,0,0,0,0,0,0,-1,853,400,0,0
-364,624,0,0,0,0,0,0,0,0,0,-1,860,400,0,0
-357,624,0,0,0,0,0,0,0,0,0,-1,867,400,0,0
-350,624,0,0,0,0,0,0,0,0,0,-1,874,400,0,0
-343,624,0,0,0,0,0,0,0,0,0,-1,881,400,0,0
-336,624,0,0,0,0,0,0,0,0,0,-1,888,400,0,0
-329,624,0,0,0,0,0,0,0,0,0,-1,895,400,0,0
-322,624,0,0,0,0,0,0,0,0,0,-1,902,400,0,0
-315,624,0,0,0,0,0,0,0,0,0,-1,909,400,0,0
-308,624,0,0,0,0,0,0,0,0,0,-1,916,400,0,0
-301,624,0,0,0,0,0,0,0,0,0,-1,923,400,0,0
-294,624,-0.652161,1.36478,0,0,0,0,0,0,0,-1,930,400,-0.65218,-1.36477
-287,624,-1.01764,1.16464,0,0,0,0,0,0,0,-1,937,400,-1.01762,-1.16463
-280,624,-0.792053,1.16638,0.0617182,0.0231659,0.0170794,0.0681962,0.0166879,0.362524,0.0410483,0.0436913,944,400,-0.792037,-1.16638
-273,624,-0.49231,1.04703,0.055779,0.0218221,0.0095944,0.0583024,0.0192988,0.257178,0.0342957,0.0450875,951,400,-0.49228,-1.04704
-266,624,-0.171875,0.942749,0.0484375,0.0196032,0.00476923,0.0492058,0.0188348,0.159736,0.0286681,0.0458741,958,400,-0.171858,-0.942764
-259,624,0.359497,0.738312,0.0411662,0.0176591,0.00101854,0.0412102,0.0176151,0.0432213,0.0238761,0.0441839,965,400,0.359517,-0.738303
-252,624,0.314941,0.0492249,0,0,0,0,0,0,0,-1,972,400,0.314957,-0.0492246
-245,624,0.0894775,0.13623,0.0263227,0.0123053,-0.0017013,0.0265262,0.0121018,-0.119068,0.0153345,0.0471387,979,400,0.0894667,-0.136232
-238,624,-0.189941,0.37973,0.0190417,0.0110719,-0.00194791,0.0194923,0.0106213,-0.227332,0.011269,0.0449609,986,400,-0.189922,-0.379732
-231,624,-0.0931396,0.959198,0,0,0,0,0,0,0,-1,993,400,-0.0931176,-0.959183
-224,624,0.196594,0.802521,0,0,0,0,0,0,0,-1,1000,400,0.196586,-0.80251
-217,624,0.145508,0.349457,0,0,0,0,0,0,0,-1,1007,400,0.145494,-0.349468
-210,624,0.0633545,-0.0458069,0,0,0,0,0,0,0,-1,1014,400,0.0633421,0.0458046
-203,624,-0.071228,-0.0910034,-0.000939281,0.00648648,-0.00391231,0.00816727,-0.00262007,-1.16502,0.00649676,0.0348353,1021,400,-0.071242,0.0910007
-196,624,0.00585938,-0.0142212,-0.000978733,0.00598663,-0.00373405,0.00761004,-0.00260215,-1.16069,0.00612776,0.0334431,1028,400,0.00580684,0.0142135
-189,624,0.146973,0.0375061,-0.000890907,0.00556634,-0.00362596,0.00719278,-0.00251734,-1.14915,0.00581874,0.03256,1035,400,0.147017,-0.0374993
-182,624,-0.053833,-0.0328064,-0.000840918,0.00485771,-0.00327403,0.00634866,-0.00233187,-1.14347,0.00518748,0.0276619,1042,400,-0.0538853,0.0327912
-175,624,-0.0566406,-0.0207214,-0.00107763,0.00368438,-0.00276645,0.00495336,-0.00234661,-1.14073,0.00430328,0.0160352,1049,400,-0.0566766,0.0207266
-168,624,-0.0605469,-0.0257568,-0.00134553,0.00257316,-0.00191635,0.00335452,-0.00212689,-1.18364,0.00319103,0.0102865,1056,400,-0.0605197,0.0257462
-161,624,-0.0864258,-0.036499,-0.00134525,0.00177143,-0.00121758,0.0021907,-0.00176452,-1.23917,0.00228796,0.00901526,1063,400,-0.0864153,0.036506
-154,624,-0.0881348,-0.0456543,-0.00131075,0.000932014,-0.000666676,0.00111522,-0.00149395,-1.30261,0.00151169,0.00888547,1070,400,-0.0881239,0.0456574
-147,624,-0.0922852,-0.0473938,-0.00135531,0.00039818,-0.000182454,0.000416963,-0.00137409,-1.46821,0.00108216,0.00971963,1077,400,-0.0922428,0.0473876
-140,624,-0.097168,-0.0493774,-0.00110191,8.34172e-05,3.25255e-05,8.43091e-05,-0.0011028,1.54338,0.000764855,0.00866255,1084,400,-0.0971369,0.0493925
-133,624,-0.0772705,-0.0498657,-0.000612824,-0.000375945,0.000184569,-0.000275082,-0.000713687,1.07066,0.000415637,0.00973114,1091,400,-0.0773109,0.0498618
-126,624,-0.0773926,-0.0162659,-0.000386982,-0.000690568,0.000452137,-6.18379e-05,-0.00101571,0.623448,0.000657499,0.0115525,1098,400,-0.0774125,0.0162762
-119,624,-0.0964355,-0.00796509,-0.000408242,-0.000718498,0.000627697,8.32119e-05,-0.00120995,0.664256,0.000835754,0.0138201,1105,400,-0.0964343,0.00795083
-112,624,-0.0952148,-0.0244751,-0.000378111,-0.000552302,0.000624466,0.000165304,-0.00109572,0.716109,0.000791355,0.0156517,1112,400,-0.0951696,0.0244684
-105,624,-0.0786133,-0.03125,-0.000272011,-0.000422821,0.000336439,-2.63075e-06,-0.000692202,0.675157,0.000460593,0.0117382,1119,400,-0.0786459,0.0312649
-98,624,-0.0765381,-0.0316772,-0.000218892,-0.000293702,0.000113091,-0.00013718,-0.000375413,0.625686,0.000219347,0.0126077,1126,400,-0.0765826,0.0316645
-91,624,-0.101929,-0.0377197,-0.000134282,-0.000204358,-7.14295e-06,-0.000133561,-0.000205078,-0.100553,0.000120195,0.0177222,1133,400,-0.101986,0.0377218
-84,624,-0.0839844,-0.0444336,3.02971e-05,-0.000172969,-8.15711e-05,5.89834e-05,-0.000201655,-0.338163,0.000157816,0.0158391,1140,400,-0.083968,0.0444472
-77,624,-0.0836182,-0.0639343,0.000223139,-0.000129882,-0.000204576,0.000316827,-0.000223571,-0.429456,0.000313543,0.0108867,1147,400,-0.0835802,0.0639307
-70,624,-0.088623,-0.0514526,0.000387686,-0.000284417,-0.000210995,0.000448434,-0.000345164,-0.280328,0.000459475,0.0104352,1154,400,-0.0886138,0.0514556
-63,624,-0.0635986,-0.0388184,0.000226515,-0.00060094,-0.000187227,0.000266907,-0.000641332,-0.212481,0.000539021,0.00902088,1161,400,-0.0636367,0.0388042
-56,624,-0.050293,-0.0514526,-6.8107e-06,-0.000992879,-8.08653e-06,-6.74435e-06,-0.000992946,-0.00820004,0.000659727,0.00798944,1168,400,-0.050235,0.051466
-49,624,-0.0595703,-0.0487976,-0.000141465,-0.00147067,0.000221472,-0.000105535,-0.0015066,0.160833,0.000971133,0.00896723,1175,400,-0.0596142,0.0488087
-42,624,-0.0673828,-0.040802,-8.47833e-05,-0.00228653,0.000348127,-3.10508e-05,-0.00234026,0.153139,0.00154993,0.00927859,1182,400,-0.0673889,0.0408067
-35,624,-0.0725098,-0.0325928,0.000136237,-0.00328778,0.000414076,0.000185601,-0.00333714,0.118654,0.00228914,0.0134393,1189,400,-0.0724737,0.0325872
-28,624,-0.0952148,-0.0340271,0.00041616,-0.00438819,0.000315921,0.000436845,-0.00440887,0.065382,0.00309515,0.0182216,1196,400,-0.0951552,0.0340248
-21,624,-0.0936279,-0.0377197,0.000817252,-0.00517371,0.000245413,0.000827288,-0.00518375,0.0408726,0.00376204,0.0136298,1203,400,-0.0936585,0.0377322
-14,624,-0.0932617,-0.045166,0.00117873,-0.00592803,0.000153445,0.00118204,-0.00593134,0.021578,0.00440147,0.0142221,1210,400,-0.0932707,0.0451561
-7,624,-0.0935059,-0.0377502,0.00173411,-0.00636215,0.000289907,0.00174448,-0.00637252,0.0357465,0.00493373,0.0178675,1217,400,-0.0934995,0.0377433
0,624,-0.060791,-0.0210266,0.00245929,-0.00651322,0.000435207,0.00248035,-0.00653428,0.0483532,0.00537716,0.0174378,1224,400,-0.0607918,0.0210245
7,624,-0.0755615,-0.0317078,0.00307839,-0.00627827,0.00045004,0.00309999,-0.00629987,0.0479508,0.00553083,0.0124016,1231,400,-0.0755463,0.0316969
14,624,-0.0716553,-0.0637512,0.0037238,-0.00566235,0.000414,0.00374202,-0.00568057,0.0439937,0.00547838,0.0102002,1238,400,-0.071626,0.0637387
21,624,-0.0697021,-0.0357361,0.00446326,-0.00461004,0.000299622,0.00447315,-0.00461992,0.0329744,0.00525011,0.0106943,1245,400,-0.0696713,0.0357464
28,624,-0.0891113,-0.019165,0.00491271,-0.00319866,0.00015936,0.00491584,-0.00320179,0.0196364,0.00472141,0.00994885,1252,400,-0.0890846,0.0191599
35,624,-0.0797119,-0.0302734,0.00513226,-0.00136933,-0.000138846,0.00513522,-0.00137229,-0.0213427,0.00396096,0.0137742,1259,400,-0.0796783,0.0302626
42,624,-0.0673828,-0.0379639,0.00549525,0.00139308,-0.000529068,0.00556239,0.00132595,-0.126222,0.00335479,0.0157719,1266,400,-0.0674067,0.0379596
49,624,-0.0841064,-0.0219116,0.00595475,0.00467805,-0.000639646,0.00622008,0.00441272,-0.393206,0.00369468,0.0174667,1273,400,-0.0841265,0.0219159
56,624,-0.106812,-0.0272217,0.00615666,0.00730645,-0.00086253,0.00776812,0.00569499,-1.07935,0.00464458,0.0176473,1280,400,-0.106769,0.0272318
63,624,-0.0974121,-0.0350952,0.0058847,0.00985504,-0.00121772,0.0101988,0.00554098,-1.29569,0.00589561,0.0131284,1287,400,-0.097406,0.0351097
70,624,-0.0941162,-0.0447388,0.00559661,0.0119286,-0.00147627,0.0122559,0.00526934,-1.35264,0.00709904,0.0116594,1294,400,-0.0941272,0.0447432
77,624,-0.0955811,-0.0290833,0.00537307,0.0136707,-0.00177534,0.0140346,0.00500918,-1.36863,0.0082127,0.0121203,1301,400,-0.0955687,0.0290957
84,624,-0.0806885,-0.0465393,0.00506993,0.0143027,-0.00200898,0.0147209,0.00465173,-1.36556,0.00868882,0.0114328,1308,400,-0.0806803,0.0465274
91,624,-0.0864258,-0.0583191,0.00466488,0.0139821,-0.00204367,0.0144107,0.00423632,-1.36409,0.0085522,0.0123495,1315,400,-0.0864393,0.0583068
98,624,-0.0925293,-0.0582275,0.00399521,0.0132493,-0.00226876,0.0137756,0.00346893,-1.34286,0.00827349,0.0121616,1322,400,-0.0925428,0.0582259
105,624,-0.0953369,-0.0444336,0.00327087,0.0120523,-0.00219695,0.0125713,0.0027519,-1.33883,0.0076308,0.0129186,1329,400,-0.095381,0.0444285
112,624,-0.0924072,-0.0397339,0.00264935,0.0102945,-0.00195414,0.0107651,0.00217882,-1.33451,0.00657195,0.0129615,1336,400,-0.0924042,0.0397396
119,624,-0.0928955,-0.0455322,0.00195715,0.00825788,-0.00167809,0.00867693,0.00153809,-1.32608,0.00534619,0.0142539,1343,400,-0.0928671,0.0455281
126,624,-0.0970459,-0.00741577,0.00124728,0.00615316,-0.00139777,0.00652346,0.000876977,-1.31182,0.00408813,0.0178462,1350,400,-0.097102,0.00741005
133,624,-0.0812988,0.0144348,0.000854935,0.00419738,-0.00113056,0.00454387,0.000508446,-1.27341,0.00287479,0.0175923,1357,400,-0.0812493,-0.0144449
140,624,-0.0720215,-0.0202637,0.000606367,0.00248025,-0.000805317,0.00277878,0.000307835,-1.2158,0.00175891,0.0169606,1364,400,-0.0720567,0.0202703
147,624,-0.104004,-0.0123901,0.000450136,0.000654195,-0.000488244,0.00105096,5.33747e-05,-0.888402,0.000683541,0.0206731,1371,400,-0.103982,0.0123915
154,624,-0.0948486,0.00488281,0.000149512,-0.000614361,-0.00059608,0.000475521,-0.00094037,-0.500477,0.000832021,0.021804,1378,400,-0.0948751,-0.00489062
161,624,-0.0628662,-0.00143433,0.000123492,-0.00043648,-0.00037461,0.000311186,-0.000624174,-0.464479,0.000550016,0.0209965,1385,400,-0.0628744,0.0014243
168,624,-0.0592041,-0.0115051,0.000381851,-0.000242491,9.4136e-05,0.000395736,-0.000256376,0.14644,0.000379352,0.0218986,1392,400,-0.0591822,0.0115114
175,624,-0.0703125,-0.055542,0.000588068,0.000133446,0.00040183,0.000822425,-0.000100911,0.527994,0.00058483,0.0170813,1399,400,-0.0703124,0.0555538
182,624,-0.067749,-0.0606995,0.000700316,0.000231533,0.000831258,0.0013296,-0.000397748,0.64798,0.00104454,0.0101027,1406,400,-0.0677621,0.0606874
189,624,-0.0629883,-0.0370789,0.000777366,0.000445377,0.0010122,0.00163709,-0.000414348,0.704125,0.00125257,0.00964843,1413,400,-0.0629765,0.0370853
196,624,-0.0771484,-0.041748,0.000825734,0.000811424,0.00109522,0.00191383,-0.000276668,0.782132,0.0013774,0.0102121,1420,400,-0.0771551,0.0417448
203,624,-0.0769043,-0.0493164,0.000763149,0.000668503,0.00124555,0.00196228,-0.000530627,0.766411,0.00151633,0.0127148,1427,400,-0.0769621,0.049322
210,624,-0.0661621,-0.0418396,0.000636571,0.000470429,0.00128063,0.00183682,-0.000729824,0.75301,0.00152711,0.0150336,1434,400,-0.0661048,0.0418473
217,624,-0.0737305,-0.0533447,0.000550349,0.000350617,0.00129431,0.00174864,-0.000847671,0.746896,0.00152877,0.0172319,1441,400,-0.0736818,0.0533317
224,624,-0.0792236,-0.0612793,0.000521171,0.000305374,0.00128391,0.00170171,-0.000875168,0.743477,0.00151306,0.0144534,1448,400,-0.0792323,0.0612746
231,624,-0.0895996,-0.0239258,0.000536485,0.000292476,0.00124496,0.0016654,-0.000836442,0.736555,0.00147063,0.0118261,1455,400,-0.0896141,0.0239213
238,624,-0.102539,-0.00790405,0.000561952,0.000334811,0.0011771,0.00163095,-0.000734188,0.737306,0.00139785,0.0168313,1462,400,-0.102501,0.00791773
245,624,-0.104736,-0.0268555,0.000669321,0.000521991,0.00108512,0.00168328,-0.000491963,0.751507,0.00131716,0.0162425,1469,400,-0.104704,0.0268538
252,624,-0.0925293,-0.0438232,0.000726395,0.00078384,0.00103996,0.00179548,-0.000285244,0.799204,0.00130252,0.01141,1476,400,-0.0924872,0.0438157
259,624,-0.0855713,-0.0549622,0.000755991,0.000867166,0.000903368,0.00171665,-9.34984e-05,0.816126,0.00117684,0.00844202,1483,400,-0.0855524,0.0549485
266,624,-0.0656738,-0.032135,0.000757969,0.00101796,0.00073804,0.00163736,0.000138562,0.872572,0.00104845,0.0125317,1490,400,-0.0656826,0.0321236
273,624,-0.0544434,-0.0252075,0.000772035,0.00139235,0.000620711,0.00177608,0.000388304,1.01709,0.00107818,0.0152304,1497,400,-0.0543853,0.0252041
280,624,-0.0620117,-0.0548401,0.000690621,0.00171351,0.000470458,0.00189698,0.000507152,1.19896,0.00113406,0.0131985,1504,400,-0.0620619,0.0548525
287,624,-0.0668945,-0.0547485,0.000773252,0.00175061,0.000323948,0.00184823,0.000675629,1.2781,0.00107986,0.00969626,1511,400,-0.066853,0.0547494
294,624,-0.0693359,-0.0308228,0.00110158,0.00165436,0.000389292,0.0018554,0.000900539,1.0941,0.00107137,0.0083573,1518,400,-0.0693533,0.0308157
301,624,-0.076416,-0.0275269,0.00113847,0.00179938,0.000384803,0.00197615,0.000961703,1.14018,0.00114106,0.00991201,1525,400,-0.0764227,0.0275209
308,624,-0.0844727,-0.0332642,0.00130512,0.00112037,0.000113184,0.00135884,0.00106665,0.44315,0.000825908,0.0125961,1532,400,-0.0844491,0.0332708
315,624,-0.0836182,-0.02948,0.00199678,0.000170923,2.05222e-05,0.00199701,0.000170692,0.0112379,0.00127825,0.0140931,1539,400,-0.0836467,0.0294785
322,624,-0.0599365,-0.0567932,0.00271045,-0.00131426,0.000133153,0.00271485,-0.00131866,0.0330358,0.00237479,0.0207959,1546,400,-0.059935,0.0568079
329,624,-0.0489502,-0.0993042,0.00319189,-0.00297086,0.000404342,0.0032183,-0.00299728,0.0652379,0.00358932,0.0311009,1553,400,-0.0489069,0.0992915
336,624,0.0786133,0.0257263,0.00323115,-0.00502712,0.00159673,0.00352913,-0.00532509,0.184493,0.00514692,0.0335992,1560,400,0.0785567,-0.0257236
343,624,0.0269775,-0.00476074,0,0,0,0,0,0,0,-1,1567,400,0.027018,0.00477159
350,624,0.103516,0.0159302,0.003461,-0.00737773,0.00380065,0.00466088,-0.00857762,0.305802,0.00775396,0.0421953,1574,400,0.103544,-0.0159439
357,624,-0.261719,-0.229004,0.0035704,-0.00799568,0.00480946,0.00530896,-0.00973424,0.346872,0.00880957,0.0412094,1581,400,-0.261754,0.22901
364,624,-0.00366211,-0.543488,0.00358199,-0.00837367,0.0064669,0.00641071,-0.0112024,0.412339,0.0102936,0.0430298,1588,400,-0.00369116,0.543484
371,624,0.259033,-0.497253,0.00349594,-0.00834149,0.00796515,0.00750067,-0.0123462,0.46587,0.0115719,0.0456511,1595,400,0.259082,0.497267
378,624,0.344116,-0.431488,0.00264279,-0.00748243,0.0091457,0.0080336,-0.0128732,0.532615,0.0121779,0.0449565,1602,400,0.344079,0.43148
385,624,0.152222,-0.450073,0.000992633,-0.00622986,0.0100876,0.00809588,-0.0133331,0.613511,0.0124946,0.0429429,1609,400,0.15219,0.450078
392,624,-0.617188,0.952271,-0.000382969,-0.00348069,0.0101464,0.00833214,-0.0121958,0.709657,0.0119216,0.0427862,1616,400,-0.617181,-0.952283
399,624,-0.386475,0.534332,-0.00229419,-0.000621509,0.00941766,0.00799688,-0.0109126,0.829685,0.0109606,0.0446441,1623,400,-0.386532,-0.534347
406,624,-0.248779,0.323883,-0.0035274,0.00149405,0.00855421,0.00789839,-0.00993174,0.928143,0.0103165,0.0413964,1630,400,-0.248742,-0.323871
413,624,0,0,0,0,0,0,0,0,0,-1,1637,400,0,0
420,624,0,0,0,0,0,0,0,0,0,-1,1644,400,0,0
427,624,0,0,0,0,0,0,0,0,0,-1,1651,400,0,0
434,624,0,0,0,0,0,0,0,0,0,-1,1658,400,0,0
441,624,0,0,0,0,0,0,0,0,0,-1,1665,400,0,0
448,624,0,0,0,0,0,0,0,0,0,-1,1672,400,0,0
455,624,0,0,0,0,0,0,0,0,0,-1,1679,400,0,0
462,624,0,0,0,0,0,0,0,0,0,-1,1686,400,0,0
469,624,0,0,0,0,0,0,0,0,0,-1,1693,400,0,0
476,624,0,0,0,0,0,0,0,0,0,-1,1700,400,0,0
483,624,0,0,0,0,0,0,0,0,0,-1,1707,400,0,0
490,624,0,0,0,0,0,0,0,0,0,-1,1714,400,0,0
497,624,0,0,0,0,0,0,0,0,0,-1,1721,400,0,0
504,624,0,0,0,0,0,0,0,0,0,-1,1728,400,0,0
511,624,0,0,0,0,0,0,0,0,0,-1,1735,400,0,0
518,624,0,0,0,0,0,0,0,0,0,-1,1742,400,0,0
525,624,0,0,0,0,0,0,0,0,0,-1,1749,400,0,0
532,624,0,0,0,0,0,0,0,0,0,-1,1756,400,0,0
539,624,0,0,0,0,0,0,0,0,0,-1,1763,400,0,0
546,624,0,0,0,0,0,0,0,0,0,-1,1770,400,0,0
553,624,0,0,0,0,0,0,0,0,0,-1,1777,400,0,0
560,624,0,0,0,0,0,0,0,0,0,-1,1784,400,0,0
567,624,0,0,0,0,0,0,0,0,0,-1,1791,400,0,0
574,624,0,0,0,0,0,0,0,0,0,-1,1798,400,0,0
581,624,0,0,0,0,0,0,0,0,0,-1,1805,400,0,0
588,624,0,0,0,0,0,0,0,0,0,-1,1812,400,0,0
595,624,0,0,0,0,0,0,0,0,0,-1,1819,400,0,0
602,624,0,0,0,0,0,0,0,0,0,-1,1826,400,0,0
609,624,0,0,0,0,0,0,0,0,0,-1,1833,400,0,0
616,624,0,0,0,0,0,0,0,0,0,-1,1840,400,0,0
623,624,0,0,0,0,0,0,0,0,0,-1,1847,400,0,0
630,624,0,0,0,0,0,0,0,0,0,-1,1854,400,0,0
637,624,0,0,0,0,0,0,0,0,0,-1,1861,400,0,0
644,624,0,0,0,0,0,0,0,0,0,-1,1868,400,0,0
651,624,0,0,0,0,0,0,0,0,0,-1,1875,400,0,0
658,624,0,0,0,0,0,0,0,0,0,-1,1882,400,0,0
665,624,0,0,0,0,0,0,0,0,0,-1,1889,400,0,0
672,624,0,0,0,0,0,0,0,0,0,-1,1896,400,0,0
679,624,0,0,0,0,0,0,0,0,0,-1,1903,400,0,0
686,624,0,0,0,0,0,0,0,0,0,-1,1910,400,0,0
693,624,0,0,0,0,0,0,0,0,0,-1,1917,400,0,0
700,624,0,0,0,0,0,0,0,0,0,-1,1924,400,0,0
707,624,0,0,0,0,0,0,0,0,0,-1,1931,400,0,0
714,624,0,0,0,0,0,0,0,0,0,-1,1938,400,0,0
721,624,0,0,0,0,0,0,0,0,0,-1,1945,400,0,0
728,624,0,0,0,0,0,0,0,0,0,-1,1952,400,0,0
735,624,0,0,0,0,0,0,0,0,0,-1,1959,400,0,0
742,624,0,0,0,0,0,0,0,0,0,-1,1966,400,0,0
749,624,0,0,0,0,0,0,0,0,0,-1,1973,400,0,0
756,624,0,0,0,0,0,0,0,0,0,-1,1980,400,0,0
763,624,0,0,0,0,0,0,0,0,0,-1,1987,400,0,0
770,624,0,0,0,0,0,0,0,0,0,-1,1994,400,0,0
777,624,0,0,0,0,0,0,0,0,0,-1,2001,400,0,0
784,624,0,0,0,0,0,0,0,0,0,-1,2008,400,0,0
791,624,0,0,0,0,0,0,0,0,0,-1,2015,400,0,0
798,624,0,0,0,0,0,0,0,0,0,-1,2022,400,0,0
805,624,0,0,0,0,0,0,0,0,0,-1,2029,400,0,0
812,624,0,0,0,0,0,0,0,0,0,-1,2036,400,0,0
-700,617,0,0,0,0,0,0,0,0,0,-1,524,407,0,0
-693,617,0,0,0,0,0,0,0,0,0,-1,531,407,0,0
-686,617,0,0,0,0,0,0,0,0,0,-1,538,407,0,0
-679,617,0,0,0,0,0,0,0,0,0,-1,545,407,0,0
-672,617,0,0,0,0,0,0,0,0,0,-1,552,407,0,0
-665,617,0,0,0,0,0,0,0,0,0,-1,559,407,0,0
-658,617,0,0,0,0,0,0,0,0,0,-1,566,407,0,0
-651,617,0,0,0,0,0,0,0,0,0,-1,573,407,0,0
-644,617,0,0,0,0,0,0,0,0,0,-1,580,407,0,0
-637,617,0,0,0,0,0,0,0,0,0,-1,587,407,0,0
-630,617,0,0,0,0,0,0,0,0,0,-1,594,407,0,0
-623,617,0,0,0,0,0,0,0,0,0,-1,601,407,0,0
-616,617,0,0,0,0,0,0,0,0,0,-1,608,407,0,0
-609,617,0,0,0,0,0,0,0,0,0,-1,615,407,0,0
-602,617,0,0,0,0,0,0,0,0,0,-1,622,407,0,0
-595,617,0,0,0,0,0,0,0,0,0,-1,629,407,0,0
-588,617,0,0,0,0,0,0,0,0,0,-1,636,407,0,0
-581,617,0,0,0,0,0,0,0,0,0,-1,643,407,0,0
-574,617,0,0,0,0,0,0,0,0,0,-1,650,407,0,0
-567,617,0,0,0,0,0,0,0,0,0,-1,657,407,0,0
-560,617,0,0,0,0,0,0,0,0,0,-1,664,407,0,0
-553,617,0,0,0,0,0,0,0,0,0,-1,671,407,0,0
-546,617,0,0,0,0,0,0,0,0,0,-1,678,407,0,0
-539,617,0,0,0,0,0,0,0,0,0,-1,685,407,0,0
-532,617,0,0,0,0,0,0,0,0,0,-1,692,407,0,0
-525,617,0,0,0,0,0,0,0,0,0,-1,699,407,0,0
-518,617,0,0,0,0,0,0,0,0,0,-1,706,407,0,0
-511,617,0,0,0,0,0,0,0,0,0,-1,713,407,0,0
-504,617,0,0,0,0,0,0,0,0,0,-1,720,407,0,0
-497,617,0,0,0,0,0,0,0,0,0,-1,727,407,0,0
-490,617,0,0,0,0,0,0,0,0,0,-1,734,407,0,0
-483,617,0,0,0,0,0,0,0,0,0,-1,741,407,0,0
-476,617,0,0,0,0,0,0,0,0,0,-1,748,407,0,0
-469,617,0,0,0,0,0,0,0,0,0,-1,755,407,0,0
-462,617,0,0,0,0,0,0,0,0,0,-1,762,407,0,0
-455,617,0,0,0,0,0,0,0,0,0,-1,769,407,0,0
-448,617,0,0,0,0,0,0,0,0,0,-1,776,407,0,0
-441,617,0,0,0,0,0,0,0,0,0,-1,783,407,0,0
-434,617,0,0,0,0,0,0,0,0,0,-1,790,407,0,0
-427,617,0,0,0,0,0,0,0,0,0,-1,797,407,0,0
-420,617,0,0,0,0,0,0,0,0,0,-1,804,407,0,0
-413,617,0,0,0,0,0,0,0,0,0,-1,811,407,0,0
-406,617,0,0,0,0,0,0,0,0,0,-1,818,407,0,0
-399,617,0,0,0,0,0,0,0,0,0,-1,825,407,0,0
-392,617,0,0,0,0,0,0,0,0,0,-1,832,407,0,0
-385,617,0,0,0,0,0,0,0,0,0,-1,839,407,0,0
-378,617,0,0,0,0,0,0,0,0,0,-1,846,407,0,0
-371,617,0,0,0,0,0,0,0,0,0,-1,853,407,0,0
-364,617,0,0,0,0,0,0,0,0,0,-1,860,407,0,0
-357,617,0,0,0,0,0,0,0,0,0,-1,867,407,0,0
-350,617,0,0,0,0,0,0,0,0,0,-1,874,407,0,0
-343,617,0,0,0,0,0,0,0,0,0,-1,881,407,0,0
-336,617,0,0,0,0,0,0,0,0,0,-1,888,407,0,0
-329,617,0,0,0,0,0,0,0,0,0,-1,895,407,0,0
-322,617,0,0,0,0,0,0,0,0,0,-1,902,407,0,0
-315,617,0,0,0,0,0,0,0,0,0,-1,909,407,0,0
-308,617,0,0,0,0,0,0,0,0,0,-1,916,407,0,0
-301,617,-1.85565,0.790527,0.0543696,0.0365263,0.0364846,0.0830075,0.00788837,0.665485,0.0529053,0.045461,923,407,-1.85568,-0.790518
-294,617,-1.52466,1.13736,0,0,0,0,0,0,0,-1,930,407,-1.52467,-1.13735
-287,617,-1.34827,1.37689,0.0557769,0.0281941,0.0167603,0.0636906,0.0202804,0.441136,0.0375713,0.0411924,937,407,-1.34824,-1.37689
-280,617,-1.35492,1.27328,0.0526183,0.0256133,0.00958965,0.0556771,0.0225544,0.308774,0.0323377,0.0416326,944,407,-1.35492,-1.27329
-273,617,-0.976624,1.00424,0.0465501,0.024127,0.00395485,0.0472272,0.0234499,0.16956,0.0272669,0.0430123,951,407,-0.976626,-1.00425
-266,617,-0.259827,0.860687,0.0399514,0.0214197,0.000809473,0.0399867,0.0213844,0.0435699,0.0231049,0.0440875,958,407,-0.259835,-0.860696
-259,617,0.532532,0.720154,0.0339924,0.0190202,-0.0016261,0.0341669,0.0188457,-0.106947,0.0197612,0.0444619,965,407,0.532543,-0.720162
-252,617,0.232056,0.0446777,0,0,0,0,0,0,0,-1,972,407,0.232063,-0.0446829
-245,617,0.0582275,0.102386,0.0218251,0.0130778,-0.00253855,0.0225084,0.0123945,-0.262949,0.0130175,0.0484104,979,407,0.0582228,-0.102385
-238,617,-0.0371704,0.173187,0.015816,0.0115594,-0.00229296,0.0168162,0.0105592,-0.411311,0.00981416,0.0459561,986,407,-0.0371773,-0.173189
-231,617,-0.195984,0.53183,0.0106199,0.0103036,-0.0018947,0.012363,0.00856045,-0.74375,0.00731187,0.0409501,993,407,-0.195968,-0.531823
-224,617,0.06604,0.435059,0.00685,0.00915064,-0.00207211,0.0103703,0.00563033,-1.03879,0.00599465,0.0409163,1000,407,0.0660524,-0.435072
-217,617,0.0959473,0.206299,0.00371554,0.00824064,-0.00248719,0.00934041,0.00261576,-1.15447,0.0055639,0.0355508,1007,407,0.0959248,-0.206303
-210,617,-0.0650635,-0.0828247,0.000978075,0.00729682,-0.00282521,0.00837578,-0.000100886,-1.20599,0.00561779,0.0219125,1014,407,-0.065047,0.0828296
-203,617,-0.0783691,-0.0479431,-0.000801059,0.00623277,-0.00311643,0.00741488,-0.00198317,-1.20825,0.00572007,0.0166643,1021,407,-0.0783989,0.0479538
-196,617,-0.0874023,-0.035614,-0.000823463,0.0056598,-0.00297801,0.00682007,-0.00198373,-1.19928,0.00533241,0.0134096,1028,407,-0.0873989,0.0356017
-189,617,-0.100708,-0.0549011,-0.000758103,0.00513899,-0.00289683,0.00632391,-0.00194302,-1.18252,0.00499131,0.0121696,1035,407,-0.100747,0.054894
-182,617,-0.107666,-0.051178,-0.000723123,0.00443701,-0.00263909,0.00554768,-0.00183379,-1.17244,0.00443786,0.0133637,1042,407,-0.107689,0.0511677
-175,617,-0.0821533,-0.0367432,-0.000939831,0.00340038,-0.00226268,0.00436541,-0.00190486,-1.16766,0.00371189,0.0105317,1049,407,-0.0822001,0.0367547
-168,617,-0.0736084,-0.0416565,-0.00117857,0.00243191,-0.00161205,0.00304692,-0.00179358,-1.20633,0.00282572,0.00857557,1056,407,-0.0736414,0.0416427
-161,617,-0.0742188,-0.0562744,-0.00117277,0.00172609,-0.0010634,0.00207434,-0.00152102,-1.25431,0.00208396,0.00960736,1063,407,-0.0742161,0.0562739
-154,617,-0.0789795,-0.0545959,-0.00114668,0.00101703,-0.000626483,0.00118533,-0.00131498,-1.30835,0.0014442,0.0100012,1070,407,-0.0790385,0.0545859
-147,617,-0.0825195,-0.0387573,-0.00118352,0.000553891,-0.000267661,0.000594191,-0.00122382,-1.42135,0.0010704,0.0137021,1077,407,-0.0824729,0.0387651
-140,617,-0.0900879,-0.0386658,-0.000948196,0.000244528,-0.000133019,0.000259183,-0.000962851,-1.46107,0.000743509,0.0104324,1084,407,-0.0900715,0.03867
-133,617,-0.0891113,-0.0526123,-0.000521081,-0.000226563,-5.13059e-05,-0.000217881,-0.000529762,-1.40317,0.000307459,0.0124141,1091,407,-0.0890613,0.0526226
-126,617,-0.0841064,-0.0361938,-0.000353156,-0.000598079,0.000127424,-0.000298887,-0.000652348,0.402628,0.000377072,0.0122541,1098,407,-0.0841358,0.0361789
-119,617,-0.105713,-0.0316772,-0.00034896,-0.000732759,0.000222797,-0.000246812,-0.000834907,0.429884,0.000495276,0.0119146,1105,407,-0.1057,0.0316702
-112,617,-0.0991211,-0.045166,-0.000290155,-0.000684778,0.000201788,-0.000205243,-0.000769691,0.398307,0.000460229,0.014062,1112,407,-0.0991291,0.0451617
-105,617,-0.103516,-0.0581665,-0.00020598,-0.000687777,-1.50329e-05,-0.000205512,-0.000688246,-0.0311614,0.000407962,0.0141876,1119,407,-0.103577,0.0581595
-98,617,-0.0855713,-0.0478516,-0.000190255,-0.000674542,-0.000180569,-0.000130341,-0.000734456,-0.320375,0.000452492,0.0117218,1126,407,-0.0855105,0.0478448
-91,617,-0.118164,-0.0529785,-0.000143308,-0.000676753,-0.000272889,-2.8443e-05,-0.000791619,-0.398413,0.000518525,0.0162725,1133,407,-0.118136,0.0529659
-84,617,-0.0883789,-0.0515442,-1.89422e-06,-0.000698554,-0.00030862,0.000115158,-0.000815606,-0.362513,0.000585908,0.0157467,1140,407,-0.0883907,0.0515454
-77,617,-0.0571289,-0.0697021,0.000156387,-0.000724568,-0.000354381,0.000281247,-0.000849428,-0.338751,0.000679715,0.0123385,1147,407,-0.0571022,0.0697018
-70,617,-0.0714111,-0.0619812,0.000301855,-0.00101532,-0.000224773,0.000339156,-0.00105262,-0.16445,0.000837995,0.0116263,1154,407,-0.0714579,0.0619707
-63,617,-0.069458,-0.057312,-8.82995e-05,-0.00136542,-0.000177661,-6.40455e-05,-0.00138967,-0.13568,0.000905853,0.0105067,1161,407,-0.0694794,0.0573169
-56,617,-0.0489502,-0.0456848,-0.000482592,-0.00172079,2.44007e-05,-0.000482111,-0.00172127,0.0196965,0.00102531,0.00831458,1168,407,-0.0490089,0.0456809
-49,617,-0.0552979,-0.0433655,-0.000617787,-0.00227703,0.000319576,-0.000558364,-0.00233646,0.183844,0.00140889,0.00842834,1175,407,-0.0552705,0.0433577
-42,617,-0.0620117,-0.0612183,-0.000477497,-0.00330026,0.000504993,-0.000389874,-0.00338788,0.171804,0.0021405,0.0107998,1182,407,-0.0620513,0.0612065
-35,617,-0.0771484,-0.0558167,-0.000146526,-0.00453261,0.000588915,-6.88292e-05,-0.00461031,0.131174,0.00305086,0.0153516,1189,407,-0.0771626,0.0558072
-28,617,-0.0866699,-0.0422058,0.000314363,-0.00592506,0.000429029,0.000343726,-0.00595442,0.0683323,0.00408901,0.0173981,1196,407,-0.0866184,0.0422166
-21,617,-0.0620117,-0.0182495,0.00101239,-0.00691801,0.000377605,0.00103032,-0.00693595,0.0474718,0.0050029,0.0128273,1203,407,-0.0620413,0.0182527
-14,617,-0.0836182,-0.00634766,0.00162938,-0.00782568,0.000340808,0.00164165,-0.00783794,0.0359829,0.00584981,0.0145893,1210,407,-0.0835999,0.00634079
-7,617,-0.124268,-0.020874,0.00254045,-0.00835322,0.000571831,0.00257039,-0.00838315,0.0523005,0.0066142,0.0176011,1217,407,-0.124297,0.0208755
0,617,-0.0917969,-0.0124512,0.00360336,-0.00836077,0.000470545,0.00362183,-0.00837925,0.0392488,0.00710798,0.0144975,1224,407,-0.0918479,0.0124479
7,617,-0.0718994,-0.0377502,0.00454621,-0.00790558,0.000267623,0.00455196,-0.00791133,0.0214795,0.00728229,0.00989943,1231,407,-0.0719282,0.0377653
14,617,-0.0831299,-0.0465393,0.0054799,-0.0068882,1.89466e-05,0.00547993,-0.00688823,0.00153189,0.00715617,0.0114197,1238,407,-0.0830821,0.0465469
21,617,-0.0906982,-0.0300598,0.00640684,-0.00531836,-0.000362031,0.00641801,-0.00532953,-0.0308371,0.00679214,0.0103011,1245,407,-0.0907168,0.0300636
28,617,-0.0897217,-0.0271606,0.0069611,-0.00335856,-0.000766532,0.00701772,-0.00341519,-0.0737394,0.00614198,0.00916173,1252,407,-0.0897644,0.0271485
35,617,-0.0800781,-0.0411682,0.00718267,-0.000767451,-0.00136425,0.00741027,-0.000995044,-0.165304,0.00530307,0.0118094,1259,407,-0.080096,0.0411707
42,617,-0.0678711,-0.0376587,0.00768454,0.0029983,-0.00201861,0.00843416,0.00224868,-0.355568,0.00504318,0.0177541,1266,407,-0.0678291,0.037664
49,617,-0.0805664,-0.0335083,0.00824603,0.00740094,-0.00215581,0.0100203,0.00562665,-0.688623,0.00579981,0.0181414,1273,407,-0.0805937,0.0335053
56,617,-0.113403,-0.0307922,0.00833199,0.0110138,-0.00240588,0.0124272,0.00691856,-1.03963,0.00719022,0.0131674,1280,407,-0.113374,0.0307782
63,617,-0.0922852,-0.051239,0.00782515,0.0145602,-0.00265868,0.0154832,0.00690212,-1.23664,0.00895672,0.0093281,1287,407,-0.0923119,0.051232
70,617,-0.0828857,-0.053772,0.00742773,0.01751,-0.00270888,0.0181917,0.006746,-1.32425,0.0106192,0.0136597,1294,407,-0.0828263,0.0537749
77,617,-0.0766602,-0.0411377,0.00703613,0.0200511,-0.00249573,0.0205132,0.00657397,-1.38769,0.0120951,0.0125971,1301,407,-0.0766853,0.0411356
84,617,-0.0933838,-0.0442505,0.00654561,0.0207702,-0.00220989,0.0211056,0.0062102,-1.42017,0.0125245,0.0102353,1308,407,-0.0934126,0.0442649
91,617,-0.0895996,-0.060791,0.00598864,0.0202371,-0.00179183,0.020459,0.00576676,-1.4476,0.0121809,0.00978225,1315,407,-0.0895464,0.060795
98,617,-0.0817871,-0.0549316,0.00509759,0.0191741,-0.00167327,0.0193703,0.00490142,-1.45409,0.0116293,0.0108663,1322,407,-0.0818068,0.0549354
105,617,-0.0788574,-0.0469666,0.00415421,0.0174152,-0.00107017,0.017501,0.0040684,-1.49079,0.0105754,0.0123181,1329,407,-0.0788324,0.0469781
112,617,-0.0797119,-0.0543213,0.00323708,0.0149878,-0.000598619,0.0150182,0.00320667,-1.52003,0.00913289,0.0150677,1336,407,-0.079748,0.0543217
119,617,-0.0697021,-0.0296326,0.00223281,0.0121071,-0.000258105,0.0121138,0.00222606,-1.54468,0.0074456,0.0187968,1343,407,-0.0696705,0.029645
126,617,-0.0690918,-0.0181885,0.00125323,0.00907736,-3.69403e-05,0.00907753,0.00125306,-1.56608,0.00568026,0.020961,1350,407,-0.0691486,0.018198
133,617,-0.090332,-0.0192261,0.000643023,0.00625076,3.03813e-05,0.00625093,0.000642858,1.56538,0.00397038,0.0176767,1357,407,-0.0903696,0.0192195
140,617,-0.0766602,-0.0463867,0.000235956,0.00379871,0.000103483,0.00380172,0.000232953,1.54178,0.00246051,0.0144994,1364,407,-0.0766199,0.0463763
147,617,-0.100342,-0.0433044,-1.28974e-05,0.00128325,0.000160549,0.00130284,-3.2488e-05,1.44937,0.000879591,0.0163121,1371,407,-0.1004,0.043312
154,617,-0.09021,-0.033844,-0.000474632,-0.000394676,-0.000381193,-5.13696e-05,-0.000817938,-0.837645,0.000529001,0.0189511,1378,407,-0.0901621,0.0338589
161,617,-0.103149,-0.0134277,-0.00047708,-0.000111853,-0.000337207,8.90126e-05,-0.000677946,-1.03356,0.000484369,0.0204686,1385,407,-0.10313,0.0134302
168,617,-0.0799561,-0.036377,-5.67631e-05,0.000180046,7.78348e-05,0.000203338,-8.0055e-05,1.28003,0.000168699,0.0203277,1392,407,-0.0799421,0.0363699
175,617,-0.0605469,-0.097168,0.000198233,0.000836515,0.000365942,0.00100293,3.1818e-05,1.14399,0.00065827,0.0169723,1399,407,-0.0605885,0.097183
182,617,-0.0577393,-0.0728149,0.000369401,0.00101242,0.000654922,0.0014205,-3.86719e-05,1.01357,0.000960147,0.0105358,1406,407,-0.0577644,0.072806
189,617,-0.074585,-0.0431213,0.000495801,0.00170069,0.000824304,0.00211924,7.72574e-05,1.10097,0.00138779,0.0099978,1413,407,-0.0745872,0.0431125
196,617,-0.0797119,-0.0412292,0.00059119,0.00225222,0.000996453,0.00271889,0.000124526,1.13281,0.00177254,0.0134926,1420,407,-0.079697,0.0412235
203,617,-0.0693359,-0.035553,0.000575358,0.00199266,0.00126152,0.00273095,-0.000162925,1.04131,0.0018773,0.0137213,1427,407,-0.0693571,0.0355649
210,617,-0.064209,-0.035553,0.000535607,0.00162399,0.00127306,0.00246429,-0.000304698,0.987377,0.00175328,0.0131928,1434,407,-0.0642585,0.0355546
217,617,-0.0574951,-0.049408,0.000530151,0.00136968,0.0012622,0.00228009,-0.000380251,0.945929,0.00166138,0.0168416,1441,407,-0.0574969,0.0494058
224,617,-0.0665283,-0.0546265,0.000540237,0.00119323,0.00117435,0.00208563,-0.00035216,0.920985,0.00152145,0.0164145,1448,407,-0.0664978,0.0546215
231,617,-0.0808105,-0.0241699,0.000618689,0.00104423,0.0010707,0.0019231,-0.000260177,0.883482,0.00137701,0.0136308,1455,407,-0.0808487,0.0241691
238,617,-0.0837402,-0.0125427,0.000734874,0.00097936,0.000955514,0.00182042,-0.000106185,0.84902,0.00125051,0.0150191,1462,407,-0.08368,0.0125349
245,617,-0.0780029,-0.0440063,0.000887174,0.00102954,0.000833436,0.00179483,0.000121889,0.828001,0.00115806,0.0125265,1469,407,-0.0780148,0.0440163
252,617,-0.0739746,-0.0475769,0.000969659,0.00111685,0.000791949,0.00183861,0.000247891,0.831729,0.00115204,0.0131311,1476,407,-0.0739945,0.0475774
259,617,-0.0708008,-0.0507813,0.000989323,0.00111141,0.000711443,0.00176442,0.00033631,0.828194,0.00108175,0.0107257,1483,407,-0.0708599,0.0507708
266,617,-0.0863037,-0.0408936,0.000965854,0.00123674,0.000610538,0.00172668,0.000475914,0.89455,0.00102981,0.0128772,1490,407,-0.0863523,0.0408811
273,617,-0.0661621,-0.0370483,0.00095051,0.00155692,0.000585832,0.00191336,0.00059407,1.0242,0.00113082,0.0135051,1497,407,-0.0661754,0.0370614
280,617,-0.0634766,-0.059021,0.000877584,0.00182858,0.00056816,0.00209396,0.000612202,1.13382,0.00124321,0.0115949,1504,407,-0.0634361,0.059029
287,617,-0.0834961,-0.0507813,0.000932214,0.00183123,0.000549489,0.00209165,0.000671796,1.12822,0.00123309,0.0108024,1511,407,-0.083479,0.0507851
294,617,-0.0906982,-0.0473022,0.00111994,0.00174657,0.000652914,0.00215745,0.00070906,1.0091,0.00126975,0.00879325,1518,407,-0.0907157,0.0473019
301,617,-0.0847168,-0.041748,0.00104559,0.00191361,0.000688796,0.00229373,0.000665472,1.06653,0.00136262,0.00689294,1525,407,-0.0847235,0.0417346
308,617,-0.0782471,-0.0466309,0.00114077,0.00136039,0.000456522,0.00172012,0.000781037,0.903429,0.000994511,0.00735509,1532,407,-0.0782293,0.0466362
315,617,-0.0631104,-0.0469666,0.00169644,0.000559787,0.000368707,0.00180556,0.000450663,0.287752,0.00108514,0.00860922,1539,407,-0.0631004,0.0469642
322,617,-0.052124,-0.045105,0.00229488,-0.000697701,0.000424069,0.00235381,-0.000756634,0.138086,0.00187307,0.0107129,1546,407,-0.0520806,0.0451184
329,617,-0.0701904,-0.0462952,0.00267616,-0.0020725,0.000631499,0.00275871,-0.00215504,0.129976,0.00284408,0.0100304,1553,407,-0.0701686,0.0462966
336,617,-0.0579834,-0.0461426,0.00261672,-0.00374609,0.001585,0.00298968,-0.00411906,0.231106,0.00412146,0.0193664,1560,407,-0.0579262,0.0461482
343,617,-0.0422363,-0.0284729,0.00250172,-0.00455965,0.00266888,0.00339694,-0.00545487,0.323636,0.00515643,0.0302798,1567,407,-0.042182,0.0284629
350,617,-0.0529785,-0.0190735,0.00254886,-0.00554061,0.00313889,0.00362394,-0.00661569,0.329981,0.00599538,0.0362359,1574,407,-0.0529527,0.0190857
357,617,-0.0714111,-0.188904,0.00249243,-0.00595494,0.00380077,0.00395077,-0.00741328,0.366372,0.00666178,0.0368512,1581,407,-0.0714229,0.188913
364,617,0.0438232,-0.31485,0.00235529,-0.00623486,0.00495703,0.00461916,-0.00849873,0.428411,0.00768323,0.0371181,1588,407,0.0438577,0.31486
371,617,0.339966,-0.314178,0.00215962,-0.00615449,0.00594706,0.00525851,-0.00925338,0.480368,0.0084836,0.0421227,1595,407,0.339931,0.314187
378,617,0.539917,-0.374969,0.00128366,-0.0052274,0.00668571,0.00546434,-0.00940808,0.558826,0.00868664,0.0439796,1602,407,0.539914,0.374977
385,617,-0.152588,0.654388,-0.000187014,-0.00400072,0.00715567,0.00531152,-0.00949925,0.655184,0.00866419,0.0420089,1609,407,-0.152604,-0.65439
392,617,-0.34082,0.782684,-0.00120122,-0.00172118,0.0070163,0.00555991,-0.00848232,0.76688,0.0081656,0.0432915,1616,407,-0.340817,-0.782682
399,617,-0.236572,0.359741,-0.00256992,0.000714374,0.00633751,0.00561903,-0.00747458,0.912168,0.00758486,0.0446448,1623,407,-0.23657,-0.359746
406,617,-0.189819,-0.0982666,-0.00332129,0.00271749,0.00552888,0.00599772,-0.00660153,1.03532,0.00727696,0.0443795,1630,407,-0.189879,0.0982544
413,617,-0.271973,-0.409363,-0.00400038,0.0062539,0.00440548,0.00788663,-0.00563311,1.21588,0.00784168,0.0427555,1637,407,-0.271979,0.409356
420,617,-0.193359,-0.438812,-0.00547939,0.0103841,0.00268367,0.0108258,-0.0059211,1.40767,0.00980608,0.0440411,1644,407,-0.193399,0.4388
427,617,0,0,0,0,0,0,0,0,0,-1,1651,407,0,0
434,617,0,0,0,0,0,0,0,0,0,-1,1658,407,0,0
441,617,0,0,0,0,0,0,0,0,0,-1,1665,407,0,0
448,617,0,0,0,0,0,0,0,0,0,-1,1672,407,0,0
455,617,0,0,0,0,0,0,0,0,0,-1,1679,407,0,0
462,617,0,0,0,0,0,0,0,0,0,-1,1686,407,0,0
469,617,0,0,0,0,0,0,0,0,0,-1,1693,407,0,0
476,617,0,0,0,0,0,0,0,0,0,-1,1700,407,0,0
483,617,0,0,0,0,0,0,0,0,0,-1,1707,407,0,0
490,617,0,0,0,0,0,0,0,0,0,-1,1714,407,0,0
497,617,0,0,0,0,0,0,0,0,0,-1,1721,407,0,0
504,617,0,0,0,0,0,0,0,0,0,-1,1728,407,0,0
511,617,0,0,0,0,0,0,0,0,0,-1,1735,407,0,0
518,617,0,0,0,0,0,0,0,0,0,-1,1742,407,0,0
525,617,0,0,0,0,0,0,0,0,0,-1,1749,407,0,0
532,617,0,0,0,0,0,0,0,0,0,-1,1756,407,0,0
539,617,0,0,0,0,0,0,0,0,0,-1,1763,407,0,0
546,617,0,0,0,0,0,0,0,0,0,-1,1770,407,0,0
553,617,0,0,0,0,0,0,0,0,0,-1,1777,407,0,0
560,617,0,0,0,0,0,0,0,0,0,-1,1784,407,0,0
567,617,0,0,0,0,0,0,0,0,0,-1,1791,407,0,0
574,617,0,0,0,0,0,0,0,0,0,-1,1798,407,0,0
581,617,0,0,0,0,0,0,0,0,0,-1,1805,407,0,0
588,617,0,0,0,0,0,0,0,0,0,-1,1812,407,0,0
595,617,0,0,0,0,0,0,0,0,0,-1,1819,407,0,0
602,617,0,0,0,0,0,0,0,0,0,-1,1826,407,0,0
609,617,0,0,0,0,0,0,0,0,0,-1,1833,407,0,0
616,617,0,0,0,0,0,0,0,0,0,-1,1840,407,0,0
623,617,0,0,0,0,0,0,0,0,0,-1,1847,407,0,0
630,617,0,0,0,0,0,0,0,0,0,-1,1854,407,0,0
637,617,0,0,0,0,0,0,0,0,0,-1,1861,407,0,0
644,617,0,0,0,0,0,0,0,0,0,-1,1868,407,0,0
651,617,0,0,0,0,0,0,0,0,0,-1,1875,407,0,0
658,617,0,0,0,0,0,0,0,0,0,-1,1882,407,0,0
665,617,0,0,0,0,0,0,0,0,0,-1,1889,407,0,0
672,617,0,0,0,0,0,0,0,0,0,-1,1896,407,0,0
679,617,0,0,0,0,0,0,0,0,0,-1,1903,407,0,0
686,617,0,0,0,0,0,0,0,0,0,-1,1910,407,0,0
693,617,0,0,0,0,0,0,0,0,0,-1,1917,407,0,0
700,617,0,0,0,0,0,0,0,0,0,-1,1924,407,0,0
707,617,0,0,0,0,0,0,0,0,0,-1,1931,407,0,0
714,617,0,0,0,0,0,0,0,0,0,-1,1938,407,0,0
721,617,0,0,0,0,0,0,0,0,0,-1,1945,407,0,0
728,617,0,0,0,0,0,0,0,0,0,-1,1952,407,0,0
735,617,0,0,0,0,0,0,0,0,0,-1,1959,407,0,0
742,617,0,0,0,0,0,0,0,0,0,-1,1966,407,0,0
749,617,0,0,0,0,0,0,0,0,0,-1,1973,407,0,0
756,617,0,0,0,0,0,0,0,0,0,-1,1980,407,0,0
763,617,0,0,0,0,0,0,0,0,0,-1,1987,407,0,0
770,617,0,0,0,0,0,0,0,0,0,-1,1994,407,0,0
777,617,0,0,0,0,0,0,0,0,0,-1,2001,407,0,0
784,617,0,0,0,0,0,0,0,0,0,-1,2008,407,0,0
791,617,0,0,0,0,0,0,0,0,0,-1,2015,407,0,0
798,617,0,0,0,0,0,0,0,0,0,-1,2022,407,0,0
805,617,0,0,0,0,0,0,0,0,0,-1,2029,407,0,0
812,617,0,0,0,0,0,0,0,0,0,-1,2036,407,0,0
-700,610,0,0,0,0,0,0,0,0,0,-1,524,414,0,0
-693,610,0,0,0,0,0,0,0,0,0,-1,531,414,0,0
-686,610,0,0,0,0,0,0,0,0,0,-1,538,414,0,0
-679,610,0,0,0,0,0,0,0,0,0,-1,545,414,0,0
-672,610,0,0,0,0,0,0,0,0,0,-1,552,414,0,0
-665,610,0,0,0,0,0,0,0,0,0,-1,559,414,0,0
-658,610,0,0,0,0,0,0,0,0,0,-1,566,414,0,0
-651,610,0,0,0,0,0,0,0,0,0,-1,573,414,0,0
-644,610,0,0,0,0,0,0,0,0,0,-1,580,414,0,0
-637,610,0,0,0,0,0,0,0,0,0,-1,587,414,0,0
-630,610,0,0,0,0,0,0,0,0,0,-1,594,414,0,0
-623,610,0,0,0,0,0,0,0,0,0,-1,601,414,0,0
-616,610,0,0,0,0,0,0,0,0,0,-1,608,414,0,0
-609,610,0,0,0,0,0,0,0,0,0,-1,615,414,0,0
-602,610,0,0,0,0,0,0,0,0,0,-1,622,414,0,0
-595,610,0,0,0,0,0,0,0,0,0,-1,629,414,0,0
-588,610,0,0,0,0,0,0,0,0,0,-1,636,414,0,0
-581,610,0,0,0,0,0,0,0,0,0,-1,643,414,0,0
-574,610,0,0,0,0,0,0,0,0,0,-1,650,414,0,0
-567,610,0,0,0,0,0,0,0,0,0,-1,657,414,0,0
-560,610,0,0,0,0,0,0,0,0,0,-1,664,414,0,0
-553,610,0,0,0,0,0,0,0,0,0,-1,671,414,0,0
-546,610,0,0,0,0,0,0,0,0,0,-1,678,414,0,0
-539,610,0,0,0,0,0,0,0,0,0,-1,685,414,0,0
-532,610,0,0,0,0,0,0,0,0,0,-1,692,414,0,0
-525,610,0,0,0,0,0,0,0,0,0,-1,699,414,0,0
-518,610,0,0,0,0,0,0,0,0,0,-1,706,414,0,0
-511,610,0,0,0,0,0,0,0,0,0,-1,713,414,0,0
-504,610,0,0,0,0,0,0,0,0,0,-1,720,414,0,0
-497,610,0,0,0,0,0,0,0,0,0,-1,727,414,0,0
-490,610,0,0,0,0,0,0,0,0,0,-1,734,414,0,0
-483,610,0,0,0,0,0,0,0,0,0,-1,741,414,0,0
-476,610,0,0,0,0,0,0,0,0,0,-1,748,414,0,0
-469,610,0,0,0,0,0,0,0,0,0,-1,755,414,0,0
-462,610,0,0,0,0,0,0,0,0,0,-1,762,414,0,0
-455,610,0,0,0,0,0,0,0,0,0,-1,769,414,0,0
-448,610,0,0,0,0,0,0,0,0,0,-1,776,414,0,0
-441,610,0,0,0,0,0,0,0,0,0,-1,783,414,0,0
-434,610,0,0,0,0,0,0,0,0,0,-1,790,414,0,0
-427,610,0,0,0,0,0,0,0,0,0,-1,797,414,0,0
-420,610,0,0,0,0,0,0,0,0,0,-1,804,414,0,0
-413,610,0,0,0,0,0,0,0,0,0,-1,811,414,0,0
-406,610,0,0,0,0,0,0,0,0,0,-1,818,414,0,0
-399,610,0,0,0,0,0,0,0,0,0,-1,825,414,0,0
-392,610,0,0,0,0,0,0,0,0,0,-1,832,414,0,0
-385,610,0,0,0,0,0,0,0,0,0,-1,839,414,0,0
-378,610,0,0,0,0,0,0,0,0,0,-1,846,414,0,0
-371,610,0,0,0,0,0,0,0,0,0,-1,853,414,0,0
-364,610,0,0,0,0,0,0,0,0,0,-1,860,414,0,0
-357,610,0,0,0,0,0,0,0,0,0,-1,867,414,0,0
-350,610,0,0,0,0,0,0,0,0,0,-1,874,414,0,0
-343,610,0,0,0,0,0,0,0,0,0,-1,881,414,0,0
-336,610,0,0,0,0,0,0,0,0,0,-1,888,414,0,0
-329,610,0,0,0,0,0,0,0,0,0,-1,895,414,0,0
-322,610,0,0,0,0,0,0,0,0,0,-1,902,414,0,0
-315,610,-3.32318,-0.183533,0.0367741,0.0469137,0.0421533,0.084301,-0.000613168,0.845246,0.0564062,0.0482438,909,414,-3.3232,0.183542
-308,610,-2.93823,0.2146,0.0455486,0.0436403,0.0310252,0.0756344,0.0135546,0.770026,0.046567,0.0465829,916,414,-2.93822,-0.214597
-301,610,-2.85315,0.393768,0.0494374,0.040134,0.0212689,0.0665573,0.0230141,0.677739,0.0390314,0.0448691,923,414,-2.85316,-0.39377
-294,610,-1.95685,1.44849,0,0,0,0,0,0,0,-1,930,414,-1.95685,-1.44849
-287,610,-1.90448,1.6568,0.0480086,0.0295716,0.00887429,0.051586,0.0259943,0.383188,0.0297835,0.0462909,937,414,-1.90447,-1.65679
-280,610,-1.8562,1.84576,0.0447319,0.0260101,0.00403854,0.0455659,0.0251761,0.203651,0.0263558,0.0414156,944,414,-1.8562,-1.84576
-273,610,-0.650269,0.776062,0,0,0,0,0,0,0,-1,951,414,-0.65027,-0.776069
-266,610,0.340637,0.505188,0.0324093,0.0216496,-0.0020365,0.0327819,0.021277,-0.180936,0.0192049,0.0456968,958,414,0.340608,-0.505177
-259,610,0.451599,0.470337,0.0275617,0.0190527,-0.00343779,0.028777,0.0178373,-0.339811,0.0167728,0.0445601,965,414,0.451598,-0.470341
-252,610,0.239502,0.164459,0,0,0,0,0,0,0,-1,972,414,0.239477,-0.164463
-245,610,0.12323,0.109131,0.0177551,0.0129696,-0.00298578,0.0191886,0.0115361,-0.447611,0.0111539,0.0447189,979,414,0.123204,-0.109122
-238,610,-0.000427246,0.0883179,0.0129337,0.0113202,-0.00239839,0.0146574,0.00959651,-0.623152,0.00859645,0.0359076,986,414,-0.000423117,-0.0883316
-231,610,-0.0838013,0.0397644,0.00862047,0.00987306,-0.00167874,0.0110385,0.007455,-0.96394,0.00650244,0.0283686,993,414,-0.0838196,-0.0397654
-224,610,-0.0828857,-0.00549316,0.0055624,0.00864486,-0.00159731,0.00932327,0.004884,-1.16916,0.00538483,0.0227596,1000,414,-0.0829001,0.00547899
-217,610,-0.0496216,-0.00881958,0.00306776,0.00770138,-0.00185139,0.00835025,0.00241889,-1.2337,0.00496116,0.0151985,1007,414,-0.0496046,0.00882468
-210,610,-0.0739746,-0.0285034,0.000914908,0.00676443,-0.00205282,0.00741295,0.000266392,-1.2648,0.0048556,0.00952961,1014,414,-0.0739686,0.0285088
-203,610,-0.0751953,-0.0263062,-0.000476919,0.00578026,-0.00224209,0.0065007,-0.00119736,-1.25989,0.00478314,0.0114777,1021,414,-0.0751994,0.0262954
-196,610,-0.0528564,-0.0256958,-0.000486617,0.00521223,-0.0020807,0.00589105,-0.00116544,-1.25544,0.00436799,0.0116877,1028,414,-0.0528399,0.025682
-189,610,-0.0756836,-0.035614,-0.000403759,0.00466757,-0.00199672,0.00535937,-0.00109555,-1.23727,0.00398857,0.010094,1035,414,-0.0756847,0.0356046
-182,610,-0.0864258,-0.043396,-0.000339036,0.00396161,-0.00179516,0.00461245,-0.000989871,-1.22299,0.00345255,0.0108701,1042,414,-0.0864033,0.0434015
-175,610,-0.0878906,-0.0364685,-0.000538284,0.00307063,-0.00152231,0.003627,-0.00109465,-1.2204,0.00285375,0.00959566,1049,414,-0.0879327,0.036468
-168,610,-0.0834961,-0.0429688,-0.0007588,0.00222823,-0.0010141,0.00253998,-0.00107055,-1.27255,0.00214132,0.00895002,1056,414,-0.0834776,0.0429536
-161,610,-0.0734863,-0.065918,-0.000737858,0.00162265,-0.000599081,0.00176599,-0.000881196,-1.33595,0.00155655,0.00967939,1063,414,-0.0734748,0.0659171
-154,610,-0.0767822,-0.0555725,-0.000714596,0.00104713,-0.000284692,0.001092,-0.000759459,-1.4145,0.00107467,0.0125127,1070,414,-0.0768217,0.0555618
-147,610,-0.0655518,-0.0440369,-0.000744211,0.000656364,-7.13277e-05,0.000659987,-0.000747834,-1.52004,0.000813334,0.0140822,1077,414,-0.0655853,0.0440515
-140,610,-0.0703125,-0.0455933,-0.000548981,0.000351607,-3.31724e-05,0.000352827,-0.000550201,-1.53403,0.000525498,0.0107657,1084,414,-0.0703641,0.0455957
-133,610,-0.0842285,-0.0469666,-0.000215014,-0.000120606,-2.75451e-05,-0.000113157,-0.000222463,-1.30668,0.000128445,0.0117819,1091,414,-0.0842465,0.0469601
-126,610,-0.0766602,-0.0494385,-6.65117e-05,-0.000484966,5.67622e-05,-5.89487e-05,-0.000492529,0.132459,0.000310573,0.0110362,1098,414,-0.0766876,0.0494393
-119,610,-0.0961914,-0.0246582,-6.26203e-07,-0.000665579,6.4507e-05,5.57382e-06,-0.000671779,0.0958194,0.000449722,0.00942804,1105,414,-0.0961379,0.0246516
-112,610,-0.108643,-0.0264587,0.000100976,-0.000677696,2.14048e-05,0.000101564,-0.000678284,0.0274612,0.000489568,0.0163279,1112,414,-0.108655,0.0264702
-105,610,-0.104614,-0.0392151,0.000174532,-0.000762693,-0.000157773,0.000200379,-0.00078854,-0.16238,0.000603675,0.0144423,1119,414,-0.104586,0.0392209
-98,610,-0.0777588,-0.0581665,0.000163828,-0.000819647,-0.000282586,0.000239242,-0.00089506,-0.260792,0.000690412,0.00992054,1126,414,-0.0777148,0.0581759
-91,610,-0.0987549,-0.0536804,0.000191554,-0.000836726,-0.000345433,0.00029682,-0.000941991,-0.295796,0.000746861,0.0114608,1133,414,-0.0988113,0.0536822
-84,610,-0.0689697,-0.0562439,0.000316832,-0.000803009,-0.000323952,0.000403794,-0.000889971,-0.262256,0.000764333,0.0128213,1140,414,-0.0690193,0.0562464
-77,610,-0.0465088,-0.0680237,0.000483964,-0.000668078,-0.000304765,0.000559619,-0.000743733,-0.243323,0.00075499,0.0106837,1147,414,-0.0465396,0.0680284
-70,610,-0.0682373,-0.0805664,0.000703387,-0.000787774,-7.92747e-05,0.00070759,-0.000791976,-0.0529641,0.000866232,0.0120108,1154,414,-0.0682064,0.0805792
-63,610,-0.0699463,-0.071991,0.000149296,-0.000798344,-6.57713e-05,0.000153839,-0.000802887,-0.0689647,0.000593225,0.0104256,1161,414,-0.0698905,0.0719887
-56,610,-0.0600586,-0.0406494,-0.000395862,-0.000742559,0.000182584,-0.000317444,-0.000820978,0.405671,0.000478033,0.00820877,1168,414,-0.0600734,0.0406364
-49,610,-0.0561523,-0.0472412,-0.000519866,-0.00107051,0.000584135,-0.00014942,-0.00144095,0.565173,0.000914906,0.00896637,1175,414,-0.0561334,0.047238
-42,610,-0.0489502,-0.0665894,-0.000268902,-0.00196959,0.000864942,9.36886e-05,-0.00233218,0.396954,0.00158694,0.0129857,1182,414,-0.0490035,0.066585
-35,610,-0.0716553,-0.070282,0.000167461,-0.00312786,0.00101908,0.000457147,-0.00341755,0.276957,0.00244504,0.0130918,1189,414,-0.0717069,0.0702965
-28,610,-0.0845947,-0.0620728,0.000793655,-0.00459342,0.000876943,0.000932814,-0.00473258,0.157375,0.00350759,0.011121,1196,414,-0.0846194,0.0620663
-21,610,-0.0755615,-0.045166,0.00174574,-0.00571949,0.000910374,0.00185515,-0.00582891,0.119613,0.00462991,0.00982258,1203,414,-0.0755818,0.0451628
-14,610,-0.0738525,-0.0293579,0.00264151,-0.0068139,0.00100032,0.00274618,-0.00691857,0.104256,0.00575066,0.0116318,1210,414,-0.0738381,0.0293492
-7,610,-0.0875244,-0.0350342,0.00401119,-0.00742475,0.00131117,0.00415959,-0.00757315,0.112705,0.0068688,0.0127664,1217,414,-0.0874816,0.0350333
0,610,-0.0758057,-0.0379028,0.00541341,-0.00744712,0.000983513,0.00548819,-0.0075219,0.0758872,0.00754191,0.00941645,1224,414,-0.0758135,0.0378926
7,610,-0.0637207,-0.0372009,0.00662374,-0.00704673,0.000469794,0.00663986,-0.00706286,0.0343116,0.00791253,0.00996724,1231,414,-0.0637171,0.0372102
14,610,-0.0799561,-0.0368042,0.00790162,-0.00592538,-0.000151979,0.00790329,-0.00592705,-0.0109897,0.00801208,0.0118062,1238,414,-0.0799175,0.036819
21,610,-0.0882568,-0.0298767,0.00902665,-0.00412819,-0.000916256,0.00909017,-0.0041917,-0.0692063,0.0078402,0.0103567,1245,414,-0.0882954,0.0298857
28,610,-0.0708008,-0.042511,0.00966184,-0.00189116,-0.00173535,0.00991688,-0.0021462,-0.145919,0.00743069,0.0103177,1252,414,-0.070798,0.0425178
35,610,-0.0603027,-0.0396423,0.00984068,0.00115705,-0.00277747,0.0106531,0.000344671,-0.284551,0.00698998,0.0138129,1259,414,-0.0602467,0.0396415
42,610,-0.0783691,-0.0287781,0.0104272,0.00574596,-0.00380087,0.0125504,0.00362283,-0.509414,0.00745859,0.013228,1266,414,-0.0784063,0.0287669
49,610,-0.102783,-0.0369568,0.0110502,0.0112134,-0.00402383,0.0151565,0.00710715,-0.795535,0.00875622,0.0131507,1273,414,-0.102743,0.0369638
56,610,-0.0794678,-0.0408936,0.0110073,0.0158538,-0.00433088,0.0183933,0.00846783,-1.04047,0.0106305,0.0122324,1280,414,-0.0795032,0.0408827
63,610,-0.0701904,-0.038208,0.0102227,0.0204456,-0.00446439,0.0221207,0.00854754,-1.21183,0.0128808,0.0151531,1287,414,-0.0701469,0.0382033
70,610,-0.0592041,-0.034668,0.00969011,0.0243307,-0.00422516,0.0254625,0.00855826,-1.30906,0.0149617,0.0213373,1294,414,-0.0592277,0.0346766
77,610,-0.0480957,-0.0274048,0.00918458,0.0276938,-0.00353606,0.0283463,0.00853204,-1.38831,0.0167923,0.0266414,1301,414,-0.0480509,0.0274064
84,610,-0.03479,0.0155945,0.00855169,0.0286879,-0.00271585,0.0290478,0.00819182,-1.43906,0.0172939,0.0297668,1308,414,-0.0347466,-0.0155833
91,610,-0.0789795,-0.0418701,0.007859,0.0279579,-0.00176901,0.0281124,0.00770449,-1.48367,0.016774,0.0256364,1315,414,-0.0790149,0.041868
98,610,-0.0463867,-0.0565186,0.00673063,0.0264329,-0.00134027,0.0265237,0.00663988,-1.50319,0.0159371,0.0235113,1322,414,-0.046372,0.0565109
105,610,-0.0372314,-0.058197,0.00566013,0.0240526,-0.000348103,0.0240592,0.00565355,-1.55188,0.0145264,0.018512,1329,414,-0.0372245,0.0582014
112,610,-0.0529785,-0.0552673,0.00453251,0.0209558,0.000241102,0.0209593,0.00452897,1.55612,0.0127346,0.0119586,1336,414,-0.0529568,0.055281
119,610,-0.0877686,-0.0402832,0.00314183,0.0171637,0.00055508,0.0171856,0.00311989,1.53129,0.0105717,0.0175458,1343,414,-0.0878222,0.0402835
126,610,-0.0881348,-0.0328674,0.00184533,0.0130735,0.000545389,0.0130999,0.0018189,1.52237,0.00819455,0.0244602,1350,414,-0.0881406,0.0328699
133,610,-0.0712891,-0.0446167,0.000973645,0.00923324,0.000281242,0.00924281,0.00096408,1.5368,0.00586698,0.018479,1357,414,-0.0712675,0.0446136
140,610,-0.069458,-0.069519,0.000366105,0.00587903,4.56033e-05,0.00587941,0.000365728,1.56253,0.00380356,0.0137884,1364,414,-0.0694439,0.069533
147,610,-0.0809326,-0.0774536,-2.08781e-05,0.00243477,-0.000172675,0.00244686,-3.29608e-05,-1.50094,0.00164234,0.0144417,1371,414,-0.0809058,0.0774669
154,610,-0.104492,-0.058197,-0.000755063,7.05431e-05,-0.00117106,0.000899424,-0.00158394,-0.95485,0.00145182,0.0205402,1378,414,-0.104548,0.0581949
161,610,-0.10791,-0.0345764,-0.00083112,0.000426463,-0.00119702,0.0011498,-0.00155445,-1.02724,0.00156711,0.0267428,1385,414,-0.107872,0.034567
168,610,-0.0632324,-0.0352783,-0.000272989,0.000781903,-0.000664999,0.00110323,-0.00059432,-1.12067,0.000994656,0.0276139,1392,414,-0.0632831,0.0352703
175,610,-0.02771,-0.0593872,2.77627e-05,0.00169907,-0.000226674,0.00172927,-2.43477e-06,-1.43836,0.00115366,0.0211904,1399,414,-0.0276518,0.0593803
182,610,-0.03479,-0.0634766,0.000226033,0.00196151,0.000159891,0.00197612,0.000211425,1.47969,0.0012529,0.0139497,1406,414,-0.0347994,0.0634762
189,610,-0.05896,-0.0462036,0.000409131,0.00307077,0.000420019,0.00313547,0.000344423,1.41794,0.00198549,0.012219,1413,414,-0.0589864,0.0462145
196,610,-0.0770264,-0.0365601,0.000572758,0.00395298,0.000727639,0.00410296,0.000422778,1.36752,0.00260584,0.0122672,1420,414,-0.0770314,0.0365465
203,610,-0.0756836,-0.0257874,0.000603614,0.00374054,0.00125443,0.00418048,0.000163679,1.23349,0.00273406,0.0125729,1427,414,-0.075684,0.0258005
210,610,-0.0712891,-0.0422668,0.000570902,0.00338188,0.00133794,0.00391688,3.59039e-05,1.19041,0.00259937,0.00946648,1434,414,-0.0712495,0.0422699
217,610,-0.0593262,-0.0514526,0.000523004,0.00312196,0.00135558,0.00370031,-5.53443e-05,1.16753,0.00248553,0.0143476,1441,414,-0.059321,0.0514419
224,610,-0.0760498,-0.0453796,0.000521149,0.00297131,0.00120147,0.00346215,3.03166e-05,1.18296,0.00229806,0.0171415,1448,414,-0.0760188,0.0453761
231,610,-0.0915527,-0.0230713,0.000599787,0.00280517,0.00105855,0.00323103,0.000173928,1.18831,0.00209845,0.0140663,1455,414,-0.0915644,0.0230743
238,610,-0.09021,-0.0287781,0.000728433,0.00268487,0.000922042,0.00305092,0.000362377,1.19287,0.00192456,0.0107527,1462,414,-0.0902238,0.0287769
245,610,-0.0716553,-0.040863,0.000856582,0.0026195,0.000800415,0.00292869,0.000547397,1.20217,0.00179799,0.0122436,1469,414,-0.0716192,0.040872
252,610,-0.0699463,-0.0400085,0.000908705,0.0025027,0.000784266,0.00282386,0.000587544,1.18212,0.0017205,0.0136591,1476,414,-0.0698935,0.0400015
259,610,-0.0662842,-0.0408325,0.000893685,0.00229486,0.000761325,0.00262889,0.000559653,1.15734,0.00159903,0.0114918,1483,414,-0.0662517,0.0408362
266,610,-0.0795898,-0.0338135,0.000837687,0.00224873,0.000721081,0.00255203,0.000534388,1.17264,0.00155415,0.0119916,1490,414,-0.0796237,0.0338135
273,610,-0.0876465,-0.0409241,0.000799521,0.00234383,0.000783214,0.00267151,0.000471835,1.17454,0.00164642,0.00980297,1497,414,-0.0876899,0.0409162
280,610,-0.0844727,-0.0404968,0.000753145,0.00237621,0.000869054,0.00275373,0.000375627,1.16099,0.0017243,0.00915724,1504,414,-0.0845016,0.0404847
287,610,-0.0953369,-0.0435181,0.000803627,0.00217571,0.000940294,0.00265363,0.000325708,1.10056,0.00167113,0.0113458,1511,414,-0.095293,0.0435149
294,610,-0.0910645,-0.0517578,0.000900175,0.00197348,0.00105975,0.00262471,0.000248944,1.01977,0.00167301,0.00957519,1518,414,-0.0910651,0.0517709
301,610,-0.0748291,-0.0608826,0.000769355,0.00204326,0.00109631,0.00267422,0.000138394,1.04856,0.00173852,0.0089434,1525,414,-0.0747741,0.0608679
308,610,-0.048584,-0.0614014,0.000840546,0.00151484,0.000871285,0.00211193,0.000243451,0.970002,0.00133423,0.0107859,1532,414,-0.0485468,0.0614143
315,610,-0.0357666,-0.0565491,0.00132708,0.000815195,0.000764743,0.00187757,0.000264702,0.623918,0.00117348,0.0118848,1539,414,-0.0358157,0.0565564
322,610,-0.0528564,-0.0471802,0.00186879,-0.000209753,0.000754918,0.00211404,-0.000454999,0.31411,0.00158297,0.0113598,1546,414,-0.0528243,0.0471734
329,610,-0.0804443,-0.0271606,0.00215533,-0.00132495,0.000887103,0.00236841,-0.00153802,0.235723,0.0022723,0.00980629,1553,414,-0.0804544,0.0271595
336,610,-0.0827637,-0.0307617,0.0020283,-0.00265272,0.00160857,0.00252777,-0.00315219,0.301067,0.00328593,0.00909024,1560,414,-0.0827195,0.0307546
343,610,-0.0848389,-0.0387268,0.00182448,-0.00326171,0.00236976,0.00275746,-0.00419469,0.375065,0.00404232,0.0120879,1567,414,-0.0848821,0.0387406
350,610,-0.11377,-0.0388794,0.00177223,-0.00396932,0.00260618,0.00277877,-0.00497585,0.368563,0.00453664,0.0163872,1574,414,-0.113786,0.0388915
357,610,-0.0516357,-0.0205994,0.00162191,-0.0042281,0.00298698,0.00287754,-0.00548373,0.39794,0.00490493,0.0220719,1581,414,-0.0515774,0.0206122
364,610,0.0753174,-0.0542297,0.00141726,-0.00442351,0.00374357,0.00324482,-0.00625107,0.454152,0.00557328,0.0231768,1588,414,0.0752641,0.0542285
371,610,0.203125,-0.250732,0.00119775,-0.0043172,0.00435539,0.00359518,-0.00671463,0.50319,0.00604252,0.0359495,1595,414,0.203115,0.250738
378,610,-0.0718994,-0.154236,0.000392646,-0.00339474,0.0048039,0.00366262,-0.00666472,0.59765,0.00604588,0.041209,1602,414,-0.0718548,0.154239
385,610,-0.10144,0.199097,-0.000842041,-0.00224484,0.00500453,0.00351,-0.00659688,0.715775,0.00592524,0.0441206,1609,414,-0.101449,-0.199093
392,610,-0.424805,0.842773,-0.00152262,-0.000349941,0.0048006,0.00389999,-0.00577255,0.846167,0.00561922,0.0457761,1616,414,-0.42486,-0.842764
399,610,-0.317749,0.295105,-0.00242224,0.00172051,0.00426543,0.00439092,-0.00509265,1.01144,0.00548033,0.0424964,1623,414,-0.31778,-0.295108
406,610,-0.195801,-0.227112,0,0,0,0,0,0,0,-1,1630,414,-0.195764,0.227104
413,610,-0.351318,-0.31839,-0.00308673,0.00673726,0.00288114,0.00751989,-0.00386935,1.30556,0.00668723,0.043108,1637,414,-0.351314,0.318375
420,610,-0.266113,0.10434,-0.00389751,0.010853,0.00171672,0.0110501,-0.00409468,1.45645,0.00904601,0.0427027,1644,414,-0.266095,-0.104339
427,610,-0.513672,0.357697,-0.00497803,0.01403,0.000399447,0.0140384,-0.00498642,1.54979,0.0113909,0.0395973,1651,414,-0.513619,-0.357702
434,610,-0.77832,0.276093,-0.00518382,0.0173475,-0.00114192,0.0174053,-0.00524155,-1.52029,0.0136894,0.0409253,1658,414,-0.778302,-0.276096
441,610,0,0,0,0,0,0,0,0,0,-1,1665,414,0,0
448,610,0,0,0,0,0,0,0,0,0,-1,1672,414,0,0
455,610,0,0,0,0,0,0,0,0,0,-1,1679,414,0,0
462,610,0,0,0,0,0,0,0,0,0,-1,1686,414,0,0
469,610,0,0,0,0,0,0,0,0,0,-1,1693,414,0,0
476,610,0,0,0,0,0,0,0,0,0,-1,1700,414,0,0
483,610,0,0,0,0,0,0,0,0,0,-1,1707,414,0,0
490,610,0,0,0,0,0,0,0,0,0,-1,1714,414,0,0
497,610,0,0,0,0,0,0,0,0,0,-1,1721,414,0,0
504,610,0,0,0,0,0,0,0,0,0,-1,1728,414,0,0
511,610,0,0,0,0,0,0,0,0,0,-1,1735,414,0,0
518,610,0,0,0,0,0,0,0,0,0,-1,1742,414,0,0
525,610,0,0,0,0,0,0,0,0,0,-1,1749,414,0,0
532,610,0,0,0,0,0,0,0,0,0,-1,1756,414,0,0
539,610,0,0,0,0,0,0,0,0,0,-1,1763,414,0,0
546,610,0,0,0,0,0,0,0,0,0,-1,1770,414,0,0
553,610,0,0,0,0,0,0,0,0,0,-1,1777,414,0,0
560,610,0,0,0,0,0,0,0,0,0,-1,1784,414,0,0
567,610,0,0,0,0,0,0,0,0,0,-1,1791,414,0,0
574,610,0,0,0,0,0,0,0,0,0,-1,1798,414,0,0
581,610,0,0,0,0,0,0,0,0,0,-1,1805,414,0,0
588,610,0,0,0,0,0,0,0,0,0,-1,1812,414,0,0
595,610,0,0,0,0,0,0,0,0,0,-1,1819,414,0,0
602,610,0,0,0,0,0,0,0,0,0,-1,1826,414,0,0
609,610,0,0,0,0,0,0,0,0,0,-1,1833,414,0,0
616,610,0,0,0,0,0,0,0,0,0,-1,1840,414,0,0
623,610,0,0,0,0,0,0,0,0,0,-1,1847,414,0,0
630,610,0,0,0,0,0,0,0,0,0,-1,1854,414,0,0
637,610,0,0,0,0,0,0,0,0,0,-1,1861,414,0,0
644,610,0,0,0,0,0,0,0,0,0,-1,1868,414,0,0
651,610,0,0,0,0,0,0,0,0,0,-1,1875,414,0,0
658,610,0,0,0,0,0,0,0,0,0,-1,1882,414,0,0
665,610,0,0,0,0,0,0,0,0,0,-1,1889,414,0,0
672,610,0,0,0,0,0,0,0,0,0,-1,1896,414,0,0
679,610,0,0,0,0,0,0,0,0,0,-1,1903,414,0,0
686,610,0,0,0,0,0,0,0,0,0,-1,1910,414,0,0
693,610,0,0,0,0,0,0,0,0,0,-1,1917,414,0,0
700,610,0,0,0,0,0,0,0,0,0,-1,1924,414,0,0
707,610,0,0,0,0,0,0,0,0,0,-1,1931,414,0,0
714,610,0,0,0,0,0,0,0,0,0,-1,1938,414,0,0
721,610,0,0,0,0,0,0,0,0,0,-1,1945,414,0,0
728,610,0,0,0,0,0,0,0,0,0,-1,1952,414,0,0
735,610,0,0,0,0,0,0,0,0,0,-1,1959,414,0,0
742,610,0,0,0,0,0,0,0,0,0,-1,1966,414,0,0
749,610,0,0,0,0,0,0,0,0,0,-1,1973,414,0,0
756,610,0,0,0,0,0,0,0,0,0,-1,1980,414,0,0
763,610,0,0,0,0,0,0,0,0,0,-1,1987,414,0,0
770,610,0,0,0,0,0,0,0,0,0,-1,1994,414,0,0
777,610,0,0,0,0,0,0,0,0,0,-1,2001,414,0,0
784,610,0,0,0,0,0,0,0,0,0,-1,2008,414,0,0
791,610,0,0,0,0,0,0,0,0,0,-1,2015,414,0,0
798,610,0,0,0,0,0,0,0,0,0,-1,2022,414,0,0
805,610,0,0,0,0,0,0,0,0,0,-1,2029,414,0,0
812,610,0,0,0,0,0,0,0,0,0,-1,2036,414,0,0
-700,603,0,0,0,0,0,0,0,0,0,-1,524,421,0,0
-693,603,0,0,0,0,0,0,0,0,0,-1,531,421,0,0
-686,603,0,0,0,0,0,0,0,0,0,-1,538,421,0,0
-679,603,0,0,0,0,0,0,0,0,0,-1,545,421,0,0
-672,603,0,0,0,0,0,0,0,0,0,-1,552,421,0,0
-665,603,0,0,0,0,0,0,0,0,0,-1,559,421,0,0
-658,603,0,0,0,0,0,0,0,0,0,-1,566,421,0,0
-651,603,0,0,0,0,0,0,0,0,0,-1,573,421,0,0
-644,603,0,0,0,0,0,0,0,0,0,-1,580,421,0,0
-637,603,0,0,0,0,0,0,0,0,0,-1,587,421,0,0
-630,603,0,0,0,0,0,0,0,0,0,-1,594,421,0,0
-623,603,0,0,0,0,0,0,0,0,0,-1,601,421,0,0
-616,603,0,0,0,0,0,0,0,0,0,-1,608,421,0,0
-609,603,0,0,0,0,0,0,0,0,0,-1,615,421,0,0
-602,603,0,0,0,0,0,0,0,0,0,-1,622,421,0,0
-595,603,0,0,0,0,0,0,0,0,0,-1,629,421,0,0
-588,603,0,0,0,0,0,0,0,0,0,-1,636,421,0,0
-581,603,0,0,0,0,0,0,0,0,0,-1,643,421,0,0
-574,603,0,0,0,0,0,0,0,0,0,-1,650,421,0,0
-567,603,0,0,0,0,0,0,0,0,0,-1,657,421,0,0
-560,603,0,0,0,0,0,0,0,0,0,-1,664,421,0,0
-553,603,0,0,0,0,0,0,0,0,0,-1,671,421,0,0
-546,603,0,0,0,0,0,0,0,0,0,-1,678,421,0,0
-539,603,0,0,0,0,0,0,0,0,0,-1,685,421,0,0
-532,603,0,0,0,0,0,0,0,0,0,-1,692,421,0,0
-525,603,0,0,0,0,0,0,0,0,0,-1,699,421,0,0
-518,603,0,0,0,0,0,0,0,0,0,-1,706,421,0,0
-511,603,0,0,0,0,0,0,0,0,0,-1,713,421,0,0
-504,603,0,0,0,0,0,0,0,0,0,-1,720,421,0,0
-497,603,0,0,0,0,0,0,0,0,0,-1,727,421,0,0
-490,603,0,0,0,0,0,0,0,0,0,-1,734,421,0,0
-483,603,0,0,0,0,0,0,0,0,0,-1,741,421,0,0
-476,603,0,0,0,0,0,0,0,0,0,-1,748,421,0,0
-469,603,0,0,0,0,0,0,0,0,0,-1,755,421,0,0
-462,603,0,0,0,0,0,0,0,0,0,-1,762,421,0,0
-455,603,0,0,0,0,0,0,0,0,0,-1,769,421,0,0
-448,603,0,0,0,0,0,0,0,0,0,-1,776,421,0,0
-441,603,0,0,0,0,0,0,0,0,0,-1,783,421,0,0
-434,603,0,0,0,0,0,0,0,0,0,-1,790,421,0,0
-427,603,0,0,0,0,0,0,0,0,0,-1,797,421,0,0
-420,603,0,0,0,0,0,0,0,0,0,-1,804,421,0,0
-413,603,0,0,0,0,0,0,0,0,0,-1,811,421,0,0
-406,603,0,0,0,0,0,0,0,0,0,-1,818,421,0,0
-399,603,0,0,0,0,0,0,0,0,0,-1,825,421,0,0
-392,603,0,0,0,0,0,0,0,0,0,-1,832,421,0,0
-385,603,0,0,0,0,0,0,0,0,0,-1,839,421,0,0
-378,603,0,0,0,0,0,0,0,0,0,-1,846,421,0,0
-371,603,0,0,0,0,0,0,0,0,0,-1,853,421,0,0
-364,603,0,0,0,0,0,0,0,0,0,-1,860,421,0,0
-357,603,0,0,0,0,0,0,0,0,0,-1,867,421,0,0
-350,603,0,0,0,0,0,0,0,0,0,-1,874,421,0,0
-343,603,0,0,0,0,0,0,0,0,0,-1,881,421,0,0
-336,603,0,0,0,0,0,0,0,0,0,-1,888,421,0,0
-329,603,0.780334,0.668732,0,0,0,0,0,0,0,-1,895,421,0.780343,-0.668728
-322,603,-4.65936,-0.721405,0,0,0,0,0,0,0,-1,902,421,-4.65937,0.72141
-315,603,-4.24554,-0.397186,0.0387612,0.0517052,0.022934,0.0690629,0.0214035,0.922922,0.0408227,0.0481136,909,421,-4.24557,0.397187
-308,603,-4.21082,-0.172546,0.0434881,0.0459932,0.0161636,0.0609527,0.0285286,0.824067,0.035215,0.0477026,916,421,-4.2108,0.172557
-301,603,-4.16772,0.259277,0.0447214,0.0410667,0.010039,0.053098,0.0326901,0.695373,0.0309283,0.0455116,923,421,-4.16773,-0.259269
-294,603,-0.813965,0.814667,0,0,0,0,0,0,0,-1,930,421,-0.813967,-0.81467
-287,603,-1.89185,2.6712,0.041247,0.0291533,0.00310771,0.0419988,0.0284014,0.237368,0.0247451,0.0474314,937,421,-1.89184,-2.6712
-280,603,-0.620789,0.628143,0.0378815,0.024861,0.000154817,0.0378833,0.0248592,0.0118881,0.0222249,0.048037,944,421,-0.620806,-0.628149
-273,603,-0.457642,0.566833,0.0314877,0.0235695,-0.00296648,0.0324758,0.0225814,-0.321519,0.0192209,0.0444968,951,421,-0.457651,-0.566825
-266,603,0.128052,0.445465,0.0258422,0.0206295,-0.00387351,0.0279046,0.0185671,-0.489261,0.0164018,0.0445965,958,421,0.128073,-0.445466
-259,603,0.0167236,0.25592,0.0219571,0.0180349,-0.00448274,0.024889,0.0151031,-0.579201,0.0144785,0.0428603,965,421,0.0167231,-0.25592
-252,603,-0.0473022,0.0692139,0.017818,0.0150171,-0.0043216,0.0209604,0.0118747,-0.628708,0.0121372,0.0382133,972,421,-0.047318,-0.0692139
-245,603,-0.0153809,0.0148315,0.0141181,0.0121681,-0.00313699,0.0164281,0.00985811,-0.634726,0.00954791,0.0281782,979,421,-0.0153614,-0.0148361
-238,603,-0.041626,0.00088501,0.0102957,0.0104822,-0.00236234,0.0127532,0.0080248,-0.805121,0.00744458,0.015596,986,421,-0.0416424,-0.000875394
-231,603,-0.088562,-0.0309753,0.00677381,0.00893869,-0.00145917,0.00967308,0.00603943,-1.10452,0.00564204,0.0109945,993,421,-0.0885444,0.0309851
-224,603,-0.0932007,-0.053772,0.00431716,0.00769505,-0.0012074,0.00808225,0.00392997,-1.26047,0.00466688,0.0120106,1000,421,-0.0932145,0.0537809
-217,603,-0.06427,-0.0381775,0.00235655,0.00674418,-0.001344,0.00712313,0.0019776,-1.29597,0.00424595,0.0112513,1007,421,-0.0642812,0.038182
-210,603,-0.0794678,-0.030304,0.00068354,0.00582688,-0.00144888,0.00620695,0.000303473,-1.31426,0.00404061,0.00905826,1014,421,-0.0794526,0.0302936
-203,603,-0.0673828,-0.0390015,-0.000383435,0.00493254,-0.00153569,0.00534428,-0.000795175,-1.30884,0.00385535,0.0138328,1021,421,-0.0673964,0.0389871
-196,603,-0.0487061,-0.0477905,-0.000358193,0.00440368,-0.00130641,0.00473854,-0.000693058,-1.31987,0.00341358,0.0147089,1028,421,-0.0487068,0.0477768
-189,603,-0.0671387,-0.0427856,-0.000218979,0.00387899,-0.00116225,0.00418568,-0.00052566,-1.31281,0.00298116,0.012401,1035,421,-0.0671059,0.0427796
-182,603,-0.0861816,-0.0571289,-6.72641e-05,0.00317002,-0.000946788,0.00342659,-0.000323831,-1.30617,0.00239963,0.00963944,1042,421,-0.0861625,0.0571394
-175,603,-0.0993652,-0.0673523,-0.000179813,0.00241173,-0.000695668,0.00258666,-0.000354748,-1.32444,0.00185404,0.008929,1049,421,-0.0994173,0.0673633
-168,603,-0.107544,-0.0474854,-0.000276564,0.00172313,-0.000251058,0.00175417,-0.000307602,-1.44779,0.00128432,0.0106485,1056,421,-0.107522,0.0474746
-161,603,-0.0948486,-0.0317993,-0.000138466,0.001253,0.000100272,0.00126019,-0.000145655,1.49923,0.000892647,0.0112267,1063,421,-0.0948041,0.0318043
-154,603,-0.0932617,-0.0366516,-1.68252e-05,0.000855322,0.000351702,0.000979475,-0.000140979,1.23144,0.000704693,0.0115913,1070,421,-0.0932618,0.0366622
-147,603,-0.0708008,-0.04245,6.48375e-05,0.000579251,0.000473719,0.000861085,-0.000216996,1.03411,0.000658418,0.0125728,1077,421,-0.0708601,0.0424376
-140,603,-0.0511475,-0.0373535,0.000318465,0.000320635,0.00042518,0.000744732,-0.000105632,0.786674,0.000535185,0.0103362,1084,421,-0.0510955,0.0373539
-133,603,-0.0706787,-0.0269775,0.000508351,-6.95578e-05,0.000393481,0.000707579,-0.000268786,0.468692,0.000582371,0.0105412,1091,421,-0.07071,0.0269808
-126,603,-0.0821533,-0.0204163,0.000558705,-0.000310712,0.000356075,0.000685923,-0.000437929,0.343143,0.000654101,0.0094976,1098,421,-0.0821733,0.0204219
-119,603,-0.0795898,-0.0133667,0.000618156,-0.000443858,0.000255758,0.000676539,-0.000502241,0.224429,0.000683045,0.00981742,1105,421,-0.0796439,0.0133793
-112,603,-0.0994873,-0.00982666,0.000657868,-0.000407474,0.000161079,0.00068169,-0.000431297,0.146828,0.000647981,0.0146701,1112,421,-0.0994849,0.00982082
-105,603,-0.0875244,-0.0514221,0.000589441,-0.000468515,-2.43665e-05,0.000590002,-0.000469076,-0.0230154,0.000612786,0.0132276,1119,421,-0.087539,0.0514176
-98,603,-0.0725098,-0.0422668,0.00043126,-0.000520686,-0.000174362,0.000462192,-0.000551618,-0.175573,0.000586082,0.00959711,1126,421,-0.0725367,0.0422613
-91,603,-0.078125,-0.0366211,0.000307795,-0.000455388,-0.00026682,0.000391827,-0.00053942,-0.305105,0.000539902,0.00724596,1133,421,-0.0780876,0.036613
-84,603,-0.067749,-0.0523987,0.000336739,-0.000253514,-0.000252909,0.00043028,-0.000347055,-0.354257,0.000449652,0.00781261,1140,421,-0.0676966,0.052393
-77,603,-0.0697021,-0.0672302,0.000484483,0.000177915,-0.000229038,0.000606797,5.56008e-05,-0.490503,0.00038733,0.00852589,1147,421,-0.0697032,0.0672215
-70,603,-0.0734863,-0.0653992,0.000767199,0.000434957,2.95455e-05,0.000769806,0.00043235,0.0880075,0.000445572,0.00984298,1154,421,-0.0734792,0.0654112
-63,603,-0.0721436,-0.0486145,3.27687e-05,0.000888509,-1.21758e-05,0.000888682,3.25956e-05,-1.55657,0.000581894,0.00993012,1161,421,-0.0721623,0.0486216
-56,603,-0.0714111,-0.0445251,-0.000635057,0.00150178,0.00022766,0.00152576,-0.000659043,1.46583,0.00129406,0.0101506,1168,421,-0.0713561,0.0445229
-49,603,-0.053833,-0.0431213,-0.000721558,0.00152191,0.0006561,0.0016997,-0.000899345,1.30618,0.00152409,0.010313,1175,421,-0.053877,0.0431365
-42,603,-0.0629883,-0.0517883,-0.000371144,0.000908967,0.000973301,0.00143381,-0.000895986,1.07625,0.001357,0.0136339,1182,421,-0.0629995,0.0517802
-35,603,-0.0942383,-0.0559692,0.00018812,-1.70102e-05,0.00117985,0.00126985,-0.00109874,0.742042,0.0013687,0.0140229,1189,421,-0.0942737,0.0559785
-28,603,-0.136475,-0.0542297,0.00106994,-0.00142225,0.00100752,0.0014263,-0.00177861,0.339963,0.00185408,0.0153499,1196,421,-0.136457,0.0542446
-21,603,-0.0999756,-0.0370789,0.00227551,-0.00264298,0.00115819,0.00253459,-0.00290207,0.220071,0.00314125,0.0178629,1203,421,-0.0999762,0.0370651
-14,603,-0.0695801,-0.0235291,0.00340267,-0.00392677,0.00139491,0.00365917,-0.00418327,0.181849,0.0045312,0.0191853,1210,421,-0.0696054,0.0235205
-7,603,-0.09375,-0.0214233,0.0052396,-0.00477855,0.00187993,0.00558076,-0.00511971,0.179519,0.00617983,0.0202413,1217,421,-0.0937379,0.021411
0,603,-0.115356,-0.0326538,0.00708033,-0.00501856,0.00138802,0.00723753,-0.00517576,0.112771,0.00719969,0.0230764,1224,421,-0.115356,0.0326627
7,603,-0.110107,-0.0135803,0.00876717,-0.00485835,0.000557631,0.00878995,-0.00488114,0.0408344,0.00799983,0.029122,1231,421,-0.11007,0.0135665
14,603,-0.0288086,0.0447693,0,0,0,0,0,0,0,-1,1238,421,-0.028832,-0.0447697
21,603,-0.0944824,-0.0207214,0.0120546,-0.00215733,-0.00164856,0.0122433,-0.00234605,-0.113982,0.00904621,0.0198467,1245,421,-0.0944275,0.0207078
28,603,-0.0544434,-0.0311279,0.0129428,9.99551e-05,-0.00292377,0.0135771,-0.000534332,-0.213632,0.00923469,0.0222956,1252,421,-0.0545016,0.0311373
35,603,-0.0263672,-0.0366516,0.0131712,0.00335863,-0.00446868,0.0149012,0.00162859,-0.369377,0.00943825,0.0304498,1259,421,-0.0263652,0.0366388
42,603,-0.0905762,-0.0455017,0.0139976,0.00867013,-0.00590235,0.0178095,0.00485829,-0.573429,0.0106303,0.0272068,1266,421,-0.0906144,0.0455061
49,603,-0.0905762,-0.0447388,0.0147631,0.0151598,-0.00620343,0.0211681,0.00875489,-0.80138,0.0122821,0.0152568,1273,421,-0.0905409,0.0447321
56,603,-0.110474,-0.0574036,0.014472,0.0210107,-0.00649932,0.0250167,0.0104661,-1.01843,0.0145074,0.0275229,1280,421,-0.110485,0.0574161
63,603,-0.181641,-0.0737,0.0132754,0.0268381,-0.00641969,0.0293948,0.0107187,-1.19179,0.0171772,0.0374866,1287,421,-0.181698,0.0737012
70,603,-0.00854492,-0.0704346,0.0124787,0.0318964,-0.00579308,0.0334934,0.0108817,-1.30181,0.0197287,0.0416875,1294,421,-0.00855912,0.0704431
77,603,0.193848,-0.143463,0.0123997,0.0363959,-0.00377202,0.0369749,0.0118208,-1.4185,0.0218052,0.0409691,1301,421,0.193901,0.143449
84,603,0.177734,0.0590515,0.0121828,0.0399256,-0.00128361,0.0399848,0.0121236,-1.52466,0.0236738,0.0432125,1308,421,0.177749,-0.059055
91,603,0.259277,0.03125,0.0118088,0.0401996,0.000881182,0.0402269,0.0117815,1.5398,0.02388,0.0448985,1315,421,0.259334,-0.0312652
98,603,0.203735,0.00665283,0.0110008,0.0396973,0.00232707,0.0398848,0.0108134,1.4904,0.0238182,0.0457526,1322,421,0.203753,-0.00665822
105,603,0.0667725,-0.00735474,0.0103652,0.0382224,0.0044587,0.0389186,0.00966894,1.41589,0.0233984,0.0400009,1329,421,0.0667477,0.00735006
112,603,0.0155029,-0.0687256,0.0094562,0.03593,0.00581658,0.0371516,0.0082346,1.36379,0.0225302,0.0301734,1336,421,0.0155294,0.0687372
119,603,-0.0437012,-0.0678711,0.0081863,0.0326554,0.00668188,0.0343612,0.00648056,1.32086,0.0210819,0.032617,1343,421,-0.0437423,0.0678601
126,603,-0.0738525,-0.0067749,0.006932,0.0285515,0.00674406,0.0304827,0.00500075,1.2919,0.018877,0.0391706,1350,421,-0.0737934,0.00677592
133,603,-0.0883789,0.00268555,0.00588617,0.0242476,0.00615557,0.0261203,0.00401354,1.27547,0.0162418,0.0320442,1357,421,-0.0884265,-0.00268648
140,603,-0.0623779,-0.0433044,0.004997,0.0201263,0.00540001,0.021856,0.00326735,1.26082,0.0136129,0.0200817,1364,421,-0.0623604,0.0433053
147,603,-0.0836182,-0.0735474,0.00403192,0.0150961,0.0043191,0.0165824,0.00254555,1.23935,0.0103117,0.0165415,1371,421,-0.0836285,0.0735572
154,603,-0.118164,-0.0603333,0.00240436,0.0108085,0.00214915,0.0113262,0.00188666,1.33441,0.00700712,0.0264739,1378,421,-0.118133,0.0603238
161,603,-0.114746,-0.0555725,0.00155007,0.00935952,0.00115575,0.00952698,0.00138262,1.42691,0.00594429,0.031143,1385,421,-0.114766,0.0555654
168,603,-0.0963135,-0.033905,0.00155513,0.00792786,0.000942058,0.0080642,0.00141879,1.42706,0.00497116,0.0283545,1392,421,-0.0963337,0.0339185
175,603,-0.0632324,-0.0254822,0.00127229,0.00727691,0.000730983,0.00736462,0.00118458,1.45138,0.00456639,0.0220441,1399,421,-0.0631879,0.0254942
182,603,-0.0537109,-0.0535583,0.000462154,0.00608875,-1.23799e-05,0.00608878,0.000462127,-1.5686,0.00391425,0.0173164,1406,421,-0.0536646,0.0535584
189,603,-0.0596924,-0.0285645,0.000301587,0.00494529,-0.000439595,0.00498653,0.00026034,-1.47724,0.00324106,0.0132006,1413,421,-0.0596995,0.0285597
196,603,-0.074585,-0.00973511,0.000585202,0.00622108,0.000197882,0.00622802,0.000578262,1.53574,0.00397331,0.0125378,1420,421,-0.074638,0.00972399
203,603,-0.0783691,-0.0360413,0.000693837,0.00608785,0.00114165,0.00631953,0.000462156,1.37058,0.00406773,0.00821902,1427,421,-0.078391,0.036028
210,603,-0.0756836,-0.0450134,0.000691086,0.00573525,0.00134483,0.0060714,0.000354938,1.32586,0.00393463,0.00825659,1434,421,-0.0756799,0.0450263
217,603,-0.0693359,-0.0384521,0.000691135,0.00546763,0.00145374,0.00587529,0.000283479,1.2974,0.00382587,0.0115832,1441,421,-0.0692829,0.0384637
224,603,-0.0806885,-0.0343323,0.000711158,0.00529938,0.00127652,0.00563062,0.000379924,1.31691,0.00363373,0.0145761,1448,421,-0.080742,0.0343194
231,603,-0.0977783,-0.0309143,0.000816621,0.00511698,0.00115707,0.00540854,0.000525062,1.32395,0.00344404,0.013164,1455,421,-0.097737,0.0309015
238,603,-0.0946045,-0.0315247,0.000959538,0.00487555,0.00105985,0.005144,0.000691095,1.32273,0.00322375,0.0102646,1462,421,-0.0945985,0.0315112
245,603,-0.0748291,-0.0331116,0.00109134,0.0045862,0.000995372,0.00484981,0.000827727,1.31191,0.00299566,0.0111293,1469,421,-0.0747925,0.033119
252,603,-0.0635986,-0.0265503,0.00116105,0.00415767,0.00103668,0.00448135,0.000837371,1.26816,0.00275125,0.00969137,1476,421,-0.0636331,0.0265564
259,603,-0.074707,-0.0275879,0.00115247,0.0036229,0.00106226,0.00401684,0.000758536,1.21567,0.00246428,0.00944958,1483,421,-0.0747579,0.027593
266,603,-0.09729,-0.0315552,0.00109914,0.00323034,0.0010557,0.00366474,0.000664736,1.18043,0.00225449,0.010702,1490,421,-0.0973249,0.0315602
273,603,-0.101563,-0.0449219,0.0010598,0.00294287,0.00116709,0.00350086,0.000501809,1.12482,0.00218592,0.00937925,1497,421,-0.101516,0.0449327
280,603,-0.0876465,-0.0369568,0.00102057,0.00261004,0.00130837,0.00334613,0.000284481,1.05833,0.00214223,0.0105854,1504,421,-0.0876443,0.0369576
287,603,-0.0772705,-0.0374756,0.00107166,0.0020914,0.00138966,0.00306178,0.00010129,0.961224,0.00200827,0.0102549,1511,421,-0.0773309,0.0374756
294,603,-0.0875244,-0.0516663,0.00108434,0.0016872,0.00145993,0.0028765,-0.000104959,0.887201,0.00195359,0.00918223,1518,421,-0.0875485,0.0516697
301,603,-0.0866699,-0.0431213,0.00088807,0.0015984,0.00143408,0.00272065,-0.000234172,0.906787,0.00189665,0.0109005,1525,421,-0.0866257,0.0431366
308,603,-0.0599365,-0.0517578,0.000908758,0.00109406,0.00116519,0.00217028,-0.000167456,0.825073,0.00150578,0.0153083,1532,421,-0.059943,0.0517448
315,603,-0.0543213,-0.0707397,0.00127565,0.000574269,0.000998955,0.00198368,-0.000133763,0.616589,0.00136922,0.0140341,1539,421,-0.0542751,0.0707441
322,603,-0.0614014,-0.0549316,0.00169916,-0.000169973,0.000935907,0.00208722,-0.000558031,0.393057,0.00161006,0.0131522,1546,421,-0.0614422,0.0549427
329,603,-0.0858154,-0.0297241,0.00185752,-0.000963796,0.00103068,0.00219393,-0.00130021,0.315496,0.00203922,0.0095509,1553,421,-0.0858729,0.029735
336,603,-0.0836182,-0.030304,0.00165762,-0.00195987,0.00157406,0.00224663,-0.00254888,0.358067,0.00277052,0.00866209,1560,421,-0.0836754,0.0302957
343,603,-0.0803223,-0.0476074,0.00138762,-0.00234161,0.00210013,0.00233145,-0.00328543,0.422365,0.00325846,0.0105823,1567,421,-0.080375,0.0476173
350,603,-0.0865479,-0.0563049,0.00124079,-0.00279214,0.00216927,0.00218606,-0.00373741,0.410944,0.00345879,0.0115605,1574,421,-0.0865716,0.0563118
357,603,-0.0776367,-0.0456543,0.00100898,-0.00292452,0.00235709,0.00211209,-0.00402762,0.437716,0.00360181,0.0109847,1581,421,-0.0776796,0.0456405
364,603,-0.0701904,-0.0376587,0.000760697,-0.00303793,0.00284281,0.00228029,-0.00455753,0.490897,0.00402013,0.0120685,1588,421,-0.0701546,0.0376467
371,603,-0.0548096,-0.038147,0.000532731,-0.00286081,0.00319201,0.00245093,-0.00477901,0.541107,0.00424573,0.0173582,1595,421,-0.0548019,0.0381327
378,603,-0.0227051,-0.0175476,-0.0001611,-0.00198295,0.00342542,0.00247245,-0.0046165,0.655441,0.00415474,0.0277579,1602,421,-0.0226794,0.0175452
385,603,-0.0184326,0.0695801,-0.00112824,-0.000950548,0.0034474,0.00240915,-0.00448794,0.798282,0.00404187,0.0396351,1609,421,-0.0184703,-0.069579
392,603,-0.110718,0.343567,-0.00153079,0.000618403,0.00325283,0.00296954,-0.00388193,0.944933,0.00396737,0.0435355,1616,421,-0.11067,-0.343578
399,603,-0.461548,0.252167,-0.00205447,0.00236928,0.00288316,0.00379127,-0.00347646,1.1126,0.00419734,0.0442626,1623,421,-0.461548,-0.252154
406,603,-0.424194,-0.143311,-0.00215595,0.0040523,0.00243887,0.00489579,-0.00299944,1.23782,0.00460193,0.0437872,1630,421,-0.424166,0.143319
413,603,-0.337769,-0.0987549,-0.0021555,0.00683696,0.00197965,0.00725348,-0.00257201,1.36342,0.00588347,0.0429592,1637,421,-0.337755,0.0987467
420,603,-0.0174561,-0.0612793,-0.00249143,0.0107288,0.00125286,0.0108465,-0.00260911,1.47714,0.00823954,0.0440644,1644,421,-0.0174297,0.0612851
427,603,0.203857,-0.0276794,-0.00305775,0.0136859,0.000485394,0.0136999,-0.00307181,1.54184,0.0103109,0.0437522,1651,421,0.203807,0.0276715
434,603,-0.71875,0.303467,-0.00284544,0.0170269,-0.000628651,0.0170467,-0.00286531,-1.5392,0.0124302,0.0398971,1658,421,-0.71876,-0.303473
441,603,-0.820313,0.513641,0,0,0,0,0,0,0,-1,1665,421,-0.820351,-0.51365
448,603,-0.105713,0.35788,0,0,0,0,0,0,0,-1,1672,421,-0.105669,-0.357865
455,603,0,0,0,0,0,0,0,0,0,-1,1679,421,0,0
462,603,0,0,0,0,0,0,0,0,0,-1,1686,421,0,0
469,603,0,0,0,0,0,0,0,0,0,-1,1693,421,0,0
476,603,0,0,0,0,0,0,0,0,0,-1,1700,421,0,0
483,603,0,0,0,0,0,0,0,0,0,-1,1707,421,0,0
490,603,0,0,0,0,0,0,0,0,0,-1,1714,421,0,0
497,603,0,0,0,0,0,0,0,0,0,-1,1721,421,0,0
504,603,0,0,0,0,0,0,0,0,0,-1,1728,421,0,0
511,603,0,0,0,0,0,0,0,0,0,-1,1735,421,0,0
518,603,0,0,0,0,0,0,0,0,0,-1,1742,421,0,0
525,603,0,0,0,0,0,0,0,0,0,-1,1749,421,0,0
532,603,0,0,0,0,0,0,0,0,0,-1,1756,421,0,0
539,603,0,0,0,0,0,0,0,0,0,-1,1763,421,0,0
546,603,0,0,0,0,0,0,0,0,0,-1,1770,421,0,0
553,603,0,0,0,0,0,0,0,0,0,-1,1777,421,0,0
560,603,0,0,0,0,0,0,0,0,0,-1,1784,421,0,0
567,603,0,0,0,0,0,0,0,0,0,-1,1791,421,0,0
574,603,0,0,0,0,0,0,0,0,0,-1,1798,421,0,0
581,603,0,0,0,0,0,0,0,0,0,-1,1805,421,0,0
588,603,0,0,0,0,0,0,0,0,0,-1,1812,421,0,0
595,603,0,0,0,0,0,0,0,0,0,-1,1819,421,0,0
602,603,0,0,0,0,0,0,0,0,0,-1,1826,421,0,0
609,603,0,0,0,0,0,0,0,0,0,-1,1833,421,0,0
616,603,0,0,0,0,0,0,0,0,0,-1,1840,421,0,0
623,603,0,0,0,0,0,0,0,0,0,-1,1847,421,0,0
630,603,0,0,0,0,0,0,0,0,0,-1,1854,421,0,0
637,603,0,0,0,0,0,0,0,0,0,-1,1861,421,0,0
644,603,0,0,0,0,0,0,0,0,0,-1,1868,421,0,0
651,603,0,0,0,0,0,0,0,0,0,-1,1875,421,0,0
658,603,0,0,0,0,0,0,0,0,0,-1,1882,421,0,0
665,603,0,0,0,0,0,0,0,0,0,-1,1889,421,0,0
672,603,0,0,0,0,0,0,0,0,0,-1,1896,421,0,0
679,603,0,0,0,0,0,0,0,0,0,-1,1903,421,0,0
686,603,0,0,0,0,0,0,0,0,0,-1,1910,421,0,0
693,603,0,0,0,0,0,0,0,0,0,-1,1917,421,0,0
700,603,0,0,0,0,0,0,0,0,0,-1,1924,421,0,0
707,603,0,0,0,0,0,0,0,0,0,-1,1931,421,0,0
714,603,0,0,0,0,0,0,0,0,0,-1,1938,421,0,0
721,603,0,0,0,0,0,0,0,0,0,-1,1945,421,0,0
728,603,0,0,0,0,0,0,0,0,0,-1,1952,421,0,0
735,603,0,0,0,0,0,0,0,0,0,-1,1959,421,0,0
742,603,0,0,0,0,0,0,0,0,0,-1,1966,421,0,0
749,603,0,0,0,0,0,0,0,0,0,-1,1973,421,0,0
756,603,0,0,0,0,0,0,0,0,0,-1,1980,421,0,0
763,603,0,0,0,0,0,0,0,0,0,-1,1987,421,0,0
770,603,0,0,0,0,0,0,0,0,0,-1,1994,421,0,0
777,603,0,0,0,0,0,0,0,0,0,-1,2001,421,0,0
784,603,0,0,0,0,0,0,0,0,0,-1,2008,421,0,0
791,603,0,0,0,0,0,0,0,0,0,-1,2015,421,0,0
798,603,0,0,0,0,0,0,0,0,0,-1,2022,421,0,0
805,603,0,0,0,0,0,0,0,0,0,-1,2029,421,0,0
812,603,0,0,0,0,0,0,0,0,0,-1,2036,421,0,0
-700,596,0,0,0,0,0,0,0,0,0,-1,524,428,0,0
-693,596,0,0,0,0,0,0,0,0,0,-1,531,428,0,0
-686,596,0,0,0,0,0,0,0,0,0,-1,538,428,0,0
-679,596,0,0,0,0,0,0,0,0,0,-1,545,428,0,0
-672,596,0,0,0,0,0,0,0,0,0,-1,552,428,0,0
-665,596,0,0,0,0,0,0,0,0,0,-1,559,428,0,0
-658,596,0,0,0,0,0,0,0,0,0,-1,566,428,0,0
-651,596,0,0,0,0,0,0,0,0,0,-1,573,428,0,0
-644,596,0,0,0,0,0,0,0,0,0,-1,580,428,0,0
-637,596,0,0,0,0,0,0,0,0,0,-1,587,428,0,0
-630,596,0,0,0,0,0,0,0,0,0,-1,594,428,0,0
-623,596,0,0,0,0,0,0,0,0,0,-1,601,428,0,0
-616,596,0,0,0,0,0,0,0,0,0,-1,608,428,0,0
-609,596,0,0,0,0,0,0,0,0,0,-1,615,428,0,0
-602,596,0,0,0,0,0,0,0,0,0,-1,622,428,0,0
-595,596,0,0,0,0,0,0,0,0,0,-1,629,428,0,0
-588,596,0,0,0,0,0,0,0,0,0,-1,636,428,0,0
-581,596,0,0,0,0,0,0,0,0,0,-1,643,428,0,0
-574,596,0,0,0,0,0,0,0,0,0,-1,650,428,0,0
-567,596,0,0,0,0,0,0,0,0,0,-1,657,428,0,0
-560,596,0,0,0,0,0,0,0,0,0,-1,664,428,0,0
-553,596,0,0,0,0,0,0,0,0,0,-1,671,428,0,0
-546,596,0,0,0,0,0,0,0,0,0,-1,678,428,0,0
-539,596,0,0,0,0,0,0,0,0,0,-1,685,428,0,0
-532,596,0,0,0,0,0,0,0,0,0,-1,692,428,0,0
-525,596,0,0,0,0,0,0,0,0,0,-1,699,428,0,0
-518,596,0,0,0,0,0,0,0,0,0,-1,706,428,0,0
-511,596,0,0,0,0,0,0,0,0,0,-1,713,428,0,0
-504,596,0,0,0,0,0,0,0,0,0,-1,720,428,0,0
-497,596,0,0,0,0,0,0,0,0,0,-1,727,428,0,0
-490,596,0,0,0,0,0,0,0,0,0,-1,734,428,0,0
-483,596,0,0,0,0,0,0,0,0,0,-1,741,428,0,0
-476,596,0,0,0,0,0,0,0,0,0,-1,748,428,0,0
-469,596,0,0,0,0,0,0,0,0,0,-1,755,428,0,0
-462,596,0,0,0,0,0,0,0,0,0,-1,762,428,0,0
-455,596,0,0,0,0,0,0,0,0,0,-1,769,428,0,0
-448,596,0,0,0,0,0,0,0,0,0,-1,776,428,0,0
-441,596,0,0,0,0,0,0,0,0,0,-1,783,428,0,0
-434,596,0,0,0,0,0,0,0,0,0,-1,790,428,0,0
-427,596,0,0,0,0,0,0,0,0,0,-1,797,428,0,0
-420,596,0,0,0,0,0,0,0,0,0,-1,804,428,0,0
-413,596,0,0,0,0,0,0,0,0,0,-1,811,428,0,0
-406,596,0,0,0,0,0,0,0,0,0,-1,818,428,0,0
-399,596,0,0,0,0,0,0,0,0,0,-1,825,428,0,0
-392,596,0,0,0,0,0,0,0,0,0,-1,832,428,0,0
-385,596,0,0,0,0,0,0,0,0,0,-1,839,428,0,0
-378,596,0,0,0,0,0,0,0,0,0,-1,846,428,0,0
-371,596,0,0,0,0,0,0,0,0,0,-1,853,428,0,0
-364,596,0,0,0,0,0,0,0,0,0,-1,860,428,0,0
-357,596,0,0,0,0,0,0,0,0,0,-1,867,428,0,0
-350,596,0,0,0,0,0,0,0,0,0,-1,874,428,0,0
-343,596,0,0,0,0,0,0,0,0,0,-1,881,428,0,0
-336,596,-4.80371,-1.04868,0,0,0,0,0,0,0,-1,888,428,-4.80372,1.04868
-329,596,-4.86414,-0.522125,0,0,0,0,0,0,0,-1,895,428,-4.86415,0.522112
-322,596,-5.16193,-0.363434,0.0348245,0.0612708,0.0125509,0.0662788,0.0298164,1.19114,0.0383301,0.0424345,902,428,-5.1619,0.363444
-315,596,-5.37482,-0.195282,0.0388984,0.0526421,0.00933619,0.0573628,0.0341778,1.10265,0.0333205,0.0466592,909,428,-5.37483,0.195272
-308,596,-1.07355,0.351318,0,0,0,0,0,0,0,-1,916,428,-1.07353,-0.351319
-301,596,-0.515076,0.383423,0.0401329,0.040006,0.00208396,0.0421544,0.0379845,0.77019,0.0268212,0.0441198,923,428,-0.515054,-0.383425
-294,596,-0.694275,0.653229,0.037777,0.0349469,-0.000701542,0.0379413,0.0347825,-0.230131,0.0243098,0.0442611,930,428,-0.694247,-0.653215
-287,596,-0.362122,0.832581,0.0352644,0.0274383,-0.00086595,0.035359,0.0273437,-0.108895,0.0214071,0.0460534,937,428,-0.362115,-0.832583
-280,596,-0.390564,0.201111,0.0319178,0.0226024,-0.00234605,0.0324752,0.0220449,-0.233298,0.0191451,0.0478845,944,428,-0.390537,-0.201122
-273,596,-0.238953,0.218018,0.0255184,0.0215,-0.00465,0.0285747,0.0184437,-0.581471,0.0167287,0.0401888,951,428,-0.238976,-0.218015
-266,596,-0.0366211,0.255035,0.0202556,0.0186712,-0.0048974,0.0244245,0.0145023,-0.705218,0.0141839,0.0352841,958,428,-0.0366423,-0.25503
-259,596,-0.0340576,0.0908203,0.0171879,0.0162325,-0.00496301,0.0216961,0.0117242,-0.737419,0.0125399,0.0304361,965,428,-0.0340826,-0.0908212
-252,596,-0.0939941,-0.00811768,0.0139179,0.0134646,-0.00445961,0.0181566,0.00922587,-0.76001,0.0104832,0.0151338,972,428,-0.093967,0.00813105
-245,596,-0.0878296,-0.0320435,0.0110266,0.0108622,-0.00311303,0.0140585,0.00783029,-0.7722,0.00813424,0.0108245,979,428,-0.0878287,0.0320523
-238,596,-0.0822144,-0.0371399,0.00803869,0.00922869,-0.00225678,0.0109676,0.00629979,-0.914289,0.00635546,0.00994853,986,428,-0.0822332,0.0371258
-231,596,-0.0822754,-0.0387268,0.00519815,0.00766947,-0.0012528,0.00819346,0.00467416,-1.17465,0.00474614,0.0126947,993,428,-0.0822975,0.038727
-224,596,-0.0786743,-0.0531921,0.00323999,0.00648844,-0.000862938,0.00670345,0.00302499,-1.32661,0.00387636,0.0126598,1000,428,-0.0786662,0.0531918
-217,596,-0.0636597,-0.0640259,0.00171342,0.00559492,-0.000869784,0.00578091,0.00152743,-1.36013,0.0034591,0.0131743,1007,428,-0.0636813,0.0640355
-210,596,-0.0655518,-0.0468445,0.000381099,0.00478662,-0.00089663,0.00496211,0.000205604,-1.37751,0.00324171,0.0109657,1014,428,-0.0655217,0.0468351
-203,596,-0.0788574,-0.0456543,-0.00051255,0.00405795,-0.000872597,0.00421888,-0.000673479,-1.38842,0.00306187,0.012227,1021,428,-0.0788861,0.0456472
-196,596,-0.0684814,-0.0544128,-0.000550358,0.00365529,-0.000553962,0.00372704,-0.000622101,-1.442,0.00271591,0.0123335,1028,428,-0.0685172,0.0544154
-189,596,-0.0842285,-0.0654297,-0.000422679,0.00322421,-0.000290219,0.00324717,-0.00044563,-1.49188,0.00232758,0.0102473,1035,428,-0.0842583,0.0654219
-182,596,-0.0895996,-0.0606384,-0.000285404,0.00260406,-1.95808e-05,0.00260419,-0.000285537,-1.56402,0.00183871,0.010633,1042,428,-0.089574,0.0606238
-175,596,-0.0906982,-0.067749,-0.000373021,0.00207662,0.000236572,0.00209925,-0.000395658,1.4754,0.00154833,0.0121173,1049,428,-0.090719,0.0677413
-168,596,-0.101074,-0.0517578,-0.00035574,0.00160008,0.000647125,0.0017948,-0.000550468,1.2785,0.00141615,0.0141993,1056,428,-0.101055,0.0517716
-161,596,-0.0891113,-0.0205383,-5.89267e-05,0.00131425,0.000956183,0.00180482,-0.000549491,1.09677,0.00142221,0.0130755,1063,428,-0.0891182,0.0205514
-154,596,-0.103882,-0.025238,0.000203127,0.00109878,0.00116814,0.00190199,-0.000600088,0.96844,0.00150835,0.0105989,1070,428,-0.103942,0.0252347
-147,596,-0.0836182,-0.0312805,0.000459858,0.000937705,0.00122811,0.00194992,-0.000552358,0.881471,0.00151794,0.0110464,1077,428,-0.0835893,0.031291
-140,596,-0.0633545,-0.0239258,0.000909824,0.000738637,0.00110156,0.00192911,-0.000280653,0.746625,0.00138911,0.0121199,1084,428,-0.0634041,0.0239382
-133,596,-0.071167,-0.0276794,0.00121054,0.000446733,0.00100458,0.00190336,-0.000246093,0.603755,0.00135839,0.012522,1091,428,-0.0711197,0.0276729
-126,596,-0.0860596,-0.0188599,0.00132702,0.000317045,0.000855026,0.00181505,-0.000170984,0.518655,0.00127087,0.0100933,1098,428,-0.0860913,0.0188732
-119,596,-0.079834,-0.0277405,0.00144441,0.000188321,0.000648259,0.00171896,-8.62307e-05,0.400618,0.00117577,0.0122769,1105,428,-0.0798621,0.0277296
-112,596,-0.085083,-0.0328064,0.00152142,0.000231752,0.000483403,0.00168249,7.06765e-05,0.321641,0.00109886,0.0134461,1112,428,-0.0850909,0.0328068
-105,596,-0.0806885,-0.0324707,0.00144656,0.000118917,0.000303883,0.00151281,5.26676e-05,0.214652,0.000991451,0.0136228,1119,428,-0.0806292,0.0324807
-98,596,-0.0722656,-0.0284424,0.00121259,5.18936e-05,0.000100587,0.00122125,4.32413e-05,0.0858078,0.00080014,0.00881818,1126,428,-0.0723133,0.0284416
-91,596,-0.0662842,-0.0367126,0.000930351,0.000204776,-7.83897e-05,0.000938724,0.000196404,-0.106402,0.000571706,0.00818476,1133,428,-0.0662899,0.0367103
-84,596,-0.0662842,-0.0504761,0.000822037,0.000637808,-0.000154333,0.000909655,0.00055019,-0.516345,0.000529023,0.0124647,1140,428,-0.0663241,0.0504794
-77,596,-0.0715332,-0.0608215,0.000923313,0.00141247,-0.000146868,0.00145317,0.000882604,-1.3004,0.000845413,0.0129901,1147,428,-0.0715563,0.0608362
-70,596,-0.0863037,-0.0506592,0.00120474,0.00205013,0.000116988,0.00206602,0.00118885,1.43579,0.00119734,0.0129321,1154,428,-0.0862704,0.0506696
-63,596,-0.0882568,-0.0549622,0.000205676,0.00307242,-2.57556e-05,0.00307265,0.000205445,-1.56181,0.0019835,0.0168193,1161,428,-0.0882943,0.0549563
-56,596,-0.0748291,-0.0791626,-0.000660251,0.00439263,0.000162157,0.00439783,-0.00066545,1.53875,0.00317702,0.0184751,1168,428,-0.0748016,0.0791747
-49,596,-0.0800781,-0.0689697,-0.000734587,0.00489709,0.000573794,0.00495495,-0.000792455,1.47029,0.00359667,0.0202299,1175,428,-0.0800523,0.0689724
-42,596,-0.0864258,-0.0267334,-0.000306196,0.00472405,0.000885157,0.00487526,-0.000457409,1.4016,0.00341288,0.0241973,1182,428,-0.0864581,0.0267298
-35,596,-0.130371,0.0271912,0.000308972,0.00419719,0.00112117,0.00449731,8.85082e-06,1.30924,0.00299526,0.0292998,1189,428,-0.130412,-0.027203
-28,596,-0.185181,0.0610352,0.0013114,0.00306327,0.000958009,0.00348542,0.000889242,1.15574,0.0020912,0.0362922,1196,428,-0.185151,-0.0610446
-21,596,-0.184204,0.13443,0.00280655,0.00194359,0.00122886,0.00367748,0.00107265,0.616562,0.00218376,0.0378484,1203,428,-0.184217,-0.134443
-14,596,-0.00488281,0.29248,0.00428537,0.000648191,0.00166039,0.00492933,4.22914e-06,0.369978,0.00328481,0.0426858,1210,428,-0.00490031,-0.292476
-7,596,-0.0233154,0.305206,0.00665108,-0.000277674,0.00239382,0.00739767,-0.00102427,0.302324,0.00530626,0.0463032,1217,428,-0.0233131,-0.305194
0,596,-0.123047,0.345886,0.00893543,-0.000590925,0.00169871,0.00922927,-0.000884769,0.171286,0.00646797,0.0457774,1224,428,-0.123061,-0.34589
7,596,0.0541992,0.489258,0.0110681,-0.000689341,0.00052576,0.0110915,-0.000712804,0.0445987,0.00764304,0.0414342,1231,428,0.0541941,-0.489261
14,596,0.362427,0.44342,0.0134086,-5.77843e-05,-0.000955131,0.013476,-0.000125191,-0.070457,0.00902603,0.0414091,1238,428,0.362466,-0.443413
21,596,0.285889,0.392731,0.0152062,0.00149942,-0.00260193,0.0156835,0.00102212,-0.181424,0.0101321,0.0426312,1245,428,0.285885,-0.392726
28,596,-0.246216,-0.0982361,0.0163444,0.00357135,-0.00446283,0.0177491,0.00216655,-0.304957,0.0111808,0.0412474,1252,428,-0.246229,0.0982288
35,596,-0.230469,-0.161194,0.0165966,0.00686676,-0.00663361,0.019958,0.00350536,-0.469012,0.0123044,0.0430411,1259,428,-0.230483,0.161204
42,596,-0.264526,-0.137726,0.017764,0.0126338,-0.00858205,0.0241561,0.00624171,-0.640179,0.0144791,0.045426,1266,428,-0.264515,0.137731
49,596,-0.386841,0.0093689,0.0187596,0.0198978,-0.00899925,0.0283459,0.0103115,-0.816977,0.0165668,0.0427261,1273,428,-0.386876,-0.00937269
56,596,-0.409424,0.0581055,0.0181214,0.0270486,-0.00921818,0.032827,0.012343,-1.01087,0.019146,0.0411354,1280,428,-0.409469,-0.0580914
63,596,-0.419189,0.0325317,0.0164307,0.0342243,-0.00877392,0.0378228,0.0128321,-1.18157,0.0222099,0.0464624,1287,428,-0.419149,-0.0325168
70,596,0.308838,-0.284637,0.0153752,0.0406067,-0.007545,0.0426907,0.0132911,-1.3013,0.0252256,0.0442997,1294,428,0.308788,0.284645
77,596,0.70166,-0.381927,0.0154839,0.0464337,-0.00408007,0.0469625,0.014955,-1.4419,0.0277032,0.0419853,1301,428,0.701628,0.381937
84,596,0.651855,-0.269928,0.0159358,0.0540857,0.00082498,0.0541036,0.015918,1.54919,0.0321065,0.0414991,1308,428,0.651836,0.269921
91,596,0.689331,-0.2164,0.0164225,0.0559858,0.00474805,0.0565476,0.0158606,1.45301,0.0336803,0.0411767,1315,428,0.689306,0.216392
98,596,0.692017,-0.168396,0.0161853,0.0571556,0.00733982,0.0584308,0.0149101,1.39877,0.0350572,0.0487184,1322,428,0.692067,0.16839
105,596,0.713501,-0.123932,0,0,0,0,0,0,0,-1,1329,428,0.713481,0.12392
112,596,0.425781,0.308563,0.0159301,0.0564489,0.0131256,0.0603292,0.0120499,1.28336,0.0368652,0.0401895,1336,428,0.425744,-0.308561
119,596,0.130493,0.312897,0.0151239,0.0543329,0.0146666,0.059212,0.0102448,1.24965,0.0365416,0.0436599,1343,428,0.130484,-0.3129
126,596,0.020752,0.127716,0.0142591,0.0507017,0.0148871,0.05601,0.00895082,1.22828,0.0347429,0.0472501,1350,428,0.020797,-0.12773
133,596,0.000610352,0.0668335,0.0133661,0.0462549,0.014012,0.0514151,0.00820602,1.21794,0.0318952,0.0458995,1357,428,0.000623947,-0.0668329
140,596,-0.029541,0.0127563,0.012497,0.041676,0.0127694,0.046475,0.00769804,1.21131,0.0287628,0.0423029,1364,428,-0.0295819,-0.012755
147,596,0.0340576,0.0212708,0.0110947,0.0350749,0.010771,0.0392024,0.00696724,1.20485,0.0241499,0.0399594,1371,428,0.0340762,-0.0212567
154,596,-0.0943604,0.0195007,0.00850486,0.0285198,0.00730968,0.0309051,0.00611955,1.25537,0.0188968,0.0437583,1378,428,-0.0943279,-0.0194881
161,596,-0.17688,-0.0257263,0.00665206,0.0244173,0.00512727,0.0257909,0.00527847,1.30904,0.0157324,0.0431079,1385,428,-0.176871,0.0257412
168,596,-0.240967,0.00283813,0.00572126,0.0201484,0.00380568,0.0210908,0.00477892,1.32807,0.0127692,0.0380595,1392,428,-0.241006,-0.00285117
175,596,-0.134033,-0.0131531,0.00427971,0.0165921,0.00247676,0.0170716,0.00380016,1.37954,0.0103496,0.0267662,1399,428,-0.134065,0.01316
182,596,-0.103394,-0.045166,0.00221837,0.0129049,0.000334349,0.0129154,0.00220792,1.53955,0.00797679,0.0239136,1406,428,-0.103358,0.0451737
189,596,-0.0861816,-0.0277405,0.000833845,0.00729872,-0.00178365,0.00775817,0.000374392,-1.31869,0.00505194,0.0219568,1413,428,-0.0862097,0.0277472
196,596,-0.0432129,0.03302,0.000497253,0.00888723,-0.00109523,0.00902784,0.000356639,-1.44311,0.00590327,0.0193889,1420,428,-0.0432171,-0.0330082
203,596,-0.0297852,-0.006073,0.000597831,0.00866417,0.00045468,0.00868972,0.000572283,1.51467,0.00561212,0.0127139,1427,428,-0.029819,0.00607543
210,596,-0.0754395,-0.0310059,0.000672069,0.00819252,0.000721905,0.00826119,0.000603399,1.47596,0.00531775,0.0108595,1434,428,-0.0754267,0.0310177
217,596,-0.0875244,-0.0187683,0.000765406,0.00784685,0.000882287,0.00795512,0.000657136,1.44869,0.0050985,0.00984072,1441,428,-0.0875535,0.0187674
224,596,-0.083252,-0.0354919,0.000865335,0.00758919,0.00068028,0.00765732,0.000797198,1.47097,0.00486099,0.010185,1448,428,-0.0832502,0.03548
231,596,-0.0859375,-0.0424805,0.00105012,0.00730396,0.000591387,0.00735939,0.000994687,1.47734,0.00461061,0.0105884,1455,428,-0.0859012,0.0424832
238,596,-0.0789795,-0.0400391,0.00125814,0.00687451,0.000561854,0.00693017,0.00120248,1.47206,0.00427602,0.0131086,1462,428,-0.0789506,0.0400287
245,596,-0.0692139,-0.038208,0.00141376,0.00629139,0.000573968,0.00635802,0.00134713,1.45523,0.00386863,0.0121384,1469,428,-0.0692561,0.0382171
252,596,-0.0633545,-0.0369263,0.0015125,0.0055114,0.000684182,0.00562522,0.00139868,1.40595,0.00338175,0.00920531,1476,428,-0.0633104,0.0369343
259,596,-0.0679932,-0.0391541,0.00151444,0.00466239,0.000803338,0.00485555,0.00132129,1.33483,0.00289878,0.00796243,1483,428,-0.0680082,0.039156
266,596,-0.0936279,-0.0328064,0.00143011,0.00393209,0.000900391,0.00422242,0.00113977,1.25887,0.00252237,0.00924526,1490,428,-0.0936407,0.0327921
273,596,-0.0953369,-0.0321655,0.00133427,0.00329229,0.0011221,0.00380243,0.000824127,1.1441,0.00230978,0.0102828,1497,428,-0.0953699,0.0321798
280,596,-0.0933838,-0.0320129,0.00125734,0.00262286,0.00136008,0.00346194,0.000418268,1.01802,0.00218194,0.011115,1504,428,-0.0933518,0.032007
287,596,-0.0871582,-0.0462952,0.00126172,0.00179771,0.00149126,0.00304486,1.45694e-05,0.874305,0.00202507,0.0107309,1511,428,-0.0872083,0.0463104
294,596,-0.10498,-0.0517883,0.00116261,0.00119833,0.00153113,0.0027117,-0.000350769,0.791229,0.00193535,0.00877287,1518,428,-0.10504,0.0517804
301,596,-0.102661,-0.0430908,0.000886351,0.00100165,0.00144114,0.00238629,-0.000498288,0.80539,0.00178035,0.0100157,1525,428,-0.102617,0.0431009
308,596,-0.0908203,-0.0344849,0.000856485,0.00054719,0.0011425,0.00185476,-0.000451082,0.718128,0.00141111,0.0153208,1532,428,-0.0908329,0.0344904
315,596,-0.0869141,-0.0397644,0.00109318,0.000228977,0.000954055,0.00170843,-0.000386267,0.572762,0.00128717,0.0149425,1539,428,-0.0869107,0.039767
322,596,-0.079834,-0.0326233,0.00142985,-0.000258401,0.000844801,0.00177998,-0.000608527,0.392899,0.00143322,0.0115754,1546,428,-0.0797968,0.0326102
329,596,-0.0952148,-0.0350647,0.00152746,-0.000764057,0.000893932,0.00183493,-0.00107153,0.331279,0.00169723,0.00894533,1553,428,-0.0951855,0.0350764
336,596,-0.102295,-0.0504456,0.00132589,-0.00147652,0.00129458,0.00183238,-0.00198301,0.372933,0.00220339,0.00853381,1560,428,-0.102271,0.0504306
343,596,-0.0799561,-0.0630798,0.00105742,-0.00167213,0.00165886,0.00184077,-0.00245547,0.441177,0.00248888,0.0109544,1567,428,-0.0799718,0.0630886
350,596,-0.0688477,-0.0622253,0.000897758,-0.00190955,0.00165007,0.00166043,-0.00267222,0.432959,0.00252409,0.0115356,1574,428,-0.0688725,0.0622382
357,596,-0.0621338,-0.050293,0.000643817,-0.00193894,0.0017441,0.00152258,-0.00281771,0.466725,0.00254278,0.00904668,1581,428,-0.0620767,0.0503071
364,596,-0.0748291,-0.0439758,0.000399968,-0.00199523,0.00204945,0.00157608,-0.00317133,0.520981,0.00279202,0.00814411,1588,428,-0.0748058,0.0439849
371,596,-0.0734863,-0.0334473,0.000190408,-0.00174899,0.0022222,0.00164527,-0.00320385,0.579667,0.00284744,0.00845095,1595,428,-0.0735269,0.0334455
378,596,-0.0577393,-0.0283813,-0.000392379,-0.000954695,0.0023466,0.00168985,-0.00303692,0.725775,0.0027657,0.0119998,1602,428,-0.0577453,0.0283762
385,596,-0.0600586,-0.0105591,-0.00114554,-4.25043e-05,0.00232426,0.00179478,-0.00298282,0.901887,0.00278663,0.0201256,1609,428,-0.0601183,0.0105596
392,596,-0.141479,0.0613098,-0.00134641,0.00124574,0.00217788,0.00248402,-0.00258469,1.05381,0.00292662,0.0291862,1616,428,-0.141506,-0.0613061
399,596,-0.258911,0.0736389,-0.0015983,0.00270845,0.00197469,0.00347679,-0.00236664,1.19973,0.00339394,0.0353065,1623,428,-0.258956,-0.0736352
406,596,-0.308228,0.0299072,-0.00152109,0.00420624,0.00169698,0.00467129,-0.00198614,1.30332,0.00394651,0.0417911,1630,428,-0.308288,-0.0299036
413,596,-0.339966,0.157867,-0.00133116,0.00661717,0.00144475,0.00687163,-0.00158563,1.39646,0.00519099,0.0447368,1637,428,-0.339948,-0.157859
420,596,-0.0882568,0.171692,0,0,0,0,0,0,0,-1,1644,428,-0.08827,-0.171677
427,596,-0.182251,0.065155,-0.00156871,0.0128206,0.000644788,0.0128494,-0.00159754,1.52611,0.00914543,0.0441185,1651,428,-0.182268,-0.0651592
434,596,-0.259033,0.373352,-0.00114041,0.0159504,-0.00016378,0.0159519,-0.00114198,-1.56121,0.011035,0.042473,1658,428,-0.25909,-0.373349
441,596,-0.12085,0.494598,-0.000552856,0.0198632,-0.00187361,0.0200337,-0.000723376,-1.48003,0.0136033,0.0423113,1665,428,-0.120817,-0.494587
448,596,0.288086,0.425262,0,0,0,0,0,0,0,-1,1672,428,0.288055,-0.425274
455,596,0.110107,1.21097,0,0,0,0,0,0,0,-1,1679,428,0.110072,-1.21097
462,596,0,0,0,0,0,0,0,0,0,-1,1686,428,0,0
469,596,0,0,0,0,0,0,0,0,0,-1,1693,428,0,0
476,596,0,0,0,0,0,0,0,0,0,-1,1700,428,0,0
483,596,0,0,0,0,0,0,0,0,0,-1,1707,428,0,0
490,596,0,0,0,0,0,0,0,0,0,-1,1714,428,0,0
497,596,0,0,0,0,0,0,0,0,0,-1,1721,428,0,0
504,596,0,0,0,0,0,0,0,0,0,-1,1728,428,0,0
511,596,0,0,0,0,0,0,0,0,0,-1,1735,428,0,0
518,596,0,0,0,0,0,0,0,0,0,-1,1742,428,0,0
525,596,0,0,0,0,0,0,0,0,0,-1,1749,428,0,0
532,596,0,0,0,0,0,0,0,0,0,-1,1756,428,0,0
539,596,0,0,0,0,0,0,0,0,0,-1,1763,428,0,0
546,596,0,0,0,0,0,0,0,0,0,-1,1770,428,0,0
553,596,0,0,0,0,0,0,0,0,0,-1,1777,428,0,0
560,596,0,0,0,0,0,0,0,0,0,-1,1784,428,0,0
567,596,0,0,0,0,0,0,0,0,0,-1,1791,428,0,0
574,596,0,0,0,0,0,0,0,0,0,-1,1798,428,0,0
581,596,0,0,0,0,0,0,0,0,0,-1,1805,428,0,0
588,596,0,0,0,0,0,0,0,0,0,-1,1812,428,0,0
595,596,0,0,0,0,0,0,0,0,0,-1,1819,428,0,0
602,596,0,0,0,0,0,0,0,0,0,-1,1826,428,0,0
609,596,0,0,0,0,0,0,0,0,0,-1,1833,428,0,0
616,596,0,0,0,0,0,0,0,0,0,-1,1840,428,0,0
623,596,0,0,0,0,0,0,0,0,0,-1,1847,428,0,0
630,596,0,0,0,0,0,0,0,0,0,-1,1854,428,0,0
637,596,0,0,0,0,0,0,0,0,0,-1,1861,428,0,0
644,596,0,0,0,0,0,0,0,0,0,-1,1868,428,0,0
651,596,0,0,0,0,0,0,0,0,0,-1,1875,428,0,0
658,596,0,0,0,0,0,0,0,0,0,-1,1882,428,0,0
665,596,0,0,0,0,0,0,0,0,0,-1,1889,428,0,0
672,596,0,0,0,0,0,0,0,0,0,-1,1896,428,0,0
679,596,0,0,0,0,0,0,0,0,0,-1,1903,428,0,0
686,596,0,0,0,0,0,0,0,0,0,-1,1910,428,0,0
693,596,0,0,0,0,0,0,0,0,0,-1,1917,428,0,0
700,596,0,0,0,0,0,0,0,0,0,-1,1924,428,0,0
707,596,0,0,0,0,0,0,0,0,0,-1,1931,428,0,0
714,596,0,0,0,0,0,0,0,0,0,-1,1938,428,0,0
721,596,0,0,0,0,0,0,0,0,0,-1,1945,428,0,0
728,596,0,0,0,0,0,0,0,0,0,-1,1952,428,0,0
735,596,0,0,0,0,0,0,0,0,0,-1,1959,428,0,0
742,596,0,0,0,0,0,0,0,0,0,-1,1966,428,0,0
749,596,0,0,0,0,0,0,0,0,0,-1,1973,428,0,0
756,596,0,0,0,0,0,0,0,0,0,-1,1980,428,0,0
763,596,0,0,0,0,0,0,0,0,0,-1,1987,428,0,0
770,596,0,0,0,0,0,0,0,0,0,-1,1994,428,0,0
777,596,0,0,0,0,0,0,0,0,0,-1,2001,428,0,0
784,596,0,0,0,0,0,0,0,0,0,-1,2008,428,0,0
791,596,0,0,0,0,0,0,0,0,0,-1,2015,428,0,0
798,596,0,0,0,0,0,0,0,0,0,-1,2022,428,0,0
805,596,0,0,0,0,0,0,0,0,0,-1,2029,428,0,0
812,596,0,0,0,0,0,0,0,0,0,-1,2036,428,0,0
-700,589,0,0,0,0,0,0,0,0,0,-1,524,435,0,0
-693,589,0,0,0,0,0,0,0,0,0,-1,531,435,0,0
-686,589,0,0,0,0,0,0,0,0,0,-1,538,435,0,0
-679,589,0,0,0,0,0,0,0,0,0,-1,545,435,0,0
-672,589,0,0,0,0,0,0,0,0,0,-1,552,435,0,0
-665,589,0,0,0,0,0,0,0,0,0,-1,559,435,0,0
-658,589,0,0,0,0,0,0,0,0,0,-1,566,435,0,0
-651,589,0,0,0,0,0,0,0,0,0,-1,573,435,0,0
-644,589,0,0,0,0,0,0,0,0,0,-1,580,435,0,0
-637,589,0,0,0,0,0,0,0,0,0,-1,587,435,0,0
-630,589,0,0,0,0,0,0,0,0,0,-1,594,435,0,0
-623,589,0,0,0,0,0,0,0,0,0,-1,601,435,0,0
-616,589,0,0,0,0,0,0,0,0,0,-1,608,435,0,0
-609,589,0,0,0,0,0,0,0,0,0,-1,615,435,0,0
-602,589,0,0,0,0,0,0,0,0,0,-1,622,435,0,0
-595,589,0,0,0,0,0,0,0,0,0,-1,629,435,0,0
-588,589,0,0,0,0,0,0,0,0,0,-1,636,435,0,0
-581,589,0,0,0,0,0,0,0,0,0,-1,643,435,0,0
-574,589,0,0,0,0,0,0,0,0,0,-1,650,435,0,0
-567,589,0,0,0,0,0,0,0,0,0,-1,657,435,0,0
-560,589,0,0,0,0,0,0,0,0,0,-1,664,435,0,0
-553,589,0,0,0,0,0,0,0,0,0,-1,671,435,0,0
-546,589,0,0,0,0,0,0,0,0,0,-1,678,435,0,0
-539,589,0,0,0,0,0,0,0,0,0,-1,685,435,0,0
-532,589,0,0,0,0,0,0,0,0,0,-1,692,435,0,0
-525,589,0,0,0,0,0,0,0,0,0,-1,699,435,0,0
-518,589,0,0,0,0,0,0,0,0,0,-1,706,435,0,0
-511,589,0,0,0,0,0,0,0,0,0,-1,713,435,0,0
-504,589,0,0,0,0,0,0,0,0,0,-1,720,435,0,0
-497,589,0,0,0,0,0,0,0,0,0,-1,727,435,0,0
-490,589,0,0,0,0,0,0,0,0,0,-1,734,435,0,0
-483,589,0,0,0,0,0,0,0,0,0,-1,741,435,0,0
-476,589,0,0,0,0,0,0,0,0,0,-1,748,435,0,0
-469,589,0,0,0,0,0,0,0,0,0,-1,755,435,0,0
-462,589,0,0,0,0,0,0,0,0,0,-1,762,435,0,0
-455,589,0,0,0,0,0,0,0,0,0,-1,769,435,0,0
-448,589,0,0,0,0,0,0,0,0,0,-1,776,435,0,0
-441,589,0,0,0,0,0,0,0,0,0,-1,783,435,0,0
-434,589,0,0,0,0,0,0,0,0,0,-1,790,435,0,0
-427,589,0,0,0,0,0,0,0,0,0,-1,797,435,0,0
-420,589,0,0,0,0,0,0,0,0,0,-1,804,435,0,0
-413,589,0,0,0,0,0,0,0,0,0,-1,811,435,0,0
-406,589,0,0,0,0,0,0,0,0,0,-1,818,435,0,0
-399,589,0,0,0,0,0,0,0,0,0,-1,825,435,0,0
-392,589,0,0,0,0,0,0,0,0,0,-1,832,435,0,0
-385,589,0,0,0,0,0,0,0,0,0,-1,839,435,0,0
-378,589,0,0,0,0,0,0,0,0,0,-1,846,435,0,0
-371,589,0,0,0,0,0,0,0,0,0,-1,853,435,0,0
-364,589,0,0,0,0,0,0,0,0,0,-1,860,435,0,0
-357,589,0,0,0,0,0,0,0,0,0,-1,867,435,0,0
-350,589,-0.469055,0.441162,0,0,0,0,0,0,0,-1,874,435,-0.469081,-0.441159
-343,589,-6.03998,-0.73407,0,0,0,0,0,0,0,-1,881,435,-6.03999,0.734067
-336,589,-6.04822,-0.58667,0.0261553,0.0767866,-0.001551,0.0768341,0.0261078,-1.5402,0.0451128,0.042762,888,435,-6.04819,0.586679
-329,589,-5.98883,-0.390167,0.0320243,0.0686227,0.00105837,0.0686532,0.0319938,1.54191,0.0396675,0.0428485,895,435,-5.98884,0.390179
-322,589,-6.03601,-0.0309143,0.0357479,0.0600964,0.00100639,0.0601379,0.0357064,1.52956,0.0349234,0.0436841,902,435,-6.03599,0.0309041
-315,589,-0.871094,0.343445,0,0,0,0,0,0,0,-1,909,435,-0.871109,-0.343444
-308,589,-0.779541,0.279816,0,0,0,0,0,0,0,-1,916,435,-0.779513,-0.279831
-301,589,-0.694092,0.321564,0,0,0,0,0,0,0,-1,923,435,-0.694094,-0.321564
-294,589,-0.630005,0.431641,0.032597,0.0322717,-0.00432936,0.0367668,0.0281019,-0.766627,0.0221941,0.0420545,930,435,-0.629995,-0.431643
-287,589,-0.334412,0.288818,0.0299256,0.0250217,-0.00334626,0.0316221,0.0233252,-0.469215,0.0189318,0.0397572,937,435,-0.334396,-0.288832
-280,589,-0.0787964,-0.0300598,0.0266597,0.0199767,-0.00369541,0.0283003,0.0183361,-0.417826,0.0165758,0.0313563,944,435,-0.0787669,0.0300465
-273,589,-0.0956421,-0.0103149,0.0204381,0.0191439,-0.00537777,0.0252076,0.0143744,-0.72552,0.0146014,0.0176884,951,435,-0.0956394,0.0103059
-266,589,-0.0752563,-0.0152283,0.0155429,0.0165751,-0.00520086,0.0212854,0.0108326,-0.834855,0.0122898,0.0147094,958,435,-0.0752604,0.0152278
-259,589,-0.0700073,-0.0287781,0.0131405,0.0144383,-0.00492864,0.0187606,0.00881821,-0.850851,0.0108379,0.0130942,965,435,-0.0699894,0.0287641
-252,589,-0.0748901,-0.0307617,0.0105939,0.0120295,-0.00425268,0.0156245,0.00699885,-0.869002,0.0090371,0.00926008,972,435,-0.0749146,0.0307687
-245,589,-0.0787964,-0.0237427,0.00835614,0.00975395,-0.00288103,0.0120196,0.00609045,-0.904393,0.00693975,0.00968179,979,435,-0.0787876,0.0237454
-238,589,-0.0859985,-0.0395508,0.00605782,0.00817685,-0.00200636,0.00938626,0.00484841,-1.02833,0.00542015,0.013168,986,435,-0.0859947,0.0395463
-231,589,-0.0770264,-0.032074,0.00379295,0.0066245,-0.00097587,0.00692824,0.00348921,-1.26905,0.00400006,0.0142052,993,435,-0.0770317,0.0320621
-224,589,-0.0908203,-0.058197,0.00226057,0.00545823,-0.000506819,0.00553663,0.00218216,-1.41731,0.00322037,0.0130751,1000,435,-0.0908422,0.0581894
-217,589,-0.0841675,-0.0612793,0.0012116,0.00474786,-0.00054305,0.00482938,0.00113008,-1.4218,0.0029168,0.0143298,1007,435,-0.0841548,0.0612649
-210,589,-0.0780029,-0.0556335,0.000336598,0.00409134,-0.000635973,0.00419614,0.000231802,-1.40748,0.00272345,0.0134655,1014,435,-0.0780127,0.0556221
-203,589,-0.0830078,-0.0497131,-0.000252319,0.00356754,-0.000617915,0.00366501,-0.000349788,-1.41435,0.00256789,0.00893426,1021,435,-0.0829905,0.0497102
-196,589,-0.0791016,-0.0566101,-0.000162159,0.00336991,-0.000363455,0.00340693,-0.000199171,-1.46931,0.0023405,0.0110435,1028,435,-0.0790409,0.0565995
-189,589,-0.109131,-0.0651855,0.000117161,0.00309456,-0.000136088,0.00310077,0.000110953,-1.52522,0.0020312,0.0153624,1035,435,-0.109164,0.0651735
-182,589,-0.0946045,-0.0360718,0.000404073,0.00263801,2.89906e-05,0.00263839,0.000403697,1.55782,0.001641,0.0118032,1042,435,-0.0945492,0.0360814
-175,589,-0.0772705,-0.036438,0.000490611,0.00243362,0.000132149,0.00244256,0.000481665,1.5032,0.00149393,0.0145633,1049,435,-0.0773287,0.0364227
-168,589,-0.0737305,-0.0548706,0.000739916,0.00221414,0.000416857,0.00232385,0.000630208,1.31345,0.00138771,0.0130409,1056,435,-0.0737188,0.0548717
-161,589,-0.0693359,-0.033783,0.0011999,0.00212254,0.000647514,0.00245626,0.000866177,1.09492,0.00143851,0.0119587,1063,435,-0.0692794,0.0337777
-154,589,-0.0864258,-0.0387268,0.00150492,0.00205938,0.000835502,0.00266245,0.000901858,0.945589,0.00156359,0.0104956,1070,435,-0.0864078,0.0387348
-147,589,-0.0913086,-0.0461426,0.00177808,0.00191922,0.000913381,0.00276475,0.000932545,0.823952,0.00162416,0.010306,1077,435,-0.0913101,0.0461578
-140,589,-0.0726318,-0.0361938,0.00225973,0.00170146,0.000803877,0.00283155,0.00112963,0.618294,0.00164589,0.0117607,1084,435,-0.0726285,0.0362029
-133,589,-0.0751953,-0.0249634,0.00245318,0.00145754,0.000797339,0.00289534,0.00101537,0.506332,0.00169629,0.0114849,1091,435,-0.0751724,0.0249546
-126,589,-0.0756836,-0.0415344,0.0024251,0.00128209,0.000808871,0.002844,0.0008632,0.477846,0.00168371,0.00989814,1098,435,-0.0757397,0.0415198
-119,589,-0.0698242,-0.0578613,0.00242565,0.00107431,0.000718404,0.0027362,0.000763758,0.408021,0.00163032,0.0152093,1105,435,-0.069781,0.0578497
-112,589,-0.0634766,-0.055603,0.00230801,0.000882897,0.00080754,0.00267242,0.000518486,0.423902,0.0016364,0.0153454,1112,435,-0.0634638,0.0556146
-105,589,-0.0834961,-0.0495911,0.00206028,0.000701696,0.000811422,0.00243921,0.000322761,0.436902,0.00152995,0.0155017,1119,435,-0.0835509,0.0495951
-98,589,-0.0947266,-0.0606384,0.00174175,0.000636811,0.000642322,0.00203651,0.000342049,0.43023,0.00125924,0.0159025,1126,435,-0.0947608,0.0606235
-91,589,-0.0699463,-0.063324,0.00135049,0.000846464,0.000491149,0.00165051,0.000546447,0.548357,0.00097088,0.0190341,1133,435,-0.0699791,0.0633365
-84,589,-0.0648193,-0.0481262,0.00118225,0.00143603,0.000418269,0.00174623,0.000872045,0.932675,0.00100819,0.0282961,1140,435,-0.0647989,0.0481354
-77,589,-0.105591,-0.0442505,0.00132141,0.00248147,0.000426587,0.00262144,0.00118143,1.25373,0.00151594,0.0331693,1147,435,-0.105593,0.0442656
-70,589,-0.217651,-0.0471497,0.00166182,0.00348232,0.000683481,0.00371036,0.00143378,1.24877,0.00216052,0.0361182,1154,435,-0.217664,0.0471367
-63,589,-0.0948486,-0.122498,0.000416323,0.00505989,0.000414946,0.00509668,0.000379536,1.48237,0.00327861,0.0362435,1161,435,-0.0948951,0.122483
-56,589,0.0355225,-0.196869,-0.000613078,0.00708086,0.000504873,0.00711384,-0.000646066,1.50555,0.00497193,0.0370825,1168,435,0.0354755,0.196868
-49,589,0.019043,-0.319702,-0.000646168,0.00813347,0.000844318,0.00821393,-0.000726627,1.47579,0.00573353,0.0382113,1175,435,0.0190907,0.319692
-42,589,-0.0997314,-0.0118713,-0.00013912,0.00852196,0.00109471,0.00865819,-0.000275342,1.447,0.00586606,0.0414212,1182,435,-0.0997458,0.0118798
-35,589,-0.126831,0.196777,0.000492764,0.00855301,0.00132958,0.00876667,0.000279107,1.41146,0.00575367,0.0433454,1189,435,-0.126804,-0.196784
-28,589,-0.198364,0.396393,0.00164083,0.00791918,0.00112754,0.00811553,0.00144448,1.39838,0.00499892,0.0442293,1196,435,-0.198356,-0.396388
-21,589,-0.241089,0.528076,0.00347583,0.00719793,0.00145328,0.00769814,0.00297563,1.23931,0.0044825,0.0440319,1203,435,-0.24105,-0.528088
-14,589,0.106812,0.685852,0.0053368,0.00614267,0.00215896,0.00793598,0.00354349,0.877653,0.00459057,0.0443482,1210,435,0.106849,-0.685848
-7,589,0.191162,0.842529,0.00834782,0.00543277,0.00318695,0.0103947,0.00338586,0.570927,0.0061217,0.0475748,1217,435,0.191209,-0.842521
0,589,0.104736,1.05481,0.0110891,0.00534839,0.00215073,0.0118055,0.00463203,0.321524,0.00686832,0.0469199,1224,435,0.104686,-1.05482
7,589,0.412842,1.40359,0.0136752,0.00509414,0.000453224,0.0136991,0.00507027,0.0526217,0.00799761,0.0437571,1231,435,0.412897,-1.40359
14,589,1.26953,1.5408,0.0165819,0.00543602,-0.00169814,0.0168348,0.00518305,-0.147887,0.0099559,0.0439247,1238,435,1.26957,-1.5408
21,589,2.04541,1.91367,0.0186484,0.00677393,-0.00401591,0.019879,0.0055433,-0.297354,0.0118454,0.0454815,1245,435,2.04539,-1.91368
28,589,2.81506,2.43103,0,0,0,0,0,0,0,-1,1252,435,2.8151,-2.43103
35,589,-0.435547,-0.228485,0.0201962,0.0115905,-0.00964144,0.0264514,0.00533536,-0.575518,0.0161523,0.0478075,1259,435,-0.435592,0.228473
42,589,-0.946533,-0.366486,0.0217024,0.0175147,-0.012204,0.0319909,0.0072262,-0.700441,0.0193731,0.0466172,1266,435,-0.946568,0.366488
49,589,-0.671265,-0.106049,0.0228846,0.0251959,-0.0128018,0.0368941,0.0111864,-0.830412,0.0218439,0.044471,1273,435,-0.671287,0.106048
56,589,-0.304443,0.0892639,0.0217612,0.0334789,-0.0129737,0.0418553,0.0133848,-0.997487,0.0246828,0.0416011,1280,435,-0.304451,-0.0892607
63,589,-0.542114,0.195923,0.0194877,0.0419052,-0.0120822,0.0471772,0.0142156,-1.15935,0.0279453,0.0439074,1287,435,-0.542066,-0.195908
70,589,0.524414,-0.372284,0.0181402,0.0495673,-0.0100389,0.0525004,0.0152072,-1.28654,0.0311923,0.0438872,1294,435,0.524406,0.372286
77,589,0.745483,-0.575928,0.0186595,0.056724,-0.00458313,0.057268,0.0181155,-1.45264,0.0337991,0.043353,1301,435,0.745488,0.575934
84,589,0.849609,-0.699158,0.0198509,0.0684496,0.00310986,0.0686478,0.0196528,1.50715,0.0408228,0.0428359,1308,435,0.849641,0.69916
91,589,1.35803,-0.572479,0.0211553,0.0719236,0.00901726,0.0734776,0.0196013,1.40013,0.0439338,0.0417763,1315,435,1.35806,0.572483
98,589,1.03796,-0.382141,0.0214991,0.0745535,0.0129478,0.0775447,0.0185079,1.34376,0.0467644,0.0461342,1322,435,1.03794,0.382133
105,589,0.562866,-0.341492,0.0224059,0.0761659,0.0180531,0.0816657,0.0169062,1.27508,0.0497748,0.0479481,1329,435,0.562856,0.341478
112,589,0.188477,-0.281372,0.0225073,0.0765851,0.0212007,0.0839057,0.0151868,1.23832,0.0516249,0.0484742,1336,435,0.188459,0.281387
119,589,-0.220215,-0.231537,0,0,0,0,0,0,0,-1,1343,435,-0.220226,0.231544
126,589,0.612061,0.434082,0,0,0,0,0,0,0,-1,1350,435,0.612002,-0.434079
133,589,0.113647,0.115356,0,0,0,0,0,0,0,-1,1357,435,0.113671,-0.11535
140,589,0.0151367,0.0767212,0,0,0,0,0,0,0,-1,1364,435,0.015108,-0.0767256
147,589,0.195801,0.132843,0,0,0,0,0,0,0,-1,1371,435,0.195816,-0.132844
154,589,-0.0374756,0.108337,0.0139574,0.0456718,0.0122119,0.0498292,0.00980005,1.24267,0.0304825,0.0463879,1378,435,-0.0374578,-0.108347
161,589,0.0170898,-0.226929,0.0110767,0.0390527,0.00878676,0.0415835,0.00854586,1.29036,0.0253583,0.0423627,1385,435,0.0170738,0.226943
168,589,-0.0447998,-0.13382,0.0093069,0.0320506,0.00631051,0.0336842,0.00767331,1.31749,0.0203856,0.0391625,1392,435,-0.0447475,0.133825
175,589,-0.0286865,-0.193085,0.00683502,0.0259393,0.00374526,0.0266473,0.00612703,1.38396,0.0161156,0.04368,1399,435,-0.0286867,0.193098
182,589,-0.0192871,-0.162567,0.00348559,0.0200712,-0.000127767,0.0200722,0.0034846,-1.56309,0.0123844,0.0425349,1406,435,-0.0192992,0.162567
189,589,-0.139038,-0.0111084,0.00110942,0.0104268,-0.00391177,0.0118513,-0.000315089,-1.22156,0.00800796,0.0399359,1413,435,-0.139083,0.0111101
196,589,-0.200195,0.0147705,0.000412514,0.0124856,-0.00305682,0.0132154,-0.000317332,-1.33642,0.00891793,0.0355104,1420,435,-0.200186,-0.0147768
203,589,-0.139893,-0.0413208,0.000566365,0.0122633,-0.000909666,0.0123336,0.000496043,-1.49365,0.00806217,0.0322609,1427,435,-0.139914,0.0413243
210,589,-0.108521,-0.028595,0.000710371,0.0117299,-0.000552661,0.0117576,0.000682723,-1.52081,0.00762102,0.0256165,1434,435,-0.108554,0.0286001
217,589,-0.108887,0.0111084,0.000896964,0.0112935,-0.000320678,0.0113034,0.000887082,-1.53999,0.00725798,0.020081,1441,435,-0.108884,-0.0110947
224,589,-0.13501,-0.0175781,0.0010684,0.0109576,-0.000538596,0.0109869,0.00103915,-1.51655,0.00700396,0.017145,1448,435,-0.135039,0.0175859
231,589,-0.112061,-0.0447998,0.00130732,0.0105251,-0.000572852,0.0105606,0.00127186,-1.50897,0.00665708,0.0143963,1455,435,-0.112064,0.044791
238,589,-0.0671387,-0.0535889,0.00154878,0.00981608,-0.000501233,0.00984635,0.0015185,-1.51046,0.00612118,0.0150044,1462,435,-0.0671872,0.0535902
245,589,-0.0717773,-0.0371094,0.00174291,0.00886302,-0.000343565,0.00887956,0.00172637,-1.52269,0.0054364,0.0150024,1469,435,-0.0717237,0.0371078
252,589,-0.0859375,-0.0444336,0.00185853,0.00762313,-0.00012065,0.00762566,0.00185601,-1.54988,0.00459188,0.0109056,1476,435,-0.0859067,0.0444439
259,589,-0.0897217,-0.0537109,0.00187609,0.00634046,0.000137218,0.00634467,0.00187188,1.5401,0.0037643,0.00822909,1483,435,-0.0896718,0.0537241
266,589,-0.0985107,-0.032074,0.00176636,0.00515408,0.000388839,0.00519813,0.0017223,1.45797,0.00305753,0.009182,1490,435,-0.0985165,0.0320726
273,589,-0.10083,-0.0328064,0.00164235,0.0040586,0.000753143,0.00427413,0.00142682,1.29207,0.00251269,0.0111774,1497,435,-0.100878,0.0327992
280,589,-0.0877686,-0.0395813,0.0015919,0.00285399,0.00114229,0.00352796,0.000917933,1.03775,0.00211352,0.0121497,1504,435,-0.0877653,0.0395737
287,589,-0.0788574,-0.046814,0.00160865,0.00161655,0.00136285,0.00297546,0.000249744,0.786847,0.00190586,0.0112617,1511,435,-0.0789181,0.0468093
294,589,-0.0993652,-0.0507813,0.00144763,0.000727854,0.00141001,0.00254295,-0.000367469,0.660447,0.00183013,0.0093272,1518,435,-0.0993255,0.0507952
301,589,-0.0943604,-0.0413513,0.00111292,0.000374422,0.00124668,0.00204388,-0.000556543,0.641421,0.0015811,0.00971533,1525,435,-0.0943931,0.0413634
308,589,-0.0827637,-0.0312805,0.00103558,-7.95792e-05,0.000929393,0.00156182,-0.00060582,0.515211,0.00129142,0.00992631,1532,435,-0.0827272,0.0312802
315,589,-0.0812988,-0.0396729,0.00115763,-0.000212751,0.000727345,0.0014717,-0.000526818,0.407615,0.00119606,0.010295,1539,435,-0.0813182,0.039683
322,589,-0.0742188,-0.0436707,0.00140186,-0.000412945,0.000578061,0.00157034,-0.00058143,0.283609,0.00128532,0.010487,1546,435,-0.0741696,0.0436655
329,589,-0.0783691,-0.0367737,0.00140883,-0.000632499,0.000605057,0.0015747,-0.000798362,0.267556,0.00139431,0.00913025,1553,435,-0.0783124,0.0367729
336,589,-0.0822754,-0.0526428,0.00117915,-0.00107081,0.000907419,0.00149951,-0.00139116,0.339379,0.00166932,0.00858781,1560,435,-0.0822148,0.0526364
343,589,-0.0843506,-0.0606384,0.000881705,-0.00109835,0.00117789,0.00143037,-0.00164702,0.435918,0.0017782,0.00985344,1567,435,-0.0842942,0.0606499
350,589,-0.0848389,-0.0374146,0.000652156,-0.00116892,0.00113667,0.00119802,-0.00171478,0.447707,0.00169051,0.0154648,1574,435,-0.0848473,0.0374183
357,589,-0.0821533,-0.0317993,0.000371658,-0.0011098,0.00119917,0.00104043,-0.00177857,0.508731,0.00164604,0.0130073,1581,435,-0.0821697,0.0318002
364,589,-0.0704346,-0.0248718,0.000151729,-0.00112243,0.00140014,0.00105291,-0.00202361,0.571891,0.00180546,0.0102607,1588,435,-0.0704101,0.024865
371,589,-0.0732422,-0.0229187,-2.88608e-05,-0.000852578,0.00147984,0.00109536,-0.0019768,0.649676,0.00179789,0.0106586,1595,435,-0.0732336,0.0229151
378,589,-0.0755615,-0.0399475,-0.000524061,-0.000180147,0.00155967,0.00121702,-0.00192123,0.840302,0.00182701,0.0113853,1602,435,-0.0755899,0.039951
385,589,-0.0705566,-0.0483093,-0.00110706,0.000598741,0.00153763,0.00150417,-0.00201249,1.03862,0.00203741,0.0123475,1609,435,-0.0705568,0.0483176
392,589,-0.0878906,-0.0447388,-0.00114,0.00162696,0.00145172,0.00224884,-0.00176189,1.16607,0.00232128,0.0138541,1616,435,-0.0878837,0.044726
399,589,-0.118042,-0.0621338,-0.00116421,0.00282668,0.00137384,0.00325389,-0.00159141,1.26932,0.00285179,0.0170408,1623,435,-0.118052,0.0621466
406,589,-0.132202,-0.0624084,-0.0009625,0.00411184,0.00124027,0.00439876,-0.00124942,1.34346,0.00342579,0.0328624,1630,435,-0.132188,0.0624015
413,589,-0.199463,0.279633,-0.000665346,0.00615534,0.00112947,0.00633751,-0.000847515,1.41089,0.00453399,0.0386274,1637,435,-0.199469,-0.279628
420,589,-0.129395,0.272949,-0.000479675,0.0092551,0.000936973,0.00934447,-0.000569038,1.47571,0.00642773,0.0399831,1644,435,-0.129378,-0.272955
427,589,-0.000976563,0.192932,0,0,0,0,0,0,0,-1,1651,435,-0.0009636,-0.192922
434,589,0.00805664,0.314941,-1.93433e-07,0.0143473,0.000214198,0.0143505,-3.39095e-06,1.55587,0.00956811,0.0428564,1658,435,0.00811168,-0.31495
441,589,0.262207,0.491699,0.000635323,0.017571,-0.00107299,0.0176387,0.000567614,-1.50778,0.0115746,0.0419464,1665,435,0.262221,-0.491694
448,589,0.0981445,0.677734,0,0,0,0,0,0,0,-1,1672,435,0.0982016,-0.67773
455,589,0.168579,0.918518,0.000553269,0.0239271,-0.0026677,0.0242277,0.000252666,-1.45859,0.0160682,0.0487121,1679,435,0.168525,-0.91852
462,589,0.289307,1.00638,-2.56442e-05,0.027197,-0.00380452,0.0277187,-0.000547349,-1.43452,0.0186642,0.0453155,1686,435,0.289263,-1.00639
469,589,0.456299,1.02426,-0.00112838,0.0314131,-0.00628966,0.0325865,-0.00230175,-1.38636,0.0225308,0.04491,1693,435,0.456356,-1.02426
476,589,0,0,0,0,0,0,0,0,0,-1,1700,435,0,0
483,589,0,0,0,0,0,0,0,0,0,-1,1707,435,0,0
490,589,0,0,0,0,0,0,0,0,0,-1,1714,435,0,0
497,589,0,0,0,0,0,0,0,0,0,-1,1721,435,0,0
504,589,0,0,0,0,0,0,0,0,0,-1,1728,435,0,0
511,589,0,0,0,0,0,0,0,0,0,-1,1735,435,0,0
518,589,0,0,0,0,0,0,0,0,0,-1,1742,435,0,0
525,589,0,0,0,0,0,0,0,0,0,-1,1749,435,0,0
532,589,0,0,0,0,0,0,0,0,0,-1,1756,435,0,0
539,589,0,0,0,0,0,0,0,0,0,-1,1763,435,0,0
546,589,0,0,0,0,0,0,0,0,0,-1,1770,435,0,0
553,589,0,0,0,0,0,0,0,0,0,-1,1777,435,0,0
560,589,0,0,0,0,0,0,0,0,0,-1,1784,435,0,0
567,589,0,0,0,0,0,0,0,0,0,-1,1791,435,0,0
574,589,0,0,0,0,0,0,0,0,0,-1,1798,435,0,0
581,589,0,0,0,0,0,0,0,0,0,-1,1805,435,0,0
588,589,0,0,0,0,0,0,0,0,0,-1,1812,435,0,0
595,589,0,0,0,0,0,0,0,0,0,-1,1819,435,0,0
602,589,0,0,0,0,0,0,0,0,0,-1,1826,435,0,0
609,589,0,0,0,0,0,0,0,0,0,-1,1833,435,0,0
616,589,0,0,0,0,0,0,0,0,0,-1,1840,435,0,0
623,589,0,0,0,0,0,0,0,0,0,-1,1847,435,0,0
630,589,0,0,0,0,0,0,0,0,0,-1,1854,435,0,0
637,589,0,0,0,0,0,0,0,0,0,-1,1861,435,0,0
644,589,0,0,0,0,0,0,0,0,0,-1,1868,435,0,0
651,589,0,0,0,0,0,0,0,0,0,-1,1875,435,0,0
658,589,0,0,0,0,0,0,0,0,0,-1,1882,435,0,0
665,589,0,0,0,0,0,0,0,0,0,-1,1889,435,0,0
672,589,0,0,0,0,0,0,0,0,0,-1,1896,435,0,0
679,589,0,0,0,0,0,0,0,0,0,-1,1903,435,0,0
686,589,0,0,0,0,0,0,0,0,0,-1,1910,435,0,0
693,589,0,0,0,0,0,0,0,0,0,-1,1917,435,0,0
700,589,0,0,0,0,0,0,0,0,0,-1,1924,435,0,0
707,589,0,0,0,0,0,0,0,0,0,-1,1931,435,0,0
714,589,0,0,0,0,0,0,0,0,0,-1,1938,435,0,0
721,589,0,0,0,0,0,0,0,0,0,-1,1945,435,0,0
728,589,0,0,0,0,0,0,0,0,0,-1,1952,435,0,0
735,589,0,0,0,0,0,0,0,0,0,-1,1959,435,0,0
742,589,0,0,0,0,0,0,0,0,0,-1,1966,435,0,0
749,589,0,0,0,0,0,0,0,0,0,-1,1973,435,0,0
756,589,0,0,0,0,0,0,0,0,0,-1,1980,435,0,0
763,589,0,0,0,0,0,0,0,0,0,-1,1987,435,0,0
770,589,0,0,0,0,0,0,0,0,0,-1,1994,435,0,0
777,589,0,0,0,0,0,0,0,0,0,-1,2001,435,0,0
784,589,0,0,0,0,0,0,0,0,0,-1,2008,435,0,0
791,589,0,0,0,0,0,0,0,0,0,-1,2015,435,0,0
798,589,0,0,0,0,0,0,0,0,0,-1,2022,435,0,0
805,589,0,0,0,0,0,0,0,0,0,-1,2029,435,0,0
812,589,0,0,0,0,0,0,0,0,0,-1,2036,435,0,0
-700,582,0,0,0,0,0,0,0,0,0,-1,524,442,0,0
-693,582,0,0,0,0,0,0,0,0,0,-1,531,442,0,0
-686,582,0,0,0,0,0,0,0,0,0,-1,538,442,0,0
-679,582,0,0,0,0,0,0,0,0,0,-1,545,442,0,0
-672,582,0,0,0,0,0,0,0,0,0,-1,552,442,0,0
-665,582,0,0,0,0,0,0,0,0,0,-1,559,442,0,0
-658,582,0,0,0,0,0,0,0,0,0,-1,566,442,0,0
-651,582,0,0,0,0,0,0,0,0,0,-1,573,442,0,0
-644,582,0,0,0,0,0,0,0,0,0,-1,580,442,0,0
-637,582,0,0,0,0,0,0,0,0,0,-1,587,442,0,0
-630,582,0,0,0,0,0,0,0,0,0,-1,594,442,0,0
-623,582,0,0,0,0,0,0,0,0,0,-1,601,442,0,0
-616,582,0,0,0,0,0,0,0,0,0,-1,608,442,0,0
-609,582,0,0,0,0,0,0,0,0,0,-1,615,442,0,0
-602,582,0,0,0,0,0,0,0,0,0,-1,622,442,0,0
-595,582,0,0,0,0,0,0,0,0,0,-1,629,442,0,0
-588,582,0,0,0,0,0,0,0,0,0,-1,636,442,0,0
-581,582,0,0,0,0,0,0,0,0,0,-1,643,442,0,0
-574,582,0,0,0,0,0,0,0,0,0,-1,650,442,0,0
-567,582,0,0,0,0,0,0,0,0,0,-1,657,442,0,0
-560,582,0,0,0,0,0,0,0,0,0,-1,664,442,0,0
-553,582,0,0,0,0,0,0,0,0,0,-1,671,442,0,0
-546,582,0,0,0,0,0,0,0,0,0,-1,678,442,0,0
-539,582,0,0,0,0,0,0,0,0,0,-1,685,442,0,0
-532,582,0,0,0,0,0,0,0,0,0,-1,692,442,0,0
-525,582,0,0,0,0,0,0,0,0,0,-1,699,442,0,0
-518,582,0,0,0,0,0,0,0,0,0,-1,706,442,0,0
-511,582,0,0,0,0,0,0,0,0,0,-1,713,442,0,0
-504,582,0,0,0,0,0,0,0,0,0,-1,720,442,0,0
-497,582,0,0,0,0,0,0,0,0,0,-1,727,442,0,0
-490,582,0,0,0,0,0,0,0,0,0,-1,734,442,0,0
-483,582,0,0,0,0,0,0,0,0,0,-1,741,442,0,0
-476,582,0,0,0,0,0,0,0,0,0,-1,748,442,0,0
-469,582,0,0,0,0,0,0,0,0,0,-1,755,442,0,0
-462,582,0,0,0,0,0,0,0,0,0,-1,762,442,0,0
-455,582,0,0,0,0,0,0,0,0,0,-1,769,442,0,0
-448,582,0,0,0,0,0,0,0,0,0,-1,776,442,0,0
-441,582,0,0,0,0,0,0,0,0,0,-1,783,442,0,0
-434,582,0,0,0,0,0,0,0,0,0,-1,790,442,0,0
-427,582,0,0,0,0,0,0,0,0,0,-1,797,442,0,0
-420,582,0,0,0,0,0,0,0,0,0,-1,804,442,0,0
-413,582,0,0,0,0,0,0,0,0,0,-1,811,442,0,0
-406,582,0,0,0,0,0,0,0,0,0,-1,818,442,0,0
-399,582,0,0,0,0,0,0,0,0,0,-1,825,442,0,0
-392,582,0,0,0,0,0,0,0,0,0,-1,832,442,0,0
-385,582,0,0,0,0,0,0,0,0,0,-1,839,442,0,0
-378,582,0,0,0,0,0,0,0,0,0,-1,846,442,0,0
-371,582,0,0,0,0,0,0,0,0,0,-1,853,442,0,0
-364,582,0,0,0,0,0,0,0,0,0,-1,860,442,0,0
-357,582,-0.262756,0.561615,0,0,0,0,0,0,0,-1,867,442,-0.262751,-0.561609
-350,582,0.779663,-0.0541077,0,0,0,0,0,0,0,-1,874,442,0.779635,0.0541115
-343,582,-6.87335,0.203278,0.0215601,0.0786216,-0.0132548,0.0815503,0.0186315,-1.35334,0.0493431,0.0456826,881,442,-6.87335,-0.203287
-336,582,-7.20142,0.180603,0.0284784,0.0713396,-0.0104767,0.0737634,0.0260546,-1.34345,0.0431947,0.045664,888,442,-7.20143,-0.180611
-329,582,-7.28619,0.389984,0.0323396,0.0640378,-0.00718427,0.0655901,0.0307873,-1.358,0.0378921,0.0470189,895,442,-7.28617,-0.389969
-322,582,-0.57959,0.395325,0,0,0,0,0,0,0,-1,902,442,-0.579575,-0.395318
-315,582,-0.598938,0.346985,0.0344461,0.0472104,-0.00557134,0.0493,0.0323565,-1.21196,0.0289233,0.0455171,909,442,-0.598962,-0.346997
-308,582,-0.45575,0.206909,0.0330838,0.0396597,-0.00598692,0.0432021,0.0295413,-1.03651,0.0254983,0.0466918,916,442,-0.455734,-0.206895
-301,582,-0.404297,0.17334,0.0305232,0.0338202,-0.00646129,0.03884,0.0255035,-0.910302,0.0227881,0.0396942,923,442,-0.404326,-0.17334
-294,582,-0.371765,0.175781,0.0272619,0.0287029,-0.006519,0.0345411,0.0214237,-0.840437,0.0201336,0.0363063,930,442,-0.37179,-0.17578
-287,582,-0.230286,0.0623169,0.0245578,0.02189,-0.00490325,0.0283053,0.0181424,-0.652593,0.0165571,0.0297166,937,442,-0.230316,-0.0623024
-280,582,-0.0792236,-0.0248108,0.0214543,0.0167992,-0.00446682,0.0241636,0.0140899,-0.545214,0.0140149,0.0142951,944,442,-0.0792298,0.024815
-273,582,-0.0717773,-0.0133972,0.0155754,0.0161812,-0.00567464,0.021561,0.0101956,-0.81206,0.0124544,0.00949572,951,442,-0.0717561,0.0133937
-266,582,-0.0697021,-0.0153503,0.0111079,0.0138844,-0.00522699,0.0179044,0.00708794,-0.915201,0.0104115,0.00952603,958,442,-0.0697169,0.0153431
-259,582,-0.0670776,-0.0228271,0.00926753,0.0120293,-0.00475643,0.0156012,0.00569558,-0.926672,0.00911603,0.00836165,965,442,-0.0670585,0.0228198
-252,582,-0.0667725,-0.0249634,0.00735148,0.00997491,-0.00399921,0.012872,0.00445436,-0.943866,0.00754818,0.00819426,972,442,-0.0667708,0.0249721
-245,582,-0.0598755,-0.039093,0.00569698,0.00800639,-0.00265141,0.00974362,0.00395975,-0.990767,0.00565825,0.0111619,979,442,-0.0598737,0.0391064
-238,582,-0.0705566,-0.0239258,0.00410171,0.00651625,-0.00178047,0.00746015,0.0031578,-1.08332,0.00432399,0.0152309,986,442,-0.0705587,0.0239311
-231,582,-0.0709839,-0.0274658,0.00247921,0.00504379,-0.000784142,0.00526454,0.00225845,-1.29637,0.00304968,0.0122896,993,442,-0.0709905,0.0274512
-224,582,-0.0706177,-0.0348816,0.00143405,0.00391324,-0.000276538,0.00394371,0.00140358,-1.46105,0.00230821,0.00983915,1000,442,-0.070647,0.0348947
-217,582,-0.0723267,-0.0372925,0.00091103,0.0034626,-0.000313742,0.00350061,0.000873019,-1.45023,0.002104,0.012165,1007,442,-0.0723327,0.0372907
-210,582,-0.0799561,-0.0416565,0.000529204,0.00304992,-0.000458859,0.00313085,0.000448274,-1.39622,0.00195502,0.0121819,1014,442,-0.0799299,0.0416607
-203,582,-0.0684814,-0.047699,0.000261061,0.00280359,-0.000421084,0.00287151,0.000193137,-1.41087,0.00185332,0.0087509,1021,442,-0.0684597,0.0476932
-196,582,-0.0682373,-0.0493469,0.000454958,0.00289276,-0.000196955,0.00290857,0.000439148,-1.4907,0.00181051,0.0127183,1028,442,-0.0682623,0.0493527
-189,582,-0.107788,-0.0419006,0.000839085,0.00286466,4.22531e-05,0.00286554,0.000838204,1.54995,0.00170124,0.0188819,1035,442,-0.107825,0.0419121
-182,582,-0.104004,-0.0161743,0.00117699,0.00263158,0.000171431,0.00265151,0.00115706,1.45505,0.00153497,0.0127105,1042,442,-0.104063,0.0161656
-175,582,-0.0783691,-0.00869751,0.0012853,0.00274278,0.00019801,0.00276921,0.00125888,1.43814,0.001601,0.0110636,1049,442,-0.0784173,0.00869683
-168,582,-0.069458,-0.0262451,0.00158264,0.00274073,0.000451479,0.00289593,0.00142743,1.23968,0.00167202,0.0108245,1056,442,-0.0694276,0.0262454
-161,582,-0.0698242,-0.0392456,0.00206587,0.00283436,0.000703359,0.00325159,0.00164865,1.0354,0.00187737,0.0122942,1063,442,-0.0698012,0.0392328
-154,582,-0.0772705,-0.0346985,0.00224049,0.00291181,0.000947683,0.00358152,0.00157078,0.9556,0.00207299,0.0113603,1070,442,-0.0773,0.0347002
-147,582,-0.0841064,-0.039856,0.00242416,0.00275728,0.00107764,0.00368116,0.00150028,0.862073,0.00213739,0.0104934,1077,442,-0.0841357,0.0398687
-140,582,-0.0704346,-0.0420837,0.00287797,0.00254397,0.000925424,0.00365134,0.0017706,0.696131,0.00210842,0.00998652,1084,442,-0.0703822,0.0420839
-133,582,-0.0780029,-0.0357666,0.00291269,0.00236383,0.00096198,0.00363862,0.0016379,0.646452,0.00210423,0.0098079,1091,442,-0.0780502,0.0357542
-126,582,-0.081665,-0.0526428,0.00276105,0.00220891,0.0010347,0.00355588,0.00141408,0.65503,0.00206727,0.00914512,1098,442,-0.0816814,0.0526555
-119,582,-0.0577393,-0.0635681,0.0027279,0.00201497,0.000949945,0.00338606,0.00135681,0.605905,0.00196775,0.014032,1105,442,-0.0577597,0.0635803
-112,582,-0.0603027,-0.0439453,0.00252412,0.00167644,0.00111126,0.00328962,0.000910941,0.603212,0.00196127,0.0225664,1112,442,-0.0602477,0.0439549
-105,582,-0.186157,-0.0393372,0.00224653,0.00154379,0.00120299,0.00314842,0.0006419,0.64331,0.00192106,0.029873,1119,442,-0.186189,0.0393463
-98,582,-0.328613,-0.0972595,0.00193584,0.00162235,0.00099876,0.00279008,0.000768108,0.707564,0.00166419,0.0314947,1126,442,-0.328574,0.0972712
-91,582,-0.319214,-0.105743,0.00149136,0.00200783,0.000809086,0.00259889,0.000900295,0.939874,0.00152388,0.0336224,1133,442,-0.319221,0.105736
-84,582,-0.0830078,0.00836182,0.00132473,0.00289127,0.0006944,0.00315476,0.00106124,1.20813,0.00185362,0.0387885,1140,442,-0.0830159,-0.00836431
-77,582,-0.222656,0.0166626,0.00157543,0.00436973,0.000695533,0.00453328,0.00141188,1.33984,0.00267861,0.0421464,1147,442,-0.222684,-0.0166627
-70,582,-0.233154,-0.122284,0.00205001,0.00591821,0.000946712,0.00613748,0.00183074,1.3432,0.00363833,0.0453235,1154,442,-0.233177,0.122272
-63,582,-0.0855713,-0.166138,0.000590473,0.008275,0.000545224,0.00831349,0.000551981,1.50032,0.0053678,0.0432395,1161,442,-0.0856114,0.166151
-56,582,0.0186768,0.235016,-0.000596627,0.0112327,0.000558083,0.011259,-0.000622898,1.52376,0.00772199,0.0464251,1168,442,0.0186484,-0.235029
-49,582,-0.501343,0.148529,-0.000505479,0.0130559,0.000854477,0.0131095,-0.000559105,1.50812,0.00893187,0.0459891,1175,442,-0.501378,-0.148525
-42,582,-0.0880127,-0.06604,0,0,0,0,0,0,0,-1,1182,442,-0.0880038,0.0660283
-35,582,-0.0288086,0.152771,0.000704489,0.0151672,0.0013986,0.0153012,0.000570482,1.47527,0.0100161,0.0446153,1189,442,-0.028757,-0.152763
-28,582,0.0644531,0.285156,0.00198858,0.0153495,0.00120879,0.015458,0.00188009,1.48129,0.00973929,0.0438514,1196,442,0.0644282,-0.285158
-21,582,0.178101,0.441406,0,0,0,0,0,0,0,-1,1203,442,0.178112,-0.441417
-14,582,0.02771,0.500214,0.00647056,0.0145754,0.00272313,0.0154054,0.00564061,1.27496,0.0089999,0.0455725,1210,442,0.0276792,-0.500202
-7,582,-0.486938,0.475525,0.010205,0.0142832,0.00407894,0.0168043,0.00768384,1.01719,0.00971379,0.0485146,1217,442,-0.486979,-0.475534
0,582,-0.971924,0.570801,0.0133284,0.0145829,0.00254535,0.0165771,0.0113341,0.906204,0.0097838,0.0471917,1224,442,-0.971878,-0.570794
7,582,0.0841064,1.31805,0,0,0,0,0,0,0,-1,1231,442,0.0841151,-1.31804
14,582,1.19019,1.70795,0.0197105,0.0139904,-0.0029033,0.0209258,0.0127751,-0.396455,0.0121795,0.0458131,1238,442,1.19015,-1.70794
21,582,1.83887,2.0239,0.0219526,0.0148293,-0.0060701,0.0254288,0.0113531,-0.520088,0.0147094,0.0453984,1245,442,1.83892,-2.0239
28,582,2.5885,2.33414,0.0234695,0.0159086,-0.00977242,0.0301672,0.00921086,-0.600839,0.0178517,0.0476268,1252,442,2.58852,-2.33413
35,582,-0.630615,-0.315765,0,0,0,0,0,0,0,-1,1259,442,-0.630662,0.315757
42,582,-1.84692,-0.709595,0.0254532,0.0234961,-0.0169515,0.0414544,0.00749489,-0.756567,0.0255077,0.045673,1266,442,-1.84698,0.70961
49,582,-0.845825,-0.242401,0.0268053,0.0308021,-0.0178482,0.0467634,0.010844,-0.841149,0.0282631,0.0441268,1273,442,-0.845883,0.242389
56,582,0.307739,-0.474152,0.024999,0.0399707,-0.0179546,0.0519375,0.0130322,-0.982906,0.0312017,0.0440312,1280,442,0.307769,0.474147
63,582,0.452148,-0.55484,0.0220259,0.0494489,-0.0164531,0.0571549,0.0143199,-1.13278,0.0343401,0.0420623,1287,442,0.452116,0.554837
70,582,0.466553,-0.674896,0.0203273,0.0582417,-0.0133047,0.0624446,0.0161243,-1.26482,0.0374311,0.0438992,1294,442,0.466532,0.674893
77,582,0.526733,-1.32062,0.0215174,0.0667502,-0.00515514,0.0673303,0.0209373,-1.45874,0.0397884,0.0436256,1301,442,0.526721,1.32062
84,582,0.53125,-2.53546,0.0238793,0.0843058,0.00630346,0.0849563,0.0232287,1.46796,0.0507005,0.0439981,1308,442,0.531281,2.53545
91,582,0.497681,-3.90186,0.0264664,0.0902212,0.0147773,0.0934798,0.0232078,1.35376,0.0562044,0.0464277,1315,442,0.497633,3.90185
98,582,0.772217,-5.26886,0.0277706,0.0951412,0.0204282,0.100851,0.0220603,1.29823,0.0612204,0.0460142,1322,442,0.772209,5.26886
105,582,1.23059,-0.642822,0.0299568,0.0992104,0.0276014,0.108865,0.020302,1.23431,0.0668451,0.0449934,1329,442,1.23055,0.642819
112,582,1.56958,-0.125763,0.03087,0.101868,0.0319322,0.114117,0.0186213,1.20452,0.0706931,0.0417993,1336,442,1.56955,0.125773
119,582,1.52295,0.209717,0,0,0,0,0,0,0,-1,1343,442,1.52298,-0.209712
126,582,1.30823,0.416199,0.0310173,0.100163,0.0351477,0.114892,0.0162886,1.17398,0.0717838,0.0458451,1350,442,1.30828,-0.416212
133,582,1.41284,-0.22467,0.0302299,0.095445,0.0330163,0.109241,0.0164334,1.17498,0.0680148,0.0471905,1357,442,1.41285,0.224685
140,582,1.16748,-0.286835,0.029287,0.0903255,0.0301265,0.10269,0.0169223,1.18133,0.0635746,0.0435869,1364,442,1.16753,0.286831
147,582,-0.777466,-0.633759,0,0,0,0,0,0,0,-1,1371,442,-0.777407,0.633757
154,582,-0.459351,-0.413696,0.0216245,0.069533,0.0189548,0.0761253,0.0150322,1.23609,0.0465556,0.0463088,1378,442,-0.459386,0.413699
161,582,-0.0780029,-0.293488,0.0173161,0.0591727,0.0139248,0.0633819,0.0131069,1.27725,0.038634,0.0454063,1385,442,-0.0780372,0.29349
168,582,-0.000366211,-0.247589,0.0144694,0.0482351,0.00974084,0.0508436,0.0118608,1.30914,0.0307152,0.0451622,1392,442,-0.000425029,0.247581
175,582,0.0476074,-0.184967,0,0,0,0,0,0,0,-1,1399,442,0.0475735,0.184973
182,582,-0.0863037,-0.432495,0,0,0,0,0,0,0,-1,1406,442,-0.0863423,0.432509
189,582,-0.303833,-0.182953,0.00200294,0.0147075,-0.00692218,0.0177503,-0.00103989,-1.15664,0.012195,0.0490088,1413,442,-0.303856,0.182946
196,582,-0.276367,-0.105377,0.000766261,0.0173827,-0.00578817,0.0192002,-0.0010512,-1.26655,0.0131645,0.0438165,1420,442,-0.276391,0.105363
203,582,-0.161743,-0.337799,0.00098328,0.0172844,-0.00280517,0.0177536,0.000514057,-1.40506,0.0116681,0.0405271,1427,442,-0.161796,0.337808
210,582,-0.133789,-0.0310669,0.00118494,0.0168783,-0.00221246,0.0171843,0.000878988,-1.43338,0.0111747,0.0380057,1434,442,-0.13373,0.0310763
217,582,-0.138062,0.164551,0.00146006,0.0165534,-0.00181922,0.0167696,0.00124388,-1.45252,0.010789,0.0333982,1441,442,-0.138049,-0.164559
224,582,-0.119263,0.0723267,0.0016254,0.0162563,-0.00194248,0.0165098,0.0013719,-1.44103,0.0105789,0.0333808,1448,442,-0.119204,-0.0723372
231,582,-0.0979004,-0.009552,0.00183401,0.0157236,-0.00180177,0.0159535,0.00160409,-1.44387,0.0101433,0.0314291,1455,442,-0.0979533,0.00955591
238,582,-0.167114,0.00836182,0.00203777,0.0147127,-0.0015186,0.0148921,0.00185836,-1.4532,0.00937026,0.0270757,1462,442,-0.167119,-0.0083564
245,582,-0.119141,0.0116882,0.0022047,0.0132621,-0.00109791,0.0133701,0.00209674,-1.47278,0.00830318,0.0233842,1469,442,-0.119104,-0.011679
252,582,-0.097168,-0.016571,0.00227374,0.0114261,-0.000659242,0.0114733,0.0022265,-1.49926,0.00702532,0.0148429,1476,442,-0.0971147,0.0165843
259,582,-0.112061,-0.0419312,0.00227564,0.00949801,-0.000224098,0.00950496,0.00226869,-1.53981,0.00573207,0.0119805,1483,442,-0.112041,0.0419195
266,582,-0.0926514,-0.030365,0.00214438,0.00762406,0.000208468,0.00763198,0.00213646,1.53283,0.00454636,0.00993192,1490,442,-0.0925942,0.0303759
273,582,-0.0926514,-0.0377197,0.00193258,0.0058293,0.000769401,0.00597572,0.00178616,1.38275,0.00354188,0.0100179,1497,442,-0.0926021,0.0377287
280,582,-0.074585,-0.0404358,0.00186131,0.00371713,0.00136024,0.00443581,0.00114263,1.08473,0.00265945,0.0106196,1504,442,-0.074622,0.0404395
287,582,-0.0644531,-0.0418701,0.00192901,0.00185677,0.00163135,0.00352465,0.000261142,0.774329,0.00226773,0.0101762,1511,442,-0.0644354,0.0418854
294,582,-0.0888672,-0.045166,0.00180976,0.000530847,0.00165496,0.0029445,-0.000603896,0.601039,0.0021922,0.00782987,1518,442,-0.0889039,0.0451782
301,582,-0.0797119,-0.0335083,0.00148259,-0.00017375,0.00135823,0.00224522,-0.000936382,0.511622,0.001888,0.00844267,1525,442,-0.0796932,0.0335114
308,582,-0.057373,-0.0265198,0.00137555,-0.000732891,0.000990716,0.00176801,-0.00112536,0.377177,0.00168417,0.0113672,1532,442,-0.0573908,0.0265134
315,582,-0.0614014,-0.0300293,0.00140406,-0.000730449,0.00073823,0.0016345,-0.000960891,0.30257,0.00151518,0.0127775,1539,442,-0.0614365,0.0300279
322,582,-0.0778809,-0.042511,0.00155684,-0.000620189,0.000514732,0.00167241,-0.000735756,0.220857,0.00142498,0.00986383,1546,442,-0.0779414,0.0424984
329,582,-0.076416,-0.0281372,0.00147316,-0.000520026,0.000482826,0.00158396,-0.000630826,0.225576,0.00131759,0.00954588,1553,442,-0.0764419,0.0281496
336,582,-0.0804443,-0.0262451,0.00119185,-0.000675452,0.000658234,0.00140055,-0.000884156,0.307041,0.00133026,0.00993724,1560,442,-0.0805009,0.0262554
343,582,-0.0837402,-0.0233765,0.000840862,-0.000534708,0.00081352,0.00121838,-0.000912222,0.434477,0.00123433,0.0115384,1567,442,-0.0837976,0.0233841
350,582,-0.0927734,-0.00564575,0.000528163,-0.000424806,0.000694057,0.000893553,-0.000790196,0.484587,0.000972723,0.0149081,1574,442,-0.0928064,0.00564053
357,582,-0.0787354,-0.0104675,0.000213138,-0.000282426,0.000692927,0.000701253,-0.000770541,0.613689,0.000850054,0.0129091,1581,442,-0.0787355,0.0104609
364,582,-0.065918,-0.0231018,-1.70596e-05,-0.000241441,0.000807076,0.000685587,-0.000944087,0.716336,0.00094483,0.010045,1588,442,-0.0658697,0.0230996
371,582,-0.0898438,-0.0231628,-0.000222353,2.73125e-05,0.000824251,0.00073613,-0.000931171,0.860552,0.00096481,0.0143724,1595,442,-0.0898661,0.0231609
378,582,-0.11438,-0.0397034,-0.000641114,0.000567904,0.000885109,0.00103524,-0.00110845,1.085,0.0012379,0.0148293,1602,442,-0.114364,0.0396893
385,582,-0.0831299,-0.0476685,-0.00107627,0.00118208,0.000887295,0.00148899,-0.00138317,1.23779,0.00165862,0.0104363,1609,442,-0.0831288,0.0476603
392,582,-0.09375,-0.0371704,-0.00101213,0.00194985,0.000876247,0.00218966,-0.00125194,1.30366,0.00201144,0.00921997,1616,442,-0.0937257,0.0371723
399,582,-0.10022,-0.0401306,-0.000923663,0.00290034,0.000914183,0.00310765,-0.00113097,1.3478,0.00253432,0.0105018,1623,442,-0.100222,0.0401201
406,582,-0.0942383,-0.0336304,-0.000632925,0.0039478,0.000922051,0.00412643,-0.000811558,1.37943,0.00305759,0.0149056,1630,442,-0.0942484,0.0336415
413,582,-0.0393066,0.0502014,-0.000256935,0.00560688,0.000918031,0.00574725,-0.000397301,1.41907,0.00397056,0.0236448,1637,442,-0.0393356,-0.050191
420,582,-0.0393066,0.0783386,7.36247e-05,0.00819844,0.00087333,0.00829125,-1.91885e-05,1.46492,0.00553391,0.0282223,1644,442,-0.0392651,-0.0783318
427,582,-0.0303955,0.0164795,0.000195638,0.0100957,0.000912678,0.0101791,0.000112202,1.47963,0.006749,0.0321896,1651,442,-0.0303642,-0.0164797
434,582,0.0201416,0.110474,0.000682397,0.0124626,0.000481463,0.0124823,0.000662753,1.53002,0.00810963,0.0367544,1658,442,0.0201464,-0.110474
441,582,0.107788,0.249207,0.00126899,0.0150253,-0.000514437,0.0150445,0.00124977,-1.53347,0.00964009,0.0397902,1665,442,0.107811,-0.249222
448,582,0.104858,0.427155,0.001444,0.0170499,-0.00136474,0.0171684,0.00132555,-1.48422,0.0110303,0.0471331,1672,442,0.10484,-0.427166
455,582,0.238525,0.624512,0.00142363,0.0200173,-0.0018359,0.0201968,0.00124409,-1.47331,0.0130696,0.0467974,1679,442,0.238466,-0.624498
462,582,0.404663,0.488953,0.000972631,0.0226068,-0.00276095,0.0229536,0.000625838,-1.44584,0.0150981,0.0416845,1686,442,0.404612,-0.488946
469,582,0.433838,0.254333,2.08111e-05,0.0254403,-0.00469729,0.0262806,-0.00081943,-1.39379,0.0177998,0.0422598,1693,442,0.433889,-0.254346
476,582,0.0472412,0.114288,-0.0011802,0.0271639,-0.00689931,0.028754,-0.00277037,-1.34427,0.0201564,0.0403708,1700,442,0.04728,-0.114276
483,582,0,0,0,0,0,0,0,0,0,-1,1707,442,0,0
490,582,0,0,0,0,0,0,0,0,0,-1,1714,442,0,0
497,582,0,0,0,0,0,0,0,0,0,-1,1721,442,0,0
504,582,0,0,0,0,0,0,0,0,0,-1,1728,442,0,0
511,582,0,0,0,0,0,0,0,0,0,-1,1735,442,0,0
518,582,0,0,0,0,0,0,0,0,0,-1,1742,442,0,0
525,582,0,0,0,0,0,0,0,0,0,-1,1749,442,0,0
532,582,0,0,0,0,0,0,0,0,0,-1,1756,442,0,0
539,582,0,0,0,0,0,0,0,0,0,-1,1763,442,0,0
546,582,0,0,0,0,0,0,0,0,0,-1,1770,442,0,0
553,582,0,0,0,0,0,0,0,0,0,-1,1777,442,0,0
560,582,0,0,0,0,0,0,0,0,0,-1,1784,442,0,0
567,582,0,0,0,0,0,0,0,0,0,-1,1791,442,0,0
574,582,0,0,0,0,0,0,0,0,0,-1,1798,442,0,0
581,582,0,0,0,0,0,0,0,0,0,-1,1805,442,0,0
588,582,0,0,0,0,0,0,0,0,0,-1,1812,442,0,0
595,582,0,0,0,0,0,0,0,0,0,-1,1819,442,0,0
602,582,0,0,0,0,0,0,0,0,0,-1,1826,442,0,0
609,582,0,0,0,0,0,0,0,0,0,-1,1833,442,0,0
616,582,0,0,0,0,0,0,0,0,0,-1,1840,442,0,0
623,582,0,0,0,0,0,0,0,0,0,-1,1847,442,0,0
630,582,0,0,0,0,0,0,0,0,0,-1,1854,442,0,0
637,582,0,0,0,0,0,0,0,0,0,-1,1861,442,0,0
644,582,0,0,0,0,0,0,0,0,0,-1,1868,442,0,0
651,582,0,0,0,0,0,0,0,0,0,-1,1875,442,0,0
658,582,0,0,0,0,0,0,0,0,0,-1,1882,442,0,0
665,582,0,0,0,0,0,0,0,0,0,-1,1889,442,0,0
672,582,0,0,0,0,0,0,0,0,0,-1,1896,442,0,0
679,582,0,0,0,0,0,0,0,0,0,-1,1903,442,0,0
686,582,0,0,0,0,0,0,0,0,0,-1,1910,442,0,0
693,582,0,0,0,0,0,0,0,0,0,-1,1917,442,0,0
700,582,0,0,0,0,0,0,0,0,0,-1,1924,442,0,0
707,582,0,0,0,0,0,0,0,0,0,-1,1931,442,0,0
714,582,0,0,0,0,0,0,0,0,0,-1,1938,442,0,0
721,582,0,0,0,0,0,0,0,0,0,-1,1945,442,0,0
728,582,0,0,0,0,0,0,0,0,0,-1,1952,442,0,0
735,582,0,0,0,0,0,0,0,0,0,-1,1959,442,0,0
742,582,0,0,0,0,0,0,0,0,0,-1,1966,442,0,0
749,582,0,0,0,0,0,0,0,0,0,-1,1973,442,0,0
756,582,0,0,0,0,0,0,0,0,0,-1,1980,442,0,0
763,582,0,0,0,0,0,0,0,0,0,-1,1987,442,0,0
770,582,0,0,0,0,0,0,0,0,0,-1,1994,442,0,0
777,582,0,0,0,0,0,0,0,0,0,-1,2001,442,0,0
784,582,0,0,0,0,0,0,0,0,0,-1,2008,442,0,0
791,582,0,0,0,0,0,0,0,0,0,-1,2015,442,0,0
798,582,0,0,0,0,0,0,0,0,0,-1,2022,442,0,0
805,582,0,0,0,0,0,0,0,0,0,-1,2029,442,0,0
812,582,0,0,0,0,0,0,0,0,0,-1,2036,442,0,0
-700,575,0,0,0,0,0,0,0,0,0,-1,524,449,0,0
-693,575,0,0,0,0,0,0,0,0,0,-1,531,449,0,0
-686,575,0,0,0,0,0,0,0,0,0,-1,538,449,0,0
-679,575,0,0,0,0,0,0,0,0,0,-1,545,449,0,0
-672,575,0,0,0,0,0,0,0,0,0,-1,552,449,0,0
-665,575,0,0,0,0,0,0,0,0,0,-1,559,449,0,0
-658,575,0,0,0,0,0,0,0,0,0,-1,566,449,0,0
-651,575,0,0,0,0,0,0,0,0,0,-1,573,449,0,0
-644,575,0,0,0,0,0,0,0,0,0,-1,580,449,0,0
-637,575,0,0,0,0,0,0,0,0,0,-1,587,449,0,0
-630,575,0,0,0,0,0,0,0,0,0,-1,594,449,0,0
-623,575,0,0,0,0,0,0,0,0,0,-1,601,449,0,0
-616,575,0,0,0,0,0,0,0,0,0,-1,608,449,0,0
-609,575,0,0,0,0,0,0,0,0,0,-1,615,449,0,0
-602,575,0,0,0,0,0,0,0,0,0,-1,622,449,0,0
-595,575,0,0,0,0,0,0,0,0,0,-1,629,449,0,0
-588,575,0,0,0,0,0,0,0,0,0,-1,636,449,0,0
-581,575,0,0,0,0,0,0,0,0,0,-1,643,449,0,0
-574,575,0,0,0,0,0,0,0,0,0,-1,650,449,0,0
-567,575,0,0,0,0,0,0,0,0,0,-1,657,449,0,0
-560,575,0,0,0,0,0,0,0,0,0,-1,664,449,0,0
-553,575,0,0,0,0,0,0,0,0,0,-1,671,449,0,0
-546,575,0,0,0,0,0,0,0,0,0,-1,678,449,0,0
-539,575,0,0,0,0,0,0,0,0,0,-1,685,449,0,0
-532,575,0,0,0,0,0,0,0,0,0,-1,692,449,0,0
-525,575,0,0,0,0,0,0,0,0,0,-1,699,449,0,0
-518,575,0,0,0,0,0,0,0,0,0,-1,706,449,0,0
-511,575,0,0,0,0,0,0,0,0,0,-1,713,449,0,0
-504,575,0,0,0,0,0,0,0,0,0,-1,720,449,0,0
-497,575,0,0,0,0,0,0,0,0,0,-1,727,449,0,0
-490,575,0,0,0,0,0,0,0,0,0,-1,734,449,0,0
-483,575,0,0,0,0,0,0,0,0,0,-1,741,449,0,0
-476,575,0,0,0,0,0,0,0,0,0,-1,748,449,0,0
-469,575,0,0,0,0,0,0,0,0,0,-1,755,449,0,0
-462,575,0,0,0,0,0,0,0,0,0,-1,762,449,0,0
-455,575,0,0,0,0,0,0,0,0,0,-1,769,449,0,0
-448,575,0,0,0,0,0,0,0,0,0,-1,776,449,0,0
-441,575,0,0,0,0,0,0,0,0,0,-1,783,449,0,0
-434,575,0,0,0,0,0,0,0,0,0,-1,790,449,0,0
-427,575,0,0,0,0,0,0,0,0,0,-1,797,449,0,0
-420,575,0,0,0,0,0,0,0,0,0,-1,804,449,0,0
-413,575,0,0,0,0,0,0,0,0,0,-1,811,449,0,0
-406,575,0,0,0,0,0,0,0,0,0,-1,818,449,0,0
-399,575,0,0,0,0,0,0,0,0,0,-1,825,449,0,0
-392,575,0,0,0,0,0,0,0,0,0,-1,832,449,0,0
-385,575,0,0,0,0,0,0,0,0,0,-1,839,449,0,0
-378,575,0,0,0,0,0,0,0,0,0,-1,846,449,0,0
-371,575,-0.141907,0.400269,0,0,0,0,0,0,0,-1,853,449,-0.141935,-0.400259
-364,575,-0.00622559,-0.0264587,0,0,0,0,0,0,0,-1,860,449,-0.0062098,0.0264516
-357,575,0.28125,0.0971375,0,0,0,0,0,0,0,-1,867,449,0.281236,-0.0971292
-350,575,0.442078,0.0579224,0.0190343,0.0696175,-0.0213663,0.0774345,0.0112172,-1.22006,0.0483199,0.049923,874,449,0.442096,-0.0579248
-343,575,0.0939941,-0.55954,0.0227441,0.0689369,-0.0172953,0.0746948,0.0169862,-1.24942,0.0452109,0.0478156,881,449,0.0939963,0.559532
-336,575,-8.22308,1.01767,0.0277907,0.0631967,-0.0148868,0.068624,0.0223634,-1.2212,0.0404129,0.0464536,888,449,-8.22307,-1.01768
-329,575,-8.55951,1.29007,0.0303369,0.0570112,-0.0113845,0.0612094,0.0261387,-1.21751,0.0354644,0.0490675,895,449,-8.55948,-1.29008
-322,575,-0.580811,1.1127,0.0312287,0.0502306,-0.00980294,0.0543813,0.0270781,-1.17028,0.0313971,0.041299,902,449,-0.580804,-1.11269
-315,575,-0.441589,0.483124,0.0304593,0.0420372,-0.00849419,0.0465275,0.025969,-1.0845,0.0269231,0.0421909,909,449,-0.441568,-0.483121
-308,575,-0.120056,0.14325,0.0284567,0.034984,-0.00811464,0.0404667,0.022974,-0.976596,0.0234348,0.0398758,916,449,-0.120033,-0.143236
-301,575,-0.0797729,0.0262146,0.0256261,0.0295639,-0.00782592,0.0356648,0.0195252,-0.908633,0.020622,0.0282187,923,449,-0.0797751,-0.0262198
-294,575,-0.111206,-0.00842285,0.0223906,0.0247377,-0.00719087,0.0308502,0.0162781,-0.866288,0.0178204,0.0210648,930,449,-0.111193,0.00843075
-287,575,-0.0838013,-0.0266724,0.0198529,0.0185512,-0.00528159,0.0245236,0.0138805,-0.724094,0.0141998,0.014766,937,449,-0.0837853,0.0266823
-280,575,-0.0577393,-0.0327759,0.0170062,0.0135817,-0.00431475,0.019936,0.0106519,-0.596508,0.0115191,0.0110619,944,449,-0.0577374,0.0327736
-273,575,-0.0576782,-0.02771,0.0116685,0.0131424,-0.00516254,0.0176203,0.00719059,-0.856294,0.0102302,0.0108442,951,449,-0.0576549,0.0277171
-266,575,-0.0651245,-0.049408,0.00779072,0.0111169,-0.00461574,0.01436,0.00454758,-0.95831,0.00847445,0.0127777,958,449,-0.0651235,0.0493951
-259,575,-0.0582275,-0.056366,0.00653021,0.00950316,-0.00410976,0.012387,0.00364636,-0.958925,0.00735048,0.0122549,965,449,-0.0582274,0.0563672
-252,575,-0.0629272,-0.0428772,0.00524219,0.00778034,-0.0034396,0.0101775,0.00284502,-0.962131,0.00606339,0.0104486,972,449,-0.0629392,0.0428809
-245,575,-0.0662842,-0.0486145,0.00417401,0.00611142,-0.00226317,0.0076045,0.00268094,-0.987615,0.00445364,0.012643,979,449,-0.0662646,0.0486221
-238,575,-0.0692749,-0.040863,0.00331364,0.00474957,-0.00154461,0.00573493,0.00232829,-1.00295,0.00333052,0.0130133,986,449,-0.0692937,0.0408772
-231,575,-0.0839844,-0.0235901,0.00240403,0.00340556,-0.000738555,0.00379711,0.00201248,-1.08331,0.00219358,0.0118469,993,449,-0.0839797,0.0235811
-224,575,-0.0899048,-0.00958252,0.00191043,0.00236263,-0.000334359,0.00254016,0.0017329,-1.08269,0.00149867,0.0114884,1000,449,-0.0899059,0.00957003
-217,575,-0.0773315,-0.0167847,0.00199061,0.00221229,-0.000525921,0.00263892,0.00156398,-0.889256,0.00153228,0.0100538,1007,449,-0.0773212,0.0167768
-210,575,-0.0620728,-0.0410461,0.00207812,0.00210323,-0.000856701,0.00294747,0.00123388,-0.792724,0.00170922,0.00867686,1014,449,-0.0620906,0.041047
-203,575,-0.0551147,-0.0397949,0.00206849,0.00214368,-0.000886975,0.00299386,0.00121831,-0.80658,0.00173846,0.0102181,1021,449,-0.0551434,0.039781
-196,575,-0.0534668,-0.0432739,0.00234337,0.00254517,-0.000700421,0.00315192,0.00173662,-0.856934,0.00182291,0.0110434,1028,449,-0.0534171,0.0432848
-189,575,-0.0828857,-0.0441284,0.00276702,0.00278417,-0.000425976,0.00320166,0.00234953,-0.795464,0.00191468,0.0117127,1035,449,-0.0828659,0.0441295
-182,575,-0.0870361,-0.0272217,0.00306448,0.00273697,-0.000282387,0.00322716,0.00257429,-0.522644,0.00197021,0.0116928,1042,449,-0.0870873,0.0272332
-175,575,-0.0718994,-0.0172424,0.0031218,0.00309872,-0.00027952,0.00339002,0.0028305,-0.76476,0.00209852,0.0103129,1049,449,-0.0719305,0.017242
-168,575,-0.0814209,-0.0194397,0.00332294,0.00322007,-7.33017e-06,0.00332346,0.00321955,-0.0707835,0.00218183,0.0098261,1056,449,-0.0814153,0.019454
-161,575,-0.0820313,-0.0372925,0.00366352,0.00345644,0.000364285,0.0039387,0.00318127,0.646935,0.00241327,0.0129847,1063,449,-0.0820842,0.0372906
-154,575,-0.0805664,-0.0392761,0.00365269,0.003658,0.000767643,0.00442299,0.0028877,0.787126,0.0025931,0.0131331,1070,449,-0.080555,0.0392692
-147,575,-0.0936279,-0.0482483,0.00370375,0.00345189,0.00104307,0.00462846,0.00252717,0.725324,0.00267601,0.0114702,1077,449,-0.0936563,0.0482621
-140,575,-0.0856934,-0.0566101,0.00410484,0.0032343,0.000935365,0.00470125,0.00263789,0.567626,0.00272102,0.0155844,1084,449,-0.0856893,0.0566143
-133,575,-0.100342,-0.0423584,0.00392086,0.00314816,0.00111463,0.00471419,0.00235482,0.618569,0.00272174,0.0240018,1091,449,-0.10036,0.0423488
-126,575,-0.117188,-0.0283508,0.00358949,0.00308251,0.00135212,0.00471168,0.00196032,0.692737,0.00273304,0.0277469,1098,449,-0.117154,0.0283583
-119,575,-0.0638428,-0.0656128,0.00348084,0.00297187,0.00134884,0.00459898,0.00185372,0.692159,0.0026718,0.0324577,1105,449,-0.0638547,0.0656186
-112,575,0.0305176,0.163879,0.00313359,0.00256982,0.00167531,0.00455057,0.00115285,0.70205,0.00273176,0.0405931,1112,449,0.0305002,-0.163877
-105,575,-0.0605469,0.242584,0.00276223,0.00255738,0.00190881,0.00457136,0.000748251,0.758594,0.00283131,0.0402516,1119,449,-0.0605843,-0.242596
-98,575,-0.299805,0.116211,0.0024013,0.00287337,0.00169341,0.00434712,0.000927552,0.854643,0.0026437,0.0404136,1126,449,-0.299858,-0.116226
-91,575,-0.430908,-0.00500488,0.00184745,0.00351022,0.00146783,0.00436577,0.000991909,1.04307,0.00264267,0.0406895,1133,449,-0.430948,0.00500577
-84,575,0.0152588,0.198517,0.00162489,0.00478849,0.00128724,0.00524607,0.0011673,1.22925,0.0031805,0.043022,1140,449,0.0152717,-0.198507
-77,575,0.00500488,0.229156,0.00194805,0.00682636,0.00126938,0.00713689,0.00163752,1.33087,0.00431689,0.040432,1147,449,0.0050443,-0.229142
-70,575,0.156372,-0.0777283,0.00251442,0.00904135,0.00146803,0.00935634,0.00219944,1.35944,0.00564899,0.0424588,1154,449,0.156355,0.0777242
-63,575,-0.0637207,-0.207001,0,0,0,0,0,0,0,-1,1161,449,-0.0637606,0.206998
-56,575,-0.50769,0.221008,0,0,0,0,0,0,0,-1,1168,449,-0.507665,-0.221018
-49,575,-0.455811,0.19574,-0.000245385,0.0193115,0.000933623,0.019356,-0.000289854,1.5232,0.0130017,0.0454065,1175,449,-0.455829,-0.195754
-42,575,-0.153442,0.0231628,0,0,0,0,0,0,0,-1,1182,449,-0.153385,-0.0231732
-35,575,0.0429688,0.134003,0.00102289,0.0238309,0.00140349,0.023917,0.000936856,1.50957,0.0156417,0.0447542,1189,449,0.0429322,-0.134017
-28,575,0.472534,0.108521,0.00240374,0.0252595,0.00121653,0.025324,0.00233917,1.51777,0.0161595,0.0451232,1196,449,0.472531,-0.108514
-21,575,0.837036,0.0650635,0,0,0,0,0,0,0,-1,1203,449,0.837025,-0.0650627
-14,575,1.18726,0.0487061,0.00772173,0.02617,0.00327374,0.0267337,0.00715801,1.40028,0.0159801,0.0495846,1210,449,1.1873,-0.0487074
-7,575,-0.786621,0.241669,0.0122128,0.0266746,0.00499009,0.0282293,0.0106581,1.26877,0.0164603,0.045411,1217,449,-0.786605,-0.241678
0,575,0.0224609,1.09576,0.0155487,0.0276912,0.00277746,0.0282964,0.0149435,1.35627,0.0163455,0.0460253,1224,449,0.0224119,-1.09576
7,575,0.725708,1.34534,0.0186588,0.0270823,-0.000629125,0.027129,0.0186121,-1.49666,0.0160203,0.0463214,1231,449,0.725756,-1.34533
14,575,1.07263,1.85324,0.0225291,0.0262468,-0.00472895,0.0294691,0.0193068,-0.972663,0.0172849,0.0473126,1238,449,1.07268,-1.85324
21,575,1.66077,2.14563,0,0,0,0,0,0,0,-1,1245,449,1.66074,-2.14562
28,575,2.76904,2.0318,0,0,0,0,0,0,0,-1,1252,449,2.7691,-2.03181
35,575,3.50793,2.40839,0,0,0,0,0,0,0,-1,1259,449,3.50799,-2.40838
42,575,-2.84827,-0.918243,0,0,0,0,0,0,0,-1,1266,449,-2.84825,0.918258
49,575,0.450684,-0.68988,0,0,0,0,0,0,0,-1,1273,449,0.450682,0.689883
56,575,0.385132,-0.803864,0.0274023,0.0460669,-0.0243916,0.0628505,0.0106187,-0.968108,0.0388476,0.0443754,1280,449,0.385189,0.803855
63,575,0.401367,-0.916595,0.0236165,0.0562609,-0.0220985,0.0674116,0.0124658,-1.10348,0.0414159,0.0427699,1287,449,0.401374,0.916596
70,575,0.376343,-1.06625,0.0214996,0.0658988,-0.017525,0.0719825,0.0154158,-1.23667,0.0437643,0.04509,1294,449,0.376329,1.06626
77,575,0.300659,-1.20825,0.0236951,0.0757211,-0.0059031,0.0763825,0.0230337,-1.45922,0.0452424,0.0494176,1301,449,0.300687,1.20824
84,575,0.187134,-1.3078,0.0277777,0.101404,0.0104097,0.102848,0.0263343,1.43301,0.0616901,0.0479548,1308,449,0.187163,1.3078
91,575,0.0982666,-1.44028,0,0,0,0,0,0,0,-1,1315,449,0.098215,1.44028
98,575,0.8125,-5.81177,0.0349801,0.119222,0.0298647,0.128735,0.0254671,1.26242,0.0787199,0.0440891,1322,449,0.812537,5.81178
105,575,1.90222,-0.914307,0.0390802,0.12712,0.0397307,0.142399,0.0238019,1.20368,0.0880772,0.0430456,1329,449,1.90227,0.914313
112,575,1.89856,-0.31427,0.0412856,0.133325,0.0456624,0.152135,0.0224757,1.18005,0.0948233,0.0426635,1336,449,1.89854,0.314276
119,575,1.85022,0.481506,0,0,0,0,0,0,0,-1,1343,449,1.85021,-0.481492
126,575,2.24451,-0.479706,0.0435168,0.136518,0.0500664,0.158347,0.0216877,1.15964,0.0991297,0.0430792,1350,449,2.24456,0.479694
133,575,2.19263,-0.711823,0.0430765,0.132369,0.0470368,0.152574,0.022871,1.16506,0.0950146,0.0447549,1357,449,2.19269,0.711812
140,575,0.577271,2.41324,0.0422563,0.12743,0.0428669,0.145269,0.024418,1.17646,0.0898198,0.0448634,1364,449,0.577323,-2.41324
147,575,0.53894,1.51236,0.0391544,0.117214,0.036521,0.131636,0.0247323,1.1947,0.0807854,0.0482545,1371,449,0.538921,-1.51235
154,575,-0.81189,-0.168823,0,0,0,0,0,0,0,-1,1378,449,-0.811881,0.168825
161,575,-0.207031,-0.356842,0,0,0,0,0,0,0,-1,1385,449,-0.206999,0.356832
168,575,-0.137207,-0.322571,0,0,0,0,0,0,0,-1,1392,449,-0.137254,0.322561
175,575,-0.0551758,-0.214478,0,0,0,0,0,0,0,-1,1399,449,-0.055176,0.214478
182,575,0.0457764,-0.576996,0,0,0,0,0,0,0,-1,1406,449,0.0457186,0.576999
189,575,-0.23584,-0.322418,0,0,0,0,0,0,0,-1,1413,449,-0.235842,0.322426
196,575,-0.134399,-0.325409,0.000762293,0.0225226,-0.00924515,0.02592,-0.00263518,-1.21863,0.018222,0.0441573,1420,449,-0.134382,0.325398
203,575,-0.248901,-0.430237,0.00102925,0.0225499,-0.00503761,0.0236708,-9.159e-05,-1.35187,0.0158111,0.0426981,1427,449,-0.24886,0.430249
210,575,-0.214966,-0.0216064,0.00131552,0.0223144,-0.00405732,0.023071,0.000558843,-1.38642,0.0151978,0.0423061,1434,449,-0.214941,0.0215951
217,575,-0.160156,0.368103,0.00171321,0.0220586,-0.00338876,0.0226082,0.00116361,-1.41002,0.0146996,0.0405745,1441,449,-0.160096,-0.368089
224,575,-0.0262451,0.0387573,0.00191293,0.0219233,-0.00334087,0.0224664,0.00136989,-1.40966,0.0145425,0.0415449,1448,449,-0.0262298,-0.0387569
231,575,-0.885986,1.04318,0,0,0,0,0,0,0,-1,1455,449,-0.885927,-1.0432
238,575,-0.656616,1.63519,0,0,0,0,0,0,0,-1,1462,449,-0.656619,-1.6352
245,575,-0.13208,0.498505,0,0,0,0,0,0,0,-1,1469,449,-0.13212,-0.498498
252,575,-0.133057,0.0388184,0.00249973,0.0156013,-0.000768186,0.0156462,0.00245484,-1.51243,0.00971642,0.0353446,1476,449,-0.133074,-0.0388196
259,575,-0.21228,-0.00643921,0.00252707,0.0129698,-6.76249e-05,0.0129702,0.00252663,-1.56432,0.00793977,0.0329104,1483,449,-0.212248,0.00644397
266,575,-0.0124512,-0.0348511,0.00242967,0.0103165,0.000614758,0.0103642,0.00238204,1.49347,0.00626816,0.0248774,1490,449,-0.0124933,0.0348555
273,575,-0.050293,-0.043396,0.00224803,0.0077245,0.00140539,0.00806409,0.00190843,1.3337,0.0048663,0.0170797,1497,449,-0.0503155,0.0434046
280,575,-0.0678711,-0.0534058,0.0022316,0.00469843,0.00218909,0.00597767,0.000952363,1.04195,0.00370864,0.0134101,1504,449,-0.0678967,0.0534152
287,575,-0.0622559,-0.0534973,0.00240746,0.00211509,0.00252798,0.00479348,-0.000270934,0.756517,0.00328969,0.0102672,1511,449,-0.0622658,0.0534841
294,575,-0.0759277,-0.0515747,0.00240072,0.000236052,0.00253653,0.00407619,-0.00143941,0.583744,0.0033035,0.0087419,1518,449,-0.0759553,0.0515618
301,575,-0.0772705,-0.0518188,0.00214554,-0.000946488,0.00209807,0.00320569,-0.00200663,0.467875,0.00303576,0.00869562,1525,449,-0.0772144,0.0518173
308,575,-0.0708008,-0.0457458,0.00206884,-0.00170146,0.00164403,0.00268501,-0.00231763,0.358591,0.00289087,0.00976306,1532,449,-0.0708269,0.0457539
315,575,-0.0786133,-0.0460205,0.0020861,-0.00155827,0.00126496,0.00248213,-0.0019543,0.303411,0.00256741,0.0100604,1539,449,-0.078575,0.0460089
322,575,-0.0748291,-0.0309448,0.00221942,-0.00108364,0.000900878,0.00244915,-0.00131337,0.249683,0.00220504,0.00898419,1546,449,-0.0748155,0.030934
329,575,-0.0681152,-0.0172424,0.00204116,-0.000654864,0.000747487,0.00223454,-0.000848238,0.253149,0.00183885,0.00992504,1553,449,-0.0680889,0.0172286
336,575,-0.0780029,-0.0239258,0.00168685,-0.000518545,0.000713836,0.00189774,-0.000729432,0.287256,0.00156599,0.0116336,1560,449,-0.0779463,0.0239126
343,575,-0.0616455,-0.0307312,0.00127253,-0.00022648,0.000642235,0.00151005,-0.000464003,0.354238,0.00119186,0.0108678,1567,449,-0.0615939,0.0307369
350,575,-0.0656738,-0.019104,0.00085164,0.000101238,0.000339675,0.000982557,-2.96785e-05,0.367871,0.000665151,0.010188,1574,449,-0.0656741,0.0191003
357,575,-0.059082,-0.0310364,0.000456753,0.000360676,0.000183037,0.000597951,0.000219478,0.657066,0.000349271,0.0100816,1581,449,-0.0590415,0.031029
364,575,-0.0626221,-0.0374146,0.000153018,0.000476555,0.000144428,0.000531647,9.79258e-05,1.20638,0.000326719,0.00982223,1588,449,-0.0626646,0.0374128
371,575,-0.131836,-0.0395203,-0.000137858,0.000752675,4.09902e-05,0.000754558,-0.00013974,1.5249,0.000555509,0.0181593,1595,449,-0.131798,0.0395276
378,575,-0.108398,-0.0447083,-0.000555789,0.00117182,1.9069e-05,0.00117204,-0.000556,1.55976,0.00101859,0.0164469,1602,449,-0.108408,0.0447074
385,575,-0.079834,-0.0357056,-0.000878562,0.00160255,1.69015e-05,0.00160267,-0.000878677,1.56398,0.00145279,0.0105066,1609,449,-0.079797,0.0357207
392,575,-0.0799561,-0.0274963,-0.000761357,0.00211524,4.05488e-05,0.00211581,-0.000761928,1.5567,0.00172167,0.00893241,1616,449,-0.0799407,0.0275056
399,575,-0.0626221,-0.0428162,-0.000647548,0.00281413,0.000137148,0.00281956,-0.000652973,1.53126,0.00213098,0.00918679,1623,449,-0.0626611,0.0428034
406,575,-0.0710449,-0.0296326,-0.000357755,0.00360435,0.000241416,0.003619,-0.000372411,1.51016,0.0025459,0.00975645,1630,449,-0.0710614,0.0296324
413,575,-0.0720215,-0.0223389,5.18076e-05,0.00484536,0.000333986,0.00486852,2.86493e-05,1.50157,0.00323617,0.00965384,1637,449,-0.0720517,0.0223481
420,575,-0.064209,-0.0168762,0.00043487,0.00692603,0.000457189,0.00695807,0.000402828,1.50082,0.00451044,0.00975078,1644,449,-0.0642617,0.016872
427,575,-0.0721436,-0.0287476,0.000595514,0.00846283,0.000661691,0.0085181,0.00054025,1.48747,0.00550749,0.0132642,1651,449,-0.072198,0.0287481
434,575,-0.0413818,-0.0405579,0.00103009,0.0104284,0.000393759,0.0104449,0.00101362,1.529,0.00665118,0.0180996,1658,449,-0.0413626,0.0405662
441,575,-0.0644531,0.0299377,0.00152225,0.0123971,-0.000284668,0.0124046,0.0015148,-1.54464,0.00781387,0.0333057,1665,449,-0.0644856,-0.0299453
448,575,0.149292,0.168365,0.00165759,0.0139641,-0.000830517,0.0140199,0.00160179,-1.50372,0.00886107,0.0445289,1672,449,0.149295,-0.16837
455,575,0.46875,0.182159,0,0,0,0,0,0,0,-1,1679,449,0.468756,-0.182165
462,575,-0.0269775,0.338501,0,0,0,0,0,0,0,-1,1686,449,-0.0269218,-0.338498
469,575,-0.135254,0.270691,0,0,0,0,0,0,0,-1,1693,449,-0.135211,-0.270704
476,575,-0.154785,0.490631,-0.000521666,0.0211943,-0.00500291,0.0222914,-0.0016188,-1.35491,0.0154289,0.0444775,1700,449,-0.154824,-0.490618
483,575,-0.133301,0.360687,-0.00137941,0.0208043,-0.00692669,0.0227895,-0.00336456,-1.29168,0.0164298,0.0429039,1707,449,-0.133243,-0.360687
490,575,-0.283203,-0.0785522,0,0,0,0,0,0,0,-1,1714,449,-0.283204,0.0785429
497,575,0,0,0,0,0,0,0,0,0,-1,1721,449,0,0
504,575,0,0,0,0,0,0,0,0,0,-1,1728,449,0,0
511,575,0,0,0,0,0,0,0,0,0,-1,1735,449,0,0
518,575,0,0,0,0,0,0,0,0,0,-1,1742,449,0,0
525,575,0,0,0,0,0,0,0,0,0,-1,1749,449,0,0
532,575,0,0,0,0,0,0,0,0,0,-1,1756,449,0,0
539,575,0,0,0,0,0,0,0,0,0,-1,1763,449,0,0
546,575,0,0,0,0,0,0,0,0,0,-1,1770,449,0,0
553,575,0,0,0,0,0,0,0,0,0,-1,1777,449,0,0
560,575,0,0,0,0,0,0,0,0,0,-1,1784,449,0,0
567,575,0,0,0,0,0,0,0,0,0,-1,1791,449,0,0
574,575,0,0,0,0,0,0,0,0,0,-1,1798,449,0,0
581,575,0,0,0,0,0,0,0,0,0,-1,1805,449,0,0
588,575,0,0,0,0,0,0,0,0,0,-1,1812,449,0,0
595,575,0,0,0,0,0,0,0,0,0,-1,1819,449,0,0
602,575,0,0,0,0,0,0,0,0,0,-1,1826,449,0,0
609,575,0,0,0,0,0,0,0,0,0,-1,1833,449,0,0
616,575,0,0,0,0,0,0,0,0,0,-1,1840,449,0,0
623,575,0,0,0,0,0,0,0,0,0,-1,1847,449,0,0
630,575,0,0,0,0,0,0,0,0,0,-1,1854,449,0,0
637,575,0,0,0,0,0,0,0,0,0,-1,1861,449,0,0
644,575,0,0,0,0,0,0,0,0,0,-1,1868,449,0,0
651,575,0,0,0,0,0,0,0,0,0,-1,1875,449,0,0
658,575,0,0,0,0,0,0,0,0,0,-1,1882,449,0,0
665,575,0,0,0,0,0,0,0,0,0,-1,1889,449,0,0
672,575,0,0,0,0,0,0,0,0,0,-1,1896,449,0,0
679,575,0,0,0,0,0,0,0,0,0,-1,1903,449,0,0
686,575,0,0,0,0,0,0,0,0,0,-1,1910,449,0,0
693,575,0,0,0,0,0,0,0,0,0,-1,1917,449,0,0
700,575,0,0,0,0,0,0,0,0,0,-1,1924,449,0,0
707,575,0,0,0,0,0,0,0,0,0,-1,1931,449,0,0
714,575,0,0,0,0,0,0,0,0,0,-1,1938,449,0,0
721,575,0,0,0,0,0,0,0,0,0,-1,1945,449,0,0
728,575,0,0,0,0,0,0,0,0,0,-1,1952,449,0,0
735,575,0,0,0,0,0,0,0,0,0,-1,1959,449,0,0
742,575,0,0,0,0,0,0,0,0,0,-1,1966,449,0,0
749,575,0,0,0,0,0,0,0,0,0,-1,1973,449,0,0
756,575,0,0,0,0,0,0,0,0,0,-1,1980,449,0,0
763,575,0,0,0,0,0,0,0,0,0,-1,1987,449,0,0
770,575,0,0,0,0,0,0,0,0,0,-1,1994,449,0,0
777,575,0,0,0,0,0,0,0,0,0,-1,2001,449,0,0
784,575,0,0,0,0,0,0,0,0,0,-1,2008,449,0,0
791,575,0,0,0,0,0,0,0,0,0,-1,2015,449,0,0
798,575,0,0,0,0,0,0,0,0,0,-1,2022,449,0,0
805,575,0,0,0,0,0,0,0,0,0,-1,2029,449,0,0
812,575,0,0,0,0,0,0,0,0,0,-1,2036,449,0,0
-700,568,0,0,0,0,0,0,0,0,0,-1,524,456,0,0
-693,568,0,0,0,0,0,0,0,0,0,-1,531,456,0,0
-686,568,0,0,0,0,0,0,0,0,0,-1,538,456,0,0
-679,568,0,0,0,0,0,0,0,0,0,-1,545,456,0,0
-672,568,0,0,0,0,0,0,0,0,0,-1,552,456,0,0
-665,568,0,0,0,0,0,0,0,0,0,-1,559,456,0,0
-658,568,0,0,0,0,0,0,0,0,0,-1,566,456,0,0
-651,568,0,0,0,0,0,0,0,0,0,-1,573,456,0,0
-644,568,0,0,0,0,0,0,0,0,0,-1,580,456,0,0
-637,568,0,0,0,0,0,0,0,0,0,-1,587,456,0,0
-630,568,0,0,0,0,0,0,0,0,0,-1,594,456,0,0
-623,568,0,0,0,0,0,0,0,0,0,-1,601,456,0,0
-616,568,0,0,0,0,0,0,0,0,0,-1,608,456,0,0
-609,568,0,0,0,0,0,0,0,0,0,-1,615,456,0,0
-602,568,0,0,0,0,0,0,0,0,0,-1,622,456,0,0
-595,568,0,0,0,0,0,0,0,0,0,-1,629,456,0,0
-588,568,0,0,0,0,0,0,0,0,0,-1,636,456,0,0
-581,568,0,0,0,0,0,0,0,0,0,-1,643,456,0,0
-574,568,0,0,0,0,0,0,0,0,0,-1,650,456,0,0
-567,568,0,0,0,0,0,0,0,0,0,-1,657,456,0,0
-560,568,0,0,0,0,0,0,0,0,0,-1,664,456,0,0
-553,568,0,0,0,0,0,0,0,0,0,-1,671,456,0,0
-546,568,0,0,0,0,0,0,0,0,0,-1,678,456,0,0
-539,568,0,0,0,0,0,0,0,0,0,-1,685,456,0,0
-532,568,0,0,0,0,0,0,0,0,0,-1,692,456,0,0
-525,568,0,0,0,0,0,0,0,0,0,-1,699,456,0,0
-518,568,0,0,0,0,0,0,0,0,0,-1,706,456,0,0
-511,568,0,0,0,0,0,0,0,0,0,-1,713,456,0,0
-504,568,0,0,0,0,0,0,0,0,0,-1,720,456,0,0
-497,568,0,0,0,0,0,0,0,0,0,-1,727,456,0,0
-490,568,0,0,0,0,0,0,0,0,0,-1,734,456,0,0
-483,568,0,0,0,0,0,0,0,0,0,-1,741,456,0,0
-476,568,0,0,0,0,0,0,0,0,0,-1,748,456,0,0
-469,568,0,0,0,0,0,0,0,0,0,-1,755,456,0,0
-462,568,0,0,0,0,0,0,0,0,0,-1,762,456,0,0
-455,568,0,0,0,0,0,0,0,0,0,-1,769,456,0,0
-448,568,0,0,0,0,0,0,0,0,0,-1,776,456,0,0
-441,568,0,0,0,0,0,0,0,0,0,-1,783,456,0,0
-434,568,0,0,0,0,0,0,0,0,0,-1,790,456,0,0
-427,568,0,0,0,0,0,0,0,0,0,-1,797,456,0,0
-420,568,0,0,0,0,0,0,0,0,0,-1,804,456,0,0
-413,568,0,0,0,0,0,0,0,0,0,-1,811,456,0,0
-406,568,0,0,0,0,0,0,0,0,0,-1,818,456,0,0
-399,568,0,0,0,0,0,0,0,0,0,-1,825,456,0,0
-392,568,0,0,0,0,0,0,0,0,0,-1,832,456,0,0
-385,568,0,0,0,0,0,0,0,0,0,-1,839,456,0,0
-378,568,0.324585,1.27744,0,0,0,0,0,0,0,-1,846,456,0.324593,-1.27744
-371,568,0.310852,0.914734,0,0,0,0,0,0,0,-1,853,456,0.31084,-0.914746
-364,568,0.289795,0.497559,0.0155726,0.0496444,-0.0267428,0.0643165,0.000900488,-1.069,0.0425807,0.043659,860,456,0.28978,-0.497568
-357,568,0.205322,0.364258,0.0166962,0.0559316,-0.0231587,0.0666648,0.00596294,-1.1368,0.0425949,0.0442774,867,456,0.205337,-0.364253
-350,568,0.113525,0.300446,0.0189883,0.0577749,-0.0208798,0.0668784,0.0098848,-1.15965,0.0416832,0.0473482,874,456,0.113555,-0.300441
-343,568,0.171875,-0.13559,0.0214449,0.0577667,-0.0178254,0.0650531,0.0141586,-1.18276,0.0395042,0.0419637,881,456,0.171853,0.135586
-336,568,0.119568,-0.539917,0.0251589,0.053507,-0.0159807,0.0606938,0.0179721,-1.14818,0.0359996,0.0420218,888,456,0.119566,0.539924
-329,568,-9.83551,2.02209,0,0,0,0,0,0,0,-1,895,456,-9.83551,-2.02211
-322,568,-0.138916,0.0345459,0.0271708,0.0431901,-0.0111508,0.0489098,0.0214511,-1.09685,0.028309,0.0394559,902,456,-0.138921,-0.0345327
-315,568,-0.134216,0.0384827,0.0260298,0.036074,-0.00955127,0.041843,0.0202608,-1.02744,0.0241621,0.0347851,909,456,-0.134225,-0.0384793
-308,568,-0.0935669,0.00741577,0.0238469,0.0298593,-0.00877966,0.0361332,0.0175731,-0.950344,0.0208641,0.0242112,916,456,-0.0935894,-0.00741233
-301,568,-0.0771484,-0.0369263,0.021099,0.0250961,-0.00809602,0.0314366,0.0147585,-0.906404,0.0181612,0.0135927,923,456,-0.0771473,0.0369169
-294,568,-0.0765381,-0.0366211,0.0181522,0.020749,-0.00711978,0.0266878,0.0122134,-0.875589,0.0154266,0.0105905,930,456,-0.0765656,0.0366178
-287,568,-0.0740967,-0.0317688,0.0159409,0.0153384,-0.00522036,0.0208687,0.0104106,-0.756573,0.0120486,0.00961801,937,456,-0.0740995,0.0317808
-280,568,-0.0670776,-0.0336914,0.0134332,0.0106855,-0.00400488,0.0162934,0.00782541,-0.620166,0.00940941,0.00971361,944,456,-0.0670982,0.0337041
-273,568,-0.0628052,-0.0423889,0.00875777,0.0103666,-0.00464113,0.0142725,0.00485187,-0.871209,0.0083798,0.0111573,951,456,-0.0628192,0.0423835
-266,568,-0.0683594,-0.0450439,0.00548803,0.00872143,-0.00410706,0.0115185,0.00269093,-0.972904,0.00695772,0.0114499,958,456,-0.0683711,0.0450513
-259,568,-0.0560303,-0.0528259,0.00469561,0.0074016,-0.00371243,0.0099999,0.00209732,-0.960143,0.00608911,0.0113547,965,456,-0.056051,0.0528355
-252,568,-0.0635376,-0.0493469,0.00389308,0.00607302,-0.00322718,0.00838933,0.00157678,-0.948257,0.00514842,0.010269,972,456,-0.0635451,0.049361
-245,568,-0.0803223,-0.0445557,0.00327619,0.00479955,-0.00231981,0.00647952,0.00159622,-0.944023,0.00389811,0.0116314,979,456,-0.0803104,0.044554
-238,568,-0.0805664,-0.0411987,0.00295554,0.0036523,-0.0017802,0.00511789,0.00148995,-0.882027,0.00303954,0.0113664,986,456,-0.0805496,0.0411965
-231,568,-0.0856934,-0.0409241,0.00262217,0.00254555,-0.00119754,0.00378201,0.0013857,-0.769409,0.00220938,0.0104236,993,456,-0.0857019,0.0409141
-224,568,-0.0939331,-0.0246277,0.00258397,0.00168066,-0.000914792,0.00315253,0.0011121,-0.556091,0.00184623,0.0115307,1000,456,-0.0939114,0.024639
-217,568,-0.0775146,-0.0227661,0.00310932,0.00199775,-0.00124448,0.00391649,0.00119059,-0.575387,0.00231838,0.00994793,1007,456,-0.0775428,0.0227728
-210,568,-0.0615234,-0.0365906,0.00351637,0.00226076,-0.00177534,0.00477164,0.00100549,-0.615447,0.00290454,0.0103331,1014,456,-0.0615258,0.0365838
-203,568,-0.0664063,-0.0466614,0.00364002,0.00259133,-0.00183712,0.00502616,0.00120519,-0.646386,0.00303002,0.00899191,1021,456,-0.066416,0.0466711
-196,568,-0.072876,-0.051239,0.0039516,0.00328854,-0.00162684,0.00528035,0.00195978,-0.68488,0.00308217,0.00988251,1028,456,-0.0728677,0.0512385
-189,568,-0.0592041,-0.0410461,0.00436501,0.00377513,-0.00123266,0.00533752,0.00280262,-0.667971,0.00308291,0.0100977,1035,456,-0.0592043,0.0410423
-182,568,-0.0489502,-0.0342102,0.00459967,0.0038571,-0.00103433,0.00532734,0.00312943,-0.613079,0.00309137,0.013107,1042,456,-0.0489932,0.0342022
-175,568,-0.0424805,-0.0307312,0.00464111,0.00436978,-0.00101823,0.00553268,0.00347822,-0.719169,0.00322935,0.0115836,1049,456,-0.0424928,0.0307426
-168,568,-0.079834,-0.035553,0.00474304,0.00451401,-0.000697571,0.00533543,0.00392162,-0.704043,0.00319182,0.0141162,1056,456,-0.0798117,0.0355601
-161,568,-0.0961914,-0.0342407,0.00496615,0.00467651,-0.000261115,0.00511991,0.00452274,-0.532209,0.00323266,0.0202851,1063,456,-0.096226,0.0342504
-154,568,-0.0917969,-0.0160522,0.00476397,0.00498048,0.000364016,0.005252,0.00449245,0.929928,0.00327762,0.0246037,1070,456,-0.0918453,0.0160604
-147,568,-0.122559,-0.00234985,0.00472888,0.00467078,0.000837109,0.00553744,0.00386222,0.768052,0.0032791,0.027854,1077,456,-0.122525,0.00236447
-140,568,-0.159546,-0.0423889,0.00514721,0.00441129,0.000810103,0.005669,0.0038895,0.572223,0.00334772,0.0332564,1084,456,-0.159566,0.0423791
-133,568,0.132813,-0.483215,0,0,0,0,0,0,0,-1,1091,456,0.132769,0.483205
-126,568,-0.0915527,-0.0979614,0.00435196,0.00439007,0.00164828,0.0060194,0.00272263,0.791179,0.00348057,0.0411475,1098,456,-0.0916021,0.0979501
-119,568,-0.0825195,-0.193756,0.0041715,0.00433089,0.00182384,0.00607677,0.00242561,0.807232,0.00353213,0.0418521,1105,456,-0.0824621,0.193743
-112,568,0.0727539,0.340912,0.00368724,0.0037866,0.00240632,0.00614375,0.00133008,0.795719,0.00373233,0.0460954,1112,456,0.0727041,-0.340914
-105,568,0.092041,0.604645,0,0,0,0,0,0,0,-1,1119,456,0.0921001,-0.604636
-98,568,0.339722,0.133087,0.0028585,0.00453389,0.00266716,0.00649181,0.00090058,0.937559,0.0040611,0.0392656,1126,456,0.339776,-0.133088
-91,568,0.409424,0.253204,0.00219998,0.00546182,0.00240541,0.00673709,0.00092472,1.08331,0.00421708,0.0432595,1133,456,0.40947,-0.253219
-84,568,0.254028,0.433777,0.00191055,0.00719152,0.00215133,0.00795697,0.0011451,1.22896,0.00496714,0.0449191,1140,456,0.254005,-0.433768
-77,568,-0.13208,0.415405,0.00230698,0.00984289,0.0021187,0.0103977,0.00175216,1.31468,0.00642786,0.0420128,1147,456,-0.132138,-0.415419
-70,568,0.029541,0.0602417,0.00296116,0.012825,0.0022261,0.0133041,0.00248204,1.3588,0.00816872,0.0412241,1154,456,0.0295145,-0.060255
-63,568,0.036499,0.0976257,0.00116323,0.0172378,0.00144889,0.0173673,0.00103368,1.48162,0.0112495,0.0452418,1161,456,0.0365203,-0.0976344
-56,568,-0.0532227,0.211487,-0.000210883,0.0227058,0.00110939,0.0227594,-0.000264463,1.52254,0.0152619,0.0461165,1168,456,-0.0532158,-0.211475
-49,568,-0.414063,0.244385,0,0,0,0,0,0,0,-1,1175,456,-0.414094,-0.244398
-42,568,-0.0900879,0.00323486,0,0,0,0,0,0,0,-1,1182,456,-0.0900838,-0.00323283
-35,568,0.184326,0.12381,0,0,0,0,0,0,0,-1,1189,456,0.184322,-0.123819
-28,568,0.744995,-0.131378,0,0,0,0,0,0,0,-1,1196,456,0.744941,0.131392
-21,568,1.14124,-0.183044,0,0,0,0,0,0,0,-1,1203,456,1.14128,0.183054
-14,568,1.04883,1.61337,0.00909782,0.0412976,0.0037751,0.0417343,0.00866115,1.45564,0.0254323,0.0431606,1210,456,1.04878,-1.61339
-7,568,-0.270142,0.987396,0.014348,0.0431042,0.00586378,0.0442539,0.0131982,1.37718,0.0262342,0.0456064,1217,456,-0.270152,-0.987398
0,568,0.0822754,1.33606,0.0176272,0.0453125,0.00273451,0.04558,0.0173597,1.47328,0.0265635,0.0486637,1224,456,0.082259,-1.33605
7,568,0.65918,1.56342,0.0206183,0.0446497,-0.00195543,0.0448077,0.0204602,-1.49013,0.0259022,0.0474236,1231,456,0.659236,-1.56342
14,568,0.950073,2.02338,0,0,0,0,0,0,0,-1,1238,456,0.950053,-2.02337
21,568,2.0343,1.68079,0,0,0,0,0,0,0,-1,1245,456,2.03432,-1.68078
28,568,2.64478,2.09424,0.0283783,0.0399423,-0.0195107,0.0545097,0.0138109,-0.929451,0.0327226,0.0461654,1252,456,2.64482,-2.09423
35,568,3.22754,2.57132,0.0279789,0.0381084,-0.0257131,0.0592508,0.00683648,-0.88264,0.0374304,0.0456559,1259,456,3.22754,-2.57132
42,568,3.88,3.03305,0,0,0,0,0,0,0,-1,1266,456,3.88,-3.03306
49,568,3.52161,3.38202,0.0323715,0.0415424,-0.0326086,0.0698864,0.0040275,-0.85525,0.0453082,0.0455932,1273,456,3.52155,-3.38203
56,568,0.296143,-1.11551,0.0284787,0.0512393,-0.0325054,0.074299,0.00541902,-0.953782,0.0478288,0.0484453,1280,456,0.296104,1.1155
63,568,0.607056,-0.986816,0.0237798,0.061674,-0.0292148,0.0775478,0.00790599,-1.07307,0.0492751,0.0446519,1287,456,0.607096,0.986825
70,568,0.32312,-1.42999,0.0211648,0.0717255,-0.0228854,0.0805455,0.0123447,-1.20294,0.0500918,0.0494993,1294,456,0.323143,1.42998
77,568,0.208496,-1.59702,0,0,0,0,0,0,0,-1,1301,456,0.208552,1.59703
84,568,0.0633545,-1.69217,0.0312459,0.119498,0.0153325,0.122086,0.028658,1.40359,0.073719,0.0495271,1308,456,0.0632991,1.69217
91,568,0.0447998,-1.89133,0.0382834,0.134058,0.0307756,0.143094,0.0292468,1.28519,0.087296,0.0422656,1315,456,0.0447588,1.89134
98,568,0.0463867,-2.0368,0,0,0,0,0,0,0,-1,1322,456,0.0463285,2.03681
105,568,2.81348,-1.40836,0.049905,0.160736,0.0546228,0.183132,0.0275097,1.1817,0.114029,0.0478278,1329,456,2.81345,1.40834
112,568,2.54297,-1.2037,0.0540716,0.172277,0.0627678,0.199389,0.0269599,1.16306,0.124913,0.0468166,1336,456,2.54291,1.20369
119,568,2.6665,-0.951294,0,0,0,0,0,0,0,-1,1343,456,2.66649,0.951289
126,568,2.94275,-0.970001,0.0595917,0.183221,0.0688942,0.213967,0.0288457,1.15104,0.134068,0.0440267,1350,456,2.94273,0.969988
133,568,0.208862,3.44589,0.0598408,0.180383,0.064791,0.208602,0.031622,1.16004,0.129818,0.0476488,1357,456,0.208876,-3.4459
140,568,0.587036,2.4556,0.0592876,0.175957,0.0588916,0.200515,0.0347298,1.17572,0.123735,0.045662,1364,456,0.587054,-2.45558
147,568,0.620728,1.42099,0.0554374,0.164698,0.0501765,0.184244,0.0358912,1.19933,0.112786,0.0430885,1371,456,0.620738,-1.42098
154,568,0.550171,0.471283,0.0459579,0.143731,0.0391248,0.157459,0.0322294,1.23333,0.0960493,0.0413266,1378,456,0.550206,-0.471279
161,568,0.283447,-0.278442,0.037418,0.121156,0.029711,0.130626,0.0279473,1.26222,0.0794247,0.0484963,1385,456,0.283409,0.278454
168,568,0.116821,-0.61322,0,0,0,0,0,0,0,-1,1392,456,0.116802,0.613205
175,568,0.16626,-0.617554,0,0,0,0,0,0,0,-1,1399,456,0.166208,0.617567
182,568,-0.0654297,-1.0871,0,0,0,0,0,0,0,-1,1406,456,-0.0654719,1.08711
189,568,-0.192139,-1.27112,0,0,0,0,0,0,0,-1,1413,456,-0.192179,1.27112
196,568,-0.312378,-0.891785,0.000740654,0.0281289,-0.0138342,0.0339005,-0.00503091,-1.17555,0.0244504,0.0440165,1420,456,-0.312348,0.891781
203,568,-0.348389,-0.536774,0.00102884,0.0280395,-0.00821075,0.0303396,-0.00127122,-1.29767,0.0206631,0.0471681,1427,456,-0.348393,0.536779
210,568,-0.31665,-0.205688,0.00144615,0.027879,-0.00673047,0.0294941,-0.000168918,-1.33529,0.0197193,0.0463721,1434,456,-0.316598,0.20568
217,568,-0.331665,0.325653,0.0020445,0.0276114,-0.00570148,0.0288252,0.000830683,-1.36103,0.018946,0.0435567,1441,456,-0.331635,-0.325641
224,568,-0.370605,0.545959,0.00228785,0.0274091,-0.00529049,0.0284778,0.00121915,-1.37147,0.0185921,0.0421874,1448,456,-0.370588,-0.545962
231,568,-0.68335,0.446716,0.00251004,0.0264245,-0.00440843,0.0272113,0.00172326,-1.39419,0.0175946,0.0446844,1455,456,-0.683305,-0.446726
238,568,-0.595947,0.503143,0.00267178,0.0245522,-0.00331625,0.0250437,0.0021802,-1.42364,0.0160186,0.0472226,1462,456,-0.595942,-0.503132
245,568,-0.17981,0.138367,0.00285619,0.0216387,-0.0019278,0.0218345,0.00266036,-1.46956,0.0137556,0.0471763,1469,456,-0.179791,-0.138355
252,568,0.0587158,0.0413208,0,0,0,0,0,0,0,-1,1476,456,0.0587692,-0.0413207
259,568,-0.309204,-0.00634766,0.00316471,0.0146361,0.000451786,0.0146539,0.00314695,1.53149,0.00890753,0.0456461,1483,456,-0.309167,0.00633344
266,568,-0.197632,-0.0443115,0.0032515,0.0111348,0.00148787,0.0114062,0.00298003,1.39033,0.00683104,0.0447586,1490,456,-0.197619,0.0443027
273,568,-0.210938,-0.0334473,0.00326799,0.00777008,0.00257021,0.00893564,0.00210243,1.14505,0.00539462,0.0449133,1497,456,-0.210946,0.0334597
280,568,-0.209595,-0.00268555,0.0034559,0.00389384,0.00359403,0.00727557,7.41775e-05,0.815823,0.00482584,0.034528,1504,456,-0.209551,0.00267553
287,568,-0.0679932,-0.0617981,0.00401456,0.00079512,0.00399622,0.00671308,-0.0019034,0.593935,0.00522669,0.0208171,1511,456,-0.0680018,0.0617895
294,568,-0.0632324,-0.0656128,0.00424124,-0.0013502,0.0039773,0.0063071,-0.00341605,0.479057,0.00569578,0.0161614,1518,456,-0.0632044,0.0656241
301,568,-0.0825195,-0.0529785,0.0040502,-0.00264717,0.00334362,0.00543369,-0.00403066,0.392321,0.00548422,0.0127163,1525,456,-0.0825774,0.0529913
308,568,-0.0897217,-0.0438843,0.00402388,-0.0033295,0.00272895,0.00492597,-0.00423159,0.319255,0.00529219,0.00998133,1532,456,-0.0897269,0.0438985
315,568,-0.0876465,-0.0308533,0.00398825,-0.00284062,0.00212753,0.00459684,-0.00344921,0.278615,0.00466112,0.00737558,1539,456,-0.0877038,0.0308438
322,568,-0.0759277,-0.0198059,0.00393196,-0.00188088,0.00155984,0.00432408,-0.002273,0.246282,0.0038697,0.00905791,1546,456,-0.0759206,0.0198166
329,568,-0.0610352,-0.0107117,0.00345641,-0.000995218,0.00120479,0.00376156,-0.00130037,0.248062,0.00303547,0.0104437,1553,456,-0.0610552,0.0107181
336,568,-0.0601807,-0.0269775,0.0028068,-0.00046794,0.000969956,0.00307253,-0.000733671,0.267401,0.00233171,0.0109185,1560,456,-0.0602245,0.0269896
343,568,-0.0429688,-0.0501099,0.00208683,-1.68704e-05,0.000758623,0.00233186,-0.0002619,0.312416,0.00164882,0.0103029,1567,456,-0.043021,0.0501076
350,568,-0.0576172,-0.0513,0.00131018,0.000523907,0.000323323,0.00142606,0.00040803,0.344132,0.000848069,0.00908623,1574,456,-0.0576094,0.0512854
357,568,-0.0695801,-0.0412292,0.000619292,0.000885412,7.00713e-05,0.000902734,0.00060197,1.32844,0.000530776,0.00846507,1581,456,-0.0695449,0.0412202
364,568,-0.072876,-0.0387878,7.63033e-05,0.00106259,-2.63383e-05,0.0010633,7.56004e-05,-1.54412,0.000685057,0.0104657,1588,456,-0.0728766,0.0387765
371,568,-0.0906982,-0.0256042,-0.000392208,0.00131916,-0.000138997,0.00133038,-0.000403424,-1.49028,0.00104761,0.0184935,1595,456,-0.0907094,0.0256165
378,568,-0.0606689,-0.0412292,-0.000870272,0.00163448,-0.000141836,0.00164249,-0.000878278,-1.51441,0.00147749,0.0164806,1602,456,-0.0606138,0.041236
385,568,-0.0656738,-0.0422363,-0.0010722,0.0018937,-8.49859e-05,0.00189614,-0.00107464,-1.54217,0.0017369,0.00833977,1609,456,-0.0657124,0.0422405
392,568,-0.0744629,-0.0315552,-0.000942336,0.0021835,1.7168e-06,0.0021835,-0.000942337,1.57025,0.00185152,0.00974481,1616,456,-0.0744913,0.0315413
399,568,-0.0843506,-0.0466919,-0.000729358,0.0026483,0.00013316,0.00265354,-0.0007346,1.53145,0.00205807,0.0156439,1623,456,-0.0843612,0.0466983
406,568,-0.0665283,-0.0401001,-0.00034981,0.00316213,0.000298069,0.00318725,-0.000374928,1.48672,0.0022602,0.014342,1630,456,-0.0664721,0.0401015
413,568,-0.0665283,-0.0365906,7.36652e-05,0.0040397,0.00041525,0.00408271,3.06545e-05,1.46759,0.00271165,0.0106404,1637,456,-0.0665696,0.0365762
420,568,-0.0793457,-0.0332642,0.000479588,0.00561683,0.000579743,0.00568144,0.000414976,1.45981,0.00365716,0.00878962,1644,456,-0.0793092,0.0332706
427,568,-0.081665,-0.02771,0.000685728,0.00681621,0.000799348,0.00691873,0.000583216,1.44325,0.00443089,0.00959795,1651,456,-0.0816198,0.0277202
434,568,-0.0743408,-0.0405579,0.00106746,0.0083873,0.000572644,0.00843183,0.00102294,1.49319,0.00531317,0.0121406,1658,456,-0.0742822,0.0405481
441,568,-0.0856934,-0.0307617,0.00145334,0.00981889,1.29526e-05,0.00981891,0.00145332,1.56925,0.0061193,0.019265,1665,456,-0.0856686,0.0307515
448,568,0.0568848,-0.0418701,0.00154647,0.0109908,-0.000457786,0.0110129,0.00152433,-1.52248,0.00689028,0.0355251,1672,456,0.0568776,0.0418814
455,568,-0.0865479,-0.0265808,0.00167758,0.0127535,-0.000875597,0.0128223,0.00160878,-1.49239,0.00806562,0.0427076,1679,456,-0.0865125,0.0265762
462,568,-0.20105,0.00680542,0.00131458,0.0144425,-0.00136041,0.014582,0.00117508,-1.46862,0.00935424,0.0419494,1686,456,-0.201084,-0.00679807
469,568,-0.14502,0.0871887,0.000503137,0.0157939,-0.00236062,0.01615,0.000146994,-1.42106,0.010718,0.0385835,1693,456,-0.145045,-0.0871829
476,568,-0.120483,0.160217,-0.000247815,0.0164708,-0.00339831,0.0171352,-0.000912173,-1.37773,0.0117393,0.0427578,1700,456,-0.120499,-0.16021
483,568,-0.0418701,0.352875,-0.00089062,0.0164662,-0.0046895,0.0176521,-0.00207661,-1.32309,0.0125178,0.0439432,1707,456,-0.0418908,-0.352884
490,568,-0.0527344,-0.362274,-0.00161254,0.015664,-0.00581941,0.0174414,-0.00338989,-1.27438,0.0129068,0.0450963,1714,456,-0.052773,0.362277
497,568,-0.128906,-0.544617,0,0,0,0,0,0,0,-1,1721,456,-0.128868,0.544624
504,568,0,0,0,0,0,0,0,0,0,-1,1728,456,0,0
511,568,0,0,0,0,0,0,0,0,0,-1,1735,456,0,0
518,568,0,0,0,0,0,0,0,0,0,-1,1742,456,0,0
525,568,0,0,0,0,0,0,0,0,0,-1,1749,456,0,0
532,568,0,0,0,0,0,0,0,0,0,-1,1756,456,0,0
539,568,0,0,0,0,0,0,0,0,0,-1,1763,456,0,0
546,568,0,0,0,0,0,0,0,0,0,-1,1770,456,0,0
553,568,0,0,0,0,0,0,0,0,0,-1,1777,456,0,0
560,568,0,0,0,0,0,0,0,0,0,-1,1784,456,0,0
567,568,0,0,0,0,0,0,0,0,0,-1,1791,456,0,0
574,568,0,0,0,0,0,0,0,0,0,-1,1798,456,0,0
581,568,0,0,0,0,0,0,0,0,0,-1,1805,456,0,0
588,568,0,0,0,0,0,0,0,0,0,-1,1812,456,0,0
595,568,0,0,0,0,0,0,0,0,0,-1,1819,456,0,0
602,568,0,0,0,0,0,0,0,0,0,-1,1826,456,0,0
609,568,0,0,0,0,0,0,0,0,0,-1,1833,456,0,0
616,568,0,0,0,0,0,0,0,0,0,-1,1840,456,0,0
623,568,0,0,0,0,0,0,0,0,0,-1,1847,456,0,0
630,568,0,0,0,0,0,0,0,0,0,-1,1854,456,0,0
637,568,0,0,0,0,0,0,0,0,0,-1,1861,456,0,0
644,568,0,0,0,0,0,0,0,0,0,-1,1868,456,0,0
651,568,0,0,0,0,0,0,0,0,0,-1,1875,456,0,0
658,568,0,0,0,0,0,0,0,0,0,-1,1882,456,0,0
665,568,0,0,0,0,0,0,0,0,0,-1,1889,456,0,0
672,568,0,0,0,0,0,0,0,0,0,-1,1896,456,0,0
679,568,0,0,0,0,0,0,0,0,0,-1,1903,456,0,0
686,568,0,0,0,0,0,0,0,0,0,-1,1910,456,0,0
693,568,0,0,0,0,0,0,0,0,0,-1,1917,456,0,0
700,568,0,0,0,0,0,0,0,0,0,-1,1924,456,0,0
707,568,0,0,0,0,0,0,0,0,0,-1,1931,456,0,0
714,568,0,0,0,0,0,0,0,0,0,-1,1938,456,0,0
721,568,0,0,0,0,0,0,0,0,0,-1,1945,456,0,0
728,568,0,0,0,0,0,0,0,0,0,-1,1952,456,0,0
735,568,0,0,0,0,0,0,0,0,0,-1,1959,456,0,0
742,568,0,0,0,0,0,0,0,0,0,-1,1966,456,0,0
749,568,0,0,0,0,0,0,0,0,0,-1,1973,456,0,0
756,568,0,0,0,0,0,0,0,0,0,-1,1980,456,0,0
763,568,0,0,0,0,0,0,0,0,0,-1,1987,456,0,0
770,568,0,0,0,0,0,0,0,0,0,-1,1994,456,0,0
777,568,0,0,0,0,0,0,0,0,0,-1,2001,456,0,0
784,568,0,0,0,0,0,0,0,0,0,-1,2008,456,0,0
791,568,0,0,0,0,0,0,0,0,0,-1,2015,456,0,0
798,568,0,0,0,0,0,0,0,0,0,-1,2022,456,0,0
805,568,0,0,0,0,0,0,0,0,0,-1,2029,456,0,0
812,568,0,0,0,0,0,0,0,0,0,-1,2036,456,0,0
-700,561,0,0,0,0,0,0,0,0,0,-1,524,463,0,0
-693,561,0,0,0,0,0,0,0,0,0,-1,531,463,0,0
-686,561,0,0,0,0,0,0,0,0,0,-1,538,463,0,0
-679,561,0,0,0,0,0,0,0,0,0,-1,545,463,0,0
-672,561,0,0,0,0,0,0,0,0,0,-1,552,463,0,0
-665,561,0,0,0,0,0,0,0,0,0,-1,559,463,0,0
-658,561,0,0,0,0,0,0,0,0,0,-1,566,463,0,0
-651,561,0,0,0,0,0,0,0,0,0,-1,573,463,0,0
-644,561,0,0,0,0,0,0,0,0,0,-1,580,463,0,0
-637,561,0,0,0,0,0,0,0,0,0,-1,587,463,0,0
-630,561,0,0,0,0,0,0,0,0,0,-1,594,463,0,0
-623,561,0,0,0,0,0,0,0,0,0,-1,601,463,0,0
-616,561,0,0,0,0,0,0,0,0,0,-1,608,463,0,0
-609,561,0,0,0,0,0,0,0,0,0,-1,615,463,0,0
-602,561,0,0,0,0,0,0,0,0,0,-1,622,463,0,0
-595,561,0,0,0,0,0,0,0,0,0,-1,629,463,0,0
-588,561,0,0,0,0,0,0,0,0,0,-1,636,463,0,0
-581,561,0,0,0,0,0,0,0,0,0,-1,643,463,0,0
-574,561,0,0,0,0,0,0,0,0,0,-1,650,463,0,0
-567,561,0,0,0,0,0,0,0,0,0,-1,657,463,0,0
-560,561,0,0,0,0,0,0,0,0,0,-1,664,463,0,0
-553,561,0,0,0,0,0,0,0,0,0,-1,671,463,0,0
-546,561,0,0,0,0,0,0,0,0,0,-1,678,463,0,0
-539,561,0,0,0,0,0,0,0,0,0,-1,685,463,0,0
-532,561,0,0,0,0,0,0,0,0,0,-1,692,463,0,0
-525,561,0,0,0,0,0,0,0,0,0,-1,699,463,0,0
-518,561,0,0,0,0,0,0,0,0,0,-1,706,463,0,0
-511,561,0,0,0,0,0,0,0,0,0,-1,713,463,0,0
-504,561,0,0,0,0,0,0,0,0,0,-1,720,463,0,0
-497,561,0,0,0,0,0,0,0,0,0,-1,727,463,0,0
-490,561,0,0,0,0,0,0,0,0,0,-1,734,463,0,0
-483,561,0,0,0,0,0,0,0,0,0,-1,741,463,0,0
-476,561,0,0,0,0,0,0,0,0,0,-1,748,463,0,0
-469,561,0,0,0,0,0,0,0,0,0,-1,755,463,0,0
-462,561,0,0,0,0,0,0,0,0,0,-1,762,463,0,0
-455,561,0,0,0,0,0,0,0,0,0,-1,769,463,0,0
-448,561,0,0,0,0,0,0,0,0,0,-1,776,463,0,0
-441,561,0,0,0,0,0,0,0,0,0,-1,783,463,0,0
-434,561,0,0,0,0,0,0,0,0,0,-1,790,463,0,0
-427,561,0,0,0,0,0,0,0,0,0,-1,797,463,0,0
-420,561,0,0,0,0,0,0,0,0,0,-1,804,463,0,0
-413,561,0,0,0,0,0,0,0,0,0,-1,811,463,0,0
-406,561,0,0,0,0,0,0,0,0,0,-1,818,463,0,0
-399,561,0,0,0,0,0,0,0,0,0,-1,825,463,0,0
-392,561,-4.07391,-1.25006,0,0,0,0,0,0,0,-1,832,463,-4.07393,1.25006
-385,561,-2.94611,-1.35846,0,0,0,0,0,0,0,-1,839,463,-2.94612,1.35847
-378,561,-1.40131,-1.32901,0,0,0,0,0,0,0,-1,846,463,-1.40128,1.329
-371,561,-0.207947,-0.929565,0,0,0,0,0,0,0,-1,853,463,-0.207923,0.929569
-364,561,-0.256653,-0.363434,0.0145111,0.0374662,-0.0216912,0.0505293,0.00144802,-1.02874,0.0332141,0.041081,860,463,-0.256644,0.363437
-357,561,0.0446167,0.379883,0.01538,0.0436003,-0.0198098,0.0538114,0.00516887,-1.09486,0.0342815,0.0427057,867,463,0.0446365,-0.379883
-350,561,0.107666,0.441376,0,0,0,0,0,0,0,-1,874,463,0.107653,-0.441379
-343,561,0.245483,-0.100861,0,0,0,0,0,0,0,-1,881,463,0.245482,0.100854
-336,561,0.383301,-0.643097,0,0,0,0,0,0,0,-1,888,463,0.383311,0.643088
-329,561,-0.0281982,-0.109558,0.0227192,0.040032,-0.012631,0.0466882,0.016063,-1.0858,0.027389,0.0341907,895,463,-0.0281859,0.10957
-322,561,-0.0466919,-0.0554504,0.0226658,0.0358008,-0.0112292,0.042242,0.0162246,-1.05001,0.0246059,0.0256402,902,463,-0.0467027,0.0554479
-315,561,-0.053772,-0.0403748,0.0213766,0.0298791,-0.00964108,0.0361646,0.0150911,-0.993051,0.0209747,0.0169049,909,463,-0.0537791,0.0403824
-308,561,-0.0639648,-0.037384,0.0191961,0.0246095,-0.00876302,0.0310743,0.0127313,-0.93519,0.018038,0.0137927,916,463,-0.0639658,0.0373947
-301,561,-0.067749,-0.0406189,0.0166535,0.0205633,-0.00793785,0.0267834,0.0104334,-0.906135,0.0155887,0.0117852,923,463,-0.0677415,0.0406165
-294,561,-0.0723267,-0.0401611,0.0140161,0.0167376,-0.00687804,0.0223882,0.00836552,-0.883056,0.0130627,0.0102211,930,463,-0.0723463,0.0401642
-287,561,-0.0876465,-0.0332947,0.012049,0.0121326,-0.00519032,0.0172812,0.00690028,-0.789425,0.0100446,0.00826714,937,463,-0.0876418,0.033297
-280,561,-0.0740356,-0.0343323,0.0097755,0.00790526,-0.00394697,0.0128966,0.00478414,-0.669082,0.00752806,0.0102243,944,463,-0.074037,0.0343474
-273,561,-0.0679321,-0.0415344,0.00573833,0.00760801,-0.00441754,0.0111885,0.0021578,-0.88967,0.00685393,0.0134404,951,463,-0.0679165,0.0415219
-266,561,-0.0779419,-0.0417786,0.00345618,0.00631652,-0.00388968,0.00903063,0.000742077,-0.961569,0.00578894,0.00900382,958,463,-0.0779661,0.04177
-259,561,-0.0685425,-0.0321045,0.00341676,0.00523908,-0.00359427,0.00803589,0.000619954,-0.909535,0.00516303,0.00887058,965,463,-0.0685144,0.03209
-252,561,-0.0719604,-0.04245,0.00338378,0.00430396,-0.00329447,0.00717032,0.000517427,-0.854777,0.00461741,0.0118286,972,463,-0.0719753,0.0424489
-245,561,-0.0913696,-0.0474243,0.00363062,0.00343289,-0.00257508,0.00610873,0.000954779,-0.766211,0.00379448,0.0150355,979,463,-0.0913606,0.0474293
-238,561,-0.0933228,-0.0451965,0.00429112,0.00253054,-0.00213764,0.00572263,0.00109903,-0.590078,0.00350663,0.0125134,986,463,-0.0933346,0.045209
-231,561,-0.0812378,-0.0575867,0.00498375,0.00173469,-0.00167809,0.00569483,0.00102361,-0.400808,0.00350552,0.0102923,993,463,-0.0812096,0.0575794
-224,561,-0.0707397,-0.057251,0.00585515,0.00109964,-0.00139291,0.0062331,0.000721693,-0.26496,0.00393695,0.0101134,1000,463,-0.0707499,0.0572528
-217,561,-0.0596924,-0.0419922,0.00717766,0.00200678,-0.00171876,0.00769683,0.00148761,-0.293349,0.00471425,0.00968653,1007,463,-0.0597133,0.0419796
-210,561,-0.0679932,-0.0393066,0.00812254,0.00268519,-0.0023589,0.00900325,0.00180447,-0.35733,0.00550024,0.0108805,1014,463,-0.0679841,0.0392919
-203,561,-0.0784912,-0.0584717,0.00840931,0.00332813,-0.00239797,0.00936226,0.00237517,-0.378264,0.00561967,0.012588,1021,463,-0.078461,0.0584726
-196,561,-0.0761719,-0.0649414,0.00863879,0.00432487,-0.00214664,0.00952494,0.00343871,-0.3915,0.00556959,0.0118333,1028,463,-0.0762214,0.0649446
-189,561,-0.0577393,-0.0439758,0.00885438,0.00508099,-0.00161059,0.00944834,0.00448703,-0.353307,0.00545729,0.0136755,1035,463,-0.0576922,0.043966
-182,561,-0.0563965,-0.0430603,0.00868526,0.00527551,-0.00138097,0.0091744,0.00478638,-0.340407,0.0052985,0.0159489,1042,463,-0.0563934,0.043066
-175,561,-0.0926514,-0.0683289,0.00828826,0.00589135,-0.00137875,0.00891661,0.005263,-0.427621,0.00517589,0.025186,1049,463,-0.0926148,0.0683302
-168,561,-0.130737,-0.0874023,0.0077843,0.00599961,-0.00109357,0.0083034,0.00548051,-0.443191,0.00487513,0.0360443,1056,463,-0.130722,0.0873945
-161,561,-0.131958,-0.0855103,0.00697926,0.00603058,-0.000754503,0.00739614,0.0056137,-0.504777,0.00445704,0.0394287,1063,463,-0.131981,0.0855202
-154,561,-0.120117,-0.0914307,0.00611172,0.00640244,4.15543e-06,0.0064025,0.00611166,1.55651,0.00417477,0.0410364,1070,463,-0.120079,0.0914274
-147,561,-0.122192,-0.0745239,0.00586387,0.00589996,0.000691197,0.00657335,0.00519049,0.798448,0.00400173,0.0425797,1077,463,-0.122169,0.0745271
-140,561,-0.0734863,0.0830383,0.00623806,0.00559841,0.00071696,0.00670329,0.00513317,0.575601,0.00404829,0.0441757,1084,463,-0.073478,-0.0830298
-133,561,0.332764,-0.260498,0.00571865,0.00568066,0.00123778,0.00693759,0.00446173,0.777726,0.00405975,0.0444593,1091,463,0.33272,0.260507
-126,561,0.527954,-0.461456,0.00504775,0.00571345,0.00200158,0.00740967,0.00335154,0.867792,0.00428445,0.0457526,1098,463,0.527959,0.461444
-119,561,-0.0339355,-0.120483,0.00480112,0.00581988,0.00236558,0.00773029,0.0028907,0.891444,0.00451012,0.040732,1105,463,-0.033877,0.120489
-112,561,0.346924,0.147888,0.00412277,0.00511036,0.00326175,0.00791549,0.00131765,0.860522,0.00489722,0.0435325,1112,463,0.346872,-0.147878
-105,561,0.400269,0.105103,0.00356416,0.0055016,0.00407804,0.0087244,0.000341357,0.902009,0.00570589,0.0449856,1119,463,0.400248,-0.105112
-98,561,0.775391,0.150391,0,0,0,0,0,0,0,-1,1126,463,0.775438,-0.150392
-91,561,0.776611,0.716492,0,0,0,0,0,0,0,-1,1133,463,0.776559,-0.716489
-84,561,-0.611572,0.252655,0,0,0,0,0,0,0,-1,1140,463,-0.611575,-0.252657
-77,561,-0.383301,0.263153,0.00261653,0.013359,0.00329509,0.0142892,0.00168636,1.29566,0.00901673,0.0468434,1147,463,-0.383294,-0.263152
-70,561,-0.118408,0.0904846,0.00335516,0.0171788,0.00327266,0.0179144,0.00261953,1.34969,0.0111726,0.0409143,1154,463,-0.11839,-0.0904695
-63,561,-0.072876,-0.0296326,0.00153694,0.0228328,0.0022651,0.023071,0.00129869,1.466,0.0149666,0.0405035,1161,463,-0.0729233,0.0296355
-56,561,-0.0847168,-0.00875854,0.000202055,0.0298458,0.00165547,0.029938,0.000109891,1.51518,0.0199221,0.0410667,1168,463,-0.084764,0.00876682
-49,561,-0.105591,0.116058,0.000881444,0.0356392,0.00131435,0.0356889,0.000831814,1.53305,0.0235202,0.0429862,1175,463,-0.105562,-0.116067
-42,561,-0.116333,0.0532532,0.00183005,0.0415377,0.000971518,0.0415615,0.00180629,1.54635,0.0271256,0.0428345,1182,463,-0.116338,-0.0532583
-35,561,-0.0229492,0.0645752,0.00212345,0.0476335,0.00118707,0.0476644,0.0020925,1.54474,0.0311023,0.0424452,1189,463,-0.0229716,-0.0645811
-28,561,0.250366,0.216888,0.00349694,0.053278,0.000929678,0.0532954,0.00347958,1.55213,0.034429,0.0449939,1196,463,0.25041,-0.21689
-21,561,0.697021,0.471069,0.00664787,0.0573887,0.00176288,0.0574499,0.0065867,1.53611,0.0363041,0.0456238,1203,463,0.696984,-0.471055
-14,561,0.623047,0.37561,0.0105904,0.0604785,0.00414823,0.0608211,0.0102478,1.4884,0.0375999,0.0418551,1210,463,0.623031,-0.375609
-7,561,0.477905,-0.155151,0.0165632,0.0642679,0.00658448,0.06516,0.0156711,1.43612,0.0392727,0.0442903,1217,463,0.47787,0.15515
0,561,0.148193,1.53873,0.0193879,0.0683416,0.00222254,0.0684423,0.0192872,1.52552,0.0407501,0.0489785,1224,463,0.148168,-1.53873
7,561,0.595459,1.83524,0.0218353,0.0678495,-0.00414802,0.0682205,0.0214644,-1.48161,0.0402793,0.0475839,1231,463,0.59544,-1.83525
14,561,1.30566,2.1463,0,0,0,0,0,0,0,-1,1238,463,1.30562,-2.1463
21,561,1.96899,1.63095,0,0,0,0,0,0,0,-1,1245,463,1.96895,-1.63094
28,561,2.5354,2.02686,0.0288014,0.0580531,-0.0267861,0.0739463,0.0129082,-1.03529,0.0456078,0.0488498,1252,463,2.53539,-2.02684
35,561,3.00623,2.19434,0.0279755,0.0524624,-0.0341985,0.076543,0.00389487,-0.957295,0.0497812,0.0410114,1259,463,3.00626,-2.19434
42,561,3.67297,2.51672,0.031297,0.0483147,-0.0396816,0.0803895,-0.000777822,-0.891013,0.0538541,0.0441124,1266,463,3.67301,-2.51673
49,561,4.22302,2.51093,0.0329531,0.0455576,-0.0428579,0.0825741,-0.00406354,-0.8584,0.0564527,0.0468698,1273,463,4.22298,-2.51092
56,561,0.543579,-0.338013,0.0276122,0.0546396,-0.0425351,0.0857561,-0.00350433,-0.939209,0.0583739,0.0443106,1280,463,0.543631,0.338016
63,561,1.17163,-1.04205,0.0219454,0.0647026,-0.0379983,0.0869235,-0.000275455,-1.04164,0.058041,0.044952,1287,463,1.17169,1.04204
70,561,0.287109,-1.83221,0,0,0,0,0,0,0,-1,1294,463,0.287111,1.8322
77,561,0.0252686,-1.92087,0,0,0,0,0,0,0,-1,1301,463,0.0252222,1.92086
84,561,0.012207,-2.11404,0.03389,0.138187,0.0208225,0.142191,0.0298865,1.38085,0.0865688,0.0468956,1308,463,0.0121596,2.11405
91,561,-0.0253906,-2.24207,0.0443401,0.15962,0.0406504,0.172512,0.0314476,1.26368,0.106091,0.0429026,1315,463,-0.0253636,2.24208
98,561,-0.234741,-1.8782,0.0518802,0.179386,0.0544762,0.199491,0.0317755,1.21725,0.123769,0.0463401,1322,463,-0.234736,1.87822
105,561,-0.286499,-1.75891,0,0,0,0,0,0,0,-1,1329,463,-0.286495,1.75891
112,561,1.39844,-1.84811,0,0,0,0,0,0,0,-1,1336,463,1.39844,1.84812
119,561,1.86816,-2.33591,0,0,0,0,0,0,0,-1,1343,463,1.86821,2.33591
126,561,1.6731,-1.90579,0,0,0,0,0,0,0,-1,1350,463,1.67315,1.9058
133,561,1.86951,-2.29678,0,0,0,0,0,0,0,-1,1357,463,1.86949,2.29678
140,561,1.08862,2.72653,0,0,0,0,0,0,0,-1,1364,463,1.08862,-2.72653
147,561,0.785278,1.34644,0.0768062,0.226853,0.0670573,0.252454,0.0512056,1.2061,0.154096,0.045319,1371,463,0.785237,-1.34644
154,561,0.664185,0.266266,0.0637434,0.197379,0.0531979,0.21597,0.0451526,1.2346,0.131538,0.0441556,1378,463,0.664145,-0.26627
161,561,0.580078,-0.480438,0.051912,0.164741,0.0408586,0.177983,0.0386701,1.25739,0.108096,0.0476933,1385,463,0.580114,0.48043
168,561,0.202148,-0.717133,0,0,0,0,0,0,0,-1,1392,463,0.202142,0.71712
175,561,0.108643,-1.21774,0,0,0,0,0,0,0,-1,1399,463,0.10869,1.21774
182,561,-0.0786133,-1.8111,0,0,0,0,0,0,0,-1,1406,463,-0.0786358,1.81108
189,561,-0.0864258,-1.12833,0,0,0,0,0,0,0,-1,1413,463,-0.0863988,1.12831
196,561,-0.408813,-0.883759,0.000790947,0.0341693,-0.0195089,0.0431536,-0.00819336,-1.13923,0.0318534,0.0443019,1420,463,-0.408785,0.883765
203,561,-0.350098,-0.677521,0.00105278,0.0337608,-0.0122555,0.0378433,-0.00302973,-1.24924,0.026297,0.0481113,1427,463,-0.350065,0.677515
210,561,-0.227173,-0.368042,0,0,0,0,0,0,0,-1,1434,463,-0.227139,0.368043
217,561,-0.165161,0.20932,0.00243978,0.0339013,-0.00889579,0.0362424,9.86904e-05,-1.31346,0.0241288,0.0419391,1441,463,-0.165211,-0.209318
224,561,-0.227783,0.077301,0.00274002,0.0336647,-0.00795064,0.0355891,0.000815686,-1.33333,0.0234589,0.042962,1448,463,-0.227727,-0.0773008
231,561,-0.488159,-0.118439,0.00296598,0.0320838,-0.00639836,0.0334278,0.00162204,-1.36376,0.0217647,0.0434132,1455,463,-0.488148,0.118433
238,561,-0.573608,-0.180969,0.003093,0.0293383,-0.00463764,0.0301336,0.00229762,-1.40094,0.0193687,0.0460849,1462,463,-0.573584,0.180979
245,561,-0.259644,-0.143829,0.00327517,0.0252326,-0.0025409,0.0255228,0.00298497,-1.45708,0.0161127,0.0468233,1469,463,-0.259655,0.143821
252,561,0.0327148,-0.197021,0.00340565,0.0206027,-0.000668688,0.0206287,0.00337969,-1.53199,0.0127758,0.0466605,1476,463,0.0327015,0.19702
259,561,0.546387,-0.251556,0.00390739,0.0160037,0.000870472,0.016066,0.00384507,1.49933,0.00968679,0.0439447,1483,463,0.54643,0.251572
266,561,-0.247559,-0.238464,0.00427099,0.0115384,0.00229187,0.0122008,0.00360859,1.28944,0.00723735,0.047799,1490,463,-0.247545,0.238477
273,561,-0.356445,-0.0467834,0,0,0,0,0,0,0,-1,1497,463,-0.356427,0.0467899
280,561,-0.380249,0.0380554,0.00496937,0.00243996,0.00499839,0.00886057,-0.00145125,0.661487,0.00644549,0.0465555,1504,463,-0.380304,-0.0380692
287,561,-0.29895,0.00701904,0.00603622,-0.00124947,0.00543277,0.00893442,-0.00414767,0.490062,0.00771964,0.0381564,1511,463,-0.298967,-0.00701419
294,561,-0.149048,-0.0283508,0.00674165,-0.00365838,0.00536933,0.00901625,-0.00593298,0.400708,0.00869192,0.0321883,1518,463,-0.149062,0.0283368
301,561,-0.0906982,-0.0285645,0.00683922,-0.00504235,0.00453862,0.00837453,-0.00657766,0.326193,0.0086534,0.0269271,1525,463,-0.0907151,0.0285714
308,561,-0.09375,-0.0355835,0.00703521,-0.00564229,0.00377279,0.00807302,-0.0066801,0.268439,0.00853037,0.0180877,1532,463,-0.0937242,0.0355772
315,561,-0.0983887,-0.0435181,0.00712211,-0.00483243,0.00297876,0.00782322,-0.00553355,0.231163,0.00774921,0.0121982,1539,463,-0.0984139,0.0435307
322,561,-0.0998535,-0.0362244,0.0070106,-0.00340769,0.00221799,0.00746314,-0.00386023,0.201269,0.00664694,0.0129745,1546,463,-0.0998715,0.036228
329,561,-0.081543,-0.0183105,0.00633254,-0.0020329,0.00162252,0.00663621,-0.00233658,0.185021,0.00537504,0.011317,1553,463,-0.0815253,0.0183255
336,561,-0.0599365,-0.0222168,0.00541033,-0.00105412,0.00113083,0.00560244,-0.00124623,0.168276,0.00421228,0.0107008,1560,463,-0.059941,0.0222045
343,561,-0.0522461,-0.049469,0.004364,-0.000279379,0.000696461,0.00446622,-0.000381591,0.145719,0.00311248,0.00981487,1567,463,-0.0522804,0.0494812
350,561,-0.0700684,-0.0422668,0.00317733,0.000570494,5.94743e-05,0.00317869,0.000569138,0.0227989,0.00195719,0.00874016,1574,463,-0.0700894,0.0422552
357,561,-0.0853271,-0.0246277,0.00206741,0.00113566,-0.000354313,0.00218683,0.00101623,-0.325105,0.00126362,0.0082139,1581,463,-0.0852756,0.0246311
364,561,-0.079834,-0.0386353,0.00104469,0.00149131,-0.000576362,0.00188611,0.000649891,-0.970217,0.00110635,0.00781576,1588,463,-0.079818,0.038625
371,561,-0.0810547,-0.0455627,0.000192473,0.00186908,-0.000759437,0.00216193,-0.000100372,-1.20276,0.00147588,0.0133757,1595,463,-0.0811011,0.0455778
378,561,-0.074585,-0.0575256,-0.000504898,0.00223911,-0.000797967,0.00245429,-0.000720076,-1.3074,0.00192173,0.0101836,1602,463,-0.0745859,0.0575132
385,561,-0.0681152,-0.0410156,-0.000733711,0.0024371,-0.000675114,0.00257485,-0.000871469,-1.36951,0.00206916,0.00862047,1609,463,-0.0681537,0.0410095
392,561,-0.072876,-0.00930786,-0.000765685,0.0026396,-0.000494116,0.00270985,-0.000835934,-1.42957,0.00214033,0.0120626,1616,463,-0.0728321,0.00931307
399,561,-0.0882568,-0.0209351,-0.000639403,0.00294231,-0.000299889,0.00296725,-0.000664339,-1.48784,0.0022328,0.01908,1623,463,-0.0882674,0.0209282
406,561,-0.0751953,-0.028595,-0.000225924,0.00319714,-1.98048e-05,0.00319726,-0.000226039,-1.56501,0.00221071,0.0178354,1630,463,-0.075237,0.0285897
413,561,-0.0698242,-0.0197449,0.000162173,0.00375099,0.000189978,0.00376102,0.000152144,1.51806,0.0024582,0.0153165,1637,463,-0.0698512,0.0197525
420,561,-0.0942383,-0.0320129,0.00051579,0.00484706,0.000450084,0.00489334,0.000469515,1.46834,0.00311753,0.0123825,1644,463,-0.0942654,0.0320212
427,561,-0.0736084,-0.030304,0.00071061,0.00570192,0.000729282,0.0058063,0.000606237,1.42864,0.00368544,0.00946692,1651,463,-0.0736449,0.0303108
434,561,-0.0668945,-0.0506897,0.0010066,0.00687028,0.000599385,0.00693093,0.000945957,1.46997,0.0043398,0.0103056,1658,463,-0.0669551,0.0506967
441,561,-0.0839844,-0.0566406,0.00128872,0.00782676,0.000164852,0.00783092,0.00128456,1.5456,0.00484947,0.0126495,1665,463,-0.0839888,0.0566534
448,561,-0.0725098,-0.0415039,0.00133919,0.00860569,-0.000241895,0.00861373,0.00133115,-1.53756,0.00535422,0.0164971,1672,463,-0.0724538,0.0415122
455,561,-0.102295,0.00115967,0.0014744,0.00992524,-0.000589948,0.00996622,0.00143341,-1.50144,0.00622163,0.0321459,1679,463,-0.102294,-0.0011694
462,561,-0.1698,-0.0636902,0.00113022,0.0113235,-0.000855156,0.0113947,0.00105897,-1.48768,0.00726925,0.032113,1686,463,-0.169828,0.0636961
469,561,-0.143311,-0.058197,0.000396281,0.0122806,-0.00146734,0.0124591,0.000217792,-1.44975,0.0082344,0.0208912,1693,463,-0.143362,0.0582062
476,561,-0.0345459,0.121765,-0.000146878,0.0127813,-0.00206754,0.0131039,-0.000469482,-1.41601,0.00889655,0.0356793,1700,463,-0.0345126,-0.121751
483,561,-0.144165,0.516571,-0.000598908,0.0131226,-0.00282041,0.0136797,-0.00115601,-1.37578,0.00952857,0.0443167,1707,463,-0.144201,-0.516575
490,561,-0.151489,-0.536865,-0.00114476,0.0127934,-0.0033323,0.0135491,-0.00190047,-1.34779,0.00972828,0.0443755,1714,463,-0.151481,0.536874
497,561,-0.442139,-0.710205,-0.00219209,0.0112641,-0.00359993,0.0121667,-0.00309464,-1.32515,0.00931562,0.0409854,1721,463,-0.442108,0.71019
504,561,-0.525757,-0.312683,0,0,0,0,0,0,0,-1,1728,463,-0.525776,0.312676
511,561,0,0,0,0,0,0,0,0,0,-1,1735,463,0,0
518,561,0,0,0,0,0,0,0,0,0,-1,1742,463,0,0
525,561,0,0,0,0,0,0,0,0,0,-1,1749,463,0,0
532,561,0,0,0,0,0,0,0,0,0,-1,1756,463,0,0
539,561,0,0,0,0,0,0,0,0,0,-1,1763,463,0,0
546,561,0,0,0,0,0,0,0,0,0,-1,1770,463,0,0
553,561,0,0,0,0,0,0,0,0,0,-1,1777,463,0,0
560,561,0,0,0,0,0,0,0,0,0,-1,1784,463,0,0
567,561,0,0,0,0,0,0,0,0,0,-1,1791,463,0,0
574,561,0,0,0,0,0,0,0,0,0,-1,1798,463,0,0
581,561,0,0,0,0,0,0,0,0,0,-1,1805,463,0,0
588,561,0,0,0,0,0,0,0,0,0,-1,1812,463,0,0
595,561,0,0,0,0,0,0,0,0,0,-1,1819,463,0,0
602,561,0,0,0,0,0,0,0,0,0,-1,1826,463,0,0
609,561,0,0,0,0,0,0,0,0,0,-1,1833,463,0,0
616,561,0,0,0,0,0,0,0,0,0,-1,1840,463,0,0
623,561,0,0,0,0,0,0,0,0,0,-1,1847,463,0,0
630,561,0,0,0,0,0,0,0,0,0,-1,1854,463,0,0
637,561,0,0,0,0,0,0,0,0,0,-1,1861,463,0,0
644,561,0,0,0,0,0,0,0,0,0,-1,1868,463,0,0
651,561,0,0,0,0,0,0,0,0,0,-1,1875,463,0,0
658,561,0,0,0,0,0,0,0,0,0,-1,1882,463,0,0
665,561,0,0,0,0,0,0,0,0,0,-1,1889,463,0,0
672,561,0,0,0,0,0,0,0,0,0,-1,1896,463,0,0
679,561,0,0,0,0,0,0,0,0,0,-1,1903,463,0,0
686,561,0,0,0,0,0,0,0,0,0,-1,1910,463,0,0
693,561,0,0,0,0,0,0,0,0,0,-1,1917,463,0,0
700,561,0,0,0,0,0,0,0,0,0,-1,1924,463,0,0
707,561,0,0,0,0,0,0,0,0,0,-1,1931,463,0,0
714,561,0,0,0,0,0,0,0,0,0,-1,1938,463,0,0
721,561,0,0,0,0,0,0,0,0,0,-1,1945,463,0,0
728,561,0,0,0,0,0,0,0,0,0,-1,1952,463,0,0
735,561,0,0,0,0,0,0,0,0,0,-1,1959,463,0,0
742,561,0,0,0,0,0,0,0,0,0,-1,1966,463,0,0
749,561,0,0,0,0,0,0,0,0,0,-1,1973,463,0,0
756,561,0,0,0,0,0,0,0,0,0,-1,1980,463,0,0
763,561,0,0,0,0,0,0,0,0,0,-1,1987,463,0,0
770,561,0,0,0,0,0,0,0,0,0,-1,1994,463,0,0
777,561,0,0,0,0,0,0,0,0,0,-1,2001,463,0,0
784,561,0,0,0,0,0,0,0,0,0,-1,2008,463,0,0
791,561,0,0,0,0,0,0,0,0,0,-1,2015,463,0,0
798,561,0,0,0,0,0,0,0,0,0,-1,2022,463,0,0
805,561,0,0,0,0,0,0,0,0,0,-1,2029,463,0,0
812,561,0,0,0,0,0,0,0,0,0,-1,2036,463,0,0
-700,554,0,0,0,0,0,0,0,0,0,-1,524,470,0,0
-693,554,0,0,0,0,0,0,0,0,0,-1,531,470,0,0
-686,554,0,0,0,0,0,0,0,0,0,-1,538,470,0,0
-679,554,0,0,0,0,0,0,0,0,0,-1,545,470,0,0
-672,554,0,0,0,0,0,0,0,0,0,-1,552,470,0,0
-665,554,0,0,0,0,0,0,0,0,0,-1,559,470,0,0
-658,554,0,0,0,0,0,0,0,0,0,-1,566,470,0,0
-651,554,0,0,0,0,0,0,0,0,0,-1,573,470,0,0
-644,554,0,0,0,0,0,0,0,0,0,-1,580,470,0,0
-637,554,0,0,0,0,0,0,0,0,0,-1,587,470,0,0
-630,554,0,0,0,0,0,0,0,0,0,-1,594,470,0,0
-623,554,0,0,0,0,0,0,0,0,0,-1,601,470,0,0
-616,554,0,0,0,0,0,0,0,0,0,-1,608,470,0,0
-609,554,0,0,0,0,0,0,0,0,0,-1,615,470,0,0
-602,554,0,0,0,0,0,0,0,0,0,-1,622,470,0,0
-595,554,0,0,0,0,0,0,0,0,0,-1,629,470,0,0
-588,554,0,0,0,0,0,0,0,0,0,-1,636,470,0,0
-581,554,0,0,0,0,0,0,0,0,0,-1,643,470,0,0
-574,554,0,0,0,0,0,0,0,0,0,-1,650,470,0,0
-567,554,0,0,0,0,0,0,0,0,0,-1,657,470,0,0
-560,554,0,0,0,0,0,0,0,0,0,-1,664,470,0,0
-553,554,0,0,0,0,0,0,0,0,0,-1,671,470,0,0
-546,554,0,0,0,0,0,0,0,0,0,-1,678,470,0,0
-539,554,0,0,0,0,0,0,0,0,0,-1,685,470,0,0
-532,554,0,0,0,0,0,0,0,0,0,-1,692,470,0,0
-525,554,0,0,0,0,0,0,0,0,0,-1,699,470,0,0
-518,554,0,0,0,0,0,0,0,0,0,-1,706,470,0,0
-511,554,0,0,0,0,0,0,0,0,0,-1,713,470,0,0
-504,554,0,0,0,0,0,0,0,0,0,-1,720,470,0,0
-497,554,0,0,0,0,0,0,0,0,0,-1,727,470,0,0
-490,554,0,0,0,0,0,0,0,0,0,-1,734,470,0,0
-483,554,0,0,0,0,0,0,0,0,0,-1,741,470,0,0
-476,554,0,0,0,0,0,0,0,0,0,-1,748,470,0,0
-469,554,0,0,0,0,0,0,0,0,0,-1,755,470,0,0
-462,554,0,0,0,0,0,0,0,0,0,-1,762,470,0,0
-455,554,0,0,0,0,0,0,0,0,0,-1,769,470,0,0
-448,554,0,0,0,0,0,0,0,0,0,-1,776,470,0,0
-441,554,0,0,0,0,0,0,0,0,0,-1,783,470,0,0
-434,554,0,0,0,0,0,0,0,0,0,-1,790,470,0,0
-427,554,0,0,0,0,0,0,0,0,0,-1,797,470,0,0
-420,554,0,0,0,0,0,0,0,0,0,-1,804,470,0,0
-413,554,0,0,0,0,0,0,0,0,0,-1,811,470,0,0
-406,554,0,0,0,0,0,0,0,0,0,-1,818,470,0,0
-399,554,-4.09613,-0.243866,0.0177713,-0.032722,-0.0182895,0.0237,-0.0386506,-0.313468,0.0363414,0.0491074,825,470,-4.09615,0.243851
-392,554,-3.38202,-0.265472,0,0,0,0,0,0,0,-1,832,470,-3.38201,0.265476
-385,554,-2.5874,-0.422882,0.00381019,0.0080234,-0.0241765,0.0301849,-0.0183513,-0.828856,0.0282986,0.0459387,839,470,-2.58742,0.422891
-378,554,-1.29913,-0.425537,0.00784725,0.0133612,-0.0197584,0.030554,-0.00934558,-0.854718,0.0240964,0.0456491,846,470,-1.29912,0.425532
-371,554,-0.304199,-0.521301,0,0,0,0,0,0,0,-1,853,470,-0.304205,0.521307
-364,554,0.106934,-0.133514,0,0,0,0,0,0,0,-1,860,470,0.106948,0.133503
-357,554,0.541199,0.20224,0,0,0,0,0,0,0,-1,867,470,0.541209,-0.202226
-350,554,0.0762329,0.16217,0,0,0,0,0,0,0,-1,874,470,0.0762196,-0.162166
-343,554,0.0750122,0.0413513,0.0152207,0.0361239,-0.0149518,0.0439149,0.00742972,-1.09043,0.0271411,0.0431387,881,470,0.0750364,-0.0413408
-336,554,-0.0748291,-0.0628967,0.0174418,0.0342669,-0.014238,0.0423919,0.00931679,-1.05223,0.0257243,0.03032,888,470,-0.07483,0.0629059
-329,554,-0.0913086,-0.0615234,0.0183491,0.0316442,-0.0119716,0.0386901,0.0113032,-1.03884,0.0229721,0.0155945,895,470,-0.0912966,0.0615241
-322,554,-0.0614014,-0.0482483,0.0182242,0.0284576,-0.0107968,0.0352888,0.011393,-1.00668,0.0207959,0.00961527,902,470,-0.0613901,0.04826
-315,554,-0.0598755,-0.0469055,0.0171525,0.0236782,-0.00931764,0.0302878,0.010543,-0.953814,0.0177536,0.00924282,909,470,-0.0598888,0.0468927
-308,554,-0.0767822,-0.0548401,0.0153493,0.0193351,-0.00842648,0.0260011,0.00868323,-0.901517,0.0152852,0.0126858,916,470,-0.0767887,0.0548499
-301,554,-0.0706177,-0.0480347,0.0133113,0.0159868,-0.00754769,0.0223144,0.00698376,-0.873108,0.0131802,0.0141459,923,470,-0.0706367,0.048046
-294,554,-0.0706177,-0.0499268,0.0112475,0.0126633,-0.00649472,0.0184886,0.00542221,-0.839684,0.0109743,0.0115197,930,470,-0.070639,0.0499347
-287,554,-0.0891113,-0.0370483,0.00972051,0.00881294,-0.00505741,0.0143445,0.004189,-0.740654,0.00851723,0.0103453,937,470,-0.089136,0.0370556
-280,554,-0.0827026,-0.0253296,0.00780259,0.00511044,-0.00389311,0.0105758,0.00233727,-0.618953,0.00641496,0.00952345,944,470,-0.0826908,0.0253291
-273,554,-0.0722656,-0.0358582,0.00451917,0.0048031,-0.00420947,0.008873,0.00044927,-0.802254,0.00577141,0.012259,951,470,-0.0722773,0.0358668
-266,554,-0.0756226,-0.0343323,0.00312794,0.00368271,-0.00394307,0.00735814,-0.000547492,-0.820514,0.00509774,0.0107655,958,470,-0.0756328,0.0343475
-259,554,-0.0979614,-0.025177,0.00359987,0.00273418,-0.00393407,0.00712484,-0.000790786,-0.730607,0.00503423,0.0105277,965,470,-0.0979611,0.0251859
-252,554,-0.0973511,-0.0195313,0.00406148,0.00210975,-0.00404231,0.00724405,-0.00107282,-0.666958,0.00522382,0.0124005,972,470,-0.0973796,0.0195416
-245,554,-0.0995483,-0.0242615,0.00481799,0.00150705,-0.00381587,0.00732202,-0.000996978,-0.580732,0.00524535,0.0146077,979,470,-0.0995642,0.0242577
-238,554,-0.0985107,-0.0397339,0.00605236,0.000719123,-0.00371682,0.00796019,-0.00118871,-0.474229,0.00574418,0.0108994,986,470,-0.0985164,0.039731
-231,554,-0.0764771,-0.0535889,0.00746982,0.000159562,-0.00362248,0.00896079,-0.00133141,-0.390456,0.00646353,0.00933804,993,470,-0.0764785,0.0535918
-224,554,-0.0651245,-0.0464783,0.00892431,-0.000307209,-0.0036126,0.01017,-0.00155286,-0.332041,0.00735246,0.00910803,1000,470,-0.0651016,0.0464641
-217,554,-0.0626831,-0.0301208,0.0107466,0.00111456,-0.00414239,0.012283,-0.000421852,-0.355172,0.00833286,0.00876284,1007,470,-0.0627079,0.030111
-210,554,-0.0635986,-0.0327759,0.0120794,0.00224465,-0.00490357,0.0141065,0.000217559,-0.391996,0.00933265,0.0114522,1014,470,-0.0636063,0.0327612
-203,554,-0.0800171,-0.0549316,0.012522,0.00322565,-0.00492059,0.0146427,0.00110494,-0.406931,0.00941511,0.0172115,1021,470,-0.0800162,0.0549461
-196,554,-0.0808105,-0.087738,0.0128379,0.0046523,-0.00455043,0.0148654,0.00262486,-0.419147,0.00916151,0.0229391,1028,470,-0.0807513,0.0877506
-189,554,-0.0632324,-0.0654602,0.0130048,0.00582485,-0.00375681,0.0146111,0.00421853,-0.404051,0.00868315,0.0288437,1035,470,-0.063276,0.0654662
-182,554,-0.0477295,-0.0152588,0.0124667,0.00624159,-0.00330507,0.0138942,0.00481416,-0.407692,0.00814684,0.0357528,1042,470,-0.0477644,0.0152471
-175,554,-0.083374,0.0257263,0.0117047,0.00705093,-0.00309486,0.0132498,0.0055058,-0.463055,0.00768609,0.0447712,1049,470,-0.0833486,-0.0257397
-168,554,-0.12561,0.0411072,0.0106597,0.00722489,-0.00261433,0.0120703,0.00581432,-0.494786,0.00697032,0.0480146,1056,470,-0.125598,-0.0411117
-161,554,-0.153564,0.0266418,0,0,0,0,0,0,0,-1,1063,470,-0.153519,-0.026651
-154,554,-0.369263,-0.422974,0.00740884,0.00793444,-0.000837661,0.00854956,0.00679373,-0.937401,0.00521393,0.0403071,1070,470,-0.36929,0.42298
-147,554,-0.463013,-0.110016,0.00679149,0.00716168,0.000205886,0.00725344,0.00669973,1.15153,0.00466203,0.0413162,1077,470,-0.462953,0.11003
-140,554,-0.13855,0.384857,0.00707291,0.00681655,0.000327145,0.00729609,0.00659337,0.598682,0.00464756,0.0450921,1084,470,-0.138538,-0.384852
-133,554,0.273682,0.327515,0.00639029,0.00709093,0.00104334,0.00784119,0.00564003,0.947368,0.00466998,0.0449547,1091,470,0.273713,-0.327519
-126,554,0.535278,0.211639,0,0,0,0,0,0,0,-1,1098,470,0.535312,-0.211633
-119,554,-0.218018,-0.0969849,0.00506597,0.00736579,0.00285477,0.00929355,0.00313821,0.976859,0.00545907,0.0421308,1105,470,-0.218063,0.0969948
-112,554,0.0227051,-0.310394,0.00418152,0.00644298,0.00415614,0.00961946,0.00100504,0.918214,0.0061056,0.0418957,1112,470,0.022694,0.310402
-105,554,0.210693,-0.394226,0.00354629,0.0071196,0.0054113,0.0110316,-0.00036568,0.944849,0.00747925,0.044249,1119,470,0.210635,0.394233
-98,554,0.391602,-0.485046,0.00324365,0.00862705,0.00533067,0.0119071,-3.63574e-05,1.0192,0.00795018,0.0417926,1126,470,0.391643,0.485037
-91,554,0.409424,-0.674011,0,0,0,0,0,0,0,-1,1133,470,0.409421,0.674014
-84,554,0.732178,-0.78186,0.00219165,0.0131983,0.00481941,0.0150103,0.000379695,1.21118,0.0098827,0.0430271,1140,470,0.732172,0.781849
-77,554,-0.535034,0.0685425,0.00283165,0.0172268,0.00483136,0.018698,0.00136049,1.27521,0.0120375,0.0481633,1147,470,-0.535051,-0.0685294
-70,554,-0.155151,0.009552,0.00365548,0.0219262,0.00465127,0.0230421,0.00253954,1.33533,0.0145888,0.0434963,1154,470,-0.15516,-0.00953943
-63,554,-0.104492,-0.108398,0.00197043,0.0289341,0.00339855,0.0293559,0.00154867,1.44733,0.0190753,0.039241,1161,470,-0.104493,0.108387
-56,554,-0.0393066,-0.183228,0.000812383,0.0376851,0.0024507,0.0378472,0.000650216,1.50472,0.0250176,0.0401206,1168,470,-0.0393306,0.183217
-49,554,-0.10144,-0.114105,0.00186656,0.045474,0.00168335,0.0455389,0.00180167,1.53227,0.0297769,0.0424186,1175,470,-0.101413,0.114112
-42,554,-0.185181,-0.264679,0.00294441,0.0538759,0.000902221,0.0538918,0.00292843,1.55309,0.0349926,0.0422001,1182,470,-0.18515,0.26469
-35,554,-0.0112305,-0.386719,0.00299192,0.0629032,0.000917201,0.0629172,0.00297788,1.55549,0.0409883,0.0403021,1189,470,-0.0112595,0.386725
-28,554,0.266479,-0.612732,0.00419373,0.0718534,0.000543737,0.0718578,0.00418936,1.56276,0.0465716,0.0438556,1196,470,0.266473,0.612717
-21,554,0.533813,-0.817963,0.00758972,0.0788138,0.0013801,0.0788405,0.00756299,1.55143,0.0502295,0.0459407,1203,470,0.533818,0.817973
-14,554,0.227661,-0.912415,0.01217,0.0844494,0.00428407,0.0847025,0.011917,1.5118,0.0529449,0.0440818,1210,470,0.227668,0.912426
-7,554,0.0845947,-1.14493,0.0187628,0.0911448,0.00700311,0.0918162,0.0180915,1.47523,0.0561602,0.0453272,1217,470,0.084648,1.14493
0,554,0.214722,1.70947,0,0,0,0,0,0,0,-1,1224,470,0.214727,-1.70948
7,554,0.741333,2.50034,0,0,0,0,0,0,0,-1,1231,470,0.741344,-2.50033
14,554,1.9447,3.05533,0,0,0,0,0,0,0,-1,1238,470,1.94474,-3.05533
21,554,6.36328,-0.841003,0,0,0,0,0,0,0,-1,1245,470,6.36328,0.841009
28,554,2.45886,1.92343,0,0,0,0,0,0,0,-1,1252,470,2.45881,-1.92342
35,554,3.8811,1.07681,0,0,0,0,0,0,0,-1,1259,470,3.8811,-1.07682
42,554,4.7677,1.22565,0,0,0,0,0,0,0,-1,1266,470,4.76765,-1.22563
49,554,5.36218,1.20737,0,0,0,0,0,0,0,-1,1273,470,5.36218,-1.20738
56,554,0.854736,-0.528198,0.0238503,0.0548979,-0.0548658,0.0963938,-0.0176456,-0.923265,0.0708804,0.0455068,1280,470,0.854687,0.528192
63,554,1.55798,-1.15555,0.0172755,0.0637991,-0.0488182,0.0946144,-0.0135398,-1.00773,0.0680401,0.0433876,1287,470,1.55798,1.15556
70,554,2.06445,-1.81088,0,0,0,0,0,0,0,-1,1294,470,2.06444,1.81088
77,554,2.51587,-2.2865,0,0,0,0,0,0,0,-1,1301,470,2.51591,2.28651
84,554,0.0860596,-2.60114,0.0350645,0.156564,0.0261689,0.161961,0.0296679,1.36743,0.0995691,0.0429917,1308,470,0.0860538,2.60113
91,554,-0.260864,-2.64542,0.049906,0.187152,0.0509404,0.203993,0.0330653,1.25151,0.126423,0.0433761,1315,470,-0.2609,2.64542
98,554,-0.328979,-2.66449,0.0611512,0.216111,0.0690843,0.242438,0.0348247,1.20671,0.151358,0.0471728,1322,470,-0.329,2.66449
105,554,-0.418945,-2.88226,0.0771517,0.249582,0.0930946,0.290251,0.0364825,1.15892,0.182559,0.0474118,1329,470,-0.418978,2.88227
112,554,-0.317749,-3.24252,0.0885244,0.280499,0.108899,0.329676,0.0393477,1.14663,0.207913,0.0431429,1336,470,-0.317792,3.24252
119,554,-0.0900879,-3.77621,0,0,0,0,0,0,0,-1,1343,470,-0.0900674,3.77622
126,554,0.278564,-3.19278,0.106567,0.320467,0.121534,0.375409,0.0516257,1.14622,0.234962,0.0423728,1350,470,0.278601,3.19278
133,554,1.48767,4.20471,0.110114,0.324116,0.115077,0.374251,0.0599778,1.15992,0.232106,0.045098,1357,470,1.48771,-4.2047
140,554,1.34583,2.56598,0.110869,0.322024,0.103868,0.364552,0.0683408,1.18218,0.223761,0.0494287,1364,470,1.34578,-2.56598
147,554,1.06506,1.05814,0.105094,0.308464,0.0879977,0.341254,0.0723042,1.21411,0.207641,0.0474062,1371,470,1.06503,-1.05815
154,554,0.781372,-0.133026,0,0,0,0,0,0,0,-1,1378,470,0.781386,0.13304
161,554,0.520386,-1.01678,0.0702121,0.218604,0.0549285,0.236724,0.0520924,1.25216,0.143636,0.0466718,1385,470,0.520407,1.01678
168,554,0.237183,-1.33951,0,0,0,0,0,0,0,-1,1392,470,0.237145,1.33952
175,554,-0.130127,-1.81351,0,0,0,0,0,0,0,-1,1399,470,-0.130066,1.8135
182,554,-0.140259,-2.18021,0,0,0,0,0,0,0,-1,1406,470,-0.140258,2.1802
189,554,-0.0253906,-1.22498,0,0,0,0,0,0,0,-1,1413,470,-0.0253918,1.22496
196,554,-0.298096,-0.981506,0,0,0,0,0,0,0,-1,1420,470,-0.298042,0.9815
203,554,-0.304565,-0.638489,0,0,0,0,0,0,0,-1,1427,470,-0.304506,0.638501
210,554,-0.258423,0.256622,0.00190981,0.0401866,-0.0146526,0.0451517,-0.00305527,-1.24409,0.0311695,0.0404364,1434,470,-0.258467,-0.256619
217,554,-0.132935,0.0610046,0.002995,0.0405979,-0.012877,0.0445848,-0.000991942,-1.27054,0.0300593,0.0388312,1441,470,-0.132942,-0.0609902
224,554,-0.193726,-0.29657,0.00328356,0.0404775,-0.0112299,0.0436051,0.000155933,-1.29917,0.0290183,0.0438484,1448,470,-0.19373,0.296569
231,554,-0.435547,-0.579346,0.00342546,0.0382889,-0.00882882,0.0403972,0.00131715,-1.33639,0.0265033,0.0440087,1455,470,-0.435546,0.579354
238,554,-0.699707,-0.682251,0.00343421,0.0344638,-0.00626716,0.0356818,0.00221622,-1.37884,0.0230846,0.0440489,1462,470,-0.699697,0.682242
245,554,-0.666016,-1.09094,0.00356634,0.0289541,-0.00336533,0.0293926,0.00312781,-1.44122,0.0186402,0.0487707,1469,470,-0.665985,1.09095
252,554,-0.512695,-1.23053,0.00369967,0.0230243,-0.000803104,0.0230577,0.00366635,-1.52933,0.0143071,0.0438362,1476,470,-0.512696,1.23054
259,554,-0.277466,-1.25058,0.00447188,0.0172847,0.00121407,0.0173987,0.00435786,1.47715,0.0104538,0.042324,1483,470,-0.277423,1.25059
266,554,-0.296509,-0.0664368,0.00514962,0.0117985,0.00308497,0.0130094,0.00393876,1.19677,0.00770331,0.0455611,1490,470,-0.296455,0.0664315
273,554,-0.238647,-0.276184,0.00572159,0.006639,0.004883,0.0110848,0.00127579,0.832231,0.00700344,0.0462806,1497,470,-0.238627,0.276186
280,554,-0.533203,0.0601501,0,0,0,0,0,0,0,-1,1504,470,-0.533227,-0.0601524
287,554,-0.424561,0.0984192,0.00842153,-0.00356225,0.00699339,0.0116389,-0.00677961,0.431186,0.0107566,0.0472046,1511,470,-0.424529,-0.098406
294,554,-0.483765,0.0215149,0.00969856,-0.00625045,0.00685768,0.0122417,-0.00879357,0.355121,0.012199,0.0442835,1518,470,-0.48374,-0.0215234
301,554,-0.0786133,0.0314941,0.0102369,-0.0077522,0.00585099,0.0119725,-0.0094878,0.288365,0.0124177,0.043365,1525,470,-0.0785639,-0.0314996
308,554,-0.10498,0.0714722,0.0107924,-0.00828668,0.00494444,0.0119977,-0.00949192,0.239094,0.0124351,0.0373547,1532,470,-0.10502,-0.0714781
315,554,-0.11731,-0.0924683,0.0111506,-0.00721494,0.00393725,0.0119591,-0.00802342,0.202528,0.0116113,0.033682,1539,470,-0.117355,0.0924794
322,554,-0.174927,-0.0523071,0.0110958,-0.00534339,0.00298658,0.0116216,-0.00586916,0.174258,0.0102787,0.0284545,1546,470,-0.174918,0.0523171
329,554,-0.131348,-0.0217285,0.0103143,-0.00355058,0.0021898,0.0106519,-0.00388821,0.152979,0.00869224,0.0161386,1553,470,-0.131318,0.0217134
336,554,-0.0750732,-0.0426025,0.00920187,-0.00219162,0.00142524,0.00937745,-0.0023672,0.122577,0.00717212,0.00969155,1560,470,-0.0750747,0.0425936
343,554,-0.0668945,-0.0479431,0.00794847,-0.000946567,0.000608034,0.00798984,-0.000987937,0.0679354,0.00568456,0.00923622,1567,470,-0.0669014,0.0479418
350,554,-0.0651855,-0.0387573,0.00639605,0.000289619,-0.000310599,0.00641181,0.000273861,-0.0506898,0.00418624,0.00894562,1574,470,-0.0651808,0.0387555
357,554,-0.0653076,-0.0355225,0.00485272,0.00109373,-0.00101676,0.00511011,0.00083633,-0.247943,0.00316501,0.00933,1581,470,-0.0652604,0.0355356
364,554,-0.0753174,-0.0364685,0.00335752,0.00169723,-0.00146884,0.00421457,0.000840176,-0.528191,0.00257574,0.00776588,1588,470,-0.075343,0.0364673
371,554,-0.0777588,-0.0463257,0.00205583,0.00224565,-0.00184975,0.00400292,0.000298559,-0.81103,0.00257487,0.00753477,1595,470,-0.0777818,0.0463374
378,554,-0.0758057,-0.0369873,0.00098598,0.00272617,-0.00200408,0.00404088,-0.000328734,-0.990201,0.00280991,0.00891977,1602,470,-0.0758108,0.0369838
385,554,-0.0617676,-0.0261841,0.000527459,0.00288047,-0.00188654,0.0039273,-0.000519369,-1.06421,0.00280738,0.00855902,1609,470,-0.0617412,0.0261835
392,554,-0.0628662,-0.0142822,0.000240205,0.00302512,-0.0016167,0.00376636,-0.000501029,-1.14091,0.00269349,0.0123451,1616,470,-0.0628671,0.0142962
399,554,-0.0662842,0.00213623,0.00022015,0.00317349,-0.00132951,0.00368381,-0.000290178,-1.20429,0.00255809,0.0183603,1623,470,-0.0663029,-0.00212246
406,554,-0.0693359,-0.0125427,0.000545648,0.00313188,-0.000915917,0.00342339,0.000254133,-1.26266,0.00220244,0.0164306,1630,470,-0.0693365,0.0125339
413,554,-0.0881348,-0.00686646,0.000765287,0.00334309,-0.000553484,0.00345691,0.000651473,-1.36799,0.00212106,0.0146104,1637,470,-0.0881429,0.00687753
420,554,-0.0927734,-0.0321045,0.000911028,0.00399463,-0.000128909,0.00400001,0.000905648,-1.52909,0.00242191,0.0157234,1644,470,-0.0927911,0.0320915
427,554,-0.0776367,-0.0489502,0.000977225,0.00450772,0.000272386,0.00452861,0.000956334,1.49425,0.00275617,0.0109905,1651,470,-0.0776692,0.0489434
434,554,-0.0740967,-0.0535889,0.00113814,0.00531249,0.00029311,0.00533297,0.00111766,1.50104,0.00324751,0.00950164,1658,470,-0.0740726,0.053603
441,554,-0.0861816,-0.0597534,0.00129094,0.00591361,6.98735e-05,0.00591466,0.00128989,1.55569,0.00359121,0.0101231,1665,470,-0.0861854,0.0597447
448,554,-0.0834961,-0.0527344,0.00125645,0.00636116,-0.000125602,0.00636425,0.00125336,-1.54621,0.00389289,0.010519,1672,470,-0.0834577,0.0527366
455,554,-0.0806885,-0.0282593,0.00137441,0.00740136,-0.000364441,0.00742332,0.00135245,-1.51062,0.00456534,0.012274,1679,470,-0.0806411,0.0282444
462,554,-0.0852051,-0.0242004,0.00104028,0.0086264,-0.000403954,0.00864785,0.00101884,-1.51775,0.00545741,0.0154504,1686,470,-0.0852339,0.02419
469,554,-0.0672607,-0.0274963,0.000372405,0.00939774,-0.000686759,0.0094497,0.000320447,-1.49528,0.00619575,0.0211703,1693,470,-0.0673215,0.027488
476,554,-0.176514,0.197174,-3.82095e-05,0.00995147,-0.000953618,0.0100417,-0.000128427,-1.47647,0.00673768,0.0369632,1700,470,-0.176564,-0.197179
483,554,-0.323853,0.0707397,-0.000337668,0.0105892,-0.0013416,0.0107515,-0.00049998,-1.4504,0.00734004,0.0441537,1707,470,-0.323803,-0.0707297
490,554,-0.0809326,-0.433411,-0.000730788,0.0106032,-0.00140317,0.0107743,-0.00090192,-1.44943,0.00750159,0.0447581,1714,470,-0.0809363,0.433403
497,554,-0.0820313,-0.3508,-0.00131631,0.00971313,-0.00123522,0.00984978,-0.00145295,-1.46062,0.00710056,0.0443663,1721,470,-0.0819782,0.350814
504,554,0.0148926,-0.162598,0,0,0,0,0,0,0,-1,1728,470,0.0148751,0.162611
511,554,0.204956,0.142395,-0.00302731,0.00748022,-0.000912212,0.00755882,-0.00310591,-1.48484,0.00633367,0.0465991,1735,470,0.204958,-0.142387
518,554,0.0141602,0.571259,0,0,0,0,0,0,0,-1,1742,470,0.0142071,-0.571259
525,554,0,0,0,0,0,0,0,0,0,-1,1749,470,0,0
532,554,0,0,0,0,0,0,0,0,0,-1,1756,470,0,0
539,554,0,0,0,0,0,0,0,0,0,-1,1763,470,0,0
546,554,0,0,0,0,0,0,0,0,0,-1,1770,470,0,0
553,554,0,0,0,0,0,0,0,0,0,-1,1777,470,0,0
560,554,0,0,0,0,0,0,0,0,0,-1,1784,470,0,0
567,554,0,0,0,0,0,0,0,0,0,-1,1791,470,0,0
574,554,0,0,0,0,0,0,0,0,0,-1,1798,470,0,0
581,554,0,0,0,0,0,0,0,0,0,-1,1805,470,0,0
588,554,0,0,0,0,0,0,0,0,0,-1,1812,470,0,0
595,554,0,0,0,0,0,0,0,0,0,-1,1819,470,0,0
602,554,0,0,0,0,0,0,0,0,0,-1,1826,470,0,0
609,554,0,0,0,0,0,0,0,0,0,-1,1833,470,0,0
616,554,0,0,0,0,0,0,0,0,0,-1,1840,470,0,0
623,554,0,0,0,0,0,0,0,0,0,-1,1847,470,0,0
630,554,0,0,0,0,0,0,0,0,0,-1,1854,470,0,0
637,554,0,0,0,0,0,0,0,0,0,-1,1861,470,0,0
644,554,0,0,0,0,0,0,0,0,0,-1,1868,470,0,0
651,554,0,0,0,0,0,0,0,0,0,-1,1875,470,0,0
658,554,0,0,0,0,0,0,0,0,0,-1,1882,470,0,0
665,554,0,0,0,0,0,0,0,0,0,-1,1889,470,0,0
672,554,0,0,0,0,0,0,0,0,0,-1,1896,470,0,0
679,554,0,0,0,0,0,0,0,0,0,-1,1903,470,0,0
686,554,0,0,0,0,0,0,0,0,0,-1,1910,470,0,0
693,554,0,0,0,0,0,0,0,0,0,-1,1917,470,0,0
700,554,0,0,0,0,0,0,0,0,0,-1,1924,470,0,0
707,554,0,0,0,0,0,0,0,0,0,-1,1931,470,0,0
714,554,0,0,0,0,0,0,0,0,0,-1,1938,470,0,0
721,554,0,0,0,0,0,0,0,0,0,-1,1945,470,0,0
728,554,0,0,0,0,0,0,0,0,0,-1,1952,470,0,0
735,554,0,0,0,0,0,0,0,0,0,-1,1959,470,0,0
742,554,0,0,0,0,0,0,0,0,0,-1,1966,470,0,0
749,554,0,0,0,0,0,0,0,0,0,-1,1973,470,0,0
756,554,0,0,0,0,0,0,0,0,0,-1,1980,470,0,0
763,554,0,0,0,0,0,0,0,0,0,-1,1987,470,0,0
770,554,0,0,0,0,0,0,0,0,0,-1,1994,470,0,0
777,554,0,0,0,0,0,0,0,0,0,-1,2001,470,0,0
784,554,0,0,0,0,0,0,0,0,0,-1,2008,470,0,0
791,554,0,0,0,0,0,0,0,0,0,-1,2015,470,0,0
798,554,0,0,0,0,0,0,0,0,0,-1,2022,470,0,0
805,554,0,0,0,0,0,0,0,0,0,-1,2029,470,0,0
812,554,0,0,0,0,0,0,0,0,0,-1,2036,470,0,0
-700,547,0,0,0,0,0,0,0,0,0,-1,524,477,0,0
-693,547,0,0,0,0,0,0,0,0,0,-1,531,477,0,0
-686,547,0,0,0,0,0,0,0,0,0,-1,538,477,0,0
-679,547,0,0,0,0,0,0,0,0,0,-1,545,477,0,0
-672,547,0,0,0,0,0,0,0,0,0,-1,552,477,0,0
-665,547,0,0,0,0,0,0,0,0,0,-1,559,477,0,0
-658,547,0,0,0,0,0,0,0,0,0,-1,566,477,0,0
-651,547,0,0,0,0,0,0,0,0,0,-1,573,477,0,0
-644,547,0,0,0,0,0,0,0,0,0,-1,580,477,0,0
-637,547,0,0,0,0,0,0,0,0,0,-1,587,477,0,0
-630,547,0,0,0,0,0,0,0,0,0,-1,594,477,0,0
-623,547,0,0,0,0,0,0,0,0,0,-1,601,477,0,0
-616,547,0,0,0,0,0,0,0,0,0,-1,608,477,0,0
-609,547,0,0,0,0,0,0,0,0,0,-1,615,477,0,0
-602,547,0,0,0,0,0,0,0,0,0,-1,622,477,0,0
-595,547,0,0,0,0,0,0,0,0,0,-1,629,477,0,0
-588,547,0,0,0,0,0,0,0,0,0,-1,636,477,0,0
-581,547,0,0,0,0,0,0,0,0,0,-1,643,477,0,0
-574,547,0,0,0,0,0,0,0,0,0,-1,650,477,0,0
-567,547,0,0,0,0,0,0,0,0,0,-1,657,477,0,0
-560,547,0,0,0,0,0,0,0,0,0,-1,664,477,0,0
-553,547,0,0,0,0,0,0,0,0,0,-1,671,477,0,0
-546,547,0,0,0,0,0,0,0,0,0,-1,678,477,0,0
-539,547,0,0,0,0,0,0,0,0,0,-1,685,477,0,0
-532,547,0,0,0,0,0,0,0,0,0,-1,692,477,0,0
-525,547,0,0,0,0,0,0,0,0,0,-1,699,477,0,0
-518,547,0,0,0,0,0,0,0,0,0,-1,706,477,0,0
-511,547,0,0,0,0,0,0,0,0,0,-1,713,477,0,0
-504,547,0,0,0,0,0,0,0,0,0,-1,720,477,0,0
-497,547,0,0,0,0,0,0,0,0,0,-1,727,477,0,0
-490,547,0,0,0,0,0,0,0,0,0,-1,734,477,0,0
-483,547,0,0,0,0,0,0,0,0,0,-1,741,477,0,0
-476,547,0,0,0,0,0,0,0,0,0,-1,748,477,0,0
-469,547,0,0,0,0,0,0,0,0,0,-1,755,477,0,0
-462,547,0,0,0,0,0,0,0,0,0,-1,762,477,0,0
-455,547,0,0,0,0,0,0,0,0,0,-1,769,477,0,0
-448,547,0,0,0,0,0,0,0,0,0,-1,776,477,0,0
-441,547,0,0,0,0,0,0,0,0,0,-1,783,477,0,0
-434,547,0,0,0,0,0,0,0,0,0,-1,790,477,0,0
-427,547,0,0,0,0,0,0,0,0,0,-1,797,477,0,0
-420,547,0,0,0,0,0,0,0,0,0,-1,804,477,0,0
-413,547,0,0,0,0,0,0,0,0,0,-1,811,477,0,0
-406,547,-3.69006,0.743256,0,0,0,0,0,0,0,-1,818,477,-3.69009,-0.743253
-399,547,-3.1723,0.730957,0,0,0,0,0,0,0,-1,825,477,-3.1723,-0.730965
-392,547,1.08313,-0.0214844,0,0,0,0,0,0,0,-1,832,477,1.08313,0.0214699
-385,547,-0.019165,0.352783,0.00183372,0.00185026,-0.0146172,0.0164592,-0.0127752,-0.785681,0.0169231,0.0408849,839,477,-0.0191348,-0.352769
-378,547,-1.22931,0.480347,0.00514214,0.00659538,-0.0125813,0.018471,-0.0067335,-0.814243,0.0150686,0.0446906,846,477,-1.2293,-0.480334
-371,547,-0.43396,0.0880737,0,0,0,0,0,0,0,-1,853,477,-0.43398,-0.0880796
-364,547,-0.0134888,0.0534973,0.0091901,0.0182334,-0.0120964,0.0266256,0.000797914,-0.964259,0.0174905,0.0436599,860,477,-0.0134946,-0.0535084
-357,547,0.415283,-0.392456,0.00984825,0.0233054,-0.0125557,0.0308218,0.00233187,-1.03137,0.0198164,0.0431982,867,477,0.415267,0.392469
-350,547,0.267578,-0.185455,0,0,0,0,0,0,0,-1,874,477,0.267601,0.18547
-343,547,-0.0583496,-0.00723267,0.0117386,0.0267359,-0.01212,0.0334894,0.00498507,-1.06242,0.0208641,0.0348994,881,477,-0.0583787,0.00724098
-336,547,-0.0862427,-0.0349121,0.0133359,0.0255219,-0.0116396,0.0325668,0.00629094,-1.02652,0.0199477,0.0141389,888,477,-0.0862239,0.0349265
-329,547,-0.0861206,-0.0535889,0.0139633,0.0236164,-0.00972159,0.0296436,0.00793601,-1.01581,0.0177197,0.00821727,895,477,-0.0861221,0.0536003
-322,547,-0.0762939,-0.0588684,0.013887,0.0212992,-0.00867741,0.0270288,0.00815742,-0.98722,0.0160085,0.0100238,902,477,-0.0762998,0.0588778
-315,547,-0.0682373,-0.0529175,0.0132971,0.0176409,-0.0072263,0.0230146,0.00792334,-0.931383,0.0135006,0.0100419,909,477,-0.068255,0.0529134
-308,547,-0.067688,-0.0447083,0.0120632,0.0142358,-0.00625084,0.019494,0.00680497,-0.871428,0.0114245,0.0114243,916,477,-0.0676904,0.0447049
-301,547,-0.0673218,-0.0433655,0.0107303,0.0116214,-0.00529634,0.0164909,0.00586078,-0.827359,0.00965283,0.0109598,923,477,-0.0673412,0.0433633
-294,547,-0.0911255,-0.0342712,0.00941537,0.00887034,-0.00432574,0.0134772,0.00480854,-0.753941,0.00788672,0.00884108,930,477,-0.0911057,0.0342693
-287,547,-0.0913086,-0.0246582,0.00853585,0.0058347,-0.00318417,0.010644,0.00372652,-0.584822,0.00623671,0.0103579,937,477,-0.0913156,0.0246482
-280,547,-0.0800171,-0.0254517,0.00710548,0.00287806,-0.00228967,0.00810791,0.00187562,-0.412669,0.00490119,0.0118168,944,477,-0.0799925,0.0254604
-273,547,-0.0751953,-0.0255737,0.00466596,0.00268052,-0.00263864,0.00649245,0.000854031,-0.605476,0.00407357,0.0110118,951,477,-0.0751746,0.0255724
-266,547,-0.0795898,-0.0307007,0.00417181,0.00188568,-0.00272707,0.00598569,7.17989e-05,-0.586943,0.00396675,0.0107269,958,477,-0.07962,0.030696
-259,547,-0.0986328,-0.0393066,0.00499913,0.0011007,-0.00318569,0.00678462,-0.000684798,-0.510849,0.00476777,0.0100909,965,477,-0.0986175,0.0392973
-252,547,-0.098877,-0.0336914,0.00570733,0.000783583,-0.00386676,0.00782941,-0.0013385,-0.501922,0.00571823,0.00974261,972,477,-0.0988826,0.0336861
-245,547,-0.0982666,-0.0279541,0.00671189,0.00046949,-0.00432986,0.00892826,-0.00174688,-0.473105,0.00661184,0.0107004,979,477,-0.0982781,0.0279542
-238,547,-0.0856323,-0.039856,0.00827739,-0.000174998,-0.00470471,0.0103754,-0.00227297,-0.419464,0.00778595,0.00782879,986,477,-0.0856221,0.0398443
-231,547,-0.0685425,-0.0569458,0.0102709,-0.000450276,-0.00513721,0.012335,-0.00251444,-0.382062,0.00917704,0.00739765,993,477,-0.0685137,0.0569365
-224,547,-0.0720825,-0.0401611,0.012236,-0.000786112,-0.00545843,0.0142213,-0.00277142,-0.34884,0.010527,0.00865045,1000,477,-0.0720962,0.0401496
-217,547,-0.0700684,-0.0281677,0.0143898,0.0011434,-0.00629764,0.0169059,-0.00137272,-0.380103,0.0117549,0.0109431,1007,477,-0.0700676,0.028181
-210,547,-0.052124,-0.0431824,0.0158221,0.00259194,-0.00737945,0.0191174,-0.000703356,-0.419982,0.0129857,0.0185024,1014,477,-0.052103,0.0431793
-203,547,-0.0669556,-0.046936,0.0166735,0.00389727,-0.00733966,0.0200157,0.000555094,-0.427301,0.0131627,0.0319636,1021,477,-0.0669331,0.0469459
-196,547,-0.306274,-0.190369,0.0173744,0.0057498,-0.00686709,0.0205588,0.00256545,-0.434198,0.0129358,0.0381843,1028,477,-0.306309,0.190356
-189,547,-0.127563,0.106903,0.0177581,0.0073231,-0.0057846,0.0203306,0.00475061,-0.418449,0.0122804,0.0428864,1035,477,-0.127561,-0.106899
-182,547,-0.072876,0.322327,0.0168603,0.00783301,-0.00516246,0.0192041,0.00548925,-0.426175,0.0114215,0.0479038,1042,477,-0.0728843,-0.322313
-175,547,-0.0506592,0.106415,0,0,0,0,0,0,0,-1,1049,477,-0.0506926,-0.1064
-168,547,-0.0982666,0.142914,0,0,0,0,0,0,0,-1,1056,477,-0.0982705,-0.142924
-161,547,0.00463867,-0.0194092,0.0112843,0.00890812,-0.0033334,0.013635,0.00655742,-0.614204,0.00787411,0.0443713,1063,477,0.00461289,0.0194092
-154,547,-0.779297,-0.50592,0.00868641,0.00941886,-0.00199059,0.0110766,0.00702865,-0.87637,0.00647182,0.0425414,1070,477,-0.779321,0.505923
-147,547,-1.04321,-0.390167,0.00754363,0.00826927,-0.000596208,0.00860438,0.00720852,-1.05874,0.00533222,0.0414326,1077,477,-1.04323,0.390167
-140,547,-0.77063,0.449554,0.00760238,0.00783629,-0.000360978,0.00809879,0.00733988,-0.94206,0.00516484,0.0473609,1084,477,-0.770646,-0.449566
-133,547,-0.488159,1.27731,0,0,0,0,0,0,0,-1,1091,477,-0.488131,-1.27732
-126,547,-0.583374,-0.361206,0.00529333,0.00818826,0.00219196,0.00936755,0.00411404,1.07721,0.00542168,0.0416348,1098,477,-0.583323,0.361192
-119,547,-0.386719,-0.449921,0.00477715,0.00867333,0.00319123,0.0104641,0.00298639,1.05943,0.00622418,0.0420038,1105,477,-0.386774,0.449915
-112,547,0.133179,-0.590393,0.00367854,0.00751676,0.00495363,0.01091,0.000285269,0.970204,0.00718015,0.0405,1112,477,0.133189,0.59038
-105,547,0.514282,-0.604431,0,0,0,0,0,0,0,-1,1119,477,0.514259,0.604443
-98,547,-0.0339355,-0.602905,0.00282741,0.0107262,0.00688948,0.014718,-0.00116439,1.04566,0.0102223,0.0425318,1126,477,-0.0339768,0.602906
-91,547,-0.0963135,-0.732819,0.00221161,0.0129921,0.00690191,0.0163592,-0.00115549,1.11692,0.011311,0.0395488,1133,477,-0.0963429,0.732814
-84,547,0.327148,-0.933167,0.00199419,0.016444,0.00664269,0.0190336,-0.000595408,1.19908,0.0128921,0.0402244,1140,477,0.32709,0.933153
-77,547,0.978516,-0.745239,0.00286886,0.0211661,0.00676333,0.0233947,0.000640315,1.2525,0.0153875,0.0424985,1147,477,0.978555,0.745254
-70,547,-0.266602,-0.0985107,0.00378854,0.0267345,0.00641727,0.0284072,0.00211577,1.3158,0.0182738,0.0438922,1154,477,-0.266622,0.0985256
-63,547,-0.283691,-0.167358,0.00245551,0.0351464,0.00492771,0.035873,0.00172887,1.42439,0.0233604,0.0424984,1161,477,-0.283648,0.16737
-56,547,-0.11731,-0.407318,0.0016748,0.0457768,0.00357747,0.0460652,0.00138649,1.49038,0.0302585,0.045347,1168,477,-0.117366,0.407324
-49,547,-0.13562,-0.252167,0.00325308,0.0558999,0.00224971,0.0559958,0.00315712,1.52817,0.0363239,0.0446833,1175,477,-0.135619,0.252163
-42,547,-0.214722,-0.777649,0.00446686,0.0673411,0.000836071,0.0673523,0.00445575,1.5575,0.0434924,0.0408557,1182,477,-0.214701,0.777651
-35,547,0.0992432,-1.20593,0.00414107,0.0799996,0.000511472,0.0800031,0.00413762,1.56405,0.0520111,0.0394244,1189,477,0.0992724,1.20592
-28,547,0.207764,-1.31918,0.00498739,0.0932141,-8.87859e-05,0.0932142,0.0049873,-1.56979,0.0605489,0.0428608,1196,477,0.207761,1.31919
-21,547,0.384644,-1.31851,0,0,0,0,0,0,0,-1,1203,477,0.384704,1.3185
-14,547,-0.128174,-1.897,0.0137813,0.112935,0.00400793,0.113096,0.0136195,1.53046,0.0712928,0.0471673,1210,477,-0.12815,1.89701
-7,547,-0.318848,-2.29813,0.0208369,0.123255,0.00687347,0.123714,0.0203777,1.50408,0.0765925,0.0462035,1217,477,-0.318886,2.29814
0,547,-0.251099,-2.57401,0,0,0,0,0,0,0,-1,1224,477,-0.251053,2.574
7,547,0.636475,2.98166,0,0,0,0,0,0,0,-1,1231,477,0.636428,-2.98165
14,547,0,0,0,0,0,0,0,0,0,-1,1238,477,0,0
21,547,0,0,0,0,0,0,0,0,0,-1,1245,477,0,0
28,547,0,0,0,0,0,0,0,0,0,-1,1252,477,0,0
35,547,0,0,0,0,0,0,0,0,0,-1,1259,477,0,0
42,547,0,0,0,0,0,0,0,0,0,-1,1266,477,0,0
49,547,0,0,0,0,0,0,0,0,0,-1,1273,477,0,0
56,547,0,0,0,0,0,0,0,0,0,-1,1280,477,0,0
63,547,0,0,0,0,0,0,0,0,0,-1,1287,477,0,0
70,547,0,0,0,0,0,0,0,0,0,-1,1294,477,0,0
77,547,0,0,0,0,0,0,0,0,0,-1,1301,477,0,0
84,547,0,0,0,0,0,0,0,0,0,-1,1308,477,0,0
91,547,0,0,0,0,0,0,0,0,0,-1,1315,477,0,0
98,547,0,0,0,0,0,0,0,0,0,-1,1322,477,0,0
105,547,-1.30896,-4.06958,0.0934458,0.307315,0.115762,0.357975,0.0427864,1.15829,0.225743,0.0439227,1329,477,-1.30896,4.06958
112,547,-1.29309,-4.15659,0.111309,0.355395,0.138436,0.417903,0.0488016,1.14667,0.263843,0.0406971,1336,477,-1.29312,4.1566
119,547,-1.15161,-4.46088,0,0,0,0,0,0,0,-1,1343,477,-1.15166,4.46086
126,547,-1.11609,-4.60464,0.140824,0.421406,0.157648,0.492147,0.0700835,1.149,0.307412,0.0447858,1350,477,-1.11604,4.60463
133,547,-0.956055,-5.06952,0.147907,0.431957,0.150521,0.496881,0.0829839,1.16358,0.30735,0.0461623,1357,477,-0.956074,5.06951
140,547,1.50159,2.04462,0.150199,0.432243,0.135578,0.486844,0.0955968,1.18794,0.297856,0.0436293,1364,477,1.50156,-2.0446
147,547,1.39819,0.202484,0.143338,0.417339,0.114314,0.458767,0.101909,1.22311,0.278169,0.0449907,1371,477,1.39818,-0.202474
154,547,1.64258,-1.61081,0,0,0,0,0,0,0,-1,1378,477,1.64258,1.61081
161,547,0.715088,-1.42664,0,0,0,0,0,0,0,-1,1385,477,0.715047,1.42664
168,547,0.0501709,-1.77057,0,0,0,0,0,0,0,-1,1392,477,0.0501814,1.77058
175,547,-0.280396,-2.43472,0,0,0,0,0,0,0,-1,1399,477,-0.280455,2.43473
182,547,-0.109619,0.0479431,0,0,0,0,0,0,0,-1,1406,477,-0.109607,-0.0479307
189,547,0.0968018,0.146393,0,0,0,0,0,0,0,-1,1413,477,0.0968448,-0.146388
196,547,-0.186768,-1.0972,0,0,0,0,0,0,0,-1,1420,477,-0.186791,1.09721
203,547,0.105591,0.464203,0.00159859,0.0450057,-0.0228531,0.0548189,-0.00821466,-1.1652,0.0395694,0.0405009,1427,477,0.105563,-0.464201
210,547,-0.16687,0.361694,0.00247498,0.0465823,-0.0198329,0.0541885,-0.00513124,-1.20458,0.0379519,0.0408612,1434,477,-0.166841,-0.361697
217,547,-0.0941162,0.0323792,0.00380327,0.047609,-0.0175854,0.053795,-0.0023827,-1.23255,0.0366833,0.042338,1441,477,-0.0941452,-0.0323922
224,547,0.0482178,-0.397705,0.00400554,0.0475,-0.014926,0.0521294,-0.000623873,-1.27005,0.0349628,0.0443855,1448,477,0.0482759,0.397698
231,547,-0.0195313,-0.928589,0.00397381,0.0443884,-0.0114034,0.0473839,0.000978278,-1.31391,0.0312683,0.0439798,1455,477,-0.0195379,0.928601
238,547,-0.160522,-1.15591,0.00378152,0.0392991,-0.00784317,0.0409539,0.00212665,-1.36285,0.0266221,0.0446218,1462,477,-0.160482,1.15591
245,547,-0.349487,-1.7851,0,0,0,0,0,0,0,-1,1469,477,-0.349544,1.78508
252,547,-1.06763,-2.20364,0,0,0,0,0,0,0,-1,1476,477,-1.06768,2.20363
259,547,-0.823242,0.41217,0.00509114,0.0178348,0.00200753,0.0181436,0.00478237,1.41819,0.0108585,0.0388281,1483,477,-0.823222,-0.412162
266,547,-0.455078,0.0909119,0.00617129,0.0112854,0.00436076,0.0137835,0.00367318,1.05057,0.00824213,0.0410848,1490,477,-0.455129,-0.0909232
273,547,-0.375244,0.482239,0.00728832,0.00523507,0.00655534,0.0128969,-0.000373545,0.707725,0.00872514,0.0442415,1497,477,-0.375294,-0.482241
280,547,-0.382446,0.341278,0.00895465,-0.00169442,0.0085595,0.0137106,-0.00645035,0.507156,0.0118888,0.0485584,1504,477,-0.382505,-0.34128
287,547,-0.452393,0.216736,0.0117316,-0.00639734,0.00911442,0.0155216,-0.0101873,0.394072,0.0149492,0.0474293,1511,477,-0.452365,-0.216749
294,547,-0.462891,0.0975647,0.0138591,-0.00919979,0.00893275,0.0169146,-0.0122553,0.329585,0.0169128,0.0456715,1518,477,-0.462918,-0.0975641
301,547,-0.0821533,0.115082,0,0,0,0,0,0,0,-1,1525,477,-0.0821674,-0.115074
308,547,-0.0205078,-0.053894,0.0162328,-0.0110383,0.00676763,0.0178199,-0.0126254,0.230351,0.0176627,0.0426206,1532,477,-0.0205252,0.0538846
315,547,-0.158936,-0.143005,0.0169422,-0.00962456,0.0055281,0.0180466,-0.0107289,0.197182,0.0167917,0.0443333,1539,477,-0.158929,0.143
322,547,-0.233154,-0.0821228,0.0169014,-0.00720942,0.00439227,0.0176766,-0.00798463,0.174696,0.0151637,0.0433876,1546,477,-0.233129,0.0821107
329,547,-0.176392,0.00802612,0.0159074,-0.00494617,0.00342722,0.0164562,-0.00549498,0.158785,0.0131897,0.0348316,1553,477,-0.17635,-0.00801807
336,547,-0.050415,-0.0873108,0.0144264,-0.00320565,0.00245095,0.0147608,-0.00354001,0.135582,0.0112084,0.024095,1560,477,-0.0504178,0.087303
343,547,-0.0565186,-0.0612793,0.0127219,-0.00160859,0.00132926,0.0128442,-0.00173085,0.0917148,0.00919421,0.0177877,1567,477,-0.0565356,0.0612837
350,547,-0.0709229,-0.0484009,0.0105707,-6.22523e-05,0.000136048,0.0105725,-6.3993e-05,0.0127922,0.00706974,0.0133186,1574,477,-0.0708655,0.048406
357,547,-0.0744629,-0.0391846,0.00830433,0.000949965,-0.000851784,0.0084017,0.0008526,-0.113813,0.00533967,0.0102432,1581,477,-0.0745229,0.0391855
364,547,-0.0783691,-0.0286255,0.0060606,0.00174912,-0.0015117,0.00653781,0.0012719,-0.30578,0.00400251,0.00866007,1588,477,-0.0783304,0.0286344
371,547,-0.0996094,-0.0326538,0.00412118,0.00238747,-0.00204686,0.00547718,0.00103147,-0.585097,0.00336081,0.00836936,1595,477,-0.0996288,0.0326648
378,547,-0.0875244,-0.0301819,0.00245786,0.00297641,-0.00235834,0.00508968,0.000344591,-0.840148,0.00328429,0.00905207,1602,477,-0.0875832,0.0301797
385,547,-0.0615234,-0.0323792,0.00166297,0.00307899,-0.00232145,0.004798,-5.60333e-05,-0.933411,0.0032175,0.00951194,1609,477,-0.0614759,0.032377
392,547,-0.0748291,-0.0359497,0.00103662,0.00318069,-0.00206301,0.00443358,-0.000216272,-1.02502,0.00303039,0.0109345,1616,477,-0.0747991,0.0359551
399,547,-0.0693359,-0.0243225,0.00092776,0.00322013,-0.00175751,0.00417218,-2.42835e-05,-1.07435,0.00278958,0.0131867,1623,477,-0.0692912,0.0243155
406,547,-0.0679932,-0.0175171,0.00125235,0.00295118,-0.00129877,0.00365364,0.000549887,-1.07499,0.00227473,0.0123527,1630,477,-0.067963,0.0175193
413,547,-0.0865479,-0.0300903,0.00135955,0.0029054,-0.000893125,0.00331361,0.00095134,-1.14209,0.00197008,0.0115561,1637,477,-0.0865833,0.0301033
420,547,-0.0926514,-0.0488281,0.00135384,0.00322497,-0.000410612,0.00331112,0.0012677,-1.36401,0.00192908,0.0136388,1644,477,-0.0926713,0.0488263
427,547,-0.0915527,-0.0388794,0.00134101,0.00346097,-1.75516e-05,0.00346111,0.00134086,-1.56252,0.00201509,0.0116028,1651,477,-0.091503,0.0388797
434,547,-0.0927734,-0.0333557,0.00138723,0.00397446,2.32842e-05,0.00397467,0.00138702,1.5618,0.00232942,0.00843993,1658,477,-0.0928217,0.0333425
441,547,-0.0830078,-0.0526428,0.00139359,0.00430511,-7.57042e-05,0.00430708,0.00139163,-1.54482,0.00253804,0.00965982,1665,477,-0.0830255,0.0526354
448,547,-0.0743408,-0.0450134,0.00125257,0.00450177,-7.66e-05,0.00450358,0.00125076,-1.54724,0.00268442,0.010151,1672,477,-0.074321,0.0450151
455,547,-0.0629883,-0.0357971,0.00130131,0.00534981,-0.000222256,0.00536197,0.00128915,-1.51612,0.00323181,0.0102479,1679,477,-0.0629607,0.035798
462,547,-0.0780029,-0.0375977,0.000965448,0.00647155,-9.86439e-05,0.00647332,0.000963681,-1.55289,0.00403288,0.0100996,1686,477,-0.0779557,0.0375828
469,547,-0.0913086,-0.0628052,0.000350599,0.00714962,-0.000149864,0.00715292,0.000347297,-1.54877,0.00465717,0.0169231,1693,477,-0.0912984,0.0628192
476,547,-0.0539551,-0.0331421,6.88974e-05,0.00780359,-0.000195521,0.00780853,6.39581e-05,-1.54554,0.0051845,0.029524,1700,477,-0.0540071,0.0331451
483,547,-0.106079,-0.105164,-9.03591e-05,0.00859512,-0.000281465,0.00860423,-9.94704e-05,-1.53844,0.0057696,0.0410601,1707,477,-0.106116,0.105159
490,547,0.012085,-0.257111,-0.00038752,0.0088598,-3.85856e-05,0.00885997,-0.000387682,-1.56662,0.00604002,0.0428094,1714,477,0.0120316,0.257115
497,547,0.174561,-0.276611,0,0,0,0,0,0,0,-1,1721,477,0.174586,0.276618
504,547,0.555542,-0.0125427,0,0,0,0,0,0,0,-1,1728,477,0.555526,0.0125453
511,547,0.785645,0.57663,0,0,0,0,0,0,0,-1,1735,477,0.785678,-0.576636
518,547,0.616089,0.999542,0,0,0,0,0,0,0,-1,1742,477,0.616131,-0.999547
525,547,0.552612,-0.280426,0,0,0,0,0,0,0,-1,1749,477,0.552625,0.280438
532,547,0,0,0,0,0,0,0,0,0,-1,1756,477,0,0
539,547,0,0,0,0,0,0,0,0,0,-1,1763,477,0,0
546,547,0,0,0,0,0,0,0,0,0,-1,1770,477,0,0
553,547,0,0,0,0,0,0,0,0,0,-1,1777,477,0,0
560,547,0,0,0,0,0,0,0,0,0,-1,1784,477,0,0
567,547,0,0,0,0,0,0,0,0,0,-1,1791,477,0,0
574,547,0,0,0,0,0,0,0,0,0,-1,1798,477,0,0
581,547,0,0,0,0,0,0,0,0,0,-1,1805,477,0,0
588,547,0,0,0,0,0,0,0,0,0,-1,1812,477,0,0
595,547,0,0,0,0,0,0,0,0,0,-1,1819,477,0,0
602,547,0,0,0,0,0,0,0,0,0,-1,1826,477,0,0
609,547,0,0,0,0,0,0,0,0,0,-1,1833,477,0,0
616,547,0,0,0,0,0,0,0,0,0,-1,1840,477,0,0
623,547,0,0,0,0,0,0,0,0,0,-1,1847,477,0,0
630,547,0,0,0,0,0,0,0,0,0,-1,1854,477,0,0
637,547,0,0,0,0,0,0,0,0,0,-1,1861,477,0,0
644,547,0,0,0,0,0,0,0,0,0,-1,1868,477,0,0
651,547,0,0,0,0,0,0,0,0,0,-1,1875,477,0,0
658,547,0,0,0,0,0,0,0,0,0,-1,1882,477,0,0
665,547,0,0,0,0,0,0,0,0,0,-1,1889,477,0,0
672,547,0,0,0,0,0,0,0,0,0,-1,1896,477,0,0
679,547,0,0,0,0,0,0,0,0,0,-1,1903,477,0,0
686,547,0,0,0,0,0,0,0,0,0,-1,1910,477,0,0
693,547,0,0,0,0,0,0,0,0,0,-1,1917,477,0,0
700,547,0,0,0,0,0,0,0,0,0,-1,1924,477,0,0
707,547,0,0,0,0,0,0,0,0,0,-1,1931,477,0,0
714,547,0,0,0,0,0,0,0,0,0,-1,1938,477,0,0
721,547,0,0,0,0,0,0,0,0,0,-1,1945,477,0,0
728,547,0,0,0,0,0,0,0,0,0,-1,1952,477,0,0
735,547,0,0,0,0,0,0,0,0,0,-1,1959,477,0,0
742,547,0,0,0,0,0,0,0,0,0,-1,1966,477,0,0
749,547,0,0,0,0,0,0,0,0,0,-1,1973,477,0,0
756,547,0,0,0,0,0,0,0,0,0,-1,1980,477,0,0
763,547,0,0,0,0,0,0,0,0,0,-1,1987,477,0,0
770,547,0,0,0,0,0,0,0,0,0,-1,1994,477,0,0
777,547,0,0,0,0,0,0,0,0,0,-1,2001,477,0,0
784,547,0,0,0,0,0,0,0,0,0,-1,2008,477,0,0
791,547,0,0,0,0,0,0,0,0,0,-1,2015,477,0,0
798,547,0,0,0,0,0,0,0,0,0,-1,2022,477,0,0
805,547,0,0,0,0,0,0,0,0,0,-1,2029,477,0,0
812,547,0,0,0,0,0,0,0,0,0,-1,2036,477,0,0
-700,540,0,0,0,0,0,0,0,0,0,-1,524,484,0,0
-693,540,0,0,0,0,0,0,0,0,0,-1,531,484,0,0
-686,540,0,0,0,0,0,0,0,0,0,-1,538,484,0,0
-679,540,0,0,0,0,0,0,0,0,0,-1,545,484,0,0
-672,540,0,0,0,0,0,0,0,0,0,-1,552,484,0,0
-665,540,0,0,0,0,0,0,0,0,0,-1,559,484,0,0
-658,540,0,0,0,0,0,0,0,0,0,-1,566,484,0,0
-651,540,0,0,0,0,0,0,0,0,0,-1,573,484,0,0
-644,540,0,0,0,0,0,0,0,0,0,-1,580,484,0,0
-637,540,0,0,0,0,0,0,0,0,0,-1,587,484,0,0
-630,540,0,0,0,0,0,0,0,0,0,-1,594,484,0,0
-623,540,0,0,0,0,0,0,0,0,0,-1,601,484,0,0
-616,540,0,0,0,0,0,0,0,0,0,-1,608,484,0,0
-609,540,0,0,0,0,0,0,0,0,0,-1,615,484,0,0
-602,540,0,0,0,0,0,0,0,0,0,-1,622,484,0,0
-595,540,0,0,0,0,0,0,0,0,0,-1,629,484,0,0
-588,540,0,0,0,0,0,0,0,0,0,-1,636,484,0,0
-581,540,0,0,0,0,0,0,0,0,0,-1,643,484,0,0
-574,540,0,0,0,0,0,0,0,0,0,-1,650,484,0,0
-567,540,0,0,0,0,0,0,0,0,0,-1,657,484,0,0
-560,540,0,0,0,0,0,0,0,0,0,-1,664,484,0,0
-553,540,0,0,0,0,0,0,0,0,0,-1,671,484,0,0
-546,540,0,0,0,0,0,0,0,0,0,-1,678,484,0,0
-539,540,0,0,0,0,0,0,0,0,0,-1,685,484,0,0
-532,540,0,0,0,0,0,0,0,0,0,-1,692,484,0,0
-525,540,0,0,0,0,0,0,0,0,0,-1,699,484,0,0
-518,540,0,0,0,0,0,0,0,0,0,-1,706,484,0,0
-511,540,0,0,0,0,0,0,0,0,0,-1,713,484,0,0
-504,540,0,0,0,0,0,0,0,0,0,-1,720,484,0,0
-497,540,0,0,0,0,0,0,0,0,0,-1,727,484,0,0
-490,540,0,0,0,0,0,0,0,0,0,-1,734,484,0,0
-483,540,0,0,0,0,0,0,0,0,0,-1,741,484,0,0
-476,540,0,0,0,0,0,0,0,0,0,-1,748,484,0,0
-469,540,0,0,0,0,0,0,0,0,0,-1,755,484,0,0
-462,540,0,0,0,0,0,0,0,0,0,-1,762,484,0,0
-455,540,0,0,0,0,0,0,0,0,0,-1,769,484,0,0
-448,540,0,0,0,0,0,0,0,0,0,-1,776,484,0,0
-441,540,0,0,0,0,0,0,0,0,0,-1,783,484,0,0
-434,540,0,0,0,0,0,0,0,0,0,-1,790,484,0,0
-427,540,0,0,0,0,0,0,0,0,0,-1,797,484,0,0
-420,540,0.817139,-1.40051,-0.00570225,-0.0207515,-0.0109379,4.93396e-05,-0.0265031,-0.484105,0.0176852,0.048927,804,484,0.817111,1.40052
-413,540,0.792419,-1.59372,-0.00163314,-0.0200224,-0.00743174,0.000994751,-0.0226503,-0.339882,0.0154425,0.047632,811,484,0.792418,1.5937
-406,540,1.27167,-1.27771,0,0,0,0,0,0,0,-1,818,484,1.27165,1.27772
-399,540,1.24023,-0.529419,0,0,0,0,0,0,0,-1,825,484,1.24021,0.529416
-392,540,0.823425,-0.270782,0.00144074,-0.0114919,-0.0053092,0.00334108,-0.0133922,-0.343725,0.0102254,0.046329,832,484,0.823409,0.270788
-385,540,0.144592,-0.0755615,0.000364529,-0.00136203,-0.0077272,0.00727653,-0.00827403,-0.729769,0.00898427,0.0462471,839,484,0.144604,0.0755701
-378,540,-0.956238,0.508545,0,0,0,0,0,0,0,-1,846,484,-0.95621,-0.508557
-371,540,-0.591675,0.259583,0.00600669,0.00625991,-0.00699227,0.0131267,-0.000860119,-0.794451,0.00905148,0.0418641,853,484,-0.591667,-0.25959
-364,540,-0.214417,0.140198,0.0065809,0.0116783,-0.00820514,0.0177215,0.00053773,-0.935984,0.0116392,0.0413898,860,484,-0.214431,-0.14021
-357,540,-0.0854492,0.0010376,0.00712057,0.0159516,-0.00901028,0.0215701,0.00150204,-1.01323,0.0139065,0.0370541,867,484,-0.085449,-0.00104111
-350,540,-0.0311279,-0.117767,0,0,0,0,0,0,0,-1,874,484,-0.0311352,0.117779
-343,540,-0.0836792,-0.0392151,0.00867273,0.0191271,-0.00909783,0.0243925,0.00340736,-1.04615,0.0152533,0.0130923,881,484,-0.0836515,0.0392199
-336,540,-0.0843506,-0.0598755,0.00999855,0.0183274,-0.00887121,0.023963,0.00436293,-1.00485,0.0147379,0.0113279,888,484,-0.0843498,0.05988
-329,540,-0.0836182,-0.0418091,0.010611,0.0170314,-0.00734464,0.0218367,0.00580561,-0.991427,0.0130601,0.00958111,895,484,-0.0836315,0.0418215
-322,540,-0.0749512,-0.0507507,0.0108034,0.015421,-0.00645116,0.0199641,0.00626033,-0.957241,0.0117903,0.013804,902,484,-0.0749469,0.0507522
-315,540,-0.0755005,-0.0440063,0.0107659,0.0128985,-0.00502817,0.0169722,0.0066922,-0.889883,0.0098716,0.0126551,909,484,-0.0754928,0.0439987
-308,540,-0.0636597,-0.0396118,0.0100553,0.0104151,-0.00403917,0.0142783,0.00619199,-0.807653,0.00826775,0.0111992,916,484,-0.0636487,0.0396147
-301,540,-0.0858154,-0.0339355,0.0092642,0.0085407,-0.00308517,0.0120088,0.00579614,-0.727037,0.00693465,0.0100688,923,484,-0.0858278,0.0339472
-294,540,-0.0830688,-0.0366516,0.00846383,0.00642108,-0.00225709,0.00991989,0.00496502,-0.572926,0.00572725,0.00899878,930,484,-0.0830503,0.0366435
-287,540,-0.0684814,-0.0348206,0.00795718,0.00421549,-0.0014087,0.00842824,0.00374444,-0.322701,0.00487611,0.00759102,937,484,-0.0685028,0.0348322
-280,540,-0.0737305,-0.0331116,0.00666253,0.0021097,-0.000827316,0.0068082,0.00196402,-0.174294,0.00404626,0.0089571,944,484,-0.0737145,0.0331191
-273,540,-0.0690308,-0.0348816,0.00466464,0.00208467,-0.00118962,0.00512943,0.00161987,-0.372471,0.00302773,0.0108813,951,484,-0.0690091,0.0348937
-266,540,-0.0824585,-0.0520935,0.00486759,0.00160023,-0.00157605,0.0055039,0.000963927,-0.383722,0.0033939,0.0115199,958,484,-0.0824597,0.0520893
-259,540,-0.0882568,-0.0669556,0.00594585,0.000918321,-0.00247897,0.00696257,-9.83959e-05,-0.389214,0.00467486,0.0107911,965,484,-0.0882283,0.066964
-252,540,-0.0840454,-0.0645447,0.00683643,0.000797464,-0.00373925,0.00862312,-0.000989225,-0.445746,0.00610526,0.0105508,972,484,-0.0840375,0.0645563
-245,540,-0.0817871,-0.0534668,0.0080786,0.000646749,-0.00488102,0.0104972,-0.00177186,-0.460051,0.0076574,0.0108217,979,484,-0.081763,0.0534726
-238,540,-0.0775757,-0.0489807,0.0100629,-5.66713e-06,-0.00576036,0.0126788,-0.00262159,-0.42628,0.00944844,0.00872312,986,484,-0.077603,0.0489795
-231,540,-0.0740967,-0.0604553,0.0127027,-0.000184929,-0.00671702,0.015567,-0.00304923,-0.403077,0.0115296,0.0105222,993,484,-0.0741132,0.0604672
-224,540,-0.0866699,-0.0549011,0.0153664,-0.000603598,-0.00747558,0.0183196,-0.00355682,-0.376231,0.0135551,0.0138378,1000,484,-0.0866823,0.0549139
-217,540,-0.0928345,-0.0415344,0.0181323,0.00169858,-0.00867091,0.0218612,-0.00203034,-0.406139,0.0152959,0.0237038,1007,484,-0.0928136,0.0415459
-210,540,-0.0308838,-0.0255737,0.0199679,0.00307481,-0.0102696,0.0248183,-0.00177559,-0.441249,0.017168,0.0358114,1014,484,-0.0309133,0.0255854
-203,540,0.0519409,-0.104034,0.0213346,0.00467613,-0.0102135,0.0261846,-0.000173811,-0.443333,0.0175146,0.0409926,1021,484,0.0519556,0.104027
-196,540,-0.581177,0.0325012,0,0,0,0,0,0,0,-1,1028,484,-0.581154,-0.0325005
-189,540,-0.350952,0.390503,0.0229084,0.00870966,-0.0082516,0.0266943,0.00492372,-0.430159,0.0164032,0.0428838,1035,484,-0.350977,-0.390511
-182,540,-0.332153,0.535614,0.02162,0.00923791,-0.00740826,0.0250835,0.00577434,-0.437334,0.0151685,0.0466004,1042,484,-0.332173,-0.535625
-175,540,-0.601074,0.544067,0,0,0,0,0,0,0,-1,1049,484,-0.601051,-0.544082
-168,540,-0.786377,0.68338,0.0184163,0.009893,-0.00610134,0.021597,0.00671235,-0.480546,0.0127631,0.0482454,1056,484,-0.786423,-0.683389
-161,540,0.181519,-0.455536,0.0136266,0.00991819,-0.00504683,0.0171491,0.00639574,-0.609351,0.010007,0.0437049,1063,484,0.181495,0.455546
-154,540,-0.962891,-0.721283,0,0,0,0,0,0,0,-1,1070,484,-0.96288,0.721272
-147,540,-1.48926,-0.862488,0,0,0,0,0,0,0,-1,1077,484,-1.48931,0.862473
-140,540,-1.20166,-0.0673523,0,0,0,0,0,0,0,-1,1084,484,-1.20162,0.0673488
-133,540,-0.240967,-0.40387,0.00620731,0.00883007,-0.000230056,0.0088501,0.00618728,-1.48396,0.00524293,0.0422174,1091,484,-0.240943,0.403857
-126,540,-0.481323,-0.332458,0.00435292,0.0086564,0.00191466,0.00938492,0.0036244,1.20722,0.00546497,0.0390115,1098,484,-0.481285,0.332444
-119,540,-0.276001,-0.287964,0.00364341,0.00946578,0.00326341,0.0109278,0.0021814,1.14961,0.0066779,0.0426281,1105,484,-0.276015,0.28795
-112,540,0.231079,-0.559875,0.00232254,0.00809647,0.00548852,0.011411,-0.000991981,1.02751,0.00795862,0.0452049,1112,484,0.23113,0.559865
-105,540,-0.391357,-0.504456,0.00152329,0.00957789,0.00800854,0.0145147,-0.00341355,1.01837,0.0109924,0.0423516,1119,484,-0.391387,0.504469
-98,540,-0.5625,-0.651062,0.00162312,0.0126085,0.0084475,0.017192,-0.0029604,1.07366,0.0125649,0.043509,1126,484,-0.562443,0.651049
-91,540,-0.599365,-0.922424,0.00126055,0.0155008,0.00884198,0.0197331,-0.00297172,1.12437,0.0142496,0.0434884,1133,484,-0.599334,0.922418
-84,540,0.200073,-1.19852,0.00132216,0.019579,0.00879577,0.0231271,-0.00222592,1.18738,0.016211,0.0440749,1140,484,0.200052,1.19853
-77,540,-0.434082,-0.123779,0.00256816,0.0248954,0.00913039,0.0281537,-0.000690087,1.22803,0.0190033,0.0429631,1147,484,-0.434095,0.123769
-70,540,-0.38501,-0.135559,0.00361435,0.0311859,0.0086457,0.0336727,0.00112758,1.29073,0.0220822,0.0418161,1154,484,-0.384954,0.135574
-63,540,-0.314819,-0.152283,0.00297456,0.0408638,0.0069736,0.0421065,0.00173181,1.39444,0.0275119,0.0404684,1161,484,-0.314778,0.152293
-56,540,-0.125244,-0.136444,0.00288577,0.0532847,0.00516412,0.0538084,0.00236207,1.46973,0.0351114,0.044294,1168,484,-0.12523,0.136433
-49,540,-0.141724,-0.37793,0.00524184,0.0657919,0.003121,0.0659523,0.00508139,1.51943,0.0423761,0.0473307,1175,484,-0.141758,0.377934
-42,540,0,0,0,0,0,0,0,0,0,-1,1182,484,0,0
-35,540,0,0,0,0,0,0,0,0,0,-1,1189,484,0,0
-28,540,0,0,0,0,0,0,0,0,0,-1,1196,484,0,0
-21,540,0,0,0,0,0,0,0,0,0,-1,1203,484,0,0
-14,540,0,0,0,0,0,0,0,0,0,-1,1210,484,0,0
-7,540,0,0,0,0,0,0,0,0,0,-1,1217,484,0,0
0,540,0,0,0,0,0,0,0,0,0,-1,1224,484,0,0
7,540,0,0,0,0,0,0,0,0,0,-1,1231,484,0,0
14,540,0,0,0,0,0,0,0,0,0,-1,1238,484,0,0
21,540,0,0,0,0,0,0,0,0,0,-1,1245,484,0,0
28,540,0,0,0,0,0,0,0,0,0,-1,1252,484,0,0
35,540,0,0,0,0,0,0,0,0,0,-1,1259,484,0,0
42,540,0,0,0,0,0,0,0,0,0,-1,1266,484,0,0
49,540,0,0,0,0,0,0,0,0,0,-1,1273,484,0,0
56,540,0,0,0,0,0,0,0,0,0,-1,1280,484,0,0
63,540,0,0,0,0,0,0,0,0,0,-1,1287,484,0,0
70,540,0,0,0,0,0,0,0,0,0,-1,1294,484,0,0
77,540,0,0,0,0,0,0,0,0,0,-1,1301,484,0,0
84,540,0,0,0,0,0,0,0,0,0,-1,1308,484,0,0
91,540,0,0,0,0,0,0,0,0,0,-1,1315,484,0,0
98,540,0,0,0,0,0,0,0,0,0,-1,1322,484,0,0
105,540,0,0,0,0,0,0,0,0,0,-1,1329,484,0,0
112,540,0,0,0,0,0,0,0,0,0,-1,1336,484,0,0
119,540,0,0,0,0,0,0,0,0,0,-1,1343,484,0,0
126,540,0,0,0,0,0,0,0,0,0,-1,1350,484,0,0
133,540,0,0,0,0,0,0,0,0,0,-1,1357,484,0,0
140,540,0,0,0,0,0,0,0,0,0,-1,1364,484,0,0
147,540,0,0,0,0,0,0,0,0,0,-1,1371,484,0,0
154,540,0,0,0,0,0,0,0,0,0,-1,1378,484,0,0
161,540,0,0,0,0,0,0,0,0,0,-1,1385,484,0,0
168,540,0.386719,1.33868,0,0,0,0,0,0,0,-1,1392,484,0.386769,-1.33867
175,540,0.344604,1.73199,0,0,0,0,0,0,0,-1,1399,484,0.344612,-1.73198
182,540,-0.0178223,0.447479,0,0,0,0,0,0,0,-1,1406,484,-0.0178148,-0.447485
189,540,0.0996094,0.361969,0,0,0,0,0,0,0,-1,1413,484,0.0995921,-0.361984
196,540,0.265381,0.422424,0,0,0,0,0,0,0,-1,1420,484,0.265419,-0.422427
203,540,0.186646,0.333496,0.00253735,0.0500907,-0.0291328,0.0639179,-0.0112898,-1.12765,0.046831,0.0427526,1427,484,0.186654,-0.333506
210,540,-0.0952148,0.266937,0.00350828,0.0529745,-0.0255951,0.0638341,-0.00735128,-1.16953,0.0452062,0.0412463,1434,484,-0.0951883,-0.266926
217,540,0.142944,-0.0355225,0.00499472,0.0547732,-0.0227681,0.0636162,-0.00384824,-1.20034,0.04375,0.0422231,1441,484,0.142896,0.0355373
224,540,0.551392,-0.27301,0.00500738,0.0543759,-0.0187174,0.06067,-0.00128666,-1.24641,0.0408823,0.0432847,1448,484,0.551387,0.273019
231,540,0.483887,-1.28925,0.00468318,0.0498878,-0.0137938,0.0537644,0.000806589,-1.29682,0.0355771,0.0435968,1455,484,0.483931,1.28924
238,540,0.355713,-1.51398,0.00417542,0.0431654,-0.00907682,0.0451749,0.00216592,-1.35292,0.0294212,0.045268,1462,484,0.355758,1.51399
245,540,0.262695,-1.65829,0,0,0,0,0,0,0,-1,1469,484,0.262682,1.6583
252,540,-0.538452,0.523193,0.00412993,0.0252243,0.000182069,0.0252258,0.00412836,1.56217,0.015624,0.0433397,1476,484,-0.538455,-0.523204
259,540,-0.547119,0.471771,0.00578995,0.0169124,0.00332599,0.0178311,0.00487125,1.3013,0.010642,0.0390531,1483,484,-0.547109,-0.471779
266,540,-0.696289,0.517822,0.00739125,0.00928566,0.00615953,0.0145704,0.00210652,0.86169,0.00909312,0.0430356,1490,484,-0.696314,-0.517811
273,540,-0.517822,0.505127,0.00912653,0.00237387,0.00873896,0.0151187,-0.00361832,0.601054,0.011477,0.0446562,1497,484,-0.517878,-0.505116
280,540,-0.462769,0.344452,0.0117845,-0.00541145,0.0111548,0.0172704,-0.0108973,0.457062,0.0164008,0.042969,1504,484,-0.462716,-0.344452
287,540,-0.411865,0.0605774,0.0158584,-0.0102749,0.011795,0.0203946,-0.0148111,0.367146,0.020411,0.0437314,1511,484,-0.411846,-0.0605794
294,540,-0.30127,0.31369,0,0,0,0,0,0,0,-1,1518,484,-0.301223,-0.313682
301,540,-0.157837,-0.239471,0.021152,-0.0143181,0.0102981,0.0239251,-0.0170912,0.26304,0.0237901,0.0431778,1525,484,-0.157794,0.239458
308,540,-0.366211,-0.466431,0.0230651,-0.0143036,0.00923773,0.025224,-0.0164625,0.229583,0.0242443,0.0420847,1532,484,-0.366223,0.466424
315,540,-0.31543,-0.18866,0.024252,-0.0124365,0.00780407,0.025843,-0.0140275,0.201114,0.0233538,0.0426929,1539,484,-0.315406,0.18867
322,540,-0.190674,0.0934448,0.0242848,-0.00940278,0.00650909,0.0254987,-0.0106167,0.184381,0.0214332,0.0446012,1546,484,-0.190662,-0.0934527
329,540,-0.0726318,0.123016,0.0230967,-0.00661978,0.00535362,0.0240318,-0.00755485,0.172916,0.0190456,0.0457768,1553,484,-0.0725787,-0.123009
336,540,-0.163208,-0.139954,0.0212226,-0.0044558,0.00413018,0.0218705,-0.00510376,0.155615,0.0165461,0.0434759,1560,484,-0.163202,0.139968
343,540,-0.228638,-0.0625,0.019025,-0.0023904,0.00259856,0.0193358,-0.0027012,0.119039,0.0138788,0.0393679,1567,484,-0.228649,0.0624973
350,540,0.0133057,-0.0628357,0.0162069,-0.000480652,0.00103959,0.0162714,-0.000545166,0.0619776,0.0110338,0.0284797,1574,484,0.0133275,0.0628355
357,540,-0.0639648,-0.0402832,0.0129704,0.000711322,-0.000376756,0.012982,0.000699754,-0.0306942,0.00843108,0.0166949,1581,484,-0.0639398,0.0402681
364,540,-0.0838623,-0.019165,0.00968976,0.00163678,-0.00138459,0.00992117,0.00140537,-0.165601,0.00619899,0.00988203,1588,484,-0.0838515,0.0191503
371,540,-0.0887451,-0.0319519,0.00689756,0.0023653,-0.00222599,0.00780797,0.00145489,-0.388232,0.0047945,0.0101934,1595,484,-0.0887425,0.0319664
378,540,-0.0820313,-0.0415955,0.00442777,0.00308628,-0.00281628,0.00665208,0.000861975,-0.668493,0.00417715,0.0110849,1602,484,-0.0819998,0.0416014
385,540,-0.0675049,-0.0364685,0.00292054,0.00313316,-0.00301651,0.00604523,8.46991e-06,-0.803012,0.00402734,0.0125835,1609,484,-0.0675219,0.036483
392,540,-0.0895996,-0.0348511,0.00166012,0.00322238,-0.00284552,0.00539204,-0.000509535,-0.919354,0.00377601,0.011728,1616,484,-0.089605,0.0348619
399,540,-0.0993652,-0.0494995,0.00134521,0.00317515,-0.00251494,0.00493639,-0.000416023,-0.959862,0.003438,0.015235,1623,484,-0.0993487,0.0494939
406,540,-0.0947266,-0.0487061,0.00158373,0.00269873,-0.00199465,0.00421232,7.01384e-05,-0.921669,0.00278513,0.0151231,1630,484,-0.094686,0.0487144
413,540,-0.103516,-0.0371399,0.00149055,0.00244599,-0.00151155,0.00355351,0.000383028,-0.938454,0.00225221,0.0112321,1637,484,-0.103567,0.0371313
420,540,-0.0870361,-0.0228882,0.00127153,0.00252018,-0.000934041,0.00301934,0.000772374,-1.08,0.00181119,0.0096023,1644,484,-0.0870184,0.0228734
427,540,-0.0894775,-0.0159302,0.00115408,0.00257031,-0.000503082,0.00273082,0.000993564,-1.26194,0.00159601,0.00892095,1651,484,-0.0895016,0.0159174
434,540,-0.076416,-0.0151367,0.00109549,0.0028887,-0.000381095,0.00296633,0.00101786,-1.36984,0.00174048,0.0125413,1658,484,-0.0764293,0.0151456
441,540,-0.041748,-0.0143433,0.000960371,0.00306105,-0.000322461,0.00310943,0.000911986,-1.42186,0.00184566,0.0178128,1665,484,-0.0417878,0.0143464
448,540,-0.0732422,-0.0412598,0.000782022,0.00305693,-7.62436e-05,0.00305949,0.00077947,-1.53733,0.00183585,0.011156,1672,484,-0.0731824,0.041256
455,540,-0.0732422,-0.0317993,0.000835821,0.00379555,-0.000115697,0.00380007,0.000831305,-1.53179,0.00230676,0.00963974,1679,484,-0.0732777,0.0317971
462,540,-0.0808105,-0.0324097,0.000582361,0.00487749,0.000145152,0.00488239,0.000577461,1.53705,0.00308053,0.0094439,1686,484,-0.0808621,0.0324209
469,540,-0.0964355,-0.0690308,7.55637e-05,0.00550184,0.000256658,0.00551395,6.34512e-05,1.52364,0.003655,0.0115663,1693,484,-0.0964389,0.069016
476,540,-0.0738525,-0.0777283,-9.52071e-05,0.00618276,0.000339764,0.0062011,-0.000113542,1.51689,0.00417243,0.0147191,1700,484,-0.0739011,0.0777319
483,540,-0.0441895,-0.0472412,-7.05381e-05,0.00699755,0.000438838,0.0070247,-9.76799e-05,1.50903,0.00471603,0.0221256,1707,484,-0.0441977,0.0472333
490,540,-0.0670166,-0.00354004,-0.000142185,0.00741251,0.000814571,0.00749934,-0.000229017,1.4646,0.00507762,0.0369379,1714,484,-0.0669878,0.00354831
497,540,0.0549316,0.279785,-0.000118431,0.00728058,0.00136116,0.00752305,-0.000360894,1.39452,0.00513989,0.0447449,1721,484,0.0549238,-0.279776
504,540,0.0778809,0.554016,-0.000256624,0.00736237,0.00181134,0.00777108,-0.000665327,1.34888,0.00541613,0.0417493,1728,484,0.0779302,-0.554027
511,540,1.04395,0.995117,-0.000725783,0.00752605,0.00233826,0.00814257,-0.0013423,1.313,0.0059267,0.048671,1735,484,1.04393,-0.995125
518,540,-0.161499,0.39859,-0.00135609,0.00605179,0.00326594,0.00728602,-0.00259032,1.20948,0.00591303,0.0449943,1742,484,-0.161495,-0.398584
525,540,-0.148071,0.175964,-0.00187858,0.00435518,0.00371681,0.00608903,-0.00361244,1.13431,0.00566165,0.0470238,1749,484,-0.148097,-0.175978
532,540,-0.375,0.0340881,0,0,0,0,0,0,0,-1,1756,484,-0.37499,-0.0340964
539,540,0,0,0,0,0,0,0,0,0,-1,1763,484,0,0
546,540,0,0,0,0,0,0,0,0,0,-1,1770,484,0,0
553,540,0,0,0,0,0,0,0,0,0,-1,1777,484,0,0
560,540,0,0,0,0,0,0,0,0,0,-1,1784,484,0,0
567,540,0,0,0,0,0,0,0,0,0,-1,1791,484,0,0
574,540,0,0,0,0,0,0,0,0,0,-1,1798,484,0,0
581,540,0,0,0,0,0,0,0,0,0,-1,1805,484,0,0
588,540,0,0,0,0,0,0,0,0,0,-1,1812,484,0,0
595,540,0,0,0,0,0,0,0,0,0,-1,1819,484,0,0
602,540,0,0,0,0,0,0,0,0,0,-1,1826,484,0,0
609,540,0,0,0,0,0,0,0,0,0,-1,1833,484,0,0
616,540,0,0,0,0,0,0,0,0,0,-1,1840,484,0,0
623,540,0,0,0,0,0,0,0,0,0,-1,1847,484,0,0
630,540,0,0,0,0,0,0,0,0,0,-1,1854,484,0,0
637,540,0,0,0,0,0,0,0,0,0,-1,1861,484,0,0
644,540,0,0,0,0,0,0,0,0,0,-1,1868,484,0,0
651,540,0,0,0,0,0,0,0,0,0,-1,1875,484,0,0
658,540,0,0,0,0,0,0,0,0,0,-1,1882,484,0,0
665,540,0,0,0,0,0,0,0,0,0,-1,1889,484,0,0
672,540,0,0,0,0,0,0,0,0,0,-1,1896,484,0,0
679,540,0,0,0,0,0,0,0,0,0,-1,1903,484,0,0
686,540,0,0,0,0,0,0,0,0,0,-1,1910,484,0,0
693,540,0,0,0,0,0,0,0,0,0,-1,1917,484,0,0
700,540,0,0,0,0,0,0,0,0,0,-1,1924,484,0,0
707,540,0,0,0,0,0,0,0,0,0,-1,1931,484,0,0
714,540,0,0,0,0,0,0,0,0,0,-1,1938,484,0,0
721,540,0,0,0,0,0,0,0,0,0,-1,1945,484,0,0
728,540,0,0,0,0,0,0,0,0,0,-1,1952,484,0,0
735,540,0,0,0,0,0,0,0,0,0,-1,1959,484,0,0
742,540,0,0,0,0,0,0,0,0,0,-1,1966,484,0,0
749,540,0,0,0,0,0,0,0,0,0,-1,1973,484,0,0
756,540,0,0,0,0,0,0,0,0,0,-1,1980,484,0,0
763,540,0,0,0,0,0,0,0,0,0,-1,1987,484,0,0
770,540,0,0,0,0,0,0,0,0,0,-1,1994,484,0,0
777,540,0,0,0,0,0,0,0,0,0,-1,2001,484,0,0
784,540,0,0,0,0,0,0,0,0,0,-1,2008,484,0,0
791,540,0,0,0,0,0,0,0,0,0,-1,2015,484,0,0
798,540,0,0,0,0,0,0,0,0,0,-1,2022,484,0,0
805,540,0,0,0,0,0,0,0,0,0,-1,2029,484,0,0
812,540,0,0,0,0,0,0,0,0,0,-1,2036,484,0,0
-700,533,0,0,0,0,0,0,0,0,0,-1,524,491,0,0
-693,533,0,0,0,0,0,0,0,0,0,-1,531,491,0,0
-686,533,0,0,0,0,0,0,0,0,0,-1,538,491,0,0
-679,533,0,0,0,0,0,0,0,0,0,-1,545,491,0,0
-672,533,0,0,0,0,0,0,0,0,0,-1,552,491,0,0
-665,533,0,0,0,0,0,0,0,0,0,-1,559,491,0,0
-658,533,0,0,0,0,0,0,0,0,0,-1,566,491,0,0
-651,533,0,0,0,0,0,0,0,0,0,-1,573,491,0,0
-644,533,0,0,0,0,0,0,0,0,0,-1,580,491,0,0
-637,533,0,0,0,0,0,0,0,0,0,-1,587,491,0,0
-630,533,0,0,0,0,0,0,0,0,0,-1,594,491,0,0
-623,533,0,0,0,0,0,0,0,0,0,-1,601,491,0,0
-616,533,0,0,0,0,0,0,0,0,0,-1,608,491,0,0
-609,533,0,0,0,0,0,0,0,0,0,-1,615,491,0,0
-602,533,0,0,0,0,0,0,0,0,0,-1,622,491,0,0
-595,533,0,0,0,0,0,0,0,0,0,-1,629,491,0,0
-588,533,0,0,0,0,0,0,0,0,0,-1,636,491,0,0
-581,533,0,0,0,0,0,0,0,0,0,-1,643,491,0,0
-574,533,0,0,0,0,0,0,0,0,0,-1,650,491,0,0
-567,533,0,0,0,0,0,0,0,0,0,-1,657,491,0,0
-560,533,0,0,0,0,0,0,0,0,0,-1,664,491,0,0
-553,533,0,0,0,0,0,0,0,0,0,-1,671,491,0,0
-546,533,0,0,0,0,0,0,0,0,0,-1,678,491,0,0
-539,533,0,0,0,0,0,0,0,0,0,-1,685,491,0,0
-532,533,0,0,0,0,0,0,0,0,0,-1,692,491,0,0
-525,533,0,0,0,0,0,0,0,0,0,-1,699,491,0,0
-518,533,0,0,0,0,0,0,0,0,0,-1,706,491,0,0
-511,533,0,0,0,0,0,0,0,0,0,-1,713,491,0,0
-504,533,0,0,0,0,0,0,0,0,0,-1,720,491,0,0
-497,533,0,0,0,0,0,0,0,0,0,-1,727,491,0,0
-490,533,0,0,0,0,0,0,0,0,0,-1,734,491,0,0
-483,533,0,0,0,0,0,0,0,0,0,-1,741,491,0,0
-476,533,0,0,0,0,0,0,0,0,0,-1,748,491,0,0
-469,533,0,0,0,0,0,0,0,0,0,-1,755,491,0,0
-462,533,0,0,0,0,0,0,0,0,0,-1,762,491,0,0
-455,533,0,0,0,0,0,0,0,0,0,-1,769,491,0,0
-448,533,0,0,0,0,0,0,0,0,0,-1,776,491,0,0
-441,533,0,0,0,0,0,0,0,0,0,-1,783,491,0,0
-434,533,0,0,0,0,0,0,0,0,0,-1,790,491,0,0
-427,533,0.503418,1.01175,-0.0155411,-0.00501829,-0.00844007,-0.000333986,-0.0202254,-1.06412,0.0133737,0.048206,797,491,0.503405,-1.01176
-420,533,-0.0218506,-0.96637,-0.01028,-0.0102367,-0.0049666,-0.00529172,-0.015225,-0.787578,0.00892529,0.0478392,804,491,-0.0218416,0.966373
-413,533,0.397278,-0.945007,-0.00621964,-0.0117619,-0.00225434,-0.00541849,-0.012563,-0.341463,0.00727605,0.0482647,811,491,0.39728,0.944997
-406,533,0.797668,-1.01996,-0.00314743,-0.0128272,-0.000386931,-0.00313199,-0.0128427,-0.0398881,0.00773221,0.0479403,818,491,0.797647,1.01996
-399,533,0.848328,-0.70752,-0.0011559,-0.0127723,0.000210369,-0.00115209,-0.0127761,0.0181018,0.0081605,0.0446591,825,491,0.848325,0.70751
-392,533,0.561157,-0.429626,-0.000786134,-0.00894735,-0.00105916,-0.000650918,-0.00908257,-0.126977,0.00585016,0.0459782,832,491,0.561143,0.429631
-385,533,0.0975342,0.12146,-0.000632409,-0.0023643,-0.00328227,0.00189622,-0.00489294,-0.656424,0.004045,0.0467982,839,491,0.0975482,-0.121461
-378,533,0.189026,0.438995,0.00144794,0.000335013,-0.0036821,0.00461539,-0.00283243,-0.710402,0.00434088,0.0478047,846,491,0.189024,-0.438999
-371,533,-0.372925,0.0884094,0.00383986,0.00312755,-0.00415752,0.00765645,-0.000689046,-0.74267,0.0053488,0.0431959,853,491,-0.372927,-0.0884159
-364,533,-0.231567,0.0365295,0.00433288,0.00741458,-0.00553366,0.0116179,0.000129552,-0.921184,0.00770245,0.0331059,860,491,-0.231571,-0.0365345
-357,533,-0.0819092,-0.00930786,0.00472558,0.0109198,-0.00653277,0.0150525,0.000592959,-1.00675,0.00984328,0.0174882,867,491,-0.0819273,0.009295
-350,533,-0.0822754,-0.0357971,0.00515285,0.0128153,-0.00712897,0.0170773,0.000890836,-1.03196,0.0110999,0.00916766,874,491,-0.0822912,0.0358035
-343,533,-0.0582275,-0.0489502,0.00585013,0.0137134,-0.00710971,0.0179061,0.00165737,-1.03797,0.0114251,0.00975871,881,491,-0.0582267,0.0489414
-336,533,-0.0803223,-0.0639648,0.00688044,0.0132942,-0.00708519,0.0178644,0.00231017,-0.997912,0.0112191,0.0138698,888,491,-0.0803317,0.063967
-329,533,-0.0774536,-0.0456543,0.00735417,0.0125005,-0.00587699,0.0163429,0.0035117,-0.991743,0.00993382,0.0131453,895,491,-0.0774468,0.0456503
-322,533,-0.0674438,-0.0367737,0.00774786,0.0114619,-0.00504777,0.0149834,0.00422637,-0.961661,0.00892039,0.0115101,902,491,-0.0674667,0.0367624
-315,533,-0.0726318,-0.0512695,0.00820978,0.00989457,-0.0035819,0.0127318,0.00537255,-0.90089,0.00738048,0.0122027,909,491,-0.0726305,0.0512691
-308,533,-0.0820313,-0.0349731,0.00794647,0.00819076,-0.00252889,0.0106005,0.00553678,-0.809529,0.00612221,0.0113301,916,491,-0.0820223,0.0349722
-301,533,-0.0848999,-0.0315857,0.00760808,0.00689785,-0.00154488,0.00883813,0.0056678,-0.672428,0.00517016,0.0119928,923,491,-0.0848858,0.0315806
-294,533,-0.0771484,-0.034729,0.00725127,0.00522074,-0.000836201,0.0075513,0.00492072,-0.344492,0.00442607,0.0102671,930,491,-0.0771224,0.0347323
-287,533,-0.0671997,-0.0361938,0.0071049,0.00360521,-0.000225794,0.00711941,0.0035907,-0.0641638,0.00411044,0.00829615,937,491,-0.0672272,0.036181
-280,533,-0.0734863,-0.0408325,0.00587499,0.0020059,4.21311e-05,0.00587544,0.00200545,0.0108875,0.00344866,0.00819987,944,491,-0.0734934,0.0408318
-273,533,-0.0845337,-0.050415,0.00418317,0.00185005,-0.000349629,0.00423444,0.00179879,-0.145595,0.00245395,0.010992,951,491,-0.0845112,0.0504132
-266,533,-0.0858154,-0.0515442,0.00506078,0.00138137,-0.00106834,0.00534849,0.00109367,-0.263059,0.00326278,0.0100902,958,491,-0.0858003,0.0515345
-259,533,-0.0782471,-0.0622559,0.00638874,0.000531968,-0.00242655,0.00726346,-0.00034275,-0.345978,0.0049605,0.0106143,965,491,-0.0782265,0.0622674
-252,533,-0.0681763,-0.0566711,0.00742389,0.000339143,-0.00423492,0.00940265,-0.00163962,-0.437105,0.0068804,0.0127578,972,491,-0.0681574,0.0566742
-245,533,-0.0716553,-0.0509644,0.0088422,3.63564e-05,-0.00596794,0.0118556,-0.00297706,-0.467587,0.00906062,0.0157051,979,491,-0.0716757,0.0509583
-238,533,-0.0690918,-0.0607605,0.0111513,-0.000776661,-0.00738321,0.0146784,-0.00430377,-0.445665,0.0114921,0.0169017,986,491,-0.0691027,0.0607746
-231,533,-0.115479,-0.085968,0.0144584,-0.000993622,-0.00888196,0.0185044,-0.00503963,-0.427444,0.014315,0.0246903,993,491,-0.115466,0.0859827
-224,533,-0.173828,-0.053772,0.0179363,-0.00150509,-0.0100821,0.0222206,-0.00578944,-0.401824,0.0170739,0.0331425,1000,491,-0.173845,0.0537625
-217,533,0.0274658,0.198975,0.021218,0.00117239,-0.0115603,0.0264954,-0.00410502,-0.428257,0.0191789,0.0381634,1007,491,0.0274703,-0.198971
-210,533,0.301086,0.0602112,0.0234092,0.00263367,-0.0135191,0.0300705,-0.00402762,-0.457817,0.0215156,0.0418053,1014,491,0.301068,-0.0602202
-203,533,0.509399,-0.104248,0.0254351,0.00458961,-0.0134498,0.032028,-0.00200328,-0.455764,0.0220501,0.0420169,1021,491,0.509389,0.104247
-196,533,0.643555,-0.153992,0,0,0,0,0,0,0,-1,1028,491,0.643522,0.153982
-189,533,-1.20776,1.16159,0.027774,0.00926527,-0.0110397,0.0329251,0.00411415,-0.436572,0.0207153,0.0463904,1035,491,-1.20782,-1.16158
-182,533,-0.776245,0.367157,0.0261311,0.00980435,-0.00992877,0.0308216,0.00511388,-0.441334,0.019073,0.0454993,1042,491,-0.776225,-0.367161
-175,533,-1.3479,0.579254,0,0,0,0,0,0,0,-1,1049,491,-1.34792,-0.579266
-168,533,0.557129,-1.28552,0.0229825,0.0102736,-0.0082562,0.0270465,0.00620963,-0.457416,0.0163588,0.0421481,1056,491,0.557134,1.28552
-161,533,0.852417,-0.76767,0.0157873,0.0100892,-0.00691963,0.0204215,0.00545506,-0.590108,0.0122092,0.0394037,1063,491,0.852433,0.767665
-154,533,0.353882,-0.567963,0.0100015,0.0104805,-0.00506705,0.0153137,0.00516826,-0.809013,0.00899567,0.0432679,1070,491,0.353924,0.567963
-147,533,0.161743,-0.5,0.00714931,0.00814988,-0.00291764,0.0106098,0.00468937,-0.870307,0.00613931,0.0422206,1077,491,0.161747,0.500004
-140,533,0.168945,-0.45755,0.00642852,0.00760486,-0.00256698,0.00965019,0.00438319,-0.898019,0.00557932,0.0444201,1084,491,0.168913,0.457542
-133,533,0.0419922,-0.423492,0.00477929,0.00838083,-0.00134882,0.00882997,0.00433015,-1.24936,0.0050983,0.0436789,1091,491,0.0420223,0.42348
-126,533,-0.142212,-0.326935,0.00222563,0.00804066,0.00134925,0.00833847,0.00192781,1.35356,0.00504079,0.0417249,1098,491,-0.142157,0.326934
-119,533,-0.294678,-0.0994873,0.00122576,0.00931578,0.00299638,0.0103047,0.000236848,1.25202,0.00679222,0.0459702,1105,491,-0.294734,0.0994738
-112,533,-0.508423,-0.0413513,0,0,0,0,0,0,0,-1,1112,491,-0.508403,0.041344
-105,533,-0.437744,-0.572632,-0.00132407,0.00978246,0.00896818,0.0147775,-0.00631912,1.06261,0.0125022,0.0472496,1119,491,-0.43773,0.57264
-98,533,-1.05469,-0.579193,-0.000887396,0.013804,0.00997019,0.0188423,-0.00592572,1.10289,0.0149339,0.0435796,1126,491,-1.05473,0.579194
-91,533,-0.767822,-1.41333,-0.00079181,0.0173272,0.011101,0.0225963,-0.00606087,1.12764,0.0174391,0.045886,1133,491,-0.767802,1.41334
-84,533,0.076416,-1.46762,0,0,0,0,0,0,0,-1,1140,491,0.0763803,1.46761
-77,533,0,0,0,0,0,0,0,0,0,-1,1147,491,0,0
-70,533,0,0,0,0,0,0,0,0,0,-1,1154,491,0,0
-63,533,0,0,0,0,0,0,0,0,0,-1,1161,491,0,0
-56,533,0,0,0,0,0,0,0,0,0,-1,1168,491,0,0
-49,533,0,0,0,0,0,0,0,0,0,-1,1175,491,0,0
-42,533,0,0,0,0,0,0,0,0,0,-1,1182,491,0,0
-35,533,0,0,0,0,0,0,0,0,0,-1,1189,491,0,0
-28,533,0,0,0,0,0,0,0,0,0,-1,1196,491,0,0
-21,533,0,0,0,0,0,0,0,0,0,-1,1203,491,0,0
-14,533,0,0,0,0,0,0,0,0,0,-1,1210,491,0,0
-7,533,0,0,0,0,0,0,0,0,0,-1,1217,491,0,0
0,533,0,0,0,0,0,0,0,0,0,-1,1224,491,0,0
7,533,0,0,0,0,0,0,0,0,0,-1,1231,491,0,0
14,533,0,0,0,0,0,0,0,0,0,-1,1238,491,0,0
21,533,0,0,0,0,0,0,0,0,0,-1,1245,491,0,0
28,533,0,0,0,0,0,0,0,0,0,-1,1252,491,0,0
35,533,0,0,0,0,0,0,0,0,0,-1,1259,491,0,0
42,533,0,0,0,0,0,0,0,0,0,-1,1266,491,0,0
49,533,0,0,0,0,0,0,0,0,0,-1,1273,491,0,0
56,533,0,0,0,0,0,0,0,0,0,-1,1280,491,0,0
63,533,0,0,0,0,0,0,0,0,0,-1,1287,491,0,0
70,533,0,0,0,0,0,0,0,0,0,-1,1294,491,0,0
77,533,0,0,0,0,0,0,0,0,0,-1,1301,491,0,0
84,533,0,0,0,0,0,0,0,0,0,-1,1308,491,0,0
91,533,0,0,0,0,0,0,0,0,0,-1,1315,491,0,0
98,533,0,0,0,0,0,0,0,0,0,-1,1322,491,0,0
105,533,0,0,0,0,0,0,0,0,0,-1,1329,491,0,0
112,533,0,0,0,0,0,0,0,0,0,-1,1336,491,0,0
119,533,0,0,0,0,0,0,0,0,0,-1,1343,491,0,0
126,533,0,0,0,0,0,0,0,0,0,-1,1350,491,0,0
133,533,0,0,0,0,0,0,0,0,0,-1,1357,491,0,0
140,533,0,0,0,0,0,0,0,0,0,-1,1364,491,0,0
147,533,0,0,0,0,0,0,0,0,0,-1,1371,491,0,0
154,533,0,0,0,0,0,0,0,0,0,-1,1378,491,0,0
161,533,0,0,0,0,0,0,0,0,0,-1,1385,491,0,0
168,533,0,0,0,0,0,0,0,0,0,-1,1392,491,0,0
175,533,0,0,0,0,0,0,0,0,0,-1,1399,491,0,0
182,533,0,0,0,0,0,0,0,0,0,-1,1406,491,0,0
189,533,0,0,0,0,0,0,0,0,0,-1,1413,491,0,0
196,533,0,0,0,0,0,0,0,0,0,-1,1420,491,0,0
203,533,0.113159,0.0353088,0.00440774,0.0546533,-0.0356437,0.0731382,-0.0140772,-1.09238,0.0540656,0.0437055,1427,491,0.113121,-0.0352953
210,533,-0.0770264,0.133453,0.00538693,0.0592562,-0.0314771,0.0737497,-0.00910651,-1.13929,0.052466,0.0422527,1434,491,-0.0770867,-0.133464
217,533,0.071167,0.059021,0.00684764,0.0616956,-0.027847,0.0733552,-0.00481198,-1.17427,0.0505838,0.0407202,1441,491,0.0712105,-0.0590171
224,533,1.01501,-2.17099,0.0064983,0.0603312,-0.0219278,0.0681325,-0.00130302,-1.22899,0.0458622,0.0414589,1448,491,1.01506,2.171
231,533,0.946533,-1.90189,0.0057098,0.0538447,-0.015375,0.0583365,0.00121799,-1.28656,0.0384914,0.0455062,1455,491,0.946498,1.9019
238,533,0.796143,-1.71008,0,0,0,0,0,0,0,-1,1462,491,0.796131,1.71008
245,533,-0.14624,0.312988,0.00428669,0.0342869,-0.00362185,0.034718,0.00385563,-1.45234,0.0219732,0.0431435,1469,491,-0.14629,-0.312983
252,533,-0.359741,0.40033,0.00433576,0.0235254,0.0017052,0.0236757,0.00418541,1.48285,0.0145902,0.0436352,1476,491,-0.359744,-0.400332
259,533,-0.594482,0.556732,0.00662767,0.0138659,0.00537132,0.0167236,0.00376999,1.08186,0.010129,0.0411608,1483,491,-0.594473,-0.556722
266,533,-0.811768,0.820557,0,0,0,0,0,0,0,-1,1490,491,-0.81175,-0.820545
273,533,-0.490601,0.5867,0.0114154,-0.00238169,0.0115345,0.017957,-0.00892321,0.515896,0.0158087,0.042756,1497,491,-0.490637,-0.586714
280,533,-0.526123,0.39444,0.0152994,-0.01079,0.0142905,0.0216037,-0.0170943,0.41547,0.0223928,0.0389965,1504,491,-0.526105,-0.39444
287,533,-0.39563,0.151093,0.020865,-0.0155445,0.0148938,0.0261813,-0.0208608,0.342848,0.0272176,0.0417325,1511,491,-0.395578,-0.151093
294,533,-0.152954,-0.290039,0.0252558,-0.017932,0.0144989,0.0296719,-0.022348,0.295649,0.0301327,0.0420106,1518,491,-0.152982,0.290051
301,533,-0.166992,-0.277924,0.0284703,-0.0189176,0.013116,0.0318583,-0.0223056,0.252786,0.0314333,0.0399678,1525,491,-0.16698,0.277928
308,533,-0.32666,-0.403351,0.0311311,-0.0183854,0.0120239,0.0338964,-0.0211507,0.226051,0.0320642,0.040468,1532,491,-0.326673,0.403357
315,533,-0.151611,-0.172821,0.0326174,-0.0160167,0.010437,0.0347626,-0.0181618,0.202713,0.0310529,0.0434794,1539,491,-0.151667,0.172813
322,533,0.209717,0.179657,0.0325825,-0.012322,0.0090162,0.0343252,-0.0140647,0.190931,0.0287426,0.042416,1546,491,0.209722,-0.179657
329,533,0.0180664,0.162872,0,0,0,0,0,0,0,-1,1553,491,0.018035,-0.162881
336,533,-0.366943,-0.138489,0,0,0,0,0,0,0,-1,1560,491,-0.366904,0.138485
343,533,-0.431641,-0.0444031,0.0263374,-0.00378279,0.00476148,0.0270722,-0.00451758,0.153111,0.0197271,0.0482444,1567,491,-0.431645,0.0444105
350,533,0.365845,-0.220673,0.0229582,-0.00150174,0.00301959,0.0233255,-0.001869,0.12103,0.0162093,0.0411082,1574,491,0.365824,0.220683
357,533,0.0601807,-0.167572,0.0187995,-0.00014228,0.00131264,0.0188901,-0.000232812,0.06886,0.0126717,0.0309326,1581,491,0.0601412,0.167571
364,533,-0.0362549,-0.0657349,0.0145501,0.000879744,6.09239e-05,0.0145504,0.000879473,0.00445652,0.00942079,0.022196,1588,491,-0.0362675,0.0657288
371,533,-0.0450439,-0.0471497,0.0110132,0.00172143,-0.00104228,0.0111287,0.00160595,-0.110345,0.00694596,0.0175502,1595,491,-0.0450457,0.0471546
378,533,-0.0635986,-0.0598755,0.00780382,0.00262874,-0.00191654,0.00843629,0.00199626,-0.318755,0.00509095,0.0135271,1602,491,-0.0635674,0.059863
385,533,-0.0662842,-0.0535278,0.00557589,0.0026971,-0.0024613,0.00698779,0.0012852,-0.52081,0.00429471,0.0148636,1609,491,-0.0663157,0.053539
392,533,-0.102661,-0.0465393,0.0036197,0.00284945,-0.002513,0.00577692,0.000692232,-0.709363,0.00364253,0.0124662,1616,491,-0.102691,0.0465477
399,533,-0.113037,-0.056488,0.00292549,0.002772,-0.00233636,0.00518636,0.000511118,-0.76898,0.00330042,0.0112762,1623,491,-0.113017,0.0564843
406,533,-0.109863,-0.0553589,0.00284814,0.00213994,-0.00195609,0.00448192,0.000506156,-0.695855,0.00283433,0.0135915,1630,491,-0.109825,0.0553706
413,533,-0.108521,-0.0369568,0.00235095,0.00173303,-0.00160616,0.0036776,0.00040639,-0.690379,0.00232812,0.0118119,1637,491,-0.108534,0.0369653
420,533,-0.0909424,-0.0246887,0.00173774,0.00159073,-0.00109902,0.00276571,0.00056276,-0.752007,0.00168779,0.00977053,1644,491,-0.0909447,0.0246997
427,533,-0.0722656,-0.0248108,0.00135021,0.00144316,-0.000712298,0.0021105,0.000682874,-0.817973,0.00124353,0.00991739,1651,491,-0.0722447,0.0248115
434,533,-0.0753174,-0.0484314,0.00097225,0.00155113,-0.000644192,0.00196792,0.00055546,-0.996536,0.00117154,0.0112993,1658,491,-0.0753455,0.0484448
441,533,-0.0646973,-0.0549011,0.000567683,0.00161388,-0.000492427,0.0018092,0.000372369,-1.19319,0.00110316,0.0138382,1665,491,-0.0647214,0.0548963
448,533,-0.0814209,-0.0618591,0.000343348,0.00140305,-3.11741e-05,0.00140397,0.000342432,-1.54141,0.000845279,0.0151387,1672,491,-0.0814572,0.061874
455,533,-0.0887451,-0.0458984,0.000383606,0.00203741,-1.2213e-05,0.0020375,0.000383515,-1.56341,0.00125026,0.0148651,1679,491,-0.0887906,0.0459087
462,533,-0.0927734,-0.0258484,0.000204934,0.00309503,0.000309068,0.00312771,0.000172251,1.46544,0.00203016,0.0138049,1686,491,-0.0927438,0.0258366
469,533,-0.0936279,-0.0604553,-0.000200984,0.00370679,0.00049621,0.00376881,-0.000263008,1.44645,0.00260464,0.00906488,1693,491,-0.0935974,0.0604474
476,533,-0.0837402,-0.0680542,-0.000310024,0.00438256,0.000620093,0.00446312,-0.000390582,1.44161,0.00311378,0.00960495,1700,491,-0.0836804,0.0680606
483,533,-0.065918,-0.0448303,-0.000169217,0.00516541,0.000767194,0.00527355,-0.000277358,1.43076,0.00361171,0.0105734,1707,491,-0.0659454,0.044817
490,533,-0.0673828,-0.00262451,-7.33701e-05,0.00565861,0.00119008,0.00589588,-0.000310636,1.37401,0.00403812,0.0231039,1714,491,-0.067354,0.00263407
497,533,-0.108765,0.0714722,0.000128057,0.00572944,0.00177219,0.00624304,-0.000385542,1.28871,0.00429631,0.0393423,1721,491,-0.108706,-0.0714706
504,533,-0.247803,0.154785,0.000179734,0.0060498,0.00222269,0.00679645,-0.000566915,1.24672,0.00473127,0.0389902,1728,491,-0.247798,-0.15479
511,533,-0.552124,0.28476,-8.06099e-05,0.00652232,0.0027438,0.00751365,-0.00107194,1.22409,0.00540198,0.0428574,1735,491,-0.552159,-0.284756
518,533,-0.63501,0.404388,-0.000500866,0.0056457,0.00362174,0.00732238,-0.00217754,1.13723,0.00574664,0.0454539,1742,491,-0.634994,-0.404395
525,533,-0.584351,0.441071,-0.000852798,0.00495184,0.00403086,0.00701654,-0.0029175,1.09742,0.00589593,0.0470586,1749,491,-0.584346,-0.441074
532,533,0.516968,0.078186,0,0,0,0,0,0,0,-1,1756,491,0.517012,-0.0782011
539,533,-0.0423584,-0.478027,-0.00258657,0.00283941,0.00505802,0.00586609,-0.00561325,1.03156,0.00662814,0.0483042,1763,491,-0.0423351,0.478021
546,533,0.0926514,-0.506531,-0.00430186,0.00172483,0.00581462,0.00526053,-0.00783756,1.02446,0.00761082,0.0472039,1770,491,0.0926432,0.50652
553,533,0,0,0,0,0,0,0,0,0,-1,1777,491,0,0
560,533,0,0,0,0,0,0,0,0,0,-1,1784,491,0,0
567,533,0,0,0,0,0,0,0,0,0,-1,1791,491,0,0
574,533,0,0,0,0,0,0,0,0,0,-1,1798,491,0,0
581,533,0,0,0,0,0,0,0,0,0,-1,1805,491,0,0
588,533,0,0,0,0,0,0,0,0,0,-1,1812,491,0,0
595,533,0,0,0,0,0,0,0,0,0,-1,1819,491,0,0
602,533,0,0,0,0,0,0,0,0,0,-1,1826,491,0,0
609,533,0,0,0,0,0,0,0,0,0,-1,1833,491,0,0
616,533,0,0,0,0,0,0,0,0,0,-1,1840,491,0,0
623,533,0,0,0,0,0,0,0,0,0,-1,1847,491,0,0
630,533,0,0,0,0,0,0,0,0,0,-1,1854,491,0,0
637,533,0,0,0,0,0,0,0,0,0,-1,1861,491,0,0
644,533,0,0,0,0,0,0,0,0,0,-1,1868,491,0,0
651,533,0,0,0,0,0,0,0,0,0,-1,1875,491,0,0
658,533,0,0,0,0,0,0,0,0,0,-1,1882,491,0,0
665,533,0,0,0,0,0,0,0,0,0,-1,1889,491,0,0
672,533,0,0,0,0,0,0,0,0,0,-1,1896,491,0,0
679,533,0,0,0,0,0,0,0,0,0,-1,1903,491,0,0
686,533,0,0,0,0,0,0,0,0,0,-1,1910,491,0,0
693,533,0,0,0,0,0,0,0,0,0,-1,1917,491,0,0
700,533,0,0,0,0,0,0,0,0,0,-1,1924,491,0,0
707,533,0,0,0,0,0,0,0,0,0,-1,1931,491,0,0
714,533,0,0,0,0,0,0,0,0,0,-1,1938,491,0,0
721,533,0,0,0,0,0,0,0,0,0,-1,1945,491,0,0
728,533,0,0,0,0,0,0,0,0,0,-1,1952,491,0,0
735,533,0,0,0,0,0,0,0,0,0,-1,1959,491,0,0
742,533,0,0,0,0,0,0,0,0,0,-1,1966,491,0,0
749,533,0,0,0,0,0,0,0,0,0,-1,1973,491,0,0
756,533,0,0,0,0,0,0,0,0,0,-1,1980,491,0,0
763,533,0,0,0,0,0,0,0,0,0,-1,1987,491,0,0
770,533,0,0,0,0,0,0,0,0,0,-1,1994,491,0,0
777,533,0,0,0,0,0,0,0,0,0,-1,2001,491,0,0
784,533,0,0,0,0,0,0,0,0,0,-1,2008,491,0,0
791,533,0,0,0,0,0,0,0,0,0,-1,2015,491,0,0
798,533,0,0,0,0,0,0,0,0,0,-1,2022,491,0,0
805,533,0,0,0,0,0,0,0,0,0,-1,2029,491,0,0
812,533,0,0,0,0,0,0,0,0,0,-1,2036,491,0,0
-700,526,0,0,0,0,0,0,0,0,0,-1,524,498,0,0
-693,526,0,0,0,0,0,0,0,0,0,-1,531,498,0,0
-686,526,0,0,0,0,0,0,0,0,0,-1,538,498,0,0
-679,526,0,0,0,0,0,0,0,0,0,-1,545,498,0,0
-672,526,0,0,0,0,0,0,0,0,0,-1,552,498,0,0
-665,526,0,0,0,0,0,0,0,0,0,-1,559,498,0,0
-658,526,0,0,0,0,0,0,0,0,0,-1,566,498,0,0
-651,526,0,0,0,0,0,0,0,0,0,-1,573,498,0,0
-644,526,0,0,0,0,0,0,0,0,0,-1,580,498,0,0
-637,526,0,0,0,0,0,0,0,0,0,-1,587,498,0,0
-630,526,0,0,0,0,0,0,0,0,0,-1,594,498,0,0
-623,526,0,0,0,0,0,0,0,0,0,-1,601,498,0,0
-616,526,0,0,0,0,0,0,0,0,0,-1,608,498,0,0
-609,526,0,0,0,0,0,0,0,0,0,-1,615,498,0,0
-602,526,0,0,0,0,0,0,0,0,0,-1,622,498,0,0
-595,526,0,0,0,0,0,0,0,0,0,-1,629,498,0,0
-588,526,0,0,0,0,0,0,0,0,0,-1,636,498,0,0
-581,526,0,0,0,0,0,0,0,0,0,-1,643,498,0,0
-574,526,0,0,0,0,0,0,0,0,0,-1,650,498,0,0
-567,526,0,0,0,0,0,0,0,0,0,-1,657,498,0,0
-560,526,0,0,0,0,0,0,0,0,0,-1,664,498,0,0
-553,526,0,0,0,0,0,0,0,0,0,-1,671,498,0,0
-546,526,0,0,0,0,0,0,0,0,0,-1,678,498,0,0
-539,526,0,0,0,0,0,0,0,0,0,-1,685,498,0,0
-532,526,0,0,0,0,0,0,0,0,0,-1,692,498,0,0
-525,526,0,0,0,0,0,0,0,0,0,-1,699,498,0,0
-518,526,0,0,0,0,0,0,0,0,0,-1,706,498,0,0
-511,526,0,0,0,0,0,0,0,0,0,-1,713,498,0,0
-504,526,0,0,0,0,0,0,0,0,0,-1,720,498,0,0
-497,526,0,0,0,0,0,0,0,0,0,-1,727,498,0,0
-490,526,0,0,0,0,0,0,0,0,0,-1,734,498,0,0
-483,526,0,0,0,0,0,0,0,0,0,-1,741,498,0,0
-476,526,0,0,0,0,0,0,0,0,0,-1,748,498,0,0
-469,526,0,0,0,0,0,0,0,0,0,-1,755,498,0,0
-462,526,0,0,0,0,0,0,0,0,0,-1,762,498,0,0
-455,526,0,0,0,0,0,0,0,0,0,-1,769,498,0,0
-448,526,0,0,0,0,0,0,0,0,0,-1,776,498,0,0
-441,526,0,0,0,0,0,0,0,0,0,-1,783,498,0,0
-434,526,0.581909,-0.108704,-0.0210909,0.00833793,-0.0104745,0.0116853,-0.0244383,-1.26148,0.0212848,0.0469856,790,498,0.581903,0.108693
-427,526,0.65271,0.346497,-0.0160512,0.00143799,-0.00539916,0.0029705,-0.0175837,-1.29423,0.0128278,0.0466034,797,498,0.65273,-0.346491
-420,526,-0.205688,-0.504456,0,0,0,0,0,0,0,-1,804,498,-0.205687,0.504461
-413,526,-0.067627,-0.514496,-0.00829312,-0.00578007,0.000443364,-0.00570415,-0.00836904,1.40119,0.00493693,0.0482346,811,498,-0.0676077,0.51449
-406,526,0.086853,-0.557617,-0.00532896,-0.007532,0.00197837,-0.00416613,-0.00869483,0.531381,0.00502142,0.0431006,818,498,0.086867,0.557632
-399,526,0.28772,-0.622986,-0.00312775,-0.0081363,0.00234333,-0.00220236,-0.00906169,0.376105,0.00545721,0.0485887,825,498,0.28769,0.622986
-392,526,0.236633,-0.495728,-0.00196687,-0.00707961,0.00196323,-0.0013,-0.00774649,0.327453,0.00479016,0.0485336,832,498,0.23665,0.495713
-385,526,0.369812,0.371704,0,0,0,0,0,0,0,-1,839,498,0.369799,-0.371703
-378,526,0.179565,0.221771,0.000631326,-0.00181236,-0.000266914,0.00066014,-0.00184117,-0.107537,0.00149683,0.039894,846,498,0.179568,-0.221771
-371,526,0.0145264,0.0177002,0.00247788,-0.000329055,-0.000757343,0.00266918,-0.000520357,-0.247421,0.00197588,0.031252,853,498,0.0145128,-0.0176858
-364,526,-0.081604,-0.026001,0.00284719,0.00275131,-0.00195288,0.00475272,0.000845781,-0.773127,0.00292756,0.0162384,860,498,-0.081606,0.0260103
-357,526,-0.0637817,-0.0202332,0.00309034,0.00542961,-0.00287932,0.00736779,0.00115216,-0.978327,0.00457641,0.0103795,867,498,-0.0638066,0.0202268
-350,526,-0.0579834,-0.0113525,0.00330421,0.00704123,-0.00353295,0.00916935,0.00117608,-1.02864,0.00576103,0.00988461,874,498,-0.0579581,0.0113565
-343,526,-0.0647583,-0.0276184,0.00383304,0.00790347,-0.00371637,0.0101054,0.00163109,-1.03591,0.00626443,0.0140698,881,498,-0.0647468,0.0276126
-336,526,-0.0811157,-0.0418091,0.00457098,0.00794828,-0.00392803,0.0105353,0.00198401,-0.988404,0.00646446,0.0140774,888,498,-0.081142,0.0418119
-329,526,-0.0827637,-0.0278931,0.00488839,0.0077613,-0.00314303,0.00978057,0.00286912,-0.999741,0.00580535,0.0138496,895,498,-0.0827439,0.0278933
-322,526,-0.0686646,-0.034729,0.00545305,0.0074687,-0.00257148,0.0092228,0.00369895,-0.97216,0.00535942,0.00955715,902,498,-0.0686928,0.0347277
-315,526,-0.0718994,-0.0434875,0.00638609,0.00704245,-0.00127282,0.00802872,0.00539982,-0.911569,0.00472651,0.00835215,909,498,-0.0719153,0.0434953
-308,526,-0.0875854,-0.0344543,0.0065368,0.00628683,-0.000360167,0.00679305,0.00603058,-0.618391,0.00429715,0.00850086,916,498,-0.0875859,0.0344615
-301,526,-0.0762329,-0.0343933,0.00658293,0.00572414,0.000460993,0.00678353,0.00552354,0.410436,0.00416636,0.00954401,923,498,-0.0762203,0.0343785
-294,526,-0.0706787,-0.0258179,0.00657969,0.00463358,0.00089573,0.0069292,0.00428408,0.372023,0.0040377,0.00829703,930,498,-0.0706617,0.0258064
-287,526,-0.0806885,-0.0206299,0.00675704,0.00377022,0.00113112,0.00713705,0.00339021,0.324112,0.00412229,0.00843472,937,498,-0.0806964,0.0206254
-280,526,-0.0908203,-0.0322876,0.00556905,0.00264819,0.00108593,0.00592854,0.00228871,0.319686,0.00345235,0.0116156,944,498,-0.0908369,0.0322835
-273,526,-0.0913086,-0.0374451,0.00403702,0.00241694,0.000588223,0.00422807,0.00222589,0.314035,0.00244222,0.00948418,951,498,-0.0913042,0.037448
-266,526,-0.0813599,-0.0344849,0.00545132,0.00192022,-0.000496905,0.00551991,0.00185163,-0.137174,0.00324394,0.00793732,958,498,-0.0813845,0.0344872
-259,526,-0.0750122,-0.0411072,0.00700405,0.000849027,-0.00229439,0.0077652,8.78784e-05,-0.320319,0.00514775,0.0122015,965,498,-0.0749858,0.0410984
-252,526,-0.107727,-0.0535278,0.00816065,0.000517151,-0.00468059,0.0103816,-0.00170376,-0.443035,0.00755329,0.0232496,972,498,-0.107735,0.0535137
-245,526,-0.178345,-0.0479736,0.00972805,-3.84097e-05,-0.00706705,0.0134349,-0.00374524,-0.483073,0.0104316,0.0324573,979,498,-0.178329,0.0479867
-238,526,-0.174988,-0.057373,0.0123107,-0.00114347,-0.00909674,0.0168976,-0.00573028,-0.467022,0.0135842,0.0346476,986,498,-0.174985,0.0573802
-231,526,-0.130066,-0.244965,0.0162404,-0.0015238,-0.0112747,0.0217114,-0.00699478,-0.451772,0.0172843,0.0375886,993,498,-0.13006,0.244972
-224,526,-0.515869,-0.288025,0.0205027,-0.00223812,-0.0130263,0.0264231,-0.00815849,-0.426584,0.0208733,0.0438033,1000,498,-0.515876,0.288036
-217,526,0.797302,0.420624,0.0243238,0.000601032,-0.0148531,0.0314705,-0.00654567,-0.448461,0.0234685,0.041085,1007,498,0.797289,-0.420629
-210,526,0.965759,0.376434,0.0267785,0.00193384,-0.017233,0.0355998,-0.00688743,-0.473108,0.026331,0.0439829,1014,498,0.965772,-0.376446
-203,526,1.09979,0.236359,0,0,0,0,0,0,0,-1,1021,498,1.09977,-0.236361
-196,526,-2.05664,1.75659,0,0,0,0,0,0,0,-1,1028,498,-2.05667,-1.75659
-189,526,-1.69116,1.00397,0.0328355,0.0092056,-0.0142894,0.0395618,0.00247927,-0.439953,0.0255882,0.0480888,1035,498,-1.69112,-1.00395
-182,526,-1.11401,0.0702209,0.0306617,0.00958593,-0.0127947,0.0366995,0.00354819,-0.440911,0.0233735,0.0437373,1042,498,-1.11407,-0.0702117
-175,526,-0.633057,-0.846069,0,0,0,0,0,0,0,-1,1049,498,-0.633073,0.846063
-168,526,-0.143799,-1.69785,0,0,0,0,0,0,0,-1,1056,498,-0.143745,1.69784
-161,526,0.144287,-2.45111,0,0,0,0,0,0,0,-1,1063,498,0.144324,2.45111
-154,526,0.137207,-0.227875,0.00929214,0.00893086,-0.00667615,0.0157901,0.0024329,-0.771873,0.00981678,0.0438826,1070,498,0.137253,0.227873
-147,526,0.214722,-0.403839,0.00511178,0.00559469,-0.00416296,0.00952319,0.00118328,-0.814366,0.00599343,0.0450425,1077,498,0.214692,0.403854
-140,526,0.282471,-0.401031,0.00378712,0.0049932,-0.00390695,0.00834338,0.000436939,-0.861969,0.00542248,0.0482884,1084,498,0.282461,0.401023
-133,526,0.218262,-0.232697,0.00176852,0.00586178,-0.00273479,0.00723096,0.000399339,-1.10663,0.00469319,0.0465534,1091,498,0.218244,0.232688
-126,526,0.0609131,-0.255859,0,0,0,0,0,0,0,-1,1098,498,0.060878,0.255846
-119,526,-0.498657,-0.0203247,0,0,0,0,0,0,0,-1,1105,498,-0.498613,0.020326
-112,526,-0.643677,0.349976,0,0,0,0,0,0,0,-1,1112,498,-0.643687,-0.349985
-105,526,0,0,0,0,0,0,0,0,0,-1,1119,498,0,0
-98,526,0,0,0,0,0,0,0,0,0,-1,1126,498,0,0
-91,526,0,0,0,0,0,0,0,0,0,-1,1133,498,0,0
-84,526,0,0,0,0,0,0,0,0,0,-1,1140,498,0,0
-77,526,0,0,0,0,0,0,0,0,0,-1,1147,498,0,0
-70,526,0,0,0,0,0,0,0,0,0,-1,1154,498,0,0
-63,526,0,0,0,0,0,0,0,0,0,-1,1161,498,0,0
-56,526,0,0,0,0,0,0,0,0,0,-1,1168,498,0,0
-49,526,0,0,0,0,0,0,0,0,0,-1,1175,498,0,0
-42,526,0,0,0,0,0,0,0,0,0,-1,1182,498,0,0
-35,526,0,0,0,0,0,0,0,0,0,-1,1189,498,0,0
-28,526,0,0,0,0,0,0,0,0,0,-1,1196,498,0,0
-21,526,0,0,0,0,0,0,0,0,0,-1,1203,498,0,0
-14,526,0,0,0,0,0,0,0,0,0,-1,1210,498,0,0
-7,526,0,0,0,0,0,0,0,0,0,-1,1217,498,0,0
0,526,0,0,0,0,0,0,0,0,0,-1,1224,498,0,0
7,526,0,0,0,0,0,0,0,0,0,-1,1231,498,0,0
14,526,0,0,0,0,0,0,0,0,0,-1,1238,498,0,0
21,526,0,0,0,0,0,0,0,0,0,-1,1245,498,0,0
28,526,0,0,0,0,0,0,0,0,0,-1,1252,498,0,0
35,526,0,0,0,0,0,0,0,0,0,-1,1259,498,0,0
42,526,0,0,0,0,0,0,0,0,0,-1,1266,498,0,0
49,526,0,0,0,0,0,0,0,0,0,-1,1273,498,0,0
56,526,0,0,0,0,0,0,0,0,0,-1,1280,498,0,0
63,526,0,0,0,0,0,0,0,0,0,-1,1287,498,0,0
70,526,0,0,0,0,0,0,0,0,0,-1,1294,498,0,0
77,526,0,0,0,0,0,0,0,0,0,-1,1301,498,0,0
84,526,0,0,0,0,0,0,0,0,0,-1,1308,498,0,0
91,526,0,0,0,0,0,0,0,0,0,-1,1315,498,0,0
98,526,0,0,0,0,0,0,0,0,0,-1,1322,498,0,0
105,526,0,0,0,0,0,0,0,0,0,-1,1329,498,0,0
112,526,0,0,0,0,0,0,0,0,0,-1,1336,498,0,0
119,526,0,0,0,0,0,0,0,0,0,-1,1343,498,0,0
126,526,0,0,0,0,0,0,0,0,0,-1,1350,498,0,0
133,526,0,0,0,0,0,0,0,0,0,-1,1357,498,0,0
140,526,0,0,0,0,0,0,0,0,0,-1,1364,498,0,0
147,526,0,0,0,0,0,0,0,0,0,-1,1371,498,0,0
154,526,0,0,0,0,0,0,0,0,0,-1,1378,498,0,0
161,526,0,0,0,0,0,0,0,0,0,-1,1385,498,0,0
168,526,0,0,0,0,0,0,0,0,0,-1,1392,498,0,0
175,526,0,0,0,0,0,0,0,0,0,-1,1399,498,0,0
182,526,0,0,0,0,0,0,0,0,0,-1,1406,498,0,0
189,526,0,0,0,0,0,0,0,0,0,-1,1413,498,0,0
196,526,0,0,0,0,0,0,0,0,0,-1,1420,498,0,0
203,526,0,0,0,0,0,0,0,0,0,-1,1427,498,0,0
210,526,0,0,0,0,0,0,0,0,0,-1,1434,498,0,0
217,526,0,0,0,0,0,0,0,0,0,-1,1441,498,0,0
224,526,0,0,0,0,0,0,0,0,0,-1,1448,498,0,0
231,526,1.61414,-2.25677,0,0,0,0,0,0,0,-1,1455,498,1.61413,2.25676
238,526,-0.8302,-0.206238,0,0,0,0,0,0,0,-1,1462,498,-0.830214,0.206235
245,526,-0.955078,-0.608917,0.00475956,0.0309056,-0.00185778,0.0310369,0.00462822,-1.50021,0.0193341,0.0434358,1469,498,-0.955107,0.608903
252,526,-0.830811,-0.819275,0.00468591,0.0185372,0.00433501,0.019782,0.00344107,1.29116,0.0122038,0.0445967,1476,498,-0.830762,0.819268
259,526,-0.92981,-0.793243,0.00771388,0.00767399,0.00837018,0.0160641,-0.000676264,0.784207,0.0109418,0.0455111,1483,498,-0.929788,0.793248
266,526,-1.1897,-1.01483,0.0106624,-0.00171696,0.0119089,0.0178942,-0.0089487,0.545736,0.015782,0.0461696,1490,498,-1.18968,1.01485
273,526,-0.651489,-0.98288,0,0,0,0,0,0,0,-1,1497,498,-0.651438,0.982877
280,526,-0.333252,-0.173157,0,0,0,0,0,0,0,-1,1504,498,-0.333243,0.173157
287,526,-0.524048,-0.153046,0.0271019,-0.0222501,0.0185676,0.0333073,-0.0284555,0.322535,0.0356954,0.044254,1511,498,-0.5241,0.153057
294,526,-0.693604,-0.10318,0.0329407,-0.0239418,0.0179566,0.038135,-0.029136,0.281579,0.0389546,0.0433616,1518,498,-0.693558,0.103167
301,526,-0.567261,-0.0190735,0.0375515,-0.0243096,0.0164966,0.0416757,-0.0284338,0.244983,0.0407177,0.0416758,1525,498,-0.567313,0.019088
308,526,-0.417114,-0.0196228,0.0408828,-0.0230179,0.0154403,0.044418,-0.0265532,0.225083,0.0414057,0.0400682,1532,498,-0.417125,0.0196347
315,526,0.024292,0.0953369,0.0423891,-0.0200801,0.0137577,0.0452847,-0.0229757,0.207447,0.0401057,0.0428179,1539,498,0.0242877,-0.0953329
322,526,0.466187,0.502991,0.0421382,-0.0156884,0.0122644,0.0446318,-0.018182,0.200587,0.0373219,0.0433284,1546,498,0.466181,-0.50298
329,526,0.870728,0.607483,0,0,0,0,0,0,0,-1,1553,498,0.870728,-0.607491
336,526,2.90417,-0.188446,0,0,0,0,0,0,0,-1,1560,498,2.90413,0.188457
343,526,-0.620972,-0.0190735,0,0,0,0,0,0,0,-1,1567,498,-0.620988,0.0190798
350,526,0.421387,-0.363037,0.0299887,-0.00266082,0.00538376,0.0308536,-0.00352567,0.159279,0.0218393,0.0425799,1574,498,0.421438,0.363039
357,526,0.202393,-0.280334,0.0247393,-0.0010178,0.00322205,0.0251362,-0.00141475,0.122578,0.0172484,0.0399608,1581,498,0.202352,0.280347
364,526,0.295044,-0.275604,0.0194288,0.000273279,0.00155264,0.0195538,0.000148246,0.0803554,0.0129868,0.0368708,1588,498,0.295049,0.275613
371,526,0.319092,-0.205017,0.0151108,0.00137731,1.04504e-05,0.0151108,0.0013773,0.000760943,0.0096476,0.0335846,1595,498,0.319051,0.205002
378,526,0.132446,-0.121918,0.0111795,0.00261757,-0.00130476,0.0113739,0.00242315,-0.147919,0.00691785,0.0294195,1602,498,0.132484,0.12193
385,526,-0.0231934,-0.0795593,0.00827372,0.00279983,-0.00231952,0.0091244,0.00194915,-0.351516,0.00554853,0.022504,1609,498,-0.0231746,0.0795536
392,526,-0.088501,-0.0304565,0.00567036,0.00308583,-0.0026494,0.00732585,0.00143033,-0.558496,0.00448383,0.0143303,1616,498,-0.0885357,0.0304647
399,526,-0.102661,-0.0472107,0.00470226,0.00296207,-0.00261646,0.00658951,0.00107482,-0.624878,0.00408217,0.0115699,1623,498,-0.102688,0.0472133
406,526,-0.102051,-0.0395508,0.00438613,0.00212654,-0.00235227,0.00586586,0.000646816,-0.561516,0.00371379,0.0115628,1630,498,-0.102058,0.0395435
413,526,-0.11084,-0.0199585,0.00358326,0.00152203,-0.00210213,0.00489382,0.000211468,-0.557481,0.00319439,0.0121713,1637,498,-0.110891,0.0199737
420,526,-0.110474,-0.0393372,0.00265386,0.00113586,-0.00160302,0.00366849,0.000121234,-0.564293,0.00240627,0.0114842,1644,498,-0.11045,0.0393239
427,526,-0.0839844,-0.0462341,0.00200577,0.000703002,-0.0011685,0.00269218,1.65908e-05,-0.531125,0.00178928,0.0115966,1651,498,-0.0839704,0.0462339
434,526,-0.0789795,-0.0526733,0.00135012,0.000550753,-0.00105247,0.00207624,-0.000175367,-0.60393,0.00144617,0.0113004,1658,498,-0.0789405,0.0526761
441,526,-0.0908203,-0.0521545,0.000696177,0.000493415,-0.000756517,0.00135808,-0.000168484,-0.71879,0.000966453,0.0101108,1665,498,-0.0907698,0.052164
448,526,-0.092041,-0.0618896,0.00038095,3.77847e-05,-3.59748e-05,0.000384681,3.40539e-05,-0.103335,0.00024589,0.00956119,1672,498,-0.0920736,0.0618843
455,526,-0.0958252,-0.0752869,0.000385196,0.00063161,4.72133e-05,0.000640346,0.00037646,1.38782,0.000371603,0.0128718,1679,498,-0.0958736,0.0752991
462,526,-0.0948486,-0.0523071,0.00028977,0.00174807,0.000384289,0.00184314,0.000194701,1.32827,0.00116927,0.0101448,1686,498,-0.0948371,0.052315
469,526,-0.0838623,-0.0513,-1.01053e-05,0.00244399,0.000598837,0.00258231,-0.000148434,1.34378,0.00177309,0.00715068,1693,498,-0.083895,0.0512973
476,526,-0.0871582,-0.0533142,-8.79986e-05,0.00316309,0.000722498,0.00331642,-0.00024133,1.36168,0.00229562,0.00884537,1700,498,-0.087196,0.0533286
483,526,-0.0772705,-0.0440369,0.000111385,0.00390846,0.000867869,0.00409742,-7.75745e-05,1.35641,0.00275783,0.00910022,1707,498,-0.0773064,0.0440516
490,526,-0.0717773,-0.0190735,0.000290728,0.0044321,0.00127846,0.00479497,-7.21449e-05,1.29423,0.00322097,0.0121139,1714,498,-0.0717451,0.0190682
497,526,-0.083374,-0.00772095,0.00057885,0.00461823,0.0018362,0.00532815,-0.00013107,1.20187,0.00359659,0.0189878,1721,498,-0.0833985,0.00772956
504,526,-0.168701,0.00994873,0.000755598,0.00504005,0.00223888,0.00599648,-0.00020084,1.16707,0.00406626,0.0249994,1728,498,-0.168722,-0.00993904
511,526,-0.366333,0.166412,0.000608772,0.00558523,0.00269397,0.00676426,-0.000570255,1.15826,0.00471111,0.0349775,1735,498,-0.366324,-0.16641
518,526,-1.07776,0.387268,0,0,0,0,0,0,0,-1,1742,498,-1.07778,-0.38726
525,526,-0.114868,-0.296844,-0.000100556,0.00473863,0.00379171,0.00681698,-0.0021789,1.06939,0.00541899,0.0468327,1749,498,-0.114889,0.296856
532,526,0.0583496,-0.262207,-0.000831066,0.00408986,0.00405762,0.00637473,-0.00311594,1.05795,0.00558607,0.0476272,1756,498,0.058365,0.262193
539,526,-0.0472412,-0.344879,-0.00191821,0.00303406,0.00463281,0.00581094,-0.00469509,1.03082,0.00607705,0.0463303,1763,498,-0.0472339,0.344883
546,526,0.0858154,-0.296844,-0.00363392,0.00215822,0.00511892,0.00514352,-0.00661922,1.04283,0.00680901,0.046088,1770,498,0.0858545,0.296836
553,526,0.239014,-0.14209,0,0,0,0,0,0,0,-1,1777,498,0.238996,0.142076
560,526,0,0,0,0,0,0,0,0,0,-1,1784,498,0,0
567,526,0,0,0,0,0,0,0,0,0,-1,1791,498,0,0
574,526,0,0,0,0,0,0,0,0,0,-1,1798,498,0,0
581,526,0,0,0,0,0,0,0,0,0,-1,1805,498,0,0
588,526,0,0,0,0,0,0,0,0,0,-1,1812,498,0,0
595,526,0,0,0,0,0,0,0,0,0,-1,1819,498,0,0
602,526,0,0,0,0,0,0,0,0,0,-1,1826,498,0,0
609,526,0,0,0,0,0,0,0,0,0,-1,1833,498,0,0
616,526,0,0,0,0,0,0,0,0,0,-1,1840,498,0,0
623,526,0,0,0,0,0,0,0,0,0,-1,1847,498,0,0
630,526,0,0,0,0,0,0,0,0,0,-1,1854,498,0,0
637,526,0,0,0,0,0,0,0,0,0,-1,1861,498,0,0
644,526,0,0,0,0,0,0,0,0,0,-1,1868,498,0,0
651,526,0,0,0,0,0,0,0,0,0,-1,1875,498,0,0
658,526,0,0,0,0,0,0,0,0,0,-1,1882,498,0,0
665,526,0,0,0,0,0,0,0,0,0,-1,1889,498,0,0
672,526,0,0,0,0,0,0,0,0,0,-1,1896,498,0,0
679,526,0,0,0,0,0,0,0,0,0,-1,1903,498,0,0
686,526,0,0,0,0,0,0,0,0,0,-1,1910,498,0,0
693,526,0,0,0,0,0,0,0,0,0,-1,1917,498,0,0
700,526,0,0,0,0,0,0,0,0,0,-1,1924,498,0,0
707,526,0,0,0,0,0,0,0,0,0,-1,1931,498,0,0
714,526,0,0,0,0,0,0,0,0,0,-1,1938,498,0,0
721,526,0,0,0,0,0,0,0,0,0,-1,1945,498,0,0
728,526,0,0,0,0,0,0,0,0,0,-1,1952,498,0,0
735,526,0,0,0,0,0,0,0,0,0,-1,1959,498,0,0
742,526,0,0,0,0,0,0,0,0,0,-1,1966,498,0,0
749,526,0,0,0,0,0,0,0,0,0,-1,1973,498,0,0
756,526,0,0,0,0,0,0,0,0,0,-1,1980,498,0,0
763,526,0,0,0,0,0,0,0,0,0,-1,1987,498,0,0
770,526,0,0,0,0,0,0,0,0,0,-1,1994,498,0,0
777,526,0,0,0,0,0,0,0,0,0,-1,2001,498,0,0
784,526,0,0,0,0,0,0,0,0,0,-1,2008,498,0,0
791,526,0,0,0,0,0,0,0,0,0,-1,2015,498,0,0
798,526,0,0,0,0,0,0,0,0,0,-1,2022,498,0,0
805,526,0,0,0,0,0,0,0,0,0,-1,2029,498,0,0
812,526,0,0,0,0,0,0,0,0,0,-1,2036,498,0,0
-700,519,0,0,0,0,0,0,0,0,0,-1,524,505,0,0
-693,519,0,0,0,0,0,0,0,0,0,-1,531,505,0,0
-686,519,0,0,0,0,0,0,0,0,0,-1,538,505,0,0
-679,519,0,0,0,0,0,0,0,0,0,-1,545,505,0,0
-672,519,0,0,0,0,0,0,0,0,0,-1,552,505,0,0
-665,519,0,0,0,0,0,0,0,0,0,-1,559,505,0,0
-658,519,0,0,0,0,0,0,0,0,0,-1,566,505,0,0
-651,519,0,0,0,0,0,0,0,0,0,-1,573,505,0,0
-644,519,0,0,0,0,0,0,0,0,0,-1,580,505,0,0
-637,519,0,0,0,0,0,0,0,0,0,-1,587,505,0,0
-630,519,0,0,0,0,0,0,0,0,0,-1,594,505,0,0
-623,519,0,0,0,0,0,0,0,0,0,-1,601,505,0,0
-616,519,0,0,0,0,0,0,0,0,0,-1,608,505,0,0
-609,519,0,0,0,0,0,0,0,0,0,-1,615,505,0,0
-602,519,0,0,0,0,0,0,0,0,0,-1,622,505,0,0
-595,519,0,0,0,0,0,0,0,0,0,-1,629,505,0,0
-588,519,0,0,0,0,0,0,0,0,0,-1,636,505,0,0
-581,519,0,0,0,0,0,0,0,0,0,-1,643,505,0,0
-574,519,0,0,0,0,0,0,0,0,0,-1,650,505,0,0
-567,519,0,0,0,0,0,0,0,0,0,-1,657,505,0,0
-560,519,0,0,0,0,0,0,0,0,0,-1,664,505,0,0
-553,519,0,0,0,0,0,0,0,0,0,-1,671,505,0,0
-546,519,0,0,0,0,0,0,0,0,0,-1,678,505,0,0
-539,519,0,0,0,0,0,0,0,0,0,-1,685,505,0,0
-532,519,0,0,0,0,0,0,0,0,0,-1,692,505,0,0
-525,519,0,0,0,0,0,0,0,0,0,-1,699,505,0,0
-518,519,0,0,0,0,0,0,0,0,0,-1,706,505,0,0
-511,519,0,0,0,0,0,0,0,0,0,-1,713,505,0,0
-504,519,0,0,0,0,0,0,0,0,0,-1,720,505,0,0
-497,519,0,0,0,0,0,0,0,0,0,-1,727,505,0,0
-490,519,0,0,0,0,0,0,0,0,0,-1,734,505,0,0
-483,519,0,0,0,0,0,0,0,0,0,-1,741,505,0,0
-476,519,0,0,0,0,0,0,0,0,0,-1,748,505,0,0
-469,519,0,0,0,0,0,0,0,0,0,-1,755,505,0,0
-462,519,0,0,0,0,0,0,0,0,0,-1,762,505,0,0
-455,519,0,0,0,0,0,0,0,0,0,-1,769,505,0,0
-448,519,0,0,0,0,0,0,0,0,0,-1,776,505,0,0
-441,519,1.90375,-0.45993,-0.0222944,0.0172659,-0.0141923,0.0218307,-0.0268592,-1.25961,0.0281611,0.0416159,783,505,1.90377,0.459937
-434,519,1.25787,-0.367493,-0.0191102,0.0111644,-0.00857854,0.0134262,-0.021372,-1.313,0.0202646,0.0451632,790,505,1.25787,0.367489
-427,519,0.822205,-0.1698,-0.01539,0.00529912,-0.00380018,0.00597506,-0.0160659,-1.39477,0.0131624,0.0480806,797,505,0.822225,0.169814
-420,519,0.280945,-0.100037,0,0,0,0,0,0,0,-1,804,505,0.280953,0.100041
-413,519,-0.281982,-0.193329,-0.00900485,-0.00171602,0.00180572,-0.0012932,-0.00942767,1.34079,0.00590147,0.0466428,811,505,-0.28201,0.193327
-406,519,-0.349792,-0.326416,-0.00618481,-0.00375638,0.00314727,-0.00159722,-0.00834396,0.9695,0.00511406,0.0450725,818,505,-0.349796,0.326431
-399,519,-0.0792847,-0.476471,0,0,0,0,0,0,0,-1,825,505,-0.079263,0.476463
-392,519,0.0247192,-0.4534,-0.00221919,-0.00459233,0.00293343,-0.000241441,-0.00657008,0.593209,0.00430183,0.048439,832,505,0.0247179,0.453389
-385,519,0.0929565,0.00662231,-0.000693501,-0.00295508,0.00174605,0.000255941,-0.00390452,0.498045,0.00269239,0.0401414,839,505,0.0929545,-0.00662496
-378,519,0.00543213,0.0279236,0.000152497,-0.00237293,0.000980976,0.00048877,-0.00270921,0.330241,0.00198918,0.0273748,846,505,0.00542157,-0.0279133
-371,519,-0.0679321,-0.0125122,0.000816563,-0.00195521,0.000463832,0.000892121,-0.00203077,0.161482,0.00172969,0.0157005,853,505,-0.0679413,0.0125006
-364,519,-0.0793457,-0.0300903,0.000652455,-7.71609e-06,-0.000548339,0.000962395,-0.000317655,-0.514463,0.000769652,0.00941438,860,505,-0.0793294,0.0300897
-357,519,-0.0645142,-0.0314941,0.000319173,0.00179043,-0.00134271,0.00258582,-0.000476214,-1.036,0.00190259,0.00889196,867,505,-0.0645415,0.0314986
-350,519,-0.052002,-0.0209656,-6.93362e-05,0.00293898,-0.00192811,0.00388024,-0.0010106,-1.11665,0.00298135,0.0107458,874,505,-0.0519983,0.0209648
-343,519,-0.0580444,-0.0192261,-9.57635e-05,0.00355464,-0.00214373,0.00454493,-0.00108605,-1.13806,0.00344943,0.0142772,881,505,-0.0580508,0.0192229
-336,519,-0.0827026,-0.0350952,8.4024e-05,0.00375461,-0.00238502,0.00492874,-0.0010901,-1.11333,0.00370307,0.0131898,888,505,-0.0826892,0.0350989
-329,519,-0.0877075,-0.0335999,8.37522e-05,0.00385986,-0.00178236,0.00456825,-0.000624645,-1.19249,0.00327364,0.010527,895,505,-0.087718,0.0336096
-322,519,-0.0709229,-0.0444946,0.00083564,0.00404503,-0.0012665,0.00448461,0.000396056,-1.23672,0.00286686,0.00878053,902,505,-0.0709403,0.0445008
-315,519,-0.0656128,-0.0471802,0.00239397,0.00455216,6.79998e-05,0.0045543,0.00239183,1.53933,0.00263054,0.00787971,909,505,-0.0656298,0.0471838
-308,519,-0.0822144,-0.0502319,0.00323422,0.00458941,0.000996526,0.00511689,0.00270675,1.08397,0.00295589,0.00753551,916,505,-0.0821862,0.0502362
-301,519,-0.0672607,-0.0674438,0.00397681,0.0046551,0.00177717,0.0061252,0.00250671,0.879682,0.00355575,0.0110564,923,505,-0.0672839,0.0674509
-294,519,-0.0593262,-0.0479431,0.00465065,0.00410927,0.00205877,0.00645645,0.00230347,0.720033,0.00377827,0.0126819,930,505,-0.0593191,0.0479519
-287,519,-0.0845947,-0.0398254,0.005474,0.00383725,0.00219071,0.00699421,0.00231704,0.606642,0.00411403,0.00956236,937,505,-0.0845691,0.0398223
-280,519,-0.100769,-0.0456848,0.00454193,0.00326827,0.00186334,0.00587427,0.00193594,0.620737,0.00345656,0.0123054,944,505,-0.100759,0.0456741
-273,519,-0.0929565,-0.0369568,0.0033425,0.00299731,0.00124654,0.00442834,0.00191147,0.716607,0.00256466,0.0126746,951,505,-0.0929425,0.0369631
-266,519,-0.0526123,-0.0367126,0.00518818,0.0024435,-0.000171767,0.00519889,0.00243279,-0.0622581,0.00300364,0.0140529,958,505,-0.0526111,0.036723
-259,519,-0.0521851,-0.0629883,0.00675162,0.00114058,-0.00232767,0.00759151,0.000300691,-0.346287,0.00496381,0.0271146,965,505,-0.0521927,0.0629821
-252,519,-0.254272,-0.103424,0.00782797,0.000642886,-0.00522333,0.0105749,-0.00210409,-0.484157,0.00784595,0.0383703,972,505,-0.254288,0.103425
-245,519,-0.296692,-0.0264893,0.0093472,-0.000189754,-0.00819901,0.0140636,-0.00490611,-0.522011,0.0113696,0.041003,979,505,-0.29672,0.0264835
-238,519,0.556274,0.0528564,0.012028,-0.00160021,-0.0108046,0.0179878,-0.00756001,-0.504067,0.015154,0.042123,986,505,0.556297,-0.0528586
-231,519,-0.0994873,-0.416443,0.0164494,-0.0021965,-0.0136759,0.0236778,-0.00942494,-0.486227,0.0196935,0.0426324,993,505,-0.0994671,0.416448
-224,519,-0.843506,-0.600861,0,0,0,0,0,0,0,-1,1000,505,-0.843516,0.600857
-217,519,1.48041,0.559875,0.0255412,-0.000389259,-0.0181887,0.0349126,-0.00976069,-0.47576,0.0271206,0.0430683,1007,505,1.48041,-0.55986
-210,519,1.78693,0.730713,0.0282517,0.000522199,-0.0210353,0.0395805,-0.0108066,-0.494019,0.0306314,0.0421913,1014,505,1.78695,-0.730726
-203,519,2.10046,0.935455,0,0,0,0,0,0,0,-1,1021,505,2.10046,-0.935459
-196,519,2.49976,1.43378,0,0,0,0,0,0,0,-1,1028,505,2.49973,-1.43379
-189,519,-1.79773,0.709656,0,0,0,0,0,0,0,-1,1035,505,-1.79771,-0.70965
-182,519,-1.36121,-0.207214,0,0,0,0,0,0,0,-1,1042,505,-1.36122,0.207217
-175,519,-0.924683,-1.12408,0,0,0,0,0,0,0,-1,1049,505,-0.924743,1.12408
-168,519,-0.569702,-1.92618,0.0318706,0.00654332,-0.012688,0.0371333,0.00128061,-0.393181,0.0243399,0.0468371,1056,505,-0.569759,1.92619
-161,519,-0.727905,-1.82294,0.0178528,0.00559531,-0.0101038,0.0235413,-9.32589e-05,-0.512778,0.0157254,0.0440068,1063,505,-0.72791,1.82293
-154,519,0.0743408,-0.172333,0,0,0,0,0,0,0,-1,1070,505,0.0743599,0.172342
-147,519,0.319092,-0.339935,0,0,0,0,0,0,0,-1,1077,505,0.319051,0.339942
-140,519,0.389893,-0.309967,0,0,0,0,0,0,0,-1,1084,505,0.389841,0.309972
-133,519,0.27478,-0.0177307,0,0,0,0,0,0,0,-1,1091,505,0.274801,0.0177372
-126,519,0,0,0,0,0,0,0,0,0,-1,1098,505,0,0
-119,519,0,0,0,0,0,0,0,0,0,-1,1105,505,0,0
-112,519,0,0,0,0,0,0,0,0,0,-1,1112,505,0,0
-105,519,0,0,0,0,0,0,0,0,0,-1,1119,505,0,0
-98,519,0,0,0,0,0,0,0,0,0,-1,1126,505,0,0
-91,519,0,0,0,0,0,0,0,0,0,-1,1133,505,0,0
-84,519,0,0,0,0,0,0,0,0,0,-1,1140,505,0,0
-77,519,0,0,0,0,0,0,0,0,0,-1,1147,505,0,0
-70,519,0,0,0,0,0,0,0,0,0,-1,1154,505,0,0
-63,519,0,0,0,0,0,0,0,0,0,-1,1161,505,0,0
-56,519,0,0,0,0,0,0,0,0,0,-1,1168,505,0,0
-49,519,0,0,0,0,0,0,0,0,0,-1,1175,505,0,0
-42,519,0,0,0,0,0,0,0,0,0,-1,1182,505,0,0
-35,519,0,0,0,0,0,0,0,0,0,-1,1189,505,0,0
-28,519,0,0,0,0,0,0,0,0,0,-1,1196,505,0,0
-21,519,0,0,0,0,0,0,0,0,0,-1,1203,505,0,0
-14,519,0,0,0,0,0,0,0,0,0,-1,1210,505,0,0
-7,519,0,0,0,0,0,0,0,0,0,-1,1217,505,0,0
0,519,0,0,0,0,0,0,0,0,0,-1,1224,505,0,0
7,519,0,0,0,0,0,0,0,0,0,-1,1231,505,0,0
14,519,0,0,0,0,0,0,0,0,0,-1,1238,505,0,0
21,519,0,0,0,0,0,0,0,0,0,-1,1245,505,0,0
28,519,0,0,0,0,0,0,0,0,0,-1,1252,505,0,0
35,519,0,0,0,0,0,0,0,0,0,-1,1259,505,0,0
42,519,0,0,0,0,0,0,0,0,0,-1,1266,505,0,0
49,519,0,0,0,0,0,0,0,0,0,-1,1273,505,0,0
56,519,0,0,0,0,0,0,0,0,0,-1,1280,505,0,0
63,519,0,0,0,0,0,0,0,0,0,-1,1287,505,0,0
70,519,0,0,0,0,0,0,0,0,0,-1,1294,505,0,0
77,519,0,0,0,0,0,0,0,0,0,-1,1301,505,0,0
84,519,0,0,0,0,0,0,0,0,0,-1,1308,505,0,0
91,519,0,0,0,0,0,0,0,0,0,-1,1315,505,0,0
98,519,0,0,0,0,0,0,0,0,0,-1,1322,505,0,0
105,519,0,0,0,0,0,0,0,0,0,-1,1329,505,0,0
112,519,0,0,0,0,0,0,0,0,0,-1,1336,505,0,0
119,519,0,0,0,0,0,0,0,0,0,-1,1343,505,0,0
126,519,0,0,0,0,0,0,0,0,0,-1,1350,505,0,0
133,519,0,0,0,0,0,0,0,0,0,-1,1357,505,0,0
140,519,0,0,0,0,0,0,0,0,0,-1,1364,505,0,0
147,519,0,0,0,0,0,0,0,0,0,-1,1371,505,0,0
154,519,0,0,0,0,0,0,0,0,0,-1,1378,505,0,0
161,519,0,0,0,0,0,0,0,0,0,-1,1385,505,0,0
168,519,0,0,0,0,0,0,0,0,0,-1,1392,505,0,0
175,519,0,0,0,0,0,0,0,0,0,-1,1399,505,0,0
182,519,0,0,0,0,0,0,0,0,0,-1,1406,505,0,0
189,519,0,0,0,0,0,0,0,0,0,-1,1413,505,0,0
196,519,0,0,0,0,0,0,0,0,0,-1,1420,505,0,0
203,519,0,0,0,0,0,0,0,0,0,-1,1427,505,0,0
210,519,0,0,0,0,0,0,0,0,0,-1,1434,505,0,0
217,519,0,0,0,0,0,0,0,0,0,-1,1441,505,0,0
224,519,0,0,0,0,0,0,0,0,0,-1,1448,505,0,0
231,519,0,0,0,0,0,0,0,0,0,-1,1455,505,0,0
238,519,0,0,0,0,0,0,0,0,0,-1,1462,505,0,0
245,519,0,0,0,0,0,0,0,0,0,-1,1469,505,0,0
252,519,-1.66187,-0.757111,0,0,0,0,0,0,0,-1,1476,505,-1.66189,0.757099
259,519,-1.66968,-0.415375,0.00914637,-0.00195294,0.0123819,0.0171654,-0.00997199,0.574717,0.0158502,0.0464756,1483,505,-1.66966,0.415383
266,519,-1.58447,-0.375427,0.0127472,-0.0121133,0.0160732,0.0206359,-0.020002,0.456258,0.0234633,0.0448048,1490,505,-1.58441,0.375415
273,519,-1.4939,-0.222748,0.01765,-0.0201392,0.0192657,0.02574,-0.0282293,0.397561,0.0311702,0.0426205,1497,505,-1.49386,0.222756
280,519,-1.547,-0.175598,0.0252633,-0.0277623,0.0225143,0.033533,-0.036032,0.35201,0.040172,0.0406928,1504,505,-1.54704,0.175609
287,519,-2.00208,0.640778,0,0,0,0,0,0,0,-1,1511,505,-2.00202,-0.640769
294,519,-1.89966,0.386017,0.0422117,-0.0310326,0.0219903,0.0483067,-0.0371276,0.270381,0.0494661,0.0497592,1518,505,-1.89963,-0.386031
301,519,-1.55554,0.312988,0.0485875,-0.0304068,0.0205331,0.0536059,-0.0354252,0.239706,0.0517582,0.0468266,1525,505,-1.55549,-0.312991
308,519,-0.83728,0.307556,0.0527168,-0.0280492,0.019575,0.057211,-0.0325434,0.22568,0.052468,0.0429456,1532,505,-0.837294,-0.307544
315,519,-0.00488281,0.305267,0.0540977,-0.0244863,0.0178396,0.0579579,-0.0283465,0.213099,0.0507961,0.0437349,1539,505,-0.00493028,-0.305271
322,519,0.573486,0.558289,0.053427,-0.01921,0.0162421,0.0568934,-0.0226764,0.210267,0.0473344,0.0442289,1546,505,0.573451,-0.558284
329,519,1.56226,0.353638,0,0,0,0,0,0,0,-1,1553,505,1.56231,-0.353634
336,519,2.59436,0.0550537,0.0474148,-0.0111398,0.0134309,0.0503485,-0.0140735,0.215052,0.0391102,0.0452739,1560,505,2.59431,-0.055051
343,519,3.54102,-0.452667,0.0431781,-0.00698953,0.0107544,0.0453863,-0.00919775,0.202517,0.0337439,0.0489638,1567,505,3.54097,0.452664
350,519,0.500244,-0.494415,0.038011,-0.00364102,0.00834151,0.0396194,-0.00524944,0.190483,0.0283254,0.0464757,1574,505,0.500296,0.494414
357,519,0.355713,-0.379395,0.0315118,-0.00166036,0.00569845,0.0324634,-0.00261197,0.165467,0.0225633,0.0493341,1581,505,0.355753,0.379408
364,519,0.737183,-0.45285,0.0250358,-5.45164e-05,0.00359013,0.0255394,-0.000558113,0.139363,0.0172153,0.0442561,1588,505,0.737214,0.452837
371,519,0.5354,-0.299927,0.0198465,0.001362,0.00158464,0.0199814,0.00122714,0.0849025,0.0129313,0.0380673,1595,505,0.535363,0.299924
378,519,0.164063,-0.10965,0.0151312,0.00291142,-0.000145027,0.0151329,0.0029097,-0.011866,0.00927213,0.0373516,1602,505,0.164022,0.109659
385,519,-0.106201,-0.0770569,0.0114462,0.00316929,-0.00159099,0.0117414,0.002874,-0.183512,0.00706718,0.0351348,1609,505,-0.106219,0.0770444
392,519,-0.11377,-0.00915527,0.00815167,0.00356259,-0.00218883,0.00902823,0.00268603,-0.380912,0.00535303,0.0258256,1616,505,-0.113798,0.00916672
399,519,-0.0888672,-0.0325012,0.00685799,0.00338846,-0.00230832,0.00801074,0.00223571,-0.46316,0.0047731,0.0186646,1623,505,-0.0888741,0.0325149
406,519,-0.0523682,-0.039856,0.00620961,0.00235127,-0.00219414,0.00720207,0.00135881,-0.424785,0.00441864,0.0161034,1630,505,-0.0523262,0.0398455
413,519,-0.0772705,-0.031311,0.0050634,0.00155961,-0.00207273,0.00602542,0.000597592,-0.434544,0.00383331,0.0127426,1637,505,-0.0773228,0.031296
420,519,-0.0994873,-0.0378418,0.00373837,0.00105107,-0.0016619,0.00453185,0.000257596,-0.445446,0.00293913,0.0142924,1644,505,-0.0994541,0.0378427
427,519,-0.0877686,-0.0448914,0.00278589,0.000309731,-0.00122919,0.00329245,-0.000196824,-0.390897,0.00226343,0.0121715,1651,505,-0.087728,0.0448874
434,519,-0.0703125,-0.0456848,0.00183451,-6.56708e-05,-0.00111591,0.00235,-0.000581159,-0.432743,0.00179208,0.0110705,1658,505,-0.0702817,0.0456737
441,519,-0.0827637,-0.0357361,0.000871339,-0.000159558,-0.000726401,0.00124659,-0.000534809,-0.476831,0.0010555,0.0113349,1665,505,-0.0827185,0.0357365
448,519,-0.0958252,-0.0352783,0.00043758,-0.000833848,0.000200621,0.000468485,-0.000864753,0.152846,0.000780997,0.00873659,1672,505,-0.0958348,0.0352654
455,519,-0.0981445,-0.0682678,0.000357397,-0.000223435,0.000275505,0.000467286,-0.000333325,0.379528,0.000464385,0.0100991,1679,505,-0.0981722,0.0682568
462,519,-0.0887451,-0.063385,0.000298766,0.000975828,0.000550715,0.00128374,-9.14722e-06,1.06098,0.000858893,0.0101245,1686,505,-0.0887522,0.0633735
469,519,-0.0615234,-0.043457,5.4318e-05,0.0017573,0.000718868,0.00202017,-0.000208556,1.22022,0.00142141,0.00980219,1693,505,-0.0615618,0.0434556
476,519,-0.069458,-0.037262,-6.03289e-05,0.0024654,0.000784695,0.00268933,-0.000284264,1.29281,0.00189477,0.0111985,1700,505,-0.0694095,0.0372656
483,519,-0.0726318,-0.0411987,0.000119165,0.00309926,0.000857946,0.00332861,-0.000110181,1.30958,0.00225669,0.0115572,1707,505,-0.0725867,0.0412112
490,519,-0.0720215,-0.0315552,0.000321173,0.00355866,0.00118409,0.0039455,-6.56749e-05,1.25502,0.0026525,0.00995423,1714,505,-0.0720073,0.0315543
497,519,-0.0645752,-0.0417175,0.000673957,0.0037341,0.0016589,0.00446081,-5.27571e-05,1.15791,0.00299161,0.0123718,1721,505,-0.0645175,0.0417136
504,519,-0.0609131,-0.0472717,0.00095519,0.00411136,0.00198976,0.00507286,-6.31204e-06,1.12066,0.00338401,0.0120056,1728,505,-0.0609535,0.0472809
511,519,-0.0926514,-0.0634155,0.000875705,0.00453661,0.00238215,0.00571035,-0.000298034,1.11299,0.00391003,0.016573,1735,505,-0.092605,0.0634111
518,519,-0.147827,-0.0671082,0.000603108,0.0040014,0.00306149,0.00580365,-0.00119915,1.03874,0.00432459,0.031946,1742,505,-0.147798,0.0671033
525,519,-0.286743,-0.159119,0.00024009,0.00388115,0.00333699,0.00586191,-0.00174067,1.03511,0.0045993,0.0414545,1749,505,-0.28675,0.159118
532,519,0.255737,-0.512695,-0.000498198,0.00342874,0.0035987,0.00556477,-0.00263423,1.03513,0.00483343,0.0461659,1756,505,0.255691,0.512701
539,519,0.344482,-0.434052,0,0,0,0,0,0,0,-1,1763,505,0.344447,0.434064
546,519,0.143799,-0.253876,-0.00321165,0.00206339,0.00451151,0.00465179,-0.00580005,1.04992,0.0060465,0.0425773,1770,505,0.143763,0.253878
553,519,-0.0535889,0.107727,-0.00543879,0.0013819,0.0045909,0.00369054,-0.00774743,1.10485,0.00674076,0.0438467,1777,505,-0.053615,-0.10774
560,519,-0.216919,0.193176,-0.0089186,0.000113763,0.00423798,0.00179083,-0.0105957,1.19398,0.00773018,0.0429906,1784,505,-0.216931,-0.193161
567,519,0,0,0,0,0,0,0,0,0,-1,1791,505,0,0
574,519,0,0,0,0,0,0,0,0,0,-1,1798,505,0,0
581,519,0,0,0,0,0,0,0,0,0,-1,1805,505,0,0
588,519,0,0,0,0,0,0,0,0,0,-1,1812,505,0,0
595,519,0,0,0,0,0,0,0,0,0,-1,1819,505,0,0
602,519,0,0,0,0,0,0,0,0,0,-1,1826,505,0,0
609,519,0,0,0,0,0,0,0,0,0,-1,1833,505,0,0
616,519,0,0,0,0,0,0,0,0,0,-1,1840,505,0,0
623,519,0,0,0,0,0,0,0,0,0,-1,1847,505,0,0
630,519,0,0,0,0,0,0,0,0,0,-1,1854,505,0,0
637,519,0,0,0,0,0,0,0,0,0,-1,1861,505,0,0
644,519,0,0,0,0,0,0,0,0,0,-1,1868,505,0,0
651,519,0,0,0,0,0,0,0,0,0,-1,1875,505,0,0
658,519,0,0,0,0,0,0,0,0,0,-1,1882,505,0,0
665,519,0,0,0,0,0,0,0,0,0,-1,1889,505,0,0
672,519,0,0,0,0,0,0,0,0,0,-1,1896,505,0,0
679,519,0,0,0,0,0,0,0,0,0,-1,1903,505,0,0
686,519,0,0,0,0,0,0,0,0,0,-1,1910,505,0,0
693,519,0,0,0,0,0,0,0,0,0,-1,1917,505,0,0
700,519,0,0,0,0,0,0,0,0,0,-1,1924,505,0,0
707,519,0,0,0,0,0,0,0,0,0,-1,1931,505,0,0
714,519,0,0,0,0,0,0,0,0,0,-1,1938,505,0,0
721,519,0,0,0,0,0,0,0,0,0,-1,1945,505,0,0
728,519,0,0,0,0,0,0,0,0,0,-1,1952,505,0,0
735,519,0,0,0,0,0,0,0,0,0,-1,1959,505,0,0
742,519,0,0,0,0,0,0,0,0,0,-1,1966,505,0,0
749,519,0,0,0,0,0,0,0,0,0,-1,1973,505,0,0
756,519,0,0,0,0,0,0,0,0,0,-1,1980,505,0,0
763,519,0,0,0,0,0,0,0,0,0,-1,1987,505,0,0
770,519,0,0,0,0,0,0,0,0,0,-1,1994,505,0,0
777,519,0,0,0,0,0,0,0,0,0,-1,2001,505,0,0
784,519,0,0,0,0,0,0,0,0,0,-1,2008,505,0,0
791,519,0,0,0,0,0,0,0,0,0,-1,2015,505,0,0
798,519,0,0,0,0,0,0,0,0,0,-1,2022,505,0,0
805,519,0,0,0,0,0,0,0,0,0,-1,2029,505,0,0
812,519,0,0,0,0,0,0,0,0,0,-1,2036,505,0,0
-700,512,0,0,0,0,0,0,0,0,0,-1,524,512,0,0
-693,512,0,0,0,0,0,0,0,0,0,-1,531,512,0,0
-686,512,0,0,0,0,0,0,0,0,0,-1,538,512,0,0
-679,512,0,0,0,0,0,0,0,0,0,-1,545,512,0,0
-672,512,0,0,0,0,0,0,0,0,0,-1,552,512,0,0
-665,512,0,0,0,0,0,0,0,0,0,-1,559,512,0,0
-658,512,0,0,0,0,0,0,0,0,0,-1,566,512,0,0
-651,512,0,0,0,0,0,0,0,0,0,-1,573,512,0,0
-644,512,0,0,0,0,0,0,0,0,0,-1,580,512,0,0
-637,512,0,0,0,0,0,0,0,0,0,-1,587,512,0,0
-630,512,0,0,0,0,0,0,0,0,0,-1,594,512,0,0
-623,512,0,0,0,0,0,0,0,0,0,-1,601,512,0,0
-616,512,0,0,0,0,0,0,0,0,0,-1,608,512,0,0
-609,512,0,0,0,0,0,0,0,0,0,-1,615,512,0,0
-602,512,0,0,0,0,0,0,0,0,0,-1,622,512,0,0
-595,512,0,0,0,0,0,0,0,0,0,-1,629,512,0,0
-588,512,0,0,0,0,0,0,0,0,0,-1,636,512,0,0
-581,512,0,0,0,0,0,0,0,0,0,-1,643,512,0,0
-574,512,0,0,0,0,0,0,0,0,0,-1,650,512,0,0
-567,512,0,0,0,0,0,0,0,0,0,-1,657,512,0,0
-560,512,0,0,0,0,0,0,0,0,0,-1,664,512,0,0
-553,512,0,0,0,0,0,0,0,0,0,-1,671,512,0,0
-546,512,0,0,0,0,0,0,0,0,0,-1,678,512,0,0
-539,512,0,0,0,0,0,0,0,0,0,-1,685,512,0,0
-532,512,0,0,0,0,0,0,0,0,0,-1,692,512,0,0
-525,512,0,0,0,0,0,0,0,0,0,-1,699,512,0,0
-518,512,0,0,0,0,0,0,0,0,0,-1,706,512,0,0
-511,512,0,0,0,0,0,0,0,0,0,-1,713,512,0,0
-504,512,0,0,0,0,0,0,0,0,0,-1,720,512,0,0
-497,512,0,0,0,0,0,0,0,0,0,-1,727,512,0,0
-490,512,0,0,0,0,0,0,0,0,0,-1,734,512,0,0
-483,512,0,0,0,0,0,0,0,0,0,-1,741,512,0,0
-476,512,0,0,0,0,0,0,0,0,0,-1,748,512,0,0
-469,512,0,0,0,0,0,0,0,0,0,-1,755,512,0,0
-462,512,0,0,0,0,0,0,0,0,0,-1,762,512,0,0
-455,512,0,0,0,0,0,0,0,0,0,-1,769,512,0,0
-448,512,2.57422,-0.66095,-0.0182054,0.0246232,-0.0211438,0.0333026,-0.0268849,-1.18127,0.0348151,0.0390069,776,512,2.57423,0.660975
-441,512,2.13495,-0.337463,-0.0181611,0.0183654,-0.0129935,0.022516,-0.0223116,-1.26161,0.0258813,0.0431805,783,512,2.13494,0.337463
-434,512,1.49579,-0.591858,-0.0162987,0.0127422,-0.00750731,0.0145681,-0.0181246,-1.33221,0.0189123,0.0463573,790,512,1.49581,0.591875
-427,512,1.00171,-0.689514,-0.0136556,0.00763293,-0.00309642,0.00807416,-0.0140968,-1.42925,0.0129569,0.048393,797,512,1.00168,0.689544
-420,512,0.499573,-0.515198,0,0,0,0,0,0,0,-1,804,512,0.499568,0.515197
-413,512,-0.464844,-0.236938,0,0,0,0,0,0,0,-1,811,512,-0.46484,0.236939
-406,512,-0.645325,-0.594727,-0.00612313,-0.00136493,0.00338673,0.000394815,-0.00788288,1.09159,0.00539168,0.0439661,818,512,-0.645355,0.594732
-399,512,-0.156982,-0.302979,0,0,0,0,0,0,0,-1,825,512,-0.157001,0.302959
-392,512,-0.0811768,-0.159912,-0.00239862,-0.00268679,0.00307559,0.000536257,-0.00562166,0.761991,0.00393871,0.0307781,832,512,-0.081159,0.159916
-385,512,-0.06073,-0.0489502,-0.000910454,-0.00257791,0.00258884,0.000975598,-0.00446396,0.629619,0.00334888,0.0161236,839,512,-0.060702,0.0489472
-378,512,-0.0643311,-0.0118408,-8.30252e-05,-0.00270346,0.00206979,0.00105639,-0.00384288,0.503226,0.00297719,0.0136158,846,512,-0.0643226,0.0118185
-371,512,-0.0685425,-0.027832,0.000540113,-0.00294873,0.00172484,0.00124887,-0.00365749,0.389878,0.00294427,0.0108662,853,512,-0.068518,0.0278286
-364,512,-0.0728149,-0.0401001,0.000376511,-0.00185001,0.00107725,0.000812384,-0.00228589,0.38448,0.00185499,0.00863004,860,512,-0.0727989,0.0401257
-357,512,-0.0645752,-0.0512695,5.32991e-05,-0.000702307,0.000587965,0.00037438,-0.00102339,0.499835,0.000835495,0.010061,867,512,-0.0645646,0.051275
-350,512,-0.0561523,-0.0584717,-0.00034692,0.000119077,0.000211966,0.000201067,-0.00042891,1.20171,0.000371562,0.0107316,874,512,-0.0561305,0.0584584
-343,512,-0.0610962,-0.0504761,-0.000420354,0.00060396,5.12963e-05,0.000606523,-0.000422917,1.52088,0.00059749,0.0108237,881,512,-0.0610729,0.0505028
-336,512,-0.0717163,-0.0405884,-0.000463482,0.000954878,-0.000198671,0.00098218,-0.000490784,-1.43423,0.000866047,0.00975142,888,512,-0.0717153,0.0405695
-329,512,-0.0775757,-0.0443726,-0.000694144,0.0013414,0.000183677,0.00135784,-0.000710585,1.48152,0.00121354,0.00917831,895,512,-0.0775521,0.0443547
-322,512,-0.0702515,-0.0603027,6.03681e-05,0.00195269,0.000532717,0.00209235,-7.92918e-05,1.3144,0.00142207,0.00806001,902,512,-0.070244,0.0602877
-315,512,-0.0620117,-0.0646362,0.0017502,0.00329102,0.00176332,0.00444489,0.000596336,0.991355,0.00278584,0.00870532,909,512,-0.061991,0.0646515
-308,512,-0.0695801,-0.0565796,0.00262903,0.00404589,0.0025669,0.00600032,0.000674598,0.92004,0.00379539,0.00979778,916,512,-0.0695912,0.0566052
-301,512,-0.0673218,-0.0699463,0.00331371,0.00458339,0.00319965,0.00721057,0.000686525,0.883331,0.00459533,0.0139107,923,512,-0.0673436,0.0699754
-294,512,-0.0626221,-0.0529785,0.00384758,0.00443263,0.00327482,0.00742796,0.000852244,0.829942,0.00469375,0.0133954,930,512,-0.0626083,0.0530037
-287,512,-0.079834,-0.0408325,0.0046342,0.00452026,0.0032932,0.00787092,0.00128354,0.776749,0.00487608,0.0138779,937,512,-0.0798236,0.0408142
-280,512,-0.105103,-0.0759888,0.00340812,0.00435048,0.00263675,0.00655782,0.00120078,0.873813,0.00403167,0.0145896,944,512,-0.105083,0.0759995
-273,512,-0.0397949,-0.0617065,0.00174982,0.00393774,0.00191404,0.00504838,0.00063917,1.04501,0.00317406,0.0251166,951,512,-0.0398089,0.0617233
-266,512,0.5755,0.257629,0,0,0,0,0,0,0,-1,958,512,0.575497,-0.257626
-259,512,1.92212,0.868866,0,0,0,0,0,0,0,-1,965,512,1.92213,-0.868865
-252,512,1.80872,1.18289,0,0,0,0,0,0,0,-1,972,512,1.80873,-1.18289
-245,512,1.32141,0.670166,0.00738248,-0.000522797,-0.00925096,0.0134898,-0.00663016,-0.583503,0.0118392,0.0461068,979,512,1.32139,-0.670164
-238,512,0.81189,0.12146,0.0100902,-0.0022426,-0.0124929,0.0178557,-0.0100081,-0.556145,0.0162985,0.0466662,986,512,0.811869,-0.121454
-231,512,0.0401611,-0.398071,0.0148997,-0.00309844,-0.0161416,0.0243813,-0.01258,-0.531103,0.0216992,0.0448605,993,512,0.0401843,0.398097
-224,512,-0.50177,-0.992554,0,0,0,0,0,0,0,-1,1000,512,-0.501766,0.992579
-217,512,-0.78595,-1.79974,0.02475,-0.00188307,-0.0216083,0.0368155,-0.0139486,-0.50925,0.0302836,0.04567,1007,512,-0.785975,1.79974
-210,512,2.40735,0.928986,0.0274817,-0.0017331,-0.0249683,0.0418017,-0.016053,-0.520725,0.0344875,0.0455182,1014,512,2.40733,-0.929
-203,512,2.9151,0.973816,0.0311009,0.000630922,-0.0247751,0.0449505,-0.0132187,-0.509736,0.0352102,0.045493,1021,512,2.91511,-0.973809
-196,512,3.19751,1.16718,0,0,0,0,0,0,0,-1,1028,512,3.19756,-1.16717
-189,512,3.48303,1.37283,0,0,0,0,0,0,0,-1,1035,512,3.483,-1.37282
-182,512,-1.68176,-0.519165,0,0,0,0,0,0,0,-1,1042,512,-1.68181,0.519175
-175,512,-0.188232,-2.36481,0.0353803,0.00361412,-0.0165843,0.0424605,-0.00346605,-0.403496,0.0295302,0.0445406,1049,512,-0.188225,2.36483
-168,512,-0.529297,-2.05737,0.0344693,0.000957028,-0.0144183,0.0398187,-0.00439238,-0.355273,0.0281245,0.0452684,1056,512,-0.529249,2.05735
-161,512,-0.180786,-1.68463,0.0159908,-0.000534774,-0.010453,0.0210524,-0.00559634,-0.450946,0.0162253,0.0435897,1063,512,-0.180784,1.6846
-154,512,0.107056,-1.07721,0,0,0,0,0,0,0,-1,1070,512,0.1071,1.07722
-147,512,0,0,0,0,0,0,0,0,0,-1,1077,512,0,0
-140,512,0,0,0,0,0,0,0,0,0,-1,1084,512,0,0
-133,512,0,0,0,0,0,0,0,0,0,-1,1091,512,0,0
-126,512,0,0,0,0,0,0,0,0,0,-1,1098,512,0,0
-119,512,0,0,0,0,0,0,0,0,0,-1,1105,512,0,0
-112,512,0,0,0,0,0,0,0,0,0,-1,1112,512,0,0
-105,512,0,0,0,0,0,0,0,0,0,-1,1119,512,0,0
-98,512,0,0,0,0,0,0,0,0,0,-1,1126,512,0,0
-91,512,0,0,0,0,0,0,0,0,0,-1,1133,512,0,0
-84,512,0,0,0,0,0,0,0,0,0,-1,1140,512,0,0
-77,512,0,0,0,0,0,0,0,0,0,-1,1147,512,0,0
-70,512,0,0,0,0,0,0,0,0,0,-1,1154,512,0,0
-63,512,0,0,0,0,0,0,0,0,0,-1,1161,512,0,0
-56,512,0,0,0,0,0,0,0,0,0,-1,1168,512,0,0
-49,512,0,0,0,0,0,0,0,0,0,-1,1175,512,0,0
-42,512,0,0,0,0,0,0,0,0,0,-1,1182,512,0,0
-35,512,0,0,0,0,0,0,0,0,0,-1,1189,512,0,0
-28,512,0,0,0,0,0,0,0,0,0,-1,1196,512,0,0
-21,512,0,0,0,0,0,0,0,0,0,-1,1203,512,0,0
-14,512,0,0,0,0,0,0,0,0,0,-1,1210,512,0,0
-7,512,0,0,0,0,0,0,0,0,0,-1,1217,512,0,0
0,512,0,0,0,0,0,0,0,0,0,-1,1224,512,0,0
7,512,0,0,0,0,0,0,0,0,0,-1,1231,512,0,0
14,512,0,0,0,0,0,0,0,0,0,-1,1238,512,0,0
21,512,0,0,0,0,0,0,0,0,0,-1,1245,512,0,0
28,512,0,0,0,0,0,0,0,0,0,-1,1252,512,0,0
35,512,0,0,0,0,0,0,0,0,0,-1,1259,512,0,0
42,512,0,0,0,0,0,0,0,0,0,-1,1266,512,0,0
49,512,0,0,0,0,0,0,0,0,0,-1,1273,512,0,0
56,512,0,0,0,0,0,0,0,0,0,-1,1280,512,0,0
63,512,0,0,0,0,0,0,0,0,0,-1,1287,512,0,0
70,512,0,0,0,0,0,0,0,0,0,-1,1294,512,0,0
77,512,0,0,0,0,0,0,0,0,0,-1,1301,512,0,0
84,512,0,0,0,0,0,0,0,0,0,-1,1308,512,0,0
91,512,0,0,0,0,0,0,0,0,0,-1,1315,512,0,0
98,512,0,0,0,0,0,0,0,0,0,-1,1322,512,0,0
105,512,0,0,0,0,0,0,0,0,0,-1,1329,512,0,0
112,512,0,0,0,0,0,0,0,0,0,-1,1336,512,0,0
119,512,0,0,0,0,0,0,0,0,0,-1,1343,512,0,0
126,512,0,0,0,0,0,0,0,0,0,-1,1350,512,0,0
133,512,0,0,0,0,0,0,0,0,0,-1,1357,512,0,0
140,512,0,0,0,0,0,0,0,0,0,-1,1364,512,0,0
147,512,0,0,0,0,0,0,0,0,0,-1,1371,512,0,0
154,512,0,0,0,0,0,0,0,0,0,-1,1378,512,0,0
161,512,0,0,0,0,0,0,0,0,0,-1,1385,512,0,0
168,512,0,0,0,0,0,0,0,0,0,-1,1392,512,0,0
175,512,0,0,0,0,0,0,0,0,0,-1,1399,512,0,0
182,512,0,0,0,0,0,0,0,0,0,-1,1406,512,0,0
189,512,0,0,0,0,0,0,0,0,0,-1,1413,512,0,0
196,512,0,0,0,0,0,0,0,0,0,-1,1420,512,0,0
203,512,0,0,0,0,0,0,0,0,0,-1,1427,512,0,0
210,512,0,0,0,0,0,0,0,0,0,-1,1434,512,0,0
217,512,0,0,0,0,0,0,0,0,0,-1,1441,512,0,0
224,512,0,0,0,0,0,0,0,0,0,-1,1448,512,0,0
231,512,0,0,0,0,0,0,0,0,0,-1,1455,512,0,0
238,512,0,0,0,0,0,0,0,0,0,-1,1462,512,0,0
245,512,0,0,0,0,0,0,0,0,0,-1,1469,512,0,0
252,512,0,0,0,0,0,0,0,0,0,-1,1476,512,0,0
259,512,0,0,0,0,0,0,0,0,0,-1,1483,512,0,0
266,512,0,0,0,0,0,0,0,0,0,-1,1490,512,0,0
273,512,-2.22205,0.739624,0.0221115,-0.0341201,0.0241085,0.0310324,-0.043041,0.354408,0.0429532,0.0417265,1497,512,-2.22205,-0.739617
280,512,-1.95752,0.855347,0.0321553,-0.0397519,0.0275699,0.041509,-0.0491057,0.327089,0.0523777,0.0400063,1504,512,-1.95751,-0.855358
287,512,-1.88806,0.908569,0.0437307,-0.0404119,0.027869,0.0521239,-0.0488052,0.292529,0.058282,0.0430538,1511,512,-1.88801,-0.908583
294,512,-1.94421,0.794281,0.0531791,-0.0391208,0.026708,0.0603502,-0.0462919,0.262314,0.0617479,0.0489719,1518,512,-1.94417,-0.794268
301,512,-1.84045,0.371002,0,0,0,0,0,0,0,-1,1525,512,-1.84041,-0.370992
308,512,-1.08777,0.370605,0.0664729,-0.0332767,0.0246715,0.0722414,-0.0390452,0.229686,0.0651972,0.04549,1532,512,-1.08772,-0.370593
315,512,0.0592041,0.131226,0.0672898,-0.0290272,0.0229977,0.0724992,-0.0342367,0.222761,0.06293,0.0443716,1539,512,0.0591723,-0.131214
322,512,0.389648,0.69577,0.0655395,-0.0226524,0.0212395,0.0703881,-0.027501,0.224437,0.0582963,0.0463551,1546,512,0.389663,-0.695774
329,512,1.27002,0.762329,0,0,0,0,0,0,0,-1,1553,512,1.27007,-0.76233
336,512,2.08105,0.0872192,0.0571638,-0.0133463,0.0180603,0.0615206,-0.0177031,0.23671,0.0480152,0.0453862,1560,512,2.08101,-0.0872079
343,512,2.93274,-0.281555,0.0517858,-0.00848532,0.0149695,0.055299,-0.0119985,0.230517,0.0414485,0.0474486,1567,512,2.93274,0.281549
350,512,0.558228,-0.685852,0,0,0,0,0,0,0,-1,1574,512,0.558223,0.685878
357,512,-0.202026,-2.17914,0,0,0,0,0,0,0,-1,1581,512,-0.202082,2.17912
364,512,1.03516,-0.5979,0,0,0,0,0,0,0,-1,1588,512,1.03515,0.597907
371,512,0.600586,-0.355164,0,0,0,0,0,0,0,-1,1595,512,0.600611,0.355163
378,512,0.312012,-0.0766602,0,0,0,0,0,0,0,-1,1602,512,0.312045,0.0766492
385,512,-0.429932,-0.0459595,0.014155,0.00345406,-0.000197917,0.0141587,0.0034504,-0.0184868,0.00852499,0.0418751,1609,512,-0.429936,0.0459689
392,512,-0.24292,0.00448608,0.0103684,0.00395694,-0.00114517,0.0105668,0.00375854,-0.171548,0.00618487,0.0402298,1616,512,-0.242876,-0.00447861
399,512,-0.0650635,-0.055603,0.00891709,0.0037173,-0.00149042,0.00931399,0.00332039,-0.260264,0.00545076,0.0347605,1623,512,-0.0650395,0.05558
406,512,-0.0300293,-0.0452881,0.00807129,0.00249992,-0.00162663,0.00851143,0.00205977,-0.264257,0.00512751,0.0264767,1630,512,-0.0300142,0.0452814
413,512,-0.0562744,-0.0238647,0.00671532,0.00156162,-0.00175288,0.007255,0.00102194,-0.298671,0.00453457,0.0205682,1637,512,-0.0562993,0.0238926
420,512,-0.0737305,-0.0322876,0.00511187,0.000950441,-0.00152504,0.00561091,0.000451402,-0.316247,0.00359958,0.0162163,1644,512,-0.0736938,0.0323058
427,512,-0.0780029,-0.0450439,0.00392678,-0.000102702,-0.00117831,0.00424605,-0.00042197,-0.264601,0.00298133,0.0133584,1651,512,-0.0779782,0.045047
434,512,-0.0762939,-0.0419312,0.0026785,-0.000700449,-0.00114766,0.00303144,-0.00105339,-0.29835,0.00244882,0.010004,1658,512,-0.0762848,0.0419444
441,512,-0.0678711,-0.0366821,0.00140542,-0.000824856,-0.000717064,0.00161607,-0.00103551,-0.285729,0.00154307,0.012763,1665,512,-0.0679259,0.0366623
448,512,-0.09375,-0.0513916,0.000837482,-0.00170499,0.000374452,0.000891484,-0.00175899,0.143228,0.00155734,0.00894182,1672,512,-0.0937253,0.0513645
455,512,-0.0960693,-0.0479736,0.000624421,-0.00114123,0.000427535,0.000722496,-0.00123931,0.225496,0.00114567,0.00809957,1679,512,-0.0960412,0.0479731
462,512,-0.0820313,-0.0333862,0.000571768,0.000107899,0.000639069,0.00101969,-0.000340022,0.611326,0.000817067,0.00871063,1686,512,-0.0820278,0.0333811
469,512,-0.0717773,-0.0167847,0.000331324,0.000955597,0.000765699,0.00147034,-0.000183416,0.978939,0.00104673,0.00964815,1693,512,-0.0717641,0.0167887
476,512,-0.0708008,-0.0264282,0.000121344,0.00163836,0.000786505,0.00197252,-0.000212816,1.16904,0.00139139,0.012093,1700,512,-0.0708434,0.0264078
483,512,-0.0765381,-0.0386963,0.000205383,0.00216725,0.000805598,0.00245566,-8.3021e-05,1.22701,0.00166547,0.0107883,1707,512,-0.0765826,0.0387102
490,512,-0.0755615,-0.0360107,0.000351018,0.00257773,0.00104954,0.00299444,-6.5693e-05,1.19284,0.00201855,0.00899253,1714,512,-0.0755425,0.0360401
497,512,-0.0562744,-0.0390015,0.00070489,0.00274918,0.00143125,0.0034858,-3.17282e-05,1.09548,0.00233451,0.0109385,1721,512,-0.0562481,0.0389838
504,512,-0.0633545,-0.0287476,0.00101635,0.00308087,0.00169707,0.00403497,6.22543e-05,1.05863,0.00266947,0.0121708,1728,512,-0.0633232,0.0287324
511,512,-0.0960693,-0.0400391,0.000974537,0.00337698,0.00203901,0.00454229,-0.000190779,1.05159,0.00309375,0.0125657,1735,512,-0.0960239,0.0400305
518,512,-0.0909424,-0.0482178,0.000748339,0.00289622,0.0026312,0.00466421,-0.00101965,0.979157,0.00349923,0.013517,1742,512,-0.0909241,0.0482272
525,512,-0.0308838,-0.0661621,0.000389246,0.0028502,0.00286854,0.00474103,-0.00150159,0.988006,0.00376246,0.0314249,1749,512,-0.030836,0.0661366
532,512,0.187988,-0.374878,-0.00036579,0.00258664,0.00313856,0.00457882,-0.00235797,1.00522,0.0040728,0.042387,1756,512,0.187976,0.374892
539,512,0.287476,-0.331848,-0.00134171,0.00207023,0.00359888,0.00434701,-0.00361849,1.00673,0.00460529,0.0454228,1763,512,0.287489,0.331866
546,512,0.215698,-0.226318,-0.00293047,0.00175252,0.00397959,0.00402835,-0.00520631,1.05131,0.00534607,0.0407726,1770,512,0.21566,0.226338
553,512,0.268921,-0.115723,-0.00506449,0.00140906,0.00421144,0.00348387,-0.0071393,1.11304,0.00625316,0.0404172,1777,512,0.268869,0.115735
560,512,0.155273,-0.278076,-0.00811137,0.000746994,0.0041074,0.00235838,-0.00972275,1.19694,0.0073944,0.0401839,1784,512,0.155246,0.278053
567,512,-0.0786133,-0.160156,-0.0112263,0.000163536,0.00369381,0.00125657,-0.0123194,1.2831,0.0086622,0.0420853,1791,512,-0.0785742,0.160159
574,512,0,0,0,0,0,0,0,0,0,-1,1798,512,0,0
581,512,0,0,0,0,0,0,0,0,0,-1,1805,512,0,0
588,512,0,0,0,0,0,0,0,0,0,-1,1812,512,0,0
595,512,0,0,0,0,0,0,0,0,0,-1,1819,512,0,0
602,512,0,0,0,0,0,0,0,0,0,-1,1826,512,0,0
609,512,0,0,0,0,0,0,0,0,0,-1,1833,512,0,0
616,512,0,0,0,0,0,0,0,0,0,-1,1840,512,0,0
623,512,0,0,0,0,0,0,0,0,0,-1,1847,512,0,0
630,512,0,0,0,0,0,0,0,0,0,-1,1854,512,0,0
637,512,0,0,0,0,0,0,0,0,0,-1,1861,512,0,0
644,512,0,0,0,0,0,0,0,0,0,-1,1868,512,0,0
651,512,0,0,0,0,0,0,0,0,0,-1,1875,512,0,0
658,512,0,0,0,0,0,0,0,0,0,-1,1882,512,0,0
665,512,0,0,0,0,0,0,0,0,0,-1,1889,512,0,0
672,512,0,0,0,0,0,0,0,0,0,-1,1896,512,0,0
679,512,0,0,0,0,0,0,0,0,0,-1,1903,512,0,0
686,512,0,0,0,0,0,0,0,0,0,-1,1910,512,0,0
693,512,0,0,0,0,0,0,0,0,0,-1,1917,512,0,0
700,512,0,0,0,0,0,0,0,0,0,-1,1924,512,0,0
707,512,0,0,0,0,0,0,0,0,0,-1,1931,512,0,0
714,512,0,0,0,0,0,0,0,0,0,-1,1938,512,0,0
721,512,0,0,0,0,0,0,0,0,0,-1,1945,512,0,0
728,512,0,0,0,0,0,0,0,0,0,-1,1952,512,0,0
735,512,0,0,0,0,0,0,0,0,0,-1,1959,512,0,0
742,512,0,0,0,0,0,0,0,0,0,-1,1966,512,0,0
749,512,0,0,0,0,0,0,0,0,0,-1,1973,512,0,0
756,512,0,0,0,0,0,0,0,0,0,-1,1980,512,0,0
763,512,0,0,0,0,0,0,0,0,0,-1,1987,512,0,0
770,512,0,0,0,0,0,0,0,0,0,-1,1994,512,0,0
777,512,0,0,0,0,0,0,0,0,0,-1,2001,512,0,0
784,512,0,0,0,0,0,0,0,0,0,-1,2008,512,0,0
791,512,0,0,0,0,0,0,0,0,0,-1,2015,512,0,0
798,512,0,0,0,0,0,0,0,0,0,-1,2022,512,0,0
805,512,0,0,0,0,0,0,0,0,0,-1,2029,512,0,0
812,512,0,0,0,0,0,0,0,0,0,-1,2036,512,0,0
-700,505,0,0,0,0,0,0,0,0,0,-1,524,519,0,0
-693,505,0,0,0,0,0,0,0,0,0,-1,531,519,0,0
-686,505,0,0,0,0,0,0,0,0,0,-1,538,519,0,0
-679,505,0,0,0,0,0,0,0,0,0,-1,545,519,0,0
-672,505,0,0,0,0,0,0,0,0,0,-1,552,519,0,0
-665,505,0,0,0,0,0,0,0,0,0,-1,559,519,0,0
-658,505,0,0,0,0,0,0,0,0,0,-1,566,519,0,0
-651,505,0,0,0,0,0,0,0,0,0,-1,573,519,0,0
-644,505,0,0,0,0,0,0,0,0,0,-1,580,519,0,0
-637,505,0,0,0,0,0,0,0,0,0,-1,587,519,0,0
-630,505,0,0,0,0,0,0,0,0,0,-1,594,519,0,0
-623,505,0,0,0,0,0,0,0,0,0,-1,601,519,0,0
-616,505,0,0,0,0,0,0,0,0,0,-1,608,519,0,0
-609,505,0,0,0,0,0,0,0,0,0,-1,615,519,0,0
-602,505,0,0,0,0,0,0,0,0,0,-1,622,519,0,0
-595,505,0,0,0,0,0,0,0,0,0,-1,629,519,0,0
-588,505,0,0,0,0,0,0,0,0,0,-1,636,519,0,0
-581,505,0,0,0,0,0,0,0,0,0,-1,643,519,0,0
-574,505,0,0,0,0,0,0,0,0,0,-1,650,519,0,0
-567,505,0,0,0,0,0,0,0,0,0,-1,657,519,0,0
-560,505,0,0,0,0,0,0,0,0,0,-1,664,519,0,0
-553,505,0,0,0,0,0,0,0,0,0,-1,671,519,0,0
-546,505,0,0,0,0,0,0,0,0,0,-1,678,519,0,0
-539,505,0,0,0,0,0,0,0,0,0,-1,685,519,0,0
-532,505,0,0,0,0,0,0,0,0,0,-1,692,519,0,0
-525,505,0,0,0,0,0,0,0,0,0,-1,699,519,0,0
-518,505,0,0,0,0,0,0,0,0,0,-1,706,519,0,0
-511,505,0,0,0,0,0,0,0,0,0,-1,713,519,0,0
-504,505,0,0,0,0,0,0,0,0,0,-1,720,519,0,0
-497,505,0,0,0,0,0,0,0,0,0,-1,727,519,0,0
-490,505,0,0,0,0,0,0,0,0,0,-1,734,519,0,0
-483,505,0,0,0,0,0,0,0,0,0,-1,741,519,0,0
-476,505,0,0,0,0,0,0,0,0,0,-1,748,519,0,0
-469,505,0,0,0,0,0,0,0,0,0,-1,755,519,0,0
-462,505,0,0,0,0,0,0,0,0,0,-1,762,519,0,0
-455,505,3.35284,-0.25293,0,0,0,0,0,0,0,-1,769,519,3.35285,0.25292
-448,505,2.8269,-0.386169,0,0,0,0,0,0,0,-1,776,519,2.82693,0.386143
-441,505,2.19989,-0.407837,0,0,0,0,0,0,0,-1,783,519,2.19986,0.407845
-434,505,0.0338745,-0.767517,0,0,0,0,0,0,0,-1,790,519,0.033896,0.767536
-427,505,1.22211,-1.15747,0,0,0,0,0,0,0,-1,797,519,1.22212,1.15744
-420,505,-0.453064,0.400391,-0.00975623,0.00565531,-0.000117332,0.0056562,-0.00975712,-1.56318,0.00900326,0.042751,804,519,-0.453063,-0.400401
-413,505,-0.277527,0.547852,-0.00782046,0.00253611,0.00197433,0.00289973,-0.00818408,1.38867,0.00663724,0.0434721,811,519,-0.277518,-0.547869
-406,505,0.0189209,0.552124,-0.00573082,0.000402318,0.00308507,0.00168563,-0.00701413,1.17659,0.00532761,0.0437872,818,519,0.0189317,-0.552094
-399,505,-0.234741,-0.129456,0,0,0,0,0,0,0,-1,825,519,-0.234739,0.129456
-392,505,-0.0653687,-0.0460815,-0.00248145,-0.00109133,0.00270169,0.00100328,-0.00457606,0.911301,0.00343433,0.0159867,832,519,-0.0653578,0.0460801
-385,505,-0.0604858,-0.0397949,-0.00113133,-0.00115667,0.00217889,0.00103493,-0.00332293,0.782491,0.00262906,0.00824392,839,519,-0.0604599,0.0398106
-378,505,-0.0805664,-0.0368652,-0.000393874,-0.00140159,0.00165406,0.00083137,-0.00262683,0.637554,0.00208437,0.0103269,846,519,-0.080579,0.0368924
-371,505,-0.0906372,-0.0442505,0.000121138,-0.00162045,0.00121624,0.000746175,-0.00224549,0.474714,0.00179809,0.0126359,853,519,-0.0906176,0.0442715
-364,505,-0.0842285,-0.0310059,-7.18363e-05,-0.000707056,0.000634529,0.000320133,-0.00109903,0.553357,0.000859503,0.0134661,860,519,-0.0842086,0.0310195
-357,505,-0.0698853,-0.0317993,-0.000403654,0.000355538,0.000208413,0.000408988,-0.000457104,1.31974,0.000500296,0.0113768,867,519,-0.0698932,0.0318253
-350,505,-0.0720215,-0.0510254,-0.000805392,0.00121755,-0.000106327,0.00122312,-0.000810965,-1.51843,0.00118239,0.0106833,874,519,-0.0720495,0.0509992
-343,505,-0.083374,-0.059082,-0.000942808,0.00176666,-0.000252354,0.00178996,-0.000966111,-1.47871,0.00161474,0.00793335,881,519,-0.0833812,0.0590999
-336,505,-0.0753174,-0.0397339,-0.00119759,0.00223188,-0.000457817,0.00229195,-0.00125766,-1.44034,0.00207816,0.00841602,888,519,-0.0753045,0.0397571
-329,505,-0.0771484,-0.0311279,-0.00160942,0.00266504,-0.000185904,0.00267311,-0.00161749,-1.52741,0.00250205,0.00988371,895,519,-0.0771451,0.031113
-322,505,-0.0921631,-0.0335083,-0.000853888,0.00333198,0.000193694,0.00334093,-0.000862831,1.52465,0.00256376,0.0112119,902,519,-0.0921831,0.0335209
-315,505,-0.0817871,-0.0509033,0.000970819,0.00492291,0.00158264,0.00547856,0.000415167,1.23315,0.00352215,0.0107762,909,519,-0.0817883,0.0509056
-308,505,-0.0753174,-0.0535889,0.00192431,0.00569699,0.00253441,0.00697,0.000651304,1.10532,0.0044455,0.0105499,916,519,-0.0753061,0.0535976
-301,505,-0.0824585,-0.0346069,0.00257297,0.00609247,0.0032804,0.00805532,0.00061012,1.03159,0.00517883,0.0129568,923,519,-0.0824831,0.0346166
-294,505,-0.0825806,-0.0276489,0.00297135,0.00576823,0.00340227,0.00804825,0.000691332,0.980388,0.00515055,0.0145762,930,519,-0.0825591,0.0276383
-287,505,-0.078064,-0.0327148,0.00372037,0.00570951,0.00352367,0.00837629,0.0010536,0.922946,0.00526823,0.0190114,937,519,-0.0780815,0.0327214
-280,505,-0.13501,-0.106201,0.00217792,0.00529021,0.00286531,0.00699468,0.000473455,1.03416,0.00451359,0.0299465,944,519,-0.135021,0.106215
-273,505,1.19806,0.531189,-2.8716e-05,0.00461148,0.00205239,0.00538899,-0.000806224,1.20867,0.00388936,0.0423593,951,519,1.19804,-0.531182
-266,505,1.9162,0.812622,0.00142868,0.00337058,0.000140196,0.00338065,0.00141861,1.4991,0.00196021,0.0460601,958,519,1.91618,-0.812633
-259,505,2.41656,0.976135,0,0,0,0,0,0,0,-1,965,519,2.4166,-0.976123
-252,505,2.29907,1.06714,0.00316407,8.84088e-05,-0.00636524,0.00817462,-0.00492214,-0.66687,0.00763874,0.0445958,972,519,2.29906,-1.06714
-245,505,1.67328,0.992249,0.00410402,-0.00145228,-0.0105741,0.0122589,-0.00960713,-0.656936,0.0126552,0.0461435,979,519,1.67325,-0.992229
-238,505,1.04547,0.159424,0,0,0,0,0,0,0,-1,986,519,1.04545,-0.159452
-231,505,0.0493164,-0.366516,0,0,0,0,0,0,0,-1,993,519,0.0493328,0.366531
-224,505,0.246887,-0.700012,0,0,0,0,0,0,0,-1,1000,519,0.246869,0.700032
-217,505,2.54254,1.46143,0.0208175,-0.00404442,-0.0247626,0.0360942,-0.0193211,-0.552773,0.0324789,0.0490797,1007,519,2.54254,-1.46145
-210,505,2.9892,1.0304,0.0231873,-0.00483181,-0.0284354,0.0408769,-0.0225214,-0.55651,0.0371109,0.047615,1014,519,2.9892,-1.03037
-203,505,3.52112,0.558228,0.0264754,-0.00270564,-0.0281807,0.0436187,-0.0198489,-0.546525,0.0374899,0.0486398,1021,519,3.5211,-0.558231
-196,505,3.89539,0.900574,0,0,0,0,0,0,0,-1,1028,519,3.8954,-0.900557
-189,505,0.546631,-1.84155,0.0315596,3.97223e-05,-0.024741,0.0451338,-0.0135345,-0.501808,0.0354721,0.0467938,1035,519,0.546669,1.84157
-182,505,0.0471191,-2.05029,0,0,0,0,0,0,0,-1,1042,519,0.0470618,2.05027
-175,505,-0.490845,-2.05133,0,0,0,0,0,0,0,-1,1049,519,-0.490844,2.05134
-168,505,0,0,0,0,0,0,0,0,0,-1,1056,519,0,0
-161,505,0,0,0,0,0,0,0,0,0,-1,1063,519,0,0
-154,505,0,0,0,0,0,0,0,0,0,-1,1070,519,0,0
-147,505,0,0,0,0,0,0,0,0,0,-1,1077,519,0,0
-140,505,0,0,0,0,0,0,0,0,0,-1,1084,519,0,0
-133,505,0,0,0,0,0,0,0,0,0,-1,1091,519,0,0
-126,505,0,0,0,0,0,0,0,0,0,-1,1098,519,0,0
-119,505,0,0,0,0,0,0,0,0,0,-1,1105,519,0,0
-112,505,0,0,0,0,0,0,0,0,0,-1,1112,519,0,0
-105,505,0,0,0,0,0,0,0,0,0,-1,1119,519,0,0
-98,505,0,0,0,0,0,0,0,0,0,-1,1126,519,0,0
-91,505,0,0,0,0,0,0,0,0,0,-1,1133,519,0,0
-84,505,0,0,0,0,0,0,0,0,0,-1,1140,519,0,0
-77,505,0,0,0,0,0,0,0,0,0,-1,1147,519,0,0
-70,505,0,0,0,0,0,0,0,0,0,-1,1154,519,0,0
-63,505,0,0,0,0,0,0,0,0,0,-1,1161,519,0,0
-56,505,0,0,0,0,0,0,0,0,0,-1,1168,519,0,0
-49,505,0,0,0,0,0,0,0,0,0,-1,1175,519,0,0
-42,505,0,0,0,0,0,0,0,0,0,-1,1182,519,0,0
-35,505,0,0,0,0,0,0,0,0,0,-1,1189,519,0,0
-28,505,0,0,0,0,0,0,0,0,0,-1,1196,519,0,0
-21,505,0,0,0,0,0,0,0,0,0,-1,1203,519,0,0
-14,505,0,0,0,0,0,0,0,0,0,-1,1210,519,0,0
-7,505,0,0,0,0,0,0,0,0,0,-1,1217,519,0,0
0,505,0,0,0,0,0,0,0,0,0,-1,1224,519,0,0
7,505,0,0,0,0,0,0,0,0,0,-1,1231,519,0,0
14,505,0,0,0,0,0,0,0,0,0,-1,1238,519,0,0
21,505,0,0,0,0,0,0,0,0,0,-1,1245,519,0,0
28,505,0,0,0,0,0,0,0,0,0,-1,1252,519,0,0
35,505,0,0,0,0,0,0,0,0,0,-1,1259,519,0,0
42,505,0,0,0,0,0,0,0,0,0,-1,1266,519,0,0
49,505,0,0,0,0,0,0,0,0,0,-1,1273,519,0,0
56,505,0,0,0,0,0,0,0,0,0,-1,1280,519,0,0
63,505,0,0,0,0,0,0,0,0,0,-1,1287,519,0,0
70,505,0,0,0,0,0,0,0,0,0,-1,1294,519,0,0
77,505,0,0,0,0,0,0,0,0,0,-1,1301,519,0,0
84,505,0,0,0,0,0,0,0,0,0,-1,1308,519,0,0
91,505,0,0,0,0,0,0,0,0,0,-1,1315,519,0,0
98,505,0,0,0,0,0,0,0,0,0,-1,1322,519,0,0
105,505,0,0,0,0,0,0,0,0,0,-1,1329,519,0,0
112,505,0,0,0,0,0,0,0,0,0,-1,1336,519,0,0
119,505,0,0,0,0,0,0,0,0,0,-1,1343,519,0,0
126,505,0,0,0,0,0,0,0,0,0,-1,1350,519,0,0
133,505,0,0,0,0,0,0,0,0,0,-1,1357,519,0,0
140,505,0,0,0,0,0,0,0,0,0,-1,1364,519,0,0
147,505,0,0,0,0,0,0,0,0,0,-1,1371,519,0,0
154,505,0,0,0,0,0,0,0,0,0,-1,1378,519,0,0
161,505,0,0,0,0,0,0,0,0,0,-1,1385,519,0,0
168,505,0,0,0,0,0,0,0,0,0,-1,1392,519,0,0
175,505,0,0,0,0,0,0,0,0,0,-1,1399,519,0,0
182,505,0,0,0,0,0,0,0,0,0,-1,1406,519,0,0
189,505,0,0,0,0,0,0,0,0,0,-1,1413,519,0,0
196,505,0,0,0,0,0,0,0,0,0,-1,1420,519,0,0
203,505,0,0,0,0,0,0,0,0,0,-1,1427,519,0,0
210,505,0,0,0,0,0,0,0,0,0,-1,1434,519,0,0
217,505,0,0,0,0,0,0,0,0,0,-1,1441,519,0,0
224,505,0,0,0,0,0,0,0,0,0,-1,1448,519,0,0
231,505,0,0,0,0,0,0,0,0,0,-1,1455,519,0,0
238,505,0,0,0,0,0,0,0,0,0,-1,1462,519,0,0
245,505,0,0,0,0,0,0,0,0,0,-1,1469,519,0,0
252,505,0,0,0,0,0,0,0,0,0,-1,1476,519,0,0
259,505,0,0,0,0,0,0,0,0,0,-1,1483,519,0,0
266,505,0,0,0,0,0,0,0,0,0,-1,1490,519,0,0
273,505,0,0,0,0,0,0,0,0,0,-1,1497,519,0,0
280,505,0,0,0,0,0,0,0,0,0,-1,1504,519,0,0
287,505,-2.04419,1.61902,0.0537107,-0.0510107,0.0337749,0.0636588,-0.0609588,0.286441,0.0719537,0.0427301,1511,519,-2.04423,-1.61899
294,505,-2.04028,1.22021,0.0654676,-0.04756,0.0323593,0.0740763,-0.0561686,0.260011,0.0754335,0.0441554,1518,519,-2.04023,-1.22021
301,505,-1.98755,0.792847,0,0,0,0,0,0,0,-1,1525,519,-1.98759,-0.792817
308,505,-1.24634,0.453003,0,0,0,0,0,0,0,-1,1532,519,-1.2463,-0.452978
315,505,0.0429688,0.199402,0.0813809,-0.0335656,0.029595,0.0885532,-0.0407379,0.237762,0.0763288,0.0425068,1539,519,0.0429409,-0.199384
322,505,0.471313,0.986267,0.0784252,-0.0260623,0.0276269,0.0852801,-0.0329172,0.243213,0.070438,0.0434503,1546,519,0.471348,-0.986266
329,505,1.7384,1.34308,0.0733038,-0.0196973,0.0260032,0.0800805,-0.026474,0.25494,0.0640618,0.0465927,1553,519,1.73845,-1.3431
336,505,2.91638,1.60742,0.0674773,-0.0156898,0.0238906,0.0738516,-0.022064,0.260737,0.0580052,0.0491189,1560,519,2.91637,-1.60741
343,505,2.6051,0.233704,0.0607452,-0.0102492,0.0203435,0.0661614,-0.0156655,0.260203,0.0501517,0.0468201,1567,519,2.60514,-0.233719
350,505,-0.668823,-1.59991,0,0,0,0,0,0,0,-1,1574,519,-0.668789,1.59993
357,505,-0.376465,-1.28491,0,0,0,0,0,0,0,-1,1581,519,-0.376431,1.2849
364,505,-0.0933838,-0.822693,0.0349068,-0.000986109,0.00997183,0.0374911,-0.00357043,0.253583,0.0262652,0.0416587,1588,519,-0.0934261,0.822709
371,505,0.456177,-0.487854,0.0280923,0.0010352,0.00688288,0.0297426,-0.000615043,0.235318,0.0200365,0.0398454,1595,519,0.456126,0.487884
378,505,0.733765,-0.345154,0.022128,0.00318509,0.00414459,0.0229951,0.00231797,0.206242,0.0146188,0.0401417,1602,519,0.733724,0.345143
385,505,1.40198,-0.521667,0.0172475,0.00367754,0.00162611,0.0174397,0.0034854,0.117613,0.0106564,0.0421387,1609,519,1.40196,0.521671
392,505,2.10229,-0.931946,0.0130056,0.00433301,0.000243019,0.0130124,0.00432621,0.0279921,0.00765202,0.0473126,1616,519,2.10232,0.931974
399,505,2.93152,-1.35309,0,0,0,0,0,0,0,-1,1623,519,2.93151,1.35307
406,505,-0.0213623,-0.0098877,0.0103051,0.00272285,-0.000881377,0.0104062,0.00262175,-0.114213,0.00624964,0.0395544,1630,519,-0.0213589,0.00987479
413,505,-0.0968018,0.0150146,0.00877469,0.00166821,-0.0013429,0.00901999,0.00142291,-0.180672,0.00559961,0.0342856,1637,519,-0.0968087,-0.0150322
420,505,-0.0687256,-0.0477905,0.00690667,0.000979849,-0.00138991,0.00721643,0.000670087,-0.219281,0.00460388,0.0260109,1644,519,-0.0687354,0.0477827
427,505,-0.0683594,-0.0705566,0.00544752,-0.000381741,-0.00115684,0.0056687,-0.000602927,-0.188919,0.0039953,0.0127757,1651,519,-0.0683709,0.070536
434,505,-0.081665,-0.059082,0.00387677,-0.00123478,-0.00124055,0.00416194,-0.00151995,-0.225947,0.00339659,0.00844021,1658,519,-0.0817011,0.0590922
441,505,-0.0881348,-0.034668,0.00228029,-0.0014207,-0.000839365,0.00246175,-0.00160217,-0.212918,0.00236373,0.00914617,1665,519,-0.0881428,0.0346618
448,505,-0.0822754,-0.0432129,0.00155655,-0.00251968,0.000371082,0.00159005,-0.00255319,0.0900493,0.00241355,0.00969633,1672,519,-0.082261,0.0431879
455,505,-0.0812988,-0.0368042,0.00118652,-0.00205239,0.000425484,0.00124148,-0.00210735,0.128463,0.00195487,0.00958849,1679,519,-0.0813059,0.0367998
462,505,-0.105835,-0.0142212,0.00111293,-0.000754798,0.000585013,0.00128103,-0.000922907,0.279819,0.00127803,0.00987207,1686,519,-0.105809,0.0142144
469,505,-0.0997314,-0.0148926,0.000849401,0.000178718,0.000686703,0.00127827,-0.000250149,0.558262,0.000946644,0.00923027,1693,519,-0.0997161,0.0149047
476,505,-0.0783691,-0.0235596,0.00052402,0.000863721,0.000685406,0.00140001,-1.22677e-05,0.906856,0.000937455,0.00958783,1700,519,-0.0784199,0.0235541
483,505,-0.0812988,-0.0462646,0.000474166,0.00131985,0.000681909,0.00169938,9.46405e-05,1.06293,0.00110273,0.0106359,1707,519,-0.0812437,0.046244
490,505,-0.088501,-0.0470581,0.000532551,0.0017287,0.000858581,0.00217698,8.42734e-05,1.08961,0.00142406,0.0102301,1714,519,-0.0884656,0.0470827
497,505,-0.0495605,-0.0330811,0.00085662,0.00193596,0.00115897,0.00267474,0.000117831,1.00329,0.00174521,0.0104266,1721,519,-0.0495431,0.0330849
504,505,-0.0678711,-0.0236206,0.00115926,0.00226394,0.00137571,0.00319405,0.000229156,0.976295,0.00205724,0.0117537,1728,519,-0.0678823,0.0236193
511,505,-0.0792236,-0.0380249,0.00111312,0.00247777,0.00169672,0.00362422,-3.33354e-05,0.976575,0.00242734,0.0144207,1735,519,-0.0792627,0.0380111
518,505,-0.0599365,-0.0610352,0.000901924,0.00206554,0.00222412,0.00378269,-0.000815221,0.913327,0.00283291,0.0173679,1742,519,-0.0599464,0.0610475
525,505,-0.034668,-0.0793457,0.000532012,0.00206416,0.00244049,0.00385599,-0.00125982,0.937478,0.00307778,0.022227,1749,519,-0.0346664,0.0793365
532,505,0.0195313,-0.181702,-0.000250319,0.00192868,0.00272248,0.00377157,-0.00209321,0.975731,0.00343194,0.0362324,1756,519,0.0195346,0.181728
539,505,0.306519,-0.290039,-0.00118663,0.00165885,0.00318102,0.0037208,-0.00324859,0.995684,0.00402685,0.0429459,1763,519,0.306531,0.290062
546,505,0.126343,0.0594482,-0.00267059,0.00156874,0.0035691,0.00360016,-0.004702,1.05336,0.00480731,0.0415708,1770,519,0.126348,-0.0594423
553,505,0.401611,-0.167175,-0.0046417,0.00148788,0.00384031,0.00333643,-0.00649025,1.12218,0.00577001,0.0416235,1777,519,0.401617,0.167193
560,505,-0.0447998,-0.0952759,-0.00718438,0.00129099,0.00382366,0.00276105,-0.00865444,1.20375,0.00687727,0.0432347,1784,519,-0.0448594,0.0953004
567,505,-0.512451,0.843628,-0.0098376,0.00119723,0.00359924,0.00226741,-0.0109078,1.28179,0.00813369,0.042724,1791,519,-0.512482,-0.843614
574,505,-0.346191,0.670227,-0.0126395,0.00162559,0.0032249,0.00232076,-0.0133347,1.35848,0.00975582,0.0396901,1798,519,-0.346148,-0.670236
581,505,0,0,0,0,0,0,0,0,0,-1,1805,519,0,0
588,505,0,0,0,0,0,0,0,0,0,-1,1812,519,0,0
595,505,0,0,0,0,0,0,0,0,0,-1,1819,519,0,0
602,505,0,0,0,0,0,0,0,0,0,-1,1826,519,0,0
609,505,0,0,0,0,0,0,0,0,0,-1,1833,519,0,0
616,505,0,0,0,0,0,0,0,0,0,-1,1840,519,0,0
623,505,0,0,0,0,0,0,0,0,0,-1,1847,519,0,0
630,505,0,0,0,0,0,0,0,0,0,-1,1854,519,0,0
637,505,0,0,0,0,0,0,0,0,0,-1,1861,519,0,0
644,505,0,0,0,0,0,0,0,0,0,-1,1868,519,0,0
651,505,0,0,0,0,0,0,0,0,0,-1,1875,519,0,0
658,505,0,0,0,0,0,0,0,0,0,-1,1882,519,0,0
665,505,0,0,0,0,0,0,0,0,0,-1,1889,519,0,0
672,505,0,0,0,0,0,0,0,0,0,-1,1896,519,0,0
679,505,0,0,0,0,0,0,0,0,0,-1,1903,519,0,0
686,505,0,0,0,0,0,0,0,0,0,-1,1910,519,0,0
693,505,0,0,0,0,0,0,0,0,0,-1,1917,519,0,0
700,505,0,0,0,0,0,0,0,0,0,-1,1924,519,0,0
707,505,0,0,0,0,0,0,0,0,0,-1,1931,519,0,0
714,505,0,0,0,0,0,0,0,0,0,-1,1938,519,0,0
721,505,0,0,0,0,0,0,0,0,0,-1,1945,519,0,0
728,505,0,0,0,0,0,0,0,0,0,-1,1952,519,0,0
735,505,0,0,0,0,0,0,0,0,0,-1,1959,519,0,0
742,505,0,0,0,0,0,0,0,0,0,-1,1966,519,0,0
749,505,0,0,0,0,0,0,0,0,0,-1,1973,519,0,0
756,505,0,0,0,0,0,0,0,0,0,-1,1980,519,0,0
763,505,0,0,0,0,0,0,0,0,0,-1,1987,519,0,0
770,505,0,0,0,0,0,0,0,0,0,-1,1994,519,0,0
777,505,0,0,0,0,0,0,0,0,0,-1,2001,519,0,0
784,505,0,0,0,0,0,0,0,0,0,-1,2008,519,0,0
791,505,0,0,0,0,0,0,0,0,0,-1,2015,519,0,0
798,505,0,0,0,0,0,0,0,0,0,-1,2022,519,0,0
805,505,0,0,0,0,0,0,0,0,0,-1,2029,519,0,0
812,505,0,0,0,0,0,0,0,0,0,-1,2036,519,0,0
-700,498,0,0,0,0,0,0,0,0,0,-1,524,526,0,0
-693,498,0,0,0,0,0,0,0,0,0,-1,531,526,0,0
-686,498,0,0,0,0,0,0,0,0,0,-1,538,526,0,0
-679,498,0,0,0,0,0,0,0,0,0,-1,545,526,0,0
-672,498,0,0,0,0,0,0,0,0,0,-1,552,526,0,0
-665,498,0,0,0,0,0,0,0,0,0,-1,559,526,0,0
-658,498,0,0,0,0,0,0,0,0,0,-1,566,526,0,0
-651,498,0,0,0,0,0,0,0,0,0,-1,573,526,0,0
-644,498,0,0,0,0,0,0,0,0,0,-1,580,526,0,0
-637,498,0,0,0,0,0,0,0,0,0,-1,587,526,0,0
-630,498,0,0,0,0,0,0,0,0,0,-1,594,526,0,0
-623,498,0,0,0,0,0,0,0,0,0,-1,601,526,0,0
-616,498,0,0,0,0,0,0,0,0,0,-1,608,526,0,0
-609,498,0,0,0,0,0,0,0,0,0,-1,615,526,0,0
-602,498,0,0,0,0,0,0,0,0,0,-1,622,526,0,0
-595,498,0,0,0,0,0,0,0,0,0,-1,629,526,0,0
-588,498,0,0,0,0,0,0,0,0,0,-1,636,526,0,0
-581,498,0,0,0,0,0,0,0,0,0,-1,643,526,0,0
-574,498,0,0,0,0,0,0,0,0,0,-1,650,526,0,0
-567,498,0,0,0,0,0,0,0,0,0,-1,657,526,0,0
-560,498,0,0,0,0,0,0,0,0,0,-1,664,526,0,0
-553,498,0,0,0,0,0,0,0,0,0,-1,671,526,0,0
-546,498,0,0,0,0,0,0,0,0,0,-1,678,526,0,0
-539,498,0,0,0,0,0,0,0,0,0,-1,685,526,0,0
-532,498,0,0,0,0,0,0,0,0,0,-1,692,526,0,0
-525,498,0,0,0,0,0,0,0,0,0,-1,699,526,0,0
-518,498,0,0,0,0,0,0,0,0,0,-1,706,526,0,0
-511,498,0,0,0,0,0,0,0,0,0,-1,713,526,0,0
-504,498,0,0,0,0,0,0,0,0,0,-1,720,526,0,0
-497,498,0,0,0,0,0,0,0,0,0,-1,727,526,0,0
-490,498,0,0,0,0,0,0,0,0,0,-1,734,526,0,0
-483,498,0,0,0,0,0,0,0,0,0,-1,741,526,0,0
-476,498,0,0,0,0,0,0,0,0,0,-1,748,526,0,0
-469,498,0,0,0,0,0,0,0,0,0,-1,755,526,0,0
-462,498,-0.0239258,1.84497,0,0,0,0,0,0,0,-1,762,526,-0.0238965,-1.84498
-455,498,0.726685,-3.26129,0,0,0,0,0,0,0,-1,769,526,0.726658,3.2613
-448,498,0.606445,-2.50641,-0.0106895,0.0221296,-0.0164396,0.0289479,-0.0175078,-1.17764,0.0270909,0.0454356,776,526,0.606426,2.50643
-441,498,0.505249,-1.70734,0,0,0,0,0,0,0,-1,783,526,0.505233,1.70732
-434,498,0.49054,-0.922546,0,0,0,0,0,0,0,-1,790,526,0.490537,0.922551
-427,498,0.405457,-0.166138,-0.0102559,0.00974755,-0.00237129,0.0100248,-0.0105332,-1.4544,0.0118704,0.0470872,797,526,0.405439,0.166148
-420,498,-0.0884399,0.322083,-0.00917064,0.00703155,0.000275576,0.00703623,-0.00917533,1.55379,0.00938687,0.0431512,804,526,-0.0884339,-0.322058
-413,498,-0.268433,0.421631,-0.00781579,0.00416833,0.00234813,0.00461199,-0.00825945,1.38406,0.00753013,0.0399108,811,526,-0.26842,-0.421628
-406,498,-0.198792,0.0463257,-0.00615078,0.00217943,0.00348223,0.00344333,-0.00741468,1.22263,0.00640712,0.038146,818,526,-0.198768,-0.0463494
-399,498,-0.0836182,-0.03302,-0.0046904,0.00104961,0.00376115,0.00291069,-0.00655148,1.1113,0.00559616,0.0227519,825,526,-0.0835897,0.0330244
-392,498,-0.0730591,-0.0368042,-0.00342047,0.000725968,0.00318561,0.00245358,-0.00514809,1.07387,0.00447979,0.0105825,832,526,-0.0730335,0.0368236
-385,498,-0.067749,-0.0435181,-0.00214758,0.000580523,0.00266619,0.00221133,-0.00377839,1.02184,0.00349739,0.00824477,839,526,-0.0677399,0.0435027
-378,498,-0.0775757,-0.0379028,-0.00139393,0.000278453,0.00215834,0.00175692,-0.0028724,0.970207,0.00269848,0.00920625,846,526,-0.0775498,0.0379056
-371,498,-0.0753174,-0.0336914,-0.000863186,0.000109879,0.00163546,0.00132964,-0.00208295,0.929974,0.0019862,0.0147467,853,526,-0.0753109,0.0337204
-364,498,-0.0701904,-0.0321045,-0.000948403,0.000902972,0.00104201,0.00137109,-0.00141652,1.14857,0.0016095,0.0153115,860,526,-0.0701846,0.0320786
-357,498,-0.0858154,-0.0418091,-0.00117246,0.00194317,0.000591729,0.00205176,-0.00128106,1.38929,0.00194128,0.0107841,867,526,-0.0858301,0.0418242
-350,498,-0.0829468,-0.0209961,-0.00146998,0.0028374,0.000236028,0.00285029,-0.00148287,1.51622,0.00254294,0.0108011,874,526,-0.0829346,0.0210236
-343,498,-0.0704346,-0.0466919,-0.00157971,0.00334845,-2.32442e-05,0.00334856,-0.00157982,-1.56608,0.00290584,0.0105625,881,526,-0.0704585,0.0466881
-336,498,-0.0707397,-0.0524902,-0.0019884,0.0038255,-0.000274351,0.00383842,-0.00200132,-1.52375,0.00342674,0.0130622,888,526,-0.0707373,0.0524694
-329,498,-0.072998,-0.0393677,-0.00248482,0.0041086,-0.00022397,0.0041162,-0.00249242,-1.53688,0.00385369,0.0161432,895,526,-0.0730165,0.0393552
-322,498,-0.0842285,-0.0375366,-0.00176252,0.00467936,0.000101958,0.00468097,-0.00176414,1.55497,0.00384601,0.014885,902,526,-0.0842121,0.0375498
-315,498,-0.0911255,-0.0390625,3.24462e-05,0.00630951,0.00153899,0.00666653,-0.000324572,1.34285,0.0045564,0.0141225,909,526,-0.0911451,0.039053
-308,498,-0.0875244,-0.0508423,0.000940156,0.00684984,0.00252403,0.0077811,8.89529e-06,1.21733,0.00518444,0.0104682,916,526,-0.0875518,0.0508274
-301,498,-0.0875854,-0.067627,0.001488,0.00690886,0.00329842,0.00846763,-7.07619e-05,1.12933,0.00566882,0.0127883,923,526,-0.087613,0.0675966
-294,498,-0.0509033,-0.0315552,0.00174925,0.00624866,0.00348395,0.00814614,-0.00014822,1.07208,0.00548083,0.0242938,930,526,-0.0508982,0.0315679
-287,498,-0.0765381,-0.0020752,0.00242474,0.00582386,0.00370729,0.0082026,4.59985e-05,1.00032,0.00545313,0.0330802,937,526,-0.0765541,0.0020467
-280,498,-0.129517,-0.0673218,0.000555472,0.00499658,0.00304785,0.006547,-0.000994947,1.10022,0.00473132,0.0404031,944,526,-0.129543,0.0673025
-273,498,-0.238403,-0.271179,-0.00225649,0.00397996,0.0021303,0.00463818,-0.00291471,1.27112,0.00439834,0.0438949,951,526,-0.238377,0.271157
-266,498,3.16302,1.26233,-0.00138042,0.00225401,-1.27252e-05,0.00225405,-0.00138046,-1.5673,0.0021185,0.0446239,958,526,3.16301,-1.26235
-259,498,3.34387,1.68774,0,0,0,0,0,0,0,-1,965,526,3.34387,-1.68773
-252,498,2.77222,1.63043,-0.000979908,-0.00189905,-0.00707906,0.00565449,-0.00853344,-0.752984,0.00824743,0.0452186,972,526,2.77219,-1.63043
-245,498,2.0127,1.78253,-0.000861321,-0.00368754,-0.0118252,0.00963491,-0.0141838,-0.72593,0.0138351,0.0466152,979,526,2.01271,-1.78252
-238,498,0.172058,-0.201721,0,0,0,0,0,0,0,-1,986,526,0.172046,0.201726
-231,498,-0.192688,-0.42749,0.00445803,-0.00682903,-0.0209839,0.020544,-0.022915,-0.654034,0.0251035,0.0451483,993,526,-0.19271,0.427492
-224,498,-0.856812,-1.09998,0.00885834,-0.0081867,-0.024817,0.0265755,-0.0259038,-0.62,0.0302998,0.0475428,1000,526,-0.856806,1.09998
-217,498,3.19818,1.34357,0,0,0,0,0,0,0,-1,1007,526,3.19817,-1.34358
-210,498,3.66644,0.924927,0,0,0,0,0,0,0,-1,1014,526,3.66641,-0.924911
-203,498,4.21484,0.437805,0,0,0,0,0,0,0,-1,1021,526,4.21483,-0.437815
-196,498,0.726685,-0.403931,0,0,0,0,0,0,0,-1,1028,526,0.726719,0.403944
-189,498,0.158936,-1.3363,0,0,0,0,0,0,0,-1,1035,526,0.158986,1.33629
-182,498,0,0,0,0,0,0,0,0,0,-1,1042,526,0,0
-175,498,0,0,0,0,0,0,0,0,0,-1,1049,526,0,0
-168,498,0,0,0,0,0,0,0,0,0,-1,1056,526,0,0
-161,498,0,0,0,0,0,0,0,0,0,-1,1063,526,0,0
-154,498,0,0,0,0,0,0,0,0,0,-1,1070,526,0,0
-147,498,0,0,0,0,0,0,0,0,0,-1,1077,526,0,0
-140,498,0,0,0,0,0,0,0,0,0,-1,1084,526,0,0
-133,498,0,0,0,0,0,0,0,0,0,-1,1091,526,0,0
-126,498,0,0,0,0,0,0,0,0,0,-1,1098,526,0,0
-119,498,0,0,0,0,0,0,0,0,0,-1,1105,526,0,0
-112,498,0,0,0,0,0,0,0,0,0,-1,1112,526,0,0
-105,498,0,0,0,0,0,0,0,0,0,-1,1119,526,0,0
-98,498,0,0,0,0,0,0,0,0,0,-1,1126,526,0,0
-91,498,0,0,0,0,0,0,0,0,0,-1,1133,526,0,0
-84,498,0,0,0,0,0,0,0,0,0,-1,1140,526,0,0
-77,498,0,0,0,0,0,0,0,0,0,-1,1147,526,0,0
-70,498,0,0,0,0,0,0,0,0,0,-1,1154,526,0,0
-63,498,0,0,0,0,0,0,0,0,0,-1,1161,526,0,0
-56,498,0,0,0,0,0,0,0,0,0,-1,1168,526,0,0
-49,498,0,0,0,0,0,0,0,0,0,-1,1175,526,0,0
-42,498,0,0,0,0,0,0,0,0,0,-1,1182,526,0,0
-35,498,0,0,0,0,0,0,0,0,0,-1,1189,526,0,0
-28,498,0,0,0,0,0,0,0,0,0,-1,1196,526,0,0
-21,498,0,0,0,0,0,0,0,0,0,-1,1203,526,0,0
-14,498,0,0,0,0,0,0,0,0,0,-1,1210,526,0,0
-7,498,0,0,0,0,0,0,0,0,0,-1,1217,526,0,0
0,498,0,0,0,0,0,0,0,0,0,-1,1224,526,0,0
7,498,0,0,0,0,0,0,0,0,0,-1,1231,526,0,0
14,498,0,0,0,0,0,0,0,0,0,-1,1238,526,0,0
21,498,0,0,0,0,0,0,0,0,0,-1,1245,526,0,0
28,498,0,0,0,0,0,0,0,0,0,-1,1252,526,0,0
35,498,0,0,0,0,0,0,0,0,0,-1,1259,526,0,0
42,498,0,0,0,0,0,0,0,0,0,-1,1266,526,0,0
49,498,0,0,0,0,0,0,0,0,0,-1,1273,526,0,0
56,498,0,0,0,0,0,0,0,0,0,-1,1280,526,0,0
63,498,0,0,0,0,0,0,0,0,0,-1,1287,526,0,0
70,498,0,0,0,0,0,0,0,0,0,-1,1294,526,0,0
77,498,0,0,0,0,0,0,0,0,0,-1,1301,526,0,0
84,498,0,0,0,0,0,0,0,0,0,-1,1308,526,0,0
91,498,0,0,0,0,0,0,0,0,0,-1,1315,526,0,0
98,498,0,0,0,0,0,0,0,0,0,-1,1322,526,0,0
105,498,0,0,0,0,0,0,0,0,0,-1,1329,526,0,0
112,498,0,0,0,0,0,0,0,0,0,-1,1336,526,0,0
119,498,0,0,0,0,0,0,0,0,0,-1,1343,526,0,0
126,498,0,0,0,0,0,0,0,0,0,-1,1350,526,0,0
133,498,0,0,0,0,0,0,0,0,0,-1,1357,526,0,0
140,498,0,0,0,0,0,0,0,0,0,-1,1364,526,0,0
147,498,0,0,0,0,0,0,0,0,0,-1,1371,526,0,0
154,498,0,0,0,0,0,0,0,0,0,-1,1378,526,0,0
161,498,0,0,0,0,0,0,0,0,0,-1,1385,526,0,0
168,498,0,0,0,0,0,0,0,0,0,-1,1392,526,0,0
175,498,0,0,0,0,0,0,0,0,0,-1,1399,526,0,0
182,498,0,0,0,0,0,0,0,0,0,-1,1406,526,0,0
189,498,0,0,0,0,0,0,0,0,0,-1,1413,526,0,0
196,498,0,0,0,0,0,0,0,0,0,-1,1420,526,0,0
203,498,0,0,0,0,0,0,0,0,0,-1,1427,526,0,0
210,498,0,0,0,0,0,0,0,0,0,-1,1434,526,0,0
217,498,0,0,0,0,0,0,0,0,0,-1,1441,526,0,0
224,498,0,0,0,0,0,0,0,0,0,-1,1448,526,0,0
231,498,0,0,0,0,0,0,0,0,0,-1,1455,526,0,0
238,498,0,0,0,0,0,0,0,0,0,-1,1462,526,0,0
245,498,0,0,0,0,0,0,0,0,0,-1,1469,526,0,0
252,498,0,0,0,0,0,0,0,0,0,-1,1476,526,0,0
259,498,0,0,0,0,0,0,0,0,0,-1,1483,526,0,0
266,498,0,0,0,0,0,0,0,0,0,-1,1490,526,0,0
273,498,0,0,0,0,0,0,0,0,0,-1,1497,526,0,0
280,498,0,0,0,0,0,0,0,0,0,-1,1504,526,0,0
287,498,0,0,0,0,0,0,0,0,0,-1,1511,526,0,0
294,498,0,0,0,0,0,0,0,0,0,-1,1518,526,0,0
301,498,0,0,0,0,0,0,0,0,0,-1,1525,526,0,0
308,498,-1.24451,0.957397,0,0,0,0,0,0,0,-1,1532,526,-1.24449,-0.957369
315,498,-0.0889893,0.548767,0,0,0,0,0,0,0,-1,1539,526,-0.0890213,-0.548797
322,498,0.24707,1.0733,0.0908459,-0.0290079,0.0355418,0.100593,-0.0387549,0.26766,0.0830512,0.0426693,1546,526,0.247092,-1.07333
329,498,1.34509,1.18585,0.0842602,-0.0218005,0.0334201,0.0939125,-0.0314528,0.281167,0.0753146,0.0427039,1553,526,1.34511,-1.18583
336,498,2.36462,1.37579,0.0770882,-0.0176924,0.0308568,0.0862487,-0.0268528,0.288581,0.0682347,0.0471403,1560,526,2.36461,-1.37581
343,498,3.37866,1.59814,0,0,0,0,0,0,0,-1,1567,526,3.37868,-1.59812
350,498,-1.60864,-0.846252,0,0,0,0,0,0,0,-1,1574,526,-1.60862,0.846245
357,498,-0.550781,-0.390686,0,0,0,0,0,0,0,-1,1581,526,-0.55078,0.390672
364,498,0.232056,-0.478333,0.0404605,-0.00184562,0.0134985,0.0444005,-0.0057856,0.283994,0.0317053,0.049783,1588,526,0.232065,0.478307
371,498,0.214355,-0.543945,0.0330822,0.000431568,0.0096118,0.0357016,-0.00218784,0.266059,0.0245629,0.0437095,1595,526,0.214364,0.543922
378,498,0.212524,-0.422974,0.0267422,0.00284812,0.00613154,0.0282238,0.00136655,0.237086,0.0183773,0.0425555,1602,526,0.212484,0.422991
385,498,0.566406,-0.157654,0.0215216,0.00343969,0.00290895,0.021978,0.00298323,0.155646,0.0137658,0.0436541,1609,526,0.56639,0.157653
392,498,0.934692,0.444153,0,0,0,0,0,0,0,-1,1616,526,0.934648,-0.444173
399,498,1.10535,1.1488,0,0,0,0,0,0,0,-1,1623,526,1.10538,-1.14877
406,498,0.668213,1.38672,0,0,0,0,0,0,0,-1,1630,526,0.668197,-1.38674
413,498,0.756592,1.21741,0,0,0,0,0,0,0,-1,1637,526,0.756647,-1.21741
420,498,-0.318115,0.0300293,0.00999265,0.000512169,-0.0016683,0.0102777,0.000227162,-0.169203,0.00677732,0.0403328,1644,526,-0.318132,-0.0300396
427,498,-0.0476074,-0.0814819,0.00813187,-0.00115872,-0.00138856,0.00833496,-0.00136181,-0.145232,0.00606178,0.027568,1651,526,-0.0476637,0.0815088
434,498,-0.067627,-0.0756836,0.00610806,-0.00222934,-0.00146058,0.00635653,-0.0024778,-0.168501,0.00526182,0.0120962,1658,526,-0.0675728,0.0756646
441,498,-0.0898438,-0.0439453,0.00405881,-0.00247802,-0.00100416,0.00420958,-0.0026288,-0.149039,0.00398315,0.00699633,1665,526,-0.0898871,0.0439425
448,498,-0.0635986,-0.034668,0.00291395,-0.00377292,0.00036327,0.00293362,-0.0037926,0.0541136,0.00389393,0.00849043,1672,526,-0.06361,0.0346621
455,498,-0.0727539,-0.0250244,0.00218347,-0.00345871,0.000522883,0.00223152,-0.00350676,0.0916341,0.00334015,0.0123783,1679,526,-0.072714,0.0250054
462,498,-0.108521,-0.0297241,0.00192273,-0.00206078,0.00067812,0.002035,-0.00217305,0.164077,0.00242996,0.0148181,1686,526,-0.108531,0.0297119
469,498,-0.112549,-0.0413208,0.00150944,-0.00103146,0.000769463,0.00172429,-0.00124631,0.272286,0.00172246,0.0126475,1693,526,-0.112523,0.0413454
476,498,-0.0911865,-0.0367432,0.00100461,-0.000326084,0.000743162,0.00133675,-0.000658223,0.420295,0.00117379,0.00902558,1700,526,-0.0911802,0.0367692
483,498,-0.0725098,-0.024231,0.000746426,9.43956e-05,0.000712037,0.00120353,-0.000362713,0.570712,0.000946712,0.00746236,1707,526,-0.0724955,0.0242538
490,498,-0.078125,-0.0330811,0.000648541,0.00058158,0.000796356,0.00141212,-0.000181999,0.764389,0.00100757,0.00930878,1714,526,-0.0780666,0.0330712
497,498,-0.0610352,-0.0462646,0.00090086,0.000916716,0.000985654,0.00189447,-7.68979e-05,0.78942,0.00128938,0.0108414,1721,526,-0.0610819,0.0462915
504,498,-0.0828857,-0.0490723,0.00112656,0.00136104,0.00112302,0.00237292,0.000114672,0.837408,0.00154514,0.0127347,1728,526,-0.0828775,0.0490784
511,498,-0.0845947,-0.0452271,0.00103188,0.00160688,0.00141831,0.00276653,-0.000127775,0.885397,0.00188839,0.0144234,1735,526,-0.0846111,0.0452375
518,498,-0.0577393,-0.0579834,0.000843739,0.00135812,0.00187328,0.00299179,-0.000789927,0.853619,0.00230343,0.0144491,1742,526,-0.0576914,0.0580052
525,498,-0.0484619,-0.0796509,0.000467232,0.0014521,0.00206454,0.00308212,-0.00116279,0.90247,0.00253293,0.01515,1749,526,-0.0484054,0.079659
532,498,-0.0112305,-0.117493,-0.000304934,0.0014964,0.00230944,0.00307459,-0.00188312,0.971324,0.00288976,0.0218727,1756,526,-0.0111815,0.117522
539,498,0.0340576,-0.0795898,-0.00114119,0.00144864,0.00275554,0.00319836,-0.00289091,1.00505,0.00351713,0.0332686,1763,526,0.0340353,0.0795707
546,498,0.0506592,0.0111084,-0.00243077,0.00154145,0.00316276,0.00329,-0.00417932,1.06576,0.00432259,0.0408321,1770,526,0.0507115,-0.0110944
553,498,0.14209,0.100769,-0.00412286,0.00170715,0.00345816,0.00331498,-0.00573069,1.13559,0.00528424,0.0450518,1777,526,0.142056,-0.100748
560,498,0.0185547,-0.0802002,-0.00621417,0.00182391,0.00347874,0.00312035,-0.00751061,1.21407,0.00630983,0.0449269,1784,526,0.018514,0.0801895
567,498,-0.0888672,0.416382,-0.00841392,0.00206655,0.00346213,0.00310695,-0.00945432,1.27887,0.00755459,0.0440114,1791,526,-0.0888671,-0.416352
574,498,-0.201416,0.531128,-0.0106585,0.00284552,0.00342514,0.00366459,-0.0114775,1.33607,0.00912197,0.0428334,1798,526,-0.201391,-0.531112
581,498,-0.328369,0.390442,-0.0130881,0.00342089,0.00315597,0.00400364,-0.0136708,1.3882,0.0107011,0.0403794,1805,526,-0.328388,-0.390459
588,498,0,0,0,0,0,0,0,0,0,-1,1812,526,0,0
595,498,0,0,0,0,0,0,0,0,0,-1,1819,526,0,0
602,498,0,0,0,0,0,0,0,0,0,-1,1826,526,0,0
609,498,0,0,0,0,0,0,0,0,0,-1,1833,526,0,0
616,498,0,0,0,0,0,0,0,0,0,-1,1840,526,0,0
623,498,0,0,0,0,0,0,0,0,0,-1,1847,526,0,0
630,498,0,0,0,0,0,0,0,0,0,-1,1854,526,0,0
637,498,0,0,0,0,0,0,0,0,0,-1,1861,526,0,0
644,498,0,0,0,0,0,0,0,0,0,-1,1868,526,0,0
651,498,0,0,0,0,0,0,0,0,0,-1,1875,526,0,0
658,498,0,0,0,0,0,0,0,0,0,-1,1882,526,0,0
665,498,0,0,0,0,0,0,0,0,0,-1,1889,526,0,0
672,498,0,0,0,0,0,0,0,0,0,-1,1896,526,0,0
679,498,0,0,0,0,0,0,0,0,0,-1,1903,526,0,0
686,498,0,0,0,0,0,0,0,0,0,-1,1910,526,0,0
693,498,0,0,0,0,0,0,0,0,0,-1,1917,526,0,0
700,498,0,0,0,0,0,0,0,0,0,-1,1924,526,0,0
707,498,0,0,0,0,0,0,0,0,0,-1,1931,526,0,0
714,498,0,0,0,0,0,0,0,0,0,-1,1938,526,0,0
721,498,0,0,0,0,0,0,0,0,0,-1,1945,526,0,0
728,498,0,0,0,0,0,0,0,0,0,-1,1952,526,0,0
735,498,0,0,0,0,0,0,0,0,0,-1,1959,526,0,0
742,498,0,0,0,0,0,0,0,0,0,-1,1966,526,0,0
749,498,0,0,0,0,0,0,0,0,0,-1,1973,526,0,0
756,498,0,0,0,0,0,0,0,0,0,-1,1980,526,0,0
763,498,0,0,0,0,0,0,0,0,0,-1,1987,526,0,0
770,498,0,0,0,0,0,0,0,0,0,-1,1994,526,0,0
777,498,0,0,0,0,0,0,0,0,0,-1,2001,526,0,0
784,498,0,0,0,0,0,0,0,0,0,-1,2008,526,0,0
791,498,0,0,0,0,0,0,0,0,0,-1,2015,526,0,0
798,498,0,0,0,0,0,0,0,0,0,-1,2022,526,0,0
805,498,0,0,0,0,0,0,0,0,0,-1,2029,526,0,0
812,498,0,0,0,0,0,0,0,0,0,-1,2036,526,0,0
-700,491,0,0,0,0,0,0,0,0,0,-1,524,533,0,0
-693,491,0,0,0,0,0,0,0,0,0,-1,531,533,0,0
-686,491,0,0,0,0,0,0,0,0,0,-1,538,533,0,0
-679,491,0,0,0,0,0,0,0,0,0,-1,545,533,0,0
-672,491,0,0,0,0,0,0,0,0,0,-1,552,533,0,0
-665,491,0,0,0,0,0,0,0,0,0,-1,559,533,0,0
-658,491,0,0,0,0,0,0,0,0,0,-1,566,533,0,0
-651,491,0,0,0,0,0,0,0,0,0,-1,573,533,0,0
-644,491,0,0,0,0,0,0,0,0,0,-1,580,533,0,0
-637,491,0,0,0,0,0,0,0,0,0,-1,587,533,0,0
-630,491,0,0,0,0,0,0,0,0,0,-1,594,533,0,0
-623,491,0,0,0,0,0,0,0,0,0,-1,601,533,0,0
-616,491,0,0,0,0,0,0,0,0,0,-1,608,533,0,0
-609,491,0,0,0,0,0,0,0,0,0,-1,615,533,0,0
-602,491,0,0,0,0,0,0,0,0,0,-1,622,533,0,0
-595,491,0,0,0,0,0,0,0,0,0,-1,629,533,0,0
-588,491,0,0,0,0,0,0,0,0,0,-1,636,533,0,0
-581,491,0,0,0,0,0,0,0,0,0,-1,643,533,0,0
-574,491,0,0,0,0,0,0,0,0,0,-1,650,533,0,0
-567,491,0,0,0,0,0,0,0,0,0,-1,657,533,0,0
-560,491,0,0,0,0,0,0,0,0,0,-1,664,533,0,0
-553,491,0,0,0,0,0,0,0,0,0,-1,671,533,0,0
-546,491,0,0,0,0,0,0,0,0,0,-1,678,533,0,0
-539,491,0,0,0,0,0,0,0,0,0,-1,685,533,0,0
-532,491,0,0,0,0,0,0,0,0,0,-1,692,533,0,0
-525,491,0,0,0,0,0,0,0,0,0,-1,699,533,0,0
-518,491,0,0,0,0,0,0,0,0,0,-1,706,533,0,0
-511,491,0,0,0,0,0,0,0,0,0,-1,713,533,0,0
-504,491,0,0,0,0,0,0,0,0,0,-1,720,533,0,0
-497,491,0,0,0,0,0,0,0,0,0,-1,727,533,0,0
-490,491,0,0,0,0,0,0,0,0,0,-1,734,533,0,0
-483,491,0,0,0,0,0,0,0,0,0,-1,741,533,0,0
-476,491,0,0,0,0,0,0,0,0,0,-1,748,533,0,0
-469,491,-0.255676,2.34125,0.0023496,0.0381198,-0.0327812,0.0575774,-0.0171081,-1.03512,0.0451806,0.0444959,755,533,-0.255647,-2.34123
-462,491,-0.0802002,1.6203,-0.00212946,0.030951,-0.0267623,0.0458718,-0.0170503,-1.06219,0.037577,0.0409475,762,533,-0.080185,-1.62031
-455,491,1.15662,-3.38867,0,0,0,0,0,0,0,-1,769,533,1.15662,3.38865
-448,491,1.02515,-2.65247,0,0,0,0,0,0,0,-1,776,533,1.02515,2.65246
-441,491,0.919495,-1.88531,0,0,0,0,0,0,0,-1,783,533,0.919479,1.88532
-434,491,0.932373,-1.05499,0,0,0,0,0,0,0,-1,790,533,0.932377,1.05498
-427,491,0.00708008,-0.237,-0.00755255,0.00946837,-0.00267168,0.00987788,-0.00796206,-1.4187,0.0103197,0.0462497,797,533,0.00710572,0.237
-420,491,-0.0283813,-0.0272827,-0.00680207,0.00704102,-0.000263643,0.00704604,-0.00680709,-1.55176,0.0079985,0.0431224,804,533,-0.0283708,0.0273083
-413,491,-0.0909424,-0.00708008,-0.00574248,0.00442535,0.00170134,0.00470247,-0.00601961,1.40933,0.00620595,0.0333598,811,533,-0.0909461,0.00709576
-406,491,-0.0637207,-0.0324707,-0.00431387,0.00262704,0.0027683,0.0035959,-0.00528274,1.23414,0.00515683,0.0188366,818,533,-0.0637068,0.0324507
-399,491,-0.0723877,-0.0369873,-0.00307956,0.0015916,0.00306408,0.00310875,-0.00459671,1.11104,0.00447632,0.0107818,825,533,-0.0724131,0.0370143
-392,491,-0.079834,-0.0188599,-0.00200877,0.00134643,0.00253188,0.00270606,-0.00336839,1.07799,0.00351403,0.00937469,832,533,-0.0798406,0.0188361
-385,491,-0.0811157,-0.0302124,-0.000937429,0.00123915,0.00206805,0.00248778,-0.00218606,1.02761,0.00270032,0.00867858,839,533,-0.081102,0.030242
-378,491,-0.0888062,-0.0270386,-0.000361929,0.00102634,0.00165629,0.00212807,-0.00146366,0.983825,0.00208548,0.0116664,846,533,-0.0888288,0.0270263
-371,491,-0.0748291,-0.0244751,-6.42616e-05,0.00105196,0.00116949,0.00178968,-0.00080199,1.00803,0.0015321,0.0132231,853,533,-0.074815,0.0245023
-364,491,-0.065918,-0.0388794,-0.000346121,0.00190345,0.000672004,0.00208891,-0.000531576,1.30153,0.00159952,0.0125969,860,533,-0.0659119,0.0388525
-357,491,-0.088562,-0.0396118,-0.000764552,0.0030863,0.000307101,0.00311063,-0.000788889,1.49171,0.00238069,0.011319,867,533,-0.0885508,0.039615
-350,491,-0.0771484,-0.0133057,-0.0012511,0.00414081,1.77524e-05,0.00414087,-0.00125116,1.5675,0.00325871,0.0147443,874,533,-0.0771466,0.0133075
-343,491,-0.0644531,-0.02771,-0.00161949,0.0046918,-0.000224354,0.00469977,-0.00162745,-1.53531,0.00379386,0.0212945,881,533,-0.0644301,0.027717
-336,491,-0.0571289,-0.0308228,-0.00228966,0.00512532,-0.000521229,0.00516178,-0.00232612,-1.50096,0.00442527,0.0205388,888,533,-0.0571155,0.0307958
-329,491,-0.0762939,-0.0501099,-0.00312148,0.00529442,-0.000598777,0.00533681,-0.00316386,-1.50012,0.00496102,0.0209681,895,533,-0.0762811,0.0501123
-322,491,-0.0796509,-0.0480347,-0.00262992,0.00575995,-0.000391951,0.00577822,-0.00264819,-1.52421,0.00497561,0.0176384,902,533,-0.0796325,0.0480086
-315,491,-0.0895996,-0.0354004,-0.000987068,0.00730451,0.000975388,0.00741771,-0.00110026,1.45526,0.00534974,0.01224,909,533,-0.0896051,0.0353905
-308,491,-0.0645142,-0.0302124,-0.000173858,0.00749328,0.00188293,0.00793074,-0.000611316,1.34252,0.00550226,0.0187391,916,533,-0.0645062,0.030213
-301,491,0.0462646,0.0336914,0.000217797,0.00712534,0.00259387,0.00799091,-0.000647768,1.24872,0.0055558,0.0323366,923,533,0.0462547,-0.0336612
-294,491,0.117004,0.0457153,0.000298032,0.00608744,0.00279979,0.00721991,-0.000834438,1.18643,0.00511416,0.0376352,930,533,0.117016,-0.0457248
-287,491,0.168762,0.00445557,0.000873548,0.00520151,0.00308145,0.00680292,-0.000727861,1.09152,0.00479635,0.0395533,937,533,0.168787,-0.00442515
-280,491,0.342224,-0.351501,-0.0013068,0.00390332,0.00242341,0.00485624,-0.00225973,1.19615,0.00419859,0.0437214,944,533,0.342218,0.351474
-273,491,-0.158447,-0.277283,-0.00477074,0.0025305,0.00140843,0.00279277,-0.00503301,1.38669,0.00457951,0.0459216,951,533,-0.158463,0.277256
-266,491,-0.183533,-0.25531,-0.0047711,0.000296697,-0.000937035,0.000464405,-0.00493881,-1.39369,0.00345775,0.0420844,958,533,-0.183545,0.255326
-259,491,-0.282227,0.090332,-0.00524056,-0.0027093,-0.00404967,0.000267908,-0.00821777,-0.936853,0.00556996,0.0416453,965,533,-0.282239,-0.0903477
-252,491,3.2832,2.14349,0,0,0,0,0,0,0,-1,972,533,3.28322,-2.1435
-245,491,2.38379,2.32983,0,0,0,0,0,0,0,-1,979,533,2.3838,-2.32985
-238,491,0.0751953,-0.517944,0,0,0,0,0,0,0,-1,986,533,0.0752181,0.517967
-231,491,-0.328125,-0.69043,-0.00597136,-0.00947143,-0.0231849,0.0155295,-0.0309723,-0.747729,0.0273369,0.044626,993,533,-0.328108,0.690447
-224,491,-1.05719,-1.11365,-0.00353961,-0.0106524,-0.0269377,0.0200754,-0.0342675,-0.719766,0.0317296,0.0445693,1000,533,-1.0572,1.11366
-217,491,-2.09698,-1.59283,0,0,0,0,0,0,0,-1,1007,533,-2.09701,1.59284
-210,491,0.0465698,0.782837,0,0,0,0,0,0,0,-1,1014,533,0.0465655,-0.782819
-203,491,0,0,0,0,0,0,0,0,0,-1,1021,533,0,0
-196,491,0,0,0,0,0,0,0,0,0,-1,1028,533,0,0
-189,491,0,0,0,0,0,0,0,0,0,-1,1035,533,0,0
-182,491,0,0,0,0,0,0,0,0,0,-1,1042,533,0,0
-175,491,0,0,0,0,0,0,0,0,0,-1,1049,533,0,0
-168,491,0,0,0,0,0,0,0,0,0,-1,1056,533,0,0
-161,491,0,0,0,0,0,0,0,0,0,-1,1063,533,0,0
-154,491,0,0,0,0,0,0,0,0,0,-1,1070,533,0,0
-147,491,0,0,0,0,0,0,0,0,0,-1,1077,533,0,0
-140,491,0,0,0,0,0,0,0,0,0,-1,1084,533,0,0
-133,491,0,0,0,0,0,0,0,0,0,-1,1091,533,0,0
-126,491,0,0,0,0,0,0,0,0,0,-1,1098,533,0,0
-119,491,0,0,0,0,0,0,0,0,0,-1,1105,533,0,0
-112,491,0,0,0,0,0,0,0,0,0,-1,1112,533,0,0
-105,491,0,0,0,0,0,0,0,0,0,-1,1119,533,0,0
-98,491,0,0,0,0,0,0,0,0,0,-1,1126,533,0,0
-91,491,0,0,0,0,0,0,0,0,0,-1,1133,533,0,0
-84,491,0,0,0,0,0,0,0,0,0,-1,1140,533,0,0
-77,491,0,0,0,0,0,0,0,0,0,-1,1147,533,0,0
-70,491,0,0,0,0,0,0,0,0,0,-1,1154,533,0,0
-63,491,0,0,0,0,0,0,0,0,0,-1,1161,533,0,0
-56,491,0,0,0,0,0,0,0,0,0,-1,1168,533,0,0
-49,491,0,0,0,0,0,0,0,0,0,-1,1175,533,0,0
-42,491,0,0,0,0,0,0,0,0,0,-1,1182,533,0,0
-35,491,0,0,0,0,0,0,0,0,0,-1,1189,533,0,0
-28,491,0,0,0,0,0,0,0,0,0,-1,1196,533,0,0
-21,491,0,0,0,0,0,0,0,0,0,-1,1203,533,0,0
-14,491,0,0,0,0,0,0,0,0,0,-1,1210,533,0,0
-7,491,0,0,0,0,0,0,0,0,0,-1,1217,533,0,0
0,491,0,0,0,0,0,0,0,0,0,-1,1224,533,0,0
7,491,0,0,0,0,0,0,0,0,0,-1,1231,533,0,0
14,491,0,0,0,0,0,0,0,0,0,-1,1238,533,0,0
21,491,0,0,0,0,0,0,0,0,0,-1,1245,533,0,0
28,491,0,0,0,0,0,0,0,0,0,-1,1252,533,0,0
35,491,0,0,0,0,0,0,0,0,0,-1,1259,533,0,0
42,491,0,0,0,0,0,0,0,0,0,-1,1266,533,0,0
49,491,0,0,0,0,0,0,0,0,0,-1,1273,533,0,0
56,491,0,0,0,0,0,0,0,0,0,-1,1280,533,0,0
63,491,0,0,0,0,0,0,0,0,0,-1,1287,533,0,0
70,491,0,0,0,0,0,0,0,0,0,-1,1294,533,0,0
77,491,0,0,0,0,0,0,0,0,0,-1,1301,533,0,0
84,491,0,0,0,0,0,0,0,0,0,-1,1308,533,0,0
91,491,0,0,0,0,0,0,0,0,0,-1,1315,533,0,0
98,491,0,0,0,0,0,0,0,0,0,-1,1322,533,0,0
105,491,0,0,0,0,0,0,0,0,0,-1,1329,533,0,0
112,491,0,0,0,0,0,0,0,0,0,-1,1336,533,0,0
119,491,0,0,0,0,0,0,0,0,0,-1,1343,533,0,0
126,491,0,0,0,0,0,0,0,0,0,-1,1350,533,0,0
133,491,0,0,0,0,0,0,0,0,0,-1,1357,533,0,0
140,491,0,0,0,0,0,0,0,0,0,-1,1364,533,0,0
147,491,0,0,0,0,0,0,0,0,0,-1,1371,533,0,0
154,491,0,0,0,0,0,0,0,0,0,-1,1378,533,0,0
161,491,0,0,0,0,0,0,0,0,0,-1,1385,533,0,0
168,491,0,0,0,0,0,0,0,0,0,-1,1392,533,0,0
175,491,0,0,0,0,0,0,0,0,0,-1,1399,533,0,0
182,491,0,0,0,0,0,0,0,0,0,-1,1406,533,0,0
189,491,0,0,0,0,0,0,0,0,0,-1,1413,533,0,0
196,491,0,0,0,0,0,0,0,0,0,-1,1420,533,0,0
203,491,0,0,0,0,0,0,0,0,0,-1,1427,533,0,0
210,491,0,0,0,0,0,0,0,0,0,-1,1434,533,0,0
217,491,0,0,0,0,0,0,0,0,0,-1,1441,533,0,0
224,491,0,0,0,0,0,0,0,0,0,-1,1448,533,0,0
231,491,0,0,0,0,0,0,0,0,0,-1,1455,533,0,0
238,491,0,0,0,0,0,0,0,0,0,-1,1462,533,0,0
245,491,0,0,0,0,0,0,0,0,0,-1,1469,533,0,0
252,491,0,0,0,0,0,0,0,0,0,-1,1476,533,0,0
259,491,0,0,0,0,0,0,0,0,0,-1,1483,533,0,0
266,491,0,0,0,0,0,0,0,0,0,-1,1490,533,0,0
273,491,0,0,0,0,0,0,0,0,0,-1,1497,533,0,0
280,491,0,0,0,0,0,0,0,0,0,-1,1504,533,0,0
287,491,0,0,0,0,0,0,0,0,0,-1,1511,533,0,0
294,491,0,0,0,0,0,0,0,0,0,-1,1518,533,0,0
301,491,0,0,0,0,0,0,0,0,0,-1,1525,533,0,0
308,491,0,0,0,0,0,0,0,0,0,-1,1532,533,0,0
315,491,0,0,0,0,0,0,0,0,0,-1,1539,533,0,0
322,491,-0.0844727,1.18298,0,0,0,0,0,0,0,-1,1546,533,-0.084425,-1.18297
329,491,0.544922,1.0686,0.0930845,-0.0229983,0.0421036,0.106747,-0.0366613,0.313787,0.0860299,0.0394456,1553,533,0.544876,-1.06859
336,491,1.57288,1.35437,0.084632,-0.0189797,0.0387967,0.0975489,-0.0318966,0.321394,0.0778736,0.0444935,1560,533,1.57287,-1.35436
343,491,2.56323,1.57983,0,0,0,0,0,0,0,-1,1567,533,2.56322,-1.57986
350,491,2.71436,-0.872681,0,0,0,0,0,0,0,-1,1574,533,2.71434,0.872703
357,491,0.51001,-1.77374,0,0,0,0,0,0,0,-1,1581,533,0.509952,1.77374
364,491,0.0601807,-0.793152,0,0,0,0,0,0,0,-1,1588,533,0.0601618,0.793171
371,491,0.0264893,-0.641907,0,0,0,0,0,0,0,-1,1595,533,0.026429,0.641905
378,491,-0.00732422,-0.490662,0,0,0,0,0,0,0,-1,1602,533,-0.00730368,0.490639
385,491,0.777222,0.218872,0.0246787,0.00310044,0.00458256,0.0256116,0.00216757,0.200824,0.0163997,0.0413915,1609,533,0.777161,-0.218848
392,491,1.15942,0.927551,0,0,0,0,0,0,0,-1,1616,533,1.15942,-0.927565
399,491,1.35681,1.50385,0,0,0,0,0,0,0,-1,1623,533,1.35685,-1.50387
406,491,1.43433,2.0752,0.0164001,0.00215869,-0.000251349,0.0164045,0.00215426,-0.0176418,0.0102937,0.0429151,1630,533,1.43437,-2.07518
413,491,0.922363,2.16901,0.0143022,0.00101673,-0.00121521,0.0144125,0.000906491,-0.0904685,0.00932086,0.0459922,1637,533,0.922424,-2.16901
420,491,0.570313,2.03894,0,0,0,0,0,0,0,-1,1644,533,0.57033,-2.03896
427,491,-0.219238,-0.100891,0.00980771,-0.00163914,-0.00140672,0.00997805,-0.00180948,-0.120503,0.00733002,0.0397982,1651,533,-0.21926,0.100918
434,491,-0.0892334,-0.0916138,0.00762877,-0.00292299,-0.00151193,0.00784114,-0.00313535,-0.139547,0.00652852,0.0264186,1658,533,-0.0892382,0.0916094
441,491,-0.0665283,-0.0717163,0.00541003,-0.00328814,-0.00107061,0.00553986,-0.00341798,-0.120686,0.00521995,0.0145479,1665,533,-0.0665525,0.0717318
448,491,-0.0705566,-0.0359497,0.00419432,-0.00483321,0.000312613,0.00420513,-0.00484403,0.0345736,0.00522887,0.00967482,1672,533,-0.0705377,0.0359465
455,491,-0.0784912,-0.0244141,0.0034269,-0.0047802,0.000489231,0.00345596,-0.00480926,0.0593307,0.0047932,0.0101965,1679,533,-0.0784937,0.0244186
462,491,-0.0875244,-0.0389404,0.00317256,-0.00343128,0.000594888,0.00322572,-0.00348444,0.089126,0.00387507,0.0137675,1686,533,-0.0875143,0.0389478
469,491,-0.107178,-0.0528564,0.00278558,-0.002446,0.000631939,0.00286083,-0.00252125,0.118522,0.00310941,0.0134314,1693,533,-0.107223,0.0528702
476,491,-0.0828857,-0.0421143,0.00229488,-0.0018218,0.000529666,0.00236194,-0.00188885,0.125931,0.00245926,0.0093881,1700,533,-0.0828689,0.0421226
483,491,-0.0692139,-0.0197144,0.00194073,-0.00156151,0.000480718,0.00200551,-0.0016263,0.13396,0.00210063,0.0103351,1707,533,-0.0692635,0.0197159
490,491,-0.0683594,-0.0472412,0.001645,-0.00101644,0.000472671,0.00172645,-0.00109789,0.17065,0.00164404,0.00956146,1714,533,-0.0683747,0.0472255
497,491,-0.0705566,-0.0686646,0.00171303,-0.00055234,0.000564725,0.001846,-0.000685313,0.231252,0.0015118,0.010718,1721,533,-0.0705969,0.0686467
504,491,-0.0998535,-0.0584106,0.00170992,3.95069e-05,0.000671499,0.00194639,-0.000196958,0.338585,0.00136798,0.0118238,1728,533,-0.0998582,0.0584326
511,491,-0.0855713,-0.0297852,0.0014248,0.000379326,0.000980786,0.00201346,-0.000209329,0.540557,0.00141724,0.0106124,1735,533,-0.0855836,0.0297766
518,491,-0.0599365,-0.0498657,0.00110839,0.000356721,0.0014104,0.00219217,-0.000727064,0.655188,0.00175475,0.00853215,1742,533,-0.0599545,0.0498357
525,491,-0.057251,-0.0684204,0.000588137,0.000595055,0.00162024,0.00221184,-0.00102864,0.786466,0.00191201,0.00807597,1749,533,-0.0572135,0.0683957
532,491,-0.0562744,-0.0618896,-0.00033517,0.000886347,0.00185361,0.00222722,-0.00167605,0.944545,0.00226103,0.0111053,1756,533,-0.0562169,0.061886
539,491,-0.0505371,-0.069397,-0.0011325,0.00105834,0.00230246,0.00251268,-0.00258684,1.00743,0.00294431,0.0177626,1763,533,-0.0505891,0.0693809
546,491,-0.0588379,-0.0463867,-0.00222584,0.00133994,0.00271978,0.00280911,-0.00369501,1.07552,0.00376675,0.0301839,1770,533,-0.0588216,0.046379
553,491,-0.0616455,-0.0178223,-0.00363008,0.00173254,0.00302393,0.00309271,-0.00499025,1.14811,0.00470937,0.0405618,1777,533,-0.061632,0.0178231
560,491,0.0739746,-0.0437012,-0.00531192,0.00203596,0.00304727,0.00313525,-0.00641121,1.22458,0.00561878,0.0428948,1784,533,0.0739201,0.0437228
567,491,0.00158691,0.103699,-0.00709214,0.00254381,0.00319561,0.00350726,-0.00805558,1.27797,0.0068458,0.0426245,1791,533,0.0015753,-0.103708
574,491,-0.261719,0.429565,-0.00887569,0.0035201,0.0034158,0.00439904,-0.00975463,1.31894,0.00836435,0.040205,1798,533,-0.261697,-0.429538
581,491,-0.398071,0.398376,-0.0108056,0.00454794,0.00361584,0.00535687,-0.0116146,1.3507,0.010018,0.0380744,1805,533,-0.398028,-0.398355
588,491,-0.387085,0.350647,-0.01245,0.00526035,0.00355226,0.00594628,-0.013136,1.38005,0.0112748,0.0408387,1812,533,-0.387135,-0.350655
595,491,0,0,0,0,0,0,0,0,0,-1,1819,533,0,0
602,491,0,0,0,0,0,0,0,0,0,-1,1826,533,0,0
609,491,0,0,0,0,0,0,0,0,0,-1,1833,533,0,0
616,491,0,0,0,0,0,0,0,0,0,-1,1840,533,0,0
623,491,0,0,0,0,0,0,0,0,0,-1,1847,533,0,0
630,491,0,0,0,0,0,0,0,0,0,-1,1854,533,0,0
637,491,0,0,0,0,0,0,0,0,0,-1,1861,533,0,0
644,491,0,0,0,0,0,0,0,0,0,-1,1868,533,0,0
651,491,0,0,0,0,0,0,0,0,0,-1,1875,533,0,0
658,491,0,0,0,0,0,0,0,0,0,-1,1882,533,0,0
665,491,0,0,0,0,0,0,0,0,0,-1,1889,533,0,0
672,491,0,0,0,0,0,0,0,0,0,-1,1896,533,0,0
679,491,0,0,0,0,0,0,0,0,0,-1,1903,533,0,0
686,491,0,0,0,0,0,0,0,0,0,-1,1910,533,0,0
693,491,0,0,0,0,0,0,0,0,0,-1,1917,533,0,0
700,491,0,0,0,0,0,0,0,0,0,-1,1924,533,0,0
707,491,0,0,0,0,0,0,0,0,0,-1,1931,533,0,0
714,491,0,0,0,0,0,0,0,0,0,-1,1938,533,0,0
721,491,0,0,0,0,0,0,0,0,0,-1,1945,533,0,0
728,491,0,0,0,0,0,0,0,0,0,-1,1952,533,0,0
735,491,0,0,0,0,0,0,0,0,0,-1,1959,533,0,0
742,491,0,0,0,0,0,0,0,0,0,-1,1966,533,0,0
749,491,0,0,0,0,0,0,0,0,0,-1,1973,533,0,0
756,491,0,0,0,0,0,0,0,0,0,-1,1980,533,0,0
763,491,0,0,0,0,0,0,0,0,0,-1,1987,533,0,0
770,491,0,0,0,0,0,0,0,0,0,-1,1994,533,0,0
777,491,0,0,0,0,0,0,0,0,0,-1,2001,533,0,0
784,491,0,0,0,0,0,0,0,0,0,-1,2008,533,0,0
791,491,0,0,0,0,0,0,0,0,0,-1,2015,533,0,0
798,491,0,0,0,0,0,0,0,0,0,-1,2022,533,0,0
805,491,0,0,0,0,0,0,0,0,0,-1,2029,533,0,0
812,491,0,0,0,0,0,0,0,0,0,-1,2036,533,0,0
-700,484,0,0,0,0,0,0,0,0,0,-1,524,540,0,0
-693,484,0,0,0,0,0,0,0,0,0,-1,531,540,0,0
-686,484,0,0,0,0,0,0,0,0,0,-1,538,540,0,0
-679,484,0,0,0,0,0,0,0,0,0,-1,545,540,0,0
-672,484,0,0,0,0,0,0,0,0,0,-1,552,540,0,0
-665,484,0,0,0,0,0,0,0,0,0,-1,559,540,0,0
-658,484,0,0,0,0,0,0,0,0,0,-1,566,540,0,0
-651,484,0,0,0,0,0,0,0,0,0,-1,573,540,0,0
-644,484,0,0,0,0,0,0,0,0,0,-1,580,540,0,0
-637,484,0,0,0,0,0,0,0,0,0,-1,587,540,0,0
-630,484,0,0,0,0,0,0,0,0,0,-1,594,540,0,0
-623,484,0,0,0,0,0,0,0,0,0,-1,601,540,0,0
-616,484,0,0,0,0,0,0,0,0,0,-1,608,540,0,0
-609,484,0,0,0,0,0,0,0,0,0,-1,615,540,0,0
-602,484,0,0,0,0,0,0,0,0,0,-1,622,540,0,0
-595,484,0,0,0,0,0,0,0,0,0,-1,629,540,0,0
-588,484,0,0,0,0,0,0,0,0,0,-1,636,540,0,0
-581,484,0,0,0,0,0,0,0,0,0,-1,643,540,0,0
-574,484,0,0,0,0,0,0,0,0,0,-1,650,540,0,0
-567,484,0,0,0,0,0,0,0,0,0,-1,657,540,0,0
-560,484,0,0,0,0,0,0,0,0,0,-1,664,540,0,0
-553,484,0,0,0,0,0,0,0,0,0,-1,671,540,0,0
-546,484,0,0,0,0,0,0,0,0,0,-1,678,540,0,0
-539,484,0,0,0,0,0,0,0,0,0,-1,685,540,0,0
-532,484,0,0,0,0,0,0,0,0,0,-1,692,540,0,0
-525,484,0,0,0,0,0,0,0,0,0,-1,699,540,0,0
-518,484,0,0,0,0,0,0,0,0,0,-1,706,540,0,0
-511,484,0,0,0,0,0,0,0,0,0,-1,713,540,0,0
-504,484,0,0,0,0,0,0,0,0,0,-1,720,540,0,0
-497,484,0,0,0,0,0,0,0,0,0,-1,727,540,0,0
-490,484,0,0,0,0,0,0,0,0,0,-1,734,540,0,0
-483,484,0,0,0,0,0,0,0,0,0,-1,741,540,0,0
-476,484,-0.958618,1.43402,0,0,0,0,0,0,0,-1,748,540,-0.958628,-1.43405
-469,484,-0.298401,1.73511,0.00217015,0.0354743,-0.0259329,0.0496412,-0.0119967,-1.07081,0.0377341,0.0447947,755,540,-0.298378,-1.73514
-462,484,0.0480957,1.1723,-0.000872275,0.0289062,-0.0223028,0.0408331,-0.0127992,-1.07972,0.0323439,0.0429384,762,540,0.0481085,-1.17232
-455,484,0.105652,0.510437,-0.0034269,0.0238426,-0.017463,0.0323633,-0.0119475,-1.11685,0.0264725,0.0450388,769,540,0.105634,-0.510412
-448,484,1.41248,-2.71027,0,0,0,0,0,0,0,-1,776,540,1.41246,2.71024
-441,484,0.349731,-0.129761,-0.00593658,0.0153168,-0.00928189,0.0187997,-0.00941946,-1.21182,0.0165897,0.0417649,783,540,0.349731,0.129732
-434,484,-0.101074,0.116882,-0.00596518,0.0118559,-0.00605942,0.013721,-0.00783028,-1.2722,0.0125966,0.0400372,790,540,-0.10108,-0.116875
-427,484,-0.0964355,-0.03125,-0.00552927,0.00920927,-0.00329153,0.00991096,-0.00623096,-1.36076,0.00939992,0.0347112,797,540,-0.0964301,0.031271
-420,484,-0.0823364,-0.0718994,-0.00511183,0.00695494,-0.00105561,0.00704659,-0.00520348,-1.48419,0.00709921,0.0270257,804,540,-0.0823089,0.0718967
-413,484,-0.0947876,-0.0346069,-0.00432346,0.00450921,0.00077249,0.00457627,-0.00439051,1.48421,0.00517734,0.016688,811,540,-0.0947789,0.0346043
-406,484,-0.0661011,-0.0443115,-0.00316295,0.00278216,0.00178576,0.00327732,-0.0036581,1.30031,0.00400618,0.0114831,818,540,-0.0661172,0.044287
-399,484,-0.0614014,-0.0550537,-0.00220672,0.00171602,0.0021136,0.0026381,-0.0031288,1.15943,0.00333353,0.0156618,825,540,-0.061426,0.0550363
-392,484,-0.0675659,-0.0426025,-0.00136622,0.00145735,0.00166262,0.00222672,-0.00213559,1.13739,0.00251876,0.0169317,832,540,-0.0675738,0.0425858
-385,484,-0.0733032,-0.0327148,-0.000491621,0.00132688,0.00128908,0.00199512,-0.00115986,1.09255,0.00184268,0.0111053,839,540,-0.0732853,0.0326882
-378,484,-0.0881348,-0.0419312,-5.58065e-05,0.0011692,0.00100559,0.00173414,-0.000620749,1.05894,0.00140934,0.0113823,846,540,-0.0881278,0.0419422
-371,484,-0.0834961,-0.0275269,4.81936e-05,0.00142342,0.000612232,0.00165648,-0.000184867,1.20706,0.00117082,0.0128501,853,540,-0.0834907,0.0274968
-364,484,-0.0786743,-0.0285034,-0.000375477,0.00251105,0.000241024,0.00253103,-0.000395464,1.48806,0.00183345,0.00997717,860,540,-0.0786557,0.0285309
-357,484,-0.0725098,-0.0495605,-0.000942258,0.00422091,-4.12265e-05,0.00422124,-0.000942588,-1.56281,0.00317534,0.0118762,867,540,-0.0725192,0.0495589
-350,484,-0.057373,-0.0238037,-0.00156123,0.00577748,-0.000270481,0.00578744,-0.00157119,-1.53401,0.00447493,0.0150639,874,540,-0.0573994,0.0238288
-343,484,-0.0794067,-0.0302734,-0.00217337,0.00672918,-0.000497209,0.00675686,-0.00220105,-1.51518,0.0053902,0.0211171,881,540,-0.0794165,0.0302829
-336,484,-0.0682373,-0.0429077,-0.003135,0.00747574,-0.000827476,0.00753988,-0.00319914,-1.49343,0.00636677,0.0220741,888,540,-0.068238,0.0428893
-329,484,-0.0917969,-0.0422974,-0.00424223,0.0078079,-0.00102782,0.00789494,-0.00432927,-1.48631,0.00715703,0.0218804,895,540,-0.0917893,0.0422849
-322,484,-0.0842896,-0.0245972,-0.00405557,0.0084962,-0.000992841,0.00857424,-0.00413362,-1.49235,0.00748471,0.0176887,902,540,-0.0843097,0.024625
-315,484,-0.117554,-0.0446777,-0.00282082,0.0100574,0.000183605,0.01006,-0.00282344,1.55654,0.00781964,0.0181073,909,540,-0.117575,0.0446503
-308,484,-0.147827,-0.0613403,-0.00232633,0.00996136,0.000922642,0.0100303,-0.00239522,1.49627,0.00761191,0.0320014,916,540,-0.147798,0.0613357
-301,484,-0.144775,0.0385742,-0.00223807,0.00910005,0.00147544,0.00928891,-0.00242693,1.44349,0.00714041,0.0432255,923,540,-0.144788,-0.0385759
-294,484,-0.118958,0.02771,-0.00243723,0.00748512,0.00164841,0.0077518,-0.00270392,1.4104,0.00626673,0.0440212,930,540,-0.118961,-0.0277274
-287,484,0.188904,-0.325134,-0.00207001,0.00578155,0.0019299,0.00623027,-0.00251873,1.34235,0.00520054,0.0424252,937,540,0.188917,0.325125
-280,484,-1.2149,-0.369934,-0.00457304,0.00363194,0.00123993,0.00381522,-0.00475632,1.42404,0.00495872,0.0456732,944,540,-1.2149,0.369917
-273,484,-1.31702,-0.421143,0,0,0,0,0,0,0,-1,951,540,-1.31702,0.421163
-266,484,-0.198486,0.257019,0,0,0,0,0,0,0,-1,958,540,-0.198475,-0.25702
-259,484,-0.274353,0.48999,-0.0114243,-0.00543029,-0.00569502,-0.00199183,-0.0148628,-1.02761,0.00931581,0.0462356,965,540,-0.274327,-0.489995
-252,484,-0.370483,0.598755,-0.0140748,-0.00855555,-0.010227,-0.000722377,-0.0219079,-0.917178,0.0143706,0.0438089,972,540,-0.370457,-0.598731
-245,484,2.7951,2.87823,0,0,0,0,0,0,0,-1,979,540,2.79511,-2.87823
-238,484,-0.408752,0.887024,0,0,0,0,0,0,0,-1,986,540,-0.408738,-0.887015
-231,484,-0.450134,-0.930725,-0.020616,-0.0131048,-0.02523,0.00864758,-0.0423683,-0.859284,0.0315259,0.0477091,993,540,-0.450138,0.930708
-224,484,-1.11871,-1.15869,-0.0217201,-0.0137162,-0.0283053,0.0108687,-0.046305,-0.855626,0.035059,0.0463685,1000,540,-1.11872,1.15871
-217,484,-2.04218,-1.6308,0,0,0,0,0,0,0,-1,1007,540,-2.04216,1.63081
-210,484,0,0,0,0,0,0,0,0,0,-1,1014,540,0,0
-203,484,0,0,0,0,0,0,0,0,0,-1,1021,540,0,0
-196,484,0,0,0,0,0,0,0,0,0,-1,1028,540,0,0
-189,484,0,0,0,0,0,0,0,0,0,-1,1035,540,0,0
-182,484,0,0,0,0,0,0,0,0,0,-1,1042,540,0,0
-175,484,0,0,0,0,0,0,0,0,0,-1,1049,540,0,0
-168,484,0,0,0,0,0,0,0,0,0,-1,1056,540,0,0
-161,484,0,0,0,0,0,0,0,0,0,-1,1063,540,0,0
-154,484,0,0,0,0,0,0,0,0,0,-1,1070,540,0,0
-147,484,0,0,0,0,0,0,0,0,0,-1,1077,540,0,0
-140,484,0,0,0,0,0,0,0,0,0,-1,1084,540,0,0
-133,484,0,0,0,0,0,0,0,0,0,-1,1091,540,0,0
-126,484,0,0,0,0,0,0,0,0,0,-1,1098,540,0,0
-119,484,0,0,0,0,0,0,0,0,0,-1,1105,540,0,0
-112,484,0,0,0,0,0,0,0,0,0,-1,1112,540,0,0
-105,484,0,0,0,0,0,0,0,0,0,-1,1119,540,0,0
-98,484,0,0,0,0,0,0,0,0,0,-1,1126,540,0,0
-91,484,0,0,0,0,0,0,0,0,0,-1,1133,540,0,0
-84,484,0,0,0,0,0,0,0,0,0,-1,1140,540,0,0
-77,484,0,0,0,0,0,0,0,0,0,-1,1147,540,0,0
-70,484,0,0,0,0,0,0,0,0,0,-1,1154,540,0,0
-63,484,0,0,0,0,0,0,0,0,0,-1,1161,540,0,0
-56,484,0,0,0,0,0,0,0,0,0,-1,1168,540,0,0
-49,484,0,0,0,0,0,0,0,0,0,-1,1175,540,0,0
-42,484,0,0,0,0,0,0,0,0,0,-1,1182,540,0,0
-35,484,0,0,0,0,0,0,0,0,0,-1,1189,540,0,0
-28,484,0,0,0,0,0,0,0,0,0,-1,1196,540,0,0
-21,484,0,0,0,0,0,0,0,0,0,-1,1203,540,0,0
-14,484,0,0,0,0,0,0,0,0,0,-1,1210,540,0,0
-7,484,0,0,0,0,0,0,0,0,0,-1,1217,540,0,0
0,484,0,0,0,0,0,0,0,0,0,-1,1224,540,0,0
7,484,0,0,0,0,0,0,0,0,0,-1,1231,540,0,0
14,484,0,0,0,0,0,0,0,0,0,-1,1238,540,0,0
21,484,0,0,0,0,0,0,0,0,0,-1,1245,540,0,0
28,484,0,0,0,0,0,0,0,0,0,-1,1252,540,0,0
35,484,0,0,0,0,0,0,0,0,0,-1,1259,540,0,0
42,484,0,0,0,0,0,0,0,0,0,-1,1266,540,0,0
49,484,0,0,0,0,0,0,0,0,0,-1,1273,540,0,0
56,484,0,0,0,0,0,0,0,0,0,-1,1280,540,0,0
63,484,0,0,0,0,0,0,0,0,0,-1,1287,540,0,0
70,484,0,0,0,0,0,0,0,0,0,-1,1294,540,0,0
77,484,0,0,0,0,0,0,0,0,0,-1,1301,540,0,0
84,484,0,0,0,0,0,0,0,0,0,-1,1308,540,0,0
91,484,0,0,0,0,0,0,0,0,0,-1,1315,540,0,0
98,484,0,0,0,0,0,0,0,0,0,-1,1322,540,0,0
105,484,0,0,0,0,0,0,0,0,0,-1,1329,540,0,0
112,484,0,0,0,0,0,0,0,0,0,-1,1336,540,0,0
119,484,0,0,0,0,0,0,0,0,0,-1,1343,540,0,0
126,484,0,0,0,0,0,0,0,0,0,-1,1350,540,0,0
133,484,0,0,0,0,0,0,0,0,0,-1,1357,540,0,0
140,484,0,0,0,0,0,0,0,0,0,-1,1364,540,0,0
147,484,0,0,0,0,0,0,0,0,0,-1,1371,540,0,0
154,484,0,0,0,0,0,0,0,0,0,-1,1378,540,0,0
161,484,0,0,0,0,0,0,0,0,0,-1,1385,540,0,0
168,484,0,0,0,0,0,0,0,0,0,-1,1392,540,0,0
175,484,0,0,0,0,0,0,0,0,0,-1,1399,540,0,0
182,484,0,0,0,0,0,0,0,0,0,-1,1406,540,0,0
189,484,0,0,0,0,0,0,0,0,0,-1,1413,540,0,0
196,484,0,0,0,0,0,0,0,0,0,-1,1420,540,0,0
203,484,0,0,0,0,0,0,0,0,0,-1,1427,540,0,0
210,484,0,0,0,0,0,0,0,0,0,-1,1434,540,0,0
217,484,0,0,0,0,0,0,0,0,0,-1,1441,540,0,0
224,484,0,0,0,0,0,0,0,0,0,-1,1448,540,0,0
231,484,0,0,0,0,0,0,0,0,0,-1,1455,540,0,0
238,484,0,0,0,0,0,0,0,0,0,-1,1462,540,0,0
245,484,0,0,0,0,0,0,0,0,0,-1,1469,540,0,0
252,484,0,0,0,0,0,0,0,0,0,-1,1476,540,0,0
259,484,0,0,0,0,0,0,0,0,0,-1,1483,540,0,0
266,484,0,0,0,0,0,0,0,0,0,-1,1490,540,0,0
273,484,0,0,0,0,0,0,0,0,0,-1,1497,540,0,0
280,484,0,0,0,0,0,0,0,0,0,-1,1504,540,0,0
287,484,0,0,0,0,0,0,0,0,0,-1,1511,540,0,0
294,484,0,0,0,0,0,0,0,0,0,-1,1518,540,0,0
301,484,0,0,0,0,0,0,0,0,0,-1,1525,540,0,0
308,484,0,0,0,0,0,0,0,0,0,-1,1532,540,0,0
315,484,0,0,0,0,0,0,0,0,0,-1,1539,540,0,0
322,484,0,0,0,0,0,0,0,0,0,-1,1546,540,0,0
329,484,0,0,0,0,0,0,0,0,0,-1,1553,540,0,0
336,484,0.727417,1.22742,0,0,0,0,0,0,0,-1,1560,540,0.727419,-1.2274
343,484,1.75037,1.49329,0,0,0,0,0,0,0,-1,1567,540,1.75032,-1.4933
350,484,0.0936279,-1.74939,0,0,0,0,0,0,0,-1,1574,540,0.09367,1.74938
357,484,-0.0469971,-1.4635,0.058848,-0.0063193,0.0282795,0.0694086,-0.0168799,0.357399,0.0528062,0.0490922,1581,540,-0.0469612,1.46353
364,484,-0.132324,-1.12872,0.0488004,-0.00359209,0.0220168,0.0568237,-0.0116155,0.349463,0.0422894,0.0486443,1588,540,-0.132277,1.12874
371,484,-0.157715,-0.735291,0,0,0,0,0,0,0,-1,1595,540,-0.157724,0.735283
378,484,-0.109497,-0.542908,0.0334554,0.00216356,0.0111661,0.0370313,-0.00141229,0.309922,0.0251715,0.0417712,1602,540,-0.109481,0.542895
385,484,0.939209,0.635437,0.0274919,0.00306635,0.00647613,0.0291027,0.00145551,0.243787,0.0189353,0.0429639,1609,540,0.939251,-0.635465
392,484,1.46289,1.21405,0,0,0,0,0,0,0,-1,1616,540,1.46292,-1.21407
399,484,1.60828,1.85895,0,0,0,0,0,0,0,-1,1623,540,1.60832,-1.85897
406,484,1.66113,2.3186,0.0185874,0.00228154,0.000513765,0.0186036,0.00226537,0.0314663,0.0117205,0.0473743,1630,540,1.66112,-2.3186
413,484,1.32776,2.73749,0.0162108,0.00112363,-0.000658434,0.0162395,0.00109495,-0.0435317,0.0104804,0.0483545,1637,540,1.32782,-2.73751
420,484,1.02161,3.1554,0,0,0,0,0,0,0,-1,1644,540,1.02162,-3.1554
427,484,-0.369995,-0.433472,0.0111972,-0.00178756,-0.0010838,0.0112871,-0.0018774,-0.0827045,0.00822228,0.0439854,1651,540,-0.369963,0.433448
434,484,-0.156738,-0.377991,0.00888414,-0.00327083,-0.00126149,0.00901368,-0.00340038,-0.10233,0.00740747,0.0435797,1658,540,-0.156762,0.378012
441,484,0.0310059,-0.119751,0.00659501,-0.00377515,-0.000954745,0.00668217,-0.00386232,-0.0910468,0.00616,0.0395807,1665,540,0.0309723,0.119762
448,484,-0.0662842,-0.0544434,0.00534665,-0.00551572,0.000242976,0.00535208,-0.00552115,0.0223537,0.00627792,0.0265906,1672,540,-0.0662636,0.0544602
455,484,-0.0864258,-0.0315552,0.00456057,-0.00575721,0.000285958,0.00456849,-0.00576513,0.0276868,0.00597944,0.0145654,1679,540,-0.0864202,0.0315808
462,484,-0.083252,-0.0352783,0.00435464,-0.00453363,0.000170433,0.00435791,-0.0045369,0.0191657,0.00513577,0.0118185,1686,540,-0.083192,0.035255
469,484,-0.0888672,-0.0465698,0.00401431,-0.00362023,2.88284e-05,0.00401442,-0.00362033,0.00377598,0.00440988,0.0149278,1693,540,-0.0888203,0.0465516
476,484,-0.0726318,-0.0306396,0.00354433,-0.00307851,-0.000242794,0.00355322,-0.0030874,-0.0365946,0.00383711,0.0138927,1700,540,-0.0725803,0.0306256
483,484,-0.0679932,-0.0363159,0.00318564,-0.00299617,-0.000400121,0.00321143,-0.00302196,-0.0643677,0.0035994,0.0108482,1707,540,-0.0679973,0.0363249
490,484,-0.060791,-0.0591431,0.00280097,-0.00241887,-0.000544048,0.00285707,-0.00247497,-0.102755,0.00308109,0.0111729,1714,540,-0.0607603,0.0591587
497,484,-0.0662842,-0.0764771,0.00269827,-0.00186825,-0.000534133,0.00275991,-0.00192989,-0.114901,0.00272176,0.0124875,1721,540,-0.0662532,0.076486
504,484,-0.0941162,-0.048645,0.0024535,-0.00115806,-0.000409228,0.00249929,-0.00120385,-0.111429,0.00218118,0.0138607,1728,540,-0.0941374,0.0486308
511,484,-0.0935059,-0.0241699,0.00197002,-0.000737556,-2.02262e-05,0.00197017,-0.000737707,-0.00746967,0.00161647,0.0148337,1735,540,-0.0935142,0.0241611
518,484,-0.0671387,-0.0487061,0.00153485,-0.000577892,0.000463851,0.0016322,-0.000675245,0.206876,0.00136986,0.0127552,1742,540,-0.0671025,0.0486856
525,484,-0.050293,-0.0732422,0.000894813,-0.000232079,0.000770613,0.001286,-0.000623261,0.469729,0.00112423,0.0115759,1749,540,-0.0502575,0.0732159
532,484,-0.0632324,-0.0819092,-0.000167536,0.000243125,0.00109301,0.00114992,-0.00107434,0.878245,0.00128442,0.0131007,1756,540,-0.0632246,0.0818985
539,484,-0.081665,-0.0506592,-0.000975373,0.000608479,0.00161464,0.00161494,-0.00198183,1.01339,0.0020802,0.0166482,1763,540,-0.0816428,0.0506774
546,484,-0.0715332,-0.0280151,-0.00191809,0.00106139,0.00209423,0.0021417,-0.00299839,1.09455,0.00298134,0.0184504,1770,540,-0.0715705,0.0280128
553,484,-0.0612793,-0.0120239,-0.00307207,0.00162174,0.00244161,0.00266149,-0.00411182,1.16821,0.00394034,0.0298321,1777,540,-0.0612369,0.0120146
560,484,0.137573,0.0247192,-0.00438527,0.00205856,0.00250408,0.00291723,-0.00524394,1.24045,0.00477525,0.0378489,1784,540,0.137611,-0.0247031
567,484,0.0117188,0.156311,-0.00581683,0.00276835,0.00279749,0.00359946,-0.00664794,1.28201,0.00600296,0.0411091,1791,540,0.0117467,-0.156336
574,484,-0.295776,0.244751,-0.00726561,0.00380387,0.00314305,0.00463405,-0.00809578,1.31256,0.0074396,0.039711,1798,540,-0.295736,-0.24475
581,484,-0.524902,0.270813,-0.00874123,0.00499777,0.00356255,0.0058666,-0.00961006,1.33159,0.00902216,0.040046,1805,540,-0.524935,-0.27083
588,484,-0.550415,0.378601,-0.010042,0.00603838,0.0037965,0.00688965,-0.0108933,1.35022,0.0103534,0.0444678,1812,540,-0.55039,-0.37863
595,484,-0.334106,0.360168,0,0,0,0,0,0,0,-1,1819,540,-0.334111,-0.36016
602,484,0,0,0,0,0,0,0,0,0,-1,1826,540,0,0
609,484,0,0,0,0,0,0,0,0,0,-1,1833,540,0,0
616,484,0,0,0,0,0,0,0,0,0,-1,1840,540,0,0
623,484,0,0,0,0,0,0,0,0,0,-1,1847,540,0,0
630,484,0,0,0,0,0,0,0,0,0,-1,1854,540,0,0
637,484,0,0,0,0,0,0,0,0,0,-1,1861,540,0,0
644,484,0,0,0,0,0,0,0,0,0,-1,1868,540,0,0
651,484,0,0,0,0,0,0,0,0,0,-1,1875,540,0,0
658,484,0,0,0,0,0,0,0,0,0,-1,1882,540,0,0
665,484,0,0,0,0,0,0,0,0,0,-1,1889,540,0,0
672,484,0,0,0,0,0,0,0,0,0,-1,1896,540,0,0
679,484,0,0,0,0,0,0,0,0,0,-1,1903,540,0,0
686,484,0,0,0,0,0,0,0,0,0,-1,1910,540,0,0
693,484,0,0,0,0,0,0,0,0,0,-1,1917,540,0,0
700,484,0,0,0,0,0,0,0,0,0,-1,1924,540,0,0
707,484,0,0,0,0,0,0,0,0,0,-1,1931,540,0,0
714,484,0,0,0,0,0,0,0,0,0,-1,1938,540,0,0
721,484,0,0,0,0,0,0,0,0,0,-1,1945,540,0,0
728,484,0,0,0,0,0,0,0,0,0,-1,1952,540,0,0
735,484,0,0,0,0,0,0,0,0,0,-1,1959,540,0,0
742,484,0,0,0,0,0,0,0,0,0,-1,1966,540,0,0
749,484,0,0,0,0,0,0,0,0,0,-1,1973,540,0,0
756,484,0,0,0,0,0,0,0,0,0,-1,1980,540,0,0
763,484,0,0,0,0,0,0,0,0,0,-1,1987,540,0,0
770,484,0,0,0,0,0,0,0,0,0,-1,1994,540,0,0
777,484,0,0,0,0,0,0,0,0,0,-1,2001,540,0,0
784,484,0,0,0,0,0,0,0,0,0,-1,2008,540,0,0
791,484,0,0,0,0,0,0,0,0,0,-1,2015,540,0,0
798,484,0,0,0,0,0,0,0,0,0,-1,2022,540,0,0
805,484,0,0,0,0,0,0,0,0,0,-1,2029,540,0,0
812,484,0,0,0,0,0,0,0,0,0,-1,2036,540,0,0
-700,477,0,0,0,0,0,0,0,0,0,-1,524,547,0,0
-693,477,0,0,0,0,0,0,0,0,0,-1,531,547,0,0
-686,477,0,0,0,0,0,0,0,0,0,-1,538,547,0,0
-679,477,0,0,0,0,0,0,0,0,0,-1,545,547,0,0
-672,477,0,0,0,0,0,0,0,0,0,-1,552,547,0,0
-665,477,0,0,0,0,0,0,0,0,0,-1,559,547,0,0
-658,477,0,0,0,0,0,0,0,0,0,-1,566,547,0,0
-651,477,0,0,0,0,0,0,0,0,0,-1,573,547,0,0
-644,477,0,0,0,0,0,0,0,0,0,-1,580,547,0,0
-637,477,0,0,0,0,0,0,0,0,0,-1,587,547,0,0
-630,477,0,0,0,0,0,0,0,0,0,-1,594,547,0,0
-623,477,0,0,0,0,0,0,0,0,0,-1,601,547,0,0
-616,477,0,0,0,0,0,0,0,0,0,-1,608,547,0,0
-609,477,0,0,0,0,0,0,0,0,0,-1,615,547,0,0
-602,477,0,0,0,0,0,0,0,0,0,-1,622,547,0,0
-595,477,0,0,0,0,0,0,0,0,0,-1,629,547,0,0
-588,477,0,0,0,0,0,0,0,0,0,-1,636,547,0,0
-581,477,0,0,0,0,0,0,0,0,0,-1,643,547,0,0
-574,477,0,0,0,0,0,0,0,0,0,-1,650,547,0,0
-567,477,0,0,0,0,0,0,0,0,0,-1,657,547,0,0
-560,477,0,0,0,0,0,0,0,0,0,-1,664,547,0,0
-553,477,0,0,0,0,0,0,0,0,0,-1,671,547,0,0
-546,477,0,0,0,0,0,0,0,0,0,-1,678,547,0,0
-539,477,0,0,0,0,0,0,0,0,0,-1,685,547,0,0
-532,477,0,0,0,0,0,0,0,0,0,-1,692,547,0,0
-525,477,0,0,0,0,0,0,0,0,0,-1,699,547,0,0
-518,477,0,0,0,0,0,0,0,0,0,-1,706,547,0,0
-511,477,0,0,0,0,0,0,0,0,0,-1,713,547,0,0
-504,477,0,0,0,0,0,0,0,0,0,-1,720,547,0,0
-497,477,0,0,0,0,0,0,0,0,0,-1,727,547,0,0
-490,477,0,0,0,0,0,0,0,0,0,-1,734,547,0,0
-483,477,-0.832764,1.70062,0,0,0,0,0,0,0,-1,741,547,-0.832743,-1.70065
-476,477,-0.427795,1.45947,0.00224962,0.0417015,-0.0181307,0.048768,-0.00481686,-1.19915,0.0342308,0.0445101,748,547,-0.427767,-1.45946
-469,477,-0.045105,1.28949,0.000634414,0.0332237,-0.0184862,0.0415716,-0.00771345,-1.14663,0.0306112,0.0430438,755,547,-0.04508,-1.28948
-462,477,0.200745,0.812439,-0.000939933,0.0265202,-0.0170174,0.0346557,-0.00907549,-1.12484,0.0266492,0.0447451,762,547,0.200773,-0.812461
-455,477,0.416992,0.236755,-0.00257282,0.0216429,-0.0138984,0.0279678,-0.00889768,-1.14373,0.0222132,0.0429812,769,547,0.416987,-0.236763
-448,477,0.456482,-0.285095,-0.00391722,0.0174801,-0.0106315,0.0218642,-0.00830136,-1.17967,0.0179933,0.0435638,776,547,0.456467,0.285115
-441,477,0.33783,-0.213013,-0.00433371,0.0136047,-0.00799902,0.0166535,-0.00738244,-1.20665,0.0142171,0.0426737,783,547,0.337832,0.213012
-434,477,0.0065918,-0.0959473,-0.00449302,0.0105962,-0.00547555,0.0123738,-0.00627057,-1.25689,0.0109549,0.0355803,790,547,0.00661562,0.0959763
-427,477,-0.108704,-0.0581055,-0.00427529,0.0083242,-0.00317151,0.00907749,-0.00502858,-1.3376,0.00825521,0.0169015,797,547,-0.108696,0.0580934
-420,477,-0.110535,-0.0593872,-0.00406571,0.00638872,-0.00125176,0.00653651,-0.0042135,-1.45327,0.00625464,0.0146221,804,547,-0.110505,0.0593689
-413,477,-0.0983887,-0.0307007,-0.00346312,0.00425368,0.000307923,0.00426595,-0.00347539,1.53098,0.00447722,0.0142922,811,547,-0.0984071,0.0307244
-406,477,-0.0643921,-0.0241699,-0.00248722,0.00270954,0.00117258,0.00296187,-0.00273954,1.35884,0.00329255,0.0101483,818,547,-0.0643702,0.0241796
-399,477,-0.0682983,-0.069458,-0.00171916,0.00173053,0.00146147,0.00226643,-0.00225506,1.21933,0.00261049,0.0161769,825,547,-0.0682897,0.0694883
-392,477,-0.0720215,-0.0552979,-0.00101431,0.00155219,0.00105708,0.00193151,-0.00139363,1.22627,0.00192813,0.0155941,832,547,-0.071991,0.0552802
-385,477,-0.0582275,-0.0314941,-0.000234818,0.00147435,0.00076138,0.00176433,-0.000524792,1.2069,0.0013847,0.0132361,839,547,-0.0582263,0.0315184
-378,477,-0.0744019,-0.0281372,0.000158696,0.00141323,0.000604854,0.00165735,-8.54226e-05,1.18719,0.00113444,0.0115326,846,547,-0.0743887,0.028138
-371,477,-0.0742798,-0.0164185,0.000152909,0.00194996,0.000274942,0.00199108,0.000111785,1.42232,0.00129174,0.0115497,853,547,-0.0742816,0.0164483
-364,477,-0.0769653,-0.0120239,-0.000311912,0.00336717,-1.26244e-05,0.00336721,-0.000311956,-1.56736,0.00235569,0.0118798,860,547,-0.0769784,0.0120485
-357,477,-0.0828857,-0.0344849,-0.000910401,0.00581369,-0.000306929,0.00582767,-0.000924382,-1.52528,0.00422707,0.0105204,867,547,-0.0828661,0.0345071
-350,477,-0.0682373,-0.0303345,-0.00159971,0.00801821,-0.000550514,0.00804962,-0.00163112,-1.51381,0.00598468,0.0101276,874,547,-0.0682586,0.0303099
-343,477,-0.0692139,-0.0269775,-0.0023886,0.00947261,-0.000878762,0.00953736,-0.00245335,-1.49724,0.00731448,0.0171892,881,547,-0.0692017,0.0269711
-336,477,-0.100586,-0.0516357,-0.00352666,0.010623,-0.00140833,0.0107618,-0.00366547,-1.47255,0.00865893,0.0199619,888,547,-0.100563,0.0516598
-329,477,-0.104492,-0.0549316,-0.00479391,0.0111926,-0.00190709,0.011417,-0.00501827,-1.45369,0.00972564,0.024655,895,547,-0.104519,0.0549416
-322,477,-0.0718994,-0.0322266,-0.0049161,0.0121997,-0.00224394,0.012489,-0.0052054,-1.44258,0.0105004,0.0309043,902,547,-0.0718922,0.0322016
-315,477,-0.19281,-0.0322876,-0.00418496,0.013726,-0.00151803,0.0138537,-0.00431271,-1.48684,0.01096,0.0356346,909,547,-0.192806,0.032304
-308,477,-0.43457,-0.09021,-0.00405991,0.0132941,-0.00119978,0.0133767,-0.00414247,-1.5021,0.0105727,0.037234,916,547,-0.43459,0.090189
-301,477,-0.638489,-0.1745,-0.00431837,0.0118031,-0.00100836,0.011866,-0.0043812,-1.50857,0.00970642,0.0421431,923,547,-0.638494,0.174475
-294,477,-0.879028,-0.332947,-0.00484392,0.00937821,-0.00101623,0.00945045,-0.00491616,-1.49982,0.00843115,0.0444014,930,547,-0.879008,0.332959
-287,477,-1.09448,-0.358643,-0.00478326,0.00644278,-0.000822704,0.00650275,-0.00484324,-1.49803,0.00657392,0.0453085,937,547,-1.09447,0.358663
-280,477,-1.0387,-0.670105,-0.00763792,0.00304875,-0.00157668,0.00327652,-0.00786568,-1.42733,0.00661233,0.0436482,944,547,-1.03867,0.670092
-273,477,-1.16718,-0.645935,-0.0124375,-0.000129043,-0.00287156,0.00050793,-0.0130745,-1.35251,0.00889045,0.0445902,951,547,-1.16719,0.645945
-266,477,-1.36218,-0.731567,0,0,0,0,0,0,0,-1,958,547,-1.36218,0.731558
-259,477,-0.219421,0.929199,0,0,0,0,0,0,0,-1,965,547,-0.219445,-0.929178
-252,477,-0.0180664,0.708801,-0.0229741,-0.0146686,-0.0130639,-0.00511328,-0.0325294,-0.939287,0.0201987,0.0462225,972,547,-0.0180812,-0.708792
-245,477,-0.208435,0.793579,-0.0282548,-0.0170872,-0.0184737,-0.00337184,-0.0419702,-0.932161,0.0269266,0.0448126,979,547,-0.208432,-0.793589
-238,477,-0.347656,0.97345,0,0,0,0,0,0,0,-1,986,547,-0.347675,-0.973475
-231,477,-0.457642,1.17657,0,0,0,0,0,0,0,-1,993,547,-0.457639,-1.17656
-224,477,0,0,0,0,0,0,0,0,0,-1,1000,547,0,0
-217,477,0,0,0,0,0,0,0,0,0,-1,1007,547,0,0
-210,477,0,0,0,0,0,0,0,0,0,-1,1014,547,0,0
-203,477,0,0,0,0,0,0,0,0,0,-1,1021,547,0,0
-196,477,0,0,0,0,0,0,0,0,0,-1,1028,547,0,0
-189,477,0,0,0,0,0,0,0,0,0,-1,1035,547,0,0
-182,477,0,0,0,0,0,0,0,0,0,-1,1042,547,0,0
-175,477,0,0,0,0,0,0,0,0,0,-1,1049,547,0,0
-168,477,0,0,0,0,0,0,0,0,0,-1,1056,547,0,0
-161,477,0,0,0,0,0,0,0,0,0,-1,1063,547,0,0
-154,477,0,0,0,0,0,0,0,0,0,-1,1070,547,0,0
-147,477,0,0,0,0,0,0,0,0,0,-1,1077,547,0,0
-140,477,0,0,0,0,0,0,0,0,0,-1,1084,547,0,0
-133,477,0,0,0,0,0,0,0,0,0,-1,1091,547,0,0
-126,477,0,0,0,0,0,0,0,0,0,-1,1098,547,0,0
-119,477,0,0,0,0,0,0,0,0,0,-1,1105,547,0,0
-112,477,0,0,0,0,0,0,0,0,0,-1,1112,547,0,0
-105,477,0,0,0,0,0,0,0,0,0,-1,1119,547,0,0
-98,477,0,0,0,0,0,0,0,0,0,-1,1126,547,0,0
-91,477,0,0,0,0,0,0,0,0,0,-1,1133,547,0,0
-84,477,0,0,0,0,0,0,0,0,0,-1,1140,547,0,0
-77,477,0,0,0,0,0,0,0,0,0,-1,1147,547,0,0
-70,477,0,0,0,0,0,0,0,0,0,-1,1154,547,0,0
-63,477,0,0,0,0,0,0,0,0,0,-1,1161,547,0,0
-56,477,0,0,0,0,0,0,0,0,0,-1,1168,547,0,0
-49,477,0,0,0,0,0,0,0,0,0,-1,1175,547,0,0
-42,477,0,0,0,0,0,0,0,0,0,-1,1182,547,0,0
-35,477,0,0,0,0,0,0,0,0,0,-1,1189,547,0,0
-28,477,0,0,0,0,0,0,0,0,0,-1,1196,547,0,0
-21,477,0,0,0,0,0,0,0,0,0,-1,1203,547,0,0
-14,477,0,0,0,0,0,0,0,0,0,-1,1210,547,0,0
-7,477,0,0,0,0,0,0,0,0,0,-1,1217,547,0,0
0,477,0,0,0,0,0,0,0,0,0,-1,1224,547,0,0
7,477,0,0,0,0,0,0,0,0,0,-1,1231,547,0,0
14,477,0,0,0,0,0,0,0,0,0,-1,1238,547,0,0
21,477,0,0,0,0,0,0,0,0,0,-1,1245,547,0,0
28,477,0,0,0,0,0,0,0,0,0,-1,1252,547,0,0
35,477,0,0,0,0,0,0,0,0,0,-1,1259,547,0,0
42,477,0,0,0,0,0,0,0,0,0,-1,1266,547,0,0
49,477,0,0,0,0,0,0,0,0,0,-1,1273,547,0,0
56,477,0,0,0,0,0,0,0,0,0,-1,1280,547,0,0
63,477,0,0,0,0,0,0,0,0,0,-1,1287,547,0,0
70,477,0,0,0,0,0,0,0,0,0,-1,1294,547,0,0
77,477,0,0,0,0,0,0,0,0,0,-1,1301,547,0,0
84,477,0,0,0,0,0,0,0,0,0,-1,1308,547,0,0
91,477,0,0,0,0,0,0,0,0,0,-1,1315,547,0,0
98,477,0,0,0,0,0,0,0,0,0,-1,1322,547,0,0
105,477,0,0,0,0,0,0,0,0,0,-1,1329,547,0,0
112,477,0,0,0,0,0,0,0,0,0,-1,1336,547,0,0
119,477,0,0,0,0,0,0,0,0,0,-1,1343,547,0,0
126,477,0,0,0,0,0,0,0,0,0,-1,1350,547,0,0
133,477,0,0,0,0,0,0,0,0,0,-1,1357,547,0,0
140,477,0,0,0,0,0,0,0,0,0,-1,1364,547,0,0
147,477,0,0,0,0,0,0,0,0,0,-1,1371,547,0,0
154,477,0,0,0,0,0,0,0,0,0,-1,1378,547,0,0
161,477,0,0,0,0,0,0,0,0,0,-1,1385,547,0,0
168,477,0,0,0,0,0,0,0,0,0,-1,1392,547,0,0
175,477,0,0,0,0,0,0,0,0,0,-1,1399,547,0,0
182,477,0,0,0,0,0,0,0,0,0,-1,1406,547,0,0
189,477,0,0,0,0,0,0,0,0,0,-1,1413,547,0,0
196,477,0,0,0,0,0,0,0,0,0,-1,1420,547,0,0
203,477,0,0,0,0,0,0,0,0,0,-1,1427,547,0,0
210,477,0,0,0,0,0,0,0,0,0,-1,1434,547,0,0
217,477,0,0,0,0,0,0,0,0,0,-1,1441,547,0,0
224,477,0,0,0,0,0,0,0,0,0,-1,1448,547,0,0
231,477,0,0,0,0,0,0,0,0,0,-1,1455,547,0,0
238,477,0,0,0,0,0,0,0,0,0,-1,1462,547,0,0
245,477,0,0,0,0,0,0,0,0,0,-1,1469,547,0,0
252,477,0,0,0,0,0,0,0,0,0,-1,1476,547,0,0
259,477,0,0,0,0,0,0,0,0,0,-1,1483,547,0,0
266,477,0,0,0,0,0,0,0,0,0,-1,1490,547,0,0
273,477,0,0,0,0,0,0,0,0,0,-1,1497,547,0,0
280,477,0,0,0,0,0,0,0,0,0,-1,1504,547,0,0
287,477,0,0,0,0,0,0,0,0,0,-1,1511,547,0,0
294,477,0,0,0,0,0,0,0,0,0,-1,1518,547,0,0
301,477,0,0,0,0,0,0,0,0,0,-1,1525,547,0,0
308,477,0,0,0,0,0,0,0,0,0,-1,1532,547,0,0
315,477,0,0,0,0,0,0,0,0,0,-1,1539,547,0,0
322,477,0,0,0,0,0,0,0,0,0,-1,1546,547,0,0
329,477,0,0,0,0,0,0,0,0,0,-1,1553,547,0,0
336,477,0,0,0,0,0,0,0,0,0,-1,1560,547,0,0
343,477,0,0,0,0,0,0,0,0,0,-1,1567,547,0,0
350,477,-0.39856,-1.42566,0,0,0,0,0,0,0,-1,1574,547,-0.398528,1.42568
357,477,-0.566284,-1.16455,0.0601652,-0.00694701,0.0337575,0.0742072,-0.020989,0.394195,0.0577534,0.0467731,1581,547,-0.566334,1.16455
364,477,-0.798584,-0.893188,0.0508039,-0.00412158,0.0263197,0.0613797,-0.0146974,0.382075,0.046598,0.0431943,1588,547,-0.798627,0.893193
371,477,-0.381714,-0.813599,0,0,0,0,0,0,0,-1,1595,547,-0.381766,0.81362
378,477,-0.478394,-0.68811,0,0,0,0,0,0,0,-1,1602,547,-0.478422,0.688084
385,477,1.14893,0.991699,0,0,0,0,0,0,0,-1,1609,547,1.14893,-0.991703
392,477,-1.02075,0.929382,0.0238802,0.00387928,0.00549518,0.0252905,0.00246894,0.251227,0.0161006,0.0405655,1616,547,-1.02081,-0.929396
399,477,-0.72876,0.694153,0.0216623,0.00347145,0.00365638,0.0223697,0.00276403,0.191116,0.0140825,0.0415227,1623,547,-0.728757,-0.694137
406,477,1.63513,2.46826,0,0,0,0,0,0,0,-1,1630,547,1.6351,-2.46824
413,477,1.31335,2.89044,0,0,0,0,0,0,0,-1,1637,547,1.31341,-2.89044
420,477,-0.315796,-0.478027,0.0135038,-0.000116366,0.000142504,0.0135053,-0.000117857,0.0104612,0.00904308,0.0435633,1644,547,-0.315798,0.478049
427,477,-0.24231,-0.632813,0.0112434,-0.00251775,0.000293531,0.0112497,-0.00252401,0.0213175,0.00846745,0.0444259,1651,547,-0.242364,0.632826
434,477,0.249878,-0.346375,0.0090073,-0.00410466,-8.03491e-06,0.00900731,-0.00410467,-0.000612792,0.00774459,0.0417628,1658,547,0.249839,0.346381
441,477,0.115967,0.0214844,0.00690595,-0.00469327,5.43779e-05,0.00690621,-0.00469353,0.00468793,0.0067376,0.0436755,1665,547,0.116015,-0.0215051
448,477,-0.134521,0.215271,0.00584155,-0.00645842,0.000886159,0.00590506,-0.00652194,0.0715532,0.00717768,0.0395884,1672,547,-0.134465,-0.21528
455,477,-0.0684814,-0.0621948,0.00527386,-0.00685674,0.000677818,0.00531161,-0.00689449,0.0556459,0.00706692,0.0310683,1679,547,-0.068484,0.0621911
462,477,-0.0782471,-0.0457153,0.00530394,-0.00557853,0.00025176,0.00530976,-0.00558435,0.023118,0.00629038,0.0191451,1686,547,-0.0782354,0.0457109
469,477,-0.0827637,-0.0360718,0.00514217,-0.00459768,-0.000162658,0.00514488,-0.0046004,-0.0166941,0.00562937,0.013467,1693,547,-0.0827685,0.0360649
476,477,-0.0684814,-0.0241089,0.00497066,-0.00401219,-0.000680643,0.00502194,-0.00406347,-0.0751992,0.00525519,0.0136703,1700,547,-0.0684412,0.0241118
483,477,-0.0581055,-0.0513916,0.00468018,-0.00395334,-0.00103205,0.00480184,-0.004075,-0.117337,0.00513077,0.0100096,1707,547,-0.0581432,0.0513915
490,477,-0.0656738,-0.0615234,0.00414785,-0.00327428,-0.00127321,0.00436019,-0.00348662,-0.165251,0.0045397,0.0106247,1714,547,-0.0656229,0.061538
497,477,-0.0697021,-0.0562744,0.00383272,-0.00257107,-0.00130944,0.00409013,-0.00282848,-0.194102,0.00401654,0.0124155,1721,547,-0.0696965,0.0563042
504,477,-0.0869141,-0.0239258,0.00332426,-0.00170172,-0.0011785,0.00358687,-0.00196433,-0.219255,0.0032503,0.0155897,1728,547,-0.0868989,0.0239234
511,477,-0.0804443,-0.0101318,0.00260018,-0.00122284,-0.000694653,0.00272249,-0.00134515,-0.174284,0.00239291,0.018545,1735,547,-0.0804654,0.0101578
518,477,-0.0515137,-0.0490723,0.00201332,-0.000946333,-0.000156493,0.00202157,-0.000954585,-0.0526795,0.00175471,0.0167302,1742,547,-0.0515496,0.0490588
525,477,-0.0438232,-0.0723267,0.00122083,-0.000574329,0.000232856,0.00125054,-0.000604041,0.126916,0.00109222,0.0147418,1749,547,-0.0437779,0.0723041
532,477,-0.0845947,-0.0908813,-8.84321e-06,-7.11294e-07,0.000604117,0.000599354,-0.000608908,0.788763,0.000697598,0.0165322,1756,547,-0.0845792,0.0908631
539,477,-0.0910645,-0.0316772,-0.000874317,0.000418632,0.00118046,0.00111805,-0.00157373,1.03591,0.00156151,0.014507,1763,547,-0.0910913,0.031651
546,477,-0.057373,-0.0335083,-0.00171374,0.000953092,0.00166721,0.00175453,-0.00251518,1.1227,0.00247812,0.0157669,1770,547,-0.0573631,0.0335171
553,477,-0.0509033,-0.0488892,-0.00266854,0.00157712,0.0019954,0.00236771,-0.00345913,1.19356,0.00338374,0.0145383,1777,547,-0.050887,0.0488703
560,477,0.00622559,-0.0264282,-0.00369366,0.00205596,0.00204084,0.00270671,-0.0043444,1.26213,0.0041074,0.0263347,1784,547,0.00617644,0.0264413
567,477,0.00195313,0.0447388,-0.00473924,0.00285218,0.00240211,0.00354842,-0.00543547,1.28868,0.00522485,0.0342871,1791,547,0.00201043,-0.0447686
574,477,-0.102295,-0.0667114,-0.0057753,0.00392741,0.00287625,0.00471595,-0.00656384,1.30321,0.00654146,0.0368372,1798,547,-0.102294,0.0666851
581,477,-0.537842,-0.017395,-0.00701081,0.00533844,0.00337504,0.00620064,-0.00787301,1.32068,0.00814453,0.0407936,1805,547,-0.537786,0.0173724
588,477,-0.0975342,0.139526,0,0,0,0,0,0,0,-1,1812,547,-0.097501,-0.139509
595,477,0.119385,0.168396,0,0,0,0,0,0,0,-1,1819,547,0.119387,-0.168402
602,477,0.0189209,0.0250854,0,0,0,0,0,0,0,-1,1826,547,0.018933,-0.0251156
609,477,0,0,0,0,0,0,0,0,0,-1,1833,547,0,0
616,477,0,0,0,0,0,0,0,0,0,-1,1840,547,0,0
623,477,0,0,0,0,0,0,0,0,0,-1,1847,547,0,0
630,477,0,0,0,0,0,0,0,0,0,-1,1854,547,0,0
637,477,0,0,0,0,0,0,0,0,0,-1,1861,547,0,0
644,477,0,0,0,0,0,0,0,0,0,-1,1868,547,0,0
651,477,0,0,0,0,0,0,0,0,0,-1,1875,547,0,0
658,477,0,0,0,0,0,0,0,0,0,-1,1882,547,0,0
665,477,0,0,0,0,0,0,0,0,0,-1,1889,547,0,0
672,477,0,0,0,0,0,0,0,0,0,-1,1896,547,0,0
679,477,0,0,0,0,0,0,0,0,0,-1,1903,547,0,0
686,477,0,0,0,0,0,0,0,0,0,-1,1910,547,0,0
693,477,0,0,0,0,0,0,0,0,0,-1,1917,547,0,0
700,477,0,0,0,0,0,0,0,0,0,-1,1924,547,0,0
707,477,0,0,0,0,0,0,0,0,0,-1,1931,547,0,0
714,477,0,0,0,0,0,0,0,0,0,-1,1938,547,0,0
721,477,0,0,0,0,0,0,0,0,0,-1,1945,547,0,0
728,477,0,0,0,0,0,0,0,0,0,-1,1952,547,0,0
735,477,0,0,0,0,0,0,0,0,0,-1,1959,547,0,0
742,477,0,0,0,0,0,0,0,0,0,-1,1966,547,0,0
749,477,0,0,0,0,0,0,0,0,0,-1,1973,547,0,0
756,477,0,0,0,0,0,0,0,0,0,-1,1980,547,0,0
763,477,0,0,0,0,0,0,0,0,0,-1,1987,547,0,0
770,477,0,0,0,0,0,0,0,0,0,-1,1994,547,0,0
777,477,0,0,0,0,0,0,0,0,0,-1,2001,547,0,0
784,477,0,0,0,0,0,0,0,0,0,-1,2008,547,0,0
791,477,0,0,0,0,0,0,0,0,0,-1,2015,547,0,0
798,477,0,0,0,0,0,0,0,0,0,-1,2022,547,0,0
805,477,0,0,0,0,0,0,0,0,0,-1,2029,547,0,0
812,477,0,0,0,0,0,0,0,0,0,-1,2036,547,0,0
-700,470,0,0,0,0,0,0,0,0,0,-1,524,554,0,0
-693,470,0,0,0,0,0,0,0,0,0,-1,531,554,0,0
-686,470,0,0,0,0,0,0,0,0,0,-1,538,554,0,0
-679,470,0,0,0,0,0,0,0,0,0,-1,545,554,0,0
-672,470,0,0,0,0,0,0,0,0,0,-1,552,554,0,0
-665,470,0,0,0,0,0,0,0,0,0,-1,559,554,0,0
-658,470,0,0,0,0,0,0,0,0,0,-1,566,554,0,0
-651,470,0,0,0,0,0,0,0,0,0,-1,573,554,0,0
-644,470,0,0,0,0,0,0,0,0,0,-1,580,554,0,0
-637,470,0,0,0,0,0,0,0,0,0,-1,587,554,0,0
-630,470,0,0,0,0,0,0,0,0,0,-1,594,554,0,0
-623,470,0,0,0,0,0,0,0,0,0,-1,601,554,0,0
-616,470,0,0,0,0,0,0,0,0,0,-1,608,554,0,0
-609,470,0,0,0,0,0,0,0,0,0,-1,615,554,0,0
-602,470,0,0,0,0,0,0,0,0,0,-1,622,554,0,0
-595,470,0,0,0,0,0,0,0,0,0,-1,629,554,0,0
-588,470,0,0,0,0,0,0,0,0,0,-1,636,554,0,0
-581,470,0,0,0,0,0,0,0,0,0,-1,643,554,0,0
-574,470,0,0,0,0,0,0,0,0,0,-1,650,554,0,0
-567,470,0,0,0,0,0,0,0,0,0,-1,657,554,0,0
-560,470,0,0,0,0,0,0,0,0,0,-1,664,554,0,0
-553,470,0,0,0,0,0,0,0,0,0,-1,671,554,0,0
-546,470,0,0,0,0,0,0,0,0,0,-1,678,554,0,0
-539,470,0,0,0,0,0,0,0,0,0,-1,685,554,0,0
-532,470,0,0,0,0,0,0,0,0,0,-1,692,554,0,0
-525,470,0,0,0,0,0,0,0,0,0,-1,699,554,0,0
-518,470,0,0,0,0,0,0,0,0,0,-1,706,554,0,0
-511,470,0,0,0,0,0,0,0,0,0,-1,713,554,0,0
-504,470,0,0,0,0,0,0,0,0,0,-1,720,554,0,0
-497,470,0,0,0,0,0,0,0,0,0,-1,727,554,0,0
-490,470,0.334412,0.0540161,0,0,0,0,0,0,0,-1,734,554,0.334427,-0.0540217
-483,470,-0.362,1.69495,0,0,0,0,0,0,0,-1,741,554,-0.361988,-1.69494
-476,470,0.101624,1.45563,-0.00102411,0.0398532,-0.0108997,0.0425779,-0.00374884,-1.32584,0.0297138,0.0474051,748,554,0.101606,-1.45565
-469,470,0.546326,1.3006,-0.00107133,0.0308595,-0.0128718,0.035402,-0.00561391,-1.23153,0.025678,0.045786,755,554,0.546349,-1.30063
-462,470,-0.0411377,0.705444,-0.0014331,0.0240152,-0.0130354,0.0295072,-0.00692503,-1.17206,0.0223405,0.045325,762,554,-0.041135,-0.705468
-455,470,-0.286255,0.555664,0,0,0,0,0,0,0,-1,769,554,-0.286226,-0.555639
-448,470,0.0159302,-0.22821,-0.00296358,0.0150955,-0.00925679,0.0189973,-0.00686543,-1.17188,0.0154698,0.044683,776,554,0.0159292,0.228186
-441,470,0.0250854,-0.0811768,-0.00319548,0.0115115,-0.00740412,0.0145933,-0.00627726,-1.17638,0.0123643,0.0386346,783,554,0.0250626,0.0811749
-434,470,-0.0532837,-0.0536499,-0.00337837,0.00883863,-0.00544876,0.0109156,-0.00545539,-1.20661,0.00962547,0.0208458,790,554,-0.0532775,0.0536692
-427,470,-0.0888062,-0.052124,-0.00330328,0.00691505,-0.00346174,0.00797737,-0.0043656,-1.27304,0.0072272,0.0104296,797,554,-0.0888175,0.0521229
-420,470,-0.0839844,-0.0424805,-0.0032539,0.00530851,-0.00172941,0.00564461,-0.00359001,-1.37884,0.00537542,0.0115522,804,554,-0.0839958,0.0424959
-413,470,-0.0794067,-0.019104,-0.00280092,0.00353194,-0.000290101,0.0035452,-0.00281418,-1.52512,0.00367967,0.0116095,811,554,-0.0794004,0.0191316
-406,470,-0.0788574,-0.00970459,-0.00201154,0.00222839,0.000577556,0.00230565,-0.00208881,1.43781,0.00253817,0.00822692,818,554,-0.0788355,0.00968899
-399,470,-0.0565186,-0.0319214,-0.00144939,0.00140389,0.000960981,0.00169736,-0.00174286,1.2744,0.00198627,0.0105555,825,554,-0.0564981,0.0319036
-392,470,-0.0692139,-0.045166,-0.00090847,0.00138154,0.000722891,0.00159064,-0.00111757,1.28922,0.00157152,0.0124035,832,554,-0.0692093,0.0451759
-385,470,-0.0510254,-0.0222168,-0.000251635,0.00144412,0.000577463,0.00162209,-0.000429603,1.27184,0.00124946,0.0106264,839,554,-0.0510117,0.0222333
-378,470,-0.0619507,-0.0255737,9.45423e-05,0.00156104,0.000578867,0.001762,-0.000106415,1.23666,0.00121169,0.0149998,846,554,-0.0619765,0.0255466
-371,470,-0.0593872,-0.0271606,9.24612e-06,0.00237911,0.000407272,0.00244715,-5.87921e-05,1.40527,0.00165138,0.0128458,853,554,-0.0593906,0.027173
-364,470,-0.059021,-0.0269165,-0.000494314,0.00416964,0.000159293,0.00417508,-0.000499749,1.5367,0.00296404,0.0125335,860,554,-0.0590078,0.0269253
-357,470,-0.0679932,-0.0228882,-0.00113593,0.00733237,-0.000187244,0.00733651,-0.00114007,-1.5487,0.00531197,0.012778,867,554,-0.0679792,0.0229088
-350,470,-0.0687866,-0.0283203,-0.00187648,0.0101887,-0.000503257,0.0102097,-0.00189743,-1.52918,0.00751917,0.00925538,874,554,-0.0687651,0.0283459
-343,470,-0.0789185,-0.0291748,-0.00278056,0.0120523,-0.000982319,0.0121171,-0.00284533,-1.50495,0.00917475,0.0155297,881,554,-0.0789052,0.0291813
-336,470,-0.111389,-0.0494385,-0.00401018,0.0135005,-0.00177476,0.0136785,-0.00418825,-1.4708,0.0107896,0.0225764,888,554,-0.111392,0.0494483
-329,470,-0.0910645,-0.0728149,-0.00535656,0.0141984,-0.0026358,0.0145474,-0.0057056,-1.43914,0.0120588,0.0328378,895,554,-0.0910943,0.0728266
-322,470,-0.0308838,-0.0740356,-0.00573741,0.0154453,-0.00342994,0.0159869,-0.00627895,-1.4142,0.0132562,0.0395128,902,554,-0.0308588,0.0740425
-315,470,-0.118408,-0.184509,-0.00547666,0.0167737,-0.00329515,0.0172514,-0.00595439,-1.42682,0.013917,0.0426564,909,554,-0.118384,0.184518
-308,470,-0.243591,-0.199463,0,0,0,0,0,0,0,-1,916,554,-0.24357,0.199479
-301,470,-0.585388,-0.00817871,-0.00630839,0.0135686,-0.00405692,0.0143647,-0.00710452,-1.37702,0.0126293,0.0429252,923,554,-0.585375,0.00820606
-294,470,-0.706421,-0.335388,-0.00715321,0.0101067,-0.00449129,0.0112055,-0.00825196,-1.33087,0.0112768,0.0489733,930,554,-0.706428,0.33536
-287,470,-1.24579,-0.494934,-0.00744754,0.00554785,-0.0045964,0.00700924,-0.00890892,-1.26296,0.00921214,0.0490026,937,554,-1.24578,0.494949
-280,470,-1.73468,-0.610901,-0.0105672,0.00052781,-0.00557078,0.00284214,-0.0128815,-1.17705,0.00967522,0.0463849,944,554,-1.73465,0.610891
-273,470,-1.00952,-1.021,-0.0159725,-0.00405685,-0.00717738,-0.000686734,-0.0193426,-1.13181,0.0126724,0.0455114,951,554,-1.00954,1.02099
-266,470,-1.26819,-1.08105,-0.0197977,-0.00994027,-0.0100997,-0.00363078,-0.0261072,-1.0124,0.0163296,0.0488819,958,554,-1.2682,1.08108
-259,470,-1.5379,-1.16968,0,0,0,0,0,0,0,-1,965,554,-1.53788,1.16969
-252,470,0.148865,0.846497,-0.0323677,-0.0240816,-0.0176805,-0.0100653,-0.0463841,-0.900486,0.0281735,0.0430793,972,554,0.148872,-0.846496
-245,470,-0.154419,0.862671,-0.0406599,-0.0266899,-0.0230401,-0.00959929,-0.0577506,-0.932578,0.035733,0.0459077,979,554,-0.154408,-0.862672
-238,470,0,0,0,0,0,0,0,0,0,-1,986,554,0,0
-231,470,0,0,0,0,0,0,0,0,0,-1,993,554,0,0
-224,470,0,0,0,0,0,0,0,0,0,-1,1000,554,0,0
-217,470,0,0,0,0,0,0,0,0,0,-1,1007,554,0,0
-210,470,0,0,0,0,0,0,0,0,0,-1,1014,554,0,0
-203,470,0,0,0,0,0,0,0,0,0,-1,1021,554,0,0
-196,470,0,0,0,0,0,0,0,0,0,-1,1028,554,0,0
-189,470,0,0,0,0,0,0,0,0,0,-1,1035,554,0,0
-182,470,0,0,0,0,0,0,0,0,0,-1,1042,554,0,0
-175,470,0,0,0,0,0,0,0,0,0,-1,1049,554,0,0
-168,470,0,0,0,0,0,0,0,0,0,-1,1056,554,0,0
-161,470,0,0,0,0,0,0,0,0,0,-1,1063,554,0,0
-154,470,0,0,0,0,0,0,0,0,0,-1,1070,554,0,0
-147,470,0,0,0,0,0,0,0,0,0,-1,1077,554,0,0
-140,470,0,0,0,0,0,0,0,0,0,-1,1084,554,0,0
-133,470,0,0,0,0,0,0,0,0,0,-1,1091,554,0,0
-126,470,0,0,0,0,0,0,0,0,0,-1,1098,554,0,0
-119,470,0,0,0,0,0,0,0,0,0,-1,1105,554,0,0
-112,470,0,0,0,0,0,0,0,0,0,-1,1112,554,0,0
-105,470,0,0,0,0,0,0,0,0,0,-1,1119,554,0,0
-98,470,0,0,0,0,0,0,0,0,0,-1,1126,554,0,0
-91,470,0,0,0,0,0,0,0,0,0,-1,1133,554,0,0
-84,470,0,0,0,0,0,0,0,0,0,-1,1140,554,0,0
-77,470,0,0,0,0,0,0,0,0,0,-1,1147,554,0,0
-70,470,0,0,0,0,0,0,0,0,0,-1,1154,554,0,0
-63,470,0,0,0,0,0,0,0,0,0,-1,1161,554,0,0
-56,470,0,0,0,0,0,0,0,0,0,-1,1168,554,0,0
-49,470,0,0,0,0,0,0,0,0,0,-1,1175,554,0,0
-42,470,0,0,0,0,0,0,0,0,0,-1,1182,554,0,0
-35,470,0,0,0,0,0,0,0,0,0,-1,1189,554,0,0
-28,470,0,0,0,0,0,0,0,0,0,-1,1196,554,0,0
-21,470,0,0,0,0,0,0,0,0,0,-1,1203,554,0,0
-14,470,0,0,0,0,0,0,0,0,0,-1,1210,554,0,0
-7,470,0,0,0,0,0,0,0,0,0,-1,1217,554,0,0
0,470,0,0,0,0,0,0,0,0,0,-1,1224,554,0,0
7,470,0,0,0,0,0,0,0,0,0,-1,1231,554,0,0
14,470,0,0,0,0,0,0,0,0,0,-1,1238,554,0,0
21,470,0,0,0,0,0,0,0,0,0,-1,1245,554,0,0
28,470,0,0,0,0,0,0,0,0,0,-1,1252,554,0,0
35,470,0,0,0,0,0,0,0,0,0,-1,1259,554,0,0
42,470,0,0,0,0,0,0,0,0,0,-1,1266,554,0,0
49,470,0,0,0,0,0,0,0,0,0,-1,1273,554,0,0
56,470,0,0,0,0,0,0,0,0,0,-1,1280,554,0,0
63,470,0,0,0,0,0,0,0,0,0,-1,1287,554,0,0
70,470,0,0,0,0,0,0,0,0,0,-1,1294,554,0,0
77,470,0,0,0,0,0,0,0,0,0,-1,1301,554,0,0
84,470,0,0,0,0,0,0,0,0,0,-1,1308,554,0,0
91,470,0,0,0,0,0,0,0,0,0,-1,1315,554,0,0
98,470,0,0,0,0,0,0,0,0,0,-1,1322,554,0,0
105,470,0,0,0,0,0,0,0,0,0,-1,1329,554,0,0
112,470,0,0,0,0,0,0,0,0,0,-1,1336,554,0,0
119,470,0,0,0,0,0,0,0,0,0,-1,1343,554,0,0
126,470,0,0,0,0,0,0,0,0,0,-1,1350,554,0,0
133,470,0,0,0,0,0,0,0,0,0,-1,1357,554,0,0
140,470,0,0,0,0,0,0,0,0,0,-1,1364,554,0,0
147,470,0,0,0,0,0,0,0,0,0,-1,1371,554,0,0
154,470,0,0,0,0,0,0,0,0,0,-1,1378,554,0,0
161,470,0,0,0,0,0,0,0,0,0,-1,1385,554,0,0
168,470,0,0,0,0,0,0,0,0,0,-1,1392,554,0,0
175,470,0,0,0,0,0,0,0,0,0,-1,1399,554,0,0
182,470,0,0,0,0,0,0,0,0,0,-1,1406,554,0,0
189,470,0,0,0,0,0,0,0,0,0,-1,1413,554,0,0
196,470,0,0,0,0,0,0,0,0,0,-1,1420,554,0,0
203,470,0,0,0,0,0,0,0,0,0,-1,1427,554,0,0
210,470,0,0,0,0,0,0,0,0,0,-1,1434,554,0,0
217,470,0,0,0,0,0,0,0,0,0,-1,1441,554,0,0
224,470,0,0,0,0,0,0,0,0,0,-1,1448,554,0,0
231,470,0,0,0,0,0,0,0,0,0,-1,1455,554,0,0
238,470,0,0,0,0,0,0,0,0,0,-1,1462,554,0,0
245,470,0,0,0,0,0,0,0,0,0,-1,1469,554,0,0
252,470,0,0,0,0,0,0,0,0,0,-1,1476,554,0,0
259,470,0,0,0,0,0,0,0,0,0,-1,1483,554,0,0
266,470,0,0,0,0,0,0,0,0,0,-1,1490,554,0,0
273,470,0,0,0,0,0,0,0,0,0,-1,1497,554,0,0
280,470,0,0,0,0,0,0,0,0,0,-1,1504,554,0,0
287,470,0,0,0,0,0,0,0,0,0,-1,1511,554,0,0
294,470,0,0,0,0,0,0,0,0,0,-1,1518,554,0,0
301,470,0,0,0,0,0,0,0,0,0,-1,1525,554,0,0
308,470,0,0,0,0,0,0,0,0,0,-1,1532,554,0,0
315,470,0,0,0,0,0,0,0,0,0,-1,1539,554,0,0
322,470,0,0,0,0,0,0,0,0,0,-1,1546,554,0,0
329,470,0,0,0,0,0,0,0,0,0,-1,1553,554,0,0
336,470,0,0,0,0,0,0,0,0,0,-1,1560,554,0,0
343,470,0,0,0,0,0,0,0,0,0,-1,1567,554,0,0
350,470,0,0,0,0,0,0,0,0,0,-1,1574,554,0,0
357,470,0,0,0,0,0,0,0,0,0,-1,1581,554,0,0
364,470,-1.22778,-0.525635,0.0510283,-0.00459983,0.0301027,0.0641995,-0.0177711,0.412447,0.0497919,0.0443768,1588,554,-1.2278,0.525661
371,470,-0.594727,-0.47876,0.0432523,-0.00211151,0.0228243,0.0527483,-0.0116075,0.394264,0.0396058,0.0407303,1595,554,-0.594782,0.478782
378,470,-0.789063,-0.640198,0.0360802,0.00129206,0.0164388,0.0426191,-0.00524684,0.378585,0.0303134,0.0429398,1602,554,-0.789025,0.640173
385,470,-0.994141,-0.631287,0,0,0,0,0,0,0,-1,1609,554,-0.994175,0.631257
392,470,-0.511963,0.124207,0.0259503,0.00374533,0.00674857,0.0278405,0.0018552,0.273083,0.0179739,0.040498,1616,554,-0.511984,-0.124176
399,470,-0.469604,0.292114,0.0235538,0.00331964,0.00468806,0.0245872,0.00228624,0.216963,0.015685,0.041421,1623,554,-0.469599,-0.292135
406,470,-0.0263672,0.0765381,0,0,0,0,0,0,0,-1,1630,554,-0.0263167,-0.0765313
413,470,-0.149902,-0.0628052,0,0,0,0,0,0,0,-1,1637,554,-0.149851,0.062824
420,470,-0.345093,-0.333679,0.0143584,-0.000396158,0.000935193,0.0144174,-0.000455197,0.063047,0.0097669,0.0423668,1644,554,-0.345059,0.333672
427,470,-0.263672,-0.451599,0.0119791,-0.00301113,0.00109569,0.0120588,-0.00309079,0.0725794,0.00924332,0.0444041,1651,554,-0.263726,0.451612
434,470,-0.00610352,0.195801,0.0097675,-0.00467334,0.000795583,0.0098112,-0.00471704,0.0548712,0.00855803,0.0418217,1658,554,-0.00613288,-0.195806
441,470,0.00512695,0.387146,0.00778536,-0.00535325,0.000703903,0.00782296,-0.00539086,0.0533715,0.00767196,0.0413189,1665,554,0.00511627,-0.387155
448,470,-0.284058,0.573853,0,0,0,0,0,0,0,-1,1672,554,-0.28407,-0.573855
455,470,0.0429688,-0.113708,0.00627182,-0.00766008,0.000920425,0.00633237,-0.00772063,0.0656855,0.00812669,0.0405252,1679,554,0.0429795,0.113716
462,470,0.0466309,-0.108093,0.00637899,-0.00630681,0.000360014,0.0063892,-0.00631701,0.0283489,0.00733598,0.0360899,1686,554,0.046679,0.108083
469,470,-0.0332031,-0.0881348,0.0062637,-0.00526464,-0.000171109,0.00626624,-0.00526718,-0.0148381,0.00666715,0.026123,1693,554,-0.0331874,0.0881317
476,470,-0.0653076,-0.0529175,0.00629298,-0.00461055,-0.000819989,0.0063543,-0.00467187,-0.0746445,0.00639062,0.0131096,1700,554,-0.0653049,0.0529415
483,470,-0.067627,-0.057312,0.00604592,-0.0045894,-0.00123763,0.00618805,-0.00473153,-0.114334,0.00632309,0.0102578,1707,554,-0.0676459,0.0573417
490,470,-0.0744629,-0.053894,0.0053614,-0.00377619,-0.00152628,0.0056096,-0.00402439,-0.161205,0.00558723,0.0110937,1714,554,-0.0744105,0.0538974
497,470,-0.0733643,-0.0422974,0.00480959,-0.00291954,-0.00158289,0.00512119,-0.00323115,-0.194374,0.00486321,0.0116662,1721,554,-0.0733162,0.0422765
504,470,-0.0689697,-0.0136719,0.00401348,-0.00189504,-0.00142736,0.00434023,-0.00222179,-0.22504,0.00385383,0.0174417,1728,554,-0.0689121,0.0136941
511,470,-0.0703125,0.0200806,0.00306209,-0.00135599,-0.000879557,0.00323075,-0.00152465,-0.189461,0.00280381,0.022212,1735,554,-0.0702839,-0.0201023
518,470,-0.0334473,-0.0193481,0.00235639,-0.00100123,-0.000333182,0.00238913,-0.00103397,-0.0979588,0.0020273,0.0208133,1742,554,-0.0334614,0.019365
525,470,-0.0426025,-0.0479126,0.0014577,-0.00065622,8.09909e-05,0.0014608,-0.000659318,0.0382385,0.00125287,0.013284,1749,554,-0.0425469,0.0478984
532,470,-0.0744629,-0.0210571,0.000103979,-5.4868e-05,0.000441238,0.000472885,-0.000423774,0.696351,0.000517945,0.0119637,1756,554,-0.07442,0.0210435
539,470,-0.0675049,-0.0439453,-0.000764007,0.000332775,0.000973799,0.000901978,-0.00133321,1.04184,0.00129847,0.0133172,1763,554,-0.0675454,0.0439542
546,470,-0.0633545,-0.0580444,-0.00146894,0.000842189,0.00141221,0.00151136,-0.00213811,1.12829,0.00211736,0.0123507,1770,554,-0.0633031,0.0580636
553,470,-0.0805664,-0.0681763,-0.00222519,0.00142654,0.00168406,0.00208459,-0.00288324,1.19829,0.00288051,0.00993326,1777,554,-0.0805209,0.0681899
560,470,-0.081665,-0.0683594,-0.00298228,0.00186058,0.00168564,0.00238953,-0.00351123,1.26673,0.00342726,0.0112188,1784,554,-0.0817095,0.0683655
567,470,-0.0734863,-0.0307617,-0.00369491,0.00264888,0.00205056,0.00325399,-0.00430001,1.28385,0.00437522,0.0127948,1791,554,-0.0735346,0.030743
574,470,-0.105591,-0.0656738,-0.00439666,0.00374849,0.00263101,0.00452443,-0.0051726,1.28401,0.00560275,0.0307863,1798,554,-0.105624,0.0656958
581,470,-0.172363,-0.103394,-0.00532519,0.00536301,0.00326521,0.00628158,-0.00624375,1.29656,0.00723151,0.0442298,1805,554,-0.172354,0.103379
588,470,-0.12207,0.200378,-0.00618667,0.00671569,0.0035003,0.00760411,-0.0070751,1.32223,0.00847688,0.0480103,1812,554,-0.122065,-0.200381
595,470,0.00708008,0.222534,-0.00666549,0.00854274,0.00383995,0.0094573,-0.00758004,1.33698,0.0098564,0.0478871,1819,554,0.00713533,-0.222505
602,470,0.00268555,0.100647,-0.00727728,0.0107643,0.00455035,0.011847,-0.00835998,1.3372,0.0117243,0.0470758,1826,554,0.00263149,-0.100653
609,470,-0.331177,-0.193665,-0.00817002,0.0135117,0.00565636,0.0148987,-0.00955694,1.33034,0.0142313,0.044464,1833,554,-0.331159,0.193677
616,470,0,0,0,0,0,0,0,0,0,-1,1840,554,0,0
623,470,0,0,0,0,0,0,0,0,0,-1,1847,554,0,0
630,470,0,0,0,0,0,0,0,0,0,-1,1854,554,0,0
637,470,0,0,0,0,0,0,0,0,0,-1,1861,554,0,0
644,470,0,0,0,0,0,0,0,0,0,-1,1868,554,0,0
651,470,0,0,0,0,0,0,0,0,0,-1,1875,554,0,0
658,470,0,0,0,0,0,0,0,0,0,-1,1882,554,0,0
665,470,0,0,0,0,0,0,0,0,0,-1,1889,554,0,0
672,470,0,0,0,0,0,0,0,0,0,-1,1896,554,0,0
679,470,0,0,0,0,0,0,0,0,0,-1,1903,554,0,0
686,470,0,0,0,0,0,0,0,0,0,-1,1910,554,0,0
693,470,0,0,0,0,0,0,0,0,0,-1,1917,554,0,0
700,470,0,0,0,0,0,0,0,0,0,-1,1924,554,0,0
707,470,0,0,0,0,0,0,0,0,0,-1,1931,554,0,0
714,470,0,0,0,0,0,0,0,0,0,-1,1938,554,0,0
721,470,0,0,0,0,0,0,0,0,0,-1,1945,554,0,0
728,470,0,0,0,0,0,0,0,0,0,-1,1952,554,0,0
735,470,0,0,0,0,0,0,0,0,0,-1,1959,554,0,0
742,470,0,0,0,0,0,0,0,0,0,-1,1966,554,0,0
749,470,0,0,0,0,0,0,0,0,0,-1,1973,554,0,0
756,470,0,0,0,0,0,0,0,0,0,-1,1980,554,0,0
763,470,0,0,0,0,0,0,0,0,0,-1,1987,554,0,0
770,470,0,0,0,0,0,0,0,0,0,-1,1994,554,0,0
777,470,0,0,0,0,0,0,0,0,0,-1,2001,554,0,0
784,470,0,0,0,0,0,0,0,0,0,-1,2008,554,0,0
791,470,0,0,0,0,0,0,0,0,0,-1,2015,554,0,0
798,470,0,0,0,0,0,0,0,0,0,-1,2022,554,0,0
805,470,0,0,0,0,0,0,0,0,0,-1,2029,554,0,0
812,470,0,0,0,0,0,0,0,0,0,-1,2036,554,0,0
-700,463,0,0,0,0,0,0,0,0,0,-1,524,561,0,0
-693,463,0,0,0,0,0,0,0,0,0,-1,531,561,0,0
-686,463,0,0,0,0,0,0,0,0,0,-1,538,561,0,0
-679,463,0,0,0,0,0,0,0,0,0,-1,545,561,0,0
-672,463,0,0,0,0,0,0,0,0,0,-1,552,561,0,0
-665,463,0,0,0,0,0,0,0,0,0,-1,559,561,0,0
-658,463,0,0,0,0,0,0,0,0,0,-1,566,561,0,0
-651,463,0,0,0,0,0,0,0,0,0,-1,573,561,0,0
-644,463,0,0,0,0,0,0,0,0,0,-1,580,561,0,0
-637,463,0,0,0,0,0,0,0,0,0,-1,587,561,0,0
-630,463,0,0,0,0,0,0,0,0,0,-1,594,561,0,0
-623,463,0,0,0,0,0,0,0,0,0,-1,601,561,0,0
-616,463,0,0,0,0,0,0,0,0,0,-1,608,561,0,0
-609,463,0,0,0,0,0,0,0,0,0,-1,615,561,0,0
-602,463,0,0,0,0,0,0,0,0,0,-1,622,561,0,0
-595,463,0,0,0,0,0,0,0,0,0,-1,629,561,0,0
-588,463,0,0,0,0,0,0,0,0,0,-1,636,561,0,0
-581,463,0,0,0,0,0,0,0,0,0,-1,643,561,0,0
-574,463,0,0,0,0,0,0,0,0,0,-1,650,561,0,0
-567,463,0,0,0,0,0,0,0,0,0,-1,657,561,0,0
-560,463,0,0,0,0,0,0,0,0,0,-1,664,561,0,0
-553,463,0,0,0,0,0,0,0,0,0,-1,671,561,0,0
-546,463,0,0,0,0,0,0,0,0,0,-1,678,561,0,0
-539,463,0,0,0,0,0,0,0,0,0,-1,685,561,0,0
-532,463,0,0,0,0,0,0,0,0,0,-1,692,561,0,0
-525,463,0,0,0,0,0,0,0,0,0,-1,699,561,0,0
-518,463,0,0,0,0,0,0,0,0,0,-1,706,561,0,0
-511,463,0,0,0,0,0,0,0,0,0,-1,713,561,0,0
-504,463,0,0,0,0,0,0,0,0,0,-1,720,561,0,0
-497,463,0.843262,0.615906,0,0,0,0,0,0,0,-1,727,561,0.843278,-0.615888
-490,463,0.735718,0.698059,0,0,0,0,0,0,0,-1,734,561,0.735695,-0.698062
-483,463,-0.0805664,0.329041,0,0,0,0,0,0,0,-1,741,561,-0.0805587,-0.32906
-476,463,0.191956,0.511597,0,0,0,0,0,0,0,-1,748,561,0.191969,-0.511588
-469,463,0.291321,0.756287,0,0,0,0,0,0,0,-1,755,561,0.29134,-0.756282
-462,463,-0.303467,0.654602,-0.000947291,0.0218886,-0.00918845,0.0251266,-0.00418531,-1.23198,0.0183063,0.048397,762,561,-0.303496,-0.654589
-455,463,-0.237793,0.464172,-0.00097387,0.0170582,-0.00868588,0.0205614,-0.00447717,-1.18742,0.0154182,0.0442867,769,561,-0.23779,-0.464159
-448,463,-0.0764771,0.0392456,-0.00126542,0.0131067,-0.00744557,0.0162684,-0.0044271,-1.16923,0.0125836,0.0403892,776,561,-0.0764857,-0.03923
-441,463,-0.0499878,-0.0106201,-0.00133652,0.00975194,-0.00633136,0.0126234,-0.00420802,-1.145,0.0101144,0.0251534,783,561,-0.0500129,0.0106011
-434,463,-0.0762329,-0.0367432,-0.00156777,0.0073067,-0.00492582,0.00949915,-0.00376022,-1.15203,0.0078907,0.00994562,790,561,-0.0762535,0.0367595
-427,463,-0.0759888,-0.0404663,-0.00166525,0.00564538,-0.00325751,0.00688626,-0.00290613,-1.20684,0.00580722,0.00895725,797,561,-0.0759905,0.0404627
-420,463,-0.0698242,-0.0313721,-0.00180912,0.00428569,-0.00175718,0.00475601,-0.00227944,-1.30927,0.00414495,0.00931512,804,561,-0.0698119,0.0313665
-413,463,-0.0716553,-0.02771,-0.00155369,0.00282353,-0.000486365,0.00287692,-0.00160708,-1.46146,0.00262321,0.00775862,811,561,-0.0716688,0.0277229
-406,463,-0.0873413,-0.0231934,-0.00101308,0.00174257,0.000324423,0.00178025,-0.00105076,1.45517,0.00165248,0.00715953,818,561,-0.0873399,0.0231994
-399,463,-0.0686646,-0.0316162,-0.000718933,0.0010621,0.000716999,0.00131487,-0.000971704,1.23186,0.0013251,0.00799946,825,561,-0.0686799,0.0315986
-392,463,-0.0646973,-0.0342407,-0.000399787,0.00118702,0.000585848,0.00137987,-0.000592643,1.25278,0.00116867,0.00813724,832,561,-0.0647141,0.0342106
-385,463,-0.0820923,-0.0351563,7.53878e-05,0.0014025,0.000523704,0.00158427,-0.00010638,1.23672,0.00109337,0.0096442,839,561,-0.082066,0.0351464
-378,463,-0.0626221,-0.0561523,0.000354677,0.00170284,0.000628996,0.00195073,0.000106793,1.19539,0.00126639,0.0111548,846,561,-0.062645,0.0561509
-371,463,-0.0469971,-0.0620117,0.000209928,0.0027975,0.000556119,0.00291196,9.54702e-05,1.36782,0.00191028,0.0110689,853,561,-0.0469883,0.0619991
-364,463,-0.0391846,-0.038269,-0.000278143,0.004998,0.000305059,0.00501558,-0.000295723,1.51323,0.00344653,0.0134371,860,561,-0.0391782,0.0382685
-357,463,-0.041626,-0.0300293,-0.00091361,0.00897259,-0.000153858,0.00897499,-0.000916004,-1.55524,0.00631086,0.0143975,867,561,-0.0416381,0.030059
-350,463,-0.0772095,-0.0385132,-0.00165476,0.0125748,-0.00059009,0.0125992,-0.00167919,-1.52942,0.00901151,0.013474,874,561,-0.0771818,0.038524
-343,463,-0.0570679,-0.0567627,-0.0026043,0.0148975,-0.00126927,0.0149891,-0.00269587,-1.49878,0.011002,0.0238678,881,561,-0.0570709,0.0567419
-336,463,-0.0982666,-0.192871,-0.00384701,0.0166857,-0.00238553,0.0169592,-0.00412052,-1.45664,0.0129009,0.0336857,888,561,-0.0982592,0.192872
-329,463,0.0100098,-0.279785,-0.00519366,0.0175493,-0.00366987,0.0181268,-0.00577118,-1.41471,0.0143991,0.0418594,895,561,0.0100111,0.279815
-322,463,-0.00177002,-0.336304,-0.0057623,0.0190425,-0.00498867,0.0200082,-0.00672801,-1.37958,0.0160584,0.0430989,902,561,-0.00178339,0.336309
-315,463,-0.176758,-0.578186,-0.00590287,0.0201595,-0.0055658,0.0212983,-0.00704172,-1.36897,0.0170383,0.0448399,909,561,-0.176754,0.578209
-308,463,-0.315613,-0.798279,-0.00643113,0.0188074,-0.00675186,0.0205002,-0.00812387,-1.32515,0.0170332,0.0474495,916,561,-0.31562,0.798291
-301,463,-0.502808,0.111023,0,0,0,0,0,0,0,-1,923,561,-0.502791,-0.11102
-294,463,-0.783142,0.0609131,-0.00844147,0.0109569,-0.00915345,0.0145941,-0.0120787,-1.19257,0.0154223,0.0487115,930,561,-0.783157,-0.0609036
-287,463,-1.41388,-0.0319824,-0.00909758,0.00432607,-0.00983139,0.00951823,-0.0142897,-1.08491,0.0138373,0.0443669,937,561,-1.41386,0.0319902
-280,463,-2.16437,-0.163208,-0.0123506,-0.0028842,-0.0112641,0.00460077,-0.0198355,-0.984297,0.0149944,0.0443777,944,561,-2.16437,0.163212
-273,463,-2.57379,-0.359924,0,0,0,0,0,0,0,-1,951,561,-2.57377,0.359911
-266,463,-1.14612,-1.38861,-0.0230553,-0.0177813,-0.0169693,-0.00324534,-0.0375913,-0.862481,0.0240522,0.0475557,958,561,-1.14609,1.38861
-259,463,-1.50226,-1.37872,0,0,0,0,0,0,0,-1,965,561,-1.50229,1.37872
-252,463,0,0,0,0,0,0,0,0,0,-1,972,561,0,0
-245,463,0,0,0,0,0,0,0,0,0,-1,979,561,0,0
-238,463,0,0,0,0,0,0,0,0,0,-1,986,561,0,0
-231,463,0,0,0,0,0,0,0,0,0,-1,993,561,0,0
-224,463,0,0,0,0,0,0,0,0,0,-1,1000,561,0,0
-217,463,0,0,0,0,0,0,0,0,0,-1,1007,561,0,0
-210,463,0,0,0,0,0,0,0,0,0,-1,1014,561,0,0
-203,463,0,0,0,0,0,0,0,0,0,-1,1021,561,0,0
-196,463,0,0,0,0,0,0,0,0,0,-1,1028,561,0,0
-189,463,0,0,0,0,0,0,0,0,0,-1,1035,561,0,0
-182,463,0,0,0,0,0,0,0,0,0,-1,1042,561,0,0
-175,463,0,0,0,0,0,0,0,0,0,-1,1049,561,0,0
-168,463,0,0,0,0,0,0,0,0,0,-1,1056,561,0,0
-161,463,0,0,0,0,0,0,0,0,0,-1,1063,561,0,0
-154,463,0,0,0,0,0,0,0,0,0,-1,1070,561,0,0
-147,463,0,0,0,0,0,0,0,0,0,-1,1077,561,0,0
-140,463,0,0,0,0,0,0,0,0,0,-1,1084,561,0,0
-133,463,0,0,0,0,0,0,0,0,0,-1,1091,561,0,0
-126,463,0,0,0,0,0,0,0,0,0,-1,1098,561,0,0
-119,463,0,0,0,0,0,0,0,0,0,-1,1105,561,0,0
-112,463,0,0,0,0,0,0,0,0,0,-1,1112,561,0,0
-105,463,0,0,0,0,0,0,0,0,0,-1,1119,561,0,0
-98,463,0,0,0,0,0,0,0,0,0,-1,1126,561,0,0
-91,463,0,0,0,0,0,0,0,0,0,-1,1133,561,0,0
-84,463,0,0,0,0,0,0,0,0,0,-1,1140,561,0,0
-77,463,0,0,0,0,0,0,0,0,0,-1,1147,561,0,0
-70,463,0,0,0,0,0,0,0,0,0,-1,1154,561,0,0
-63,463,0,0,0,0,0,0,0,0,0,-1,1161,561,0,0
-56,463,0,0,0,0,0,0,0,0,0,-1,1168,561,0,0
-49,463,0,0,0,0,0,0,0,0,0,-1,1175,561,0,0
-42,463,0,0,0,0,0,0,0,0,0,-1,1182,561,0,0
-35,463,0,0,0,0,0,0,0,0,0,-1,1189,561,0,0
-28,463,0,0,0,0,0,0,0,0,0,-1,1196,561,0,0
-21,463,0,0,0,0,0,0,0,0,0,-1,1203,561,0,0
-14,463,0,0,0,0,0,0,0,0,0,-1,1210,561,0,0
-7,463,0,0,0,0,0,0,0,0,0,-1,1217,561,0,0
0,463,0,0,0,0,0,0,0,0,0,-1,1224,561,0,0
7,463,0,0,0,0,0,0,0,0,0,-1,1231,561,0,0
14,463,0,0,0,0,0,0,0,0,0,-1,1238,561,0,0
21,463,0,0,0,0,0,0,0,0,0,-1,1245,561,0,0
28,463,0,0,0,0,0,0,0,0,0,-1,1252,561,0,0
35,463,0,0,0,0,0,0,0,0,0,-1,1259,561,0,0
42,463,0,0,0,0,0,0,0,0,0,-1,1266,561,0,0
49,463,0,0,0,0,0,0,0,0,0,-1,1273,561,0,0
56,463,0,0,0,0,0,0,0,0,0,-1,1280,561,0,0
63,463,0,0,0,0,0,0,0,0,0,-1,1287,561,0,0
70,463,0,0,0,0,0,0,0,0,0,-1,1294,561,0,0
77,463,0,0,0,0,0,0,0,0,0,-1,1301,561,0,0
84,463,0,0,0,0,0,0,0,0,0,-1,1308,561,0,0
91,463,0,0,0,0,0,0,0,0,0,-1,1315,561,0,0
98,463,0,0,0,0,0,0,0,0,0,-1,1322,561,0,0
105,463,0,0,0,0,0,0,0,0,0,-1,1329,561,0,0
112,463,0,0,0,0,0,0,0,0,0,-1,1336,561,0,0
119,463,0,0,0,0,0,0,0,0,0,-1,1343,561,0,0
126,463,0,0,0,0,0,0,0,0,0,-1,1350,561,0,0
133,463,0,0,0,0,0,0,0,0,0,-1,1357,561,0,0
140,463,0,0,0,0,0,0,0,0,0,-1,1364,561,0,0
147,463,0,0,0,0,0,0,0,0,0,-1,1371,561,0,0
154,463,0,0,0,0,0,0,0,0,0,-1,1378,561,0,0
161,463,0,0,0,0,0,0,0,0,0,-1,1385,561,0,0
168,463,0,0,0,0,0,0,0,0,0,-1,1392,561,0,0
175,463,0,0,0,0,0,0,0,0,0,-1,1399,561,0,0
182,463,0,0,0,0,0,0,0,0,0,-1,1406,561,0,0
189,463,0,0,0,0,0,0,0,0,0,-1,1413,561,0,0
196,463,0,0,0,0,0,0,0,0,0,-1,1420,561,0,0
203,463,0,0,0,0,0,0,0,0,0,-1,1427,561,0,0
210,463,0,0,0,0,0,0,0,0,0,-1,1434,561,0,0
217,463,0,0,0,0,0,0,0,0,0,-1,1441,561,0,0
224,463,0,0,0,0,0,0,0,0,0,-1,1448,561,0,0
231,463,0,0,0,0,0,0,0,0,0,-1,1455,561,0,0
238,463,0,0,0,0,0,0,0,0,0,-1,1462,561,0,0
245,463,0,0,0,0,0,0,0,0,0,-1,1469,561,0,0
252,463,0,0,0,0,0,0,0,0,0,-1,1476,561,0,0
259,463,0,0,0,0,0,0,0,0,0,-1,1483,561,0,0
266,463,0,0,0,0,0,0,0,0,0,-1,1490,561,0,0
273,463,0,0,0,0,0,0,0,0,0,-1,1497,561,0,0
280,463,0,0,0,0,0,0,0,0,0,-1,1504,561,0,0
287,463,0,0,0,0,0,0,0,0,0,-1,1511,561,0,0
294,463,0,0,0,0,0,0,0,0,0,-1,1518,561,0,0
301,463,0,0,0,0,0,0,0,0,0,-1,1525,561,0,0
308,463,0,0,0,0,0,0,0,0,0,-1,1532,561,0,0
315,463,0,0,0,0,0,0,0,0,0,-1,1539,561,0,0
322,463,0,0,0,0,0,0,0,0,0,-1,1546,561,0,0
329,463,0,0,0,0,0,0,0,0,0,-1,1553,561,0,0
336,463,0,0,0,0,0,0,0,0,0,-1,1560,561,0,0
343,463,0,0,0,0,0,0,0,0,0,-1,1567,561,0,0
350,463,0,0,0,0,0,0,0,0,0,-1,1574,561,0,0
357,463,0,0,0,0,0,0,0,0,0,-1,1581,561,0,0
364,463,0,0,0,0,0,0,0,0,0,-1,1588,561,0,0
371,463,-0.676514,-0.784973,0.0418541,-0.00313566,0.0254645,0.0533366,-0.0146181,0.423619,0.041302,0.0451529,1595,561,-0.676555,0.784997
378,463,-0.856201,-0.739746,0.0362426,0.000370225,0.0184113,0.0440101,-0.0073973,0.399234,0.0320913,0.0446493,1602,561,-0.856179,0.739732
385,463,-1.00916,-0.700256,0.0314935,0.00214126,0.0118762,0.0356969,-0.00206206,0.340169,0.0245142,0.0496759,1609,561,-1.00919,0.70025
392,463,-1.11792,-0.654358,0,0,0,0,0,0,0,-1,1616,561,-1.11788,0.654359
399,463,-0.512451,-0.0404053,0.0249452,0.0030008,0.00549265,0.0262433,0.00170278,0.232062,0.0169564,0.0427356,1623,561,-0.512488,0.0404043
406,463,-0.211914,0.0953369,0,0,0,0,0,0,0,-1,1630,561,-0.211933,-0.0953364
413,463,-0.135986,-0.142456,0,0,0,0,0,0,0,-1,1637,561,-0.135927,0.142486
420,463,-0.141479,-0.393921,0,0,0,0,0,0,0,-1,1644,561,-0.141455,0.393902
427,463,-0.332275,-0.288879,0,0,0,0,0,0,0,-1,1651,561,-0.332312,0.288852
434,463,-0.427246,0.624573,0.0100535,-0.00516935,0.00190465,0.0102882,-0.00540404,0.122601,0.00920501,0.0444631,1658,561,-0.427299,-0.624545
441,463,-0.262573,0.405945,0.00854317,-0.00589353,0.00159472,0.00871723,-0.00606759,0.108717,0.00858159,0.0400673,1665,561,-0.262531,-0.405934
448,463,-0.309937,0.181152,0.00784191,-0.00747972,0.00171305,0.0080311,-0.00766892,0.109996,0.00906521,0.0387639,1672,561,-0.309957,-0.181158
455,463,0.015625,0.0404663,0.00772407,-0.00813023,0.00114737,0.00780668,-0.00821284,0.0718708,0.00924986,0.0381306,1679,561,0.0156697,-0.0404593
462,463,0.248901,-0.0795898,0.00813426,-0.0066948,0.000353725,0.00814269,-0.00670323,0.0238354,0.00858472,0.043741,1686,561,0.248897,0.0795844
469,463,0.0921631,-0.176636,0.00821554,-0.00558854,-0.000402687,0.00822728,-0.00560028,-0.0291386,0.00803122,0.0441571,1693,561,0.0921292,0.176653
476,463,0.00708008,-0.149902,0.00862669,-0.00483821,-0.0012899,0.00874915,-0.00496067,-0.09465,0.00801547,0.0249121,1700,561,0.00711355,0.149889
483,463,-0.0709229,-0.0802612,0.00850928,-0.00484773,-0.0018545,0.00876198,-0.00510043,-0.135429,0.00809599,0.0124149,1707,561,-0.070918,0.0802787
490,463,-0.0789795,-0.034668,0.00763419,-0.003899,-0.00221061,0.00804339,-0.0043082,-0.183034,0.00723907,0.0114418,1714,561,-0.0789468,0.0346401
497,463,-0.067749,-0.0454712,0.00671041,-0.00287529,-0.0022815,0.00722573,-0.00339061,-0.22214,0.00626124,0.0110459,1721,561,-0.0677086,0.0454812
504,463,-0.0720215,-0.0367432,0.00543801,-0.00167894,-0.00207416,0.00599838,-0.00223931,-0.263867,0.00491832,0.0149305,1728,561,-0.0720621,0.0367165
511,463,-0.0594482,0.00396729,0.00408441,-0.00110579,-0.00141302,0.00444417,-0.00146554,-0.249304,0.0035535,0.0193341,1735,561,-0.0594995,-0.00396882
518,463,-0.0299072,-0.0204468,0.00310125,-0.000724022,-0.000802425,0.00326275,-0.000885527,-0.198618,0.0025227,0.0189418,1742,561,-0.0299381,0.0204265
525,463,-0.0505371,-0.0300293,0.00196909,-0.000466862,-0.000303002,0.00200622,-0.000503986,-0.121913,0.00153333,0.015376,1749,561,-0.0505842,0.0300563
532,463,-0.0639648,-0.0319824,0.000412486,7.65564e-05,0.000107859,0.000444135,4.49073e-05,0.285419,0.000282314,0.0134246,1756,561,-0.0640025,0.0319845
539,463,-0.0645752,-0.0509033,-0.00058241,0.000341089,0.000656032,0.00068158,-0.000922902,1.09205,0.000929834,0.012729,1763,561,-0.064601,0.0509338
546,463,-0.0749512,-0.0708618,-0.00119783,0.000716351,0.00110222,0.00121903,-0.00170051,1.14292,0.00169322,0.0106947,1770,561,-0.0749682,0.0708571
553,463,-0.0700684,-0.055603,-0.00176443,0.00115443,0.00137444,0.00169975,-0.00230976,1.19309,0.0023238,0.0107261,1777,561,-0.0700167,0.0556002
560,463,-0.0704346,-0.0370483,-0.00228311,0.00145435,0.00138724,0.00191298,-0.00274174,1.2515,0.00270156,0.0105334,1784,561,-0.0704176,0.0370409
567,463,-0.0819092,-0.0432739,-0.00269128,0.00215734,0.00176707,0.002733,-0.00326693,1.25587,0.00346863,0.00902206,1791,561,-0.0819548,0.0432961
574,463,-0.109131,-0.0610352,-0.00310488,0.00321688,0.00241584,0.00403437,-0.00392237,1.2445,0.00459398,0.0220445,1798,561,-0.109112,0.0610439
581,463,-0.141479,-0.0375977,-0.00379431,0.00490194,0.00310455,0.00589651,-0.00478888,1.26077,0.00618025,0.0409243,1805,561,-0.141446,0.0375767
588,463,-0.106079,0.239197,-0.0044173,0.00645037,0.00339245,0.00742241,-0.00538935,1.29174,0.00742785,0.0455888,1812,561,-0.106089,-0.239227
595,463,-0.00671387,0.31073,-0.00478733,0.00854725,0.00381284,0.00956049,-0.00580056,1.31106,0.00895683,0.0434106,1819,561,-0.00670444,-0.310725
602,463,0.0474854,-0.0273438,-0.00536694,0.0110559,0.00464934,0.0122808,-0.00659183,1.3132,0.0110599,0.0418965,1826,561,0.0475013,0.0273171
609,463,-0.0921631,0.000183105,-0.00623252,0.0142543,0.00573689,0.0157514,-0.00772962,1.31553,0.0138179,0.0403801,1833,561,-0.092177,-0.000153744
616,463,-0.0802002,0.00787354,0,0,0,0,0,0,0,-1,1840,561,-0.0801707,-0.00787916
623,463,0,0,0,0,0,0,0,0,0,-1,1847,561,0,0
630,463,0,0,0,0,0,0,0,0,0,-1,1854,561,0,0
637,463,0,0,0,0,0,0,0,0,0,-1,1861,561,0,0
644,463,0,0,0,0,0,0,0,0,0,-1,1868,561,0,0
651,463,0,0,0,0,0,0,0,0,0,-1,1875,561,0,0
658,463,0,0,0,0,0,0,0,0,0,-1,1882,561,0,0
665,463,0,0,0,0,0,0,0,0,0,-1,1889,561,0,0
672,463,0,0,0,0,0,0,0,0,0,-1,1896,561,0,0
679,463,0,0,0,0,0,0,0,0,0,-1,1903,561,0,0
686,463,0,0,0,0,0,0,0,0,0,-1,1910,561,0,0
693,463,0,0,0,0,0,0,0,0,0,-1,1917,561,0,0
700,463,0,0,0,0,0,0,0,0,0,-1,1924,561,0,0
707,463,0,0,0,0,0,0,0,0,0,-1,1931,561,0,0
714,463,0,0,0,0,0,0,0,0,0,-1,1938,561,0,0
721,463,0,0,0,0,0,0,0,0,0,-1,1945,561,0,0
728,463,0,0,0,0,0,0,0,0,0,-1,1952,561,0,0
735,463,0,0,0,0,0,0,0,0,0,-1,1959,561,0,0
742,463,0,0,0,0,0,0,0,0,0,-1,1966,561,0,0
749,463,0,0,0,0,0,0,0,0,0,-1,1973,561,0,0
756,463,0,0,0,0,0,0,0,0,0,-1,1980,561,0,0
763,463,0,0,0,0,0,0,0,0,0,-1,1987,561,0,0
770,463,0,0,0,0,0,0,0,0,0,-1,1994,561,0,0
777,463,0,0,0,0,0,0,0,0,0,-1,2001,561,0,0
784,463,0,0,0,0,0,0,0,0,0,-1,2008,561,0,0
791,463,0,0,0,0,0,0,0,0,0,-1,2015,561,0,0
798,463,0,0,0,0,0,0,0,0,0,-1,2022,561,0,0
805,463,0,0,0,0,0,0,0,0,0,-1,2029,561,0,0
812,463,0,0,0,0,0,0,0,0,0,-1,2036,561,0,0
-700,456,0,0,0,0,0,0,0,0,0,-1,524,568,0,0
-693,456,0,0,0,0,0,0,0,0,0,-1,531,568,0,0
-686,456,0,0,0,0,0,0,0,0,0,-1,538,568,0,0
-679,456,0,0,0,0,0,0,0,0,0,-1,545,568,0,0
-672,456,0,0,0,0,0,0,0,0,0,-1,552,568,0,0
-665,456,0,0,0,0,0,0,0,0,0,-1,559,568,0,0
-658,456,0,0,0,0,0,0,0,0,0,-1,566,568,0,0
-651,456,0,0,0,0,0,0,0,0,0,-1,573,568,0,0
-644,456,0,0,0,0,0,0,0,0,0,-1,580,568,0,0
-637,456,0,0,0,0,0,0,0,0,0,-1,587,568,0,0
-630,456,0,0,0,0,0,0,0,0,0,-1,594,568,0,0
-623,456,0,0,0,0,0,0,0,0,0,-1,601,568,0,0
-616,456,0,0,0,0,0,0,0,0,0,-1,608,568,0,0
-609,456,0,0,0,0,0,0,0,0,0,-1,615,568,0,0
-602,456,0,0,0,0,0,0,0,0,0,-1,622,568,0,0
-595,456,0,0,0,0,0,0,0,0,0,-1,629,568,0,0
-588,456,0,0,0,0,0,0,0,0,0,-1,636,568,0,0
-581,456,0,0,0,0,0,0,0,0,0,-1,643,568,0,0
-574,456,0,0,0,0,0,0,0,0,0,-1,650,568,0,0
-567,456,0,0,0,0,0,0,0,0,0,-1,657,568,0,0
-560,456,0,0,0,0,0,0,0,0,0,-1,664,568,0,0
-553,456,0,0,0,0,0,0,0,0,0,-1,671,568,0,0
-546,456,0,0,0,0,0,0,0,0,0,-1,678,568,0,0
-539,456,0,0,0,0,0,0,0,0,0,-1,685,568,0,0
-532,456,0,0,0,0,0,0,0,0,0,-1,692,568,0,0
-525,456,0,0,0,0,0,0,0,0,0,-1,699,568,0,0
-518,456,0,0,0,0,0,0,0,0,0,-1,706,568,0,0
-511,456,0,0,0,0,0,0,0,0,0,-1,713,568,0,0
-504,456,0.750793,0.591675,0,0,0,0,0,0,0,-1,720,568,0.750822,-0.591703
-497,456,0.641235,0.593933,-0.0178949,0.0787991,0.0249008,0.0848348,-0.0239307,1.33299,0.0659959,0.0467612,727,568,0.641252,-0.593934
-490,456,0.500061,0.63092,-0.0119753,0.0623083,0.0148663,0.065173,-0.01484,1.38043,0.0491479,0.0448454,734,568,0.500059,-0.630936
-483,456,0.217163,0.546692,-0.00735548,0.0485794,0.00651546,0.0493283,-0.0081044,1.45635,0.0358933,0.0440636,741,568,0.21719,-0.546712
-476,456,0.145203,0.524597,-0.00423712,0.0371687,0.000480165,0.0371743,-0.00424269,1.5592,0.0263113,0.0468113,748,568,0.14519,-0.524607
-469,456,0.108765,0.739868,-0.00226787,0.027402,-0.00356807,0.027825,-0.00269093,-1.45278,0.019509,0.0481265,755,568,0.108794,-0.739898
-462,456,-0.198181,0.52417,-0.000923301,0.0202122,-0.00587863,0.0217373,-0.00244834,-1.31697,0.0153728,0.0445779,762,568,-0.19816,-0.524186
-455,456,-0.137939,0.320313,-0.000427592,0.015387,-0.00630665,0.017594,-0.0026346,-1.23417,0.012699,0.0412646,769,568,-0.137912,-0.320318
-448,456,-0.0385742,0.0643311,-0.000325246,0.0114915,-0.0058219,0.0138779,-0.00271165,-1.18178,0.0102758,0.027038,776,568,-0.0385456,-0.0643506
-441,456,-0.0637817,-0.0201416,-0.00024498,0.00830548,-0.00528766,0.01083,-0.00276952,-1.12536,0.00829869,0.0125266,783,568,-0.0637941,0.0201499
-434,456,-0.0750122,-0.0227661,-0.000494449,0.00603807,-0.00432207,0.00818926,-0.00264564,-1.10897,0.00652276,0.0079409,790,568,-0.0750408,0.0227524
-427,456,-0.0675049,-0.0268555,-0.000705473,0.00458557,-0.00290707,0.00587068,-0.00199058,-1.15456,0.00471939,0.00803368,797,568,-0.0674828,0.0268355
-420,456,-0.0632935,-0.0332031,-0.000954144,0.00345779,-0.00162562,0.00399207,-0.00148842,-1.25326,0.00327237,0.00891798,804,568,-0.0632642,0.0331939
-413,456,-0.074707,-0.0333862,-0.000811661,0.00230112,-0.000520472,0.00238584,-0.000896381,-1.40944,0.00195895,0.00765978,811,568,-0.0747094,0.0333575
-406,456,-0.09198,-0.0267944,-0.000414841,0.00144998,0.000241379,0.00148071,-0.000445578,1.44414,0.00116444,0.00743907,818,568,-0.0919516,0.0268005
-399,456,-0.0725708,-0.0248413,-0.000246164,0.000912262,0.000643598,0.0011989,-0.000532807,1.15179,0.00102416,0.00844701,825,568,-0.0725952,0.0248301
-392,456,-0.0740356,-0.0219727,-1.66253e-05,0.00115763,0.000624371,0.00142756,-0.000286562,1.16273,0.00106022,0.00794688,832,568,-0.0740132,0.0219969
-385,456,-0.0897827,-0.03125,0.000418228,0.00150989,0.000636951,0.00180289,0.000125228,1.13965,0.00116244,0.00871649,839,568,-0.0897692,0.0312736
-378,456,-0.0755615,-0.0632324,0.000752726,0.00195441,0.000833814,0.00238131,0.000325824,1.09761,0.00149085,0.00957977,846,568,-0.0755476,0.0632578
-371,456,-0.0580444,-0.0665894,0.000662009,0.00326401,0.000829908,0.00350617,0.000419847,1.28689,0.00221083,0.0103753,853,568,-0.0580449,0.0665846
-364,456,-0.0526733,-0.0408325,0.000270333,0.00582433,0.000562141,0.00588066,0.000214008,1.47093,0.00385108,0.014511,860,568,-0.0526565,0.0408483
-357,456,-0.0646362,-0.0407104,-0.000282467,0.0106076,-3.42961e-05,0.0106077,-0.000282574,-1.56765,0.00716786,0.0150249,867,568,-0.0646256,0.0407115
-350,456,-0.0352173,-0.0307617,-0.000953152,0.0149767,-0.000611358,0.0150001,-0.00097658,-1.53249,0.010341,0.0242986,874,568,-0.0352016,0.030733
-343,456,-0.135132,-0.265808,-0.00188714,0.0178296,-0.00151016,0.0179446,-0.00200214,-1.49479,0.0126832,0.0351112,881,568,-0.135107,0.265778
-336,456,-0.196533,-0.37262,-0.00306792,0.0200221,-0.00299742,0.0204048,-0.00345068,-1.44379,0.0148874,0.0418234,888,568,-0.196532,0.372615
-329,456,-0.043335,-0.652039,-0.00432521,0.0211053,-0.00475456,0.0219652,-0.00518506,-1.39188,0.0166432,0.044991,895,568,-0.0433176,0.652038
-322,456,-0.146301,-0.861511,-0.00496733,0.0229258,-0.00665197,0.0244309,-0.00647247,-1.34827,0.0188195,0.0458287,902,568,-0.146298,0.861485
-315,456,-0.115967,-1.3288,-0.00534808,0.0239192,-0.0080385,0.0259817,-0.00741057,-1.31964,0.0202485,0.0497003,909,568,-0.115981,1.32882
-308,456,-0.245361,-1.54108,-0.0059889,0.0222827,-0.0102662,0.0256174,-0.00932353,-1.25673,0.0208915,0.048648,916,568,-0.245335,1.54106
-301,456,-0.38031,-1.83612,0,0,0,0,0,0,0,-1,923,568,-0.380295,1.83614
-294,456,-0.946411,0.550964,-0.00811092,0.0123283,-0.0149779,0.0202409,-0.0160236,-1.08478,0.0209845,0.0452962,930,568,-0.946405,-0.550978
-287,456,-1.25098,0.205017,-0.00885157,0.00317626,-0.0167637,0.0149721,-0.0206474,-0.957621,0.0206518,0.0444399,937,568,-1.251,-0.20504
-280,456,-1.40027,-0.36084,-0.0117548,-0.00703464,-0.0190227,0.00977378,-0.0285632,-0.847116,0.0230029,0.0440676,944,568,-1.40028,0.360842
-273,456,-0.876953,-1.49872,0,0,0,0,0,0,0,-1,951,568,-0.876952,1.49872
-266,456,-1.24756,-1.51752,0,0,0,0,0,0,0,-1,958,568,-1.24754,1.51752
-259,456,0,0,0,0,0,0,0,0,0,-1,965,568,0,0
-252,456,0,0,0,0,0,0,0,0,0,-1,972,568,0,0
-245,456,0,0,0,0,0,0,0,0,0,-1,979,568,0,0
-238,456,0,0,0,0,0,0,0,0,0,-1,986,568,0,0
-231,456,0,0,0,0,0,0,0,0,0,-1,993,568,0,0
-224,456,0,0,0,0,0,0,0,0,0,-1,1000,568,0,0
-217,456,0,0,0,0,0,0,0,0,0,-1,1007,568,0,0
-210,456,0,0,0,0,0,0,0,0,0,-1,1014,568,0,0
-203,456,0,0,0,0,0,0,0,0,0,-1,1021,568,0,0
-196,456,0,0,0,0,0,0,0,0,0,-1,1028,568,0,0
-189,456,0,0,0,0,0,0,0,0,0,-1,1035,568,0,0
-182,456,0,0,0,0,0,0,0,0,0,-1,1042,568,0,0
-175,456,0,0,0,0,0,0,0,0,0,-1,1049,568,0,0
-168,456,0,0,0,0,0,0,0,0,0,-1,1056,568,0,0
-161,456,0,0,0,0,0,0,0,0,0,-1,1063,568,0,0
-154,456,0,0,0,0,0,0,0,0,0,-1,1070,568,0,0
-147,456,0,0,0,0,0,0,0,0,0,-1,1077,568,0,0
-140,456,0,0,0,0,0,0,0,0,0,-1,1084,568,0,0
-133,456,0,0,0,0,0,0,0,0,0,-1,1091,568,0,0
-126,456,0,0,0,0,0,0,0,0,0,-1,1098,568,0,0
-119,456,0,0,0,0,0,0,0,0,0,-1,1105,568,0,0
-112,456,0,0,0,0,0,0,0,0,0,-1,1112,568,0,0
-105,456,0,0,0,0,0,0,0,0,0,-1,1119,568,0,0
-98,456,0,0,0,0,0,0,0,0,0,-1,1126,568,0,0
-91,456,0,0,0,0,0,0,0,0,0,-1,1133,568,0,0
-84,456,0,0,0,0,0,0,0,0,0,-1,1140,568,0,0
-77,456,0,0,0,0,0,0,0,0,0,-1,1147,568,0,0
-70,456,0,0,0,0,0,0,0,0,0,-1,1154,568,0,0
-63,456,0,0,0,0,0,0,0,0,0,-1,1161,568,0,0
-56,456,0,0,0,0,0,0,0,0,0,-1,1168,568,0,0
-49,456,0,0,0,0,0,0,0,0,0,-1,1175,568,0,0
-42,456,0,0,0,0,0,0,0,0,0,-1,1182,568,0,0
-35,456,0,0,0,0,0,0,0,0,0,-1,1189,568,0,0
-28,456,0,0,0,0,0,0,0,0,0,-1,1196,568,0,0
-21,456,0,0,0,0,0,0,0,0,0,-1,1203,568,0,0
-14,456,0,0,0,0,0,0,0,0,0,-1,1210,568,0,0
-7,456,0,0,0,0,0,0,0,0,0,-1,1217,568,0,0
0,456,0,0,0,0,0,0,0,0,0,-1,1224,568,0,0
7,456,0,0,0,0,0,0,0,0,0,-1,1231,568,0,0
14,456,0,0,0,0,0,0,0,0,0,-1,1238,568,0,0
21,456,0,0,0,0,0,0,0,0,0,-1,1245,568,0,0
28,456,0,0,0,0,0,0,0,0,0,-1,1252,568,0,0
35,456,0,0,0,0,0,0,0,0,0,-1,1259,568,0,0
42,456,0,0,0,0,0,0,0,0,0,-1,1266,568,0,0
49,456,0,0,0,0,0,0,0,0,0,-1,1273,568,0,0
56,456,0,0,0,0,0,0,0,0,0,-1,1280,568,0,0
63,456,0,0,0,0,0,0,0,0,0,-1,1287,568,0,0
70,456,0,0,0,0,0,0,0,0,0,-1,1294,568,0,0
77,456,0,0,0,0,0,0,0,0,0,-1,1301,568,0,0
84,456,0,0,0,0,0,0,0,0,0,-1,1308,568,0,0
91,456,0,0,0,0,0,0,0,0,0,-1,1315,568,0,0
98,456,0,0,0,0,0,0,0,0,0,-1,1322,568,0,0
105,456,0,0,0,0,0,0,0,0,0,-1,1329,568,0,0
112,456,0,0,0,0,0,0,0,0,0,-1,1336,568,0,0
119,456,0,0,0,0,0,0,0,0,0,-1,1343,568,0,0
126,456,0,0,0,0,0,0,0,0,0,-1,1350,568,0,0
133,456,0,0,0,0,0,0,0,0,0,-1,1357,568,0,0
140,456,0,0,0,0,0,0,0,0,0,-1,1364,568,0,0
147,456,0,0,0,0,0,0,0,0,0,-1,1371,568,0,0
154,456,0,0,0,0,0,0,0,0,0,-1,1378,568,0,0
161,456,0,0,0,0,0,0,0,0,0,-1,1385,568,0,0
168,456,0,0,0,0,0,0,0,0,0,-1,1392,568,0,0
175,456,0,0,0,0,0,0,0,0,0,-1,1399,568,0,0
182,456,0,0,0,0,0,0,0,0,0,-1,1406,568,0,0
189,456,0,0,0,0,0,0,0,0,0,-1,1413,568,0,0
196,456,0,0,0,0,0,0,0,0,0,-1,1420,568,0,0
203,456,0,0,0,0,0,0,0,0,0,-1,1427,568,0,0
210,456,0,0,0,0,0,0,0,0,0,-1,1434,568,0,0
217,456,0,0,0,0,0,0,0,0,0,-1,1441,568,0,0
224,456,0,0,0,0,0,0,0,0,0,-1,1448,568,0,0
231,456,0,0,0,0,0,0,0,0,0,-1,1455,568,0,0
238,456,0,0,0,0,0,0,0,0,0,-1,1462,568,0,0
245,456,0,0,0,0,0,0,0,0,0,-1,1469,568,0,0
252,456,0,0,0,0,0,0,0,0,0,-1,1476,568,0,0
259,456,0,0,0,0,0,0,0,0,0,-1,1483,568,0,0
266,456,0,0,0,0,0,0,0,0,0,-1,1490,568,0,0
273,456,0,0,0,0,0,0,0,0,0,-1,1497,568,0,0
280,456,0,0,0,0,0,0,0,0,0,-1,1504,568,0,0
287,456,0,0,0,0,0,0,0,0,0,-1,1511,568,0,0
294,456,0,0,0,0,0,0,0,0,0,-1,1518,568,0,0
301,456,0,0,0,0,0,0,0,0,0,-1,1525,568,0,0
308,456,0,0,0,0,0,0,0,0,0,-1,1532,568,0,0
315,456,0,0,0,0,0,0,0,0,0,-1,1539,568,0,0
322,456,0,0,0,0,0,0,0,0,0,-1,1546,568,0,0
329,456,0,0,0,0,0,0,0,0,0,-1,1553,568,0,0
336,456,0,0,0,0,0,0,0,0,0,-1,1560,568,0,0
343,456,0,0,0,0,0,0,0,0,0,-1,1567,568,0,0
350,456,0,0,0,0,0,0,0,0,0,-1,1574,568,0,0
357,456,0,0,0,0,0,0,0,0,0,-1,1581,568,0,0
364,456,0,0,0,0,0,0,0,0,0,-1,1588,568,0,0
371,456,0,0,0,0,0,0,0,0,0,-1,1595,568,0,0
378,456,0,0,0,0,0,0,0,0,0,-1,1602,568,0,0
385,456,-1.09961,-0.650085,0.03025,0.00164456,0.01215,0.034714,-0.00281942,0.352098,0.0241374,0.0457917,1609,568,-1.09962,0.650069
392,456,-0.954956,-0.467407,0.0272912,0.0026416,0.00804034,0.029682,0.000250837,0.28902,0.0197049,0.0460801,1616,568,-0.954898,0.467426
399,456,-0.727783,-0.446411,0.0244122,0.00217617,0.00628755,0.0260669,0.000521416,0.257343,0.0172068,0.0445857,1623,568,-0.727818,0.446392
406,456,-0.57605,-0.241699,0,0,0,0,0,0,0,-1,1630,568,-0.576044,0.241696
413,456,0.329224,-1.46918,0,0,0,0,0,0,0,-1,1637,568,0.329227,1.46919
420,456,-0.223389,-0.264404,0,0,0,0,0,0,0,-1,1644,568,-0.223431,0.264424
427,456,-0.743408,0.85968,0.0105337,-0.0040846,0.00392704,0.0115219,-0.00507276,0.246512,0.00981911,0.0428937,1651,568,-0.743443,-0.859698
434,456,-0.592529,0.437622,0.0095047,-0.00531439,0.00344814,0.0102677,-0.00607743,0.217779,0.00953969,0.0451802,1658,568,-0.59257,-0.437634
441,456,-0.443359,0.386353,0.00884299,-0.00577387,0.00273129,0.00933668,-0.00626757,0.178823,0.00906702,0.0433346,1665,568,-0.443419,-0.386382
448,456,-0.545654,0.497314,0.00875014,-0.00688315,0.00222237,0.00905993,-0.00719293,0.138501,0.00940421,0.0405485,1672,568,-0.545656,-0.497317
455,456,-0.214966,0.472351,0.00920746,-0.00745675,0.00131447,0.00931051,-0.0075598,0.0782353,0.00975754,0.0415271,1679,568,-0.215008,-0.472354
462,456,0.313232,0.0556641,0.00998775,-0.00583137,0.000249882,0.00999169,-0.00583531,0.015791,0.00924216,0.0472561,1686,568,0.313196,-0.0556483
469,456,0.213867,-0.177185,0.0102829,-0.00463115,-0.000765726,0.0103221,-0.00467036,-0.0511632,0.00885856,0.0474161,1693,568,0.213828,0.177161
476,456,0.0841064,-0.218384,0.0111564,-0.00383745,-0.00193554,0.0114022,-0.00408328,-0.12633,0.00926745,0.0364333,1700,568,0.084084,0.2184
483,456,-0.124268,-0.0374146,0.0112483,-0.00397371,-0.00268848,0.0117092,-0.00443459,-0.169778,0.00963086,0.0290677,1707,568,-0.124269,0.0373851
490,456,-0.111694,-0.0256958,0.0101597,-0.0030162,-0.00308384,0.0108458,-0.00370225,-0.218903,0.00873031,0.0167516,1714,568,-0.11169,0.0257237
497,456,-0.0855713,-0.0341187,0.00877103,-0.00196625,-0.00311782,0.0096107,-0.00280591,-0.263071,0.00751903,0.0100749,1721,568,-0.0855677,0.0341468
504,456,-0.0682373,-0.0440674,0.00693317,-0.000739087,-0.00281803,0.007857,-0.00166292,-0.316787,0.00587133,0.00887145,1728,568,-0.0682745,0.0440378
511,456,-0.0661621,-0.0385132,0.00510304,-0.000232567,-0.00201744,0.00577997,-0.000909496,-0.323734,0.00418952,0.0119613,1735,568,-0.0661519,0.0385368
518,456,-0.0484619,-0.031311,0.00378546,0.000116843,-0.0013247,0.00421378,-0.000311484,-0.312729,0.00291856,0.0144181,1742,568,-0.0484275,0.031289
525,456,-0.0599365,-0.03479,0.00239487,0.000246177,-0.000733072,0.00262114,1.99021e-05,-0.299389,0.00174083,0.0144085,1749,568,-0.0599824,0.0347853
532,456,-0.0772705,-0.043396,0.000617892,0.000682451,-0.000252964,0.000905187,0.000395156,-0.848858,0.000524011,0.0134867,1756,568,-0.0772728,0.0433809
539,456,-0.0882568,-0.0690308,-0.000488311,0.000796954,0.000308009,0.000866955,-0.000558312,1.34732,0.000829285,0.0131782,1763,568,-0.0882889,0.0690138
546,456,-0.067749,-0.0706177,-0.00103337,0.0010691,0.000742619,0.00130495,-0.00126922,1.26328,0.00148624,0.0143703,1770,568,-0.0677284,0.0706027
553,456,-0.0539551,-0.0414429,-0.00144701,0.00141043,0.00101117,0.00173205,-0.00176863,1.26284,0.00202116,0.0122659,1777,568,-0.0539499,0.0414406
560,456,-0.0648193,-0.022583,-0.00175117,0.00163518,0.00102554,0.00192154,-0.00203753,1.2985,0.0022861,0.00956551,1784,568,-0.0647931,0.0225527
567,456,-0.0784912,-0.0395508,-0.00188256,0.00228192,0.00138899,0.00270268,-0.00230332,1.27666,0.00289328,0.0081805,1791,568,-0.0784646,0.0395518
574,456,-0.0915527,-0.0559692,-0.00204999,0.00330044,0.00207512,0.00401091,-0.00276046,1.24093,0.00393161,0.013828,1798,568,-0.0916105,0.0559776
581,456,-0.131592,0.00152588,-0.0025648,0.00497535,0.00278158,0.00589043,-0.00347987,1.25297,0.00546929,0.0317519,1805,568,-0.131564,-0.00151897
588,456,-0.123413,0.163635,-0.00302254,0.00649336,0.00309104,0.00740927,-0.00393845,1.28273,0.00665297,0.0413804,1812,568,-0.123389,-0.163628
595,456,-0.14624,0.335266,-0.00324687,0.00861462,0.00354221,0.00959191,-0.00422416,1.30159,0.00817492,0.0417416,1819,568,-0.146291,-0.335245
602,456,-0.0318604,0.325439,-0.00368388,0.0111322,0.00440213,0.0123414,-0.00489313,1.30271,0.0102555,0.0397714,1826,568,-0.0318781,-0.325414
609,456,0.218506,0.041626,-0.00439757,0.0143917,0.00540038,0.0158333,-0.00583914,1.30994,0.0129485,0.0390183,1833,568,0.218564,-0.0416271
616,456,0.453857,-0.107605,0,0,0,0,0,0,0,-1,1840,568,0.453823,0.107611
623,456,0.0462646,0.660217,0,0,0,0,0,0,0,-1,1847,568,0.0463208,-0.660222
630,456,0,0,0,0,0,0,0,0,0,-1,1854,568,0,0
637,456,0,0,0,0,0,0,0,0,0,-1,1861,568,0,0
644,456,0,0,0,0,0,0,0,0,0,-1,1868,568,0,0
651,456,0,0,0,0,0,0,0,0,0,-1,1875,568,0,0
658,456,0,0,0,0,0,0,0,0,0,-1,1882,568,0,0
665,456,0,0,0,0,0,0,0,0,0,-1,1889,568,0,0
672,456,0,0,0,0,0,0,0,0,0,-1,1896,568,0,0
679,456,0,0,0,0,0,0,0,0,0,-1,1903,568,0,0
686,456,0,0,0,0,0,0,0,0,0,-1,1910,568,0,0
693,456,0,0,0,0,0,0,0,0,0,-1,1917,568,0,0
700,456,0,0,0,0,0,0,0,0,0,-1,1924,568,0,0
707,456,0,0,0,0,0,0,0,0,0,-1,1931,568,0,0
714,456,0,0,0,0,0,0,0,0,0,-1,1938,568,0,0
721,456,0,0,0,0,0,0,0,0,0,-1,1945,568,0,0
728,456,0,0,0,0,0,0,0,0,0,-1,1952,568,0,0
735,456,0,0,0,0,0,0,0,0,0,-1,1959,568,0,0
742,456,0,0,0,0,0,0,0,0,0,-1,1966,568,0,0
749,456,0,0,0,0,0,0,0,0,0,-1,1973,568,0,0
756,456,0,0,0,0,0,0,0,0,0,-1,1980,568,0,0
763,456,0,0,0,0,0,0,0,0,0,-1,1987,568,0,0
770,456,0,0,0,0,0,0,0,0,0,-1,1994,568,0,0
777,456,0,0,0,0,0,0,0,0,0,-1,2001,568,0,0
784,456,0,0,0,0,0,0,0,0,0,-1,2008,568,0,0
791,456,0,0,0,0,0,0,0,0,0,-1,2015,568,0,0
798,456,0,0,0,0,0,0,0,0,0,-1,2022,568,0,0
805,456,0,0,0,0,0,0,0,0,0,-1,2029,568,0,0
812,456,0,0,0,0,0,0,0,0,0,-1,2036,568,0,0
-700,449,0,0,0,0,0,0,0,0,0,-1,524,575,0,0
-693,449,0,0,0,0,0,0,0,0,0,-1,531,575,0,0
-686,449,0,0,0,0,0,0,0,0,0,-1,538,575,0,0
-679,449,0,0,0,0,0,0,0,0,0,-1,545,575,0,0
-672,449,0,0,0,0,0,0,0,0,0,-1,552,575,0,0
-665,449,0,0,0,0,0,0,0,0,0,-1,559,575,0,0
-658,449,0,0,0,0,0,0,0,0,0,-1,566,575,0,0
-651,449,0,0,0,0,0,0,0,0,0,-1,573,575,0,0
-644,449,0,0,0,0,0,0,0,0,0,-1,580,575,0,0
-637,449,0,0,0,0,0,0,0,0,0,-1,587,575,0,0
-630,449,0,0,0,0,0,0,0,0,0,-1,594,575,0,0
-623,449,0,0,0,0,0,0,0,0,0,-1,601,575,0,0
-616,449,0,0,0,0,0,0,0,0,0,-1,608,575,0,0
-609,449,0,0,0,0,0,0,0,0,0,-1,615,575,0,0
-602,449,0,0,0,0,0,0,0,0,0,-1,622,575,0,0
-595,449,0,0,0,0,0,0,0,0,0,-1,629,575,0,0
-588,449,0,0,0,0,0,0,0,0,0,-1,636,575,0,0
-581,449,0,0,0,0,0,0,0,0,0,-1,643,575,0,0
-574,449,0,0,0,0,0,0,0,0,0,-1,650,575,0,0
-567,449,0,0,0,0,0,0,0,0,0,-1,657,575,0,0
-560,449,0,0,0,0,0,0,0,0,0,-1,664,575,0,0
-553,449,0,0,0,0,0,0,0,0,0,-1,671,575,0,0
-546,449,0,0,0,0,0,0,0,0,0,-1,678,575,0,0
-539,449,0,0,0,0,0,0,0,0,0,-1,685,575,0,0
-532,449,0,0,0,0,0,0,0,0,0,-1,692,575,0,0
-525,449,0,0,0,0,0,0,0,0,0,-1,699,575,0,0
-518,449,0,0,0,0,0,0,0,0,0,-1,706,575,0,0
-511,449,3.73645,0.854248,0,0,0,0,0,0,0,-1,713,575,3.73643,-0.854261
-504,449,0.46991,0.541687,0,0,0,0,0,0,0,-1,720,575,0.469888,-0.541674
-497,449,0.423889,0.477051,-0.0198957,0.0748074,0.0278089,0.0823695,-0.0274578,1.30529,0.0659978,0.0483567,727,575,0.423865,-0.477036
-490,449,0.269043,0.559448,-0.014057,0.0594877,0.0186481,0.0639459,-0.0185152,1.33613,0.0499594,0.04573,734,575,0.269041,-0.559446
-483,449,0.108093,0.643799,-0.00936571,0.0464259,0.0106764,0.0483992,-0.011339,1.38803,0.0366354,0.0424854,741,575,0.108088,-0.643797
-476,449,0.134155,0.667664,-0.00604113,0.0352383,0.00454211,0.0357321,-0.006535,1.46249,0.0262721,0.0423024,748,575,0.134183,-0.667637
-469,449,0.116211,0.5354,-0.00376312,0.0255271,7.62078e-05,0.0255273,-0.00376332,1.56819,0.0184014,0.0441963,755,575,0.116241,-0.53537
-462,449,0.0452881,0.320496,-0.00202264,0.0183311,-0.00285238,0.0187233,-0.00241482,-1.43416,0.0133601,0.0424323,762,575,0.0452876,-0.320501
-455,449,-0.0803223,0.0849609,-0.00111655,0.0135965,-0.00399547,0.0146115,-0.00213154,-1.32202,0.0105237,0.0313669,769,575,-0.0803372,-0.084963
-448,449,-0.0617065,0.00390625,-0.000686088,0.00986715,-0.00415144,0.0113045,-0.00212342,-1.23749,0.00833479,0.0164064,776,575,-0.0617262,-0.00389987
-441,449,-0.0667114,-0.0265503,-0.000444372,0.0069271,-0.00409031,0.0087473,-0.00226457,-1.15211,0.00671491,0.0118249,783,575,-0.0667351,0.026541
-434,449,-0.0764771,-0.0230713,-0.000620972,0.00490823,-0.00350577,0.00660832,-0.00232106,-1.11927,0.00534979,0.0110071,790,575,-0.0764741,0.0230414
-427,449,-0.0720825,-0.0298462,-0.000796588,0.00369179,-0.00234745,0.0046952,-0.0018,-1.16685,0.0038722,0.0116915,797,575,-0.0720749,0.0298601
-420,449,-0.0606689,-0.0383301,-0.000976193,0.00285287,-0.00131555,0.00326129,-0.00138461,-1.26978,0.00275429,0.0120129,804,575,-0.0606388,0.0383316
-413,449,-0.0695801,-0.0405273,-0.000799711,0.00204251,-0.000391095,0.00209534,-0.000852544,-1.43652,0.00175165,0.00913825,811,575,-0.0695866,0.0405168
-406,449,-0.0918579,-0.038208,-0.000410223,0.00144158,0.0003197,0.00149522,-0.000463863,1.40456,0.00118217,0.00794914,818,575,-0.0918803,0.0381918
-399,449,-0.0864258,-0.0305176,-0.000212631,0.00105021,0.000731813,0.00138535,-0.000547773,1.14134,0.00115048,0.00775498,825,575,-0.0864415,0.030535
-392,449,-0.072876,-0.0327759,6.88893e-05,0.00143495,0.000832915,0.00182908,-0.000325242,1.12882,0.00134101,0.00832748,832,575,-0.0729028,0.0327747
-385,449,-0.0661621,-0.0372925,0.000558767,0.00191149,0.000929697,0.00238482,8.54321e-05,1.09987,0.00156218,0.00870965,839,575,-0.0661467,0.037305
-378,449,-0.0769043,-0.0327148,0.00100037,0.00245948,0.0012112,0.00314387,0.000315971,1.05647,0.00199893,0.00825281,846,575,-0.0769055,0.0326926
-371,449,-0.0839233,-0.0322266,0.000999131,0.00390863,0.00129378,0.00440071,0.000507044,1.20735,0.00278025,0.00935288,853,575,-0.0839054,0.0321976
-364,449,-0.0990601,-0.0466919,0.000711387,0.00674748,0.00102904,0.00691809,0.000540779,1.4065,0.00444278,0.0174763,860,575,-0.0990527,0.0467051
-357,449,-0.0814209,-0.0180054,0.000256047,0.0122379,0.000303058,0.0122456,0.000248387,1.54552,0.00808218,0.028441,867,575,-0.0814285,0.0179835
-350,449,-0.260315,-0.189209,-0.000349296,0.0173257,-0.000420343,0.0173357,-0.000359287,-1.54703,0.0116787,0.0394356,874,575,-0.260294,0.189218
-343,449,-0.572571,-0.565125,-0.00120038,0.0207279,-0.00155052,0.0208369,-0.00130948,-1.50055,0.0143477,0.045462,881,575,-0.572549,0.565148
-336,449,-0.543335,-0.653137,-0.00223676,0.0233712,-0.00344604,0.0238268,-0.00269238,-1.43934,0.0168538,0.0439717,888,575,-0.543319,0.653143
-329,449,-0.471008,-0.678894,-0.00333721,0.0247148,-0.00572413,0.0258379,-0.00446028,-1.37706,0.0188884,0.043997,895,575,-0.470985,0.678904
-322,449,-0.431458,-0.713074,0,0,0,0,0,0,0,-1,902,575,-0.431486,0.713071
-315,449,-0.281372,-1.85925,-0.00431167,0.0277747,-0.0105432,0.030929,-0.00746597,-1.28009,0.0235066,0.0491229,909,575,-0.281378,1.85926
-308,449,-0.431641,-2.19415,-0.00462197,0.0259598,-0.0139196,0.0313466,-0.0100088,-1.20155,0.0249134,0.0496497,916,575,-0.431651,2.19414
-301,449,-0.59021,-2.54016,0,0,0,0,0,0,0,-1,923,575,-0.590227,2.54019
-294,449,-1.35968,1.04309,-0.0053933,0.0143433,-0.0216596,0.0282768,-0.0193267,-0.999152,0.0276454,0.0462451,930,575,-1.35967,-1.04311
-287,449,-1.32678,0.686096,-0.0053798,0.00260662,-0.0253383,0.0242644,-0.0270376,-0.863553,0.0296337,0.0472418,937,575,-1.32679,-0.686076
-280,449,-0.941467,1.06378,-0.00677825,-0.011314,-0.0290006,0.020043,-0.0381353,-0.746377,0.0341263,0.0445072,944,575,-0.941471,-1.0638
-273,449,0,0,0,0,0,0,0,0,0,-1,951,575,0,0
-266,449,0,0,0,0,0,0,0,0,0,-1,958,575,0,0
-259,449,0,0,0,0,0,0,0,0,0,-1,965,575,0,0
-252,449,0,0,0,0,0,0,0,0,0,-1,972,575,0,0
-245,449,0,0,0,0,0,0,0,0,0,-1,979,575,0,0
-238,449,0,0,0,0,0,0,0,0,0,-1,986,575,0,0
-231,449,0,0,0,0,0,0,0,0,0,-1,993,575,0,0
-224,449,0,0,0,0,0,0,0,0,0,-1,1000,575,0,0
-217,449,0,0,0,0,0,0,0,0,0,-1,1007,575,0,0
-210,449,0,0,0,0,0,0,0,0,0,-1,1014,575,0,0
-203,449,0,0,0,0,0,0,0,0,0,-1,1021,575,0,0
-196,449,0,0,0,0,0,0,0,0,0,-1,1028,575,0,0
-189,449,0,0,0,0,0,0,0,0,0,-1,1035,575,0,0
-182,449,0,0,0,0,0,0,0,0,0,-1,1042,575,0,0
-175,449,0,0,0,0,0,0,0,0,0,-1,1049,575,0,0
-168,449,0,0,0,0,0,0,0,0,0,-1,1056,575,0,0
-161,449,0,0,0,0,0,0,0,0,0,-1,1063,575,0,0
-154,449,0,0,0,0,0,0,0,0,0,-1,1070,575,0,0
-147,449,0,0,0,0,0,0,0,0,0,-1,1077,575,0,0
-140,449,0,0,0,0,0,0,0,0,0,-1,1084,575,0,0
-133,449,0,0,0,0,0,0,0,0,0,-1,1091,575,0,0
-126,449,0,0,0,0,0,0,0,0,0,-1,1098,575,0,0
-119,449,0,0,0,0,0,0,0,0,0,-1,1105,575,0,0
-112,449,0,0,0,0,0,0,0,0,0,-1,1112,575,0,0
-105,449,0,0,0,0,0,0,0,0,0,-1,1119,575,0,0
-98,449,0,0,0,0,0,0,0,0,0,-1,1126,575,0,0
-91,449,0,0,0,0,0,0,0,0,0,-1,1133,575,0,0
-84,449,0,0,0,0,0,0,0,0,0,-1,1140,575,0,0
-77,449,0,0,0,0,0,0,0,0,0,-1,1147,575,0,0
-70,449,0,0,0,0,0,0,0,0,0,-1,1154,575,0,0
-63,449,0,0,0,0,0,0,0,0,0,-1,1161,575,0,0
-56,449,0,0,0,0,0,0,0,0,0,-1,1168,575,0,0
-49,449,0,0,0,0,0,0,0,0,0,-1,1175,575,0,0
-42,449,0,0,0,0,0,0,0,0,0,-1,1182,575,0,0
-35,449,0,0,0,0,0,0,0,0,0,-1,1189,575,0,0
-28,449,0,0,0,0,0,0,0,0,0,-1,1196,575,0,0
-21,449,0,0,0,0,0,0,0,0,0,-1,1203,575,0,0
-14,449,0,0,0,0,0,0,0,0,0,-1,1210,575,0,0
-7,449,0,0,0,0,0,0,0,0,0,-1,1217,575,0,0
0,449,0,0,0,0,0,0,0,0,0,-1,1224,575,0,0
7,449,0,0,0,0,0,0,0,0,0,-1,1231,575,0,0
14,449,0,0,0,0,0,0,0,0,0,-1,1238,575,0,0
21,449,0,0,0,0,0,0,0,0,0,-1,1245,575,0,0
28,449,0,0,0,0,0,0,0,0,0,-1,1252,575,0,0
35,449,0,0,0,0,0,0,0,0,0,-1,1259,575,0,0
42,449,0,0,0,0,0,0,0,0,0,-1,1266,575,0,0
49,449,0,0,0,0,0,0,0,0,0,-1,1273,575,0,0
56,449,0,0,0,0,0,0,0,0,0,-1,1280,575,0,0
63,449,0,0,0,0,0,0,0,0,0,-1,1287,575,0,0
70,449,0,0,0,0,0,0,0,0,0,-1,1294,575,0,0
77,449,0,0,0,0,0,0,0,0,0,-1,1301,575,0,0
84,449,0,0,0,0,0,0,0,0,0,-1,1308,575,0,0
91,449,0,0,0,0,0,0,0,0,0,-1,1315,575,0,0
98,449,0,0,0,0,0,0,0,0,0,-1,1322,575,0,0
105,449,0,0,0,0,0,0,0,0,0,-1,1329,575,0,0
112,449,0,0,0,0,0,0,0,0,0,-1,1336,575,0,0
119,449,0,0,0,0,0,0,0,0,0,-1,1343,575,0,0
126,449,0,0,0,0,0,0,0,0,0,-1,1350,575,0,0
133,449,0,0,0,0,0,0,0,0,0,-1,1357,575,0,0
140,449,0,0,0,0,0,0,0,0,0,-1,1364,575,0,0
147,449,0,0,0,0,0,0,0,0,0,-1,1371,575,0,0
154,449,0,0,0,0,0,0,0,0,0,-1,1378,575,0,0
161,449,0,0,0,0,0,0,0,0,0,-1,1385,575,0,0
168,449,0,0,0,0,0,0,0,0,0,-1,1392,575,0,0
175,449,0,0,0,0,0,0,0,0,0,-1,1399,575,0,0
182,449,0,0,0,0,0,0,0,0,0,-1,1406,575,0,0
189,449,0,0,0,0,0,0,0,0,0,-1,1413,575,0,0
196,449,0,0,0,0,0,0,0,0,0,-1,1420,575,0,0
203,449,0,0,0,0,0,0,0,0,0,-1,1427,575,0,0
210,449,0,0,0,0,0,0,0,0,0,-1,1434,575,0,0
217,449,0,0,0,0,0,0,0,0,0,-1,1441,575,0,0
224,449,0,0,0,0,0,0,0,0,0,-1,1448,575,0,0
231,449,0,0,0,0,0,0,0,0,0,-1,1455,575,0,0
238,449,0,0,0,0,0,0,0,0,0,-1,1462,575,0,0
245,449,0,0,0,0,0,0,0,0,0,-1,1469,575,0,0
252,449,0,0,0,0,0,0,0,0,0,-1,1476,575,0,0
259,449,0,0,0,0,0,0,0,0,0,-1,1483,575,0,0
266,449,0,0,0,0,0,0,0,0,0,-1,1490,575,0,0
273,449,0,0,0,0,0,0,0,0,0,-1,1497,575,0,0
280,449,0,0,0,0,0,0,0,0,0,-1,1504,575,0,0
287,449,0,0,0,0,0,0,0,0,0,-1,1511,575,0,0
294,449,0,0,0,0,0,0,0,0,0,-1,1518,575,0,0
301,449,0,0,0,0,0,0,0,0,0,-1,1525,575,0,0
308,449,0,0,0,0,0,0,0,0,0,-1,1532,575,0,0
315,449,0,0,0,0,0,0,0,0,0,-1,1539,575,0,0
322,449,0,0,0,0,0,0,0,0,0,-1,1546,575,0,0
329,449,0,0,0,0,0,0,0,0,0,-1,1553,575,0,0
336,449,0,0,0,0,0,0,0,0,0,-1,1560,575,0,0
343,449,0,0,0,0,0,0,0,0,0,-1,1567,575,0,0
350,449,0,0,0,0,0,0,0,0,0,-1,1574,575,0,0
357,449,0,0,0,0,0,0,0,0,0,-1,1581,575,0,0
364,449,0,0,0,0,0,0,0,0,0,-1,1588,575,0,0
371,449,0,0,0,0,0,0,0,0,0,-1,1595,575,0,0
378,449,0,0,0,0,0,0,0,0,0,-1,1602,575,0,0
385,449,0,0,0,0,0,0,0,0,0,-1,1609,575,0,0
392,449,-1.11548,-0.397278,0.026888,0.00123062,0.00707526,0.0287098,-0.000591098,0.252004,0.0193399,0.0460227,1616,575,-1.11543,0.397279
399,449,-0.35376,-0.760986,0.0228305,0.00099602,0.00645329,0.0245951,-0.000768662,0.266929,0.0166589,0.041918,1623,575,-0.35372,0.761013
406,449,0.236938,-1.12579,0.0181265,2.68768e-05,0.00628898,0.0200972,-0.00194376,0.303657,0.0140908,0.0421116,1630,575,0.236943,1.12577
413,449,0.705811,-0.967651,0.0137326,-0.00107082,0.00616456,0.0159635,-0.00330172,0.347229,0.0118966,0.0401022,1637,575,0.70576,0.967667
420,449,1.66516,-1.28137,0,0,0,0,0,0,0,-1,1644,575,1.6652,1.28135
427,449,-0.766479,0.667053,0.00743035,-0.0043437,0.00624233,0.0101237,-0.0070371,0.407341,0.0099611,0.0435016,1651,575,-0.76654,-0.667032
434,449,-0.569092,0.42572,0.00782811,-0.00472229,0.00538258,0.00982034,-0.00671451,0.354489,0.00960237,0.0459288,1658,575,-0.569058,-0.42574
441,449,-0.280762,0.488281,0.00848952,-0.00462504,0.00407725,0.00965377,-0.00578928,0.278144,0.00900862,0.0473678,1665,575,-0.280806,-0.488312
448,449,-0.735229,0.803955,0.00934893,-0.00508612,0.00281448,0.00987827,-0.00561547,0.185907,0.00905747,0.0451351,1672,575,-0.735201,-0.803965
455,449,0.43689,0.56897,0.010488,-0.00544453,0.00159938,0.010647,-0.0056035,0.0990676,0.00953164,0.0463882,1679,575,0.436933,-0.568967
462,449,0.200317,0.360413,0.0116604,-0.00363503,0.00027525,0.0116653,-0.00363998,0.0179878,0.00923258,0.0476064,1686,575,0.200355,-0.360429
469,449,-0.0413818,0.140625,0,0,0,0,0,0,0,-1,1693,575,-0.0413283,-0.140602
476,449,-0.211914,0.0250854,0.0136492,-0.00162438,-0.00241656,0.0140224,-0.00199761,-0.153234,0.0100803,0.042558,1700,575,-0.211945,-0.0250848
483,449,-0.181763,0.0305786,0.0140309,-0.00201426,-0.0033657,0.0147083,-0.00269166,-0.198613,0.010815,0.0416505,1707,575,-0.181789,-0.0305585
490,449,-0.141235,0.0117188,0.0127513,-0.00120018,-0.00375887,0.0136996,-0.00214846,-0.247121,0.00992701,0.0324959,1714,575,-0.141219,-0.0117043
497,449,-0.100952,-0.00897217,0.010867,-0.000286409,-0.00371984,0.0119938,-0.0014132,-0.294128,0.00850614,0.0186859,1721,575,-0.100947,0.00896232
504,449,-0.0648193,-0.0495605,0.00844068,0.000813405,-0.00332792,0.00968855,-0.000434468,-0.358745,0.00660862,0.0114727,1728,575,-0.0648575,0.0495465
511,449,-0.0593262,-0.0558472,0.00611713,0.00112434,-0.00242723,0.00710261,0.000138863,-0.385676,0.00468947,0.00929383,1735,575,-0.059376,0.0558729
518,449,-0.0594482,-0.0393066,0.00442626,0.00126485,-0.00168508,0.00515599,0.000535117,-0.408673,0.00327356,0.0122012,1742,575,-0.0595075,0.039292
525,449,-0.076416,-0.0388184,0.00275339,0.00114594,-0.00104329,0.00326665,0.000632681,-0.457191,0.0020005,0.0117979,1749,575,-0.0763959,0.038838
532,449,-0.0977783,-0.055603,0.000773101,0.00136102,-0.000515782,0.00166073,0.000473392,-1.04441,0.000987917,0.00952658,1756,575,-0.097776,0.0555815
539,449,-0.0913086,-0.0561523,-0.000453818,0.00122245,2.19206e-05,0.00122274,-0.000454105,1.55772,0.00100145,0.00927315,1763,575,-0.091335,0.0561274
546,449,-0.065918,-0.0585327,-0.000970144,0.00129729,0.000415612,0.00137107,-0.00104392,1.39511,0.00139856,0.0144821,1770,575,-0.0659324,0.0585487
553,449,-0.0618896,-0.0319824,-0.00128832,0.00147794,0.000659215,0.001627,-0.00143738,1.34842,0.00177035,0.0131709,1777,575,-0.0618675,0.0319667
560,449,-0.0611572,-0.0336914,-0.00141167,0.00156443,0.000649611,0.00170005,-0.00154728,1.36499,0.00187554,0.0120804,1784,575,-0.0611487,0.0336991
567,449,-0.0809326,-0.0460205,-0.00130952,0.00209516,0.00100038,0.00236734,-0.0015817,1.30515,0.00229497,0.00841618,1791,575,-0.0809474,0.0460266
574,449,-0.0845947,-0.0474243,-0.00129841,0.00299691,0.00172721,0.00360528,-0.00190678,1.23214,0.00323236,0.0104421,1798,575,-0.0845997,0.0474165
581,449,-0.0983887,-0.0307617,-0.00171822,0.00458921,0.00245142,0.00542991,-0.00255892,1.24042,0.00471059,0.0168649,1805,575,-0.0983374,0.0307691
588,449,-0.103638,-0.0368652,-0.00211025,0.00600829,0.00276136,0.00685848,-0.00296044,1.27212,0.00581596,0.029679,1812,575,-0.103588,0.0368586
595,449,-0.0465088,-0.0437012,-0.00226034,0.00802692,0.00318133,0.00893125,-0.00316467,1.29384,0.00724329,0.0374233,1819,575,-0.0465234,0.0436799
602,449,0.0467529,0.0545654,-0.00258805,0.0104509,0.00393376,0.0115457,-0.00368291,1.29934,0.00917458,0.041312,1826,575,0.0467755,-0.0545878
609,449,0.0921631,-0.0605469,-0.00317087,0.0136352,0.004672,0.0148467,-0.00438234,1.31708,0.011637,0.0446844,1833,575,0.0921109,0.0605767
616,449,0.244873,0.179565,-0.00389727,0.017193,0.00535737,0.0184759,-0.00518012,1.33577,0.0143589,0.0437682,1840,575,0.244817,-0.179536
623,449,0.133057,0.676025,-0.0046665,0.0213481,0.00581762,0.0225898,-0.00590822,1.36051,0.0173675,0.0425204,1847,575,0.133102,-0.676041
630,449,-0.0290527,1.14056,-0.00534143,0.02591,0.00590658,0.0269891,-0.00642053,1.3901,0.0204713,0.0454311,1854,575,-0.0291068,-1.14056
637,449,0,0,0,0,0,0,0,0,0,-1,1861,575,0,0
644,449,0,0,0,0,0,0,0,0,0,-1,1868,575,0,0
651,449,0,0,0,0,0,0,0,0,0,-1,1875,575,0,0
658,449,0,0,0,0,0,0,0,0,0,-1,1882,575,0,0
665,449,0,0,0,0,0,0,0,0,0,-1,1889,575,0,0
672,449,0,0,0,0,0,0,0,0,0,-1,1896,575,0,0
679,449,0,0,0,0,0,0,0,0,0,-1,1903,575,0,0
686,449,0,0,0,0,0,0,0,0,0,-1,1910,575,0,0
693,449,0,0,0,0,0,0,0,0,0,-1,1917,575,0,0
700,449,0,0,0,0,0,0,0,0,0,-1,1924,575,0,0
707,449,0,0,0,0,0,0,0,0,0,-1,1931,575,0,0
714,449,0,0,0,0,0,0,0,0,0,-1,1938,575,0,0
721,449,0,0,0,0,0,0,0,0,0,-1,1945,575,0,0
728,449,0,0,0,0,0,0,0,0,0,-1,1952,575,0,0
735,449,0,0,0,0,0,0,0,0,0,-1,1959,575,0,0
742,449,0,0,0,0,0,0,0,0,0,-1,1966,575,0,0
749,449,0,0,0,0,0,0,0,0,0,-1,1973,575,0,0
756,449,0,0,0,0,0,0,0,0,0,-1,1980,575,0,0
763,449,0,0,0,0,0,0,0,0,0,-1,1987,575,0,0
770,449,0,0,0,0,0,0,0,0,0,-1,1994,575,0,0
777,449,0,0,0,0,0,0,0,0,0,-1,2001,575,0,0
784,449,0,0,0,0,0,0,0,0,0,-1,2008,575,0,0
791,449,0,0,0,0,0,0,0,0,0,-1,2015,575,0,0
798,449,0,0,0,0,0,0,0,0,0,-1,2022,575,0,0
805,449,0,0,0,0,0,0,0,0,0,-1,2029,575,0,0
812,449,0,0,0,0,0,0,0,0,0,-1,2036,575,0,0
-700,442,0,0,0,0,0,0,0,0,0,-1,524,582,0,0
-693,442,0,0,0,0,0,0,0,0,0,-1,531,582,0,0
-686,442,0,0,0,0,0,0,0,0,0,-1,538,582,0,0
-679,442,0,0,0,0,0,0,0,0,0,-1,545,582,0,0
-672,442,0,0,0,0,0,0,0,0,0,-1,552,582,0,0
-665,442,0,0,0,0,0,0,0,0,0,-1,559,582,0,0
-658,442,0,0,0,0,0,0,0,0,0,-1,566,582,0,0
-651,442,0,0,0,0,0,0,0,0,0,-1,573,582,0,0
-644,442,0,0,0,0,0,0,0,0,0,-1,580,582,0,0
-637,442,0,0,0,0,0,0,0,0,0,-1,587,582,0,0
-630,442,0,0,0,0,0,0,0,0,0,-1,594,582,0,0
-623,442,0,0,0,0,0,0,0,0,0,-1,601,582,0,0
-616,442,0,0,0,0,0,0,0,0,0,-1,608,582,0,0
-609,442,0,0,0,0,0,0,0,0,0,-1,615,582,0,0
-602,442,0,0,0,0,0,0,0,0,0,-1,622,582,0,0
-595,442,0,0,0,0,0,0,0,0,0,-1,629,582,0,0
-588,442,0,0,0,0,0,0,0,0,0,-1,636,582,0,0
-581,442,0,0,0,0,0,0,0,0,0,-1,643,582,0,0
-574,442,0,0,0,0,0,0,0,0,0,-1,650,582,0,0
-567,442,0,0,0,0,0,0,0,0,0,-1,657,582,0,0
-560,442,0,0,0,0,0,0,0,0,0,-1,664,582,0,0
-553,442,0,0,0,0,0,0,0,0,0,-1,671,582,0,0
-546,442,0,0,0,0,0,0,0,0,0,-1,678,582,0,0
-539,442,0,0,0,0,0,0,0,0,0,-1,685,582,0,0
-532,442,0,0,0,0,0,0,0,0,0,-1,692,582,0,0
-525,442,0,0,0,0,0,0,0,0,0,-1,699,582,0,0
-518,442,2.71014,0.0123291,-0.0405603,0.123533,0.0583116,0.142143,-0.059171,1.26186,0.119474,0.0419068,706,582,2.71013,-0.0123119
-511,442,2.22406,-0.036438,0,0,0,0,0,0,0,-1,713,582,2.22406,0.0364635
-504,442,0.4104,-0.000793457,0,0,0,0,0,0,0,-1,720,582,0.410384,0.000763985
-497,442,0.139648,0.00982666,-0.0196734,0.0693095,0.0286126,0.0777158,-0.0280797,1.28504,0.0632822,0.0475126,727,582,0.139663,-0.00985009
-490,442,0.202698,0.613159,-0.0142947,0.0554546,0.0203538,0.0609596,-0.0197998,1.30665,0.0486031,0.0448123,734,582,0.20269,-0.613154
-483,442,-0.09021,0.65155,-0.00986021,0.0433991,0.012946,0.0463792,-0.0128403,1.34454,0.0359717,0.043328,741,582,-0.0901961,-0.651565
-476,442,0.0783081,0.533508,-0.00665783,0.0327667,0.00692746,0.0339485,-0.00783966,1.40182,0.0256481,0.0426768,748,582,0.0783026,-0.533527
-469,442,0.0830078,0.335144,-0.00436661,0.0234572,0.00237364,0.0236583,-0.00456765,1.4863,0.0174946,0.0392274,755,582,0.0829812,-0.33515
-462,442,-0.0820923,0.00469971,-0.00239896,0.016471,-0.000858313,0.0165099,-0.00243792,-1.52544,0.0119028,0.0310581,762,582,-0.0820925,-0.00471717
-455,442,-0.0744629,-0.00561523,-0.00120152,0.0118902,-0.00247393,0.0123421,-0.00165341,-1.39012,0.00883098,0.01714,769,582,-0.0744824,0.0055875
-448,442,-0.0594482,-0.0218506,-0.00054264,0.0083158,-0.0030935,0.00928915,-0.00151599,-1.26596,0.00675504,0.0112679,776,582,-0.0594202,0.0218795
-441,442,-0.0839844,-0.0303345,-0.000213842,0.00548494,-0.00339146,0.00706511,-0.00179402,-1.13478,0.00540819,0.0118014,783,582,-0.0840039,0.030308
-434,442,-0.0874023,-0.0439453,-0.000352317,0.00356352,-0.00310638,0.00527753,-0.00206633,-1.0666,0.00437301,0.0112628,790,582,-0.0874296,0.0439682
-427,442,-0.0968018,-0.0394287,-0.000531995,0.00239099,-0.00218103,0.00355492,-0.00169593,-1.08058,0.00309426,0.0112296,797,582,-0.096772,0.0393994
-420,442,-0.0699463,-0.043457,-0.000695408,0.00169503,-0.00139441,0.00233636,-0.00133674,-1.13971,0.00214669,0.0122671,804,582,-0.0699646,0.0434531
-413,442,-0.0670166,-0.0453491,-0.000557242,0.00109382,-0.000616637,0.0012987,-0.00076212,-1.25002,0.00120318,0.0104482,811,582,-0.0670211,0.0453358
-406,442,-0.0756226,-0.0422363,-0.000242158,0.000673834,8.3284e-05,0.000681345,-0.000249669,1.48086,0.000556447,0.00859033,818,582,-0.0756076,0.0422224
-399,442,-0.0736084,-0.0442505,-7.29633e-05,0.000393817,0.000558785,0.000765994,-0.00044514,0.983223,0.00070738,0.00762986,825,582,-0.0736125,0.0442216
-392,442,-0.0744629,-0.0375977,0.000209026,0.000918084,0.000817077,0.00145423,-0.000327122,0.99009,0.00109494,0.00885532,832,582,-0.0744891,0.0375851
-385,442,-0.072998,-0.0320435,0.000698655,0.00157031,0.00105986,0.00228045,-1.14875e-05,0.980465,0.00152414,0.00975705,839,582,-0.0729726,0.032072
-378,442,-0.0892334,-0.0249634,0.00119255,0.00231663,0.00151483,0.00337033,0.000138863,0.963039,0.00220206,0.010336,846,582,-0.0892247,0.0249533
-371,442,-0.101624,-0.0408325,0.00125728,0.00400699,0.00179389,0.00489228,0.000371989,1.11236,0.00314487,0.0206328,853,582,-0.101625,0.0408116
-364,442,-0.106506,-0.0753784,0.00107776,0.00717939,0.0016428,0.00759358,0.000663565,1.32382,0.00485633,0.033436,860,582,-0.106537,0.0753565
-357,442,-0.13147,-0.0994873,0.000745667,0.013396,0.000875132,0.0134563,0.000685414,1.50205,0.00875132,0.0431542,867,582,-0.131462,0.0994852
-350,442,-0.0568237,-0.0991821,0.000234305,0.0192999,8.52193e-05,0.0193002,0.000233923,1.56633,0.0127896,0.0479531,874,582,-0.0568114,0.0991602
-343,442,-1.00793,-0.792358,0,0,0,0,0,0,0,-1,881,582,-1.00791,0.792376
-336,442,-1.06049,-0.832764,0,0,0,0,0,0,0,-1,888,582,-1.06048,0.832738
-329,442,-0.909363,-0.712097,0,0,0,0,0,0,0,-1,895,582,-0.909387,0.712118
-322,442,-1.25104,1.68402,0,0,0,0,0,0,0,-1,902,582,-1.25103,-1.68401
-315,442,-0.419434,-2.34955,0,0,0,0,0,0,0,-1,909,582,-0.419458,2.34955
-308,442,-0.579285,-2.72284,0,0,0,0,0,0,0,-1,916,582,-0.579312,2.72287
-301,442,-1.83234,2.59216,0,0,0,0,0,0,0,-1,923,582,-1.83236,-2.59216
-294,442,-1.29889,1.95325,0.000672969,0.0175773,-0.0293333,0.0396519,-0.0214016,-0.925669,0.0357703,0.0465169,930,582,-1.29888,-1.95323
-287,442,-0.693115,1.46643,0.00358086,0.00380749,-0.0350414,0.0387358,-0.0313474,-0.787015,0.0405375,0.046571,937,582,-0.693106,-1.46642
-280,442,0,0,0,0,0,0,0,0,0,-1,944,582,0,0
-273,442,0,0,0,0,0,0,0,0,0,-1,951,582,0,0
-266,442,0,0,0,0,0,0,0,0,0,-1,958,582,0,0
-259,442,0,0,0,0,0,0,0,0,0,-1,965,582,0,0
-252,442,0,0,0,0,0,0,0,0,0,-1,972,582,0,0
-245,442,0,0,0,0,0,0,0,0,0,-1,979,582,0,0
-238,442,0,0,0,0,0,0,0,0,0,-1,986,582,0,0
-231,442,0,0,0,0,0,0,0,0,0,-1,993,582,0,0
-224,442,0,0,0,0,0,0,0,0,0,-1,1000,582,0,0
-217,442,0,0,0,0,0,0,0,0,0,-1,1007,582,0,0
-210,442,0,0,0,0,0,0,0,0,0,-1,1014,582,0,0
-203,442,0,0,0,0,0,0,0,0,0,-1,1021,582,0,0
-196,442,0,0,0,0,0,0,0,0,0,-1,1028,582,0,0
-189,442,0,0,0,0,0,0,0,0,0,-1,1035,582,0,0
-182,442,0,0,0,0,0,0,0,0,0,-1,1042,582,0,0
-175,442,0,0,0,0,0,0,0,0,0,-1,1049,582,0,0
-168,442,0,0,0,0,0,0,0,0,0,-1,1056,582,0,0
-161,442,0,0,0,0,0,0,0,0,0,-1,1063,582,0,0
-154,442,0,0,0,0,0,0,0,0,0,-1,1070,582,0,0
-147,442,0,0,0,0,0,0,0,0,0,-1,1077,582,0,0
-140,442,0,0,0,0,0,0,0,0,0,-1,1084,582,0,0
-133,442,0,0,0,0,0,0,0,0,0,-1,1091,582,0,0
-126,442,0,0,0,0,0,0,0,0,0,-1,1098,582,0,0
-119,442,0,0,0,0,0,0,0,0,0,-1,1105,582,0,0
-112,442,0,0,0,0,0,0,0,0,0,-1,1112,582,0,0
-105,442,0,0,0,0,0,0,0,0,0,-1,1119,582,0,0
-98,442,0,0,0,0,0,0,0,0,0,-1,1126,582,0,0
-91,442,0,0,0,0,0,0,0,0,0,-1,1133,582,0,0
-84,442,0,0,0,0,0,0,0,0,0,-1,1140,582,0,0
-77,442,0,0,0,0,0,0,0,0,0,-1,1147,582,0,0
-70,442,0,0,0,0,0,0,0,0,0,-1,1154,582,0,0
-63,442,0,0,0,0,0,0,0,0,0,-1,1161,582,0,0
-56,442,0,0,0,0,0,0,0,0,0,-1,1168,582,0,0
-49,442,0,0,0,0,0,0,0,0,0,-1,1175,582,0,0
-42,442,0,0,0,0,0,0,0,0,0,-1,1182,582,0,0
-35,442,0,0,0,0,0,0,0,0,0,-1,1189,582,0,0
-28,442,0,0,0,0,0,0,0,0,0,-1,1196,582,0,0
-21,442,0,0,0,0,0,0,0,0,0,-1,1203,582,0,0
-14,442,0,0,0,0,0,0,0,0,0,-1,1210,582,0,0
-7,442,0,0,0,0,0,0,0,0,0,-1,1217,582,0,0
0,442,0,0,0,0,0,0,0,0,0,-1,1224,582,0,0
7,442,0,0,0,0,0,0,0,0,0,-1,1231,582,0,0
14,442,0,0,0,0,0,0,0,0,0,-1,1238,582,0,0
21,442,0,0,0,0,0,0,0,0,0,-1,1245,582,0,0
28,442,0,0,0,0,0,0,0,0,0,-1,1252,582,0,0
35,442,0,0,0,0,0,0,0,0,0,-1,1259,582,0,0
42,442,0,0,0,0,0,0,0,0,0,-1,1266,582,0,0
49,442,0,0,0,0,0,0,0,0,0,-1,1273,582,0,0
56,442,0,0,0,0,0,0,0,0,0,-1,1280,582,0,0
63,442,0,0,0,0,0,0,0,0,0,-1,1287,582,0,0
70,442,0,0,0,0,0,0,0,0,0,-1,1294,582,0,0
77,442,0,0,0,0,0,0,0,0,0,-1,1301,582,0,0
84,442,0,0,0,0,0,0,0,0,0,-1,1308,582,0,0
91,442,0,0,0,0,0,0,0,0,0,-1,1315,582,0,0
98,442,0,0,0,0,0,0,0,0,0,-1,1322,582,0,0
105,442,0,0,0,0,0,0,0,0,0,-1,1329,582,0,0
112,442,0,0,0,0,0,0,0,0,0,-1,1336,582,0,0
119,442,0,0,0,0,0,0,0,0,0,-1,1343,582,0,0
126,442,0,0,0,0,0,0,0,0,0,-1,1350,582,0,0
133,442,0,0,0,0,0,0,0,0,0,-1,1357,582,0,0
140,442,0,0,0,0,0,0,0,0,0,-1,1364,582,0,0
147,442,0,0,0,0,0,0,0,0,0,-1,1371,582,0,0
154,442,0,0,0,0,0,0,0,0,0,-1,1378,582,0,0
161,442,0,0,0,0,0,0,0,0,0,-1,1385,582,0,0
168,442,0,0,0,0,0,0,0,0,0,-1,1392,582,0,0
175,442,0,0,0,0,0,0,0,0,0,-1,1399,582,0,0
182,442,0,0,0,0,0,0,0,0,0,-1,1406,582,0,0
189,442,0,0,0,0,0,0,0,0,0,-1,1413,582,0,0
196,442,0,0,0,0,0,0,0,0,0,-1,1420,582,0,0
203,442,0,0,0,0,0,0,0,0,0,-1,1427,582,0,0
210,442,0,0,0,0,0,0,0,0,0,-1,1434,582,0,0
217,442,0,0,0,0,0,0,0,0,0,-1,1441,582,0,0
224,442,0,0,0,0,0,0,0,0,0,-1,1448,582,0,0
231,442,0,0,0,0,0,0,0,0,0,-1,1455,582,0,0
238,442,0,0,0,0,0,0,0,0,0,-1,1462,582,0,0
245,442,0,0,0,0,0,0,0,0,0,-1,1469,582,0,0
252,442,0,0,0,0,0,0,0,0,0,-1,1476,582,0,0
259,442,0,0,0,0,0,0,0,0,0,-1,1483,582,0,0
266,442,0,0,0,0,0,0,0,0,0,-1,1490,582,0,0
273,442,0,0,0,0,0,0,0,0,0,-1,1497,582,0,0
280,442,0,0,0,0,0,0,0,0,0,-1,1504,582,0,0
287,442,0,0,0,0,0,0,0,0,0,-1,1511,582,0,0
294,442,0,0,0,0,0,0,0,0,0,-1,1518,582,0,0
301,442,0,0,0,0,0,0,0,0,0,-1,1525,582,0,0
308,442,0,0,0,0,0,0,0,0,0,-1,1532,582,0,0
315,442,0,0,0,0,0,0,0,0,0,-1,1539,582,0,0
322,442,0,0,0,0,0,0,0,0,0,-1,1546,582,0,0
329,442,0,0,0,0,0,0,0,0,0,-1,1553,582,0,0
336,442,0,0,0,0,0,0,0,0,0,-1,1560,582,0,0
343,442,0,0,0,0,0,0,0,0,0,-1,1567,582,0,0
350,442,0,0,0,0,0,0,0,0,0,-1,1574,582,0,0
357,442,0,0,0,0,0,0,0,0,0,-1,1581,582,0,0
364,442,0,0,0,0,0,0,0,0,0,-1,1588,582,0,0
371,442,0,0,0,0,0,0,0,0,0,-1,1595,582,0,0
378,442,0,0,0,0,0,0,0,0,0,-1,1602,582,0,0
385,442,0,0,0,0,0,0,0,0,0,-1,1609,582,0,0
392,442,0,0,0,0,0,0,0,0,0,-1,1616,582,0,0
399,442,0,0,0,0,0,0,0,0,0,-1,1623,582,0,0
406,442,0.385132,-0.401367,0.0141963,-0.00146409,0.00841769,0.0178626,-0.0051304,0.410771,0.0139369,0.0416672,1630,582,0.385084,0.401367
413,442,1.03162,-0.609131,0.00855317,-0.00203364,0.0091414,0.0138232,-0.00730363,0.522959,0.0123896,0.0434673,1637,582,1.03167,0.609109
420,442,1.65833,-0.774292,0.00370911,-0.00305026,0.00965032,0.0105544,-0.0098956,0.616965,0.0118089,0.0468305,1644,582,1.65836,0.774265
427,442,-0.269531,0.244263,0.00394914,-0.00444036,0.00878228,0.00948704,-0.00997826,0.562599,0.0112395,0.0404242,1651,582,-0.269506,-0.244235
434,442,-0.32312,0.272949,0.006467,-0.00372459,0.00716513,0.0101636,-0.00742119,0.476299,0.0101937,0.0421201,1658,582,-0.323164,-0.272929
441,442,-0.21521,0.558777,0.00887036,-0.0030269,0.00508657,0.0107486,-0.00490511,0.353719,0.00924517,0.0489996,1665,582,-0.215183,-0.558787
448,442,0.355347,0.892029,0,0,0,0,0,0,0,-1,1672,582,0.355328,-0.892058
455,442,0.129395,0.738098,0.0125783,-0.00320229,0.0015419,0.0127276,-0.00335154,0.0964926,0.00979525,0.0472076,1679,582,0.12938,-0.738111
462,442,-0.228394,0.517944,0.0142076,-0.00129444,-6.74644e-05,0.0142079,-0.00129473,-0.00435185,0.0099317,0.0454728,1686,582,-0.228415,-0.517967
469,442,-0.575317,0.391907,0,0,0,0,0,0,0,-1,1693,582,-0.575265,-0.391887
476,442,-1.95374,1.70435,0.016813,0.000577653,-0.00319158,0.0174178,-2.72226e-05,-0.1873,0.011621,0.0483743,1700,582,-1.95374,-1.70436
483,442,-0.315308,0.244019,0.0173717,-6.92377e-05,-0.00433194,0.0183884,-0.00108593,-0.230524,0.0126365,0.0439413,1707,582,-0.315294,-0.244011
490,442,-0.271973,0.287659,0.0157313,0.00059421,-0.00465922,0.0170505,-0.000724941,-0.275906,0.0116162,0.0384045,1714,582,-0.271949,-0.287681
497,442,-0.226074,0.167053,0.0131438,0.00137959,-0.00447439,0.0146522,-0.000128788,-0.325149,0.00981136,0.0317947,1721,582,-0.226134,-0.167062
504,442,-0.0574951,-0.0629883,0.00996364,0.00234433,-0.00393409,0.0116303,0.000677628,-0.400733,0.00753785,0.0208425,1728,582,-0.0574884,0.0629825
511,442,-0.0577393,-0.0697021,0.00700925,0.00243878,-0.00288044,0.00840087,0.00104717,-0.450058,0.00528621,0.0117507,1735,582,-0.0576947,0.069693
518,442,-0.0671387,-0.0593262,0.00485434,0.00231276,-0.00204139,0.00598816,0.00117894,-0.506993,0.00366293,0.010021,1742,582,-0.0671696,0.059309
525,442,-0.0762939,-0.0509033,0.00282868,0.00194006,-0.00130918,0.00376689,0.00100185,-0.621807,0.00225283,0.00959176,1749,582,-0.0763008,0.0508848
532,442,-0.0739746,-0.0435181,0.000636437,0.00189103,-0.000696187,0.00220085,0.000326624,-1.1521,0.00137138,0.00934754,1756,582,-0.0739893,0.0435389
539,442,-0.0751953,-0.0388794,-0.000657758,0.00146927,-0.000176168,0.00148376,-0.00067225,-1.48872,0.00127382,0.00828622,1763,582,-0.0751972,0.0388951
546,442,-0.0673828,-0.0308228,-0.0011083,0.00132008,0.000193286,0.00133537,-0.00112359,1.49186,0.00142143,0.00963293,1770,582,-0.0673958,0.0308444
553,442,-0.0682373,-0.0528564,-0.0012893,0.00131613,0.000424205,0.00138346,-0.00135663,1.41339,0.00158201,0.0129357,1777,582,-0.0682084,0.0528496
560,442,-0.069458,-0.0529785,-0.00122897,0.00124948,0.000407993,0.00131491,-0.00129441,1.41177,0.0015065,0.0131943,1784,582,-0.069444,0.0530046
567,442,-0.0928955,-0.0375977,-0.000913012,0.00166097,0.000744764,0.00186093,-0.00111297,1.3085,0.00173499,0.0089896,1791,582,-0.0929389,0.0375818
574,442,-0.0888672,-0.043335,-0.000719225,0.00243236,0.00147815,0.00301714,-0.001304,1.19408,0.00255933,0.0108161,1798,582,-0.0888164,0.0433392
581,442,-0.0826416,-0.0510864,-0.00103648,0.00392678,0.00218124,0.00474913,-0.00185883,1.21026,0.00393488,0.0111029,1805,582,-0.0826534,0.0510722
588,442,-0.0739746,-0.0450439,-0.0013653,0.00525296,0.00244374,0.00605749,-0.00216983,1.25275,0.00492364,0.0127969,1812,582,-0.0739867,0.0450353
595,442,-0.0560303,-0.0506592,-0.00142364,0.00715217,0.00275948,0.00796337,-0.00223484,1.28488,0.00618983,0.0278295,1819,582,-0.0560193,0.0506816
602,442,-0.0395508,-0.045166,-0.00161038,0.00944917,0.00332401,0.0103713,-0.00253254,1.30018,0.00789498,0.0420122,1826,582,-0.0394919,0.0451442
609,442,-0.0545654,-0.0750122,-0.00204879,0.0124579,0.00381065,0.013398,-0.00298886,1.32893,0.0100771,0.0447045,1833,582,-0.0545278,0.0750245
616,442,-0.223511,0.0285645,-0.00260488,0.0157222,0.00416685,0.0166251,-0.00350777,1.35741,0.0124189,0.0434823,1840,582,-0.223522,-0.0285536
623,442,-0.354248,0.275696,-0.00314924,0.0197577,0.0041388,0.0204825,-0.0038741,1.39742,0.0151128,0.0454058,1847,582,-0.354242,-0.275711
630,442,-0.237793,0.727539,-0.00356627,0.0240565,0.00370297,0.0245443,-0.00405405,1.43982,0.0178682,0.0471298,1854,582,-0.237835,-0.727525
637,442,-0.436157,0.783386,0,0,0,0,0,0,0,-1,1861,582,-0.436146,-0.783361
644,442,0,0,0,0,0,0,0,0,0,-1,1868,582,0,0
651,442,0,0,0,0,0,0,0,0,0,-1,1875,582,0,0
658,442,0,0,0,0,0,0,0,0,0,-1,1882,582,0,0
665,442,0,0,0,0,0,0,0,0,0,-1,1889,582,0,0
672,442,0,0,0,0,0,0,0,0,0,-1,1896,582,0,0
679,442,0,0,0,0,0,0,0,0,0,-1,1903,582,0,0
686,442,0,0,0,0,0,0,0,0,0,-1,1910,582,0,0
693,442,0,0,0,0,0,0,0,0,0,-1,1917,582,0,0
700,442,0,0,0,0,0,0,0,0,0,-1,1924,582,0,0
707,442,0,0,0,0,0,0,0,0,0,-1,1931,582,0,0
714,442,0,0,0,0,0,0,0,0,0,-1,1938,582,0,0
721,442,0,0,0,0,0,0,0,0,0,-1,1945,582,0,0
728,442,0,0,0,0,0,0,0,0,0,-1,1952,582,0,0
735,442,0,0,0,0,0,0,0,0,0,-1,1959,582,0,0
742,442,0,0,0,0,0,0,0,0,0,-1,1966,582,0,0
749,442,0,0,0,0,0,0,0,0,0,-1,1973,582,0,0
756,442,0,0,0,0,0,0,0,0,0,-1,1980,582,0,0
763,442,0,0,0,0,0,0,0,0,0,-1,1987,582,0,0
770,442,0,0,0,0,0,0,0,0,0,-1,1994,582,0,0
777,442,0,0,0,0,0,0,0,0,0,-1,2001,582,0,0
784,442,0,0,0,0,0,0,0,0,0,-1,2008,582,0,0
791,442,0,0,0,0,0,0,0,0,0,-1,2015,582,0,0
798,442,0,0,0,0,0,0,0,0,0,-1,2022,582,0,0
805,442,0,0,0,0,0,0,0,0,0,-1,2029,582,0,0
812,442,0,0,0,0,0,0,0,0,0,-1,2036,582,0,0
-700,435,0,0,0,0,0,0,0,0,0,-1,524,589,0,0
-693,435,0,0,0,0,0,0,0,0,0,-1,531,589,0,0
-686,435,0,0,0,0,0,0,0,0,0,-1,538,589,0,0
-679,435,0,0,0,0,0,0,0,0,0,-1,545,589,0,0
-672,435,0,0,0,0,0,0,0,0,0,-1,552,589,0,0
-665,435,0,0,0,0,0,0,0,0,0,-1,559,589,0,0
-658,435,0,0,0,0,0,0,0,0,0,-1,566,589,0,0
-651,435,0,0,0,0,0,0,0,0,0,-1,573,589,0,0
-644,435,0,0,0,0,0,0,0,0,0,-1,580,589,0,0
-637,435,0,0,0,0,0,0,0,0,0,-1,587,589,0,0
-630,435,0,0,0,0,0,0,0,0,0,-1,594,589,0,0
-623,435,0,0,0,0,0,0,0,0,0,-1,601,589,0,0
-616,435,0,0,0,0,0,0,0,0,0,-1,608,589,0,0
-609,435,0,0,0,0,0,0,0,0,0,-1,615,589,0,0
-602,435,0,0,0,0,0,0,0,0,0,-1,622,589,0,0
-595,435,0,0,0,0,0,0,0,0,0,-1,629,589,0,0
-588,435,0,0,0,0,0,0,0,0,0,-1,636,589,0,0
-581,435,0,0,0,0,0,0,0,0,0,-1,643,589,0,0
-574,435,0,0,0,0,0,0,0,0,0,-1,650,589,0,0
-567,435,0,0,0,0,0,0,0,0,0,-1,657,589,0,0
-560,435,0,0,0,0,0,0,0,0,0,-1,664,589,0,0
-553,435,0,0,0,0,0,0,0,0,0,-1,671,589,0,0
-546,435,0,0,0,0,0,0,0,0,0,-1,678,589,0,0
-539,435,0,0,0,0,0,0,0,0,0,-1,685,589,0,0
-532,435,0,0,0,0,0,0,0,0,0,-1,692,589,0,0
-525,435,1.85095,-0.809021,-0.0437593,0.127303,0.0618626,0.14733,-0.0637865,1.25771,0.125029,0.0468554,699,589,1.85095,0.809002
-518,435,1.66693,-0.926086,-0.0361534,0.109742,0.0531521,0.127052,-0.0534637,1.25595,0.107069,0.0429085,706,589,1.6669,0.926109
-511,435,1.07678,-1.13965,0,0,0,0,0,0,0,-1,713,589,1.07679,1.13965
-504,435,0.436462,-0.821472,0,0,0,0,0,0,0,-1,720,589,0.436467,0.821452
-497,435,-0.317078,-0.505066,-0.0183635,0.0624086,0.0276167,0.0709481,-0.0269031,1.2709,0.058371,0.0476923,727,589,-0.317057,0.505085
-490,435,-1.07196,-0.158386,-0.0136181,0.0500942,0.0204327,0.0560839,-0.0196078,1.28564,0.0453606,0.0467515,734,589,-1.07195,0.158376
-483,435,-0.107666,0.665588,-0.00964558,0.0392219,0.013877,0.0428876,-0.0133113,1.31254,0.0339112,0.0406342,741,589,-0.107641,-0.665585
-476,435,-0.181824,-0.0728149,-0.00690343,0.0294594,0.00842326,0.0313159,-0.00875986,1.35387,0.0243287,0.0398101,748,589,-0.181844,0.0727913
-469,435,-0.0269775,0.0625,0,0,0,0,0,0,0,-1,755,589,-0.0269768,-0.0624965
-462,435,-0.0906372,-0.0205078,-0.00277851,0.0143213,0.000908673,0.0143694,-0.00282666,1.51786,0.0106476,0.0129957,762,589,-0.0906616,0.0204836
-455,435,-0.0784912,-0.0374756,-0.00141887,0.0100752,-0.000960337,0.0101549,-0.00149855,-1.48801,0.00732074,0.0106084,769,589,-0.0784969,0.0374745
-448,435,-0.0653076,-0.0517578,-0.000614352,0.00673965,-0.00187677,0.00719092,-0.00106562,-1.33483,0.00518578,0.011151,776,589,-0.0653358,0.0517752
-441,435,-0.0892334,-0.0415039,-0.00021691,0.0040181,-0.00244143,0.00513238,-0.00133119,-1.14263,0.00394098,0.0096409,783,589,-0.0892146,0.0414955
-434,435,-0.102173,-0.0327148,-0.000275989,0.00218733,-0.00239264,0.00364671,-0.00173537,-1.0231,0.00317199,0.0102635,790,589,-0.102198,0.0326942
-427,435,-0.088623,-0.0371704,-0.00037582,0.000998507,-0.00168586,0.00213187,-0.00150918,-0.978921,0.00211238,0.00836596,797,589,-0.0886356,0.0371947
-420,435,-0.0778198,-0.0397949,-0.000463647,0.000399673,-0.00114172,0.00118861,-0.00125258,-0.966131,0.00140959,0.00951672,804,589,-0.0778086,0.039801
-413,435,-0.065979,-0.0354614,-0.000310829,-5.22833e-05,-0.000501186,0.000336033,-0.000699145,-0.911614,0.000609794,0.00977792,811,589,-0.0659549,0.0354479
-406,435,-0.0535889,-0.0267334,-3.00309e-05,-0.00030526,0.000189577,6.66134e-05,-0.000401904,0.471448,0.000292678,0.00950012,818,589,-0.0535925,0.0267217
-399,435,-0.0651855,-0.0413208,0.000156732,-0.00049823,0.000714184,0.000614937,-0.000956435,0.570432,0.000914345,0.00835524,825,589,-0.0651687,0.0412993
-392,435,-0.0775757,-0.0340576,0.000458138,0.000138486,0.00109031,0.00140028,-0.000803653,0.712623,0.00128789,0.0088731,832,589,-0.0775458,0.034082
-385,435,-0.0812988,-0.0278931,0.000930188,0.000977261,0.00145107,0.00240499,-0.00049754,0.793508,0.00179234,0.0104254,839,589,-0.0813048,0.0278778
-378,435,-0.0418701,-0.0269775,0.00143394,0.00197009,0.00205392,0.00377335,-0.000369329,0.850291,0.00264728,0.0158815,846,589,-0.0418565,0.0269912
-371,435,-0.012085,-0.03479,0.00154015,0.00395255,0.00249478,0.00551742,-2.47261e-05,1.01057,0.00368655,0.0337035,853,589,-0.0121046,0.0347626
-364,435,-0.0247803,-0.0461426,0.00144053,0.00746822,0.0024533,0.0083405,0.00056825,1.22918,0.00538093,0.0417926,860,589,-0.0247884,0.0461376
-357,435,0.113708,0.276672,0.00119598,0.0143702,0.00163943,0.0145712,0.000995028,1.44883,0.00940001,0.043263,867,589,0.113723,-0.276681
-350,435,0.108459,0.306641,0.00074403,0.0211492,0.000738342,0.0211759,0.000717348,1.53468,0.0138843,0.0482514,874,589,0.108438,-0.306641
-343,435,0.213135,0.215942,0,0,0,0,0,0,0,-1,881,589,0.213134,-0.215961
-336,435,-1.46124,-1.01672,0,0,0,0,0,0,0,-1,888,589,-1.46123,1.01673
-329,435,-0.359009,0.907837,0,0,0,0,0,0,0,-1,895,589,-0.358987,-0.907824
-322,435,-0.631714,1.39264,-0.000587868,0.0354262,-0.0112099,0.0386304,-0.00379203,-1.29239,0.0271062,0.043152,902,589,-0.631694,-1.39264
-315,435,-1.00177,1.79926,-2.28422e-05,0.0358677,-0.0157341,0.0417886,-0.00594375,-1.21088,0.030037,0.0473645,909,589,-1.00177,-1.79928
-308,435,-1.28046,2.5611,0.00198373,0.0339879,-0.0218557,0.0450734,-0.00910179,-1.10139,0.0334976,0.0480611,916,589,-1.28044,-2.56108
-301,435,-2.00134,3.45306,0,0,0,0,0,0,0,-1,923,589,-2.00134,-3.45307
-294,435,-1.42004,2.57465,0,0,0,0,0,0,0,-1,930,589,-1.42006,-2.57463
-287,435,0,0,0,0,0,0,0,0,0,-1,937,589,0,0
-280,435,0,0,0,0,0,0,0,0,0,-1,944,589,0,0
-273,435,0,0,0,0,0,0,0,0,0,-1,951,589,0,0
-266,435,0,0,0,0,0,0,0,0,0,-1,958,589,0,0
-259,435,0,0,0,0,0,0,0,0,0,-1,965,589,0,0
-252,435,0,0,0,0,0,0,0,0,0,-1,972,589,0,0
-245,435,0,0,0,0,0,0,0,0,0,-1,979,589,0,0
-238,435,0,0,0,0,0,0,0,0,0,-1,986,589,0,0
-231,435,0,0,0,0,0,0,0,0,0,-1,993,589,0,0
-224,435,0,0,0,0,0,0,0,0,0,-1,1000,589,0,0
-217,435,0,0,0,0,0,0,0,0,0,-1,1007,589,0,0
-210,435,0,0,0,0,0,0,0,0,0,-1,1014,589,0,0
-203,435,0,0,0,0,0,0,0,0,0,-1,1021,589,0,0
-196,435,0,0,0,0,0,0,0,0,0,-1,1028,589,0,0
-189,435,0,0,0,0,0,0,0,0,0,-1,1035,589,0,0
-182,435,0,0,0,0,0,0,0,0,0,-1,1042,589,0,0
-175,435,0,0,0,0,0,0,0,0,0,-1,1049,589,0,0
-168,435,0,0,0,0,0,0,0,0,0,-1,1056,589,0,0
-161,435,0,0,0,0,0,0,0,0,0,-1,1063,589,0,0
-154,435,0,0,0,0,0,0,0,0,0,-1,1070,589,0,0
-147,435,0,0,0,0,0,0,0,0,0,-1,1077,589,0,0
-140,435,0,0,0,0,0,0,0,0,0,-1,1084,589,0,0
-133,435,0,0,0,0,0,0,0,0,0,-1,1091,589,0,0
-126,435,0,0,0,0,0,0,0,0,0,-1,1098,589,0,0
-119,435,0,0,0,0,0,0,0,0,0,-1,1105,589,0,0
-112,435,0,0,0,0,0,0,0,0,0,-1,1112,589,0,0
-105,435,0,0,0,0,0,0,0,0,0,-1,1119,589,0,0
-98,435,0,0,0,0,0,0,0,0,0,-1,1126,589,0,0
-91,435,0,0,0,0,0,0,0,0,0,-1,1133,589,0,0
-84,435,0,0,0,0,0,0,0,0,0,-1,1140,589,0,0
-77,435,0,0,0,0,0,0,0,0,0,-1,1147,589,0,0
-70,435,0,0,0,0,0,0,0,0,0,-1,1154,589,0,0
-63,435,0,0,0,0,0,0,0,0,0,-1,1161,589,0,0
-56,435,0,0,0,0,0,0,0,0,0,-1,1168,589,0,0
-49,435,0,0,0,0,0,0,0,0,0,-1,1175,589,0,0
-42,435,0,0,0,0,0,0,0,0,0,-1,1182,589,0,0
-35,435,0,0,0,0,0,0,0,0,0,-1,1189,589,0,0
-28,435,0,0,0,0,0,0,0,0,0,-1,1196,589,0,0
-21,435,0,0,0,0,0,0,0,0,0,-1,1203,589,0,0
-14,435,0,0,0,0,0,0,0,0,0,-1,1210,589,0,0
-7,435,0,0,0,0,0,0,0,0,0,-1,1217,589,0,0
0,435,0,0,0,0,0,0,0,0,0,-1,1224,589,0,0
7,435,0,0,0,0,0,0,0,0,0,-1,1231,589,0,0
14,435,0,0,0,0,0,0,0,0,0,-1,1238,589,0,0
21,435,0,0,0,0,0,0,0,0,0,-1,1245,589,0,0
28,435,0,0,0,0,0,0,0,0,0,-1,1252,589,0,0
35,435,0,0,0,0,0,0,0,0,0,-1,1259,589,0,0
42,435,0,0,0,0,0,0,0,0,0,-1,1266,589,0,0
49,435,0,0,0,0,0,0,0,0,0,-1,1273,589,0,0
56,435,0,0,0,0,0,0,0,0,0,-1,1280,589,0,0
63,435,0,0,0,0,0,0,0,0,0,-1,1287,589,0,0
70,435,0,0,0,0,0,0,0,0,0,-1,1294,589,0,0
77,435,0,0,0,0,0,0,0,0,0,-1,1301,589,0,0
84,435,0,0,0,0,0,0,0,0,0,-1,1308,589,0,0
91,435,0,0,0,0,0,0,0,0,0,-1,1315,589,0,0
98,435,0,0,0,0,0,0,0,0,0,-1,1322,589,0,0
105,435,0,0,0,0,0,0,0,0,0,-1,1329,589,0,0
112,435,0,0,0,0,0,0,0,0,0,-1,1336,589,0,0
119,435,0,0,0,0,0,0,0,0,0,-1,1343,589,0,0
126,435,0,0,0,0,0,0,0,0,0,-1,1350,589,0,0
133,435,0,0,0,0,0,0,0,0,0,-1,1357,589,0,0
140,435,0,0,0,0,0,0,0,0,0,-1,1364,589,0,0
147,435,0,0,0,0,0,0,0,0,0,-1,1371,589,0,0
154,435,0,0,0,0,0,0,0,0,0,-1,1378,589,0,0
161,435,0,0,0,0,0,0,0,0,0,-1,1385,589,0,0
168,435,0,0,0,0,0,0,0,0,0,-1,1392,589,0,0
175,435,0,0,0,0,0,0,0,0,0,-1,1399,589,0,0
182,435,0,0,0,0,0,0,0,0,0,-1,1406,589,0,0
189,435,0,0,0,0,0,0,0,0,0,-1,1413,589,0,0
196,435,0,0,0,0,0,0,0,0,0,-1,1420,589,0,0
203,435,0,0,0,0,0,0,0,0,0,-1,1427,589,0,0
210,435,0,0,0,0,0,0,0,0,0,-1,1434,589,0,0
217,435,0,0,0,0,0,0,0,0,0,-1,1441,589,0,0
224,435,0,0,0,0,0,0,0,0,0,-1,1448,589,0,0
231,435,0,0,0,0,0,0,0,0,0,-1,1455,589,0,0
238,435,0,0,0,0,0,0,0,0,0,-1,1462,589,0,0
245,435,0,0,0,0,0,0,0,0,0,-1,1469,589,0,0
252,435,0,0,0,0,0,0,0,0,0,-1,1476,589,0,0
259,435,0,0,0,0,0,0,0,0,0,-1,1483,589,0,0
266,435,0,0,0,0,0,0,0,0,0,-1,1490,589,0,0
273,435,0,0,0,0,0,0,0,0,0,-1,1497,589,0,0
280,435,0,0,0,0,0,0,0,0,0,-1,1504,589,0,0
287,435,0,0,0,0,0,0,0,0,0,-1,1511,589,0,0
294,435,0,0,0,0,0,0,0,0,0,-1,1518,589,0,0
301,435,0,0,0,0,0,0,0,0,0,-1,1525,589,0,0
308,435,0,0,0,0,0,0,0,0,0,-1,1532,589,0,0
315,435,0,0,0,0,0,0,0,0,0,-1,1539,589,0,0
322,435,0,0,0,0,0,0,0,0,0,-1,1546,589,0,0
329,435,0,0,0,0,0,0,0,0,0,-1,1553,589,0,0
336,435,0,0,0,0,0,0,0,0,0,-1,1560,589,0,0
343,435,0,0,0,0,0,0,0,0,0,-1,1567,589,0,0
350,435,0,0,0,0,0,0,0,0,0,-1,1574,589,0,0
357,435,0,0,0,0,0,0,0,0,0,-1,1581,589,0,0
364,435,0,0,0,0,0,0,0,0,0,-1,1588,589,0,0
371,435,0,0,0,0,0,0,0,0,0,-1,1595,589,0,0
378,435,0,0,0,0,0,0,0,0,0,-1,1602,589,0,0
385,435,0,0,0,0,0,0,0,0,0,-1,1609,589,0,0
392,435,0,0,0,0,0,0,0,0,0,-1,1616,589,0,0
399,435,0,0,0,0,0,0,0,0,0,-1,1623,589,0,0
406,435,0,0,0,0,0,0,0,0,0,-1,1630,589,0,0
413,435,0.960938,-0.34314,-0.00173705,-0.00437977,0.0145041,0.0115057,-0.0176226,0.739972,0.0169404,0.0443317,1637,589,0.96095,0.34312
420,435,1.50659,-0.616577,-0.00436862,-0.00477011,0.0146059,0.0100379,-0.0191767,0.778527,0.0171399,0.0442513,1644,589,1.50658,0.616579
427,435,1.94043,-0.832397,3.76915e-05,-0.00480646,0.0117213,0.00958458,-0.0143533,0.683513,0.0139117,0.0445995,1651,589,1.94047,0.832367
434,435,-0.195435,0.199463,0.00606121,-0.002926,0.0089294,0.0115639,-0.00842873,0.552281,0.01159,0.04257,1658,589,-0.195398,-0.199461
441,435,-0.312988,0.438721,0.0108587,-0.00184757,0.0062227,0.0133985,-0.00438736,0.387513,0.010699,0.048319,1665,589,-0.313001,-0.438713
448,435,-0.434814,0.496643,0,0,0,0,0,0,0,-1,1672,589,-0.434806,-0.496635
455,435,-0.45874,0.831482,0,0,0,0,0,0,0,-1,1679,589,-0.458792,-0.831458
462,435,-0.53894,0.727722,0,0,0,0,0,0,0,-1,1686,589,-0.538892,-0.727724
469,435,-1.65063,1.93787,0,0,0,0,0,0,0,-1,1693,589,-1.65064,-1.93784
476,435,-1.4325,1.54498,0.0218734,0.00185388,-0.00349349,0.0224655,0.00126176,-0.167896,0.0145746,0.0463113,1700,589,-1.43254,-1.54501
483,435,-0.971924,1.03204,0.0224353,0.00125067,-0.00483675,0.0234873,0.000198618,-0.214176,0.0155924,0.0428092,1707,589,-0.971878,-1.03207
490,435,-0.349487,0.606567,0.0202177,0.00201027,-0.00511884,0.0215581,0.00066984,-0.256112,0.0141541,0.0379451,1714,589,-0.349524,-0.606562
497,435,-0.146606,0.188904,0.0166189,0.00289823,-0.00482103,0.0181434,0.00137366,-0.306282,0.0116647,0.0383274,1721,589,-0.146622,-0.188912
504,435,-0.00317383,-0.0707397,0.0123912,0.00389919,-0.00417508,0.0141,0.00219038,-0.388488,0.00876162,0.0351997,1728,589,-0.0032256,0.0707179
511,435,-0.0467529,-0.0817261,0.00852838,0.00392057,-0.00303442,0.0100344,0.00241452,-0.460699,0.00604763,0.0182492,1735,589,-0.0467617,0.0817116
518,435,-0.0802002,-0.0534058,0.00565871,0.00365369,-0.00215718,0.00703495,0.00227745,-0.56788,0.00414491,0.00939096,1742,589,-0.0801601,0.0534273
525,435,-0.0703125,-0.038269,0.00307463,0.00313439,-0.00138762,0.00449245,0.00171657,-0.796163,0.00261764,0.0102438,1749,589,-0.0703597,0.0382779
532,435,-0.0622559,-0.0281982,0.000545983,0.00286218,-0.000740973,0.00307894,0.000329224,-1.2862,0.00195216,0.0113204,1756,589,-0.0622972,0.0282061
539,435,-0.0623779,-0.022583,-0.000951666,0.00219019,-0.000293285,0.00221733,-0.000978809,-1.47851,0.00189091,0.0122838,1763,589,-0.0624095,0.0225674
546,435,-0.0759277,-0.0324707,-0.0014495,0.0018094,-5.6981e-06,0.00180941,-0.00144951,-1.56905,0.00188536,0.0115223,1770,589,-0.0759059,0.032443
553,435,-0.085083,-0.0422363,-0.00151559,0.00158055,0.000205451,0.00159412,-0.00152916,1.50482,0.00180336,0.00966006,1777,589,-0.0851125,0.0422101
560,435,-0.0882568,-0.0498047,-0.00128597,0.00132237,0.0001694,0.00133332,-0.00129693,1.50621,0.00151863,0.00851726,1784,589,-0.0882398,0.0497974
567,435,-0.09021,-0.0258179,-0.000770822,0.00155598,0.000462889,0.00164468,-0.000859527,1.38146,0.0014693,0.00804914,1791,589,-0.0901647,0.0257905
574,435,-0.0892334,-0.0229492,-0.00040266,0.00212631,0.00115379,0.00257359,-0.000849941,1.20097,0.00205839,0.00935794,1798,589,-0.0892011,0.0229351
581,435,-0.0804443,-0.0293579,-0.0006142,0.00344001,0.00180053,0.00412419,-0.00129838,1.20766,0.00326935,0.0144169,1805,589,-0.0804045,0.0293518
588,435,-0.0809326,-0.0361938,-0.000884473,0.00461622,0.00200186,0.00526761,-0.00153587,1.25621,0.00412025,0.0140126,1812,589,-0.0809057,0.0361739
595,435,-0.097168,-0.0269775,-0.000865138,0.00633894,0.00219378,0.00695441,-0.00148061,1.29728,0.00520054,0.0167719,1819,589,-0.0971117,0.0269944
602,435,-0.168091,0.00994873,-0.000928901,0.00841253,0.00257134,0.00907355,-0.00158992,1.31917,0.00664273,0.0353507,1826,589,-0.168073,-0.00996618
609,435,-0.273682,0.0321045,-0.00120835,0.0111052,0.00282402,0.011722,-0.00182513,1.35577,0.00848868,0.041055,1833,589,-0.273733,-0.0321253
616,435,-0.454956,-0.159973,0,0,0,0,0,0,0,-1,1840,589,-0.454927,0.15999
623,435,-0.641235,0.0756836,0,0,0,0,0,0,0,-1,1847,589,-0.641267,-0.075654
630,435,-0.704834,0.504639,0,0,0,0,0,0,0,-1,1854,589,-0.704793,-0.504666
637,435,-0.675415,-0.119324,0,0,0,0,0,0,0,-1,1861,589,-0.675413,0.119343
644,435,0,0,0,0,0,0,0,0,0,-1,1868,589,0,0
651,435,0,0,0,0,0,0,0,0,0,-1,1875,589,0,0
658,435,0,0,0,0,0,0,0,0,0,-1,1882,589,0,0
665,435,0,0,0,0,0,0,0,0,0,-1,1889,589,0,0
672,435,0,0,0,0,0,0,0,0,0,-1,1896,589,0,0
679,435,0,0,0,0,0,0,0,0,0,-1,1903,589,0,0
686,435,0,0,0,0,0,0,0,0,0,-1,1910,589,0,0
693,435,0,0,0,0,0,0,0,0,0,-1,1917,589,0,0
700,435,0,0,0,0,0,0,0,0,0,-1,1924,589,0,0
707,435,0,0,0,0,0,0,0,0,0,-1,1931,589,0,0
714,435,0,0,0,0,0,0,0,0,0,-1,1938,589,0,0
721,435,0,0,0,0,0,0,0,0,0,-1,1945,589,0,0
728,435,0,0,0,0,0,0,0,0,0,-1,1952,589,0,0
735,435,0,0,0,0,0,0,0,0,0,-1,1959,589,0,0
742,435,0,0,0,0,0,0,0,0,0,-1,1966,589,0,0
749,435,0,0,0,0,0,0,0,0,0,-1,1973,589,0,0
756,435,0,0,0,0,0,0,0,0,0,-1,1980,589,0,0
763,435,0,0,0,0,0,0,0,0,0,-1,1987,589,0,0
770,435,0,0,0,0,0,0,0,0,0,-1,1994,589,0,0
777,435,0,0,0,0,0,0,0,0,0,-1,2001,589,0,0
784,435,0,0,0,0,0,0,0,0,0,-1,2008,589,0,0
791,435,0,0,0,0,0,0,0,0,0,-1,2015,589,0,0
798,435,0,0,0,0,0,0,0,0,0,-1,2022,589,0,0
805,435,0,0,0,0,0,0,0,0,0,-1,2029,589,0,0
812,435,0,0,0,0,0,0,0,0,0,-1,2036,589,0,0
-700,428,0,0,0,0,0,0,0,0,0,-1,524,596,0,0
-693,428,0,0,0,0,0,0,0,0,0,-1,531,596,0,0
-686,428,0,0,0,0,0,0,0,0,0,-1,538,596,0,0
-679,428,0,0,0,0,0,0,0,0,0,-1,545,596,0,0
-672,428,0,0,0,0,0,0,0,0,0,-1,552,596,0,0
-665,428,0,0,0,0,0,0,0,0,0,-1,559,596,0,0
-658,428,0,0,0,0,0,0,0,0,0,-1,566,596,0,0
-651,428,0,0,0,0,0,0,0,0,0,-1,573,596,0,0
-644,428,0,0,0,0,0,0,0,0,0,-1,580,596,0,0
-637,428,0,0,0,0,0,0,0,0,0,-1,587,596,0,0
-630,428,0,0,0,0,0,0,0,0,0,-1,594,596,0,0
-623,428,0,0,0,0,0,0,0,0,0,-1,601,596,0,0
-616,428,0,0,0,0,0,0,0,0,0,-1,608,596,0,0
-609,428,0,0,0,0,0,0,0,0,0,-1,615,596,0,0
-602,428,0,0,0,0,0,0,0,0,0,-1,622,596,0,0
-595,428,0,0,0,0,0,0,0,0,0,-1,629,596,0,0
-588,428,0,0,0,0,0,0,0,0,0,-1,636,596,0,0
-581,428,0,0,0,0,0,0,0,0,0,-1,643,596,0,0
-574,428,0,0,0,0,0,0,0,0,0,-1,650,596,0,0
-567,428,0,0,0,0,0,0,0,0,0,-1,657,596,0,0
-560,428,0,0,0,0,0,0,0,0,0,-1,664,596,0,0
-553,428,0,0,0,0,0,0,0,0,0,-1,671,596,0,0
-546,428,0,0,0,0,0,0,0,0,0,-1,678,596,0,0
-539,428,0,0,0,0,0,0,0,0,0,-1,685,596,0,0
-532,428,0,0,0,0,0,0,0,0,0,-1,692,596,0,0
-525,428,0.814026,-2.14117,-0.0370803,0.108825,0.0529751,0.126031,-0.0542855,1.25676,0.106817,0.0468283,699,596,0.81405,2.1412
-518,428,0.527039,-1.92297,-0.0311907,0.0947897,0.0461724,0.1099,-0.0463008,1.25453,0.0926407,0.0428256,706,596,0.527037,1.92298
-511,428,0.178894,-2.03491,-0.0259489,0.0807032,0.0390651,0.0934813,-0.0387269,1.25467,0.0784822,0.0453633,713,596,0.178914,2.03489
-504,428,-0.467041,-1.8847,-0.0209697,0.0673167,0.0319131,0.0776443,-0.0312973,1.25782,0.064767,0.0499776,720,596,-0.467035,1.88468
-497,428,-1.28687,-1.48309,-0.016583,0.0547407,0.025258,0.0627793,-0.0246217,1.26267,0.0520393,0.0462309,727,596,-1.28687,1.48307
-490,428,-1.83752,-0.691833,0,0,0,0,0,0,0,-1,734,596,-1.83755,0.691813
-483,428,-0.1203,0.432983,-0.00885903,0.034505,0.0135612,0.0383967,-0.0127507,1.29133,0.0307425,0.0395225,741,596,-0.120318,-0.432974
-476,428,-0.106079,-0.1203,-0.00654377,0.0257915,0.00885832,0.0280592,-0.00881148,1.32018,0.0222332,0.0319025,748,596,-0.106052,0.120285
-469,428,-0.0931396,-0.067749,-0.00473386,0.0179833,0.00505607,0.0190578,-0.00580835,1.3614,0.0150204,0.0167369,755,596,-0.0931293,0.0677578
-462,428,-0.0875244,-0.0241699,-0.0027507,0.0121817,0.0020308,0.0124529,-0.00302196,1.43801,0.00947137,0.0148163,762,596,-0.0874944,0.0241936
-455,428,-0.0857544,-0.0322266,-0.0013505,0.00835159,0.000165038,0.0083544,-0.00135331,1.55379,0.00607119,0.011109,769,596,-0.085772,0.0322487
-448,428,-0.0707397,-0.053894,-0.000492113,0.00534737,-0.000812709,0.00545837,-0.000603112,-1.43506,0.00385571,0.00996934,776,596,-0.0707641,0.0539006
-441,428,-0.0837402,-0.0567627,-9.58582e-05,0.00282551,-0.0014613,0.00343098,-0.000701327,-1.17799,0.0025534,0.0117564,783,596,-0.0837687,0.0567777
-434,428,-0.0852051,-0.0595703,-0.000119732,0.00116498,-0.00149318,0.00214811,-0.00110286,-0.988529,0.00190901,0.00867717,790,596,-0.085188,0.0595724
-427,428,-0.0725708,-0.0650024,-0.000178719,4.47354e-05,-0.00088197,0.000822027,-0.000956011,-0.848402,0.00102752,0.00945984,797,596,-0.0725587,0.0649948
-420,428,-0.0734253,-0.0454102,-0.000221879,-0.000390754,-0.000471562,0.000172746,-0.000785379,-0.696808,0.000589663,0.0108513,804,596,-0.073441,0.0454006
-413,428,-0.0524902,-0.0141602,-7.24554e-05,-0.000665808,0.000115999,-5.05841e-05,-0.000687679,0.18636,0.000442556,0.0113139,811,596,-0.0525181,0.0141702
-406,428,-0.0386353,-0.00823975,0.000177757,-0.000730142,0.000842517,0.000680837,-0.00123322,0.538295,0.00112032,0.0128446,818,596,-0.0386206,0.00826853
-399,428,-0.0631714,-0.0253906,0.000413272,-0.0008077,0.00141655,0.00134528,-0.00173971,0.581941,0.00178597,0.0125972,825,596,-0.0631709,0.0253899
-392,428,-0.0738525,-0.0403442,0.000780009,-6.94018e-05,0.00188836,0.00229083,-0.00158023,0.674785,0.00224747,0.0105585,832,596,-0.0738823,0.040328
-385,428,-0.0704956,-0.0581665,0.00127203,0.00090827,0.00232351,0.00342077,-0.00124047,0.746339,0.00278757,0.0146788,839,596,-0.0705061,0.0581633
-378,428,0.0317993,-0.0220947,0.0018377,0.00207969,0.00301061,0.00497174,-0.00105435,0.805483,0.00371614,0.0285362,846,596,0.0317694,0.0220732
-371,428,-0.0245972,-0.0927124,0.00205967,0.00425781,0.00354612,0.00687128,-0.000553798,0.935672,0.00477617,0.0398481,853,596,-0.0245738,0.0927355
-364,428,0.0776367,-0.0241699,0.00212437,0.00791962,0.00355889,0.00961133,0.000432668,1.12707,0.00626831,0.0441275,860,596,0.0776499,0.0241472
-357,428,0.229248,0.231567,0.00205212,0.0152525,0.00264775,0.0157638,0.00154083,1.38004,0.0100351,0.0449919,867,596,0.229262,-0.231548
-350,428,0.225281,0.315491,0.0017462,0.0227035,0.00154314,0.0228165,0.00163318,1.49769,0.0146969,0.0473413,874,596,0.225285,-0.315495
-343,428,0.252747,0.265991,0,0,0,0,0,0,0,-1,881,596,0.252774,-0.266009
-336,428,-0.580933,0.268066,0,0,0,0,0,0,0,-1,888,596,-0.580907,-0.268076
-329,428,-0.0478516,0.631287,0,0,0,0,0,0,0,-1,895,596,-0.0478482,-0.631281
-322,428,-0.148743,0.894714,0.0023706,0.0401133,-0.0128623,0.0440798,-0.0015959,-1.27167,0.0299327,0.0455493,902,596,-0.14876,-0.894707
-315,428,-0.27832,1.0769,0.0039754,0.0407813,-0.0181575,0.048231,-0.00347439,-1.18145,0.0333725,0.0465857,909,596,-0.278292,-1.0769
-308,428,-0.0343018,0.916382,0.0076297,0.0391626,-0.0253067,0.0532124,-0.0064201,-1.06398,0.0377971,0.0472327,916,596,-0.0343196,-0.916375
-301,428,0,0,0,0,0,0,0,0,0,-1,923,596,0,0
-294,428,0,0,0,0,0,0,0,0,0,-1,930,596,0,0
-287,428,0,0,0,0,0,0,0,0,0,-1,937,596,0,0
-280,428,0,0,0,0,0,0,0,0,0,-1,944,596,0,0
-273,428,0,0,0,0,0,0,0,0,0,-1,951,596,0,0
-266,428,0,0,0,0,0,0,0,0,0,-1,958,596,0,0
-259,428,0,0,0,0,0,0,0,0,0,-1,965,596,0,0
-252,428,0,0,0,0,0,0,0,0,0,-1,972,596,0,0
-245,428,0,0,0,0,0,0,0,0,0,-1,979,596,0,0
-238,428,0,0,0,0,0,0,0,0,0,-1,986,596,0,0
-231,428,0,0,0,0,0,0,0,0,0,-1,993,596,0,0
-224,428,0,0,0,0,0,0,0,0,0,-1,1000,596,0,0
-217,428,0,0,0,0,0,0,0,0,0,-1,1007,596,0,0
-210,428,0,0,0,0,0,0,0,0,0,-1,1014,596,0,0
-203,428,0,0,0,0,0,0,0,0,0,-1,1021,596,0,0
-196,428,0,0,0,0,0,0,0,0,0,-1,1028,596,0,0
-189,428,0,0,0,0,0,0,0,0,0,-1,1035,596,0,0
-182,428,0,0,0,0,0,0,0,0,0,-1,1042,596,0,0
-175,428,0,0,0,0,0,0,0,0,0,-1,1049,596,0,0
-168,428,0,0,0,0,0,0,0,0,0,-1,1056,596,0,0
-161,428,0,0,0,0,0,0,0,0,0,-1,1063,596,0,0
-154,428,0,0,0,0,0,0,0,0,0,-1,1070,596,0,0
-147,428,0,0,0,0,0,0,0,0,0,-1,1077,596,0,0
-140,428,0,0,0,0,0,0,0,0,0,-1,1084,596,0,0
-133,428,0,0,0,0,0,0,0,0,0,-1,1091,596,0,0
-126,428,0,0,0,0,0,0,0,0,0,-1,1098,596,0,0
-119,428,0,0,0,0,0,0,0,0,0,-1,1105,596,0,0
-112,428,0,0,0,0,0,0,0,0,0,-1,1112,596,0,0
-105,428,0,0,0,0,0,0,0,0,0,-1,1119,596,0,0
-98,428,0,0,0,0,0,0,0,0,0,-1,1126,596,0,0
-91,428,0,0,0,0,0,0,0,0,0,-1,1133,596,0,0
-84,428,0,0,0,0,0,0,0,0,0,-1,1140,596,0,0
-77,428,0,0,0,0,0,0,0,0,0,-1,1147,596,0,0
-70,428,0,0,0,0,0,0,0,0,0,-1,1154,596,0,0
-63,428,0,0,0,0,0,0,0,0,0,-1,1161,596,0,0
-56,428,0,0,0,0,0,0,0,0,0,-1,1168,596,0,0
-49,428,0,0,0,0,0,0,0,0,0,-1,1175,596,0,0
-42,428,0,0,0,0,0,0,0,0,0,-1,1182,596,0,0
-35,428,0,0,0,0,0,0,0,0,0,-1,1189,596,0,0
-28,428,0,0,0,0,0,0,0,0,0,-1,1196,596,0,0
-21,428,0,0,0,0,0,0,0,0,0,-1,1203,596,0,0
-14,428,0,0,0,0,0,0,0,0,0,-1,1210,596,0,0
-7,428,0,0,0,0,0,0,0,0,0,-1,1217,596,0,0
0,428,0,0,0,0,0,0,0,0,0,-1,1224,596,0,0
7,428,0,0,0,0,0,0,0,0,0,-1,1231,596,0,0
14,428,0,0,0,0,0,0,0,0,0,-1,1238,596,0,0
21,428,0,0,0,0,0,0,0,0,0,-1,1245,596,0,0
28,428,0,0,0,0,0,0,0,0,0,-1,1252,596,0,0
35,428,0,0,0,0,0,0,0,0,0,-1,1259,596,0,0
42,428,0,0,0,0,0,0,0,0,0,-1,1266,596,0,0
49,428,0,0,0,0,0,0,0,0,0,-1,1273,596,0,0
56,428,0,0,0,0,0,0,0,0,0,-1,1280,596,0,0
63,428,0,0,0,0,0,0,0,0,0,-1,1287,596,0,0
70,428,0,0,0,0,0,0,0,0,0,-1,1294,596,0,0
77,428,0,0,0,0,0,0,0,0,0,-1,1301,596,0,0
84,428,0,0,0,0,0,0,0,0,0,-1,1308,596,0,0
91,428,0,0,0,0,0,0,0,0,0,-1,1315,596,0,0
98,428,0,0,0,0,0,0,0,0,0,-1,1322,596,0,0
105,428,0,0,0,0,0,0,0,0,0,-1,1329,596,0,0
112,428,0,0,0,0,0,0,0,0,0,-1,1336,596,0,0
119,428,0,0,0,0,0,0,0,0,0,-1,1343,596,0,0
126,428,0,0,0,0,0,0,0,0,0,-1,1350,596,0,0
133,428,0,0,0,0,0,0,0,0,0,-1,1357,596,0,0
140,428,0,0,0,0,0,0,0,0,0,-1,1364,596,0,0
147,428,0,0,0,0,0,0,0,0,0,-1,1371,596,0,0
154,428,0,0,0,0,0,0,0,0,0,-1,1378,596,0,0
161,428,0,0,0,0,0,0,0,0,0,-1,1385,596,0,0
168,428,0,0,0,0,0,0,0,0,0,-1,1392,596,0,0
175,428,0,0,0,0,0,0,0,0,0,-1,1399,596,0,0
182,428,0,0,0,0,0,0,0,0,0,-1,1406,596,0,0
189,428,0,0,0,0,0,0,0,0,0,-1,1413,596,0,0
196,428,0,0,0,0,0,0,0,0,0,-1,1420,596,0,0
203,428,0,0,0,0,0,0,0,0,0,-1,1427,596,0,0
210,428,0,0,0,0,0,0,0,0,0,-1,1434,596,0,0
217,428,0,0,0,0,0,0,0,0,0,-1,1441,596,0,0
224,428,0,0,0,0,0,0,0,0,0,-1,1448,596,0,0
231,428,0,0,0,0,0,0,0,0,0,-1,1455,596,0,0
238,428,0,0,0,0,0,0,0,0,0,-1,1462,596,0,0
245,428,0,0,0,0,0,0,0,0,0,-1,1469,596,0,0
252,428,0,0,0,0,0,0,0,0,0,-1,1476,596,0,0
259,428,0,0,0,0,0,0,0,0,0,-1,1483,596,0,0
266,428,0,0,0,0,0,0,0,0,0,-1,1490,596,0,0
273,428,0,0,0,0,0,0,0,0,0,-1,1497,596,0,0
280,428,0,0,0,0,0,0,0,0,0,-1,1504,596,0,0
287,428,0,0,0,0,0,0,0,0,0,-1,1511,596,0,0
294,428,0,0,0,0,0,0,0,0,0,-1,1518,596,0,0
301,428,0,0,0,0,0,0,0,0,0,-1,1525,596,0,0
308,428,0,0,0,0,0,0,0,0,0,-1,1532,596,0,0
315,428,0,0,0,0,0,0,0,0,0,-1,1539,596,0,0
322,428,0,0,0,0,0,0,0,0,0,-1,1546,596,0,0
329,428,0,0,0,0,0,0,0,0,0,-1,1553,596,0,0
336,428,0,0,0,0,0,0,0,0,0,-1,1560,596,0,0
343,428,0,0,0,0,0,0,0,0,0,-1,1567,596,0,0
350,428,0,0,0,0,0,0,0,0,0,-1,1574,596,0,0
357,428,0,0,0,0,0,0,0,0,0,-1,1581,596,0,0
364,428,0,0,0,0,0,0,0,0,0,-1,1588,596,0,0
371,428,0,0,0,0,0,0,0,0,0,-1,1595,596,0,0
378,428,0,0,0,0,0,0,0,0,0,-1,1602,596,0,0
385,428,0,0,0,0,0,0,0,0,0,-1,1609,596,0,0
392,428,0,0,0,0,0,0,0,0,0,-1,1616,596,0,0
399,428,0,0,0,0,0,0,0,0,0,-1,1623,596,0,0
406,428,0,0,0,0,0,0,0,0,0,-1,1630,596,0,0
413,428,0,0,0,0,0,0,0,0,0,-1,1637,596,0,0
420,428,1.19397,-0.469055,-0.0150603,-0.00791014,0.0227066,0.0115011,-0.0344715,0.86348,0.0276247,0.0438302,1644,596,1.19395,0.469069
427,428,-0.413086,-0.0136719,-0.00445384,-0.00527718,0.0157109,0.0108508,-0.0205818,0.7723,0.0184352,0.0465827,1651,596,-0.41313,0.013684
434,428,-0.324829,0.0324707,0.00559197,-0.00185409,0.0111507,0.0136247,-0.00988687,0.624276,0.0136315,0.0449246,1658,596,-0.324877,-0.0324704
441,428,-0.397583,0.214966,0,0,0,0,0,0,0,-1,1665,596,-0.39758,-0.214986
448,428,-0.727173,0.276062,0.0166652,1.60172e-05,0.00489781,0.0179992,-0.00131793,0.265906,0.012462,0.0423371,1672,596,-0.727191,-0.276083
455,428,-0.943848,1.2749,0,0,0,0,0,0,0,-1,1679,596,-0.943789,-1.2749
462,428,-1.11243,2.30115,0,0,0,0,0,0,0,-1,1686,596,-1.11244,-2.30112
469,428,-0.835449,1.41241,0,0,0,0,0,0,0,-1,1693,596,-0.835487,-1.41242
476,428,-0.544678,1.09924,0,0,0,0,0,0,0,-1,1700,596,-0.544734,-1.09924
483,428,-0.305908,0.704895,0.0270331,0.00337205,-0.00488107,0.0280004,0.00240467,-0.195653,0.0179193,0.0420526,1707,596,-0.305958,-0.704881
490,428,-0.0308838,0.380554,0.0242873,0.00428529,-0.00514371,0.0255325,0.00304006,-0.237519,0.0161043,0.0394654,1714,596,-0.0308867,-0.380539
497,428,0.00317383,-0.0911865,0.0196819,0.0052843,-0.00474453,0.0211048,0.00386143,-0.291362,0.0129757,0.0410457,1721,596,0.00313497,0.0912072
504,428,-0.00341797,-0.130188,0.0144564,0.00628211,-0.00402373,0.0161046,0.00463382,-0.388791,0.00957325,0.041174,1728,596,-0.00336349,0.130194
511,428,-0.0424805,-0.0924683,0.00976094,0.00619112,-0.00286025,0.0113475,0.00460454,-0.506444,0.00659016,0.0334037,1735,596,-0.0424469,0.0924528
518,428,-0.0982666,-0.0299683,0.00623792,0.00573452,-0.00200176,0.00800374,0.0039687,-0.722857,0.00462102,0.0193943,1742,596,-0.0982726,0.0299721
525,428,-0.0795898,-0.0122681,0.00317695,0.00500632,-0.00125084,0.00564123,0.00254204,-1.1011,0.00326226,0.0119137,1749,596,-0.0796467,0.0122954
532,428,-0.0570068,0.00793457,0.000395278,0.00441876,-0.000615983,0.00451095,0.000303085,-1.42223,0.00291154,0.0144284,1756,596,-0.056956,-0.00796389
539,428,-0.0528564,-0.0268555,-0.00128854,0.00344503,-0.000278503,0.00346136,-0.00130487,-1.51223,0.00284413,0.0190415,1763,596,-0.052877,0.0268632
546,428,-0.0740967,-0.0441895,-0.00185627,0.00275154,-9.82936e-05,0.00275364,-0.00185837,-1.54948,0.00267941,0.0150101,1770,596,-0.0740494,0.0442051
553,428,-0.0836182,-0.0535889,-0.001835,0.00221449,7.97686e-05,0.00221606,-0.00183657,1.55111,0.0023432,0.010338,1777,596,-0.0835748,0.0535823
560,428,-0.0797119,-0.0562744,-0.0014765,0.00167699,2.00569e-05,0.00167712,-0.00147662,1.56444,0.00182204,0.0113591,1784,596,-0.0797672,0.0562946
567,428,-0.0708008,-0.0422363,-0.000803478,0.00163372,0.000242127,0.00165754,-0.0008273,1.47273,0.00146108,0.0107222,1791,596,-0.0708135,0.0422065
574,428,-0.0733643,-0.0262451,-0.000289122,0.00193379,0.000860143,0.00222775,-0.000583077,1.24149,0.00171293,0.0122381,1798,596,-0.0733085,0.0262575
581,428,-0.0852051,-0.0247803,-0.000391795,0.00297767,0.00142924,0.00350225,-0.000916373,1.21903,0.00269278,0.0102396,1805,596,-0.0851885,0.0247872
588,428,-0.0881348,-0.0310059,-0.000605339,0.00394941,0.00157567,0.00444136,-0.00109729,1.26817,0.00338646,0.012746,1812,596,-0.0881857,0.0310128
595,428,-0.10083,-0.0367432,-0.000512833,0.00543904,0.00165038,0.00586603,-0.000939829,1.31762,0.00425868,0.0087681,1819,596,-0.100838,0.0367145
602,428,-0.117188,-0.0241089,-0.000467868,0.00723138,0.00185806,0.00765632,-0.000892817,1.34596,0.00542636,0.0179726,1826,596,-0.11719,0.0241056
609,428,-0.1427,0.0445557,-0.000642488,0.0095258,0.0019207,0.00987651,-0.000993197,1.39019,0.00693914,0.0353613,1833,596,-0.142715,-0.0445436
616,428,0.151123,0.154724,-0.000907744,0.0121367,0.00174974,0.0123673,-0.00113837,1.43975,0.00864936,0.0371172,1840,596,0.151064,-0.154722
623,428,0.597534,0.123535,0,0,0,0,0,0,0,-1,1847,596,0.597561,-0.123516
630,428,-0.125732,0.776001,-0.00136583,0.0188092,0.000207515,0.0188113,-0.00136796,1.56051,0.0130208,0.0417626,1854,596,-0.125705,-0.775973
637,428,-1.07202,0.224365,-0.00131572,0.0224911,-0.00133211,0.0225654,-0.00139002,-1.51507,0.0155277,0.0498304,1861,596,-1.07201,-0.224335
644,428,-0.576294,0.274109,-0.00100242,0.0262861,-0.00348205,0.0267234,-0.00143973,-1.44586,0.0183144,0.049397,1868,596,-0.57633,-0.274118
651,428,0,0,0,0,0,0,0,0,0,-1,1875,596,0,0
658,428,0,0,0,0,0,0,0,0,0,-1,1882,596,0,0
665,428,0,0,0,0,0,0,0,0,0,-1,1889,596,0,0
672,428,0,0,0,0,0,0,0,0,0,-1,1896,596,0,0
679,428,0,0,0,0,0,0,0,0,0,-1,1903,596,0,0
686,428,0,0,0,0,0,0,0,0,0,-1,1910,596,0,0
693,428,0,0,0,0,0,0,0,0,0,-1,1917,596,0,0
700,428,0,0,0,0,0,0,0,0,0,-1,1924,596,0,0
707,428,0,0,0,0,0,0,0,0,0,-1,1931,596,0,0
714,428,0,0,0,0,0,0,0,0,0,-1,1938,596,0,0
721,428,0,0,0,0,0,0,0,0,0,-1,1945,596,0,0
728,428,0,0,0,0,0,0,0,0,0,-1,1952,596,0,0
735,428,0,0,0,0,0,0,0,0,0,-1,1959,596,0,0
742,428,0,0,0,0,0,0,0,0,0,-1,1966,596,0,0
749,428,0,0,0,0,0,0,0,0,0,-1,1973,596,0,0
756,428,0,0,0,0,0,0,0,0,0,-1,1980,596,0,0
763,428,0,0,0,0,0,0,0,0,0,-1,1987,596,0,0
770,428,0,0,0,0,0,0,0,0,0,-1,1994,596,0,0
777,428,0,0,0,0,0,0,0,0,0,-1,2001,596,0,0
784,428,0,0,0,0,0,0,0,0,0,-1,2008,596,0,0
791,428,0,0,0,0,0,0,0,0,0,-1,2015,596,0,0
798,428,0,0,0,0,0,0,0,0,0,-1,2022,596,0,0
805,428,0,0,0,0,0,0,0,0,0,-1,2029,596,0,0
812,428,0,0,0,0,0,0,0,0,0,-1,2036,596,0,0
-700,421,0,0,0,0,0,0,0,0,0,-1,524,603,0,0
-693,421,0,0,0,0,0,0,0,0,0,-1,531,603,0,0
-686,421,0,0,0,0,0,0,0,0,0,-1,538,603,0,0
-679,421,0,0,0,0,0,0,0,0,0,-1,545,603,0,0
-672,421,0,0,0,0,0,0,0,0,0,-1,552,603,0,0
-665,421,0,0,0,0,0,0,0,0,0,-1,559,603,0,0
-658,421,0,0,0,0,0,0,0,0,0,-1,566,603,0,0
-651,421,0,0,0,0,0,0,0,0,0,-1,573,603,0,0
-644,421,0,0,0,0,0,0,0,0,0,-1,580,603,0,0
-637,421,0,0,0,0,0,0,0,0,0,-1,587,603,0,0
-630,421,0,0,0,0,0,0,0,0,0,-1,594,603,0,0
-623,421,0,0,0,0,0,0,0,0,0,-1,601,603,0,0
-616,421,0,0,0,0,0,0,0,0,0,-1,608,603,0,0
-609,421,0,0,0,0,0,0,0,0,0,-1,615,603,0,0
-602,421,0,0,0,0,0,0,0,0,0,-1,622,603,0,0
-595,421,0,0,0,0,0,0,0,0,0,-1,629,603,0,0
-588,421,0,0,0,0,0,0,0,0,0,-1,636,603,0,0
-581,421,0,0,0,0,0,0,0,0,0,-1,643,603,0,0
-574,421,0,0,0,0,0,0,0,0,0,-1,650,603,0,0
-567,421,0,0,0,0,0,0,0,0,0,-1,657,603,0,0
-560,421,0,0,0,0,0,0,0,0,0,-1,664,603,0,0
-553,421,0,0,0,0,0,0,0,0,0,-1,671,603,0,0
-546,421,0,0,0,0,0,0,0,0,0,-1,678,603,0,0
-539,421,0,0,0,0,0,0,0,0,0,-1,685,603,0,0
-532,421,3.5451,-1.14197,0,0,0,0,0,0,0,-1,692,603,3.54513,1.14196
-525,421,-0.311768,-3.09491,0,0,0,0,0,0,0,-1,699,603,-0.311778,3.09491
-518,421,-0.986938,-2.52032,0,0,0,0,0,0,0,-1,706,603,-0.986967,2.5203
-511,421,-1.14233,-2.80774,-0.0218749,0.0685429,0.0332824,0.0794728,-0.0328048,1.25349,0.0666639,0.0472933,713,603,-1.14234,2.80776
-504,421,-1.79443,-2.80945,-0.0178684,0.057433,0.0275883,0.0664587,-0.0268941,1.25461,0.0554873,0.0483951,720,603,-1.79442,2.80945
-497,421,-0.289856,-0.415833,0,0,0,0,0,0,0,-1,727,603,-0.289882,0.415811
-490,421,0.0375366,0.266541,-0.0107487,0.0378754,0.0171653,0.0433245,-0.0161977,1.26341,0.0355348,0.0408401,734,603,0.0375522,-0.266534
-483,421,-0.0755005,-0.00115967,-0.00773268,0.0296947,0.0124479,0.0334566,-0.0114946,1.27731,0.0269653,0.0335555,741,603,-0.0754973,0.00114862
-476,421,-0.100891,-0.086731,-0.00596522,0.0221432,0.0085341,0.0245314,-0.00835339,1.29794,0.019737,0.0185337,748,603,-0.100879,0.0867184
-469,421,-0.097168,-0.0558472,-0.00453785,0.0153527,0.005295,0.0166744,-0.00585959,1.32618,0.0135002,0.0153592,755,603,-0.0971731,0.0558228
-462,421,-0.081665,-0.0452881,-0.00270268,0.0102971,0.00260139,0.0107984,-0.00320392,1.38045,0.00847132,0.0165914,762,603,-0.0816747,0.04526
-455,421,-0.0871582,-0.0249634,-0.00135505,0.00692658,0.000850184,0.00701296,-0.00144143,1.46954,0.00522252,0.0164402,769,603,-0.0871286,0.0249349
-448,421,-0.0913086,-0.034668,-0.000530163,0.00430307,-7.31477e-05,0.00430418,-0.00053127,-1.55567,0.00306194,0.0156905,776,603,-0.0913085,0.0346977
-441,421,-0.0681152,-0.0628662,-0.000191556,0.00197397,-0.000730094,0.00219712,-0.000414707,-1.27417,0.00162076,0.0124182,783,603,-0.0681255,0.0628511
-434,421,-0.0784912,-0.0669556,-0.00022384,0.000473568,-0.000776508,0.000976075,-0.000726346,-0.996437,0.000986412,0.0088552,790,603,-0.0785197,0.0669765
-427,421,-0.0736084,-0.0681763,-0.000284248,-0.000588653,-0.000213294,-0.00017442,-0.000698481,-0.475507,0.000419772,0.00866999,797,603,-0.073595,0.0681983
-420,421,-0.0721436,-0.0524292,-0.000316091,-0.000869623,0.00011051,-0.000294843,-0.00089087,0.189947,0.000524051,0.0110585,804,603,-0.0721442,0.0524117
-413,421,-0.0611572,-0.0375366,-0.00021918,-0.00098924,0.000711418,0.000204718,-0.00141314,0.537362,0.00101722,0.0118281,811,603,-0.0611589,0.0375223
-406,421,-0.0623169,-0.0328369,-2.44314e-05,-0.000854463,0.00153127,0.00114707,-0.00202596,0.653064,0.00185523,0.0153198,818,603,-0.0622922,0.0328373
-399,421,-0.0887451,-0.045166,0.000256625,-0.000804337,0.00220917,0.00199812,-0.00254583,0.667566,0.00262979,0.0140077,825,603,-0.0887417,0.0451746
-392,421,-0.0936279,-0.0513916,0.000702046,4.97835e-05,0.00279741,0.00319227,-0.00244044,0.727368,0.00326169,0.0132304,832,603,-0.093636,0.0514216
-385,421,-0.13562,-0.12146,0.00124496,0.00116833,0.0033189,0.00452577,-0.00211248,0.779626,0.00391611,0.0284804,839,603,-0.135642,0.121454
-378,421,0.0335083,-0.244934,0.00188081,0.00252036,0.00409239,0.00630545,-0.00190428,0.824389,0.00496173,0.041092,846,603,0.0334948,0.244942
-371,421,-0.02771,-0.270752,0.00228057,0.00488059,0.00475722,0.00851223,-0.00135107,0.918777,0.00617465,0.0456086,853,603,-0.0276836,0.270764
-364,421,-0.280518,-0.157593,0.00260891,0.00856385,0.00487513,0.0112988,-0.000126079,1.05954,0.00757493,0.0441975,860,603,-0.280513,0.157581
-357,421,-0.293457,0.273987,0.00280234,0.016067,0.00392594,0.0171418,0.00172748,1.30356,0.0108978,0.0441583,867,603,-0.293462,-0.273997
-350,421,-0.352905,0.499207,0.00279812,0.0239874,0.0026898,0.0243236,0.002462,1.44648,0.0154605,0.044795,874,603,-0.352889,-0.499183
-343,421,-0.324463,0.369263,0.0027949,0.0308311,0.000349209,0.0308355,0.00279055,1.55834,0.0196928,0.0496136,881,603,-0.324451,-0.369269
-336,421,-0.321045,0.388672,0.00307272,0.0372249,-0.00335014,0.0375504,0.00274719,-1.47393,0.02417,0.0489995,888,603,-0.321042,-0.388683
-329,421,-0.133728,0.556091,0,0,0,0,0,0,0,-1,895,603,-0.133717,-0.556104
-322,421,0.0285645,0.547852,0,0,0,0,0,0,0,-1,902,603,0.0285388,-0.547826
-315,421,0.301086,0.640381,0,0,0,0,0,0,0,-1,909,603,0.301103,-0.640378
-308,421,0,0,0,0,0,0,0,0,0,-1,916,603,0,0
-301,421,0,0,0,0,0,0,0,0,0,-1,923,603,0,0
-294,421,0,0,0,0,0,0,0,0,0,-1,930,603,0,0
-287,421,0,0,0,0,0,0,0,0,0,-1,937,603,0,0
-280,421,0,0,0,0,0,0,0,0,0,-1,944,603,0,0
-273,421,0,0,0,0,0,0,0,0,0,-1,951,603,0,0
-266,421,0,0,0,0,0,0,0,0,0,-1,958,603,0,0
-259,421,0,0,0,0,0,0,0,0,0,-1,965,603,0,0
-252,421,0,0,0,0,0,0,0,0,0,-1,972,603,0,0
-245,421,0,0,0,0,0,0,0,0,0,-1,979,603,0,0
-238,421,0,0,0,0,0,0,0,0,0,-1,986,603,0,0
-231,421,0,0,0,0,0,0,0,0,0,-1,993,603,0,0
-224,421,0,0,0,0,0,0,0,0,0,-1,1000,603,0,0
-217,421,0,0,0,0,0,0,0,0,0,-1,1007,603,0,0
-210,421,0,0,0,0,0,0,0,0,0,-1,1014,603,0,0
-203,421,0,0,0,0,0,0,0,0,0,-1,1021,603,0,0
-196,421,0,0,0,0,0,0,0,0,0,-1,1028,603,0,0
-189,421,0,0,0,0,0,0,0,0,0,-1,1035,603,0,0
-182,421,0,0,0,0,0,0,0,0,0,-1,1042,603,0,0
-175,421,0,0,0,0,0,0,0,0,0,-1,1049,603,0,0
-168,421,0,0,0,0,0,0,0,0,0,-1,1056,603,0,0
-161,421,0,0,0,0,0,0,0,0,0,-1,1063,603,0,0
-154,421,0,0,0,0,0,0,0,0,0,-1,1070,603,0,0
-147,421,0,0,0,0,0,0,0,0,0,-1,1077,603,0,0
-140,421,0,0,0,0,0,0,0,0,0,-1,1084,603,0,0
-133,421,0,0,0,0,0,0,0,0,0,-1,1091,603,0,0
-126,421,0,0,0,0,0,0,0,0,0,-1,1098,603,0,0
-119,421,0,0,0,0,0,0,0,0,0,-1,1105,603,0,0
-112,421,0,0,0,0,0,0,0,0,0,-1,1112,603,0,0
-105,421,0,0,0,0,0,0,0,0,0,-1,1119,603,0,0
-98,421,0,0,0,0,0,0,0,0,0,-1,1126,603,0,0
-91,421,0,0,0,0,0,0,0,0,0,-1,1133,603,0,0
-84,421,0,0,0,0,0,0,0,0,0,-1,1140,603,0,0
-77,421,0,0,0,0,0,0,0,0,0,-1,1147,603,0,0
-70,421,0,0,0,0,0,0,0,0,0,-1,1154,603,0,0
-63,421,0,0,0,0,0,0,0,0,0,-1,1161,603,0,0
-56,421,0,0,0,0,0,0,0,0,0,-1,1168,603,0,0
-49,421,0,0,0,0,0,0,0,0,0,-1,1175,603,0,0
-42,421,0,0,0,0,0,0,0,0,0,-1,1182,603,0,0
-35,421,0,0,0,0,0,0,0,0,0,-1,1189,603,0,0
-28,421,0,0,0,0,0,0,0,0,0,-1,1196,603,0,0
-21,421,0,0,0,0,0,0,0,0,0,-1,1203,603,0,0
-14,421,0,0,0,0,0,0,0,0,0,-1,1210,603,0,0
-7,421,0,0,0,0,0,0,0,0,0,-1,1217,603,0,0
0,421,0,0,0,0,0,0,0,0,0,-1,1224,603,0,0
7,421,0,0,0,0,0,0,0,0,0,-1,1231,603,0,0
14,421,0,0,0,0,0,0,0,0,0,-1,1238,603,0,0
21,421,0,0,0,0,0,0,0,0,0,-1,1245,603,0,0
28,421,0,0,0,0,0,0,0,0,0,-1,1252,603,0,0
35,421,0,0,0,0,0,0,0,0,0,-1,1259,603,0,0
42,421,0,0,0,0,0,0,0,0,0,-1,1266,603,0,0
49,421,0,0,0,0,0,0,0,0,0,-1,1273,603,0,0
56,421,0,0,0,0,0,0,0,0,0,-1,1280,603,0,0
63,421,0,0,0,0,0,0,0,0,0,-1,1287,603,0,0
70,421,0,0,0,0,0,0,0,0,0,-1,1294,603,0,0
77,421,0,0,0,0,0,0,0,0,0,-1,1301,603,0,0
84,421,0,0,0,0,0,0,0,0,0,-1,1308,603,0,0
91,421,0,0,0,0,0,0,0,0,0,-1,1315,603,0,0
98,421,0,0,0,0,0,0,0,0,0,-1,1322,603,0,0
105,421,0,0,0,0,0,0,0,0,0,-1,1329,603,0,0
112,421,0,0,0,0,0,0,0,0,0,-1,1336,603,0,0
119,421,0,0,0,0,0,0,0,0,0,-1,1343,603,0,0
126,421,0,0,0,0,0,0,0,0,0,-1,1350,603,0,0
133,421,0,0,0,0,0,0,0,0,0,-1,1357,603,0,0
140,421,0,0,0,0,0,0,0,0,0,-1,1364,603,0,0
147,421,0,0,0,0,0,0,0,0,0,-1,1371,603,0,0
154,421,0,0,0,0,0,0,0,0,0,-1,1378,603,0,0
161,421,0,0,0,0,0,0,0,0,0,-1,1385,603,0,0
168,421,0,0,0,0,0,0,0,0,0,-1,1392,603,0,0
175,421,0,0,0,0,0,0,0,0,0,-1,1399,603,0,0
182,421,0,0,0,0,0,0,0,0,0,-1,1406,603,0,0
189,421,0,0,0,0,0,0,0,0,0,-1,1413,603,0,0
196,421,0,0,0,0,0,0,0,0,0,-1,1420,603,0,0
203,421,0,0,0,0,0,0,0,0,0,-1,1427,603,0,0
210,421,0,0,0,0,0,0,0,0,0,-1,1434,603,0,0
217,421,0,0,0,0,0,0,0,0,0,-1,1441,603,0,0
224,421,0,0,0,0,0,0,0,0,0,-1,1448,603,0,0
231,421,0,0,0,0,0,0,0,0,0,-1,1455,603,0,0
238,421,0,0,0,0,0,0,0,0,0,-1,1462,603,0,0
245,421,0,0,0,0,0,0,0,0,0,-1,1469,603,0,0
252,421,0,0,0,0,0,0,0,0,0,-1,1476,603,0,0
259,421,0,0,0,0,0,0,0,0,0,-1,1483,603,0,0
266,421,0,0,0,0,0,0,0,0,0,-1,1490,603,0,0
273,421,0,0,0,0,0,0,0,0,0,-1,1497,603,0,0
280,421,0,0,0,0,0,0,0,0,0,-1,1504,603,0,0
287,421,0,0,0,0,0,0,0,0,0,-1,1511,603,0,0
294,421,0,0,0,0,0,0,0,0,0,-1,1518,603,0,0
301,421,0,0,0,0,0,0,0,0,0,-1,1525,603,0,0
308,421,0,0,0,0,0,0,0,0,0,-1,1532,603,0,0
315,421,0,0,0,0,0,0,0,0,0,-1,1539,603,0,0
322,421,0,0,0,0,0,0,0,0,0,-1,1546,603,0,0
329,421,0,0,0,0,0,0,0,0,0,-1,1553,603,0,0
336,421,0,0,0,0,0,0,0,0,0,-1,1560,603,0,0
343,421,0,0,0,0,0,0,0,0,0,-1,1567,603,0,0
350,421,0,0,0,0,0,0,0,0,0,-1,1574,603,0,0
357,421,0,0,0,0,0,0,0,0,0,-1,1581,603,0,0
364,421,0,0,0,0,0,0,0,0,0,-1,1588,603,0,0
371,421,0,0,0,0,0,0,0,0,0,-1,1595,603,0,0
378,421,0,0,0,0,0,0,0,0,0,-1,1602,603,0,0
385,421,0,0,0,0,0,0,0,0,0,-1,1609,603,0,0
392,421,0,0,0,0,0,0,0,0,0,-1,1616,603,0,0
399,421,0,0,0,0,0,0,0,0,0,-1,1623,603,0,0
406,421,0,0,0,0,0,0,0,0,0,-1,1630,603,0,0
413,421,0,0,0,0,0,0,0,0,0,-1,1637,603,0,0
420,421,0,0,0,0,0,0,0,0,0,-1,1644,603,0,0
427,421,0,0,0,0,0,0,0,0,0,-1,1651,603,0,0
434,421,-0.667725,-0.0626221,0,0,0,0,0,0,0,-1,1658,603,-0.667761,0.0625938
441,421,-0.283203,0.0621338,0,0,0,0,0,0,0,-1,1665,603,-0.283143,-0.0621642
448,421,-0.683716,0.806396,0,0,0,0,0,0,0,-1,1672,603,-0.683656,-0.806385
455,421,-1.13354,1.77112,0,0,0,0,0,0,0,-1,1679,603,-1.13351,-1.77111
462,421,-0.618896,0.64447,0,0,0,0,0,0,0,-1,1686,603,-0.618951,-0.644475
469,421,0.317627,-1.11664,0,0,0,0,0,0,0,-1,1693,603,0.317602,1.11666
476,421,0.304443,-0.789978,0,0,0,0,0,0,0,-1,1700,603,0.30446,0.790008
483,421,0.304443,-0.395935,0.0311805,0.00517857,-0.00514209,0.0321605,0.00419862,-0.188317,0.0201868,0.043134,1707,603,0.304473,0.395952
490,421,0.0914307,-0.0592041,0.0277904,0.0062442,-0.00524848,0.0290009,0.00503372,-0.226671,0.0178936,0.0427322,1714,603,0.0913726,0.0591845
497,421,-0.0751953,-0.114868,0.0221382,0.00733421,-0.00461299,0.023458,0.00601444,-0.278655,0.0140691,0.0428613,1721,603,-0.0752085,0.114851
504,421,-0.0489502,-0.172485,0.0160052,0.00827398,-0.00372573,0.0175084,0.0067708,-0.383486,0.0101946,0.0423032,1728,603,-0.048987,0.172498
511,421,-0.0876465,-0.0300293,0.0105964,0.00806267,-0.0024887,0.0121221,0.00653693,-0.549971,0.00700589,0.0408131,1735,603,-0.0877063,0.0300201
518,421,-0.153564,0.0998535,0.0065081,0.00741736,-0.00160348,0.00862942,0.00529605,-0.923536,0.00502497,0.0345391,1742,603,-0.153516,-0.0998404
525,421,-0.107056,-0.0202637,0.00303882,0.00651671,-0.000838653,0.00670838,0.00284715,-1.34611,0.00388781,0.0216613,1749,603,-0.107081,0.0202601
532,421,-0.0627441,-0.0193481,7.72192e-05,0.00564684,-0.000199235,0.00565396,7.01013e-05,-1.53509,0.00374616,0.0161463,1756,603,-0.0627667,0.0193409
539,421,-0.0621338,-0.0421753,-0.00175094,0.0044337,4.06943e-05,0.00443397,-0.00175121,1.56422,0.00368128,0.0194157,1763,603,-0.0620767,0.0421894
546,421,-0.0732422,-0.0612183,-0.0023697,0.00345423,0.000119272,0.00345668,-0.00237214,1.55033,0.00338463,0.0121484,1770,603,-0.0732965,0.0612049
553,421,-0.0761719,-0.0478516,-0.00227213,0.00268322,0.000270309,0.00269792,-0.00228684,1.51646,0.00288121,0.0108036,1777,603,-0.0761372,0.0478472
560,421,-0.0703125,-0.0470581,-0.00179328,0.00192425,0.000158753,0.00193101,-0.00180005,1.5282,0.00215457,0.0135828,1784,603,-0.0702825,0.0470687
567,421,-0.0651855,-0.0255737,-0.000981975,0.00166428,0.000257977,0.0016892,-0.00100689,1.47452,0.00157311,0.0163491,1791,603,-0.0651596,0.0255528
574,421,-0.0681152,-0.00384521,-0.000349105,0.00173947,0.000751204,0.00198159,-0.000591225,1.259,0.00155603,0.0175008,1798,603,-0.0680722,0.00381756
581,421,-0.0806885,-0.0045166,-0.000349234,0.00251415,0.00120758,0.00295542,-0.000790504,1.22045,0.00227993,0.01415,1805,603,-0.0807009,0.00453756
588,421,-0.0906982,-0.0438843,-0.000476221,0.00328313,0.00128273,0.0036791,-0.000872195,1.27138,0.0027893,0.0102844,1812,603,-0.0906374,0.0438582
595,421,-0.0721436,-0.0344849,-0.000268909,0.00451932,0.00123723,0.00482011,-0.000569702,1.33231,0.00341916,0.0134744,1819,603,-0.0721297,0.0345054
602,421,-0.076416,-0.0393677,-8.90392e-05,0.00601452,0.00129555,0.00627813,-0.000352647,1.37006,0.00430779,0.0130633,1826,603,-0.0764013,0.0393583
609,421,-0.0766602,-0.0246582,-0.000122507,0.00792358,0.00117654,0.00809209,-0.000291019,1.42854,0.00549431,0.0182011,1833,603,-0.0766184,0.0246464
616,421,0.108398,-0.0456543,-0.00021223,0.0100695,0.000788363,0.0101296,-0.000272327,1.49471,0.00684563,0.0317372,1840,603,0.108365,0.0456667
623,421,0.184692,0.163208,-0.000362026,0.0128077,4.71431e-05,0.0128079,-0.000362196,1.56722,0.00866184,0.036715,1847,603,0.184685,-0.163191
630,421,0.0441895,0.499023,-0.000147831,0.0157359,-0.00100875,0.0157997,-0.000211638,-1.50763,0.0106044,0.040389,1854,603,0.044233,-0.499018
637,421,0.135498,0.890686,0.000478134,0.0190624,-0.00238354,0.0193633,0.000177301,-1.44525,0.0128502,0.0428796,1861,603,0.135454,-0.890696
644,421,-0.254517,0.0876465,0.00143973,0.0225431,-0.00419201,0.0233453,0.000637512,-1.38172,0.0153554,0.0439264,1868,603,-0.254544,-0.0876392
651,421,0.0515137,0.121094,0.00311434,0.0263881,-0.00604464,0.0278644,0.00163807,-1.33126,0.018055,0.0444953,1875,603,0.0515183,-0.121119
658,421,0,0,0,0,0,0,0,0,0,-1,1882,603,0,0
665,421,0,0,0,0,0,0,0,0,0,-1,1889,603,0,0
672,421,0,0,0,0,0,0,0,0,0,-1,1896,603,0,0
679,421,0,0,0,0,0,0,0,0,0,-1,1903,603,0,0
686,421,0,0,0,0,0,0,0,0,0,-1,1910,603,0,0
693,421,0,0,0,0,0,0,0,0,0,-1,1917,603,0,0
700,421,0,0,0,0,0,0,0,0,0,-1,1924,603,0,0
707,421,0,0,0,0,0,0,0,0,0,-1,1931,603,0,0
714,421,0,0,0,0,0,0,0,0,0,-1,1938,603,0,0
721,421,0,0,0,0,0,0,0,0,0,-1,1945,603,0,0
728,421,0,0,0,0,0,0,0,0,0,-1,1952,603,0,0
735,421,0,0,0,0,0,0,0,0,0,-1,1959,603,0,0
742,421,0,0,0,0,0,0,0,0,0,-1,1966,603,0,0
749,421,0,0,0,0,0,0,0,0,0,-1,1973,603,0,0
756,421,0,0,0,0,0,0,0,0,0,-1,1980,603,0,0
763,421,0,0,0,0,0,0,0,0,0,-1,1987,603,0,0
770,421,0,0,0,0,0,0,0,0,0,-1,1994,603,0,0
777,421,0,0,0,0,0,0,0,0,0,-1,2001,603,0,0
784,421,0,0,0,0,0,0,0,0,0,-1,2008,603,0,0
791,421,0,0,0,0,0,0,0,0,0,-1,2015,603,0,0
798,421,0,0,0,0,0,0,0,0,0,-1,2022,603,0,0
805,421,0,0,0,0,0,0,0,0,0,-1,2029,603,0,0
812,421,0,0,0,0,0,0,0,0,0,-1,2036,603,0,0
-700,414,0,0,0,0,0,0,0,0,0,-1,524,610,0,0
-693,414,0,0,0,0,0,0,0,0,0,-1,531,610,0,0
-686,414,0,0,0,0,0,0,0,0,0,-1,538,610,0,0
-679,414,0,0,0,0,0,0,0,0,0,-1,545,610,0,0
-672,414,0,0,0,0,0,0,0,0,0,-1,552,610,0,0
-665,414,0,0,0,0,0,0,0,0,0,-1,559,610,0,0
-658,414,0,0,0,0,0,0,0,0,0,-1,566,610,0,0
-651,414,0,0,0,0,0,0,0,0,0,-1,573,610,0,0
-644,414,0,0,0,0,0,0,0,0,0,-1,580,610,0,0
-637,414,0,0,0,0,0,0,0,0,0,-1,587,610,0,0
-630,414,0,0,0,0,0,0,0,0,0,-1,594,610,0,0
-623,414,0,0,0,0,0,0,0,0,0,-1,601,610,0,0
-616,414,0,0,0,0,0,0,0,0,0,-1,608,610,0,0
-609,414,0,0,0,0,0,0,0,0,0,-1,615,610,0,0
-602,414,0,0,0,0,0,0,0,0,0,-1,622,610,0,0
-595,414,0,0,0,0,0,0,0,0,0,-1,629,610,0,0
-588,414,0,0,0,0,0,0,0,0,0,-1,636,610,0,0
-581,414,0,0,0,0,0,0,0,0,0,-1,643,610,0,0
-574,414,0,0,0,0,0,0,0,0,0,-1,650,610,0,0
-567,414,0,0,0,0,0,0,0,0,0,-1,657,610,0,0
-560,414,0,0,0,0,0,0,0,0,0,-1,664,610,0,0
-553,414,0,0,0,0,0,0,0,0,0,-1,671,610,0,0
-546,414,0,0,0,0,0,0,0,0,0,-1,678,610,0,0
-539,414,2.54034,0.590942,-0.0335848,0.0866583,0.0412408,0.0994436,-0.0463701,1.27018,0.0860244,0.0451601,685,610,2.54035,-0.590955
-532,414,2.21082,-0.794922,0,0,0,0,0,0,0,-1,692,610,2.21079,0.794928
-525,414,1.70715,-2.23737,0,0,0,0,0,0,0,-1,699,610,1.70715,2.23734
-518,414,0.395752,0.552307,0,0,0,0,0,0,0,-1,706,610,0.395781,-0.552319
-511,414,-2.3205,-3.46967,0,0,0,0,0,0,0,-1,713,610,-2.32051,3.46965
-504,414,-0.67395,-0.68103,0,0,0,0,0,0,0,-1,720,610,-0.673936,0.681026
-497,414,-0.329224,-0.377258,-0.0112978,0.0385485,0.0184034,0.0446068,-0.0173561,1.25278,0.0369095,0.0447995,727,610,-0.32925,0.377255
-490,414,-0.0267334,-0.00427246,-0.00837882,0.0313149,0.0144281,0.0360051,-0.013069,1.2565,0.0293463,0.0337002,734,610,-0.0267257,0.00427953
-483,414,-0.0617065,-0.0357666,-0.00590145,0.0246149,0.0106121,0.0279424,-0.00922896,1.26695,0.0223491,0.0143763,741,610,-0.0617184,0.0357401
-476,414,-0.0809326,-0.0333862,-0.00471238,0.0183268,0.0074929,0.0205492,-0.00693487,1.28245,0.0165041,0.00959743,748,610,-0.080919,0.0333917
-469,414,-0.0686035,-0.0320435,-0.00373923,0.0126804,0.00486596,0.0140141,-0.00507292,1.30328,0.0114158,0.0108966,755,610,-0.0685952,0.0320683
-462,414,-0.0811157,-0.0610962,-0.00213652,0.00849087,0.00259876,0.00909231,-0.00273797,1.34336,0.0071511,0.018928,762,610,-0.0811357,0.0610664
-455,414,-0.0921021,-0.055603,-0.000950817,0.00565729,0.00107416,0.00582751,-0.00112104,1.41363,0.00430759,0.0205726,769,610,-0.0921011,0.0555921
-448,414,-0.110046,-0.0445557,-0.00026248,0.00342325,0.000294404,0.00344662,-0.000285848,1.49159,0.00239871,0.0209437,776,610,-0.110054,0.04454
-441,414,-0.071106,-0.0552368,-5.69625e-05,0.00126389,-0.000301339,0.00132939,-0.000122462,-1.35676,0.000929774,0.0151786,783,610,-0.0711323,0.0552569
-434,414,-0.0783081,-0.0653076,-0.000148213,-0.000130011,-0.000312452,0.000173473,-0.000451697,-0.799958,0.000372666,0.00821868,790,610,-0.0782819,0.0653275
-427,414,-0.0776367,-0.0671387,-0.000240742,-0.00122226,0.000219297,-0.000193974,-0.00126903,0.210116,0.000789349,0.00878728,797,610,-0.0776127,0.0671544
-420,414,-0.0710449,-0.0545654,-0.000285111,-0.00143927,0.000482368,-0.00011006,-0.00161432,0.34812,0.00104146,0.00981179,804,610,-0.0710145,0.0545531
-413,414,-0.065979,-0.0476074,-0.00025677,-0.00148737,0.00111692,0.000403116,-0.00214725,0.533635,0.00158307,0.00972021,811,610,-0.0659706,0.0475985
-406,414,-0.088562,-0.0724487,-0.000131084,-0.00119541,0.00204915,0.00145387,-0.00278037,0.658355,0.00248431,0.0124215,818,610,-0.0885778,0.0724507
-399,414,-0.102295,-0.0706177,0.00019617,-0.00104503,0.00286539,0.00250739,-0.00335625,0.678753,0.00339718,0.0165695,825,610,-0.102286,0.0706424
-392,414,-0.285645,-0.119446,0,0,0,0,0,0,0,-1,832,610,-0.285654,0.119452
-385,414,-0.814819,-0.466003,0,0,0,0,0,0,0,-1,839,610,-0.81482,0.46603
-378,414,-0.494629,0.310547,0,0,0,0,0,0,0,-1,846,610,-0.494647,-0.310539
-371,414,-0.776855,-0.343872,0,0,0,0,0,0,0,-1,853,610,-0.776878,0.343891
-364,414,-0.689392,-0.1073,0.00300268,0.00905713,0.00629034,0.0130108,-0.000950961,1.00967,0.00900758,0.0416913,860,610,-0.689378,0.107329
-357,414,-0.545532,0.218445,0.00336436,0.016482,0.00543676,0.0184423,0.00140399,1.22473,0.0118546,0.0419436,867,610,-0.545545,-0.218437
-350,414,-0.272888,0.341125,0.00359897,0.0246676,0.0042412,0.0254893,0.00277725,1.37942,0.0161469,0.0434657,874,610,-0.272914,-0.341151
-343,414,-0.140259,0.260193,0.00393059,0.0325865,0.00169571,0.0326865,0.0038306,1.5119,0.020633,0.0438359,881,610,-0.140265,-0.260211
-336,414,0.0142212,0.266785,0.0046812,0.0404773,-0.00238504,0.0406355,0.00452299,-1.50456,0.0257156,0.0494165,888,610,0.0142173,-0.266803
-329,414,0.137634,0.281311,0,0,0,0,0,0,0,-1,895,610,0.137663,-0.281306
-322,414,0.300659,0.283081,0,0,0,0,0,0,0,-1,902,610,0.300678,-0.283106
-315,414,0,0,0,0,0,0,0,0,0,-1,909,610,0,0
-308,414,0,0,0,0,0,0,0,0,0,-1,916,610,0,0
-301,414,0,0,0,0,0,0,0,0,0,-1,923,610,0,0
-294,414,0,0,0,0,0,0,0,0,0,-1,930,610,0,0
-287,414,0,0,0,0,0,0,0,0,0,-1,937,610,0,0
-280,414,0,0,0,0,0,0,0,0,0,-1,944,610,0,0
-273,414,0,0,0,0,0,0,0,0,0,-1,951,610,0,0
-266,414,0,0,0,0,0,0,0,0,0,-1,958,610,0,0
-259,414,0,0,0,0,0,0,0,0,0,-1,965,610,0,0
-252,414,0,0,0,0,0,0,0,0,0,-1,972,610,0,0
-245,414,0,0,0,0,0,0,0,0,0,-1,979,610,0,0
-238,414,0,0,0,0,0,0,0,0,0,-1,986,610,0,0
-231,414,0,0,0,0,0,0,0,0,0,-1,993,610,0,0
-224,414,0,0,0,0,0,0,0,0,0,-1,1000,610,0,0
-217,414,0,0,0,0,0,0,0,0,0,-1,1007,610,0,0
-210,414,0,0,0,0,0,0,0,0,0,-1,1014,610,0,0
-203,414,0,0,0,0,0,0,0,0,0,-1,1021,610,0,0
-196,414,0,0,0,0,0,0,0,0,0,-1,1028,610,0,0
-189,414,0,0,0,0,0,0,0,0,0,-1,1035,610,0,0
-182,414,0,0,0,0,0,0,0,0,0,-1,1042,610,0,0
-175,414,0,0,0,0,0,0,0,0,0,-1,1049,610,0,0
-168,414,0,0,0,0,0,0,0,0,0,-1,1056,610,0,0
-161,414,0,0,0,0,0,0,0,0,0,-1,1063,610,0,0
-154,414,0,0,0,0,0,0,0,0,0,-1,1070,610,0,0
-147,414,0,0,0,0,0,0,0,0,0,-1,1077,610,0,0
-140,414,0,0,0,0,0,0,0,0,0,-1,1084,610,0,0
-133,414,0,0,0,0,0,0,0,0,0,-1,1091,610,0,0
-126,414,0,0,0,0,0,0,0,0,0,-1,1098,610,0,0
-119,414,0,0,0,0,0,0,0,0,0,-1,1105,610,0,0
-112,414,0,0,0,0,0,0,0,0,0,-1,1112,610,0,0
-105,414,0,0,0,0,0,0,0,0,0,-1,1119,610,0,0
-98,414,0,0,0,0,0,0,0,0,0,-1,1126,610,0,0
-91,414,0,0,0,0,0,0,0,0,0,-1,1133,610,0,0
-84,414,0,0,0,0,0,0,0,0,0,-1,1140,610,0,0
-77,414,0,0,0,0,0,0,0,0,0,-1,1147,610,0,0
-70,414,0,0,0,0,0,0,0,0,0,-1,1154,610,0,0
-63,414,0,0,0,0,0,0,0,0,0,-1,1161,610,0,0
-56,414,0,0,0,0,0,0,0,0,0,-1,1168,610,0,0
-49,414,0,0,0,0,0,0,0,0,0,-1,1175,610,0,0
-42,414,0,0,0,0,0,0,0,0,0,-1,1182,610,0,0
-35,414,0,0,0,0,0,0,0,0,0,-1,1189,610,0,0
-28,414,0,0,0,0,0,0,0,0,0,-1,1196,610,0,0
-21,414,0,0,0,0,0,0,0,0,0,-1,1203,610,0,0
-14,414,0,0,0,0,0,0,0,0,0,-1,1210,610,0,0
-7,414,0,0,0,0,0,0,0,0,0,-1,1217,610,0,0
0,414,0,0,0,0,0,0,0,0,0,-1,1224,610,0,0
7,414,0,0,0,0,0,0,0,0,0,-1,1231,610,0,0
14,414,0,0,0,0,0,0,0,0,0,-1,1238,610,0,0
21,414,0,0,0,0,0,0,0,0,0,-1,1245,610,0,0
28,414,0,0,0,0,0,0,0,0,0,-1,1252,610,0,0
35,414,0,0,0,0,0,0,0,0,0,-1,1259,610,0,0
42,414,0,0,0,0,0,0,0,0,0,-1,1266,610,0,0
49,414,0,0,0,0,0,0,0,0,0,-1,1273,610,0,0
56,414,0,0,0,0,0,0,0,0,0,-1,1280,610,0,0
63,414,0,0,0,0,0,0,0,0,0,-1,1287,610,0,0
70,414,0,0,0,0,0,0,0,0,0,-1,1294,610,0,0
77,414,0,0,0,0,0,0,0,0,0,-1,1301,610,0,0
84,414,0,0,0,0,0,0,0,0,0,-1,1308,610,0,0
91,414,0,0,0,0,0,0,0,0,0,-1,1315,610,0,0
98,414,0,0,0,0,0,0,0,0,0,-1,1322,610,0,0
105,414,0,0,0,0,0,0,0,0,0,-1,1329,610,0,0
112,414,0,0,0,0,0,0,0,0,0,-1,1336,610,0,0
119,414,0,0,0,0,0,0,0,0,0,-1,1343,610,0,0
126,414,0,0,0,0,0,0,0,0,0,-1,1350,610,0,0
133,414,0,0,0,0,0,0,0,0,0,-1,1357,610,0,0
140,414,0,0,0,0,0,0,0,0,0,-1,1364,610,0,0
147,414,0,0,0,0,0,0,0,0,0,-1,1371,610,0,0
154,414,0,0,0,0,0,0,0,0,0,-1,1378,610,0,0
161,414,0,0,0,0,0,0,0,0,0,-1,1385,610,0,0
168,414,0,0,0,0,0,0,0,0,0,-1,1392,610,0,0
175,414,0,0,0,0,0,0,0,0,0,-1,1399,610,0,0
182,414,0,0,0,0,0,0,0,0,0,-1,1406,610,0,0
189,414,0,0,0,0,0,0,0,0,0,-1,1413,610,0,0
196,414,0,0,0,0,0,0,0,0,0,-1,1420,610,0,0
203,414,0,0,0,0,0,0,0,0,0,-1,1427,610,0,0
210,414,0,0,0,0,0,0,0,0,0,-1,1434,610,0,0
217,414,0,0,0,0,0,0,0,0,0,-1,1441,610,0,0
224,414,0,0,0,0,0,0,0,0,0,-1,1448,610,0,0
231,414,0,0,0,0,0,0,0,0,0,-1,1455,610,0,0
238,414,0,0,0,0,0,0,0,0,0,-1,1462,610,0,0
245,414,0,0,0,0,0,0,0,0,0,-1,1469,610,0,0
252,414,0,0,0,0,0,0,0,0,0,-1,1476,610,0,0
259,414,0,0,0,0,0,0,0,0,0,-1,1483,610,0,0
266,414,0,0,0,0,0,0,0,0,0,-1,1490,610,0,0
273,414,0,0,0,0,0,0,0,0,0,-1,1497,610,0,0
280,414,0,0,0,0,0,0,0,0,0,-1,1504,610,0,0
287,414,0,0,0,0,0,0,0,0,0,-1,1511,610,0,0
294,414,0,0,0,0,0,0,0,0,0,-1,1518,610,0,0
301,414,0,0,0,0,0,0,0,0,0,-1,1525,610,0,0
308,414,0,0,0,0,0,0,0,0,0,-1,1532,610,0,0
315,414,0,0,0,0,0,0,0,0,0,-1,1539,610,0,0
322,414,0,0,0,0,0,0,0,0,0,-1,1546,610,0,0
329,414,0,0,0,0,0,0,0,0,0,-1,1553,610,0,0
336,414,0,0,0,0,0,0,0,0,0,-1,1560,610,0,0
343,414,0,0,0,0,0,0,0,0,0,-1,1567,610,0,0
350,414,0,0,0,0,0,0,0,0,0,-1,1574,610,0,0
357,414,0,0,0,0,0,0,0,0,0,-1,1581,610,0,0
364,414,0,0,0,0,0,0,0,0,0,-1,1588,610,0,0
371,414,0,0,0,0,0,0,0,0,0,-1,1595,610,0,0
378,414,0,0,0,0,0,0,0,0,0,-1,1602,610,0,0
385,414,0,0,0,0,0,0,0,0,0,-1,1609,610,0,0
392,414,0,0,0,0,0,0,0,0,0,-1,1616,610,0,0
399,414,0,0,0,0,0,0,0,0,0,-1,1623,610,0,0
406,414,0,0,0,0,0,0,0,0,0,-1,1630,610,0,0
413,414,0,0,0,0,0,0,0,0,0,-1,1637,610,0,0
420,414,0,0,0,0,0,0,0,0,0,-1,1644,610,0,0
427,414,0,0,0,0,0,0,0,0,0,-1,1651,610,0,0
434,414,0,0,0,0,0,0,0,0,0,-1,1658,610,0,0
441,414,-0.163818,0.137146,0,0,0,0,0,0,0,-1,1665,610,-0.163758,-0.137155
448,414,-0.712036,0.642029,0,0,0,0,0,0,0,-1,1672,610,-0.712096,-0.64204
455,414,-1.26038,1.14691,0,0,0,0,0,0,0,-1,1679,610,-1.26043,-1.14693
462,414,-0.0692139,-0.062439,0,0,0,0,0,0,0,-1,1686,610,-0.0691937,0.0624487
469,414,0.257813,-0.120972,0,0,0,0,0,0,0,-1,1693,610,0.257816,0.120942
476,414,-1.24585,0.222534,0,0,0,0,0,0,0,-1,1700,610,-1.24587,-0.222504
483,414,-0.779053,0.196228,0.0375381,0.00648566,-0.00499045,0.0383204,0.00570335,-0.155496,0.023874,0.0478176,1707,610,-0.779002,-0.196258
490,414,0.131958,-0.205505,0.0331419,0.00770421,-0.0047302,0.033993,0.00685309,-0.178027,0.0207582,0.0427796,1714,610,0.131923,0.205495
497,414,-0.0255127,-0.228455,0.0261941,0.00885525,-0.00374444,0.0269682,0.00808117,-0.203856,0.0159813,0.0441394,1721,610,-0.0254595,0.228433
504,414,0.261719,-0.403687,0.0189963,0.0096931,-0.00266097,0.0197037,0.00898578,-0.259808,0.0113906,0.0431472,1728,610,0.261743,0.403675
511,414,0.624023,-0.589478,0,0,0,0,0,0,0,-1,1735,610,0.624067,0.589489
518,414,0.0952148,0.0591431,0.00780548,0.00853903,-0.000486556,0.00878156,0.00756295,-1.10837,0.00549341,0.0413141,1742,610,0.0952409,-0.0591139
525,414,-0.00256348,-0.128357,0.00372387,0.00753534,0.000234411,0.0075497,0.00370951,1.5096,0.00435904,0.0358421,1749,610,-0.00261999,0.128344
532,414,-0.0289307,-0.090332,0.000379942,0.0064741,0.000801471,0.00657774,0.000276299,1.44219,0.00429603,0.0253134,1756,610,-0.0289006,0.0903141
539,414,-0.0524902,-0.062561,-0.0017468,0.00511079,0.000866997,0.00521871,-0.00185472,1.44696,0.00423499,0.0157899,1763,610,-0.0524343,0.0625819
546,414,-0.0874023,-0.0581665,-0.00263934,0.00392106,0.000738437,0.00400315,-0.00272143,1.46008,0.00390587,0.0111712,1770,610,-0.0873937,0.0581662
553,414,-0.0791016,-0.0518188,-0.00263778,0.0030406,0.000794501,0.00314967,-0.00274685,1.43437,0.003407,0.0104101,1777,610,-0.0790672,0.0518426
560,414,-0.0667725,-0.0330811,-0.00212655,0.00216294,0.000566907,0.0022366,-0.00220021,1.44159,0.00256162,0.0122337,1784,610,-0.0667521,0.0330986
567,414,-0.0570068,0.0180054,-0.00133602,0.00178421,0.000472879,0.0018543,-0.00140611,1.42364,0.00188832,0.0218778,1791,610,-0.0569516,-0.0180291
574,414,-0.0734863,0.019043,-0.000663201,0.00171605,0.000810306,0.0019658,-0.000912952,1.27182,0.0016987,0.0204114,1798,610,-0.0734758,-0.0190402
581,414,-0.0743408,-0.0105591,-0.000570751,0.00228092,0.00114604,0.00268441,-0.000974236,1.23228,0.00218789,0.0149548,1805,610,-0.0743941,0.0105793
588,414,-0.0792236,-0.0560913,-0.000594985,0.00288635,0.00113793,0.0032253,-0.000933936,1.2813,0.00251988,0.0144668,1812,610,-0.0792126,0.0560874
595,414,-0.0650635,-0.0222778,-0.000257232,0.00389635,0.00100159,0.00412525,-0.000486138,1.34611,0.00292571,0.019394,1819,610,-0.0650577,0.0223046
602,414,-0.045166,-0.015564,8.18602e-05,0.00511885,0.000964927,0.00529737,-9.66622e-05,1.38785,0.00356424,0.0207419,1826,610,-0.045175,0.0155872
609,414,-0.0488281,-0.0436401,0.000204596,0.00668846,0.000755119,0.00677524,0.000117816,1.45638,0.00447807,0.0112135,1833,610,-0.0487816,0.0436458
616,414,-0.0349121,-0.0174561,0.000260847,0.00842294,0.000276041,0.00843227,0.000251523,1.53703,0.00553957,0.0163401,1840,610,-0.034894,0.017449
623,414,-0.00244141,-0.0117798,0.00025552,0.0107189,-0.000516471,0.0107443,0.000230088,-1.5216,0.00708742,0.0268187,1847,610,-0.00242188,0.0117667
630,414,0.115967,-0.167847,0.000790867,0.0132511,-0.00153876,0.0134383,0.000603651,-1.44973,0.00876456,0.0367264,1854,610,0.115913,0.167838
637,414,0.098999,-0.214355,0.0018852,0.0162586,-0.00272946,0.0167595,0.00138434,-1.38931,0.0107413,0.0435473,1861,610,0.0989664,0.214337
644,414,0.0065918,-0.0769043,0.0032931,0.0194592,-0.00425784,0.0205121,0.00224024,-1.32838,0.0129925,0.0433204,1868,610,0.00657439,0.0769147
651,414,-0.101685,0.062439,0.00552545,0.0232265,-0.00572091,0.0249145,0.00383745,-1.28388,0.0154898,0.0412819,1875,610,-0.101688,-0.0624601
658,414,-0.31189,-0.031311,0,0,0,0,0,0,0,-1,1882,610,-0.31188,0.0313047
665,414,0,0,0,0,0,0,0,0,0,-1,1889,610,0,0
672,414,0,0,0,0,0,0,0,0,0,-1,1896,610,0,0
679,414,0,0,0,0,0,0,0,0,0,-1,1903,610,0,0
686,414,0,0,0,0,0,0,0,0,0,-1,1910,610,0,0
693,414,0,0,0,0,0,0,0,0,0,-1,1917,610,0,0
700,414,0,0,0,0,0,0,0,0,0,-1,1924,610,0,0
707,414,0,0,0,0,0,0,0,0,0,-1,1931,610,0,0
714,414,0,0,0,0,0,0,0,0,0,-1,1938,610,0,0
721,414,0,0,0,0,0,0,0,0,0,-1,1945,610,0,0
728,414,0,0,0,0,0,0,0,0,0,-1,1952,610,0,0
735,414,0,0,0,0,0,0,0,0,0,-1,1959,610,0,0
742,414,0,0,0,0,0,0,0,0,0,-1,1966,610,0,0
749,414,0,0,0,0,0,0,0,0,0,-1,1973,610,0,0
756,414,0,0,0,0,0,0,0,0,0,-1,1980,610,0,0
763,414,0,0,0,0,0,0,0,0,0,-1,1987,610,0,0
770,414,0,0,0,0,0,0,0,0,0,-1,1994,610,0,0
777,414,0,0,0,0,0,0,0,0,0,-1,2001,610,0,0
784,414,0,0,0,0,0,0,0,0,0,-1,2008,610,0,0
791,414,0,0,0,0,0,0,0,0,0,-1,2015,610,0,0
798,414,0,0,0,0,0,0,0,0,0,-1,2022,610,0,0
805,414,0,0,0,0,0,0,0,0,0,-1,2029,610,0,0
812,414,0,0,0,0,0,0,0,0,0,-1,2036,610,0,0
-700,407,0,0,0,0,0,0,0,0,0,-1,524,617,0,0
-693,407,0,0,0,0,0,0,0,0,0,-1,531,617,0,0
-686,407,0,0,0,0,0,0,0,0,0,-1,538,617,0,0
-679,407,0,0,0,0,0,0,0,0,0,-1,545,617,0,0
-672,407,0,0,0,0,0,0,0,0,0,-1,552,617,0,0
-665,407,0,0,0,0,0,0,0,0,0,-1,559,617,0,0
-658,407,0,0,0,0,0,0,0,0,0,-1,566,617,0,0
-651,407,0,0,0,0,0,0,0,0,0,-1,573,617,0,0
-644,407,0,0,0,0,0,0,0,0,0,-1,580,617,0,0
-637,407,0,0,0,0,0,0,0,0,0,-1,587,617,0,0
-630,407,0,0,0,0,0,0,0,0,0,-1,594,617,0,0
-623,407,0,0,0,0,0,0,0,0,0,-1,601,617,0,0
-616,407,0,0,0,0,0,0,0,0,0,-1,608,617,0,0
-609,407,0,0,0,0,0,0,0,0,0,-1,615,617,0,0
-602,407,0,0,0,0,0,0,0,0,0,-1,622,617,0,0
-595,407,0,0,0,0,0,0,0,0,0,-1,629,617,0,0
-588,407,0,0,0,0,0,0,0,0,0,-1,636,617,0,0
-581,407,0,0,0,0,0,0,0,0,0,-1,643,617,0,0
-574,407,0,0,0,0,0,0,0,0,0,-1,650,617,0,0
-567,407,0,0,0,0,0,0,0,0,0,-1,657,617,0,0
-560,407,0,0,0,0,0,0,0,0,0,-1,664,617,0,0
-553,407,0,0,0,0,0,0,0,0,0,-1,671,617,0,0
-546,407,1.28912,0.662842,-0.0328741,0.0649651,0.0384288,0.078254,-0.046163,1.23786,0.0726243,0.0480604,678,617,1.28915,-0.662816
-539,407,1.03082,0.325806,-0.0274062,0.0648103,0.0349563,0.0765631,-0.0391591,1.24645,0.0679657,0.0445731,685,617,1.03084,-0.325832
-532,407,0.700623,-0.278625,0,0,0,0,0,0,0,-1,692,617,0.70063,0.278637
-525,407,0.254578,0.292053,-0.018846,0.0564475,0.0279526,0.0656902,-0.0280888,1.25146,0.0555752,0.0442759,699,617,0.254594,-0.292049
-518,407,0.302063,0.22644,-0.015689,0.0503743,0.0245189,0.0584798,-0.0237946,1.25152,0.0488879,0.0466739,706,617,0.302053,-0.226425
-511,407,0.306519,0.20282,0,0,0,0,0,0,0,-1,713,617,0.306497,-0.202842
-504,407,0.0165405,0.0452881,0,0,0,0,0,0,0,-1,720,617,0.0165478,-0.0453006
-497,407,-0.299377,-0.212952,-0.0084161,0.0302119,0.0142196,0.0348818,-0.013086,1.25348,0.0286314,0.0340469,727,617,-0.299384,0.212979
-490,407,-0.0935059,-0.0691528,-0.00612954,0.0245836,0.0112119,0.028241,-0.00978696,1.25547,0.0228009,0.0175643,734,617,-0.09353,0.0691668
-483,407,-0.0739136,-0.0396729,-0.00418592,0.0192829,0.00829271,0.0219174,-0.00682042,1.26319,0.0173381,0.00952098,741,617,-0.073942,0.039677
-476,407,-0.0713501,-0.0339966,-0.00355764,0.0142292,0.00596759,0.0160458,-0.00537427,1.27529,0.0128683,0.00857325,748,617,-0.0713785,0.0339904
-469,407,-0.0623169,-0.0142822,-0.00303179,0.00975074,0.00400702,0.010903,-0.00418403,1.2908,0.00899381,0.0119097,755,617,-0.0623006,0.0142785
-462,407,-0.0825806,-0.0269775,-0.00169541,0.00647109,0.0022756,0.00706238,-0.0022867,1.31658,0.00562754,0.017723,762,617,-0.0825555,0.0269639
-455,407,-0.0836182,-0.0553589,-0.000705191,0.00422488,0.00113034,0.00447168,-0.000951994,1.35583,0.00334393,0.0185751,769,617,-0.0835957,0.0553619
-448,407,-0.0734253,-0.0594482,-0.00023524,0.00252954,0.00062313,0.00266349,-0.000369192,1.35905,0.00191065,0.0177198,776,617,-0.0734526,0.0594632
-441,407,-0.0735474,-0.0408936,-0.000250152,0.000660888,0.000147472,0.000684165,-0.000273429,1.41425,0.000569568,0.0139723,783,617,-0.073542,0.040889
-434,407,-0.0710449,-0.0352173,-0.000458754,-0.000503095,0.000208876,-0.000270876,-0.000690974,0.732526,0.000402023,0.00919794,790,617,-0.0710348,0.0352251
-427,407,-0.0551147,-0.0488892,-0.000683804,-0.00147492,0.000687013,-0.000286612,-0.00187211,0.524194,0.00116436,0.00947668,797,617,-0.0550856,0.0489172
-420,407,-0.0496826,-0.0443726,-0.000879563,-0.0014806,0.000855044,-0.000273765,-0.0020864,0.616407,0.00130926,0.0100811,804,617,-0.0496671,0.0443649
-413,407,-0.0462036,-0.0354004,-0.00104967,-0.00130632,0.00145567,0.000283315,-0.00263931,0.741434,0.00186118,0.00958637,811,617,-0.0462309,0.0353816
-406,407,-0.0626831,-0.0402222,-0.00112035,-0.000719225,0.00241139,0.00149993,-0.00333951,0.826889,0.00286054,0.0160591,818,617,-0.0627088,0.0402293
-399,407,-0.995178,-0.80957,0,0,0,0,0,0,0,-1,825,617,-0.995153,0.809548
-392,407,-1.20197,-0.841248,0,0,0,0,0,0,0,-1,832,617,-1.20196,0.841249
-385,407,-1.21094,-0.630371,0,0,0,0,0,0,0,-1,839,617,-1.21095,0.630377
-378,407,-1.07172,-0.152649,0,0,0,0,0,0,0,-1,846,617,-1.07171,0.152655
-371,407,-0.738708,0.0811768,0.00126768,0.00698139,0.00678321,0.0114848,-0.00323573,0.984707,0.00893265,0.0447709,853,617,-0.738704,-0.0811681
-364,407,-0.678101,-0.00787354,0.00207808,0.0105571,0.00738804,0.0148356,-0.00220043,1.04588,0.0106996,0.0416148,860,617,-0.678081,0.00790071
-357,407,-0.524902,0.00604248,0.00272445,0.0176621,0.00676988,0.0202737,0.000112864,1.20262,0.0134783,0.0404764,867,617,-0.524904,-0.00606931
-350,407,-0.209412,0.211182,0.00336403,0.0256575,0.00576429,0.0270597,0.0019618,1.33217,0.0174227,0.0448351,874,617,-0.209416,-0.211187
-343,407,0.095459,0.254578,0.0044408,0.0340861,0.00325838,0.03444,0.00408689,1.4626,0.0217262,0.0455457,881,617,0.0954676,-0.254588
-336,407,0.270691,-0.0233154,0,0,0,0,0,0,0,-1,888,617,0.270672,0.0232872
-329,407,0.409058,0.00653076,0,0,0,0,0,0,0,-1,895,617,0.409044,-0.00650806
-322,407,0,0,0,0,0,0,0,0,0,-1,902,617,0,0
-315,407,0,0,0,0,0,0,0,0,0,-1,909,617,0,0
-308,407,0,0,0,0,0,0,0,0,0,-1,916,617,0,0
-301,407,0,0,0,0,0,0,0,0,0,-1,923,617,0,0
-294,407,0,0,0,0,0,0,0,0,0,-1,930,617,0,0
-287,407,0,0,0,0,0,0,0,0,0,-1,937,617,0,0
-280,407,0,0,0,0,0,0,0,0,0,-1,944,617,0,0
-273,407,0,0,0,0,0,0,0,0,0,-1,951,617,0,0
-266,407,0,0,0,0,0,0,0,0,0,-1,958,617,0,0
-259,407,0,0,0,0,0,0,0,0,0,-1,965,617,0,0
-252,407,0,0,0,0,0,0,0,0,0,-1,972,617,0,0
-245,407,0,0,0,0,0,0,0,0,0,-1,979,617,0,0
-238,407,0,0,0,0,0,0,0,0,0,-1,986,617,0,0
-231,407,0,0,0,0,0,0,0,0,0,-1,993,617,0,0
-224,407,0,0,0,0,0,0,0,0,0,-1,1000,617,0,0
-217,407,0,0,0,0,0,0,0,0,0,-1,1007,617,0,0
-210,407,0,0,0,0,0,0,0,0,0,-1,1014,617,0,0
-203,407,0,0,0,0,0,0,0,0,0,-1,1021,617,0,0
-196,407,0,0,0,0,0,0,0,0,0,-1,1028,617,0,0
-189,407,0,0,0,0,0,0,0,0,0,-1,1035,617,0,0
-182,407,0,0,0,0,0,0,0,0,0,-1,1042,617,0,0
-175,407,0,0,0,0,0,0,0,0,0,-1,1049,617,0,0
-168,407,0,0,0,0,0,0,0,0,0,-1,1056,617,0,0
-161,407,0,0,0,0,0,0,0,0,0,-1,1063,617,0,0
-154,407,0,0,0,0,0,0,0,0,0,-1,1070,617,0,0
-147,407,0,0,0,0,0,0,0,0,0,-1,1077,617,0,0
-140,407,0,0,0,0,0,0,0,0,0,-1,1084,617,0,0
-133,407,0,0,0,0,0,0,0,0,0,-1,1091,617,0,0
-126,407,0,0,0,0,0,0,0,0,0,-1,1098,617,0,0
-119,407,0,0,0,0,0,0,0,0,0,-1,1105,617,0,0
-112,407,0,0,0,0,0,0,0,0,0,-1,1112,617,0,0
-105,407,0,0,0,0,0,0,0,0,0,-1,1119,617,0,0
-98,407,0,0,0,0,0,0,0,0,0,-1,1126,617,0,0
-91,407,0,0,0,0,0,0,0,0,0,-1,1133,617,0,0
-84,407,0,0,0,0,0,0,0,0,0,-1,1140,617,0,0
-77,407,0,0,0,0,0,0,0,0,0,-1,1147,617,0,0
-70,407,0,0,0,0,0,0,0,0,0,-1,1154,617,0,0
-63,407,0,0,0,0,0,0,0,0,0,-1,1161,617,0,0
-56,407,0,0,0,0,0,0,0,0,0,-1,1168,617,0,0
-49,407,0,0,0,0,0,0,0,0,0,-1,1175,617,0,0
-42,407,0,0,0,0,0,0,0,0,0,-1,1182,617,0,0
-35,407,0,0,0,0,0,0,0,0,0,-1,1189,617,0,0
-28,407,0,0,0,0,0,0,0,0,0,-1,1196,617,0,0
-21,407,0,0,0,0,0,0,0,0,0,-1,1203,617,0,0
-14,407,0,0,0,0,0,0,0,0,0,-1,1210,617,0,0
-7,407,0,0,0,0,0,0,0,0,0,-1,1217,617,0,0
0,407,0,0,0,0,0,0,0,0,0,-1,1224,617,0,0
7,407,0,0,0,0,0,0,0,0,0,-1,1231,617,0,0
14,407,0,0,0,0,0,0,0,0,0,-1,1238,617,0,0
21,407,0,0,0,0,0,0,0,0,0,-1,1245,617,0,0
28,407,0,0,0,0,0,0,0,0,0,-1,1252,617,0,0
35,407,0,0,0,0,0,0,0,0,0,-1,1259,617,0,0
42,407,0,0,0,0,0,0,0,0,0,-1,1266,617,0,0
49,407,0,0,0,0,0,0,0,0,0,-1,1273,617,0,0
56,407,0,0,0,0,0,0,0,0,0,-1,1280,617,0,0
63,407,0,0,0,0,0,0,0,0,0,-1,1287,617,0,0
70,407,0,0,0,0,0,0,0,0,0,-1,1294,617,0,0
77,407,0,0,0,0,0,0,0,0,0,-1,1301,617,0,0
84,407,0,0,0,0,0,0,0,0,0,-1,1308,617,0,0
91,407,0,0,0,0,0,0,0,0,0,-1,1315,617,0,0
98,407,0,0,0,0,0,0,0,0,0,-1,1322,617,0,0
105,407,0,0,0,0,0,0,0,0,0,-1,1329,617,0,0
112,407,0,0,0,0,0,0,0,0,0,-1,1336,617,0,0
119,407,0,0,0,0,0,0,0,0,0,-1,1343,617,0,0
126,407,0,0,0,0,0,0,0,0,0,-1,1350,617,0,0
133,407,0,0,0,0,0,0,0,0,0,-1,1357,617,0,0
140,407,0,0,0,0,0,0,0,0,0,-1,1364,617,0,0
147,407,0,0,0,0,0,0,0,0,0,-1,1371,617,0,0
154,407,0,0,0,0,0,0,0,0,0,-1,1378,617,0,0
161,407,0,0,0,0,0,0,0,0,0,-1,1385,617,0,0
168,407,0,0,0,0,0,0,0,0,0,-1,1392,617,0,0
175,407,0,0,0,0,0,0,0,0,0,-1,1399,617,0,0
182,407,0,0,0,0,0,0,0,0,0,-1,1406,617,0,0
189,407,0,0,0,0,0,0,0,0,0,-1,1413,617,0,0
196,407,0,0,0,0,0,0,0,0,0,-1,1420,617,0,0
203,407,0,0,0,0,0,0,0,0,0,-1,1427,617,0,0
210,407,0,0,0,0,0,0,0,0,0,-1,1434,617,0,0
217,407,0,0,0,0,0,0,0,0,0,-1,1441,617,0,0
224,407,0,0,0,0,0,0,0,0,0,-1,1448,617,0,0
231,407,0,0,0,0,0,0,0,0,0,-1,1455,617,0,0
238,407,0,0,0,0,0,0,0,0,0,-1,1462,617,0,0
245,407,0,0,0,0,0,0,0,0,0,-1,1469,617,0,0
252,407,0,0,0,0,0,0,0,0,0,-1,1476,617,0,0
259,407,0,0,0,0,0,0,0,0,0,-1,1483,617,0,0
266,407,0,0,0,0,0,0,0,0,0,-1,1490,617,0,0
273,407,0,0,0,0,0,0,0,0,0,-1,1497,617,0,0
280,407,0,0,0,0,0,0,0,0,0,-1,1504,617,0,0
287,407,0,0,0,0,0,0,0,0,0,-1,1511,617,0,0
294,407,0,0,0,0,0,0,0,0,0,-1,1518,617,0,0
301,407,0,0,0,0,0,0,0,0,0,-1,1525,617,0,0
308,407,0,0,0,0,0,0,0,0,0,-1,1532,617,0,0
315,407,0,0,0,0,0,0,0,0,0,-1,1539,617,0,0
322,407,0,0,0,0,0,0,0,0,0,-1,1546,617,0,0
329,407,0,0,0,0,0,0,0,0,0,-1,1553,617,0,0
336,407,0,0,0,0,0,0,0,0,0,-1,1560,617,0,0
343,407,0,0,0,0,0,0,0,0,0,-1,1567,617,0,0
350,407,0,0,0,0,0,0,0,0,0,-1,1574,617,0,0
357,407,0,0,0,0,0,0,0,0,0,-1,1581,617,0,0
364,407,0,0,0,0,0,0,0,0,0,-1,1588,617,0,0
371,407,0,0,0,0,0,0,0,0,0,-1,1595,617,0,0
378,407,0,0,0,0,0,0,0,0,0,-1,1602,617,0,0
385,407,0,0,0,0,0,0,0,0,0,-1,1609,617,0,0
392,407,0,0,0,0,0,0,0,0,0,-1,1616,617,0,0
399,407,0,0,0,0,0,0,0,0,0,-1,1623,617,0,0
406,407,0,0,0,0,0,0,0,0,0,-1,1630,617,0,0
413,407,0,0,0,0,0,0,0,0,0,-1,1637,617,0,0
420,407,0,0,0,0,0,0,0,0,0,-1,1644,617,0,0
427,407,0,0,0,0,0,0,0,0,0,-1,1651,617,0,0
434,407,0,0,0,0,0,0,0,0,0,-1,1658,617,0,0
441,407,0,0,0,0,0,0,0,0,0,-1,1665,617,0,0
448,407,-1.01355,0.166199,0,0,0,0,0,0,0,-1,1672,617,-1.01358,-0.166201
455,407,-1.60791,0.625671,0,0,0,0,0,0,0,-1,1679,617,-1.60785,-0.62568
462,407,-1.87842,1.24725,0,0,0,0,0,0,0,-1,1686,617,-1.87841,-1.24726
469,407,-1.41931,-0.456604,0,0,0,0,0,0,0,-1,1693,617,-1.41927,0.456624
476,407,-0.930664,-0.448914,0.0454277,0.00589463,-0.00316029,0.0456787,0.00564359,-0.0792697,0.0287565,0.0493047,1700,617,-0.930715,0.448916
483,407,-0.459961,-0.333191,0.0449078,0.00670139,-0.00483079,0.0455091,0.00610005,-0.123843,0.0285243,0.0457053,1707,617,-0.459997,0.333204
490,407,-0.118896,-0.326294,0.0390311,0.00836372,-0.00412663,0.0395766,0.00781814,-0.131447,0.024203,0.0423229,1714,617,-0.118906,0.3263
497,407,0.226074,-0.370056,0.030508,0.00972218,-0.00274271,0.0308638,0.00936637,-0.12901,0.0182723,0.0413476,1721,617,0.22602,0.370058
504,407,0.614502,-0.661377,0,0,0,0,0,0,0,-1,1728,617,0.614556,0.661387
511,407,0.541992,-0.145447,0.0147405,0.0101895,-0.000133399,0.0147444,0.0101856,-0.0292782,0.00871687,0.0425305,1735,617,0.542051,0.145453
518,407,0.274536,-0.0567627,0.00906604,0.00938562,0.000652261,0.00989738,0.00855428,0.905524,0.00619924,0.0433982,1742,617,0.274551,0.0567566
525,407,-0.0125732,-0.105835,0.00431995,0.0084086,0.00127771,0.00877505,0.0039535,1.29149,0.00507453,0.0443122,1749,617,-0.012634,0.105821
532,407,-0.0460205,-0.0848999,0.000560338,0.00726128,0.001722,0.0076779,0.000143724,1.33342,0.00507137,0.0344338,1756,617,-0.0459733,0.0848896
539,407,-0.0333252,-0.0614624,-0.00187634,0.00583994,0.0015765,0.00614961,-0.00218601,1.37684,0.00499063,0.0171814,1763,617,-0.0332646,0.0614922
546,407,-0.0788574,-0.0507202,-0.00301078,0.0045101,0.00122628,0.004705,-0.00320568,1.41318,0.00459449,0.0101781,1770,617,-0.0789183,0.0507452
553,407,-0.0731201,-0.0322876,-0.00316698,0.00359443,0.00116054,0.00378808,-0.00336063,1.40546,0.00412977,0.0119521,1777,617,-0.0731479,0.0322978
560,407,-0.0543213,-0.00604248,-0.0026049,0.00259619,0.000810042,0.00271943,-0.00272814,1.41981,0.00314516,0.0131609,1784,617,-0.0542645,0.00602093
567,407,-0.0705566,0.0145874,-0.00180068,0.00208777,0.000549286,0.00216388,-0.00187679,1.43312,0.00233484,0.0248041,1791,617,-0.0705589,-0.0145801
574,407,-0.0595703,-0.0333862,-0.00108717,0.00186925,0.000729767,0.00203957,-0.0012575,1.34151,0.00192133,0.0234392,1798,617,-0.0595499,0.0333746
581,407,-0.0689697,-0.0140991,-0.000915187,0.00219998,0.000952584,0.00246818,-0.00118339,1.29635,0.00215129,0.0152378,1805,617,-0.068965,0.0141133
588,407,-0.0788574,-0.0519409,-0.000859737,0.00263025,0.000866936,0.00283374,-0.00106322,1.34025,0.00232603,0.00893676,1812,617,-0.0789011,0.0519402
595,407,-0.0500488,-0.0407104,-0.000438623,0.00339099,0.000670547,0.00350501,-0.000552638,1.40237,0.00254099,0.0159432,1819,617,-0.0500942,0.0407044
602,407,-0.0368652,-0.0444336,1.34265e-05,0.00431081,0.000562665,0.00438326,-5.9023e-05,1.44274,0.00294204,0.015627,1826,617,-0.0368138,0.0444554
609,407,-0.0577393,-0.0391846,0.000253606,0.00548964,0.000293294,0.00550601,0.000237228,1.51501,0.00359421,0.0109153,1833,617,-0.0577957,0.0391654
616,407,-0.05896,-0.0247803,0.00040115,0.00678781,-0.000246371,0.0067973,0.00039166,-1.5323,0.00440678,0.0115592,1840,617,-0.0589718,0.0247654
623,407,-0.0368652,-0.0449829,0.000487296,0.00859773,-0.0010388,0.00872867,0.000356359,-1.44541,0.00570404,0.0179693,1847,617,-0.0368116,0.0449746
630,407,0.0336914,-0.134888,0.0012438,0.0107132,-0.00194164,0.0110959,0.00086114,-1.37621,0.00712757,0.0322493,1854,617,0.0336719,0.134874
637,407,0.0784912,-0.218323,0.0026706,0.0133722,-0.00280541,0.0140631,0.00197976,-1.32935,0.00879009,0.0449808,1861,617,0.0785175,0.218327
644,407,0.114624,-0.258606,0,0,0,0,0,0,0,-1,1868,617,0.114651,0.258584
651,407,-0.529175,-0.18927,0,0,0,0,0,0,0,-1,1875,617,-0.529177,0.189256
658,407,-0.389038,-0.165283,0,0,0,0,0,0,0,-1,1882,617,-0.38906,0.165302
665,407,-0.237061,-0.68573,0,0,0,0,0,0,0,-1,1889,617,-0.237037,0.685731
672,407,0,0,0,0,0,0,0,0,0,-1,1896,617,0,0
679,407,0,0,0,0,0,0,0,0,0,-1,1903,617,0,0
686,407,0,0,0,0,0,0,0,0,0,-1,1910,617,0,0
693,407,0,0,0,0,0,0,0,0,0,-1,1917,617,0,0
700,407,0,0,0,0,0,0,0,0,0,-1,1924,617,0,0
707,407,0,0,0,0,0,0,0,0,0,-1,1931,617,0,0
714,407,0,0,0,0,0,0,0,0,0,-1,1938,617,0,0
721,407,0,0,0,0,0,0,0,0,0,-1,1945,617,0,0
728,407,0,0,0,0,0,0,0,0,0,-1,1952,617,0,0
735,407,0,0,0,0,0,0,0,0,0,-1,1959,617,0,0
742,407,0,0,0,0,0,0,0,0,0,-1,1966,617,0,0
749,407,0,0,0,0,0,0,0,0,0,-1,1973,617,0,0
756,407,0,0,0,0,0,0,0,0,0,-1,1980,617,0,0
763,407,0,0,0,0,0,0,0,0,0,-1,1987,617,0,0
770,407,0,0,0,0,0,0,0,0,0,-1,1994,617,0,0
777,407,0,0,0,0,0,0,0,0,0,-1,2001,617,0,0
784,407,0,0,0,0,0,0,0,0,0,-1,2008,617,0,0
791,407,0,0,0,0,0,0,0,0,0,-1,2015,617,0,0
798,407,0,0,0,0,0,0,0,0,0,-1,2022,617,0,0
805,407,0,0,0,0,0,0,0,0,0,-1,2029,617,0,0
812,407,0,0,0,0,0,0,0,0,0,-1,2036,617,0,0
-700,400,0,0,0,0,0,0,0,0,0,-1,524,624,0,0
-693,400,0,0,0,0,0,0,0,0,0,-1,531,624,0,0
-686,400,0,0,0,0,0,0,0,0,0,-1,538,624,0,0
-679,400,0,0,0,0,0,0,0,0,0,-1,545,624,0,0
-672,400,0,0,0,0,0,0,0,0,0,-1,552,624,0,0
-665,400,0,0,0,0,0,0,0,0,0,-1,559,624,0,0
-658,400,0,0,0,0,0,0,0,0,0,-1,566,624,0,0
-651,400,0,0,0,0,0,0,0,0,0,-1,573,624,0,0
-644,400,0,0,0,0,0,0,0,0,0,-1,580,624,0,0
-637,400,0,0,0,0,0,0,0,0,0,-1,587,624,0,0
-630,400,0,0,0,0,0,0,0,0,0,-1,594,624,0,0
-623,400,0,0,0,0,0,0,0,0,0,-1,601,624,0,0
-616,400,0,0,0,0,0,0,0,0,0,-1,608,624,0,0
-609,400,0,0,0,0,0,0,0,0,0,-1,615,624,0,0
-602,400,0,0,0,0,0,0,0,0,0,-1,622,624,0,0
-595,400,0,0,0,0,0,0,0,0,0,-1,629,624,0,0
-588,400,0,0,0,0,0,0,0,0,0,-1,636,624,0,0
-581,400,0,0,0,0,0,0,0,0,0,-1,643,624,0,0
-574,400,0,0,0,0,0,0,0,0,0,-1,650,624,0,0
-567,400,0,0,0,0,0,0,0,0,0,-1,657,624,0,0
-560,400,0,0,0,0,0,0,0,0,0,-1,664,624,0,0
-553,400,0,0,0,0,0,0,0,0,0,-1,671,624,0,0
-546,400,0.788452,0.618774,-0.027348,0.0445896,0.0344361,0.0584164,-0.0411748,1.18898,0.0577855,0.0452835,678,624,0.788481,-0.618773
-539,400,0.181641,0.401367,-0.0220044,0.0466623,0.029543,0.0576231,-0.0329653,1.21552,0.0529432,0.0434476,685,624,0.181623,-0.401393
-532,400,-0.558167,0.965088,-0.0176948,0.0455325,0.0256029,0.0545997,-0.026762,1.23043,0.0478819,0.0454493,692,624,-0.558194,-0.96509
-525,400,0.197876,-0.249451,-0.0142923,0.0428955,0.0219318,0.0503379,-0.0217347,1.24365,0.0426895,0.0445392,699,624,0.197851,0.249463
-518,400,0.213501,-0.0619507,-0.0116356,0.0388683,0.0188683,0.0451389,-0.0179062,1.24994,0.037514,0.0440536,706,624,0.213527,0.0619586
-511,400,0.179443,-0.153931,-0.00936192,0.0341771,0.0159713,0.0394075,-0.0145923,1.25432,0.0322555,0.0474591,713,624,0.179454,0.153945
-504,400,-0.00445557,0.0111084,-0.0074095,0.0287901,0.0133124,0.0331585,-0.0117779,1.25372,0.0269052,0.0437984,720,624,-0.0044842,-0.0110836
-497,400,-0.105103,-0.0559082,-0.00593292,0.0236498,0.010844,0.0271991,-0.00948216,1.25449,0.0219859,0.02704,727,624,-0.105125,0.055879
-490,400,-0.0838623,-0.0480347,-0.00413824,0.0192385,0.00859008,0.0220555,-0.00695531,1.2539,0.0174894,0.013093,734,624,-0.0838591,0.0480642
-483,400,-0.0752563,-0.0136719,-0.00262464,0.0150029,0.00637518,0.0170669,-0.00468862,1.25769,0.0132209,0.0128262,741,624,-0.0752605,0.0136679
-476,400,-0.0758667,-0.0219116,-0.00258009,0.0109282,0.00470203,0.0124038,-0.00405562,1.26672,0.00990188,0.012617,748,624,-0.0758401,0.0219082
-469,400,-0.0980835,-0.0228271,-0.00267294,0.00743304,0.00330183,0.00841618,-0.00365607,1.2814,0.00714824,0.0144079,755,624,-0.0980664,0.0228353
-462,400,-0.0860596,-0.0177002,-0.00179246,0.00491558,0.00204105,0.00548779,-0.00236468,1.29746,0.00465161,0.0177336,762,624,-0.0860645,0.0176717
-455,400,-0.0730591,-0.0186157,-0.0012871,0.00323277,0.00125669,0.00355868,-0.00161301,1.31705,0.0030555,0.0182044,769,624,-0.0730654,0.0186042
-448,400,-0.0615234,-0.0463867,-0.0013537,0.00209866,0.00103815,0.0023868,-0.00164183,1.30007,0.00233914,0.0148109,776,624,-0.0614937,0.0463578
-441,400,-0.071167,-0.0292969,-0.00191824,0.00061054,0.000708956,0.000795736,-0.00210344,1.31528,0.00172967,0.0138096,783,624,-0.0711709,0.0293158
-434,400,-0.0812988,-0.0144043,-0.0026318,-0.00020102,0.000878548,8.32636e-05,-0.00291608,1.25785,0.0019724,0.0109409,790,624,-0.0813072,0.0143883
-427,400,-0.06604,-0.0303345,-0.00336167,-0.000886311,0.00133923,-0.000300427,-0.00394756,1.1584,0.0025375,0.00973627,797,624,-0.0660679,0.0303522
-420,400,-0.050415,-0.0401611,-0.00393949,-0.000592354,0.00144327,-5.59748e-05,-0.00447587,1.21497,0.00296543,0.00903918,804,624,-0.0503877,0.0401418
-413,400,-0.0330811,-0.0478516,-0.00442482,-0.000120853,0.00198432,0.000654374,-0.00520005,1.19835,0.00370414,0.0158474,811,624,-0.0330599,0.0478444
-406,400,-0.156189,-0.0438843,-0.0047155,0.000801261,0.00290895,0.0020517,-0.00596594,1.16482,0.00480936,0.0278881,818,624,-0.15616,0.0438862
-399,400,-0.302185,-0.00561523,-0.00457104,0.00144012,0.00379193,0.00327316,-0.00640408,1.12051,0.0056838,0.0411959,825,624,-0.30221,0.00563594
-392,400,-2.11829,-1.56305,0,0,0,0,0,0,0,-1,832,624,-2.11827,1.56304
-385,400,-2.2749,-1.28711,0,0,0,0,0,0,0,-1,839,624,-2.27492,1.28712
-378,400,-0.674744,-0.201477,0,0,0,0,0,0,0,-1,846,624,-0.674755,0.201479
-371,400,-0.412964,-0.0807495,-0.0015518,0.00959204,0.00734558,0.0132399,-0.00519963,1.10987,0.0109782,0.043155,853,624,-0.412946,0.0807226
-364,400,-0.311584,0.0300293,-2.3078e-05,0.0130251,0.00824242,0.0170129,-0.00401096,1.12017,0.0128887,0.0413706,860,624,-0.311576,-0.0300175
-357,400,-0.503052,0.0300293,0.000809626,0.0198722,0.00793233,0.0227412,-0.00205938,1.22375,0.0158918,0.0427372,867,624,-0.50307,-0.0300357
-350,400,-0.44989,0.227295,0.00187367,0.0275122,0.00734938,0.0294695,-8.36281e-05,1.31052,0.0196743,0.0451844,874,624,-0.449915,-0.227276
-343,400,-0.388794,0.0872803,0.00371645,0.0361322,0.00519089,0.0369432,0.0029055,1.41582,0.0237197,0.0455676,881,624,-0.38882,-0.0872611
-336,400,0,0,0,0,0,0,0,0,0,-1,888,624,0,0
-329,400,0,0,0,0,0,0,0,0,0,-1,895,624,0,0
-322,400,0,0,0,0,0,0,0,0,0,-1,902,624,0,0
-315,400,0,0,0,0,0,0,0,0,0,-1,909,624,0,0
-308,400,0,0,0,0,0,0,0,0,0,-1,916,624,0,0
-301,400,0,0,0,0,0,0,0,0,0,-1,923,624,0,0
-294,400,0,0,0,0,0,0,0,0,0,-1,930,624,0,0
-287,400,0,0,0,0,0,0,0,0,0,-1,937,624,0,0
-280,400,0,0,0,0,0,0,0,0,0,-1,944,624,0,0
-273,400,0,0,0,0,0,0,0,0,0,-1,951,624,0,0
-266,400,0,0,0,0,0,0,0,0,0,-1,958,624,0,0
-259,400,0,0,0,0,0,0,0,0,0,-1,965,624,0,0
-252,400,0,0,0,0,0,0,0,0,0,-1,972,624,0,0
-245,400,0,0,0,0,0,0,0,0,0,-1,979,624,0,0
-238,400,0,0,0,0,0,0,0,0,0,-1,986,624,0,0
-231,400,0,0,0,0,0,0,0,0,0,-1,993,624,0,0
-224,400,0,0,0,0,0,0,0,0,0,-1,1000,624,0,0
-217,400,0,0,0,0,0,0,0,0,0,-1,1007,624,0,0
-210,400,0,0,0,0,0,0,0,0,0,-1,1014,624,0,0
-203,400,0,0,0,0,0,0,0,0,0,-1,1021,624,0,0
-196,400,0,0,0,0,0,0,0,0,0,-1,1028,624,0,0
-189,400,0,0,0,0,0,0,0,0,0,-1,1035,624,0,0
-182,400,0,0,0,0,0,0,0,0,0,-1,1042,624,0,0
-175,400,0,0,0,0,0,0,0,0,0,-1,1049,624,0,0
-168,400,0,0,0,0,0,0,0,0,0,-1,1056,624,0,0
-161,400,0,0,0,0,0,0,0,0,0,-1,1063,624,0,0
-154,400,0,0,0,0,0,0,0,0,0,-1,1070,624,0,0
-147,400,0,0,0,0,0,0,0,0,0,-1,1077,624,0,0
-140,400,0,0,0,0,0,0,0,0,0,-1,1084,624,0,0
-133,400,0,0,0,0,0,0,0,0,0,-1,1091,624,0,0
-126,400,0,0,0,0,0,0,0,0,0,-1,1098,624,0,0
-119,400,0,0,0,0,0,0,0,0,0,-1,1105,624,0,0
-112,400,0,0,0,0,0,0,0,0,0,-1,1112,624,0,0
-105,400,0,0,0,0,0,0,0,0,0,-1,1119,624,0,0
-98,400,0,0,0,0,0,0,0,0,0,-1,1126,624,0,0
-91,400,0,0,0,0,0,0,0,0,0,-1,1133,624,0,0
-84,400,0,0,0,0,0,0,0,0,0,-1,1140,624,0,0
-77,400,0,0,0,0,0,0,0,0,0,-1,1147,624,0,0
-70,400,0,0,0,0,0,0,0,0,0,-1,1154,624,0,0
-63,400,0,0,0,0,0,0,0,0,0,-1,1161,624,0,0
-56,400,0,0,0,0,0,0,0,0,0,-1,1168,624,0,0
-49,400,0,0,0,0,0,0,0,0,0,-1,1175,624,0,0
-42,400,0,0,0,0,0,0,0,0,0,-1,1182,624,0,0
-35,400,0,0,0,0,0,0,0,0,0,-1,1189,624,0,0
-28,400,0,0,0,0,0,0,0,0,0,-1,1196,624,0,0
-21,400,0,0,0,0,0,0,0,0,0,-1,1203,624,0,0
-14,400,0,0,0,0,0,0,0,0,0,-1,1210,624,0,0
-7,400,0,0,0,0,0,0,0,0,0,-1,1217,624,0,0
0,400,0,0,0,0,0,0,0,0,0,-1,1224,624,0,0
7,400,0,0,0,0,0,0,0,0,0,-1,1231,624,0,0
14,400,0,0,0,0,0,0,0,0,0,-1,1238,624,0,0
21,400,0,0,0,0,0,0,0,0,0,-1,1245,624,0,0
28,400,0,0,0,0,0,0,0,0,0,-1,1252,624,0,0
35,400,0,0,0,0,0,0,0,0,0,-1,1259,624,0,0
42,400,0,0,0,0,0,0,0,0,0,-1,1266,624,0,0
49,400,0,0,0,0,0,0,0,0,0,-1,1273,624,0,0
56,400,0,0,0,0,0,0,0,0,0,-1,1280,624,0,0
63,400,0,0,0,0,0,0,0,0,0,-1,1287,624,0,0
70,400,0,0,0,0,0,0,0,0,0,-1,1294,624,0,0
77,400,0,0,0,0,0,0,0,0,0,-1,1301,624,0,0
84,400,0,0,0,0,0,0,0,0,0,-1,1308,624,0,0
91,400,0,0,0,0,0,0,0,0,0,-1,1315,624,0,0
98,400,0,0,0,0,0,0,0,0,0,-1,1322,624,0,0
105,400,0,0,0,0,0,0,0,0,0,-1,1329,624,0,0
112,400,0,0,0,0,0,0,0,0,0,-1,1336,624,0,0
119,400,0,0,0,0,0,0,0,0,0,-1,1343,624,0,0
126,400,0,0,0,0,0,0,0,0,0,-1,1350,624,0,0
133,400,0,0,0,0,0,0,0,0,0,-1,1357,624,0,0
140,400,0,0,0,0,0,0,0,0,0,-1,1364,624,0,0
147,400,0,0,0,0,0,0,0,0,0,-1,1371,624,0,0
154,400,0,0,0,0,0,0,0,0,0,-1,1378,624,0,0
161,400,0,0,0,0,0,0,0,0,0,-1,1385,624,0,0
168,400,0,0,0,0,0,0,0,0,0,-1,1392,624,0,0
175,400,0,0,0,0,0,0,0,0,0,-1,1399,624,0,0
182,400,0,0,0,0,0,0,0,0,0,-1,1406,624,0,0
189,400,0,0,0,0,0,0,0,0,0,-1,1413,624,0,0
196,400,0,0,0,0,0,0,0,0,0,-1,1420,624,0,0
203,400,0,0,0,0,0,0,0,0,0,-1,1427,624,0,0
210,400,0,0,0,0,0,0,0,0,0,-1,1434,624,0,0
217,400,0,0,0,0,0,0,0,0,0,-1,1441,624,0,0
224,400,0,0,0,0,0,0,0,0,0,-1,1448,624,0,0
231,400,0,0,0,0,0,0,0,0,0,-1,1455,624,0,0
238,400,0,0,0,0,0,0,0,0,0,-1,1462,624,0,0
245,400,0,0,0,0,0,0,0,0,0,-1,1469,624,0,0
252,400,0,0,0,0,0,0,0,0,0,-1,1476,624,0,0
259,400,0,0,0,0,0,0,0,0,0,-1,1483,624,0,0
266,400,0,0,0,0,0,0,0,0,0,-1,1490,624,0,0
273,400,0,0,0,0,0,0,0,0,0,-1,1497,624,0,0
280,400,0,0,0,0,0,0,0,0,0,-1,1504,624,0,0
287,400,0,0,0,0,0,0,0,0,0,-1,1511,624,0,0
294,400,0,0,0,0,0,0,0,0,0,-1,1518,624,0,0
301,400,0,0,0,0,0,0,0,0,0,-1,1525,624,0,0
308,400,0,0,0,0,0,0,0,0,0,-1,1532,624,0,0
315,400,0,0,0,0,0,0,0,0,0,-1,1539,624,0,0
322,400,0,0,0,0,0,0,0,0,0,-1,1546,624,0,0
329,400,0,0,0,0,0,0,0,0,0,-1,1553,624,0,0
336,400,0,0,0,0,0,0,0,0,0,-1,1560,624,0,0
343,400,0,0,0,0,0,0,0,0,0,-1,1567,624,0,0
350,400,0,0,0,0,0,0,0,0,0,-1,1574,624,0,0
357,400,0,0,0,0,0,0,0,0,0,-1,1581,624,0,0
364,400,0,0,0,0,0,0,0,0,0,-1,1588,624,0,0
371,400,0,0,0,0,0,0,0,0,0,-1,1595,624,0,0
378,400,0,0,0,0,0,0,0,0,0,-1,1602,624,0,0
385,400,0,0,0,0,0,0,0,0,0,-1,1609,624,0,0
392,400,0,0,0,0,0,0,0,0,0,-1,1616,624,0,0
399,400,0,0,0,0,0,0,0,0,0,-1,1623,624,0,0
406,400,0,0,0,0,0,0,0,0,0,-1,1630,624,0,0
413,400,0,0,0,0,0,0,0,0,0,-1,1637,624,0,0
420,400,0,0,0,0,0,0,0,0,0,-1,1644,624,0,0
427,400,0,0,0,0,0,0,0,0,0,-1,1651,624,0,0
434,400,0,0,0,0,0,0,0,0,0,-1,1658,624,0,0
441,400,0,0,0,0,0,0,0,0,0,-1,1665,624,0,0
448,400,0,0,0,0,0,0,0,0,0,-1,1672,624,0,0
455,400,-2.32397,0.53418,0,0,0,0,0,0,0,-1,1679,624,-2.32403,-0.534203
462,400,-2.23877,1.1908,0,0,0,0,0,0,0,-1,1686,624,-2.23882,-1.19079
469,400,-0.953613,-0.552795,0,0,0,0,0,0,0,-1,1693,624,-0.953667,0.552799
476,400,-0.428711,-0.760132,0.0544725,0.00453842,-0.00359024,0.0547293,0.0042816,-0.0714101,0.0351461,0.0446456,1700,624,-0.428656,0.76011
483,400,-0.0948486,-0.836792,0.0524811,0.00644566,-0.00500834,0.0530197,0.00590709,-0.107123,0.0335512,0.0449199,1707,624,-0.0948574,0.836809
490,400,0.115356,-0.688049,0.0448223,0.00866064,-0.00387735,0.0452334,0.00824958,-0.105623,0.0278165,0.0419779,1714,624,0.115349,0.688029
497,400,0.611206,-0.520813,0.034771,0.010199,-0.0022552,0.0349763,0.00999375,-0.0907686,0.0208025,0.0427187,1721,624,0.611231,0.520796
504,400,1.07935,-0.423828,0.0252434,0.0109975,-0.0009636,0.0253083,0.0109326,-0.0672325,0.0146567,0.0466055,1728,624,1.07933,0.423824
511,400,0.218994,-0.294006,0.0171129,0.0106943,0.000155172,0.0171166,0.0106905,0.0241565,0.009984,0.0451967,1735,624,0.218995,0.293989
518,400,0.237183,-0.269226,0.0107379,0.00997214,0.000780638,0.0112245,0.00948555,0.557392,0.00697598,0.0465868,1742,624,0.237163,0.269237
525,400,-0.0386963,-0.069397,0.00539504,0.00907548,0.00129371,0.00948473,0.0049858,1.26442,0.00547841,0.0444864,1749,624,-0.0386924,0.0693907
532,400,-0.0495605,-0.0963745,0.00123235,0.00790314,0.0016478,0.00828798,0.000847521,1.34136,0.0052656,0.0370616,1756,624,-0.0495323,0.0963924
539,400,-0.0612793,-0.0767822,-0.00152836,0.00650879,0.00137062,0.0067361,-0.00175567,1.40645,0.00517618,0.0202317,1763,624,-0.0612341,0.0768111
546,400,-0.0808105,-0.0513916,-0.00295539,0.00508459,0.000906252,0.00518547,-0.00305627,1.45993,0.00481101,0.0108853,1770,624,-0.0807876,0.0514196
553,400,-0.0793457,-0.02948,-0.00331417,0.00414748,0.000856783,0.0042446,-0.00341128,1.45793,0.00442884,0.0103219,1777,624,-0.0793167,0.0295006
560,400,-0.0710449,0.00286865,-0.00284602,0.0030516,0.000533964,0.00309955,-0.00289398,1.48123,0.00346104,0.0120725,1784,624,-0.0710832,-0.00287727
567,400,-0.0498047,-0.0289307,-0.00216239,0.00241764,0.000247819,0.00243101,-0.00217576,1.5169,0.00266108,0.0158872,1791,624,-0.0498501,0.0289307
574,400,-0.043457,-0.0651855,-0.00151985,0.00203798,0.000431224,0.0020895,-0.00157137,1.45189,0.00212065,0.0171121,1798,624,-0.0434089,0.0651572
581,400,-0.0618896,-0.0408325,-0.00132905,0.00211772,0.00065209,0.00223696,-0.00144829,1.38993,0.00214386,0.014242,1805,624,-0.0618731,0.0408054
588,400,-0.0681152,-0.0415039,-0.00126814,0.00234174,0.000556806,0.00242568,-0.00135207,1.42118,0.00221025,0.00904837,1812,624,-0.0681467,0.0414802
595,400,-0.0531006,-0.0346069,-0.000806659,0.00283921,0.000370807,0.00287655,-0.00084399,1.47046,0.00225237,0.00877448,1819,624,-0.0531376,0.0345873
602,400,-0.0506592,-0.026001,-0.000233161,0.0034377,0.000246545,0.00345419,-0.000249645,1.50403,0.00239036,0.0103035,1826,624,-0.0507094,0.0260177
609,400,-0.0808105,-0.0238037,0.000122837,0.00422676,-3.17274e-05,0.00422701,0.000122592,-1.56307,0.00277804,0.0113579,1833,624,-0.0808166,0.0237862
616,400,-0.0892334,-0.0137329,0.000354304,0.00510937,-0.000584997,0.00518028,0.000283391,-1.45017,0.00336304,0.0137854,1840,624,-0.0892476,0.0137252
623,400,-0.0649414,-0.0261841,0.000514389,0.0064555,-0.00133552,0.00674191,0.000227979,-1.35954,0.00442057,0.0175301,1847,624,-0.064884,0.0261987
630,400,-0.0606689,-0.0565796,0.00145104,0.00819056,-0.00208541,0.00878365,0.000857945,-1.29371,0.00559177,0.0225658,1854,624,-0.0606228,0.0565824
637,400,-0.289795,-0.0658569,0.00310479,0.0105523,-0.00266259,0.0114063,0.0022508,-1.26043,0.00697605,0.0416777,1861,624,-0.289827,0.0658804
644,400,-0.436646,-0.144348,0.00495122,0.0131804,-0.00346865,0.0144474,0.00368423,-1.22059,0.00866857,0.0463907,1868,624,-0.436695,0.14437
651,400,-0.274048,-0.139587,0.00758728,0.0166273,-0.00401824,0.0181552,0.00605942,-1.20745,0.0106733,0.0427756,1875,624,-0.274068,0.139571
658,400,-0.168091,-0.0837402,0.0113299,0.0212362,-0.00403263,0.0226702,0.00989593,-1.22914,0.0131238,0.0425855,1882,624,-0.168095,0.0837432
665,400,-0.122559,0.0136719,0.0163776,0.0275539,-0.00313988,0.0283756,0.0155559,-1.31484,0.016408,0.0457684,1889,624,-0.122599,-0.0136522
672,400,0,0,0,0,0,0,0,0,0,-1,1896,624,0,0
679,400,0,0,0,0,0,0,0,0,0,-1,1903,624,0,0
686,400,0,0,0,0,0,0,0,0,0,-1,1910,624,0,0
693,400,0,0,0,0,0,0,0,0,0,-1,1917,624,0,0
700,400,0,0,0,0,0,0,0,0,0,-1,1924,624,0,0
707,400,0,0,0,0,0,0,0,0,0,-1,1931,624,0,0
714,400,0,0,0,0,0,0,0,0,0,-1,1938,624,0,0
721,400,0,0,0,0,0,0,0,0,0,-1,1945,624,0,0
728,400,0,0,0,0,0,0,0,0,0,-1,1952,624,0,0
735,400,0,0,0,0,0,0,0,0,0,-1,1959,624,0,0
742,400,0,0,0,0,0,0,0,0,0,-1,1966,624,0,0
749,400,0,0,0,0,0,0,0,0,0,-1,1973,624,0,0
756,400,0,0,0,0,0,0,0,0,0,-1,1980,624,0,0
763,400,0,0,0,0,0,0,0,0,0,-1,1987,624,0,0
770,400,0,0,0,0,0,0,0,0,0,-1,1994,624,0,0
777,400,0,0,0,0,0,0,0,0,0,-1,2001,624,0,0
784,400,0,0,0,0,0,0,0,0,0,-1,2008,624,0,0
791,400,0,0,0,0,0,0,0,0,0,-1,2015,624,0,0
798,400,0,0,0,0,0,0,0,0,0,-1,2022,624,0,0
805,400,0,0,0,0,0,0,0,0,0,-1,2029,624,0,0
812,400,0,0,0,0,0,0,0,0,0,-1,2036,624,0,0
-700,393,0,0,0,0,0,0,0,0,0,-1,524,631,0,0
-693,393,0,0,0,0,0,0,0,0,0,-1,531,631,0,0
-686,393,0,0,0,0,0,0,0,0,0,-1,538,631,0,0
-679,393,0,0,0,0,0,0,0,0,0,-1,545,631,0,0
-672,393,0,0,0,0,0,0,0,0,0,-1,552,631,0,0
-665,393,0,0,0,0,0,0,0,0,0,-1,559,631,0,0
-658,393,0,0,0,0,0,0,0,0,0,-1,566,631,0,0
-651,393,0,0,0,0,0,0,0,0,0,-1,573,631,0,0
-644,393,0,0,0,0,0,0,0,0,0,-1,580,631,0,0
-637,393,0,0,0,0,0,0,0,0,0,-1,587,631,0,0
-630,393,0,0,0,0,0,0,0,0,0,-1,594,631,0,0
-623,393,0,0,0,0,0,0,0,0,0,-1,601,631,0,0
-616,393,0,0,0,0,0,0,0,0,0,-1,608,631,0,0
-609,393,0,0,0,0,0,0,0,0,0,-1,615,631,0,0
-602,393,0,0,0,0,0,0,0,0,0,-1,622,631,0,0
-595,393,0,0,0,0,0,0,0,0,0,-1,629,631,0,0
-588,393,0,0,0,0,0,0,0,0,0,-1,636,631,0,0
-581,393,0,0,0,0,0,0,0,0,0,-1,643,631,0,0
-574,393,0,0,0,0,0,0,0,0,0,-1,650,631,0,0
-567,393,0,0,0,0,0,0,0,0,0,-1,657,631,0,0
-560,393,0,0,0,0,0,0,0,0,0,-1,664,631,0,0
-553,393,0.107483,0.569519,-0.0294776,0.0208937,0.0387201,0.0418986,-0.0504825,1.07375,0.0534129,0.0432703,671,631,0.107498,-0.569514
-546,393,0.156372,0.540161,-0.0227779,0.0286356,0.0301303,0.0425353,-0.0366776,1.13857,0.0457753,0.0444575,678,631,0.156395,-0.540137
-539,393,-0.403687,0.640747,-0.0175691,0.0320582,0.0244652,0.0420909,-0.0276017,1.18163,0.0405259,0.0424789,685,631,-0.403659,-0.640749
-532,393,-0.590881,0.810303,-0.0135701,0.0324272,0.0202746,0.0400879,-0.0212309,1.20953,0.0359561,0.0446464,692,631,-0.590873,-0.810274
-525,393,0.172058,0.758118,-0.0105608,0.0313527,0.0167091,0.0371985,-0.0164066,1.23425,0.0317154,0.047609,699,631,0.172073,-0.758144
-518,393,0.0942383,-0.462219,0,0,0,0,0,0,0,-1,706,631,0.0942221,0.46221
-511,393,0.0418091,-0.294739,-0.00648764,0.0255754,0.011636,0.0293531,-0.0102653,1.25687,0.0237422,0.0423612,713,631,0.041831,0.29473
-504,393,-0.0585327,0.0236206,-0.00494939,0.0215048,0.00960398,0.0246237,-0.00806832,1.25679,0.0196649,0.0318669,720,631,-0.0585277,-0.0235948
-497,393,-0.09198,-0.0135498,-0.00394997,0.0176317,0.00781003,0.0201615,-0.00647974,1.25755,0.0160432,0.0162067,727,631,-0.0919604,0.0135515
-490,393,-0.0821533,-0.0255737,-0.00261755,0.0142933,0.00621892,0.016334,-0.00465828,1.25372,0.0127294,0.0116308,734,631,-0.0821541,0.0255603
-483,393,-0.0704346,-0.010437,-0.00150368,0.0110296,0.00464709,0.0125647,-0.00303872,1.25176,0.00955185,0.0172265,741,631,-0.0704317,0.0104234
-476,393,-0.0701904,-0.0187988,-0.00194848,0.00790675,0.0035784,0.00906899,-0.00311073,1.25675,0.00730706,0.0161505,748,631,-0.0701822,0.0187808
-469,393,-0.0787964,-0.0344849,-0.00254902,0.00539182,0.00268294,0.0062133,-0.0033705,1.27367,0.00561377,0.012363,755,631,-0.0787856,0.034492
-462,393,-0.0819702,-0.0389404,-0.00206242,0.00364403,0.00188405,0.00420995,-0.00262834,1.279,0.00398313,0.0138278,762,631,-0.0819773,0.0389258
-455,393,-0.0820923,-0.0524292,-0.00199325,0.00257237,0.00146697,0.00300309,-0.00242396,1.28521,0.00313925,0.0134764,769,631,-0.082091,0.052459
-448,393,-0.0808716,-0.0554199,-0.00255795,0.00204768,0.00154138,0.00251593,-0.0030262,1.27587,0.00320427,0.0127803,776,631,-0.0808556,0.055415
-441,393,-0.0878296,-0.0409546,-0.00365577,0.00101388,0.00135963,0.00138091,-0.00402279,1.30713,0.00324173,0.0107874,783,631,-0.0878066,0.040985
-434,393,-0.09552,-0.02771,-0.00486817,0.000629889,0.00163534,0.00107953,-0.00531782,1.30247,0.00395448,0.0103702,790,631,-0.095496,0.0277249
-427,393,-0.0802612,-0.0298462,-0.00613492,0.000327313,0.00207726,0.000937436,-0.00674504,1.28512,0.00483953,0.011751,797,631,-0.0802382,0.0298166
-420,393,-0.0635376,-0.0420532,-0.00718191,0.000953222,0.00211518,0.00147031,-0.007699,1.33103,0.00568649,0.0143311,804,631,-0.06352,0.042024
-413,393,-0.0499268,-0.0579224,-0.00810586,0.00174231,0.00255158,0.00236414,-0.00872769,1.33175,0.00674604,0.0297818,811,631,-0.0499228,0.0579002
-406,393,-0.0731812,-0.076355,-0.00877056,0.00300714,0.0033795,0.00390796,-0.00967137,1.3103,0.00807198,0.0418932,818,631,-0.0731793,0.0763442
-399,393,-0.179321,-0.232788,-0.00889449,0.00395269,0.00420411,0.00520615,-0.0101479,1.28104,0.00901644,0.042776,825,631,-0.17931,0.232768
-392,393,-0.429749,-0.167297,-0.00863628,0.00565886,0.00488054,0.00716619,-0.0101436,1.27124,0.010043,0.0454907,832,631,-0.429749,0.167325
-385,393,0.896973,0.786255,0,0,0,0,0,0,0,-1,839,631,0.896947,-0.786242
-378,393,-0.67218,-0.536499,0,0,0,0,0,0,0,-1,846,631,-0.672159,0.536473
-371,393,-0.348511,-0.47168,-0.00617839,0.0132365,0.00734443,0.0157018,-0.00864367,1.24695,0.0142514,0.0439674,853,631,-0.34849,0.47168
-364,393,-0.25116,-0.440735,-0.00429785,0.0166905,0.00853559,0.0197235,-0.00733082,1.22938,0.0161568,0.0406498,860,631,-0.251174,0.440727
-357,393,-0.481934,-0.0261841,-0.00348919,0.0235448,0.0085929,0.0260449,-0.00598928,1.28766,0.0196661,0.0470007,867,631,-0.481942,0.0261678
-350,393,-0.559692,0.376526,-0.00222778,0.0309735,0.00866727,0.0330999,-0.0043542,1.33021,0.023652,0.0476809,874,631,-0.559681,-0.3765
-343,393,0,0,0,0,0,0,0,0,0,-1,881,631,0,0
-336,393,0,0,0,0,0,0,0,0,0,-1,888,631,0,0
-329,393,0,0,0,0,0,0,0,0,0,-1,895,631,0,0
-322,393,0,0,0,0,0,0,0,0,0,-1,902,631,0,0
-315,393,0,0,0,0,0,0,0,0,0,-1,909,631,0,0
-308,393,0,0,0,0,0,0,0,0,0,-1,916,631,0,0
-301,393,0,0,0,0,0,0,0,0,0,-1,923,631,0,0
-294,393,0,0,0,0,0,0,0,0,0,-1,930,631,0,0
-287,393,0,0,0,0,0,0,0,0,0,-1,937,631,0,0
-280,393,0,0,0,0,0,0,0,0,0,-1,944,631,0,0
-273,393,0,0,0,0,0,0,0,0,0,-1,951,631,0,0
-266,393,0,0,0,0,0,0,0,0,0,-1,958,631,0,0
-259,393,0,0,0,0,0,0,0,0,0,-1,965,631,0,0
-252,393,0,0,0,0,0,0,0,0,0,-1,972,631,0,0
-245,393,0,0,0,0,0,0,0,0,0,-1,979,631,0,0
-238,393,0,0,0,0,0,0,0,0,0,-1,986,631,0,0
-231,393,0,0,0,0,0,0,0,0,0,-1,993,631,0,0
-224,393,0,0,0,0,0,0,0,0,0,-1,1000,631,0,0
-217,393,0,0,0,0,0,0,0,0,0,-1,1007,631,0,0
-210,393,0,0,0,0,0,0,0,0,0,-1,1014,631,0,0
-203,393,0,0,0,0,0,0,0,0,0,-1,1021,631,0,0
-196,393,0,0,0,0,0,0,0,0,0,-1,1028,631,0,0
-189,393,0,0,0,0,0,0,0,0,0,-1,1035,631,0,0
-182,393,0,0,0,0,0,0,0,0,0,-1,1042,631,0,0
-175,393,0,0,0,0,0,0,0,0,0,-1,1049,631,0,0
-168,393,0,0,0,0,0,0,0,0,0,-1,1056,631,0,0
-161,393,0,0,0,0,0,0,0,0,0,-1,1063,631,0,0
-154,393,0,0,0,0,0,0,0,0,0,-1,1070,631,0,0
-147,393,0,0,0,0,0,0,0,0,0,-1,1077,631,0,0
-140,393,0,0,0,0,0,0,0,0,0,-1,1084,631,0,0
-133,393,0,0,0,0,0,0,0,0,0,-1,1091,631,0,0
-126,393,0,0,0,0,0,0,0,0,0,-1,1098,631,0,0
-119,393,0,0,0,0,0,0,0,0,0,-1,1105,631,0,0
-112,393,0,0,0,0,0,0,0,0,0,-1,1112,631,0,0
-105,393,0,0,0,0,0,0,0,0,0,-1,1119,631,0,0
-98,393,0,0,0,0,0,0,0,0,0,-1,1126,631,0,0
-91,393,0,0,0,0,0,0,0,0,0,-1,1133,631,0,0
-84,393,0,0,0,0,0,0,0,0,0,-1,1140,631,0,0
-77,393,0,0,0,0,0,0,0,0,0,-1,1147,631,0,0
-70,393,0,0,0,0,0,0,0,0,0,-1,1154,631,0,0
-63,393,0,0,0,0,0,0,0,0,0,-1,1161,631,0,0
-56,393,0,0,0,0,0,0,0,0,0,-1,1168,631,0,0
-49,393,0,0,0,0,0,0,0,0,0,-1,1175,631,0,0
-42,393,0,0,0,0,0,0,0,0,0,-1,1182,631,0,0
-35,393,0,0,0,0,0,0,0,0,0,-1,1189,631,0,0
-28,393,0,0,0,0,0,0,0,0,0,-1,1196,631,0,0
-21,393,0,0,0,0,0,0,0,0,0,-1,1203,631,0,0
-14,393,0,0,0,0,0,0,0,0,0,-1,1210,631,0,0
-7,393,0,0,0,0,0,0,0,0,0,-1,1217,631,0,0
0,393,0,0,0,0,0,0,0,0,0,-1,1224,631,0,0
7,393,0,0,0,0,0,0,0,0,0,-1,1231,631,0,0
14,393,0,0,0,0,0,0,0,0,0,-1,1238,631,0,0
21,393,0,0,0,0,0,0,0,0,0,-1,1245,631,0,0
28,393,0,0,0,0,0,0,0,0,0,-1,1252,631,0,0
35,393,0,0,0,0,0,0,0,0,0,-1,1259,631,0,0
42,393,0,0,0,0,0,0,0,0,0,-1,1266,631,0,0
49,393,0,0,0,0,0,0,0,0,0,-1,1273,631,0,0
56,393,0,0,0,0,0,0,0,0,0,-1,1280,631,0,0
63,393,0,0,0,0,0,0,0,0,0,-1,1287,631,0,0
70,393,0,0,0,0,0,0,0,0,0,-1,1294,631,0,0
77,393,0,0,0,0,0,0,0,0,0,-1,1301,631,0,0
84,393,0,0,0,0,0,0,0,0,0,-1,1308,631,0,0
91,393,0,0,0,0,0,0,0,0,0,-1,1315,631,0,0
98,393,0,0,0,0,0,0,0,0,0,-1,1322,631,0,0
105,393,0,0,0,0,0,0,0,0,0,-1,1329,631,0,0
112,393,0,0,0,0,0,0,0,0,0,-1,1336,631,0,0
119,393,0,0,0,0,0,0,0,0,0,-1,1343,631,0,0
126,393,0,0,0,0,0,0,0,0,0,-1,1350,631,0,0
133,393,0,0,0,0,0,0,0,0,0,-1,1357,631,0,0
140,393,0,0,0,0,0,0,0,0,0,-1,1364,631,0,0
147,393,0,0,0,0,0,0,0,0,0,-1,1371,631,0,0
154,393,0,0,0,0,0,0,0,0,0,-1,1378,631,0,0
161,393,0,0,0,0,0,0,0,0,0,-1,1385,631,0,0
168,393,0,0,0,0,0,0,0,0,0,-1,1392,631,0,0
175,393,0,0,0,0,0,0,0,0,0,-1,1399,631,0,0
182,393,0,0,0,0,0,0,0,0,0,-1,1406,631,0,0
189,393,0,0,0,0,0,0,0,0,0,-1,1413,631,0,0
196,393,0,0,0,0,0,0,0,0,0,-1,1420,631,0,0
203,393,0,0,0,0,0,0,0,0,0,-1,1427,631,0,0
210,393,0,0,0,0,0,0,0,0,0,-1,1434,631,0,0
217,393,0,0,0,0,0,0,0,0,0,-1,1441,631,0,0
224,393,0,0,0,0,0,0,0,0,0,-1,1448,631,0,0
231,393,0,0,0,0,0,0,0,0,0,-1,1455,631,0,0
238,393,0,0,0,0,0,0,0,0,0,-1,1462,631,0,0
245,393,0,0,0,0,0,0,0,0,0,-1,1469,631,0,0
252,393,0,0,0,0,0,0,0,0,0,-1,1476,631,0,0
259,393,0,0,0,0,0,0,0,0,0,-1,1483,631,0,0
266,393,0,0,0,0,0,0,0,0,0,-1,1490,631,0,0
273,393,0,0,0,0,0,0,0,0,0,-1,1497,631,0,0
280,393,0,0,0,0,0,0,0,0,0,-1,1504,631,0,0
287,393,0,0,0,0,0,0,0,0,0,-1,1511,631,0,0
294,393,0,0,0,0,0,0,0,0,0,-1,1518,631,0,0
301,393,0,0,0,0,0,0,0,0,0,-1,1525,631,0,0
308,393,0,0,0,0,0,0,0,0,0,-1,1532,631,0,0
315,393,0,0,0,0,0,0,0,0,0,-1,1539,631,0,0
322,393,0,0,0,0,0,0,0,0,0,-1,1546,631,0,0
329,393,0,0,0,0,0,0,0,0,0,-1,1553,631,0,0
336,393,0,0,0,0,0,0,0,0,0,-1,1560,631,0,0
343,393,0,0,0,0,0,0,0,0,0,-1,1567,631,0,0
350,393,0,0,0,0,0,0,0,0,0,-1,1574,631,0,0
357,393,0,0,0,0,0,0,0,0,0,-1,1581,631,0,0
364,393,0,0,0,0,0,0,0,0,0,-1,1588,631,0,0
371,393,0,0,0,0,0,0,0,0,0,-1,1595,631,0,0
378,393,0,0,0,0,0,0,0,0,0,-1,1602,631,0,0
385,393,0,0,0,0,0,0,0,0,0,-1,1609,631,0,0
392,393,0,0,0,0,0,0,0,0,0,-1,1616,631,0,0
399,393,0,0,0,0,0,0,0,0,0,-1,1623,631,0,0
406,393,0,0,0,0,0,0,0,0,0,-1,1630,631,0,0
413,393,0,0,0,0,0,0,0,0,0,-1,1637,631,0,0
420,393,0,0,0,0,0,0,0,0,0,-1,1644,631,0,0
427,393,0,0,0,0,0,0,0,0,0,-1,1651,631,0,0
434,393,0,0,0,0,0,0,0,0,0,-1,1658,631,0,0
441,393,0,0,0,0,0,0,0,0,0,-1,1665,631,0,0
448,393,0,0,0,0,0,0,0,0,0,-1,1672,631,0,0
455,393,0,0,0,0,0,0,0,0,0,-1,1679,631,0,0
462,393,-1.44958,-0.306396,0,0,0,0,0,0,0,-1,1686,631,-1.44961,0.306406
469,393,-0.651733,-0.61853,0.061398,-0.0031037,-0.00143157,0.0614298,-0.00313546,-0.0221798,0.0420373,0.0459058,1693,631,-0.651733,0.618542
476,393,0.195313,-0.934143,0.0647975,0.00186414,-0.00446557,0.0651128,0.00154886,-0.0704865,0.0429016,0.0451795,1700,631,0.195292,0.934147
483,393,0.225952,-1.35461,0,0,0,0,0,0,0,-1,1707,631,0.225897,1.35459
490,393,2.52759,-0.957153,0,0,0,0,0,0,0,-1,1714,631,2.52755,0.957131
497,393,0.352417,-0.572815,0.0387983,0.00977396,-0.00165801,0.0388927,0.00967956,-0.0568783,0.0233797,0.0438971,1721,631,0.352475,0.572794
504,393,0.0847168,-0.554626,0.028253,0.010644,-0.000369897,0.0282608,0.0106362,-0.0209938,0.0164818,0.0452828,1728,631,0.0846713,0.554649
511,393,0.550903,-1.22461,0,0,0,0,0,0,0,-1,1735,631,0.550912,1.2246
518,393,0.384399,-0.497253,0.0121791,0.00991045,0.00104419,0.0125865,0.00950301,0.372029,0.00757533,0.0451806,1742,631,0.384388,0.497273
525,393,0.0853271,0.0164185,0.00623948,0.00917041,0.0014459,0.00976364,0.00564625,1.18146,0.00566003,0.0435567,1749,631,0.0853566,-0.0164487
532,393,0.0742188,-0.0404053,0.00165625,0.00801542,0.00170608,0.00844423,0.00122745,1.32456,0.00526822,0.040044,1756,631,0.0742475,0.0403829
539,393,-0.0438232,-0.0232544,-0.00144514,0.00674925,0.00127542,0.00694318,-0.00163906,1.4199,0.00526095,0.0349454,1763,631,-0.0438502,0.0232746
546,393,-0.0740967,-0.055603,-0.00318665,0.00529484,0.000679646,0.00534896,-0.00324077,1.49134,0.00500882,0.0211036,1770,631,-0.0740739,0.0556079
553,393,-0.0668945,-0.0668945,-0.00376788,0.00439745,0.000623904,0.00444485,-0.00381528,1.49497,0.0047736,0.0121249,1777,631,-0.0668483,0.0668821
560,393,-0.0784912,-0.0297241,-0.00336758,0.00325506,0.000295542,0.00326822,-0.00338074,1.52629,0.00383896,0.011565,1784,631,-0.0784746,0.0296938
567,393,-0.0717773,-0.0292358,-0.0027834,0.00252507,-7.12264e-05,0.00252603,-0.00278436,-1.55738,0.00306716,0.0132278,1791,631,-0.0717196,0.029221
574,393,-0.0610352,-0.0583496,-0.00216194,0.00201507,4.20113e-05,0.00201549,-0.00216236,1.56074,0.00241258,0.0134858,1798,631,-0.0610363,0.0583564
581,393,-0.0692139,-0.043335,-0.00188501,0.00183895,0.000197413,0.00184939,-0.00189545,1.51798,0.00216214,0.011791,1805,631,-0.0692063,0.043344
588,393,-0.0620117,-0.0327759,-0.00172815,0.00186273,5.2357e-05,0.0018635,-0.00172891,1.55622,0.00207457,0.0119479,1812,631,-0.0620345,0.0327722
595,393,-0.0574951,-0.0250854,-0.00115091,0.00211015,-0.000171306,0.00211912,-0.00115988,-1.51846,0.00191995,0.0100118,1819,631,-0.0574466,0.0250815
602,393,-0.0645752,-0.0353394,-0.000403661,0.00240847,-0.000335073,0.00244784,-0.000443035,-1.45383,0.00179786,0.0121778,1826,631,-0.0646311,0.0353118
609,393,-0.0859375,-0.0445557,0.000103631,0.00285612,-0.000654323,0.00300374,-4.39978e-05,-1.34889,0.00201732,0.0133633,1833,631,-0.0858912,0.0445284
616,393,-0.0949707,-0.0313721,0.000436002,0.00338286,-0.00124827,0.00384054,-2.16768e-05,-1.21937,0.00256762,0.0130522,1840,631,-0.0949521,0.0313565
623,393,-0.0819092,-0.0130005,0.000681553,0.00431396,-0.00199373,0.00519471,-0.000199194,-1.15482,0.00353141,0.0138594,1847,631,-0.0818986,0.0130003
630,393,-0.0891113,-0.0491943,0.00178911,0.00573845,-0.0026439,0.00706371,0.000463851,-1.10615,0.00456239,0.017137,1854,631,-0.0891618,0.0492114
637,393,-0.183838,-0.0631714,0.0036128,0.00782038,-0.00300445,0.00938438,0.0020488,-1.09084,0.00569746,0.0288307,1861,631,-0.183837,0.0631963
644,393,-0.246704,-0.0822754,0.00550916,0.0101798,-0.00354719,0.0120914,0.00359758,-1.07651,0.00716923,0.0375005,1868,631,-0.246746,0.0822846
651,393,0.101196,-0.295227,0.00810068,0.0133802,-0.00384015,0.0154004,0.00608049,-1.08651,0.00895673,0.0377969,1875,631,0.10122,0.295207
658,393,0.229858,-0.427307,0.01175,0.0177233,-0.00358059,0.0193994,0.0100739,-1.133,0.011203,0.0422634,1882,631,0.229819,0.427312
665,393,0.0020752,0.580872,0.0165349,0.0236728,-0.00251317,0.0244689,0.0157388,-1.26404,0.014319,0.045096,1889,631,0.00212514,-0.580843
672,393,-0.0305176,0.465393,0.0227895,0.0316429,-0.000348026,0.0316566,0.0227758,-1.53157,0.0188547,0.0421195,1896,631,-0.0304707,-0.465372
679,393,0,0,0,0,0,0,0,0,0,-1,1903,631,0,0
686,393,0,0,0,0,0,0,0,0,0,-1,1910,631,0,0
693,393,0,0,0,0,0,0,0,0,0,-1,1917,631,0,0
700,393,0,0,0,0,0,0,0,0,0,-1,1924,631,0,0
707,393,0,0,0,0,0,0,0,0,0,-1,1931,631,0,0
714,393,0,0,0,0,0,0,0,0,0,-1,1938,631,0,0
721,393,0,0,0,0,0,0,0,0,0,-1,1945,631,0,0
728,393,0,0,0,0,0,0,0,0,0,-1,1952,631,0,0
735,393,0,0,0,0,0,0,0,0,0,-1,1959,631,0,0
742,393,0,0,0,0,0,0,0,0,0,-1,1966,631,0,0
749,393,0,0,0,0,0,0,0,0,0,-1,1973,631,0,0
756,393,0,0,0,0,0,0,0,0,0,-1,1980,631,0,0
763,393,0,0,0,0,0,0,0,0,0,-1,1987,631,0,0
770,393,0,0,0,0,0,0,0,0,0,-1,1994,631,0,0
777,393,0,0,0,0,0,0,0,0,0,-1,2001,631,0,0
784,393,0,0,0,0,0,0,0,0,0,-1,2008,631,0,0
791,393,0,0,0,0,0,0,0,0,0,-1,2015,631,0,0
798,393,0,0,0,0,0,0,0,0,0,-1,2022,631,0,0
805,393,0,0,0,0,0,0,0,0,0,-1,2029,631,0,0
812,393,0,0,0,0,0,0,0,0,0,-1,2036,631,0,0
-700,386,0,0,0,0,0,0,0,0,0,-1,524,638,0,0
-693,386,0,0,0,0,0,0,0,0,0,-1,531,638,0,0
-686,386,0,0,0,0,0,0,0,0,0,-1,538,638,0,0
-679,386,0,0,0,0,0,0,0,0,0,-1,545,638,0,0
-672,386,0,0,0,0,0,0,0,0,0,-1,552,638,0,0
-665,386,0,0,0,0,0,0,0,0,0,-1,559,638,0,0
-658,386,0,0,0,0,0,0,0,0,0,-1,566,638,0,0
-651,386,0,0,0,0,0,0,0,0,0,-1,573,638,0,0
-644,386,0,0,0,0,0,0,0,0,0,-1,580,638,0,0
-637,386,0,0,0,0,0,0,0,0,0,-1,587,638,0,0
-630,386,0,0,0,0,0,0,0,0,0,-1,594,638,0,0
-623,386,0,0,0,0,0,0,0,0,0,-1,601,638,0,0
-616,386,0,0,0,0,0,0,0,0,0,-1,608,638,0,0
-609,386,0,0,0,0,0,0,0,0,0,-1,615,638,0,0
-602,386,0,0,0,0,0,0,0,0,0,-1,622,638,0,0
-595,386,0,0,0,0,0,0,0,0,0,-1,629,638,0,0
-588,386,0,0,0,0,0,0,0,0,0,-1,636,638,0,0
-581,386,0,0,0,0,0,0,0,0,0,-1,643,638,0,0
-574,386,0,0,0,0,0,0,0,0,0,-1,650,638,0,0
-567,386,0,0,0,0,0,0,0,0,0,-1,657,638,0,0
-560,386,0.203308,0.095459,0,0,0,0,0,0,0,-1,664,638,0.203329,-0.0954719
-553,386,-0.263367,0.0789795,-0.0258222,0.00387259,0.0356387,0.027633,-0.0495826,0.982769,0.0451768,0.0427233,671,638,-0.263394,-0.0789773
-546,386,-0.407104,0.36969,-0.0193116,0.0134261,0.0266112,0.0282997,-0.0341853,1.06113,0.036129,0.046709,678,638,-0.407082,-0.369712
-539,386,-0.67627,0.531738,-0.0142234,0.0185308,0.0203889,0.0283055,-0.0239981,1.12375,0.0302316,0.0431643,685,638,-0.676258,-0.531761
-532,386,-0.6828,0.463074,-0.0104301,0.0204771,0.0159291,0.027217,-0.01717,1.17052,0.0258447,0.0433193,692,638,-0.682811,-0.463078
-525,386,0.694885,0.251587,-0.00767067,0.0210398,0.0123344,0.025611,-0.0122419,1.21588,0.0223041,0.0453566,699,638,0.694894,-0.251594
-518,386,0.242371,-0.134216,-0.00573544,0.0198476,0.00976922,0.0231514,-0.00903927,1.24468,0.0191714,0.0484258,706,638,0.242373,0.134234
-511,386,-0.13092,0.0496826,-0.00421833,0.0178957,0.00774393,0.0203378,-0.00666042,1.26531,0.0162405,0.0399048,713,638,-0.13094,-0.0496888
-504,386,-0.0969849,0.00817871,-0.00302556,0.0149112,0.00618563,0.0168375,-0.00495185,1.2689,0.0131892,0.0163915,720,638,-0.0969979,-0.00819346
-497,386,-0.0982056,-0.0281372,-0.00244633,0.0121172,0.00495129,0.0136411,-0.00397021,1.27222,0.0106667,0.00876269,727,638,-0.0981825,0.0281238
-490,386,-0.0913086,-0.0445557,-0.00153132,0.00972009,0.00394171,0.0109636,-0.00277479,1.26521,0.00838838,0.0102562,734,638,-0.0912866,0.0445829
-483,386,-0.0722656,-0.0481567,-0.000755369,0.00736415,0.00295968,0.00832847,-0.00171969,1.25582,0.00620548,0.0146323,741,638,-0.0722416,0.0481651
-476,386,-0.0586548,-0.0402832,-0.0015865,0.00514107,0.00241855,0.00592028,-0.00236571,1.25912,0.00492846,0.0147297,748,638,-0.0586827,0.0403133
-469,386,-0.0706177,-0.050293,-0.00259876,0.00355386,0.00197448,0.00413299,-0.00317789,1.28549,0.00423293,0.0102551,755,638,-0.0706295,0.0502691
-462,386,-0.0769653,-0.0632935,-0.00248363,0.00261711,0.00164931,0.00310394,-0.00297047,1.28377,0.00350734,0.00930732,762,638,-0.0769371,0.0633194
-455,386,-0.0947266,-0.0633545,-0.0027855,0.00214088,0.00161192,0.00262143,-0.00326605,1.28106,0.00340592,0.0110497,769,638,-0.0947433,0.0633492
-448,386,-0.0910034,-0.057312,-0.00379543,0.00224214,0.00200033,0.00284473,-0.00439802,1.2782,0.00421354,0.0110576,776,638,-0.0910182,0.0573315
-441,386,-0.0979004,-0.0484009,-0.00536624,0.00170384,0.00199906,0.00222993,-0.00589232,1.31346,0.00484568,0.0103613,783,638,-0.0979008,0.0483936
-434,386,-0.0987549,-0.0426025,-0.00705863,0.00180486,0.00242058,0.00242283,-0.0076766,1.32084,0.00608822,0.0138021,790,638,-0.0987475,0.042576
-427,386,-0.0882568,-0.0250854,-0.00887197,0.00193997,0.00287395,0.00265643,-0.00958843,1.32648,0.00743761,0.0204856,797,638,-0.0882607,0.02506
-420,386,-0.0709229,-0.0426025,-0.0104375,0.0029483,0.00288216,0.00354249,-0.0110317,1.36748,0.00877695,0.0267153,804,638,-0.0709022,0.0425861
-413,386,-0.0388184,-0.0194702,-0.0118652,0.00411833,0.0032322,0.0047472,-0.0124941,1.37863,0.0102838,0.0422713,811,638,-0.0387907,0.0194904
-406,386,0.196472,0.212463,-0.0130104,0.00583152,0.00395609,0.00662845,-0.0138073,1.37201,0.0120388,0.0480431,818,638,0.196473,-0.21247
-399,386,0.348694,0.725464,-0.013565,0.00724746,0.00468857,0.00825492,-0.0145725,1.35914,0.0133466,0.0429373,825,638,0.348713,-0.72549
-392,386,0.402161,1.23315,-0.0137419,0.00943521,0.0052439,0.0105664,-0.0148731,1.35833,0.0147575,0.0446094,832,638,0.402154,-1.23315
-385,386,0.548767,1.37634,0,0,0,0,0,0,0,-1,839,638,0.54876,-1.37634
-378,386,0.703979,1.55267,0,0,0,0,0,0,0,-1,846,638,0.703993,-1.5527
-371,386,-0.242859,-0.742859,-0.0122011,0.0184185,0.00717288,0.0200155,-0.0137981,1.35172,0.019632,0.0467972,853,638,-0.242857,0.742862
-364,386,-0.417908,-0.63208,-0.0101727,0.0220726,0.00854621,0.0241976,-0.0122977,1.32709,0.0214407,0.0447007,860,638,-0.417914,0.632066
-357,386,-0.634644,-0.368347,-0.0097223,0.0289742,0.00894697,0.0309427,-0.0116908,1.35423,0.0254372,0.0482596,867,638,-0.634648,0.368372
-350,386,0,0,0,0,0,0,0,0,0,-1,874,638,0,0
-343,386,0,0,0,0,0,0,0,0,0,-1,881,638,0,0
-336,386,0,0,0,0,0,0,0,0,0,-1,888,638,0,0
-329,386,0,0,0,0,0,0,0,0,0,-1,895,638,0,0
-322,386,0,0,0,0,0,0,0,0,0,-1,902,638,0,0
-315,386,0,0,0,0,0,0,0,0,0,-1,909,638,0,0
-308,386,0,0,0,0,0,0,0,0,0,-1,916,638,0,0
-301,386,0,0,0,0,0,0,0,0,0,-1,923,638,0,0
-294,386,0,0,0,0,0,0,0,0,0,-1,930,638,0,0
-287,386,0,0,0,0,0,0,0,0,0,-1,937,638,0,0
-280,386,0,0,0,0,0,0,0,0,0,-1,944,638,0,0
-273,386,0,0,0,0,0,0,0,0,0,-1,951,638,0,0
-266,386,0,0,0,0,0,0,0,0,0,-1,958,638,0,0
-259,386,0,0,0,0,0,0,0,0,0,-1,965,638,0,0
-252,386,0,0,0,0,0,0,0,0,0,-1,972,638,0,0
-245,386,0,0,0,0,0,0,0,0,0,-1,979,638,0,0
-238,386,0,0,0,0,0,0,0,0,0,-1,986,638,0,0
-231,386,0,0,0,0,0,0,0,0,0,-1,993,638,0,0
-224,386,0,0,0,0,0,0,0,0,0,-1,1000,638,0,0
-217,386,0,0,0,0,0,0,0,0,0,-1,1007,638,0,0
-210,386,0,0,0,0,0,0,0,0,0,-1,1014,638,0,0
-203,386,0,0,0,0,0,0,0,0,0,-1,1021,638,0,0
-196,386,0,0,0,0,0,0,0,0,0,-1,1028,638,0,0
-189,386,0,0,0,0,0,0,0,0,0,-1,1035,638,0,0
-182,386,0,0,0,0,0,0,0,0,0,-1,1042,638,0,0
-175,386,0,0,0,0,0,0,0,0,0,-1,1049,638,0,0
-168,386,0,0,0,0,0,0,0,0,0,-1,1056,638,0,0
-161,386,0,0,0,0,0,0,0,0,0,-1,1063,638,0,0
-154,386,0,0,0,0,0,0,0,0,0,-1,1070,638,0,0
-147,386,0,0,0,0,0,0,0,0,0,-1,1077,638,0,0
-140,386,0,0,0,0,0,0,0,0,0,-1,1084,638,0,0
-133,386,0,0,0,0,0,0,0,0,0,-1,1091,638,0,0
-126,386,0,0,0,0,0,0,0,0,0,-1,1098,638,0,0
-119,386,0,0,0,0,0,0,0,0,0,-1,1105,638,0,0
-112,386,0,0,0,0,0,0,0,0,0,-1,1112,638,0,0
-105,386,0,0,0,0,0,0,0,0,0,-1,1119,638,0,0
-98,386,0,0,0,0,0,0,0,0,0,-1,1126,638,0,0
-91,386,0,0,0,0,0,0,0,0,0,-1,1133,638,0,0
-84,386,0,0,0,0,0,0,0,0,0,-1,1140,638,0,0
-77,386,0,0,0,0,0,0,0,0,0,-1,1147,638,0,0
-70,386,0,0,0,0,0,0,0,0,0,-1,1154,638,0,0
-63,386,0,0,0,0,0,0,0,0,0,-1,1161,638,0,0
-56,386,0,0,0,0,0,0,0,0,0,-1,1168,638,0,0
-49,386,0,0,0,0,0,0,0,0,0,-1,1175,638,0,0
-42,386,0,0,0,0,0,0,0,0,0,-1,1182,638,0,0
-35,386,0,0,0,0,0,0,0,0,0,-1,1189,638,0,0
-28,386,0,0,0,0,0,0,0,0,0,-1,1196,638,0,0
-21,386,0,0,0,0,0,0,0,0,0,-1,1203,638,0,0
-14,386,0,0,0,0,0,0,0,0,0,-1,1210,638,0,0
-7,386,0,0,0,0,0,0,0,0,0,-1,1217,638,0,0
0,386,0,0,0,0,0,0,0,0,0,-1,1224,638,0,0
7,386,0,0,0,0,0,0,0,0,0,-1,1231,638,0,0
14,386,0,0,0,0,0,0,0,0,0,-1,1238,638,0,0
21,386,0,0,0,0,0,0,0,0,0,-1,1245,638,0,0
28,386,0,0,0,0,0,0,0,0,0,-1,1252,638,0,0
35,386,0,0,0,0,0,0,0,0,0,-1,1259,638,0,0
42,386,0,0,0,0,0,0,0,0,0,-1,1266,638,0,0
49,386,0,0,0,0,0,0,0,0,0,-1,1273,638,0,0
56,386,0,0,0,0,0,0,0,0,0,-1,1280,638,0,0
63,386,0,0,0,0,0,0,0,0,0,-1,1287,638,0,0
70,386,0,0,0,0,0,0,0,0,0,-1,1294,638,0,0
77,386,0,0,0,0,0,0,0,0,0,-1,1301,638,0,0
84,386,0,0,0,0,0,0,0,0,0,-1,1308,638,0,0
91,386,0,0,0,0,0,0,0,0,0,-1,1315,638,0,0
98,386,0,0,0,0,0,0,0,0,0,-1,1322,638,0,0
105,386,0,0,0,0,0,0,0,0,0,-1,1329,638,0,0
112,386,0,0,0,0,0,0,0,0,0,-1,1336,638,0,0
119,386,0,0,0,0,0,0,0,0,0,-1,1343,638,0,0
126,386,0,0,0,0,0,0,0,0,0,-1,1350,638,0,0
133,386,0,0,0,0,0,0,0,0,0,-1,1357,638,0,0
140,386,0,0,0,0,0,0,0,0,0,-1,1364,638,0,0
147,386,0,0,0,0,0,0,0,0,0,-1,1371,638,0,0
154,386,0,0,0,0,0,0,0,0,0,-1,1378,638,0,0
161,386,0,0,0,0,0,0,0,0,0,-1,1385,638,0,0
168,386,0,0,0,0,0,0,0,0,0,-1,1392,638,0,0
175,386,0,0,0,0,0,0,0,0,0,-1,1399,638,0,0
182,386,0,0,0,0,0,0,0,0,0,-1,1406,638,0,0
189,386,0,0,0,0,0,0,0,0,0,-1,1413,638,0,0
196,386,0,0,0,0,0,0,0,0,0,-1,1420,638,0,0
203,386,0,0,0,0,0,0,0,0,0,-1,1427,638,0,0
210,386,0,0,0,0,0,0,0,0,0,-1,1434,638,0,0
217,386,0,0,0,0,0,0,0,0,0,-1,1441,638,0,0
224,386,0,0,0,0,0,0,0,0,0,-1,1448,638,0,0
231,386,0,0,0,0,0,0,0,0,0,-1,1455,638,0,0
238,386,0,0,0,0,0,0,0,0,0,-1,1462,638,0,0
245,386,0,0,0,0,0,0,0,0,0,-1,1469,638,0,0
252,386,0,0,0,0,0,0,0,0,0,-1,1476,638,0,0
259,386,0,0,0,0,0,0,0,0,0,-1,1483,638,0,0
266,386,0,0,0,0,0,0,0,0,0,-1,1490,638,0,0
273,386,0,0,0,0,0,0,0,0,0,-1,1497,638,0,0
280,386,0,0,0,0,0,0,0,0,0,-1,1504,638,0,0
287,386,0,0,0,0,0,0,0,0,0,-1,1511,638,0,0
294,386,0,0,0,0,0,0,0,0,0,-1,1518,638,0,0
301,386,0,0,0,0,0,0,0,0,0,-1,1525,638,0,0
308,386,0,0,0,0,0,0,0,0,0,-1,1532,638,0,0
315,386,0,0,0,0,0,0,0,0,0,-1,1539,638,0,0
322,386,0,0,0,0,0,0,0,0,0,-1,1546,638,0,0
329,386,0,0,0,0,0,0,0,0,0,-1,1553,638,0,0
336,386,0,0,0,0,0,0,0,0,0,-1,1560,638,0,0
343,386,0,0,0,0,0,0,0,0,0,-1,1567,638,0,0
350,386,0,0,0,0,0,0,0,0,0,-1,1574,638,0,0
357,386,0,0,0,0,0,0,0,0,0,-1,1581,638,0,0
364,386,0,0,0,0,0,0,0,0,0,-1,1588,638,0,0
371,386,0,0,0,0,0,0,0,0,0,-1,1595,638,0,0
378,386,0,0,0,0,0,0,0,0,0,-1,1602,638,0,0
385,386,0,0,0,0,0,0,0,0,0,-1,1609,638,0,0
392,386,0,0,0,0,0,0,0,0,0,-1,1616,638,0,0
399,386,0,0,0,0,0,0,0,0,0,-1,1623,638,0,0
406,386,0,0,0,0,0,0,0,0,0,-1,1630,638,0,0
413,386,0,0,0,0,0,0,0,0,0,-1,1637,638,0,0
420,386,0,0,0,0,0,0,0,0,0,-1,1644,638,0,0
427,386,0,0,0,0,0,0,0,0,0,-1,1651,638,0,0
434,386,0,0,0,0,0,0,0,0,0,-1,1658,638,0,0
441,386,0,0,0,0,0,0,0,0,0,-1,1665,638,0,0
448,386,0,0,0,0,0,0,0,0,0,-1,1672,638,0,0
455,386,0,0,0,0,0,0,0,0,0,-1,1679,638,0,0
462,386,0,0,0,0,0,0,0,0,0,-1,1686,638,0,0
469,386,-0.330688,-0.368286,0.0789365,-0.0111781,-0.00375016,0.0790922,-0.0113339,-0.0415198,0.0568838,0.0425553,1693,638,-0.330678,0.368302
476,386,0.371338,-0.597839,0.0771486,-0.00367103,-0.00527397,0.0774913,-0.00401373,-0.0648892,0.0530494,0.0441078,1700,638,0.371356,0.597856
483,386,1.11877,-0.61322,0.0676247,0.00184128,-0.00487348,0.0679838,0.0014822,-0.0735486,0.0448366,0.0453023,1707,638,1.11875,0.613223
490,386,1.97375,-0.42981,0.0552068,0.00549588,-0.00246307,0.0553286,0.00537414,-0.0493866,0.0352312,0.0489565,1714,638,1.97379,0.429807
497,386,2.84509,-0.555054,0,0,0,0,0,0,0,-1,1721,638,2.84503,0.555068
504,386,0.194458,-0.749329,0,0,0,0,0,0,0,-1,1728,638,0.194429,0.749316
511,386,0.410156,-0.631531,0,0,0,0,0,0,0,-1,1735,638,0.410141,0.631522
518,386,0.577026,-0.466003,0.0136905,0.00890793,0.00181699,0.0143025,0.00829593,0.324884,0.00829273,0.0455649,1742,638,0.57706,0.465977
525,386,0.251221,-0.0171509,0.00731541,0.00843836,0.00209887,0.0100496,0.00570422,0.916094,0.00581977,0.0451181,1749,638,0.251177,0.0171362
532,386,0.202515,-0.0761719,0.0025254,0.00741105,0.00220667,0.00826016,0.0016763,1.20347,0.00504177,0.0443226,1756,638,0.202486,0.0761925
539,386,0.100098,-0.166321,-0.000834377,0.00633418,0.00164425,0.00669333,-0.00119352,1.35575,0.00490867,0.0429542,1763,638,0.100119,0.166334
546,386,-0.00256348,-0.140503,-0.00288998,0.0049314,0.000943401,0.00504359,-0.00300217,1.45244,0.00469479,0.0389624,1770,638,-0.00251705,0.140514
553,386,-0.0401611,-0.10968,-0.0037339,0.00416267,0.00086792,0.00425694,-0.00382817,1.46261,0.00467012,0.0304255,1777,638,-0.0402219,0.109683
560,386,-0.055542,-0.0565186,-0.00345064,0.00306566,0.000522774,0.00310733,-0.00349231,1.49125,0.00381247,0.0204096,1784,638,-0.0554924,0.056512
567,386,-0.0716553,-0.0322876,-0.00301993,0.00233261,7.76118e-05,0.00233374,-0.00302105,1.5563,0.00310007,0.0152286,1791,638,-0.0716824,0.0322738
574,386,-0.0804443,-0.0384521,-0.0024893,0.00183434,0.000120033,0.00183767,-0.00249263,1.54306,0.00250961,0.0122479,1798,638,-0.0804946,0.0384406
581,386,-0.0760498,-0.0389404,-0.00220316,0.00152169,0.000200888,0.00153249,-0.00221397,1.51707,0.00217491,0.0119866,1805,638,-0.0760697,0.038961
588,386,-0.0699463,-0.034729,-0.00202147,0.0014506,-1.83988e-05,0.0014507,-0.00202157,-1.5655,0.00201373,0.0112069,1812,638,-0.0700013,0.0347256
595,386,-0.0788574,-0.046814,-0.00140133,0.00154713,-0.000273676,0.00157232,-0.00142652,-1.47902,0.00173206,0.0111619,1819,638,-0.0788493,0.0467969
602,386,-0.0734863,-0.0394287,-0.000531023,0.0016603,-0.000456255,0.0017515,-0.000622224,-1.37351,0.00142123,0.0128342,1826,638,-0.07352,0.0394508
609,386,-0.0623779,-0.0413208,9.53955e-05,0.00188792,-0.000788947,0.00218569,-0.000202379,-1.20989,0.00152906,0.0138765,1833,638,-0.0623906,0.0412989
616,386,-0.0787354,-0.0306396,0.000471594,0.00218151,-0.00138609,0.00295512,-0.000302007,-1.06174,0.00207807,0.0110243,1840,638,-0.0787937,0.0306364
623,386,-0.0935059,-0.0285645,0.00074468,0.00277766,-0.00209567,0.00409035,-0.000568009,-1.0112,0.00293462,0.00920038,1847,638,-0.0934657,0.0285701
630,386,-0.0756836,-0.0541992,0.00196838,0.00395787,-0.00261488,0.00576083,0.000165427,-0.967153,0.00378661,0.0141496,1854,638,-0.0756639,0.0541818
637,386,-0.0732422,-0.0552979,0.00386946,0.0057922,-0.0027551,0.00774884,0.00191282,-0.953264,0.00466101,0.0182781,1861,638,-0.0732466,0.0552694
644,386,-0.092041,-0.0620117,0.00572683,0.00784802,-0.00304904,0.0100157,0.0035592,-0.952775,0.00586263,0.0272296,1868,638,-0.0920825,0.0620117
651,386,0.121948,-0.24408,0.00816243,0.010703,-0.00311805,0.0127996,0.00606583,-0.97883,0.00739319,0.0372619,1875,638,0.121907,0.244107
658,386,0.309937,-0.347839,0.0115963,0.0146388,-0.00264875,0.0161721,0.010063,-1.04606,0.00942952,0.0446502,1882,638,0.309973,0.34781
665,386,0.394775,-0.345398,0.0160216,0.0200358,-0.00148139,0.0205233,0.0155341,-1.25288,0.0123595,0.0472844,1889,638,0.394796,0.345377
672,386,0.214111,-0.0843506,0.0216658,0.0272582,0.000598051,0.0273214,0.0216026,1.46544,0.0166389,0.0442633,1896,638,0.214063,0.0843555
679,386,0.0495605,0.130127,0,0,0,0,0,0,0,-1,1903,638,0.0495976,-0.130111
686,386,0,0,0,0,0,0,0,0,0,-1,1910,638,0,0
693,386,0,0,0,0,0,0,0,0,0,-1,1917,638,0,0
700,386,0,0,0,0,0,0,0,0,0,-1,1924,638,0,0
707,386,0,0,0,0,0,0,0,0,0,-1,1931,638,0,0
714,386,0,0,0,0,0,0,0,0,0,-1,1938,638,0,0
721,386,0,0,0,0,0,0,0,0,0,-1,1945,638,0,0
728,386,0,0,0,0,0,0,0,0,0,-1,1952,638,0,0
735,386,0,0,0,0,0,0,0,0,0,-1,1959,638,0,0
742,386,0,0,0,0,0,0,0,0,0,-1,1966,638,0,0
749,386,0,0,0,0,0,0,0,0,0,-1,1973,638,0,0
756,386,0,0,0,0,0,0,0,0,0,-1,1980,638,0,0
763,386,0,0,0,0,0,0,0,0,0,-1,1987,638,0,0
770,386,0,0,0,0,0,0,0,0,0,-1,1994,638,0,0
777,386,0,0,0,0,0,0,0,0,0,-1,2001,638,0,0
784,386,0,0,0,0,0,0,0,0,0,-1,2008,638,0,0
791,386,0,0,0,0,0,0,0,0,0,-1,2015,638,0,0
798,386,0,0,0,0,0,0,0,0,0,-1,2022,638,0,0
805,386,0,0,0,0,0,0,0,0,0,-1,2029,638,0,0
812,386,0,0,0,0,0,0,0,0,0,-1,2036,638,0,0
-700,379,0,0,0,0,0,0,0,0,0,-1,524,645,0,0
-693,379,0,0,0,0,0,0,0,0,0,-1,531,645,0,0
-686,379,0,0,0,0,0,0,0,0,0,-1,538,645,0,0
-679,379,0,0,0,0,0,0,0,0,0,-1,545,645,0,0
-672,379,0,0,0,0,0,0,0,0,0,-1,552,645,0,0
-665,379,0,0,0,0,0,0,0,0,0,-1,559,645,0,0
-658,379,0,0,0,0,0,0,0,0,0,-1,566,645,0,0
-651,379,0,0,0,0,0,0,0,0,0,-1,573,645,0,0
-644,379,0,0,0,0,0,0,0,0,0,-1,580,645,0,0
-637,379,0,0,0,0,0,0,0,0,0,-1,587,645,0,0
-630,379,0,0,0,0,0,0,0,0,0,-1,594,645,0,0
-623,379,0,0,0,0,0,0,0,0,0,-1,601,645,0,0
-616,379,0,0,0,0,0,0,0,0,0,-1,608,645,0,0
-609,379,0,0,0,0,0,0,0,0,0,-1,615,645,0,0
-602,379,0,0,0,0,0,0,0,0,0,-1,622,645,0,0
-595,379,0,0,0,0,0,0,0,0,0,-1,629,645,0,0
-588,379,0,0,0,0,0,0,0,0,0,-1,636,645,0,0
-581,379,0,0,0,0,0,0,0,0,0,-1,643,645,0,0
-574,379,0,0,0,0,0,0,0,0,0,-1,650,645,0,0
-567,379,0.613037,-2.13104,0,0,0,0,0,0,0,-1,657,645,0.613022,2.13102
-560,379,0.0350952,-0.583374,0,0,0,0,0,0,0,-1,664,645,0.0350804,0.583382
-553,379,-0.0984497,-0.358276,-0.0236926,-0.00839751,0.0313175,0.0161926,-0.0482827,0.905152,0.0387312,0.0436413,671,645,-0.0984302,0.358274
-546,379,-0.214172,-0.0640869,-0.0171806,0.00143534,0.0228572,0.0168071,-0.0325524,0.978757,0.028977,0.0446445,678,645,-0.214162,0.064087
-539,379,-0.447937,0.0806885,-0.0120932,0.00723949,0.0167539,0.0169156,-0.0217693,1.04705,0.0223932,0.0425385,685,645,-0.447964,-0.0807014
-532,379,-0.574829,0.204773,-0.00837605,0.0102804,0.0123356,0.0164177,-0.0145133,1.10913,0.0178693,0.0411763,692,645,-0.574806,-0.204759
-525,379,0.232239,0.236206,0,0,0,0,0,0,0,-1,699,645,0.232244,-0.236192
-518,379,0.0977173,0.11499,-0.00392139,0.0121045,0.00641281,0.0143546,-0.00617156,1.23333,0.0121607,0.0401144,706,645,0.0976896,-0.115012
-511,379,-0.100769,-0.015564,-0.00261102,0.0112786,0.00463316,0.0126823,-0.00401465,1.27663,0.0100636,0.0213867,713,645,-0.100754,0.0155609
-504,379,-0.0853271,-0.0344238,-0.00167118,0.00924653,0.00342941,0.0102344,-0.00265902,1.29034,0.00786062,0.00933618,720,645,-0.0852993,0.0344158
-497,379,-0.0841064,-0.0452881,-0.00144313,0.00738717,0.00262133,0.0081067,-0.00216266,1.3029,0.00625132,0.00869698,727,645,-0.0840774,0.0452785
-490,379,-0.074646,-0.0552979,-0.000893841,0.00582908,0.00208255,0.00642191,-0.00148667,1.29347,0.00485334,0.00993178,734,645,-0.0746196,0.0553024
-483,379,-0.055603,-0.0598145,-0.000418868,0.00431863,0.00161636,0.00481756,-0.000917798,1.2714,0.00355732,0.0117323,741,645,-0.0556239,0.0597989
-476,379,-0.0473633,-0.0354004,-0.00160024,0.00294228,0.00153244,0.00341091,-0.00206886,1.27402,0.00319522,0.0119989,748,645,-0.047358,0.0353834
-469,379,-0.0650635,-0.0366211,-0.00302338,0.0022971,0.00149815,0.00268995,-0.00341622,1.31435,0.0035337,0.0104647,755,645,-0.0650892,0.0366445
-462,379,-0.0791626,-0.0501099,-0.00329718,0.00209518,0.00161019,0.0025394,-0.0037414,1.30161,0.00364829,0.0077543,762,645,-0.0791787,0.0501353
-455,379,-0.0836792,-0.0386353,-0.00402423,0.00220391,0.00194179,0.00275972,-0.00458003,1.29202,0.00428083,0.00826041,769,645,-0.0836801,0.0386419
-448,379,-0.0789185,-0.0181885,-0.00553667,0.00295656,0.00263136,0.00370573,-0.00628583,1.29343,0.00583239,0.0100722,776,645,-0.0789149,0.0181737
-441,379,-0.0834961,-0.0299683,-0.0076712,0.0029962,0.00279697,0.00368508,-0.00836008,1.32931,0.00712673,0.0110367,783,645,-0.0835015,0.0299894
-434,379,-0.0567627,-0.00292969,-0.00992324,0.00367796,0.00336787,0.00446621,-0.0107115,1.34088,0.00900673,0.0195774,790,645,-0.056789,0.00294869
-427,379,-0.0405884,0.036499,-0.0124041,0.0043888,0.00382997,0.00522105,-0.0132364,1.35682,0.0109862,0.0300919,797,645,-0.0406182,-0.036486
-420,379,-0.169617,-0.135132,-0.0146452,0.00588789,0.00379431,0.0065666,-0.0153239,1.39379,0.0129712,0.0352143,804,645,-0.169633,0.135111
-413,379,-0.184021,-0.0856934,-0.0167514,0.0075704,0.00398158,0.00820561,-0.0173866,1.41259,0.0150893,0.0414006,811,645,-0.183992,0.0857164
-406,379,-0.0821533,0.349304,-0.0185472,0.00984189,0.00447001,0.0105291,-0.0192343,1.41826,0.0174272,0.0462748,818,645,-0.0821429,-0.349289
-399,379,0.0472412,1.01941,-0.0197001,0.0118732,0.00496076,0.0126342,-0.0204611,1.41856,0.0192849,0.0469575,825,645,0.0472218,-1.0194
-392,379,0.0773315,1.79211,0,0,0,0,0,0,0,-1,832,645,0.0773129,-1.79212
-385,379,0.200562,1.96643,0,0,0,0,0,0,0,-1,839,645,0.200573,-1.96644
-378,379,-0.578186,-0.98584,0,0,0,0,0,0,0,-1,846,645,-0.578163,0.985837
-371,379,-0.799011,-1.27234,0,0,0,0,0,0,0,-1,853,645,-0.799015,1.27236
-364,379,-0.733643,-0.773071,0,0,0,0,0,0,0,-1,860,645,-0.733618,0.773083
-357,379,0,0,0,0,0,0,0,0,0,-1,867,645,0,0
-350,379,0,0,0,0,0,0,0,0,0,-1,874,645,0,0
-343,379,0,0,0,0,0,0,0,0,0,-1,881,645,0,0
-336,379,0,0,0,0,0,0,0,0,0,-1,888,645,0,0
-329,379,0,0,0,0,0,0,0,0,0,-1,895,645,0,0
-322,379,0,0,0,0,0,0,0,0,0,-1,902,645,0,0
-315,379,0,0,0,0,0,0,0,0,0,-1,909,645,0,0
-308,379,0,0,0,0,0,0,0,0,0,-1,916,645,0,0
-301,379,0,0,0,0,0,0,0,0,0,-1,923,645,0,0
-294,379,0,0,0,0,0,0,0,0,0,-1,930,645,0,0
-287,379,0,0,0,0,0,0,0,0,0,-1,937,645,0,0
-280,379,0,0,0,0,0,0,0,0,0,-1,944,645,0,0
-273,379,0,0,0,0,0,0,0,0,0,-1,951,645,0,0
-266,379,0,0,0,0,0,0,0,0,0,-1,958,645,0,0
-259,379,0,0,0,0,0,0,0,0,0,-1,965,645,0,0
-252,379,0,0,0,0,0,0,0,0,0,-1,972,645,0,0
-245,379,0,0,0,0,0,0,0,0,0,-1,979,645,0,0
-238,379,0,0,0,0,0,0,0,0,0,-1,986,645,0,0
-231,379,0,0,0,0,0,0,0,0,0,-1,993,645,0,0
-224,379,0,0,0,0,0,0,0,0,0,-1,1000,645,0,0
-217,379,0,0,0,0,0,0,0,0,0,-1,1007,645,0,0
-210,379,0,0,0,0,0,0,0,0,0,-1,1014,645,0,0
-203,379,0,0,0,0,0,0,0,0,0,-1,1021,645,0,0
-196,379,0,0,0,0,0,0,0,0,0,-1,1028,645,0,0
-189,379,0,0,0,0,0,0,0,0,0,-1,1035,645,0,0
-182,379,0,0,0,0,0,0,0,0,0,-1,1042,645,0,0
-175,379,0,0,0,0,0,0,0,0,0,-1,1049,645,0,0
-168,379,0,0,0,0,0,0,0,0,0,-1,1056,645,0,0
-161,379,0,0,0,0,0,0,0,0,0,-1,1063,645,0,0
-154,379,0,0,0,0,0,0,0,0,0,-1,1070,645,0,0
-147,379,0,0,0,0,0,0,0,0,0,-1,1077,645,0,0
-140,379,0,0,0,0,0,0,0,0,0,-1,1084,645,0,0
-133,379,0,0,0,0,0,0,0,0,0,-1,1091,645,0,0
-126,379,0,0,0,0,0,0,0,0,0,-1,1098,645,0,0
-119,379,0,0,0,0,0,0,0,0,0,-1,1105,645,0,0
-112,379,0,0,0,0,0,0,0,0,0,-1,1112,645,0,0
-105,379,0,0,0,0,0,0,0,0,0,-1,1119,645,0,0
-98,379,0,0,0,0,0,0,0,0,0,-1,1126,645,0,0
-91,379,0,0,0,0,0,0,0,0,0,-1,1133,645,0,0
-84,379,0,0,0,0,0,0,0,0,0,-1,1140,645,0,0
-77,379,0,0,0,0,0,0,0,0,0,-1,1147,645,0,0
-70,379,0,0,0,0,0,0,0,0,0,-1,1154,645,0,0
-63,379,0,0,0,0,0,0,0,0,0,-1,1161,645,0,0
-56,379,0,0,0,0,0,0,0,0,0,-1,1168,645,0,0
-49,379,0,0,0,0,0,0,0,0,0,-1,1175,645,0,0
-42,379,0,0,0,0,0,0,0,0,0,-1,1182,645,0,0
-35,379,0,0,0,0,0,0,0,0,0,-1,1189,645,0,0
-28,379,0,0,0,0,0,0,0,0,0,-1,1196,645,0,0
-21,379,0,0,0,0,0,0,0,0,0,-1,1203,645,0,0
-14,379,0,0,0,0,0,0,0,0,0,-1,1210,645,0,0
-7,379,0,0,0,0,0,0,0,0,0,-1,1217,645,0,0
0,379,0,0,0,0,0,0,0,0,0,-1,1224,645,0,0
7,379,0,0,0,0,0,0,0,0,0,-1,1231,645,0,0
14,379,0,0,0,0,0,0,0,0,0,-1,1238,645,0,0
21,379,0,0,0,0,0,0,0,0,0,-1,1245,645,0,0
28,379,0,0,0,0,0,0,0,0,0,-1,1252,645,0,0
35,379,0,0,0,0,0,0,0,0,0,-1,1259,645,0,0
42,379,0,0,0,0,0,0,0,0,0,-1,1266,645,0,0
49,379,0,0,0,0,0,0,0,0,0,-1,1273,645,0,0
56,379,0,0,0,0,0,0,0,0,0,-1,1280,645,0,0
63,379,0,0,0,0,0,0,0,0,0,-1,1287,645,0,0
70,379,0,0,0,0,0,0,0,0,0,-1,1294,645,0,0
77,379,0,0,0,0,0,0,0,0,0,-1,1301,645,0,0
84,379,0,0,0,0,0,0,0,0,0,-1,1308,645,0,0
91,379,0,0,0,0,0,0,0,0,0,-1,1315,645,0,0
98,379,0,0,0,0,0,0,0,0,0,-1,1322,645,0,0
105,379,0,0,0,0,0,0,0,0,0,-1,1329,645,0,0
112,379,0,0,0,0,0,0,0,0,0,-1,1336,645,0,0
119,379,0,0,0,0,0,0,0,0,0,-1,1343,645,0,0
126,379,0,0,0,0,0,0,0,0,0,-1,1350,645,0,0
133,379,0,0,0,0,0,0,0,0,0,-1,1357,645,0,0
140,379,0,0,0,0,0,0,0,0,0,-1,1364,645,0,0
147,379,0,0,0,0,0,0,0,0,0,-1,1371,645,0,0
154,379,0,0,0,0,0,0,0,0,0,-1,1378,645,0,0
161,379,0,0,0,0,0,0,0,0,0,-1,1385,645,0,0
168,379,0,0,0,0,0,0,0,0,0,-1,1392,645,0,0
175,379,0,0,0,0,0,0,0,0,0,-1,1399,645,0,0
182,379,0,0,0,0,0,0,0,0,0,-1,1406,645,0,0
189,379,0,0,0,0,0,0,0,0,0,-1,1413,645,0,0
196,379,0,0,0,0,0,0,0,0,0,-1,1420,645,0,0
203,379,0,0,0,0,0,0,0,0,0,-1,1427,645,0,0
210,379,0,0,0,0,0,0,0,0,0,-1,1434,645,0,0
217,379,0,0,0,0,0,0,0,0,0,-1,1441,645,0,0
224,379,0,0,0,0,0,0,0,0,0,-1,1448,645,0,0
231,379,0,0,0,0,0,0,0,0,0,-1,1455,645,0,0
238,379,0,0,0,0,0,0,0,0,0,-1,1462,645,0,0
245,379,0,0,0,0,0,0,0,0,0,-1,1469,645,0,0
252,379,0,0,0,0,0,0,0,0,0,-1,1476,645,0,0
259,379,0,0,0,0,0,0,0,0,0,-1,1483,645,0,0
266,379,0,0,0,0,0,0,0,0,0,-1,1490,645,0,0
273,379,0,0,0,0,0,0,0,0,0,-1,1497,645,0,0
280,379,0,0,0,0,0,0,0,0,0,-1,1504,645,0,0
287,379,0,0,0,0,0,0,0,0,0,-1,1511,645,0,0
294,379,0,0,0,0,0,0,0,0,0,-1,1518,645,0,0
301,379,0,0,0,0,0,0,0,0,0,-1,1525,645,0,0
308,379,0,0,0,0,0,0,0,0,0,-1,1532,645,0,0
315,379,0,0,0,0,0,0,0,0,0,-1,1539,645,0,0
322,379,0,0,0,0,0,0,0,0,0,-1,1546,645,0,0
329,379,0,0,0,0,0,0,0,0,0,-1,1553,645,0,0
336,379,0,0,0,0,0,0,0,0,0,-1,1560,645,0,0
343,379,0,0,0,0,0,0,0,0,0,-1,1567,645,0,0
350,379,0,0,0,0,0,0,0,0,0,-1,1574,645,0,0
357,379,0,0,0,0,0,0,0,0,0,-1,1581,645,0,0
364,379,0,0,0,0,0,0,0,0,0,-1,1588,645,0,0
371,379,0,0,0,0,0,0,0,0,0,-1,1595,645,0,0
378,379,0,0,0,0,0,0,0,0,0,-1,1602,645,0,0
385,379,0,0,0,0,0,0,0,0,0,-1,1609,645,0,0
392,379,0,0,0,0,0,0,0,0,0,-1,1616,645,0,0
399,379,0,0,0,0,0,0,0,0,0,-1,1623,645,0,0
406,379,0,0,0,0,0,0,0,0,0,-1,1630,645,0,0
413,379,0,0,0,0,0,0,0,0,0,-1,1637,645,0,0
420,379,0,0,0,0,0,0,0,0,0,-1,1644,645,0,0
427,379,0,0,0,0,0,0,0,0,0,-1,1651,645,0,0
434,379,0,0,0,0,0,0,0,0,0,-1,1658,645,0,0
441,379,0,0,0,0,0,0,0,0,0,-1,1665,645,0,0
448,379,0,0,0,0,0,0,0,0,0,-1,1672,645,0,0
455,379,0,0,0,0,0,0,0,0,0,-1,1679,645,0,0
462,379,0,0,0,0,0,0,0,0,0,-1,1686,645,0,0
469,379,0,0,0,0,0,0,0,0,0,-1,1693,645,0,0
476,379,0.540771,-0.376709,0,0,0,0,0,0,0,-1,1700,645,0.540812,0.37669
483,379,0.94397,-0.0970459,0.0760497,-0.00417705,-0.00413276,0.076262,-0.00438939,-0.0513324,0.0523658,0.0437429,1707,645,0.943915,0.0970611
490,379,1.401,-0.0529175,0.0609514,0.000758042,-0.00115618,0.0609736,0.000735842,-0.0191984,0.040406,0.0449791,1714,645,1.40105,0.0529208
497,379,1.85413,0.272034,0,0,0,0,0,0,0,-1,1721,645,1.85412,-0.272013
504,379,0.336792,-0.900024,0.0347297,0.00618131,0.00177823,0.03484,0.00607098,0.0619691,0.0214908,0.0435817,1728,645,0.336821,0.900006
511,379,0.414307,-0.961731,0.0243864,0.00704968,0.00228586,0.0246827,0.00675335,0.128916,0.0147294,0.0467062,1735,645,0.414288,0.961728
518,379,0.346924,-0.96582,0.0161628,0.00742468,0.00249857,0.0168268,0.00676069,0.259742,0.00977725,0.0430751,1742,645,0.346954,0.965822
525,379,0.221069,-0.776184,0.00918891,0.00751952,0.00287031,0.0113434,0.005365,0.643899,0.00655233,0.0440045,1749,645,0.221111,0.776193
532,379,0.234863,-0.770569,0.00390606,0.00687882,0.00292263,0.00867132,0.00211355,1.02064,0.00522097,0.0436873,1756,645,0.234865,0.770579
539,379,0.547119,-0.405579,0.000181215,0.00615234,0.00236995,0.00697863,-0.000645077,1.23532,0.00488168,0.0417902,1763,645,0.547065,0.405581
546,379,0.447266,-0.264771,-0.00221669,0.00492678,0.00172055,0.00531959,-0.0026095,1.34634,0.00466614,0.0465678,1770,645,0.447241,0.264784
553,379,0.00646973,-0.113281,-0.00341459,0.00437707,0.00178177,0.00476519,-0.0038027,1.35632,0.00495707,0.0437308,1777,645,0.00648227,0.113302
560,379,-0.0231934,-0.0460205,-0.00334102,0.00336092,0.00156522,0.00370845,-0.00368856,1.35231,0.00427067,0.0261261,1784,645,-0.0231697,0.0460303
567,379,-0.065918,-0.0283813,-0.00314158,0.0026382,0.00116634,0.00286469,-0.00336807,1.379,0.0036024,0.013352,1791,645,-0.0658738,0.0283943
574,379,-0.0787354,-0.0307617,-0.00276046,0.00214003,0.0012394,0.00243566,-0.00305608,1.33665,0.00317739,0.0105759,1798,645,-0.0787744,0.0307686
581,379,-0.0756836,-0.039856,-0.00252166,0.00171015,0.00127352,0.00206384,-0.00287535,1.2999,0.00286445,0.0131698,1805,645,-0.0757307,0.0398728
588,379,-0.0783691,-0.0700073,-0.00235561,0.00151983,0.000958118,0.00174376,-0.00257955,1.34119,0.00251156,0.0157773,1812,645,-0.0783261,0.0700212
595,379,-0.0948486,-0.0626831,-0.0017391,0.00144716,0.000629019,0.00156684,-0.00185878,1.38277,0.00198018,0.0123927,1819,645,-0.0948725,0.0627035
602,379,-0.0732422,-0.0550537,-0.000775484,0.00136658,0.000368967,0.00142835,-0.000837257,1.40491,0.0013228,0.0116278,1826,645,-0.0732423,0.0550653
609,379,-0.0633545,-0.0435791,-4.25793e-05,0.00137955,-4.03911e-05,0.00138069,-4.37255e-05,-1.54242,0.000935378,0.0118401,1833,645,-0.0634105,0.0435524
616,379,-0.0737305,-0.034729,0.000362382,0.00147584,-0.000706557,0.00181865,1.95731e-05,-1.11907,0.00120596,0.0100614,1840,645,-0.0736873,0.0347418
623,379,-0.0780029,-0.0289917,0.000619212,0.00176266,-0.00147994,0.00277747,-0.000395602,-0.969725,0.00199662,0.0102614,1847,645,-0.0780406,0.0289659
630,379,-0.0870361,-0.041626,0.00191093,0.00275052,-0.00199952,0.00437384,0.000287617,-0.88887,0.0028249,0.0117199,1854,645,-0.0870102,0.0416264
637,379,-0.072876,-0.0498657,0.0038212,0.00442163,-0.00196594,0.00611014,0.00213268,-0.861167,0.00358089,0.0116948,1861,645,-0.0728733,0.0498821
644,379,-0.0646973,-0.057373,0.00559751,0.00621738,-0.00207535,0.0080058,0.00380908,-0.859521,0.00462396,0.0169035,1868,645,-0.0647387,0.0573905
651,379,-0.0354004,-0.0980225,0.0078734,0.00873874,-0.00200088,0.0103532,0.00625894,-0.891878,0.00602081,0.0374172,1875,645,-0.0354168,0.0980122
658,379,-0.0968018,-0.0559082,0.0110708,0.0122477,-0.00142902,0.0132047,0.0101138,-0.980714,0.00797503,0.0447719,1882,645,-0.096796,0.0559206
665,379,0.257568,-0.0576782,0,0,0,0,0,0,0,-1,1889,645,0.257595,0.0576585
672,379,0.0893555,0.290894,0,0,0,0,0,0,0,-1,1896,645,0.089301,-0.290896
679,379,0.0266113,1.0011,0,0,0,0,0,0,0,-1,1903,645,0.0266108,-1.00111
686,379,0,0,0,0,0,0,0,0,0,-1,1910,645,0,0
693,379,0,0,0,0,0,0,0,0,0,-1,1917,645,0,0
700,379,0,0,0,0,0,0,0,0,0,-1,1924,645,0,0
707,379,0,0,0,0,0,0,0,0,0,-1,1931,645,0,0
714,379,0,0,0,0,0,0,0,0,0,-1,1938,645,0,0
721,379,0,0,0,0,0,0,0,0,0,-1,1945,645,0,0
728,379,0,0,0,0,0,0,0,0,0,-1,1952,645,0,0
735,379,0,0,0,0,0,0,0,0,0,-1,1959,645,0,0
742,379,0,0,0,0,0,0,0,0,0,-1,1966,645,0,0
749,379,0,0,0,0,0,0,0,0,0,-1,1973,645,0,0
756,379,0,0,0,0,0,0,0,0,0,-1,1980,645,0,0
763,379,0,0,0,0,0,0,0,0,0,-1,1987,645,0,0
770,379,0,0,0,0,0,0,0,0,0,-1,1994,645,0,0
777,379,0,0,0,0,0,0,0,0,0,-1,2001,645,0,0
784,379,0,0,0,0,0,0,0,0,0,-1,2008,645,0,0
791,379,0,0,0,0,0,0,0,0,0,-1,2015,645,0,0
798,379,0,0,0,0,0,0,0,0,0,-1,2022,645,0,0
805,379,0,0,0,0,0,0,0,0,0,-1,2029,645,0,0
812,379,0,0,0,0,0,0,0,0,0,-1,2036,645,0,0
-700,372,0,0,0,0,0,0,0,0,0,-1,524,652,0,0
-693,372,0,0,0,0,0,0,0,0,0,-1,531,652,0,0
-686,372,0,0,0,0,0,0,0,0,0,-1,538,652,0,0
-679,372,0,0,0,0,0,0,0,0,0,-1,545,652,0,0
-672,372,0,0,0,0,0,0,0,0,0,-1,552,652,0,0
-665,372,0,0,0,0,0,0,0,0,0,-1,559,652,0,0
-658,372,0,0,0,0,0,0,0,0,0,-1,566,652,0,0
-651,372,0,0,0,0,0,0,0,0,0,-1,573,652,0,0
-644,372,0,0,0,0,0,0,0,0,0,-1,580,652,0,0
-637,372,0,0,0,0,0,0,0,0,0,-1,587,652,0,0
-630,372,0,0,0,0,0,0,0,0,0,-1,594,652,0,0
-623,372,0,0,0,0,0,0,0,0,0,-1,601,652,0,0
-616,372,0,0,0,0,0,0,0,0,0,-1,608,652,0,0
-609,372,0,0,0,0,0,0,0,0,0,-1,615,652,0,0
-602,372,0,0,0,0,0,0,0,0,0,-1,622,652,0,0
-595,372,0,0,0,0,0,0,0,0,0,-1,629,652,0,0
-588,372,0,0,0,0,0,0,0,0,0,-1,636,652,0,0
-581,372,0,0,0,0,0,0,0,0,0,-1,643,652,0,0
-574,372,0,0,0,0,0,0,0,0,0,-1,650,652,0,0
-567,372,3.48669,2.81213,0,0,0,0,0,0,0,-1,657,652,3.48666,-2.8121
-560,372,0.236572,-0.812622,0,0,0,0,0,0,0,-1,664,652,0.236565,0.812625
-553,372,0.143494,-0.82019,0,0,0,0,0,0,0,-1,671,652,0.143521,0.820179
-546,372,-0.0550537,-0.292542,-0.0152618,-0.00692783,0.0194111,0.00875848,-0.0309481,0.891129,0.0240883,0.0422996,678,652,-0.0550351,0.29254
-539,372,-0.389465,-0.440674,-0.0102463,-0.00104191,0.0136059,0.00871909,-0.0200073,0.948482,0.0170067,0.0419684,685,652,-0.389453,0.440698
-532,372,-0.229492,-0.106689,-0.00649432,0.00245366,0.00935255,0.00834725,-0.0123879,1.0085,0.012047,0.0422348,692,652,-0.22952,0.106677
-525,372,0.0317993,0.113037,-0.00381795,0.00524841,0.00601912,0.00825045,-0.00682,1.10815,0.00871398,0.0393906,699,652,0.0318049,-0.113025
-518,372,-0.0305176,0.0202026,-0.00208027,0.00606367,0.00375898,0.00753344,-0.00355005,1.19807,0.00653536,0.0242543,706,652,-0.0305334,-0.0202157
-511,372,-0.074585,-0.0427856,-0.000884606,0.00612744,0.00219995,0.00676049,-0.00151766,1.29061,0.00508888,0.0107156,713,652,-0.0746076,0.0428151
-504,372,-0.074646,-0.0480957,-0.00013613,0.00487522,0.00129826,0.00519158,-0.00045249,1.33177,0.00362132,0.00831161,720,652,-0.0746391,0.0481128
-497,372,-0.078125,-0.0567627,-0.000196225,0.00378064,0.000853078,0.00395591,-0.000371495,1.36816,0.00276942,0.00961815,727,652,-0.0781099,0.0567769
-490,372,-0.0715942,-0.053833,1.75163e-05,0.00291097,0.000716668,0.00307875,-0.000150263,1.34083,0.00210438,0.0109246,734,652,-0.0715897,0.0538261
-483,372,-0.0482178,-0.0455322,0.000185299,0.00211019,0.000689109,0.00233145,-3.59672e-05,1.26011,0.00156643,0.0111879,741,652,-0.0482019,0.0455377
-476,372,-0.0485229,-0.0169678,-0.00136614,0.00147131,0.000997317,0.00178678,-0.00168161,1.26444,0.00200278,0.0117958,748,652,-0.0485313,0.0169391
-469,372,-0.0653076,-0.0132446,-0.00327228,0.00163225,0.00129441,0.00195291,-0.00359293,1.32796,0.00324823,0.00956314,755,652,-0.065336,0.0132194
-462,372,-0.0666504,-0.0273438,-0.00407598,0.00206781,0.00177748,0.002545,-0.00455316,1.30852,0.00415244,0.00870644,762,652,-0.0666749,0.0273468
-455,372,-0.0826416,-0.0240479,-0.00540373,0.00275668,0.00244201,0.00343163,-0.00607868,1.30114,0.00556122,0.00928692,769,652,-0.0826669,0.024047
-448,372,-0.0888062,-0.0115356,-0.00761995,0.00418839,0.00338056,0.0050877,-0.00851927,1.31079,0.00793883,0.00899775,776,652,-0.0888284,0.0115405
-441,372,-0.0786133,-0.0350342,-0.0105025,0.00484221,0.0036283,0.00565688,-0.0113171,1.34993,0.00997993,0.0133475,783,652,-0.0786337,0.035039
-434,372,-0.0336304,0.0214844,-0.0135713,0.00616649,0.00426191,0.00704743,-0.0144522,1.36697,0.0126559,0.0256565,790,652,-0.0336257,-0.0214586
-427,372,0.211548,0.476746,-0.0169919,0.00760883,0.00470126,0.00847664,-0.0178597,1.38826,0.0155236,0.0367258,797,652,0.211524,-0.47674
-420,372,-0.395447,-0.362183,-0.0201737,0.00975076,0.00458004,0.0104361,-0.020859,1.42227,0.0183992,0.0412932,804,652,-0.39542,0.362178
-413,372,-0.377747,-0.212402,-0.0232089,0.0120902,0.00448466,0.012651,-0.0237698,1.44638,0.0213517,0.0428144,811,652,-0.377758,0.212399
-406,372,-0.430603,0.0910645,-0.0258789,0.0150096,0.00454622,0.0155089,-0.0263783,1.46139,0.0244535,0.044751,818,652,-0.430575,-0.0910544
-399,372,-0.574097,0.437256,-0.0278098,0.0177423,0.00453883,0.0181902,-0.0282576,1.47244,0.0270258,0.0456223,825,652,-0.574098,-0.437229
-392,372,-0.588379,0.787048,0,0,0,0,0,0,0,-1,832,652,-0.588385,-0.787041
-385,372,0.0377808,-1.84735,0,0,0,0,0,0,0,-1,839,652,0.0378072,1.84735
-378,372,0.00219727,-1.06335,0,0,0,0,0,0,0,-1,846,652,0.00218909,1.06335
-371,372,0.0090332,-0.25769,0,0,0,0,0,0,0,-1,853,652,0.00905867,0.257684
-364,372,0,0,0,0,0,0,0,0,0,-1,860,652,0,0
-357,372,0,0,0,0,0,0,0,0,0,-1,867,652,0,0
-350,372,0,0,0,0,0,0,0,0,0,-1,874,652,0,0
-343,372,0,0,0,0,0,0,0,0,0,-1,881,652,0,0
-336,372,0,0,0,0,0,0,0,0,0,-1,888,652,0,0
-329,372,0,0,0,0,0,0,0,0,0,-1,895,652,0,0
-322,372,0,0,0,0,0,0,0,0,0,-1,902,652,0,0
-315,372,0,0,0,0,0,0,0,0,0,-1,909,652,0,0
-308,372,0,0,0,0,0,0,0,0,0,-1,916,652,0,0
-301,372,0,0,0,0,0,0,0,0,0,-1,923,652,0,0
-294,372,0,0,0,0,0,0,0,0,0,-1,930,652,0,0
-287,372,0,0,0,0,0,0,0,0,0,-1,937,652,0,0
-280,372,0,0,0,0,0,0,0,0,0,-1,944,652,0,0
-273,372,0,0,0,0,0,0,0,0,0,-1,951,652,0,0
-266,372,0,0,0,0,0,0,0,0,0,-1,958,652,0,0
-259,372,0,0,0,0,0,0,0,0,0,-1,965,652,0,0
-252,372,0,0,0,0,0,0,0,0,0,-1,972,652,0,0
-245,372,0,0,0,0,0,0,0,0,0,-1,979,652,0,0
-238,372,0,0,0,0,0,0,0,0,0,-1,986,652,0,0
-231,372,0,0,0,0,0,0,0,0,0,-1,993,652,0,0
-224,372,0,0,0,0,0,0,0,0,0,-1,1000,652,0,0
-217,372,0,0,0,0,0,0,0,0,0,-1,1007,652,0,0
-210,372,0,0,0,0,0,0,0,0,0,-1,1014,652,0,0
-203,372,0,0,0,0,0,0,0,0,0,-1,1021,652,0,0
-196,372,0,0,0,0,0,0,0,0,0,-1,1028,652,0,0
-189,372,0,0,0,0,0,0,0,0,0,-1,1035,652,0,0
-182,372,0,0,0,0,0,0,0,0,0,-1,1042,652,0,0
-175,372,0,0,0,0,0,0,0,0,0,-1,1049,652,0,0
-168,372,0,0,0,0,0,0,0,0,0,-1,1056,652,0,0
-161,372,0,0,0,0,0,0,0,0,0,-1,1063,652,0,0
-154,372,0,0,0,0,0,0,0,0,0,-1,1070,652,0,0
-147,372,0,0,0,0,0,0,0,0,0,-1,1077,652,0,0
-140,372,0,0,0,0,0,0,0,0,0,-1,1084,652,0,0
-133,372,0,0,0,0,0,0,0,0,0,-1,1091,652,0,0
-126,372,0,0,0,0,0,0,0,0,0,-1,1098,652,0,0
-119,372,0,0,0,0,0,0,0,0,0,-1,1105,652,0,0
-112,372,0,0,0,0,0,0,0,0,0,-1,1112,652,0,0
-105,372,0,0,0,0,0,0,0,0,0,-1,1119,652,0,0
-98,372,0,0,0,0,0,0,0,0,0,-1,1126,652,0,0
-91,372,0,0,0,0,0,0,0,0,0,-1,1133,652,0,0
-84,372,0,0,0,0,0,0,0,0,0,-1,1140,652,0,0
-77,372,0,0,0,0,0,0,0,0,0,-1,1147,652,0,0
-70,372,0,0,0,0,0,0,0,0,0,-1,1154,652,0,0
-63,372,0,0,0,0,0,0,0,0,0,-1,1161,652,0,0
-56,372,0,0,0,0,0,0,0,0,0,-1,1168,652,0,0
-49,372,0,0,0,0,0,0,0,0,0,-1,1175,652,0,0
-42,372,0,0,0,0,0,0,0,0,0,-1,1182,652,0,0
-35,372,0,0,0,0,0,0,0,0,0,-1,1189,652,0,0
-28,372,0,0,0,0,0,0,0,0,0,-1,1196,652,0,0
-21,372,0,0,0,0,0,0,0,0,0,-1,1203,652,0,0
-14,372,0,0,0,0,0,0,0,0,0,-1,1210,652,0,0
-7,372,0,0,0,0,0,0,0,0,0,-1,1217,652,0,0
0,372,0,0,0,0,0,0,0,0,0,-1,1224,652,0,0
7,372,0,0,0,0,0,0,0,0,0,-1,1231,652,0,0
14,372,0,0,0,0,0,0,0,0,0,-1,1238,652,0,0
21,372,0,0,0,0,0,0,0,0,0,-1,1245,652,0,0
28,372,0,0,0,0,0,0,0,0,0,-1,1252,652,0,0
35,372,0,0,0,0,0,0,0,0,0,-1,1259,652,0,0
42,372,0,0,0,0,0,0,0,0,0,-1,1266,652,0,0
49,372,0,0,0,0,0,0,0,0,0,-1,1273,652,0,0
56,372,0,0,0,0,0,0,0,0,0,-1,1280,652,0,0
63,372,0,0,0,0,0,0,0,0,0,-1,1287,652,0,0
70,372,0,0,0,0,0,0,0,0,0,-1,1294,652,0,0
77,372,0,0,0,0,0,0,0,0,0,-1,1301,652,0,0
84,372,0,0,0,0,0,0,0,0,0,-1,1308,652,0,0
91,372,0,0,0,0,0,0,0,0,0,-1,1315,652,0,0
98,372,0,0,0,0,0,0,0,0,0,-1,1322,652,0,0
105,372,0,0,0,0,0,0,0,0,0,-1,1329,652,0,0
112,372,0,0,0,0,0,0,0,0,0,-1,1336,652,0,0
119,372,0,0,0,0,0,0,0,0,0,-1,1343,652,0,0
126,372,0,0,0,0,0,0,0,0,0,-1,1350,652,0,0
133,372,0,0,0,0,0,0,0,0,0,-1,1357,652,0,0
140,372,0,0,0,0,0,0,0,0,0,-1,1364,652,0,0
147,372,0,0,0,0,0,0,0,0,0,-1,1371,652,0,0
154,372,0,0,0,0,0,0,0,0,0,-1,1378,652,0,0
161,372,0,0,0,0,0,0,0,0,0,-1,1385,652,0,0
168,372,0,0,0,0,0,0,0,0,0,-1,1392,652,0,0
175,372,0,0,0,0,0,0,0,0,0,-1,1399,652,0,0
182,372,0,0,0,0,0,0,0,0,0,-1,1406,652,0,0
189,372,0,0,0,0,0,0,0,0,0,-1,1413,652,0,0
196,372,0,0,0,0,0,0,0,0,0,-1,1420,652,0,0
203,372,0,0,0,0,0,0,0,0,0,-1,1427,652,0,0
210,372,0,0,0,0,0,0,0,0,0,-1,1434,652,0,0
217,372,0,0,0,0,0,0,0,0,0,-1,1441,652,0,0
224,372,0,0,0,0,0,0,0,0,0,-1,1448,652,0,0
231,372,0,0,0,0,0,0,0,0,0,-1,1455,652,0,0
238,372,0,0,0,0,0,0,0,0,0,-1,1462,652,0,0
245,372,0,0,0,0,0,0,0,0,0,-1,1469,652,0,0
252,372,0,0,0,0,0,0,0,0,0,-1,1476,652,0,0
259,372,0,0,0,0,0,0,0,0,0,-1,1483,652,0,0
266,372,0,0,0,0,0,0,0,0,0,-1,1490,652,0,0
273,372,0,0,0,0,0,0,0,0,0,-1,1497,652,0,0
280,372,0,0,0,0,0,0,0,0,0,-1,1504,652,0,0
287,372,0,0,0,0,0,0,0,0,0,-1,1511,652,0,0
294,372,0,0,0,0,0,0,0,0,0,-1,1518,652,0,0
301,372,0,0,0,0,0,0,0,0,0,-1,1525,652,0,0
308,372,0,0,0,0,0,0,0,0,0,-1,1532,652,0,0
315,372,0,0,0,0,0,0,0,0,0,-1,1539,652,0,0
322,372,0,0,0,0,0,0,0,0,0,-1,1546,652,0,0
329,372,0,0,0,0,0,0,0,0,0,-1,1553,652,0,0
336,372,0,0,0,0,0,0,0,0,0,-1,1560,652,0,0
343,372,0,0,0,0,0,0,0,0,0,-1,1567,652,0,0
350,372,0,0,0,0,0,0,0,0,0,-1,1574,652,0,0
357,372,0,0,0,0,0,0,0,0,0,-1,1581,652,0,0
364,372,0,0,0,0,0,0,0,0,0,-1,1588,652,0,0
371,372,0,0,0,0,0,0,0,0,0,-1,1595,652,0,0
378,372,0,0,0,0,0,0,0,0,0,-1,1602,652,0,0
385,372,0,0,0,0,0,0,0,0,0,-1,1609,652,0,0
392,372,0,0,0,0,0,0,0,0,0,-1,1616,652,0,0
399,372,0,0,0,0,0,0,0,0,0,-1,1623,652,0,0
406,372,0,0,0,0,0,0,0,0,0,-1,1630,652,0,0
413,372,0,0,0,0,0,0,0,0,0,-1,1637,652,0,0
420,372,0,0,0,0,0,0,0,0,0,-1,1644,652,0,0
427,372,0,0,0,0,0,0,0,0,0,-1,1651,652,0,0
434,372,0,0,0,0,0,0,0,0,0,-1,1658,652,0,0
441,372,0,0,0,0,0,0,0,0,0,-1,1665,652,0,0
448,372,0,0,0,0,0,0,0,0,0,-1,1672,652,0,0
455,372,0,0,0,0,0,0,0,0,0,-1,1679,652,0,0
462,372,0,0,0,0,0,0,0,0,0,-1,1686,652,0,0
469,372,0,0,0,0,0,0,0,0,0,-1,1693,652,0,0
476,372,0,0,0,0,0,0,0,0,0,-1,1700,652,0,0
483,372,0.577271,0.0525513,0.084421,-0.0109691,-0.00455115,0.0846376,-0.0111858,-0.0475668,0.0604994,0.0419927,1707,652,0.577302,-0.052578
490,372,0.869263,-0.10083,0.0677396,-0.0049454,-0.00123296,0.0677605,-0.00496631,-0.0169566,0.0469168,0.0436273,1714,652,0.869253,0.100836
497,372,0.294434,-1.12274,0.0528732,-0.000661377,0.000709916,0.0528826,-0.000670789,0.0132578,0.0354808,0.0404628,1721,652,0.294388,1.12271
504,372,0.55896,-1.10297,0.039602,0.00228914,0.00166315,0.039676,0.00221515,0.0444557,0.025744,0.0482587,1728,652,0.558901,1.10298
511,372,0.0147705,-1.38464,0.0283021,0.00410168,0.00200341,0.0284668,0.00393695,0.0820398,0.0178112,0.0468062,1735,652,0.0147276,1.38467
518,372,0.206665,-1.10992,0.0191294,0.00541057,0.00222994,0.0194827,0.0050572,0.157158,0.0116738,0.0432172,1742,652,0.206687,1.10995
525,372,0.415771,-1.31506,0.0112062,0.00633267,0.00279018,0.0124738,0.00506498,0.426457,0.00724403,0.0440401,1749,652,0.415735,1.31507
532,372,1.21729,-0.85968,0.00511979,0.00632462,0.0029314,0.00871487,0.00272954,0.886739,0.00514724,0.0403398,1756,652,1.21726,0.859691
539,372,0.844116,-0.46521,0.000731078,0.00619487,0.00249922,0.00716559,-0.000239643,1.20032,0.00485891,0.0416247,1763,652,0.844118,0.465202
546,372,0.44751,-0.221008,-0.00226844,0.00531552,0.00205307,0.00583564,-0.00278856,1.32268,0.00508172,0.044084,1770,652,0.447545,0.220984
553,372,0.100708,-0.108765,-0.00403445,0.0050874,0.00238388,0.00567283,-0.00461987,1.32998,0.00595285,0.0425925,1777,652,0.10069,0.108775
560,372,0.0135498,-0.0447998,-0.00431912,0.00421709,0.002424,0.0048574,-0.00495942,1.31254,0.00566785,0.0300932,1784,652,0.0135297,0.0447766
567,372,-0.0460205,-0.0153809,-0.00440215,0.00350771,0.00217276,0.00406525,-0.00495968,1.31961,0.00521907,0.0126666,1791,652,-0.045989,0.0153528
574,372,-0.0799561,-0.0337524,-0.00414916,0.0029802,0.00235132,0.00368584,-0.0048548,1.27924,0.00494632,0.00971757,1798,652,-0.0799607,0.0337617
581,372,-0.0797119,-0.060791,-0.0038266,0.00237132,0.00240872,0.00319734,-0.00465262,1.24043,0.00455807,0.0126965,1805,652,-0.079736,0.0608202
588,372,-0.0738525,-0.0772095,-0.00355768,0.00199609,0.00206997,0.00268271,-0.00424429,1.25051,0.00403304,0.0145033,1812,652,-0.0738628,0.0772095
595,372,-0.0748291,-0.0473022,-0.00281805,0.0016607,0.00171891,0.00224435,-0.00340169,1.24347,0.00328249,0.0121103,1819,652,-0.0747845,0.0472767
602,372,-0.0562744,-0.0523071,-0.00160379,0.00131081,0.00141285,0.00188326,-0.00217624,1.18584,0.00234578,0.0103095,1826,652,-0.0562658,0.052331
609,372,-0.065918,-0.0516357,-0.000571771,0.00106398,0.000954465,0.00150305,-0.00101085,1.13964,0.00146064,0.00914839,1833,652,-0.0658942,0.0516404
616,372,-0.0648193,-0.0372314,5.9809e-05,0.000906976,0.000240265,0.000970373,-3.58807e-06,1.31281,0.000648115,0.00887514,1840,652,-0.0648049,0.037212
623,372,-0.0620117,-0.03302,0.000447049,0.000880812,-0.000622027,0.00132268,5.17827e-06,-0.953142,0.000880068,0.0104644,1847,652,-0.0620419,0.0330236
630,372,-0.0905762,-0.0444336,0.00183117,0.00171056,-0.00117528,0.00294769,0.000594044,-0.759765,0.00180009,0.0147898,1854,652,-0.0905625,0.0444597
637,372,-0.0960693,-0.0614624,0.00368351,0.00328618,-0.000997812,0.00450224,0.00246745,-0.687131,0.00260337,0.018098,1861,652,-0.0960198,0.0614367
644,372,-0.0539551,-0.046936,0.00527676,0.00485452,-0.000941609,0.00603063,0.00410065,-0.675117,0.00355617,0.0144483,1868,652,-0.053947,0.046944
651,372,-0.0351563,-0.0317993,0.00721363,0.00701344,-0.000737251,0.00785755,0.00636952,-0.717925,0.00481954,0.0272971,1875,652,-0.035188,0.0318
658,372,-0.0172119,0.31958,0.0099838,0.0100217,-0.000109923,0.0101143,0.0098912,-0.870713,0.00666974,0.0374886,1882,652,-0.0171725,-0.319584
665,372,0.251465,-0.770752,0.0134795,0.0141401,0.000994246,0.0148575,0.0127621,0.945768,0.00928569,0.0465382,1889,652,0.251463,0.770726
672,372,-0.804077,0.198547,0,0,0,0,0,0,0,-1,1896,652,-0.804128,-0.198554
679,372,-0.133789,1.03223,0.0229931,0.0267302,0.00506675,0.0302619,0.0194613,0.962055,0.0177086,0.0491049,1903,652,-0.13379,-1.03225
686,372,0.605591,1.37659,0.0289721,0.0355806,0.00823083,0.0411456,0.023407,0.976275,0.0238305,0.0453824,1910,652,0.605628,-1.37659
693,372,0,0,0,0,0,0,0,0,0,-1,1917,652,0,0
700,372,0,0,0,0,0,0,0,0,0,-1,1924,652,0,0
707,372,0,0,0,0,0,0,0,0,0,-1,1931,652,0,0
714,372,0,0,0,0,0,0,0,0,0,-1,1938,652,0,0
721,372,0,0,0,0,0,0,0,0,0,-1,1945,652,0,0
728,372,0,0,0,0,0,0,0,0,0,-1,1952,652,0,0
735,372,0,0,0,0,0,0,0,0,0,-1,1959,652,0,0
742,372,0,0,0,0,0,0,0,0,0,-1,1966,652,0,0
749,372,0,0,0,0,0,0,0,0,0,-1,1973,652,0,0
756,372,0,0,0,0,0,0,0,0,0,-1,1980,652,0,0
763,372,0,0,0,0,0,0,0,0,0,-1,1987,652,0,0
770,372,0,0,0,0,0,0,0,0,0,-1,1994,652,0,0
777,372,0,0,0,0,0,0,0,0,0,-1,2001,652,0,0
784,372,0,0,0,0,0,0,0,0,0,-1,2008,652,0,0
791,372,0,0,0,0,0,0,0,0,0,-1,2015,652,0,0
798,372,0,0,0,0,0,0,0,0,0,-1,2022,652,0,0
805,372,0,0,0,0,0,0,0,0,0,-1,2029,652,0,0
812,372,0,0,0,0,0,0,0,0,0,-1,2036,652,0,0
-700,365,0,0,0,0,0,0,0,0,0,-1,524,659,0,0
-693,365,0,0,0,0,0,0,0,0,0,-1,531,659,0,0
-686,365,0,0,0,0,0,0,0,0,0,-1,538,659,0,0
-679,365,0,0,0,0,0,0,0,0,0,-1,545,659,0,0
-672,365,0,0,0,0,0,0,0,0,0,-1,552,659,0,0
-665,365,0,0,0,0,0,0,0,0,0,-1,559,659,0,0
-658,365,0,0,0,0,0,0,0,0,0,-1,566,659,0,0
-651,365,0,0,0,0,0,0,0,0,0,-1,573,659,0,0
-644,365,0,0,0,0,0,0,0,0,0,-1,580,659,0,0
-637,365,0,0,0,0,0,0,0,0,0,-1,587,659,0,0
-630,365,0,0,0,0,0,0,0,0,0,-1,594,659,0,0
-623,365,0,0,0,0,0,0,0,0,0,-1,601,659,0,0
-616,365,0,0,0,0,0,0,0,0,0,-1,608,659,0,0
-609,365,0,0,0,0,0,0,0,0,0,-1,615,659,0,0
-602,365,0,0,0,0,0,0,0,0,0,-1,622,659,0,0
-595,365,0,0,0,0,0,0,0,0,0,-1,629,659,0,0
-588,365,0,0,0,0,0,0,0,0,0,-1,636,659,0,0
-581,365,0,0,0,0,0,0,0,0,0,-1,643,659,0,0
-574,365,2.26196,-4.44891,0,0,0,0,0,0,0,-1,650,659,2.26195,4.44889
-567,365,2.27301,-3.48413,0,0,0,0,0,0,0,-1,657,659,2.27302,3.48411
-560,365,-0.437195,-0.532837,0,0,0,0,0,0,0,-1,664,659,-0.437167,0.532812
-553,365,-0.415039,-0.511414,-0.01989,-0.0197374,0.025029,0.00521539,-0.0448428,0.786923,0.0317767,0.0437068,671,659,-0.415022,0.511442
-546,365,-0.307495,-0.537781,-0.0141425,-0.0113379,0.0175458,0.00486156,-0.0303419,0.825275,0.022028,0.0422998,678,659,-0.307507,0.537781
-539,365,-0.345154,-0.380371,-0.00939935,-0.00538678,0.0120887,0.00486096,-0.0196471,0.867631,0.0149836,0.0426942,685,659,-0.345138,0.380397
-532,365,-0.27832,-0.249451,-0.00583655,-0.00166833,0.00796164,0.00447746,-0.0119823,0.91341,0.00982682,0.0399256,692,659,-0.278296,0.249457
-525,365,-0.0334473,0.0430908,-0.00318444,0.00173782,0.00478837,0.00466052,-0.00610715,1.02278,0.00623539,0.0326177,699,659,-0.0334537,-0.043114
-518,365,-0.0509033,0.000671387,-0.00141605,0.00313214,0.0026661,0.00436227,-0.00264617,1.13851,0.00408656,0.0185439,706,659,-0.0509338,-0.000660254
-511,365,-0.0599976,-0.034668,-0.000224951,0.00372526,0.0012202,0.00407177,-0.00057147,1.2941,0.00292368,0.015091,713,659,-0.0600195,0.0346482
-504,365,-0.0748901,-0.0432129,0.000386734,0.00296437,0.000439005,0.00303708,0.000314017,1.40665,0.00192859,0.0106111,720,659,-0.0748871,0.0432417
-497,365,-0.0758667,-0.043396,0.000124895,0.00231968,0.000162334,0.00233162,0.000112953,1.49737,0.00151816,0.010793,727,659,-0.0758397,0.0434133
-490,365,-0.0703735,-0.0383301,7.96685e-05,0.00186726,0.000240082,0.00189894,4.79858e-05,1.43959,0.00125027,0.0115701,734,659,-0.0703733,0.0383122
-483,365,-0.0533447,-0.0404663,2.71577e-05,0.00152089,0.000458853,0.00165058,-0.000102535,1.29534,0.00113611,0.0110106,741,659,-0.0533255,0.0404469
-476,365,-0.0586548,-0.0308838,-0.00164015,0.00140737,0.000969169,0.00168948,-0.00192225,1.28755,0.00208667,0.0112403,748,659,-0.0586661,0.0308882
-469,365,-0.0653687,-0.0300293,-0.00366586,0.00206775,0.0014075,0.00239463,-0.00399273,1.3426,0.00372602,0.0103424,755,659,-0.0653901,0.0300219
-462,365,-0.0494995,-0.0216675,-0.00471315,0.00296967,0.00212064,0.00351615,-0.00525963,1.31859,0.00509992,0.0119706,762,659,-0.0495085,0.0216381
-455,365,-0.0601196,-0.0192261,-0.00631369,0.00416603,0.00301107,0.00496957,-0.00711723,1.31001,0.00701494,0.0137328,769,659,-0.0601483,0.0192052
-448,365,-0.0852051,-0.0349121,-0.00883071,0.00619803,0.00408765,0.00723788,-0.00987056,1.32169,0.00991647,0.0107387,776,659,-0.0851947,0.0349221
-441,365,-0.0435181,-0.00366211,-0.0120128,0.00745426,0.0043588,0.00838566,-0.0129442,1.36028,0.0124082,0.0191071,783,659,-0.0435017,0.00364343
-434,365,-0.00335693,0.172302,-0.0154045,0.00942778,0.00502397,0.0104057,-0.0163825,1.37855,0.0155939,0.0346663,790,659,-0.00336082,-0.172327
-427,365,0.232056,0.629456,-0.019254,0.0115978,0.00538081,0.0125093,-0.0201656,1.40299,0.0190367,0.042851,797,659,0.232043,-0.629468
-420,365,-0.494263,-0.42511,-0.0229601,0.0143669,0.00509519,0.0150499,-0.0236431,1.43754,0.0225223,0.043657,804,659,-0.494244,0.425094
-413,365,-0.306213,-0.322937,-0.0266021,0.017332,0.00457661,0.0178037,-0.0270738,1.4681,0.0260937,0.0426529,811,659,-0.306195,0.322931
-406,365,-0.204468,-0.0349731,-0.0299238,0.020821,0.00400303,0.0211349,-0.0302377,1.49256,0.0298148,0.0429641,818,659,-0.204461,0.0349944
-399,365,-0.624634,0.494751,0,0,0,0,0,0,0,-1,825,659,-0.624625,-0.494729
-392,365,-3.51135,1.50464,0,0,0,0,0,0,0,-1,832,659,-3.51133,-1.50465
-385,365,-4.26898,0.865845,0,0,0,0,0,0,0,-1,839,659,-4.26898,-0.865865
-378,365,0.537781,-1.1687,0,0,0,0,0,0,0,-1,846,659,0.537774,1.1687
-371,365,0,0,0,0,0,0,0,0,0,-1,853,659,0,0
-364,365,0,0,0,0,0,0,0,0,0,-1,860,659,0,0
-357,365,0,0,0,0,0,0,0,0,0,-1,867,659,0,0
-350,365,0,0,0,0,0,0,0,0,0,-1,874,659,0,0
-343,365,0,0,0,0,0,0,0,0,0,-1,881,659,0,0
-336,365,0,0,0,0,0,0,0,0,0,-1,888,659,0,0
-329,365,0,0,0,0,0,0,0,0,0,-1,895,659,0,0
-322,365,0,0,0,0,0,0,0,0,0,-1,902,659,0,0
-315,365,0,0,0,0,0,0,0,0,0,-1,909,659,0,0
-308,365,0,0,0,0,0,0,0,0,0,-1,916,659,0,0
-301,365,0,0,0,0,0,0,0,0,0,-1,923,659,0,0
-294,365,0,0,0,0,0,0,0,0,0,-1,930,659,0,0
-287,365,0,0,0,0,0,0,0,0,0,-1,937,659,0,0
-280,365,0,0,0,0,0,0,0,0,0,-1,944,659,0,0
-273,365,0,0,0,0,0,0,0,0,0,-1,951,659,0,0
-266,365,0,0,0,0,0,0,0,0,0,-1,958,659,0,0
-259,365,0,0,0,0,0,0,0,0,0,-1,965,659,0,0
-252,365,0,0,0,0,0,0,0,0,0,-1,972,659,0,0
-245,365,0,0,0,0,0,0,0,0,0,-1,979,659,0,0
-238,365,0,0,0,0,0,0,0,0,0,-1,986,659,0,0
-231,365,0,0,0,0,0,0,0,0,0,-1,993,659,0,0
-224,365,0,0,0,0,0,0,0,0,0,-1,1000,659,0,0
-217,365,0,0,0,0,0,0,0,0,0,-1,1007,659,0,0
-210,365,0,0,0,0,0,0,0,0,0,-1,1014,659,0,0
-203,365,0,0,0,0,0,0,0,0,0,-1,1021,659,0,0
-196,365,0,0,0,0,0,0,0,0,0,-1,1028,659,0,0
-189,365,0,0,0,0,0,0,0,0,0,-1,1035,659,0,0
-182,365,0,0,0,0,0,0,0,0,0,-1,1042,659,0,0
-175,365,0,0,0,0,0,0,0,0,0,-1,1049,659,0,0
-168,365,0,0,0,0,0,0,0,0,0,-1,1056,659,0,0
-161,365,0,0,0,0,0,0,0,0,0,-1,1063,659,0,0
-154,365,0,0,0,0,0,0,0,0,0,-1,1070,659,0,0
-147,365,0,0,0,0,0,0,0,0,0,-1,1077,659,0,0
-140,365,0,0,0,0,0,0,0,0,0,-1,1084,659,0,0
-133,365,0,0,0,0,0,0,0,0,0,-1,1091,659,0,0
-126,365,0,0,0,0,0,0,0,0,0,-1,1098,659,0,0
-119,365,0,0,0,0,0,0,0,0,0,-1,1105,659,0,0
-112,365,0,0,0,0,0,0,0,0,0,-1,1112,659,0,0
-105,365,0,0,0,0,0,0,0,0,0,-1,1119,659,0,0
-98,365,0,0,0,0,0,0,0,0,0,-1,1126,659,0,0
-91,365,0,0,0,0,0,0,0,0,0,-1,1133,659,0,0
-84,365,0,0,0,0,0,0,0,0,0,-1,1140,659,0,0
-77,365,0,0,0,0,0,0,0,0,0,-1,1147,659,0,0
-70,365,0,0,0,0,0,0,0,0,0,-1,1154,659,0,0
-63,365,0,0,0,0,0,0,0,0,0,-1,1161,659,0,0
-56,365,0,0,0,0,0,0,0,0,0,-1,1168,659,0,0
-49,365,0,0,0,0,0,0,0,0,0,-1,1175,659,0,0
-42,365,0,0,0,0,0,0,0,0,0,-1,1182,659,0,0
-35,365,0,0,0,0,0,0,0,0,0,-1,1189,659,0,0
-28,365,0,0,0,0,0,0,0,0,0,-1,1196,659,0,0
-21,365,0,0,0,0,0,0,0,0,0,-1,1203,659,0,0
-14,365,0,0,0,0,0,0,0,0,0,-1,1210,659,0,0
-7,365,0,0,0,0,0,0,0,0,0,-1,1217,659,0,0
0,365,0,0,0,0,0,0,0,0,0,-1,1224,659,0,0
7,365,0,0,0,0,0,0,0,0,0,-1,1231,659,0,0
14,365,0,0,0,0,0,0,0,0,0,-1,1238,659,0,0
21,365,0,0,0,0,0,0,0,0,0,-1,1245,659,0,0
28,365,0,0,0,0,0,0,0,0,0,-1,1252,659,0,0
35,365,0,0,0,0,0,0,0,0,0,-1,1259,659,0,0
42,365,0,0,0,0,0,0,0,0,0,-1,1266,659,0,0
49,365,0,0,0,0,0,0,0,0,0,-1,1273,659,0,0
56,365,0,0,0,0,0,0,0,0,0,-1,1280,659,0,0
63,365,0,0,0,0,0,0,0,0,0,-1,1287,659,0,0
70,365,0,0,0,0,0,0,0,0,0,-1,1294,659,0,0
77,365,0,0,0,0,0,0,0,0,0,-1,1301,659,0,0
84,365,0,0,0,0,0,0,0,0,0,-1,1308,659,0,0
91,365,0,0,0,0,0,0,0,0,0,-1,1315,659,0,0
98,365,0,0,0,0,0,0,0,0,0,-1,1322,659,0,0
105,365,0,0,0,0,0,0,0,0,0,-1,1329,659,0,0
112,365,0,0,0,0,0,0,0,0,0,-1,1336,659,0,0
119,365,0,0,0,0,0,0,0,0,0,-1,1343,659,0,0
126,365,0,0,0,0,0,0,0,0,0,-1,1350,659,0,0
133,365,0,0,0,0,0,0,0,0,0,-1,1357,659,0,0
140,365,0,0,0,0,0,0,0,0,0,-1,1364,659,0,0
147,365,0,0,0,0,0,0,0,0,0,-1,1371,659,0,0
154,365,0,0,0,0,0,0,0,0,0,-1,1378,659,0,0
161,365,0,0,0,0,0,0,0,0,0,-1,1385,659,0,0
168,365,0,0,0,0,0,0,0,0,0,-1,1392,659,0,0
175,365,0,0,0,0,0,0,0,0,0,-1,1399,659,0,0
182,365,0,0,0,0,0,0,0,0,0,-1,1406,659,0,0
189,365,0,0,0,0,0,0,0,0,0,-1,1413,659,0,0
196,365,0,0,0,0,0,0,0,0,0,-1,1420,659,0,0
203,365,0,0,0,0,0,0,0,0,0,-1,1427,659,0,0
210,365,0,0,0,0,0,0,0,0,0,-1,1434,659,0,0
217,365,0,0,0,0,0,0,0,0,0,-1,1441,659,0,0
224,365,0,0,0,0,0,0,0,0,0,-1,1448,659,0,0
231,365,0,0,0,0,0,0,0,0,0,-1,1455,659,0,0
238,365,0,0,0,0,0,0,0,0,0,-1,1462,659,0,0
245,365,0,0,0,0,0,0,0,0,0,-1,1469,659,0,0
252,365,0,0,0,0,0,0,0,0,0,-1,1476,659,0,0
259,365,0,0,0,0,0,0,0,0,0,-1,1483,659,0,0
266,365,0,0,0,0,0,0,0,0,0,-1,1490,659,0,0
273,365,0,0,0,0,0,0,0,0,0,-1,1497,659,0,0
280,365,0,0,0,0,0,0,0,0,0,-1,1504,659,0,0
287,365,0,0,0,0,0,0,0,0,0,-1,1511,659,0,0
294,365,0,0,0,0,0,0,0,0,0,-1,1518,659,0,0
301,365,0,0,0,0,0,0,0,0,0,-1,1525,659,0,0
308,365,0,0,0,0,0,0,0,0,0,-1,1532,659,0,0
315,365,0,0,0,0,0,0,0,0,0,-1,1539,659,0,0
322,365,0,0,0,0,0,0,0,0,0,-1,1546,659,0,0
329,365,0,0,0,0,0,0,0,0,0,-1,1553,659,0,0
336,365,0,0,0,0,0,0,0,0,0,-1,1560,659,0,0
343,365,0,0,0,0,0,0,0,0,0,-1,1567,659,0,0
350,365,0,0,0,0,0,0,0,0,0,-1,1574,659,0,0
357,365,0,0,0,0,0,0,0,0,0,-1,1581,659,0,0
364,365,0,0,0,0,0,0,0,0,0,-1,1588,659,0,0
371,365,0,0,0,0,0,0,0,0,0,-1,1595,659,0,0
378,365,0,0,0,0,0,0,0,0,0,-1,1602,659,0,0
385,365,0,0,0,0,0,0,0,0,0,-1,1609,659,0,0
392,365,0,0,0,0,0,0,0,0,0,-1,1616,659,0,0
399,365,0,0,0,0,0,0,0,0,0,-1,1623,659,0,0
406,365,0,0,0,0,0,0,0,0,0,-1,1630,659,0,0
413,365,0,0,0,0,0,0,0,0,0,-1,1637,659,0,0
420,365,0,0,0,0,0,0,0,0,0,-1,1644,659,0,0
427,365,0,0,0,0,0,0,0,0,0,-1,1651,659,0,0
434,365,0,0,0,0,0,0,0,0,0,-1,1658,659,0,0
441,365,0,0,0,0,0,0,0,0,0,-1,1665,659,0,0
448,365,0,0,0,0,0,0,0,0,0,-1,1672,659,0,0
455,365,0,0,0,0,0,0,0,0,0,-1,1679,659,0,0
462,365,0,0,0,0,0,0,0,0,0,-1,1686,659,0,0
469,365,0,0,0,0,0,0,0,0,0,-1,1693,659,0,0
476,365,0,0,0,0,0,0,0,0,0,-1,1700,659,0,0
483,365,0,0,0,0,0,0,0,0,0,-1,1707,659,0,0
490,365,-0.0443115,-0.72699,0.075693,-0.0108444,-0.00208844,0.0757433,-0.0108948,-0.0241147,0.0544914,0.038892,1714,659,-0.0443056,0.727009
497,365,0.492798,-1.08728,0.0606034,-0.0052199,-0.000311872,0.0606049,-0.00522138,-0.00473788,0.0422514,0.0446672,1721,659,0.492778,1.08725
504,365,0.735229,-1.41931,0,0,0,0,0,0,0,-1,1728,659,0.735269,1.41934
511,365,-0.680176,-1.19824,0.0342309,0.00132367,0.000973564,0.0342597,0.00129489,0.0295507,0.0224206,0.0486684,1735,659,-0.680191,1.19822
518,365,0.074707,-0.857971,0.0238644,0.00345369,0.00131618,0.0239489,0.00336917,0.0641308,0.0149698,0.0448427,1742,659,0.074707,0.857972
525,365,0.531494,-1.10669,0.0149707,0.00510463,0.00203127,0.0153725,0.00470279,0.195305,0.00909548,0.0488859,1749,659,0.531522,1.10671
532,365,0.669678,-0.589233,0.00803412,0.00567511,0.00234737,0.00948166,0.00422757,0.552583,0.00548492,0.0460348,1756,659,0.669723,0.589209
539,365,0.401245,-0.366821,0.0028065,0.00603588,0.00215572,0.00711458,0.0017278,1.10684,0.00428486,0.0440756,1763,659,0.401221,0.3668
546,365,0.263184,-0.209412,-0.000898865,0.00547042,0.00195644,0.00602337,-0.00145181,1.29535,0.00457692,0.0440984,1770,659,0.263208,0.209392
553,365,0.0632324,-0.127563,-0.00329229,0.00550498,0.00253304,0.0061822,-0.00396951,1.30955,0.00590732,0.0407143,1777,659,0.0632727,0.127581
560,365,-0.100708,-0.0397339,-0.00399576,0.00475217,0.00280511,0.00557438,-0.00481797,1.28567,0.00600532,0.0395562,1784,659,-0.100676,0.0397265
567,365,-0.00598145,-0.00372314,-0.00438098,0.00403443,0.00271287,0.00483316,-0.00517972,1.28446,0.00578209,0.0307841,1791,659,-0.00598675,0.00373395
574,365,-0.0412598,-0.0196533,-0.00428887,0.00345151,0.00298872,0.00447119,-0.00530855,1.242,0.00565323,0.0166753,1798,659,-0.0412813,0.0196831
581,365,-0.0791016,-0.0354614,-0.00401747,0.00267791,0.00304498,0.00385559,-0.00519515,1.20176,0.00524449,0.0110754,1805,659,-0.0791547,0.0354554
588,365,-0.0738525,-0.0406494,-0.00388825,0.00207203,0.00266252,0.00308817,-0.00490439,1.20621,0.00465405,0.0103887,1812,659,-0.0738324,0.0406568
595,365,-0.0651855,-0.0281372,-0.00316876,0.00148468,0.00233031,0.00245098,-0.00413506,1.17771,0.00384366,0.0105277,1819,659,-0.0651652,0.0281564
602,365,-0.0585938,-0.0385742,-0.00185464,0.00088262,0.00198579,0.00192574,-0.00289776,1.08712,0.00280363,0.0106034,1826,659,-0.0586498,0.0385614
609,365,-0.083252,-0.0384521,-0.000690011,0.000477598,0.00145894,0.00146521,-0.00167762,0.975719,0.00181589,0.00989871,1833,659,-0.0832564,0.038464
616,365,-0.064209,-0.026062,2.5977e-05,7.84434e-05,0.000720471,0.000773159,-0.000668739,0.803596,0.000833207,0.0104945,1840,659,-0.0642258,0.0260864
623,365,-0.0476074,-0.0362549,0.000403229,-0.000228829,-0.000247988,0.000488912,-0.000314512,-0.332671,0.000467486,0.0100557,1847,659,-0.0476177,0.0362676
630,365,-0.085083,-0.041748,0.00163899,0.000452624,-0.000865434,0.00209502,-3.40294e-06,-0.484962,0.00139781,0.014531,1854,659,-0.0850368,0.041732
637,365,-0.09729,-0.0655518,0.00326222,0.00193131,-0.000641913,0.00352136,0.00167216,-0.383697,0.00203391,0.0190288,1861,659,-0.0972811,0.065541
644,365,-0.0701904,-0.0621338,0.00461236,0.00329527,-0.000479029,0.00476815,0.00313947,-0.314442,0.00279858,0.0128334,1868,659,-0.070231,0.0621178
651,365,-0.0592041,-0.0218506,0.00617437,0.00512593,-0.000201214,0.00621166,0.00508864,-0.183248,0.00382216,0.0159558,1875,659,-0.0591473,0.0218322
658,365,-0.0280762,-0.0232544,0.00847404,0.00766924,0.000449873,0.00867522,0.00746806,0.420523,0.00542604,0.0308292,1882,659,-0.028107,0.023229
665,365,-0.0577393,-0.351196,0.0113374,0.011143,0.00149274,0.0127361,0.00974426,0.752886,0.00768995,0.0448631,1889,659,-0.0576837,0.351188
672,365,-0.400635,-0.28833,0,0,0,0,0,0,0,-1,1896,659,-0.400597,0.288303
679,365,-0.360229,0.750793,0.0187853,0.0216787,0.00508943,0.0255231,0.014941,0.923873,0.0148072,0.0484953,1903,659,-0.36021,-0.750804
686,365,0.254395,0.804321,0.0232199,0.0290107,0.00772729,0.0343672,0.0178634,0.96465,0.0198471,0.043346,1910,659,0.254347,-0.804291
693,365,0.81604,0.830261,0,0,0,0,0,0,0,-1,1917,659,0.815991,-0.830247
700,365,0,0,0,0,0,0,0,0,0,-1,1924,659,0,0
707,365,0,0,0,0,0,0,0,0,0,-1,1931,659,0,0
714,365,0,0,0,0,0,0,0,0,0,-1,1938,659,0,0
721,365,0,0,0,0,0,0,0,0,0,-1,1945,659,0,0
728,365,0,0,0,0,0,0,0,0,0,-1,1952,659,0,0
735,365,0,0,0,0,0,0,0,0,0,-1,1959,659,0,0
742,365,0,0,0,0,0,0,0,0,0,-1,1966,659,0,0
749,365,0,0,0,0,0,0,0,0,0,-1,1973,659,0,0
756,365,0,0,0,0,0,0,0,0,0,-1,1980,659,0,0
763,365,0,0,0,0,0,0,0,0,0,-1,1987,659,0,0
770,365,0,0,0,0,0,0,0,0,0,-1,1994,659,0,0
777,365,0,0,0,0,0,0,0,0,0,-1,2001,659,0,0
784,365,0,0,0,0,0,0,0,0,0,-1,2008,659,0,0
791,365,0,0,0,0,0,0,0,0,0,-1,2015,659,0,0
798,365,0,0,0,0,0,0,0,0,0,-1,2022,659,0,0
805,365,0,0,0,0,0,0,0,0,0,-1,2029,659,0,0
812,365,0,0,0,0,0,0,0,0,0,-1,2036,659,0,0
-700,358,0,0,0,0,0,0,0,0,0,-1,524,666,0,0
-693,358,0,0,0,0,0,0,0,0,0,-1,531,666,0,0
-686,358,0,0,0,0,0,0,0,0,0,-1,538,666,0,0
-679,358,0,0,0,0,0,0,0,0,0,-1,545,666,0,0
-672,358,0,0,0,0,0,0,0,0,0,-1,552,666,0,0
-665,358,0,0,0,0,0,0,0,0,0,-1,559,666,0,0
-658,358,0,0,0,0,0,0,0,0,0,-1,566,666,0,0
-651,358,0,0,0,0,0,0,0,0,0,-1,573,666,0,0
-644,358,0,0,0,0,0,0,0,0,0,-1,580,666,0,0
-637,358,0,0,0,0,0,0,0,0,0,-1,587,666,0,0
-630,358,0,0,0,0,0,0,0,0,0,-1,594,666,0,0
-623,358,0,0,0,0,0,0,0,0,0,-1,601,666,0,0
-616,358,0,0,0,0,0,0,0,0,0,-1,608,666,0,0
-609,358,0,0,0,0,0,0,0,0,0,-1,615,666,0,0
-602,358,0,0,0,0,0,0,0,0,0,-1,622,666,0,0
-595,358,0,0,0,0,0,0,0,0,0,-1,629,666,0,0
-588,358,0,0,0,0,0,0,0,0,0,-1,636,666,0,0
-581,358,1.92029,-4.49469,-0.0436113,-0.078372,0.0669301,0.0081583,-0.130142,0.658365,0.0896044,0.0452277,643,666,1.92029,4.4947
-574,358,1.64972,-3.40442,-0.0375535,-0.0608686,0.05314,0.00519263,-0.103615,0.677421,0.0708708,0.0428239,650,666,1.64971,3.40442
-567,358,1.52679,-2.38544,-0.0309117,-0.0451606,0.0411609,0.00373686,-0.0798091,0.699703,0.0544944,0.0440464,657,666,1.52677,2.38542
-560,358,0.122437,-0.295166,-0.0243971,-0.0319228,0.0309983,0.00306598,-0.0593858,0.725,0.0406511,0.0451514,664,666,0.122462,0.295142
-553,358,-0.363464,0.157837,-0.0183751,-0.0212557,0.022614,0.00284439,-0.0424752,0.753595,0.029311,0.0446975,671,666,-0.363439,-0.157844
-546,358,0.0288086,0.174316,-0.013222,-0.0134411,0.0158907,0.00255955,-0.0292226,0.781951,0.0203886,0.0467555,678,666,0.0288249,-0.174308
-539,358,-0.223755,-0.2771,-0.00894977,-0.00767736,0.0109761,0.00268096,-0.0193081,0.814347,0.0138525,0.0430095,685,666,-0.223743,0.277103
-532,358,-0.0908813,-0.0705566,-0.00568754,-0.00389615,0.00713926,0.00240338,-0.0119871,0.847802,0.00890133,0.0358951,692,666,-0.090909,0.0705287
-525,358,-0.0762329,-0.0106812,-0.00316482,-0.000201592,0.00417605,0.00274789,-0.0061143,0.955865,0.00523819,0.0222956,699,666,-0.0762587,0.0106587
-518,358,-0.0369873,0.00445557,-0.00146721,0.00156983,0.00216937,0.00269935,-0.00259672,1.09076,0.00305787,0.0166926,706,666,-0.0369785,-0.00443004
-511,358,-0.0499268,-0.0167236,-0.000352466,0.00251567,0.000755437,0.00270248,-0.000539273,1.32838,0.00200572,0.0136041,713,666,-0.0499299,0.0167517
-504,358,-0.0645142,-0.0366211,0.000149915,0.00216584,3.04036e-05,0.0021663,0.000149457,1.55572,0.00139705,0.0100642,720,666,-0.064513,0.0366087
-497,358,-0.0596313,-0.0410767,-0.000246024,0.00180906,-0.000189287,0.00182635,-0.000263314,-1.47971,0.00131416,0.0101696,727,666,-0.0596208,0.0410539
-490,358,-0.0543823,-0.039917,-0.000456962,0.00162032,-1.53933e-05,0.00162043,-0.000457076,-1.56339,0.00126058,0.00964183,734,666,-0.0543717,0.0399395
-483,358,-0.0541382,-0.0255737,-0.000543532,0.00155672,0.000261199,0.00158871,-0.000575529,1.4489,0.00129436,0.00915623,741,666,-0.05414,0.0255979
-476,358,-0.0493774,-0.0109863,-0.00206727,0.0017487,0.000823814,0.00191895,-0.00223753,1.367,0.00240209,0.00987301,748,666,-0.0493596,0.0109677
-469,358,-0.0628662,-0.0130615,-0.00388599,0.00266832,0.00130659,0.00291919,-0.00413686,1.38111,0.00409398,0.0116749,755,666,-0.0628481,0.013034
-462,358,-0.0541382,-0.0126953,-0.00485669,0.0038242,0.00211813,0.00431345,-0.00534594,1.3438,0.00558746,0.0153693,762,666,-0.0541628,0.0126696
-455,358,-0.0664063,-0.0202637,-0.00636035,0.00532942,0.00308491,0.00609357,-0.0071245,1.32798,0.00763919,0.0149127,769,666,-0.0664192,0.0202799
-448,358,-0.0901489,-0.0562744,-0.00879391,0.00778447,0.00417328,0.00877574,-0.00978518,1.33759,0.0107214,0.0198306,776,666,-0.0901208,0.0562511
-441,358,-0.0141602,0.0576172,-0.0119087,0.00957743,0.00441113,0.0104478,-0.012779,1.37599,0.0134325,0.0349089,783,666,-0.0141787,-0.0576247
-434,358,0.0524292,0.331726,0,0,0,0,0,0,0,-1,790,666,0.0524149,-0.331754
-427,358,0.253967,0.7099,0,0,0,0,0,0,0,-1,797,666,0.253982,-0.709889
-420,358,-0.402466,-0.71814,0,0,0,0,0,0,0,-1,804,666,-0.402487,0.718136
-413,358,-0.266846,-0.518677,0,0,0,0,0,0,0,-1,811,666,-0.26686,0.518661
-406,358,-0.131226,-0.319214,0,0,0,0,0,0,0,-1,818,666,-0.131232,0.319185
-399,358,-3.12994,1.38239,-0.0344448,0.0294131,0.000970314,0.0294278,-0.0344596,1.55561,0.0369235,0.0481529,825,666,-3.12996,-1.38236
-392,358,-3.78595,0.904236,-0.0375522,0.0342708,-0.00074858,0.0342786,-0.03756,-1.56038,0.0414905,0.0448385,832,666,-3.78596,-0.904227
-385,358,-4.58649,0.110535,0,0,0,0,0,0,0,-1,839,666,-4.58647,-0.110551
-378,358,0,0,0,0,0,0,0,0,0,-1,846,666,0,0
-371,358,0,0,0,0,0,0,0,0,0,-1,853,666,0,0
-364,358,0,0,0,0,0,0,0,0,0,-1,860,666,0,0
-357,358,0,0,0,0,0,0,0,0,0,-1,867,666,0,0
-350,358,0,0,0,0,0,0,0,0,0,-1,874,666,0,0
-343,358,0,0,0,0,0,0,0,0,0,-1,881,666,0,0
-336,358,0,0,0,0,0,0,0,0,0,-1,888,666,0,0
-329,358,0,0,0,0,0,0,0,0,0,-1,895,666,0,0
-322,358,0,0,0,0,0,0,0,0,0,-1,902,666,0,0
-315,358,0,0,0,0,0,0,0,0,0,-1,909,666,0,0
-308,358,0,0,0,0,0,0,0,0,0,-1,916,666,0,0
-301,358,0,0,0,0,0,0,0,0,0,-1,923,666,0,0
-294,358,0,0,0,0,0,0,0,0,0,-1,930,666,0,0
-287,358,0,0,0,0,0,0,0,0,0,-1,937,666,0,0
-280,358,0,0,0,0,0,0,0,0,0,-1,944,666,0,0
-273,358,0,0,0,0,0,0,0,0,0,-1,951,666,0,0
-266,358,0,0,0,0,0,0,0,0,0,-1,958,666,0,0
-259,358,0,0,0,0,0,0,0,0,0,-1,965,666,0,0
-252,358,0,0,0,0,0,0,0,0,0,-1,972,666,0,0
-245,358,0,0,0,0,0,0,0,0,0,-1,979,666,0,0
-238,358,0,0,0,0,0,0,0,0,0,-1,986,666,0,0
-231,358,0,0,0,0,0,0,0,0,0,-1,993,666,0,0
-224,358,0,0,0,0,0,0,0,0,0,-1,1000,666,0,0
-217,358,0,0,0,0,0,0,0,0,0,-1,1007,666,0,0
-210,358,0,0,0,0,0,0,0,0,0,-1,1014,666,0,0
-203,358,0,0,0,0,0,0,0,0,0,-1,1021,666,0,0
-196,358,0,0,0,0,0,0,0,0,0,-1,1028,666,0,0
-189,358,0,0,0,0,0,0,0,0,0,-1,1035,666,0,0
-182,358,0,0,0,0,0,0,0,0,0,-1,1042,666,0,0
-175,358,0,0,0,0,0,0,0,0,0,-1,1049,666,0,0
-168,358,0,0,0,0,0,0,0,0,0,-1,1056,666,0,0
-161,358,0,0,0,0,0,0,0,0,0,-1,1063,666,0,0
-154,358,0,0,0,0,0,0,0,0,0,-1,1070,666,0,0
-147,358,0,0,0,0,0,0,0,0,0,-1,1077,666,0,0
-140,358,0,0,0,0,0,0,0,0,0,-1,1084,666,0,0
-133,358,0,0,0,0,0,0,0,0,0,-1,1091,666,0,0
-126,358,0,0,0,0,0,0,0,0,0,-1,1098,666,0,0
-119,358,0,0,0,0,0,0,0,0,0,-1,1105,666,0,0
-112,358,0,0,0,0,0,0,0,0,0,-1,1112,666,0,0
-105,358,0,0,0,0,0,0,0,0,0,-1,1119,666,0,0
-98,358,0,0,0,0,0,0,0,0,0,-1,1126,666,0,0
-91,358,0,0,0,0,0,0,0,0,0,-1,1133,666,0,0
-84,358,0,0,0,0,0,0,0,0,0,-1,1140,666,0,0
-77,358,0,0,0,0,0,0,0,0,0,-1,1147,666,0,0
-70,358,0,0,0,0,0,0,0,0,0,-1,1154,666,0,0
-63,358,0,0,0,0,0,0,0,0,0,-1,1161,666,0,0
-56,358,0,0,0,0,0,0,0,0,0,-1,1168,666,0,0
-49,358,0,0,0,0,0,0,0,0,0,-1,1175,666,0,0
-42,358,0,0,0,0,0,0,0,0,0,-1,1182,666,0,0
-35,358,0,0,0,0,0,0,0,0,0,-1,1189,666,0,0
-28,358,0,0,0,0,0,0,0,0,0,-1,1196,666,0,0
-21,358,0,0,0,0,0,0,0,0,0,-1,1203,666,0,0
-14,358,0,0,0,0,0,0,0,0,0,-1,1210,666,0,0
-7,358,0,0,0,0,0,0,0,0,0,-1,1217,666,0,0
0,358,0,0,0,0,0,0,0,0,0,-1,1224,666,0,0
7,358,0,0,0,0,0,0,0,0,0,-1,1231,666,0,0
14,358,0,0,0,0,0,0,0,0,0,-1,1238,666,0,0
21,358,0,0,0,0,0,0,0,0,0,-1,1245,666,0,0
28,358,0,0,0,0,0,0,0,0,0,-1,1252,666,0,0
35,358,0,0,0,0,0,0,0,0,0,-1,1259,666,0,0
42,358,0,0,0,0,0,0,0,0,0,-1,1266,666,0,0
49,358,0,0,0,0,0,0,0,0,0,-1,1273,666,0,0
56,358,0,0,0,0,0,0,0,0,0,-1,1280,666,0,0
63,358,0,0,0,0,0,0,0,0,0,-1,1287,666,0,0
70,358,0,0,0,0,0,0,0,0,0,-1,1294,666,0,0
77,358,0,0,0,0,0,0,0,0,0,-1,1301,666,0,0
84,358,0,0,0,0,0,0,0,0,0,-1,1308,666,0,0
91,358,0,0,0,0,0,0,0,0,0,-1,1315,666,0,0
98,358,0,0,0,0,0,0,0,0,0,-1,1322,666,0,0
105,358,0,0,0,0,0,0,0,0,0,-1,1329,666,0,0
112,358,0,0,0,0,0,0,0,0,0,-1,1336,666,0,0
119,358,0,0,0,0,0,0,0,0,0,-1,1343,666,0,0
126,358,0,0,0,0,0,0,0,0,0,-1,1350,666,0,0
133,358,0,0,0,0,0,0,0,0,0,-1,1357,666,0,0
140,358,0,0,0,0,0,0,0,0,0,-1,1364,666,0,0
147,358,0,0,0,0,0,0,0,0,0,-1,1371,666,0,0
154,358,0,0,0,0,0,0,0,0,0,-1,1378,666,0,0
161,358,0,0,0,0,0,0,0,0,0,-1,1385,666,0,0
168,358,0,0,0,0,0,0,0,0,0,-1,1392,666,0,0
175,358,0,0,0,0,0,0,0,0,0,-1,1399,666,0,0
182,358,0,0,0,0,0,0,0,0,0,-1,1406,666,0,0
189,358,0,0,0,0,0,0,0,0,0,-1,1413,666,0,0
196,358,0,0,0,0,0,0,0,0,0,-1,1420,666,0,0
203,358,0,0,0,0,0,0,0,0,0,-1,1427,666,0,0
210,358,0,0,0,0,0,0,0,0,0,-1,1434,666,0,0
217,358,0,0,0,0,0,0,0,0,0,-1,1441,666,0,0
224,358,0,0,0,0,0,0,0,0,0,-1,1448,666,0,0
231,358,0,0,0,0,0,0,0,0,0,-1,1455,666,0,0
238,358,0,0,0,0,0,0,0,0,0,-1,1462,666,0,0
245,358,0,0,0,0,0,0,0,0,0,-1,1469,666,0,0
252,358,0,0,0,0,0,0,0,0,0,-1,1476,666,0,0
259,358,0,0,0,0,0,0,0,0,0,-1,1483,666,0,0
266,358,0,0,0,0,0,0,0,0,0,-1,1490,666,0,0
273,358,0,0,0,0,0,0,0,0,0,-1,1497,666,0,0
280,358,0,0,0,0,0,0,0,0,0,-1,1504,666,0,0
287,358,0,0,0,0,0,0,0,0,0,-1,1511,666,0,0
294,358,0,0,0,0,0,0,0,0,0,-1,1518,666,0,0
301,358,0,0,0,0,0,0,0,0,0,-1,1525,666,0,0
308,358,0,0,0,0,0,0,0,0,0,-1,1532,666,0,0
315,358,0,0,0,0,0,0,0,0,0,-1,1539,666,0,0
322,358,0,0,0,0,0,0,0,0,0,-1,1546,666,0,0
329,358,0,0,0,0,0,0,0,0,0,-1,1553,666,0,0
336,358,0,0,0,0,0,0,0,0,0,-1,1560,666,0,0
343,358,0,0,0,0,0,0,0,0,0,-1,1567,666,0,0
350,358,0,0,0,0,0,0,0,0,0,-1,1574,666,0,0
357,358,0,0,0,0,0,0,0,0,0,-1,1581,666,0,0
364,358,0,0,0,0,0,0,0,0,0,-1,1588,666,0,0
371,358,0,0,0,0,0,0,0,0,0,-1,1595,666,0,0
378,358,0,0,0,0,0,0,0,0,0,-1,1602,666,0,0
385,358,0,0,0,0,0,0,0,0,0,-1,1609,666,0,0
392,358,0,0,0,0,0,0,0,0,0,-1,1616,666,0,0
399,358,0,0,0,0,0,0,0,0,0,-1,1623,666,0,0
406,358,0,0,0,0,0,0,0,0,0,-1,1630,666,0,0
413,358,0,0,0,0,0,0,0,0,0,-1,1637,666,0,0
420,358,0,0,0,0,0,0,0,0,0,-1,1644,666,0,0
427,358,0,0,0,0,0,0,0,0,0,-1,1651,666,0,0
434,358,0,0,0,0,0,0,0,0,0,-1,1658,666,0,0
441,358,0,0,0,0,0,0,0,0,0,-1,1665,666,0,0
448,358,0,0,0,0,0,0,0,0,0,-1,1672,666,0,0
455,358,0,0,0,0,0,0,0,0,0,-1,1679,666,0,0
462,358,0,0,0,0,0,0,0,0,0,-1,1686,666,0,0
469,358,0,0,0,0,0,0,0,0,0,-1,1693,666,0,0
476,358,0,0,0,0,0,0,0,0,0,-1,1700,666,0,0
483,358,0,0,0,0,0,0,0,0,0,-1,1707,666,0,0
490,358,0,0,0,0,0,0,0,0,0,-1,1714,666,0,0
497,358,0.630737,-0.561951,0.0668657,-0.00938458,-0.00162249,0.0669002,-0.00941909,-0.0212656,0.0480486,0.0446624,1721,666,0.630711,0.561936
504,358,1.76233,-0.15802,0,0,0,0,0,0,0,-1,1728,666,1.76231,0.158019
511,358,2.89417,0.296082,0,0,0,0,0,0,0,-1,1735,666,2.89412,-0.296092
518,358,-0.349487,-0.647339,0,0,0,0,0,0,0,-1,1742,666,-0.349472,0.647368
525,358,0.512573,-0.546875,0,0,0,0,0,0,0,-1,1749,666,0.512521,0.546889
532,358,0.173218,-0.321655,0.00937475,0.00425691,0.00298404,0.0107468,0.00288485,0.430972,0.00642264,0.0463377,1756,666,0.17327,0.321677
539,358,-0.0352783,-0.118774,0.00361989,0.00500277,0.00313751,0.00752412,0.00109853,0.893854,0.00469296,0.0465436,1763,666,-0.035337,0.118798
546,358,0.139038,-0.112671,-0.000562583,0.0047266,0.0032838,0.00629831,-0.0021343,1.12439,0.00506256,0.0476177,1770,666,0.139095,0.112673
553,358,0.034668,-0.178284,-0.00336036,0.00499511,0.00409451,0.00666703,-0.00503227,1.18313,0.00677654,0.0437126,1777,666,0.0346306,0.17827
560,358,-0.163818,-0.247559,-0.00426696,0.00438235,0.00451257,0.00630797,-0.00619258,1.16747,0.0072173,0.0449862,1784,666,-0.16377,0.247586
567,358,0.0533447,0.0112915,-0.00476138,0.00371224,0.00446075,0.00562757,-0.00667672,1.16523,0.00711248,0.045009,1791,666,0.0532867,-0.011307
574,358,-0.0390625,0.0219116,-0.00469805,0.00315775,0.0046964,0.00535231,-0.00689261,1.13366,0.00708823,0.0366652,1798,666,-0.0390716,-0.0218854
581,358,-0.0758057,-0.0227661,-0.0043782,0.00235,0.00459625,0.00468175,-0.00670995,1.10131,0.00661166,0.0176423,1805,666,-0.0758138,0.0227382
588,358,-0.0808105,-0.0356445,-0.00425899,0.00164243,0.00399442,0.00365781,-0.00627437,1.10352,0.0058003,0.010245,1812,666,-0.0808664,0.0356323
595,358,-0.0715332,-0.0338745,-0.00352334,0.000932474,0.00348981,0.0028449,-0.00543577,1.06949,0.00485822,0.00954984,1819,666,-0.0715732,0.0338743
602,358,-0.0804443,-0.0393677,-0.0020269,0.000282284,0.00287612,0.00222691,-0.00397153,0.976272,0.00362561,0.00961706,1826,666,-0.080446,0.039369
609,358,-0.112305,-0.0346069,-0.000627924,-0.000128897,0.00208389,0.00172036,-0.00247719,0.844982,0.00243655,0.0114714,1833,666,-0.112358,0.0345894
616,358,-0.0948486,-0.0354614,0.000128606,-0.000620299,0.00123123,0.00104107,-0.00153276,0.637778,0.00149501,0.0120689,1840,666,-0.0948794,0.0354441
623,358,-0.0792236,-0.0509033,0.000403209,-0.0010488,5.97791e-05,0.000405666,-0.00105126,0.0410773,0.000868246,0.0128647,1847,666,-0.0792447,0.0508831
630,358,-0.0865479,-0.0665894,0.00152914,-0.000481502,-0.000693703,0.00174525,-0.000697613,-0.302002,0.00145298,0.016251,1854,666,-0.0865366,0.0666029
637,358,-0.0911865,-0.0583496,0.00295699,0.000915591,-0.000489088,0.00306811,0.000804462,-0.223423,0.00183694,0.0218663,1861,666,-0.0911685,0.0583463
644,358,-0.083374,-0.0639038,0.00406781,0.00212055,-0.000278015,0.00410673,0.00208164,-0.139072,0.0023711,0.0173043,1868,666,-0.0833509,0.0638803
651,358,-0.0766602,-0.0557251,0.00528698,0.00367008,2.93709e-05,0.00528751,0.00366955,0.018157,0.00312841,0.0143407,1875,666,-0.0766638,0.0557189
658,358,-0.0689697,-0.0327759,0.00714893,0.0058101,0.000693736,0.00744356,0.00551547,0.401619,0.00446081,0.020133,1882,666,-0.0689921,0.0327758
665,358,-0.155029,-0.118774,0.00941008,0.00869214,0.00166923,0.0107585,0.00734372,0.679487,0.00634799,0.0342631,1889,666,-0.154969,0.118779
672,358,-0.235352,-0.173035,0.0120492,0.0125031,0.00304847,0.0153331,0.00921925,0.82255,0.00891286,0.0446123,1896,666,-0.235312,0.173033
679,358,-0.169678,-0.136719,0.0150161,0.0173605,0.00487961,0.0212068,0.0111699,0.903279,0.0122495,0.0424151,1903,666,-0.16965,0.136731
686,358,0.223389,0.569946,0.0181388,0.02333,0.00716056,0.0283509,0.0131179,0.959276,0.0163836,0.0418052,1910,666,0.223407,-0.56997
693,358,0.761475,0.618408,0,0,0,0,0,0,0,-1,1917,666,0.761444,-0.618428
700,358,0,0,0,0,0,0,0,0,0,-1,1924,666,0,0
707,358,0,0,0,0,0,0,0,0,0,-1,1931,666,0,0
714,358,0,0,0,0,0,0,0,0,0,-1,1938,666,0,0
721,358,0,0,0,0,0,0,0,0,0,-1,1945,666,0,0
728,358,0,0,0,0,0,0,0,0,0,-1,1952,666,0,0
735,358,0,0,0,0,0,0,0,0,0,-1,1959,666,0,0
742,358,0,0,0,0,0,0,0,0,0,-1,1966,666,0,0
749,358,0,0,0,0,0,0,0,0,0,-1,1973,666,0,0
756,358,0,0,0,0,0,0,0,0,0,-1,1980,666,0,0
763,358,0,0,0,0,0,0,0,0,0,-1,1987,666,0,0
770,358,0,0,0,0,0,0,0,0,0,-1,1994,666,0,0
777,358,0,0,0,0,0,0,0,0,0,-1,2001,666,0,0
784,358,0,0,0,0,0,0,0,0,0,-1,2008,666,0,0
791,358,0,0,0,0,0,0,0,0,0,-1,2015,666,0,0
798,358,0,0,0,0,0,0,0,0,0,-1,2022,666,0,0
805,358,0,0,0,0,0,0,0,0,0,-1,2029,666,0,0
812,358,0,0,0,0,0,0,0,0,0,-1,2036,666,0,0
-700,351,0,0,0,0,0,0,0,0,0,-1,524,673,0,0
-693,351,0,0,0,0,0,0,0,0,0,-1,531,673,0,0
-686,351,0,0,0,0,0,0,0,0,0,-1,538,673,0,0
-679,351,0,0,0,0,0,0,0,0,0,-1,545,673,0,0
-672,351,0,0,0,0,0,0,0,0,0,-1,552,673,0,0
-665,351,0,0,0,0,0,0,0,0,0,-1,559,673,0,0
-658,351,0,0,0,0,0,0,0,0,0,-1,566,673,0,0
-651,351,0,0,0,0,0,0,0,0,0,-1,573,673,0,0
-644,351,0,0,0,0,0,0,0,0,0,-1,580,673,0,0
-637,351,0,0,0,0,0,0,0,0,0,-1,587,673,0,0
-630,351,0,0,0,0,0,0,0,0,0,-1,594,673,0,0
-623,351,0,0,0,0,0,0,0,0,0,-1,601,673,0,0
-616,351,0,0,0,0,0,0,0,0,0,-1,608,673,0,0
-609,351,0,0,0,0,0,0,0,0,0,-1,615,673,0,0
-602,351,0,0,0,0,0,0,0,0,0,-1,622,673,0,0
-595,351,0,0,0,0,0,0,0,0,0,-1,629,673,0,0
-588,351,0,0,0,0,0,0,0,0,0,-1,636,673,0,0
-581,351,1.39575,-3.49634,-0.0391538,-0.0690956,0.0557043,0.00355637,-0.111806,0.654122,0.0757504,0.0434379,643,673,1.39573,3.49635
-574,351,1.17065,-2.46948,-0.0336074,-0.0551219,0.0449,0.00180601,-0.0905353,0.667823,0.0609678,0.0463691,650,673,1.17066,2.46945
-567,351,0.878845,-0.822205,-0.027831,-0.0422546,0.0352424,0.000929933,-0.0710156,0.684475,0.0476567,0.0463866,657,673,0.878863,0.822206
-560,351,0.343506,-0.377747,-0.0220899,-0.0310296,0.0268221,0.00063221,-0.0537517,0.702832,0.0360471,0.0452317,664,673,0.343507,0.377722
-553,351,-0.240845,0.260376,0,0,0,0,0,0,0,-1,671,673,-0.240858,-0.260366
-546,351,-0.0271606,0.268799,-0.0121948,-0.0146891,0.0139917,0.000605144,-0.0274891,0.740948,0.0185311,0.0434405,678,673,-0.0271481,-0.268785
-539,351,-0.0838013,0.0310669,-0.00835463,-0.00924723,0.0096881,0.000897439,-0.0184993,0.762381,0.0126426,0.0402987,685,673,-0.0837849,-0.0310728
-532,351,-0.0349121,-0.0374756,-0.00534885,-0.00555805,0.00620919,0.000756624,-0.0116635,0.776976,0.00803977,0.0272166,692,673,-0.0349053,0.0374644
-525,351,-0.0411377,-0.0288086,-0.00294994,-0.00174653,0.00354284,0.00124533,-0.0059418,0.869515,0.00443498,0.0155818,699,673,-0.0411487,0.0287787
-518,351,-0.0586548,-0.0316772,-0.00130392,0.000221467,0.00171692,0.00133747,-0.00241993,0.994417,0.00219914,0.0107463,706,673,-0.0586838,0.0316532
-511,351,-0.050354,-0.0341187,-0.000242559,0.00135956,0.000362821,0.0014379,-0.000320895,1.35815,0.00108155,0.0102602,713,673,-0.0503238,0.0341069
-504,351,-0.0513916,-0.0421753,0.000174712,0.00131103,-0.000315584,0.00139279,9.2949e-05,-1.31729,0.000899148,0.00921589,720,673,-0.0513834,0.0422021
-497,351,-0.043396,-0.043335,-0.00029099,0.00115036,-0.000509011,0.00131199,-0.000452622,-1.26333,0.00105831,0.00947673,727,673,-0.0433959,0.0433574
-490,351,-0.0463257,-0.0584717,-0.000619499,0.00116519,-0.000292587,0.00121193,-0.000666242,-1.41238,0.00109951,0.00878561,734,673,-0.0463499,0.0584678
-483,351,-0.0621948,-0.0349121,-0.000687922,0.00130191,-4.93008e-05,0.00130313,-0.000689143,-1.54604,0.0011683,0.0102109,741,673,-0.0622,0.0349411
-476,351,-0.0582275,-0.00653076,-0.00198416,0.00172885,0.000432243,0.0017785,-0.00203381,1.45642,0.00220269,0.00970696,748,673,-0.0582179,0.00654179
-469,351,-0.0594482,0.00628662,-0.00354784,0.00285543,0.000845642,0.00296523,-0.00365763,1.44168,0.00383067,0.0116276,755,673,-0.0594362,-0.00628627
-462,351,-0.0690918,-0.00622559,-0.00438862,0.00418033,0.00159317,0.00446695,-0.00467524,1.39279,0.0052787,0.0145992,762,673,-0.0691026,0.00621736
-455,351,-0.0873413,-0.0331421,-0.00572909,0.00590128,0.00245977,0.00640012,-0.00622792,1.37071,0.00729103,0.0140404,769,673,-0.0873122,0.0331315
-448,351,-0.203064,-0.149902,-0.00796646,0.00865396,0.0033706,0.0093115,-0.008624,1.37814,0.0103576,0.0316434,776,673,-0.203086,0.149902
-441,351,-0.323303,-0.247681,-0.0108832,0.010876,0.00340929,0.0113977,-0.0114049,1.41896,0.0131651,0.0445529,783,673,-0.323294,0.247653
-434,351,-0.371033,-0.290588,0,0,0,0,0,0,0,-1,790,673,-0.37101,0.290615
-427,351,0.452087,0.6651,-0.0174865,0.0170536,0.00369053,0.0174435,-0.0178764,1.46553,0.0203925,0.0449531,797,673,0.452066,-0.665095
-420,351,-1.72028,0.909546,-0.0213557,0.0208378,0.00291019,0.0210376,-0.0215555,1.50226,0.0245918,0.0426799,804,673,-1.72029,-0.90957
-413,351,-0.259216,-0.719849,0,0,0,0,0,0,0,-1,811,673,-0.259234,0.719852
-406,351,-2.70709,0.656006,-0.0303356,0.029499,-0.000222543,0.0294999,-0.0303364,-1.56708,0.0345476,0.047943,818,673,-2.70707,-0.656022
-399,351,-3.03571,0.681274,-0.034801,0.0332989,-0.00296312,0.0334275,-0.0349297,-1.52739,0.0394693,0.0490105,825,673,-3.03568,-0.681258
-392,351,-3.72668,0.414185,-0.0391966,0.0385096,-0.00581401,0.0389422,-0.0396292,-1.49653,0.0453638,0.0471222,832,673,-3.72669,-0.414196
-385,351,-3.83636,0.0122681,0,0,0,0,0,0,0,-1,839,673,-3.83637,-0.012298
-378,351,0,0,0,0,0,0,0,0,0,-1,846,673,0,0
-371,351,0,0,0,0,0,0,0,0,0,-1,853,673,0,0
-364,351,0,0,0,0,0,0,0,0,0,-1,860,673,0,0
-357,351,0,0,0,0,0,0,0,0,0,-1,867,673,0,0
-350,351,0,0,0,0,0,0,0,0,0,-1,874,673,0,0
-343,351,0,0,0,0,0,0,0,0,0,-1,881,673,0,0
-336,351,0,0,0,0,0,0,0,0,0,-1,888,673,0,0
-329,351,0,0,0,0,0,0,0,0,0,-1,895,673,0,0
-322,351,0,0,0,0,0,0,0,0,0,-1,902,673,0,0
-315,351,0,0,0,0,0,0,0,0,0,-1,909,673,0,0
-308,351,0,0,0,0,0,0,0,0,0,-1,916,673,0,0
-301,351,0,0,0,0,0,0,0,0,0,-1,923,673,0,0
-294,351,0,0,0,0,0,0,0,0,0,-1,930,673,0,0
-287,351,0,0,0,0,0,0,0,0,0,-1,937,673,0,0
-280,351,0,0,0,0,0,0,0,0,0,-1,944,673,0,0
-273,351,0,0,0,0,0,0,0,0,0,-1,951,673,0,0
-266,351,0,0,0,0,0,0,0,0,0,-1,958,673,0,0
-259,351,0,0,0,0,0,0,0,0,0,-1,965,673,0,0
-252,351,0,0,0,0,0,0,0,0,0,-1,972,673,0,0
-245,351,0,0,0,0,0,0,0,0,0,-1,979,673,0,0
-238,351,0,0,0,0,0,0,0,0,0,-1,986,673,0,0
-231,351,0,0,0,0,0,0,0,0,0,-1,993,673,0,0
-224,351,0,0,0,0,0,0,0,0,0,-1,1000,673,0,0
-217,351,0,0,0,0,0,0,0,0,0,-1,1007,673,0,0
-210,351,0,0,0,0,0,0,0,0,0,-1,1014,673,0,0
-203,351,0,0,0,0,0,0,0,0,0,-1,1021,673,0,0
-196,351,0,0,0,0,0,0,0,0,0,-1,1028,673,0,0
-189,351,0,0,0,0,0,0,0,0,0,-1,1035,673,0,0
-182,351,0,0,0,0,0,0,0,0,0,-1,1042,673,0,0
-175,351,0,0,0,0,0,0,0,0,0,-1,1049,673,0,0
-168,351,0,0,0,0,0,0,0,0,0,-1,1056,673,0,0
-161,351,0,0,0,0,0,0,0,0,0,-1,1063,673,0,0
-154,351,0,0,0,0,0,0,0,0,0,-1,1070,673,0,0
-147,351,0,0,0,0,0,0,0,0,0,-1,1077,673,0,0
-140,351,0,0,0,0,0,0,0,0,0,-1,1084,673,0,0
-133,351,0,0,0,0,0,0,0,0,0,-1,1091,673,0,0
-126,351,0,0,0,0,0,0,0,0,0,-1,1098,673,0,0
-119,351,0,0,0,0,0,0,0,0,0,-1,1105,673,0,0
-112,351,0,0,0,0,0,0,0,0,0,-1,1112,673,0,0
-105,351,0,0,0,0,0,0,0,0,0,-1,1119,673,0,0
-98,351,0,0,0,0,0,0,0,0,0,-1,1126,673,0,0
-91,351,0,0,0,0,0,0,0,0,0,-1,1133,673,0,0
-84,351,0,0,0,0,0,0,0,0,0,-1,1140,673,0,0
-77,351,0,0,0,0,0,0,0,0,0,-1,1147,673,0,0
-70,351,0,0,0,0,0,0,0,0,0,-1,1154,673,0,0
-63,351,0,0,0,0,0,0,0,0,0,-1,1161,673,0,0
-56,351,0,0,0,0,0,0,0,0,0,-1,1168,673,0,0
-49,351,0,0,0,0,0,0,0,0,0,-1,1175,673,0,0
-42,351,0,0,0,0,0,0,0,0,0,-1,1182,673,0,0
-35,351,0,0,0,0,0,0,0,0,0,-1,1189,673,0,0
-28,351,0,0,0,0,0,0,0,0,0,-1,1196,673,0,0
-21,351,0,0,0,0,0,0,0,0,0,-1,1203,673,0,0
-14,351,0,0,0,0,0,0,0,0,0,-1,1210,673,0,0
-7,351,0,0,0,0,0,0,0,0,0,-1,1217,673,0,0
0,351,0,0,0,0,0,0,0,0,0,-1,1224,673,0,0
7,351,0,0,0,0,0,0,0,0,0,-1,1231,673,0,0
14,351,0,0,0,0,0,0,0,0,0,-1,1238,673,0,0
21,351,0,0,0,0,0,0,0,0,0,-1,1245,673,0,0
28,351,0,0,0,0,0,0,0,0,0,-1,1252,673,0,0
35,351,0,0,0,0,0,0,0,0,0,-1,1259,673,0,0
42,351,0,0,0,0,0,0,0,0,0,-1,1266,673,0,0
49,351,0,0,0,0,0,0,0,0,0,-1,1273,673,0,0
56,351,0,0,0,0,0,0,0,0,0,-1,1280,673,0,0
63,351,0,0,0,0,0,0,0,0,0,-1,1287,673,0,0
70,351,0,0,0,0,0,0,0,0,0,-1,1294,673,0,0
77,351,0,0,0,0,0,0,0,0,0,-1,1301,673,0,0
84,351,0,0,0,0,0,0,0,0,0,-1,1308,673,0,0
91,351,0,0,0,0,0,0,0,0,0,-1,1315,673,0,0
98,351,0,0,0,0,0,0,0,0,0,-1,1322,673,0,0
105,351,0,0,0,0,0,0,0,0,0,-1,1329,673,0,0
112,351,0,0,0,0,0,0,0,0,0,-1,1336,673,0,0
119,351,0,0,0,0,0,0,0,0,0,-1,1343,673,0,0
126,351,0,0,0,0,0,0,0,0,0,-1,1350,673,0,0
133,351,0,0,0,0,0,0,0,0,0,-1,1357,673,0,0
140,351,0,0,0,0,0,0,0,0,0,-1,1364,673,0,0
147,351,0,0,0,0,0,0,0,0,0,-1,1371,673,0,0
154,351,0,0,0,0,0,0,0,0,0,-1,1378,673,0,0
161,351,0,0,0,0,0,0,0,0,0,-1,1385,673,0,0
168,351,0,0,0,0,0,0,0,0,0,-1,1392,673,0,0
175,351,0,0,0,0,0,0,0,0,0,-1,1399,673,0,0
182,351,0,0,0,0,0,0,0,0,0,-1,1406,673,0,0
189,351,0,0,0,0,0,0,0,0,0,-1,1413,673,0,0
196,351,0,0,0,0,0,0,0,0,0,-1,1420,673,0,0
203,351,0,0,0,0,0,0,0,0,0,-1,1427,673,0,0
210,351,0,0,0,0,0,0,0,0,0,-1,1434,673,0,0
217,351,0,0,0,0,0,0,0,0,0,-1,1441,673,0,0
224,351,0,0,0,0,0,0,0,0,0,-1,1448,673,0,0
231,351,0,0,0,0,0,0,0,0,0,-1,1455,673,0,0
238,351,0,0,0,0,0,0,0,0,0,-1,1462,673,0,0
245,351,0,0,0,0,0,0,0,0,0,-1,1469,673,0,0
252,351,0,0,0,0,0,0,0,0,0,-1,1476,673,0,0
259,351,0,0,0,0,0,0,0,0,0,-1,1483,673,0,0
266,351,0,0,0,0,0,0,0,0,0,-1,1490,673,0,0
273,351,0,0,0,0,0,0,0,0,0,-1,1497,673,0,0
280,351,0,0,0,0,0,0,0,0,0,-1,1504,673,0,0
287,351,0,0,0,0,0,0,0,0,0,-1,1511,673,0,0
294,351,0,0,0,0,0,0,0,0,0,-1,1518,673,0,0
301,351,0,0,0,0,0,0,0,0,0,-1,1525,673,0,0
308,351,0,0,0,0,0,0,0,0,0,-1,1532,673,0,0
315,351,0,0,0,0,0,0,0,0,0,-1,1539,673,0,0
322,351,0,0,0,0,0,0,0,0,0,-1,1546,673,0,0
329,351,0,0,0,0,0,0,0,0,0,-1,1553,673,0,0
336,351,0,0,0,0,0,0,0,0,0,-1,1560,673,0,0
343,351,0,0,0,0,0,0,0,0,0,-1,1567,673,0,0
350,351,0,0,0,0,0,0,0,0,0,-1,1574,673,0,0
357,351,0,0,0,0,0,0,0,0,0,-1,1581,673,0,0
364,351,0,0,0,0,0,0,0,0,0,-1,1588,673,0,0
371,351,0,0,0,0,0,0,0,0,0,-1,1595,673,0,0
378,351,0,0,0,0,0,0,0,0,0,-1,1602,673,0,0
385,351,0,0,0,0,0,0,0,0,0,-1,1609,673,0,0
392,351,0,0,0,0,0,0,0,0,0,-1,1616,673,0,0
399,351,0,0,0,0,0,0,0,0,0,-1,1623,673,0,0
406,351,0,0,0,0,0,0,0,0,0,-1,1630,673,0,0
413,351,0,0,0,0,0,0,0,0,0,-1,1637,673,0,0
420,351,0,0,0,0,0,0,0,0,0,-1,1644,673,0,0
427,351,0,0,0,0,0,0,0,0,0,-1,1651,673,0,0
434,351,0,0,0,0,0,0,0,0,0,-1,1658,673,0,0
441,351,0,0,0,0,0,0,0,0,0,-1,1665,673,0,0
448,351,0,0,0,0,0,0,0,0,0,-1,1672,673,0,0
455,351,0,0,0,0,0,0,0,0,0,-1,1679,673,0,0
462,351,0,0,0,0,0,0,0,0,0,-1,1686,673,0,0
469,351,0,0,0,0,0,0,0,0,0,-1,1693,673,0,0
476,351,0,0,0,0,0,0,0,0,0,-1,1700,673,0,0
483,351,0,0,0,0,0,0,0,0,0,-1,1707,673,0,0
490,351,0,0,0,0,0,0,0,0,0,-1,1714,673,0,0
497,351,0,0,0,0,0,0,0,0,0,-1,1721,673,0,0
504,351,2.36902,0.0498047,0,0,0,0,0,0,0,-1,1728,673,2.36898,-0.0497933
511,351,-0.491333,-0.142456,0,0,0,0,0,0,0,-1,1735,673,-0.491339,0.142462
518,351,-0.494629,-0.268311,0.0312277,-0.00178623,0.000931486,0.031254,-0.00181249,0.0281851,0.0214657,0.0411403,1742,673,-0.494665,0.268303
525,351,-0.376709,-0.396057,0.0207054,0.00111957,0.00185334,0.0208792,0.000945739,0.0935209,0.0136152,0.0447077,1749,673,-0.376674,0.396056
532,351,-0.505493,-0.0171509,0.0121488,0.00292947,0.00269528,0.0128789,0.00219933,0.264548,0.00795484,0.0453859,1756,673,-0.505434,0.0171646
539,351,0.694458,0.167969,0.0055416,0.00419348,0.00322499,0.00816222,0.00157286,0.682376,0.00500034,0.0432872,1763,673,0.694397,-0.167995
546,351,0.500244,0.031189,0.00060136,0.00427155,0.0038109,0.00666617,-0.00179327,1.00978,0.00514708,0.0444065,1770,673,0.50028,-0.0312066
553,351,0.315308,-0.234619,-0.00283831,0.00477588,0.00490568,0.00717843,-0.00524086,1.11538,0.00719931,0.0433012,1777,673,0.315368,0.234648
560,351,0.153687,-0.475464,-0.00423208,0.00428027,0.00556382,0.00702917,-0.00698098,1.11191,0.00808878,0.046416,1784,673,0.153702,0.475456
567,351,0.0129395,-0.613037,-0.0050378,0.00364057,0.0056576,0.00643139,-0.00782862,1.11253,0.00824619,0.0494934,1791,673,0.0129243,0.613066
574,351,-0.0844727,0.0744019,-0.00513548,0.00309214,0.00592994,0.00619551,-0.00823885,1.08865,0.00836147,0.046604,1798,673,-0.0845187,-0.0744248
581,351,-0.0856934,-0.0136108,-0.00485994,0.00225178,0.00574354,0.0054511,-0.00805926,1.06257,0.00784851,0.0322748,1805,673,-0.0856925,0.0136148
588,351,-0.043457,-0.0534668,-0.00482344,0.00147759,0.00500914,0.00424461,-0.00759046,1.06612,0.0069234,0.0155259,1812,673,-0.0434394,0.0534644
595,351,-0.0714111,-0.0518799,-0.00409833,0.000687198,0.00440196,0.00330468,-0.00671581,1.03434,0.00589601,0.0117706,1819,673,-0.0713512,0.0518604
602,351,-0.0839844,-0.0596313,-0.00252081,4.06053e-05,0.00360736,0.00258785,-0.00506806,0.955971,0.0044968,0.0152236,1826,673,-0.0840262,0.0596267
609,351,-0.085083,-0.0731812,-0.000940001,-0.00037731,0.00267651,0.0020326,-0.00334991,0.837764,0.00313846,0.0143677,1833,673,-0.0850237,0.0731552
616,351,-0.109131,-0.0469971,-3.56619e-05,-0.000883662,0.0017275,0.00131911,-0.00223843,0.665056,0.00207668,0.0138946,1840,673,-0.1091,0.0469711
623,351,-0.0842285,-0.0678101,0.000272489,-0.00131805,0.000394915,0.000365145,-0.0014107,0.230454,0.0010829,0.0143656,1847,673,-0.0842803,0.0678214
630,351,-0.0537109,-0.0845947,0.00130042,-0.000855804,-0.000522526,0.00142038,-0.000975757,-0.225653,0.00139132,0.0220688,1854,673,-0.0536916,0.0846036
637,351,-0.0264893,-0.0297852,0.00247175,0.000499265,-0.000373095,0.00253996,0.000431053,-0.18083,0.00156948,0.02549,1861,673,-0.0264975,0.0297688
644,351,-0.0914307,-0.0426025,0.0032895,0.00159388,-0.000115838,0.00329738,0.001586,-0.0678953,0.0019042,0.0189242,1868,673,-0.0914486,0.0426291
651,351,-0.0821533,-0.0649414,0.00411955,0.00290057,0.000231635,0.00416208,0.00285804,0.181594,0.00245817,0.0135648,1875,673,-0.0822014,0.064912
658,351,-0.0664063,-0.0378418,0.00546984,0.00466506,0.000928574,0.00607946,0.00405544,0.580939,0.0035747,0.0139814,1882,673,-0.0663672,0.0378253
665,351,-0.0592041,-0.0408325,0.00708261,0.0069716,0.00186051,0.00888845,0.00516576,0.770487,0.00515424,0.0184271,1889,673,-0.0592064,0.040844
672,351,-0.0686035,-0.0405273,0.00892133,0.0100151,0.00312748,0.0126432,0.00629328,0.871955,0.00729955,0.0251527,1896,673,-0.068547,0.0405555
679,351,-0.0338135,0.019043,0.0109074,0.0138939,0.00478087,0.0174093,0.007392,0.936765,0.0100893,0.0345429,1903,673,-0.0338569,-0.0190446
686,351,0.0443115,0.105042,0.0128668,0.018655,0.00681995,0.0231695,0.00835228,0.98606,0.0135494,0.0419289,1910,673,0.0442785,-0.105036
693,351,0.0532227,0.150391,0.0144306,0.0243044,0.00922244,0.0298282,0.00890677,1.03115,0.0176808,0.0441782,1917,673,0.0531806,-0.150412
700,351,-0.0332031,-0.0841064,0.015178,0.0307491,0.0118156,0.0371136,0.00881356,1.07671,0.0223904,0.0434385,1924,673,-0.0332033,0.0840958
707,351,0,0,0,0,0,0,0,0,0,-1,1931,673,0,0
714,351,0,0,0,0,0,0,0,0,0,-1,1938,673,0,0
721,351,0,0,0,0,0,0,0,0,0,-1,1945,673,0,0
728,351,0,0,0,0,0,0,0,0,0,-1,1952,673,0,0
735,351,0,0,0,0,0,0,0,0,0,-1,1959,673,0,0
742,351,0,0,0,0,0,0,0,0,0,-1,1966,673,0,0
749,351,0,0,0,0,0,0,0,0,0,-1,1973,673,0,0
756,351,0,0,0,0,0,0,0,0,0,-1,1980,673,0,0
763,351,0,0,0,0,0,0,0,0,0,-1,1987,673,0,0
770,351,0,0,0,0,0,0,0,0,0,-1,1994,673,0,0
777,351,0,0,0,0,0,0,0,0,0,-1,2001,673,0,0
784,351,0,0,0,0,0,0,0,0,0,-1,2008,673,0,0
791,351,0,0,0,0,0,0,0,0,0,-1,2015,673,0,0
798,351,0,0,0,0,0,0,0,0,0,-1,2022,673,0,0
805,351,0,0,0,0,0,0,0,0,0,-1,2029,673,0,0
812,351,0,0,0,0,0,0,0,0,0,-1,2036,673,0,0
-700,344,0,0,0,0,0,0,0,0,0,-1,524,680,0,0
-693,344,0,0,0,0,0,0,0,0,0,-1,531,680,0,0
-686,344,0,0,0,0,0,0,0,0,0,-1,538,680,0,0
-679,344,0,0,0,0,0,0,0,0,0,-1,545,680,0,0
-672,344,0,0,0,0,0,0,0,0,0,-1,552,680,0,0
-665,344,0,0,0,0,0,0,0,0,0,-1,559,680,0,0
-658,344,0,0,0,0,0,0,0,0,0,-1,566,680,0,0
-651,344,0,0,0,0,0,0,0,0,0,-1,573,680,0,0
-644,344,0,0,0,0,0,0,0,0,0,-1,580,680,0,0
-637,344,0,0,0,0,0,0,0,0,0,-1,587,680,0,0
-630,344,0,0,0,0,0,0,0,0,0,-1,594,680,0,0
-623,344,0,0,0,0,0,0,0,0,0,-1,601,680,0,0
-616,344,0,0,0,0,0,0,0,0,0,-1,608,680,0,0
-609,344,0,0,0,0,0,0,0,0,0,-1,615,680,0,0
-602,344,0,0,0,0,0,0,0,0,0,-1,622,680,0,0
-595,344,0,0,0,0,0,0,0,0,0,-1,629,680,0,0
-588,344,-2.13904,2.66406,0,0,0,0,0,0,0,-1,636,680,-2.13906,-2.66406
-581,344,0.830688,-1.96692,0,0,0,0,0,0,0,-1,643,680,0.830704,1.96694
-574,344,0.718079,-1.64618,0,0,0,0,0,0,0,-1,650,680,0.718075,1.6462
-567,344,0.90918,-0.758911,0,0,0,0,0,0,0,-1,657,680,0.909155,0.758883
-560,344,0.118835,-0.342773,-0.0193961,-0.0274656,0.022625,-0.000448929,-0.0464127,0.69716,0.0307933,0.045199,664,680,0.118825,0.342762
-553,344,-0.419983,0.305786,-0.0148126,-0.019897,0.0169369,-0.000228137,-0.0344815,0.710905,0.022912,0.0449109,671,680,-0.419997,-0.30579
-546,344,-0.164673,0.238342,-0.0108376,-0.0139566,0.0120578,-0.00023889,-0.0245553,0.721088,0.0162911,0.0395857,678,680,-0.164688,-0.238321
-539,344,-0.0933228,0.0256348,-0.00745268,-0.0092051,0.00840058,0.000117261,-0.016775,0.733434,0.0112227,0.0330585,685,680,-0.0933049,-0.0256208
-532,344,-0.0483398,-0.038269,-0.0047498,-0.00597249,0.00533335,7.12508e-06,-0.0107294,0.728334,0.00715532,0.0173755,692,680,-0.0483255,0.0382634
-525,344,-0.0539551,-0.046936,-0.00250179,-0.00240409,0.00300962,0.000557072,-0.00546296,0.793513,0.00384115,0.0154748,699,680,-0.0539397,0.0469138
-518,344,-0.0662231,-0.0654907,-0.000900746,-0.000490837,0.00139425,0.000713444,-0.00210503,0.858375,0.00169207,0.0185977,706,680,-0.0662295,0.0655083
-511,344,-0.064209,-0.0471191,0.000145251,0.000644918,0.000123421,0.000673741,0.000116428,1.34137,0.000415821,0.0147782,713,680,-0.0642331,0.0471023
-504,344,-0.0474854,-0.0518799,0.000527392,0.000727903,-0.000543037,0.00117986,7.54335e-05,-0.87668,0.000762674,0.0136552,720,680,-0.0475095,0.0518752
-497,344,-0.0336914,-0.0545654,6.53405e-05,0.00061766,-0.000754272,0.00114474,-0.000461737,-0.960883,0.000955032,0.0125185,727,680,-0.0336919,0.0545792
-490,344,-0.0593872,-0.0580444,-0.00030919,0.00060451,-0.000611266,0.000910783,-0.000615464,-1.10631,0.000886661,0.0111802,734,680,-0.059362,0.0580254
-483,344,-0.0698242,-0.0523071,-0.000325941,0.000680557,-0.000556817,0.000927844,-0.000573229,-1.15285,0.000874669,0.0108414,741,680,-0.0698292,0.0523101
-476,344,-0.065918,-0.039917,-0.00131533,0.00111895,-0.000280578,0.00115087,-0.00134725,-1.45751,0.00144378,0.0119124,748,680,-0.0659115,0.0399385
-469,344,-0.0718994,-0.0308838,-0.00248268,0.00214088,-6.37604e-05,0.00214176,-0.00248356,-1.55701,0.00267285,0.00997687,755,680,-0.0719046,0.030863
-462,344,-0.0809937,-0.0335083,-0.00306856,0.00331946,0.000435554,0.00334902,-0.00309812,1.50303,0.0037232,0.0107926,762,680,-0.0810043,0.0335063
-455,344,-0.0911865,-0.0734863,-0.00407201,0.00491854,0.00101565,0.00503185,-0.00418532,1.45969,0.00532901,0.0233374,769,680,-0.0912029,0.073464
-448,344,-0.252563,-0.172363,-0.00588671,0.00756158,0.00158914,0.00774681,-0.00607194,1.45476,0.00799777,0.041461,776,680,-0.252562,0.172383
-441,344,-0.329163,-0.15509,-0.00833635,0.00982364,0.00130465,0.00991688,-0.0084296,1.49944,0.0106039,0.0467537,783,680,-0.329191,0.155115
-434,344,-0.251587,0.0316162,-0.0107298,0.012742,0.00129543,0.0128133,-0.010801,1.51583,0.0136502,0.0494807,790,680,-0.251615,-0.0316135
-427,344,-0.878174,0.376038,-0.0137452,0.0161311,0.000826254,0.016154,-0.013768,1.54317,0.0172938,0.047172,797,680,-0.878146,-0.376036
-420,344,-1.57776,0.464417,-0.017199,0.020063,-0.000346867,0.0200662,-0.0172023,-1.56149,0.0215381,0.0430773,804,680,-1.57774,-0.464402
-413,344,-2.02087,0.382629,0,0,0,0,0,0,0,-1,811,680,-2.02087,-0.382611
-406,344,-2.46466,0.469849,-0.026245,0.0294062,-0.00468372,0.0297977,-0.0266364,-1.48742,0.0325993,0.043048,818,680,-2.46466,-0.469822
-399,344,-2.9021,0.4599,-0.0316891,0.0339655,-0.00852168,0.0350535,-0.0327771,-1.4438,0.0391694,0.0434128,825,680,-2.90211,-0.459907
-392,344,-3.49274,0.36853,-0.0378848,0.039837,-0.0129926,0.0419514,-0.0399992,-1.40947,0.0473187,0.0452627,832,680,-3.49273,-0.368556
-385,344,0,0,0,0,0,0,0,0,0,-1,839,680,0,0
-378,344,0,0,0,0,0,0,0,0,0,-1,846,680,0,0
-371,344,0,0,0,0,0,0,0,0,0,-1,853,680,0,0
-364,344,0,0,0,0,0,0,0,0,0,-1,860,680,0,0
-357,344,0,0,0,0,0,0,0,0,0,-1,867,680,0,0
-350,344,0,0,0,0,0,0,0,0,0,-1,874,680,0,0
-343,344,0,0,0,0,0,0,0,0,0,-1,881,680,0,0
-336,344,0,0,0,0,0,0,0,0,0,-1,888,680,0,0
-329,344,0,0,0,0,0,0,0,0,0,-1,895,680,0,0
-322,344,0,0,0,0,0,0,0,0,0,-1,902,680,0,0
-315,344,0,0,0,0,0,0,0,0,0,-1,909,680,0,0
-308,344,0,0,0,0,0,0,0,0,0,-1,916,680,0,0
-301,344,0,0,0,0,0,0,0,0,0,-1,923,680,0,0
-294,344,0,0,0,0,0,0,0,0,0,-1,930,680,0,0
-287,344,0,0,0,0,0,0,0,0,0,-1,937,680,0,0
-280,344,0,0,0,0,0,0,0,0,0,-1,944,680,0,0
-273,344,0,0,0,0,0,0,0,0,0,-1,951,680,0,0
-266,344,0,0,0,0,0,0,0,0,0,-1,958,680,0,0
-259,344,0,0,0,0,0,0,0,0,0,-1,965,680,0,0
-252,344,0,0,0,0,0,0,0,0,0,-1,972,680,0,0
-245,344,0,0,0,0,0,0,0,0,0,-1,979,680,0,0
-238,344,0,0,0,0,0,0,0,0,0,-1,986,680,0,0
-231,344,0,0,0,0,0,0,0,0,0,-1,993,680,0,0
-224,344,0,0,0,0,0,0,0,0,0,-1,1000,680,0,0
-217,344,0,0,0,0,0,0,0,0,0,-1,1007,680,0,0
-210,344,0,0,0,0,0,0,0,0,0,-1,1014,680,0,0
-203,344,0,0,0,0,0,0,0,0,0,-1,1021,680,0,0
-196,344,0,0,0,0,0,0,0,0,0,-1,1028,680,0,0
-189,344,0,0,0,0,0,0,0,0,0,-1,1035,680,0,0
-182,344,0,0,0,0,0,0,0,0,0,-1,1042,680,0,0
-175,344,0,0,0,0,0,0,0,0,0,-1,1049,680,0,0
-168,344,0,0,0,0,0,0,0,0,0,-1,1056,680,0,0
-161,344,0,0,0,0,0,0,0,0,0,-1,1063,680,0,0
-154,344,0,0,0,0,0,0,0,0,0,-1,1070,680,0,0
-147,344,0,0,0,0,0,0,0,0,0,-1,1077,680,0,0
-140,344,0,0,0,0,0,0,0,0,0,-1,1084,680,0,0
-133,344,0,0,0,0,0,0,0,0,0,-1,1091,680,0,0
-126,344,0,0,0,0,0,0,0,0,0,-1,1098,680,0,0
-119,344,0,0,0,0,0,0,0,0,0,-1,1105,680,0,0
-112,344,0,0,0,0,0,0,0,0,0,-1,1112,680,0,0
-105,344,0,0,0,0,0,0,0,0,0,-1,1119,680,0,0
-98,344,0,0,0,0,0,0,0,0,0,-1,1126,680,0,0
-91,344,0,0,0,0,0,0,0,0,0,-1,1133,680,0,0
-84,344,0,0,0,0,0,0,0,0,0,-1,1140,680,0,0
-77,344,0,0,0,0,0,0,0,0,0,-1,1147,680,0,0
-70,344,0,0,0,0,0,0,0,0,0,-1,1154,680,0,0
-63,344,0,0,0,0,0,0,0,0,0,-1,1161,680,0,0
-56,344,0,0,0,0,0,0,0,0,0,-1,1168,680,0,0
-49,344,0,0,0,0,0,0,0,0,0,-1,1175,680,0,0
-42,344,0,0,0,0,0,0,0,0,0,-1,1182,680,0,0
-35,344,0,0,0,0,0,0,0,0,0,-1,1189,680,0,0
-28,344,0,0,0,0,0,0,0,0,0,-1,1196,680,0,0
-21,344,0,0,0,0,0,0,0,0,0,-1,1203,680,0,0
-14,344,0,0,0,0,0,0,0,0,0,-1,1210,680,0,0
-7,344,0,0,0,0,0,0,0,0,0,-1,1217,680,0,0
0,344,0,0,0,0,0,0,0,0,0,-1,1224,680,0,0
7,344,0,0,0,0,0,0,0,0,0,-1,1231,680,0,0
14,344,0,0,0,0,0,0,0,0,0,-1,1238,680,0,0
21,344,0,0,0,0,0,0,0,0,0,-1,1245,680,0,0
28,344,0,0,0,0,0,0,0,0,0,-1,1252,680,0,0
35,344,0,0,0,0,0,0,0,0,0,-1,1259,680,0,0
42,344,0,0,0,0,0,0,0,0,0,-1,1266,680,0,0
49,344,0,0,0,0,0,0,0,0,0,-1,1273,680,0,0
56,344,0,0,0,0,0,0,0,0,0,-1,1280,680,0,0
63,344,0,0,0,0,0,0,0,0,0,-1,1287,680,0,0
70,344,0,0,0,0,0,0,0,0,0,-1,1294,680,0,0
77,344,0,0,0,0,0,0,0,0,0,-1,1301,680,0,0
84,344,0,0,0,0,0,0,0,0,0,-1,1308,680,0,0
91,344,0,0,0,0,0,0,0,0,0,-1,1315,680,0,0
98,344,0,0,0,0,0,0,0,0,0,-1,1322,680,0,0
105,344,0,0,0,0,0,0,0,0,0,-1,1329,680,0,0
112,344,0,0,0,0,0,0,0,0,0,-1,1336,680,0,0
119,344,0,0,0,0,0,0,0,0,0,-1,1343,680,0,0
126,344,0,0,0,0,0,0,0,0,0,-1,1350,680,0,0
133,344,0,0,0,0,0,0,0,0,0,-1,1357,680,0,0
140,344,0,0,0,0,0,0,0,0,0,-1,1364,680,0,0
147,344,0,0,0,0,0,0,0,0,0,-1,1371,680,0,0
154,344,0,0,0,0,0,0,0,0,0,-1,1378,680,0,0
161,344,0,0,0,0,0,0,0,0,0,-1,1385,680,0,0
168,344,0,0,0,0,0,0,0,0,0,-1,1392,680,0,0
175,344,0,0,0,0,0,0,0,0,0,-1,1399,680,0,0
182,344,0,0,0,0,0,0,0,0,0,-1,1406,680,0,0
189,344,0,0,0,0,0,0,0,0,0,-1,1413,680,0,0
196,344,0,0,0,0,0,0,0,0,0,-1,1420,680,0,0
203,344,0,0,0,0,0,0,0,0,0,-1,1427,680,0,0
210,344,0,0,0,0,0,0,0,0,0,-1,1434,680,0,0
217,344,0,0,0,0,0,0,0,0,0,-1,1441,680,0,0
224,344,0,0,0,0,0,0,0,0,0,-1,1448,680,0,0
231,344,0,0,0,0,0,0,0,0,0,-1,1455,680,0,0
238,344,0,0,0,0,0,0,0,0,0,-1,1462,680,0,0
245,344,0,0,0,0,0,0,0,0,0,-1,1469,680,0,0
252,344,0,0,0,0,0,0,0,0,0,-1,1476,680,0,0
259,344,0,0,0,0,0,0,0,0,0,-1,1483,680,0,0
266,344,0,0,0,0,0,0,0,0,0,-1,1490,680,0,0
273,344,0,0,0,0,0,0,0,0,0,-1,1497,680,0,0
280,344,0,0,0,0,0,0,0,0,0,-1,1504,680,0,0
287,344,0,0,0,0,0,0,0,0,0,-1,1511,680,0,0
294,344,0,0,0,0,0,0,0,0,0,-1,1518,680,0,0
301,344,0,0,0,0,0,0,0,0,0,-1,1525,680,0,0
308,344,0,0,0,0,0,0,0,0,0,-1,1532,680,0,0
315,344,0,0,0,0,0,0,0,0,0,-1,1539,680,0,0
322,344,0,0,0,0,0,0,0,0,0,-1,1546,680,0,0
329,344,0,0,0,0,0,0,0,0,0,-1,1553,680,0,0
336,344,0,0,0,0,0,0,0,0,0,-1,1560,680,0,0
343,344,0,0,0,0,0,0,0,0,0,-1,1567,680,0,0
350,344,0,0,0,0,0,0,0,0,0,-1,1574,680,0,0
357,344,0,0,0,0,0,0,0,0,0,-1,1581,680,0,0
364,344,0,0,0,0,0,0,0,0,0,-1,1588,680,0,0
371,344,0,0,0,0,0,0,0,0,0,-1,1595,680,0,0
378,344,0,0,0,0,0,0,0,0,0,-1,1602,680,0,0
385,344,0,0,0,0,0,0,0,0,0,-1,1609,680,0,0
392,344,0,0,0,0,0,0,0,0,0,-1,1616,680,0,0
399,344,0,0,0,0,0,0,0,0,0,-1,1623,680,0,0
406,344,0,0,0,0,0,0,0,0,0,-1,1630,680,0,0
413,344,0,0,0,0,0,0,0,0,0,-1,1637,680,0,0
420,344,0,0,0,0,0,0,0,0,0,-1,1644,680,0,0
427,344,0,0,0,0,0,0,0,0,0,-1,1651,680,0,0
434,344,0,0,0,0,0,0,0,0,0,-1,1658,680,0,0
441,344,0,0,0,0,0,0,0,0,0,-1,1665,680,0,0
448,344,0,0,0,0,0,0,0,0,0,-1,1672,680,0,0
455,344,0,0,0,0,0,0,0,0,0,-1,1679,680,0,0
462,344,0,0,0,0,0,0,0,0,0,-1,1686,680,0,0
469,344,0,0,0,0,0,0,0,0,0,-1,1693,680,0,0
476,344,0,0,0,0,0,0,0,0,0,-1,1700,680,0,0
483,344,0,0,0,0,0,0,0,0,0,-1,1707,680,0,0
490,344,0,0,0,0,0,0,0,0,0,-1,1714,680,0,0
497,344,0,0,0,0,0,0,0,0,0,-1,1721,680,0,0
504,344,0,0,0,0,0,0,0,0,0,-1,1728,680,0,0
511,344,0.973755,-0.343262,0,0,0,0,0,0,0,-1,1735,680,0.973725,0.343287
518,344,0.894897,-0.272461,0.0370471,-0.00312856,-0.00026924,0.0370489,-0.00313037,-0.00670117,0.0258061,0.043992,1742,680,0.894957,0.272441
525,344,0.842896,-0.172546,0.025575,0.000356885,0.000275899,0.025578,0.000353866,0.0109388,0.0169353,0.0434048,1749,680,0.842873,0.172555
532,344,0.861328,0.0332031,0.0158952,0.00302905,0.00139199,0.0160441,0.00288017,0.106548,0.00987699,0.042868,1756,680,0.861301,-0.0331973
539,344,1.17554,0.147522,0,0,0,0,0,0,0,-1,1763,680,1.17557,-0.147542
546,344,0.842529,-0.0942993,0.00248024,0.00534022,0.00366252,0.00784202,-2.15592e-05,0.971516,0.00523521,0.0411489,1770,680,0.842491,0.0943038
553,344,0.463013,-0.272583,-0.00164316,0.00600518,0.00518032,0.00861995,-0.00425793,1.10335,0.00757589,0.0416219,1777,680,0.463061,0.272611
560,344,0.390991,-0.510559,-0.00357806,0.00555572,0.00619525,0.00868542,-0.00670777,1.10301,0.00891168,0.0435711,1784,680,0.39095,0.510535
567,344,0.46582,-0.765381,0,0,0,0,0,0,0,-1,1791,680,0.465822,0.765411
574,344,-0.126343,0.135803,0,0,0,0,0,0,0,-1,1798,680,-0.12631,-0.135794
581,344,-0.0761719,-0.0321655,0,0,0,0,0,0,0,-1,1805,680,-0.0762162,0.0321382
588,344,0.0842285,-0.11554,-0.00491584,0.00219566,0.00577009,0.00541761,-0.00813779,1.06154,0.00787857,0.0302027,1812,680,0.0842744,0.115561
595,344,-0.036377,-0.0740967,-0.00427864,0.00119807,0.00509793,0.00424655,-0.00732712,1.03186,0.0067605,0.0151867,1819,680,-0.0364227,0.0741173
602,344,-0.0526123,-0.0535278,-0.00273274,0.000384451,0.00419844,0.00330426,-0.00565255,0.963129,0.00523013,0.015531,1826,680,-0.0525759,0.0535193
609,344,-0.0721436,-0.0437622,-0.00103349,-0.000170417,0.00315403,0.00258146,-0.00378537,0.853386,0.00369773,0.0149188,1833,680,-0.0721752,0.043759
616,344,-0.0810547,-0.0307617,-2.61092e-05,-0.000775947,0.00212497,0.00175676,-0.00255882,0.698079,0.0025059,0.0215037,1840,680,-0.0810731,0.0307448
623,344,-0.0649414,-0.0366821,0.000280491,-0.00130777,0.00065371,0.000514941,-0.00154222,0.344357,0.00123608,0.0178319,1847,680,-0.0648839,0.0366725
630,344,-0.0407715,-0.0704956,0.0011708,-0.00102047,-0.000373159,0.0012326,-0.00108227,-0.164133,0.00133743,0.0217685,1854,680,-0.0407406,0.0704882
637,344,-0.0114746,-0.0789185,0.00209376,0.000264919,-0.0002495,0.00212719,0.000231492,-0.133183,0.00134761,0.0213259,1861,680,-0.0114681,0.0789006
644,344,-0.0765381,-0.0692749,0.00266896,0.00124969,6.97029e-05,0.00267237,0.00124627,0.0489547,0.00154406,0.0143319,1868,680,-0.076529,0.0692709
651,344,-0.0736084,-0.052002,0.0031666,0.00235326,0.000477666,0.00338726,0.0021326,0.432755,0.00197741,0.00990694,1875,680,-0.0736658,0.0519852
658,344,-0.0703125,-0.0542603,0.00408363,0.00381689,0.00123135,0.00518882,0.0027117,0.731451,0.00299678,0.0139043,1882,680,-0.0702522,0.0542341
665,344,-0.0667725,-0.0407715,0.00513712,0.00571323,0.00215631,0.00760064,0.00324971,0.851799,0.00440356,0.0173564,1889,680,-0.0667739,0.0407732
672,344,-0.0692139,-0.0255737,0.00630934,0.00820986,0.00334124,0.0107333,0.00378586,0.923941,0.00628587,0.0128728,1896,680,-0.069222,0.0255814
679,344,-0.00012207,-0.0205078,0.0075064,0.0113915,0.00486563,0.014688,0.00420987,0.975321,0.00873373,0.0278485,1903,680,-0.000112889,0.0205012
686,344,0.0830078,0.00134277,0.00858282,0.0153116,0.00674427,0.019484,0.00441034,1.01676,0.0117973,0.0407233,1910,680,0.0830448,-0.00133228
693,344,-0.0356445,-0.0877686,0.00927223,0.0200156,0.0089762,0.0251047,0.00418318,1.05503,0.015531,0.0436962,1917,680,-0.0355874,0.0877964
700,344,-0.231445,-0.293213,0.00927221,0.0255073,0.0114735,0.0314445,0.00333499,1.09327,0.0199445,0.0443297,1924,680,-0.231436,0.293213
707,344,-0.201782,-1.06195,0,0,0,0,0,0,0,-1,1931,680,-0.201784,1.06196
714,344,0,0,0,0,0,0,0,0,0,-1,1938,680,0,0
721,344,0,0,0,0,0,0,0,0,0,-1,1945,680,0,0
728,344,0,0,0,0,0,0,0,0,0,-1,1952,680,0,0
735,344,0,0,0,0,0,0,0,0,0,-1,1959,680,0,0
742,344,0,0,0,0,0,0,0,0,0,-1,1966,680,0,0
749,344,0,0,0,0,0,0,0,0,0,-1,1973,680,0,0
756,344,0,0,0,0,0,0,0,0,0,-1,1980,680,0,0
763,344,0,0,0,0,0,0,0,0,0,-1,1987,680,0,0
770,344,0,0,0,0,0,0,0,0,0,-1,1994,680,0,0
777,344,0,0,0,0,0,0,0,0,0,-1,2001,680,0,0
784,344,0,0,0,0,0,0,0,0,0,-1,2008,680,0,0
791,344,0,0,0,0,0,0,0,0,0,-1,2015,680,0,0
798,344,0,0,0,0,0,0,0,0,0,-1,2022,680,0,0
805,344,0,0,0,0,0,0,0,0,0,-1,2029,680,0,0
812,344,0,0,0,0,0,0,0,0,0,-1,2036,680,0,0
-700,337,0,0,0,0,0,0,0,0,0,-1,524,687,0,0
-693,337,0,0,0,0,0,0,0,0,0,-1,531,687,0,0
-686,337,0,0,0,0,0,0,0,0,0,-1,538,687,0,0
-679,337,0,0,0,0,0,0,0,0,0,-1,545,687,0,0
-672,337,0,0,0,0,0,0,0,0,0,-1,552,687,0,0
-665,337,0,0,0,0,0,0,0,0,0,-1,559,687,0,0
-658,337,0,0,0,0,0,0,0,0,0,-1,566,687,0,0
-651,337,0,0,0,0,0,0,0,0,0,-1,573,687,0,0
-644,337,0,0,0,0,0,0,0,0,0,-1,580,687,0,0
-637,337,0,0,0,0,0,0,0,0,0,-1,587,687,0,0
-630,337,0,0,0,0,0,0,0,0,0,-1,594,687,0,0
-623,337,0,0,0,0,0,0,0,0,0,-1,601,687,0,0
-616,337,0,0,0,0,0,0,0,0,0,-1,608,687,0,0
-609,337,0,0,0,0,0,0,0,0,0,-1,615,687,0,0
-602,337,0,0,0,0,0,0,0,0,0,-1,622,687,0,0
-595,337,0,0,0,0,0,0,0,0,0,-1,629,687,0,0
-588,337,1.65302,0.495911,0,0,0,0,0,0,0,-1,636,687,1.65303,-0.495899
-581,337,0.691284,-1.6026,-0.0300303,-0.0444182,0.0353313,-0.001168,-0.0732806,0.684964,0.0484691,0.0484758,643,687,0.691288,1.60259
-574,337,0.378601,-1.04004,-0.0259343,-0.0372096,0.0294458,-0.0015913,-0.0615526,0.690814,0.0405151,0.0463256,650,687,0.378625,1.04005
-567,337,0.251831,-0.623779,-0.0216407,-0.0299869,0.0236845,-0.00176446,-0.0498632,0.698196,0.0326698,0.0476661,657,687,0.251855,0.62377
-560,337,-0.0776978,-0.274048,-0.017342,-0.0232719,0.0184755,-0.00159505,-0.0390188,0.705837,0.0254975,0.0479109,664,687,-0.077677,0.274037
-553,337,-0.475037,0.156128,-0.0133873,-0.017408,0.0139941,-0.00125986,-0.0295354,0.714058,0.0192841,0.0441566,671,687,-0.475067,-0.156107
-546,337,-0.130554,0.0626221,-0.00993619,-0.0126085,0.00998828,-0.00119508,-0.0213496,0.718907,0.0138519,0.0351351,678,687,-0.130567,-0.0626372
-539,337,-0.0797729,-0.0375366,-0.00694887,-0.00859251,0.00696042,-0.000761916,-0.0147795,0.726635,0.00960908,0.0200781,685,687,-0.0797898,0.0375543
-532,337,-0.0730591,-0.046936,-0.00450363,-0.00588719,0.00431507,-0.000825237,-0.00956558,0.705916,0.00612055,0.0113674,692,687,-0.0730546,0.0469058
-525,337,-0.0678101,-0.0558472,-0.00236426,-0.00269849,0.00235403,-0.000171417,-0.00489133,0.749962,0.00320528,0.0140378,699,687,-0.0677841,0.055866
-518,337,-0.0775757,-0.0507813,-0.000739066,-0.000939424,0.000980803,0.000146661,-0.00182515,0.734505,0.00126848,0.0206248,706,687,-0.0775588,0.0507915
-511,337,-0.0700684,-0.0547485,0.000364367,0.000109239,-0.000169492,0.000448936,2.46708e-05,-0.462808,0.000291415,0.0194952,713,687,-0.070041,0.0547259
-504,337,-0.0501709,-0.0679321,0.000781952,0.000341666,-0.000764765,0.00135763,-0.000234011,-0.645258,0.00099233,0.0181583,720,687,-0.0501984,0.0679366
-497,337,-0.0392456,-0.0622559,0.000439123,0.000292541,-0.000963613,0.00133223,-0.000600564,-0.747442,0.00114224,0.0133508,727,687,-0.0392207,0.0622481
-490,337,-0.0770874,-0.0511475,0.000145296,0.000188617,-0.000918113,0.00108532,-0.000751412,-0.797192,0.00106627,0.0115942,734,687,-0.0770918,0.0511391
-483,337,-0.0651855,-0.052002,0.000279693,8.88783e-05,-0.00112966,0.00131796,-0.000949392,-0.74327,0.00131481,0.0117056,741,687,-0.0651774,0.0520001
-476,337,-0.0580444,-0.0542603,-0.000271384,0.000426606,-0.00112224,0.00125286,-0.00109764,-0.936149,0.00135805,0.0110259,748,687,-0.0580614,0.0542533
-469,337,-0.0759888,-0.0430298,-0.000871707,0.00119363,-0.00116906,0.0017208,-0.00139888,-1.14716,0.00180434,0.0101629,755,687,-0.0759908,0.0430051
-462,337,-0.0760498,-0.0647583,-0.00103613,0.00202013,-0.00105569,0.00234932,-0.00136533,-1.26852,0.00216959,0.0193833,762,687,-0.076077,0.0647447
-455,337,-0.162292,-0.197144,-0.00149232,0.00325428,-0.000913658,0.00342407,-0.00166211,-1.38705,0.00299467,0.0384489,769,687,-0.1623,0.197169
-448,337,-0.400452,-0.405579,-0.00260843,0.0055157,-0.000831176,0.00559987,-0.00269259,-1.46988,0.00488475,0.0462767,776,687,-0.400481,0.405591
-441,337,-0.367371,-0.256287,-0.00427204,0.00763562,-0.00151909,0.00782636,-0.00446278,-1.44589,0.00718318,0.0474248,783,687,-0.367366,0.256271
-434,337,-0.205078,-0.0179443,-0.00571761,0.0102455,-0.00202137,0.0104974,-0.00596959,-1.44678,0.0096263,0.0484134,790,687,-0.205069,0.0179545
-427,337,-0.138489,0.0643921,0,0,0,0,0,0,0,-1,797,687,-0.138471,-0.0643678
-420,337,-1.43579,-0.0215454,0,0,0,0,0,0,0,-1,804,687,-1.43582,0.0215236
-413,337,-1.84711,-0.118103,0,0,0,0,0,0,0,-1,811,687,-1.84713,0.11813
-406,337,-2.23621,0.116028,0,0,0,0,0,0,0,-1,818,687,-2.23619,-0.115998
-399,337,-2.69543,0.272217,0,0,0,0,0,0,0,-1,825,687,-2.69541,-0.27223
-392,337,0,0,0,0,0,0,0,0,0,-1,832,687,0,0
-385,337,0,0,0,0,0,0,0,0,0,-1,839,687,0,0
-378,337,0,0,0,0,0,0,0,0,0,-1,846,687,0,0
-371,337,0,0,0,0,0,0,0,0,0,-1,853,687,0,0
-364,337,0,0,0,0,0,0,0,0,0,-1,860,687,0,0
-357,337,0,0,0,0,0,0,0,0,0,-1,867,687,0,0
-350,337,0,0,0,0,0,0,0,0,0,-1,874,687,0,0
-343,337,0,0,0,0,0,0,0,0,0,-1,881,687,0,0
-336,337,0,0,0,0,0,0,0,0,0,-1,888,687,0,0
-329,337,0,0,0,0,0,0,0,0,0,-1,895,687,0,0
-322,337,0,0,0,0,0,0,0,0,0,-1,902,687,0,0
-315,337,0,0,0,0,0,0,0,0,0,-1,909,687,0,0
-308,337,0,0,0,0,0,0,0,0,0,-1,916,687,0,0
-301,337,0,0,0,0,0,0,0,0,0,-1,923,687,0,0
-294,337,0,0,0,0,0,0,0,0,0,-1,930,687,0,0
-287,337,0,0,0,0,0,0,0,0,0,-1,937,687,0,0
-280,337,0,0,0,0,0,0,0,0,0,-1,944,687,0,0
-273,337,0,0,0,0,0,0,0,0,0,-1,951,687,0,0
-266,337,0,0,0,0,0,0,0,0,0,-1,958,687,0,0
-259,337,0,0,0,0,0,0,0,0,0,-1,965,687,0,0
-252,337,0,0,0,0,0,0,0,0,0,-1,972,687,0,0
-245,337,0,0,0,0,0,0,0,0,0,-1,979,687,0,0
-238,337,0,0,0,0,0,0,0,0,0,-1,986,687,0,0
-231,337,0,0,0,0,0,0,0,0,0,-1,993,687,0,0
-224,337,0,0,0,0,0,0,0,0,0,-1,1000,687,0,0
-217,337,0,0,0,0,0,0,0,0,0,-1,1007,687,0,0
-210,337,0,0,0,0,0,0,0,0,0,-1,1014,687,0,0
-203,337,0,0,0,0,0,0,0,0,0,-1,1021,687,0,0
-196,337,0,0,0,0,0,0,0,0,0,-1,1028,687,0,0
-189,337,0,0,0,0,0,0,0,0,0,-1,1035,687,0,0
-182,337,0,0,0,0,0,0,0,0,0,-1,1042,687,0,0
-175,337,0,0,0,0,0,0,0,0,0,-1,1049,687,0,0
-168,337,0,0,0,0,0,0,0,0,0,-1,1056,687,0,0
-161,337,0,0,0,0,0,0,0,0,0,-1,1063,687,0,0
-154,337,0,0,0,0,0,0,0,0,0,-1,1070,687,0,0
-147,337,0,0,0,0,0,0,0,0,0,-1,1077,687,0,0
-140,337,0,0,0,0,0,0,0,0,0,-1,1084,687,0,0
-133,337,0,0,0,0,0,0,0,0,0,-1,1091,687,0,0
-126,337,0,0,0,0,0,0,0,0,0,-1,1098,687,0,0
-119,337,0,0,0,0,0,0,0,0,0,-1,1105,687,0,0
-112,337,0,0,0,0,0,0,0,0,0,-1,1112,687,0,0
-105,337,0,0,0,0,0,0,0,0,0,-1,1119,687,0,0
-98,337,0,0,0,0,0,0,0,0,0,-1,1126,687,0,0
-91,337,0,0,0,0,0,0,0,0,0,-1,1133,687,0,0
-84,337,0,0,0,0,0,0,0,0,0,-1,1140,687,0,0
-77,337,0,0,0,0,0,0,0,0,0,-1,1147,687,0,0
-70,337,0,0,0,0,0,0,0,0,0,-1,1154,687,0,0
-63,337,0,0,0,0,0,0,0,0,0,-1,1161,687,0,0
-56,337,0,0,0,0,0,0,0,0,0,-1,1168,687,0,0
-49,337,0,0,0,0,0,0,0,0,0,-1,1175,687,0,0
-42,337,0,0,0,0,0,0,0,0,0,-1,1182,687,0,0
-35,337,0,0,0,0,0,0,0,0,0,-1,1189,687,0,0
-28,337,0,0,0,0,0,0,0,0,0,-1,1196,687,0,0
-21,337,0,0,0,0,0,0,0,0,0,-1,1203,687,0,0
-14,337,0,0,0,0,0,0,0,0,0,-1,1210,687,0,0
-7,337,0,0,0,0,0,0,0,0,0,-1,1217,687,0,0
0,337,0,0,0,0,0,0,0,0,0,-1,1224,687,0,0
7,337,0,0,0,0,0,0,0,0,0,-1,1231,687,0,0
14,337,0,0,0,0,0,0,0,0,0,-1,1238,687,0,0
21,337,0,0,0,0,0,0,0,0,0,-1,1245,687,0,0
28,337,0,0,0,0,0,0,0,0,0,-1,1252,687,0,0
35,337,0,0,0,0,0,0,0,0,0,-1,1259,687,0,0
42,337,0,0,0,0,0,0,0,0,0,-1,1266,687,0,0
49,337,0,0,0,0,0,0,0,0,0,-1,1273,687,0,0
56,337,0,0,0,0,0,0,0,0,0,-1,1280,687,0,0
63,337,0,0,0,0,0,0,0,0,0,-1,1287,687,0,0
70,337,0,0,0,0,0,0,0,0,0,-1,1294,687,0,0
77,337,0,0,0,0,0,0,0,0,0,-1,1301,687,0,0
84,337,0,0,0,0,0,0,0,0,0,-1,1308,687,0,0
91,337,0,0,0,0,0,0,0,0,0,-1,1315,687,0,0
98,337,0,0,0,0,0,0,0,0,0,-1,1322,687,0,0
105,337,0,0,0,0,0,0,0,0,0,-1,1329,687,0,0
112,337,0,0,0,0,0,0,0,0,0,-1,1336,687,0,0
119,337,0,0,0,0,0,0,0,0,0,-1,1343,687,0,0
126,337,0,0,0,0,0,0,0,0,0,-1,1350,687,0,0
133,337,0,0,0,0,0,0,0,0,0,-1,1357,687,0,0
140,337,0,0,0,0,0,0,0,0,0,-1,1364,687,0,0
147,337,0,0,0,0,0,0,0,0,0,-1,1371,687,0,0
154,337,0,0,0,0,0,0,0,0,0,-1,1378,687,0,0
161,337,0,0,0,0,0,0,0,0,0,-1,1385,687,0,0
168,337,0,0,0,0,0,0,0,0,0,-1,1392,687,0,0
175,337,0,0,0,0,0,0,0,0,0,-1,1399,687,0,0
182,337,0,0,0,0,0,0,0,0,0,-1,1406,687,0,0
189,337,0,0,0,0,0,0,0,0,0,-1,1413,687,0,0
196,337,0,0,0,0,0,0,0,0,0,-1,1420,687,0,0
203,337,0,0,0,0,0,0,0,0,0,-1,1427,687,0,0
210,337,0,0,0,0,0,0,0,0,0,-1,1434,687,0,0
217,337,0,0,0,0,0,0,0,0,0,-1,1441,687,0,0
224,337,0,0,0,0,0,0,0,0,0,-1,1448,687,0,0
231,337,0,0,0,0,0,0,0,0,0,-1,1455,687,0,0
238,337,0,0,0,0,0,0,0,0,0,-1,1462,687,0,0
245,337,0,0,0,0,0,0,0,0,0,-1,1469,687,0,0
252,337,0,0,0,0,0,0,0,0,0,-1,1476,687,0,0
259,337,0,0,0,0,0,0,0,0,0,-1,1483,687,0,0
266,337,0,0,0,0,0,0,0,0,0,-1,1490,687,0,0
273,337,0,0,0,0,0,0,0,0,0,-1,1497,687,0,0
280,337,0,0,0,0,0,0,0,0,0,-1,1504,687,0,0
287,337,0,0,0,0,0,0,0,0,0,-1,1511,687,0,0
294,337,0,0,0,0,0,0,0,0,0,-1,1518,687,0,0
301,337,0,0,0,0,0,0,0,0,0,-1,1525,687,0,0
308,337,0,0,0,0,0,0,0,0,0,-1,1532,687,0,0
315,337,0,0,0,0,0,0,0,0,0,-1,1539,687,0,0
322,337,0,0,0,0,0,0,0,0,0,-1,1546,687,0,0
329,337,0,0,0,0,0,0,0,0,0,-1,1553,687,0,0
336,337,0,0,0,0,0,0,0,0,0,-1,1560,687,0,0
343,337,0,0,0,0,0,0,0,0,0,-1,1567,687,0,0
350,337,0,0,0,0,0,0,0,0,0,-1,1574,687,0,0
357,337,0,0,0,0,0,0,0,0,0,-1,1581,687,0,0
364,337,0,0,0,0,0,0,0,0,0,-1,1588,687,0,0
371,337,0,0,0,0,0,0,0,0,0,-1,1595,687,0,0
378,337,0,0,0,0,0,0,0,0,0,-1,1602,687,0,0
385,337,0,0,0,0,0,0,0,0,0,-1,1609,687,0,0
392,337,0,0,0,0,0,0,0,0,0,-1,1616,687,0,0
399,337,0,0,0,0,0,0,0,0,0,-1,1623,687,0,0
406,337,0,0,0,0,0,0,0,0,0,-1,1630,687,0,0
413,337,0,0,0,0,0,0,0,0,0,-1,1637,687,0,0
420,337,0,0,0,0,0,0,0,0,0,-1,1644,687,0,0
427,337,0,0,0,0,0,0,0,0,0,-1,1651,687,0,0
434,337,0,0,0,0,0,0,0,0,0,-1,1658,687,0,0
441,337,0,0,0,0,0,0,0,0,0,-1,1665,687,0,0
448,337,0,0,0,0,0,0,0,0,0,-1,1672,687,0,0
455,337,0,0,0,0,0,0,0,0,0,-1,1679,687,0,0
462,337,0,0,0,0,0,0,0,0,0,-1,1686,687,0,0
469,337,0,0,0,0,0,0,0,0,0,-1,1693,687,0,0
476,337,0,0,0,0,0,0,0,0,0,-1,1700,687,0,0
483,337,0,0,0,0,0,0,0,0,0,-1,1707,687,0,0
490,337,0,0,0,0,0,0,0,0,0,-1,1714,687,0,0
497,337,0,0,0,0,0,0,0,0,0,-1,1721,687,0,0
504,337,0,0,0,0,0,0,0,0,0,-1,1728,687,0,0
511,337,0,0,0,0,0,0,0,0,0,-1,1735,687,0,0
518,337,0.590332,0.223328,0.0434945,-0.00369872,-0.000868671,0.0435105,-0.0037147,-0.0183984,0.0303212,0.0441047,1742,687,0.590359,-0.223343
525,337,0.46936,0.0853882,0.0310461,-9.73895e-05,-0.00110129,0.031085,-0.000136285,-0.0353031,0.0207689,0.0406125,1749,687,0.46938,-0.0853856
532,337,0.572266,0.158508,0.0200447,0.00326573,0.000346855,0.0200518,0.00325856,0.0206603,0.012425,0.041281,1756,687,0.572287,-0.158536
539,337,0.884521,-0.069397,0.0111103,0.00552762,0.00206958,0.0117938,0.00484408,0.318997,0.00684525,0.0418131,1763,687,0.884571,0.0693907
546,337,0.9198,-0.253235,0.00428312,0.0062637,0.0038928,0.00929019,0.00125663,0.909951,0.00581999,0.0417134,1770,687,0.919813,0.253205
553,337,0.446777,-0.269409,-0.000628398,0.00700916,0.00575858,0.0101001,-0.00371935,1.07818,0.0082573,0.0405925,1777,687,0.446786,0.269423
560,337,0.254761,-0.0750122,-0.00308973,0.00660131,0.00697583,0.0102494,-0.00673781,1.08895,0.00987717,0.0410018,1784,687,0.254805,0.0750077
567,337,0.778076,-0.0921631,-0.00448475,0.00583827,0.00737866,0.00968153,-0.00832801,1.0906,0.0104076,0.0438064,1791,687,0.778023,0.0921337
574,337,1.43823,-0.107117,0,0,0,0,0,0,0,-1,1798,687,1.43828,0.107105
581,337,0.343506,-0.153992,-0.00482161,0.00395747,0.00734118,0.00812135,-0.00898548,1.05485,0.00988083,0.0454118,1805,687,0.343526,0.153971
588,337,0.240845,-0.199524,-0.00508401,0.00286513,0.00640589,0.0064293,-0.00864818,1.06306,0.00873635,0.0437851,1812,687,0.240789,0.199538
595,337,0.0211182,-0.0949097,-0.00453427,0.00173173,0.00564706,0.00505667,-0.00785922,1.03866,0.00751528,0.0309325,1819,687,0.0211166,0.0949308
602,337,-0.0599365,-0.0391235,-0.00300628,0.000863862,0.00459064,0.00391061,-0.00605302,0.98486,0.00579666,0.0119463,1826,687,-0.0599911,0.0391035
609,337,-0.0561523,-0.0352173,-0.00118535,0.000261664,0.00340801,0.00302212,-0.0039458,0.889993,0.0040347,0.0160006,1833,687,-0.0561109,0.0352247
616,337,-0.0828857,-0.0400391,-8.81905e-05,-0.000488325,0.00234537,0.00206563,-0.00264214,0.74285,0.00272482,0.0163576,1840,687,-0.082835,0.0400397
623,337,-0.0775146,-0.0453491,0.000205814,-0.00113869,0.000785315,0.000567314,-0.00150019,0.431407,0.00123351,0.0132945,1847,687,-0.077563,0.0453605
630,337,-0.0681152,-0.0456543,0.000948576,-0.00107298,-0.000330571,0.00100126,-0.00112566,-0.158041,0.00122868,0.01706,1854,687,-0.068078,0.0456375
637,337,-0.039917,-0.0567627,0.00163505,4.88501e-05,-0.000244011,0.00167174,1.21616e-05,-0.149238,0.00111046,0.0149906,1861,687,-0.0398632,0.0567796
644,337,-0.0733643,-0.055542,0.00201027,0.000842722,0.000122043,0.00202289,0.000830101,0.103045,0.00117415,0.00944048,1868,687,-0.0734232,0.0555698
651,337,-0.0656738,-0.0570679,0.00224153,0.00165919,0.000577813,0.00259739,0.00130333,0.552012,0.00149961,0.00846467,1875,687,-0.0656681,0.057046
658,337,-0.065918,-0.0529785,0.00281987,0.00273043,0.00137909,0.00415497,0.00139533,0.769191,0.0024416,0.0100903,1882,687,-0.0658845,0.0529623
665,337,-0.069458,-0.048645,0.00343564,0.00416654,0.00228701,0.00611712,0.00148506,0.864625,0.00368422,0.0123651,1889,687,-0.0695182,0.0486407
672,337,-0.065918,-0.0394897,0.00410135,0.00611252,0.00339484,0.00864758,0.0015663,0.929386,0.00532037,0.0115345,1896,687,-0.0658906,0.0394933
679,337,-0.0205078,-0.000915527,0.00475537,0.00866608,0.00477313,0.0118688,0.00155261,0.979801,0.00744915,0.0275561,1903,687,-0.0205089,0.000910301
686,337,-0.078125,0.0464478,0.00532403,0.0118629,0.00640494,0.0157846,0.00140232,1.02139,0.0100882,0.0402121,1910,687,-0.0781416,-0.0464719
693,337,-0.22522,-0.122803,0.00562521,0.015802,0.00833202,0.0204765,0.0009507,1.05952,0.0133454,0.0429909,1917,687,-0.225255,0.122803
700,337,-0.305054,-0.289856,0.00559833,0.0205365,0.010382,0.025857,0.000277868,1.09722,0.0171461,0.0442719,1924,687,-0.305064,0.289843
707,337,-0.324707,-0.36731,0,0,0,0,0,0,0,-1,1931,687,-0.324705,0.367285
714,337,0,0,0,0,0,0,0,0,0,-1,1938,687,0,0
721,337,0,0,0,0,0,0,0,0,0,-1,1945,687,0,0
728,337,0,0,0,0,0,0,0,0,0,-1,1952,687,0,0
735,337,0,0,0,0,0,0,0,0,0,-1,1959,687,0,0
742,337,0,0,0,0,0,0,0,0,0,-1,1966,687,0,0
749,337,0,0,0,0,0,0,0,0,0,-1,1973,687,0,0
756,337,0,0,0,0,0,0,0,0,0,-1,1980,687,0,0
763,337,0,0,0,0,0,0,0,0,0,-1,1987,687,0,0
770,337,0,0,0,0,0,0,0,0,0,-1,1994,687,0,0
777,337,0,0,0,0,0,0,0,0,0,-1,2001,687,0,0
784,337,0,0,0,0,0,0,0,0,0,-1,2008,687,0,0
791,337,0,0,0,0,0,0,0,0,0,-1,2015,687,0,0
798,337,0,0,0,0,0,0,0,0,0,-1,2022,687,0,0
805,337,0,0,0,0,0,0,0,0,0,-1,2029,687,0,0
812,337,0,0,0,0,0,0,0,0,0,-1,2036,687,0,0
-700,330,0,0,0,0,0,0,0,0,0,-1,524,694,0,0
-693,330,0,0,0,0,0,0,0,0,0,-1,531,694,0,0
-686,330,0,0,0,0,0,0,0,0,0,-1,538,694,0,0
-679,330,0,0,0,0,0,0,0,0,0,-1,545,694,0,0
-672,330,0,0,0,0,0,0,0,0,0,-1,552,694,0,0
-665,330,0,0,0,0,0,0,0,0,0,-1,559,694,0,0
-658,330,0,0,0,0,0,0,0,0,0,-1,566,694,0,0
-651,330,0,0,0,0,0,0,0,0,0,-1,573,694,0,0
-644,330,0,0,0,0,0,0,0,0,0,-1,580,694,0,0
-637,330,0,0,0,0,0,0,0,0,0,-1,587,694,0,0
-630,330,0,0,0,0,0,0,0,0,0,-1,594,694,0,0
-623,330,0,0,0,0,0,0,0,0,0,-1,601,694,0,0
-616,330,0,0,0,0,0,0,0,0,0,-1,608,694,0,0
-609,330,0,0,0,0,0,0,0,0,0,-1,615,694,0,0
-602,330,0,0,0,0,0,0,0,0,0,-1,622,694,0,0
-595,330,1.92365,0.953857,-0.0298799,-0.0358735,0.03137,-0.00136394,-0.0643895,0.737778,0.042479,0.0460633,629,694,1.92367,-0.953867
-588,330,1.53571,0.618713,-0.0281809,-0.0347535,0.0296504,-0.0016353,-0.0612991,0.730206,0.040332,0.0473415,636,694,1.53572,-0.618706
-581,330,0.968201,0.537781,-0.0254337,-0.0317311,0.026441,-0.00195457,-0.0552103,0.726136,0.0361729,0.0496741,643,694,0.968196,-0.537769
-574,330,0.427002,0.422852,-0.0221114,-0.0276783,0.0226078,-0.00211638,-0.0476733,0.724146,0.0311008,0.0458308,650,694,0.427012,-0.422839
-567,330,0.0292969,0.108887,-0.0185333,-0.0231943,0.0186248,-0.00209371,-0.0396338,0.723158,0.025753,0.0445071,657,694,0.0292666,-0.108915
-560,330,-0.0945435,-0.128784,-0.0149467,-0.0186812,0.0148633,-0.00183374,-0.0317941,0.722911,0.020612,0.0414438,664,694,-0.0945681,0.128764
-553,330,-0.0665894,-0.0924072,-0.0116661,-0.0144732,0.0114676,-0.00151652,-0.0246228,0.724503,0.0159338,0.0350766,671,694,-0.0665928,0.0923892
-546,330,-0.0409546,-0.0726318,-0.00877306,-0.0108936,0.00830722,-0.0014587,-0.0182079,0.721926,0.0116828,0.0214184,678,694,-0.0409592,0.0726176
-539,330,-0.0601196,-0.038269,-0.00621389,-0.00772614,0.00587978,-0.00104181,-0.0128982,0.72145,0.00827343,0.00928673,685,694,-0.0601321,0.0382414
-532,330,-0.0706177,-0.0429688,-0.00404806,-0.00560628,0.00363965,-0.00110506,-0.00854927,0.679959,0.0053692,0.00861621,692,694,-0.0706334,0.0429559
-525,330,-0.0750122,-0.0534058,-0.00206694,-0.00291711,0.00200935,-0.000438201,-0.00454585,0.681159,0.00289557,0.0100051,699,694,-0.0750364,0.0534353
-518,330,-0.0901489,-0.0402832,-0.000482299,-0.00139151,0.0008417,1.97181e-05,-0.00189352,0.537792,0.00126897,0.0134362,706,694,-0.090145,0.0403106
-511,330,-0.0675049,-0.0471802,0.000617706,-0.000470657,-0.000222593,0.000661471,-0.000514422,-0.194139,0.000680669,0.0171957,713,694,-0.0674921,0.0471759
-504,330,-0.0507202,-0.0610352,0.00102837,-8.8439e-05,-0.000791486,0.00143861,-0.000498676,-0.478189,0.00116154,0.0160161,720,694,-0.0507422,0.061012
-497,330,-0.0675659,-0.0508423,0.000786007,-6.67433e-05,-0.00104048,0.00148409,-0.000764824,-0.590941,0.00132036,0.0116506,727,694,-0.0675482,0.0508208
-490,330,-0.0720825,-0.0548706,0.000572071,-0.000214099,-0.00114795,0.00139237,-0.0010344,-0.620444,0.00140617,0.011317,734,694,-0.0720854,0.0548904
-483,330,-0.0718384,-0.0603638,0.00086017,-0.000436693,-0.00167678,0.00200953,-0.00158605,-0.600898,0.0020807,0.0121648,741,694,-0.0718177,0.0603393
-476,330,-0.0568848,-0.0682983,0.000805606,-0.000197617,-0.0020006,0.00236652,-0.00175853,-0.662565,0.0023902,0.0121819,748,694,-0.0568644,0.0682963
-469,330,-0.0473633,-0.059082,0.000879262,0.000323502,-0.00233487,0.00295273,-0.00174997,-0.72617,0.00274455,0.0168638,755,694,-0.0473662,0.0590978
-462,330,-0.0543823,-0.106873,0.00129707,0.000801392,-0.00265628,0.00371704,-0.00161858,-0.738882,0.00315894,0.0354969,762,694,-0.0543942,0.106886
-455,330,-0.156555,-0.0904541,0.0016052,0.00166282,-0.00303838,0.00467253,-0.00140451,-0.790139,0.0036738,0.0422404,769,694,-0.156545,0.0904408
-448,330,-0.456543,-0.414246,0.00145526,0.00350951,-0.00355351,0.00618136,-0.00121659,-0.926086,0.00458061,0.0469149,776,694,-0.456524,0.414262
-441,330,-0.815918,-0.527222,0.000878647,0.00539953,-0.00474177,0.00839208,-0.0021139,-1.00782,0.0064165,0.0464713,783,694,-0.815891,0.527208
-434,330,-0.572754,-0.328064,0.000775913,0.00758015,-0.00585113,0.0109463,-0.00259028,-1.04873,0.00829689,0.0435476,790,694,-0.57274,0.328083
-427,330,-0.279663,-0.514893,0,0,0,0,0,0,0,-1,797,694,-0.279662,0.51492
-420,330,-0.539673,0.16748,0,0,0,0,0,0,0,-1,804,694,-0.539697,-0.167509
-413,330,0.545959,0.425964,0,0,0,0,0,0,0,-1,811,694,0.545939,-0.425969
-406,330,-2.01501,0.0375366,0,0,0,0,0,0,0,-1,818,694,-2.01499,-0.0375473
-399,330,0,0,0,0,0,0,0,0,0,-1,825,694,0,0
-392,330,0,0,0,0,0,0,0,0,0,-1,832,694,0,0
-385,330,0,0,0,0,0,0,0,0,0,-1,839,694,0,0
-378,330,0,0,0,0,0,0,0,0,0,-1,846,694,0,0
-371,330,0,0,0,0,0,0,0,0,0,-1,853,694,0,0
-364,330,0,0,0,0,0,0,0,0,0,-1,860,694,0,0
-357,330,0,0,0,0,0,0,0,0,0,-1,867,694,0,0
-350,330,0,0,0,0,0,0,0,0,0,-1,874,694,0,0
-343,330,0,0,0,0,0,0,0,0,0,-1,881,694,0,0
-336,330,0,0,0,0,0,0,0,0,0,-1,888,694,0,0
-329,330,0,0,0,0,0,0,0,0,0,-1,895,694,0,0
-322,330,0,0,0,0,0,0,0,0,0,-1,902,694,0,0
-315,330,0,0,0,0,0,0,0,0,0,-1,909,694,0,0
-308,330,0,0,0,0,0,0,0,0,0,-1,916,694,0,0
-301,330,0,0,0,0,0,0,0,0,0,-1,923,694,0,0
-294,330,0,0,0,0,0,0,0,0,0,-1,930,694,0,0
-287,330,0,0,0,0,0,0,0,0,0,-1,937,694,0,0
-280,330,0,0,0,0,0,0,0,0,0,-1,944,694,0,0
-273,330,0,0,0,0,0,0,0,0,0,-1,951,694,0,0
-266,330,0,0,0,0,0,0,0,0,0,-1,958,694,0,0
-259,330,0,0,0,0,0,0,0,0,0,-1,965,694,0,0
-252,330,0,0,0,0,0,0,0,0,0,-1,972,694,0,0
-245,330,0,0,0,0,0,0,0,0,0,-1,979,694,0,0
-238,330,0,0,0,0,0,0,0,0,0,-1,986,694,0,0
-231,330,0,0,0,0,0,0,0,0,0,-1,993,694,0,0
-224,330,0,0,0,0,0,0,0,0,0,-1,1000,694,0,0
-217,330,0,0,0,0,0,0,0,0,0,-1,1007,694,0,0
-210,330,0,0,0,0,0,0,0,0,0,-1,1014,694,0,0
-203,330,0,0,0,0,0,0,0,0,0,-1,1021,694,0,0
-196,330,0,0,0,0,0,0,0,0,0,-1,1028,694,0,0
-189,330,0,0,0,0,0,0,0,0,0,-1,1035,694,0,0
-182,330,0,0,0,0,0,0,0,0,0,-1,1042,694,0,0
-175,330,0,0,0,0,0,0,0,0,0,-1,1049,694,0,0
-168,330,0,0,0,0,0,0,0,0,0,-1,1056,694,0,0
-161,330,0,0,0,0,0,0,0,0,0,-1,1063,694,0,0
-154,330,0,0,0,0,0,0,0,0,0,-1,1070,694,0,0
-147,330,0,0,0,0,0,0,0,0,0,-1,1077,694,0,0
-140,330,0,0,0,0,0,0,0,0,0,-1,1084,694,0,0
-133,330,0,0,0,0,0,0,0,0,0,-1,1091,694,0,0
-126,330,0,0,0,0,0,0,0,0,0,-1,1098,694,0,0
-119,330,0,0,0,0,0,0,0,0,0,-1,1105,694,0,0
-112,330,0,0,0,0,0,0,0,0,0,-1,1112,694,0,0
-105,330,0,0,0,0,0,0,0,0,0,-1,1119,694,0,0
-98,330,0,0,0,0,0,0,0,0,0,-1,1126,694,0,0
-91,330,0,0,0,0,0,0,0,0,0,-1,1133,694,0,0
-84,330,0,0,0,0,0,0,0,0,0,-1,1140,694,0,0
-77,330,0,0,0,0,0,0,0,0,0,-1,1147,694,0,0
-70,330,0,0,0,0,0,0,0,0,0,-1,1154,694,0,0
-63,330,0,0,0,0,0,0,0,0,0,-1,1161,694,0,0
-56,330,0,0,0,0,0,0,0,0,0,-1,1168,694,0,0
-49,330,0,0,0,0,0,0,0,0,0,-1,1175,694,0,0
-42,330,0,0,0,0,0,0,0,0,0,-1,1182,694,0,0
-35,330,0,0,0,0,0,0,0,0,0,-1,1189,694,0,0
-28,330,0,0,0,0,0,0,0,0,0,-1,1196,694,0,0
-21,330,0,0,0,0,0,0,0,0,0,-1,1203,694,0,0
-14,330,0,0,0,0,0,0,0,0,0,-1,1210,694,0,0
-7,330,0,0,0,0,0,0,0,0,0,-1,1217,694,0,0
0,330,0,0,0,0,0,0,0,0,0,-1,1224,694,0,0
7,330,0,0,0,0,0,0,0,0,0,-1,1231,694,0,0
14,330,0,0,0,0,0,0,0,0,0,-1,1238,694,0,0
21,330,0,0,0,0,0,0,0,0,0,-1,1245,694,0,0
28,330,0,0,0,0,0,0,0,0,0,-1,1252,694,0,0
35,330,0,0,0,0,0,0,0,0,0,-1,1259,694,0,0
42,330,0,0,0,0,0,0,0,0,0,-1,1266,694,0,0
49,330,0,0,0,0,0,0,0,0,0,-1,1273,694,0,0
56,330,0,0,0,0,0,0,0,0,0,-1,1280,694,0,0
63,330,0,0,0,0,0,0,0,0,0,-1,1287,694,0,0
70,330,0,0,0,0,0,0,0,0,0,-1,1294,694,0,0
77,330,0,0,0,0,0,0,0,0,0,-1,1301,694,0,0
84,330,0,0,0,0,0,0,0,0,0,-1,1308,694,0,0
91,330,0,0,0,0,0,0,0,0,0,-1,1315,694,0,0
98,330,0,0,0,0,0,0,0,0,0,-1,1322,694,0,0
105,330,0,0,0,0,0,0,0,0,0,-1,1329,694,0,0
112,330,0,0,0,0,0,0,0,0,0,-1,1336,694,0,0
119,330,0,0,0,0,0,0,0,0,0,-1,1343,694,0,0
126,330,0,0,0,0,0,0,0,0,0,-1,1350,694,0,0
133,330,0,0,0,0,0,0,0,0,0,-1,1357,694,0,0
140,330,0,0,0,0,0,0,0,0,0,-1,1364,694,0,0
147,330,0,0,0,0,0,0,0,0,0,-1,1371,694,0,0
154,330,0,0,0,0,0,0,0,0,0,-1,1378,694,0,0
161,330,0,0,0,0,0,0,0,0,0,-1,1385,694,0,0
168,330,0,0,0,0,0,0,0,0,0,-1,1392,694,0,0
175,330,0,0,0,0,0,0,0,0,0,-1,1399,694,0,0
182,330,0,0,0,0,0,0,0,0,0,-1,1406,694,0,0
189,330,0,0,0,0,0,0,0,0,0,-1,1413,694,0,0
196,330,0,0,0,0,0,0,0,0,0,-1,1420,694,0,0
203,330,0,0,0,0,0,0,0,0,0,-1,1427,694,0,0
210,330,0,0,0,0,0,0,0,0,0,-1,1434,694,0,0
217,330,0,0,0,0,0,0,0,0,0,-1,1441,694,0,0
224,330,0,0,0,0,0,0,0,0,0,-1,1448,694,0,0
231,330,0,0,0,0,0,0,0,0,0,-1,1455,694,0,0
238,330,0,0,0,0,0,0,0,0,0,-1,1462,694,0,0
245,330,0,0,0,0,0,0,0,0,0,-1,1469,694,0,0
252,330,0,0,0,0,0,0,0,0,0,-1,1476,694,0,0
259,330,0,0,0,0,0,0,0,0,0,-1,1483,694,0,0
266,330,0,0,0,0,0,0,0,0,0,-1,1490,694,0,0
273,330,0,0,0,0,0,0,0,0,0,-1,1497,694,0,0
280,330,0,0,0,0,0,0,0,0,0,-1,1504,694,0,0
287,330,0,0,0,0,0,0,0,0,0,-1,1511,694,0,0
294,330,0,0,0,0,0,0,0,0,0,-1,1518,694,0,0
301,330,0,0,0,0,0,0,0,0,0,-1,1525,694,0,0
308,330,0,0,0,0,0,0,0,0,0,-1,1532,694,0,0
315,330,0,0,0,0,0,0,0,0,0,-1,1539,694,0,0
322,330,0,0,0,0,0,0,0,0,0,-1,1546,694,0,0
329,330,0,0,0,0,0,0,0,0,0,-1,1553,694,0,0
336,330,0,0,0,0,0,0,0,0,0,-1,1560,694,0,0
343,330,0,0,0,0,0,0,0,0,0,-1,1567,694,0,0
350,330,0,0,0,0,0,0,0,0,0,-1,1574,694,0,0
357,330,0,0,0,0,0,0,0,0,0,-1,1581,694,0,0
364,330,0,0,0,0,0,0,0,0,0,-1,1588,694,0,0
371,330,0,0,0,0,0,0,0,0,0,-1,1595,694,0,0
378,330,0,0,0,0,0,0,0,0,0,-1,1602,694,0,0
385,330,0,0,0,0,0,0,0,0,0,-1,1609,694,0,0
392,330,0,0,0,0,0,0,0,0,0,-1,1616,694,0,0
399,330,0,0,0,0,0,0,0,0,0,-1,1623,694,0,0
406,330,0,0,0,0,0,0,0,0,0,-1,1630,694,0,0
413,330,0,0,0,0,0,0,0,0,0,-1,1637,694,0,0
420,330,0,0,0,0,0,0,0,0,0,-1,1644,694,0,0
427,330,0,0,0,0,0,0,0,0,0,-1,1651,694,0,0
434,330,0,0,0,0,0,0,0,0,0,-1,1658,694,0,0
441,330,0,0,0,0,0,0,0,0,0,-1,1665,694,0,0
448,330,0,0,0,0,0,0,0,0,0,-1,1672,694,0,0
455,330,0,0,0,0,0,0,0,0,0,-1,1679,694,0,0
462,330,0,0,0,0,0,0,0,0,0,-1,1686,694,0,0
469,330,0,0,0,0,0,0,0,0,0,-1,1693,694,0,0
476,330,0,0,0,0,0,0,0,0,0,-1,1700,694,0,0
483,330,0,0,0,0,0,0,0,0,0,-1,1707,694,0,0
490,330,0,0,0,0,0,0,0,0,0,-1,1714,694,0,0
497,330,0,0,0,0,0,0,0,0,0,-1,1721,694,0,0
504,330,0,0,0,0,0,0,0,0,0,-1,1728,694,0,0
511,330,0,0,0,0,0,0,0,0,0,-1,1735,694,0,0
518,330,0,0,0,0,0,0,0,0,0,-1,1742,694,0,0
525,330,0.0684814,0.074707,0.0366527,0.000347801,-0.00312721,0.0369201,8.04011e-05,-0.0853001,0.0245866,0.0409311,1749,694,0.0684499,-0.0747181
532,330,0.123291,0.157104,0.0242319,0.00398206,-0.00108772,0.0242902,0.0039238,-0.0535096,0.0150569,0.0424321,1756,694,0.123344,-0.15708
539,330,0.45813,-0.283569,0.0139918,0.00641073,0.0015075,0.0142805,0.00612196,0.189262,0.00827277,0.0432627,1763,694,0.458152,0.283552
546,330,0.627197,-0.412231,0.00609536,0.0072853,0.00408501,0.0108184,0.00256222,0.857713,0.00652804,0.0409269,1770,694,0.627142,0.412224
553,330,0.430176,-0.447571,0.000369552,0.0080201,0.0062381,0.0115124,-0.00312273,1.06044,0.00890035,0.0382633,1777,694,0.430132,0.447578
560,330,-0.043335,0.647095,0,0,0,0,0,0,0,-1,1784,694,-0.0432957,-0.64709
567,330,0.342163,0.237122,-0.00437614,0.00678213,0.00804319,0.0109917,-0.00858576,1.08862,0.0113315,0.0426607,1791,694,0.342112,-0.237097
574,330,0.827026,-0.0638428,-0.00499214,0.00588764,0.0082848,0.0103589,-0.00946338,1.0759,0.0114483,0.0433463,1798,694,0.826982,0.0638571
581,330,-0.0218506,0.157471,-0.00494066,0.00471836,0.00775125,0.00902154,-0.00924384,1.064,0.0105458,0.0448273,1805,694,-0.0217992,-0.15749
588,330,-0.0720215,-0.0406494,-0.00532243,0.00352472,0.00668529,0.00711745,-0.00891516,1.07767,0.0092758,0.0458189,1812,694,-0.0720552,0.0406455
595,330,0.00634766,-0.111145,-0.00482727,0.00227421,0.00581532,0.00553711,-0.00809017,1.05948,0.00791361,0.0414645,1819,694,0.00629748,0.111145
602,330,-0.0898438,0.0106201,-0.00333423,0.00137578,0.00458814,0.00417801,-0.00613646,1.02251,0.00599073,0.0227016,1826,694,-0.0898608,-0.0106246
609,330,-0.0834961,-0.0246582,-0.00140616,0.0007424,0.00329263,0.00313157,-0.00379533,0.943087,0.00400537,0.0132399,1833,694,-0.0835139,0.024631
616,330,-0.107422,-0.0505371,-0.000205723,-0.000152955,0.00223563,0.00205644,-0.00241512,0.791299,0.00258443,0.0107627,1840,694,-0.107446,0.0505147
623,330,-0.0794678,-0.0507202,0.000132245,-0.000826798,0.000606384,0.000425797,-0.00112035,0.450849,0.000922203,0.0119839,1847,694,-0.0794932,0.0506931
630,330,-0.0606689,-0.0534668,0.000778844,-0.000994796,-0.000551595,0.000936393,-0.00115234,-0.278217,0.00120808,0.0133349,1854,694,-0.0606249,0.0534653
637,330,-0.046875,-0.0584106,0.00124108,-5.76843e-06,-0.000480705,0.00140489,-0.000169577,-0.328426,0.000997932,0.0118636,1861,694,-0.0468387,0.0584328
644,330,-0.0667725,-0.0494995,0.00144201,0.000654733,-5.21736e-05,0.00144545,0.00065129,-0.0658873,0.000835888,0.00729622,1868,694,-0.0667563,0.04952
651,330,-0.0665283,-0.0608521,0.00145011,0.00125386,0.000473782,0.00183582,0.000868146,0.683284,0.00106043,0.00986079,1875,694,-0.0665276,0.0608605
658,330,-0.060791,-0.0663452,0.00175704,0.00202276,0.00135282,0.00324923,0.000530573,0.834346,0.00201274,0.0103401,1882,694,-0.060749,0.0663453
665,330,-0.0638428,-0.0646362,0.00203092,0.0030962,0.00226417,0.00488954,0.000237578,0.900922,0.00318346,0.00937266,1889,694,-0.063794,0.0646302
672,330,-0.0748291,-0.050354,0.00231449,0.00461183,0.00331169,0.0069684,-4.20804e-05,0.952333,0.00465969,0.0106054,1896,694,-0.0748031,0.0503706
679,330,-0.0771484,-0.0235596,0.00261606,0.0066973,0.00455892,0.00965146,-0.000338105,0.995831,0.00654992,0.0213428,1903,694,-0.0771849,0.0235427
686,330,-0.131226,-0.00543213,0.00290916,0.0093432,0.00598997,0.0129254,-0.000673006,1.03183,0.00884978,0.0371926,1910,694,-0.131208,0.00546118
693,330,-0.61731,-0.14917,0,0,0,0,0,0,0,-1,1917,694,-0.617273,0.149168
700,330,-0.710693,-0.328308,0,0,0,0,0,0,0,-1,1924,694,-0.710703,0.328296
707,330,-0.861328,0.917358,0,0,0,0,0,0,0,-1,1931,694,-0.861347,-0.917332
714,330,-1.30859,1.35004,0,0,0,0,0,0,0,-1,1938,694,-1.30864,-1.35005
721,330,0,0,0,0,0,0,0,0,0,-1,1945,694,0,0
728,330,0,0,0,0,0,0,0,0,0,-1,1952,694,0,0
735,330,0,0,0,0,0,0,0,0,0,-1,1959,694,0,0
742,330,0,0,0,0,0,0,0,0,0,-1,1966,694,0,0
749,330,0,0,0,0,0,0,0,0,0,-1,1973,694,0,0
756,330,0,0,0,0,0,0,0,0,0,-1,1980,694,0,0
763,330,0,0,0,0,0,0,0,0,0,-1,1987,694,0,0
770,330,0,0,0,0,0,0,0,0,0,-1,1994,694,0,0
777,330,0,0,0,0,0,0,0,0,0,-1,2001,694,0,0
784,330,0,0,0,0,0,0,0,0,0,-1,2008,694,0,0
791,330,0,0,0,0,0,0,0,0,0,-1,2015,694,0,0
798,330,0,0,0,0,0,0,0,0,0,-1,2022,694,0,0
805,330,0,0,0,0,0,0,0,0,0,-1,2029,694,0,0
812,330,0,0,0,0,0,0,0,0,0,-1,2036,694,0,0
-700,323,0,0,0,0,0,0,0,0,0,-1,524,701,0,0
-693,323,0,0,0,0,0,0,0,0,0,-1,531,701,0,0
-686,323,0,0,0,0,0,0,0,0,0,-1,538,701,0,0
-679,323,0,0,0,0,0,0,0,0,0,-1,545,701,0,0
-672,323,0,0,0,0,0,0,0,0,0,-1,552,701,0,0
-665,323,0,0,0,0,0,0,0,0,0,-1,559,701,0,0
-658,323,0,0,0,0,0,0,0,0,0,-1,566,701,0,0
-651,323,0,0,0,0,0,0,0,0,0,-1,573,701,0,0
-644,323,0,0,0,0,0,0,0,0,0,-1,580,701,0,0
-637,323,0,0,0,0,0,0,0,0,0,-1,587,701,0,0
-630,323,0,0,0,0,0,0,0,0,0,-1,594,701,0,0
-623,323,0,0,0,0,0,0,0,0,0,-1,601,701,0,0
-616,323,0,0,0,0,0,0,0,0,0,-1,608,701,0,0
-609,323,0,0,0,0,0,0,0,0,0,-1,615,701,0,0
-602,323,1.71863,0.670654,-0.0271319,-0.0183127,0.0204897,-0.00176344,-0.0436811,0.891387,0.0285511,0.0440216,622,701,1.71861,-0.670682
-595,323,1.68524,0.880798,-0.0261359,-0.0214023,0.0220333,-0.00160903,-0.0459291,0.838903,0.0300974,0.042861,629,701,1.68525,-0.880812
-588,323,1.42627,0.772278,-0.0241511,-0.0220112,0.0214174,-0.00163699,-0.0445253,0.810356,0.0291532,0.0440322,636,701,1.42627,-0.772304
-581,323,0.862976,0.600464,-0.021524,-0.0210424,0.0195532,-0.00172852,-0.0408378,0.791555,0.0266677,0.0477447,643,701,0.862975,-0.600486
-574,323,0.509033,0.202087,-0.0185528,-0.0190406,0.0170247,-0.00177029,-0.0358231,0.778236,0.0233144,0.042907,650,701,0.509026,-0.20211
-567,323,-0.207764,0.163086,-0.0154247,-0.0166316,0.0143526,-0.00166289,-0.0303934,0.764388,0.0197314,0.0428946,657,701,-0.20776,-0.163112
-560,323,-0.155334,0.0892334,-0.0123566,-0.0138971,0.0116201,-0.00148128,-0.0247724,0.752303,0.016044,0.0396933,664,701,-0.155308,-0.0892123
-553,323,-0.0762329,-0.0547485,-0.00954268,-0.0110384,0.00908904,-0.00117077,-0.0194103,0.744351,0.0125681,0.0231405,671,701,-0.0762241,0.0547651
-546,323,-0.0663452,-0.0496826,-0.00708479,-0.00861604,0.00670202,-0.00110481,-0.014596,0.728526,0.00938412,0.00942627,678,701,-0.0663621,0.0497042
-539,323,-0.0557251,-0.0606079,-0.00494898,-0.0063647,0.00483543,-0.000769868,-0.0105438,0.712719,0.00678715,0.0093545,685,701,-0.0557401,0.0606235
-532,323,-0.0688477,-0.0585938,-0.0030891,-0.00487183,0.00296127,-0.000887947,-0.00707298,0.639208,0.00444898,0.00851039,692,701,-0.068819,0.0585964
-525,323,-0.0913696,-0.0568848,-0.00134501,-0.00280407,0.00166214,-0.000259343,-0.00388974,0.578601,0.00251118,0.00765139,699,701,-0.0913462,0.0568801
-518,323,-0.0839233,-0.0388184,0.000101955,-0.0016347,0.000711987,0.000356534,-0.00188928,0.343394,0.00139365,0.009765,706,701,-0.0838972,0.0388351
-511,323,-0.0709229,-0.0391846,0.00110384,-0.000955343,-0.000235202,0.00113037,-0.000981866,-0.112294,0.0012205,0.0130298,713,701,-0.0709345,0.039169
-504,323,-0.0725098,-0.0454712,0.00143989,-0.000505561,-0.000741303,0.00169017,-0.000755834,-0.325596,0.00144613,0.0143585,720,701,-0.0724799,0.0454692
-497,323,-0.0726318,-0.0533447,0.00126338,-0.000455617,-0.00100625,0.00172723,-0.000919474,-0.431946,0.00155162,0.0113008,727,701,-0.0726377,0.0533378
-490,323,-0.0778809,-0.0568848,0.00110714,-0.000716882,-0.00126889,0.00175777,-0.00136752,-0.473801,0.00180907,0.0114446,734,701,-0.0779074,0.0568676
-483,323,-0.0758057,-0.0643311,0.00151861,-0.00112939,-0.00212422,0.00269766,-0.00230845,-0.506715,0.00289319,0.012036,741,701,-0.0758219,0.0643374
-476,323,-0.0436401,-0.0689087,0.00193289,-0.00104585,-0.00279259,0.00360845,-0.0027214,-0.540421,0.00366648,0.0131102,748,701,-0.043632,0.0688849
-469,323,-0.0474854,-0.0941162,0.00270162,-0.00085004,-0.00342079,0.00478006,-0.00292848,-0.545981,0.00449312,0.0320105,755,701,-0.0474644,0.0940938
-462,323,-0.0670776,-0.155151,0.00375882,-0.000768445,-0.00422412,0.0062876,-0.00329723,-0.539429,0.00562286,0.0471266,762,701,-0.0670658,0.155149
-455,323,-0.0648804,-0.18512,0,0,0,0,0,0,0,-1,769,701,-0.0648758,0.1851
-448,323,-0.29248,-0.187317,0,0,0,0,0,0,0,-1,776,701,-0.292504,0.187311
-441,323,-0.806091,-0.740417,0,0,0,0,0,0,0,-1,783,701,-0.806091,0.740428
-434,323,-1.45819,-0.647522,0,0,0,0,0,0,0,-1,790,701,-1.45817,0.647531
-427,323,-1.64893,-0.385071,0,0,0,0,0,0,0,-1,797,701,-1.6489,0.3851
-420,323,-0.342102,0.036377,0,0,0,0,0,0,0,-1,804,701,-0.342084,-0.0363532
-413,323,0.708008,0.335144,0,0,0,0,0,0,0,-1,811,701,0.707983,-0.335135
-406,323,0,0,0,0,0,0,0,0,0,-1,818,701,0,0
-399,323,0,0,0,0,0,0,0,0,0,-1,825,701,0,0
-392,323,0,0,0,0,0,0,0,0,0,-1,832,701,0,0
-385,323,0,0,0,0,0,0,0,0,0,-1,839,701,0,0
-378,323,0,0,0,0,0,0,0,0,0,-1,846,701,0,0
-371,323,0,0,0,0,0,0,0,0,0,-1,853,701,0,0
-364,323,0,0,0,0,0,0,0,0,0,-1,860,701,0,0
-357,323,0,0,0,0,0,0,0,0,0,-1,867,701,0,0
-350,323,0,0,0,0,0,0,0,0,0,-1,874,701,0,0
-343,323,0,0,0,0,0,0,0,0,0,-1,881,701,0,0
-336,323,0,0,0,0,0,0,0,0,0,-1,888,701,0,0
-329,323,0,0,0,0,0,0,0,0,0,-1,895,701,0,0
-322,323,0,0,0,0,0,0,0,0,0,-1,902,701,0,0
-315,323,0,0,0,0,0,0,0,0,0,-1,909,701,0,0
-308,323,0,0,0,0,0,0,0,0,0,-1,916,701,0,0
-301,323,0,0,0,0,0,0,0,0,0,-1,923,701,0,0
-294,323,0,0,0,0,0,0,0,0,0,-1,930,701,0,0
-287,323,0,0,0,0,0,0,0,0,0,-1,937,701,0,0
-280,323,0,0,0,0,0,0,0,0,0,-1,944,701,0,0
-273,323,0,0,0,0,0,0,0,0,0,-1,951,701,0,0
-266,323,0,0,0,0,0,0,0,0,0,-1,958,701,0,0
-259,323,0,0,0,0,0,0,0,0,0,-1,965,701,0,0
-252,323,0,0,0,0,0,0,0,0,0,-1,972,701,0,0
-245,323,0,0,0,0,0,0,0,0,0,-1,979,701,0,0
-238,323,0,0,0,0,0,0,0,0,0,-1,986,701,0,0
-231,323,0,0,0,0,0,0,0,0,0,-1,993,701,0,0
-224,323,0,0,0,0,0,0,0,0,0,-1,1000,701,0,0
-217,323,0,0,0,0,0,0,0,0,0,-1,1007,701,0,0
-210,323,0,0,0,0,0,0,0,0,0,-1,1014,701,0,0
-203,323,0,0,0,0,0,0,0,0,0,-1,1021,701,0,0
-196,323,0,0,0,0,0,0,0,0,0,-1,1028,701,0,0
-189,323,0,0,0,0,0,0,0,0,0,-1,1035,701,0,0
-182,323,0,0,0,0,0,0,0,0,0,-1,1042,701,0,0
-175,323,0,0,0,0,0,0,0,0,0,-1,1049,701,0,0
-168,323,0,0,0,0,0,0,0,0,0,-1,1056,701,0,0
-161,323,0,0,0,0,0,0,0,0,0,-1,1063,701,0,0
-154,323,0,0,0,0,0,0,0,0,0,-1,1070,701,0,0
-147,323,0,0,0,0,0,0,0,0,0,-1,1077,701,0,0
-140,323,0,0,0,0,0,0,0,0,0,-1,1084,701,0,0
-133,323,0,0,0,0,0,0,0,0,0,-1,1091,701,0,0
-126,323,0,0,0,0,0,0,0,0,0,-1,1098,701,0,0
-119,323,0,0,0,0,0,0,0,0,0,-1,1105,701,0,0
-112,323,0,0,0,0,0,0,0,0,0,-1,1112,701,0,0
-105,323,0,0,0,0,0,0,0,0,0,-1,1119,701,0,0
-98,323,0,0,0,0,0,0,0,0,0,-1,1126,701,0,0
-91,323,0,0,0,0,0,0,0,0,0,-1,1133,701,0,0
-84,323,0,0,0,0,0,0,0,0,0,-1,1140,701,0,0
-77,323,0,0,0,0,0,0,0,0,0,-1,1147,701,0,0
-70,323,0,0,0,0,0,0,0,0,0,-1,1154,701,0,0
-63,323,0,0,0,0,0,0,0,0,0,-1,1161,701,0,0
-56,323,0,0,0,0,0,0,0,0,0,-1,1168,701,0,0
-49,323,0,0,0,0,0,0,0,0,0,-1,1175,701,0,0
-42,323,0,0,0,0,0,0,0,0,0,-1,1182,701,0,0
-35,323,0,0,0,0,0,0,0,0,0,-1,1189,701,0,0
-28,323,0,0,0,0,0,0,0,0,0,-1,1196,701,0,0
-21,323,0,0,0,0,0,0,0,0,0,-1,1203,701,0,0
-14,323,0,0,0,0,0,0,0,0,0,-1,1210,701,0,0
-7,323,0,0,0,0,0,0,0,0,0,-1,1217,701,0,0
0,323,0,0,0,0,0,0,0,0,0,-1,1224,701,0,0
7,323,0,0,0,0,0,0,0,0,0,-1,1231,701,0,0
14,323,0,0,0,0,0,0,0,0,0,-1,1238,701,0,0
21,323,0,0,0,0,0,0,0,0,0,-1,1245,701,0,0
28,323,0,0,0,0,0,0,0,0,0,-1,1252,701,0,0
35,323,0,0,0,0,0,0,0,0,0,-1,1259,701,0,0
42,323,0,0,0,0,0,0,0,0,0,-1,1266,701,0,0
49,323,0,0,0,0,0,0,0,0,0,-1,1273,701,0,0
56,323,0,0,0,0,0,0,0,0,0,-1,1280,701,0,0
63,323,0,0,0,0,0,0,0,0,0,-1,1287,701,0,0
70,323,0,0,0,0,0,0,0,0,0,-1,1294,701,0,0
77,323,0,0,0,0,0,0,0,0,0,-1,1301,701,0,0
84,323,0,0,0,0,0,0,0,0,0,-1,1308,701,0,0
91,323,0,0,0,0,0,0,0,0,0,-1,1315,701,0,0
98,323,0,0,0,0,0,0,0,0,0,-1,1322,701,0,0
105,323,0,0,0,0,0,0,0,0,0,-1,1329,701,0,0
112,323,0,0,0,0,0,0,0,0,0,-1,1336,701,0,0
119,323,0,0,0,0,0,0,0,0,0,-1,1343,701,0,0
126,323,0,0,0,0,0,0,0,0,0,-1,1350,701,0,0
133,323,0,0,0,0,0,0,0,0,0,-1,1357,701,0,0
140,323,0,0,0,0,0,0,0,0,0,-1,1364,701,0,0
147,323,0,0,0,0,0,0,0,0,0,-1,1371,701,0,0
154,323,0,0,0,0,0,0,0,0,0,-1,1378,701,0,0
161,323,0,0,0,0,0,0,0,0,0,-1,1385,701,0,0
168,323,0,0,0,0,0,0,0,0,0,-1,1392,701,0,0
175,323,0,0,0,0,0,0,0,0,0,-1,1399,701,0,0
182,323,0,0,0,0,0,0,0,0,0,-1,1406,701,0,0
189,323,0,0,0,0,0,0,0,0,0,-1,1413,701,0,0
196,323,0,0,0,0,0,0,0,0,0,-1,1420,701,0,0
203,323,0,0,0,0,0,0,0,0,0,-1,1427,701,0,0
210,323,0,0,0,0,0,0,0,0,0,-1,1434,701,0,0
217,323,0,0,0,0,0,0,0,0,0,-1,1441,701,0,0
224,323,0,0,0,0,0,0,0,0,0,-1,1448,701,0,0
231,323,0,0,0,0,0,0,0,0,0,-1,1455,701,0,0
238,323,0,0,0,0,0,0,0,0,0,-1,1462,701,0,0
245,323,0,0,0,0,0,0,0,0,0,-1,1469,701,0,0
252,323,0,0,0,0,0,0,0,0,0,-1,1476,701,0,0
259,323,0,0,0,0,0,0,0,0,0,-1,1483,701,0,0
266,323,0,0,0,0,0,0,0,0,0,-1,1490,701,0,0
273,323,0,0,0,0,0,0,0,0,0,-1,1497,701,0,0
280,323,0,0,0,0,0,0,0,0,0,-1,1504,701,0,0
287,323,0,0,0,0,0,0,0,0,0,-1,1511,701,0,0
294,323,0,0,0,0,0,0,0,0,0,-1,1518,701,0,0
301,323,0,0,0,0,0,0,0,0,0,-1,1525,701,0,0
308,323,0,0,0,0,0,0,0,0,0,-1,1532,701,0,0
315,323,0,0,0,0,0,0,0,0,0,-1,1539,701,0,0
322,323,0,0,0,0,0,0,0,0,0,-1,1546,701,0,0
329,323,0,0,0,0,0,0,0,0,0,-1,1553,701,0,0
336,323,0,0,0,0,0,0,0,0,0,-1,1560,701,0,0
343,323,0,0,0,0,0,0,0,0,0,-1,1567,701,0,0
350,323,0,0,0,0,0,0,0,0,0,-1,1574,701,0,0
357,323,0,0,0,0,0,0,0,0,0,-1,1581,701,0,0
364,323,0,0,0,0,0,0,0,0,0,-1,1588,701,0,0
371,323,0,0,0,0,0,0,0,0,0,-1,1595,701,0,0
378,323,0,0,0,0,0,0,0,0,0,-1,1602,701,0,0
385,323,0,0,0,0,0,0,0,0,0,-1,1609,701,0,0
392,323,0,0,0,0,0,0,0,0,0,-1,1616,701,0,0
399,323,0,0,0,0,0,0,0,0,0,-1,1623,701,0,0
406,323,0,0,0,0,0,0,0,0,0,-1,1630,701,0,0
413,323,0,0,0,0,0,0,0,0,0,-1,1637,701,0,0
420,323,0,0,0,0,0,0,0,0,0,-1,1644,701,0,0
427,323,0,0,0,0,0,0,0,0,0,-1,1651,701,0,0
434,323,0,0,0,0,0,0,0,0,0,-1,1658,701,0,0
441,323,0,0,0,0,0,0,0,0,0,-1,1665,701,0,0
448,323,0,0,0,0,0,0,0,0,0,-1,1672,701,0,0
455,323,0,0,0,0,0,0,0,0,0,-1,1679,701,0,0
462,323,0,0,0,0,0,0,0,0,0,-1,1686,701,0,0
469,323,0,0,0,0,0,0,0,0,0,-1,1693,701,0,0
476,323,0,0,0,0,0,0,0,0,0,-1,1700,701,0,0
483,323,0,0,0,0,0,0,0,0,0,-1,1707,701,0,0
490,323,0,0,0,0,0,0,0,0,0,-1,1714,701,0,0
497,323,0,0,0,0,0,0,0,0,0,-1,1721,701,0,0
504,323,0,0,0,0,0,0,0,0,0,-1,1728,701,0,0
511,323,0,0,0,0,0,0,0,0,0,-1,1735,701,0,0
518,323,0,0,0,0,0,0,0,0,0,-1,1742,701,0,0
525,323,0,0,0,0,0,0,0,0,0,-1,1749,701,0,0
532,323,-0.228149,0.0896606,0.0302419,0.00412536,-0.00331538,0.0306562,0.00371106,-0.124318,0.0193197,0.0430806,1756,701,-0.228102,-0.0896635
539,323,0.140747,-0.398987,0.0181587,0.00706051,0.000263799,0.018165,0.00705424,0.0237517,0.0105743,0.0450863,1763,701,0.140747,0.398991
546,323,0.609009,-0.521545,0.00911016,0.00819423,0.00361809,0.0122991,0.00500524,0.722445,0.00714178,0.0428649,1770,701,0.609005,0.521573
553,323,0.505859,-0.813965,0.00260356,0.00894672,0.00619133,0.0127315,-0.00118126,1.0221,0.00890759,0.0435622,1777,701,0.505828,0.813973
560,323,-0.346313,-1.00867,-0.00094016,0.0085374,0.00770935,0.0128479,-0.0052507,1.06097,0.0107517,0.0464617,1784,701,-0.34629,1.00867
567,323,-1.6803,-0.53833,-0.00289354,0.00767946,0.00833204,0.0122606,-0.00747466,1.06809,0.0115053,0.0453449,1791,701,-1.68035,0.538306
574,323,-2.86487,0.327271,-0.00365592,0.00668919,0.00856833,0.0115252,-0.00849194,1.05696,0.0116011,0.0464761,1798,701,-2.86489,-0.32725
581,323,-3.94421,1.15521,0,0,0,0,0,0,0,-1,1805,701,-3.94417,-1.15521
588,323,-0.322144,0.208191,-0.00425315,0.00423052,0.00688374,0.00807441,-0.00809705,1.06153,0.0093366,0.0456305,1812,701,-0.322083,-0.208216
595,323,-0.258789,0.157837,-0.00391985,0.00290587,0.00600189,0.00639739,-0.00741136,1.04392,0.00797964,0.0451287,1819,701,-0.258773,-0.157866
602,323,-0.166016,0.0856934,-0.00266415,0.0019987,0.0046995,0.00491331,-0.00557876,1.01566,0.00606166,0.0348315,1826,701,-0.166061,-0.0856735
609,323,-0.0968018,0.003479,-0.000872241,0.00133846,0.00336132,0.00377151,-0.00330529,0.944251,0.00408875,0.0177832,1833,701,-0.0968479,-0.00346651
616,323,-0.0876465,-0.0560303,0.000213186,0.000401056,0.00231701,0.00262603,-0.00201179,0.805658,0.00268546,0.0113424,1840,701,-0.0875902,0.056059
623,323,-0.0754395,-0.0578003,0.000429948,-0.000222514,0.000654402,0.000834928,-0.000627493,0.554168,0.000847156,0.0124375,1847,701,-0.0753843,0.0577829
630,323,-0.0700684,-0.0411987,0.000864349,-0.000575394,-0.000536681,0.00104239,-0.000753433,-0.320315,0.00104128,0.0136226,1854,701,-0.0700613,0.0411995
637,323,-0.0600586,-0.0425415,0.001072,0.000313784,-0.00055025,0.0013611,2.4688e-05,-0.483754,0.000899282,0.0103067,1861,701,-0.0600379,0.0425599
644,323,-0.0596924,-0.0547485,0.00103291,0.000896546,-0.000150194,0.00112967,0.000799783,-0.572325,0.000670762,0.0073732,1868,701,-0.0596965,0.0547252
651,323,-0.078125,-0.0549927,0.000823663,0.00134614,0.000357179,0.00152742,0.000642383,1.10114,0.000885559,0.00859905,1875,701,-0.0781328,0.0549761
658,323,-0.0762939,-0.0615845,0.000954106,0.00192532,0.00127116,0.00280048,7.89532e-05,0.967853,0.00184123,0.00918413,1882,701,-0.0762712,0.061599
665,323,-0.0743408,-0.059082,0.000979899,0.00277367,0.00215055,0.00420687,-0.000453295,0.982957,0.00296724,0.0085595,1889,701,-0.0743353,0.0590881
672,323,-0.088623,-0.0310669,0.00097251,0.00399803,0.00311938,0.00595211,-0.000981571,1.01117,0.00433249,0.00823641,1896,701,-0.0886255,0.0310386
679,323,-0.103271,-0.0380859,0.00101328,0.00577318,0.00424608,0.00826081,-0.00147435,1.04083,0.00605875,0.0152428,1903,701,-0.103271,0.0380714
686,323,-0.0557861,-0.086792,0.00111193,0.00802135,0.00551594,0.0110751,-0.00194186,1.06517,0.0081086,0.0341412,1910,701,-0.0557576,0.0868178
693,323,-0.0505371,-0.0941772,0.00112825,0.010893,0.00703876,0.0145769,-0.00255568,1.08862,0.0106723,0.046418,1917,701,-0.0505651,0.0941937
700,323,-0.435303,0.360535,0.00127886,0.0144247,0.00856255,0.0186462,-0.0029427,1.11274,0.0135189,0.0473694,1924,701,-0.435243,-0.360512
707,323,-0.971069,0.875,0,0,0,0,0,0,0,-1,1931,701,-0.971015,-0.874978
714,323,-1.39099,1.28674,0,0,0,0,0,0,0,-1,1938,701,-1.39103,-1.28674
721,323,0,0,0,0,0,0,0,0,0,-1,1945,701,0,0
728,323,0,0,0,0,0,0,0,0,0,-1,1952,701,0,0
735,323,0,0,0,0,0,0,0,0,0,-1,1959,701,0,0
742,323,0,0,0,0,0,0,0,0,0,-1,1966,701,0,0
749,323,0,0,0,0,0,0,0,0,0,-1,1973,701,0,0
756,323,0,0,0,0,0,0,0,0,0,-1,1980,701,0,0
763,323,0,0,0,0,0,0,0,0,0,-1,1987,701,0,0
770,323,0,0,0,0,0,0,0,0,0,-1,1994,701,0,0
777,323,0,0,0,0,0,0,0,0,0,-1,2001,701,0,0
784,323,0,0,0,0,0,0,0,0,0,-1,2008,701,0,0
791,323,0,0,0,0,0,0,0,0,0,-1,2015,701,0,0
798,323,0,0,0,0,0,0,0,0,0,-1,2022,701,0,0
805,323,0,0,0,0,0,0,0,0,0,-1,2029,701,0,0
812,323,0,0,0,0,0,0,0,0,0,-1,2036,701,0,0
-700,316,0,0,0,0,0,0,0,0,0,-1,524,708,0,0
-693,316,0,0,0,0,0,0,0,0,0,-1,531,708,0,0
-686,316,0,0,0,0,0,0,0,0,0,-1,538,708,0,0
-679,316,0,0,0,0,0,0,0,0,0,-1,545,708,0,0
-672,316,0,0,0,0,0,0,0,0,0,-1,552,708,0,0
-665,316,0,0,0,0,0,0,0,0,0,-1,559,708,0,0
-658,316,0,0,0,0,0,0,0,0,0,-1,566,708,0,0
-651,316,0,0,0,0,0,0,0,0,0,-1,573,708,0,0
-644,316,0,0,0,0,0,0,0,0,0,-1,580,708,0,0
-637,316,0,0,0,0,0,0,0,0,0,-1,587,708,0,0
-630,316,0,0,0,0,0,0,0,0,0,-1,594,708,0,0
-623,316,0,0,0,0,0,0,0,0,0,-1,601,708,0,0
-616,316,0,0,0,0,0,0,0,0,0,-1,608,708,0,0
-609,316,0,0,0,0,0,0,0,0,0,-1,615,708,0,0
-602,316,0.937622,0.23291,0,0,0,0,0,0,0,-1,622,708,0.937632,-0.232906
-595,316,-0.0601196,-0.768188,0,0,0,0,0,0,0,-1,629,708,-0.060142,0.768209
-588,316,0.211182,-0.528259,-0.0172424,-0.0121564,0.014976,0.000490963,-0.0298898,0.869499,0.0200922,0.0481324,636,708,0.211197,0.528283
-581,316,0.747559,0.650391,-0.0157504,-0.0124277,0.0140013,1.04979e-05,-0.0281886,0.844451,0.0187959,0.0468604,643,708,0.747547,-0.650394
-574,316,0.348999,0.143921,-0.0138544,-0.0117974,0.0124173,-0.000366037,-0.0252858,0.826719,0.0167365,0.046608,650,708,0.348986,-0.143906
-567,316,-0.285583,-0.00366211,-0.0116675,-0.0108286,0.0107073,-0.000532524,-0.0219636,0.804974,0.0144682,0.0459938,657,708,-0.28558,0.00366961
-560,316,-0.11499,-0.155701,0,0,0,0,0,0,0,-1,664,708,-0.115008,0.155702
-553,316,-0.0690308,-0.0219727,-0.00759844,-0.00762121,0.00693184,-0.000677979,-0.0145417,0.784577,0.00947654,0.0238186,671,708,-0.0690305,0.0219586
-546,316,-0.0666504,-0.0548096,-0.00559845,-0.00611484,0.00523427,-0.000616011,-0.0110973,0.760754,0.00720164,0.0133252,678,708,-0.0666647,0.0548092
-539,316,-0.0665894,-0.0825806,-0.00387866,-0.00465108,0.00381802,-0.000427369,-0.00810237,0.734992,0.00526491,0.0105546,685,708,-0.066606,0.0825744
-532,316,-0.079895,-0.0668335,-0.00231819,-0.00373784,0.00229311,-0.00062756,-0.00542847,0.635301,0.00342899,0.00896143,692,708,-0.0799194,0.066809
-525,316,-0.0934448,-0.0286865,-0.000812731,-0.00231715,0.00129555,-6.68545e-05,-0.00306303,0.522377,0.0020201,0.00891656,699,708,-0.0934192,0.0286992
-518,316,-0.0966797,-0.0373535,0.000496064,-0.00154278,0.000538322,0.00062947,-0.00167619,0.242924,0.00137614,0.00954905,706,708,-0.0967022,0.0373515
-511,316,-0.0931396,-0.046875,0.00142064,-0.00114404,-0.000291522,0.00145336,-0.00117676,-0.111768,0.0015213,0.0105909,713,708,-0.0931408,0.046869
-504,316,-0.0807495,-0.0672607,0.00173593,-0.000691178,-0.000729669,0.0019384,-0.00089365,-0.270675,0.00167176,0.0130324,720,708,-0.0807509,0.0672763
-497,316,-0.0726929,-0.0563354,0.00167121,-0.00065024,-0.000994758,0.00203916,-0.00101818,-0.354276,0.00179766,0.0112333,727,708,-0.0727035,0.0563481
-490,316,-0.0982056,-0.0471802,0.00160638,-0.0010743,-0.00141135,0.00221243,-0.00168035,-0.405599,0.00225448,0.0116399,734,708,-0.0982165,0.0472076
-483,316,-0.0689087,-0.0471191,0.00212402,-0.00174204,-0.00259554,0.00342726,-0.00304528,-0.465331,0.00373909,0.0127855,741,708,-0.0688985,0.0471164
-476,316,-0.0452271,-0.0592651,0.00295102,-0.00188274,-0.00361387,0.00488171,-0.00381343,-0.490667,0.00503275,0.0234764,748,708,-0.0452534,0.0592456
-469,316,-0.162903,-0.130249,0.00431868,-0.00206753,-0.0045431,0.00667856,-0.00442741,-0.479081,0.00645579,0.0435837,755,708,-0.162874,0.130262
-462,316,-0.0750122,-0.200317,0,0,0,0,0,0,0,-1,762,708,-0.0750399,0.200292
-455,316,0.605408,0.667786,0.00780876,-0.0026824,-0.00734188,0.0115864,-0.00646009,-0.475211,0.0105584,0.044837,769,708,0.605434,-0.66781
-448,316,0.106689,0.0300293,0,0,0,0,0,0,0,-1,776,708,0.106686,-0.03002
-441,316,-0.424377,-0.549316,0,0,0,0,0,0,0,-1,783,708,-0.42438,0.549297
-434,316,-2.85547,-1.27533,0,0,0,0,0,0,0,-1,790,708,-2.85547,1.27531
-427,316,-1.29498,-0.683472,0.0183067,-0.00146646,-0.0172791,0.0283277,-0.0114875,-0.525546,0.0236628,0.0401636,797,708,-1.29498,0.6835
-420,316,-0.130371,-0.347717,0.021852,-0.00106097,-0.0214468,0.0347104,-0.0139194,-0.54009,0.0289192,0.0400268,804,708,-0.130363,0.347688
-413,316,0,0,0,0,0,0,0,0,0,-1,811,708,0,0
-406,316,0,0,0,0,0,0,0,0,0,-1,818,708,0,0
-399,316,0,0,0,0,0,0,0,0,0,-1,825,708,0,0
-392,316,0,0,0,0,0,0,0,0,0,-1,832,708,0,0
-385,316,0,0,0,0,0,0,0,0,0,-1,839,708,0,0
-378,316,0,0,0,0,0,0,0,0,0,-1,846,708,0,0
-371,316,0,0,0,0,0,0,0,0,0,-1,853,708,0,0
-364,316,0,0,0,0,0,0,0,0,0,-1,860,708,0,0
-357,316,0,0,0,0,0,0,0,0,0,-1,867,708,0,0
-350,316,0,0,0,0,0,0,0,0,0,-1,874,708,0,0
-343,316,0,0,0,0,0,0,0,0,0,-1,881,708,0,0
-336,316,0,0,0,0,0,0,0,0,0,-1,888,708,0,0
-329,316,0,0,0,0,0,0,0,0,0,-1,895,708,0,0
-322,316,0,0,0,0,0,0,0,0,0,-1,902,708,0,0
-315,316,0,0,0,0,0,0,0,0,0,-1,909,708,0,0
-308,316,0,0,0,0,0,0,0,0,0,-1,916,708,0,0
-301,316,0,0,0,0,0,0,0,0,0,-1,923,708,0,0
-294,316,0,0,0,0,0,0,0,0,0,-1,930,708,0,0
-287,316,0,0,0,0,0,0,0,0,0,-1,937,708,0,0
-280,316,0,0,0,0,0,0,0,0,0,-1,944,708,0,0
-273,316,0,0,0,0,0,0,0,0,0,-1,951,708,0,0
-266,316,0,0,0,0,0,0,0,0,0,-1,958,708,0,0
-259,316,0,0,0,0,0,0,0,0,0,-1,965,708,0,0
-252,316,0,0,0,0,0,0,0,0,0,-1,972,708,0,0
-245,316,0,0,0,0,0,0,0,0,0,-1,979,708,0,0
-238,316,0,0,0,0,0,0,0,0,0,-1,986,708,0,0
-231,316,0,0,0,0,0,0,0,0,0,-1,993,708,0,0
-224,316,0,0,0,0,0,0,0,0,0,-1,1000,708,0,0
-217,316,0,0,0,0,0,0,0,0,0,-1,1007,708,0,0
-210,316,0,0,0,0,0,0,0,0,0,-1,1014,708,0,0
-203,316,0,0,0,0,0,0,0,0,0,-1,1021,708,0,0
-196,316,0,0,0,0,0,0,0,0,0,-1,1028,708,0,0
-189,316,0,0,0,0,0,0,0,0,0,-1,1035,708,0,0
-182,316,0,0,0,0,0,0,0,0,0,-1,1042,708,0,0
-175,316,0,0,0,0,0,0,0,0,0,-1,1049,708,0,0
-168,316,0,0,0,0,0,0,0,0,0,-1,1056,708,0,0
-161,316,0,0,0,0,0,0,0,0,0,-1,1063,708,0,0
-154,316,0,0,0,0,0,0,0,0,0,-1,1070,708,0,0
-147,316,0,0,0,0,0,0,0,0,0,-1,1077,708,0,0
-140,316,0,0,0,0,0,0,0,0,0,-1,1084,708,0,0
-133,316,0,0,0,0,0,0,0,0,0,-1,1091,708,0,0
-126,316,0,0,0,0,0,0,0,0,0,-1,1098,708,0,0
-119,316,0,0,0,0,0,0,0,0,0,-1,1105,708,0,0
-112,316,0,0,0,0,0,0,0,0,0,-1,1112,708,0,0
-105,316,0,0,0,0,0,0,0,0,0,-1,1119,708,0,0
-98,316,0,0,0,0,0,0,0,0,0,-1,1126,708,0,0
-91,316,0,0,0,0,0,0,0,0,0,-1,1133,708,0,0
-84,316,0,0,0,0,0,0,0,0,0,-1,1140,708,0,0
-77,316,0,0,0,0,0,0,0,0,0,-1,1147,708,0,0
-70,316,0,0,0,0,0,0,0,0,0,-1,1154,708,0,0
-63,316,0,0,0,0,0,0,0,0,0,-1,1161,708,0,0
-56,316,0,0,0,0,0,0,0,0,0,-1,1168,708,0,0
-49,316,0,0,0,0,0,0,0,0,0,-1,1175,708,0,0
-42,316,0,0,0,0,0,0,0,0,0,-1,1182,708,0,0
-35,316,0,0,0,0,0,0,0,0,0,-1,1189,708,0,0
-28,316,0,0,0,0,0,0,0,0,0,-1,1196,708,0,0
-21,316,0,0,0,0,0,0,0,0,0,-1,1203,708,0,0
-14,316,0,0,0,0,0,0,0,0,0,-1,1210,708,0,0
-7,316,0,0,0,0,0,0,0,0,0,-1,1217,708,0,0
0,316,0,0,0,0,0,0,0,0,0,-1,1224,708,0,0
7,316,0,0,0,0,0,0,0,0,0,-1,1231,708,0,0
14,316,0,0,0,0,0,0,0,0,0,-1,1238,708,0,0
21,316,0,0,0,0,0,0,0,0,0,-1,1245,708,0,0
28,316,0,0,0,0,0,0,0,0,0,-1,1252,708,0,0
35,316,0,0,0,0,0,0,0,0,0,-1,1259,708,0,0
42,316,0,0,0,0,0,0,0,0,0,-1,1266,708,0,0
49,316,0,0,0,0,0,0,0,0,0,-1,1273,708,0,0
56,316,0,0,0,0,0,0,0,0,0,-1,1280,708,0,0
63,316,0,0,0,0,0,0,0,0,0,-1,1287,708,0,0
70,316,0,0,0,0,0,0,0,0,0,-1,1294,708,0,0
77,316,0,0,0,0,0,0,0,0,0,-1,1301,708,0,0
84,316,0,0,0,0,0,0,0,0,0,-1,1308,708,0,0
91,316,0,0,0,0,0,0,0,0,0,-1,1315,708,0,0
98,316,0,0,0,0,0,0,0,0,0,-1,1322,708,0,0
105,316,0,0,0,0,0,0,0,0,0,-1,1329,708,0,0
112,316,0,0,0,0,0,0,0,0,0,-1,1336,708,0,0
119,316,0,0,0,0,0,0,0,0,0,-1,1343,708,0,0
126,316,0,0,0,0,0,0,0,0,0,-1,1350,708,0,0
133,316,0,0,0,0,0,0,0,0,0,-1,1357,708,0,0
140,316,0,0,0,0,0,0,0,0,0,-1,1364,708,0,0
147,316,0,0,0,0,0,0,0,0,0,-1,1371,708,0,0
154,316,0,0,0,0,0,0,0,0,0,-1,1378,708,0,0
161,316,0,0,0,0,0,0,0,0,0,-1,1385,708,0,0
168,316,0,0,0,0,0,0,0,0,0,-1,1392,708,0,0
175,316,0,0,0,0,0,0,0,0,0,-1,1399,708,0,0
182,316,0,0,0,0,0,0,0,0,0,-1,1406,708,0,0
189,316,0,0,0,0,0,0,0,0,0,-1,1413,708,0,0
196,316,0,0,0,0,0,0,0,0,0,-1,1420,708,0,0
203,316,0,0,0,0,0,0,0,0,0,-1,1427,708,0,0
210,316,0,0,0,0,0,0,0,0,0,-1,1434,708,0,0
217,316,0,0,0,0,0,0,0,0,0,-1,1441,708,0,0
224,316,0,0,0,0,0,0,0,0,0,-1,1448,708,0,0
231,316,0,0,0,0,0,0,0,0,0,-1,1455,708,0,0
238,316,0,0,0,0,0,0,0,0,0,-1,1462,708,0,0
245,316,0,0,0,0,0,0,0,0,0,-1,1469,708,0,0
252,316,0,0,0,0,0,0,0,0,0,-1,1476,708,0,0
259,316,0,0,0,0,0,0,0,0,0,-1,1483,708,0,0
266,316,0,0,0,0,0,0,0,0,0,-1,1490,708,0,0
273,316,0,0,0,0,0,0,0,0,0,-1,1497,708,0,0
280,316,0,0,0,0,0,0,0,0,0,-1,1504,708,0,0
287,316,0,0,0,0,0,0,0,0,0,-1,1511,708,0,0
294,316,0,0,0,0,0,0,0,0,0,-1,1518,708,0,0
301,316,0,0,0,0,0,0,0,0,0,-1,1525,708,0,0
308,316,0,0,0,0,0,0,0,0,0,-1,1532,708,0,0
315,316,0,0,0,0,0,0,0,0,0,-1,1539,708,0,0
322,316,0,0,0,0,0,0,0,0,0,-1,1546,708,0,0
329,316,0,0,0,0,0,0,0,0,0,-1,1553,708,0,0
336,316,0,0,0,0,0,0,0,0,0,-1,1560,708,0,0
343,316,0,0,0,0,0,0,0,0,0,-1,1567,708,0,0
350,316,0,0,0,0,0,0,0,0,0,-1,1574,708,0,0
357,316,0,0,0,0,0,0,0,0,0,-1,1581,708,0,0
364,316,0,0,0,0,0,0,0,0,0,-1,1588,708,0,0
371,316,0,0,0,0,0,0,0,0,0,-1,1595,708,0,0
378,316,0,0,0,0,0,0,0,0,0,-1,1602,708,0,0
385,316,0,0,0,0,0,0,0,0,0,-1,1609,708,0,0
392,316,0,0,0,0,0,0,0,0,0,-1,1616,708,0,0
399,316,0,0,0,0,0,0,0,0,0,-1,1623,708,0,0
406,316,0,0,0,0,0,0,0,0,0,-1,1630,708,0,0
413,316,0,0,0,0,0,0,0,0,0,-1,1637,708,0,0
420,316,0,0,0,0,0,0,0,0,0,-1,1644,708,0,0
427,316,0,0,0,0,0,0,0,0,0,-1,1651,708,0,0
434,316,0,0,0,0,0,0,0,0,0,-1,1658,708,0,0
441,316,0,0,0,0,0,0,0,0,0,-1,1665,708,0,0
448,316,0,0,0,0,0,0,0,0,0,-1,1672,708,0,0
455,316,0,0,0,0,0,0,0,0,0,-1,1679,708,0,0
462,316,0,0,0,0,0,0,0,0,0,-1,1686,708,0,0
469,316,0,0,0,0,0,0,0,0,0,-1,1693,708,0,0
476,316,0,0,0,0,0,0,0,0,0,-1,1700,708,0,0
483,316,0,0,0,0,0,0,0,0,0,-1,1707,708,0,0
490,316,0,0,0,0,0,0,0,0,0,-1,1714,708,0,0
497,316,0,0,0,0,0,0,0,0,0,-1,1721,708,0,0
504,316,0,0,0,0,0,0,0,0,0,-1,1728,708,0,0
511,316,0,0,0,0,0,0,0,0,0,-1,1735,708,0,0
518,316,0,0,0,0,0,0,0,0,0,-1,1742,708,0,0
525,316,0,0,0,0,0,0,0,0,0,-1,1749,708,0,0
532,316,-0.678955,-0.123779,0.038919,0.00436389,-0.00622011,0.0400046,0.00327834,-0.172783,0.0256469,0.0440799,1756,708,-0.678919,0.123763
539,316,0.80835,-0.299561,0.0238931,0.00829015,-0.00175768,0.0240887,0.0080946,-0.1108,0.0141547,0.0433935,1763,708,0.808401,0.299569
546,316,0.801147,-0.510803,0.013185,0.00965695,0.00223719,0.01427,0.00857197,0.451553,0.00829429,0.0427354,1770,708,0.801173,0.510786
553,316,0.825317,-0.669739,0.0056927,0.0101884,0.00530798,0.0137049,0.00217622,0.985691,0.00850449,0.0459617,1777,708,0.825279,0.669725
560,316,0.0982666,-1.62714,0.00153358,0.00958648,0.00708888,0.0137126,-0.00259255,1.04368,0.0101173,0.0442457,1784,708,0.0982751,1.62713
567,316,-1.22717,-1.40918,-0.000781612,0.00854062,0.00791402,0.0130641,-0.00530514,1.05153,0.0109163,0.0459735,1791,708,-1.22714,1.4092
574,316,-2.36145,-0.449341,-0.0017658,0.00738933,0.00819756,0.0122008,-0.00657728,1.04004,0.0110024,0.0478252,1798,708,-2.36145,0.449317
581,316,-0.262695,0.548889,-0.00199499,0.00611569,0.00760626,0.0106802,-0.00655946,1.03031,0.0100476,0.0470988,1805,708,-0.262652,-0.548888
588,316,-0.425415,0.49707,-0.00276347,0.00480691,0.00657761,0.0086107,-0.00656725,1.04649,0.00878943,0.0458046,1812,708,-0.425432,-0.497095
595,316,-0.378784,0.426697,-0.00269859,0.00346141,0.00574301,0.0068982,-0.00613538,1.03153,0.00752924,0.0471097,1819,708,-0.378784,-0.426683
602,316,-0.233887,0.221802,-0.00180257,0.00258593,0.00444126,0.00534542,-0.00456206,1.01484,0.00572604,0.0451232,1826,708,-0.233885,-0.221817
609,316,-0.106934,0.0132446,-0.00029788,0.00191378,0.00314872,0.00414521,-0.00252931,0.95427,0.00389099,0.0299455,1833,708,-0.106965,-0.0132247
616,316,-0.0585938,-0.0703125,0.000554211,0.00097355,0.00219475,0.00296863,-0.00144087,0.83302,0.00259626,0.0123135,1840,708,-0.0585824,0.0703381
623,316,-0.0653076,-0.0551147,0.000599104,0.000432568,0.000609519,0.00113102,-9.93441e-05,0.717512,0.000789213,0.0103878,1847,708,-0.0653592,0.0550916
630,316,-0.0788574,-0.0524902,0.000756734,-0.000105937,-0.000522905,0.00100325,-0.00035245,-0.440533,0.000812218,0.01171,1854,708,-0.0788905,0.0524621
637,316,-0.0792236,-0.0373535,0.000637015,0.00061416,-0.000591075,0.00121677,3.44025e-05,-0.775733,0.000799961,0.0112311,1861,708,-0.0792717,0.0373416
644,316,-0.0601807,-0.0369873,0.000343118,0.00107099,-0.00020907,0.00112676,0.000287341,-1.31008,0.000676066,0.011086,1868,708,-0.0601899,0.0370081
651,316,-0.0804443,-0.0411377,-8.58055e-05,0.00132703,0.000280149,0.00138055,-0.000139328,1.38202,0.000970152,0.011298,1875,708,-0.0804349,0.0411422
658,316,-0.0805664,-0.071106,-0.000123451,0.00168738,0.00121812,0.00229973,-0.000735796,1.10499,0.00182845,0.0141024,1882,708,-0.0805894,0.0711016
665,316,-0.0576172,-0.0620117,-0.000315992,0.00230684,0.00203034,0.00341247,-0.00142162,1.07214,0.00286877,0.0119383,1889,708,-0.0576074,0.0620082
672,316,-0.0863037,-0.00836182,-0.000597463,0.00325483,0.00283965,0.00475996,-0.00210259,1.08341,0.0040599,0.0110222,1896,708,-0.0862439,0.00837154
679,316,-0.0966797,-0.00836182,-0.000830593,0.00474722,0.00374653,0.00662891,-0.00271228,1.10535,0.00554891,0.0164412,1903,708,-0.0966746,0.00837958
686,316,-0.0705566,-0.0350952,-0.000980272,0.00662818,0.00475448,0.00891306,-0.00326515,1.12281,0.00727878,0.0275549,1910,708,-0.07061,0.0351139
693,316,-0.169312,0.174805,-0.00118295,0.00908032,0.00595369,0.0118087,-0.00391135,1.14109,0.00945004,0.0430418,1917,708,-0.169272,-0.174813
700,316,-0.429077,0.54126,-0.00119773,0.0121099,0.0071025,0.0151884,-0.00427628,1.16179,0.0118119,0.0468768,1924,708,-0.429134,-0.541256
707,316,-0.708008,0.78302,0,0,0,0,0,0,0,-1,1931,708,-0.708013,-0.783044
714,316,-1.46228,1.20697,0,0,0,0,0,0,0,-1,1938,708,-1.46229,-1.20699
721,316,-1.43176,1.81079,0,0,0,0,0,0,0,-1,1945,708,-1.43177,-1.81079
728,316,0,0,0,0,0,0,0,0,0,-1,1952,708,0,0
735,316,0,0,0,0,0,0,0,0,0,-1,1959,708,0,0
742,316,0,0,0,0,0,0,0,0,0,-1,1966,708,0,0
749,316,0,0,0,0,0,0,0,0,0,-1,1973,708,0,0
756,316,0,0,0,0,0,0,0,0,0,-1,1980,708,0,0
763,316,0,0,0,0,0,0,0,0,0,-1,1987,708,0,0
770,316,0,0,0,0,0,0,0,0,0,-1,1994,708,0,0
777,316,0,0,0,0,0,0,0,0,0,-1,2001,708,0,0
784,316,0,0,0,0,0,0,0,0,0,-1,2008,708,0,0
791,316,0,0,0,0,0,0,0,0,0,-1,2015,708,0,0
798,316,0,0,0,0,0,0,0,0,0,-1,2022,708,0,0
805,316,0,0,0,0,0,0,0,0,0,-1,2029,708,0,0
812,316,0,0,0,0,0,0,0,0,0,-1,2036,708,0,0
-700,309,0,0,0,0,0,0,0,0,0,-1,524,715,0,0
-693,309,0,0,0,0,0,0,0,0,0,-1,531,715,0,0
-686,309,0,0,0,0,0,0,0,0,0,-1,538,715,0,0
-679,309,0,0,0,0,0,0,0,0,0,-1,545,715,0,0
-672,309,0,0,0,0,0,0,0,0,0,-1,552,715,0,0
-665,309,0,0,0,0,0,0,0,0,0,-1,559,715,0,0
-658,309,0,0,0,0,0,0,0,0,0,-1,566,715,0,0
-651,309,0,0,0,0,0,0,0,0,0,-1,573,715,0,0
-644,309,0,0,0,0,0,0,0,0,0,-1,580,715,0,0
-637,309,0,0,0,0,0,0,0,0,0,-1,587,715,0,0
-630,309,0,0,0,0,0,0,0,0,0,-1,594,715,0,0
-623,309,0,0,0,0,0,0,0,0,0,-1,601,715,0,0
-616,309,0,0,0,0,0,0,0,0,0,-1,608,715,0,0
-609,309,0.117249,-0.217896,0,0,0,0,0,0,0,-1,615,715,0.117224,0.21791
-602,309,-0.342834,-0.797424,0,0,0,0,0,0,0,-1,622,715,-0.342826,0.797402
-595,309,-0.152466,-0.656982,-0.0123803,-0.00200451,0.00805894,0.002392,-0.0167768,1.07138,0.0120612,0.0473634,629,715,-0.152447,0.657003
-588,309,0.0227051,-0.486572,-0.0120763,-0.00434984,0.00904213,0.00161975,-0.0180459,0.987286,0.0126053,0.0443123,636,715,0.0227037,0.486588
-581,309,0.236511,-0.272644,-0.011306,-0.0055033,0.00902518,0.00107541,-0.0178847,0.940918,0.0122973,0.0454801,643,715,0.236491,0.272653
-574,309,-0.200134,-0.399109,-0.0101474,-0.00595033,0.00843502,0.000643274,-0.016741,0.907318,0.0113812,0.0493683,650,715,-0.200116,0.399118
-567,309,-0.174194,-0.276794,-0.00866787,-0.00598464,0.00761805,0.00040903,-0.0150615,0.872559,0.0101801,0.0468562,657,715,-0.174212,0.276797
-560,309,-0.10498,-0.144714,-0.00754646,-0.0054615,0.00632589,-9.2769e-05,-0.0129152,0.867062,0.00857937,0.036533,664,715,-0.104954,0.144706
-553,309,-0.0606689,-0.0432739,-0.00605607,-0.00445042,0.00510907,-8.14865e-05,-0.010425,0.863329,0.006923,0.0214415,671,715,-0.0606831,0.0432466
-546,309,-0.06427,-0.053833,-0.00440813,-0.0036223,0.00396418,-3.16147e-05,-0.00799881,0.834795,0.00532204,0.0133337,678,715,-0.0642646,0.0538048
-539,309,-0.0739746,-0.0634766,-0.00303667,-0.00279977,0.00292559,9.76655e-06,-0.0058462,0.805631,0.00390073,0.0124194,685,715,-0.0739616,0.0634942
-532,309,-0.0958862,-0.0562134,-0.00171753,-0.00237247,0.0017217,-0.000292434,-0.00379756,0.691419,0.00244008,0.0106138,692,715,-0.0959133,0.0561887
-525,309,-0.0997925,-0.0269775,-0.000414162,-0.00154149,0.000981695,0.000154182,-0.00210983,0.524791,0.00146067,0.014577,699,715,-0.099802,0.026969
-518,309,-0.0882568,-0.0545044,0.000778807,-0.00116925,0.00039414,0.00085553,-0.00124598,0.192254,0.00122027,0.014858,706,715,-0.0882824,0.054505
-511,309,-0.0900269,-0.0551758,0.00165977,-0.0010977,-0.000319409,0.00169629,-0.00113421,-0.113826,0.0016449,0.0111306,713,715,-0.0900078,0.0551595
-504,309,-0.0836182,-0.0432129,0.00201806,-0.000750419,-0.000687696,0.00217947,-0.000911833,-0.230544,0.0018341,0.00868668,720,715,-0.083613,0.0432367
-497,309,-0.0823364,-0.0484009,0.0021374,-0.000805201,-0.000950245,0.00241758,-0.00108538,-0.286727,0.00207062,0.0119778,727,715,-0.0823586,0.0484214
-490,309,-0.0870972,-0.038208,0.00224926,-0.00150905,-0.00154543,0.00280312,-0.00206291,-0.344127,0.00282022,0.0124139,734,715,-0.0871004,0.0381893
-483,309,-0.0463867,0.0117188,0.00294135,-0.00256802,-0.00311598,0.00434571,-0.00397238,-0.423432,0.00480406,0.0200996,741,715,-0.046403,-0.0117358
-476,309,0.0363159,0.150635,0.00423758,-0.0031004,-0.00456315,0.00642383,-0.00528665,-0.446796,0.00677166,0.0337832,748,715,0.0363248,-0.150623
-469,309,-0.306091,-0.179749,0.00626002,-0.00383262,-0.00589677,0.00897497,-0.00654757,-0.431479,0.00899839,0.0445365,755,715,-0.306062,0.179772
-462,309,-0.373901,-0.236572,0.00843517,-0.0049086,-0.00780622,0.0120322,-0.00850565,-0.431793,0.0119157,0.0470806,762,715,-0.373911,0.236576
-455,309,-0.272827,-0.126709,0.0111783,-0.00600545,-0.0100213,0.0157867,-0.0106139,-0.431023,0.0153396,0.0495432,769,715,-0.272811,0.126679
-448,309,0.489319,0.331726,0,0,0,0,0,0,0,-1,776,715,0.489314,-0.331709
-441,309,-1.98956,-0.699463,0,0,0,0,0,0,0,-1,783,715,-1.98956,0.699464
-434,309,-1.38782,-1.08319,0.0228761,-0.0088744,-0.0189094,0.0316907,-0.017689,-0.436202,0.0288889,0.0465824,790,715,-1.38779,1.0832
-427,309,-0.763611,-0.910156,0.0287724,-0.010019,-0.0227619,0.0392815,-0.0205281,-0.432539,0.0350924,0.0462094,797,715,-0.763638,0.910169
-420,309,0.0299072,-0.258179,0.0352609,-0.0116751,-0.0277053,0.0481018,-0.024516,-0.434007,0.0426566,0.0451454,804,715,0.0299001,0.258173
-413,309,0,0,0,0,0,0,0,0,0,-1,811,715,0,0
-406,309,0,0,0,0,0,0,0,0,0,-1,818,715,0,0
-399,309,0,0,0,0,0,0,0,0,0,-1,825,715,0,0
-392,309,0,0,0,0,0,0,0,0,0,-1,832,715,0,0
-385,309,0,0,0,0,0,0,0,0,0,-1,839,715,0,0
-378,309,0,0,0,0,0,0,0,0,0,-1,846,715,0,0
-371,309,0,0,0,0,0,0,0,0,0,-1,853,715,0,0
-364,309,0,0,0,0,0,0,0,0,0,-1,860,715,0,0
-357,309,0,0,0,0,0,0,0,0,0,-1,867,715,0,0
-350,309,0,0,0,0,0,0,0,0,0,-1,874,715,0,0
-343,309,0,0,0,0,0,0,0,0,0,-1,881,715,0,0
-336,309,0,0,0,0,0,0,0,0,0,-1,888,715,0,0
-329,309,0,0,0,0,0,0,0,0,0,-1,895,715,0,0
-322,309,0,0,0,0,0,0,0,0,0,-1,902,715,0,0
-315,309,0,0,0,0,0,0,0,0,0,-1,909,715,0,0
-308,309,0,0,0,0,0,0,0,0,0,-1,916,715,0,0
-301,309,0,0,0,0,0,0,0,0,0,-1,923,715,0,0
-294,309,0,0,0,0,0,0,0,0,0,-1,930,715,0,0
-287,309,0,0,0,0,0,0,0,0,0,-1,937,715,0,0
-280,309,0,0,0,0,0,0,0,0,0,-1,944,715,0,0
-273,309,0,0,0,0,0,0,0,0,0,-1,951,715,0,0
-266,309,0,0,0,0,0,0,0,0,0,-1,958,715,0,0
-259,309,0,0,0,0,0,0,0,0,0,-1,965,715,0,0
-252,309,0,0,0,0,0,0,0,0,0,-1,972,715,0,0
-245,309,0,0,0,0,0,0,0,0,0,-1,979,715,0,0
-238,309,0,0,0,0,0,0,0,0,0,-1,986,715,0,0
-231,309,0,0,0,0,0,0,0,0,0,-1,993,715,0,0
-224,309,0,0,0,0,0,0,0,0,0,-1,1000,715,0,0
-217,309,0,0,0,0,0,0,0,0,0,-1,1007,715,0,0
-210,309,0,0,0,0,0,0,0,0,0,-1,1014,715,0,0
-203,309,0,0,0,0,0,0,0,0,0,-1,1021,715,0,0
-196,309,0,0,0,0,0,0,0,0,0,-1,1028,715,0,0
-189,309,0,0,0,0,0,0,0,0,0,-1,1035,715,0,0
-182,309,0,0,0,0,0,0,0,0,0,-1,1042,715,0,0
-175,309,0,0,0,0,0,0,0,0,0,-1,1049,715,0,0
-168,309,0,0,0,0,0,0,0,0,0,-1,1056,715,0,0
-161,309,0,0,0,0,0,0,0,0,0,-1,1063,715,0,0
-154,309,0,0,0,0,0,0,0,0,0,-1,1070,715,0,0
-147,309,0,0,0,0,0,0,0,0,0,-1,1077,715,0,0
-140,309,0,0,0,0,0,0,0,0,0,-1,1084,715,0,0
-133,309,0,0,0,0,0,0,0,0,0,-1,1091,715,0,0
-126,309,0,0,0,0,0,0,0,0,0,-1,1098,715,0,0
-119,309,0,0,0,0,0,0,0,0,0,-1,1105,715,0,0
-112,309,0,0,0,0,0,0,0,0,0,-1,1112,715,0,0
-105,309,0,0,0,0,0,0,0,0,0,-1,1119,715,0,0
-98,309,0,0,0,0,0,0,0,0,0,-1,1126,715,0,0
-91,309,0,0,0,0,0,0,0,0,0,-1,1133,715,0,0
-84,309,0,0,0,0,0,0,0,0,0,-1,1140,715,0,0
-77,309,0,0,0,0,0,0,0,0,0,-1,1147,715,0,0
-70,309,0,0,0,0,0,0,0,0,0,-1,1154,715,0,0
-63,309,0,0,0,0,0,0,0,0,0,-1,1161,715,0,0
-56,309,0,0,0,0,0,0,0,0,0,-1,1168,715,0,0
-49,309,0,0,0,0,0,0,0,0,0,-1,1175,715,0,0
-42,309,0,0,0,0,0,0,0,0,0,-1,1182,715,0,0
-35,309,0,0,0,0,0,0,0,0,0,-1,1189,715,0,0
-28,309,0,0,0,0,0,0,0,0,0,-1,1196,715,0,0
-21,309,0,0,0,0,0,0,0,0,0,-1,1203,715,0,0
-14,309,0,0,0,0,0,0,0,0,0,-1,1210,715,0,0
-7,309,0,0,0,0,0,0,0,0,0,-1,1217,715,0,0
0,309,0,0,0,0,0,0,0,0,0,-1,1224,715,0,0
7,309,0,0,0,0,0,0,0,0,0,-1,1231,715,0,0
14,309,0,0,0,0,0,0,0,0,0,-1,1238,715,0,0
21,309,0,0,0,0,0,0,0,0,0,-1,1245,715,0,0
28,309,0,0,0,0,0,0,0,0,0,-1,1252,715,0,0
35,309,0,0,0,0,0,0,0,0,0,-1,1259,715,0,0
42,309,0,0,0,0,0,0,0,0,0,-1,1266,715,0,0
49,309,0,0,0,0,0,0,0,0,0,-1,1273,715,0,0
56,309,0,0,0,0,0,0,0,0,0,-1,1280,715,0,0
63,309,0,0,0,0,0,0,0,0,0,-1,1287,715,0,0
70,309,0,0,0,0,0,0,0,0,0,-1,1294,715,0,0
77,309,0,0,0,0,0,0,0,0,0,-1,1301,715,0,0
84,309,0,0,0,0,0,0,0,0,0,-1,1308,715,0,0
91,309,0,0,0,0,0,0,0,0,0,-1,1315,715,0,0
98,309,0,0,0,0,0,0,0,0,0,-1,1322,715,0,0
105,309,0,0,0,0,0,0,0,0,0,-1,1329,715,0,0
112,309,0,0,0,0,0,0,0,0,0,-1,1336,715,0,0
119,309,0,0,0,0,0,0,0,0,0,-1,1343,715,0,0
126,309,0,0,0,0,0,0,0,0,0,-1,1350,715,0,0
133,309,0,0,0,0,0,0,0,0,0,-1,1357,715,0,0
140,309,0,0,0,0,0,0,0,0,0,-1,1364,715,0,0
147,309,0,0,0,0,0,0,0,0,0,-1,1371,715,0,0
154,309,0,0,0,0,0,0,0,0,0,-1,1378,715,0,0
161,309,0,0,0,0,0,0,0,0,0,-1,1385,715,0,0
168,309,0,0,0,0,0,0,0,0,0,-1,1392,715,0,0
175,309,0,0,0,0,0,0,0,0,0,-1,1399,715,0,0
182,309,0,0,0,0,0,0,0,0,0,-1,1406,715,0,0
189,309,0,0,0,0,0,0,0,0,0,-1,1413,715,0,0
196,309,0,0,0,0,0,0,0,0,0,-1,1420,715,0,0
203,309,0,0,0,0,0,0,0,0,0,-1,1427,715,0,0
210,309,0,0,0,0,0,0,0,0,0,-1,1434,715,0,0
217,309,0,0,0,0,0,0,0,0,0,-1,1441,715,0,0
224,309,0,0,0,0,0,0,0,0,0,-1,1448,715,0,0
231,309,0,0,0,0,0,0,0,0,0,-1,1455,715,0,0
238,309,0,0,0,0,0,0,0,0,0,-1,1462,715,0,0
245,309,0,0,0,0,0,0,0,0,0,-1,1469,715,0,0
252,309,0,0,0,0,0,0,0,0,0,-1,1476,715,0,0
259,309,0,0,0,0,0,0,0,0,0,-1,1483,715,0,0
266,309,0,0,0,0,0,0,0,0,0,-1,1490,715,0,0
273,309,0,0,0,0,0,0,0,0,0,-1,1497,715,0,0
280,309,0,0,0,0,0,0,0,0,0,-1,1504,715,0,0
287,309,0,0,0,0,0,0,0,0,0,-1,1511,715,0,0
294,309,0,0,0,0,0,0,0,0,0,-1,1518,715,0,0
301,309,0,0,0,0,0,0,0,0,0,-1,1525,715,0,0
308,309,0,0,0,0,0,0,0,0,0,-1,1532,715,0,0
315,309,0,0,0,0,0,0,0,0,0,-1,1539,715,0,0
322,309,0,0,0,0,0,0,0,0,0,-1,1546,715,0,0
329,309,0,0,0,0,0,0,0,0,0,-1,1553,715,0,0
336,309,0,0,0,0,0,0,0,0,0,-1,1560,715,0,0
343,309,0,0,0,0,0,0,0,0,0,-1,1567,715,0,0
350,309,0,0,0,0,0,0,0,0,0,-1,1574,715,0,0
357,309,0,0,0,0,0,0,0,0,0,-1,1581,715,0,0
364,309,0,0,0,0,0,0,0,0,0,-1,1588,715,0,0
371,309,0,0,0,0,0,0,0,0,0,-1,1595,715,0,0
378,309,0,0,0,0,0,0,0,0,0,-1,1602,715,0,0
385,309,0,0,0,0,0,0,0,0,0,-1,1609,715,0,0
392,309,0,0,0,0,0,0,0,0,0,-1,1616,715,0,0
399,309,0,0,0,0,0,0,0,0,0,-1,1623,715,0,0
406,309,0,0,0,0,0,0,0,0,0,-1,1630,715,0,0
413,309,0,0,0,0,0,0,0,0,0,-1,1637,715,0,0
420,309,0,0,0,0,0,0,0,0,0,-1,1644,715,0,0
427,309,0,0,0,0,0,0,0,0,0,-1,1651,715,0,0
434,309,0,0,0,0,0,0,0,0,0,-1,1658,715,0,0
441,309,0,0,0,0,0,0,0,0,0,-1,1665,715,0,0
448,309,0,0,0,0,0,0,0,0,0,-1,1672,715,0,0
455,309,0,0,0,0,0,0,0,0,0,-1,1679,715,0,0
462,309,0,0,0,0,0,0,0,0,0,-1,1686,715,0,0
469,309,0,0,0,0,0,0,0,0,0,-1,1693,715,0,0
476,309,0,0,0,0,0,0,0,0,0,-1,1700,715,0,0
483,309,0,0,0,0,0,0,0,0,0,-1,1707,715,0,0
490,309,0,0,0,0,0,0,0,0,0,-1,1714,715,0,0
497,309,0,0,0,0,0,0,0,0,0,-1,1721,715,0,0
504,309,0,0,0,0,0,0,0,0,0,-1,1728,715,0,0
511,309,0,0,0,0,0,0,0,0,0,-1,1735,715,0,0
518,309,0,0,0,0,0,0,0,0,0,-1,1742,715,0,0
525,309,0,0,0,0,0,0,0,0,0,-1,1749,715,0,0
532,309,0,0,0,0,0,0,0,0,0,-1,1756,715,0,0
539,309,0.838379,-0.707581,0.0295458,0.0101207,-0.00518523,0.0308433,0.00882326,-0.245188,0.0183426,0.0446786,1763,715,0.838324,0.707586
546,309,0.939575,-1.00354,0.0175371,0.0114217,-0.000233428,0.017546,0.0114128,-0.0380967,0.0102819,0.0426824,1770,715,0.939631,1.00355
553,309,-1.09875,0.919861,0.00913281,0.0112759,0.00363925,0.0139981,0.00641062,0.928571,0.0080913,0.0416184,1777,715,-1.09881,-0.919831
560,309,0.648071,-2.23999,0,0,0,0,0,0,0,-1,1784,715,0.64812,2.23997
567,309,-0.660034,-1.75616,0.0016201,0.00888295,0.00700532,0.0131421,-0.00263909,1.02452,0.00976078,0.0431506,1791,715,-0.660092,1.75615
574,309,0.140747,0.650574,0.000347106,0.00752469,0.00740506,0.0121648,-0.00429298,1.01104,0.00985753,0.0455176,1798,715,0.140786,-0.650598
581,309,-0.369507,0.79248,-0.000208731,0.00608342,0.00695687,0.0105725,-0.00469782,0.99775,0.00903119,0.0460876,1805,715,-0.369497,-0.792506
588,309,-0.506714,0.876343,-0.00127096,0.00476262,0.00610714,0.00855746,-0.00506579,1.01481,0.00795103,0.047638,1812,715,-0.506728,-0.876354
595,309,-0.311768,0.870422,0,0,0,0,0,0,0,-1,1819,715,-0.311713,-0.870424
602,309,-0.333252,0.386047,-0.000992107,0.00263708,0.00419423,0.00539242,-0.00374745,0.98956,0.00530532,0.0434907,1826,715,-0.333267,-0.386067
609,309,-0.0949707,0.03479,0.000149517,0.00199716,0.00303269,0.00424361,-0.00209694,0.933244,0.00373,0.0369156,1833,715,-0.0949418,-0.0347941
616,309,-0.0789795,-0.0628052,0.000732616,0.00112728,0.00221793,0.00315665,-0.00129675,0.829767,0.00264485,0.0183835,1840,715,-0.0789542,0.062806
623,309,-0.0595703,-0.0525513,0.000615639,0.000719175,0.000786672,0.00145578,-0.000120966,0.818254,0.00101325,0.00996006,1847,715,-0.0596263,0.0525581
630,309,-0.0689697,-0.0525513,0.000568507,7.25524e-05,-0.000207247,0.000643708,-2.64807e-06,-0.348081,0.000430024,0.00926696,1854,715,-0.0689231,0.0525244
637,309,-0.0993652,-0.0482178,0.000261759,0.000686628,-0.0003205,0.000858705,8.96818e-05,-1.07807,0.000545041,0.0117385,1861,715,-0.0993432,0.0482244
644,309,-0.09375,-0.0394897,-0.000179949,0.00106323,5.3143e-06,0.00106325,-0.000179972,1.56652,0.000775816,0.0130741,1868,715,-0.093802,0.0394835
651,309,-0.0683594,-0.0492554,-0.000663873,0.00118849,0.000421026,0.0012797,-0.000755078,1.35747,0.00118772,0.0124266,1875,715,-0.0683426,0.0492593
658,309,-0.0710449,-0.0797729,-0.00067959,0.001377,0.00133702,0.00203542,-0.00133801,1.1132,0.00196148,0.0169901,1882,715,-0.0710916,0.0797797
665,309,-0.0561523,-0.0605469,-0.000895469,0.00181733,0.00206118,0.00292837,-0.00200652,1.07641,0.00286568,0.0149918,1889,715,-0.056137,0.0605213
672,309,-0.0649414,-0.0314331,-0.00127159,0.00255074,0.00268386,0.00393437,-0.00265521,1.0948,0.00382831,0.0135695,1896,715,-0.064966,0.0314054
679,309,-0.0889893,0.0032959,-0.00161578,0.00384648,0.00333719,0.00542765,-0.00319694,1.12833,0.00503462,0.0142936,1903,715,-0.0889367,-0.00328602
686,309,-0.072998,-0.0205078,-0.00188032,0.00530334,0.00392604,0.0070327,-0.00360968,1.15588,0.00624942,0.0182334,1910,715,-0.072956,0.020485
693,309,-0.0878906,0.0731812,-0.00222932,0.00731741,0.00471088,0.00925056,-0.00416248,1.18139,0.00792757,0.0317225,1917,715,-0.0878915,-0.0731915
700,309,-0.147461,0.410339,-0.00239022,0.00978263,0.00531645,0.0117776,-0.0043852,1.21181,0.00965147,0.0464134,1924,715,-0.147413,-0.410329
707,309,0.155884,0.757385,-0.00219525,0.0126413,0.00547881,0.0144452,-0.00399913,1.25273,0.0112037,0.0462636,1931,715,0.155927,-0.757383
714,309,-1.58508,1.09009,0,0,0,0,0,0,0,-1,1938,715,-1.58505,-1.09012
721,309,-1.43445,1.31738,0,0,0,0,0,0,0,-1,1945,715,-1.43446,-1.31739
728,309,0,0,0,0,0,0,0,0,0,-1,1952,715,0,0
735,309,0,0,0,0,0,0,0,0,0,-1,1959,715,0,0
742,309,0,0,0,0,0,0,0,0,0,-1,1966,715,0,0
749,309,0,0,0,0,0,0,0,0,0,-1,1973,715,0,0
756,309,0,0,0,0,0,0,0,0,0,-1,1980,715,0,0
763,309,0,0,0,0,0,0,0,0,0,-1,1987,715,0,0
770,309,0,0,0,0,0,0,0,0,0,-1,1994,715,0,0
777,309,0,0,0,0,0,0,0,0,0,-1,2001,715,0,0
784,309,0,0,0,0,0,0,0,0,0,-1,2008,715,0,0
791,309,0,0,0,0,0,0,0,0,0,-1,2015,715,0,0
798,309,0,0,0,0,0,0,0,0,0,-1,2022,715,0,0
805,309,0,0,0,0,0,0,0,0,0,-1,2029,715,0,0
812,309,0,0,0,0,0,0,0,0,0,-1,2036,715,0,0
-700,302,0,0,0,0,0,0,0,0,0,-1,524,722,0,0
-693,302,0,0,0,0,0,0,0,0,0,-1,531,722,0,0
-686,302,0,0,0,0,0,0,0,0,0,-1,538,722,0,0
-679,302,0,0,0,0,0,0,0,0,0,-1,545,722,0,0
-672,302,0,0,0,0,0,0,0,0,0,-1,552,722,0,0
-665,302,0,0,0,0,0,0,0,0,0,-1,559,722,0,0
-658,302,0,0,0,0,0,0,0,0,0,-1,566,722,0,0
-651,302,0,0,0,0,0,0,0,0,0,-1,573,722,0,0
-644,302,0,0,0,0,0,0,0,0,0,-1,580,722,0,0
-637,302,0,0,0,0,0,0,0,0,0,-1,587,722,0,0
-630,302,0,0,0,0,0,0,0,0,0,-1,594,722,0,0
-623,302,0,0,0,0,0,0,0,0,0,-1,601,722,0,0
-616,302,0,0,0,0,0,0,0,0,0,-1,608,722,0,0
-609,302,-0.351807,0.198669,-0.00832824,0.0147299,-0.00476357,0.0156752,-0.00927358,-1.37489,0.0145614,0.0434901,615,722,-0.351833,-0.198647
-602,302,-0.401001,-0.345947,-0.00837693,0.00872571,-0.000396252,0.00873488,-0.0083861,-1.54764,0.00988549,0.0431952,622,722,-0.401017,0.345921
-595,302,-0.166626,-0.361755,-0.00833153,0.00478474,0.00221842,0.00514979,-0.00869658,1.4077,0.00808116,0.0451864,629,722,-0.166618,0.361772
-588,302,-0.020813,-0.131042,0,0,0,0,0,0,0,-1,636,722,-0.0208175,0.131041
-581,302,-0.325439,-0.117371,0,0,0,0,0,0,0,-1,643,722,-0.325411,0.117353
-574,302,-0.580627,-0.262817,0,0,0,0,0,0,0,-1,650,722,-0.580651,0.2628
-567,302,-0.368652,-0.253906,-0.00576119,-0.00146887,0.00428342,0.00117597,-0.00840603,1.01764,0.00603433,0.043699,657,722,-0.368622,0.253926
-560,302,-0.0895386,-0.102539,-0.00531348,-0.0016858,0.00364468,0.000571438,-0.00757072,1.01629,0.00524801,0.0286973,664,722,-0.0895135,0.102558
-553,302,-0.065918,-0.027832,-0.00434529,-0.0013353,0.00301062,0.00052554,-0.00620612,1.01718,0.00432326,0.013214,671,722,-0.0659169,0.0278621
-546,302,-0.0969238,-0.0498047,-0.00302244,-0.00115571,0.00248034,0.000561068,-0.00473921,0.965356,0.00336214,0.0137363,678,722,-0.0969084,0.0498021
-539,302,-0.0919189,-0.0454102,-0.00200677,-0.000980522,0.00191792,0.000491731,-0.00347903,0.916108,0.00249944,0.013185,685,722,-0.0919029,0.0454006
-532,302,-0.0971069,-0.0426636,-0.000976756,-0.00103587,0.00113545,0.000129517,-0.00214215,0.772384,0.00147317,0.0132052,692,722,-0.0971263,0.042637
-525,302,-0.0881958,-0.0449219,6.64965e-05,-0.000783521,0.000738273,0.000493356,-0.00121038,0.524226,0.00101227,0.0191973,699,722,-0.0881746,0.0449377
-518,302,-0.0917969,-0.0646362,0.00106737,-0.000809775,0.000380797,0.00114168,-0.000884082,0.192713,0.00117272,0.0189893,706,722,-0.0917798,0.0646363
-511,302,-0.0809937,-0.036377,0.00182731,-0.00106292,-0.000158969,0.00183603,-0.00107163,-0.054782,0.00169797,0.00902142,713,722,-0.0810136,0.0363628
-504,302,-0.0790405,-0.0280762,0.00218855,-0.000828097,-0.000436868,0.00225054,-0.00089009,-0.140962,0.00186909,0.00840232,720,722,-0.0790666,0.0280586
-497,302,-0.0818481,-0.0333862,0.00245348,-0.000918742,-0.000677441,0.00258448,-0.00104974,-0.191019,0.00215969,0.011957,727,722,-0.0818318,0.0333628
-490,302,-0.0709229,-0.0408325,0.00272193,-0.00189941,-0.00144791,0.00313809,-0.00231558,-0.279881,0.00316059,0.0132152,734,722,-0.0709054,0.0408167
-483,302,0.0707397,0.117676,0.0035689,-0.00335915,-0.00334919,0.00492323,-0.00471348,-0.384273,0.0055642,0.027524,741,722,0.0707433,-0.117658
-476,302,0.214905,0.354919,0.00520682,-0.00431901,-0.00518449,0.0074841,-0.00659629,-0.413876,0.0081347,0.0369697,748,722,0.214909,-0.354944
-469,302,0.323059,0.414795,0.00767637,-0.00564367,-0.00693463,0.0106312,-0.00859848,-0.402798,0.0111229,0.0397552,755,722,0.323061,-0.414777
-462,302,0.533325,0.311523,0.0102799,-0.00749103,-0.00944887,0.0143649,-0.011576,-0.408059,0.0150058,0.0409292,762,722,0.533309,-0.311516
-455,302,0.44635,-0.178101,0,0,0,0,0,0,0,-1,769,722,0.446357,0.178121
-448,302,0.52533,-0.866272,0,0,0,0,0,0,0,-1,776,722,0.525313,0.866255
-441,302,0.19165,-1.26135,0,0,0,0,0,0,0,-1,783,722,0.191625,1.26133
-434,302,-0.0696411,-0.797119,0.0307816,-0.0176628,-0.023598,0.0403763,-0.0272575,-0.386174,0.0392925,0.0483503,790,722,-0.0696279,0.797105
-427,302,0.246887,-0.612671,0.0400399,-0.0211973,-0.0280956,0.0509768,-0.0321343,-0.371227,0.0483936,0.0483623,797,722,0.2469,0.612682
-420,302,0,0,0,0,0,0,0,0,0,-1,804,722,0,0
-413,302,0,0,0,0,0,0,0,0,0,-1,811,722,0,0
-406,302,0,0,0,0,0,0,0,0,0,-1,818,722,0,0
-399,302,0,0,0,0,0,0,0,0,0,-1,825,722,0,0
-392,302,0,0,0,0,0,0,0,0,0,-1,832,722,0,0
-385,302,0,0,0,0,0,0,0,0,0,-1,839,722,0,0
-378,302,0,0,0,0,0,0,0,0,0,-1,846,722,0,0
-371,302,0,0,0,0,0,0,0,0,0,-1,853,722,0,0
-364,302,0,0,0,0,0,0,0,0,0,-1,860,722,0,0
-357,302,0,0,0,0,0,0,0,0,0,-1,867,722,0,0
-350,302,0,0,0,0,0,0,0,0,0,-1,874,722,0,0
-343,302,0,0,0,0,0,0,0,0,0,-1,881,722,0,0
-336,302,0,0,0,0,0,0,0,0,0,-1,888,722,0,0
-329,302,0,0,0,0,0,0,0,0,0,-1,895,722,0,0
-322,302,0,0,0,0,0,0,0,0,0,-1,902,722,0,0
-315,302,0,0,0,0,0,0,0,0,0,-1,909,722,0,0
-308,302,0,0,0,0,0,0,0,0,0,-1,916,722,0,0
-301,302,0,0,0,0,0,0,0,0,0,-1,923,722,0,0
-294,302,0,0,0,0,0,0,0,0,0,-1,930,722,0,0
-287,302,0,0,0,0,0,0,0,0,0,-1,937,722,0,0
-280,302,0,0,0,0,0,0,0,0,0,-1,944,722,0,0
-273,302,0,0,0,0,0,0,0,0,0,-1,951,722,0,0
-266,302,0,0,0,0,0,0,0,0,0,-1,958,722,0,0
-259,302,0,0,0,0,0,0,0,0,0,-1,965,722,0,0
-252,302,0,0,0,0,0,0,0,0,0,-1,972,722,0,0
-245,302,0,0,0,0,0,0,0,0,0,-1,979,722,0,0
-238,302,0,0,0,0,0,0,0,0,0,-1,986,722,0,0
-231,302,0,0,0,0,0,0,0,0,0,-1,993,722,0,0
-224,302,0,0,0,0,0,0,0,0,0,-1,1000,722,0,0
-217,302,0,0,0,0,0,0,0,0,0,-1,1007,722,0,0
-210,302,0,0,0,0,0,0,0,0,0,-1,1014,722,0,0
-203,302,0,0,0,0,0,0,0,0,0,-1,1021,722,0,0
-196,302,0,0,0,0,0,0,0,0,0,-1,1028,722,0,0
-189,302,0,0,0,0,0,0,0,0,0,-1,1035,722,0,0
-182,302,0,0,0,0,0,0,0,0,0,-1,1042,722,0,0
-175,302,0,0,0,0,0,0,0,0,0,-1,1049,722,0,0
-168,302,0,0,0,0,0,0,0,0,0,-1,1056,722,0,0
-161,302,0,0,0,0,0,0,0,0,0,-1,1063,722,0,0
-154,302,0,0,0,0,0,0,0,0,0,-1,1070,722,0,0
-147,302,0,0,0,0,0,0,0,0,0,-1,1077,722,0,0
-140,302,0,0,0,0,0,0,0,0,0,-1,1084,722,0,0
-133,302,0,0,0,0,0,0,0,0,0,-1,1091,722,0,0
-126,302,0,0,0,0,0,0,0,0,0,-1,1098,722,0,0
-119,302,0,0,0,0,0,0,0,0,0,-1,1105,722,0,0
-112,302,0,0,0,0,0,0,0,0,0,-1,1112,722,0,0
-105,302,0,0,0,0,0,0,0,0,0,-1,1119,722,0,0
-98,302,0,0,0,0,0,0,0,0,0,-1,1126,722,0,0
-91,302,0,0,0,0,0,0,0,0,0,-1,1133,722,0,0
-84,302,0,0,0,0,0,0,0,0,0,-1,1140,722,0,0
-77,302,0,0,0,0,0,0,0,0,0,-1,1147,722,0,0
-70,302,0,0,0,0,0,0,0,0,0,-1,1154,722,0,0
-63,302,0,0,0,0,0,0,0,0,0,-1,1161,722,0,0
-56,302,0,0,0,0,0,0,0,0,0,-1,1168,722,0,0
-49,302,0,0,0,0,0,0,0,0,0,-1,1175,722,0,0
-42,302,0,0,0,0,0,0,0,0,0,-1,1182,722,0,0
-35,302,0,0,0,0,0,0,0,0,0,-1,1189,722,0,0
-28,302,0,0,0,0,0,0,0,0,0,-1,1196,722,0,0
-21,302,0,0,0,0,0,0,0,0,0,-1,1203,722,0,0
-14,302,0,0,0,0,0,0,0,0,0,-1,1210,722,0,0
-7,302,0,0,0,0,0,0,0,0,0,-1,1217,722,0,0
0,302,0,0,0,0,0,0,0,0,0,-1,1224,722,0,0
7,302,0,0,0,0,0,0,0,0,0,-1,1231,722,0,0
14,302,0,0,0,0,0,0,0,0,0,-1,1238,722,0,0
21,302,0,0,0,0,0,0,0,0,0,-1,1245,722,0,0
28,302,0,0,0,0,0,0,0,0,0,-1,1252,722,0,0
35,302,0,0,0,0,0,0,0,0,0,-1,1259,722,0,0
42,302,0,0,0,0,0,0,0,0,0,-1,1266,722,0,0
49,302,0,0,0,0,0,0,0,0,0,-1,1273,722,0,0
56,302,0,0,0,0,0,0,0,0,0,-1,1280,722,0,0
63,302,0,0,0,0,0,0,0,0,0,-1,1287,722,0,0
70,302,0,0,0,0,0,0,0,0,0,-1,1294,722,0,0
77,302,0,0,0,0,0,0,0,0,0,-1,1301,722,0,0
84,302,0,0,0,0,0,0,0,0,0,-1,1308,722,0,0
91,302,0,0,0,0,0,0,0,0,0,-1,1315,722,0,0
98,302,0,0,0,0,0,0,0,0,0,-1,1322,722,0,0
105,302,0,0,0,0,0,0,0,0,0,-1,1329,722,0,0
112,302,0,0,0,0,0,0,0,0,0,-1,1336,722,0,0
119,302,0,0,0,0,0,0,0,0,0,-1,1343,722,0,0
126,302,0,0,0,0,0,0,0,0,0,-1,1350,722,0,0
133,302,0,0,0,0,0,0,0,0,0,-1,1357,722,0,0
140,302,0,0,0,0,0,0,0,0,0,-1,1364,722,0,0
147,302,0,0,0,0,0,0,0,0,0,-1,1371,722,0,0
154,302,0,0,0,0,0,0,0,0,0,-1,1378,722,0,0
161,302,0,0,0,0,0,0,0,0,0,-1,1385,722,0,0
168,302,0,0,0,0,0,0,0,0,0,-1,1392,722,0,0
175,302,0,0,0,0,0,0,0,0,0,-1,1399,722,0,0
182,302,0,0,0,0,0,0,0,0,0,-1,1406,722,0,0
189,302,0,0,0,0,0,0,0,0,0,-1,1413,722,0,0
196,302,0,0,0,0,0,0,0,0,0,-1,1420,722,0,0
203,302,0,0,0,0,0,0,0,0,0,-1,1427,722,0,0
210,302,0,0,0,0,0,0,0,0,0,-1,1434,722,0,0
217,302,0,0,0,0,0,0,0,0,0,-1,1441,722,0,0
224,302,0,0,0,0,0,0,0,0,0,-1,1448,722,0,0
231,302,0,0,0,0,0,0,0,0,0,-1,1455,722,0,0
238,302,0,0,0,0,0,0,0,0,0,-1,1462,722,0,0
245,302,0,0,0,0,0,0,0,0,0,-1,1469,722,0,0
252,302,0,0,0,0,0,0,0,0,0,-1,1476,722,0,0
259,302,0,0,0,0,0,0,0,0,0,-1,1483,722,0,0
266,302,0,0,0,0,0,0,0,0,0,-1,1490,722,0,0
273,302,0,0,0,0,0,0,0,0,0,-1,1497,722,0,0
280,302,0,0,0,0,0,0,0,0,0,-1,1504,722,0,0
287,302,0,0,0,0,0,0,0,0,0,-1,1511,722,0,0
294,302,0,0,0,0,0,0,0,0,0,-1,1518,722,0,0
301,302,0,0,0,0,0,0,0,0,0,-1,1525,722,0,0
308,302,0,0,0,0,0,0,0,0,0,-1,1532,722,0,0
315,302,0,0,0,0,0,0,0,0,0,-1,1539,722,0,0
322,302,0,0,0,0,0,0,0,0,0,-1,1546,722,0,0
329,302,0,0,0,0,0,0,0,0,0,-1,1553,722,0,0
336,302,0,0,0,0,0,0,0,0,0,-1,1560,722,0,0
343,302,0,0,0,0,0,0,0,0,0,-1,1567,722,0,0
350,302,0,0,0,0,0,0,0,0,0,-1,1574,722,0,0
357,302,0,0,0,0,0,0,0,0,0,-1,1581,722,0,0
364,302,0,0,0,0,0,0,0,0,0,-1,1588,722,0,0
371,302,0,0,0,0,0,0,0,0,0,-1,1595,722,0,0
378,302,0,0,0,0,0,0,0,0,0,-1,1602,722,0,0
385,302,0,0,0,0,0,0,0,0,0,-1,1609,722,0,0
392,302,0,0,0,0,0,0,0,0,0,-1,1616,722,0,0
399,302,0,0,0,0,0,0,0,0,0,-1,1623,722,0,0
406,302,0,0,0,0,0,0,0,0,0,-1,1630,722,0,0
413,302,0,0,0,0,0,0,0,0,0,-1,1637,722,0,0
420,302,0,0,0,0,0,0,0,0,0,-1,1644,722,0,0
427,302,0,0,0,0,0,0,0,0,0,-1,1651,722,0,0
434,302,0,0,0,0,0,0,0,0,0,-1,1658,722,0,0
441,302,0,0,0,0,0,0,0,0,0,-1,1665,722,0,0
448,302,0,0,0,0,0,0,0,0,0,-1,1672,722,0,0
455,302,0,0,0,0,0,0,0,0,0,-1,1679,722,0,0
462,302,0,0,0,0,0,0,0,0,0,-1,1686,722,0,0
469,302,0,0,0,0,0,0,0,0,0,-1,1693,722,0,0
476,302,0,0,0,0,0,0,0,0,0,-1,1700,722,0,0
483,302,0,0,0,0,0,0,0,0,0,-1,1707,722,0,0
490,302,0,0,0,0,0,0,0,0,0,-1,1714,722,0,0
497,302,0,0,0,0,0,0,0,0,0,-1,1721,722,0,0
504,302,0,0,0,0,0,0,0,0,0,-1,1728,722,0,0
511,302,0,0,0,0,0,0,0,0,0,-1,1735,722,0,0
518,302,0,0,0,0,0,0,0,0,0,-1,1742,722,0,0
525,302,0,0,0,0,0,0,0,0,0,-1,1749,722,0,0
532,302,0,0,0,0,0,0,0,0,0,-1,1756,722,0,0
539,302,0,0,0,0,0,0,0,0,0,-1,1763,722,0,0
546,302,-1.13159,0.857971,0.0229442,0.0127218,-0.00322819,0.0238783,0.0117877,-0.281663,0.0137865,0.0428002,1770,722,-1.13159,-0.857968
553,302,-0.593506,0.776733,0.0133917,0.0116368,0.00183419,0.0145475,0.010481,0.562303,0.0086669,0.0402386,1777,722,-0.593454,-0.776732
560,302,0.87561,0.0482178,0,0,0,0,0,0,0,-1,1784,722,0.875601,-0.0482443
567,302,0.63623,0.248413,0.00435018,0.00840794,0.00602938,0.0127406,1.7467e-05,0.947697,0.00848795,0.0469386,1791,722,0.636209,-0.248401
574,302,0.365356,0.476074,0.00269501,0.00686919,0.00656629,0.0116721,-0.0021079,0.939274,0.00857088,0.0449312,1798,722,0.365327,-0.476045
581,302,-0.521973,0.90033,0.00179183,0.00526207,0.00625694,0.01002,-0.00296612,0.920655,0.0078576,0.0449884,1805,722,-0.52194,-0.900352
588,302,-0.701172,1.12201,0.00047152,0.00390422,0.00555187,0.00799899,-0.00362324,0.935313,0.0068668,0.0490375,1812,722,-0.701115,-1.122
595,302,-0.495728,0.448669,0,0,0,0,0,0,0,-1,1819,722,-0.495689,-0.448689
602,302,-0.199829,0.25885,0.00012245,0.00189164,0.00382731,0.00493525,-0.00292117,0.898967,0.00458532,0.0428166,1826,722,-0.19987,-0.25887
609,302,-0.109009,-0.0507202,0.000850188,0.00132017,0.00280251,0.00389752,-0.00172717,0.827225,0.00332703,0.0388022,1833,722,-0.109067,0.050694
616,302,-0.0939941,-0.0584717,0.00111067,0.000578583,0.00212732,0.00298852,-0.00129927,0.723191,0.00253879,0.0306974,1840,722,-0.0939984,0.058456
623,302,-0.0740967,-0.0540161,0.000802633,0.000369444,0.000901333,0.00151303,-0.000340954,0.667482,0.00113947,0.0121701,1847,722,-0.0741566,0.054001
630,302,-0.0837402,-0.0396729,0.000570304,-0.000254636,8.526e-05,0.000579024,-0.000263355,0.101918,0.0004976,0.00921126,1854,722,-0.0837855,0.039646
637,302,-0.107056,-0.0360718,0.000105284,0.000375007,-5.70558e-05,0.00038658,9.37117e-05,-1.37068,0.000232855,0.0113516,1861,722,-0.107063,0.0360641
644,302,-0.0926514,-0.0317993,-0.000470021,0.000790353,0.000201625,0.000821821,-0.00050149,1.41597,0.00077144,0.0137115,1868,722,-0.0926358,0.031818
651,302,-0.0596924,-0.0454102,-0.000978338,0.000934386,0.000517758,0.00106554,-0.0011095,1.32269,0.00125585,0.0137495,1875,722,-0.0597419,0.0453902
658,302,-0.0651855,-0.0817261,-0.000912729,0.0010872,0.001382,0.00179307,-0.00161859,1.09858,0.00197058,0.0135308,1882,722,-0.0652107,0.0817528
665,302,-0.0753174,-0.0594482,-0.00104742,0.00148797,0.0019882,0.00257824,-0.00213769,1.06921,0.0027267,0.0123651,1889,722,-0.0753555,0.0594697
672,302,-0.0806885,-0.0537109,-0.00138978,0.00213692,0.00238217,0.00333737,-0.00259024,1.10401,0.00343136,0.0101594,1896,722,-0.0806705,0.0536975
679,302,-0.0861816,-0.0170898,-0.00165323,0.003296,0.0027452,0.0045173,-0.00287454,1.1522,0.00430267,0.00823326,1903,722,-0.0862088,0.0170984
686,302,-0.0803223,-0.0267334,-0.00181908,0.00443113,0.00298687,0.00562895,-0.0030169,1.1894,0.00506705,0.0109629,1910,722,-0.0803598,0.0267533
693,302,-0.0743408,-0.0254517,-0.00218988,0.00594683,0.00344132,0.0072071,-0.00345015,1.21975,0.00627911,0.0214214,1917,722,-0.0743911,0.0254362
700,302,-0.0305176,0.28595,-0.00248856,0.00763759,0.00373784,0.00886785,-0.00371883,1.25283,0.00746686,0.0406622,1924,722,-0.0304779,-0.285956
707,302,0.0422363,0.529236,-0.00246025,0.00956703,0.00363854,0.0105821,-0.00347533,1.29873,0.00845472,0.0443067,1931,722,0.0422575,-0.529254
714,302,-0.891968,1.39893,0,0,0,0,0,0,0,-1,1938,722,-0.891972,-1.39892
721,302,-0.910522,1.17432,0,0,0,0,0,0,0,-1,1945,722,-0.9105,-1.17431
728,302,-0.578491,0.925415,0,0,0,0,0,0,0,-1,1952,722,-0.578548,-0.925404
735,302,0,0,0,0,0,0,0,0,0,-1,1959,722,0,0
742,302,0,0,0,0,0,0,0,0,0,-1,1966,722,0,0
749,302,0,0,0,0,0,0,0,0,0,-1,1973,722,0,0
756,302,0,0,0,0,0,0,0,0,0,-1,1980,722,0,0
763,302,0,0,0,0,0,0,0,0,0,-1,1987,722,0,0
770,302,0,0,0,0,0,0,0,0,0,-1,1994,722,0,0
777,302,0,0,0,0,0,0,0,0,0,-1,2001,722,0,0
784,302,0,0,0,0,0,0,0,0,0,-1,2008,722,0,0
791,302,0,0,0,0,0,0,0,0,0,-1,2015,722,0,0
798,302,0,0,0,0,0,0,0,0,0,-1,2022,722,0,0
805,302,0,0,0,0,0,0,0,0,0,-1,2029,722,0,0
812,302,0,0,0,0,0,0,0,0,0,-1,2036,722,0,0
-700,295,0,0,0,0,0,0,0,0,0,-1,524,729,0,0
-693,295,0,0,0,0,0,0,0,0,0,-1,531,729,0,0
-686,295,0,0,0,0,0,0,0,0,0,-1,538,729,0,0
-679,295,0,0,0,0,0,0,0,0,0,-1,545,729,0,0
-672,295,0,0,0,0,0,0,0,0,0,-1,552,729,0,0
-665,295,0,0,0,0,0,0,0,0,0,-1,559,729,0,0
-658,295,0,0,0,0,0,0,0,0,0,-1,566,729,0,0
-651,295,0,0,0,0,0,0,0,0,0,-1,573,729,0,0
-644,295,0,0,0,0,0,0,0,0,0,-1,580,729,0,0
-637,295,0,0,0,0,0,0,0,0,0,-1,587,729,0,0
-630,295,0,0,0,0,0,0,0,0,0,-1,594,729,0,0
-623,295,0,0,0,0,0,0,0,0,0,-1,601,729,0,0
-616,295,-0.683838,0.669067,0,0,0,0,0,0,0,-1,608,729,-0.683836,-0.669075
-609,295,-0.401978,0.309631,-0.00401662,0.0179279,-0.0089402,0.021109,-0.00719773,-1.22895,0.016988,0.0435117,615,729,-0.402,-0.30964
-602,295,-0.312744,-0.161926,-0.00429876,0.0125279,-0.00483568,0.0138186,-0.00558944,-1.30997,0.0115361,0.0443102,622,729,-0.312742,0.161906
-595,295,-0.302979,-0.347717,-0.0045692,0.00875424,-0.00210525,0.00907898,-0.00489394,-1.41775,0.00818699,0.0486614,629,729,-0.302985,0.347702
-588,295,-0.300293,-0.248596,-0.00470591,0.00606199,-0.000358549,0.00607391,-0.00471783,-1.53755,0.00624699,0.0456249,636,729,-0.300274,0.248589
-581,295,-0.352051,-0.185669,-0.00453048,0.00427997,0.000658062,0.00432885,-0.00457936,1.49665,0.00514383,0.0448779,643,729,-0.352038,0.185682
-574,295,-0.24884,-0.0601196,-0.00413504,0.00247794,0.001375,0.00275244,-0.00440954,1.37375,0.0041717,0.0426297,650,729,-0.248852,0.06011
-567,295,-0.196167,-0.0680542,-0.00349965,0.0011997,0.00188369,0.00186154,-0.00416149,1.23291,0.00356091,0.0349405,657,729,-0.196159,0.0680676
-560,295,-0.0668335,-0.0366821,-0.00361085,0.000520294,0.00172289,0.00114451,-0.00423506,1.2232,0.00327229,0.0159643,664,729,-0.0668117,0.0367009
-553,295,-0.0819092,-0.0355835,-0.00305372,0.000483918,0.00150282,0.00103613,-0.00360593,1.21866,0.00281366,0.0152281,671,729,-0.0819148,0.0355817
-546,295,-0.10791,-0.0608521,-0.00199029,0.000280999,0.00144526,0.000983417,-0.00269271,1.1184,0.00219756,0.019584,678,729,-0.107891,0.0608467
-539,295,-0.102661,-0.0328979,-0.00128457,7.34216e-05,0.00122595,0.000795852,-0.002007,1.0383,0.00166783,0.0168978,685,729,-0.102637,0.03289
-532,295,-0.0911255,-0.0460815,-0.00051757,-0.000192781,0.000765702,0.000427558,-0.00113791,0.889893,0.000934324,0.0143654,692,729,-0.0911218,0.0460556
-525,295,-0.0709839,-0.0430298,0.000260731,-0.000214658,0.000600176,0.000668567,-0.000622494,0.596853,0.000745553,0.0143743,699,729,-0.0710085,0.0430088
-518,295,-0.072876,-0.0450439,0.000992908,-0.000309556,0.000388954,0.00110022,-0.000416868,0.269201,0.000905025,0.0105731,706,729,-0.072863,0.0450275
-511,295,-0.0855713,-0.0374756,0.00153229,-0.000562542,-5.73748e-05,0.00153386,-0.000564112,-0.0273614,0.00125365,0.0082272,713,729,-0.0855842,0.0374711
-504,295,-0.086792,-0.0401611,0.00180299,-0.000250165,-0.000300069,0.00184595,-0.000293121,-0.142189,0.00133908,0.00947475,720,729,-0.0867638,0.0401622
-497,295,-0.0873413,-0.0373535,0.00203519,-0.000140747,-0.000509434,0.00214855,-0.000254111,-0.218961,0.00152415,0.0125315,727,729,-0.0873294,0.0373654
-490,295,-0.0393677,-0.0341187,0.00227924,-0.00114535,-0.00137423,0.0027625,-0.00162861,-0.338153,0.00256323,0.0216813,734,729,-0.0393826,0.0341217
-483,295,0.256287,0.213867,0.00307249,-0.00276166,-0.0034368,0.00466329,-0.00435246,-0.433507,0.00520628,0.0387625,741,729,0.25626,-0.213877
-476,295,0.336487,0.414246,0.00491169,-0.00399128,-0.0055319,0.00756074,-0.00664033,-0.4466,0.00820473,0.0388444,748,729,0.336484,-0.414255
-469,295,0.544678,0.411255,0.00776322,-0.00578779,-0.00758204,0.011156,-0.00918061,-0.420757,0.0117598,0.0422254,755,729,0.544674,-0.411233
-462,295,0.835144,0.510193,0.0107829,-0.00831482,-0.0105407,0.0154568,-0.0129887,-0.417365,0.0164436,0.0470153,762,729,0.83515,-0.51021
-455,295,1.01038,0.570496,0.0150041,-0.0114619,-0.0141471,0.0211426,-0.0176003,-0.409387,0.0223994,0.0475716,769,729,1.01039,-0.570485
-448,295,1.20685,0.0935059,0,0,0,0,0,0,0,-1,776,729,1.20683,-0.0935039
-441,295,1.09875,-0.322571,0.0282642,-0.0198743,-0.0229823,0.0374744,-0.0290844,-0.381151,0.0385294,0.0461487,783,729,1.09879,0.322592
-434,295,1.09314,-0.371826,0.0384821,-0.0251005,-0.0280676,0.0490993,-0.0357177,-0.361635,0.0491718,0.0490554,790,729,1.09313,0.371854
-427,295,0,0,0,0,0,0,0,0,0,-1,797,729,0,0
-420,295,0,0,0,0,0,0,0,0,0,-1,804,729,0,0
-413,295,0,0,0,0,0,0,0,0,0,-1,811,729,0,0
-406,295,0,0,0,0,0,0,0,0,0,-1,818,729,0,0
-399,295,0,0,0,0,0,0,0,0,0,-1,825,729,0,0
-392,295,0,0,0,0,0,0,0,0,0,-1,832,729,0,0
-385,295,0,0,0,0,0,0,0,0,0,-1,839,729,0,0
-378,295,0,0,0,0,0,0,0,0,0,-1,846,729,0,0
-371,295,0,0,0,0,0,0,0,0,0,-1,853,729,0,0
-364,295,0,0,0,0,0,0,0,0,0,-1,860,729,0,0
-357,295,0,0,0,0,0,0,0,0,0,-1,867,729,0,0
-350,295,0,0,0,0,0,0,0,0,0,-1,874,729,0,0
-343,295,0,0,0,0,0,0,0,0,0,-1,881,729,0,0
-336,295,0,0,0,0,0,0,0,0,0,-1,888,729,0,0
-329,295,0,0,0,0,0,0,0,0,0,-1,895,729,0,0
-322,295,0,0,0,0,0,0,0,0,0,-1,902,729,0,0
-315,295,0,0,0,0,0,0,0,0,0,-1,909,729,0,0
-308,295,0,0,0,0,0,0,0,0,0,-1,916,729,0,0
-301,295,0,0,0,0,0,0,0,0,0,-1,923,729,0,0
-294,295,0,0,0,0,0,0,0,0,0,-1,930,729,0,0
-287,295,0,0,0,0,0,0,0,0,0,-1,937,729,0,0
-280,295,0,0,0,0,0,0,0,0,0,-1,944,729,0,0
-273,295,0,0,0,0,0,0,0,0,0,-1,951,729,0,0
-266,295,0,0,0,0,0,0,0,0,0,-1,958,729,0,0
-259,295,0,0,0,0,0,0,0,0,0,-1,965,729,0,0
-252,295,0,0,0,0,0,0,0,0,0,-1,972,729,0,0
-245,295,0,0,0,0,0,0,0,0,0,-1,979,729,0,0
-238,295,0,0,0,0,0,0,0,0,0,-1,986,729,0,0
-231,295,0,0,0,0,0,0,0,0,0,-1,993,729,0,0
-224,295,0,0,0,0,0,0,0,0,0,-1,1000,729,0,0
-217,295,0,0,0,0,0,0,0,0,0,-1,1007,729,0,0
-210,295,0,0,0,0,0,0,0,0,0,-1,1014,729,0,0
-203,295,0,0,0,0,0,0,0,0,0,-1,1021,729,0,0
-196,295,0,0,0,0,0,0,0,0,0,-1,1028,729,0,0
-189,295,0,0,0,0,0,0,0,0,0,-1,1035,729,0,0
-182,295,0,0,0,0,0,0,0,0,0,-1,1042,729,0,0
-175,295,0,0,0,0,0,0,0,0,0,-1,1049,729,0,0
-168,295,0,0,0,0,0,0,0,0,0,-1,1056,729,0,0
-161,295,0,0,0,0,0,0,0,0,0,-1,1063,729,0,0
-154,295,0,0,0,0,0,0,0,0,0,-1,1070,729,0,0
-147,295,0,0,0,0,0,0,0,0,0,-1,1077,729,0,0
-140,295,0,0,0,0,0,0,0,0,0,-1,1084,729,0,0
-133,295,0,0,0,0,0,0,0,0,0,-1,1091,729,0,0
-126,295,0,0,0,0,0,0,0,0,0,-1,1098,729,0,0
-119,295,0,0,0,0,0,0,0,0,0,-1,1105,729,0,0
-112,295,0,0,0,0,0,0,0,0,0,-1,1112,729,0,0
-105,295,0,0,0,0,0,0,0,0,0,-1,1119,729,0,0
-98,295,0,0,0,0,0,0,0,0,0,-1,1126,729,0,0
-91,295,0,0,0,0,0,0,0,0,0,-1,1133,729,0,0
-84,295,0,0,0,0,0,0,0,0,0,-1,1140,729,0,0
-77,295,0,0,0,0,0,0,0,0,0,-1,1147,729,0,0
-70,295,0,0,0,0,0,0,0,0,0,-1,1154,729,0,0
-63,295,0,0,0,0,0,0,0,0,0,-1,1161,729,0,0
-56,295,0,0,0,0,0,0,0,0,0,-1,1168,729,0,0
-49,295,0,0,0,0,0,0,0,0,0,-1,1175,729,0,0
-42,295,0,0,0,0,0,0,0,0,0,-1,1182,729,0,0
-35,295,0,0,0,0,0,0,0,0,0,-1,1189,729,0,0
-28,295,0,0,0,0,0,0,0,0,0,-1,1196,729,0,0
-21,295,0,0,0,0,0,0,0,0,0,-1,1203,729,0,0
-14,295,0,0,0,0,0,0,0,0,0,-1,1210,729,0,0
-7,295,0,0,0,0,0,0,0,0,0,-1,1217,729,0,0
0,295,0,0,0,0,0,0,0,0,0,-1,1224,729,0,0
7,295,0,0,0,0,0,0,0,0,0,-1,1231,729,0,0
14,295,0,0,0,0,0,0,0,0,0,-1,1238,729,0,0
21,295,0,0,0,0,0,0,0,0,0,-1,1245,729,0,0
28,295,0,0,0,0,0,0,0,0,0,-1,1252,729,0,0
35,295,0,0,0,0,0,0,0,0,0,-1,1259,729,0,0
42,295,0,0,0,0,0,0,0,0,0,-1,1266,729,0,0
49,295,0,0,0,0,0,0,0,0,0,-1,1273,729,0,0
56,295,0,0,0,0,0,0,0,0,0,-1,1280,729,0,0
63,295,0,0,0,0,0,0,0,0,0,-1,1287,729,0,0
70,295,0,0,0,0,0,0,0,0,0,-1,1294,729,0,0
77,295,0,0,0,0,0,0,0,0,0,-1,1301,729,0,0
84,295,0,0,0,0,0,0,0,0,0,-1,1308,729,0,0
91,295,0,0,0,0,0,0,0,0,0,-1,1315,729,0,0
98,295,0,0,0,0,0,0,0,0,0,-1,1322,729,0,0
105,295,0,0,0,0,0,0,0,0,0,-1,1329,729,0,0
112,295,0,0,0,0,0,0,0,0,0,-1,1336,729,0,0
119,295,0,0,0,0,0,0,0,0,0,-1,1343,729,0,0
126,295,0,0,0,0,0,0,0,0,0,-1,1350,729,0,0
133,295,0,0,0,0,0,0,0,0,0,-1,1357,729,0,0
140,295,0,0,0,0,0,0,0,0,0,-1,1364,729,0,0
147,295,0,0,0,0,0,0,0,0,0,-1,1371,729,0,0
154,295,0,0,0,0,0,0,0,0,0,-1,1378,729,0,0
161,295,0,0,0,0,0,0,0,0,0,-1,1385,729,0,0
168,295,0,0,0,0,0,0,0,0,0,-1,1392,729,0,0
175,295,0,0,0,0,0,0,0,0,0,-1,1399,729,0,0
182,295,0,0,0,0,0,0,0,0,0,-1,1406,729,0,0
189,295,0,0,0,0,0,0,0,0,0,-1,1413,729,0,0
196,295,0,0,0,0,0,0,0,0,0,-1,1420,729,0,0
203,295,0,0,0,0,0,0,0,0,0,-1,1427,729,0,0
210,295,0,0,0,0,0,0,0,0,0,-1,1434,729,0,0
217,295,0,0,0,0,0,0,0,0,0,-1,1441,729,0,0
224,295,0,0,0,0,0,0,0,0,0,-1,1448,729,0,0
231,295,0,0,0,0,0,0,0,0,0,-1,1455,729,0,0
238,295,0,0,0,0,0,0,0,0,0,-1,1462,729,0,0
245,295,0,0,0,0,0,0,0,0,0,-1,1469,729,0,0
252,295,0,0,0,0,0,0,0,0,0,-1,1476,729,0,0
259,295,0,0,0,0,0,0,0,0,0,-1,1483,729,0,0
266,295,0,0,0,0,0,0,0,0,0,-1,1490,729,0,0
273,295,0,0,0,0,0,0,0,0,0,-1,1497,729,0,0
280,295,0,0,0,0,0,0,0,0,0,-1,1504,729,0,0
287,295,0,0,0,0,0,0,0,0,0,-1,1511,729,0,0
294,295,0,0,0,0,0,0,0,0,0,-1,1518,729,0,0
301,295,0,0,0,0,0,0,0,0,0,-1,1525,729,0,0
308,295,0,0,0,0,0,0,0,0,0,-1,1532,729,0,0
315,295,0,0,0,0,0,0,0,0,0,-1,1539,729,0,0
322,295,0,0,0,0,0,0,0,0,0,-1,1546,729,0,0
329,295,0,0,0,0,0,0,0,0,0,-1,1553,729,0,0
336,295,0,0,0,0,0,0,0,0,0,-1,1560,729,0,0
343,295,0,0,0,0,0,0,0,0,0,-1,1567,729,0,0
350,295,0,0,0,0,0,0,0,0,0,-1,1574,729,0,0
357,295,0,0,0,0,0,0,0,0,0,-1,1581,729,0,0
364,295,0,0,0,0,0,0,0,0,0,-1,1588,729,0,0
371,295,0,0,0,0,0,0,0,0,0,-1,1595,729,0,0
378,295,0,0,0,0,0,0,0,0,0,-1,1602,729,0,0
385,295,0,0,0,0,0,0,0,0,0,-1,1609,729,0,0
392,295,0,0,0,0,0,0,0,0,0,-1,1616,729,0,0
399,295,0,0,0,0,0,0,0,0,0,-1,1623,729,0,0
406,295,0,0,0,0,0,0,0,0,0,-1,1630,729,0,0
413,295,0,0,0,0,0,0,0,0,0,-1,1637,729,0,0
420,295,0,0,0,0,0,0,0,0,0,-1,1644,729,0,0
427,295,0,0,0,0,0,0,0,0,0,-1,1651,729,0,0
434,295,0,0,0,0,0,0,0,0,0,-1,1658,729,0,0
441,295,0,0,0,0,0,0,0,0,0,-1,1665,729,0,0
448,295,0,0,0,0,0,0,0,0,0,-1,1672,729,0,0
455,295,0,0,0,0,0,0,0,0,0,-1,1679,729,0,0
462,295,0,0,0,0,0,0,0,0,0,-1,1686,729,0,0
469,295,0,0,0,0,0,0,0,0,0,-1,1693,729,0,0
476,295,0,0,0,0,0,0,0,0,0,-1,1700,729,0,0
483,295,0,0,0,0,0,0,0,0,0,-1,1707,729,0,0
490,295,0,0,0,0,0,0,0,0,0,-1,1714,729,0,0
497,295,0,0,0,0,0,0,0,0,0,-1,1721,729,0,0
504,295,0,0,0,0,0,0,0,0,0,-1,1728,729,0,0
511,295,0,0,0,0,0,0,0,0,0,-1,1735,729,0,0
518,295,0,0,0,0,0,0,0,0,0,-1,1742,729,0,0
525,295,0,0,0,0,0,0,0,0,0,-1,1749,729,0,0
532,295,0,0,0,0,0,0,0,0,0,-1,1756,729,0,0
539,295,0,0,0,0,0,0,0,0,0,-1,1763,729,0,0
546,295,-0.360107,0.34137,0.0285634,0.0141089,-0.00605573,0.0307651,0.0119072,-0.348715,0.0179127,0.0382418,1770,729,-0.360147,-0.34136
553,295,0.201782,0.233093,0.0174111,0.0120382,0.00042505,0.0174445,0.0120048,0.0784606,0.0103066,0.0397353,1777,729,0.201781,-0.233106
560,295,0.42981,0.216187,0.0108507,0.00983219,0.00378417,0.0141597,0.00652316,0.718513,0.00818354,0.0427667,1784,729,0.429851,-0.216201
567,295,0.480225,-0.0392456,0.00711653,0.00772324,0.00539915,0.0128276,0.00201222,0.813461,0.00796613,0.045117,1791,729,0.480255,0.0392645
574,295,0.538452,0.0270386,0.00512084,0.00598192,0.00593499,0.011502,-0.000399209,0.821606,0.00780445,0.0491976,1798,729,0.538511,-0.027037
581,295,-0.75769,1.20026,0,0,0,0,0,0,0,-1,1805,729,-0.757671,-1.20029
588,295,-0.867554,1.35657,0,0,0,0,0,0,0,-1,1812,729,-0.867613,-1.35654
595,295,-0.129517,0.468018,0,0,0,0,0,0,0,-1,1819,729,-0.12949,-0.468042
602,295,-0.00830078,0.121216,0.00124604,0.00074204,0.00361123,0.00461405,-0.00262597,0.750564,0.00423223,0.0412144,1826,729,-0.00832334,-0.121232
609,295,-0.327759,-0.00378418,0.00149202,0.000178616,0.00274714,0.00365986,-0.00198922,0.668075,0.0033087,0.0393956,1833,729,-0.327798,0.00376216
616,295,-0.0919189,-0.0634155,0.00136975,-0.000501982,0.00220335,0.00282775,-0.00195998,0.58457,0.00277929,0.0387006,1840,729,-0.0919601,0.0634179
623,295,-0.10437,-0.0497437,0.000841313,-0.000562754,0.00119099,0.00152178,-0.00124322,0.519084,0.00159907,0.0216671,1847,729,-0.104389,0.0497631
630,295,-0.0953369,-0.03302,0.000437165,-0.00115356,0.000559346,0.000614155,-0.00133055,0.306455,0.00114789,0.0106511,1854,729,-0.0952913,0.0330274
637,295,-0.0811768,-0.0389404,-0.000127811,-0.000492472,0.000398027,0.00012766,-0.000747943,0.570619,0.000546178,0.0116285,1861,729,-0.0812347,0.0389564
644,295,-0.074585,-0.0267944,-0.000797128,1.36533e-05,0.000564673,0.000303386,-0.00108686,1.09672,0.000844077,0.0115254,1868,729,-0.0745253,0.026775
651,295,-0.0742188,-0.0221558,-0.00127294,0.000258299,0.000757261,0.000569535,-0.00158417,1.18084,0.00128862,0.0116566,1875,729,-0.0742381,0.0221593
658,295,-0.0955811,-0.0383301,-0.00105544,0.000485079,0.00153675,0.0014338,-0.00200416,1.01771,0.00199399,0.0103599,1882,729,-0.0955651,0.038339
665,295,-0.0906982,-0.0645752,-0.00104694,0.000972757,0.00202248,0.00222349,-0.00229767,1.01695,0.00261041,0.00956747,1889,729,-0.0907428,0.0645794
672,295,-0.0866699,-0.0664673,-0.0012565,0.00166421,0.00222104,0.00286199,-0.00245428,1.07622,0.00307235,0.00953438,1896,729,-0.0867089,0.0664879
679,295,-0.0926514,-0.0424194,-0.00137091,0.00275341,0.00236772,0.00383109,-0.00244859,1.14366,0.00365475,0.0067747,1903,729,-0.0926437,0.0424011
686,295,-0.0858154,-0.0440674,-0.00141297,0.00367518,0.00239245,0.0046234,-0.00236119,1.19345,0.00410246,0.00744845,1910,729,-0.085858,0.0440469
693,295,-0.0751953,-0.0335693,-0.0017827,0.00476022,0.00267479,0.00571451,-0.00273699,1.2281,0.00497939,0.0142863,1917,729,-0.0752259,0.033565
700,295,-0.0651855,0.0152588,-0.00221448,0.00576112,0.00287051,0.00668682,-0.00314017,1.25884,0.00579547,0.0286007,1924,729,-0.0651291,-0.015245
707,295,-0.0928955,0.146606,-0.0025022,0.00683378,0.00280716,0.00761284,-0.00328125,1.30009,0.0064533,0.0378188,1931,729,-0.092927,-0.146619
714,295,-0.0587158,0.335266,-0.00258244,0.00773071,0.00237418,0.00825102,-0.00310275,1.35505,0.00677601,0.0399,1938,729,-0.0587506,-0.33525
721,295,-0.735229,0.955444,0,0,0,0,0,0,0,-1,1945,729,-0.735193,-0.955414
728,295,-0.325317,0.383728,0,0,0,0,0,0,0,-1,1952,729,-0.325281,-0.383754
735,295,0,0,0,0,0,0,0,0,0,-1,1959,729,0,0
742,295,0,0,0,0,0,0,0,0,0,-1,1966,729,0,0
749,295,0,0,0,0,0,0,0,0,0,-1,1973,729,0,0
756,295,0,0,0,0,0,0,0,0,0,-1,1980,729,0,0
763,295,0,0,0,0,0,0,0,0,0,-1,1987,729,0,0
770,295,0,0,0,0,0,0,0,0,0,-1,1994,729,0,0
777,295,0,0,0,0,0,0,0,0,0,-1,2001,729,0,0
784,295,0,0,0,0,0,0,0,0,0,-1,2008,729,0,0
791,295,0,0,0,0,0,0,0,0,0,-1,2015,729,0,0
798,295,0,0,0,0,0,0,0,0,0,-1,2022,729,0,0
805,295,0,0,0,0,0,0,0,0,0,-1,2029,729,0,0
812,295,0,0,0,0,0,0,0,0,0,-1,2036,729,0,0
-700,288,0,0,0,0,0,0,0,0,0,-1,524,736,0,0
-693,288,0,0,0,0,0,0,0,0,0,-1,531,736,0,0
-686,288,0,0,0,0,0,0,0,0,0,-1,538,736,0,0
-679,288,0,0,0,0,0,0,0,0,0,-1,545,736,0,0
-672,288,0,0,0,0,0,0,0,0,0,-1,552,736,0,0
-665,288,0,0,0,0,0,0,0,0,0,-1,559,736,0,0
-658,288,0,0,0,0,0,0,0,0,0,-1,566,736,0,0
-651,288,0,0,0,0,0,0,0,0,0,-1,573,736,0,0
-644,288,0,0,0,0,0,0,0,0,0,-1,580,736,0,0
-637,288,0,0,0,0,0,0,0,0,0,-1,587,736,0,0
-630,288,0,0,0,0,0,0,0,0,0,-1,594,736,0,0
-623,288,0,0,0,0,0,0,0,0,0,-1,601,736,0,0
-616,288,0.165527,0.192139,-0.000873446,0.0287383,-0.0153112,0.0352314,-0.00736659,-1.16971,0.0262895,0.0468046,608,736,0.165552,-0.192168
-609,288,-0.0122681,-0.208679,-0.000855918,0.0204458,-0.0102874,0.0246028,-0.00501286,-1.18678,0.0183031,0.0482906,615,736,-0.0122678,0.20867
-602,288,-0.176086,-0.300415,-0.00127025,0.0145184,-0.0066164,0.0169245,-0.00367627,-1.22202,0.0126872,0.0480493,622,736,-0.176078,0.300412
-595,288,-0.455261,-0.418396,-0.00180466,0.0103063,-0.00399739,0.0115067,-0.00300508,-1.27907,0.00884467,0.0497137,629,736,-0.45527,0.418422
-588,288,-0.450562,-0.354126,-0.0022423,0.00726786,-0.00217363,0.00774111,-0.00271555,-1.35642,0.00626526,0.046953,636,736,-0.450579,0.354135
-581,288,-0.331848,-0.262329,-0.00229118,0.00503129,-0.00104555,0.00517766,-0.00243754,-1.43171,0.00449051,0.0426521,643,736,-0.331823,0.262314
-574,288,-0.175964,-0.122131,-0.00223733,0.00300968,-4.01004e-05,0.00300999,-0.00223764,-1.56315,0.00304064,0.0294629,650,736,-0.175982,0.122137
-567,288,-0.0634766,-0.0489502,-0.00194817,0.00157768,0.00076332,0.00173583,-0.00210633,1.36649,0.00222171,0.0160625,657,736,-0.0635002,0.0489563
-560,288,-0.0674438,-0.0367432,-0.00254341,0.000794336,0.000821995,0.000985789,-0.00273486,1.34196,0.00222583,0.0100482,664,736,-0.067428,0.0367173
-553,288,-0.0645142,-0.046936,-0.00229287,0.000754304,0.000766536,0.000936265,-0.00247483,1.33773,0.00203508,0.016978,671,736,-0.0645409,0.0469069
-546,288,-0.0812988,-0.0447388,-0.00139555,0.000521601,0.000935471,0.000902418,-0.00177637,1.1842,0.00157379,0.018196,678,736,-0.0812723,0.0447423
-539,288,-0.0828247,-0.0352173,-0.000947895,0.00027924,0.000885519,0.000742988,-0.00141164,1.08837,0.00126379,0.0149091,685,736,-0.0827945,0.0352123
-532,288,-0.0651245,-0.052002,-0.000412525,0.000119014,0.000617307,0.000525332,-0.000818842,0.988671,0.000782202,0.0114866,692,736,-0.0651093,0.0519715
-525,288,-0.0508423,-0.0384521,0.000121737,0.00015678,0.000555351,0.000694886,-0.000416369,0.801168,0.000648266,0.0114264,699,736,-0.0508293,0.0384544
-518,288,-0.0705566,-0.038208,0.000607287,0.000240496,0.000420716,0.000882842,-3.50592e-05,0.57986,0.000600589,0.0113012,706,736,-0.0705265,0.0382323
-511,288,-0.0837402,-0.0472412,0.000940593,0.000204217,5.86827e-05,0.00094524,0.000199569,0.0790266,0.000575293,0.00803265,713,736,-0.0837129,0.0472374
-504,288,-0.0916138,-0.053894,0.00110313,0.000666937,-0.000121584,0.00113473,0.000635336,-0.254285,0.0006567,0.00913458,720,736,-0.0916022,0.0538979
-497,288,-0.0789185,-0.0500488,0.00125031,0.00103633,-0.000254546,0.00141943,0.000867202,-0.586453,0.000826209,0.01624,727,736,-0.0789423,0.0500455
-490,288,-0.0117798,0.0209351,0.00141061,0.000156557,-0.00111739,0.00206489,-0.000497715,-0.529715,0.00156903,0.0367975,734,736,-0.0117603,-0.0209634
-483,288,0.345886,0.19342,0.00209749,-0.00144189,-0.00318627,0.00397254,-0.00331693,-0.531904,0.00421425,0.0417006,741,736,0.345862,-0.193406
-476,288,0.509216,0.445923,0.00381653,-0.00276681,-0.00536394,0.00681826,-0.00576854,-0.510194,0.00727541,0.0404398,748,736,0.509212,-0.445905
-469,288,0.778503,0.462219,0.00655334,-0.00483138,-0.00753755,0.0103065,-0.00858453,-0.461988,0.0109218,0.0466349,755,736,0.778474,-0.462204
-462,288,1.36652,0.80658,0,0,0,0,0,0,0,-1,762,736,1.36651,-0.806562
-455,288,1.6073,1.31415,0,0,0,0,0,0,0,-1,769,736,1.60729,-1.31414
-448,288,1.84827,1.02374,0,0,0,0,0,0,0,-1,776,736,1.84824,-1.02373
-441,288,1.95679,0.675049,0.0298523,-0.0237442,-0.0254746,0.0400284,-0.0339203,-0.380041,0.0427428,0.0440951,783,736,1.95681,-0.675045
-434,288,1.97357,0.555969,0.0428169,-0.0311969,-0.0318188,0.0546152,-0.0429952,-0.35508,0.0564883,0.0454687,790,736,1.97356,-0.555973
-427,288,0,0,0,0,0,0,0,0,0,-1,797,736,0,0
-420,288,0,0,0,0,0,0,0,0,0,-1,804,736,0,0
-413,288,0,0,0,0,0,0,0,0,0,-1,811,736,0,0
-406,288,0,0,0,0,0,0,0,0,0,-1,818,736,0,0
-399,288,0,0,0,0,0,0,0,0,0,-1,825,736,0,0
-392,288,0,0,0,0,0,0,0,0,0,-1,832,736,0,0
-385,288,0,0,0,0,0,0,0,0,0,-1,839,736,0,0
-378,288,0,0,0,0,0,0,0,0,0,-1,846,736,0,0
-371,288,0,0,0,0,0,0,0,0,0,-1,853,736,0,0
-364,288,0,0,0,0,0,0,0,0,0,-1,860,736,0,0
-357,288,0,0,0,0,0,0,0,0,0,-1,867,736,0,0
-350,288,0,0,0,0,0,0,0,0,0,-1,874,736,0,0
-343,288,0,0,0,0,0,0,0,0,0,-1,881,736,0,0
-336,288,0,0,0,0,0,0,0,0,0,-1,888,736,0,0
-329,288,0,0,0,0,0,0,0,0,0,-1,895,736,0,0
-322,288,0,0,0,0,0,0,0,0,0,-1,902,736,0,0
-315,288,0,0,0,0,0,0,0,0,0,-1,909,736,0,0
-308,288,0,0,0,0,0,0,0,0,0,-1,916,736,0,0
-301,288,0,0,0,0,0,0,0,0,0,-1,923,736,0,0
-294,288,0,0,0,0,0,0,0,0,0,-1,930,736,0,0
-287,288,0,0,0,0,0,0,0,0,0,-1,937,736,0,0
-280,288,0,0,0,0,0,0,0,0,0,-1,944,736,0,0
-273,288,0,0,0,0,0,0,0,0,0,-1,951,736,0,0
-266,288,0,0,0,0,0,0,0,0,0,-1,958,736,0,0
-259,288,0,0,0,0,0,0,0,0,0,-1,965,736,0,0
-252,288,0,0,0,0,0,0,0,0,0,-1,972,736,0,0
-245,288,0,0,0,0,0,0,0,0,0,-1,979,736,0,0
-238,288,0,0,0,0,0,0,0,0,0,-1,986,736,0,0
-231,288,0,0,0,0,0,0,0,0,0,-1,993,736,0,0
-224,288,0,0,0,0,0,0,0,0,0,-1,1000,736,0,0
-217,288,0,0,0,0,0,0,0,0,0,-1,1007,736,0,0
-210,288,0,0,0,0,0,0,0,0,0,-1,1014,736,0,0
-203,288,0,0,0,0,0,0,0,0,0,-1,1021,736,0,0
-196,288,0,0,0,0,0,0,0,0,0,-1,1028,736,0,0
-189,288,0,0,0,0,0,0,0,0,0,-1,1035,736,0,0
-182,288,0,0,0,0,0,0,0,0,0,-1,1042,736,0,0
-175,288,0,0,0,0,0,0,0,0,0,-1,1049,736,0,0
-168,288,0,0,0,0,0,0,0,0,0,-1,1056,736,0,0
-161,288,0,0,0,0,0,0,0,0,0,-1,1063,736,0,0
-154,288,0,0,0,0,0,0,0,0,0,-1,1070,736,0,0
-147,288,0,0,0,0,0,0,0,0,0,-1,1077,736,0,0
-140,288,0,0,0,0,0,0,0,0,0,-1,1084,736,0,0
-133,288,0,0,0,0,0,0,0,0,0,-1,1091,736,0,0
-126,288,0,0,0,0,0,0,0,0,0,-1,1098,736,0,0
-119,288,0,0,0,0,0,0,0,0,0,-1,1105,736,0,0
-112,288,0,0,0,0,0,0,0,0,0,-1,1112,736,0,0
-105,288,0,0,0,0,0,0,0,0,0,-1,1119,736,0,0
-98,288,0,0,0,0,0,0,0,0,0,-1,1126,736,0,0
-91,288,0,0,0,0,0,0,0,0,0,-1,1133,736,0,0
-84,288,0,0,0,0,0,0,0,0,0,-1,1140,736,0,0
-77,288,0,0,0,0,0,0,0,0,0,-1,1147,736,0,0
-70,288,0,0,0,0,0,0,0,0,0,-1,1154,736,0,0
-63,288,0,0,0,0,0,0,0,0,0,-1,1161,736,0,0
-56,288,0,0,0,0,0,0,0,0,0,-1,1168,736,0,0
-49,288,0,0,0,0,0,0,0,0,0,-1,1175,736,0,0
-42,288,0,0,0,0,0,0,0,0,0,-1,1182,736,0,0
-35,288,0,0,0,0,0,0,0,0,0,-1,1189,736,0,0
-28,288,0,0,0,0,0,0,0,0,0,-1,1196,736,0,0
-21,288,0,0,0,0,0,0,0,0,0,-1,1203,736,0,0
-14,288,0,0,0,0,0,0,0,0,0,-1,1210,736,0,0
-7,288,0,0,0,0,0,0,0,0,0,-1,1217,736,0,0
0,288,0,0,0,0,0,0,0,0,0,-1,1224,736,0,0
7,288,0,0,0,0,0,0,0,0,0,-1,1231,736,0,0
14,288,0,0,0,0,0,0,0,0,0,-1,1238,736,0,0
21,288,0,0,0,0,0,0,0,0,0,-1,1245,736,0,0
28,288,0,0,0,0,0,0,0,0,0,-1,1252,736,0,0
35,288,0,0,0,0,0,0,0,0,0,-1,1259,736,0,0
42,288,0,0,0,0,0,0,0,0,0,-1,1266,736,0,0
49,288,0,0,0,0,0,0,0,0,0,-1,1273,736,0,0
56,288,0,0,0,0,0,0,0,0,0,-1,1280,736,0,0
63,288,0,0,0,0,0,0,0,0,0,-1,1287,736,0,0
70,288,0,0,0,0,0,0,0,0,0,-1,1294,736,0,0
77,288,0,0,0,0,0,0,0,0,0,-1,1301,736,0,0
84,288,0,0,0,0,0,0,0,0,0,-1,1308,736,0,0
91,288,0,0,0,0,0,0,0,0,0,-1,1315,736,0,0
98,288,0,0,0,0,0,0,0,0,0,-1,1322,736,0,0
105,288,0,0,0,0,0,0,0,0,0,-1,1329,736,0,0
112,288,0,0,0,0,0,0,0,0,0,-1,1336,736,0,0
119,288,0,0,0,0,0,0,0,0,0,-1,1343,736,0,0
126,288,0,0,0,0,0,0,0,0,0,-1,1350,736,0,0
133,288,0,0,0,0,0,0,0,0,0,-1,1357,736,0,0
140,288,0,0,0,0,0,0,0,0,0,-1,1364,736,0,0
147,288,0,0,0,0,0,0,0,0,0,-1,1371,736,0,0
154,288,0,0,0,0,0,0,0,0,0,-1,1378,736,0,0
161,288,0,0,0,0,0,0,0,0,0,-1,1385,736,0,0
168,288,0,0,0,0,0,0,0,0,0,-1,1392,736,0,0
175,288,0,0,0,0,0,0,0,0,0,-1,1399,736,0,0
182,288,0,0,0,0,0,0,0,0,0,-1,1406,736,0,0
189,288,0,0,0,0,0,0,0,0,0,-1,1413,736,0,0
196,288,0,0,0,0,0,0,0,0,0,-1,1420,736,0,0
203,288,0,0,0,0,0,0,0,0,0,-1,1427,736,0,0
210,288,0,0,0,0,0,0,0,0,0,-1,1434,736,0,0
217,288,0,0,0,0,0,0,0,0,0,-1,1441,736,0,0
224,288,0,0,0,0,0,0,0,0,0,-1,1448,736,0,0
231,288,0,0,0,0,0,0,0,0,0,-1,1455,736,0,0
238,288,0,0,0,0,0,0,0,0,0,-1,1462,736,0,0
245,288,0,0,0,0,0,0,0,0,0,-1,1469,736,0,0
252,288,0,0,0,0,0,0,0,0,0,-1,1476,736,0,0
259,288,0,0,0,0,0,0,0,0,0,-1,1483,736,0,0
266,288,0,0,0,0,0,0,0,0,0,-1,1490,736,0,0
273,288,0,0,0,0,0,0,0,0,0,-1,1497,736,0,0
280,288,0,0,0,0,0,0,0,0,0,-1,1504,736,0,0
287,288,0,0,0,0,0,0,0,0,0,-1,1511,736,0,0
294,288,0,0,0,0,0,0,0,0,0,-1,1518,736,0,0
301,288,0,0,0,0,0,0,0,0,0,-1,1525,736,0,0
308,288,0,0,0,0,0,0,0,0,0,-1,1532,736,0,0
315,288,0,0,0,0,0,0,0,0,0,-1,1539,736,0,0
322,288,0,0,0,0,0,0,0,0,0,-1,1546,736,0,0
329,288,0,0,0,0,0,0,0,0,0,-1,1553,736,0,0
336,288,0,0,0,0,0,0,0,0,0,-1,1560,736,0,0
343,288,0,0,0,0,0,0,0,0,0,-1,1567,736,0,0
350,288,0,0,0,0,0,0,0,0,0,-1,1574,736,0,0
357,288,0,0,0,0,0,0,0,0,0,-1,1581,736,0,0
364,288,0,0,0,0,0,0,0,0,0,-1,1588,736,0,0
371,288,0,0,0,0,0,0,0,0,0,-1,1595,736,0,0
378,288,0,0,0,0,0,0,0,0,0,-1,1602,736,0,0
385,288,0,0,0,0,0,0,0,0,0,-1,1609,736,0,0
392,288,0,0,0,0,0,0,0,0,0,-1,1616,736,0,0
399,288,0,0,0,0,0,0,0,0,0,-1,1623,736,0,0
406,288,0,0,0,0,0,0,0,0,0,-1,1630,736,0,0
413,288,0,0,0,0,0,0,0,0,0,-1,1637,736,0,0
420,288,0,0,0,0,0,0,0,0,0,-1,1644,736,0,0
427,288,0,0,0,0,0,0,0,0,0,-1,1651,736,0,0
434,288,0,0,0,0,0,0,0,0,0,-1,1658,736,0,0
441,288,0,0,0,0,0,0,0,0,0,-1,1665,736,0,0
448,288,0,0,0,0,0,0,0,0,0,-1,1672,736,0,0
455,288,0,0,0,0,0,0,0,0,0,-1,1679,736,0,0
462,288,0,0,0,0,0,0,0,0,0,-1,1686,736,0,0
469,288,0,0,0,0,0,0,0,0,0,-1,1693,736,0,0
476,288,0,0,0,0,0,0,0,0,0,-1,1700,736,0,0
483,288,0,0,0,0,0,0,0,0,0,-1,1707,736,0,0
490,288,0,0,0,0,0,0,0,0,0,-1,1714,736,0,0
497,288,0,0,0,0,0,0,0,0,0,-1,1721,736,0,0
504,288,0,0,0,0,0,0,0,0,0,-1,1728,736,0,0
511,288,0,0,0,0,0,0,0,0,0,-1,1735,736,0,0
518,288,0,0,0,0,0,0,0,0,0,-1,1742,736,0,0
525,288,0,0,0,0,0,0,0,0,0,-1,1749,736,0,0
532,288,0,0,0,0,0,0,0,0,0,-1,1756,736,0,0
539,288,0,0,0,0,0,0,0,0,0,-1,1763,736,0,0
546,288,0,0,0,0,0,0,0,0,0,-1,1770,736,0,0
553,288,0.109375,0.447632,0,0,0,0,0,0,0,-1,1777,736,0.109323,-0.447619
560,288,0.199707,0.00836182,0.0141124,0.00927836,0.00264735,0.0152801,0.00811063,0.415422,0.00882757,0.0402735,1784,736,0.199753,-0.00835852
567,288,0.241943,-0.370178,0.010018,0.00687713,0.00454405,0.0132553,0.00363979,0.619023,0.00790794,0.0426158,1791,736,0.241936,0.37015
574,288,0.490356,-0.200806,0,0,0,0,0,0,0,-1,1798,736,0.490302,0.20078
581,288,-0.715332,0.607239,0,0,0,0,0,0,0,-1,1805,736,-0.715336,-0.60723
588,288,0.404663,-0.762878,0,0,0,0,0,0,0,-1,1812,736,0.404714,0.762906
595,288,0.380371,-0.324829,0,0,0,0,0,0,0,-1,1819,736,0.380352,0.324844
602,288,0.147583,-0.338867,0.00237334,-0.000343665,0.0034692,0.00474054,-0.00271087,0.598781,0.00435495,0.0405832,1826,736,0.14758,0.338844
609,288,0.0167236,-0.570313,0.00212477,-0.000927439,0.00277244,0.00376339,-0.00256605,0.533802,0.00367603,0.0417951,1833,736,0.0167748,0.570329
616,288,0.147705,-0.391663,0.0016323,-0.0015855,0.00233993,0.00286309,-0.00281629,0.484226,0.00327903,0.0432717,1840,736,0.147758,0.391641
623,288,-0.0664063,0.0394287,0.000905767,-0.0015942,0.0015131,0.00161841,-0.00230685,0.440168,0.00227784,0.0356543,1847,736,-0.0663837,-0.0394063
630,288,-0.105469,0.00115967,0.000342933,-0.00214631,0.00102581,0.000711187,-0.00251456,0.344661,0.001957,0.0167946,1854,736,-0.105526,-0.00118921
637,288,-0.079834,-0.0390015,-0.000304801,-0.00150841,0.000839849,0.000126601,-0.00193981,0.47452,0.00133741,0.00906066,1861,736,-0.0798797,0.0389994
644,288,-0.0681152,-0.0427246,-0.00107002,-0.000936026,0.000902328,-9.82096e-05,-0.00190783,0.822454,0.00124045,0.00858842,1868,736,-0.0681391,0.0427054
651,288,-0.0740967,-0.0460815,-0.00152791,-0.000570995,0.000958651,2.19634e-05,-0.00212087,1.01686,0.00142129,0.00967319,1875,736,-0.0740755,0.0460562
658,288,-0.0848389,-0.026123,-0.00118151,-0.000230837,0.001622,0.000984041,-0.00239639,0.927935,0.00200767,0.0135392,1882,736,-0.0848987,0.0261242
665,288,-0.0933838,-0.0296631,-0.00103433,0.000377791,0.00197882,0.00177274,-0.00242928,0.956763,0.00243589,0.0140184,1889,736,-0.0934077,0.0296733
672,288,-0.0861816,-0.0585938,-0.00111376,0.00116437,0.0019923,0.00232024,-0.00226963,1.04509,0.00265002,0.010333,1896,736,-0.0861714,0.0585673
679,288,-0.0895996,-0.0321045,-0.00108916,0.00223984,0.00195347,0.00314178,-0.00199109,1.13825,0.00298818,0.00767158,1903,736,-0.0896103,0.0320873
686,288,-0.0802002,-0.041626,-0.000995812,0.00305243,0.00176976,0.00371701,-0.00166039,1.21157,0.00317943,0.00684779,1910,736,-0.0801679,0.041639
693,288,-0.0737305,-0.0496216,-0.00131412,0.00387781,0.001867,0.00447945,-0.00191577,1.25905,0.00378989,0.00922851,1917,736,-0.0736929,0.0495927
700,288,-0.0598145,-0.0327759,-0.00176303,0.0044483,0.00188532,0.00497576,-0.00229049,1.298,0.0042896,0.0197833,1924,736,-0.0598084,0.032804
707,288,-0.139282,-0.00439453,-0.00211694,0.00502516,0.00165531,0.00539015,-0.00248194,1.35377,0.00464719,0.0351435,1931,736,-0.139314,0.0044225
714,288,-0.223755,0.06427,-0.00238674,0.00533136,0.00110392,0.00548615,-0.00254153,1.43149,0.00473758,0.0432095,1938,736,-0.223809,-0.0642958
721,288,-0.217163,0.147095,0,0,0,0,0,0,0,-1,1945,736,-0.21714,-0.147074
728,288,-0.124023,-0.134521,-0.00318171,0.00413365,-0.000799897,0.00422009,-0.00326815,-1.46315,0.00433497,0.0471833,1952,736,-0.124031,0.134533
735,288,0.00537109,-0.358215,-0.00392632,0.0021927,-0.00188016,0.00272424,-0.00445786,-1.29528,0.00418666,0.0437449,1959,736,0.00534789,0.358245
742,288,0,0,0,0,0,0,0,0,0,-1,1966,736,0,0
749,288,0,0,0,0,0,0,0,0,0,-1,1973,736,0,0
756,288,0,0,0,0,0,0,0,0,0,-1,1980,736,0,0
763,288,0,0,0,0,0,0,0,0,0,-1,1987,736,0,0
770,288,0,0,0,0,0,0,0,0,0,-1,1994,736,0,0
777,288,0,0,0,0,0,0,0,0,0,-1,2001,736,0,0
784,288,0,0,0,0,0,0,0,0,0,-1,2008,736,0,0
791,288,0,0,0,0,0,0,0,0,0,-1,2015,736,0,0
798,288,0,0,0,0,0,0,0,0,0,-1,2022,736,0,0
805,288,0,0,0,0,0,0,0,0,0,-1,2029,736,0,0
812,288,0,0,0,0,0,0,0,0,0,-1,2036,736,0,0
-700,281,0,0,0,0,0,0,0,0,0,-1,524,743,0,0
-693,281,0,0,0,0,0,0,0,0,0,-1,531,743,0,0
-686,281,0,0,0,0,0,0,0,0,0,-1,538,743,0,0
-679,281,0,0,0,0,0,0,0,0,0,-1,545,743,0,0
-672,281,0,0,0,0,0,0,0,0,0,-1,552,743,0,0
-665,281,0,0,0,0,0,0,0,0,0,-1,559,743,0,0
-658,281,0,0,0,0,0,0,0,0,0,-1,566,743,0,0
-651,281,0,0,0,0,0,0,0,0,0,-1,573,743,0,0
-644,281,0,0,0,0,0,0,0,0,0,-1,580,743,0,0
-637,281,0,0,0,0,0,0,0,0,0,-1,587,743,0,0
-630,281,0,0,0,0,0,0,0,0,0,-1,594,743,0,0
-623,281,1.43494,-0.157166,-0.00145616,0.0414027,-0.0212972,0.0501857,-0.0102392,-1.17964,0.0373411,0.0421736,601,743,1.43493,0.157178
-616,281,1.16217,-0.0698853,0.000859151,0.0307247,-0.015695,0.0374558,-0.0058719,-1.16566,0.0271404,0.0453257,608,743,1.16217,0.0698995
-609,281,0.171448,-0.334534,0,0,0,0,0,0,0,-1,615,743,0.17143,0.33455
-602,281,-0.0369873,-0.293945,0.00114158,0.0169688,-0.00803309,0.0203315,-0.00222115,-1.17435,0.0143521,0.0462224,622,743,-0.0369723,0.293964
-595,281,-0.127319,-0.23645,0.000513172,0.0126509,-0.00551257,0.0147808,-0.00161672,-1.2021,0.0104346,0.0483972,629,743,-0.127304,0.23643
-588,281,-0.0330811,-0.177917,-5.33358e-05,0.00948936,-0.00362206,0.0107084,-0.0012724,-1.24614,0.00759868,0.0495296,636,743,-0.0330938,0.177907
-581,281,-0.06427,-0.2052,-0.000293347,0.00686309,-0.00242304,0.0076063,-0.00103656,-1.27318,0.00544935,0.0430724,643,743,-0.0642865,0.20518
-574,281,-0.0636597,-0.128784,-0.000568351,0.00454487,-0.00119325,0.00480963,-0.000833108,-1.35246,0.00351717,0.023504,650,743,-0.0636578,0.128809
-567,281,-0.0628662,-0.0742188,-0.000635183,0.00286498,-0.000146349,0.00287109,-0.000641291,-1.52908,0.0021598,0.0101851,657,743,-0.0628901,0.0742336
-560,281,-0.0734253,-0.0494995,-0.0017085,0.0018955,9.46081e-05,0.00189799,-0.00171098,1.54457,0.00208457,0.00724585,664,743,-0.0734427,0.0494882
-553,281,-0.059021,-0.0383911,-0.00175509,0.00174215,0.000153571,0.00174888,-0.00176182,1.527,0.00202691,0.0121904,671,743,-0.0590191,0.0383828
-546,281,-0.0742798,-0.0328369,-0.00105074,0.001381,0.000494588,0.00147774,-0.00114749,1.37763,0.00151967,0.0141073,678,743,-0.0742704,0.0328152
-539,281,-0.0772705,-0.0530396,-0.000860775,0.00100772,0.00058755,0.00117711,-0.00103017,1.2901,0.00127532,0.0124406,685,743,-0.0772682,0.0530155
-532,281,-0.0632324,-0.052124,-0.000564378,0.000855753,0.000487079,0.00100676,-0.000715381,1.27017,0.000999009,0.0100983,692,743,-0.0632586,0.052111
-525,281,-0.0635376,-0.0244751,-0.000278314,0.000868254,0.000513834,0.00106483,-0.000474887,1.20541,0.000910445,0.0114031,699,743,-0.0635579,0.0244506
-518,281,-0.0717163,-0.0366211,-4.61398e-05,0.00108988,0.000441492,0.00124128,-0.00019754,1.24044,0.000900618,0.0119141,706,743,-0.0717034,0.0366429
-511,281,-0.0740356,-0.0570068,8.36516e-05,0.00125293,0.000160605,0.00127459,6.1993e-05,1.43675,0.000829832,0.010261,713,743,-0.0740651,0.0569907
-504,281,-0.0737915,-0.0516357,0.000154328,0.00185254,2.44832e-05,0.00185289,0.000153975,1.55638,0.00118727,0.0112583,720,743,-0.0738087,0.0516461
-497,281,-0.0509033,-0.050415,0.000210706,0.002435,-3.08612e-05,0.00243543,0.000210278,-1.55693,0.00155826,0.0291557,727,743,-0.0509296,0.0504288
-490,281,-0.0149536,-0.285522,0.000274321,0.00166338,-0.000863708,0.00207717,-0.000139465,-1.12402,0.00143353,0.0402935,734,743,-0.0149258,0.285524
-483,281,0.420715,0.166992,0,0,0,0,0,0,0,-1,741,743,0.420728,-0.166975
-476,281,0.574524,0.329163,0.00215372,-0.00119915,-0.00490577,0.00566159,-0.00470702,-0.620755,0.00599477,0.0420037,748,743,0.574538,-0.329136
-469,281,0.515625,0.34021,0.00440611,-0.00330886,-0.00702946,0.00856695,-0.0074697,-0.534453,0.00926599,0.0466365,755,743,0.515611,-0.340206
-462,281,0.499573,0.425781,0.00689306,-0.00651664,-0.0102158,0.0124077,-0.0120313,-0.494994,0.0141105,0.0487425,762,743,0.499584,-0.425788
-455,281,2.19122,2.05914,0,0,0,0,0,0,0,-1,769,743,2.19123,-2.05915
-448,281,0.622925,0.461731,0,0,0,0,0,0,0,-1,776,743,0.62292,-0.461701
-441,281,2.71588,1.80023,0,0,0,0,0,0,0,-1,783,743,2.7159,-1.80023
-434,281,0,0,0,0,0,0,0,0,0,-1,790,743,0,0
-427,281,0,0,0,0,0,0,0,0,0,-1,797,743,0,0
-420,281,0,0,0,0,0,0,0,0,0,-1,804,743,0,0
-413,281,0,0,0,0,0,0,0,0,0,-1,811,743,0,0
-406,281,0,0,0,0,0,0,0,0,0,-1,818,743,0,0
-399,281,0,0,0,0,0,0,0,0,0,-1,825,743,0,0
-392,281,0,0,0,0,0,0,0,0,0,-1,832,743,0,0
-385,281,0,0,0,0,0,0,0,0,0,-1,839,743,0,0
-378,281,0,0,0,0,0,0,0,0,0,-1,846,743,0,0
-371,281,0,0,0,0,0,0,0,0,0,-1,853,743,0,0
-364,281,0,0,0,0,0,0,0,0,0,-1,860,743,0,0
-357,281,0,0,0,0,0,0,0,0,0,-1,867,743,0,0
-350,281,0,0,0,0,0,0,0,0,0,-1,874,743,0,0
-343,281,0,0,0,0,0,0,0,0,0,-1,881,743,0,0
-336,281,0,0,0,0,0,0,0,0,0,-1,888,743,0,0
-329,281,0,0,0,0,0,0,0,0,0,-1,895,743,0,0
-322,281,0,0,0,0,0,0,0,0,0,-1,902,743,0,0
-315,281,0,0,0,0,0,0,0,0,0,-1,909,743,0,0
-308,281,0,0,0,0,0,0,0,0,0,-1,916,743,0,0
-301,281,0,0,0,0,0,0,0,0,0,-1,923,743,0,0
-294,281,0,0,0,0,0,0,0,0,0,-1,930,743,0,0
-287,281,0,0,0,0,0,0,0,0,0,-1,937,743,0,0
-280,281,0,0,0,0,0,0,0,0,0,-1,944,743,0,0
-273,281,0,0,0,0,0,0,0,0,0,-1,951,743,0,0
-266,281,0,0,0,0,0,0,0,0,0,-1,958,743,0,0
-259,281,0,0,0,0,0,0,0,0,0,-1,965,743,0,0
-252,281,0,0,0,0,0,0,0,0,0,-1,972,743,0,0
-245,281,0,0,0,0,0,0,0,0,0,-1,979,743,0,0
-238,281,0,0,0,0,0,0,0,0,0,-1,986,743,0,0
-231,281,0,0,0,0,0,0,0,0,0,-1,993,743,0,0
-224,281,0,0,0,0,0,0,0,0,0,-1,1000,743,0,0
-217,281,0,0,0,0,0,0,0,0,0,-1,1007,743,0,0
-210,281,0,0,0,0,0,0,0,0,0,-1,1014,743,0,0
-203,281,0,0,0,0,0,0,0,0,0,-1,1021,743,0,0
-196,281,0,0,0,0,0,0,0,0,0,-1,1028,743,0,0
-189,281,0,0,0,0,0,0,0,0,0,-1,1035,743,0,0
-182,281,0,0,0,0,0,0,0,0,0,-1,1042,743,0,0
-175,281,0,0,0,0,0,0,0,0,0,-1,1049,743,0,0
-168,281,0,0,0,0,0,0,0,0,0,-1,1056,743,0,0
-161,281,0,0,0,0,0,0,0,0,0,-1,1063,743,0,0
-154,281,0,0,0,0,0,0,0,0,0,-1,1070,743,0,0
-147,281,0,0,0,0,0,0,0,0,0,-1,1077,743,0,0
-140,281,0,0,0,0,0,0,0,0,0,-1,1084,743,0,0
-133,281,0,0,0,0,0,0,0,0,0,-1,1091,743,0,0
-126,281,0,0,0,0,0,0,0,0,0,-1,1098,743,0,0
-119,281,0,0,0,0,0,0,0,0,0,-1,1105,743,0,0
-112,281,0,0,0,0,0,0,0,0,0,-1,1112,743,0,0
-105,281,0,0,0,0,0,0,0,0,0,-1,1119,743,0,0
-98,281,0,0,0,0,0,0,0,0,0,-1,1126,743,0,0
-91,281,0,0,0,0,0,0,0,0,0,-1,1133,743,0,0
-84,281,0,0,0,0,0,0,0,0,0,-1,1140,743,0,0
-77,281,0,0,0,0,0,0,0,0,0,-1,1147,743,0,0
-70,281,0,0,0,0,0,0,0,0,0,-1,1154,743,0,0
-63,281,0,0,0,0,0,0,0,0,0,-1,1161,743,0,0
-56,281,0,0,0,0,0,0,0,0,0,-1,1168,743,0,0
-49,281,0,0,0,0,0,0,0,0,0,-1,1175,743,0,0
-42,281,0,0,0,0,0,0,0,0,0,-1,1182,743,0,0
-35,281,0,0,0,0,0,0,0,0,0,-1,1189,743,0,0
-28,281,0,0,0,0,0,0,0,0,0,-1,1196,743,0,0
-21,281,0,0,0,0,0,0,0,0,0,-1,1203,743,0,0
-14,281,0,0,0,0,0,0,0,0,0,-1,1210,743,0,0
-7,281,0,0,0,0,0,0,0,0,0,-1,1217,743,0,0
0,281,0,0,0,0,0,0,0,0,0,-1,1224,743,0,0
7,281,0,0,0,0,0,0,0,0,0,-1,1231,743,0,0
14,281,0,0,0,0,0,0,0,0,0,-1,1238,743,0,0
21,281,0,0,0,0,0,0,0,0,0,-1,1245,743,0,0
28,281,0,0,0,0,0,0,0,0,0,-1,1252,743,0,0
35,281,0,0,0,0,0,0,0,0,0,-1,1259,743,0,0
42,281,0,0,0,0,0,0,0,0,0,-1,1266,743,0,0
49,281,0,0,0,0,0,0,0,0,0,-1,1273,743,0,0
56,281,0,0,0,0,0,0,0,0,0,-1,1280,743,0,0
63,281,0,0,0,0,0,0,0,0,0,-1,1287,743,0,0
70,281,0,0,0,0,0,0,0,0,0,-1,1294,743,0,0
77,281,0,0,0,0,0,0,0,0,0,-1,1301,743,0,0
84,281,0,0,0,0,0,0,0,0,0,-1,1308,743,0,0
91,281,0,0,0,0,0,0,0,0,0,-1,1315,743,0,0
98,281,0,0,0,0,0,0,0,0,0,-1,1322,743,0,0
105,281,0,0,0,0,0,0,0,0,0,-1,1329,743,0,0
112,281,0,0,0,0,0,0,0,0,0,-1,1336,743,0,0
119,281,0,0,0,0,0,0,0,0,0,-1,1343,743,0,0
126,281,0,0,0,0,0,0,0,0,0,-1,1350,743,0,0
133,281,0,0,0,0,0,0,0,0,0,-1,1357,743,0,0
140,281,0,0,0,0,0,0,0,0,0,-1,1364,743,0,0
147,281,0,0,0,0,0,0,0,0,0,-1,1371,743,0,0
154,281,0,0,0,0,0,0,0,0,0,-1,1378,743,0,0
161,281,0,0,0,0,0,0,0,0,0,-1,1385,743,0,0
168,281,0,0,0,0,0,0,0,0,0,-1,1392,743,0,0
175,281,0,0,0,0,0,0,0,0,0,-1,1399,743,0,0
182,281,0,0,0,0,0,0,0,0,0,-1,1406,743,0,0
189,281,0,0,0,0,0,0,0,0,0,-1,1413,743,0,0
196,281,0,0,0,0,0,0,0,0,0,-1,1420,743,0,0
203,281,0,0,0,0,0,0,0,0,0,-1,1427,743,0,0
210,281,0,0,0,0,0,0,0,0,0,-1,1434,743,0,0
217,281,0,0,0,0,0,0,0,0,0,-1,1441,743,0,0
224,281,0,0,0,0,0,0,0,0,0,-1,1448,743,0,0
231,281,0,0,0,0,0,0,0,0,0,-1,1455,743,0,0
238,281,0,0,0,0,0,0,0,0,0,-1,1462,743,0,0
245,281,0,0,0,0,0,0,0,0,0,-1,1469,743,0,0
252,281,0,0,0,0,0,0,0,0,0,-1,1476,743,0,0
259,281,0,0,0,0,0,0,0,0,0,-1,1483,743,0,0
266,281,0,0,0,0,0,0,0,0,0,-1,1490,743,0,0
273,281,0,0,0,0,0,0,0,0,0,-1,1497,743,0,0
280,281,0,0,0,0,0,0,0,0,0,-1,1504,743,0,0
287,281,0,0,0,0,0,0,0,0,0,-1,1511,743,0,0
294,281,0,0,0,0,0,0,0,0,0,-1,1518,743,0,0
301,281,0,0,0,0,0,0,0,0,0,-1,1525,743,0,0
308,281,0,0,0,0,0,0,0,0,0,-1,1532,743,0,0
315,281,0,0,0,0,0,0,0,0,0,-1,1539,743,0,0
322,281,0,0,0,0,0,0,0,0,0,-1,1546,743,0,0
329,281,0,0,0,0,0,0,0,0,0,-1,1553,743,0,0
336,281,0,0,0,0,0,0,0,0,0,-1,1560,743,0,0
343,281,0,0,0,0,0,0,0,0,0,-1,1567,743,0,0
350,281,0,0,0,0,0,0,0,0,0,-1,1574,743,0,0
357,281,0,0,0,0,0,0,0,0,0,-1,1581,743,0,0
364,281,0,0,0,0,0,0,0,0,0,-1,1588,743,0,0
371,281,0,0,0,0,0,0,0,0,0,-1,1595,743,0,0
378,281,0,0,0,0,0,0,0,0,0,-1,1602,743,0,0
385,281,0,0,0,0,0,0,0,0,0,-1,1609,743,0,0
392,281,0,0,0,0,0,0,0,0,0,-1,1616,743,0,0
399,281,0,0,0,0,0,0,0,0,0,-1,1623,743,0,0
406,281,0,0,0,0,0,0,0,0,0,-1,1630,743,0,0
413,281,0,0,0,0,0,0,0,0,0,-1,1637,743,0,0
420,281,0,0,0,0,0,0,0,0,0,-1,1644,743,0,0
427,281,0,0,0,0,0,0,0,0,0,-1,1651,743,0,0
434,281,0,0,0,0,0,0,0,0,0,-1,1658,743,0,0
441,281,0,0,0,0,0,0,0,0,0,-1,1665,743,0,0
448,281,0,0,0,0,0,0,0,0,0,-1,1672,743,0,0
455,281,0,0,0,0,0,0,0,0,0,-1,1679,743,0,0
462,281,0,0,0,0,0,0,0,0,0,-1,1686,743,0,0
469,281,0,0,0,0,0,0,0,0,0,-1,1693,743,0,0
476,281,0,0,0,0,0,0,0,0,0,-1,1700,743,0,0
483,281,0,0,0,0,0,0,0,0,0,-1,1707,743,0,0
490,281,0,0,0,0,0,0,0,0,0,-1,1714,743,0,0
497,281,0,0,0,0,0,0,0,0,0,-1,1721,743,0,0
504,281,0,0,0,0,0,0,0,0,0,-1,1728,743,0,0
511,281,0,0,0,0,0,0,0,0,0,-1,1735,743,0,0
518,281,0,0,0,0,0,0,0,0,0,-1,1742,743,0,0
525,281,0,0,0,0,0,0,0,0,0,-1,1749,743,0,0
532,281,0,0,0,0,0,0,0,0,0,-1,1756,743,0,0
539,281,0,0,0,0,0,0,0,0,0,-1,1763,743,0,0
546,281,0,0,0,0,0,0,0,0,0,-1,1770,743,0,0
553,281,0,0,0,0,0,0,0,0,0,-1,1777,743,0,0
560,281,0.0864258,-0.197205,0.0168017,0.00818321,0.00108758,0.0169368,0.00804809,0.12361,0.00978248,0.0370573,1784,743,0.0863694,0.197213
567,281,0.158569,-0.361084,0.0125049,0.00574967,0.00326401,0.0138243,0.00443026,0.384147,0.00815117,0.0400822,1791,743,0.158617,0.361093
574,281,-0.327637,0.280334,0.00990816,0.00388028,0.0041659,0.0120361,0.00175237,0.472243,0.00750839,0.0451789,1798,743,-0.327684,-0.280322
581,281,-0.837036,0.910339,0,0,0,0,0,0,0,-1,1805,743,-0.837028,-0.910336
588,281,1.27051,-0.296692,0,0,0,0,0,0,0,-1,1812,743,1.27048,0.296716
595,281,2.61121,-0.417419,0,0,0,0,0,0,0,-1,1819,743,2.61119,0.417429
602,281,0.500732,-0.505554,0.00344646,-0.000871214,0.00335469,0.00527692,-0.00270168,0.499492,0.00468575,0.0441143,1826,743,0.500717,0.505556
609,281,0.423828,-0.764893,0.00270886,-0.00135468,0.002917,0.00423194,-0.00287776,0.481202,0.00412954,0.044941,1833,743,0.423833,0.764892
616,281,-0.173584,0.167419,0,0,0,0,0,0,0,-1,1840,743,-0.173553,-0.167403
623,281,-0.145386,0.088501,0.000933675,-0.00175427,0.00210086,0.00208368,-0.00290427,0.50084,0.00289275,0.0445306,1847,743,-0.145371,-0.0885063
630,281,-0.10083,-0.0161133,0.0001765,-0.00214737,0.00179097,0.00114943,-0.0031203,0.497641,0.00255117,0.0288175,1854,743,-0.100857,0.0161076
637,281,-0.0750732,-0.0637207,-0.000594146,-0.00150402,0.00163302,0.000646121,-0.00274429,0.649549,0.00207865,0.0111695,1861,743,-0.0750643,0.0637021
644,281,-0.069458,-0.0475464,-0.00146027,-0.00090054,0.00161047,0.000454197,-0.00281501,0.871429,0.00204496,0.00861157,1868,743,-0.0694879,0.0475212
651,281,-0.0692139,-0.053772,-0.00190768,-0.000480134,0.00149423,0.000462054,-0.00284986,1.00822,0.00207118,0.00994625,1875,743,-0.0692352,0.0537838
658,281,-0.0819092,-0.0234375,-0.00143933,-0.000154737,0.00195931,0.00126487,-0.00285894,0.943788,0.00243945,0.0168182,1882,743,-0.0818876,0.023416
665,281,-0.0959473,-0.0340576,-0.00115012,0.000411174,0.00210965,0.00187998,-0.00261892,0.962604,0.00260909,0.0182714,1889,743,-0.0959823,0.0340504
672,281,-0.103638,-0.0495605,-0.00107947,0.00109233,0.00185447,0.00215544,-0.00214257,1.05027,0.00248146,0.0100162,1896,743,-0.1036,0.049553
679,281,-0.0822754,-0.0253906,-0.000904007,0.00195148,0.00154876,0.00263019,-0.00158271,1.15778,0.00245725,0.0128568,1903,743,-0.0822724,0.0253883
686,281,-0.0777588,-0.0432129,-0.000686012,0.00251842,0.00107805,0.00284734,-0.00101493,1.27466,0.00231203,0.00965319,1910,743,-0.0777037,0.0432345
693,281,-0.0775146,-0.0599976,-0.00097478,0.00298417,0.000921695,0.00318823,-0.00117884,1.35291,0.00260878,0.00852049,1917,743,-0.0775162,0.060015
700,281,-0.0644531,-0.0548706,-0.00150786,0.00314038,0.000711629,0.00324688,-0.00161437,1.42223,0.00285891,0.0154379,1924,743,-0.0644195,0.0548581
707,281,-0.112305,-0.0043335,-0.00202454,0.00318308,0.000266221,0.00319666,-0.00203812,1.51985,0.00304687,0.0320463,1931,743,-0.112333,0.00431266
714,281,-0.70752,0.131287,0,0,0,0,0,0,0,-1,1938,743,-0.707542,-0.131276
721,281,-0.357666,-0.0393677,0,0,0,0,0,0,0,-1,1945,743,-0.357695,0.0393714
728,281,-0.164429,-0.272461,-0.00460431,-0.000281131,-0.00263727,0.000967211,-0.00585265,-1.1287,0.00426092,0.0458299,1952,743,-0.16444,0.272432
735,281,-0.0336914,-0.460632,-0.00652087,-0.00361863,-0.00370313,-0.00109245,-0.00904706,-0.972134,0.00570221,0.0433266,1959,743,-0.0336333,0.460602
742,281,0,0,0,0,0,0,0,0,0,-1,1966,743,0,0
749,281,0,0,0,0,0,0,0,0,0,-1,1973,743,0,0
756,281,0,0,0,0,0,0,0,0,0,-1,1980,743,0,0
763,281,0,0,0,0,0,0,0,0,0,-1,1987,743,0,0
770,281,0,0,0,0,0,0,0,0,0,-1,1994,743,0,0
777,281,0,0,0,0,0,0,0,0,0,-1,2001,743,0,0
784,281,0,0,0,0,0,0,0,0,0,-1,2008,743,0,0
791,281,0,0,0,0,0,0,0,0,0,-1,2015,743,0,0
798,281,0,0,0,0,0,0,0,0,0,-1,2022,743,0,0
805,281,0,0,0,0,0,0,0,0,0,-1,2029,743,0,0
812,281,0,0,0,0,0,0,0,0,0,-1,2036,743,0,0
-700,274,0,0,0,0,0,0,0,0,0,-1,524,750,0,0
-693,274,0,0,0,0,0,0,0,0,0,-1,531,750,0,0
-686,274,0,0,0,0,0,0,0,0,0,-1,538,750,0,0
-679,274,0,0,0,0,0,0,0,0,0,-1,545,750,0,0
-672,274,0,0,0,0,0,0,0,0,0,-1,552,750,0,0
-665,274,0,0,0,0,0,0,0,0,0,-1,559,750,0,0
-658,274,0,0,0,0,0,0,0,0,0,-1,566,750,0,0
-651,274,0,0,0,0,0,0,0,0,0,-1,573,750,0,0
-644,274,0,0,0,0,0,0,0,0,0,-1,580,750,0,0
-637,274,0,0,0,0,0,0,0,0,0,-1,587,750,0,0
-630,274,0,0,0,0,0,0,0,0,0,-1,594,750,0,0
-623,274,2.41473,-0.680054,0.000418048,0.0390348,-0.0209372,0.0482077,-0.00875481,-1.15787,0.0354192,0.0427796,601,750,2.41474,0.680069
-616,274,2.21667,-0.650635,0.00304357,0.0297405,-0.0159701,0.0372061,-0.00442206,-1.13351,0.0264018,0.0492784,608,750,2.21667,0.650631
-609,274,2.22632,-0.607117,0.00374847,0.0225566,-0.011965,0.0283709,-0.00206579,-1.11846,0.0196388,0.0484607,615,750,2.22632,0.607147
-602,274,0.295959,-0.360107,0.003423,0.0170756,-0.00877302,0.0213652,-0.000866654,-1.11602,0.014541,0.0422308,622,750,0.295989,0.360104
-595,274,0.190002,-0.890869,0.00263956,0.0129099,-0.00627001,0.0158792,-0.000329778,-1.12851,0.0106978,0.0465166,629,750,0.19002,0.890856
-588,274,-0.0217896,-0.203247,0,0,0,0,0,0,0,-1,636,750,-0.0218062,0.203248
-581,274,-0.0187988,0.0480957,0.0014835,0.00716331,-0.00302875,0.00847531,0.000171495,-1.16201,0.00559392,0.03654,643,750,-0.0187943,-0.0481092
-574,274,-0.0696411,-0.060791,0.000881646,0.00478256,-0.00166216,0.00539473,0.000269474,-1.21791,0.00351011,0.0177638,650,750,-0.0696616,0.0607769
-567,274,-0.074585,-0.0272827,0.000523742,0.00310562,-0.00051946,0.00320621,0.000423148,-1.37951,0.00201132,0.0148654,657,750,-0.0745639,0.0272815
-560,274,-0.0561523,-0.0423584,-0.000915913,0.00225244,-0.000263535,0.00227421,-0.000937683,-1.48837,0.00190715,0.0137816,664,750,-0.0561411,0.0423392
-553,274,-0.0562134,-0.0544434,-0.0012086,0.00219852,-0.000221497,0.00221286,-0.00122294,-1.50615,0.00201092,0.00884724,671,750,-0.0562249,0.0544633
-546,274,-0.0671997,-0.0673218,-0.000663447,0.00195452,0.000122884,0.00196028,-0.000669202,1.52399,0.00157795,0.0103642,678,750,-0.0672051,0.0673464
-539,274,-0.0799561,-0.0623779,-0.000703418,0.00172315,0.00018036,0.00173648,-0.000716751,1.49701,0.00145659,0.0104133,685,750,-0.0799614,0.0623554
-532,274,-0.0678101,-0.0413208,-0.000618574,0.00182299,5.56636e-05,0.00182426,-0.000619843,1.54801,0.0014671,0.0094294,692,750,-0.0677973,0.041294
-525,274,-0.0615234,-0.0280151,-0.000533589,0.00206065,1.80535e-05,0.00206077,-0.000533715,1.56384,0.00158205,0.00960366,699,750,-0.0614946,0.0280279
-518,274,-0.069458,-0.0328979,-0.000514742,0.00254489,-0.000104495,0.00254846,-0.000518306,-1.5367,0.00189551,0.0119312,706,750,-0.0694573,0.0328834
-511,274,-0.0731812,-0.0615845,-0.000572179,0.00295677,-0.000377749,0.00299675,-0.000612161,-1.46535,0.00223007,0.0113714,713,750,-0.0732011,0.0615964
-504,274,-0.0606079,-0.0255127,-0.000601321,0.0036895,-0.000510798,0.00374947,-0.00066129,-1.45393,0.00274674,0.0174019,720,750,-0.0606039,0.0255023
-497,274,-0.15033,0.150574,-0.000651353,0.00442618,-0.000471504,0.00446959,-0.000694766,-1.47898,0.00323627,0.0405229,727,750,-0.150328,-0.15058
-490,274,-0.246704,0.315186,0,0,0,0,0,0,0,-1,734,750,-0.246696,-0.315176
-483,274,0.686218,0.273682,0,0,0,0,0,0,0,-1,741,750,0.686242,-0.273711
-476,274,0.55011,0.298218,0.000613689,0.000902175,-0.00478865,0.00554875,-0.00403289,-0.800455,0.00555499,0.0454425,748,750,0.550105,-0.298212
-469,274,0.420227,0.321228,0.00235912,-0.00127659,-0.00672616,0.00750875,-0.00642622,-0.653418,0.00805345,0.0488459,755,750,0.420231,-0.321234
-462,274,0.359863,0.369995,0.00430453,-0.00469419,-0.00971536,0.0105118,-0.0109015,-0.568544,0.0123637,0.0459517,762,750,0.359834,-0.369972
-455,274,0.383362,0.384155,0.00737447,-0.00953755,-0.0137871,0.0150922,-0.0172552,-0.510317,0.0186897,0.0428127,769,750,0.383343,-0.384183
-448,274,0.399536,0.343933,0.0121079,-0.0158546,-0.0190984,0.0217957,-0.0255424,-0.469437,0.0273592,0.0418873,776,750,0.399539,-0.343921
-441,274,0,0,0,0,0,0,0,0,0,-1,783,750,0,0
-434,274,0,0,0,0,0,0,0,0,0,-1,790,750,0,0
-427,274,0,0,0,0,0,0,0,0,0,-1,797,750,0,0
-420,274,0,0,0,0,0,0,0,0,0,-1,804,750,0,0
-413,274,0,0,0,0,0,0,0,0,0,-1,811,750,0,0
-406,274,0,0,0,0,0,0,0,0,0,-1,818,750,0,0
-399,274,0,0,0,0,0,0,0,0,0,-1,825,750,0,0
-392,274,0,0,0,0,0,0,0,0,0,-1,832,750,0,0
-385,274,0,0,0,0,0,0,0,0,0,-1,839,750,0,0
-378,274,0,0,0,0,0,0,0,0,0,-1,846,750,0,0
-371,274,0,0,0,0,0,0,0,0,0,-1,853,750,0,0
-364,274,0,0,0,0,0,0,0,0,0,-1,860,750,0,0
-357,274,0,0,0,0,0,0,0,0,0,-1,867,750,0,0
-350,274,0,0,0,0,0,0,0,0,0,-1,874,750,0,0
-343,274,0,0,0,0,0,0,0,0,0,-1,881,750,0,0
-336,274,0,0,0,0,0,0,0,0,0,-1,888,750,0,0
-329,274,0,0,0,0,0,0,0,0,0,-1,895,750,0,0
-322,274,0,0,0,0,0,0,0,0,0,-1,902,750,0,0
-315,274,0,0,0,0,0,0,0,0,0,-1,909,750,0,0
-308,274,0,0,0,0,0,0,0,0,0,-1,916,750,0,0
-301,274,0,0,0,0,0,0,0,0,0,-1,923,750,0,0
-294,274,0,0,0,0,0,0,0,0,0,-1,930,750,0,0
-287,274,0,0,0,0,0,0,0,0,0,-1,937,750,0,0
-280,274,0,0,0,0,0,0,0,0,0,-1,944,750,0,0
-273,274,0,0,0,0,0,0,0,0,0,-1,951,750,0,0
-266,274,0,0,0,0,0,0,0,0,0,-1,958,750,0,0
-259,274,0,0,0,0,0,0,0,0,0,-1,965,750,0,0
-252,274,0,0,0,0,0,0,0,0,0,-1,972,750,0,0
-245,274,0,0,0,0,0,0,0,0,0,-1,979,750,0,0
-238,274,0,0,0,0,0,0,0,0,0,-1,986,750,0,0
-231,274,0,0,0,0,0,0,0,0,0,-1,993,750,0,0
-224,274,0,0,0,0,0,0,0,0,0,-1,1000,750,0,0
-217,274,0,0,0,0,0,0,0,0,0,-1,1007,750,0,0
-210,274,0,0,0,0,0,0,0,0,0,-1,1014,750,0,0
-203,274,0,0,0,0,0,0,0,0,0,-1,1021,750,0,0
-196,274,0,0,0,0,0,0,0,0,0,-1,1028,750,0,0
-189,274,0,0,0,0,0,0,0,0,0,-1,1035,750,0,0
-182,274,0,0,0,0,0,0,0,0,0,-1,1042,750,0,0
-175,274,0,0,0,0,0,0,0,0,0,-1,1049,750,0,0
-168,274,0,0,0,0,0,0,0,0,0,-1,1056,750,0,0
-161,274,0,0,0,0,0,0,0,0,0,-1,1063,750,0,0
-154,274,0,0,0,0,0,0,0,0,0,-1,1070,750,0,0
-147,274,0,0,0,0,0,0,0,0,0,-1,1077,750,0,0
-140,274,0,0,0,0,0,0,0,0,0,-1,1084,750,0,0
-133,274,0,0,0,0,0,0,0,0,0,-1,1091,750,0,0
-126,274,0,0,0,0,0,0,0,0,0,-1,1098,750,0,0
-119,274,0,0,0,0,0,0,0,0,0,-1,1105,750,0,0
-112,274,0,0,0,0,0,0,0,0,0,-1,1112,750,0,0
-105,274,0,0,0,0,0,0,0,0,0,-1,1119,750,0,0
-98,274,0,0,0,0,0,0,0,0,0,-1,1126,750,0,0
-91,274,0,0,0,0,0,0,0,0,0,-1,1133,750,0,0
-84,274,0,0,0,0,0,0,0,0,0,-1,1140,750,0,0
-77,274,0,0,0,0,0,0,0,0,0,-1,1147,750,0,0
-70,274,0,0,0,0,0,0,0,0,0,-1,1154,750,0,0
-63,274,0,0,0,0,0,0,0,0,0,-1,1161,750,0,0
-56,274,0,0,0,0,0,0,0,0,0,-1,1168,750,0,0
-49,274,0,0,0,0,0,0,0,0,0,-1,1175,750,0,0
-42,274,0,0,0,0,0,0,0,0,0,-1,1182,750,0,0
-35,274,0,0,0,0,0,0,0,0,0,-1,1189,750,0,0
-28,274,0,0,0,0,0,0,0,0,0,-1,1196,750,0,0
-21,274,0,0,0,0,0,0,0,0,0,-1,1203,750,0,0
-14,274,0,0,0,0,0,0,0,0,0,-1,1210,750,0,0
-7,274,0,0,0,0,0,0,0,0,0,-1,1217,750,0,0
0,274,0,0,0,0,0,0,0,0,0,-1,1224,750,0,0
7,274,0,0,0,0,0,0,0,0,0,-1,1231,750,0,0
14,274,0,0,0,0,0,0,0,0,0,-1,1238,750,0,0
21,274,0,0,0,0,0,0,0,0,0,-1,1245,750,0,0
28,274,0,0,0,0,0,0,0,0,0,-1,1252,750,0,0
35,274,0,0,0,0,0,0,0,0,0,-1,1259,750,0,0
42,274,0,0,0,0,0,0,0,0,0,-1,1266,750,0,0
49,274,0,0,0,0,0,0,0,0,0,-1,1273,750,0,0
56,274,0,0,0,0,0,0,0,0,0,-1,1280,750,0,0
63,274,0,0,0,0,0,0,0,0,0,-1,1287,750,0,0
70,274,0,0,0,0,0,0,0,0,0,-1,1294,750,0,0
77,274,0,0,0,0,0,0,0,0,0,-1,1301,750,0,0
84,274,0,0,0,0,0,0,0,0,0,-1,1308,750,0,0
91,274,0,0,0,0,0,0,0,0,0,-1,1315,750,0,0
98,274,0,0,0,0,0,0,0,0,0,-1,1322,750,0,0
105,274,0,0,0,0,0,0,0,0,0,-1,1329,750,0,0
112,274,0,0,0,0,0,0,0,0,0,-1,1336,750,0,0
119,274,0,0,0,0,0,0,0,0,0,-1,1343,750,0,0
126,274,0,0,0,0,0,0,0,0,0,-1,1350,750,0,0
133,274,0,0,0,0,0,0,0,0,0,-1,1357,750,0,0
140,274,0,0,0,0,0,0,0,0,0,-1,1364,750,0,0
147,274,0,0,0,0,0,0,0,0,0,-1,1371,750,0,0
154,274,0,0,0,0,0,0,0,0,0,-1,1378,750,0,0
161,274,0,0,0,0,0,0,0,0,0,-1,1385,750,0,0
168,274,0,0,0,0,0,0,0,0,0,-1,1392,750,0,0
175,274,0,0,0,0,0,0,0,0,0,-1,1399,750,0,0
182,274,0,0,0,0,0,0,0,0,0,-1,1406,750,0,0
189,274,0,0,0,0,0,0,0,0,0,-1,1413,750,0,0
196,274,0,0,0,0,0,0,0,0,0,-1,1420,750,0,0
203,274,0,0,0,0,0,0,0,0,0,-1,1427,750,0,0
210,274,0,0,0,0,0,0,0,0,0,-1,1434,750,0,0
217,274,0,0,0,0,0,0,0,0,0,-1,1441,750,0,0
224,274,0,0,0,0,0,0,0,0,0,-1,1448,750,0,0
231,274,0,0,0,0,0,0,0,0,0,-1,1455,750,0,0
238,274,0,0,0,0,0,0,0,0,0,-1,1462,750,0,0
245,274,0,0,0,0,0,0,0,0,0,-1,1469,750,0,0
252,274,0,0,0,0,0,0,0,0,0,-1,1476,750,0,0
259,274,0,0,0,0,0,0,0,0,0,-1,1483,750,0,0
266,274,0,0,0,0,0,0,0,0,0,-1,1490,750,0,0
273,274,0,0,0,0,0,0,0,0,0,-1,1497,750,0,0
280,274,0,0,0,0,0,0,0,0,0,-1,1504,750,0,0
287,274,0,0,0,0,0,0,0,0,0,-1,1511,750,0,0
294,274,0,0,0,0,0,0,0,0,0,-1,1518,750,0,0
301,274,0,0,0,0,0,0,0,0,0,-1,1525,750,0,0
308,274,0,0,0,0,0,0,0,0,0,-1,1532,750,0,0
315,274,0,0,0,0,0,0,0,0,0,-1,1539,750,0,0
322,274,0,0,0,0,0,0,0,0,0,-1,1546,750,0,0
329,274,0,0,0,0,0,0,0,0,0,-1,1553,750,0,0
336,274,0,0,0,0,0,0,0,0,0,-1,1560,750,0,0
343,274,0,0,0,0,0,0,0,0,0,-1,1567,750,0,0
350,274,0,0,0,0,0,0,0,0,0,-1,1574,750,0,0
357,274,0,0,0,0,0,0,0,0,0,-1,1581,750,0,0
364,274,0,0,0,0,0,0,0,0,0,-1,1588,750,0,0
371,274,0,0,0,0,0,0,0,0,0,-1,1595,750,0,0
378,274,0,0,0,0,0,0,0,0,0,-1,1602,750,0,0
385,274,0,0,0,0,0,0,0,0,0,-1,1609,750,0,0
392,274,0,0,0,0,0,0,0,0,0,-1,1616,750,0,0
399,274,0,0,0,0,0,0,0,0,0,-1,1623,750,0,0
406,274,0,0,0,0,0,0,0,0,0,-1,1630,750,0,0
413,274,0,0,0,0,0,0,0,0,0,-1,1637,750,0,0
420,274,0,0,0,0,0,0,0,0,0,-1,1644,750,0,0
427,274,0,0,0,0,0,0,0,0,0,-1,1651,750,0,0
434,274,0,0,0,0,0,0,0,0,0,-1,1658,750,0,0
441,274,0,0,0,0,0,0,0,0,0,-1,1665,750,0,0
448,274,0,0,0,0,0,0,0,0,0,-1,1672,750,0,0
455,274,0,0,0,0,0,0,0,0,0,-1,1679,750,0,0
462,274,0,0,0,0,0,0,0,0,0,-1,1686,750,0,0
469,274,0,0,0,0,0,0,0,0,0,-1,1693,750,0,0
476,274,0,0,0,0,0,0,0,0,0,-1,1700,750,0,0
483,274,0,0,0,0,0,0,0,0,0,-1,1707,750,0,0
490,274,0,0,0,0,0,0,0,0,0,-1,1714,750,0,0
497,274,0,0,0,0,0,0,0,0,0,-1,1721,750,0,0
504,274,0,0,0,0,0,0,0,0,0,-1,1728,750,0,0
511,274,0,0,0,0,0,0,0,0,0,-1,1735,750,0,0
518,274,0,0,0,0,0,0,0,0,0,-1,1742,750,0,0
525,274,0,0,0,0,0,0,0,0,0,-1,1749,750,0,0
532,274,0,0,0,0,0,0,0,0,0,-1,1756,750,0,0
539,274,0,0,0,0,0,0,0,0,0,-1,1763,750,0,0
546,274,0,0,0,0,0,0,0,0,0,-1,1770,750,0,0
553,274,0,0,0,0,0,0,0,0,0,-1,1777,750,0,0
560,274,0.00158691,-0.09375,0.0179804,0.00618786,0.000723525,0.0180247,0.00614364,0.0610491,0.0105808,0.0347504,1784,750,0.00161334,0.0937621
567,274,0.0543213,-0.0842285,0.0141286,0.00364625,0.00222508,0.0145814,0.00319348,0.20074,0.00885059,0.036286,1791,750,0.0543486,0.084258
574,274,0.119019,-0.0576172,0.0116648,0.001882,0.00283069,0.0124248,0.00112198,0.262308,0.00793571,0.0428527,1798,750,0.119003,0.0576319
581,274,0.207153,-0.0993042,0,0,0,0,0,0,0,-1,1805,750,0.207125,0.099287
588,274,1.12561,-0.566223,0.00758099,-0.000778329,0.0029196,0.00849972,-0.00169706,0.304868,0.00630872,0.0408378,1812,750,1.12557,0.566195
595,274,2.00159,-0.792053,0.00589173,-0.00150587,0.00290228,0.00689446,-0.0025086,0.332657,0.00562226,0.0470309,1819,750,2.00164,0.792045
602,274,2.8584,-0.786621,0,0,0,0,0,0,0,-1,1826,750,2.85834,0.786609
609,274,0.409302,-0.707703,0.0031066,-0.00212776,0.00246185,0.00408252,-0.00310368,0.377413,0.00416176,0.0459509,1833,750,0.409334,0.707709
616,274,0.0452881,-0.721069,0.00189822,-0.00235655,0.00243957,0.00300769,-0.00346602,0.426824,0.00374072,0.0444811,1840,750,0.0453203,0.721078
623,274,-0.125244,0.0680542,0.000771211,-0.00200336,0.00213453,0.00192966,-0.00316181,0.497237,0.00296811,0.0449607,1847,750,-0.125196,-0.0680528
630,274,-0.107788,-0.148376,-0.000168011,-0.00212831,0.00210116,0.00117037,-0.00346668,0.567161,0.00278448,0.0357691,1854,750,-0.10781,0.148398
637,274,-0.0709229,-0.0944824,-0.00103839,-0.00142931,0.00195064,0.00072656,-0.00319427,0.735464,0.00240851,0.0115782,1861,750,-0.0709803,0.0944644
644,274,-0.0775146,-0.05896,-0.00195258,-0.000773289,0.00186575,0.000593769,-0.00331964,0.938451,0.00243527,0.0101199,1868,750,-0.0775755,0.0589583
651,274,-0.0871582,-0.0656738,-0.00238269,-0.000272818,0.00163212,0.000615619,-0.00327113,1.0723,0.00241229,0.0119532,1875,750,-0.087192,0.0656606
658,274,-0.0881348,-0.0734253,-0.00182143,5.0146e-05,0.00195098,0.00127815,-0.00304944,1.00902,0.00256735,0.0142322,1882,750,-0.0881595,0.0734409
665,274,-0.0797119,-0.0753174,-0.00141652,0.000558162,0.00196402,0.00176905,-0.00262741,1.01831,0.00255437,0.0150122,1889,750,-0.0797315,0.0753465
672,274,-0.0748291,-0.0512085,-0.0012086,0.00110279,0.00154138,0.00187362,-0.00197943,1.10708,0.00222484,0.0125792,1896,750,-0.0747898,0.0511791
679,274,-0.0670166,-0.0535889,-0.000903275,0.00168265,0.00106564,0.0020652,-0.00128582,1.22614,0.00195208,0.0123143,1903,750,-0.0670631,0.0535974
686,274,-0.0788574,-0.0559692,-0.000569999,0.00195709,0.000396274,0.00201778,-0.000630682,1.41884,0.00159746,0.01191,1910,750,-0.0788344,0.0559431
693,274,-0.0655518,-0.0533447,-0.000827402,0.00198445,5.12998e-05,0.00198539,-0.000828338,1.55256,0.00166966,0.0102475,1917,750,-0.0654944,0.0533556
700,274,-0.0612793,-0.0544434,-0.00145193,0.0016403,-0.000353332,0.00168016,-0.00149179,-1.45846,0.0018324,0.012723,1924,750,-0.0612543,0.054431
707,274,-0.0720215,-0.0651245,-0.00215786,0.00110761,-0.000970432,0.00137423,-0.00242448,-1.30266,0.00222095,0.0200586,1931,750,-0.0720432,0.0651149
714,274,-0.265137,0.0283203,-0.00298088,3.54336e-05,-0.00187394,0.00093273,-0.00387817,-1.12423,0.00294599,0.0374321,1938,750,-0.265157,-0.0282917
721,274,-0.48999,-0.145569,0,0,0,0,0,0,0,-1,1945,750,-0.489932,0.145571
728,274,-0.268555,-0.427063,-0.00619252,-0.00508681,-0.00409006,-0.0015124,-0.00976692,-0.852576,0.00607028,0.0452238,1952,750,-0.268572,0.427068
735,274,-0.177734,-0.520569,-0.009146,-0.00980434,-0.00499568,-0.00446866,-0.0144817,-0.7525,0.00856282,0.0460048,1959,750,-0.177795,0.520595
742,274,0.0311279,-0.78241,0,0,0,0,0,0,0,-1,1966,750,0.0311154,0.782433
749,274,0,0,0,0,0,0,0,0,0,-1,1973,750,0,0
756,274,0,0,0,0,0,0,0,0,0,-1,1980,750,0,0
763,274,0,0,0,0,0,0,0,0,0,-1,1987,750,0,0
770,274,0,0,0,0,0,0,0,0,0,-1,1994,750,0,0
777,274,0,0,0,0,0,0,0,0,0,-1,2001,750,0,0
784,274,0,0,0,0,0,0,0,0,0,-1,2008,750,0,0
791,274,0,0,0,0,0,0,0,0,0,-1,2015,750,0,0
798,274,0,0,0,0,0,0,0,0,0,-1,2022,750,0,0
805,274,0,0,0,0,0,0,0,0,0,-1,2029,750,0,0
812,274,0,0,0,0,0,0,0,0,0,-1,2036,750,0,0
-700,267,0,0,0,0,0,0,0,0,0,-1,524,757,0,0
-693,267,0,0,0,0,0,0,0,0,0,-1,531,757,0,0
-686,267,0,0,0,0,0,0,0,0,0,-1,538,757,0,0
-679,267,0,0,0,0,0,0,0,0,0,-1,545,757,0,0
-672,267,0,0,0,0,0,0,0,0,0,-1,552,757,0,0
-665,267,0,0,0,0,0,0,0,0,0,-1,559,757,0,0
-658,267,0,0,0,0,0,0,0,0,0,-1,566,757,0,0
-651,267,0,0,0,0,0,0,0,0,0,-1,573,757,0,0
-644,267,0,0,0,0,0,0,0,0,0,-1,580,757,0,0
-637,267,0,0,0,0,0,0,0,0,0,-1,587,757,0,0
-630,267,-1.19995,1.40247,0,0,0,0,0,0,0,-1,594,757,-1.19994,-1.40247
-623,267,-1.51691,1.22955,0,0,0,0,0,0,0,-1,601,757,-1.5169,-1.22954
-616,267,-1.55994,0.860352,0.00347301,0.027415,-0.0167151,0.0360037,-0.00511565,-1.09615,0.0258768,0.0479585,608,757,-1.55992,-0.860338
-609,267,0.667908,1.06189,0.0045692,0.0206818,-0.0128127,0.0277605,-0.00250954,-1.06605,0.0193977,0.0400347,615,757,0.66788,-1.06188
-602,267,0.347839,0.300842,0.00444289,0.0154783,-0.00963862,0.0210668,-0.00114562,-1.04536,0.0144416,0.0430399,622,757,0.347834,-0.300833
-595,267,0.0263062,0.117004,0,0,0,0,0,0,0,-1,629,757,0.0263176,-0.117029
-588,267,-0.000976563,0.0608521,0.00309264,0.00868977,-0.00500491,0.0116254,0.000157003,-1.04032,0.00769847,0.0423931,636,757,-0.000959103,-0.0608666
-581,267,-0.0464478,0.012085,0.00259045,0.00603201,-0.00366352,0.00835876,0.000263697,-1.00496,0.00548672,0.0240708,643,757,-0.0464655,-0.0121045
-574,267,-0.0877686,-0.031189,0.00178784,0.00381829,-0.00217628,0.00520449,0.000401631,-1.00364,0.00334383,0.0119775,650,757,-0.0877756,0.0311769
-567,267,-0.0767822,-0.00616455,0.00121071,0.00232772,-0.000942526,0.00286479,0.000673643,-1.05286,0.00172961,0.018852,657,757,-0.076761,0.00616533
-560,267,-0.0600586,-0.0317383,-0.000485638,0.00174448,-0.000627203,0.00190878,-0.00064993,-1.31461,0.00153571,0.0213012,664,757,-0.060044,0.0317147
-553,267,-0.0673218,-0.02771,-0.00097564,0.00196663,-0.000577213,0.00207582,-0.00108483,-1.38385,0.00185446,0.0167839,671,757,-0.0673005,0.0277344
-546,267,-0.0767822,-0.0539551,-0.000600493,0.002015,-0.000205199,0.002031,-0.000616494,-1.49298,0.0015996,0.0105078,678,757,-0.0767807,0.0539745
-539,267,-0.0866699,-0.0466309,-0.000852119,0.00208723,-0.00016066,0.00209598,-0.000860875,-1.51635,0.00175609,0.00876009,685,757,-0.0866954,0.0466379
-532,267,-0.0773926,-0.046814,-0.000986207,0.00257095,-0.00027947,0.00259277,-0.00100803,-1.49287,0.00214499,0.00859805,692,757,-0.0773806,0.0467852
-525,267,-0.0723267,-0.0377197,-0.0011163,0.00310801,-0.000361204,0.00313867,-0.00114696,-1.48611,0.00256183,0.00883135,699,757,-0.0723283,0.0377287
-518,267,-0.0820313,-0.041687,-0.00134147,0.00388548,-0.000515949,0.00393592,-0.00139191,-1.47334,0.00319077,0.00985846,706,757,-0.0820238,0.0416673
-511,267,-0.0863037,-0.0491333,-0.00162969,0.00455274,-0.000778613,0.00464929,-0.00172624,-1.44742,0.00380769,0.0132921,713,757,-0.0862881,0.0491445
-504,267,-0.0610962,-0.0252686,-0.00183453,0.00540877,-0.000923982,0.00552477,-0.00195054,-1.4459,0.0044773,0.0245085,720,757,-0.0610947,0.0252382
-497,267,-0.163696,0.265625,0,0,0,0,0,0,0,-1,727,757,-0.163702,-0.265639
-490,267,-0.00445557,-0.306152,0,0,0,0,0,0,0,-1,734,757,-0.00446836,0.306181
-483,267,0.416199,0.0549927,0,0,0,0,0,0,0,-1,741,757,0.416195,-0.0549919
-476,267,0.474609,0.248901,-0.00161924,0.00340067,-0.00435125,0.00591398,-0.00413255,-1.047,0.00583069,0.0455271,748,757,0.474586,-0.248887
-469,267,0.484619,0.352905,-0.000439132,0.00140278,-0.00595354,0.00650617,-0.00554253,-0.862135,0.00696373,0.0467302,755,757,0.484594,-0.352927
-462,267,0.285828,0.287354,0.000907233,-0.001864,-0.00851827,0.00815185,-0.00910862,-0.704772,0.00997043,0.0471538,762,757,0.285849,-0.28738
-455,267,0.238586,0.282715,0.00315776,-0.00659587,-0.0121746,0.011396,-0.0148341,-0.594898,0.0151873,0.0469987,769,757,0.238566,-0.282708
-448,267,0.0628662,0.176758,0.00680054,-0.0130593,-0.0171079,0.0166515,-0.0229103,-0.522445,0.022936,0.0452312,776,757,0.0628856,-0.176743
-441,267,0,0,0,0,0,0,0,0,0,-1,783,757,0,0
-434,267,0,0,0,0,0,0,0,0,0,-1,790,757,0,0
-427,267,0,0,0,0,0,0,0,0,0,-1,797,757,0,0
-420,267,0,0,0,0,0,0,0,0,0,-1,804,757,0,0
-413,267,0,0,0,0,0,0,0,0,0,-1,811,757,0,0
-406,267,0,0,0,0,0,0,0,0,0,-1,818,757,0,0
-399,267,0,0,0,0,0,0,0,0,0,-1,825,757,0,0
-392,267,0,0,0,0,0,0,0,0,0,-1,832,757,0,0
-385,267,0,0,0,0,0,0,0,0,0,-1,839,757,0,0
-378,267,0,0,0,0,0,0,0,0,0,-1,846,757,0,0
-371,267,0,0,0,0,0,0,0,0,0,-1,853,757,0,0
-364,267,0,0,0,0,0,0,0,0,0,-1,860,757,0,0
-357,267,0,0,0,0,0,0,0,0,0,-1,867,757,0,0
-350,267,0,0,0,0,0,0,0,0,0,-1,874,757,0,0
-343,267,0,0,0,0,0,0,0,0,0,-1,881,757,0,0
-336,267,0,0,0,0,0,0,0,0,0,-1,888,757,0,0
-329,267,0,0,0,0,0,0,0,0,0,-1,895,757,0,0
-322,267,0,0,0,0,0,0,0,0,0,-1,902,757,0,0
-315,267,0,0,0,0,0,0,0,0,0,-1,909,757,0,0
-308,267,0,0,0,0,0,0,0,0,0,-1,916,757,0,0
-301,267,0,0,0,0,0,0,0,0,0,-1,923,757,0,0
-294,267,0,0,0,0,0,0,0,0,0,-1,930,757,0,0
-287,267,0,0,0,0,0,0,0,0,0,-1,937,757,0,0
-280,267,0,0,0,0,0,0,0,0,0,-1,944,757,0,0
-273,267,0,0,0,0,0,0,0,0,0,-1,951,757,0,0
-266,267,0,0,0,0,0,0,0,0,0,-1,958,757,0,0
-259,267,0,0,0,0,0,0,0,0,0,-1,965,757,0,0
-252,267,0,0,0,0,0,0,0,0,0,-1,972,757,0,0
-245,267,0,0,0,0,0,0,0,0,0,-1,979,757,0,0
-238,267,0,0,0,0,0,0,0,0,0,-1,986,757,0,0
-231,267,0,0,0,0,0,0,0,0,0,-1,993,757,0,0
-224,267,0,0,0,0,0,0,0,0,0,-1,1000,757,0,0
-217,267,0,0,0,0,0,0,0,0,0,-1,1007,757,0,0
-210,267,0,0,0,0,0,0,0,0,0,-1,1014,757,0,0
-203,267,0,0,0,0,0,0,0,0,0,-1,1021,757,0,0
-196,267,0,0,0,0,0,0,0,0,0,-1,1028,757,0,0
-189,267,0,0,0,0,0,0,0,0,0,-1,1035,757,0,0
-182,267,0,0,0,0,0,0,0,0,0,-1,1042,757,0,0
-175,267,0,0,0,0,0,0,0,0,0,-1,1049,757,0,0
-168,267,0,0,0,0,0,0,0,0,0,-1,1056,757,0,0
-161,267,0,0,0,0,0,0,0,0,0,-1,1063,757,0,0
-154,267,0,0,0,0,0,0,0,0,0,-1,1070,757,0,0
-147,267,0,0,0,0,0,0,0,0,0,-1,1077,757,0,0
-140,267,0,0,0,0,0,0,0,0,0,-1,1084,757,0,0
-133,267,0,0,0,0,0,0,0,0,0,-1,1091,757,0,0
-126,267,0,0,0,0,0,0,0,0,0,-1,1098,757,0,0
-119,267,0,0,0,0,0,0,0,0,0,-1,1105,757,0,0
-112,267,0,0,0,0,0,0,0,0,0,-1,1112,757,0,0
-105,267,0,0,0,0,0,0,0,0,0,-1,1119,757,0,0
-98,267,0,0,0,0,0,0,0,0,0,-1,1126,757,0,0
-91,267,0,0,0,0,0,0,0,0,0,-1,1133,757,0,0
-84,267,0,0,0,0,0,0,0,0,0,-1,1140,757,0,0
-77,267,0,0,0,0,0,0,0,0,0,-1,1147,757,0,0
-70,267,0,0,0,0,0,0,0,0,0,-1,1154,757,0,0
-63,267,0,0,0,0,0,0,0,0,0,-1,1161,757,0,0
-56,267,0,0,0,0,0,0,0,0,0,-1,1168,757,0,0
-49,267,0,0,0,0,0,0,0,0,0,-1,1175,757,0,0
-42,267,0,0,0,0,0,0,0,0,0,-1,1182,757,0,0
-35,267,0,0,0,0,0,0,0,0,0,-1,1189,757,0,0
-28,267,0,0,0,0,0,0,0,0,0,-1,1196,757,0,0
-21,267,0,0,0,0,0,0,0,0,0,-1,1203,757,0,0
-14,267,0,0,0,0,0,0,0,0,0,-1,1210,757,0,0
-7,267,0,0,0,0,0,0,0,0,0,-1,1217,757,0,0
0,267,0,0,0,0,0,0,0,0,0,-1,1224,757,0,0
7,267,0,0,0,0,0,0,0,0,0,-1,1231,757,0,0
14,267,0,0,0,0,0,0,0,0,0,-1,1238,757,0,0
21,267,0,0,0,0,0,0,0,0,0,-1,1245,757,0,0
28,267,0,0,0,0,0,0,0,0,0,-1,1252,757,0,0
35,267,0,0,0,0,0,0,0,0,0,-1,1259,757,0,0
42,267,0,0,0,0,0,0,0,0,0,-1,1266,757,0,0
49,267,0,0,0,0,0,0,0,0,0,-1,1273,757,0,0
56,267,0,0,0,0,0,0,0,0,0,-1,1280,757,0,0
63,267,0,0,0,0,0,0,0,0,0,-1,1287,757,0,0
70,267,0,0,0,0,0,0,0,0,0,-1,1294,757,0,0
77,267,0,0,0,0,0,0,0,0,0,-1,1301,757,0,0
84,267,0,0,0,0,0,0,0,0,0,-1,1308,757,0,0
91,267,0,0,0,0,0,0,0,0,0,-1,1315,757,0,0
98,267,0,0,0,0,0,0,0,0,0,-1,1322,757,0,0
105,267,0,0,0,0,0,0,0,0,0,-1,1329,757,0,0
112,267,0,0,0,0,0,0,0,0,0,-1,1336,757,0,0
119,267,0,0,0,0,0,0,0,0,0,-1,1343,757,0,0
126,267,0,0,0,0,0,0,0,0,0,-1,1350,757,0,0
133,267,0,0,0,0,0,0,0,0,0,-1,1357,757,0,0
140,267,0,0,0,0,0,0,0,0,0,-1,1364,757,0,0
147,267,0,0,0,0,0,0,0,0,0,-1,1371,757,0,0
154,267,0,0,0,0,0,0,0,0,0,-1,1378,757,0,0
161,267,0,0,0,0,0,0,0,0,0,-1,1385,757,0,0
168,267,0,0,0,0,0,0,0,0,0,-1,1392,757,0,0
175,267,0,0,0,0,0,0,0,0,0,-1,1399,757,0,0
182,267,0,0,0,0,0,0,0,0,0,-1,1406,757,0,0
189,267,0,0,0,0,0,0,0,0,0,-1,1413,757,0,0
196,267,0,0,0,0,0,0,0,0,0,-1,1420,757,0,0
203,267,0,0,0,0,0,0,0,0,0,-1,1427,757,0,0
210,267,0,0,0,0,0,0,0,0,0,-1,1434,757,0,0
217,267,0,0,0,0,0,0,0,0,0,-1,1441,757,0,0
224,267,0,0,0,0,0,0,0,0,0,-1,1448,757,0,0
231,267,0,0,0,0,0,0,0,0,0,-1,1455,757,0,0
238,267,0,0,0,0,0,0,0,0,0,-1,1462,757,0,0
245,267,0,0,0,0,0,0,0,0,0,-1,1469,757,0,0
252,267,0,0,0,0,0,0,0,0,0,-1,1476,757,0,0
259,267,0,0,0,0,0,0,0,0,0,-1,1483,757,0,0
266,267,0,0,0,0,0,0,0,0,0,-1,1490,757,0,0
273,267,0,0,0,0,0,0,0,0,0,-1,1497,757,0,0
280,267,0,0,0,0,0,0,0,0,0,-1,1504,757,0,0
287,267,0,0,0,0,0,0,0,0,0,-1,1511,757,0,0
294,267,0,0,0,0,0,0,0,0,0,-1,1518,757,0,0
301,267,0,0,0,0,0,0,0,0,0,-1,1525,757,0,0
308,267,0,0,0,0,0,0,0,0,0,-1,1532,757,0,0
315,267,0,0,0,0,0,0,0,0,0,-1,1539,757,0,0
322,267,0,0,0,0,0,0,0,0,0,-1,1546,757,0,0
329,267,0,0,0,0,0,0,0,0,0,-1,1553,757,0,0
336,267,0,0,0,0,0,0,0,0,0,-1,1560,757,0,0
343,267,0,0,0,0,0,0,0,0,0,-1,1567,757,0,0
350,267,0,0,0,0,0,0,0,0,0,-1,1574,757,0,0
357,267,0,0,0,0,0,0,0,0,0,-1,1581,757,0,0
364,267,0,0,0,0,0,0,0,0,0,-1,1588,757,0,0
371,267,0,0,0,0,0,0,0,0,0,-1,1595,757,0,0
378,267,0,0,0,0,0,0,0,0,0,-1,1602,757,0,0
385,267,0,0,0,0,0,0,0,0,0,-1,1609,757,0,0
392,267,0,0,0,0,0,0,0,0,0,-1,1616,757,0,0
399,267,0,0,0,0,0,0,0,0,0,-1,1623,757,0,0
406,267,0,0,0,0,0,0,0,0,0,-1,1630,757,0,0
413,267,0,0,0,0,0,0,0,0,0,-1,1637,757,0,0
420,267,0,0,0,0,0,0,0,0,0,-1,1644,757,0,0
427,267,0,0,0,0,0,0,0,0,0,-1,1651,757,0,0
434,267,0,0,0,0,0,0,0,0,0,-1,1658,757,0,0
441,267,0,0,0,0,0,0,0,0,0,-1,1665,757,0,0
448,267,0,0,0,0,0,0,0,0,0,-1,1672,757,0,0
455,267,0,0,0,0,0,0,0,0,0,-1,1679,757,0,0
462,267,0,0,0,0,0,0,0,0,0,-1,1686,757,0,0
469,267,0,0,0,0,0,0,0,0,0,-1,1693,757,0,0
476,267,0,0,0,0,0,0,0,0,0,-1,1700,757,0,0
483,267,0,0,0,0,0,0,0,0,0,-1,1707,757,0,0
490,267,0,0,0,0,0,0,0,0,0,-1,1714,757,0,0
497,267,0,0,0,0,0,0,0,0,0,-1,1721,757,0,0
504,267,0,0,0,0,0,0,0,0,0,-1,1728,757,0,0
511,267,0,0,0,0,0,0,0,0,0,-1,1735,757,0,0
518,267,0,0,0,0,0,0,0,0,0,-1,1742,757,0,0
525,267,0,0,0,0,0,0,0,0,0,-1,1749,757,0,0
532,267,0,0,0,0,0,0,0,0,0,-1,1756,757,0,0
539,267,0,0,0,0,0,0,0,0,0,-1,1763,757,0,0
546,267,0,0,0,0,0,0,0,0,0,-1,1770,757,0,0
553,267,0,0,0,0,0,0,0,0,0,-1,1777,757,0,0
560,267,0,0,0,0,0,0,0,0,0,-1,1784,757,0,0
567,267,-0.0864258,-0.0078125,0.0156705,0.00127593,0.00224551,0.0160127,0.000933774,0.151212,0.0103779,0.0314853,1791,757,-0.0864369,0.0078144
574,267,-0.036499,-0.0986328,0.014136,-0.00063028,0.00237121,0.0145074,-0.00100171,0.15538,0.0100222,0.0346121,1798,757,-0.0365146,0.0986295
581,267,0.305542,-0.313232,0.0123919,-0.0019622,0.00237505,0.0127746,-0.00234497,0.15979,0.00939612,0.0354057,1805,757,0.305531,0.313222
588,267,0.769653,-0.633667,0.0100073,-0.0029211,0.00231948,0.0104109,-0.00332464,0.172255,0.0082745,0.0412812,1812,757,0.769659,0.633696
595,267,1.19373,-0.946289,0.00781892,-0.00341707,0.00239016,0.00830623,-0.00390438,0.201125,0.00720087,0.0477659,1819,757,1.19371,0.946272
602,267,1.57678,-1.24353,0,0,0,0,0,0,0,-1,1826,757,1.57684,1.24352
609,267,0.290039,-0.711365,0.00377579,-0.00360413,0.00236413,0.00446817,-0.00429651,0.284902,0.00506061,0.0442696,1833,757,0.290082,0.711335
616,267,-0.0371094,-0.611511,0.00205132,-0.00352645,0.00245827,0.00298009,-0.00445522,0.361237,0.00432085,0.0420681,1840,757,-0.0370639,0.611534
623,267,-0.337769,-0.518494,0,0,0,0,0,0,0,-1,1847,757,-0.337786,0.51847
630,267,0.476563,-1.22961,0,0,0,0,0,0,0,-1,1854,757,0.476595,1.22961
637,267,-0.0820313,-0.0621338,-0.00135268,-0.00209409,0.00222395,0.000531255,-0.00397802,0.702813,0.00284568,0.022715,1861,757,-0.0820254,0.0621069
644,267,-0.0823975,-0.059021,-0.00224035,-0.00135788,0.00205708,0.000304752,-0.00390298,0.891046,0.00270929,0.0108683,1868,757,-0.082429,0.0590328
651,267,-0.0906982,-0.069519,-0.00261278,-0.000719219,0.00170744,0.000286372,-0.00361837,1.03854,0.00251315,0.0131859,1875,757,-0.090639,0.0695487
658,267,-0.0853271,-0.0727539,-0.00199665,-0.000270755,0.0018715,0.000927166,-0.00319457,1.00142,0.00249683,0.0129937,1882,757,-0.0853067,0.0727486
665,267,-0.0550537,-0.0637207,-0.00152104,0.000320613,0.00175752,0.00138393,-0.00258436,1.0267,0.00232577,0.0139671,1889,757,-0.0550099,0.0637023
672,267,-0.0617676,-0.0637817,-0.00120389,0.000903443,0.00120471,0.00145026,-0.0017507,1.14471,0.00185078,0.0127073,1896,757,-0.0617879,0.0638001
679,267,-0.0788574,-0.0744019,-0.000780734,0.00136366,0.000600342,0.00152029,-0.000937364,1.31558,0.00143217,0.0123742,1903,757,-0.078843,0.0743786
686,267,-0.0919189,-0.0616455,-0.000342798,0.00152264,-0.000205093,0.00154492,-0.000365081,-1.46258,0.00117077,0.0114361,1910,757,-0.0919759,0.0616299
693,267,-0.0683594,-0.0405273,-0.000540195,0.00128972,-0.000667003,0.00150704,-0.000757509,-1.25583,0.00133109,0.0104351,1917,757,-0.0683714,0.0405535
700,267,-0.0650635,-0.0355225,-0.00119512,0.000569516,-0.00117494,0.00115654,-0.00178214,-1.10745,0.00170942,0.0127668,1924,757,-0.0650493,0.0355271
707,267,-0.074707,-0.0598145,-0.00214557,-0.000237188,-0.00187735,0.000914543,-0.0032973,-1.02052,0.00255813,0.0139011,1931,757,-0.0746501,0.0597882
714,267,-0.0638428,-0.116455,-0.00325202,-0.0017153,-0.00281631,0.000435586,-0.0054029,-0.91857,0.00375556,0.0273616,1938,757,-0.0638058,0.116483
721,267,-0.266968,-0.311646,-0.00499147,-0.00412708,-0.00386249,-0.000672677,-0.00844587,-0.841114,0.00542029,0.0441986,1945,757,-0.266944,0.311659
728,267,-0.369507,-0.561768,-0.00769423,-0.00774784,-0.00485148,-0.00286948,-0.0125726,-0.782635,0.0076078,0.0499699,1952,757,-0.369529,0.56177
735,267,-0.308228,-0.730774,0,0,0,0,0,0,0,-1,1959,757,-0.308208,0.730767
742,267,0.403564,1.33795,0,0,0,0,0,0,0,-1,1966,757,0.403613,-1.33797
749,267,0,0,0,0,0,0,0,0,0,-1,1973,757,0,0
756,267,0,0,0,0,0,0,0,0,0,-1,1980,757,0,0
763,267,0,0,0,0,0,0,0,0,0,-1,1987,757,0,0
770,267,0,0,0,0,0,0,0,0,0,-1,1994,757,0,0
777,267,0,0,0,0,0,0,0,0,0,-1,2001,757,0,0
784,267,0,0,0,0,0,0,0,0,0,-1,2008,757,0,0
791,267,0,0,0,0,0,0,0,0,0,-1,2015,757,0,0
798,267,0,0,0,0,0,0,0,0,0,-1,2022,757,0,0
805,267,0,0,0,0,0,0,0,0,0,-1,2029,757,0,0
812,267,0,0,0,0,0,0,0,0,0,-1,2036,757,0,0
-700,260,0,0,0,0,0,0,0,0,0,-1,524,764,0,0
-693,260,0,0,0,0,0,0,0,0,0,-1,531,764,0,0
-686,260,0,0,0,0,0,0,0,0,0,-1,538,764,0,0
-679,260,0,0,0,0,0,0,0,0,0,-1,545,764,0,0
-672,260,0,0,0,0,0,0,0,0,0,-1,552,764,0,0
-665,260,0,0,0,0,0,0,0,0,0,-1,559,764,0,0
-658,260,0,0,0,0,0,0,0,0,0,-1,566,764,0,0
-651,260,0,0,0,0,0,0,0,0,0,-1,573,764,0,0
-644,260,0,0,0,0,0,0,0,0,0,-1,580,764,0,0
-637,260,0,0,0,0,0,0,0,0,0,-1,587,764,0,0
-630,260,-0.887146,1.2829,-0.00968919,0.042262,-0.0261493,0.0531445,-0.0205717,-1.17643,0.0439232,0.0480811,594,764,-0.887148,-1.28287
-623,260,-1.03815,1.1355,-0.00210829,0.0325418,-0.0209219,0.0423808,-0.0119473,-1.13121,0.032966,0.0476089,601,764,-1.03815,-1.13549
-616,260,-1.06989,0.813965,0.00182706,0.0247208,-0.0165558,0.0334017,-0.00685383,-1.08787,0.0248692,0.0496628,608,764,-1.06988,-0.813972
-609,260,0.625244,0.887085,0.00353493,0.0185095,-0.0129247,0.025959,-0.00391458,-1.04793,0.0187476,0.0426899,615,764,0.625256,-0.887067
-602,260,0.358704,0.786316,0.00385582,0.0136625,-0.00993803,0.019841,-0.00232268,-1.01457,0.0140656,0.0433873,622,764,0.358696,-0.786295
-595,260,0.0959473,0.276428,0,0,0,0,0,0,0,-1,629,764,0.0959372,-0.276426
-588,260,0.0343018,0.149231,0.00315237,0.00733988,-0.00542264,0.0110589,-0.000566691,-0.969637,0.0075686,0.0402543,636,764,0.0343165,-0.149234
-581,260,-0.0350342,0.0183716,0.00279943,0.0047527,-0.00411564,0.00800599,-0.000453866,-0.901893,0.00549487,0.0195632,643,764,-0.0350555,-0.0183701
-574,260,-0.0765381,-0.0358276,0.00195321,0.00276952,-0.00260871,0.00500181,-0.000279085,-0.862999,0.00343136,0.0133435,650,764,-0.0765157,0.0358458
-567,260,-0.0721436,-0.0463257,0.00134345,0.00151097,-0.00132595,0.0027558,9.86111e-05,-0.816941,0.00180523,0.0152491,657,764,-0.0721575,0.0463343
-560,260,-0.0772095,-0.0228882,-0.000356385,0.00121998,-0.000907533,0.00163382,-0.000770221,-1.14296,0.00141751,0.0172146,664,764,-0.0771951,0.0229106
-553,260,-0.0702515,-0.0250854,-0.000889337,0.00170046,-0.000782517,0.00191853,-0.00110741,-1.29901,0.00176783,0.0157388,671,764,-0.0702758,0.0250585
-546,260,-0.0648804,-0.022522,-0.000571743,0.00203756,-0.000377309,0.00209103,-0.000625207,-1.43004,0.00164257,0.0101191,678,764,-0.0648741,0.022516
-539,260,-0.0700684,-0.02948,-0.000877143,0.00247371,-0.000273703,0.00249592,-0.000899352,-1.48983,0.00203122,0.00943995,685,764,-0.07005,0.0294614
-532,260,-0.0810547,-0.0385742,-0.00105111,0.00335236,-0.000270757,0.00336895,-0.0010677,-1.50962,0.00267389,0.0108772,692,764,-0.0810704,0.0385884
-525,260,-0.0769043,-0.0392456,-0.00127028,0.00421264,-0.000302476,0.00422928,-0.00128691,-1.51585,0.00333238,0.0110114,699,764,-0.0769004,0.0392311
-518,260,-0.0814209,-0.0421143,-0.00165871,0.00526702,-0.000433798,0.00529409,-0.00168577,-1.50849,0.00420549,0.0115634,706,764,-0.0814385,0.0420873
-511,260,-0.0933838,-0.0498657,-0.00213217,0.00617294,-0.000660041,0.00622507,-0.0021843,-1.49198,0.00503852,0.0173643,713,764,-0.093356,0.0498809
-504,260,-0.110107,-0.0897217,-0.00242183,0.00702745,-0.000799879,0.00709468,-0.00248906,-1.48694,0.0057422,0.0323882,720,764,-0.110114,0.089698
-497,260,-0.117126,-0.153198,0,0,0,0,0,0,0,-1,727,764,-0.11715,0.153186
-490,260,-1.23169,1.16522,0,0,0,0,0,0,0,-1,734,764,-1.23172,-1.16519
-483,260,-0.194214,-0.607422,0,0,0,0,0,0,0,-1,741,764,-0.194225,0.607449
-476,260,0.608093,0.222229,0,0,0,0,0,0,0,-1,748,764,0.608094,-0.222218
-469,260,0.618042,0.296814,0,0,0,0,0,0,0,-1,755,764,0.618064,-0.296806
-462,260,0.184753,0.215088,0,0,0,0,0,0,0,-1,762,764,0.184726,-0.215072
-455,260,0.0022583,0.170471,0,0,0,0,0,0,0,-1,769,764,0.00226582,-0.170453
-448,260,0,0,0,0,0,0,0,0,0,-1,776,764,0,0
-441,260,0,0,0,0,0,0,0,0,0,-1,783,764,0,0
-434,260,0,0,0,0,0,0,0,0,0,-1,790,764,0,0
-427,260,0,0,0,0,0,0,0,0,0,-1,797,764,0,0
-420,260,0,0,0,0,0,0,0,0,0,-1,804,764,0,0
-413,260,0,0,0,0,0,0,0,0,0,-1,811,764,0,0
-406,260,0,0,0,0,0,0,0,0,0,-1,818,764,0,0
-399,260,0,0,0,0,0,0,0,0,0,-1,825,764,0,0
-392,260,0,0,0,0,0,0,0,0,0,-1,832,764,0,0
-385,260,0,0,0,0,0,0,0,0,0,-1,839,764,0,0
-378,260,0,0,0,0,0,0,0,0,0,-1,846,764,0,0
-371,260,0,0,0,0,0,0,0,0,0,-1,853,764,0,0
-364,260,0,0,0,0,0,0,0,0,0,-1,860,764,0,0
-357,260,0,0,0,0,0,0,0,0,0,-1,867,764,0,0
-350,260,0,0,0,0,0,0,0,0,0,-1,874,764,0,0
-343,260,0,0,0,0,0,0,0,0,0,-1,881,764,0,0
-336,260,0,0,0,0,0,0,0,0,0,-1,888,764,0,0
-329,260,0,0,0,0,0,0,0,0,0,-1,895,764,0,0
-322,260,0,0,0,0,0,0,0,0,0,-1,902,764,0,0
-315,260,0,0,0,0,0,0,0,0,0,-1,909,764,0,0
-308,260,0,0,0,0,0,0,0,0,0,-1,916,764,0,0
-301,260,0,0,0,0,0,0,0,0,0,-1,923,764,0,0
-294,260,0,0,0,0,0,0,0,0,0,-1,930,764,0,0
-287,260,0,0,0,0,0,0,0,0,0,-1,937,764,0,0
-280,260,0,0,0,0,0,0,0,0,0,-1,944,764,0,0
-273,260,0,0,0,0,0,0,0,0,0,-1,951,764,0,0
-266,260,0,0,0,0,0,0,0,0,0,-1,958,764,0,0
-259,260,0,0,0,0,0,0,0,0,0,-1,965,764,0,0
-252,260,0,0,0,0,0,0,0,0,0,-1,972,764,0,0
-245,260,0,0,0,0,0,0,0,0,0,-1,979,764,0,0
-238,260,0,0,0,0,0,0,0,0,0,-1,986,764,0,0
-231,260,0,0,0,0,0,0,0,0,0,-1,993,764,0,0
-224,260,0,0,0,0,0,0,0,0,0,-1,1000,764,0,0
-217,260,0,0,0,0,0,0,0,0,0,-1,1007,764,0,0
-210,260,0,0,0,0,0,0,0,0,0,-1,1014,764,0,0
-203,260,0,0,0,0,0,0,0,0,0,-1,1021,764,0,0
-196,260,0,0,0,0,0,0,0,0,0,-1,1028,764,0,0
-189,260,0,0,0,0,0,0,0,0,0,-1,1035,764,0,0
-182,260,0,0,0,0,0,0,0,0,0,-1,1042,764,0,0
-175,260,0,0,0,0,0,0,0,0,0,-1,1049,764,0,0
-168,260,0,0,0,0,0,0,0,0,0,-1,1056,764,0,0
-161,260,0,0,0,0,0,0,0,0,0,-1,1063,764,0,0
-154,260,0,0,0,0,0,0,0,0,0,-1,1070,764,0,0
-147,260,0,0,0,0,0,0,0,0,0,-1,1077,764,0,0
-140,260,0,0,0,0,0,0,0,0,0,-1,1084,764,0,0
-133,260,0,0,0,0,0,0,0,0,0,-1,1091,764,0,0
-126,260,0,0,0,0,0,0,0,0,0,-1,1098,764,0,0
-119,260,0,0,0,0,0,0,0,0,0,-1,1105,764,0,0
-112,260,0,0,0,0,0,0,0,0,0,-1,1112,764,0,0
-105,260,0,0,0,0,0,0,0,0,0,-1,1119,764,0,0
-98,260,0,0,0,0,0,0,0,0,0,-1,1126,764,0,0
-91,260,0,0,0,0,0,0,0,0,0,-1,1133,764,0,0
-84,260,0,0,0,0,0,0,0,0,0,-1,1140,764,0,0
-77,260,0,0,0,0,0,0,0,0,0,-1,1147,764,0,0
-70,260,0,0,0,0,0,0,0,0,0,-1,1154,764,0,0
-63,260,0,0,0,0,0,0,0,0,0,-1,1161,764,0,0
-56,260,0,0,0,0,0,0,0,0,0,-1,1168,764,0,0
-49,260,0,0,0,0,0,0,0,0,0,-1,1175,764,0,0
-42,260,0,0,0,0,0,0,0,0,0,-1,1182,764,0,0
-35,260,0,0,0,0,0,0,0,0,0,-1,1189,764,0,0
-28,260,0,0,0,0,0,0,0,0,0,-1,1196,764,0,0
-21,260,0,0,0,0,0,0,0,0,0,-1,1203,764,0,0
-14,260,0,0,0,0,0,0,0,0,0,-1,1210,764,0,0
-7,260,0,0,0,0,0,0,0,0,0,-1,1217,764,0,0
0,260,0,0,0,0,0,0,0,0,0,-1,1224,764,0,0
7,260,0,0,0,0,0,0,0,0,0,-1,1231,764,0,0
14,260,0,0,0,0,0,0,0,0,0,-1,1238,764,0,0
21,260,0,0,0,0,0,0,0,0,0,-1,1245,764,0,0
28,260,0,0,0,0,0,0,0,0,0,-1,1252,764,0,0
35,260,0,0,0,0,0,0,0,0,0,-1,1259,764,0,0
42,260,0,0,0,0,0,0,0,0,0,-1,1266,764,0,0
49,260,0,0,0,0,0,0,0,0,0,-1,1273,764,0,0
56,260,0,0,0,0,0,0,0,0,0,-1,1280,764,0,0
63,260,0,0,0,0,0,0,0,0,0,-1,1287,764,0,0
70,260,0,0,0,0,0,0,0,0,0,-1,1294,764,0,0
77,260,0,0,0,0,0,0,0,0,0,-1,1301,764,0,0
84,260,0,0,0,0,0,0,0,0,0,-1,1308,764,0,0
91,260,0,0,0,0,0,0,0,0,0,-1,1315,764,0,0
98,260,0,0,0,0,0,0,0,0,0,-1,1322,764,0,0
105,260,0,0,0,0,0,0,0,0,0,-1,1329,764,0,0
112,260,0,0,0,0,0,0,0,0,0,-1,1336,764,0,0
119,260,0,0,0,0,0,0,0,0,0,-1,1343,764,0,0
126,260,0,0,0,0,0,0,0,0,0,-1,1350,764,0,0
133,260,0,0,0,0,0,0,0,0,0,-1,1357,764,0,0
140,260,0,0,0,0,0,0,0,0,0,-1,1364,764,0,0
147,260,0,0,0,0,0,0,0,0,0,-1,1371,764,0,0
154,260,0,0,0,0,0,0,0,0,0,-1,1378,764,0,0
161,260,0,0,0,0,0,0,0,0,0,-1,1385,764,0,0
168,260,0,0,0,0,0,0,0,0,0,-1,1392,764,0,0
175,260,0,0,0,0,0,0,0,0,0,-1,1399,764,0,0
182,260,0,0,0,0,0,0,0,0,0,-1,1406,764,0,0
189,260,0,0,0,0,0,0,0,0,0,-1,1413,764,0,0
196,260,0,0,0,0,0,0,0,0,0,-1,1420,764,0,0
203,260,0,0,0,0,0,0,0,0,0,-1,1427,764,0,0
210,260,0,0,0,0,0,0,0,0,0,-1,1434,764,0,0
217,260,0,0,0,0,0,0,0,0,0,-1,1441,764,0,0
224,260,0,0,0,0,0,0,0,0,0,-1,1448,764,0,0
231,260,0,0,0,0,0,0,0,0,0,-1,1455,764,0,0
238,260,0,0,0,0,0,0,0,0,0,-1,1462,764,0,0
245,260,0,0,0,0,0,0,0,0,0,-1,1469,764,0,0
252,260,0,0,0,0,0,0,0,0,0,-1,1476,764,0,0
259,260,0,0,0,0,0,0,0,0,0,-1,1483,764,0,0
266,260,0,0,0,0,0,0,0,0,0,-1,1490,764,0,0
273,260,0,0,0,0,0,0,0,0,0,-1,1497,764,0,0
280,260,0,0,0,0,0,0,0,0,0,-1,1504,764,0,0
287,260,0,0,0,0,0,0,0,0,0,-1,1511,764,0,0
294,260,0,0,0,0,0,0,0,0,0,-1,1518,764,0,0
301,260,0,0,0,0,0,0,0,0,0,-1,1525,764,0,0
308,260,0,0,0,0,0,0,0,0,0,-1,1532,764,0,0
315,260,0,0,0,0,0,0,0,0,0,-1,1539,764,0,0
322,260,0,0,0,0,0,0,0,0,0,-1,1546,764,0,0
329,260,0,0,0,0,0,0,0,0,0,-1,1553,764,0,0
336,260,0,0,0,0,0,0,0,0,0,-1,1560,764,0,0
343,260,0,0,0,0,0,0,0,0,0,-1,1567,764,0,0
350,260,0,0,0,0,0,0,0,0,0,-1,1574,764,0,0
357,260,0,0,0,0,0,0,0,0,0,-1,1581,764,0,0
364,260,0,0,0,0,0,0,0,0,0,-1,1588,764,0,0
371,260,0,0,0,0,0,0,0,0,0,-1,1595,764,0,0
378,260,0,0,0,0,0,0,0,0,0,-1,1602,764,0,0
385,260,0,0,0,0,0,0,0,0,0,-1,1609,764,0,0
392,260,0,0,0,0,0,0,0,0,0,-1,1616,764,0,0
399,260,0,0,0,0,0,0,0,0,0,-1,1623,764,0,0
406,260,0,0,0,0,0,0,0,0,0,-1,1630,764,0,0
413,260,0,0,0,0,0,0,0,0,0,-1,1637,764,0,0
420,260,0,0,0,0,0,0,0,0,0,-1,1644,764,0,0
427,260,0,0,0,0,0,0,0,0,0,-1,1651,764,0,0
434,260,0,0,0,0,0,0,0,0,0,-1,1658,764,0,0
441,260,0,0,0,0,0,0,0,0,0,-1,1665,764,0,0
448,260,0,0,0,0,0,0,0,0,0,-1,1672,764,0,0
455,260,0,0,0,0,0,0,0,0,0,-1,1679,764,0,0
462,260,0,0,0,0,0,0,0,0,0,-1,1686,764,0,0
469,260,0,0,0,0,0,0,0,0,0,-1,1693,764,0,0
476,260,0,0,0,0,0,0,0,0,0,-1,1700,764,0,0
483,260,0,0,0,0,0,0,0,0,0,-1,1707,764,0,0
490,260,0,0,0,0,0,0,0,0,0,-1,1714,764,0,0
497,260,0,0,0,0,0,0,0,0,0,-1,1721,764,0,0
504,260,0,0,0,0,0,0,0,0,0,-1,1728,764,0,0
511,260,0,0,0,0,0,0,0,0,0,-1,1735,764,0,0
518,260,0,0,0,0,0,0,0,0,0,-1,1742,764,0,0
525,260,0,0,0,0,0,0,0,0,0,-1,1749,764,0,0
532,260,0,0,0,0,0,0,0,0,0,-1,1756,764,0,0
539,260,0,0,0,0,0,0,0,0,0,-1,1763,764,0,0
546,260,0,0,0,0,0,0,0,0,0,-1,1770,764,0,0
553,260,0,0,0,0,0,0,0,0,0,-1,1777,764,0,0
560,260,0,0,0,0,0,0,0,0,0,-1,1784,764,0,0
567,260,0,0,0,0,0,0,0,0,0,-1,1791,764,0,0
574,260,-0.0704346,-0.032959,0.01445,-0.00216835,0.00245057,0.0148038,-0.00252219,0.143397,0.0108085,0.0312585,1798,764,-0.0704039,0.0329362
581,260,0.0859375,-0.193787,0.0130681,-0.00313784,0.00246786,0.0134356,-0.00350532,0.147818,0.0103258,0.035122,1805,764,0.0858966,0.193807
588,260,0.243164,-0.277527,0.0108611,-0.00405059,0.00252853,0.0112782,-0.00446768,0.163481,0.00937007,0.0391314,1812,764,0.243203,0.27751
595,260,0.782349,-0.849304,0.00837563,-0.00448073,0.00260266,0.00888252,-0.00498763,0.192354,0.0081125,0.0444301,1819,764,0.782375,0.8493
602,260,0.422852,-0.705444,0.00582382,-0.0045795,0.0025965,0.00643586,-0.00519154,0.231491,0.00672588,0.045961,1826,764,0.422863,0.705416
609,260,0.306885,-0.823364,0.00361109,-0.00458653,0.00271181,0.00442697,-0.00540241,0.292246,0.0056843,0.0424979,1833,764,0.306882,0.823378
616,260,0.405396,-0.974365,0,0,0,0,0,0,0,-1,1840,764,0.405402,0.974358
623,260,0.607422,-1.52307,0,0,0,0,0,0,0,-1,1847,764,0.607395,1.52308
630,260,0.25415,-1.07208,-0.000881638,-0.00335869,0.00262929,0.000786225,-0.00502656,0.565288,0.00364151,0.0487765,1854,764,0.254172,1.07207
637,260,-0.126343,-0.326233,-0.00159326,-0.00255012,0.00242045,0.000395596,-0.00453897,0.687826,0.0031661,0.0408751,1861,764,-0.126397,0.326227
644,260,-0.105469,-0.0456543,-0.00242726,-0.00175006,0.00218165,0.000119109,-0.00429643,0.862385,0.0029048,0.0218723,1868,764,-0.10546,0.0456821
651,260,-0.078125,-0.0484009,-0.00276507,-0.0010147,0.00175697,7.29929e-05,-0.00385276,1.01647,0.00259318,0.0125358,1875,764,-0.0781413,0.0483836
658,260,-0.0668945,-0.0501099,-0.00214538,-0.000477994,0.00179646,0.000668794,-0.00329216,1.00265,0.00244835,0.0136757,1882,764,-0.0668614,0.050129
665,260,-0.0529785,-0.0547485,-0.00164506,0.000155224,0.00160109,0.00109186,-0.00258169,1.04148,0.00217829,0.013485,1889,764,-0.0530211,0.0547415
672,260,-0.0732422,-0.0686646,-0.00126226,0.000728535,0.000994545,0.00114024,-0.00167397,1.17831,0.00163449,0.0126814,1896,764,-0.0732824,0.0686805
679,260,-0.110962,-0.0632324,-0.000756012,0.00103515,0.000331275,0.00109445,-0.000815318,1.39365,0.00110653,0.0124663,1903,764,-0.111,0.0632137
686,260,-0.0986328,-0.0470581,-0.000239779,0.00106538,-0.000544128,0.00126247,-0.000436867,-1.22329,0.00101898,0.0114489,1910,764,-0.098579,0.0470518
693,260,-0.0754395,-0.0391846,-0.00037546,0.000559309,-0.00107194,0.00126133,-0.00107748,-0.990981,0.0013517,0.0105157,1917,764,-0.0754957,0.0391603
700,260,-0.0804443,-0.0301514,-0.00103372,-0.000506086,-0.00161746,0.000868928,-0.00240873,-0.866239,0.00196073,0.0111178,1924,764,-0.0805019,0.0301608
707,260,-0.0928955,-0.0432129,-0.00211258,-0.0016268,-0.002349,0.000491841,-0.00423122,-0.836915,0.00299824,0.0125493,1931,764,-0.0928512,0.0431995
714,260,-0.0474854,-0.0778809,-0.00337466,-0.00347174,-0.00325913,-0.000163706,-0.0066827,-0.777952,0.00440158,0.0216827,1938,764,-0.0474628,0.0778801
721,260,-0.14978,-0.273315,-0.00537525,-0.00626562,-0.00418722,-0.00160961,-0.0100313,-0.732437,0.00622077,0.0395944,1945,764,-0.149838,0.27331
728,260,-0.562744,-0.620667,-0.00849918,-0.0102775,-0.00497637,-0.00433314,-0.0144435,-0.696994,0.00855844,0.0462167,1952,764,-0.562686,0.620637
735,260,-0.672485,-1.19788,-0.0132235,-0.0157496,-0.0053509,-0.0089886,-0.0199845,-0.669495,0.0115574,0.0468389,1959,764,-0.672427,1.1979
742,260,-0.601074,-1.74304,0,0,0,0,0,0,0,-1,1966,764,-0.601095,1.74304
749,260,-0.17627,-0.321411,0,0,0,0,0,0,0,-1,1973,764,-0.176227,0.321414
756,260,0,0,0,0,0,0,0,0,0,-1,1980,764,0,0
763,260,0,0,0,0,0,0,0,0,0,-1,1987,764,0,0
770,260,0,0,0,0,0,0,0,0,0,-1,1994,764,0,0
777,260,0,0,0,0,0,0,0,0,0,-1,2001,764,0,0
784,260,0,0,0,0,0,0,0,0,0,-1,2008,764,0,0
791,260,0,0,0,0,0,0,0,0,0,-1,2015,764,0,0
798,260,0,0,0,0,0,0,0,0,0,-1,2022,764,0,0
805,260,0,0,0,0,0,0,0,0,0,-1,2029,764,0,0
812,260,0,0,0,0,0,0,0,0,0,-1,2036,764,0,0
-700,253,0,0,0,0,0,0,0,0,0,-1,524,771,0,0
-693,253,0,0,0,0,0,0,0,0,0,-1,531,771,0,0
-686,253,0,0,0,0,0,0,0,0,0,-1,538,771,0,0
-679,253,0,0,0,0,0,0,0,0,0,-1,545,771,0,0
-672,253,0,0,0,0,0,0,0,0,0,-1,552,771,0,0
-665,253,0,0,0,0,0,0,0,0,0,-1,559,771,0,0
-658,253,0,0,0,0,0,0,0,0,0,-1,566,771,0,0
-651,253,0,0,0,0,0,0,0,0,0,-1,573,771,0,0
-644,253,0,0,0,0,0,0,0,0,0,-1,580,771,0,0
-637,253,0.719604,-0.246216,-0.0285611,0.0501133,-0.0300314,0.0602665,-0.0387143,-1.24477,0.0575964,0.0469239,587,771,0.719595,0.246244
-630,253,0.282288,0.347107,-0.0141063,0.0389072,-0.0244708,0.0484758,-0.0236749,-1.19806,0.0424686,0.0458712,594,771,0.282298,-0.347091
-623,253,-0.289185,0.735535,-0.00546744,0.0298579,-0.0197995,0.0387281,-0.0143376,-1.14961,0.0316979,0.0463588,601,771,-0.289158,-0.735509
-616,253,-0.58313,0.779785,-0.000527244,0.0226026,-0.0158418,0.0306517,-0.00857636,-1.1007,0.0238137,0.0471906,608,771,-0.583108,-0.779793
-609,253,0.190613,0.792908,0.00197431,0.016852,-0.0125033,0.023962,-0.00513572,-1.05375,0.0179334,0.0428647,615,771,0.190622,-0.792877
-602,253,0.146484,0.623535,0.0028777,0.0123502,-0.00972474,0.0184308,-0.00320282,-1.01201,0.0134822,0.0406862,622,771,0.146493,-0.623522
-595,253,0.0778198,0.409363,0.00308495,0.00879975,-0.00736841,0.0138454,-0.0019607,-0.970367,0.00994845,0.0392254,629,771,0.0777943,-0.409383
-588,253,0.055603,0.118896,0.00306657,0.00640136,-0.00541327,0.0103982,-0.000930285,-0.934797,0.00726213,0.0336975,636,771,0.0555792,-0.118906
-581,253,-0.0487671,-0.0308838,0.00280992,0.00387751,-0.00422003,0.00759737,-0.000909936,-0.848309,0.00539387,0.0192612,643,771,-0.0487764,0.0308637
-574,253,-0.0988159,-0.0759888,0.00189726,0.00210721,-0.00276649,0.00477072,-0.000766247,-0.804362,0.00346426,0.0175466,650,771,-0.0987922,0.0759613
-567,253,-0.0616455,-0.0827637,0.00122695,0.00100482,-0.00152362,0.00264355,-0.000411775,-0.749015,0.00191444,0.0148434,657,771,-0.0616329,0.0827849
-560,253,-0.0425415,-0.0583496,-0.000430821,0.000921332,-0.0010579,0.00150073,-0.00101022,-1.06973,0.00145889,0.0111214,664,771,-0.0425455,0.0583468
-553,253,-0.0594482,-0.0391235,-0.000976868,0.00155456,-0.000917482,0.00185212,-0.00127442,-1.25718,0.00181535,0.0109114,671,771,-0.0594585,0.0391353
-546,253,-0.0646973,-0.00512695,-0.000727858,0.00209371,-0.000566623,0.00220324,-0.000837394,-1.37984,0.00181359,0.00981117,678,771,-0.0647048,0.00513498
-539,253,-0.0704346,-0.0224609,-0.00105466,0.00278991,-0.000474372,0.00284757,-0.00111232,-1.44983,0.00235828,0.01033,685,771,-0.0704399,0.0224494
-532,253,-0.0962524,-0.0325317,-0.00125159,0.00390864,-0.000454412,0.00394835,-0.0012913,-1.48363,0.0031521,0.0127998,692,771,-0.0962731,0.032536
-525,253,-0.0895386,-0.0367432,-0.0015153,0.00503947,-0.000452083,0.0050705,-0.00154633,-1.50226,0.00399677,0.0108467,699,771,-0.0895456,0.0367232
-518,253,-0.0951538,-0.041748,-0.0019925,0.00634455,-0.000528236,0.00637789,-0.00202584,-1.50777,0.00506413,0.0136114,706,771,-0.0951512,0.0417548
-511,253,-0.126465,-0.0646973,-0.00258434,0.0075003,-0.000654644,0.00754262,-0.00262666,-1.50624,0.00609562,0.0294101,713,771,-0.126443,0.0647201
-504,253,-0.27417,0.240234,-0.00301375,0.00839452,-0.000792184,0.00844927,-0.00306849,-1.5018,0.00688742,0.0385268,720,771,-0.274196,-0.240252
-497,253,-0.668396,0.81012,0,0,0,0,0,0,0,-1,727,771,-0.668426,-0.810125
-490,253,-0.905518,0.570435,0,0,0,0,0,0,0,-1,734,771,-0.905543,-0.570433
-483,253,-1.32233,0.0820923,0,0,0,0,0,0,0,-1,741,771,-1.32232,-0.0820871
-476,253,0.904419,0.145264,0,0,0,0,0,0,0,-1,748,771,0.904394,-0.145252
-469,253,0.686218,0.256653,0,0,0,0,0,0,0,-1,755,771,0.686188,-0.256661
-462,253,0.450928,0.248901,0,0,0,0,0,0,0,-1,762,771,0.450927,-0.248927
-455,253,-0.128479,-0.118469,0,0,0,0,0,0,0,-1,769,771,-0.128509,0.118442
-448,253,0,0,0,0,0,0,0,0,0,-1,776,771,0,0
-441,253,0,0,0,0,0,0,0,0,0,-1,783,771,0,0
-434,253,0,0,0,0,0,0,0,0,0,-1,790,771,0,0
-427,253,0,0,0,0,0,0,0,0,0,-1,797,771,0,0
-420,253,0,0,0,0,0,0,0,0,0,-1,804,771,0,0
-413,253,0,0,0,0,0,0,0,0,0,-1,811,771,0,0
-406,253,0,0,0,0,0,0,0,0,0,-1,818,771,0,0
-399,253,0,0,0,0,0,0,0,0,0,-1,825,771,0,0
-392,253,0,0,0,0,0,0,0,0,0,-1,832,771,0,0
-385,253,0,0,0,0,0,0,0,0,0,-1,839,771,0,0
-378,253,0,0,0,0,0,0,0,0,0,-1,846,771,0,0
-371,253,0,0,0,0,0,0,0,0,0,-1,853,771,0,0
-364,253,0,0,0,0,0,0,0,0,0,-1,860,771,0,0
-357,253,0,0,0,0,0,0,0,0,0,-1,867,771,0,0
-350,253,0,0,0,0,0,0,0,0,0,-1,874,771,0,0
-343,253,0,0,0,0,0,0,0,0,0,-1,881,771,0,0
-336,253,0,0,0,0,0,0,0,0,0,-1,888,771,0,0
-329,253,0,0,0,0,0,0,0,0,0,-1,895,771,0,0
-322,253,0,0,0,0,0,0,0,0,0,-1,902,771,0,0
-315,253,0,0,0,0,0,0,0,0,0,-1,909,771,0,0
-308,253,0,0,0,0,0,0,0,0,0,-1,916,771,0,0
-301,253,0,0,0,0,0,0,0,0,0,-1,923,771,0,0
-294,253,0,0,0,0,0,0,0,0,0,-1,930,771,0,0
-287,253,0,0,0,0,0,0,0,0,0,-1,937,771,0,0
-280,253,0,0,0,0,0,0,0,0,0,-1,944,771,0,0
-273,253,0,0,0,0,0,0,0,0,0,-1,951,771,0,0
-266,253,0,0,0,0,0,0,0,0,0,-1,958,771,0,0
-259,253,0,0,0,0,0,0,0,0,0,-1,965,771,0,0
-252,253,0,0,0,0,0,0,0,0,0,-1,972,771,0,0
-245,253,0,0,0,0,0,0,0,0,0,-1,979,771,0,0
-238,253,0,0,0,0,0,0,0,0,0,-1,986,771,0,0
-231,253,0,0,0,0,0,0,0,0,0,-1,993,771,0,0
-224,253,0,0,0,0,0,0,0,0,0,-1,1000,771,0,0
-217,253,0,0,0,0,0,0,0,0,0,-1,1007,771,0,0
-210,253,0,0,0,0,0,0,0,0,0,-1,1014,771,0,0
-203,253,0,0,0,0,0,0,0,0,0,-1,1021,771,0,0
-196,253,0,0,0,0,0,0,0,0,0,-1,1028,771,0,0
-189,253,0,0,0,0,0,0,0,0,0,-1,1035,771,0,0
-182,253,0,0,0,0,0,0,0,0,0,-1,1042,771,0,0
-175,253,0,0,0,0,0,0,0,0,0,-1,1049,771,0,0
-168,253,0,0,0,0,0,0,0,0,0,-1,1056,771,0,0
-161,253,0,0,0,0,0,0,0,0,0,-1,1063,771,0,0
-154,253,0,0,0,0,0,0,0,0,0,-1,1070,771,0,0
-147,253,0,0,0,0,0,0,0,0,0,-1,1077,771,0,0
-140,253,0,0,0,0,0,0,0,0,0,-1,1084,771,0,0
-133,253,0,0,0,0,0,0,0,0,0,-1,1091,771,0,0
-126,253,0,0,0,0,0,0,0,0,0,-1,1098,771,0,0
-119,253,0,0,0,0,0,0,0,0,0,-1,1105,771,0,0
-112,253,0,0,0,0,0,0,0,0,0,-1,1112,771,0,0
-105,253,0,0,0,0,0,0,0,0,0,-1,1119,771,0,0
-98,253,0,0,0,0,0,0,0,0,0,-1,1126,771,0,0
-91,253,0,0,0,0,0,0,0,0,0,-1,1133,771,0,0
-84,253,0,0,0,0,0,0,0,0,0,-1,1140,771,0,0
-77,253,0,0,0,0,0,0,0,0,0,-1,1147,771,0,0
-70,253,0,0,0,0,0,0,0,0,0,-1,1154,771,0,0
-63,253,0,0,0,0,0,0,0,0,0,-1,1161,771,0,0
-56,253,0,0,0,0,0,0,0,0,0,-1,1168,771,0,0
-49,253,0,0,0,0,0,0,0,0,0,-1,1175,771,0,0
-42,253,0,0,0,0,0,0,0,0,0,-1,1182,771,0,0
-35,253,0,0,0,0,0,0,0,0,0,-1,1189,771,0,0
-28,253,0,0,0,0,0,0,0,0,0,-1,1196,771,0,0
-21,253,0,0,0,0,0,0,0,0,0,-1,1203,771,0,0
-14,253,0,0,0,0,0,0,0,0,0,-1,1210,771,0,0
-7,253,0,0,0,0,0,0,0,0,0,-1,1217,771,0,0
0,253,0,0,0,0,0,0,0,0,0,-1,1224,771,0,0
7,253,0,0,0,0,0,0,0,0,0,-1,1231,771,0,0
14,253,0,0,0,0,0,0,0,0,0,-1,1238,771,0,0
21,253,0,0,0,0,0,0,0,0,0,-1,1245,771,0,0
28,253,0,0,0,0,0,0,0,0,0,-1,1252,771,0,0
35,253,0,0,0,0,0,0,0,0,0,-1,1259,771,0,0
42,253,0,0,0,0,0,0,0,0,0,-1,1266,771,0,0
49,253,0,0,0,0,0,0,0,0,0,-1,1273,771,0,0
56,253,0,0,0,0,0,0,0,0,0,-1,1280,771,0,0
63,253,0,0,0,0,0,0,0,0,0,-1,1287,771,0,0
70,253,0,0,0,0,0,0,0,0,0,-1,1294,771,0,0
77,253,0,0,0,0,0,0,0,0,0,-1,1301,771,0,0
84,253,0,0,0,0,0,0,0,0,0,-1,1308,771,0,0
91,253,0,0,0,0,0,0,0,0,0,-1,1315,771,0,0
98,253,0,0,0,0,0,0,0,0,0,-1,1322,771,0,0
105,253,0,0,0,0,0,0,0,0,0,-1,1329,771,0,0
112,253,0,0,0,0,0,0,0,0,0,-1,1336,771,0,0
119,253,0,0,0,0,0,0,0,0,0,-1,1343,771,0,0
126,253,0,0,0,0,0,0,0,0,0,-1,1350,771,0,0
133,253,0,0,0,0,0,0,0,0,0,-1,1357,771,0,0
140,253,0,0,0,0,0,0,0,0,0,-1,1364,771,0,0
147,253,0,0,0,0,0,0,0,0,0,-1,1371,771,0,0
154,253,0,0,0,0,0,0,0,0,0,-1,1378,771,0,0
161,253,0,0,0,0,0,0,0,0,0,-1,1385,771,0,0
168,253,0,0,0,0,0,0,0,0,0,-1,1392,771,0,0
175,253,0,0,0,0,0,0,0,0,0,-1,1399,771,0,0
182,253,0,0,0,0,0,0,0,0,0,-1,1406,771,0,0
189,253,0,0,0,0,0,0,0,0,0,-1,1413,771,0,0
196,253,0,0,0,0,0,0,0,0,0,-1,1420,771,0,0
203,253,0,0,0,0,0,0,0,0,0,-1,1427,771,0,0
210,253,0,0,0,0,0,0,0,0,0,-1,1434,771,0,0
217,253,0,0,0,0,0,0,0,0,0,-1,1441,771,0,0
224,253,0,0,0,0,0,0,0,0,0,-1,1448,771,0,0
231,253,0,0,0,0,0,0,0,0,0,-1,1455,771,0,0
238,253,0,0,0,0,0,0,0,0,0,-1,1462,771,0,0
245,253,0,0,0,0,0,0,0,0,0,-1,1469,771,0,0
252,253,0,0,0,0,0,0,0,0,0,-1,1476,771,0,0
259,253,0,0,0,0,0,0,0,0,0,-1,1483,771,0,0
266,253,0,0,0,0,0,0,0,0,0,-1,1490,771,0,0
273,253,0,0,0,0,0,0,0,0,0,-1,1497,771,0,0
280,253,0,0,0,0,0,0,0,0,0,-1,1504,771,0,0
287,253,0,0,0,0,0,0,0,0,0,-1,1511,771,0,0
294,253,0,0,0,0,0,0,0,0,0,-1,1518,771,0,0
301,253,0,0,0,0,0,0,0,0,0,-1,1525,771,0,0
308,253,0,0,0,0,0,0,0,0,0,-1,1532,771,0,0
315,253,0,0,0,0,0,0,0,0,0,-1,1539,771,0,0
322,253,0,0,0,0,0,0,0,0,0,-1,1546,771,0,0
329,253,0,0,0,0,0,0,0,0,0,-1,1553,771,0,0
336,253,0,0,0,0,0,0,0,0,0,-1,1560,771,0,0
343,253,0,0,0,0,0,0,0,0,0,-1,1567,771,0,0
350,253,0,0,0,0,0,0,0,0,0,-1,1574,771,0,0
357,253,0,0,0,0,0,0,0,0,0,-1,1581,771,0,0
364,253,0,0,0,0,0,0,0,0,0,-1,1588,771,0,0
371,253,0,0,0,0,0,0,0,0,0,-1,1595,771,0,0
378,253,0,0,0,0,0,0,0,0,0,-1,1602,771,0,0
385,253,0,0,0,0,0,0,0,0,0,-1,1609,771,0,0
392,253,0,0,0,0,0,0,0,0,0,-1,1616,771,0,0
399,253,0,0,0,0,0,0,0,0,0,-1,1623,771,0,0
406,253,0,0,0,0,0,0,0,0,0,-1,1630,771,0,0
413,253,0,0,0,0,0,0,0,0,0,-1,1637,771,0,0
420,253,0,0,0,0,0,0,0,0,0,-1,1644,771,0,0
427,253,0,0,0,0,0,0,0,0,0,-1,1651,771,0,0
434,253,0,0,0,0,0,0,0,0,0,-1,1658,771,0,0
441,253,0,0,0,0,0,0,0,0,0,-1,1665,771,0,0
448,253,0,0,0,0,0,0,0,0,0,-1,1672,771,0,0
455,253,0,0,0,0,0,0,0,0,0,-1,1679,771,0,0
462,253,0,0,0,0,0,0,0,0,0,-1,1686,771,0,0
469,253,0,0,0,0,0,0,0,0,0,-1,1693,771,0,0
476,253,0,0,0,0,0,0,0,0,0,-1,1700,771,0,0
483,253,0,0,0,0,0,0,0,0,0,-1,1707,771,0,0
490,253,0,0,0,0,0,0,0,0,0,-1,1714,771,0,0
497,253,0,0,0,0,0,0,0,0,0,-1,1721,771,0,0
504,253,0,0,0,0,0,0,0,0,0,-1,1728,771,0,0
511,253,0,0,0,0,0,0,0,0,0,-1,1735,771,0,0
518,253,0,0,0,0,0,0,0,0,0,-1,1742,771,0,0
525,253,0,0,0,0,0,0,0,0,0,-1,1749,771,0,0
532,253,0,0,0,0,0,0,0,0,0,-1,1756,771,0,0
539,253,0,0,0,0,0,0,0,0,0,-1,1763,771,0,0
546,253,0,0,0,0,0,0,0,0,0,-1,1770,771,0,0
553,253,0,0,0,0,0,0,0,0,0,-1,1777,771,0,0
560,253,0,0,0,0,0,0,0,0,0,-1,1784,771,0,0
567,253,0,0,0,0,0,0,0,0,0,-1,1791,771,0,0
574,253,-0.126465,0.0290527,0.0155033,-0.00148447,-5.74436e-05,0.0155035,-0.00148467,-0.00338142,0.0108644,0.0326594,1798,771,-0.126494,-0.0290708
581,253,-0.162231,0.0490112,0.0140301,-0.00249298,0.000638049,0.0140547,-0.00251758,0.0385391,0.010312,0.0367673,1805,771,-0.162226,-0.0490004
588,253,-0.100464,-0.0553589,0.0115582,-0.00387419,0.00136616,0.0116782,-0.00399419,0.0876177,0.00940401,0.039494,1812,771,-0.100431,0.0553717
595,253,0.140625,-0.23407,0.00873703,-0.00459451,0.0019206,0.0090082,-0.00486568,0.140265,0.00812824,0.0423593,1819,771,0.140576,0.234068
602,253,0.381104,-0.524475,0.00585497,-0.00497498,0.0023737,0.00635239,-0.0054724,0.206566,0.00683335,0.0446264,1826,771,0.381151,0.524486
609,253,0.381226,-0.702332,0.00334851,-0.00509529,0.00275002,0.00416516,-0.00591195,0.288669,0.00584709,0.0414773,1833,771,0.381258,0.702301
616,253,0.40332,-0.810181,0.00138803,-0.00478985,0.00283754,0.00249351,-0.00589533,0.371502,0.00497427,0.0405518,1840,771,0.403294,0.810169
623,253,0.425903,-0.937683,0,0,0,0,0,0,0,-1,1847,771,0.425847,0.937706
630,253,0.0715332,-0.559937,-0.00107424,-0.00373789,0.00269588,0.00060085,-0.00541298,0.555971,0.0038247,0.0481419,1854,771,0.0715033,0.559946
637,253,-0.0548096,-0.531372,-0.00178604,-0.00288501,0.00244251,0.000168031,-0.00483908,0.674757,0.0032835,0.0456711,1861,771,-0.0548361,0.531377
644,253,-0.135376,-0.201111,-0.00253686,-0.00207015,0.00216231,-0.000128641,-0.00447837,0.83915,0.00294364,0.035431,1868,771,-0.135354,0.201121
651,253,-0.083374,-0.0454712,-0.00284786,-0.00129689,0.00170781,-0.000196746,-0.00394801,0.998519,0.00256894,0.0207514,1875,771,-0.0834001,0.045465
658,253,-0.0552979,-0.0238647,-0.00228127,-0.000743857,0.00163559,0.000294659,-0.00331978,1.00507,0.00231766,0.0167318,1882,771,-0.055322,0.0238432
665,253,-0.0904541,-0.039917,-0.0018197,-0.000127281,0.00139543,0.000658467,-0.00260545,1.05796,0.00199305,0.0182032,1889,771,-0.0904805,0.0399275
672,253,-0.0855713,-0.0535889,-0.00144005,0.00040055,0.000796808,0.000697565,-0.00173706,1.21399,0.00144771,0.0149615,1896,771,-0.0855916,0.0536004
679,253,-0.0881348,-0.034668,-0.000913078,0.000569703,0.000137041,0.000582262,-0.000925637,1.47941,0.000878078,0.0125702,1903,771,-0.088184,0.0346444
686,253,-0.0826416,-0.0259399,-0.000377035,0.000501275,-0.000730021,0.000914051,-0.000789811,-1.05618,0.000984597,0.0147019,1910,771,-0.0826954,0.025928
693,253,-0.0893555,-0.0212402,-0.000482975,-0.000198648,-0.0012551,0.000922311,-0.00160393,-0.841792,0.00147612,0.0134135,1917,771,-0.0893931,0.0212691
700,253,-0.0891113,-0.0349731,-0.00113703,-0.0014786,-0.00177223,0.00047262,-0.00308825,-0.737363,0.00223311,0.0130173,1924,771,-0.089129,0.0349708
707,253,-0.0842285,-0.052124,-0.00231337,-0.00274859,-0.00247148,-4.99322e-05,-0.00501202,-0.741487,0.00332483,0.0133136,1931,771,-0.0842827,0.0521363
714,253,-0.0643311,-0.0540771,-0.00364995,-0.00475539,-0.00329496,-0.000861673,-0.00754367,-0.702298,0.00476791,0.0172725,1938,771,-0.0643464,0.0540564
721,253,-0.0843506,-0.0629272,-0.00576294,-0.00765142,-0.00405051,-0.00254807,-0.0108663,-0.670885,0.00656188,0.0293068,1945,771,-0.0843119,0.0629532
728,253,-0.214233,-0.675598,-0.00907001,-0.0116702,-0.00458997,-0.00559958,-0.0151407,-0.647388,0.00883965,0.0402885,1952,771,-0.214177,0.675614
735,253,0.510742,-0.435181,-0.0140846,-0.0169979,-0.00466448,-0.0106546,-0.0204279,-0.634055,0.0117977,0.0432381,1959,771,0.5107,0.435161
742,253,0.0311279,-0.0521851,-0.0215609,-0.0238031,-0.0038956,-0.0186283,-0.0267357,-0.645292,0.0158292,0.0442792,1966,771,0.0311886,0.0521869
749,253,-0.469604,0.104004,-0.0325933,-0.0321426,-0.00171904,-0.0306342,-0.0341017,-0.850573,0.0216713,0.0425929,1973,771,-0.469665,-0.104018
756,253,0,0,0,0,0,0,0,0,0,-1,1980,771,0,0
763,253,0,0,0,0,0,0,0,0,0,-1,1987,771,0,0
770,253,0,0,0,0,0,0,0,0,0,-1,1994,771,0,0
777,253,0,0,0,0,0,0,0,0,0,-1,2001,771,0,0
784,253,0,0,0,0,0,0,0,0,0,-1,2008,771,0,0
791,253,0,0,0,0,0,0,0,0,0,-1,2015,771,0,0
798,253,0,0,0,0,0,0,0,0,0,-1,2022,771,0,0
805,253,0,0,0,0,0,0,0,0,0,-1,2029,771,0,0
812,253,0,0,0,0,0,0,0,0,0,-1,2036,771,0,0
-700,246,0,0,0,0,0,0,0,0,0,-1,524,778,0,0
-693,246,0,0,0,0,0,0,0,0,0,-1,531,778,0,0
-686,246,0,0,0,0,0,0,0,0,0,-1,538,778,0,0
-679,246,0,0,0,0,0,0,0,0,0,-1,545,778,0,0
-672,246,0,0,0,0,0,0,0,0,0,-1,552,778,0,0
-665,246,0,0,0,0,0,0,0,0,0,-1,559,778,0,0
-658,246,0,0,0,0,0,0,0,0,0,-1,566,778,0,0
-651,246,0,0,0,0,0,0,0,0,0,-1,573,778,0,0
-644,246,0,0,0,0,0,0,0,0,0,-1,580,778,0,0
-637,246,1.07672,0.518982,0,0,0,0,0,0,0,-1,587,778,1.07673,-0.518993
-630,246,-0.0830078,1.24469,0,0,0,0,0,0,0,-1,594,778,-0.0829952,-1.2447
-623,246,-0.109863,1.01251,-0.00698645,0.0282788,-0.0171172,0.0352208,-0.0139284,-1.18551,0.0292504,0.0485888,601,778,-0.109861,-1.01254
-616,246,-0.0564575,0.778442,-0.00188534,0.0215858,-0.0138556,0.0280079,-0.00830746,-1.13677,0.021971,0.0434271,608,778,-0.0564274,-0.778465
-609,246,-0.0144043,0.574829,0.000874266,0.0162411,-0.0110205,0.0219922,-0.00487682,-1.08982,0.0165287,0.0423433,615,778,-0.0143908,-0.574855
-602,246,0.175476,0.153931,0.00205171,0.0120209,-0.00860142,0.0169777,-0.00290506,-1.04801,0.0124007,0.0423958,622,778,0.17545,-0.153906
-595,246,0.167297,0.0768433,0.00255789,0.00852857,-0.0065696,0.0127593,-0.00167285,-0.998659,0.00911514,0.0402146,629,778,0.167314,-0.0768688
-588,246,-0.0150146,-0.00524902,0.00280195,0.00630472,-0.00478249,0.00964643,-0.000539756,-0.960918,0.00661821,0.0271937,636,778,-0.0150065,0.00522996
-581,246,-0.0907593,-0.0631714,0.00266854,0.0037907,-0.00371817,0.00698988,-0.000530645,-0.860284,0.0048465,0.0143086,643,778,-0.0907388,0.0631711
-574,246,-0.098938,-0.0974731,0.00173482,0.00217037,-0.00237023,0.00433281,-0.000427619,-0.831209,0.00304111,0.0158495,650,778,-0.0989677,0.0974652
-567,246,-0.0712891,-0.0839844,0.00107736,0.0011445,-0.00122174,0.00233313,-0.000111268,-0.799132,0.0015938,0.013526,657,778,-0.0712648,0.084009
-560,246,-0.0632324,-0.078125,-0.000395452,0.00118415,-0.000750657,0.00148397,-0.00069527,-1.1908,0.00128536,0.0108985,664,778,-0.0632094,0.0781007
-553,246,-0.0753784,-0.0463867,-0.000865702,0.00186314,-0.000638147,0.002005,-0.00100756,-1.35206,0.00177079,0.0120208,671,778,-0.0753593,0.0464146
-546,246,-0.0636597,-0.0169678,-0.000658991,0.00250046,-0.000403638,0.00255121,-0.000709743,-1.44572,0.00198025,0.0102795,678,778,-0.0636379,0.0169895
-539,246,-0.0776978,-0.0236816,-0.000964929,0.00334352,-0.000381572,0.00337706,-0.000998461,-1.48314,0.00264771,0.00990157,685,778,-0.0776799,0.0237047
-532,246,-0.118958,-0.0373535,-0.00115959,0.00454537,-0.000407037,0.00457426,-0.00118849,-1.49993,0.00351333,0.0104877,692,778,-0.118938,0.0373326
-525,246,-0.108459,-0.0363159,-0.00147236,0.00577914,-0.000441154,0.00580587,-0.0014991,-1.51026,0.00445516,0.0110935,699,778,-0.108452,0.0362899
-518,246,-0.0994263,-0.0577393,-0.00207989,0.00722305,-0.000528162,0.00725294,-0.00210978,-1.51426,0.00567091,0.0173685,706,778,-0.0994519,0.0577545
-511,246,-0.074646,-0.0740967,-0.00285318,0.00853055,-0.000634609,0.00856582,-0.00288844,-1.51528,0.00687857,0.037688,713,778,-0.0746386,0.0740737
-504,246,-0.141907,0.247559,-0.0034981,0.00954613,-0.000755507,0.00958974,-0.00354171,-1.51313,0.00784491,0.040195,720,778,-0.141884,-0.247545
-497,246,-0.349609,0.287476,-0.0042246,0.0104985,-0.000635101,0.0105258,-0.00425194,-1.52777,0.00878452,0.0427605,727,778,-0.349629,-0.287481
-490,246,-0.576294,0.029541,-0.0048952,0.0104474,-0.000854578,0.0104949,-0.00494265,-1.51533,0.00910298,0.0484706,734,778,-0.576268,-0.0295491
-483,246,-0.984558,-0.413391,0,0,0,0,0,0,0,-1,741,778,-0.984581,0.413411
-476,246,-0.074646,0.0164185,0,0,0,0,0,0,0,-1,748,778,-0.0746516,-0.0163882
-469,246,0.367554,0.375671,-0.00706682,0.0062849,-0.00218982,0.00663488,-0.0074168,-1.41232,0.00811693,0.0415684,755,778,0.367578,-0.375665
-462,246,0.0557861,0.0422363,-0.00802158,0.00273264,-0.00334471,0.00368801,-0.00897696,-1.29257,0.00752165,0.0473864,762,778,0.055773,-0.0422292
-455,246,0,0,0,0,0,0,0,0,0,-1,769,778,0,0
-448,246,0,0,0,0,0,0,0,0,0,-1,776,778,0,0
-441,246,0,0,0,0,0,0,0,0,0,-1,783,778,0,0
-434,246,0,0,0,0,0,0,0,0,0,-1,790,778,0,0
-427,246,0,0,0,0,0,0,0,0,0,-1,797,778,0,0
-420,246,0,0,0,0,0,0,0,0,0,-1,804,778,0,0
-413,246,0,0,0,0,0,0,0,0,0,-1,811,778,0,0
-406,246,0,0,0,0,0,0,0,0,0,-1,818,778,0,0
-399,246,0,0,0,0,0,0,0,0,0,-1,825,778,0,0
-392,246,0,0,0,0,0,0,0,0,0,-1,832,778,0,0
-385,246,0,0,0,0,0,0,0,0,0,-1,839,778,0,0
-378,246,0,0,0,0,0,0,0,0,0,-1,846,778,0,0
-371,246,0,0,0,0,0,0,0,0,0,-1,853,778,0,0
-364,246,0,0,0,0,0,0,0,0,0,-1,860,778,0,0
-357,246,0,0,0,0,0,0,0,0,0,-1,867,778,0,0
-350,246,0,0,0,0,0,0,0,0,0,-1,874,778,0,0
-343,246,0,0,0,0,0,0,0,0,0,-1,881,778,0,0
-336,246,0,0,0,0,0,0,0,0,0,-1,888,778,0,0
-329,246,0,0,0,0,0,0,0,0,0,-1,895,778,0,0
-322,246,0,0,0,0,0,0,0,0,0,-1,902,778,0,0
-315,246,0,0,0,0,0,0,0,0,0,-1,909,778,0,0
-308,246,0,0,0,0,0,0,0,0,0,-1,916,778,0,0
-301,246,0,0,0,0,0,0,0,0,0,-1,923,778,0,0
-294,246,0,0,0,0,0,0,0,0,0,-1,930,778,0,0
-287,246,0,0,0,0,0,0,0,0,0,-1,937,778,0,0
-280,246,0,0,0,0,0,0,0,0,0,-1,944,778,0,0
-273,246,0,0,0,0,0,0,0,0,0,-1,951,778,0,0
-266,246,0,0,0,0,0,0,0,0,0,-1,958,778,0,0
-259,246,0,0,0,0,0,0,0,0,0,-1,965,778,0,0
-252,246,0,0,0,0,0,0,0,0,0,-1,972,778,0,0
-245,246,0,0,0,0,0,0,0,0,0,-1,979,778,0,0
-238,246,0,0,0,0,0,0,0,0,0,-1,986,778,0,0
-231,246,0,0,0,0,0,0,0,0,0,-1,993,778,0,0
-224,246,0,0,0,0,0,0,0,0,0,-1,1000,778,0,0
-217,246,0,0,0,0,0,0,0,0,0,-1,1007,778,0,0
-210,246,0,0,0,0,0,0,0,0,0,-1,1014,778,0,0
-203,246,0,0,0,0,0,0,0,0,0,-1,1021,778,0,0
-196,246,0,0,0,0,0,0,0,0,0,-1,1028,778,0,0
-189,246,0,0,0,0,0,0,0,0,0,-1,1035,778,0,0
-182,246,0,0,0,0,0,0,0,0,0,-1,1042,778,0,0
-175,246,0,0,0,0,0,0,0,0,0,-1,1049,778,0,0
-168,246,0,0,0,0,0,0,0,0,0,-1,1056,778,0,0
-161,246,0,0,0,0,0,0,0,0,0,-1,1063,778,0,0
-154,246,0,0,0,0,0,0,0,0,0,-1,1070,778,0,0
-147,246,0,0,0,0,0,0,0,0,0,-1,1077,778,0,0
-140,246,0,0,0,0,0,0,0,0,0,-1,1084,778,0,0
-133,246,0,0,0,0,0,0,0,0,0,-1,1091,778,0,0
-126,246,0,0,0,0,0,0,0,0,0,-1,1098,778,0,0
-119,246,0,0,0,0,0,0,0,0,0,-1,1105,778,0,0
-112,246,0,0,0,0,0,0,0,0,0,-1,1112,778,0,0
-105,246,0,0,0,0,0,0,0,0,0,-1,1119,778,0,0
-98,246,0,0,0,0,0,0,0,0,0,-1,1126,778,0,0
-91,246,0,0,0,0,0,0,0,0,0,-1,1133,778,0,0
-84,246,0,0,0,0,0,0,0,0,0,-1,1140,778,0,0
-77,246,0,0,0,0,0,0,0,0,0,-1,1147,778,0,0
-70,246,0,0,0,0,0,0,0,0,0,-1,1154,778,0,0
-63,246,0,0,0,0,0,0,0,0,0,-1,1161,778,0,0
-56,246,0,0,0,0,0,0,0,0,0,-1,1168,778,0,0
-49,246,0,0,0,0,0,0,0,0,0,-1,1175,778,0,0
-42,246,0,0,0,0,0,0,0,0,0,-1,1182,778,0,0
-35,246,0,0,0,0,0,0,0,0,0,-1,1189,778,0,0
-28,246,0,0,0,0,0,0,0,0,0,-1,1196,778,0,0
-21,246,0,0,0,0,0,0,0,0,0,-1,1203,778,0,0
-14,246,0,0,0,0,0,0,0,0,0,-1,1210,778,0,0
-7,246,0,0,0,0,0,0,0,0,0,-1,1217,778,0,0
0,246,0,0,0,0,0,0,0,0,0,-1,1224,778,0,0
7,246,0,0,0,0,0,0,0,0,0,-1,1231,778,0,0
14,246,0,0,0,0,0,0,0,0,0,-1,1238,778,0,0
21,246,0,0,0,0,0,0,0,0,0,-1,1245,778,0,0
28,246,0,0,0,0,0,0,0,0,0,-1,1252,778,0,0
35,246,0,0,0,0,0,0,0,0,0,-1,1259,778,0,0
42,246,0,0,0,0,0,0,0,0,0,-1,1266,778,0,0
49,246,0,0,0,0,0,0,0,0,0,-1,1273,778,0,0
56,246,0,0,0,0,0,0,0,0,0,-1,1280,778,0,0
63,246,0,0,0,0,0,0,0,0,0,-1,1287,778,0,0
70,246,0,0,0,0,0,0,0,0,0,-1,1294,778,0,0
77,246,0,0,0,0,0,0,0,0,0,-1,1301,778,0,0
84,246,0,0,0,0,0,0,0,0,0,-1,1308,778,0,0
91,246,0,0,0,0,0,0,0,0,0,-1,1315,778,0,0
98,246,0,0,0,0,0,0,0,0,0,-1,1322,778,0,0
105,246,0,0,0,0,0,0,0,0,0,-1,1329,778,0,0
112,246,0,0,0,0,0,0,0,0,0,-1,1336,778,0,0
119,246,0,0,0,0,0,0,0,0,0,-1,1343,778,0,0
126,246,0,0,0,0,0,0,0,0,0,-1,1350,778,0,0
133,246,0,0,0,0,0,0,0,0,0,-1,1357,778,0,0
140,246,0,0,0,0,0,0,0,0,0,-1,1364,778,0,0
147,246,0,0,0,0,0,0,0,0,0,-1,1371,778,0,0
154,246,0,0,0,0,0,0,0,0,0,-1,1378,778,0,0
161,246,0,0,0,0,0,0,0,0,0,-1,1385,778,0,0
168,246,0,0,0,0,0,0,0,0,0,-1,1392,778,0,0
175,246,0,0,0,0,0,0,0,0,0,-1,1399,778,0,0
182,246,0,0,0,0,0,0,0,0,0,-1,1406,778,0,0
189,246,0,0,0,0,0,0,0,0,0,-1,1413,778,0,0
196,246,0,0,0,0,0,0,0,0,0,-1,1420,778,0,0
203,246,0,0,0,0,0,0,0,0,0,-1,1427,778,0,0
210,246,0,0,0,0,0,0,0,0,0,-1,1434,778,0,0
217,246,0,0,0,0,0,0,0,0,0,-1,1441,778,0,0
224,246,0,0,0,0,0,0,0,0,0,-1,1448,778,0,0
231,246,0,0,0,0,0,0,0,0,0,-1,1455,778,0,0
238,246,0,0,0,0,0,0,0,0,0,-1,1462,778,0,0
245,246,0,0,0,0,0,0,0,0,0,-1,1469,778,0,0
252,246,0,0,0,0,0,0,0,0,0,-1,1476,778,0,0
259,246,0,0,0,0,0,0,0,0,0,-1,1483,778,0,0
266,246,0,0,0,0,0,0,0,0,0,-1,1490,778,0,0
273,246,0,0,0,0,0,0,0,0,0,-1,1497,778,0,0
280,246,0,0,0,0,0,0,0,0,0,-1,1504,778,0,0
287,246,0,0,0,0,0,0,0,0,0,-1,1511,778,0,0
294,246,0,0,0,0,0,0,0,0,0,-1,1518,778,0,0
301,246,0,0,0,0,0,0,0,0,0,-1,1525,778,0,0
308,246,0,0,0,0,0,0,0,0,0,-1,1532,778,0,0
315,246,0,0,0,0,0,0,0,0,0,-1,1539,778,0,0
322,246,0,0,0,0,0,0,0,0,0,-1,1546,778,0,0
329,246,0,0,0,0,0,0,0,0,0,-1,1553,778,0,0
336,246,0,0,0,0,0,0,0,0,0,-1,1560,778,0,0
343,246,0,0,0,0,0,0,0,0,0,-1,1567,778,0,0
350,246,0,0,0,0,0,0,0,0,0,-1,1574,778,0,0
357,246,0,0,0,0,0,0,0,0,0,-1,1581,778,0,0
364,246,0,0,0,0,0,0,0,0,0,-1,1588,778,0,0
371,246,0,0,0,0,0,0,0,0,0,-1,1595,778,0,0
378,246,0,0,0,0,0,0,0,0,0,-1,1602,778,0,0
385,246,0,0,0,0,0,0,0,0,0,-1,1609,778,0,0
392,246,0,0,0,0,0,0,0,0,0,-1,1616,778,0,0
399,246,0,0,0,0,0,0,0,0,0,-1,1623,778,0,0
406,246,0,0,0,0,0,0,0,0,0,-1,1630,778,0,0
413,246,0,0,0,0,0,0,0,0,0,-1,1637,778,0,0
420,246,0,0,0,0,0,0,0,0,0,-1,1644,778,0,0
427,246,0,0,0,0,0,0,0,0,0,-1,1651,778,0,0
434,246,0,0,0,0,0,0,0,0,0,-1,1658,778,0,0
441,246,0,0,0,0,0,0,0,0,0,-1,1665,778,0,0
448,246,0,0,0,0,0,0,0,0,0,-1,1672,778,0,0
455,246,0,0,0,0,0,0,0,0,0,-1,1679,778,0,0
462,246,0,0,0,0,0,0,0,0,0,-1,1686,778,0,0
469,246,0,0,0,0,0,0,0,0,0,-1,1693,778,0,0
476,246,0,0,0,0,0,0,0,0,0,-1,1700,778,0,0
483,246,0,0,0,0,0,0,0,0,0,-1,1707,778,0,0
490,246,0,0,0,0,0,0,0,0,0,-1,1714,778,0,0
497,246,0,0,0,0,0,0,0,0,0,-1,1721,778,0,0
504,246,0,0,0,0,0,0,0,0,0,-1,1728,778,0,0
511,246,0,0,0,0,0,0,0,0,0,-1,1735,778,0,0
518,246,0,0,0,0,0,0,0,0,0,-1,1742,778,0,0
525,246,0,0,0,0,0,0,0,0,0,-1,1749,778,0,0
532,246,0,0,0,0,0,0,0,0,0,-1,1756,778,0,0
539,246,0,0,0,0,0,0,0,0,0,-1,1763,778,0,0
546,246,0,0,0,0,0,0,0,0,0,-1,1770,778,0,0
553,246,0,0,0,0,0,0,0,0,0,-1,1777,778,0,0
560,246,0,0,0,0,0,0,0,0,0,-1,1784,778,0,0
567,246,0,0,0,0,0,0,0,0,0,-1,1791,778,0,0
574,246,0,0,0,0,0,0,0,0,0,-1,1798,778,0,0
581,246,-0.167236,0.0911865,0.0135708,-0.00163978,0.000198053,0.0135734,-0.00164236,0.0130178,0.00964309,0.0327363,1805,778,-0.167206,-0.0912161
588,246,-0.220337,0.0936279,0.0118186,-0.00362413,0.0010909,0.0118953,-0.00370081,0.0701771,0.00940962,0.0374044,1812,778,-0.220294,-0.0936158
595,246,-0.048584,-0.0623779,0.00913487,-0.00471062,0.00177746,0.00935942,-0.00493516,0.125664,0.00838371,0.0390491,1819,778,-0.0485411,0.0623681
602,246,0.117676,-0.216553,0,0,0,0,0,0,0,-1,1826,778,0.117731,0.216526
609,246,0.209717,-0.39386,0.00365199,-0.00530174,0.0026357,0.00437024,-0.00602,0.266048,0.00602396,0.0424663,1833,778,0.209735,0.393871
616,246,0.364014,-0.416504,0.00151983,-0.00496159,0.00274431,0.00252569,-0.00596746,0.351323,0.00503595,0.0458456,1840,778,0.364006,0.416529
623,246,0.0960693,-0.177673,-8.1707e-05,-0.00433481,0.00267461,0.00120872,-0.00562524,0.449529,0.00421129,0.0423388,1847,778,0.0960543,0.177661
630,246,-0.0281982,-0.0601196,-0.00119231,-0.00376319,0.00256524,0.000391536,-0.00534704,0.553135,0.00370211,0.0423663,1854,778,-0.0282572,0.0601275
637,246,-0.148438,-0.100281,-0.00190331,-0.00291664,0.00231134,-4.37575e-05,-0.00477619,0.6775,0.00316964,0.0454491,1861,778,-0.148402,0.100311
644,246,-0.190674,-0.207581,-0.0025597,-0.00213936,0.00202518,-0.00031347,-0.00438559,0.837102,0.00282504,0.0408518,1868,778,-0.190688,0.207563
651,246,-0.0769043,-0.0785522,-0.00284344,-0.00140559,0.00159009,-0.000379456,-0.00386958,0.997711,0.00246299,0.0265823,1875,778,-0.0769527,0.0785819
658,246,-0.0631104,-0.00134277,-0.00235586,-0.000890454,0.00145513,6.03648e-06,-0.00325235,1.01863,0.00217024,0.0186951,1882,778,-0.0630882,0.00136635
665,246,-0.0737305,-0.0227661,-0.00195059,-0.000337886,0.00121105,0.000310698,-0.00259917,1.07911,0.00184509,0.0196126,1889,778,-0.0737457,0.0227738
672,246,-0.074707,-0.0266113,-0.0015658,0.000120685,0.000663012,0.000350123,-0.00179524,1.23764,0.001329,0.0186084,1896,778,-0.0746569,0.0266083
679,246,-0.0778809,-0.0377808,-0.00100226,0.000178776,5.55605e-05,0.000181384,-0.00100487,1.52389,0.000737844,0.0187457,1903,778,-0.0778238,0.0377968
686,246,-0.0703125,-0.038269,-0.000423705,5.87676e-05,-0.000740452,0.00059629,-0.000961228,-0.942874,0.000907424,0.0195839,1910,778,-0.0703287,0.0382653
693,246,-0.0788574,-0.0341187,-0.000438754,-0.00073139,-0.00121069,0.000634427,-0.00180457,-0.725262,0.00146118,0.0148209,1917,778,-0.0788568,0.0341364
700,246,-0.0880127,-0.039917,-0.00100486,-0.00208932,-0.00165275,0.000192331,-0.00328651,-0.626892,0.00225785,0.0127955,1924,778,-0.0879597,0.0399175
707,246,-0.0655518,-0.0460205,-0.00220832,-0.00317769,-0.00230772,-0.00033494,-0.00505107,-0.681889,0.00326147,0.0124392,1931,778,-0.065582,0.0460053
714,246,-0.06604,-0.0392456,-0.00354307,-0.0050013,-0.00302916,-0.00115651,-0.00738786,-0.667296,0.00458858,0.0116531,1938,778,-0.0659814,0.0392698
721,246,-0.071167,-0.0321655,-0.00567004,-0.00752741,-0.00363963,-0.00284248,-0.010355,-0.660484,0.00617779,0.0147669,1945,778,-0.0711984,0.0321908
728,246,0.113281,-0.182312,-0.00902107,-0.0108467,-0.00402378,-0.00580786,-0.0140599,-0.673859,0.00815827,0.0316791,1952,778,0.113274,0.182296
735,246,0.301636,-0.13208,-0.014113,-0.0150184,-0.00399223,-0.0105478,-0.0185835,-0.728942,0.0107618,0.0424404,1959,778,0.301635,0.132072
742,246,-0.0214844,0.294739,-0.0216779,-0.0199903,-0.00324937,-0.017477,-0.0241913,-0.912433,0.0144202,0.0406773,1966,778,-0.021428,-0.294725
749,246,-0.544556,0.623535,-0.0327453,-0.0255329,-0.00140187,-0.02527,-0.0330082,-1.38541,0.0199332,0.0424319,1973,778,-0.544574,-0.623511
756,246,-1.01245,0.99408,-0.0487787,-0.0309735,0.00218608,-0.030709,-0.0490431,1.4504,0.028614,0.047759,1980,778,-1.01244,-0.99408
763,246,0,0,0,0,0,0,0,0,0,-1,1987,778,0,0
770,246,0,0,0,0,0,0,0,0,0,-1,1994,778,0,0
777,246,0,0,0,0,0,0,0,0,0,-1,2001,778,0,0
784,246,0,0,0,0,0,0,0,0,0,-1,2008,778,0,0
791,246,0,0,0,0,0,0,0,0,0,-1,2015,778,0,0
798,246,0,0,0,0,0,0,0,0,0,-1,2022,778,0,0
805,246,0,0,0,0,0,0,0,0,0,-1,2029,778,0,0
812,246,0,0,0,0,0,0,0,0,0,-1,2036,778,0,0
-700,239,0,0,0,0,0,0,0,0,0,-1,524,785,0,0
-693,239,0,0,0,0,0,0,0,0,0,-1,531,785,0,0
-686,239,0,0,0,0,0,0,0,0,0,-1,538,785,0,0
-679,239,0,0,0,0,0,0,0,0,0,-1,545,785,0,0
-672,239,0,0,0,0,0,0,0,0,0,-1,552,785,0,0
-665,239,0,0,0,0,0,0,0,0,0,-1,559,785,0,0
-658,239,0,0,0,0,0,0,0,0,0,-1,566,785,0,0
-651,239,0,0,0,0,0,0,0,0,0,-1,573,785,0,0
-644,239,0,0,0,0,0,0,0,0,0,-1,580,785,0,0
-637,239,1.43262,1.2514,-0.0292598,0.0420799,-0.0209922,0.0477986,-0.0349785,-1.30483,0.047982,0.0460976,587,785,1.43264,-1.25139
-630,239,0.726257,0.496399,0,0,0,0,0,0,0,-1,594,785,0.726271,-0.496377
-623,239,0.253967,0.663208,-0.00813724,0.0258316,-0.0144889,0.031172,-0.0134777,-1.21766,0.0264447,0.0442089,601,785,0.253994,-0.663203
-616,239,0.477783,0.580322,-0.00295278,0.019825,-0.0117701,0.0248142,-0.00794198,-1.16987,0.0197303,0.0453417,608,785,0.477794,-0.580318
-609,239,0.412048,0.57135,0,0,0,0,0,0,0,-1,615,785,0.412048,-0.57137
-602,239,0.177185,-0.159729,0.00140944,0.0111118,-0.00732196,0.0150439,-0.00252259,-1.07797,0.0109672,0.0473062,622,785,0.177197,0.159736
-595,239,-0.0130005,-0.0160522,0.00219158,0.00780207,-0.00561413,0.0112728,-0.00127915,-1.01709,0.00797585,0.0393533,629,785,-0.0130255,0.0160456
-588,239,-0.086731,-0.0257568,0.00267793,0.00578242,-0.00404618,0.00856389,-0.000103538,-0.968557,0.00574408,0.0170772,636,785,-0.0867305,0.0257419
-581,239,-0.0786743,-0.0533447,0.00265855,0.00339824,-0.0031283,0.00617848,-0.000121695,-0.844238,0.00416015,0.00984359,643,785,-0.0786992,0.0533676
-574,239,-0.0829468,-0.0645752,0.00173239,0.00200208,-0.00193015,0.00380209,-6.76168e-05,-0.820273,0.00255756,0.0101124,650,785,-0.0829682,0.0645631
-567,239,-0.0743408,-0.0769043,0.00111163,0.00112356,-0.000899461,0.00201708,0.000218113,-0.788715,0.00127823,0.0102498,657,785,-0.0743396,0.0768755
-560,239,-0.0776367,-0.0683594,-0.00015787,0.00135143,-0.000434077,0.00146737,-0.000273806,-1.3098,0.00108113,0.0107231,664,785,-0.0776323,0.0683673
-553,239,-0.0912476,-0.0449219,-0.000554672,0.00217489,-0.000338665,0.00221628,-0.000596064,-1.44918,0.00171117,0.0133148,671,785,-0.0912236,0.0449499
-546,239,-0.0778809,-0.0360718,-0.000417455,0.00296786,-0.000199445,0.00297957,-0.000429165,-1.51215,0.0021438,0.0148434,678,785,-0.0778875,0.0360417
-539,239,-0.0756836,-0.0476685,-0.000738946,0.00396506,-0.000233479,0.00397662,-0.000750506,-1.52132,0.00293343,0.0155228,685,785,-0.0757048,0.0476987
-532,239,-0.0790405,-0.0415649,-0.000957329,0.00525093,-0.000294517,0.00526487,-0.000971269,-1.5235,0.00387446,0.0116228,692,785,-0.0790254,0.0415402
-525,239,-0.0803833,-0.0266724,-0.00132852,0.00656045,-0.000362002,0.00657703,-0.0013451,-1.52504,0.00489505,0.0128887,699,785,-0.0803748,0.0266994
-518,239,-0.0883789,-0.0684204,-0.00206296,0.00806591,-0.000486269,0.0080892,-0.00208625,-1.52293,0.00620623,0.0319895,706,785,-0.0883656,0.0684484
-511,239,-0.220215,-0.104248,-0.00302089,0.00943353,-0.000636319,0.00946596,-0.00305332,-1.51988,0.00753745,0.0386085,713,785,-0.220227,0.104246
-504,239,-0.174316,-0.0908813,-0.00393928,0.0105906,-0.000732453,0.0106275,-0.00397611,-1.52056,0.00871802,0.0415746,720,785,-0.174292,0.0908574
-497,239,-0.183777,-0.124023,-0.00492718,0.0115369,-0.000629954,0.011561,-0.00495125,-1.53261,0.00978461,0.0419794,727,785,-0.183751,0.123997
-490,239,-0.546204,-0.239197,-0.00588915,0.0118059,-0.000636394,0.0118287,-0.00591201,-1.53489,0.0104308,0.0448249,734,785,-0.546185,0.239215
-483,239,-0.882507,-0.501465,0,0,0,0,0,0,0,-1,741,785,-0.882512,0.501474
-476,239,-0.0559082,-0.0323486,-0.00764082,0.0105933,-0.000438194,0.0106038,-0.00765134,-1.54678,0.0105855,0.0401414,748,785,-0.0558891,0.0323202
-469,239,-0.0466309,-0.0067749,-0.00838984,0.00885208,-0.00029246,0.00885704,-0.0083948,-1.55384,0.00996155,0.0404131,755,785,-0.0466387,0.00677478
-462,239,-0.113281,-0.104309,-0.00874858,0.00600432,-0.000301145,0.00601046,-0.00875472,-1.5504,0.00857362,0.0437365,762,785,-0.113311,0.104289
-455,239,0,0,0,0,0,0,0,0,0,-1,769,785,0,0
-448,239,0,0,0,0,0,0,0,0,0,-1,776,785,0,0
-441,239,0,0,0,0,0,0,0,0,0,-1,783,785,0,0
-434,239,0,0,0,0,0,0,0,0,0,-1,790,785,0,0
-427,239,0,0,0,0,0,0,0,0,0,-1,797,785,0,0
-420,239,0,0,0,0,0,0,0,0,0,-1,804,785,0,0
-413,239,0,0,0,0,0,0,0,0,0,-1,811,785,0,0
-406,239,0,0,0,0,0,0,0,0,0,-1,818,785,0,0
-399,239,0,0,0,0,0,0,0,0,0,-1,825,785,0,0
-392,239,0,0,0,0,0,0,0,0,0,-1,832,785,0,0
-385,239,0,0,0,0,0,0,0,0,0,-1,839,785,0,0
-378,239,0,0,0,0,0,0,0,0,0,-1,846,785,0,0
-371,239,0,0,0,0,0,0,0,0,0,-1,853,785,0,0
-364,239,0,0,0,0,0,0,0,0,0,-1,860,785,0,0
-357,239,0,0,0,0,0,0,0,0,0,-1,867,785,0,0
-350,239,0,0,0,0,0,0,0,0,0,-1,874,785,0,0
-343,239,0,0,0,0,0,0,0,0,0,-1,881,785,0,0
-336,239,0,0,0,0,0,0,0,0,0,-1,888,785,0,0
-329,239,0,0,0,0,0,0,0,0,0,-1,895,785,0,0
-322,239,0,0,0,0,0,0,0,0,0,-1,902,785,0,0
-315,239,0,0,0,0,0,0,0,0,0,-1,909,785,0,0
-308,239,0,0,0,0,0,0,0,0,0,-1,916,785,0,0
-301,239,0,0,0,0,0,0,0,0,0,-1,923,785,0,0
-294,239,0,0,0,0,0,0,0,0,0,-1,930,785,0,0
-287,239,0,0,0,0,0,0,0,0,0,-1,937,785,0,0
-280,239,0,0,0,0,0,0,0,0,0,-1,944,785,0,0
-273,239,0,0,0,0,0,0,0,0,0,-1,951,785,0,0
-266,239,0,0,0,0,0,0,0,0,0,-1,958,785,0,0
-259,239,0,0,0,0,0,0,0,0,0,-1,965,785,0,0
-252,239,0,0,0,0,0,0,0,0,0,-1,972,785,0,0
-245,239,0,0,0,0,0,0,0,0,0,-1,979,785,0,0
-238,239,0,0,0,0,0,0,0,0,0,-1,986,785,0,0
-231,239,0,0,0,0,0,0,0,0,0,-1,993,785,0,0
-224,239,0,0,0,0,0,0,0,0,0,-1,1000,785,0,0
-217,239,0,0,0,0,0,0,0,0,0,-1,1007,785,0,0
-210,239,0,0,0,0,0,0,0,0,0,-1,1014,785,0,0
-203,239,0,0,0,0,0,0,0,0,0,-1,1021,785,0,0
-196,239,0,0,0,0,0,0,0,0,0,-1,1028,785,0,0
-189,239,0,0,0,0,0,0,0,0,0,-1,1035,785,0,0
-182,239,0,0,0,0,0,0,0,0,0,-1,1042,785,0,0
-175,239,0,0,0,0,0,0,0,0,0,-1,1049,785,0,0
-168,239,0,0,0,0,0,0,0,0,0,-1,1056,785,0,0
-161,239,0,0,0,0,0,0,0,0,0,-1,1063,785,0,0
-154,239,0,0,0,0,0,0,0,0,0,-1,1070,785,0,0
-147,239,0,0,0,0,0,0,0,0,0,-1,1077,785,0,0
-140,239,0,0,0,0,0,0,0,0,0,-1,1084,785,0,0
-133,239,0,0,0,0,0,0,0,0,0,-1,1091,785,0,0
-126,239,0,0,0,0,0,0,0,0,0,-1,1098,785,0,0
-119,239,0,0,0,0,0,0,0,0,0,-1,1105,785,0,0
-112,239,0,0,0,0,0,0,0,0,0,-1,1112,785,0,0
-105,239,0,0,0,0,0,0,0,0,0,-1,1119,785,0,0
-98,239,0,0,0,0,0,0,0,0,0,-1,1126,785,0,0
-91,239,0,0,0,0,0,0,0,0,0,-1,1133,785,0,0
-84,239,0,0,0,0,0,0,0,0,0,-1,1140,785,0,0
-77,239,0,0,0,0,0,0,0,0,0,-1,1147,785,0,0
-70,239,0,0,0,0,0,0,0,0,0,-1,1154,785,0,0
-63,239,0,0,0,0,0,0,0,0,0,-1,1161,785,0,0
-56,239,0,0,0,0,0,0,0,0,0,-1,1168,785,0,0
-49,239,0,0,0,0,0,0,0,0,0,-1,1175,785,0,0
-42,239,0,0,0,0,0,0,0,0,0,-1,1182,785,0,0
-35,239,0,0,0,0,0,0,0,0,0,-1,1189,785,0,0
-28,239,0,0,0,0,0,0,0,0,0,-1,1196,785,0,0
-21,239,0,0,0,0,0,0,0,0,0,-1,1203,785,0,0
-14,239,0,0,0,0,0,0,0,0,0,-1,1210,785,0,0
-7,239,0,0,0,0,0,0,0,0,0,-1,1217,785,0,0
0,239,0,0,0,0,0,0,0,0,0,-1,1224,785,0,0
7,239,0,0,0,0,0,0,0,0,0,-1,1231,785,0,0
14,239,0,0,0,0,0,0,0,0,0,-1,1238,785,0,0
21,239,0,0,0,0,0,0,0,0,0,-1,1245,785,0,0
28,239,0,0,0,0,0,0,0,0,0,-1,1252,785,0,0
35,239,0,0,0,0,0,0,0,0,0,-1,1259,785,0,0
42,239,0,0,0,0,0,0,0,0,0,-1,1266,785,0,0
49,239,0,0,0,0,0,0,0,0,0,-1,1273,785,0,0
56,239,0,0,0,0,0,0,0,0,0,-1,1280,785,0,0
63,239,0,0,0,0,0,0,0,0,0,-1,1287,785,0,0
70,239,0,0,0,0,0,0,0,0,0,-1,1294,785,0,0
77,239,0,0,0,0,0,0,0,0,0,-1,1301,785,0,0
84,239,0,0,0,0,0,0,0,0,0,-1,1308,785,0,0
91,239,0,0,0,0,0,0,0,0,0,-1,1315,785,0,0
98,239,0,0,0,0,0,0,0,0,0,-1,1322,785,0,0
105,239,0,0,0,0,0,0,0,0,0,-1,1329,785,0,0
112,239,0,0,0,0,0,0,0,0,0,-1,1336,785,0,0
119,239,0,0,0,0,0,0,0,0,0,-1,1343,785,0,0
126,239,0,0,0,0,0,0,0,0,0,-1,1350,785,0,0
133,239,0,0,0,0,0,0,0,0,0,-1,1357,785,0,0
140,239,0,0,0,0,0,0,0,0,0,-1,1364,785,0,0
147,239,0,0,0,0,0,0,0,0,0,-1,1371,785,0,0
154,239,0,0,0,0,0,0,0,0,0,-1,1378,785,0,0
161,239,0,0,0,0,0,0,0,0,0,-1,1385,785,0,0
168,239,0,0,0,0,0,0,0,0,0,-1,1392,785,0,0
175,239,0,0,0,0,0,0,0,0,0,-1,1399,785,0,0
182,239,0,0,0,0,0,0,0,0,0,-1,1406,785,0,0
189,239,0,0,0,0,0,0,0,0,0,-1,1413,785,0,0
196,239,0,0,0,0,0,0,0,0,0,-1,1420,785,0,0
203,239,0,0,0,0,0,0,0,0,0,-1,1427,785,0,0
210,239,0,0,0,0,0,0,0,0,0,-1,1434,785,0,0
217,239,0,0,0,0,0,0,0,0,0,-1,1441,785,0,0
224,239,0,0,0,0,0,0,0,0,0,-1,1448,785,0,0
231,239,0,0,0,0,0,0,0,0,0,-1,1455,785,0,0
238,239,0,0,0,0,0,0,0,0,0,-1,1462,785,0,0
245,239,0,0,0,0,0,0,0,0,0,-1,1469,785,0,0
252,239,0,0,0,0,0,0,0,0,0,-1,1476,785,0,0
259,239,0,0,0,0,0,0,0,0,0,-1,1483,785,0,0
266,239,0,0,0,0,0,0,0,0,0,-1,1490,785,0,0
273,239,0,0,0,0,0,0,0,0,0,-1,1497,785,0,0
280,239,0,0,0,0,0,0,0,0,0,-1,1504,785,0,0
287,239,0,0,0,0,0,0,0,0,0,-1,1511,785,0,0
294,239,0,0,0,0,0,0,0,0,0,-1,1518,785,0,0
301,239,0,0,0,0,0,0,0,0,0,-1,1525,785,0,0
308,239,0,0,0,0,0,0,0,0,0,-1,1532,785,0,0
315,239,0,0,0,0,0,0,0,0,0,-1,1539,785,0,0
322,239,0,0,0,0,0,0,0,0,0,-1,1546,785,0,0
329,239,0,0,0,0,0,0,0,0,0,-1,1553,785,0,0
336,239,0,0,0,0,0,0,0,0,0,-1,1560,785,0,0
343,239,0,0,0,0,0,0,0,0,0,-1,1567,785,0,0
350,239,0,0,0,0,0,0,0,0,0,-1,1574,785,0,0
357,239,0,0,0,0,0,0,0,0,0,-1,1581,785,0,0
364,239,0,0,0,0,0,0,0,0,0,-1,1588,785,0,0
371,239,0,0,0,0,0,0,0,0,0,-1,1595,785,0,0
378,239,0,0,0,0,0,0,0,0,0,-1,1602,785,0,0
385,239,0,0,0,0,0,0,0,0,0,-1,1609,785,0,0
392,239,0,0,0,0,0,0,0,0,0,-1,1616,785,0,0
399,239,0,0,0,0,0,0,0,0,0,-1,1623,785,0,0
406,239,0,0,0,0,0,0,0,0,0,-1,1630,785,0,0
413,239,0,0,0,0,0,0,0,0,0,-1,1637,785,0,0
420,239,0,0,0,0,0,0,0,0,0,-1,1644,785,0,0
427,239,0,0,0,0,0,0,0,0,0,-1,1651,785,0,0
434,239,0,0,0,0,0,0,0,0,0,-1,1658,785,0,0
441,239,0,0,0,0,0,0,0,0,0,-1,1665,785,0,0
448,239,0,0,0,0,0,0,0,0,0,-1,1672,785,0,0
455,239,0,0,0,0,0,0,0,0,0,-1,1679,785,0,0
462,239,0,0,0,0,0,0,0,0,0,-1,1686,785,0,0
469,239,0,0,0,0,0,0,0,0,0,-1,1693,785,0,0
476,239,0,0,0,0,0,0,0,0,0,-1,1700,785,0,0
483,239,0,0,0,0,0,0,0,0,0,-1,1707,785,0,0
490,239,0,0,0,0,0,0,0,0,0,-1,1714,785,0,0
497,239,0,0,0,0,0,0,0,0,0,-1,1721,785,0,0
504,239,0,0,0,0,0,0,0,0,0,-1,1728,785,0,0
511,239,0,0,0,0,0,0,0,0,0,-1,1735,785,0,0
518,239,0,0,0,0,0,0,0,0,0,-1,1742,785,0,0
525,239,0,0,0,0,0,0,0,0,0,-1,1749,785,0,0
532,239,0,0,0,0,0,0,0,0,0,-1,1756,785,0,0
539,239,0,0,0,0,0,0,0,0,0,-1,1763,785,0,0
546,239,0,0,0,0,0,0,0,0,0,-1,1770,785,0,0
553,239,0,0,0,0,0,0,0,0,0,-1,1777,785,0,0
560,239,0,0,0,0,0,0,0,0,0,-1,1784,785,0,0
567,239,0,0,0,0,0,0,0,0,0,-1,1791,785,0,0
574,239,0,0,0,0,0,0,0,0,0,-1,1798,785,0,0
581,239,-0.0849609,-0.0178223,0.0116997,-0.00151484,-4.22321e-05,0.0116999,-0.00151498,-0.00319582,0.00835085,0.0300654,1805,785,-0.0849132,0.0178099
588,239,-0.225464,0.0950317,0.0109496,-0.00393214,0.000835945,0.0109964,-0.00397895,0.055938,0.00895686,0.0335152,1812,785,-0.225481,-0.0950364
595,239,-0.119263,-0.0409546,0.0086782,-0.00524453,0.001579,0.00885503,-0.00542136,0.111524,0.00832157,0.0325747,1819,785,-0.119251,0.0409576
602,239,-0.0345459,-0.088623,0.0060626,-0.00561803,0.00205479,0.00641352,-0.00596895,0.169152,0.00715056,0.0356387,1826,785,-0.0344864,0.0886082
609,239,0.0517578,-0.0964355,0.00357645,-0.00552111,0.0023343,0.00414043,-0.00608509,0.237064,0.00593919,0.0414218,1833,785,0.0518185,0.0964059
616,239,0.1604,-0.0809326,0.0014767,-0.00503501,0.0024582,0.00230047,-0.00585878,0.32335,0.00485777,0.04647,1840,785,0.160371,0.0809523
623,239,0.079834,-0.0166016,-0.000107727,-0.00428068,0.00239661,0.000983393,-0.0053718,0.427233,0.00395001,0.0435628,1847,785,0.0798827,0.0165777
630,239,-0.0671387,0.413147,-0.00118814,-0.00355358,0.00226196,0.00018165,-0.00492336,0.544509,0.00334444,0.041626,1854,785,-0.0671132,-0.413155
637,239,-0.119873,0.343933,-0.00184629,-0.00268926,0.00200519,-0.000218771,-0.00431679,0.681808,0.00280778,0.0459633,1861,785,-0.119863,-0.343942
644,239,-0.196289,0.416626,-0.00242323,-0.00191123,0.00173587,-0.000412585,-0.00392188,0.858609,0.00248849,0.0436812,1868,785,-0.196234,-0.416612
651,239,-0.0258789,-0.140625,-0.00267792,-0.001197,0.00133824,-0.000408026,-0.0034669,1.03809,0.00218797,0.0350917,1875,785,-0.0258585,0.140608
658,239,-0.0559082,-0.0264893,-0.00229712,-0.00069095,0.00117665,-6.94451e-05,-0.00291862,1.08485,0.00192302,0.0173829,1882,785,-0.055886,0.0264948
665,239,-0.045166,-0.0160522,-0.00195489,-0.000193703,0.00093916,0.00021313,-0.00236172,1.16201,0.00165012,0.0128223,1889,785,-0.0451929,0.016026
672,239,-0.0822754,-0.0170898,-0.00156854,0.000193687,0.000464371,0.000308566,-0.00168342,1.32828,0.00123802,0.0176716,1896,785,-0.0822795,0.0171023
679,239,-0.072876,-0.0250244,-0.000992887,0.000142555,-5.51909e-05,0.000145231,-0.000995564,-1.52234,0.000717039,0.0179225,1903,785,-0.0728269,0.0249962
686,239,-0.0544434,-0.0429077,-0.00039814,-4.14702e-05,-0.000731438,0.00053306,-0.00097267,-0.904972,0.000881597,0.0187478,1910,785,-0.0544808,0.0429156
693,239,-0.0539551,-0.0436401,-0.000327845,-0.000899435,-0.00109981,0.0005227,-0.00174998,-0.658281,0.00137443,0.0127982,1917,785,-0.0539391,0.0436451
700,239,-0.0662842,-0.0479736,-0.000788789,-0.00228855,-0.001428,7.42524e-05,-0.00315159,-0.543626,0.00212624,0.0103369,1924,785,-0.0662572,0.0479955
707,239,-0.0786133,-0.0522461,-0.00196822,-0.00324239,-0.00200081,-0.000505514,-0.00470509,-0.631266,0.00298254,0.0103399,1931,785,-0.0785868,0.0522266
714,239,-0.074585,-0.0661621,-0.00325689,-0.00486909,-0.00260338,-0.00133767,-0.00678832,-0.635262,0.00415211,0.0101719,1938,785,-0.0746399,0.0661858
721,239,-0.0723877,-0.0515137,-0.00519171,-0.00706996,-0.00302608,-0.00296238,-0.00929929,-0.634938,0.00548551,0.0169266,1945,785,-0.0724267,0.0514968
728,239,0.0650635,-0.0506592,-0.00809923,-0.00980162,-0.00313791,-0.00569911,-0.0122017,-0.652954,0.00704977,0.0328912,1952,785,0.0650721,0.0506523
735,239,0.226929,-0.0732422,-0.0125195,-0.0130709,-0.00286092,-0.00992103,-0.0156694,-0.737365,0.00915301,0.0432703,1959,785,0.226974,0.073237
742,239,-0.507813,3.81384,0,0,0,0,0,0,0,-1,1966,785,-0.50785,-3.81386
749,239,-0.631348,1.06848,0,0,0,0,0,0,0,-1,1973,785,-0.631336,-1.06849
756,239,-0.913574,1.28522,0,0,0,0,0,0,0,-1,1980,785,-0.913542,-1.28524
763,239,0,0,0,0,0,0,0,0,0,-1,1987,785,0,0
770,239,0,0,0,0,0,0,0,0,0,-1,1994,785,0,0
777,239,0,0,0,0,0,0,0,0,0,-1,2001,785,0,0
784,239,0,0,0,0,0,0,0,0,0,-1,2008,785,0,0
791,239,0,0,0,0,0,0,0,0,0,-1,2015,785,0,0
798,239,0,0,0,0,0,0,0,0,0,-1,2022,785,0,0
805,239,0,0,0,0,0,0,0,0,0,-1,2029,785,0,0
812,239,0,0,0,0,0,0,0,0,0,-1,2036,785,0,0
-700,232,0,0,0,0,0,0,0,0,0,-1,524,792,0,0
-693,232,0,0,0,0,0,0,0,0,0,-1,531,792,0,0
-686,232,0,0,0,0,0,0,0,0,0,-1,538,792,0,0
-679,232,0,0,0,0,0,0,0,0,0,-1,545,792,0,0
-672,232,0,0,0,0,0,0,0,0,0,-1,552,792,0,0
-665,232,0,0,0,0,0,0,0,0,0,-1,559,792,0,0
-658,232,0,0,0,0,0,0,0,0,0,-1,566,792,0,0
-651,232,0,0,0,0,0,0,0,0,0,-1,573,792,0,0
-644,232,0.0259399,-0.0979004,-0.0466963,0.0473335,-0.019761,0.0513176,-0.0506804,-1.37185,0.058889,0.0403559,580,792,0.0259328,0.0979295
-637,232,-0.534058,-0.491699,-0.0286322,0.0375176,-0.01665,0.0414721,-0.0325866,-1.33761,0.0428603,0.0404333,587,792,-0.534048,0.491706
-630,232,0.461853,0.345886,0,0,0,0,0,0,0,-1,594,792,0.461832,-0.345916
-623,232,0.795715,0.225586,-0.00840594,0.0228229,-0.0114857,0.0265923,-0.0121753,-1.25369,0.0228926,0.0466137,601,792,0.795697,-0.225579
-616,232,1.15234,0.0560913,-0.00327257,0.0174286,-0.00931173,0.0210008,-0.00684474,-1.20449,0.0167548,0.0468092,608,792,1.15237,-0.056085
-609,232,1.49738,0.012146,0,0,0,0,0,0,0,-1,615,792,1.4974,-0.0121391
-602,232,-0.286133,-0.153503,0.00122439,0.00965785,-0.00573878,0.0125625,-0.00168028,-1.10224,0.00898762,0.0481155,622,792,-0.286156,0.153533
-595,232,-0.113525,0.0189819,0.00217075,0.00661892,-0.00438172,0.0093087,-0.000519027,-1.02025,0.00638584,0.0341855,629,792,-0.11353,-0.0189759
-588,232,-0.0935059,-0.0292969,0.00276609,0.0048733,-0.00312098,0.00711372,0.000525666,-0.948186,0.00457733,0.0113856,636,792,-0.0935282,0.0292819
-581,232,-0.0679932,-0.0482178,0.00277336,0.00274212,-0.00239422,0.00515202,0.00036347,-0.782137,0.00332016,0.00742386,643,792,-0.068006,0.0482327
-574,232,-0.0606079,-0.0515747,0.0018273,0.00164944,-0.00140705,0.00314822,0.000328508,-0.753839,0.00199833,0.00742824,650,792,-0.0606168,0.0515999
-567,232,-0.0656738,-0.0447388,0.0012334,0.000966198,-0.000537011,0.00165318,0.000546417,-0.663482,0.000972567,0.00855508,657,792,-0.065649,0.0447151
-560,232,-0.0726318,-0.0388184,0.00015959,0.00139024,-0.000130616,0.00140395,0.00014588,-1.46621,0.000891331,0.0103235,664,792,-0.0726126,0.0388397
-553,232,-0.0855713,-0.0393677,-0.000187939,0.00232276,-3.65011e-05,0.00232329,-0.000188469,-1.55626,0.00161535,0.0124431,671,792,-0.0855659,0.0393564
-546,232,-0.0961304,-0.0410767,-0.000127618,0.00319333,3.94384e-05,0.0031938,-0.000128087,1.55892,0.00217315,0.0213702,678,792,-0.0961601,0.0410852
-539,232,-0.0942993,-0.0459595,-0.000445765,0.00422335,-3.23367e-05,0.00422357,-0.000445989,-1.56387,0.00297554,0.0247909,685,792,-0.0943038,0.0459303
-532,232,-0.0836182,-0.0413208,-0.000663247,0.00549148,-0.000113149,0.00549356,-0.000665326,-1.55242,0.0039031,0.014172,692,792,-0.0836036,0.0413109
-525,232,-0.06073,-0.0123901,-0.00106049,0.00679774,-0.000199621,0.00680281,-0.00106556,-1.54542,0.00492894,0.020444,699,792,-0.0607454,0.0124126
-518,232,-0.209717,-0.139038,-0.00186469,0.00828808,-0.00036366,0.00830109,-0.0018777,-1.53504,0.00625463,0.039646,706,792,-0.209738,0.139011
-511,232,-0.476501,-0.12262,-0.00290196,0.00961581,-0.000574535,0.00964213,-0.00292828,-1.52503,0.00759474,0.0423554,713,792,-0.476505,0.122627
-504,232,-0.481934,-0.129578,0,0,0,0,0,0,0,-1,720,792,-0.481931,0.129602
-497,232,0.0893555,-0.0670166,0,0,0,0,0,0,0,-1,727,792,0.0893709,0.0670409
-490,232,-0.696472,-0.146362,0,0,0,0,0,0,0,-1,734,792,-0.696495,0.14637
-483,232,-0.170532,-0.129395,-0.00728812,0.011638,-0.000508483,0.0116517,-0.00730177,-1.54396,0.0110384,0.0406992,741,792,-0.170506,0.129407
-476,232,-0.0791016,-0.0714722,-0.0081247,0.0108535,1.04834e-05,0.0108535,-0.00812471,1.57024,0.0109947,0.032108,748,792,-0.0791314,0.0714703
-469,232,-0.12384,-0.128479,-0.00858027,0.00934622,0.000732873,0.00937613,-0.00861019,1.53,0.0103875,0.0321711,755,792,-0.123858,0.128509
-462,232,0,0,0,0,0,0,0,0,0,-1,762,792,0,0
-455,232,0,0,0,0,0,0,0,0,0,-1,769,792,0,0
-448,232,0,0,0,0,0,0,0,0,0,-1,776,792,0,0
-441,232,0,0,0,0,0,0,0,0,0,-1,783,792,0,0
-434,232,0,0,0,0,0,0,0,0,0,-1,790,792,0,0
-427,232,0,0,0,0,0,0,0,0,0,-1,797,792,0,0
-420,232,0,0,0,0,0,0,0,0,0,-1,804,792,0,0
-413,232,0,0,0,0,0,0,0,0,0,-1,811,792,0,0
-406,232,0,0,0,0,0,0,0,0,0,-1,818,792,0,0
-399,232,0,0,0,0,0,0,0,0,0,-1,825,792,0,0
-392,232,0,0,0,0,0,0,0,0,0,-1,832,792,0,0
-385,232,0,0,0,0,0,0,0,0,0,-1,839,792,0,0
-378,232,0,0,0,0,0,0,0,0,0,-1,846,792,0,0
-371,232,0,0,0,0,0,0,0,0,0,-1,853,792,0,0
-364,232,0,0,0,0,0,0,0,0,0,-1,860,792,0,0
-357,232,0,0,0,0,0,0,0,0,0,-1,867,792,0,0
-350,232,0,0,0,0,0,0,0,0,0,-1,874,792,0,0
-343,232,0,0,0,0,0,0,0,0,0,-1,881,792,0,0
-336,232,0,0,0,0,0,0,0,0,0,-1,888,792,0,0
-329,232,0,0,0,0,0,0,0,0,0,-1,895,792,0,0
-322,232,0,0,0,0,0,0,0,0,0,-1,902,792,0,0
-315,232,0,0,0,0,0,0,0,0,0,-1,909,792,0,0
-308,232,0,0,0,0,0,0,0,0,0,-1,916,792,0,0
-301,232,0,0,0,0,0,0,0,0,0,-1,923,792,0,0
-294,232,0,0,0,0,0,0,0,0,0,-1,930,792,0,0
-287,232,0,0,0,0,0,0,0,0,0,-1,937,792,0,0
-280,232,0,0,0,0,0,0,0,0,0,-1,944,792,0,0
-273,232,0,0,0,0,0,0,0,0,0,-1,951,792,0,0
-266,232,0,0,0,0,0,0,0,0,0,-1,958,792,0,0
-259,232,0,0,0,0,0,0,0,0,0,-1,965,792,0,0
-252,232,0,0,0,0,0,0,0,0,0,-1,972,792,0,0
-245,232,0,0,0,0,0,0,0,0,0,-1,979,792,0,0
-238,232,0,0,0,0,0,0,0,0,0,-1,986,792,0,0
-231,232,0,0,0,0,0,0,0,0,0,-1,993,792,0,0
-224,232,0,0,0,0,0,0,0,0,0,-1,1000,792,0,0
-217,232,0,0,0,0,0,0,0,0,0,-1,1007,792,0,0
-210,232,0,0,0,0,0,0,0,0,0,-1,1014,792,0,0
-203,232,0,0,0,0,0,0,0,0,0,-1,1021,792,0,0
-196,232,0,0,0,0,0,0,0,0,0,-1,1028,792,0,0
-189,232,0,0,0,0,0,0,0,0,0,-1,1035,792,0,0
-182,232,0,0,0,0,0,0,0,0,0,-1,1042,792,0,0
-175,232,0,0,0,0,0,0,0,0,0,-1,1049,792,0,0
-168,232,0,0,0,0,0,0,0,0,0,-1,1056,792,0,0
-161,232,0,0,0,0,0,0,0,0,0,-1,1063,792,0,0
-154,232,0,0,0,0,0,0,0,0,0,-1,1070,792,0,0
-147,232,0,0,0,0,0,0,0,0,0,-1,1077,792,0,0
-140,232,0,0,0,0,0,0,0,0,0,-1,1084,792,0,0
-133,232,0,0,0,0,0,0,0,0,0,-1,1091,792,0,0
-126,232,0,0,0,0,0,0,0,0,0,-1,1098,792,0,0
-119,232,0,0,0,0,0,0,0,0,0,-1,1105,792,0,0
-112,232,0,0,0,0,0,0,0,0,0,-1,1112,792,0,0
-105,232,0,0,0,0,0,0,0,0,0,-1,1119,792,0,0
-98,232,0,0,0,0,0,0,0,0,0,-1,1126,792,0,0
-91,232,0,0,0,0,0,0,0,0,0,-1,1133,792,0,0
-84,232,0,0,0,0,0,0,0,0,0,-1,1140,792,0,0
-77,232,0,0,0,0,0,0,0,0,0,-1,1147,792,0,0
-70,232,0,0,0,0,0,0,0,0,0,-1,1154,792,0,0
-63,232,0,0,0,0,0,0,0,0,0,-1,1161,792,0,0
-56,232,0,0,0,0,0,0,0,0,0,-1,1168,792,0,0
-49,232,0,0,0,0,0,0,0,0,0,-1,1175,792,0,0
-42,232,0,0,0,0,0,0,0,0,0,-1,1182,792,0,0
-35,232,0,0,0,0,0,0,0,0,0,-1,1189,792,0,0
-28,232,0,0,0,0,0,0,0,0,0,-1,1196,792,0,0
-21,232,0,0,0,0,0,0,0,0,0,-1,1203,792,0,0
-14,232,0,0,0,0,0,0,0,0,0,-1,1210,792,0,0
-7,232,0,0,0,0,0,0,0,0,0,-1,1217,792,0,0
0,232,0,0,0,0,0,0,0,0,0,-1,1224,792,0,0
7,232,0,0,0,0,0,0,0,0,0,-1,1231,792,0,0
14,232,0,0,0,0,0,0,0,0,0,-1,1238,792,0,0
21,232,0,0,0,0,0,0,0,0,0,-1,1245,792,0,0
28,232,0,0,0,0,0,0,0,0,0,-1,1252,792,0,0
35,232,0,0,0,0,0,0,0,0,0,-1,1259,792,0,0
42,232,0,0,0,0,0,0,0,0,0,-1,1266,792,0,0
49,232,0,0,0,0,0,0,0,0,0,-1,1273,792,0,0
56,232,0,0,0,0,0,0,0,0,0,-1,1280,792,0,0
63,232,0,0,0,0,0,0,0,0,0,-1,1287,792,0,0
70,232,0,0,0,0,0,0,0,0,0,-1,1294,792,0,0
77,232,0,0,0,0,0,0,0,0,0,-1,1301,792,0,0
84,232,0,0,0,0,0,0,0,0,0,-1,1308,792,0,0
91,232,0,0,0,0,0,0,0,0,0,-1,1315,792,0,0
98,232,0,0,0,0,0,0,0,0,0,-1,1322,792,0,0
105,232,0,0,0,0,0,0,0,0,0,-1,1329,792,0,0
112,232,0,0,0,0,0,0,0,0,0,-1,1336,792,0,0
119,232,0,0,0,0,0,0,0,0,0,-1,1343,792,0,0
126,232,0,0,0,0,0,0,0,0,0,-1,1350,792,0,0
133,232,0,0,0,0,0,0,0,0,0,-1,1357,792,0,0
140,232,0,0,0,0,0,0,0,0,0,-1,1364,792,0,0
147,232,0,0,0,0,0,0,0,0,0,-1,1371,792,0,0
154,232,0,0,0,0,0,0,0,0,0,-1,1378,792,0,0
161,232,0,0,0,0,0,0,0,0,0,-1,1385,792,0,0
168,232,0,0,0,0,0,0,0,0,0,-1,1392,792,0,0
175,232,0,0,0,0,0,0,0,0,0,-1,1399,792,0,0
182,232,0,0,0,0,0,0,0,0,0,-1,1406,792,0,0
189,232,0,0,0,0,0,0,0,0,0,-1,1413,792,0,0
196,232,0,0,0,0,0,0,0,0,0,-1,1420,792,0,0
203,232,0,0,0,0,0,0,0,0,0,-1,1427,792,0,0
210,232,0,0,0,0,0,0,0,0,0,-1,1434,792,0,0
217,232,0,0,0,0,0,0,0,0,0,-1,1441,792,0,0
224,232,0,0,0,0,0,0,0,0,0,-1,1448,792,0,0
231,232,0,0,0,0,0,0,0,0,0,-1,1455,792,0,0
238,232,0,0,0,0,0,0,0,0,0,-1,1462,792,0,0
245,232,0,0,0,0,0,0,0,0,0,-1,1469,792,0,0
252,232,0,0,0,0,0,0,0,0,0,-1,1476,792,0,0
259,232,0,0,0,0,0,0,0,0,0,-1,1483,792,0,0
266,232,0,0,0,0,0,0,0,0,0,-1,1490,792,0,0
273,232,0,0,0,0,0,0,0,0,0,-1,1497,792,0,0
280,232,0,0,0,0,0,0,0,0,0,-1,1504,792,0,0
287,232,0,0,0,0,0,0,0,0,0,-1,1511,792,0,0
294,232,0,0,0,0,0,0,0,0,0,-1,1518,792,0,0
301,232,0,0,0,0,0,0,0,0,0,-1,1525,792,0,0
308,232,0,0,0,0,0,0,0,0,0,-1,1532,792,0,0
315,232,0,0,0,0,0,0,0,0,0,-1,1539,792,0,0
322,232,0,0,0,0,0,0,0,0,0,-1,1546,792,0,0
329,232,0,0,0,0,0,0,0,0,0,-1,1553,792,0,0
336,232,0,0,0,0,0,0,0,0,0,-1,1560,792,0,0
343,232,0,0,0,0,0,0,0,0,0,-1,1567,792,0,0
350,232,0,0,0,0,0,0,0,0,0,-1,1574,792,0,0
357,232,0,0,0,0,0,0,0,0,0,-1,1581,792,0,0
364,232,0,0,0,0,0,0,0,0,0,-1,1588,792,0,0
371,232,0,0,0,0,0,0,0,0,0,-1,1595,792,0,0
378,232,0,0,0,0,0,0,0,0,0,-1,1602,792,0,0
385,232,0,0,0,0,0,0,0,0,0,-1,1609,792,0,0
392,232,0,0,0,0,0,0,0,0,0,-1,1616,792,0,0
399,232,0,0,0,0,0,0,0,0,0,-1,1623,792,0,0
406,232,0,0,0,0,0,0,0,0,0,-1,1630,792,0,0
413,232,0,0,0,0,0,0,0,0,0,-1,1637,792,0,0
420,232,0,0,0,0,0,0,0,0,0,-1,1644,792,0,0
427,232,0,0,0,0,0,0,0,0,0,-1,1651,792,0,0
434,232,0,0,0,0,0,0,0,0,0,-1,1658,792,0,0
441,232,0,0,0,0,0,0,0,0,0,-1,1665,792,0,0
448,232,0,0,0,0,0,0,0,0,0,-1,1672,792,0,0
455,232,0,0,0,0,0,0,0,0,0,-1,1679,792,0,0
462,232,0,0,0,0,0,0,0,0,0,-1,1686,792,0,0
469,232,0,0,0,0,0,0,0,0,0,-1,1693,792,0,0
476,232,0,0,0,0,0,0,0,0,0,-1,1700,792,0,0
483,232,0,0,0,0,0,0,0,0,0,-1,1707,792,0,0
490,232,0,0,0,0,0,0,0,0,0,-1,1714,792,0,0
497,232,0,0,0,0,0,0,0,0,0,-1,1721,792,0,0
504,232,0,0,0,0,0,0,0,0,0,-1,1728,792,0,0
511,232,0,0,0,0,0,0,0,0,0,-1,1735,792,0,0
518,232,0,0,0,0,0,0,0,0,0,-1,1742,792,0,0
525,232,0,0,0,0,0,0,0,0,0,-1,1749,792,0,0
532,232,0,0,0,0,0,0,0,0,0,-1,1756,792,0,0
539,232,0,0,0,0,0,0,0,0,0,-1,1763,792,0,0
546,232,0,0,0,0,0,0,0,0,0,-1,1770,792,0,0
553,232,0,0,0,0,0,0,0,0,0,-1,1777,792,0,0
560,232,0,0,0,0,0,0,0,0,0,-1,1784,792,0,0
567,232,0,0,0,0,0,0,0,0,0,-1,1791,792,0,0
574,232,0,0,0,0,0,0,0,0,0,-1,1798,792,0,0
581,232,0,0,0,0,0,0,0,0,0,-1,1805,792,0,0
588,232,-0.164185,0.041626,0.00990007,-0.00206368,2.48453e-05,0.00990012,-0.00206373,0.0020767,0.00738474,0.0334357,1812,792,-0.164169,-0.0416065
595,232,-0.170532,-0.0122681,0.0080044,-0.00426616,0.00105359,0.0080942,-0.00435597,0.0850334,0.00729532,0.0334812,1819,792,-0.170496,0.0122691
602,232,-0.124878,-0.0275879,0.00562829,-0.00504037,0.00163795,0.0058741,-0.00528618,0.14896,0.00644637,0.0310604,1826,792,-0.124928,0.0275799
609,232,-0.0223389,-0.0549927,0.00334204,-0.00516442,0.00193951,0.00376339,-0.00558577,0.21392,0.00543181,0.0337362,1833,792,-0.0223095,0.0550199
616,232,0.217529,-0.225525,0.00137249,-0.00471841,0.00203794,0.00199146,-0.00533738,0.294869,0.00437583,0.0371105,1840,792,0.217481,0.225508
623,232,0.2771,-0.410156,-0.000124453,-0.00399239,0.00197554,0.000706177,-0.00482302,0.398016,0.00347474,0.0412757,1847,792,0.277156,0.410156
630,232,0.0687256,0.175659,-0.00112643,-0.00325182,0.00183995,-6.43302e-05,-0.00431392,0.523517,0.00285474,0.045272,1854,792,0.0687797,-0.175681
637,232,-0.0484619,0.726074,-0.00171425,-0.00241027,0.00160251,-0.000422393,-0.00370212,0.678476,0.00234003,0.0447558,1861,792,-0.0484843,-0.726069
644,232,-0.300049,1.05054,-0.00220472,-0.00165926,0.00137196,-0.000533187,-0.0033308,0.883513,0.00206587,0.0434485,1868,792,-0.299996,-1.05052
651,232,-0.353394,1.30157,0,0,0,0,0,0,0,-1,1875,792,-0.353364,-1.3016
658,232,-0.0760498,-0.0392456,-0.00212177,-0.00046993,0.0008807,-8.84655e-05,-0.00250323,1.16205,0.00164013,0.0210047,1882,792,-0.0760999,0.0392701
665,232,-0.0577393,-0.0247192,-0.00183338,-2.57901e-06,0.00067439,0.000219016,-0.00205498,1.25332,0.00144852,0.0107933,1889,792,-0.057722,0.024715
672,232,-0.0966797,-0.0324097,-0.00147223,0.00035337,0.000306298,0.00040339,-0.00152225,1.40892,0.00117266,0.0173755,1896,792,-0.0967385,0.032395
679,232,-0.0715332,-0.024292,-0.000927847,0.000240208,-8.9762e-05,0.000247066,-0.000934705,-1.49455,0.000719768,0.0174527,1903,792,-0.0714944,0.0243214
686,232,-0.0550537,-0.0178833,-0.000358592,2.02594e-05,-0.000620601,0.0004797,-0.000818032,-0.933522,0.000757686,0.0153383,1910,792,-0.0550632,0.0178887
693,232,-0.0623779,-0.045166,-0.000227668,-0.00084329,-0.000865019,0.000382674,-0.00145363,-0.614463,0.00111868,0.00881105,1917,792,-0.0624085,0.0451633
700,232,-0.0632324,-0.0501709,-0.000593551,-0.00216744,-0.00106545,-5.59316e-05,-0.00270506,-0.467315,0.00178502,0.0110015,1924,792,-0.0632548,0.0501813
707,232,-0.0756836,-0.055542,-0.00173196,-0.00291485,-0.00154875,-0.00066557,-0.00398124,-0.603002,0.00246247,0.0118865,1931,792,-0.0756947,0.0555418
714,232,-0.0762939,-0.0586548,-0.00290331,-0.00435284,-0.00206444,-0.00144011,-0.00581604,-0.616583,0.00349758,0.012734,1938,792,-0.0762873,0.0586379
721,232,-0.0635986,-0.0539551,-0.00455305,-0.00631977,-0.00239748,-0.00288137,-0.00799145,-0.608889,0.00467329,0.0166572,1945,792,-0.0635927,0.0539853
728,232,-0.0643311,0.000305176,-0.00686682,-0.00879163,-0.00243345,-0.00521237,-0.0104461,-0.597092,0.00603104,0.0304403,1952,792,-0.0643627,-0.000315346
735,232,-0.00537109,2.20911,0,0,0,0,0,0,0,-1,1959,792,-0.00532891,-2.20913
742,232,-0.39563,2.55621,0,0,0,0,0,0,0,-1,1966,792,-0.395591,-2.55621
749,232,-1.40918,2.17798,0,0,0,0,0,0,0,-1,1973,792,-1.40916,-2.17799
756,232,-0.553711,1.36786,0,0,0,0,0,0,0,-1,1980,792,-0.553681,-1.36787
763,232,-0.820801,1.76514,0,0,0,0,0,0,0,-1,1987,792,-0.820776,-1.76513
770,232,0,0,0,0,0,0,0,0,0,-1,1994,792,0,0
777,232,0,0,0,0,0,0,0,0,0,-1,2001,792,0,0
784,232,0,0,0,0,0,0,0,0,0,-1,2008,792,0,0
791,232,0,0,0,0,0,0,0,0,0,-1,2015,792,0,0
798,232,0,0,0,0,0,0,0,0,0,-1,2022,792,0,0
805,232,0,0,0,0,0,0,0,0,0,-1,2029,792,0,0
812,232,0,0,0,0,0,0,0,0,0,-1,2036,792,0,0
-700,225,0,0,0,0,0,0,0,0,0,-1,524,799,0,0
-693,225,0,0,0,0,0,0,0,0,0,-1,531,799,0,0
-686,225,0,0,0,0,0,0,0,0,0,-1,538,799,0,0
-679,225,0,0,0,0,0,0,0,0,0,-1,545,799,0,0
-672,225,0,0,0,0,0,0,0,0,0,-1,552,799,0,0
-665,225,0,0,0,0,0,0,0,0,0,-1,559,799,0,0
-658,225,0,0,0,0,0,0,0,0,0,-1,566,799,0,0
-651,225,0,0,0,0,0,0,0,0,0,-1,573,799,0,0
-644,225,0.30896,0.280884,-0.0435238,0.0411906,-0.0155678,0.0439609,-0.0462941,-1.39469,0.0521146,0.0440191,580,799,0.308931,-0.280888
-637,225,-0.188782,-0.181213,-0.0272851,0.0324842,-0.0129885,0.0351847,-0.0299856,-1.3658,0.037666,0.0383949,587,799,-0.188782,0.181213
-630,225,0.169434,-0.846191,-0.0160505,0.0253454,-0.0107741,0.0279817,-0.0186867,-1.33082,0.0271216,0.0437676,594,799,0.169404,0.846169
-623,225,1.38513,-0.153687,0,0,0,0,0,0,0,-1,601,799,1.38512,0.153686
-616,225,1.69122,-0.316223,0,0,0,0,0,0,0,-1,608,799,1.6912,0.316208
-609,225,2.12006,-0.450806,0,0,0,0,0,0,0,-1,615,799,2.12005,0.45082
-602,225,-0.0258789,-0.0964355,0.00103557,0.00811283,-0.00423881,0.0100959,-0.00094752,-1.13321,0.00706766,0.0495358,622,799,-0.0258823,0.0964108
-595,225,-0.0628662,0.0150146,0.00212874,0.00536177,-0.00322255,0.00735053,0.000139991,-1.01787,0.00485436,0.0289585,629,799,-0.0628744,-0.015001
-588,225,-0.097229,-0.0375977,0.00282362,0.00389397,-0.0022426,0.00566437,0.00105322,-0.902527,0.00347873,0.0122279,636,799,-0.0972037,0.0375927
-581,225,-0.0648193,-0.0512695,0.00285343,0.00205071,-0.00168485,0.00418407,0.000720079,-0.668469,0.00258303,0.00962496,643,799,-0.0648087,0.051253
-574,225,-0.0536499,-0.0533447,0.00191858,0.00124173,-0.000918537,0.00255905,0.000601254,-0.608894,0.00154512,0.00771347,650,799,-0.053669,0.0533577
-567,225,-0.0612183,-0.046814,0.00137474,0.000772526,-0.000221257,0.00144729,0.000699975,-0.316854,0.000835744,0.00942956,657,799,-0.0612047,0.0468093
-560,225,-0.0755615,-0.0408325,0.000533766,0.00132552,0.000168346,0.00135983,0.000499458,1.36976,0.00079426,0.00978323,664,799,-0.0755564,0.0408296
-553,225,-0.0747681,-0.0440674,0.000256727,0.00225594,0.000295588,0.00229873,0.00021394,1.42704,0.00146638,0.0104692,671,799,-0.0747525,0.0440762
-546,225,-0.0760498,-0.0452881,0.000265042,0.00312883,0.000339507,0.00316853,0.000225343,1.45439,0.00204139,0.0193143,678,799,-0.0760434,0.0452592
-539,225,-0.0838623,-0.0267944,-1.19079e-05,0.00411228,0.000259429,0.00412854,-2.8163e-05,1.50822,0.00276179,0.0214808,685,799,-0.0838847,0.0267873
-532,225,-0.103638,-0.0194092,-0.000173611,0.00528308,0.000184799,0.00528933,-0.000179862,1.53698,0.00358768,0.0137147,692,799,-0.103632,0.0194124
-525,225,-0.0783081,-0.0112305,-0.000514627,0.00652873,0.000109257,0.00653043,-0.000516322,1.55529,0.00453553,0.0301494,699,799,-0.0783152,0.0112447
-518,225,-0.0878296,-0.493652,-0.00124729,0.00794985,-7.12464e-05,0.0079504,-0.00124784,-1.56305,0.00576144,0.0397773,706,799,-0.0878275,0.493681
-511,225,0.0557861,-1.15796,-0.00223025,0.0092136,-0.000333505,0.00922331,-0.00223996,-1.54169,0.00701575,0.0418899,713,799,0.0557902,1.15796
-504,225,0.0891724,-1.81689,0,0,0,0,0,0,0,-1,720,799,0.0891907,1.81691
-497,225,0.641602,0.0516357,0,0,0,0,0,0,0,-1,727,799,0.641607,-0.0516244
-490,225,-0.110901,-0.0537109,-0.0055288,0.0108023,-0.000893762,0.0108511,-0.00557757,-1.51629,0.00964661,0.0380797,734,799,-0.110926,0.0537205
-483,225,-0.0952759,-0.072876,-0.00651515,0.0101727,-0.000848329,0.0102157,-0.00655817,-1.52014,0.00976085,0.0323063,741,799,-0.0952706,0.0729027
-476,225,-0.0508423,-0.0397949,-0.00721848,0.00861993,-0.000520838,0.00863704,-0.00723559,-1.53796,0.00917596,0.0291249,748,799,-0.0508162,0.0398191
-469,225,-0.0463867,-0.0778198,-0.00734145,0.00600427,-4.27586e-05,0.0060044,-0.00734159,-1.56759,0.00771819,0.0336558,755,799,-0.046381,0.0777959
-462,225,0,0,0,0,0,0,0,0,0,-1,762,799,0,0
-455,225,0,0,0,0,0,0,0,0,0,-1,769,799,0,0
-448,225,0,0,0,0,0,0,0,0,0,-1,776,799,0,0
-441,225,0,0,0,0,0,0,0,0,0,-1,783,799,0,0
-434,225,0,0,0,0,0,0,0,0,0,-1,790,799,0,0
-427,225,0,0,0,0,0,0,0,0,0,-1,797,799,0,0
-420,225,0,0,0,0,0,0,0,0,0,-1,804,799,0,0
-413,225,0,0,0,0,0,0,0,0,0,-1,811,799,0,0
-406,225,0,0,0,0,0,0,0,0,0,-1,818,799,0,0
-399,225,0,0,0,0,0,0,0,0,0,-1,825,799,0,0
-392,225,0,0,0,0,0,0,0,0,0,-1,832,799,0,0
-385,225,0,0,0,0,0,0,0,0,0,-1,839,799,0,0
-378,225,0,0,0,0,0,0,0,0,0,-1,846,799,0,0
-371,225,0,0,0,0,0,0,0,0,0,-1,853,799,0,0
-364,225,0,0,0,0,0,0,0,0,0,-1,860,799,0,0
-357,225,0,0,0,0,0,0,0,0,0,-1,867,799,0,0
-350,225,0,0,0,0,0,0,0,0,0,-1,874,799,0,0
-343,225,0,0,0,0,0,0,0,0,0,-1,881,799,0,0
-336,225,0,0,0,0,0,0,0,0,0,-1,888,799,0,0
-329,225,0,0,0,0,0,0,0,0,0,-1,895,799,0,0
-322,225,0,0,0,0,0,0,0,0,0,-1,902,799,0,0
-315,225,0,0,0,0,0,0,0,0,0,-1,909,799,0,0
-308,225,0,0,0,0,0,0,0,0,0,-1,916,799,0,0
-301,225,0,0,0,0,0,0,0,0,0,-1,923,799,0,0
-294,225,0,0,0,0,0,0,0,0,0,-1,930,799,0,0
-287,225,0,0,0,0,0,0,0,0,0,-1,937,799,0,0
-280,225,0,0,0,0,0,0,0,0,0,-1,944,799,0,0
-273,225,0,0,0,0,0,0,0,0,0,-1,951,799,0,0
-266,225,0,0,0,0,0,0,0,0,0,-1,958,799,0,0
-259,225,0,0,0,0,0,0,0,0,0,-1,965,799,0,0
-252,225,0,0,0,0,0,0,0,0,0,-1,972,799,0,0
-245,225,0,0,0,0,0,0,0,0,0,-1,979,799,0,0
-238,225,0,0,0,0,0,0,0,0,0,-1,986,799,0,0
-231,225,0,0,0,0,0,0,0,0,0,-1,993,799,0,0
-224,225,0,0,0,0,0,0,0,0,0,-1,1000,799,0,0
-217,225,0,0,0,0,0,0,0,0,0,-1,1007,799,0,0
-210,225,0,0,0,0,0,0,0,0,0,-1,1014,799,0,0
-203,225,0,0,0,0,0,0,0,0,0,-1,1021,799,0,0
-196,225,0,0,0,0,0,0,0,0,0,-1,1028,799,0,0
-189,225,0,0,0,0,0,0,0,0,0,-1,1035,799,0,0
-182,225,0,0,0,0,0,0,0,0,0,-1,1042,799,0,0
-175,225,0,0,0,0,0,0,0,0,0,-1,1049,799,0,0
-168,225,0,0,0,0,0,0,0,0,0,-1,1056,799,0,0
-161,225,0,0,0,0,0,0,0,0,0,-1,1063,799,0,0
-154,225,0,0,0,0,0,0,0,0,0,-1,1070,799,0,0
-147,225,0,0,0,0,0,0,0,0,0,-1,1077,799,0,0
-140,225,0,0,0,0,0,0,0,0,0,-1,1084,799,0,0
-133,225,0,0,0,0,0,0,0,0,0,-1,1091,799,0,0
-126,225,0,0,0,0,0,0,0,0,0,-1,1098,799,0,0
-119,225,0,0,0,0,0,0,0,0,0,-1,1105,799,0,0
-112,225,0,0,0,0,0,0,0,0,0,-1,1112,799,0,0
-105,225,0,0,0,0,0,0,0,0,0,-1,1119,799,0,0
-98,225,0,0,0,0,0,0,0,0,0,-1,1126,799,0,0
-91,225,0,0,0,0,0,0,0,0,0,-1,1133,799,0,0
-84,225,0,0,0,0,0,0,0,0,0,-1,1140,799,0,0
-77,225,0,0,0,0,0,0,0,0,0,-1,1147,799,0,0
-70,225,0,0,0,0,0,0,0,0,0,-1,1154,799,0,0
-63,225,0,0,0,0,0,0,0,0,0,-1,1161,799,0,0
-56,225,0,0,0,0,0,0,0,0,0,-1,1168,799,0,0
-49,225,0,0,0,0,0,0,0,0,0,-1,1175,799,0,0
-42,225,0,0,0,0,0,0,0,0,0,-1,1182,799,0,0
-35,225,0,0,0,0,0,0,0,0,0,-1,1189,799,0,0
-28,225,0,0,0,0,0,0,0,0,0,-1,1196,799,0,0
-21,225,0,0,0,0,0,0,0,0,0,-1,1203,799,0,0
-14,225,0,0,0,0,0,0,0,0,0,-1,1210,799,0,0
-7,225,0,0,0,0,0,0,0,0,0,-1,1217,799,0,0
0,225,0,0,0,0,0,0,0,0,0,-1,1224,799,0,0
7,225,0,0,0,0,0,0,0,0,0,-1,1231,799,0,0
14,225,0,0,0,0,0,0,0,0,0,-1,1238,799,0,0
21,225,0,0,0,0,0,0,0,0,0,-1,1245,799,0,0
28,225,0,0,0,0,0,0,0,0,0,-1,1252,799,0,0
35,225,0,0,0,0,0,0,0,0,0,-1,1259,799,0,0
42,225,0,0,0,0,0,0,0,0,0,-1,1266,799,0,0
49,225,0,0,0,0,0,0,0,0,0,-1,1273,799,0,0
56,225,0,0,0,0,0,0,0,0,0,-1,1280,799,0,0
63,225,0,0,0,0,0,0,0,0,0,-1,1287,799,0,0
70,225,0,0,0,0,0,0,0,0,0,-1,1294,799,0,0
77,225,0,0,0,0,0,0,0,0,0,-1,1301,799,0,0
84,225,0,0,0,0,0,0,0,0,0,-1,1308,799,0,0
91,225,0,0,0,0,0,0,0,0,0,-1,1315,799,0,0
98,225,0,0,0,0,0,0,0,0,0,-1,1322,799,0,0
105,225,0,0,0,0,0,0,0,0,0,-1,1329,799,0,0
112,225,0,0,0,0,0,0,0,0,0,-1,1336,799,0,0
119,225,0,0,0,0,0,0,0,0,0,-1,1343,799,0,0
126,225,0,0,0,0,0,0,0,0,0,-1,1350,799,0,0
133,225,0,0,0,0,0,0,0,0,0,-1,1357,799,0,0
140,225,0,0,0,0,0,0,0,0,0,-1,1364,799,0,0
147,225,0,0,0,0,0,0,0,0,0,-1,1371,799,0,0
154,225,0,0,0,0,0,0,0,0,0,-1,1378,799,0,0
161,225,0,0,0,0,0,0,0,0,0,-1,1385,799,0,0
168,225,0,0,0,0,0,0,0,0,0,-1,1392,799,0,0
175,225,0,0,0,0,0,0,0,0,0,-1,1399,799,0,0
182,225,0,0,0,0,0,0,0,0,0,-1,1406,799,0,0
189,225,0,0,0,0,0,0,0,0,0,-1,1413,799,0,0
196,225,0,0,0,0,0,0,0,0,0,-1,1420,799,0,0
203,225,0,0,0,0,0,0,0,0,0,-1,1427,799,0,0
210,225,0,0,0,0,0,0,0,0,0,-1,1434,799,0,0
217,225,0,0,0,0,0,0,0,0,0,-1,1441,799,0,0
224,225,0,0,0,0,0,0,0,0,0,-1,1448,799,0,0
231,225,0,0,0,0,0,0,0,0,0,-1,1455,799,0,0
238,225,0,0,0,0,0,0,0,0,0,-1,1462,799,0,0
245,225,0,0,0,0,0,0,0,0,0,-1,1469,799,0,0
252,225,0,0,0,0,0,0,0,0,0,-1,1476,799,0,0
259,225,0,0,0,0,0,0,0,0,0,-1,1483,799,0,0
266,225,0,0,0,0,0,0,0,0,0,-1,1490,799,0,0
273,225,0,0,0,0,0,0,0,0,0,-1,1497,799,0,0
280,225,0,0,0,0,0,0,0,0,0,-1,1504,799,0,0
287,225,0,0,0,0,0,0,0,0,0,-1,1511,799,0,0
294,225,0,0,0,0,0,0,0,0,0,-1,1518,799,0,0
301,225,0,0,0,0,0,0,0,0,0,-1,1525,799,0,0
308,225,0,0,0,0,0,0,0,0,0,-1,1532,799,0,0
315,225,0,0,0,0,0,0,0,0,0,-1,1539,799,0,0
322,225,0,0,0,0,0,0,0,0,0,-1,1546,799,0,0
329,225,0,0,0,0,0,0,0,0,0,-1,1553,799,0,0
336,225,0,0,0,0,0,0,0,0,0,-1,1560,799,0,0
343,225,0,0,0,0,0,0,0,0,0,-1,1567,799,0,0
350,225,0,0,0,0,0,0,0,0,0,-1,1574,799,0,0
357,225,0,0,0,0,0,0,0,0,0,-1,1581,799,0,0
364,225,0,0,0,0,0,0,0,0,0,-1,1588,799,0,0
371,225,0,0,0,0,0,0,0,0,0,-1,1595,799,0,0
378,225,0,0,0,0,0,0,0,0,0,-1,1602,799,0,0
385,225,0,0,0,0,0,0,0,0,0,-1,1609,799,0,0
392,225,0,0,0,0,0,0,0,0,0,-1,1616,799,0,0
399,225,0,0,0,0,0,0,0,0,0,-1,1623,799,0,0
406,225,0,0,0,0,0,0,0,0,0,-1,1630,799,0,0
413,225,0,0,0,0,0,0,0,0,0,-1,1637,799,0,0
420,225,0,0,0,0,0,0,0,0,0,-1,1644,799,0,0
427,225,0,0,0,0,0,0,0,0,0,-1,1651,799,0,0
434,225,0,0,0,0,0,0,0,0,0,-1,1658,799,0,0
441,225,0,0,0,0,0,0,0,0,0,-1,1665,799,0,0
448,225,0,0,0,0,0,0,0,0,0,-1,1672,799,0,0
455,225,0,0,0,0,0,0,0,0,0,-1,1679,799,0,0
462,225,0,0,0,0,0,0,0,0,0,-1,1686,799,0,0
469,225,0,0,0,0,0,0,0,0,0,-1,1693,799,0,0
476,225,0,0,0,0,0,0,0,0,0,-1,1700,799,0,0
483,225,0,0,0,0,0,0,0,0,0,-1,1707,799,0,0
490,225,0,0,0,0,0,0,0,0,0,-1,1714,799,0,0
497,225,0,0,0,0,0,0,0,0,0,-1,1721,799,0,0
504,225,0,0,0,0,0,0,0,0,0,-1,1728,799,0,0
511,225,0,0,0,0,0,0,0,0,0,-1,1735,799,0,0
518,225,0,0,0,0,0,0,0,0,0,-1,1742,799,0,0
525,225,0,0,0,0,0,0,0,0,0,-1,1749,799,0,0
532,225,0,0,0,0,0,0,0,0,0,-1,1756,799,0,0
539,225,0,0,0,0,0,0,0,0,0,-1,1763,799,0,0
546,225,0,0,0,0,0,0,0,0,0,-1,1770,799,0,0
553,225,0,0,0,0,0,0,0,0,0,-1,1777,799,0,0
560,225,0,0,0,0,0,0,0,0,0,-1,1784,799,0,0
567,225,0,0,0,0,0,0,0,0,0,-1,1791,799,0,0
574,225,0,0,0,0,0,0,0,0,0,-1,1798,799,0,0
581,225,0,0,0,0,0,0,0,0,0,-1,1805,799,0,0
588,225,-0.0168457,-0.0514526,0.00937408,-0.00027309,-0.00120304,0.00952184,-0.000420852,-0.122211,0.00649272,0.0319851,1812,799,-0.0168405,0.0514831
595,225,-0.0526123,0.0010376,0.00763239,-0.00308737,0.000299055,0.00764073,-0.00309571,0.0278686,0.00638114,0.0316979,1819,799,-0.0525835,-0.00102518
602,225,-0.150635,-0.0153809,0.00535644,-0.00406002,0.00105878,0.00547402,-0.0041776,0.1106,0.0055891,0.0298861,1826,799,-0.15065,0.015386
609,225,-0.116455,-0.0100708,0.00318709,-0.00433428,0.00142281,0.00344724,-0.00459443,0.180847,0.00465858,0.0266701,1833,799,-0.116482,0.0101003
616,225,-0.039917,-0.0906982,0.00132024,-0.00401259,0.00154207,0.00173405,-0.00442639,0.262167,0.00366821,0.0324738,1840,799,-0.0398722,0.0907159
623,225,0.0229492,-0.179626,-0.000122636,-0.00340018,0.00152064,0.000474192,-0.00399701,0.374012,0.00283599,0.0360625,1847,799,0.0229604,0.179645
630,225,0.218994,-0.367737,-0.00107176,-0.00271143,0.00140017,-0.000269067,-0.00351412,0.520544,0.00225841,0.0392448,1854,799,0.218961,0.367764
637,225,-0.163574,-0.726257,-0.00158001,-0.00198979,0.00119735,-0.000570144,-0.00299965,0.700658,0.00183942,0.0423925,1861,799,-0.163624,0.726235
644,225,-0.406128,-1.18646,-0.00197944,-0.00134515,0.00101834,-0.000595715,-0.00272888,0.936354,0.00165678,0.0413867,1868,799,-0.406073,1.18649
651,225,-0.277466,-1.69855,0,0,0,0,0,0,0,-1,1875,799,-0.277513,1.69856
658,225,0.0240479,-0.527344,0,0,0,0,0,0,0,-1,1882,799,0.0240681,0.527318
665,225,-0.0653076,-0.0479736,-0.00167811,0.000110861,0.00046397,0.000224032,-0.00179128,1.33155,0.00127544,0.011698,1889,799,-0.0652795,0.0479958
672,225,-0.10144,-0.0407104,-0.00134898,0.000422405,0.000203834,0.000445558,-0.00137213,1.4577,0.00109395,0.0163884,1896,799,-0.101421,0.0407078
679,225,-0.0791016,-0.0522461,-0.000851216,0.000312384,-7.39127e-05,0.000317061,-0.000855892,-1.50761,0.000700618,0.0168415,1903,799,-0.0790616,0.0522658
686,225,-0.0670166,-0.0360107,-0.000337405,0.000121411,-0.000458501,0.000404693,-0.000620687,-1.01736,0.000596366,0.00991222,1910,799,-0.0670122,0.035999
693,225,-0.0822754,-0.043396,-0.000168577,-0.000659305,-0.000590136,0.000225171,-0.00105305,-0.588382,0.000787892,0.00922476,1917,799,-0.0822474,0.0434061
700,225,-0.0767822,-0.0491333,-0.000429207,-0.00180746,-0.000686847,-0.000145372,-0.00209129,-0.391871,0.00134835,0.0106162,1924,799,-0.0767527,0.0491504
707,225,-0.0795898,-0.0357056,-0.00147364,-0.00225628,-0.00110376,-0.000693887,-0.00303603,-0.615045,0.00183694,0.0110808,1931,799,-0.0795889,0.0356838
714,225,-0.0705566,-0.0383301,-0.00243706,-0.00344028,-0.00154441,-0.00131484,-0.0045625,-0.628378,0.0027118,0.0118489,1938,799,-0.0706171,0.0383415
721,225,-0.0561523,-0.0498047,-0.00364592,-0.00523001,-0.00177586,-0.00249349,-0.00638245,-0.575634,0.00371415,0.0127279,1945,799,-0.0560938,0.0498022
728,225,-0.0793457,0.000671387,-0.00516762,-0.00758838,-0.00165262,-0.00432955,-0.00842645,-0.469327,0.00486563,0.0212951,1952,799,-0.0793418,-0.000655362
735,225,-0.0108643,0.839966,0,0,0,0,0,0,0,-1,1959,799,-0.0109247,-0.839969
742,225,-0.367188,1.10791,0,0,0,0,0,0,0,-1,1966,799,-0.367181,-1.10791
749,225,-0.923706,1.25714,0,0,0,0,0,0,0,-1,1973,799,-0.923726,-1.25712
756,225,-1.58313,1.43658,0,0,0,0,0,0,0,-1,1980,799,-1.58312,-1.43657
763,225,-2.30518,1.43225,0,0,0,0,0,0,0,-1,1987,799,-2.3052,-1.43223
770,225,0,0,0,0,0,0,0,0,0,-1,1994,799,0,0
777,225,0,0,0,0,0,0,0,0,0,-1,2001,799,0,0
784,225,0,0,0,0,0,0,0,0,0,-1,2008,799,0,0
791,225,0,0,0,0,0,0,0,0,0,-1,2015,799,0,0
798,225,0,0,0,0,0,0,0,0,0,-1,2022,799,0,0
805,225,0,0,0,0,0,0,0,0,0,-1,2029,799,0,0
812,225,0,0,0,0,0,0,0,0,0,-1,2036,799,0,0
-700,218,0,0,0,0,0,0,0,0,0,-1,524,806,0,0
-693,218,0,0,0,0,0,0,0,0,0,-1,531,806,0,0
-686,218,0,0,0,0,0,0,0,0,0,-1,538,806,0,0
-679,218,0,0,0,0,0,0,0,0,0,-1,545,806,0,0
-672,218,0,0,0,0,0,0,0,0,0,-1,552,806,0,0
-665,218,0,0,0,0,0,0,0,0,0,-1,559,806,0,0
-658,218,0,0,0,0,0,0,0,0,0,-1,566,806,0,0
-651,218,0.802795,0.981445,0,0,0,0,0,0,0,-1,573,806,0.802822,-0.981465
-644,218,0.621155,0.57782,-0.0411547,0.0366174,-0.00970812,0.037811,-0.0423482,-1.44847,0.0463046,0.0453304,580,806,0.621137,-0.577829
-637,218,-0.00567627,0.0596924,-0.0261375,0.0287657,-0.00835428,0.0300087,-0.0273806,-1.42308,0.0331453,0.0388711,587,806,-0.00564832,-0.0596782
-630,218,-0.0358887,-0.598022,-0.0155065,0.0223658,-0.0071446,0.0236688,-0.0168095,-1.3904,0.0234817,0.0420885,594,806,-0.0358991,0.598053
-623,218,0.0119629,-0.927063,0,0,0,0,0,0,0,-1,601,806,0.011969,0.927059
-616,218,-0.302429,-0.302124,-0.00326348,0.0129456,-0.00495572,0.0143407,-0.00465856,-1.29639,0.0114341,0.0448119,608,806,-0.302415,0.302145
-609,218,-0.12738,-0.331116,-0.000296852,0.00959913,-0.00397045,0.0109952,-0.00169292,-1.23268,0.00795471,0.0460055,615,806,-0.127392,0.331096
-602,218,-0.062561,-0.0836182,0.00126952,0.00706255,-0.0030182,0.00834925,-1.71778e-05,-1.16781,0.0055719,0.0414024,622,806,-0.0625574,0.0835955
-595,218,-0.103149,-0.0317993,0.0024481,0.00449615,-0.0023418,0.00602803,0.000916215,-0.991511,0.00375077,0.0168892,629,806,-0.103152,0.0317904
-588,218,-0.108765,-0.0471191,0.00323486,0.00326844,-0.0016972,0.00494893,0.00155436,-0.790344,0.00292237,0.0107706,636,806,-0.108749,0.0471259
-581,218,-0.0886841,-0.0484619,0.00323495,0.00163781,-0.00127652,0.00394211,0.00093065,-0.505888,0.00237932,0.0100967,643,806,-0.0886614,0.0484451
-574,218,-0.0710449,-0.0467529,0.00223333,0.000989373,-0.000661005,0.00251898,0.000703725,-0.407904,0.00150079,0.00961561,650,806,-0.0710444,0.0467681
-567,218,-0.0463867,-0.067749,0.00169212,0.000665691,-6.90797e-05,0.00169675,0.000661062,-0.0668989,0.000987545,0.0153191,657,806,-0.046395,0.0677487
-560,218,-0.0664673,-0.045105,0.00103699,0.00126568,0.000411292,0.00157822,0.000724445,0.92098,0.000912208,0.0163547,664,806,-0.0664932,0.0450751
-553,218,-0.078064,-0.0404053,0.000757611,0.00211912,0.000626894,0.0023638,0.000512935,1.19868,0.00143576,0.0174788,671,806,-0.0780413,0.0404298
-546,218,-0.0661011,-0.0537109,0.000694755,0.00297613,0.000658514,0.00315256,0.000518321,1.30902,0.00195201,0.0136505,678,806,-0.0660847,0.053706
-539,218,-0.0736084,-0.0418091,0.000476889,0.00393931,0.000572719,0.00403158,0.000384615,1.41105,0.00256913,0.0130283,685,806,-0.0736152,0.041798
-532,218,-0.130188,-0.0216675,0.00038268,0.00501028,0.000521879,0.0050684,0.000324555,1.45988,0.00327611,0.0143745,692,806,-0.130171,0.0216518
-525,218,-0.0894775,-0.0282593,0.000125844,0.00617907,0.000456721,0.00621333,9.15786e-05,1.49591,0.00411203,0.0424174,699,806,-0.0894733,0.0282365
-518,218,-0.0252686,-0.0345459,0,0,0,0,0,0,0,-1,706,806,-0.0252649,0.0345524
-511,218,0.710876,-1.94934,0,0,0,0,0,0,0,-1,713,806,0.710883,1.94936
-504,218,0.37384,0.688232,-0.00233339,0.00951492,-0.000366978,0.00952628,-0.00234475,-1.53986,0.00725977,0.0421229,720,806,0.373839,-0.688251
-497,218,0.268616,0.247131,-0.00345681,0.0098781,-0.000701871,0.00991494,-0.00349365,-1.51836,0.00803191,0.0448588,727,806,0.268644,-0.247155
-490,218,-0.0299072,-0.0352173,-0.00459788,0.00955964,-0.00102159,0.00963298,-0.00467122,-1.49913,0.00842252,0.0350847,734,806,-0.0299016,0.03524
-483,218,-0.0499268,-0.074585,-0.00562049,0.00833346,-0.00119043,0.00843429,-0.00572132,-1.4863,0.00822262,0.0321592,741,806,-0.0499481,0.0745939
-476,218,-0.0442505,-0.0192871,-0.00639878,0.00575283,-0.00106408,0.00584531,-0.00649125,-1.48411,0.00712577,0.0340877,748,806,-0.0442658,0.019303
-469,218,0,0,0,0,0,0,0,0,0,-1,755,806,0,0
-462,218,0,0,0,0,0,0,0,0,0,-1,762,806,0,0
-455,218,0,0,0,0,0,0,0,0,0,-1,769,806,0,0
-448,218,0,0,0,0,0,0,0,0,0,-1,776,806,0,0
-441,218,0,0,0,0,0,0,0,0,0,-1,783,806,0,0
-434,218,0,0,0,0,0,0,0,0,0,-1,790,806,0,0
-427,218,0,0,0,0,0,0,0,0,0,-1,797,806,0,0
-420,218,0,0,0,0,0,0,0,0,0,-1,804,806,0,0
-413,218,0,0,0,0,0,0,0,0,0,-1,811,806,0,0
-406,218,0,0,0,0,0,0,0,0,0,-1,818,806,0,0
-399,218,0,0,0,0,0,0,0,0,0,-1,825,806,0,0
-392,218,0,0,0,0,0,0,0,0,0,-1,832,806,0,0
-385,218,0,0,0,0,0,0,0,0,0,-1,839,806,0,0
-378,218,0,0,0,0,0,0,0,0,0,-1,846,806,0,0
-371,218,0,0,0,0,0,0,0,0,0,-1,853,806,0,0
-364,218,0,0,0,0,0,0,0,0,0,-1,860,806,0,0
-357,218,0,0,0,0,0,0,0,0,0,-1,867,806,0,0
-350,218,0,0,0,0,0,0,0,0,0,-1,874,806,0,0
-343,218,0,0,0,0,0,0,0,0,0,-1,881,806,0,0
-336,218,0,0,0,0,0,0,0,0,0,-1,888,806,0,0
-329,218,0,0,0,0,0,0,0,0,0,-1,895,806,0,0
-322,218,0,0,0,0,0,0,0,0,0,-1,902,806,0,0
-315,218,0,0,0,0,0,0,0,0,0,-1,909,806,0,0
-308,218,0,0,0,0,0,0,0,0,0,-1,916,806,0,0
-301,218,0,0,0,0,0,0,0,0,0,-1,923,806,0,0
-294,218,0,0,0,0,0,0,0,0,0,-1,930,806,0,0
-287,218,0,0,0,0,0,0,0,0,0,-1,937,806,0,0
-280,218,0,0,0,0,0,0,0,0,0,-1,944,806,0,0
-273,218,0,0,0,0,0,0,0,0,0,-1,951,806,0,0
-266,218,0,0,0,0,0,0,0,0,0,-1,958,806,0,0
-259,218,0,0,0,0,0,0,0,0,0,-1,965,806,0,0
-252,218,0,0,0,0,0,0,0,0,0,-1,972,806,0,0
-245,218,0,0,0,0,0,0,0,0,0,-1,979,806,0,0
-238,218,0,0,0,0,0,0,0,0,0,-1,986,806,0,0
-231,218,0,0,0,0,0,0,0,0,0,-1,993,806,0,0
-224,218,0,0,0,0,0,0,0,0,0,-1,1000,806,0,0
-217,218,0,0,0,0,0,0,0,0,0,-1,1007,806,0,0
-210,218,0,0,0,0,0,0,0,0,0,-1,1014,806,0,0
-203,218,0,0,0,0,0,0,0,0,0,-1,1021,806,0,0
-196,218,0,0,0,0,0,0,0,0,0,-1,1028,806,0,0
-189,218,0,0,0,0,0,0,0,0,0,-1,1035,806,0,0
-182,218,0,0,0,0,0,0,0,0,0,-1,1042,806,0,0
-175,218,0,0,0,0,0,0,0,0,0,-1,1049,806,0,0
-168,218,0,0,0,0,0,0,0,0,0,-1,1056,806,0,0
-161,218,0,0,0,0,0,0,0,0,0,-1,1063,806,0,0
-154,218,0,0,0,0,0,0,0,0,0,-1,1070,806,0,0
-147,218,0,0,0,0,0,0,0,0,0,-1,1077,806,0,0
-140,218,0,0,0,0,0,0,0,0,0,-1,1084,806,0,0
-133,218,0,0,0,0,0,0,0,0,0,-1,1091,806,0,0
-126,218,0,0,0,0,0,0,0,0,0,-1,1098,806,0,0
-119,218,0,0,0,0,0,0,0,0,0,-1,1105,806,0,0
-112,218,0,0,0,0,0,0,0,0,0,-1,1112,806,0,0
-105,218,0,0,0,0,0,0,0,0,0,-1,1119,806,0,0
-98,218,0,0,0,0,0,0,0,0,0,-1,1126,806,0,0
-91,218,0,0,0,0,0,0,0,0,0,-1,1133,806,0,0
-84,218,0,0,0,0,0,0,0,0,0,-1,1140,806,0,0
-77,218,0,0,0,0,0,0,0,0,0,-1,1147,806,0,0
-70,218,0,0,0,0,0,0,0,0,0,-1,1154,806,0,0
-63,218,0,0,0,0,0,0,0,0,0,-1,1161,806,0,0
-56,218,0,0,0,0,0,0,0,0,0,-1,1168,806,0,0
-49,218,0,0,0,0,0,0,0,0,0,-1,1175,806,0,0
-42,218,0,0,0,0,0,0,0,0,0,-1,1182,806,0,0
-35,218,0,0,0,0,0,0,0,0,0,-1,1189,806,0,0
-28,218,0,0,0,0,0,0,0,0,0,-1,1196,806,0,0
-21,218,0,0,0,0,0,0,0,0,0,-1,1203,806,0,0
-14,218,0,0,0,0,0,0,0,0,0,-1,1210,806,0,0
-7,218,0,0,0,0,0,0,0,0,0,-1,1217,806,0,0
0,218,0,0,0,0,0,0,0,0,0,-1,1224,806,0,0
7,218,0,0,0,0,0,0,0,0,0,-1,1231,806,0,0
14,218,0,0,0,0,0,0,0,0,0,-1,1238,806,0,0
21,218,0,0,0,0,0,0,0,0,0,-1,1245,806,0,0
28,218,0,0,0,0,0,0,0,0,0,-1,1252,806,0,0
35,218,0,0,0,0,0,0,0,0,0,-1,1259,806,0,0
42,218,0,0,0,0,0,0,0,0,0,-1,1266,806,0,0
49,218,0,0,0,0,0,0,0,0,0,-1,1273,806,0,0
56,218,0,0,0,0,0,0,0,0,0,-1,1280,806,0,0
63,218,0,0,0,0,0,0,0,0,0,-1,1287,806,0,0
70,218,0,0,0,0,0,0,0,0,0,-1,1294,806,0,0
77,218,0,0,0,0,0,0,0,0,0,-1,1301,806,0,0
84,218,0,0,0,0,0,0,0,0,0,-1,1308,806,0,0
91,218,0,0,0,0,0,0,0,0,0,-1,1315,806,0,0
98,218,0,0,0,0,0,0,0,0,0,-1,1322,806,0,0
105,218,0,0,0,0,0,0,0,0,0,-1,1329,806,0,0
112,218,0,0,0,0,0,0,0,0,0,-1,1336,806,0,0
119,218,0,0,0,0,0,0,0,0,0,-1,1343,806,0,0
126,218,0,0,0,0,0,0,0,0,0,-1,1350,806,0,0
133,218,0,0,0,0,0,0,0,0,0,-1,1357,806,0,0
140,218,0,0,0,0,0,0,0,0,0,-1,1364,806,0,0
147,218,0,0,0,0,0,0,0,0,0,-1,1371,806,0,0
154,218,0,0,0,0,0,0,0,0,0,-1,1378,806,0,0
161,218,0,0,0,0,0,0,0,0,0,-1,1385,806,0,0
168,218,0,0,0,0,0,0,0,0,0,-1,1392,806,0,0
175,218,0,0,0,0,0,0,0,0,0,-1,1399,806,0,0
182,218,0,0,0,0,0,0,0,0,0,-1,1406,806,0,0
189,218,0,0,0,0,0,0,0,0,0,-1,1413,806,0,0
196,218,0,0,0,0,0,0,0,0,0,-1,1420,806,0,0
203,218,0,0,0,0,0,0,0,0,0,-1,1427,806,0,0
210,218,0,0,0,0,0,0,0,0,0,-1,1434,806,0,0
217,218,0,0,0,0,0,0,0,0,0,-1,1441,806,0,0
224,218,0,0,0,0,0,0,0,0,0,-1,1448,806,0,0
231,218,0,0,0,0,0,0,0,0,0,-1,1455,806,0,0
238,218,0,0,0,0,0,0,0,0,0,-1,1462,806,0,0
245,218,0,0,0,0,0,0,0,0,0,-1,1469,806,0,0
252,218,0,0,0,0,0,0,0,0,0,-1,1476,806,0,0
259,218,0,0,0,0,0,0,0,0,0,-1,1483,806,0,0
266,218,0,0,0,0,0,0,0,0,0,-1,1490,806,0,0
273,218,0,0,0,0,0,0,0,0,0,-1,1497,806,0,0
280,218,0,0,0,0,0,0,0,0,0,-1,1504,806,0,0
287,218,0,0,0,0,0,0,0,0,0,-1,1511,806,0,0
294,218,0,0,0,0,0,0,0,0,0,-1,1518,806,0,0
301,218,0,0,0,0,0,0,0,0,0,-1,1525,806,0,0
308,218,0,0,0,0,0,0,0,0,0,-1,1532,806,0,0
315,218,0,0,0,0,0,0,0,0,0,-1,1539,806,0,0
322,218,0,0,0,0,0,0,0,0,0,-1,1546,806,0,0
329,218,0,0,0,0,0,0,0,0,0,-1,1553,806,0,0
336,218,0,0,0,0,0,0,0,0,0,-1,1560,806,0,0
343,218,0,0,0,0,0,0,0,0,0,-1,1567,806,0,0
350,218,0,0,0,0,0,0,0,0,0,-1,1574,806,0,0
357,218,0,0,0,0,0,0,0,0,0,-1,1581,806,0,0
364,218,0,0,0,0,0,0,0,0,0,-1,1588,806,0,0
371,218,0,0,0,0,0,0,0,0,0,-1,1595,806,0,0
378,218,0,0,0,0,0,0,0,0,0,-1,1602,806,0,0
385,218,0,0,0,0,0,0,0,0,0,-1,1609,806,0,0
392,218,0,0,0,0,0,0,0,0,0,-1,1616,806,0,0
399,218,0,0,0,0,0,0,0,0,0,-1,1623,806,0,0
406,218,0,0,0,0,0,0,0,0,0,-1,1630,806,0,0
413,218,0,0,0,0,0,0,0,0,0,-1,1637,806,0,0
420,218,0,0,0,0,0,0,0,0,0,-1,1644,806,0,0
427,218,0,0,0,0,0,0,0,0,0,-1,1651,806,0,0
434,218,0,0,0,0,0,0,0,0,0,-1,1658,806,0,0
441,218,0,0,0,0,0,0,0,0,0,-1,1665,806,0,0
448,218,0,0,0,0,0,0,0,0,0,-1,1672,806,0,0
455,218,0,0,0,0,0,0,0,0,0,-1,1679,806,0,0
462,218,0,0,0,0,0,0,0,0,0,-1,1686,806,0,0
469,218,0,0,0,0,0,0,0,0,0,-1,1693,806,0,0
476,218,0,0,0,0,0,0,0,0,0,-1,1700,806,0,0
483,218,0,0,0,0,0,0,0,0,0,-1,1707,806,0,0
490,218,0,0,0,0,0,0,0,0,0,-1,1714,806,0,0
497,218,0,0,0,0,0,0,0,0,0,-1,1721,806,0,0
504,218,0,0,0,0,0,0,0,0,0,-1,1728,806,0,0
511,218,0,0,0,0,0,0,0,0,0,-1,1735,806,0,0
518,218,0,0,0,0,0,0,0,0,0,-1,1742,806,0,0
525,218,0,0,0,0,0,0,0,0,0,-1,1749,806,0,0
532,218,0,0,0,0,0,0,0,0,0,-1,1756,806,0,0
539,218,0,0,0,0,0,0,0,0,0,-1,1763,806,0,0
546,218,0,0,0,0,0,0,0,0,0,-1,1770,806,0,0
553,218,0,0,0,0,0,0,0,0,0,-1,1777,806,0,0
560,218,0,0,0,0,0,0,0,0,0,-1,1784,806,0,0
567,218,0,0,0,0,0,0,0,0,0,-1,1791,806,0,0
574,218,0,0,0,0,0,0,0,0,0,-1,1798,806,0,0
581,218,0,0,0,0,0,0,0,0,0,-1,1805,806,0,0
588,218,0,0,0,0,0,0,0,0,0,-1,1812,806,0,0
595,218,-0.00732422,-0.039856,0.00605158,-0.00157678,-0.000238944,0.00605906,-0.00158426,-0.0312822,0.00465814,0.0331026,1819,806,-0.00729001,0.0398747
602,218,-0.0698242,-0.0307617,0.00416169,-0.00275619,0.00036276,0.00418066,-0.00277516,0.0522471,0.00404318,0.029722,1826,806,-0.0697829,0.0307328
609,218,-0.0915527,-0.0353394,0.00240921,-0.00320774,0.000606349,0.00247392,-0.00327245,0.106318,0.00332833,0.0245544,1833,806,-0.091591,0.0353091
616,218,-0.0758057,-0.0328979,0.000918645,-0.00312483,0.000684756,0.00103146,-0.00323764,0.163285,0.00257214,0.0268025,1840,806,-0.0758435,0.032899
623,218,-0.0778809,-0.0806885,-0.000255142,-0.00269107,0.000692327,-7.21234e-05,-0.00287409,0.258442,0.00189247,0.0303374,1847,806,-0.0778685,0.0806608
630,218,-0.050415,-0.18396,-0.00101445,-0.0021449,0.000631107,-0.000732454,-0.00242689,0.420206,0.00143739,0.0344935,1854,806,-0.0504546,0.183957
637,218,-0.0523682,-0.457703,-0.00140988,-0.00158423,0.000526434,-0.000963452,-0.00203066,0.703342,0.00117291,0.0404317,1861,806,-0.0524137,0.457724
644,218,-0.00622559,-0.684814,-0.00166797,-0.00106677,0.000460354,-0.000817561,-0.00191717,1.07463,0.00111087,0.0440162,1868,806,-0.0062272,0.684813
651,218,0.153076,-0.894836,0,0,0,0,0,0,0,-1,1875,806,0.153023,0.894816
658,218,-0.0185547,-0.533203,0,0,0,0,0,0,0,-1,1882,806,-0.0185817,0.533176
665,218,-0.114502,-0.0895386,0,0,0,0,0,0,0,-1,1889,806,-0.11451,0.0895654
672,218,-0.0667725,-0.0485229,-0.00116648,0.000338213,0.00010002,0.000344832,-0.0011731,1.50471,0.000918837,0.0102522,1896,806,-0.0668047,0.0485378
679,218,-0.0738525,-0.0545654,-0.000729802,0.000241048,-5.52556e-05,0.000244183,-0.000732937,-1.51413,0.000587194,0.0106255,1903,806,-0.0738573,0.0545919
686,218,-0.0767822,-0.0413208,-0.000273291,9.68888e-05,-0.000312628,0.000275109,-0.000451511,-1.05267,0.000423615,0.0104855,1910,806,-0.0768265,0.0412904
693,218,-0.0839844,-0.0394287,-6.91594e-05,-0.000573368,-0.000353315,0.000112773,-0.000755301,-0.475521,0.000545028,0.0112558,1917,806,-0.0839704,0.0394172
700,218,-0.0819092,-0.0482788,-0.000220348,-0.00151652,-0.000379368,-0.000117478,-0.00161939,-0.264796,0.00104264,0.00937333,1924,806,-0.0819305,0.0482976
707,218,-0.0847168,-0.0403442,-0.00112773,-0.00169359,-0.000755005,-0.00060438,-0.00221693,-0.606128,0.00132333,0.00750719,1931,806,-0.0847318,0.0403462
714,218,-0.0794678,-0.0290527,-0.00187625,-0.00263901,-0.00113036,-0.00106466,-0.0034506,-0.622696,0.00204031,0.00973042,1938,806,-0.0794809,0.0290525
721,218,-0.0596924,-0.0402222,-0.0026687,-0.00433788,-0.00123611,-0.00201181,-0.00499477,-0.488464,0.00290185,0.0111957,1945,806,-0.0596608,0.0401983
728,218,-0.0343018,-0.0297852,-0.00352183,-0.00643874,-0.000977719,-0.00322443,-0.00673614,-0.295285,0.00389029,0.0170964,1952,806,-0.0342619,0.0298082
735,218,-0.0944824,0.0789795,-0.00504349,-0.0089381,-0.000589048,-0.00495634,-0.00902524,-0.146872,0.00521911,0.0344678,1959,806,-0.094481,-0.0789696
742,218,0.219116,0.108826,0,0,0,0,0,0,0,-1,1966,806,0.219101,-0.108817
749,218,-0.457642,0.364929,0,0,0,0,0,0,0,-1,1973,806,-0.457628,-0.364957
756,218,-1.16492,0.604919,-0.00987267,-0.0216822,0.00398787,-0.00865217,-0.0229027,0.297,0.0133539,0.0487927,1980,806,-1.16494,-0.604904
763,218,-1.93323,0.668579,0,0,0,0,0,0,0,-1,1987,806,-1.93317,-0.668599
770,218,0,0,0,0,0,0,0,0,0,-1,1994,806,0,0
777,218,0,0,0,0,0,0,0,0,0,-1,2001,806,0,0
784,218,0,0,0,0,0,0,0,0,0,-1,2008,806,0,0
791,218,0,0,0,0,0,0,0,0,0,-1,2015,806,0,0
798,218,0,0,0,0,0,0,0,0,0,-1,2022,806,0,0
805,218,0,0,0,0,0,0,0,0,0,-1,2029,806,0,0
812,218,0,0,0,0,0,0,0,0,0,-1,2036,806,0,0
-700,211,0,0,0,0,0,0,0,0,0,-1,524,813,0,0
-693,211,0,0,0,0,0,0,0,0,0,-1,531,813,0,0
-686,211,0,0,0,0,0,0,0,0,0,-1,538,813,0,0
-679,211,0,0,0,0,0,0,0,0,0,-1,545,813,0,0
-672,211,0,0,0,0,0,0,0,0,0,-1,552,813,0,0
-665,211,0,0,0,0,0,0,0,0,0,-1,559,813,0,0
-658,211,0,0,0,0,0,0,0,0,0,-1,566,813,0,0
-651,211,1.29327,0.715576,-0.0546141,0.0350173,-0.00596818,0.0354129,-0.0550097,-1.5046,0.0526126,0.0449197,573,813,1.29327,-0.715572
-644,211,0.809448,0.316772,-0.0378956,0.0285653,-0.00513204,0.0289593,-0.0382896,-1.49418,0.0389505,0.0432105,580,813,0.809433,-0.316757
-637,211,0.0552979,0.0473633,-0.0254667,0.0230354,-0.0045593,0.0234603,-0.0258916,-1.47788,0.0285048,0.0412314,587,813,0.0553013,-0.047354
-630,211,-0.360962,-0.230591,-0.0163158,0.0182656,-0.00411359,0.0187482,-0.0167984,-1.45401,0.0205332,0.0415009,594,813,-0.360942,0.230565
-623,211,-0.362122,-0.484985,-0.00971787,0.0142263,-0.00367017,0.0147762,-0.0102678,-1.42206,0.014537,0.0437362,601,813,-0.362129,0.484963
-616,211,-0.592957,0.0323486,-0.00513682,0.0108755,-0.00318977,0.0114876,-0.00574885,-1.38123,0.0101336,0.0420682,608,813,-0.592965,-0.0323617
-609,211,-0.295105,-0.0618896,-0.00215434,0.00823118,-0.00267589,0.00888009,-0.00280325,-1.33289,0.00704296,0.0356985,615,813,-0.295093,0.0618636
-602,211,-0.0715942,-0.0830688,-0.000377321,0.00618933,-0.002053,0.00677835,-0.000966338,-1.2914,0.00487305,0.0183934,622,813,-0.071573,0.0830575
-595,211,-0.0908813,-0.0440674,0.00111028,0.00388704,-0.00167718,0.00467594,0.00032138,-1.13113,0.00301588,0.00933846,629,813,-0.0908593,0.0440742
-588,211,-0.097229,-0.0324097,0.00217743,0.00289467,-0.00130363,0.00388811,0.00118399,-0.919623,0.00230128,0.00935003,636,813,-0.0971992,0.0323992
-581,211,-0.0973511,-0.027832,0.00239888,0.00147218,-0.00098613,0.00302509,0.000845967,-0.565773,0.00180218,0.0109287,643,813,-0.097324,0.0278623
-574,211,-0.0919189,-0.0437622,0.00168826,0.000928449,-0.000493029,0.00193077,0.000685935,-0.457134,0.00113019,0.0123492,650,813,-0.0919197,0.0437612
-567,211,-0.0687866,-0.0598755,0.00143458,0.000668929,4.99708e-05,0.00143783,0.000665681,0.0648984,0.000830891,0.018098,657,813,-0.0687781,0.0598777
-560,211,-0.0783081,-0.0403442,0.00122629,0.00126017,0.000626815,0.00187027,0.000616187,0.79891,0.00110054,0.0210072,664,813,-0.0782812,0.040352
-553,211,-0.10614,-0.0383301,0.00111287,0.0020599,0.000921528,0.00262245,0.000550321,1.02273,0.00159679,0.0178546,671,813,-0.10612,0.038342
-546,211,-0.0913086,-0.0557251,0.00104665,0.00281621,0.00099677,0.00326424,0.000598621,1.14837,0.00200661,0.0155493,678,813,-0.0913358,0.05571
-539,211,-0.0897217,-0.0394287,0.000899879,0.00366884,0.000979533,0.00398032,0.000588403,1.26292,0.00248078,0.00927936,685,813,-0.0897143,0.0394376
-532,211,-0.120483,-0.00561523,0.000866283,0.00459952,0.000992852,0.00484714,0.000618659,1.32638,0.00304622,0.0274111,692,813,-0.120502,0.00562639
-525,211,-0.127319,-0.0361938,0,0,0,0,0,0,0,-1,699,813,-0.12733,0.0361865
-518,211,-0.218933,-0.565063,0.000160077,0.00678159,0.000852324,0.00688954,5.21254e-05,1.44481,0.00457575,0.045205,706,813,-0.21895,0.565059
-511,211,0.298767,0.377747,-0.000588748,0.00775563,0.000590477,0.00779721,-0.000630325,1.5005,0.00542048,0.0455141,713,813,0.298792,-0.377768
-504,211,0.229126,0.293884,-0.00147172,0.00837976,0.000215888,0.00838449,-0.00147645,1.5489,0.00614126,0.0462114,720,813,0.229136,-0.293892
-497,211,0.149536,0.177002,-0.00250865,0.00845085,-0.000237029,0.00845597,-0.00251378,-1.54918,0.00663589,0.0449516,727,813,0.149541,-0.177021
-490,211,-0.0622559,-0.0552979,-0.00357525,0.00772769,-0.000732901,0.00777501,-0.00362258,-1.50631,0.0067244,0.0340622,734,813,-0.0622321,0.0553235
-483,211,-0.100769,-0.151489,-0.00449104,0.00591054,-0.00114881,0.00603591,-0.00461641,-1.4621,0.00616829,0.0324148,741,813,-0.100796,0.151482
-476,211,-0.0354004,-0.0584717,-0.00512698,0.00236524,-0.00131812,0.00259038,-0.00535211,-1.40163,0.00467709,0.0347377,748,813,-0.0353865,0.0584976
-469,211,0,0,0,0,0,0,0,0,0,-1,755,813,0,0
-462,211,0,0,0,0,0,0,0,0,0,-1,762,813,0,0
-455,211,0,0,0,0,0,0,0,0,0,-1,769,813,0,0
-448,211,0,0,0,0,0,0,0,0,0,-1,776,813,0,0
-441,211,0,0,0,0,0,0,0,0,0,-1,783,813,0,0
-434,211,0,0,0,0,0,0,0,0,0,-1,790,813,0,0
-427,211,0,0,0,0,0,0,0,0,0,-1,797,813,0,0
-420,211,0,0,0,0,0,0,0,0,0,-1,804,813,0,0
-413,211,0,0,0,0,0,0,0,0,0,-1,811,813,0,0
-406,211,0,0,0,0,0,0,0,0,0,-1,818,813,0,0
-399,211,0,0,0,0,0,0,0,0,0,-1,825,813,0,0
-392,211,0,0,0,0,0,0,0,0,0,-1,832,813,0,0
-385,211,0,0,0,0,0,0,0,0,0,-1,839,813,0,0
-378,211,0,0,0,0,0,0,0,0,0,-1,846,813,0,0
-371,211,0,0,0,0,0,0,0,0,0,-1,853,813,0,0
-364,211,0,0,0,0,0,0,0,0,0,-1,860,813,0,0
-357,211,0,0,0,0,0,0,0,0,0,-1,867,813,0,0
-350,211,0,0,0,0,0,0,0,0,0,-1,874,813,0,0
-343,211,0,0,0,0,0,0,0,0,0,-1,881,813,0,0
-336,211,0,0,0,0,0,0,0,0,0,-1,888,813,0,0
-329,211,0,0,0,0,0,0,0,0,0,-1,895,813,0,0
-322,211,0,0,0,0,0,0,0,0,0,-1,902,813,0,0
-315,211,0,0,0,0,0,0,0,0,0,-1,909,813,0,0
-308,211,0,0,0,0,0,0,0,0,0,-1,916,813,0,0
-301,211,0,0,0,0,0,0,0,0,0,-1,923,813,0,0
-294,211,0,0,0,0,0,0,0,0,0,-1,930,813,0,0
-287,211,0,0,0,0,0,0,0,0,0,-1,937,813,0,0
-280,211,0,0,0,0,0,0,0,0,0,-1,944,813,0,0
-273,211,0,0,0,0,0,0,0,0,0,-1,951,813,0,0
-266,211,0,0,0,0,0,0,0,0,0,-1,958,813,0,0
-259,211,0,0,0,0,0,0,0,0,0,-1,965,813,0,0
-252,211,0,0,0,0,0,0,0,0,0,-1,972,813,0,0
-245,211,0,0,0,0,0,0,0,0,0,-1,979,813,0,0
-238,211,0,0,0,0,0,0,0,0,0,-1,986,813,0,0
-231,211,0,0,0,0,0,0,0,0,0,-1,993,813,0,0
-224,211,0,0,0,0,0,0,0,0,0,-1,1000,813,0,0
-217,211,0,0,0,0,0,0,0,0,0,-1,1007,813,0,0
-210,211,0,0,0,0,0,0,0,0,0,-1,1014,813,0,0
-203,211,0,0,0,0,0,0,0,0,0,-1,1021,813,0,0
-196,211,0,0,0,0,0,0,0,0,0,-1,1028,813,0,0
-189,211,0,0,0,0,0,0,0,0,0,-1,1035,813,0,0
-182,211,0,0,0,0,0,0,0,0,0,-1,1042,813,0,0
-175,211,0,0,0,0,0,0,0,0,0,-1,1049,813,0,0
-168,211,0,0,0,0,0,0,0,0,0,-1,1056,813,0,0
-161,211,0,0,0,0,0,0,0,0,0,-1,1063,813,0,0
-154,211,0,0,0,0,0,0,0,0,0,-1,1070,813,0,0
-147,211,0,0,0,0,0,0,0,0,0,-1,1077,813,0,0
-140,211,0,0,0,0,0,0,0,0,0,-1,1084,813,0,0
-133,211,0,0,0,0,0,0,0,0,0,-1,1091,813,0,0
-126,211,0,0,0,0,0,0,0,0,0,-1,1098,813,0,0
-119,211,0,0,0,0,0,0,0,0,0,-1,1105,813,0,0
-112,211,0,0,0,0,0,0,0,0,0,-1,1112,813,0,0
-105,211,0,0,0,0,0,0,0,0,0,-1,1119,813,0,0
-98,211,0,0,0,0,0,0,0,0,0,-1,1126,813,0,0
-91,211,0,0,0,0,0,0,0,0,0,-1,1133,813,0,0
-84,211,0,0,0,0,0,0,0,0,0,-1,1140,813,0,0
-77,211,0,0,0,0,0,0,0,0,0,-1,1147,813,0,0
-70,211,0,0,0,0,0,0,0,0,0,-1,1154,813,0,0
-63,211,0,0,0,0,0,0,0,0,0,-1,1161,813,0,0
-56,211,0,0,0,0,0,0,0,0,0,-1,1168,813,0,0
-49,211,0,0,0,0,0,0,0,0,0,-1,1175,813,0,0
-42,211,0,0,0,0,0,0,0,0,0,-1,1182,813,0,0
-35,211,0,0,0,0,0,0,0,0,0,-1,1189,813,0,0
-28,211,0,0,0,0,0,0,0,0,0,-1,1196,813,0,0
-21,211,0,0,0,0,0,0,0,0,0,-1,1203,813,0,0
-14,211,0,0,0,0,0,0,0,0,0,-1,1210,813,0,0
-7,211,0,0,0,0,0,0,0,0,0,-1,1217,813,0,0
0,211,0,0,0,0,0,0,0,0,0,-1,1224,813,0,0
7,211,0,0,0,0,0,0,0,0,0,-1,1231,813,0,0
14,211,0,0,0,0,0,0,0,0,0,-1,1238,813,0,0
21,211,0,0,0,0,0,0,0,0,0,-1,1245,813,0,0
28,211,0,0,0,0,0,0,0,0,0,-1,1252,813,0,0
35,211,0,0,0,0,0,0,0,0,0,-1,1259,813,0,0
42,211,0,0,0,0,0,0,0,0,0,-1,1266,813,0,0
49,211,0,0,0,0,0,0,0,0,0,-1,1273,813,0,0
56,211,0,0,0,0,0,0,0,0,0,-1,1280,813,0,0
63,211,0,0,0,0,0,0,0,0,0,-1,1287,813,0,0
70,211,0,0,0,0,0,0,0,0,0,-1,1294,813,0,0
77,211,0,0,0,0,0,0,0,0,0,-1,1301,813,0,0
84,211,0,0,0,0,0,0,0,0,0,-1,1308,813,0,0
91,211,0,0,0,0,0,0,0,0,0,-1,1315,813,0,0
98,211,0,0,0,0,0,0,0,0,0,-1,1322,813,0,0
105,211,0,0,0,0,0,0,0,0,0,-1,1329,813,0,0
112,211,0,0,0,0,0,0,0,0,0,-1,1336,813,0,0
119,211,0,0,0,0,0,0,0,0,0,-1,1343,813,0,0
126,211,0,0,0,0,0,0,0,0,0,-1,1350,813,0,0
133,211,0,0,0,0,0,0,0,0,0,-1,1357,813,0,0
140,211,0,0,0,0,0,0,0,0,0,-1,1364,813,0,0
147,211,0,0,0,0,0,0,0,0,0,-1,1371,813,0,0
154,211,0,0,0,0,0,0,0,0,0,-1,1378,813,0,0
161,211,0,0,0,0,0,0,0,0,0,-1,1385,813,0,0
168,211,0,0,0,0,0,0,0,0,0,-1,1392,813,0,0
175,211,0,0,0,0,0,0,0,0,0,-1,1399,813,0,0
182,211,0,0,0,0,0,0,0,0,0,-1,1406,813,0,0
189,211,0,0,0,0,0,0,0,0,0,-1,1413,813,0,0
196,211,0,0,0,0,0,0,0,0,0,-1,1420,813,0,0
203,211,0,0,0,0,0,0,0,0,0,-1,1427,813,0,0
210,211,0,0,0,0,0,0,0,0,0,-1,1434,813,0,0
217,211,0,0,0,0,0,0,0,0,0,-1,1441,813,0,0
224,211,0,0,0,0,0,0,0,0,0,-1,1448,813,0,0
231,211,0,0,0,0,0,0,0,0,0,-1,1455,813,0,0
238,211,0,0,0,0,0,0,0,0,0,-1,1462,813,0,0
245,211,0,0,0,0,0,0,0,0,0,-1,1469,813,0,0
252,211,0,0,0,0,0,0,0,0,0,-1,1476,813,0,0
259,211,0,0,0,0,0,0,0,0,0,-1,1483,813,0,0
266,211,0,0,0,0,0,0,0,0,0,-1,1490,813,0,0
273,211,0,0,0,0,0,0,0,0,0,-1,1497,813,0,0
280,211,0,0,0,0,0,0,0,0,0,-1,1504,813,0,0
287,211,0,0,0,0,0,0,0,0,0,-1,1511,813,0,0
294,211,0,0,0,0,0,0,0,0,0,-1,1518,813,0,0
301,211,0,0,0,0,0,0,0,0,0,-1,1525,813,0,0
308,211,0,0,0,0,0,0,0,0,0,-1,1532,813,0,0
315,211,0,0,0,0,0,0,0,0,0,-1,1539,813,0,0
322,211,0,0,0,0,0,0,0,0,0,-1,1546,813,0,0
329,211,0,0,0,0,0,0,0,0,0,-1,1553,813,0,0
336,211,0,0,0,0,0,0,0,0,0,-1,1560,813,0,0
343,211,0,0,0,0,0,0,0,0,0,-1,1567,813,0,0
350,211,0,0,0,0,0,0,0,0,0,-1,1574,813,0,0
357,211,0,0,0,0,0,0,0,0,0,-1,1581,813,0,0
364,211,0,0,0,0,0,0,0,0,0,-1,1588,813,0,0
371,211,0,0,0,0,0,0,0,0,0,-1,1595,813,0,0
378,211,0,0,0,0,0,0,0,0,0,-1,1602,813,0,0
385,211,0,0,0,0,0,0,0,0,0,-1,1609,813,0,0
392,211,0,0,0,0,0,0,0,0,0,-1,1616,813,0,0
399,211,0,0,0,0,0,0,0,0,0,-1,1623,813,0,0
406,211,0,0,0,0,0,0,0,0,0,-1,1630,813,0,0
413,211,0,0,0,0,0,0,0,0,0,-1,1637,813,0,0
420,211,0,0,0,0,0,0,0,0,0,-1,1644,813,0,0
427,211,0,0,0,0,0,0,0,0,0,-1,1651,813,0,0
434,211,0,0,0,0,0,0,0,0,0,-1,1658,813,0,0
441,211,0,0,0,0,0,0,0,0,0,-1,1665,813,0,0
448,211,0,0,0,0,0,0,0,0,0,-1,1672,813,0,0
455,211,0,0,0,0,0,0,0,0,0,-1,1679,813,0,0
462,211,0,0,0,0,0,0,0,0,0,-1,1686,813,0,0
469,211,0,0,0,0,0,0,0,0,0,-1,1693,813,0,0
476,211,0,0,0,0,0,0,0,0,0,-1,1700,813,0,0
483,211,0,0,0,0,0,0,0,0,0,-1,1707,813,0,0
490,211,0,0,0,0,0,0,0,0,0,-1,1714,813,0,0
497,211,0,0,0,0,0,0,0,0,0,-1,1721,813,0,0
504,211,0,0,0,0,0,0,0,0,0,-1,1728,813,0,0
511,211,0,0,0,0,0,0,0,0,0,-1,1735,813,0,0
518,211,0,0,0,0,0,0,0,0,0,-1,1742,813,0,0
525,211,0,0,0,0,0,0,0,0,0,-1,1749,813,0,0
532,211,0,0,0,0,0,0,0,0,0,-1,1756,813,0,0
539,211,0,0,0,0,0,0,0,0,0,-1,1763,813,0,0
546,211,0,0,0,0,0,0,0,0,0,-1,1770,813,0,0
553,211,0,0,0,0,0,0,0,0,0,-1,1777,813,0,0
560,211,0,0,0,0,0,0,0,0,0,-1,1784,813,0,0
567,211,0,0,0,0,0,0,0,0,0,-1,1791,813,0,0
574,211,0,0,0,0,0,0,0,0,0,-1,1798,813,0,0
581,211,0,0,0,0,0,0,0,0,0,-1,1805,813,0,0
588,211,0,0,0,0,0,0,0,0,0,-1,1812,813,0,0
595,211,-0.0739746,-0.10321,0.00433387,-0.000342412,-0.000262726,0.00434859,-0.000357126,-0.055948,0.00302513,0.0339784,1819,813,-0.074029,0.103184
602,211,0.0218506,-0.041687,0.00302739,-0.00158246,0.000157156,0.00303274,-0.00158781,0.0340386,0.00271081,0.0319398,1826,813,0.0218511,0.0416714
609,211,-0.0340576,-0.019043,0.00175938,-0.00215053,0.000246444,0.00177486,-0.002166,0.0626999,0.00227899,0.030773,1833,813,-0.0340729,0.019047
616,211,-0.0585938,-0.0181885,0.000665522,-0.00234432,0.000233203,0.000683483,-0.00236228,0.0768689,0.00184537,0.0266915,1840,813,-0.0585511,0.0182169
623,211,-0.0355225,-0.0665894,-0.000257338,-0.00212105,0.000212994,-0.000233306,-0.00214508,0.112355,0.00135898,0.0269284,1847,813,-0.0355194,0.0665603
630,211,-0.0274658,-0.116089,-0.000853785,-0.00175757,0.000168658,-0.000823337,-0.00178802,0.178608,0.00103339,0.0311187,1854,813,-0.027508,0.116059
637,211,0.0141602,-0.0621338,-0.00114552,-0.00135841,0.000105985,-0.00110175,-0.00140218,0.391613,0.000852476,0.0371878,1861,813,0.0141153,0.0621526
644,211,-0.00463867,-0.495239,-0.00134032,-0.000973965,0.000104209,-0.000946397,-0.00136789,1.31218,0.0008089,0.0389832,1868,813,-0.00459394,0.495252
651,211,0.0213623,-0.766724,0,0,0,0,0,0,0,-1,1875,813,0.0213911,0.766712
658,211,-0.0805664,-0.544434,-0.00133469,-0.000328055,8.32344e-05,-0.000321219,-0.00134152,1.48885,0.000808824,0.0428955,1882,813,-0.0805506,0.544423
665,211,-0.0822754,-0.260437,-0.00121744,-3.57383e-05,8.75937e-05,-2.92807e-05,-0.0012239,1.49721,0.000806348,0.032402,1889,813,-0.0822727,0.260409
672,211,-0.0620117,-0.06073,-0.000985715,0.00015787,5.65219e-05,0.000160657,-0.000988502,1.52153,0.000718565,0.0132167,1896,813,-0.0620461,0.060745
679,211,-0.0726318,-0.0609741,-0.000603912,0.000101676,-6.43161e-06,0.000101735,-0.000603971,-1.56168,0.000440492,0.0112217,1903,813,-0.0725832,0.0609822
686,211,-0.0834961,-0.046875,-0.000210295,2.75435e-05,-0.000152385,0.000101919,-0.000284671,-1.11673,0.000231362,0.0102338,1910,813,-0.0834545,0.0468477
693,211,-0.074707,-0.0465088,1.32527e-05,-0.000486968,-0.000114479,3.8207e-05,-0.000511922,-0.214625,0.000354704,0.0112206,1917,813,-0.0746652,0.0465186
700,211,-0.0998535,-0.0512695,-3.86732e-05,-0.00119183,-7.12857e-05,-3.42831e-05,-0.00119622,-0.0615057,0.000786302,0.0131978,1924,813,-0.0998614,0.0512737
707,211,-0.111084,-0.0300903,-0.000776625,-0.0011165,-0.000388332,-0.000522676,-0.00137045,-0.579146,0.000798617,0.0189178,1931,813,-0.111079,0.030063
714,211,-0.105347,-0.0151367,-0.00127508,-0.00182462,-0.000691384,-0.000805867,-0.00229383,-0.596258,0.00134372,0.0205155,1938,813,-0.105369,0.0151322
721,211,-0.0838623,-0.0483398,-0.00163765,-0.00335519,-0.00070263,-0.00138684,-0.003606,-0.342865,0.00210033,0.0137114,1945,813,-0.0838453,0.0483211
728,211,-0.0512695,-0.0409546,-0.00165808,-0.00506718,-0.000545599,-0.00157289,-0.00515237,-0.154889,0.00304899,0.0134416,1952,813,-0.0513016,0.0409682
735,211,-0.036377,0.00128174,-0.00194652,-0.00713575,-0.000507897,-0.00189728,-0.00718499,-0.0966531,0.00429945,0.0240109,1959,813,-0.0363924,-0.0012945
742,211,-0.0627441,-0.354614,-0.00211004,-0.00989092,-0.000134492,-0.00210771,-0.00989324,-0.0172781,0.00601725,0.0433725,1966,813,-0.0627523,0.354631
749,211,-0.619141,-0.230652,0,0,0,0,0,0,0,-1,1973,813,-0.61912,0.230643
756,211,-0.772705,-0.0766602,0,0,0,0,0,0,0,-1,1980,813,-0.772716,0.0766476
763,211,-0.92627,0.0773315,0,0,0,0,0,0,0,-1,1987,813,-0.926312,-0.0773481
770,211,0.113037,0.474304,0,0,0,0,0,0,0,-1,1994,813,0.113003,-0.474328
777,211,0,0,0,0,0,0,0,0,0,-1,2001,813,0,0
784,211,0,0,0,0,0,0,0,0,0,-1,2008,813,0,0
791,211,0,0,0,0,0,0,0,0,0,-1,2015,813,0,0
798,211,0,0,0,0,0,0,0,0,0,-1,2022,813,0,0
805,211,0,0,0,0,0,0,0,0,0,-1,2029,813,0,0
812,211,0,0,0,0,0,0,0,0,0,-1,2036,813,0,0
-700,204,0,0,0,0,0,0,0,0,0,-1,524,820,0,0
-693,204,0,0,0,0,0,0,0,0,0,-1,531,820,0,0
-686,204,0,0,0,0,0,0,0,0,0,-1,538,820,0,0
-679,204,0,0,0,0,0,0,0,0,0,-1,545,820,0,0
-672,204,0,0,0,0,0,0,0,0,0,-1,552,820,0,0
-665,204,0,0,0,0,0,0,0,0,0,-1,559,820,0,0
-658,204,0,0,0,0,0,0,0,0,0,-1,566,820,0,0
-651,204,2.00616,0.691101,-0.0449941,0.0219977,-0.00100825,0.0220129,-0.0450093,-1.55575,0.0394472,0.0402321,573,820,2.00618,-0.691121
-644,204,0.235718,-0.384888,-0.0320276,0.0189418,-0.000179487,0.0189424,-0.0320282,-1.56727,0.0297494,0.0443616,580,820,0.235724,0.384882
-637,204,0.00408936,0.155579,-0.022034,0.0158129,4.12245e-05,0.0158129,-0.022034,1.56971,0.0219491,0.0470656,587,820,0.00405899,-0.1556
-630,204,-0.316162,0.281006,-0.0144406,0.0128101,-4.4217e-05,0.0128102,-0.0144407,-1.56917,0.0157426,0.0435871,594,820,-0.31616,-0.281032
-623,204,-0.325256,0.348083,-0.00882338,0.010092,-0.000216895,0.0100945,-0.00882587,-1.55933,0.0109319,0.0395707,601,820,-0.325228,-0.348102
-616,204,-0.152832,0.375366,-0.00483602,0.00774232,-0.000366538,0.00775299,-0.00484669,-1.54169,0.00733865,0.0405714,608,820,-0.152829,-0.375366
-609,204,-0.0645142,0.0600586,-0.00221469,0.00596846,-0.000444092,0.00599249,-0.00223872,-1.51674,0.00491426,0.0322215,615,820,-0.0645446,-0.0600655
-602,204,-0.0797119,-0.0641479,-0.000590929,0.00457926,-0.000305837,0.00459729,-0.000608958,-1.51192,0.0032867,0.0124604,622,820,-0.0796935,0.0641391
-595,204,-0.0878296,-0.0583496,0.00087305,0.00269868,-0.000387826,0.00277766,0.000794079,-1.36992,0.00165197,0.0128238,629,820,-0.0878073,0.058328
-588,204,-0.0874023,-0.0384521,0.00194827,0.00204938,-0.000435518,0.00243727,0.00156039,-0.84318,0.00142548,0.0105604,636,820,-0.0874109,0.0384586
-581,204,-0.0837402,-0.0265503,0.00216335,0.000917746,-0.000358057,0.00225894,0.000822156,-0.260885,0.00132019,0.0108255,643,820,-0.0837595,0.0265286
-574,204,-0.0874023,-0.034668,0.00153385,0.00058415,-0.000135503,0.0015528,0.000565194,-0.138986,0.000907501,0.0127274,650,820,-0.087392,0.0346686
-567,204,-0.0786133,-0.0265503,0.001393,0.000450038,0.00025439,0.00145725,0.000385787,0.247395,0.000871836,0.0128243,657,820,-0.0786078,0.0265783
-560,204,-0.0740356,-0.0289917,0.00137809,0.00104112,0.000792182,0.0020195,0.000399702,0.680618,0.00123486,0.0126358,664,820,-0.0740103,0.028998
-553,204,-0.0663452,-0.0474243,0.00136424,0.00182156,0.00114812,0.00276357,0.000422227,0.883691,0.00171901,0.00933537,671,820,-0.06632,0.0474295
-546,204,-0.0803223,-0.0333252,0.0013131,0.0024854,0.0012973,0.00332283,0.000475677,0.997583,0.00207491,0.009308,678,820,-0.0803091,0.0333313
-539,204,-0.0796509,0.00689697,0.00123788,0.00321593,0.00135076,0.00390104,0.000552769,1.1014,0.00243742,0.0139344,685,820,-0.0796748,-0.00692638
-532,204,-0.0582275,0.0465698,0.00125528,0.00400243,0.00142989,0.0046116,0.000646104,1.16805,0.00288327,0.0369051,692,820,-0.0582413,-0.0465745
-525,204,-0.581787,-0.481567,0,0,0,0,0,0,0,-1,699,820,-0.581778,0.48154
-518,204,-0.289856,-0.30304,0.000710121,0.00580853,0.00143552,0.00618493,0.000333721,1.31436,0.00401667,0.0449387,706,820,-0.289876,0.303014
-511,204,-0.00695801,-0.0473022,7.63127e-05,0.00653705,0.0012424,0.00676773,-0.000154363,1.38722,0.00456414,0.047038,713,820,-0.00692915,0.0472724
-504,204,0.0528564,0.105835,-0.000707359,0.00686866,0.000916056,0.00697785,-0.00081655,1.45216,0.0049466,0.0469358,720,820,0.0528753,-0.105862
-497,204,-0.0595703,0.0918579,-0.00165696,0.00658109,0.000470575,0.00660788,-0.00168375,1.51392,0.00506075,0.0379719,727,820,-0.0595702,-0.0918573
-490,204,-0.125488,0.0513916,-0.00264338,0.00538874,-8.08833e-05,0.00538956,-0.0026442,-1.56073,0.0047277,0.0320638,734,820,-0.125482,-0.0513641
-483,204,-0.0930176,-0.0596924,-0.00345527,0.00291738,-0.00060797,0.00297487,-0.00351275,-1.47653,0.00374992,0.0370414,741,820,-0.0930114,0.0596953
-476,204,0,0,0,0,0,0,0,0,0,-1,748,820,0,0
-469,204,0,0,0,0,0,0,0,0,0,-1,755,820,0,0
-462,204,0,0,0,0,0,0,0,0,0,-1,762,820,0,0
-455,204,0,0,0,0,0,0,0,0,0,-1,769,820,0,0
-448,204,0,0,0,0,0,0,0,0,0,-1,776,820,0,0
-441,204,0,0,0,0,0,0,0,0,0,-1,783,820,0,0
-434,204,0,0,0,0,0,0,0,0,0,-1,790,820,0,0
-427,204,0,0,0,0,0,0,0,0,0,-1,797,820,0,0
-420,204,0,0,0,0,0,0,0,0,0,-1,804,820,0,0
-413,204,0,0,0,0,0,0,0,0,0,-1,811,820,0,0
-406,204,0,0,0,0,0,0,0,0,0,-1,818,820,0,0
-399,204,0,0,0,0,0,0,0,0,0,-1,825,820,0,0
-392,204,0,0,0,0,0,0,0,0,0,-1,832,820,0,0
-385,204,0,0,0,0,0,0,0,0,0,-1,839,820,0,0
-378,204,0,0,0,0,0,0,0,0,0,-1,846,820,0,0
-371,204,0,0,0,0,0,0,0,0,0,-1,853,820,0,0
-364,204,0,0,0,0,0,0,0,0,0,-1,860,820,0,0
-357,204,0,0,0,0,0,0,0,0,0,-1,867,820,0,0
-350,204,0,0,0,0,0,0,0,0,0,-1,874,820,0,0
-343,204,0,0,0,0,0,0,0,0,0,-1,881,820,0,0
-336,204,0,0,0,0,0,0,0,0,0,-1,888,820,0,0
-329,204,0,0,0,0,0,0,0,0,0,-1,895,820,0,0
-322,204,0,0,0,0,0,0,0,0,0,-1,902,820,0,0
-315,204,0,0,0,0,0,0,0,0,0,-1,909,820,0,0
-308,204,0,0,0,0,0,0,0,0,0,-1,916,820,0,0
-301,204,0,0,0,0,0,0,0,0,0,-1,923,820,0,0
-294,204,0,0,0,0,0,0,0,0,0,-1,930,820,0,0
-287,204,0,0,0,0,0,0,0,0,0,-1,937,820,0,0
-280,204,0,0,0,0,0,0,0,0,0,-1,944,820,0,0
-273,204,0,0,0,0,0,0,0,0,0,-1,951,820,0,0
-266,204,0,0,0,0,0,0,0,0,0,-1,958,820,0,0
-259,204,0,0,0,0,0,0,0,0,0,-1,965,820,0,0
-252,204,0,0,0,0,0,0,0,0,0,-1,972,820,0,0
-245,204,0,0,0,0,0,0,0,0,0,-1,979,820,0,0
-238,204,0,0,0,0,0,0,0,0,0,-1,986,820,0,0
-231,204,0,0,0,0,0,0,0,0,0,-1,993,820,0,0
-224,204,0,0,0,0,0,0,0,0,0,-1,1000,820,0,0
-217,204,0,0,0,0,0,0,0,0,0,-1,1007,820,0,0
-210,204,0,0,0,0,0,0,0,0,0,-1,1014,820,0,0
-203,204,0,0,0,0,0,0,0,0,0,-1,1021,820,0,0
-196,204,0,0,0,0,0,0,0,0,0,-1,1028,820,0,0
-189,204,0,0,0,0,0,0,0,0,0,-1,1035,820,0,0
-182,204,0,0,0,0,0,0,0,0,0,-1,1042,820,0,0
-175,204,0,0,0,0,0,0,0,0,0,-1,1049,820,0,0
-168,204,0,0,0,0,0,0,0,0,0,-1,1056,820,0,0
-161,204,0,0,0,0,0,0,0,0,0,-1,1063,820,0,0
-154,204,0,0,0,0,0,0,0,0,0,-1,1070,820,0,0
-147,204,0,0,0,0,0,0,0,0,0,-1,1077,820,0,0
-140,204,0,0,0,0,0,0,0,0,0,-1,1084,820,0,0
-133,204,0,0,0,0,0,0,0,0,0,-1,1091,820,0,0
-126,204,0,0,0,0,0,0,0,0,0,-1,1098,820,0,0
-119,204,0,0,0,0,0,0,0,0,0,-1,1105,820,0,0
-112,204,0,0,0,0,0,0,0,0,0,-1,1112,820,0,0
-105,204,0,0,0,0,0,0,0,0,0,-1,1119,820,0,0
-98,204,0,0,0,0,0,0,0,0,0,-1,1126,820,0,0
-91,204,0,0,0,0,0,0,0,0,0,-1,1133,820,0,0
-84,204,0,0,0,0,0,0,0,0,0,-1,1140,820,0,0
-77,204,0,0,0,0,0,0,0,0,0,-1,1147,820,0,0
-70,204,0,0,0,0,0,0,0,0,0,-1,1154,820,0,0
-63,204,0,0,0,0,0,0,0,0,0,-1,1161,820,0,0
-56,204,0,0,0,0,0,0,0,0,0,-1,1168,820,0,0
-49,204,0,0,0,0,0,0,0,0,0,-1,1175,820,0,0
-42,204,0,0,0,0,0,0,0,0,0,-1,1182,820,0,0
-35,204,0,0,0,0,0,0,0,0,0,-1,1189,820,0,0
-28,204,0,0,0,0,0,0,0,0,0,-1,1196,820,0,0
-21,204,0,0,0,0,0,0,0,0,0,-1,1203,820,0,0
-14,204,0,0,0,0,0,0,0,0,0,-1,1210,820,0,0
-7,204,0,0,0,0,0,0,0,0,0,-1,1217,820,0,0
0,204,0,0,0,0,0,0,0,0,0,-1,1224,820,0,0
7,204,0,0,0,0,0,0,0,0,0,-1,1231,820,0,0
14,204,0,0,0,0,0,0,0,0,0,-1,1238,820,0,0
21,204,0,0,0,0,0,0,0,0,0,-1,1245,820,0,0
28,204,0,0,0,0,0,0,0,0,0,-1,1252,820,0,0
35,204,0,0,0,0,0,0,0,0,0,-1,1259,820,0,0
42,204,0,0,0,0,0,0,0,0,0,-1,1266,820,0,0
49,204,0,0,0,0,0,0,0,0,0,-1,1273,820,0,0
56,204,0,0,0,0,0,0,0,0,0,-1,1280,820,0,0
63,204,0,0,0,0,0,0,0,0,0,-1,1287,820,0,0
70,204,0,0,0,0,0,0,0,0,0,-1,1294,820,0,0
77,204,0,0,0,0,0,0,0,0,0,-1,1301,820,0,0
84,204,0,0,0,0,0,0,0,0,0,-1,1308,820,0,0
91,204,0,0,0,0,0,0,0,0,0,-1,1315,820,0,0
98,204,0,0,0,0,0,0,0,0,0,-1,1322,820,0,0
105,204,0,0,0,0,0,0,0,0,0,-1,1329,820,0,0
112,204,0,0,0,0,0,0,0,0,0,-1,1336,820,0,0
119,204,0,0,0,0,0,0,0,0,0,-1,1343,820,0,0
126,204,0,0,0,0,0,0,0,0,0,-1,1350,820,0,0
133,204,0,0,0,0,0,0,0,0,0,-1,1357,820,0,0
140,204,0,0,0,0,0,0,0,0,0,-1,1364,820,0,0
147,204,0,0,0,0,0,0,0,0,0,-1,1371,820,0,0
154,204,0,0,0,0,0,0,0,0,0,-1,1378,820,0,0
161,204,0,0,0,0,0,0,0,0,0,-1,1385,820,0,0
168,204,0,0,0,0,0,0,0,0,0,-1,1392,820,0,0
175,204,0,0,0,0,0,0,0,0,0,-1,1399,820,0,0
182,204,0,0,0,0,0,0,0,0,0,-1,1406,820,0,0
189,204,0,0,0,0,0,0,0,0,0,-1,1413,820,0,0
196,204,0,0,0,0,0,0,0,0,0,-1,1420,820,0,0
203,204,0,0,0,0,0,0,0,0,0,-1,1427,820,0,0
210,204,0,0,0,0,0,0,0,0,0,-1,1434,820,0,0
217,204,0,0,0,0,0,0,0,0,0,-1,1441,820,0,0
224,204,0,0,0,0,0,0,0,0,0,-1,1448,820,0,0
231,204,0,0,0,0,0,0,0,0,0,-1,1455,820,0,0
238,204,0,0,0,0,0,0,0,0,0,-1,1462,820,0,0
245,204,0,0,0,0,0,0,0,0,0,-1,1469,820,0,0
252,204,0,0,0,0,0,0,0,0,0,-1,1476,820,0,0
259,204,0,0,0,0,0,0,0,0,0,-1,1483,820,0,0
266,204,0,0,0,0,0,0,0,0,0,-1,1490,820,0,0
273,204,0,0,0,0,0,0,0,0,0,-1,1497,820,0,0
280,204,0,0,0,0,0,0,0,0,0,-1,1504,820,0,0
287,204,0,0,0,0,0,0,0,0,0,-1,1511,820,0,0
294,204,0,0,0,0,0,0,0,0,0,-1,1518,820,0,0
301,204,0,0,0,0,0,0,0,0,0,-1,1525,820,0,0
308,204,0,0,0,0,0,0,0,0,0,-1,1532,820,0,0
315,204,0,0,0,0,0,0,0,0,0,-1,1539,820,0,0
322,204,0,0,0,0,0,0,0,0,0,-1,1546,820,0,0
329,204,0,0,0,0,0,0,0,0,0,-1,1553,820,0,0
336,204,0,0,0,0,0,0,0,0,0,-1,1560,820,0,0
343,204,0,0,0,0,0,0,0,0,0,-1,1567,820,0,0
350,204,0,0,0,0,0,0,0,0,0,-1,1574,820,0,0
357,204,0,0,0,0,0,0,0,0,0,-1,1581,820,0,0
364,204,0,0,0,0,0,0,0,0,0,-1,1588,820,0,0
371,204,0,0,0,0,0,0,0,0,0,-1,1595,820,0,0
378,204,0,0,0,0,0,0,0,0,0,-1,1602,820,0,0
385,204,0,0,0,0,0,0,0,0,0,-1,1609,820,0,0
392,204,0,0,0,0,0,0,0,0,0,-1,1616,820,0,0
399,204,0,0,0,0,0,0,0,0,0,-1,1623,820,0,0
406,204,0,0,0,0,0,0,0,0,0,-1,1630,820,0,0
413,204,0,0,0,0,0,0,0,0,0,-1,1637,820,0,0
420,204,0,0,0,0,0,0,0,0,0,-1,1644,820,0,0
427,204,0,0,0,0,0,0,0,0,0,-1,1651,820,0,0
434,204,0,0,0,0,0,0,0,0,0,-1,1658,820,0,0
441,204,0,0,0,0,0,0,0,0,0,-1,1665,820,0,0
448,204,0,0,0,0,0,0,0,0,0,-1,1672,820,0,0
455,204,0,0,0,0,0,0,0,0,0,-1,1679,820,0,0
462,204,0,0,0,0,0,0,0,0,0,-1,1686,820,0,0
469,204,0,0,0,0,0,0,0,0,0,-1,1693,820,0,0
476,204,0,0,0,0,0,0,0,0,0,-1,1700,820,0,0
483,204,0,0,0,0,0,0,0,0,0,-1,1707,820,0,0
490,204,0,0,0,0,0,0,0,0,0,-1,1714,820,0,0
497,204,0,0,0,0,0,0,0,0,0,-1,1721,820,0,0
504,204,0,0,0,0,0,0,0,0,0,-1,1728,820,0,0
511,204,0,0,0,0,0,0,0,0,0,-1,1735,820,0,0
518,204,0,0,0,0,0,0,0,0,0,-1,1742,820,0,0
525,204,0,0,0,0,0,0,0,0,0,-1,1749,820,0,0
532,204,0,0,0,0,0,0,0,0,0,-1,1756,820,0,0
539,204,0,0,0,0,0,0,0,0,0,-1,1763,820,0,0
546,204,0,0,0,0,0,0,0,0,0,-1,1770,820,0,0
553,204,0,0,0,0,0,0,0,0,0,-1,1777,820,0,0
560,204,0,0,0,0,0,0,0,0,0,-1,1784,820,0,0
567,204,0,0,0,0,0,0,0,0,0,-1,1791,820,0,0
574,204,0,0,0,0,0,0,0,0,0,-1,1798,820,0,0
581,204,0,0,0,0,0,0,0,0,0,-1,1805,820,0,0
588,204,0,0,0,0,0,0,0,0,0,-1,1812,820,0,0
595,204,0,0,0,0,0,0,0,0,0,-1,1819,820,0,0
602,204,-0.0300293,-0.062561,0.00203763,-0.000698973,0.000489081,0.00212241,-0.000783754,0.171642,0.0017362,0.0336031,1826,820,-0.0300099,0.0625727
609,204,-0.0422363,-0.0250244,0.00118103,-0.00129081,0.000288252,0.0012142,-0.00132398,0.114567,0.00146587,0.0344228,1833,820,-0.042201,0.0250158
616,204,-0.0389404,-0.00213623,0.000450233,-0.00173728,5.11485e-05,0.000451428,-0.00173847,0.023365,0.00133514,0.0330602,1840,820,-0.0389236,0.00213566
623,204,-0.0609131,0.00244141,-0.000222659,-0.00169498,-0.000124156,-0.000212263,-0.00170538,-0.0835404,0.00107318,0.0257165,1847,820,-0.0608753,-0.00241138
630,204,-0.0776367,-0.0465088,-0.00066128,-0.00147939,-0.000243247,-0.00059442,-0.00154625,-0.268242,0.000900639,0.0232632,1854,820,-0.0775801,0.0464831
637,204,-0.0942383,-0.0262451,-0.000869811,-0.00120514,-0.000320132,-0.000676096,-0.00139886,-0.544169,0.000807781,0.0288622,1861,820,-0.0942112,0.0262298
644,204,-0.0638428,-0.0897827,-0.00100794,-0.000924166,-0.000302245,-0.000660919,-0.00127119,-0.854253,0.000734114,0.036299,1868,820,-0.0638562,0.0897917
651,204,-0.0623779,-0.179443,-0.00107584,-0.000634506,-0.000286145,-0.000493823,-0.00121652,-1.11385,0.000706489,0.0414206,1875,820,-0.062319,0.17946
658,204,0.0386963,-0.632568,-0.00105033,-0.000412608,-0.000216518,-0.000346043,-0.00111689,-1.27254,0.000660203,0.0445741,1882,820,0.0387526,0.632558
665,204,-0.0479736,-0.335999,-0.000964645,-0.000137753,-0.00015699,-0.000108951,-0.000993447,-1.38935,0.000629134,0.0392558,1889,820,-0.0479349,0.335973
672,204,-0.0664063,-0.0307007,-0.000755221,5.18588e-05,-0.000100936,6.42908e-05,-0.000767653,-1.44825,0.00053449,0.0173926,1896,820,-0.0664087,0.0306805
679,204,-0.0778809,-0.0480957,-0.000433625,5.59482e-05,-6.03164e-05,6.32698e-05,-0.000440947,-1.45,0.000317165,0.0103635,1903,820,-0.0778493,0.0480774
686,204,-0.0709229,-0.0501099,-0.000124467,6.56696e-05,-2.26839e-05,6.83385e-05,-0.000127136,-1.45368,0.000114546,0.00859943,1910,820,-0.0709324,0.0501267
693,204,-0.0654297,-0.0492554,9.27692e-05,-0.000271649,0.000122223,0.000129965,-0.000308845,0.295424,0.000260269,0.014026,1917,820,-0.0654186,0.0492574
700,204,-0.0576172,-0.0602417,0.000121393,-0.000720602,0.000264958,0.000197831,-0.00079704,0.280863,0.000608126,0.0157639,1924,820,-0.0575715,0.0602504
707,204,-0.098877,-0.0342407,-0.000438919,-0.000423252,6.63305e-05,-0.000364294,-0.000497877,0.844175,0.000297559,0.0140965,1931,820,-0.0988175,0.0342305
714,204,-0.102173,-0.0157471,-0.000656262,-0.000894278,-9.22506e-05,-0.000624694,-0.000925846,-0.329706,0.000545308,0.0220451,1938,820,-0.102143,0.0157705
721,204,-0.0823975,-0.0653687,-0.000526191,-0.00220407,5.44284e-05,-0.000524427,-0.00220583,0.0323934,0.00133065,0.0186993,1945,820,-0.0823962,0.0653976
728,204,-0.0639648,-0.0687866,0.000239659,-0.00354096,0.000253976,0.000256645,-0.00355795,0.0667786,0.00246198,0.0119817,1952,820,-0.0640231,0.0687722
735,204,-0.0561523,-0.0424194,0.00110607,-0.00517357,0.000191445,0.0011119,-0.0051794,0.0304489,0.00387708,0.0145275,1959,820,-0.0561654,0.0424316
742,204,-0.050293,-0.0647583,0.00226407,-0.00742634,0.00042401,0.00228259,-0.00744486,0.0436445,0.00587385,0.0288625,1966,820,-0.0502502,0.0647619
749,204,-0.302246,-0.912964,0,0,0,0,0,0,0,-1,1973,820,-0.302298,0.912968
756,204,-0.412231,-0.828308,0,0,0,0,0,0,0,-1,1980,820,-0.41227,0.82833
763,204,-0.431763,-1.28955,0,0,0,0,0,0,0,-1,1987,820,-0.431785,1.28958
770,204,-0.186401,-1.63586,0,0,0,0,0,0,0,-1,1994,820,-0.186435,1.63585
777,204,0,0,0,0,0,0,0,0,0,-1,2001,820,0,0
784,204,0,0,0,0,0,0,0,0,0,-1,2008,820,0,0
791,204,0,0,0,0,0,0,0,0,0,-1,2015,820,0,0
798,204,0,0,0,0,0,0,0,0,0,-1,2022,820,0,0
805,204,0,0,0,0,0,0,0,0,0,-1,2029,820,0,0
812,204,0,0,0,0,0,0,0,0,0,-1,2036,820,0,0
-700,197,0,0,0,0,0,0,0,0,0,-1,524,827,0,0
-693,197,0,0,0,0,0,0,0,0,0,-1,531,827,0,0
-686,197,0,0,0,0,0,0,0,0,0,-1,538,827,0,0
-679,197,0,0,0,0,0,0,0,0,0,-1,545,827,0,0
-672,197,0,0,0,0,0,0,0,0,0,-1,552,827,0,0
-665,197,0,0,0,0,0,0,0,0,0,-1,559,827,0,0
-658,197,-0.0221558,-1.27325,0,0,0,0,0,0,0,-1,566,827,-0.0221472,1.27324
-651,197,-0.170776,-0.839111,-0.0370293,0.0120062,0.00251479,0.0121348,-0.0371579,1.51969,0.0296563,0.045786,573,827,-0.170763,0.839097
-644,197,-0.104492,-0.453735,-0.026501,0.0115265,0.00322185,0.0117975,-0.026772,1.48687,0.0228207,0.0444582,580,827,-0.1045,0.453746
-637,197,-0.144714,0.189697,-0.0182127,0.0102857,0.00317055,0.0106342,-0.0185612,1.46133,0.0170618,0.0472956,587,827,-0.144732,-0.189683
-630,197,-0.0350342,0.438293,-0.0118255,0.00867094,0.00272702,0.00902756,-0.0121821,1.44076,0.0122905,0.0439264,594,827,-0.035041,-0.438281
-623,197,-0.06073,0.49353,-0.00706747,0.00696462,0.00214761,0.00728595,-0.0073888,1.42227,0.00847254,0.0417511,601,827,-0.0607027,-0.493535
-616,197,0.00500488,0.365967,-0.00369447,0.00535245,0.00158095,0.00562076,-0.00396278,1.40268,0.00556059,0.0424769,608,827,0.0050332,-0.365994
-609,197,-0.0603027,0.0148926,-0.00151529,0.00418931,0.00110732,0.00439671,-0.00172269,1.38564,0.00364374,0.0312161,615,827,-0.0602754,-0.0149086
-602,197,-0.098999,-0.0428467,-0.000179999,0.00326349,0.00092842,0.00349785,-0.000414365,1.32353,0.00248158,0.015281,622,827,-0.0989769,0.0428383
-595,197,-0.0864258,-0.0460815,0.00111692,0.00173663,0.0005438,0.00205266,0.000800891,1.04436,0.00119459,0.016131,629,827,-0.0864562,0.046077
-588,197,-0.0667114,-0.0543213,0.00207492,0.00135733,0.000192737,0.00212341,0.00130884,0.246473,0.00123697,0.0165284,636,827,-0.0666993,0.0543206
-581,197,-0.0736084,-0.0438232,0.00215517,0.000391895,0.000105799,0.00216149,0.00038557,0.0597158,0.00133122,0.00932495,643,827,-0.0735888,0.0438532
-574,197,-0.0726318,-0.031311,0.00151213,0.000184886,0.000151845,0.00152928,0.000167735,0.11247,0.000968462,0.0113182,650,827,-0.0726028,0.0312827
-567,197,-0.0751343,-0.0359497,0.00138606,0.000135566,0.000428679,0.0015189,2.72383e-06,0.300504,0.00101169,0.0132329,657,827,-0.0751042,0.0359312
-560,197,-0.0822754,-0.0402222,0.00145851,0.000688596,0.00092046,0.00207127,7.58374e-05,0.587339,0.00135628,0.0118443,664,827,-0.0822537,0.0402036
-553,197,-0.0576782,-0.0227051,0.00151101,0.00141105,0.00129768,0.00275967,0.000162394,0.766149,0.00178811,0.00996434,671,827,-0.05765,0.0226866
-546,197,-0.0817261,0.00958252,0.00150119,0.00198356,0.0014949,0.00325661,0.000228139,0.865378,0.00209916,0.0148239,678,827,-0.081746,-0.0095716
-539,197,-0.0859375,0.0751343,0.00149588,0.00258459,0.00159505,0.00372562,0.000354851,0.949839,0.00237432,0.0280671,685,827,-0.0859603,-0.0751066
-532,197,0.18811,0.530579,0.00155749,0.0032007,0.00172221,0.00428725,0.000470943,1.00796,0.00271483,0.0416461,692,827,0.188095,-0.530558
-525,197,0.455688,0.919006,0,0,0,0,0,0,0,-1,699,827,0.45566,-0.91898
-518,197,-0.211365,-0.172913,0.00114403,0.00456754,0.00183436,0.00536476,0.0003468,1.16082,0.0034667,0.0428272,706,827,-0.211365,0.172939
-511,197,-0.069458,-0.0413208,0.000595747,0.00503332,0.00169173,0.00560469,2.43785e-05,1.24508,0.00372836,0.0408693,713,827,-0.0694743,0.0413374
-504,197,0.0170288,0.161743,-0.000133726,0.00507717,0.00139842,0.00542873,-0.000485293,1.3245,0.00379129,0.036211,720,827,0.0170101,-0.161719
-497,197,-0.134888,0.158203,-0.00105874,0.00447119,0.000947931,0.00462917,-0.00121672,1.40566,0.00356165,0.0361035,727,827,-0.134858,-0.158199
-490,197,-0.164185,0.134338,-0.00205198,0.0028905,0.000325728,0.00291187,-0.00207335,1.50527,0.00289176,0.0345605,734,827,-0.164197,-0.134369
-483,197,-0.112244,0.0107422,-0.00286483,-9.65278e-05,-0.00031231,-6.17318e-05,-0.00289963,-1.45984,0.00191284,0.0346902,741,827,-0.112238,-0.0107572
-476,197,0,0,0,0,0,0,0,0,0,-1,748,827,0,0
-469,197,0,0,0,0,0,0,0,0,0,-1,755,827,0,0
-462,197,0,0,0,0,0,0,0,0,0,-1,762,827,0,0
-455,197,0,0,0,0,0,0,0,0,0,-1,769,827,0,0
-448,197,0,0,0,0,0,0,0,0,0,-1,776,827,0,0
-441,197,0,0,0,0,0,0,0,0,0,-1,783,827,0,0
-434,197,0,0,0,0,0,0,0,0,0,-1,790,827,0,0
-427,197,0,0,0,0,0,0,0,0,0,-1,797,827,0,0
-420,197,0,0,0,0,0,0,0,0,0,-1,804,827,0,0
-413,197,0,0,0,0,0,0,0,0,0,-1,811,827,0,0
-406,197,0,0,0,0,0,0,0,0,0,-1,818,827,0,0
-399,197,0,0,0,0,0,0,0,0,0,-1,825,827,0,0
-392,197,0,0,0,0,0,0,0,0,0,-1,832,827,0,0
-385,197,0,0,0,0,0,0,0,0,0,-1,839,827,0,0
-378,197,0,0,0,0,0,0,0,0,0,-1,846,827,0,0
-371,197,0,0,0,0,0,0,0,0,0,-1,853,827,0,0
-364,197,0,0,0,0,0,0,0,0,0,-1,860,827,0,0
-357,197,0,0,0,0,0,0,0,0,0,-1,867,827,0,0
-350,197,0,0,0,0,0,0,0,0,0,-1,874,827,0,0
-343,197,0,0,0,0,0,0,0,0,0,-1,881,827,0,0
-336,197,0,0,0,0,0,0,0,0,0,-1,888,827,0,0
-329,197,0,0,0,0,0,0,0,0,0,-1,895,827,0,0
-322,197,0,0,0,0,0,0,0,0,0,-1,902,827,0,0
-315,197,0,0,0,0,0,0,0,0,0,-1,909,827,0,0
-308,197,0,0,0,0,0,0,0,0,0,-1,916,827,0,0
-301,197,0,0,0,0,0,0,0,0,0,-1,923,827,0,0
-294,197,0,0,0,0,0,0,0,0,0,-1,930,827,0,0
-287,197,0,0,0,0,0,0,0,0,0,-1,937,827,0,0
-280,197,0,0,0,0,0,0,0,0,0,-1,944,827,0,0
-273,197,0,0,0,0,0,0,0,0,0,-1,951,827,0,0
-266,197,0,0,0,0,0,0,0,0,0,-1,958,827,0,0
-259,197,0,0,0,0,0,0,0,0,0,-1,965,827,0,0
-252,197,0,0,0,0,0,0,0,0,0,-1,972,827,0,0
-245,197,0,0,0,0,0,0,0,0,0,-1,979,827,0,0
-238,197,0,0,0,0,0,0,0,0,0,-1,986,827,0,0
-231,197,0,0,0,0,0,0,0,0,0,-1,993,827,0,0
-224,197,0,0,0,0,0,0,0,0,0,-1,1000,827,0,0
-217,197,0,0,0,0,0,0,0,0,0,-1,1007,827,0,0
-210,197,0,0,0,0,0,0,0,0,0,-1,1014,827,0,0
-203,197,0,0,0,0,0,0,0,0,0,-1,1021,827,0,0
-196,197,0,0,0,0,0,0,0,0,0,-1,1028,827,0,0
-189,197,0,0,0,0,0,0,0,0,0,-1,1035,827,0,0
-182,197,0,0,0,0,0,0,0,0,0,-1,1042,827,0,0
-175,197,0,0,0,0,0,0,0,0,0,-1,1049,827,0,0
-168,197,0,0,0,0,0,0,0,0,0,-1,1056,827,0,0
-161,197,0,0,0,0,0,0,0,0,0,-1,1063,827,0,0
-154,197,0,0,0,0,0,0,0,0,0,-1,1070,827,0,0
-147,197,0,0,0,0,0,0,0,0,0,-1,1077,827,0,0
-140,197,0,0,0,0,0,0,0,0,0,-1,1084,827,0,0
-133,197,0,0,0,0,0,0,0,0,0,-1,1091,827,0,0
-126,197,0,0,0,0,0,0,0,0,0,-1,1098,827,0,0
-119,197,0,0,0,0,0,0,0,0,0,-1,1105,827,0,0
-112,197,0,0,0,0,0,0,0,0,0,-1,1112,827,0,0
-105,197,0,0,0,0,0,0,0,0,0,-1,1119,827,0,0
-98,197,0,0,0,0,0,0,0,0,0,-1,1126,827,0,0
-91,197,0,0,0,0,0,0,0,0,0,-1,1133,827,0,0
-84,197,0,0,0,0,0,0,0,0,0,-1,1140,827,0,0
-77,197,0,0,0,0,0,0,0,0,0,-1,1147,827,0,0
-70,197,0,0,0,0,0,0,0,0,0,-1,1154,827,0,0
-63,197,0,0,0,0,0,0,0,0,0,-1,1161,827,0,0
-56,197,0,0,0,0,0,0,0,0,0,-1,1168,827,0,0
-49,197,0,0,0,0,0,0,0,0,0,-1,1175,827,0,0
-42,197,0,0,0,0,0,0,0,0,0,-1,1182,827,0,0
-35,197,0,0,0,0,0,0,0,0,0,-1,1189,827,0,0
-28,197,0,0,0,0,0,0,0,0,0,-1,1196,827,0,0
-21,197,0,0,0,0,0,0,0,0,0,-1,1203,827,0,0
-14,197,0,0,0,0,0,0,0,0,0,-1,1210,827,0,0
-7,197,0,0,0,0,0,0,0,0,0,-1,1217,827,0,0
0,197,0,0,0,0,0,0,0,0,0,-1,1224,827,0,0
7,197,0,0,0,0,0,0,0,0,0,-1,1231,827,0,0
14,197,0,0,0,0,0,0,0,0,0,-1,1238,827,0,0
21,197,0,0,0,0,0,0,0,0,0,-1,1245,827,0,0
28,197,0,0,0,0,0,0,0,0,0,-1,1252,827,0,0
35,197,0,0,0,0,0,0,0,0,0,-1,1259,827,0,0
42,197,0,0,0,0,0,0,0,0,0,-1,1266,827,0,0
49,197,0,0,0,0,0,0,0,0,0,-1,1273,827,0,0
56,197,0,0,0,0,0,0,0,0,0,-1,1280,827,0,0
63,197,0,0,0,0,0,0,0,0,0,-1,1287,827,0,0
70,197,0,0,0,0,0,0,0,0,0,-1,1294,827,0,0
77,197,0,0,0,0,0,0,0,0,0,-1,1301,827,0,0
84,197,0,0,0,0,0,0,0,0,0,-1,1308,827,0,0
91,197,0,0,0,0,0,0,0,0,0,-1,1315,827,0,0
98,197,0,0,0,0,0,0,0,0,0,-1,1322,827,0,0
105,197,0,0,0,0,0,0,0,0,0,-1,1329,827,0,0
112,197,0,0,0,0,0,0,0,0,0,-1,1336,827,0,0
119,197,0,0,0,0,0,0,0,0,0,-1,1343,827,0,0
126,197,0,0,0,0,0,0,0,0,0,-1,1350,827,0,0
133,197,0,0,0,0,0,0,0,0,0,-1,1357,827,0,0
140,197,0,0,0,0,0,0,0,0,0,-1,1364,827,0,0
147,197,0,0,0,0,0,0,0,0,0,-1,1371,827,0,0
154,197,0,0,0,0,0,0,0,0,0,-1,1378,827,0,0
161,197,0,0,0,0,0,0,0,0,0,-1,1385,827,0,0
168,197,0,0,0,0,0,0,0,0,0,-1,1392,827,0,0
175,197,0,0,0,0,0,0,0,0,0,-1,1399,827,0,0
182,197,0,0,0,0,0,0,0,0,0,-1,1406,827,0,0
189,197,0,0,0,0,0,0,0,0,0,-1,1413,827,0,0
196,197,0,0,0,0,0,0,0,0,0,-1,1420,827,0,0
203,197,0,0,0,0,0,0,0,0,0,-1,1427,827,0,0
210,197,0,0,0,0,0,0,0,0,0,-1,1434,827,0,0
217,197,0,0,0,0,0,0,0,0,0,-1,1441,827,0,0
224,197,0,0,0,0,0,0,0,0,0,-1,1448,827,0,0
231,197,0,0,0,0,0,0,0,0,0,-1,1455,827,0,0
238,197,0,0,0,0,0,0,0,0,0,-1,1462,827,0,0
245,197,0,0,0,0,0,0,0,0,0,-1,1469,827,0,0
252,197,0,0,0,0,0,0,0,0,0,-1,1476,827,0,0
259,197,0,0,0,0,0,0,0,0,0,-1,1483,827,0,0
266,197,0,0,0,0,0,0,0,0,0,-1,1490,827,0,0
273,197,0,0,0,0,0,0,0,0,0,-1,1497,827,0,0
280,197,0,0,0,0,0,0,0,0,0,-1,1504,827,0,0
287,197,0,0,0,0,0,0,0,0,0,-1,1511,827,0,0
294,197,0,0,0,0,0,0,0,0,0,-1,1518,827,0,0
301,197,0,0,0,0,0,0,0,0,0,-1,1525,827,0,0
308,197,0,0,0,0,0,0,0,0,0,-1,1532,827,0,0
315,197,0,0,0,0,0,0,0,0,0,-1,1539,827,0,0
322,197,0,0,0,0,0,0,0,0,0,-1,1546,827,0,0
329,197,0,0,0,0,0,0,0,0,0,-1,1553,827,0,0
336,197,0,0,0,0,0,0,0,0,0,-1,1560,827,0,0
343,197,0,0,0,0,0,0,0,0,0,-1,1567,827,0,0
350,197,0,0,0,0,0,0,0,0,0,-1,1574,827,0,0
357,197,0,0,0,0,0,0,0,0,0,-1,1581,827,0,0
364,197,0,0,0,0,0,0,0,0,0,-1,1588,827,0,0
371,197,0,0,0,0,0,0,0,0,0,-1,1595,827,0,0
378,197,0,0,0,0,0,0,0,0,0,-1,1602,827,0,0
385,197,0,0,0,0,0,0,0,0,0,-1,1609,827,0,0
392,197,0,0,0,0,0,0,0,0,0,-1,1616,827,0,0
399,197,0,0,0,0,0,0,0,0,0,-1,1623,827,0,0
406,197,0,0,0,0,0,0,0,0,0,-1,1630,827,0,0
413,197,0,0,0,0,0,0,0,0,0,-1,1637,827,0,0
420,197,0,0,0,0,0,0,0,0,0,-1,1644,827,0,0
427,197,0,0,0,0,0,0,0,0,0,-1,1651,827,0,0
434,197,0,0,0,0,0,0,0,0,0,-1,1658,827,0,0
441,197,0,0,0,0,0,0,0,0,0,-1,1665,827,0,0
448,197,0,0,0,0,0,0,0,0,0,-1,1672,827,0,0
455,197,0,0,0,0,0,0,0,0,0,-1,1679,827,0,0
462,197,0,0,0,0,0,0,0,0,0,-1,1686,827,0,0
469,197,0,0,0,0,0,0,0,0,0,-1,1693,827,0,0
476,197,0,0,0,0,0,0,0,0,0,-1,1700,827,0,0
483,197,0,0,0,0,0,0,0,0,0,-1,1707,827,0,0
490,197,0,0,0,0,0,0,0,0,0,-1,1714,827,0,0
497,197,0,0,0,0,0,0,0,0,0,-1,1721,827,0,0
504,197,0,0,0,0,0,0,0,0,0,-1,1728,827,0,0
511,197,0,0,0,0,0,0,0,0,0,-1,1735,827,0,0
518,197,0,0,0,0,0,0,0,0,0,-1,1742,827,0,0
525,197,0,0,0,0,0,0,0,0,0,-1,1749,827,0,0
532,197,0,0,0,0,0,0,0,0,0,-1,1756,827,0,0
539,197,0,0,0,0,0,0,0,0,0,-1,1763,827,0,0
546,197,0,0,0,0,0,0,0,0,0,-1,1770,827,0,0
553,197,0,0,0,0,0,0,0,0,0,-1,1777,827,0,0
560,197,0,0,0,0,0,0,0,0,0,-1,1784,827,0,0
567,197,0,0,0,0,0,0,0,0,0,-1,1791,827,0,0
574,197,0,0,0,0,0,0,0,0,0,-1,1798,827,0,0
581,197,0,0,0,0,0,0,0,0,0,-1,1805,827,0,0
588,197,0,0,0,0,0,0,0,0,0,-1,1812,827,0,0
595,197,0,0,0,0,0,0,0,0,0,-1,1819,827,0,0
602,197,-0.0959473,-0.144592,0.00121176,-0.00022391,0.000703676,0.00149914,-0.000511284,0.387718,0.00120652,0.0352133,1826,827,-0.0959233,0.144568
609,197,-0.0493164,-0.204468,0.000499289,-0.000593183,0.000398278,0.00062907,-0.000722964,0.315005,0.000781225,0.0354128,1833,827,-0.049294,0.204497
616,197,0.0219727,-0.110779,1.26595e-05,-0.00113224,5.14144e-05,1.49639e-05,-0.00113454,0.0447871,0.0007614,0.0355275,1840,827,0.021939,0.11077
623,197,0.000366211,-0.069458,-0.0004298,-0.00114964,-0.000241284,-0.000356407,-0.00122303,-0.295285,0.000726312,0.0320949,1847,827,0.000423625,0.0694582
630,197,0.0115967,-0.0613403,-0.000723083,-0.0010192,-0.000408071,-0.000437042,-0.00130524,-0.611369,0.000767165,0.0257711,1854,827,0.0116349,0.0613621
637,197,-0.0454102,-0.0593872,-0.000827176,-0.000836873,-0.00050628,-0.000325721,-0.00133833,-0.78061,0.000805894,0.0243522,1861,827,-0.045363,0.0594127
644,197,-0.0700684,-0.0739136,-0.000887927,-0.000647631,-0.000493086,-0.000260266,-0.00127529,-0.904902,0.000778086,0.0296127,1868,827,-0.0700634,0.0739436
651,197,-0.0723877,-0.0309448,-0.000900215,-0.000456602,-0.000458447,-0.000169122,-0.00118769,-1.01071,0.000741875,0.0404724,1875,827,-0.0724108,0.0309159
658,197,-0.1427,0.110046,-0.000867529,-0.000297767,-0.000375989,-0.000110922,-0.00105437,-1.1096,0.000669014,0.0469033,1882,827,-0.142727,-0.110046
665,197,-0.529419,0.420288,0,0,0,0,0,0,0,-1,1889,827,-0.529475,-0.420261
672,197,-0.0882568,-0.0187378,-0.000596746,5.5879e-05,-0.00018837,0.000106347,-0.000647213,-1.30903,0.000470944,0.0238142,1896,827,-0.0882319,0.0187285
679,197,-0.0950928,-0.0407104,-0.000366568,0.000109549,-8.5544e-05,0.000124452,-0.000381472,-1.39831,0.0003044,0.0099026,1903,827,-0.0951522,0.0407169
686,197,-0.0744629,-0.048584,-0.000157928,0.000159177,3.45386e-06,0.000159215,-0.000157965,1.55991,0.000183125,0.00846072,1910,827,-0.0744813,0.0486023
693,197,-0.0751953,-0.045105,3.48813e-05,-4.95246e-05,0.000171632,0.000169423,-0.000184067,0.664844,0.000204146,0.0131542,1917,827,-0.0751419,0.0451324
700,197,-0.0681152,-0.0396729,0.000112735,-0.000246769,0.000320925,0.000300819,-0.000434853,0.530113,0.000427084,0.0190753,1924,827,-0.0680835,0.0396979
707,197,-0.067627,-0.0556641,-0.000287916,0.000222724,0.000135599,0.000256498,-0.000321691,1.32669,0.000334524,0.00873012,1931,827,-0.0676442,0.055662
714,197,-0.0842285,-0.0547485,-0.000241348,-2.84965e-05,-2.02896e-05,-2.65797e-05,-0.000243265,-1.4766,0.000154083,0.0107844,1938,827,-0.0842408,0.0547211
721,197,-0.0698242,-0.0686646,0.00033308,-0.00112962,0.000121058,0.000343031,-0.00113957,0.0820196,0.000896216,0.010868,1945,827,-0.0697645,0.0686701
728,197,-0.0571289,-0.0578613,0.00177499,-0.00210343,0.000205179,0.00178582,-0.00211425,0.0527067,0.00225437,0.00967621,1952,827,-0.0570855,0.0578733
735,197,-0.0653076,-0.0443726,0.00357352,-0.0033254,-5.47355e-05,0.00357395,-0.00332583,-0.00793326,0.00398445,0.0103404,1959,827,-0.0652498,0.044376
742,197,-0.0744629,-0.0187378,0.00584911,-0.00483249,-8.46141e-05,0.00584978,-0.00483316,-0.00792082,0.0061771,0.017843,1966,827,-0.0744303,0.0187543
749,197,0.0194092,-1.52332,0,0,0,0,0,0,0,-1,1973,827,0.0194292,1.52333
756,197,-0.135498,-1.63623,0.0132754,-0.0100515,0.000177244,0.0132767,-0.0100528,0.00759771,0.0135121,0.0454653,1980,827,-0.135454,1.63621
763,197,-0.308594,-1.68903,0,0,0,0,0,0,0,-1,1987,827,-0.308645,1.68904
770,197,-0.211304,-1.38519,0,0,0,0,0,0,0,-1,1994,827,-0.211314,1.38516
777,197,0,0,0,0,0,0,0,0,0,-1,2001,827,0,0
784,197,0,0,0,0,0,0,0,0,0,-1,2008,827,0,0
791,197,0,0,0,0,0,0,0,0,0,-1,2015,827,0,0
798,197,0,0,0,0,0,0,0,0,0,-1,2022,827,0,0
805,197,0,0,0,0,0,0,0,0,0,-1,2029,827,0,0
812,197,0,0,0,0,0,0,0,0,0,-1,2036,827,0,0
-700,190,0,0,0,0,0,0,0,0,0,-1,524,834,0,0
-693,190,0,0,0,0,0,0,0,0,0,-1,531,834,0,0
-686,190,0,0,0,0,0,0,0,0,0,-1,538,834,0,0
-679,190,0,0,0,0,0,0,0,0,0,-1,545,834,0,0
-672,190,0,0,0,0,0,0,0,0,0,-1,552,834,0,0
-665,190,0,0,0,0,0,0,0,0,0,-1,559,834,0,0
-658,190,1.00092,-3.34149,0,0,0,0,0,0,0,-1,566,834,1.00092,3.3415
-651,190,-0.553528,-1.06757,-0.0285769,0.00143897,0.00507139,0.00227266,-0.0294106,1.40786,0.0204069,0.0494734,573,834,-0.553516,1.06757
-644,190,-0.458618,-0.705383,-0.020833,0.00339949,0.00574868,0.00469409,-0.0221276,1.34929,0.01654,0.0462814,580,834,-0.458611,0.705413
-637,190,-0.302551,-0.53241,-0.0144813,0.00421064,0.00557429,0.00574676,-0.0160174,1.3019,0.0130236,0.0479307,587,834,-0.302576,0.532399
-630,190,-0.249573,-0.398193,-0.00943739,0.00423438,0.00492413,0.00582325,-0.0110262,1.25867,0.00988145,0.0446203,594,834,-0.249555,0.398218
-623,190,-0.190674,-0.161682,-0.0056019,0.0037783,0.0040696,0.00529777,-0.00712137,1.21346,0.00719591,0.0443734,601,834,-0.190653,0.161702
-616,190,-0.135681,-0.0561523,-0.00288376,0.00308886,0.00318835,0.00447103,-0.00426594,1.16174,0.00504475,0.0421101,608,834,-0.135694,0.0561615
-609,190,-0.0981445,-0.050354,-0.00110556,0.00264731,0.00238874,0.00380849,-0.00226674,1.11833,0.00354499,0.0216257,615,834,-0.0981609,0.0503487
-602,190,-0.0864868,-0.0449219,-1.98424e-05,0.00223795,0.00194022,0.00335379,-0.00113569,1.04888,0.0026954,0.013887,622,834,-0.0864675,0.0449521
-595,190,-0.0847778,-0.0361328,0.00111743,0.00112118,0.00130514,0.00242445,-0.000185838,0.786115,0.00168167,0.016413,629,834,-0.0847876,0.0361511
-588,190,-0.0813599,-0.0568237,0.00199219,0.00100142,0.000690934,0.00234698,0.000646631,0.474382,0.00139981,0.0138058,636,834,-0.0813492,0.0568272
-581,190,-0.0821533,-0.0484619,0.0020382,0.000217208,0.000452287,0.00214435,0.000111059,0.230521,0.00139402,0.00909445,643,834,-0.0821724,0.0484476
-574,190,-0.0717163,-0.0352173,0.00144617,-1.77086e-05,0.000371603,0.0015351,-0.000106637,0.234892,0.00106073,0.00918135,650,834,-0.0716962,0.0351904
-567,190,-0.0661621,-0.0338135,0.00134058,-2.85453e-05,0.00054332,0.00152998,-0.000217953,0.335437,0.00109986,0.0109515,657,834,-0.0661518,0.0338043
-560,190,-0.0773926,-0.0297852,0.00145285,0.000430922,0.000987051,0.00205335,-0.000169579,0.546557,0.00142879,0.0105255,664,834,-0.0773997,0.0297588
-553,190,-0.0703125,-0.0139771,0.00154966,0.00101817,0.00137306,0.00268246,-0.000114634,0.689809,0.00182771,0.00963381,671,834,-0.0703094,0.0139929
-546,190,-0.0167847,-0.0140991,0.00160339,0.00142635,0.00163227,0.00314954,-0.000119795,0.758309,0.00214074,0.0195198,678,834,-0.0168107,0.014123
-539,190,0.026123,0.0178833,0.0016792,0.00182407,0.0018108,0.00356388,-6.06119e-05,0.805389,0.00239638,0.0368848,685,834,0.0261306,-0.0178842
-532,190,0.0715332,0.153748,0.00178986,0.00221,0.00199734,0.00400829,-8.42451e-06,0.837794,0.00267501,0.0436772,692,834,0.0715437,-0.153745
-525,190,0.113037,0.243408,0,0,0,0,0,0,0,-1,699,834,0.113057,-0.243378
-518,190,-0.136963,-0.0988159,0.00157436,0.00298691,0.00219799,0.00458931,-2.8044e-05,0.940851,0.00306893,0.0458215,706,834,-0.136951,0.0987909
-511,190,-0.0700073,-0.0485229,0.0011853,0.003136,0.00208522,0.00446271,-0.000141406,1.00415,0.00302338,0.0395828,713,834,-0.0700249,0.0485018
-504,190,-0.0216675,0.0510864,0.000582802,0.00287713,0.00177199,0.00384087,-0.000380944,1.07267,0.00269655,0.0382439,720,834,-0.021648,-0.0510746
-497,190,-0.135986,0.0619507,-0.00021505,0.00200245,0.00122518,0.00254609,-0.00075869,1.15318,0.00199888,0.041145,727,834,-0.135956,-0.0619302
-490,190,-0.17157,0.130005,-0.00108017,0.000179308,0.000371949,0.000280949,-0.00118181,1.30404,0.000896322,0.0384151,734,834,-0.171576,-0.130034
-483,190,0,0,0,0,0,0,0,0,0,-1,741,834,0,0
-476,190,0,0,0,0,0,0,0,0,0,-1,748,834,0,0
-469,190,0,0,0,0,0,0,0,0,0,-1,755,834,0,0
-462,190,0,0,0,0,0,0,0,0,0,-1,762,834,0,0
-455,190,0,0,0,0,0,0,0,0,0,-1,769,834,0,0
-448,190,0,0,0,0,0,0,0,0,0,-1,776,834,0,0
-441,190,0,0,0,0,0,0,0,0,0,-1,783,834,0,0
-434,190,0,0,0,0,0,0,0,0,0,-1,790,834,0,0
-427,190,0,0,0,0,0,0,0,0,0,-1,797,834,0,0
-420,190,0,0,0,0,0,0,0,0,0,-1,804,834,0,0
-413,190,0,0,0,0,0,0,0,0,0,-1,811,834,0,0
-406,190,0,0,0,0,0,0,0,0,0,-1,818,834,0,0
-399,190,0,0,0,0,0,0,0,0,0,-1,825,834,0,0
-392,190,0,0,0,0,0,0,0,0,0,-1,832,834,0,0
-385,190,0,0,0,0,0,0,0,0,0,-1,839,834,0,0
-378,190,0,0,0,0,0,0,0,0,0,-1,846,834,0,0
-371,190,0,0,0,0,0,0,0,0,0,-1,853,834,0,0
-364,190,0,0,0,0,0,0,0,0,0,-1,860,834,0,0
-357,190,0,0,0,0,0,0,0,0,0,-1,867,834,0,0
-350,190,0,0,0,0,0,0,0,0,0,-1,874,834,0,0
-343,190,0,0,0,0,0,0,0,0,0,-1,881,834,0,0
-336,190,0,0,0,0,0,0,0,0,0,-1,888,834,0,0
-329,190,0,0,0,0,0,0,0,0,0,-1,895,834,0,0
-322,190,0,0,0,0,0,0,0,0,0,-1,902,834,0,0
-315,190,0,0,0,0,0,0,0,0,0,-1,909,834,0,0
-308,190,0,0,0,0,0,0,0,0,0,-1,916,834,0,0
-301,190,0,0,0,0,0,0,0,0,0,-1,923,834,0,0
-294,190,0,0,0,0,0,0,0,0,0,-1,930,834,0,0
-287,190,0,0,0,0,0,0,0,0,0,-1,937,834,0,0
-280,190,0,0,0,0,0,0,0,0,0,-1,944,834,0,0
-273,190,0,0,0,0,0,0,0,0,0,-1,951,834,0,0
-266,190,0,0,0,0,0,0,0,0,0,-1,958,834,0,0
-259,190,0,0,0,0,0,0,0,0,0,-1,965,834,0,0
-252,190,0,0,0,0,0,0,0,0,0,-1,972,834,0,0
-245,190,0,0,0,0,0,0,0,0,0,-1,979,834,0,0
-238,190,0,0,0,0,0,0,0,0,0,-1,986,834,0,0
-231,190,0,0,0,0,0,0,0,0,0,-1,993,834,0,0
-224,190,0,0,0,0,0,0,0,0,0,-1,1000,834,0,0
-217,190,0,0,0,0,0,0,0,0,0,-1,1007,834,0,0
-210,190,0,0,0,0,0,0,0,0,0,-1,1014,834,0,0
-203,190,0,0,0,0,0,0,0,0,0,-1,1021,834,0,0
-196,190,0,0,0,0,0,0,0,0,0,-1,1028,834,0,0
-189,190,0,0,0,0,0,0,0,0,0,-1,1035,834,0,0
-182,190,0,0,0,0,0,0,0,0,0,-1,1042,834,0,0
-175,190,0,0,0,0,0,0,0,0,0,-1,1049,834,0,0
-168,190,0,0,0,0,0,0,0,0,0,-1,1056,834,0,0
-161,190,0,0,0,0,0,0,0,0,0,-1,1063,834,0,0
-154,190,0,0,0,0,0,0,0,0,0,-1,1070,834,0,0
-147,190,0,0,0,0,0,0,0,0,0,-1,1077,834,0,0
-140,190,0,0,0,0,0,0,0,0,0,-1,1084,834,0,0
-133,190,0,0,0,0,0,0,0,0,0,-1,1091,834,0,0
-126,190,0,0,0,0,0,0,0,0,0,-1,1098,834,0,0
-119,190,0,0,0,0,0,0,0,0,0,-1,1105,834,0,0
-112,190,0,0,0,0,0,0,0,0,0,-1,1112,834,0,0
-105,190,0,0,0,0,0,0,0,0,0,-1,1119,834,0,0
-98,190,0,0,0,0,0,0,0,0,0,-1,1126,834,0,0
-91,190,0,0,0,0,0,0,0,0,0,-1,1133,834,0,0
-84,190,0,0,0,0,0,0,0,0,0,-1,1140,834,0,0
-77,190,0,0,0,0,0,0,0,0,0,-1,1147,834,0,0
-70,190,0,0,0,0,0,0,0,0,0,-1,1154,834,0,0
-63,190,0,0,0,0,0,0,0,0,0,-1,1161,834,0,0
-56,190,0,0,0,0,0,0,0,0,0,-1,1168,834,0,0
-49,190,0,0,0,0,0,0,0,0,0,-1,1175,834,0,0
-42,190,0,0,0,0,0,0,0,0,0,-1,1182,834,0,0
-35,190,0,0,0,0,0,0,0,0,0,-1,1189,834,0,0
-28,190,0,0,0,0,0,0,0,0,0,-1,1196,834,0,0
-21,190,0,0,0,0,0,0,0,0,0,-1,1203,834,0,0
-14,190,0,0,0,0,0,0,0,0,0,-1,1210,834,0,0
-7,190,0,0,0,0,0,0,0,0,0,-1,1217,834,0,0
0,190,0,0,0,0,0,0,0,0,0,-1,1224,834,0,0
7,190,0,0,0,0,0,0,0,0,0,-1,1231,834,0,0
14,190,0,0,0,0,0,0,0,0,0,-1,1238,834,0,0
21,190,0,0,0,0,0,0,0,0,0,-1,1245,834,0,0
28,190,0,0,0,0,0,0,0,0,0,-1,1252,834,0,0
35,190,0,0,0,0,0,0,0,0,0,-1,1259,834,0,0
42,190,0,0,0,0,0,0,0,0,0,-1,1266,834,0,0
49,190,0,0,0,0,0,0,0,0,0,-1,1273,834,0,0
56,190,0,0,0,0,0,0,0,0,0,-1,1280,834,0,0
63,190,0,0,0,0,0,0,0,0,0,-1,1287,834,0,0
70,190,0,0,0,0,0,0,0,0,0,-1,1294,834,0,0
77,190,0,0,0,0,0,0,0,0,0,-1,1301,834,0,0
84,190,0,0,0,0,0,0,0,0,0,-1,1308,834,0,0
91,190,0,0,0,0,0,0,0,0,0,-1,1315,834,0,0
98,190,0,0,0,0,0,0,0,0,0,-1,1322,834,0,0
105,190,0,0,0,0,0,0,0,0,0,-1,1329,834,0,0
112,190,0,0,0,0,0,0,0,0,0,-1,1336,834,0,0
119,190,0,0,0,0,0,0,0,0,0,-1,1343,834,0,0
126,190,0,0,0,0,0,0,0,0,0,-1,1350,834,0,0
133,190,0,0,0,0,0,0,0,0,0,-1,1357,834,0,0
140,190,0,0,0,0,0,0,0,0,0,-1,1364,834,0,0
147,190,0,0,0,0,0,0,0,0,0,-1,1371,834,0,0
154,190,0,0,0,0,0,0,0,0,0,-1,1378,834,0,0
161,190,0,0,0,0,0,0,0,0,0,-1,1385,834,0,0
168,190,0,0,0,0,0,0,0,0,0,-1,1392,834,0,0
175,190,0,0,0,0,0,0,0,0,0,-1,1399,834,0,0
182,190,0,0,0,0,0,0,0,0,0,-1,1406,834,0,0
189,190,0,0,0,0,0,0,0,0,0,-1,1413,834,0,0
196,190,0,0,0,0,0,0,0,0,0,-1,1420,834,0,0
203,190,0,0,0,0,0,0,0,0,0,-1,1427,834,0,0
210,190,0,0,0,0,0,0,0,0,0,-1,1434,834,0,0
217,190,0,0,0,0,0,0,0,0,0,-1,1441,834,0,0
224,190,0,0,0,0,0,0,0,0,0,-1,1448,834,0,0
231,190,0,0,0,0,0,0,0,0,0,-1,1455,834,0,0
238,190,0,0,0,0,0,0,0,0,0,-1,1462,834,0,0
245,190,0,0,0,0,0,0,0,0,0,-1,1469,834,0,0
252,190,0,0,0,0,0,0,0,0,0,-1,1476,834,0,0
259,190,0,0,0,0,0,0,0,0,0,-1,1483,834,0,0
266,190,0,0,0,0,0,0,0,0,0,-1,1490,834,0,0
273,190,0,0,0,0,0,0,0,0,0,-1,1497,834,0,0
280,190,0,0,0,0,0,0,0,0,0,-1,1504,834,0,0
287,190,0,0,0,0,0,0,0,0,0,-1,1511,834,0,0
294,190,0,0,0,0,0,0,0,0,0,-1,1518,834,0,0
301,190,0,0,0,0,0,0,0,0,0,-1,1525,834,0,0
308,190,0,0,0,0,0,0,0,0,0,-1,1532,834,0,0
315,190,0,0,0,0,0,0,0,0,0,-1,1539,834,0,0
322,190,0,0,0,0,0,0,0,0,0,-1,1546,834,0,0
329,190,0,0,0,0,0,0,0,0,0,-1,1553,834,0,0
336,190,0,0,0,0,0,0,0,0,0,-1,1560,834,0,0
343,190,0,0,0,0,0,0,0,0,0,-1,1567,834,0,0
350,190,0,0,0,0,0,0,0,0,0,-1,1574,834,0,0
357,190,0,0,0,0,0,0,0,0,0,-1,1581,834,0,0
364,190,0,0,0,0,0,0,0,0,0,-1,1588,834,0,0
371,190,0,0,0,0,0,0,0,0,0,-1,1595,834,0,0
378,190,0,0,0,0,0,0,0,0,0,-1,1602,834,0,0
385,190,0,0,0,0,0,0,0,0,0,-1,1609,834,0,0
392,190,0,0,0,0,0,0,0,0,0,-1,1616,834,0,0
399,190,0,0,0,0,0,0,0,0,0,-1,1623,834,0,0
406,190,0,0,0,0,0,0,0,0,0,-1,1630,834,0,0
413,190,0,0,0,0,0,0,0,0,0,-1,1637,834,0,0
420,190,0,0,0,0,0,0,0,0,0,-1,1644,834,0,0
427,190,0,0,0,0,0,0,0,0,0,-1,1651,834,0,0
434,190,0,0,0,0,0,0,0,0,0,-1,1658,834,0,0
441,190,0,0,0,0,0,0,0,0,0,-1,1665,834,0,0
448,190,0,0,0,0,0,0,0,0,0,-1,1672,834,0,0
455,190,0,0,0,0,0,0,0,0,0,-1,1679,834,0,0
462,190,0,0,0,0,0,0,0,0,0,-1,1686,834,0,0
469,190,0,0,0,0,0,0,0,0,0,-1,1693,834,0,0
476,190,0,0,0,0,0,0,0,0,0,-1,1700,834,0,0
483,190,0,0,0,0,0,0,0,0,0,-1,1707,834,0,0
490,190,0,0,0,0,0,0,0,0,0,-1,1714,834,0,0
497,190,0,0,0,0,0,0,0,0,0,-1,1721,834,0,0
504,190,0,0,0,0,0,0,0,0,0,-1,1728,834,0,0
511,190,0,0,0,0,0,0,0,0,0,-1,1735,834,0,0
518,190,0,0,0,0,0,0,0,0,0,-1,1742,834,0,0
525,190,0,0,0,0,0,0,0,0,0,-1,1749,834,0,0
532,190,0,0,0,0,0,0,0,0,0,-1,1756,834,0,0
539,190,0,0,0,0,0,0,0,0,0,-1,1763,834,0,0
546,190,0,0,0,0,0,0,0,0,0,-1,1770,834,0,0
553,190,0,0,0,0,0,0,0,0,0,-1,1777,834,0,0
560,190,0,0,0,0,0,0,0,0,0,-1,1784,834,0,0
567,190,0,0,0,0,0,0,0,0,0,-1,1791,834,0,0
574,190,0,0,0,0,0,0,0,0,0,-1,1798,834,0,0
581,190,0,0,0,0,0,0,0,0,0,-1,1805,834,0,0
588,190,0,0,0,0,0,0,0,0,0,-1,1812,834,0,0
595,190,0,0,0,0,0,0,0,0,0,-1,1819,834,0,0
602,190,-0.12439,-0.138794,0.000368416,-0.000965452,0.000912199,0.000831485,-0.00142852,0.469742,0.0013199,0.0377994,1826,834,-0.124344,0.138806
609,190,-0.0478516,-0.228394,-0.000177139,-0.000695943,0.000461513,9.2877e-05,-0.000965959,0.529367,0.000677058,0.0349875,1833,834,-0.0478003,0.228369
616,190,0.00256348,-0.244568,-0.00040555,-0.00100671,1.12393e-05,-0.00040534,-0.00100692,0.0186873,0.000585012,0.0354202,1840,834,0.00251813,0.244563
623,190,-0.0496826,-0.171143,-0.000602258,-0.000843978,-0.000380031,-0.000324332,-0.00112191,-0.631442,0.000666664,0.0344539,1847,834,-0.0496217,0.171138
630,190,0.0184326,-0.0701294,-0.000757149,-0.000638306,-0.000560673,-0.000133915,-0.00126154,-0.838192,0.000800133,0.0365351,1854,834,0.018471,0.070115
637,190,-0.00170898,-0.0408325,-0.000776383,-0.000445474,-0.000647711,5.75808e-05,-0.00127944,-0.910447,0.000872786,0.0307605,1861,834,-0.00174681,0.04084
644,190,-0.0759277,-0.0618286,-0.000779342,-0.000295702,-0.00061419,0.000122558,-0.0011976,-0.972939,0.000842232,0.0231038,1868,834,-0.0759051,0.0617983
651,190,-0.0755615,0.0141602,-0.000751983,-0.000168503,-0.000553277,0.00016524,-0.00108572,-1.02802,0.000784717,0.0328029,1875,834,-0.0756047,-0.0141479
658,190,-0.256836,0.345337,-0.000722178,-6.90102e-05,-0.000448048,0.000158846,-0.000950035,-1.10033,0.000692405,0.0421166,1882,834,-0.256802,-0.345351
665,190,-0.0928955,-0.012207,-0.000630203,7.34967e-05,-0.00033961,0.000210659,-0.000767366,-1.18695,0.000594374,0.0424434,1889,834,-0.0928994,0.0122133
672,190,-0.12915,-0.151367,-0.000484971,0.000125283,-0.000208357,0.000189635,-0.000549323,-1.27123,0.000443165,0.0305823,1896,834,-0.129108,0.151374
679,190,-0.100708,-0.0250854,-0.000331996,0.000171243,-8.27276e-05,0.000184494,-0.000345246,-1.41197,0.000310504,0.0147799,1903,834,-0.100745,0.025094
686,190,-0.0793457,-0.0401001,-0.000186515,0.000205316,-4.20857e-06,0.000205361,-0.00018656,-1.56006,0.000226362,0.00854837,1910,834,-0.079354,0.0400872
693,190,-0.0880127,-0.0410767,-1.44892e-05,5.74113e-05,0.000132717,0.000158961,-0.000116039,0.917663,0.000159415,0.0108104,1917,834,-0.0879746,0.0410637
700,190,-0.0961914,-0.0530396,0.000103391,6.95824e-06,0.000223056,0.000283383,-0.000173033,0.678954,0.000266067,0.0105137,1924,834,-0.0961525,0.0530115
707,190,-0.0762939,-0.0504761,-9.95437e-05,0.000557182,-5.3365e-06,0.000557225,-9.9587e-05,-1.56267,0.000408743,0.0120929,1931,834,-0.0762795,0.0504766
714,190,-0.076416,-0.0623779,0.000209669,0.000406621,-0.000203723,0.00053442,8.18697e-05,-1.01053,0.000332369,0.0108047,1938,834,-0.0763661,0.0623922
721,190,-0.0732422,-0.0637817,0.00119609,-0.000612068,-0.000117018,0.00120363,-0.000619609,-0.0643589,0.0010705,0.0101173,1945,834,-0.073294,0.063765
728,190,-0.0637207,-0.0578003,0.00323644,-0.00137795,-0.000213997,0.00324634,-0.00138786,-0.0462438,0.00274634,0.0113184,1952,834,-0.0637783,0.0578216
735,190,-0.0650635,-0.0601196,0.00581661,-0.00236713,-0.00072231,0.00587987,-0.00243039,-0.0873616,0.00493379,0.00994209,1959,834,-0.0650731,0.0601042
742,190,-0.112915,-0.00921631,0.00901255,-0.0035308,-0.00102674,0.00909604,-0.00361429,-0.0811358,0.00756239,0.0134959,1966,834,-0.11297,0.00919701
749,190,0.348633,-2.32947,0,0,0,0,0,0,0,-1,1973,834,0.348662,2.32945
756,190,0.201416,-2.4986,0,0,0,0,0,0,0,-1,1980,834,0.201367,2.49861
763,190,-0.560303,-1.33539,0,0,0,0,0,0,0,-1,1987,834,-0.560266,1.33537
770,190,-0.26062,-1.1015,0.0341041,-0.0153229,-0.00180205,0.0341697,-0.0153885,-0.0363945,0.0292893,0.0489624,1994,834,-0.260584,1.10152
777,190,0.0900879,-0.675354,0.0442587,-0.0202938,-0.00168545,0.0443027,-0.0203378,-0.0260861,0.0381656,0.0454281,2001,834,0.0901371,0.675348
784,190,0,0,0,0,0,0,0,0,0,-1,2008,834,0,0
791,190,0,0,0,0,0,0,0,0,0,-1,2015,834,0,0
798,190,0,0,0,0,0,0,0,0,0,-1,2022,834,0,0
805,190,0,0,0,0,0,0,0,0,0,-1,2029,834,0,0
812,190,0,0,0,0,0,0,0,0,0,-1,2036,834,0,0
-700,183,0,0,0,0,0,0,0,0,0,-1,524,841,0,0
-693,183,0,0,0,0,0,0,0,0,0,-1,531,841,0,0
-686,183,0,0,0,0,0,0,0,0,0,-1,538,841,0,0
-679,183,0,0,0,0,0,0,0,0,0,-1,545,841,0,0
-672,183,0,0,0,0,0,0,0,0,0,-1,552,841,0,0
-665,183,0,0,0,0,0,0,0,0,0,-1,559,841,0,0
-658,183,0.663452,-2.67383,0,0,0,0,0,0,0,-1,566,841,0.663478,2.67384
-651,183,0.195496,-3.67651,0,0,0,0,0,0,0,-1,573,841,0.195502,3.67649
-644,183,-0.924438,-0.906677,-0.0154624,-0.00428148,0.00688097,-0.00100623,-0.0187377,1.12654,0.0121703,0.0490217,580,841,-0.924444,0.906671
-637,183,-0.503052,-0.627136,-0.0107612,-0.00170098,0.00666283,0.0018259,-0.0142881,1.08396,0.0101887,0.047782,587,841,-0.503026,0.627118
-630,183,-0.411316,-0.713318,-0.0069354,-0.000199723,0.00594574,0.00326576,-0.0104009,1.04308,0.00824109,0.0422646,594,841,-0.411287,0.713339
-623,183,-0.289734,-0.310669,-0.00398313,0.000545499,0.00498385,0.00375529,-0.00719293,0.998623,0.00642398,0.0429555,601,841,-0.289727,0.310671
-616,183,-0.204468,-0.0971069,-0.00190456,0.000800296,0.003956,0.00362866,-0.00473293,0.950104,0.00484158,0.0349905,608,841,-0.204478,0.0971285
-609,183,-0.10199,-0.0599976,-0.000564494,0.00113723,0.00298922,0.00339433,-0.00282159,0.924053,0.00359384,0.0141634,615,841,-0.10201,0.0600114
-602,183,-0.0961304,-0.0446777,0.000216324,0.00128644,0.00240445,0.00321464,-0.00171188,0.894879,0.0028881,0.00987868,622,841,-0.0961518,0.0446903
-595,183,-0.0861816,-0.0410767,0.00115001,0.000579051,0.00164562,0.00253472,-0.000805666,0.699514,0.00201285,0.00972317,629,841,-0.0861954,0.0410563
-588,183,-0.0684204,-0.0410767,0.00191031,0.000744989,0.00087889,0.00238213,0.000273163,0.492686,0.00150532,0.00914041,636,841,-0.0684139,0.0410859
-581,183,-0.0693359,-0.0460205,0.00186517,0.000244017,0.000577903,0.00205008,5.91003e-05,0.309683,0.00134746,0.00984335,643,841,-0.0693621,0.04599
-574,183,-0.0719604,-0.0460815,0.00132009,-4.3146e-05,0.000439601,0.00144956,-0.000172609,0.286404,0.00102874,0.0108566,650,841,-0.0719517,0.0460583
-567,183,-0.0623169,-0.0305786,0.0012271,-4.26581e-05,0.000551581,0.00143324,-0.000248798,0.357653,0.00104831,0.0110608,657,841,-0.0623274,0.0306027
-560,183,-0.065979,-0.0248413,0.00136267,0.000293199,0.000970344,0.00193586,-0.000279995,0.533563,0.00139332,0.0106601,664,841,-0.0659953,0.0248331
-553,183,-0.0695801,-0.036377,0.00145999,0.000697744,0.00138515,0.0025155,-0.000357764,0.651147,0.00180809,0.00985793,671,841,-0.0696022,0.0363766
-546,183,-0.0210571,-0.0370483,0.00153178,0.000943558,0.00172422,0.00298679,-0.00051146,0.700924,0.00218176,0.0214926,678,841,-0.0210535,0.0370586
-539,183,0.0575562,-0.234314,0.00166426,0.0011488,0.00197644,0.0033997,-0.000586643,0.720564,0.0024852,0.0403665,685,841,0.0575643,0.234298
-532,183,0.0977173,-0.28186,0.00180215,0.00132926,0.00221839,0.00379666,-0.000665256,0.732307,0.00277952,0.0419441,692,841,0.0976924,0.281846
-525,183,-0.0645752,-0.0346069,0.00183563,0.00153009,0.0024309,0.00411856,-0.000752839,0.754017,0.00302801,0.0451575,699,841,-0.0645736,0.0346374
-518,183,-0.0994263,-0.02948,0.0016903,0.00162042,0.0024869,0.0041425,-0.000831785,0.778374,0.00307664,0.0437125,706,841,-0.0994084,0.029457
-511,183,-0.0915527,-0.0192871,0.00136766,0.00152135,0.00236588,0.00381163,-0.000922622,0.801633,0.002898,0.0377059,713,841,-0.0915545,0.0193066
-504,183,-0.128784,0.0117798,0.000800053,0.0010643,0.00198412,0.00292069,-0.00105634,0.818645,0.00237875,0.0382448,720,841,-0.128787,-0.0117628
-497,183,-0.141113,0.0722046,1.42749e-05,6.22059e-05,0.00126455,0.00130302,-0.00122654,0.794873,0.00146066,0.0410575,727,841,-0.14112,-0.0721938
-490,183,-0.0807495,0.118774,-0.000879651,-0.00181586,3.97396e-05,-0.000877967,-0.00181755,0.0423457,0.00104956,0.0375379,734,841,-0.0807441,-0.118759
-483,183,0,0,0,0,0,0,0,0,0,-1,741,841,0,0
-476,183,0,0,0,0,0,0,0,0,0,-1,748,841,0,0
-469,183,0,0,0,0,0,0,0,0,0,-1,755,841,0,0
-462,183,0,0,0,0,0,0,0,0,0,-1,762,841,0,0
-455,183,0,0,0,0,0,0,0,0,0,-1,769,841,0,0
-448,183,0,0,0,0,0,0,0,0,0,-1,776,841,0,0
-441,183,0,0,0,0,0,0,0,0,0,-1,783,841,0,0
-434,183,0,0,0,0,0,0,0,0,0,-1,790,841,0,0
-427,183,0,0,0,0,0,0,0,0,0,-1,797,841,0,0
-420,183,0,0,0,0,0,0,0,0,0,-1,804,841,0,0
-413,183,0,0,0,0,0,0,0,0,0,-1,811,841,0,0
-406,183,0,0,0,0,0,0,0,0,0,-1,818,841,0,0
-399,183,0,0,0,0,0,0,0,0,0,-1,825,841,0,0
-392,183,0,0,0,0,0,0,0,0,0,-1,832,841,0,0
-385,183,0,0,0,0,0,0,0,0,0,-1,839,841,0,0
-378,183,0,0,0,0,0,0,0,0,0,-1,846,841,0,0
-371,183,0,0,0,0,0,0,0,0,0,-1,853,841,0,0
-364,183,0,0,0,0,0,0,0,0,0,-1,860,841,0,0
-357,183,0,0,0,0,0,0,0,0,0,-1,867,841,0,0
-350,183,0,0,0,0,0,0,0,0,0,-1,874,841,0,0
-343,183,0,0,0,0,0,0,0,0,0,-1,881,841,0,0
-336,183,0,0,0,0,0,0,0,0,0,-1,888,841,0,0
-329,183,0,0,0,0,0,0,0,0,0,-1,895,841,0,0
-322,183,0,0,0,0,0,0,0,0,0,-1,902,841,0,0
-315,183,0,0,0,0,0,0,0,0,0,-1,909,841,0,0
-308,183,0,0,0,0,0,0,0,0,0,-1,916,841,0,0
-301,183,0,0,0,0,0,0,0,0,0,-1,923,841,0,0
-294,183,0,0,0,0,0,0,0,0,0,-1,930,841,0,0
-287,183,0,0,0,0,0,0,0,0,0,-1,937,841,0,0
-280,183,0,0,0,0,0,0,0,0,0,-1,944,841,0,0
-273,183,0,0,0,0,0,0,0,0,0,-1,951,841,0,0
-266,183,0,0,0,0,0,0,0,0,0,-1,958,841,0,0
-259,183,0,0,0,0,0,0,0,0,0,-1,965,841,0,0
-252,183,0,0,0,0,0,0,0,0,0,-1,972,841,0,0
-245,183,0,0,0,0,0,0,0,0,0,-1,979,841,0,0
-238,183,0,0,0,0,0,0,0,0,0,-1,986,841,0,0
-231,183,0,0,0,0,0,0,0,0,0,-1,993,841,0,0
-224,183,0,0,0,0,0,0,0,0,0,-1,1000,841,0,0
-217,183,0,0,0,0,0,0,0,0,0,-1,1007,841,0,0
-210,183,0,0,0,0,0,0,0,0,0,-1,1014,841,0,0
-203,183,0,0,0,0,0,0,0,0,0,-1,1021,841,0,0
-196,183,0,0,0,0,0,0,0,0,0,-1,1028,841,0,0
-189,183,0,0,0,0,0,0,0,0,0,-1,1035,841,0,0
-182,183,0,0,0,0,0,0,0,0,0,-1,1042,841,0,0
-175,183,0,0,0,0,0,0,0,0,0,-1,1049,841,0,0
-168,183,0,0,0,0,0,0,0,0,0,-1,1056,841,0,0
-161,183,0,0,0,0,0,0,0,0,0,-1,1063,841,0,0
-154,183,0,0,0,0,0,0,0,0,0,-1,1070,841,0,0
-147,183,0,0,0,0,0,0,0,0,0,-1,1077,841,0,0
-140,183,0,0,0,0,0,0,0,0,0,-1,1084,841,0,0
-133,183,0,0,0,0,0,0,0,0,0,-1,1091,841,0,0
-126,183,0,0,0,0,0,0,0,0,0,-1,1098,841,0,0
-119,183,0,0,0,0,0,0,0,0,0,-1,1105,841,0,0
-112,183,0,0,0,0,0,0,0,0,0,-1,1112,841,0,0
-105,183,0,0,0,0,0,0,0,0,0,-1,1119,841,0,0
-98,183,0,0,0,0,0,0,0,0,0,-1,1126,841,0,0
-91,183,0,0,0,0,0,0,0,0,0,-1,1133,841,0,0
-84,183,0,0,0,0,0,0,0,0,0,-1,1140,841,0,0
-77,183,0,0,0,0,0,0,0,0,0,-1,1147,841,0,0
-70,183,0,0,0,0,0,0,0,0,0,-1,1154,841,0,0
-63,183,0,0,0,0,0,0,0,0,0,-1,1161,841,0,0
-56,183,0,0,0,0,0,0,0,0,0,-1,1168,841,0,0
-49,183,0,0,0,0,0,0,0,0,0,-1,1175,841,0,0
-42,183,0,0,0,0,0,0,0,0,0,-1,1182,841,0,0
-35,183,0,0,0,0,0,0,0,0,0,-1,1189,841,0,0
-28,183,0,0,0,0,0,0,0,0,0,-1,1196,841,0,0
-21,183,0,0,0,0,0,0,0,0,0,-1,1203,841,0,0
-14,183,0,0,0,0,0,0,0,0,0,-1,1210,841,0,0
-7,183,0,0,0,0,0,0,0,0,0,-1,1217,841,0,0
0,183,0,0,0,0,0,0,0,0,0,-1,1224,841,0,0
7,183,0,0,0,0,0,0,0,0,0,-1,1231,841,0,0
14,183,0,0,0,0,0,0,0,0,0,-1,1238,841,0,0
21,183,0,0,0,0,0,0,0,0,0,-1,1245,841,0,0
28,183,0,0,0,0,0,0,0,0,0,-1,1252,841,0,0
35,183,0,0,0,0,0,0,0,0,0,-1,1259,841,0,0
42,183,0,0,0,0,0,0,0,0,0,-1,1266,841,0,0
49,183,0,0,0,0,0,0,0,0,0,-1,1273,841,0,0
56,183,0,0,0,0,0,0,0,0,0,-1,1280,841,0,0
63,183,0,0,0,0,0,0,0,0,0,-1,1287,841,0,0
70,183,0,0,0,0,0,0,0,0,0,-1,1294,841,0,0
77,183,0,0,0,0,0,0,0,0,0,-1,1301,841,0,0
84,183,0,0,0,0,0,0,0,0,0,-1,1308,841,0,0
91,183,0,0,0,0,0,0,0,0,0,-1,1315,841,0,0
98,183,0,0,0,0,0,0,0,0,0,-1,1322,841,0,0
105,183,0,0,0,0,0,0,0,0,0,-1,1329,841,0,0
112,183,0,0,0,0,0,0,0,0,0,-1,1336,841,0,0
119,183,0,0,0,0,0,0,0,0,0,-1,1343,841,0,0
126,183,0,0,0,0,0,0,0,0,0,-1,1350,841,0,0
133,183,0,0,0,0,0,0,0,0,0,-1,1357,841,0,0
140,183,0,0,0,0,0,0,0,0,0,-1,1364,841,0,0
147,183,0,0,0,0,0,0,0,0,0,-1,1371,841,0,0
154,183,0,0,0,0,0,0,0,0,0,-1,1378,841,0,0
161,183,0,0,0,0,0,0,0,0,0,-1,1385,841,0,0
168,183,0,0,0,0,0,0,0,0,0,-1,1392,841,0,0
175,183,0,0,0,0,0,0,0,0,0,-1,1399,841,0,0
182,183,0,0,0,0,0,0,0,0,0,-1,1406,841,0,0
189,183,0,0,0,0,0,0,0,0,0,-1,1413,841,0,0
196,183,0,0,0,0,0,0,0,0,0,-1,1420,841,0,0
203,183,0,0,0,0,0,0,0,0,0,-1,1427,841,0,0
210,183,0,0,0,0,0,0,0,0,0,-1,1434,841,0,0
217,183,0,0,0,0,0,0,0,0,0,-1,1441,841,0,0
224,183,0,0,0,0,0,0,0,0,0,-1,1448,841,0,0
231,183,0,0,0,0,0,0,0,0,0,-1,1455,841,0,0
238,183,0,0,0,0,0,0,0,0,0,-1,1462,841,0,0
245,183,0,0,0,0,0,0,0,0,0,-1,1469,841,0,0
252,183,0,0,0,0,0,0,0,0,0,-1,1476,841,0,0
259,183,0,0,0,0,0,0,0,0,0,-1,1483,841,0,0
266,183,0,0,0,0,0,0,0,0,0,-1,1490,841,0,0
273,183,0,0,0,0,0,0,0,0,0,-1,1497,841,0,0
280,183,0,0,0,0,0,0,0,0,0,-1,1504,841,0,0
287,183,0,0,0,0,0,0,0,0,0,-1,1511,841,0,0
294,183,0,0,0,0,0,0,0,0,0,-1,1518,841,0,0
301,183,0,0,0,0,0,0,0,0,0,-1,1525,841,0,0
308,183,0,0,0,0,0,0,0,0,0,-1,1532,841,0,0
315,183,0,0,0,0,0,0,0,0,0,-1,1539,841,0,0
322,183,0,0,0,0,0,0,0,0,0,-1,1546,841,0,0
329,183,0,0,0,0,0,0,0,0,0,-1,1553,841,0,0
336,183,0,0,0,0,0,0,0,0,0,-1,1560,841,0,0
343,183,0,0,0,0,0,0,0,0,0,-1,1567,841,0,0
350,183,0,0,0,0,0,0,0,0,0,-1,1574,841,0,0
357,183,0,0,0,0,0,0,0,0,0,-1,1581,841,0,0
364,183,0,0,0,0,0,0,0,0,0,-1,1588,841,0,0
371,183,0,0,0,0,0,0,0,0,0,-1,1595,841,0,0
378,183,0,0,0,0,0,0,0,0,0,-1,1602,841,0,0
385,183,0,0,0,0,0,0,0,0,0,-1,1609,841,0,0
392,183,0,0,0,0,0,0,0,0,0,-1,1616,841,0,0
399,183,0,0,0,0,0,0,0,0,0,-1,1623,841,0,0
406,183,0,0,0,0,0,0,0,0,0,-1,1630,841,0,0
413,183,0,0,0,0,0,0,0,0,0,-1,1637,841,0,0
420,183,0,0,0,0,0,0,0,0,0,-1,1644,841,0,0
427,183,0,0,0,0,0,0,0,0,0,-1,1651,841,0,0
434,183,0,0,0,0,0,0,0,0,0,-1,1658,841,0,0
441,183,0,0,0,0,0,0,0,0,0,-1,1665,841,0,0
448,183,0,0,0,0,0,0,0,0,0,-1,1672,841,0,0
455,183,0,0,0,0,0,0,0,0,0,-1,1679,841,0,0
462,183,0,0,0,0,0,0,0,0,0,-1,1686,841,0,0
469,183,0,0,0,0,0,0,0,0,0,-1,1693,841,0,0
476,183,0,0,0,0,0,0,0,0,0,-1,1700,841,0,0
483,183,0,0,0,0,0,0,0,0,0,-1,1707,841,0,0
490,183,0,0,0,0,0,0,0,0,0,-1,1714,841,0,0
497,183,0,0,0,0,0,0,0,0,0,-1,1721,841,0,0
504,183,0,0,0,0,0,0,0,0,0,-1,1728,841,0,0
511,183,0,0,0,0,0,0,0,0,0,-1,1735,841,0,0
518,183,0,0,0,0,0,0,0,0,0,-1,1742,841,0,0
525,183,0,0,0,0,0,0,0,0,0,-1,1749,841,0,0
532,183,0,0,0,0,0,0,0,0,0,-1,1756,841,0,0
539,183,0,0,0,0,0,0,0,0,0,-1,1763,841,0,0
546,183,0,0,0,0,0,0,0,0,0,-1,1770,841,0,0
553,183,0,0,0,0,0,0,0,0,0,-1,1777,841,0,0
560,183,0,0,0,0,0,0,0,0,0,-1,1784,841,0,0
567,183,0,0,0,0,0,0,0,0,0,-1,1791,841,0,0
574,183,0,0,0,0,0,0,0,0,0,-1,1798,841,0,0
581,183,0,0,0,0,0,0,0,0,0,-1,1805,841,0,0
588,183,0,0,0,0,0,0,0,0,0,-1,1812,841,0,0
595,183,0,0,0,0,0,0,0,0,0,-1,1819,841,0,0
602,183,0,0,0,0,0,0,0,0,0,-1,1826,841,0,0
609,183,0.024292,-0.152344,-0.000816333,-0.000910846,0.000505189,-0.000356195,-0.00137098,0.738762,0.000821417,0.0338825,1833,841,0.0243344,0.152373
616,183,-0.0455322,-0.120972,-0.00087595,-0.00113007,6.33342e-05,-0.000861039,-0.00114498,0.231209,0.000688474,0.0336883,1840,841,-0.0455568,0.120955
623,183,-0.132324,-0.189575,-0.000854119,-0.000874462,-0.000367889,-0.000496262,-0.00123232,-0.771578,0.000715957,0.0387032,1847,841,-0.132302,0.189557
630,183,-0.102051,-0.0418091,-0.000888233,-0.0006225,-0.000525663,-0.000213172,-0.00129756,-0.909186,0.000803466,0.0381336,1854,841,-0.102094,0.0417999
637,183,-0.067749,-0.00427246,-0.000826965,-0.000412728,-0.000581102,-2.9371e-06,-0.00123676,-0.956591,0.000823527,0.0310087,1861,841,-0.0677713,0.00428948
644,183,-0.0704346,-0.0615845,-0.000765535,-0.000267736,-0.000530808,6.96307e-05,-0.0011029,-1.00463,0.000759543,0.0228212,1868,841,-0.0704817,0.0616072
651,183,-0.0804443,-0.0210571,-0.000687915,-0.000158586,-0.000457378,0.000105183,-0.000951684,-1.04769,0.000672265,0.0204962,1875,841,-0.0804322,0.0210517
658,183,-0.0429688,0.00909424,-0.000631954,-8.03113e-05,-0.000348564,8.83604e-05,-0.000800626,-1.12011,0.00056551,0.0395856,1882,841,-0.043023,-0.00912397
665,183,0.189453,-0.377014,-0.000527909,4.01656e-05,-0.000244293,0.00013077,-0.000618513,-1.21564,0.000462141,0.0417715,1889,841,0.189464,0.377032
672,183,-0.17395,0.0112915,-0.000401288,6.7639e-05,-0.000122264,9.76026e-05,-0.000431251,-1.33046,0.000324958,0.0390784,1896,841,-0.173981,-0.0113203
679,183,-0.102051,-0.0482178,-0.000292344,0.000113107,-1.87889e-05,0.000113976,-0.000293213,-1.52459,0.000242564,0.0238868,1903,841,-0.101991,0.0482431
686,183,-0.0623779,-0.0574341,-0.00020633,0.00014422,3.52585e-05,0.000147731,-0.000209841,1.47154,0.00020748,0.0104886,1910,841,-0.0624339,0.0574481
693,183,-0.0775146,-0.0387573,-8.85032e-05,1.81822e-05,0.000142159,0.000116677,-0.000186998,0.964885,0.000176887,0.00994805,1917,841,-0.0774592,0.0387867
700,183,-0.0811768,-0.0415649,-5.87484e-06,-3.34088e-06,0.000189899,0.000185296,-0.000194511,0.788734,0.000219303,0.0144491,1924,841,-0.0811932,0.041594
707,183,-0.0794678,-0.045166,-0.00014018,0.000463699,-3.38463e-05,0.00046559,-0.000142071,-1.51498,0.000367033,0.0122092,1931,841,-0.0794926,0.0451456
714,183,-0.081665,-0.0692139,0.000248127,0.000253129,-0.000196204,0.000446848,5.44081e-05,-0.791771,0.000281521,0.0154218,1938,841,-0.0816519,0.0691922
721,183,-0.0936279,-0.0646973,0.00138476,-0.000780831,-8.17619e-05,0.00138784,-0.000783914,-0.0376836,0.00126992,0.013998,1945,841,-0.0936446,0.0646948
728,183,-0.0766602,-0.0463257,0.00366436,-0.00153769,-0.000265267,0.00367785,-0.00155118,-0.0508171,0.00310109,0.0114238,1952,841,-0.0766545,0.0463362
735,183,-0.0827637,-0.0549316,0.00652779,-0.0025408,-0.000849403,0.00660666,-0.00261967,-0.0925913,0.00549011,0.0101995,1959,841,-0.0827314,0.0549079
742,183,-0.0869141,-0.0513916,0.0100228,-0.00366804,-0.00123808,0.0101339,-0.0037791,-0.0894639,0.00830727,0.0101911,1966,841,-0.086972,0.0513803
749,183,-0.142334,0.0275269,0.0146535,-0.00549592,-0.00167044,0.0147911,-0.00563347,-0.0821553,0.0121808,0.0297633,1973,841,-0.142361,-0.027539
756,183,-0.748779,-1.19708,0,0,0,0,0,0,0,-1,1980,841,-0.748811,1.19708
763,183,-0.490234,-1.00317,0.0281729,-0.0108748,-0.00283963,0.0283783,-0.0110803,-0.0722157,0.0234998,0.0496655,1987,841,-0.490278,1.00316
770,183,-0.237305,-0.814819,0.0373703,-0.0144285,-0.00362568,0.0376228,-0.014681,-0.0695436,0.0311509,0.0472973,1994,841,-0.237312,0.814794
777,183,0.0408936,-0.488464,0.0485929,-0.0184066,-0.00468989,0.0489196,-0.0187333,-0.0695469,0.0403346,0.0430731,2001,841,0.0409281,0.488462
784,183,0,0,0,0,0,0,0,0,0,-1,2008,841,0,0
791,183,0,0,0,0,0,0,0,0,0,-1,2015,841,0,0
798,183,0,0,0,0,0,0,0,0,0,-1,2022,841,0,0
805,183,0,0,0,0,0,0,0,0,0,-1,2029,841,0,0
812,183,0,0,0,0,0,0,0,0,0,-1,2036,841,0,0
-700,176,0,0,0,0,0,0,0,0,0,-1,524,848,0,0
-693,176,0,0,0,0,0,0,0,0,0,-1,531,848,0,0
-686,176,0,0,0,0,0,0,0,0,0,-1,538,848,0,0
-679,176,0,0,0,0,0,0,0,0,0,-1,545,848,0,0
-672,176,0,0,0,0,0,0,0,0,0,-1,552,848,0,0
-665,176,0.748779,-1.39636,0,0,0,0,0,0,0,-1,559,848,0.748794,1.39635
-658,176,0.636902,-1.90936,-0.0128586,-0.0246959,0.000594428,-0.0128288,-0.0247257,0.0500486,0.0142788,0.0493811,566,848,0.636911,1.90936
-651,176,0.696899,-2.81342,0,0,0,0,0,0,0,-1,573,848,0.696903,2.81345
-644,176,-0.726257,-0.837036,0,0,0,0,0,0,0,-1,580,848,-0.726233,0.837023
-637,176,-0.594727,-0.901306,-0.00628819,-0.0063911,0.00616903,-0.000170399,-0.0125089,0.781228,0.00828304,0.0429033,587,848,-0.594709,0.901331
-630,176,-0.509033,-1.01697,-0.00407967,-0.00359303,0.0059086,0.00207726,-0.00974996,0.805977,0.0072917,0.0425899,594,848,-0.509035,1.01695
-623,176,-0.167419,-0.256958,-0.0024052,-0.00186971,0.00534452,0.00321377,-0.00748867,0.810426,0.00634124,0.0380343,601,848,-0.167418,0.256939
-616,176,-0.14917,-0.0619507,-0.00116072,-0.000618208,0.00438787,0.00350678,-0.00528571,0.816269,0.00511087,0.0252799,608,848,-0.149163,0.0619295
-609,176,-0.0918579,-0.0412598,-0.000258595,0.000249994,0.0033783,0.00338355,-0.00339216,0.822964,0.00391196,0.0105423,615,848,-0.0918402,0.0412478
-602,176,-0.097168,-0.0440063,0.000238971,0.000744782,0.00279915,0.00330243,-0.00231868,0.830451,0.00326187,0.0111665,622,848,-0.0971946,0.0440342
-595,176,-0.0958862,-0.0581055,0.000958325,0.000346662,0.00198621,0.00266211,-0.00135712,0.709009,0.00236093,0.010281,629,848,-0.0958725,0.05811
-588,176,-0.069458,-0.0455933,0.00157436,0.000671067,0.00107372,0.00228756,-4.21308e-05,0.586313,0.00153928,0.00983088,636,848,-0.0694465,0.0456194
-581,176,-0.0662842,-0.0375977,0.00148679,0.000258032,0.00069234,0.00179804,-5.3222e-05,0.422495,0.00121682,0.00996719,643,848,-0.06631,0.037602
-574,176,-0.0644531,-0.0454712,0.00101296,-8.20769e-05,0.000508342,0.00121256,-0.000281678,0.374155,0.000916807,0.0126035,650,848,-0.0644742,0.0454737
-567,176,-0.0634155,-0.055603,0.000970807,-0.000101421,0.000560028,0.00120997,-0.000340581,0.403606,0.000940947,0.0125456,657,848,-0.0634004,0.0555901
-560,176,-0.0825195,-0.0448608,0.00117938,8.46682e-05,0.000945373,0.00172442,-0.000460371,0.522986,0.0013299,0.00999797,664,848,-0.0825452,0.0448869
-553,176,-0.0808105,-0.050354,0.0013182,0.000329489,0.00136256,0.00227331,-0.000625623,0.611376,0.00176151,0.0168491,671,848,-0.080828,0.0503445
-546,176,-0.0358887,-0.00177002,0.00143815,0.000428536,0.00173576,0.00274102,-0.000874337,0.643888,0.0021781,0.0298397,678,848,-0.0358917,0.00177495
-539,176,-0.0911865,-0.213196,0.00160476,0.000495189,0.00202468,0.00314929,-0.00104934,0.651675,0.00252312,0.0355807,685,848,-0.0911986,0.213182
-532,176,-0.0284424,-0.117188,0.00175502,0.0005362,0.00230014,0.00352511,-0.00123389,0.655901,0.00285178,0.0394082,692,848,-0.0284317,0.11716
-525,176,-0.038208,0.000793457,0.00180939,0.000593484,0.00253422,0.00380755,-0.00140468,0.667674,0.00311405,0.0467396,699,848,-0.0382156,-0.000769891
-518,176,-0.0593872,0.0808105,0.00169742,0.000573028,0.00260753,0.00380268,-0.00153222,0.679221,0.00317172,0.0393277,706,848,-0.0594052,-0.0807866
-511,176,-0.0861206,0.0992432,0.00139121,0.000422908,0.00246728,0.0034214,-0.00160728,0.688515,0.00296561,0.0368447,713,848,-0.0861139,-0.0992303
-504,176,-0.111389,0.106567,0.000811813,3.48154e-05,0.00200777,0.00246832,-0.00162169,0.68983,0.00237818,0.0386519,720,848,-0.111404,-0.10655
-497,176,-0.143738,0.169617,9.49427e-06,-0.000720536,0.00112823,0.00083029,-0.00154133,0.628948,0.00138962,0.0384449,727,848,-0.143766,-0.16959
-490,176,-0.0852661,0.0800781,-0.000894978,-0.00212717,-0.000429698,-0.000759932,-0.00226222,-0.304507,0.00132932,0.0354062,734,848,-0.0852776,-0.0800579
-483,176,0,0,0,0,0,0,0,0,0,-1,741,848,0,0
-476,176,0,0,0,0,0,0,0,0,0,-1,748,848,0,0
-469,176,0,0,0,0,0,0,0,0,0,-1,755,848,0,0
-462,176,0,0,0,0,0,0,0,0,0,-1,762,848,0,0
-455,176,0,0,0,0,0,0,0,0,0,-1,769,848,0,0
-448,176,0,0,0,0,0,0,0,0,0,-1,776,848,0,0
-441,176,0,0,0,0,0,0,0,0,0,-1,783,848,0,0
-434,176,0,0,0,0,0,0,0,0,0,-1,790,848,0,0
-427,176,0,0,0,0,0,0,0,0,0,-1,797,848,0,0
-420,176,0,0,0,0,0,0,0,0,0,-1,804,848,0,0
-413,176,0,0,0,0,0,0,0,0,0,-1,811,848,0,0
-406,176,0,0,0,0,0,0,0,0,0,-1,818,848,0,0
-399,176,0,0,0,0,0,0,0,0,0,-1,825,848,0,0
-392,176,0,0,0,0,0,0,0,0,0,-1,832,848,0,0
-385,176,0,0,0,0,0,0,0,0,0,-1,839,848,0,0
-378,176,0,0,0,0,0,0,0,0,0,-1,846,848,0,0
-371,176,0,0,0,0,0,0,0,0,0,-1,853,848,0,0
-364,176,0,0,0,0,0,0,0,0,0,-1,860,848,0,0
-357,176,0,0,0,0,0,0,0,0,0,-1,867,848,0,0
-350,176,0,0,0,0,0,0,0,0,0,-1,874,848,0,0
-343,176,0,0,0,0,0,0,0,0,0,-1,881,848,0,0
-336,176,0,0,0,0,0,0,0,0,0,-1,888,848,0,0
-329,176,0,0,0,0,0,0,0,0,0,-1,895,848,0,0
-322,176,0,0,0,0,0,0,0,0,0,-1,902,848,0,0
-315,176,0,0,0,0,0,0,0,0,0,-1,909,848,0,0
-308,176,0,0,0,0,0,0,0,0,0,-1,916,848,0,0
-301,176,0,0,0,0,0,0,0,0,0,-1,923,848,0,0
-294,176,0,0,0,0,0,0,0,0,0,-1,930,848,0,0
-287,176,0,0,0,0,0,0,0,0,0,-1,937,848,0,0
-280,176,0,0,0,0,0,0,0,0,0,-1,944,848,0,0
-273,176,0,0,0,0,0,0,0,0,0,-1,951,848,0,0
-266,176,0,0,0,0,0,0,0,0,0,-1,958,848,0,0
-259,176,0,0,0,0,0,0,0,0,0,-1,965,848,0,0
-252,176,0,0,0,0,0,0,0,0,0,-1,972,848,0,0
-245,176,0,0,0,0,0,0,0,0,0,-1,979,848,0,0
-238,176,0,0,0,0,0,0,0,0,0,-1,986,848,0,0
-231,176,0,0,0,0,0,0,0,0,0,-1,993,848,0,0
-224,176,0,0,0,0,0,0,0,0,0,-1,1000,848,0,0
-217,176,0,0,0,0,0,0,0,0,0,-1,1007,848,0,0
-210,176,0,0,0,0,0,0,0,0,0,-1,1014,848,0,0
-203,176,0,0,0,0,0,0,0,0,0,-1,1021,848,0,0
-196,176,0,0,0,0,0,0,0,0,0,-1,1028,848,0,0
-189,176,0,0,0,0,0,0,0,0,0,-1,1035,848,0,0
-182,176,0,0,0,0,0,0,0,0,0,-1,1042,848,0,0
-175,176,0,0,0,0,0,0,0,0,0,-1,1049,848,0,0
-168,176,0,0,0,0,0,0,0,0,0,-1,1056,848,0,0
-161,176,0,0,0,0,0,0,0,0,0,-1,1063,848,0,0
-154,176,0,0,0,0,0,0,0,0,0,-1,1070,848,0,0
-147,176,0,0,0,0,0,0,0,0,0,-1,1077,848,0,0
-140,176,0,0,0,0,0,0,0,0,0,-1,1084,848,0,0
-133,176,0,0,0,0,0,0,0,0,0,-1,1091,848,0,0
-126,176,0,0,0,0,0,0,0,0,0,-1,1098,848,0,0
-119,176,0,0,0,0,0,0,0,0,0,-1,1105,848,0,0
-112,176,0,0,0,0,0,0,0,0,0,-1,1112,848,0,0
-105,176,0,0,0,0,0,0,0,0,0,-1,1119,848,0,0
-98,176,0,0,0,0,0,0,0,0,0,-1,1126,848,0,0
-91,176,0,0,0,0,0,0,0,0,0,-1,1133,848,0,0
-84,176,0,0,0,0,0,0,0,0,0,-1,1140,848,0,0
-77,176,0,0,0,0,0,0,0,0,0,-1,1147,848,0,0
-70,176,0,0,0,0,0,0,0,0,0,-1,1154,848,0,0
-63,176,0,0,0,0,0,0,0,0,0,-1,1161,848,0,0
-56,176,0,0,0,0,0,0,0,0,0,-1,1168,848,0,0
-49,176,0,0,0,0,0,0,0,0,0,-1,1175,848,0,0
-42,176,0,0,0,0,0,0,0,0,0,-1,1182,848,0,0
-35,176,0,0,0,0,0,0,0,0,0,-1,1189,848,0,0
-28,176,0,0,0,0,0,0,0,0,0,-1,1196,848,0,0
-21,176,0,0,0,0,0,0,0,0,0,-1,1203,848,0,0
-14,176,0,0,0,0,0,0,0,0,0,-1,1210,848,0,0
-7,176,0,0,0,0,0,0,0,0,0,-1,1217,848,0,0
0,176,0,0,0,0,0,0,0,0,0,-1,1224,848,0,0
7,176,0,0,0,0,0,0,0,0,0,-1,1231,848,0,0
14,176,0,0,0,0,0,0,0,0,0,-1,1238,848,0,0
21,176,0,0,0,0,0,0,0,0,0,-1,1245,848,0,0
28,176,0,0,0,0,0,0,0,0,0,-1,1252,848,0,0
35,176,0,0,0,0,0,0,0,0,0,-1,1259,848,0,0
42,176,0,0,0,0,0,0,0,0,0,-1,1266,848,0,0
49,176,0,0,0,0,0,0,0,0,0,-1,1273,848,0,0
56,176,0,0,0,0,0,0,0,0,0,-1,1280,848,0,0
63,176,0,0,0,0,0,0,0,0,0,-1,1287,848,0,0
70,176,0,0,0,0,0,0,0,0,0,-1,1294,848,0,0
77,176,0,0,0,0,0,0,0,0,0,-1,1301,848,0,0
84,176,0,0,0,0,0,0,0,0,0,-1,1308,848,0,0
91,176,0,0,0,0,0,0,0,0,0,-1,1315,848,0,0
98,176,0,0,0,0,0,0,0,0,0,-1,1322,848,0,0
105,176,0,0,0,0,0,0,0,0,0,-1,1329,848,0,0
112,176,0,0,0,0,0,0,0,0,0,-1,1336,848,0,0
119,176,0,0,0,0,0,0,0,0,0,-1,1343,848,0,0
126,176,0,0,0,0,0,0,0,0,0,-1,1350,848,0,0
133,176,0,0,0,0,0,0,0,0,0,-1,1357,848,0,0
140,176,0,0,0,0,0,0,0,0,0,-1,1364,848,0,0
147,176,0,0,0,0,0,0,0,0,0,-1,1371,848,0,0
154,176,0,0,0,0,0,0,0,0,0,-1,1378,848,0,0
161,176,0,0,0,0,0,0,0,0,0,-1,1385,848,0,0
168,176,0,0,0,0,0,0,0,0,0,-1,1392,848,0,0
175,176,0,0,0,0,0,0,0,0,0,-1,1399,848,0,0
182,176,0,0,0,0,0,0,0,0,0,-1,1406,848,0,0
189,176,0,0,0,0,0,0,0,0,0,-1,1413,848,0,0
196,176,0,0,0,0,0,0,0,0,0,-1,1420,848,0,0
203,176,0,0,0,0,0,0,0,0,0,-1,1427,848,0,0
210,176,0,0,0,0,0,0,0,0,0,-1,1434,848,0,0
217,176,0,0,0,0,0,0,0,0,0,-1,1441,848,0,0
224,176,0,0,0,0,0,0,0,0,0,-1,1448,848,0,0
231,176,0,0,0,0,0,0,0,0,0,-1,1455,848,0,0
238,176,0,0,0,0,0,0,0,0,0,-1,1462,848,0,0
245,176,0,0,0,0,0,0,0,0,0,-1,1469,848,0,0
252,176,0,0,0,0,0,0,0,0,0,-1,1476,848,0,0
259,176,0,0,0,0,0,0,0,0,0,-1,1483,848,0,0
266,176,0,0,0,0,0,0,0,0,0,-1,1490,848,0,0
273,176,0,0,0,0,0,0,0,0,0,-1,1497,848,0,0
280,176,0,0,0,0,0,0,0,0,0,-1,1504,848,0,0
287,176,0,0,0,0,0,0,0,0,0,-1,1511,848,0,0
294,176,0,0,0,0,0,0,0,0,0,-1,1518,848,0,0
301,176,0,0,0,0,0,0,0,0,0,-1,1525,848,0,0
308,176,0,0,0,0,0,0,0,0,0,-1,1532,848,0,0
315,176,0,0,0,0,0,0,0,0,0,-1,1539,848,0,0
322,176,0,0,0,0,0,0,0,0,0,-1,1546,848,0,0
329,176,0,0,0,0,0,0,0,0,0,-1,1553,848,0,0
336,176,0,0,0,0,0,0,0,0,0,-1,1560,848,0,0
343,176,0,0,0,0,0,0,0,0,0,-1,1567,848,0,0
350,176,0,0,0,0,0,0,0,0,0,-1,1574,848,0,0
357,176,0,0,0,0,0,0,0,0,0,-1,1581,848,0,0
364,176,0,0,0,0,0,0,0,0,0,-1,1588,848,0,0
371,176,0,0,0,0,0,0,0,0,0,-1,1595,848,0,0
378,176,0,0,0,0,0,0,0,0,0,-1,1602,848,0,0
385,176,0,0,0,0,0,0,0,0,0,-1,1609,848,0,0
392,176,0,0,0,0,0,0,0,0,0,-1,1616,848,0,0
399,176,0,0,0,0,0,0,0,0,0,-1,1623,848,0,0
406,176,0,0,0,0,0,0,0,0,0,-1,1630,848,0,0
413,176,0,0,0,0,0,0,0,0,0,-1,1637,848,0,0
420,176,0,0,0,0,0,0,0,0,0,-1,1644,848,0,0
427,176,0,0,0,0,0,0,0,0,0,-1,1651,848,0,0
434,176,0,0,0,0,0,0,0,0,0,-1,1658,848,0,0
441,176,0,0,0,0,0,0,0,0,0,-1,1665,848,0,0
448,176,0,0,0,0,0,0,0,0,0,-1,1672,848,0,0
455,176,0,0,0,0,0,0,0,0,0,-1,1679,848,0,0
462,176,0,0,0,0,0,0,0,0,0,-1,1686,848,0,0
469,176,0,0,0,0,0,0,0,0,0,-1,1693,848,0,0
476,176,0,0,0,0,0,0,0,0,0,-1,1700,848,0,0
483,176,0,0,0,0,0,0,0,0,0,-1,1707,848,0,0
490,176,0,0,0,0,0,0,0,0,0,-1,1714,848,0,0
497,176,0,0,0,0,0,0,0,0,0,-1,1721,848,0,0
504,176,0,0,0,0,0,0,0,0,0,-1,1728,848,0,0
511,176,0,0,0,0,0,0,0,0,0,-1,1735,848,0,0
518,176,0,0,0,0,0,0,0,0,0,-1,1742,848,0,0
525,176,0,0,0,0,0,0,0,0,0,-1,1749,848,0,0
532,176,0,0,0,0,0,0,0,0,0,-1,1756,848,0,0
539,176,0,0,0,0,0,0,0,0,0,-1,1763,848,0,0
546,176,0,0,0,0,0,0,0,0,0,-1,1770,848,0,0
553,176,0,0,0,0,0,0,0,0,0,-1,1777,848,0,0
560,176,0,0,0,0,0,0,0,0,0,-1,1784,848,0,0
567,176,0,0,0,0,0,0,0,0,0,-1,1791,848,0,0
574,176,0,0,0,0,0,0,0,0,0,-1,1798,848,0,0
581,176,0,0,0,0,0,0,0,0,0,-1,1805,848,0,0
588,176,0,0,0,0,0,0,0,0,0,-1,1812,848,0,0
595,176,0,0,0,0,0,0,0,0,0,-1,1819,848,0,0
602,176,0,0,0,0,0,0,0,0,0,-1,1826,848,0,0
609,176,-0.0202637,0.0215454,-0.00208744,0.00014105,0.00110414,0.000595456,-0.00254185,1.18038,0.00192401,0.0316295,1833,848,-0.0202261,-0.0215248
616,176,-0.128052,0.0703735,-0.00178087,-0.000811683,0.000439472,-0.000642085,-0.00195046,1.20249,0.00114779,0.0327659,1840,848,-0.128108,-0.0703912
623,176,-0.142456,-0.0664673,-0.0013676,-0.00110421,-0.000224752,-0.000975414,-0.0014964,-1.05041,0.000877125,0.0395992,1847,848,-0.142439,0.0664947
630,176,-0.127808,-0.0644531,-0.00116057,-0.00120061,-0.000495202,-0.000684981,-0.00167619,-0.765196,0.000973119,0.0356802,1854,848,-0.127845,0.0644726
637,176,-0.0784912,-0.05896,-0.000920123,-0.00118901,-0.000608835,-0.000431066,-0.00167807,-0.67673,0.00100629,0.0269422,1861,848,-0.078531,0.0589584
644,176,-0.09021,-0.0670166,-0.000737984,-0.00110869,-0.000597605,-0.000297648,-0.00154903,-0.635022,0.000949155,0.0246691,1868,848,-0.09025,0.0670015
651,176,-0.107178,-0.0270996,-0.000584082,-0.000987082,-0.000534948,-0.000213943,-0.00135722,-0.60528,0.000842603,0.0255063,1875,848,-0.107188,0.0270916
658,176,-0.0662842,-0.0525513,-0.000484105,-0.000843066,-0.000426804,-0.000200579,-0.00112659,-0.586362,0.000693933,0.0331195,1882,848,-0.066316,0.0525518
665,176,0.171875,-0.437134,-0.000363087,-0.000617316,-0.000319392,-0.000146443,-0.00083396,-0.596012,0.000514158,0.0430554,1889,848,0.171913,0.437127
672,176,-0.181763,0.015625,-0.000248336,-0.000476718,-0.000191937,-0.00013919,-0.000585864,-0.517053,0.000353437,0.0468749,1896,848,-0.181746,-0.0156384
679,176,-0.118286,-0.0760498,-0.0001707,-0.000311812,-8.27736e-05,-0.000132492,-0.00035002,-0.432457,0.000204062,0.0322408,1903,848,-0.11831,0.0760697
686,176,-0.0513916,-0.0883789,-0.000123552,-0.000160851,-1.80809e-05,-0.000116226,-0.000168177,-0.38496,9.94326e-05,0.0134073,1910,848,-0.0514468,0.0883484
693,176,-0.0668945,-0.0291138,-4.80294e-05,-0.000140177,9.18204e-05,8.62821e-06,-0.000196835,0.552861,0.000134192,0.00948414,1917,848,-0.0669077,0.0290971
700,176,-0.0751953,-0.0368042,3.41065e-06,-3.10587e-05,0.000129368,0.000116687,-0.000144335,0.719177,0.000150983,0.0147012,1924,848,-0.0751633,0.0367855
707,176,-0.0759277,-0.038147,-4.36946e-05,0.000328147,-6.89959e-05,0.000340536,-5.60841e-05,-1.39312,0.000247843,0.0131584,1931,848,-0.0759544,0.0381692
714,176,-0.0769043,-0.0496216,0.000445917,7.61867e-05,-0.000217756,0.000546697,-2.45929e-05,-0.433455,0.000372932,0.0114144,1938,848,-0.076951,0.0495966
721,176,-0.0788574,-0.0462646,0.00170234,-0.000877566,-0.000138267,0.00170973,-0.000884956,-0.0533898,0.00152306,0.0100528,1945,848,-0.0789084,0.0462832
728,176,-0.0870361,-0.0418091,0.00414055,-0.00155261,-0.000425564,0.00417219,-0.00158424,-0.0742005,0.00343361,0.0113294,1952,848,-0.0870251,0.0417913
735,176,-0.0831299,-0.0546265,0.00721993,-0.00250624,-0.00110861,0.0073447,-0.002631,-0.112067,0.00596995,0.0117951,1959,848,-0.0831752,0.0546339
742,176,-0.0708008,-0.0574341,0.010955,-0.00348107,-0.00162797,0.0111364,-0.00366238,-0.110915,0.00889986,0.015561,1966,848,-0.0708307,0.0574344
749,176,-0.0161133,-0.0855103,0.0159067,-0.0050858,-0.002269,0.0161491,-0.00532825,-0.106449,0.0129139,0.0261165,1973,848,-0.0161598,0.0854911
756,176,-0.373535,-0.991394,0,0,0,0,0,0,0,-1,1980,848,-0.373485,0.991393
763,176,-0.11084,-0.559265,0.0303398,-0.00952646,-0.0041986,0.0307772,-0.00996385,-0.1038,0.0245237,0.0444666,1987,848,-0.11085,0.559251
770,176,0.177856,-0.1875,0.0402125,-0.0122016,-0.0056567,0.0408161,-0.0128052,-0.106292,0.0323356,0.0444002,1994,848,0.177855,0.18749
777,176,0.477783,0.405151,0.0522576,-0.0148375,-0.00768738,0.0531271,-0.015707,-0.11263,0.0416529,0.044951,2001,848,0.477794,-0.405166
784,176,0,0,0,0,0,0,0,0,0,-1,2008,848,0,0
791,176,0,0,0,0,0,0,0,0,0,-1,2015,848,0,0
798,176,0,0,0,0,0,0,0,0,0,-1,2022,848,0,0
805,176,0,0,0,0,0,0,0,0,0,-1,2029,848,0,0
812,176,0,0,0,0,0,0,0,0,0,-1,2036,848,0,0
-700,169,0,0,0,0,0,0,0,0,0,-1,524,855,0,0
-693,169,0,0,0,0,0,0,0,0,0,-1,531,855,0,0
-686,169,0,0,0,0,0,0,0,0,0,-1,538,855,0,0
-679,169,0,0,0,0,0,0,0,0,0,-1,545,855,0,0
-672,169,0,0,0,0,0,0,0,0,0,-1,552,855,0,0
-665,169,1.117,-0.895874,0,0,0,0,0,0,0,-1,559,855,1.117,0.895857
-658,169,0.858765,-1.36005,0,0,0,0,0,0,0,-1,566,855,0.858772,1.36007
-651,169,0.699585,-1.91205,0,0,0,0,0,0,0,-1,573,855,0.69958,1.91202
-644,169,0.712891,-2.85138,-0.00401392,-0.0147197,0.00574286,-0.00151608,-0.0172175,0.410265,0.0110079,0.0449143,580,855,0.712897,2.85138
-637,169,-0.65033,-0.994507,-0.00298873,-0.00964348,0.0060237,0.000565487,-0.0131977,0.533064,0.00899289,0.0410334,587,855,-0.650339,0.994523
-630,169,-0.571472,-1.28955,-0.00186884,-0.00598281,0.0057243,0.00215684,-0.0100085,0.612911,0.00749544,0.0473169,594,855,-0.571477,1.28954
-623,169,-0.0670166,-0.00561523,-0.0010635,-0.00360472,0.00518831,0.00300752,-0.00767574,0.665312,0.00636124,0.0353523,601,855,-0.067026,0.00561198
-616,169,-0.103088,-0.0286865,-0.00042967,-0.00158982,0.00424928,0.00327895,-0.00529843,0.717562,0.00499769,0.0194052,608,855,-0.103113,0.0287051
-609,169,-0.0714722,-0.013855,0.000119364,-0.000302969,0.00330067,0.00321561,-0.00339922,0.753453,0.00381956,0.0119154,615,855,-0.0714722,0.0138762
-602,169,-0.0726929,-0.0182495,0.00035665,0.00042026,0.00278004,0.00316868,-0.00239177,0.791118,0.00322075,0.0119648,622,855,-0.0727092,0.0182202
-595,169,-0.0913086,-0.0640869,0.000880209,0.000321638,0.00204565,0.00266555,-0.00146371,0.717554,0.00241745,0.0108501,629,855,-0.0913103,0.0640603
-588,169,-0.0755005,-0.0482178,0.00137923,0.000751046,0.00112851,0.00223654,-0.000106267,0.649672,0.00152768,0.00867719,636,855,-0.0755296,0.0482244
-581,169,-0.0802002,-0.0314941,0.00127586,0.000295954,0.000701567,0.00164162,-6.98086e-05,0.480582,0.00111841,0.00918589,643,855,-0.0802258,0.0314802
-574,169,-0.0773315,-0.0352173,0.000850449,-0.000108532,0.000520883,0.00107893,-0.000337018,0.413376,0.000854088,0.0114213,650,855,-0.0773584,0.0352076
-567,169,-0.0706787,-0.0576782,0.000768985,-0.00018894,0.000583486,0.00104491,-0.000464869,0.441731,0.00089286,0.0106505,657,855,-0.07068,0.0576816
-560,169,-0.0827026,-0.0700073,0.000952459,-0.000175956,0.000997289,0.00153408,-0.000757574,0.527974,0.00134816,0.00907434,664,855,-0.0826984,0.0700375
-553,169,-0.0808716,-0.0756836,0.00108608,-5.92645e-05,0.00142038,0.00204489,-0.00101808,0.593775,0.00180122,0.0166823,671,855,-0.0808693,0.0757096
-546,169,-0.0338745,-0.0455933,0.00119169,-6.73582e-05,0.00182853,0.00249603,-0.00137169,0.619613,0.00226426,0.0293983,678,855,-0.0338857,0.0456186
-539,169,-0.0233765,-0.0484009,0.00134717,-8.697e-05,0.00217391,0.00291922,-0.00165902,0.626091,0.00267642,0.0336282,685,855,-0.0233638,0.0484151
-532,169,-0.0227661,0.0424805,0.00149682,-0.0001303,0.00249919,0.00331153,-0.00194501,0.628043,0.00306886,0.0345087,692,855,-0.0227409,-0.042508
-525,169,-0.0249023,0.0532227,0.00158039,-0.000137617,0.00275911,0.00361112,-0.00216835,0.634487,0.00337126,0.0426434,699,855,-0.0249062,-0.0532148
-518,169,-0.0414429,0.0778198,0.00154366,-0.000153072,0.00283177,0.00365141,-0.00226082,0.639859,0.00344476,0.0387202,706,855,-0.0414536,-0.0778315
-511,169,-0.048645,0.0944824,0.00136513,-0.000192135,0.00260722,0.0033075,-0.0021345,0.640291,0.00316618,0.0387393,713,855,-0.048629,-0.0945037
-504,169,-0.0678711,0.139526,0.000973175,-0.000277031,0.00193278,0.00237942,-0.00168328,0.628996,0.00235705,0.0403268,720,855,-0.0678531,-0.139556
-497,169,-0.0835571,0.226563,0.000496212,-0.00043504,0.000659089,0.000837559,-0.000776387,0.477871,0.000932035,0.0388238,727,855,-0.0835688,-0.22655
-490,169,0,0,0,0,0,0,0,0,0,-1,734,855,0,0
-483,169,0,0,0,0,0,0,0,0,0,-1,741,855,0,0
-476,169,0,0,0,0,0,0,0,0,0,-1,748,855,0,0
-469,169,0,0,0,0,0,0,0,0,0,-1,755,855,0,0
-462,169,0,0,0,0,0,0,0,0,0,-1,762,855,0,0
-455,169,0,0,0,0,0,0,0,0,0,-1,769,855,0,0
-448,169,0,0,0,0,0,0,0,0,0,-1,776,855,0,0
-441,169,0,0,0,0,0,0,0,0,0,-1,783,855,0,0
-434,169,0,0,0,0,0,0,0,0,0,-1,790,855,0,0
-427,169,0,0,0,0,0,0,0,0,0,-1,797,855,0,0
-420,169,0,0,0,0,0,0,0,0,0,-1,804,855,0,0
-413,169,0,0,0,0,0,0,0,0,0,-1,811,855,0,0
-406,169,0,0,0,0,0,0,0,0,0,-1,818,855,0,0
-399,169,0,0,0,0,0,0,0,0,0,-1,825,855,0,0
-392,169,0,0,0,0,0,0,0,0,0,-1,832,855,0,0
-385,169,0,0,0,0,0,0,0,0,0,-1,839,855,0,0
-378,169,0,0,0,0,0,0,0,0,0,-1,846,855,0,0
-371,169,0,0,0,0,0,0,0,0,0,-1,853,855,0,0
-364,169,0,0,0,0,0,0,0,0,0,-1,860,855,0,0
-357,169,0,0,0,0,0,0,0,0,0,-1,867,855,0,0
-350,169,0,0,0,0,0,0,0,0,0,-1,874,855,0,0
-343,169,0,0,0,0,0,0,0,0,0,-1,881,855,0,0
-336,169,0,0,0,0,0,0,0,0,0,-1,888,855,0,0
-329,169,0,0,0,0,0,0,0,0,0,-1,895,855,0,0
-322,169,0,0,0,0,0,0,0,0,0,-1,902,855,0,0
-315,169,0,0,0,0,0,0,0,0,0,-1,909,855,0,0
-308,169,0,0,0,0,0,0,0,0,0,-1,916,855,0,0
-301,169,0,0,0,0,0,0,0,0,0,-1,923,855,0,0
-294,169,0,0,0,0,0,0,0,0,0,-1,930,855,0,0
-287,169,0,0,0,0,0,0,0,0,0,-1,937,855,0,0
-280,169,0,0,0,0,0,0,0,0,0,-1,944,855,0,0
-273,169,0,0,0,0,0,0,0,0,0,-1,951,855,0,0
-266,169,0,0,0,0,0,0,0,0,0,-1,958,855,0,0
-259,169,0,0,0,0,0,0,0,0,0,-1,965,855,0,0
-252,169,0,0,0,0,0,0,0,0,0,-1,972,855,0,0
-245,169,0,0,0,0,0,0,0,0,0,-1,979,855,0,0
-238,169,0,0,0,0,0,0,0,0,0,-1,986,855,0,0
-231,169,0,0,0,0,0,0,0,0,0,-1,993,855,0,0
-224,169,0,0,0,0,0,0,0,0,0,-1,1000,855,0,0
-217,169,0,0,0,0,0,0,0,0,0,-1,1007,855,0,0
-210,169,0,0,0,0,0,0,0,0,0,-1,1014,855,0,0
-203,169,0,0,0,0,0,0,0,0,0,-1,1021,855,0,0
-196,169,0,0,0,0,0,0,0,0,0,-1,1028,855,0,0
-189,169,0,0,0,0,0,0,0,0,0,-1,1035,855,0,0
-182,169,0,0,0,0,0,0,0,0,0,-1,1042,855,0,0
-175,169,0,0,0,0,0,0,0,0,0,-1,1049,855,0,0
-168,169,0,0,0,0,0,0,0,0,0,-1,1056,855,0,0
-161,169,0,0,0,0,0,0,0,0,0,-1,1063,855,0,0
-154,169,0,0,0,0,0,0,0,0,0,-1,1070,855,0,0
-147,169,0,0,0,0,0,0,0,0,0,-1,1077,855,0,0
-140,169,0,0,0,0,0,0,0,0,0,-1,1084,855,0,0
-133,169,0,0,0,0,0,0,0,0,0,-1,1091,855,0,0
-126,169,0,0,0,0,0,0,0,0,0,-1,1098,855,0,0
-119,169,0,0,0,0,0,0,0,0,0,-1,1105,855,0,0
-112,169,0,0,0,0,0,0,0,0,0,-1,1112,855,0,0
-105,169,0,0,0,0,0,0,0,0,0,-1,1119,855,0,0
-98,169,0,0,0,0,0,0,0,0,0,-1,1126,855,0,0
-91,169,0,0,0,0,0,0,0,0,0,-1,1133,855,0,0
-84,169,0,0,0,0,0,0,0,0,0,-1,1140,855,0,0
-77,169,0,0,0,0,0,0,0,0,0,-1,1147,855,0,0
-70,169,0,0,0,0,0,0,0,0,0,-1,1154,855,0,0
-63,169,0,0,0,0,0,0,0,0,0,-1,1161,855,0,0
-56,169,0,0,0,0,0,0,0,0,0,-1,1168,855,0,0
-49,169,0,0,0,0,0,0,0,0,0,-1,1175,855,0,0
-42,169,0,0,0,0,0,0,0,0,0,-1,1182,855,0,0
-35,169,0,0,0,0,0,0,0,0,0,-1,1189,855,0,0
-28,169,0,0,0,0,0,0,0,0,0,-1,1196,855,0,0
-21,169,0,0,0,0,0,0,0,0,0,-1,1203,855,0,0
-14,169,0,0,0,0,0,0,0,0,0,-1,1210,855,0,0
-7,169,0,0,0,0,0,0,0,0,0,-1,1217,855,0,0
0,169,0,0,0,0,0,0,0,0,0,-1,1224,855,0,0
7,169,0,0,0,0,0,0,0,0,0,-1,1231,855,0,0
14,169,0,0,0,0,0,0,0,0,0,-1,1238,855,0,0
21,169,0,0,0,0,0,0,0,0,0,-1,1245,855,0,0
28,169,0,0,0,0,0,0,0,0,0,-1,1252,855,0,0
35,169,0,0,0,0,0,0,0,0,0,-1,1259,855,0,0
42,169,0,0,0,0,0,0,0,0,0,-1,1266,855,0,0
49,169,0,0,0,0,0,0,0,0,0,-1,1273,855,0,0
56,169,0,0,0,0,0,0,0,0,0,-1,1280,855,0,0
63,169,0,0,0,0,0,0,0,0,0,-1,1287,855,0,0
70,169,0,0,0,0,0,0,0,0,0,-1,1294,855,0,0
77,169,0,0,0,0,0,0,0,0,0,-1,1301,855,0,0
84,169,0,0,0,0,0,0,0,0,0,-1,1308,855,0,0
91,169,0,0,0,0,0,0,0,0,0,-1,1315,855,0,0
98,169,0,0,0,0,0,0,0,0,0,-1,1322,855,0,0
105,169,0,0,0,0,0,0,0,0,0,-1,1329,855,0,0
112,169,0,0,0,0,0,0,0,0,0,-1,1336,855,0,0
119,169,0,0,0,0,0,0,0,0,0,-1,1343,855,0,0
126,169,0,0,0,0,0,0,0,0,0,-1,1350,855,0,0
133,169,0,0,0,0,0,0,0,0,0,-1,1357,855,0,0
140,169,0,0,0,0,0,0,0,0,0,-1,1364,855,0,0
147,169,0,0,0,0,0,0,0,0,0,-1,1371,855,0,0
154,169,0,0,0,0,0,0,0,0,0,-1,1378,855,0,0
161,169,0,0,0,0,0,0,0,0,0,-1,1385,855,0,0
168,169,0,0,0,0,0,0,0,0,0,-1,1392,855,0,0
175,169,0,0,0,0,0,0,0,0,0,-1,1399,855,0,0
182,169,0,0,0,0,0,0,0,0,0,-1,1406,855,0,0
189,169,0,0,0,0,0,0,0,0,0,-1,1413,855,0,0
196,169,0,0,0,0,0,0,0,0,0,-1,1420,855,0,0
203,169,0,0,0,0,0,0,0,0,0,-1,1427,855,0,0
210,169,0,0,0,0,0,0,0,0,0,-1,1434,855,0,0
217,169,0,0,0,0,0,0,0,0,0,-1,1441,855,0,0
224,169,0,0,0,0,0,0,0,0,0,-1,1448,855,0,0
231,169,0,0,0,0,0,0,0,0,0,-1,1455,855,0,0
238,169,0,0,0,0,0,0,0,0,0,-1,1462,855,0,0
245,169,0,0,0,0,0,0,0,0,0,-1,1469,855,0,0
252,169,0,0,0,0,0,0,0,0,0,-1,1476,855,0,0
259,169,0,0,0,0,0,0,0,0,0,-1,1483,855,0,0
266,169,0,0,0,0,0,0,0,0,0,-1,1490,855,0,0
273,169,0,0,0,0,0,0,0,0,0,-1,1497,855,0,0
280,169,0,0,0,0,0,0,0,0,0,-1,1504,855,0,0
287,169,0,0,0,0,0,0,0,0,0,-1,1511,855,0,0
294,169,0,0,0,0,0,0,0,0,0,-1,1518,855,0,0
301,169,0,0,0,0,0,0,0,0,0,-1,1525,855,0,0
308,169,0,0,0,0,0,0,0,0,0,-1,1532,855,0,0
315,169,0,0,0,0,0,0,0,0,0,-1,1539,855,0,0
322,169,0,0,0,0,0,0,0,0,0,-1,1546,855,0,0
329,169,0,0,0,0,0,0,0,0,0,-1,1553,855,0,0
336,169,0,0,0,0,0,0,0,0,0,-1,1560,855,0,0
343,169,0,0,0,0,0,0,0,0,0,-1,1567,855,0,0
350,169,0,0,0,0,0,0,0,0,0,-1,1574,855,0,0
357,169,0,0,0,0,0,0,0,0,0,-1,1581,855,0,0
364,169,0,0,0,0,0,0,0,0,0,-1,1588,855,0,0
371,169,0,0,0,0,0,0,0,0,0,-1,1595,855,0,0
378,169,0,0,0,0,0,0,0,0,0,-1,1602,855,0,0
385,169,0,0,0,0,0,0,0,0,0,-1,1609,855,0,0
392,169,0,0,0,0,0,0,0,0,0,-1,1616,855,0,0
399,169,0,0,0,0,0,0,0,0,0,-1,1623,855,0,0
406,169,0,0,0,0,0,0,0,0,0,-1,1630,855,0,0
413,169,0,0,0,0,0,0,0,0,0,-1,1637,855,0,0
420,169,0,0,0,0,0,0,0,0,0,-1,1644,855,0,0
427,169,0,0,0,0,0,0,0,0,0,-1,1651,855,0,0
434,169,0,0,0,0,0,0,0,0,0,-1,1658,855,0,0
441,169,0,0,0,0,0,0,0,0,0,-1,1665,855,0,0
448,169,0,0,0,0,0,0,0,0,0,-1,1672,855,0,0
455,169,0,0,0,0,0,0,0,0,0,-1,1679,855,0,0
462,169,0,0,0,0,0,0,0,0,0,-1,1686,855,0,0
469,169,0,0,0,0,0,0,0,0,0,-1,1693,855,0,0
476,169,0,0,0,0,0,0,0,0,0,-1,1700,855,0,0
483,169,0,0,0,0,0,0,0,0,0,-1,1707,855,0,0
490,169,0,0,0,0,0,0,0,0,0,-1,1714,855,0,0
497,169,0,0,0,0,0,0,0,0,0,-1,1721,855,0,0
504,169,0,0,0,0,0,0,0,0,0,-1,1728,855,0,0
511,169,0,0,0,0,0,0,0,0,0,-1,1735,855,0,0
518,169,0,0,0,0,0,0,0,0,0,-1,1742,855,0,0
525,169,0,0,0,0,0,0,0,0,0,-1,1749,855,0,0
532,169,0,0,0,0,0,0,0,0,0,-1,1756,855,0,0
539,169,0,0,0,0,0,0,0,0,0,-1,1763,855,0,0
546,169,0,0,0,0,0,0,0,0,0,-1,1770,855,0,0
553,169,0,0,0,0,0,0,0,0,0,-1,1777,855,0,0
560,169,0,0,0,0,0,0,0,0,0,-1,1784,855,0,0
567,169,0,0,0,0,0,0,0,0,0,-1,1791,855,0,0
574,169,0,0,0,0,0,0,0,0,0,-1,1798,855,0,0
581,169,0,0,0,0,0,0,0,0,0,-1,1805,855,0,0
588,169,0,0,0,0,0,0,0,0,0,-1,1812,855,0,0
595,169,0,0,0,0,0,0,0,0,0,-1,1819,855,0,0
602,169,0,0,0,0,0,0,0,0,0,-1,1826,855,0,0
609,169,0,0,0,0,0,0,0,0,0,-1,1833,855,0,0
616,169,-0.116943,0.0254517,-0.00282742,-0.000503207,0.000504562,-0.000398398,-0.00293223,1.36599,0.00183648,0.0359408,1840,855,-0.116911,-0.0254798
623,169,-0.0804443,-0.0526733,-0.00203837,-0.00114163,-4.02433e-05,-0.00113982,-0.00204017,-1.52604,0.00118059,0.0396611,1847,855,-0.080429,0.0526473
630,169,-0.052124,-0.0289917,-0.00159116,-0.00146432,-0.000212092,-0.00130637,-0.00174911,-0.930679,0.00105008,0.0353879,1854,855,-0.0521738,0.0290218
637,169,-0.0662842,-0.0464478,-0.00115992,-0.00158284,-0.000277023,-0.00102288,-0.00171989,-0.459413,0.0009989,0.0297955,1861,855,-0.0662875,0.046426
644,169,-0.114624,-0.101135,-0.000836706,-0.00154218,-0.000272281,-0.000743842,-0.00163505,-0.328687,0.000945272,0.0282121,1868,855,-0.114661,0.101146
651,169,-0.0944824,-0.0640259,-0.000590197,-0.00141465,-0.000240866,-0.000524985,-0.00147986,-0.2644,0.000866332,0.0290634,1875,855,-0.0944444,0.064053
658,169,-0.0755615,-0.0553589,-0.000428778,-0.00123288,-0.000183236,-0.000388992,-0.00127267,-0.213814,0.00075305,0.0313611,1882,855,-0.0755701,0.0553437
665,169,-0.0351563,-0.190979,-0.000278873,-0.000950637,-0.000133402,-0.000253351,-0.000976159,-0.189033,0.000584907,0.0445742,1889,855,-0.0350968,0.190989
672,169,0.00695801,-0.280945,-0.000162722,-0.000754276,-6.22492e-05,-0.000156243,-0.000760756,-0.103716,0.000463944,0.0474897,1896,855,0.00700598,0.280956
679,169,-0.131836,0.0204468,-8.44244e-05,-0.000540289,-1.28646e-05,-8.40616e-05,-0.000540652,-0.0281902,0.000335938,0.0402953,1903,855,-0.13184,-0.0204401
686,169,-0.0478516,-0.0695801,-4.64024e-05,-0.00032777,-6.49932e-06,-4.62524e-05,-0.00032792,-0.0230826,0.000204943,0.0184807,1910,855,-0.0478821,0.0695625
693,169,-0.0650635,-0.0438232,-4.45729e-06,-0.000204261,5.597e-05,1.0153e-05,-0.000218871,0.25534,0.000149413,0.0108934,1917,855,-0.0650653,0.0438065
700,169,-0.0703125,-0.0387573,2.11427e-05,-1.94641e-05,5.53493e-05,5.97949e-05,-5.81164e-05,0.609607,6.80784e-05,0.0117901,1924,855,-0.0703475,0.0387285
707,169,-0.0859375,-0.050415,4.20731e-05,0.000230399,-0.000110688,0.000281558,-9.08581e-06,-1.13785,0.000190806,0.0126965,1931,855,-0.0859072,0.0504195
714,169,-0.0852051,-0.0731812,0.000599056,-5.35362e-05,-0.000249647,0.000683604,-0.000138084,-0.326546,0.000508058,0.0120484,1938,855,-0.0851606,0.0731736
721,169,-0.0888672,-0.05896,0.00190882,-0.000918228,-0.000214435,0.00192499,-0.0009344,-0.0752774,0.00168357,0.0118323,1945,855,-0.0888842,0.0589502
728,169,-0.0910645,-0.050415,0.00441509,-0.00149497,-0.000593501,0.0044741,-0.00155398,-0.0991036,0.00361387,0.00974168,1952,855,-0.0910866,0.0503901
735,169,-0.0856934,-0.0402222,0.00760408,-0.0023595,-0.00136127,0.00778672,-0.00254214,-0.133369,0.00621433,0.0163085,1959,855,-0.0857287,0.0402324
742,169,-0.0592041,-0.0454712,0.0114649,-0.00312027,-0.00201854,0.0117391,-0.00339447,-0.135016,0.00916947,0.0137237,1966,855,-0.0592594,0.045453
749,169,0.0155029,-0.0793457,0.0165921,-0.00440761,-0.00287866,0.0169796,-0.00479507,-0.133793,0.0132114,0.0219801,1973,855,0.0154484,0.0793465
756,169,0.0354004,-0.274536,0.0232048,-0.00593845,-0.00403194,0.0237524,-0.00648598,-0.134972,0.0183824,0.0413312,1980,855,0.0354284,0.274549
763,169,-0.0450439,-0.167725,0.0315478,-0.00761114,-0.00558557,0.0323289,-0.00839228,-0.138948,0.0248274,0.0480337,1987,855,-0.0450737,0.167732
770,169,-0.057373,0.447998,0.0418357,-0.00920995,-0.00768977,0.042969,-0.0103432,-0.14632,0.0326446,0.0465119,1994,855,-0.0574131,-0.447974
777,169,0.0467529,0.728882,0.0543788,-0.0103298,-0.0105896,0.0560677,-0.0120187,-0.158156,0.0419624,0.0455175,2001,855,0.0467136,-0.728869
784,169,0.963501,-1.06763,0,0,0,0,0,0,0,-1,2008,855,0.963561,1.06761
791,169,0,0,0,0,0,0,0,0,0,-1,2015,855,0,0
798,169,0,0,0,0,0,0,0,0,0,-1,2022,855,0,0
805,169,0,0,0,0,0,0,0,0,0,-1,2029,855,0,0
812,169,0,0,0,0,0,0,0,0,0,-1,2036,855,0,0
-700,162,0,0,0,0,0,0,0,0,0,-1,524,862,0,0
-693,162,0,0,0,0,0,0,0,0,0,-1,531,862,0,0
-686,162,0,0,0,0,0,0,0,0,0,-1,538,862,0,0
-679,162,0,0,0,0,0,0,0,0,0,-1,545,862,0,0
-672,162,0,0,0,0,0,0,0,0,0,-1,552,862,0,0
-665,162,0.909119,-0.272095,0.00855295,-0.0412596,0.000249964,0.00855421,-0.0412609,0.00501792,0.0307578,0.0492889,559,862,0.909136,0.272076
-658,162,0.763245,-0.773499,0.00421432,-0.0314103,0.00282466,0.0044369,-0.0316329,0.0786348,0.0227125,0.0489589,566,862,0.763249,0.773487
-651,162,0.60498,-1.26422,0.00188254,-0.0230827,0.00434864,0.00261833,-0.0238185,0.167613,0.0168199,0.0493882,573,862,0.604994,1.2642
-644,162,0.457642,-1.8338,0.000756822,-0.0163228,0.00509641,0.00216195,-0.0177279,0.269025,0.0126012,0.046052,580,862,0.45762,1.83381
-637,162,0.191956,-2.36829,0,0,0,0,0,0,0,-1,587,862,0.191927,2.36826
-630,162,-0.674316,-1.6676,0,0,0,0,0,0,0,-1,594,862,-0.674302,1.66762
-623,162,-0.0501099,0.0214844,0.000306237,-0.00453664,0.00452488,0.00301684,-0.00724725,0.539717,0.00609144,0.0299125,601,862,-0.0500886,-0.0214984
-616,162,-0.085083,-0.0426636,0.000292721,-0.00213976,0.00367308,0.00294569,-0.00479273,0.625519,0.00451,0.0164443,608,862,-0.085112,0.0426444
-609,162,-0.0683594,-0.0351563,0.000486747,-0.000605948,0.0028663,0.00285831,-0.00297751,0.691223,0.00336954,0.0115499,615,862,-0.0683646,0.0351501
-602,162,-0.0656738,-0.0389404,0.000473845,0.000245411,0.00246999,0.00283225,-0.002113,0.762294,0.00286519,0.0107141,622,862,-0.0656913,0.0389108
-595,162,-0.0610352,-0.0327148,0.000773303,0.000309013,0.00187107,0.00242657,-0.00134425,0.723678,0.00220678,0.00991903,629,862,-0.0610372,0.0327234
-588,162,-0.0465698,-0.0272217,0.00114256,0.000832064,0.00102441,0.00202342,-4.87984e-05,0.710196,0.00136551,0.0101059,636,862,-0.0465774,0.0272158
-581,162,-0.0783691,-0.0360718,0.00101552,0.000374136,0.000611433,0.00138526,4.39928e-06,0.543872,0.000922045,0.0119416,643,862,-0.0783561,0.0360495
-574,162,-0.0883179,-0.0432129,0.000622874,-5.14128e-05,0.000455352,0.00085231,-0.000280848,0.466733,0.000681396,0.0154547,650,862,-0.0883226,0.0431919
-567,162,-0.0775146,-0.0391846,0.000525057,-0.000132048,0.000502547,0.000796921,-0.000403912,0.495886,0.00070557,0.01477,657,862,-0.077545,0.0391701
-560,162,-0.0809937,-0.0601807,0.000702251,-0.000147029,0.0008689,0.00124472,-0.000689501,0.558111,0.00113196,0.0109255,664,862,-0.0809679,0.0602005
-553,162,-0.102905,-0.0597534,0.000854987,-9.84821e-05,0.00125572,0.00172142,-0.000964918,0.603977,0.00157133,0.0218579,671,862,-0.102926,0.0597327
-546,162,-0.0987549,-0.108765,0.000977945,-0.000107821,0.00164727,0.00216948,-0.00129936,0.62622,0.00202363,0.0317441,678,862,-0.0987479,0.108745
-539,162,-0.127319,-0.144104,0.00115349,-0.000106395,0.00198847,0.00260941,-0.00156232,0.632001,0.00243371,0.0364274,685,862,-0.127343,0.144134
-532,162,-0.0432739,0.0212402,0.00133536,-0.00012742,0.00231119,0.00302813,-0.00182019,0.632156,0.00282799,0.035228,692,862,-0.0432613,-0.0212472
-525,162,-0.050415,-0.0195923,0.00148497,-0.000111712,0.00257379,0.00338139,-0.00200813,0.635012,0.00314513,0.037768,699,862,-0.0504336,0.019619
-518,162,-0.0769043,-0.0263672,0.00155811,-8.7149e-05,0.00265876,0.0035186,-0.00204764,0.635368,0.00325086,0.0390741,706,862,-0.0769208,0.0263492
-511,162,-0.0554199,0.0458374,0.00153436,-5.47962e-05,0.0024525,0.00331778,-0.00183822,0.62874,0.0030174,0.0422858,713,862,-0.0554303,-0.0458293
-504,162,-0.0427246,0.123474,0.00133546,-6.07059e-06,0.00177792,0.00256494,-0.00123555,0.605017,0.00223851,0.0425556,720,862,-0.0427409,-0.123471
-497,162,-0.0701904,0.203674,0.001162,7.87469e-05,0.000497037,0.0013555,-0.000114749,0.371247,0.000944242,0.0387488,727,862,-0.0702123,-0.203696
-490,162,0,0,0,0,0,0,0,0,0,-1,734,862,0,0
-483,162,0,0,0,0,0,0,0,0,0,-1,741,862,0,0
-476,162,0,0,0,0,0,0,0,0,0,-1,748,862,0,0
-469,162,0,0,0,0,0,0,0,0,0,-1,755,862,0,0
-462,162,0,0,0,0,0,0,0,0,0,-1,762,862,0,0
-455,162,0,0,0,0,0,0,0,0,0,-1,769,862,0,0
-448,162,0,0,0,0,0,0,0,0,0,-1,776,862,0,0
-441,162,0,0,0,0,0,0,0,0,0,-1,783,862,0,0
-434,162,0,0,0,0,0,0,0,0,0,-1,790,862,0,0
-427,162,0,0,0,0,0,0,0,0,0,-1,797,862,0,0
-420,162,0,0,0,0,0,0,0,0,0,-1,804,862,0,0
-413,162,0,0,0,0,0,0,0,0,0,-1,811,862,0,0
-406,162,0,0,0,0,0,0,0,0,0,-1,818,862,0,0
-399,162,0,0,0,0,0,0,0,0,0,-1,825,862,0,0
-392,162,0,0,0,0,0,0,0,0,0,-1,832,862,0,0
-385,162,0,0,0,0,0,0,0,0,0,-1,839,862,0,0
-378,162,0,0,0,0,0,0,0,0,0,-1,846,862,0,0
-371,162,0,0,0,0,0,0,0,0,0,-1,853,862,0,0
-364,162,0,0,0,0,0,0,0,0,0,-1,860,862,0,0
-357,162,0,0,0,0,0,0,0,0,0,-1,867,862,0,0
-350,162,0,0,0,0,0,0,0,0,0,-1,874,862,0,0
-343,162,0,0,0,0,0,0,0,0,0,-1,881,862,0,0
-336,162,0,0,0,0,0,0,0,0,0,-1,888,862,0,0
-329,162,0,0,0,0,0,0,0,0,0,-1,895,862,0,0
-322,162,0,0,0,0,0,0,0,0,0,-1,902,862,0,0
-315,162,0,0,0,0,0,0,0,0,0,-1,909,862,0,0
-308,162,0,0,0,0,0,0,0,0,0,-1,916,862,0,0
-301,162,0,0,0,0,0,0,0,0,0,-1,923,862,0,0
-294,162,0,0,0,0,0,0,0,0,0,-1,930,862,0,0
-287,162,0,0,0,0,0,0,0,0,0,-1,937,862,0,0
-280,162,0,0,0,0,0,0,0,0,0,-1,944,862,0,0
-273,162,0,0,0,0,0,0,0,0,0,-1,951,862,0,0
-266,162,0,0,0,0,0,0,0,0,0,-1,958,862,0,0
-259,162,0,0,0,0,0,0,0,0,0,-1,965,862,0,0
-252,162,0,0,0,0,0,0,0,0,0,-1,972,862,0,0
-245,162,0,0,0,0,0,0,0,0,0,-1,979,862,0,0
-238,162,0,0,0,0,0,0,0,0,0,-1,986,862,0,0
-231,162,0,0,0,0,0,0,0,0,0,-1,993,862,0,0
-224,162,0,0,0,0,0,0,0,0,0,-1,1000,862,0,0
-217,162,0,0,0,0,0,0,0,0,0,-1,1007,862,0,0
-210,162,0,0,0,0,0,0,0,0,0,-1,1014,862,0,0
-203,162,0,0,0,0,0,0,0,0,0,-1,1021,862,0,0
-196,162,0,0,0,0,0,0,0,0,0,-1,1028,862,0,0
-189,162,0,0,0,0,0,0,0,0,0,-1,1035,862,0,0
-182,162,0,0,0,0,0,0,0,0,0,-1,1042,862,0,0
-175,162,0,0,0,0,0,0,0,0,0,-1,1049,862,0,0
-168,162,0,0,0,0,0,0,0,0,0,-1,1056,862,0,0
-161,162,0,0,0,0,0,0,0,0,0,-1,1063,862,0,0
-154,162,0,0,0,0,0,0,0,0,0,-1,1070,862,0,0
-147,162,0,0,0,0,0,0,0,0,0,-1,1077,862,0,0
-140,162,0,0,0,0,0,0,0,0,0,-1,1084,862,0,0
-133,162,0,0,0,0,0,0,0,0,0,-1,1091,862,0,0
-126,162,0,0,0,0,0,0,0,0,0,-1,1098,862,0,0
-119,162,0,0,0,0,0,0,0,0,0,-1,1105,862,0,0
-112,162,0,0,0,0,0,0,0,0,0,-1,1112,862,0,0
-105,162,0,0,0,0,0,0,0,0,0,-1,1119,862,0,0
-98,162,0,0,0,0,0,0,0,0,0,-1,1126,862,0,0
-91,162,0,0,0,0,0,0,0,0,0,-1,1133,862,0,0
-84,162,0,0,0,0,0,0,0,0,0,-1,1140,862,0,0
-77,162,0,0,0,0,0,0,0,0,0,-1,1147,862,0,0
-70,162,0,0,0,0,0,0,0,0,0,-1,1154,862,0,0
-63,162,0,0,0,0,0,0,0,0,0,-1,1161,862,0,0
-56,162,0,0,0,0,0,0,0,0,0,-1,1168,862,0,0
-49,162,0,0,0,0,0,0,0,0,0,-1,1175,862,0,0
-42,162,0,0,0,0,0,0,0,0,0,-1,1182,862,0,0
-35,162,0,0,0,0,0,0,0,0,0,-1,1189,862,0,0
-28,162,0,0,0,0,0,0,0,0,0,-1,1196,862,0,0
-21,162,0,0,0,0,0,0,0,0,0,-1,1203,862,0,0
-14,162,0,0,0,0,0,0,0,0,0,-1,1210,862,0,0
-7,162,0,0,0,0,0,0,0,0,0,-1,1217,862,0,0
0,162,0,0,0,0,0,0,0,0,0,-1,1224,862,0,0
7,162,0,0,0,0,0,0,0,0,0,-1,1231,862,0,0
14,162,0,0,0,0,0,0,0,0,0,-1,1238,862,0,0
21,162,0,0,0,0,0,0,0,0,0,-1,1245,862,0,0
28,162,0,0,0,0,0,0,0,0,0,-1,1252,862,0,0
35,162,0,0,0,0,0,0,0,0,0,-1,1259,862,0,0
42,162,0,0,0,0,0,0,0,0,0,-1,1266,862,0,0
49,162,0,0,0,0,0,0,0,0,0,-1,1273,862,0,0
56,162,0,0,0,0,0,0,0,0,0,-1,1280,862,0,0
63,162,0,0,0,0,0,0,0,0,0,-1,1287,862,0,0
70,162,0,0,0,0,0,0,0,0,0,-1,1294,862,0,0
77,162,0,0,0,0,0,0,0,0,0,-1,1301,862,0,0
84,162,0,0,0,0,0,0,0,0,0,-1,1308,862,0,0
91,162,0,0,0,0,0,0,0,0,0,-1,1315,862,0,0
98,162,0,0,0,0,0,0,0,0,0,-1,1322,862,0,0
105,162,0,0,0,0,0,0,0,0,0,-1,1329,862,0,0
112,162,0,0,0,0,0,0,0,0,0,-1,1336,862,0,0
119,162,0,0,0,0,0,0,0,0,0,-1,1343,862,0,0
126,162,0,0,0,0,0,0,0,0,0,-1,1350,862,0,0
133,162,0,0,0,0,0,0,0,0,0,-1,1357,862,0,0
140,162,0,0,0,0,0,0,0,0,0,-1,1364,862,0,0
147,162,0,0,0,0,0,0,0,0,0,-1,1371,862,0,0
154,162,0,0,0,0,0,0,0,0,0,-1,1378,862,0,0
161,162,0,0,0,0,0,0,0,0,0,-1,1385,862,0,0
168,162,0,0,0,0,0,0,0,0,0,-1,1392,862,0,0
175,162,0,0,0,0,0,0,0,0,0,-1,1399,862,0,0
182,162,0,0,0,0,0,0,0,0,0,-1,1406,862,0,0
189,162,0,0,0,0,0,0,0,0,0,-1,1413,862,0,0
196,162,0,0,0,0,0,0,0,0,0,-1,1420,862,0,0
203,162,0,0,0,0,0,0,0,0,0,-1,1427,862,0,0
210,162,0,0,0,0,0,0,0,0,0,-1,1434,862,0,0
217,162,0,0,0,0,0,0,0,0,0,-1,1441,862,0,0
224,162,0,0,0,0,0,0,0,0,0,-1,1448,862,0,0
231,162,0,0,0,0,0,0,0,0,0,-1,1455,862,0,0
238,162,0,0,0,0,0,0,0,0,0,-1,1462,862,0,0
245,162,0,0,0,0,0,0,0,0,0,-1,1469,862,0,0
252,162,0,0,0,0,0,0,0,0,0,-1,1476,862,0,0
259,162,0,0,0,0,0,0,0,0,0,-1,1483,862,0,0
266,162,0,0,0,0,0,0,0,0,0,-1,1490,862,0,0
273,162,0,0,0,0,0,0,0,0,0,-1,1497,862,0,0
280,162,0,0,0,0,0,0,0,0,0,-1,1504,862,0,0
287,162,0,0,0,0,0,0,0,0,0,-1,1511,862,0,0
294,162,0,0,0,0,0,0,0,0,0,-1,1518,862,0,0
301,162,0,0,0,0,0,0,0,0,0,-1,1525,862,0,0
308,162,0,0,0,0,0,0,0,0,0,-1,1532,862,0,0
315,162,0,0,0,0,0,0,0,0,0,-1,1539,862,0,0
322,162,0,0,0,0,0,0,0,0,0,-1,1546,862,0,0
329,162,0,0,0,0,0,0,0,0,0,-1,1553,862,0,0
336,162,0,0,0,0,0,0,0,0,0,-1,1560,862,0,0
343,162,0,0,0,0,0,0,0,0,0,-1,1567,862,0,0
350,162,0,0,0,0,0,0,0,0,0,-1,1574,862,0,0
357,162,0,0,0,0,0,0,0,0,0,-1,1581,862,0,0
364,162,0,0,0,0,0,0,0,0,0,-1,1588,862,0,0
371,162,0,0,0,0,0,0,0,0,0,-1,1595,862,0,0
378,162,0,0,0,0,0,0,0,0,0,-1,1602,862,0,0
385,162,0,0,0,0,0,0,0,0,0,-1,1609,862,0,0
392,162,0,0,0,0,0,0,0,0,0,-1,1616,862,0,0
399,162,0,0,0,0,0,0,0,0,0,-1,1623,862,0,0
406,162,0,0,0,0,0,0,0,0,0,-1,1630,862,0,0
413,162,0,0,0,0,0,0,0,0,0,-1,1637,862,0,0
420,162,0,0,0,0,0,0,0,0,0,-1,1644,862,0,0
427,162,0,0,0,0,0,0,0,0,0,-1,1651,862,0,0
434,162,0,0,0,0,0,0,0,0,0,-1,1658,862,0,0
441,162,0,0,0,0,0,0,0,0,0,-1,1665,862,0,0
448,162,0,0,0,0,0,0,0,0,0,-1,1672,862,0,0
455,162,0,0,0,0,0,0,0,0,0,-1,1679,862,0,0
462,162,0,0,0,0,0,0,0,0,0,-1,1686,862,0,0
469,162,0,0,0,0,0,0,0,0,0,-1,1693,862,0,0
476,162,0,0,0,0,0,0,0,0,0,-1,1700,862,0,0
483,162,0,0,0,0,0,0,0,0,0,-1,1707,862,0,0
490,162,0,0,0,0,0,0,0,0,0,-1,1714,862,0,0
497,162,0,0,0,0,0,0,0,0,0,-1,1721,862,0,0
504,162,0,0,0,0,0,0,0,0,0,-1,1728,862,0,0
511,162,0,0,0,0,0,0,0,0,0,-1,1735,862,0,0
518,162,0,0,0,0,0,0,0,0,0,-1,1742,862,0,0
525,162,0,0,0,0,0,0,0,0,0,-1,1749,862,0,0
532,162,0,0,0,0,0,0,0,0,0,-1,1756,862,0,0
539,162,0,0,0,0,0,0,0,0,0,-1,1763,862,0,0
546,162,0,0,0,0,0,0,0,0,0,-1,1770,862,0,0
553,162,0,0,0,0,0,0,0,0,0,-1,1777,862,0,0
560,162,0,0,0,0,0,0,0,0,0,-1,1784,862,0,0
567,162,0,0,0,0,0,0,0,0,0,-1,1791,862,0,0
574,162,0,0,0,0,0,0,0,0,0,-1,1798,862,0,0
581,162,0,0,0,0,0,0,0,0,0,-1,1805,862,0,0
588,162,0,0,0,0,0,0,0,0,0,-1,1812,862,0,0
595,162,0,0,0,0,0,0,0,0,0,-1,1819,862,0,0
602,162,0,0,0,0,0,0,0,0,0,-1,1826,862,0,0
609,162,0,0,0,0,0,0,0,0,0,-1,1833,862,0,0
616,162,0.0216064,-0.167114,-0.00358041,-0.000914238,0.000605188,-0.000783299,-0.00371135,1.35772,0.00225887,0.0387896,1840,862,0.0216438,0.167145
623,162,-0.0249023,-0.114746,-0.00261138,-0.00118653,9.76138e-05,-0.00117987,-0.00261804,1.50271,0.00151397,0.0390164,1847,862,-0.0249264,0.11472
630,162,-0.0189209,-0.003479,-0.0020553,-0.00129389,-4.57227e-05,-0.00129116,-0.00205804,-1.51103,0.00120099,0.0358166,1854,862,-0.0189213,0.00346921
637,162,-0.0637207,0.000488281,-0.00151526,-0.00129738,-0.000107929,-0.00125297,-0.00155967,-1.18043,0.000954123,0.0335435,1861,862,-0.0637688,-0.000477097
644,162,-0.0983887,-0.0939331,-0.00108994,-0.00121273,-0.000128349,-0.00100906,-0.00129362,-0.562304,0.000784943,0.0302741,1868,862,-0.0983711,0.0939619
651,162,-0.0716553,-0.083374,-0.000766719,-0.00107941,-0.000129615,-0.000719979,-0.00112615,-0.346095,0.000658545,0.0284524,1875,862,-0.0716516,0.0833878
658,162,-0.0695801,-0.0567627,-0.000541427,-0.0009235,-0.000114431,-0.000509777,-0.00095515,-0.269841,0.000551874,0.0311981,1882,862,-0.0696083,0.0567919
665,162,-0.0605469,-0.124451,-0.000351376,-0.000691663,-0.000102052,-0.000323118,-0.000719921,-0.270136,0.000416372,0.0401108,1889,862,-0.0605705,0.124448
672,162,-0.0230713,-0.136414,-0.000216073,-0.000549925,-6.33115e-05,-0.000204469,-0.000561528,-0.181258,0.000328164,0.043928,1896,862,-0.0231197,0.136399
679,162,-0.210571,0.184387,-0.000120575,-0.000398564,-4.56992e-05,-0.000113255,-0.000405884,-0.158825,0.000241845,0.0399317,1903,862,-0.210516,-0.184411
686,162,-0.0817871,0.0289917,-5.54387e-05,-0.000256839,-6.66564e-05,-3.53763e-05,-0.000276902,-0.292358,0.000174012,0.0226467,1910,862,-0.0817969,-0.0290071
693,162,-0.0716553,-0.0601196,-4.86502e-06,-0.000170939,-2.28818e-05,-1.77003e-06,-0.000174034,-0.134444,0.000115437,0.014089,1917,862,-0.0716066,0.0601026
700,162,-0.0683594,-0.0504761,2.18172e-05,-2.81142e-05,-3.06956e-05,3.6418e-05,-4.2715e-05,-0.443989,4.57357e-05,0.0141164,1924,862,-0.0683808,0.0504951
707,162,-0.0703125,-0.0526733,0.000144843,8.87098e-05,-0.000153236,0.000272562,-3.90092e-05,-0.694823,0.000196009,0.0108333,1931,862,-0.0702721,0.0526786
714,162,-0.072876,-0.0795898,0.000772421,-0.000234952,-0.000284962,0.000847443,-0.000309973,-0.257429,0.000691834,0.0142358,1938,862,-0.072873,0.0796181
721,162,-0.115845,-0.0376587,0.00212342,-0.00103384,-0.000308298,0.00215324,-0.00106366,-0.0964337,0.00189246,0.0228907,1945,862,-0.115842,0.0376426
728,162,-0.128906,-0.0365601,0.00466947,-0.00155336,-0.000761624,0.00476133,-0.00164522,-0.120032,0.0038419,0.018374,1952,862,-0.128896,0.0365649
735,162,-0.0856934,-0.034729,0.00789094,-0.00236625,-0.00163332,0.00814474,-0.00262006,-0.154159,0.00648215,0.0102751,1959,862,-0.0856393,0.0347143
742,162,-0.0668945,-0.0317993,0.0117493,-0.00293902,-0.00248968,0.0121598,-0.00334955,-0.163421,0.00942364,0.011381,1966,862,-0.0668835,0.0318172
749,162,-0.0606689,-0.0377197,0.0168787,-0.00395579,-0.00360244,0.017484,-0.00456109,-0.166471,0.0134369,0.0144543,1973,862,-0.0607147,0.0377295
756,162,-0.0267334,-0.0917969,0.0234288,-0.00504161,-0.00511468,0.0243197,-0.00593258,-0.172467,0.0185103,0.033261,1980,862,-0.0266847,0.091804
763,162,-0.0227051,-0.105225,0.0316259,-0.00603363,-0.00717068,0.0329451,-0.00735278,-0.18193,0.0247806,0.0467327,1987,862,-0.0227028,0.105231
770,162,-0.0117188,-0.0706177,0,0,0,0,0,0,0,-1,1994,862,-0.011771,0.070638
777,162,0.578491,-0.155151,0.0536071,-0.00640343,-0.0137502,0.0566076,-0.009404,-0.214851,0.0412321,0.044017,2001,862,0.57847,0.155163
784,162,1.29846,-1.08417,0.067779,-0.00447346,-0.0190114,0.072476,-0.00917048,-0.242213,0.0516463,0.0462641,2008,862,1.29845,1.08418
791,162,0,0,0,0,0,0,0,0,0,-1,2015,862,0,0
798,162,0,0,0,0,0,0,0,0,0,-1,2022,862,0,0
805,162,0,0,0,0,0,0,0,0,0,-1,2029,862,0,0
812,162,0,0,0,0,0,0,0,0,0,-1,2036,862,0,0
-700,155,0,0,0,0,0,0,0,0,0,-1,524,869,0,0
-693,155,0,0,0,0,0,0,0,0,0,-1,531,869,0,0
-686,155,0,0,0,0,0,0,0,0,0,-1,538,869,0,0
-679,155,0,0,0,0,0,0,0,0,0,-1,545,869,0,0
-672,155,0,0,0,0,0,0,0,0,0,-1,552,869,0,0
-665,155,0.266663,0.548584,0.0173327,-0.0384406,0.00221042,0.0174201,-0.0385281,0.0395495,0.0330591,0.0487001,559,869,0.266668,-0.54857
-658,155,0.532776,-0.101563,0.0117276,-0.0296947,0.00351402,0.0120236,-0.0299907,0.0840336,0.0249854,0.0460188,566,869,0.532797,0.101544
-651,155,0.591248,-0.624084,0.00795129,-0.0221136,0.00429341,0.00855238,-0.0227147,0.139101,0.0186591,0.0464077,573,869,0.591258,0.624094
-644,155,0.350769,-1.06238,0.00545313,-0.0158144,0.00463728,0.00642028,-0.0167816,0.205613,0.0138337,0.0468717,580,869,0.350741,1.06237
-637,155,0.0933228,-1.46039,0,0,0,0,0,0,0,-1,587,869,0.0933424,1.46038
-630,155,-0.0674438,-0.0830078,0.00287496,-0.00695581,0.00431806,0.00450226,-0.0085831,0.360399,0.00767632,0.0411634,594,869,-0.0674378,0.0830222
-623,155,-0.078186,-0.0650024,0.00188865,-0.00460404,0.00390285,0.00371881,-0.00643421,0.438485,0.00593132,0.0234712,601,869,-0.0781706,0.0650058
-616,155,-0.0986328,-0.0700684,0.0012118,-0.00213706,0.00311144,0.00307075,-0.00399601,0.538547,0.00409164,0.0126105,608,869,-0.0986049,0.0700648
-609,155,-0.0817871,-0.0697021,0.00101317,-0.00055095,0.00245273,0.0028055,-0.00234329,0.631067,0.00297665,0.0119013,615,869,-0.0817832,0.0697103
-602,155,-0.0683594,-0.0623779,0.000717106,0.000303315,0.00217795,0.00269796,-0.00167754,0.738043,0.002549,0.010736,622,869,-0.068339,0.0623904
-595,155,-0.0739746,-0.043457,0.000735705,0.000396373,0.00167413,0.00224874,-0.00111666,0.734898,0.00197932,0.00953971,629,869,-0.0739824,0.0434557
-588,155,-0.0675049,-0.0302734,0.000942987,0.000972991,0.000936667,0.00189478,2.12017e-05,0.793406,0.00125618,0.0113848,636,869,-0.0674781,0.0303033
-581,155,-0.0687256,-0.0458374,0.000762008,0.000527821,0.000555109,0.00121224,7.75903e-05,0.681453,0.000783578,0.0145473,643,869,-0.0687175,0.0458221
-574,155,-0.0667114,-0.0601196,0.000398607,0.000104416,0.000428486,0.000704543,-0.00020152,0.620055,0.000549331,0.0194473,650,869,-0.0667397,0.0601419
-567,155,-0.0623169,-0.0549316,0.000262971,1.32738e-05,0.000420945,0.000577191,-0.000300947,0.641235,0.000515287,0.020676,657,869,-0.0623273,0.0549275
-560,155,-0.104736,-0.0504761,0.000411222,-3.10155e-05,0.000681624,0.000906696,-0.000526489,0.628554,0.000837099,0.0200587,664,869,-0.10472,0.0504885
-553,155,-0.15509,-0.090271,0.000569867,-1.48471e-05,0.000963185,0.00128409,-0.000729068,0.638051,0.00117693,0.0326076,671,869,-0.155113,0.0902453
-546,155,-0.110474,-0.105652,0.000685273,-1.98666e-05,0.00126725,0.00164809,-0.00098268,0.649721,0.00153498,0.0335288,678,869,-0.110447,0.105653
-539,155,-0.115417,-0.13916,0.000853362,2.62725e-07,0.00153347,0.0020185,-0.00116488,0.649748,0.00185982,0.0400913,685,869,-0.115447,0.139155
-532,155,-0.103516,-0.0394287,0.00104653,-9.1284e-07,0.00177957,0.00237785,-0.00133223,0.64229,0.00217018,0.0332614,692,869,-0.103508,0.0394246
-525,155,-0.0827026,-0.0233765,0.00125234,2.396e-05,0.00197257,0.00270413,-0.00142783,0.634473,0.00242322,0.0352049,699,869,-0.0826808,0.023405
-518,155,-0.125061,-0.0673828,0.00146582,7.14433e-05,0.00202227,0.00290771,-0.00137045,0.619401,0.00252259,0.0390377,706,869,-0.125068,0.0674003
-511,155,-0.142029,-0.0878296,0.0016855,0.000151399,0.00183387,0.00290627,-0.00106938,0.587321,0.00237561,0.0395104,713,869,-0.142027,0.0877991
-504,155,-0.121704,-0.059082,0.00185886,0.000298345,0.00124154,0.00254496,-0.00038776,0.504857,0.00183957,0.0380516,720,869,-0.121704,0.0590517
-497,155,0,0,0,0,0,0,0,0,0,-1,727,869,0,0
-490,155,0,0,0,0,0,0,0,0,0,-1,734,869,0,0
-483,155,0,0,0,0,0,0,0,0,0,-1,741,869,0,0
-476,155,0,0,0,0,0,0,0,0,0,-1,748,869,0,0
-469,155,0,0,0,0,0,0,0,0,0,-1,755,869,0,0
-462,155,0,0,0,0,0,0,0,0,0,-1,762,869,0,0
-455,155,0,0,0,0,0,0,0,0,0,-1,769,869,0,0
-448,155,0,0,0,0,0,0,0,0,0,-1,776,869,0,0
-441,155,0,0,0,0,0,0,0,0,0,-1,783,869,0,0
-434,155,0,0,0,0,0,0,0,0,0,-1,790,869,0,0
-427,155,0,0,0,0,0,0,0,0,0,-1,797,869,0,0
-420,155,0,0,0,0,0,0,0,0,0,-1,804,869,0,0
-413,155,0,0,0,0,0,0,0,0,0,-1,811,869,0,0
-406,155,0,0,0,0,0,0,0,0,0,-1,818,869,0,0
-399,155,0,0,0,0,0,0,0,0,0,-1,825,869,0,0
-392,155,0,0,0,0,0,0,0,0,0,-1,832,869,0,0
-385,155,0,0,0,0,0,0,0,0,0,-1,839,869,0,0
-378,155,0,0,0,0,0,0,0,0,0,-1,846,869,0,0
-371,155,0,0,0,0,0,0,0,0,0,-1,853,869,0,0
-364,155,0,0,0,0,0,0,0,0,0,-1,860,869,0,0
-357,155,0,0,0,0,0,0,0,0,0,-1,867,869,0,0
-350,155,0,0,0,0,0,0,0,0,0,-1,874,869,0,0
-343,155,0,0,0,0,0,0,0,0,0,-1,881,869,0,0
-336,155,0,0,0,0,0,0,0,0,0,-1,888,869,0,0
-329,155,0,0,0,0,0,0,0,0,0,-1,895,869,0,0
-322,155,0,0,0,0,0,0,0,0,0,-1,902,869,0,0
-315,155,0,0,0,0,0,0,0,0,0,-1,909,869,0,0
-308,155,0,0,0,0,0,0,0,0,0,-1,916,869,0,0
-301,155,0,0,0,0,0,0,0,0,0,-1,923,869,0,0
-294,155,0,0,0,0,0,0,0,0,0,-1,930,869,0,0
-287,155,0,0,0,0,0,0,0,0,0,-1,937,869,0,0
-280,155,0,0,0,0,0,0,0,0,0,-1,944,869,0,0
-273,155,0,0,0,0,0,0,0,0,0,-1,951,869,0,0
-266,155,0,0,0,0,0,0,0,0,0,-1,958,869,0,0
-259,155,0,0,0,0,0,0,0,0,0,-1,965,869,0,0
-252,155,0,0,0,0,0,0,0,0,0,-1,972,869,0,0
-245,155,0,0,0,0,0,0,0,0,0,-1,979,869,0,0
-238,155,0,0,0,0,0,0,0,0,0,-1,986,869,0,0
-231,155,0,0,0,0,0,0,0,0,0,-1,993,869,0,0
-224,155,0,0,0,0,0,0,0,0,0,-1,1000,869,0,0
-217,155,0,0,0,0,0,0,0,0,0,-1,1007,869,0,0
-210,155,0,0,0,0,0,0,0,0,0,-1,1014,869,0,0
-203,155,0,0,0,0,0,0,0,0,0,-1,1021,869,0,0
-196,155,0,0,0,0,0,0,0,0,0,-1,1028,869,0,0
-189,155,0,0,0,0,0,0,0,0,0,-1,1035,869,0,0
-182,155,0,0,0,0,0,0,0,0,0,-1,1042,869,0,0
-175,155,0,0,0,0,0,0,0,0,0,-1,1049,869,0,0
-168,155,0,0,0,0,0,0,0,0,0,-1,1056,869,0,0
-161,155,0,0,0,0,0,0,0,0,0,-1,1063,869,0,0
-154,155,0,0,0,0,0,0,0,0,0,-1,1070,869,0,0
-147,155,0,0,0,0,0,0,0,0,0,-1,1077,869,0,0
-140,155,0,0,0,0,0,0,0,0,0,-1,1084,869,0,0
-133,155,0,0,0,0,0,0,0,0,0,-1,1091,869,0,0
-126,155,0,0,0,0,0,0,0,0,0,-1,1098,869,0,0
-119,155,0,0,0,0,0,0,0,0,0,-1,1105,869,0,0
-112,155,0,0,0,0,0,0,0,0,0,-1,1112,869,0,0
-105,155,0,0,0,0,0,0,0,0,0,-1,1119,869,0,0
-98,155,0,0,0,0,0,0,0,0,0,-1,1126,869,0,0
-91,155,0,0,0,0,0,0,0,0,0,-1,1133,869,0,0
-84,155,0,0,0,0,0,0,0,0,0,-1,1140,869,0,0
-77,155,0,0,0,0,0,0,0,0,0,-1,1147,869,0,0
-70,155,0,0,0,0,0,0,0,0,0,-1,1154,869,0,0
-63,155,0,0,0,0,0,0,0,0,0,-1,1161,869,0,0
-56,155,0,0,0,0,0,0,0,0,0,-1,1168,869,0,0
-49,155,0,0,0,0,0,0,0,0,0,-1,1175,869,0,0
-42,155,0,0,0,0,0,0,0,0,0,-1,1182,869,0,0
-35,155,0,0,0,0,0,0,0,0,0,-1,1189,869,0,0
-28,155,0,0,0,0,0,0,0,0,0,-1,1196,869,0,0
-21,155,0,0,0,0,0,0,0,0,0,-1,1203,869,0,0
-14,155,0,0,0,0,0,0,0,0,0,-1,1210,869,0,0
-7,155,0,0,0,0,0,0,0,0,0,-1,1217,869,0,0
0,155,0,0,0,0,0,0,0,0,0,-1,1224,869,0,0
7,155,0,0,0,0,0,0,0,0,0,-1,1231,869,0,0
14,155,0,0,0,0,0,0,0,0,0,-1,1238,869,0,0
21,155,0,0,0,0,0,0,0,0,0,-1,1245,869,0,0
28,155,0,0,0,0,0,0,0,0,0,-1,1252,869,0,0
35,155,0,0,0,0,0,0,0,0,0,-1,1259,869,0,0
42,155,0,0,0,0,0,0,0,0,0,-1,1266,869,0,0
49,155,0,0,0,0,0,0,0,0,0,-1,1273,869,0,0
56,155,0,0,0,0,0,0,0,0,0,-1,1280,869,0,0
63,155,0,0,0,0,0,0,0,0,0,-1,1287,869,0,0
70,155,0,0,0,0,0,0,0,0,0,-1,1294,869,0,0
77,155,0,0,0,0,0,0,0,0,0,-1,1301,869,0,0
84,155,0,0,0,0,0,0,0,0,0,-1,1308,869,0,0
91,155,0,0,0,0,0,0,0,0,0,-1,1315,869,0,0
98,155,0,0,0,0,0,0,0,0,0,-1,1322,869,0,0
105,155,0,0,0,0,0,0,0,0,0,-1,1329,869,0,0
112,155,0,0,0,0,0,0,0,0,0,-1,1336,869,0,0
119,155,0,0,0,0,0,0,0,0,0,-1,1343,869,0,0
126,155,0,0,0,0,0,0,0,0,0,-1,1350,869,0,0
133,155,0,0,0,0,0,0,0,0,0,-1,1357,869,0,0
140,155,0,0,0,0,0,0,0,0,0,-1,1364,869,0,0
147,155,0,0,0,0,0,0,0,0,0,-1,1371,869,0,0
154,155,0,0,0,0,0,0,0,0,0,-1,1378,869,0,0
161,155,0,0,0,0,0,0,0,0,0,-1,1385,869,0,0
168,155,0,0,0,0,0,0,0,0,0,-1,1392,869,0,0
175,155,0,0,0,0,0,0,0,0,0,-1,1399,869,0,0
182,155,0,0,0,0,0,0,0,0,0,-1,1406,869,0,0
189,155,0,0,0,0,0,0,0,0,0,-1,1413,869,0,0
196,155,0,0,0,0,0,0,0,0,0,-1,1420,869,0,0
203,155,0,0,0,0,0,0,0,0,0,-1,1427,869,0,0
210,155,0,0,0,0,0,0,0,0,0,-1,1434,869,0,0
217,155,0,0,0,0,0,0,0,0,0,-1,1441,869,0,0
224,155,0,0,0,0,0,0,0,0,0,-1,1448,869,0,0
231,155,0,0,0,0,0,0,0,0,0,-1,1455,869,0,0
238,155,0,0,0,0,0,0,0,0,0,-1,1462,869,0,0
245,155,0,0,0,0,0,0,0,0,0,-1,1469,869,0,0
252,155,0,0,0,0,0,0,0,0,0,-1,1476,869,0,0
259,155,0,0,0,0,0,0,0,0,0,-1,1483,869,0,0
266,155,0,0,0,0,0,0,0,0,0,-1,1490,869,0,0
273,155,0,0,0,0,0,0,0,0,0,-1,1497,869,0,0
280,155,0,0,0,0,0,0,0,0,0,-1,1504,869,0,0
287,155,0,0,0,0,0,0,0,0,0,-1,1511,869,0,0
294,155,0,0,0,0,0,0,0,0,0,-1,1518,869,0,0
301,155,0,0,0,0,0,0,0,0,0,-1,1525,869,0,0
308,155,0,0,0,0,0,0,0,0,0,-1,1532,869,0,0
315,155,0,0,0,0,0,0,0,0,0,-1,1539,869,0,0
322,155,0,0,0,0,0,0,0,0,0,-1,1546,869,0,0
329,155,0,0,0,0,0,0,0,0,0,-1,1553,869,0,0
336,155,0,0,0,0,0,0,0,0,0,-1,1560,869,0,0
343,155,0,0,0,0,0,0,0,0,0,-1,1567,869,0,0
350,155,0,0,0,0,0,0,0,0,0,-1,1574,869,0,0
357,155,0,0,0,0,0,0,0,0,0,-1,1581,869,0,0
364,155,0,0,0,0,0,0,0,0,0,-1,1588,869,0,0
371,155,0,0,0,0,0,0,0,0,0,-1,1595,869,0,0
378,155,0,0,0,0,0,0,0,0,0,-1,1602,869,0,0
385,155,0,0,0,0,0,0,0,0,0,-1,1609,869,0,0
392,155,0,0,0,0,0,0,0,0,0,-1,1616,869,0,0
399,155,0,0,0,0,0,0,0,0,0,-1,1623,869,0,0
406,155,0,0,0,0,0,0,0,0,0,-1,1630,869,0,0
413,155,0,0,0,0,0,0,0,0,0,-1,1637,869,0,0
420,155,0,0,0,0,0,0,0,0,0,-1,1644,869,0,0
427,155,0,0,0,0,0,0,0,0,0,-1,1651,869,0,0
434,155,0,0,0,0,0,0,0,0,0,-1,1658,869,0,0
441,155,0,0,0,0,0,0,0,0,0,-1,1665,869,0,0
448,155,0,0,0,0,0,0,0,0,0,-1,1672,869,0,0
455,155,0,0,0,0,0,0,0,0,0,-1,1679,869,0,0
462,155,0,0,0,0,0,0,0,0,0,-1,1686,869,0,0
469,155,0,0,0,0,0,0,0,0,0,-1,1693,869,0,0
476,155,0,0,0,0,0,0,0,0,0,-1,1700,869,0,0
483,155,0,0,0,0,0,0,0,0,0,-1,1707,869,0,0
490,155,0,0,0,0,0,0,0,0,0,-1,1714,869,0,0
497,155,0,0,0,0,0,0,0,0,0,-1,1721,869,0,0
504,155,0,0,0,0,0,0,0,0,0,-1,1728,869,0,0
511,155,0,0,0,0,0,0,0,0,0,-1,1735,869,0,0
518,155,0,0,0,0,0,0,0,0,0,-1,1742,869,0,0
525,155,0,0,0,0,0,0,0,0,0,-1,1749,869,0,0
532,155,0,0,0,0,0,0,0,0,0,-1,1756,869,0,0
539,155,0,0,0,0,0,0,0,0,0,-1,1763,869,0,0
546,155,0,0,0,0,0,0,0,0,0,-1,1770,869,0,0
553,155,0,0,0,0,0,0,0,0,0,-1,1777,869,0,0
560,155,0,0,0,0,0,0,0,0,0,-1,1784,869,0,0
567,155,0,0,0,0,0,0,0,0,0,-1,1791,869,0,0
574,155,0,0,0,0,0,0,0,0,0,-1,1798,869,0,0
581,155,0,0,0,0,0,0,0,0,0,-1,1805,869,0,0
588,155,0,0,0,0,0,0,0,0,0,-1,1812,869,0,0
595,155,0,0,0,0,0,0,0,0,0,-1,1819,869,0,0
602,155,0,0,0,0,0,0,0,0,0,-1,1826,869,0,0
609,155,0,0,0,0,0,0,0,0,0,-1,1833,869,0,0
616,155,0.0784912,-0.0996094,-0.00456834,-0.000692958,0.000869444,-0.000506836,-0.00475446,1.35991,0.00301493,0.0388441,1840,869,0.0784369,0.0996323
623,155,0.0134277,0.0196533,-0.00327262,-0.000808092,0.000328614,-0.000765028,-0.00331568,1.44049,0.00200471,0.0387595,1847,869,0.013476,-0.019647
630,155,-0.0377197,0.11853,-0.00251719,-0.000864295,0.000139687,-0.000852573,-0.00252891,1.48708,0.00148567,0.0384155,1854,869,-0.0376932,-0.118539
637,155,-0.0900879,0.14978,-0.00181842,-0.000870369,2.02972e-05,-0.000869935,-0.00181886,1.5494,0.00105045,0.0356826,1861,869,-0.0901313,-0.149777
644,155,-0.0866699,0.0193481,-0.00127174,-0.000823072,-6.59547e-05,-0.000813577,-0.00128124,-1.42782,0.000748655,0.0305041,1868,869,-0.0866423,-0.0193399
651,155,-0.0722656,-0.0363159,-0.000863524,-0.000739015,-0.00011906,-0.000666916,-0.000935624,-1.02629,0.000556252,0.0279994,1875,869,-0.072264,0.0362904
658,155,-0.0821533,-0.0367432,-0.000586975,-0.00064332,-0.000151985,-0.000460573,-0.000769722,-0.693758,0.000447256,0.0256723,1882,869,-0.082194,0.0367469
665,155,-0.0842285,-0.0374756,-0.000376418,-0.000481652,-0.000173571,-0.000247664,-0.000610406,-0.638229,0.0003545,0.0310125,1889,869,-0.0842595,0.0374974
672,155,-0.105835,0.00793457,-0.000234657,-0.000395287,-0.000157178,-0.000138464,-0.000491481,-0.549201,0.000292631,0.0367548,1896,869,-0.105836,-0.00793544
679,155,-0.0893555,0.0753174,-0.0001366,-0.000300983,-0.000152846,-4.52479e-05,-0.000392336,-0.538707,0.000247855,0.0328231,1903,869,-0.0893468,-0.0753044
686,155,-0.0361328,0.00622559,-6.05255e-05,-0.000217194,-0.0001768,5.45171e-05,-0.000332236,-0.576862,0.000241721,0.0232663,1910,869,-0.036142,-0.00622976
693,155,-0.0935059,-0.0272217,-1.29867e-05,-0.000141822,-0.000116038,5.53152e-05,-0.000210124,-0.532007,0.000161706,0.0141877,1917,869,-0.0934556,0.027238
700,155,-0.0905762,-0.0315552,-3.19194e-06,-2.37387e-05,-0.000101854,8.8905e-05,-0.000115836,-0.735136,0.000118547,0.0129148,1924,869,-0.0905641,0.0315602
707,155,-0.067627,-0.0355835,0.000126063,6.04091e-05,-0.000173073,0.000269394,-8.29222e-05,-0.691676,0.000212695,0.00988792,1931,869,-0.067667,0.0355794
714,155,-0.0782471,-0.0604248,0.000757539,-0.000216416,-0.000281753,0.000833174,-0.00029205,-0.262259,0.000674224,0.0171265,1938,869,-0.0781886,0.0604262
721,155,-0.119751,-0.0357056,0.00205855,-0.000850391,-0.000361482,0.0021028,-0.000894637,-0.121798,0.00177681,0.0230791,1945,869,-0.119699,0.0357042
728,155,-0.115234,-0.0319214,0.00447475,-0.0012341,-0.000885316,0.00460889,-0.00136824,-0.150374,0.00361601,0.0172907,1952,869,-0.115184,0.0319493
735,155,-0.0871582,-0.0368652,0.00751496,-0.00186119,-0.00186688,0.00787301,-0.00221923,-0.189485,0.00612395,0.013774,1959,869,-0.087181,0.0368475
742,155,-0.067627,-0.0401611,0.0111194,-0.00210957,-0.00296489,0.0117535,-0.00274367,-0.210696,0.00889244,0.014563,1966,869,-0.0676841,0.0401762
749,155,-0.0866699,-0.0357666,0.0159199,-0.00272414,-0.00436946,0.0168932,-0.00369737,-0.219157,0.0126756,0.0113954,1973,869,-0.0867113,0.0357483
756,155,-0.0739746,-0.0565186,0.0220106,-0.00327041,-0.00629441,0.023491,-0.00475089,-0.231006,0.0174611,0.0208559,1980,869,-0.0739638,0.056489
763,155,0.0853271,0.00585938,0.0296025,-0.00356451,-0.00891833,0.0318485,-0.00581048,-0.246707,0.0234108,0.0402663,1987,869,0.0853081,-0.00587235
770,155,0.524902,-0.21051,0.0388137,-0.00330853,-0.0124584,0.0422226,-0.00671742,-0.267085,0.0306341,0.043985,1994,869,0.524843,0.21051
777,155,0.932617,-0.353088,0.0497199,-0.00203581,-0.0172004,0.0549148,-0.00723073,-0.293312,0.0392428,0.0436399,2001,869,0.932615,0.353076
784,155,1.71558,-1.047,0.0623738,0.00101629,-0.023602,0.0704022,-0.00701207,-0.327878,0.0494382,0.0441136,2008,869,1.71563,1.04698
791,155,0,0,0,0,0,0,0,0,0,-1,2015,869,0,0
798,155,0,0,0,0,0,0,0,0,0,-1,2022,869,0,0
805,155,0,0,0,0,0,0,0,0,0,-1,2029,869,0,0
812,155,0,0,0,0,0,0,0,0,0,-1,2036,869,0,0
-700,148,0,0,0,0,0,0,0,0,0,-1,524,876,0,0
-693,148,0,0,0,0,0,0,0,0,0,-1,531,876,0,0
-686,148,0,0,0,0,0,0,0,0,0,-1,538,876,0,0
-679,148,0,0,0,0,0,0,0,0,0,-1,545,876,0,0
-672,148,-0.38269,0.498901,0,0,0,0,0,0,0,-1,552,876,-0.382689,-0.498908
-665,148,0.0658569,0.804688,0,0,0,0,0,0,0,-1,559,876,0.0658366,-0.804666
-658,148,0.605896,0.995056,0,0,0,0,0,0,0,-1,566,876,0.605898,-0.995054
-651,148,0.638245,0.0387573,0.0131296,-0.0205369,0.00283447,0.0133665,-0.0207739,0.0834104,0.019865,0.0428434,573,876,0.638229,-0.038744
-644,148,0.29895,-0.472595,0.00952144,-0.0151101,0.0031842,0.00992641,-0.015515,0.126503,0.0148063,0.0443821,580,876,0.298946,0.472604
-637,148,-0.0172729,-0.116882,0,0,0,0,0,0,0,-1,587,876,-0.0172539,0.116877
-630,148,-0.0386963,-0.0981445,0.00503138,-0.00708264,0.00320503,0.00582708,-0.00787834,0.243345,0.00794232,0.0416826,594,876,-0.0387257,0.0981705
-623,148,-0.0665283,-0.0778198,0.0033075,-0.00501932,0.00301534,0.00428474,-0.00599656,0.313407,0.00596327,0.021482,601,876,-0.0665315,0.0778305
-616,148,-0.081543,-0.0610962,0.00206171,-0.00253873,0.00240693,0.0030908,-0.00356782,0.404031,0.00384765,0.0113371,608,876,-0.081528,0.0610982
-609,148,-0.086792,-0.069458,0.00150679,-0.000885949,0.00196402,0.00261013,-0.00198929,0.51184,0.00266353,0.0103392,615,876,-0.0867941,0.0694358
-602,148,-0.0802002,-0.0657959,0.000958258,4.76925e-06,0.00184137,0.0023836,-0.00142057,0.658726,0.00221967,0.0102981,622,876,-0.0801913,0.0657695
-595,148,-0.0822144,-0.0518188,0.000691717,0.000235379,0.00147558,0.00195667,-0.00102957,0.708691,0.00175158,0.00901375,629,876,-0.082198,0.0518475
-588,148,-0.0872803,-0.0352173,0.000747324,0.000864459,0.000868009,0.00167587,-6.40912e-05,0.819084,0.00113921,0.0122252,636,876,-0.0872596,0.0351946
-581,148,-0.0706177,-0.0418091,0.000557623,0.000503388,0.000540306,0.00107149,-1.04799e-05,0.760325,0.000717846,0.0158857,643,876,-0.070593,0.0418165
-574,148,-0.0574341,-0.0274658,0.000242097,0.000153153,0.000434949,0.000634842,-0.000239593,0.734452,0.000521763,0.0223572,650,876,-0.0574488,0.027454
-567,148,-0.0740967,-0.0317993,0.000147848,9.29816e-05,0.000401781,0.000523131,-0.000282302,0.751312,0.000471895,0.0273402,657,876,-0.0740846,0.0317955
-560,148,-0.121948,-0.0674438,0.00030964,7.95818e-05,0.000585268,0.000791076,-0.000401854,0.688364,0.000700852,0.0251199,664,876,-0.121946,0.0674625
-553,148,-0.186951,-0.113647,0.000492406,0.000120444,0.000790776,0.00111878,-0.000505927,0.669903,0.00096001,0.0337633,671,876,-0.186947,0.113628
-546,148,-0.118164,-0.0569458,0.000643132,0.0001601,0.00103757,0.00146692,-0.000663692,0.671049,0.00125891,0.0382225,678,876,-0.118167,0.0569226
-539,148,-0.078064,-0.0460205,0.000856907,0.000240894,0.00125564,0.00184177,-0.000743969,0.665124,0.00153707,0.031318,685,876,-0.0780922,0.0460237
-532,148,-0.0952759,-0.0126953,0.00112359,0.000317711,0.00145395,0.0022294,-0.0007881,0.650223,0.00180719,0.0295069,692,876,-0.0952681,0.0126985
-525,148,-0.0626221,0.0647583,0.00144839,0.000421197,0.0015851,0.00260103,-0.000731441,0.628728,0.00202241,0.0325169,699,876,-0.0626437,-0.0647345
-518,148,-0.130371,0.00610352,0.00184373,0.000557703,0.00157517,0.00290207,-0.000500639,0.591612,0.00212138,0.0390409,706,876,-0.1304,-0.00609572
-511,148,-0.192261,-0.0916138,0.00231866,0.000739651,0.00132898,0.00307496,-1.66435e-05,0.517374,0.00205554,0.0372157,713,876,-0.192244,0.0916092
-504,148,-0.112488,-0.0197754,0.0028259,0.00100922,0.000665764,0.00304376,0.000791363,0.316248,0.00182355,0.0376176,720,876,-0.112497,0.0197585
-497,148,0,0,0,0,0,0,0,0,0,-1,727,876,0,0
-490,148,0,0,0,0,0,0,0,0,0,-1,734,876,0,0
-483,148,0,0,0,0,0,0,0,0,0,-1,741,876,0,0
-476,148,0,0,0,0,0,0,0,0,0,-1,748,876,0,0
-469,148,0,0,0,0,0,0,0,0,0,-1,755,876,0,0
-462,148,0,0,0,0,0,0,0,0,0,-1,762,876,0,0
-455,148,0,0,0,0,0,0,0,0,0,-1,769,876,0,0
-448,148,0,0,0,0,0,0,0,0,0,-1,776,876,0,0
-441,148,0,0,0,0,0,0,0,0,0,-1,783,876,0,0
-434,148,0,0,0,0,0,0,0,0,0,-1,790,876,0,0
-427,148,0,0,0,0,0,0,0,0,0,-1,797,876,0,0
-420,148,0,0,0,0,0,0,0,0,0,-1,804,876,0,0
-413,148,0,0,0,0,0,0,0,0,0,-1,811,876,0,0
-406,148,0,0,0,0,0,0,0,0,0,-1,818,876,0,0
-399,148,0,0,0,0,0,0,0,0,0,-1,825,876,0,0
-392,148,0,0,0,0,0,0,0,0,0,-1,832,876,0,0
-385,148,0,0,0,0,0,0,0,0,0,-1,839,876,0,0
-378,148,0,0,0,0,0,0,0,0,0,-1,846,876,0,0
-371,148,0,0,0,0,0,0,0,0,0,-1,853,876,0,0
-364,148,0,0,0,0,0,0,0,0,0,-1,860,876,0,0
-357,148,0,0,0,0,0,0,0,0,0,-1,867,876,0,0
-350,148,0,0,0,0,0,0,0,0,0,-1,874,876,0,0
-343,148,0,0,0,0,0,0,0,0,0,-1,881,876,0,0
-336,148,0,0,0,0,0,0,0,0,0,-1,888,876,0,0
-329,148,0,0,0,0,0,0,0,0,0,-1,895,876,0,0
-322,148,0,0,0,0,0,0,0,0,0,-1,902,876,0,0
-315,148,0,0,0,0,0,0,0,0,0,-1,909,876,0,0
-308,148,0,0,0,0,0,0,0,0,0,-1,916,876,0,0
-301,148,0,0,0,0,0,0,0,0,0,-1,923,876,0,0
-294,148,0,0,0,0,0,0,0,0,0,-1,930,876,0,0
-287,148,0,0,0,0,0,0,0,0,0,-1,937,876,0,0
-280,148,0,0,0,0,0,0,0,0,0,-1,944,876,0,0
-273,148,0,0,0,0,0,0,0,0,0,-1,951,876,0,0
-266,148,0,0,0,0,0,0,0,0,0,-1,958,876,0,0
-259,148,0,0,0,0,0,0,0,0,0,-1,965,876,0,0
-252,148,0,0,0,0,0,0,0,0,0,-1,972,876,0,0
-245,148,0,0,0,0,0,0,0,0,0,-1,979,876,0,0
-238,148,0,0,0,0,0,0,0,0,0,-1,986,876,0,0
-231,148,0,0,0,0,0,0,0,0,0,-1,993,876,0,0
-224,148,0,0,0,0,0,0,0,0,0,-1,1000,876,0,0
-217,148,0,0,0,0,0,0,0,0,0,-1,1007,876,0,0
-210,148,0,0,0,0,0,0,0,0,0,-1,1014,876,0,0
-203,148,0,0,0,0,0,0,0,0,0,-1,1021,876,0,0
-196,148,0,0,0,0,0,0,0,0,0,-1,1028,876,0,0
-189,148,0,0,0,0,0,0,0,0,0,-1,1035,876,0,0
-182,148,0,0,0,0,0,0,0,0,0,-1,1042,876,0,0
-175,148,0,0,0,0,0,0,0,0,0,-1,1049,876,0,0
-168,148,0,0,0,0,0,0,0,0,0,-1,1056,876,0,0
-161,148,0,0,0,0,0,0,0,0,0,-1,1063,876,0,0
-154,148,0,0,0,0,0,0,0,0,0,-1,1070,876,0,0
-147,148,0,0,0,0,0,0,0,0,0,-1,1077,876,0,0
-140,148,0,0,0,0,0,0,0,0,0,-1,1084,876,0,0
-133,148,0,0,0,0,0,0,0,0,0,-1,1091,876,0,0
-126,148,0,0,0,0,0,0,0,0,0,-1,1098,876,0,0
-119,148,0,0,0,0,0,0,0,0,0,-1,1105,876,0,0
-112,148,0,0,0,0,0,0,0,0,0,-1,1112,876,0,0
-105,148,0,0,0,0,0,0,0,0,0,-1,1119,876,0,0
-98,148,0,0,0,0,0,0,0,0,0,-1,1126,876,0,0
-91,148,0,0,0,0,0,0,0,0,0,-1,1133,876,0,0
-84,148,0,0,0,0,0,0,0,0,0,-1,1140,876,0,0
-77,148,0,0,0,0,0,0,0,0,0,-1,1147,876,0,0
-70,148,0,0,0,0,0,0,0,0,0,-1,1154,876,0,0
-63,148,0,0,0,0,0,0,0,0,0,-1,1161,876,0,0
-56,148,0,0,0,0,0,0,0,0,0,-1,1168,876,0,0
-49,148,0,0,0,0,0,0,0,0,0,-1,1175,876,0,0
-42,148,0,0,0,0,0,0,0,0,0,-1,1182,876,0,0
-35,148,0,0,0,0,0,0,0,0,0,-1,1189,876,0,0
-28,148,0,0,0,0,0,0,0,0,0,-1,1196,876,0,0
-21,148,0,0,0,0,0,0,0,0,0,-1,1203,876,0,0
-14,148,0,0,0,0,0,0,0,0,0,-1,1210,876,0,0
-7,148,0,0,0,0,0,0,0,0,0,-1,1217,876,0,0
0,148,0,0,0,0,0,0,0,0,0,-1,1224,876,0,0
7,148,0,0,0,0,0,0,0,0,0,-1,1231,876,0,0
14,148,0,0,0,0,0,0,0,0,0,-1,1238,876,0,0
21,148,0,0,0,0,0,0,0,0,0,-1,1245,876,0,0
28,148,0,0,0,0,0,0,0,0,0,-1,1252,876,0,0
35,148,0,0,0,0,0,0,0,0,0,-1,1259,876,0,0
42,148,0,0,0,0,0,0,0,0,0,-1,1266,876,0,0
49,148,0,0,0,0,0,0,0,0,0,-1,1273,876,0,0
56,148,0,0,0,0,0,0,0,0,0,-1,1280,876,0,0
63,148,0,0,0,0,0,0,0,0,0,-1,1287,876,0,0
70,148,0,0,0,0,0,0,0,0,0,-1,1294,876,0,0
77,148,0,0,0,0,0,0,0,0,0,-1,1301,876,0,0
84,148,0,0,0,0,0,0,0,0,0,-1,1308,876,0,0
91,148,0,0,0,0,0,0,0,0,0,-1,1315,876,0,0
98,148,0,0,0,0,0,0,0,0,0,-1,1322,876,0,0
105,148,0,0,0,0,0,0,0,0,0,-1,1329,876,0,0
112,148,0,0,0,0,0,0,0,0,0,-1,1336,876,0,0
119,148,0,0,0,0,0,0,0,0,0,-1,1343,876,0,0
126,148,0,0,0,0,0,0,0,0,0,-1,1350,876,0,0
133,148,0,0,0,0,0,0,0,0,0,-1,1357,876,0,0
140,148,0,0,0,0,0,0,0,0,0,-1,1364,876,0,0
147,148,0,0,0,0,0,0,0,0,0,-1,1371,876,0,0
154,148,0,0,0,0,0,0,0,0,0,-1,1378,876,0,0
161,148,0,0,0,0,0,0,0,0,0,-1,1385,876,0,0
168,148,0,0,0,0,0,0,0,0,0,-1,1392,876,0,0
175,148,0,0,0,0,0,0,0,0,0,-1,1399,876,0,0
182,148,0,0,0,0,0,0,0,0,0,-1,1406,876,0,0
189,148,0,0,0,0,0,0,0,0,0,-1,1413,876,0,0
196,148,0,0,0,0,0,0,0,0,0,-1,1420,876,0,0
203,148,0,0,0,0,0,0,0,0,0,-1,1427,876,0,0
210,148,0,0,0,0,0,0,0,0,0,-1,1434,876,0,0
217,148,0,0,0,0,0,0,0,0,0,-1,1441,876,0,0
224,148,0,0,0,0,0,0,0,0,0,-1,1448,876,0,0
231,148,0,0,0,0,0,0,0,0,0,-1,1455,876,0,0
238,148,0,0,0,0,0,0,0,0,0,-1,1462,876,0,0
245,148,0,0,0,0,0,0,0,0,0,-1,1469,876,0,0
252,148,0,0,0,0,0,0,0,0,0,-1,1476,876,0,0
259,148,0,0,0,0,0,0,0,0,0,-1,1483,876,0,0
266,148,0,0,0,0,0,0,0,0,0,-1,1490,876,0,0
273,148,0,0,0,0,0,0,0,0,0,-1,1497,876,0,0
280,148,0,0,0,0,0,0,0,0,0,-1,1504,876,0,0
287,148,0,0,0,0,0,0,0,0,0,-1,1511,876,0,0
294,148,0,0,0,0,0,0,0,0,0,-1,1518,876,0,0
301,148,0,0,0,0,0,0,0,0,0,-1,1525,876,0,0
308,148,0,0,0,0,0,0,0,0,0,-1,1532,876,0,0
315,148,0,0,0,0,0,0,0,0,0,-1,1539,876,0,0
322,148,0,0,0,0,0,0,0,0,0,-1,1546,876,0,0
329,148,0,0,0,0,0,0,0,0,0,-1,1553,876,0,0
336,148,0,0,0,0,0,0,0,0,0,-1,1560,876,0,0
343,148,0,0,0,0,0,0,0,0,0,-1,1567,876,0,0
350,148,0,0,0,0,0,0,0,0,0,-1,1574,876,0,0
357,148,0,0,0,0,0,0,0,0,0,-1,1581,876,0,0
364,148,0,0,0,0,0,0,0,0,0,-1,1588,876,0,0
371,148,0,0,0,0,0,0,0,0,0,-1,1595,876,0,0
378,148,0,0,0,0,0,0,0,0,0,-1,1602,876,0,0
385,148,0,0,0,0,0,0,0,0,0,-1,1609,876,0,0
392,148,0,0,0,0,0,0,0,0,0,-1,1616,876,0,0
399,148,0,0,0,0,0,0,0,0,0,-1,1623,876,0,0
406,148,0,0,0,0,0,0,0,0,0,-1,1630,876,0,0
413,148,0,0,0,0,0,0,0,0,0,-1,1637,876,0,0
420,148,0,0,0,0,0,0,0,0,0,-1,1644,876,0,0
427,148,0,0,0,0,0,0,0,0,0,-1,1651,876,0,0
434,148,0,0,0,0,0,0,0,0,0,-1,1658,876,0,0
441,148,0,0,0,0,0,0,0,0,0,-1,1665,876,0,0
448,148,0,0,0,0,0,0,0,0,0,-1,1672,876,0,0
455,148,0,0,0,0,0,0,0,0,0,-1,1679,876,0,0
462,148,0,0,0,0,0,0,0,0,0,-1,1686,876,0,0
469,148,0,0,0,0,0,0,0,0,0,-1,1693,876,0,0
476,148,0,0,0,0,0,0,0,0,0,-1,1700,876,0,0
483,148,0,0,0,0,0,0,0,0,0,-1,1707,876,0,0
490,148,0,0,0,0,0,0,0,0,0,-1,1714,876,0,0
497,148,0,0,0,0,0,0,0,0,0,-1,1721,876,0,0
504,148,0,0,0,0,0,0,0,0,0,-1,1728,876,0,0
511,148,0,0,0,0,0,0,0,0,0,-1,1735,876,0,0
518,148,0,0,0,0,0,0,0,0,0,-1,1742,876,0,0
525,148,0,0,0,0,0,0,0,0,0,-1,1749,876,0,0
532,148,0,0,0,0,0,0,0,0,0,-1,1756,876,0,0
539,148,0,0,0,0,0,0,0,0,0,-1,1763,876,0,0
546,148,0,0,0,0,0,0,0,0,0,-1,1770,876,0,0
553,148,0,0,0,0,0,0,0,0,0,-1,1777,876,0,0
560,148,0,0,0,0,0,0,0,0,0,-1,1784,876,0,0
567,148,0,0,0,0,0,0,0,0,0,-1,1791,876,0,0
574,148,0,0,0,0,0,0,0,0,0,-1,1798,876,0,0
581,148,0,0,0,0,0,0,0,0,0,-1,1805,876,0,0
588,148,0,0,0,0,0,0,0,0,0,-1,1812,876,0,0
595,148,0,0,0,0,0,0,0,0,0,-1,1819,876,0,0
602,148,0,0,0,0,0,0,0,0,0,-1,1826,876,0,0
609,148,0,0,0,0,0,0,0,0,0,-1,1833,876,0,0
616,148,0,0,0,0,0,0,0,0,0,-1,1840,876,0,0
623,148,0.0125732,0.175415,-0.00384612,-0.000403788,0.000593537,-0.000304323,-0.00394559,1.40476,0.00253505,0.0399231,1847,876,0.012541,-0.175392
630,148,-0.0533447,0.152771,-0.00291283,-0.000420962,0.000337397,-0.000376087,-0.00295771,1.43857,0.00185917,0.0394552,1854,876,-0.0533922,-0.15276
637,148,-0.0845947,0.0825195,-0.00207305,-0.000414625,0.000153641,-0.000400512,-0.00208716,1.47919,0.00127902,0.0330163,1861,876,-0.0846191,-0.0825016
644,148,-0.0557861,-0.00384521,-0.0014208,-0.000382975,5.55849e-06,-0.000382945,-0.00142083,1.56544,0.000848871,0.0300938,1868,876,-0.0558348,0.00386125
651,148,-0.050415,-0.0436401,-0.000953133,-0.000335313,-9.53857e-05,-0.000320921,-0.000967525,-1.42105,0.000569052,0.0309213,1875,876,-0.0503636,0.0436692
658,148,-0.0980225,-0.015564,-0.000634573,-0.000282977,-0.000161452,-0.000220088,-0.000697462,-1.19935,0.000411711,0.028637,1882,876,-0.0980741,0.0155436
665,148,-0.105713,-0.0106812,-0.000405117,-0.00018236,-0.000205943,-5.96069e-05,-0.000527871,-1.03328,0.000333823,0.0211038,1889,876,-0.105696,0.0106786
672,148,-0.0683594,-0.0442505,-0.000257878,-0.0001503,-0.0002052,8.04408e-06,-0.000416222,-0.913579,0.000280201,0.022674,1896,876,-0.0683008,0.0442555
679,148,-0.0228271,-0.0917358,-0.000158046,-0.000119633,-0.000208161,7.02059e-05,-0.000347885,-0.831401,0.000258522,0.0263704,1903,876,-0.0228706,0.0917582
686,148,-0.00939941,-0.0179443,-7.34527e-05,-9.58299e-05,-0.000240909,0.000156527,-0.00032581,-0.762193,0.000284137,0.0217997,1910,876,-0.00938958,0.0179142
693,148,-0.0749512,0.0108032,-2.73182e-05,-5.53609e-05,-0.000183405,0.000142601,-0.00022528,-0.747247,0.000214176,0.0185423,1917,876,-0.0749577,-0.0107982
700,148,-0.110474,-0.0405884,-3.23731e-05,1.02556e-05,-0.000156158,0.000146547,-0.000168664,-0.853225,0.000182136,0.0118439,1924,876,-0.110447,0.0405599
707,148,-0.0900879,-0.0481567,9.57857e-05,3.70471e-05,-0.000209962,0.000278422,-0.000145589,-0.715909,0.000248775,0.0102102,1931,876,-0.0901159,0.0481642
714,148,-0.088623,-0.0514526,0.000707758,-0.000212862,-0.000329748,0.00081368,-0.000318784,-0.310812,0.000674319,0.0107953,1938,876,-0.0886175,0.0514726
721,148,-0.0837402,-0.0544434,0.00192275,-0.000696858,-0.000488659,0.00201094,-0.000785043,-0.178542,0.00166518,0.0157597,1945,876,-0.0837536,0.0544355
728,148,-0.0900879,-0.0409546,0.00416845,-0.00099892,-0.00108451,0.00438684,-0.00121731,-0.198709,0.00340368,0.0176002,1952,876,-0.0900663,0.0409553
735,148,-0.0688477,-0.0420532,0.00698851,-0.00152014,-0.00216902,0.00750954,-0.00204116,-0.235744,0.00580757,0.0151608,1959,876,-0.0689003,0.0420261
742,148,-0.0690918,-0.0332642,0.0103312,-0.0015269,-0.00352752,0.0113012,-0.00249691,-0.268351,0.00848971,0.016687,1966,876,-0.0691372,0.0332538
749,148,-0.0737305,-0.0291138,0.0148212,-0.00181987,-0.00522723,0.0163269,-0.00332559,-0.28046,0.0121459,0.013938,1973,876,-0.0737472,0.029096
756,148,-0.090332,-0.0880127,0.0204557,-0.00198046,-0.00753321,0.0227504,-0.00427514,-0.295679,0.0167746,0.0184477,1980,876,-0.0903185,0.0879924
763,148,0.305908,-0.220703,0.0274835,-0.00179465,-0.0106552,0.0309507,-0.00526183,-0.314591,0.0225929,0.0406087,1987,876,0.305891,0.220714
770,148,0.702637,-0.460022,0.0360195,-0.000977051,-0.0148138,0.0412201,-0.00617763,-0.337621,0.0297538,0.0452088,1994,876,0.70266,0.460018
777,148,1.01184,-0.575134,0.0461342,0.000900136,-0.0202697,0.0538881,-0.00685375,-0.36536,0.0384143,0.0441226,2001,876,1.01188,0.575134
784,148,1.4718,-0.906067,0.0578781,0.0044986,-0.0274058,0.069443,-0.00706633,-0.399317,0.0488215,0.0441997,2008,876,1.47175,0.906065
791,148,1.87024,-1.37701,0.0711497,0.0109226,-0.036651,0.0884716,-0.00639926,-0.441502,0.0612257,0.0462583,2015,876,1.87022,1.377
798,148,0,0,0,0,0,0,0,0,0,-1,2022,876,0,0
805,148,0,0,0,0,0,0,0,0,0,-1,2029,876,0,0
812,148,0,0,0,0,0,0,0,0,0,-1,2036,876,0,0
-700,141,0,0,0,0,0,0,0,0,0,-1,524,883,0,0
-693,141,0,0,0,0,0,0,0,0,0,-1,531,883,0,0
-686,141,0,0,0,0,0,0,0,0,0,-1,538,883,0,0
-679,141,0,0,0,0,0,0,0,0,0,-1,545,883,0,0
-672,141,-0.357483,0.601563,0.0341844,-0.0323778,-0.00207537,0.034249,-0.0324424,-0.0311391,0.038509,0.0447733,552,883,-0.3575,-0.601589
-665,141,-0.148193,0.725952,0,0,0,0,0,0,0,-1,559,883,-0.14822,-0.725959
-658,141,0.146912,0.844604,0.0197111,-0.0226479,-0.000918739,0.019731,-0.0226678,-0.0216758,0.0244985,0.0451929,566,883,0.146915,-0.844628
-651,141,0.280884,0.619812,0.0147154,-0.0180324,-0.000225005,0.0147169,-0.018034,-0.00687041,0.018941,0.0436108,573,883,0.2809,-0.619813
-644,141,0.310791,0.0143433,0.0108598,-0.0138517,0.000406728,0.0108665,-0.0138584,0.0164532,0.0143097,0.0455954,580,883,0.310789,-0.0143136
-637,141,0.0611572,-0.0457153,0.00794899,-0.0102278,0.000905609,0.007994,-0.0102728,0.0496582,0.0105737,0.0448879,587,883,0.0611312,0.045699
-630,141,-0.0106201,-0.0755005,0.00576767,-0.0072288,0.00122915,0.0058829,-0.00734403,0.0934714,0.00765208,0.0370794,594,883,-0.0106186,0.0754985
-623,141,-0.0516357,-0.0814819,0.00377283,-0.00558997,0.0014278,0.00398572,-0.00580286,0.148016,0.00568381,0.0192711,601,883,-0.0516559,0.0815075
-616,141,-0.0592041,-0.0499268,0.00231169,-0.00321491,0.00117215,0.00255002,-0.00345324,0.200591,0.00347903,0.0108472,608,883,-0.0591976,0.0499544
-609,141,-0.0802002,-0.0532837,0.00163009,-0.00156214,0.00110528,0.00197543,-0.00190747,0.302831,0.00224191,0.0117093,615,883,-0.0802255,0.0532895
-602,141,-0.0756836,-0.0535889,0.000961376,-0.00063527,0.00123133,0.00163053,-0.00130443,0.497794,0.00169798,0.0103116,622,883,-0.0756718,0.0536049
-595,141,-0.0783691,-0.053772,0.000596996,-0.000284799,0.00112623,0.00136555,-0.00105335,0.598827,0.00140043,0.00924182,629,883,-0.0783676,0.053773
-588,141,-0.0825806,-0.0302734,0.000571693,0.000391226,0.000688271,0.00117562,-0.000212701,0.720219,0.000863425,0.0125195,636,883,-0.0825785,0.0302809
-581,141,-0.0786743,-0.0263672,0.000351669,0.000176303,0.000405603,0.000678958,-0.000150986,0.678946,0.000510466,0.0173586,643,883,-0.0786878,0.0263462
-574,141,-0.0800781,-0.0237427,6.90309e-05,-4.24025e-05,0.000324791,0.000342849,-0.000316221,0.700452,0.000380618,0.0219944,650,883,-0.0800684,0.0237672
-567,141,-0.092041,-0.0109863,1.79421e-06,-4.71131e-05,0.000282369,0.000260766,-0.000306085,0.742205,0.00032762,0.0259447,657,883,-0.0920649,0.0109967
-560,141,-0.135498,-0.164551,0.000152428,-1.12396e-05,0.00040766,0.000486387,-0.000345198,0.686344,0.000482417,0.0270614,664,883,-0.135493,0.164569
-553,141,-0.164185,-0.18103,0.000338985,4.5181e-05,0.00054946,0.000760841,-0.000376675,0.654775,0.000669114,0.0335202,671,883,-0.164205,0.181001
-546,141,-0.111084,-0.0392456,0.000520224,0.000122595,0.000750172,0.00109748,-0.000454661,0.655863,0.00092139,0.0305056,678,883,-0.111066,0.0392711
-539,141,-0.0689697,-0.0541992,0.00078915,0.000265193,0.000943142,0.00150602,-0.000451679,0.649927,0.00118366,0.0256846,685,883,-0.0689825,0.0541725
-532,141,-0.0890503,-0.00238037,0.00116101,0.000446505,0.00113643,0.00199502,-0.000387507,0.633108,0.00147623,0.0249946,692,883,-0.089035,0.00236574
-525,141,-0.0632324,0.145264,0.00166673,0.000685634,0.00128174,0.00254858,-0.000196221,0.602637,0.00176809,0.033656,699,883,-0.063237,-0.145256
-518,141,-0.11969,0.144043,0.00234099,0.000996871,0.00132528,0.00315488,0.00018299,0.550738,0.00204498,0.0406578,706,883,-0.119661,-0.144073
-511,141,-0.130737,0.123596,0.0032154,0.00139066,0.0011753,0.00379089,0.000815162,0.455341,0.00230412,0.037037,713,883,-0.130751,-0.123572
-504,141,0.0490723,0.0441895,0.00424457,0.00190455,0.000626496,0.00440174,0.00174738,0.245807,0.00255927,0.0375078,720,883,0.0490994,-0.0441604
-497,141,0,0,0,0,0,0,0,0,0,-1,727,883,0,0
-490,141,0,0,0,0,0,0,0,0,0,-1,734,883,0,0
-483,141,0,0,0,0,0,0,0,0,0,-1,741,883,0,0
-476,141,0,0,0,0,0,0,0,0,0,-1,748,883,0,0
-469,141,0,0,0,0,0,0,0,0,0,-1,755,883,0,0
-462,141,0,0,0,0,0,0,0,0,0,-1,762,883,0,0
-455,141,0,0,0,0,0,0,0,0,0,-1,769,883,0,0
-448,141,0,0,0,0,0,0,0,0,0,-1,776,883,0,0
-441,141,0,0,0,0,0,0,0,0,0,-1,783,883,0,0
-434,141,0,0,0,0,0,0,0,0,0,-1,790,883,0,0
-427,141,0,0,0,0,0,0,0,0,0,-1,797,883,0,0
-420,141,0,0,0,0,0,0,0,0,0,-1,804,883,0,0
-413,141,0,0,0,0,0,0,0,0,0,-1,811,883,0,0
-406,141,0,0,0,0,0,0,0,0,0,-1,818,883,0,0
-399,141,0,0,0,0,0,0,0,0,0,-1,825,883,0,0
-392,141,0,0,0,0,0,0,0,0,0,-1,832,883,0,0
-385,141,0,0,0,0,0,0,0,0,0,-1,839,883,0,0
-378,141,0,0,0,0,0,0,0,0,0,-1,846,883,0,0
-371,141,0,0,0,0,0,0,0,0,0,-1,853,883,0,0
-364,141,0,0,0,0,0,0,0,0,0,-1,860,883,0,0
-357,141,0,0,0,0,0,0,0,0,0,-1,867,883,0,0
-350,141,0,0,0,0,0,0,0,0,0,-1,874,883,0,0
-343,141,0,0,0,0,0,0,0,0,0,-1,881,883,0,0
-336,141,0,0,0,0,0,0,0,0,0,-1,888,883,0,0
-329,141,0,0,0,0,0,0,0,0,0,-1,895,883,0,0
-322,141,0,0,0,0,0,0,0,0,0,-1,902,883,0,0
-315,141,0,0,0,0,0,0,0,0,0,-1,909,883,0,0
-308,141,0,0,0,0,0,0,0,0,0,-1,916,883,0,0
-301,141,0,0,0,0,0,0,0,0,0,-1,923,883,0,0
-294,141,0,0,0,0,0,0,0,0,0,-1,930,883,0,0
-287,141,0,0,0,0,0,0,0,0,0,-1,937,883,0,0
-280,141,0,0,0,0,0,0,0,0,0,-1,944,883,0,0
-273,141,0,0,0,0,0,0,0,0,0,-1,951,883,0,0
-266,141,0,0,0,0,0,0,0,0,0,-1,958,883,0,0
-259,141,0,0,0,0,0,0,0,0,0,-1,965,883,0,0
-252,141,0,0,0,0,0,0,0,0,0,-1,972,883,0,0
-245,141,0,0,0,0,0,0,0,0,0,-1,979,883,0,0
-238,141,0,0,0,0,0,0,0,0,0,-1,986,883,0,0
-231,141,0,0,0,0,0,0,0,0,0,-1,993,883,0,0
-224,141,0,0,0,0,0,0,0,0,0,-1,1000,883,0,0
-217,141,0,0,0,0,0,0,0,0,0,-1,1007,883,0,0
-210,141,0,0,0,0,0,0,0,0,0,-1,1014,883,0,0
-203,141,0,0,0,0,0,0,0,0,0,-1,1021,883,0,0
-196,141,0,0,0,0,0,0,0,0,0,-1,1028,883,0,0
-189,141,0,0,0,0,0,0,0,0,0,-1,1035,883,0,0
-182,141,0,0,0,0,0,0,0,0,0,-1,1042,883,0,0
-175,141,0,0,0,0,0,0,0,0,0,-1,1049,883,0,0
-168,141,0,0,0,0,0,0,0,0,0,-1,1056,883,0,0
-161,141,0,0,0,0,0,0,0,0,0,-1,1063,883,0,0
-154,141,0,0,0,0,0,0,0,0,0,-1,1070,883,0,0
-147,141,0,0,0,0,0,0,0,0,0,-1,1077,883,0,0
-140,141,0,0,0,0,0,0,0,0,0,-1,1084,883,0,0
-133,141,0,0,0,0,0,0,0,0,0,-1,1091,883,0,0
-126,141,0,0,0,0,0,0,0,0,0,-1,1098,883,0,0
-119,141,0,0,0,0,0,0,0,0,0,-1,1105,883,0,0
-112,141,0,0,0,0,0,0,0,0,0,-1,1112,883,0,0
-105,141,0,0,0,0,0,0,0,0,0,-1,1119,883,0,0
-98,141,0,0,0,0,0,0,0,0,0,-1,1126,883,0,0
-91,141,0,0,0,0,0,0,0,0,0,-1,1133,883,0,0
-84,141,0,0,0,0,0,0,0,0,0,-1,1140,883,0,0
-77,141,0,0,0,0,0,0,0,0,0,-1,1147,883,0,0
-70,141,0,0,0,0,0,0,0,0,0,-1,1154,883,0,0
-63,141,0,0,0,0,0,0,0,0,0,-1,1161,883,0,0
-56,141,0,0,0,0,0,0,0,0,0,-1,1168,883,0,0
-49,141,0,0,0,0,0,0,0,0,0,-1,1175,883,0,0
-42,141,0,0,0,0,0,0,0,0,0,-1,1182,883,0,0
-35,141,0,0,0,0,0,0,0,0,0,-1,1189,883,0,0
-28,141,0,0,0,0,0,0,0,0,0,-1,1196,883,0,0
-21,141,0,0,0,0,0,0,0,0,0,-1,1203,883,0,0
-14,141,0,0,0,0,0,0,0,0,0,-1,1210,883,0,0
-7,141,0,0,0,0,0,0,0,0,0,-1,1217,883,0,0
0,141,0,0,0,0,0,0,0,0,0,-1,1224,883,0,0
7,141,0,0,0,0,0,0,0,0,0,-1,1231,883,0,0
14,141,0,0,0,0,0,0,0,0,0,-1,1238,883,0,0
21,141,0,0,0,0,0,0,0,0,0,-1,1245,883,0,0
28,141,0,0,0,0,0,0,0,0,0,-1,1252,883,0,0
35,141,0,0,0,0,0,0,0,0,0,-1,1259,883,0,0
42,141,0,0,0,0,0,0,0,0,0,-1,1266,883,0,0
49,141,0,0,0,0,0,0,0,0,0,-1,1273,883,0,0
56,141,0,0,0,0,0,0,0,0,0,-1,1280,883,0,0
63,141,0,0,0,0,0,0,0,0,0,-1,1287,883,0,0
70,141,0,0,0,0,0,0,0,0,0,-1,1294,883,0,0
77,141,0,0,0,0,0,0,0,0,0,-1,1301,883,0,0
84,141,0,0,0,0,0,0,0,0,0,-1,1308,883,0,0
91,141,0,0,0,0,0,0,0,0,0,-1,1315,883,0,0
98,141,0,0,0,0,0,0,0,0,0,-1,1322,883,0,0
105,141,0,0,0,0,0,0,0,0,0,-1,1329,883,0,0
112,141,0,0,0,0,0,0,0,0,0,-1,1336,883,0,0
119,141,0,0,0,0,0,0,0,0,0,-1,1343,883,0,0
126,141,0,0,0,0,0,0,0,0,0,-1,1350,883,0,0
133,141,0,0,0,0,0,0,0,0,0,-1,1357,883,0,0
140,141,0,0,0,0,0,0,0,0,0,-1,1364,883,0,0
147,141,0,0,0,0,0,0,0,0,0,-1,1371,883,0,0
154,141,0,0,0,0,0,0,0,0,0,-1,1378,883,0,0
161,141,0,0,0,0,0,0,0,0,0,-1,1385,883,0,0
168,141,0,0,0,0,0,0,0,0,0,-1,1392,883,0,0
175,141,0,0,0,0,0,0,0,0,0,-1,1399,883,0,0
182,141,0,0,0,0,0,0,0,0,0,-1,1406,883,0,0
189,141,0,0,0,0,0,0,0,0,0,-1,1413,883,0,0
196,141,0,0,0,0,0,0,0,0,0,-1,1420,883,0,0
203,141,0,0,0,0,0,0,0,0,0,-1,1427,883,0,0
210,141,0,0,0,0,0,0,0,0,0,-1,1434,883,0,0
217,141,0,0,0,0,0,0,0,0,0,-1,1441,883,0,0
224,141,0,0,0,0,0,0,0,0,0,-1,1448,883,0,0
231,141,0,0,0,0,0,0,0,0,0,-1,1455,883,0,0
238,141,0,0,0,0,0,0,0,0,0,-1,1462,883,0,0
245,141,0,0,0,0,0,0,0,0,0,-1,1469,883,0,0
252,141,0,0,0,0,0,0,0,0,0,-1,1476,883,0,0
259,141,0,0,0,0,0,0,0,0,0,-1,1483,883,0,0
266,141,0,0,0,0,0,0,0,0,0,-1,1490,883,0,0
273,141,0,0,0,0,0,0,0,0,0,-1,1497,883,0,0
280,141,0,0,0,0,0,0,0,0,0,-1,1504,883,0,0
287,141,0,0,0,0,0,0,0,0,0,-1,1511,883,0,0
294,141,0,0,0,0,0,0,0,0,0,-1,1518,883,0,0
301,141,0,0,0,0,0,0,0,0,0,-1,1525,883,0,0
308,141,0,0,0,0,0,0,0,0,0,-1,1532,883,0,0
315,141,0,0,0,0,0,0,0,0,0,-1,1539,883,0,0
322,141,0,0,0,0,0,0,0,0,0,-1,1546,883,0,0
329,141,0,0,0,0,0,0,0,0,0,-1,1553,883,0,0
336,141,0,0,0,0,0,0,0,0,0,-1,1560,883,0,0
343,141,0,0,0,0,0,0,0,0,0,-1,1567,883,0,0
350,141,0,0,0,0,0,0,0,0,0,-1,1574,883,0,0
357,141,0,0,0,0,0,0,0,0,0,-1,1581,883,0,0
364,141,0,0,0,0,0,0,0,0,0,-1,1588,883,0,0
371,141,0,0,0,0,0,0,0,0,0,-1,1595,883,0,0
378,141,0,0,0,0,0,0,0,0,0,-1,1602,883,0,0
385,141,0,0,0,0,0,0,0,0,0,-1,1609,883,0,0
392,141,0,0,0,0,0,0,0,0,0,-1,1616,883,0,0
399,141,0,0,0,0,0,0,0,0,0,-1,1623,883,0,0
406,141,0,0,0,0,0,0,0,0,0,-1,1630,883,0,0
413,141,0,0,0,0,0,0,0,0,0,-1,1637,883,0,0
420,141,0,0,0,0,0,0,0,0,0,-1,1644,883,0,0
427,141,0,0,0,0,0,0,0,0,0,-1,1651,883,0,0
434,141,0,0,0,0,0,0,0,0,0,-1,1658,883,0,0
441,141,0,0,0,0,0,0,0,0,0,-1,1665,883,0,0
448,141,0,0,0,0,0,0,0,0,0,-1,1672,883,0,0
455,141,0,0,0,0,0,0,0,0,0,-1,1679,883,0,0
462,141,0,0,0,0,0,0,0,0,0,-1,1686,883,0,0
469,141,0,0,0,0,0,0,0,0,0,-1,1693,883,0,0
476,141,0,0,0,0,0,0,0,0,0,-1,1700,883,0,0
483,141,0,0,0,0,0,0,0,0,0,-1,1707,883,0,0
490,141,0,0,0,0,0,0,0,0,0,-1,1714,883,0,0
497,141,0,0,0,0,0,0,0,0,0,-1,1721,883,0,0
504,141,0,0,0,0,0,0,0,0,0,-1,1728,883,0,0
511,141,0,0,0,0,0,0,0,0,0,-1,1735,883,0,0
518,141,0,0,0,0,0,0,0,0,0,-1,1742,883,0,0
525,141,0,0,0,0,0,0,0,0,0,-1,1749,883,0,0
532,141,0,0,0,0,0,0,0,0,0,-1,1756,883,0,0
539,141,0,0,0,0,0,0,0,0,0,-1,1763,883,0,0
546,141,0,0,0,0,0,0,0,0,0,-1,1770,883,0,0
553,141,0,0,0,0,0,0,0,0,0,-1,1777,883,0,0
560,141,0,0,0,0,0,0,0,0,0,-1,1784,883,0,0
567,141,0,0,0,0,0,0,0,0,0,-1,1791,883,0,0
574,141,0,0,0,0,0,0,0,0,0,-1,1798,883,0,0
581,141,0,0,0,0,0,0,0,0,0,-1,1805,883,0,0
588,141,0,0,0,0,0,0,0,0,0,-1,1812,883,0,0
595,141,0,0,0,0,0,0,0,0,0,-1,1819,883,0,0
602,141,0,0,0,0,0,0,0,0,0,-1,1826,883,0,0
609,141,0,0,0,0,0,0,0,0,0,-1,1833,883,0,0
616,141,0,0,0,0,0,0,0,0,0,-1,1840,883,0,0
623,141,0,0.159546,-0.00463024,-8.73588e-05,0.00102921,0.000134934,-0.00485254,1.35808,0.00328093,0.0397516,1847,883,8.84586e-06,-0.159541
630,141,-0.0446777,0.0258179,-0.00338935,-0.000147561,0.000626399,-3.07345e-05,-0.00350617,1.38641,0.00232727,0.0397936,1854,883,-0.0446341,-0.0258148
637,141,-0.0378418,-0.0441284,-0.00233122,-0.000177468,0.000322271,-0.00013028,-0.00237841,1.42541,0.00154401,0.0364133,1861,883,-0.0377821,0.0441076
644,141,0.0113525,-0.124634,-0.00153439,-0.000183282,8.0959e-05,-0.000178448,-0.00153922,1.51116,0.00097214,0.0329132,1868,883,0.0114085,0.124609
651,141,0.00402832,-0.0929565,-0.000993713,-0.000172865,-8.35822e-05,-0.00016444,-0.00100214,-1.47035,0.000620583,0.0331335,1875,883,0.00408228,0.0929363
658,141,-0.046875,-0.019104,-0.000631447,-0.000151899,-0.000192302,-8.43103e-05,-0.000699036,-1.23281,0.000440617,0.0326349,1882,883,-0.0468465,0.0190973
665,141,-0.0955811,-0.00396729,-0.000389515,-8.91111e-05,-0.000258171,5.93724e-05,-0.000537998,-1.04886,0.000380005,0.0222147,1889,883,-0.0955328,0.00396643
672,141,-0.0739746,-0.0352173,-0.000246379,-7.66954e-05,-0.000267751,0.000119334,-0.000442409,-0.938828,0.000341734,0.0136255,1896,883,-0.0740051,0.0352396
679,141,-0.0418701,-0.0689087,-0.000156012,-7.43154e-05,-0.000271425,0.000159318,-0.000389646,-0.860085,0.000326111,0.0125845,1903,883,-0.041828,0.0689106
686,141,-0.00842285,-0.110596,-7.20123e-05,-7.44142e-05,-0.000309649,0.000236438,-0.000382865,-0.783459,0.000360871,0.027587,1910,883,-0.00843609,0.110594
693,141,-0.0822754,0.0010376,-3.30503e-05,-4.92063e-05,-0.0002545,0.0002135,-0.000295756,-0.769533,0.000295295,0.0266133,1917,883,-0.0822242,-0.00103034
700,141,-0.0919189,-0.0142212,-5.80157e-05,-4.39402e-06,-0.000213532,0.000184003,-0.000246413,-0.847851,0.00024937,0.0121282,1924,883,-0.0918976,0.0142517
707,141,-0.0806885,-0.0602417,6.59775e-05,-6.42405e-05,-0.000235904,0.000245592,-0.000243855,-0.650751,0.000282583,0.010894,1931,883,-0.0806874,0.0602249
714,141,-0.0914307,-0.0622559,0.00064281,-0.000304904,-0.000355843,0.000761545,-0.000423639,-0.322054,0.000693474,0.011725,1938,883,-0.0914084,0.0622821
721,141,-0.0750732,-0.0499878,0.0017543,-0.000701024,-0.000581335,0.00188499,-0.000831708,-0.221124,0.0016073,0.0109132,1945,883,-0.0750913,0.0499778
728,141,-0.0895996,-0.0632935,0.00378625,-0.000999497,-0.00120012,0.00407034,-0.00128358,-0.232438,0.00322765,0.0124884,1952,883,-0.0896523,0.0632854
735,141,-0.0992432,-0.0606689,0.00631984,-0.00152796,-0.00230459,0.00694655,-0.00215468,-0.265522,0.00549201,0.0122574,1959,883,-0.0991852,0.0606538
742,141,-0.0787354,-0.0314941,0.00931734,-0.00146869,-0.00380611,0.0105252,-0.00267652,-0.307287,0.0080585,0.013453,1966,883,-0.0787678,0.0314737
749,141,-0.0665283,-0.0289917,0.01336,-0.00166402,-0.00564665,0.0152456,-0.00354961,-0.322289,0.0115305,0.0124515,1973,883,-0.0664756,0.0290178
756,141,-0.112915,-0.078064,0.0183793,-0.00169772,-0.00813516,0.0212618,-0.00458022,-0.340524,0.0159224,0.019111,1980,883,-0.112918,0.0780615
763,141,0.137085,-0.224609,0.0246274,-0.00134315,-0.0114951,0.0289844,-0.00570018,-0.362301,0.0214767,0.0415776,1987,883,0.137104,0.224638
770,141,0.471436,-0.360901,0.0322038,-0.000322158,-0.0159455,0.0387167,-0.00683509,-0.38777,0.0283654,0.0451657,1994,883,0.471462,0.360919
777,141,0.818848,-0.560791,0.0411648,0.00177697,-0.0217375,0.0508029,-0.00786116,-0.417341,0.0367702,0.0452014,2001,883,0.818809,0.560789
784,141,1.07166,-0.743347,0,0,0,0,0,0,0,-1,2008,883,1.07161,0.74332
791,141,1.74353,-2.16577,0,0,0,0,0,0,0,-1,2015,883,1.74359,2.16578
798,141,0,0,0,0,0,0,0,0,0,-1,2022,883,0,0
805,141,0,0,0,0,0,0,0,0,0,-1,2029,883,0,0
812,141,0,0,0,0,0,0,0,0,0,-1,2036,883,0,0
-700,134,0,0,0,0,0,0,0,0,0,-1,524,890,0,0
-693,134,0,0,0,0,0,0,0,0,0,-1,531,890,0,0
-686,134,0,0,0,0,0,0,0,0,0,-1,538,890,0,0
-679,134,0,0,0,0,0,0,0,0,0,-1,545,890,0,0
-672,134,-0.468872,0.661682,0,0,0,0,0,0,0,-1,552,890,-0.468888,-0.661707
-665,134,-0.7005,0.996338,0,0,0,0,0,0,0,-1,559,890,-0.700505,-0.996356
-658,134,-0.354187,0.905151,0.0207716,-0.0162711,-0.00236281,0.0209217,-0.0164212,-0.0634433,0.0216121,0.0434907,566,890,-0.354198,-0.905168
-651,134,-0.0407715,0.80658,0.0157437,-0.0136086,-0.0018467,0.0158594,-0.0137243,-0.0625863,0.017095,0.0420511,573,890,-0.0408012,-0.806591
-644,134,-0.0828247,0.165649,0.0117547,-0.0109581,-0.0012429,0.0118225,-0.0110259,-0.0545055,0.0131942,0.0453879,580,890,-0.0828113,-0.165669
-637,134,-0.0264282,0.143188,0.00865228,-0.0084842,-0.000660751,0.00867772,-0.00850964,-0.038482,0.00992329,0.0440369,587,890,-0.026454,-0.143216
-630,134,-0.0132446,-0.0176392,0.00626264,-0.00630523,-0.000177077,0.00626514,-0.00630772,-0.014086,0.00725896,0.0345481,594,890,-0.0132631,0.0176325
-623,134,-0.043457,-0.0751953,0.00409112,-0.00529407,0.000202263,0.00409548,-0.00529843,0.021538,0.00543838,0.0181748,601,890,-0.0434299,0.0751849
-616,134,-0.0667725,-0.0512085,0.00247339,-0.0032807,0.000145383,0.00247706,-0.00328438,0.0252446,0.00333723,0.0110973,608,890,-0.0667432,0.051218
-609,134,-0.0828247,-0.0408325,0.00169578,-0.00180676,0.000342393,0.00172894,-0.00183991,0.096538,0.00206081,0.0110624,615,890,-0.0828062,0.040829
-602,134,-0.0812988,-0.0479126,0.000940963,-0.000970054,0.000642956,0.00113714,-0.00116624,0.296151,0.00132989,0.0110758,622,890,-0.0812797,0.0478938
-595,134,-0.0852051,-0.0532837,0.000493378,-0.000667075,0.00071836,0.000836571,-0.00101027,0.445686,0.00106784,0.00999496,629,890,-0.0852203,0.0532922
-588,134,-0.0693359,-0.0331421,0.000398308,-2.13535e-05,0.000450347,0.000685308,-0.000308354,0.567386,0.00058729,0.0152668,636,890,-0.0693464,0.0331125
-581,134,-0.0670776,-0.0150757,0.000176541,-0.000157931,0.000241295,0.000302888,-0.000284279,0.482366,0.000339058,0.0198925,643,890,-0.0670793,0.0150468
-574,134,-0.0741577,-0.0249023,-5.44784e-05,-0.000288869,0.000215896,7.39799e-05,-0.000417327,0.536736,0.000305875,0.0212132,650,890,-0.0741396,0.0248848
-567,134,-0.098938,-0.0142212,-6.20223e-05,-0.000270316,0.000196826,5.6512e-05,-0.00038885,0.542058,0.000279978,0.0200912,657,890,-0.0989353,0.0142007
-560,134,-0.13501,-0.0910034,0.000108463,-0.000220088,0.000297721,0.000284223,-0.000395848,0.533295,0.000394399,0.0296916,664,890,-0.134981,0.0909896
-553,134,-0.165161,-0.208679,0.000324754,-0.000179786,0.000393507,0.000539911,-0.000394943,0.500358,0.000541897,0.0362231,671,890,-0.165153,0.208661
-546,134,-0.0862427,-0.0507202,0.000555711,-8.98201e-05,0.000546303,0.000867473,-0.000401582,0.518578,0.000748966,0.0231037,678,890,-0.0862642,0.0507106
-539,134,-0.0820923,-0.041687,0.000900045,9.72077e-05,0.000697515,0.0013034,-0.000306149,0.524294,0.000986941,0.0159143,685,890,-0.0820938,0.0416588
-532,134,-0.108521,-0.0192871,0.00139371,0.000377034,0.00084873,0.00187469,-0.000103946,0.515578,0.00128584,0.020859,692,890,-0.108517,0.019278
-525,134,-0.126587,0.138489,0.00207894,0.000779891,0.000961862,0.00259005,0.000268787,0.488427,0.00164444,0.0326859,699,890,-0.126578,-0.138478
-518,134,-0.186218,0.28656,0.00301196,0.00133169,0.000991589,0.00347147,0.000872177,0.433946,0.0020853,0.0389364,706,890,-0.186198,-0.286584
-511,134,-0.154358,0.318298,0.00425313,0.00205372,0.000844059,0.00453971,0.00176714,0.327313,0.00264234,0.0403077,713,890,-0.15438,-0.318292
-504,134,0,0,0,0,0,0,0,0,0,-1,720,890,0,0
-497,134,0,0,0,0,0,0,0,0,0,-1,727,890,0,0
-490,134,0,0,0,0,0,0,0,0,0,-1,734,890,0,0
-483,134,0,0,0,0,0,0,0,0,0,-1,741,890,0,0
-476,134,0,0,0,0,0,0,0,0,0,-1,748,890,0,0
-469,134,0,0,0,0,0,0,0,0,0,-1,755,890,0,0
-462,134,0,0,0,0,0,0,0,0,0,-1,762,890,0,0
-455,134,0,0,0,0,0,0,0,0,0,-1,769,890,0,0
-448,134,0,0,0,0,0,0,0,0,0,-1,776,890,0,0
-441,134,0,0,0,0,0,0,0,0,0,-1,783,890,0,0
-434,134,0,0,0,0,0,0,0,0,0,-1,790,890,0,0
-427,134,0,0,0,0,0,0,0,0,0,-1,797,890,0,0
-420,134,0,0,0,0,0,0,0,0,0,-1,804,890,0,0
-413,134,0,0,0,0,0,0,0,0,0,-1,811,890,0,0
-406,134,0,0,0,0,0,0,0,0,0,-1,818,890,0,0
-399,134,0,0,0,0,0,0,0,0,0,-1,825,890,0,0
-392,134,0,0,0,0,0,0,0,0,0,-1,832,890,0,0
-385,134,0,0,0,0,0,0,0,0,0,-1,839,890,0,0
-378,134,0,0,0,0,0,0,0,0,0,-1,846,890,0,0
-371,134,0,0,0,0,0,0,0,0,0,-1,853,890,0,0
-364,134,0,0,0,0,0,0,0,0,0,-1,860,890,0,0
-357,134,0,0,0,0,0,0,0,0,0,-1,867,890,0,0
-350,134,0,0,0,0,0,0,0,0,0,-1,874,890,0,0
-343,134,0,0,0,0,0,0,0,0,0,-1,881,890,0,0
-336,134,0,0,0,0,0,0,0,0,0,-1,888,890,0,0
-329,134,0,0,0,0,0,0,0,0,0,-1,895,890,0,0
-322,134,0,0,0,0,0,0,0,0,0,-1,902,890,0,0
-315,134,0,0,0,0,0,0,0,0,0,-1,909,890,0,0
-308,134,0,0,0,0,0,0,0,0,0,-1,916,890,0,0
-301,134,0,0,0,0,0,0,0,0,0,-1,923,890,0,0
-294,134,0,0,0,0,0,0,0,0,0,-1,930,890,0,0
-287,134,0,0,0,0,0,0,0,0,0,-1,937,890,0,0
-280,134,0,0,0,0,0,0,0,0,0,-1,944,890,0,0
-273,134,0,0,0,0,0,0,0,0,0,-1,951,890,0,0
-266,134,0,0,0,0,0,0,0,0,0,-1,958,890,0,0
-259,134,0,0,0,0,0,0,0,0,0,-1,965,890,0,0
-252,134,0,0,0,0,0,0,0,0,0,-1,972,890,0,0
-245,134,0,0,0,0,0,0,0,0,0,-1,979,890,0,0
-238,134,0,0,0,0,0,0,0,0,0,-1,986,890,0,0
-231,134,0,0,0,0,0,0,0,0,0,-1,993,890,0,0
-224,134,0,0,0,0,0,0,0,0,0,-1,1000,890,0,0
-217,134,0,0,0,0,0,0,0,0,0,-1,1007,890,0,0
-210,134,0,0,0,0,0,0,0,0,0,-1,1014,890,0,0
-203,134,0,0,0,0,0,0,0,0,0,-1,1021,890,0,0
-196,134,0,0,0,0,0,0,0,0,0,-1,1028,890,0,0
-189,134,0,0,0,0,0,0,0,0,0,-1,1035,890,0,0
-182,134,0,0,0,0,0,0,0,0,0,-1,1042,890,0,0
-175,134,0,0,0,0,0,0,0,0,0,-1,1049,890,0,0
-168,134,0,0,0,0,0,0,0,0,0,-1,1056,890,0,0
-161,134,0,0,0,0,0,0,0,0,0,-1,1063,890,0,0
-154,134,0,0,0,0,0,0,0,0,0,-1,1070,890,0,0
-147,134,0,0,0,0,0,0,0,0,0,-1,1077,890,0,0
-140,134,0,0,0,0,0,0,0,0,0,-1,1084,890,0,0
-133,134,0,0,0,0,0,0,0,0,0,-1,1091,890,0,0
-126,134,0,0,0,0,0,0,0,0,0,-1,1098,890,0,0
-119,134,0,0,0,0,0,0,0,0,0,-1,1105,890,0,0
-112,134,0,0,0,0,0,0,0,0,0,-1,1112,890,0,0
-105,134,0,0,0,0,0,0,0,0,0,-1,1119,890,0,0
-98,134,0,0,0,0,0,0,0,0,0,-1,1126,890,0,0
-91,134,0,0,0,0,0,0,0,0,0,-1,1133,890,0,0
-84,134,0,0,0,0,0,0,0,0,0,-1,1140,890,0,0
-77,134,0,0,0,0,0,0,0,0,0,-1,1147,890,0,0
-70,134,0,0,0,0,0,0,0,0,0,-1,1154,890,0,0
-63,134,0,0,0,0,0,0,0,0,0,-1,1161,890,0,0
-56,134,0,0,0,0,0,0,0,0,0,-1,1168,890,0,0
-49,134,0,0,0,0,0,0,0,0,0,-1,1175,890,0,0
-42,134,0,0,0,0,0,0,0,0,0,-1,1182,890,0,0
-35,134,0,0,0,0,0,0,0,0,0,-1,1189,890,0,0
-28,134,0,0,0,0,0,0,0,0,0,-1,1196,890,0,0
-21,134,0,0,0,0,0,0,0,0,0,-1,1203,890,0,0
-14,134,0,0,0,0,0,0,0,0,0,-1,1210,890,0,0
-7,134,0,0,0,0,0,0,0,0,0,-1,1217,890,0,0
0,134,0,0,0,0,0,0,0,0,0,-1,1224,890,0,0
7,134,0,0,0,0,0,0,0,0,0,-1,1231,890,0,0
14,134,0,0,0,0,0,0,0,0,0,-1,1238,890,0,0
21,134,0,0,0,0,0,0,0,0,0,-1,1245,890,0,0
28,134,0,0,0,0,0,0,0,0,0,-1,1252,890,0,0
35,134,0,0,0,0,0,0,0,0,0,-1,1259,890,0,0
42,134,0,0,0,0,0,0,0,0,0,-1,1266,890,0,0
49,134,0,0,0,0,0,0,0,0,0,-1,1273,890,0,0
56,134,0,0,0,0,0,0,0,0,0,-1,1280,890,0,0
63,134,0,0,0,0,0,0,0,0,0,-1,1287,890,0,0
70,134,0,0,0,0,0,0,0,0,0,-1,1294,890,0,0
77,134,0,0,0,0,0,0,0,0,0,-1,1301,890,0,0
84,134,0,0,0,0,0,0,0,0,0,-1,1308,890,0,0
91,134,0,0,0,0,0,0,0,0,0,-1,1315,890,0,0
98,134,0,0,0,0,0,0,0,0,0,-1,1322,890,0,0
105,134,0,0,0,0,0,0,0,0,0,-1,1329,890,0,0
112,134,0,0,0,0,0,0,0,0,0,-1,1336,890,0,0
119,134,0,0,0,0,0,0,0,0,0,-1,1343,890,0,0
126,134,0,0,0,0,0,0,0,0,0,-1,1350,890,0,0
133,134,0,0,0,0,0,0,0,0,0,-1,1357,890,0,0
140,134,0,0,0,0,0,0,0,0,0,-1,1364,890,0,0
147,134,0,0,0,0,0,0,0,0,0,-1,1371,890,0,0
154,134,0,0,0,0,0,0,0,0,0,-1,1378,890,0,0
161,134,0,0,0,0,0,0,0,0,0,-1,1385,890,0,0
168,134,0,0,0,0,0,0,0,0,0,-1,1392,890,0,0
175,134,0,0,0,0,0,0,0,0,0,-1,1399,890,0,0
182,134,0,0,0,0,0,0,0,0,0,-1,1406,890,0,0
189,134,0,0,0,0,0,0,0,0,0,-1,1413,890,0,0
196,134,0,0,0,0,0,0,0,0,0,-1,1420,890,0,0
203,134,0,0,0,0,0,0,0,0,0,-1,1427,890,0,0
210,134,0,0,0,0,0,0,0,0,0,-1,1434,890,0,0
217,134,0,0,0,0,0,0,0,0,0,-1,1441,890,0,0
224,134,0,0,0,0,0,0,0,0,0,-1,1448,890,0,0
231,134,0,0,0,0,0,0,0,0,0,-1,1455,890,0,0
238,134,0,0,0,0,0,0,0,0,0,-1,1462,890,0,0
245,134,0,0,0,0,0,0,0,0,0,-1,1469,890,0,0
252,134,0,0,0,0,0,0,0,0,0,-1,1476,890,0,0
259,134,0,0,0,0,0,0,0,0,0,-1,1483,890,0,0
266,134,0,0,0,0,0,0,0,0,0,-1,1490,890,0,0
273,134,0,0,0,0,0,0,0,0,0,-1,1497,890,0,0
280,134,0,0,0,0,0,0,0,0,0,-1,1504,890,0,0
287,134,0,0,0,0,0,0,0,0,0,-1,1511,890,0,0
294,134,0,0,0,0,0,0,0,0,0,-1,1518,890,0,0
301,134,0,0,0,0,0,0,0,0,0,-1,1525,890,0,0
308,134,0,0,0,0,0,0,0,0,0,-1,1532,890,0,0
315,134,0,0,0,0,0,0,0,0,0,-1,1539,890,0,0
322,134,0,0,0,0,0,0,0,0,0,-1,1546,890,0,0
329,134,0,0,0,0,0,0,0,0,0,-1,1553,890,0,0
336,134,0,0,0,0,0,0,0,0,0,-1,1560,890,0,0
343,134,0,0,0,0,0,0,0,0,0,-1,1567,890,0,0
350,134,0,0,0,0,0,0,0,0,0,-1,1574,890,0,0
357,134,0,0,0,0,0,0,0,0,0,-1,1581,890,0,0
364,134,0,0,0,0,0,0,0,0,0,-1,1588,890,0,0
371,134,0,0,0,0,0,0,0,0,0,-1,1595,890,0,0
378,134,0,0,0,0,0,0,0,0,0,-1,1602,890,0,0
385,134,0,0,0,0,0,0,0,0,0,-1,1609,890,0,0
392,134,0,0,0,0,0,0,0,0,0,-1,1616,890,0,0
399,134,0,0,0,0,0,0,0,0,0,-1,1623,890,0,0
406,134,0,0,0,0,0,0,0,0,0,-1,1630,890,0,0
413,134,0,0,0,0,0,0,0,0,0,-1,1637,890,0,0
420,134,0,0,0,0,0,0,0,0,0,-1,1644,890,0,0
427,134,0,0,0,0,0,0,0,0,0,-1,1651,890,0,0
434,134,0,0,0,0,0,0,0,0,0,-1,1658,890,0,0
441,134,0,0,0,0,0,0,0,0,0,-1,1665,890,0,0
448,134,0,0,0,0,0,0,0,0,0,-1,1672,890,0,0
455,134,0,0,0,0,0,0,0,0,0,-1,1679,890,0,0
462,134,0,0,0,0,0,0,0,0,0,-1,1686,890,0,0
469,134,0,0,0,0,0,0,0,0,0,-1,1693,890,0,0
476,134,0,0,0,0,0,0,0,0,0,-1,1700,890,0,0
483,134,0,0,0,0,0,0,0,0,0,-1,1707,890,0,0
490,134,0,0,0,0,0,0,0,0,0,-1,1714,890,0,0
497,134,0,0,0,0,0,0,0,0,0,-1,1721,890,0,0
504,134,0,0,0,0,0,0,0,0,0,-1,1728,890,0,0
511,134,0,0,0,0,0,0,0,0,0,-1,1735,890,0,0
518,134,0,0,0,0,0,0,0,0,0,-1,1742,890,0,0
525,134,0,0,0,0,0,0,0,0,0,-1,1749,890,0,0
532,134,0,0,0,0,0,0,0,0,0,-1,1756,890,0,0
539,134,0,0,0,0,0,0,0,0,0,-1,1763,890,0,0
546,134,0,0,0,0,0,0,0,0,0,-1,1770,890,0,0
553,134,0,0,0,0,0,0,0,0,0,-1,1777,890,0,0
560,134,0,0,0,0,0,0,0,0,0,-1,1784,890,0,0
567,134,0,0,0,0,0,0,0,0,0,-1,1791,890,0,0
574,134,0,0,0,0,0,0,0,0,0,-1,1798,890,0,0
581,134,0,0,0,0,0,0,0,0,0,-1,1805,890,0,0
588,134,0,0,0,0,0,0,0,0,0,-1,1812,890,0,0
595,134,0,0,0,0,0,0,0,0,0,-1,1819,890,0,0
602,134,0,0,0,0,0,0,0,0,0,-1,1826,890,0,0
609,134,0,0,0,0,0,0,0,0,0,-1,1833,890,0,0
616,134,0,0,0,0,0,0,0,0,0,-1,1840,890,0,0
623,134,-0.0517578,-0.0159912,-0.0053686,0.00113129,0.0013767,0.00141086,-0.00564817,1.37045,0.00431334,0.0376306,1847,890,-0.051779,0.0159961
630,134,-0.081665,-0.0314331,-0.00378949,0.000696143,0.000872132,0.000859743,-0.00395309,1.38537,0.00296384,0.0380625,1854,890,-0.081613,0.0314196
637,134,-0.0330811,0.0216675,-0.00251888,0.00037755,0.000484309,0.000456385,-0.00259772,1.40943,0.00190228,0.0380834,1861,890,-0.0330585,-0.0216669
644,134,0.00732422,-0.100891,-0.00160303,0.000147666,0.00018591,0.00016719,-0.00162256,1.46616,0.00114152,0.0347185,1868,890,0.00726756,0.100917
651,134,-0.0631104,-0.105286,-0.00101477,-5.44221e-06,-1.38562e-05,-5.25202e-06,-0.00101496,-1.55707,0.000674893,0.0352361,1875,890,-0.0631401,0.105292
658,134,-0.059082,-0.043335,-0.000630851,-9.82337e-05,-0.000148786,-5.9489e-05,-0.000669596,-1.31605,0.000427948,0.0364754,1882,890,-0.0590628,0.0433339
665,134,-0.0819092,0.00372314,-0.000393875,-0.000120712,-0.000231154,1.11955e-05,-0.000525783,-1.05224,0.000354313,0.0280693,1889,890,-0.081934,-0.00371344
672,134,-0.0788574,-0.0136719,-0.000264496,-0.000146843,-0.000251272,5.23966e-05,-0.000463736,-0.900385,0.000328021,0.0156273,1896,890,-0.0788714,0.0136884
679,134,-0.0616455,-0.0404053,-0.00018673,-0.000166729,-0.000259497,8.29604e-05,-0.000436419,-0.804658,0.00032218,0.0103564,1903,890,-0.0616403,0.0403775
686,134,-0.00683594,-0.130493,-0.00010069,-0.000169136,-0.000311771,0.000178731,-0.000448556,-0.730732,0.000373165,0.0281457,1910,890,-0.00686605,0.130484
693,134,-0.0806885,-0.0239258,-6.3095e-05,-0.000140967,-0.000267867,0.000168651,-0.000372713,-0.713226,0.000319873,0.0190377,1917,890,-0.0806591,0.0239288
700,134,-0.088501,-0.0266724,-0.000103772,-9.05414e-05,-0.000229164,0.000132103,-0.000326416,-0.799827,0.000272534,0.0147788,1924,890,-0.0884665,0.0266592
707,134,-0.0667725,-0.0442505,-5.22684e-06,-0.000120026,-0.000253018,0.000196821,-0.000322074,-0.673856,0.00030248,0.0140894,1931,890,-0.0668205,0.0442804
714,134,-0.0806885,-0.0543823,0.000518123,-0.000279757,-0.000392292,0.000678689,-0.000440322,-0.388498,0.000650929,0.0130906,1938,890,-0.0806275,0.054366
721,134,-0.0750732,-0.0585938,0.00147017,-0.000529249,-0.000702733,0.00169245,-0.000751526,-0.306347,0.00144547,0.0119094,1945,890,-0.0750378,0.0585724
728,134,-0.0814209,-0.0593262,0.00319804,-0.000760252,-0.0013519,0.00361569,-0.00117791,-0.299638,0.00288441,0.0126562,1952,890,-0.0814459,0.0593168
735,134,-0.0931396,-0.0517578,0.00535196,-0.00117915,-0.00249709,0.00619729,-0.00202447,-0.326413,0.00494643,0.0167702,1959,890,-0.0931541,0.0517714
742,134,-0.0900879,-0.0574341,0.00787895,-0.000930345,-0.00415955,0.00953258,-0.00258398,-0.378394,0.00736898,0.0129191,1966,890,-0.0901151,0.0574165
749,134,-0.0748291,-0.0612183,0.011325,-0.000876043,-0.00612073,0.0138662,-0.00341727,-0.393526,0.010569,0.0120403,1973,890,-0.0747725,0.0612009
756,134,-0.102783,-0.0461426,0.0155807,-0.000579143,-0.00867373,0.0193549,-0.00435328,-0.410413,0.0145727,0.0160071,1980,890,-0.102777,0.0461232
763,134,-0.0352783,-0.0535278,0.0208824,0.000141261,-0.012106,0.0264525,-0.0054288,-0.431227,0.0196956,0.035889,1987,890,-0.0352548,0.053541
770,134,0.0671387,-0.0282593,0.0273364,0.00159351,-0.0165198,0.0354072,-0.0064773,-0.454448,0.0260339,0.0442734,1994,890,0.067174,0.0282492
777,134,0.739136,-0.363831,0.0350083,0.00417334,-0.0220437,0.0464911,-0.00730943,-0.480235,0.0336959,0.0462736,2001,890,0.739094,0.363807
784,134,0.999146,-0.520386,0.0439439,0.00844072,-0.0288242,0.0600443,-0.00765963,-0.509399,0.0428118,0.0472007,2008,890,0.999169,0.520382
791,134,1.21057,-0.678406,0,0,0,0,0,0,0,-1,2015,890,1.21056,0.678379
798,134,0,0,0,0,0,0,0,0,0,-1,2022,890,0,0
805,134,0,0,0,0,0,0,0,0,0,-1,2029,890,0,0
812,134,0,0,0,0,0,0,0,0,0,-1,2036,890,0,0
-700,127,0,0,0,0,0,0,0,0,0,-1,524,897,0,0
-693,127,0,0,0,0,0,0,0,0,0,-1,531,897,0,0
-686,127,0,0,0,0,0,0,0,0,0,-1,538,897,0,0
-679,127,-1.3584,2.6106,0.041709,-0.00668214,-0.000693627,0.0417189,-0.00669208,-0.0143298,0.0302907,0.046911,545,897,-1.35843,-2.6106
-672,127,-0.608521,0.65332,0.0332819,-0.00855144,-0.00207864,0.033385,-0.00865447,-0.0495259,0.0256332,0.0444473,552,897,-0.608509,-0.653326
-665,127,-0.889587,0.845703,0,0,0,0,0,0,0,-1,559,897,-0.88961,-0.845719
-658,127,-0.552429,0.746704,0.0205501,-0.00878966,-0.00268811,0.0207943,-0.00903391,-0.0906148,0.0176619,0.0472372,566,897,-0.552458,-0.746731
-651,127,-0.824219,-0.970825,0.0157845,-0.00796113,-0.00241651,0.016028,-0.00820455,-0.100395,0.0142316,0.0411774,573,897,-0.824206,0.970839
-644,127,-0.422302,-0.488464,0.011912,-0.00682843,-0.00196376,0.0121156,-0.00703199,-0.103293,0.011184,0.040958,580,897,-0.422329,0.488452
-637,127,-0.283325,-0.165039,0.00882243,-0.00556763,-0.00144399,0.0089659,-0.0057111,-0.0990311,0.00854294,0.0404268,587,897,-0.283319,0.16503
-630,127,-0.0428467,-0.0379028,0.00640376,-0.00432093,-0.000942365,0.00648594,-0.0044031,-0.0869806,0.00632501,0.0303302,594,897,-0.0428587,0.0378909
-623,127,-0.0394897,-0.0526123,0.00418035,-0.00404035,-0.000521149,0.00421326,-0.00407325,-0.0630582,0.00478445,0.0125188,601,897,-0.0395152,0.0526342
-616,127,-0.0629883,-0.0438232,0.00249854,-0.00258245,-0.000489793,0.00254532,-0.00262923,-0.0952288,0.00298766,0.00979215,608,897,-0.0629665,0.0438084
-609,127,-0.0717163,-0.0499268,0.00171667,-0.00143421,-0.000141556,0.00172302,-0.00144056,-0.0448053,0.00182892,0.0131489,615,897,-0.0717002,0.0499325
-602,127,-0.0991821,-0.0615845,0.000916645,-0.000809533,0.000246218,0.000951078,-0.000843966,0.138947,0.00103698,0.0139916,622,897,-0.0991575,0.0615864
-595,127,-0.0826416,-0.0718994,0.0003827,-0.000671947,0.000424525,0.000532349,-0.000821596,0.338908,0.000787624,0.012237,629,897,-0.0826383,0.0719207
-588,127,-0.0471191,-0.0517578,0.000233541,-0.000129717,0.00030233,0.000404606,-0.000300781,0.514907,0.000408723,0.01565,636,897,-0.04712,0.0517744
-581,127,-0.0640259,-0.0289307,2.83172e-05,-0.000224883,0.000153893,0.000100992,-0.000297558,0.441198,0.00023925,0.0203548,643,897,-0.064054,0.0289284
-574,127,-0.0783081,-0.0199585,-0.000138231,-0.000299554,0.000163976,-3.61508e-05,-0.000401634,0.556822,0.000256556,0.0208587,650,897,-0.0782933,0.0199667
-567,127,-0.0751343,-0.0188599,-7.17279e-05,-0.000263814,0.000154997,1.45699e-05,-0.000350112,0.508028,0.000238413,0.0281943,657,897,-0.0751246,0.0188693
-560,127,-0.083252,-0.0357666,0.00013276,-0.00017564,0.000231184,0.000256452,-0.000299331,0.491282,0.0003212,0.0291924,664,897,-0.0832685,0.0357965
-553,127,-0.144836,-0.137939,0.000386374,-9.73917e-05,0.000285056,0.000518342,-0.00022936,0.433574,0.000442303,0.0342816,671,897,-0.144813,0.137913
-546,127,-0.0592041,-0.0289307,0.000668445,6.1288e-05,0.000387154,0.000856851,-0.000127117,0.452904,0.00061798,0.0225753,678,897,-0.0591929,0.0289411
-539,127,-0.0487671,-0.0289917,0.00108249,0.000337448,0.000489113,0.00132479,9.51489e-05,0.459948,0.000853245,0.0198493,685,897,-0.0487572,0.0290097
-532,127,-0.0425415,-0.0289917,0.00168375,0.000746548,0.000587922,0.00196698,0.000463326,0.448929,0.0011874,0.0151777,692,897,-0.0425379,0.0289797
-525,127,-0.11084,0.137329,0.00251223,0.0013203,0.000655562,0.00280223,0.0010303,0.416491,0.00163665,0.0285613,699,897,-0.110829,-0.137343
-518,127,-0.154846,0.232056,0.00363643,0.00208889,0.000656318,0.00387729,0.00184803,0.351727,0.00223937,0.0347386,706,897,-0.154874,-0.232064
-511,127,-0.0211182,0.310852,0.00513966,0.00307555,0.000499449,0.00525416,0.00296105,0.225357,0.00304165,0.0386756,713,897,-0.0211169,-0.310853
-504,127,0,0,0,0,0,0,0,0,0,-1,720,897,0,0
-497,127,0,0,0,0,0,0,0,0,0,-1,727,897,0,0
-490,127,0,0,0,0,0,0,0,0,0,-1,734,897,0,0
-483,127,0,0,0,0,0,0,0,0,0,-1,741,897,0,0
-476,127,0,0,0,0,0,0,0,0,0,-1,748,897,0,0
-469,127,0,0,0,0,0,0,0,0,0,-1,755,897,0,0
-462,127,0,0,0,0,0,0,0,0,0,-1,762,897,0,0
-455,127,0,0,0,0,0,0,0,0,0,-1,769,897,0,0
-448,127,0,0,0,0,0,0,0,0,0,-1,776,897,0,0
-441,127,0,0,0,0,0,0,0,0,0,-1,783,897,0,0
-434,127,0,0,0,0,0,0,0,0,0,-1,790,897,0,0
-427,127,0,0,0,0,0,0,0,0,0,-1,797,897,0,0
-420,127,0,0,0,0,0,0,0,0,0,-1,804,897,0,0
-413,127,0,0,0,0,0,0,0,0,0,-1,811,897,0,0
-406,127,0,0,0,0,0,0,0,0,0,-1,818,897,0,0
-399,127,0,0,0,0,0,0,0,0,0,-1,825,897,0,0
-392,127,0,0,0,0,0,0,0,0,0,-1,832,897,0,0
-385,127,0,0,0,0,0,0,0,0,0,-1,839,897,0,0
-378,127,0,0,0,0,0,0,0,0,0,-1,846,897,0,0
-371,127,0,0,0,0,0,0,0,0,0,-1,853,897,0,0
-364,127,0,0,0,0,0,0,0,0,0,-1,860,897,0,0
-357,127,0,0,0,0,0,0,0,0,0,-1,867,897,0,0
-350,127,0,0,0,0,0,0,0,0,0,-1,874,897,0,0
-343,127,0,0,0,0,0,0,0,0,0,-1,881,897,0,0
-336,127,0,0,0,0,0,0,0,0,0,-1,888,897,0,0
-329,127,0,0,0,0,0,0,0,0,0,-1,895,897,0,0
-322,127,0,0,0,0,0,0,0,0,0,-1,902,897,0,0
-315,127,0,0,0,0,0,0,0,0,0,-1,909,897,0,0
-308,127,0,0,0,0,0,0,0,0,0,-1,916,897,0,0
-301,127,0,0,0,0,0,0,0,0,0,-1,923,897,0,0
-294,127,0,0,0,0,0,0,0,0,0,-1,930,897,0,0
-287,127,0,0,0,0,0,0,0,0,0,-1,937,897,0,0
-280,127,0,0,0,0,0,0,0,0,0,-1,944,897,0,0
-273,127,0,0,0,0,0,0,0,0,0,-1,951,897,0,0
-266,127,0,0,0,0,0,0,0,0,0,-1,958,897,0,0
-259,127,0,0,0,0,0,0,0,0,0,-1,965,897,0,0
-252,127,0,0,0,0,0,0,0,0,0,-1,972,897,0,0
-245,127,0,0,0,0,0,0,0,0,0,-1,979,897,0,0
-238,127,0,0,0,0,0,0,0,0,0,-1,986,897,0,0
-231,127,0,0,0,0,0,0,0,0,0,-1,993,897,0,0
-224,127,0,0,0,0,0,0,0,0,0,-1,1000,897,0,0
-217,127,0,0,0,0,0,0,0,0,0,-1,1007,897,0,0
-210,127,0,0,0,0,0,0,0,0,0,-1,1014,897,0,0
-203,127,0,0,0,0,0,0,0,0,0,-1,1021,897,0,0
-196,127,0,0,0,0,0,0,0,0,0,-1,1028,897,0,0
-189,127,0,0,0,0,0,0,0,0,0,-1,1035,897,0,0
-182,127,0,0,0,0,0,0,0,0,0,-1,1042,897,0,0
-175,127,0,0,0,0,0,0,0,0,0,-1,1049,897,0,0
-168,127,0,0,0,0,0,0,0,0,0,-1,1056,897,0,0
-161,127,0,0,0,0,0,0,0,0,0,-1,1063,897,0,0
-154,127,0,0,0,0,0,0,0,0,0,-1,1070,897,0,0
-147,127,0,0,0,0,0,0,0,0,0,-1,1077,897,0,0
-140,127,0,0,0,0,0,0,0,0,0,-1,1084,897,0,0
-133,127,0,0,0,0,0,0,0,0,0,-1,1091,897,0,0
-126,127,0,0,0,0,0,0,0,0,0,-1,1098,897,0,0
-119,127,0,0,0,0,0,0,0,0,0,-1,1105,897,0,0
-112,127,0,0,0,0,0,0,0,0,0,-1,1112,897,0,0
-105,127,0,0,0,0,0,0,0,0,0,-1,1119,897,0,0
-98,127,0,0,0,0,0,0,0,0,0,-1,1126,897,0,0
-91,127,0,0,0,0,0,0,0,0,0,-1,1133,897,0,0
-84,127,0,0,0,0,0,0,0,0,0,-1,1140,897,0,0
-77,127,0,0,0,0,0,0,0,0,0,-1,1147,897,0,0
-70,127,0,0,0,0,0,0,0,0,0,-1,1154,897,0,0
-63,127,0,0,0,0,0,0,0,0,0,-1,1161,897,0,0
-56,127,0,0,0,0,0,0,0,0,0,-1,1168,897,0,0
-49,127,0,0,0,0,0,0,0,0,0,-1,1175,897,0,0
-42,127,0,0,0,0,0,0,0,0,0,-1,1182,897,0,0
-35,127,0,0,0,0,0,0,0,0,0,-1,1189,897,0,0
-28,127,0,0,0,0,0,0,0,0,0,-1,1196,897,0,0
-21,127,0,0,0,0,0,0,0,0,0,-1,1203,897,0,0
-14,127,0,0,0,0,0,0,0,0,0,-1,1210,897,0,0
-7,127,0,0,0,0,0,0,0,0,0,-1,1217,897,0,0
0,127,0,0,0,0,0,0,0,0,0,-1,1224,897,0,0
7,127,0,0,0,0,0,0,0,0,0,-1,1231,897,0,0
14,127,0,0,0,0,0,0,0,0,0,-1,1238,897,0,0
21,127,0,0,0,0,0,0,0,0,0,-1,1245,897,0,0
28,127,0,0,0,0,0,0,0,0,0,-1,1252,897,0,0
35,127,0,0,0,0,0,0,0,0,0,-1,1259,897,0,0
42,127,0,0,0,0,0,0,0,0,0,-1,1266,897,0,0
49,127,0,0,0,0,0,0,0,0,0,-1,1273,897,0,0
56,127,0,0,0,0,0,0,0,0,0,-1,1280,897,0,0
63,127,0,0,0,0,0,0,0,0,0,-1,1287,897,0,0
70,127,0,0,0,0,0,0,0,0,0,-1,1294,897,0,0
77,127,0,0,0,0,0,0,0,0,0,-1,1301,897,0,0
84,127,0,0,0,0,0,0,0,0,0,-1,1308,897,0,0
91,127,0,0,0,0,0,0,0,0,0,-1,1315,897,0,0
98,127,0,0,0,0,0,0,0,0,0,-1,1322,897,0,0
105,127,0,0,0,0,0,0,0,0,0,-1,1329,897,0,0
112,127,0,0,0,0,0,0,0,0,0,-1,1336,897,0,0
119,127,0,0,0,0,0,0,0,0,0,-1,1343,897,0,0
126,127,0,0,0,0,0,0,0,0,0,-1,1350,897,0,0
133,127,0,0,0,0,0,0,0,0,0,-1,1357,897,0,0
140,127,0,0,0,0,0,0,0,0,0,-1,1364,897,0,0
147,127,0,0,0,0,0,0,0,0,0,-1,1371,897,0,0
154,127,0,0,0,0,0,0,0,0,0,-1,1378,897,0,0
161,127,0,0,0,0,0,0,0,0,0,-1,1385,897,0,0
168,127,0,0,0,0,0,0,0,0,0,-1,1392,897,0,0
175,127,0,0,0,0,0,0,0,0,0,-1,1399,897,0,0
182,127,0,0,0,0,0,0,0,0,0,-1,1406,897,0,0
189,127,0,0,0,0,0,0,0,0,0,-1,1413,897,0,0
196,127,0,0,0,0,0,0,0,0,0,-1,1420,897,0,0
203,127,0,0,0,0,0,0,0,0,0,-1,1427,897,0,0
210,127,0,0,0,0,0,0,0,0,0,-1,1434,897,0,0
217,127,0,0,0,0,0,0,0,0,0,-1,1441,897,0,0
224,127,0,0,0,0,0,0,0,0,0,-1,1448,897,0,0
231,127,0,0,0,0,0,0,0,0,0,-1,1455,897,0,0
238,127,0,0,0,0,0,0,0,0,0,-1,1462,897,0,0
245,127,0,0,0,0,0,0,0,0,0,-1,1469,897,0,0
252,127,0,0,0,0,0,0,0,0,0,-1,1476,897,0,0
259,127,0,0,0,0,0,0,0,0,0,-1,1483,897,0,0
266,127,0,0,0,0,0,0,0,0,0,-1,1490,897,0,0
273,127,0,0,0,0,0,0,0,0,0,-1,1497,897,0,0
280,127,0,0,0,0,0,0,0,0,0,-1,1504,897,0,0
287,127,0,0,0,0,0,0,0,0,0,-1,1511,897,0,0
294,127,0,0,0,0,0,0,0,0,0,-1,1518,897,0,0
301,127,0,0,0,0,0,0,0,0,0,-1,1525,897,0,0
308,127,0,0,0,0,0,0,0,0,0,-1,1532,897,0,0
315,127,0,0,0,0,0,0,0,0,0,-1,1539,897,0,0
322,127,0,0,0,0,0,0,0,0,0,-1,1546,897,0,0
329,127,0,0,0,0,0,0,0,0,0,-1,1553,897,0,0
336,127,0,0,0,0,0,0,0,0,0,-1,1560,897,0,0
343,127,0,0,0,0,0,0,0,0,0,-1,1567,897,0,0
350,127,0,0,0,0,0,0,0,0,0,-1,1574,897,0,0
357,127,0,0,0,0,0,0,0,0,0,-1,1581,897,0,0
364,127,0,0,0,0,0,0,0,0,0,-1,1588,897,0,0
371,127,0,0,0,0,0,0,0,0,0,-1,1595,897,0,0
378,127,0,0,0,0,0,0,0,0,0,-1,1602,897,0,0
385,127,0,0,0,0,0,0,0,0,0,-1,1609,897,0,0
392,127,0,0,0,0,0,0,0,0,0,-1,1616,897,0,0
399,127,0,0,0,0,0,0,0,0,0,-1,1623,897,0,0
406,127,0,0,0,0,0,0,0,0,0,-1,1630,897,0,0
413,127,0,0,0,0,0,0,0,0,0,-1,1637,897,0,0
420,127,0,0,0,0,0,0,0,0,0,-1,1644,897,0,0
427,127,0,0,0,0,0,0,0,0,0,-1,1651,897,0,0
434,127,0,0,0,0,0,0,0,0,0,-1,1658,897,0,0
441,127,0,0,0,0,0,0,0,0,0,-1,1665,897,0,0
448,127,0,0,0,0,0,0,0,0,0,-1,1672,897,0,0
455,127,0,0,0,0,0,0,0,0,0,-1,1679,897,0,0
462,127,0,0,0,0,0,0,0,0,0,-1,1686,897,0,0
469,127,0,0,0,0,0,0,0,0,0,-1,1693,897,0,0
476,127,0,0,0,0,0,0,0,0,0,-1,1700,897,0,0
483,127,0,0,0,0,0,0,0,0,0,-1,1707,897,0,0
490,127,0,0,0,0,0,0,0,0,0,-1,1714,897,0,0
497,127,0,0,0,0,0,0,0,0,0,-1,1721,897,0,0
504,127,0,0,0,0,0,0,0,0,0,-1,1728,897,0,0
511,127,0,0,0,0,0,0,0,0,0,-1,1735,897,0,0
518,127,0,0,0,0,0,0,0,0,0,-1,1742,897,0,0
525,127,0,0,0,0,0,0,0,0,0,-1,1749,897,0,0
532,127,0,0,0,0,0,0,0,0,0,-1,1756,897,0,0
539,127,0,0,0,0,0,0,0,0,0,-1,1763,897,0,0
546,127,0,0,0,0,0,0,0,0,0,-1,1770,897,0,0
553,127,0,0,0,0,0,0,0,0,0,-1,1777,897,0,0
560,127,0,0,0,0,0,0,0,0,0,-1,1784,897,0,0
567,127,0,0,0,0,0,0,0,0,0,-1,1791,897,0,0
574,127,0,0,0,0,0,0,0,0,0,-1,1798,897,0,0
581,127,0,0,0,0,0,0,0,0,0,-1,1805,897,0,0
588,127,0,0,0,0,0,0,0,0,0,-1,1812,897,0,0
595,127,0,0,0,0,0,0,0,0,0,-1,1819,897,0,0
602,127,0,0,0,0,0,0,0,0,0,-1,1826,897,0,0
609,127,0,0,0,0,0,0,0,0,0,-1,1833,897,0,0
616,127,0,0,0,0,0,0,0,0,0,-1,1840,897,0,0
623,127,0,0,0,0,0,0,0,0,0,-1,1847,897,0,0
630,127,-0.0494385,-0.182678,-0.00398236,0.00187627,0.0011108,0.0020798,-0.0041859,1.38957,0.00368499,0.035623,1854,897,-0.0494958,0.182682
637,127,-0.0819092,-0.079895,-0.00261552,0.00124965,0.000663542,0.00136039,-0.00272626,1.40543,0.00240295,0.0363487,1861,897,-0.0818944,0.0798744
644,127,-0.173218,-0.0629272,-0.00165161,0.000793918,0.000317828,0.000834549,-0.00169224,1.44365,0.00148659,0.0348759,1868,897,-0.173249,0.06292
651,127,-0.179932,-0.0578003,-0.00104997,0.000482146,8.20205e-05,0.000486524,-0.00105435,1.51747,0.000909534,0.0373524,1875,897,-0.179944,0.0578078
658,127,-0.158325,0.0634766,-0.000665629,0.000277542,-8.03031e-05,0.000284331,-0.000672418,-1.48646,0.000567324,0.0386436,1882,897,-0.158299,-0.0634717
665,127,-0.140991,0.110168,-0.000436683,0.000160678,-0.00018185,0.000211683,-0.000487687,-1.29735,0.00041413,0.0336313,1889,897,-0.140946,-0.110144
672,127,-0.0955811,0.0498047,-0.000310389,7.30654e-05,-0.000218833,0.00017228,-0.000409603,-1.14513,0.000345139,0.0272482,1896,897,-0.0955228,-0.0498105
679,127,-0.0737305,-0.0224609,-0.000233977,5.00705e-06,-0.000237261,0.000151168,-0.000380137,-1.01867,0.000316102,0.0165357,1903,897,-0.0737584,0.0224508
686,127,-0.0505371,-0.0532227,-0.000139334,-2.37415e-05,-0.000301354,0.000225308,-0.000388384,-0.880142,0.000358461,0.0135632,1910,897,-0.0505333,0.0532237
693,127,-0.100708,-0.0529175,-8.74047e-05,-2.435e-05,-0.000263333,0.000209336,-0.000321091,-0.844977,0.000308499,0.0168236,1917,897,-0.100663,0.0529335
700,127,-0.108032,-0.0596924,-0.000131662,-1.07055e-05,-0.000224727,0.000161539,-0.000303906,-0.916843,0.000272883,0.0180128,1924,897,-0.108066,0.0597201
707,127,-0.09021,-0.0496826,-5.86016e-05,-5.22897e-05,-0.000249273,0.000193847,-0.000304739,-0.791728,0.000290222,0.0173798,1931,897,-0.090239,0.0496741
714,127,-0.0878906,-0.0380249,0.000391208,-0.00015414,-0.000393264,0.000597082,-0.000360014,-0.48227,0.000558201,0.0148707,1938,897,-0.0878384,0.0380457
721,127,-0.0820313,-0.0505371,0.00118002,-0.00033225,-0.000736137,0.00147918,-0.000631405,-0.385999,0.00125088,0.0117979,1945,897,-0.0820227,0.0505422
728,127,-0.0795898,-0.0600586,0.00261086,-0.000519855,-0.00138033,0.00313252,-0.00104152,-0.361334,0.00250865,0.0117603,1952,897,-0.0795832,0.060057
735,127,-0.0827637,-0.0578613,0.00439221,-0.000847924,-0.00254524,0.00542495,-0.00188066,-0.385456,0.00438023,0.0171392,1959,897,-0.0827641,0.0578766
742,127,-0.0874023,-0.0576782,0.00644984,-0.000444535,-0.00430808,0.00852014,-0.00251483,-0.447977,0.00667812,0.0159265,1966,897,-0.0873734,0.0577061
749,127,-0.0808105,-0.0611572,0.00929961,-0.000164528,-0.0063089,0.0124539,-0.00331882,-0.463628,0.00960201,0.0112445,1973,897,-0.080829,0.0611505
756,127,-0.0766602,-0.0474854,0.012787,0.000434035,-0.00882574,0.0173828,-0.0041618,-0.480094,0.0131964,0.0127044,1980,897,-0.0766091,0.0474572
763,127,-0.0490723,-0.0496826,0.0171355,0.00147544,-0.012214,0.0238137,-0.00520282,-0.500362,0.0178645,0.0203192,1987,897,-0.0490824,0.0496973
770,127,0.0211182,-0.793762,0.0224513,0.00329524,-0.0164764,0.0319313,-0.00618481,-0.522114,0.0236206,0.0375043,1994,897,0.0211347,0.793752
777,127,0.567505,-0.170532,0,0,0,0,0,0,0,-1,2001,897,0.567548,0.170502
784,127,0.835815,-0.654663,0,0,0,0,0,0,0,-1,2008,897,0.835792,0.654646
791,127,1.16248,-0.749878,0,0,0,0,0,0,0,-1,2015,897,1.16248,0.749863
798,127,0,0,0,0,0,0,0,0,0,-1,2022,897,0,0
805,127,0,0,0,0,0,0,0,0,0,-1,2029,897,0,0
812,127,0,0,0,0,0,0,0,0,0,-1,2036,897,0,0
-700,120,0,0,0,0,0,0,0,0,0,-1,524,904,0,0
-693,120,0,0,0,0,0,0,0,0,0,-1,531,904,0,0
-686,120,0,0,0,0,0,0,0,0,0,-1,538,904,0,0
-679,120,-1.32605,2.40009,0.0371911,0.00515896,0.000811809,0.0372116,0.0051384,0.0253219,0.0232847,0.0430409,545,904,-1.32604,-2.40009
-672,120,-1.27448,3.31238,0.0302414,0.00170274,-0.000925664,0.0302714,0.00167274,-0.0323901,0.0196471,0.0419245,552,904,-1.27449,-3.3124
-665,120,-1.0849,0.715881,0,0,0,0,0,0,0,-1,559,904,-1.08489,-0.715864
-658,120,-0.772888,0.615479,0.0193693,-0.00175119,-0.0022484,0.019606,-0.00198789,-0.10489,0.0137812,0.0450956,566,904,-0.77287,-0.615499
-651,120,-0.429321,0.50769,0.0151584,-0.00237968,-0.00225251,0.0154431,-0.00266436,-0.125717,0.0112888,0.0443481,573,904,-0.429339,-0.507681
-644,120,-0.313477,-0.306763,0.0116487,-0.00254102,-0.00201155,0.0119283,-0.00282067,-0.138136,0.00904032,0.0423488,580,904,-0.313481,0.306745
-637,120,-0.173828,-0.0162964,0.00876413,-0.00238454,-0.00163502,0.00899897,-0.00261938,-0.142655,0.00703686,0.0394106,587,904,-0.173817,0.0162979
-630,120,-0.0604858,-0.0375977,0.00645062,-0.00202659,-0.0012191,0.00662246,-0.00219842,-0.14003,0.00530195,0.0214047,594,904,-0.060491,0.0376275
-623,120,-0.0635986,-0.0476074,0.00430063,-0.00244346,-0.000839345,0.00440352,-0.00254636,-0.121978,0.00405999,0.00986151,601,904,-0.0635855,0.0476246
-616,120,-0.0578003,-0.0604858,0.00261474,-0.00163133,-0.000784502,0.00275505,-0.00177164,-0.176978,0.00263396,0.0096351,608,904,-0.0577705,0.0604999
-609,120,-0.0709229,-0.0526733,0.00186959,-0.000861476,-0.00036275,0.00191695,-0.000908836,-0.129825,0.00166572,0.0124912,615,904,-0.0709016,0.052679
-602,120,-0.101929,-0.0379028,0.00102606,-0.000504558,1.92292e-05,0.00102631,-0.0005048,0.0125603,0.000900915,0.0123785,622,904,-0.101937,0.0378868
-595,120,-0.0697021,-0.0561523,0.000384288,-0.000528386,0.000249874,0.00044822,-0.000592318,0.250486,0.000602672,0.0151145,629,904,-0.0696865,0.0561481
-588,120,-0.0460205,-0.0813599,0.000143351,-7.80075e-05,0.000205458,0.000266045,-0.000200701,0.538337,0.000270355,0.0194638,636,904,-0.046023,0.0813703
-581,120,-0.0889893,-0.0617676,-7.25239e-05,-9.05186e-05,9.01447e-05,9.07133e-06,-0.000172114,0.735658,0.000117883,0.0217299,643,904,-0.0889709,0.0617865
-574,120,-0.0820313,-0.0415039,-0.000193205,-7.69259e-05,0.000125451,3.20285e-06,-0.000273333,1.00239,0.000183299,0.0187689,650,904,-0.0820217,0.0415143
-567,120,-0.0593872,0.00384521,-6.89831e-05,7.81488e-06,0.000117114,9.2664e-05,-0.000153832,0.943814,0.000143768,0.0317679,657,904,-0.0593909,-0.00383041
-560,120,-0.0570068,0.0352173,0.000140525,0.000180211,0.00016636,0.000327907,-7.17178e-06,0.844756,0.000221034,0.0369281,664,904,-0.0570152,-0.0352226
-553,120,-0.0276489,0.0973511,0.000401077,0.000351676,0.00018848,0.000566468,0.000186285,0.720244,0.000333376,0.0367423,671,904,-0.0276664,-0.0973645
-546,120,-0.00488281,0.0687256,0.000707288,0.000623008,0.000256976,0.000925556,0.00040474,0.70413,0.000535769,0.0330165,678,904,-0.00491245,-0.0687087
-539,120,-0.0407715,-0.00482178,0.00116365,0.0010132,0.000337788,0.00143449,0.000742361,0.675834,0.000828371,0.0251411,685,904,-0.0407525,0.00479804
-532,120,-0.0643921,-0.00518799,0.00184243,0.00154727,0.000427079,0.00214671,0.00124299,0.619042,0.00124455,0.0245487,692,904,-0.0644142,0.00519848
-525,120,-0.0667114,0.0733032,0.00278973,0.00225118,0.000513704,0.00310046,0.00194045,0.543992,0.00180885,0.0310902,699,904,-0.0667028,-0.0732926
-518,120,-0.152161,0.157898,0.00409811,0.00315057,0.000582079,0.00437486,0.00287382,0.44381,0.00256694,0.0355059,706,904,-0.152134,-0.157914
-511,120,0.0403442,0.0480347,0.0059047,0.00426798,0.00056344,0.0060799,0.00409278,0.301484,0.00357972,0.0367295,713,904,0.0403633,-0.0480384
-504,120,0,0,0,0,0,0,0,0,0,-1,720,904,0,0
-497,120,0,0,0,0,0,0,0,0,0,-1,727,904,0,0
-490,120,0,0,0,0,0,0,0,0,0,-1,734,904,0,0
-483,120,0,0,0,0,0,0,0,0,0,-1,741,904,0,0
-476,120,0,0,0,0,0,0,0,0,0,-1,748,904,0,0
-469,120,0,0,0,0,0,0,0,0,0,-1,755,904,0,0
-462,120,0,0,0,0,0,0,0,0,0,-1,762,904,0,0
-455,120,0,0,0,0,0,0,0,0,0,-1,769,904,0,0
-448,120,0,0,0,0,0,0,0,0,0,-1,776,904,0,0
-441,120,0,0,0,0,0,0,0,0,0,-1,783,904,0,0
-434,120,0,0,0,0,0,0,0,0,0,-1,790,904,0,0
-427,120,0,0,0,0,0,0,0,0,0,-1,797,904,0,0
-420,120,0,0,0,0,0,0,0,0,0,-1,804,904,0,0
-413,120,0,0,0,0,0,0,0,0,0,-1,811,904,0,0
-406,120,0,0,0,0,0,0,0,0,0,-1,818,904,0,0
-399,120,0,0,0,0,0,0,0,0,0,-1,825,904,0,0
-392,120,0,0,0,0,0,0,0,0,0,-1,832,904,0,0
-385,120,0,0,0,0,0,0,0,0,0,-1,839,904,0,0
-378,120,0,0,0,0,0,0,0,0,0,-1,846,904,0,0
-371,120,0,0,0,0,0,0,0,0,0,-1,853,904,0,0
-364,120,0,0,0,0,0,0,0,0,0,-1,860,904,0,0
-357,120,0,0,0,0,0,0,0,0,0,-1,867,904,0,0
-350,120,0,0,0,0,0,0,0,0,0,-1,874,904,0,0
-343,120,0,0,0,0,0,0,0,0,0,-1,881,904,0,0
-336,120,0,0,0,0,0,0,0,0,0,-1,888,904,0,0
-329,120,0,0,0,0,0,0,0,0,0,-1,895,904,0,0
-322,120,0,0,0,0,0,0,0,0,0,-1,902,904,0,0
-315,120,0,0,0,0,0,0,0,0,0,-1,909,904,0,0
-308,120,0,0,0,0,0,0,0,0,0,-1,916,904,0,0
-301,120,0,0,0,0,0,0,0,0,0,-1,923,904,0,0
-294,120,0,0,0,0,0,0,0,0,0,-1,930,904,0,0
-287,120,0,0,0,0,0,0,0,0,0,-1,937,904,0,0
-280,120,0,0,0,0,0,0,0,0,0,-1,944,904,0,0
-273,120,0,0,0,0,0,0,0,0,0,-1,951,904,0,0
-266,120,0,0,0,0,0,0,0,0,0,-1,958,904,0,0
-259,120,0,0,0,0,0,0,0,0,0,-1,965,904,0,0
-252,120,0,0,0,0,0,0,0,0,0,-1,972,904,0,0
-245,120,0,0,0,0,0,0,0,0,0,-1,979,904,0,0
-238,120,0,0,0,0,0,0,0,0,0,-1,986,904,0,0
-231,120,0,0,0,0,0,0,0,0,0,-1,993,904,0,0
-224,120,0,0,0,0,0,0,0,0,0,-1,1000,904,0,0
-217,120,0,0,0,0,0,0,0,0,0,-1,1007,904,0,0
-210,120,0,0,0,0,0,0,0,0,0,-1,1014,904,0,0
-203,120,0,0,0,0,0,0,0,0,0,-1,1021,904,0,0
-196,120,0,0,0,0,0,0,0,0,0,-1,1028,904,0,0
-189,120,0,0,0,0,0,0,0,0,0,-1,1035,904,0,0
-182,120,0,0,0,0,0,0,0,0,0,-1,1042,904,0,0
-175,120,0,0,0,0,0,0,0,0,0,-1,1049,904,0,0
-168,120,0,0,0,0,0,0,0,0,0,-1,1056,904,0,0
-161,120,0,0,0,0,0,0,0,0,0,-1,1063,904,0,0
-154,120,0,0,0,0,0,0,0,0,0,-1,1070,904,0,0
-147,120,0,0,0,0,0,0,0,0,0,-1,1077,904,0,0
-140,120,0,0,0,0,0,0,0,0,0,-1,1084,904,0,0
-133,120,0,0,0,0,0,0,0,0,0,-1,1091,904,0,0
-126,120,0,0,0,0,0,0,0,0,0,-1,1098,904,0,0
-119,120,0,0,0,0,0,0,0,0,0,-1,1105,904,0,0
-112,120,0,0,0,0,0,0,0,0,0,-1,1112,904,0,0
-105,120,0,0,0,0,0,0,0,0,0,-1,1119,904,0,0
-98,120,0,0,0,0,0,0,0,0,0,-1,1126,904,0,0
-91,120,0,0,0,0,0,0,0,0,0,-1,1133,904,0,0
-84,120,0,0,0,0,0,0,0,0,0,-1,1140,904,0,0
-77,120,0,0,0,0,0,0,0,0,0,-1,1147,904,0,0
-70,120,0,0,0,0,0,0,0,0,0,-1,1154,904,0,0
-63,120,0,0,0,0,0,0,0,0,0,-1,1161,904,0,0
-56,120,0,0,0,0,0,0,0,0,0,-1,1168,904,0,0
-49,120,0,0,0,0,0,0,0,0,0,-1,1175,904,0,0
-42,120,0,0,0,0,0,0,0,0,0,-1,1182,904,0,0
-35,120,0,0,0,0,0,0,0,0,0,-1,1189,904,0,0
-28,120,0,0,0,0,0,0,0,0,0,-1,1196,904,0,0
-21,120,0,0,0,0,0,0,0,0,0,-1,1203,904,0,0
-14,120,0,0,0,0,0,0,0,0,0,-1,1210,904,0,0
-7,120,0,0,0,0,0,0,0,0,0,-1,1217,904,0,0
0,120,0,0,0,0,0,0,0,0,0,-1,1224,904,0,0
7,120,0,0,0,0,0,0,0,0,0,-1,1231,904,0,0
14,120,0,0,0,0,0,0,0,0,0,-1,1238,904,0,0
21,120,0,0,0,0,0,0,0,0,0,-1,1245,904,0,0
28,120,0,0,0,0,0,0,0,0,0,-1,1252,904,0,0
35,120,0,0,0,0,0,0,0,0,0,-1,1259,904,0,0
42,120,0,0,0,0,0,0,0,0,0,-1,1266,904,0,0
49,120,0,0,0,0,0,0,0,0,0,-1,1273,904,0,0
56,120,0,0,0,0,0,0,0,0,0,-1,1280,904,0,0
63,120,0,0,0,0,0,0,0,0,0,-1,1287,904,0,0
70,120,0,0,0,0,0,0,0,0,0,-1,1294,904,0,0
77,120,0,0,0,0,0,0,0,0,0,-1,1301,904,0,0
84,120,0,0,0,0,0,0,0,0,0,-1,1308,904,0,0
91,120,0,0,0,0,0,0,0,0,0,-1,1315,904,0,0
98,120,0,0,0,0,0,0,0,0,0,-1,1322,904,0,0
105,120,0,0,0,0,0,0,0,0,0,-1,1329,904,0,0
112,120,0,0,0,0,0,0,0,0,0,-1,1336,904,0,0
119,120,0,0,0,0,0,0,0,0,0,-1,1343,904,0,0
126,120,0,0,0,0,0,0,0,0,0,-1,1350,904,0,0
133,120,0,0,0,0,0,0,0,0,0,-1,1357,904,0,0
140,120,0,0,0,0,0,0,0,0,0,-1,1364,904,0,0
147,120,0,0,0,0,0,0,0,0,0,-1,1371,904,0,0
154,120,0,0,0,0,0,0,0,0,0,-1,1378,904,0,0
161,120,0,0,0,0,0,0,0,0,0,-1,1385,904,0,0
168,120,0,0,0,0,0,0,0,0,0,-1,1392,904,0,0
175,120,0,0,0,0,0,0,0,0,0,-1,1399,904,0,0
182,120,0,0,0,0,0,0,0,0,0,-1,1406,904,0,0
189,120,0,0,0,0,0,0,0,0,0,-1,1413,904,0,0
196,120,0,0,0,0,0,0,0,0,0,-1,1420,904,0,0
203,120,0,0,0,0,0,0,0,0,0,-1,1427,904,0,0
210,120,0,0,0,0,0,0,0,0,0,-1,1434,904,0,0
217,120,0,0,0,0,0,0,0,0,0,-1,1441,904,0,0
224,120,0,0,0,0,0,0,0,0,0,-1,1448,904,0,0
231,120,0,0,0,0,0,0,0,0,0,-1,1455,904,0,0
238,120,0,0,0,0,0,0,0,0,0,-1,1462,904,0,0
245,120,0,0,0,0,0,0,0,0,0,-1,1469,904,0,0
252,120,0,0,0,0,0,0,0,0,0,-1,1476,904,0,0
259,120,0,0,0,0,0,0,0,0,0,-1,1483,904,0,0
266,120,0,0,0,0,0,0,0,0,0,-1,1490,904,0,0
273,120,0,0,0,0,0,0,0,0,0,-1,1497,904,0,0
280,120,0,0,0,0,0,0,0,0,0,-1,1504,904,0,0
287,120,0,0,0,0,0,0,0,0,0,-1,1511,904,0,0
294,120,0,0,0,0,0,0,0,0,0,-1,1518,904,0,0
301,120,0,0,0,0,0,0,0,0,0,-1,1525,904,0,0
308,120,0,0,0,0,0,0,0,0,0,-1,1532,904,0,0
315,120,0,0,0,0,0,0,0,0,0,-1,1539,904,0,0
322,120,0,0,0,0,0,0,0,0,0,-1,1546,904,0,0
329,120,0,0,0,0,0,0,0,0,0,-1,1553,904,0,0
336,120,0,0,0,0,0,0,0,0,0,-1,1560,904,0,0
343,120,0,0,0,0,0,0,0,0,0,-1,1567,904,0,0
350,120,0,0,0,0,0,0,0,0,0,-1,1574,904,0,0
357,120,0,0,0,0,0,0,0,0,0,-1,1581,904,0,0
364,120,0,0,0,0,0,0,0,0,0,-1,1588,904,0,0
371,120,0,0,0,0,0,0,0,0,0,-1,1595,904,0,0
378,120,0,0,0,0,0,0,0,0,0,-1,1602,904,0,0
385,120,0,0,0,0,0,0,0,0,0,-1,1609,904,0,0
392,120,0,0,0,0,0,0,0,0,0,-1,1616,904,0,0
399,120,0,0,0,0,0,0,0,0,0,-1,1623,904,0,0
406,120,0,0,0,0,0,0,0,0,0,-1,1630,904,0,0
413,120,0,0,0,0,0,0,0,0,0,-1,1637,904,0,0
420,120,0,0,0,0,0,0,0,0,0,-1,1644,904,0,0
427,120,0,0,0,0,0,0,0,0,0,-1,1651,904,0,0
434,120,0,0,0,0,0,0,0,0,0,-1,1658,904,0,0
441,120,0,0,0,0,0,0,0,0,0,-1,1665,904,0,0
448,120,0,0,0,0,0,0,0,0,0,-1,1672,904,0,0
455,120,0,0,0,0,0,0,0,0,0,-1,1679,904,0,0
462,120,0,0,0,0,0,0,0,0,0,-1,1686,904,0,0
469,120,0,0,0,0,0,0,0,0,0,-1,1693,904,0,0
476,120,0,0,0,0,0,0,0,0,0,-1,1700,904,0,0
483,120,0,0,0,0,0,0,0,0,0,-1,1707,904,0,0
490,120,0,0,0,0,0,0,0,0,0,-1,1714,904,0,0
497,120,0,0,0,0,0,0,0,0,0,-1,1721,904,0,0
504,120,0,0,0,0,0,0,0,0,0,-1,1728,904,0,0
511,120,0,0,0,0,0,0,0,0,0,-1,1735,904,0,0
518,120,0,0,0,0,0,0,0,0,0,-1,1742,904,0,0
525,120,0,0,0,0,0,0,0,0,0,-1,1749,904,0,0
532,120,0,0,0,0,0,0,0,0,0,-1,1756,904,0,0
539,120,0,0,0,0,0,0,0,0,0,-1,1763,904,0,0
546,120,0,0,0,0,0,0,0,0,0,-1,1770,904,0,0
553,120,0,0,0,0,0,0,0,0,0,-1,1777,904,0,0
560,120,0,0,0,0,0,0,0,0,0,-1,1784,904,0,0
567,120,0,0,0,0,0,0,0,0,0,-1,1791,904,0,0
574,120,0,0,0,0,0,0,0,0,0,-1,1798,904,0,0
581,120,0,0,0,0,0,0,0,0,0,-1,1805,904,0,0
588,120,0,0,0,0,0,0,0,0,0,-1,1812,904,0,0
595,120,0,0,0,0,0,0,0,0,0,-1,1819,904,0,0
602,120,0,0,0,0,0,0,0,0,0,-1,1826,904,0,0
609,120,0,0,0,0,0,0,0,0,0,-1,1833,904,0,0
616,120,0,0,0,0,0,0,0,0,0,-1,1840,904,0,0
623,120,0,0,0,0,0,0,0,0,0,-1,1847,904,0,0
630,120,0.0205078,-0.132629,-0.00419695,0.00277883,0.00147242,0.00307688,-0.00449501,1.37107,0.00439712,0.0332369,1854,904,0.0204954,0.132638
637,120,-0.144653,-0.0140381,-0.00272546,0.00194976,0.000921269,0.00212475,-0.00290045,1.38309,0.0029128,0.0372037,1861,904,-0.144678,0.0140412
644,120,-0.241821,-0.0651245,-0.00171881,0.00135577,0.000495031,0.00143351,-0.00179654,1.41503,0.0018688,0.0377061,1868,904,-0.241785,0.0650956
651,120,-0.185181,-0.0820923,-0.0011042,0.000949514,0.00019897,0.000968613,-0.0011233,1.4751,0.00120887,0.0399287,1875,904,-0.185229,0.0821046
658,120,-0.105347,0.0458984,-0.000720571,0.000675908,-6.19225e-06,0.000675936,-0.000720598,-1.56636,0.000806427,0.0403163,1882,904,-0.105318,-0.0459031
665,120,-0.0889893,0.0635986,-0.000501524,0.00049211,-0.00013297,0.000509597,-0.000519011,-1.44004,0.000593875,0.0340523,1889,904,-0.0890336,-0.0636084
672,120,-0.074585,-0.00854492,-0.000374386,0.000362559,-0.000190202,0.000408754,-0.000420581,-1.33254,0.000478833,0.032016,1896,904,-0.0745601,0.00853323
679,120,-0.0598145,-0.0563354,-0.000295602,0.000250735,-0.000220533,0.000328645,-0.000373512,-1.2312,0.000405666,0.0242328,1903,904,-0.0598708,0.0563375
686,120,-0.0657959,-0.0523071,-0.000193431,0.00019096,-0.000294395,0.000350343,-0.000352814,-1.07459,0.000405969,0.0123799,1910,904,-0.0658026,0.052311
693,120,-0.0943604,-0.0667114,-0.000123516,0.000155185,-0.000254831,0.000306278,-0.000274609,-1.0356,0.000335541,0.0203231,1917,904,-0.0943694,0.066722
700,120,-0.104004,-0.0646362,-0.0001758,0.000129729,-0.000206537,0.000233858,-0.000279929,-1.10382,0.000297032,0.0161336,1924,904,-0.103997,0.0646296
707,120,-0.107544,-0.0472412,-0.000133699,7.20807e-05,-0.000226886,0.000218317,-0.000279935,-0.998273,0.000288398,0.0166307,1931,904,-0.107596,0.0472694
714,120,-0.0799561,-0.0519409,0.000234441,-4.79355e-07,-0.00037104,0.000506169,-0.000272207,-0.632104,0.000456112,0.0141229,1938,904,-0.0799583,0.0519209
721,120,-0.0703125,-0.0397949,0.000856362,-0.000148488,-0.000728876,0.0012392,-0.000531326,-0.483639,0.00104909,0.0120692,1945,904,-0.0703261,0.0398105
728,120,-0.0720215,-0.0502319,0.00199309,-0.000315062,-0.00137919,0.00263736,-0.000959338,-0.437015,0.00215057,0.00871202,1952,904,-0.0720819,0.0502578
735,120,-0.0751953,-0.0643921,0.00340116,-0.000611262,-0.00256506,0.00465139,-0.00186149,-0.453523,0.00387351,0.0107875,1959,904,-0.0751913,0.0643659
742,120,-0.0825195,-0.0499878,0.00498789,-0.000157642,-0.00441722,0.00752697,-0.00269672,-0.521694,0.0061183,0.0119424,1966,904,-0.0825756,0.0500058
749,120,-0.0874023,-0.0427246,0.00723953,0.00024838,-0.00645762,0.011087,-0.00359906,-0.537325,0.00883873,0.00912212,1973,904,-0.0874617,0.0427517
756,120,-0.0839844,-0.0418701,0.00996191,0.000984522,-0.00894479,0.0154811,-0.00453466,-0.552846,0.0121185,0.0101095,1980,904,-0.0839333,0.0418562
763,120,-0.0699463,-0.103516,0.0133755,0.00215034,-0.0123057,0.0212881,-0.00576226,-0.571442,0.0164527,0.0195713,1987,904,-0.0699718,0.103535
770,120,-0.140015,-0.680725,0.017577,0.00408553,-0.0164675,0.0286269,-0.00696435,-0.591004,0.0217804,0.0393356,1994,904,-0.140048,0.680727
777,120,-0.235352,-1.28461,0,0,0,0,0,0,0,-1,2001,904,-0.235334,1.28462
784,120,0.665405,-0.824951,0,0,0,0,0,0,0,-1,2008,904,0.66542,0.824967
791,120,-2.23804,-0.668152,0,0,0,0,0,0,0,-1,2015,904,-2.23798,0.668147
798,120,-2.79297,-0.752136,0,0,0,0,0,0,0,-1,2022,904,-2.79297,0.752117
805,120,0,0,0,0,0,0,0,0,0,-1,2029,904,0,0
812,120,0,0,0,0,0,0,0,0,0,-1,2036,904,0,0
-700,113,0,0,0,0,0,0,0,0,0,-1,524,911,0,0
-693,113,0,0,0,0,0,0,0,0,0,-1,531,911,0,0
-686,113,0,0,0,0,0,0,0,0,0,-1,538,911,0,0
-679,113,-1.45575,1.95984,0.0314752,0.0151391,0.000191515,0.0314775,0.0151369,0.0117213,0.018178,0.0472413,545,911,-1.45573,-1.95983
-672,113,-1.15027,2.74976,0.0262465,0.0103343,-0.00176362,0.0264396,0.0101412,-0.109071,0.0154023,0.0470163,552,911,-1.15025,-2.74974
-665,113,-1.21191,3.48639,0,0,0,0,0,0,0,-1,559,911,-1.21192,-3.48642
-658,113,-0.897034,0.4729,0,0,0,0,0,0,0,-1,566,911,-0.897035,-0.472875
-651,113,-0.588928,0.374817,0.0142003,0.00242344,-0.00337307,0.0150979,0.00152577,-0.260102,0.00959722,0.0446618,573,911,-0.588903,-0.374805
-644,113,-0.25415,0.269836,0.0111997,0.0012113,-0.00309866,0.0120829,0.000328113,-0.277661,0.00794816,0.0404663,580,911,-0.254134,-0.269811
-637,113,-0.109985,0.0671997,0.00863582,0.000460526,-0.00263811,0.0094132,-0.000316852,-0.286562,0.00638371,0.0322143,587,911,-0.109984,-0.0672191
-630,113,-0.0847778,-0.0524292,0.0064968,7.00102e-05,-0.00210123,0.00712282,-0.000556004,-0.289555,0.00494431,0.0143237,594,911,-0.0847972,0.0524087
-623,113,-0.0675049,-0.0476685,0.00447055,-0.000914063,-0.00161627,0.00491844,-0.00136196,-0.270331,0.00381487,0.00901842,601,911,-0.0675176,0.047695
-616,113,-0.0601807,-0.0534668,0.00283823,-0.000706212,-0.00139986,0.00332441,-0.00119239,-0.334274,0.00270288,0.00912956,608,911,-0.0602087,0.0534627
-609,113,-0.0641479,-0.0449219,0.00217482,-0.000277715,-0.000789158,0.00240681,-0.0005097,-0.285911,0.00179868,0.0104171,615,911,-0.0641749,0.0449061
-602,113,-0.0812988,-0.0256958,0.0012786,-0.000122065,-0.0003166,0.00134684,-0.000190304,-0.212288,0.000967585,0.0126232,622,911,-0.0812716,0.0256868
-595,113,-0.072937,-0.0346069,0.000503678,-0.000287164,-1.5374e-05,0.000503977,-0.000287463,-0.0194302,0.000462602,0.0149276,629,911,-0.0729152,0.0345922
-588,113,-0.053833,-0.0530396,0.000116038,3.19179e-05,7.08392e-05,0.000156363,-8.40662e-06,0.517495,0.000107154,0.015919,636,911,-0.0538233,0.0530693
-581,113,-0.0750122,-0.0480347,-0.000146498,8.04453e-05,9.38097e-06,8.08324e-05,-0.000146885,1.52955,0.000133303,0.0173127,643,911,-0.0750211,0.0480351
-574,113,-0.076416,-0.0297852,-0.000241716,0.000162376,5.58492e-05,0.000169953,-0.000249293,1.43595,0.000243492,0.0154153,650,911,-0.0764308,0.0297763
-567,113,-0.0689697,0.0172729,-8.49003e-05,0.0002866,4.18067e-05,0.000291246,-8.95469e-05,1.46011,0.000229902,0.0266921,657,911,-0.0689675,-0.0172822
-560,113,-0.046814,0.0886841,9.533e-05,0.000520238,5.63617e-05,0.000527587,8.7981e-05,1.44114,0.000326375,0.0388189,664,911,-0.0468178,-0.088684
-553,113,-0.0249023,0.175537,0.000324865,0.000750186,4.60479e-05,0.000755114,0.000319936,1.46418,0.000437654,0.0370388,671,911,-0.0248929,-0.175529
-546,113,-0.0906982,0.0965576,0.000616753,0.00107616,8.03655e-05,0.00108981,0.000603101,1.40252,0.000630399,0.0345638,678,911,-0.0906729,-0.0965428
-539,113,-0.130249,0.039978,0.00107517,0.00151033,0.000138168,0.0015505,0.00103501,1.28791,0.000911775,0.033986,685,911,-0.130255,-0.0399625
-532,113,-0.0214233,-0.133545,0.00178391,0.00208023,0.000222582,0.00219945,0.00166468,1.07905,0.00132453,0.0346596,692,911,-0.0214231,0.133516
-525,113,-0.041626,-0.20343,0.00280169,0.00281144,0.000332078,0.00313868,0.00247445,0.792738,0.00190994,0.0350767,699,911,-0.0416271,0.203426
-518,113,-0.0682983,-0.127014,0.00425062,0.00373079,0.000465578,0.00452392,0.00345749,0.530814,0.00273079,0.0375866,706,911,-0.0682889,0.126991
-511,113,-0.154053,-0.109131,0.00634534,0.0048888,0.000576557,0.00654593,0.0046882,0.334824,0.00389529,0.0368186,713,911,-0.154063,0.109143
-504,113,0,0,0,0,0,0,0,0,0,-1,720,911,0,0
-497,113,0,0,0,0,0,0,0,0,0,-1,727,911,0,0
-490,113,0,0,0,0,0,0,0,0,0,-1,734,911,0,0
-483,113,0,0,0,0,0,0,0,0,0,-1,741,911,0,0
-476,113,0,0,0,0,0,0,0,0,0,-1,748,911,0,0
-469,113,0,0,0,0,0,0,0,0,0,-1,755,911,0,0
-462,113,0,0,0,0,0,0,0,0,0,-1,762,911,0,0
-455,113,0,0,0,0,0,0,0,0,0,-1,769,911,0,0
-448,113,0,0,0,0,0,0,0,0,0,-1,776,911,0,0
-441,113,0,0,0,0,0,0,0,0,0,-1,783,911,0,0
-434,113,0,0,0,0,0,0,0,0,0,-1,790,911,0,0
-427,113,0,0,0,0,0,0,0,0,0,-1,797,911,0,0
-420,113,0,0,0,0,0,0,0,0,0,-1,804,911,0,0
-413,113,0,0,0,0,0,0,0,0,0,-1,811,911,0,0
-406,113,0,0,0,0,0,0,0,0,0,-1,818,911,0,0
-399,113,0,0,0,0,0,0,0,0,0,-1,825,911,0,0
-392,113,0,0,0,0,0,0,0,0,0,-1,832,911,0,0
-385,113,0,0,0,0,0,0,0,0,0,-1,839,911,0,0
-378,113,0,0,0,0,0,0,0,0,0,-1,846,911,0,0
-371,113,0,0,0,0,0,0,0,0,0,-1,853,911,0,0
-364,113,0,0,0,0,0,0,0,0,0,-1,860,911,0,0
-357,113,0,0,0,0,0,0,0,0,0,-1,867,911,0,0
-350,113,0,0,0,0,0,0,0,0,0,-1,874,911,0,0
-343,113,0,0,0,0,0,0,0,0,0,-1,881,911,0,0
-336,113,0,0,0,0,0,0,0,0,0,-1,888,911,0,0
-329,113,0,0,0,0,0,0,0,0,0,-1,895,911,0,0
-322,113,0,0,0,0,0,0,0,0,0,-1,902,911,0,0
-315,113,0,0,0,0,0,0,0,0,0,-1,909,911,0,0
-308,113,0,0,0,0,0,0,0,0,0,-1,916,911,0,0
-301,113,0,0,0,0,0,0,0,0,0,-1,923,911,0,0
-294,113,0,0,0,0,0,0,0,0,0,-1,930,911,0,0
-287,113,0,0,0,0,0,0,0,0,0,-1,937,911,0,0
-280,113,0,0,0,0,0,0,0,0,0,-1,944,911,0,0
-273,113,0,0,0,0,0,0,0,0,0,-1,951,911,0,0
-266,113,0,0,0,0,0,0,0,0,0,-1,958,911,0,0
-259,113,0,0,0,0,0,0,0,0,0,-1,965,911,0,0
-252,113,0,0,0,0,0,0,0,0,0,-1,972,911,0,0
-245,113,0,0,0,0,0,0,0,0,0,-1,979,911,0,0
-238,113,0,0,0,0,0,0,0,0,0,-1,986,911,0,0
-231,113,0,0,0,0,0,0,0,0,0,-1,993,911,0,0
-224,113,0,0,0,0,0,0,0,0,0,-1,1000,911,0,0
-217,113,0,0,0,0,0,0,0,0,0,-1,1007,911,0,0
-210,113,0,0,0,0,0,0,0,0,0,-1,1014,911,0,0
-203,113,0,0,0,0,0,0,0,0,0,-1,1021,911,0,0
-196,113,0,0,0,0,0,0,0,0,0,-1,1028,911,0,0
-189,113,0,0,0,0,0,0,0,0,0,-1,1035,911,0,0
-182,113,0,0,0,0,0,0,0,0,0,-1,1042,911,0,0
-175,113,0,0,0,0,0,0,0,0,0,-1,1049,911,0,0
-168,113,0,0,0,0,0,0,0,0,0,-1,1056,911,0,0
-161,113,0,0,0,0,0,0,0,0,0,-1,1063,911,0,0
-154,113,0,0,0,0,0,0,0,0,0,-1,1070,911,0,0
-147,113,0,0,0,0,0,0,0,0,0,-1,1077,911,0,0
-140,113,0,0,0,0,0,0,0,0,0,-1,1084,911,0,0
-133,113,0,0,0,0,0,0,0,0,0,-1,1091,911,0,0
-126,113,0,0,0,0,0,0,0,0,0,-1,1098,911,0,0
-119,113,0,0,0,0,0,0,0,0,0,-1,1105,911,0,0
-112,113,0,0,0,0,0,0,0,0,0,-1,1112,911,0,0
-105,113,0,0,0,0,0,0,0,0,0,-1,1119,911,0,0
-98,113,0,0,0,0,0,0,0,0,0,-1,1126,911,0,0
-91,113,0,0,0,0,0,0,0,0,0,-1,1133,911,0,0
-84,113,0,0,0,0,0,0,0,0,0,-1,1140,911,0,0
-77,113,0,0,0,0,0,0,0,0,0,-1,1147,911,0,0
-70,113,0,0,0,0,0,0,0,0,0,-1,1154,911,0,0
-63,113,0,0,0,0,0,0,0,0,0,-1,1161,911,0,0
-56,113,0,0,0,0,0,0,0,0,0,-1,1168,911,0,0
-49,113,0,0,0,0,0,0,0,0,0,-1,1175,911,0,0
-42,113,0,0,0,0,0,0,0,0,0,-1,1182,911,0,0
-35,113,0,0,0,0,0,0,0,0,0,-1,1189,911,0,0
-28,113,0,0,0,0,0,0,0,0,0,-1,1196,911,0,0
-21,113,0,0,0,0,0,0,0,0,0,-1,1203,911,0,0
-14,113,0,0,0,0,0,0,0,0,0,-1,1210,911,0,0
-7,113,0,0,0,0,0,0,0,0,0,-1,1217,911,0,0
0,113,0,0,0,0,0,0,0,0,0,-1,1224,911,0,0
7,113,0,0,0,0,0,0,0,0,0,-1,1231,911,0,0
14,113,0,0,0,0,0,0,0,0,0,-1,1238,911,0,0
21,113,0,0,0,0,0,0,0,0,0,-1,1245,911,0,0
28,113,0,0,0,0,0,0,0,0,0,-1,1252,911,0,0
35,113,0,0,0,0,0,0,0,0,0,-1,1259,911,0,0
42,113,0,0,0,0,0,0,0,0,0,-1,1266,911,0,0
49,113,0,0,0,0,0,0,0,0,0,-1,1273,911,0,0
56,113,0,0,0,0,0,0,0,0,0,-1,1280,911,0,0
63,113,0,0,0,0,0,0,0,0,0,-1,1287,911,0,0
70,113,0,0,0,0,0,0,0,0,0,-1,1294,911,0,0
77,113,0,0,0,0,0,0,0,0,0,-1,1301,911,0,0
84,113,0,0,0,0,0,0,0,0,0,-1,1308,911,0,0
91,113,0,0,0,0,0,0,0,0,0,-1,1315,911,0,0
98,113,0,0,0,0,0,0,0,0,0,-1,1322,911,0,0
105,113,0,0,0,0,0,0,0,0,0,-1,1329,911,0,0
112,113,0,0,0,0,0,0,0,0,0,-1,1336,911,0,0
119,113,0,0,0,0,0,0,0,0,0,-1,1343,911,0,0
126,113,0,0,0,0,0,0,0,0,0,-1,1350,911,0,0
133,113,0,0,0,0,0,0,0,0,0,-1,1357,911,0,0
140,113,0,0,0,0,0,0,0,0,0,-1,1364,911,0,0
147,113,0,0,0,0,0,0,0,0,0,-1,1371,911,0,0
154,113,0,0,0,0,0,0,0,0,0,-1,1378,911,0,0
161,113,0,0,0,0,0,0,0,0,0,-1,1385,911,0,0
168,113,0,0,0,0,0,0,0,0,0,-1,1392,911,0,0
175,113,0,0,0,0,0,0,0,0,0,-1,1399,911,0,0
182,113,0,0,0,0,0,0,0,0,0,-1,1406,911,0,0
189,113,0,0,0,0,0,0,0,0,0,-1,1413,911,0,0
196,113,0,0,0,0,0,0,0,0,0,-1,1420,911,0,0
203,113,0,0,0,0,0,0,0,0,0,-1,1427,911,0,0
210,113,0,0,0,0,0,0,0,0,0,-1,1434,911,0,0
217,113,0,0,0,0,0,0,0,0,0,-1,1441,911,0,0
224,113,0,0,0,0,0,0,0,0,0,-1,1448,911,0,0
231,113,0,0,0,0,0,0,0,0,0,-1,1455,911,0,0
238,113,0,0,0,0,0,0,0,0,0,-1,1462,911,0,0
245,113,0,0,0,0,0,0,0,0,0,-1,1469,911,0,0
252,113,0,0,0,0,0,0,0,0,0,-1,1476,911,0,0
259,113,0,0,0,0,0,0,0,0,0,-1,1483,911,0,0
266,113,0,0,0,0,0,0,0,0,0,-1,1490,911,0,0
273,113,0,0,0,0,0,0,0,0,0,-1,1497,911,0,0
280,113,0,0,0,0,0,0,0,0,0,-1,1504,911,0,0
287,113,0,0,0,0,0,0,0,0,0,-1,1511,911,0,0
294,113,0,0,0,0,0,0,0,0,0,-1,1518,911,0,0
301,113,0,0,0,0,0,0,0,0,0,-1,1525,911,0,0
308,113,0,0,0,0,0,0,0,0,0,-1,1532,911,0,0
315,113,0,0,0,0,0,0,0,0,0,-1,1539,911,0,0
322,113,0,0,0,0,0,0,0,0,0,-1,1546,911,0,0
329,113,0,0,0,0,0,0,0,0,0,-1,1553,911,0,0
336,113,0,0,0,0,0,0,0,0,0,-1,1560,911,0,0
343,113,0,0,0,0,0,0,0,0,0,-1,1567,911,0,0
350,113,0,0,0,0,0,0,0,0,0,-1,1574,911,0,0
357,113,0,0,0,0,0,0,0,0,0,-1,1581,911,0,0
364,113,0,0,0,0,0,0,0,0,0,-1,1588,911,0,0
371,113,0,0,0,0,0,0,0,0,0,-1,1595,911,0,0
378,113,0,0,0,0,0,0,0,0,0,-1,1602,911,0,0
385,113,0,0,0,0,0,0,0,0,0,-1,1609,911,0,0
392,113,0,0,0,0,0,0,0,0,0,-1,1616,911,0,0
399,113,0,0,0,0,0,0,0,0,0,-1,1623,911,0,0
406,113,0,0,0,0,0,0,0,0,0,-1,1630,911,0,0
413,113,0,0,0,0,0,0,0,0,0,-1,1637,911,0,0
420,113,0,0,0,0,0,0,0,0,0,-1,1644,911,0,0
427,113,0,0,0,0,0,0,0,0,0,-1,1651,911,0,0
434,113,0,0,0,0,0,0,0,0,0,-1,1658,911,0,0
441,113,0,0,0,0,0,0,0,0,0,-1,1665,911,0,0
448,113,0,0,0,0,0,0,0,0,0,-1,1672,911,0,0
455,113,0,0,0,0,0,0,0,0,0,-1,1679,911,0,0
462,113,0,0,0,0,0,0,0,0,0,-1,1686,911,0,0
469,113,0,0,0,0,0,0,0,0,0,-1,1693,911,0,0
476,113,0,0,0,0,0,0,0,0,0,-1,1700,911,0,0
483,113,0,0,0,0,0,0,0,0,0,-1,1707,911,0,0
490,113,0,0,0,0,0,0,0,0,0,-1,1714,911,0,0
497,113,0,0,0,0,0,0,0,0,0,-1,1721,911,0,0
504,113,0,0,0,0,0,0,0,0,0,-1,1728,911,0,0
511,113,0,0,0,0,0,0,0,0,0,-1,1735,911,0,0
518,113,0,0,0,0,0,0,0,0,0,-1,1742,911,0,0
525,113,0,0,0,0,0,0,0,0,0,-1,1749,911,0,0
532,113,0,0,0,0,0,0,0,0,0,-1,1756,911,0,0
539,113,0,0,0,0,0,0,0,0,0,-1,1763,911,0,0
546,113,0,0,0,0,0,0,0,0,0,-1,1770,911,0,0
553,113,0,0,0,0,0,0,0,0,0,-1,1777,911,0,0
560,113,0,0,0,0,0,0,0,0,0,-1,1784,911,0,0
567,113,0,0,0,0,0,0,0,0,0,-1,1791,911,0,0
574,113,0,0,0,0,0,0,0,0,0,-1,1798,911,0,0
581,113,0,0,0,0,0,0,0,0,0,-1,1805,911,0,0
588,113,0,0,0,0,0,0,0,0,0,-1,1812,911,0,0
595,113,0,0,0,0,0,0,0,0,0,-1,1819,911,0,0
602,113,0,0,0,0,0,0,0,0,0,-1,1826,911,0,0
609,113,0,0,0,0,0,0,0,0,0,-1,1833,911,0,0
616,113,0,0,0,0,0,0,0,0,0,-1,1840,911,0,0
623,113,0,0,0,0,0,0,0,0,0,-1,1847,911,0,0
630,113,-0.0714111,0.00250244,-0.00451776,0.0029692,0.00198355,0.00346224,-0.0050108,1.32717,0.00491907,0.0341439,1854,911,-0.0713945,-0.002508
637,113,-0.155762,0.125488,-0.00288115,0.00215467,0.001281,0.0024618,-0.00318828,1.33548,0.00327105,0.0349611,1861,911,-0.155731,-0.125489
644,113,-0.203979,0.115417,-0.00181168,0.00156375,0.00074438,0.00172062,-0.00196855,1.3631,0.00213155,0.035013,1868,911,-0.20401,-0.115409
651,113,-0.10083,0.105408,-0.00117039,0.00115005,0.00036695,0.00120669,-0.00122703,1.41764,0.00140513,0.0391822,1875,911,-0.100775,-0.105423
658,113,0.03479,0.0338745,-0.000779877,0.000861266,0.000103871,0.000867814,-0.000786425,1.50784,0.00095546,0.0413335,1882,911,0.0347526,-0.0338743
665,113,-0.00732422,-0.107178,-0.000560205,0.000658434,-6.26696e-05,0.000661649,-0.00056342,-1.51955,0.000708051,0.0345202,1889,911,-0.00727745,0.107198
672,113,-0.0335693,-0.0679932,-0.0004289,0.000518388,-0.000150713,0.000541788,-0.000452301,-1.41676,0.000574712,0.0316726,1896,911,-0.0335958,0.0680135
679,113,-0.0462646,-0.041626,-0.000348038,0.000387296,-0.000197289,0.000436885,-0.000397626,-1.32455,0.000481983,0.0266697,1903,911,-0.0463053,0.0416449
686,113,-0.0556641,-0.0980225,-0.000242177,0.000307831,-0.000283021,0.00042745,-0.000361797,-1.17091,0.000456197,0.0185371,1910,911,-0.0556697,0.0980502
693,113,-0.0772705,-0.0753784,-0.000160875,0.00024465,-0.000245771,0.000360503,-0.000276728,-1.1303,0.000368964,0.0170088,1917,911,-0.0772668,0.0753699
700,113,-0.0737305,-0.0563965,-0.000212101,0.000199755,-0.000195582,0.000277831,-0.000290178,-1.19098,0.000327966,0.0162834,1924,911,-0.0737907,0.0564106
707,113,-0.088501,-0.0585327,-0.000189391,0.000150698,-0.000216705,0.000256109,-0.000294803,-1.11806,0.000318331,0.0156167,1931,911,-0.0885571,0.0585394
714,113,-0.0708008,-0.0672607,0.000122003,0.000101766,-0.000354348,0.000466377,-0.000242609,-0.771124,0.000416074,0.014211,1938,911,-0.0707927,0.0672376
721,113,-0.0657959,-0.0489502,0.000617648,-1.67196e-05,-0.000717298,0.00108476,-0.000483833,-0.577227,0.000927517,0.0136485,1945,911,-0.0657961,0.0489417
728,113,-0.0637207,-0.0380859,0.00151605,-0.000222078,-0.00133893,0.00224324,-0.000949265,-0.497537,0.00189299,0.0130349,1952,911,-0.063768,0.0380631
735,113,-0.083252,-0.0484619,0.0026188,-0.00052869,-0.00249755,0.00399708,-0.00190697,-0.504264,0.00347917,0.0129346,1959,911,-0.0832849,0.0484368
742,113,-0.0999756,-0.0465088,0.00383365,-9.72506e-05,-0.00437038,0.0066602,-0.0029238,-0.574087,0.00567176,0.0112931,1966,911,-0.0999344,0.0464797
749,113,-0.0848389,-0.0380859,0.00561776,0.00032285,-0.00638449,0.00988194,-0.00394133,-0.588854,0.00822286,0.00836075,1973,911,-0.0848827,0.0380708
756,113,-0.0682373,-0.0472412,0.00775875,0.00106276,-0.00877825,0.0138058,-0.00498429,-0.603215,0.0112399,0.00990587,1980,911,-0.0682584,0.0472511
763,113,-0.0584717,-0.0651855,0.0104396,0.00218176,-0.0120342,0.0190335,-0.0064121,-0.62014,0.0152816,0.0195093,1987,911,-0.0584309,0.0651825
770,113,-0.239868,-0.442871,0.0137581,0.00403032,-0.0160256,0.0256417,-0.00785326,-0.638063,0.0202269,0.0395094,1994,911,-0.239809,0.442864
777,113,-0.460938,-0.84198,0,0,0,0,0,0,0,-1,2001,911,-0.460989,0.841953
784,113,-1.11792,-0.786987,0.0226498,0.011231,-0.0260287,0.043588,-0.00970715,-0.677433,0.032777,0.0447548,2008,911,-1.1179,0.786974
791,113,-1.30432,-0.800598,0.0283968,0.0174983,-0.0317088,0.0551212,-0.00922615,-0.700303,0.0401775,0.0436322,2015,911,-1.30433,0.800627
798,113,-1.48694,-0.78717,0,0,0,0,0,0,0,-1,2022,911,-1.48689,0.787147
805,113,0,0,0,0,0,0,0,0,0,-1,2029,911,0,0
812,113,0,0,0,0,0,0,0,0,0,-1,2036,911,0,0
-700,106,0,0,0,0,0,0,0,0,0,-1,524,918,0,0
-693,106,0,0,0,0,0,0,0,0,0,-1,531,918,0,0
-686,106,0,0,0,0,0,0,0,0,0,-1,538,918,0,0
-679,106,-1.15204,1.1925,0.0287136,0.0257356,0.00377855,0.031286,0.0231633,0.597706,0.0187458,0.0466302,545,918,-1.15201,-1.1925
-672,106,-0.955566,2.18945,0.0236305,0.0197375,0.000987403,0.0238666,0.0195014,0.234725,0.014674,0.0441696,552,918,-0.955568,-2.18947
-665,106,-0.687927,2.7702,0,0,0,0,0,0,0,-1,559,918,-0.687933,-2.77019
-658,106,-0.972656,-0.687805,0,0,0,0,0,0,0,-1,566,918,-0.972639,0.687823
-651,106,-0.709229,-0.488159,0.0126344,0.0077626,-0.00230523,0.0135523,0.00684474,-0.378923,0.00782453,0.0468337,573,918,-0.709221,0.488149
-644,106,-0.410645,-0.249695,0.0100103,0.00536003,-0.00236678,0.0110029,0.00436735,-0.397139,0.00639739,0.04124,580,918,-0.410626,0.249689
-637,106,-0.117554,-0.0499878,0.00778215,0.00357539,-0.00215056,0.00868694,0.00267059,-0.398244,0.00513791,0.028206,587,918,-0.117553,0.0499922
-630,106,-0.0889893,-0.053772,0.00583716,0.00235246,-0.00183348,0.00662413,0.0015655,-0.405439,0.00399777,0.0105826,594,918,-0.0889689,0.0537617
-623,106,-0.0632324,-0.0463257,0.00402827,0.000595029,-0.00159027,0.00465168,-2.83851e-05,-0.373605,0.00311062,0.00853123,601,918,-0.0632131,0.0462966
-616,106,-0.0535278,-0.0478516,0.00264937,0.000216991,-0.00133621,0.00323999,-0.00037363,-0.416193,0.0022947,0.00921519,608,918,-0.0535135,0.047861
-609,106,-0.0586548,-0.0516357,0.00225729,0.000275823,-0.00070394,0.00248191,5.12031e-05,-0.308877,0.00163781,0.00950849,615,918,-0.0586486,0.0516622
-602,106,-0.0568237,-0.0456543,0.00142944,0.000206249,-0.000286795,0.00149335,0.000142345,-0.219241,0.000951672,0.0096715,622,918,-0.0568174,0.045659
-595,106,-0.0878906,-0.0362549,0.000597739,-0.000115088,-2.59036e-05,0.000598679,-0.000116028,-0.0362755,0.000442891,0.0126429,629,918,-0.0878977,0.0362798
-588,106,-0.100098,-0.0425415,0.000172679,7.49051e-05,4.75834e-05,0.000192013,5.55711e-05,0.385942,0.000114089,0.0139119,636,918,-0.100108,0.0425597
-581,106,-0.0767822,-0.0404663,-0.000109874,0.000126255,-2.56652e-05,0.000129012,-0.000112631,-1.46377,0.00013962,0.013629,643,918,-0.0767996,0.0404585
-574,106,-0.0712891,-0.0424194,-0.000220789,0.000210936,-9.582e-06,0.000211148,-0.000221001,-1.54862,0.000249523,0.0136476,650,918,-0.0712629,0.0424112
-567,106,-0.0545654,0.0186157,-7.03916e-05,0.000341721,-5.40677e-05,0.000348697,-7.7367e-05,-1.44249,0.000262088,0.0235287,657,918,-0.0545369,-0.0185882
-560,106,-0.0450439,0.098877,6.50616e-05,0.000573791,-7.51018e-05,0.000584646,5.42063e-05,-1.42725,0.00037301,0.0345711,664,918,-0.0450507,-0.0988818
-553,106,-0.0829468,0.0456543,0.000240919,0.000786746,-0.000120891,0.000812322,0.000215342,-1.3623,0.000485941,0.034885,671,918,-0.0829606,-0.0456443
-546,106,-0.0863647,-0.0496826,0.000487697,0.00108369,-0.000126748,0.00110952,0.000461862,-1.36972,0.00064357,0.0352443,678,918,-0.0863893,0.0496966
-539,106,-0.0955811,-0.138855,0.000905045,0.0014783,-0.000104025,0.0014966,0.000886752,-1.39673,0.000868977,0.0366245,685,918,-0.0955714,0.138825
-532,106,-0.0899048,-0.146851,0.0015885,0.00199974,-4.33498e-05,0.00200426,0.00158398,-1.46691,0.00122045,0.0367317,692,918,-0.089932,0.146862
-525,106,-0.112488,-0.177307,0.00261399,0.00267475,6.42332e-05,0.00271543,0.00257332,1.0063,0.00176482,0.0359725,699,918,-0.112511,0.177307
-518,106,-0.0549316,-0.215271,0.00413494,0.00353806,0.000227218,0.00421159,0.0034614,0.325361,0.00259408,0.0376267,706,918,-0.0549457,0.215292
-511,106,0,0,0,0,0,0,0,0,0,-1,713,918,0,0
-504,106,0,0,0,0,0,0,0,0,0,-1,720,918,0,0
-497,106,0,0,0,0,0,0,0,0,0,-1,727,918,0,0
-490,106,0,0,0,0,0,0,0,0,0,-1,734,918,0,0
-483,106,0,0,0,0,0,0,0,0,0,-1,741,918,0,0
-476,106,0,0,0,0,0,0,0,0,0,-1,748,918,0,0
-469,106,0,0,0,0,0,0,0,0,0,-1,755,918,0,0
-462,106,0,0,0,0,0,0,0,0,0,-1,762,918,0,0
-455,106,0,0,0,0,0,0,0,0,0,-1,769,918,0,0
-448,106,0,0,0,0,0,0,0,0,0,-1,776,918,0,0
-441,106,0,0,0,0,0,0,0,0,0,-1,783,918,0,0
-434,106,0,0,0,0,0,0,0,0,0,-1,790,918,0,0
-427,106,0,0,0,0,0,0,0,0,0,-1,797,918,0,0
-420,106,0,0,0,0,0,0,0,0,0,-1,804,918,0,0
-413,106,0,0,0,0,0,0,0,0,0,-1,811,918,0,0
-406,106,0,0,0,0,0,0,0,0,0,-1,818,918,0,0
-399,106,0,0,0,0,0,0,0,0,0,-1,825,918,0,0
-392,106,0,0,0,0,0,0,0,0,0,-1,832,918,0,0
-385,106,0,0,0,0,0,0,0,0,0,-1,839,918,0,0
-378,106,0,0,0,0,0,0,0,0,0,-1,846,918,0,0
-371,106,0,0,0,0,0,0,0,0,0,-1,853,918,0,0
-364,106,0,0,0,0,0,0,0,0,0,-1,860,918,0,0
-357,106,0,0,0,0,0,0,0,0,0,-1,867,918,0,0
-350,106,0,0,0,0,0,0,0,0,0,-1,874,918,0,0
-343,106,0,0,0,0,0,0,0,0,0,-1,881,918,0,0
-336,106,0,0,0,0,0,0,0,0,0,-1,888,918,0,0
-329,106,0,0,0,0,0,0,0,0,0,-1,895,918,0,0
-322,106,0,0,0,0,0,0,0,0,0,-1,902,918,0,0
-315,106,0,0,0,0,0,0,0,0,0,-1,909,918,0,0
-308,106,0,0,0,0,0,0,0,0,0,-1,916,918,0,0
-301,106,0,0,0,0,0,0,0,0,0,-1,923,918,0,0
-294,106,0,0,0,0,0,0,0,0,0,-1,930,918,0,0
-287,106,0,0,0,0,0,0,0,0,0,-1,937,918,0,0
-280,106,0,0,0,0,0,0,0,0,0,-1,944,918,0,0
-273,106,0,0,0,0,0,0,0,0,0,-1,951,918,0,0
-266,106,0,0,0,0,0,0,0,0,0,-1,958,918,0,0
-259,106,0,0,0,0,0,0,0,0,0,-1,965,918,0,0
-252,106,0,0,0,0,0,0,0,0,0,-1,972,918,0,0
-245,106,0,0,0,0,0,0,0,0,0,-1,979,918,0,0
-238,106,0,0,0,0,0,0,0,0,0,-1,986,918,0,0
-231,106,0,0,0,0,0,0,0,0,0,-1,993,918,0,0
-224,106,0,0,0,0,0,0,0,0,0,-1,1000,918,0,0
-217,106,0,0,0,0,0,0,0,0,0,-1,1007,918,0,0
-210,106,0,0,0,0,0,0,0,0,0,-1,1014,918,0,0
-203,106,0,0,0,0,0,0,0,0,0,-1,1021,918,0,0
-196,106,0,0,0,0,0,0,0,0,0,-1,1028,918,0,0
-189,106,0,0,0,0,0,0,0,0,0,-1,1035,918,0,0
-182,106,0,0,0,0,0,0,0,0,0,-1,1042,918,0,0
-175,106,0,0,0,0,0,0,0,0,0,-1,1049,918,0,0
-168,106,0,0,0,0,0,0,0,0,0,-1,1056,918,0,0
-161,106,0,0,0,0,0,0,0,0,0,-1,1063,918,0,0
-154,106,0,0,0,0,0,0,0,0,0,-1,1070,918,0,0
-147,106,0,0,0,0,0,0,0,0,0,-1,1077,918,0,0
-140,106,0,0,0,0,0,0,0,0,0,-1,1084,918,0,0
-133,106,0,0,0,0,0,0,0,0,0,-1,1091,918,0,0
-126,106,0,0,0,0,0,0,0,0,0,-1,1098,918,0,0
-119,106,0,0,0,0,0,0,0,0,0,-1,1105,918,0,0
-112,106,0,0,0,0,0,0,0,0,0,-1,1112,918,0,0
-105,106,0,0,0,0,0,0,0,0,0,-1,1119,918,0,0
-98,106,0,0,0,0,0,0,0,0,0,-1,1126,918,0,0
-91,106,0,0,0,0,0,0,0,0,0,-1,1133,918,0,0
-84,106,0,0,0,0,0,0,0,0,0,-1,1140,918,0,0
-77,106,0,0,0,0,0,0,0,0,0,-1,1147,918,0,0
-70,106,0,0,0,0,0,0,0,0,0,-1,1154,918,0,0
-63,106,0,0,0,0,0,0,0,0,0,-1,1161,918,0,0
-56,106,0,0,0,0,0,0,0,0,0,-1,1168,918,0,0
-49,106,0,0,0,0,0,0,0,0,0,-1,1175,918,0,0
-42,106,0,0,0,0,0,0,0,0,0,-1,1182,918,0,0
-35,106,0,0,0,0,0,0,0,0,0,-1,1189,918,0,0
-28,106,0,0,0,0,0,0,0,0,0,-1,1196,918,0,0
-21,106,0,0,0,0,0,0,0,0,0,-1,1203,918,0,0
-14,106,0,0,0,0,0,0,0,0,0,-1,1210,918,0,0
-7,106,0,0,0,0,0,0,0,0,0,-1,1217,918,0,0
0,106,0,0,0,0,0,0,0,0,0,-1,1224,918,0,0
7,106,0,0,0,0,0,0,0,0,0,-1,1231,918,0,0
14,106,0,0,0,0,0,0,0,0,0,-1,1238,918,0,0
21,106,0,0,0,0,0,0,0,0,0,-1,1245,918,0,0
28,106,0,0,0,0,0,0,0,0,0,-1,1252,918,0,0
35,106,0,0,0,0,0,0,0,0,0,-1,1259,918,0,0
42,106,0,0,0,0,0,0,0,0,0,-1,1266,918,0,0
49,106,0,0,0,0,0,0,0,0,0,-1,1273,918,0,0
56,106,0,0,0,0,0,0,0,0,0,-1,1280,918,0,0
63,106,0,0,0,0,0,0,0,0,0,-1,1287,918,0,0
70,106,0,0,0,0,0,0,0,0,0,-1,1294,918,0,0
77,106,0,0,0,0,0,0,0,0,0,-1,1301,918,0,0
84,106,0,0,0,0,0,0,0,0,0,-1,1308,918,0,0
91,106,0,0,0,0,0,0,0,0,0,-1,1315,918,0,0
98,106,0,0,0,0,0,0,0,0,0,-1,1322,918,0,0
105,106,0,0,0,0,0,0,0,0,0,-1,1329,918,0,0
112,106,0,0,0,0,0,0,0,0,0,-1,1336,918,0,0
119,106,0,0,0,0,0,0,0,0,0,-1,1343,918,0,0
126,106,0,0,0,0,0,0,0,0,0,-1,1350,918,0,0
133,106,0,0,0,0,0,0,0,0,0,-1,1357,918,0,0
140,106,0,0,0,0,0,0,0,0,0,-1,1364,918,0,0
147,106,0,0,0,0,0,0,0,0,0,-1,1371,918,0,0
154,106,0,0,0,0,0,0,0,0,0,-1,1378,918,0,0
161,106,0,0,0,0,0,0,0,0,0,-1,1385,918,0,0
168,106,0,0,0,0,0,0,0,0,0,-1,1392,918,0,0
175,106,0,0,0,0,0,0,0,0,0,-1,1399,918,0,0
182,106,0,0,0,0,0,0,0,0,0,-1,1406,918,0,0
189,106,0,0,0,0,0,0,0,0,0,-1,1413,918,0,0
196,106,0,0,0,0,0,0,0,0,0,-1,1420,918,0,0
203,106,0,0,0,0,0,0,0,0,0,-1,1427,918,0,0
210,106,0,0,0,0,0,0,0,0,0,-1,1434,918,0,0
217,106,0,0,0,0,0,0,0,0,0,-1,1441,918,0,0
224,106,0,0,0,0,0,0,0,0,0,-1,1448,918,0,0
231,106,0,0,0,0,0,0,0,0,0,-1,1455,918,0,0
238,106,0,0,0,0,0,0,0,0,0,-1,1462,918,0,0
245,106,0,0,0,0,0,0,0,0,0,-1,1469,918,0,0
252,106,0,0,0,0,0,0,0,0,0,-1,1476,918,0,0
259,106,0,0,0,0,0,0,0,0,0,-1,1483,918,0,0
266,106,0,0,0,0,0,0,0,0,0,-1,1490,918,0,0
273,106,0,0,0,0,0,0,0,0,0,-1,1497,918,0,0
280,106,0,0,0,0,0,0,0,0,0,-1,1504,918,0,0
287,106,0,0,0,0,0,0,0,0,0,-1,1511,918,0,0
294,106,0,0,0,0,0,0,0,0,0,-1,1518,918,0,0
301,106,0,0,0,0,0,0,0,0,0,-1,1525,918,0,0
308,106,0,0,0,0,0,0,0,0,0,-1,1532,918,0,0
315,106,0,0,0,0,0,0,0,0,0,-1,1539,918,0,0
322,106,0,0,0,0,0,0,0,0,0,-1,1546,918,0,0
329,106,0,0,0,0,0,0,0,0,0,-1,1553,918,0,0
336,106,0,0,0,0,0,0,0,0,0,-1,1560,918,0,0
343,106,0,0,0,0,0,0,0,0,0,-1,1567,918,0,0
350,106,0,0,0,0,0,0,0,0,0,-1,1574,918,0,0
357,106,0,0,0,0,0,0,0,0,0,-1,1581,918,0,0
364,106,0,0,0,0,0,0,0,0,0,-1,1588,918,0,0
371,106,0,0,0,0,0,0,0,0,0,-1,1595,918,0,0
378,106,0,0,0,0,0,0,0,0,0,-1,1602,918,0,0
385,106,0,0,0,0,0,0,0,0,0,-1,1609,918,0,0
392,106,0,0,0,0,0,0,0,0,0,-1,1616,918,0,0
399,106,0,0,0,0,0,0,0,0,0,-1,1623,918,0,0
406,106,0,0,0,0,0,0,0,0,0,-1,1630,918,0,0
413,106,0,0,0,0,0,0,0,0,0,-1,1637,918,0,0
420,106,0,0,0,0,0,0,0,0,0,-1,1644,918,0,0
427,106,0,0,0,0,0,0,0,0,0,-1,1651,918,0,0
434,106,0,0,0,0,0,0,0,0,0,-1,1658,918,0,0
441,106,0,0,0,0,0,0,0,0,0,-1,1665,918,0,0
448,106,0,0,0,0,0,0,0,0,0,-1,1672,918,0,0
455,106,0,0,0,0,0,0,0,0,0,-1,1679,918,0,0
462,106,0,0,0,0,0,0,0,0,0,-1,1686,918,0,0
469,106,0,0,0,0,0,0,0,0,0,-1,1693,918,0,0
476,106,0,0,0,0,0,0,0,0,0,-1,1700,918,0,0
483,106,0,0,0,0,0,0,0,0,0,-1,1707,918,0,0
490,106,0,0,0,0,0,0,0,0,0,-1,1714,918,0,0
497,106,0,0,0,0,0,0,0,0,0,-1,1721,918,0,0
504,106,0,0,0,0,0,0,0,0,0,-1,1728,918,0,0
511,106,0,0,0,0,0,0,0,0,0,-1,1735,918,0,0
518,106,0,0,0,0,0,0,0,0,0,-1,1742,918,0,0
525,106,0,0,0,0,0,0,0,0,0,-1,1749,918,0,0
532,106,0,0,0,0,0,0,0,0,0,-1,1756,918,0,0
539,106,0,0,0,0,0,0,0,0,0,-1,1763,918,0,0
546,106,0,0,0,0,0,0,0,0,0,-1,1770,918,0,0
553,106,0,0,0,0,0,0,0,0,0,-1,1777,918,0,0
560,106,0,0,0,0,0,0,0,0,0,-1,1784,918,0,0
567,106,0,0,0,0,0,0,0,0,0,-1,1791,918,0,0
574,106,0,0,0,0,0,0,0,0,0,-1,1798,918,0,0
581,106,0,0,0,0,0,0,0,0,0,-1,1805,918,0,0
588,106,0,0,0,0,0,0,0,0,0,-1,1812,918,0,0
595,106,0,0,0,0,0,0,0,0,0,-1,1819,918,0,0
602,106,0,0,0,0,0,0,0,0,0,-1,1826,918,0,0
609,106,0,0,0,0,0,0,0,0,0,-1,1833,918,0,0
616,106,0,0,0,0,0,0,0,0,0,-1,1840,918,0,0
623,106,0,0,0,0,0,0,0,0,0,-1,1847,918,0,0
630,106,-0.100952,-0.0471802,-0.00468175,0.00324542,0.00218474,0.00380766,-0.00524399,1.31891,0.00524786,0.0345308,1854,918,-0.100952,0.0471595
637,106,-0.148804,0.128479,-0.00294536,0.00245389,0.00142283,0.00280589,-0.00329737,1.32827,0.00352752,0.034131,1861,918,-0.148834,-0.128503
644,106,-0.126465,0.228577,-0.00186481,0.00184846,0.000843742,0.00203118,-0.00204753,1.35752,0.00235485,0.0319782,1868,918,-0.126453,-0.228601
651,106,-0.0218506,0.204041,-0.00122353,0.00141211,0.000431316,0.00148089,-0.00129232,1.41264,0.00160235,0.0350885,1875,918,-0.0218098,-0.204014
658,106,0.0800781,0.0123901,-0.000841632,0.00109256,0.000142465,0.001103,-0.000852069,1.49767,0.00113185,0.0370095,1882,918,0.0800996,-0.0124159
665,106,-0.0314941,-0.101013,-0.000629311,0.000856874,-4.24656e-05,0.000858087,-0.000630524,-1.54225,0.000862791,0.0350363,1889,918,-0.0315456,0.101011
672,106,-0.0229492,-0.062561,-0.000500706,0.000690062,-0.00014314,0.000707027,-0.000517671,-1.45283,0.000709891,0.0347495,1896,918,-0.022957,0.0625461
679,106,-0.0238037,0.0236206,-0.000418569,0.000534408,-0.0001932,0.000572086,-0.000456247,-1.37819,0.000594963,0.0293737,1903,918,-0.0237494,-0.0236241
686,106,-0.0611572,-0.0444946,-0.00030895,0.000432238,-0.000279012,0.000525527,-0.000402239,-1.24813,0.00053722,0.0205633,1910,918,-0.0611283,0.0444767
693,106,-0.071167,-0.0888672,-0.000208807,0.000338566,-0.000239941,0.000428852,-0.000299093,-1.2109,0.000422499,0.0125131,1917,918,-0.0711726,0.088845
700,106,-0.064209,-0.0830078,-0.000246503,0.000272776,-0.000191498,0.000335757,-0.000309484,-1.25305,0.000372633,0.0176555,1924,918,-0.0642263,0.0829908
707,106,-0.0725098,-0.0580444,-0.000235062,0.000220957,-0.000215926,0.000306974,-0.000321079,-1.1917,0.000362637,0.0168839,1931,918,-0.0724835,0.0580384
714,106,-0.0780029,-0.0612183,2.25501e-05,0.000176162,-0.000327226,0.000435475,-0.000236763,-0.900671,0.000393729,0.0136789,1938,918,-0.0779927,0.0612087
721,106,-0.0687256,-0.0447998,0.000397107,3.52934e-05,-0.000639769,0.000881054,-0.000448654,-0.647611,0.000781121,0.0132962,1945,918,-0.0687199,0.0447835
728,106,-0.060791,-0.0289307,0.00103002,-0.000246312,-0.00113746,0.0016961,-0.000912395,-0.529756,0.00152851,0.0124604,1952,918,-0.0607759,0.0289404
735,106,-0.0812988,-0.0487671,0.00178568,-0.000596412,-0.00215036,0.00305281,-0.00186354,-0.532488,0.00286601,0.0122274,1959,918,-0.0813492,0.0487778
742,106,-0.0932617,-0.0585327,0.00259416,-0.000252708,-0.00388464,0.00530795,-0.00296649,-0.609782,0.00484059,0.0104444,1966,918,-0.0932662,0.0585396
749,106,-0.0754395,-0.0546265,0.00377275,0.000128119,-0.00563441,0.00787221,-0.00397134,-0.628994,0.00696041,0.0080161,1973,918,-0.0754086,0.0545964
756,106,-0.0698242,-0.0549316,0.00512105,0.000844192,-0.00760976,0.0108871,-0.00492189,-0.648425,0.00934142,0.00912602,1980,918,-0.0697659,0.0549077
763,106,-0.0754395,-0.0264893,0.00682632,0.00186963,-0.0103612,0.0150015,-0.00630553,-0.668007,0.0126385,0.0162387,1987,918,-0.0754982,0.0264681
770,106,-0.0935059,-0.0738525,0.0089219,0.00360171,-0.0136761,0.0201942,-0.00767057,-0.689344,0.0166205,0.0335429,1994,918,-0.093478,0.0738448
777,106,-0.154297,-0.436218,0.0114744,0.00633685,-0.0174872,0.0265805,-0.00876927,-0.712473,0.0212552,0.0385211,2001,918,-0.154301,0.436211
784,106,-0.28125,-0.72583,0.0145437,0.0104467,-0.0216654,0.0342572,-0.00926683,-0.738262,0.0264734,0.041115,2008,918,-0.281245,0.725837
791,106,-0.288818,-0.994751,0.018217,0.0163912,-0.0259488,0.043269,-0.0086608,-0.767815,0.0321244,0.0437027,2015,918,-0.288759,0.994735
798,106,0.820679,-1.27789,0,0,0,0,0,0,0,-1,2022,918,0.820718,1.2779
805,106,0,0,0,0,0,0,0,0,0,-1,2029,918,0,0
812,106,0,0,0,0,0,0,0,0,0,-1,2036,918,0,0
-700,99,0,0,0,0,0,0,0,0,0,-1,524,925,0,0
-693,99,0,0,0,0,0,0,0,0,0,-1,531,925,0,0
-686,99,0,0,0,0,0,0,0,0,0,-1,538,925,0,0
-679,99,-0.759399,0.720032,0.0203681,0.0336916,0.00431939,0.0349694,0.0190903,1.28318,0.0202179,0.040974,545,925,-0.759371,-0.720044
-672,99,-0.836792,0.871277,0.0171149,0.0267082,0.00146954,0.0269282,0.0168948,1.42215,0.0157144,0.0432512,552,925,-0.83681,-0.871289
-665,99,-1.44177,-0.0431519,0,0,0,0,0,0,0,-1,559,925,-1.44176,0.0431367
-658,99,-1.46796,0.000793457,0,0,0,0,0,0,0,-1,566,925,-1.46798,-0.000775516
-651,99,-0.727966,-0.871155,0,0,0,0,0,0,0,-1,573,925,-0.727968,0.871175
-644,99,-0.170166,-0.305115,0.00805086,0.00829363,-0.00217634,0.010352,0.00599252,-0.813256,0.00600145,0.0450682,580,925,-0.170191,0.305088
-637,99,-0.0887451,-0.130493,0.0064336,0.00574716,-0.00201818,0.00813753,0.00404323,-0.701171,0.00469824,0.0294583,587,925,-0.0887508,0.130493
-630,99,-0.0767212,-0.0484619,0.0049889,0.00389028,-0.00175686,0.00628033,0.00259885,-0.63388,0.00364386,0.0119015,594,925,-0.0767034,0.0484355
-623,99,-0.0754395,-0.0549927,0.00352842,0.00160911,-0.00161989,0.00445158,0.000685956,-0.517984,0.00276755,0.00669876,601,925,-0.0754294,0.0550228
-616,99,-0.0733032,-0.0507202,0.00238652,0.000804769,-0.00130751,0.00312374,6.75526e-05,-0.513401,0.00206034,0.00800955,608,925,-0.0732803,0.0507122
-609,99,-0.0648804,-0.0506592,0.00225766,0.000633114,-0.000671029,0.00249898,0.000391789,-0.345231,0.00155196,0.00880881,615,925,-0.0648776,0.0506529
-602,99,-0.0645752,-0.0423584,0.00149266,0.000396631,-0.000292798,0.00156597,0.000323316,-0.245351,0.000954637,0.00825357,622,925,-0.0645977,0.0423591
-595,99,-0.0837402,-0.0350952,0.000639976,-1.94332e-05,-4.33867e-05,0.000642819,-2.22756e-05,-0.0654204,0.000436161,0.0116343,629,925,-0.0837512,0.0351205
-588,99,-0.0789795,-0.0345459,0.000218644,9.52774e-05,3.37944e-05,0.000227295,8.66266e-05,0.250602,0.00013246,0.0114152,636,925,-0.0790033,0.0345592
-581,99,-0.0643311,-0.0493774,-6.20309e-05,0.000158403,-4.77854e-05,0.000168316,-7.1944e-05,-1.36625,0.000142385,0.010334,643,925,-0.0643559,0.0493493
-574,99,-0.0804443,-0.0710449,-0.000185755,0.000262578,-5.95764e-05,0.00027036,-0.000193537,-1.44091,0.000269052,0.0100713,650,925,-0.0804294,0.0710582
-567,99,-0.0671387,-0.0478516,-4.13151e-05,0.000406598,-0.000123177,0.000438237,-7.2954e-05,-1.31937,0.000319266,0.0207668,657,925,-0.0671476,0.0478354
-560,99,-0.00469971,-0.0512695,5.07178e-05,0.000643751,-0.000175497,0.000691794,2.67476e-06,-1.30359,0.000460307,0.0317353,664,925,-0.00471058,0.0512509
-553,99,-0.0914917,-0.0899658,0.000169192,0.000864763,-0.000257538,0.000949736,8.42186e-05,-1.2521,0.000607035,0.0353426,671,925,-0.0914684,0.0899883
-546,99,-0.0996094,-0.113159,0.000355517,0.0011685,-0.000311766,0.00127429,0.000249726,-1.24366,0.000779733,0.036922,678,925,-0.0995997,0.113134
-539,99,-0.0960693,-0.145569,0.00070632,0.0015699,-0.000346337,0.00169164,0.000584583,-1.23279,0.000992074,0.0363578,685,925,-0.0960901,0.145596
-532,99,-0.122437,-0.126038,0.00131814,0.00209851,-0.000343937,0.00222846,0.00118819,-1.20955,0.00128754,0.0375778,692,925,-0.122418,0.126063
-525,99,-0.176453,-0.134216,0.00227255,0.00277929,-0.000286964,0.00290873,0.00214311,-1.14705,0.00174099,0.0395159,699,925,-0.176476,0.134232
-518,99,0.0761719,-0.253662,0.00374028,0.00365308,-0.000162961,0.00386537,0.00352799,-0.654675,0.00247214,0.0407053,706,925,0.0761895,0.253648
-511,99,0,0,0,0,0,0,0,0,0,-1,713,925,0,0
-504,99,0,0,0,0,0,0,0,0,0,-1,720,925,0,0
-497,99,0,0,0,0,0,0,0,0,0,-1,727,925,0,0
-490,99,0,0,0,0,0,0,0,0,0,-1,734,925,0,0
-483,99,0,0,0,0,0,0,0,0,0,-1,741,925,0,0
-476,99,0,0,0,0,0,0,0,0,0,-1,748,925,0,0
-469,99,0,0,0,0,0,0,0,0,0,-1,755,925,0,0
-462,99,0,0,0,0,0,0,0,0,0,-1,762,925,0,0
-455,99,0,0,0,0,0,0,0,0,0,-1,769,925,0,0
-448,99,0,0,0,0,0,0,0,0,0,-1,776,925,0,0
-441,99,0,0,0,0,0,0,0,0,0,-1,783,925,0,0
-434,99,0,0,0,0,0,0,0,0,0,-1,790,925,0,0
-427,99,0,0,0,0,0,0,0,0,0,-1,797,925,0,0
-420,99,0,0,0,0,0,0,0,0,0,-1,804,925,0,0
-413,99,0,0,0,0,0,0,0,0,0,-1,811,925,0,0
-406,99,0,0,0,0,0,0,0,0,0,-1,818,925,0,0
-399,99,0,0,0,0,0,0,0,0,0,-1,825,925,0,0
-392,99,0,0,0,0,0,0,0,0,0,-1,832,925,0,0
-385,99,0,0,0,0,0,0,0,0,0,-1,839,925,0,0
-378,99,0,0,0,0,0,0,0,0,0,-1,846,925,0,0
-371,99,0,0,0,0,0,0,0,0,0,-1,853,925,0,0
-364,99,0,0,0,0,0,0,0,0,0,-1,860,925,0,0
-357,99,0,0,0,0,0,0,0,0,0,-1,867,925,0,0
-350,99,0,0,0,0,0,0,0,0,0,-1,874,925,0,0
-343,99,0,0,0,0,0,0,0,0,0,-1,881,925,0,0
-336,99,0,0,0,0,0,0,0,0,0,-1,888,925,0,0
-329,99,0,0,0,0,0,0,0,0,0,-1,895,925,0,0
-322,99,0,0,0,0,0,0,0,0,0,-1,902,925,0,0
-315,99,0,0,0,0,0,0,0,0,0,-1,909,925,0,0
-308,99,0,0,0,0,0,0,0,0,0,-1,916,925,0,0
-301,99,0,0,0,0,0,0,0,0,0,-1,923,925,0,0
-294,99,0,0,0,0,0,0,0,0,0,-1,930,925,0,0
-287,99,0,0,0,0,0,0,0,0,0,-1,937,925,0,0
-280,99,0,0,0,0,0,0,0,0,0,-1,944,925,0,0
-273,99,0,0,0,0,0,0,0,0,0,-1,951,925,0,0
-266,99,0,0,0,0,0,0,0,0,0,-1,958,925,0,0
-259,99,0,0,0,0,0,0,0,0,0,-1,965,925,0,0
-252,99,0,0,0,0,0,0,0,0,0,-1,972,925,0,0
-245,99,0,0,0,0,0,0,0,0,0,-1,979,925,0,0
-238,99,0,0,0,0,0,0,0,0,0,-1,986,925,0,0
-231,99,0,0,0,0,0,0,0,0,0,-1,993,925,0,0
-224,99,0,0,0,0,0,0,0,0,0,-1,1000,925,0,0
-217,99,0,0,0,0,0,0,0,0,0,-1,1007,925,0,0
-210,99,0,0,0,0,0,0,0,0,0,-1,1014,925,0,0
-203,99,0,0,0,0,0,0,0,0,0,-1,1021,925,0,0
-196,99,0,0,0,0,0,0,0,0,0,-1,1028,925,0,0
-189,99,0,0,0,0,0,0,0,0,0,-1,1035,925,0,0
-182,99,0,0,0,0,0,0,0,0,0,-1,1042,925,0,0
-175,99,0,0,0,0,0,0,0,0,0,-1,1049,925,0,0
-168,99,0,0,0,0,0,0,0,0,0,-1,1056,925,0,0
-161,99,0,0,0,0,0,0,0,0,0,-1,1063,925,0,0
-154,99,0,0,0,0,0,0,0,0,0,-1,1070,925,0,0
-147,99,0,0,0,0,0,0,0,0,0,-1,1077,925,0,0
-140,99,0,0,0,0,0,0,0,0,0,-1,1084,925,0,0
-133,99,0,0,0,0,0,0,0,0,0,-1,1091,925,0,0
-126,99,0,0,0,0,0,0,0,0,0,-1,1098,925,0,0
-119,99,0,0,0,0,0,0,0,0,0,-1,1105,925,0,0
-112,99,0,0,0,0,0,0,0,0,0,-1,1112,925,0,0
-105,99,0,0,0,0,0,0,0,0,0,-1,1119,925,0,0
-98,99,0,0,0,0,0,0,0,0,0,-1,1126,925,0,0
-91,99,0,0,0,0,0,0,0,0,0,-1,1133,925,0,0
-84,99,0,0,0,0,0,0,0,0,0,-1,1140,925,0,0
-77,99,0,0,0,0,0,0,0,0,0,-1,1147,925,0,0
-70,99,0,0,0,0,0,0,0,0,0,-1,1154,925,0,0
-63,99,0,0,0,0,0,0,0,0,0,-1,1161,925,0,0
-56,99,0,0,0,0,0,0,0,0,0,-1,1168,925,0,0
-49,99,0,0,0,0,0,0,0,0,0,-1,1175,925,0,0
-42,99,0,0,0,0,0,0,0,0,0,-1,1182,925,0,0
-35,99,0,0,0,0,0,0,0,0,0,-1,1189,925,0,0
-28,99,0,0,0,0,0,0,0,0,0,-1,1196,925,0,0
-21,99,0,0,0,0,0,0,0,0,0,-1,1203,925,0,0
-14,99,0,0,0,0,0,0,0,0,0,-1,1210,925,0,0
-7,99,0,0,0,0,0,0,0,0,0,-1,1217,925,0,0
0,99,0,0,0,0,0,0,0,0,0,-1,1224,925,0,0
7,99,0,0,0,0,0,0,0,0,0,-1,1231,925,0,0
14,99,0,0,0,0,0,0,0,0,0,-1,1238,925,0,0
21,99,0,0,0,0,0,0,0,0,0,-1,1245,925,0,0
28,99,0,0,0,0,0,0,0,0,0,-1,1252,925,0,0
35,99,0,0,0,0,0,0,0,0,0,-1,1259,925,0,0
42,99,0,0,0,0,0,0,0,0,0,-1,1266,925,0,0
49,99,0,0,0,0,0,0,0,0,0,-1,1273,925,0,0
56,99,0,0,0,0,0,0,0,0,0,-1,1280,925,0,0
63,99,0,0,0,0,0,0,0,0,0,-1,1287,925,0,0
70,99,0,0,0,0,0,0,0,0,0,-1,1294,925,0,0
77,99,0,0,0,0,0,0,0,0,0,-1,1301,925,0,0
84,99,0,0,0,0,0,0,0,0,0,-1,1308,925,0,0
91,99,0,0,0,0,0,0,0,0,0,-1,1315,925,0,0
98,99,0,0,0,0,0,0,0,0,0,-1,1322,925,0,0
105,99,0,0,0,0,0,0,0,0,0,-1,1329,925,0,0
112,99,0,0,0,0,0,0,0,0,0,-1,1336,925,0,0
119,99,0,0,0,0,0,0,0,0,0,-1,1343,925,0,0
126,99,0,0,0,0,0,0,0,0,0,-1,1350,925,0,0
133,99,0,0,0,0,0,0,0,0,0,-1,1357,925,0,0
140,99,0,0,0,0,0,0,0,0,0,-1,1364,925,0,0
147,99,0,0,0,0,0,0,0,0,0,-1,1371,925,0,0
154,99,0,0,0,0,0,0,0,0,0,-1,1378,925,0,0
161,99,0,0,0,0,0,0,0,0,0,-1,1385,925,0,0
168,99,0,0,0,0,0,0,0,0,0,-1,1392,925,0,0
175,99,0,0,0,0,0,0,0,0,0,-1,1399,925,0,0
182,99,0,0,0,0,0,0,0,0,0,-1,1406,925,0,0
189,99,0,0,0,0,0,0,0,0,0,-1,1413,925,0,0
196,99,0,0,0,0,0,0,0,0,0,-1,1420,925,0,0
203,99,0,0,0,0,0,0,0,0,0,-1,1427,925,0,0
210,99,0,0,0,0,0,0,0,0,0,-1,1434,925,0,0
217,99,0,0,0,0,0,0,0,0,0,-1,1441,925,0,0
224,99,0,0,0,0,0,0,0,0,0,-1,1448,925,0,0
231,99,0,0,0,0,0,0,0,0,0,-1,1455,925,0,0
238,99,0,0,0,0,0,0,0,0,0,-1,1462,925,0,0
245,99,0,0,0,0,0,0,0,0,0,-1,1469,925,0,0
252,99,0,0,0,0,0,0,0,0,0,-1,1476,925,0,0
259,99,0,0,0,0,0,0,0,0,0,-1,1483,925,0,0
266,99,0,0,0,0,0,0,0,0,0,-1,1490,925,0,0
273,99,0,0,0,0,0,0,0,0,0,-1,1497,925,0,0
280,99,0,0,0,0,0,0,0,0,0,-1,1504,925,0,0
287,99,0,0,0,0,0,0,0,0,0,-1,1511,925,0,0
294,99,0,0,0,0,0,0,0,0,0,-1,1518,925,0,0
301,99,0,0,0,0,0,0,0,0,0,-1,1525,925,0,0
308,99,0,0,0,0,0,0,0,0,0,-1,1532,925,0,0
315,99,0,0,0,0,0,0,0,0,0,-1,1539,925,0,0
322,99,0,0,0,0,0,0,0,0,0,-1,1546,925,0,0
329,99,0,0,0,0,0,0,0,0,0,-1,1553,925,0,0
336,99,0,0,0,0,0,0,0,0,0,-1,1560,925,0,0
343,99,0,0,0,0,0,0,0,0,0,-1,1567,925,0,0
350,99,0,0,0,0,0,0,0,0,0,-1,1574,925,0,0
357,99,0,0,0,0,0,0,0,0,0,-1,1581,925,0,0
364,99,0,0,0,0,0,0,0,0,0,-1,1588,925,0,0
371,99,0,0,0,0,0,0,0,0,0,-1,1595,925,0,0
378,99,0,0,0,0,0,0,0,0,0,-1,1602,925,0,0
385,99,0,0,0,0,0,0,0,0,0,-1,1609,925,0,0
392,99,0,0,0,0,0,0,0,0,0,-1,1616,925,0,0
399,99,0,0,0,0,0,0,0,0,0,-1,1623,925,0,0
406,99,0,0,0,0,0,0,0,0,0,-1,1630,925,0,0
413,99,0,0,0,0,0,0,0,0,0,-1,1637,925,0,0
420,99,0,0,0,0,0,0,0,0,0,-1,1644,925,0,0
427,99,0,0,0,0,0,0,0,0,0,-1,1651,925,0,0
434,99,0,0,0,0,0,0,0,0,0,-1,1658,925,0,0
441,99,0,0,0,0,0,0,0,0,0,-1,1665,925,0,0
448,99,0,0,0,0,0,0,0,0,0,-1,1672,925,0,0
455,99,0,0,0,0,0,0,0,0,0,-1,1679,925,0,0
462,99,0,0,0,0,0,0,0,0,0,-1,1686,925,0,0
469,99,0,0,0,0,0,0,0,0,0,-1,1693,925,0,0
476,99,0,0,0,0,0,0,0,0,0,-1,1700,925,0,0
483,99,0,0,0,0,0,0,0,0,0,-1,1707,925,0,0
490,99,0,0,0,0,0,0,0,0,0,-1,1714,925,0,0
497,99,0,0,0,0,0,0,0,0,0,-1,1721,925,0,0
504,99,0,0,0,0,0,0,0,0,0,-1,1728,925,0,0
511,99,0,0,0,0,0,0,0,0,0,-1,1735,925,0,0
518,99,0,0,0,0,0,0,0,0,0,-1,1742,925,0,0
525,99,0,0,0,0,0,0,0,0,0,-1,1749,925,0,0
532,99,0,0,0,0,0,0,0,0,0,-1,1756,925,0,0
539,99,0,0,0,0,0,0,0,0,0,-1,1763,925,0,0
546,99,0,0,0,0,0,0,0,0,0,-1,1770,925,0,0
553,99,0,0,0,0,0,0,0,0,0,-1,1777,925,0,0
560,99,0,0,0,0,0,0,0,0,0,-1,1784,925,0,0
567,99,0,0,0,0,0,0,0,0,0,-1,1791,925,0,0
574,99,0,0,0,0,0,0,0,0,0,-1,1798,925,0,0
581,99,0,0,0,0,0,0,0,0,0,-1,1805,925,0,0
588,99,0,0,0,0,0,0,0,0,0,-1,1812,925,0,0
595,99,0,0,0,0,0,0,0,0,0,-1,1819,925,0,0
602,99,0,0,0,0,0,0,0,0,0,-1,1826,925,0,0
609,99,0,0,0,0,0,0,0,0,0,-1,1833,925,0,0
616,99,0,0,0,0,0,0,0,0,0,-1,1840,925,0,0
623,99,0,0,0,0,0,0,0,0,0,-1,1847,925,0,0
630,99,0,0,0,0,0,0,0,0,0,-1,1854,925,0,0
637,99,-0.0445557,-0.0631714,-0.00302119,0.00292494,0.0015131,0.00328783,-0.00338408,1.33541,0.00385216,0.0374096,1861,925,-0.0445688,0.063181
644,99,-0.069458,0.0563354,-0.00194866,0.00219723,0.000944415,0.00240223,-0.00215366,1.35705,0.00263165,0.0321697,1868,925,-0.0694877,-0.05634
651,99,0.0189209,0.0272827,-0.0013036,0.00167705,0.000524425,0.00176662,-0.00139318,1.40162,0.00182856,0.0333448,1875,925,0.0189022,-0.0272917
658,99,0.0311279,-0.0510864,-0.000925469,0.00128997,0.000224729,0.00131254,-0.000948035,1.47072,0.00131079,0.0351711,1882,925,0.0311677,0.0511024
665,99,-0.0211182,-0.174744,-0.000716156,0.00100186,2.59526e-05,0.00100225,-0.000716548,1.55569,0.000996907,0.0363539,1889,925,-0.0211175,0.174734
672,99,0.0166016,-0.124634,-0.000588487,0.000790113,-8.4941e-05,0.000795327,-0.000593701,-1.50949,0.000804767,0.0359096,1896,925,0.0165709,0.124616
679,99,-0.032959,-0.0374146,-0.000503144,0.000606673,-0.000141047,0.000624318,-0.000520789,-1.44634,0.000662028,0.0317811,1903,925,-0.0329503,0.0374058
686,99,-0.0942383,-0.0234375,-0.000388481,0.000487723,-0.000227728,0.000543375,-0.000444133,-1.33111,0.000571097,0.0231632,1910,925,-0.0942776,0.0234581
693,99,-0.0841064,-0.0404053,-0.000266436,0.000377002,-0.000191196,0.000429527,-0.000318962,-1.30269,0.000433709,0.0146084,1917,925,-0.0840489,0.0404114
700,99,-0.0655518,-0.0613403,-0.00027791,0.000299996,-0.000154624,0.000338766,-0.00031668,-1.32512,0.000378493,0.0169999,1924,925,-0.065578,0.0613362
707,99,-0.0581055,-0.0343018,-0.000273415,0.00024614,-0.000191702,0.000309216,-0.000336491,-1.25293,0.000372909,0.0168454,1931,925,-0.058154,0.0342857
714,99,-0.0712891,-0.0330811,-8.73089e-05,0.000198108,-0.000269823,0.000360638,-0.000249838,-1.02865,0.000354388,0.0123269,1938,925,-0.0712678,0.0330954
721,99,-0.0772705,-0.027832,0.000143242,2.6076e-05,-0.000507696,0.000595724,-0.000426406,-0.727957,0.00059282,0.0139953,1945,925,-0.077245,0.0278093
728,99,-0.0612793,-0.0278931,0.000562004,-0.000284322,-0.000924309,0.00115541,-0.000877729,-0.570731,0.00117748,0.012066,1952,925,-0.0612519,0.0278879
735,99,-0.0692139,-0.0480347,0.00102872,-0.000651209,-0.0018307,0.00220296,-0.00182545,-0.570316,0.0023292,0.0111606,1959,925,-0.0692208,0.0480316
742,99,-0.0744629,-0.059021,0.00147751,-0.000380212,-0.0034273,0.00409958,-0.00300229,-0.653068,0.00411655,0.00983425,1966,925,-0.0744119,0.059021
749,99,-0.0866699,-0.0682983,0.00210045,-1.16781e-05,-0.0049502,0.00610599,-0.00401721,-0.680305,0.00588596,0.0080905,1973,925,-0.0866836,0.068317
756,99,-0.0997314,-0.0668945,0.00273854,0.000740494,-0.00659087,0.00840568,-0.00492664,-0.710182,0.00778428,0.00934974,1980,925,-0.0996855,0.0669051
763,99,-0.090332,-0.0514526,0.00358774,0.00174009,-0.00894451,0.011656,-0.00632818,-0.733939,0.010534,0.0117981,1987,925,-0.09028,0.0514478
770,99,-0.0789795,-0.0679932,0.00461335,0.00344051,-0.0117394,0.015781,-0.00772715,-0.760442,0.0138354,0.0222794,1994,925,-0.0789505,0.0679754
777,99,0.0057373,-0.380249,0.00585931,0.00612762,-0.0148899,0.020884,-0.00889709,-0.789903,0.0176523,0.033329,2001,925,0.00573265,0.380232
784,99,0.292114,-0.868591,0.00737316,0.010144,-0.0182433,0.0270544,-0.0095373,-0.823295,0.0219183,0.0382417,2008,925,0.292115,0.868599
791,99,0.512085,-1.25818,0.00923236,0.015895,-0.0215436,0.0343633,-0.00923595,-0.862107,0.026529,0.0445263,2015,925,0.512081,1.25818
798,99,1.14856,-1.63354,0.01162,0.0239256,-0.0242975,0.0428373,-0.00729162,-0.909405,0.0312734,0.0466757,2022,925,1.14857,1.63352
805,99,0,0,0,0,0,0,0,0,0,-1,2029,925,0,0
812,99,0,0,0,0,0,0,0,0,0,-1,2036,925,0,0
-700,92,0,0,0,0,0,0,0,0,0,-1,524,932,0,0
-693,92,0,0,0,0,0,0,0,0,0,-1,531,932,0,0
-686,92,-0.4953,-0.153381,0,0,0,0,0,0,0,-1,538,932,-0.495288,0.153368
-679,92,-0.37323,0.166687,0.0189934,0.0377121,0.0054707,0.0391937,0.0175119,1.30632,0.0226711,0.0430174,545,932,-0.373218,-0.166704
-672,92,-0.355469,0.314209,0.0150867,0.0300587,0.00237009,0.030425,0.0147205,1.41749,0.0175689,0.044,552,932,-0.355449,-0.314181
-665,92,-0.660278,0.0494385,0.012168,0.0234367,0.000293213,0.0234443,0.0121604,1.5448,0.0135387,0.0454235,559,932,-0.66025,-0.0494471
-658,92,-0.487305,0.164185,0.00990589,0.0178383,-0.000993668,0.0179608,0.00978331,-1.44806,0.0103835,0.0435006,566,932,-0.487304,-0.164157
-651,92,-0.0667114,0.171875,0.00808966,0.0132147,-0.00167983,0.0137162,0.00758814,-1.28067,0.00793399,0.0438769,573,932,-0.0667081,-0.171897
-644,92,-0.0111694,0.0841675,0.0065871,0.00950779,-0.00192175,0.0104611,0.00563379,-1.1103,0.0060457,0.0412038,580,932,-0.011199,-0.0841887
-637,92,-0.0863647,-0.078064,0.00517918,0.00663426,-0.00182656,0.00787284,0.0039406,-0.974922,0.00454539,0.0244307,587,932,-0.0863685,0.0780532
-630,92,-0.0748901,-0.0471191,0.004007,0.00443425,-0.00172209,0.00595592,0.00248533,-0.847108,0.0034543,0.01134,594,932,-0.074906,0.0471243
-623,92,-0.0757446,-0.0540771,0.00285887,0.00198709,-0.00164923,0.00412884,0.000717123,-0.656201,0.00254739,0.00755311,601,932,-0.0757623,0.0540838
-616,92,-0.0835571,-0.0629272,0.0019884,0.0009971,-0.00126726,0.00285349,0.000132009,-0.598985,0.00185988,0.00742178,608,932,-0.083567,0.0629165
-609,92,-0.0695801,-0.0588989,0.00213755,0.000795473,-0.000634827,0.00239026,0.00054277,-0.378837,0.00144692,0.0083269,615,932,-0.0695936,0.0588797
-602,92,-0.0680542,-0.0420532,0.00147937,0.000523695,-0.000286992,0.00155893,0.000444135,-0.270432,0.000927398,0.00831883,622,932,-0.0680379,0.0420626
-595,92,-0.0682373,-0.0339355,0.00064855,9.98084e-05,-5.7827e-05,0.000654578,9.37807e-05,-0.103861,0.000408727,0.0132163,629,932,-0.0682606,0.0339198
-588,92,-0.0459595,-0.026123,0.000275313,0.000212672,4.91623e-06,0.000275697,0.000212288,0.0778469,0.00016673,0.0153,636,932,-0.0459301,0.0261113
-581,92,-0.053772,-0.0338135,2.21715e-05,0.000322206,-9.61673e-05,0.000350384,-6.00578e-06,-1.28577,0.000235617,0.0118288,643,932,-0.0537721,0.0338212
-574,92,-0.0769043,-0.0610962,-0.000100751,0.000471959,-0.000150761,0.000509221,-0.000138013,-1.32849,0.000393634,0.0129542,650,932,-0.0769162,0.0610879
-567,92,-0.0655518,-0.0679321,4.76344e-05,0.000660962,-0.000248782,0.000749185,-4.05883e-05,-1.23001,0.000513521,0.0235063,657,932,-0.0655328,0.0679614
-560,92,0.0110474,-0.123047,0.000115201,0.000954207,-0.000352862,0.00108288,-1.34699e-05,-1.22113,0.00072645,0.0309592,664,932,0.0110669,0.123017
-553,92,-0.041626,-0.074707,0.000194839,0.00125026,-0.000492456,0.00144434,7.51694e-07,-1.19537,0.000962645,0.0325005,671,932,-0.0416344,0.0746934
-546,92,-0.0846558,0.00238037,0.000339566,0.00162867,-0.000619889,0.00187838,8.98533e-05,-1.18785,0.00122341,0.035626,678,932,-0.084681,-0.00235112
-539,92,-0.0935059,-0.0214844,0.000633031,0.00210938,-0.000737789,0.00241487,0.000327542,-1.17823,0.0015126,0.0361927,685,932,-0.0935163,0.0215054
-532,92,-0.1297,-0.138123,0.00116621,0.00272286,-0.000816856,0.00307283,0.000816241,-1.16602,0.00183791,0.0388019,692,932,-0.129679,0.13813
-525,92,-0.169067,-0.176941,0.00201725,0.00349021,-0.000829717,0.00386316,0.0016443,-1.14837,0.0022386,0.0379635,699,932,-0.169081,0.176913
-518,92,0.00744629,-0.0297241,0.00336349,0.00445732,-0.000766064,0.00485167,0.00296915,-1.09541,0.00282443,0.0381795,706,932,0.00743473,0.0297406
-511,92,0,0,0,0,0,0,0,0,0,-1,713,932,0,0
-504,92,0,0,0,0,0,0,0,0,0,-1,720,932,0,0
-497,92,0,0,0,0,0,0,0,0,0,-1,727,932,0,0
-490,92,0,0,0,0,0,0,0,0,0,-1,734,932,0,0
-483,92,0,0,0,0,0,0,0,0,0,-1,741,932,0,0
-476,92,0,0,0,0,0,0,0,0,0,-1,748,932,0,0
-469,92,0,0,0,0,0,0,0,0,0,-1,755,932,0,0
-462,92,0,0,0,0,0,0,0,0,0,-1,762,932,0,0
-455,92,0,0,0,0,0,0,0,0,0,-1,769,932,0,0
-448,92,0,0,0,0,0,0,0,0,0,-1,776,932,0,0
-441,92,0,0,0,0,0,0,0,0,0,-1,783,932,0,0
-434,92,0,0,0,0,0,0,0,0,0,-1,790,932,0,0
-427,92,0,0,0,0,0,0,0,0,0,-1,797,932,0,0
-420,92,0,0,0,0,0,0,0,0,0,-1,804,932,0,0
-413,92,0,0,0,0,0,0,0,0,0,-1,811,932,0,0
-406,92,0,0,0,0,0,0,0,0,0,-1,818,932,0,0
-399,92,0,0,0,0,0,0,0,0,0,-1,825,932,0,0
-392,92,0,0,0,0,0,0,0,0,0,-1,832,932,0,0
-385,92,0,0,0,0,0,0,0,0,0,-1,839,932,0,0
-378,92,0,0,0,0,0,0,0,0,0,-1,846,932,0,0
-371,92,0,0,0,0,0,0,0,0,0,-1,853,932,0,0
-364,92,0,0,0,0,0,0,0,0,0,-1,860,932,0,0
-357,92,0,0,0,0,0,0,0,0,0,-1,867,932,0,0
-350,92,0,0,0,0,0,0,0,0,0,-1,874,932,0,0
-343,92,0,0,0,0,0,0,0,0,0,-1,881,932,0,0
-336,92,0,0,0,0,0,0,0,0,0,-1,888,932,0,0
-329,92,0,0,0,0,0,0,0,0,0,-1,895,932,0,0
-322,92,0,0,0,0,0,0,0,0,0,-1,902,932,0,0
-315,92,0,0,0,0,0,0,0,0,0,-1,909,932,0,0
-308,92,0,0,0,0,0,0,0,0,0,-1,916,932,0,0
-301,92,0,0,0,0,0,0,0,0,0,-1,923,932,0,0
-294,92,0,0,0,0,0,0,0,0,0,-1,930,932,0,0
-287,92,0,0,0,0,0,0,0,0,0,-1,937,932,0,0
-280,92,0,0,0,0,0,0,0,0,0,-1,944,932,0,0
-273,92,0,0,0,0,0,0,0,0,0,-1,951,932,0,0
-266,92,0,0,0,0,0,0,0,0,0,-1,958,932,0,0
-259,92,0,0,0,0,0,0,0,0,0,-1,965,932,0,0
-252,92,0,0,0,0,0,0,0,0,0,-1,972,932,0,0
-245,92,0,0,0,0,0,0,0,0,0,-1,979,932,0,0
-238,92,0,0,0,0,0,0,0,0,0,-1,986,932,0,0
-231,92,0,0,0,0,0,0,0,0,0,-1,993,932,0,0
-224,92,0,0,0,0,0,0,0,0,0,-1,1000,932,0,0
-217,92,0,0,0,0,0,0,0,0,0,-1,1007,932,0,0
-210,92,0,0,0,0,0,0,0,0,0,-1,1014,932,0,0
-203,92,0,0,0,0,0,0,0,0,0,-1,1021,932,0,0
-196,92,0,0,0,0,0,0,0,0,0,-1,1028,932,0,0
-189,92,0,0,0,0,0,0,0,0,0,-1,1035,932,0,0
-182,92,0,0,0,0,0,0,0,0,0,-1,1042,932,0,0
-175,92,0,0,0,0,0,0,0,0,0,-1,1049,932,0,0
-168,92,0,0,0,0,0,0,0,0,0,-1,1056,932,0,0
-161,92,0,0,0,0,0,0,0,0,0,-1,1063,932,0,0
-154,92,0,0,0,0,0,0,0,0,0,-1,1070,932,0,0
-147,92,0,0,0,0,0,0,0,0,0,-1,1077,932,0,0
-140,92,0,0,0,0,0,0,0,0,0,-1,1084,932,0,0
-133,92,0,0,0,0,0,0,0,0,0,-1,1091,932,0,0
-126,92,0,0,0,0,0,0,0,0,0,-1,1098,932,0,0
-119,92,0,0,0,0,0,0,0,0,0,-1,1105,932,0,0
-112,92,0,0,0,0,0,0,0,0,0,-1,1112,932,0,0
-105,92,0,0,0,0,0,0,0,0,0,-1,1119,932,0,0
-98,92,0,0,0,0,0,0,0,0,0,-1,1126,932,0,0
-91,92,0,0,0,0,0,0,0,0,0,-1,1133,932,0,0
-84,92,0,0,0,0,0,0,0,0,0,-1,1140,932,0,0
-77,92,0,0,0,0,0,0,0,0,0,-1,1147,932,0,0
-70,92,0,0,0,0,0,0,0,0,0,-1,1154,932,0,0
-63,92,0,0,0,0,0,0,0,0,0,-1,1161,932,0,0
-56,92,0,0,0,0,0,0,0,0,0,-1,1168,932,0,0
-49,92,0,0,0,0,0,0,0,0,0,-1,1175,932,0,0
-42,92,0,0,0,0,0,0,0,0,0,-1,1182,932,0,0
-35,92,0,0,0,0,0,0,0,0,0,-1,1189,932,0,0
-28,92,0,0,0,0,0,0,0,0,0,-1,1196,932,0,0
-21,92,0,0,0,0,0,0,0,0,0,-1,1203,932,0,0
-14,92,0,0,0,0,0,0,0,0,0,-1,1210,932,0,0
-7,92,0,0,0,0,0,0,0,0,0,-1,1217,932,0,0
0,92,0,0,0,0,0,0,0,0,0,-1,1224,932,0,0
7,92,0,0,0,0,0,0,0,0,0,-1,1231,932,0,0
14,92,0,0,0,0,0,0,0,0,0,-1,1238,932,0,0
21,92,0,0,0,0,0,0,0,0,0,-1,1245,932,0,0
28,92,0,0,0,0,0,0,0,0,0,-1,1252,932,0,0
35,92,0,0,0,0,0,0,0,0,0,-1,1259,932,0,0
42,92,0,0,0,0,0,0,0,0,0,-1,1266,932,0,0
49,92,0,0,0,0,0,0,0,0,0,-1,1273,932,0,0
56,92,0,0,0,0,0,0,0,0,0,-1,1280,932,0,0
63,92,0,0,0,0,0,0,0,0,0,-1,1287,932,0,0
70,92,0,0,0,0,0,0,0,0,0,-1,1294,932,0,0
77,92,0,0,0,0,0,0,0,0,0,-1,1301,932,0,0
84,92,0,0,0,0,0,0,0,0,0,-1,1308,932,0,0
91,92,0,0,0,0,0,0,0,0,0,-1,1315,932,0,0
98,92,0,0,0,0,0,0,0,0,0,-1,1322,932,0,0
105,92,0,0,0,0,0,0,0,0,0,-1,1329,932,0,0
112,92,0,0,0,0,0,0,0,0,0,-1,1336,932,0,0
119,92,0,0,0,0,0,0,0,0,0,-1,1343,932,0,0
126,92,0,0,0,0,0,0,0,0,0,-1,1350,932,0,0
133,92,0,0,0,0,0,0,0,0,0,-1,1357,932,0,0
140,92,0,0,0,0,0,0,0,0,0,-1,1364,932,0,0
147,92,0,0,0,0,0,0,0,0,0,-1,1371,932,0,0
154,92,0,0,0,0,0,0,0,0,0,-1,1378,932,0,0
161,92,0,0,0,0,0,0,0,0,0,-1,1385,932,0,0
168,92,0,0,0,0,0,0,0,0,0,-1,1392,932,0,0
175,92,0,0,0,0,0,0,0,0,0,-1,1399,932,0,0
182,92,0,0,0,0,0,0,0,0,0,-1,1406,932,0,0
189,92,0,0,0,0,0,0,0,0,0,-1,1413,932,0,0
196,92,0,0,0,0,0,0,0,0,0,-1,1420,932,0,0
203,92,0,0,0,0,0,0,0,0,0,-1,1427,932,0,0
210,92,0,0,0,0,0,0,0,0,0,-1,1434,932,0,0
217,92,0,0,0,0,0,0,0,0,0,-1,1441,932,0,0
224,92,0,0,0,0,0,0,0,0,0,-1,1448,932,0,0
231,92,0,0,0,0,0,0,0,0,0,-1,1455,932,0,0
238,92,0,0,0,0,0,0,0,0,0,-1,1462,932,0,0
245,92,0,0,0,0,0,0,0,0,0,-1,1469,932,0,0
252,92,0,0,0,0,0,0,0,0,0,-1,1476,932,0,0
259,92,0,0,0,0,0,0,0,0,0,-1,1483,932,0,0
266,92,0,0,0,0,0,0,0,0,0,-1,1490,932,0,0
273,92,0,0,0,0,0,0,0,0,0,-1,1497,932,0,0
280,92,0,0,0,0,0,0,0,0,0,-1,1504,932,0,0
287,92,0,0,0,0,0,0,0,0,0,-1,1511,932,0,0
294,92,0,0,0,0,0,0,0,0,0,-1,1518,932,0,0
301,92,0,0,0,0,0,0,0,0,0,-1,1525,932,0,0
308,92,0,0,0,0,0,0,0,0,0,-1,1532,932,0,0
315,92,0,0,0,0,0,0,0,0,0,-1,1539,932,0,0
322,92,0,0,0,0,0,0,0,0,0,-1,1546,932,0,0
329,92,0,0,0,0,0,0,0,0,0,-1,1553,932,0,0
336,92,0,0,0,0,0,0,0,0,0,-1,1560,932,0,0
343,92,0,0,0,0,0,0,0,0,0,-1,1567,932,0,0
350,92,0,0,0,0,0,0,0,0,0,-1,1574,932,0,0
357,92,0,0,0,0,0,0,0,0,0,-1,1581,932,0,0
364,92,0,0,0,0,0,0,0,0,0,-1,1588,932,0,0
371,92,0,0,0,0,0,0,0,0,0,-1,1595,932,0,0
378,92,0,0,0,0,0,0,0,0,0,-1,1602,932,0,0
385,92,0,0,0,0,0,0,0,0,0,-1,1609,932,0,0
392,92,0,0,0,0,0,0,0,0,0,-1,1616,932,0,0
399,92,0,0,0,0,0,0,0,0,0,-1,1623,932,0,0
406,92,0,0,0,0,0,0,0,0,0,-1,1630,932,0,0
413,92,0,0,0,0,0,0,0,0,0,-1,1637,932,0,0
420,92,0,0,0,0,0,0,0,0,0,-1,1644,932,0,0
427,92,0,0,0,0,0,0,0,0,0,-1,1651,932,0,0
434,92,0,0,0,0,0,0,0,0,0,-1,1658,932,0,0
441,92,0,0,0,0,0,0,0,0,0,-1,1665,932,0,0
448,92,0,0,0,0,0,0,0,0,0,-1,1672,932,0,0
455,92,0,0,0,0,0,0,0,0,0,-1,1679,932,0,0
462,92,0,0,0,0,0,0,0,0,0,-1,1686,932,0,0
469,92,0,0,0,0,0,0,0,0,0,-1,1693,932,0,0
476,92,0,0,0,0,0,0,0,0,0,-1,1700,932,0,0
483,92,0,0,0,0,0,0,0,0,0,-1,1707,932,0,0
490,92,0,0,0,0,0,0,0,0,0,-1,1714,932,0,0
497,92,0,0,0,0,0,0,0,0,0,-1,1721,932,0,0
504,92,0,0,0,0,0,0,0,0,0,-1,1728,932,0,0
511,92,0,0,0,0,0,0,0,0,0,-1,1735,932,0,0
518,92,0,0,0,0,0,0,0,0,0,-1,1742,932,0,0
525,92,0,0,0,0,0,0,0,0,0,-1,1749,932,0,0
532,92,0,0,0,0,0,0,0,0,0,-1,1756,932,0,0
539,92,0,0,0,0,0,0,0,0,0,-1,1763,932,0,0
546,92,0,0,0,0,0,0,0,0,0,-1,1770,932,0,0
553,92,0,0,0,0,0,0,0,0,0,-1,1777,932,0,0
560,92,0,0,0,0,0,0,0,0,0,-1,1784,932,0,0
567,92,0,0,0,0,0,0,0,0,0,-1,1791,932,0,0
574,92,0,0,0,0,0,0,0,0,0,-1,1798,932,0,0
581,92,0,0,0,0,0,0,0,0,0,-1,1805,932,0,0
588,92,0,0,0,0,0,0,0,0,0,-1,1812,932,0,0
595,92,0,0,0,0,0,0,0,0,0,-1,1819,932,0,0
602,92,0,0,0,0,0,0,0,0,0,-1,1826,932,0,0
609,92,0,0,0,0,0,0,0,0,0,-1,1833,932,0,0
616,92,0,0,0,0,0,0,0,0,0,-1,1840,932,0,0
623,92,0,0,0,0,0,0,0,0,0,-1,1847,932,0,0
630,92,0,0,0,0,0,0,0,0,0,-1,1854,932,0,0
637,92,-0.0341797,-0.0775757,-0.00311447,0.00256821,0.0017179,0.00304717,-0.00359342,1.2989,0.00383827,0.0429849,1861,932,-0.0342173,0.0775907
644,92,-0.0592041,-0.159424,-0.00205929,0.00187902,0.00114623,0.00218833,-0.0023686,1.30722,0.00263163,0.0359209,1868,932,-0.0592647,0.159402
651,92,-0.0114746,-0.0636597,-0.00140472,0.00140571,0.000703533,0.00157199,-0.001571,1.33871,0.0018146,0.0350362,1875,932,-0.0114394,0.0636864
658,92,-0.053833,0.171875,-0.00102281,0.00106259,0.000382697,0.0011306,-0.00109082,1.39492,0.00128261,0.0395283,1882,932,-0.0538772,-0.171873
665,92,-0.0187988,-0.0497437,-0.000810883,0.000815404,0.000159503,0.000830901,-0.000826379,1.47395,0.000956832,0.0400088,1889,932,-0.0187679,0.0497607
672,92,0.0286865,-0.11615,-0.000677953,0.000643004,2.56099e-05,0.000643501,-0.00067845,1.55142,0.000763317,0.0360526,1896,932,0.028726,0.116147
679,92,-0.050293,-0.0358887,-0.000587671,0.000498203,-4.90115e-05,0.00050041,-0.000589878,-1.52578,0.000630184,0.0318751,1903,932,-0.0502662,0.0358896
686,92,-0.0888672,-0.0548096,-0.000466555,0.000412625,-0.000144241,0.000435685,-0.000489614,-1.41227,0.000534524,0.0240198,1910,932,-0.088816,0.0548136
693,92,-0.0804443,-0.0184326,-0.000322767,0.000325066,-0.000116782,0.000345475,-0.000343176,-1.39778,0.000397593,0.015104,1917,932,-0.0804396,0.0184451
700,92,-0.0839844,-0.0317383,-0.000301266,0.00027176,-9.70223e-05,0.000287741,-0.000317248,-1.40754,0.000349429,0.0160799,1924,932,-0.0839831,0.0317253
707,92,-0.0673828,-0.0339355,-0.000305265,0.00023717,-0.000146967,0.00027443,-0.000342525,-1.3225,0.000356921,0.0157615,1931,932,-0.067372,0.0339414
714,92,-0.0754395,-0.0421143,-0.000188598,0.000199764,-0.00019699,0.00028219,-0.000271024,-1.17451,0.00031942,0.0152698,1938,932,-0.0754209,0.0421136
721,92,-0.0854492,-0.0166626,-6.71206e-05,3.9166e-05,-0.000368738,0.000358571,-0.000386525,-0.856966,0.000430282,0.0180028,1945,932,-0.0854802,0.0166574
728,92,-0.0722656,-0.0108032,0.000209068,-0.000259094,-0.000730871,0.000742428,-0.000792454,-0.630421,0.000886322,0.0143226,1952,932,-0.0722103,0.0108236
735,92,-0.0773926,-0.029541,0.00050042,-0.000615094,-0.00155228,0.00159211,-0.00170678,-0.612924,0.001905,0.0134243,1959,932,-0.0773753,0.0295221
742,92,-0.0581055,-0.0436401,0.00065681,-0.000466862,-0.00298741,0.00313476,-0.00294481,-0.69245,0.00351061,0.0138543,1966,932,-0.0580956,0.0436105
749,92,-0.0640869,-0.0574341,0.000851319,-0.000131097,-0.00431217,0.00470016,-0.00397994,-0.728687,0.00501721,0.0118247,1973,932,-0.0640366,0.0574252
756,92,-0.109863,-0.0641479,0.000980643,0.000619786,-0.0056821,0.00648518,-0.00488475,-0.769527,0.00658607,0.0113927,1980,932,-0.109892,0.0641637
763,92,-0.0654297,-0.0482788,0.00122946,0.00148145,-0.00768361,0.00904009,-0.00632919,-0.793596,0.00891935,0.0130951,1987,932,-0.065394,0.0482822
770,92,-0.0533447,-0.00653076,0.00150807,0.00299406,-0.0100486,0.0123271,-0.00782496,-0.822301,0.0117312,0.0210881,1994,932,-0.0533818,0.0065244
777,92,-0.0493164,0.0288696,0.00185385,0.00538573,-0.0126747,0.0164169,-0.00917734,-0.854617,0.0149726,0.0369403,2001,932,-0.0493167,-0.0288678
784,92,-0.0273438,0.0979004,0.00231906,0.00894294,-0.0154034,0.0213864,-0.0101244,-0.891293,0.0185761,0.0426696,2008,932,-0.0273177,-0.097921
791,92,1.09595,-1.46027,0,0,0,0,0,0,0,-1,2015,932,1.09597,1.46024
798,92,1.32568,-1.91388,0,0,0,0,0,0,0,-1,2022,932,1.32569,1.91388
805,92,0,0,0,0,0,0,0,0,0,-1,2029,932,0,0
812,92,0,0,0,0,0,0,0,0,0,-1,2036,932,0,0
-700,85,0,0,0,0,0,0,0,0,0,-1,524,939,0,0
-693,85,0,0,0,0,0,0,0,0,0,-1,531,939,0,0
-686,85,0.0419922,0.0643311,0,0,0,0,0,0,0,-1,538,939,0.0419621,-0.064359
-679,85,0.0548096,0.138733,0.015424,0.0407864,0.0064182,0.0423181,0.0138923,1.33653,0.024908,0.0434797,545,939,0.0547797,-0.138747
-672,85,0.0247192,0.153259,0.0115445,0.032355,0.00294036,0.0327624,0.011137,1.43309,0.0192358,0.0418911,552,939,0.0247081,-0.153253
-665,85,0.026062,0.188538,0.00889496,0.025097,0.000592492,0.0251186,0.00887332,1.53429,0.0147089,0.0402572,559,939,0.0260722,-0.188558
-658,85,0.0612793,0.413147,0.00703912,0.0190026,-0.00087379,0.019066,0.00697564,-1.49827,0.011139,0.0423618,566,939,0.0612691,-0.413159
-651,85,0.093689,0.324158,0.00568811,0.0140093,-0.00167078,0.0143322,0.00536517,-1.37987,0.00836137,0.0396826,573,939,0.0936999,-0.324179
-644,85,-0.0160522,0.0840454,0.00465296,0.0100388,-0.0019738,0.0106847,0.00400705,-1.25454,0.00623269,0.0310333,580,939,-0.0160317,-0.0840298
-637,85,-0.067749,-0.017334,0.00362973,0.00698424,-0.00189393,0.00783684,0.00277713,-1.1478,0.00458813,0.0154171,587,939,-0.0677428,0.0173474
-630,85,-0.0525513,-0.0611572,0.00282046,0.00462222,-0.00184766,0.00577693,0.00166575,-1.01223,0.00343348,0.00973428,594,939,-0.0525533,0.0611286
-623,85,-0.055542,-0.0634155,0.00201518,0.00207773,-0.00182697,0.00387369,0.000219221,-0.793957,0.00251258,0.00837032,601,939,-0.0555579,0.0634001
-616,85,-0.0668335,-0.0574951,0.00145779,0.00102637,-0.00134316,0.00260246,-0.000118293,-0.705778,0.00177572,0.00828623,608,939,-0.0668341,0.0574972
-609,85,-0.0650635,-0.0501709,0.00189618,0.000848196,-0.000679888,0.00223057,0.000513809,-0.457087,0.0013488,0.0114839,615,939,-0.0650583,0.0501832
-602,85,-0.0668335,-0.0469971,0.00138607,0.000594008,-0.000339279,0.00151153,0.00046855,-0.354186,0.000893439,0.0154328,622,939,-0.0668425,0.0469828
-595,85,-0.0414429,-0.0587158,0.000655365,0.00022477,-0.000118203,0.000685679,0.000194457,-0.251046,0.000408049,0.0153529,629,939,-0.0414592,0.0587222
-588,85,-0.0446777,-0.0542603,0.000377726,0.000348521,-5.82404e-05,0.000423166,0.00030308,-0.662568,0.000251815,0.0147386,636,939,-0.044669,0.0542456
-581,85,-0.0598145,-0.0435791,0.000163255,0.00048032,-0.000167488,0.000552406,9.11693e-05,-1.16437,0.000341956,0.012305,643,939,-0.0598031,0.0435695
-574,85,-0.0769043,-0.0465088,4.71415e-05,0.000647542,-0.000249862,0.00073792,-4.32362e-05,-1.22373,0.000506974,0.0174582,650,939,-0.076896,0.0465298
-567,85,-0.0802002,-0.0726318,0.000198838,0.000862567,-0.000375198,0.00103161,2.97961e-05,-1.14749,0.000678026,0.0268953,657,939,-0.08018,0.0726351
-560,85,-0.0348511,-0.0574341,0.000243812,0.00118163,-0.000514855,0.00140911,1.63374e-05,-1.15476,0.000934008,0.0306543,664,939,-0.0348748,0.057409
-553,85,-0.0422363,0.0574341,0.000275397,0.00150505,-0.000679339,0.00180648,-2.60253e-05,-1.15319,0.00121309,0.0344552,671,939,-0.0422168,-0.05746
-546,85,-0.0723267,0.158875,0.00035786,0.00189508,-0.000838235,0.00226375,-1.08068e-05,-1.15645,0.00151278,0.036738,678,939,-0.0723083,-0.158863
-539,85,-0.00897217,0.139771,0.000547455,0.00237333,-0.000981155,0.00280059,0.0001202,-1.1601,0.00182831,0.034718,685,939,-0.00899266,-0.1398
-532,85,-0.0918579,0.00775146,0.000920091,0.00296833,-0.0010581,0.00341676,0.00047166,-1.16994,0.00213803,0.0345323,692,939,-0.0918579,-0.00773169
-525,85,-0.123047,-0.113342,0.00153869,0.00370026,-0.0010207,0.00410605,0.00113289,-1.19239,0.00244871,0.0332965,699,939,-0.123074,0.113371
-518,85,-0.0368042,-0.0720215,0.00255984,0.00461885,-0.000861179,0.00493155,0.00224714,-1.2225,0.00285096,0.0340977,706,939,-0.0367771,0.0720409
-511,85,0,0,0,0,0,0,0,0,0,-1,713,939,0,0
-504,85,0,0,0,0,0,0,0,0,0,-1,720,939,0,0
-497,85,0,0,0,0,0,0,0,0,0,-1,727,939,0,0
-490,85,0,0,0,0,0,0,0,0,0,-1,734,939,0,0
-483,85,0,0,0,0,0,0,0,0,0,-1,741,939,0,0
-476,85,0,0,0,0,0,0,0,0,0,-1,748,939,0,0
-469,85,0,0,0,0,0,0,0,0,0,-1,755,939,0,0
-462,85,0,0,0,0,0,0,0,0,0,-1,762,939,0,0
-455,85,0,0,0,0,0,0,0,0,0,-1,769,939,0,0
-448,85,0,0,0,0,0,0,0,0,0,-1,776,939,0,0
-441,85,0,0,0,0,0,0,0,0,0,-1,783,939,0,0
-434,85,0,0,0,0,0,0,0,0,0,-1,790,939,0,0
-427,85,0,0,0,0,0,0,0,0,0,-1,797,939,0,0
-420,85,0,0,0,0,0,0,0,0,0,-1,804,939,0,0
-413,85,0,0,0,0,0,0,0,0,0,-1,811,939,0,0
-406,85,0,0,0,0,0,0,0,0,0,-1,818,939,0,0
-399,85,0,0,0,0,0,0,0,0,0,-1,825,939,0,0
-392,85,0,0,0,0,0,0,0,0,0,-1,832,939,0,0
-385,85,0,0,0,0,0,0,0,0,0,-1,839,939,0,0
-378,85,0,0,0,0,0,0,0,0,0,-1,846,939,0,0
-371,85,0,0,0,0,0,0,0,0,0,-1,853,939,0,0
-364,85,0,0,0,0,0,0,0,0,0,-1,860,939,0,0
-357,85,0,0,0,0,0,0,0,0,0,-1,867,939,0,0
-350,85,0,0,0,0,0,0,0,0,0,-1,874,939,0,0
-343,85,0,0,0,0,0,0,0,0,0,-1,881,939,0,0
-336,85,0,0,0,0,0,0,0,0,0,-1,888,939,0,0
-329,85,0,0,0,0,0,0,0,0,0,-1,895,939,0,0
-322,85,0,0,0,0,0,0,0,0,0,-1,902,939,0,0
-315,85,0,0,0,0,0,0,0,0,0,-1,909,939,0,0
-308,85,0,0,0,0,0,0,0,0,0,-1,916,939,0,0
-301,85,0,0,0,0,0,0,0,0,0,-1,923,939,0,0
-294,85,0,0,0,0,0,0,0,0,0,-1,930,939,0,0
-287,85,0,0,0,0,0,0,0,0,0,-1,937,939,0,0
-280,85,0,0,0,0,0,0,0,0,0,-1,944,939,0,0
-273,85,0,0,0,0,0,0,0,0,0,-1,951,939,0,0
-266,85,0,0,0,0,0,0,0,0,0,-1,958,939,0,0
-259,85,0,0,0,0,0,0,0,0,0,-1,965,939,0,0
-252,85,0,0,0,0,0,0,0,0,0,-1,972,939,0,0
-245,85,0,0,0,0,0,0,0,0,0,-1,979,939,0,0
-238,85,0,0,0,0,0,0,0,0,0,-1,986,939,0,0
-231,85,0,0,0,0,0,0,0,0,0,-1,993,939,0,0
-224,85,0,0,0,0,0,0,0,0,0,-1,1000,939,0,0
-217,85,0,0,0,0,0,0,0,0,0,-1,1007,939,0,0
-210,85,0,0,0,0,0,0,0,0,0,-1,1014,939,0,0
-203,85,0,0,0,0,0,0,0,0,0,-1,1021,939,0,0
-196,85,0,0,0,0,0,0,0,0,0,-1,1028,939,0,0
-189,85,0,0,0,0,0,0,0,0,0,-1,1035,939,0,0
-182,85,0,0,0,0,0,0,0,0,0,-1,1042,939,0,0
-175,85,0,0,0,0,0,0,0,0,0,-1,1049,939,0,0
-168,85,0,0,0,0,0,0,0,0,0,-1,1056,939,0,0
-161,85,0,0,0,0,0,0,0,0,0,-1,1063,939,0,0
-154,85,0,0,0,0,0,0,0,0,0,-1,1070,939,0,0
-147,85,0,0,0,0,0,0,0,0,0,-1,1077,939,0,0
-140,85,0,0,0,0,0,0,0,0,0,-1,1084,939,0,0
-133,85,0,0,0,0,0,0,0,0,0,-1,1091,939,0,0
-126,85,0,0,0,0,0,0,0,0,0,-1,1098,939,0,0
-119,85,0,0,0,0,0,0,0,0,0,-1,1105,939,0,0
-112,85,0,0,0,0,0,0,0,0,0,-1,1112,939,0,0
-105,85,0,0,0,0,0,0,0,0,0,-1,1119,939,0,0
-98,85,0,0,0,0,0,0,0,0,0,-1,1126,939,0,0
-91,85,0,0,0,0,0,0,0,0,0,-1,1133,939,0,0
-84,85,0,0,0,0,0,0,0,0,0,-1,1140,939,0,0
-77,85,0,0,0,0,0,0,0,0,0,-1,1147,939,0,0
-70,85,0,0,0,0,0,0,0,0,0,-1,1154,939,0,0
-63,85,0,0,0,0,0,0,0,0,0,-1,1161,939,0,0
-56,85,0,0,0,0,0,0,0,0,0,-1,1168,939,0,0
-49,85,0,0,0,0,0,0,0,0,0,-1,1175,939,0,0
-42,85,0,0,0,0,0,0,0,0,0,-1,1182,939,0,0
-35,85,0,0,0,0,0,0,0,0,0,-1,1189,939,0,0
-28,85,0,0,0,0,0,0,0,0,0,-1,1196,939,0,0
-21,85,0,0,0,0,0,0,0,0,0,-1,1203,939,0,0
-14,85,0,0,0,0,0,0,0,0,0,-1,1210,939,0,0
-7,85,0,0,0,0,0,0,0,0,0,-1,1217,939,0,0
0,85,0,0,0,0,0,0,0,0,0,-1,1224,939,0,0
7,85,0,0,0,0,0,0,0,0,0,-1,1231,939,0,0
14,85,0,0,0,0,0,0,0,0,0,-1,1238,939,0,0
21,85,0,0,0,0,0,0,0,0,0,-1,1245,939,0,0
28,85,0,0,0,0,0,0,0,0,0,-1,1252,939,0,0
35,85,0,0,0,0,0,0,0,0,0,-1,1259,939,0,0
42,85,0,0,0,0,0,0,0,0,0,-1,1266,939,0,0
49,85,0,0,0,0,0,0,0,0,0,-1,1273,939,0,0
56,85,0,0,0,0,0,0,0,0,0,-1,1280,939,0,0
63,85,0,0,0,0,0,0,0,0,0,-1,1287,939,0,0
70,85,0,0,0,0,0,0,0,0,0,-1,1294,939,0,0
77,85,0,0,0,0,0,0,0,0,0,-1,1301,939,0,0
84,85,0,0,0,0,0,0,0,0,0,-1,1308,939,0,0
91,85,0,0,0,0,0,0,0,0,0,-1,1315,939,0,0
98,85,0,0,0,0,0,0,0,0,0,-1,1322,939,0,0
105,85,0,0,0,0,0,0,0,0,0,-1,1329,939,0,0
112,85,0,0,0,0,0,0,0,0,0,-1,1336,939,0,0
119,85,0,0,0,0,0,0,0,0,0,-1,1343,939,0,0
126,85,0,0,0,0,0,0,0,0,0,-1,1350,939,0,0
133,85,0,0,0,0,0,0,0,0,0,-1,1357,939,0,0
140,85,0,0,0,0,0,0,0,0,0,-1,1364,939,0,0
147,85,0,0,0,0,0,0,0,0,0,-1,1371,939,0,0
154,85,0,0,0,0,0,0,0,0,0,-1,1378,939,0,0
161,85,0,0,0,0,0,0,0,0,0,-1,1385,939,0,0
168,85,0,0,0,0,0,0,0,0,0,-1,1392,939,0,0
175,85,0,0,0,0,0,0,0,0,0,-1,1399,939,0,0
182,85,0,0,0,0,0,0,0,0,0,-1,1406,939,0,0
189,85,0,0,0,0,0,0,0,0,0,-1,1413,939,0,0
196,85,0,0,0,0,0,0,0,0,0,-1,1420,939,0,0
203,85,0,0,0,0,0,0,0,0,0,-1,1427,939,0,0
210,85,0,0,0,0,0,0,0,0,0,-1,1434,939,0,0
217,85,0,0,0,0,0,0,0,0,0,-1,1441,939,0,0
224,85,0,0,0,0,0,0,0,0,0,-1,1448,939,0,0
231,85,0,0,0,0,0,0,0,0,0,-1,1455,939,0,0
238,85,0,0,0,0,0,0,0,0,0,-1,1462,939,0,0
245,85,0,0,0,0,0,0,0,0,0,-1,1469,939,0,0
252,85,0,0,0,0,0,0,0,0,0,-1,1476,939,0,0
259,85,0,0,0,0,0,0,0,0,0,-1,1483,939,0,0
266,85,0,0,0,0,0,0,0,0,0,-1,1490,939,0,0
273,85,0,0,0,0,0,0,0,0,0,-1,1497,939,0,0
280,85,0,0,0,0,0,0,0,0,0,-1,1504,939,0,0
287,85,0,0,0,0,0,0,0,0,0,-1,1511,939,0,0
294,85,0,0,0,0,0,0,0,0,0,-1,1518,939,0,0
301,85,0,0,0,0,0,0,0,0,0,-1,1525,939,0,0
308,85,0,0,0,0,0,0,0,0,0,-1,1532,939,0,0
315,85,0,0,0,0,0,0,0,0,0,-1,1539,939,0,0
322,85,0,0,0,0,0,0,0,0,0,-1,1546,939,0,0
329,85,0,0,0,0,0,0,0,0,0,-1,1553,939,0,0
336,85,0,0,0,0,0,0,0,0,0,-1,1560,939,0,0
343,85,0,0,0,0,0,0,0,0,0,-1,1567,939,0,0
350,85,0,0,0,0,0,0,0,0,0,-1,1574,939,0,0
357,85,0,0,0,0,0,0,0,0,0,-1,1581,939,0,0
364,85,0,0,0,0,0,0,0,0,0,-1,1588,939,0,0
371,85,0,0,0,0,0,0,0,0,0,-1,1595,939,0,0
378,85,0,0,0,0,0,0,0,0,0,-1,1602,939,0,0
385,85,0,0,0,0,0,0,0,0,0,-1,1609,939,0,0
392,85,0,0,0,0,0,0,0,0,0,-1,1616,939,0,0
399,85,0,0,0,0,0,0,0,0,0,-1,1623,939,0,0
406,85,0,0,0,0,0,0,0,0,0,-1,1630,939,0,0
413,85,0,0,0,0,0,0,0,0,0,-1,1637,939,0,0
420,85,0,0,0,0,0,0,0,0,0,-1,1644,939,0,0
427,85,0,0,0,0,0,0,0,0,0,-1,1651,939,0,0
434,85,0,0,0,0,0,0,0,0,0,-1,1658,939,0,0
441,85,0,0,0,0,0,0,0,0,0,-1,1665,939,0,0
448,85,0,0,0,0,0,0,0,0,0,-1,1672,939,0,0
455,85,0,0,0,0,0,0,0,0,0,-1,1679,939,0,0
462,85,0,0,0,0,0,0,0,0,0,-1,1686,939,0,0
469,85,0,0,0,0,0,0,0,0,0,-1,1693,939,0,0
476,85,0,0,0,0,0,0,0,0,0,-1,1700,939,0,0
483,85,0,0,0,0,0,0,0,0,0,-1,1707,939,0,0
490,85,0,0,0,0,0,0,0,0,0,-1,1714,939,0,0
497,85,0,0,0,0,0,0,0,0,0,-1,1721,939,0,0
504,85,0,0,0,0,0,0,0,0,0,-1,1728,939,0,0
511,85,0,0,0,0,0,0,0,0,0,-1,1735,939,0,0
518,85,0,0,0,0,0,0,0,0,0,-1,1742,939,0,0
525,85,0,0,0,0,0,0,0,0,0,-1,1749,939,0,0
532,85,0,0,0,0,0,0,0,0,0,-1,1756,939,0,0
539,85,0,0,0,0,0,0,0,0,0,-1,1763,939,0,0
546,85,0,0,0,0,0,0,0,0,0,-1,1770,939,0,0
553,85,0,0,0,0,0,0,0,0,0,-1,1777,939,0,0
560,85,0,0,0,0,0,0,0,0,0,-1,1784,939,0,0
567,85,0,0,0,0,0,0,0,0,0,-1,1791,939,0,0
574,85,0,0,0,0,0,0,0,0,0,-1,1798,939,0,0
581,85,0,0,0,0,0,0,0,0,0,-1,1805,939,0,0
588,85,0,0,0,0,0,0,0,0,0,-1,1812,939,0,0
595,85,0,0,0,0,0,0,0,0,0,-1,1819,939,0,0
602,85,0,0,0,0,0,0,0,0,0,-1,1826,939,0,0
609,85,0,0,0,0,0,0,0,0,0,-1,1833,939,0,0
616,85,0,0,0,0,0,0,0,0,0,-1,1840,939,0,0
623,85,0,0,0,0,0,0,0,0,0,-1,1847,939,0,0
630,85,0,0,0,0,0,0,0,0,0,-1,1854,939,0,0
637,85,-0.048584,-0.0789185,-0.00333928,0.00178178,0.00193111,0.00242836,-0.00398585,1.24771,0.00373946,0.0446694,1861,939,-0.0486375,0.0788929
644,85,-0.0577393,-0.223145,-0.00227369,0.00124633,0.00133964,0.00169816,-0.00272553,1.24549,0.00257688,0.0375759,1868,939,-0.0577353,0.223169
651,85,0.0146484,-0.116089,-0.0015758,0.000894673,0.000854062,0.00116118,-0.00184231,1.26833,0.00174886,0.0356807,1875,939,0.014704,0.116067
658,85,-0.0400391,0.201355,-0.0011664,0.00065034,0.000502166,0.000779904,-0.00129596,1.31829,0.00121078,0.0376999,1882,939,-0.0400785,-0.201361
665,85,-0.0466309,0.130249,-0.000931698,0.000486689,0.000250445,0.000529611,-0.00097462,1.40106,0.000881045,0.0388483,1889,939,-0.0465805,-0.130245
672,85,-0.0136719,0.00463867,-0.000779077,0.000387042,9.18037e-05,0.000394225,-0.00078626,1.49271,0.000693968,0.0373217,1896,939,-0.0137002,-0.0046645
679,85,-0.00585938,0.0124512,-0.000670862,0.000317569,-1.66361e-06,0.000317572,-0.000670864,-1.56911,0.000582698,0.0339131,1903,939,-0.00582459,-0.012454
686,85,-0.0469971,-0.0150146,-0.00053627,0.000286632,-9.98426e-05,0.000298573,-0.00054821,-1.45177,0.000495922,0.0276496,1910,939,-0.0469451,0.015001
693,85,-0.0792236,-0.0324097,-0.000370435,0.000233397,-7.6814e-05,0.000243015,-0.000380053,-1.44623,0.000362617,0.0178307,1917,939,-0.0792041,0.0324163
700,85,-0.076416,-0.0544434,-0.000310345,0.000215426,-6.81765e-05,0.000224122,-0.000319041,-1.44392,0.000315188,0.0127325,1924,939,-0.0764231,0.0544225
707,85,-0.0649414,-0.0571899,-0.000307829,0.000208857,-0.000123304,0.000236774,-0.000335746,-1.34814,0.000332187,0.0150637,1931,939,-0.0649194,0.0572092
714,85,-0.0771484,-0.0527344,-0.000236028,0.000203893,-0.000152877,0.000251801,-0.000283937,-1.26711,0.000309494,0.0199661,1938,939,-0.0771491,0.0527108
721,85,-0.0874023,-0.046814,-0.000185897,0.000101137,-0.000268099,0.000261716,-0.000346476,-1.03115,0.000352275,0.0192674,1945,939,-0.0874374,0.046802
728,85,-0.081665,-0.0281982,3.47047e-06,-0.000139166,-0.000578881,0.00051541,-0.000651105,-0.724107,0.000675005,0.015857,1952,939,-0.0816144,0.028187
735,85,-0.0812988,-0.0439453,0.000216651,-0.000470386,-0.00130656,0.0012241,-0.00147783,-0.656849,0.00156225,0.014598,1959,939,-0.0813259,0.0439281
742,85,-0.0532227,-0.0545654,0.000213697,-0.000350516,-0.00256246,0.00250953,-0.00264635,-0.730573,0.0029771,0.0135694,1966,939,-0.0532746,0.0545357
749,85,-0.0588379,-0.0527954,0.000105233,-9.71382e-06,-0.00367437,0.00372258,-0.00362706,-0.777578,0.00424344,0.0123403,1973,939,-0.0588173,0.0527707
756,85,-0.0673828,-0.0565186,-0.000108347,0.00076098,-0.0047498,0.00509597,-0.00444333,-0.831027,0.00551181,0.0114086,1980,939,-0.0674037,0.0565075
763,85,-0.0560303,-0.0233765,-0.000246967,0.0015172,-0.00632208,0.00701844,-0.0057482,-0.854713,0.00738297,0.0118126,1987,939,-0.056086,0.0233755
770,85,-0.0606689,0.0045166,-0.000470401,0.00288876,-0.00815794,0.00953822,-0.00711986,-0.886921,0.00965127,0.0170495,1994,939,-0.0606164,-0.00453891
777,85,-0.161255,0.0565186,-0.000753892,0.00502681,-0.0101082,0.0126498,-0.00837689,-0.924652,0.012223,0.0377784,2001,939,-0.161266,-0.0564968
784,85,-0.200439,0.0393677,-0.00106012,0.00816959,-0.0119922,0.0164043,-0.00929479,-0.969075,0.0150254,0.0443816,2008,939,-0.200483,-0.039341
791,85,-0.2323,-0.306458,-0.00132642,0.0125711,-0.0135694,0.0208675,-0.0096228,-1.02203,0.0179982,0.044026,2015,939,-0.232292,0.306437
798,85,-0.406738,-0.337097,-0.00142077,0.0185612,-0.01444,0.0261296,-0.00898918,-1.08803,0.0210655,0.0433124,2022,939,-0.406729,0.337126
805,85,-0.13208,-0.0873413,-0.00122752,0.0265572,-0.0139477,0.0323508,-0.00702113,-1.1771,0.0242488,0.0475491,2029,939,-0.132047,0.0873586
812,85,0,0,0,0,0,0,0,0,0,-1,2036,939,0,0
-700,78,0,0,0,0,0,0,0,0,0,-1,524,946,0,0
-693,78,0,0,0,0,0,0,0,0,0,-1,531,946,0,0
-686,78,0.440857,0.0541992,0.0229625,0.0525261,0.0117424,0.0566225,0.0188662,1.23514,0.0332919,0.0439573,538,946,0.440847,-0.0542012
-679,78,0.458496,0.181396,0.0156459,0.0421933,0.00687203,0.0438667,0.0139725,1.33194,0.0258765,0.0461385,545,946,0.458503,-0.181408
-672,78,0.399719,0.200073,0,0,0,0,0,0,0,-1,552,946,0.399692,-0.200076
-665,78,0.272522,0.329285,0.00767251,0.0253405,0.00093387,0.0253898,0.00762329,1.51814,0.0150437,0.0447192,559,946,0.272511,-0.329307
-658,78,-0.194397,0.619507,0.00556185,0.0188897,-0.000638604,0.0189202,0.00553132,-1.52303,0.0112332,0.0462185,566,946,-0.194396,-0.619533
-651,78,-0.0863037,0.529663,0.00416724,0.0136783,-0.00153335,0.0139194,0.00392615,-1.41484,0.00828695,0.0437376,573,946,-0.0862858,-0.529641
-644,78,-0.0183105,0.0599365,0.00322807,0.00960389,-0.00191289,0.0101338,0.0026982,-1.30057,0.00606009,0.025688,580,946,-0.0183085,-0.059957
-637,78,-0.0437012,-0.0406494,0.00229697,0.00652529,-0.00184238,0.00721542,0.00160684,-1.21239,0.00437418,0.0124099,587,946,-0.0436792,0.0406637
-630,78,-0.0297241,-0.074707,0.00171724,0.00414492,-0.00189878,0.00518469,0.000677465,-1.0698,0.00325423,0.012381,594,946,-0.0297332,0.0747302
-623,78,-0.0435181,-0.0581665,0.00111687,0.00161443,-0.00193839,0.00331995,-0.000588639,-0.849221,0.00243336,0.0115489,601,946,-0.043537,0.058162
-616,78,-0.0679321,-0.0463867,0.000791232,0.0006788,-0.00141566,0.00215179,-0.000681761,-0.765554,0.00170776,0.00947992,608,946,-0.0679598,0.0463911
-609,78,-0.072937,-0.0596313,0.00149477,0.000617005,-0.000747974,0.00192311,0.000188659,-0.520085,0.00122404,0.0101713,615,946,-0.0729606,0.0596199
-602,78,-0.0645142,-0.0668945,0.0011711,0.000439418,-0.000407211,0.00135267,0.000257846,-0.419433,0.0008293,0.0139057,622,946,-0.064522,0.0668659
-595,78,-0.0386963,-0.0770264,0.000590895,0.00022304,-0.000173356,0.000659716,0.00015422,-0.377909,0.000398479,0.0143283,629,946,-0.0386846,0.0770136
-588,78,-0.0462036,-0.048645,0.000441597,0.00037211,-0.000100892,0.000513561,0.000300147,-0.619576,0.000297911,0.0128668,636,946,-0.0461743,0.0486334
-581,78,-0.0514526,-0.0446167,0.000292732,0.000512914,-0.000198547,0.00062985,0.000175797,-1.03854,0.000375287,0.0135495,643,946,-0.0514426,0.044601
-574,78,-0.0707397,-0.0424194,0.000192375,0.000659948,-0.000283584,0.000793688,5.86347e-05,-1.13012,0.000510704,0.0177142,650,946,-0.0707525,0.0424273
-567,78,-0.0925293,-0.0263672,0.000344731,0.000846447,-0.000410783,0.00107691,0.000114265,-1.05952,0.000683046,0.0248189,657,946,-0.0925183,0.026361
-560,78,-0.0874023,0.0098877,0.000379387,0.00111469,-0.000552742,0.00141088,8.31923e-05,-1.07887,0.00091412,0.0270433,664,946,-0.087397,-0.00987496
-553,78,-0.0552979,0.0535889,0.000393562,0.00137235,-0.000717923,0.00175181,1.40932e-05,-1.08456,0.00116321,0.0361517,671,946,-0.0553168,-0.0535986
-546,78,-0.0484009,0.090271,0.000437246,0.00166656,-0.00087724,0.00212305,-1.92435e-05,-1.09099,0.00142182,0.037263,678,946,-0.0483803,-0.0902875
-539,78,-0.00738525,0.159241,0.000548935,0.00201258,-0.00102142,0.00253728,2.42282e-05,-1.09625,0.0016835,0.0346292,685,946,-0.00739142,-0.159246
-532,78,-0.0800171,0.071167,0.000787332,0.00242723,-0.00108861,0.00297014,0.000244422,-1.10817,0.00190386,0.0345091,692,946,-0.0800267,-0.0711821
-525,78,-0.0720215,0.0317993,0.00120558,0.00292723,-0.00102456,0.00340459,0.000728219,-1.13479,0.00207013,0.0347139,699,946,-0.0720184,-0.031817
-518,78,-0.0539551,-0.0870361,0.00193996,0.00355259,-0.000851109,0.00391868,0.00157387,-1.16459,0.002277,0.0381967,706,946,-0.0539754,0.087026
-511,78,0,0,0,0,0,0,0,0,0,-1,713,946,0,0
-504,78,0,0,0,0,0,0,0,0,0,-1,720,946,0,0
-497,78,0,0,0,0,0,0,0,0,0,-1,727,946,0,0
-490,78,0,0,0,0,0,0,0,0,0,-1,734,946,0,0
-483,78,0,0,0,0,0,0,0,0,0,-1,741,946,0,0
-476,78,0,0,0,0,0,0,0,0,0,-1,748,946,0,0
-469,78,0,0,0,0,0,0,0,0,0,-1,755,946,0,0
-462,78,0,0,0,0,0,0,0,0,0,-1,762,946,0,0
-455,78,0,0,0,0,0,0,0,0,0,-1,769,946,0,0
-448,78,0,0,0,0,0,0,0,0,0,-1,776,946,0,0
-441,78,0,0,0,0,0,0,0,0,0,-1,783,946,0,0
-434,78,0,0,0,0,0,0,0,0,0,-1,790,946,0,0
-427,78,0,0,0,0,0,0,0,0,0,-1,797,946,0,0
-420,78,0,0,0,0,0,0,0,0,0,-1,804,946,0,0
-413,78,0,0,0,0,0,0,0,0,0,-1,811,946,0,0
-406,78,0,0,0,0,0,0,0,0,0,-1,818,946,0,0
-399,78,0,0,0,0,0,0,0,0,0,-1,825,946,0,0
-392,78,0,0,0,0,0,0,0,0,0,-1,832,946,0,0
-385,78,0,0,0,0,0,0,0,0,0,-1,839,946,0,0
-378,78,0,0,0,0,0,0,0,0,0,-1,846,946,0,0
-371,78,0,0,0,0,0,0,0,0,0,-1,853,946,0,0
-364,78,0,0,0,0,0,0,0,0,0,-1,860,946,0,0
-357,78,0,0,0,0,0,0,0,0,0,-1,867,946,0,0
-350,78,0,0,0,0,0,0,0,0,0,-1,874,946,0,0
-343,78,0,0,0,0,0,0,0,0,0,-1,881,946,0,0
-336,78,0,0,0,0,0,0,0,0,0,-1,888,946,0,0
-329,78,0,0,0,0,0,0,0,0,0,-1,895,946,0,0
-322,78,0,0,0,0,0,0,0,0,0,-1,902,946,0,0
-315,78,0,0,0,0,0,0,0,0,0,-1,909,946,0,0
-308,78,0,0,0,0,0,0,0,0,0,-1,916,946,0,0
-301,78,0,0,0,0,0,0,0,0,0,-1,923,946,0,0
-294,78,0,0,0,0,0,0,0,0,0,-1,930,946,0,0
-287,78,0,0,0,0,0,0,0,0,0,-1,937,946,0,0
-280,78,0,0,0,0,0,0,0,0,0,-1,944,946,0,0
-273,78,0,0,0,0,0,0,0,0,0,-1,951,946,0,0
-266,78,0,0,0,0,0,0,0,0,0,-1,958,946,0,0
-259,78,0,0,0,0,0,0,0,0,0,-1,965,946,0,0
-252,78,0,0,0,0,0,0,0,0,0,-1,972,946,0,0
-245,78,0,0,0,0,0,0,0,0,0,-1,979,946,0,0
-238,78,0,0,0,0,0,0,0,0,0,-1,986,946,0,0
-231,78,0,0,0,0,0,0,0,0,0,-1,993,946,0,0
-224,78,0,0,0,0,0,0,0,0,0,-1,1000,946,0,0
-217,78,0,0,0,0,0,0,0,0,0,-1,1007,946,0,0
-210,78,0,0,0,0,0,0,0,0,0,-1,1014,946,0,0
-203,78,0,0,0,0,0,0,0,0,0,-1,1021,946,0,0
-196,78,0,0,0,0,0,0,0,0,0,-1,1028,946,0,0
-189,78,0,0,0,0,0,0,0,0,0,-1,1035,946,0,0
-182,78,0,0,0,0,0,0,0,0,0,-1,1042,946,0,0
-175,78,0,0,0,0,0,0,0,0,0,-1,1049,946,0,0
-168,78,0,0,0,0,0,0,0,0,0,-1,1056,946,0,0
-161,78,0,0,0,0,0,0,0,0,0,-1,1063,946,0,0
-154,78,0,0,0,0,0,0,0,0,0,-1,1070,946,0,0
-147,78,0,0,0,0,0,0,0,0,0,-1,1077,946,0,0
-140,78,0,0,0,0,0,0,0,0,0,-1,1084,946,0,0
-133,78,0,0,0,0,0,0,0,0,0,-1,1091,946,0,0
-126,78,0,0,0,0,0,0,0,0,0,-1,1098,946,0,0
-119,78,0,0,0,0,0,0,0,0,0,-1,1105,946,0,0
-112,78,0,0,0,0,0,0,0,0,0,-1,1112,946,0,0
-105,78,0,0,0,0,0,0,0,0,0,-1,1119,946,0,0
-98,78,0,0,0,0,0,0,0,0,0,-1,1126,946,0,0
-91,78,0,0,0,0,0,0,0,0,0,-1,1133,946,0,0
-84,78,0,0,0,0,0,0,0,0,0,-1,1140,946,0,0
-77,78,0,0,0,0,0,0,0,0,0,-1,1147,946,0,0
-70,78,0,0,0,0,0,0,0,0,0,-1,1154,946,0,0
-63,78,0,0,0,0,0,0,0,0,0,-1,1161,946,0,0
-56,78,0,0,0,0,0,0,0,0,0,-1,1168,946,0,0
-49,78,0,0,0,0,0,0,0,0,0,-1,1175,946,0,0
-42,78,0,0,0,0,0,0,0,0,0,-1,1182,946,0,0
-35,78,0,0,0,0,0,0,0,0,0,-1,1189,946,0,0
-28,78,0,0,0,0,0,0,0,0,0,-1,1196,946,0,0
-21,78,0,0,0,0,0,0,0,0,0,-1,1203,946,0,0
-14,78,0,0,0,0,0,0,0,0,0,-1,1210,946,0,0
-7,78,0,0,0,0,0,0,0,0,0,-1,1217,946,0,0
0,78,0,0,0,0,0,0,0,0,0,-1,1224,946,0,0
7,78,0,0,0,0,0,0,0,0,0,-1,1231,946,0,0
14,78,0,0,0,0,0,0,0,0,0,-1,1238,946,0,0
21,78,0,0,0,0,0,0,0,0,0,-1,1245,946,0,0
28,78,0,0,0,0,0,0,0,0,0,-1,1252,946,0,0
35,78,0,0,0,0,0,0,0,0,0,-1,1259,946,0,0
42,78,0,0,0,0,0,0,0,0,0,-1,1266,946,0,0
49,78,0,0,0,0,0,0,0,0,0,-1,1273,946,0,0
56,78,0,0,0,0,0,0,0,0,0,-1,1280,946,0,0
63,78,0,0,0,0,0,0,0,0,0,-1,1287,946,0,0
70,78,0,0,0,0,0,0,0,0,0,-1,1294,946,0,0
77,78,0,0,0,0,0,0,0,0,0,-1,1301,946,0,0
84,78,0,0,0,0,0,0,0,0,0,-1,1308,946,0,0
91,78,0,0,0,0,0,0,0,0,0,-1,1315,946,0,0
98,78,0,0,0,0,0,0,0,0,0,-1,1322,946,0,0
105,78,0,0,0,0,0,0,0,0,0,-1,1329,946,0,0
112,78,0,0,0,0,0,0,0,0,0,-1,1336,946,0,0
119,78,0,0,0,0,0,0,0,0,0,-1,1343,946,0,0
126,78,0,0,0,0,0,0,0,0,0,-1,1350,946,0,0
133,78,0,0,0,0,0,0,0,0,0,-1,1357,946,0,0
140,78,0,0,0,0,0,0,0,0,0,-1,1364,946,0,0
147,78,0,0,0,0,0,0,0,0,0,-1,1371,946,0,0
154,78,0,0,0,0,0,0,0,0,0,-1,1378,946,0,0
161,78,0,0,0,0,0,0,0,0,0,-1,1385,946,0,0
168,78,0,0,0,0,0,0,0,0,0,-1,1392,946,0,0
175,78,0,0,0,0,0,0,0,0,0,-1,1399,946,0,0
182,78,0,0,0,0,0,0,0,0,0,-1,1406,946,0,0
189,78,0,0,0,0,0,0,0,0,0,-1,1413,946,0,0
196,78,0,0,0,0,0,0,0,0,0,-1,1420,946,0,0
203,78,0,0,0,0,0,0,0,0,0,-1,1427,946,0,0
210,78,0,0,0,0,0,0,0,0,0,-1,1434,946,0,0
217,78,0,0,0,0,0,0,0,0,0,-1,1441,946,0,0
224,78,0,0,0,0,0,0,0,0,0,-1,1448,946,0,0
231,78,0,0,0,0,0,0,0,0,0,-1,1455,946,0,0
238,78,0,0,0,0,0,0,0,0,0,-1,1462,946,0,0
245,78,0,0,0,0,0,0,0,0,0,-1,1469,946,0,0
252,78,0,0,0,0,0,0,0,0,0,-1,1476,946,0,0
259,78,0,0,0,0,0,0,0,0,0,-1,1483,946,0,0
266,78,0,0,0,0,0,0,0,0,0,-1,1490,946,0,0
273,78,0,0,0,0,0,0,0,0,0,-1,1497,946,0,0
280,78,0,0,0,0,0,0,0,0,0,-1,1504,946,0,0
287,78,0,0,0,0,0,0,0,0,0,-1,1511,946,0,0
294,78,0,0,0,0,0,0,0,0,0,-1,1518,946,0,0
301,78,0,0,0,0,0,0,0,0,0,-1,1525,946,0,0
308,78,0,0,0,0,0,0,0,0,0,-1,1532,946,0,0
315,78,0,0,0,0,0,0,0,0,0,-1,1539,946,0,0
322,78,0,0,0,0,0,0,0,0,0,-1,1546,946,0,0
329,78,0,0,0,0,0,0,0,0,0,-1,1553,946,0,0
336,78,0,0,0,0,0,0,0,0,0,-1,1560,946,0,0
343,78,0,0,0,0,0,0,0,0,0,-1,1567,946,0,0
350,78,0,0,0,0,0,0,0,0,0,-1,1574,946,0,0
357,78,0,0,0,0,0,0,0,0,0,-1,1581,946,0,0
364,78,0,0,0,0,0,0,0,0,0,-1,1588,946,0,0
371,78,0,0,0,0,0,0,0,0,0,-1,1595,946,0,0
378,78,0,0,0,0,0,0,0,0,0,-1,1602,946,0,0
385,78,0,0,0,0,0,0,0,0,0,-1,1609,946,0,0
392,78,0,0,0,0,0,0,0,0,0,-1,1616,946,0,0
399,78,0,0,0,0,0,0,0,0,0,-1,1623,946,0,0
406,78,0,0,0,0,0,0,0,0,0,-1,1630,946,0,0
413,78,0,0,0,0,0,0,0,0,0,-1,1637,946,0,0
420,78,0,0,0,0,0,0,0,0,0,-1,1644,946,0,0
427,78,0,0,0,0,0,0,0,0,0,-1,1651,946,0,0
434,78,0,0,0,0,0,0,0,0,0,-1,1658,946,0,0
441,78,0,0,0,0,0,0,0,0,0,-1,1665,946,0,0
448,78,0,0,0,0,0,0,0,0,0,-1,1672,946,0,0
455,78,0,0,0,0,0,0,0,0,0,-1,1679,946,0,0
462,78,0,0,0,0,0,0,0,0,0,-1,1686,946,0,0
469,78,0,0,0,0,0,0,0,0,0,-1,1693,946,0,0
476,78,0,0,0,0,0,0,0,0,0,-1,1700,946,0,0
483,78,0,0,0,0,0,0,0,0,0,-1,1707,946,0,0
490,78,0,0,0,0,0,0,0,0,0,-1,1714,946,0,0
497,78,0,0,0,0,0,0,0,0,0,-1,1721,946,0,0
504,78,0,0,0,0,0,0,0,0,0,-1,1728,946,0,0
511,78,0,0,0,0,0,0,0,0,0,-1,1735,946,0,0
518,78,0,0,0,0,0,0,0,0,0,-1,1742,946,0,0
525,78,0,0,0,0,0,0,0,0,0,-1,1749,946,0,0
532,78,0,0,0,0,0,0,0,0,0,-1,1756,946,0,0
539,78,0,0,0,0,0,0,0,0,0,-1,1763,946,0,0
546,78,0,0,0,0,0,0,0,0,0,-1,1770,946,0,0
553,78,0,0,0,0,0,0,0,0,0,-1,1777,946,0,0
560,78,0,0,0,0,0,0,0,0,0,-1,1784,946,0,0
567,78,0,0,0,0,0,0,0,0,0,-1,1791,946,0,0
574,78,0,0,0,0,0,0,0,0,0,-1,1798,946,0,0
581,78,0,0,0,0,0,0,0,0,0,-1,1805,946,0,0
588,78,0,0,0,0,0,0,0,0,0,-1,1812,946,0,0
595,78,0,0,0,0,0,0,0,0,0,-1,1819,946,0,0
602,78,0,0,0,0,0,0,0,0,0,-1,1826,946,0,0
609,78,0,0,0,0,0,0,0,0,0,-1,1833,946,0,0
616,78,0,0,0,0,0,0,0,0,0,-1,1840,946,0,0
623,78,0,0,0,0,0,0,0,0,0,-1,1847,946,0,0
630,78,0,0,0,0,0,0,0,0,0,-1,1854,946,0,0
637,78,0.0112305,-0.121887,-0.00358858,0.00110271,0.0019746,0.00182319,-0.00430905,1.22094,0.00363612,0.0428818,1861,946,0.0112714,0.121895
644,78,-0.0819092,-0.225403,-0.00250737,0.000752047,0.0014059,0.00127467,-0.00302999,1.21489,0.00255324,0.0380901,1868,946,-0.0819072,0.225422
651,78,-0.00952148,-0.197998,-0.00175841,0.000522225,0.000904056,0.00083712,-0.0020733,1.23563,0.00173012,0.0360213,1875,946,-0.00955256,0.197971
658,78,0.00756836,-0.0904541,-0.0013189,0.000355874,0.000536921,0.000513223,-0.00147625,1.28572,0.00119264,0.0339783,1882,946,0.00756151,0.0904413
665,78,-0.0263672,-0.0375977,-0.00105677,0.000247197,0.000266361,0.000299508,-0.00110908,1.37687,0.000856853,0.0350062,1889,946,-0.0263766,0.0375783
672,78,-0.0517578,0.0643921,-0.000881182,0.000189034,8.89296e-05,0.000196374,-0.000888521,1.48845,0.000667504,0.0368307,1896,946,-0.0517142,-0.0643947
679,78,-0.0432129,0.0150757,-0.000752724,0.000166855,-1.40709e-05,0.00016707,-0.000752939,-1.5555,0.00056593,0.035748,1903,946,-0.0431589,-0.0150978
686,78,-0.0913086,0.0131226,-0.000604033,0.000165498,-0.000106462,0.000179956,-0.00061849,-1.43583,0.000483605,0.0322433,1910,946,-0.091291,-0.013108
693,78,-0.0546875,-0.0334473,-0.000419549,0.000131345,-8.23615e-05,0.000143395,-0.000431599,-1.42552,0.000345594,0.0222867,1917,946,-0.0546865,0.0334491
700,78,-0.0698242,-0.0526733,-0.000324368,0.000128464,-7.86492e-05,0.000141735,-0.000337639,-1.40363,0.000284366,0.0136278,1924,946,-0.0697953,0.0526879
707,78,-0.0946045,-0.0401001,-0.000304375,0.000136639,-0.000134875,0.000174617,-0.000342353,-1.29632,0.000303665,0.0156847,1931,946,-0.0945633,0.0401096
714,78,-0.109009,-0.039978,-0.000247276,0.000151122,-0.000144859,0.000198224,-0.000294378,-1.25642,0.000286204,0.0162936,1938,946,-0.108959,0.0399576
721,78,-0.0914307,-0.0489502,-0.000237205,7.52445e-05,-0.000196012,0.000169673,-0.000331634,-1.12186,0.000294421,0.0162267,1945,946,-0.0914152,0.0489765
728,78,-0.0667725,-0.0251465,-0.000100059,-0.000108391,-0.000429717,0.000325512,-0.000533962,-0.780551,0.000501058,0.0172171,1952,946,-0.0667931,0.0251754
735,78,-0.072876,-0.0509644,5.7526e-05,-0.000425559,-0.00103377,0.0008776,-0.00124563,-0.670631,0.00123197,0.0111791,1959,946,-0.0729119,0.0509401
742,78,-0.0585938,-0.0640869,-6.16672e-05,-0.000366742,-0.00207271,0.00186411,-0.00229252,-0.748668,0.00240408,0.0110683,1966,946,-0.0585551,0.0640844
749,78,-0.0443115,-0.043396,-0.000443593,-7.26166e-05,-0.00294309,0.00269082,-0.00320703,-0.816869,0.00340947,0.0114694,1973,946,-0.0443217,0.0434044
756,78,-0.0290527,-0.0388184,-0.000971494,0.000608691,-0.00370427,0.00360619,-0.00396899,-0.89047,0.00437521,0.0123714,1980,946,-0.0290915,0.0388412
763,78,-0.0526123,-0.0310669,-0.00146558,0.00111257,-0.0048102,0.00480343,-0.00515644,-0.916316,0.00575154,0.0117013,1987,946,-0.0526256,0.0310482
770,78,-0.0480957,-0.0337524,-0.00216608,0.00217776,-0.00610315,0.00648393,-0.00647226,-0.956345,0.00748026,0.0149769,1994,946,-0.0480722,0.0337497
777,78,-0.11145,-0.0800171,-0.0030588,0.0038491,-0.00738708,0.00854983,-0.00775952,-1.00408,0.00941989,0.0350293,2001,946,-0.111479,0.0800298
784,78,-0.0793457,-0.375427,-0.00412398,0.00631161,-0.00847605,0.0110471,-0.00885952,-1.0613,0.0115162,0.0415167,2008,946,-0.0793478,0.375401
791,78,-0.226563,-0.634521,-0.0053175,0.00975279,-0.00913827,0.0140619,-0.00962661,-1.13017,0.0137562,0.0422789,2015,946,-0.226561,0.6345
798,78,-0.456299,-0.577332,-0.00653556,0.0144041,-0.00901742,0.0177521,-0.00988351,-1.21529,0.0161696,0.0423666,2022,946,-0.456293,0.577335
805,78,-0.392578,-0.418274,-0.00767682,0.020553,-0.00753891,0.0224402,-0.00956397,-1.32552,0.0189695,0.0450604,2029,946,-0.392575,0.418283
812,78,0,0,0,0,0,0,0,0,0,-1,2036,946,0,0
-700,71,0,0,0,0,0,0,0,0,0,-1,524,953,0,0
-693,71,0,0,0,0,0,0,0,0,0,-1,531,953,0,0
-686,71,0.797241,0.0493164,0.0223668,0.0573437,0.0154277,0.0631761,0.0165345,1.20936,0.0378301,0.0413768,538,953,0.797234,-0.0493241
-679,71,0.853516,0.415039,0.0141968,0.0459916,0.0100866,0.0489215,0.0112669,1.2881,0.0295827,0.0469442,545,953,0.853492,-0.415023
-672,71,0.2724,0.463806,0,0,0,0,0,0,0,-1,552,953,0.272429,-0.463828
-665,71,0.219482,0.453552,0.00542008,0.0273996,0.00304983,0.027815,0.00500474,1.43544,0.0171207,0.0459637,559,953,0.219497,-0.453544
-658,71,-0.503845,0.529846,0.0032777,0.0202844,0.000975084,0.0203401,0.00322198,1.51371,0.0126239,0.0475328,566,953,-0.50384,-0.529841
-651,71,-0.223999,0.476257,0.00201841,0.0145572,-0.000354966,0.0145673,0.00200837,-1.54252,0.0091161,0.043074,573,953,-0.224003,-0.476254
-644,71,-0.0309448,0.0350342,0.00131805,0.0101073,-0.00109009,0.0102404,0.00118487,-1.44922,0.00646827,0.0302466,580,953,-0.030952,-0.0350086
-637,71,-0.0571289,-0.0297241,0.000604329,0.006776,-0.00126698,0.00702597,0.000354355,-1.376,0.00457044,0.0131409,587,953,-0.0571192,0.0297432
-630,71,-0.0521851,-0.0349121,0.000328103,0.00418144,-0.00158469,0.00474942,-0.000239885,-1.22664,0.0032492,0.0131638,594,953,-0.0521938,0.0348925
-623,71,-0.0653687,-0.0457153,6.0603e-05,0.00154827,-0.0018446,0.00279337,-0.00118449,-0.97705,0.00235841,0.0120927,601,953,-0.0653646,0.0457015
-616,71,-0.0855713,-0.0466309,5.10789e-05,0.00053109,-0.0013798,0.0016916,-0.00110943,-0.871508,0.00162878,0.0107362,608,953,-0.0855843,0.0466536
-609,71,-0.0843506,-0.0565186,0.000994799,0.000489988,-0.00075132,0.00153498,-5.01913e-05,-0.623347,0.00104045,0.0119423,615,953,-0.0843458,0.0564944
-602,71,-0.0726929,-0.0942993,0.000857195,0.000322407,-0.000470857,0.00113129,4.83165e-05,-0.527162,0.000738612,0.0135961,622,953,-0.0726813,0.0942805
-595,71,-0.0630493,-0.0942993,0.00045772,0.000154378,-0.000243068,0.000592556,1.95422e-05,-0.506464,0.000388687,0.0148116,629,953,-0.0630542,0.0942722
-588,71,-0.0665894,-0.0549316,0.00046143,0.000295225,-0.000148406,0.000548417,0.000208238,-0.530168,0.000319669,0.0159252,636,953,-0.0665608,0.0549488
-581,71,-0.0592041,-0.0189209,0.000397645,0.000426429,-0.000231381,0.000643865,0.000180209,-0.816458,0.000383555,0.0212093,643,953,-0.0591748,0.0188975
-574,71,-0.0638428,-0.0185547,0.000327573,0.000548477,-0.000316702,0.000773435,0.000102615,-0.953181,0.00048505,0.0231502,650,953,-0.0638703,0.0185368
-567,71,-0.0824585,-0.0355835,0.000481558,0.000686191,-0.00044621,0.00104166,0.000126085,-0.8981,0.000656463,0.0174148,657,953,-0.0824426,0.0356107
-560,71,-0.0800781,0.00390625,0.000509869,0.000875544,-0.000597913,0.00131795,6.74624e-05,-0.93378,0.000857032,0.0246901,664,953,-0.0800755,-0.00390055
-553,71,-0.0698853,0.0154419,0.000512456,0.00105346,-0.000774394,0.00160324,-3.73204e-05,-0.953427,0.00108148,0.037107,671,953,-0.0699044,-0.0154417
-546,71,-0.0665283,0.0236816,0.000520757,0.00124087,-0.000953168,0.00189972,-0.000138092,-0.965987,0.00131493,0.0365413,678,953,-0.0665306,-0.0236657
-539,71,-0.0368042,-0.0598145,0.000549009,0.00144402,-0.00112597,0.00220815,-0.00021512,-0.974548,0.0015488,0.0350428,685,953,-0.0368298,0.059788
-532,71,-0.141663,-0.0797729,0.000631566,0.00166359,-0.00122523,0.00247703,-0.000181878,-0.984703,0.0017152,0.038398,692,953,-0.141671,0.0797543
-525,71,-0.198914,-0.026062,0.000803505,0.00190133,-0.00120228,0.00267408,3.07632e-05,-0.999547,0.00177255,0.0390845,699,953,-0.198898,0.026038
-518,71,0,0,0,0,0,0,0,0,0,-1,706,953,0,0
-511,71,0,0,0,0,0,0,0,0,0,-1,713,953,0,0
-504,71,0,0,0,0,0,0,0,0,0,-1,720,953,0,0
-497,71,0,0,0,0,0,0,0,0,0,-1,727,953,0,0
-490,71,0,0,0,0,0,0,0,0,0,-1,734,953,0,0
-483,71,0,0,0,0,0,0,0,0,0,-1,741,953,0,0
-476,71,0,0,0,0,0,0,0,0,0,-1,748,953,0,0
-469,71,0,0,0,0,0,0,0,0,0,-1,755,953,0,0
-462,71,0,0,0,0,0,0,0,0,0,-1,762,953,0,0
-455,71,0,0,0,0,0,0,0,0,0,-1,769,953,0,0
-448,71,0,0,0,0,0,0,0,0,0,-1,776,953,0,0
-441,71,0,0,0,0,0,0,0,0,0,-1,783,953,0,0
-434,71,0,0,0,0,0,0,0,0,0,-1,790,953,0,0
-427,71,0,0,0,0,0,0,0,0,0,-1,797,953,0,0
-420,71,0,0,0,0,0,0,0,0,0,-1,804,953,0,0
-413,71,0,0,0,0,0,0,0,0,0,-1,811,953,0,0
-406,71,0,0,0,0,0,0,0,0,0,-1,818,953,0,0
-399,71,0,0,0,0,0,0,0,0,0,-1,825,953,0,0
-392,71,0,0,0,0,0,0,0,0,0,-1,832,953,0,0
-385,71,0,0,0,0,0,0,0,0,0,-1,839,953,0,0
-378,71,0,0,0,0,0,0,0,0,0,-1,846,953,0,0
-371,71,0,0,0,0,0,0,0,0,0,-1,853,953,0,0
-364,71,0,0,0,0,0,0,0,0,0,-1,860,953,0,0
-357,71,0,0,0,0,0,0,0,0,0,-1,867,953,0,0
-350,71,0,0,0,0,0,0,0,0,0,-1,874,953,0,0
-343,71,0,0,0,0,0,0,0,0,0,-1,881,953,0,0
-336,71,0,0,0,0,0,0,0,0,0,-1,888,953,0,0
-329,71,0,0,0,0,0,0,0,0,0,-1,895,953,0,0
-322,71,0,0,0,0,0,0,0,0,0,-1,902,953,0,0
-315,71,0,0,0,0,0,0,0,0,0,-1,909,953,0,0
-308,71,0,0,0,0,0,0,0,0,0,-1,916,953,0,0
-301,71,0,0,0,0,0,0,0,0,0,-1,923,953,0,0
-294,71,0,0,0,0,0,0,0,0,0,-1,930,953,0,0
-287,71,0,0,0,0,0,0,0,0,0,-1,937,953,0,0
-280,71,0,0,0,0,0,0,0,0,0,-1,944,953,0,0
-273,71,0,0,0,0,0,0,0,0,0,-1,951,953,0,0
-266,71,0,0,0,0,0,0,0,0,0,-1,958,953,0,0
-259,71,0,0,0,0,0,0,0,0,0,-1,965,953,0,0
-252,71,0,0,0,0,0,0,0,0,0,-1,972,953,0,0
-245,71,0,0,0,0,0,0,0,0,0,-1,979,953,0,0
-238,71,0,0,0,0,0,0,0,0,0,-1,986,953,0,0
-231,71,0,0,0,0,0,0,0,0,0,-1,993,953,0,0
-224,71,0,0,0,0,0,0,0,0,0,-1,1000,953,0,0
-217,71,0,0,0,0,0,0,0,0,0,-1,1007,953,0,0
-210,71,0,0,0,0,0,0,0,0,0,-1,1014,953,0,0
-203,71,0,0,0,0,0,0,0,0,0,-1,1021,953,0,0
-196,71,0,0,0,0,0,0,0,0,0,-1,1028,953,0,0
-189,71,0,0,0,0,0,0,0,0,0,-1,1035,953,0,0
-182,71,0,0,0,0,0,0,0,0,0,-1,1042,953,0,0
-175,71,0,0,0,0,0,0,0,0,0,-1,1049,953,0,0
-168,71,0,0,0,0,0,0,0,0,0,-1,1056,953,0,0
-161,71,0,0,0,0,0,0,0,0,0,-1,1063,953,0,0
-154,71,0,0,0,0,0,0,0,0,0,-1,1070,953,0,0
-147,71,0,0,0,0,0,0,0,0,0,-1,1077,953,0,0
-140,71,0,0,0,0,0,0,0,0,0,-1,1084,953,0,0
-133,71,0,0,0,0,0,0,0,0,0,-1,1091,953,0,0
-126,71,0,0,0,0,0,0,0,0,0,-1,1098,953,0,0
-119,71,0,0,0,0,0,0,0,0,0,-1,1105,953,0,0
-112,71,0,0,0,0,0,0,0,0,0,-1,1112,953,0,0
-105,71,0,0,0,0,0,0,0,0,0,-1,1119,953,0,0
-98,71,0,0,0,0,0,0,0,0,0,-1,1126,953,0,0
-91,71,0,0,0,0,0,0,0,0,0,-1,1133,953,0,0
-84,71,0,0,0,0,0,0,0,0,0,-1,1140,953,0,0
-77,71,0,0,0,0,0,0,0,0,0,-1,1147,953,0,0
-70,71,0,0,0,0,0,0,0,0,0,-1,1154,953,0,0
-63,71,0,0,0,0,0,0,0,0,0,-1,1161,953,0,0
-56,71,0,0,0,0,0,0,0,0,0,-1,1168,953,0,0
-49,71,0,0,0,0,0,0,0,0,0,-1,1175,953,0,0
-42,71,0,0,0,0,0,0,0,0,0,-1,1182,953,0,0
-35,71,0,0,0,0,0,0,0,0,0,-1,1189,953,0,0
-28,71,0,0,0,0,0,0,0,0,0,-1,1196,953,0,0
-21,71,0,0,0,0,0,0,0,0,0,-1,1203,953,0,0
-14,71,0,0,0,0,0,0,0,0,0,-1,1210,953,0,0
-7,71,0,0,0,0,0,0,0,0,0,-1,1217,953,0,0
0,71,0,0,0,0,0,0,0,0,0,-1,1224,953,0,0
7,71,0,0,0,0,0,0,0,0,0,-1,1231,953,0,0
14,71,0,0,0,0,0,0,0,0,0,-1,1238,953,0,0
21,71,0,0,0,0,0,0,0,0,0,-1,1245,953,0,0
28,71,0,0,0,0,0,0,0,0,0,-1,1252,953,0,0
35,71,0,0,0,0,0,0,0,0,0,-1,1259,953,0,0
42,71,0,0,0,0,0,0,0,0,0,-1,1266,953,0,0
49,71,0,0,0,0,0,0,0,0,0,-1,1273,953,0,0
56,71,0,0,0,0,0,0,0,0,0,-1,1280,953,0,0
63,71,0,0,0,0,0,0,0,0,0,-1,1287,953,0,0
70,71,0,0,0,0,0,0,0,0,0,-1,1294,953,0,0
77,71,0,0,0,0,0,0,0,0,0,-1,1301,953,0,0
84,71,0,0,0,0,0,0,0,0,0,-1,1308,953,0,0
91,71,0,0,0,0,0,0,0,0,0,-1,1315,953,0,0
98,71,0,0,0,0,0,0,0,0,0,-1,1322,953,0,0
105,71,0,0,0,0,0,0,0,0,0,-1,1329,953,0,0
112,71,0,0,0,0,0,0,0,0,0,-1,1336,953,0,0
119,71,0,0,0,0,0,0,0,0,0,-1,1343,953,0,0
126,71,0,0,0,0,0,0,0,0,0,-1,1350,953,0,0
133,71,0,0,0,0,0,0,0,0,0,-1,1357,953,0,0
140,71,0,0,0,0,0,0,0,0,0,-1,1364,953,0,0
147,71,0,0,0,0,0,0,0,0,0,-1,1371,953,0,0
154,71,0,0,0,0,0,0,0,0,0,-1,1378,953,0,0
161,71,0,0,0,0,0,0,0,0,0,-1,1385,953,0,0
168,71,0,0,0,0,0,0,0,0,0,-1,1392,953,0,0
175,71,0,0,0,0,0,0,0,0,0,-1,1399,953,0,0
182,71,0,0,0,0,0,0,0,0,0,-1,1406,953,0,0
189,71,0,0,0,0,0,0,0,0,0,-1,1413,953,0,0
196,71,0,0,0,0,0,0,0,0,0,-1,1420,953,0,0
203,71,0,0,0,0,0,0,0,0,0,-1,1427,953,0,0
210,71,0,0,0,0,0,0,0,0,0,-1,1434,953,0,0
217,71,0,0,0,0,0,0,0,0,0,-1,1441,953,0,0
224,71,0,0,0,0,0,0,0,0,0,-1,1448,953,0,0
231,71,0,0,0,0,0,0,0,0,0,-1,1455,953,0,0
238,71,0,0,0,0,0,0,0,0,0,-1,1462,953,0,0
245,71,0,0,0,0,0,0,0,0,0,-1,1469,953,0,0
252,71,0,0,0,0,0,0,0,0,0,-1,1476,953,0,0
259,71,0,0,0,0,0,0,0,0,0,-1,1483,953,0,0
266,71,0,0,0,0,0,0,0,0,0,-1,1490,953,0,0
273,71,0,0,0,0,0,0,0,0,0,-1,1497,953,0,0
280,71,0,0,0,0,0,0,0,0,0,-1,1504,953,0,0
287,71,0,0,0,0,0,0,0,0,0,-1,1511,953,0,0
294,71,0,0,0,0,0,0,0,0,0,-1,1518,953,0,0
301,71,0,0,0,0,0,0,0,0,0,-1,1525,953,0,0
308,71,0,0,0,0,0,0,0,0,0,-1,1532,953,0,0
315,71,0,0,0,0,0,0,0,0,0,-1,1539,953,0,0
322,71,0,0,0,0,0,0,0,0,0,-1,1546,953,0,0
329,71,0,0,0,0,0,0,0,0,0,-1,1553,953,0,0
336,71,0,0,0,0,0,0,0,0,0,-1,1560,953,0,0
343,71,0,0,0,0,0,0,0,0,0,-1,1567,953,0,0
350,71,0,0,0,0,0,0,0,0,0,-1,1574,953,0,0
357,71,0,0,0,0,0,0,0,0,0,-1,1581,953,0,0
364,71,0,0,0,0,0,0,0,0,0,-1,1588,953,0,0
371,71,0,0,0,0,0,0,0,0,0,-1,1595,953,0,0
378,71,0,0,0,0,0,0,0,0,0,-1,1602,953,0,0
385,71,0,0,0,0,0,0,0,0,0,-1,1609,953,0,0
392,71,0,0,0,0,0,0,0,0,0,-1,1616,953,0,0
399,71,0,0,0,0,0,0,0,0,0,-1,1623,953,0,0
406,71,0,0,0,0,0,0,0,0,0,-1,1630,953,0,0
413,71,0,0,0,0,0,0,0,0,0,-1,1637,953,0,0
420,71,0,0,0,0,0,0,0,0,0,-1,1644,953,0,0
427,71,0,0,0,0,0,0,0,0,0,-1,1651,953,0,0
434,71,0,0,0,0,0,0,0,0,0,-1,1658,953,0,0
441,71,0,0,0,0,0,0,0,0,0,-1,1665,953,0,0
448,71,0,0,0,0,0,0,0,0,0,-1,1672,953,0,0
455,71,0,0,0,0,0,0,0,0,0,-1,1679,953,0,0
462,71,0,0,0,0,0,0,0,0,0,-1,1686,953,0,0
469,71,0,0,0,0,0,0,0,0,0,-1,1693,953,0,0
476,71,0,0,0,0,0,0,0,0,0,-1,1700,953,0,0
483,71,0,0,0,0,0,0,0,0,0,-1,1707,953,0,0
490,71,0,0,0,0,0,0,0,0,0,-1,1714,953,0,0
497,71,0,0,0,0,0,0,0,0,0,-1,1721,953,0,0
504,71,0,0,0,0,0,0,0,0,0,-1,1728,953,0,0
511,71,0,0,0,0,0,0,0,0,0,-1,1735,953,0,0
518,71,0,0,0,0,0,0,0,0,0,-1,1742,953,0,0
525,71,0,0,0,0,0,0,0,0,0,-1,1749,953,0,0
532,71,0,0,0,0,0,0,0,0,0,-1,1756,953,0,0
539,71,0,0,0,0,0,0,0,0,0,-1,1763,953,0,0
546,71,0,0,0,0,0,0,0,0,0,-1,1770,953,0,0
553,71,0,0,0,0,0,0,0,0,0,-1,1777,953,0,0
560,71,0,0,0,0,0,0,0,0,0,-1,1784,953,0,0
567,71,0,0,0,0,0,0,0,0,0,-1,1791,953,0,0
574,71,0,0,0,0,0,0,0,0,0,-1,1798,953,0,0
581,71,0,0,0,0,0,0,0,0,0,-1,1805,953,0,0
588,71,0,0,0,0,0,0,0,0,0,-1,1812,953,0,0
595,71,0,0,0,0,0,0,0,0,0,-1,1819,953,0,0
602,71,0,0,0,0,0,0,0,0,0,-1,1826,953,0,0
609,71,0,0,0,0,0,0,0,0,0,-1,1833,953,0,0
616,71,0,0,0,0,0,0,0,0,0,-1,1840,953,0,0
623,71,0,0,0,0,0,0,0,0,0,-1,1847,953,0,0
630,71,0,0,0,0,0,0,0,0,0,-1,1854,953,0,0
637,71,0.0115967,-0.142212,-0.00350415,0.000689045,0.00212701,0.00157907,-0.00439417,1.1745,0.00357403,0.0396556,1861,953,0.0116444,0.142186
644,71,-0.0993652,-0.178894,-0.00250209,0.000362199,0.00156766,0.0010534,-0.00319329,1.15553,0.00255348,0.0393091,1868,953,-0.0993125,0.178896
651,71,-0.0231934,-0.1922,-0.00177273,0.000168047,0.00104594,0.000624416,-0.0022291,1.15937,0.00173214,0.0354078,1875,953,-0.0231553,0.192226
658,71,-0.0389404,-0.111572,-0.00135555,3.80111e-05,0.000656844,0.000298804,-0.00161634,1.19284,0.00118974,0.0324982,1882,953,-0.0389619,0.111561
665,71,-0.020874,-0.181519,-0.00110133,-3.43537e-05,0.000356803,7.39669e-05,-0.00120965,1.27605,0.000832184,0.0331413,1889,953,-0.0208584,0.181548
672,71,-0.041748,-0.209412,-0.000928147,-5.56216e-05,0.000148065,-3.11802e-05,-0.000952588,1.4072,0.000624925,0.0359212,1896,953,-0.0417229,0.209436
679,71,-0.157593,-0.0946655,-0.000798047,-4.1073e-05,2.11358e-05,-4.04833e-05,-0.000798637,1.5429,0.000519456,0.036571,1903,953,-0.157612,0.0946382
686,71,-0.158081,-0.0948486,-0.000651399,-9.10773e-06,-7.67717e-05,-5.88479e-08,-0.000660448,-1.45347,0.000440279,0.0332187,1910,953,-0.158083,0.0948723
693,71,-0.0517578,-0.13623,-0.000464762,-1.12991e-05,-6.08973e-05,-3.26335e-06,-0.000472797,-1.4396,0.000314116,0.0283301,1917,953,-0.0517491,0.136232
700,71,-0.0541992,-0.0621338,-0.0003427,1.22414e-05,-7.15885e-05,2.61362e-05,-0.000356595,-1.37909,0.000246904,0.0216495,1924,953,-0.0541717,0.0621109
707,71,-0.0793457,-0.0742188,-0.000309516,4.67156e-05,-0.000137348,9.35212e-05,-0.000356321,-1.24236,0.000274092,0.0138183,1931,953,-0.0793311,0.074212
714,71,-0.106201,-0.0570679,-0.000266967,8.18936e-05,-0.000124078,0.000121522,-0.000306596,-1.26165,0.000254756,0.0134582,1938,953,-0.106197,0.0570436
721,71,-0.0946045,-0.0544434,-0.000257803,2.98858e-05,-9.27482e-05,5.71946e-05,-0.000285112,-1.28445,0.00021173,0.0129591,1945,953,-0.0945748,0.0544311
728,71,-0.0797119,-0.0422974,-0.000106997,-0.000111841,-0.000235555,0.000126148,-0.000344986,-0.780256,0.000281621,0.0149121,1952,953,-0.0797436,0.0423246
735,71,-0.0860596,-0.0488892,6.31201e-05,-0.000388632,-0.000678016,0.000551894,-0.000877407,-0.624608,0.00083231,0.00909288,1959,953,-0.086027,0.0488661
742,71,-0.0668945,-0.0574951,-9.52343e-05,-0.000365486,-0.00144331,0.00121926,-0.00167998,-0.738723,0.0016809,0.00997317,1966,953,-0.0668616,0.0575209
749,71,-0.041626,-0.039856,-0.000655019,-0.000118801,-0.00200692,0.00163784,-0.00241166,-0.851801,0.00235217,0.013401,1973,953,-0.041584,0.0398482
756,71,-0.0467529,-0.0411987,-0.00139966,0.000452478,-0.00238242,0.00208249,-0.00302966,-0.970765,0.00296834,0.0137195,1980,953,-0.0467316,0.0411853
763,71,-0.0574951,-0.0455322,-0.00214762,0.000691604,-0.00292779,0.0025258,-0.00398181,-1.01114,0.00378839,0.0124614,1987,953,-0.057477,0.0455311
770,71,-0.0427246,-0.0410767,-0.0032024,0.00143226,-0.00358474,0.00338346,-0.0051536,-1.07233,0.00496407,0.0146807,1994,953,-0.042729,0.0410512
777,71,-0.00439453,-0.0222778,-0.00458534,0.00259972,-0.00411384,0.00446886,-0.00645448,-1.14433,0.00634123,0.0330665,2001,953,-0.00437451,0.0222546
784,71,0.0413818,-0.298218,-0.00631002,0.0043196,-0.00433846,0.00586551,-0.00785593,-1.2285,0.00794981,0.039802,2008,953,0.041364,0.298226
791,71,-0.0625,-0.625427,-0.00836334,0.00670671,-0.00404954,0.00772594,-0.00938257,-1.32423,0.00989303,0.0399314,2015,953,-0.0625269,0.625417
798,71,-0.230103,-0.74115,-0.010678,0.00989096,-0.0029525,0.0103064,-0.0110934,-1.43101,0.012358,0.040779,2022,953,-0.230135,0.741155
805,71,-0.343384,-0.619263,-0.013189,0.0140315,-0.000585832,0.0140441,-0.0132016,-1.54929,0.0157329,0.0412007,2029,953,-0.343433,0.619261
812,71,0,0,0,0,0,0,0,0,0,-1,2036,953,0,0
-700,64,0,0,0,0,0,0,0,0,0,-1,524,960,0,0
-693,64,0,0,0,0,0,0,0,0,0,-1,531,960,0,0
-686,64,0.961975,0.182129,0,0,0,0,0,0,0,-1,538,960,0.962003,-0.182109
-679,64,1.38745,0.655029,0,0,0,0,0,0,0,-1,545,960,1.38744,-0.655008
-672,64,0.508789,0.366272,0,0,0,0,0,0,0,-1,552,960,0.50881,-0.366283
-665,64,0.483459,0.321899,0.00994954,0.027621,-0.000666256,0.0276461,0.00992445,-1.53317,0.0161717,0.0475546,559,960,0.483463,-0.321906
-658,64,-0.554016,0.112671,0.00590707,0.0204851,-0.00150229,0.0206383,0.00575387,-1.46917,0.0122981,0.0434803,566,960,-0.554039,-0.112681
-651,64,-0.137695,0.287048,0.00331597,0.0147537,-0.00192929,0.0150703,0.0029993,-1.40811,0.00921134,0.0405279,573,960,-0.137685,-0.287035
-644,64,-0.0195923,-0.000183105,0.00174928,0.0103035,-0.00203286,0.010762,0.00129076,-1.34895,0.00678547,0.0294545,580,960,-0.0195938,0.000196395
-637,64,-0.067688,-0.0291748,0.00047753,0.00696278,-0.00177743,0.00741798,2.23347e-05,-1.32009,0.00493789,0.0142579,587,960,-0.0676865,0.0291773
-630,64,-0.0883789,-0.0193481,-0.000242382,0.00422742,-0.00170187,0.00480164,-0.000816599,-1.24539,0.00350514,0.0121962,594,960,-0.0883753,0.0193269
-623,64,-0.0944824,-0.0376587,-0.000722239,0.00169996,-0.00174956,0.0026167,-0.00163898,-1.08815,0.00247854,0.0122038,601,960,-0.0945091,0.0376517
-616,64,-0.0964355,-0.0491333,-0.000563779,0.000711906,-0.00127191,0.00149695,-0.00134882,-1.01782,0.00164374,0.0144353,608,960,-0.0964461,0.0491443
-609,64,-0.0974731,-0.0427856,0.000553081,0.000618715,-0.000697237,0.00128391,-0.000112112,-0.808914,0.00089565,0.0138285,615,960,-0.0974452,0.0428107
-602,64,-0.0914307,-0.0541992,0.000601154,0.000380261,-0.00043943,0.000943805,3.76101e-05,-0.662279,0.000617049,0.0151671,622,960,-0.0914014,0.0541808
-595,64,-0.0811157,-0.0777588,0.000375625,0.000155167,-0.000251956,0.00054041,-9.61771e-06,-0.579196,0.000363521,0.0149489,629,960,-0.0810911,0.077745
-588,64,-0.0791016,-0.0663452,0.00050343,0.000229901,-0.000194429,0.000604378,0.000128953,-0.478891,0.000367554,0.0185715,636,960,-0.0791091,0.066337
-581,64,-0.0749512,0.00256348,0.000513589,0.000325785,-0.000287307,0.00072195,0.000117424,-0.627453,0.000447326,0.0242495,643,960,-0.0749331,-0.00259107
-574,64,-0.0656738,0.0336304,0.000472126,0.000405921,-0.000378805,0.000819272,5.87752e-05,-0.741815,0.000527682,0.0279805,650,960,-0.0656531,-0.0336235
-567,64,-0.0700684,-0.0446777,0.000636947,0.000480973,-0.000513993,0.00107884,3.90846e-05,-0.710108,0.000706556,0.0237739,657,960,-0.0700816,0.0446808
-560,64,-0.0586548,-0.0863647,0.00067309,0.000577523,-0.000681532,0.00130851,-5.78985e-05,-0.750399,0.000892267,0.0328219,664,960,-0.0586541,0.0863621
-553,64,-0.0111694,-0.251831,0.000680569,0.000657445,-0.00087657,0.00154565,-0.00020764,-0.778804,0.00110616,0.0361841,671,960,-0.0111779,0.251834
-546,64,-0.0375977,-0.31604,0.000669471,0.000717137,-0.00108153,0.0017751,-0.000388492,-0.796414,0.00133192,0.0358847,678,960,-0.0375812,0.316033
-539,64,-0.072998,-0.286499,0.000621954,0.000752189,-0.00128587,0.00197459,-0.000600446,-0.810697,0.00155566,0.0372411,685,960,-0.0729731,0.286469
-532,64,-0.189209,-0.175659,0.000545949,0.000746446,-0.00141381,0.00206356,-0.000771164,-0.820792,0.00169238,0.0381104,692,960,-0.1892,0.175649
-525,64,-0.322083,-0.0794678,0.000442293,0.000677558,-0.00141936,0.00198415,-0.000864299,-0.826742,0.00168639,0.0368077,699,960,-0.322076,0.0794935
-518,64,0,0,0,0,0,0,0,0,0,-1,706,960,0,0
-511,64,0,0,0,0,0,0,0,0,0,-1,713,960,0,0
-504,64,0,0,0,0,0,0,0,0,0,-1,720,960,0,0
-497,64,0,0,0,0,0,0,0,0,0,-1,727,960,0,0
-490,64,0,0,0,0,0,0,0,0,0,-1,734,960,0,0
-483,64,0,0,0,0,0,0,0,0,0,-1,741,960,0,0
-476,64,0,0,0,0,0,0,0,0,0,-1,748,960,0,0
-469,64,0,0,0,0,0,0,0,0,0,-1,755,960,0,0
-462,64,0,0,0,0,0,0,0,0,0,-1,762,960,0,0
-455,64,0,0,0,0,0,0,0,0,0,-1,769,960,0,0
-448,64,0,0,0,0,0,0,0,0,0,-1,776,960,0,0
-441,64,0,0,0,0,0,0,0,0,0,-1,783,960,0,0
-434,64,0,0,0,0,0,0,0,0,0,-1,790,960,0,0
-427,64,0,0,0,0,0,0,0,0,0,-1,797,960,0,0
-420,64,0,0,0,0,0,0,0,0,0,-1,804,960,0,0
-413,64,0,0,0,0,0,0,0,0,0,-1,811,960,0,0
-406,64,0,0,0,0,0,0,0,0,0,-1,818,960,0,0
-399,64,0,0,0,0,0,0,0,0,0,-1,825,960,0,0
-392,64,0,0,0,0,0,0,0,0,0,-1,832,960,0,0
-385,64,0,0,0,0,0,0,0,0,0,-1,839,960,0,0
-378,64,0,0,0,0,0,0,0,0,0,-1,846,960,0,0
-371,64,0,0,0,0,0,0,0,0,0,-1,853,960,0,0
-364,64,0,0,0,0,0,0,0,0,0,-1,860,960,0,0
-357,64,0,0,0,0,0,0,0,0,0,-1,867,960,0,0
-350,64,0,0,0,0,0,0,0,0,0,-1,874,960,0,0
-343,64,0,0,0,0,0,0,0,0,0,-1,881,960,0,0
-336,64,0,0,0,0,0,0,0,0,0,-1,888,960,0,0
-329,64,0,0,0,0,0,0,0,0,0,-1,895,960,0,0
-322,64,0,0,0,0,0,0,0,0,0,-1,902,960,0,0
-315,64,0,0,0,0,0,0,0,0,0,-1,909,960,0,0
-308,64,0,0,0,0,0,0,0,0,0,-1,916,960,0,0
-301,64,0,0,0,0,0,0,0,0,0,-1,923,960,0,0
-294,64,0,0,0,0,0,0,0,0,0,-1,930,960,0,0
-287,64,0,0,0,0,0,0,0,0,0,-1,937,960,0,0
-280,64,0,0,0,0,0,0,0,0,0,-1,944,960,0,0
-273,64,0,0,0,0,0,0,0,0,0,-1,951,960,0,0
-266,64,0,0,0,0,0,0,0,0,0,-1,958,960,0,0
-259,64,0,0,0,0,0,0,0,0,0,-1,965,960,0,0
-252,64,0,0,0,0,0,0,0,0,0,-1,972,960,0,0
-245,64,0,0,0,0,0,0,0,0,0,-1,979,960,0,0
-238,64,0,0,0,0,0,0,0,0,0,-1,986,960,0,0
-231,64,0,0,0,0,0,0,0,0,0,-1,993,960,0,0
-224,64,0,0,0,0,0,0,0,0,0,-1,1000,960,0,0
-217,64,0,0,0,0,0,0,0,0,0,-1,1007,960,0,0
-210,64,0,0,0,0,0,0,0,0,0,-1,1014,960,0,0
-203,64,0,0,0,0,0,0,0,0,0,-1,1021,960,0,0
-196,64,0,0,0,0,0,0,0,0,0,-1,1028,960,0,0
-189,64,0,0,0,0,0,0,0,0,0,-1,1035,960,0,0
-182,64,0,0,0,0,0,0,0,0,0,-1,1042,960,0,0
-175,64,0,0,0,0,0,0,0,0,0,-1,1049,960,0,0
-168,64,0,0,0,0,0,0,0,0,0,-1,1056,960,0,0
-161,64,0,0,0,0,0,0,0,0,0,-1,1063,960,0,0
-154,64,0,0,0,0,0,0,0,0,0,-1,1070,960,0,0
-147,64,0,0,0,0,0,0,0,0,0,-1,1077,960,0,0
-140,64,0,0,0,0,0,0,0,0,0,-1,1084,960,0,0
-133,64,0,0,0,0,0,0,0,0,0,-1,1091,960,0,0
-126,64,0,0,0,0,0,0,0,0,0,-1,1098,960,0,0
-119,64,0,0,0,0,0,0,0,0,0,-1,1105,960,0,0
-112,64,0,0,0,0,0,0,0,0,0,-1,1112,960,0,0
-105,64,0,0,0,0,0,0,0,0,0,-1,1119,960,0,0
-98,64,0,0,0,0,0,0,0,0,0,-1,1126,960,0,0
-91,64,0,0,0,0,0,0,0,0,0,-1,1133,960,0,0
-84,64,0,0,0,0,0,0,0,0,0,-1,1140,960,0,0
-77,64,0,0,0,0,0,0,0,0,0,-1,1147,960,0,0
-70,64,0,0,0,0,0,0,0,0,0,-1,1154,960,0,0
-63,64,0,0,0,0,0,0,0,0,0,-1,1161,960,0,0
-56,64,0,0,0,0,0,0,0,0,0,-1,1168,960,0,0
-49,64,0,0,0,0,0,0,0,0,0,-1,1175,960,0,0
-42,64,0,0,0,0,0,0,0,0,0,-1,1182,960,0,0
-35,64,0,0,0,0,0,0,0,0,0,-1,1189,960,0,0
-28,64,0,0,0,0,0,0,0,0,0,-1,1196,960,0,0
-21,64,0,0,0,0,0,0,0,0,0,-1,1203,960,0,0
-14,64,0,0,0,0,0,0,0,0,0,-1,1210,960,0,0
-7,64,0,0,0,0,0,0,0,0,0,-1,1217,960,0,0
0,64,0,0,0,0,0,0,0,0,0,-1,1224,960,0,0
7,64,0,0,0,0,0,0,0,0,0,-1,1231,960,0,0
14,64,0,0,0,0,0,0,0,0,0,-1,1238,960,0,0
21,64,0,0,0,0,0,0,0,0,0,-1,1245,960,0,0
28,64,0,0,0,0,0,0,0,0,0,-1,1252,960,0,0
35,64,0,0,0,0,0,0,0,0,0,-1,1259,960,0,0
42,64,0,0,0,0,0,0,0,0,0,-1,1266,960,0,0
49,64,0,0,0,0,0,0,0,0,0,-1,1273,960,0,0
56,64,0,0,0,0,0,0,0,0,0,-1,1280,960,0,0
63,64,0,0,0,0,0,0,0,0,0,-1,1287,960,0,0
70,64,0,0,0,0,0,0,0,0,0,-1,1294,960,0,0
77,64,0,0,0,0,0,0,0,0,0,-1,1301,960,0,0
84,64,0,0,0,0,0,0,0,0,0,-1,1308,960,0,0
91,64,0,0,0,0,0,0,0,0,0,-1,1315,960,0,0
98,64,0,0,0,0,0,0,0,0,0,-1,1322,960,0,0
105,64,0,0,0,0,0,0,0,0,0,-1,1329,960,0,0
112,64,0,0,0,0,0,0,0,0,0,-1,1336,960,0,0
119,64,0,0,0,0,0,0,0,0,0,-1,1343,960,0,0
126,64,0,0,0,0,0,0,0,0,0,-1,1350,960,0,0
133,64,0,0,0,0,0,0,0,0,0,-1,1357,960,0,0
140,64,0,0,0,0,0,0,0,0,0,-1,1364,960,0,0
147,64,0,0,0,0,0,0,0,0,0,-1,1371,960,0,0
154,64,0,0,0,0,0,0,0,0,0,-1,1378,960,0,0
161,64,0,0,0,0,0,0,0,0,0,-1,1385,960,0,0
168,64,0,0,0,0,0,0,0,0,0,-1,1392,960,0,0
175,64,0,0,0,0,0,0,0,0,0,-1,1399,960,0,0
182,64,0,0,0,0,0,0,0,0,0,-1,1406,960,0,0
189,64,0,0,0,0,0,0,0,0,0,-1,1413,960,0,0
196,64,0,0,0,0,0,0,0,0,0,-1,1420,960,0,0
203,64,0,0,0,0,0,0,0,0,0,-1,1427,960,0,0
210,64,0,0,0,0,0,0,0,0,0,-1,1434,960,0,0
217,64,0,0,0,0,0,0,0,0,0,-1,1441,960,0,0
224,64,0,0,0,0,0,0,0,0,0,-1,1448,960,0,0
231,64,0,0,0,0,0,0,0,0,0,-1,1455,960,0,0
238,64,0,0,0,0,0,0,0,0,0,-1,1462,960,0,0
245,64,0,0,0,0,0,0,0,0,0,-1,1469,960,0,0
252,64,0,0,0,0,0,0,0,0,0,-1,1476,960,0,0
259,64,0,0,0,0,0,0,0,0,0,-1,1483,960,0,0
266,64,0,0,0,0,0,0,0,0,0,-1,1490,960,0,0
273,64,0,0,0,0,0,0,0,0,0,-1,1497,960,0,0
280,64,0,0,0,0,0,0,0,0,0,-1,1504,960,0,0
287,64,0,0,0,0,0,0,0,0,0,-1,1511,960,0,0
294,64,0,0,0,0,0,0,0,0,0,-1,1518,960,0,0
301,64,0,0,0,0,0,0,0,0,0,-1,1525,960,0,0
308,64,0,0,0,0,0,0,0,0,0,-1,1532,960,0,0
315,64,0,0,0,0,0,0,0,0,0,-1,1539,960,0,0
322,64,0,0,0,0,0,0,0,0,0,-1,1546,960,0,0
329,64,0,0,0,0,0,0,0,0,0,-1,1553,960,0,0
336,64,0,0,0,0,0,0,0,0,0,-1,1560,960,0,0
343,64,0,0,0,0,0,0,0,0,0,-1,1567,960,0,0
350,64,0,0,0,0,0,0,0,0,0,-1,1574,960,0,0
357,64,0,0,0,0,0,0,0,0,0,-1,1581,960,0,0
364,64,0,0,0,0,0,0,0,0,0,-1,1588,960,0,0
371,64,0,0,0,0,0,0,0,0,0,-1,1595,960,0,0
378,64,0,0,0,0,0,0,0,0,0,-1,1602,960,0,0
385,64,0,0,0,0,0,0,0,0,0,-1,1609,960,0,0
392,64,0,0,0,0,0,0,0,0,0,-1,1616,960,0,0
399,64,0,0,0,0,0,0,0,0,0,-1,1623,960,0,0
406,64,0,0,0,0,0,0,0,0,0,-1,1630,960,0,0
413,64,0,0,0,0,0,0,0,0,0,-1,1637,960,0,0
420,64,0,0,0,0,0,0,0,0,0,-1,1644,960,0,0
427,64,0,0,0,0,0,0,0,0,0,-1,1651,960,0,0
434,64,0,0,0,0,0,0,0,0,0,-1,1658,960,0,0
441,64,0,0,0,0,0,0,0,0,0,-1,1665,960,0,0
448,64,0,0,0,0,0,0,0,0,0,-1,1672,960,0,0
455,64,0,0,0,0,0,0,0,0,0,-1,1679,960,0,0
462,64,0,0,0,0,0,0,0,0,0,-1,1686,960,0,0
469,64,0,0,0,0,0,0,0,0,0,-1,1693,960,0,0
476,64,0,0,0,0,0,0,0,0,0,-1,1700,960,0,0
483,64,0,0,0,0,0,0,0,0,0,-1,1707,960,0,0
490,64,0,0,0,0,0,0,0,0,0,-1,1714,960,0,0
497,64,0,0,0,0,0,0,0,0,0,-1,1721,960,0,0
504,64,0,0,0,0,0,0,0,0,0,-1,1728,960,0,0
511,64,0,0,0,0,0,0,0,0,0,-1,1735,960,0,0
518,64,0,0,0,0,0,0,0,0,0,-1,1742,960,0,0
525,64,0,0,0,0,0,0,0,0,0,-1,1749,960,0,0
532,64,0,0,0,0,0,0,0,0,0,-1,1756,960,0,0
539,64,0,0,0,0,0,0,0,0,0,-1,1763,960,0,0
546,64,0,0,0,0,0,0,0,0,0,-1,1770,960,0,0
553,64,0,0,0,0,0,0,0,0,0,-1,1777,960,0,0
560,64,0,0,0,0,0,0,0,0,0,-1,1784,960,0,0
567,64,0,0,0,0,0,0,0,0,0,-1,1791,960,0,0
574,64,0,0,0,0,0,0,0,0,0,-1,1798,960,0,0
581,64,0,0,0,0,0,0,0,0,0,-1,1805,960,0,0
588,64,0,0,0,0,0,0,0,0,0,-1,1812,960,0,0
595,64,0,0,0,0,0,0,0,0,0,-1,1819,960,0,0
602,64,0,0,0,0,0,0,0,0,0,-1,1826,960,0,0
609,64,0,0,0,0,0,0,0,0,0,-1,1833,960,0,0
616,64,0,0,0,0,0,0,0,0,0,-1,1840,960,0,0
623,64,0,0,0,0,0,0,0,0,0,-1,1847,960,0,0
630,64,0,0,0,0,0,0,0,0,0,-1,1854,960,0,0
637,64,0,0,0,0,0,0,0,0,0,-1,1861,960,0,0
644,64,-0.00549316,-0.202881,-0.00238299,0.000322123,0.00199424,0.00137921,-0.00344008,1.08338,0.00286597,0.0380501,1868,960,-0.00544962,0.2029
651,64,-0.0447998,-0.145935,-0.00170926,4.24774e-05,0.00138456,0.000804943,-0.00247173,1.06742,0.00197169,0.0342419,1875,960,-0.0448587,0.145956
658,64,-0.0847168,-0.0266113,-0.00133226,-0.000131043,0.000916782,0.00036435,-0.00182765,1.07538,0.0013563,0.0317843,1882,960,-0.0847213,0.0266024
665,64,-0.0670166,-0.137756,-0.00109376,-0.000219613,0.00054215,3.97039e-05,-0.00135308,1.12465,0.000915575,0.0336808,1889,960,-0.0670326,0.137783
672,64,-0.0466309,-0.0888062,-0.000925765,-0.000238902,0.000267385,-0.000147086,-0.00101758,1.24003,0.000635062,0.0369697,1896,960,-0.0466542,0.0887943
679,64,-0.0946045,-0.000976563,-0.000797706,-0.000210716,9.13972e-05,-0.000196814,-0.000811608,1.41985,0.000488857,0.0374005,1903,960,-0.0945704,0.000965436
686,64,-0.186035,-0.158875,-0.000664172,-0.000164762,-2.91652e-05,-0.000163065,-0.00066587,-1.51266,0.000400773,0.0327879,1910,960,-0.185983,0.158844
693,64,-0.0803223,-0.140564,-0.000483318,-0.000141948,-3.66196e-05,-0.000138064,-0.000487202,-1.46513,0.000289952,0.0286063,1917,960,-0.0802723,0.140588
700,64,-0.0609131,-0.0899048,-0.00033585,-8.78474e-05,-7.30247e-05,-6.79427e-05,-0.000355755,-1.30469,0.000218079,0.0220815,1924,960,-0.0609416,0.089883
707,64,-0.0611572,-0.0943604,-0.00029017,-2.92967e-05,-0.000149884,3.89597e-05,-0.000358427,-1.14347,0.00025294,0.0146415,1931,960,-0.0610971,0.0943636
714,64,-0.0672607,-0.0927734,-0.000261062,2.78427e-05,-0.000123759,7.36079e-05,-0.000306828,-1.2166,0.000232996,0.0125474,1938,960,-0.0672671,0.0927629
721,64,-0.0839844,-0.0565796,-0.000244673,4.69238e-05,-3.40329e-05,5.08432e-05,-0.000248593,-1.45614,0.00018502,0.0123843,1945,960,-0.0839307,0.0565581
728,64,-0.079834,-0.0616455,-7.85277e-05,-3.46302e-05,-9.74534e-05,4.33156e-05,-0.000156473,-0.896161,0.000121359,0.0127834,1952,960,-0.0798398,0.0616457
735,64,-0.0727539,-0.0526123,0.000108146,-0.000255058,-0.000397431,0.0003635,-0.000510412,-0.571093,0.000506924,0.0128029,1959,960,-0.0727511,0.0526309
742,64,-0.060791,-0.0361328,-6.00411e-05,-0.000228705,-0.000931466,0.000790903,-0.00107965,-0.740253,0.00108424,0.0114715,1966,960,-0.060739,0.0361557
749,64,-0.0769043,-0.0293579,-0.000738302,-1.16568e-05,-0.00126139,0.000937696,-0.00168765,-0.925619,0.00153622,0.0112616,1973,960,-0.0769216,0.0293656
756,64,-0.0695801,-0.0426636,-0.00164137,0.000546175,-0.00135025,0.00119008,-0.00228527,-1.12582,0.00203944,0.0126195,1980,960,-0.0695796,0.042668
763,64,-0.0561523,-0.0552368,-0.00256152,0.000718294,-0.00147998,0.00128738,-0.0031306,-1.2037,0.00262368,0.0124062,1987,960,-0.0561448,0.0552313
770,64,-0.0574951,-0.0487671,-0.00386737,0.00131988,-0.00166429,0.00180793,-0.00435543,-1.28554,0.00365833,0.0131903,1994,960,-0.0574401,0.0487513
777,64,-0.12561,0.0391235,-0.00560473,0.00224205,-0.00164467,0.00257283,-0.0059355,-1.37232,0.00503855,0.0293698,2001,960,-0.125656,-0.0391418
784,64,-0.055542,-0.0462036,0,0,0,0,0,0,0,-1,2008,960,-0.0555162,0.0461829
791,64,0.106934,-0.415833,0,0,0,0,0,0,0,-1,2015,960,0.106926,0.415854
798,64,0.0192871,-0.419556,0,0,0,0,0,0,0,-1,2022,960,0.0192301,0.41955
805,64,-0.142578,-0.409424,0,0,0,0,0,0,0,-1,2029,960,-0.14262,0.409454
812,64,0,0,0,0,0,0,0,0,0,-1,2036,960,0,0
-700,57,0,0,0,0,0,0,0,0,0,-1,524,967,0,0
-693,57,0,0,0,0,0,0,0,0,0,-1,531,967,0,0
-686,57,0.656128,-0.015686,0.0450123,0.0557265,-0.00031529,0.0557357,0.045003,-1.5414,0.0341465,0.0431498,538,967,0.656142,0.015689
-679,57,1.58344,0.531311,0.0306513,0.0440747,-0.00146498,0.0442327,0.0304933,-1.46335,0.0261413,0.0459552,545,967,1.58345,-0.531308
-672,57,1.04987,0.184937,0,0,0,0,0,0,0,-1,552,967,1.04989,-0.184962
-665,57,0.850281,0.279663,0.0126711,0.0256943,-0.00262656,0.0262041,0.0121613,-1.37909,0.0151419,0.049858,559,967,0.850261,-0.279664
-658,57,-0.379639,0.120911,0.00747493,0.0188608,-0.00276748,0.0194979,0.0068379,-1.34455,0.0114232,0.0471184,566,967,-0.379663,-0.120939
-651,57,-0.137146,0.121399,0.00405767,0.0134445,-0.00269594,0.0141637,0.00333848,-1.3101,0.00854974,0.043981,573,967,-0.13717,-0.121399
-644,57,-0.0162964,-0.0691528,0.00194367,0.00929252,-0.00245927,0.0100396,0.00119663,-1.27589,0.00633197,0.0298663,580,967,-0.0162799,0.0691242
-637,57,-0.0690308,-0.036438,0.000304923,0.00620404,-0.00197107,0.00680202,-0.000293053,-1.27624,0.00463545,0.0148443,587,967,-0.0690271,0.03645
-630,57,-0.0886841,-0.0326538,-0.000674879,0.00354196,-0.0016913,0.00413649,-0.00126941,-1.23277,0.00326414,0.0123128,594,967,-0.0886894,0.0326527
-623,57,-0.0812378,-0.0348511,-0.001251,0.00135652,-0.00164218,0.00214955,-0.00204404,-1.12091,0.00242142,0.011697,601,967,-0.0812316,0.0348246
-616,57,-0.0877686,-0.0505981,-0.00100321,0.000576041,-0.00118091,0.001207,-0.00163417,-1.08009,0.00164652,0.0126715,608,967,-0.0877615,0.0505929
-609,57,-0.0980835,-0.0470581,0.000180156,0.000505574,-0.00065353,0.00101634,-0.000330615,-0.907403,0.000810564,0.0132239,615,967,-0.0980842,0.0470811
-602,57,-0.0997925,-0.0383301,0.000371139,0.000265523,-0.000410332,0.000732047,-9.53852e-05,-0.721402,0.000522735,0.0119995,622,967,-0.0997938,0.0383152
-595,57,-0.097229,-0.0537109,0.000316876,0.000102416,-0.000240833,0.000473272,-5.3981e-05,-0.575951,0.000334961,0.011571,629,967,-0.0972442,0.053732
-588,57,-0.0941772,-0.0667114,0.000563318,0.000150846,-0.000212985,0.000653554,6.06091e-05,-0.400748,0.000416971,0.0139963,636,967,-0.0941664,0.0666829
-581,57,-0.0773315,-0.00738525,0.000648548,0.000222631,-0.000317052,0.000817523,5.36558e-05,-0.489664,0.000528039,0.0197561,643,967,-0.0773042,0.00737052
-574,57,-0.0856934,0.0328369,0.000646341,0.000267209,-0.000407592,0.000906293,7.25669e-06,-0.567733,0.000601791,0.0261952,650,967,-0.0856708,-0.032859
-567,57,-0.0886841,-0.0552979,0.000848458,0.000295448,-0.000544308,0.00118247,-3.85599e-05,-0.550387,0.000801473,0.031917,657,967,-0.0886828,0.0552763
-560,57,0.0133667,-0.170715,0.000950271,0.000324397,-0.000731463,0.00143293,-0.000158259,-0.583268,0.00101217,0.0391191,664,967,0.013364,0.17073
-553,57,0.0205078,-0.306458,0.00102099,0.000332023,-0.000947766,0.00168493,-0.000331922,-0.611087,0.00124872,0.0371978,671,967,0.0205197,0.306464
-546,57,0.0466309,-0.366699,0.00106737,0.000301472,-0.00118954,0.00193408,-0.000565239,-0.629671,0.00151341,0.0362494,678,967,0.0466467,0.366726
-539,57,0.0120239,-0.369629,0.00104613,0.000222114,-0.00144797,0.00213957,-0.000871321,-0.64679,0.001789,0.0388322,685,967,0.0120038,0.369649
-532,57,-0.149841,-0.0744629,0.000949496,7.01656e-05,-0.001647,0.0022145,-0.00119484,-0.654965,0.00199752,0.0376063,692,967,-0.149841,0.0744678
-525,57,-0.208801,-0.0270996,0.000759196,-0.000188298,-0.00174966,0.00209811,-0.00152721,-0.653186,0.00210172,0.0359109,699,967,-0.208795,0.027099
-518,57,0,0,0,0,0,0,0,0,0,-1,706,967,0,0
-511,57,0,0,0,0,0,0,0,0,0,-1,713,967,0,0
-504,57,0,0,0,0,0,0,0,0,0,-1,720,967,0,0
-497,57,0,0,0,0,0,0,0,0,0,-1,727,967,0,0
-490,57,0,0,0,0,0,0,0,0,0,-1,734,967,0,0
-483,57,0,0,0,0,0,0,0,0,0,-1,741,967,0,0
-476,57,0,0,0,0,0,0,0,0,0,-1,748,967,0,0
-469,57,0,0,0,0,0,0,0,0,0,-1,755,967,0,0
-462,57,0,0,0,0,0,0,0,0,0,-1,762,967,0,0
-455,57,0,0,0,0,0,0,0,0,0,-1,769,967,0,0
-448,57,0,0,0,0,0,0,0,0,0,-1,776,967,0,0
-441,57,0,0,0,0,0,0,0,0,0,-1,783,967,0,0
-434,57,0,0,0,0,0,0,0,0,0,-1,790,967,0,0
-427,57,0,0,0,0,0,0,0,0,0,-1,797,967,0,0
-420,57,0,0,0,0,0,0,0,0,0,-1,804,967,0,0
-413,57,0,0,0,0,0,0,0,0,0,-1,811,967,0,0
-406,57,0,0,0,0,0,0,0,0,0,-1,818,967,0,0
-399,57,0,0,0,0,0,0,0,0,0,-1,825,967,0,0
-392,57,0,0,0,0,0,0,0,0,0,-1,832,967,0,0
-385,57,0,0,0,0,0,0,0,0,0,-1,839,967,0,0
-378,57,0,0,0,0,0,0,0,0,0,-1,846,967,0,0
-371,57,0,0,0,0,0,0,0,0,0,-1,853,967,0,0
-364,57,0,0,0,0,0,0,0,0,0,-1,860,967,0,0
-357,57,0,0,0,0,0,0,0,0,0,-1,867,967,0,0
-350,57,0,0,0,0,0,0,0,0,0,-1,874,967,0,0
-343,57,0,0,0,0,0,0,0,0,0,-1,881,967,0,0
-336,57,0,0,0,0,0,0,0,0,0,-1,888,967,0,0
-329,57,0,0,0,0,0,0,0,0,0,-1,895,967,0,0
-322,57,0,0,0,0,0,0,0,0,0,-1,902,967,0,0
-315,57,0,0,0,0,0,0,0,0,0,-1,909,967,0,0
-308,57,0,0,0,0,0,0,0,0,0,-1,916,967,0,0
-301,57,0,0,0,0,0,0,0,0,0,-1,923,967,0,0
-294,57,0,0,0,0,0,0,0,0,0,-1,930,967,0,0
-287,57,0,0,0,0,0,0,0,0,0,-1,937,967,0,0
-280,57,0,0,0,0,0,0,0,0,0,-1,944,967,0,0
-273,57,0,0,0,0,0,0,0,0,0,-1,951,967,0,0
-266,57,0,0,0,0,0,0,0,0,0,-1,958,967,0,0
-259,57,0,0,0,0,0,0,0,0,0,-1,965,967,0,0
-252,57,0,0,0,0,0,0,0,0,0,-1,972,967,0,0
-245,57,0,0,0,0,0,0,0,0,0,-1,979,967,0,0
-238,57,0,0,0,0,0,0,0,0,0,-1,986,967,0,0
-231,57,0,0,0,0,0,0,0,0,0,-1,993,967,0,0
-224,57,0,0,0,0,0,0,0,0,0,-1,1000,967,0,0
-217,57,0,0,0,0,0,0,0,0,0,-1,1007,967,0,0
-210,57,0,0,0,0,0,0,0,0,0,-1,1014,967,0,0
-203,57,0,0,0,0,0,0,0,0,0,-1,1021,967,0,0
-196,57,0,0,0,0,0,0,0,0,0,-1,1028,967,0,0
-189,57,0,0,0,0,0,0,0,0,0,-1,1035,967,0,0
-182,57,0,0,0,0,0,0,0,0,0,-1,1042,967,0,0
-175,57,0,0,0,0,0,0,0,0,0,-1,1049,967,0,0
-168,57,0,0,0,0,0,0,0,0,0,-1,1056,967,0,0
-161,57,0,0,0,0,0,0,0,0,0,-1,1063,967,0,0
-154,57,0,0,0,0,0,0,0,0,0,-1,1070,967,0,0
-147,57,0,0,0,0,0,0,0,0,0,-1,1077,967,0,0
-140,57,0,0,0,0,0,0,0,0,0,-1,1084,967,0,0
-133,57,0,0,0,0,0,0,0,0,0,-1,1091,967,0,0
-126,57,0,0,0,0,0,0,0,0,0,-1,1098,967,0,0
-119,57,0,0,0,0,0,0,0,0,0,-1,1105,967,0,0
-112,57,0,0,0,0,0,0,0,0,0,-1,1112,967,0,0
-105,57,0,0,0,0,0,0,0,0,0,-1,1119,967,0,0
-98,57,0,0,0,0,0,0,0,0,0,-1,1126,967,0,0
-91,57,0,0,0,0,0,0,0,0,0,-1,1133,967,0,0
-84,57,0,0,0,0,0,0,0,0,0,-1,1140,967,0,0
-77,57,0,0,0,0,0,0,0,0,0,-1,1147,967,0,0
-70,57,0,0,0,0,0,0,0,0,0,-1,1154,967,0,0
-63,57,0,0,0,0,0,0,0,0,0,-1,1161,967,0,0
-56,57,0,0,0,0,0,0,0,0,0,-1,1168,967,0,0
-49,57,0,0,0,0,0,0,0,0,0,-1,1175,967,0,0
-42,57,0,0,0,0,0,0,0,0,0,-1,1182,967,0,0
-35,57,0,0,0,0,0,0,0,0,0,-1,1189,967,0,0
-28,57,0,0,0,0,0,0,0,0,0,-1,1196,967,0,0
-21,57,0,0,0,0,0,0,0,0,0,-1,1203,967,0,0
-14,57,0,0,0,0,0,0,0,0,0,-1,1210,967,0,0
-7,57,0,0,0,0,0,0,0,0,0,-1,1217,967,0,0
0,57,0,0,0,0,0,0,0,0,0,-1,1224,967,0,0
7,57,0,0,0,0,0,0,0,0,0,-1,1231,967,0,0
14,57,0,0,0,0,0,0,0,0,0,-1,1238,967,0,0
21,57,0,0,0,0,0,0,0,0,0,-1,1245,967,0,0
28,57,0,0,0,0,0,0,0,0,0,-1,1252,967,0,0
35,57,0,0,0,0,0,0,0,0,0,-1,1259,967,0,0
42,57,0,0,0,0,0,0,0,0,0,-1,1266,967,0,0
49,57,0,0,0,0,0,0,0,0,0,-1,1273,967,0,0
56,57,0,0,0,0,0,0,0,0,0,-1,1280,967,0,0
63,57,0,0,0,0,0,0,0,0,0,-1,1287,967,0,0
70,57,0,0,0,0,0,0,0,0,0,-1,1294,967,0,0
77,57,0,0,0,0,0,0,0,0,0,-1,1301,967,0,0
84,57,0,0,0,0,0,0,0,0,0,-1,1308,967,0,0
91,57,0,0,0,0,0,0,0,0,0,-1,1315,967,0,0
98,57,0,0,0,0,0,0,0,0,0,-1,1322,967,0,0
105,57,0,0,0,0,0,0,0,0,0,-1,1329,967,0,0
112,57,0,0,0,0,0,0,0,0,0,-1,1336,967,0,0
119,57,0,0,0,0,0,0,0,0,0,-1,1343,967,0,0
126,57,0,0,0,0,0,0,0,0,0,-1,1350,967,0,0
133,57,0,0,0,0,0,0,0,0,0,-1,1357,967,0,0
140,57,0,0,0,0,0,0,0,0,0,-1,1364,967,0,0
147,57,0,0,0,0,0,0,0,0,0,-1,1371,967,0,0
154,57,0,0,0,0,0,0,0,0,0,-1,1378,967,0,0
161,57,0,0,0,0,0,0,0,0,0,-1,1385,967,0,0
168,57,0,0,0,0,0,0,0,0,0,-1,1392,967,0,0
175,57,0,0,0,0,0,0,0,0,0,-1,1399,967,0,0
182,57,0,0,0,0,0,0,0,0,0,-1,1406,967,0,0
189,57,0,0,0,0,0,0,0,0,0,-1,1413,967,0,0
196,57,0,0,0,0,0,0,0,0,0,-1,1420,967,0,0
203,57,0,0,0,0,0,0,0,0,0,-1,1427,967,0,0
210,57,0,0,0,0,0,0,0,0,0,-1,1434,967,0,0
217,57,0,0,0,0,0,0,0,0,0,-1,1441,967,0,0
224,57,0,0,0,0,0,0,0,0,0,-1,1448,967,0,0
231,57,0,0,0,0,0,0,0,0,0,-1,1455,967,0,0
238,57,0,0,0,0,0,0,0,0,0,-1,1462,967,0,0
245,57,0,0,0,0,0,0,0,0,0,-1,1469,967,0,0
252,57,0,0,0,0,0,0,0,0,0,-1,1476,967,0,0
259,57,0,0,0,0,0,0,0,0,0,-1,1483,967,0,0
266,57,0,0,0,0,0,0,0,0,0,-1,1490,967,0,0
273,57,0,0,0,0,0,0,0,0,0,-1,1497,967,0,0
280,57,0,0,0,0,0,0,0,0,0,-1,1504,967,0,0
287,57,0,0,0,0,0,0,0,0,0,-1,1511,967,0,0
294,57,0,0,0,0,0,0,0,0,0,-1,1518,967,0,0
301,57,0,0,0,0,0,0,0,0,0,-1,1525,967,0,0
308,57,0,0,0,0,0,0,0,0,0,-1,1532,967,0,0
315,57,0,0,0,0,0,0,0,0,0,-1,1539,967,0,0
322,57,0,0,0,0,0,0,0,0,0,-1,1546,967,0,0
329,57,0,0,0,0,0,0,0,0,0,-1,1553,967,0,0
336,57,0,0,0,0,0,0,0,0,0,-1,1560,967,0,0
343,57,0,0,0,0,0,0,0,0,0,-1,1567,967,0,0
350,57,0,0,0,0,0,0,0,0,0,-1,1574,967,0,0
357,57,0,0,0,0,0,0,0,0,0,-1,1581,967,0,0
364,57,0,0,0,0,0,0,0,0,0,-1,1588,967,0,0
371,57,0,0,0,0,0,0,0,0,0,-1,1595,967,0,0
378,57,0,0,0,0,0,0,0,0,0,-1,1602,967,0,0
385,57,0,0,0,0,0,0,0,0,0,-1,1609,967,0,0
392,57,0,0,0,0,0,0,0,0,0,-1,1616,967,0,0
399,57,0,0,0,0,0,0,0,0,0,-1,1623,967,0,0
406,57,0,0,0,0,0,0,0,0,0,-1,1630,967,0,0
413,57,0,0,0,0,0,0,0,0,0,-1,1637,967,0,0
420,57,0,0,0,0,0,0,0,0,0,-1,1644,967,0,0
427,57,0,0,0,0,0,0,0,0,0,-1,1651,967,0,0
434,57,0,0,0,0,0,0,0,0,0,-1,1658,967,0,0
441,57,0,0,0,0,0,0,0,0,0,-1,1665,967,0,0
448,57,0,0,0,0,0,0,0,0,0,-1,1672,967,0,0
455,57,0,0,0,0,0,0,0,0,0,-1,1679,967,0,0
462,57,0,0,0,0,0,0,0,0,0,-1,1686,967,0,0
469,57,0,0,0,0,0,0,0,0,0,-1,1693,967,0,0
476,57,0,0,0,0,0,0,0,0,0,-1,1700,967,0,0
483,57,0,0,0,0,0,0,0,0,0,-1,1707,967,0,0
490,57,0,0,0,0,0,0,0,0,0,-1,1714,967,0,0
497,57,0,0,0,0,0,0,0,0,0,-1,1721,967,0,0
504,57,0,0,0,0,0,0,0,0,0,-1,1728,967,0,0
511,57,0,0,0,0,0,0,0,0,0,-1,1735,967,0,0
518,57,0,0,0,0,0,0,0,0,0,-1,1742,967,0,0
525,57,0,0,0,0,0,0,0,0,0,-1,1749,967,0,0
532,57,0,0,0,0,0,0,0,0,0,-1,1756,967,0,0
539,57,0,0,0,0,0,0,0,0,0,-1,1763,967,0,0
546,57,0,0,0,0,0,0,0,0,0,-1,1770,967,0,0
553,57,0,0,0,0,0,0,0,0,0,-1,1777,967,0,0
560,57,0,0,0,0,0,0,0,0,0,-1,1784,967,0,0
567,57,0,0,0,0,0,0,0,0,0,-1,1791,967,0,0
574,57,0,0,0,0,0,0,0,0,0,-1,1798,967,0,0
581,57,0,0,0,0,0,0,0,0,0,-1,1805,967,0,0
588,57,0,0,0,0,0,0,0,0,0,-1,1812,967,0,0
595,57,0,0,0,0,0,0,0,0,0,-1,1819,967,0,0
602,57,0,0,0,0,0,0,0,0,0,-1,1826,967,0,0
609,57,0,0,0,0,0,0,0,0,0,-1,1833,967,0,0
616,57,0,0,0,0,0,0,0,0,0,-1,1840,967,0,0
623,57,0,0,0,0,0,0,0,0,0,-1,1847,967,0,0
630,57,0,0,0,0,0,0,0,0,0,-1,1854,967,0,0
637,57,0,0,0,0,0,0,0,0,0,-1,1861,967,0,0
644,57,0.0355225,-0.0922852,-0.00236897,0.000442179,0.00237059,0.00179257,-0.00371936,1.053,0.00324648,0.0363139,1868,967,0.0355544,0.0922827
651,57,-0.0211182,-0.115662,-0.00167598,0.000121929,0.0016638,0.0011141,-0.00266815,1.03308,0.00224429,0.0298943,1875,967,-0.0211631,0.115671
658,57,-0.0875244,0.000976563,-0.00129677,-8.76024e-05,0.00110669,0.000568878,-0.00195325,1.0354,0.00152752,0.0289338,1882,967,-0.0875816,-0.000962649
665,57,-0.0517578,0.0151978,-0.00105164,-0.000204511,0.000651856,0.000149306,-0.00140546,1.07351,0.000990499,0.0343278,1889,967,-0.0517149,-0.0152127
672,57,-0.0130615,0.071167,-0.000879364,-0.000246343,0.000310141,-0.000119721,-0.00100599,1.18318,0.000634526,0.0389696,1896,967,-0.013092,-0.0711687
679,57,-0.11438,0.0526733,-0.000753508,-0.000235624,8.74892e-05,-0.000221244,-0.000767889,1.40788,0.000456417,0.0385259,1903,967,-0.114345,-0.0526645
686,57,-0.146973,-0.0935669,-0.000632409,-0.000202444,-5.25798e-05,-0.000196107,-0.000638745,-1.45086,0.000377825,0.0335541,1910,967,-0.146989,0.0935444
693,57,-0.0338135,-0.144897,-0.000466658,-0.000181032,-8.01002e-05,-0.000160102,-0.000487588,-1.31522,0.000286985,0.0269946,1917,967,-0.0337626,0.144897
700,57,-0.0775146,-0.100647,-0.000307441,-0.000122538,-0.000132109,-5.37437e-05,-0.000376235,-1.0907,0.000234967,0.0188001,1924,967,-0.0775722,0.100642
707,57,-0.0651855,-0.0764771,-0.000261486,-6.95899e-05,-0.000208408,6.38961e-05,-0.000394972,-1.00113,0.000286994,0.0158839,1931,967,-0.065186,0.0764923
714,57,-0.0692139,-0.0795288,-0.000251403,-1.33028e-05,-0.000173822,7.83297e-05,-0.000343035,-1.08566,0.000258782,0.0146862,1938,967,-0.0692189,0.0794999
721,57,-0.0710449,-0.0709839,-0.000224837,5.79898e-05,-3.67612e-05,6.26898e-05,-0.000229537,-1.44363,0.000177648,0.0135081,1945,967,-0.0710091,0.0709659
728,57,-0.0671387,-0.0733032,-4.68152e-05,2.37417e-05,-2.00718e-05,2.9052e-05,-5.21255e-05,-1.31216,4.74947e-05,0.0171067,1952,967,-0.067141,0.073313
735,57,-0.0845947,-0.0439453,0.000167868,-0.00014584,-0.000165326,0.000238908,-0.000216881,-0.405844,0.000263252,0.0174674,1959,967,-0.0846409,0.0439159
742,57,-0.0644531,-0.034729,3.10009e-05,-0.000119774,-0.000459086,0.000420848,-0.000509621,-0.704018,0.000538021,0.0141574,1966,967,-0.0644976,0.0347151
749,57,-0.088501,-0.0178223,-0.000709257,5.39727e-05,-0.00056503,0.000354185,-0.00100947,-1.08241,0.000817045,0.0120634,1973,967,-0.0885082,0.017814
756,57,-0.0930176,-0.0360107,-0.00168024,0.000736813,-0.000405745,0.000803106,-0.00174653,-1.40884,0.00150525,0.00966127,1980,967,-0.0930288,0.0360118
763,57,-0.0682373,-0.0567627,-0.00264895,0.00113083,-0.000183394,0.00113971,-0.00265783,-1.52243,0.00225015,0.0104083,1987,967,-0.0682508,0.0567605
770,57,-0.0715332,-0.0765381,-0.00405474,0.00186342,3.56284e-05,0.00186364,-0.00405495,1.56478,0.0034943,0.0104341,1994,967,-0.0715793,0.0765208
777,57,-0.141724,-0.0129395,-0.00593943,0.00294816,0.000505798,0.00297685,-0.00596813,1.51413,0.00525976,0.0266671,2001,967,-0.141706,0.012913
784,57,-0.0966797,-0.156677,-0.00836094,0.00447461,0.00136902,0.004619,-0.00850533,1.46571,0.00768727,0.0481172,2008,967,-0.0966815,0.156656
791,57,-0.124634,-0.264587,0,0,0,0,0,0,0,-1,2015,967,-0.124605,0.264563
798,57,-0.622437,0.328491,-0.0148689,0.0091398,0.0049262,0.0101113,-0.0158404,1.37609,0.0151044,0.046288,2022,967,-0.622385,-0.328474
805,57,-1.28296,0.982361,-0.018876,0.0124015,0.00808348,0.0143671,-0.0208416,1.33226,0.020442,0.0447216,2029,967,-1.28296,-0.982376
812,57,0,0,0,0,0,0,0,0,0,-1,2036,967,0,0
-700,50,0,0,0,0,0,0,0,0,0,-1,524,974,0,0
-693,50,-3.25922,-0.948425,0,0,0,0,0,0,0,-1,531,974,-3.25919,0.948455
-686,50,0.133728,-0.00744629,0.0523329,0.0546521,-0.00529644,0.0589144,0.0480706,-0.893167,0.0362071,0.040775,538,974,0.133743,0.00747653
-679,50,-1.11346,-1.17114,0.0363325,0.0427178,-0.00524164,0.0456626,0.0333878,-1.05894,0.0272865,0.0442784,545,974,-1.11345,1.17113
-672,50,-0.752014,-1.56134,0.0243801,0.0326194,-0.0049833,0.0349654,0.0220341,-1.1308,0.020414,0.0452961,552,974,-0.752015,1.56134
-665,50,1.08484,0.302979,0,0,0,0,0,0,0,-1,559,974,1.08486,-0.302987
-658,50,-0.458862,-0.153503,0.00935726,0.0175506,-0.00410777,0.0192554,0.00765251,-1.17742,0.0111948,0.049041,566,974,-0.458884,0.153518
-651,50,-0.0581665,-0.0603638,0.00514849,0.0122974,-0.00356605,0.0137721,0.00367385,-1.17869,0.00823464,0.0421979,573,974,-0.0581798,0.0603517
-644,50,-0.0709229,-0.148376,0.00246788,0.00833166,-0.00299566,0.00959142,0.00120811,-1.17272,0.00603204,0.0254444,580,974,-0.0709012,0.148392
-637,50,-0.0900879,-0.0682373,0.000397449,0.00541823,-0.00229937,0.00631213,-0.000496447,-1.20002,0.00438295,0.0133451,587,974,-0.0900646,0.0682542
-630,50,-0.0714722,-0.0408325,-0.000887932,0.0027746,-0.00178415,0.00350004,-0.00161337,-1.18461,0.00301847,0.0100688,594,974,-0.0714864,0.0408457
-623,50,-0.0726929,-0.0441284,-0.00160781,0.000876516,-0.00158576,0.0016487,-0.00237999,-1.11764,0.00233871,0.0102886,601,974,-0.0726721,0.0441555
-616,50,-0.0726929,-0.0529785,-0.00131549,0.000306821,-0.00114796,0.000901291,-0.00190996,-1.09297,0.00165753,0.00974557,608,974,-0.0726945,0.0529554
-609,50,-0.0839844,-0.0407715,-0.000136456,0.000256151,-0.00065792,0.000746428,-0.000626734,-0.930378,0.000793799,0.0100225,615,974,-0.0839905,0.0407711
-602,50,-0.0879517,-0.0487061,0.000159322,3.68406e-05,-0.000415386,0.000517957,-0.000321795,-0.71221,0.00048922,0.0122645,622,974,-0.087938,0.0487213
-595,50,-0.0924683,-0.0390625,0.000256718,-4.63334e-05,-0.000244393,0.000392747,-0.000182363,-0.507897,0.000339365,0.0114274,629,974,-0.0924827,0.0390446
-588,50,-0.0836182,-0.0304565,0.000615797,-6.52901e-06,-0.000226867,0.00068972,-8.04521e-05,-0.314994,0.000488842,0.0109352,636,974,-0.0836156,0.0304533
-581,50,-0.0725708,-0.0212402,0.000790343,4.09727e-05,-0.00032617,0.000912423,-8.11076e-05,-0.358143,0.000637041,0.0162035,643,974,-0.0725596,0.021238
-574,50,-0.0657959,-0.0349121,0.000842463,5.73197e-05,-0.000407405,0.00101566,-0.000115875,-0.401969,0.00071885,0.02393,650,974,-0.0658092,0.0349028
-567,50,-0.0509033,-0.0910034,0.0010928,6.33842e-05,-0.000534693,0.00132026,-0.000164081,-0.402221,0.000939657,0.034209,657,974,-0.0509267,0.0910298
-560,50,0.0413208,-0.145813,0.00127164,7.43566e-05,-0.000715258,0.00160572,-0.000259721,-0.436961,0.00116673,0.0383887,664,974,0.0413513,0.145803
-553,50,-0.0314941,-0.0786743,0.00142868,7.65065e-05,-0.000927801,0.0019006,-0.000395408,-0.470534,0.00141737,0.0358917,671,974,-0.0314738,0.0786938
-546,50,-0.106018,0.0835571,0.00155531,5.89302e-05,-0.00117103,0.00219676,-0.000582522,-0.501127,0.00169243,0.0354235,678,974,-0.106029,-0.0835326
-539,50,0.0203857,-0.0202637,0.00157908,1.4254e-05,-0.00143435,0.00243054,-0.000837203,-0.535714,0.00195996,0.0391541,685,974,0.0203855,0.0202388
-532,50,0.0618286,-0.0929565,0.00146773,-7.5101e-05,-0.00163519,0.00250433,-0.00111171,-0.564999,0.00213871,0.0390408,692,974,0.0618394,0.0929531
-525,50,-0.0231934,-0.0809937,0.00116386,-0.000231682,-0.00173406,0.00233527,-0.0014031,-0.594116,0.0021806,0.0380626,699,974,-0.0232149,0.0809913
-518,50,0,0,0,0,0,0,0,0,0,-1,706,974,0,0
-511,50,0,0,0,0,0,0,0,0,0,-1,713,974,0,0
-504,50,0,0,0,0,0,0,0,0,0,-1,720,974,0,0
-497,50,0,0,0,0,0,0,0,0,0,-1,727,974,0,0
-490,50,0,0,0,0,0,0,0,0,0,-1,734,974,0,0
-483,50,0,0,0,0,0,0,0,0,0,-1,741,974,0,0
-476,50,0,0,0,0,0,0,0,0,0,-1,748,974,0,0
-469,50,0,0,0,0,0,0,0,0,0,-1,755,974,0,0
-462,50,0,0,0,0,0,0,0,0,0,-1,762,974,0,0
-455,50,0,0,0,0,0,0,0,0,0,-1,769,974,0,0
-448,50,0,0,0,0,0,0,0,0,0,-1,776,974,0,0
-441,50,0,0,0,0,0,0,0,0,0,-1,783,974,0,0
-434,50,0,0,0,0,0,0,0,0,0,-1,790,974,0,0
-427,50,0,0,0,0,0,0,0,0,0,-1,797,974,0,0
-420,50,0,0,0,0,0,0,0,0,0,-1,804,974,0,0
-413,50,0,0,0,0,0,0,0,0,0,-1,811,974,0,0
-406,50,0,0,0,0,0,0,0,0,0,-1,818,974,0,0
-399,50,0,0,0,0,0,0,0,0,0,-1,825,974,0,0
-392,50,0,0,0,0,0,0,0,0,0,-1,832,974,0,0
-385,50,0,0,0,0,0,0,0,0,0,-1,839,974,0,0
-378,50,0,0,0,0,0,0,0,0,0,-1,846,974,0,0
-371,50,0,0,0,0,0,0,0,0,0,-1,853,974,0,0
-364,50,0,0,0,0,0,0,0,0,0,-1,860,974,0,0
-357,50,0,0,0,0,0,0,0,0,0,-1,867,974,0,0
-350,50,0,0,0,0,0,0,0,0,0,-1,874,974,0,0
-343,50,0,0,0,0,0,0,0,0,0,-1,881,974,0,0
-336,50,0,0,0,0,0,0,0,0,0,-1,888,974,0,0
-329,50,0,0,0,0,0,0,0,0,0,-1,895,974,0,0
-322,50,0,0,0,0,0,0,0,0,0,-1,902,974,0,0
-315,50,0,0,0,0,0,0,0,0,0,-1,909,974,0,0
-308,50,0,0,0,0,0,0,0,0,0,-1,916,974,0,0
-301,50,0,0,0,0,0,0,0,0,0,-1,923,974,0,0
-294,50,0,0,0,0,0,0,0,0,0,-1,930,974,0,0
-287,50,0,0,0,0,0,0,0,0,0,-1,937,974,0,0
-280,50,0,0,0,0,0,0,0,0,0,-1,944,974,0,0
-273,50,0,0,0,0,0,0,0,0,0,-1,951,974,0,0
-266,50,0,0,0,0,0,0,0,0,0,-1,958,974,0,0
-259,50,0,0,0,0,0,0,0,0,0,-1,965,974,0,0
-252,50,0,0,0,0,0,0,0,0,0,-1,972,974,0,0
-245,50,0,0,0,0,0,0,0,0,0,-1,979,974,0,0
-238,50,0,0,0,0,0,0,0,0,0,-1,986,974,0,0
-231,50,0,0,0,0,0,0,0,0,0,-1,993,974,0,0
-224,50,0,0,0,0,0,0,0,0,0,-1,1000,974,0,0
-217,50,0,0,0,0,0,0,0,0,0,-1,1007,974,0,0
-210,50,0,0,0,0,0,0,0,0,0,-1,1014,974,0,0
-203,50,0,0,0,0,0,0,0,0,0,-1,1021,974,0,0
-196,50,0,0,0,0,0,0,0,0,0,-1,1028,974,0,0
-189,50,0,0,0,0,0,0,0,0,0,-1,1035,974,0,0
-182,50,0,0,0,0,0,0,0,0,0,-1,1042,974,0,0
-175,50,0,0,0,0,0,0,0,0,0,-1,1049,974,0,0
-168,50,0,0,0,0,0,0,0,0,0,-1,1056,974,0,0
-161,50,0,0,0,0,0,0,0,0,0,-1,1063,974,0,0
-154,50,0,0,0,0,0,0,0,0,0,-1,1070,974,0,0
-147,50,0,0,0,0,0,0,0,0,0,-1,1077,974,0,0
-140,50,0,0,0,0,0,0,0,0,0,-1,1084,974,0,0
-133,50,0,0,0,0,0,0,0,0,0,-1,1091,974,0,0
-126,50,0,0,0,0,0,0,0,0,0,-1,1098,974,0,0
-119,50,0,0,0,0,0,0,0,0,0,-1,1105,974,0,0
-112,50,0,0,0,0,0,0,0,0,0,-1,1112,974,0,0
-105,50,0,0,0,0,0,0,0,0,0,-1,1119,974,0,0
-98,50,0,0,0,0,0,0,0,0,0,-1,1126,974,0,0
-91,50,0,0,0,0,0,0,0,0,0,-1,1133,974,0,0
-84,50,0,0,0,0,0,0,0,0,0,-1,1140,974,0,0
-77,50,0,0,0,0,0,0,0,0,0,-1,1147,974,0,0
-70,50,0,0,0,0,0,0,0,0,0,-1,1154,974,0,0
-63,50,0,0,0,0,0,0,0,0,0,-1,1161,974,0,0
-56,50,0,0,0,0,0,0,0,0,0,-1,1168,974,0,0
-49,50,0,0,0,0,0,0,0,0,0,-1,1175,974,0,0
-42,50,0,0,0,0,0,0,0,0,0,-1,1182,974,0,0
-35,50,0,0,0,0,0,0,0,0,0,-1,1189,974,0,0
-28,50,0,0,0,0,0,0,0,0,0,-1,1196,974,0,0
-21,50,0,0,0,0,0,0,0,0,0,-1,1203,974,0,0
-14,50,0,0,0,0,0,0,0,0,0,-1,1210,974,0,0
-7,50,0,0,0,0,0,0,0,0,0,-1,1217,974,0,0
0,50,0,0,0,0,0,0,0,0,0,-1,1224,974,0,0
7,50,0,0,0,0,0,0,0,0,0,-1,1231,974,0,0
14,50,0,0,0,0,0,0,0,0,0,-1,1238,974,0,0
21,50,0,0,0,0,0,0,0,0,0,-1,1245,974,0,0
28,50,0,0,0,0,0,0,0,0,0,-1,1252,974,0,0
35,50,0,0,0,0,0,0,0,0,0,-1,1259,974,0,0
42,50,0,0,0,0,0,0,0,0,0,-1,1266,974,0,0
49,50,0,0,0,0,0,0,0,0,0,-1,1273,974,0,0
56,50,0,0,0,0,0,0,0,0,0,-1,1280,974,0,0
63,50,0,0,0,0,0,0,0,0,0,-1,1287,974,0,0
70,50,0,0,0,0,0,0,0,0,0,-1,1294,974,0,0
77,50,0,0,0,0,0,0,0,0,0,-1,1301,974,0,0
84,50,0,0,0,0,0,0,0,0,0,-1,1308,974,0,0
91,50,0,0,0,0,0,0,0,0,0,-1,1315,974,0,0
98,50,0,0,0,0,0,0,0,0,0,-1,1322,974,0,0
105,50,0,0,0,0,0,0,0,0,0,-1,1329,974,0,0
112,50,0,0,0,0,0,0,0,0,0,-1,1336,974,0,0
119,50,0,0,0,0,0,0,0,0,0,-1,1343,974,0,0
126,50,0,0,0,0,0,0,0,0,0,-1,1350,974,0,0
133,50,0,0,0,0,0,0,0,0,0,-1,1357,974,0,0
140,50,0,0,0,0,0,0,0,0,0,-1,1364,974,0,0
147,50,0,0,0,0,0,0,0,0,0,-1,1371,974,0,0
154,50,0,0,0,0,0,0,0,0,0,-1,1378,974,0,0
161,50,0,0,0,0,0,0,0,0,0,-1,1385,974,0,0
168,50,0,0,0,0,0,0,0,0,0,-1,1392,974,0,0
175,50,0,0,0,0,0,0,0,0,0,-1,1399,974,0,0
182,50,0,0,0,0,0,0,0,0,0,-1,1406,974,0,0
189,50,0,0,0,0,0,0,0,0,0,-1,1413,974,0,0
196,50,0,0,0,0,0,0,0,0,0,-1,1420,974,0,0
203,50,0,0,0,0,0,0,0,0,0,-1,1427,974,0,0
210,50,0,0,0,0,0,0,0,0,0,-1,1434,974,0,0
217,50,0,0,0,0,0,0,0,0,0,-1,1441,974,0,0
224,50,0,0,0,0,0,0,0,0,0,-1,1448,974,0,0
231,50,0,0,0,0,0,0,0,0,0,-1,1455,974,0,0
238,50,0,0,0,0,0,0,0,0,0,-1,1462,974,0,0
245,50,0,0,0,0,0,0,0,0,0,-1,1469,974,0,0
252,50,0,0,0,0,0,0,0,0,0,-1,1476,974,0,0
259,50,0,0,0,0,0,0,0,0,0,-1,1483,974,0,0
266,50,0,0,0,0,0,0,0,0,0,-1,1490,974,0,0
273,50,0,0,0,0,0,0,0,0,0,-1,1497,974,0,0
280,50,0,0,0,0,0,0,0,0,0,-1,1504,974,0,0
287,50,0,0,0,0,0,0,0,0,0,-1,1511,974,0,0
294,50,0,0,0,0,0,0,0,0,0,-1,1518,974,0,0
301,50,0,0,0,0,0,0,0,0,0,-1,1525,974,0,0
308,50,0,0,0,0,0,0,0,0,0,-1,1532,974,0,0
315,50,0,0,0,0,0,0,0,0,0,-1,1539,974,0,0
322,50,0,0,0,0,0,0,0,0,0,-1,1546,974,0,0
329,50,0,0,0,0,0,0,0,0,0,-1,1553,974,0,0
336,50,0,0,0,0,0,0,0,0,0,-1,1560,974,0,0
343,50,0,0,0,0,0,0,0,0,0,-1,1567,974,0,0
350,50,0,0,0,0,0,0,0,0,0,-1,1574,974,0,0
357,50,0,0,0,0,0,0,0,0,0,-1,1581,974,0,0
364,50,0,0,0,0,0,0,0,0,0,-1,1588,974,0,0
371,50,0,0,0,0,0,0,0,0,0,-1,1595,974,0,0
378,50,0,0,0,0,0,0,0,0,0,-1,1602,974,0,0
385,50,0,0,0,0,0,0,0,0,0,-1,1609,974,0,0
392,50,0,0,0,0,0,0,0,0,0,-1,1616,974,0,0
399,50,0,0,0,0,0,0,0,0,0,-1,1623,974,0,0
406,50,0,0,0,0,0,0,0,0,0,-1,1630,974,0,0
413,50,0,0,0,0,0,0,0,0,0,-1,1637,974,0,0
420,50,0,0,0,0,0,0,0,0,0,-1,1644,974,0,0
427,50,0,0,0,0,0,0,0,0,0,-1,1651,974,0,0
434,50,0,0,0,0,0,0,0,0,0,-1,1658,974,0,0
441,50,0,0,0,0,0,0,0,0,0,-1,1665,974,0,0
448,50,0,0,0,0,0,0,0,0,0,-1,1672,974,0,0
455,50,0,0,0,0,0,0,0,0,0,-1,1679,974,0,0
462,50,0,0,0,0,0,0,0,0,0,-1,1686,974,0,0
469,50,0,0,0,0,0,0,0,0,0,-1,1693,974,0,0
476,50,0,0,0,0,0,0,0,0,0,-1,1700,974,0,0
483,50,0,0,0,0,0,0,0,0,0,-1,1707,974,0,0
490,50,0,0,0,0,0,0,0,0,0,-1,1714,974,0,0
497,50,0,0,0,0,0,0,0,0,0,-1,1721,974,0,0
504,50,0,0,0,0,0,0,0,0,0,-1,1728,974,0,0
511,50,0,0,0,0,0,0,0,0,0,-1,1735,974,0,0
518,50,0,0,0,0,0,0,0,0,0,-1,1742,974,0,0
525,50,0,0,0,0,0,0,0,0,0,-1,1749,974,0,0
532,50,0,0,0,0,0,0,0,0,0,-1,1756,974,0,0
539,50,0,0,0,0,0,0,0,0,0,-1,1763,974,0,0
546,50,0,0,0,0,0,0,0,0,0,-1,1770,974,0,0
553,50,0,0,0,0,0,0,0,0,0,-1,1777,974,0,0
560,50,0,0,0,0,0,0,0,0,0,-1,1784,974,0,0
567,50,0,0,0,0,0,0,0,0,0,-1,1791,974,0,0
574,50,0,0,0,0,0,0,0,0,0,-1,1798,974,0,0
581,50,0,0,0,0,0,0,0,0,0,-1,1805,974,0,0
588,50,0,0,0,0,0,0,0,0,0,-1,1812,974,0,0
595,50,0,0,0,0,0,0,0,0,0,-1,1819,974,0,0
602,50,0,0,0,0,0,0,0,0,0,-1,1826,974,0,0
609,50,0,0,0,0,0,0,0,0,0,-1,1833,974,0,0
616,50,0,0,0,0,0,0,0,0,0,-1,1840,974,0,0
623,50,0,0,0,0,0,0,0,0,0,-1,1847,974,0,0
630,50,0,0,0,0,0,0,0,0,0,-1,1854,974,0,0
637,50,0,0,0,0,0,0,0,0,0,-1,1861,974,0,0
644,50,0.0195313,-0.114502,-0.00222523,5.61314e-06,0.00277513,0.00188109,-0.00410071,0.976485,0.00353196,0.0347333,1868,974,0.0195032,0.114477
651,50,-0.107666,-0.0502319,-0.00150756,-0.000139403,0.00192912,0.00122334,-0.0028703,0.955785,0.00242638,0.0296283,1875,974,-0.107703,0.0502445
658,50,-0.109009,0.0513306,-0.00114254,-0.000231455,0.00126189,0.000654599,-0.00202859,0.958618,0.00161542,0.0334246,1882,974,-0.109055,-0.0513604
665,50,0.0286865,-0.000671387,-0.000916889,-0.000270379,0.000720417,0.000195982,-0.00138325,0.996287,0.000993956,0.0373517,1889,974,0.0286855,0.000695188
672,50,0.116089,-0.0206909,-0.000767545,-0.000264365,0.000314726,-0.000113028,-0.000918882,1.12258,0.000578604,0.0401643,1896,974,0.116068,0.0206627
679,50,-0.0782471,0.038208,-0.000669482,-0.000229438,5.19492e-05,-0.000223388,-0.000675532,1.45487,0.000397403,0.0397716,1903,974,-0.0782353,-0.0381818
686,50,-0.0594482,-0.057373,-0.000578719,-0.000182983,-0.000101944,-0.000158266,-0.000603436,-1.33293,0.000361282,0.0362571,1910,974,-0.0594576,0.0573495
693,50,0.0289307,-0.175537,-0.00044318,-0.00015271,-0.00014342,-9.38313e-05,-0.000502059,-1.18124,0.000308227,0.0314115,1917,974,0.0289225,0.175535
700,50,-0.0917969,-0.083374,-0.000287076,-9.0215e-05,-0.000203218,3.7156e-05,-0.000414447,-1.01093,0.000289479,0.0171279,1924,974,-0.0917981,0.0833704
707,50,-0.0683594,-0.0664673,-0.000258113,-4.26664e-05,-0.000273603,0.000143656,-0.000444435,-0.972939,0.000354028,0.0162381,1931,974,-0.0683767,0.0664842
714,50,-0.0695801,-0.0714722,-0.000277606,-3.28309e-06,-0.000236535,0.000132982,-0.000413871,-1.04814,0.000329317,0.0145389,1938,974,-0.0696048,0.0714795
721,50,-0.071167,-0.0808716,-0.000249991,6.79245e-05,-6.87211e-05,8.21434e-05,-0.00026421,-1.36677,0.000208974,0.0135028,1945,974,-0.0711937,0.0808609
728,50,-0.0776367,-0.0719604,-6.08143e-05,5.27783e-05,3.06412e-05,6.05165e-05,-6.85526e-05,1.32343,7.45662e-05,0.0165418,1952,974,-0.0775769,0.0719525
735,50,-0.0823975,-0.0432129,0.000173129,-8.35473e-05,8.96473e-06,0.000173442,-8.386e-05,0.0348695,0.000151525,0.0155738,1959,974,-0.0823524,0.0432177
742,50,-0.0639648,-0.0441284,7.93983e-05,-5.71209e-05,-0.000111117,0.000141547,-0.000119269,-0.509962,0.000150765,0.0137819,1966,974,-0.0639109,0.0441294
749,50,-0.0863037,-0.0609741,-0.000682944,5.88326e-05,-4.89637e-05,6.20506e-05,-0.000686162,-1.50517,0.000479465,0.0148829,1973,974,-0.0862768,0.0609893
756,50,-0.0802002,-0.0519409,-0.00167102,0.000808206,0.000294514,0.000842712,-0.00170553,1.45417,0.00149907,0.0110151,1980,974,-0.0802276,0.0519444
763,50,-0.0759277,-0.0430298,-0.00263836,0.00133099,0.00079958,0.00148601,-0.00279337,1.3793,0.00250884,0.0105862,1987,974,-0.075895,0.0430586
770,50,-0.0767822,-0.0548706,-0.0040682,0.00211566,0.00132838,0.00238894,-0.00434148,1.3679,0.00393994,0.00991962,1994,974,-0.0768148,0.0548518
777,50,-0.0758057,-0.0930786,-0.00599445,0.00325571,0.00214508,0.00372893,-0.00646768,1.35366,0.00595738,0.0218569,2001,974,-0.0757748,0.0930604
784,50,-0.072998,-0.0807495,-0.00848874,0.00483507,0.00337731,0.00564225,-0.00929592,1.3362,0.00871012,0.040917,2008,974,-0.0730511,0.08074
791,50,-0.0706787,-0.0366821,0,0,0,0,0,0,0,-1,2015,974,-0.0707149,0.0366956
798,50,-0.445923,0.092041,-0.0152849,0.00956954,0.00764547,0.011733,-0.0174484,1.29503,0.0169553,0.043326,2022,974,-0.445922,-0.0920181
805,50,-1.06555,0.62323,-0.0195257,0.0128208,0.01105,0.0162352,-0.0229401,1.27111,0.0227281,0.0411898,2029,974,-1.06559,-0.623202
812,50,0,0,0,0,0,0,0,0,0,-1,2036,974,0,0
-700,43,0,0,0,0,0,0,0,0,0,-1,524,981,0,0
-693,43,-2.73895,-1.10242,0.0789529,0.0678583,-0.0110849,0.085801,0.0610102,-0.553398,0.0509872,0.0441743,531,981,-2.73897,1.10242
-686,43,-1.54889,-0.977356,0.0573968,0.0539469,-0.00977357,0.0655965,0.0457472,-0.698051,0.0388436,0.0425813,538,981,-1.54887,0.97736
-679,43,-1.18542,-1.3653,0.0407412,0.0419587,-0.00847911,0.0498509,0.032849,-0.821235,0.0292622,0.0426133,545,981,-1.18542,1.3653
-672,43,-0.847168,-1.74969,0.0279801,0.0318919,-0.00724812,0.0374434,0.0224286,-0.917184,0.0217587,0.0484041,552,981,-0.847167,1.7497
-665,43,0.166077,-0.694885,0,0,0,0,0,0,0,-1,559,981,0.166104,0.694883
-658,43,0.0409546,-0.444946,0.0113991,0.0170175,-0.00505859,0.0199946,0.00842205,-1.03886,0.0115916,0.0470262,566,981,0.0409328,0.444962
-651,43,-0.0343628,-0.0734253,0.00655646,0.0118867,-0.00411848,0.0141272,0.004316,-1.07257,0.00835948,0.0380503,573,981,-0.0343737,0.07344
-644,43,-0.104492,-0.0836792,0.00337016,0.00803579,-0.00328284,0.00973027,0.00167569,-1.0943,0.00600671,0.0171161,580,981,-0.104487,0.0837061
-637,43,-0.0812988,-0.0560913,0.00094167,0.00521949,-0.00242602,0.00631485,-0.000153695,-1.14669,0.00426206,0.0109468,587,981,-0.0812839,0.0560901
-630,43,-0.0634766,-0.0386963,-0.000685775,0.00249456,-0.00170589,0.00323649,-0.00142771,-1.16055,0.00275955,0.0116348,594,981,-0.0634548,0.0387196
-623,43,-0.0797119,-0.0551147,-0.00163886,0.00081582,-0.00141918,0.00146476,-0.00228781,-1.14192,0.00218385,0.0112243,601,981,-0.079716,0.0551205
-616,43,-0.0770264,-0.0539551,-0.00140779,0.00032047,-0.00106361,0.000826736,-0.00191406,-1.12654,0.00162338,0.0089291,608,981,-0.0769967,0.0539855
-609,43,-0.0662842,-0.0282593,-0.000322018,0.000229722,-0.000613044,0.000626107,-0.000718404,-0.996825,0.000776863,0.0113964,615,981,-0.0663065,0.0282545
-602,43,-0.0789795,-0.0450439,4.26216e-05,-1.75228e-05,-0.00038022,0.000393957,-0.000368858,-0.745935,0.000440491,0.0155209,622,981,-0.0789505,0.0450374
-595,43,-0.098938,-0.0639648,0.000238232,-0.000126826,-0.000227572,0.000347432,-0.000236026,-0.447396,0.0003389,0.013421,629,981,-0.0989376,0.0639389
-588,43,-0.0875244,-0.0444336,0.000664079,-0.000132511,-0.00022201,0.000721775,-0.000190206,-0.254254,0.000555547,0.0115555,636,981,-0.0875379,0.0444608
-581,43,-0.0719604,-0.0303955,0.000908102,-0.000126268,-0.000300849,0.00098924,-0.000207406,-0.263429,0.000738403,0.0166849,643,981,-0.0719594,0.0303793
-574,43,-0.0657959,-0.0524292,0.00101284,-0.000153376,-0.000363362,0.00111679,-0.000257325,-0.278633,0.000843486,0.024863,650,981,-0.0657724,0.0524257
-567,43,-0.0367432,-0.143433,0.00130059,-0.000174113,-0.00047346,0.00143951,-0.000313033,-0.285404,0.00107926,0.0342693,657,981,-0.0367568,0.143402
-560,43,-0.00140381,-0.153015,0.0015514,-0.000190185,-0.000636948,0.00175949,-0.000398272,-0.315764,0.00132584,0.0377486,664,981,-0.00142574,0.153043
-553,43,-0.147522,0.126648,0.00179008,-0.000201806,-0.000831493,0.00209155,-0.000503277,-0.347825,0.00158892,0.0365793,671,981,-0.147528,-0.126656
-546,43,-0.24292,0.30719,0.00198908,-0.000211102,-0.00105462,0.00241294,-0.000634959,-0.382148,0.00185683,0.0383557,678,981,-0.242896,-0.307214
-539,43,0.142212,-0.198486,0.00204443,-0.00022076,-0.00128831,0.00262721,-0.000803538,-0.424815,0.00207192,0.0405027,685,981,0.142213,0.198478
-532,43,0.322205,-0.360107,0.00189617,-0.000240676,-0.00143773,0.00261901,-0.000963509,-0.465853,0.00214071,0.041872,692,981,0.322176,0.360126
-525,43,0.262207,-0.359863,0.00144317,-0.000274981,-0.00145412,0.00227302,-0.00110483,-0.518589,0.0019887,0.0423643,699,981,0.262189,0.359861
-518,43,0,0,0,0,0,0,0,0,0,-1,706,981,0,0
-511,43,0,0,0,0,0,0,0,0,0,-1,713,981,0,0
-504,43,0,0,0,0,0,0,0,0,0,-1,720,981,0,0
-497,43,0,0,0,0,0,0,0,0,0,-1,727,981,0,0
-490,43,0,0,0,0,0,0,0,0,0,-1,734,981,0,0
-483,43,0,0,0,0,0,0,0,0,0,-1,741,981,0,0
-476,43,0,0,0,0,0,0,0,0,0,-1,748,981,0,0
-469,43,0,0,0,0,0,0,0,0,0,-1,755,981,0,0
-462,43,0,0,0,0,0,0,0,0,0,-1,762,981,0,0
-455,43,0,0,0,0,0,0,0,0,0,-1,769,981,0,0
-448,43,0,0,0,0,0,0,0,0,0,-1,776,981,0,0
-441,43,0,0,0,0,0,0,0,0,0,-1,783,981,0,0
-434,43,0,0,0,0,0,0,0,0,0,-1,790,981,0,0
-427,43,0,0,0,0,0,0,0,0,0,-1,797,981,0,0
-420,43,0,0,0,0,0,0,0,0,0,-1,804,981,0,0
-413,43,0,0,0,0,0,0,0,0,0,-1,811,981,0,0
-406,43,0,0,0,0,0,0,0,0,0,-1,818,981,0,0
-399,43,0,0,0,0,0,0,0,0,0,-1,825,981,0,0
-392,43,0,0,0,0,0,0,0,0,0,-1,832,981,0,0
-385,43,0,0,0,0,0,0,0,0,0,-1,839,981,0,0
-378,43,0,0,0,0,0,0,0,0,0,-1,846,981,0,0
-371,43,0,0,0,0,0,0,0,0,0,-1,853,981,0,0
-364,43,0,0,0,0,0,0,0,0,0,-1,860,981,0,0
-357,43,0,0,0,0,0,0,0,0,0,-1,867,981,0,0
-350,43,0,0,0,0,0,0,0,0,0,-1,874,981,0,0
-343,43,0,0,0,0,0,0,0,0,0,-1,881,981,0,0
-336,43,0,0,0,0,0,0,0,0,0,-1,888,981,0,0
-329,43,0,0,0,0,0,0,0,0,0,-1,895,981,0,0
-322,43,0,0,0,0,0,0,0,0,0,-1,902,981,0,0
-315,43,0,0,0,0,0,0,0,0,0,-1,909,981,0,0
-308,43,0,0,0,0,0,0,0,0,0,-1,916,981,0,0
-301,43,0,0,0,0,0,0,0,0,0,-1,923,981,0,0
-294,43,0,0,0,0,0,0,0,0,0,-1,930,981,0,0
-287,43,0,0,0,0,0,0,0,0,0,-1,937,981,0,0
-280,43,0,0,0,0,0,0,0,0,0,-1,944,981,0,0
-273,43,0,0,0,0,0,0,0,0,0,-1,951,981,0,0
-266,43,0,0,0,0,0,0,0,0,0,-1,958,981,0,0
-259,43,0,0,0,0,0,0,0,0,0,-1,965,981,0,0
-252,43,0,0,0,0,0,0,0,0,0,-1,972,981,0,0
-245,43,0,0,0,0,0,0,0,0,0,-1,979,981,0,0
-238,43,0,0,0,0,0,0,0,0,0,-1,986,981,0,0
-231,43,0,0,0,0,0,0,0,0,0,-1,993,981,0,0
-224,43,0,0,0,0,0,0,0,0,0,-1,1000,981,0,0
-217,43,0,0,0,0,0,0,0,0,0,-1,1007,981,0,0
-210,43,0,0,0,0,0,0,0,0,0,-1,1014,981,0,0
-203,43,0,0,0,0,0,0,0,0,0,-1,1021,981,0,0
-196,43,0,0,0,0,0,0,0,0,0,-1,1028,981,0,0
-189,43,0,0,0,0,0,0,0,0,0,-1,1035,981,0,0
-182,43,0,0,0,0,0,0,0,0,0,-1,1042,981,0,0
-175,43,0,0,0,0,0,0,0,0,0,-1,1049,981,0,0
-168,43,0,0,0,0,0,0,0,0,0,-1,1056,981,0,0
-161,43,0,0,0,0,0,0,0,0,0,-1,1063,981,0,0
-154,43,0,0,0,0,0,0,0,0,0,-1,1070,981,0,0
-147,43,0,0,0,0,0,0,0,0,0,-1,1077,981,0,0
-140,43,0,0,0,0,0,0,0,0,0,-1,1084,981,0,0
-133,43,0,0,0,0,0,0,0,0,0,-1,1091,981,0,0
-126,43,0,0,0,0,0,0,0,0,0,-1,1098,981,0,0
-119,43,0,0,0,0,0,0,0,0,0,-1,1105,981,0,0
-112,43,0,0,0,0,0,0,0,0,0,-1,1112,981,0,0
-105,43,0,0,0,0,0,0,0,0,0,-1,1119,981,0,0
-98,43,0,0,0,0,0,0,0,0,0,-1,1126,981,0,0
-91,43,0,0,0,0,0,0,0,0,0,-1,1133,981,0,0
-84,43,0,0,0,0,0,0,0,0,0,-1,1140,981,0,0
-77,43,0,0,0,0,0,0,0,0,0,-1,1147,981,0,0
-70,43,0,0,0,0,0,0,0,0,0,-1,1154,981,0,0
-63,43,0,0,0,0,0,0,0,0,0,-1,1161,981,0,0
-56,43,0,0,0,0,0,0,0,0,0,-1,1168,981,0,0
-49,43,0,0,0,0,0,0,0,0,0,-1,1175,981,0,0
-42,43,0,0,0,0,0,0,0,0,0,-1,1182,981,0,0
-35,43,0,0,0,0,0,0,0,0,0,-1,1189,981,0,0
-28,43,0,0,0,0,0,0,0,0,0,-1,1196,981,0,0
-21,43,0,0,0,0,0,0,0,0,0,-1,1203,981,0,0
-14,43,0,0,0,0,0,0,0,0,0,-1,1210,981,0,0
-7,43,0,0,0,0,0,0,0,0,0,-1,1217,981,0,0
0,43,0,0,0,0,0,0,0,0,0,-1,1224,981,0,0
7,43,0,0,0,0,0,0,0,0,0,-1,1231,981,0,0
14,43,0,0,0,0,0,0,0,0,0,-1,1238,981,0,0
21,43,0,0,0,0,0,0,0,0,0,-1,1245,981,0,0
28,43,0,0,0,0,0,0,0,0,0,-1,1252,981,0,0
35,43,0,0,0,0,0,0,0,0,0,-1,1259,981,0,0
42,43,0,0,0,0,0,0,0,0,0,-1,1266,981,0,0
49,43,0,0,0,0,0,0,0,0,0,-1,1273,981,0,0
56,43,0,0,0,0,0,0,0,0,0,-1,1280,981,0,0
63,43,0,0,0,0,0,0,0,0,0,-1,1287,981,0,0
70,43,0,0,0,0,0,0,0,0,0,-1,1294,981,0,0
77,43,0,0,0,0,0,0,0,0,0,-1,1301,981,0,0
84,43,0,0,0,0,0,0,0,0,0,-1,1308,981,0,0
91,43,0,0,0,0,0,0,0,0,0,-1,1315,981,0,0
98,43,0,0,0,0,0,0,0,0,0,-1,1322,981,0,0
105,43,0,0,0,0,0,0,0,0,0,-1,1329,981,0,0
112,43,0,0,0,0,0,0,0,0,0,-1,1336,981,0,0
119,43,0,0,0,0,0,0,0,0,0,-1,1343,981,0,0
126,43,0,0,0,0,0,0,0,0,0,-1,1350,981,0,0
133,43,0,0,0,0,0,0,0,0,0,-1,1357,981,0,0
140,43,0,0,0,0,0,0,0,0,0,-1,1364,981,0,0
147,43,0,0,0,0,0,0,0,0,0,-1,1371,981,0,0
154,43,0,0,0,0,0,0,0,0,0,-1,1378,981,0,0
161,43,0,0,0,0,0,0,0,0,0,-1,1385,981,0,0
168,43,0,0,0,0,0,0,0,0,0,-1,1392,981,0,0
175,43,0,0,0,0,0,0,0,0,0,-1,1399,981,0,0
182,43,0,0,0,0,0,0,0,0,0,-1,1406,981,0,0
189,43,0,0,0,0,0,0,0,0,0,-1,1413,981,0,0
196,43,0,0,0,0,0,0,0,0,0,-1,1420,981,0,0
203,43,0,0,0,0,0,0,0,0,0,-1,1427,981,0,0
210,43,0,0,0,0,0,0,0,0,0,-1,1434,981,0,0
217,43,0,0,0,0,0,0,0,0,0,-1,1441,981,0,0
224,43,0,0,0,0,0,0,0,0,0,-1,1448,981,0,0
231,43,0,0,0,0,0,0,0,0,0,-1,1455,981,0,0
238,43,0,0,0,0,0,0,0,0,0,-1,1462,981,0,0
245,43,0,0,0,0,0,0,0,0,0,-1,1469,981,0,0
252,43,0,0,0,0,0,0,0,0,0,-1,1476,981,0,0
259,43,0,0,0,0,0,0,0,0,0,-1,1483,981,0,0
266,43,0,0,0,0,0,0,0,0,0,-1,1490,981,0,0
273,43,0,0,0,0,0,0,0,0,0,-1,1497,981,0,0
280,43,0,0,0,0,0,0,0,0,0,-1,1504,981,0,0
287,43,0,0,0,0,0,0,0,0,0,-1,1511,981,0,0
294,43,0,0,0,0,0,0,0,0,0,-1,1518,981,0,0
301,43,0,0,0,0,0,0,0,0,0,-1,1525,981,0,0
308,43,0,0,0,0,0,0,0,0,0,-1,1532,981,0,0
315,43,0,0,0,0,0,0,0,0,0,-1,1539,981,0,0
322,43,0,0,0,0,0,0,0,0,0,-1,1546,981,0,0
329,43,0,0,0,0,0,0,0,0,0,-1,1553,981,0,0
336,43,0,0,0,0,0,0,0,0,0,-1,1560,981,0,0
343,43,0,0,0,0,0,0,0,0,0,-1,1567,981,0,0
350,43,0,0,0,0,0,0,0,0,0,-1,1574,981,0,0
357,43,0,0,0,0,0,0,0,0,0,-1,1581,981,0,0
364,43,0,0,0,0,0,0,0,0,0,-1,1588,981,0,0
371,43,0,0,0,0,0,0,0,0,0,-1,1595,981,0,0
378,43,0,0,0,0,0,0,0,0,0,-1,1602,981,0,0
385,43,0,0,0,0,0,0,0,0,0,-1,1609,981,0,0
392,43,0,0,0,0,0,0,0,0,0,-1,1616,981,0,0
399,43,0,0,0,0,0,0,0,0,0,-1,1623,981,0,0
406,43,0,0,0,0,0,0,0,0,0,-1,1630,981,0,0
413,43,0,0,0,0,0,0,0,0,0,-1,1637,981,0,0
420,43,0,0,0,0,0,0,0,0,0,-1,1644,981,0,0
427,43,0,0,0,0,0,0,0,0,0,-1,1651,981,0,0
434,43,0,0,0,0,0,0,0,0,0,-1,1658,981,0,0
441,43,0,0,0,0,0,0,0,0,0,-1,1665,981,0,0
448,43,0,0,0,0,0,0,0,0,0,-1,1672,981,0,0
455,43,0,0,0,0,0,0,0,0,0,-1,1679,981,0,0
462,43,0,0,0,0,0,0,0,0,0,-1,1686,981,0,0
469,43,0,0,0,0,0,0,0,0,0,-1,1693,981,0,0
476,43,0,0,0,0,0,0,0,0,0,-1,1700,981,0,0
483,43,0,0,0,0,0,0,0,0,0,-1,1707,981,0,0
490,43,0,0,0,0,0,0,0,0,0,-1,1714,981,0,0
497,43,0,0,0,0,0,0,0,0,0,-1,1721,981,0,0
504,43,0,0,0,0,0,0,0,0,0,-1,1728,981,0,0
511,43,0,0,0,0,0,0,0,0,0,-1,1735,981,0,0
518,43,0,0,0,0,0,0,0,0,0,-1,1742,981,0,0
525,43,0,0,0,0,0,0,0,0,0,-1,1749,981,0,0
532,43,0,0,0,0,0,0,0,0,0,-1,1756,981,0,0
539,43,0,0,0,0,0,0,0,0,0,-1,1763,981,0,0
546,43,0,0,0,0,0,0,0,0,0,-1,1770,981,0,0
553,43,0,0,0,0,0,0,0,0,0,-1,1777,981,0,0
560,43,0,0,0,0,0,0,0,0,0,-1,1784,981,0,0
567,43,0,0,0,0,0,0,0,0,0,-1,1791,981,0,0
574,43,0,0,0,0,0,0,0,0,0,-1,1798,981,0,0
581,43,0,0,0,0,0,0,0,0,0,-1,1805,981,0,0
588,43,0,0,0,0,0,0,0,0,0,-1,1812,981,0,0
595,43,0,0,0,0,0,0,0,0,0,-1,1819,981,0,0
602,43,0,0,0,0,0,0,0,0,0,-1,1826,981,0,0
609,43,0,0,0,0,0,0,0,0,0,-1,1833,981,0,0
616,43,0,0,0,0,0,0,0,0,0,-1,1840,981,0,0
623,43,0,0,0,0,0,0,0,0,0,-1,1847,981,0,0
630,43,0,0,0,0,0,0,0,0,0,-1,1854,981,0,0
637,43,0,0,0,0,0,0,0,0,0,-1,1861,981,0,0
644,43,-0.0587158,-0.0863037,-0.00180724,-0.000451207,0.00303547,0.00198105,-0.00423949,0.895276,0.00366949,0.0358547,1868,981,-0.0586709,0.0862837
651,43,-0.175293,0.000427246,-0.00114557,-0.000390949,0.00205717,0.00132322,-0.00285975,0.876097,0.00246875,0.0342706,1875,981,-0.175266,-0.000453285
658,43,-0.0644531,0.0693359,-0.000853977,-0.000348221,0.00130835,0.000731466,-0.00193366,0.880861,0.00159004,0.0355802,1882,981,-0.0644509,-0.0693655
665,43,0.0944824,-0.043396,-0.000695743,-0.000305614,0.000716216,0.000241626,-0.00124298,0.918351,0.000919838,0.0379784,1889,981,0.0944656,0.0433695
672,43,0.133667,-0.0960083,-0.000603985,-0.000258503,0.000282176,-0.000100393,-0.000762096,1.06006,0.000478126,0.0382566,1896,981,0.133716,0.0960098
679,43,-0.0240479,0.00811768,-0.000558657,-0.000210684,8.09824e-06,-0.000210496,-0.000558845,1.54754,0.000325905,0.0386744,1903,981,-0.0239998,-0.00813129
686,43,-0.0822754,-0.0604858,-0.000514351,-0.000165731,-0.00014625,-0.000112504,-0.000567578,-1.22175,0.000347017,0.0379882,1910,981,-0.0822942,0.0604858
693,43,-0.0633545,-0.136841,-0.000421505,-0.00013598,-0.000189215,-4.17126e-05,-0.000515773,-1.10859,0.000330822,0.0330357,1917,981,-0.0633876,0.136858
700,43,-0.112183,-0.0627441,-0.000280787,-7.2648e-05,-0.000245706,9.01195e-05,-0.000443555,-0.98572,0.000329872,0.0257167,1924,981,-0.112145,0.0627543
707,43,-0.0782471,-0.0488892,-0.00027231,-3.06693e-05,-0.000296773,0.000168935,-0.000471915,-0.97871,0.00038353,0.0175624,1931,981,-0.0782605,0.0488961
714,43,-0.0593262,-0.0756836,-0.000316344,-1.67769e-05,-0.000254513,0.000128756,-0.000461877,-1.05136,0.000358626,0.0144898,1938,981,-0.0592844,0.0756726
721,43,-0.0633545,-0.0897217,-0.000289423,3.59946e-05,-7.46739e-05,5.23119e-05,-0.00030574,-1.35566,0.000223316,0.014388,1945,981,-0.0633223,0.0896934
728,43,-0.0771484,-0.0620117,-0.00010938,3.9459e-05,7.93809e-05,7.38494e-05,-0.00014377,1.16197,0.000127786,0.0137074,1952,981,-0.0771868,0.0619953
735,43,-0.0692139,-0.0427246,0.000120447,-3.64652e-05,0.00012814,0.000192242,-0.00010826,0.510702,0.000175738,0.0109746,1959,981,-0.0692599,0.0426957
742,43,-0.0686035,-0.0557251,2.06244e-05,1.24508e-05,0.000123653,0.000140258,-0.000107183,0.768879,0.000143285,0.0139966,1966,981,-0.0685539,0.0557212
749,43,-0.074585,-0.0790405,-0.000806336,2.41977e-05,0.000299205,0.000120761,-0.000902899,1.25862,0.00064596,0.0166537,1973,981,-0.0746219,0.0790173
756,43,-0.0698242,-0.0667725,-0.00184153,0.000686777,0.000763587,0.000899495,-0.00205425,1.29911,0.00174824,0.0151605,1980,981,-0.0697948,0.0667477
763,43,-0.0921631,-0.0564575,-0.00290296,0.00114029,0.00147941,0.00162378,-0.00338646,1.25492,0.00295173,0.0165119,1987,981,-0.0921491,0.0564435
770,43,-0.0831299,-0.0647583,-0.0044453,0.00177226,0.00222642,0.00248728,-0.00516032,1.26005,0.00450435,0.0134521,1994,981,-0.0831234,0.0647769
777,43,-0.0534668,-0.072876,-0.00651346,0.0026841,0.00328931,0.00373938,-0.00756873,1.26035,0.00665235,0.0181193,2001,981,-0.0534491,0.0728519
784,43,-0.0482178,-0.0151978,-0.00918888,0.00394579,0.00478876,0.00550632,-0.0107494,1.25578,0.00954659,0.0382733,2008,981,-0.0481984,0.0151806
791,43,-0.0709229,0.00305176,-0.012523,0.00561892,0.00685135,0.0079156,-0.0148197,1.24735,0.0133265,0.0433323,2015,981,-0.0709745,-0.00307086
798,43,-0.250732,-0.00866699,-0.0164885,0.00775623,0.0096025,0.0110987,-0.0198309,1.23583,0.0180929,0.042008,2022,981,-0.250761,0.00864603
805,43,-0.466797,0.183716,-0.0210409,0.0104116,0.0132317,0.0152376,-0.0258669,1.22106,0.0239947,0.0426211,2029,981,-0.466747,-0.183697
812,43,-0.420288,0.444397,-0.0260683,0.0136151,0.017991,0.0205572,-0.0330104,1.20254,0.0312046,0.0441424,2036,981,-0.420337,-0.444387
-700,36,0,0,0,0,0,0,0,0,0,-1,524,988,0,0
-693,36,-2.25317,-1.24872,0,0,0,0,0,0,0,-1,531,988,-2.25317,1.24869
-686,36,-1.90015,-1.09607,0,0,0,0,0,0,0,-1,538,988,-1.90017,1.09608
-679,36,-1.1004,-1.26733,0,0,0,0,0,0,0,-1,545,988,-1.10043,1.26734
-672,36,-0.18866,-0.506165,0,0,0,0,0,0,0,-1,552,988,-0.188651,0.506138
-665,36,-0.0344238,-0.339966,0.0199053,0.0230994,-0.00771538,0.0293813,0.0136234,-0.887453,0.0169782,0.049464,559,988,-0.0344435,0.339989
-658,36,0.152588,-0.148132,0.0126124,0.0167119,-0.00600147,0.021004,0.00832028,-0.949957,0.0122136,0.0444993,566,988,0.152562,0.148159
-651,36,0.0234375,0.00567627,0.007443,0.0117384,-0.00460971,0.0146762,0.00450523,-1.0034,0.00868121,0.0341373,573,988,0.0234129,-0.00566035
-644,36,-0.0822754,-0.0549316,0.00396427,0.00798826,-0.00348409,0.00999957,0.00195296,-1.04725,0.00612015,0.0173118,580,988,-0.0822715,0.0549023
-637,36,-0.0779419,-0.0408936,0.00136934,0.00523913,-0.00244032,0.00641855,0.000189919,-1.12059,0.00421715,0.0122949,587,988,-0.077961,0.0408777
-630,36,-0.0818481,-0.0313721,-0.000518002,0.00243076,-0.00149021,0.00305269,-0.00113993,-1.17543,0.00250317,0.01186,594,988,-0.0818193,0.0313566
-623,36,-0.0907593,-0.0518799,-0.00166901,0.000926109,-0.00111799,0.00134131,-0.00208422,-1.2152,0.00199318,0.0123982,601,988,-0.0907718,0.0518981
-616,36,-0.0949707,-0.0629272,-0.00150125,0.000388839,-0.000875895,0.000732322,-0.00184473,-1.19707,0.00153337,0.0101187,608,988,-0.0949413,0.0629272
-609,36,-0.0551147,-0.0203247,-0.00051793,0.000249719,-0.000501802,0.00049766,-0.00076587,-1.11188,0.000734957,0.0142143,615,988,-0.0551436,0.0203439
-602,36,-0.0708008,-0.0232544,-7.71694e-05,-2.95155e-05,-0.000291821,0.00023945,-0.000346135,-0.826132,0.000339953,0.0176098,622,988,-0.070807,0.0232358
-595,36,-0.0975342,-0.083374,0.000210923,-0.000158524,-0.000162387,0.000272152,-0.000219753,-0.360568,0.000284538,0.0184324,629,988,-0.0975193,0.0833798
-588,36,-0.085083,-0.0545044,0.000673525,-0.000200122,-0.000166621,0.000704224,-0.000230821,-0.182202,0.000562439,0.0167013,636,988,-0.0850871,0.0544813
-581,36,-0.0709839,-0.00646973,0.000958182,-0.000232952,-0.000222867,0.000998515,-0.000273286,-0.179039,0.000773045,0.0197042,643,988,-0.0709734,0.00645406
-574,36,-0.0535889,-0.0869751,0.00111092,-0.000297321,-0.000265038,0.00115915,-0.000345551,-0.180003,0.000910088,0.024419,650,988,-0.0535965,0.0869537
-567,36,-0.0344238,-0.224487,0.00143612,-0.000349226,-0.000367407,0.00150878,-0.000421878,-0.195225,0.00117206,0.0329596,657,988,-0.0344302,0.22451
-560,36,-0.0529175,-0.154724,0.00175155,-0.000407093,-0.000518484,0.00186963,-0.000525169,-0.223914,0.00145345,0.0387917,664,988,-0.0529151,0.154698
-553,36,-0.0623779,0.0350952,0.00206998,-0.00046678,-0.000705873,0.00225316,-0.000649966,-0.253916,0.00175925,0.0395,671,988,-0.0623963,-0.035105
-546,36,-0.0240479,0.0745239,0.00234521,-0.000529154,-0.000928258,0.00261892,-0.000802865,-0.286739,0.00206624,0.0401729,678,988,-0.0240669,-0.0745252
-539,36,0.25592,-0.501404,0.00244809,-0.000602304,-0.00116373,0.00284136,-0.00099557,-0.325886,0.00229911,0.0402052,685,988,0.255911,0.50138
-532,36,0.425903,-0.410583,0.00230085,-0.00069984,-0.00131642,0.0027965,-0.00119549,-0.360097,0.00236575,0.0408191,692,988,0.425916,0.41058
-525,36,0.347717,-0.263794,0.00176502,-0.00081887,-0.00133782,0.00233288,-0.00138673,-0.40142,0.00217055,0.0427795,699,988,0.347722,0.263824
-518,36,0,0,0,0,0,0,0,0,0,-1,706,988,0,0
-511,36,0,0,0,0,0,0,0,0,0,-1,713,988,0,0
-504,36,0,0,0,0,0,0,0,0,0,-1,720,988,0,0
-497,36,0,0,0,0,0,0,0,0,0,-1,727,988,0,0
-490,36,0,0,0,0,0,0,0,0,0,-1,734,988,0,0
-483,36,0,0,0,0,0,0,0,0,0,-1,741,988,0,0
-476,36,0,0,0,0,0,0,0,0,0,-1,748,988,0,0
-469,36,0,0,0,0,0,0,0,0,0,-1,755,988,0,0
-462,36,0,0,0,0,0,0,0,0,0,-1,762,988,0,0
-455,36,0,0,0,0,0,0,0,0,0,-1,769,988,0,0
-448,36,0,0,0,0,0,0,0,0,0,-1,776,988,0,0
-441,36,0,0,0,0,0,0,0,0,0,-1,783,988,0,0
-434,36,0,0,0,0,0,0,0,0,0,-1,790,988,0,0
-427,36,0,0,0,0,0,0,0,0,0,-1,797,988,0,0
-420,36,0,0,0,0,0,0,0,0,0,-1,804,988,0,0
-413,36,0,0,0,0,0,0,0,0,0,-1,811,988,0,0
-406,36,0,0,0,0,0,0,0,0,0,-1,818,988,0,0
-399,36,0,0,0,0,0,0,0,0,0,-1,825,988,0,0
-392,36,0,0,0,0,0,0,0,0,0,-1,832,988,0,0
-385,36,0,0,0,0,0,0,0,0,0,-1,839,988,0,0
-378,36,0,0,0,0,0,0,0,0,0,-1,846,988,0,0
-371,36,0,0,0,0,0,0,0,0,0,-1,853,988,0,0
-364,36,0,0,0,0,0,0,0,0,0,-1,860,988,0,0
-357,36,0,0,0,0,0,0,0,0,0,-1,867,988,0,0
-350,36,0,0,0,0,0,0,0,0,0,-1,874,988,0,0
-343,36,0,0,0,0,0,0,0,0,0,-1,881,988,0,0
-336,36,0,0,0,0,0,0,0,0,0,-1,888,988,0,0
-329,36,0,0,0,0,0,0,0,0,0,-1,895,988,0,0
-322,36,0,0,0,0,0,0,0,0,0,-1,902,988,0,0
-315,36,0,0,0,0,0,0,0,0,0,-1,909,988,0,0
-308,36,0,0,0,0,0,0,0,0,0,-1,916,988,0,0
-301,36,0,0,0,0,0,0,0,0,0,-1,923,988,0,0
-294,36,0,0,0,0,0,0,0,0,0,-1,930,988,0,0
-287,36,0,0,0,0,0,0,0,0,0,-1,937,988,0,0
-280,36,0,0,0,0,0,0,0,0,0,-1,944,988,0,0
-273,36,0,0,0,0,0,0,0,0,0,-1,951,988,0,0
-266,36,0,0,0,0,0,0,0,0,0,-1,958,988,0,0
-259,36,0,0,0,0,0,0,0,0,0,-1,965,988,0,0
-252,36,0,0,0,0,0,0,0,0,0,-1,972,988,0,0
-245,36,0,0,0,0,0,0,0,0,0,-1,979,988,0,0
-238,36,0,0,0,0,0,0,0,0,0,-1,986,988,0,0
-231,36,0,0,0,0,0,0,0,0,0,-1,993,988,0,0
-224,36,0,0,0,0,0,0,0,0,0,-1,1000,988,0,0
-217,36,0,0,0,0,0,0,0,0,0,-1,1007,988,0,0
-210,36,0,0,0,0,0,0,0,0,0,-1,1014,988,0,0
-203,36,0,0,0,0,0,0,0,0,0,-1,1021,988,0,0
-196,36,0,0,0,0,0,0,0,0,0,-1,1028,988,0,0
-189,36,0,0,0,0,0,0,0,0,0,-1,1035,988,0,0
-182,36,0,0,0,0,0,0,0,0,0,-1,1042,988,0,0
-175,36,0,0,0,0,0,0,0,0,0,-1,1049,988,0,0
-168,36,0,0,0,0,0,0,0,0,0,-1,1056,988,0,0
-161,36,0,0,0,0,0,0,0,0,0,-1,1063,988,0,0
-154,36,0,0,0,0,0,0,0,0,0,-1,1070,988,0,0
-147,36,0,0,0,0,0,0,0,0,0,-1,1077,988,0,0
-140,36,0,0,0,0,0,0,0,0,0,-1,1084,988,0,0
-133,36,0,0,0,0,0,0,0,0,0,-1,1091,988,0,0
-126,36,0,0,0,0,0,0,0,0,0,-1,1098,988,0,0
-119,36,0,0,0,0,0,0,0,0,0,-1,1105,988,0,0
-112,36,0,0,0,0,0,0,0,0,0,-1,1112,988,0,0
-105,36,0,0,0,0,0,0,0,0,0,-1,1119,988,0,0
-98,36,0,0,0,0,0,0,0,0,0,-1,1126,988,0,0
-91,36,0,0,0,0,0,0,0,0,0,-1,1133,988,0,0
-84,36,0,0,0,0,0,0,0,0,0,-1,1140,988,0,0
-77,36,0,0,0,0,0,0,0,0,0,-1,1147,988,0,0
-70,36,0,0,0,0,0,0,0,0,0,-1,1154,988,0,0
-63,36,0,0,0,0,0,0,0,0,0,-1,1161,988,0,0
-56,36,0,0,0,0,0,0,0,0,0,-1,1168,988,0,0
-49,36,0,0,0,0,0,0,0,0,0,-1,1175,988,0,0
-42,36,0,0,0,0,0,0,0,0,0,-1,1182,988,0,0
-35,36,0,0,0,0,0,0,0,0,0,-1,1189,988,0,0
-28,36,0,0,0,0,0,0,0,0,0,-1,1196,988,0,0
-21,36,0,0,0,0,0,0,0,0,0,-1,1203,988,0,0
-14,36,0,0,0,0,0,0,0,0,0,-1,1210,988,0,0
-7,36,0,0,0,0,0,0,0,0,0,-1,1217,988,0,0
0,36,0,0,0,0,0,0,0,0,0,-1,1224,988,0,0
7,36,0,0,0,0,0,0,0,0,0,-1,1231,988,0,0
14,36,0,0,0,0,0,0,0,0,0,-1,1238,988,0,0
21,36,0,0,0,0,0,0,0,0,0,-1,1245,988,0,0
28,36,0,0,0,0,0,0,0,0,0,-1,1252,988,0,0
35,36,0,0,0,0,0,0,0,0,0,-1,1259,988,0,0
42,36,0,0,0,0,0,0,0,0,0,-1,1266,988,0,0
49,36,0,0,0,0,0,0,0,0,0,-1,1273,988,0,0
56,36,0,0,0,0,0,0,0,0,0,-1,1280,988,0,0
63,36,0,0,0,0,0,0,0,0,0,-1,1287,988,0,0
70,36,0,0,0,0,0,0,0,0,0,-1,1294,988,0,0
77,36,0,0,0,0,0,0,0,0,0,-1,1301,988,0,0
84,36,0,0,0,0,0,0,0,0,0,-1,1308,988,0,0
91,36,0,0,0,0,0,0,0,0,0,-1,1315,988,0,0
98,36,0,0,0,0,0,0,0,0,0,-1,1322,988,0,0
105,36,0,0,0,0,0,0,0,0,0,-1,1329,988,0,0
112,36,0,0,0,0,0,0,0,0,0,-1,1336,988,0,0
119,36,0,0,0,0,0,0,0,0,0,-1,1343,988,0,0
126,36,0,0,0,0,0,0,0,0,0,-1,1350,988,0,0
133,36,0,0,0,0,0,0,0,0,0,-1,1357,988,0,0
140,36,0,0,0,0,0,0,0,0,0,-1,1364,988,0,0
147,36,0,0,0,0,0,0,0,0,0,-1,1371,988,0,0
154,36,0,0,0,0,0,0,0,0,0,-1,1378,988,0,0
161,36,0,0,0,0,0,0,0,0,0,-1,1385,988,0,0
168,36,0,0,0,0,0,0,0,0,0,-1,1392,988,0,0
175,36,0,0,0,0,0,0,0,0,0,-1,1399,988,0,0
182,36,0,0,0,0,0,0,0,0,0,-1,1406,988,0,0
189,36,0,0,0,0,0,0,0,0,0,-1,1413,988,0,0
196,36,0,0,0,0,0,0,0,0,0,-1,1420,988,0,0
203,36,0,0,0,0,0,0,0,0,0,-1,1427,988,0,0
210,36,0,0,0,0,0,0,0,0,0,-1,1434,988,0,0
217,36,0,0,0,0,0,0,0,0,0,-1,1441,988,0,0
224,36,0,0,0,0,0,0,0,0,0,-1,1448,988,0,0
231,36,0,0,0,0,0,0,0,0,0,-1,1455,988,0,0
238,36,0,0,0,0,0,0,0,0,0,-1,1462,988,0,0
245,36,0,0,0,0,0,0,0,0,0,-1,1469,988,0,0
252,36,0,0,0,0,0,0,0,0,0,-1,1476,988,0,0
259,36,0,0,0,0,0,0,0,0,0,-1,1483,988,0,0
266,36,0,0,0,0,0,0,0,0,0,-1,1490,988,0,0
273,36,0,0,0,0,0,0,0,0,0,-1,1497,988,0,0
280,36,0,0,0,0,0,0,0,0,0,-1,1504,988,0,0
287,36,0,0,0,0,0,0,0,0,0,-1,1511,988,0,0
294,36,0,0,0,0,0,0,0,0,0,-1,1518,988,0,0
301,36,0,0,0,0,0,0,0,0,0,-1,1525,988,0,0
308,36,0,0,0,0,0,0,0,0,0,-1,1532,988,0,0
315,36,0,0,0,0,0,0,0,0,0,-1,1539,988,0,0
322,36,0,0,0,0,0,0,0,0,0,-1,1546,988,0,0
329,36,0,0,0,0,0,0,0,0,0,-1,1553,988,0,0
336,36,0,0,0,0,0,0,0,0,0,-1,1560,988,0,0
343,36,0,0,0,0,0,0,0,0,0,-1,1567,988,0,0
350,36,0,0,0,0,0,0,0,0,0,-1,1574,988,0,0
357,36,0,0,0,0,0,0,0,0,0,-1,1581,988,0,0
364,36,0,0,0,0,0,0,0,0,0,-1,1588,988,0,0
371,36,0,0,0,0,0,0,0,0,0,-1,1595,988,0,0
378,36,0,0,0,0,0,0,0,0,0,-1,1602,988,0,0
385,36,0,0,0,0,0,0,0,0,0,-1,1609,988,0,0
392,36,0,0,0,0,0,0,0,0,0,-1,1616,988,0,0
399,36,0,0,0,0,0,0,0,0,0,-1,1623,988,0,0
406,36,0,0,0,0,0,0,0,0,0,-1,1630,988,0,0
413,36,0,0,0,0,0,0,0,0,0,-1,1637,988,0,0
420,36,0,0,0,0,0,0,0,0,0,-1,1644,988,0,0
427,36,0,0,0,0,0,0,0,0,0,-1,1651,988,0,0
434,36,0,0,0,0,0,0,0,0,0,-1,1658,988,0,0
441,36,0,0,0,0,0,0,0,0,0,-1,1665,988,0,0
448,36,0,0,0,0,0,0,0,0,0,-1,1672,988,0,0
455,36,0,0,0,0,0,0,0,0,0,-1,1679,988,0,0
462,36,0,0,0,0,0,0,0,0,0,-1,1686,988,0,0
469,36,0,0,0,0,0,0,0,0,0,-1,1693,988,0,0
476,36,0,0,0,0,0,0,0,0,0,-1,1700,988,0,0
483,36,0,0,0,0,0,0,0,0,0,-1,1707,988,0,0
490,36,0,0,0,0,0,0,0,0,0,-1,1714,988,0,0
497,36,0,0,0,0,0,0,0,0,0,-1,1721,988,0,0
504,36,0,0,0,0,0,0,0,0,0,-1,1728,988,0,0
511,36,0,0,0,0,0,0,0,0,0,-1,1735,988,0,0
518,36,0,0,0,0,0,0,0,0,0,-1,1742,988,0,0
525,36,0,0,0,0,0,0,0,0,0,-1,1749,988,0,0
532,36,0,0,0,0,0,0,0,0,0,-1,1756,988,0,0
539,36,0,0,0,0,0,0,0,0,0,-1,1763,988,0,0
546,36,0,0,0,0,0,0,0,0,0,-1,1770,988,0,0
553,36,0,0,0,0,0,0,0,0,0,-1,1777,988,0,0
560,36,0,0,0,0,0,0,0,0,0,-1,1784,988,0,0
567,36,0,0,0,0,0,0,0,0,0,-1,1791,988,0,0
574,36,0,0,0,0,0,0,0,0,0,-1,1798,988,0,0
581,36,0,0,0,0,0,0,0,0,0,-1,1805,988,0,0
588,36,0,0,0,0,0,0,0,0,0,-1,1812,988,0,0
595,36,0,0,0,0,0,0,0,0,0,-1,1819,988,0,0
602,36,0,0,0,0,0,0,0,0,0,-1,1826,988,0,0
609,36,0,0,0,0,0,0,0,0,0,-1,1833,988,0,0
616,36,0,0,0,0,0,0,0,0,0,-1,1840,988,0,0
623,36,0,0,0,0,0,0,0,0,0,-1,1847,988,0,0
630,36,0,0,0,0,0,0,0,0,0,-1,1854,988,0,0
637,36,0,0,0,0,0,0,0,0,0,-1,1861,988,0,0
644,36,-0.0479736,0.00469971,-0.00135156,-0.000433789,0.00312981,0.0022706,-0.00405595,0.858188,0.0037008,0.0380633,1868,988,-0.0480261,-0.00469049
651,36,-0.14624,0.103088,-0.000805257,-0.000273632,0.00206901,0.00154657,-0.00262546,0.849285,0.00243542,0.0356186,1875,988,-0.146186,-0.103083
658,36,-0.00524902,0.19397,-0.000609789,-0.000193201,0.00127815,0.000893521,-0.00169651,0.86617,0.00151912,0.0344273,1882,988,-0.00519538,-0.193962
665,36,0.0792236,0.0700684,-0.000527199,-0.000151761,0.000668992,0.00035535,-0.00103431,0.92218,0.00083363,0.0346381,1889,988,0.0791956,-0.0700743
672,36,0.0170898,-0.0634155,-0.00049059,-0.0001335,0.000232084,-1.92287e-05,-0.000604861,1.11327,0.000396986,0.0358324,1896,988,0.0170526,0.063437
679,36,-0.0546875,-0.0247192,-0.000489331,-0.000128373,-3.70566e-05,-0.000124608,-0.000493096,-1.46954,0.000296068,0.0370859,1903,988,-0.0547039,0.0247417
686,36,-0.146484,-0.0187988,-0.000481791,-0.000127967,-0.00018375,-4.98071e-05,-0.000559951,-1.16862,0.000357856,0.0354742,1910,988,-0.146438,0.0187825
693,36,-0.0863037,-0.0859375,-0.000423036,-0.000135673,-0.000228206,-9.68389e-06,-0.000549025,-1.06635,0.000362832,0.0349268,1917,988,-0.0863206,0.0859227
700,36,-0.0838623,-0.0774536,-0.000296715,-9.89725e-05,-0.000279604,9.8726e-05,-0.000494414,-0.955343,0.000366972,0.0297694,1924,988,-0.0838088,0.0774404
707,36,-0.0939941,-0.0663452,-0.000299918,-8.29901e-05,-0.000304544,0.000131829,-0.000514737,-0.95647,0.000394512,0.0178223,1931,988,-0.0939605,0.0663189
714,36,-0.0610352,-0.0971069,-0.000353436,-9.4534e-05,-0.000259787,6.62686e-05,-0.000514238,-1.01654,0.000366915,0.0142478,1938,988,-0.0610512,0.0971022
721,36,-0.0598145,-0.110596,-0.000318839,-5.78973e-05,-8.50603e-05,-3.26187e-05,-0.000344117,-1.28192,0.000219349,0.0175886,1945,988,-0.0598079,0.110579
728,36,-0.0614014,-0.0744629,-0.00013695,-3.66291e-05,8.80304e-05,1.45289e-05,-0.000188108,1.04436,0.000130518,0.0146405,1952,988,-0.0613589,0.0744901
735,36,-0.0814209,-0.0396729,0.000122664,-5.92642e-05,0.000145848,0.00020359,-0.00014019,0.506569,0.000199603,0.0150928,1959,988,-0.0814002,0.0397018
742,36,-0.0751953,-0.0627441,0.000105196,3.92887e-05,0.000152293,0.00022806,-8.35757e-05,0.67885,0.000186258,0.0136875,1966,988,-0.0752335,0.0627636
749,36,-0.078125,-0.0628052,-0.000600671,-5.53536e-06,0.000353108,0.000158667,-0.000764873,1.13552,0.000570211,0.0149333,1973,988,-0.0781665,0.0628093
756,36,-0.0718994,-0.0602417,-0.00151286,0.000560377,0.000821259,0.000846273,-0.00179876,1.2358,0.00155977,0.0127082,1980,988,-0.071918,0.0602145
763,36,-0.0769043,-0.0612183,-0.00247139,0.000987197,0.00154068,0.00157397,-0.00305816,1.20691,0.00271974,0.013657,1987,988,-0.0768557,0.0612326
770,36,-0.0748291,-0.0629883,-0.00383922,0.001514,0.00228224,0.00235489,-0.00468011,1.21778,0.00413495,0.0123224,1994,988,-0.0748315,0.0629851
777,36,-0.0625,-0.0387573,-0.00569226,0.00226553,0.00331799,0.00346743,-0.00689416,1.22326,0.00609034,0.0204681,2001,988,-0.0624418,0.0387745
784,36,-0.0290527,0.0238647,-0.00812169,0.00330351,0.00475946,0.00502638,-0.00984456,1.22348,0.00873467,0.0399458,2008,988,-0.0290931,-0.0238396
791,36,-0.0692139,0.132996,-0.011196,0.00469389,0.00672245,0.00715632,-0.0136585,1.21968,0.0122113,0.0396062,2015,988,-0.0691702,-0.133003
798,36,-0.146118,0.0543823,-0.0149075,0.00650386,0.00931452,0.00998873,-0.0183924,1.21279,0.0166236,0.0398779,2022,988,-0.146066,-0.0543844
805,36,-0.278809,0.0770874,-0.0192309,0.00881434,0.0126977,0.0137091,-0.0241256,1.20287,0.0221181,0.0464532,2029,988,-0.278824,-0.0770788
812,36,-0.263916,0.642761,-0.0241227,0.0117172,0.0170871,0.018558,-0.0309635,1.18999,0.0288887,0.0463546,2036,988,-0.263944,-0.642745
-700,29,0,0,0,0,0,0,0,0,0,-1,524,995,0,0
-693,29,-1.44708,-1.44269,0.0779893,0.0611177,-0.0269303,0.0977741,0.0413329,-0.633616,0.0566741,0.0459698,531,995,-1.44707,1.44267
-686,29,-1.10303,-1.28741,0,0,0,0,0,0,0,-1,538,995,-1.10304,1.28739
-679,29,-0.538025,-1.25403,0.0427374,0.0381055,-0.0168998,0.0574792,0.0233637,-0.717303,0.0333786,0.0413937,545,995,-0.53804,1.25403
-672,29,0.0813599,-0.947632,0.0301867,0.0291064,-0.0131533,0.0428109,0.0164822,-0.764876,0.0249338,0.0419315,552,995,0.0813675,0.947605
-665,29,0.435791,-0.263245,0.0204322,0.0216885,-0.0100936,0.0311734,0.0109473,-0.816475,0.0182618,0.0437897,559,995,0.43578,0.263237
-658,29,0.491211,0.279358,0,0,0,0,0,0,0,-1,566,995,0.491235,-0.279341
-651,29,0.195679,0.116211,0.00790711,0.0110806,-0.00565217,0.0153645,0.0036232,-0.922243,0.00927429,0.0336601,573,995,0.195678,-0.116232
-644,29,-0.0631104,-0.0369873,0.004326,0.00756191,-0.00411509,0.0103657,0.00152222,-0.972703,0.00646308,0.0165316,580,995,-0.0630837,0.0369681
-637,29,-0.0664673,-0.0407104,0.00171574,0.00498908,-0.00279081,0.00658773,0.000117086,-1.0506,0.00435332,0.011273,587,995,-0.0664502,0.0406812
-630,29,-0.0773926,-0.0317993,-0.000334963,0.00221059,-0.00151022,0.00291283,-0.00103721,-1.13554,0.00236471,0.0103816,594,995,-0.0774144,0.0317863
-623,29,-0.0853882,-0.0321655,-0.0016208,0.000939656,-0.000962936,0.00126137,-0.00194252,-1.24836,0.00186365,0.0104195,601,995,-0.0853958,0.0321893
-616,29,-0.0917969,-0.0561523,-0.00149412,0.000365053,-0.000752948,0.000631737,-0.0017608,-1.2304,0.00143169,0.0123929,608,995,-0.0917994,0.0561508
-609,29,-0.0419922,-0.0412598,-0.000632364,0.000196343,-0.000410696,0.000365393,-0.000801414,-1.18031,0.000689157,0.0179906,615,995,-0.0419876,0.0412882
-602,29,-0.00976563,-0.0349731,-0.000162923,-9.50547e-05,-0.000204436,7.82447e-05,-0.000336223,-0.867643,0.000254275,0.0183647,622,995,-0.00974128,0.0349575
-595,29,-0.0504761,-0.067627,0.000169448,-0.000224402,-9.92134e-05,0.000193029,-0.000247982,-0.233347,0.000255276,0.0174116,629,995,-0.0504733,0.0676116
-588,29,-0.0699463,-0.0339966,0.000638435,-0.000295442,-0.00010828,0.000650825,-0.000307833,-0.113933,0.000565166,0.020278,636,995,-0.0699462,0.0339799
-581,29,-0.0742798,-0.0697632,0.000951364,-0.000364174,-0.000146093,0.000967393,-0.000380203,-0.109278,0.000802277,0.0294705,643,995,-0.074267,0.0697433
-574,29,-0.0391235,-0.0806274,0.00114535,-0.000462229,-0.000168648,0.00116285,-0.000479731,-0.103408,0.000975301,0.0279186,650,995,-0.0390937,0.0806394
-567,29,-0.0286255,-0.165771,0.00150501,-0.000561756,-0.000253172,0.00153557,-0.000592317,-0.120131,0.00126813,0.0303397,657,995,-0.0286517,0.165792
-560,29,-0.121643,-0.18457,0.00187786,-0.000679177,-0.000381099,0.00193345,-0.000734767,-0.144846,0.00159147,0.0351235,664,995,-0.121645,0.184559
-553,29,-0.111511,-0.0626831,0.00227575,-0.000814654,-0.000543448,0.00236853,-0.000907434,-0.169095,0.00195308,0.0373836,671,995,-0.111525,0.0626754
-546,29,-0.0181274,-0.052002,0.00263868,-0.000972607,-0.000735604,0.00278277,-0.0011167,-0.193431,0.00231885,0.0395869,678,995,-0.0181279,0.051995
-539,29,0.0844116,-0.168091,0.00282477,-0.00116986,-0.000929285,0.00303037,-0.00137546,-0.217739,0.00260284,0.0388911,685,995,0.0843939,0.168076
-532,29,0.193848,-0.201294,0.00275569,-0.00142531,-0.00102763,0.00299462,-0.00166424,-0.22844,0.0027261,0.0408082,692,995,0.193836,0.201308
-525,29,0.157959,-0.0889282,0.00226125,-0.00174284,-0.000975669,0.00248634,-0.00196792,-0.226733,0.00257747,0.0404643,699,995,0.157931,0.0889405
-518,29,0,0,0,0,0,0,0,0,0,-1,706,995,0,0
-511,29,0,0,0,0,0,0,0,0,0,-1,713,995,0,0
-504,29,0,0,0,0,0,0,0,0,0,-1,720,995,0,0
-497,29,0,0,0,0,0,0,0,0,0,-1,727,995,0,0
-490,29,0,0,0,0,0,0,0,0,0,-1,734,995,0,0
-483,29,0,0,0,0,0,0,0,0,0,-1,741,995,0,0
-476,29,0,0,0,0,0,0,0,0,0,-1,748,995,0,0
-469,29,0,0,0,0,0,0,0,0,0,-1,755,995,0,0
-462,29,0,0,0,0,0,0,0,0,0,-1,762,995,0,0
-455,29,0,0,0,0,0,0,0,0,0,-1,769,995,0,0
-448,29,0,0,0,0,0,0,0,0,0,-1,776,995,0,0
-441,29,0,0,0,0,0,0,0,0,0,-1,783,995,0,0
-434,29,0,0,0,0,0,0,0,0,0,-1,790,995,0,0
-427,29,0,0,0,0,0,0,0,0,0,-1,797,995,0,0
-420,29,0,0,0,0,0,0,0,0,0,-1,804,995,0,0
-413,29,0,0,0,0,0,0,0,0,0,-1,811,995,0,0
-406,29,0,0,0,0,0,0,0,0,0,-1,818,995,0,0
-399,29,0,0,0,0,0,0,0,0,0,-1,825,995,0,0
-392,29,0,0,0,0,0,0,0,0,0,-1,832,995,0,0
-385,29,0,0,0,0,0,0,0,0,0,-1,839,995,0,0
-378,29,0,0,0,0,0,0,0,0,0,-1,846,995,0,0
-371,29,0,0,0,0,0,0,0,0,0,-1,853,995,0,0
-364,29,0,0,0,0,0,0,0,0,0,-1,860,995,0,0
-357,29,0,0,0,0,0,0,0,0,0,-1,867,995,0,0
-350,29,0,0,0,0,0,0,0,0,0,-1,874,995,0,0
-343,29,0,0,0,0,0,0,0,0,0,-1,881,995,0,0
-336,29,0,0,0,0,0,0,0,0,0,-1,888,995,0,0
-329,29,0,0,0,0,0,0,0,0,0,-1,895,995,0,0
-322,29,0,0,0,0,0,0,0,0,0,-1,902,995,0,0
-315,29,0,0,0,0,0,0,0,0,0,-1,909,995,0,0
-308,29,0,0,0,0,0,0,0,0,0,-1,916,995,0,0
-301,29,0,0,0,0,0,0,0,0,0,-1,923,995,0,0
-294,29,0,0,0,0,0,0,0,0,0,-1,930,995,0,0
-287,29,0,0,0,0,0,0,0,0,0,-1,937,995,0,0
-280,29,0,0,0,0,0,0,0,0,0,-1,944,995,0,0
-273,29,0,0,0,0,0,0,0,0,0,-1,951,995,0,0
-266,29,0,0,0,0,0,0,0,0,0,-1,958,995,0,0
-259,29,0,0,0,0,0,0,0,0,0,-1,965,995,0,0
-252,29,0,0,0,0,0,0,0,0,0,-1,972,995,0,0
-245,29,0,0,0,0,0,0,0,0,0,-1,979,995,0,0
-238,29,0,0,0,0,0,0,0,0,0,-1,986,995,0,0
-231,29,0,0,0,0,0,0,0,0,0,-1,993,995,0,0
-224,29,0,0,0,0,0,0,0,0,0,-1,1000,995,0,0
-217,29,0,0,0,0,0,0,0,0,0,-1,1007,995,0,0
-210,29,0,0,0,0,0,0,0,0,0,-1,1014,995,0,0
-203,29,0,0,0,0,0,0,0,0,0,-1,1021,995,0,0
-196,29,0,0,0,0,0,0,0,0,0,-1,1028,995,0,0
-189,29,0,0,0,0,0,0,0,0,0,-1,1035,995,0,0
-182,29,0,0,0,0,0,0,0,0,0,-1,1042,995,0,0
-175,29,0,0,0,0,0,0,0,0,0,-1,1049,995,0,0
-168,29,0,0,0,0,0,0,0,0,0,-1,1056,995,0,0
-161,29,0,0,0,0,0,0,0,0,0,-1,1063,995,0,0
-154,29,0,0,0,0,0,0,0,0,0,-1,1070,995,0,0
-147,29,0,0,0,0,0,0,0,0,0,-1,1077,995,0,0
-140,29,0,0,0,0,0,0,0,0,0,-1,1084,995,0,0
-133,29,0,0,0,0,0,0,0,0,0,-1,1091,995,0,0
-126,29,0,0,0,0,0,0,0,0,0,-1,1098,995,0,0
-119,29,0,0,0,0,0,0,0,0,0,-1,1105,995,0,0
-112,29,0,0,0,0,0,0,0,0,0,-1,1112,995,0,0
-105,29,0,0,0,0,0,0,0,0,0,-1,1119,995,0,0
-98,29,0,0,0,0,0,0,0,0,0,-1,1126,995,0,0
-91,29,0,0,0,0,0,0,0,0,0,-1,1133,995,0,0
-84,29,0,0,0,0,0,0,0,0,0,-1,1140,995,0,0
-77,29,0,0,0,0,0,0,0,0,0,-1,1147,995,0,0
-70,29,0,0,0,0,0,0,0,0,0,-1,1154,995,0,0
-63,29,0,0,0,0,0,0,0,0,0,-1,1161,995,0,0
-56,29,0,0,0,0,0,0,0,0,0,-1,1168,995,0,0
-49,29,0,0,0,0,0,0,0,0,0,-1,1175,995,0,0
-42,29,0,0,0,0,0,0,0,0,0,-1,1182,995,0,0
-35,29,0,0,0,0,0,0,0,0,0,-1,1189,995,0,0
-28,29,0,0,0,0,0,0,0,0,0,-1,1196,995,0,0
-21,29,0,0,0,0,0,0,0,0,0,-1,1203,995,0,0
-14,29,0,0,0,0,0,0,0,0,0,-1,1210,995,0,0
-7,29,0,0,0,0,0,0,0,0,0,-1,1217,995,0,0
0,29,0,0,0,0,0,0,0,0,0,-1,1224,995,0,0
7,29,0,0,0,0,0,0,0,0,0,-1,1231,995,0,0
14,29,0,0,0,0,0,0,0,0,0,-1,1238,995,0,0
21,29,0,0,0,0,0,0,0,0,0,-1,1245,995,0,0
28,29,0,0,0,0,0,0,0,0,0,-1,1252,995,0,0
35,29,0,0,0,0,0,0,0,0,0,-1,1259,995,0,0
42,29,0,0,0,0,0,0,0,0,0,-1,1266,995,0,0
49,29,0,0,0,0,0,0,0,0,0,-1,1273,995,0,0
56,29,0,0,0,0,0,0,0,0,0,-1,1280,995,0,0
63,29,0,0,0,0,0,0,0,0,0,-1,1287,995,0,0
70,29,0,0,0,0,0,0,0,0,0,-1,1294,995,0,0
77,29,0,0,0,0,0,0,0,0,0,-1,1301,995,0,0
84,29,0,0,0,0,0,0,0,0,0,-1,1308,995,0,0
91,29,0,0,0,0,0,0,0,0,0,-1,1315,995,0,0
98,29,0,0,0,0,0,0,0,0,0,-1,1322,995,0,0
105,29,0,0,0,0,0,0,0,0,0,-1,1329,995,0,0
112,29,0,0,0,0,0,0,0,0,0,-1,1336,995,0,0
119,29,0,0,0,0,0,0,0,0,0,-1,1343,995,0,0
126,29,0,0,0,0,0,0,0,0,0,-1,1350,995,0,0
133,29,0,0,0,0,0,0,0,0,0,-1,1357,995,0,0
140,29,0,0,0,0,0,0,0,0,0,-1,1364,995,0,0
147,29,0,0,0,0,0,0,0,0,0,-1,1371,995,0,0
154,29,0,0,0,0,0,0,0,0,0,-1,1378,995,0,0
161,29,0,0,0,0,0,0,0,0,0,-1,1385,995,0,0
168,29,0,0,0,0,0,0,0,0,0,-1,1392,995,0,0
175,29,0,0,0,0,0,0,0,0,0,-1,1399,995,0,0
182,29,0,0,0,0,0,0,0,0,0,-1,1406,995,0,0
189,29,0,0,0,0,0,0,0,0,0,-1,1413,995,0,0
196,29,0,0,0,0,0,0,0,0,0,-1,1420,995,0,0
203,29,0,0,0,0,0,0,0,0,0,-1,1427,995,0,0
210,29,0,0,0,0,0,0,0,0,0,-1,1434,995,0,0
217,29,0,0,0,0,0,0,0,0,0,-1,1441,995,0,0
224,29,0,0,0,0,0,0,0,0,0,-1,1448,995,0,0
231,29,0,0,0,0,0,0,0,0,0,-1,1455,995,0,0
238,29,0,0,0,0,0,0,0,0,0,-1,1462,995,0,0
245,29,0,0,0,0,0,0,0,0,0,-1,1469,995,0,0
252,29,0,0,0,0,0,0,0,0,0,-1,1476,995,0,0
259,29,0,0,0,0,0,0,0,0,0,-1,1483,995,0,0
266,29,0,0,0,0,0,0,0,0,0,-1,1490,995,0,0
273,29,0,0,0,0,0,0,0,0,0,-1,1497,995,0,0
280,29,0,0,0,0,0,0,0,0,0,-1,1504,995,0,0
287,29,0,0,0,0,0,0,0,0,0,-1,1511,995,0,0
294,29,0,0,0,0,0,0,0,0,0,-1,1518,995,0,0
301,29,0,0,0,0,0,0,0,0,0,-1,1525,995,0,0
308,29,0,0,0,0,0,0,0,0,0,-1,1532,995,0,0
315,29,0,0,0,0,0,0,0,0,0,-1,1539,995,0,0
322,29,0,0,0,0,0,0,0,0,0,-1,1546,995,0,0
329,29,0,0,0,0,0,0,0,0,0,-1,1553,995,0,0
336,29,0,0,0,0,0,0,0,0,0,-1,1560,995,0,0
343,29,0,0,0,0,0,0,0,0,0,-1,1567,995,0,0
350,29,0,0,0,0,0,0,0,0,0,-1,1574,995,0,0
357,29,0,0,0,0,0,0,0,0,0,-1,1581,995,0,0
364,29,0,0,0,0,0,0,0,0,0,-1,1588,995,0,0
371,29,0,0,0,0,0,0,0,0,0,-1,1595,995,0,0
378,29,0,0,0,0,0,0,0,0,0,-1,1602,995,0,0
385,29,0,0,0,0,0,0,0,0,0,-1,1609,995,0,0
392,29,0,0,0,0,0,0,0,0,0,-1,1616,995,0,0
399,29,0,0,0,0,0,0,0,0,0,-1,1623,995,0,0
406,29,0,0,0,0,0,0,0,0,0,-1,1630,995,0,0
413,29,0,0,0,0,0,0,0,0,0,-1,1637,995,0,0
420,29,0,0,0,0,0,0,0,0,0,-1,1644,995,0,0
427,29,0,0,0,0,0,0,0,0,0,-1,1651,995,0,0
434,29,0,0,0,0,0,0,0,0,0,-1,1658,995,0,0
441,29,0,0,0,0,0,0,0,0,0,-1,1665,995,0,0
448,29,0,0,0,0,0,0,0,0,0,-1,1672,995,0,0
455,29,0,0,0,0,0,0,0,0,0,-1,1679,995,0,0
462,29,0,0,0,0,0,0,0,0,0,-1,1686,995,0,0
469,29,0,0,0,0,0,0,0,0,0,-1,1693,995,0,0
476,29,0,0,0,0,0,0,0,0,0,-1,1700,995,0,0
483,29,0,0,0,0,0,0,0,0,0,-1,1707,995,0,0
490,29,0,0,0,0,0,0,0,0,0,-1,1714,995,0,0
497,29,0,0,0,0,0,0,0,0,0,-1,1721,995,0,0
504,29,0,0,0,0,0,0,0,0,0,-1,1728,995,0,0
511,29,0,0,0,0,0,0,0,0,0,-1,1735,995,0,0
518,29,0,0,0,0,0,0,0,0,0,-1,1742,995,0,0
525,29,0,0,0,0,0,0,0,0,0,-1,1749,995,0,0
532,29,0,0,0,0,0,0,0,0,0,-1,1756,995,0,0
539,29,0,0,0,0,0,0,0,0,0,-1,1763,995,0,0
546,29,0,0,0,0,0,0,0,0,0,-1,1770,995,0,0
553,29,0,0,0,0,0,0,0,0,0,-1,1777,995,0,0
560,29,0,0,0,0,0,0,0,0,0,-1,1784,995,0,0
567,29,0,0,0,0,0,0,0,0,0,-1,1791,995,0,0
574,29,0,0,0,0,0,0,0,0,0,-1,1798,995,0,0
581,29,0,0,0,0,0,0,0,0,0,-1,1805,995,0,0
588,29,0,0,0,0,0,0,0,0,0,-1,1812,995,0,0
595,29,0,0,0,0,0,0,0,0,0,-1,1819,995,0,0
602,29,0,0,0,0,0,0,0,0,0,-1,1826,995,0,0
609,29,0,0,0,0,0,0,0,0,0,-1,1833,995,0,0
616,29,0,0,0,0,0,0,0,0,0,-1,1840,995,0,0
623,29,0,0,0,0,0,0,0,0,0,-1,1847,995,0,0
630,29,0,0,0,0,0,0,0,0,0,-1,1854,995,0,0
637,29,0,0,0,0,0,0,0,0,0,-1,1861,995,0,0
644,29,-0.0405273,0.0247803,-0.000951712,-0.000396854,0.00316762,0.00250546,-0.00385403,0.829078,0.00369907,0.0393951,1868,995,-0.0405043,-0.024752
651,29,-0.0627441,0.0158081,-0.000536016,-0.000174341,0.00205472,0.00170749,-0.00241785,0.82929,0.0023935,0.0395358,1875,995,-0.0627385,-0.0158029
658,29,0.0147705,0.127869,-0.00043562,-6.49223e-05,0.00123609,0.000999633,-0.00150018,0.859818,0.00145288,0.0379393,1882,995,0.0147832,-0.127854
665,29,-0.00012207,0.26947,-0.000422635,-1.65109e-05,0.000617214,0.000430186,-0.000869332,0.94432,0.000764424,0.0349746,1889,995,-0.000177457,-0.269458
672,29,-0.111938,0.0623169,-0.000432987,-9.49839e-06,0.000180885,5.72442e-05,-0.000499729,1.21731,0.000353781,0.0323542,1896,995,-0.111956,-0.0623225
679,29,-0.0787354,-0.0667725,-0.000466527,-2.64624e-05,-8.38274e-05,-1.1035e-05,-0.000481954,-1.3888,0.000317688,0.0324193,1903,995,-0.0787433,0.0667889
686,29,-0.0201416,-0.0597534,-0.000486552,-5.17802e-05,-0.000224879,4.36073e-05,-0.000581939,-1.16963,0.000403282,0.0328838,1910,995,-0.0200918,0.0597549
693,29,-0.0452881,-0.0272217,-0.000452719,-8.40035e-05,-0.000273871,6.17799e-05,-0.000598502,-1.08164,0.000421108,0.0347623,1917,995,-0.0452429,0.0272467
700,29,-0.088501,-0.0338135,-0.000341223,-7.52534e-05,-0.000321928,0.000140076,-0.000556552,-0.981268,0.000425483,0.030313,1924,995,-0.0884808,0.033789
707,29,-0.116699,-0.0683594,-0.000351082,-7.64877e-05,-0.000326321,0.000140243,-0.000567813,-0.984528,0.000432929,0.0163449,1931,995,-0.11674,0.0683878
714,29,-0.0715332,-0.0809326,-0.000401404,-0.000104599,-0.000281548,6.52635e-05,-0.000571266,-1.02794,0.000404358,0.012384,1938,995,-0.0714983,0.0809469
721,29,-0.0688477,-0.0875244,-0.000349754,-9.47631e-05,-0.000114091,-5.11684e-05,-0.000393349,-1.20581,0.00024695,0.0162733,1945,995,-0.068842,0.0875447
728,29,-0.0717773,-0.0720825,-0.000161058,-9.08055e-05,7.50638e-05,-4.30558e-05,-0.000208808,1.00424,0.000127304,0.015431,1952,995,-0.0717229,0.0720797
735,29,-0.09021,-0.0534058,0.000129764,-0.000128487,0.000158486,0.000205067,-0.000203791,0.443564,0.000236055,0.0138804,1959,995,-0.0902097,0.0533787
742,29,-0.0880127,-0.0604248,0.000210478,-4.83248e-05,0.000185727,0.000307437,-0.000145285,0.481135,0.000266909,0.0115289,1966,995,-0.0880225,0.0604452
749,29,-0.0778809,-0.0532837,-0.000290548,-0.000201183,0.00044827,0.000204626,-0.000696357,0.835073,0.000545396,0.012074,1973,995,-0.0779121,0.0532803
756,29,-0.0718994,-0.0337524,-0.00099402,0.000162872,0.000929236,0.000678994,-0.00151014,1.0638,0.00129391,0.0109589,1980,995,-0.0718552,0.0337373
763,29,-0.0610352,-0.0391235,-0.00178869,0.000440957,0.00163123,0.00130192,-0.00264965,1.08516,0.00232525,0.0105625,1987,995,-0.0609767,0.0391428
770,29,-0.0787354,-0.0418701,-0.00289548,0.000739908,0.00236634,0.0019061,-0.00406168,1.1129,0.00351962,0.0119308,1994,995,-0.0786816,0.0418972
777,29,-0.0588379,0.00622559,-0.00444021,0.00119393,0.00336365,0.00276434,-0.00601062,1.134,0.0051805,0.0207482,2001,995,-0.0588731,-0.00623364
784,29,0.0145264,0.256897,-0.00652916,0.00185756,0.00471641,0.0039752,-0.0086468,1.14878,0.00745184,0.0392813,2008,995,0.0145679,-0.256881
791,29,0.115112,0.492676,-0.00925416,0.00280209,0.00651631,0.00565093,-0.012103,1.15865,0.0104734,0.0392754,2015,995,0.115114,-0.492668
798,29,-0.128052,0.576172,-0.0126384,0.00410725,0.00883667,0.0079078,-0.0164389,1.16462,0.0143413,0.04015,2022,995,-0.127994,-0.576153
805,29,-0.445313,0.668701,-0.0166955,0.00587709,0.0117874,0.0109102,-0.0217286,1.16724,0.0191859,0.0456385,2029,995,-0.44532,-0.668723
812,29,-0.481567,1.12653,-0.0214719,0.00825551,0.0155114,0.0148751,-0.0280915,1.16744,0.025195,0.047266,2036,995,-0.481624,-1.12653
-700,22,0,0,0,0,0,0,0,0,0,-1,524,1002,0,0
-693,22,-0.615356,-1.66187,0,0,0,0,0,0,0,-1,531,1002,-0.615384,1.66187
-686,22,-0.305908,-1.4787,0,0,0,0,0,0,0,-1,538,1002,-0.305918,1.4787
-679,22,0.1651,-1.52502,0.0421196,0.0338794,-0.0214125,0.0598047,0.0161942,-0.690352,0.0357172,0.0445647,545,1002,0.165099,1.52503
-672,22,0.15686,-0.914917,0.0299836,0.0259732,-0.0166371,0.0447359,0.011221,-0.725423,0.0268761,0.0425777,552,1002,0.15684,0.914897
-665,22,0.623108,0.366455,0,0,0,0,0,0,0,-1,559,1002,0.623079,-0.366446
-658,22,0.426208,0.239258,0.0133051,0.0141298,-0.00948785,0.0232142,0.00422063,-0.807115,0.0142787,0.0434832,566,1002,0.426237,-0.239272
-651,22,0.166931,0.115356,0.00810152,0.00998651,-0.00694751,0.0160552,0.00203287,-0.852817,0.0100943,0.0338774,573,1002,0.166957,-0.11537
-644,22,-0.0476074,-0.0285034,0.00450735,0.00683589,-0.00497272,0.0107788,0.000564425,-0.900392,0.00700532,0.0145688,580,1002,-0.0475961,0.0285
-637,22,-0.0507202,-0.0422363,0.0019485,0.00464459,-0.003368,0.0069243,-0.000331216,-0.975759,0.00473047,0.0101369,587,1002,-0.0507435,0.0422213
-630,22,-0.0661621,-0.0372314,-0.000204479,0.00193708,-0.00170022,0.00287561,-0.00114301,-1.06642,0.00239095,0.00929783,594,1002,-0.0661411,0.037248
-623,22,-0.0707397,-0.0430908,-0.00156128,0.000893969,-0.000958802,0.00122402,-0.00189133,-1.23927,0.00181235,0.0087705,601,1002,-0.0707424,0.0430988
-616,22,-0.0924072,-0.0401611,-0.00145896,0.000296362,-0.000720743,0.000554376,-0.00171698,-1.22703,0.00136743,0.0144564,608,1002,-0.0924065,0.0401883
-609,22,-0.0720825,-0.0395508,-0.000717731,0.000131719,-0.000366785,0.000268173,-0.000854185,-1.21463,0.000676796,0.0232365,615,1002,-0.072108,0.0395783
-602,22,-0.0328369,-0.0588379,-0.000232888,-0.000137103,-0.000144674,-3.26001e-05,-0.000337391,-0.94524,0.000214886,0.023051,622,1002,-0.0328667,0.0588106
-595,22,-0.0548096,-0.0321655,0.000128453,-0.000258943,-4.057e-05,0.000132656,-0.000263146,-0.103233,0.000232619,0.0201695,629,1002,-0.0548289,0.0321354
-588,22,-0.0722046,-0.0448608,0.000591407,-0.000355136,-5.44214e-05,0.000594526,-0.000358254,-0.0572435,0.000555697,0.0240427,636,1002,-0.0721973,0.0448716
-581,22,-0.0819702,-0.131531,0.000921654,-0.000448475,-9.11967e-05,0.000927698,-0.000454518,-0.0661716,0.00081346,0.034715,643,1002,-0.0820005,0.131537
-574,22,-0.0471191,-0.138306,0.00114953,-0.000578199,-0.000106269,0.00115604,-0.000584711,-0.0612006,0.00102291,0.0319479,650,1002,-0.0471135,0.138281
-567,22,-0.0480957,-0.0877075,0.00153752,-0.00071513,-0.000182332,0.00155218,-0.000729793,-0.0802451,0.00134572,0.0302673,657,1002,-0.0480829,0.0877228
-560,22,-0.0805664,-0.0505371,0.00195911,-0.000875677,-0.000309092,0.00199242,-0.000908987,-0.107355,0.00171361,0.0337822,664,1002,-0.0805414,0.0505664
-553,22,-0.147461,0.0557251,0.00243128,-0.00106179,-0.000478766,0.00249571,-0.00112623,-0.133775,0.00214037,0.0361794,671,1002,-0.147455,-0.0557349
-546,22,-0.106567,0.141357,0.00288423,-0.00127576,-0.000685753,0.00299436,-0.00138589,-0.159234,0.00258515,0.038601,678,1002,-0.106539,-0.141356
-539,22,-0.0814209,0.0170898,0.00317635,-0.00153332,-0.000901845,0.00334314,-0.0017001,-0.182873,0.00296278,0.0380844,685,1002,-0.0814442,-0.0170846
-532,22,-0.0057373,-0.0790405,0.00323982,-0.00184306,-0.00103603,0.00344288,-0.00204612,-0.193543,0.00320309,0.0391074,692,1002,-0.0057345,0.079038
-525,22,0,0,0,0,0,0,0,0,0,-1,699,1002,0,0
-518,22,0,0,0,0,0,0,0,0,0,-1,706,1002,0,0
-511,22,0,0,0,0,0,0,0,0,0,-1,713,1002,0,0
-504,22,0,0,0,0,0,0,0,0,0,-1,720,1002,0,0
-497,22,0,0,0,0,0,0,0,0,0,-1,727,1002,0,0
-490,22,0,0,0,0,0,0,0,0,0,-1,734,1002,0,0
-483,22,0,0,0,0,0,0,0,0,0,-1,741,1002,0,0
-476,22,0,0,0,0,0,0,0,0,0,-1,748,1002,0,0
-469,22,0,0,0,0,0,0,0,0,0,-1,755,1002,0,0
-462,22,0,0,0,0,0,0,0,0,0,-1,762,1002,0,0
-455,22,0,0,0,0,0,0,0,0,0,-1,769,1002,0,0
-448,22,0,0,0,0,0,0,0,0,0,-1,776,1002,0,0
-441,22,0,0,0,0,0,0,0,0,0,-1,783,1002,0,0
-434,22,0,0,0,0,0,0,0,0,0,-1,790,1002,0,0
-427,22,0,0,0,0,0,0,0,0,0,-1,797,1002,0,0
-420,22,0,0,0,0,0,0,0,0,0,-1,804,1002,0,0
-413,22,0,0,0,0,0,0,0,0,0,-1,811,1002,0,0
-406,22,0,0,0,0,0,0,0,0,0,-1,818,1002,0,0
-399,22,0,0,0,0,0,0,0,0,0,-1,825,1002,0,0
-392,22,0,0,0,0,0,0,0,0,0,-1,832,1002,0,0
-385,22,0,0,0,0,0,0,0,0,0,-1,839,1002,0,0
-378,22,0,0,0,0,0,0,0,0,0,-1,846,1002,0,0
-371,22,0,0,0,0,0,0,0,0,0,-1,853,1002,0,0
-364,22,0,0,0,0,0,0,0,0,0,-1,860,1002,0,0
-357,22,0,0,0,0,0,0,0,0,0,-1,867,1002,0,0
-350,22,0,0,0,0,0,0,0,0,0,-1,874,1002,0,0
-343,22,0,0,0,0,0,0,0,0,0,-1,881,1002,0,0
-336,22,0,0,0,0,0,0,0,0,0,-1,888,1002,0,0
-329,22,0,0,0,0,0,0,0,0,0,-1,895,1002,0,0
-322,22,0,0,0,0,0,0,0,0,0,-1,902,1002,0,0
-315,22,0,0,0,0,0,0,0,0,0,-1,909,1002,0,0
-308,22,0,0,0,0,0,0,0,0,0,-1,916,1002,0,0
-301,22,0,0,0,0,0,0,0,0,0,-1,923,1002,0,0
-294,22,0,0,0,0,0,0,0,0,0,-1,930,1002,0,0
-287,22,0,0,0,0,0,0,0,0,0,-1,937,1002,0,0
-280,22,0,0,0,0,0,0,0,0,0,-1,944,1002,0,0
-273,22,0,0,0,0,0,0,0,0,0,-1,951,1002,0,0
-266,22,0,0,0,0,0,0,0,0,0,-1,958,1002,0,0
-259,22,0,0,0,0,0,0,0,0,0,-1,965,1002,0,0
-252,22,0,0,0,0,0,0,0,0,0,-1,972,1002,0,0
-245,22,0,0,0,0,0,0,0,0,0,-1,979,1002,0,0
-238,22,0,0,0,0,0,0,0,0,0,-1,986,1002,0,0
-231,22,0,0,0,0,0,0,0,0,0,-1,993,1002,0,0
-224,22,0,0,0,0,0,0,0,0,0,-1,1000,1002,0,0
-217,22,0,0,0,0,0,0,0,0,0,-1,1007,1002,0,0
-210,22,0,0,0,0,0,0,0,0,0,-1,1014,1002,0,0
-203,22,0,0,0,0,0,0,0,0,0,-1,1021,1002,0,0
-196,22,0,0,0,0,0,0,0,0,0,-1,1028,1002,0,0
-189,22,0,0,0,0,0,0,0,0,0,-1,1035,1002,0,0
-182,22,0,0,0,0,0,0,0,0,0,-1,1042,1002,0,0
-175,22,0,0,0,0,0,0,0,0,0,-1,1049,1002,0,0
-168,22,0,0,0,0,0,0,0,0,0,-1,1056,1002,0,0
-161,22,0,0,0,0,0,0,0,0,0,-1,1063,1002,0,0
-154,22,0,0,0,0,0,0,0,0,0,-1,1070,1002,0,0
-147,22,0,0,0,0,0,0,0,0,0,-1,1077,1002,0,0
-140,22,0,0,0,0,0,0,0,0,0,-1,1084,1002,0,0
-133,22,0,0,0,0,0,0,0,0,0,-1,1091,1002,0,0
-126,22,0,0,0,0,0,0,0,0,0,-1,1098,1002,0,0
-119,22,0,0,0,0,0,0,0,0,0,-1,1105,1002,0,0
-112,22,0,0,0,0,0,0,0,0,0,-1,1112,1002,0,0
-105,22,0,0,0,0,0,0,0,0,0,-1,1119,1002,0,0
-98,22,0,0,0,0,0,0,0,0,0,-1,1126,1002,0,0
-91,22,0,0,0,0,0,0,0,0,0,-1,1133,1002,0,0
-84,22,0,0,0,0,0,0,0,0,0,-1,1140,1002,0,0
-77,22,0,0,0,0,0,0,0,0,0,-1,1147,1002,0,0
-70,22,0,0,0,0,0,0,0,0,0,-1,1154,1002,0,0
-63,22,0,0,0,0,0,0,0,0,0,-1,1161,1002,0,0
-56,22,0,0,0,0,0,0,0,0,0,-1,1168,1002,0,0
-49,22,0,0,0,0,0,0,0,0,0,-1,1175,1002,0,0
-42,22,0,0,0,0,0,0,0,0,0,-1,1182,1002,0,0
-35,22,0,0,0,0,0,0,0,0,0,-1,1189,1002,0,0
-28,22,0,0,0,0,0,0,0,0,0,-1,1196,1002,0,0
-21,22,0,0,0,0,0,0,0,0,0,-1,1203,1002,0,0
-14,22,0,0,0,0,0,0,0,0,0,-1,1210,1002,0,0
-7,22,0,0,0,0,0,0,0,0,0,-1,1217,1002,0,0
0,22,0,0,0,0,0,0,0,0,0,-1,1224,1002,0,0
7,22,0,0,0,0,0,0,0,0,0,-1,1231,1002,0,0
14,22,0,0,0,0,0,0,0,0,0,-1,1238,1002,0,0
21,22,0,0,0,0,0,0,0,0,0,-1,1245,1002,0,0
28,22,0,0,0,0,0,0,0,0,0,-1,1252,1002,0,0
35,22,0,0,0,0,0,0,0,0,0,-1,1259,1002,0,0
42,22,0,0,0,0,0,0,0,0,0,-1,1266,1002,0,0
49,22,0,0,0,0,0,0,0,0,0,-1,1273,1002,0,0
56,22,0,0,0,0,0,0,0,0,0,-1,1280,1002,0,0
63,22,0,0,0,0,0,0,0,0,0,-1,1287,1002,0,0
70,22,0,0,0,0,0,0,0,0,0,-1,1294,1002,0,0
77,22,0,0,0,0,0,0,0,0,0,-1,1301,1002,0,0
84,22,0,0,0,0,0,0,0,0,0,-1,1308,1002,0,0
91,22,0,0,0,0,0,0,0,0,0,-1,1315,1002,0,0
98,22,0,0,0,0,0,0,0,0,0,-1,1322,1002,0,0
105,22,0,0,0,0,0,0,0,0,0,-1,1329,1002,0,0
112,22,0,0,0,0,0,0,0,0,0,-1,1336,1002,0,0
119,22,0,0,0,0,0,0,0,0,0,-1,1343,1002,0,0
126,22,0,0,0,0,0,0,0,0,0,-1,1350,1002,0,0
133,22,0,0,0,0,0,0,0,0,0,-1,1357,1002,0,0
140,22,0,0,0,0,0,0,0,0,0,-1,1364,1002,0,0
147,22,0,0,0,0,0,0,0,0,0,-1,1371,1002,0,0
154,22,0,0,0,0,0,0,0,0,0,-1,1378,1002,0,0
161,22,0,0,0,0,0,0,0,0,0,-1,1385,1002,0,0
168,22,0,0,0,0,0,0,0,0,0,-1,1392,1002,0,0
175,22,0,0,0,0,0,0,0,0,0,-1,1399,1002,0,0
182,22,0,0,0,0,0,0,0,0,0,-1,1406,1002,0,0
189,22,0,0,0,0,0,0,0,0,0,-1,1413,1002,0,0
196,22,0,0,0,0,0,0,0,0,0,-1,1420,1002,0,0
203,22,0,0,0,0,0,0,0,0,0,-1,1427,1002,0,0
210,22,0,0,0,0,0,0,0,0,0,-1,1434,1002,0,0
217,22,0,0,0,0,0,0,0,0,0,-1,1441,1002,0,0
224,22,0,0,0,0,0,0,0,0,0,-1,1448,1002,0,0
231,22,0,0,0,0,0,0,0,0,0,-1,1455,1002,0,0
238,22,0,0,0,0,0,0,0,0,0,-1,1462,1002,0,0
245,22,0,0,0,0,0,0,0,0,0,-1,1469,1002,0,0
252,22,0,0,0,0,0,0,0,0,0,-1,1476,1002,0,0
259,22,0,0,0,0,0,0,0,0,0,-1,1483,1002,0,0
266,22,0,0,0,0,0,0,0,0,0,-1,1490,1002,0,0
273,22,0,0,0,0,0,0,0,0,0,-1,1497,1002,0,0
280,22,0,0,0,0,0,0,0,0,0,-1,1504,1002,0,0
287,22,0,0,0,0,0,0,0,0,0,-1,1511,1002,0,0
294,22,0,0,0,0,0,0,0,0,0,-1,1518,1002,0,0
301,22,0,0,0,0,0,0,0,0,0,-1,1525,1002,0,0
308,22,0,0,0,0,0,0,0,0,0,-1,1532,1002,0,0
315,22,0,0,0,0,0,0,0,0,0,-1,1539,1002,0,0
322,22,0,0,0,0,0,0,0,0,0,-1,1546,1002,0,0
329,22,0,0,0,0,0,0,0,0,0,-1,1553,1002,0,0
336,22,0,0,0,0,0,0,0,0,0,-1,1560,1002,0,0
343,22,0,0,0,0,0,0,0,0,0,-1,1567,1002,0,0
350,22,0,0,0,0,0,0,0,0,0,-1,1574,1002,0,0
357,22,0,0,0,0,0,0,0,0,0,-1,1581,1002,0,0
364,22,0,0,0,0,0,0,0,0,0,-1,1588,1002,0,0
371,22,0,0,0,0,0,0,0,0,0,-1,1595,1002,0,0
378,22,0,0,0,0,0,0,0,0,0,-1,1602,1002,0,0
385,22,0,0,0,0,0,0,0,0,0,-1,1609,1002,0,0
392,22,0,0,0,0,0,0,0,0,0,-1,1616,1002,0,0
399,22,0,0,0,0,0,0,0,0,0,-1,1623,1002,0,0
406,22,0,0,0,0,0,0,0,0,0,-1,1630,1002,0,0
413,22,0,0,0,0,0,0,0,0,0,-1,1637,1002,0,0
420,22,0,0,0,0,0,0,0,0,0,-1,1644,1002,0,0
427,22,0,0,0,0,0,0,0,0,0,-1,1651,1002,0,0
434,22,0,0,0,0,0,0,0,0,0,-1,1658,1002,0,0
441,22,0,0,0,0,0,0,0,0,0,-1,1665,1002,0,0
448,22,0,0,0,0,0,0,0,0,0,-1,1672,1002,0,0
455,22,0,0,0,0,0,0,0,0,0,-1,1679,1002,0,0
462,22,0,0,0,0,0,0,0,0,0,-1,1686,1002,0,0
469,22,0,0,0,0,0,0,0,0,0,-1,1693,1002,0,0
476,22,0,0,0,0,0,0,0,0,0,-1,1700,1002,0,0
483,22,0,0,0,0,0,0,0,0,0,-1,1707,1002,0,0
490,22,0,0,0,0,0,0,0,0,0,-1,1714,1002,0,0
497,22,0,0,0,0,0,0,0,0,0,-1,1721,1002,0,0
504,22,0,0,0,0,0,0,0,0,0,-1,1728,1002,0,0
511,22,0,0,0,0,0,0,0,0,0,-1,1735,1002,0,0
518,22,0,0,0,0,0,0,0,0,0,-1,1742,1002,0,0
525,22,0,0,0,0,0,0,0,0,0,-1,1749,1002,0,0
532,22,0,0,0,0,0,0,0,0,0,-1,1756,1002,0,0
539,22,0,0,0,0,0,0,0,0,0,-1,1763,1002,0,0
546,22,0,0,0,0,0,0,0,0,0,-1,1770,1002,0,0
553,22,0,0,0,0,0,0,0,0,0,-1,1777,1002,0,0
560,22,0,0,0,0,0,0,0,0,0,-1,1784,1002,0,0
567,22,0,0,0,0,0,0,0,0,0,-1,1791,1002,0,0
574,22,0,0,0,0,0,0,0,0,0,-1,1798,1002,0,0
581,22,0,0,0,0,0,0,0,0,0,-1,1805,1002,0,0
588,22,0,0,0,0,0,0,0,0,0,-1,1812,1002,0,0
595,22,0,0,0,0,0,0,0,0,0,-1,1819,1002,0,0
602,22,0,0,0,0,0,0,0,0,0,-1,1826,1002,0,0
609,22,0,0,0,0,0,0,0,0,0,-1,1833,1002,0,0
616,22,0,0,0,0,0,0,0,0,0,-1,1840,1002,0,0
623,22,0,0,0,0,0,0,0,0,0,-1,1847,1002,0,0
630,22,0,0,0,0,0,0,0,0,0,-1,1854,1002,0,0
637,22,0,0,0,0,0,0,0,0,0,-1,1861,1002,0,0
644,22,-0.119385,-0.0856934,-0.000490833,-0.000257691,0.0029065,0.00253458,-0.0032831,0.805441,0.00336809,0.0368538,1868,1002,-0.11936,0.0856842
651,22,-0.0931396,-0.0438232,-0.000250286,-4.47972e-05,0.00182063,0.00167599,-0.00197107,0.813585,0.00210792,0.0389784,1875,1002,-0.093173,0.0438499
658,22,0.0153809,0.0666504,-0.000262189,5.03626e-05,0.00103354,0.000939376,-0.0011512,0.860432,0.00120906,0.0375336,1882,1002,0.0154001,-0.0666542
665,22,-0.0648193,0.22113,-0.000326448,7.6086e-05,0.000453663,0.000371124,-0.000621486,0.994178,0.000579128,0.0357329,1889,1002,-0.0647978,-0.221156
672,22,-0.141724,0.0889893,-0.000386392,5.67786e-05,5.62391e-05,6.3804e-05,-0.000393417,1.44652,0.000285929,0.0334927,1896,1002,-0.14173,-0.088977
679,22,-0.0909424,-0.0418701,-0.000455606,1.28273e-05,-0.000175904,7.15267e-05,-0.000514306,-1.24872,0.000369031,0.0316924,1903,1002,-0.0909562,0.0418583
686,22,0.00744629,-0.0108643,-0.000502463,-3.39938e-05,-0.00029058,0.000105004,-0.000641461,-1.12462,0.000466597,0.0340715,1910,1002,0.00743055,0.0108644
693,22,-0.0253906,0.0232544,-0.000496199,-7.93397e-05,-0.00032576,9.8964e-05,-0.000674502,-1.06999,0.000486026,0.0353557,1917,1002,-0.0254295,-0.0232739
700,22,-0.0777588,0.00592041,-0.00040516,-9.06877e-05,-0.000360577,0.000145445,-0.000641293,-0.991002,0.000483361,0.0292458,1924,1002,-0.0778001,-0.0058916
707,22,-0.107056,-0.0151367,-0.000418305,-9.23163e-05,-0.000341272,0.000122888,-0.000633509,-1.00818,0.000468703,0.0206742,1931,1002,-0.10708,0.0151336
714,22,-0.0742188,-0.0401611,-0.000457073,-0.000127146,-0.000291843,4.31299e-05,-0.000627348,-1.04264,0.000433325,0.012952,1938,1002,-0.0742252,0.0401656
721,22,-0.0649414,-0.0552368,-0.000391222,-0.000131295,-0.000127915,-7.89049e-05,-0.000443612,-1.18207,0.000273264,0.013196,1945,1002,-0.0648807,0.0552143
728,22,-0.0871582,-0.064209,-0.00021109,-0.00013199,7.94365e-05,-8.28027e-05,-0.000260278,1.01637,0.000153549,0.0140181,1952,1002,-0.087206,0.06421
735,22,-0.0986328,-0.0397339,9.85598e-05,-0.000162243,0.000182664,0.000192592,-0.000256275,0.475405,0.000260022,0.0142016,1959,1002,-0.0986234,0.039744
742,22,-0.0698242,-0.0383911,0.000277487,-5.34129e-05,0.00021338,0.000382046,-0.000157972,0.455625,0.000320602,0.0143406,1966,1002,-0.0698188,0.0383755
749,22,-0.0651855,-0.0357056,9.06519e-05,-0.000250343,0.000565329,0.000510634,-0.000670326,0.638941,0.000683902,0.0113647,1973,1002,-0.0652247,0.0356929
756,22,-0.0632324,-0.0460815,-0.000226678,-7.09596e-05,0.00109752,0.000951455,-0.00124909,0.82081,0.00127435,0.0152448,1980,1002,-0.0632882,0.0461051
763,22,-0.0842285,-0.0336304,-0.000731349,6.664e-05,0.00177122,0.00148325,-0.00214796,0.896182,0.00210815,0.016363,1987,1002,-0.0841871,0.0336243
770,22,-0.0794678,-0.0456543,-0.00137852,0.000178677,0.00252072,0.0020383,-0.00323814,0.93519,0.0030725,0.010784,1994,1002,-0.079474,0.0456668
777,22,-0.0718994,-0.00714111,-0.00235188,0.000373662,0.00350577,0.00277222,-0.00475044,0.970771,0.00439298,0.0184959,2001,1002,-0.0718743,0.00712763
784,22,0.00439453,0.114258,-0.00376694,0.000692335,0.0047981,0.00375354,-0.00682814,1.0029,0.0061947,0.0407257,2008,1002,0.00442589,-0.114247
791,22,0.0710449,0.398132,-0.00573581,0.00119464,0.00646047,0.00506054,-0.00960171,1.03156,0.00859953,0.0460348,2015,1002,0.0710819,-0.398157
798,22,-0.174927,0.677429,-0.00831616,0.00195535,0.00852776,0.00677442,-0.0131352,1.05643,0.0116888,0.0454756,2022,1002,-0.17495,-0.677403
805,22,-0.562256,1.36957,-0.0115777,0.00306956,0.0110483,0.00900117,-0.0175093,1.07808,0.0155663,0.0447906,2029,1002,-0.562311,-1.36954
812,22,-0.88623,1.79785,-0.0156744,0.00467671,0.0140741,0.0118684,-0.0228661,1.0984,0.0203863,0.0439612,2036,1002,-0.886272,-1.79782
-700,15,0,0,0,0,0,0,0,0,0,-1,524,1009,0,0
-693,15,0.217529,-1.82159,0,0,0,0,0,0,0,-1,531,1009,0.217527,1.8216
-686,15,-0.589417,2.69574,0.0534992,0.0383049,-0.0321569,0.0789443,0.0128599,-0.669399,0.0489097,0.0436434,538,1009,-0.589413,-2.69572
-679,15,0.811707,-1.5799,0.0397129,0.0301524,-0.025337,0.0607167,0.00914866,-0.69216,0.0377991,0.0493881,545,1009,0.811717,1.57991
-672,15,0.802673,0.409241,0,0,0,0,0,0,0,-1,552,1009,0.802695,-0.409236
-665,15,0.531128,0.25531,0.0195545,0.017379,-0.0148294,0.0333359,0.00359751,-0.748788,0.0211271,0.0459477,559,1009,0.531152,-0.255282
-658,15,0.318542,0.140869,0.0127929,0.0126822,-0.0109863,0.023724,0.00175111,-0.782879,0.0152658,0.0417705,566,1009,0.318559,-0.140878
-651,15,-0.0606079,0.0375366,0.00783515,0.00898968,-0.00795812,0.0163914,0.000433383,-0.821604,0.0107861,0.0312433,573,1009,-0.0606261,-0.0375641
-644,15,-0.0582886,-0.0366821,0.00438413,0.00617104,-0.00562725,0.0109753,-0.000420155,-0.864128,0.00746088,0.0136637,580,1009,-0.0582822,0.0366673
-637,15,-0.0670166,-0.0322876,0.0019981,0.00427942,-0.00379589,0.00710233,-0.000824812,-0.931355,0.00503241,0.0102966,587,1009,-0.0670309,0.0322887
-630,15,-0.0693359,-0.0453491,-0.00014442,0.00167905,-0.00183603,0.00281726,-0.00128263,-1.01585,0.00242172,0.00853436,594,1009,-0.0693352,0.0453791
-623,15,-0.0752563,-0.0490112,-0.00151033,0.000843603,-0.000945465,0.00117632,-0.00184305,-1.23242,0.00175734,0.00736127,601,1009,-0.0752463,0.04902
-616,15,-0.0968018,-0.0488892,-0.00141928,0.000238695,-0.000685534,0.000485429,-0.00166601,-1.22532,0.00130298,0.0116014,608,1009,-0.096816,0.0488706
-609,15,-0.0622559,-0.0430298,-0.000791124,8.49013e-05,-0.000330008,0.000195305,-0.000901527,-1.24795,0.000675596,0.0194556,615,1009,-0.0622633,0.0430568
-602,15,-0.0549316,-0.039856,-0.000293821,-0.000167666,-8.10545e-05,-0.000128037,-0.00033345,-1.11606,0.000194238,0.0196826,622,1009,-0.0549045,0.0398344
-595,15,-0.0769043,-0.0548096,8.9072e-05,-0.000280358,3.40282e-05,9.21801e-05,-0.000283466,0.0910887,0.000226058,0.0187834,629,1009,-0.0769114,0.0548243
-588,15,-0.0678101,-0.055542,0.000535701,-0.000389123,2.43445e-05,0.000536342,-0.000389764,0.026299,0.000536915,0.0228347,636,1009,-0.0677931,0.0555704
-581,15,-0.0517578,-0.0765381,0.000871336,-0.000500529,-1.08611e-05,0.000871422,-0.000500615,-0.00791637,0.000801731,0.0334777,643,1009,-0.0517517,0.0765371
-574,15,-0.0495605,-0.0750122,0.00113183,-0.000654049,-2.90191e-05,0.0011323,-0.00065452,-0.0162435,0.00104384,0.0315562,650,1009,-0.0495758,0.0749858
-567,15,-0.0968018,0.0372314,0.0015392,-0.000808365,-0.000112726,0.0015446,-0.000813765,-0.0478714,0.00138322,0.0321473,657,1009,-0.096818,-0.0372241
-560,15,-0.0340576,0.131958,0.00199903,-0.000980905,-0.000261507,0.0020218,-0.00100368,-0.0868713,0.00177942,0.0352189,664,1009,-0.034032,-0.131975
-553,15,-0.0593872,0.1297,0.00253054,-0.00117208,-0.000476224,0.00259081,-0.00123235,-0.125889,0.00225327,0.0366839,671,1009,-0.059358,-0.129684
-546,15,-0.102966,0.186768,0.00305639,-0.00137752,-0.000756789,0.00318201,-0.00150313,-0.16448,0.00276225,0.0380212,678,1009,-0.102979,-0.186793
-539,15,-0.0645752,0.100342,0.00344486,-0.00160628,-0.0010855,0.00366825,-0.00182968,-0.202967,0.00323285,0.0371621,685,1009,-0.0645892,-0.100316
-532,15,-0.0280151,-0.0354004,0.00363956,-0.00185689,-0.00139292,0.0039724,-0.00218973,-0.234554,0.00360699,0.0382768,692,1009,-0.0280271,0.0353752
-525,15,0,0,0,0,0,0,0,0,0,-1,699,1009,0,0
-518,15,0,0,0,0,0,0,0,0,0,-1,706,1009,0,0
-511,15,0,0,0,0,0,0,0,0,0,-1,713,1009,0,0
-504,15,0,0,0,0,0,0,0,0,0,-1,720,1009,0,0
-497,15,0,0,0,0,0,0,0,0,0,-1,727,1009,0,0
-490,15,0,0,0,0,0,0,0,0,0,-1,734,1009,0,0
-483,15,0,0,0,0,0,0,0,0,0,-1,741,1009,0,0
-476,15,0,0,0,0,0,0,0,0,0,-1,748,1009,0,0
-469,15,0,0,0,0,0,0,0,0,0,-1,755,1009,0,0
-462,15,0,0,0,0,0,0,0,0,0,-1,762,1009,0,0
-455,15,0,0,0,0,0,0,0,0,0,-1,769,1009,0,0
-448,15,0,0,0,0,0,0,0,0,0,-1,776,1009,0,0
-441,15,0,0,0,0,0,0,0,0,0,-1,783,1009,0,0
-434,15,0,0,0,0,0,0,0,0,0,-1,790,1009,0,0
-427,15,0,0,0,0,0,0,0,0,0,-1,797,1009,0,0
-420,15,0,0,0,0,0,0,0,0,0,-1,804,1009,0,0
-413,15,0,0,0,0,0,0,0,0,0,-1,811,1009,0,0
-406,15,0,0,0,0,0,0,0,0,0,-1,818,1009,0,0
-399,15,0,0,0,0,0,0,0,0,0,-1,825,1009,0,0
-392,15,0,0,0,0,0,0,0,0,0,-1,832,1009,0,0
-385,15,0,0,0,0,0,0,0,0,0,-1,839,1009,0,0
-378,15,0,0,0,0,0,0,0,0,0,-1,846,1009,0,0
-371,15,0,0,0,0,0,0,0,0,0,-1,853,1009,0,0
-364,15,0,0,0,0,0,0,0,0,0,-1,860,1009,0,0
-357,15,0,0,0,0,0,0,0,0,0,-1,867,1009,0,0
-350,15,0,0,0,0,0,0,0,0,0,-1,874,1009,0,0
-343,15,0,0,0,0,0,0,0,0,0,-1,881,1009,0,0
-336,15,0,0,0,0,0,0,0,0,0,-1,888,1009,0,0
-329,15,0,0,0,0,0,0,0,0,0,-1,895,1009,0,0
-322,15,0,0,0,0,0,0,0,0,0,-1,902,1009,0,0
-315,15,0,0,0,0,0,0,0,0,0,-1,909,1009,0,0
-308,15,0,0,0,0,0,0,0,0,0,-1,916,1009,0,0
-301,15,0,0,0,0,0,0,0,0,0,-1,923,1009,0,0
-294,15,0,0,0,0,0,0,0,0,0,-1,930,1009,0,0
-287,15,0,0,0,0,0,0,0,0,0,-1,937,1009,0,0
-280,15,0,0,0,0,0,0,0,0,0,-1,944,1009,0,0
-273,15,0,0,0,0,0,0,0,0,0,-1,951,1009,0,0
-266,15,0,0,0,0,0,0,0,0,0,-1,958,1009,0,0
-259,15,0,0,0,0,0,0,0,0,0,-1,965,1009,0,0
-252,15,0,0,0,0,0,0,0,0,0,-1,972,1009,0,0
-245,15,0,0,0,0,0,0,0,0,0,-1,979,1009,0,0
-238,15,0,0,0,0,0,0,0,0,0,-1,986,1009,0,0
-231,15,0,0,0,0,0,0,0,0,0,-1,993,1009,0,0
-224,15,0,0,0,0,0,0,0,0,0,-1,1000,1009,0,0
-217,15,0,0,0,0,0,0,0,0,0,-1,1007,1009,0,0
-210,15,0,0,0,0,0,0,0,0,0,-1,1014,1009,0,0
-203,15,0,0,0,0,0,0,0,0,0,-1,1021,1009,0,0
-196,15,0,0,0,0,0,0,0,0,0,-1,1028,1009,0,0
-189,15,0,0,0,0,0,0,0,0,0,-1,1035,1009,0,0
-182,15,0,0,0,0,0,0,0,0,0,-1,1042,1009,0,0
-175,15,0,0,0,0,0,0,0,0,0,-1,1049,1009,0,0
-168,15,0,0,0,0,0,0,0,0,0,-1,1056,1009,0,0
-161,15,0,0,0,0,0,0,0,0,0,-1,1063,1009,0,0
-154,15,0,0,0,0,0,0,0,0,0,-1,1070,1009,0,0
-147,15,0,0,0,0,0,0,0,0,0,-1,1077,1009,0,0
-140,15,0,0,0,0,0,0,0,0,0,-1,1084,1009,0,0
-133,15,0,0,0,0,0,0,0,0,0,-1,1091,1009,0,0
-126,15,0,0,0,0,0,0,0,0,0,-1,1098,1009,0,0
-119,15,0,0,0,0,0,0,0,0,0,-1,1105,1009,0,0
-112,15,0,0,0,0,0,0,0,0,0,-1,1112,1009,0,0
-105,15,0,0,0,0,0,0,0,0,0,-1,1119,1009,0,0
-98,15,0,0,0,0,0,0,0,0,0,-1,1126,1009,0,0
-91,15,0,0,0,0,0,0,0,0,0,-1,1133,1009,0,0
-84,15,0,0,0,0,0,0,0,0,0,-1,1140,1009,0,0
-77,15,0,0,0,0,0,0,0,0,0,-1,1147,1009,0,0
-70,15,0,0,0,0,0,0,0,0,0,-1,1154,1009,0,0
-63,15,0,0,0,0,0,0,0,0,0,-1,1161,1009,0,0
-56,15,0,0,0,0,0,0,0,0,0,-1,1168,1009,0,0
-49,15,0,0,0,0,0,0,0,0,0,-1,1175,1009,0,0
-42,15,0,0,0,0,0,0,0,0,0,-1,1182,1009,0,0
-35,15,0,0,0,0,0,0,0,0,0,-1,1189,1009,0,0
-28,15,0,0,0,0,0,0,0,0,0,-1,1196,1009,0,0
-21,15,0,0,0,0,0,0,0,0,0,-1,1203,1009,0,0
-14,15,0,0,0,0,0,0,0,0,0,-1,1210,1009,0,0
-7,15,0,0,0,0,0,0,0,0,0,-1,1217,1009,0,0
0,15,0,0,0,0,0,0,0,0,0,-1,1224,1009,0,0
7,15,0,0,0,0,0,0,0,0,0,-1,1231,1009,0,0
14,15,0,0,0,0,0,0,0,0,0,-1,1238,1009,0,0
21,15,0,0,0,0,0,0,0,0,0,-1,1245,1009,0,0
28,15,0,0,0,0,0,0,0,0,0,-1,1252,1009,0,0
35,15,0,0,0,0,0,0,0,0,0,-1,1259,1009,0,0
42,15,0,0,0,0,0,0,0,0,0,-1,1266,1009,0,0
49,15,0,0,0,0,0,0,0,0,0,-1,1273,1009,0,0
56,15,0,0,0,0,0,0,0,0,0,-1,1280,1009,0,0
63,15,0,0,0,0,0,0,0,0,0,-1,1287,1009,0,0
70,15,0,0,0,0,0,0,0,0,0,-1,1294,1009,0,0
77,15,0,0,0,0,0,0,0,0,0,-1,1301,1009,0,0
84,15,0,0,0,0,0,0,0,0,0,-1,1308,1009,0,0
91,15,0,0,0,0,0,0,0,0,0,-1,1315,1009,0,0
98,15,0,0,0,0,0,0,0,0,0,-1,1322,1009,0,0
105,15,0,0,0,0,0,0,0,0,0,-1,1329,1009,0,0
112,15,0,0,0,0,0,0,0,0,0,-1,1336,1009,0,0
119,15,0,0,0,0,0,0,0,0,0,-1,1343,1009,0,0
126,15,0,0,0,0,0,0,0,0,0,-1,1350,1009,0,0
133,15,0,0,0,0,0,0,0,0,0,-1,1357,1009,0,0
140,15,0,0,0,0,0,0,0,0,0,-1,1364,1009,0,0
147,15,0,0,0,0,0,0,0,0,0,-1,1371,1009,0,0
154,15,0,0,0,0,0,0,0,0,0,-1,1378,1009,0,0
161,15,0,0,0,0,0,0,0,0,0,-1,1385,1009,0,0
168,15,0,0,0,0,0,0,0,0,0,-1,1392,1009,0,0
175,15,0,0,0,0,0,0,0,0,0,-1,1399,1009,0,0
182,15,0,0,0,0,0,0,0,0,0,-1,1406,1009,0,0
189,15,0,0,0,0,0,0,0,0,0,-1,1413,1009,0,0
196,15,0,0,0,0,0,0,0,0,0,-1,1420,1009,0,0
203,15,0,0,0,0,0,0,0,0,0,-1,1427,1009,0,0
210,15,0,0,0,0,0,0,0,0,0,-1,1434,1009,0,0
217,15,0,0,0,0,0,0,0,0,0,-1,1441,1009,0,0
224,15,0,0,0,0,0,0,0,0,0,-1,1448,1009,0,0
231,15,0,0,0,0,0,0,0,0,0,-1,1455,1009,0,0
238,15,0,0,0,0,0,0,0,0,0,-1,1462,1009,0,0
245,15,0,0,0,0,0,0,0,0,0,-1,1469,1009,0,0
252,15,0,0,0,0,0,0,0,0,0,-1,1476,1009,0,0
259,15,0,0,0,0,0,0,0,0,0,-1,1483,1009,0,0
266,15,0,0,0,0,0,0,0,0,0,-1,1490,1009,0,0
273,15,0,0,0,0,0,0,0,0,0,-1,1497,1009,0,0
280,15,0,0,0,0,0,0,0,0,0,-1,1504,1009,0,0
287,15,0,0,0,0,0,0,0,0,0,-1,1511,1009,0,0
294,15,0,0,0,0,0,0,0,0,0,-1,1518,1009,0,0
301,15,0,0,0,0,0,0,0,0,0,-1,1525,1009,0,0
308,15,0,0,0,0,0,0,0,0,0,-1,1532,1009,0,0
315,15,0,0,0,0,0,0,0,0,0,-1,1539,1009,0,0
322,15,0,0,0,0,0,0,0,0,0,-1,1546,1009,0,0
329,15,0,0,0,0,0,0,0,0,0,-1,1553,1009,0,0
336,15,0,0,0,0,0,0,0,0,0,-1,1560,1009,0,0
343,15,0,0,0,0,0,0,0,0,0,-1,1567,1009,0,0
350,15,0,0,0,0,0,0,0,0,0,-1,1574,1009,0,0
357,15,0,0,0,0,0,0,0,0,0,-1,1581,1009,0,0
364,15,0,0,0,0,0,0,0,0,0,-1,1588,1009,0,0
371,15,0,0,0,0,0,0,0,0,0,-1,1595,1009,0,0
378,15,0,0,0,0,0,0,0,0,0,-1,1602,1009,0,0
385,15,0,0,0,0,0,0,0,0,0,-1,1609,1009,0,0
392,15,0,0,0,0,0,0,0,0,0,-1,1616,1009,0,0
399,15,0,0,0,0,0,0,0,0,0,-1,1623,1009,0,0
406,15,0,0,0,0,0,0,0,0,0,-1,1630,1009,0,0
413,15,0,0,0,0,0,0,0,0,0,-1,1637,1009,0,0
420,15,0,0,0,0,0,0,0,0,0,-1,1644,1009,0,0
427,15,0,0,0,0,0,0,0,0,0,-1,1651,1009,0,0
434,15,0,0,0,0,0,0,0,0,0,-1,1658,1009,0,0
441,15,0,0,0,0,0,0,0,0,0,-1,1665,1009,0,0
448,15,0,0,0,0,0,0,0,0,0,-1,1672,1009,0,0
455,15,0,0,0,0,0,0,0,0,0,-1,1679,1009,0,0
462,15,0,0,0,0,0,0,0,0,0,-1,1686,1009,0,0
469,15,0,0,0,0,0,0,0,0,0,-1,1693,1009,0,0
476,15,0,0,0,0,0,0,0,0,0,-1,1700,1009,0,0
483,15,0,0,0,0,0,0,0,0,0,-1,1707,1009,0,0
490,15,0,0,0,0,0,0,0,0,0,-1,1714,1009,0,0
497,15,0,0,0,0,0,0,0,0,0,-1,1721,1009,0,0
504,15,0,0,0,0,0,0,0,0,0,-1,1728,1009,0,0
511,15,0,0,0,0,0,0,0,0,0,-1,1735,1009,0,0
518,15,0,0,0,0,0,0,0,0,0,-1,1742,1009,0,0
525,15,0,0,0,0,0,0,0,0,0,-1,1749,1009,0,0
532,15,0,0,0,0,0,0,0,0,0,-1,1756,1009,0,0
539,15,0,0,0,0,0,0,0,0,0,-1,1763,1009,0,0
546,15,0,0,0,0,0,0,0,0,0,-1,1770,1009,0,0
553,15,0,0,0,0,0,0,0,0,0,-1,1777,1009,0,0
560,15,0,0,0,0,0,0,0,0,0,-1,1784,1009,0,0
567,15,0,0,0,0,0,0,0,0,0,-1,1791,1009,0,0
574,15,0,0,0,0,0,0,0,0,0,-1,1798,1009,0,0
581,15,0,0,0,0,0,0,0,0,0,-1,1805,1009,0,0
588,15,0,0,0,0,0,0,0,0,0,-1,1812,1009,0,0
595,15,0,0,0,0,0,0,0,0,0,-1,1819,1009,0,0
602,15,0,0,0,0,0,0,0,0,0,-1,1826,1009,0,0
609,15,0,0,0,0,0,0,0,0,0,-1,1833,1009,0,0
616,15,0,0,0,0,0,0,0,0,0,-1,1840,1009,0,0
623,15,0,0,0,0,0,0,0,0,0,-1,1847,1009,0,0
630,15,0,0,0,0,0,0,0,0,0,-1,1854,1009,0,0
637,15,0,0,0,0,0,0,0,0,0,-1,1861,1009,0,0
644,15,-0.0980225,-0.117615,0.000125277,0.000141147,0.00238506,0.00251828,-0.00225186,0.787062,0.00275547,0.036696,1868,1009,-0.0980561,0.117643
651,15,-0.0838623,0.00817871,0.000130512,0.000355075,0.00143461,0.00168179,-0.0011962,0.824452,0.00166948,0.0352994,1875,1009,-0.0838705,-0.00815924
658,15,-0.111694,0.211121,-3.24631e-05,0.000408346,0.000745812,0.000965639,-0.000589756,0.92907,0.000906706,0.0351762,1882,1009,-0.111709,-0.211095
665,15,-0.120361,0.19281,-0.000199693,0.000365136,0.000249424,0.000459511,-0.000294068,1.20907,0.00043856,0.0357071,1889,1009,-0.120343,-0.19284
672,15,-0.124756,0.0792847,-0.000325393,0.000268236,-8.07256e-05,0.000279017,-0.000336174,-1.43802,0.000355692,0.0349725,1896,1009,-0.124802,-0.0792984
679,15,-0.102661,-0.0713501,-0.000439947,0.000147913,-0.000264514,0.00024941,-0.000541445,-1.20441,0.000466861,0.0342219,1903,1009,-0.102602,0.0713388
686,15,-0.0809326,-0.0718384,-0.000519328,3.57344e-05,-0.000346975,0.000202517,-0.000686111,-1.12273,0.000537778,0.0386399,1910,1009,-0.0808979,0.0718652
693,15,-0.0803223,-0.0471191,-0.000541215,-5.7472e-05,-0.00036222,0.000136208,-0.000734895,-1.07977,0.000541078,0.0380216,1917,1009,-0.0802814,0.0471353
700,15,-0.0611572,-0.0162354,-0.000470308,-0.000108307,-0.000383904,0.000135126,-0.000713741,-1.00568,0.00052668,0.0281196,1924,1009,-0.0611122,0.0162463
707,15,-0.072876,-0.00164795,-0.00048852,-0.000133289,-0.000344356,7.65593e-05,-0.000698368,-1.0235,0.000493084,0.020675,1931,1009,-0.0728894,0.00165626
714,15,-0.0748291,-0.0324707,-0.000510623,-0.000190175,-0.000292141,-1.72057e-05,-0.000683593,-1.03622,0.000450103,0.0144448,1938,1009,-0.0748045,0.0324944
721,15,-0.0570068,-0.0588989,-0.000430902,-0.000215672,-0.000139054,-0.000147455,-0.000499119,-1.11471,0.000296097,0.0126959,1945,1009,-0.056957,0.0589119
728,15,-0.0625,-0.0516968,-0.000270927,-0.000212628,6.92688e-05,-0.000166625,-0.00031693,0.98456,0.00018306,0.0149607,1952,1009,-0.0625109,0.0517029
735,15,-0.09729,-0.0427856,3.76292e-05,-0.000199332,0.00016991,0.000126289,-0.000287992,0.480938,0.000245183,0.0154293,1959,1009,-0.0972446,0.0427631
742,15,-0.106201,-0.041687,0.000292847,-2.37653e-05,0.000193919,0.000384871,-0.00011579,0.443082,0.000302653,0.0153444,1966,1009,-0.106184,0.0416662
749,15,-0.0769043,-0.0582275,0.000358798,-0.000225008,0.000599994,0.000734129,-0.000600338,0.558999,0.000771744,0.00926739,1973,1009,-0.0768997,0.0582044
756,15,-0.0699463,-0.0373535,0.000357799,-0.000154111,0.00114537,0.00127547,-0.00107178,0.67547,0.00135688,0.0109623,1980,1009,-0.0699079,0.0373821
763,15,-0.0812988,-0.0426636,8.74966e-05,-8.48745e-05,0.00175626,0.00175968,-0.00175706,0.760881,0.00203039,0.0115573,1987,1009,-0.0813268,0.0426643
770,15,-0.0780029,-0.043457,-0.000165599,-7.71953e-05,0.00247615,0.00235514,-0.00259794,0.794323,0.00286081,0.0101916,1994,1009,-0.0780311,0.0434417
777,15,-0.074585,-0.0155029,-0.000625677,-4.8231e-05,0.00340159,0.00307687,-0.00375078,0.827736,0.00394834,0.0183226,2001,1009,-0.0745432,0.0154933
784,15,-0.0640869,0.0110474,-0.00140329,2.36768e-05,0.00458562,0.00395098,-0.0053306,0.862575,0.00537842,0.0388702,2008,1009,-0.064099,-0.0110179
791,15,-0.0272217,0.0200195,-0.00261419,0.000176346,0.00606174,0.00500132,-0.00743917,0.898516,0.00722834,0.0488135,2015,1009,-0.0272538,-0.0200004
798,15,-0.288818,0.647644,0,0,0,0,0,0,0,-1,2022,1009,-0.288871,-0.647645
805,15,-1.00024,1.59564,-0.00665535,0.000965569,0.00989797,0.00776121,-0.013451,0.969141,0.0123929,0.0462297,2029,1009,-1.00022,-1.59566
812,15,-1.19556,2.05859,-0.00981494,0.00177962,0.0122403,0.0095261,-0.0175614,1.00656,0.0158667,0.0465695,2036,1009,-1.19551,-2.05857
-700,8,0,0,0,0,0,0,0,0,0,-1,524,1016,0,0
-693,8,-0.339417,1.0011,0,0,0,0,0,0,0,-1,531,1016,-0.339402,-1.00111
-686,8,-0.128174,1.84113,0.0445978,0.0316353,-0.0353246,0.0740308,0.00220228,-0.694669,0.0486364,0.0448675,538,1016,-0.128189,-1.84111
-679,8,0.296814,1.44672,0.0334426,0.0252526,-0.0278522,0.0574993,0.00119597,-0.712408,0.0379405,0.0451616,545,1016,0.296799,-1.4467
-672,8,0.187134,0.815674,0.0242098,0.0196866,-0.0215057,0.0435725,0.000323933,-0.733009,0.0289409,0.0455056,552,1016,0.18713,-0.815694
-665,8,0.419128,0.479736,0.0168074,0.0149607,-0.016249,0.0321593,-0.000391232,-0.757016,0.0215711,0.0454702,559,1016,0.419153,-0.479759
-658,8,0.050415,0.0872803,0.011101,0.0110575,-0.0119923,0.0230716,-0.000913035,-0.784492,0.0156942,0.034699,566,1016,0.0504357,-0.0872777
-651,8,-0.059082,-0.0505981,0.00684639,0.00793045,-0.00863817,0.0160436,-0.00126674,-0.816731,0.011142,0.017218,573,1016,-0.0590695,0.0505795
-644,8,-0.0673828,-0.0509033,0.00385084,0.00551105,-0.00604613,0.0107838,-0.00142191,-0.853619,0.00770701,0.0110241,580,1016,-0.0673848,0.0509064
-637,8,-0.0756226,-0.0314941,0.00182597,0.00392355,-0.00404239,0.00705099,-0.00130147,-0.912324,0.00518917,0.00912516,587,1016,-0.0756182,0.0315145
-630,8,-0.0685425,-0.0447388,-0.00015647,0.00148378,-0.00189926,0.00273242,-0.00140511,-0.989212,0.00242943,0.00881624,594,1016,-0.0685154,0.0447441
-623,8,-0.0736694,-0.0507202,-0.0014296,0.000823041,-0.000914292,0.00114742,-0.00175398,-1.22986,0.00168728,0.0108433,601,1016,-0.0736896,0.0507013
-616,8,-0.0576782,-0.0473633,-0.00134707,0.000212216,-0.000633439,0.000437106,-0.00157196,-1.22965,0.00122006,0.0109971,608,1016,-0.0576607,0.0473699
-609,8,-0.0301514,-0.041687,-0.000829573,7.12274e-05,-0.000289623,0.00015631,-0.000914655,-1.28506,0.000667998,0.0147723,615,1016,-0.0301486,0.0416965
-602,8,-0.0239258,-0.064209,-0.000340369,-0.000159392,-2.31684e-05,-0.000156473,-0.000343288,-1.44547,0.000198455,0.0209698,622,1016,-0.0239083,0.0641994
-595,8,-0.0569458,-0.065979,4.25576e-05,-0.000236017,0.000109442,8.04099e-05,-0.000273869,0.332988,0.000214468,0.017973,629,1016,-0.0569413,0.0659728
-588,8,-0.0649414,-0.0587769,0.000459669,-0.000327731,0.000108827,0.000474433,-0.000342495,0.134844,0.0004737,0.0173321,636,1016,-0.0649252,0.0588023
-581,8,-0.0567017,-0.0228882,0.000792185,-0.000428558,7.73722e-05,0.00079707,-0.000433442,0.063045,0.000720702,0.0241218,643,1016,-0.0567139,0.0228635
-574,8,-0.0848389,0.00732422,0.00108531,-0.000562607,5.71964e-05,0.00108729,-0.00056459,0.0346527,0.0009695,0.0325536,650,1016,-0.0848539,-0.0073316
-567,8,-0.170227,-0.0206909,0.00151231,-0.000694929,-3.15758e-05,0.00151276,-0.00069538,-0.0143017,0.00130366,0.0381911,657,1016,-0.170251,0.0207174
-560,8,-0.0772705,0.045105,0.00201102,-0.000842798,-0.000196247,0.00202445,-0.00085623,-0.0683377,0.00170814,0.037977,664,1016,-0.0772997,-0.0450806
-553,8,0.0639038,0.108093,0.00260323,-0.0010087,-0.000444797,0.0026572,-0.00106267,-0.120743,0.00221246,0.0376366,671,1016,0.0639265,-0.108104
-546,8,-0.0303955,0.0911255,0.00320662,-0.00118891,-0.000782674,0.00334183,-0.00132412,-0.171059,0.00277658,0.0373938,678,1016,-0.0303874,-0.0911274
-539,8,-0.0291138,0.0899048,0.00370738,-0.00139494,-0.00120246,0.00397656,-0.00166412,-0.220228,0.00334663,0.0371631,685,1016,-0.0290978,-0.0899124
-532,8,0.0576782,-0.00396729,0.00406116,-0.0016333,-0.00165558,0.00450751,-0.00207965,-0.263342,0.00388826,0.03867,692,1016,0.05769,0.00399634
-525,8,0,0,0,0,0,0,0,0,0,-1,699,1016,0,0
-518,8,0,0,0,0,0,0,0,0,0,-1,706,1016,0,0
-511,8,0,0,0,0,0,0,0,0,0,-1,713,1016,0,0
-504,8,0,0,0,0,0,0,0,0,0,-1,720,1016,0,0
-497,8,0,0,0,0,0,0,0,0,0,-1,727,1016,0,0
-490,8,0,0,0,0,0,0,0,0,0,-1,734,1016,0,0
-483,8,0,0,0,0,0,0,0,0,0,-1,741,1016,0,0
-476,8,0,0,0,0,0,0,0,0,0,-1,748,1016,0,0
-469,8,0,0,0,0,0,0,0,0,0,-1,755,1016,0,0
-462,8,0,0,0,0,0,0,0,0,0,-1,762,1016,0,0
-455,8,0,0,0,0,0,0,0,0,0,-1,769,1016,0,0
-448,8,0,0,0,0,0,0,0,0,0,-1,776,1016,0,0
-441,8,0,0,0,0,0,0,0,0,0,-1,783,1016,0,0
-434,8,0,0,0,0,0,0,0,0,0,-1,790,1016,0,0
-427,8,0,0,0,0,0,0,0,0,0,-1,797,1016,0,0
-420,8,0,0,0,0,0,0,0,0,0,-1,804,1016,0,0
-413,8,0,0,0,0,0,0,0,0,0,-1,811,1016,0,0
-406,8,0,0,0,0,0,0,0,0,0,-1,818,1016,0,0
-399,8,0,0,0,0,0,0,0,0,0,-1,825,1016,0,0
-392,8,0,0,0,0,0,0,0,0,0,-1,832,1016,0,0
-385,8,0,0,0,0,0,0,0,0,0,-1,839,1016,0,0
-378,8,0,0,0,0,0,0,0,0,0,-1,846,1016,0,0
-371,8,0,0,0,0,0,0,0,0,0,-1,853,1016,0,0
-364,8,0,0,0,0,0,0,0,0,0,-1,860,1016,0,0
-357,8,0,0,0,0,0,0,0,0,0,-1,867,1016,0,0
-350,8,0,0,0,0,0,0,0,0,0,-1,874,1016,0,0
-343,8,0,0,0,0,0,0,0,0,0,-1,881,1016,0,0
-336,8,0,0,0,0,0,0,0,0,0,-1,888,1016,0,0
-329,8,0,0,0,0,0,0,0,0,0,-1,895,1016,0,0
-322,8,0,0,0,0,0,0,0,0,0,-1,902,1016,0,0
-315,8,0,0,0,0,0,0,0,0,0,-1,909,1016,0,0
-308,8,0,0,0,0,0,0,0,0,0,-1,916,1016,0,0
-301,8,0,0,0,0,0,0,0,0,0,-1,923,1016,0,0
-294,8,0,0,0,0,0,0,0,0,0,-1,930,1016,0,0
-287,8,0,0,0,0,0,0,0,0,0,-1,937,1016,0,0
-280,8,0,0,0,0,0,0,0,0,0,-1,944,1016,0,0
-273,8,0,0,0,0,0,0,0,0,0,-1,951,1016,0,0
-266,8,0,0,0,0,0,0,0,0,0,-1,958,1016,0,0
-259,8,0,0,0,0,0,0,0,0,0,-1,965,1016,0,0
-252,8,0,0,0,0,0,0,0,0,0,-1,972,1016,0,0
-245,8,0,0,0,0,0,0,0,0,0,-1,979,1016,0,0
-238,8,0,0,0,0,0,0,0,0,0,-1,986,1016,0,0
-231,8,0,0,0,0,0,0,0,0,0,-1,993,1016,0,0
-224,8,0,0,0,0,0,0,0,0,0,-1,1000,1016,0,0
-217,8,0,0,0,0,0,0,0,0,0,-1,1007,1016,0,0
-210,8,0,0,0,0,0,0,0,0,0,-1,1014,1016,0,0
-203,8,0,0,0,0,0,0,0,0,0,-1,1021,1016,0,0
-196,8,0,0,0,0,0,0,0,0,0,-1,1028,1016,0,0
-189,8,0,0,0,0,0,0,0,0,0,-1,1035,1016,0,0
-182,8,0,0,0,0,0,0,0,0,0,-1,1042,1016,0,0
-175,8,0,0,0,0,0,0,0,0,0,-1,1049,1016,0,0
-168,8,0,0,0,0,0,0,0,0,0,-1,1056,1016,0,0
-161,8,0,0,0,0,0,0,0,0,0,-1,1063,1016,0,0
-154,8,0,0,0,0,0,0,0,0,0,-1,1070,1016,0,0
-147,8,0,0,0,0,0,0,0,0,0,-1,1077,1016,0,0
-140,8,0,0,0,0,0,0,0,0,0,-1,1084,1016,0,0
-133,8,0,0,0,0,0,0,0,0,0,-1,1091,1016,0,0
-126,8,0,0,0,0,0,0,0,0,0,-1,1098,1016,0,0
-119,8,0,0,0,0,0,0,0,0,0,-1,1105,1016,0,0
-112,8,0,0,0,0,0,0,0,0,0,-1,1112,1016,0,0
-105,8,0,0,0,0,0,0,0,0,0,-1,1119,1016,0,0
-98,8,0,0,0,0,0,0,0,0,0,-1,1126,1016,0,0
-91,8,0,0,0,0,0,0,0,0,0,-1,1133,1016,0,0
-84,8,0,0,0,0,0,0,0,0,0,-1,1140,1016,0,0
-77,8,0,0,0,0,0,0,0,0,0,-1,1147,1016,0,0
-70,8,0,0,0,0,0,0,0,0,0,-1,1154,1016,0,0
-63,8,0,0,0,0,0,0,0,0,0,-1,1161,1016,0,0
-56,8,0,0,0,0,0,0,0,0,0,-1,1168,1016,0,0
-49,8,0,0,0,0,0,0,0,0,0,-1,1175,1016,0,0
-42,8,0,0,0,0,0,0,0,0,0,-1,1182,1016,0,0
-35,8,0,0,0,0,0,0,0,0,0,-1,1189,1016,0,0
-28,8,0,0,0,0,0,0,0,0,0,-1,1196,1016,0,0
-21,8,0,0,0,0,0,0,0,0,0,-1,1203,1016,0,0
-14,8,0,0,0,0,0,0,0,0,0,-1,1210,1016,0,0
-7,8,0,0,0,0,0,0,0,0,0,-1,1217,1016,0,0
0,8,0,0,0,0,0,0,0,0,0,-1,1224,1016,0,0
7,8,0,0,0,0,0,0,0,0,0,-1,1231,1016,0,0
14,8,0,0,0,0,0,0,0,0,0,-1,1238,1016,0,0
21,8,0,0,0,0,0,0,0,0,0,-1,1245,1016,0,0
28,8,0,0,0,0,0,0,0,0,0,-1,1252,1016,0,0
35,8,0,0,0,0,0,0,0,0,0,-1,1259,1016,0,0
42,8,0,0,0,0,0,0,0,0,0,-1,1266,1016,0,0
49,8,0,0,0,0,0,0,0,0,0,-1,1273,1016,0,0
56,8,0,0,0,0,0,0,0,0,0,-1,1280,1016,0,0
63,8,0,0,0,0,0,0,0,0,0,-1,1287,1016,0,0
70,8,0,0,0,0,0,0,0,0,0,-1,1294,1016,0,0
77,8,0,0,0,0,0,0,0,0,0,-1,1301,1016,0,0
84,8,0,0,0,0,0,0,0,0,0,-1,1308,1016,0,0
91,8,0,0,0,0,0,0,0,0,0,-1,1315,1016,0,0
98,8,0,0,0,0,0,0,0,0,0,-1,1322,1016,0,0
105,8,0,0,0,0,0,0,0,0,0,-1,1329,1016,0,0
112,8,0,0,0,0,0,0,0,0,0,-1,1336,1016,0,0
119,8,0,0,0,0,0,0,0,0,0,-1,1343,1016,0,0
126,8,0,0,0,0,0,0,0,0,0,-1,1350,1016,0,0
133,8,0,0,0,0,0,0,0,0,0,-1,1357,1016,0,0
140,8,0,0,0,0,0,0,0,0,0,-1,1364,1016,0,0
147,8,0,0,0,0,0,0,0,0,0,-1,1371,1016,0,0
154,8,0,0,0,0,0,0,0,0,0,-1,1378,1016,0,0
161,8,0,0,0,0,0,0,0,0,0,-1,1385,1016,0,0
168,8,0,0,0,0,0,0,0,0,0,-1,1392,1016,0,0
175,8,0,0,0,0,0,0,0,0,0,-1,1399,1016,0,0
182,8,0,0,0,0,0,0,0,0,0,-1,1406,1016,0,0
189,8,0,0,0,0,0,0,0,0,0,-1,1413,1016,0,0
196,8,0,0,0,0,0,0,0,0,0,-1,1420,1016,0,0
203,8,0,0,0,0,0,0,0,0,0,-1,1427,1016,0,0
210,8,0,0,0,0,0,0,0,0,0,-1,1434,1016,0,0
217,8,0,0,0,0,0,0,0,0,0,-1,1441,1016,0,0
224,8,0,0,0,0,0,0,0,0,0,-1,1448,1016,0,0
231,8,0,0,0,0,0,0,0,0,0,-1,1455,1016,0,0
238,8,0,0,0,0,0,0,0,0,0,-1,1462,1016,0,0
245,8,0,0,0,0,0,0,0,0,0,-1,1469,1016,0,0
252,8,0,0,0,0,0,0,0,0,0,-1,1476,1016,0,0
259,8,0,0,0,0,0,0,0,0,0,-1,1483,1016,0,0
266,8,0,0,0,0,0,0,0,0,0,-1,1490,1016,0,0
273,8,0,0,0,0,0,0,0,0,0,-1,1497,1016,0,0
280,8,0,0,0,0,0,0,0,0,0,-1,1504,1016,0,0
287,8,0,0,0,0,0,0,0,0,0,-1,1511,1016,0,0
294,8,0,0,0,0,0,0,0,0,0,-1,1518,1016,0,0
301,8,0,0,0,0,0,0,0,0,0,-1,1525,1016,0,0
308,8,0,0,0,0,0,0,0,0,0,-1,1532,1016,0,0
315,8,0,0,0,0,0,0,0,0,0,-1,1539,1016,0,0
322,8,0,0,0,0,0,0,0,0,0,-1,1546,1016,0,0
329,8,0,0,0,0,0,0,0,0,0,-1,1553,1016,0,0
336,8,0,0,0,0,0,0,0,0,0,-1,1560,1016,0,0
343,8,0,0,0,0,0,0,0,0,0,-1,1567,1016,0,0
350,8,0,0,0,0,0,0,0,0,0,-1,1574,1016,0,0
357,8,0,0,0,0,0,0,0,0,0,-1,1581,1016,0,0
364,8,0,0,0,0,0,0,0,0,0,-1,1588,1016,0,0
371,8,0,0,0,0,0,0,0,0,0,-1,1595,1016,0,0
378,8,0,0,0,0,0,0,0,0,0,-1,1602,1016,0,0
385,8,0,0,0,0,0,0,0,0,0,-1,1609,1016,0,0
392,8,0,0,0,0,0,0,0,0,0,-1,1616,1016,0,0
399,8,0,0,0,0,0,0,0,0,0,-1,1623,1016,0,0
406,8,0,0,0,0,0,0,0,0,0,-1,1630,1016,0,0
413,8,0,0,0,0,0,0,0,0,0,-1,1637,1016,0,0
420,8,0,0,0,0,0,0,0,0,0,-1,1644,1016,0,0
427,8,0,0,0,0,0,0,0,0,0,-1,1651,1016,0,0
434,8,0,0,0,0,0,0,0,0,0,-1,1658,1016,0,0
441,8,0,0,0,0,0,0,0,0,0,-1,1665,1016,0,0
448,8,0,0,0,0,0,0,0,0,0,-1,1672,1016,0,0
455,8,0,0,0,0,0,0,0,0,0,-1,1679,1016,0,0
462,8,0,0,0,0,0,0,0,0,0,-1,1686,1016,0,0
469,8,0,0,0,0,0,0,0,0,0,-1,1693,1016,0,0
476,8,0,0,0,0,0,0,0,0,0,-1,1700,1016,0,0
483,8,0,0,0,0,0,0,0,0,0,-1,1707,1016,0,0
490,8,0,0,0,0,0,0,0,0,0,-1,1714,1016,0,0
497,8,0,0,0,0,0,0,0,0,0,-1,1721,1016,0,0
504,8,0,0,0,0,0,0,0,0,0,-1,1728,1016,0,0
511,8,0,0,0,0,0,0,0,0,0,-1,1735,1016,0,0
518,8,0,0,0,0,0,0,0,0,0,-1,1742,1016,0,0
525,8,0,0,0,0,0,0,0,0,0,-1,1749,1016,0,0
532,8,0,0,0,0,0,0,0,0,0,-1,1756,1016,0,0
539,8,0,0,0,0,0,0,0,0,0,-1,1763,1016,0,0
546,8,0,0,0,0,0,0,0,0,0,-1,1770,1016,0,0
553,8,0,0,0,0,0,0,0,0,0,-1,1777,1016,0,0
560,8,0,0,0,0,0,0,0,0,0,-1,1784,1016,0,0
567,8,0,0,0,0,0,0,0,0,0,-1,1791,1016,0,0
574,8,0,0,0,0,0,0,0,0,0,-1,1798,1016,0,0
581,8,0,0,0,0,0,0,0,0,0,-1,1805,1016,0,0
588,8,0,0,0,0,0,0,0,0,0,-1,1812,1016,0,0
595,8,0,0,0,0,0,0,0,0,0,-1,1819,1016,0,0
602,8,0,0,0,0,0,0,0,0,0,-1,1826,1016,0,0
609,8,0,0,0,0,0,0,0,0,0,-1,1833,1016,0,0
616,8,0,0,0,0,0,0,0,0,0,-1,1840,1016,0,0
623,8,0,0,0,0,0,0,0,0,0,-1,1847,1016,0,0
630,8,0,0,0,0,0,0,0,0,0,-1,1854,1016,0,0
637,8,0,0,0,0,0,0,0,0,0,-1,1861,1016,0,0
644,8,-0.114014,-0.0620728,0.000692207,0.000466754,0.00145674,0.00204057,-0.00088161,0.746784,0.00173079,0.0392486,1868,1016,-0.114025,0.0621023
651,8,-0.092041,-0.093811,0.00051041,0.000725048,0.000827872,0.00145253,-0.00021707,0.849855,0.00104823,0.0341804,1875,1016,-0.0920255,0.0938129
658,8,-0.101563,-0.0952148,0.000216637,0.000771773,0.000354439,0.000944395,4.40147e-05,1.11758,0.00061545,0.0359666,1882,1016,-0.10157,0.0952164
665,8,-0.112427,0.115784,-5.11426e-05,0.000692613,1.42388e-05,0.000692885,-5.14151e-05,1.55166,0.000479981,0.0364944,1889,1016,-0.11242,-0.11579
672,8,-0.0874023,0.0427856,-0.000246358,0.000543477,-0.000206633,0.000594269,-0.00029715,-1.32977,0.000524104,0.0348318,1896,1016,-0.0873999,-0.0428003
679,8,-0.036499,-0.13208,-0.000411862,0.000365291,-0.000321015,0.000480741,-0.000527312,-1.22556,0.000582206,0.0340764,1903,1016,-0.0364657,0.132103
686,8,-0.0540771,-0.0552368,-0.000530046,0.00019705,-0.000365588,0.00034908,-0.000682076,-1.1767,0.000605598,0.0373163,1910,1016,-0.05402,0.0552532
693,8,-0.0445557,0.00354004,-0.000577478,5.46361e-05,-0.000362973,0.000219871,-0.000742713,-1.14361,0.000582434,0.0365291,1917,1016,-0.0445538,-0.00352521
700,8,-0.0111084,-0.0100098,-0.000532872,-3.62668e-05,-0.000373678,0.000164083,-0.000733222,-1.07864,0.000551703,0.0280549,1924,1016,-0.0110608,0.0100053
707,8,-0.0570068,-0.0455322,-0.000563107,-9.20325e-05,-0.000320078,6.98309e-05,-0.000724971,-1.1026,0.000508193,0.0184224,1931,1016,-0.0569473,0.0455464
714,8,-0.0751953,-0.0686035,-0.000568497,-0.000176341,-0.000271131,-3.78166e-05,-0.000707021,-1.09846,0.000459261,0.013783,1938,1016,-0.0751695,0.0686047
721,8,-0.064209,-0.0649414,-0.000470611,-0.000238184,-0.000138921,-0.000173277,-0.000535518,-1.13371,0.000315532,0.0128055,1945,1016,-0.064245,0.064937
728,8,-0.0718994,-0.0444946,-0.000317664,-0.000250602,4.09192e-05,-0.00023123,-0.000337036,1.12864,0.000199028,0.0135305,1952,1016,-0.071862,0.0445176
735,8,-0.0872803,-0.0566406,-6.0911e-06,-0.000210984,9.82085e-05,3.33786e-05,-0.000250454,0.382141,0.000179135,0.0148098,1959,1016,-0.0872744,0.0566398
742,8,-0.114258,-0.0643311,0.000322274,-8.43996e-06,8.1837e-05,0.000341417,-2.75829e-05,0.229784,0.000237341,0.0110382,1966,1016,-0.114208,0.0643221
749,8,-0.0869141,-0.0689087,0.000651367,-0.000201056,0.000504375,0.000885497,-0.000435186,0.434598,0.000777131,0.00759284,1973,1016,-0.0869375,0.0688811
756,8,-0.065918,-0.0467529,0.000987954,-0.000290941,0.00101373,0.00154706,-0.000850049,0.504023,0.00140334,0.0107805,1980,1016,-0.0658759,0.0467275
763,8,-0.0831299,-0.046814,0.000978923,-0.000390885,0.00149013,0.00193401,-0.00134597,0.569982,0.00190382,0.0125839,1987,1016,-0.0831617,0.0468142
770,8,-0.0806885,-0.048584,0.00115391,-0.000580548,0.00209745,0.00255635,-0.00198299,0.589367,0.00262775,0.0130962,1994,1016,-0.0806659,0.0485958
777,8,-0.0631104,-0.0204468,0.00126007,-0.000857844,0.00286669,0.00325714,-0.00285492,0.608472,0.00353135,0.0171371,2001,1016,-0.0630845,0.0204411
784,8,-0.0767822,-0.0220337,0.00119841,-0.00124179,0.00383696,0.00400458,-0.00404796,0.631461,0.00464916,0.0368267,2008,1016,-0.0768388,0.0220187
791,8,-0.0528564,-0.102722,0.000850896,-0.00173855,0.0050164,0.00473697,-0.00562462,0.659105,0.00598958,0.0473062,2015,1016,-0.052882,0.102697
798,8,0.0458984,0.133728,0,0,0,0,0,0,0,-1,2022,1016,0.0458818,-0.133754
805,8,0.0810547,0.385498,-0.00111104,-0.00303079,0.0078955,0.00588272,-0.0100246,0.724909,0.00928726,0.0464295,2029,1016,0.0811081,-0.385505
812,8,0.196533,0.654175,-0.00318924,-0.00376783,0.00949394,0.00601981,-0.0129769,0.770167,0.0112102,0.0462746,2036,1016,0.196506,-0.654148
-700,1,0,0,0,0,0,0,0,0,0,-1,524,1023,0,0
-693,1,-0.0630493,0.685242,0.0447189,0.0326028,-0.0500266,0.0890529,-0.0117312,-0.725143,0.0636405,0.0417498,531,1023,-0.0630533,-0.685267
-686,1,0.394836,1.5174,0.0346007,0.0260429,-0.0401507,0.0706998,-0.0100563,-0.732313,0.0508181,0.0474031,538,1023,0.394864,-1.51737
-679,1,0.184326,1.05743,0.0260173,0.020482,-0.0316098,0.0549804,-0.00848107,-0.741731,0.0397831,0.0462246,545,1023,0.184297,-1.05741
-672,1,0.0200195,0.451355,0.0188644,0.0158101,-0.0243698,0.0417549,-0.00708038,-0.754107,0.0304722,0.0451347,552,1023,0.0200154,-0.451338
-665,1,-0.161438,0.195435,0.0130959,0.0119386,-0.018376,0.0309024,-0.00586789,-0.76966,0.0228105,0.0444967,559,1023,-0.161437,-0.195441
-658,1,-0.140686,0.0952148,0.0086203,0.00879162,-0.0135245,0.0222307,-0.00481879,-0.788565,0.0166607,0.0319662,566,1023,-0.140698,-0.0952042
-651,1,-0.0911255,-0.00738525,0.00525999,0.00629557,-0.00970121,0.0154928,-0.00393724,-0.81206,0.0118608,0.013473,573,1023,-0.0911186,0.00740012
-644,1,-0.083252,-0.0315552,0.00288854,0.004275,-0.00671124,0.0103287,-0.00316518,-0.836863,0.00814843,0.010176,580,1023,-0.0832347,0.0315316
-637,1,-0.0750122,-0.0430298,0.00134348,0.00310579,-0.00443839,0.00674965,-0.00230038,-0.883389,0.00543144,0.00867996,587,1023,-0.0750143,0.0430358
-630,1,-0.0756226,-0.0592041,-0.000272346,0.00100754,-0.00209279,0.00255604,-0.00182084,-0.933776,0.00253885,0.0106752,594,1023,-0.0756356,0.0592082
-623,1,-0.0848389,-0.0484619,-0.00133551,0.000739691,-0.000931103,0.00109621,-0.00169203,-1.20512,0.00162199,0.0114668,601,1023,-0.0848144,0.0484638
-616,1,-0.0507202,-0.0460205,-0.00126151,0.000204816,-0.000612143,0.000426769,-0.00148346,-1.22295,0.00115775,0.0140686,608,1023,-0.0507501,0.0460406
-609,1,-0.0197754,-0.0285645,-0.000815617,9.56223e-05,-0.00026511,0.000167139,-0.000887134,-1.30731,0.00065429,0.0154128,615,1023,-0.0197528,0.0285483
-602,1,-0.0521851,-0.0229492,-0.000342688,-0.000107015,-6.6112e-06,-0.000106829,-0.000342873,-1.54277,0.000202589,0.0128153,622,1023,-0.0521901,0.0229455
-595,1,-0.090332,-0.0429077,8.7393e-06,-0.000112569,0.000131367,9.27791e-05,-0.000196609,0.569122,0.000170625,0.0115656,629,1023,-0.0903406,0.0429003
-588,1,-0.0914307,-0.0155029,0.000379577,-0.000137195,0.000137664,0.000413961,-0.00017158,0.244764,0.000347583,0.015495,636,1023,-0.0914234,0.0154757
-581,1,-0.0952148,0.024353,0.000682939,-0.000174916,0.000109014,0.000696576,-0.000188552,0.124443,0.000538356,0.0229124,643,1023,-0.0951979,-0.0243571
-574,1,-0.0928955,0.0245361,0.000974643,-0.000229386,8.85616e-05,0.000981122,-0.000235865,0.0730306,0.00074525,0.0334516,650,1023,-0.0929108,-0.0245196
-567,1,-0.191895,-0.149414,0.00138191,-0.000271453,3.43829e-06,0.00138192,-0.00027146,0.00207956,0.00102383,0.0405977,657,1023,-0.191869,0.149429
-560,1,-0.0476074,-0.0477905,0.00186715,-0.000323907,-0.000154089,0.00187793,-0.000334691,-0.0698681,0.00137714,0.04125,664,1023,-0.0476337,0.0477715
-553,1,0.0428467,-0.0444336,0.00245152,-0.000396358,-0.000394049,0.00250504,-0.000449875,-0.134988,0.00183843,0.0381685,671,1023,0.0428457,0.0444083
-546,1,-0.0449829,-0.148499,0.00305116,-0.000496389,-0.000721485,0.00319228,-0.000637508,-0.193156,0.00236945,0.0398246,678,1023,-0.0449841,0.148519
-539,1,-0.0137939,-0.0214233,0.00357386,-0.000652895,-0.00113166,0.00385777,-0.000936812,-0.245812,0.0029344,0.03972,685,1023,-0.0138169,0.0213964
-532,1,0.0997925,-0.0463257,0.00397816,-0.000896056,-0.00158772,0.00444972,-0.00136762,-0.288706,0.00351226,0.0386109,692,1023,0.0997683,0.0463201
-525,1,0,0,0,0,0,0,0,0,0,-1,699,1023,0,0
-518,1,0,0,0,0,0,0,0,0,0,-1,706,1023,0,0
-511,1,0,0,0,0,0,0,0,0,0,-1,713,1023,0,0
-504,1,0,0,0,0,0,0,0,0,0,-1,720,1023,0,0
-497,1,0,0,0,0,0,0,0,0,0,-1,727,1023,0,0
-490,1,0,0,0,0,0,0,0,0,0,-1,734,1023,0,0
-483,1,0,0,0,0,0,0,0,0,0,-1,741,1023,0,0
-476,1,0,0,0,0,0,0,0,0,0,-1,748,1023,0,0
-469,1,0,0,0,0,0,0,0,0,0,-1,755,1023,0,0
-462,1,0,0,0,0,0,0,0,0,0,-1,762,1023,0,0
-455,1,0,0,0,0,0,0,0,0,0,-1,769,1023,0,0
-448,1,0,0,0,0,0,0,0,0,0,-1,776,1023,0,0
-441,1,0,0,0,0,0,0,0,0,0,-1,783,1023,0,0
-434,1,0,0,0,0,0,0,0,0,0,-1,790,1023,0,0
-427,1,0,0,0,0,0,0,0,0,0,-1,797,1023,0,0
-420,1,0,0,0,0,0,0,0,0,0,-1,804,1023,0,0
-413,1,0,0,0,0,0,0,0,0,0,-1,811,1023,0,0
-406,1,0,0,0,0,0,0,0,0,0,-1,818,1023,0,0
-399,1,0,0,0,0,0,0,0,0,0,-1,825,1023,0,0
-392,1,0,0,0,0,0,0,0,0,0,-1,832,1023,0,0
-385,1,0,0,0,0,0,0,0,0,0,-1,839,1023,0,0
-378,1,0,0,0,0,0,0,0,0,0,-1,846,1023,0,0
-371,1,0,0,0,0,0,0,0,0,0,-1,853,1023,0,0
-364,1,0,0,0,0,0,0,0,0,0,-1,860,1023,0,0
-357,1,0,0,0,0,0,0,0,0,0,-1,867,1023,0,0
-350,1,0,0,0,0,0,0,0,0,0,-1,874,1023,0,0
-343,1,0,0,0,0,0,0,0,0,0,-1,881,1023,0,0
-336,1,0,0,0,0,0,0,0,0,0,-1,888,1023,0,0
-329,1,0,0,0,0,0,0,0,0,0,-1,895,1023,0,0
-322,1,0,0,0,0,0,0,0,0,0,-1,902,1023,0,0
-315,1,0,0,0,0,0,0,0,0,0,-1,909,1023,0,0
-308,1,0,0,0,0,0,0,0,0,0,-1,916,1023,0,0
-301,1,0,0,0,0,0,0,0,0,0,-1,923,1023,0,0
-294,1,0,0,0,0,0,0,0,0,0,-1,930,1023,0,0
-287,1,0,0,0,0,0,0,0,0,0,-1,937,1023,0,0
-280,1,0,0,0,0,0,0,0,0,0,-1,944,1023,0,0
-273,1,0,0,0,0,0,0,0,0,0,-1,951,1023,0,0
-266,1,0,0,0,0,0,0,0,0,0,-1,958,1023,0,0
-259,1,0,0,0,0,0,0,0,0,0,-1,965,1023,0,0
-252,1,0,0,0,0,0,0,0,0,0,-1,972,1023,0,0
-245,1,0,0,0,0,0,0,0,0,0,-1,979,1023,0,0
-238,1,0,0,0,0,0,0,0,0,0,-1,986,1023,0,0
-231,1,0,0,0,0,0,0,0,0,0,-1,993,1023,0,0
-224,1,0,0,0,0,0,0,0,0,0,-1,1000,1023,0,0
-217,1,0,0,0,0,0,0,0,0,0,-1,1007,1023,0,0
-210,1,0,0,0,0,0,0,0,0,0,-1,1014,1023,0,0
-203,1,0,0,0,0,0,0,0,0,0,-1,1021,1023,0,0
-196,1,0,0,0,0,0,0,0,0,0,-1,1028,1023,0,0
-189,1,0,0,0,0,0,0,0,0,0,-1,1035,1023,0,0
-182,1,0,0,0,0,0,0,0,0,0,-1,1042,1023,0,0
-175,1,0,0,0,0,0,0,0,0,0,-1,1049,1023,0,0
-168,1,0,0,0,0,0,0,0,0,0,-1,1056,1023,0,0
-161,1,0,0,0,0,0,0,0,0,0,-1,1063,1023,0,0
-154,1,0,0,0,0,0,0,0,0,0,-1,1070,1023,0,0
-147,1,0,0,0,0,0,0,0,0,0,-1,1077,1023,0,0
-140,1,0,0,0,0,0,0,0,0,0,-1,1084,1023,0,0
-133,1,0,0,0,0,0,0,0,0,0,-1,1091,1023,0,0
-126,1,0,0,0,0,0,0,0,0,0,-1,1098,1023,0,0
-119,1,0,0,0,0,0,0,0,0,0,-1,1105,1023,0,0
-112,1,0,0,0,0,0,0,0,0,0,-1,1112,1023,0,0
-105,1,0,0,0,0,0,0,0,0,0,-1,1119,1023,0,0
-98,1,0,0,0,0,0,0,0,0,0,-1,1126,1023,0,0
-91,1,0,0,0,0,0,0,0,0,0,-1,1133,1023,0,0
-84,1,0,0,0,0,0,0,0,0,0,-1,1140,1023,0,0
-77,1,0,0,0,0,0,0,0,0,0,-1,1147,1023,0,0
-70,1,0,0,0,0,0,0,0,0,0,-1,1154,1023,0,0
-63,1,0,0,0,0,0,0,0,0,0,-1,1161,1023,0,0
-56,1,0,0,0,0,0,0,0,0,0,-1,1168,1023,0,0
-49,1,0,0,0,0,0,0,0,0,0,-1,1175,1023,0,0
-42,1,0,0,0,0,0,0,0,0,0,-1,1182,1023,0,0
-35,1,0,0,0,0,0,0,0,0,0,-1,1189,1023,0,0
-28,1,0,0,0,0,0,0,0,0,0,-1,1196,1023,0,0
-21,1,0,0,0,0,0,0,0,0,0,-1,1203,1023,0,0
-14,1,0,0,0,0,0,0,0,0,0,-1,1210,1023,0,0
-7,1,0,0,0,0,0,0,0,0,0,-1,1217,1023,0,0
0,1,0,0,0,0,0,0,0,0,0,-1,1224,1023,0,0
7,1,0,0,0,0,0,0,0,0,0,-1,1231,1023,0,0
14,1,0,0,0,0,0,0,0,0,0,-1,1238,1023,0,0
21,1,0,0,0,0,0,0,0,0,0,-1,1245,1023,0,0
28,1,0,0,0,0,0,0,0,0,0,-1,1252,1023,0,0
35,1,0,0,0,0,0,0,0,0,0,-1,1259,1023,0,0
42,1,0,0,0,0,0,0,0,0,0,-1,1266,1023,0,0
49,1,0,0,0,0,0,0,0,0,0,-1,1273,1023,0,0
56,1,0,0,0,0,0,0,0,0,0,-1,1280,1023,0,0
63,1,0,0,0,0,0,0,0,0,0,-1,1287,1023,0,0
70,1,0,0,0,0,0,0,0,0,0,-1,1294,1023,0,0
77,1,0,0,0,0,0,0,0,0,0,-1,1301,1023,0,0
84,1,0,0,0,0,0,0,0,0,0,-1,1308,1023,0,0
91,1,0,0,0,0,0,0,0,0,0,-1,1315,1023,0,0
98,1,0,0,0,0,0,0,0,0,0,-1,1322,1023,0,0
105,1,0,0,0,0,0,0,0,0,0,-1,1329,1023,0,0
112,1,0,0,0,0,0,0,0,0,0,-1,1336,1023,0,0
119,1,0,0,0,0,0,0,0,0,0,-1,1343,1023,0,0
126,1,0,0,0,0,0,0,0,0,0,-1,1350,1023,0,0
133,1,0,0,0,0,0,0,0,0,0,-1,1357,1023,0,0
140,1,0,0,0,0,0,0,0,0,0,-1,1364,1023,0,0
147,1,0,0,0,0,0,0,0,0,0,-1,1371,1023,0,0
154,1,0,0,0,0,0,0,0,0,0,-1,1378,1023,0,0
161,1,0,0,0,0,0,0,0,0,0,-1,1385,1023,0,0
168,1,0,0,0,0,0,0,0,0,0,-1,1392,1023,0,0
175,1,0,0,0,0,0,0,0,0,0,-1,1399,1023,0,0
182,1,0,0,0,0,0,0,0,0,0,-1,1406,1023,0,0
189,1,0,0,0,0,0,0,0,0,0,-1,1413,1023,0,0
196,1,0,0,0,0,0,0,0,0,0,-1,1420,1023,0,0
203,1,0,0,0,0,0,0,0,0,0,-1,1427,1023,0,0
210,1,0,0,0,0,0,0,0,0,0,-1,1434,1023,0,0
217,1,0,0,0,0,0,0,0,0,0,-1,1441,1023,0,0
224,1,0,0,0,0,0,0,0,0,0,-1,1448,1023,0,0
231,1,0,0,0,0,0,0,0,0,0,-1,1455,1023,0,0
238,1,0,0,0,0,0,0,0,0,0,-1,1462,1023,0,0
245,1,0,0,0,0,0,0,0,0,0,-1,1469,1023,0,0
252,1,0,0,0,0,0,0,0,0,0,-1,1476,1023,0,0
259,1,0,0,0,0,0,0,0,0,0,-1,1483,1023,0,0
266,1,0,0,0,0,0,0,0,0,0,-1,1490,1023,0,0
273,1,0,0,0,0,0,0,0,0,0,-1,1497,1023,0,0
280,1,0,0,0,0,0,0,0,0,0,-1,1504,1023,0,0
287,1,0,0,0,0,0,0,0,0,0,-1,1511,1023,0,0
294,1,0,0,0,0,0,0,0,0,0,-1,1518,1023,0,0
301,1,0,0,0,0,0,0,0,0,0,-1,1525,1023,0,0
308,1,0,0,0,0,0,0,0,0,0,-1,1532,1023,0,0
315,1,0,0,0,0,0,0,0,0,0,-1,1539,1023,0,0
322,1,0,0,0,0,0,0,0,0,0,-1,1546,1023,0,0
329,1,0,0,0,0,0,0,0,0,0,-1,1553,1023,0,0
336,1,0,0,0,0,0,0,0,0,0,-1,1560,1023,0,0
343,1,0,0,0,0,0,0,0,0,0,-1,1567,1023,0,0
350,1,0,0,0,0,0,0,0,0,0,-1,1574,1023,0,0
357,1,0,0,0,0,0,0,0,0,0,-1,1581,1023,0,0
364,1,0,0,0,0,0,0,0,0,0,-1,1588,1023,0,0
371,1,0,0,0,0,0,0,0,0,0,-1,1595,1023,0,0
378,1,0,0,0,0,0,0,0,0,0,-1,1602,1023,0,0
385,1,0,0,0,0,0,0,0,0,0,-1,1609,1023,0,0
392,1,0,0,0,0,0,0,0,0,0,-1,1616,1023,0,0
399,1,0,0,0,0,0,0,0,0,0,-1,1623,1023,0,0
406,1,0,0,0,0,0,0,0,0,0,-1,1630,1023,0,0
413,1,0,0,0,0,0,0,0,0,0,-1,1637,1023,0,0
420,1,0,0,0,0,0,0,0,0,0,-1,1644,1023,0,0
427,1,0,0,0,0,0,0,0,0,0,-1,1651,1023,0,0
434,1,0,0,0,0,0,0,0,0,0,-1,1658,1023,0,0
441,1,0,0,0,0,0,0,0,0,0,-1,1665,1023,0,0
448,1,0,0,0,0,0,0,0,0,0,-1,1672,1023,0,0
455,1,0,0,0,0,0,0,0,0,0,-1,1679,1023,0,0
462,1,0,0,0,0,0,0,0,0,0,-1,1686,1023,0,0
469,1,0,0,0,0,0,0,0,0,0,-1,1693,1023,0,0
476,1,0,0,0,0,0,0,0,0,0,-1,1700,1023,0,0
483,1,0,0,0,0,0,0,0,0,0,-1,1707,1023,0,0
490,1,0,0,0,0,0,0,0,0,0,-1,1714,1023,0,0
497,1,0,0,0,0,0,0,0,0,0,-1,1721,1023,0,0
504,1,0,0,0,0,0,0,0,0,0,-1,1728,1023,0,0
511,1,0,0,0,0,0,0,0,0,0,-1,1735,1023,0,0
518,1,0,0,0,0,0,0,0,0,0,-1,1742,1023,0,0
525,1,0,0,0,0,0,0,0,0,0,-1,1749,1023,0,0
532,1,0,0,0,0,0,0,0,0,0,-1,1756,1023,0,0
539,1,0,0,0,0,0,0,0,0,0,-1,1763,1023,0,0
546,1,0,0,0,0,0,0,0,0,0,-1,1770,1023,0,0
553,1,0,0,0,0,0,0,0,0,0,-1,1777,1023,0,0
560,1,0,0,0,0,0,0,0,0,0,-1,1784,1023,0,0
567,1,0,0,0,0,0,0,0,0,0,-1,1791,1023,0,0
574,1,0,0,0,0,0,0,0,0,0,-1,1798,1023,0,0
581,1,0,0,0,0,0,0,0,0,0,-1,1805,1023,0,0
588,1,0,0,0,0,0,0,0,0,0,-1,1812,1023,0,0
595,1,0,0,0,0,0,0,0,0,0,-1,1819,1023,0,0
602,1,0,0,0,0,0,0,0,0,0,-1,1826,1023,0,0
609,1,0,0,0,0,0,0,0,0,0,-1,1833,1023,0,0
616,1,0,0,0,0,0,0,0,0,0,-1,1840,1023,0,0
623,1,0,0,0,0,0,0,0,0,0,-1,1847,1023,0,0
630,1,0,0,0,0,0,0,0,0,0,-1,1854,1023,0,0
637,1,0,0,0,0,0,0,0,0,0,-1,1861,1023,0,0
644,1,0,0,0,0,0,0,0,0,0,-1,1868,1023,0,0
651,1,-0.0794678,-0.177673,0.000772455,0.000746964,0.000128274,0.000888615,0.000630804,0.735882,0.000527892,0.0325401,1875,1023,-0.0794736,0.177672
658,1,0.00402832,-0.14679,0.000397239,0.000819838,-6.08139e-05,0.000828416,0.000388662,-1.43068,0.000478589,0.0352353,1882,1023,0.00400096,0.146776
665,1,-0.000244141,0.0195313,6.19322e-05,0.000755958,-0.000200534,0.000809734,8.15612e-06,-1.3088,0.000537125,0.0358992,1889,1023,-0.000250092,-0.0195508
672,1,0.00512695,-0.0765381,-0.000181072,0.000614045,-0.000286095,0.000706285,-0.000273312,-1.25891,0.000583695,0.0352318,1896,1023,0.00517909,0.0765454
679,1,0.0361328,-0.115967,-0.000382874,0.000437154,-0.000318083,0.00054607,-0.00049179,-1.2409,0.000599482,0.0345239,1903,1023,0.0361812,0.115966
686,1,-0.00317383,-0.0396118,-0.000529914,0.00026555,-0.000321003,0.000378928,-0.000643292,-1.23127,0.000596722,0.0344938,1910,1023,-0.00314566,0.0396401
693,1,-0.00708008,0.0307617,-0.000598529,0.000115206,-0.000303982,0.000227123,-0.000710447,-1.21803,0.000564773,0.0320829,1917,1023,-0.00706974,-0.0307554
700,1,0.00463867,-0.0128784,-0.00057811,1.07301e-05,-0.000309561,0.000143524,-0.000710903,-1.16557,0.000528315,0.0261941,1924,1023,0.00466407,0.012889
707,1,-0.0411377,-0.0706787,-0.000617167,-5.51388e-05,-0.000248789,3.91671e-05,-0.000711473,-1.20847,0.000487895,0.0195015,1931,1023,-0.0411084,0.0706911
714,1,-0.0771484,-0.0968018,-0.000604099,-0.000148497,-0.000207134,-6.84058e-05,-0.00068419,-1.20184,0.000435121,0.0149966,1938,1023,-0.0771756,0.0967747
721,1,-0.0732422,-0.0862427,-0.000492366,-0.000228652,-0.000105067,-0.000191911,-0.000529107,-1.23439,0.000309295,0.0135832,1945,1023,-0.0731951,0.086242
728,1,-0.0922852,-0.0570068,-0.000361432,-0.000250314,3.59477e-05,-0.000239699,-0.000372048,1.28366,0.000217762,0.0122112,1952,1023,-0.0922921,0.0569934
735,1,-0.0904541,-0.0591431,-6.13825e-05,-0.000195575,5.20918e-05,-4.35349e-05,-0.000213423,0.330084,0.000130219,0.0129488,1959,1023,-0.0904617,0.0591147
742,1,-0.0865479,-0.0560303,0.000322151,-3.32418e-06,1.01901e-05,0.00032247,-3.64291e-06,0.0312676,0.000216205,0.0104773,1966,1023,-0.0865687,0.0560252
749,1,-0.0776367,-0.0516968,0.000928897,-0.000204704,0.000448395,0.00108481,-0.000360621,0.334645,0.000868735,0.00893978,1973,1023,-0.0776595,0.0516779
756,1,-0.0695801,-0.0485229,0.00163163,-0.000579165,0.000968449,0.00199586,-0.000943393,0.359729,0.00173286,0.010308,1980,1023,-0.0695645,0.0485012
763,1,-0.0878906,-0.0372925,0.00189139,-0.00102591,0.00140055,0.00245492,-0.00158944,0.382541,0.00235276,0.0125045,1987,1023,-0.0878915,0.0373101
770,1,-0.0941162,-0.0429688,0.0024993,-0.00159004,0.00198645,0.00330536,-0.0023961,0.385478,0.00330567,0.0124103,1994,1023,-0.0941206,0.0429776
777,1,-0.0786133,-0.0526123,0.00316747,-0.00242029,0.00273097,0.00428051,-0.00353332,0.387006,0.00451819,0.0146532,2001,1023,-0.0785857,0.0526018
784,1,-0.0881348,-0.0551758,0.00380318,-0.00359425,0.00367087,0.00531559,-0.00510666,0.39081,0.00601769,0.0364778,2008,1023,-0.0881825,0.0551491
791,1,0.154785,-0.414429,0.00428199,-0.00518063,0.00480565,0.00629453,-0.00719318,0.396597,0.00779289,0.0496112,2015,1023,0.154741,0.414444
798,1,0.248047,-0.591248,0,0,0,0,0,0,0,-1,2022,1023,0.248046,0.591221
805,1,0.158203,-1.69214,0.00424285,-0.00985811,0.00751823,0.00749932,-0.0131146,0.408747,0.0120477,0.0473072,2029,1023,0.158199,1.69218
812,1,0.288086,-1.73975,0.0031142,-0.0130681,0.00896148,0.00709677,-0.0170507,0.418196,0.0143309,0.0498717,2036,1023,0.288075,1.73979
-700,-6,0,0,0,0,0,0,0,0,0,-1,524,1030,0,0
-693,-6,0.281128,0.478271,0.0398655,0.0340592,-0.0486422,0.0856911,-0.0117664,-0.755592,0.0614263,0.0388408,531,1030,0.281119,-0.47831
-686,-6,0.0810547,0.432739,0.0309196,0.0261382,-0.0396094,0.0682103,-0.0111525,-0.755257,0.0496107,0.0407939,538,1030,0.0810668,-0.432782
-679,-6,-0.142639,0.384766,0.0233144,0.0198729,-0.0316034,0.0532439,-0.0100566,-0.758201,0.0392796,0.0430987,545,1030,-0.142614,-0.384742
-672,-6,-0.130432,0.265869,0.0169514,0.0148997,-0.0246716,0.0406185,-0.00876732,-0.76462,0.0304254,0.0442202,552,1030,-0.130426,-0.265914
-665,-6,0.0157471,0.0455322,0.0118013,0.0109751,-0.0188227,0.0302155,-0.00743899,-0.774426,0.0230274,0.043495,559,1030,0.0157611,-0.0454886
-658,-6,-0.203125,0.221069,0.00777787,0.00791693,-0.0140038,0.0218514,-0.00615662,-0.787881,0.0169957,0.0383764,566,1030,-0.203101,-0.221091
-651,-6,-0.114258,0.117554,0.00473707,0.00557582,-0.0101399,0.015305,-0.00499211,-0.806066,0.0122124,0.0316473,573,1030,-0.11424,-0.117554
-644,-6,-0.0845337,-0.0130615,0.00256112,0.00346068,-0.00709537,0.0101205,-0.00409871,-0.817051,0.00845131,0.0218256,580,1030,-0.0845115,0.0130008
-637,-6,-0.0803223,-0.0461426,0.00120583,0.00253352,-0.00470586,0.00662213,-0.00288278,-0.85547,0.00562744,0.0123158,587,1030,-0.0803366,0.0461223
-630,-6,-0.0786743,-0.0493164,-0.000330628,0.000688742,-0.00226818,0.0025038,-0.00214569,-0.895918,0.00268704,0.0111881,594,1030,-0.0786761,0.0493511
-623,-6,-0.0830078,-0.041626,-0.0013131,0.000635098,-0.00106348,0.00110317,-0.00178118,-1.15618,0.00168055,0.0119481,601,1030,-0.0830136,0.0416307
-616,-6,-0.0598145,-0.0438232,-0.00123947,0.000197652,-0.000673925,0.000464232,-0.00150605,-1.19412,0.00118937,0.0132555,608,1030,-0.0598106,0.0437769
-609,-6,-0.0323486,-0.0396729,-0.000813697,0.000108972,-0.000260112,0.000177249,-0.000881973,-1.3141,0.000655107,0.0152739,615,1030,-0.0323208,0.0396736
-602,-6,-0.0612793,-0.0388184,-0.000313778,-8.32966e-05,-5.47178e-06,-8.31668e-05,-0.000313908,-1.54707,0.000187792,0.0120034,622,1030,-0.0613016,0.0387864
-595,-6,-0.0736694,-0.0374756,1.41313e-06,-5.3062e-05,0.00013107,0.000108045,-0.000159694,0.682951,0.000155535,0.0118929,629,1030,-0.0736986,0.0374855
-588,-6,-0.0743408,-0.032959,0.000312747,-3.76375e-05,0.000141417,0.000362701,-8.75921e-05,0.339561,0.000275676,0.0128764,636,1030,-0.0743279,0.0329217
-581,-6,-0.097168,0.0113525,0.000576246,-2.99272e-05,0.000107033,0.00059459,-4.8271e-05,0.169736,0.000413424,0.0206882,643,1030,-0.0971704,-0.0113204
-574,-6,-0.0844116,0.00524902,0.000849436,-3.24005e-05,7.82158e-05,0.00085632,-3.92842e-05,0.0877832,0.000584415,0.0303362,650,1030,-0.0843874,-0.00521161
-567,-6,-0.0612183,-0.0281982,0.00121048,-6.34937e-06,-1.19305e-05,0.0012106,-6.46635e-06,-0.0098033,0.000809231,0.040179,657,1030,-0.0612007,0.0281786
-560,-6,-0.0675659,0.0316162,0.00164562,1.51342e-05,-0.000168125,0.00166278,-2.0212e-06,-0.101688,0.00110919,0.0410005,664,1030,-0.067568,-0.0315612
-553,-6,-0.0287476,0.0559082,0.00217343,1.63041e-05,-0.000399725,0.00224512,-5.53844e-05,-0.177458,0.00151554,0.0382788,671,1030,-0.0287535,-0.0559169
-546,-6,-0.0275879,-0.206909,0.00271033,-2.31056e-05,-0.000707266,0.00288249,-0.000195265,-0.238772,0.00198994,0.0390075,678,1030,-0.0275853,0.206912
-539,-6,0.000305176,-0.255859,0.00319221,-0.000151051,-0.00108501,0.00351346,-0.000472304,-0.287861,0.00251457,0.0395261,685,1030,0.000314456,0.255837
-532,-6,0.0396729,-0.101807,0.0035823,-0.000422948,-0.001502,0.00408298,-0.000923626,-0.321756,0.00307643,0.0398642,692,1030,0.03968,0.101788
-525,-6,0,0,0,0,0,0,0,0,0,-1,699,1030,0,0
-518,-6,0,0,0,0,0,0,0,0,0,-1,706,1030,0,0
-511,-6,0,0,0,0,0,0,0,0,0,-1,713,1030,0,0
-504,-6,0,0,0,0,0,0,0,0,0,-1,720,1030,0,0
-497,-6,0,0,0,0,0,0,0,0,0,-1,727,1030,0,0
-490,-6,0,0,0,0,0,0,0,0,0,-1,734,1030,0,0
-483,-6,0,0,0,0,0,0,0,0,0,-1,741,1030,0,0
-476,-6,0,0,0,0,0,0,0,0,0,-1,748,1030,0,0
-469,-6,0,0,0,0,0,0,0,0,0,-1,755,1030,0,0
-462,-6,0,0,0,0,0,0,0,0,0,-1,762,1030,0,0
-455,-6,0,0,0,0,0,0,0,0,0,-1,769,1030,0,0
-448,-6,0,0,0,0,0,0,0,0,0,-1,776,1030,0,0
-441,-6,0,0,0,0,0,0,0,0,0,-1,783,1030,0,0
-434,-6,0,0,0,0,0,0,0,0,0,-1,790,1030,0,0
-427,-6,0,0,0,0,0,0,0,0,0,-1,797,1030,0,0
-420,-6,0,0,0,0,0,0,0,0,0,-1,804,1030,0,0
-413,-6,0,0,0,0,0,0,0,0,0,-1,811,1030,0,0
-406,-6,0,0,0,0,0,0,0,0,0,-1,818,1030,0,0
-399,-6,0,0,0,0,0,0,0,0,0,-1,825,1030,0,0
-392,-6,0,0,0,0,0,0,0,0,0,-1,832,1030,0,0
-385,-6,0,0,0,0,0,0,0,0,0,-1,839,1030,0,0
-378,-6,0,0,0,0,0,0,0,0,0,-1,846,1030,0,0
-371,-6,0,0,0,0,0,0,0,0,0,-1,853,1030,0,0
-364,-6,0,0,0,0,0,0,0,0,0,-1,860,1030,0,0
-357,-6,0,0,0,0,0,0,0,0,0,-1,867,1030,0,0
-350,-6,0,0,0,0,0,0,0,0,0,-1,874,1030,0,0
-343,-6,0,0,0,0,0,0,0,0,0,-1,881,1030,0,0
-336,-6,0,0,0,0,0,0,0,0,0,-1,888,1030,0,0
-329,-6,0,0,0,0,0,0,0,0,0,-1,895,1030,0,0
-322,-6,0,0,0,0,0,0,0,0,0,-1,902,1030,0,0
-315,-6,0,0,0,0,0,0,0,0,0,-1,909,1030,0,0
-308,-6,0,0,0,0,0,0,0,0,0,-1,916,1030,0,0
-301,-6,0,0,0,0,0,0,0,0,0,-1,923,1030,0,0
-294,-6,0,0,0,0,0,0,0,0,0,-1,930,1030,0,0
-287,-6,0,0,0,0,0,0,0,0,0,-1,937,1030,0,0
-280,-6,0,0,0,0,0,0,0,0,0,-1,944,1030,0,0
-273,-6,0,0,0,0,0,0,0,0,0,-1,951,1030,0,0
-266,-6,0,0,0,0,0,0,0,0,0,-1,958,1030,0,0
-259,-6,0,0,0,0,0,0,0,0,0,-1,965,1030,0,0
-252,-6,0,0,0,0,0,0,0,0,0,-1,972,1030,0,0
-245,-6,0,0,0,0,0,0,0,0,0,-1,979,1030,0,0
-238,-6,0,0,0,0,0,0,0,0,0,-1,986,1030,0,0
-231,-6,0,0,0,0,0,0,0,0,0,-1,993,1030,0,0
-224,-6,0,0,0,0,0,0,0,0,0,-1,1000,1030,0,0
-217,-6,0,0,0,0,0,0,0,0,0,-1,1007,1030,0,0
-210,-6,0,0,0,0,0,0,0,0,0,-1,1014,1030,0,0
-203,-6,0,0,0,0,0,0,0,0,0,-1,1021,1030,0,0
-196,-6,0,0,0,0,0,0,0,0,0,-1,1028,1030,0,0
-189,-6,0,0,0,0,0,0,0,0,0,-1,1035,1030,0,0
-182,-6,0,0,0,0,0,0,0,0,0,-1,1042,1030,0,0
-175,-6,0,0,0,0,0,0,0,0,0,-1,1049,1030,0,0
-168,-6,0,0,0,0,0,0,0,0,0,-1,1056,1030,0,0
-161,-6,0,0,0,0,0,0,0,0,0,-1,1063,1030,0,0
-154,-6,0,0,0,0,0,0,0,0,0,-1,1070,1030,0,0
-147,-6,0,0,0,0,0,0,0,0,0,-1,1077,1030,0,0
-140,-6,0,0,0,0,0,0,0,0,0,-1,1084,1030,0,0
-133,-6,0,0,0,0,0,0,0,0,0,-1,1091,1030,0,0
-126,-6,0,0,0,0,0,0,0,0,0,-1,1098,1030,0,0
-119,-6,0,0,0,0,0,0,0,0,0,-1,1105,1030,0,0
-112,-6,0,0,0,0,0,0,0,0,0,-1,1112,1030,0,0
-105,-6,0,0,0,0,0,0,0,0,0,-1,1119,1030,0,0
-98,-6,0,0,0,0,0,0,0,0,0,-1,1126,1030,0,0
-91,-6,0,0,0,0,0,0,0,0,0,-1,1133,1030,0,0
-84,-6,0,0,0,0,0,0,0,0,0,-1,1140,1030,0,0
-77,-6,0,0,0,0,0,0,0,0,0,-1,1147,1030,0,0
-70,-6,0,0,0,0,0,0,0,0,0,-1,1154,1030,0,0
-63,-6,0,0,0,0,0,0,0,0,0,-1,1161,1030,0,0
-56,-6,0,0,0,0,0,0,0,0,0,-1,1168,1030,0,0
-49,-6,0,0,0,0,0,0,0,0,0,-1,1175,1030,0,0
-42,-6,0,0,0,0,0,0,0,0,0,-1,1182,1030,0,0
-35,-6,0,0,0,0,0,0,0,0,0,-1,1189,1030,0,0
-28,-6,0,0,0,0,0,0,0,0,0,-1,1196,1030,0,0
-21,-6,0,0,0,0,0,0,0,0,0,-1,1203,1030,0,0
-14,-6,0,0,0,0,0,0,0,0,0,-1,1210,1030,0,0
-7,-6,0,0,0,0,0,0,0,0,0,-1,1217,1030,0,0
0,-6,0,0,0,0,0,0,0,0,0,-1,1224,1030,0,0
7,-6,0,0,0,0,0,0,0,0,0,-1,1231,1030,0,0
14,-6,0,0,0,0,0,0,0,0,0,-1,1238,1030,0,0
21,-6,0,0,0,0,0,0,0,0,0,-1,1245,1030,0,0
28,-6,0,0,0,0,0,0,0,0,0,-1,1252,1030,0,0
35,-6,0,0,0,0,0,0,0,0,0,-1,1259,1030,0,0
42,-6,0,0,0,0,0,0,0,0,0,-1,1266,1030,0,0
49,-6,0,0,0,0,0,0,0,0,0,-1,1273,1030,0,0
56,-6,0,0,0,0,0,0,0,0,0,-1,1280,1030,0,0
63,-6,0,0,0,0,0,0,0,0,0,-1,1287,1030,0,0
70,-6,0,0,0,0,0,0,0,0,0,-1,1294,1030,0,0
77,-6,0,0,0,0,0,0,0,0,0,-1,1301,1030,0,0
84,-6,0,0,0,0,0,0,0,0,0,-1,1308,1030,0,0
91,-6,0,0,0,0,0,0,0,0,0,-1,1315,1030,0,0
98,-6,0,0,0,0,0,0,0,0,0,-1,1322,1030,0,0
105,-6,0,0,0,0,0,0,0,0,0,-1,1329,1030,0,0
112,-6,0,0,0,0,0,0,0,0,0,-1,1336,1030,0,0
119,-6,0,0,0,0,0,0,0,0,0,-1,1343,1030,0,0
126,-6,0,0,0,0,0,0,0,0,0,-1,1350,1030,0,0
133,-6,0,0,0,0,0,0,0,0,0,-1,1357,1030,0,0
140,-6,0,0,0,0,0,0,0,0,0,-1,1364,1030,0,0
147,-6,0,0,0,0,0,0,0,0,0,-1,1371,1030,0,0
154,-6,0,0,0,0,0,0,0,0,0,-1,1378,1030,0,0
161,-6,0,0,0,0,0,0,0,0,0,-1,1385,1030,0,0
168,-6,0,0,0,0,0,0,0,0,0,-1,1392,1030,0,0
175,-6,0,0,0,0,0,0,0,0,0,-1,1399,1030,0,0
182,-6,0,0,0,0,0,0,0,0,0,-1,1406,1030,0,0
189,-6,0,0,0,0,0,0,0,0,0,-1,1413,1030,0,0
196,-6,0,0,0,0,0,0,0,0,0,-1,1420,1030,0,0
203,-6,0,0,0,0,0,0,0,0,0,-1,1427,1030,0,0
210,-6,0,0,0,0,0,0,0,0,0,-1,1434,1030,0,0
217,-6,0,0,0,0,0,0,0,0,0,-1,1441,1030,0,0
224,-6,0,0,0,0,0,0,0,0,0,-1,1448,1030,0,0
231,-6,0,0,0,0,0,0,0,0,0,-1,1455,1030,0,0
238,-6,0,0,0,0,0,0,0,0,0,-1,1462,1030,0,0
245,-6,0,0,0,0,0,0,0,0,0,-1,1469,1030,0,0
252,-6,0,0,0,0,0,0,0,0,0,-1,1476,1030,0,0
259,-6,0,0,0,0,0,0,0,0,0,-1,1483,1030,0,0
266,-6,0,0,0,0,0,0,0,0,0,-1,1490,1030,0,0
273,-6,0,0,0,0,0,0,0,0,0,-1,1497,1030,0,0
280,-6,0,0,0,0,0,0,0,0,0,-1,1504,1030,0,0
287,-6,0,0,0,0,0,0,0,0,0,-1,1511,1030,0,0
294,-6,0,0,0,0,0,0,0,0,0,-1,1518,1030,0,0
301,-6,0,0,0,0,0,0,0,0,0,-1,1525,1030,0,0
308,-6,0,0,0,0,0,0,0,0,0,-1,1532,1030,0,0
315,-6,0,0,0,0,0,0,0,0,0,-1,1539,1030,0,0
322,-6,0,0,0,0,0,0,0,0,0,-1,1546,1030,0,0
329,-6,0,0,0,0,0,0,0,0,0,-1,1553,1030,0,0
336,-6,0,0,0,0,0,0,0,0,0,-1,1560,1030,0,0
343,-6,0,0,0,0,0,0,0,0,0,-1,1567,1030,0,0
350,-6,0,0,0,0,0,0,0,0,0,-1,1574,1030,0,0
357,-6,0,0,0,0,0,0,0,0,0,-1,1581,1030,0,0
364,-6,0,0,0,0,0,0,0,0,0,-1,1588,1030,0,0
371,-6,0,0,0,0,0,0,0,0,0,-1,1595,1030,0,0
378,-6,0,0,0,0,0,0,0,0,0,-1,1602,1030,0,0
385,-6,0,0,0,0,0,0,0,0,0,-1,1609,1030,0,0
392,-6,0,0,0,0,0,0,0,0,0,-1,1616,1030,0,0
399,-6,0,0,0,0,0,0,0,0,0,-1,1623,1030,0,0
406,-6,0,0,0,0,0,0,0,0,0,-1,1630,1030,0,0
413,-6,0,0,0,0,0,0,0,0,0,-1,1637,1030,0,0
420,-6,0,0,0,0,0,0,0,0,0,-1,1644,1030,0,0
427,-6,0,0,0,0,0,0,0,0,0,-1,1651,1030,0,0
434,-6,0,0,0,0,0,0,0,0,0,-1,1658,1030,0,0
441,-6,0,0,0,0,0,0,0,0,0,-1,1665,1030,0,0
448,-6,0,0,0,0,0,0,0,0,0,-1,1672,1030,0,0
455,-6,0,0,0,0,0,0,0,0,0,-1,1679,1030,0,0
462,-6,0,0,0,0,0,0,0,0,0,-1,1686,1030,0,0
469,-6,0,0,0,0,0,0,0,0,0,-1,1693,1030,0,0
476,-6,0,0,0,0,0,0,0,0,0,-1,1700,1030,0,0
483,-6,0,0,0,0,0,0,0,0,0,-1,1707,1030,0,0
490,-6,0,0,0,0,0,0,0,0,0,-1,1714,1030,0,0
497,-6,0,0,0,0,0,0,0,0,0,-1,1721,1030,0,0
504,-6,0,0,0,0,0,0,0,0,0,-1,1728,1030,0,0
511,-6,0,0,0,0,0,0,0,0,0,-1,1735,1030,0,0
518,-6,0,0,0,0,0,0,0,0,0,-1,1742,1030,0,0
525,-6,0,0,0,0,0,0,0,0,0,-1,1749,1030,0,0
532,-6,0,0,0,0,0,0,0,0,0,-1,1756,1030,0,0
539,-6,0,0,0,0,0,0,0,0,0,-1,1763,1030,0,0
546,-6,0,0,0,0,0,0,0,0,0,-1,1770,1030,0,0
553,-6,0,0,0,0,0,0,0,0,0,-1,1777,1030,0,0
560,-6,0,0,0,0,0,0,0,0,0,-1,1784,1030,0,0
567,-6,0,0,0,0,0,0,0,0,0,-1,1791,1030,0,0
574,-6,0,0,0,0,0,0,0,0,0,-1,1798,1030,0,0
581,-6,0,0,0,0,0,0,0,0,0,-1,1805,1030,0,0
588,-6,0,0,0,0,0,0,0,0,0,-1,1812,1030,0,0
595,-6,0,0,0,0,0,0,0,0,0,-1,1819,1030,0,0
602,-6,0,0,0,0,0,0,0,0,0,-1,1826,1030,0,0
609,-6,0,0,0,0,0,0,0,0,0,-1,1833,1030,0,0
616,-6,0,0,0,0,0,0,0,0,0,-1,1840,1030,0,0
623,-6,0,0,0,0,0,0,0,0,0,-1,1847,1030,0,0
630,-6,0,0,0,0,0,0,0,0,0,-1,1854,1030,0,0
637,-6,0,0,0,0,0,0,0,0,0,-1,1861,1030,0,0
644,-6,0,0,0,0,0,0,0,0,0,-1,1868,1030,0,0
651,-6,-0.0390625,-0.0544434,0.000801127,0.000761552,-0.000891988,0.00167355,-0.000110867,-0.774308,0.00115443,0.0327889,1875,1030,-0.0391087,0.0544503
658,-6,-0.0133057,-0.117065,0.000386952,0.000827392,-0.000737387,0.00137674,-0.000162397,-0.930507,0.000976472,0.0353877,1882,1030,-0.0133122,0.117072
665,-6,0.0463867,-0.203735,3.0594e-05,0.000765489,-0.000626672,0.0011245,-0.000328412,-1.05056,0.000879809,0.0362754,1889,1030,0.0463499,0.203689
672,-6,0.125244,-0.245728,-0.000218117,0.000630082,-0.000534937,0.000888638,-0.000476672,-1.12057,0.000800134,0.034885,1896,1030,0.125213,0.245745
679,-6,0.100464,-0.236816,-0.000420449,0.000462122,-0.000448526,0.000650049,-0.000608376,-1.17403,0.000726685,0.03518,1903,1030,0.100509,0.23683
686,-6,-0.0706787,-0.048584,-0.000566486,0.000297785,-0.00037761,0.000439522,-0.000708224,-1.21172,0.000668677,0.0328857,1910,1030,-0.0706739,0.0486106
693,-6,-0.0936279,0.0368652,-0.000632956,0.000149565,-0.00031777,0.00026235,-0.000745742,-1.22974,0.000603915,0.0301479,1917,1030,-0.0935872,-0.0369093
700,-6,-0.0379639,-0.0386963,-0.000622496,3.88084e-05,-0.000292865,0.000149859,-0.000733546,-1.20836,0.000545884,0.0247364,1924,1030,-0.0379534,0.0386735
707,-6,-0.0633545,-0.0845947,-0.000657637,-3.347e-05,-0.000207402,2.91618e-05,-0.000720269,-1.27752,0.000490189,0.0206641,1931,1030,-0.0633967,0.084595
714,-6,-0.0667725,-0.100586,-0.000615533,-0.00013495,-0.000159265,-8.69615e-05,-0.000663521,-1.27814,0.000416398,0.0194806,1938,1030,-0.0667766,0.10053
721,-6,-0.0692139,-0.100342,-0.000489374,-0.000224687,-7.44568e-05,-0.00020518,-0.000508881,-1.31456,0.000295633,0.0162438,1945,1030,-0.0692672,0.10038
728,-6,-0.0712891,-0.0583496,-0.000384299,-0.000244178,3.42661e-05,-0.000236247,-0.000392229,1.34335,0.000228029,0.0138646,1952,1030,-0.0713212,0.0583076
735,-6,-0.0794678,-0.0615234,-0.000114142,-0.000182246,1.58494e-05,-0.000110634,-0.000185754,0.217811,0.000107897,0.0136063,1959,1030,-0.0794573,0.0615252
742,-6,-0.0773926,-0.0554199,0.000279351,-1.11273e-05,-3.40263e-05,0.000283283,-1.50599e-05,-0.115064,0.00019407,0.0109581,1966,1030,-0.0773774,0.055438
749,-6,-0.083374,-0.0540771,0.00109331,-0.000202434,0.000429966,0.001223,-0.000332128,0.292959,0.00094569,0.0105574,1973,1030,-0.0833483,0.054098
756,-6,-0.0776367,-0.0467529,0.00206857,-0.000891286,0.00101178,0.00238138,-0.00120409,0.299841,0.00210694,0.0115185,1980,1030,-0.0776841,0.0468138
763,-6,-0.081543,-0.0360107,0.00251653,-0.00173999,0.0014612,0.00296986,-0.00219332,0.300828,0.00299218,0.0104988,1987,1030,-0.0815541,0.0360577
770,-6,-0.0817871,-0.0349121,0.00343957,-0.00272932,0.00210552,0.0040897,-0.00337944,0.299485,0.0043188,0.00951608,1994,1030,-0.0817547,0.0348866
777,-6,-0.0844727,-0.0596924,0.00452087,-0.00419271,0.00293937,0.00541969,-0.00509153,0.29676,0.00606965,0.0136835,2001,1030,-0.0844537,0.0597453
784,-6,0.0203857,-0.205322,0.00567125,-0.00627579,0.0040047,0.00688944,-0.00749397,0.295294,0.00830671,0.0347022,2008,1030,0.020335,0.20531
791,-6,0.148926,-0.348389,0.0067617,-0.00911953,0.00530238,0.00836931,-0.0107271,0.294378,0.0110533,0.0477535,2015,1030,0.148905,0.348433
798,-6,0.0269775,-0.63269,0.0076615,-0.0128761,0.0068033,0.0097107,-0.0149253,0.292563,0.0143294,0.0461459,2022,1030,0.0269928,0.632631
805,-6,0.22937,-0.729126,0.00814192,-0.0177114,0.00845622,0.0106621,-0.0202316,0.28965,0.0181195,0.0450167,2029,1030,0.22931,0.729184
812,-6,-0.0823975,-0.256104,0.00769732,-0.0237786,0.0101572,0.0106904,-0.0267717,0.286565,0.0222831,0.0424002,2036,1030,-0.0823744,0.256106
-700,-13,0,0,0,0,0,0,0,0,0,-1,524,1037,0,0
-693,-13,0.405762,0.529297,0.0306219,0.0345788,-0.0496394,0.0822792,-0.0170784,-0.805316,0.0613432,0.0429353,531,1037,0.405759,-0.529312
-686,-13,-0.200012,-0.278442,0.02451,0.0261667,-0.040548,0.0658948,-0.0152181,-0.795612,0.049784,0.0419423,538,1037,-0.20002,0.278454
-679,-13,-0.412231,-0.383911,0.0189312,0.0196265,-0.0324729,0.0517537,-0.0131959,-0.790751,0.0396401,0.0450514,545,1037,-0.412256,0.38387
-672,-13,-0.275452,-0.0324707,0.0140275,0.0145291,-0.0254549,0.0397345,-0.0111779,-0.790325,0.0308971,0.0444438,552,1037,-0.275424,0.0324719
-665,-13,0.0315552,0.106445,0.00992178,0.0105837,-0.0195024,0.029758,-0.0092525,-0.793883,0.023537,0.0446804,559,1037,0.0315702,-0.106487
-658,-13,-0.152344,0.237305,0.00662039,0.00756936,-0.014567,0.0216696,-0.00747983,-0.801679,0.0174815,0.0459293,566,1037,-0.152317,-0.237304
-651,-13,0.0664673,0.0123291,0.0040692,0.00530507,-0.0105812,0.0152864,-0.00591209,-0.814565,0.0126315,0.0415376,573,1037,0.066473,-0.0123142
-644,-13,-0.0581665,-0.000854492,0.00221017,0.00311449,-0.00741651,0.0100926,-0.00476796,-0.815844,0.00876141,0.027753,580,1037,-0.0581396,0.000818101
-637,-13,-0.0737305,-0.0465088,0.00108768,0.00227407,-0.00487969,0.00659649,-0.00323474,-0.845883,0.00578562,0.0178488,587,1037,-0.0737029,0.0465201
-630,-13,-0.074585,-0.048584,-0.000237341,0.000618408,-0.00233411,0.00256354,-0.00218247,-0.876048,0.00274306,0.0113238,594,1037,-0.074574,0.0486155
-623,-13,-0.0700073,-0.0362549,-0.00113382,0.000634988,-0.00115601,0.0012061,-0.00170493,-1.11193,0.00168889,0.0107462,601,1037,-0.0700179,0.0362752
-616,-13,-0.053772,-0.0539551,-0.00113614,0.00027284,-0.000707673,0.000566902,-0.0014302,-1.17697,0.0011884,0.0107113,608,1037,-0.0537729,0.0539644
-609,-13,-0.0301514,-0.0639648,-0.000735871,0.000170991,-0.00025516,0.000237854,-0.000802734,-1.31451,0.0006296,0.0145833,615,1037,-0.0301605,0.0639871
-602,-13,-0.0665894,-0.0604248,-0.000261715,-5.95481e-05,3.37042e-06,-5.94919e-05,-0.000261771,1.55413,0.000158451,0.0106782,622,1037,-0.0665729,0.0604015
-595,-13,-0.0623169,-0.050293,6.96981e-07,-5.10991e-05,0.000151964,0.000128954,-0.000179356,0.700998,0.000178794,0.0117632,629,1037,-0.0623071,0.0502826
-588,-13,-0.0548706,-0.052124,0.000251275,-5.04932e-05,0.000169929,0.00032764,-0.000126858,0.422347,0.000270805,0.0132934,636,1037,-0.0548525,0.0521773
-581,-13,-0.0788574,-0.0424805,0.000470221,-4.14324e-05,0.000125747,0.000499455,-7.06665e-05,0.228425,0.000358853,0.0147981,643,1037,-0.0788838,0.0424887
-574,-13,-0.0941162,-0.00415039,0.000710224,-4.03195e-05,9.10308e-05,0.000721107,-5.12025e-05,0.118988,0.000498683,0.0308863,650,1037,-0.0940866,0.00419853
-567,-13,-0.126709,-0.0118408,0.00100943,-9.24849e-06,7.6093e-07,0.00100943,-9.24908e-06,0.000746981,0.000676055,0.0379066,657,1037,-0.126722,0.0118989
-560,-13,-0.0790405,0.0202637,0.00137102,2.20956e-05,-0.000151644,0.00138785,5.25796e-06,-0.11058,0.000923489,0.0386895,664,1037,-0.0790298,-0.0202575
-553,-13,-0.0194702,0.168823,0.00180755,3.78469e-05,-0.000375433,0.0018839,-3.85051e-05,-0.200634,0.00126897,0.0396157,671,1037,-0.0194781,-0.168775
-546,-13,-0.0188599,-0.0578613,0.00223552,1.79344e-05,-0.000669326,0.00242188,-0.000168425,-0.27155,0.00167356,0.0370094,678,1037,-0.0188433,0.0578171
-539,-13,-0.0619507,-0.185059,0.00261771,-8.69142e-05,-0.00103191,0.00296645,-0.000435655,-0.325907,0.0021377,0.036021,685,1037,-0.0619619,0.185108
-532,-13,-0.140198,-0.109131,0.00291651,-0.000337288,-0.00144229,0.00346378,-0.000884555,-0.362661,0.00265364,0.0374985,692,1037,-0.140201,0.10911
-525,-13,0,0,0,0,0,0,0,0,0,-1,699,1037,0,0
-518,-13,0,0,0,0,0,0,0,0,0,-1,706,1037,0,0
-511,-13,0,0,0,0,0,0,0,0,0,-1,713,1037,0,0
-504,-13,0,0,0,0,0,0,0,0,0,-1,720,1037,0,0
-497,-13,0,0,0,0,0,0,0,0,0,-1,727,1037,0,0
-490,-13,0,0,0,0,0,0,0,0,0,-1,734,1037,0,0
-483,-13,0,0,0,0,0,0,0,0,0,-1,741,1037,0,0
-476,-13,0,0,0,0,0,0,0,0,0,-1,748,1037,0,0
-469,-13,0,0,0,0,0,0,0,0,0,-1,755,1037,0,0
-462,-13,0,0,0,0,0,0,0,0,0,-1,762,1037,0,0
-455,-13,0,0,0,0,0,0,0,0,0,-1,769,1037,0,0
-448,-13,0,0,0,0,0,0,0,0,0,-1,776,1037,0,0
-441,-13,0,0,0,0,0,0,0,0,0,-1,783,1037,0,0
-434,-13,0,0,0,0,0,0,0,0,0,-1,790,1037,0,0
-427,-13,0,0,0,0,0,0,0,0,0,-1,797,1037,0,0
-420,-13,0,0,0,0,0,0,0,0,0,-1,804,1037,0,0
-413,-13,0,0,0,0,0,0,0,0,0,-1,811,1037,0,0
-406,-13,0,0,0,0,0,0,0,0,0,-1,818,1037,0,0
-399,-13,0,0,0,0,0,0,0,0,0,-1,825,1037,0,0
-392,-13,0,0,0,0,0,0,0,0,0,-1,832,1037,0,0
-385,-13,0,0,0,0,0,0,0,0,0,-1,839,1037,0,0
-378,-13,0,0,0,0,0,0,0,0,0,-1,846,1037,0,0
-371,-13,0,0,0,0,0,0,0,0,0,-1,853,1037,0,0
-364,-13,0,0,0,0,0,0,0,0,0,-1,860,1037,0,0
-357,-13,0,0,0,0,0,0,0,0,0,-1,867,1037,0,0
-350,-13,0,0,0,0,0,0,0,0,0,-1,874,1037,0,0
-343,-13,0,0,0,0,0,0,0,0,0,-1,881,1037,0,0
-336,-13,0,0,0,0,0,0,0,0,0,-1,888,1037,0,0
-329,-13,0,0,0,0,0,0,0,0,0,-1,895,1037,0,0
-322,-13,0,0,0,0,0,0,0,0,0,-1,902,1037,0,0
-315,-13,0,0,0,0,0,0,0,0,0,-1,909,1037,0,0
-308,-13,0,0,0,0,0,0,0,0,0,-1,916,1037,0,0
-301,-13,0,0,0,0,0,0,0,0,0,-1,923,1037,0,0
-294,-13,0,0,0,0,0,0,0,0,0,-1,930,1037,0,0
-287,-13,0,0,0,0,0,0,0,0,0,-1,937,1037,0,0
-280,-13,0,0,0,0,0,0,0,0,0,-1,944,1037,0,0
-273,-13,0,0,0,0,0,0,0,0,0,-1,951,1037,0,0
-266,-13,0,0,0,0,0,0,0,0,0,-1,958,1037,0,0
-259,-13,0,0,0,0,0,0,0,0,0,-1,965,1037,0,0
-252,-13,0,0,0,0,0,0,0,0,0,-1,972,1037,0,0
-245,-13,0,0,0,0,0,0,0,0,0,-1,979,1037,0,0
-238,-13,0,0,0,0,0,0,0,0,0,-1,986,1037,0,0
-231,-13,0,0,0,0,0,0,0,0,0,-1,993,1037,0,0
-224,-13,0,0,0,0,0,0,0,0,0,-1,1000,1037,0,0
-217,-13,0,0,0,0,0,0,0,0,0,-1,1007,1037,0,0
-210,-13,0,0,0,0,0,0,0,0,0,-1,1014,1037,0,0
-203,-13,0,0,0,0,0,0,0,0,0,-1,1021,1037,0,0
-196,-13,0,0,0,0,0,0,0,0,0,-1,1028,1037,0,0
-189,-13,0,0,0,0,0,0,0,0,0,-1,1035,1037,0,0
-182,-13,0,0,0,0,0,0,0,0,0,-1,1042,1037,0,0
-175,-13,0,0,0,0,0,0,0,0,0,-1,1049,1037,0,0
-168,-13,0,0,0,0,0,0,0,0,0,-1,1056,1037,0,0
-161,-13,0,0,0,0,0,0,0,0,0,-1,1063,1037,0,0
-154,-13,0,0,0,0,0,0,0,0,0,-1,1070,1037,0,0
-147,-13,0,0,0,0,0,0,0,0,0,-1,1077,1037,0,0
-140,-13,0,0,0,0,0,0,0,0,0,-1,1084,1037,0,0
-133,-13,0,0,0,0,0,0,0,0,0,-1,1091,1037,0,0
-126,-13,0,0,0,0,0,0,0,0,0,-1,1098,1037,0,0
-119,-13,0,0,0,0,0,0,0,0,0,-1,1105,1037,0,0
-112,-13,0,0,0,0,0,0,0,0,0,-1,1112,1037,0,0
-105,-13,0,0,0,0,0,0,0,0,0,-1,1119,1037,0,0
-98,-13,0,0,0,0,0,0,0,0,0,-1,1126,1037,0,0
-91,-13,0,0,0,0,0,0,0,0,0,-1,1133,1037,0,0
-84,-13,0,0,0,0,0,0,0,0,0,-1,1140,1037,0,0
-77,-13,0,0,0,0,0,0,0,0,0,-1,1147,1037,0,0
-70,-13,0,0,0,0,0,0,0,0,0,-1,1154,1037,0,0
-63,-13,0,0,0,0,0,0,0,0,0,-1,1161,1037,0,0
-56,-13,0,0,0,0,0,0,0,0,0,-1,1168,1037,0,0
-49,-13,0,0,0,0,0,0,0,0,0,-1,1175,1037,0,0
-42,-13,0,0,0,0,0,0,0,0,0,-1,1182,1037,0,0
-35,-13,0,0,0,0,0,0,0,0,0,-1,1189,1037,0,0
-28,-13,0,0,0,0,0,0,0,0,0,-1,1196,1037,0,0
-21,-13,0,0,0,0,0,0,0,0,0,-1,1203,1037,0,0
-14,-13,0,0,0,0,0,0,0,0,0,-1,1210,1037,0,0
-7,-13,0,0,0,0,0,0,0,0,0,-1,1217,1037,0,0
0,-13,0,0,0,0,0,0,0,0,0,-1,1224,1037,0,0
7,-13,0,0,0,0,0,0,0,0,0,-1,1231,1037,0,0
14,-13,0,0,0,0,0,0,0,0,0,-1,1238,1037,0,0
21,-13,0,0,0,0,0,0,0,0,0,-1,1245,1037,0,0
28,-13,0,0,0,0,0,0,0,0,0,-1,1252,1037,0,0
35,-13,0,0,0,0,0,0,0,0,0,-1,1259,1037,0,0
42,-13,0,0,0,0,0,0,0,0,0,-1,1266,1037,0,0
49,-13,0,0,0,0,0,0,0,0,0,-1,1273,1037,0,0
56,-13,0,0,0,0,0,0,0,0,0,-1,1280,1037,0,0
63,-13,0,0,0,0,0,0,0,0,0,-1,1287,1037,0,0
70,-13,0,0,0,0,0,0,0,0,0,-1,1294,1037,0,0
77,-13,0,0,0,0,0,0,0,0,0,-1,1301,1037,0,0
84,-13,0,0,0,0,0,0,0,0,0,-1,1308,1037,0,0
91,-13,0,0,0,0,0,0,0,0,0,-1,1315,1037,0,0
98,-13,0,0,0,0,0,0,0,0,0,-1,1322,1037,0,0
105,-13,0,0,0,0,0,0,0,0,0,-1,1329,1037,0,0
112,-13,0,0,0,0,0,0,0,0,0,-1,1336,1037,0,0
119,-13,0,0,0,0,0,0,0,0,0,-1,1343,1037,0,0
126,-13,0,0,0,0,0,0,0,0,0,-1,1350,1037,0,0
133,-13,0,0,0,0,0,0,0,0,0,-1,1357,1037,0,0
140,-13,0,0,0,0,0,0,0,0,0,-1,1364,1037,0,0
147,-13,0,0,0,0,0,0,0,0,0,-1,1371,1037,0,0
154,-13,0,0,0,0,0,0,0,0,0,-1,1378,1037,0,0
161,-13,0,0,0,0,0,0,0,0,0,-1,1385,1037,0,0
168,-13,0,0,0,0,0,0,0,0,0,-1,1392,1037,0,0
175,-13,0,0,0,0,0,0,0,0,0,-1,1399,1037,0,0
182,-13,0,0,0,0,0,0,0,0,0,-1,1406,1037,0,0
189,-13,0,0,0,0,0,0,0,0,0,-1,1413,1037,0,0
196,-13,0,0,0,0,0,0,0,0,0,-1,1420,1037,0,0
203,-13,0,0,0,0,0,0,0,0,0,-1,1427,1037,0,0
210,-13,0,0,0,0,0,0,0,0,0,-1,1434,1037,0,0
217,-13,0,0,0,0,0,0,0,0,0,-1,1441,1037,0,0
224,-13,0,0,0,0,0,0,0,0,0,-1,1448,1037,0,0
231,-13,0,0,0,0,0,0,0,0,0,-1,1455,1037,0,0
238,-13,0,0,0,0,0,0,0,0,0,-1,1462,1037,0,0
245,-13,0,0,0,0,0,0,0,0,0,-1,1469,1037,0,0
252,-13,0,0,0,0,0,0,0,0,0,-1,1476,1037,0,0
259,-13,0,0,0,0,0,0,0,0,0,-1,1483,1037,0,0
266,-13,0,0,0,0,0,0,0,0,0,-1,1490,1037,0,0
273,-13,0,0,0,0,0,0,0,0,0,-1,1497,1037,0,0
280,-13,0,0,0,0,0,0,0,0,0,-1,1504,1037,0,0
287,-13,0,0,0,0,0,0,0,0,0,-1,1511,1037,0,0
294,-13,0,0,0,0,0,0,0,0,0,-1,1518,1037,0,0
301,-13,0,0,0,0,0,0,0,0,0,-1,1525,1037,0,0
308,-13,0,0,0,0,0,0,0,0,0,-1,1532,1037,0,0
315,-13,0,0,0,0,0,0,0,0,0,-1,1539,1037,0,0
322,-13,0,0,0,0,0,0,0,0,0,-1,1546,1037,0,0
329,-13,0,0,0,0,0,0,0,0,0,-1,1553,1037,0,0
336,-13,0,0,0,0,0,0,0,0,0,-1,1560,1037,0,0
343,-13,0,0,0,0,0,0,0,0,0,-1,1567,1037,0,0
350,-13,0,0,0,0,0,0,0,0,0,-1,1574,1037,0,0
357,-13,0,0,0,0,0,0,0,0,0,-1,1581,1037,0,0
364,-13,0,0,0,0,0,0,0,0,0,-1,1588,1037,0,0
371,-13,0,0,0,0,0,0,0,0,0,-1,1595,1037,0,0
378,-13,0,0,0,0,0,0,0,0,0,-1,1602,1037,0,0
385,-13,0,0,0,0,0,0,0,0,0,-1,1609,1037,0,0
392,-13,0,0,0,0,0,0,0,0,0,-1,1616,1037,0,0
399,-13,0,0,0,0,0,0,0,0,0,-1,1623,1037,0,0
406,-13,0,0,0,0,0,0,0,0,0,-1,1630,1037,0,0
413,-13,0,0,0,0,0,0,0,0,0,-1,1637,1037,0,0
420,-13,0,0,0,0,0,0,0,0,0,-1,1644,1037,0,0
427,-13,0,0,0,0,0,0,0,0,0,-1,1651,1037,0,0
434,-13,0,0,0,0,0,0,0,0,0,-1,1658,1037,0,0
441,-13,0,0,0,0,0,0,0,0,0,-1,1665,1037,0,0
448,-13,0,0,0,0,0,0,0,0,0,-1,1672,1037,0,0
455,-13,0,0,0,0,0,0,0,0,0,-1,1679,1037,0,0
462,-13,0,0,0,0,0,0,0,0,0,-1,1686,1037,0,0
469,-13,0,0,0,0,0,0,0,0,0,-1,1693,1037,0,0
476,-13,0,0,0,0,0,0,0,0,0,-1,1700,1037,0,0
483,-13,0,0,0,0,0,0,0,0,0,-1,1707,1037,0,0
490,-13,0,0,0,0,0,0,0,0,0,-1,1714,1037,0,0
497,-13,0,0,0,0,0,0,0,0,0,-1,1721,1037,0,0
504,-13,0,0,0,0,0,0,0,0,0,-1,1728,1037,0,0
511,-13,0,0,0,0,0,0,0,0,0,-1,1735,1037,0,0
518,-13,0,0,0,0,0,0,0,0,0,-1,1742,1037,0,0
525,-13,0,0,0,0,0,0,0,0,0,-1,1749,1037,0,0
532,-13,0,0,0,0,0,0,0,0,0,-1,1756,1037,0,0
539,-13,0,0,0,0,0,0,0,0,0,-1,1763,1037,0,0
546,-13,0,0,0,0,0,0,0,0,0,-1,1770,1037,0,0
553,-13,0,0,0,0,0,0,0,0,0,-1,1777,1037,0,0
560,-13,0,0,0,0,0,0,0,0,0,-1,1784,1037,0,0
567,-13,0,0,0,0,0,0,0,0,0,-1,1791,1037,0,0
574,-13,0,0,0,0,0,0,0,0,0,-1,1798,1037,0,0
581,-13,0,0,0,0,0,0,0,0,0,-1,1805,1037,0,0
588,-13,0,0,0,0,0,0,0,0,0,-1,1812,1037,0,0
595,-13,0,0,0,0,0,0,0,0,0,-1,1819,1037,0,0
602,-13,0,0,0,0,0,0,0,0,0,-1,1826,1037,0,0
609,-13,0,0,0,0,0,0,0,0,0,-1,1833,1037,0,0
616,-13,0,0,0,0,0,0,0,0,0,-1,1840,1037,0,0
623,-13,0,0,0,0,0,0,0,0,0,-1,1847,1037,0,0
630,-13,0,0,0,0,0,0,0,0,0,-1,1854,1037,0,0
637,-13,0,0,0,0,0,0,0,0,0,-1,1861,1037,0,0
644,-13,0,0,0,0,0,0,0,0,0,-1,1868,1037,0,0
651,-13,0.0632324,-0.00183105,0.000601574,0.00095266,-0.00187843,0.00266373,-0.0011095,-0.831989,0.00223923,0.0362032,1875,1037,0.0631866,0.00179761
658,-13,0.0161133,-0.027832,0.000201248,0.000949381,-0.00141405,0.002038,-0.000887375,-0.914704,0.00173197,0.0416613,1882,1037,0.0161165,0.0277726
665,-13,0.00280762,-0.0715332,-0.000136724,0.000842999,-0.00107588,0.00153529,-0.000829015,-0.999029,0.00138519,0.0379413,1889,1037,0.00277302,0.0715002
672,-13,0.108276,-0.251709,-0.000362123,0.00067527,-0.000821847,0.00112842,-0.000815269,-1.0669,0.00112703,0.0312222,1896,1037,0.108237,0.251716
679,-13,-0.00939941,-0.227661,-0.000544675,0.000487219,-0.000625784,0.000782325,-0.000839781,-1.13014,0.000936719,0.0322433,1903,1037,-0.00939512,0.227717
686,-13,-0.138428,0.0383301,-0.000673342,0.00031089,-0.000482968,0.000508293,-0.000870746,-1.18279,0.000805303,0.0333611,1910,1037,-0.138426,-0.0383906
693,-13,-0.166016,0.100586,-0.000724583,0.000154156,-0.000377674,0.000294168,-0.000864596,-1.21578,0.000695508,0.0327432,1917,1037,-0.166036,-0.100552
700,-13,-0.106934,-0.055542,-0.000710473,3.33654e-05,-0.00031844,0.000151066,-0.000828174,-1.21675,0.000608752,0.0307668,1924,1037,-0.106988,0.0555972
707,-13,-0.0782471,-0.0758057,-0.000730786,-4.38139e-05,-0.000204396,1.24005e-05,-0.000787,-1.30241,0.000528849,0.0247333,1931,1037,-0.0783055,0.0757763
714,-13,-0.0628662,-0.0667725,-0.000653374,-0.000151314,-0.000143041,-0.00011342,-0.000691268,-1.31183,0.000428077,0.0177463,1938,1037,-0.0628645,0.0668202
721,-13,-0.0703125,-0.0490723,-0.000510861,-0.000246858,-7.11824e-05,-0.000228889,-0.00052883,-1.32352,0.000306237,0.0163007,1945,1037,-0.0702888,0.0490847
728,-13,-0.0726318,-0.0377197,-0.000423994,-0.000252777,7.10772e-06,-0.000252482,-0.000424289,1.52938,0.000246435,0.0150892,1952,1037,-0.0726341,0.0377126
735,-13,-0.0869141,-0.050293,-0.000183873,-0.000173594,-3.43713e-05,-0.00014398,-0.000213487,-0.859609,0.000125732,0.0153894,1959,1037,-0.0868998,0.0503316
742,-13,-0.0849609,-0.0528564,0.000219591,8.37527e-06,-7.95037e-05,0.000246172,-1.82056e-05,-0.322652,0.000170507,0.0090529,1966,1037,-0.0849889,0.0528864
749,-13,-0.0963135,-0.0510254,0.00116851,-9.92718e-05,0.000419773,0.0012949,-0.000225662,0.292457,0.000947489,0.0138662,1973,1037,-0.0963506,0.0509764
756,-13,-0.0761719,-0.0662842,0.00232403,-0.00101684,0.00106782,0.00263617,-0.00132897,0.284389,0.00233037,0.0115612,1980,1037,-0.0761157,0.0662623
763,-13,-0.0794678,-0.0495605,0.0029307,-0.002174,0.00154152,0.00336009,-0.00260339,0.271664,0.00345224,0.00843802,1987,1037,-0.0794906,0.0495468
770,-13,-0.0769043,-0.038208,0.00407548,-0.00345378,0.00225774,0.00470059,-0.00407889,0.270109,0.00507307,0.00748799,1994,1037,-0.0769438,0.0381477
777,-13,-0.0836182,-0.0532227,0.00545347,-0.00536965,0.00319633,0.00632694,-0.00624311,0.266758,0.00725737,0.0105661,2001,1037,-0.0836243,0.0531838
784,-13,-0.0848389,-0.0687256,0.00698001,-0.00811809,0.00439985,0.00816862,-0.0093067,0.263851,0.0100965,0.0252015,2008,1037,-0.0848764,0.0687278
791,-13,0.0822754,-0.183838,0.00852971,-0.0118985,0.00586808,0.0100953,-0.0134642,0.260732,0.0136484,0.0446683,2015,1037,0.0822724,0.18388
798,-13,0.140381,-0.201538,0.00997038,-0.0169369,0.00757272,0.0119552,-0.0189218,0.256337,0.0179774,0.0482045,2022,1037,0.140364,0.201512
805,-13,0.4021,0.338989,0.0110547,-0.0234864,0.00945126,0.0134717,-0.0259033,0.250364,0.0231078,0.0397438,2029,1037,0.402052,-0.338999
812,-13,0.106201,0.289307,0.0112442,-0.0318212,0.0113793,0.0140661,-0.034643,0.243079,0.0289466,0.0402112,2036,1037,0.106143,-0.289259
-700,-20,0.788391,1.52222,0,0,0,0,0,0,0,-1,524,1044,0.788375,-1.52224
-693,-20,0.690735,0.531494,0.0266212,0.0377932,-0.0478767,0.0804086,-0.0159943,-0.843473,0.0596563,0.0402814,531,1044,0.690756,-0.531541
-686,-20,0.344543,0.0358887,0.0218512,0.0280831,-0.0395505,0.0646402,-0.0147059,-0.824709,0.0487407,0.0416111,538,1044,0.344552,-0.0358992
-679,-20,0.146118,-0.0245361,0.0172287,0.0206853,-0.0319823,0.0509859,-0.0130719,-0.812392,0.0390835,0.0450334,545,1044,0.146131,0.0245614
-672,-20,-0.0300903,-0.0517578,0.0129953,0.0150481,-0.0252791,0.0393216,-0.0112782,-0.805688,0.0306729,0.0453091,552,1044,-0.0300774,0.051703
-665,-20,-0.00439453,0.0483398,0.00933858,0.0107889,-0.0194981,0.0295753,-0.00944782,-0.803985,0.0235077,0.045398,559,1044,-0.00438348,-0.0483417
-658,-20,0.0501099,-0.074707,0.006316,0.00761468,-0.0146365,0.0216163,-0.0076856,-0.807566,0.0175432,0.0458375,566,1044,0.0501074,0.0746488
-651,-20,0.0475464,0.00878906,0.00393909,0.00528865,-0.0106633,0.0152985,-0.00607072,-0.816997,0.0127152,0.0371723,573,1044,0.0475159,-0.00882177
-644,-20,-0.052002,-0.00891113,0.00217401,0.00287916,-0.00747544,0.0100103,-0.00495716,-0.808963,0.00880412,0.0246095,580,1044,-0.0519996,0.00887534
-637,-20,-0.072876,-0.0595703,0.00106709,0.00208592,-0.00485283,0.006456,-0.00330299,-0.837693,0.00573154,0.0157629,587,1044,-0.0728532,0.0596068
-630,-20,-0.0900879,-0.0179443,-0.000145688,0.000569453,-0.00234532,0.0025843,-0.00216054,-0.861046,0.00274307,0.0126762,594,1044,-0.0901126,0.0179104
-623,-20,-0.0704956,-0.0239258,-0.000981161,0.000672968,-0.00119276,0.00129735,-0.00160554,-1.08854,0.00167913,0.0117976,601,1044,-0.0704781,0.0239191
-616,-20,-0.0581665,-0.0505371,-0.00105578,0.000394747,-0.000696203,0.000674822,-0.00133585,-1.18832,0.00118159,0.0111073,608,1044,-0.0581938,0.0505459
-609,-20,-0.0528564,-0.0638428,-0.000676761,0.000281213,-0.00022037,0.000329475,-0.000725023,-1.3552,0.000622928,0.0121696,615,1044,-0.0528683,0.0638763
-602,-20,-0.0673828,-0.052002,-0.000230161,-8.93633e-07,3.57768e-05,4.55956e-06,-0.000235614,1.41954,0.000158618,0.01028,622,1044,-0.067363,0.051941
-595,-20,-0.0740356,-0.0457764,-1.35229e-05,-2.11301e-05,0.000184305,0.000167018,-0.000201671,0.775081,0.000213175,0.010035,629,1044,-0.0740444,0.0458049
-588,-20,-0.0761719,-0.0366211,0.000190837,-2.16399e-05,0.000194193,0.000305952,-0.000136755,0.535101,0.000261746,0.0111331,636,1044,-0.0761994,0.0366146
-581,-20,-0.0730591,-0.0394287,0.000376865,-4.49305e-06,0.000120795,0.000411907,-3.95347e-05,0.282343,0.000288687,0.0182887,643,1044,-0.0730548,0.0394493
-574,-20,-0.154175,-0.0118408,0.000593585,1.45789e-05,5.10341e-05,0.000598049,1.01152e-05,0.0872445,0.00039537,0.0327268,650,1044,-0.154205,0.0118102
-567,-20,-0.203125,0.00146484,0.00085363,6.03872e-05,-7.21456e-05,0.000860138,5.3879e-05,-0.0899665,0.000556336,0.039243,657,1044,-0.203149,-0.00148931
-560,-20,-0.0922852,0.0161133,0.00117392,0.000123789,-0.000269,0.00123881,5.88925e-05,-0.236727,0.000806961,0.0400751,664,1044,-0.0923023,-0.0160683
-553,-20,0.000183105,0.0960693,0.00156184,0.000196923,-0.000554576,0.00175876,3.84171e-09,-0.341194,0.0011725,0.0395883,671,1044,0.000181841,-0.0961198
-546,-20,-0.0529785,0.103149,0.00194091,0.000272777,-0.000935232,0.00235997,-0.000146282,-0.421256,0.00162427,0.039636,678,1044,-0.0529846,-0.103142
-539,-20,-0.158875,-0.00488281,0.00230141,0.000321656,-0.00142443,0.00304614,-0.000423072,-0.48174,0.00218548,0.0382637,685,1044,-0.158849,0.00486244
-532,-20,-0.180054,0.0494385,0.00259914,0.000309105,-0.00203185,0.00378639,-0.000878149,-0.528811,0.00286224,0.0349693,692,1044,-0.180057,-0.049382
-525,-20,0,0,0,0,0,0,0,0,0,-1,699,1044,0,0
-518,-20,0,0,0,0,0,0,0,0,0,-1,706,1044,0,0
-511,-20,0,0,0,0,0,0,0,0,0,-1,713,1044,0,0
-504,-20,0,0,0,0,0,0,0,0,0,-1,720,1044,0,0
-497,-20,0,0,0,0,0,0,0,0,0,-1,727,1044,0,0
-490,-20,0,0,0,0,0,0,0,0,0,-1,734,1044,0,0
-483,-20,0,0,0,0,0,0,0,0,0,-1,741,1044,0,0
-476,-20,0,0,0,0,0,0,0,0,0,-1,748,1044,0,0
-469,-20,0,0,0,0,0,0,0,0,0,-1,755,1044,0,0
-462,-20,0,0,0,0,0,0,0,0,0,-1,762,1044,0,0
-455,-20,0,0,0,0,0,0,0,0,0,-1,769,1044,0,0
-448,-20,0,0,0,0,0,0,0,0,0,-1,776,1044,0,0
-441,-20,0,0,0,0,0,0,0,0,0,-1,783,1044,0,0
-434,-20,0,0,0,0,0,0,0,0,0,-1,790,1044,0,0
-427,-20,0,0,0,0,0,0,0,0,0,-1,797,1044,0,0
-420,-20,0,0,0,0,0,0,0,0,0,-1,804,1044,0,0
-413,-20,0,0,0,0,0,0,0,0,0,-1,811,1044,0,0
-406,-20,0,0,0,0,0,0,0,0,0,-1,818,1044,0,0
-399,-20,0,0,0,0,0,0,0,0,0,-1,825,1044,0,0
-392,-20,0,0,0,0,0,0,0,0,0,-1,832,1044,0,0
-385,-20,0,0,0,0,0,0,0,0,0,-1,839,1044,0,0
-378,-20,0,0,0,0,0,0,0,0,0,-1,846,1044,0,0
-371,-20,0,0,0,0,0,0,0,0,0,-1,853,1044,0,0
-364,-20,0,0,0,0,0,0,0,0,0,-1,860,1044,0,0
-357,-20,0,0,0,0,0,0,0,0,0,-1,867,1044,0,0
-350,-20,0,0,0,0,0,0,0,0,0,-1,874,1044,0,0
-343,-20,0,0,0,0,0,0,0,0,0,-1,881,1044,0,0
-336,-20,0,0,0,0,0,0,0,0,0,-1,888,1044,0,0
-329,-20,0,0,0,0,0,0,0,0,0,-1,895,1044,0,0
-322,-20,0,0,0,0,0,0,0,0,0,-1,902,1044,0,0
-315,-20,0,0,0,0,0,0,0,0,0,-1,909,1044,0,0
-308,-20,0,0,0,0,0,0,0,0,0,-1,916,1044,0,0
-301,-20,0,0,0,0,0,0,0,0,0,-1,923,1044,0,0
-294,-20,0,0,0,0,0,0,0,0,0,-1,930,1044,0,0
-287,-20,0,0,0,0,0,0,0,0,0,-1,937,1044,0,0
-280,-20,0,0,0,0,0,0,0,0,0,-1,944,1044,0,0
-273,-20,0,0,0,0,0,0,0,0,0,-1,951,1044,0,0
-266,-20,0,0,0,0,0,0,0,0,0,-1,958,1044,0,0
-259,-20,0,0,0,0,0,0,0,0,0,-1,965,1044,0,0
-252,-20,0,0,0,0,0,0,0,0,0,-1,972,1044,0,0
-245,-20,0,0,0,0,0,0,0,0,0,-1,979,1044,0,0
-238,-20,0,0,0,0,0,0,0,0,0,-1,986,1044,0,0
-231,-20,0,0,0,0,0,0,0,0,0,-1,993,1044,0,0
-224,-20,0,0,0,0,0,0,0,0,0,-1,1000,1044,0,0
-217,-20,0,0,0,0,0,0,0,0,0,-1,1007,1044,0,0
-210,-20,0,0,0,0,0,0,0,0,0,-1,1014,1044,0,0
-203,-20,0,0,0,0,0,0,0,0,0,-1,1021,1044,0,0
-196,-20,0,0,0,0,0,0,0,0,0,-1,1028,1044,0,0
-189,-20,0,0,0,0,0,0,0,0,0,-1,1035,1044,0,0
-182,-20,0,0,0,0,0,0,0,0,0,-1,1042,1044,0,0
-175,-20,0,0,0,0,0,0,0,0,0,-1,1049,1044,0,0
-168,-20,0,0,0,0,0,0,0,0,0,-1,1056,1044,0,0
-161,-20,0,0,0,0,0,0,0,0,0,-1,1063,1044,0,0
-154,-20,0,0,0,0,0,0,0,0,0,-1,1070,1044,0,0
-147,-20,0,0,0,0,0,0,0,0,0,-1,1077,1044,0,0
-140,-20,0,0,0,0,0,0,0,0,0,-1,1084,1044,0,0
-133,-20,0,0,0,0,0,0,0,0,0,-1,1091,1044,0,0
-126,-20,0,0,0,0,0,0,0,0,0,-1,1098,1044,0,0
-119,-20,0,0,0,0,0,0,0,0,0,-1,1105,1044,0,0
-112,-20,0,0,0,0,0,0,0,0,0,-1,1112,1044,0,0
-105,-20,0,0,0,0,0,0,0,0,0,-1,1119,1044,0,0
-98,-20,0,0,0,0,0,0,0,0,0,-1,1126,1044,0,0
-91,-20,0,0,0,0,0,0,0,0,0,-1,1133,1044,0,0
-84,-20,0,0,0,0,0,0,0,0,0,-1,1140,1044,0,0
-77,-20,0,0,0,0,0,0,0,0,0,-1,1147,1044,0,0
-70,-20,0,0,0,0,0,0,0,0,0,-1,1154,1044,0,0
-63,-20,0,0,0,0,0,0,0,0,0,-1,1161,1044,0,0
-56,-20,0,0,0,0,0,0,0,0,0,-1,1168,1044,0,0
-49,-20,0,0,0,0,0,0,0,0,0,-1,1175,1044,0,0
-42,-20,0,0,0,0,0,0,0,0,0,-1,1182,1044,0,0
-35,-20,0,0,0,0,0,0,0,0,0,-1,1189,1044,0,0
-28,-20,0,0,0,0,0,0,0,0,0,-1,1196,1044,0,0
-21,-20,0,0,0,0,0,0,0,0,0,-1,1203,1044,0,0
-14,-20,0,0,0,0,0,0,0,0,0,-1,1210,1044,0,0
-7,-20,0,0,0,0,0,0,0,0,0,-1,1217,1044,0,0
0,-20,0,0,0,0,0,0,0,0,0,-1,1224,1044,0,0
7,-20,0,0,0,0,0,0,0,0,0,-1,1231,1044,0,0
14,-20,0,0,0,0,0,0,0,0,0,-1,1238,1044,0,0
21,-20,0,0,0,0,0,0,0,0,0,-1,1245,1044,0,0
28,-20,0,0,0,0,0,0,0,0,0,-1,1252,1044,0,0
35,-20,0,0,0,0,0,0,0,0,0,-1,1259,1044,0,0
42,-20,0,0,0,0,0,0,0,0,0,-1,1266,1044,0,0
49,-20,0,0,0,0,0,0,0,0,0,-1,1273,1044,0,0
56,-20,0,0,0,0,0,0,0,0,0,-1,1280,1044,0,0
63,-20,0,0,0,0,0,0,0,0,0,-1,1287,1044,0,0
70,-20,0,0,0,0,0,0,0,0,0,-1,1294,1044,0,0
77,-20,0,0,0,0,0,0,0,0,0,-1,1301,1044,0,0
84,-20,0,0,0,0,0,0,0,0,0,-1,1308,1044,0,0
91,-20,0,0,0,0,0,0,0,0,0,-1,1315,1044,0,0
98,-20,0,0,0,0,0,0,0,0,0,-1,1322,1044,0,0
105,-20,0,0,0,0,0,0,0,0,0,-1,1329,1044,0,0
112,-20,0,0,0,0,0,0,0,0,0,-1,1336,1044,0,0
119,-20,0,0,0,0,0,0,0,0,0,-1,1343,1044,0,0
126,-20,0,0,0,0,0,0,0,0,0,-1,1350,1044,0,0
133,-20,0,0,0,0,0,0,0,0,0,-1,1357,1044,0,0
140,-20,0,0,0,0,0,0,0,0,0,-1,1364,1044,0,0
147,-20,0,0,0,0,0,0,0,0,0,-1,1371,1044,0,0
154,-20,0,0,0,0,0,0,0,0,0,-1,1378,1044,0,0
161,-20,0,0,0,0,0,0,0,0,0,-1,1385,1044,0,0
168,-20,0,0,0,0,0,0,0,0,0,-1,1392,1044,0,0
175,-20,0,0,0,0,0,0,0,0,0,-1,1399,1044,0,0
182,-20,0,0,0,0,0,0,0,0,0,-1,1406,1044,0,0
189,-20,0,0,0,0,0,0,0,0,0,-1,1413,1044,0,0
196,-20,0,0,0,0,0,0,0,0,0,-1,1420,1044,0,0
203,-20,0,0,0,0,0,0,0,0,0,-1,1427,1044,0,0
210,-20,0,0,0,0,0,0,0,0,0,-1,1434,1044,0,0
217,-20,0,0,0,0,0,0,0,0,0,-1,1441,1044,0,0
224,-20,0,0,0,0,0,0,0,0,0,-1,1448,1044,0,0
231,-20,0,0,0,0,0,0,0,0,0,-1,1455,1044,0,0
238,-20,0,0,0,0,0,0,0,0,0,-1,1462,1044,0,0
245,-20,0,0,0,0,0,0,0,0,0,-1,1469,1044,0,0
252,-20,0,0,0,0,0,0,0,0,0,-1,1476,1044,0,0
259,-20,0,0,0,0,0,0,0,0,0,-1,1483,1044,0,0
266,-20,0,0,0,0,0,0,0,0,0,-1,1490,1044,0,0
273,-20,0,0,0,0,0,0,0,0,0,-1,1497,1044,0,0
280,-20,0,0,0,0,0,0,0,0,0,-1,1504,1044,0,0
287,-20,0,0,0,0,0,0,0,0,0,-1,1511,1044,0,0
294,-20,0,0,0,0,0,0,0,0,0,-1,1518,1044,0,0
301,-20,0,0,0,0,0,0,0,0,0,-1,1525,1044,0,0
308,-20,0,0,0,0,0,0,0,0,0,-1,1532,1044,0,0
315,-20,0,0,0,0,0,0,0,0,0,-1,1539,1044,0,0
322,-20,0,0,0,0,0,0,0,0,0,-1,1546,1044,0,0
329,-20,0,0,0,0,0,0,0,0,0,-1,1553,1044,0,0
336,-20,0,0,0,0,0,0,0,0,0,-1,1560,1044,0,0
343,-20,0,0,0,0,0,0,0,0,0,-1,1567,1044,0,0
350,-20,0,0,0,0,0,0,0,0,0,-1,1574,1044,0,0
357,-20,0,0,0,0,0,0,0,0,0,-1,1581,1044,0,0
364,-20,0,0,0,0,0,0,0,0,0,-1,1588,1044,0,0
371,-20,0,0,0,0,0,0,0,0,0,-1,1595,1044,0,0
378,-20,0,0,0,0,0,0,0,0,0,-1,1602,1044,0,0
385,-20,0,0,0,0,0,0,0,0,0,-1,1609,1044,0,0
392,-20,0,0,0,0,0,0,0,0,0,-1,1616,1044,0,0
399,-20,0,0,0,0,0,0,0,0,0,-1,1623,1044,0,0
406,-20,0,0,0,0,0,0,0,0,0,-1,1630,1044,0,0
413,-20,0,0,0,0,0,0,0,0,0,-1,1637,1044,0,0
420,-20,0,0,0,0,0,0,0,0,0,-1,1644,1044,0,0
427,-20,0,0,0,0,0,0,0,0,0,-1,1651,1044,0,0
434,-20,0,0,0,0,0,0,0,0,0,-1,1658,1044,0,0
441,-20,0,0,0,0,0,0,0,0,0,-1,1665,1044,0,0
448,-20,0,0,0,0,0,0,0,0,0,-1,1672,1044,0,0
455,-20,0,0,0,0,0,0,0,0,0,-1,1679,1044,0,0
462,-20,0,0,0,0,0,0,0,0,0,-1,1686,1044,0,0
469,-20,0,0,0,0,0,0,0,0,0,-1,1693,1044,0,0
476,-20,0,0,0,0,0,0,0,0,0,-1,1700,1044,0,0
483,-20,0,0,0,0,0,0,0,0,0,-1,1707,1044,0,0
490,-20,0,0,0,0,0,0,0,0,0,-1,1714,1044,0,0
497,-20,0,0,0,0,0,0,0,0,0,-1,1721,1044,0,0
504,-20,0,0,0,0,0,0,0,0,0,-1,1728,1044,0,0
511,-20,0,0,0,0,0,0,0,0,0,-1,1735,1044,0,0
518,-20,0,0,0,0,0,0,0,0,0,-1,1742,1044,0,0
525,-20,0,0,0,0,0,0,0,0,0,-1,1749,1044,0,0
532,-20,0,0,0,0,0,0,0,0,0,-1,1756,1044,0,0
539,-20,0,0,0,0,0,0,0,0,0,-1,1763,1044,0,0
546,-20,0,0,0,0,0,0,0,0,0,-1,1770,1044,0,0
553,-20,0,0,0,0,0,0,0,0,0,-1,1777,1044,0,0
560,-20,0,0,0,0,0,0,0,0,0,-1,1784,1044,0,0
567,-20,0,0,0,0,0,0,0,0,0,-1,1791,1044,0,0
574,-20,0,0,0,0,0,0,0,0,0,-1,1798,1044,0,0
581,-20,0,0,0,0,0,0,0,0,0,-1,1805,1044,0,0
588,-20,0,0,0,0,0,0,0,0,0,-1,1812,1044,0,0
595,-20,0,0,0,0,0,0,0,0,0,-1,1819,1044,0,0
602,-20,0,0,0,0,0,0,0,0,0,-1,1826,1044,0,0
609,-20,0,0,0,0,0,0,0,0,0,-1,1833,1044,0,0
616,-20,0,0,0,0,0,0,0,0,0,-1,1840,1044,0,0
623,-20,0,0,0,0,0,0,0,0,0,-1,1847,1044,0,0
630,-20,0,0,0,0,0,0,0,0,0,-1,1854,1044,0,0
637,-20,0,0,0,0,0,0,0,0,0,-1,1861,1044,0,0
644,-20,0,0,0,0,0,0,0,0,0,-1,1868,1044,0,0
651,-20,0.131226,-0.0512695,0.000408727,0.000895486,-0.00265679,0.00332002,-0.00201581,-0.831074,0.00311117,0.035596,1875,1044,0.131222,0.0512315
658,-20,0.09729,-0.0198975,2.4518e-05,0.000874329,-0.00190181,0.00239812,-0.00149928,-0.895304,0.00227003,0.0395353,1882,1044,0.0972296,0.0199229
665,-20,0.00964355,-0.0240479,-0.000294333,0.000769468,-0.00135135,0.00168983,-0.00121469,-0.97289,0.00168439,0.0357476,1889,1044,0.00967413,0.0241019
672,-20,-0.0187988,-0.0479736,-0.000498707,0.000608698,-0.000953437,0.00115755,-0.00104756,-1.04847,0.00127365,0.0227719,1896,1044,-0.0188104,0.0480065
679,-20,-0.0455322,-0.0950928,-0.000664962,0.000433968,-0.000669516,0.000750623,-0.000981617,-1.12901,0.00100307,0.0252438,1903,1044,-0.045577,0.0951355
686,-20,-0.0235596,-0.039917,-0.000778917,0.000273134,-0.000477661,0.000457646,-0.000963428,-1.20217,0.000837601,0.033878,1910,1044,-0.0235624,0.0398636
693,-20,-0.0806885,0.052124,-0.000816819,0.000131207,-0.000349372,0.000246048,-0.00093166,-1.25322,0.000717329,0.0382725,1917,1044,-0.0807478,-0.052081
700,-20,-0.101318,-0.0161133,-0.000796062,1.95729e-05,-0.00027891,0.000105826,-0.000882316,-1.27087,0.000626472,0.035073,1924,1044,-0.101337,0.0160897
707,-20,-0.0638428,-0.0584717,-0.00080382,-4.60447e-05,-0.000156582,-1.49643e-05,-0.0008349,-1.37485,0.00055168,0.0248069,1931,1044,-0.0638284,0.0584559
714,-20,-0.057373,-0.0443115,-0.000698416,-0.000144448,-9.45383e-05,-0.000128758,-0.000714105,-1.40634,0.000439483,0.0162295,1938,1044,-0.0573522,0.0443257
721,-20,-0.071167,-0.0114746,-0.000542658,-0.000237413,-5.27094e-05,-0.000228568,-0.000551503,-1.40453,0.000319961,0.0114336,1945,1044,-0.0712044,0.0115259
728,-20,-0.0950928,-0.0410156,-0.000468942,-0.000230075,-2.20202e-05,-0.000228062,-0.000470955,-1.47963,0.000271951,0.0113653,1952,1044,-0.0951506,0.0410326
735,-20,-0.0991211,-0.0444336,-0.000263827,-0.000132477,-9.50582e-05,-8.2613e-05,-0.000313691,-1.08769,0.000187749,0.0136303,1959,1044,-0.0990656,0.0443951
742,-20,-0.0872803,-0.0323486,0.000125187,7.09304e-05,-0.000134503,0.00023527,-3.91529e-05,-0.685887,0.000171395,0.0124008,1966,1044,-0.087226,0.0323391
749,-20,-0.0931396,-0.0377197,0.00114875,9.07468e-05,0.000389419,0.00127663,-3.71304e-05,0.317286,0.000863727,0.0141367,1973,1044,-0.0930829,0.0377422
756,-20,-0.0770264,-0.0579834,0.00242525,-0.000908968,0.00110536,0.00275841,-0.00124213,0.292743,0.00236436,0.0108586,1980,1044,-0.0769921,0.0580009
763,-20,-0.0820313,-0.0718994,0.00317801,-0.00219756,0.00165411,0.00364621,-0.00266576,0.275839,0.00365884,0.0102825,1987,1044,-0.0819748,0.0718499
770,-20,-0.0706787,-0.0526123,0.00449449,-0.00355985,0.00248047,0.0051971,-0.00426246,0.276026,0.00547036,0.0101433,1994,1044,-0.0707298,0.0526193
777,-20,-0.0858154,-0.0311279,0.00611991,-0.00563341,0.00358108,0.00712505,-0.00663856,0.273642,0.00794808,0.0113031,2001,1044,-0.0858086,0.0310813
784,-20,-0.0980225,-0.00500488,0.00798173,-0.00863865,0.00500412,0.00937208,-0.010029,0.271006,0.0112034,0.0161259,2008,1044,-0.0979679,0.00505754
791,-20,-0.0238037,-0.0317383,0.00997151,-0.0128091,0.00675849,0.0118257,-0.0146633,0.267759,0.0153226,0.0357562,2015,1044,-0.0238611,0.0317359
798,-20,0.0461426,-0.0905762,0.0119706,-0.0184141,0.00882961,0.0143501,-0.0207935,0.263236,0.0204036,0.0452829,2022,1044,0.0460941,0.0905429
805,-20,0.913086,1.59412,0.0137366,-0.0257626,0.0111599,0.0166716,-0.0286976,0.257171,0.0264989,0.0408471,2029,1044,0.913079,-1.59406
812,-20,0.773926,1.51062,0.0147361,-0.0352189,0.0136305,0.0182132,-0.038696,0.249772,0.0335584,0.0412039,2036,1044,0.773893,-1.51061
-700,-27,0.980713,1.75806,0,0,0,0,0,0,0,-1,524,1051,0.980704,-1.75801
-693,-27,0.906555,0.845581,0.0251011,0.0422448,-0.0469211,0.0813706,-0.0140247,-0.875745,0.0594757,0.043823,531,1051,0.906584,-0.845538
-686,-27,0.990967,0.14978,0.0208007,0.0307062,-0.0390414,0.0651077,-0.0136008,-0.848491,0.0485776,0.0425337,538,1051,0.99096,-0.149802
-679,-27,0.588379,0.364746,0,0,0,0,0,0,0,-1,545,1051,0.58839,-0.36479
-672,-27,0.51886,0.113403,0.0124584,0.0156569,-0.0252202,0.0393285,-0.0112133,-0.817061,0.0306483,0.0420033,552,1051,0.518868,-0.113392
-665,-27,0.377808,0.114258,0.00894972,0.0109204,-0.0195259,0.0294858,-0.00961566,-0.810608,0.0235268,0.0443697,559,1051,0.377827,-0.11423
-658,-27,0.340576,0.356445,0,0,0,0,0,0,0,-1,566,1051,0.340575,-0.356447
-651,-27,-0.0259399,0.065918,0.00375221,0.00505907,-0.0107238,0.0151493,-0.00633801,-0.815827,0.0127486,0.0322053,573,1051,-0.025936,-0.065925
-644,-27,-0.0767822,-0.0432129,0.00205226,0.00242471,-0.00751665,0.00975744,-0.00528047,-0.797783,0.00880946,0.0145432,580,1051,-0.0767553,0.0431624
-637,-27,-0.0802612,-0.0512695,0.000954032,0.00166715,-0.00482717,0.00615091,-0.00352973,-0.822264,0.005657,0.0116179,587,1051,-0.0802849,0.0512145
-630,-27,-0.101746,-0.00927734,-0.000141292,0.000339586,-0.00236897,0.00248029,-0.00228199,-0.835972,0.0027503,0.015799,594,1051,-0.10176,0.00930123
-623,-27,-0.0849609,-0.0212402,-0.000855223,0.000583288,-0.00125274,0.00130857,-0.0015805,-1.04599,0.00167046,0.0140141,601,1051,-0.0849562,0.0211964
-616,-27,-0.0673218,-0.0440674,-0.000962961,0.000418621,-0.000693345,0.000706564,-0.0012509,-1.17717,0.00114462,0.0121107,608,1051,-0.0673098,0.044027
-609,-27,-0.0675049,-0.043335,-0.000602467,0.000333687,-0.000172692,0.000364528,-0.000633308,-1.39407,0.000583026,0.0124713,615,1051,-0.0674835,0.0432893
-602,-27,-0.0645752,-0.0368652,-0.000181782,6.93203e-05,6.85847e-05,8.68319e-05,-0.000199294,1.32081,0.000169395,0.0105859,622,1051,-0.0646052,0.036819
-595,-27,-0.0682983,-0.0252686,7.44533e-08,6.44635e-05,0.000193731,0.000228657,-0.000164119,0.867737,0.000227787,0.00934411,629,1051,-0.0682993,0.0252256
-588,-27,-0.0706177,-0.0283203,0.000177582,9.81066e-05,0.000178914,0.000321118,-4.54291e-05,0.676119,0.000230717,0.0114259,636,1051,-0.070602,0.0283804
-581,-27,-0.0606079,-0.0323486,0.00035259,0.000150395,6.99677e-05,0.000374441,0.000128545,0.302695,0.000219694,0.0167389,643,1051,-0.0606121,0.0323898
-574,-27,-0.0943604,-0.0340576,0.000562771,0.000226573,-4.87334e-05,0.000569692,0.000219651,-0.141087,0.000331771,0.0311278,650,1051,-0.0943319,0.0340259
-567,-27,-0.174377,0.00354004,0.000811046,0.000330584,-0.000223917,0.00089922,0.000242411,-0.375132,0.000537227,0.0392935,657,1051,-0.174382,-0.00359945
-560,-27,-0.110107,-0.0140381,0.00112357,0.000466983,-0.00048771,0.00138319,0.000207367,-0.489165,0.000861364,0.0413183,664,1051,-0.110088,0.0140719
-553,-27,0.0563965,-0.0438232,0.00150396,0.000631757,-0.000859499,0.00203167,0.000104052,-0.550627,0.00132113,0.0381917,671,1051,0.0564127,0.0438078
-546,-27,-0.0508423,0.236328,0.00188374,0.000821499,-0.00135376,0.00280684,-0.000101602,-0.59846,0.001906,0.0384932,678,1051,-0.0508325,-0.23631
-539,-27,-0.12677,0.321777,0.00227939,0.00101954,-0.00199477,0.00374133,-0.000442405,-0.632459,0.00265401,0.0394517,685,1051,-0.126746,-0.321786
-532,-27,-0.0770874,0.0374756,0.00263363,0.00120401,-0.00281647,0.00482458,-0.000986937,-0.661124,0.00359086,0.0361923,692,1051,-0.077094,-0.0375151
-525,-27,0,0,0,0,0,0,0,0,0,-1,699,1051,0,0
-518,-27,0,0,0,0,0,0,0,0,0,-1,706,1051,0,0
-511,-27,0,0,0,0,0,0,0,0,0,-1,713,1051,0,0
-504,-27,0,0,0,0,0,0,0,0,0,-1,720,1051,0,0
-497,-27,0,0,0,0,0,0,0,0,0,-1,727,1051,0,0
-490,-27,0,0,0,0,0,0,0,0,0,-1,734,1051,0,0
-483,-27,0,0,0,0,0,0,0,0,0,-1,741,1051,0,0
-476,-27,0,0,0,0,0,0,0,0,0,-1,748,1051,0,0
-469,-27,0,0,0,0,0,0,0,0,0,-1,755,1051,0,0
-462,-27,0,0,0,0,0,0,0,0,0,-1,762,1051,0,0
-455,-27,0,0,0,0,0,0,0,0,0,-1,769,1051,0,0
-448,-27,0,0,0,0,0,0,0,0,0,-1,776,1051,0,0
-441,-27,0,0,0,0,0,0,0,0,0,-1,783,1051,0,0
-434,-27,0,0,0,0,0,0,0,0,0,-1,790,1051,0,0
-427,-27,0,0,0,0,0,0,0,0,0,-1,797,1051,0,0
-420,-27,0,0,0,0,0,0,0,0,0,-1,804,1051,0,0
-413,-27,0,0,0,0,0,0,0,0,0,-1,811,1051,0,0
-406,-27,0,0,0,0,0,0,0,0,0,-1,818,1051,0,0
-399,-27,0,0,0,0,0,0,0,0,0,-1,825,1051,0,0
-392,-27,0,0,0,0,0,0,0,0,0,-1,832,1051,0,0
-385,-27,0,0,0,0,0,0,0,0,0,-1,839,1051,0,0
-378,-27,0,0,0,0,0,0,0,0,0,-1,846,1051,0,0
-371,-27,0,0,0,0,0,0,0,0,0,-1,853,1051,0,0
-364,-27,0,0,0,0,0,0,0,0,0,-1,860,1051,0,0
-357,-27,0,0,0,0,0,0,0,0,0,-1,867,1051,0,0
-350,-27,0,0,0,0,0,0,0,0,0,-1,874,1051,0,0
-343,-27,0,0,0,0,0,0,0,0,0,-1,881,1051,0,0
-336,-27,0,0,0,0,0,0,0,0,0,-1,888,1051,0,0
-329,-27,0,0,0,0,0,0,0,0,0,-1,895,1051,0,0
-322,-27,0,0,0,0,0,0,0,0,0,-1,902,1051,0,0
-315,-27,0,0,0,0,0,0,0,0,0,-1,909,1051,0,0
-308,-27,0,0,0,0,0,0,0,0,0,-1,916,1051,0,0
-301,-27,0,0,0,0,0,0,0,0,0,-1,923,1051,0,0
-294,-27,0,0,0,0,0,0,0,0,0,-1,930,1051,0,0
-287,-27,0,0,0,0,0,0,0,0,0,-1,937,1051,0,0
-280,-27,0,0,0,0,0,0,0,0,0,-1,944,1051,0,0
-273,-27,0,0,0,0,0,0,0,0,0,-1,951,1051,0,0
-266,-27,0,0,0,0,0,0,0,0,0,-1,958,1051,0,0
-259,-27,0,0,0,0,0,0,0,0,0,-1,965,1051,0,0
-252,-27,0,0,0,0,0,0,0,0,0,-1,972,1051,0,0
-245,-27,0,0,0,0,0,0,0,0,0,-1,979,1051,0,0
-238,-27,0,0,0,0,0,0,0,0,0,-1,986,1051,0,0
-231,-27,0,0,0,0,0,0,0,0,0,-1,993,1051,0,0
-224,-27,0,0,0,0,0,0,0,0,0,-1,1000,1051,0,0
-217,-27,0,0,0,0,0,0,0,0,0,-1,1007,1051,0,0
-210,-27,0,0,0,0,0,0,0,0,0,-1,1014,1051,0,0
-203,-27,0,0,0,0,0,0,0,0,0,-1,1021,1051,0,0
-196,-27,0,0,0,0,0,0,0,0,0,-1,1028,1051,0,0
-189,-27,0,0,0,0,0,0,0,0,0,-1,1035,1051,0,0
-182,-27,0,0,0,0,0,0,0,0,0,-1,1042,1051,0,0
-175,-27,0,0,0,0,0,0,0,0,0,-1,1049,1051,0,0
-168,-27,0,0,0,0,0,0,0,0,0,-1,1056,1051,0,0
-161,-27,0,0,0,0,0,0,0,0,0,-1,1063,1051,0,0
-154,-27,0,0,0,0,0,0,0,0,0,-1,1070,1051,0,0
-147,-27,0,0,0,0,0,0,0,0,0,-1,1077,1051,0,0
-140,-27,0,0,0,0,0,0,0,0,0,-1,1084,1051,0,0
-133,-27,0,0,0,0,0,0,0,0,0,-1,1091,1051,0,0
-126,-27,0,0,0,0,0,0,0,0,0,-1,1098,1051,0,0
-119,-27,0,0,0,0,0,0,0,0,0,-1,1105,1051,0,0
-112,-27,0,0,0,0,0,0,0,0,0,-1,1112,1051,0,0
-105,-27,0,0,0,0,0,0,0,0,0,-1,1119,1051,0,0
-98,-27,0,0,0,0,0,0,0,0,0,-1,1126,1051,0,0
-91,-27,0,0,0,0,0,0,0,0,0,-1,1133,1051,0,0
-84,-27,0,0,0,0,0,0,0,0,0,-1,1140,1051,0,0
-77,-27,0,0,0,0,0,0,0,0,0,-1,1147,1051,0,0
-70,-27,0,0,0,0,0,0,0,0,0,-1,1154,1051,0,0
-63,-27,0,0,0,0,0,0,0,0,0,-1,1161,1051,0,0
-56,-27,0,0,0,0,0,0,0,0,0,-1,1168,1051,0,0
-49,-27,0,0,0,0,0,0,0,0,0,-1,1175,1051,0,0
-42,-27,0,0,0,0,0,0,0,0,0,-1,1182,1051,0,0
-35,-27,0,0,0,0,0,0,0,0,0,-1,1189,1051,0,0
-28,-27,0,0,0,0,0,0,0,0,0,-1,1196,1051,0,0
-21,-27,0,0,0,0,0,0,0,0,0,-1,1203,1051,0,0
-14,-27,0,0,0,0,0,0,0,0,0,-1,1210,1051,0,0
-7,-27,0,0,0,0,0,0,0,0,0,-1,1217,1051,0,0
0,-27,0,0,0,0,0,0,0,0,0,-1,1224,1051,0,0
7,-27,0,0,0,0,0,0,0,0,0,-1,1231,1051,0,0
14,-27,0,0,0,0,0,0,0,0,0,-1,1238,1051,0,0
21,-27,0,0,0,0,0,0,0,0,0,-1,1245,1051,0,0
28,-27,0,0,0,0,0,0,0,0,0,-1,1252,1051,0,0
35,-27,0,0,0,0,0,0,0,0,0,-1,1259,1051,0,0
42,-27,0,0,0,0,0,0,0,0,0,-1,1266,1051,0,0
49,-27,0,0,0,0,0,0,0,0,0,-1,1273,1051,0,0
56,-27,0,0,0,0,0,0,0,0,0,-1,1280,1051,0,0
63,-27,0,0,0,0,0,0,0,0,0,-1,1287,1051,0,0
70,-27,0,0,0,0,0,0,0,0,0,-1,1294,1051,0,0
77,-27,0,0,0,0,0,0,0,0,0,-1,1301,1051,0,0
84,-27,0,0,0,0,0,0,0,0,0,-1,1308,1051,0,0
91,-27,0,0,0,0,0,0,0,0,0,-1,1315,1051,0,0
98,-27,0,0,0,0,0,0,0,0,0,-1,1322,1051,0,0
105,-27,0,0,0,0,0,0,0,0,0,-1,1329,1051,0,0
112,-27,0,0,0,0,0,0,0,0,0,-1,1336,1051,0,0
119,-27,0,0,0,0,0,0,0,0,0,-1,1343,1051,0,0
126,-27,0,0,0,0,0,0,0,0,0,-1,1350,1051,0,0
133,-27,0,0,0,0,0,0,0,0,0,-1,1357,1051,0,0
140,-27,0,0,0,0,0,0,0,0,0,-1,1364,1051,0,0
147,-27,0,0,0,0,0,0,0,0,0,-1,1371,1051,0,0
154,-27,0,0,0,0,0,0,0,0,0,-1,1378,1051,0,0
161,-27,0,0,0,0,0,0,0,0,0,-1,1385,1051,0,0
168,-27,0,0,0,0,0,0,0,0,0,-1,1392,1051,0,0
175,-27,0,0,0,0,0,0,0,0,0,-1,1399,1051,0,0
182,-27,0,0,0,0,0,0,0,0,0,-1,1406,1051,0,0
189,-27,0,0,0,0,0,0,0,0,0,-1,1413,1051,0,0
196,-27,0,0,0,0,0,0,0,0,0,-1,1420,1051,0,0
203,-27,0,0,0,0,0,0,0,0,0,-1,1427,1051,0,0
210,-27,0,0,0,0,0,0,0,0,0,-1,1434,1051,0,0
217,-27,0,0,0,0,0,0,0,0,0,-1,1441,1051,0,0
224,-27,0,0,0,0,0,0,0,0,0,-1,1448,1051,0,0
231,-27,0,0,0,0,0,0,0,0,0,-1,1455,1051,0,0
238,-27,0,0,0,0,0,0,0,0,0,-1,1462,1051,0,0
245,-27,0,0,0,0,0,0,0,0,0,-1,1469,1051,0,0
252,-27,0,0,0,0,0,0,0,0,0,-1,1476,1051,0,0
259,-27,0,0,0,0,0,0,0,0,0,-1,1483,1051,0,0
266,-27,0,0,0,0,0,0,0,0,0,-1,1490,1051,0,0
273,-27,0,0,0,0,0,0,0,0,0,-1,1497,1051,0,0
280,-27,0,0,0,0,0,0,0,0,0,-1,1504,1051,0,0
287,-27,0,0,0,0,0,0,0,0,0,-1,1511,1051,0,0
294,-27,0,0,0,0,0,0,0,0,0,-1,1518,1051,0,0
301,-27,0,0,0,0,0,0,0,0,0,-1,1525,1051,0,0
308,-27,0,0,0,0,0,0,0,0,0,-1,1532,1051,0,0
315,-27,0,0,0,0,0,0,0,0,0,-1,1539,1051,0,0
322,-27,0,0,0,0,0,0,0,0,0,-1,1546,1051,0,0
329,-27,0,0,0,0,0,0,0,0,0,-1,1553,1051,0,0
336,-27,0,0,0,0,0,0,0,0,0,-1,1560,1051,0,0
343,-27,0,0,0,0,0,0,0,0,0,-1,1567,1051,0,0
350,-27,0,0,0,0,0,0,0,0,0,-1,1574,1051,0,0
357,-27,0,0,0,0,0,0,0,0,0,-1,1581,1051,0,0
364,-27,0,0,0,0,0,0,0,0,0,-1,1588,1051,0,0
371,-27,0,0,0,0,0,0,0,0,0,-1,1595,1051,0,0
378,-27,0,0,0,0,0,0,0,0,0,-1,1602,1051,0,0
385,-27,0,0,0,0,0,0,0,0,0,-1,1609,1051,0,0
392,-27,0,0,0,0,0,0,0,0,0,-1,1616,1051,0,0
399,-27,0,0,0,0,0,0,0,0,0,-1,1623,1051,0,0
406,-27,0,0,0,0,0,0,0,0,0,-1,1630,1051,0,0
413,-27,0,0,0,0,0,0,0,0,0,-1,1637,1051,0,0
420,-27,0,0,0,0,0,0,0,0,0,-1,1644,1051,0,0
427,-27,0,0,0,0,0,0,0,0,0,-1,1651,1051,0,0
434,-27,0,0,0,0,0,0,0,0,0,-1,1658,1051,0,0
441,-27,0,0,0,0,0,0,0,0,0,-1,1665,1051,0,0
448,-27,0,0,0,0,0,0,0,0,0,-1,1672,1051,0,0
455,-27,0,0,0,0,0,0,0,0,0,-1,1679,1051,0,0
462,-27,0,0,0,0,0,0,0,0,0,-1,1686,1051,0,0
469,-27,0,0,0,0,0,0,0,0,0,-1,1693,1051,0,0
476,-27,0,0,0,0,0,0,0,0,0,-1,1700,1051,0,0
483,-27,0,0,0,0,0,0,0,0,0,-1,1707,1051,0,0
490,-27,0,0,0,0,0,0,0,0,0,-1,1714,1051,0,0
497,-27,0,0,0,0,0,0,0,0,0,-1,1721,1051,0,0
504,-27,0,0,0,0,0,0,0,0,0,-1,1728,1051,0,0
511,-27,0,0,0,0,0,0,0,0,0,-1,1735,1051,0,0
518,-27,0,0,0,0,0,0,0,0,0,-1,1742,1051,0,0
525,-27,0,0,0,0,0,0,0,0,0,-1,1749,1051,0,0
532,-27,0,0,0,0,0,0,0,0,0,-1,1756,1051,0,0
539,-27,0,0,0,0,0,0,0,0,0,-1,1763,1051,0,0
546,-27,0,0,0,0,0,0,0,0,0,-1,1770,1051,0,0
553,-27,0,0,0,0,0,0,0,0,0,-1,1777,1051,0,0
560,-27,0,0,0,0,0,0,0,0,0,-1,1784,1051,0,0
567,-27,0,0,0,0,0,0,0,0,0,-1,1791,1051,0,0
574,-27,0,0,0,0,0,0,0,0,0,-1,1798,1051,0,0
581,-27,0,0,0,0,0,0,0,0,0,-1,1805,1051,0,0
588,-27,0,0,0,0,0,0,0,0,0,-1,1812,1051,0,0
595,-27,0,0,0,0,0,0,0,0,0,-1,1819,1051,0,0
602,-27,0,0,0,0,0,0,0,0,0,-1,1826,1051,0,0
609,-27,0,0,0,0,0,0,0,0,0,-1,1833,1051,0,0
616,-27,0,0,0,0,0,0,0,0,0,-1,1840,1051,0,0
623,-27,0,0,0,0,0,0,0,0,0,-1,1847,1051,0,0
630,-27,0,0,0,0,0,0,0,0,0,-1,1854,1051,0,0
637,-27,0,0,0,0,0,0,0,0,0,-1,1861,1051,0,0
644,-27,0,0,0,0,0,0,0,0,0,-1,1868,1051,0,0
651,-27,0.126465,0.146362,0.000212464,0.000575851,-0.00329254,0.0036917,-0.00290339,-0.812962,0.00381673,0.0340004,1875,1051,0.126421,-0.146403
658,-27,0.116577,-0.0343018,-0.00013365,0.000600238,-0.00226454,0.00252737,-0.00206078,-0.86572,0.00265353,0.0352352,1882,1051,0.116591,0.0343503
665,-27,-0.00183105,-0.0847168,-0.000420325,0.00055691,-0.00151529,0.00166041,-0.00152383,-0.941364,0.00183899,0.0340462,1889,1051,-0.00178228,0.0847484
672,-27,-0.145264,-0.0404053,-0.000595408,0.000459435,-0.000989572,0.00105336,-0.00118934,-1.03024,0.00129562,0.0266795,1896,1051,-0.145239,0.0403693
679,-27,-0.0861816,-0.0628662,-0.000740336,0.00034645,-0.000633211,0.000637462,-0.00103135,-1.14,0.000972393,0.0251059,1903,1051,-0.0862242,0.0628242
686,-27,-0.00585938,-0.0168457,-0.000837212,0.000239572,-0.000405575,0.00037524,-0.00097288,-1.24799,0.000803428,0.0348402,1910,1051,-0.005911,0.0168526
693,-27,0.0469971,-0.0791016,-0.000861435,0.000141395,-0.000265234,0.000207224,-0.000927264,-1.32752,0.000697587,0.0373156,1917,1051,0.0470316,0.0791115
700,-27,-0.00854492,-0.115356,-0.000831291,6.21655e-05,-0.000194978,0.000102862,-0.000871987,-1.36503,0.00061847,0.0330025,1924,1051,-0.00859986,0.115387
707,-27,-0.0762939,-0.0594482,-0.000830924,1.45709e-05,-7.28707e-05,2.08055e-05,-0.000837158,-1.48545,0.000565168,0.0191076,1931,1051,-0.0762545,0.0594805
714,-27,-0.0645752,-0.0368652,-0.000710009,-6.86381e-05,-1.478e-05,-6.82977e-05,-0.00071035,-1.54777,0.000452522,0.0126237,1938,1051,-0.0645345,0.0368063
721,-27,-0.0650635,-0.0273438,-0.000551085,-0.000150373,-1.08675e-05,-0.000150078,-0.000551379,-1.5437,0.000329169,0.0107097,1945,1051,-0.0650692,0.0273853
728,-27,-0.0941162,-0.057251,-0.000488812,-0.000139779,-3.73546e-05,-0.000135826,-0.000492765,-1.46536,0.00029389,0.012395,1952,1051,-0.094174,0.0572099
735,-27,-0.103516,-0.0623779,-0.000328717,-5.36155e-05,-0.000149788,1.21971e-05,-0.000394529,-1.15682,0.000267178,0.0152225,1959,1051,-0.103559,0.0623582
742,-27,-0.0847168,-0.0476074,3.63002e-06,0.000121562,-0.000203458,0.000274427,-0.000149234,-0.926444,0.000248135,0.0151729,1966,1051,-0.0847577,0.0475473
749,-27,-0.0787354,-0.0396729,0.00100983,0.00024385,0.000300603,0.00111371,0.000139968,0.332728,0.000700494,0.0108447,1973,1051,-0.0787215,0.0397121
756,-27,-0.0706787,-0.0424805,0.00230065,-0.000761552,0.0010609,0.00263229,-0.00109318,0.302972,0.00221124,0.0103285,1980,1051,-0.0707396,0.0425238
763,-27,-0.0723877,-0.0576172,0.00311075,-0.00204844,0.00170048,0.00362081,-0.00255849,0.29141,0.00358515,0.0119313,1987,1051,-0.0723598,0.057664
770,-27,-0.0794678,-0.0562744,0.00446952,-0.00336875,0.00262692,0.00526847,-0.0041677,0.295251,0.00546031,0.0140847,1994,1051,-0.0794321,0.0562659
777,-27,-0.100952,-0.0283203,0.00618271,-0.0053933,0.00388937,0.0073681,-0.00657869,0.295833,0.00805648,0.0142958,2001,1051,-0.100942,0.0283085
784,-27,-0.129761,-0.00170898,0.00819151,-0.00834027,0.00554852,0.00988107,-0.0100298,0.295586,0.0114957,0.0205781,2008,1051,-0.12972,0.00166957
791,-27,-0.050293,-0.107056,0.01041,-0.0124477,0.0076345,0.0127254,-0.0147631,0.294463,0.015885,0.0382313,2015,1051,-0.0502745,0.107107
798,-27,0.0472412,-0.319824,0.0127424,-0.0179928,0.0101597,0.0157972,-0.0210476,0.292074,0.0213442,0.0457791,2022,1051,0.0471813,0.319875
805,-27,1.47363,2.45239,0.0149653,-0.0252999,0.0130917,0.0188475,-0.0291822,0.288283,0.0279431,0.0457884,2029,1051,1.47359,-2.45235
812,-27,1.48303,2.52991,0.0165804,-0.0347694,0.0163484,0.0213435,-0.0395325,0.283501,0.0356659,0.0442318,2036,1051,1.483,-2.5299
-700,-34,-0.923523,5.5365,0,0,0,0,0,0,0,-1,524,1058,-0.923544,-5.53644
-693,-34,-0.595886,4.70679,0,0,0,0,0,0,0,-1,531,1058,-0.595866,-4.70685
-686,-34,1.52417,-0.602539,0,0,0,0,0,0,0,-1,538,1058,1.52418,0.602479
-679,-34,1.08594,-0.360596,0,0,0,0,0,0,0,-1,545,1058,1.08593,0.360551
-672,-34,0.67157,-0.155029,0,0,0,0,0,0,0,-1,552,1058,0.671541,0.155049
-665,-34,0.885193,0.31665,0,0,0,0,0,0,0,-1,559,1058,0.885211,-0.316691
-658,-34,0.0327148,0.168213,0.00655273,0.00803346,-0.013998,0.0213107,-0.00672447,-0.811819,0.0169006,0.044094,566,1058,0.0326954,-0.168218
-651,-34,-0.0344238,0.0358887,0.00416338,0.00524981,-0.0102761,0.0149971,-0.00558389,-0.811805,0.0122897,0.0271875,573,1058,-0.0344496,-0.0359446
-644,-34,-0.0783691,-0.0456543,0.00236518,0.00224605,-0.00723393,0.00953979,-0.00492856,-0.781281,0.00849355,0.00978555,580,1058,-0.0783872,0.0456931
-637,-34,-0.0737305,-0.0499268,0.00112356,0.00136087,-0.00459634,0.00584008,-0.00335565,-0.798303,0.00537336,0.0102226,587,1058,-0.0737378,0.0499084
-630,-34,-0.0908203,-0.0349121,5.03721e-05,3.70523e-05,-0.00239727,0.002441,-0.00235357,-0.784009,0.0027683,0.0135749,594,1058,-0.0908114,0.0348683
-623,-34,-0.0807495,-0.0474854,-0.000664143,0.000412015,-0.00130551,0.00128598,-0.00153811,-0.980871,0.00163266,0.0122126,601,1058,-0.0807736,0.047483
-616,-34,-0.065979,-0.0440674,-0.000860382,0.000367905,-0.000705624,0.000689217,-0.00118169,-1.14349,0.00109257,0.0190095,608,1058,-0.0659858,0.0440487
-609,-34,-0.0786133,-0.0533447,-0.00054563,0.000334943,-0.000159211,0.000362845,-0.000573532,-1.39731,0.00054516,0.0180191,615,1058,-0.0786425,0.0533878
-602,-34,-0.0893555,-0.0561523,-0.000146061,0.000111802,6.55174e-05,0.000127493,-0.000161753,1.33572,0.000167386,0.0136245,622,1058,-0.0893738,0.0561944
-595,-34,-0.0842896,-0.0336914,2.2586e-05,0.000133078,0.00018003,0.000266148,-0.000110484,0.934272,0.000223554,0.0115404,629,1058,-0.0843092,0.0336733
-588,-34,-0.0621338,-0.032959,0.000192362,0.000194559,0.000150557,0.000344021,4.28991e-05,0.789046,0.000216469,0.016297,636,1058,-0.0621095,0.0330175
-581,-34,-0.0640259,-0.00524902,0.000372646,0.000274655,2.63417e-05,0.000379278,0.000268022,0.246649,0.000225125,0.0201458,643,1058,-0.064022,0.00528292
-574,-34,-0.0722046,-0.0150146,0.000590192,0.000385588,-0.000106479,0.00063555,0.00034023,-0.402702,0.00036724,0.0325092,650,1058,-0.0721957,0.014959
-567,-34,-0.10907,-0.120728,0.000848015,0.000526302,-0.000295924,0.00102398,0.000350341,-0.53645,0.000600934,0.0355061,657,1058,-0.109067,0.120732
-560,-34,-0.0852051,-0.107544,0.00117796,0.000697918,-0.000571669,0.00155795,0.000317927,-0.586643,0.00095055,0.0367507,664,1058,-0.0852269,0.107561
-553,-34,-0.0633545,0.0152588,0.00158281,0.00089208,-0.000949378,0.00224769,0.0002272,-0.610949,0.00142876,0.0380097,671,1058,-0.0633474,-0.0152455
-546,-34,-0.0133667,0.206787,0.00200091,0.00109951,-0.00144261,0.00306158,3.88403e-05,-0.633993,0.00202823,0.0396865,678,1058,-0.0133971,-0.206815
-539,-34,0.0100098,-0.00585938,0.00246615,0.00130038,-0.00207169,0.00403538,-0.000268862,-0.648264,0.00278421,0.038512,685,1058,0.0100229,0.00591018
-532,-34,-0.00579834,-0.227051,0.00290628,0.00145995,-0.0028618,0.00513487,-0.000768643,-0.661641,0.00370612,0.0383158,692,1058,-0.005823,0.227048
-525,-34,0,0,0,0,0,0,0,0,0,-1,699,1058,0,0
-518,-34,0,0,0,0,0,0,0,0,0,-1,706,1058,0,0
-511,-34,0,0,0,0,0,0,0,0,0,-1,713,1058,0,0
-504,-34,0,0,0,0,0,0,0,0,0,-1,720,1058,0,0
-497,-34,0,0,0,0,0,0,0,0,0,-1,727,1058,0,0
-490,-34,0,0,0,0,0,0,0,0,0,-1,734,1058,0,0
-483,-34,0,0,0,0,0,0,0,0,0,-1,741,1058,0,0
-476,-34,0,0,0,0,0,0,0,0,0,-1,748,1058,0,0
-469,-34,0,0,0,0,0,0,0,0,0,-1,755,1058,0,0
-462,-34,0,0,0,0,0,0,0,0,0,-1,762,1058,0,0
-455,-34,0,0,0,0,0,0,0,0,0,-1,769,1058,0,0
-448,-34,0,0,0,0,0,0,0,0,0,-1,776,1058,0,0
-441,-34,0,0,0,0,0,0,0,0,0,-1,783,1058,0,0
-434,-34,0,0,0,0,0,0,0,0,0,-1,790,1058,0,0
-427,-34,0,0,0,0,0,0,0,0,0,-1,797,1058,0,0
-420,-34,0,0,0,0,0,0,0,0,0,-1,804,1058,0,0
-413,-34,0,0,0,0,0,0,0,0,0,-1,811,1058,0,0
-406,-34,0,0,0,0,0,0,0,0,0,-1,818,1058,0,0
-399,-34,0,0,0,0,0,0,0,0,0,-1,825,1058,0,0
-392,-34,0,0,0,0,0,0,0,0,0,-1,832,1058,0,0
-385,-34,0,0,0,0,0,0,0,0,0,-1,839,1058,0,0
-378,-34,0,0,0,0,0,0,0,0,0,-1,846,1058,0,0
-371,-34,0,0,0,0,0,0,0,0,0,-1,853,1058,0,0
-364,-34,0,0,0,0,0,0,0,0,0,-1,860,1058,0,0
-357,-34,0,0,0,0,0,0,0,0,0,-1,867,1058,0,0
-350,-34,0,0,0,0,0,0,0,0,0,-1,874,1058,0,0
-343,-34,0,0,0,0,0,0,0,0,0,-1,881,1058,0,0
-336,-34,0,0,0,0,0,0,0,0,0,-1,888,1058,0,0
-329,-34,0,0,0,0,0,0,0,0,0,-1,895,1058,0,0
-322,-34,0,0,0,0,0,0,0,0,0,-1,902,1058,0,0
-315,-34,0,0,0,0,0,0,0,0,0,-1,909,1058,0,0
-308,-34,0,0,0,0,0,0,0,0,0,-1,916,1058,0,0
-301,-34,0,0,0,0,0,0,0,0,0,-1,923,1058,0,0
-294,-34,0,0,0,0,0,0,0,0,0,-1,930,1058,0,0
-287,-34,0,0,0,0,0,0,0,0,0,-1,937,1058,0,0
-280,-34,0,0,0,0,0,0,0,0,0,-1,944,1058,0,0
-273,-34,0,0,0,0,0,0,0,0,0,-1,951,1058,0,0
-266,-34,0,0,0,0,0,0,0,0,0,-1,958,1058,0,0
-259,-34,0,0,0,0,0,0,0,0,0,-1,965,1058,0,0
-252,-34,0,0,0,0,0,0,0,0,0,-1,972,1058,0,0
-245,-34,0,0,0,0,0,0,0,0,0,-1,979,1058,0,0
-238,-34,0,0,0,0,0,0,0,0,0,-1,986,1058,0,0
-231,-34,0,0,0,0,0,0,0,0,0,-1,993,1058,0,0
-224,-34,0,0,0,0,0,0,0,0,0,-1,1000,1058,0,0
-217,-34,0,0,0,0,0,0,0,0,0,-1,1007,1058,0,0
-210,-34,0,0,0,0,0,0,0,0,0,-1,1014,1058,0,0
-203,-34,0,0,0,0,0,0,0,0,0,-1,1021,1058,0,0
-196,-34,0,0,0,0,0,0,0,0,0,-1,1028,1058,0,0
-189,-34,0,0,0,0,0,0,0,0,0,-1,1035,1058,0,0
-182,-34,0,0,0,0,0,0,0,0,0,-1,1042,1058,0,0
-175,-34,0,0,0,0,0,0,0,0,0,-1,1049,1058,0,0
-168,-34,0,0,0,0,0,0,0,0,0,-1,1056,1058,0,0
-161,-34,0,0,0,0,0,0,0,0,0,-1,1063,1058,0,0
-154,-34,0,0,0,0,0,0,0,0,0,-1,1070,1058,0,0
-147,-34,0,0,0,0,0,0,0,0,0,-1,1077,1058,0,0
-140,-34,0,0,0,0,0,0,0,0,0,-1,1084,1058,0,0
-133,-34,0,0,0,0,0,0,0,0,0,-1,1091,1058,0,0
-126,-34,0,0,0,0,0,0,0,0,0,-1,1098,1058,0,0
-119,-34,0,0,0,0,0,0,0,0,0,-1,1105,1058,0,0
-112,-34,0,0,0,0,0,0,0,0,0,-1,1112,1058,0,0
-105,-34,0,0,0,0,0,0,0,0,0,-1,1119,1058,0,0
-98,-34,0,0,0,0,0,0,0,0,0,-1,1126,1058,0,0
-91,-34,0,0,0,0,0,0,0,0,0,-1,1133,1058,0,0
-84,-34,0,0,0,0,0,0,0,0,0,-1,1140,1058,0,0
-77,-34,0,0,0,0,0,0,0,0,0,-1,1147,1058,0,0
-70,-34,0,0,0,0,0,0,0,0,0,-1,1154,1058,0,0
-63,-34,0,0,0,0,0,0,0,0,0,-1,1161,1058,0,0
-56,-34,0,0,0,0,0,0,0,0,0,-1,1168,1058,0,0
-49,-34,0,0,0,0,0,0,0,0,0,-1,1175,1058,0,0
-42,-34,0,0,0,0,0,0,0,0,0,-1,1182,1058,0,0
-35,-34,0,0,0,0,0,0,0,0,0,-1,1189,1058,0,0
-28,-34,0,0,0,0,0,0,0,0,0,-1,1196,1058,0,0
-21,-34,0,0,0,0,0,0,0,0,0,-1,1203,1058,0,0
-14,-34,0,0,0,0,0,0,0,0,0,-1,1210,1058,0,0
-7,-34,0,0,0,0,0,0,0,0,0,-1,1217,1058,0,0
0,-34,0,0,0,0,0,0,0,0,0,-1,1224,1058,0,0
7,-34,0,0,0,0,0,0,0,0,0,-1,1231,1058,0,0
14,-34,0,0,0,0,0,0,0,0,0,-1,1238,1058,0,0
21,-34,0,0,0,0,0,0,0,0,0,-1,1245,1058,0,0
28,-34,0,0,0,0,0,0,0,0,0,-1,1252,1058,0,0
35,-34,0,0,0,0,0,0,0,0,0,-1,1259,1058,0,0
42,-34,0,0,0,0,0,0,0,0,0,-1,1266,1058,0,0
49,-34,0,0,0,0,0,0,0,0,0,-1,1273,1058,0,0
56,-34,0,0,0,0,0,0,0,0,0,-1,1280,1058,0,0
63,-34,0,0,0,0,0,0,0,0,0,-1,1287,1058,0,0
70,-34,0,0,0,0,0,0,0,0,0,-1,1294,1058,0,0
77,-34,0,0,0,0,0,0,0,0,0,-1,1301,1058,0,0
84,-34,0,0,0,0,0,0,0,0,0,-1,1308,1058,0,0
91,-34,0,0,0,0,0,0,0,0,0,-1,1315,1058,0,0
98,-34,0,0,0,0,0,0,0,0,0,-1,1322,1058,0,0
105,-34,0,0,0,0,0,0,0,0,0,-1,1329,1058,0,0
112,-34,0,0,0,0,0,0,0,0,0,-1,1336,1058,0,0
119,-34,0,0,0,0,0,0,0,0,0,-1,1343,1058,0,0
126,-34,0,0,0,0,0,0,0,0,0,-1,1350,1058,0,0
133,-34,0,0,0,0,0,0,0,0,0,-1,1357,1058,0,0
140,-34,0,0,0,0,0,0,0,0,0,-1,1364,1058,0,0
147,-34,0,0,0,0,0,0,0,0,0,-1,1371,1058,0,0
154,-34,0,0,0,0,0,0,0,0,0,-1,1378,1058,0,0
161,-34,0,0,0,0,0,0,0,0,0,-1,1385,1058,0,0
168,-34,0,0,0,0,0,0,0,0,0,-1,1392,1058,0,0
175,-34,0,0,0,0,0,0,0,0,0,-1,1399,1058,0,0
182,-34,0,0,0,0,0,0,0,0,0,-1,1406,1058,0,0
189,-34,0,0,0,0,0,0,0,0,0,-1,1413,1058,0,0
196,-34,0,0,0,0,0,0,0,0,0,-1,1420,1058,0,0
203,-34,0,0,0,0,0,0,0,0,0,-1,1427,1058,0,0
210,-34,0,0,0,0,0,0,0,0,0,-1,1434,1058,0,0
217,-34,0,0,0,0,0,0,0,0,0,-1,1441,1058,0,0
224,-34,0,0,0,0,0,0,0,0,0,-1,1448,1058,0,0
231,-34,0,0,0,0,0,0,0,0,0,-1,1455,1058,0,0
238,-34,0,0,0,0,0,0,0,0,0,-1,1462,1058,0,0
245,-34,0,0,0,0,0,0,0,0,0,-1,1469,1058,0,0
252,-34,0,0,0,0,0,0,0,0,0,-1,1476,1058,0,0
259,-34,0,0,0,0,0,0,0,0,0,-1,1483,1058,0,0
266,-34,0,0,0,0,0,0,0,0,0,-1,1490,1058,0,0
273,-34,0,0,0,0,0,0,0,0,0,-1,1497,1058,0,0
280,-34,0,0,0,0,0,0,0,0,0,-1,1504,1058,0,0
287,-34,0,0,0,0,0,0,0,0,0,-1,1511,1058,0,0
294,-34,0,0,0,0,0,0,0,0,0,-1,1518,1058,0,0
301,-34,0,0,0,0,0,0,0,0,0,-1,1525,1058,0,0
308,-34,0,0,0,0,0,0,0,0,0,-1,1532,1058,0,0
315,-34,0,0,0,0,0,0,0,0,0,-1,1539,1058,0,0
322,-34,0,0,0,0,0,0,0,0,0,-1,1546,1058,0,0
329,-34,0,0,0,0,0,0,0,0,0,-1,1553,1058,0,0
336,-34,0,0,0,0,0,0,0,0,0,-1,1560,1058,0,0
343,-34,0,0,0,0,0,0,0,0,0,-1,1567,1058,0,0
350,-34,0,0,0,0,0,0,0,0,0,-1,1574,1058,0,0
357,-34,0,0,0,0,0,0,0,0,0,-1,1581,1058,0,0
364,-34,0,0,0,0,0,0,0,0,0,-1,1588,1058,0,0
371,-34,0,0,0,0,0,0,0,0,0,-1,1595,1058,0,0
378,-34,0,0,0,0,0,0,0,0,0,-1,1602,1058,0,0
385,-34,0,0,0,0,0,0,0,0,0,-1,1609,1058,0,0
392,-34,0,0,0,0,0,0,0,0,0,-1,1616,1058,0,0
399,-34,0,0,0,0,0,0,0,0,0,-1,1623,1058,0,0
406,-34,0,0,0,0,0,0,0,0,0,-1,1630,1058,0,0
413,-34,0,0,0,0,0,0,0,0,0,-1,1637,1058,0,0
420,-34,0,0,0,0,0,0,0,0,0,-1,1644,1058,0,0
427,-34,0,0,0,0,0,0,0,0,0,-1,1651,1058,0,0
434,-34,0,0,0,0,0,0,0,0,0,-1,1658,1058,0,0
441,-34,0,0,0,0,0,0,0,0,0,-1,1665,1058,0,0
448,-34,0,0,0,0,0,0,0,0,0,-1,1672,1058,0,0
455,-34,0,0,0,0,0,0,0,0,0,-1,1679,1058,0,0
462,-34,0,0,0,0,0,0,0,0,0,-1,1686,1058,0,0
469,-34,0,0,0,0,0,0,0,0,0,-1,1693,1058,0,0
476,-34,0,0,0,0,0,0,0,0,0,-1,1700,1058,0,0
483,-34,0,0,0,0,0,0,0,0,0,-1,1707,1058,0,0
490,-34,0,0,0,0,0,0,0,0,0,-1,1714,1058,0,0
497,-34,0,0,0,0,0,0,0,0,0,-1,1721,1058,0,0
504,-34,0,0,0,0,0,0,0,0,0,-1,1728,1058,0,0
511,-34,0,0,0,0,0,0,0,0,0,-1,1735,1058,0,0
518,-34,0,0,0,0,0,0,0,0,0,-1,1742,1058,0,0
525,-34,0,0,0,0,0,0,0,0,0,-1,1749,1058,0,0
532,-34,0,0,0,0,0,0,0,0,0,-1,1756,1058,0,0
539,-34,0,0,0,0,0,0,0,0,0,-1,1763,1058,0,0
546,-34,0,0,0,0,0,0,0,0,0,-1,1770,1058,0,0
553,-34,0,0,0,0,0,0,0,0,0,-1,1777,1058,0,0
560,-34,0,0,0,0,0,0,0,0,0,-1,1784,1058,0,0
567,-34,0,0,0,0,0,0,0,0,0,-1,1791,1058,0,0
574,-34,0,0,0,0,0,0,0,0,0,-1,1798,1058,0,0
581,-34,0,0,0,0,0,0,0,0,0,-1,1805,1058,0,0
588,-34,0,0,0,0,0,0,0,0,0,-1,1812,1058,0,0
595,-34,0,0,0,0,0,0,0,0,0,-1,1819,1058,0,0
602,-34,0,0,0,0,0,0,0,0,0,-1,1826,1058,0,0
609,-34,0,0,0,0,0,0,0,0,0,-1,1833,1058,0,0
616,-34,0,0,0,0,0,0,0,0,0,-1,1840,1058,0,0
623,-34,0,0,0,0,0,0,0,0,0,-1,1847,1058,0,0
630,-34,0,0,0,0,0,0,0,0,0,-1,1854,1058,0,0
637,-34,0,0,0,0,0,0,0,0,0,-1,1861,1058,0,0
644,-34,0,0,0,0,0,0,0,0,0,-1,1868,1058,0,0
651,-34,-0.019043,0.168457,0.000152207,0.0007948,-0.00399658,0.00448298,-0.00353597,-0.825508,0.00464049,0.0341757,1875,1058,-0.0190519,-0.16849
658,-34,0.0611572,-0.020874,-0.00021283,0.000731582,-0.00273575,0.00303558,-0.00251682,-0.870859,0.00321034,0.0378285,1882,1058,0.0611588,0.0208826
665,-34,-0.0251465,-0.116699,-0.00049785,0.000635145,-0.00180307,0.00195862,-0.00182132,-0.937608,0.00218283,0.0379984,1889,1058,-0.025175,0.116745
672,-34,-0.146362,-0.153198,-0.000661605,0.000505715,-0.00115047,0.00121211,-0.001368,-1.02014,0.00149053,0.0342771,1896,1058,-0.146406,0.153208
679,-34,-0.0762939,-0.0853271,-0.000794318,0.000378544,-0.000713449,0.000715645,-0.00113142,-1.12939,0.00107537,0.0347677,1903,1058,-0.0763324,0.0852894
686,-34,0.0401611,0.0889893,-0.000877314,0.000268424,-0.00043598,0.000415456,-0.00102435,-1.24553,0.00085569,0.038819,1910,1058,0.0401987,-0.0889567
693,-34,-0.0224609,-0.0535889,-0.000888205,0.000172044,-0.000266282,0.000235163,-0.000951325,-1.33805,0.000725423,0.0369204,1917,1058,-0.022418,0.0536204
700,-34,-0.0789795,-0.0775146,-0.000849907,0.00010136,-0.000173362,0.000131969,-0.000880516,-1.39604,0.000635584,0.033304,1924,1058,-0.0790002,0.0775145
707,-34,-0.095459,-0.0101318,-0.000840438,4.22435e-05,-3.58895e-05,4.37004e-05,-0.000841895,-1.53023,0.000576382,0.0197935,1931,1058,-0.0954064,0.0100728
714,-34,-0.0657959,-0.0350342,-0.000705798,-4.78282e-05,2.87176e-05,-4.65772e-05,-0.000707049,1.52726,0.000456633,0.0117271,1938,1058,-0.0658214,0.035046
721,-34,-0.0565186,-0.0407715,-0.000543148,-0.00011492,8.25776e-06,-0.00011476,-0.000543308,1.55152,0.000330658,0.0126033,1945,1058,-0.0564955,0.0407427
728,-34,-0.0797119,-0.0294189,-0.000488509,-9.77937e-05,-5.56104e-05,-9.00328e-05,-0.00049627,-1.43213,0.000305294,0.0122097,1952,1058,-0.0797367,0.029365
735,-34,-0.108398,-0.0629883,-0.000361716,-3.02872e-05,-0.000182874,5.07865e-05,-0.000442789,-1.1535,0.000313496,0.0137274,1959,1058,-0.108422,0.0629971
742,-34,-0.102417,-0.0749512,-0.000105337,7.39502e-05,-0.000260066,0.000259388,-0.000290776,-0.95137,0.00031781,0.0137898,1966,1058,-0.102442,0.074917
749,-34,-0.0775146,-0.0625,0.000766721,0.000241347,0.000143668,0.000803441,0.000204626,0.250237,0.000482118,0.0113812,1973,1058,-0.07752,0.0625152
756,-34,-0.0563965,-0.0437012,0.00198169,-0.000795449,0.000876766,0.00223533,-0.00104909,0.2816,0.00193705,0.00900553,1980,1058,-0.056381,0.0436557
763,-34,-0.0649414,-0.0457764,0.00280266,-0.00212684,0.00155239,0.00325079,-0.00257497,0.281035,0.00337104,0.00984447,1987,1058,-0.0649768,0.0458345
770,-34,-0.0812988,-0.0458984,0.00410416,-0.00348415,0.00248415,0.00484504,-0.00422504,0.289847,0.00524069,0.0149791,1994,1058,-0.0813245,0.0459101
777,-34,-0.106689,-0.0185547,0.00579254,-0.00555922,0.00379188,0.00694264,-0.00670931,0.294486,0.00788234,0.0154617,2001,1058,-0.106648,0.018553
784,-34,-0.132324,0.0202637,0.00783433,-0.00857436,0.00555544,0.00953827,-0.0102783,0.297607,0.0114438,0.0289917,2008,1058,-0.132357,-0.020223
791,-34,0.0440674,0.110596,0,0,0,0,0,0,0,-1,2015,1058,0.044078,-0.110634
798,-34,0.293335,-0.548828,0,0,0,0,0,0,0,-1,2022,1058,0.293282,0.548804
805,-34,2.02454,3.23279,0,0,0,0,0,0,0,-1,2029,1058,2.02448,-3.23284
812,-34,2.22668,3.43298,0,0,0,0,0,0,0,-1,2036,1058,2.22669,-3.43304
-700,-41,-0.765442,5.41052,0.0313211,0.080964,-0.0456619,0.108115,0.00417031,-1.03435,0.0707274,0.0487139,524,1065,-0.765436,-5.41056
-693,-41,-0.799683,4.43286,0.0267828,0.057962,-0.038782,0.0841705,0.000574406,-0.976505,0.0559232,0.0456257,531,1065,-0.799684,-4.43289
-686,-41,-0.830811,3.39075,0,0,0,0,0,0,0,-1,538,1065,-0.830801,-3.39076
-679,-41,1.12903,-0.665283,0,0,0,0,0,0,0,-1,545,1065,1.12902,0.665328
-672,-41,0.627502,-0.342163,0,0,0,0,0,0,0,-1,552,1065,0.627513,0.342175
-665,-41,0.0863037,0.115601,0,0,0,0,0,0,0,-1,559,1065,0.0863309,-0.115575
-658,-41,0.0592651,0.0333252,0.00625553,0.00872463,-0.0125385,0.0200892,-0.00510902,-0.834471,0.0153813,0.0391245,566,1065,0.0592752,-0.033297
-651,-41,-0.0511475,-0.0222168,0.00396426,0.00556083,-0.00924281,0.0140398,-0.00451468,-0.828475,0.011173,0.0254514,573,1065,-0.0511646,0.0221954
-644,-41,-0.0940552,-0.0517578,0.0022298,0.00215555,-0.00651464,0.00870742,-0.00432206,-0.782549,0.00766329,0.00969345,580,1065,-0.0940265,0.0516989
-637,-41,-0.0740967,-0.0556641,0.000949646,0.00111641,-0.00404353,0.00507742,-0.00301136,-0.795707,0.00472057,0.0102142,587,1065,-0.0740932,0.0557222
-630,-41,-0.0665283,-0.0457764,0.000124982,-0.000109997,-0.00227026,0.00228079,-0.00226581,-0.759546,0.00262498,0.0112073,594,1065,-0.0665051,0.0457348
-623,-41,-0.0750122,-0.0577393,-0.000436376,0.000300056,-0.00133212,0.00131391,-0.00145023,-0.920238,0.00159653,0.0105095,601,1065,-0.0750236,0.057782
-616,-41,-0.0623169,-0.0494385,-0.000744546,0.000364626,-0.000726111,0.000723715,-0.00110364,-1.11153,0.00106259,0.0144413,608,1065,-0.0623203,0.0493919
-609,-41,-0.062439,-0.0386963,-0.000502966,0.000339852,-0.000159347,0.000368973,-0.000532087,-1.39004,0.000523061,0.0199924,615,1065,-0.0624188,0.0387104
-602,-41,-0.107117,-0.0574951,-0.00013796,0.000120015,5.92783e-05,0.000132984,-0.000150929,1.35541,0.000164027,0.0125041,622,1065,-0.107091,0.0574893
-595,-41,-0.088623,-0.0532227,2.53515e-05,0.000124012,0.000164994,0.000246892,-9.75284e-05,0.93066,0.000204989,0.0140287,629,1065,-0.0886534,0.0531765
-588,-41,-0.0826416,-0.0335693,0.0001987,0.000173607,0.000126162,0.000312938,5.93689e-05,0.735837,0.000191921,0.0208571,636,1065,-0.0826333,0.0335689
-581,-41,-0.0952148,0.0101318,0.000389231,0.000236018,1.26887e-06,0.000389241,0.000236008,0.00828099,0.000226416,0.0327041,643,1065,-0.095208,-0.010082
-574,-41,-0.110901,0.0837402,0.00062017,0.000318751,-0.000132774,0.000670315,0.000268607,-0.361107,0.000389541,0.0358663,650,1065,-0.110904,-0.083753
-567,-41,-0.129883,-0.0131836,0.000896612,0.000427944,-0.000318469,0.00105767,0.000266886,-0.468218,0.000635126,0.0366307,657,1065,-0.129859,0.0132201
-560,-41,-0.0942383,-0.119141,0.00125464,0.000567036,-0.000581453,0.00158633,0.000235348,-0.518406,0.000988488,0.0362237,664,1065,-0.094231,0.119085
-553,-41,-0.121094,-0.0755615,0.0016964,0.00073222,-0.000931517,0.00226318,0.000165437,-0.546611,0.00145678,0.036702,671,1065,-0.121086,0.0755846
-546,-41,-0.088501,0.0286865,0.00216955,0.000921346,-0.0013797,0.00305974,3.11545e-05,-0.572997,0.00202952,0.0367223,678,1065,-0.0884772,-0.0287022
-539,-41,0.0255737,-0.130737,0.00271819,0.00112552,-0.00193795,0.00401705,-0.000173331,-0.590458,0.00273764,0.037141,685,1065,0.0256015,0.130681
-532,-41,0.0343628,-0.202759,0.00324987,0.00132519,-0.00262227,0.00508081,-0.000505748,-0.609535,0.00356776,0.0372571,692,1065,0.0343845,0.202761
-525,-41,0,0,0,0,0,0,0,0,0,-1,699,1065,0,0
-518,-41,0,0,0,0,0,0,0,0,0,-1,706,1065,0,0
-511,-41,0,0,0,0,0,0,0,0,0,-1,713,1065,0,0
-504,-41,0,0,0,0,0,0,0,0,0,-1,720,1065,0,0
-497,-41,0,0,0,0,0,0,0,0,0,-1,727,1065,0,0
-490,-41,0,0,0,0,0,0,0,0,0,-1,734,1065,0,0
-483,-41,0,0,0,0,0,0,0,0,0,-1,741,1065,0,0
-476,-41,0,0,0,0,0,0,0,0,0,-1,748,1065,0,0
-469,-41,0,0,0,0,0,0,0,0,0,-1,755,1065,0,0
-462,-41,0,0,0,0,0,0,0,0,0,-1,762,1065,0,0
-455,-41,0,0,0,0,0,0,0,0,0,-1,769,1065,0,0
-448,-41,0,0,0,0,0,0,0,0,0,-1,776,1065,0,0
-441,-41,0,0,0,0,0,0,0,0,0,-1,783,1065,0,0
-434,-41,0,0,0,0,0,0,0,0,0,-1,790,1065,0,0
-427,-41,0,0,0,0,0,0,0,0,0,-1,797,1065,0,0
-420,-41,0,0,0,0,0,0,0,0,0,-1,804,1065,0,0
-413,-41,0,0,0,0,0,0,0,0,0,-1,811,1065,0,0
-406,-41,0,0,0,0,0,0,0,0,0,-1,818,1065,0,0
-399,-41,0,0,0,0,0,0,0,0,0,-1,825,1065,0,0
-392,-41,0,0,0,0,0,0,0,0,0,-1,832,1065,0,0
-385,-41,0,0,0,0,0,0,0,0,0,-1,839,1065,0,0
-378,-41,0,0,0,0,0,0,0,0,0,-1,846,1065,0,0
-371,-41,0,0,0,0,0,0,0,0,0,-1,853,1065,0,0
-364,-41,0,0,0,0,0,0,0,0,0,-1,860,1065,0,0
-357,-41,0,0,0,0,0,0,0,0,0,-1,867,1065,0,0
-350,-41,0,0,0,0,0,0,0,0,0,-1,874,1065,0,0
-343,-41,0,0,0,0,0,0,0,0,0,-1,881,1065,0,0
-336,-41,0,0,0,0,0,0,0,0,0,-1,888,1065,0,0
-329,-41,0,0,0,0,0,0,0,0,0,-1,895,1065,0,0
-322,-41,0,0,0,0,0,0,0,0,0,-1,902,1065,0,0
-315,-41,0,0,0,0,0,0,0,0,0,-1,909,1065,0,0
-308,-41,0,0,0,0,0,0,0,0,0,-1,916,1065,0,0
-301,-41,0,0,0,0,0,0,0,0,0,-1,923,1065,0,0
-294,-41,0,0,0,0,0,0,0,0,0,-1,930,1065,0,0
-287,-41,0,0,0,0,0,0,0,0,0,-1,937,1065,0,0
-280,-41,0,0,0,0,0,0,0,0,0,-1,944,1065,0,0
-273,-41,0,0,0,0,0,0,0,0,0,-1,951,1065,0,0
-266,-41,0,0,0,0,0,0,0,0,0,-1,958,1065,0,0
-259,-41,0,0,0,0,0,0,0,0,0,-1,965,1065,0,0
-252,-41,0,0,0,0,0,0,0,0,0,-1,972,1065,0,0
-245,-41,0,0,0,0,0,0,0,0,0,-1,979,1065,0,0
-238,-41,0,0,0,0,0,0,0,0,0,-1,986,1065,0,0
-231,-41,0,0,0,0,0,0,0,0,0,-1,993,1065,0,0
-224,-41,0,0,0,0,0,0,0,0,0,-1,1000,1065,0,0
-217,-41,0,0,0,0,0,0,0,0,0,-1,1007,1065,0,0
-210,-41,0,0,0,0,0,0,0,0,0,-1,1014,1065,0,0
-203,-41,0,0,0,0,0,0,0,0,0,-1,1021,1065,0,0
-196,-41,0,0,0,0,0,0,0,0,0,-1,1028,1065,0,0
-189,-41,0,0,0,0,0,0,0,0,0,-1,1035,1065,0,0
-182,-41,0,0,0,0,0,0,0,0,0,-1,1042,1065,0,0
-175,-41,0,0,0,0,0,0,0,0,0,-1,1049,1065,0,0
-168,-41,0,0,0,0,0,0,0,0,0,-1,1056,1065,0,0
-161,-41,0,0,0,0,0,0,0,0,0,-1,1063,1065,0,0
-154,-41,0,0,0,0,0,0,0,0,0,-1,1070,1065,0,0
-147,-41,0,0,0,0,0,0,0,0,0,-1,1077,1065,0,0
-140,-41,0,0,0,0,0,0,0,0,0,-1,1084,1065,0,0
-133,-41,0,0,0,0,0,0,0,0,0,-1,1091,1065,0,0
-126,-41,0,0,0,0,0,0,0,0,0,-1,1098,1065,0,0
-119,-41,0,0,0,0,0,0,0,0,0,-1,1105,1065,0,0
-112,-41,0,0,0,0,0,0,0,0,0,-1,1112,1065,0,0
-105,-41,0,0,0,0,0,0,0,0,0,-1,1119,1065,0,0
-98,-41,0,0,0,0,0,0,0,0,0,-1,1126,1065,0,0
-91,-41,0,0,0,0,0,0,0,0,0,-1,1133,1065,0,0
-84,-41,0,0,0,0,0,0,0,0,0,-1,1140,1065,0,0
-77,-41,0,0,0,0,0,0,0,0,0,-1,1147,1065,0,0
-70,-41,0,0,0,0,0,0,0,0,0,-1,1154,1065,0,0
-63,-41,0,0,0,0,0,0,0,0,0,-1,1161,1065,0,0
-56,-41,0,0,0,0,0,0,0,0,0,-1,1168,1065,0,0
-49,-41,0,0,0,0,0,0,0,0,0,-1,1175,1065,0,0
-42,-41,0,0,0,0,0,0,0,0,0,-1,1182,1065,0,0
-35,-41,0,0,0,0,0,0,0,0,0,-1,1189,1065,0,0
-28,-41,0,0,0,0,0,0,0,0,0,-1,1196,1065,0,0
-21,-41,0,0,0,0,0,0,0,0,0,-1,1203,1065,0,0
-14,-41,0,0,0,0,0,0,0,0,0,-1,1210,1065,0,0
-7,-41,0,0,0,0,0,0,0,0,0,-1,1217,1065,0,0
0,-41,0,0,0,0,0,0,0,0,0,-1,1224,1065,0,0
7,-41,0,0,0,0,0,0,0,0,0,-1,1231,1065,0,0
14,-41,0,0,0,0,0,0,0,0,0,-1,1238,1065,0,0
21,-41,0,0,0,0,0,0,0,0,0,-1,1245,1065,0,0
28,-41,0,0,0,0,0,0,0,0,0,-1,1252,1065,0,0
35,-41,0,0,0,0,0,0,0,0,0,-1,1259,1065,0,0
42,-41,0,0,0,0,0,0,0,0,0,-1,1266,1065,0,0
49,-41,0,0,0,0,0,0,0,0,0,-1,1273,1065,0,0
56,-41,0,0,0,0,0,0,0,0,0,-1,1280,1065,0,0
63,-41,0,0,0,0,0,0,0,0,0,-1,1287,1065,0,0
70,-41,0,0,0,0,0,0,0,0,0,-1,1294,1065,0,0
77,-41,0,0,0,0,0,0,0,0,0,-1,1301,1065,0,0
84,-41,0,0,0,0,0,0,0,0,0,-1,1308,1065,0,0
91,-41,0,0,0,0,0,0,0,0,0,-1,1315,1065,0,0
98,-41,0,0,0,0,0,0,0,0,0,-1,1322,1065,0,0
105,-41,0,0,0,0,0,0,0,0,0,-1,1329,1065,0,0
112,-41,0,0,0,0,0,0,0,0,0,-1,1336,1065,0,0
119,-41,0,0,0,0,0,0,0,0,0,-1,1343,1065,0,0
126,-41,0,0,0,0,0,0,0,0,0,-1,1350,1065,0,0
133,-41,0,0,0,0,0,0,0,0,0,-1,1357,1065,0,0
140,-41,0,0,0,0,0,0,0,0,0,-1,1364,1065,0,0
147,-41,0,0,0,0,0,0,0,0,0,-1,1371,1065,0,0
154,-41,0,0,0,0,0,0,0,0,0,-1,1378,1065,0,0
161,-41,0,0,0,0,0,0,0,0,0,-1,1385,1065,0,0
168,-41,0,0,0,0,0,0,0,0,0,-1,1392,1065,0,0
175,-41,0,0,0,0,0,0,0,0,0,-1,1399,1065,0,0
182,-41,0,0,0,0,0,0,0,0,0,-1,1406,1065,0,0
189,-41,0,0,0,0,0,0,0,0,0,-1,1413,1065,0,0
196,-41,0,0,0,0,0,0,0,0,0,-1,1420,1065,0,0
203,-41,0,0,0,0,0,0,0,0,0,-1,1427,1065,0,0
210,-41,0,0,0,0,0,0,0,0,0,-1,1434,1065,0,0
217,-41,0,0,0,0,0,0,0,0,0,-1,1441,1065,0,0
224,-41,0,0,0,0,0,0,0,0,0,-1,1448,1065,0,0
231,-41,0,0,0,0,0,0,0,0,0,-1,1455,1065,0,0
238,-41,0,0,0,0,0,0,0,0,0,-1,1462,1065,0,0
245,-41,0,0,0,0,0,0,0,0,0,-1,1469,1065,0,0
252,-41,0,0,0,0,0,0,0,0,0,-1,1476,1065,0,0
259,-41,0,0,0,0,0,0,0,0,0,-1,1483,1065,0,0
266,-41,0,0,0,0,0,0,0,0,0,-1,1490,1065,0,0
273,-41,0,0,0,0,0,0,0,0,0,-1,1497,1065,0,0
280,-41,0,0,0,0,0,0,0,0,0,-1,1504,1065,0,0
287,-41,0,0,0,0,0,0,0,0,0,-1,1511,1065,0,0
294,-41,0,0,0,0,0,0,0,0,0,-1,1518,1065,0,0
301,-41,0,0,0,0,0,0,0,0,0,-1,1525,1065,0,0
308,-41,0,0,0,0,0,0,0,0,0,-1,1532,1065,0,0
315,-41,0,0,0,0,0,0,0,0,0,-1,1539,1065,0,0
322,-41,0,0,0,0,0,0,0,0,0,-1,1546,1065,0,0
329,-41,0,0,0,0,0,0,0,0,0,-1,1553,1065,0,0
336,-41,0,0,0,0,0,0,0,0,0,-1,1560,1065,0,0
343,-41,0,0,0,0,0,0,0,0,0,-1,1567,1065,0,0
350,-41,0,0,0,0,0,0,0,0,0,-1,1574,1065,0,0
357,-41,0,0,0,0,0,0,0,0,0,-1,1581,1065,0,0
364,-41,0,0,0,0,0,0,0,0,0,-1,1588,1065,0,0
371,-41,0,0,0,0,0,0,0,0,0,-1,1595,1065,0,0
378,-41,0,0,0,0,0,0,0,0,0,-1,1602,1065,0,0
385,-41,0,0,0,0,0,0,0,0,0,-1,1609,1065,0,0
392,-41,0,0,0,0,0,0,0,0,0,-1,1616,1065,0,0
399,-41,0,0,0,0,0,0,0,0,0,-1,1623,1065,0,0
406,-41,0,0,0,0,0,0,0,0,0,-1,1630,1065,0,0
413,-41,0,0,0,0,0,0,0,0,0,-1,1637,1065,0,0
420,-41,0,0,0,0,0,0,0,0,0,-1,1644,1065,0,0
427,-41,0,0,0,0,0,0,0,0,0,-1,1651,1065,0,0
434,-41,0,0,0,0,0,0,0,0,0,-1,1658,1065,0,0
441,-41,0,0,0,0,0,0,0,0,0,-1,1665,1065,0,0
448,-41,0,0,0,0,0,0,0,0,0,-1,1672,1065,0,0
455,-41,0,0,0,0,0,0,0,0,0,-1,1679,1065,0,0
462,-41,0,0,0,0,0,0,0,0,0,-1,1686,1065,0,0
469,-41,0,0,0,0,0,0,0,0,0,-1,1693,1065,0,0
476,-41,0,0,0,0,0,0,0,0,0,-1,1700,1065,0,0
483,-41,0,0,0,0,0,0,0,0,0,-1,1707,1065,0,0
490,-41,0,0,0,0,0,0,0,0,0,-1,1714,1065,0,0
497,-41,0,0,0,0,0,0,0,0,0,-1,1721,1065,0,0
504,-41,0,0,0,0,0,0,0,0,0,-1,1728,1065,0,0
511,-41,0,0,0,0,0,0,0,0,0,-1,1735,1065,0,0
518,-41,0,0,0,0,0,0,0,0,0,-1,1742,1065,0,0
525,-41,0,0,0,0,0,0,0,0,0,-1,1749,1065,0,0
532,-41,0,0,0,0,0,0,0,0,0,-1,1756,1065,0,0
539,-41,0,0,0,0,0,0,0,0,0,-1,1763,1065,0,0
546,-41,0,0,0,0,0,0,0,0,0,-1,1770,1065,0,0
553,-41,0,0,0,0,0,0,0,0,0,-1,1777,1065,0,0
560,-41,0,0,0,0,0,0,0,0,0,-1,1784,1065,0,0
567,-41,0,0,0,0,0,0,0,0,0,-1,1791,1065,0,0
574,-41,0,0,0,0,0,0,0,0,0,-1,1798,1065,0,0
581,-41,0,0,0,0,0,0,0,0,0,-1,1805,1065,0,0
588,-41,0,0,0,0,0,0,0,0,0,-1,1812,1065,0,0
595,-41,0,0,0,0,0,0,0,0,0,-1,1819,1065,0,0
602,-41,0,0,0,0,0,0,0,0,0,-1,1826,1065,0,0
609,-41,0,0,0,0,0,0,0,0,0,-1,1833,1065,0,0
616,-41,0,0,0,0,0,0,0,0,0,-1,1840,1065,0,0
623,-41,0,0,0,0,0,0,0,0,0,-1,1847,1065,0,0
630,-41,0,0,0,0,0,0,0,0,0,-1,1854,1065,0,0
637,-41,0,0,0,0,0,0,0,0,0,-1,1861,1065,0,0
644,-41,0,0,0,0,0,0,0,0,0,-1,1868,1065,0,0
651,-41,-0.131104,0.112061,0.000467842,0.000821596,-0.00470881,0.00535685,-0.00406742,-0.804171,0.00545805,0.0319197,1875,1065,-0.131066,-0.11211
658,-41,-0.0472412,-0.0115967,-4.79259e-05,0.000685431,-0.0031665,0.00350641,-0.0028689,-0.843041,0.00368692,0.0358102,1882,1065,-0.0472227,0.0115537
665,-41,-0.0472412,-0.195313,-0.000421993,0.000548612,-0.00203503,0.00215541,-0.00202879,-0.902449,0.00241612,0.0362882,1889,1065,-0.047181,0.195341
672,-41,-0.09729,-0.23584,-0.000636662,0.000398819,-0.00125675,0.0012403,-0.00147814,-0.980789,0.00157149,0.0364668,1896,1065,-0.0972616,0.235899
679,-41,0.0179443,0.0423584,-0.000798522,0.000269312,-0.000749147,0.000655335,-0.00118454,-1.095,0.0010768,0.0382442,1903,1065,0.0179191,-0.0423769
686,-41,0.11438,0.172485,-0.000891778,0.000167132,-0.000433471,0.000321943,-0.00104659,-1.22777,0.000826219,0.0391999,1910,1065,0.114353,-0.172458
693,-41,0.0090332,-0.00756836,-0.000904372,8.26635e-05,-0.000245202,0.000140221,-0.000961929,-1.34024,0.000692773,0.038974,1917,1065,0.00906657,0.00758304
700,-41,-0.0537109,-0.0319824,-0.000872662,2.57499e-05,-0.000132451,4.487e-05,-0.000891782,-1.42743,0.000610028,0.0346726,1924,1065,-0.0536749,0.0320083
707,-41,-0.100586,0.0284424,-0.000861339,-2.68241e-05,1.29119e-05,-2.66244e-05,-0.000861539,1.55533,0.000565694,0.0212584,1931,1065,-0.100528,-0.0285021
714,-41,-0.0804443,-0.0412598,-0.00071474,-0.000104327,7.19841e-05,-9.59531e-05,-0.000723114,1.45499,0.000453488,0.0097494,1938,1065,-0.0804087,0.0412435
721,-41,-0.0582275,-0.0375977,-0.00054295,-0.000153627,1.94333e-05,-0.00015266,-0.000543918,1.52105,0.000323946,0.0149413,1945,1065,-0.0581931,0.0375695
728,-41,-0.0754395,-0.0292969,-0.000487488,-0.000117431,-7.73945e-05,-0.000101897,-0.000503023,-1.37271,0.000307071,0.0156798,1952,1065,-0.0754395,0.0292391
735,-41,-0.0883789,-0.0505371,-0.00038912,-4.35736e-05,-0.000204392,5.12849e-05,-0.000483978,-1.13628,0.000341035,0.0157831,1959,1065,-0.0884068,0.050566
742,-41,-0.105591,-0.0683594,-0.000206169,3.58138e-05,-0.0002686,0.000209415,-0.000379771,-0.997013,0.000344874,0.0134665,1966,1065,-0.105532,0.0683246
749,-41,-0.0826416,-0.0540771,0.00047584,0.000231754,8.58526e-05,0.000503012,0.000204582,0.306522,0.000292094,0.0117988,1973,1065,-0.0826516,0.0541208
756,-41,-0.0845947,-0.0379639,0.00153093,-0.000829583,0.000850695,0.00180556,-0.00110421,0.312265,0.00169615,0.0117188,1980,1065,-0.0846238,0.0379391
763,-41,-0.0769043,-0.0302734,0.00228338,-0.00220531,0.00167011,0.0028366,-0.00275853,0.319871,0.00323045,0.0104679,1987,1065,-0.0769175,0.0302946
770,-41,-0.0750732,-0.0306396,0.00341262,-0.00360477,0.00272454,0.00434623,-0.00453838,0.330126,0.00512993,0.0119406,1994,1065,-0.0750226,0.0306853
777,-41,-0.0855713,-0.0319824,0.00492342,-0.0057482,0.0042313,0.00639751,-0.00722229,0.335229,0.0078682,0.0127368,2001,1065,-0.0855321,0.031936
784,-41,-0.0738525,-0.000488281,0.0068038,-0.0088646,0.00629383,0.00901883,-0.0110796,0.338399,0.0116242,0.0229086,2008,1065,-0.0738592,0.000487355
791,-41,0.0150146,0.0373535,0.00905671,-0.0132115,0.00901732,0.0122502,-0.016405,0.340369,0.016602,0.0435657,2015,1065,0.0150633,-0.0373179
798,-41,0.104248,0.0620117,0,0,0,0,0,0,0,-1,2022,1065,0.104265,-0.0619941
805,-41,0.571289,-1.99792,0,0,0,0,0,0,0,-1,2029,1065,0.57133,1.99794
812,-41,0.735596,-0.908081,0,0,0,0,0,0,0,-1,2036,1065,0.735552,0.90805
-700,-48,-0.929077,5.40637,0.0402406,0.0880401,-0.0424167,0.112827,0.0154538,-1.04195,0.0706325,0.0428689,524,1072,-0.929091,-5.40639
-693,-48,-0.981934,4.01965,0.0338812,0.0617896,-0.0360187,0.0864626,0.00920815,-0.970204,0.0548307,0.0402794,531,1072,-0.981916,-4.01962
-686,-48,-0.231079,3.22009,0,0,0,0,0,0,0,-1,538,1072,-0.231086,-3.22007
-679,-48,0.195068,-0.0344238,0.0215845,0.0296222,-0.0246024,0.0505318,0.000674902,-0.866359,0.0334652,0.0459169,545,1072,0.195043,0.0344309
-672,-48,0.542236,-0.367188,0.0163637,0.0198739,-0.0196947,0.0378916,-0.001654,-0.829839,0.0258301,0.0443343,552,1072,0.542228,0.367214
-665,-48,0.523621,-0.320801,0.0119318,0.0129487,-0.015393,0.0278417,-0.00296115,-0.801909,0.0196228,0.0451624,559,1072,0.523634,0.320811
-658,-48,-0.0344238,-0.0357666,0.00829552,0.00815977,-0.011709,0.0199368,-0.00348155,-0.7825,0.0145909,0.0436504,566,1072,-0.0344147,0.0357641
-651,-48,-0.0924683,-0.041626,0.00545186,0.00496739,-0.00863859,0.0138516,-0.00343236,-0.771381,0.010566,0.0284222,573,1072,-0.0924406,0.0416807
-644,-48,-0.092041,-0.046875,0.00329408,0.0014988,-0.00608283,0.00854515,-0.00375227,-0.712142,0.00727744,0.0119965,580,1072,-0.0920467,0.046865
-637,-48,-0.0613403,-0.0494385,0.00157057,0.000534457,-0.00371801,0.00480645,-0.00270142,-0.716175,0.00439109,0.0118435,587,1072,-0.061365,0.0494001
-630,-48,-0.0484619,-0.0401611,0.000526172,-0.000523425,-0.00213775,0.0022026,-0.00219985,-0.665033,0.00254176,0.0134889,594,1072,-0.0484756,0.0401459
-623,-48,-0.0632935,-0.0494385,-0.000228416,4.0651e-05,-0.00125937,0.00117265,-0.00136042,-0.838609,0.00146381,0.00896246,601,1072,-0.0632758,0.049434
-616,-48,-0.0691528,-0.0393066,-0.000644425,0.000306549,-0.000696071,0.000674035,-0.00101191,-1.08505,0.000979875,0.00854735,608,1072,-0.0691331,0.0393232
-609,-48,-0.0813599,-0.041748,-0.000464164,0.00033741,-0.000132413,0.000358717,-0.000485471,-1.41125,0.00048922,0.0112168,615,1072,-0.0813392,0.0416949
-602,-48,-0.0958252,-0.0594482,-0.000138413,0.000127802,7.32082e-05,0.000146606,-0.000157216,1.31938,0.000175448,0.0118862,622,1072,-0.0958404,0.0594017
-595,-48,-0.0574341,-0.0441895,2.38038e-05,0.000101219,0.000163613,0.000230641,-0.000105618,0.901553,0.000198561,0.0145359,629,1072,-0.05744,0.0441723
-588,-48,-0.0612793,-0.0290527,0.000200291,0.000121123,0.000118805,0.000285933,3.54807e-05,0.62459,0.000179965,0.0260028,636,1072,-0.0612878,0.0290969
-581,-48,-0.0792847,-0.0438232,0.000399592,0.000145602,1.49349e-06,0.000399601,0.000145593,0.00587985,0.000233523,0.0383923,643,1072,-0.0793077,0.0438629
-574,-48,-0.0390015,-0.057251,0.000641052,0.000175177,-0.000127588,0.000673705,0.000142524,-0.250551,0.000409972,0.0384663,650,1072,-0.0390299,0.0572733
-567,-48,-0.0139771,-0.100952,0.000934183,0.000224106,-0.000306572,0.00104823,0.000110062,-0.356137,0.000665173,0.0365589,657,1072,-0.0139885,0.100926
-560,-48,-0.0526733,-0.180664,0.00131788,0.000298662,-0.000558699,0.00156447,5.20654e-05,-0.415659,0.00102607,0.0363829,664,1072,-0.0526865,0.180625
-553,-48,-0.0932007,-0.240234,0.00179617,0.000401991,-0.000890313,0.00222983,-3.1666e-05,-0.453262,0.00149722,0.0377308,671,1072,-0.0932232,0.240188
-546,-48,-0.072998,-0.169067,0.00232799,0.000542034,-0.00131097,0.00302122,-0.000151194,-0.486414,0.00206639,0.0360135,678,1072,-0.0729752,0.169012
-539,-48,0.010376,-0.109375,0.00296803,0.000722327,-0.00182634,0.00398909,-0.000298725,-0.509779,0.00276435,0.035814,685,1072,0.0103497,0.109325
-532,-48,-0.0410767,-0.019165,0.00361206,0.000943822,-0.00244979,0.00506744,-0.000511563,-0.53606,0.00356108,0.0372363,692,1072,-0.0410876,0.0191147
-525,-48,0,0,0,0,0,0,0,0,0,-1,699,1072,0,0
-518,-48,0,0,0,0,0,0,0,0,0,-1,706,1072,0,0
-511,-48,0,0,0,0,0,0,0,0,0,-1,713,1072,0,0
-504,-48,0,0,0,0,0,0,0,0,0,-1,720,1072,0,0
-497,-48,0,0,0,0,0,0,0,0,0,-1,727,1072,0,0
-490,-48,0,0,0,0,0,0,0,0,0,-1,734,1072,0,0
-483,-48,0,0,0,0,0,0,0,0,0,-1,741,1072,0,0
-476,-48,0,0,0,0,0,0,0,0,0,-1,748,1072,0,0
-469,-48,0,0,0,0,0,0,0,0,0,-1,755,1072,0,0
-462,-48,0,0,0,0,0,0,0,0,0,-1,762,1072,0,0
-455,-48,0,0,0,0,0,0,0,0,0,-1,769,1072,0,0
-448,-48,0,0,0,0,0,0,0,0,0,-1,776,1072,0,0
-441,-48,0,0,0,0,0,0,0,0,0,-1,783,1072,0,0
-434,-48,0,0,0,0,0,0,0,0,0,-1,790,1072,0,0
-427,-48,0,0,0,0,0,0,0,0,0,-1,797,1072,0,0
-420,-48,0,0,0,0,0,0,0,0,0,-1,804,1072,0,0
-413,-48,0,0,0,0,0,0,0,0,0,-1,811,1072,0,0
-406,-48,0,0,0,0,0,0,0,0,0,-1,818,1072,0,0
-399,-48,0,0,0,0,0,0,0,0,0,-1,825,1072,0,0
-392,-48,0,0,0,0,0,0,0,0,0,-1,832,1072,0,0
-385,-48,0,0,0,0,0,0,0,0,0,-1,839,1072,0,0
-378,-48,0,0,0,0,0,0,0,0,0,-1,846,1072,0,0
-371,-48,0,0,0,0,0,0,0,0,0,-1,853,1072,0,0
-364,-48,0,0,0,0,0,0,0,0,0,-1,860,1072,0,0
-357,-48,0,0,0,0,0,0,0,0,0,-1,867,1072,0,0
-350,-48,0,0,0,0,0,0,0,0,0,-1,874,1072,0,0
-343,-48,0,0,0,0,0,0,0,0,0,-1,881,1072,0,0
-336,-48,0,0,0,0,0,0,0,0,0,-1,888,1072,0,0
-329,-48,0,0,0,0,0,0,0,0,0,-1,895,1072,0,0
-322,-48,0,0,0,0,0,0,0,0,0,-1,902,1072,0,0
-315,-48,0,0,0,0,0,0,0,0,0,-1,909,1072,0,0
-308,-48,0,0,0,0,0,0,0,0,0,-1,916,1072,0,0
-301,-48,0,0,0,0,0,0,0,0,0,-1,923,1072,0,0
-294,-48,0,0,0,0,0,0,0,0,0,-1,930,1072,0,0
-287,-48,0,0,0,0,0,0,0,0,0,-1,937,1072,0,0
-280,-48,0,0,0,0,0,0,0,0,0,-1,944,1072,0,0
-273,-48,0,0,0,0,0,0,0,0,0,-1,951,1072,0,0
-266,-48,0,0,0,0,0,0,0,0,0,-1,958,1072,0,0
-259,-48,0,0,0,0,0,0,0,0,0,-1,965,1072,0,0
-252,-48,0,0,0,0,0,0,0,0,0,-1,972,1072,0,0
-245,-48,0,0,0,0,0,0,0,0,0,-1,979,1072,0,0
-238,-48,0,0,0,0,0,0,0,0,0,-1,986,1072,0,0
-231,-48,0,0,0,0,0,0,0,0,0,-1,993,1072,0,0
-224,-48,0,0,0,0,0,0,0,0,0,-1,1000,1072,0,0
-217,-48,0,0,0,0,0,0,0,0,0,-1,1007,1072,0,0
-210,-48,0,0,0,0,0,0,0,0,0,-1,1014,1072,0,0
-203,-48,0,0,0,0,0,0,0,0,0,-1,1021,1072,0,0
-196,-48,0,0,0,0,0,0,0,0,0,-1,1028,1072,0,0
-189,-48,0,0,0,0,0,0,0,0,0,-1,1035,1072,0,0
-182,-48,0,0,0,0,0,0,0,0,0,-1,1042,1072,0,0
-175,-48,0,0,0,0,0,0,0,0,0,-1,1049,1072,0,0
-168,-48,0,0,0,0,0,0,0,0,0,-1,1056,1072,0,0
-161,-48,0,0,0,0,0,0,0,0,0,-1,1063,1072,0,0
-154,-48,0,0,0,0,0,0,0,0,0,-1,1070,1072,0,0
-147,-48,0,0,0,0,0,0,0,0,0,-1,1077,1072,0,0
-140,-48,0,0,0,0,0,0,0,0,0,-1,1084,1072,0,0
-133,-48,0,0,0,0,0,0,0,0,0,-1,1091,1072,0,0
-126,-48,0,0,0,0,0,0,0,0,0,-1,1098,1072,0,0
-119,-48,0,0,0,0,0,0,0,0,0,-1,1105,1072,0,0
-112,-48,0,0,0,0,0,0,0,0,0,-1,1112,1072,0,0
-105,-48,0,0,0,0,0,0,0,0,0,-1,1119,1072,0,0
-98,-48,0,0,0,0,0,0,0,0,0,-1,1126,1072,0,0
-91,-48,0,0,0,0,0,0,0,0,0,-1,1133,1072,0,0
-84,-48,0,0,0,0,0,0,0,0,0,-1,1140,1072,0,0
-77,-48,0,0,0,0,0,0,0,0,0,-1,1147,1072,0,0
-70,-48,0,0,0,0,0,0,0,0,0,-1,1154,1072,0,0
-63,-48,0,0,0,0,0,0,0,0,0,-1,1161,1072,0,0
-56,-48,0,0,0,0,0,0,0,0,0,-1,1168,1072,0,0
-49,-48,0,0,0,0,0,0,0,0,0,-1,1175,1072,0,0
-42,-48,0,0,0,0,0,0,0,0,0,-1,1182,1072,0,0
-35,-48,0,0,0,0,0,0,0,0,0,-1,1189,1072,0,0
-28,-48,0,0,0,0,0,0,0,0,0,-1,1196,1072,0,0
-21,-48,0,0,0,0,0,0,0,0,0,-1,1203,1072,0,0
-14,-48,0,0,0,0,0,0,0,0,0,-1,1210,1072,0,0
-7,-48,0,0,0,0,0,0,0,0,0,-1,1217,1072,0,0
0,-48,0,0,0,0,0,0,0,0,0,-1,1224,1072,0,0
7,-48,0,0,0,0,0,0,0,0,0,-1,1231,1072,0,0
14,-48,0,0,0,0,0,0,0,0,0,-1,1238,1072,0,0
21,-48,0,0,0,0,0,0,0,0,0,-1,1245,1072,0,0
28,-48,0,0,0,0,0,0,0,0,0,-1,1252,1072,0,0
35,-48,0,0,0,0,0,0,0,0,0,-1,1259,1072,0,0
42,-48,0,0,0,0,0,0,0,0,0,-1,1266,1072,0,0
49,-48,0,0,0,0,0,0,0,0,0,-1,1273,1072,0,0
56,-48,0,0,0,0,0,0,0,0,0,-1,1280,1072,0,0
63,-48,0,0,0,0,0,0,0,0,0,-1,1287,1072,0,0
70,-48,0,0,0,0,0,0,0,0,0,-1,1294,1072,0,0
77,-48,0,0,0,0,0,0,0,0,0,-1,1301,1072,0,0
84,-48,0,0,0,0,0,0,0,0,0,-1,1308,1072,0,0
91,-48,0,0,0,0,0,0,0,0,0,-1,1315,1072,0,0
98,-48,0,0,0,0,0,0,0,0,0,-1,1322,1072,0,0
105,-48,0,0,0,0,0,0,0,0,0,-1,1329,1072,0,0
112,-48,0,0,0,0,0,0,0,0,0,-1,1336,1072,0,0
119,-48,0,0,0,0,0,0,0,0,0,-1,1343,1072,0,0
126,-48,0,0,0,0,0,0,0,0,0,-1,1350,1072,0,0
133,-48,0,0,0,0,0,0,0,0,0,-1,1357,1072,0,0
140,-48,0,0,0,0,0,0,0,0,0,-1,1364,1072,0,0
147,-48,0,0,0,0,0,0,0,0,0,-1,1371,1072,0,0
154,-48,0,0,0,0,0,0,0,0,0,-1,1378,1072,0,0
161,-48,0,0,0,0,0,0,0,0,0,-1,1385,1072,0,0
168,-48,0,0,0,0,0,0,0,0,0,-1,1392,1072,0,0
175,-48,0,0,0,0,0,0,0,0,0,-1,1399,1072,0,0
182,-48,0,0,0,0,0,0,0,0,0,-1,1406,1072,0,0
189,-48,0,0,0,0,0,0,0,0,0,-1,1413,1072,0,0
196,-48,0,0,0,0,0,0,0,0,0,-1,1420,1072,0,0
203,-48,0,0,0,0,0,0,0,0,0,-1,1427,1072,0,0
210,-48,0,0,0,0,0,0,0,0,0,-1,1434,1072,0,0
217,-48,0,0,0,0,0,0,0,0,0,-1,1441,1072,0,0
224,-48,0,0,0,0,0,0,0,0,0,-1,1448,1072,0,0
231,-48,0,0,0,0,0,0,0,0,0,-1,1455,1072,0,0
238,-48,0,0,0,0,0,0,0,0,0,-1,1462,1072,0,0
245,-48,0,0,0,0,0,0,0,0,0,-1,1469,1072,0,0
252,-48,0,0,0,0,0,0,0,0,0,-1,1476,1072,0,0
259,-48,0,0,0,0,0,0,0,0,0,-1,1483,1072,0,0
266,-48,0,0,0,0,0,0,0,0,0,-1,1490,1072,0,0
273,-48,0,0,0,0,0,0,0,0,0,-1,1497,1072,0,0
280,-48,0,0,0,0,0,0,0,0,0,-1,1504,1072,0,0
287,-48,0,0,0,0,0,0,0,0,0,-1,1511,1072,0,0
294,-48,0,0,0,0,0,0,0,0,0,-1,1518,1072,0,0
301,-48,0,0,0,0,0,0,0,0,0,-1,1525,1072,0,0
308,-48,0,0,0,0,0,0,0,0,0,-1,1532,1072,0,0
315,-48,0,0,0,0,0,0,0,0,0,-1,1539,1072,0,0
322,-48,0,0,0,0,0,0,0,0,0,-1,1546,1072,0,0
329,-48,0,0,0,0,0,0,0,0,0,-1,1553,1072,0,0
336,-48,0,0,0,0,0,0,0,0,0,-1,1560,1072,0,0
343,-48,0,0,0,0,0,0,0,0,0,-1,1567,1072,0,0
350,-48,0,0,0,0,0,0,0,0,0,-1,1574,1072,0,0
357,-48,0,0,0,0,0,0,0,0,0,-1,1581,1072,0,0
364,-48,0,0,0,0,0,0,0,0,0,-1,1588,1072,0,0
371,-48,0,0,0,0,0,0,0,0,0,-1,1595,1072,0,0
378,-48,0,0,0,0,0,0,0,0,0,-1,1602,1072,0,0
385,-48,0,0,0,0,0,0,0,0,0,-1,1609,1072,0,0
392,-48,0,0,0,0,0,0,0,0,0,-1,1616,1072,0,0
399,-48,0,0,0,0,0,0,0,0,0,-1,1623,1072,0,0
406,-48,0,0,0,0,0,0,0,0,0,-1,1630,1072,0,0
413,-48,0,0,0,0,0,0,0,0,0,-1,1637,1072,0,0
420,-48,0,0,0,0,0,0,0,0,0,-1,1644,1072,0,0
427,-48,0,0,0,0,0,0,0,0,0,-1,1651,1072,0,0
434,-48,0,0,0,0,0,0,0,0,0,-1,1658,1072,0,0
441,-48,0,0,0,0,0,0,0,0,0,-1,1665,1072,0,0
448,-48,0,0,0,0,0,0,0,0,0,-1,1672,1072,0,0
455,-48,0,0,0,0,0,0,0,0,0,-1,1679,1072,0,0
462,-48,0,0,0,0,0,0,0,0,0,-1,1686,1072,0,0
469,-48,0,0,0,0,0,0,0,0,0,-1,1693,1072,0,0
476,-48,0,0,0,0,0,0,0,0,0,-1,1700,1072,0,0
483,-48,0,0,0,0,0,0,0,0,0,-1,1707,1072,0,0
490,-48,0,0,0,0,0,0,0,0,0,-1,1714,1072,0,0
497,-48,0,0,0,0,0,0,0,0,0,-1,1721,1072,0,0
504,-48,0,0,0,0,0,0,0,0,0,-1,1728,1072,0,0
511,-48,0,0,0,0,0,0,0,0,0,-1,1735,1072,0,0
518,-48,0,0,0,0,0,0,0,0,0,-1,1742,1072,0,0
525,-48,0,0,0,0,0,0,0,0,0,-1,1749,1072,0,0
532,-48,0,0,0,0,0,0,0,0,0,-1,1756,1072,0,0
539,-48,0,0,0,0,0,0,0,0,0,-1,1763,1072,0,0
546,-48,0,0,0,0,0,0,0,0,0,-1,1770,1072,0,0
553,-48,0,0,0,0,0,0,0,0,0,-1,1777,1072,0,0
560,-48,0,0,0,0,0,0,0,0,0,-1,1784,1072,0,0
567,-48,0,0,0,0,0,0,0,0,0,-1,1791,1072,0,0
574,-48,0,0,0,0,0,0,0,0,0,-1,1798,1072,0,0
581,-48,0,0,0,0,0,0,0,0,0,-1,1805,1072,0,0
588,-48,0,0,0,0,0,0,0,0,0,-1,1812,1072,0,0
595,-48,0,0,0,0,0,0,0,0,0,-1,1819,1072,0,0
602,-48,0,0,0,0,0,0,0,0,0,-1,1826,1072,0,0
609,-48,0,0,0,0,0,0,0,0,0,-1,1833,1072,0,0
616,-48,0,0,0,0,0,0,0,0,0,-1,1840,1072,0,0
623,-48,0,0,0,0,0,0,0,0,0,-1,1847,1072,0,0
630,-48,0,0,0,0,0,0,0,0,0,-1,1854,1072,0,0
637,-48,0,0,0,0,0,0,0,0,0,-1,1861,1072,0,0
644,-48,0,0,0,0,0,0,0,0,0,-1,1868,1072,0,0
651,-48,-0.126465,0.0152588,0.000733551,0.000221445,-0.00465543,0.00513997,-0.00418497,-0.757925,0.00539316,0.0288273,1875,1072,-0.126429,-0.0152755
658,-48,-0.0983887,-0.0168457,9.53319e-05,0.000158793,-0.00307187,0.0031991,-0.00294498,-0.790563,0.0035483,0.0324904,1882,1072,-0.0983726,0.0168299
665,-48,-0.155762,-0.129028,-0.000347979,0.000101358,-0.00190745,0.00179733,-0.00204395,-0.84402,0.00221929,0.0354528,1889,1072,-0.155773,0.129089
672,-48,-0.129272,-0.110962,-0.000602662,3.1549e-05,-0.0011188,0.000877315,-0.00144843,-0.923493,0.0013562,0.0353223,1896,1072,-0.129285,0.110978
679,-48,0.015625,0.112915,-0.000786194,-1.90233e-05,-0.000621011,0.000327317,-0.00113253,-1.06206,0.000884551,0.0358383,1903,1072,0.0156485,-0.112901
686,-48,0.0550537,0.15625,-0.000885244,-4.96763e-05,-0.000321476,5.96927e-05,-0.000994613,-1.24287,0.000683842,0.0362024,1910,1072,0.055085,-0.156203
693,-48,0.00952148,0.0227051,-0.000897334,-7.40437e-05,-0.000150076,-4.754e-05,-0.000923837,-1.396,0.000600672,0.0350347,1917,1072,0.00955941,-0.0226497
700,-48,0.000610352,-0.0371094,-0.000873054,-8.30725e-05,-5.08084e-05,-7.98181e-05,-0.000876308,-1.50683,0.0005595,0.0305256,1924,1072,0.000626527,0.0370563
707,-48,-0.0701904,-0.0218506,-0.000859548,-9.43122e-05,8.04836e-05,-8.5939e-05,-0.000867921,1.46713,0.000552201,0.0198671,1931,1072,-0.0701313,0.0218463
714,-48,-0.0863037,-0.0327148,-0.000705494,-0.000131652,0.000123599,-0.000106162,-0.000730984,1.36742,0.000456073,0.0125641,1938,1072,-0.0862517,0.0327659
721,-48,-0.0709229,-0.0461426,-0.00052988,-0.000148295,3.80123e-05,-0.000144545,-0.00053363,1.47247,0.000318692,0.0154645,1945,1072,-0.0709831,0.0461568
728,-48,-0.083252,-0.0395508,-0.000469526,-9.25253e-05,-9.15828e-05,-7.14552e-05,-0.000490596,-1.34466,0.000306039,0.0183659,1952,1072,-0.0832001,0.039561
735,-48,-0.0869141,-0.0371094,-0.000391516,-1.73831e-05,-0.000217035,8.20781e-05,-0.000490977,-1.14108,0.000357829,0.0169575,1959,1072,-0.0869621,0.037124
742,-48,-0.0864258,-0.0487061,-0.000285288,4.49127e-05,-0.00027709,0.00020236,-0.000442735,-1.05407,0.000380967,0.0134935,1966,1072,-0.0863649,0.048739
749,-48,-0.0756836,-0.0560303,0.000194047,0.00028924,4.06096e-06,0.000289413,0.000193874,1.52824,0.000170277,0.0114204,1973,1072,-0.075651,0.056049
756,-48,-0.0751953,-0.0458984,0.00103311,-0.00078669,0.000782031,0.001323,-0.00107658,0.354983,0.00138783,0.0112818,1980,1072,-0.0752049,0.0458975
763,-48,-0.0760498,-0.0311279,0.0016522,-0.00220457,0.0017398,0.00232104,-0.00287341,0.367016,0.00300466,0.0120596,1987,1072,-0.0760624,0.0311607
770,-48,-0.0501709,-0.0339355,0.00253229,-0.00363404,0.00290299,0.00368389,-0.00478564,0.377654,0.00490366,0.0123026,1994,1072,-0.0501392,0.0338914
777,-48,-0.071167,-0.0493164,0.00375001,-0.00582727,0.00459708,0.00559946,-0.00767671,0.382496,0.00769621,0.010418,2001,1072,-0.0711689,0.0492981
784,-48,-0.0668945,-0.0592041,0.00530643,-0.00901544,0.00695399,0.00812732,-0.0118363,0.385369,0.0115921,0.0220779,2008,1072,-0.0668653,0.0591701
791,-48,-0.026123,-0.0255127,0.00724315,-0.0134617,0.0101269,0.0113727,-0.0175913,0.387194,0.0168504,0.0419387,2015,1072,-0.0261462,0.0255373
798,-48,-0.00549316,-0.00402832,0,0,0,0,0,0,0,-1,2022,1072,-0.005453,0.00399107
805,-48,0.409546,-1.40051,0.0123969,-0.0274379,0.0195867,0.0204141,-0.0354551,0.388514,0.0326434,0.0444901,2029,1072,0.409594,1.40047
812,-48,0.396118,-0.576172,0.0154222,-0.0377627,0.026201,0.0261614,-0.0485019,0.388992,0.0437454,0.0445255,2036,1072,0.396145,0.576183
-700,-55,-1.62048,3.17371,0.0488611,0.095321,-0.0378093,0.116466,0.0277157,-1.06087,0.0702523,0.0451597,524,1079,-1.62049,-3.17369
-693,-55,-1.1972,3.09827,0.040857,0.0651915,-0.0323826,0.0876172,0.0184313,-0.965105,0.05334,0.0453388,531,1079,-1.19723,-3.09827
-686,-55,-0.51825,2.38599,0.0331196,0.0442673,-0.0271931,0.0664519,0.010935,-0.886484,0.0411435,0.0436479,538,1079,-0.51825,-2.38602
-679,-55,-0.0842896,0.625732,0.0261297,0.0294473,-0.0223325,0.0501825,0.00539441,-0.822469,0.0318097,0.0485775,545,1079,-0.0842998,-0.625726
-672,-55,0.66333,0.23584,0.0199637,0.0189964,-0.0179208,0.0374074,0.00155271,-0.771907,0.0244371,0.0458373,552,1079,0.663329,-0.235877
-665,-55,1.14655,-0.0986328,0.0147218,0.0117704,-0.0140277,0.0273513,-0.000859006,-0.732991,0.0185271,0.0451815,559,1079,1.14653,0.0986738
-658,-55,-0.0332031,0.0600586,0,0,0,0,0,0,0,-1,566,1079,-0.0332298,-0.0600796
-651,-55,-0.0789185,-0.0267334,0.0069942,0.00386425,-0.00788765,0.0134706,-0.00261218,-0.687466,0.00996592,0.0339976,573,1079,-0.0789131,0.0266845
-644,-55,-0.0809326,-0.0488281,0.00440726,0.000521872,-0.00555632,0.00835071,-0.00342158,-0.617223,0.00699251,0.0131875,580,1079,-0.0809324,0.0488305
-637,-55,-0.0516357,-0.0489502,0.00230825,-0.000284746,-0.00333294,0.00458798,-0.00256447,-0.599906,0.00418419,0.0107257,587,1079,-0.0516504,0.0489657
-630,-55,-0.0593262,-0.0373535,0.000995784,-0.00110322,-0.00196884,0.00217738,-0.00228481,-0.540528,0.0025765,0.0124986,594,1079,-0.059311,0.0373955
-623,-55,-0.0769653,-0.0461426,-8.59835e-06,-0.000279637,-0.00121133,0.00107477,-0.001363,-0.729692,0.00141072,0.0119024,601,1079,-0.0769753,0.0461688
-616,-55,-0.0532227,-0.0494385,-0.000551164,0.000154373,-0.000686259,0.000573225,-0.000970015,-1.02281,0.000900753,0.0117711,608,1079,-0.0532285,0.0494071
-609,-55,-0.0585938,-0.0466309,-0.000433505,0.000274506,-0.000121755,0.000294859,-0.000453858,-1.40517,0.000435509,0.0134725,615,1079,-0.0586109,0.0465886
-602,-55,-0.0986938,-0.057251,-0.00014406,0.000111377,8.44943e-05,0.000136797,-0.00016948,1.27856,0.000177164,0.0125899,622,1079,-0.0986817,0.0572229
-595,-55,-0.0661011,-0.03479,6.11841e-06,6.8025e-05,0.000166738,0.000206658,-0.000132515,0.877174,0.000197375,0.013199,629,1079,-0.0660935,0.0347898
-588,-55,-0.0549927,-0.0406494,0.00017657,6.63057e-05,0.00011929,0.000252852,-9.97605e-06,0.568934,0.00017199,0.0236647,636,1079,-0.055003,0.0406353
-581,-55,-0.0618286,-0.0906982,0.000382417,6.44724e-05,1.56077e-05,0.000383181,6.3708e-05,0.0489327,0.000237089,0.0384835,643,1079,-0.061824,0.0906643
-574,-55,0.00744629,0.00744629,0.000630707,6.05546e-05,-9.48292e-05,0.000646066,4.51962e-05,-0.160565,0.000416464,0.0387961,650,1079,0.0074514,-0.00750198
-567,-55,0.0831299,-0.128418,0.000941746,6.98505e-05,-0.0002579,0.00101232,-7.22008e-07,-0.267104,0.00067512,0.036724,657,1079,0.0831039,0.128456
-560,-55,-0.0480347,-0.15625,0.00135569,9.51555e-05,-0.000486691,0.00152173,-7.08839e-05,-0.328778,0.00103892,0.0376941,664,1079,-0.0480417,0.156302
-553,-55,-0.0990601,-0.0559082,0.00187916,0.00013987,-0.000783645,0.00218015,-0.000161118,-0.366714,0.00151,0.0378655,671,1079,-0.0990448,0.0559516
-546,-55,-0.0724487,-0.143555,0.00248213,0.000211738,-0.00115206,0.00296432,-0.000270446,-0.396386,0.00207225,0.0357019,678,1079,-0.07242,0.1435
-539,-55,-0.0380859,-0.130127,0.00322112,0.000314703,-0.00158277,0.00391663,-0.000380801,-0.414023,0.00274683,0.0337579,685,1079,-0.0380598,0.1301
-532,-55,-0.0369873,-0.167114,0.00397888,0.000443644,-0.00207241,0.00493511,-0.000512589,-0.432303,0.00347356,0.0347167,692,1079,-0.0369915,0.167115
-525,-55,0,0,0,0,0,0,0,0,0,-1,699,1079,0,0
-518,-55,0,0,0,0,0,0,0,0,0,-1,706,1079,0,0
-511,-55,0,0,0,0,0,0,0,0,0,-1,713,1079,0,0
-504,-55,0,0,0,0,0,0,0,0,0,-1,720,1079,0,0
-497,-55,0,0,0,0,0,0,0,0,0,-1,727,1079,0,0
-490,-55,0,0,0,0,0,0,0,0,0,-1,734,1079,0,0
-483,-55,0,0,0,0,0,0,0,0,0,-1,741,1079,0,0
-476,-55,0,0,0,0,0,0,0,0,0,-1,748,1079,0,0
-469,-55,0,0,0,0,0,0,0,0,0,-1,755,1079,0,0
-462,-55,0,0,0,0,0,0,0,0,0,-1,762,1079,0,0
-455,-55,0,0,0,0,0,0,0,0,0,-1,769,1079,0,0
-448,-55,0,0,0,0,0,0,0,0,0,-1,776,1079,0,0
-441,-55,0,0,0,0,0,0,0,0,0,-1,783,1079,0,0
-434,-55,0,0,0,0,0,0,0,0,0,-1,790,1079,0,0
-427,-55,0,0,0,0,0,0,0,0,0,-1,797,1079,0,0
-420,-55,0,0,0,0,0,0,0,0,0,-1,804,1079,0,0
-413,-55,0,0,0,0,0,0,0,0,0,-1,811,1079,0,0
-406,-55,0,0,0,0,0,0,0,0,0,-1,818,1079,0,0
-399,-55,0,0,0,0,0,0,0,0,0,-1,825,1079,0,0
-392,-55,0,0,0,0,0,0,0,0,0,-1,832,1079,0,0
-385,-55,0,0,0,0,0,0,0,0,0,-1,839,1079,0,0
-378,-55,0,0,0,0,0,0,0,0,0,-1,846,1079,0,0
-371,-55,0,0,0,0,0,0,0,0,0,-1,853,1079,0,0
-364,-55,0,0,0,0,0,0,0,0,0,-1,860,1079,0,0
-357,-55,0,0,0,0,0,0,0,0,0,-1,867,1079,0,0
-350,-55,0,0,0,0,0,0,0,0,0,-1,874,1079,0,0
-343,-55,0,0,0,0,0,0,0,0,0,-1,881,1079,0,0
-336,-55,0,0,0,0,0,0,0,0,0,-1,888,1079,0,0
-329,-55,0,0,0,0,0,0,0,0,0,-1,895,1079,0,0
-322,-55,0,0,0,0,0,0,0,0,0,-1,902,1079,0,0
-315,-55,0,0,0,0,0,0,0,0,0,-1,909,1079,0,0
-308,-55,0,0,0,0,0,0,0,0,0,-1,916,1079,0,0
-301,-55,0,0,0,0,0,0,0,0,0,-1,923,1079,0,0
-294,-55,0,0,0,0,0,0,0,0,0,-1,930,1079,0,0
-287,-55,0,0,0,0,0,0,0,0,0,-1,937,1079,0,0
-280,-55,0,0,0,0,0,0,0,0,0,-1,944,1079,0,0
-273,-55,0,0,0,0,0,0,0,0,0,-1,951,1079,0,0
-266,-55,0,0,0,0,0,0,0,0,0,-1,958,1079,0,0
-259,-55,0,0,0,0,0,0,0,0,0,-1,965,1079,0,0
-252,-55,0,0,0,0,0,0,0,0,0,-1,972,1079,0,0
-245,-55,0,0,0,0,0,0,0,0,0,-1,979,1079,0,0
-238,-55,0,0,0,0,0,0,0,0,0,-1,986,1079,0,0
-231,-55,0,0,0,0,0,0,0,0,0,-1,993,1079,0,0
-224,-55,0,0,0,0,0,0,0,0,0,-1,1000,1079,0,0
-217,-55,0,0,0,0,0,0,0,0,0,-1,1007,1079,0,0
-210,-55,0,0,0,0,0,0,0,0,0,-1,1014,1079,0,0
-203,-55,0,0,0,0,0,0,0,0,0,-1,1021,1079,0,0
-196,-55,0,0,0,0,0,0,0,0,0,-1,1028,1079,0,0
-189,-55,0,0,0,0,0,0,0,0,0,-1,1035,1079,0,0
-182,-55,0,0,0,0,0,0,0,0,0,-1,1042,1079,0,0
-175,-55,0,0,0,0,0,0,0,0,0,-1,1049,1079,0,0
-168,-55,0,0,0,0,0,0,0,0,0,-1,1056,1079,0,0
-161,-55,0,0,0,0,0,0,0,0,0,-1,1063,1079,0,0
-154,-55,0,0,0,0,0,0,0,0,0,-1,1070,1079,0,0
-147,-55,0,0,0,0,0,0,0,0,0,-1,1077,1079,0,0
-140,-55,0,0,0,0,0,0,0,0,0,-1,1084,1079,0,0
-133,-55,0,0,0,0,0,0,0,0,0,-1,1091,1079,0,0
-126,-55,0,0,0,0,0,0,0,0,0,-1,1098,1079,0,0
-119,-55,0,0,0,0,0,0,0,0,0,-1,1105,1079,0,0
-112,-55,0,0,0,0,0,0,0,0,0,-1,1112,1079,0,0
-105,-55,0,0,0,0,0,0,0,0,0,-1,1119,1079,0,0
-98,-55,0,0,0,0,0,0,0,0,0,-1,1126,1079,0,0
-91,-55,0,0,0,0,0,0,0,0,0,-1,1133,1079,0,0
-84,-55,0,0,0,0,0,0,0,0,0,-1,1140,1079,0,0
-77,-55,0,0,0,0,0,0,0,0,0,-1,1147,1079,0,0
-70,-55,0,0,0,0,0,0,0,0,0,-1,1154,1079,0,0
-63,-55,0,0,0,0,0,0,0,0,0,-1,1161,1079,0,0
-56,-55,0,0,0,0,0,0,0,0,0,-1,1168,1079,0,0
-49,-55,0,0,0,0,0,0,0,0,0,-1,1175,1079,0,0
-42,-55,0,0,0,0,0,0,0,0,0,-1,1182,1079,0,0
-35,-55,0,0,0,0,0,0,0,0,0,-1,1189,1079,0,0
-28,-55,0,0,0,0,0,0,0,0,0,-1,1196,1079,0,0
-21,-55,0,0,0,0,0,0,0,0,0,-1,1203,1079,0,0
-14,-55,0,0,0,0,0,0,0,0,0,-1,1210,1079,0,0
-7,-55,0,0,0,0,0,0,0,0,0,-1,1217,1079,0,0
0,-55,0,0,0,0,0,0,0,0,0,-1,1224,1079,0,0
7,-55,0,0,0,0,0,0,0,0,0,-1,1231,1079,0,0
14,-55,0,0,0,0,0,0,0,0,0,-1,1238,1079,0,0
21,-55,0,0,0,0,0,0,0,0,0,-1,1245,1079,0,0
28,-55,0,0,0,0,0,0,0,0,0,-1,1252,1079,0,0
35,-55,0,0,0,0,0,0,0,0,0,-1,1259,1079,0,0
42,-55,0,0,0,0,0,0,0,0,0,-1,1266,1079,0,0
49,-55,0,0,0,0,0,0,0,0,0,-1,1273,1079,0,0
56,-55,0,0,0,0,0,0,0,0,0,-1,1280,1079,0,0
63,-55,0,0,0,0,0,0,0,0,0,-1,1287,1079,0,0
70,-55,0,0,0,0,0,0,0,0,0,-1,1294,1079,0,0
77,-55,0,0,0,0,0,0,0,0,0,-1,1301,1079,0,0
84,-55,0,0,0,0,0,0,0,0,0,-1,1308,1079,0,0
91,-55,0,0,0,0,0,0,0,0,0,-1,1315,1079,0,0
98,-55,0,0,0,0,0,0,0,0,0,-1,1322,1079,0,0
105,-55,0,0,0,0,0,0,0,0,0,-1,1329,1079,0,0
112,-55,0,0,0,0,0,0,0,0,0,-1,1336,1079,0,0
119,-55,0,0,0,0,0,0,0,0,0,-1,1343,1079,0,0
126,-55,0,0,0,0,0,0,0,0,0,-1,1350,1079,0,0
133,-55,0,0,0,0,0,0,0,0,0,-1,1357,1079,0,0
140,-55,0,0,0,0,0,0,0,0,0,-1,1364,1079,0,0
147,-55,0,0,0,0,0,0,0,0,0,-1,1371,1079,0,0
154,-55,0,0,0,0,0,0,0,0,0,-1,1378,1079,0,0
161,-55,0,0,0,0,0,0,0,0,0,-1,1385,1079,0,0
168,-55,0,0,0,0,0,0,0,0,0,-1,1392,1079,0,0
175,-55,0,0,0,0,0,0,0,0,0,-1,1399,1079,0,0
182,-55,0,0,0,0,0,0,0,0,0,-1,1406,1079,0,0
189,-55,0,0,0,0,0,0,0,0,0,-1,1413,1079,0,0
196,-55,0,0,0,0,0,0,0,0,0,-1,1420,1079,0,0
203,-55,0,0,0,0,0,0,0,0,0,-1,1427,1079,0,0
210,-55,0,0,0,0,0,0,0,0,0,-1,1434,1079,0,0
217,-55,0,0,0,0,0,0,0,0,0,-1,1441,1079,0,0
224,-55,0,0,0,0,0,0,0,0,0,-1,1448,1079,0,0
231,-55,0,0,0,0,0,0,0,0,0,-1,1455,1079,0,0
238,-55,0,0,0,0,0,0,0,0,0,-1,1462,1079,0,0
245,-55,0,0,0,0,0,0,0,0,0,-1,1469,1079,0,0
252,-55,0,0,0,0,0,0,0,0,0,-1,1476,1079,0,0
259,-55,0,0,0,0,0,0,0,0,0,-1,1483,1079,0,0
266,-55,0,0,0,0,0,0,0,0,0,-1,1490,1079,0,0
273,-55,0,0,0,0,0,0,0,0,0,-1,1497,1079,0,0
280,-55,0,0,0,0,0,0,0,0,0,-1,1504,1079,0,0
287,-55,0,0,0,0,0,0,0,0,0,-1,1511,1079,0,0
294,-55,0,0,0,0,0,0,0,0,0,-1,1518,1079,0,0
301,-55,0,0,0,0,0,0,0,0,0,-1,1525,1079,0,0
308,-55,0,0,0,0,0,0,0,0,0,-1,1532,1079,0,0
315,-55,0,0,0,0,0,0,0,0,0,-1,1539,1079,0,0
322,-55,0,0,0,0,0,0,0,0,0,-1,1546,1079,0,0
329,-55,0,0,0,0,0,0,0,0,0,-1,1553,1079,0,0
336,-55,0,0,0,0,0,0,0,0,0,-1,1560,1079,0,0
343,-55,0,0,0,0,0,0,0,0,0,-1,1567,1079,0,0
350,-55,0,0,0,0,0,0,0,0,0,-1,1574,1079,0,0
357,-55,0,0,0,0,0,0,0,0,0,-1,1581,1079,0,0
364,-55,0,0,0,0,0,0,0,0,0,-1,1588,1079,0,0
371,-55,0,0,0,0,0,0,0,0,0,-1,1595,1079,0,0
378,-55,0,0,0,0,0,0,0,0,0,-1,1602,1079,0,0
385,-55,0,0,0,0,0,0,0,0,0,-1,1609,1079,0,0
392,-55,0,0,0,0,0,0,0,0,0,-1,1616,1079,0,0
399,-55,0,0,0,0,0,0,0,0,0,-1,1623,1079,0,0
406,-55,0,0,0,0,0,0,0,0,0,-1,1630,1079,0,0
413,-55,0,0,0,0,0,0,0,0,0,-1,1637,1079,0,0
420,-55,0,0,0,0,0,0,0,0,0,-1,1644,1079,0,0
427,-55,0,0,0,0,0,0,0,0,0,-1,1651,1079,0,0
434,-55,0,0,0,0,0,0,0,0,0,-1,1658,1079,0,0
441,-55,0,0,0,0,0,0,0,0,0,-1,1665,1079,0,0
448,-55,0,0,0,0,0,0,0,0,0,-1,1672,1079,0,0
455,-55,0,0,0,0,0,0,0,0,0,-1,1679,1079,0,0
462,-55,0,0,0,0,0,0,0,0,0,-1,1686,1079,0,0
469,-55,0,0,0,0,0,0,0,0,0,-1,1693,1079,0,0
476,-55,0,0,0,0,0,0,0,0,0,-1,1700,1079,0,0
483,-55,0,0,0,0,0,0,0,0,0,-1,1707,1079,0,0
490,-55,0,0,0,0,0,0,0,0,0,-1,1714,1079,0,0
497,-55,0,0,0,0,0,0,0,0,0,-1,1721,1079,0,0
504,-55,0,0,0,0,0,0,0,0,0,-1,1728,1079,0,0
511,-55,0,0,0,0,0,0,0,0,0,-1,1735,1079,0,0
518,-55,0,0,0,0,0,0,0,0,0,-1,1742,1079,0,0
525,-55,0,0,0,0,0,0,0,0,0,-1,1749,1079,0,0
532,-55,0,0,0,0,0,0,0,0,0,-1,1756,1079,0,0
539,-55,0,0,0,0,0,0,0,0,0,-1,1763,1079,0,0
546,-55,0,0,0,0,0,0,0,0,0,-1,1770,1079,0,0
553,-55,0,0,0,0,0,0,0,0,0,-1,1777,1079,0,0
560,-55,0,0,0,0,0,0,0,0,0,-1,1784,1079,0,0
567,-55,0,0,0,0,0,0,0,0,0,-1,1791,1079,0,0
574,-55,0,0,0,0,0,0,0,0,0,-1,1798,1079,0,0
581,-55,0,0,0,0,0,0,0,0,0,-1,1805,1079,0,0
588,-55,0,0,0,0,0,0,0,0,0,-1,1812,1079,0,0
595,-55,0,0,0,0,0,0,0,0,0,-1,1819,1079,0,0
602,-55,0,0,0,0,0,0,0,0,0,-1,1826,1079,0,0
609,-55,0,0,0,0,0,0,0,0,0,-1,1833,1079,0,0
616,-55,0,0,0,0,0,0,0,0,0,-1,1840,1079,0,0
623,-55,0,0,0,0,0,0,0,0,0,-1,1847,1079,0,0
630,-55,0,0,0,0,0,0,0,0,0,-1,1854,1079,0,0
637,-55,0,0,0,0,0,0,0,0,0,-1,1861,1079,0,0
644,-55,0,0,0,0,0,0,0,0,0,-1,1868,1079,0,0
651,-55,-0.0152588,0.0102539,0.00106088,-0.000307755,-0.00432302,0.00475341,-0.00400029,-0.706901,0.00506018,0.0306768,1875,1079,-0.0152848,-0.0102895
658,-55,-0.0283203,0.00646973,0.000315503,-0.000263695,-0.00284809,0.00288868,-0.00283687,-0.734731,0.00330569,0.0297621,1882,1079,-0.0282754,-0.006498
665,-55,-0.110596,-0.026001,-0.000195802,-0.000233668,-0.00174712,0.00153249,-0.00196196,-0.77998,0.0020226,0.0336655,1889,1079,-0.11056,0.0260503
672,-55,-0.081665,-0.0369873,-0.000501099,-0.000226295,-0.00100594,0.000651583,-0.00137898,-0.853273,0.00119716,0.0331464,1896,1079,-0.081614,0.0370235
679,-55,-0.0567627,-0.0175781,-0.000714702,-0.000209354,-0.000547861,0.000141293,-0.00106535,-1.00146,0.000761711,0.0336195,1903,1079,-0.0567837,0.0176065
686,-55,-0.0498047,-0.0461426,-0.000828778,-0.000183426,-0.000274942,-8.21768e-05,-0.000930027,-1.21795,0.000594522,0.0352697,1910,1079,-0.0498355,0.046135
693,-55,-0.0585938,-0.045166,-0.000849689,-0.000161788,-0.000120294,-0.000141359,-0.000870118,-1.40257,0.000539172,0.0337127,1917,1079,-0.0585666,0.0451231
700,-55,-0.0437012,-0.000488281,-0.000840079,-0.000125951,-3.14283e-05,-0.00012457,-0.000841459,-1.5269,0.000524405,0.0287834,1924,1079,-0.0437054,0.000442818
707,-55,-0.0522461,-0.0158691,-0.000823283,-0.00011447,8.88565e-05,-0.0001035,-0.000834252,1.44797,0.000525079,0.0177897,1931,1079,-0.052264,0.0158778
714,-55,-0.0722656,-0.0455322,-0.000672759,-0.00013176,0.000124786,-0.000104364,-0.000700155,1.35468,0.000436164,0.0128265,1938,1079,-0.072248,0.045513
721,-55,-0.0775146,-0.0455322,-0.00050757,-0.000115748,2.20134e-05,-0.000114515,-0.000508803,1.51485,0.000308206,0.0134642,1945,1079,-0.077473,0.0454978
728,-55,-0.115601,-0.0383301,-0.000440105,-5.0766e-05,-0.000118937,-1.73076e-05,-0.000473563,-1.29657,0.000310101,0.0160518,1952,1079,-0.115584,0.038326
735,-55,-0.104736,-0.0356445,-0.000366659,7.67162e-07,-0.000224471,0.000107119,-0.000473011,-1.12834,0.000356453,0.0152746,1959,1079,-0.104788,0.0356143
742,-55,-0.0910645,-0.0239258,-0.000320622,5.24809e-06,-0.000248579,0.000139532,-0.000454906,-1.0755,0.000358938,0.0153432,1966,1079,-0.0910513,0.0239352
749,-55,-0.0576172,-0.036499,-5.60512e-05,0.000253063,-3.05223e-05,0.000256048,-5.90362e-05,-1.47331,0.000193405,0.0114782,1973,1079,-0.0575769,0.0364473
756,-55,-0.0643311,-0.0472412,0.000530325,-0.000714185,0.000681089,0.000830612,-0.00101447,0.415254,0.00106702,0.0103942,1980,1079,-0.0642847,0.0472998
763,-55,-0.0718994,-0.0307617,0.00096698,-0.00191585,0.00164555,0.00171315,-0.00266202,0.425715,0.00254573,0.0135193,1987,1079,-0.0718711,0.0307877
770,-55,-0.0421143,-0.0394287,0.00154861,-0.00314998,0.00277846,0.00283786,-0.00443923,0.43445,0.00423521,0.0139706,1994,1079,-0.0421431,0.0394599
777,-55,-0.0474854,-0.0654297,0.00239226,-0.00503506,0.00443521,0.00446326,-0.00710607,0.436857,0.0067374,0.012206,2001,1079,-0.0475278,0.0654549
784,-55,-0.0644531,-0.0976563,0.00350656,-0.00776021,0.00674419,0.00666061,-0.0109143,0.437451,0.0102454,0.0292251,2008,1079,-0.0644165,0.0976722
791,-55,-0.253418,0.0808105,0.0049583,-0.0115437,0.00987045,0.00957217,-0.0161576,0.437264,0.0150164,0.0425719,2015,1079,-0.253436,-0.0808351
798,-55,-0.44812,0.314087,0,0,0,0,0,0,0,-1,2022,1079,-0.448161,-0.314141
805,-55,0.207397,-0.788574,0.00917197,-0.0233862,0.0192962,0.0181387,-0.032353,0.435002,0.029534,0.0471271,2029,1079,0.2074,0.788541
812,-55,0.0732422,0.0144043,0.0119147,-0.0321038,0.0259565,0.023937,-0.0441261,0.433753,0.0398684,0.0452827,2036,1079,0.0732043,-0.0143758
-700,-62,-1.94604,3.26379,0,0,0,0,0,0,0,-1,524,1086,-1.94604,-3.26382
-693,-62,-1.26514,2.42419,0.0471118,0.0672598,-0.0269163,0.0859256,0.028446,-0.964464,0.0505443,0.048124,531,1086,-1.26515,-2.42419
-686,-62,-0.59436,1.50977,0.0379325,0.0445778,-0.0232082,0.0646999,0.0178103,-0.856498,0.0385917,0.0436387,538,1086,-0.594337,-1.50976
-679,-62,-0.246887,0.901123,0.0298043,0.0287732,-0.0194054,0.048701,0.00987654,-0.772118,0.0297272,0.0432782,545,1086,-0.246904,-0.901068
-672,-62,0.358582,0.435303,0.022723,0.017833,-0.0157721,0.0362384,0.00431757,-0.708501,0.0228561,0.0424873,552,1086,0.358572,-0.435307
-665,-62,0.0596313,-0.0111084,0,0,0,0,0,0,0,-1,559,1086,0.0596302,0.0110603
-658,-62,-0.0293579,0.0255127,0.011868,0.00565424,-0.0095591,0.0188124,-0.00129022,-0.628275,0.0129931,0.0492416,566,1086,-0.0293673,-0.0255701
-651,-62,-0.0618286,-0.0090332,0.00803442,0.0027376,-0.0071052,0.0129687,-0.00219673,-0.607003,0.00946345,0.0339933,573,1086,-0.0618312,0.00900388
-644,-62,-0.0752563,-0.0578613,0.00514668,-0.000382863,-0.00503606,0.00812698,-0.00336317,-0.534363,0.00682125,0.0101356,580,1086,-0.0752676,0.0578463
-637,-62,-0.0689697,-0.0556641,0.00273913,-0.00101762,-0.00301996,0.00441722,-0.00269571,-0.507183,0.00414655,0.00863285,587,1086,-0.0689789,0.0556684
-630,-62,-0.0792847,-0.0361328,0.00127355,-0.00161985,-0.00186722,0.00218894,-0.00253523,-0.455809,0.00272994,0.010089,594,1086,-0.0792765,0.0361245
-623,-62,-0.0961304,-0.0518799,0.000159078,-0.000606841,-0.00117679,0.00101366,-0.00146142,-0.628089,0.00143676,0.0111609,601,1086,-0.0961383,0.051899
-616,-62,-0.0544434,-0.0629883,-0.000420456,-4.06077e-05,-0.000681319,0.000476764,-0.000937827,-0.921327,0.000831049,0.0121624,608,1086,-0.0544638,0.0630377
-609,-62,-0.0472412,-0.052124,-0.000354874,0.000173257,-0.000131631,0.000204246,-0.000385863,-1.33958,0.000346037,0.0137119,615,1086,-0.0472472,0.0521208
-602,-62,-0.0870972,-0.0430908,-0.000131236,8.49076e-05,8.48905e-05,0.000114262,-0.00016059,1.23788,0.000159435,0.0129745,622,1086,-0.0870799,0.0431372
-595,-62,-0.0839233,-0.0484619,-1.13038e-05,6.67188e-05,0.000159428,0.000191839,-0.000136424,0.905388,0.000190421,0.014676,629,1086,-0.0839111,0.0484283
-588,-62,-0.0769653,-0.0229492,0.000149084,6.52128e-05,9.89423e-05,0.000214611,-3.14059e-07,0.584955,0.000143179,0.0218138,636,1086,-0.0769951,0.0229498
-581,-62,-0.0830688,0.0172119,0.000365935,5.95048e-05,-2.79872e-06,0.000365961,5.94792e-05,-0.00913228,0.000226763,0.0328632,643,1086,-0.0830416,-0.017194
-574,-62,-0.0739746,0.121094,0.000621578,5.69659e-05,-0.000104697,0.000640367,3.81768e-05,-0.17757,0.000414772,0.0346627,650,1086,-0.073992,-0.121129
-567,-62,-0.0264282,-0.0620117,0.000950726,6.17659e-05,-0.000264203,0.00102332,-1.08285e-05,-0.26815,0.000685852,0.0353928,657,1086,-0.0264003,0.0619829
-560,-62,-0.100952,-0.0914307,0.00139304,7.78501e-05,-0.000479165,0.0015491,-7.82069e-05,-0.314852,0.00105976,0.0361756,664,1086,-0.100964,0.0914182
-553,-62,-0.0961914,0.0123291,0.00195808,0.000108362,-0.00074538,0.00222106,-0.000154616,-0.339176,0.00153484,0.0329639,671,1086,-0.0961925,-0.0122705
-546,-62,-0.0849609,-0.0794678,0.00262348,0.000157475,-0.00105616,0.00301399,-0.000233028,-0.354149,0.00209133,0.0295659,678,1086,-0.0849838,0.0794552
-539,-62,-0.0327148,-0.1604,0.00344169,0.000229638,-0.00138109,0.00395385,-0.000282525,-0.355119,0.00273494,0.0334106,685,1086,-0.0326908,0.160383
-532,-62,0.00311279,-0.188599,0.00429187,0.000315592,-0.00169144,0.00491403,-0.000306569,-0.352469,0.00338284,0.0350379,692,1086,0.00314032,0.188624
-525,-62,0,0,0,0,0,0,0,0,0,-1,699,1086,0,0
-518,-62,0,0,0,0,0,0,0,0,0,-1,706,1086,0,0
-511,-62,0,0,0,0,0,0,0,0,0,-1,713,1086,0,0
-504,-62,0,0,0,0,0,0,0,0,0,-1,720,1086,0,0
-497,-62,0,0,0,0,0,0,0,0,0,-1,727,1086,0,0
-490,-62,0,0,0,0,0,0,0,0,0,-1,734,1086,0,0
-483,-62,0,0,0,0,0,0,0,0,0,-1,741,1086,0,0
-476,-62,0,0,0,0,0,0,0,0,0,-1,748,1086,0,0
-469,-62,0,0,0,0,0,0,0,0,0,-1,755,1086,0,0
-462,-62,0,0,0,0,0,0,0,0,0,-1,762,1086,0,0
-455,-62,0,0,0,0,0,0,0,0,0,-1,769,1086,0,0
-448,-62,0,0,0,0,0,0,0,0,0,-1,776,1086,0,0
-441,-62,0,0,0,0,0,0,0,0,0,-1,783,1086,0,0
-434,-62,0,0,0,0,0,0,0,0,0,-1,790,1086,0,0
-427,-62,0,0,0,0,0,0,0,0,0,-1,797,1086,0,0
-420,-62,0,0,0,0,0,0,0,0,0,-1,804,1086,0,0
-413,-62,0,0,0,0,0,0,0,0,0,-1,811,1086,0,0
-406,-62,0,0,0,0,0,0,0,0,0,-1,818,1086,0,0
-399,-62,0,0,0,0,0,0,0,0,0,-1,825,1086,0,0
-392,-62,0,0,0,0,0,0,0,0,0,-1,832,1086,0,0
-385,-62,0,0,0,0,0,0,0,0,0,-1,839,1086,0,0
-378,-62,0,0,0,0,0,0,0,0,0,-1,846,1086,0,0
-371,-62,0,0,0,0,0,0,0,0,0,-1,853,1086,0,0
-364,-62,0,0,0,0,0,0,0,0,0,-1,860,1086,0,0
-357,-62,0,0,0,0,0,0,0,0,0,-1,867,1086,0,0
-350,-62,0,0,0,0,0,0,0,0,0,-1,874,1086,0,0
-343,-62,0,0,0,0,0,0,0,0,0,-1,881,1086,0,0
-336,-62,0,0,0,0,0,0,0,0,0,-1,888,1086,0,0
-329,-62,0,0,0,0,0,0,0,0,0,-1,895,1086,0,0
-322,-62,0,0,0,0,0,0,0,0,0,-1,902,1086,0,0
-315,-62,0,0,0,0,0,0,0,0,0,-1,909,1086,0,0
-308,-62,0,0,0,0,0,0,0,0,0,-1,916,1086,0,0
-301,-62,0,0,0,0,0,0,0,0,0,-1,923,1086,0,0
-294,-62,0,0,0,0,0,0,0,0,0,-1,930,1086,0,0
-287,-62,0,0,0,0,0,0,0,0,0,-1,937,1086,0,0
-280,-62,0,0,0,0,0,0,0,0,0,-1,944,1086,0,0
-273,-62,0,0,0,0,0,0,0,0,0,-1,951,1086,0,0
-266,-62,0,0,0,0,0,0,0,0,0,-1,958,1086,0,0
-259,-62,0,0,0,0,0,0,0,0,0,-1,965,1086,0,0
-252,-62,0,0,0,0,0,0,0,0,0,-1,972,1086,0,0
-245,-62,0,0,0,0,0,0,0,0,0,-1,979,1086,0,0
-238,-62,0,0,0,0,0,0,0,0,0,-1,986,1086,0,0
-231,-62,0,0,0,0,0,0,0,0,0,-1,993,1086,0,0
-224,-62,0,0,0,0,0,0,0,0,0,-1,1000,1086,0,0
-217,-62,0,0,0,0,0,0,0,0,0,-1,1007,1086,0,0
-210,-62,0,0,0,0,0,0,0,0,0,-1,1014,1086,0,0
-203,-62,0,0,0,0,0,0,0,0,0,-1,1021,1086,0,0
-196,-62,0,0,0,0,0,0,0,0,0,-1,1028,1086,0,0
-189,-62,0,0,0,0,0,0,0,0,0,-1,1035,1086,0,0
-182,-62,0,0,0,0,0,0,0,0,0,-1,1042,1086,0,0
-175,-62,0,0,0,0,0,0,0,0,0,-1,1049,1086,0,0
-168,-62,0,0,0,0,0,0,0,0,0,-1,1056,1086,0,0
-161,-62,0,0,0,0,0,0,0,0,0,-1,1063,1086,0,0
-154,-62,0,0,0,0,0,0,0,0,0,-1,1070,1086,0,0
-147,-62,0,0,0,0,0,0,0,0,0,-1,1077,1086,0,0
-140,-62,0,0,0,0,0,0,0,0,0,-1,1084,1086,0,0
-133,-62,0,0,0,0,0,0,0,0,0,-1,1091,1086,0,0
-126,-62,0,0,0,0,0,0,0,0,0,-1,1098,1086,0,0
-119,-62,0,0,0,0,0,0,0,0,0,-1,1105,1086,0,0
-112,-62,0,0,0,0,0,0,0,0,0,-1,1112,1086,0,0
-105,-62,0,0,0,0,0,0,0,0,0,-1,1119,1086,0,0
-98,-62,0,0,0,0,0,0,0,0,0,-1,1126,1086,0,0
-91,-62,0,0,0,0,0,0,0,0,0,-1,1133,1086,0,0
-84,-62,0,0,0,0,0,0,0,0,0,-1,1140,1086,0,0
-77,-62,0,0,0,0,0,0,0,0,0,-1,1147,1086,0,0
-70,-62,0,0,0,0,0,0,0,0,0,-1,1154,1086,0,0
-63,-62,0,0,0,0,0,0,0,0,0,-1,1161,1086,0,0
-56,-62,0,0,0,0,0,0,0,0,0,-1,1168,1086,0,0
-49,-62,0,0,0,0,0,0,0,0,0,-1,1175,1086,0,0
-42,-62,0,0,0,0,0,0,0,0,0,-1,1182,1086,0,0
-35,-62,0,0,0,0,0,0,0,0,0,-1,1189,1086,0,0
-28,-62,0,0,0,0,0,0,0,0,0,-1,1196,1086,0,0
-21,-62,0,0,0,0,0,0,0,0,0,-1,1203,1086,0,0
-14,-62,0,0,0,0,0,0,0,0,0,-1,1210,1086,0,0
-7,-62,0,0,0,0,0,0,0,0,0,-1,1217,1086,0,0
0,-62,0,0,0,0,0,0,0,0,0,-1,1224,1086,0,0
7,-62,0,0,0,0,0,0,0,0,0,-1,1231,1086,0,0
14,-62,0,0,0,0,0,0,0,0,0,-1,1238,1086,0,0
21,-62,0,0,0,0,0,0,0,0,0,-1,1245,1086,0,0
28,-62,0,0,0,0,0,0,0,0,0,-1,1252,1086,0,0
35,-62,0,0,0,0,0,0,0,0,0,-1,1259,1086,0,0
42,-62,0,0,0,0,0,0,0,0,0,-1,1266,1086,0,0
49,-62,0,0,0,0,0,0,0,0,0,-1,1273,1086,0,0
56,-62,0,0,0,0,0,0,0,0,0,-1,1280,1086,0,0
63,-62,0,0,0,0,0,0,0,0,0,-1,1287,1086,0,0
70,-62,0,0,0,0,0,0,0,0,0,-1,1294,1086,0,0
77,-62,0,0,0,0,0,0,0,0,0,-1,1301,1086,0,0
84,-62,0,0,0,0,0,0,0,0,0,-1,1308,1086,0,0
91,-62,0,0,0,0,0,0,0,0,0,-1,1315,1086,0,0
98,-62,0,0,0,0,0,0,0,0,0,-1,1322,1086,0,0
105,-62,0,0,0,0,0,0,0,0,0,-1,1329,1086,0,0
112,-62,0,0,0,0,0,0,0,0,0,-1,1336,1086,0,0
119,-62,0,0,0,0,0,0,0,0,0,-1,1343,1086,0,0
126,-62,0,0,0,0,0,0,0,0,0,-1,1350,1086,0,0
133,-62,0,0,0,0,0,0,0,0,0,-1,1357,1086,0,0
140,-62,0,0,0,0,0,0,0,0,0,-1,1364,1086,0,0
147,-62,0,0,0,0,0,0,0,0,0,-1,1371,1086,0,0
154,-62,0,0,0,0,0,0,0,0,0,-1,1378,1086,0,0
161,-62,0,0,0,0,0,0,0,0,0,-1,1385,1086,0,0
168,-62,0,0,0,0,0,0,0,0,0,-1,1392,1086,0,0
175,-62,0,0,0,0,0,0,0,0,0,-1,1399,1086,0,0
182,-62,0,0,0,0,0,0,0,0,0,-1,1406,1086,0,0
189,-62,0,0,0,0,0,0,0,0,0,-1,1413,1086,0,0
196,-62,0,0,0,0,0,0,0,0,0,-1,1420,1086,0,0
203,-62,0,0,0,0,0,0,0,0,0,-1,1427,1086,0,0
210,-62,0,0,0,0,0,0,0,0,0,-1,1434,1086,0,0
217,-62,0,0,0,0,0,0,0,0,0,-1,1441,1086,0,0
224,-62,0,0,0,0,0,0,0,0,0,-1,1448,1086,0,0
231,-62,0,0,0,0,0,0,0,0,0,-1,1455,1086,0,0
238,-62,0,0,0,0,0,0,0,0,0,-1,1462,1086,0,0
245,-62,0,0,0,0,0,0,0,0,0,-1,1469,1086,0,0
252,-62,0,0,0,0,0,0,0,0,0,-1,1476,1086,0,0
259,-62,0,0,0,0,0,0,0,0,0,-1,1483,1086,0,0
266,-62,0,0,0,0,0,0,0,0,0,-1,1490,1086,0,0
273,-62,0,0,0,0,0,0,0,0,0,-1,1497,1086,0,0
280,-62,0,0,0,0,0,0,0,0,0,-1,1504,1086,0,0
287,-62,0,0,0,0,0,0,0,0,0,-1,1511,1086,0,0
294,-62,0,0,0,0,0,0,0,0,0,-1,1518,1086,0,0
301,-62,0,0,0,0,0,0,0,0,0,-1,1525,1086,0,0
308,-62,0,0,0,0,0,0,0,0,0,-1,1532,1086,0,0
315,-62,0,0,0,0,0,0,0,0,0,-1,1539,1086,0,0
322,-62,0,0,0,0,0,0,0,0,0,-1,1546,1086,0,0
329,-62,0,0,0,0,0,0,0,0,0,-1,1553,1086,0,0
336,-62,0,0,0,0,0,0,0,0,0,-1,1560,1086,0,0
343,-62,0,0,0,0,0,0,0,0,0,-1,1567,1086,0,0
350,-62,0,0,0,0,0,0,0,0,0,-1,1574,1086,0,0
357,-62,0,0,0,0,0,0,0,0,0,-1,1581,1086,0,0
364,-62,0,0,0,0,0,0,0,0,0,-1,1588,1086,0,0
371,-62,0,0,0,0,0,0,0,0,0,-1,1595,1086,0,0
378,-62,0,0,0,0,0,0,0,0,0,-1,1602,1086,0,0
385,-62,0,0,0,0,0,0,0,0,0,-1,1609,1086,0,0
392,-62,0,0,0,0,0,0,0,0,0,-1,1616,1086,0,0
399,-62,0,0,0,0,0,0,0,0,0,-1,1623,1086,0,0
406,-62,0,0,0,0,0,0,0,0,0,-1,1630,1086,0,0
413,-62,0,0,0,0,0,0,0,0,0,-1,1637,1086,0,0
420,-62,0,0,0,0,0,0,0,0,0,-1,1644,1086,0,0
427,-62,0,0,0,0,0,0,0,0,0,-1,1651,1086,0,0
434,-62,0,0,0,0,0,0,0,0,0,-1,1658,1086,0,0
441,-62,0,0,0,0,0,0,0,0,0,-1,1665,1086,0,0
448,-62,0,0,0,0,0,0,0,0,0,-1,1672,1086,0,0
455,-62,0,0,0,0,0,0,0,0,0,-1,1679,1086,0,0
462,-62,0,0,0,0,0,0,0,0,0,-1,1686,1086,0,0
469,-62,0,0,0,0,0,0,0,0,0,-1,1693,1086,0,0
476,-62,0,0,0,0,0,0,0,0,0,-1,1700,1086,0,0
483,-62,0,0,0,0,0,0,0,0,0,-1,1707,1086,0,0
490,-62,0,0,0,0,0,0,0,0,0,-1,1714,1086,0,0
497,-62,0,0,0,0,0,0,0,0,0,-1,1721,1086,0,0
504,-62,0,0,0,0,0,0,0,0,0,-1,1728,1086,0,0
511,-62,0,0,0,0,0,0,0,0,0,-1,1735,1086,0,0
518,-62,0,0,0,0,0,0,0,0,0,-1,1742,1086,0,0
525,-62,0,0,0,0,0,0,0,0,0,-1,1749,1086,0,0
532,-62,0,0,0,0,0,0,0,0,0,-1,1756,1086,0,0
539,-62,0,0,0,0,0,0,0,0,0,-1,1763,1086,0,0
546,-62,0,0,0,0,0,0,0,0,0,-1,1770,1086,0,0
553,-62,0,0,0,0,0,0,0,0,0,-1,1777,1086,0,0
560,-62,0,0,0,0,0,0,0,0,0,-1,1784,1086,0,0
567,-62,0,0,0,0,0,0,0,0,0,-1,1791,1086,0,0
574,-62,0,0,0,0,0,0,0,0,0,-1,1798,1086,0,0
581,-62,0,0,0,0,0,0,0,0,0,-1,1805,1086,0,0
588,-62,0,0,0,0,0,0,0,0,0,-1,1812,1086,0,0
595,-62,0,0,0,0,0,0,0,0,0,-1,1819,1086,0,0
602,-62,0,0,0,0,0,0,0,0,0,-1,1826,1086,0,0
609,-62,0,0,0,0,0,0,0,0,0,-1,1833,1086,0,0
616,-62,0,0,0,0,0,0,0,0,0,-1,1840,1086,0,0
623,-62,0,0,0,0,0,0,0,0,0,-1,1847,1086,0,0
630,-62,0,0,0,0,0,0,0,0,0,-1,1854,1086,0,0
637,-62,0,0,0,0,0,0,0,0,0,-1,1861,1086,0,0
644,-62,0,0,0,0,0,0,0,0,0,-1,1868,1086,0,0
651,-62,0.158447,-0.074707,0.00156464,-0.000285135,-0.00415034,0.0048919,-0.0036124,-0.675767,0.00492845,0.034937,1875,1086,0.158465,0.074722
658,-62,0.132446,-0.179688,0.000677223,-0.000176718,-0.00275452,0.00303766,-0.00253716,-0.708506,0.00322295,0.033316,1882,1086,0.132459,0.179726
665,-62,0.0518799,-0.149536,6.2121e-05,-0.000116791,-0.00169904,0.00167406,-0.00172873,-0.759097,0.00196468,0.0336621,1889,1086,0.0518423,0.149569
672,-62,0.0739746,0.0308838,-0.000328781,-8.92302e-05,-0.000992076,0.000790275,-0.00120829,-0.845473,0.00116225,0.0318723,1896,1086,0.0740157,-0.0308953
679,-62,0.0772705,-0.0300293,-0.000601161,-6.45975e-05,-0.000561098,0.000289058,-0.000954817,-1.0084,0.000751658,0.032922,1903,1086,0.0773152,0.0300034
686,-62,0.0166016,-0.140869,-0.000750743,-4.10225e-05,-0.000302473,7.03957e-05,-0.000862161,-1.21786,0.000599618,0.0353437,1910,1086,0.0166179,0.140859
693,-62,-0.0767822,-0.0998535,-0.000794742,-2.72105e-05,-0.000153279,2.26783e-06,-0.00082422,-1.3808,0.000550238,0.0324912,1917,1086,-0.0768172,0.0998997
700,-62,-0.0534668,-0.00585938,-0.000806883,7.11296e-06,-5.75178e-05,1.11572e-05,-0.000810928,-1.5006,0.000544376,0.0270229,1924,1086,-0.0534284,0.00584164
707,-62,-0.0678711,-0.0356445,-0.000798264,-1.41406e-06,5.83813e-05,2.84056e-06,-0.000802518,1.49805,0.000535962,0.0163963,1931,1086,-0.0679226,0.0356437
714,-62,-0.0689697,-0.03479,-0.00066335,-3.68276e-05,9.10658e-05,-2.38595e-05,-0.000676318,1.42934,0.000443139,0.0112856,1938,1086,-0.0689733,0.0348161
721,-62,-0.0667725,-0.0213623,-0.000510058,-2.95336e-05,-1.98344e-05,-2.87163e-05,-0.000510875,-1.52961,0.000331426,0.0122303,1945,1086,-0.0668289,0.0214111
728,-62,-0.122559,-0.0512695,-0.000433007,1.35238e-05,-0.00015251,6.06411e-05,-0.000480124,-1.27115,0.000342093,0.0138383,1952,1086,-0.122598,0.0512416
735,-62,-0.110474,-0.0380859,-0.000349717,1.54714e-05,-0.000222979,0.000121079,-0.000455325,-1.12847,0.000350942,0.0145208,1959,1086,-0.11052,0.0381393
742,-62,-0.0876465,-0.00793457,-0.000328226,-5.76064e-05,-0.000220887,6.61202e-05,-0.000451953,-1.06021,0.000325587,0.0134534,1966,1086,-0.0876569,0.00790653
749,-62,-0.0667725,-0.0223389,-0.000258968,0.000185442,-5.6312e-05,0.000192467,-0.000265993,-1.4467,0.000265824,0.0117067,1973,1086,-0.0667653,0.0223619
756,-62,-0.0783691,-0.0388184,6.56362e-05,-0.000545853,0.00052652,0.000368746,-0.000848963,0.522348,0.000721037,0.011656,1980,1086,-0.0784175,0.0388202
763,-62,-0.081543,-0.0391846,0.000299948,-0.00122854,0.00144558,0.00117087,-0.00209947,0.542236,0.00191334,0.0121703,1987,1086,-0.0815185,0.0391644
770,-62,-0.065918,-0.0447998,0.000572869,-0.00199313,0.00247777,0.00208011,-0.00350037,0.546504,0.00325649,0.0100283,1994,1086,-0.0659088,0.0447784
777,-62,-0.0621338,-0.0712891,0.00100947,-0.00314835,0.00399488,0.003434,-0.00557287,0.545484,0.00524876,0.0127736,2001,1086,-0.0621679,0.0712789
784,-62,-0.0531006,-0.160278,0.0016143,-0.00479937,0.00611512,0.00531243,-0.0084975,0.543906,0.00804354,0.0276232,2008,1086,-0.0531127,0.160311
791,-62,-0.185791,-0.0983887,0.00246163,-0.00706819,0.00900964,0.00788878,-0.0124953,0.542161,0.0118685,0.0434325,2015,1086,-0.185791,0.0984013
798,-62,-0.188843,0.0354004,0.00365165,-0.0101065,0.0128715,0.011367,-0.0178219,0.539987,0.016989,0.0445855,2022,1086,-0.188842,-0.0354096
805,-62,-0.185669,0.038208,0.00524165,-0.0140759,0.0178664,0.015893,-0.0247273,0.537595,0.0236363,0.0440323,2029,1086,-0.185632,-0.0381895
812,-62,0.0568848,0.260742,0.00726209,-0.0191557,0.0242153,0.0216369,-0.0335304,0.535717,0.0320966,0.0447582,2036,1086,0.056854,-0.260741
-700,-69,-0.0549927,-0.645264,0,0,0,0,0,0,0,-1,524,1093,-0.0550061,0.645248
-693,-69,-1.17456,1.93506,0,0,0,0,0,0,0,-1,531,1093,-1.17454,-1.93509
-686,-69,-0.0375977,0.772827,0,0,0,0,0,0,0,-1,538,1093,-0.0376029,-0.77285
-679,-69,0.0836792,0.10791,0,0,0,0,0,0,0,-1,545,1093,0.0836872,-0.107859
-672,-69,0.0305786,0.427979,0,0,0,0,0,0,0,-1,552,1093,0.03058,-0.427968
-665,-69,0.0901489,0.0588379,0,0,0,0,0,0,0,-1,559,1093,0.0901203,-0.0588246
-658,-69,-0.00579834,0.0428467,0.0129815,0.00429976,-0.00817361,0.0178954,-0.000614144,-0.541295,0.0121402,0.0461062,566,1093,-0.00579122,-0.0429043
-651,-69,-0.0679321,-0.0236816,0.00883468,0.00162154,-0.00621792,0.0124163,-0.00196006,-0.522596,0.00900229,0.0286664,573,1093,-0.0679275,0.0237278
-644,-69,-0.0824585,-0.0566406,0.00572931,-0.00117256,-0.00451059,0.00795767,-0.00340092,-0.458859,0.00673149,0.00798584,580,1093,-0.082454,0.0566151
-637,-69,-0.0886841,-0.043335,0.00309232,-0.00157524,-0.00279327,0.00439844,-0.00288136,-0.43739,0.0042333,0.0103,587,1093,-0.0886628,0.0432944
-630,-69,-0.0814209,-0.0554199,0.00152917,-0.00205974,-0.00189566,0.002345,-0.00287557,-0.406409,0.00301928,0.0128292,594,1093,-0.0814171,0.0553827
-623,-69,-0.0765991,-0.0621338,0.000342523,-0.000940118,-0.00127182,0.00112556,-0.00172316,-0.551875,0.00165673,0.0115137,601,1093,-0.0766,0.0621362
-616,-69,-0.0661621,-0.0646973,-0.000254659,-0.000246436,-0.00077427,0.000523733,-0.00102483,-0.788053,0.000909531,0.012313,608,1093,-0.06615,0.0646957
-609,-69,-0.0725708,-0.0690918,-0.000228718,8.09566e-05,-0.000204759,0.000182831,-0.000330593,-1.10912,0.00030049,0.0127014,615,1093,-0.0725838,0.0691168
-602,-69,-0.071167,-0.0559082,-7.74715e-05,0.000104464,3.31115e-05,0.000110303,-8.33103e-05,1.39625,0.000112144,0.0148533,622,1093,-0.0711547,0.0559037
-595,-69,-0.0617065,-0.0533447,-2.27835e-07,0.000143092,0.000116548,0.000208248,-6.53835e-05,1.06103,0.000165002,0.016622,629,1093,-0.0617123,0.0533317
-588,-69,-0.0684814,-0.0144043,0.000146144,0.000160791,5.07208e-05,0.000204715,0.000102221,0.857097,0.000118192,0.0198104,636,1093,-0.0684849,0.0144347
-581,-69,-0.105896,0.036499,0.000373241,0.000168003,-4.50257e-05,0.000382684,0.000158559,-0.206736,0.000222021,0.0263793,643,1093,-0.105918,-0.0364678
-574,-69,-0.145203,0.0611572,0.000629625,0.000184522,-0.000138099,0.00066899,0.000145156,-0.277688,0.000406344,0.0288434,650,1093,-0.145185,-0.0611013
-567,-69,-0.103394,-0.00964355,0.000964458,0.000199681,-0.000291411,0.00106284,0.000101297,-0.325594,0.000677324,0.0344672,657,1093,-0.10338,0.00962837
-560,-69,-0.12561,0.0316162,0.00141393,0.000222187,-0.000489462,0.00158918,4.69313e-05,-0.343834,0.00104416,0.0369565,664,1093,-0.125616,-0.0316329
-553,-69,-0.0906372,0.0826416,0.00198921,0.000256703,-0.00072026,0.00224953,-3.61807e-06,-0.346818,0.00150089,0.0353264,671,1093,-0.0906273,-0.0826165
-546,-69,-0.0736694,-0.0550537,0.00267331,0.000309154,-0.000967571,0.00301881,-3.63487e-05,-0.34297,0.00202477,0.0325148,678,1093,-0.0736611,0.0550188
-539,-69,-0.0415649,-0.152466,0.00351374,0.00038855,-0.00118515,0.00391234,-1.00518e-05,-0.324444,0.00261158,0.0359353,685,1093,-0.0415624,0.152432
-532,-69,0.0560913,-0.154053,0.00440003,0.000501027,-0.00132441,0.00480735,9.37073e-05,-0.298368,0.00317412,0.0376563,692,1093,0.0560894,0.154109
-525,-69,0,0,0,0,0,0,0,0,0,-1,699,1093,0,0
-518,-69,0,0,0,0,0,0,0,0,0,-1,706,1093,0,0
-511,-69,0,0,0,0,0,0,0,0,0,-1,713,1093,0,0
-504,-69,0,0,0,0,0,0,0,0,0,-1,720,1093,0,0
-497,-69,0,0,0,0,0,0,0,0,0,-1,727,1093,0,0
-490,-69,0,0,0,0,0,0,0,0,0,-1,734,1093,0,0
-483,-69,0,0,0,0,0,0,0,0,0,-1,741,1093,0,0
-476,-69,0,0,0,0,0,0,0,0,0,-1,748,1093,0,0
-469,-69,0,0,0,0,0,0,0,0,0,-1,755,1093,0,0
-462,-69,0,0,0,0,0,0,0,0,0,-1,762,1093,0,0
-455,-69,0,0,0,0,0,0,0,0,0,-1,769,1093,0,0
-448,-69,0,0,0,0,0,0,0,0,0,-1,776,1093,0,0
-441,-69,0,0,0,0,0,0,0,0,0,-1,783,1093,0,0
-434,-69,0,0,0,0,0,0,0,0,0,-1,790,1093,0,0
-427,-69,0,0,0,0,0,0,0,0,0,-1,797,1093,0,0
-420,-69,0,0,0,0,0,0,0,0,0,-1,804,1093,0,0
-413,-69,0,0,0,0,0,0,0,0,0,-1,811,1093,0,0
-406,-69,0,0,0,0,0,0,0,0,0,-1,818,1093,0,0
-399,-69,0,0,0,0,0,0,0,0,0,-1,825,1093,0,0
-392,-69,0,0,0,0,0,0,0,0,0,-1,832,1093,0,0
-385,-69,0,0,0,0,0,0,0,0,0,-1,839,1093,0,0
-378,-69,0,0,0,0,0,0,0,0,0,-1,846,1093,0,0
-371,-69,0,0,0,0,0,0,0,0,0,-1,853,1093,0,0
-364,-69,0,0,0,0,0,0,0,0,0,-1,860,1093,0,0
-357,-69,0,0,0,0,0,0,0,0,0,-1,867,1093,0,0
-350,-69,0,0,0,0,0,0,0,0,0,-1,874,1093,0,0
-343,-69,0,0,0,0,0,0,0,0,0,-1,881,1093,0,0
-336,-69,0,0,0,0,0,0,0,0,0,-1,888,1093,0,0
-329,-69,0,0,0,0,0,0,0,0,0,-1,895,1093,0,0
-322,-69,0,0,0,0,0,0,0,0,0,-1,902,1093,0,0
-315,-69,0,0,0,0,0,0,0,0,0,-1,909,1093,0,0
-308,-69,0,0,0,0,0,0,0,0,0,-1,916,1093,0,0
-301,-69,0,0,0,0,0,0,0,0,0,-1,923,1093,0,0
-294,-69,0,0,0,0,0,0,0,0,0,-1,930,1093,0,0
-287,-69,0,0,0,0,0,0,0,0,0,-1,937,1093,0,0
-280,-69,0,0,0,0,0,0,0,0,0,-1,944,1093,0,0
-273,-69,0,0,0,0,0,0,0,0,0,-1,951,1093,0,0
-266,-69,0,0,0,0,0,0,0,0,0,-1,958,1093,0,0
-259,-69,0,0,0,0,0,0,0,0,0,-1,965,1093,0,0
-252,-69,0,0,0,0,0,0,0,0,0,-1,972,1093,0,0
-245,-69,0,0,0,0,0,0,0,0,0,-1,979,1093,0,0
-238,-69,0,0,0,0,0,0,0,0,0,-1,986,1093,0,0
-231,-69,0,0,0,0,0,0,0,0,0,-1,993,1093,0,0
-224,-69,0,0,0,0,0,0,0,0,0,-1,1000,1093,0,0
-217,-69,0,0,0,0,0,0,0,0,0,-1,1007,1093,0,0
-210,-69,0,0,0,0,0,0,0,0,0,-1,1014,1093,0,0
-203,-69,0,0,0,0,0,0,0,0,0,-1,1021,1093,0,0
-196,-69,0,0,0,0,0,0,0,0,0,-1,1028,1093,0,0
-189,-69,0,0,0,0,0,0,0,0,0,-1,1035,1093,0,0
-182,-69,0,0,0,0,0,0,0,0,0,-1,1042,1093,0,0
-175,-69,0,0,0,0,0,0,0,0,0,-1,1049,1093,0,0
-168,-69,0,0,0,0,0,0,0,0,0,-1,1056,1093,0,0
-161,-69,0,0,0,0,0,0,0,0,0,-1,1063,1093,0,0
-154,-69,0,0,0,0,0,0,0,0,0,-1,1070,1093,0,0
-147,-69,0,0,0,0,0,0,0,0,0,-1,1077,1093,0,0
-140,-69,0,0,0,0,0,0,0,0,0,-1,1084,1093,0,0
-133,-69,0,0,0,0,0,0,0,0,0,-1,1091,1093,0,0
-126,-69,0,0,0,0,0,0,0,0,0,-1,1098,1093,0,0
-119,-69,0,0,0,0,0,0,0,0,0,-1,1105,1093,0,0
-112,-69,0,0,0,0,0,0,0,0,0,-1,1112,1093,0,0
-105,-69,0,0,0,0,0,0,0,0,0,-1,1119,1093,0,0
-98,-69,0,0,0,0,0,0,0,0,0,-1,1126,1093,0,0
-91,-69,0,0,0,0,0,0,0,0,0,-1,1133,1093,0,0
-84,-69,0,0,0,0,0,0,0,0,0,-1,1140,1093,0,0
-77,-69,0,0,0,0,0,0,0,0,0,-1,1147,1093,0,0
-70,-69,0,0,0,0,0,0,0,0,0,-1,1154,1093,0,0
-63,-69,0,0,0,0,0,0,0,0,0,-1,1161,1093,0,0
-56,-69,0,0,0,0,0,0,0,0,0,-1,1168,1093,0,0
-49,-69,0,0,0,0,0,0,0,0,0,-1,1175,1093,0,0
-42,-69,0,0,0,0,0,0,0,0,0,-1,1182,1093,0,0
-35,-69,0,0,0,0,0,0,0,0,0,-1,1189,1093,0,0
-28,-69,0,0,0,0,0,0,0,0,0,-1,1196,1093,0,0
-21,-69,0,0,0,0,0,0,0,0,0,-1,1203,1093,0,0
-14,-69,0,0,0,0,0,0,0,0,0,-1,1210,1093,0,0
-7,-69,0,0,0,0,0,0,0,0,0,-1,1217,1093,0,0
0,-69,0,0,0,0,0,0,0,0,0,-1,1224,1093,0,0
7,-69,0,0,0,0,0,0,0,0,0,-1,1231,1093,0,0
14,-69,0,0,0,0,0,0,0,0,0,-1,1238,1093,0,0
21,-69,0,0,0,0,0,0,0,0,0,-1,1245,1093,0,0
28,-69,0,0,0,0,0,0,0,0,0,-1,1252,1093,0,0
35,-69,0,0,0,0,0,0,0,0,0,-1,1259,1093,0,0
42,-69,0,0,0,0,0,0,0,0,0,-1,1266,1093,0,0
49,-69,0,0,0,0,0,0,0,0,0,-1,1273,1093,0,0
56,-69,0,0,0,0,0,0,0,0,0,-1,1280,1093,0,0
63,-69,0,0,0,0,0,0,0,0,0,-1,1287,1093,0,0
70,-69,0,0,0,0,0,0,0,0,0,-1,1294,1093,0,0
77,-69,0,0,0,0,0,0,0,0,0,-1,1301,1093,0,0
84,-69,0,0,0,0,0,0,0,0,0,-1,1308,1093,0,0
91,-69,0,0,0,0,0,0,0,0,0,-1,1315,1093,0,0
98,-69,0,0,0,0,0,0,0,0,0,-1,1322,1093,0,0
105,-69,0,0,0,0,0,0,0,0,0,-1,1329,1093,0,0
112,-69,0,0,0,0,0,0,0,0,0,-1,1336,1093,0,0
119,-69,0,0,0,0,0,0,0,0,0,-1,1343,1093,0,0
126,-69,0,0,0,0,0,0,0,0,0,-1,1350,1093,0,0
133,-69,0,0,0,0,0,0,0,0,0,-1,1357,1093,0,0
140,-69,0,0,0,0,0,0,0,0,0,-1,1364,1093,0,0
147,-69,0,0,0,0,0,0,0,0,0,-1,1371,1093,0,0
154,-69,0,0,0,0,0,0,0,0,0,-1,1378,1093,0,0
161,-69,0,0,0,0,0,0,0,0,0,-1,1385,1093,0,0
168,-69,0,0,0,0,0,0,0,0,0,-1,1392,1093,0,0
175,-69,0,0,0,0,0,0,0,0,0,-1,1399,1093,0,0
182,-69,0,0,0,0,0,0,0,0,0,-1,1406,1093,0,0
189,-69,0,0,0,0,0,0,0,0,0,-1,1413,1093,0,0
196,-69,0,0,0,0,0,0,0,0,0,-1,1420,1093,0,0
203,-69,0,0,0,0,0,0,0,0,0,-1,1427,1093,0,0
210,-69,0,0,0,0,0,0,0,0,0,-1,1434,1093,0,0
217,-69,0,0,0,0,0,0,0,0,0,-1,1441,1093,0,0
224,-69,0,0,0,0,0,0,0,0,0,-1,1448,1093,0,0
231,-69,0,0,0,0,0,0,0,0,0,-1,1455,1093,0,0
238,-69,0,0,0,0,0,0,0,0,0,-1,1462,1093,0,0
245,-69,0,0,0,0,0,0,0,0,0,-1,1469,1093,0,0
252,-69,0,0,0,0,0,0,0,0,0,-1,1476,1093,0,0
259,-69,0,0,0,0,0,0,0,0,0,-1,1483,1093,0,0
266,-69,0,0,0,0,0,0,0,0,0,-1,1490,1093,0,0
273,-69,0,0,0,0,0,0,0,0,0,-1,1497,1093,0,0
280,-69,0,0,0,0,0,0,0,0,0,-1,1504,1093,0,0
287,-69,0,0,0,0,0,0,0,0,0,-1,1511,1093,0,0
294,-69,0,0,0,0,0,0,0,0,0,-1,1518,1093,0,0
301,-69,0,0,0,0,0,0,0,0,0,-1,1525,1093,0,0
308,-69,0,0,0,0,0,0,0,0,0,-1,1532,1093,0,0
315,-69,0,0,0,0,0,0,0,0,0,-1,1539,1093,0,0
322,-69,0,0,0,0,0,0,0,0,0,-1,1546,1093,0,0
329,-69,0,0,0,0,0,0,0,0,0,-1,1553,1093,0,0
336,-69,0,0,0,0,0,0,0,0,0,-1,1560,1093,0,0
343,-69,0,0,0,0,0,0,0,0,0,-1,1567,1093,0,0
350,-69,0,0,0,0,0,0,0,0,0,-1,1574,1093,0,0
357,-69,0,0,0,0,0,0,0,0,0,-1,1581,1093,0,0
364,-69,0,0,0,0,0,0,0,0,0,-1,1588,1093,0,0
371,-69,0,0,0,0,0,0,0,0,0,-1,1595,1093,0,0
378,-69,0,0,0,0,0,0,0,0,0,-1,1602,1093,0,0
385,-69,0,0,0,0,0,0,0,0,0,-1,1609,1093,0,0
392,-69,0,0,0,0,0,0,0,0,0,-1,1616,1093,0,0
399,-69,0,0,0,0,0,0,0,0,0,-1,1623,1093,0,0
406,-69,0,0,0,0,0,0,0,0,0,-1,1630,1093,0,0
413,-69,0,0,0,0,0,0,0,0,0,-1,1637,1093,0,0
420,-69,0,0,0,0,0,0,0,0,0,-1,1644,1093,0,0
427,-69,0,0,0,0,0,0,0,0,0,-1,1651,1093,0,0
434,-69,0,0,0,0,0,0,0,0,0,-1,1658,1093,0,0
441,-69,0,0,0,0,0,0,0,0,0,-1,1665,1093,0,0
448,-69,0,0,0,0,0,0,0,0,0,-1,1672,1093,0,0
455,-69,0,0,0,0,0,0,0,0,0,-1,1679,1093,0,0
462,-69,0,0,0,0,0,0,0,0,0,-1,1686,1093,0,0
469,-69,0,0,0,0,0,0,0,0,0,-1,1693,1093,0,0
476,-69,0,0,0,0,0,0,0,0,0,-1,1700,1093,0,0
483,-69,0,0,0,0,0,0,0,0,0,-1,1707,1093,0,0
490,-69,0,0,0,0,0,0,0,0,0,-1,1714,1093,0,0
497,-69,0,0,0,0,0,0,0,0,0,-1,1721,1093,0,0
504,-69,0,0,0,0,0,0,0,0,0,-1,1728,1093,0,0
511,-69,0,0,0,0,0,0,0,0,0,-1,1735,1093,0,0
518,-69,0,0,0,0,0,0,0,0,0,-1,1742,1093,0,0
525,-69,0,0,0,0,0,0,0,0,0,-1,1749,1093,0,0
532,-69,0,0,0,0,0,0,0,0,0,-1,1756,1093,0,0
539,-69,0,0,0,0,0,0,0,0,0,-1,1763,1093,0,0
546,-69,0,0,0,0,0,0,0,0,0,-1,1770,1093,0,0
553,-69,0,0,0,0,0,0,0,0,0,-1,1777,1093,0,0
560,-69,0,0,0,0,0,0,0,0,0,-1,1784,1093,0,0
567,-69,0,0,0,0,0,0,0,0,0,-1,1791,1093,0,0
574,-69,0,0,0,0,0,0,0,0,0,-1,1798,1093,0,0
581,-69,0,0,0,0,0,0,0,0,0,-1,1805,1093,0,0
588,-69,0,0,0,0,0,0,0,0,0,-1,1812,1093,0,0
595,-69,0,0,0,0,0,0,0,0,0,-1,1819,1093,0,0
602,-69,0,0,0,0,0,0,0,0,0,-1,1826,1093,0,0
609,-69,0,0,0,0,0,0,0,0,0,-1,1833,1093,0,0
616,-69,0,0,0,0,0,0,0,0,0,-1,1840,1093,0,0
623,-69,0,0,0,0,0,0,0,0,0,-1,1847,1093,0,0
630,-69,0,0,0,0,0,0,0,0,0,-1,1854,1093,0,0
637,-69,0,0,0,0,0,0,0,0,0,-1,1861,1093,0,0
644,-69,0,0,0,0,0,0,0,0,0,-1,1868,1093,0,0
651,-69,0.142334,-0.00708008,0.00221361,-7.27513e-05,-0.00403901,0.00526811,-0.00312725,-0.647488,0.00489931,0.0369448,1875,1093,0.142297,0.00710231
658,-69,0.13855,-0.178467,0.0011462,0.000111002,-0.00263736,0.00331627,-0.00205907,-0.688501,0.00313162,0.0388818,1882,1093,0.138519,0.178512
665,-69,0.0673828,-0.195068,0.000395341,0.000198501,-0.0015859,0.00188587,-0.00129203,-0.754408,0.00184541,0.0372176,1889,1093,0.067357,0.195008
672,-69,0.0742188,0.0240479,-0.00010861,0.000239115,-0.000893532,0.000975542,-0.000845037,-0.881487,0.00105201,0.0344981,1896,1093,0.0742209,-0.0240985
679,-69,0.0463867,0.0301514,-0.000459731,0.000257068,-0.000481207,0.000498678,-0.00070134,-1.10548,0.000696116,0.033636,1903,1093,0.0463804,-0.0302075
686,-69,-0.0234375,-0.0390625,-0.000659437,0.000259481,-0.000238139,0.000317528,-0.000717485,-1.33171,0.000612256,0.0330002,1910,1093,-0.0234412,0.0390319
693,-69,-0.079834,-0.057373,-0.000736578,0.000246178,-0.000100535,0.000256357,-0.000746757,-1.46989,0.000601776,0.0288503,1917,1093,-0.0798836,0.0574079
700,-69,-0.052124,-0.0944824,-0.000777431,0.000252739,-1.29866e-07,0.000252739,-0.000777431,-1.57067,0.000619951,0.0233275,1924,1093,-0.0520805,0.094491
707,-69,-0.0700684,-0.0457764,-0.000783435,0.000222698,0.000101932,0.000232921,-0.000793658,1.47084,0.000621469,0.01528,1931,1093,-0.0700906,0.0458338
714,-69,-0.0477295,0.0491943,-0.000670287,0.000161131,0.00011485,0.000176704,-0.000685861,1.43602,0.000526128,0.0120483,1938,1093,-0.0477855,-0.0492418
721,-69,-0.0539551,0.0123291,-0.000529391,0.000134444,-1.35665e-05,0.000134721,-0.000529668,-1.55037,0.000405548,0.0168535,1945,1093,-0.053941,-0.0123694
728,-69,-0.0802002,-0.0391846,-0.000432355,0.000130603,-0.00015073,0.00016842,-0.000470172,-1.32498,0.000382165,0.0148533,1952,1093,-0.0801904,0.039181
735,-69,-0.0908203,-0.0598145,-0.000324425,8.38608e-05,-0.000210224,0.000172751,-0.000413315,-1.17076,0.000347737,0.0144578,1959,1093,-0.0907989,0.0598478
742,-69,-0.0761719,-0.0335693,-0.000322513,-5.02865e-05,-0.00021586,6.87907e-05,-0.000441591,-1.06669,0.0003198,0.0124603,1966,1093,-0.0761682,0.0335704
749,-69,-0.074585,-0.036499,-0.000437403,0.00015299,-0.000147798,0.000187923,-0.000472335,-1.3387,0.000392812,0.0133701,1973,1093,-0.0745951,0.0364688
756,-69,-0.0753174,-0.0444336,-0.000343807,-0.000380875,0.000279569,-8.21588e-05,-0.000642524,0.752299,0.000403759,0.0127212,1980,1093,-0.0753327,0.0444817
763,-69,-0.0821533,-0.0540771,-0.000297103,-0.000679493,0.00112475,0.000652584,-0.00162918,0.701208,0.001357,0.0123569,1987,1093,-0.0821946,0.0541298
770,-69,-0.0899658,-0.0539551,-0.000318537,-0.00109025,0.00200762,0.00133997,-0.00274875,0.690458,0.00240688,0.0114255,1994,1093,-0.0899257,0.0539744
777,-69,-0.0772705,-0.05896,-0.000286603,-0.00167233,0.00332853,0.00242041,-0.00437935,0.682784,0.00397978,0.016864,2001,1093,-0.0773154,0.0590106
784,-69,-0.0876465,-0.149536,-0.000204219,-0.00245818,0.00520423,0.00399366,-0.00665606,0.678769,0.00621234,0.0313762,2008,1093,-0.0876085,0.149581
791,-69,-0.196899,-0.333984,6.41128e-06,-0.00348259,0.00781577,0.00627,-0.00974618,0.675597,0.00931927,0.0435123,2015,1093,-0.19686,0.334023
798,-69,-0.174561,-0.288818,0.000450046,-0.00478902,0.0113737,0.009502,-0.013841,0.672215,0.0135545,0.043555,2022,1093,-0.174505,0.288846
805,-69,-0.0671387,-0.167969,0.00120975,-0.00641174,0.0160676,0.0139123,-0.0191143,0.668965,0.0191466,0.0402241,2029,1093,-0.0671017,0.167966
812,-69,0.271484,0.240234,0.00239587,-0.00837878,0.0221667,0.0198205,-0.0258034,0.666191,0.0264164,0.0422945,2036,1093,0.271466,-0.240265
-700,-76,0,0,0,0,0,0,0,0,0,-1,524,1100,0,0
-693,-76,4.94666,2.59497,0,0,0,0,0,0,0,-1,531,1100,4.94665,-2.59496
-686,-76,0.439087,-0.0113525,0,0,0,0,0,0,0,-1,538,1100,0.439072,0.0112993
-679,-76,0.249573,0.0645752,0.034279,0.0239035,-0.0110254,0.0412762,0.0169063,-0.5655,0.0239603,0.0454351,545,1100,0.249561,-0.0645726
-672,-76,0.132019,0.278564,0.0261492,0.0138837,-0.00958038,0.0313917,0.00864133,-0.500693,0.0187242,0.0449412,552,1100,0.131989,-0.27856
-665,-76,0.127441,0.181763,0.0192915,0.00718189,-0.00805051,0.02331,0.0031634,-0.462976,0.0146002,0.0467897,559,1100,0.127468,-0.181751
-658,-76,-0.00134277,0.0571289,0.0137182,0.00297749,-0.00655983,0.0168256,-0.000129886,-0.442385,0.0112606,0.044645,566,1100,-0.00137223,-0.0571079
-651,-76,-0.0744629,-0.0264893,0.00937781,0.000586791,-0.00518775,0.0117818,-0.0018172,-0.43394,0.00852508,0.02583,573,1100,-0.0744554,0.0264976
-644,-76,-0.0722046,-0.0456543,0.00614675,-0.00179493,-0.00390878,0.00774781,-0.003396,-0.388761,0.00659538,0.00897086,580,1100,-0.0721981,0.0457069
-637,-76,-0.0817261,-0.0477295,0.0033883,-0.00198845,-0.00253963,0.00439818,-0.00299833,-0.378477,0.0042958,0.0118082,587,1100,-0.0817348,0.0477022
-630,-76,-0.0881348,-0.0603027,0.00178471,-0.00237797,-0.00192493,0.00253839,-0.00313165,-0.37319,0.00327957,0.0138744,594,1100,-0.0881059,0.0602866
-623,-76,-0.0870361,-0.0600586,0.000514112,-0.00122644,-0.00139002,0.00128382,-0.00199615,-0.505708,0.00190852,0.0130301,601,1100,-0.0870541,0.0600857
-616,-76,-0.081543,-0.0601807,-9.94813e-05,-0.000438687,-0.000909906,0.000656494,-0.00119466,-0.693258,0.00108372,0.0120439,608,1100,-0.0815575,0.0601257
-609,-76,-0.0930176,-0.0753174,-9.34631e-05,-1.80297e-06,-0.000325323,0.000280902,-0.000376168,-0.855375,0.000380687,0.0125899,615,1100,-0.0930154,0.0753389
-602,-76,-0.0792847,-0.067627,-2.0891e-05,0.000130402,-3.53548e-05,0.000138256,-2.87451e-05,-1.35219,0.000103097,0.0158917,622,1100,-0.0792855,0.0675707
-595,-76,-0.0540161,-0.0423584,1.1503e-05,0.000202251,8.77671e-05,0.000236489,-2.2735e-05,1.19885,0.000165758,0.0186741,629,1100,-0.0539931,0.042331
-588,-76,-0.0534668,-0.0406494,0.000151419,0.000236163,3.40948e-05,0.000248178,0.000139405,1.23201,0.000143649,0.0201977,636,1100,-0.053468,0.0406782
-581,-76,-0.0759277,-0.0683594,0.000372522,0.00024632,-4.38577e-05,0.000386266,0.000232576,-0.303695,0.000224556,0.0249833,643,1100,-0.0759268,0.0683857
-574,-76,-0.0846558,-0.0596924,0.000616013,0.000263292,-0.000119789,0.000652848,0.000226457,-0.298325,0.000382769,0.0318845,650,1100,-0.0846355,0.059721
-567,-76,-0.10022,0.0672607,0.00094045,0.000269822,-0.000257587,0.00102797,0.000182304,-0.327523,0.000633351,0.0379547,657,1100,-0.10024,-0.0672973
-560,-76,-0.156433,0.173096,0.00136982,0.00027401,-0.000435161,0.0015216,0.000122226,-0.335605,0.000976215,0.0396308,664,1100,-0.156457,-0.173134
-553,-76,-0.0911865,0.098999,0.00191418,0.000282621,-0.000637772,0.0021339,6.29061e-05,-0.33177,0.0014021,0.0381783,671,1100,-0.0912135,-0.0989688
-546,-76,-0.0637207,-0.0540771,0.0025568,0.000306768,-0.000846206,0.00283952,2.40462e-05,-0.322445,0.00188505,0.0360583,678,1100,-0.0637312,0.054066
-539,-76,-0.101074,-0.0578613,0.00333403,0.000361395,-0.00100892,0.00364412,5.13118e-05,-0.298179,0.00241249,0.0370751,685,1100,-0.101076,0.0578201
-532,-76,0.0292969,-0.0371094,0.00413655,0.00046619,-0.00107073,0.00442607,0.000176671,-0.264079,0.00289362,0.0381998,692,1100,0.0292826,0.0371615
-525,-76,0,0,0,0,0,0,0,0,0,-1,699,1100,0,0
-518,-76,0,0,0,0,0,0,0,0,0,-1,706,1100,0,0
-511,-76,0,0,0,0,0,0,0,0,0,-1,713,1100,0,0
-504,-76,0,0,0,0,0,0,0,0,0,-1,720,1100,0,0
-497,-76,0,0,0,0,0,0,0,0,0,-1,727,1100,0,0
-490,-76,0,0,0,0,0,0,0,0,0,-1,734,1100,0,0
-483,-76,0,0,0,0,0,0,0,0,0,-1,741,1100,0,0
-476,-76,0,0,0,0,0,0,0,0,0,-1,748,1100,0,0
-469,-76,0,0,0,0,0,0,0,0,0,-1,755,1100,0,0
-462,-76,0,0,0,0,0,0,0,0,0,-1,762,1100,0,0
-455,-76,0,0,0,0,0,0,0,0,0,-1,769,1100,0,0
-448,-76,0,0,0,0,0,0,0,0,0,-1,776,1100,0,0
-441,-76,0,0,0,0,0,0,0,0,0,-1,783,1100,0,0
-434,-76,0,0,0,0,0,0,0,0,0,-1,790,1100,0,0
-427,-76,0,0,0,0,0,0,0,0,0,-1,797,1100,0,0
-420,-76,0,0,0,0,0,0,0,0,0,-1,804,1100,0,0
-413,-76,0,0,0,0,0,0,0,0,0,-1,811,1100,0,0
-406,-76,0,0,0,0,0,0,0,0,0,-1,818,1100,0,0
-399,-76,0,0,0,0,0,0,0,0,0,-1,825,1100,0,0
-392,-76,0,0,0,0,0,0,0,0,0,-1,832,1100,0,0
-385,-76,0,0,0,0,0,0,0,0,0,-1,839,1100,0,0
-378,-76,0,0,0,0,0,0,0,0,0,-1,846,1100,0,0
-371,-76,0,0,0,0,0,0,0,0,0,-1,853,1100,0,0
-364,-76,0,0,0,0,0,0,0,0,0,-1,860,1100,0,0
-357,-76,0,0,0,0,0,0,0,0,0,-1,867,1100,0,0
-350,-76,0,0,0,0,0,0,0,0,0,-1,874,1100,0,0
-343,-76,0,0,0,0,0,0,0,0,0,-1,881,1100,0,0
-336,-76,0,0,0,0,0,0,0,0,0,-1,888,1100,0,0
-329,-76,0,0,0,0,0,0,0,0,0,-1,895,1100,0,0
-322,-76,0,0,0,0,0,0,0,0,0,-1,902,1100,0,0
-315,-76,0,0,0,0,0,0,0,0,0,-1,909,1100,0,0
-308,-76,0,0,0,0,0,0,0,0,0,-1,916,1100,0,0
-301,-76,0,0,0,0,0,0,0,0,0,-1,923,1100,0,0
-294,-76,0,0,0,0,0,0,0,0,0,-1,930,1100,0,0
-287,-76,0,0,0,0,0,0,0,0,0,-1,937,1100,0,0
-280,-76,0,0,0,0,0,0,0,0,0,-1,944,1100,0,0
-273,-76,0,0,0,0,0,0,0,0,0,-1,951,1100,0,0
-266,-76,0,0,0,0,0,0,0,0,0,-1,958,1100,0,0
-259,-76,0,0,0,0,0,0,0,0,0,-1,965,1100,0,0
-252,-76,0,0,0,0,0,0,0,0,0,-1,972,1100,0,0
-245,-76,0,0,0,0,0,0,0,0,0,-1,979,1100,0,0
-238,-76,0,0,0,0,0,0,0,0,0,-1,986,1100,0,0
-231,-76,0,0,0,0,0,0,0,0,0,-1,993,1100,0,0
-224,-76,0,0,0,0,0,0,0,0,0,-1,1000,1100,0,0
-217,-76,0,0,0,0,0,0,0,0,0,-1,1007,1100,0,0
-210,-76,0,0,0,0,0,0,0,0,0,-1,1014,1100,0,0
-203,-76,0,0,0,0,0,0,0,0,0,-1,1021,1100,0,0
-196,-76,0,0,0,0,0,0,0,0,0,-1,1028,1100,0,0
-189,-76,0,0,0,0,0,0,0,0,0,-1,1035,1100,0,0
-182,-76,0,0,0,0,0,0,0,0,0,-1,1042,1100,0,0
-175,-76,0,0,0,0,0,0,0,0,0,-1,1049,1100,0,0
-168,-76,0,0,0,0,0,0,0,0,0,-1,1056,1100,0,0
-161,-76,0,0,0,0,0,0,0,0,0,-1,1063,1100,0,0
-154,-76,0,0,0,0,0,0,0,0,0,-1,1070,1100,0,0
-147,-76,0,0,0,0,0,0,0,0,0,-1,1077,1100,0,0
-140,-76,0,0,0,0,0,0,0,0,0,-1,1084,1100,0,0
-133,-76,0,0,0,0,0,0,0,0,0,-1,1091,1100,0,0
-126,-76,0,0,0,0,0,0,0,0,0,-1,1098,1100,0,0
-119,-76,0,0,0,0,0,0,0,0,0,-1,1105,1100,0,0
-112,-76,0,0,0,0,0,0,0,0,0,-1,1112,1100,0,0
-105,-76,0,0,0,0,0,0,0,0,0,-1,1119,1100,0,0
-98,-76,0,0,0,0,0,0,0,0,0,-1,1126,1100,0,0
-91,-76,0,0,0,0,0,0,0,0,0,-1,1133,1100,0,0
-84,-76,0,0,0,0,0,0,0,0,0,-1,1140,1100,0,0
-77,-76,0,0,0,0,0,0,0,0,0,-1,1147,1100,0,0
-70,-76,0,0,0,0,0,0,0,0,0,-1,1154,1100,0,0
-63,-76,0,0,0,0,0,0,0,0,0,-1,1161,1100,0,0
-56,-76,0,0,0,0,0,0,0,0,0,-1,1168,1100,0,0
-49,-76,0,0,0,0,0,0,0,0,0,-1,1175,1100,0,0
-42,-76,0,0,0,0,0,0,0,0,0,-1,1182,1100,0,0
-35,-76,0,0,0,0,0,0,0,0,0,-1,1189,1100,0,0
-28,-76,0,0,0,0,0,0,0,0,0,-1,1196,1100,0,0
-21,-76,0,0,0,0,0,0,0,0,0,-1,1203,1100,0,0
-14,-76,0,0,0,0,0,0,0,0,0,-1,1210,1100,0,0
-7,-76,0,0,0,0,0,0,0,0,0,-1,1217,1100,0,0
0,-76,0,0,0,0,0,0,0,0,0,-1,1224,1100,0,0
7,-76,0,0,0,0,0,0,0,0,0,-1,1231,1100,0,0
14,-76,0,0,0,0,0,0,0,0,0,-1,1238,1100,0,0
21,-76,0,0,0,0,0,0,0,0,0,-1,1245,1100,0,0
28,-76,0,0,0,0,0,0,0,0,0,-1,1252,1100,0,0
35,-76,0,0,0,0,0,0,0,0,0,-1,1259,1100,0,0
42,-76,0,0,0,0,0,0,0,0,0,-1,1266,1100,0,0
49,-76,0,0,0,0,0,0,0,0,0,-1,1273,1100,0,0
56,-76,0,0,0,0,0,0,0,0,0,-1,1280,1100,0,0
63,-76,0,0,0,0,0,0,0,0,0,-1,1287,1100,0,0
70,-76,0,0,0,0,0,0,0,0,0,-1,1294,1100,0,0
77,-76,0,0,0,0,0,0,0,0,0,-1,1301,1100,0,0
84,-76,0,0,0,0,0,0,0,0,0,-1,1308,1100,0,0
91,-76,0,0,0,0,0,0,0,0,0,-1,1315,1100,0,0
98,-76,0,0,0,0,0,0,0,0,0,-1,1322,1100,0,0
105,-76,0,0,0,0,0,0,0,0,0,-1,1329,1100,0,0
112,-76,0,0,0,0,0,0,0,0,0,-1,1336,1100,0,0
119,-76,0,0,0,0,0,0,0,0,0,-1,1343,1100,0,0
126,-76,0,0,0,0,0,0,0,0,0,-1,1350,1100,0,0
133,-76,0,0,0,0,0,0,0,0,0,-1,1357,1100,0,0
140,-76,0,0,0,0,0,0,0,0,0,-1,1364,1100,0,0
147,-76,0,0,0,0,0,0,0,0,0,-1,1371,1100,0,0
154,-76,0,0,0,0,0,0,0,0,0,-1,1378,1100,0,0
161,-76,0,0,0,0,0,0,0,0,0,-1,1385,1100,0,0
168,-76,0,0,0,0,0,0,0,0,0,-1,1392,1100,0,0
175,-76,0,0,0,0,0,0,0,0,0,-1,1399,1100,0,0
182,-76,0,0,0,0,0,0,0,0,0,-1,1406,1100,0,0
189,-76,0,0,0,0,0,0,0,0,0,-1,1413,1100,0,0
196,-76,0,0,0,0,0,0,0,0,0,-1,1420,1100,0,0
203,-76,0,0,0,0,0,0,0,0,0,-1,1427,1100,0,0
210,-76,0,0,0,0,0,0,0,0,0,-1,1434,1100,0,0
217,-76,0,0,0,0,0,0,0,0,0,-1,1441,1100,0,0
224,-76,0,0,0,0,0,0,0,0,0,-1,1448,1100,0,0
231,-76,0,0,0,0,0,0,0,0,0,-1,1455,1100,0,0
238,-76,0,0,0,0,0,0,0,0,0,-1,1462,1100,0,0
245,-76,0,0,0,0,0,0,0,0,0,-1,1469,1100,0,0
252,-76,0,0,0,0,0,0,0,0,0,-1,1476,1100,0,0
259,-76,0,0,0,0,0,0,0,0,0,-1,1483,1100,0,0
266,-76,0,0,0,0,0,0,0,0,0,-1,1490,1100,0,0
273,-76,0,0,0,0,0,0,0,0,0,-1,1497,1100,0,0
280,-76,0,0,0,0,0,0,0,0,0,-1,1504,1100,0,0
287,-76,0,0,0,0,0,0,0,0,0,-1,1511,1100,0,0
294,-76,0,0,0,0,0,0,0,0,0,-1,1518,1100,0,0
301,-76,0,0,0,0,0,0,0,0,0,-1,1525,1100,0,0
308,-76,0,0,0,0,0,0,0,0,0,-1,1532,1100,0,0
315,-76,0,0,0,0,0,0,0,0,0,-1,1539,1100,0,0
322,-76,0,0,0,0,0,0,0,0,0,-1,1546,1100,0,0
329,-76,0,0,0,0,0,0,0,0,0,-1,1553,1100,0,0
336,-76,0,0,0,0,0,0,0,0,0,-1,1560,1100,0,0
343,-76,0,0,0,0,0,0,0,0,0,-1,1567,1100,0,0
350,-76,0,0,0,0,0,0,0,0,0,-1,1574,1100,0,0
357,-76,0,0,0,0,0,0,0,0,0,-1,1581,1100,0,0
364,-76,0,0,0,0,0,0,0,0,0,-1,1588,1100,0,0
371,-76,0,0,0,0,0,0,0,0,0,-1,1595,1100,0,0
378,-76,0,0,0,0,0,0,0,0,0,-1,1602,1100,0,0
385,-76,0,0,0,0,0,0,0,0,0,-1,1609,1100,0,0
392,-76,0,0,0,0,0,0,0,0,0,-1,1616,1100,0,0
399,-76,0,0,0,0,0,0,0,0,0,-1,1623,1100,0,0
406,-76,0,0,0,0,0,0,0,0,0,-1,1630,1100,0,0
413,-76,0,0,0,0,0,0,0,0,0,-1,1637,1100,0,0
420,-76,0,0,0,0,0,0,0,0,0,-1,1644,1100,0,0
427,-76,0,0,0,0,0,0,0,0,0,-1,1651,1100,0,0
434,-76,0,0,0,0,0,0,0,0,0,-1,1658,1100,0,0
441,-76,0,0,0,0,0,0,0,0,0,-1,1665,1100,0,0
448,-76,0,0,0,0,0,0,0,0,0,-1,1672,1100,0,0
455,-76,0,0,0,0,0,0,0,0,0,-1,1679,1100,0,0
462,-76,0,0,0,0,0,0,0,0,0,-1,1686,1100,0,0
469,-76,0,0,0,0,0,0,0,0,0,-1,1693,1100,0,0
476,-76,0,0,0,0,0,0,0,0,0,-1,1700,1100,0,0
483,-76,0,0,0,0,0,0,0,0,0,-1,1707,1100,0,0
490,-76,0,0,0,0,0,0,0,0,0,-1,1714,1100,0,0
497,-76,0,0,0,0,0,0,0,0,0,-1,1721,1100,0,0
504,-76,0,0,0,0,0,0,0,0,0,-1,1728,1100,0,0
511,-76,0,0,0,0,0,0,0,0,0,-1,1735,1100,0,0
518,-76,0,0,0,0,0,0,0,0,0,-1,1742,1100,0,0
525,-76,0,0,0,0,0,0,0,0,0,-1,1749,1100,0,0
532,-76,0,0,0,0,0,0,0,0,0,-1,1756,1100,0,0
539,-76,0,0,0,0,0,0,0,0,0,-1,1763,1100,0,0
546,-76,0,0,0,0,0,0,0,0,0,-1,1770,1100,0,0
553,-76,0,0,0,0,0,0,0,0,0,-1,1777,1100,0,0
560,-76,0,0,0,0,0,0,0,0,0,-1,1784,1100,0,0
567,-76,0,0,0,0,0,0,0,0,0,-1,1791,1100,0,0
574,-76,0,0,0,0,0,0,0,0,0,-1,1798,1100,0,0
581,-76,0,0,0,0,0,0,0,0,0,-1,1805,1100,0,0
588,-76,0,0,0,0,0,0,0,0,0,-1,1812,1100,0,0
595,-76,0,0,0,0,0,0,0,0,0,-1,1819,1100,0,0
602,-76,0,0,0,0,0,0,0,0,0,-1,1826,1100,0,0
609,-76,0,0,0,0,0,0,0,0,0,-1,1833,1100,0,0
616,-76,0,0,0,0,0,0,0,0,0,-1,1840,1100,0,0
623,-76,0,0,0,0,0,0,0,0,0,-1,1847,1100,0,0
630,-76,0,0,0,0,0,0,0,0,0,-1,1854,1100,0,0
637,-76,0,0,0,0,0,0,0,0,0,-1,1861,1100,0,0
644,-76,0,0,0,0,0,0,0,0,0,-1,1868,1100,0,0
651,-76,-0.0179443,0.00195313,0,0,0,0,0,0,0,-1,1875,1100,-0.0179079,-0.00195771
658,-76,-0.121704,-0.043457,0,0,0,0,0,0,0,-1,1882,1100,-0.121726,0.0434952
665,-76,-0.0249023,-0.133423,0.00060274,0.000202594,-0.00136238,0.00177966,-0.00097433,-0.712492,0.00161252,0.0339735,1889,1100,-0.0248682,0.133471
672,-76,0.00512695,0.0391846,4.76451e-05,0.000271727,-0.000701191,0.000869772,-0.0005504,-0.864622,0.000826819,0.0341014,1896,1100,0.00507728,-0.039165
679,-76,-0.0776367,0.0474854,-0.000338834,0.000302687,-0.000318103,0.000433676,-0.000469822,-1.18018,0.000521774,0.0339849,1903,1100,-0.07758,-0.0474888
686,-76,-0.164551,0.0109863,-0.000563501,0.000307101,-0.00010026,0.000318498,-0.000574898,-1.45761,0.000522835,0.0320744,1910,1100,-0.16458,-0.0110131
693,-76,-0.118408,-0.103271,-0.000662386,0.000293341,1.61701e-05,0.000293614,-0.000662659,1.55388,0.000565643,0.0310352,1917,1100,-0.118463,0.103266
700,-76,-0.059082,-0.187012,-0.000719697,0.000301167,0.000107007,0.000312263,-0.000730793,1.46747,0.000618157,0.0261936,1924,1100,-0.0591371,0.187058
707,-76,-0.0688477,-0.0601807,-0.000730656,0.000276645,0.000187818,0.000310526,-0.000764537,1.39233,0.000638871,0.016229,1931,1100,-0.068815,0.0601597
714,-76,-0.0366211,0.0477295,-0.000644253,0.000220533,0.000178217,0.000255821,-0.000679541,1.37532,0.000558196,0.0177754,1938,1100,-0.0366611,-0.0477303
721,-76,-0.0540771,-0.000244141,-0.000530219,0.000191381,3.14318e-05,0.000192748,-0.000531586,1.52735,0.000433178,0.0179912,1945,1100,-0.0540204,0.000277822
728,-76,-0.0714111,-0.0484619,-0.000420504,0.000166414,-0.000113455,0.000187582,-0.000441672,-1.38634,0.000373042,0.0172508,1952,1100,-0.0713681,0.0484416
735,-76,-0.0880127,-0.0703125,-0.000288502,0.000101796,-0.000184465,0.000175181,-0.000361887,-1.19217,0.000316261,0.0162322,1959,1100,-0.0879955,0.0703003
742,-76,-0.0758057,-0.0479736,-0.000288846,-8.81952e-05,-0.000203953,3.8772e-05,-0.000415813,-1.01397,0.000290995,0.0117806,1966,1100,-0.0757753,0.0479415
749,-76,-0.0761719,-0.0384521,-0.000580252,3.6732e-05,-0.000241753,0.000120173,-0.000663694,-1.23845,0.000487483,0.0128534,1973,1100,-0.0762269,0.0384026
756,-76,-0.0762939,-0.0352783,-0.000796876,-0.000410099,-3.9903e-05,-0.000406025,-0.000800949,-1.46906,0.000462443,0.0134293,1980,1100,-0.0763263,0.0352602
763,-76,-0.074585,-0.048584,-0.00107576,-0.000490531,0.000611525,-0.000105218,-0.00146107,1.00855,0.000940939,0.0126762,1987,1100,-0.0746147,0.0485615
770,-76,-0.074585,-0.0554199,-0.00151924,-0.000747697,0.00121564,0.000141916,-0.00240886,0.939042,0.00165524,0.0115725,1994,1100,-0.0746064,0.0553851
777,-76,-0.0692139,-0.0703125,-0.00209075,-0.00105241,0.00214872,0.000638975,-0.00378213,0.903935,0.00275918,0.0146925,2001,1100,-0.0692727,0.0703561
784,-76,-0.0817871,-0.0968018,-0.00281918,-0.00138781,0.00351125,0.00147995,-0.00568694,0.885934,0.00436898,0.0283745,2008,1100,-0.0817366,0.0968219
791,-76,-0.239258,-0.427368,-0.00364955,-0.00172739,0.00547237,0.00286765,-0.00824459,0.872324,0.00666131,0.0383006,2015,1100,-0.239226,0.427378
798,-76,-0.426636,-0.609863,-0.00449921,-0.00203442,0.00823834,0.00506319,-0.0115968,0.859644,0.00986215,0.0411759,2022,1100,-0.426664,0.609821
805,-76,-0.467651,-0.57605,-0.00527201,-0.00224823,0.0120069,0.00834156,-0.0158618,0.848028,0.0141969,0.044911,2029,1100,-0.467705,0.575994
812,-76,-0.461426,-0.560913,-0.00579281,-0.00227333,0.0170819,0.0131393,-0.0212054,0.836726,0.0200104,0.0490208,2036,1100,-0.461377,0.560946
-700,-83,0,0,0,0,0,0,0,0,0,-1,524,1107,0,0
-693,-83,0.67688,-0.453979,0,0,0,0,0,0,0,-1,531,1107,0.676896,0.45404
-686,-83,0.54303,-0.250977,0.0436411,0.0330568,-0.00661071,0.046817,0.0298809,-0.447863,0.0273721,0.0457413,538,1107,0.543052,0.250935
-679,-83,0.417175,-0.0164795,0.0342645,0.0200843,-0.00671563,0.0369401,0.0174087,-0.37914,0.0213391,0.0454798,545,1107,0.417197,0.0165339
-672,-83,0.303406,0.139404,0.026075,0.0110727,-0.00638219,0.0284227,0.00872499,-0.352487,0.0168125,0.0437429,552,1107,0.303413,-0.139383
-665,-83,0.217041,0.131226,0.0192202,0.00511998,-0.00579301,0.0212949,0.00304523,-0.343915,0.0132983,0.0437434,559,1107,0.217012,-0.131182
-658,-83,-0.00653076,0.0961914,0.0137001,0.00149137,-0.00505963,0.0155243,-0.000332888,-0.346045,0.0104623,0.0400131,566,1107,-0.00652917,-0.0961834
-651,-83,-0.0695801,-0.000854492,0.00942857,-0.000460019,-0.00426377,0.0110131,-0.00204457,-0.355814,0.00810997,0.0286097,573,1107,-0.0695697,0.00090566
-644,-83,-0.0654907,-0.0635986,0.00625535,-0.00229622,-0.0033999,0.00744232,-0.00348318,-0.335889,0.00644442,0.0130101,580,1107,-0.0655136,0.0636533
-637,-83,-0.0623169,-0.0430908,0.003562,-0.00231475,-0.00233799,0.00437865,-0.0031314,-0.336049,0.00435582,0.0100223,587,1107,-0.0623037,0.0430312
-630,-83,-0.085083,-0.0539551,0.00201135,-0.00255305,-0.00198322,0.00275266,-0.00329436,-0.357709,0.00349591,0.0155527,594,1107,-0.0850542,0.0539238
-623,-83,-0.088562,-0.0544434,0.000706504,-0.00140135,-0.00151865,0.00150111,-0.00219595,-0.482059,0.00214703,0.0164951,601,1107,-0.0885409,0.0544016
-616,-83,-0.0904541,-0.0491943,8.08419e-05,-0.000564493,-0.0010509,0.000857491,-0.00134114,-0.636447,0.00127958,0.0126731,608,1107,-0.090429,0.049222
-609,-83,-0.0979614,-0.0518799,3.81741e-05,-6.90842e-05,-0.000457551,0.000445228,-0.000476138,-0.72706,0.000532051,0.0111725,615,1107,-0.0979826,0.0518217
-602,-83,-0.0912476,-0.0554199,2.20146e-05,0.000107117,-0.000101367,0.000174502,-4.53699e-05,-0.984117,0.000134042,0.0132051,622,1107,-0.0912351,0.0554081
-595,-83,-0.0757446,-0.041626,1.4213e-05,0.000199472,5.85317e-05,0.000216415,-2.7302e-06,1.28903,0.000145196,0.0165563,629,1107,-0.0757241,0.0416348
-588,-83,-0.0718994,-0.0518799,0.000144014,0.000226881,2.75231e-05,0.000235189,0.000135705,1.27763,0.000136322,0.0223019,636,1107,-0.0719064,0.0519276
-581,-83,-0.0913696,-0.0429688,0.000341583,0.000218476,-1.68038e-05,0.000343836,0.000216223,-0.13325,0.000200699,0.027127,643,1107,-0.0913955,0.0429514
-574,-83,-0.0965576,-0.0244141,0.000552409,0.000214354,-6.14459e-05,0.000563231,0.000203532,-0.174337,0.000329322,0.0325714,650,1107,-0.0965724,0.0243874
-567,-83,-0.0936279,0.0428467,0.000847827,0.000185779,-0.000165963,0.0008871,0.000146505,-0.232369,0.000549119,0.037437,657,1107,-0.0936367,-0.0428489
-560,-83,-0.121704,-0.0612793,0.00122777,0.000137874,-0.000299989,0.00130488,6.07593e-05,-0.25161,0.000850393,0.0377179,664,1107,-0.121707,0.0612921
-553,-83,-0.0667725,-0.0837402,0.00169921,7.82397e-05,-0.000446613,0.00181412,-3.66665e-05,-0.251822,0.00122182,0.0358264,671,1107,-0.0667624,0.0837531
-546,-83,-0.0720825,-0.0137939,0.00223954,1.65833e-05,-0.000581555,0.00238249,-0.000126367,-0.241028,0.00163208,0.0343923,678,1107,-0.0720555,0.0137384
-539,-83,-0.0847168,0.0258789,0.0028633,-3.29503e-05,-0.000644418,0.00300021,-0.000169862,-0.209345,0.0020591,0.037063,685,1107,-0.0846881,-0.0258963
-532,-83,0.0471191,0.0302734,0.00345744,-5.17264e-05,-0.000570372,0.00354782,-0.000142106,-0.15715,0.00241398,0.0388712,692,1107,0.0471197,-0.0302254
-525,-83,0,0,0,0,0,0,0,0,0,-1,699,1107,0,0
-518,-83,0,0,0,0,0,0,0,0,0,-1,706,1107,0,0
-511,-83,0,0,0,0,0,0,0,0,0,-1,713,1107,0,0
-504,-83,0,0,0,0,0,0,0,0,0,-1,720,1107,0,0
-497,-83,0,0,0,0,0,0,0,0,0,-1,727,1107,0,0
-490,-83,0,0,0,0,0,0,0,0,0,-1,734,1107,0,0
-483,-83,0,0,0,0,0,0,0,0,0,-1,741,1107,0,0
-476,-83,0,0,0,0,0,0,0,0,0,-1,748,1107,0,0
-469,-83,0,0,0,0,0,0,0,0,0,-1,755,1107,0,0
-462,-83,0,0,0,0,0,0,0,0,0,-1,762,1107,0,0
-455,-83,0,0,0,0,0,0,0,0,0,-1,769,1107,0,0
-448,-83,0,0,0,0,0,0,0,0,0,-1,776,1107,0,0
-441,-83,0,0,0,0,0,0,0,0,0,-1,783,1107,0,0
-434,-83,0,0,0,0,0,0,0,0,0,-1,790,1107,0,0
-427,-83,0,0,0,0,0,0,0,0,0,-1,797,1107,0,0
-420,-83,0,0,0,0,0,0,0,0,0,-1,804,1107,0,0
-413,-83,0,0,0,0,0,0,0,0,0,-1,811,1107,0,0
-406,-83,0,0,0,0,0,0,0,0,0,-1,818,1107,0,0
-399,-83,0,0,0,0,0,0,0,0,0,-1,825,1107,0,0
-392,-83,0,0,0,0,0,0,0,0,0,-1,832,1107,0,0
-385,-83,0,0,0,0,0,0,0,0,0,-1,839,1107,0,0
-378,-83,0,0,0,0,0,0,0,0,0,-1,846,1107,0,0
-371,-83,0,0,0,0,0,0,0,0,0,-1,853,1107,0,0
-364,-83,0,0,0,0,0,0,0,0,0,-1,860,1107,0,0
-357,-83,0,0,0,0,0,0,0,0,0,-1,867,1107,0,0
-350,-83,0,0,0,0,0,0,0,0,0,-1,874,1107,0,0
-343,-83,0,0,0,0,0,0,0,0,0,-1,881,1107,0,0
-336,-83,0,0,0,0,0,0,0,0,0,-1,888,1107,0,0
-329,-83,0,0,0,0,0,0,0,0,0,-1,895,1107,0,0
-322,-83,0,0,0,0,0,0,0,0,0,-1,902,1107,0,0
-315,-83,0,0,0,0,0,0,0,0,0,-1,909,1107,0,0
-308,-83,0,0,0,0,0,0,0,0,0,-1,916,1107,0,0
-301,-83,0,0,0,0,0,0,0,0,0,-1,923,1107,0,0
-294,-83,0,0,0,0,0,0,0,0,0,-1,930,1107,0,0
-287,-83,0,0,0,0,0,0,0,0,0,-1,937,1107,0,0
-280,-83,0,0,0,0,0,0,0,0,0,-1,944,1107,0,0
-273,-83,0,0,0,0,0,0,0,0,0,-1,951,1107,0,0
-266,-83,0,0,0,0,0,0,0,0,0,-1,958,1107,0,0
-259,-83,0,0,0,0,0,0,0,0,0,-1,965,1107,0,0
-252,-83,0,0,0,0,0,0,0,0,0,-1,972,1107,0,0
-245,-83,0,0,0,0,0,0,0,0,0,-1,979,1107,0,0
-238,-83,0,0,0,0,0,0,0,0,0,-1,986,1107,0,0
-231,-83,0,0,0,0,0,0,0,0,0,-1,993,1107,0,0
-224,-83,0,0,0,0,0,0,0,0,0,-1,1000,1107,0,0
-217,-83,0,0,0,0,0,0,0,0,0,-1,1007,1107,0,0
-210,-83,0,0,0,0,0,0,0,0,0,-1,1014,1107,0,0
-203,-83,0,0,0,0,0,0,0,0,0,-1,1021,1107,0,0
-196,-83,0,0,0,0,0,0,0,0,0,-1,1028,1107,0,0
-189,-83,0,0,0,0,0,0,0,0,0,-1,1035,1107,0,0
-182,-83,0,0,0,0,0,0,0,0,0,-1,1042,1107,0,0
-175,-83,0,0,0,0,0,0,0,0,0,-1,1049,1107,0,0
-168,-83,0,0,0,0,0,0,0,0,0,-1,1056,1107,0,0
-161,-83,0,0,0,0,0,0,0,0,0,-1,1063,1107,0,0
-154,-83,0,0,0,0,0,0,0,0,0,-1,1070,1107,0,0
-147,-83,0,0,0,0,0,0,0,0,0,-1,1077,1107,0,0
-140,-83,0,0,0,0,0,0,0,0,0,-1,1084,1107,0,0
-133,-83,0,0,0,0,0,0,0,0,0,-1,1091,1107,0,0
-126,-83,0,0,0,0,0,0,0,0,0,-1,1098,1107,0,0
-119,-83,0,0,0,0,0,0,0,0,0,-1,1105,1107,0,0
-112,-83,0,0,0,0,0,0,0,0,0,-1,1112,1107,0,0
-105,-83,0,0,0,0,0,0,0,0,0,-1,1119,1107,0,0
-98,-83,0,0,0,0,0,0,0,0,0,-1,1126,1107,0,0
-91,-83,0,0,0,0,0,0,0,0,0,-1,1133,1107,0,0
-84,-83,0,0,0,0,0,0,0,0,0,-1,1140,1107,0,0
-77,-83,0,0,0,0,0,0,0,0,0,-1,1147,1107,0,0
-70,-83,0,0,0,0,0,0,0,0,0,-1,1154,1107,0,0
-63,-83,0,0,0,0,0,0,0,0,0,-1,1161,1107,0,0
-56,-83,0,0,0,0,0,0,0,0,0,-1,1168,1107,0,0
-49,-83,0,0,0,0,0,0,0,0,0,-1,1175,1107,0,0
-42,-83,0,0,0,0,0,0,0,0,0,-1,1182,1107,0,0
-35,-83,0,0,0,0,0,0,0,0,0,-1,1189,1107,0,0
-28,-83,0,0,0,0,0,0,0,0,0,-1,1196,1107,0,0
-21,-83,0,0,0,0,0,0,0,0,0,-1,1203,1107,0,0
-14,-83,0,0,0,0,0,0,0,0,0,-1,1210,1107,0,0
-7,-83,0,0,0,0,0,0,0,0,0,-1,1217,1107,0,0
0,-83,0,0,0,0,0,0,0,0,0,-1,1224,1107,0,0
7,-83,0,0,0,0,0,0,0,0,0,-1,1231,1107,0,0
14,-83,0,0,0,0,0,0,0,0,0,-1,1238,1107,0,0
21,-83,0,0,0,0,0,0,0,0,0,-1,1245,1107,0,0
28,-83,0,0,0,0,0,0,0,0,0,-1,1252,1107,0,0
35,-83,0,0,0,0,0,0,0,0,0,-1,1259,1107,0,0
42,-83,0,0,0,0,0,0,0,0,0,-1,1266,1107,0,0
49,-83,0,0,0,0,0,0,0,0,0,-1,1273,1107,0,0
56,-83,0,0,0,0,0,0,0,0,0,-1,1280,1107,0,0
63,-83,0,0,0,0,0,0,0,0,0,-1,1287,1107,0,0
70,-83,0,0,0,0,0,0,0,0,0,-1,1294,1107,0,0
77,-83,0,0,0,0,0,0,0,0,0,-1,1301,1107,0,0
84,-83,0,0,0,0,0,0,0,0,0,-1,1308,1107,0,0
91,-83,0,0,0,0,0,0,0,0,0,-1,1315,1107,0,0
98,-83,0,0,0,0,0,0,0,0,0,-1,1322,1107,0,0
105,-83,0,0,0,0,0,0,0,0,0,-1,1329,1107,0,0
112,-83,0,0,0,0,0,0,0,0,0,-1,1336,1107,0,0
119,-83,0,0,0,0,0,0,0,0,0,-1,1343,1107,0,0
126,-83,0,0,0,0,0,0,0,0,0,-1,1350,1107,0,0
133,-83,0,0,0,0,0,0,0,0,0,-1,1357,1107,0,0
140,-83,0,0,0,0,0,0,0,0,0,-1,1364,1107,0,0
147,-83,0,0,0,0,0,0,0,0,0,-1,1371,1107,0,0
154,-83,0,0,0,0,0,0,0,0,0,-1,1378,1107,0,0
161,-83,0,0,0,0,0,0,0,0,0,-1,1385,1107,0,0
168,-83,0,0,0,0,0,0,0,0,0,-1,1392,1107,0,0
175,-83,0,0,0,0,0,0,0,0,0,-1,1399,1107,0,0
182,-83,0,0,0,0,0,0,0,0,0,-1,1406,1107,0,0
189,-83,0,0,0,0,0,0,0,0,0,-1,1413,1107,0,0
196,-83,0,0,0,0,0,0,0,0,0,-1,1420,1107,0,0
203,-83,0,0,0,0,0,0,0,0,0,-1,1427,1107,0,0
210,-83,0,0,0,0,0,0,0,0,0,-1,1434,1107,0,0
217,-83,0,0,0,0,0,0,0,0,0,-1,1441,1107,0,0
224,-83,0,0,0,0,0,0,0,0,0,-1,1448,1107,0,0
231,-83,0,0,0,0,0,0,0,0,0,-1,1455,1107,0,0
238,-83,0,0,0,0,0,0,0,0,0,-1,1462,1107,0,0
245,-83,0,0,0,0,0,0,0,0,0,-1,1469,1107,0,0
252,-83,0,0,0,0,0,0,0,0,0,-1,1476,1107,0,0
259,-83,0,0,0,0,0,0,0,0,0,-1,1483,1107,0,0
266,-83,0,0,0,0,0,0,0,0,0,-1,1490,1107,0,0
273,-83,0,0,0,0,0,0,0,0,0,-1,1497,1107,0,0
280,-83,0,0,0,0,0,0,0,0,0,-1,1504,1107,0,0
287,-83,0,0,0,0,0,0,0,0,0,-1,1511,1107,0,0
294,-83,0,0,0,0,0,0,0,0,0,-1,1518,1107,0,0
301,-83,0,0,0,0,0,0,0,0,0,-1,1525,1107,0,0
308,-83,0,0,0,0,0,0,0,0,0,-1,1532,1107,0,0
315,-83,0,0,0,0,0,0,0,0,0,-1,1539,1107,0,0
322,-83,0,0,0,0,0,0,0,0,0,-1,1546,1107,0,0
329,-83,0,0,0,0,0,0,0,0,0,-1,1553,1107,0,0
336,-83,0,0,0,0,0,0,0,0,0,-1,1560,1107,0,0
343,-83,0,0,0,0,0,0,0,0,0,-1,1567,1107,0,0
350,-83,0,0,0,0,0,0,0,0,0,-1,1574,1107,0,0
357,-83,0,0,0,0,0,0,0,0,0,-1,1581,1107,0,0
364,-83,0,0,0,0,0,0,0,0,0,-1,1588,1107,0,0
371,-83,0,0,0,0,0,0,0,0,0,-1,1595,1107,0,0
378,-83,0,0,0,0,0,0,0,0,0,-1,1602,1107,0,0
385,-83,0,0,0,0,0,0,0,0,0,-1,1609,1107,0,0
392,-83,0,0,0,0,0,0,0,0,0,-1,1616,1107,0,0
399,-83,0,0,0,0,0,0,0,0,0,-1,1623,1107,0,0
406,-83,0,0,0,0,0,0,0,0,0,-1,1630,1107,0,0
413,-83,0,0,0,0,0,0,0,0,0,-1,1637,1107,0,0
420,-83,0,0,0,0,0,0,0,0,0,-1,1644,1107,0,0
427,-83,0,0,0,0,0,0,0,0,0,-1,1651,1107,0,0
434,-83,0,0,0,0,0,0,0,0,0,-1,1658,1107,0,0
441,-83,0,0,0,0,0,0,0,0,0,-1,1665,1107,0,0
448,-83,0,0,0,0,0,0,0,0,0,-1,1672,1107,0,0
455,-83,0,0,0,0,0,0,0,0,0,-1,1679,1107,0,0
462,-83,0,0,0,0,0,0,0,0,0,-1,1686,1107,0,0
469,-83,0,0,0,0,0,0,0,0,0,-1,1693,1107,0,0
476,-83,0,0,0,0,0,0,0,0,0,-1,1700,1107,0,0
483,-83,0,0,0,0,0,0,0,0,0,-1,1707,1107,0,0
490,-83,0,0,0,0,0,0,0,0,0,-1,1714,1107,0,0
497,-83,0,0,0,0,0,0,0,0,0,-1,1721,1107,0,0
504,-83,0,0,0,0,0,0,0,0,0,-1,1728,1107,0,0
511,-83,0,0,0,0,0,0,0,0,0,-1,1735,1107,0,0
518,-83,0,0,0,0,0,0,0,0,0,-1,1742,1107,0,0
525,-83,0,0,0,0,0,0,0,0,0,-1,1749,1107,0,0
532,-83,0,0,0,0,0,0,0,0,0,-1,1756,1107,0,0
539,-83,0,0,0,0,0,0,0,0,0,-1,1763,1107,0,0
546,-83,0,0,0,0,0,0,0,0,0,-1,1770,1107,0,0
553,-83,0,0,0,0,0,0,0,0,0,-1,1777,1107,0,0
560,-83,0,0,0,0,0,0,0,0,0,-1,1784,1107,0,0
567,-83,0,0,0,0,0,0,0,0,0,-1,1791,1107,0,0
574,-83,0,0,0,0,0,0,0,0,0,-1,1798,1107,0,0
581,-83,0,0,0,0,0,0,0,0,0,-1,1805,1107,0,0
588,-83,0,0,0,0,0,0,0,0,0,-1,1812,1107,0,0
595,-83,0,0,0,0,0,0,0,0,0,-1,1819,1107,0,0
602,-83,0,0,0,0,0,0,0,0,0,-1,1826,1107,0,0
609,-83,0,0,0,0,0,0,0,0,0,-1,1833,1107,0,0
616,-83,0,0,0,0,0,0,0,0,0,-1,1840,1107,0,0
623,-83,0,0,0,0,0,0,0,0,0,-1,1847,1107,0,0
630,-83,0,0,0,0,0,0,0,0,0,-1,1854,1107,0,0
637,-83,0,0,0,0,0,0,0,0,0,-1,1861,1107,0,0
644,-83,-0.118164,-0.0714111,0.00409778,-0.00106779,-0.00529046,0.00740225,-0.00437226,-0.558318,0.00687264,0.0316338,1868,1107,-0.118169,0.0713574
651,-83,-0.057373,-0.170532,0.00250198,-0.000557801,-0.00350302,0.00479462,-0.00285044,-0.579515,0.0044612,0.0379315,1875,1107,-0.0574087,0.170545
658,-83,-0.0169678,-0.217651,0.00142468,-0.000250792,-0.00218012,0.00292248,-0.00174859,-0.601965,0.00272509,0.0393125,1882,1107,-0.0169991,0.217612
665,-83,-0.0709229,-0.0880127,0.000661572,-7.24585e-05,-0.0012111,0.00156005,-0.000970936,-0.638276,0.0014744,0.0339878,1889,1107,-0.0709341,0.0879605
672,-83,-0.0430908,0.00195313,0.000113412,4.59544e-05,-0.000593341,0.000673982,-0.000514616,-0.757006,0.00068829,0.0328836,1896,1107,-0.043074,-0.00192028
679,-83,-0.0693359,0.0291748,-0.000267586,0.000119462,-0.000240379,0.000234537,-0.000382661,-1.12431,0.000359744,0.0335143,1903,1107,-0.0693543,-0.0292258
686,-83,-0.161255,-0.0637207,-0.000491318,0.000158472,-4.29156e-05,0.000161294,-0.000494141,-1.50513,0.000394345,0.0303792,1910,1107,-0.161295,0.0636848
693,-83,-0.152222,-0.12793,-0.000596865,0.00017512,5.93406e-05,0.000179655,-0.0006014,1.49453,0.000472348,0.0309174,1917,1107,-0.152233,0.127917
700,-83,-0.0891113,-0.12085,-0.000653275,0.000212658,0.000148671,0.000237472,-0.000678089,1.40541,0.000548625,0.0264698,1924,1107,-0.0890686,0.120805
707,-83,-0.0755615,-0.0357666,-0.000659772,0.000211464,0.000214749,0.000261521,-0.000709829,1.34179,0.000580377,0.0159094,1931,1107,-0.0755527,0.0357861
714,-83,-0.0560303,0.0194092,-0.000596963,0.000183565,0.000195951,0.000229997,-0.000643394,1.33813,0.000522742,0.0187867,1938,1107,-0.0560473,-0.0194462
721,-83,-0.0656738,-0.0300293,-0.000514895,0.000174486,4.75439e-05,0.00017775,-0.000518158,1.50226,0.000417498,0.0158927,1945,1107,-0.0656693,0.0299894
728,-83,-0.086792,-0.0699463,-0.000392942,0.000154371,-9.75112e-05,0.000171225,-0.000409795,-1.39965,0.00034475,0.0169846,1952,1107,-0.0867735,0.0699389
735,-83,-0.0859375,-0.0905762,-0.000210604,8.33249e-05,-0.000174422,0.000164443,-0.000291722,-1.13548,0.000266762,0.0172595,1959,1107,-0.0858871,0.0905976
742,-83,-0.0726318,-0.0632324,-0.000179403,-0.000173887,-0.000187719,1.10941e-05,-0.000364384,-0.792743,0.000246704,0.0105724,1966,1107,-0.0726601,0.0631964
749,-83,-0.0749512,-0.0449219,-0.000593808,-0.000161859,-0.000295629,-1.17173e-05,-0.00074395,-1.10087,0.000492107,0.010226,1973,1107,-0.0749298,0.0449005
756,-83,-0.0692139,-0.0316162,-0.00108791,-0.000619234,-0.000328244,-0.000450262,-0.00125688,-1.0954,0.000735319,0.012828,1980,1107,-0.0691572,0.0316513
763,-83,-0.0678711,-0.0466309,-0.00169193,-0.000642064,7.54353e-05,-0.000636671,-0.00169732,1.49943,0.000990089,0.0106199,1987,1107,-0.0678721,0.0466882
770,-83,-0.0878906,-0.0528564,-0.00252256,-0.000919035,0.000361406,-0.000841344,-0.00260025,1.35905,0.00153209,0.0118918,1994,1107,-0.0879451,0.0528235
777,-83,-0.0888672,-0.0609131,-0.00366875,-0.00119836,0.000841734,-0.000938824,-0.00392828,1.27171,0.00236876,0.0130673,2001,1107,-0.0888642,0.0608924
784,-83,-0.0831299,-0.0477295,-0.00518866,-0.00143333,0.00159327,-0.000848447,-0.00577355,1.21897,0.0035997,0.0222794,2008,1107,-0.0831455,0.0476806
791,-83,0.00634766,-0.151733,-0.00706088,-0.00155313,0.00276386,-0.000405376,-0.00820864,1.17719,0.00534243,0.0392174,2015,1107,0.00637322,0.151726
798,-83,-0.639771,-0.847168,-0.00923897,-0.00145737,0.00454541,0.000635067,-0.0113314,1.13938,0.00777461,0.042402,2022,1107,-0.639789,0.847135
805,-83,-0.802368,-0.965942,0,0,0,0,0,0,0,-1,2029,1107,-0.802366,0.965985
812,-83,-1.16724,-0.963135,0,0,0,0,0,0,0,-1,2036,1107,-1.16722,0.963162
-700,-90,0,0,0,0,0,0,0,0,0,-1,524,1114,0,0
-693,-90,-2.71045,-0.89209,0,0,0,0,0,0,0,-1,531,1114,-2.71043,0.892069
-686,-90,-1.90985,-1.10144,0,0,0,0,0,0,0,-1,538,1114,-1.90987,1.10143
-679,-90,-0.820984,-0.795288,0,0,0,0,0,0,0,-1,545,1114,-0.820983,0.795336
-672,-90,0.474182,-0.0283203,0,0,0,0,0,0,0,-1,552,1114,0.474185,0.0283804
-665,-90,0.231323,0.163452,0,0,0,0,0,0,0,-1,559,1114,0.231293,-0.163448
-658,-90,-0.194458,0.153442,0.0133217,-0.00142052,-0.00409995,0.0143852,-0.00248403,-0.253803,0.0105164,0.040713,566,1114,-0.194479,-0.153442
-651,-90,-0.0310059,-0.083252,0.00927139,-0.00237879,-0.00375595,0.0103773,-0.0034847,-0.286352,0.00832649,0.0276889,573,1114,-0.03101,0.0832408
-644,-90,-0.0719604,-0.0736084,0.00624881,-0.00331213,-0.00319665,0.00721912,-0.00428244,-0.294701,0.00671219,0.0116803,580,1114,-0.0719617,0.0736201
-637,-90,-0.0661011,-0.0482178,0.00368425,-0.00281481,-0.00236332,0.00445277,-0.00358333,-0.314401,0.00464868,0.0102183,587,1114,-0.0660979,0.0481657
-630,-90,-0.0734863,-0.0507813,0.0022052,-0.00282271,-0.00211746,0.00297813,-0.00359564,-0.349998,0.00380094,0.0108098,594,1114,-0.0734865,0.0508147
-623,-90,-0.0710449,-0.0494385,0.000874308,-0.00163773,-0.00169264,0.00172604,-0.00248946,-0.466201,0.00244709,0.00928689,601,1114,-0.0710148,0.0493924
-616,-90,-0.0802612,-0.0340576,0.000255194,-0.000732627,-0.00120888,0.00106717,-0.00154461,-0.591463,0.00151629,0.00760003,608,1114,-0.0802702,0.0341054
-609,-90,-0.0818481,-0.0306396,0.000180894,-0.000163818,-0.000591508,0.000624646,-0.000607569,-0.643631,0.000711442,0.0103373,615,1114,-0.0818361,0.03063
-602,-90,-0.0756836,-0.0439453,7.19143e-05,7.47802e-05,-0.000180182,0.000253535,-0.00010684,-0.789375,0.000213731,0.0104321,622,1114,-0.0757128,0.043991
-595,-90,-0.074585,-0.052124,1.729e-05,0.000185291,1.7873e-05,0.000187172,1.54096e-05,1.46597,0.000119975,0.012923,629,1114,-0.0746134,0.0520831
-588,-90,-0.0800171,-0.0394287,0.000128648,0.000181297,1.48601e-05,0.000185202,0.000124743,1.31385,0.000109052,0.0183477,636,1114,-0.080037,0.0394878
-581,-90,-0.116699,0.00939941,0.000292885,0.000148609,1.80729e-06,0.000292908,0.000148586,0.012524,0.000169116,0.0251086,643,1114,-0.116719,-0.00944661
-574,-90,-0.132324,0.067749,0.000455855,0.000112333,-8.7676e-06,0.000456079,0.000112109,-0.0255005,0.000274425,0.0317672,650,1114,-0.132297,-0.0677753
-567,-90,-0.138611,-0.0198975,0.000705909,3.17925e-05,-7.42304e-05,0.000713986,2.37153e-05,-0.108385,0.000468286,0.032312,657,1114,-0.138629,0.019953
-560,-90,-0.126831,-0.100952,0.00101414,-8.69896e-05,-0.000160445,0.00103704,-0.000109892,-0.141783,0.000730751,0.0353985,664,1114,-0.126841,0.100961
-553,-90,-0.0224609,0.0336914,0.00138285,-0.000235563,-0.000250189,0.00142064,-0.000273357,-0.149928,0.00105014,0.0350017,671,1114,-0.0224428,-0.0336799
-546,-90,-0.00317383,0.0150146,0.00178303,-0.000404053,-0.000315275,0.00182757,-0.000448594,-0.140348,0.00139221,0.0359343,678,1114,-0.00314973,-0.014995
-539,-90,-0.0314941,-0.0389404,0.00220558,-0.000576017,-0.000292958,0.0022361,-0.000606536,-0.103803,0.00172875,0.0370163,685,1114,-0.0314872,0.0389967
-532,-90,-0.0215454,-0.0256348,0.00253762,-0.000725301,-0.000118595,0.00254193,-0.000729606,-0.0362824,0.00198308,0.0371282,692,1114,-0.0215663,0.0256802
-525,-90,0,0,0,0,0,0,0,0,0,-1,699,1114,0,0
-518,-90,0,0,0,0,0,0,0,0,0,-1,706,1114,0,0
-511,-90,0,0,0,0,0,0,0,0,0,-1,713,1114,0,0
-504,-90,0,0,0,0,0,0,0,0,0,-1,720,1114,0,0
-497,-90,0,0,0,0,0,0,0,0,0,-1,727,1114,0,0
-490,-90,0,0,0,0,0,0,0,0,0,-1,734,1114,0,0
-483,-90,0,0,0,0,0,0,0,0,0,-1,741,1114,0,0
-476,-90,0,0,0,0,0,0,0,0,0,-1,748,1114,0,0
-469,-90,0,0,0,0,0,0,0,0,0,-1,755,1114,0,0
-462,-90,0,0,0,0,0,0,0,0,0,-1,762,1114,0,0
-455,-90,0,0,0,0,0,0,0,0,0,-1,769,1114,0,0
-448,-90,0,0,0,0,0,0,0,0,0,-1,776,1114,0,0
-441,-90,0,0,0,0,0,0,0,0,0,-1,783,1114,0,0
-434,-90,0,0,0,0,0,0,0,0,0,-1,790,1114,0,0
-427,-90,0,0,0,0,0,0,0,0,0,-1,797,1114,0,0
-420,-90,0,0,0,0,0,0,0,0,0,-1,804,1114,0,0
-413,-90,0,0,0,0,0,0,0,0,0,-1,811,1114,0,0
-406,-90,0,0,0,0,0,0,0,0,0,-1,818,1114,0,0
-399,-90,0,0,0,0,0,0,0,0,0,-1,825,1114,0,0
-392,-90,0,0,0,0,0,0,0,0,0,-1,832,1114,0,0
-385,-90,0,0,0,0,0,0,0,0,0,-1,839,1114,0,0
-378,-90,0,0,0,0,0,0,0,0,0,-1,846,1114,0,0
-371,-90,0,0,0,0,0,0,0,0,0,-1,853,1114,0,0
-364,-90,0,0,0,0,0,0,0,0,0,-1,860,1114,0,0
-357,-90,0,0,0,0,0,0,0,0,0,-1,867,1114,0,0
-350,-90,0,0,0,0,0,0,0,0,0,-1,874,1114,0,0
-343,-90,0,0,0,0,0,0,0,0,0,-1,881,1114,0,0
-336,-90,0,0,0,0,0,0,0,0,0,-1,888,1114,0,0
-329,-90,0,0,0,0,0,0,0,0,0,-1,895,1114,0,0
-322,-90,0,0,0,0,0,0,0,0,0,-1,902,1114,0,0
-315,-90,0,0,0,0,0,0,0,0,0,-1,909,1114,0,0
-308,-90,0,0,0,0,0,0,0,0,0,-1,916,1114,0,0
-301,-90,0,0,0,0,0,0,0,0,0,-1,923,1114,0,0
-294,-90,0,0,0,0,0,0,0,0,0,-1,930,1114,0,0
-287,-90,0,0,0,0,0,0,0,0,0,-1,937,1114,0,0
-280,-90,0,0,0,0,0,0,0,0,0,-1,944,1114,0,0
-273,-90,0,0,0,0,0,0,0,0,0,-1,951,1114,0,0
-266,-90,0,0,0,0,0,0,0,0,0,-1,958,1114,0,0
-259,-90,0,0,0,0,0,0,0,0,0,-1,965,1114,0,0
-252,-90,0,0,0,0,0,0,0,0,0,-1,972,1114,0,0
-245,-90,0,0,0,0,0,0,0,0,0,-1,979,1114,0,0
-238,-90,0,0,0,0,0,0,0,0,0,-1,986,1114,0,0
-231,-90,0,0,0,0,0,0,0,0,0,-1,993,1114,0,0
-224,-90,0,0,0,0,0,0,0,0,0,-1,1000,1114,0,0
-217,-90,0,0,0,0,0,0,0,0,0,-1,1007,1114,0,0
-210,-90,0,0,0,0,0,0,0,0,0,-1,1014,1114,0,0
-203,-90,0,0,0,0,0,0,0,0,0,-1,1021,1114,0,0
-196,-90,0,0,0,0,0,0,0,0,0,-1,1028,1114,0,0
-189,-90,0,0,0,0,0,0,0,0,0,-1,1035,1114,0,0
-182,-90,0,0,0,0,0,0,0,0,0,-1,1042,1114,0,0
-175,-90,0,0,0,0,0,0,0,0,0,-1,1049,1114,0,0
-168,-90,0,0,0,0,0,0,0,0,0,-1,1056,1114,0,0
-161,-90,0,0,0,0,0,0,0,0,0,-1,1063,1114,0,0
-154,-90,0,0,0,0,0,0,0,0,0,-1,1070,1114,0,0
-147,-90,0,0,0,0,0,0,0,0,0,-1,1077,1114,0,0
-140,-90,0,0,0,0,0,0,0,0,0,-1,1084,1114,0,0
-133,-90,0,0,0,0,0,0,0,0,0,-1,1091,1114,0,0
-126,-90,0,0,0,0,0,0,0,0,0,-1,1098,1114,0,0
-119,-90,0,0,0,0,0,0,0,0,0,-1,1105,1114,0,0
-112,-90,0,0,0,0,0,0,0,0,0,-1,1112,1114,0,0
-105,-90,0,0,0,0,0,0,0,0,0,-1,1119,1114,0,0
-98,-90,0,0,0,0,0,0,0,0,0,-1,1126,1114,0,0
-91,-90,0,0,0,0,0,0,0,0,0,-1,1133,1114,0,0
-84,-90,0,0,0,0,0,0,0,0,0,-1,1140,1114,0,0
-77,-90,0,0,0,0,0,0,0,0,0,-1,1147,1114,0,0
-70,-90,0,0,0,0,0,0,0,0,0,-1,1154,1114,0,0
-63,-90,0,0,0,0,0,0,0,0,0,-1,1161,1114,0,0
-56,-90,0,0,0,0,0,0,0,0,0,-1,1168,1114,0,0
-49,-90,0,0,0,0,0,0,0,0,0,-1,1175,1114,0,0
-42,-90,0,0,0,0,0,0,0,0,0,-1,1182,1114,0,0
-35,-90,0,0,0,0,0,0,0,0,0,-1,1189,1114,0,0
-28,-90,0,0,0,0,0,0,0,0,0,-1,1196,1114,0,0
-21,-90,0,0,0,0,0,0,0,0,0,-1,1203,1114,0,0
-14,-90,0,0,0,0,0,0,0,0,0,-1,1210,1114,0,0
-7,-90,0,0,0,0,0,0,0,0,0,-1,1217,1114,0,0
0,-90,0,0,0,0,0,0,0,0,0,-1,1224,1114,0,0
7,-90,0,0,0,0,0,0,0,0,0,-1,1231,1114,0,0
14,-90,0,0,0,0,0,0,0,0,0,-1,1238,1114,0,0
21,-90,0,0,0,0,0,0,0,0,0,-1,1245,1114,0,0
28,-90,0,0,0,0,0,0,0,0,0,-1,1252,1114,0,0
35,-90,0,0,0,0,0,0,0,0,0,-1,1259,1114,0,0
42,-90,0,0,0,0,0,0,0,0,0,-1,1266,1114,0,0
49,-90,0,0,0,0,0,0,0,0,0,-1,1273,1114,0,0
56,-90,0,0,0,0,0,0,0,0,0,-1,1280,1114,0,0
63,-90,0,0,0,0,0,0,0,0,0,-1,1287,1114,0,0
70,-90,0,0,0,0,0,0,0,0,0,-1,1294,1114,0,0
77,-90,0,0,0,0,0,0,0,0,0,-1,1301,1114,0,0
84,-90,0,0,0,0,0,0,0,0,0,-1,1308,1114,0,0
91,-90,0,0,0,0,0,0,0,0,0,-1,1315,1114,0,0
98,-90,0,0,0,0,0,0,0,0,0,-1,1322,1114,0,0
105,-90,0,0,0,0,0,0,0,0,0,-1,1329,1114,0,0
112,-90,0,0,0,0,0,0,0,0,0,-1,1336,1114,0,0
119,-90,0,0,0,0,0,0,0,0,0,-1,1343,1114,0,0
126,-90,0,0,0,0,0,0,0,0,0,-1,1350,1114,0,0
133,-90,0,0,0,0,0,0,0,0,0,-1,1357,1114,0,0
140,-90,0,0,0,0,0,0,0,0,0,-1,1364,1114,0,0
147,-90,0,0,0,0,0,0,0,0,0,-1,1371,1114,0,0
154,-90,0,0,0,0,0,0,0,0,0,-1,1378,1114,0,0
161,-90,0,0,0,0,0,0,0,0,0,-1,1385,1114,0,0
168,-90,0,0,0,0,0,0,0,0,0,-1,1392,1114,0,0
175,-90,0,0,0,0,0,0,0,0,0,-1,1399,1114,0,0
182,-90,0,0,0,0,0,0,0,0,0,-1,1406,1114,0,0
189,-90,0,0,0,0,0,0,0,0,0,-1,1413,1114,0,0
196,-90,0,0,0,0,0,0,0,0,0,-1,1420,1114,0,0
203,-90,0,0,0,0,0,0,0,0,0,-1,1427,1114,0,0
210,-90,0,0,0,0,0,0,0,0,0,-1,1434,1114,0,0
217,-90,0,0,0,0,0,0,0,0,0,-1,1441,1114,0,0
224,-90,0,0,0,0,0,0,0,0,0,-1,1448,1114,0,0
231,-90,0,0,0,0,0,0,0,0,0,-1,1455,1114,0,0
238,-90,0,0,0,0,0,0,0,0,0,-1,1462,1114,0,0
245,-90,0,0,0,0,0,0,0,0,0,-1,1469,1114,0,0
252,-90,0,0,0,0,0,0,0,0,0,-1,1476,1114,0,0
259,-90,0,0,0,0,0,0,0,0,0,-1,1483,1114,0,0
266,-90,0,0,0,0,0,0,0,0,0,-1,1490,1114,0,0
273,-90,0,0,0,0,0,0,0,0,0,-1,1497,1114,0,0
280,-90,0,0,0,0,0,0,0,0,0,-1,1504,1114,0,0
287,-90,0,0,0,0,0,0,0,0,0,-1,1511,1114,0,0
294,-90,0,0,0,0,0,0,0,0,0,-1,1518,1114,0,0
301,-90,0,0,0,0,0,0,0,0,0,-1,1525,1114,0,0
308,-90,0,0,0,0,0,0,0,0,0,-1,1532,1114,0,0
315,-90,0,0,0,0,0,0,0,0,0,-1,1539,1114,0,0
322,-90,0,0,0,0,0,0,0,0,0,-1,1546,1114,0,0
329,-90,0,0,0,0,0,0,0,0,0,-1,1553,1114,0,0
336,-90,0,0,0,0,0,0,0,0,0,-1,1560,1114,0,0
343,-90,0,0,0,0,0,0,0,0,0,-1,1567,1114,0,0
350,-90,0,0,0,0,0,0,0,0,0,-1,1574,1114,0,0
357,-90,0,0,0,0,0,0,0,0,0,-1,1581,1114,0,0
364,-90,0,0,0,0,0,0,0,0,0,-1,1588,1114,0,0
371,-90,0,0,0,0,0,0,0,0,0,-1,1595,1114,0,0
378,-90,0,0,0,0,0,0,0,0,0,-1,1602,1114,0,0
385,-90,0,0,0,0,0,0,0,0,0,-1,1609,1114,0,0
392,-90,0,0,0,0,0,0,0,0,0,-1,1616,1114,0,0
399,-90,0,0,0,0,0,0,0,0,0,-1,1623,1114,0,0
406,-90,0,0,0,0,0,0,0,0,0,-1,1630,1114,0,0
413,-90,0,0,0,0,0,0,0,0,0,-1,1637,1114,0,0
420,-90,0,0,0,0,0,0,0,0,0,-1,1644,1114,0,0
427,-90,0,0,0,0,0,0,0,0,0,-1,1651,1114,0,0
434,-90,0,0,0,0,0,0,0,0,0,-1,1658,1114,0,0
441,-90,0,0,0,0,0,0,0,0,0,-1,1665,1114,0,0
448,-90,0,0,0,0,0,0,0,0,0,-1,1672,1114,0,0
455,-90,0,0,0,0,0,0,0,0,0,-1,1679,1114,0,0
462,-90,0,0,0,0,0,0,0,0,0,-1,1686,1114,0,0
469,-90,0,0,0,0,0,0,0,0,0,-1,1693,1114,0,0
476,-90,0,0,0,0,0,0,0,0,0,-1,1700,1114,0,0
483,-90,0,0,0,0,0,0,0,0,0,-1,1707,1114,0,0
490,-90,0,0,0,0,0,0,0,0,0,-1,1714,1114,0,0
497,-90,0,0,0,0,0,0,0,0,0,-1,1721,1114,0,0
504,-90,0,0,0,0,0,0,0,0,0,-1,1728,1114,0,0
511,-90,0,0,0,0,0,0,0,0,0,-1,1735,1114,0,0
518,-90,0,0,0,0,0,0,0,0,0,-1,1742,1114,0,0
525,-90,0,0,0,0,0,0,0,0,0,-1,1749,1114,0,0
532,-90,0,0,0,0,0,0,0,0,0,-1,1756,1114,0,0
539,-90,0,0,0,0,0,0,0,0,0,-1,1763,1114,0,0
546,-90,0,0,0,0,0,0,0,0,0,-1,1770,1114,0,0
553,-90,0,0,0,0,0,0,0,0,0,-1,1777,1114,0,0
560,-90,0,0,0,0,0,0,0,0,0,-1,1784,1114,0,0
567,-90,0,0,0,0,0,0,0,0,0,-1,1791,1114,0,0
574,-90,0,0,0,0,0,0,0,0,0,-1,1798,1114,0,0
581,-90,0,0,0,0,0,0,0,0,0,-1,1805,1114,0,0
588,-90,0,0,0,0,0,0,0,0,0,-1,1812,1114,0,0
595,-90,0,0,0,0,0,0,0,0,0,-1,1819,1114,0,0
602,-90,0,0,0,0,0,0,0,0,0,-1,1826,1114,0,0
609,-90,0,0,0,0,0,0,0,0,0,-1,1833,1114,0,0
616,-90,0,0,0,0,0,0,0,0,0,-1,1840,1114,0,0
623,-90,0,0,0,0,0,0,0,0,0,-1,1847,1114,0,0
630,-90,0,0,0,0,0,0,0,0,0,-1,1854,1114,0,0
637,-90,0,0,0,0,0,0,0,0,0,-1,1861,1114,0,0
644,-90,-0.108154,-0.00195313,0.00352021,-0.00153302,-0.00498021,0.00657807,-0.00459087,-0.550651,0.00648232,0.0314498,1868,1114,-0.108147,0.00196233
651,-90,-0.00476074,-0.259033,0.00212462,-0.000940232,-0.00330153,0.00423203,-0.00304764,-0.568116,0.00422142,0.0376298,1875,1114,-0.00476561,0.259074
658,-90,0.0524902,-0.34314,0.001208,-0.000570888,-0.00204477,0.0025484,-0.00191129,-0.58025,0.00258355,0.0396886,1882,1114,0.0524426,0.343168
665,-90,-0.000976563,-0.249878,0.000546421,-0.000327477,-0.00113501,0.00132569,-0.00110674,-0.601656,0.00140626,0.037251,1889,1114,-0.000996502,0.249827
672,-90,-0.0135498,-0.0413818,5.48723e-05,-0.000145842,-0.000558805,0.00052226,-0.00061323,-0.696549,0.000656277,0.0365196,1896,1114,-0.0135906,0.0413324
679,-90,-0.0152588,0.0925293,-0.000284916,-1.81662e-05,-0.000230266,0.000114563,-0.000417645,-1.0479,0.000323452,0.0325333,1903,1114,-0.0152201,-0.0925167
686,-90,-0.0628662,-0.0532227,-0.000484874,6.4698e-05,-4.48919e-05,6.83409e-05,-0.000488517,-1.48983,0.000350685,0.0285962,1910,1114,-0.0629126,0.0531761
693,-90,-0.0946045,-0.130981,-0.000582859,0.000117488,5.1005e-05,0.000121183,-0.000586554,1.49848,0.000437067,0.0284049,1917,1114,-0.0946458,0.131029
700,-90,-0.0618896,-0.0915527,-0.000624841,0.000178156,0.000144629,0.000203411,-0.000650096,1.39792,0.000514776,0.0235322,1924,1114,-0.0618691,0.0915819
707,-90,-0.0775146,-0.0257568,-0.000618925,0.00020582,0.000202655,0.000252926,-0.000666031,1.34241,0.000548138,0.0144127,1931,1114,-0.0775629,0.0258142
714,-90,-0.055542,0.00646973,-0.000575497,0.000203212,0.000182807,0.000243992,-0.000616277,1.35132,0.000511944,0.0182537,1938,1114,-0.0555998,-0.0064397
721,-90,-0.0704346,-0.0244141,-0.000518635,0.00020911,4.46468e-05,0.000211839,-0.000521364,1.50975,0.000435707,0.0160597,1945,1114,-0.0704234,0.0244483
728,-90,-0.0821533,-0.057373,-0.000382033,0.000186237,-9.46803e-05,0.000201596,-0.000397393,-1.40997,0.000351931,0.0153488,1952,1114,-0.0821054,0.0573232
735,-90,-0.0635986,-0.0683594,-0.000139726,7.16921e-05,-0.000156538,0.00015487,-0.000222904,-1.08237,0.000219284,0.0159488,1959,1114,-0.0636522,0.0683275
742,-90,-0.0656738,-0.0426025,-3.7128e-05,-0.000264397,-0.000129595,2.15964e-05,-0.000323121,-0.425461,0.000222962,0.0137031,1966,1114,-0.0656974,0.0425586
749,-90,-0.0913086,-0.0319824,-0.000384125,-0.000382201,-0.000200117,-0.000183044,-0.000583282,-0.787801,0.000344452,0.010975,1973,1114,-0.0913588,0.0320273
756,-90,-0.0699463,-0.0465088,-0.000868286,-0.000976232,-0.000334941,-0.000582997,-0.00126152,-0.705514,0.000729035,0.01257,1980,1114,-0.0699157,0.0465103
763,-90,-0.0640869,-0.0610352,-0.00154848,-0.0011407,-0.000114079,-0.00111096,-0.00157823,-1.31574,0.000936112,0.0113813,1987,1114,-0.0641259,0.0610053
770,-90,-0.0948486,-0.0540771,-0.00239978,-0.00163553,-9.85509e-06,-0.0016354,-0.00239991,-1.5579,0.00141567,0.0125011,1994,1114,-0.094879,0.0540578
777,-90,-0.102905,-0.0454102,-0.00364465,-0.00217221,0.000175566,-0.00215157,-0.00366529,1.45375,0.00212681,0.0123234,2001,1114,-0.102908,0.0453556
784,-90,-0.0855713,-0.0461426,-0.00536959,-0.00269803,0.000480535,-0.00261422,-0.0054534,1.39813,0.00314941,0.0257727,2008,1114,-0.0855782,0.0461803
791,-90,-0.193359,-0.882202,0,0,0,0,0,0,0,-1,2015,1114,-0.193414,0.882261
798,-90,-0.459473,-0.550537,-0.0103901,-0.0033086,0.00187118,-0.00284457,-0.0108541,1.32771,0.00649882,0.0408825,2022,1114,-0.459479,0.550577
805,-90,-0.738892,-0.237305,0,0,0,0,0,0,0,-1,2029,1114,-0.73891,0.237267
812,-90,-0.887817,-0.466064,0,0,0,0,0,0,0,-1,2036,1114,-0.887797,0.46601
-700,-97,0,0,0,0,0,0,0,0,0,-1,524,1121,0,0
-693,-97,-2.50092,-0.515259,0.0488859,0.0273924,0.00328846,0.0493778,0.0269006,0.148475,0.0285464,0.0434569,531,1121,-2.5009,0.515224
-686,-97,-1.83331,-0.70459,0,0,0,0,0,0,0,-1,538,1121,-1.8333,0.704588
-679,-97,-0.961182,-0.629517,0.0303762,0.00692983,-0.00177061,0.0305092,0.00679687,-0.0749511,0.0184949,0.0436729,545,1121,-0.961168,0.629555
-672,-97,-0.421204,-0.265625,0.0231091,0.00179886,-0.00314076,0.0235624,0.00134561,-0.143324,0.0152795,0.0401464,552,1121,-0.421226,0.265639
-665,-97,-0.360779,0.0449219,0.017169,-0.00116665,-0.00389084,0.0179605,-0.00195812,-0.200682,0.0126769,0.0417026,559,1121,-0.360796,-0.0448924
-658,-97,-0.233826,0.0411377,0.0124658,-0.00260614,-0.00412775,0.0135223,-0.00366256,-0.250553,0.0104518,0.0389424,566,1121,-0.233799,-0.0411521
-651,-97,-0.0595093,-0.162964,0.00883833,-0.00303877,-0.00397175,0.0100441,-0.00424453,-0.294742,0.00847302,0.0271595,573,1121,-0.05948,0.162977
-644,-97,-0.0823364,-0.0628662,0.00609255,-0.00344346,-0.00353572,0.00726047,-0.00461137,-0.319036,0.00691086,0.0103702,580,1121,-0.0823477,0.0628265
-637,-97,-0.0714111,-0.0557861,0.00375096,-0.00267571,-0.00278854,0.0047922,-0.00371695,-0.35737,0.00492582,0.0114003,587,1121,-0.0713948,0.0558173
-630,-97,-0.0684814,-0.0516357,0.00240449,-0.00264595,-0.00247965,0.0034184,-0.00365986,-0.388146,0.00408742,0.00898713,594,1121,-0.0685026,0.0516913
-623,-97,-0.0626831,-0.0477295,0.0010943,-0.00158107,-0.00200459,0.00216654,-0.00265332,-0.491174,0.00278747,0.0101027,601,1121,-0.0626795,0.047676
-616,-97,-0.0596924,-0.0511475,0.000485886,-0.000746657,-0.00144727,0.00144263,-0.0017034,-0.584117,0.00181844,0.00985163,608,1121,-0.0597166,0.0511484
-609,-97,-0.0546265,-0.0532227,0.000358215,-0.000174279,-0.000765709,0.000902645,-0.00071871,-0.61808,0.000938096,0.0115251,615,1121,-0.0546503,0.0532769
-602,-97,-0.0683594,-0.0644531,0.000130063,5.55395e-05,-0.000237166,0.000332877,-0.000147274,-0.707479,0.000284035,0.0116892,622,1121,-0.0683595,0.0644688
-595,-97,-0.0847778,-0.0648193,1.12785e-05,0.000178504,1.67128e-05,0.000180158,9.62459e-06,1.47215,0.000117029,0.0156725,629,1121,-0.0848053,0.064822
-588,-97,-0.0776978,-0.0529785,0.00010208,0.000165457,3.77955e-05,0.000183091,8.44464e-05,1.13427,0.000105813,0.018298,636,1121,-0.0776825,0.0529306
-581,-97,-0.106812,-0.0579834,0.000227839,0.000137937,4.19712e-05,0.000244387,0.000121389,0.375566,0.000141098,0.0257235,643,1121,-0.106821,0.0579246
-574,-97,-0.119141,-0.0285645,0.000336965,0.000100813,5.42496e-05,0.000348831,8.8947e-05,0.215341,0.000209303,0.0350765,650,1121,-0.119147,0.0285574
-567,-97,-0.145874,-0.0126953,0.000532802,1.51885e-05,1.04274e-05,0.000533012,1.49785e-05,0.0201343,0.000350455,0.034925,657,1121,-0.145898,0.0127161
-560,-97,-0.0421753,0.0671387,0.000760363,-0.00010806,-5.93123e-05,0.000764395,-0.000112092,-0.0678787,0.000550776,0.0396307,664,1121,-0.04218,-0.0671608
-553,-97,-0.0388794,0.259888,0.00101678,-0.00025909,-0.000144126,0.00103286,-0.000275168,-0.111098,0.000796305,0.0411392,671,1121,-0.0388731,-0.259873
-546,-97,-0.078064,0.0469971,0.00126729,-0.000423829,-0.000220053,0.00129545,-0.000451994,-0.127299,0.00104733,0.0405417,678,1121,-0.0780386,-0.0469414
-539,-97,-0.0144043,-0.122559,0.00148147,-0.000580157,-0.000229773,0.00150677,-0.000605455,-0.10966,0.00125596,0.0389759,685,1121,-0.0144194,0.122532
-532,-97,-0.0238037,-0.102905,0.00154575,-0.000688911,-0.000116801,0.00155183,-0.000694999,-0.0520789,0.00132828,0.0366013,692,1121,-0.0238203,0.102857
-525,-97,0,0,0,0,0,0,0,0,0,-1,699,1121,0,0
-518,-97,0,0,0,0,0,0,0,0,0,-1,706,1121,0,0
-511,-97,0,0,0,0,0,0,0,0,0,-1,713,1121,0,0
-504,-97,0,0,0,0,0,0,0,0,0,-1,720,1121,0,0
-497,-97,0,0,0,0,0,0,0,0,0,-1,727,1121,0,0
-490,-97,0,0,0,0,0,0,0,0,0,-1,734,1121,0,0
-483,-97,0,0,0,0,0,0,0,0,0,-1,741,1121,0,0
-476,-97,0,0,0,0,0,0,0,0,0,-1,748,1121,0,0
-469,-97,0,0,0,0,0,0,0,0,0,-1,755,1121,0,0
-462,-97,0,0,0,0,0,0,0,0,0,-1,762,1121,0,0
-455,-97,0,0,0,0,0,0,0,0,0,-1,769,1121,0,0
-448,-97,0,0,0,0,0,0,0,0,0,-1,776,1121,0,0
-441,-97,0,0,0,0,0,0,0,0,0,-1,783,1121,0,0
-434,-97,0,0,0,0,0,0,0,0,0,-1,790,1121,0,0
-427,-97,0,0,0,0,0,0,0,0,0,-1,797,1121,0,0
-420,-97,0,0,0,0,0,0,0,0,0,-1,804,1121,0,0
-413,-97,0,0,0,0,0,0,0,0,0,-1,811,1121,0,0
-406,-97,0,0,0,0,0,0,0,0,0,-1,818,1121,0,0
-399,-97,0,0,0,0,0,0,0,0,0,-1,825,1121,0,0
-392,-97,0,0,0,0,0,0,0,0,0,-1,832,1121,0,0
-385,-97,0,0,0,0,0,0,0,0,0,-1,839,1121,0,0
-378,-97,0,0,0,0,0,0,0,0,0,-1,846,1121,0,0
-371,-97,0,0,0,0,0,0,0,0,0,-1,853,1121,0,0
-364,-97,0,0,0,0,0,0,0,0,0,-1,860,1121,0,0
-357,-97,0,0,0,0,0,0,0,0,0,-1,867,1121,0,0
-350,-97,0,0,0,0,0,0,0,0,0,-1,874,1121,0,0
-343,-97,0,0,0,0,0,0,0,0,0,-1,881,1121,0,0
-336,-97,0,0,0,0,0,0,0,0,0,-1,888,1121,0,0
-329,-97,0,0,0,0,0,0,0,0,0,-1,895,1121,0,0
-322,-97,0,0,0,0,0,0,0,0,0,-1,902,1121,0,0
-315,-97,0,0,0,0,0,0,0,0,0,-1,909,1121,0,0
-308,-97,0,0,0,0,0,0,0,0,0,-1,916,1121,0,0
-301,-97,0,0,0,0,0,0,0,0,0,-1,923,1121,0,0
-294,-97,0,0,0,0,0,0,0,0,0,-1,930,1121,0,0
-287,-97,0,0,0,0,0,0,0,0,0,-1,937,1121,0,0
-280,-97,0,0,0,0,0,0,0,0,0,-1,944,1121,0,0
-273,-97,0,0,0,0,0,0,0,0,0,-1,951,1121,0,0
-266,-97,0,0,0,0,0,0,0,0,0,-1,958,1121,0,0
-259,-97,0,0,0,0,0,0,0,0,0,-1,965,1121,0,0
-252,-97,0,0,0,0,0,0,0,0,0,-1,972,1121,0,0
-245,-97,0,0,0,0,0,0,0,0,0,-1,979,1121,0,0
-238,-97,0,0,0,0,0,0,0,0,0,-1,986,1121,0,0
-231,-97,0,0,0,0,0,0,0,0,0,-1,993,1121,0,0
-224,-97,0,0,0,0,0,0,0,0,0,-1,1000,1121,0,0
-217,-97,0,0,0,0,0,0,0,0,0,-1,1007,1121,0,0
-210,-97,0,0,0,0,0,0,0,0,0,-1,1014,1121,0,0
-203,-97,0,0,0,0,0,0,0,0,0,-1,1021,1121,0,0
-196,-97,0,0,0,0,0,0,0,0,0,-1,1028,1121,0,0
-189,-97,0,0,0,0,0,0,0,0,0,-1,1035,1121,0,0
-182,-97,0,0,0,0,0,0,0,0,0,-1,1042,1121,0,0
-175,-97,0,0,0,0,0,0,0,0,0,-1,1049,1121,0,0
-168,-97,0,0,0,0,0,0,0,0,0,-1,1056,1121,0,0
-161,-97,0,0,0,0,0,0,0,0,0,-1,1063,1121,0,0
-154,-97,0,0,0,0,0,0,0,0,0,-1,1070,1121,0,0
-147,-97,0,0,0,0,0,0,0,0,0,-1,1077,1121,0,0
-140,-97,0,0,0,0,0,0,0,0,0,-1,1084,1121,0,0
-133,-97,0,0,0,0,0,0,0,0,0,-1,1091,1121,0,0
-126,-97,0,0,0,0,0,0,0,0,0,-1,1098,1121,0,0
-119,-97,0,0,0,0,0,0,0,0,0,-1,1105,1121,0,0
-112,-97,0,0,0,0,0,0,0,0,0,-1,1112,1121,0,0
-105,-97,0,0,0,0,0,0,0,0,0,-1,1119,1121,0,0
-98,-97,0,0,0,0,0,0,0,0,0,-1,1126,1121,0,0
-91,-97,0,0,0,0,0,0,0,0,0,-1,1133,1121,0,0
-84,-97,0,0,0,0,0,0,0,0,0,-1,1140,1121,0,0
-77,-97,0,0,0,0,0,0,0,0,0,-1,1147,1121,0,0
-70,-97,0,0,0,0,0,0,0,0,0,-1,1154,1121,0,0
-63,-97,0,0,0,0,0,0,0,0,0,-1,1161,1121,0,0
-56,-97,0,0,0,0,0,0,0,0,0,-1,1168,1121,0,0
-49,-97,0,0,0,0,0,0,0,0,0,-1,1175,1121,0,0
-42,-97,0,0,0,0,0,0,0,0,0,-1,1182,1121,0,0
-35,-97,0,0,0,0,0,0,0,0,0,-1,1189,1121,0,0
-28,-97,0,0,0,0,0,0,0,0,0,-1,1196,1121,0,0
-21,-97,0,0,0,0,0,0,0,0,0,-1,1203,1121,0,0
-14,-97,0,0,0,0,0,0,0,0,0,-1,1210,1121,0,0
-7,-97,0,0,0,0,0,0,0,0,0,-1,1217,1121,0,0
0,-97,0,0,0,0,0,0,0,0,0,-1,1224,1121,0,0
7,-97,0,0,0,0,0,0,0,0,0,-1,1231,1121,0,0
14,-97,0,0,0,0,0,0,0,0,0,-1,1238,1121,0,0
21,-97,0,0,0,0,0,0,0,0,0,-1,1245,1121,0,0
28,-97,0,0,0,0,0,0,0,0,0,-1,1252,1121,0,0
35,-97,0,0,0,0,0,0,0,0,0,-1,1259,1121,0,0
42,-97,0,0,0,0,0,0,0,0,0,-1,1266,1121,0,0
49,-97,0,0,0,0,0,0,0,0,0,-1,1273,1121,0,0
56,-97,0,0,0,0,0,0,0,0,0,-1,1280,1121,0,0
63,-97,0,0,0,0,0,0,0,0,0,-1,1287,1121,0,0
70,-97,0,0,0,0,0,0,0,0,0,-1,1294,1121,0,0
77,-97,0,0,0,0,0,0,0,0,0,-1,1301,1121,0,0
84,-97,0,0,0,0,0,0,0,0,0,-1,1308,1121,0,0
91,-97,0,0,0,0,0,0,0,0,0,-1,1315,1121,0,0
98,-97,0,0,0,0,0,0,0,0,0,-1,1322,1121,0,0
105,-97,0,0,0,0,0,0,0,0,0,-1,1329,1121,0,0
112,-97,0,0,0,0,0,0,0,0,0,-1,1336,1121,0,0
119,-97,0,0,0,0,0,0,0,0,0,-1,1343,1121,0,0
126,-97,0,0,0,0,0,0,0,0,0,-1,1350,1121,0,0
133,-97,0,0,0,0,0,0,0,0,0,-1,1357,1121,0,0
140,-97,0,0,0,0,0,0,0,0,0,-1,1364,1121,0,0
147,-97,0,0,0,0,0,0,0,0,0,-1,1371,1121,0,0
154,-97,0,0,0,0,0,0,0,0,0,-1,1378,1121,0,0
161,-97,0,0,0,0,0,0,0,0,0,-1,1385,1121,0,0
168,-97,0,0,0,0,0,0,0,0,0,-1,1392,1121,0,0
175,-97,0,0,0,0,0,0,0,0,0,-1,1399,1121,0,0
182,-97,0,0,0,0,0,0,0,0,0,-1,1406,1121,0,0
189,-97,0,0,0,0,0,0,0,0,0,-1,1413,1121,0,0
196,-97,0,0,0,0,0,0,0,0,0,-1,1420,1121,0,0
203,-97,0,0,0,0,0,0,0,0,0,-1,1427,1121,0,0
210,-97,0,0,0,0,0,0,0,0,0,-1,1434,1121,0,0
217,-97,0,0,0,0,0,0,0,0,0,-1,1441,1121,0,0
224,-97,0,0,0,0,0,0,0,0,0,-1,1448,1121,0,0
231,-97,0,0,0,0,0,0,0,0,0,-1,1455,1121,0,0
238,-97,0,0,0,0,0,0,0,0,0,-1,1462,1121,0,0
245,-97,0,0,0,0,0,0,0,0,0,-1,1469,1121,0,0
252,-97,0,0,0,0,0,0,0,0,0,-1,1476,1121,0,0
259,-97,0,0,0,0,0,0,0,0,0,-1,1483,1121,0,0
266,-97,0,0,0,0,0,0,0,0,0,-1,1490,1121,0,0
273,-97,0,0,0,0,0,0,0,0,0,-1,1497,1121,0,0
280,-97,0,0,0,0,0,0,0,0,0,-1,1504,1121,0,0
287,-97,0,0,0,0,0,0,0,0,0,-1,1511,1121,0,0
294,-97,0,0,0,0,0,0,0,0,0,-1,1518,1121,0,0
301,-97,0,0,0,0,0,0,0,0,0,-1,1525,1121,0,0
308,-97,0,0,0,0,0,0,0,0,0,-1,1532,1121,0,0
315,-97,0,0,0,0,0,0,0,0,0,-1,1539,1121,0,0
322,-97,0,0,0,0,0,0,0,0,0,-1,1546,1121,0,0
329,-97,0,0,0,0,0,0,0,0,0,-1,1553,1121,0,0
336,-97,0,0,0,0,0,0,0,0,0,-1,1560,1121,0,0
343,-97,0,0,0,0,0,0,0,0,0,-1,1567,1121,0,0
350,-97,0,0,0,0,0,0,0,0,0,-1,1574,1121,0,0
357,-97,0,0,0,0,0,0,0,0,0,-1,1581,1121,0,0
364,-97,0,0,0,0,0,0,0,0,0,-1,1588,1121,0,0
371,-97,0,0,0,0,0,0,0,0,0,-1,1595,1121,0,0
378,-97,0,0,0,0,0,0,0,0,0,-1,1602,1121,0,0
385,-97,0,0,0,0,0,0,0,0,0,-1,1609,1121,0,0
392,-97,0,0,0,0,0,0,0,0,0,-1,1616,1121,0,0
399,-97,0,0,0,0,0,0,0,0,0,-1,1623,1121,0,0
406,-97,0,0,0,0,0,0,0,0,0,-1,1630,1121,0,0
413,-97,0,0,0,0,0,0,0,0,0,-1,1637,1121,0,0
420,-97,0,0,0,0,0,0,0,0,0,-1,1644,1121,0,0
427,-97,0,0,0,0,0,0,0,0,0,-1,1651,1121,0,0
434,-97,0,0,0,0,0,0,0,0,0,-1,1658,1121,0,0
441,-97,0,0,0,0,0,0,0,0,0,-1,1665,1121,0,0
448,-97,0,0,0,0,0,0,0,0,0,-1,1672,1121,0,0
455,-97,0,0,0,0,0,0,0,0,0,-1,1679,1121,0,0
462,-97,0,0,0,0,0,0,0,0,0,-1,1686,1121,0,0
469,-97,0,0,0,0,0,0,0,0,0,-1,1693,1121,0,0
476,-97,0,0,0,0,0,0,0,0,0,-1,1700,1121,0,0
483,-97,0,0,0,0,0,0,0,0,0,-1,1707,1121,0,0
490,-97,0,0,0,0,0,0,0,0,0,-1,1714,1121,0,0
497,-97,0,0,0,0,0,0,0,0,0,-1,1721,1121,0,0
504,-97,0,0,0,0,0,0,0,0,0,-1,1728,1121,0,0
511,-97,0,0,0,0,0,0,0,0,0,-1,1735,1121,0,0
518,-97,0,0,0,0,0,0,0,0,0,-1,1742,1121,0,0
525,-97,0,0,0,0,0,0,0,0,0,-1,1749,1121,0,0
532,-97,0,0,0,0,0,0,0,0,0,-1,1756,1121,0,0
539,-97,0,0,0,0,0,0,0,0,0,-1,1763,1121,0,0
546,-97,0,0,0,0,0,0,0,0,0,-1,1770,1121,0,0
553,-97,0,0,0,0,0,0,0,0,0,-1,1777,1121,0,0
560,-97,0,0,0,0,0,0,0,0,0,-1,1784,1121,0,0
567,-97,0,0,0,0,0,0,0,0,0,-1,1791,1121,0,0
574,-97,0,0,0,0,0,0,0,0,0,-1,1798,1121,0,0
581,-97,0,0,0,0,0,0,0,0,0,-1,1805,1121,0,0
588,-97,0,0,0,0,0,0,0,0,0,-1,1812,1121,0,0
595,-97,0,0,0,0,0,0,0,0,0,-1,1819,1121,0,0
602,-97,0,0,0,0,0,0,0,0,0,-1,1826,1121,0,0
609,-97,0,0,0,0,0,0,0,0,0,-1,1833,1121,0,0
616,-97,0,0,0,0,0,0,0,0,0,-1,1840,1121,0,0
623,-97,0,0,0,0,0,0,0,0,0,-1,1847,1121,0,0
630,-97,0,0,0,0,0,0,0,0,0,-1,1854,1121,0,0
637,-97,0,0,0,0,0,0,0,0,0,-1,1861,1121,0,0
644,-97,-0.100098,-0.0435791,0.00266272,-0.00174137,-0.0044251,0.0054034,-0.00448205,-0.554525,0.00571562,0.0325103,1868,1121,-0.100069,0.0435494
651,-97,-0.046875,-0.0715332,0.00153976,-0.00108957,-0.00295062,0.00345535,-0.00300516,-0.575822,0.00373299,0.0354848,1875,1121,-0.0469103,0.0714918
658,-97,-0.00976563,-0.210815,0.000842219,-0.000683227,-0.00181884,0.00205179,-0.0018928,-0.586863,0.00227803,0.0354757,1882,1121,-0.0097315,0.210781
665,-97,-0.0164795,-0.26416,0.000325451,-0.000416531,-0.00100754,0.00102814,-0.00111922,-0.608995,0.00124015,0.0363131,1889,1121,-0.016464,0.264193
672,-97,-0.0300293,0.00256348,-7.35706e-05,-0.000217466,-0.000496138,0.000355809,-0.000646846,-0.713392,0.000586956,0.0362854,1896,1121,-0.0300863,-0.00262358
679,-97,-0.0362549,0.189209,-0.000345834,-8.10929e-05,-0.000205142,3.0678e-05,-0.000457605,-1.07192,0.000315793,0.0335021,1903,1121,-0.0362216,-0.189207
686,-97,-0.0452881,0.0665283,-0.000504096,6.10678e-06,-3.97734e-05,9.18875e-06,-0.000507178,-1.49346,0.000341223,0.0300095,1910,1121,-0.0452387,-0.0664677
693,-97,-0.0405273,-0.0760498,-0.00058281,6.32065e-05,4.21432e-05,6.59442e-05,-0.000585548,1.50593,0.000414101,0.0277194,1917,1121,-0.0404748,0.0760579
700,-97,-0.0552979,-0.0772705,-0.000599531,0.000121673,0.000133495,0.00014559,-0.000623447,1.39352,0.000471711,0.0198197,1924,1121,-0.0553345,0.0772222
707,-97,-0.0820313,-0.0157471,-0.000575529,0.000161631,0.000181591,0.000203937,-0.000617835,1.34191,0.000494102,0.0129476,1931,1121,-0.0820793,0.0157405
714,-97,-0.059082,-0.00012207,-0.000550148,0.000170972,0.000159029,0.000204485,-0.000583661,1.3631,0.000472264,0.019782,1938,1121,-0.059042,8.1975e-05
721,-97,-0.0817871,-0.0351563,-0.00051578,0.000182189,3.51379e-05,0.000183954,-0.000517545,1.52062,0.000419998,0.0171945,1945,1121,-0.0818116,0.0351687
728,-97,-0.0786133,-0.0662842,-0.000371185,0.000151922,-8.36387e-05,0.00016497,-0.000384232,-1.41605,0.000325396,0.0169492,1952,1121,-0.0786685,0.0663353
735,-97,-0.0732422,-0.0554199,-9.14974e-05,4.26397e-07,-0.000121172,8.40604e-05,-0.000175131,-0.966671,0.000152693,0.015948,1959,1121,-0.0731869,0.0554635
742,-97,-0.0784912,-0.0306396,6.39608e-05,-0.000394347,-4.06997e-05,6.75471e-05,-0.000397933,-0.0878879,0.000290435,0.0130574,1966,1121,-0.0784785,0.0306059
749,-97,-0.100342,-0.0296631,-0.000198454,-0.000641654,-4.17329e-05,-0.000194558,-0.000645549,-0.0930726,0.000382384,0.014883,1973,1121,-0.10034,0.0297116
756,-97,-0.0931396,-0.065918,-0.000643211,-0.00136053,-0.000224111,-0.00057895,-0.00142479,-0.279248,0.000827401,0.0138514,1980,1121,-0.0931857,0.065874
763,-97,-0.0839844,-0.0750732,-0.00137436,-0.00168711,-0.000128629,-0.00132826,-0.00173321,-0.34418,0.00104693,0.0108634,1987,1121,-0.0840138,0.0750618
770,-97,-0.0847168,-0.0584717,-0.00220443,-0.00240848,-0.000126104,-0.00214424,-0.00246866,-0.445273,0.001549,0.00807839,1994,1121,-0.0846578,0.0584902
777,-97,-0.0668945,-0.0522461,-0.00347538,-0.00321835,-0.000129227,-0.00316461,-0.00352912,-1.17672,0.00224115,0.0113349,2001,1121,-0.0668701,0.0522147
784,-97,-0.0407715,-0.0765381,-0.00528998,-0.00406105,-0.00013337,-0.00404674,-0.00530429,-1.46393,0.00320045,0.0312344,2008,1121,-0.0407232,0.0765512
791,-97,0.207642,-0.529053,0,0,0,0,0,0,0,-1,2015,1121,0.207621,0.529037
798,-97,-0.0289307,-0.0463867,0,0,0,0,0,0,0,-1,2022,1121,-0.0288858,0.0463954
805,-97,-0.265381,0.436279,0,0,0,0,0,0,0,-1,2029,1121,-0.265393,-0.436246
812,-97,-0.494263,-0.0793457,0,0,0,0,0,0,0,-1,2036,1121,-0.494285,0.0793609
-700,-104,0,0,0,0,0,0,0,0,0,-1,524,1128,0,0
-693,-104,-2.50641,0.140625,0,0,0,0,0,0,0,-1,531,1128,-2.50641,-0.140606
-686,-104,-1.81598,-0.78125,0,0,0,0,0,0,0,-1,538,1128,-1.816,0.78127
-679,-104,-1.11139,-0.468384,0.0276918,0.00586643,-0.00119913,0.0277574,0.00580074,-0.0547224,0.0169064,0.0478987,545,1128,-1.11136,0.468351
-672,-104,-0.352783,0.315796,0.0212888,0.00161832,-0.00307132,0.0217572,0.00114992,-0.151341,0.0141371,0.0445801,552,1128,-0.352807,-0.315809
-665,-104,-0.339111,0.405884,0.0160516,-0.000872445,-0.00412334,0.0170027,-0.00182359,-0.226709,0.0119893,0.0400257,559,1128,-0.339139,-0.405856
-658,-104,-0.311462,0.261475,0.0118818,-0.00211344,-0.00451459,0.0132117,-0.00344337,-0.286483,0.0101522,0.038501,566,1128,-0.311469,-0.261476
-651,-104,-0.184204,-0.0909424,0.00862324,-0.00252124,-0.00440772,0.0101558,-0.00405378,-0.334619,0.00845228,0.0343314,573,1128,-0.184231,0.0909792
-644,-104,-0.09198,-0.0565186,0.00609847,-0.00272867,-0.00399623,0.00763885,-0.00426904,-0.367907,0.00696618,0.0149737,580,1128,-0.0919805,0.0565704
-637,-104,-0.0604858,-0.0543213,0.00392045,-0.00202131,-0.00325545,0.00535684,-0.00345771,-0.415535,0.0051283,0.0106632,587,1128,-0.060465,0.0543066
-630,-104,-0.0664673,-0.0484619,0.0026498,-0.00226389,-0.00281181,0.0039269,-0.003541,-0.426335,0.00431351,0.0108941,594,1128,-0.0664571,0.0484986
-623,-104,-0.0646973,-0.0345459,0.00134457,-0.00142461,-0.00225276,0.00260423,-0.00268426,-0.509848,0.00305343,0.013154,601,1128,-0.0646802,0.0345051
-616,-104,-0.0614624,-0.0401611,0.000721196,-0.000770471,-0.0016241,0.00176253,-0.00181181,-0.570147,0.00206371,0.013001,608,1128,-0.0614338,0.0402084
-609,-104,-0.0617676,-0.0716553,0.000488231,-0.000237413,-0.000885318,0.00108219,-0.000831371,-0.590926,0.00110795,0.0143444,615,1128,-0.061792,0.0717073
-602,-104,-0.0706177,-0.0664063,0.000136445,5.40217e-06,-0.000253995,0.000333234,-0.000191386,-0.659169,0.000306558,0.0131244,622,1128,-0.0705935,0.0663597
-595,-104,-0.0670776,-0.0495605,-4.28857e-06,0.000169974,3.42688e-05,0.000176471,-1.07853e-05,1.38344,0.000121402,0.0144758,629,1128,-0.0670957,0.0495965
-588,-104,-0.059021,-0.0318604,8.3841e-05,0.000186302,6.08002e-05,0.000214578,5.55653e-05,1.13549,0.000128596,0.0193646,636,1128,-0.059017,0.0319108
-581,-104,-0.0774536,-0.0395508,0.000182653,0.000202687,6.08486e-05,0.000254338,0.000131002,0.866976,0.000146864,0.026814,643,1128,-0.077479,0.0395116
-574,-104,-0.100403,-0.0670166,0.000255676,0.000223651,7.10728e-05,0.000312518,0.000166809,0.674598,0.000180569,0.0343824,650,1128,-0.10042,0.0669809
-567,-104,-0.0744019,-0.11499,0.00041708,0.000210981,1.7184e-05,0.000418503,0.000209558,0.0826173,0.000241623,0.0347248,657,1128,-0.0743936,0.11493
-560,-104,-0.154663,0.0264893,0.000587648,0.000177684,-7.6477e-05,0.00060145,0.000163883,-0.178548,0.000359031,0.0417343,664,1128,-0.154664,-0.0264724
-553,-104,-0.25769,0.00793457,0.000760964,0.000129255,-0.000204524,0.0008214,6.8819e-05,-0.287317,0.000526162,0.0447307,671,1128,-0.257681,-0.00793131
-546,-104,-0.17749,-0.0627441,0.000893146,7.11726e-05,-0.000347593,0.00102043,-5.61076e-05,-0.351012,0.000699737,0.0419633,678,1128,-0.177505,0.0627574
-539,-104,-0.0299072,-0.166016,0.00093227,1.47775e-05,-0.000455007,0.00111965,-0.000172603,-0.390653,0.00081012,0.0395086,685,1128,-0.0299215,0.166005
-532,-104,-0.057373,-0.109375,0.000761707,-1.82049e-05,-0.000477749,0.000988444,-0.000244941,-0.443116,0.00075399,0.0398616,692,1128,-0.0573494,0.109397
-525,-104,-0.0575562,0.00134277,0.000304309,2.63797e-05,-0.000422308,0.000609929,-0.00027924,-0.626448,0.000525063,0.0368978,699,1128,-0.0575723,-0.00138898
-518,-104,0,0,0,0,0,0,0,0,0,-1,706,1128,0,0
-511,-104,0,0,0,0,0,0,0,0,0,-1,713,1128,0,0
-504,-104,0,0,0,0,0,0,0,0,0,-1,720,1128,0,0
-497,-104,0,0,0,0,0,0,0,0,0,-1,727,1128,0,0
-490,-104,0,0,0,0,0,0,0,0,0,-1,734,1128,0,0
-483,-104,0,0,0,0,0,0,0,0,0,-1,741,1128,0,0
-476,-104,0,0,0,0,0,0,0,0,0,-1,748,1128,0,0
-469,-104,0,0,0,0,0,0,0,0,0,-1,755,1128,0,0
-462,-104,0,0,0,0,0,0,0,0,0,-1,762,1128,0,0
-455,-104,0,0,0,0,0,0,0,0,0,-1,769,1128,0,0
-448,-104,0,0,0,0,0,0,0,0,0,-1,776,1128,0,0
-441,-104,0,0,0,0,0,0,0,0,0,-1,783,1128,0,0
-434,-104,0,0,0,0,0,0,0,0,0,-1,790,1128,0,0
-427,-104,0,0,0,0,0,0,0,0,0,-1,797,1128,0,0
-420,-104,0,0,0,0,0,0,0,0,0,-1,804,1128,0,0
-413,-104,0,0,0,0,0,0,0,0,0,-1,811,1128,0,0
-406,-104,0,0,0,0,0,0,0,0,0,-1,818,1128,0,0
-399,-104,0,0,0,0,0,0,0,0,0,-1,825,1128,0,0
-392,-104,0,0,0,0,0,0,0,0,0,-1,832,1128,0,0
-385,-104,0,0,0,0,0,0,0,0,0,-1,839,1128,0,0
-378,-104,0,0,0,0,0,0,0,0,0,-1,846,1128,0,0
-371,-104,0,0,0,0,0,0,0,0,0,-1,853,1128,0,0
-364,-104,0,0,0,0,0,0,0,0,0,-1,860,1128,0,0
-357,-104,0,0,0,0,0,0,0,0,0,-1,867,1128,0,0
-350,-104,0,0,0,0,0,0,0,0,0,-1,874,1128,0,0
-343,-104,0,0,0,0,0,0,0,0,0,-1,881,1128,0,0
-336,-104,0,0,0,0,0,0,0,0,0,-1,888,1128,0,0
-329,-104,0,0,0,0,0,0,0,0,0,-1,895,1128,0,0
-322,-104,0,0,0,0,0,0,0,0,0,-1,902,1128,0,0
-315,-104,0,0,0,0,0,0,0,0,0,-1,909,1128,0,0
-308,-104,0,0,0,0,0,0,0,0,0,-1,916,1128,0,0
-301,-104,0,0,0,0,0,0,0,0,0,-1,923,1128,0,0
-294,-104,0,0,0,0,0,0,0,0,0,-1,930,1128,0,0
-287,-104,0,0,0,0,0,0,0,0,0,-1,937,1128,0,0
-280,-104,0,0,0,0,0,0,0,0,0,-1,944,1128,0,0
-273,-104,0,0,0,0,0,0,0,0,0,-1,951,1128,0,0
-266,-104,0,0,0,0,0,0,0,0,0,-1,958,1128,0,0
-259,-104,0,0,0,0,0,0,0,0,0,-1,965,1128,0,0
-252,-104,0,0,0,0,0,0,0,0,0,-1,972,1128,0,0
-245,-104,0,0,0,0,0,0,0,0,0,-1,979,1128,0,0
-238,-104,0,0,0,0,0,0,0,0,0,-1,986,1128,0,0
-231,-104,0,0,0,0,0,0,0,0,0,-1,993,1128,0,0
-224,-104,0,0,0,0,0,0,0,0,0,-1,1000,1128,0,0
-217,-104,0,0,0,0,0,0,0,0,0,-1,1007,1128,0,0
-210,-104,0,0,0,0,0,0,0,0,0,-1,1014,1128,0,0
-203,-104,0,0,0,0,0,0,0,0,0,-1,1021,1128,0,0
-196,-104,0,0,0,0,0,0,0,0,0,-1,1028,1128,0,0
-189,-104,0,0,0,0,0,0,0,0,0,-1,1035,1128,0,0
-182,-104,0,0,0,0,0,0,0,0,0,-1,1042,1128,0,0
-175,-104,0,0,0,0,0,0,0,0,0,-1,1049,1128,0,0
-168,-104,0,0,0,0,0,0,0,0,0,-1,1056,1128,0,0
-161,-104,0,0,0,0,0,0,0,0,0,-1,1063,1128,0,0
-154,-104,0,0,0,0,0,0,0,0,0,-1,1070,1128,0,0
-147,-104,0,0,0,0,0,0,0,0,0,-1,1077,1128,0,0
-140,-104,0,0,0,0,0,0,0,0,0,-1,1084,1128,0,0
-133,-104,0,0,0,0,0,0,0,0,0,-1,1091,1128,0,0
-126,-104,0,0,0,0,0,0,0,0,0,-1,1098,1128,0,0
-119,-104,0,0,0,0,0,0,0,0,0,-1,1105,1128,0,0
-112,-104,0,0,0,0,0,0,0,0,0,-1,1112,1128,0,0
-105,-104,0,0,0,0,0,0,0,0,0,-1,1119,1128,0,0
-98,-104,0,0,0,0,0,0,0,0,0,-1,1126,1128,0,0
-91,-104,0,0,0,0,0,0,0,0,0,-1,1133,1128,0,0
-84,-104,0,0,0,0,0,0,0,0,0,-1,1140,1128,0,0
-77,-104,0,0,0,0,0,0,0,0,0,-1,1147,1128,0,0
-70,-104,0,0,0,0,0,0,0,0,0,-1,1154,1128,0,0
-63,-104,0,0,0,0,0,0,0,0,0,-1,1161,1128,0,0
-56,-104,0,0,0,0,0,0,0,0,0,-1,1168,1128,0,0
-49,-104,0,0,0,0,0,0,0,0,0,-1,1175,1128,0,0
-42,-104,0,0,0,0,0,0,0,0,0,-1,1182,1128,0,0
-35,-104,0,0,0,0,0,0,0,0,0,-1,1189,1128,0,0
-28,-104,0,0,0,0,0,0,0,0,0,-1,1196,1128,0,0
-21,-104,0,0,0,0,0,0,0,0,0,-1,1203,1128,0,0
-14,-104,0,0,0,0,0,0,0,0,0,-1,1210,1128,0,0
-7,-104,0,0,0,0,0,0,0,0,0,-1,1217,1128,0,0
0,-104,0,0,0,0,0,0,0,0,0,-1,1224,1128,0,0
7,-104,0,0,0,0,0,0,0,0,0,-1,1231,1128,0,0
14,-104,0,0,0,0,0,0,0,0,0,-1,1238,1128,0,0
21,-104,0,0,0,0,0,0,0,0,0,-1,1245,1128,0,0
28,-104,0,0,0,0,0,0,0,0,0,-1,1252,1128,0,0
35,-104,0,0,0,0,0,0,0,0,0,-1,1259,1128,0,0
42,-104,0,0,0,0,0,0,0,0,0,-1,1266,1128,0,0
49,-104,0,0,0,0,0,0,0,0,0,-1,1273,1128,0,0
56,-104,0,0,0,0,0,0,0,0,0,-1,1280,1128,0,0
63,-104,0,0,0,0,0,0,0,0,0,-1,1287,1128,0,0
70,-104,0,0,0,0,0,0,0,0,0,-1,1294,1128,0,0
77,-104,0,0,0,0,0,0,0,0,0,-1,1301,1128,0,0
84,-104,0,0,0,0,0,0,0,0,0,-1,1308,1128,0,0
91,-104,0,0,0,0,0,0,0,0,0,-1,1315,1128,0,0
98,-104,0,0,0,0,0,0,0,0,0,-1,1322,1128,0,0
105,-104,0,0,0,0,0,0,0,0,0,-1,1329,1128,0,0
112,-104,0,0,0,0,0,0,0,0,0,-1,1336,1128,0,0
119,-104,0,0,0,0,0,0,0,0,0,-1,1343,1128,0,0
126,-104,0,0,0,0,0,0,0,0,0,-1,1350,1128,0,0
133,-104,0,0,0,0,0,0,0,0,0,-1,1357,1128,0,0
140,-104,0,0,0,0,0,0,0,0,0,-1,1364,1128,0,0
147,-104,0,0,0,0,0,0,0,0,0,-1,1371,1128,0,0
154,-104,0,0,0,0,0,0,0,0,0,-1,1378,1128,0,0
161,-104,0,0,0,0,0,0,0,0,0,-1,1385,1128,0,0
168,-104,0,0,0,0,0,0,0,0,0,-1,1392,1128,0,0
175,-104,0,0,0,0,0,0,0,0,0,-1,1399,1128,0,0
182,-104,0,0,0,0,0,0,0,0,0,-1,1406,1128,0,0
189,-104,0,0,0,0,0,0,0,0,0,-1,1413,1128,0,0
196,-104,0,0,0,0,0,0,0,0,0,-1,1420,1128,0,0
203,-104,0,0,0,0,0,0,0,0,0,-1,1427,1128,0,0
210,-104,0,0,0,0,0,0,0,0,0,-1,1434,1128,0,0
217,-104,0,0,0,0,0,0,0,0,0,-1,1441,1128,0,0
224,-104,0,0,0,0,0,0,0,0,0,-1,1448,1128,0,0
231,-104,0,0,0,0,0,0,0,0,0,-1,1455,1128,0,0
238,-104,0,0,0,0,0,0,0,0,0,-1,1462,1128,0,0
245,-104,0,0,0,0,0,0,0,0,0,-1,1469,1128,0,0
252,-104,0,0,0,0,0,0,0,0,0,-1,1476,1128,0,0
259,-104,0,0,0,0,0,0,0,0,0,-1,1483,1128,0,0
266,-104,0,0,0,0,0,0,0,0,0,-1,1490,1128,0,0
273,-104,0,0,0,0,0,0,0,0,0,-1,1497,1128,0,0
280,-104,0,0,0,0,0,0,0,0,0,-1,1504,1128,0,0
287,-104,0,0,0,0,0,0,0,0,0,-1,1511,1128,0,0
294,-104,0,0,0,0,0,0,0,0,0,-1,1518,1128,0,0
301,-104,0,0,0,0,0,0,0,0,0,-1,1525,1128,0,0
308,-104,0,0,0,0,0,0,0,0,0,-1,1532,1128,0,0
315,-104,0,0,0,0,0,0,0,0,0,-1,1539,1128,0,0
322,-104,0,0,0,0,0,0,0,0,0,-1,1546,1128,0,0
329,-104,0,0,0,0,0,0,0,0,0,-1,1553,1128,0,0
336,-104,0,0,0,0,0,0,0,0,0,-1,1560,1128,0,0
343,-104,0,0,0,0,0,0,0,0,0,-1,1567,1128,0,0
350,-104,0,0,0,0,0,0,0,0,0,-1,1574,1128,0,0
357,-104,0,0,0,0,0,0,0,0,0,-1,1581,1128,0,0
364,-104,0,0,0,0,0,0,0,0,0,-1,1588,1128,0,0
371,-104,0,0,0,0,0,0,0,0,0,-1,1595,1128,0,0
378,-104,0,0,0,0,0,0,0,0,0,-1,1602,1128,0,0
385,-104,0,0,0,0,0,0,0,0,0,-1,1609,1128,0,0
392,-104,0,0,0,0,0,0,0,0,0,-1,1616,1128,0,0
399,-104,0,0,0,0,0,0,0,0,0,-1,1623,1128,0,0
406,-104,0,0,0,0,0,0,0,0,0,-1,1630,1128,0,0
413,-104,0,0,0,0,0,0,0,0,0,-1,1637,1128,0,0
420,-104,0,0,0,0,0,0,0,0,0,-1,1644,1128,0,0
427,-104,0,0,0,0,0,0,0,0,0,-1,1651,1128,0,0
434,-104,0,0,0,0,0,0,0,0,0,-1,1658,1128,0,0
441,-104,0,0,0,0,0,0,0,0,0,-1,1665,1128,0,0
448,-104,0,0,0,0,0,0,0,0,0,-1,1672,1128,0,0
455,-104,0,0,0,0,0,0,0,0,0,-1,1679,1128,0,0
462,-104,0,0,0,0,0,0,0,0,0,-1,1686,1128,0,0
469,-104,0,0,0,0,0,0,0,0,0,-1,1693,1128,0,0
476,-104,0,0,0,0,0,0,0,0,0,-1,1700,1128,0,0
483,-104,0,0,0,0,0,0,0,0,0,-1,1707,1128,0,0
490,-104,0,0,0,0,0,0,0,0,0,-1,1714,1128,0,0
497,-104,0,0,0,0,0,0,0,0,0,-1,1721,1128,0,0
504,-104,0,0,0,0,0,0,0,0,0,-1,1728,1128,0,0
511,-104,0,0,0,0,0,0,0,0,0,-1,1735,1128,0,0
518,-104,0,0,0,0,0,0,0,0,0,-1,1742,1128,0,0
525,-104,0,0,0,0,0,0,0,0,0,-1,1749,1128,0,0
532,-104,0,0,0,0,0,0,0,0,0,-1,1756,1128,0,0
539,-104,0,0,0,0,0,0,0,0,0,-1,1763,1128,0,0
546,-104,0,0,0,0,0,0,0,0,0,-1,1770,1128,0,0
553,-104,0,0,0,0,0,0,0,0,0,-1,1777,1128,0,0
560,-104,0,0,0,0,0,0,0,0,0,-1,1784,1128,0,0
567,-104,0,0,0,0,0,0,0,0,0,-1,1791,1128,0,0
574,-104,0,0,0,0,0,0,0,0,0,-1,1798,1128,0,0
581,-104,0,0,0,0,0,0,0,0,0,-1,1805,1128,0,0
588,-104,0,0,0,0,0,0,0,0,0,-1,1812,1128,0,0
595,-104,0,0,0,0,0,0,0,0,0,-1,1819,1128,0,0
602,-104,0,0,0,0,0,0,0,0,0,-1,1826,1128,0,0
609,-104,0,0,0,0,0,0,0,0,0,-1,1833,1128,0,0
616,-104,0,0,0,0,0,0,0,0,0,-1,1840,1128,0,0
623,-104,0,0,0,0,0,0,0,0,0,-1,1847,1128,0,0
630,-104,0,0,0,0,0,0,0,0,0,-1,1854,1128,0,0
637,-104,0,0,0,0,0,0,0,0,0,-1,1861,1128,0,0
644,-104,-0.178711,-0.0427246,0.00193006,-0.00182875,-0.00386441,0.00434785,-0.00424653,-0.559069,0.00496208,0.0318112,1868,1128,-0.178653,0.0427579
651,-104,-0.165527,0.0577393,0.00105331,-0.00118547,-0.00261064,0.00277443,-0.00290658,-0.582864,0.00328023,0.033374,1875,1128,-0.165484,-0.0577046
658,-104,-0.129028,0.0163574,0.00053747,-0.000780482,-0.00160855,0.00161679,-0.00185981,-0.590991,0.00200885,0.035673,1882,1128,-0.129088,-0.0164034
665,-104,0.0128174,-0.0284424,0.000136759,-0.000526962,-0.000905796,0.000769574,-0.00115978,-0.609805,0.00112148,0.035421,1889,1128,0.0128556,0.0284848
672,-104,0.092041,0.0152588,-0.000187353,-0.000340373,-0.000469185,0.000211519,-0.000739245,-0.704574,0.000576421,0.0347607,1896,1128,0.0920296,-0.0152437
679,-104,0.0257568,0.121094,-0.000406634,-0.000216116,-0.000224696,-6.73207e-05,-0.00055543,-0.985886,0.000350011,0.0345049,1903,1128,0.0257753,-0.1211
686,-104,-0.0930176,0.0513916,-0.000535002,-0.000138309,-8.79285e-05,-0.000119693,-0.000553618,-1.36216,0.000336357,0.0322607,1910,1128,-0.093039,-0.0513341
693,-104,-0.0977783,-0.0606689,-0.000601398,-8.12108e-05,-2.57534e-05,-7.9939e-05,-0.00060267,-1.52145,0.000377962,0.0283848,1917,1128,-0.097832,0.0606642
700,-104,-0.0759277,-0.0393066,-0.000594875,-2.26244e-05,5.74003e-05,-1.69236e-05,-0.000600576,1.4718,0.000394864,0.0192645,1924,1128,-0.075885,0.0393087
707,-104,-0.0693359,0.03479,-0.000557246,3.09755e-05,9.75543e-05,4.67324e-05,-0.000573003,1.41066,0.000398494,0.0160875,1931,1128,-0.0693857,-0.0347346
714,-104,-0.071167,-0.0167236,-0.000548406,5.92957e-05,7.70951e-05,6.89237e-05,-0.000558034,1.44655,0.000396997,0.0210309,1938,1128,-0.0711981,0.0167534
721,-104,-0.106201,-0.067627,-0.000533227,8.15455e-05,-2.50828e-05,8.25672e-05,-0.000534249,-1.53009,0.000386638,0.018329,1945,1128,-0.106253,0.0676321
728,-104,-0.0528564,-0.114014,-0.000381285,5.63304e-05,-0.00011583,8.50979e-05,-0.000410052,-1.32736,0.000305708,0.0218171,1952,1128,-0.052817,0.114013
735,-104,-0.0583496,-0.0754395,-7.71093e-05,-9.24136e-05,-0.000117649,3.31363e-05,-0.000202659,-0.752923,0.000147398,0.0193962,1959,1128,-0.0583365,0.0754845
742,-104,-0.0935059,-0.0279541,0.000133276,-0.000497837,3.97534e-05,0.00013577,-0.000500332,0.0626593,0.000386836,0.012805,1966,1128,-0.0934806,0.0279435
749,-104,-0.102539,-0.0415039,-1.24873e-06,-0.000842565,0.000134466,1.97201e-05,-0.000863534,0.154696,0.000582374,0.0159604,1973,1128,-0.102491,0.0415601
756,-104,-0.0863037,-0.0742188,-0.000348037,-0.00155677,-0.000101427,-0.000339585,-0.00156522,-0.0831371,0.000950719,0.0154239,1980,1128,-0.0862754,0.0742471
763,-104,-0.0789795,-0.0697021,-0.00107935,-0.00193167,-0.000156674,-0.00105146,-0.00195956,-0.176151,0.00113236,0.0127676,1987,1128,-0.0790044,0.069762
770,-104,-0.0865479,-0.0495605,-0.00182088,-0.00272283,-0.000279046,-0.00174153,-0.00280218,-0.277049,0.00163368,0.0100879,1994,1128,-0.0865736,0.0496074
777,-104,-0.0639648,-0.0516357,-0.00302305,-0.00359609,-0.000516876,-0.00271859,-0.00390055,-0.53232,0.0023095,0.0169998,2001,1128,-0.0639868,0.0515972
784,-104,-0.0249023,-0.0362549,-0.00480404,-0.00448082,-0.000902871,-0.00372521,-0.00555965,-0.873956,0.00327116,0.0357719,2008,1128,-0.0249079,0.0362238
791,-104,0.145996,-0.11145,-0.00728686,-0.0052537,-0.00144539,-0.00450319,-0.00803737,-1.09188,0.00465161,0.0418324,2015,1128,0.145965,0.111467
798,-104,0.348389,0.494141,0,0,0,0,0,0,0,-1,2022,1128,0.348361,-0.494108
805,-104,0.0991211,0.718628,-0.0149824,-0.00561133,-0.0030798,-0.00468977,-0.0159039,-1.28005,0.00943617,0.0439272,2029,1128,0.0990702,-0.718609
812,-104,-0.124268,0.57373,-0.0205065,-0.00452647,-0.00428428,-0.00345032,-0.0215826,-1.3247,0.0133874,0.0441723,2036,1128,-0.124251,-0.573778
-700,-111,0,0,0,0,0,0,0,0,0,-1,524,1135,0,0
-693,-111,-2.56122,0.694702,0,0,0,0,0,0,0,-1,531,1135,-2.5612,-0.694712
-686,-111,-2.74744,0.665527,0,0,0,0,0,0,0,-1,538,1135,-2.74741,-0.665577
-679,-111,-1.1792,-0.265381,0,0,0,0,0,0,0,-1,545,1135,-1.17922,0.265324
-672,-111,-0.110535,0.412231,0.017012,-0.00183543,-0.00319878,0.0175401,-0.00236352,-0.163618,0.0125556,0.0461333,552,1135,-0.110525,-0.412194
-665,-111,-0.297058,0.789917,0.0130582,-0.00253679,-0.00432269,0.0141762,-0.00365483,-0.253096,0.0108757,0.0463174,559,1135,-0.297075,-0.789974
-658,-111,-0.352478,0.544312,0.00989035,-0.00276107,-0.00473224,0.0114646,-0.00433528,-0.321141,0.0094265,0.0422085,566,1135,-0.352472,-0.54429
-651,-111,-0.230774,-0.0302734,0.00737217,-0.00264637,-0.00460971,0.00917041,-0.00444461,-0.371942,0.00801693,0.0383307,573,1135,-0.230746,0.0302869
-644,-111,-0.0785522,-0.0428467,0.00538619,-0.00232349,-0.00412724,0.00717882,-0.00411612,-0.409755,0.00660056,0.0240073,580,1135,-0.0785544,0.042867
-637,-111,-0.0639648,-0.0452881,0.00359589,-0.00157474,-0.00339437,0.00527737,-0.00325623,-0.459941,0.00497272,0.00833234,587,1135,-0.0639847,0.0453072
-630,-111,-0.0662231,-0.0430908,0.00255957,-0.00187277,-0.00292301,0.00401156,-0.00332476,-0.46104,0.00424181,0.0116781,594,1135,-0.066228,0.043072
-623,-111,-0.0713501,-0.0362549,0.001368,-0.00122702,-0.00233828,0.00274464,-0.00260366,-0.5321,0.0030882,0.0118774,601,1135,-0.0713526,0.0362954
-616,-111,-0.0635376,-0.0611572,0.000813398,-0.00073835,-0.00168367,0.00189136,-0.00181631,-0.569489,0.00214077,0.012672,608,1135,-0.0635493,0.0610988
-609,-111,-0.0568848,-0.0625,0.000566739,-0.000283237,-0.000961391,0.00119289,-0.000909386,-0.577284,0.00121742,0.0143412,615,1135,-0.0568984,0.0625245
-602,-111,-0.0545654,-0.0637207,0.000144233,-3.72309e-05,-0.000298784,0.000365757,-0.000258755,-0.637988,0.000362323,0.0137403,622,1135,-0.0545442,0.0637511
-595,-111,-0.0584106,-0.0429688,-4.37059e-06,0.000174408,3.08977e-06,0.000174461,-4.42398e-06,1.55352,0.00011781,0.0118429,629,1135,-0.0584037,0.0429859
-588,-111,-0.06604,0.0172119,9.19567e-05,0.000216888,2.49143e-05,0.000221673,8.71715e-05,1.38104,0.000128952,0.0178555,636,1135,-0.0660369,-0.0172718
-581,-111,-0.0721436,0.0229492,0.000169287,0.000266897,1.95003e-05,0.000270649,0.000165535,1.38073,0.000157552,0.0268984,643,1135,-0.0721517,-0.0229631
-574,-111,-0.0792847,-0.0327148,0.000208281,0.000337925,2.68704e-05,0.000343273,0.000202932,1.37431,0.000199284,0.0377504,650,1135,-0.079286,0.0326643
-567,-111,-0.0263062,-0.0247803,0.000333459,0.000382814,-2.4604e-05,0.000392984,0.00032329,-1.17884,0.000242125,0.036424,657,1135,-0.0263248,0.0247782
-560,-111,-0.0438232,0.0112305,0.000442194,0.000419182,-0.000116707,0.000547961,0.000313415,-0.736263,0.000317456,0.037391,664,1135,-0.0438155,-0.0112687
-553,-111,-0.210815,0.0322266,0.000516864,0.00044322,-0.000240701,0.000723542,0.000236541,-0.709497,0.000425998,0.0402183,671,1135,-0.210789,-0.0321711
-546,-111,-0.138123,-0.0253906,0.000503022,0.000450476,-0.000376059,0.000853725,9.97732e-05,-0.750523,0.000538979,0.0366174,678,1135,-0.138096,0.0254199
-539,-111,-0.0564575,-0.155273,0.000323645,0.000439821,-0.000475211,0.000860481,-9.70151e-05,-0.846215,0.000608575,0.0382493,685,1135,-0.0564757,0.155245
-532,-111,-0.102905,-0.0919189,-0.000150614,0.000410072,-0.000490339,0.000694552,-0.000435093,-1.04509,0.00065791,0.0387841,692,1135,-0.102897,0.0919125
-525,-111,-0.109985,0.0205078,-0.00100487,0.000380578,-0.000451974,0.000514986,-0.00113928,-1.28175,0.000977498,0.0364549,699,1135,-0.109975,-0.0204906
-518,-111,0,0,0,0,0,0,0,0,0,-1,706,1135,0,0
-511,-111,0,0,0,0,0,0,0,0,0,-1,713,1135,0,0
-504,-111,0,0,0,0,0,0,0,0,0,-1,720,1135,0,0
-497,-111,0,0,0,0,0,0,0,0,0,-1,727,1135,0,0
-490,-111,0,0,0,0,0,0,0,0,0,-1,734,1135,0,0
-483,-111,0,0,0,0,0,0,0,0,0,-1,741,1135,0,0
-476,-111,0,0,0,0,0,0,0,0,0,-1,748,1135,0,0
-469,-111,0,0,0,0,0,0,0,0,0,-1,755,1135,0,0
-462,-111,0,0,0,0,0,0,0,0,0,-1,762,1135,0,0
-455,-111,0,0,0,0,0,0,0,0,0,-1,769,1135,0,0
-448,-111,0,0,0,0,0,0,0,0,0,-1,776,1135,0,0
-441,-111,0,0,0,0,0,0,0,0,0,-1,783,1135,0,0
-434,-111,0,0,0,0,0,0,0,0,0,-1,790,1135,0,0
-427,-111,0,0,0,0,0,0,0,0,0,-1,797,1135,0,0
-420,-111,0,0,0,0,0,0,0,0,0,-1,804,1135,0,0
-413,-111,0,0,0,0,0,0,0,0,0,-1,811,1135,0,0
-406,-111,0,0,0,0,0,0,0,0,0,-1,818,1135,0,0
-399,-111,0,0,0,0,0,0,0,0,0,-1,825,1135,0,0
-392,-111,0,0,0,0,0,0,0,0,0,-1,832,1135,0,0
-385,-111,0,0,0,0,0,0,0,0,0,-1,839,1135,0,0
-378,-111,0,0,0,0,0,0,0,0,0,-1,846,1135,0,0
-371,-111,0,0,0,0,0,0,0,0,0,-1,853,1135,0,0
-364,-111,0,0,0,0,0,0,0,0,0,-1,860,1135,0,0
-357,-111,0,0,0,0,0,0,0,0,0,-1,867,1135,0,0
-350,-111,0,0,0,0,0,0,0,0,0,-1,874,1135,0,0
-343,-111,0,0,0,0,0,0,0,0,0,-1,881,1135,0,0
-336,-111,0,0,0,0,0,0,0,0,0,-1,888,1135,0,0
-329,-111,0,0,0,0,0,0,0,0,0,-1,895,1135,0,0
-322,-111,0,0,0,0,0,0,0,0,0,-1,902,1135,0,0
-315,-111,0,0,0,0,0,0,0,0,0,-1,909,1135,0,0
-308,-111,0,0,0,0,0,0,0,0,0,-1,916,1135,0,0
-301,-111,0,0,0,0,0,0,0,0,0,-1,923,1135,0,0
-294,-111,0,0,0,0,0,0,0,0,0,-1,930,1135,0,0
-287,-111,0,0,0,0,0,0,0,0,0,-1,937,1135,0,0
-280,-111,0,0,0,0,0,0,0,0,0,-1,944,1135,0,0
-273,-111,0,0,0,0,0,0,0,0,0,-1,951,1135,0,0
-266,-111,0,0,0,0,0,0,0,0,0,-1,958,1135,0,0
-259,-111,0,0,0,0,0,0,0,0,0,-1,965,1135,0,0
-252,-111,0,0,0,0,0,0,0,0,0,-1,972,1135,0,0
-245,-111,0,0,0,0,0,0,0,0,0,-1,979,1135,0,0
-238,-111,0,0,0,0,0,0,0,0,0,-1,986,1135,0,0
-231,-111,0,0,0,0,0,0,0,0,0,-1,993,1135,0,0
-224,-111,0,0,0,0,0,0,0,0,0,-1,1000,1135,0,0
-217,-111,0,0,0,0,0,0,0,0,0,-1,1007,1135,0,0
-210,-111,0,0,0,0,0,0,0,0,0,-1,1014,1135,0,0
-203,-111,0,0,0,0,0,0,0,0,0,-1,1021,1135,0,0
-196,-111,0,0,0,0,0,0,0,0,0,-1,1028,1135,0,0
-189,-111,0,0,0,0,0,0,0,0,0,-1,1035,1135,0,0
-182,-111,0,0,0,0,0,0,0,0,0,-1,1042,1135,0,0
-175,-111,0,0,0,0,0,0,0,0,0,-1,1049,1135,0,0
-168,-111,0,0,0,0,0,0,0,0,0,-1,1056,1135,0,0
-161,-111,0,0,0,0,0,0,0,0,0,-1,1063,1135,0,0
-154,-111,0,0,0,0,0,0,0,0,0,-1,1070,1135,0,0
-147,-111,0,0,0,0,0,0,0,0,0,-1,1077,1135,0,0
-140,-111,0,0,0,0,0,0,0,0,0,-1,1084,1135,0,0
-133,-111,0,0,0,0,0,0,0,0,0,-1,1091,1135,0,0
-126,-111,0,0,0,0,0,0,0,0,0,-1,1098,1135,0,0
-119,-111,0,0,0,0,0,0,0,0,0,-1,1105,1135,0,0
-112,-111,0,0,0,0,0,0,0,0,0,-1,1112,1135,0,0
-105,-111,0,0,0,0,0,0,0,0,0,-1,1119,1135,0,0
-98,-111,0,0,0,0,0,0,0,0,0,-1,1126,1135,0,0
-91,-111,0,0,0,0,0,0,0,0,0,-1,1133,1135,0,0
-84,-111,0,0,0,0,0,0,0,0,0,-1,1140,1135,0,0
-77,-111,0,0,0,0,0,0,0,0,0,-1,1147,1135,0,0
-70,-111,0,0,0,0,0,0,0,0,0,-1,1154,1135,0,0
-63,-111,0,0,0,0,0,0,0,0,0,-1,1161,1135,0,0
-56,-111,0,0,0,0,0,0,0,0,0,-1,1168,1135,0,0
-49,-111,0,0,0,0,0,0,0,0,0,-1,1175,1135,0,0
-42,-111,0,0,0,0,0,0,0,0,0,-1,1182,1135,0,0
-35,-111,0,0,0,0,0,0,0,0,0,-1,1189,1135,0,0
-28,-111,0,0,0,0,0,0,0,0,0,-1,1196,1135,0,0
-21,-111,0,0,0,0,0,0,0,0,0,-1,1203,1135,0,0
-14,-111,0,0,0,0,0,0,0,0,0,-1,1210,1135,0,0
-7,-111,0,0,0,0,0,0,0,0,0,-1,1217,1135,0,0
0,-111,0,0,0,0,0,0,0,0,0,-1,1224,1135,0,0
7,-111,0,0,0,0,0,0,0,0,0,-1,1231,1135,0,0
14,-111,0,0,0,0,0,0,0,0,0,-1,1238,1135,0,0
21,-111,0,0,0,0,0,0,0,0,0,-1,1245,1135,0,0
28,-111,0,0,0,0,0,0,0,0,0,-1,1252,1135,0,0
35,-111,0,0,0,0,0,0,0,0,0,-1,1259,1135,0,0
42,-111,0,0,0,0,0,0,0,0,0,-1,1266,1135,0,0
49,-111,0,0,0,0,0,0,0,0,0,-1,1273,1135,0,0
56,-111,0,0,0,0,0,0,0,0,0,-1,1280,1135,0,0
63,-111,0,0,0,0,0,0,0,0,0,-1,1287,1135,0,0
70,-111,0,0,0,0,0,0,0,0,0,-1,1294,1135,0,0
77,-111,0,0,0,0,0,0,0,0,0,-1,1301,1135,0,0
84,-111,0,0,0,0,0,0,0,0,0,-1,1308,1135,0,0
91,-111,0,0,0,0,0,0,0,0,0,-1,1315,1135,0,0
98,-111,0,0,0,0,0,0,0,0,0,-1,1322,1135,0,0
105,-111,0,0,0,0,0,0,0,0,0,-1,1329,1135,0,0
112,-111,0,0,0,0,0,0,0,0,0,-1,1336,1135,0,0
119,-111,0,0,0,0,0,0,0,0,0,-1,1343,1135,0,0
126,-111,0,0,0,0,0,0,0,0,0,-1,1350,1135,0,0
133,-111,0,0,0,0,0,0,0,0,0,-1,1357,1135,0,0
140,-111,0,0,0,0,0,0,0,0,0,-1,1364,1135,0,0
147,-111,0,0,0,0,0,0,0,0,0,-1,1371,1135,0,0
154,-111,0,0,0,0,0,0,0,0,0,-1,1378,1135,0,0
161,-111,0,0,0,0,0,0,0,0,0,-1,1385,1135,0,0
168,-111,0,0,0,0,0,0,0,0,0,-1,1392,1135,0,0
175,-111,0,0,0,0,0,0,0,0,0,-1,1399,1135,0,0
182,-111,0,0,0,0,0,0,0,0,0,-1,1406,1135,0,0
189,-111,0,0,0,0,0,0,0,0,0,-1,1413,1135,0,0
196,-111,0,0,0,0,0,0,0,0,0,-1,1420,1135,0,0
203,-111,0,0,0,0,0,0,0,0,0,-1,1427,1135,0,0
210,-111,0,0,0,0,0,0,0,0,0,-1,1434,1135,0,0
217,-111,0,0,0,0,0,0,0,0,0,-1,1441,1135,0,0
224,-111,0,0,0,0,0,0,0,0,0,-1,1448,1135,0,0
231,-111,0,0,0,0,0,0,0,0,0,-1,1455,1135,0,0
238,-111,0,0,0,0,0,0,0,0,0,-1,1462,1135,0,0
245,-111,0,0,0,0,0,0,0,0,0,-1,1469,1135,0,0
252,-111,0,0,0,0,0,0,0,0,0,-1,1476,1135,0,0
259,-111,0,0,0,0,0,0,0,0,0,-1,1483,1135,0,0
266,-111,0,0,0,0,0,0,0,0,0,-1,1490,1135,0,0
273,-111,0,0,0,0,0,0,0,0,0,-1,1497,1135,0,0
280,-111,0,0,0,0,0,0,0,0,0,-1,1504,1135,0,0
287,-111,0,0,0,0,0,0,0,0,0,-1,1511,1135,0,0
294,-111,0,0,0,0,0,0,0,0,0,-1,1518,1135,0,0
301,-111,0,0,0,0,0,0,0,0,0,-1,1525,1135,0,0
308,-111,0,0,0,0,0,0,0,0,0,-1,1532,1135,0,0
315,-111,0,0,0,0,0,0,0,0,0,-1,1539,1135,0,0
322,-111,0,0,0,0,0,0,0,0,0,-1,1546,1135,0,0
329,-111,0,0,0,0,0,0,0,0,0,-1,1553,1135,0,0
336,-111,0,0,0,0,0,0,0,0,0,-1,1560,1135,0,0
343,-111,0,0,0,0,0,0,0,0,0,-1,1567,1135,0,0
350,-111,0,0,0,0,0,0,0,0,0,-1,1574,1135,0,0
357,-111,0,0,0,0,0,0,0,0,0,-1,1581,1135,0,0
364,-111,0,0,0,0,0,0,0,0,0,-1,1588,1135,0,0
371,-111,0,0,0,0,0,0,0,0,0,-1,1595,1135,0,0
378,-111,0,0,0,0,0,0,0,0,0,-1,1602,1135,0,0
385,-111,0,0,0,0,0,0,0,0,0,-1,1609,1135,0,0
392,-111,0,0,0,0,0,0,0,0,0,-1,1616,1135,0,0
399,-111,0,0,0,0,0,0,0,0,0,-1,1623,1135,0,0
406,-111,0,0,0,0,0,0,0,0,0,-1,1630,1135,0,0
413,-111,0,0,0,0,0,0,0,0,0,-1,1637,1135,0,0
420,-111,0,0,0,0,0,0,0,0,0,-1,1644,1135,0,0
427,-111,0,0,0,0,0,0,0,0,0,-1,1651,1135,0,0
434,-111,0,0,0,0,0,0,0,0,0,-1,1658,1135,0,0
441,-111,0,0,0,0,0,0,0,0,0,-1,1665,1135,0,0
448,-111,0,0,0,0,0,0,0,0,0,-1,1672,1135,0,0
455,-111,0,0,0,0,0,0,0,0,0,-1,1679,1135,0,0
462,-111,0,0,0,0,0,0,0,0,0,-1,1686,1135,0,0
469,-111,0,0,0,0,0,0,0,0,0,-1,1693,1135,0,0
476,-111,0,0,0,0,0,0,0,0,0,-1,1700,1135,0,0
483,-111,0,0,0,0,0,0,0,0,0,-1,1707,1135,0,0
490,-111,0,0,0,0,0,0,0,0,0,-1,1714,1135,0,0
497,-111,0,0,0,0,0,0,0,0,0,-1,1721,1135,0,0
504,-111,0,0,0,0,0,0,0,0,0,-1,1728,1135,0,0
511,-111,0,0,0,0,0,0,0,0,0,-1,1735,1135,0,0
518,-111,0,0,0,0,0,0,0,0,0,-1,1742,1135,0,0
525,-111,0,0,0,0,0,0,0,0,0,-1,1749,1135,0,0
532,-111,0,0,0,0,0,0,0,0,0,-1,1756,1135,0,0
539,-111,0,0,0,0,0,0,0,0,0,-1,1763,1135,0,0
546,-111,0,0,0,0,0,0,0,0,0,-1,1770,1135,0,0
553,-111,0,0,0,0,0,0,0,0,0,-1,1777,1135,0,0
560,-111,0,0,0,0,0,0,0,0,0,-1,1784,1135,0,0
567,-111,0,0,0,0,0,0,0,0,0,-1,1791,1135,0,0
574,-111,0,0,0,0,0,0,0,0,0,-1,1798,1135,0,0
581,-111,0,0,0,0,0,0,0,0,0,-1,1805,1135,0,0
588,-111,0,0,0,0,0,0,0,0,0,-1,1812,1135,0,0
595,-111,0,0,0,0,0,0,0,0,0,-1,1819,1135,0,0
602,-111,0,0,0,0,0,0,0,0,0,-1,1826,1135,0,0
609,-111,0,0,0,0,0,0,0,0,0,-1,1833,1135,0,0
616,-111,0,0,0,0,0,0,0,0,0,-1,1840,1135,0,0
623,-111,0,0,0,0,0,0,0,0,0,-1,1847,1135,0,0
630,-111,0,0,0,0,0,0,0,0,0,-1,1854,1135,0,0
637,-111,0,0,0,0,0,0,0,0,0,-1,1861,1135,0,0
644,-111,-0.137207,0.149414,0.00110668,-0.00197483,-0.00330096,0.00320876,-0.00407692,-0.567047,0.00421633,0.0331263,1868,1135,-0.137151,-0.149468
651,-111,-0.18103,0.0799561,0.000529019,-0.00142163,-0.00222255,0.00198083,-0.00287344,-0.578635,0.00281836,0.0357975,1875,1135,-0.180985,-0.079979
658,-111,-0.0534668,-0.0428467,0.000229823,-0.00104282,-0.00133278,0.00107039,-0.00188339,-0.562679,0.00172676,0.03806,1882,1135,-0.0534724,0.0428419
665,-111,0.127319,-0.0150146,-3.48064e-05,-0.000783893,-0.000730735,0.000411782,-0.00123048,-0.548577,0.000986652,0.0353762,1889,1135,0.127329,0.0150589
672,-111,0.193726,-0.0675049,-0.000269846,-0.000578939,-0.000367661,-2.55709e-05,-0.000823214,-0.586435,0.000540488,0.0339107,1896,1135,0.193717,0.0675569
679,-111,0.0786133,0.0281982,-0.000431238,-0.000429866,-0.000173939,-0.000256611,-0.000604492,-0.78737,0.000350327,0.0343126,1903,1135,0.0786023,-0.0282366
686,-111,-0.0830078,0.00732422,-0.000531134,-0.000324873,-7.61042e-05,-0.000299832,-0.000556174,-1.25293,0.000321434,0.0318775,1910,1135,-0.0830287,-0.00734001
693,-111,-0.109619,-0.0496826,-0.000585605,-0.000233284,-4.56178e-05,-0.000227473,-0.000591416,-1.4441,0.000344471,0.0271003,1917,1135,-0.109607,0.0496278
700,-111,-0.0966797,-0.0473633,-0.000558764,-0.000154967,1.55469e-05,-0.000154369,-0.000559362,1.53237,0.000333578,0.0182737,1924,1135,-0.0966188,0.0473691
707,-111,-0.0532227,0.0356445,-0.000515273,-7.13511e-05,3.41733e-05,-6.87359e-05,-0.000517889,1.49442,0.000324781,0.024448,1931,1135,-0.0532193,-0.0356597
714,-111,-0.0651855,0.00231934,-0.000525632,-6.10214e-06,7.36572e-06,-5.99772e-06,-0.000525737,1.55662,0.000348509,0.0144016,1938,1135,-0.0651747,-0.00230881
721,-111,-0.0749512,-0.0559082,-0.000536981,3.82529e-05,-7.96401e-05,4.90753e-05,-0.000547803,-1.43573,0.000382611,0.0118325,1945,1135,-0.0749584,0.0558705
728,-111,-0.0692139,-0.0780029,-0.000393995,2.21065e-05,-0.00014639,6.84475e-05,-0.000440336,-1.26422,0.000318832,0.0161044,1952,1135,-0.0692343,0.078049
735,-111,-0.0788574,-0.0639648,-7.5198e-05,-0.000130639,-0.000112571,1.30155e-05,-0.000218852,-0.664676,0.000150428,0.0158926,1959,1135,-0.0788893,0.063924
742,-111,-0.0706787,-0.0407715,0.000195745,-0.00054359,0.000124543,0.000216161,-0.000564005,0.162481,0.000465113,0.0106571,1966,1135,-0.0706572,0.0407611
749,-111,-0.0904541,-0.0373535,0.000189203,-0.000964012,0.000322091,0.000273064,-0.00104787,0.25471,0.000805188,0.0137019,1973,1135,-0.0904766,0.0373141
756,-111,-0.0927734,-0.0574951,-4.5785e-05,-0.00172247,9.66814e-05,-4.02285e-05,-0.00172802,0.0574087,0.00113884,0.014232,1980,1135,-0.0927213,0.0575549
763,-111,-0.0847168,-0.0562744,-0.000732696,-0.00222025,-3.00907e-05,-0.000732088,-0.00222086,-0.0202173,0.00130679,0.0116887,1987,1135,-0.0847069,0.0563063
770,-111,-0.0953369,-0.0380859,-0.00135671,-0.00314145,-0.000201931,-0.00133415,-0.00316402,-0.111269,0.0018342,0.00973833,1994,1135,-0.0953479,0.0380801
777,-111,-0.0917969,-0.0541992,-0.00244984,-0.00418106,-0.000579868,-0.00227356,-0.00435733,-0.295117,0.0025165,0.0216691,2001,1135,-0.0918423,0.0541609
784,-111,-0.105835,0.176636,-0.00414809,-0.00526967,-0.00123083,-0.00335632,-0.00606144,-0.57164,0.0035063,0.0362249,2008,1135,-0.105778,-0.176575
791,-111,0.03125,0.27002,-0.00662098,-0.00628548,-0.00222118,-0.00422572,-0.00868073,-0.823088,0.00501241,0.038698,2015,1135,0.0312579,-0.269973
798,-111,0.659424,0.951782,0,0,0,0,0,0,0,-1,2022,1135,0.659398,-0.951741
805,-111,0.90625,1.00439,-0.0147657,-0.00722094,-0.00559313,-0.00424692,-0.0177397,-1.08209,0.0106957,0.0452052,2029,1135,0.906309,-1.00444
812,-111,0.351196,0.740234,-0.0209513,-0.00647551,-0.00830836,-0.00269452,-0.0247323,-1.14372,0.0156675,0.0439617,2036,1135,0.35123,-0.740235
-700,-118,0,0,0,0,0,0,0,0,0,-1,524,1142,0,0
-693,-118,-1.97083,1.50085,0.0241092,0.00244836,0.00774156,0.0265916,-3.39793e-05,0.310294,0.017739,0.0496626,531,1142,-1.97085,-1.50091
-686,-118,-1.99384,1.81873,0,0,0,0,0,0,0,-1,538,1142,-1.99385,-1.81875
-679,-118,0.112,2.0094,0,0,0,0,0,0,0,-1,545,1142,0.111984,-2.00941
-672,-118,-0.1521,1.10266,0,0,0,0,0,0,0,-1,552,1142,-0.152129,-1.10268
-665,-118,-0.204651,0.931641,0.0107586,-0.000526529,-0.00493688,0.0126135,-0.00238139,-0.359397,0.00930491,0.046488,559,1142,-0.204628,-0.931677
-658,-118,-0.285583,0.622803,0.00851287,-0.000950637,-0.0052777,0.0108694,-0.00330716,-0.419944,0.00856421,0.0422292,566,1142,-0.285587,-0.622819
-651,-118,-0.0737305,0.265747,0.00661425,-0.00114745,-0.00505192,0.00910387,-0.00363707,-0.457877,0.00757833,0.0397632,573,1142,-0.0737441,-0.265737
-644,-118,-0.055481,-0.0227051,0.00501292,-0.00116124,-0.00446416,0.00735343,-0.00350176,-0.48289,0.0063974,0.0257089,580,1142,-0.0554982,0.0227206
-637,-118,-0.06073,-0.0285645,0.00352353,-0.000652121,-0.00368449,0.00567062,-0.00279921,-0.527629,0.00498285,0.0124977,587,1142,-0.0607356,0.0286182
-630,-118,-0.0643921,-0.0369873,0.00261907,-0.0011832,-0.00309171,0.00434739,-0.00291152,-0.509741,0.00421818,0.016413,594,1142,-0.0644107,0.0369583
-623,-118,-0.0582886,-0.0634766,0.0014941,-0.000802741,-0.00242587,0.00302965,-0.00233829,-0.564325,0.00310774,0.0154672,601,1142,-0.0582712,0.0634399
-616,-118,-0.0541382,-0.0849609,0.000968295,-0.000547044,-0.00175403,0.0021213,-0.00170005,-0.581523,0.00221073,0.0135499,608,1142,-0.054159,0.0849672
-609,-118,-0.0548706,-0.0714111,0.000656587,-0.00021208,-0.00103318,0.00134302,-0.000898508,-0.586421,0.0013026,0.0124295,615,1142,-0.0548966,0.071439
-602,-118,-0.0644531,-0.0535889,0.000165185,-2.07579e-05,-0.000355846,0.000440004,-0.000295577,-0.65762,0.000427408,0.011433,622,1142,-0.0644684,0.0536185
-595,-118,-0.0819092,-0.0466309,1.09471e-05,0.000217095,-4.52401e-05,0.000226587,1.45593e-06,-1.364,0.000150575,0.00954757,629,1142,-0.0819396,0.0466054
-588,-118,-0.0742188,-0.0285645,0.000107944,0.000273586,-2.112e-05,0.000276237,0.000105293,-1.44595,0.00016098,0.0134215,636,1142,-0.0742085,0.0285762
-581,-118,-0.0583496,-0.0645752,0.000160801,0.000344573,-2.69871e-05,0.000348454,0.00015692,-1.42796,0.00020151,0.0314575,643,1142,-0.0583691,0.0645867
-574,-118,-0.0454102,-0.123169,0.00016218,0.000440031,-2.1198e-05,0.000441639,0.000160572,-1.49509,0.000258124,0.040722,650,1142,-0.0454086,0.123113
-567,-118,0.00714111,-0.0793457,0.000236401,0.000506924,-6.69411e-05,0.000522583,0.000220743,-1.34102,0.000302922,0.0414983,657,1142,0.00713664,0.0793681
-560,-118,0.0549316,-0.0727539,0.000272959,0.000569069,-0.000148435,0.000630665,0.000211364,-1.17746,0.000370653,0.0354757,664,1142,0.0549616,0.0727018
-553,-118,0.0453491,0.000976563,0.00023976,0.000613103,-0.000256822,0.000743927,0.000108936,-1.09966,0.000463923,0.0360443,671,1142,0.0453751,-0.000977691
-546,-118,0.000244141,-0.0731201,7.53641e-05,0.000628838,-0.000373476,0.000816932,-0.00011273,-1.10425,0.000585825,0.0353835,678,1142,0.000232517,0.0731274
-539,-118,-0.0679321,-0.0805664,-0.000314157,0.000610497,-0.000454362,0.000796391,-0.000500051,-1.18244,0.000754991,0.0369402,685,1142,-0.0679457,0.0806227
-532,-118,-0.170044,-0.11731,-0.00106734,0.000548864,-0.000459279,0.00067026,-0.00118874,-1.31239,0.00108712,0.038154,692,1142,-0.170074,0.117287
-525,-118,-0.183594,-0.0970459,-0.00226447,0.000444738,-0.000428397,0.000510865,-0.0023306,-1.41765,0.00174907,0.0398306,699,1142,-0.183605,0.0970882
-518,-118,0,0,0,0,0,0,0,0,0,-1,706,1142,0,0
-511,-118,0,0,0,0,0,0,0,0,0,-1,713,1142,0,0
-504,-118,0,0,0,0,0,0,0,0,0,-1,720,1142,0,0
-497,-118,0,0,0,0,0,0,0,0,0,-1,727,1142,0,0
-490,-118,0,0,0,0,0,0,0,0,0,-1,734,1142,0,0
-483,-118,0,0,0,0,0,0,0,0,0,-1,741,1142,0,0
-476,-118,0,0,0,0,0,0,0,0,0,-1,748,1142,0,0
-469,-118,0,0,0,0,0,0,0,0,0,-1,755,1142,0,0
-462,-118,0,0,0,0,0,0,0,0,0,-1,762,1142,0,0
-455,-118,0,0,0,0,0,0,0,0,0,-1,769,1142,0,0
-448,-118,0,0,0,0,0,0,0,0,0,-1,776,1142,0,0
-441,-118,0,0,0,0,0,0,0,0,0,-1,783,1142,0,0
-434,-118,0,0,0,0,0,0,0,0,0,-1,790,1142,0,0
-427,-118,0,0,0,0,0,0,0,0,0,-1,797,1142,0,0
-420,-118,0,0,0,0,0,0,0,0,0,-1,804,1142,0,0
-413,-118,0,0,0,0,0,0,0,0,0,-1,811,1142,0,0
-406,-118,0,0,0,0,0,0,0,0,0,-1,818,1142,0,0
-399,-118,0,0,0,0,0,0,0,0,0,-1,825,1142,0,0
-392,-118,0,0,0,0,0,0,0,0,0,-1,832,1142,0,0
-385,-118,0,0,0,0,0,0,0,0,0,-1,839,1142,0,0
-378,-118,0,0,0,0,0,0,0,0,0,-1,846,1142,0,0
-371,-118,0,0,0,0,0,0,0,0,0,-1,853,1142,0,0
-364,-118,0,0,0,0,0,0,0,0,0,-1,860,1142,0,0
-357,-118,0,0,0,0,0,0,0,0,0,-1,867,1142,0,0
-350,-118,0,0,0,0,0,0,0,0,0,-1,874,1142,0,0
-343,-118,0,0,0,0,0,0,0,0,0,-1,881,1142,0,0
-336,-118,0,0,0,0,0,0,0,0,0,-1,888,1142,0,0
-329,-118,0,0,0,0,0,0,0,0,0,-1,895,1142,0,0
-322,-118,0,0,0,0,0,0,0,0,0,-1,902,1142,0,0
-315,-118,0,0,0,0,0,0,0,0,0,-1,909,1142,0,0
-308,-118,0,0,0,0,0,0,0,0,0,-1,916,1142,0,0
-301,-118,0,0,0,0,0,0,0,0,0,-1,923,1142,0,0
-294,-118,0,0,0,0,0,0,0,0,0,-1,930,1142,0,0
-287,-118,0,0,0,0,0,0,0,0,0,-1,937,1142,0,0
-280,-118,0,0,0,0,0,0,0,0,0,-1,944,1142,0,0
-273,-118,0,0,0,0,0,0,0,0,0,-1,951,1142,0,0
-266,-118,0,0,0,0,0,0,0,0,0,-1,958,1142,0,0
-259,-118,0,0,0,0,0,0,0,0,0,-1,965,1142,0,0
-252,-118,0,0,0,0,0,0,0,0,0,-1,972,1142,0,0
-245,-118,0,0,0,0,0,0,0,0,0,-1,979,1142,0,0
-238,-118,0,0,0,0,0,0,0,0,0,-1,986,1142,0,0
-231,-118,0,0,0,0,0,0,0,0,0,-1,993,1142,0,0
-224,-118,0,0,0,0,0,0,0,0,0,-1,1000,1142,0,0
-217,-118,0,0,0,0,0,0,0,0,0,-1,1007,1142,0,0
-210,-118,0,0,0,0,0,0,0,0,0,-1,1014,1142,0,0
-203,-118,0,0,0,0,0,0,0,0,0,-1,1021,1142,0,0
-196,-118,0,0,0,0,0,0,0,0,0,-1,1028,1142,0,0
-189,-118,0,0,0,0,0,0,0,0,0,-1,1035,1142,0,0
-182,-118,0,0,0,0,0,0,0,0,0,-1,1042,1142,0,0
-175,-118,0,0,0,0,0,0,0,0,0,-1,1049,1142,0,0
-168,-118,0,0,0,0,0,0,0,0,0,-1,1056,1142,0,0
-161,-118,0,0,0,0,0,0,0,0,0,-1,1063,1142,0,0
-154,-118,0,0,0,0,0,0,0,0,0,-1,1070,1142,0,0
-147,-118,0,0,0,0,0,0,0,0,0,-1,1077,1142,0,0
-140,-118,0,0,0,0,0,0,0,0,0,-1,1084,1142,0,0
-133,-118,0,0,0,0,0,0,0,0,0,-1,1091,1142,0,0
-126,-118,0,0,0,0,0,0,0,0,0,-1,1098,1142,0,0
-119,-118,0,0,0,0,0,0,0,0,0,-1,1105,1142,0,0
-112,-118,0,0,0,0,0,0,0,0,0,-1,1112,1142,0,0
-105,-118,0,0,0,0,0,0,0,0,0,-1,1119,1142,0,0
-98,-118,0,0,0,0,0,0,0,0,0,-1,1126,1142,0,0
-91,-118,0,0,0,0,0,0,0,0,0,-1,1133,1142,0,0
-84,-118,0,0,0,0,0,0,0,0,0,-1,1140,1142,0,0
-77,-118,0,0,0,0,0,0,0,0,0,-1,1147,1142,0,0
-70,-118,0,0,0,0,0,0,0,0,0,-1,1154,1142,0,0
-63,-118,0,0,0,0,0,0,0,0,0,-1,1161,1142,0,0
-56,-118,0,0,0,0,0,0,0,0,0,-1,1168,1142,0,0
-49,-118,0,0,0,0,0,0,0,0,0,-1,1175,1142,0,0
-42,-118,0,0,0,0,0,0,0,0,0,-1,1182,1142,0,0
-35,-118,0,0,0,0,0,0,0,0,0,-1,1189,1142,0,0
-28,-118,0,0,0,0,0,0,0,0,0,-1,1196,1142,0,0
-21,-118,0,0,0,0,0,0,0,0,0,-1,1203,1142,0,0
-14,-118,0,0,0,0,0,0,0,0,0,-1,1210,1142,0,0
-7,-118,0,0,0,0,0,0,0,0,0,-1,1217,1142,0,0
0,-118,0,0,0,0,0,0,0,0,0,-1,1224,1142,0,0
7,-118,0,0,0,0,0,0,0,0,0,-1,1231,1142,0,0
14,-118,0,0,0,0,0,0,0,0,0,-1,1238,1142,0,0
21,-118,0,0,0,0,0,0,0,0,0,-1,1245,1142,0,0
28,-118,0,0,0,0,0,0,0,0,0,-1,1252,1142,0,0
35,-118,0,0,0,0,0,0,0,0,0,-1,1259,1142,0,0
42,-118,0,0,0,0,0,0,0,0,0,-1,1266,1142,0,0
49,-118,0,0,0,0,0,0,0,0,0,-1,1273,1142,0,0
56,-118,0,0,0,0,0,0,0,0,0,-1,1280,1142,0,0
63,-118,0,0,0,0,0,0,0,0,0,-1,1287,1142,0,0
70,-118,0,0,0,0,0,0,0,0,0,-1,1294,1142,0,0
77,-118,0,0,0,0,0,0,0,0,0,-1,1301,1142,0,0
84,-118,0,0,0,0,0,0,0,0,0,-1,1308,1142,0,0
91,-118,0,0,0,0,0,0,0,0,0,-1,1315,1142,0,0
98,-118,0,0,0,0,0,0,0,0,0,-1,1322,1142,0,0
105,-118,0,0,0,0,0,0,0,0,0,-1,1329,1142,0,0
112,-118,0,0,0,0,0,0,0,0,0,-1,1336,1142,0,0
119,-118,0,0,0,0,0,0,0,0,0,-1,1343,1142,0,0
126,-118,0,0,0,0,0,0,0,0,0,-1,1350,1142,0,0
133,-118,0,0,0,0,0,0,0,0,0,-1,1357,1142,0,0
140,-118,0,0,0,0,0,0,0,0,0,-1,1364,1142,0,0
147,-118,0,0,0,0,0,0,0,0,0,-1,1371,1142,0,0
154,-118,0,0,0,0,0,0,0,0,0,-1,1378,1142,0,0
161,-118,0,0,0,0,0,0,0,0,0,-1,1385,1142,0,0
168,-118,0,0,0,0,0,0,0,0,0,-1,1392,1142,0,0
175,-118,0,0,0,0,0,0,0,0,0,-1,1399,1142,0,0
182,-118,0,0,0,0,0,0,0,0,0,-1,1406,1142,0,0
189,-118,0,0,0,0,0,0,0,0,0,-1,1413,1142,0,0
196,-118,0,0,0,0,0,0,0,0,0,-1,1420,1142,0,0
203,-118,0,0,0,0,0,0,0,0,0,-1,1427,1142,0,0
210,-118,0,0,0,0,0,0,0,0,0,-1,1434,1142,0,0
217,-118,0,0,0,0,0,0,0,0,0,-1,1441,1142,0,0
224,-118,0,0,0,0,0,0,0,0,0,-1,1448,1142,0,0
231,-118,0,0,0,0,0,0,0,0,0,-1,1455,1142,0,0
238,-118,0,0,0,0,0,0,0,0,0,-1,1462,1142,0,0
245,-118,0,0,0,0,0,0,0,0,0,-1,1469,1142,0,0
252,-118,0,0,0,0,0,0,0,0,0,-1,1476,1142,0,0
259,-118,0,0,0,0,0,0,0,0,0,-1,1483,1142,0,0
266,-118,0,0,0,0,0,0,0,0,0,-1,1490,1142,0,0
273,-118,0,0,0,0,0,0,0,0,0,-1,1497,1142,0,0
280,-118,0,0,0,0,0,0,0,0,0,-1,1504,1142,0,0
287,-118,0,0,0,0,0,0,0,0,0,-1,1511,1142,0,0
294,-118,0,0,0,0,0,0,0,0,0,-1,1518,1142,0,0
301,-118,0,0,0,0,0,0,0,0,0,-1,1525,1142,0,0
308,-118,0,0,0,0,0,0,0,0,0,-1,1532,1142,0,0
315,-118,0,0,0,0,0,0,0,0,0,-1,1539,1142,0,0
322,-118,0,0,0,0,0,0,0,0,0,-1,1546,1142,0,0
329,-118,0,0,0,0,0,0,0,0,0,-1,1553,1142,0,0
336,-118,0,0,0,0,0,0,0,0,0,-1,1560,1142,0,0
343,-118,0,0,0,0,0,0,0,0,0,-1,1567,1142,0,0
350,-118,0,0,0,0,0,0,0,0,0,-1,1574,1142,0,0
357,-118,0,0,0,0,0,0,0,0,0,-1,1581,1142,0,0
364,-118,0,0,0,0,0,0,0,0,0,-1,1588,1142,0,0
371,-118,0,0,0,0,0,0,0,0,0,-1,1595,1142,0,0
378,-118,0,0,0,0,0,0,0,0,0,-1,1602,1142,0,0
385,-118,0,0,0,0,0,0,0,0,0,-1,1609,1142,0,0
392,-118,0,0,0,0,0,0,0,0,0,-1,1616,1142,0,0
399,-118,0,0,0,0,0,0,0,0,0,-1,1623,1142,0,0
406,-118,0,0,0,0,0,0,0,0,0,-1,1630,1142,0,0
413,-118,0,0,0,0,0,0,0,0,0,-1,1637,1142,0,0
420,-118,0,0,0,0,0,0,0,0,0,-1,1644,1142,0,0
427,-118,0,0,0,0,0,0,0,0,0,-1,1651,1142,0,0
434,-118,0,0,0,0,0,0,0,0,0,-1,1658,1142,0,0
441,-118,0,0,0,0,0,0,0,0,0,-1,1665,1142,0,0
448,-118,0,0,0,0,0,0,0,0,0,-1,1672,1142,0,0
455,-118,0,0,0,0,0,0,0,0,0,-1,1679,1142,0,0
462,-118,0,0,0,0,0,0,0,0,0,-1,1686,1142,0,0
469,-118,0,0,0,0,0,0,0,0,0,-1,1693,1142,0,0
476,-118,0,0,0,0,0,0,0,0,0,-1,1700,1142,0,0
483,-118,0,0,0,0,0,0,0,0,0,-1,1707,1142,0,0
490,-118,0,0,0,0,0,0,0,0,0,-1,1714,1142,0,0
497,-118,0,0,0,0,0,0,0,0,0,-1,1721,1142,0,0
504,-118,0,0,0,0,0,0,0,0,0,-1,1728,1142,0,0
511,-118,0,0,0,0,0,0,0,0,0,-1,1735,1142,0,0
518,-118,0,0,0,0,0,0,0,0,0,-1,1742,1142,0,0
525,-118,0,0,0,0,0,0,0,0,0,-1,1749,1142,0,0
532,-118,0,0,0,0,0,0,0,0,0,-1,1756,1142,0,0
539,-118,0,0,0,0,0,0,0,0,0,-1,1763,1142,0,0
546,-118,0,0,0,0,0,0,0,0,0,-1,1770,1142,0,0
553,-118,0,0,0,0,0,0,0,0,0,-1,1777,1142,0,0
560,-118,0,0,0,0,0,0,0,0,0,-1,1784,1142,0,0
567,-118,0,0,0,0,0,0,0,0,0,-1,1791,1142,0,0
574,-118,0,0,0,0,0,0,0,0,0,-1,1798,1142,0,0
581,-118,0,0,0,0,0,0,0,0,0,-1,1805,1142,0,0
588,-118,0,0,0,0,0,0,0,0,0,-1,1812,1142,0,0
595,-118,0,0,0,0,0,0,0,0,0,-1,1819,1142,0,0
602,-118,0,0,0,0,0,0,0,0,0,-1,1826,1142,0,0
609,-118,0,0,0,0,0,0,0,0,0,-1,1833,1142,0,0
616,-118,0,0,0,0,0,0,0,0,0,-1,1840,1142,0,0
623,-118,0,0,0,0,0,0,0,0,0,-1,1847,1142,0,0
630,-118,0,0,0,0,0,0,0,0,0,-1,1854,1142,0,0
637,-118,0,0,0,0,0,0,0,0,0,-1,1861,1142,0,0
644,-118,-0.0372314,0.0916748,6.96096e-05,-0.00150672,-0.00295453,0.0023393,-0.00377641,-0.655051,0.00356325,0.0343346,1868,1142,-0.037265,-0.0916364
651,-118,-0.0543213,-0.0743408,-0.000143375,-0.0012027,-0.00199889,0.00139484,-0.00274091,-0.655886,0.00242957,0.0354951,1875,1142,-0.05438,0.0743709
658,-118,0.00439453,-0.0952148,-0.000169575,-0.000999955,-0.00119379,0.000679161,-0.00184869,-0.618045,0.00151063,0.0377352,1882,1142,0.00442831,0.0952264
665,-118,0.11145,-0.0997314,-0.000257564,-0.000842446,-0.000667212,0.000178482,-0.00127849,-0.578856,0.000917626,0.0369576,1889,1142,0.111455,0.0997532
672,-118,0.0804443,-0.188477,-0.000372133,-0.000697725,-0.000352275,-0.000146856,-0.000923001,-0.568952,0.000572693,0.03677,1896,1142,0.080435,0.1885
679,-118,-0.0198975,-0.126343,-0.000454394,-0.000580248,-0.000186268,-0.000320711,-0.000713931,-0.622501,0.000412896,0.0352286,1903,1142,-0.0198755,0.12635
686,-118,-0.0809326,-0.0466309,-0.000513555,-0.00048604,-0.00010911,-0.000389824,-0.000609771,-0.84811,0.000356577,0.029735,1910,1142,-0.0809866,0.0466043
693,-118,-0.0980225,-0.026123,-0.00054787,-0.000396993,-9.1616e-05,-0.000353754,-0.00059111,-1.12983,0.000343476,0.0241711,1917,1142,-0.0980747,0.0261605
700,-118,-0.086792,-0.0496826,-0.00049622,-0.000320466,-4.48076e-05,-0.000309702,-0.000506984,-1.33503,0.000295096,0.0130534,1924,1142,-0.0868198,0.0496524
707,-118,-0.03479,-0.00183105,-0.000448643,-0.000217233,-4.28015e-05,-0.00020957,-0.000456306,-1.39364,0.000263739,0.0356356,1931,1142,-0.0347842,0.00177045
714,-118,-0.0701904,-0.0994873,-0.000481295,-0.000113861,-6.6874e-05,-0.000102069,-0.000493088,-1.39625,0.000300537,0.0234356,1938,1142,-0.0701996,0.0995471
721,-118,-0.0780029,-0.0526123,-0.000524381,-4.3123e-05,-0.000128316,-1.10484e-05,-0.000556455,-1.32585,0.000367343,0.00879815,1945,1142,-0.0780211,0.0526247
728,-118,-0.0895996,-0.0430908,-0.000405132,-3.21127e-05,-0.000161921,2.8368e-05,-0.000465613,-1.21332,0.000320283,0.0118061,1952,1142,-0.0896503,0.0431348
735,-118,-0.0921631,-0.0454102,-9.00028e-05,-0.000159349,-7.63984e-05,-4.07774e-05,-0.000208574,-0.572375,0.000127647,0.0124112,1959,1142,-0.0921323,0.0454003
742,-118,-0.0839844,-0.0335693,0.000225551,-0.000544788,0.00023631,0.000292264,-0.000611502,0.275151,0.000532529,0.0190146,1966,1142,-0.08395,0.0336211
749,-118,-0.0722656,-0.0306396,0.000357785,-0.0010252,0.000535371,0.000540812,-0.00120823,0.329413,0.00103402,0.0188537,1973,1142,-0.0722568,0.0306317
756,-118,-0.0941162,-0.0263672,0.000263032,-0.00185164,0.000400199,0.000336235,-0.00192485,0.180917,0.00140875,0.0152847,1980,1142,-0.0941225,0.0263571
763,-118,-0.0795898,-0.0460205,-0.000341462,-0.00252784,0.000320273,-0.000295512,-0.00257379,0.142498,0.00162633,0.00889999,1987,1142,-0.0795936,0.0460705
770,-118,-0.0834961,-0.027832,-0.000805316,-0.00363554,0.000211185,-0.000789645,-0.00365121,0.074071,0.00221828,0.0107858,1994,1142,-0.0834376,0.0278889
777,-118,-0.0904541,-0.029541,-0.00172671,-0.00494407,-0.000144775,-0.00172021,-0.00495057,-0.0448773,0.0029022,0.0221958,2001,1142,-0.0904111,0.0295252
784,-118,-0.106567,0.0870361,0,0,0,0,0,0,0,-1,2008,1142,-0.106626,-0.086977
791,-118,-0.593384,0.285034,0,0,0,0,0,0,0,-1,2015,1142,-0.593385,-0.285071
798,-118,-0.223755,0.0891113,0,0,0,0,0,0,0,-1,2022,1142,-0.223707,-0.0890615
805,-118,1.86584,1.35352,0,0,0,0,0,0,0,-1,2029,1142,1.8658,-1.35355
812,-118,-1.04944,-0.492676,0,0,0,0,0,0,0,-1,2036,1142,-1.04948,0.492693
-700,-125,0,0,0,0,0,0,0,0,0,-1,524,1149,0,0
-693,-125,-1.47321,2.11438,0,0,0,0,0,0,0,-1,531,1149,-1.47321,-2.11432
-686,-125,-0.319397,2.93616,0,0,0,0,0,0,0,-1,538,1149,-0.31939,-2.93621
-679,-125,-0.0877075,2.24719,0.0142166,0.00773258,-0.00511216,0.0170281,0.00492108,-0.502815,0.0101187,0.0441754,545,1149,-0.0877049,-2.24719
-672,-125,0.165039,1.54089,0,0,0,0,0,0,0,-1,552,1149,0.16503,-1.54093
-665,-125,0.0881958,0.907104,0.0104184,0.00371406,-0.00660479,0.014473,-0.000340556,-0.55057,0.00976415,0.0399266,559,1149,0.0881705,-0.907147
-658,-125,-0.189514,0.723633,0.00864228,0.00230994,-0.00638391,0.012602,-0.00164982,-0.555193,0.00900184,0.0408762,566,1149,-0.189519,-0.723644
-651,-125,0.0547485,0.442871,0.0069963,0.00129704,-0.0057766,0.0105879,-0.00229457,-0.556259,0.00793483,0.0361983,573,1149,0.0547374,-0.442902
-644,-125,-0.0756226,-0.000366211,0.00549043,0.000621195,-0.00493739,0.00856083,-0.00244921,-0.556343,0.00667512,0.0231988,580,1149,-0.0756205,0.000314138
-637,-125,-0.0527954,-0.0332031,0.0040294,0.000584215,-0.00400349,0.00666516,-0.00205155,-0.582234,0.00526233,0.0120037,587,1149,-0.0527701,0.0331642
-630,-125,-0.041626,-0.0325928,0.00306809,-0.00035041,-0.00323261,0.00501551,-0.00229784,-0.542206,0.00431845,0.0145152,594,1149,-0.0416257,0.0326478
-623,-125,-0.0449829,-0.0534668,0.00190216,-0.000260438,-0.00248095,0.0035272,-0.00188548,-0.57989,0.00317257,0.013946,601,1149,-0.0449841,0.0535213
-616,-125,-0.0559692,-0.0670166,0.0012938,-0.000277987,-0.00180757,0.00247893,-0.00146312,-0.580336,0.00230099,0.0124204,608,1149,-0.0559485,0.0670551
-609,-125,-0.0637817,-0.0646973,0.000871328,-9.03475e-05,-0.00107914,0.00157191,-0.000790928,-0.575814,0.0013888,0.0110933,615,1149,-0.0637905,0.0647299
-602,-125,-0.0653687,-0.0531006,0.000296848,6.75384e-05,-0.000441795,0.000638624,-0.000274237,-0.658439,0.000540856,0.0101207,622,1149,-0.0653983,0.0531579
-595,-125,-0.0686646,-0.0426025,7.78572e-05,0.000273892,-0.000110856,0.000323849,2.79005e-05,-1.1474,0.000207226,0.0088444,629,1149,-0.0686388,0.0426365
-588,-125,-0.0782471,-0.052002,0.000123853,0.000351133,-4.93365e-05,0.00036138,0.000113605,-1.366,0.000213383,0.0141594,636,1149,-0.0782753,0.0519825
-581,-125,-0.0925903,-0.105591,0.000160921,0.000457761,-6.79791e-05,0.000472588,0.000146094,-1.35604,0.000279397,0.0322058,643,1149,-0.0926012,0.105556
-574,-125,-0.0631104,-0.196411,0.000130897,0.00059046,-7.09433e-05,0.000601162,0.000120195,-1.42107,0.000367324,0.0389789,650,1149,-0.0631102,0.196391
-567,-125,-0.0206909,-0.104736,0.000156234,0.000693379,-0.000119656,0.000718828,0.000130785,-1.36123,0.00044212,0.038734,657,1149,-0.020692,0.104717
-560,-125,0.0496826,-0.132568,0.000125249,0.000795071,-0.000203016,0.000851799,6.85217e-05,-1.29832,0.000546459,0.0363249,664,1149,0.0496532,0.132551
-553,-125,-6.10352e-05,-0.0605469,-3.39047e-06,0.00087006,-0.000311983,0.000970049,-0.000103379,-1.26064,0.000683769,0.0363831,671,1149,-9.12388e-05,0.0605546
-546,-125,-0.0460815,0.0032959,-0.000296244,0.000899517,-0.000431351,0.00103888,-0.000435605,-1.2583,0.000874721,0.0352175,678,1149,-0.0460572,-0.00330058
-539,-125,0.0213623,0.0388184,-0.000855022,0.000870399,-0.000522297,0.00101618,-0.00100081,-1.2986,0.00116452,0.0366345,685,1149,0.0213361,-0.0388475
-532,-125,-0.0631104,-0.0722656,-0.00181911,0.000766401,-0.00055066,0.000878794,-0.0019315,-1.36946,0.00166004,0.0353114,692,1149,-0.0630877,0.0722225
-525,-125,-0.12085,-0.143799,-0.00326406,0.000557116,-0.000555329,0.000636186,-0.00334313,-1.42936,0.0024683,0.0377569,699,1149,-0.120846,0.143808
-518,-125,0,0,0,0,0,0,0,0,0,-1,706,1149,0,0
-511,-125,0,0,0,0,0,0,0,0,0,-1,713,1149,0,0
-504,-125,0,0,0,0,0,0,0,0,0,-1,720,1149,0,0
-497,-125,0,0,0,0,0,0,0,0,0,-1,727,1149,0,0
-490,-125,0,0,0,0,0,0,0,0,0,-1,734,1149,0,0
-483,-125,0,0,0,0,0,0,0,0,0,-1,741,1149,0,0
-476,-125,0,0,0,0,0,0,0,0,0,-1,748,1149,0,0
-469,-125,0,0,0,0,0,0,0,0,0,-1,755,1149,0,0
-462,-125,0,0,0,0,0,0,0,0,0,-1,762,1149,0,0
-455,-125,0,0,0,0,0,0,0,0,0,-1,769,1149,0,0
-448,-125,0,0,0,0,0,0,0,0,0,-1,776,1149,0,0
-441,-125,0,0,0,0,0,0,0,0,0,-1,783,1149,0,0
-434,-125,0,0,0,0,0,0,0,0,0,-1,790,1149,0,0
-427,-125,0,0,0,0,0,0,0,0,0,-1,797,1149,0,0
-420,-125,0,0,0,0,0,0,0,0,0,-1,804,1149,0,0
-413,-125,0,0,0,0,0,0,0,0,0,-1,811,1149,0,0
-406,-125,0,0,0,0,0,0,0,0,0,-1,818,1149,0,0
-399,-125,0,0,0,0,0,0,0,0,0,-1,825,1149,0,0
-392,-125,0,0,0,0,0,0,0,0,0,-1,832,1149,0,0
-385,-125,0,0,0,0,0,0,0,0,0,-1,839,1149,0,0
-378,-125,0,0,0,0,0,0,0,0,0,-1,846,1149,0,0
-371,-125,0,0,0,0,0,0,0,0,0,-1,853,1149,0,0
-364,-125,0,0,0,0,0,0,0,0,0,-1,860,1149,0,0
-357,-125,0,0,0,0,0,0,0,0,0,-1,867,1149,0,0
-350,-125,0,0,0,0,0,0,0,0,0,-1,874,1149,0,0
-343,-125,0,0,0,0,0,0,0,0,0,-1,881,1149,0,0
-336,-125,0,0,0,0,0,0,0,0,0,-1,888,1149,0,0
-329,-125,0,0,0,0,0,0,0,0,0,-1,895,1149,0,0
-322,-125,0,0,0,0,0,0,0,0,0,-1,902,1149,0,0
-315,-125,0,0,0,0,0,0,0,0,0,-1,909,1149,0,0
-308,-125,0,0,0,0,0,0,0,0,0,-1,916,1149,0,0
-301,-125,0,0,0,0,0,0,0,0,0,-1,923,1149,0,0
-294,-125,0,0,0,0,0,0,0,0,0,-1,930,1149,0,0
-287,-125,0,0,0,0,0,0,0,0,0,-1,937,1149,0,0
-280,-125,0,0,0,0,0,0,0,0,0,-1,944,1149,0,0
-273,-125,0,0,0,0,0,0,0,0,0,-1,951,1149,0,0
-266,-125,0,0,0,0,0,0,0,0,0,-1,958,1149,0,0
-259,-125,0,0,0,0,0,0,0,0,0,-1,965,1149,0,0
-252,-125,0,0,0,0,0,0,0,0,0,-1,972,1149,0,0
-245,-125,0,0,0,0,0,0,0,0,0,-1,979,1149,0,0
-238,-125,0,0,0,0,0,0,0,0,0,-1,986,1149,0,0
-231,-125,0,0,0,0,0,0,0,0,0,-1,993,1149,0,0
-224,-125,0,0,0,0,0,0,0,0,0,-1,1000,1149,0,0
-217,-125,0,0,0,0,0,0,0,0,0,-1,1007,1149,0,0
-210,-125,0,0,0,0,0,0,0,0,0,-1,1014,1149,0,0
-203,-125,0,0,0,0,0,0,0,0,0,-1,1021,1149,0,0
-196,-125,0,0,0,0,0,0,0,0,0,-1,1028,1149,0,0
-189,-125,0,0,0,0,0,0,0,0,0,-1,1035,1149,0,0
-182,-125,0,0,0,0,0,0,0,0,0,-1,1042,1149,0,0
-175,-125,0,0,0,0,0,0,0,0,0,-1,1049,1149,0,0
-168,-125,0,0,0,0,0,0,0,0,0,-1,1056,1149,0,0
-161,-125,0,0,0,0,0,0,0,0,0,-1,1063,1149,0,0
-154,-125,0,0,0,0,0,0,0,0,0,-1,1070,1149,0,0
-147,-125,0,0,0,0,0,0,0,0,0,-1,1077,1149,0,0
-140,-125,0,0,0,0,0,0,0,0,0,-1,1084,1149,0,0
-133,-125,0,0,0,0,0,0,0,0,0,-1,1091,1149,0,0
-126,-125,0,0,0,0,0,0,0,0,0,-1,1098,1149,0,0
-119,-125,0,0,0,0,0,0,0,0,0,-1,1105,1149,0,0
-112,-125,0,0,0,0,0,0,0,0,0,-1,1112,1149,0,0
-105,-125,0,0,0,0,0,0,0,0,0,-1,1119,1149,0,0
-98,-125,0,0,0,0,0,0,0,0,0,-1,1126,1149,0,0
-91,-125,0,0,0,0,0,0,0,0,0,-1,1133,1149,0,0
-84,-125,0,0,0,0,0,0,0,0,0,-1,1140,1149,0,0
-77,-125,0,0,0,0,0,0,0,0,0,-1,1147,1149,0,0
-70,-125,0,0,0,0,0,0,0,0,0,-1,1154,1149,0,0
-63,-125,0,0,0,0,0,0,0,0,0,-1,1161,1149,0,0
-56,-125,0,0,0,0,0,0,0,0,0,-1,1168,1149,0,0
-49,-125,0,0,0,0,0,0,0,0,0,-1,1175,1149,0,0
-42,-125,0,0,0,0,0,0,0,0,0,-1,1182,1149,0,0
-35,-125,0,0,0,0,0,0,0,0,0,-1,1189,1149,0,0
-28,-125,0,0,0,0,0,0,0,0,0,-1,1196,1149,0,0
-21,-125,0,0,0,0,0,0,0,0,0,-1,1203,1149,0,0
-14,-125,0,0,0,0,0,0,0,0,0,-1,1210,1149,0,0
-7,-125,0,0,0,0,0,0,0,0,0,-1,1217,1149,0,0
0,-125,0,0,0,0,0,0,0,0,0,-1,1224,1149,0,0
7,-125,0,0,0,0,0,0,0,0,0,-1,1231,1149,0,0
14,-125,0,0,0,0,0,0,0,0,0,-1,1238,1149,0,0
21,-125,0,0,0,0,0,0,0,0,0,-1,1245,1149,0,0
28,-125,0,0,0,0,0,0,0,0,0,-1,1252,1149,0,0
35,-125,0,0,0,0,0,0,0,0,0,-1,1259,1149,0,0
42,-125,0,0,0,0,0,0,0,0,0,-1,1266,1149,0,0
49,-125,0,0,0,0,0,0,0,0,0,-1,1273,1149,0,0
56,-125,0,0,0,0,0,0,0,0,0,-1,1280,1149,0,0
63,-125,0,0,0,0,0,0,0,0,0,-1,1287,1149,0,0
70,-125,0,0,0,0,0,0,0,0,0,-1,1294,1149,0,0
77,-125,0,0,0,0,0,0,0,0,0,-1,1301,1149,0,0
84,-125,0,0,0,0,0,0,0,0,0,-1,1308,1149,0,0
91,-125,0,0,0,0,0,0,0,0,0,-1,1315,1149,0,0
98,-125,0,0,0,0,0,0,0,0,0,-1,1322,1149,0,0
105,-125,0,0,0,0,0,0,0,0,0,-1,1329,1149,0,0
112,-125,0,0,0,0,0,0,0,0,0,-1,1336,1149,0,0
119,-125,0,0,0,0,0,0,0,0,0,-1,1343,1149,0,0
126,-125,0,0,0,0,0,0,0,0,0,-1,1350,1149,0,0
133,-125,0,0,0,0,0,0,0,0,0,-1,1357,1149,0,0
140,-125,0,0,0,0,0,0,0,0,0,-1,1364,1149,0,0
147,-125,0,0,0,0,0,0,0,0,0,-1,1371,1149,0,0
154,-125,0,0,0,0,0,0,0,0,0,-1,1378,1149,0,0
161,-125,0,0,0,0,0,0,0,0,0,-1,1385,1149,0,0
168,-125,0,0,0,0,0,0,0,0,0,-1,1392,1149,0,0
175,-125,0,0,0,0,0,0,0,0,0,-1,1399,1149,0,0
182,-125,0,0,0,0,0,0,0,0,0,-1,1406,1149,0,0
189,-125,0,0,0,0,0,0,0,0,0,-1,1413,1149,0,0
196,-125,0,0,0,0,0,0,0,0,0,-1,1420,1149,0,0
203,-125,0,0,0,0,0,0,0,0,0,-1,1427,1149,0,0
210,-125,0,0,0,0,0,0,0,0,0,-1,1434,1149,0,0
217,-125,0,0,0,0,0,0,0,0,0,-1,1441,1149,0,0
224,-125,0,0,0,0,0,0,0,0,0,-1,1448,1149,0,0
231,-125,0,0,0,0,0,0,0,0,0,-1,1455,1149,0,0
238,-125,0,0,0,0,0,0,0,0,0,-1,1462,1149,0,0
245,-125,0,0,0,0,0,0,0,0,0,-1,1469,1149,0,0
252,-125,0,0,0,0,0,0,0,0,0,-1,1476,1149,0,0
259,-125,0,0,0,0,0,0,0,0,0,-1,1483,1149,0,0
266,-125,0,0,0,0,0,0,0,0,0,-1,1490,1149,0,0
273,-125,0,0,0,0,0,0,0,0,0,-1,1497,1149,0,0
280,-125,0,0,0,0,0,0,0,0,0,-1,1504,1149,0,0
287,-125,0,0,0,0,0,0,0,0,0,-1,1511,1149,0,0
294,-125,0,0,0,0,0,0,0,0,0,-1,1518,1149,0,0
301,-125,0,0,0,0,0,0,0,0,0,-1,1525,1149,0,0
308,-125,0,0,0,0,0,0,0,0,0,-1,1532,1149,0,0
315,-125,0,0,0,0,0,0,0,0,0,-1,1539,1149,0,0
322,-125,0,0,0,0,0,0,0,0,0,-1,1546,1149,0,0
329,-125,0,0,0,0,0,0,0,0,0,-1,1553,1149,0,0
336,-125,0,0,0,0,0,0,0,0,0,-1,1560,1149,0,0
343,-125,0,0,0,0,0,0,0,0,0,-1,1567,1149,0,0
350,-125,0,0,0,0,0,0,0,0,0,-1,1574,1149,0,0
357,-125,0,0,0,0,0,0,0,0,0,-1,1581,1149,0,0
364,-125,0,0,0,0,0,0,0,0,0,-1,1588,1149,0,0
371,-125,0,0,0,0,0,0,0,0,0,-1,1595,1149,0,0
378,-125,0,0,0,0,0,0,0,0,0,-1,1602,1149,0,0
385,-125,0,0,0,0,0,0,0,0,0,-1,1609,1149,0,0
392,-125,0,0,0,0,0,0,0,0,0,-1,1616,1149,0,0
399,-125,0,0,0,0,0,0,0,0,0,-1,1623,1149,0,0
406,-125,0,0,0,0,0,0,0,0,0,-1,1630,1149,0,0
413,-125,0,0,0,0,0,0,0,0,0,-1,1637,1149,0,0
420,-125,0,0,0,0,0,0,0,0,0,-1,1644,1149,0,0
427,-125,0,0,0,0,0,0,0,0,0,-1,1651,1149,0,0
434,-125,0,0,0,0,0,0,0,0,0,-1,1658,1149,0,0
441,-125,0,0,0,0,0,0,0,0,0,-1,1665,1149,0,0
448,-125,0,0,0,0,0,0,0,0,0,-1,1672,1149,0,0
455,-125,0,0,0,0,0,0,0,0,0,-1,1679,1149,0,0
462,-125,0,0,0,0,0,0,0,0,0,-1,1686,1149,0,0
469,-125,0,0,0,0,0,0,0,0,0,-1,1693,1149,0,0
476,-125,0,0,0,0,0,0,0,0,0,-1,1700,1149,0,0
483,-125,0,0,0,0,0,0,0,0,0,-1,1707,1149,0,0
490,-125,0,0,0,0,0,0,0,0,0,-1,1714,1149,0,0
497,-125,0,0,0,0,0,0,0,0,0,-1,1721,1149,0,0
504,-125,0,0,0,0,0,0,0,0,0,-1,1728,1149,0,0
511,-125,0,0,0,0,0,0,0,0,0,-1,1735,1149,0,0
518,-125,0,0,0,0,0,0,0,0,0,-1,1742,1149,0,0
525,-125,0,0,0,0,0,0,0,0,0,-1,1749,1149,0,0
532,-125,0,0,0,0,0,0,0,0,0,-1,1756,1149,0,0
539,-125,0,0,0,0,0,0,0,0,0,-1,1763,1149,0,0
546,-125,0,0,0,0,0,0,0,0,0,-1,1770,1149,0,0
553,-125,0,0,0,0,0,0,0,0,0,-1,1777,1149,0,0
560,-125,0,0,0,0,0,0,0,0,0,-1,1784,1149,0,0
567,-125,0,0,0,0,0,0,0,0,0,-1,1791,1149,0,0
574,-125,0,0,0,0,0,0,0,0,0,-1,1798,1149,0,0
581,-125,0,0,0,0,0,0,0,0,0,-1,1805,1149,0,0
588,-125,0,0,0,0,0,0,0,0,0,-1,1812,1149,0,0
595,-125,0,0,0,0,0,0,0,0,0,-1,1819,1149,0,0
602,-125,0,0,0,0,0,0,0,0,0,-1,1826,1149,0,0
609,-125,0,0,0,0,0,0,0,0,0,-1,1833,1149,0,0
616,-125,0,0,0,0,0,0,0,0,0,-1,1840,1149,0,0
623,-125,0,0,0,0,0,0,0,0,0,-1,1847,1149,0,0
630,-125,0,0,0,0,0,0,0,0,0,-1,1854,1149,0,0
637,-125,0,0,0,0,0,0,0,0,0,-1,1861,1149,0,0
644,-125,0.0317383,-0.0960693,-0.000968325,-0.000735104,-0.00257496,0.00172589,-0.00342931,-0.808026,0.00303003,0.0344006,1868,1149,0.0317317,0.0960643
651,-125,-0.0373535,-0.0159912,-0.000849418,-0.000707008,-0.00177991,0.00100312,-0.00255955,-0.80539,0.00212133,0.0343181,1875,1149,-0.0373437,0.0160478
658,-125,-0.158691,-0.0603027,-0.000626282,-0.00072407,-0.00109079,0.000416709,-0.00176706,-0.763001,0.00133874,0.0384118,1882,1149,-0.158666,0.0603037
665,-125,-0.0823975,-0.181519,-0.00054157,-0.000727755,-0.000659232,3.11098e-05,-0.00130043,-0.715255,0.00087751,0.0389249,1889,1149,-0.0824122,0.181495
672,-125,-0.0915527,-0.293579,-0.000532026,-0.000704718,-0.000400557,-0.000208614,-0.00102813,-0.67924,0.000627549,0.0384023,1896,1149,-0.0915044,0.293573
679,-125,-0.0894775,-0.212158,-0.000529403,-0.000672557,-0.000264365,-0.000327096,-0.000874864,-0.653193,0.000510431,0.0349824,1903,1149,-0.0894417,0.212207
686,-125,-0.124512,-0.0634766,-0.000538081,-0.000632406,-0.000206272,-0.000373649,-0.000796838,-0.673008,0.000460351,0.0323939,1910,1149,-0.124565,0.0634745
693,-125,-0.109985,-0.0458984,-0.000539623,-0.000583638,-0.000201075,-0.000359355,-0.000763906,-0.730889,0.000441299,0.0243297,1917,1149,-0.11004,0.0458578
700,-125,-0.069458,-0.0401611,-0.00045569,-0.0005274,-0.00017066,-0.000317159,-0.000665931,-0.681855,0.00038462,0.00912106,1924,1149,-0.0694506,0.0401578
707,-125,-0.00134277,-0.0415039,-0.000397557,-0.000423215,-0.000180102,-0.000229828,-0.000590944,-0.749842,0.000343977,0.0383117,1931,1149,-0.00129235,0.0415243
714,-125,-0.0554199,-0.138184,-0.000443307,-0.000299083,-0.000191885,-0.000166207,-0.000576183,-0.965138,0.000342439,0.0291482,1938,1149,-0.0554432,0.138243
721,-125,-0.083252,-0.0734863,-0.000512041,-0.000205267,-0.000221945,-8.88632e-05,-0.000628444,-1.08776,0.000392708,0.0145967,1945,1149,-0.0831911,0.0734522
728,-125,-0.0935059,-0.0544434,-0.00043313,-0.000155641,-0.000223343,-3.14559e-05,-0.000557315,-1.06333,0.000361515,0.0100658,1952,1149,-0.0934599,0.0545015
735,-125,-0.0947266,-0.0601807,-0.000136413,-0.000236009,-7.77628e-05,-9.38703e-05,-0.000278553,-0.500606,0.000163647,0.012999,1959,1149,-0.0946808,0.0602
742,-125,-0.129395,-0.0645752,0.00021333,-0.000548489,0.000314492,0.000326381,-0.00066154,0.345089,0.000581215,0.0216378,1966,1149,-0.129433,0.0646176
749,-125,-0.115967,-0.0600586,0.000464803,-0.00104239,0.000712033,0.00074798,-0.00132556,0.378524,0.00121254,0.0246098,1973,1149,-0.115946,0.0600086
756,-125,-0.0853271,-0.0406494,0.000526637,-0.00193247,0.000705554,0.00071469,-0.00212053,0.260477,0.00170267,0.0188542,1980,1149,-0.085361,0.040621
763,-125,-0.0698242,-0.0380859,5.25564e-05,-0.00281458,0.00070016,0.000214401,-0.00297642,0.227164,0.00205947,0.0105689,1987,1149,-0.0697822,0.0380375
770,-125,-0.0664063,-0.0427246,-0.000203996,-0.00413147,0.000687901,-8.69955e-05,-0.00424847,0.168472,0.00280377,0.0130803,1994,1149,-0.0664435,0.0427484
777,-125,-0.0778809,-0.0356445,-0.00086984,-0.00577675,0.00039816,-0.000837742,-0.00580884,0.0804416,0.00362572,0.0226198,2001,1149,-0.0778621,0.0356736
784,-125,-0.110962,-0.0458984,-0.00210063,-0.00774593,-0.000278729,-0.0020869,-0.00775966,-0.049214,0.00463675,0.0395837,2008,1149,-0.11093,0.0458739
791,-125,-0.340698,-0.130493,0,0,0,0,0,0,0,-1,2015,1149,-0.340684,0.130525
798,-125,-0.625366,-0.362061,0,0,0,0,0,0,0,-1,2022,1149,-0.625333,0.362028
805,-125,-0.0637207,-0.164307,-0.0118847,-0.014673,-0.00634041,-0.00678696,-0.0197707,-0.677178,0.0116,0.0459643,2029,1149,-0.063754,0.164308
812,-125,-0.514038,-0.0556641,-0.0184074,-0.0166387,-0.0105687,-0.0069174,-0.0281287,-0.827137,0.0169246,0.0449604,2036,1149,-0.514027,0.0557027
-700,-132,0,0,0,0,0,0,0,0,0,-1,524,1156,0,0
-693,-132,-1.1062,2.6615,0,0,0,0,0,0,0,-1,531,1156,-1.10622,-2.66153
-686,-132,-0.513733,3.15918,0,0,0,0,0,0,0,-1,538,1156,-0.513743,-3.15919
-679,-132,-0.275269,2.4696,0,0,0,0,0,0,0,-1,545,1156,-0.27529,-2.46966
-672,-132,-0.0686646,1.13879,0,0,0,0,0,0,0,-1,552,1156,-0.068692,-1.13874
-665,-132,-0.0745239,0.932495,0.00791317,0.00767233,-0.00716917,0.0149629,0.000622566,-0.777,0.00977438,0.04033,559,1156,-0.0745502,-0.932479
-658,-132,-0.0808105,0.744629,0.0068227,0.0053416,-0.00653421,0.0126582,-0.00049389,-0.728972,0.00860815,0.0406119,566,1156,-0.0807885,-0.744689
-651,-132,-0.132202,0.41394,0.00571899,0.00357626,-0.00569526,0.0104428,-0.00114753,-0.692427,0.00737418,0.0371066,573,1156,-0.132186,-0.413912
-644,-132,-0.137939,-0.00756836,0.00462354,0.00229437,-0.00475093,0.00835054,-0.00143263,-0.665205,0.0061009,0.0191339,580,1156,-0.137946,0.00754131
-637,-132,-0.0567017,-0.0335693,0.00348256,0.00174515,-0.00379326,0.00650531,-0.0012776,-0.672833,0.00481952,0.0109325,587,1156,-0.0566987,0.0335761
-630,-132,-0.0409546,-0.0368652,0.00272217,0.000420641,-0.00296882,0.00475546,-0.00161264,-0.600505,0.00382296,0.0101685,594,1156,-0.0409407,0.0369237
-623,-132,-0.0717163,-0.0291748,0.0017179,0.000247743,-0.00222731,0.00332829,-0.00136265,-0.626011,0.00278645,0.0159172,601,1156,-0.0716999,0.0292333
-616,-132,-0.0853271,-0.0292969,0.00118399,-2.95509e-05,-0.00162421,0.00231106,-0.00115663,-0.606636,0.00203872,0.0191663,608,1156,-0.0853517,0.0292496
-609,-132,-0.0618896,-0.0487061,0.000852153,1.94456e-06,-0.000999032,0.00151276,-0.000658666,-0.584244,0.0012856,0.0109161,615,1156,-0.0618598,0.0486571
-602,-132,-0.0584717,-0.0603027,0.000288828,0.000112941,-0.000449752,0.000659154,-0.000257385,-0.688847,0.000545848,0.00962438,622,1156,-0.0584814,0.0603609
-595,-132,-0.0616455,-0.0554199,4.26577e-05,0.000249769,-0.000134135,0.000315671,-2.32444e-05,-1.11412,0.000218608,0.00960216,629,1156,-0.0616171,0.0554542
-588,-132,-0.102478,-0.0614014,6.43434e-05,0.000341893,-6.66795e-05,0.000357081,4.91552e-05,-1.34684,0.000223478,0.0140422,636,1156,-0.102486,0.0613956
-581,-132,-0.0967407,-0.131836,8.80723e-05,0.000470161,-0.000106186,0.000497688,6.05455e-05,-1.31715,0.000313564,0.0313934,643,1156,-0.0967701,0.131786
-574,-132,-0.0548706,-0.157349,3.66182e-05,0.000622116,-0.00012391,0.00064726,1.14747e-05,-1.3706,0.000427733,0.0377622,650,1156,-0.0548498,0.157378
-567,-132,-0.0477295,-0.0964355,3.43699e-05,0.000738787,-0.000177844,0.00078114,-7.98388e-06,-1.337,0.000523442,0.0361693,657,1156,-0.047714,0.0964793
-560,-132,-0.02948,-0.131104,-2.95772e-05,0.000868187,-0.000267217,0.000941704,-0.000103094,-1.30232,0.000664837,0.0344817,664,1156,-0.0294837,0.13113
-553,-132,-0.0985107,-0.0212402,-0.000197432,0.000966329,-0.000382018,0.00108052,-0.000311628,-1.28032,0.000843634,0.0358329,671,1156,-0.0985206,0.0211969
-546,-132,-0.144287,0.133423,-0.000535196,0.00100618,-0.000511231,0.00116032,-0.000689342,-1.27795,0.00107938,0.0369743,678,1156,-0.144265,-0.133428
-539,-132,0.0604858,0.0484619,-0.00114631,0.000964405,-0.000624832,0.0011355,-0.0013174,-1.30352,0.00141748,0.0390861,685,1156,0.0604885,-0.0484305
-532,-132,0.0780029,-0.0634766,-0.00216512,0.000813427,-0.000692844,0.000966703,-0.0023184,-1.35308,0.00194944,0.037563,692,1156,0.0780334,0.0634159
-525,-132,-0.0638428,-0.0777588,-0.00366323,0.00049245,-0.000757859,0.000626344,-0.00379713,-1.39593,0.00276396,0.0352169,699,1156,-0.0638325,0.0777995
-518,-132,0,0,0,0,0,0,0,0,0,-1,706,1156,0,0
-511,-132,0,0,0,0,0,0,0,0,0,-1,713,1156,0,0
-504,-132,0,0,0,0,0,0,0,0,0,-1,720,1156,0,0
-497,-132,0,0,0,0,0,0,0,0,0,-1,727,1156,0,0
-490,-132,0,0,0,0,0,0,0,0,0,-1,734,1156,0,0
-483,-132,0,0,0,0,0,0,0,0,0,-1,741,1156,0,0
-476,-132,0,0,0,0,0,0,0,0,0,-1,748,1156,0,0
-469,-132,0,0,0,0,0,0,0,0,0,-1,755,1156,0,0
-462,-132,0,0,0,0,0,0,0,0,0,-1,762,1156,0,0
-455,-132,0,0,0,0,0,0,0,0,0,-1,769,1156,0,0
-448,-132,0,0,0,0,0,0,0,0,0,-1,776,1156,0,0
-441,-132,0,0,0,0,0,0,0,0,0,-1,783,1156,0,0
-434,-132,0,0,0,0,0,0,0,0,0,-1,790,1156,0,0
-427,-132,0,0,0,0,0,0,0,0,0,-1,797,1156,0,0
-420,-132,0,0,0,0,0,0,0,0,0,-1,804,1156,0,0
-413,-132,0,0,0,0,0,0,0,0,0,-1,811,1156,0,0
-406,-132,0,0,0,0,0,0,0,0,0,-1,818,1156,0,0
-399,-132,0,0,0,0,0,0,0,0,0,-1,825,1156,0,0
-392,-132,0,0,0,0,0,0,0,0,0,-1,832,1156,0,0
-385,-132,0,0,0,0,0,0,0,0,0,-1,839,1156,0,0
-378,-132,0,0,0,0,0,0,0,0,0,-1,846,1156,0,0
-371,-132,0,0,0,0,0,0,0,0,0,-1,853,1156,0,0
-364,-132,0,0,0,0,0,0,0,0,0,-1,860,1156,0,0
-357,-132,0,0,0,0,0,0,0,0,0,-1,867,1156,0,0
-350,-132,0,0,0,0,0,0,0,0,0,-1,874,1156,0,0
-343,-132,0,0,0,0,0,0,0,0,0,-1,881,1156,0,0
-336,-132,0,0,0,0,0,0,0,0,0,-1,888,1156,0,0
-329,-132,0,0,0,0,0,0,0,0,0,-1,895,1156,0,0
-322,-132,0,0,0,0,0,0,0,0,0,-1,902,1156,0,0
-315,-132,0,0,0,0,0,0,0,0,0,-1,909,1156,0,0
-308,-132,0,0,0,0,0,0,0,0,0,-1,916,1156,0,0
-301,-132,0,0,0,0,0,0,0,0,0,-1,923,1156,0,0
-294,-132,0,0,0,0,0,0,0,0,0,-1,930,1156,0,0
-287,-132,0,0,0,0,0,0,0,0,0,-1,937,1156,0,0
-280,-132,0,0,0,0,0,0,0,0,0,-1,944,1156,0,0
-273,-132,0,0,0,0,0,0,0,0,0,-1,951,1156,0,0
-266,-132,0,0,0,0,0,0,0,0,0,-1,958,1156,0,0
-259,-132,0,0,0,0,0,0,0,0,0,-1,965,1156,0,0
-252,-132,0,0,0,0,0,0,0,0,0,-1,972,1156,0,0
-245,-132,0,0,0,0,0,0,0,0,0,-1,979,1156,0,0
-238,-132,0,0,0,0,0,0,0,0,0,-1,986,1156,0,0
-231,-132,0,0,0,0,0,0,0,0,0,-1,993,1156,0,0
-224,-132,0,0,0,0,0,0,0,0,0,-1,1000,1156,0,0
-217,-132,0,0,0,0,0,0,0,0,0,-1,1007,1156,0,0
-210,-132,0,0,0,0,0,0,0,0,0,-1,1014,1156,0,0
-203,-132,0,0,0,0,0,0,0,0,0,-1,1021,1156,0,0
-196,-132,0,0,0,0,0,0,0,0,0,-1,1028,1156,0,0
-189,-132,0,0,0,0,0,0,0,0,0,-1,1035,1156,0,0
-182,-132,0,0,0,0,0,0,0,0,0,-1,1042,1156,0,0
-175,-132,0,0,0,0,0,0,0,0,0,-1,1049,1156,0,0
-168,-132,0,0,0,0,0,0,0,0,0,-1,1056,1156,0,0
-161,-132,0,0,0,0,0,0,0,0,0,-1,1063,1156,0,0
-154,-132,0,0,0,0,0,0,0,0,0,-1,1070,1156,0,0
-147,-132,0,0,0,0,0,0,0,0,0,-1,1077,1156,0,0
-140,-132,0,0,0,0,0,0,0,0,0,-1,1084,1156,0,0
-133,-132,0,0,0,0,0,0,0,0,0,-1,1091,1156,0,0
-126,-132,0,0,0,0,0,0,0,0,0,-1,1098,1156,0,0
-119,-132,0,0,0,0,0,0,0,0,0,-1,1105,1156,0,0
-112,-132,0,0,0,0,0,0,0,0,0,-1,1112,1156,0,0
-105,-132,0,0,0,0,0,0,0,0,0,-1,1119,1156,0,0
-98,-132,0,0,0,0,0,0,0,0,0,-1,1126,1156,0,0
-91,-132,0,0,0,0,0,0,0,0,0,-1,1133,1156,0,0
-84,-132,0,0,0,0,0,0,0,0,0,-1,1140,1156,0,0
-77,-132,0,0,0,0,0,0,0,0,0,-1,1147,1156,0,0
-70,-132,0,0,0,0,0,0,0,0,0,-1,1154,1156,0,0
-63,-132,0,0,0,0,0,0,0,0,0,-1,1161,1156,0,0
-56,-132,0,0,0,0,0,0,0,0,0,-1,1168,1156,0,0
-49,-132,0,0,0,0,0,0,0,0,0,-1,1175,1156,0,0
-42,-132,0,0,0,0,0,0,0,0,0,-1,1182,1156,0,0
-35,-132,0,0,0,0,0,0,0,0,0,-1,1189,1156,0,0
-28,-132,0,0,0,0,0,0,0,0,0,-1,1196,1156,0,0
-21,-132,0,0,0,0,0,0,0,0,0,-1,1203,1156,0,0
-14,-132,0,0,0,0,0,0,0,0,0,-1,1210,1156,0,0
-7,-132,0,0,0,0,0,0,0,0,0,-1,1217,1156,0,0
0,-132,0,0,0,0,0,0,0,0,0,-1,1224,1156,0,0
7,-132,0,0,0,0,0,0,0,0,0,-1,1231,1156,0,0
14,-132,0,0,0,0,0,0,0,0,0,-1,1238,1156,0,0
21,-132,0,0,0,0,0,0,0,0,0,-1,1245,1156,0,0
28,-132,0,0,0,0,0,0,0,0,0,-1,1252,1156,0,0
35,-132,0,0,0,0,0,0,0,0,0,-1,1259,1156,0,0
42,-132,0,0,0,0,0,0,0,0,0,-1,1266,1156,0,0
49,-132,0,0,0,0,0,0,0,0,0,-1,1273,1156,0,0
56,-132,0,0,0,0,0,0,0,0,0,-1,1280,1156,0,0
63,-132,0,0,0,0,0,0,0,0,0,-1,1287,1156,0,0
70,-132,0,0,0,0,0,0,0,0,0,-1,1294,1156,0,0
77,-132,0,0,0,0,0,0,0,0,0,-1,1301,1156,0,0
84,-132,0,0,0,0,0,0,0,0,0,-1,1308,1156,0,0
91,-132,0,0,0,0,0,0,0,0,0,-1,1315,1156,0,0
98,-132,0,0,0,0,0,0,0,0,0,-1,1322,1156,0,0
105,-132,0,0,0,0,0,0,0,0,0,-1,1329,1156,0,0
112,-132,0,0,0,0,0,0,0,0,0,-1,1336,1156,0,0
119,-132,0,0,0,0,0,0,0,0,0,-1,1343,1156,0,0
126,-132,0,0,0,0,0,0,0,0,0,-1,1350,1156,0,0
133,-132,0,0,0,0,0,0,0,0,0,-1,1357,1156,0,0
140,-132,0,0,0,0,0,0,0,0,0,-1,1364,1156,0,0
147,-132,0,0,0,0,0,0,0,0,0,-1,1371,1156,0,0
154,-132,0,0,0,0,0,0,0,0,0,-1,1378,1156,0,0
161,-132,0,0,0,0,0,0,0,0,0,-1,1385,1156,0,0
168,-132,0,0,0,0,0,0,0,0,0,-1,1392,1156,0,0
175,-132,0,0,0,0,0,0,0,0,0,-1,1399,1156,0,0
182,-132,0,0,0,0,0,0,0,0,0,-1,1406,1156,0,0
189,-132,0,0,0,0,0,0,0,0,0,-1,1413,1156,0,0
196,-132,0,0,0,0,0,0,0,0,0,-1,1420,1156,0,0
203,-132,0,0,0,0,0,0,0,0,0,-1,1427,1156,0,0
210,-132,0,0,0,0,0,0,0,0,0,-1,1434,1156,0,0
217,-132,0,0,0,0,0,0,0,0,0,-1,1441,1156,0,0
224,-132,0,0,0,0,0,0,0,0,0,-1,1448,1156,0,0
231,-132,0,0,0,0,0,0,0,0,0,-1,1455,1156,0,0
238,-132,0,0,0,0,0,0,0,0,0,-1,1462,1156,0,0
245,-132,0,0,0,0,0,0,0,0,0,-1,1469,1156,0,0
252,-132,0,0,0,0,0,0,0,0,0,-1,1476,1156,0,0
259,-132,0,0,0,0,0,0,0,0,0,-1,1483,1156,0,0
266,-132,0,0,0,0,0,0,0,0,0,-1,1490,1156,0,0
273,-132,0,0,0,0,0,0,0,0,0,-1,1497,1156,0,0
280,-132,0,0,0,0,0,0,0,0,0,-1,1504,1156,0,0
287,-132,0,0,0,0,0,0,0,0,0,-1,1511,1156,0,0
294,-132,0,0,0,0,0,0,0,0,0,-1,1518,1156,0,0
301,-132,0,0,0,0,0,0,0,0,0,-1,1525,1156,0,0
308,-132,0,0,0,0,0,0,0,0,0,-1,1532,1156,0,0
315,-132,0,0,0,0,0,0,0,0,0,-1,1539,1156,0,0
322,-132,0,0,0,0,0,0,0,0,0,-1,1546,1156,0,0
329,-132,0,0,0,0,0,0,0,0,0,-1,1553,1156,0,0
336,-132,0,0,0,0,0,0,0,0,0,-1,1560,1156,0,0
343,-132,0,0,0,0,0,0,0,0,0,-1,1567,1156,0,0
350,-132,0,0,0,0,0,0,0,0,0,-1,1574,1156,0,0
357,-132,0,0,0,0,0,0,0,0,0,-1,1581,1156,0,0
364,-132,0,0,0,0,0,0,0,0,0,-1,1588,1156,0,0
371,-132,0,0,0,0,0,0,0,0,0,-1,1595,1156,0,0
378,-132,0,0,0,0,0,0,0,0,0,-1,1602,1156,0,0
385,-132,0,0,0,0,0,0,0,0,0,-1,1609,1156,0,0
392,-132,0,0,0,0,0,0,0,0,0,-1,1616,1156,0,0
399,-132,0,0,0,0,0,0,0,0,0,-1,1623,1156,0,0
406,-132,0,0,0,0,0,0,0,0,0,-1,1630,1156,0,0
413,-132,0,0,0,0,0,0,0,0,0,-1,1637,1156,0,0
420,-132,0,0,0,0,0,0,0,0,0,-1,1644,1156,0,0
427,-132,0,0,0,0,0,0,0,0,0,-1,1651,1156,0,0
434,-132,0,0,0,0,0,0,0,0,0,-1,1658,1156,0,0
441,-132,0,0,0,0,0,0,0,0,0,-1,1665,1156,0,0
448,-132,0,0,0,0,0,0,0,0,0,-1,1672,1156,0,0
455,-132,0,0,0,0,0,0,0,0,0,-1,1679,1156,0,0
462,-132,0,0,0,0,0,0,0,0,0,-1,1686,1156,0,0
469,-132,0,0,0,0,0,0,0,0,0,-1,1693,1156,0,0
476,-132,0,0,0,0,0,0,0,0,0,-1,1700,1156,0,0
483,-132,0,0,0,0,0,0,0,0,0,-1,1707,1156,0,0
490,-132,0,0,0,0,0,0,0,0,0,-1,1714,1156,0,0
497,-132,0,0,0,0,0,0,0,0,0,-1,1721,1156,0,0
504,-132,0,0,0,0,0,0,0,0,0,-1,1728,1156,0,0
511,-132,0,0,0,0,0,0,0,0,0,-1,1735,1156,0,0
518,-132,0,0,0,0,0,0,0,0,0,-1,1742,1156,0,0
525,-132,0,0,0,0,0,0,0,0,0,-1,1749,1156,0,0
532,-132,0,0,0,0,0,0,0,0,0,-1,1756,1156,0,0
539,-132,0,0,0,0,0,0,0,0,0,-1,1763,1156,0,0
546,-132,0,0,0,0,0,0,0,0,0,-1,1770,1156,0,0
553,-132,0,0,0,0,0,0,0,0,0,-1,1777,1156,0,0
560,-132,0,0,0,0,0,0,0,0,0,-1,1784,1156,0,0
567,-132,0,0,0,0,0,0,0,0,0,-1,1791,1156,0,0
574,-132,0,0,0,0,0,0,0,0,0,-1,1798,1156,0,0
581,-132,0,0,0,0,0,0,0,0,0,-1,1805,1156,0,0
588,-132,0,0,0,0,0,0,0,0,0,-1,1812,1156,0,0
595,-132,0,0,0,0,0,0,0,0,0,-1,1819,1156,0,0
602,-132,0,0,0,0,0,0,0,0,0,-1,1826,1156,0,0
609,-132,0,0,0,0,0,0,0,0,0,-1,1833,1156,0,0
616,-132,0,0,0,0,0,0,0,0,0,-1,1840,1156,0,0
623,-132,0,0,0,0,0,0,0,0,0,-1,1847,1156,0,0
630,-132,0,0,0,0,0,0,0,0,0,-1,1854,1156,0,0
637,-132,0,0,0,0,0,0,0,0,0,-1,1861,1156,0,0
644,-132,0.0479736,0.0267334,-0.00159915,-0.000580649,-0.00241555,0.00137875,-0.00355855,-0.889288,0.0029417,0.0350893,1868,1156,0.0479609,-0.026744
651,-132,-0.0634766,0.0098877,-0.00133573,-0.000644496,-0.00166722,0.000712548,-0.00269278,-0.887602,0.00207391,0.0340437,1875,1156,-0.0634772,-0.00994726
658,-132,-0.188354,-0.0877686,-0.000987786,-0.00070619,-0.00104377,0.000206238,-0.00190022,-0.85244,0.00134085,0.0363,1882,1156,-0.188316,0.0878261
665,-132,-0.251343,-0.149048,-0.000804795,-0.000742035,-0.000672925,-9.97587e-05,-0.00144707,-0.808697,0.00093324,0.0360122,1889,1156,-0.251282,0.149087
672,-132,-0.149292,-0.23645,-0.000712004,-0.000747467,-0.000451664,-0.000277724,-0.00118175,-0.765779,0.000713507,0.0363501,1896,1156,-0.149248,0.236417
679,-132,-0.0766602,-0.0894775,-0.000645226,-0.000734119,-0.000340024,-0.000346756,-0.00103259,-0.720408,0.000606785,0.0369023,1903,1156,-0.0766911,0.0894416
686,-132,-0.111206,-0.020874,-0.000612389,-0.000700707,-0.000296719,-0.000356562,-0.000956535,-0.711528,0.000558184,0.0328302,1910,1156,-0.111199,0.0208598
693,-132,-0.11377,-0.0799561,-0.000580373,-0.000654815,-0.000307804,-0.000307548,-0.00092764,-0.725228,0.000545612,0.0226283,1917,1156,-0.113733,0.0798989
700,-132,-0.0407715,0.0218506,-0.000463959,-0.000603237,-0.000303569,-0.000222143,-0.000845052,-0.672648,0.000505849,0.0203796,1924,1156,-0.0408184,-0.0218956
707,-132,-0.026001,-0.0224609,-0.000390198,-0.000502774,-0.000327977,-0.000113713,-0.000779258,-0.700415,0.000486055,0.0278205,1931,1156,-0.0260453,0.0224431
714,-132,-0.0783691,-0.0701904,-0.000433607,-0.00037902,-0.00033223,-7.29646e-05,-0.000739663,-0.826383,0.000470676,0.026342,1938,1156,-0.0783871,0.0702342
721,-132,-0.0953369,-0.0522461,-0.000511823,-0.000277841,-0.000337448,-3.76792e-05,-0.000751985,-0.952262,0.000489248,0.0194736,1945,1156,-0.095342,0.0522711
728,-132,-0.102539,-0.0462646,-0.000471692,-0.000199199,-0.000313444,6.32944e-06,-0.000677221,-0.990417,0.000453605,0.0111479,1952,1156,-0.102592,0.0462245
735,-132,-0.0946045,-0.0654297,-0.000218579,-0.000231109,-0.000128512,-9.61791e-05,-0.000353509,-0.761044,0.000211049,0.0135771,1959,1156,-0.0946028,0.0654636
742,-132,-0.114624,-0.0863037,0.000142883,-0.00045532,0.000324578,0.000285157,-0.000597594,0.413112,0.000520189,0.0193145,1966,1156,-0.114619,0.0862491
749,-132,-0.101318,-0.0703125,0.000493117,-0.000931484,0.000813003,0.000861717,-0.00130008,0.425662,0.00125664,0.0236069,1973,1156,-0.10134,0.0702588
756,-132,-0.0577393,-0.0430908,0.000728297,-0.0018204,0.000963478,0.00105153,-0.00214363,0.323682,0.0018803,0.021197,1980,1156,-0.0576822,0.0430769
763,-132,-0.0526123,-0.0372314,0.000472748,-0.00281972,0.00107811,0.000794359,-0.00314133,0.289905,0.00240317,0.0121791,1987,1156,-0.0525532,0.0372454
770,-132,-0.0609131,-0.0478516,0.000511329,-0.0042274,0.00121405,0.000804259,-0.00452033,0.236758,0.00331433,0.0123139,1994,1156,-0.0609241,0.0478769
777,-132,-0.0778809,-0.0734863,0.000266189,-0.00607286,0.00108048,0.000445294,-0.00625196,0.164271,0.00432406,0.0203368,2001,1156,-0.0779121,0.0734288
784,-132,0.0527344,-0.18042,-0.000391287,-0.00839811,0.00055852,-0.000352515,-0.00843688,0.0693082,0.00551084,0.0411902,2008,1156,0.0527319,0.180387
791,-132,0.193604,-0.253418,0,0,0,0,0,0,0,-1,2015,1156,0.193568,0.253434
798,-132,0.306763,0.0283203,-0.00395102,-0.0144139,-0.00242826,-0.00341493,-0.01495,-0.217286,0.00904582,0.0499808,2022,1156,0.306794,-0.0283659
805,-132,0.369995,0.121582,-0.00746957,-0.0179036,-0.00539789,-0.00517963,-0.0201936,-0.401218,0.0121108,0.0451537,2029,1156,0.370026,-0.12157
812,-132,0.0510254,0.301636,-0.0127665,-0.0214495,-0.0098691,-0.00632617,-0.0278898,-0.578182,0.0168843,0.0444449,2036,1156,0.0510422,-0.301692
-700,-139,0,0,0,0,0,0,0,0,0,-1,524,1163,0,0
-693,-139,-1.28723,1.62366,0,0,0,0,0,0,0,-1,531,1163,-1.28721,-1.62363
-686,-139,0.327393,2.06567,0,0,0,0,0,0,0,-1,538,1163,0.327417,-2.06571
-679,-139,-0.421875,2.82214,0,0,0,0,0,0,0,-1,545,1163,-0.421862,-2.82218
-672,-139,-0.0176392,0.528076,0,0,0,0,0,0,0,-1,552,1163,-0.0176596,-0.528057
-665,-139,-0.230103,0.876831,0,0,0,0,0,0,0,-1,559,1163,-0.230093,-0.876784
-658,-139,-0.369446,0.292603,0,0,0,0,0,0,0,-1,566,1163,-0.369428,-0.292576
-651,-139,-0.18042,0.469482,0,0,0,0,0,0,0,-1,573,1163,-0.180422,-0.469534
-644,-139,-0.116516,-0.0246582,0.00393567,0.00427191,-0.00479427,0.00890101,-0.000693429,-0.802925,0.00617813,0.0202616,580,1163,-0.116535,0.0246855
-637,-139,-0.0465698,-0.0233154,0.00303047,0.00316638,-0.0037014,0.00680045,-0.000603596,-0.794577,0.00474764,0.0112601,587,1163,-0.0465946,0.0233717
-630,-139,-0.0407104,-0.0358887,0.00240827,0.00150344,-0.00268944,0.00468308,-0.00077137,-0.702069,0.0034084,0.0099524,594,1163,-0.0406842,0.0358839
-623,-139,-0.0668335,-0.0393066,0.00156123,0.000938506,-0.00195655,0.00323103,-0.000731301,-0.706491,0.00243468,0.0160749,601,1163,-0.0668454,0.0392779
-616,-139,-0.0738525,-0.0615234,0.0010947,0.000332362,-0.00141018,0.00217432,-0.000747262,-0.653404,0.00175257,0.0171553,608,1163,-0.0738598,0.0615834
-609,-139,-0.0648193,-0.0571289,0.000837107,0.000183324,-0.000886602,0.00145516,-0.000434729,-0.608779,0.00114292,0.0192104,615,1163,-0.0648426,0.0570723
-602,-139,-0.0577393,-0.0493164,0.000333905,0.000214103,-0.00045585,0.000733773,-0.000185765,-0.72007,0.000561443,0.0116823,622,1163,-0.0577373,0.0493498
-595,-139,-0.0673828,-0.0574951,8.68664e-05,0.00027432,-0.00018114,0.000384545,-2.33586e-05,-1.02414,0.000264493,0.0101164,629,1163,-0.0673636,0.0575032
-588,-139,-0.0889282,-0.0465088,8.38702e-05,0.000384853,-0.000115164,0.000423862,4.48611e-05,-1.2442,0.000268871,0.0136266,636,1163,-0.0889323,0.046476
-581,-139,-0.0854492,-0.0687256,0.000104126,0.000533525,-0.000177692,0.00059752,4.01319e-05,-1.22511,0.000385666,0.027266,643,1163,-0.0854681,0.0687621
-574,-139,-0.041748,-0.100586,3.81599e-05,0.000703055,-0.000213022,0.000765448,-2.4234e-05,-1.28587,0.000518566,0.0378655,650,1163,-0.0417507,0.100596
-567,-139,-0.0628662,-0.0875244,7.02938e-06,0.000823966,-0.000274819,0.000907811,-7.68152e-05,-1.27468,0.000632369,0.0396478,657,1163,-0.0628824,0.0875706
-560,-139,-0.111511,0.0126953,-9.34586e-05,0.000956031,-0.000375346,0.00107645,-0.000213882,-1.26034,0.000798536,0.0367209,664,1163,-0.111482,-0.0126813
-553,-139,-0.118042,0.0336914,-0.000303455,0.00105065,-0.000489414,0.00120902,-0.000461823,-1.25784,0.000996295,0.0383072,671,1163,-0.118023,-0.0337042
-546,-139,-0.105713,0.0494385,-0.000687397,0.00106034,-0.000613871,0.00125441,-0.000881462,-1.2646,0.0012394,0.0382113,678,1163,-0.105732,-0.0494585
-539,-139,0.0537109,-0.0500488,-0.00134289,0.000943159,-0.000728,0.00115531,-0.00155504,-1.28724,0.00157048,0.0400336,685,1163,0.0537298,0.0499933
-532,-139,0.0462036,-0.0615234,-0.0023902,0.000647987,-0.000809277,0.000850106,-0.00259232,-1.32605,0.00207059,0.0400567,692,1163,0.0462107,0.061561
-525,-139,-0.0981445,-0.0571289,-0.00388853,8.14721e-05,-0.00090731,0.000279002,-0.00408606,-1.35643,0.00282164,0.0372769,699,1163,-0.0981607,0.057128
-518,-139,0,0,0,0,0,0,0,0,0,-1,706,1163,0,0
-511,-139,0,0,0,0,0,0,0,0,0,-1,713,1163,0,0
-504,-139,0,0,0,0,0,0,0,0,0,-1,720,1163,0,0
-497,-139,0,0,0,0,0,0,0,0,0,-1,727,1163,0,0
-490,-139,0,0,0,0,0,0,0,0,0,-1,734,1163,0,0
-483,-139,0,0,0,0,0,0,0,0,0,-1,741,1163,0,0
-476,-139,0,0,0,0,0,0,0,0,0,-1,748,1163,0,0
-469,-139,0,0,0,0,0,0,0,0,0,-1,755,1163,0,0
-462,-139,0,0,0,0,0,0,0,0,0,-1,762,1163,0,0
-455,-139,0,0,0,0,0,0,0,0,0,-1,769,1163,0,0
-448,-139,0,0,0,0,0,0,0,0,0,-1,776,1163,0,0
-441,-139,0,0,0,0,0,0,0,0,0,-1,783,1163,0,0
-434,-139,0,0,0,0,0,0,0,0,0,-1,790,1163,0,0
-427,-139,0,0,0,0,0,0,0,0,0,-1,797,1163,0,0
-420,-139,0,0,0,0,0,0,0,0,0,-1,804,1163,0,0
-413,-139,0,0,0,0,0,0,0,0,0,-1,811,1163,0,0
-406,-139,0,0,0,0,0,0,0,0,0,-1,818,1163,0,0
-399,-139,0,0,0,0,0,0,0,0,0,-1,825,1163,0,0
-392,-139,0,0,0,0,0,0,0,0,0,-1,832,1163,0,0
-385,-139,0,0,0,0,0,0,0,0,0,-1,839,1163,0,0
-378,-139,0,0,0,0,0,0,0,0,0,-1,846,1163,0,0
-371,-139,0,0,0,0,0,0,0,0,0,-1,853,1163,0,0
-364,-139,0,0,0,0,0,0,0,0,0,-1,860,1163,0,0
-357,-139,0,0,0,0,0,0,0,0,0,-1,867,1163,0,0
-350,-139,0,0,0,0,0,0,0,0,0,-1,874,1163,0,0
-343,-139,0,0,0,0,0,0,0,0,0,-1,881,1163,0,0
-336,-139,0,0,0,0,0,0,0,0,0,-1,888,1163,0,0
-329,-139,0,0,0,0,0,0,0,0,0,-1,895,1163,0,0
-322,-139,0,0,0,0,0,0,0,0,0,-1,902,1163,0,0
-315,-139,0,0,0,0,0,0,0,0,0,-1,909,1163,0,0
-308,-139,0,0,0,0,0,0,0,0,0,-1,916,1163,0,0
-301,-139,0,0,0,0,0,0,0,0,0,-1,923,1163,0,0
-294,-139,0,0,0,0,0,0,0,0,0,-1,930,1163,0,0
-287,-139,0,0,0,0,0,0,0,0,0,-1,937,1163,0,0
-280,-139,0,0,0,0,0,0,0,0,0,-1,944,1163,0,0
-273,-139,0,0,0,0,0,0,0,0,0,-1,951,1163,0,0
-266,-139,0,0,0,0,0,0,0,0,0,-1,958,1163,0,0
-259,-139,0,0,0,0,0,0,0,0,0,-1,965,1163,0,0
-252,-139,0,0,0,0,0,0,0,0,0,-1,972,1163,0,0
-245,-139,0,0,0,0,0,0,0,0,0,-1,979,1163,0,0
-238,-139,0,0,0,0,0,0,0,0,0,-1,986,1163,0,0
-231,-139,0,0,0,0,0,0,0,0,0,-1,993,1163,0,0
-224,-139,0,0,0,0,0,0,0,0,0,-1,1000,1163,0,0
-217,-139,0,0,0,0,0,0,0,0,0,-1,1007,1163,0,0
-210,-139,0,0,0,0,0,0,0,0,0,-1,1014,1163,0,0
-203,-139,0,0,0,0,0,0,0,0,0,-1,1021,1163,0,0
-196,-139,0,0,0,0,0,0,0,0,0,-1,1028,1163,0,0
-189,-139,0,0,0,0,0,0,0,0,0,-1,1035,1163,0,0
-182,-139,0,0,0,0,0,0,0,0,0,-1,1042,1163,0,0
-175,-139,0,0,0,0,0,0,0,0,0,-1,1049,1163,0,0
-168,-139,0,0,0,0,0,0,0,0,0,-1,1056,1163,0,0
-161,-139,0,0,0,0,0,0,0,0,0,-1,1063,1163,0,0
-154,-139,0,0,0,0,0,0,0,0,0,-1,1070,1163,0,0
-147,-139,0,0,0,0,0,0,0,0,0,-1,1077,1163,0,0
-140,-139,0,0,0,0,0,0,0,0,0,-1,1084,1163,0,0
-133,-139,0,0,0,0,0,0,0,0,0,-1,1091,1163,0,0
-126,-139,0,0,0,0,0,0,0,0,0,-1,1098,1163,0,0
-119,-139,0,0,0,0,0,0,0,0,0,-1,1105,1163,0,0
-112,-139,0,0,0,0,0,0,0,0,0,-1,1112,1163,0,0
-105,-139,0,0,0,0,0,0,0,0,0,-1,1119,1163,0,0
-98,-139,0,0,0,0,0,0,0,0,0,-1,1126,1163,0,0
-91,-139,0,0,0,0,0,0,0,0,0,-1,1133,1163,0,0
-84,-139,0,0,0,0,0,0,0,0,0,-1,1140,1163,0,0
-77,-139,0,0,0,0,0,0,0,0,0,-1,1147,1163,0,0
-70,-139,0,0,0,0,0,0,0,0,0,-1,1154,1163,0,0
-63,-139,0,0,0,0,0,0,0,0,0,-1,1161,1163,0,0
-56,-139,0,0,0,0,0,0,0,0,0,-1,1168,1163,0,0
-49,-139,0,0,0,0,0,0,0,0,0,-1,1175,1163,0,0
-42,-139,0,0,0,0,0,0,0,0,0,-1,1182,1163,0,0
-35,-139,0,0,0,0,0,0,0,0,0,-1,1189,1163,0,0
-28,-139,0,0,0,0,0,0,0,0,0,-1,1196,1163,0,0
-21,-139,0,0,0,0,0,0,0,0,0,-1,1203,1163,0,0
-14,-139,0,0,0,0,0,0,0,0,0,-1,1210,1163,0,0
-7,-139,0,0,0,0,0,0,0,0,0,-1,1217,1163,0,0
0,-139,0,0,0,0,0,0,0,0,0,-1,1224,1163,0,0
7,-139,0,0,0,0,0,0,0,0,0,-1,1231,1163,0,0
14,-139,0,0,0,0,0,0,0,0,0,-1,1238,1163,0,0
21,-139,0,0,0,0,0,0,0,0,0,-1,1245,1163,0,0
28,-139,0,0,0,0,0,0,0,0,0,-1,1252,1163,0,0
35,-139,0,0,0,0,0,0,0,0,0,-1,1259,1163,0,0
42,-139,0,0,0,0,0,0,0,0,0,-1,1266,1163,0,0
49,-139,0,0,0,0,0,0,0,0,0,-1,1273,1163,0,0
56,-139,0,0,0,0,0,0,0,0,0,-1,1280,1163,0,0
63,-139,0,0,0,0,0,0,0,0,0,-1,1287,1163,0,0
70,-139,0,0,0,0,0,0,0,0,0,-1,1294,1163,0,0
77,-139,0,0,0,0,0,0,0,0,0,-1,1301,1163,0,0
84,-139,0,0,0,0,0,0,0,0,0,-1,1308,1163,0,0
91,-139,0,0,0,0,0,0,0,0,0,-1,1315,1163,0,0
98,-139,0,0,0,0,0,0,0,0,0,-1,1322,1163,0,0
105,-139,0,0,0,0,0,0,0,0,0,-1,1329,1163,0,0
112,-139,0,0,0,0,0,0,0,0,0,-1,1336,1163,0,0
119,-139,0,0,0,0,0,0,0,0,0,-1,1343,1163,0,0
126,-139,0,0,0,0,0,0,0,0,0,-1,1350,1163,0,0
133,-139,0,0,0,0,0,0,0,0,0,-1,1357,1163,0,0
140,-139,0,0,0,0,0,0,0,0,0,-1,1364,1163,0,0
147,-139,0,0,0,0,0,0,0,0,0,-1,1371,1163,0,0
154,-139,0,0,0,0,0,0,0,0,0,-1,1378,1163,0,0
161,-139,0,0,0,0,0,0,0,0,0,-1,1385,1163,0,0
168,-139,0,0,0,0,0,0,0,0,0,-1,1392,1163,0,0
175,-139,0,0,0,0,0,0,0,0,0,-1,1399,1163,0,0
182,-139,0,0,0,0,0,0,0,0,0,-1,1406,1163,0,0
189,-139,0,0,0,0,0,0,0,0,0,-1,1413,1163,0,0
196,-139,0,0,0,0,0,0,0,0,0,-1,1420,1163,0,0
203,-139,0,0,0,0,0,0,0,0,0,-1,1427,1163,0,0
210,-139,0,0,0,0,0,0,0,0,0,-1,1434,1163,0,0
217,-139,0,0,0,0,0,0,0,0,0,-1,1441,1163,0,0
224,-139,0,0,0,0,0,0,0,0,0,-1,1448,1163,0,0
231,-139,0,0,0,0,0,0,0,0,0,-1,1455,1163,0,0
238,-139,0,0,0,0,0,0,0,0,0,-1,1462,1163,0,0
245,-139,0,0,0,0,0,0,0,0,0,-1,1469,1163,0,0
252,-139,0,0,0,0,0,0,0,0,0,-1,1476,1163,0,0
259,-139,0,0,0,0,0,0,0,0,0,-1,1483,1163,0,0
266,-139,0,0,0,0,0,0,0,0,0,-1,1490,1163,0,0
273,-139,0,0,0,0,0,0,0,0,0,-1,1497,1163,0,0
280,-139,0,0,0,0,0,0,0,0,0,-1,1504,1163,0,0
287,-139,0,0,0,0,0,0,0,0,0,-1,1511,1163,0,0
294,-139,0,0,0,0,0,0,0,0,0,-1,1518,1163,0,0
301,-139,0,0,0,0,0,0,0,0,0,-1,1525,1163,0,0
308,-139,0,0,0,0,0,0,0,0,0,-1,1532,1163,0,0
315,-139,0,0,0,0,0,0,0,0,0,-1,1539,1163,0,0
322,-139,0,0,0,0,0,0,0,0,0,-1,1546,1163,0,0
329,-139,0,0,0,0,0,0,0,0,0,-1,1553,1163,0,0
336,-139,0,0,0,0,0,0,0,0,0,-1,1560,1163,0,0
343,-139,0,0,0,0,0,0,0,0,0,-1,1567,1163,0,0
350,-139,0,0,0,0,0,0,0,0,0,-1,1574,1163,0,0
357,-139,0,0,0,0,0,0,0,0,0,-1,1581,1163,0,0
364,-139,0,0,0,0,0,0,0,0,0,-1,1588,1163,0,0
371,-139,0,0,0,0,0,0,0,0,0,-1,1595,1163,0,0
378,-139,0,0,0,0,0,0,0,0,0,-1,1602,1163,0,0
385,-139,0,0,0,0,0,0,0,0,0,-1,1609,1163,0,0
392,-139,0,0,0,0,0,0,0,0,0,-1,1616,1163,0,0
399,-139,0,0,0,0,0,0,0,0,0,-1,1623,1163,0,0
406,-139,0,0,0,0,0,0,0,0,0,-1,1630,1163,0,0
413,-139,0,0,0,0,0,0,0,0,0,-1,1637,1163,0,0
420,-139,0,0,0,0,0,0,0,0,0,-1,1644,1163,0,0
427,-139,0,0,0,0,0,0,0,0,0,-1,1651,1163,0,0
434,-139,0,0,0,0,0,0,0,0,0,-1,1658,1163,0,0
441,-139,0,0,0,0,0,0,0,0,0,-1,1665,1163,0,0
448,-139,0,0,0,0,0,0,0,0,0,-1,1672,1163,0,0
455,-139,0,0,0,0,0,0,0,0,0,-1,1679,1163,0,0
462,-139,0,0,0,0,0,0,0,0,0,-1,1686,1163,0,0
469,-139,0,0,0,0,0,0,0,0,0,-1,1693,1163,0,0
476,-139,0,0,0,0,0,0,0,0,0,-1,1700,1163,0,0
483,-139,0,0,0,0,0,0,0,0,0,-1,1707,1163,0,0
490,-139,0,0,0,0,0,0,0,0,0,-1,1714,1163,0,0
497,-139,0,0,0,0,0,0,0,0,0,-1,1721,1163,0,0
504,-139,0,0,0,0,0,0,0,0,0,-1,1728,1163,0,0
511,-139,0,0,0,0,0,0,0,0,0,-1,1735,1163,0,0
518,-139,0,0,0,0,0,0,0,0,0,-1,1742,1163,0,0
525,-139,0,0,0,0,0,0,0,0,0,-1,1749,1163,0,0
532,-139,0,0,0,0,0,0,0,0,0,-1,1756,1163,0,0
539,-139,0,0,0,0,0,0,0,0,0,-1,1763,1163,0,0
546,-139,0,0,0,0,0,0,0,0,0,-1,1770,1163,0,0
553,-139,0,0,0,0,0,0,0,0,0,-1,1777,1163,0,0
560,-139,0,0,0,0,0,0,0,0,0,-1,1784,1163,0,0
567,-139,0,0,0,0,0,0,0,0,0,-1,1791,1163,0,0
574,-139,0,0,0,0,0,0,0,0,0,-1,1798,1163,0,0
581,-139,0,0,0,0,0,0,0,0,0,-1,1805,1163,0,0
588,-139,0,0,0,0,0,0,0,0,0,-1,1812,1163,0,0
595,-139,0,0,0,0,0,0,0,0,0,-1,1819,1163,0,0
602,-139,0,0,0,0,0,0,0,0,0,-1,1826,1163,0,0
609,-139,0,0,0,0,0,0,0,0,0,-1,1833,1163,0,0
616,-139,0,0,0,0,0,0,0,0,0,-1,1840,1163,0,0
623,-139,0,0,0,0,0,0,0,0,0,-1,1847,1163,0,0
630,-139,0,0,0,0,0,0,0,0,0,-1,1854,1163,0,0
637,-139,0,0,0,0,0,0,0,0,0,-1,1861,1163,0,0
644,-139,0.0625,0.0697021,-0.0021508,-0.000684286,-0.00208606,0.000793634,-0.00362872,-0.954405,0.00272253,0.0359572,1868,1163,0.0624749,-0.0697506
651,-139,-0.046875,-0.0012207,-0.00176812,-0.00079514,-0.00137719,0.000178961,-0.00274222,-0.95518,0.00189062,0.0343441,1875,1163,-0.0468396,0.0012465
658,-139,-0.0734863,-0.0222168,-0.00132376,-0.000829984,-0.000821207,-0.000219356,-0.00193439,-0.931421,0.00122305,0.0369015,1882,1163,-0.0734725,0.022219
665,-139,-0.106567,-0.0424805,-0.00105799,-0.000824827,-0.000514289,-0.00041407,-0.00146874,-0.896855,0.000874452,0.0346327,1889,1163,-0.106582,0.0424311
672,-139,-0.0635986,-0.0548096,-0.000890102,-0.000789971,-0.000342502,-0.000493894,-0.00118618,-0.857972,0.000688026,0.0343297,1896,1163,-0.0635903,0.0548679
679,-139,-0.00512695,-0.00732422,-0.00076358,-0.000738395,-0.000272311,-0.000478386,-0.00102359,-0.808504,0.000591389,0.0328782,1903,1163,-0.00513408,0.00729835
686,-139,-0.0621338,-0.0144043,-0.000689438,-0.000669958,-0.000263449,-0.000416069,-0.000943327,-0.803875,0.00054589,0.0273894,1910,1163,-0.062114,0.0144069
693,-139,-0.090332,-0.050293,-0.000619488,-0.000596026,-0.000305017,-0.000302514,-0.000912999,-0.804619,0.000537024,0.0158296,1917,1163,-0.0902906,0.0502561
700,-139,-0.00976563,0.0443115,-0.000469873,-0.000536367,-0.000341532,-0.000159973,-0.000846267,-0.736878,0.000519135,0.0296791,1924,1163,-0.00970997,-0.0442824
707,-139,-0.0649414,-0.0162354,-0.000380417,-0.000431205,-0.000397555,-7.44595e-06,-0.000804176,-0.753503,0.000533653,0.0198588,1931,1163,-0.0649108,0.0162085
714,-139,-0.112793,-0.0651855,-0.000418254,-0.000308443,-0.000412064,5.23568e-05,-0.000779055,-0.851631,0.000537672,0.0218425,1938,1163,-0.112793,0.0652216
721,-139,-0.107788,-0.0450439,-0.000495875,-0.000209844,-0.000417126,8.8103e-05,-0.000793822,-0.950548,0.000560894,0.0165019,1945,1163,-0.107792,0.0449983
728,-139,-0.0866699,-0.053833,-0.000468623,-0.000121223,-0.000388583,0.000130716,-0.000720562,-0.99558,0.000529354,0.0179782,1952,1163,-0.0866889,0.0537978
735,-139,-0.0909424,-0.0551758,-0.000223635,-0.000133996,-0.000193956,2.02512e-05,-0.000377883,-0.898945,0.000258936,0.0152609,1959,1163,-0.0909546,0.0552154
742,-139,-0.111328,-0.0718994,0.000164473,-0.000283282,0.000285412,0.000303337,-0.000422145,0.452819,0.000420725,0.0208189,1966,1163,-0.111368,0.0719085
749,-139,-0.109009,-0.0761719,0.000651786,-0.000720619,0.000861994,0.00106736,-0.00113619,0.44923,0.00127243,0.0186896,1973,1163,-0.109001,0.0761783
756,-139,-0.0935059,-0.0601807,0.0010977,-0.00151356,0.0011826,0.00155367,-0.00196952,0.367998,0.00203883,0.0102817,1980,1163,-0.0934749,0.0601879
763,-139,-0.0891113,-0.0585938,0.00114291,-0.00242163,0.00149311,0.00168569,-0.00296441,0.348672,0.00271836,0.00951185,1987,1163,-0.0890932,0.0585924
770,-139,-0.0766602,-0.0565186,0.00156355,-0.00367985,0.00186827,0.00216113,-0.00427742,0.309572,0.00378364,0.01072,1994,1163,-0.0766341,0.0565191
777,-139,-0.0874023,-0.0667725,0.00186472,-0.00536525,0.00205715,0.00240906,-0.00590959,0.25868,0.00494248,0.020425,2001,1163,-0.0873886,0.0667816
784,-139,0.0325928,-0.200073,0.00196311,-0.00753091,0.00196075,0.00235211,-0.00791991,0.195853,0.00621418,0.0396861,2008,1163,0.0325385,0.200093
791,-139,0.19873,0.295654,0.00166951,-0.0101967,0.0013995,0.00183234,-0.0103595,0.115823,0.00759121,0.0476138,2015,1163,0.198759,-0.295683
798,-139,0.262695,0.126099,0.000716256,-0.0133245,0.000147754,0.000717811,-0.0133261,0.0105217,0.00913272,0.0473545,2022,1163,0.262673,-0.126047
805,-139,0.503052,0.455322,-0.00114733,-0.0168307,-0.00209052,-0.000873452,-0.0171045,-0.130266,0.0111233,0.0428055,2029,1163,0.503007,-0.455275
812,-139,0,0,0,0,0,0,0,0,0,-1,2036,1163,0,0
-700,-146,0,0,0,0,0,0,0,0,0,-1,524,1170,0,0
-693,-146,0.0557861,2.45569,0,0,0,0,0,0,0,-1,531,1170,0.0557734,-2.45572
-686,-146,-0.0864258,1.87134,0.00291011,0.0376449,-0.0139842,0.0425751,-0.0020201,-1.23185,0.0290802,0.0477973,538,1170,-0.0864513,-1.87137
-679,-146,-0.302429,1.14136,0.0037333,0.0296668,-0.01179,0.0342254,-0.000825362,-1.20185,0.023097,0.0475585,545,1170,-0.302403,-1.14141
-672,-146,-0.570068,0.599243,0.00399749,0.0229858,-0.00985396,0.0271752,-0.000191895,-1.1688,0.0181811,0.0400537,552,1170,-0.570067,-0.59926
-665,-146,-0.666199,0.388672,0.00392867,0.0174969,-0.00816172,0.0213258,9.96739e-05,-1.13214,0.0141841,0.0394167,559,1170,-0.666187,-0.388702
-658,-146,-0.470032,0.00561523,0.00369789,0.013054,-0.00667692,0.0165286,0.000223312,-1.09097,0.0109454,0.0416828,566,1170,-0.470003,-0.00556509
-651,-146,-0.108093,-0.210449,0.0033369,0.00951977,-0.00537578,0.0126296,0.000227046,-1.04634,0.00834509,0.0355366,573,1170,-0.108104,0.210424
-644,-146,-0.0686646,-0.0651855,0.00286632,0.00676572,-0.00423536,0.00947859,0.000153446,-1.00111,0.00626854,0.0188506,580,1170,-0.0686703,0.06516
-637,-146,-0.0369263,-0.046875,0.00227687,0.00491484,-0.00325333,0.00710639,8.53227e-05,-0.977986,0.00470941,0.0101148,587,1170,-0.0369314,0.0469257
-630,-146,-0.0407104,-0.0437012,0.0018791,0.00272696,-0.00233985,0.00468098,-7.49142e-05,-0.875015,0.00314592,0.00973885,594,1170,-0.040707,0.0437575
-623,-146,-0.0562134,-0.0458984,0.00124518,0.00171139,-0.00167373,0.00316817,-0.000211603,-0.85459,0.00218606,0.0127917,601,1170,-0.0562313,0.0459154
-616,-146,-0.0512695,-0.0415039,0.000884708,0.000741704,-0.00119894,0.00201427,-0.000387862,-0.755614,0.00148907,0.0177459,608,1170,-0.0512669,0.0415521
-609,-146,-0.0380859,-0.0339355,0.000780508,0.000426851,-0.000793934,0.00141707,-0.000209708,-0.675825,0.00102181,0.0164749,615,1170,-0.0380679,0.0339453
-602,-146,-0.0501099,-0.060791,0.000418847,0.000450764,-0.00051909,0.00095414,-8.45292e-05,-0.800765,0.00066606,0.0169501,622,1170,-0.0501197,0.0607636
-595,-146,-0.0651855,-0.05896,0.000167025,0.000472283,-0.000278002,0.000636799,2.50977e-06,-1.03644,0.000423698,0.00957451,629,1170,-0.0651596,0.0589754
-588,-146,-0.0756226,-0.0561523,0.000139523,0.000640368,-0.000211258,0.000717575,6.2316e-05,-1.22041,0.000459023,0.0110053,636,1170,-0.0756444,0.0561215
-581,-146,-0.107788,0.00366211,0.000180934,0.000860425,-0.000305596,0.000977643,6.3716e-05,-1.20453,0.000631596,0.0216656,643,1170,-0.107766,-0.00370253
-574,-146,-0.06427,-0.133789,0.000122314,0.00110924,-0.000369148,0.00123204,-4.82309e-07,-1.24966,0.000821518,0.0364813,650,1170,-0.06427,0.133778
-567,-146,-0.108521,-0.0958252,8.04914e-05,0.00130041,-0.000448448,0.00144752,-6.66197e-05,-1.25381,0.000987969,0.0399813,657,1170,-0.108506,0.0958726
-560,-146,-0.144226,0.102173,-3.1132e-05,0.00149497,-0.000559146,0.0016779,-0.000214068,-1.2546,0.00119636,0.0403461,664,1170,-0.144229,-0.102187
-553,-146,-0.160034,0.172729,-0.000248961,0.00162333,-0.000664363,0.00183512,-0.000460747,-1.2622,0.00140245,0.0383919,671,1170,-0.160061,-0.17274
-546,-146,-0.165588,0.182739,-0.000631737,0.0016108,-0.000757178,0.00184251,-0.000863451,-1.27382,0.00159601,0.0383853,678,1170,-0.165593,-0.182784
-539,-146,-0.110352,0.13269,-0.00126319,0.00139009,-0.000816409,0.00162117,-0.00149428,-1.29497,0.0017992,0.0406824,685,1170,-0.110372,-0.132727
-532,-146,-0.00817871,-0.0355225,-0.00224026,0.000883173,-0.000819427,0.00108509,-0.00244218,-1.32919,0.00208611,0.0413769,692,1170,-0.00818986,0.0354906
-525,-146,-0.085083,-0.0057373,-0.00361173,-3.43869e-05,-0.000804265,0.000138112,-0.00378423,-1.35952,0.00257009,0.0399362,699,1170,-0.0850578,0.00570173
-518,-146,0,0,0,0,0,0,0,0,0,-1,706,1170,0,0
-511,-146,0,0,0,0,0,0,0,0,0,-1,713,1170,0,0
-504,-146,0,0,0,0,0,0,0,0,0,-1,720,1170,0,0
-497,-146,0,0,0,0,0,0,0,0,0,-1,727,1170,0,0
-490,-146,0,0,0,0,0,0,0,0,0,-1,734,1170,0,0
-483,-146,0,0,0,0,0,0,0,0,0,-1,741,1170,0,0
-476,-146,0,0,0,0,0,0,0,0,0,-1,748,1170,0,0
-469,-146,0,0,0,0,0,0,0,0,0,-1,755,1170,0,0
-462,-146,0,0,0,0,0,0,0,0,0,-1,762,1170,0,0
-455,-146,0,0,0,0,0,0,0,0,0,-1,769,1170,0,0
-448,-146,0,0,0,0,0,0,0,0,0,-1,776,1170,0,0
-441,-146,0,0,0,0,0,0,0,0,0,-1,783,1170,0,0
-434,-146,0,0,0,0,0,0,0,0,0,-1,790,1170,0,0
-427,-146,0,0,0,0,0,0,0,0,0,-1,797,1170,0,0
-420,-146,0,0,0,0,0,0,0,0,0,-1,804,1170,0,0
-413,-146,0,0,0,0,0,0,0,0,0,-1,811,1170,0,0
-406,-146,0,0,0,0,0,0,0,0,0,-1,818,1170,0,0
-399,-146,0,0,0,0,0,0,0,0,0,-1,825,1170,0,0
-392,-146,0,0,0,0,0,0,0,0,0,-1,832,1170,0,0
-385,-146,0,0,0,0,0,0,0,0,0,-1,839,1170,0,0
-378,-146,0,0,0,0,0,0,0,0,0,-1,846,1170,0,0
-371,-146,0,0,0,0,0,0,0,0,0,-1,853,1170,0,0
-364,-146,0,0,0,0,0,0,0,0,0,-1,860,1170,0,0
-357,-146,0,0,0,0,0,0,0,0,0,-1,867,1170,0,0
-350,-146,0,0,0,0,0,0,0,0,0,-1,874,1170,0,0
-343,-146,0,0,0,0,0,0,0,0,0,-1,881,1170,0,0
-336,-146,0,0,0,0,0,0,0,0,0,-1,888,1170,0,0
-329,-146,0,0,0,0,0,0,0,0,0,-1,895,1170,0,0
-322,-146,0,0,0,0,0,0,0,0,0,-1,902,1170,0,0
-315,-146,0,0,0,0,0,0,0,0,0,-1,909,1170,0,0
-308,-146,0,0,0,0,0,0,0,0,0,-1,916,1170,0,0
-301,-146,0,0,0,0,0,0,0,0,0,-1,923,1170,0,0
-294,-146,0,0,0,0,0,0,0,0,0,-1,930,1170,0,0
-287,-146,0,0,0,0,0,0,0,0,0,-1,937,1170,0,0
-280,-146,0,0,0,0,0,0,0,0,0,-1,944,1170,0,0
-273,-146,0,0,0,0,0,0,0,0,0,-1,951,1170,0,0
-266,-146,0,0,0,0,0,0,0,0,0,-1,958,1170,0,0
-259,-146,0,0,0,0,0,0,0,0,0,-1,965,1170,0,0
-252,-146,0,0,0,0,0,0,0,0,0,-1,972,1170,0,0
-245,-146,0,0,0,0,0,0,0,0,0,-1,979,1170,0,0
-238,-146,0,0,0,0,0,0,0,0,0,-1,986,1170,0,0
-231,-146,0,0,0,0,0,0,0,0,0,-1,993,1170,0,0
-224,-146,0,0,0,0,0,0,0,0,0,-1,1000,1170,0,0
-217,-146,0,0,0,0,0,0,0,0,0,-1,1007,1170,0,0
-210,-146,0,0,0,0,0,0,0,0,0,-1,1014,1170,0,0
-203,-146,0,0,0,0,0,0,0,0,0,-1,1021,1170,0,0
-196,-146,0,0,0,0,0,0,0,0,0,-1,1028,1170,0,0
-189,-146,0,0,0,0,0,0,0,0,0,-1,1035,1170,0,0
-182,-146,0,0,0,0,0,0,0,0,0,-1,1042,1170,0,0
-175,-146,0,0,0,0,0,0,0,0,0,-1,1049,1170,0,0
-168,-146,0,0,0,0,0,0,0,0,0,-1,1056,1170,0,0
-161,-146,0,0,0,0,0,0,0,0,0,-1,1063,1170,0,0
-154,-146,0,0,0,0,0,0,0,0,0,-1,1070,1170,0,0
-147,-146,0,0,0,0,0,0,0,0,0,-1,1077,1170,0,0
-140,-146,0,0,0,0,0,0,0,0,0,-1,1084,1170,0,0
-133,-146,0,0,0,0,0,0,0,0,0,-1,1091,1170,0,0
-126,-146,0,0,0,0,0,0,0,0,0,-1,1098,1170,0,0
-119,-146,0,0,0,0,0,0,0,0,0,-1,1105,1170,0,0
-112,-146,0,0,0,0,0,0,0,0,0,-1,1112,1170,0,0
-105,-146,0,0,0,0,0,0,0,0,0,-1,1119,1170,0,0
-98,-146,0,0,0,0,0,0,0,0,0,-1,1126,1170,0,0
-91,-146,0,0,0,0,0,0,0,0,0,-1,1133,1170,0,0
-84,-146,0,0,0,0,0,0,0,0,0,-1,1140,1170,0,0
-77,-146,0,0,0,0,0,0,0,0,0,-1,1147,1170,0,0
-70,-146,0,0,0,0,0,0,0,0,0,-1,1154,1170,0,0
-63,-146,0,0,0,0,0,0,0,0,0,-1,1161,1170,0,0
-56,-146,0,0,0,0,0,0,0,0,0,-1,1168,1170,0,0
-49,-146,0,0,0,0,0,0,0,0,0,-1,1175,1170,0,0
-42,-146,0,0,0,0,0,0,0,0,0,-1,1182,1170,0,0
-35,-146,0,0,0,0,0,0,0,0,0,-1,1189,1170,0,0
-28,-146,0,0,0,0,0,0,0,0,0,-1,1196,1170,0,0
-21,-146,0,0,0,0,0,0,0,0,0,-1,1203,1170,0,0
-14,-146,0,0,0,0,0,0,0,0,0,-1,1210,1170,0,0
-7,-146,0,0,0,0,0,0,0,0,0,-1,1217,1170,0,0
0,-146,0,0,0,0,0,0,0,0,0,-1,1224,1170,0,0
7,-146,0,0,0,0,0,0,0,0,0,-1,1231,1170,0,0
14,-146,0,0,0,0,0,0,0,0,0,-1,1238,1170,0,0
21,-146,0,0,0,0,0,0,0,0,0,-1,1245,1170,0,0
28,-146,0,0,0,0,0,0,0,0,0,-1,1252,1170,0,0
35,-146,0,0,0,0,0,0,0,0,0,-1,1259,1170,0,0
42,-146,0,0,0,0,0,0,0,0,0,-1,1266,1170,0,0
49,-146,0,0,0,0,0,0,0,0,0,-1,1273,1170,0,0
56,-146,0,0,0,0,0,0,0,0,0,-1,1280,1170,0,0
63,-146,0,0,0,0,0,0,0,0,0,-1,1287,1170,0,0
70,-146,0,0,0,0,0,0,0,0,0,-1,1294,1170,0,0
77,-146,0,0,0,0,0,0,0,0,0,-1,1301,1170,0,0
84,-146,0,0,0,0,0,0,0,0,0,-1,1308,1170,0,0
91,-146,0,0,0,0,0,0,0,0,0,-1,1315,1170,0,0
98,-146,0,0,0,0,0,0,0,0,0,-1,1322,1170,0,0
105,-146,0,0,0,0,0,0,0,0,0,-1,1329,1170,0,0
112,-146,0,0,0,0,0,0,0,0,0,-1,1336,1170,0,0
119,-146,0,0,0,0,0,0,0,0,0,-1,1343,1170,0,0
126,-146,0,0,0,0,0,0,0,0,0,-1,1350,1170,0,0
133,-146,0,0,0,0,0,0,0,0,0,-1,1357,1170,0,0
140,-146,0,0,0,0,0,0,0,0,0,-1,1364,1170,0,0
147,-146,0,0,0,0,0,0,0,0,0,-1,1371,1170,0,0
154,-146,0,0,0,0,0,0,0,0,0,-1,1378,1170,0,0
161,-146,0,0,0,0,0,0,0,0,0,-1,1385,1170,0,0
168,-146,0,0,0,0,0,0,0,0,0,-1,1392,1170,0,0
175,-146,0,0,0,0,0,0,0,0,0,-1,1399,1170,0,0
182,-146,0,0,0,0,0,0,0,0,0,-1,1406,1170,0,0
189,-146,0,0,0,0,0,0,0,0,0,-1,1413,1170,0,0
196,-146,0,0,0,0,0,0,0,0,0,-1,1420,1170,0,0
203,-146,0,0,0,0,0,0,0,0,0,-1,1427,1170,0,0
210,-146,0,0,0,0,0,0,0,0,0,-1,1434,1170,0,0
217,-146,0,0,0,0,0,0,0,0,0,-1,1441,1170,0,0
224,-146,0,0,0,0,0,0,0,0,0,-1,1448,1170,0,0
231,-146,0,0,0,0,0,0,0,0,0,-1,1455,1170,0,0
238,-146,0,0,0,0,0,0,0,0,0,-1,1462,1170,0,0
245,-146,0,0,0,0,0,0,0,0,0,-1,1469,1170,0,0
252,-146,0,0,0,0,0,0,0,0,0,-1,1476,1170,0,0
259,-146,0,0,0,0,0,0,0,0,0,-1,1483,1170,0,0
266,-146,0,0,0,0,0,0,0,0,0,-1,1490,1170,0,0
273,-146,0,0,0,0,0,0,0,0,0,-1,1497,1170,0,0
280,-146,0,0,0,0,0,0,0,0,0,-1,1504,1170,0,0
287,-146,0,0,0,0,0,0,0,0,0,-1,1511,1170,0,0
294,-146,0,0,0,0,0,0,0,0,0,-1,1518,1170,0,0
301,-146,0,0,0,0,0,0,0,0,0,-1,1525,1170,0,0
308,-146,0,0,0,0,0,0,0,0,0,-1,1532,1170,0,0
315,-146,0,0,0,0,0,0,0,0,0,-1,1539,1170,0,0
322,-146,0,0,0,0,0,0,0,0,0,-1,1546,1170,0,0
329,-146,0,0,0,0,0,0,0,0,0,-1,1553,1170,0,0
336,-146,0,0,0,0,0,0,0,0,0,-1,1560,1170,0,0
343,-146,0,0,0,0,0,0,0,0,0,-1,1567,1170,0,0
350,-146,0,0,0,0,0,0,0,0,0,-1,1574,1170,0,0
357,-146,0,0,0,0,0,0,0,0,0,-1,1581,1170,0,0
364,-146,0,0,0,0,0,0,0,0,0,-1,1588,1170,0,0
371,-146,0,0,0,0,0,0,0,0,0,-1,1595,1170,0,0
378,-146,0,0,0,0,0,0,0,0,0,-1,1602,1170,0,0
385,-146,0,0,0,0,0,0,0,0,0,-1,1609,1170,0,0
392,-146,0,0,0,0,0,0,0,0,0,-1,1616,1170,0,0
399,-146,0,0,0,0,0,0,0,0,0,-1,1623,1170,0,0
406,-146,0,0,0,0,0,0,0,0,0,-1,1630,1170,0,0
413,-146,0,0,0,0,0,0,0,0,0,-1,1637,1170,0,0
420,-146,0,0,0,0,0,0,0,0,0,-1,1644,1170,0,0
427,-146,0,0,0,0,0,0,0,0,0,-1,1651,1170,0,0
434,-146,0,0,0,0,0,0,0,0,0,-1,1658,1170,0,0
441,-146,0,0,0,0,0,0,0,0,0,-1,1665,1170,0,0
448,-146,0,0,0,0,0,0,0,0,0,-1,1672,1170,0,0
455,-146,0,0,0,0,0,0,0,0,0,-1,1679,1170,0,0
462,-146,0,0,0,0,0,0,0,0,0,-1,1686,1170,0,0
469,-146,0,0,0,0,0,0,0,0,0,-1,1693,1170,0,0
476,-146,0,0,0,0,0,0,0,0,0,-1,1700,1170,0,0
483,-146,0,0,0,0,0,0,0,0,0,-1,1707,1170,0,0
490,-146,0,0,0,0,0,0,0,0,0,-1,1714,1170,0,0
497,-146,0,0,0,0,0,0,0,0,0,-1,1721,1170,0,0
504,-146,0,0,0,0,0,0,0,0,0,-1,1728,1170,0,0
511,-146,0,0,0,0,0,0,0,0,0,-1,1735,1170,0,0
518,-146,0,0,0,0,0,0,0,0,0,-1,1742,1170,0,0
525,-146,0,0,0,0,0,0,0,0,0,-1,1749,1170,0,0
532,-146,0,0,0,0,0,0,0,0,0,-1,1756,1170,0,0
539,-146,0,0,0,0,0,0,0,0,0,-1,1763,1170,0,0
546,-146,0,0,0,0,0,0,0,0,0,-1,1770,1170,0,0
553,-146,0,0,0,0,0,0,0,0,0,-1,1777,1170,0,0
560,-146,0,0,0,0,0,0,0,0,0,-1,1784,1170,0,0
567,-146,0,0,0,0,0,0,0,0,0,-1,1791,1170,0,0
574,-146,0,0,0,0,0,0,0,0,0,-1,1798,1170,0,0
581,-146,0,0,0,0,0,0,0,0,0,-1,1805,1170,0,0
588,-146,0,0,0,0,0,0,0,0,0,-1,1812,1170,0,0
595,-146,0,0,0,0,0,0,0,0,0,-1,1819,1170,0,0
602,-146,0,0,0,0,0,0,0,0,0,-1,1826,1170,0,0
609,-146,0,0,0,0,0,0,0,0,0,-1,1833,1170,0,0
616,-146,0,0,0,0,0,0,0,0,0,-1,1840,1170,0,0
623,-146,0,0,0,0,0,0,0,0,0,-1,1847,1170,0,0
630,-146,0,0,0,0,0,0,0,0,0,-1,1854,1170,0,0
637,-146,0.0454102,-0.0300293,-0.003054,-0.000473778,-0.00205703,0.000664228,-0.004192,-1.06548,0.00304036,0.0348274,1861,1170,0.0454191,0.0300763
644,-146,0.0552979,-0.0306396,-0.00254309,-0.000494602,-0.00161031,0.000389604,-0.00342729,-1.06865,0.00242519,0.0337856,1868,1170,0.0553516,0.0306966
651,-146,-0.067627,-0.0267334,-0.00209812,-0.000666552,-0.00102105,-0.000135386,-0.00262929,-1.09111,0.00170952,0.0309269,1875,1170,-0.0675822,0.0267157
658,-146,-0.06604,-0.0196533,-0.00161558,-0.00070458,-0.000588658,-0.000415769,-0.00190439,-1.11468,0.0011562,0.0355055,1882,1170,-0.0660547,0.0196308
665,-146,-0.0390625,0.00366211,-0.00130376,-0.000687926,-0.000376038,-0.00050982,-0.00148186,-1.12846,0.000869316,0.0351863,1889,1170,-0.039113,-0.00367664
672,-146,-0.0166016,0.0177002,-0.00108453,-0.000638046,-0.000269667,-0.000511207,-0.00121137,-1.13115,0.000702217,0.0327492,1896,1170,-0.0166223,-0.0177096
679,-146,-0.0217285,-0.0229492,-0.000912332,-0.000572113,-0.000246138,-0.000443022,-0.00104142,-1.08777,0.000603493,0.0260467,1903,1170,-0.0217749,0.0229366
686,-146,-0.0843506,-0.043457,-0.000802649,-0.000491853,-0.000271634,-0.000334308,-0.000960195,-1.04522,0.000562824,0.0167213,1910,1170,-0.0844003,0.0434193
693,-146,-0.0715332,-0.0311279,-0.000691488,-0.000414228,-0.000337057,-0.000188406,-0.000917311,-0.980501,0.000559416,0.0101949,1917,1170,-0.071541,0.0311711
700,-146,0.0212402,0.0639648,-0.000503666,-0.0003596,-0.000407744,-1.75751e-05,-0.000845691,-0.872828,0.000558028,0.0375244,1924,1170,0.0211857,-0.063926
707,-146,-0.0499268,-0.012207,-0.000393185,-0.00027298,-0.000485721,0.000156343,-0.000822508,-0.846954,0.000607199,0.0276253,1931,1170,-0.049977,0.0122012
714,-146,-0.102539,-0.0523682,-0.000417915,-0.000172289,-0.000503002,0.000222675,-0.00081288,-0.905136,0.000629415,0.0164934,1938,1170,-0.102513,0.052337
721,-146,-0.103882,-0.0390625,-0.000491708,-9.04165e-05,-0.000502842,0.000250333,-0.000832457,-0.97523,0.000654571,0.0203031,1945,1170,-0.103926,0.0390882
728,-146,-0.0876465,-0.0662842,-0.000482085,1.51747e-05,-0.000456059,0.000285974,-0.000752884,-1.03496,0.000619649,0.017188,1952,1170,-0.0876556,0.0662418
735,-146,-0.0805664,-0.069458,-0.000256636,-3.86615e-06,-0.000215741,0.000119784,-0.000380285,-1.05036,0.00030149,0.0158165,1959,1170,-0.0805463,0.0694224
742,-146,-0.0802002,-0.0750732,0.000111393,-0.000107788,0.000264937,0.000288512,-0.000284906,0.589291,0.000331065,0.0162545,1966,1170,-0.0802543,0.0750359
749,-146,-0.0996094,-0.0577393,0.000636937,-0.000495321,0.000872847,0.00111118,-0.00096956,0.497703,0.00120224,0.0150775,1973,1170,-0.0995743,0.0577045
756,-146,-0.086792,-0.0583496,0.00120691,-0.00118058,0.00132286,0.00179502,-0.00176869,0.41833,0.00205752,0.0109549,1980,1170,-0.0868149,0.0583935
763,-146,-0.0889893,-0.0625,0.00146642,-0.00197422,0.0017861,0.00222595,-0.00273375,0.402079,0.00286848,0.00953309,1987,1170,-0.0889665,0.0625352
770,-146,-0.088623,-0.0510254,0.00214732,-0.00305677,0.00232664,0.00303581,-0.00394527,0.364789,0.00404191,0.0106101,1994,1170,-0.0886263,0.0510476
777,-146,-0.0963135,-0.020874,0.00286604,-0.00454082,0.00274138,0.00377028,-0.00544506,0.318609,0.00534968,0.0193333,2001,1170,-0.0963507,0.0209313
784,-146,-0.0860596,0.237549,0.00359443,-0.00648975,0.00294745,0.00439272,-0.00728805,0.264498,0.0068126,0.0364078,2008,1170,-0.0861091,-0.237547
791,-146,-0.0269775,0.334839,0.00420358,-0.00894599,0.00277398,0.00476481,-0.00950722,0.199626,0.00839023,0.0400552,2015,1170,-0.0270344,-0.334808
798,-146,0.0299072,0.388672,0.00450035,-0.0119077,0.00199544,0.00473954,-0.0121469,0.119297,0.0100572,0.0400551,2022,1170,0.0299355,-0.388676
805,-146,0.361694,0.609253,0.00431562,-0.0153497,0.000314385,0.00432065,-0.0153547,0.0159814,0.0119402,0.0426062,2029,1170,0.361713,-0.609287
812,-146,0,0,0,0,0,0,0,0,0,-1,2036,1170,0,0
-700,-153,0,0,0,0,0,0,0,0,0,-1,524,1177,0,0
-693,-153,0,0,0,0,0,0,0,0,0,-1,531,1177,0,0
-686,-153,-0.497009,1.61804,-0.00147048,0.0514815,-0.0159844,0.0559325,-0.00592148,-1.29922,0.0394107,0.0468978,538,1177,-0.497031,-1.6181
-679,-153,-0.668762,0.967773,0.000110542,0.0402162,-0.0126861,0.0438921,-0.00356538,-1.28876,0.0305194,0.0499756,545,1177,-0.668761,-0.967763
-672,-153,-0.708923,0.140137,0.000990503,0.0310628,-0.0100495,0.034112,-0.00205867,-1.27621,0.0234577,0.0460816,552,1177,-0.708927,-0.140086
-665,-153,-0.773743,0.206055,0.00144584,0.0236859,-0.00794227,0.0262309,-0.00109922,-1.26069,0.017865,0.0427017,559,1177,-0.773757,-0.206009
-658,-153,0.186157,-0.450928,0.00167466,0.01778,-0.00624383,0.0199171,-0.000462407,-1.24102,0.0134348,0.0477181,566,1177,0.186164,0.450887
-651,-153,-0.0460205,-0.180664,0.00171875,0.0130987,-0.00486918,0.0148977,-8.02553e-05,-1.21689,0.00995865,0.0447411,573,1177,-0.0460142,0.180619
-644,-153,-0.0479126,-0.111328,0.00160593,0.00943834,-0.00374517,0.0109409,0.000103374,-1.18926,0.00725972,0.0261662,580,1177,-0.0479297,0.111286
-637,-153,-0.0414429,-0.0454102,0.00138362,0.00677581,-0.00282781,0.00798681,0.000172618,-1.16618,0.00526794,0.0109682,587,1177,-0.0414191,0.045419
-630,-153,-0.0557251,-0.0501709,0.00120925,0.00408263,-0.0019943,0.00510385,0.000188029,-1.09754,0.00334165,0.00933229,594,1177,-0.0557082,0.0502196
-623,-153,-0.0679932,-0.0546875,0.000792731,0.00259626,-0.00136822,0.00333315,5.58355e-05,-1.07676,0.00220373,0.00880165,601,1177,-0.0679713,0.0546916
-616,-153,-0.0478516,-0.0457764,0.000544116,0.00122965,-0.000948136,0.00189507,-0.00012131,-0.958846,0.0013057,0.0106997,608,1177,-0.0478258,0.0458361
-609,-153,-0.0266113,-0.0507813,0.000682315,0.000778499,-0.000703843,0.00143589,2.49227e-05,-0.819509,0.000949062,0.0166071,615,1177,-0.0265872,0.0507748
-602,-153,-0.0490112,-0.0501709,0.000541731,0.000840567,-0.000616761,0.00132575,5.65467e-05,-0.904239,0.000865601,0.0193886,622,1177,-0.0490157,0.0502207
-595,-153,-0.0670166,-0.0408936,0.00030858,0.00088869,-0.000403921,0.00109591,0.000101358,-1.09678,0.000699275,0.0134058,629,1177,-0.0670371,0.0408413
-588,-153,-0.0930176,-0.0498047,0.00027845,0.00118472,-0.000346317,0.0013019,0.000161263,-1.24451,0.000819488,0.00903268,636,1177,-0.0930393,0.0498515
-581,-153,-0.13031,-0.0450439,0.000361878,0.0015456,-0.00047986,0.00171569,0.000191791,-1.23016,0.00108552,0.0180563,643,1177,-0.130292,0.0450446
-574,-153,-0.10553,-0.109009,0.000339196,0.00193878,-0.0005734,0.00212308,0.000154887,-1.25979,0.00136669,0.0376099,650,1177,-0.1055,0.109016
-567,-153,-0.122131,-0.0672607,0.000303475,0.00225487,-0.000665214,0.00246006,9.82843e-05,-1.2716,0.00160828,0.0413955,657,1177,-0.122115,0.0672955
-560,-153,-0.127686,0.020874,0.000182224,0.0025621,-0.000773317,0.00279131,-4.6983e-05,-1.28265,0.00187673,0.0386731,664,1177,-0.127667,-0.0208399
-553,-153,-0.00964355,-0.0236816,-4.59343e-05,0.00274261,-0.000853413,0.00298306,-0.000286382,-1.29617,0.00209072,0.0376068,671,1177,-0.00961865,0.0236256
-546,-153,-0.156738,0.125244,-0.000443382,0.00267946,-0.000889597,0.0029151,-0.00067902,-1.31186,0.00220487,0.0386915,678,1177,-0.156741,-0.125264
-539,-153,-0.0144043,-0.179077,-0.00108157,0.00226977,-0.000859065,0.00247715,-0.00128895,-1.33393,0.00221014,0.0392554,685,1177,-0.0144048,0.179119
-532,-153,0.0102539,-0.0777588,-0.002037,0.00140011,-0.000737979,0.00155186,-0.00218875,-1.36799,0.00217005,0.0413971,692,1177,0.0102704,0.0777543
-525,-153,0.00817871,-0.0714111,-0.00336002,-9.20036e-05,-0.000547253,-2.79734e-06,-0.00344923,-1.40921,0.00229856,0.0385441,699,1177,0.00819623,0.0713736
-518,-153,0,0,0,0,0,0,0,0,0,-1,706,1177,0,0
-511,-153,0,0,0,0,0,0,0,0,0,-1,713,1177,0,0
-504,-153,0,0,0,0,0,0,0,0,0,-1,720,1177,0,0
-497,-153,0,0,0,0,0,0,0,0,0,-1,727,1177,0,0
-490,-153,0,0,0,0,0,0,0,0,0,-1,734,1177,0,0
-483,-153,0,0,0,0,0,0,0,0,0,-1,741,1177,0,0
-476,-153,0,0,0,0,0,0,0,0,0,-1,748,1177,0,0
-469,-153,0,0,0,0,0,0,0,0,0,-1,755,1177,0,0
-462,-153,0,0,0,0,0,0,0,0,0,-1,762,1177,0,0
-455,-153,0,0,0,0,0,0,0,0,0,-1,769,1177,0,0
-448,-153,0,0,0,0,0,0,0,0,0,-1,776,1177,0,0
-441,-153,0,0,0,0,0,0,0,0,0,-1,783,1177,0,0
-434,-153,0,0,0,0,0,0,0,0,0,-1,790,1177,0,0
-427,-153,0,0,0,0,0,0,0,0,0,-1,797,1177,0,0
-420,-153,0,0,0,0,0,0,0,0,0,-1,804,1177,0,0
-413,-153,0,0,0,0,0,0,0,0,0,-1,811,1177,0,0
-406,-153,0,0,0,0,0,0,0,0,0,-1,818,1177,0,0
-399,-153,0,0,0,0,0,0,0,0,0,-1,825,1177,0,0
-392,-153,0,0,0,0,0,0,0,0,0,-1,832,1177,0,0
-385,-153,0,0,0,0,0,0,0,0,0,-1,839,1177,0,0
-378,-153,0,0,0,0,0,0,0,0,0,-1,846,1177,0,0
-371,-153,0,0,0,0,0,0,0,0,0,-1,853,1177,0,0
-364,-153,0,0,0,0,0,0,0,0,0,-1,860,1177,0,0
-357,-153,0,0,0,0,0,0,0,0,0,-1,867,1177,0,0
-350,-153,0,0,0,0,0,0,0,0,0,-1,874,1177,0,0
-343,-153,0,0,0,0,0,0,0,0,0,-1,881,1177,0,0
-336,-153,0,0,0,0,0,0,0,0,0,-1,888,1177,0,0
-329,-153,0,0,0,0,0,0,0,0,0,-1,895,1177,0,0
-322,-153,0,0,0,0,0,0,0,0,0,-1,902,1177,0,0
-315,-153,0,0,0,0,0,0,0,0,0,-1,909,1177,0,0
-308,-153,0,0,0,0,0,0,0,0,0,-1,916,1177,0,0
-301,-153,0,0,0,0,0,0,0,0,0,-1,923,1177,0,0
-294,-153,0,0,0,0,0,0,0,0,0,-1,930,1177,0,0
-287,-153,0,0,0,0,0,0,0,0,0,-1,937,1177,0,0
-280,-153,0,0,0,0,0,0,0,0,0,-1,944,1177,0,0
-273,-153,0,0,0,0,0,0,0,0,0,-1,951,1177,0,0
-266,-153,0,0,0,0,0,0,0,0,0,-1,958,1177,0,0
-259,-153,0,0,0,0,0,0,0,0,0,-1,965,1177,0,0
-252,-153,0,0,0,0,0,0,0,0,0,-1,972,1177,0,0
-245,-153,0,0,0,0,0,0,0,0,0,-1,979,1177,0,0
-238,-153,0,0,0,0,0,0,0,0,0,-1,986,1177,0,0
-231,-153,0,0,0,0,0,0,0,0,0,-1,993,1177,0,0
-224,-153,0,0,0,0,0,0,0,0,0,-1,1000,1177,0,0
-217,-153,0,0,0,0,0,0,0,0,0,-1,1007,1177,0,0
-210,-153,0,0,0,0,0,0,0,0,0,-1,1014,1177,0,0
-203,-153,0,0,0,0,0,0,0,0,0,-1,1021,1177,0,0
-196,-153,0,0,0,0,0,0,0,0,0,-1,1028,1177,0,0
-189,-153,0,0,0,0,0,0,0,0,0,-1,1035,1177,0,0
-182,-153,0,0,0,0,0,0,0,0,0,-1,1042,1177,0,0
-175,-153,0,0,0,0,0,0,0,0,0,-1,1049,1177,0,0
-168,-153,0,0,0,0,0,0,0,0,0,-1,1056,1177,0,0
-161,-153,0,0,0,0,0,0,0,0,0,-1,1063,1177,0,0
-154,-153,0,0,0,0,0,0,0,0,0,-1,1070,1177,0,0
-147,-153,0,0,0,0,0,0,0,0,0,-1,1077,1177,0,0
-140,-153,0,0,0,0,0,0,0,0,0,-1,1084,1177,0,0
-133,-153,0,0,0,0,0,0,0,0,0,-1,1091,1177,0,0
-126,-153,0,0,0,0,0,0,0,0,0,-1,1098,1177,0,0
-119,-153,0,0,0,0,0,0,0,0,0,-1,1105,1177,0,0
-112,-153,0,0,0,0,0,0,0,0,0,-1,1112,1177,0,0
-105,-153,0,0,0,0,0,0,0,0,0,-1,1119,1177,0,0
-98,-153,0,0,0,0,0,0,0,0,0,-1,1126,1177,0,0
-91,-153,0,0,0,0,0,0,0,0,0,-1,1133,1177,0,0
-84,-153,0,0,0,0,0,0,0,0,0,-1,1140,1177,0,0
-77,-153,0,0,0,0,0,0,0,0,0,-1,1147,1177,0,0
-70,-153,0,0,0,0,0,0,0,0,0,-1,1154,1177,0,0
-63,-153,0,0,0,0,0,0,0,0,0,-1,1161,1177,0,0
-56,-153,0,0,0,0,0,0,0,0,0,-1,1168,1177,0,0
-49,-153,0,0,0,0,0,0,0,0,0,-1,1175,1177,0,0
-42,-153,0,0,0,0,0,0,0,0,0,-1,1182,1177,0,0
-35,-153,0,0,0,0,0,0,0,0,0,-1,1189,1177,0,0
-28,-153,0,0,0,0,0,0,0,0,0,-1,1196,1177,0,0
-21,-153,0,0,0,0,0,0,0,0,0,-1,1203,1177,0,0
-14,-153,0,0,0,0,0,0,0,0,0,-1,1210,1177,0,0
-7,-153,0,0,0,0,0,0,0,0,0,-1,1217,1177,0,0
0,-153,0,0,0,0,0,0,0,0,0,-1,1224,1177,0,0
7,-153,0,0,0,0,0,0,0,0,0,-1,1231,1177,0,0
14,-153,0,0,0,0,0,0,0,0,0,-1,1238,1177,0,0
21,-153,0,0,0,0,0,0,0,0,0,-1,1245,1177,0,0
28,-153,0,0,0,0,0,0,0,0,0,-1,1252,1177,0,0
35,-153,0,0,0,0,0,0,0,0,0,-1,1259,1177,0,0
42,-153,0,0,0,0,0,0,0,0,0,-1,1266,1177,0,0
49,-153,0,0,0,0,0,0,0,0,0,-1,1273,1177,0,0
56,-153,0,0,0,0,0,0,0,0,0,-1,1280,1177,0,0
63,-153,0,0,0,0,0,0,0,0,0,-1,1287,1177,0,0
70,-153,0,0,0,0,0,0,0,0,0,-1,1294,1177,0,0
77,-153,0,0,0,0,0,0,0,0,0,-1,1301,1177,0,0
84,-153,0,0,0,0,0,0,0,0,0,-1,1308,1177,0,0
91,-153,0,0,0,0,0,0,0,0,0,-1,1315,1177,0,0
98,-153,0,0,0,0,0,0,0,0,0,-1,1322,1177,0,0
105,-153,0,0,0,0,0,0,0,0,0,-1,1329,1177,0,0
112,-153,0,0,0,0,0,0,0,0,0,-1,1336,1177,0,0
119,-153,0,0,0,0,0,0,0,0,0,-1,1343,1177,0,0
126,-153,0,0,0,0,0,0,0,0,0,-1,1350,1177,0,0
133,-153,0,0,0,0,0,0,0,0,0,-1,1357,1177,0,0
140,-153,0,0,0,0,0,0,0,0,0,-1,1364,1177,0,0
147,-153,0,0,0,0,0,0,0,0,0,-1,1371,1177,0,0
154,-153,0,0,0,0,0,0,0,0,0,-1,1378,1177,0,0
161,-153,0,0,0,0,0,0,0,0,0,-1,1385,1177,0,0
168,-153,0,0,0,0,0,0,0,0,0,-1,1392,1177,0,0
175,-153,0,0,0,0,0,0,0,0,0,-1,1399,1177,0,0
182,-153,0,0,0,0,0,0,0,0,0,-1,1406,1177,0,0
189,-153,0,0,0,0,0,0,0,0,0,-1,1413,1177,0,0
196,-153,0,0,0,0,0,0,0,0,0,-1,1420,1177,0,0
203,-153,0,0,0,0,0,0,0,0,0,-1,1427,1177,0,0
210,-153,0,0,0,0,0,0,0,0,0,-1,1434,1177,0,0
217,-153,0,0,0,0,0,0,0,0,0,-1,1441,1177,0,0
224,-153,0,0,0,0,0,0,0,0,0,-1,1448,1177,0,0
231,-153,0,0,0,0,0,0,0,0,0,-1,1455,1177,0,0
238,-153,0,0,0,0,0,0,0,0,0,-1,1462,1177,0,0
245,-153,0,0,0,0,0,0,0,0,0,-1,1469,1177,0,0
252,-153,0,0,0,0,0,0,0,0,0,-1,1476,1177,0,0
259,-153,0,0,0,0,0,0,0,0,0,-1,1483,1177,0,0
266,-153,0,0,0,0,0,0,0,0,0,-1,1490,1177,0,0
273,-153,0,0,0,0,0,0,0,0,0,-1,1497,1177,0,0
280,-153,0,0,0,0,0,0,0,0,0,-1,1504,1177,0,0
287,-153,0,0,0,0,0,0,0,0,0,-1,1511,1177,0,0
294,-153,0,0,0,0,0,0,0,0,0,-1,1518,1177,0,0
301,-153,0,0,0,0,0,0,0,0,0,-1,1525,1177,0,0
308,-153,0,0,0,0,0,0,0,0,0,-1,1532,1177,0,0
315,-153,0,0,0,0,0,0,0,0,0,-1,1539,1177,0,0
322,-153,0,0,0,0,0,0,0,0,0,-1,1546,1177,0,0
329,-153,0,0,0,0,0,0,0,0,0,-1,1553,1177,0,0
336,-153,0,0,0,0,0,0,0,0,0,-1,1560,1177,0,0
343,-153,0,0,0,0,0,0,0,0,0,-1,1567,1177,0,0
350,-153,0,0,0,0,0,0,0,0,0,-1,1574,1177,0,0
357,-153,0,0,0,0,0,0,0,0,0,-1,1581,1177,0,0
364,-153,0,0,0,0,0,0,0,0,0,-1,1588,1177,0,0
371,-153,0,0,0,0,0,0,0,0,0,-1,1595,1177,0,0
378,-153,0,0,0,0,0,0,0,0,0,-1,1602,1177,0,0
385,-153,0,0,0,0,0,0,0,0,0,-1,1609,1177,0,0
392,-153,0,0,0,0,0,0,0,0,0,-1,1616,1177,0,0
399,-153,0,0,0,0,0,0,0,0,0,-1,1623,1177,0,0
406,-153,0,0,0,0,0,0,0,0,0,-1,1630,1177,0,0
413,-153,0,0,0,0,0,0,0,0,0,-1,1637,1177,0,0
420,-153,0,0,0,0,0,0,0,0,0,-1,1644,1177,0,0
427,-153,0,0,0,0,0,0,0,0,0,-1,1651,1177,0,0
434,-153,0,0,0,0,0,0,0,0,0,-1,1658,1177,0,0
441,-153,0,0,0,0,0,0,0,0,0,-1,1665,1177,0,0
448,-153,0,0,0,0,0,0,0,0,0,-1,1672,1177,0,0
455,-153,0,0,0,0,0,0,0,0,0,-1,1679,1177,0,0
462,-153,0,0,0,0,0,0,0,0,0,-1,1686,1177,0,0
469,-153,0,0,0,0,0,0,0,0,0,-1,1693,1177,0,0
476,-153,0,0,0,0,0,0,0,0,0,-1,1700,1177,0,0
483,-153,0,0,0,0,0,0,0,0,0,-1,1707,1177,0,0
490,-153,0,0,0,0,0,0,0,0,0,-1,1714,1177,0,0
497,-153,0,0,0,0,0,0,0,0,0,-1,1721,1177,0,0
504,-153,0,0,0,0,0,0,0,0,0,-1,1728,1177,0,0
511,-153,0,0,0,0,0,0,0,0,0,-1,1735,1177,0,0
518,-153,0,0,0,0,0,0,0,0,0,-1,1742,1177,0,0
525,-153,0,0,0,0,0,0,0,0,0,-1,1749,1177,0,0
532,-153,0,0,0,0,0,0,0,0,0,-1,1756,1177,0,0
539,-153,0,0,0,0,0,0,0,0,0,-1,1763,1177,0,0
546,-153,0,0,0,0,0,0,0,0,0,-1,1770,1177,0,0
553,-153,0,0,0,0,0,0,0,0,0,-1,1777,1177,0,0
560,-153,0,0,0,0,0,0,0,0,0,-1,1784,1177,0,0
567,-153,0,0,0,0,0,0,0,0,0,-1,1791,1177,0,0
574,-153,0,0,0,0,0,0,0,0,0,-1,1798,1177,0,0
581,-153,0,0,0,0,0,0,0,0,0,-1,1805,1177,0,0
588,-153,0,0,0,0,0,0,0,0,0,-1,1812,1177,0,0
595,-153,0,0,0,0,0,0,0,0,0,-1,1819,1177,0,0
602,-153,0,0,0,0,0,0,0,0,0,-1,1826,1177,0,0
609,-153,0,0,0,0,0,0,0,0,0,-1,1833,1177,0,0
616,-153,0,0,0,0,0,0,0,0,0,-1,1840,1177,0,0
623,-153,0,0,0,0,0,0,0,0,0,-1,1847,1177,0,0
630,-153,0,0,0,0,0,0,0,0,0,-1,1854,1177,0,0
637,-153,-0.0439453,-0.0256348,-0.00317722,0.000107991,-0.00185697,0.000944597,-0.00401383,-1.14751,0.00304007,0.0340073,1861,1177,-0.0439415,0.0256358
644,-153,-0.0328369,-0.0185547,-0.0026162,-9.03675e-06,-0.00143161,0.00062357,-0.00324881,-1.15471,0.00240088,0.0314644,1868,1177,-0.0328521,0.0185551
651,-153,-0.012207,-0.0224609,-0.00214238,-0.000244582,-0.000855728,8.42827e-05,-0.00247125,-1.20389,0.0016763,0.025654,1875,1177,-0.0122089,0.0224112
658,-153,-0.0537109,-0.0305176,-0.00166122,-0.00031511,-0.000471156,-0.000166586,-0.00180974,-1.26542,0.00115498,0.0303245,1882,1177,-0.0536596,0.030523
665,-153,-0.0203857,-0.00256348,-0.0013412,-0.00032727,-0.000296015,-0.000247176,-0.00142129,-1.30655,0.000876827,0.0349184,1889,1177,-0.0204361,0.00258598
672,-153,-0.0111084,0.00134277,-0.00110673,-0.000306274,-0.000216944,-0.000251258,-0.00116175,-1.32244,0.000705815,0.0359017,1896,1177,-0.0111459,-0.00128525
679,-153,-0.074707,-0.0112305,-0.000921614,-0.000269312,-0.000215813,-0.000204375,-0.000986551,-1.27852,0.000601268,0.0259511,1903,1177,-0.0747168,0.01128
686,-153,-0.0776367,-0.0393066,-0.00080363,-0.000216121,-0.000259661,-0.00011781,-0.000901941,-1.20886,0.000566125,0.0130883,1910,1177,-0.077587,0.0393212
693,-153,-0.0632324,-0.0378418,-0.000671683,-0.000168464,-0.000339621,2.59609e-06,-0.000842743,-1.10421,0.000562696,0.0186646,1917,1177,-0.0632612,0.0377911
700,-153,0.0300293,0.24353,0,0,0,0,0,0,0,-1,1924,1177,0.0299752,-0.243555
707,-153,-0.0283203,0.117554,-0.000355413,-9.9117e-05,-0.000529592,0.000317611,-0.000772141,-0.904104,0.000647154,0.0321981,1931,1177,-0.0282775,-0.117523
714,-153,-0.0817871,-0.0236816,-0.000375863,-4.55008e-05,-0.000554118,0.000367532,-0.000788896,-0.930253,0.000682278,0.0165422,1938,1177,-0.0817601,0.0236978
721,-153,-0.0821533,-0.0386963,-0.000442532,3.97148e-07,-0.00057475,0.000394874,-0.000837009,-0.969293,0.000726337,0.0142449,1945,1177,-0.082165,0.0387193
728,-153,-0.0992432,-0.0477295,-0.000476388,0.0001181,-0.000534132,0.000432126,-0.000790414,-1.03931,0.000715866,0.0186654,1952,1177,-0.0992074,0.0477564
735,-153,-0.0932617,-0.0629883,-0.000284018,0.000119189,-0.000249635,0.000238461,-0.000403291,-1.12507,0.000374567,0.0149479,1959,1177,-0.0932579,0.062942
742,-153,-0.0726318,-0.0561523,9.76284e-05,6.61336e-05,0.000193143,0.000275665,-0.000111903,0.744722,0.000230325,0.0139395,1966,1177,-0.0726501,0.0561181
749,-153,-0.0667725,-0.0495605,0.000621243,-0.000281756,0.00079552,0.00108446,-0.000744972,0.527288,0.00106227,0.0148189,1973,1177,-0.0667662,0.0496198
756,-153,-0.0633545,-0.0500488,0.0012785,-0.000860758,0.00132639,0.00191281,-0.00149507,0.446076,0.00197246,0.0100478,1980,1177,-0.0633488,0.0500572
763,-153,-0.074585,-0.0498047,0.00172612,-0.00152789,0.00188862,0.00259191,-0.00239368,0.429838,0.00287919,0.00961597,1987,1177,-0.0746158,0.0498324
770,-153,-0.0802002,-0.0469971,0.00262297,-0.00243282,0.00252916,0.00367095,-0.0034808,0.392824,0.00412956,0.0095959,1994,1177,-0.0801938,0.0470111
777,-153,-0.0996094,-0.0510254,0.00370787,-0.00371535,0.00309564,0.00482938,-0.00483686,0.347579,0.00558081,0.0207177,2001,1177,-0.0996115,0.0510283
784,-153,-0.171143,0.119873,0.00500824,-0.00545315,0.00351743,0.00608092,-0.00652582,0.296001,0.00728002,0.0393478,2008,1177,-0.171168,-0.119888
791,-153,-0.231934,0.365234,0.00646405,-0.00771207,0.00362918,0.00733913,-0.00858715,0.236606,0.00920444,0.040047,2015,1177,-0.231942,-0.365277
798,-153,-0.109863,0.574829,0.00796905,-0.0105273,0.00320092,0.00850733,-0.0110656,0.166604,0.0113326,0.042796,2022,1177,-0.109906,-0.574789
805,-153,0.322998,0.4823,0.0094518,-0.0139336,0.00192816,0.00960971,-0.0140915,0.0817159,0.0137652,0.0438383,2029,1177,0.323022,-0.482321
812,-153,0,0,0,0,0,0,0,0,0,-1,2036,1177,0,0
-700,-160,0,0,0,0,0,0,0,0,0,-1,524,1184,0,0
-693,-160,0,0,0,0,0,0,0,0,0,-1,531,1184,0,0
-686,-160,-0.562439,-0.709595,0,0,0,0,0,0,0,-1,538,1184,-0.562455,0.709639
-679,-160,-0.276917,-0.512939,0,0,0,0,0,0,0,-1,545,1184,-0.276896,0.512995
-672,-160,-1.05658,-0.0355225,0,0,0,0,0,0,0,-1,552,1184,-1.05661,0.0355025
-665,-160,-0.36084,-0.032959,0.00056691,0.0273637,-0.00742412,0.0292831,-0.00135248,-1.3178,0.0199882,0.0434355,559,1184,-0.360849,0.0329472
-658,-160,-0.183411,0.15332,0.000641545,0.0207009,-0.00548891,0.0221046,-0.000762173,-1.32043,0.0149969,0.0496943,566,1184,-0.183395,-0.153367
-651,-160,-0.0350952,-0.184692,0,0,0,0,0,0,0,-1,573,1184,-0.0351037,0.184679
-644,-160,-0.0307007,-0.143799,0.000678515,0.0112052,-0.00296134,0.0119811,-9.73749e-05,-1.31455,0.00802005,0.0355623,580,1184,-0.0306875,0.143817
-637,-160,-0.0551147,-0.0217285,0.000603892,0.00807955,-0.00214575,0.00865166,3.17795e-05,-1.31023,0.00575721,0.0131197,587,1184,-0.0551288,0.0217817
-630,-160,-0.0662231,-0.045166,0.000583187,0.00508266,-0.00143713,0.0055025,0.000163344,-1.28657,0.00361512,0.00773994,594,1184,-0.0662384,0.0451296
-623,-160,-0.0797119,-0.0540771,0.00027283,0.00325642,-0.000862718,0.00348792,4.13327e-05,-1.30864,0.00231162,0.0080238,601,1184,-0.0796932,0.0541084
-616,-160,-0.0713501,-0.0565186,0.000140811,0.00164652,-0.000557951,0.00183073,-4.34039e-05,-1.2519,0.00123521,0.00726023,608,1184,-0.071358,0.0565311
-609,-160,-0.0506592,-0.0368652,0.000543691,0.00110835,-0.000515119,0.00141344,0.000238605,-1.03609,0.000873686,0.0113263,615,1184,-0.0506799,0.0368782
-602,-160,-0.0495605,-0.027832,0.000605902,0.00117793,-0.000622902,0.00157734,0.000206487,-1.00062,0.000989936,0.0167504,622,1184,-0.049553,0.0277993
-595,-160,-0.0715332,-0.0268555,0.000349325,0.00116205,-0.000378008,0.00131068,0.000200691,-1.19616,0.000815167,0.0174621,629,1184,-0.0715378,0.0268722
-588,-160,-0.0681763,-0.0101318,0.000252173,0.0015204,-0.000264438,0.00157333,0.000199244,-1.37325,0.000989184,0.0169467,636,1184,-0.0681507,0.0101516
-581,-160,-0.11969,-0.0268555,0.000316658,0.00194037,-0.00038014,0.00202496,0.000232067,-1.35184,0.00127965,0.0153913,643,1184,-0.119699,0.0267964
-574,-160,-0.125916,-0.0264893,0.000277449,0.00237321,-0.000431506,0.00245858,0.000192081,-1.37548,0.00157892,0.039854,650,1184,-0.125887,0.0265004
-567,-160,-0.172607,0.247925,0.000194477,0.00270256,-0.000455384,0.00278268,0.000114354,-1.39663,0.0018182,0.0412156,657,1184,-0.172614,-0.247983
-560,-160,-0.0705566,-0.110596,1.30644e-05,0.00300964,-0.000489323,0.00308752,-6.48148e-05,-1.41296,0.00208029,0.0366075,664,1184,-0.0705616,0.110543
-553,-160,0.0228271,-0.183472,-0.000261167,0.00315605,-0.000488991,0.00322465,-0.000329763,-1.43143,0.00226769,0.0386454,671,1184,0.0228109,0.183479
-546,-160,0.0560303,-0.284668,-0.000672478,0.00301275,-0.00046567,0.00307068,-0.00073041,-1.44703,0.00232908,0.0376216,678,1184,0.0560445,0.284617
-539,-160,0.0431519,-0.29834,-0.00126258,0.00247616,-0.000427988,0.00252453,-0.00131094,-1.45826,0.00225106,0.0386944,685,1184,0.0431661,0.298313
-532,-160,0.107605,-0.267212,-0.00206689,0.00143796,-0.000391094,0.00148107,-0.00211,-1.46101,0.00208388,0.0416096,692,1184,0.10758,0.267255
-525,-160,0.0505371,-0.190063,-0.0031105,-0.000244307,-0.000415298,-0.000185345,-0.00316946,-1.42976,0.00205398,0.0404186,699,1184,0.0505447,0.190016
-518,-160,-0.0117188,-0.231445,-0.00429109,-0.00282715,-0.000444022,-0.00270301,-0.00441523,-1.29816,0.00257044,0.0384082,706,1184,-0.0117097,0.231463
-511,-160,0,0,0,0,0,0,0,0,0,-1,713,1184,0,0
-504,-160,0,0,0,0,0,0,0,0,0,-1,720,1184,0,0
-497,-160,0,0,0,0,0,0,0,0,0,-1,727,1184,0,0
-490,-160,0,0,0,0,0,0,0,0,0,-1,734,1184,0,0
-483,-160,0,0,0,0,0,0,0,0,0,-1,741,1184,0,0
-476,-160,0,0,0,0,0,0,0,0,0,-1,748,1184,0,0
-469,-160,0,0,0,0,0,0,0,0,0,-1,755,1184,0,0
-462,-160,0,0,0,0,0,0,0,0,0,-1,762,1184,0,0
-455,-160,0,0,0,0,0,0,0,0,0,-1,769,1184,0,0
-448,-160,0,0,0,0,0,0,0,0,0,-1,776,1184,0,0
-441,-160,0,0,0,0,0,0,0,0,0,-1,783,1184,0,0
-434,-160,0,0,0,0,0,0,0,0,0,-1,790,1184,0,0
-427,-160,0,0,0,0,0,0,0,0,0,-1,797,1184,0,0
-420,-160,0,0,0,0,0,0,0,0,0,-1,804,1184,0,0
-413,-160,0,0,0,0,0,0,0,0,0,-1,811,1184,0,0
-406,-160,0,0,0,0,0,0,0,0,0,-1,818,1184,0,0
-399,-160,0,0,0,0,0,0,0,0,0,-1,825,1184,0,0
-392,-160,0,0,0,0,0,0,0,0,0,-1,832,1184,0,0
-385,-160,0,0,0,0,0,0,0,0,0,-1,839,1184,0,0
-378,-160,0,0,0,0,0,0,0,0,0,-1,846,1184,0,0
-371,-160,0,0,0,0,0,0,0,0,0,-1,853,1184,0,0
-364,-160,0,0,0,0,0,0,0,0,0,-1,860,1184,0,0
-357,-160,0,0,0,0,0,0,0,0,0,-1,867,1184,0,0
-350,-160,0,0,0,0,0,0,0,0,0,-1,874,1184,0,0
-343,-160,0,0,0,0,0,0,0,0,0,-1,881,1184,0,0
-336,-160,0,0,0,0,0,0,0,0,0,-1,888,1184,0,0
-329,-160,0,0,0,0,0,0,0,0,0,-1,895,1184,0,0
-322,-160,0,0,0,0,0,0,0,0,0,-1,902,1184,0,0
-315,-160,0,0,0,0,0,0,0,0,0,-1,909,1184,0,0
-308,-160,0,0,0,0,0,0,0,0,0,-1,916,1184,0,0
-301,-160,0,0,0,0,0,0,0,0,0,-1,923,1184,0,0
-294,-160,0,0,0,0,0,0,0,0,0,-1,930,1184,0,0
-287,-160,0,0,0,0,0,0,0,0,0,-1,937,1184,0,0
-280,-160,0,0,0,0,0,0,0,0,0,-1,944,1184,0,0
-273,-160,0,0,0,0,0,0,0,0,0,-1,951,1184,0,0
-266,-160,0,0,0,0,0,0,0,0,0,-1,958,1184,0,0
-259,-160,0,0,0,0,0,0,0,0,0,-1,965,1184,0,0
-252,-160,0,0,0,0,0,0,0,0,0,-1,972,1184,0,0
-245,-160,0,0,0,0,0,0,0,0,0,-1,979,1184,0,0
-238,-160,0,0,0,0,0,0,0,0,0,-1,986,1184,0,0
-231,-160,0,0,0,0,0,0,0,0,0,-1,993,1184,0,0
-224,-160,0,0,0,0,0,0,0,0,0,-1,1000,1184,0,0
-217,-160,0,0,0,0,0,0,0,0,0,-1,1007,1184,0,0
-210,-160,0,0,0,0,0,0,0,0,0,-1,1014,1184,0,0
-203,-160,0,0,0,0,0,0,0,0,0,-1,1021,1184,0,0
-196,-160,0,0,0,0,0,0,0,0,0,-1,1028,1184,0,0
-189,-160,0,0,0,0,0,0,0,0,0,-1,1035,1184,0,0
-182,-160,0,0,0,0,0,0,0,0,0,-1,1042,1184,0,0
-175,-160,0,0,0,0,0,0,0,0,0,-1,1049,1184,0,0
-168,-160,0,0,0,0,0,0,0,0,0,-1,1056,1184,0,0
-161,-160,0,0,0,0,0,0,0,0,0,-1,1063,1184,0,0
-154,-160,0,0,0,0,0,0,0,0,0,-1,1070,1184,0,0
-147,-160,0,0,0,0,0,0,0,0,0,-1,1077,1184,0,0
-140,-160,0,0,0,0,0,0,0,0,0,-1,1084,1184,0,0
-133,-160,0,0,0,0,0,0,0,0,0,-1,1091,1184,0,0
-126,-160,0,0,0,0,0,0,0,0,0,-1,1098,1184,0,0
-119,-160,0,0,0,0,0,0,0,0,0,-1,1105,1184,0,0
-112,-160,0,0,0,0,0,0,0,0,0,-1,1112,1184,0,0
-105,-160,0,0,0,0,0,0,0,0,0,-1,1119,1184,0,0
-98,-160,0,0,0,0,0,0,0,0,0,-1,1126,1184,0,0
-91,-160,0,0,0,0,0,0,0,0,0,-1,1133,1184,0,0
-84,-160,0,0,0,0,0,0,0,0,0,-1,1140,1184,0,0
-77,-160,0,0,0,0,0,0,0,0,0,-1,1147,1184,0,0
-70,-160,0,0,0,0,0,0,0,0,0,-1,1154,1184,0,0
-63,-160,0,0,0,0,0,0,0,0,0,-1,1161,1184,0,0
-56,-160,0,0,0,0,0,0,0,0,0,-1,1168,1184,0,0
-49,-160,0,0,0,0,0,0,0,0,0,-1,1175,1184,0,0
-42,-160,0,0,0,0,0,0,0,0,0,-1,1182,1184,0,0
-35,-160,0,0,0,0,0,0,0,0,0,-1,1189,1184,0,0
-28,-160,0,0,0,0,0,0,0,0,0,-1,1196,1184,0,0
-21,-160,0,0,0,0,0,0,0,0,0,-1,1203,1184,0,0
-14,-160,0,0,0,0,0,0,0,0,0,-1,1210,1184,0,0
-7,-160,0,0,0,0,0,0,0,0,0,-1,1217,1184,0,0
0,-160,0,0,0,0,0,0,0,0,0,-1,1224,1184,0,0
7,-160,0,0,0,0,0,0,0,0,0,-1,1231,1184,0,0
14,-160,0,0,0,0,0,0,0,0,0,-1,1238,1184,0,0
21,-160,0,0,0,0,0,0,0,0,0,-1,1245,1184,0,0
28,-160,0,0,0,0,0,0,0,0,0,-1,1252,1184,0,0
35,-160,0,0,0,0,0,0,0,0,0,-1,1259,1184,0,0
42,-160,0,0,0,0,0,0,0,0,0,-1,1266,1184,0,0
49,-160,0,0,0,0,0,0,0,0,0,-1,1273,1184,0,0
56,-160,0,0,0,0,0,0,0,0,0,-1,1280,1184,0,0
63,-160,0,0,0,0,0,0,0,0,0,-1,1287,1184,0,0
70,-160,0,0,0,0,0,0,0,0,0,-1,1294,1184,0,0
77,-160,0,0,0,0,0,0,0,0,0,-1,1301,1184,0,0
84,-160,0,0,0,0,0,0,0,0,0,-1,1308,1184,0,0
91,-160,0,0,0,0,0,0,0,0,0,-1,1315,1184,0,0
98,-160,0,0,0,0,0,0,0,0,0,-1,1322,1184,0,0
105,-160,0,0,0,0,0,0,0,0,0,-1,1329,1184,0,0
112,-160,0,0,0,0,0,0,0,0,0,-1,1336,1184,0,0
119,-160,0,0,0,0,0,0,0,0,0,-1,1343,1184,0,0
126,-160,0,0,0,0,0,0,0,0,0,-1,1350,1184,0,0
133,-160,0,0,0,0,0,0,0,0,0,-1,1357,1184,0,0
140,-160,0,0,0,0,0,0,0,0,0,-1,1364,1184,0,0
147,-160,0,0,0,0,0,0,0,0,0,-1,1371,1184,0,0
154,-160,0,0,0,0,0,0,0,0,0,-1,1378,1184,0,0
161,-160,0,0,0,0,0,0,0,0,0,-1,1385,1184,0,0
168,-160,0,0,0,0,0,0,0,0,0,-1,1392,1184,0,0
175,-160,0,0,0,0,0,0,0,0,0,-1,1399,1184,0,0
182,-160,0,0,0,0,0,0,0,0,0,-1,1406,1184,0,0
189,-160,0,0,0,0,0,0,0,0,0,-1,1413,1184,0,0
196,-160,0,0,0,0,0,0,0,0,0,-1,1420,1184,0,0
203,-160,0,0,0,0,0,0,0,0,0,-1,1427,1184,0,0
210,-160,0,0,0,0,0,0,0,0,0,-1,1434,1184,0,0
217,-160,0,0,0,0,0,0,0,0,0,-1,1441,1184,0,0
224,-160,0,0,0,0,0,0,0,0,0,-1,1448,1184,0,0
231,-160,0,0,0,0,0,0,0,0,0,-1,1455,1184,0,0
238,-160,0,0,0,0,0,0,0,0,0,-1,1462,1184,0,0
245,-160,0,0,0,0,0,0,0,0,0,-1,1469,1184,0,0
252,-160,0,0,0,0,0,0,0,0,0,-1,1476,1184,0,0
259,-160,0,0,0,0,0,0,0,0,0,-1,1483,1184,0,0
266,-160,0,0,0,0,0,0,0,0,0,-1,1490,1184,0,0
273,-160,0,0,0,0,0,0,0,0,0,-1,1497,1184,0,0
280,-160,0,0,0,0,0,0,0,0,0,-1,1504,1184,0,0
287,-160,0,0,0,0,0,0,0,0,0,-1,1511,1184,0,0
294,-160,0,0,0,0,0,0,0,0,0,-1,1518,1184,0,0
301,-160,0,0,0,0,0,0,0,0,0,-1,1525,1184,0,0
308,-160,0,0,0,0,0,0,0,0,0,-1,1532,1184,0,0
315,-160,0,0,0,0,0,0,0,0,0,-1,1539,1184,0,0
322,-160,0,0,0,0,0,0,0,0,0,-1,1546,1184,0,0
329,-160,0,0,0,0,0,0,0,0,0,-1,1553,1184,0,0
336,-160,0,0,0,0,0,0,0,0,0,-1,1560,1184,0,0
343,-160,0,0,0,0,0,0,0,0,0,-1,1567,1184,0,0
350,-160,0,0,0,0,0,0,0,0,0,-1,1574,1184,0,0
357,-160,0,0,0,0,0,0,0,0,0,-1,1581,1184,0,0
364,-160,0,0,0,0,0,0,0,0,0,-1,1588,1184,0,0
371,-160,0,0,0,0,0,0,0,0,0,-1,1595,1184,0,0
378,-160,0,0,0,0,0,0,0,0,0,-1,1602,1184,0,0
385,-160,0,0,0,0,0,0,0,0,0,-1,1609,1184,0,0
392,-160,0,0,0,0,0,0,0,0,0,-1,1616,1184,0,0
399,-160,0,0,0,0,0,0,0,0,0,-1,1623,1184,0,0
406,-160,0,0,0,0,0,0,0,0,0,-1,1630,1184,0,0
413,-160,0,0,0,0,0,0,0,0,0,-1,1637,1184,0,0
420,-160,0,0,0,0,0,0,0,0,0,-1,1644,1184,0,0
427,-160,0,0,0,0,0,0,0,0,0,-1,1651,1184,0,0
434,-160,0,0,0,0,0,0,0,0,0,-1,1658,1184,0,0
441,-160,0,0,0,0,0,0,0,0,0,-1,1665,1184,0,0
448,-160,0,0,0,0,0,0,0,0,0,-1,1672,1184,0,0
455,-160,0,0,0,0,0,0,0,0,0,-1,1679,1184,0,0
462,-160,0,0,0,0,0,0,0,0,0,-1,1686,1184,0,0
469,-160,0,0,0,0,0,0,0,0,0,-1,1693,1184,0,0
476,-160,0,0,0,0,0,0,0,0,0,-1,1700,1184,0,0
483,-160,0,0,0,0,0,0,0,0,0,-1,1707,1184,0,0
490,-160,0,0,0,0,0,0,0,0,0,-1,1714,1184,0,0
497,-160,0,0,0,0,0,0,0,0,0,-1,1721,1184,0,0
504,-160,0,0,0,0,0,0,0,0,0,-1,1728,1184,0,0
511,-160,0,0,0,0,0,0,0,0,0,-1,1735,1184,0,0
518,-160,0,0,0,0,0,0,0,0,0,-1,1742,1184,0,0
525,-160,0,0,0,0,0,0,0,0,0,-1,1749,1184,0,0
532,-160,0,0,0,0,0,0,0,0,0,-1,1756,1184,0,0
539,-160,0,0,0,0,0,0,0,0,0,-1,1763,1184,0,0
546,-160,0,0,0,0,0,0,0,0,0,-1,1770,1184,0,0
553,-160,0,0,0,0,0,0,0,0,0,-1,1777,1184,0,0
560,-160,0,0,0,0,0,0,0,0,0,-1,1784,1184,0,0
567,-160,0,0,0,0,0,0,0,0,0,-1,1791,1184,0,0
574,-160,0,0,0,0,0,0,0,0,0,-1,1798,1184,0,0
581,-160,0,0,0,0,0,0,0,0,0,-1,1805,1184,0,0
588,-160,0,0,0,0,0,0,0,0,0,-1,1812,1184,0,0
595,-160,0,0,0,0,0,0,0,0,0,-1,1819,1184,0,0
602,-160,0,0,0,0,0,0,0,0,0,-1,1826,1184,0,0
609,-160,0,0,0,0,0,0,0,0,0,-1,1833,1184,0,0
616,-160,0,0,0,0,0,0,0,0,0,-1,1840,1184,0,0
623,-160,0,0,0,0,0,0,0,0,0,-1,1847,1184,0,0
630,-160,0,0,0,0,0,0,0,0,0,-1,1854,1184,0,0
637,-160,-0.0368652,0.020874,-0.00270129,0.000348181,-0.00173422,0.00113263,-0.00348574,-1.146,0.00277939,0.0381269,1861,1184,-0.036825,-0.0209309
644,-160,-0.0805664,0.00891113,-0.0022346,0.000298102,-0.00121868,0.000789256,-0.00272576,-1.18769,0.00212958,0.0381529,1868,1184,-0.0805219,-0.00886444
651,-160,-0.0241699,0.0797119,-0.00199904,8.93421e-05,-0.000615974,0.000257487,-0.00216718,-1.30431,0.00153782,0.0358341,1875,1184,-0.0241806,-0.0797171
658,-160,-0.0441895,0.0339355,-0.00176117,3.10995e-05,-0.000242879,6.34299e-05,-0.0017935,-1.43846,0.00121736,0.0357111,1882,1184,-0.0441587,-0.0339532
665,-160,-0.0229492,0.00842285,-0.0016242,1.10623e-05,-7.80246e-05,1.47767e-05,-0.00162791,-1.52323,0.00109023,0.0351018,1889,1184,-0.0228956,-0.00839694
672,-160,-0.0162354,-0.0393066,-0.00151713,9.54423e-06,-1.24191e-05,9.64518e-06,-0.00151723,-1.56266,0.00101472,0.0321378,1896,1184,-0.0161868,0.0393379
679,-160,-0.06604,-0.0341797,-0.00141221,1.61729e-05,-3.0482e-05,1.68231e-05,-0.00141286,-1.54947,0.000947567,0.0225111,1903,1184,-0.0660816,0.0341531
686,-160,-0.065918,-0.0618896,-0.00133127,4.04674e-05,-9.76263e-05,4.73807e-05,-0.00133818,-1.5001,0.000908328,0.0116532,1910,1184,-0.0658799,0.0619401
693,-160,-0.108154,-0.0507813,-0.001187,5.45407e-05,-0.000200131,8.60037e-05,-0.00121846,-1.41486,0.000842441,0.0300796,1917,1184,-0.108207,0.050811
700,-160,-0.0401611,0.238525,-0.000949684,4.51946e-05,-0.000326266,0.000142646,-0.00104714,-1.28054,0.000750174,0.0382388,1924,1184,-0.040164,-0.238576
707,-160,-0.0644531,0.19873,-0.000779798,5.08723e-05,-0.000452947,0.000250081,-0.000979007,-1.15645,0.000750059,0.0332619,1931,1184,-0.064479,-0.198676
714,-160,-0.0650635,-0.0186768,-0.000715281,6.47058e-05,-0.000503984,0.000311968,-0.000962543,-1.11468,0.000767129,0.0200971,1938,1184,-0.0650346,0.0186175
721,-160,-0.0772705,-0.0471191,-0.000681589,6.28698e-05,-0.00057052,0.000371851,-0.00099057,-1.07444,0.000813182,0.0102488,1945,1184,-0.0772535,0.0471761
728,-160,-0.0804443,-0.0637207,-0.000652845,0.000144023,-0.000572193,0.000442837,-0.000951659,-1.08953,0.000822784,0.0101255,1952,1184,-0.0803968,0.0637472
735,-160,-0.0842285,-0.0406494,-0.00041653,0.000166022,-0.000289737,0.000285586,-0.000536094,-1.17942,0.00048169,0.0124363,1959,1184,-0.0841684,0.0405973
742,-160,-0.0670166,-0.0656738,6.21576e-05,0.00017791,8.11049e-05,0.000219672,2.03962e-05,1.0953,0.000140145,0.0145649,1966,1184,-0.0670345,0.0656436
749,-160,-0.053833,-0.0725098,0.000626854,-0.000124403,0.000638392,0.000991929,-0.000489478,0.519476,0.000871534,0.0165803,1973,1184,-0.0537856,0.0724845
756,-160,-0.048584,-0.0541992,0.00137228,-0.000605913,0.00122393,0.00195681,-0.00119045,0.445558,0.00183494,0.0107009,1980,1184,-0.0485373,0.0541919
763,-160,-0.0671387,-0.057373,0.00200586,-0.00114748,0.00186745,0.00287322,-0.00201484,0.434813,0.00283659,0.0106518,1987,1184,-0.0671684,0.0573996
770,-160,-0.101318,-0.0551758,0.00310798,-0.00188305,0.00258757,0.00420734,-0.0029824,0.401753,0.00417103,0.0166097,1994,1184,-0.101377,0.0551476
777,-160,-0.173218,-0.0163574,0.00454904,-0.00296663,0.00330437,0.00579522,-0.00421281,0.360638,0.00580217,0.0293764,2001,1184,-0.173158,0.0163615
784,-160,-0.185059,0.192749,0.00640915,-0.00449408,0.00396137,0.00769642,-0.00578135,0.314191,0.00780753,0.0393223,2008,1184,-0.185109,-0.192691
791,-160,-0.205688,0.436768,0.00870215,-0.00656097,0.00440326,0.00988135,-0.00774016,0.26166,0.0101988,0.0430155,2015,1184,-0.205688,-0.43672
798,-160,-0.114868,0.709717,0,0,0,0,0,0,0,-1,2022,1184,-0.114892,-0.709776
805,-160,0.329102,-0.251343,0,0,0,0,0,0,0,-1,2029,1184,0.329157,0.251296
812,-160,0,0,0,0,0,0,0,0,0,-1,2036,1184,0,0
-700,-167,0,0,0,0,0,0,0,0,0,-1,524,1191,0,0
-693,-167,0,0,0,0,0,0,0,0,0,-1,531,1191,0,0
-686,-167,-0.572754,-1.19702,0,0,0,0,0,0,0,-1,538,1191,-0.572765,1.197
-679,-167,-0.276611,-0.959839,0,0,0,0,0,0,0,-1,545,1191,-0.27663,0.959852
-672,-167,-0.340454,-0.608032,0.000232811,0.0375028,-0.00789804,0.0391075,-0.00137181,-1.37036,0.0265407,0.0447414,552,1191,-0.340474,0.608001
-665,-167,-0.293213,-0.398315,-0.000181891,0.0288939,-0.00525862,0.0298157,-0.00110373,-1.39726,0.0202551,0.0456859,559,1191,-0.293231,0.398361
-658,-167,-0.215393,-0.184937,-0.000281868,0.0219642,-0.00344557,0.0224856,-0.000803309,-1.4206,0.0152652,0.0493117,566,1191,-0.215402,0.184897
-651,-167,-0.112,0.00488281,0,0,0,0,0,0,0,-1,573,1191,-0.111991,-0.00487384
-644,-167,-0.0891724,-0.0153809,-0.000122692,0.0120307,-0.00141389,0.012193,-0.000285012,-1.45649,0.0082253,0.037097,580,1191,-0.0891527,0.0154218
-637,-167,-0.0684204,-0.0324707,-3.27163e-05,0.00869167,-0.000887274,0.00878099,-0.000122038,-1.47046,0.00589509,0.0144584,587,1191,-0.0684013,0.0324193
-630,-167,-0.069458,-0.048584,0.000100505,0.00560387,-0.000457154,0.00564158,6.27881e-05,-1.48848,0.0037403,0.00790075,594,1191,-0.0694382,0.0486291
-623,-167,-0.0633545,-0.0515137,-0.000105978,0.00357021,-8.3429e-05,0.00357211,-0.000107871,-1.54812,0.00241816,0.00853037,601,1191,-0.063367,0.0515178
-616,-167,-0.057373,-0.0487061,-0.000146673,0.00187215,9.51472e-06,0.00187219,-0.000146717,1.56608,0.0012998,0.0115347,608,1191,-0.0573855,0.0487645
-609,-167,-0.0632935,-0.0440674,0.000491389,0.00134325,-0.000202004,0.00138872,0.000445915,-1.34937,0.00081871,0.0127412,615,1191,-0.0632639,0.0440572
-602,-167,-0.0742798,-0.0755615,0.000732859,0.00151927,-0.000532335,0.00178787,0.000464255,-1.10349,0.00107124,0.0139184,622,1191,-0.0742498,0.0755897
-595,-167,-0.0707397,-0.0605469,0.000463846,0.00134776,-0.000306943,0.00144389,0.000367713,-1.26728,0.000866435,0.0180578,629,1191,-0.0707558,0.0605537
-588,-167,-0.0963745,-0.022583,0.000304335,0.00175885,-0.000191852,0.00178373,0.000279455,-1.44183,0.00110781,0.0146656,636,1191,-0.0963498,0.0225904
-581,-167,-0.0983276,-0.0112305,0.000341412,0.00219333,-0.000308414,0.00224334,0.0002914,-1.41004,0.00140851,0.0135356,643,1191,-0.0983408,0.0111712
-574,-167,-0.117249,0.171265,0.000301135,0.00258655,-0.000323985,0.00263159,0.000256094,-1.43266,0.00167556,0.0320067,650,1191,-0.117273,-0.171253
-567,-167,-0.0931396,0.241577,0.000222236,0.00285351,-0.000299065,0.00288707,0.000188673,-1.45904,0.00186501,0.0389164,657,1191,-0.0931105,-0.241581
-560,-167,0.0274658,-0.147217,5.16692e-05,0.00307532,-0.000287319,0.00310238,2.46093e-05,-1.47689,0.0020601,0.0359827,664,1191,0.0274934,0.147268
-553,-167,0.00683594,-0.215698,-0.000189749,0.00309654,-0.000240378,0.00311402,-0.000207239,-1.49817,0.00214843,0.0359465,671,1191,0.00685586,0.215736
-546,-167,-0.057312,-0.101318,-0.000537936,0.00281312,-0.000185732,0.00282338,-0.000548199,-1.5156,0.0020891,0.0319732,678,1191,-0.0572929,0.101305
-539,-167,-0.0651245,-0.143188,-0.00101492,0.00214556,-0.000157905,0.00215343,-0.00102279,-1.521,0.00187212,0.0354443,685,1191,-0.0651032,0.143145
-532,-167,-0.0442505,-0.157959,-0.00163044,0.00102558,-0.00019941,0.00104047,-0.00164533,-1.49627,0.0015637,0.041782,692,1191,-0.0442353,0.157902
-525,-167,-0.00683594,-0.131714,-0.00240633,-0.000619865,-0.000393069,-0.000537205,-0.00248899,-1.36352,0.00151241,0.0441239,699,1191,-0.00683219,0.131765
-518,-167,-0.111755,-0.203125,-0.00322974,-0.00292271,-0.000767457,-0.00229357,-0.00385889,-0.884109,0.00224111,0.0402798,706,1191,-0.111747,0.20309
-511,-167,0,0,0,0,0,0,0,0,0,-1,713,1191,0,0
-504,-167,0,0,0,0,0,0,0,0,0,-1,720,1191,0,0
-497,-167,0,0,0,0,0,0,0,0,0,-1,727,1191,0,0
-490,-167,0,0,0,0,0,0,0,0,0,-1,734,1191,0,0
-483,-167,0,0,0,0,0,0,0,0,0,-1,741,1191,0,0
-476,-167,0,0,0,0,0,0,0,0,0,-1,748,1191,0,0
-469,-167,0,0,0,0,0,0,0,0,0,-1,755,1191,0,0
-462,-167,0,0,0,0,0,0,0,0,0,-1,762,1191,0,0
-455,-167,0,0,0,0,0,0,0,0,0,-1,769,1191,0,0
-448,-167,0,0,0,0,0,0,0,0,0,-1,776,1191,0,0
-441,-167,0,0,0,0,0,0,0,0,0,-1,783,1191,0,0
-434,-167,0,0,0,0,0,0,0,0,0,-1,790,1191,0,0
-427,-167,0,0,0,0,0,0,0,0,0,-1,797,1191,0,0
-420,-167,0,0,0,0,0,0,0,0,0,-1,804,1191,0,0
-413,-167,0,0,0,0,0,0,0,0,0,-1,811,1191,0,0
-406,-167,0,0,0,0,0,0,0,0,0,-1,818,1191,0,0
-399,-167,0,0,0,0,0,0,0,0,0,-1,825,1191,0,0
-392,-167,0,0,0,0,0,0,0,0,0,-1,832,1191,0,0
-385,-167,0,0,0,0,0,0,0,0,0,-1,839,1191,0,0
-378,-167,0,0,0,0,0,0,0,0,0,-1,846,1191,0,0
-371,-167,0,0,0,0,0,0,0,0,0,-1,853,1191,0,0
-364,-167,0,0,0,0,0,0,0,0,0,-1,860,1191,0,0
-357,-167,0,0,0,0,0,0,0,0,0,-1,867,1191,0,0
-350,-167,0,0,0,0,0,0,0,0,0,-1,874,1191,0,0
-343,-167,0,0,0,0,0,0,0,0,0,-1,881,1191,0,0
-336,-167,0,0,0,0,0,0,0,0,0,-1,888,1191,0,0
-329,-167,0,0,0,0,0,0,0,0,0,-1,895,1191,0,0
-322,-167,0,0,0,0,0,0,0,0,0,-1,902,1191,0,0
-315,-167,0,0,0,0,0,0,0,0,0,-1,909,1191,0,0
-308,-167,0,0,0,0,0,0,0,0,0,-1,916,1191,0,0
-301,-167,0,0,0,0,0,0,0,0,0,-1,923,1191,0,0
-294,-167,0,0,0,0,0,0,0,0,0,-1,930,1191,0,0
-287,-167,0,0,0,0,0,0,0,0,0,-1,937,1191,0,0
-280,-167,0,0,0,0,0,0,0,0,0,-1,944,1191,0,0
-273,-167,0,0,0,0,0,0,0,0,0,-1,951,1191,0,0
-266,-167,0,0,0,0,0,0,0,0,0,-1,958,1191,0,0
-259,-167,0,0,0,0,0,0,0,0,0,-1,965,1191,0,0
-252,-167,0,0,0,0,0,0,0,0,0,-1,972,1191,0,0
-245,-167,0,0,0,0,0,0,0,0,0,-1,979,1191,0,0
-238,-167,0,0,0,0,0,0,0,0,0,-1,986,1191,0,0
-231,-167,0,0,0,0,0,0,0,0,0,-1,993,1191,0,0
-224,-167,0,0,0,0,0,0,0,0,0,-1,1000,1191,0,0
-217,-167,0,0,0,0,0,0,0,0,0,-1,1007,1191,0,0
-210,-167,0,0,0,0,0,0,0,0,0,-1,1014,1191,0,0
-203,-167,0,0,0,0,0,0,0,0,0,-1,1021,1191,0,0
-196,-167,0,0,0,0,0,0,0,0,0,-1,1028,1191,0,0
-189,-167,0,0,0,0,0,0,0,0,0,-1,1035,1191,0,0
-182,-167,0,0,0,0,0,0,0,0,0,-1,1042,1191,0,0
-175,-167,0,0,0,0,0,0,0,0,0,-1,1049,1191,0,0
-168,-167,0,0,0,0,0,0,0,0,0,-1,1056,1191,0,0
-161,-167,0,0,0,0,0,0,0,0,0,-1,1063,1191,0,0
-154,-167,0,0,0,0,0,0,0,0,0,-1,1070,1191,0,0
-147,-167,0,0,0,0,0,0,0,0,0,-1,1077,1191,0,0
-140,-167,0,0,0,0,0,0,0,0,0,-1,1084,1191,0,0
-133,-167,0,0,0,0,0,0,0,0,0,-1,1091,1191,0,0
-126,-167,0,0,0,0,0,0,0,0,0,-1,1098,1191,0,0
-119,-167,0,0,0,0,0,0,0,0,0,-1,1105,1191,0,0
-112,-167,0,0,0,0,0,0,0,0,0,-1,1112,1191,0,0
-105,-167,0,0,0,0,0,0,0,0,0,-1,1119,1191,0,0
-98,-167,0,0,0,0,0,0,0,0,0,-1,1126,1191,0,0
-91,-167,0,0,0,0,0,0,0,0,0,-1,1133,1191,0,0
-84,-167,0,0,0,0,0,0,0,0,0,-1,1140,1191,0,0
-77,-167,0,0,0,0,0,0,0,0,0,-1,1147,1191,0,0
-70,-167,0,0,0,0,0,0,0,0,0,-1,1154,1191,0,0
-63,-167,0,0,0,0,0,0,0,0,0,-1,1161,1191,0,0
-56,-167,0,0,0,0,0,0,0,0,0,-1,1168,1191,0,0
-49,-167,0,0,0,0,0,0,0,0,0,-1,1175,1191,0,0
-42,-167,0,0,0,0,0,0,0,0,0,-1,1182,1191,0,0
-35,-167,0,0,0,0,0,0,0,0,0,-1,1189,1191,0,0
-28,-167,0,0,0,0,0,0,0,0,0,-1,1196,1191,0,0
-21,-167,0,0,0,0,0,0,0,0,0,-1,1203,1191,0,0
-14,-167,0,0,0,0,0,0,0,0,0,-1,1210,1191,0,0
-7,-167,0,0,0,0,0,0,0,0,0,-1,1217,1191,0,0
0,-167,0,0,0,0,0,0,0,0,0,-1,1224,1191,0,0
7,-167,0,0,0,0,0,0,0,0,0,-1,1231,1191,0,0
14,-167,0,0,0,0,0,0,0,0,0,-1,1238,1191,0,0
21,-167,0,0,0,0,0,0,0,0,0,-1,1245,1191,0,0
28,-167,0,0,0,0,0,0,0,0,0,-1,1252,1191,0,0
35,-167,0,0,0,0,0,0,0,0,0,-1,1259,1191,0,0
42,-167,0,0,0,0,0,0,0,0,0,-1,1266,1191,0,0
49,-167,0,0,0,0,0,0,0,0,0,-1,1273,1191,0,0
56,-167,0,0,0,0,0,0,0,0,0,-1,1280,1191,0,0
63,-167,0,0,0,0,0,0,0,0,0,-1,1287,1191,0,0
70,-167,0,0,0,0,0,0,0,0,0,-1,1294,1191,0,0
77,-167,0,0,0,0,0,0,0,0,0,-1,1301,1191,0,0
84,-167,0,0,0,0,0,0,0,0,0,-1,1308,1191,0,0
91,-167,0,0,0,0,0,0,0,0,0,-1,1315,1191,0,0
98,-167,0,0,0,0,0,0,0,0,0,-1,1322,1191,0,0
105,-167,0,0,0,0,0,0,0,0,0,-1,1329,1191,0,0
112,-167,0,0,0,0,0,0,0,0,0,-1,1336,1191,0,0
119,-167,0,0,0,0,0,0,0,0,0,-1,1343,1191,0,0
126,-167,0,0,0,0,0,0,0,0,0,-1,1350,1191,0,0
133,-167,0,0,0,0,0,0,0,0,0,-1,1357,1191,0,0
140,-167,0,0,0,0,0,0,0,0,0,-1,1364,1191,0,0
147,-167,0,0,0,0,0,0,0,0,0,-1,1371,1191,0,0
154,-167,0,0,0,0,0,0,0,0,0,-1,1378,1191,0,0
161,-167,0,0,0,0,0,0,0,0,0,-1,1385,1191,0,0
168,-167,0,0,0,0,0,0,0,0,0,-1,1392,1191,0,0
175,-167,0,0,0,0,0,0,0,0,0,-1,1399,1191,0,0
182,-167,0,0,0,0,0,0,0,0,0,-1,1406,1191,0,0
189,-167,0,0,0,0,0,0,0,0,0,-1,1413,1191,0,0
196,-167,0,0,0,0,0,0,0,0,0,-1,1420,1191,0,0
203,-167,0,0,0,0,0,0,0,0,0,-1,1427,1191,0,0
210,-167,0,0,0,0,0,0,0,0,0,-1,1434,1191,0,0
217,-167,0,0,0,0,0,0,0,0,0,-1,1441,1191,0,0
224,-167,0,0,0,0,0,0,0,0,0,-1,1448,1191,0,0
231,-167,0,0,0,0,0,0,0,0,0,-1,1455,1191,0,0
238,-167,0,0,0,0,0,0,0,0,0,-1,1462,1191,0,0
245,-167,0,0,0,0,0,0,0,0,0,-1,1469,1191,0,0
252,-167,0,0,0,0,0,0,0,0,0,-1,1476,1191,0,0
259,-167,0,0,0,0,0,0,0,0,0,-1,1483,1191,0,0
266,-167,0,0,0,0,0,0,0,0,0,-1,1490,1191,0,0
273,-167,0,0,0,0,0,0,0,0,0,-1,1497,1191,0,0
280,-167,0,0,0,0,0,0,0,0,0,-1,1504,1191,0,0
287,-167,0,0,0,0,0,0,0,0,0,-1,1511,1191,0,0
294,-167,0,0,0,0,0,0,0,0,0,-1,1518,1191,0,0
301,-167,0,0,0,0,0,0,0,0,0,-1,1525,1191,0,0
308,-167,0,0,0,0,0,0,0,0,0,-1,1532,1191,0,0
315,-167,0,0,0,0,0,0,0,0,0,-1,1539,1191,0,0
322,-167,0,0,0,0,0,0,0,0,0,-1,1546,1191,0,0
329,-167,0,0,0,0,0,0,0,0,0,-1,1553,1191,0,0
336,-167,0,0,0,0,0,0,0,0,0,-1,1560,1191,0,0
343,-167,0,0,0,0,0,0,0,0,0,-1,1567,1191,0,0
350,-167,0,0,0,0,0,0,0,0,0,-1,1574,1191,0,0
357,-167,0,0,0,0,0,0,0,0,0,-1,1581,1191,0,0
364,-167,0,0,0,0,0,0,0,0,0,-1,1588,1191,0,0
371,-167,0,0,0,0,0,0,0,0,0,-1,1595,1191,0,0
378,-167,0,0,0,0,0,0,0,0,0,-1,1602,1191,0,0
385,-167,0,0,0,0,0,0,0,0,0,-1,1609,1191,0,0
392,-167,0,0,0,0,0,0,0,0,0,-1,1616,1191,0,0
399,-167,0,0,0,0,0,0,0,0,0,-1,1623,1191,0,0
406,-167,0,0,0,0,0,0,0,0,0,-1,1630,1191,0,0
413,-167,0,0,0,0,0,0,0,0,0,-1,1637,1191,0,0
420,-167,0,0,0,0,0,0,0,0,0,-1,1644,1191,0,0
427,-167,0,0,0,0,0,0,0,0,0,-1,1651,1191,0,0
434,-167,0,0,0,0,0,0,0,0,0,-1,1658,1191,0,0
441,-167,0,0,0,0,0,0,0,0,0,-1,1665,1191,0,0
448,-167,0,0,0,0,0,0,0,0,0,-1,1672,1191,0,0
455,-167,0,0,0,0,0,0,0,0,0,-1,1679,1191,0,0
462,-167,0,0,0,0,0,0,0,0,0,-1,1686,1191,0,0
469,-167,0,0,0,0,0,0,0,0,0,-1,1693,1191,0,0
476,-167,0,0,0,0,0,0,0,0,0,-1,1700,1191,0,0
483,-167,0,0,0,0,0,0,0,0,0,-1,1707,1191,0,0
490,-167,0,0,0,0,0,0,0,0,0,-1,1714,1191,0,0
497,-167,0,0,0,0,0,0,0,0,0,-1,1721,1191,0,0
504,-167,0,0,0,0,0,0,0,0,0,-1,1728,1191,0,0
511,-167,0,0,0,0,0,0,0,0,0,-1,1735,1191,0,0
518,-167,0,0,0,0,0,0,0,0,0,-1,1742,1191,0,0
525,-167,0,0,0,0,0,0,0,0,0,-1,1749,1191,0,0
532,-167,0,0,0,0,0,0,0,0,0,-1,1756,1191,0,0
539,-167,0,0,0,0,0,0,0,0,0,-1,1763,1191,0,0
546,-167,0,0,0,0,0,0,0,0,0,-1,1770,1191,0,0
553,-167,0,0,0,0,0,0,0,0,0,-1,1777,1191,0,0
560,-167,0,0,0,0,0,0,0,0,0,-1,1784,1191,0,0
567,-167,0,0,0,0,0,0,0,0,0,-1,1791,1191,0,0
574,-167,0,0,0,0,0,0,0,0,0,-1,1798,1191,0,0
581,-167,0,0,0,0,0,0,0,0,0,-1,1805,1191,0,0
588,-167,0,0,0,0,0,0,0,0,0,-1,1812,1191,0,0
595,-167,0,0,0,0,0,0,0,0,0,-1,1819,1191,0,0
602,-167,0,0,0,0,0,0,0,0,0,-1,1826,1191,0,0
609,-167,0,0,0,0,0,0,0,0,0,-1,1833,1191,0,0
616,-167,0,0,0,0,0,0,0,0,0,-1,1840,1191,0,0
623,-167,0,0,0,0,0,0,0,0,0,-1,1847,1191,0,0
630,-167,0,0,0,0,0,0,0,0,0,-1,1854,1191,0,0
637,-167,0.0369873,0.0975342,-0.00263504,0.000273865,-0.00104006,0.000607474,-0.00296865,-1.26041,0.0022096,0.0405693,1861,1191,0.0370364,-0.0975176
644,-167,-0.0385742,-0.0423584,-0.00204192,0.000172687,-0.000718704,0.000385481,-0.00225471,-1.28294,0.00164674,0.0420519,1868,1191,-0.0386012,0.0423445
651,-167,-0.0576172,0.078125,-0.00184709,-6.59969e-05,-0.00029425,-1.86437e-05,-0.00189445,-1.41124,0.0012568,0.0414869,1875,1191,-0.0576448,-0.0781304
658,-167,-0.0507813,0.108032,-0.00169379,-0.000152804,-5.56443e-05,-0.000150798,-0.00169579,-1.53475,0.00108377,0.0399297,1882,1191,-0.0507445,-0.108021
665,-167,-0.00537109,0.0524902,-0.00162949,-0.000194258,3.6321e-05,-0.000193339,-0.00163041,1.54551,0.00102857,0.0340944,1889,1191,-0.00538567,-0.0525273
672,-167,-0.041748,-0.0384521,-0.00158643,-0.000200652,6.58853e-05,-0.000197527,-0.00158955,1.52339,0.00100038,0.024324,1896,1191,-0.0417459,0.0385041
679,-167,-0.0662842,-0.0682373,-0.00153229,-0.000174955,3.0071e-05,-0.000174289,-0.00153296,1.54866,0.000969112,0.0162205,1903,1191,-0.0663121,0.068212
686,-167,-0.0800781,-0.0480957,-0.00149465,-0.000126065,-4.22873e-05,-0.00012476,-0.00149595,-1.53994,0.000958426,0.0191923,1910,1191,-0.0801,0.0480521
693,-167,-0.0758057,0.15332,-0.00136746,-8.91699e-05,-0.000141683,-7.36544e-05,-0.00138297,-1.46172,0.000898438,0.0383234,1917,1191,-0.0758208,-0.153272
700,-167,0.0129395,0.124268,-0.00114221,-6.71102e-05,-0.000275324,-7.03731e-07,-0.00120862,-1.33412,0.000805509,0.0392872,1924,1191,0.0129504,-0.12421
707,-167,-0.0471191,-0.0020752,-0.000968643,-2.60866e-05,-0.00040953,0.000126989,-0.00112172,-1.21309,0.000793537,0.0315238,1931,1191,-0.0470651,0.00208504
714,-167,-0.086792,-0.0541992,-0.000864865,1.58497e-05,-0.000460298,0.000212508,-0.00106152,-1.16703,0.000788126,0.0149636,1938,1191,-0.0868083,0.0542097
721,-167,-0.0897217,-0.0754395,-0.000778527,3.3136e-05,-0.000530751,0.000295433,-0.00104082,-1.1118,0.000810511,0.0122445,1945,1191,-0.0896712,0.0754486
728,-167,-0.0765381,-0.0588379,-0.000750501,0.000118984,-0.000545336,0.00038166,-0.00101318,-1.12191,0.000832368,0.0108298,1952,1191,-0.0765473,0.0587857
735,-167,-0.0650635,-0.036377,-0.000513399,0.000207187,-0.000284621,0.000306045,-0.000612258,-1.2365,0.000539918,0.0126301,1959,1191,-0.0650336,0.0363323
742,-167,-0.0769043,-0.046875,5.14704e-05,0.000260663,-3.57808e-06,0.000260724,5.14092e-05,-1.5537,0.000159466,0.0136784,1966,1191,-0.0768537,0.0468221
749,-167,-0.0733643,-0.0697021,0.000662444,-1.25011e-05,0.000501883,0.000929764,-0.000279821,0.489413,0.000731187,0.0138453,1973,1191,-0.0733263,0.069736
756,-167,-0.0460205,-0.0587158,0.00149292,-0.000430128,0.0011031,0.00199473,-0.000931938,0.42693,0.00172645,0.0106467,1980,1191,-0.0459796,0.0587705
763,-167,-0.0770264,-0.0639648,0.00232366,-0.000953848,0.00174376,0.00307786,-0.00170804,0.408216,0.00280061,0.0120334,1987,1191,-0.0770595,0.0639754
770,-167,-0.130005,-0.0467529,0.00364456,-0.00162833,0.0024646,0.00461714,-0.00260092,0.375861,0.00422119,0.0232186,1994,1191,-0.129979,0.0467345
777,-167,-0.223877,-0.0322266,0.00545918,-0.00266403,0.00322133,0.00658155,-0.0037864,0.335265,0.00605802,0.0380121,2001,1191,-0.223829,0.0321995
784,-167,-0.240601,0.213257,0.00790349,-0.00418504,0.00395974,0.00908506,-0.0053666,0.289984,0.00843524,0.0436106,2008,1191,-0.240552,-0.213277
791,-167,-0.0889893,0.45752,0.011065,-0.00633629,0.00452635,0.012172,-0.00744325,0.239851,0.011434,0.0452366,2015,1191,-0.0889854,-0.457565
798,-167,0.130615,0.0593262,0.0150245,-0.00928178,0.00469677,0.0159005,-0.0101578,0.184392,0.0151661,0.0446268,2022,1191,0.130623,-0.0593202
805,-167,0.202881,-0.169678,0.0199387,-0.0132302,0.00415494,0.0204512,-0.0137428,0.12274,0.0198682,0.0438705,2029,1191,0.202936,0.16962
812,-167,0,0,0,0,0,0,0,0,0,-1,2036,1191,0,0
-700,-174,0,0,0,0,0,0,0,0,0,-1,524,1198,0,0
-693,-174,0,0,0,0,0,0,0,0,0,-1,531,1198,0,0
-686,-174,-0.586792,-1.68555,0,0,0,0,0,0,0,-1,538,1198,-0.586804,1.68554
-679,-174,-0.470459,-1.0957,0,0,0,0,0,0,0,-1,545,1198,-0.470441,1.09573
-672,-174,-0.380798,-0.915527,0.000499396,0.0394242,-0.00556457,0.0402041,-0.00028047,-1.43155,0.0268967,0.0454859,552,1198,-0.380779,0.915582
-665,-174,-0.283569,-0.731201,-0.00067082,0.0302633,-0.00298586,0.0305489,-0.000956388,-1.47545,0.0206921,0.0464362,559,1198,-0.283595,0.731245
-658,-174,-0.225159,-0.53125,-0.00112527,0.0230275,-0.00140098,0.0231085,-0.00120626,-1.51305,0.0158231,0.0462645,566,1198,-0.225177,0.531219
-651,-174,-0.954956,1.6106,-0.0011671,0.0172898,-0.000480702,0.0173023,-0.00117961,-1.54478,0.0119475,0.0478999,573,1198,-0.954957,-1.6106
-644,-174,0.00506592,-0.0621338,-0.000999962,0.0127484,9.81981e-06,0.0127484,-0.000999969,1.57008,0.00885112,0.0395793,580,1198,0.00504845,0.0621736
-637,-174,-0.0595703,-0.0585938,-0.000765458,0.00919238,0.000227186,0.00919756,-0.000770639,1.548,0.00640406,0.020903,587,1198,-0.0595449,0.0586149
-630,-174,-0.0697632,-0.0483398,-0.00047943,0.00608227,0.000378372,0.00610401,-0.000501176,1.51339,0.00424627,0.0115396,594,1198,-0.069779,0.0483469
-623,-174,-0.0506592,-0.053833,-0.000609713,0.00386528,0.000559437,0.00393416,-0.00067859,1.44829,0.00287578,0.0127999,601,1198,-0.0506886,0.0538268
-616,-174,-0.0501099,-0.0498047,-0.000538679,0.00208641,0.000472125,0.00216874,-0.000621009,1.39815,0.00169127,0.0182021,608,1198,-0.0500929,0.0497709
-609,-174,-0.0610962,-0.0491943,0.000365323,0.00157916,1.55163e-05,0.00157936,0.000365125,1.55802,0.000954762,0.0200082,615,1198,-0.0611176,0.0492293
-602,-174,-0.0723267,-0.0678711,0.000803127,0.00184709,-0.000516541,0.00205946,0.000590752,-1.18072,0.00122452,0.0137189,622,1198,-0.072309,0.0678367
-595,-174,-0.0627441,-0.0736084,0.000522947,0.00161404,-0.000305492,0.00169375,0.000443237,-1.31556,0.00101424,0.0114766,629,1198,-0.062731,0.0736205
-588,-174,-0.0735474,-0.0526123,0.00030055,0.00209642,-0.00019104,0.00211651,0.000280452,-1.46598,0.00132744,0.0102816,636,1198,-0.0735397,0.0525568
-581,-174,-0.0999756,-0.0483398,0.000304434,0.00256135,-0.00030858,0.00260278,0.000263004,-1.43733,0.0016545,0.0112478,643,1198,-0.0999482,0.0483514
-574,-174,-0.163513,0.0184326,0.000259957,0.00294052,-0.000295274,0.00297266,0.000227816,-1.46237,0.00191037,0.0274099,650,1198,-0.163536,-0.0183843
-567,-174,-0.0430298,-0.00939941,0.000184041,0.0031827,-0.000237965,0.00320147,0.000165274,-1.4921,0.00208141,0.0417153,657,1198,-0.0430294,0.00944785
-560,-174,0.0965576,-0.283569,2.11407e-05,0.00335051,-0.000191823,0.00336153,1.01253e-05,-1.51343,0.00223765,0.0394345,664,1198,0.0965411,0.283576
-553,-174,0.0721436,-0.264404,-0.000182566,0.00326149,-0.000101577,0.00326448,-0.000185559,-1.54134,0.00224074,0.0329413,671,1198,0.0721728,0.264368
-546,-174,-0.0712891,-0.0144043,-0.000451006,0.00284152,-3.03829e-06,0.00284152,-0.000451009,-1.56987,0.0020612,0.0263601,678,1198,-0.0713119,0.0144049
-539,-174,-0.12384,-0.0305176,-0.000778882,0.00201171,5.24523e-05,0.00201269,-0.000779868,1.55201,0.00166383,0.0317214,685,1198,-0.123829,0.0305174
-532,-174,-0.105408,-0.163208,-0.00114822,0.000726971,7.95473e-06,0.000727005,-0.00114826,1.56655,0.00109175,0.0418074,692,1198,-0.105424,0.163163
-525,-174,-0.0758057,-0.159424,-0.00157056,-0.00104487,-0.000229108,-0.000959035,-0.0016564,-1.21233,0.000960292,0.042057,699,1198,-0.0757837,0.159368
-518,-174,-0.115417,-0.125854,-0.00192218,-0.0033629,-0.000743946,-0.00160698,-0.0036781,-0.400751,0.00212918,0.0378997,706,1198,-0.115423,0.125825
-511,-174,0,0,0,0,0,0,0,0,0,-1,713,1198,0,0
-504,-174,0,0,0,0,0,0,0,0,0,-1,720,1198,0,0
-497,-174,0,0,0,0,0,0,0,0,0,-1,727,1198,0,0
-490,-174,0,0,0,0,0,0,0,0,0,-1,734,1198,0,0
-483,-174,0,0,0,0,0,0,0,0,0,-1,741,1198,0,0
-476,-174,0,0,0,0,0,0,0,0,0,-1,748,1198,0,0
-469,-174,0,0,0,0,0,0,0,0,0,-1,755,1198,0,0
-462,-174,0,0,0,0,0,0,0,0,0,-1,762,1198,0,0
-455,-174,0,0,0,0,0,0,0,0,0,-1,769,1198,0,0
-448,-174,0,0,0,0,0,0,0,0,0,-1,776,1198,0,0
-441,-174,0,0,0,0,0,0,0,0,0,-1,783,1198,0,0
-434,-174,0,0,0,0,0,0,0,0,0,-1,790,1198,0,0
-427,-174,0,0,0,0,0,0,0,0,0,-1,797,1198,0,0
-420,-174,0,0,0,0,0,0,0,0,0,-1,804,1198,0,0
-413,-174,0,0,0,0,0,0,0,0,0,-1,811,1198,0,0
-406,-174,0,0,0,0,0,0,0,0,0,-1,818,1198,0,0
-399,-174,0,0,0,0,0,0,0,0,0,-1,825,1198,0,0
-392,-174,0,0,0,0,0,0,0,0,0,-1,832,1198,0,0
-385,-174,0,0,0,0,0,0,0,0,0,-1,839,1198,0,0
-378,-174,0,0,0,0,0,0,0,0,0,-1,846,1198,0,0
-371,-174,0,0,0,0,0,0,0,0,0,-1,853,1198,0,0
-364,-174,0,0,0,0,0,0,0,0,0,-1,860,1198,0,0
-357,-174,0,0,0,0,0,0,0,0,0,-1,867,1198,0,0
-350,-174,0,0,0,0,0,0,0,0,0,-1,874,1198,0,0
-343,-174,0,0,0,0,0,0,0,0,0,-1,881,1198,0,0
-336,-174,0,0,0,0,0,0,0,0,0,-1,888,1198,0,0
-329,-174,0,0,0,0,0,0,0,0,0,-1,895,1198,0,0
-322,-174,0,0,0,0,0,0,0,0,0,-1,902,1198,0,0
-315,-174,0,0,0,0,0,0,0,0,0,-1,909,1198,0,0
-308,-174,0,0,0,0,0,0,0,0,0,-1,916,1198,0,0
-301,-174,0,0,0,0,0,0,0,0,0,-1,923,1198,0,0
-294,-174,0,0,0,0,0,0,0,0,0,-1,930,1198,0,0
-287,-174,0,0,0,0,0,0,0,0,0,-1,937,1198,0,0
-280,-174,0,0,0,0,0,0,0,0,0,-1,944,1198,0,0
-273,-174,0,0,0,0,0,0,0,0,0,-1,951,1198,0,0
-266,-174,0,0,0,0,0,0,0,0,0,-1,958,1198,0,0
-259,-174,0,0,0,0,0,0,0,0,0,-1,965,1198,0,0
-252,-174,0,0,0,0,0,0,0,0,0,-1,972,1198,0,0
-245,-174,0,0,0,0,0,0,0,0,0,-1,979,1198,0,0
-238,-174,0,0,0,0,0,0,0,0,0,-1,986,1198,0,0
-231,-174,0,0,0,0,0,0,0,0,0,-1,993,1198,0,0
-224,-174,0,0,0,0,0,0,0,0,0,-1,1000,1198,0,0
-217,-174,0,0,0,0,0,0,0,0,0,-1,1007,1198,0,0
-210,-174,0,0,0,0,0,0,0,0,0,-1,1014,1198,0,0
-203,-174,0,0,0,0,0,0,0,0,0,-1,1021,1198,0,0
-196,-174,0,0,0,0,0,0,0,0,0,-1,1028,1198,0,0
-189,-174,0,0,0,0,0,0,0,0,0,-1,1035,1198,0,0
-182,-174,0,0,0,0,0,0,0,0,0,-1,1042,1198,0,0
-175,-174,0,0,0,0,0,0,0,0,0,-1,1049,1198,0,0
-168,-174,0,0,0,0,0,0,0,0,0,-1,1056,1198,0,0
-161,-174,0,0,0,0,0,0,0,0,0,-1,1063,1198,0,0
-154,-174,0,0,0,0,0,0,0,0,0,-1,1070,1198,0,0
-147,-174,0,0,0,0,0,0,0,0,0,-1,1077,1198,0,0
-140,-174,0,0,0,0,0,0,0,0,0,-1,1084,1198,0,0
-133,-174,0,0,0,0,0,0,0,0,0,-1,1091,1198,0,0
-126,-174,0,0,0,0,0,0,0,0,0,-1,1098,1198,0,0
-119,-174,0,0,0,0,0,0,0,0,0,-1,1105,1198,0,0
-112,-174,0,0,0,0,0,0,0,0,0,-1,1112,1198,0,0
-105,-174,0,0,0,0,0,0,0,0,0,-1,1119,1198,0,0
-98,-174,0,0,0,0,0,0,0,0,0,-1,1126,1198,0,0
-91,-174,0,0,0,0,0,0,0,0,0,-1,1133,1198,0,0
-84,-174,0,0,0,0,0,0,0,0,0,-1,1140,1198,0,0
-77,-174,0,0,0,0,0,0,0,0,0,-1,1147,1198,0,0
-70,-174,0,0,0,0,0,0,0,0,0,-1,1154,1198,0,0
-63,-174,0,0,0,0,0,0,0,0,0,-1,1161,1198,0,0
-56,-174,0,0,0,0,0,0,0,0,0,-1,1168,1198,0,0
-49,-174,0,0,0,0,0,0,0,0,0,-1,1175,1198,0,0
-42,-174,0,0,0,0,0,0,0,0,0,-1,1182,1198,0,0
-35,-174,0,0,0,0,0,0,0,0,0,-1,1189,1198,0,0
-28,-174,0,0,0,0,0,0,0,0,0,-1,1196,1198,0,0
-21,-174,0,0,0,0,0,0,0,0,0,-1,1203,1198,0,0
-14,-174,0,0,0,0,0,0,0,0,0,-1,1210,1198,0,0
-7,-174,0,0,0,0,0,0,0,0,0,-1,1217,1198,0,0
0,-174,0,0,0,0,0,0,0,0,0,-1,1224,1198,0,0
7,-174,0,0,0,0,0,0,0,0,0,-1,1231,1198,0,0
14,-174,0,0,0,0,0,0,0,0,0,-1,1238,1198,0,0
21,-174,0,0,0,0,0,0,0,0,0,-1,1245,1198,0,0
28,-174,0,0,0,0,0,0,0,0,0,-1,1252,1198,0,0
35,-174,0,0,0,0,0,0,0,0,0,-1,1259,1198,0,0
42,-174,0,0,0,0,0,0,0,0,0,-1,1266,1198,0,0
49,-174,0,0,0,0,0,0,0,0,0,-1,1273,1198,0,0
56,-174,0,0,0,0,0,0,0,0,0,-1,1280,1198,0,0
63,-174,0,0,0,0,0,0,0,0,0,-1,1287,1198,0,0
70,-174,0,0,0,0,0,0,0,0,0,-1,1294,1198,0,0
77,-174,0,0,0,0,0,0,0,0,0,-1,1301,1198,0,0
84,-174,0,0,0,0,0,0,0,0,0,-1,1308,1198,0,0
91,-174,0,0,0,0,0,0,0,0,0,-1,1315,1198,0,0
98,-174,0,0,0,0,0,0,0,0,0,-1,1322,1198,0,0
105,-174,0,0,0,0,0,0,0,0,0,-1,1329,1198,0,0
112,-174,0,0,0,0,0,0,0,0,0,-1,1336,1198,0,0
119,-174,0,0,0,0,0,0,0,0,0,-1,1343,1198,0,0
126,-174,0,0,0,0,0,0,0,0,0,-1,1350,1198,0,0
133,-174,0,0,0,0,0,0,0,0,0,-1,1357,1198,0,0
140,-174,0,0,0,0,0,0,0,0,0,-1,1364,1198,0,0
147,-174,0,0,0,0,0,0,0,0,0,-1,1371,1198,0,0
154,-174,0,0,0,0,0,0,0,0,0,-1,1378,1198,0,0
161,-174,0,0,0,0,0,0,0,0,0,-1,1385,1198,0,0
168,-174,0,0,0,0,0,0,0,0,0,-1,1392,1198,0,0
175,-174,0,0,0,0,0,0,0,0,0,-1,1399,1198,0,0
182,-174,0,0,0,0,0,0,0,0,0,-1,1406,1198,0,0
189,-174,0,0,0,0,0,0,0,0,0,-1,1413,1198,0,0
196,-174,0,0,0,0,0,0,0,0,0,-1,1420,1198,0,0
203,-174,0,0,0,0,0,0,0,0,0,-1,1427,1198,0,0
210,-174,0,0,0,0,0,0,0,0,0,-1,1434,1198,0,0
217,-174,0,0,0,0,0,0,0,0,0,-1,1441,1198,0,0
224,-174,0,0,0,0,0,0,0,0,0,-1,1448,1198,0,0
231,-174,0,0,0,0,0,0,0,0,0,-1,1455,1198,0,0
238,-174,0,0,0,0,0,0,0,0,0,-1,1462,1198,0,0
245,-174,0,0,0,0,0,0,0,0,0,-1,1469,1198,0,0
252,-174,0,0,0,0,0,0,0,0,0,-1,1476,1198,0,0
259,-174,0,0,0,0,0,0,0,0,0,-1,1483,1198,0,0
266,-174,0,0,0,0,0,0,0,0,0,-1,1490,1198,0,0
273,-174,0,0,0,0,0,0,0,0,0,-1,1497,1198,0,0
280,-174,0,0,0,0,0,0,0,0,0,-1,1504,1198,0,0
287,-174,0,0,0,0,0,0,0,0,0,-1,1511,1198,0,0
294,-174,0,0,0,0,0,0,0,0,0,-1,1518,1198,0,0
301,-174,0,0,0,0,0,0,0,0,0,-1,1525,1198,0,0
308,-174,0,0,0,0,0,0,0,0,0,-1,1532,1198,0,0
315,-174,0,0,0,0,0,0,0,0,0,-1,1539,1198,0,0
322,-174,0,0,0,0,0,0,0,0,0,-1,1546,1198,0,0
329,-174,0,0,0,0,0,0,0,0,0,-1,1553,1198,0,0
336,-174,0,0,0,0,0,0,0,0,0,-1,1560,1198,0,0
343,-174,0,0,0,0,0,0,0,0,0,-1,1567,1198,0,0
350,-174,0,0,0,0,0,0,0,0,0,-1,1574,1198,0,0
357,-174,0,0,0,0,0,0,0,0,0,-1,1581,1198,0,0
364,-174,0,0,0,0,0,0,0,0,0,-1,1588,1198,0,0
371,-174,0,0,0,0,0,0,0,0,0,-1,1595,1198,0,0
378,-174,0,0,0,0,0,0,0,0,0,-1,1602,1198,0,0
385,-174,0,0,0,0,0,0,0,0,0,-1,1609,1198,0,0
392,-174,0,0,0,0,0,0,0,0,0,-1,1616,1198,0,0
399,-174,0,0,0,0,0,0,0,0,0,-1,1623,1198,0,0
406,-174,0,0,0,0,0,0,0,0,0,-1,1630,1198,0,0
413,-174,0,0,0,0,0,0,0,0,0,-1,1637,1198,0,0
420,-174,0,0,0,0,0,0,0,0,0,-1,1644,1198,0,0
427,-174,0,0,0,0,0,0,0,0,0,-1,1651,1198,0,0
434,-174,0,0,0,0,0,0,0,0,0,-1,1658,1198,0,0
441,-174,0,0,0,0,0,0,0,0,0,-1,1665,1198,0,0
448,-174,0,0,0,0,0,0,0,0,0,-1,1672,1198,0,0
455,-174,0,0,0,0,0,0,0,0,0,-1,1679,1198,0,0
462,-174,0,0,0,0,0,0,0,0,0,-1,1686,1198,0,0
469,-174,0,0,0,0,0,0,0,0,0,-1,1693,1198,0,0
476,-174,0,0,0,0,0,0,0,0,0,-1,1700,1198,0,0
483,-174,0,0,0,0,0,0,0,0,0,-1,1707,1198,0,0
490,-174,0,0,0,0,0,0,0,0,0,-1,1714,1198,0,0
497,-174,0,0,0,0,0,0,0,0,0,-1,1721,1198,0,0
504,-174,0,0,0,0,0,0,0,0,0,-1,1728,1198,0,0
511,-174,0,0,0,0,0,0,0,0,0,-1,1735,1198,0,0
518,-174,0,0,0,0,0,0,0,0,0,-1,1742,1198,0,0
525,-174,0,0,0,0,0,0,0,0,0,-1,1749,1198,0,0
532,-174,0,0,0,0,0,0,0,0,0,-1,1756,1198,0,0
539,-174,0,0,0,0,0,0,0,0,0,-1,1763,1198,0,0
546,-174,0,0,0,0,0,0,0,0,0,-1,1770,1198,0,0
553,-174,0,0,0,0,0,0,0,0,0,-1,1777,1198,0,0
560,-174,0,0,0,0,0,0,0,0,0,-1,1784,1198,0,0
567,-174,0,0,0,0,0,0,0,0,0,-1,1791,1198,0,0
574,-174,0,0,0,0,0,0,0,0,0,-1,1798,1198,0,0
581,-174,0,0,0,0,0,0,0,0,0,-1,1805,1198,0,0
588,-174,0,0,0,0,0,0,0,0,0,-1,1812,1198,0,0
595,-174,0,0,0,0,0,0,0,0,0,-1,1819,1198,0,0
602,-174,0,0,0,0,0,0,0,0,0,-1,1826,1198,0,0
609,-174,0,0,0,0,0,0,0,0,0,-1,1833,1198,0,0
616,-174,0,0,0,0,0,0,0,0,0,-1,1840,1198,0,0
623,-174,0,0,0,0,0,0,0,0,0,-1,1847,1198,0,0
630,-174,0,0,0,0,0,0,0,0,0,-1,1854,1198,0,0
637,-174,0.0506592,-0.186401,-0.0021264,0.00027434,-0.000596212,0.000414253,-0.00226631,-1.3403,0.00166621,0.0350882,1861,1198,0.0506647,0.186453
644,-174,-0.0228271,-0.210449,-0.00143631,-3.14273e-06,-0.000444911,0.000123741,-0.00156319,-1.29298,0.00108573,0.0361444,1868,1198,-0.0228043,0.210477
651,-174,-0.0953369,0.0340576,-0.0013361,-0.000338778,-0.000198625,-0.000300675,-0.0013742,-1.38127,0.000834173,0.0369309,1875,1198,-0.095313,-0.0341013
658,-174,-0.0405273,0.193604,-0.00135203,-0.000496838,-8.50614e-05,-0.000488459,-0.0013604,-1.47261,0.000795764,0.0350684,1882,1198,-0.0405267,-0.193625
665,-174,0.0321045,-0.019043,-0.00146184,-0.000578811,-5.47851e-05,-0.000575425,-0.00146523,-1.50907,0.000852414,0.0304749,1889,1198,0.0320882,0.0189981
672,-174,-0.0441895,-0.101196,-0.00158383,-0.000589544,-4.94963e-05,-0.000587086,-0.00158629,-1.52118,0.000926087,0.0216498,1896,1198,-0.0442154,0.101184
679,-174,-0.0601807,-0.0516357,-0.00166533,-0.000536576,-8.19665e-05,-0.000530655,-0.00167125,-1.49868,0.000986084,0.0166566,1903,1198,-0.0602247,0.0516345
686,-174,-0.0330811,0.129639,-0.00173244,-0.000450697,-0.000136013,-0.000436423,-0.00174671,-1.46623,0.00104969,0.0352309,1910,1198,-0.0331137,-0.129633
693,-174,-0.123047,0.398071,-0.00166625,-0.000368863,-0.000210514,-0.000335559,-0.00169955,-1.4139,0.0010394,0.0405286,1917,1198,-0.122989,-0.398038
700,-174,-0.126099,0.25708,-0.00147261,-0.00028057,-0.000326708,-0.0001969,-0.00155628,-1.32009,0.000978511,0.0414785,1924,1198,-0.126065,-0.257042
707,-174,-0.0633545,-0.0134277,-0.00129503,-0.000184799,-0.000439252,-3.20338e-05,-0.0014478,-1.2361,0.000954701,0.0288312,1931,1198,-0.0633497,0.0133921
714,-174,-0.0686035,-0.0643311,-0.00117517,-9.07874e-05,-0.000466803,8.24766e-05,-0.00134843,-1.21539,0.000927671,0.0168786,1938,1198,-0.0686142,0.0643877
721,-174,-0.0714111,-0.0582275,-0.00105525,-3.82565e-06,-0.000515999,0.000207095,-0.00126617,-1.18276,0.00092094,0.0132558,1945,1198,-0.0714028,0.0582425
728,-174,-0.0615234,-0.0462646,-0.000961668,0.000136915,-0.000517444,0.000342256,-0.00116701,-1.19302,0.000913714,0.0104298,1952,1198,-0.0615244,0.0462824
735,-174,-0.0535889,-0.039917,-0.000627659,0.000318114,-0.000254315,0.000382161,-0.000691706,-1.32409,0.000628525,0.00992393,1959,1198,-0.0535935,0.0399727
742,-174,-0.0714111,-0.0537109,7.7754e-05,0.000420408,-4.40081e-05,0.00042597,7.21922e-05,-1.44508,0.000263236,0.0163635,1966,1198,-0.0714531,0.0537094
749,-174,-0.083374,-0.0435791,0.000743438,0.000219096,0.000415158,0.000972276,-9.74198e-06,0.503769,0.000651456,0.0157806,1973,1198,-0.0834005,0.0435277
756,-174,-0.0661621,-0.0584717,0.00158155,-0.000100492,0.000963549,0.00201949,-0.000538433,0.426596,0.00155715,0.0103493,1980,1198,-0.0661981,0.0584598
763,-174,-0.0866699,-0.0744629,0.00248102,-0.000446749,0.00155677,0.00315407,-0.0011198,0.408069,0.00255899,0.0131775,1987,1198,-0.0867299,0.0744568
770,-174,-0.0998535,-0.0710449,0.00388204,-0.000913884,0.00221352,0.0047475,-0.00177934,0.372712,0.00389599,0.0246746,1994,1198,-0.099846,0.0710649
777,-174,-0.251587,-0.186768,0.00584623,-0.00168566,0.00291222,0.00684089,-0.00268032,0.329125,0.00566932,0.0411116,2001,1198,-0.251621,0.186722
784,-174,-0.514648,-0.11377,0.00853324,-0.00288405,0.00359699,0.00957196,-0.00392278,0.281128,0.00801552,0.0457006,2008,1198,-0.51466,0.113727
791,-174,-0.0849609,0.37146,0.0120698,-0.00466284,0.00411687,0.0130278,-0.00562089,0.228645,0.0110463,0.0472462,2015,1198,-0.0849308,-0.371425
798,-174,-0.0465088,0.19043,0.016591,-0.0072156,0.00424281,0.0173245,-0.00794915,0.171201,0.0149227,0.0473309,2022,1198,-0.0465272,-0.190404
805,-174,0.109009,0.048584,0.022323,-0.0107938,0.00365485,0.0227215,-0.0111924,0.108621,0.0199538,0.0460702,2029,1198,0.109064,-0.0486366
812,-174,0,0,0,0,0,0,0,0,0,-1,2036,1198,0,0
-700,-181,0,0,0,0,0,0,0,0,0,-1,524,1205,0,0
-693,-181,0,0,0,0,0,0,0,0,0,-1,531,1205,0,0
-686,-181,0.578735,0.247681,0,0,0,0,0,0,0,-1,538,1205,0.578743,-0.247712
-679,-181,0.797241,1.30127,0,0,0,0,0,0,0,-1,545,1205,0.797247,-1.30125
-672,-181,0.856873,0.796997,0,0,0,0,0,0,0,-1,552,1205,0.856864,-0.797
-665,-181,1.16595,-0.581909,-0.00212488,0.0297598,-0.000965897,0.029789,-0.00215411,-1.54054,0.0206149,0.0431344,559,1205,1.16595,0.581853
-658,-181,-0.570313,0.752075,-0.00257163,0.0228346,0.000309472,0.0228384,-0.0025754,1.55862,0.0161526,0.0446328,566,1205,-0.570288,-0.75209
-651,-181,-0.614014,1.09436,-0.00245423,0.0173081,0.000911586,0.01735,-0.00249619,1.5248,0.0124822,0.0448961,573,1205,-0.614013,-1.09435
-644,-181,-0.767639,1.35144,0,0,0,0,0,0,0,-1,580,1205,-0.767631,-1.35144
-637,-181,-0.062561,-0.0616455,-0.00156088,0.00938937,0.00104837,0.00948884,-0.00166034,1.4762,0.00694581,0.0236267,587,1205,-0.0625511,0.0615986
-630,-181,-0.0808105,-0.0440674,-0.00106314,0.00635836,0.000960043,0.00648054,-0.00118531,1.44421,0.00476486,0.0120145,594,1205,-0.0808157,0.0440751
-623,-181,-0.0679321,-0.0473633,-0.00108292,0.00402046,0.000984096,0.00420365,-0.00126611,1.38675,0.00330629,0.0134644,601,1205,-0.0679432,0.0474193
-616,-181,-0.0632324,-0.0491943,-0.000805858,0.00225896,0.000749191,0.00243229,-0.000979193,1.34343,0.00202831,0.0133519,608,1205,-0.0632489,0.0491403
-609,-181,-0.0777588,-0.0400391,0.000301249,0.00180272,0.000109901,0.00181072,0.000293247,1.49812,0.00112224,0.0125304,615,1205,-0.0777494,0.040088
-602,-181,-0.067688,-0.0336914,0.000892842,0.00214962,-0.000561283,0.00236379,0.000678668,-1.20627,0.00140537,0.010872,622,1205,-0.0676589,0.0336701
-595,-181,-0.0758667,-0.046875,0.000590921,0.00187012,-0.000339297,0.00195454,0.000506497,-1.32693,0.00117129,0.0102507,629,1205,-0.0758542,0.0468537
-588,-181,-0.0877686,-0.0557861,0.000275218,0.00238571,-0.000200484,0.00240459,0.000256342,-1.47692,0.00152481,0.00888971,636,1205,-0.0877705,0.0557958
-581,-181,-0.103149,-0.0544434,0.000228989,0.00284752,-0.000305725,0.00288275,0.000193768,-1.4561,0.00186061,0.00959657,643,1205,-0.103138,0.0544245
-574,-181,-0.147949,-0.140259,0.00018095,0.00318733,-0.00025218,0.00320834,0.000159943,-1.48769,0.00208762,0.0238655,650,1205,-0.147977,0.140298
-567,-181,-0.0162354,-0.371704,0,0,0,0,0,0,0,-1,657,1205,-0.016235,0.371759
-560,-181,0.115845,-0.325806,-4.42232e-05,0.00346759,-9.3425e-05,0.00347008,-4.67068e-05,-1.54422,0.00232911,0.0465256,664,1205,0.115823,0.325767
-553,-181,0.0790405,-0.251831,-0.000217871,0.00325405,2.54856e-05,0.00325424,-0.000218058,1.56346,0.00224571,0.0395977,671,1205,0.0790125,0.251799
-546,-181,-0.045105,-0.0882568,-0.000417351,0.002709,0.00014748,0.00271595,-0.000424293,1.52376,0.00196737,0.0323551,678,1205,-0.0451096,0.0883063
-539,-181,-0.0924072,0.0340576,-0.000612021,0.00176318,0.000211834,0.00178193,-0.000630765,1.48254,0.00144485,0.0355783,685,1205,-0.092433,-0.0340265
-532,-181,-0.0402832,-0.0621338,-0.000759682,0.000404646,0.000155932,0.000425167,-0.000780204,1.43994,0.000705912,0.0401481,692,1205,-0.0402743,0.0621166
-525,-181,-0.0489502,-0.198853,-0.000856423,-0.00134944,-0.000110195,-0.000832914,-0.00137294,-0.210189,0.000798659,0.0374845,699,1205,-0.0489777,0.1988
-518,-181,0.000793457,-0.162231,-0.000780657,-0.00348406,-0.00069628,-0.000611865,-0.00365285,-0.237833,0.00225907,0.0360653,706,1205,0.000772929,0.162289
-511,-181,0,0,0,0,0,0,0,0,0,-1,713,1205,0,0
-504,-181,0,0,0,0,0,0,0,0,0,-1,720,1205,0,0
-497,-181,0,0,0,0,0,0,0,0,0,-1,727,1205,0,0
-490,-181,0,0,0,0,0,0,0,0,0,-1,734,1205,0,0
-483,-181,0,0,0,0,0,0,0,0,0,-1,741,1205,0,0
-476,-181,0,0,0,0,0,0,0,0,0,-1,748,1205,0,0
-469,-181,0,0,0,0,0,0,0,0,0,-1,755,1205,0,0
-462,-181,0,0,0,0,0,0,0,0,0,-1,762,1205,0,0
-455,-181,0,0,0,0,0,0,0,0,0,-1,769,1205,0,0
-448,-181,0,0,0,0,0,0,0,0,0,-1,776,1205,0,0
-441,-181,0,0,0,0,0,0,0,0,0,-1,783,1205,0,0
-434,-181,0,0,0,0,0,0,0,0,0,-1,790,1205,0,0
-427,-181,0,0,0,0,0,0,0,0,0,-1,797,1205,0,0
-420,-181,0,0,0,0,0,0,0,0,0,-1,804,1205,0,0
-413,-181,0,0,0,0,0,0,0,0,0,-1,811,1205,0,0
-406,-181,0,0,0,0,0,0,0,0,0,-1,818,1205,0,0
-399,-181,0,0,0,0,0,0,0,0,0,-1,825,1205,0,0
-392,-181,0,0,0,0,0,0,0,0,0,-1,832,1205,0,0
-385,-181,0,0,0,0,0,0,0,0,0,-1,839,1205,0,0
-378,-181,0,0,0,0,0,0,0,0,0,-1,846,1205,0,0
-371,-181,0,0,0,0,0,0,0,0,0,-1,853,1205,0,0
-364,-181,0,0,0,0,0,0,0,0,0,-1,860,1205,0,0
-357,-181,0,0,0,0,0,0,0,0,0,-1,867,1205,0,0
-350,-181,0,0,0,0,0,0,0,0,0,-1,874,1205,0,0
-343,-181,0,0,0,0,0,0,0,0,0,-1,881,1205,0,0
-336,-181,0,0,0,0,0,0,0,0,0,-1,888,1205,0,0
-329,-181,0,0,0,0,0,0,0,0,0,-1,895,1205,0,0
-322,-181,0,0,0,0,0,0,0,0,0,-1,902,1205,0,0
-315,-181,0,0,0,0,0,0,0,0,0,-1,909,1205,0,0
-308,-181,0,0,0,0,0,0,0,0,0,-1,916,1205,0,0
-301,-181,0,0,0,0,0,0,0,0,0,-1,923,1205,0,0
-294,-181,0,0,0,0,0,0,0,0,0,-1,930,1205,0,0
-287,-181,0,0,0,0,0,0,0,0,0,-1,937,1205,0,0
-280,-181,0,0,0,0,0,0,0,0,0,-1,944,1205,0,0
-273,-181,0,0,0,0,0,0,0,0,0,-1,951,1205,0,0
-266,-181,0,0,0,0,0,0,0,0,0,-1,958,1205,0,0
-259,-181,0,0,0,0,0,0,0,0,0,-1,965,1205,0,0
-252,-181,0,0,0,0,0,0,0,0,0,-1,972,1205,0,0
-245,-181,0,0,0,0,0,0,0,0,0,-1,979,1205,0,0
-238,-181,0,0,0,0,0,0,0,0,0,-1,986,1205,0,0
-231,-181,0,0,0,0,0,0,0,0,0,-1,993,1205,0,0
-224,-181,0,0,0,0,0,0,0,0,0,-1,1000,1205,0,0
-217,-181,0,0,0,0,0,0,0,0,0,-1,1007,1205,0,0
-210,-181,0,0,0,0,0,0,0,0,0,-1,1014,1205,0,0
-203,-181,0,0,0,0,0,0,0,0,0,-1,1021,1205,0,0
-196,-181,0,0,0,0,0,0,0,0,0,-1,1028,1205,0,0
-189,-181,0,0,0,0,0,0,0,0,0,-1,1035,1205,0,0
-182,-181,0,0,0,0,0,0,0,0,0,-1,1042,1205,0,0
-175,-181,0,0,0,0,0,0,0,0,0,-1,1049,1205,0,0
-168,-181,0,0,0,0,0,0,0,0,0,-1,1056,1205,0,0
-161,-181,0,0,0,0,0,0,0,0,0,-1,1063,1205,0,0
-154,-181,0,0,0,0,0,0,0,0,0,-1,1070,1205,0,0
-147,-181,0,0,0,0,0,0,0,0,0,-1,1077,1205,0,0
-140,-181,0,0,0,0,0,0,0,0,0,-1,1084,1205,0,0
-133,-181,0,0,0,0,0,0,0,0,0,-1,1091,1205,0,0
-126,-181,0,0,0,0,0,0,0,0,0,-1,1098,1205,0,0
-119,-181,0,0,0,0,0,0,0,0,0,-1,1105,1205,0,0
-112,-181,0,0,0,0,0,0,0,0,0,-1,1112,1205,0,0
-105,-181,0,0,0,0,0,0,0,0,0,-1,1119,1205,0,0
-98,-181,0,0,0,0,0,0,0,0,0,-1,1126,1205,0,0
-91,-181,0,0,0,0,0,0,0,0,0,-1,1133,1205,0,0
-84,-181,0,0,0,0,0,0,0,0,0,-1,1140,1205,0,0
-77,-181,0,0,0,0,0,0,0,0,0,-1,1147,1205,0,0
-70,-181,0,0,0,0,0,0,0,0,0,-1,1154,1205,0,0
-63,-181,0,0,0,0,0,0,0,0,0,-1,1161,1205,0,0
-56,-181,0,0,0,0,0,0,0,0,0,-1,1168,1205,0,0
-49,-181,0,0,0,0,0,0,0,0,0,-1,1175,1205,0,0
-42,-181,0,0,0,0,0,0,0,0,0,-1,1182,1205,0,0
-35,-181,0,0,0,0,0,0,0,0,0,-1,1189,1205,0,0
-28,-181,0,0,0,0,0,0,0,0,0,-1,1196,1205,0,0
-21,-181,0,0,0,0,0,0,0,0,0,-1,1203,1205,0,0
-14,-181,0,0,0,0,0,0,0,0,0,-1,1210,1205,0,0
-7,-181,0,0,0,0,0,0,0,0,0,-1,1217,1205,0,0
0,-181,0,0,0,0,0,0,0,0,0,-1,1224,1205,0,0
7,-181,0,0,0,0,0,0,0,0,0,-1,1231,1205,0,0
14,-181,0,0,0,0,0,0,0,0,0,-1,1238,1205,0,0
21,-181,0,0,0,0,0,0,0,0,0,-1,1245,1205,0,0
28,-181,0,0,0,0,0,0,0,0,0,-1,1252,1205,0,0
35,-181,0,0,0,0,0,0,0,0,0,-1,1259,1205,0,0
42,-181,0,0,0,0,0,0,0,0,0,-1,1266,1205,0,0
49,-181,0,0,0,0,0,0,0,0,0,-1,1273,1205,0,0
56,-181,0,0,0,0,0,0,0,0,0,-1,1280,1205,0,0
63,-181,0,0,0,0,0,0,0,0,0,-1,1287,1205,0,0
70,-181,0,0,0,0,0,0,0,0,0,-1,1294,1205,0,0
77,-181,0,0,0,0,0,0,0,0,0,-1,1301,1205,0,0
84,-181,0,0,0,0,0,0,0,0,0,-1,1308,1205,0,0
91,-181,0,0,0,0,0,0,0,0,0,-1,1315,1205,0,0
98,-181,0,0,0,0,0,0,0,0,0,-1,1322,1205,0,0
105,-181,0,0,0,0,0,0,0,0,0,-1,1329,1205,0,0
112,-181,0,0,0,0,0,0,0,0,0,-1,1336,1205,0,0
119,-181,0,0,0,0,0,0,0,0,0,-1,1343,1205,0,0
126,-181,0,0,0,0,0,0,0,0,0,-1,1350,1205,0,0
133,-181,0,0,0,0,0,0,0,0,0,-1,1357,1205,0,0
140,-181,0,0,0,0,0,0,0,0,0,-1,1364,1205,0,0
147,-181,0,0,0,0,0,0,0,0,0,-1,1371,1205,0,0
154,-181,0,0,0,0,0,0,0,0,0,-1,1378,1205,0,0
161,-181,0,0,0,0,0,0,0,0,0,-1,1385,1205,0,0
168,-181,0,0,0,0,0,0,0,0,0,-1,1392,1205,0,0
175,-181,0,0,0,0,0,0,0,0,0,-1,1399,1205,0,0
182,-181,0,0,0,0,0,0,0,0,0,-1,1406,1205,0,0
189,-181,0,0,0,0,0,0,0,0,0,-1,1413,1205,0,0
196,-181,0,0,0,0,0,0,0,0,0,-1,1420,1205,0,0
203,-181,0,0,0,0,0,0,0,0,0,-1,1427,1205,0,0
210,-181,0,0,0,0,0,0,0,0,0,-1,1434,1205,0,0
217,-181,0,0,0,0,0,0,0,0,0,-1,1441,1205,0,0
224,-181,0,0,0,0,0,0,0,0,0,-1,1448,1205,0,0
231,-181,0,0,0,0,0,0,0,0,0,-1,1455,1205,0,0
238,-181,0,0,0,0,0,0,0,0,0,-1,1462,1205,0,0
245,-181,0,0,0,0,0,0,0,0,0,-1,1469,1205,0,0
252,-181,0,0,0,0,0,0,0,0,0,-1,1476,1205,0,0
259,-181,0,0,0,0,0,0,0,0,0,-1,1483,1205,0,0
266,-181,0,0,0,0,0,0,0,0,0,-1,1490,1205,0,0
273,-181,0,0,0,0,0,0,0,0,0,-1,1497,1205,0,0
280,-181,0,0,0,0,0,0,0,0,0,-1,1504,1205,0,0
287,-181,0,0,0,0,0,0,0,0,0,-1,1511,1205,0,0
294,-181,0,0,0,0,0,0,0,0,0,-1,1518,1205,0,0
301,-181,0,0,0,0,0,0,0,0,0,-1,1525,1205,0,0
308,-181,0,0,0,0,0,0,0,0,0,-1,1532,1205,0,0
315,-181,0,0,0,0,0,0,0,0,0,-1,1539,1205,0,0
322,-181,0,0,0,0,0,0,0,0,0,-1,1546,1205,0,0
329,-181,0,0,0,0,0,0,0,0,0,-1,1553,1205,0,0
336,-181,0,0,0,0,0,0,0,0,0,-1,1560,1205,0,0
343,-181,0,0,0,0,0,0,0,0,0,-1,1567,1205,0,0
350,-181,0,0,0,0,0,0,0,0,0,-1,1574,1205,0,0
357,-181,0,0,0,0,0,0,0,0,0,-1,1581,1205,0,0
364,-181,0,0,0,0,0,0,0,0,0,-1,1588,1205,0,0
371,-181,0,0,0,0,0,0,0,0,0,-1,1595,1205,0,0
378,-181,0,0,0,0,0,0,0,0,0,-1,1602,1205,0,0
385,-181,0,0,0,0,0,0,0,0,0,-1,1609,1205,0,0
392,-181,0,0,0,0,0,0,0,0,0,-1,1616,1205,0,0
399,-181,0,0,0,0,0,0,0,0,0,-1,1623,1205,0,0
406,-181,0,0,0,0,0,0,0,0,0,-1,1630,1205,0,0
413,-181,0,0,0,0,0,0,0,0,0,-1,1637,1205,0,0
420,-181,0,0,0,0,0,0,0,0,0,-1,1644,1205,0,0
427,-181,0,0,0,0,0,0,0,0,0,-1,1651,1205,0,0
434,-181,0,0,0,0,0,0,0,0,0,-1,1658,1205,0,0
441,-181,0,0,0,0,0,0,0,0,0,-1,1665,1205,0,0
448,-181,0,0,0,0,0,0,0,0,0,-1,1672,1205,0,0
455,-181,0,0,0,0,0,0,0,0,0,-1,1679,1205,0,0
462,-181,0,0,0,0,0,0,0,0,0,-1,1686,1205,0,0
469,-181,0,0,0,0,0,0,0,0,0,-1,1693,1205,0,0
476,-181,0,0,0,0,0,0,0,0,0,-1,1700,1205,0,0
483,-181,0,0,0,0,0,0,0,0,0,-1,1707,1205,0,0
490,-181,0,0,0,0,0,0,0,0,0,-1,1714,1205,0,0
497,-181,0,0,0,0,0,0,0,0,0,-1,1721,1205,0,0
504,-181,0,0,0,0,0,0,0,0,0,-1,1728,1205,0,0
511,-181,0,0,0,0,0,0,0,0,0,-1,1735,1205,0,0
518,-181,0,0,0,0,0,0,0,0,0,-1,1742,1205,0,0
525,-181,0,0,0,0,0,0,0,0,0,-1,1749,1205,0,0
532,-181,0,0,0,0,0,0,0,0,0,-1,1756,1205,0,0
539,-181,0,0,0,0,0,0,0,0,0,-1,1763,1205,0,0
546,-181,0,0,0,0,0,0,0,0,0,-1,1770,1205,0,0
553,-181,0,0,0,0,0,0,0,0,0,-1,1777,1205,0,0
560,-181,0,0,0,0,0,0,0,0,0,-1,1784,1205,0,0
567,-181,0,0,0,0,0,0,0,0,0,-1,1791,1205,0,0
574,-181,0,0,0,0,0,0,0,0,0,-1,1798,1205,0,0
581,-181,0,0,0,0,0,0,0,0,0,-1,1805,1205,0,0
588,-181,0,0,0,0,0,0,0,0,0,-1,1812,1205,0,0
595,-181,0,0,0,0,0,0,0,0,0,-1,1819,1205,0,0
602,-181,0,0,0,0,0,0,0,0,0,-1,1826,1205,0,0
609,-181,0,0,0,0,0,0,0,0,0,-1,1833,1205,0,0
616,-181,0,0,0,0,0,0,0,0,0,-1,1840,1205,0,0
623,-181,0,0,0,0,0,0,0,0,0,-1,1847,1205,0,0
630,-181,-0.0469971,-0.0163574,-0.00376452,0.00102797,-0.000225853,0.00103859,-0.00377514,-1.52381,0.00292508,0.0321565,1854,1205,-0.0469487,0.016379
637,-181,-0.0124512,-0.116211,-0.00151819,0.000611596,-0.000629847,0.000783919,-0.00169051,-1.30374,0.00146023,0.0317725,1861,1205,-0.0124797,0.116229
644,-181,0.0124512,-0.0958252,-0.000758931,3.51198e-05,-0.000411461,0.000209872,-0.000933683,-1.16917,0.000702935,0.0338294,1868,1205,0.0124451,0.0958249
651,-181,-0.0288086,-0.00146484,-0.000761244,-0.000471103,-0.000173566,-0.000389964,-0.000842383,-1.1335,0.000486795,0.0336859,1875,1205,-0.0288388,0.00145379
658,-181,0.0429688,0.0357666,-0.000962055,-0.000743062,-6.47026e-05,-0.000725374,-0.000979743,-1.30394,0.000587039,0.0298439,1882,1205,0.0429173,-0.0357556
665,-181,0.0206299,-0.101685,-0.00127152,-0.00088081,-2.49887e-05,-0.000879218,-0.00127311,-1.50718,0.000752624,0.0260328,1889,1205,0.0205863,0.101678
672,-181,-0.0395508,-0.0905762,-0.00158165,-0.000903185,-9.36807e-06,-0.000903055,-0.00158178,-1.55699,0.000916296,0.0178985,1896,1205,-0.0395782,0.0905734
679,-181,-0.0368652,0.00280762,-0.00182125,-0.000832891,-2.88049e-05,-0.000832052,-0.00182209,-1.54169,0.0010533,0.0225042,1903,1205,-0.0369238,-0.00276829
686,-181,0.00268555,0.219482,-0.00200844,-0.000713539,-7.15914e-05,-0.000709593,-0.00201239,-1.51573,0.00117856,0.0431741,1910,1205,0.00268159,-0.219423
693,-181,-0.183594,0.453491,-0.00201844,-0.000580802,-0.00013889,-0.000567507,-0.00203173,-1.47536,0.00121051,0.0445629,1917,1205,-0.183635,-0.453548
700,-181,-0.106812,0.201538,-0.0018714,-0.000428714,-0.000249274,-0.000386858,-0.00191326,-1.40444,0.00116811,0.0400158,1924,1205,-0.106857,-0.20148
707,-181,-0.0507813,-0.0187988,-0.00169945,-0.000280359,-0.000360646,-0.000193965,-0.00178584,-1.33567,0.00113146,0.0200015,1931,1205,-0.0507927,0.0187976
714,-181,-0.0618896,-0.0463867,-0.00157054,-0.000116134,-0.000396444,-1.50899e-05,-0.00167158,-1.32123,0.00110939,0.0149323,1938,1205,-0.0618796,0.0463599
721,-181,-0.0656738,-0.0410156,-0.00140687,5.11637e-05,-0.000474388,0.000191922,-0.00154763,-1.28235,0.00110132,0.0115445,1945,1205,-0.0656332,0.0410005
728,-181,-0.055542,-0.0517578,-0.0012056,0.000248305,-0.000507978,0.000408202,-0.0013655,-1.26584,0.00107261,0.0101914,1952,1205,-0.0555216,0.0517561
735,-181,-0.046875,-0.052124,-0.000722246,0.000517327,-0.000255301,0.00056785,-0.000772769,-1.37543,0.000777015,0.00995621,1959,1205,-0.046936,0.0521745
742,-181,-0.0574951,-0.0378418,0.000153541,0.00068071,-0.000107544,0.000701805,0.000132446,-1.3771,0.000430566,0.0145628,1966,1205,-0.0574433,0.0378544
749,-181,-0.0517578,-0.0351563,0.000887252,0.000594727,0.000298281,0.0010732,0.000408778,0.557449,0.000625445,0.0141219,1973,1205,-0.0517909,0.0352057
756,-181,-0.0645752,-0.0566406,0.00177573,0.000449132,0.000801746,0.00215299,7.18724e-05,0.43981,0.00141198,0.0114368,1980,1205,-0.0646287,0.0566726
763,-181,-0.0731201,-0.0722656,0.00282058,0.000380517,0.00138582,0.00344689,-0.00024579,0.424466,0.00238408,0.0114006,1987,1205,-0.0731769,0.0723148
770,-181,-0.0749512,-0.0960693,0.00438222,0.000237725,0.00204406,0.0052207,-0.000600763,0.389275,0.00369703,0.0216903,1994,1205,-0.0749654,0.0960355
777,-181,-0.176514,-0.0511475,0.00660335,-0.000115242,0.00279736,0.00761556,-0.00112746,0.347189,0.00549157,0.0379553,2001,1205,-0.176507,0.0511665
784,-181,-0.296143,0.102173,0.00967939,-0.000794233,0.00360859,0.0108023,-0.00191715,0.30168,0.00791833,0.0463177,2008,1205,-0.296125,-0.102169
791,-181,-0.361328,0.252075,0,0,0,0,0,0,0,-1,2015,1205,-0.361368,-0.252091
798,-181,-0.0147705,0.0792236,0,0,0,0,0,0,0,-1,2022,1205,-0.014794,-0.0792359
805,-181,0,0,0,0,0,0,0,0,0,-1,2029,1205,0,0
812,-181,0,0,0,0,0,0,0,0,0,-1,2036,1205,0,0
-700,-188,0,0,0,0,0,0,0,0,0,-1,524,1212,0,0
-693,-188,0,0,0,0,0,0,0,0,0,-1,531,1212,0,0
-686,-188,0,0,0,0,0,0,0,0,0,-1,538,1212,0,0
-679,-188,0.52887,0.921875,0.00352036,0.0461491,-0.00627357,0.0470531,0.00261627,-1.42767,0.0305341,0.0494793,545,1212,0.528887,-0.921904
-672,-188,0.607605,0.512573,-0.000177226,0.0360857,-0.00247953,0.0362545,-0.000345983,-1.50284,0.0242858,0.0492837,552,1212,0.60762,-0.512541
-665,-188,0.936279,-0.356201,-0.00196896,0.0281961,-0.000404902,0.0282016,-0.00197439,-1.55738,0.0194925,0.0454643,559,1212,0.936256,0.356191
-658,-188,-0.0823975,0.499634,-0.00257895,0.0218958,0.000655497,0.0219133,-0.00259649,1.54404,0.0155468,0.0420481,566,1212,-0.0824099,-0.499687
-651,-188,-0.343323,0.755737,-0.00251586,0.016804,0.00109582,0.016866,-0.00257782,1.51432,0.0121944,0.0437559,573,1212,-0.343313,-0.755707
-644,-188,-0.687622,0.932739,0,0,0,0,0,0,0,-1,580,1212,-0.687636,-0.93276
-637,-188,-0.113831,-0.0267334,-0.00159069,0.00934601,0.00104134,0.00944428,-0.00168896,1.47671,0.00692814,0.0213146,587,1212,-0.113817,0.026749
-630,-188,-0.0881958,-0.0505371,-0.00108096,0.00647917,0.00089257,0.00658312,-0.00118491,1.45486,0.00483239,0.00958431,594,1212,-0.0881988,0.0505709
-623,-188,-0.0773926,-0.0484619,-0.00115625,0.00411757,0.000927062,0.00427579,-0.00131447,1.40176,0.00337511,0.00988503,601,1212,-0.0774154,0.0484247
-616,-188,-0.0739746,-0.0388184,-0.000828389,0.00240725,0.000676071,0.00254284,-0.000963969,1.37288,0.00209194,0.00976235,608,1212,-0.0739773,0.0388428
-609,-188,-0.0617065,-0.0228271,0.000382988,0.00200678,-2.22845e-05,0.00200709,0.000382682,-1.55708,0.00123049,0.0115192,615,1212,-0.0617364,0.0228561
-602,-188,-0.0712891,-0.0133057,0.00100873,0.00241555,-0.000698651,0.00270355,0.00072073,-1.17979,0.0016166,0.0143881,622,1212,-0.0713102,0.013328
-595,-188,-0.0834351,-0.0373535,0.000647146,0.00205598,-0.000378592,0.00215127,0.000551854,-1.32422,0.00129019,0.0116547,629,1212,-0.0834257,0.0373414
-588,-188,-0.0901489,-0.0540771,0.000259423,0.00253369,-0.00012383,0.00254041,0.0002527,-1.51656,0.00161598,0.00884881,636,1212,-0.0901743,0.0540855
-581,-188,-0.0906372,-0.045166,0.000179395,0.00296392,-0.000182961,0.00297589,0.000167425,-1.50546,0.00193054,0.00857919,643,1212,-0.0906277,0.0451814
-574,-188,-0.0814209,-0.117554,0.000146737,0.00322276,-5.15418e-05,0.00322362,0.000145873,-1.55405,0.00210215,0.0216177,650,1212,-0.0813972,0.117576
-567,-188,0.0617676,-0.236694,0.000106048,0.00333071,0.000110174,0.00333447,0.000102289,1.53668,0.00218968,0.0409268,657,1212,0.06179,0.236656
-560,-188,0.268372,-0.427856,-3.75866e-05,0.00333823,0.000232227,0.00335413,-5.34868e-05,1.50243,0.00225413,0.0487885,664,1212,0.268379,0.42791
-553,-188,0.103882,-0.250122,-0.000173225,0.00301694,0.000389085,0.00306371,-0.000219994,1.45117,0.00211962,0.0457796,671,1212,0.103883,0.250108
-546,-188,-0.0501709,-0.101929,-0.000296035,0.0023727,0.000518906,0.00247004,-0.000393379,1.38536,0.00179227,0.0384637,678,1212,-0.0501755,0.101968
-539,-188,-0.0858154,-0.0560303,-0.000383172,0.00136964,0.000558269,0.00153235,-0.000545877,1.28721,0.0012441,0.0334334,685,1212,-0.0858307,0.0559825
-532,-188,-0.0444336,-0.0769043,-0.000371593,3.64428e-05,0.000412071,0.000292235,-0.000627386,1.01526,0.00054257,0.0377811,692,1212,-0.044441,0.0769309
-525,-188,-0.0689697,-0.0820313,-0.000249074,-0.00155287,-2.70955e-05,-0.000248511,-0.00155343,-0.0207701,0.000963525,0.0380594,699,1212,-0.068987,0.0819978
-518,-188,-0.0290527,0.0318604,7.7984e-05,-0.00329658,-0.000903523,0.000304671,-0.00352326,-0.245818,0.0024567,0.0403804,706,1212,-0.0290446,-0.0318598
-511,-188,-0.0584106,-0.0200195,0.00113005,-0.00492808,-0.00240389,0.00196802,-0.00576604,-0.335415,0.00464126,0.0368213,713,1212,-0.0584003,0.0199992
-504,-188,0,0,0,0,0,0,0,0,0,-1,720,1212,0,0
-497,-188,0,0,0,0,0,0,0,0,0,-1,727,1212,0,0
-490,-188,0,0,0,0,0,0,0,0,0,-1,734,1212,0,0
-483,-188,0,0,0,0,0,0,0,0,0,-1,741,1212,0,0
-476,-188,0,0,0,0,0,0,0,0,0,-1,748,1212,0,0
-469,-188,0,0,0,0,0,0,0,0,0,-1,755,1212,0,0
-462,-188,0,0,0,0,0,0,0,0,0,-1,762,1212,0,0
-455,-188,0,0,0,0,0,0,0,0,0,-1,769,1212,0,0
-448,-188,0,0,0,0,0,0,0,0,0,-1,776,1212,0,0
-441,-188,0,0,0,0,0,0,0,0,0,-1,783,1212,0,0
-434,-188,0,0,0,0,0,0,0,0,0,-1,790,1212,0,0
-427,-188,0,0,0,0,0,0,0,0,0,-1,797,1212,0,0
-420,-188,0,0,0,0,0,0,0,0,0,-1,804,1212,0,0
-413,-188,0,0,0,0,0,0,0,0,0,-1,811,1212,0,0
-406,-188,0,0,0,0,0,0,0,0,0,-1,818,1212,0,0
-399,-188,0,0,0,0,0,0,0,0,0,-1,825,1212,0,0
-392,-188,0,0,0,0,0,0,0,0,0,-1,832,1212,0,0
-385,-188,0,0,0,0,0,0,0,0,0,-1,839,1212,0,0
-378,-188,0,0,0,0,0,0,0,0,0,-1,846,1212,0,0
-371,-188,0,0,0,0,0,0,0,0,0,-1,853,1212,0,0
-364,-188,0,0,0,0,0,0,0,0,0,-1,860,1212,0,0
-357,-188,0,0,0,0,0,0,0,0,0,-1,867,1212,0,0
-350,-188,0,0,0,0,0,0,0,0,0,-1,874,1212,0,0
-343,-188,0,0,0,0,0,0,0,0,0,-1,881,1212,0,0
-336,-188,0,0,0,0,0,0,0,0,0,-1,888,1212,0,0
-329,-188,0,0,0,0,0,0,0,0,0,-1,895,1212,0,0
-322,-188,0,0,0,0,0,0,0,0,0,-1,902,1212,0,0
-315,-188,0,0,0,0,0,0,0,0,0,-1,909,1212,0,0
-308,-188,0,0,0,0,0,0,0,0,0,-1,916,1212,0,0
-301,-188,0,0,0,0,0,0,0,0,0,-1,923,1212,0,0
-294,-188,0,0,0,0,0,0,0,0,0,-1,930,1212,0,0
-287,-188,0,0,0,0,0,0,0,0,0,-1,937,1212,0,0
-280,-188,0,0,0,0,0,0,0,0,0,-1,944,1212,0,0
-273,-188,0,0,0,0,0,0,0,0,0,-1,951,1212,0,0
-266,-188,0,0,0,0,0,0,0,0,0,-1,958,1212,0,0
-259,-188,0,0,0,0,0,0,0,0,0,-1,965,1212,0,0
-252,-188,0,0,0,0,0,0,0,0,0,-1,972,1212,0,0
-245,-188,0,0,0,0,0,0,0,0,0,-1,979,1212,0,0
-238,-188,0,0,0,0,0,0,0,0,0,-1,986,1212,0,0
-231,-188,0,0,0,0,0,0,0,0,0,-1,993,1212,0,0
-224,-188,0,0,0,0,0,0,0,0,0,-1,1000,1212,0,0
-217,-188,0,0,0,0,0,0,0,0,0,-1,1007,1212,0,0
-210,-188,0,0,0,0,0,0,0,0,0,-1,1014,1212,0,0
-203,-188,0,0,0,0,0,0,0,0,0,-1,1021,1212,0,0
-196,-188,0,0,0,0,0,0,0,0,0,-1,1028,1212,0,0
-189,-188,0,0,0,0,0,0,0,0,0,-1,1035,1212,0,0
-182,-188,0,0,0,0,0,0,0,0,0,-1,1042,1212,0,0
-175,-188,0,0,0,0,0,0,0,0,0,-1,1049,1212,0,0
-168,-188,0,0,0,0,0,0,0,0,0,-1,1056,1212,0,0
-161,-188,0,0,0,0,0,0,0,0,0,-1,1063,1212,0,0
-154,-188,0,0,0,0,0,0,0,0,0,-1,1070,1212,0,0
-147,-188,0,0,0,0,0,0,0,0,0,-1,1077,1212,0,0
-140,-188,0,0,0,0,0,0,0,0,0,-1,1084,1212,0,0
-133,-188,0,0,0,0,0,0,0,0,0,-1,1091,1212,0,0
-126,-188,0,0,0,0,0,0,0,0,0,-1,1098,1212,0,0
-119,-188,0,0,0,0,0,0,0,0,0,-1,1105,1212,0,0
-112,-188,0,0,0,0,0,0,0,0,0,-1,1112,1212,0,0
-105,-188,0,0,0,0,0,0,0,0,0,-1,1119,1212,0,0
-98,-188,0,0,0,0,0,0,0,0,0,-1,1126,1212,0,0
-91,-188,0,0,0,0,0,0,0,0,0,-1,1133,1212,0,0
-84,-188,0,0,0,0,0,0,0,0,0,-1,1140,1212,0,0
-77,-188,0,0,0,0,0,0,0,0,0,-1,1147,1212,0,0
-70,-188,0,0,0,0,0,0,0,0,0,-1,1154,1212,0,0
-63,-188,0,0,0,0,0,0,0,0,0,-1,1161,1212,0,0
-56,-188,0,0,0,0,0,0,0,0,0,-1,1168,1212,0,0
-49,-188,0,0,0,0,0,0,0,0,0,-1,1175,1212,0,0
-42,-188,0,0,0,0,0,0,0,0,0,-1,1182,1212,0,0
-35,-188,0,0,0,0,0,0,0,0,0,-1,1189,1212,0,0
-28,-188,0,0,0,0,0,0,0,0,0,-1,1196,1212,0,0
-21,-188,0,0,0,0,0,0,0,0,0,-1,1203,1212,0,0
-14,-188,0,0,0,0,0,0,0,0,0,-1,1210,1212,0,0
-7,-188,0,0,0,0,0,0,0,0,0,-1,1217,1212,0,0
0,-188,0,0,0,0,0,0,0,0,0,-1,1224,1212,0,0
7,-188,0,0,0,0,0,0,0,0,0,-1,1231,1212,0,0
14,-188,0,0,0,0,0,0,0,0,0,-1,1238,1212,0,0
21,-188,0,0,0,0,0,0,0,0,0,-1,1245,1212,0,0
28,-188,0,0,0,0,0,0,0,0,0,-1,1252,1212,0,0
35,-188,0,0,0,0,0,0,0,0,0,-1,1259,1212,0,0
42,-188,0,0,0,0,0,0,0,0,0,-1,1266,1212,0,0
49,-188,0,0,0,0,0,0,0,0,0,-1,1273,1212,0,0
56,-188,0,0,0,0,0,0,0,0,0,-1,1280,1212,0,0
63,-188,0,0,0,0,0,0,0,0,0,-1,1287,1212,0,0
70,-188,0,0,0,0,0,0,0,0,0,-1,1294,1212,0,0
77,-188,0,0,0,0,0,0,0,0,0,-1,1301,1212,0,0
84,-188,0,0,0,0,0,0,0,0,0,-1,1308,1212,0,0
91,-188,0,0,0,0,0,0,0,0,0,-1,1315,1212,0,0
98,-188,0,0,0,0,0,0,0,0,0,-1,1322,1212,0,0
105,-188,0,0,0,0,0,0,0,0,0,-1,1329,1212,0,0
112,-188,0,0,0,0,0,0,0,0,0,-1,1336,1212,0,0
119,-188,0,0,0,0,0,0,0,0,0,-1,1343,1212,0,0
126,-188,0,0,0,0,0,0,0,0,0,-1,1350,1212,0,0
133,-188,0,0,0,0,0,0,0,0,0,-1,1357,1212,0,0
140,-188,0,0,0,0,0,0,0,0,0,-1,1364,1212,0,0
147,-188,0,0,0,0,0,0,0,0,0,-1,1371,1212,0,0
154,-188,0,0,0,0,0,0,0,0,0,-1,1378,1212,0,0
161,-188,0,0,0,0,0,0,0,0,0,-1,1385,1212,0,0
168,-188,0,0,0,0,0,0,0,0,0,-1,1392,1212,0,0
175,-188,0,0,0,0,0,0,0,0,0,-1,1399,1212,0,0
182,-188,0,0,0,0,0,0,0,0,0,-1,1406,1212,0,0
189,-188,0,0,0,0,0,0,0,0,0,-1,1413,1212,0,0
196,-188,0,0,0,0,0,0,0,0,0,-1,1420,1212,0,0
203,-188,0,0,0,0,0,0,0,0,0,-1,1427,1212,0,0
210,-188,0,0,0,0,0,0,0,0,0,-1,1434,1212,0,0
217,-188,0,0,0,0,0,0,0,0,0,-1,1441,1212,0,0
224,-188,0,0,0,0,0,0,0,0,0,-1,1448,1212,0,0
231,-188,0,0,0,0,0,0,0,0,0,-1,1455,1212,0,0
238,-188,0,0,0,0,0,0,0,0,0,-1,1462,1212,0,0
245,-188,0,0,0,0,0,0,0,0,0,-1,1469,1212,0,0
252,-188,0,0,0,0,0,0,0,0,0,-1,1476,1212,0,0
259,-188,0,0,0,0,0,0,0,0,0,-1,1483,1212,0,0
266,-188,0,0,0,0,0,0,0,0,0,-1,1490,1212,0,0
273,-188,0,0,0,0,0,0,0,0,0,-1,1497,1212,0,0
280,-188,0,0,0,0,0,0,0,0,0,-1,1504,1212,0,0
287,-188,0,0,0,0,0,0,0,0,0,-1,1511,1212,0,0
294,-188,0,0,0,0,0,0,0,0,0,-1,1518,1212,0,0
301,-188,0,0,0,0,0,0,0,0,0,-1,1525,1212,0,0
308,-188,0,0,0,0,0,0,0,0,0,-1,1532,1212,0,0
315,-188,0,0,0,0,0,0,0,0,0,-1,1539,1212,0,0
322,-188,0,0,0,0,0,0,0,0,0,-1,1546,1212,0,0
329,-188,0,0,0,0,0,0,0,0,0,-1,1553,1212,0,0
336,-188,0,0,0,0,0,0,0,0,0,-1,1560,1212,0,0
343,-188,0,0,0,0,0,0,0,0,0,-1,1567,1212,0,0
350,-188,0,0,0,0,0,0,0,0,0,-1,1574,1212,0,0
357,-188,0,0,0,0,0,0,0,0,0,-1,1581,1212,0,0
364,-188,0,0,0,0,0,0,0,0,0,-1,1588,1212,0,0
371,-188,0,0,0,0,0,0,0,0,0,-1,1595,1212,0,0
378,-188,0,0,0,0,0,0,0,0,0,-1,1602,1212,0,0
385,-188,0,0,0,0,0,0,0,0,0,-1,1609,1212,0,0
392,-188,0,0,0,0,0,0,0,0,0,-1,1616,1212,0,0
399,-188,0,0,0,0,0,0,0,0,0,-1,1623,1212,0,0
406,-188,0,0,0,0,0,0,0,0,0,-1,1630,1212,0,0
413,-188,0,0,0,0,0,0,0,0,0,-1,1637,1212,0,0
420,-188,0,0,0,0,0,0,0,0,0,-1,1644,1212,0,0
427,-188,0,0,0,0,0,0,0,0,0,-1,1651,1212,0,0
434,-188,0,0,0,0,0,0,0,0,0,-1,1658,1212,0,0
441,-188,0,0,0,0,0,0,0,0,0,-1,1665,1212,0,0
448,-188,0,0,0,0,0,0,0,0,0,-1,1672,1212,0,0
455,-188,0,0,0,0,0,0,0,0,0,-1,1679,1212,0,0
462,-188,0,0,0,0,0,0,0,0,0,-1,1686,1212,0,0
469,-188,0,0,0,0,0,0,0,0,0,-1,1693,1212,0,0
476,-188,0,0,0,0,0,0,0,0,0,-1,1700,1212,0,0
483,-188,0,0,0,0,0,0,0,0,0,-1,1707,1212,0,0
490,-188,0,0,0,0,0,0,0,0,0,-1,1714,1212,0,0
497,-188,0,0,0,0,0,0,0,0,0,-1,1721,1212,0,0
504,-188,0,0,0,0,0,0,0,0,0,-1,1728,1212,0,0
511,-188,0,0,0,0,0,0,0,0,0,-1,1735,1212,0,0
518,-188,0,0,0,0,0,0,0,0,0,-1,1742,1212,0,0
525,-188,0,0,0,0,0,0,0,0,0,-1,1749,1212,0,0
532,-188,0,0,0,0,0,0,0,0,0,-1,1756,1212,0,0
539,-188,0,0,0,0,0,0,0,0,0,-1,1763,1212,0,0
546,-188,0,0,0,0,0,0,0,0,0,-1,1770,1212,0,0
553,-188,0,0,0,0,0,0,0,0,0,-1,1777,1212,0,0
560,-188,0,0,0,0,0,0,0,0,0,-1,1784,1212,0,0
567,-188,0,0,0,0,0,0,0,0,0,-1,1791,1212,0,0
574,-188,0,0,0,0,0,0,0,0,0,-1,1798,1212,0,0
581,-188,0,0,0,0,0,0,0,0,0,-1,1805,1212,0,0
588,-188,0,0,0,0,0,0,0,0,0,-1,1812,1212,0,0
595,-188,0,0,0,0,0,0,0,0,0,-1,1819,1212,0,0
602,-188,0,0,0,0,0,0,0,0,0,-1,1826,1212,0,0
609,-188,0,0,0,0,0,0,0,0,0,-1,1833,1212,0,0
616,-188,0,0,0,0,0,0,0,0,0,-1,1840,1212,0,0
623,-188,0,0,0,0,0,0,0,0,0,-1,1847,1212,0,0
630,-188,0.00854492,0.0377197,-0.00338228,0.00155274,-0.000380695,0.00158194,-0.00341148,-1.49426,0.00294674,0.0352664,1854,1212,0.0085966,-0.0376861
637,-188,0.0256348,0.0394287,-0.000927121,0.000694314,-0.000461331,0.000816382,-0.00104919,-1.31212,0.00107988,0.0361501,1861,1212,0.0256593,-0.0394393
644,-188,-0.00170898,0.0367432,-0.000152682,-0.000137825,-9.12048e-05,-5.37466e-05,-0.00023676,-0.826033,0.000143324,0.0316047,1868,1212,-0.0016662,-0.0367882
651,-188,-0.0184326,-0.0306396,-0.000247536,-0.000762967,0.000189624,-0.000185292,-0.000825212,0.317171,0.000499957,0.0257792,1875,1212,-0.0184031,0.0306647
658,-188,0.0020752,-0.0760498,-0.000608163,-0.00109584,0.000310673,-0.000457064,-0.00124693,0.452677,0.000728415,0.0274202,1882,1212,0.00210872,0.0760001
665,-188,-0.0552979,-0.0766602,-0.00109732,-0.00123995,0.000344695,-0.000816636,-0.00152063,0.683392,0.000878737,0.0242496,1889,1212,-0.0553536,0.0766236
672,-188,-0.0556641,-0.0509033,-0.00158069,-0.00124072,0.00033793,-0.00103243,-0.00178898,1.01842,0.00103695,0.0182559,1896,1212,-0.0556146,0.0508574
679,-188,-0.0731201,-0.00720215,-0.00196449,-0.00113057,0.000291116,-0.001039,-0.00205606,1.26604,0.00118709,0.0385256,1903,1212,-0.0731493,0.00720924
686,-188,-0.0638428,0.11145,-0.00226198,-0.000962825,0.000218314,-0.00092712,-0.00229769,1.40868,0.00133478,0.0431534,1910,1212,-0.0638598,-0.111395
693,-188,-0.107056,0.192505,-0.00235224,-0.000767232,0.000119494,-0.000758274,-0.0023612,1.49597,0.00139201,0.0424655,1917,1212,-0.107045,-0.192479
700,-188,-0.0979004,0.00561523,-0.00226048,-0.000554947,-2.27541e-05,-0.000554643,-0.00226078,-1.55746,0.00136053,0.0292797,1924,1212,-0.0979178,-0.00565503
707,-188,-0.0839844,-0.0461426,-0.00210361,-0.000343453,-0.000179512,-0.000325332,-0.00212173,-1.47019,0.00131948,0.0105732,1931,1212,-0.0839437,0.0461896
714,-188,-0.0686035,-0.052002,-0.00197684,-0.000104176,-0.000276511,-6.42003e-05,-0.00201681,-1.42722,0.00132366,0.00838026,1938,1212,-0.0685818,0.0519908
721,-188,-0.0672607,-0.0397949,-0.00177598,0.000136126,-0.0004108,0.000220647,-0.0018605,-1.36788,0.00132004,0.00957826,1945,1212,-0.067216,0.0397848
728,-188,-0.0720215,-0.0490723,-0.00147101,0.000302777,-0.000497477,0.000432772,-0.00160101,-1.3152,0.00123709,0.00938747,1952,1212,-0.0720315,0.0490317
735,-188,-0.0780029,-0.0511475,-0.000872916,0.000661653,-0.000247246,0.000700505,-0.000911768,-1.41493,0.000933506,0.012515,1959,1212,-0.077959,0.0511506
742,-188,-0.0733643,-0.0528564,0.000124278,0.00086882,-0.000132087,0.000891559,0.000101539,-1.40032,0.000563583,0.0136317,1966,1212,-0.0733394,0.0529114
749,-188,-0.0620117,-0.0505371,0.000869131,0.000894715,0.000237853,0.00112012,0.000643726,0.812262,0.000649102,0.0132487,1973,1212,-0.061962,0.0505346
756,-188,-0.0551758,-0.0540771,0.001693,0.000910057,0.000722096,0.00212291,0.000480143,0.537008,0.00128547,0.0124472,1980,1212,-0.0551867,0.0541324
763,-188,-0.0628662,-0.0623779,0.00272207,0.001087,0.0013458,0.00347919,0.000329881,0.51245,0.00221769,0.0127125,1987,1212,-0.062843,0.0623304
770,-188,-0.0803223,-0.0898438,0.00424802,0.00124374,0.00210086,0.00532852,0.000163247,0.475033,0.0034992,0.0184665,1994,1212,-0.0802775,0.0898264
777,-188,0.0579834,-0.246094,0.00645916,0.00128915,0.00305495,0.00787602,-0.000127713,0.434265,0.00529377,0.037644,2001,1212,0.0579859,0.246091
784,-188,0.277588,-0.335205,0.00958163,0.00111917,0.00420973,0.0113191,-0.000618286,0.391426,0.00776036,0.0443453,2008,1212,0.277591,0.335239
791,-188,0.629883,-0.548828,0,0,0,0,0,0,0,-1,2015,1212,0.629902,0.548781
798,-188,0.96814,-0.716064,0,0,0,0,0,0,0,-1,2022,1212,0.968082,0.716094
805,-188,0,0,0,0,0,0,0,0,0,-1,2029,1212,0,0
812,-188,0,0,0,0,0,0,0,0,0,-1,2036,1212,0,0
-700,-195,0,0,0,0,0,0,0,0,0,-1,524,1219,0,0
-693,-195,0,0,0,0,0,0,0,0,0,-1,531,1219,0,0
-686,-195,0,0,0,0,0,0,0,0,0,-1,538,1219,0,0
-679,-195,0.257446,0.34436,0.00475237,0.0403949,-0.00572251,0.0412911,0.00385614,-1.41544,0.0263363,0.0402061,545,1219,0.257427,-0.3444
-672,-195,0.417908,0.199829,0.00094315,0.0317164,-0.00233746,0.0318929,0.000766616,-1.49542,0.0210111,0.0448652,552,1219,0.417929,-0.199868
-665,-195,1.00897,-0.395508,-0.000891929,0.0249858,-0.000551316,0.0249975,-0.00090367,-1.5495,0.0169743,0.0479702,559,1219,1.00899,0.395458
-658,-195,0.0870361,0.436401,-0.00154015,0.0196251,0.000331463,0.0196303,-0.00154534,1.55514,0.0136312,0.0413755,566,1219,0.0870332,-0.436376
-651,-195,-0.14679,0.495728,-0.0015412,0.0152745,0.000686905,0.0153025,-0.00156922,1.53004,0.0107629,0.0427088,573,1219,-0.146815,-0.495676
-644,-195,-0.146667,0.0201416,-0.00123084,0.0117065,0.000745106,0.0117493,-0.00127361,1.51346,0.00829007,0.0402193,580,1219,-0.146647,-0.0201063
-637,-195,-0.110535,-0.0367432,-0.000826225,0.00878642,0.000647291,0.00882982,-0.000869616,1.50386,0.00619679,0.0212414,587,1219,-0.110529,0.036685
-630,-195,-0.0793457,-0.0562744,-0.000462588,0.00626354,0.000537327,0.00630619,-0.000505243,1.49158,0.00438226,0.00767254,594,1219,-0.0793744,0.0563222
-623,-195,-0.0958862,-0.055542,-0.000710232,0.0040177,0.000661064,0.00410839,-0.000800923,1.43446,0.00304126,0.00773475,601,1219,-0.0959036,0.0555665
-616,-195,-0.085083,-0.0401611,-0.000443239,0.00246009,0.000460527,0.00253139,-0.000514537,1.4172,0.00188269,0.00922784,608,1219,-0.085076,0.0401705
-609,-195,-0.0831909,-0.0541992,0.000709205,0.00220199,-0.000229846,0.00223658,0.000674617,-1.42143,0.00132473,0.0159438,615,1219,-0.0832122,0.0541942
-602,-195,-0.0899048,-0.0546875,0.00123113,0.00262592,-0.000821312,0.00300598,0.000851065,-1.13739,0.0017891,0.0202233,622,1219,-0.0898769,0.054643
-595,-195,-0.105713,-0.0289307,0.000714956,0.00218782,-0.000372536,0.00227669,0.000626091,-1.33663,0.00135808,0.0156122,629,1219,-0.105685,0.0288837
-588,-195,-0.0955811,-0.050415,0.000163346,0.00259008,3.87137e-05,0.0025907,0.000162729,1.55485,0.00167552,0.00759199,636,1219,-0.0955955,0.0504578
-581,-195,-0.0691528,-0.0495605,2.33291e-05,0.00296573,1.90967e-05,0.00296585,2.32052e-05,1.56431,0.00196955,0.007395,643,1219,-0.0691517,0.0496059
-574,-195,-0.0695801,-0.0783691,3.18089e-05,0.00309377,0.000184802,0.00310488,2.06955e-05,1.51073,0.00206306,0.0180348,650,1219,-0.0695628,0.0784081
-567,-195,-0.0626831,-0.165283,5.58606e-05,0.00314545,0.000359541,0.00318674,1.45718e-05,1.45646,0.00211965,0.0342448,657,1219,-0.062693,0.165342
-560,-195,0.224976,-0.391357,-3.0842e-05,0.00307653,0.00049009,0.00315199,-0.000106306,1.41802,0.00213764,0.0431858,664,1219,0.224991,0.391297
-553,-195,0.345764,-0.305298,-8.09067e-05,0.00267438,0.000631309,0.00281214,-0.000218668,1.35595,0.00195174,0.0447011,671,1219,0.345776,0.305253
-546,-195,0.121643,-0.270752,-7.20783e-05,0.00197515,0.000710926,0.00219781,-0.000294739,1.26728,0.00157269,0.0406517,678,1219,0.121673,0.2708
-539,-195,-0.0125122,-0.124634,0,0,0,0,0,0,0,-1,685,1219,-0.0124879,0.12462
-532,-195,-0.0575562,-0.13501,0.00027156,-0.000290921,0.000375536,0.000459493,-0.000478854,0.463998,0.000541793,0.0334467,692,1219,-0.0575594,0.135016
-525,-195,0.0168457,-0.132446,0.000671791,-0.00169444,-0.000248049,0.000697514,-0.00172016,-0.103332,0.00143686,0.0381675,699,1219,0.0168404,0.132394
-518,-195,0.0603638,0.0211182,0.00125994,-0.0031066,-0.00133916,0.00163792,-0.00348458,-0.275098,0.00302086,0.0401134,706,1219,0.0603728,-0.0211616
-511,-195,0.0516357,0.0899658,0.00236603,-0.00427018,-0.00300399,0.00352383,-0.00542799,-0.367877,0.00520717,0.0393561,713,1219,0.0516472,-0.089986
-504,-195,0,0,0,0,0,0,0,0,0,-1,720,1219,0,0
-497,-195,0,0,0,0,0,0,0,0,0,-1,727,1219,0,0
-490,-195,0,0,0,0,0,0,0,0,0,-1,734,1219,0,0
-483,-195,0,0,0,0,0,0,0,0,0,-1,741,1219,0,0
-476,-195,0,0,0,0,0,0,0,0,0,-1,748,1219,0,0
-469,-195,0,0,0,0,0,0,0,0,0,-1,755,1219,0,0
-462,-195,0,0,0,0,0,0,0,0,0,-1,762,1219,0,0
-455,-195,0,0,0,0,0,0,0,0,0,-1,769,1219,0,0
-448,-195,0,0,0,0,0,0,0,0,0,-1,776,1219,0,0
-441,-195,0,0,0,0,0,0,0,0,0,-1,783,1219,0,0
-434,-195,0,0,0,0,0,0,0,0,0,-1,790,1219,0,0
-427,-195,0,0,0,0,0,0,0,0,0,-1,797,1219,0,0
-420,-195,0,0,0,0,0,0,0,0,0,-1,804,1219,0,0
-413,-195,0,0,0,0,0,0,0,0,0,-1,811,1219,0,0
-406,-195,0,0,0,0,0,0,0,0,0,-1,818,1219,0,0
-399,-195,0,0,0,0,0,0,0,0,0,-1,825,1219,0,0
-392,-195,0,0,0,0,0,0,0,0,0,-1,832,1219,0,0
-385,-195,0,0,0,0,0,0,0,0,0,-1,839,1219,0,0
-378,-195,0,0,0,0,0,0,0,0,0,-1,846,1219,0,0
-371,-195,0,0,0,0,0,0,0,0,0,-1,853,1219,0,0
-364,-195,0,0,0,0,0,0,0,0,0,-1,860,1219,0,0
-357,-195,0,0,0,0,0,0,0,0,0,-1,867,1219,0,0
-350,-195,0,0,0,0,0,0,0,0,0,-1,874,1219,0,0
-343,-195,0,0,0,0,0,0,0,0,0,-1,881,1219,0,0
-336,-195,0,0,0,0,0,0,0,0,0,-1,888,1219,0,0
-329,-195,0,0,0,0,0,0,0,0,0,-1,895,1219,0,0
-322,-195,0,0,0,0,0,0,0,0,0,-1,902,1219,0,0
-315,-195,0,0,0,0,0,0,0,0,0,-1,909,1219,0,0
-308,-195,0,0,0,0,0,0,0,0,0,-1,916,1219,0,0
-301,-195,0,0,0,0,0,0,0,0,0,-1,923,1219,0,0
-294,-195,0,0,0,0,0,0,0,0,0,-1,930,1219,0,0
-287,-195,0,0,0,0,0,0,0,0,0,-1,937,1219,0,0
-280,-195,0,0,0,0,0,0,0,0,0,-1,944,1219,0,0
-273,-195,0,0,0,0,0,0,0,0,0,-1,951,1219,0,0
-266,-195,0,0,0,0,0,0,0,0,0,-1,958,1219,0,0
-259,-195,0,0,0,0,0,0,0,0,0,-1,965,1219,0,0
-252,-195,0,0,0,0,0,0,0,0,0,-1,972,1219,0,0
-245,-195,0,0,0,0,0,0,0,0,0,-1,979,1219,0,0
-238,-195,0,0,0,0,0,0,0,0,0,-1,986,1219,0,0
-231,-195,0,0,0,0,0,0,0,0,0,-1,993,1219,0,0
-224,-195,0,0,0,0,0,0,0,0,0,-1,1000,1219,0,0
-217,-195,0,0,0,0,0,0,0,0,0,-1,1007,1219,0,0
-210,-195,0,0,0,0,0,0,0,0,0,-1,1014,1219,0,0
-203,-195,0,0,0,0,0,0,0,0,0,-1,1021,1219,0,0
-196,-195,0,0,0,0,0,0,0,0,0,-1,1028,1219,0,0
-189,-195,0,0,0,0,0,0,0,0,0,-1,1035,1219,0,0
-182,-195,0,0,0,0,0,0,0,0,0,-1,1042,1219,0,0
-175,-195,0,0,0,0,0,0,0,0,0,-1,1049,1219,0,0
-168,-195,0,0,0,0,0,0,0,0,0,-1,1056,1219,0,0
-161,-195,0,0,0,0,0,0,0,0,0,-1,1063,1219,0,0
-154,-195,0,0,0,0,0,0,0,0,0,-1,1070,1219,0,0
-147,-195,0,0,0,0,0,0,0,0,0,-1,1077,1219,0,0
-140,-195,0,0,0,0,0,0,0,0,0,-1,1084,1219,0,0
-133,-195,0,0,0,0,0,0,0,0,0,-1,1091,1219,0,0
-126,-195,0,0,0,0,0,0,0,0,0,-1,1098,1219,0,0
-119,-195,0,0,0,0,0,0,0,0,0,-1,1105,1219,0,0
-112,-195,0,0,0,0,0,0,0,0,0,-1,1112,1219,0,0
-105,-195,0,0,0,0,0,0,0,0,0,-1,1119,1219,0,0
-98,-195,0,0,0,0,0,0,0,0,0,-1,1126,1219,0,0
-91,-195,0,0,0,0,0,0,0,0,0,-1,1133,1219,0,0
-84,-195,0,0,0,0,0,0,0,0,0,-1,1140,1219,0,0
-77,-195,0,0,0,0,0,0,0,0,0,-1,1147,1219,0,0
-70,-195,0,0,0,0,0,0,0,0,0,-1,1154,1219,0,0
-63,-195,0,0,0,0,0,0,0,0,0,-1,1161,1219,0,0
-56,-195,0,0,0,0,0,0,0,0,0,-1,1168,1219,0,0
-49,-195,0,0,0,0,0,0,0,0,0,-1,1175,1219,0,0
-42,-195,0,0,0,0,0,0,0,0,0,-1,1182,1219,0,0
-35,-195,0,0,0,0,0,0,0,0,0,-1,1189,1219,0,0
-28,-195,0,0,0,0,0,0,0,0,0,-1,1196,1219,0,0
-21,-195,0,0,0,0,0,0,0,0,0,-1,1203,1219,0,0
-14,-195,0,0,0,0,0,0,0,0,0,-1,1210,1219,0,0
-7,-195,0,0,0,0,0,0,0,0,0,-1,1217,1219,0,0
0,-195,0,0,0,0,0,0,0,0,0,-1,1224,1219,0,0
7,-195,0,0,0,0,0,0,0,0,0,-1,1231,1219,0,0
14,-195,0,0,0,0,0,0,0,0,0,-1,1238,1219,0,0
21,-195,0,0,0,0,0,0,0,0,0,-1,1245,1219,0,0
28,-195,0,0,0,0,0,0,0,0,0,-1,1252,1219,0,0
35,-195,0,0,0,0,0,0,0,0,0,-1,1259,1219,0,0
42,-195,0,0,0,0,0,0,0,0,0,-1,1266,1219,0,0
49,-195,0,0,0,0,0,0,0,0,0,-1,1273,1219,0,0
56,-195,0,0,0,0,0,0,0,0,0,-1,1280,1219,0,0
63,-195,0,0,0,0,0,0,0,0,0,-1,1287,1219,0,0
70,-195,0,0,0,0,0,0,0,0,0,-1,1294,1219,0,0
77,-195,0,0,0,0,0,0,0,0,0,-1,1301,1219,0,0
84,-195,0,0,0,0,0,0,0,0,0,-1,1308,1219,0,0
91,-195,0,0,0,0,0,0,0,0,0,-1,1315,1219,0,0
98,-195,0,0,0,0,0,0,0,0,0,-1,1322,1219,0,0
105,-195,0,0,0,0,0,0,0,0,0,-1,1329,1219,0,0
112,-195,0,0,0,0,0,0,0,0,0,-1,1336,1219,0,0
119,-195,0,0,0,0,0,0,0,0,0,-1,1343,1219,0,0
126,-195,0,0,0,0,0,0,0,0,0,-1,1350,1219,0,0
133,-195,0,0,0,0,0,0,0,0,0,-1,1357,1219,0,0
140,-195,0,0,0,0,0,0,0,0,0,-1,1364,1219,0,0
147,-195,0,0,0,0,0,0,0,0,0,-1,1371,1219,0,0
154,-195,0,0,0,0,0,0,0,0,0,-1,1378,1219,0,0
161,-195,0,0,0,0,0,0,0,0,0,-1,1385,1219,0,0
168,-195,0,0,0,0,0,0,0,0,0,-1,1392,1219,0,0
175,-195,0,0,0,0,0,0,0,0,0,-1,1399,1219,0,0
182,-195,0,0,0,0,0,0,0,0,0,-1,1406,1219,0,0
189,-195,0,0,0,0,0,0,0,0,0,-1,1413,1219,0,0
196,-195,0,0,0,0,0,0,0,0,0,-1,1420,1219,0,0
203,-195,0,0,0,0,0,0,0,0,0,-1,1427,1219,0,0
210,-195,0,0,0,0,0,0,0,0,0,-1,1434,1219,0,0
217,-195,0,0,0,0,0,0,0,0,0,-1,1441,1219,0,0
224,-195,0,0,0,0,0,0,0,0,0,-1,1448,1219,0,0
231,-195,0,0,0,0,0,0,0,0,0,-1,1455,1219,0,0
238,-195,0,0,0,0,0,0,0,0,0,-1,1462,1219,0,0
245,-195,0,0,0,0,0,0,0,0,0,-1,1469,1219,0,0
252,-195,0,0,0,0,0,0,0,0,0,-1,1476,1219,0,0
259,-195,0,0,0,0,0,0,0,0,0,-1,1483,1219,0,0
266,-195,0,0,0,0,0,0,0,0,0,-1,1490,1219,0,0
273,-195,0,0,0,0,0,0,0,0,0,-1,1497,1219,0,0
280,-195,0,0,0,0,0,0,0,0,0,-1,1504,1219,0,0
287,-195,0,0,0,0,0,0,0,0,0,-1,1511,1219,0,0
294,-195,0,0,0,0,0,0,0,0,0,-1,1518,1219,0,0
301,-195,0,0,0,0,0,0,0,0,0,-1,1525,1219,0,0
308,-195,0,0,0,0,0,0,0,0,0,-1,1532,1219,0,0
315,-195,0,0,0,0,0,0,0,0,0,-1,1539,1219,0,0
322,-195,0,0,0,0,0,0,0,0,0,-1,1546,1219,0,0
329,-195,0,0,0,0,0,0,0,0,0,-1,1553,1219,0,0
336,-195,0,0,0,0,0,0,0,0,0,-1,1560,1219,0,0
343,-195,0,0,0,0,0,0,0,0,0,-1,1567,1219,0,0
350,-195,0,0,0,0,0,0,0,0,0,-1,1574,1219,0,0
357,-195,0,0,0,0,0,0,0,0,0,-1,1581,1219,0,0
364,-195,0,0,0,0,0,0,0,0,0,-1,1588,1219,0,0
371,-195,0,0,0,0,0,0,0,0,0,-1,1595,1219,0,0
378,-195,0,0,0,0,0,0,0,0,0,-1,1602,1219,0,0
385,-195,0,0,0,0,0,0,0,0,0,-1,1609,1219,0,0
392,-195,0,0,0,0,0,0,0,0,0,-1,1616,1219,0,0
399,-195,0,0,0,0,0,0,0,0,0,-1,1623,1219,0,0
406,-195,0,0,0,0,0,0,0,0,0,-1,1630,1219,0,0
413,-195,0,0,0,0,0,0,0,0,0,-1,1637,1219,0,0
420,-195,0,0,0,0,0,0,0,0,0,-1,1644,1219,0,0
427,-195,0,0,0,0,0,0,0,0,0,-1,1651,1219,0,0
434,-195,0,0,0,0,0,0,0,0,0,-1,1658,1219,0,0
441,-195,0,0,0,0,0,0,0,0,0,-1,1665,1219,0,0
448,-195,0,0,0,0,0,0,0,0,0,-1,1672,1219,0,0
455,-195,0,0,0,0,0,0,0,0,0,-1,1679,1219,0,0
462,-195,0,0,0,0,0,0,0,0,0,-1,1686,1219,0,0
469,-195,0,0,0,0,0,0,0,0,0,-1,1693,1219,0,0
476,-195,0,0,0,0,0,0,0,0,0,-1,1700,1219,0,0
483,-195,0,0,0,0,0,0,0,0,0,-1,1707,1219,0,0
490,-195,0,0,0,0,0,0,0,0,0,-1,1714,1219,0,0
497,-195,0,0,0,0,0,0,0,0,0,-1,1721,1219,0,0
504,-195,0,0,0,0,0,0,0,0,0,-1,1728,1219,0,0
511,-195,0,0,0,0,0,0,0,0,0,-1,1735,1219,0,0
518,-195,0,0,0,0,0,0,0,0,0,-1,1742,1219,0,0
525,-195,0,0,0,0,0,0,0,0,0,-1,1749,1219,0,0
532,-195,0,0,0,0,0,0,0,0,0,-1,1756,1219,0,0
539,-195,0,0,0,0,0,0,0,0,0,-1,1763,1219,0,0
546,-195,0,0,0,0,0,0,0,0,0,-1,1770,1219,0,0
553,-195,0,0,0,0,0,0,0,0,0,-1,1777,1219,0,0
560,-195,0,0,0,0,0,0,0,0,0,-1,1784,1219,0,0
567,-195,0,0,0,0,0,0,0,0,0,-1,1791,1219,0,0
574,-195,0,0,0,0,0,0,0,0,0,-1,1798,1219,0,0
581,-195,0,0,0,0,0,0,0,0,0,-1,1805,1219,0,0
588,-195,0,0,0,0,0,0,0,0,0,-1,1812,1219,0,0
595,-195,0,0,0,0,0,0,0,0,0,-1,1819,1219,0,0
602,-195,0,0,0,0,0,0,0,0,0,-1,1826,1219,0,0
609,-195,0,0,0,0,0,0,0,0,0,-1,1833,1219,0,0
616,-195,0,0,0,0,0,0,0,0,0,-1,1840,1219,0,0
623,-195,0,0,0,0,0,0,0,0,0,-1,1847,1219,0,0
630,-195,0.0197754,-0.00524902,-0.00290942,0.00185897,-0.000385108,0.00188987,-0.00294032,-1.49073,0.00281061,0.0354851,1854,1219,0.0198358,0.00530539
637,-195,0.032959,0.0362549,-0.000547081,0.000517053,-0.000136844,0.000534369,-0.000564397,-1.44493,0.000634452,0.0351607,1861,1219,0.032959,-0.0363078
644,-195,-0.0142822,0.0512695,9.19603e-05,-0.000609648,0.00038773,0.000264031,-0.000781719,0.417678,0.00062794,0.0304708,1868,1219,-0.0143209,-0.0512838
651,-195,-0.0678711,-0.0142822,-0.000120979,-0.00138778,0.000713389,0.000199623,-0.00170838,0.42236,0.00121096,0.0228643,1875,1219,-0.0679163,0.0143108
658,-195,-0.0828857,-0.0362549,-0.000600882,-0.00180131,0.000839298,-0.000169263,-0.00223293,0.474991,0.00143553,0.0215386,1882,1219,-0.0829068,0.0362998
665,-195,-0.090332,-0.00866699,-0.00120197,-0.00195789,0.000851115,-0.000648664,-0.00251119,0.576439,0.00150524,0.0190374,1889,1219,-0.090379,0.00868225
672,-195,-0.0422363,-0.0106201,-0.00178228,-0.00193813,0.000805674,-0.00105077,-0.00266964,0.737187,0.00155291,0.0276693,1896,1219,-0.0422771,0.0105659
679,-195,-0.123901,-0.0787354,-0.00224055,-0.00177479,0.000715385,-0.00125534,-0.00276001,0.942755,0.00159566,0.0459796,1903,1219,-0.123853,0.0787542
686,-195,1.49353,-0.0476074,0,0,0,0,0,0,0,-1,1910,1219,1.49358,0.047564
693,-195,-0.0461426,-0.0407715,-0.00272753,-0.00124454,0.000452023,-0.00111762,-0.00285445,1.29707,0.00166089,0.0418781,1917,1219,-0.0461647,0.0407657
700,-195,-0.131226,-0.0473633,-0.00265321,-0.000932458,0.000258751,-0.000894391,-0.00269128,1.42473,0.00158266,0.0198641,1924,1219,-0.131284,0.0473586
707,-195,-0.0943604,-0.0551758,-0.0024727,-0.000611867,4.42367e-05,-0.000610816,-0.00247375,1.54704,0.00148796,0.00973168,1931,1219,-0.0943326,0.055201
714,-195,-0.069458,-0.0559082,-0.00231662,-0.000248739,-0.000146714,-0.000238382,-0.00232697,-1.50032,0.00147828,0.0115752,1938,1219,-0.0694339,0.0559545
721,-195,-0.0722656,-0.050415,-0.00209831,6.92117e-05,-0.000327024,0.000117477,-0.00214657,-1.42427,0.00147177,0.0106571,1945,1219,-0.0722226,0.0503608
728,-195,-0.0838623,-0.0355225,-0.00174623,0.000215679,-0.000465083,0.000320345,-0.0018509,-1.34943,0.00135341,0.0103257,1952,1219,-0.0838198,0.03549
735,-195,-0.088501,-0.0523682,-0.0011289,0.00066103,-0.000267966,0.000700286,-0.00116815,-1.42534,0.00108996,0.0124107,1959,1219,-0.0884586,0.0523546
742,-195,-0.0859375,-0.0673828,-0.000107261,0.000894324,-0.000241709,0.000949604,-0.000162541,-1.34596,0.000693627,0.0127856,1966,1219,-0.0859091,0.0673303
749,-195,-0.0631104,-0.0671387,0.000530356,0.000997833,3.55746e-05,0.00100052,0.000527664,1.49528,0.000577942,0.0131042,1973,1219,-0.0630691,0.0671253
756,-195,-0.055542,-0.0513916,0.00111179,0.00111266,0.000408048,0.00152028,0.000704179,0.78593,0.000878524,0.0125931,1980,1219,-0.0555805,0.0513585
763,-195,-0.0628662,-0.0518799,0.00185572,0.00140718,0.000928377,0.00258653,0.000676372,0.666883,0.00154893,0.0129994,1987,1219,-0.0628431,0.0519318
770,-195,-0.0710449,-0.0753174,0.00301493,0.00172835,0.00160972,0.00410513,0.000638144,0.595305,0.00255079,0.0233756,1994,1219,-0.0710501,0.0753691
777,-195,-0.0789795,-0.137451,0.00476014,0.00200067,0.00253235,0.00626423,0.000496578,0.53596,0.00402086,0.0414173,2001,1219,-0.0789206,0.137477
784,-195,-0.0639648,0.069458,0.00731337,0.00212809,0.0037205,0.00925547,0.000185979,0.481093,0.00610927,0.0417561,2008,1219,-0.0639422,-0.0694715
791,-195,-0.209961,0.413818,0,0,0,0,0,0,0,-1,2015,1219,-0.209993,-0.413864
798,-195,0.559326,-0.642456,0,0,0,0,0,0,0,-1,2022,1219,0.559297,0.642449
805,-195,0,0,0,0,0,0,0,0,0,-1,2029,1219,0,0
812,-195,0,0,0,0,0,0,0,0,0,-1,2036,1219,0,0
-700,-202,0,0,0,0,0,0,0,0,0,-1,524,1226,0,0
-693,-202,0,0,0,0,0,0,0,0,0,-1,531,1226,0,0
-686,-202,0,0,0,0,0,0,0,0,0,-1,538,1226,0,0
-679,-202,-0.0200806,-0.162476,0.00738094,0.034091,-0.00527255,0.0350942,0.00637782,-1.38279,0.0215865,0.0445689,545,1226,-0.0201014,0.162525
-672,-202,0.396729,-0.44458,0.00361294,0.0263418,-0.00222544,0.0265577,0.0033971,-1.47411,0.0166884,0.042642,552,1226,0.396751,0.444526
-665,-202,0.910583,-0.714111,0.00179206,0.0205352,-0.000644253,0.0205573,0.00176995,-1.53648,0.0131546,0.0453128,559,1226,0.910561,0.714141
-658,-202,0.259216,0.261353,0.00105663,0.0160299,0.000127698,0.016031,0.00105554,1.56227,0.0103534,0.0431754,566,1226,0.25923,-0.261345
-651,-202,0.0157471,0.155884,0.000878875,0.0124347,0.000444112,0.0124517,0.000861832,1.53244,0.00802931,0.0436171,573,1226,0.0157225,-0.155898
-644,-202,-0.162781,-0.0787354,0.000944208,0.00951532,0.00050994,0.00954555,0.000913976,1.51158,0.00608198,0.0399447,580,1226,-0.162809,0.0787244
-637,-202,-0.0499268,-0.064209,0.00106272,0.00713747,0.00044466,0.00716985,0.00103035,1.49811,0.00447615,0.0302455,587,1226,-0.0499337,0.0642485
-630,-202,-0.0548096,-0.0599365,0.00110626,0.00510618,0.000352911,0.00513708,0.00107537,1.48347,0.00312849,0.0128519,594,1226,-0.0547838,0.0598922
-623,-202,-0.0783691,-0.0594482,0.000544745,0.00314178,0.000541875,0.00325031,0.000436218,1.37313,0.0020371,0.00779949,601,1226,-0.0783994,0.0594362
-616,-202,-0.0740356,-0.0650635,0.000605453,0.00191627,0.00035697,0.00200718,0.000514546,1.32143,0.00120383,0.00800073,608,1226,-0.0740157,0.0651091
-609,-202,-0.0591431,-0.0620117,0.00147981,0.00193509,-0.000324717,0.00210401,0.00131089,-1.09111,0.00122695,0.0187323,615,1226,-0.0591312,0.0620685
-602,-202,-0.0878906,-0.0566406,0.00173717,0.00245037,-0.000850788,0.00301627,0.00117127,-0.983846,0.00175586,0.0191541,622,1226,-0.0878769,0.0565927
-595,-202,-0.111877,-0.0065918,0.00101384,0.00203292,-0.000328126,0.00212943,0.000917332,-1.28473,0.00123335,0.0156388,629,1226,-0.111904,0.00657782
-588,-202,-0.0814819,-0.0444336,0.000297709,0.00239756,0.000171058,0.00241141,0.000283866,1.49004,0.00152183,0.00769625,636,1226,-0.0814957,0.044395
-581,-202,-0.0759888,-0.0550537,0.000112049,0.00283258,0.000103944,0.00283655,0.000108083,1.53266,0.00185605,0.00843176,643,1226,-0.0759675,0.0550053
-574,-202,-0.0771484,-0.0682373,0.000230035,0.00287033,0.000199309,0.00288529,0.000215075,1.49587,0.001856,0.0112691,650,1226,-0.0771354,0.0682659
-567,-202,-0.0782471,-0.169922,0,0,0,0,0,0,0,-1,657,1226,-0.078267,0.169896
-560,-202,0.217834,-0.914185,0.000512627,0.00277693,0.000355884,0.00283155,0.000458009,1.41851,0.00175506,0.0398043,664,1226,0.217857,0.914181
-553,-202,0.809143,-1.05151,0.000667859,0.00230638,0.000407666,0.0024022,0.000572035,1.33993,0.00144893,0.0439718,671,1226,0.80913,1.05148
-546,-202,0.396545,-0.650024,0.000915512,0.00157914,0.000370978,0.00174504,0.000749606,1.15026,0.00101083,0.044816,678,1226,0.39654,0.650035
-539,-202,0.206421,-0.43335,0,0,0,0,0,0,0,-1,685,1226,0.206417,0.433384
-532,-202,-0.0725098,-0.102295,0.00174046,-0.000661236,-0.000172069,0.00175273,-0.000673501,-0.0711604,0.00144624,0.0248516,692,1226,-0.0725308,0.102305
-525,-202,-0.00524902,-0.214355,0.00225798,-0.00201382,-0.000810193,0.00240648,-0.00216232,-0.181277,0.00263905,0.032381,699,1226,-0.00523068,0.214365
-518,-202,0.114075,-0.143677,0.00272351,-0.00337088,-0.00176396,0.00319725,-0.00384462,-0.262373,0.00407135,0.0378241,706,1226,0.114049,0.143638
-511,-202,0.0385132,-0.064209,0.00319907,-0.00452431,-0.00302679,0.00424392,-0.00556916,-0.332392,0.00568278,0.0382537,713,1226,0.0385022,0.064247
-504,-202,0,0,0,0,0,0,0,0,0,-1,720,1226,0,0
-497,-202,0,0,0,0,0,0,0,0,0,-1,727,1226,0,0
-490,-202,0,0,0,0,0,0,0,0,0,-1,734,1226,0,0
-483,-202,0,0,0,0,0,0,0,0,0,-1,741,1226,0,0
-476,-202,0,0,0,0,0,0,0,0,0,-1,748,1226,0,0
-469,-202,0,0,0,0,0,0,0,0,0,-1,755,1226,0,0
-462,-202,0,0,0,0,0,0,0,0,0,-1,762,1226,0,0
-455,-202,0,0,0,0,0,0,0,0,0,-1,769,1226,0,0
-448,-202,0,0,0,0,0,0,0,0,0,-1,776,1226,0,0
-441,-202,0,0,0,0,0,0,0,0,0,-1,783,1226,0,0
-434,-202,0,0,0,0,0,0,0,0,0,-1,790,1226,0,0
-427,-202,0,0,0,0,0,0,0,0,0,-1,797,1226,0,0
-420,-202,0,0,0,0,0,0,0,0,0,-1,804,1226,0,0
-413,-202,0,0,0,0,0,0,0,0,0,-1,811,1226,0,0
-406,-202,0,0,0,0,0,0,0,0,0,-1,818,1226,0,0
-399,-202,0,0,0,0,0,0,0,0,0,-1,825,1226,0,0
-392,-202,0,0,0,0,0,0,0,0,0,-1,832,1226,0,0
-385,-202,0,0,0,0,0,0,0,0,0,-1,839,1226,0,0
-378,-202,0,0,0,0,0,0,0,0,0,-1,846,1226,0,0
-371,-202,0,0,0,0,0,0,0,0,0,-1,853,1226,0,0
-364,-202,0,0,0,0,0,0,0,0,0,-1,860,1226,0,0
-357,-202,0,0,0,0,0,0,0,0,0,-1,867,1226,0,0
-350,-202,0,0,0,0,0,0,0,0,0,-1,874,1226,0,0
-343,-202,0,0,0,0,0,0,0,0,0,-1,881,1226,0,0
-336,-202,0,0,0,0,0,0,0,0,0,-1,888,1226,0,0
-329,-202,0,0,0,0,0,0,0,0,0,-1,895,1226,0,0
-322,-202,0,0,0,0,0,0,0,0,0,-1,902,1226,0,0
-315,-202,0,0,0,0,0,0,0,0,0,-1,909,1226,0,0
-308,-202,0,0,0,0,0,0,0,0,0,-1,916,1226,0,0
-301,-202,0,0,0,0,0,0,0,0,0,-1,923,1226,0,0
-294,-202,0,0,0,0,0,0,0,0,0,-1,930,1226,0,0
-287,-202,0,0,0,0,0,0,0,0,0,-1,937,1226,0,0
-280,-202,0,0,0,0,0,0,0,0,0,-1,944,1226,0,0
-273,-202,0,0,0,0,0,0,0,0,0,-1,951,1226,0,0
-266,-202,0,0,0,0,0,0,0,0,0,-1,958,1226,0,0
-259,-202,0,0,0,0,0,0,0,0,0,-1,965,1226,0,0
-252,-202,0,0,0,0,0,0,0,0,0,-1,972,1226,0,0
-245,-202,0,0,0,0,0,0,0,0,0,-1,979,1226,0,0
-238,-202,0,0,0,0,0,0,0,0,0,-1,986,1226,0,0
-231,-202,0,0,0,0,0,0,0,0,0,-1,993,1226,0,0
-224,-202,0,0,0,0,0,0,0,0,0,-1,1000,1226,0,0
-217,-202,0,0,0,0,0,0,0,0,0,-1,1007,1226,0,0
-210,-202,0,0,0,0,0,0,0,0,0,-1,1014,1226,0,0
-203,-202,0,0,0,0,0,0,0,0,0,-1,1021,1226,0,0
-196,-202,0,0,0,0,0,0,0,0,0,-1,1028,1226,0,0
-189,-202,0,0,0,0,0,0,0,0,0,-1,1035,1226,0,0
-182,-202,0,0,0,0,0,0,0,0,0,-1,1042,1226,0,0
-175,-202,0,0,0,0,0,0,0,0,0,-1,1049,1226,0,0
-168,-202,0,0,0,0,0,0,0,0,0,-1,1056,1226,0,0
-161,-202,0,0,0,0,0,0,0,0,0,-1,1063,1226,0,0
-154,-202,0,0,0,0,0,0,0,0,0,-1,1070,1226,0,0
-147,-202,0,0,0,0,0,0,0,0,0,-1,1077,1226,0,0
-140,-202,0,0,0,0,0,0,0,0,0,-1,1084,1226,0,0
-133,-202,0,0,0,0,0,0,0,0,0,-1,1091,1226,0,0
-126,-202,0,0,0,0,0,0,0,0,0,-1,1098,1226,0,0
-119,-202,0,0,0,0,0,0,0,0,0,-1,1105,1226,0,0
-112,-202,0,0,0,0,0,0,0,0,0,-1,1112,1226,0,0
-105,-202,0,0,0,0,0,0,0,0,0,-1,1119,1226,0,0
-98,-202,0,0,0,0,0,0,0,0,0,-1,1126,1226,0,0
-91,-202,0,0,0,0,0,0,0,0,0,-1,1133,1226,0,0
-84,-202,0,0,0,0,0,0,0,0,0,-1,1140,1226,0,0
-77,-202,0,0,0,0,0,0,0,0,0,-1,1147,1226,0,0
-70,-202,0,0,0,0,0,0,0,0,0,-1,1154,1226,0,0
-63,-202,0,0,0,0,0,0,0,0,0,-1,1161,1226,0,0
-56,-202,0,0,0,0,0,0,0,0,0,-1,1168,1226,0,0
-49,-202,0,0,0,0,0,0,0,0,0,-1,1175,1226,0,0
-42,-202,0,0,0,0,0,0,0,0,0,-1,1182,1226,0,0
-35,-202,0,0,0,0,0,0,0,0,0,-1,1189,1226,0,0
-28,-202,0,0,0,0,0,0,0,0,0,-1,1196,1226,0,0
-21,-202,0,0,0,0,0,0,0,0,0,-1,1203,1226,0,0
-14,-202,0,0,0,0,0,0,0,0,0,-1,1210,1226,0,0
-7,-202,0,0,0,0,0,0,0,0,0,-1,1217,1226,0,0
0,-202,0,0,0,0,0,0,0,0,0,-1,1224,1226,0,0
7,-202,0,0,0,0,0,0,0,0,0,-1,1231,1226,0,0
14,-202,0,0,0,0,0,0,0,0,0,-1,1238,1226,0,0
21,-202,0,0,0,0,0,0,0,0,0,-1,1245,1226,0,0
28,-202,0,0,0,0,0,0,0,0,0,-1,1252,1226,0,0
35,-202,0,0,0,0,0,0,0,0,0,-1,1259,1226,0,0
42,-202,0,0,0,0,0,0,0,0,0,-1,1266,1226,0,0
49,-202,0,0,0,0,0,0,0,0,0,-1,1273,1226,0,0
56,-202,0,0,0,0,0,0,0,0,0,-1,1280,1226,0,0
63,-202,0,0,0,0,0,0,0,0,0,-1,1287,1226,0,0
70,-202,0,0,0,0,0,0,0,0,0,-1,1294,1226,0,0
77,-202,0,0,0,0,0,0,0,0,0,-1,1301,1226,0,0
84,-202,0,0,0,0,0,0,0,0,0,-1,1308,1226,0,0
91,-202,0,0,0,0,0,0,0,0,0,-1,1315,1226,0,0
98,-202,0,0,0,0,0,0,0,0,0,-1,1322,1226,0,0
105,-202,0,0,0,0,0,0,0,0,0,-1,1329,1226,0,0
112,-202,0,0,0,0,0,0,0,0,0,-1,1336,1226,0,0
119,-202,0,0,0,0,0,0,0,0,0,-1,1343,1226,0,0
126,-202,0,0,0,0,0,0,0,0,0,-1,1350,1226,0,0
133,-202,0,0,0,0,0,0,0,0,0,-1,1357,1226,0,0
140,-202,0,0,0,0,0,0,0,0,0,-1,1364,1226,0,0
147,-202,0,0,0,0,0,0,0,0,0,-1,1371,1226,0,0
154,-202,0,0,0,0,0,0,0,0,0,-1,1378,1226,0,0
161,-202,0,0,0,0,0,0,0,0,0,-1,1385,1226,0,0
168,-202,0,0,0,0,0,0,0,0,0,-1,1392,1226,0,0
175,-202,0,0,0,0,0,0,0,0,0,-1,1399,1226,0,0
182,-202,0,0,0,0,0,0,0,0,0,-1,1406,1226,0,0
189,-202,0,0,0,0,0,0,0,0,0,-1,1413,1226,0,0
196,-202,0,0,0,0,0,0,0,0,0,-1,1420,1226,0,0
203,-202,0,0,0,0,0,0,0,0,0,-1,1427,1226,0,0
210,-202,0,0,0,0,0,0,0,0,0,-1,1434,1226,0,0
217,-202,0,0,0,0,0,0,0,0,0,-1,1441,1226,0,0
224,-202,0,0,0,0,0,0,0,0,0,-1,1448,1226,0,0
231,-202,0,0,0,0,0,0,0,0,0,-1,1455,1226,0,0
238,-202,0,0,0,0,0,0,0,0,0,-1,1462,1226,0,0
245,-202,0,0,0,0,0,0,0,0,0,-1,1469,1226,0,0
252,-202,0,0,0,0,0,0,0,0,0,-1,1476,1226,0,0
259,-202,0,0,0,0,0,0,0,0,0,-1,1483,1226,0,0
266,-202,0,0,0,0,0,0,0,0,0,-1,1490,1226,0,0
273,-202,0,0,0,0,0,0,0,0,0,-1,1497,1226,0,0
280,-202,0,0,0,0,0,0,0,0,0,-1,1504,1226,0,0
287,-202,0,0,0,0,0,0,0,0,0,-1,1511,1226,0,0
294,-202,0,0,0,0,0,0,0,0,0,-1,1518,1226,0,0
301,-202,0,0,0,0,0,0,0,0,0,-1,1525,1226,0,0
308,-202,0,0,0,0,0,0,0,0,0,-1,1532,1226,0,0
315,-202,0,0,0,0,0,0,0,0,0,-1,1539,1226,0,0
322,-202,0,0,0,0,0,0,0,0,0,-1,1546,1226,0,0
329,-202,0,0,0,0,0,0,0,0,0,-1,1553,1226,0,0
336,-202,0,0,0,0,0,0,0,0,0,-1,1560,1226,0,0
343,-202,0,0,0,0,0,0,0,0,0,-1,1567,1226,0,0
350,-202,0,0,0,0,0,0,0,0,0,-1,1574,1226,0,0
357,-202,0,0,0,0,0,0,0,0,0,-1,1581,1226,0,0
364,-202,0,0,0,0,0,0,0,0,0,-1,1588,1226,0,0
371,-202,0,0,0,0,0,0,0,0,0,-1,1595,1226,0,0
378,-202,0,0,0,0,0,0,0,0,0,-1,1602,1226,0,0
385,-202,0,0,0,0,0,0,0,0,0,-1,1609,1226,0,0
392,-202,0,0,0,0,0,0,0,0,0,-1,1616,1226,0,0
399,-202,0,0,0,0,0,0,0,0,0,-1,1623,1226,0,0
406,-202,0,0,0,0,0,0,0,0,0,-1,1630,1226,0,0
413,-202,0,0,0,0,0,0,0,0,0,-1,1637,1226,0,0
420,-202,0,0,0,0,0,0,0,0,0,-1,1644,1226,0,0
427,-202,0,0,0,0,0,0,0,0,0,-1,1651,1226,0,0
434,-202,0,0,0,0,0,0,0,0,0,-1,1658,1226,0,0
441,-202,0,0,0,0,0,0,0,0,0,-1,1665,1226,0,0
448,-202,0,0,0,0,0,0,0,0,0,-1,1672,1226,0,0
455,-202,0,0,0,0,0,0,0,0,0,-1,1679,1226,0,0
462,-202,0,0,0,0,0,0,0,0,0,-1,1686,1226,0,0
469,-202,0,0,0,0,0,0,0,0,0,-1,1693,1226,0,0
476,-202,0,0,0,0,0,0,0,0,0,-1,1700,1226,0,0
483,-202,0,0,0,0,0,0,0,0,0,-1,1707,1226,0,0
490,-202,0,0,0,0,0,0,0,0,0,-1,1714,1226,0,0
497,-202,0,0,0,0,0,0,0,0,0,-1,1721,1226,0,0
504,-202,0,0,0,0,0,0,0,0,0,-1,1728,1226,0,0
511,-202,0,0,0,0,0,0,0,0,0,-1,1735,1226,0,0
518,-202,0,0,0,0,0,0,0,0,0,-1,1742,1226,0,0
525,-202,0,0,0,0,0,0,0,0,0,-1,1749,1226,0,0
532,-202,0,0,0,0,0,0,0,0,0,-1,1756,1226,0,0
539,-202,0,0,0,0,0,0,0,0,0,-1,1763,1226,0,0
546,-202,0,0,0,0,0,0,0,0,0,-1,1770,1226,0,0
553,-202,0,0,0,0,0,0,0,0,0,-1,1777,1226,0,0
560,-202,0,0,0,0,0,0,0,0,0,-1,1784,1226,0,0
567,-202,0,0,0,0,0,0,0,0,0,-1,1791,1226,0,0
574,-202,0,0,0,0,0,0,0,0,0,-1,1798,1226,0,0
581,-202,0,0,0,0,0,0,0,0,0,-1,1805,1226,0,0
588,-202,0,0,0,0,0,0,0,0,0,-1,1812,1226,0,0
595,-202,0,0,0,0,0,0,0,0,0,-1,1819,1226,0,0
602,-202,0,0,0,0,0,0,0,0,0,-1,1826,1226,0,0
609,-202,0,0,0,0,0,0,0,0,0,-1,1833,1226,0,0
616,-202,0,0,0,0,0,0,0,0,0,-1,1840,1226,0,0
623,-202,0,0,0,0,0,0,0,0,0,-1,1847,1226,0,0
630,-202,-0.0170898,-0.0249023,-0.00268284,0.00200855,-0.000186886,0.00201599,-0.00269027,-1.53104,0.00272644,0.0328833,1854,1226,-0.0170756,0.0249014
637,-202,-0.000854492,-0.0161133,-0.000272117,0.000382092,0.000318075,0.000511243,-0.000401268,1.18509,0.000528112,0.0318116,1861,1226,-0.000804814,0.0161546
644,-202,-0.00720215,0.00732422,0.000372026,-0.00094338,0.000898221,0.000827595,-0.00139895,0.469383,0.00129953,0.028239,1868,1226,-0.00720963,-0.00730322
651,-202,-0.0441895,-0.0167236,0.000162052,-0.00185311,0.00119913,0.000720719,-0.00241178,0.435992,0.00189436,0.0231026,1875,1226,-0.0441579,0.016674
658,-202,-0.0872803,-0.0279541,-0.000363121,-0.00235948,0.00128166,0.000263203,-0.0029858,0.454553,0.00208382,0.0187183,1882,1226,-0.0872619,0.0279019
665,-202,-0.072876,-0.0272217,-0.0010347,-0.00256159,0.00124104,-0.000341082,-0.0032552,0.50965,0.00206585,0.0165948,1889,1226,-0.0728455,0.0272036
672,-202,0.069458,0.102173,-0.00170119,-0.0025551,0.00114294,-0.000908064,-0.00334823,0.606643,0.00199942,0.0365779,1896,1226,0.0694456,-0.102182
679,-202,1.41675,-0.0643311,0,0,0,0,0,0,0,-1,1903,1226,1.41676,0.0643587
686,-202,1.21582,-0.0773926,0,0,0,0,0,0,0,-1,1910,1226,1.21584,0.0773464
693,-202,1.01489,-0.090332,0,0,0,0,0,0,0,-1,1917,1226,1.01493,0.0903342
700,-202,-0.0675049,-0.103027,-0.00286961,-0.00134537,0.000420106,-0.00123725,-0.00297773,1.3189,0.00172736,0.0144163,1924,1226,-0.0675637,0.103022
707,-202,-0.103394,-0.0596924,-0.00273342,-0.000920878,0.000175905,-0.000903964,-0.00275033,1.47494,0.00161868,0.0133543,1931,1226,-0.103429,0.0596973
714,-202,-0.0877686,-0.0596924,-0.00258286,-0.000518361,-9.33038e-05,-0.000514152,-0.00258707,-1.52572,0.00158144,0.012326,1938,1226,-0.0877757,0.0596378
721,-202,-0.0821533,-0.0535889,-0.00236386,-0.000132322,-0.000310837,-8.98333e-05,-0.00240635,-1.43495,0.00157514,0.0105363,1945,1226,-0.0821517,0.0536359
728,-202,-0.0922852,-0.0284424,-0.00202977,-5.58823e-05,-0.000540302,8.23332e-05,-0.00216799,-1.32036,0.00147354,0.0102431,1952,1226,-0.0923038,0.0284318
735,-202,-0.0955811,-0.043457,-0.00147219,0.000402862,-0.00046109,0.000510113,-0.00157944,-1.34226,0.00125796,0.0108166,1959,1226,-0.0955618,0.0434384
742,-202,-0.0770264,-0.057373,-0.000508364,0.000585791,-0.000565915,0.000825831,-0.000748404,-1.16964,0.000909251,0.00913891,1966,1226,-0.0770095,0.0573731
749,-202,-0.053833,-0.0478516,-7.52894e-05,0.000674905,-0.000472156,0.000902824,-0.000303209,-1.12107,0.000724422,0.00864563,1973,1226,-0.0538633,0.0478398
756,-202,-0.0565186,-0.0533447,0.000145725,0.000770897,-0.0003192,0.000905076,1.1546e-05,-1.17286,0.000599572,0.00950158,1980,1226,-0.0565705,0.0533178
763,-202,-0.0615234,-0.0446777,0.000448432,0.00107363,-3.25517e-05,0.00107532,0.000446742,-1.51892,0.000623788,0.0138752,1987,1226,-0.0614939,0.0447358
770,-202,-0.0374756,-0.0821533,0.00102896,0.00146561,0.000421014,0.00172154,0.000773031,1.02459,0.000995653,0.0349422,1994,1226,-0.0374208,0.0821959
777,-202,0.153931,-0.698853,0.00202711,0.00190116,0.0011369,0.00310278,0.000825497,0.757732,0.0018556,0.0409917,2001,1226,0.153979,0.698848
784,-202,-0.505615,0.0449219,0.00364568,0.00231392,0.00216698,0.00524678,0.000712822,0.636335,0.00328612,0.043013,2008,1226,-0.505572,-0.044953
791,-202,-0.0773926,-0.0703125,0.00615308,0.00260352,0.00353473,0.00833357,0.000423033,0.552736,0.00542021,0.0418885,2015,1226,-0.077429,0.0703036
798,-202,0.559448,-0.33667,0,0,0,0,0,0,0,-1,2022,1226,0.559484,0.336658
805,-202,0,0,0,0,0,0,0,0,0,-1,2029,1226,0,0
812,-202,0,0,0,0,0,0,0,0,0,-1,2036,1226,0,0
-700,-209,0,0,0,0,0,0,0,0,0,-1,524,1233,0,0
-693,-209,0,0,0,0,0,0,0,0,0,-1,531,1233,0,0
-686,-209,0,0,0,0,0,0,0,0,0,-1,538,1233,0,0
-679,-209,0.0299072,-0.220581,0.00853331,0.0248994,-0.00511845,0.0263683,0.00706437,-1.29132,0.015761,0.0456767,545,1233,0.029927,0.220588
-672,-209,1.05219,-0.661987,0.00520585,0.0194935,-0.00261272,0.0199563,0.00474307,-1.39549,0.0120387,0.0459731,552,1233,1.05217,0.662036
-665,-209,0.74762,-0.560303,0.00359953,0.0153694,-0.00131567,0.0155146,0.00345425,-1.46082,0.00940554,0.0435454,559,1233,0.747629,0.560363
-658,-209,0.474487,-0.294067,0,0,0,0,0,0,0,-1,566,1233,0.47446,0.294041
-651,-209,0.0151978,-0.0743408,0.00264308,0.00947362,-0.000369562,0.00949356,0.00262314,-1.5169,0.005661,0.0442559,573,1233,0.0151882,0.0743882
-644,-209,-0.191284,-0.243774,0.00255366,0.00728228,-0.000256322,0.00729614,0.0025398,-1.5168,0.00427673,0.0431121,580,1233,-0.191294,0.243739
-637,-209,-0.00244141,-0.103394,0.00247764,0.0054654,-0.000234703,0.00548372,0.00245932,-1.49288,0.00317163,0.0396125,587,1233,-0.00245558,0.103373
-630,-209,-0.0374146,-0.0770264,0.00230519,0.00398178,-0.000246349,0.00401723,0.00226974,-1.42789,0.00232587,0.0212743,594,1233,-0.0373858,0.0770005
-623,-209,-0.0716553,-0.0534668,0.00152648,0.0022833,6.22395e-05,0.00228839,0.0015214,1.48929,0.00134492,0.010513,601,1233,-0.0716615,0.0534338
-616,-209,-0.0701904,-0.0477295,0.00146378,0.00137043,-4.69242e-05,0.00148329,0.00135092,-0.394037,0.000947823,0.0111456,608,1233,-0.0701611,0.0476689
-609,-209,-0.0615845,-0.0703125,0.00208832,0.00159598,-0.000636878,0.00252494,0.00115935,-0.60098,0.0014594,0.0125452,615,1233,-0.0616062,0.0703401
-602,-209,-0.0796509,-0.0509033,0.00208714,0.00212791,-0.000987944,0.00309568,0.00111937,-0.795713,0.00180997,0.0140123,622,1233,-0.0796564,0.0508864
-595,-209,-0.0800171,-0.0512695,0.00118377,0.00172708,-0.000353513,0.00190126,0.00100959,-1.113,0.00109839,0.011171,629,1233,-0.0800371,0.0512794
-588,-209,-0.0741577,-0.0585938,0.000346648,0.00201513,0.000281817,0.00206145,0.000300333,1.40791,0.00128593,0.0123156,636,1233,-0.0741418,0.0585706
-581,-209,-0.0757446,-0.065918,0.000104606,0.00242198,0.000255583,0.00244983,7.67522e-05,1.46224,0.00160825,0.0102752,643,1233,-0.0757414,0.0659529
-574,-209,-0.0900879,-0.0693359,0.000266414,0.00232518,0.000358891,0.00238595,0.000205646,1.40306,0.00152671,0.00929631,650,1233,-0.0900704,0.0693567
-567,-209,-0.0794678,-0.0703125,0.000533135,0.00229852,0.000450001,0.00240661,0.000425047,1.33507,0.00148317,0.0219345,657,1233,-0.0794951,0.0703113
-560,-209,0.304688,-1.0769,0,0,0,0,0,0,0,-1,664,1233,0.304689,1.07696
-553,-209,0.978455,-1.7583,0,0,0,0,0,0,0,-1,671,1233,0.97843,1.75834
-546,-209,0.723511,-1.58215,0.0013109,0.000661164,0.000516024,0.00159581,0.000376262,0.504461,0.000963265,0.0444692,678,1233,0.7235,1.5822
-539,-209,-0.109009,0.111694,0.00177964,-0.000335845,0.000305202,0.00182279,-0.000378997,0.140456,0.00135926,0.0338365,685,1233,-0.108999,-0.111694
-532,-209,-0.0924072,-0.00317383,0.00235248,-0.00148494,-0.00010659,0.00235544,-0.00148789,-0.0277479,0.00223771,0.0244521,692,1233,-0.0923787,0.00317905
-525,-209,-0.06073,-0.116699,0.00292746,-0.00267512,-0.000761586,0.00302914,-0.0027768,-0.132727,0.00335312,0.0303802,699,1233,-0.0607024,0.116753
-518,-209,0.00164795,-0.165405,0.00334205,-0.00378936,-0.0016923,0.00372326,-0.00417057,-0.221563,0.00455994,0.0412153,706,1233,0.00164402,0.165388
-511,-209,-0.0250244,-0.217896,0.00351348,-0.00464145,-0.00288265,0.00442955,-0.00555752,-0.307694,0.00577828,0.0414215,713,1233,-0.0250524,0.217835
-504,-209,0,0,0,0,0,0,0,0,0,-1,720,1233,0,0
-497,-209,0,0,0,0,0,0,0,0,0,-1,727,1233,0,0
-490,-209,0,0,0,0,0,0,0,0,0,-1,734,1233,0,0
-483,-209,0,0,0,0,0,0,0,0,0,-1,741,1233,0,0
-476,-209,0,0,0,0,0,0,0,0,0,-1,748,1233,0,0
-469,-209,0,0,0,0,0,0,0,0,0,-1,755,1233,0,0
-462,-209,0,0,0,0,0,0,0,0,0,-1,762,1233,0,0
-455,-209,0,0,0,0,0,0,0,0,0,-1,769,1233,0,0
-448,-209,0,0,0,0,0,0,0,0,0,-1,776,1233,0,0
-441,-209,0,0,0,0,0,0,0,0,0,-1,783,1233,0,0
-434,-209,0,0,0,0,0,0,0,0,0,-1,790,1233,0,0
-427,-209,0,0,0,0,0,0,0,0,0,-1,797,1233,0,0
-420,-209,0,0,0,0,0,0,0,0,0,-1,804,1233,0,0
-413,-209,0,0,0,0,0,0,0,0,0,-1,811,1233,0,0
-406,-209,0,0,0,0,0,0,0,0,0,-1,818,1233,0,0
-399,-209,0,0,0,0,0,0,0,0,0,-1,825,1233,0,0
-392,-209,0,0,0,0,0,0,0,0,0,-1,832,1233,0,0
-385,-209,0,0,0,0,0,0,0,0,0,-1,839,1233,0,0
-378,-209,0,0,0,0,0,0,0,0,0,-1,846,1233,0,0
-371,-209,0,0,0,0,0,0,0,0,0,-1,853,1233,0,0
-364,-209,0,0,0,0,0,0,0,0,0,-1,860,1233,0,0
-357,-209,0,0,0,0,0,0,0,0,0,-1,867,1233,0,0
-350,-209,0,0,0,0,0,0,0,0,0,-1,874,1233,0,0
-343,-209,0,0,0,0,0,0,0,0,0,-1,881,1233,0,0
-336,-209,0,0,0,0,0,0,0,0,0,-1,888,1233,0,0
-329,-209,0,0,0,0,0,0,0,0,0,-1,895,1233,0,0
-322,-209,0,0,0,0,0,0,0,0,0,-1,902,1233,0,0
-315,-209,0,0,0,0,0,0,0,0,0,-1,909,1233,0,0
-308,-209,0,0,0,0,0,0,0,0,0,-1,916,1233,0,0
-301,-209,0,0,0,0,0,0,0,0,0,-1,923,1233,0,0
-294,-209,0,0,0,0,0,0,0,0,0,-1,930,1233,0,0
-287,-209,0,0,0,0,0,0,0,0,0,-1,937,1233,0,0
-280,-209,0,0,0,0,0,0,0,0,0,-1,944,1233,0,0
-273,-209,0,0,0,0,0,0,0,0,0,-1,951,1233,0,0
-266,-209,0,0,0,0,0,0,0,0,0,-1,958,1233,0,0
-259,-209,0,0,0,0,0,0,0,0,0,-1,965,1233,0,0
-252,-209,0,0,0,0,0,0,0,0,0,-1,972,1233,0,0
-245,-209,0,0,0,0,0,0,0,0,0,-1,979,1233,0,0
-238,-209,0,0,0,0,0,0,0,0,0,-1,986,1233,0,0
-231,-209,0,0,0,0,0,0,0,0,0,-1,993,1233,0,0
-224,-209,0,0,0,0,0,0,0,0,0,-1,1000,1233,0,0
-217,-209,0,0,0,0,0,0,0,0,0,-1,1007,1233,0,0
-210,-209,0,0,0,0,0,0,0,0,0,-1,1014,1233,0,0
-203,-209,0,0,0,0,0,0,0,0,0,-1,1021,1233,0,0
-196,-209,0,0,0,0,0,0,0,0,0,-1,1028,1233,0,0
-189,-209,0,0,0,0,0,0,0,0,0,-1,1035,1233,0,0
-182,-209,0,0,0,0,0,0,0,0,0,-1,1042,1233,0,0
-175,-209,0,0,0,0,0,0,0,0,0,-1,1049,1233,0,0
-168,-209,0,0,0,0,0,0,0,0,0,-1,1056,1233,0,0
-161,-209,0,0,0,0,0,0,0,0,0,-1,1063,1233,0,0
-154,-209,0,0,0,0,0,0,0,0,0,-1,1070,1233,0,0
-147,-209,0,0,0,0,0,0,0,0,0,-1,1077,1233,0,0
-140,-209,0,0,0,0,0,0,0,0,0,-1,1084,1233,0,0
-133,-209,0,0,0,0,0,0,0,0,0,-1,1091,1233,0,0
-126,-209,0,0,0,0,0,0,0,0,0,-1,1098,1233,0,0
-119,-209,0,0,0,0,0,0,0,0,0,-1,1105,1233,0,0
-112,-209,0,0,0,0,0,0,0,0,0,-1,1112,1233,0,0
-105,-209,0,0,0,0,0,0,0,0,0,-1,1119,1233,0,0
-98,-209,0,0,0,0,0,0,0,0,0,-1,1126,1233,0,0
-91,-209,0,0,0,0,0,0,0,0,0,-1,1133,1233,0,0
-84,-209,0,0,0,0,0,0,0,0,0,-1,1140,1233,0,0
-77,-209,0,0,0,0,0,0,0,0,0,-1,1147,1233,0,0
-70,-209,0,0,0,0,0,0,0,0,0,-1,1154,1233,0,0
-63,-209,0,0,0,0,0,0,0,0,0,-1,1161,1233,0,0
-56,-209,0,0,0,0,0,0,0,0,0,-1,1168,1233,0,0
-49,-209,0,0,0,0,0,0,0,0,0,-1,1175,1233,0,0
-42,-209,0,0,0,0,0,0,0,0,0,-1,1182,1233,0,0
-35,-209,0,0,0,0,0,0,0,0,0,-1,1189,1233,0,0
-28,-209,0,0,0,0,0,0,0,0,0,-1,1196,1233,0,0
-21,-209,0,0,0,0,0,0,0,0,0,-1,1203,1233,0,0
-14,-209,0,0,0,0,0,0,0,0,0,-1,1210,1233,0,0
-7,-209,0,0,0,0,0,0,0,0,0,-1,1217,1233,0,0
0,-209,0,0,0,0,0,0,0,0,0,-1,1224,1233,0,0
7,-209,0,0,0,0,0,0,0,0,0,-1,1231,1233,0,0
14,-209,0,0,0,0,0,0,0,0,0,-1,1238,1233,0,0
21,-209,0,0,0,0,0,0,0,0,0,-1,1245,1233,0,0
28,-209,0,0,0,0,0,0,0,0,0,-1,1252,1233,0,0
35,-209,0,0,0,0,0,0,0,0,0,-1,1259,1233,0,0
42,-209,0,0,0,0,0,0,0,0,0,-1,1266,1233,0,0
49,-209,0,0,0,0,0,0,0,0,0,-1,1273,1233,0,0
56,-209,0,0,0,0,0,0,0,0,0,-1,1280,1233,0,0
63,-209,0,0,0,0,0,0,0,0,0,-1,1287,1233,0,0
70,-209,0,0,0,0,0,0,0,0,0,-1,1294,1233,0,0
77,-209,0,0,0,0,0,0,0,0,0,-1,1301,1233,0,0
84,-209,0,0,0,0,0,0,0,0,0,-1,1308,1233,0,0
91,-209,0,0,0,0,0,0,0,0,0,-1,1315,1233,0,0
98,-209,0,0,0,0,0,0,0,0,0,-1,1322,1233,0,0
105,-209,0,0,0,0,0,0,0,0,0,-1,1329,1233,0,0
112,-209,0,0,0,0,0,0,0,0,0,-1,1336,1233,0,0
119,-209,0,0,0,0,0,0,0,0,0,-1,1343,1233,0,0
126,-209,0,0,0,0,0,0,0,0,0,-1,1350,1233,0,0
133,-209,0,0,0,0,0,0,0,0,0,-1,1357,1233,0,0
140,-209,0,0,0,0,0,0,0,0,0,-1,1364,1233,0,0
147,-209,0,0,0,0,0,0,0,0,0,-1,1371,1233,0,0
154,-209,0,0,0,0,0,0,0,0,0,-1,1378,1233,0,0
161,-209,0,0,0,0,0,0,0,0,0,-1,1385,1233,0,0
168,-209,0,0,0,0,0,0,0,0,0,-1,1392,1233,0,0
175,-209,0,0,0,0,0,0,0,0,0,-1,1399,1233,0,0
182,-209,0,0,0,0,0,0,0,0,0,-1,1406,1233,0,0
189,-209,0,0,0,0,0,0,0,0,0,-1,1413,1233,0,0
196,-209,0,0,0,0,0,0,0,0,0,-1,1420,1233,0,0
203,-209,0,0,0,0,0,0,0,0,0,-1,1427,1233,0,0
210,-209,0,0,0,0,0,0,0,0,0,-1,1434,1233,0,0
217,-209,0,0,0,0,0,0,0,0,0,-1,1441,1233,0,0
224,-209,0,0,0,0,0,0,0,0,0,-1,1448,1233,0,0
231,-209,0,0,0,0,0,0,0,0,0,-1,1455,1233,0,0
238,-209,0,0,0,0,0,0,0,0,0,-1,1462,1233,0,0
245,-209,0,0,0,0,0,0,0,0,0,-1,1469,1233,0,0
252,-209,0,0,0,0,0,0,0,0,0,-1,1476,1233,0,0
259,-209,0,0,0,0,0,0,0,0,0,-1,1483,1233,0,0
266,-209,0,0,0,0,0,0,0,0,0,-1,1490,1233,0,0
273,-209,0,0,0,0,0,0,0,0,0,-1,1497,1233,0,0
280,-209,0,0,0,0,0,0,0,0,0,-1,1504,1233,0,0
287,-209,0,0,0,0,0,0,0,0,0,-1,1511,1233,0,0
294,-209,0,0,0,0,0,0,0,0,0,-1,1518,1233,0,0
301,-209,0,0,0,0,0,0,0,0,0,-1,1525,1233,0,0
308,-209,0,0,0,0,0,0,0,0,0,-1,1532,1233,0,0
315,-209,0,0,0,0,0,0,0,0,0,-1,1539,1233,0,0
322,-209,0,0,0,0,0,0,0,0,0,-1,1546,1233,0,0
329,-209,0,0,0,0,0,0,0,0,0,-1,1553,1233,0,0
336,-209,0,0,0,0,0,0,0,0,0,-1,1560,1233,0,0
343,-209,0,0,0,0,0,0,0,0,0,-1,1567,1233,0,0
350,-209,0,0,0,0,0,0,0,0,0,-1,1574,1233,0,0
357,-209,0,0,0,0,0,0,0,0,0,-1,1581,1233,0,0
364,-209,0,0,0,0,0,0,0,0,0,-1,1588,1233,0,0
371,-209,0,0,0,0,0,0,0,0,0,-1,1595,1233,0,0
378,-209,0,0,0,0,0,0,0,0,0,-1,1602,1233,0,0
385,-209,0,0,0,0,0,0,0,0,0,-1,1609,1233,0,0
392,-209,0,0,0,0,0,0,0,0,0,-1,1616,1233,0,0
399,-209,0,0,0,0,0,0,0,0,0,-1,1623,1233,0,0
406,-209,0,0,0,0,0,0,0,0,0,-1,1630,1233,0,0
413,-209,0,0,0,0,0,0,0,0,0,-1,1637,1233,0,0
420,-209,0,0,0,0,0,0,0,0,0,-1,1644,1233,0,0
427,-209,0,0,0,0,0,0,0,0,0,-1,1651,1233,0,0
434,-209,0,0,0,0,0,0,0,0,0,-1,1658,1233,0,0
441,-209,0,0,0,0,0,0,0,0,0,-1,1665,1233,0,0
448,-209,0,0,0,0,0,0,0,0,0,-1,1672,1233,0,0
455,-209,0,0,0,0,0,0,0,0,0,-1,1679,1233,0,0
462,-209,0,0,0,0,0,0,0,0,0,-1,1686,1233,0,0
469,-209,0,0,0,0,0,0,0,0,0,-1,1693,1233,0,0
476,-209,0,0,0,0,0,0,0,0,0,-1,1700,1233,0,0
483,-209,0,0,0,0,0,0,0,0,0,-1,1707,1233,0,0
490,-209,0,0,0,0,0,0,0,0,0,-1,1714,1233,0,0
497,-209,0,0,0,0,0,0,0,0,0,-1,1721,1233,0,0
504,-209,0,0,0,0,0,0,0,0,0,-1,1728,1233,0,0
511,-209,0,0,0,0,0,0,0,0,0,-1,1735,1233,0,0
518,-209,0,0,0,0,0,0,0,0,0,-1,1742,1233,0,0
525,-209,0,0,0,0,0,0,0,0,0,-1,1749,1233,0,0
532,-209,0,0,0,0,0,0,0,0,0,-1,1756,1233,0,0
539,-209,0,0,0,0,0,0,0,0,0,-1,1763,1233,0,0
546,-209,0,0,0,0,0,0,0,0,0,-1,1770,1233,0,0
553,-209,0,0,0,0,0,0,0,0,0,-1,1777,1233,0,0
560,-209,0,0,0,0,0,0,0,0,0,-1,1784,1233,0,0
567,-209,0,0,0,0,0,0,0,0,0,-1,1791,1233,0,0
574,-209,0,0,0,0,0,0,0,0,0,-1,1798,1233,0,0
581,-209,0,0,0,0,0,0,0,0,0,-1,1805,1233,0,0
588,-209,0,0,0,0,0,0,0,0,0,-1,1812,1233,0,0
595,-209,0,0,0,0,0,0,0,0,0,-1,1819,1233,0,0
602,-209,0,0,0,0,0,0,0,0,0,-1,1826,1233,0,0
609,-209,0,0,0,0,0,0,0,0,0,-1,1833,1233,0,0
616,-209,0,0,0,0,0,0,0,0,0,-1,1840,1233,0,0
623,-209,-0.0311279,-0.0466309,-0.00579277,0.00336182,-0.00118678,0.00351317,-0.00594412,-1.44395,0.00551997,0.0305529,1847,1233,-0.0310712,0.0466768
630,-209,-0.0308838,-0.074585,-0.00256929,0.00230225,0.000248439,0.00231489,-0.00258193,1.51997,0.00282858,0.0328286,1854,1233,-0.030934,0.074619
637,-209,-0.0321045,-0.0758057,-0.000153549,0.00041296,0.00103405,0.00120185,-0.000942437,0.919083,0.00124102,0.0318324,1861,1233,-0.0321471,0.0757714
644,-209,-0.043335,-0.0491943,0.000526276,-0.00113198,0.00165491,0.00154814,-0.00215385,0.55317,0.00214686,0.0254038,1868,1233,-0.0433462,0.049236
651,-209,-0.0235596,-0.0454102,0.000377424,-0.00221509,0.00191186,0.00139103,-0.0032287,0.487491,0.00273664,0.0198985,1875,1233,-0.0235555,0.0453878
658,-209,-0.0529785,-0.0458984,-0.000142283,-0.00285327,0.00192048,0.000852883,-0.00384843,0.478091,0.00289214,0.0170821,1882,1233,-0.0529652,0.0458809
665,-209,-0.0327148,-0.0450439,-0.000838878,-0.00313572,0.00179408,0.000142859,-0.00411746,0.500699,0.00279381,0.0295596,1889,1233,-0.032773,0.0449886
672,-209,0.0179443,-0.0117188,-0.00155438,-0.00316753,0.00161033,-0.00055992,-0.00416199,0.553225,0.00260813,0.0460022,1896,1233,0.0179678,0.0117061
679,-209,1.16296,-0.0583496,0,0,0,0,0,0,0,-1,1903,1233,1.16293,0.0582911
686,-209,0.915161,-0.0968018,-0.00263633,-0.00268058,0.00115933,-0.00149892,-0.003818,0.775857,0.00222121,0.0463332,1910,1233,0.915128,0.0967662
693,-209,0.0268555,-0.328003,-0.0029047,-0.00228889,0.000893916,-0.00165134,-0.00354225,0.951256,0.00204668,0.0365794,1917,1233,0.0268986,0.327998
700,-209,-0.0539551,-0.107422,-0.00300335,-0.00183016,0.00058595,-0.00158764,-0.00324587,1.17837,0.00187415,0.0128651,1924,1233,-0.0539268,0.107452
707,-209,-0.0952148,-0.0656738,-0.00293448,-0.00127873,0.000306247,-0.0012239,-0.00298931,1.39364,0.00173529,0.0124769,1931,1233,-0.0952647,0.065694
714,-209,-0.0963135,-0.0552979,-0.00281979,-0.000746262,-8.97979e-05,-0.00074238,-0.00282367,-1.5276,0.00169024,0.0110133,1938,1233,-0.0962742,0.0552946
721,-209,-0.0872803,-0.0410156,-0.00267117,-0.000235188,-0.000408254,-0.000168588,-0.00273777,-1.40909,0.00177166,0.0116384,1945,1233,-0.0872563,0.0409579
728,-209,-0.0864258,-0.0378418,-0.0024404,-0.000166741,-0.000806653,9.037e-05,-0.00269751,-1.26224,0.00182921,0.0118223,1952,1233,-0.0863733,0.0378277
735,-209,-0.0844727,-0.0535889,-0.00206383,0.000360675,-0.00096307,0.000696667,-0.00239982,-1.23512,0.00187573,0.0121659,1959,1233,-0.0844343,0.0535568
742,-209,-0.0715332,-0.0576172,-0.00130713,0.000571031,-0.00130268,0.00123783,-0.00197393,-1.0977,0.00187048,0.00963141,1966,1233,-0.0715339,0.0576198
749,-209,-0.0670166,-0.0494385,-0.00124313,0.000738399,-0.0015406,0.00157932,-0.00208405,-1.07115,0.00212173,0.0079519,1973,1233,-0.067021,0.0494438
756,-209,-0.0665283,-0.0452881,-0.00154579,0.000883121,-0.00175818,0.00180551,-0.00246818,-1.08764,0.00247728,0.00920949,1980,1233,-0.066513,0.0452828
763,-209,-0.0782471,-0.0187988,-0.00186809,0.00126982,-0.00188013,0.00214964,-0.00274791,-1.13311,0.00283462,0.0161365,1987,1233,-0.0782534,0.0187496
770,-209,0.000610352,-0.0924072,-0.00206523,0.00178781,-0.00182776,0.00251689,-0.0027943,-1.19125,0.00306781,0.0412403,1994,1233,0.000595852,0.0924303
777,-209,0.0999756,-0.397827,-0.00201604,0.00240355,-0.00146871,0.00284711,-0.0024596,-1.2775,0.00306656,0.045005,2001,1233,0.0999305,0.397776
784,-209,0.0401611,-0.911743,0,0,0,0,0,0,0,-1,2008,1233,0.0402185,0.911775
791,-209,0.209839,-0.0246582,0,0,0,0,0,0,0,-1,2015,1233,0.209856,0.0246953
798,-209,0.349487,0.151367,0,0,0,0,0,0,0,-1,2022,1233,0.349435,-0.151355
805,-209,0,0,0,0,0,0,0,0,0,-1,2029,1233,0,0
812,-209,0,0,0,0,0,0,0,0,0,-1,2036,1233,0,0
-700,-216,0,0,0,0,0,0,0,0,0,-1,524,1240,0,0
-693,-216,0,0,0,0,0,0,0,0,0,-1,531,1240,0,0
-686,-216,0,0,0,0,0,0,0,0,0,-1,538,1240,0,0
-679,-216,0.771423,-0.509033,0.00880267,0.0305612,-0.00663497,0.0324248,0.00693904,-1.29697,0.0197149,0.0453085,545,1240,0.771429,0.509046
-672,-216,0.497864,-0.430664,0.00630895,0.026035,-0.00433698,0.0269464,0.00539753,-1.36366,0.0164627,0.046465,552,1240,0.497877,0.43071
-665,-216,0.178772,-0.38147,0.00512044,0.0216541,-0.00307304,0.0222068,0.00456775,-1.39285,0.0135413,0.048407,559,1240,0.178769,0.38145
-658,-216,-0.172913,-0.284424,0,0,0,0,0,0,0,-1,566,1240,-0.172888,0.284414
-651,-216,-0.53656,-0.15271,0.00431896,0.0140131,-0.00190284,0.0143732,0.00395883,-1.38375,0.00857285,0.0450221,573,1240,-0.536545,0.152695
-644,-216,-0.571106,-0.0114746,0.00411643,0.0108134,-0.00159242,0.0111727,0.00375706,-1.34884,0.00656484,0.0439458,580,1240,-0.571076,0.0115111
-637,-216,-0.40741,0.0863037,0.00386453,0.00806308,-0.00135062,0.00846002,0.00346758,-1.28494,0.00491077,0.0419783,587,1240,-0.407404,-0.0862518
-630,-216,-0.12439,-0.119873,0.0034871,0.00578418,-0.00113824,0.00625266,0.00301862,-1.18035,0.00361069,0.027823,594,1240,-0.124407,0.119865
-623,-216,-0.0722046,-0.0736084,0.0025272,0.00354672,-0.000637003,0.00385282,0.0022211,-1.12284,0.00223309,0.0116697,601,1240,-0.072234,0.0735564
-616,-216,-0.0879517,-0.0461426,0.00233176,0.00223615,-0.000595122,0.00288099,0.00168692,-0.745322,0.00167144,0.0127631,608,1240,-0.087946,0.0460962
-609,-216,-0.0898438,-0.0452881,0.00262105,0.00215127,-0.000997034,0.00341049,0.00136183,-0.669712,0.00198231,0.0124006,615,1240,-0.0898262,0.0453235
-602,-216,-0.0675049,-0.0618896,0.00232732,0.00180907,-0.00110802,0.00320611,0.000930282,-0.67053,0.00190461,0.0118669,622,1240,-0.0674847,0.0619353
-595,-216,-0.0669556,-0.0650635,0.00127548,0.00140863,-0.000365156,0.00171323,0.00097088,-0.875572,0.000992064,0.0161594,629,1240,-0.0669265,0.065096
-588,-216,-0.0470581,-0.0513916,0.000339924,0.001616,0.000398025,0.00172997,0.000225953,1.29192,0.00108586,0.0173244,636,1240,-0.0470694,0.05143
-581,-216,-0.0505371,-0.0697021,0.000112545,0.00208449,0.000322318,0.00213584,6.11985e-05,1.41282,0.00140394,0.0141576,643,1240,-0.0505377,0.0696522
-574,-216,-0.088562,-0.067749,0.000371624,0.00193525,0.00036085,0.00201451,0.000292365,1.35459,0.00125694,0.0104205,650,1240,-0.0885771,0.067704
-567,-216,-0.0845337,-0.0510254,0.000785948,0.00193738,0.00036641,0.00204409,0.000679238,1.2874,0.00120208,0.0198114,657,1240,-0.084549,0.0510515
-560,-216,-0.322144,0.0959473,0.00108542,0.00163712,0.000394575,0.00184271,0.000879832,1.09046,0.00106425,0.0365641,664,1240,-0.32216,-0.0959895
-553,-216,-0.499084,0.386963,0.00156289,0.00105942,0.000322344,0.00172015,0.000902158,0.453889,0.000993523,0.0406365,671,1240,-0.499079,-0.387007
-546,-216,-0.124573,0.510864,0.0021621,0.000361127,0.000102446,0.00216791,0.000355318,0.0566401,0.0013426,0.0397029,678,1240,-0.124564,-0.510901
-539,-216,-0.122559,0.248047,0.00284963,-0.000503371,-0.000241746,0.00286697,-0.000520711,-0.0716048,0.00210644,0.0384599,685,1240,-0.122584,-0.248016
-532,-216,-0.113586,0.0712891,0.00363734,-0.00149063,-0.000759244,0.00374739,-0.00160069,-0.143946,0.00316954,0.034101,692,1240,-0.113608,-0.0712649
-525,-216,-0.0952759,-0.0194092,0.00436241,-0.00250082,-0.00144566,0.00465449,-0.0027929,-0.199356,0.0043443,0.0350548,699,1240,-0.0952689,0.019455
-518,-216,-0.0571289,-0.0529785,0.00479644,-0.00345226,-0.0022748,0.00538218,-0.004038,-0.252018,0.00545717,0.0420991,706,1240,-0.0571203,0.0530047
-511,-216,0.03479,-0.189819,0.00471182,-0.00423164,-0.00317523,0.00572447,-0.00524429,-0.308725,0.00633484,0.0424171,713,1240,0.0347762,0.189855
-504,-216,0.0509033,-0.324097,0.00396326,-0.00351537,-0.00423621,0.00587442,-0.00542654,-0.42381,0.00652632,0.0389276,720,1240,0.0508787,0.324077
-497,-216,0,0,0,0,0,0,0,0,0,-1,727,1240,0,0
-490,-216,0,0,0,0,0,0,0,0,0,-1,734,1240,0,0
-483,-216,0,0,0,0,0,0,0,0,0,-1,741,1240,0,0
-476,-216,0,0,0,0,0,0,0,0,0,-1,748,1240,0,0
-469,-216,0,0,0,0,0,0,0,0,0,-1,755,1240,0,0
-462,-216,0,0,0,0,0,0,0,0,0,-1,762,1240,0,0
-455,-216,0,0,0,0,0,0,0,0,0,-1,769,1240,0,0
-448,-216,0,0,0,0,0,0,0,0,0,-1,776,1240,0,0
-441,-216,0,0,0,0,0,0,0,0,0,-1,783,1240,0,0
-434,-216,0,0,0,0,0,0,0,0,0,-1,790,1240,0,0
-427,-216,0,0,0,0,0,0,0,0,0,-1,797,1240,0,0
-420,-216,0,0,0,0,0,0,0,0,0,-1,804,1240,0,0
-413,-216,0,0,0,0,0,0,0,0,0,-1,811,1240,0,0
-406,-216,0,0,0,0,0,0,0,0,0,-1,818,1240,0,0
-399,-216,0,0,0,0,0,0,0,0,0,-1,825,1240,0,0
-392,-216,0,0,0,0,0,0,0,0,0,-1,832,1240,0,0
-385,-216,0,0,0,0,0,0,0,0,0,-1,839,1240,0,0
-378,-216,0,0,0,0,0,0,0,0,0,-1,846,1240,0,0
-371,-216,0,0,0,0,0,0,0,0,0,-1,853,1240,0,0
-364,-216,0,0,0,0,0,0,0,0,0,-1,860,1240,0,0
-357,-216,0,0,0,0,0,0,0,0,0,-1,867,1240,0,0
-350,-216,0,0,0,0,0,0,0,0,0,-1,874,1240,0,0
-343,-216,0,0,0,0,0,0,0,0,0,-1,881,1240,0,0
-336,-216,0,0,0,0,0,0,0,0,0,-1,888,1240,0,0
-329,-216,0,0,0,0,0,0,0,0,0,-1,895,1240,0,0
-322,-216,0,0,0,0,0,0,0,0,0,-1,902,1240,0,0
-315,-216,0,0,0,0,0,0,0,0,0,-1,909,1240,0,0
-308,-216,0,0,0,0,0,0,0,0,0,-1,916,1240,0,0
-301,-216,0,0,0,0,0,0,0,0,0,-1,923,1240,0,0
-294,-216,0,0,0,0,0,0,0,0,0,-1,930,1240,0,0
-287,-216,0,0,0,0,0,0,0,0,0,-1,937,1240,0,0
-280,-216,0,0,0,0,0,0,0,0,0,-1,944,1240,0,0
-273,-216,0,0,0,0,0,0,0,0,0,-1,951,1240,0,0
-266,-216,0,0,0,0,0,0,0,0,0,-1,958,1240,0,0
-259,-216,0,0,0,0,0,0,0,0,0,-1,965,1240,0,0
-252,-216,0,0,0,0,0,0,0,0,0,-1,972,1240,0,0
-245,-216,0,0,0,0,0,0,0,0,0,-1,979,1240,0,0
-238,-216,0,0,0,0,0,0,0,0,0,-1,986,1240,0,0
-231,-216,0,0,0,0,0,0,0,0,0,-1,993,1240,0,0
-224,-216,0,0,0,0,0,0,0,0,0,-1,1000,1240,0,0
-217,-216,0,0,0,0,0,0,0,0,0,-1,1007,1240,0,0
-210,-216,0,0,0,0,0,0,0,0,0,-1,1014,1240,0,0
-203,-216,0,0,0,0,0,0,0,0,0,-1,1021,1240,0,0
-196,-216,0,0,0,0,0,0,0,0,0,-1,1028,1240,0,0
-189,-216,0,0,0,0,0,0,0,0,0,-1,1035,1240,0,0
-182,-216,0,0,0,0,0,0,0,0,0,-1,1042,1240,0,0
-175,-216,0,0,0,0,0,0,0,0,0,-1,1049,1240,0,0
-168,-216,0,0,0,0,0,0,0,0,0,-1,1056,1240,0,0
-161,-216,0,0,0,0,0,0,0,0,0,-1,1063,1240,0,0
-154,-216,0,0,0,0,0,0,0,0,0,-1,1070,1240,0,0
-147,-216,0,0,0,0,0,0,0,0,0,-1,1077,1240,0,0
-140,-216,0,0,0,0,0,0,0,0,0,-1,1084,1240,0,0
-133,-216,0,0,0,0,0,0,0,0,0,-1,1091,1240,0,0
-126,-216,0,0,0,0,0,0,0,0,0,-1,1098,1240,0,0
-119,-216,0,0,0,0,0,0,0,0,0,-1,1105,1240,0,0
-112,-216,0,0,0,0,0,0,0,0,0,-1,1112,1240,0,0
-105,-216,0,0,0,0,0,0,0,0,0,-1,1119,1240,0,0
-98,-216,0,0,0,0,0,0,0,0,0,-1,1126,1240,0,0
-91,-216,0,0,0,0,0,0,0,0,0,-1,1133,1240,0,0
-84,-216,0,0,0,0,0,0,0,0,0,-1,1140,1240,0,0
-77,-216,0,0,0,0,0,0,0,0,0,-1,1147,1240,0,0
-70,-216,0,0,0,0,0,0,0,0,0,-1,1154,1240,0,0
-63,-216,0,0,0,0,0,0,0,0,0,-1,1161,1240,0,0
-56,-216,0,0,0,0,0,0,0,0,0,-1,1168,1240,0,0
-49,-216,0,0,0,0,0,0,0,0,0,-1,1175,1240,0,0
-42,-216,0,0,0,0,0,0,0,0,0,-1,1182,1240,0,0
-35,-216,0,0,0,0,0,0,0,0,0,-1,1189,1240,0,0
-28,-216,0,0,0,0,0,0,0,0,0,-1,1196,1240,0,0
-21,-216,0,0,0,0,0,0,0,0,0,-1,1203,1240,0,0
-14,-216,0,0,0,0,0,0,0,0,0,-1,1210,1240,0,0
-7,-216,0,0,0,0,0,0,0,0,0,-1,1217,1240,0,0
0,-216,0,0,0,0,0,0,0,0,0,-1,1224,1240,0,0
7,-216,0,0,0,0,0,0,0,0,0,-1,1231,1240,0,0
14,-216,0,0,0,0,0,0,0,0,0,-1,1238,1240,0,0
21,-216,0,0,0,0,0,0,0,0,0,-1,1245,1240,0,0
28,-216,0,0,0,0,0,0,0,0,0,-1,1252,1240,0,0
35,-216,0,0,0,0,0,0,0,0,0,-1,1259,1240,0,0
42,-216,0,0,0,0,0,0,0,0,0,-1,1266,1240,0,0
49,-216,0,0,0,0,0,0,0,0,0,-1,1273,1240,0,0
56,-216,0,0,0,0,0,0,0,0,0,-1,1280,1240,0,0
63,-216,0,0,0,0,0,0,0,0,0,-1,1287,1240,0,0
70,-216,0,0,0,0,0,0,0,0,0,-1,1294,1240,0,0
77,-216,0,0,0,0,0,0,0,0,0,-1,1301,1240,0,0
84,-216,0,0,0,0,0,0,0,0,0,-1,1308,1240,0,0
91,-216,0,0,0,0,0,0,0,0,0,-1,1315,1240,0,0
98,-216,0,0,0,0,0,0,0,0,0,-1,1322,1240,0,0
105,-216,0,0,0,0,0,0,0,0,0,-1,1329,1240,0,0
112,-216,0,0,0,0,0,0,0,0,0,-1,1336,1240,0,0
119,-216,0,0,0,0,0,0,0,0,0,-1,1343,1240,0,0
126,-216,0,0,0,0,0,0,0,0,0,-1,1350,1240,0,0
133,-216,0,0,0,0,0,0,0,0,0,-1,1357,1240,0,0
140,-216,0,0,0,0,0,0,0,0,0,-1,1364,1240,0,0
147,-216,0,0,0,0,0,0,0,0,0,-1,1371,1240,0,0
154,-216,0,0,0,0,0,0,0,0,0,-1,1378,1240,0,0
161,-216,0,0,0,0,0,0,0,0,0,-1,1385,1240,0,0
168,-216,0,0,0,0,0,0,0,0,0,-1,1392,1240,0,0
175,-216,0,0,0,0,0,0,0,0,0,-1,1399,1240,0,0
182,-216,0,0,0,0,0,0,0,0,0,-1,1406,1240,0,0
189,-216,0,0,0,0,0,0,0,0,0,-1,1413,1240,0,0
196,-216,0,0,0,0,0,0,0,0,0,-1,1420,1240,0,0
203,-216,0,0,0,0,0,0,0,0,0,-1,1427,1240,0,0
210,-216,0,0,0,0,0,0,0,0,0,-1,1434,1240,0,0
217,-216,0,0,0,0,0,0,0,0,0,-1,1441,1240,0,0
224,-216,0,0,0,0,0,0,0,0,0,-1,1448,1240,0,0
231,-216,0,0,0,0,0,0,0,0,0,-1,1455,1240,0,0
238,-216,0,0,0,0,0,0,0,0,0,-1,1462,1240,0,0
245,-216,0,0,0,0,0,0,0,0,0,-1,1469,1240,0,0
252,-216,0,0,0,0,0,0,0,0,0,-1,1476,1240,0,0
259,-216,0,0,0,0,0,0,0,0,0,-1,1483,1240,0,0
266,-216,0,0,0,0,0,0,0,0,0,-1,1490,1240,0,0
273,-216,0,0,0,0,0,0,0,0,0,-1,1497,1240,0,0
280,-216,0,0,0,0,0,0,0,0,0,-1,1504,1240,0,0
287,-216,0,0,0,0,0,0,0,0,0,-1,1511,1240,0,0
294,-216,0,0,0,0,0,0,0,0,0,-1,1518,1240,0,0
301,-216,0,0,0,0,0,0,0,0,0,-1,1525,1240,0,0
308,-216,0,0,0,0,0,0,0,0,0,-1,1532,1240,0,0
315,-216,0,0,0,0,0,0,0,0,0,-1,1539,1240,0,0
322,-216,0,0,0,0,0,0,0,0,0,-1,1546,1240,0,0
329,-216,0,0,0,0,0,0,0,0,0,-1,1553,1240,0,0
336,-216,0,0,0,0,0,0,0,0,0,-1,1560,1240,0,0
343,-216,0,0,0,0,0,0,0,0,0,-1,1567,1240,0,0
350,-216,0,0,0,0,0,0,0,0,0,-1,1574,1240,0,0
357,-216,0,0,0,0,0,0,0,0,0,-1,1581,1240,0,0
364,-216,0,0,0,0,0,0,0,0,0,-1,1588,1240,0,0
371,-216,0,0,0,0,0,0,0,0,0,-1,1595,1240,0,0
378,-216,0,0,0,0,0,0,0,0,0,-1,1602,1240,0,0
385,-216,0,0,0,0,0,0,0,0,0,-1,1609,1240,0,0
392,-216,0,0,0,0,0,0,0,0,0,-1,1616,1240,0,0
399,-216,0,0,0,0,0,0,0,0,0,-1,1623,1240,0,0
406,-216,0,0,0,0,0,0,0,0,0,-1,1630,1240,0,0
413,-216,0,0,0,0,0,0,0,0,0,-1,1637,1240,0,0
420,-216,0,0,0,0,0,0,0,0,0,-1,1644,1240,0,0
427,-216,0,0,0,0,0,0,0,0,0,-1,1651,1240,0,0
434,-216,0,0,0,0,0,0,0,0,0,-1,1658,1240,0,0
441,-216,0,0,0,0,0,0,0,0,0,-1,1665,1240,0,0
448,-216,0,0,0,0,0,0,0,0,0,-1,1672,1240,0,0
455,-216,0,0,0,0,0,0,0,0,0,-1,1679,1240,0,0
462,-216,0,0,0,0,0,0,0,0,0,-1,1686,1240,0,0
469,-216,0,0,0,0,0,0,0,0,0,-1,1693,1240,0,0
476,-216,0,0,0,0,0,0,0,0,0,-1,1700,1240,0,0
483,-216,0,0,0,0,0,0,0,0,0,-1,1707,1240,0,0
490,-216,0,0,0,0,0,0,0,0,0,-1,1714,1240,0,0
497,-216,0,0,0,0,0,0,0,0,0,-1,1721,1240,0,0
504,-216,0,0,0,0,0,0,0,0,0,-1,1728,1240,0,0
511,-216,0,0,0,0,0,0,0,0,0,-1,1735,1240,0,0
518,-216,0,0,0,0,0,0,0,0,0,-1,1742,1240,0,0
525,-216,0,0,0,0,0,0,0,0,0,-1,1749,1240,0,0
532,-216,0,0,0,0,0,0,0,0,0,-1,1756,1240,0,0
539,-216,0,0,0,0,0,0,0,0,0,-1,1763,1240,0,0
546,-216,0,0,0,0,0,0,0,0,0,-1,1770,1240,0,0
553,-216,0,0,0,0,0,0,0,0,0,-1,1777,1240,0,0
560,-216,0,0,0,0,0,0,0,0,0,-1,1784,1240,0,0
567,-216,0,0,0,0,0,0,0,0,0,-1,1791,1240,0,0
574,-216,0,0,0,0,0,0,0,0,0,-1,1798,1240,0,0
581,-216,0,0,0,0,0,0,0,0,0,-1,1805,1240,0,0
588,-216,0,0,0,0,0,0,0,0,0,-1,1812,1240,0,0
595,-216,0,0,0,0,0,0,0,0,0,-1,1819,1240,0,0
602,-216,0,0,0,0,0,0,0,0,0,-1,1826,1240,0,0
609,-216,0,0,0,0,0,0,0,0,0,-1,1833,1240,0,0
616,-216,0,0,0,0,0,0,0,0,0,-1,1840,1240,0,0
623,-216,-0.0380859,-0.0628662,-0.00517683,0.00423147,-0.000551633,0.0042637,-0.00520906,-1.51243,0.00547817,0.0369329,1847,1240,-0.0380498,0.0628458
630,-216,-0.098999,-0.0482178,-0.00231408,0.00255084,0.00104755,0.00276682,-0.00253005,1.36747,0.00305917,0.0350846,1854,1240,-0.0990027,0.0482414
637,-216,-0.0695801,-0.0372314,-0.000287561,0.00023435,0.00191639,0.00190747,-0.00196068,0.853067,0.00223335,0.0291968,1861,1240,-0.0695859,0.0372557
644,-216,-0.0931396,-0.0490723,0.000281466,-0.00162701,0.00244234,0.00194936,-0.00329491,0.599163,0.00306082,0.0216423,1868,1240,-0.0931407,0.0490602
651,-216,-0.083374,-0.0549316,0.00017351,-0.00292909,0.0025762,0.00162942,-0.00438501,0.514393,0.00359186,0.0173659,1875,1240,-0.0833444,0.0549785
658,-216,-0.0900879,-0.0600586,-0.000289444,-0.00371061,0.00247021,0.00100464,-0.00500469,0.482565,0.00371688,0.0252083,1882,1240,-0.090039,0.0600728
665,-216,-0.27002,-0.271851,-0.000932391,-0.00404665,0.00223164,0.000231671,-0.00521071,0.480791,0.00355355,0.0382934,1889,1240,-0.269968,0.271847
672,-216,-0.169922,-0.421021,-0.00160862,-0.0040807,0.00195089,-0.00053517,-0.00515415,0.503025,0.00327233,0.0440073,1896,1240,-0.169864,0.421012
679,-216,0.413086,-0.348877,-0.0021944,-0.0038393,0.00166017,-0.00116412,-0.00486957,0.555417,0.0029363,0.0455627,1903,1240,0.413122,0.348874
686,-216,0.551636,-0.0395508,-0.00264363,-0.00350883,0.00133578,-0.00167215,-0.00448032,0.628799,0.00261428,0.0462165,1910,1240,0.551662,0.0395587
693,-216,-0.0311279,-0.101318,-0.00291398,-0.00304276,0.000997314,-0.00197898,-0.00397776,0.753162,0.00229657,0.0292715,1917,1240,-0.0311237,0.101269
700,-216,-0.0749512,-0.0770264,-0.00306084,-0.00245205,0.000643907,-0.00204422,-0.00346867,1.00619,0.00201327,0.0116592,1924,1240,-0.0749746,0.0770731
707,-216,-0.0770264,-0.0577393,-0.00299606,-0.00165794,0.000387154,-0.001554,-0.0031,1.30851,0.00178979,0.0129857,1931,1240,-0.0770767,0.0577192
714,-216,-0.0765381,-0.059082,-0.00287166,-0.000783907,-1.66226e-05,-0.000783775,-0.00287179,-1.56283,0.00171408,0.0126145,1938,1240,-0.0765942,0.0590619
721,-216,-0.0803223,-0.0446777,-0.0027578,-3.00189e-05,-0.000339744,1.16593e-05,-0.00279948,-1.44873,0.00187022,0.0126303,1945,1240,-0.0802832,0.0446731
728,-216,-0.0727539,-0.045166,-0.0026125,0.000166298,-0.000834455,0.000397622,-0.00284382,-1.30037,0.00204137,0.0106911,1952,1240,-0.0727882,0.0451298
735,-216,-0.0610352,-0.0648193,-0.00237987,0.000913916,-0.00110164,0.0012484,-0.00271436,-1.27602,0.0023395,0.00836968,1959,1240,-0.0609762,0.0648613
742,-216,-0.0678711,-0.0491943,-0.00181368,0.00133682,-0.00153279,0.00195949,-0.00243635,-1.18493,0.00254292,0.00844429,1966,1240,-0.0678215,0.0492397
749,-216,-0.0632324,-0.0477295,-0.00203838,0.00176034,-0.00194513,0.00257964,-0.00285768,-1.17215,0.0031406,0.00807438,1973,1240,-0.0632927,0.0477331
756,-216,-0.0783691,-0.0466309,-0.00272806,0.00219017,-0.00239284,0.00316223,-0.00370011,-1.18493,0.00396603,0.00888844,1980,1240,-0.0783695,0.0465886
763,-216,-0.0943604,-0.0180664,-0.00355902,0.00281787,-0.00279428,0.00386902,-0.00461017,-1.21099,0.00490169,0.0146342,1987,1240,-0.0943509,0.0180857
770,-216,-0.0872803,0.095459,-0.00440946,0.00355232,-0.00305209,0.00458768,-0.00544482,-1.24375,0.0057993,0.0367074,1994,1240,-0.0873194,-0.0954819
777,-216,-0.0474854,-0.0537109,-0.00517053,0.00436069,-0.00301591,0.00523483,-0.00604466,-1.28868,0.00651781,0.0445411,2001,1240,-0.047455,0.0537225
784,-216,0.0709229,-0.536499,0,0,0,0,0,0,0,-1,2008,1240,0.0709321,0.536441
791,-216,0.307129,-0.118286,0,0,0,0,0,0,0,-1,2015,1240,0.307148,0.118286
798,-216,0,0,0,0,0,0,0,0,0,-1,2022,1240,0,0
805,-216,0,0,0,0,0,0,0,0,0,-1,2029,1240,0,0
812,-216,0,0,0,0,0,0,0,0,0,-1,2036,1240,0,0
-700,-223,0,0,0,0,0,0,0,0,0,-1,524,1247,0,0
-693,-223,0,0,0,0,0,0,0,0,0,-1,531,1247,0,0
-686,-223,0,0,0,0,0,0,0,0,0,-1,538,1247,0,0
-679,-223,0,0,0,0,0,0,0,0,0,-1,545,1247,0,0
-672,-223,0.0478516,-0.0112305,0,0,0,0,0,0,0,-1,552,1247,0.0478753,0.0112059
-665,-223,-0.422729,-0.281738,0,0,0,0,0,0,0,-1,559,1247,-0.422748,0.281799
-658,-223,-0.820251,-0.27478,0,0,0,0,0,0,0,-1,566,1247,-0.820235,0.274787
-651,-223,-1.17719,-0.131958,0,0,0,0,0,0,0,-1,573,1247,-1.17716,0.131973
-644,-223,-0.67572,0.282837,0,0,0,0,0,0,0,-1,580,1247,-0.675719,-0.282894
-637,-223,-0.00158691,0.247681,0,0,0,0,0,0,0,-1,587,1247,-0.00157512,-0.247729
-630,-223,-0.0632935,0.0667725,0,0,0,0,0,0,0,-1,594,1247,-0.0632961,-0.0667451
-623,-223,-0.0888062,-0.0744629,0.0041878,0.00572091,-0.000138712,0.00573336,0.00417535,-1.48129,0.0034232,0.0199282,601,1247,-0.0888172,0.074466
-616,-223,-0.114441,-0.0548096,0.00364197,0.00382722,-0.000374282,0.00412017,0.00334902,-0.906701,0.00252923,0.0147861,608,1247,-0.114452,0.0548618
-609,-223,-0.0980835,-0.0457764,0.00341598,0.00323125,-0.00088666,0.00421507,0.00243216,-0.733502,0.00244318,0.0115268,615,1247,-0.0980965,0.0457413
-602,-223,-0.0847168,-0.0692139,0.00259585,0.00193031,-0.00121883,0.00352652,0.000999635,-0.652134,0.00209872,0.0139646,622,1247,-0.0847239,0.0691975
-595,-223,-0.0491943,-0.0516357,0.00133203,0.00125198,-0.000531987,0.00182549,0.000758511,-0.74785,0.00105895,0.0184277,629,1247,-0.0492072,0.0515955
-588,-223,-0.0326538,-0.0604248,0.000349739,0.00127995,0.000360445,0.00140327,0.00022642,1.24115,0.000869915,0.0192185,636,1247,-0.0326273,0.0603681
-581,-223,-0.052063,-0.0664063,0.000147127,0.00173697,0.000280812,0.00178511,9.89855e-05,1.40101,0.00115849,0.0170754,643,1247,-0.0520897,0.0664075
-574,-223,-0.0960083,-0.0870361,0.000507799,0.00145739,0.000269396,0.00152849,0.000436696,1.31275,0.000909092,0.0148127,650,1247,-0.0960208,0.0869819
-567,-223,-0.0847778,-0.0800781,0.00106058,0.00153311,0.000198862,0.00160566,0.000988028,1.22097,0.000935213,0.0194549,657,1247,-0.0847546,0.0800748
-560,-223,-0.0932007,-0.0872803,0.00150492,0.00119501,0.000186169,0.00159219,0.00110775,0.43832,0.000942436,0.0303998,664,1247,-0.0931802,0.0873374
-553,-223,-0.167603,-0.0622559,0.00218307,0.000652666,4.07037e-06,0.00218308,0.000652656,0.00265964,0.00129392,0.0425623,671,1247,-0.167624,0.0622828
-546,-223,-0.217773,-0.0467529,0,0,0,0,0,0,0,-1,678,1247,-0.217785,0.0467143
-539,-223,-0.15802,0.391357,0.00390868,-0.000656677,-0.000825361,0.00405332,-0.00080131,-0.173475,0.00300514,0.0448439,685,1247,-0.158043,-0.391399
-532,-223,-0.191101,0.275879,0.00492225,-0.001461,-0.00144989,0.00523614,-0.0017749,-0.213203,0.00420904,0.0432437,692,1247,-0.191123,-0.27591
-525,-223,-0.233215,0.196045,0.00582473,-0.00228028,-0.00218527,0.00637637,-0.00283193,-0.247272,0.00544611,0.0429869,699,1247,-0.233213,-0.195987
-518,-223,-0.14325,0.0281982,0.00634857,-0.00306751,-0.00296669,0.00720532,-0.00392426,-0.281141,0.00651808,0.0422766,706,1247,-0.143257,-0.0282394
-511,-223,-0.0235596,-0.215942,0.006186,-0.00378004,-0.00368938,0.00740314,-0.00499719,-0.318661,0.00720411,0.0379768,713,1247,-0.0235318,0.215981
-504,-223,0.0111694,-0.332275,0.00497822,-0.00353442,-0.00430802,0.00677792,-0.00533412,-0.395717,0.00700943,0.0359527,720,1247,0.0111837,0.332309
-497,-223,0,0,0,0,0,0,0,0,0,-1,727,1247,0,0
-490,-223,0,0,0,0,0,0,0,0,0,-1,734,1247,0,0
-483,-223,0,0,0,0,0,0,0,0,0,-1,741,1247,0,0
-476,-223,0,0,0,0,0,0,0,0,0,-1,748,1247,0,0
-469,-223,0,0,0,0,0,0,0,0,0,-1,755,1247,0,0
-462,-223,0,0,0,0,0,0,0,0,0,-1,762,1247,0,0
-455,-223,0,0,0,0,0,0,0,0,0,-1,769,1247,0,0
-448,-223,0,0,0,0,0,0,0,0,0,-1,776,1247,0,0
-441,-223,0,0,0,0,0,0,0,0,0,-1,783,1247,0,0
-434,-223,0,0,0,0,0,0,0,0,0,-1,790,1247,0,0
-427,-223,0,0,0,0,0,0,0,0,0,-1,797,1247,0,0
-420,-223,0,0,0,0,0,0,0,0,0,-1,804,1247,0,0
-413,-223,0,0,0,0,0,0,0,0,0,-1,811,1247,0,0
-406,-223,0,0,0,0,0,0,0,0,0,-1,818,1247,0,0
-399,-223,0,0,0,0,0,0,0,0,0,-1,825,1247,0,0
-392,-223,0,0,0,0,0,0,0,0,0,-1,832,1247,0,0
-385,-223,0,0,0,0,0,0,0,0,0,-1,839,1247,0,0
-378,-223,0,0,0,0,0,0,0,0,0,-1,846,1247,0,0
-371,-223,0,0,0,0,0,0,0,0,0,-1,853,1247,0,0
-364,-223,0,0,0,0,0,0,0,0,0,-1,860,1247,0,0
-357,-223,0,0,0,0,0,0,0,0,0,-1,867,1247,0,0
-350,-223,0,0,0,0,0,0,0,0,0,-1,874,1247,0,0
-343,-223,0,0,0,0,0,0,0,0,0,-1,881,1247,0,0
-336,-223,0,0,0,0,0,0,0,0,0,-1,888,1247,0,0
-329,-223,0,0,0,0,0,0,0,0,0,-1,895,1247,0,0
-322,-223,0,0,0,0,0,0,0,0,0,-1,902,1247,0,0
-315,-223,0,0,0,0,0,0,0,0,0,-1,909,1247,0,0
-308,-223,0,0,0,0,0,0,0,0,0,-1,916,1247,0,0
-301,-223,0,0,0,0,0,0,0,0,0,-1,923,1247,0,0
-294,-223,0,0,0,0,0,0,0,0,0,-1,930,1247,0,0
-287,-223,0,0,0,0,0,0,0,0,0,-1,937,1247,0,0
-280,-223,0,0,0,0,0,0,0,0,0,-1,944,1247,0,0
-273,-223,0,0,0,0,0,0,0,0,0,-1,951,1247,0,0
-266,-223,0,0,0,0,0,0,0,0,0,-1,958,1247,0,0
-259,-223,0,0,0,0,0,0,0,0,0,-1,965,1247,0,0
-252,-223,0,0,0,0,0,0,0,0,0,-1,972,1247,0,0
-245,-223,0,0,0,0,0,0,0,0,0,-1,979,1247,0,0
-238,-223,0,0,0,0,0,0,0,0,0,-1,986,1247,0,0
-231,-223,0,0,0,0,0,0,0,0,0,-1,993,1247,0,0
-224,-223,0,0,0,0,0,0,0,0,0,-1,1000,1247,0,0
-217,-223,0,0,0,0,0,0,0,0,0,-1,1007,1247,0,0
-210,-223,0,0,0,0,0,0,0,0,0,-1,1014,1247,0,0
-203,-223,0,0,0,0,0,0,0,0,0,-1,1021,1247,0,0
-196,-223,0,0,0,0,0,0,0,0,0,-1,1028,1247,0,0
-189,-223,0,0,0,0,0,0,0,0,0,-1,1035,1247,0,0
-182,-223,0,0,0,0,0,0,0,0,0,-1,1042,1247,0,0
-175,-223,0,0,0,0,0,0,0,0,0,-1,1049,1247,0,0
-168,-223,0,0,0,0,0,0,0,0,0,-1,1056,1247,0,0
-161,-223,0,0,0,0,0,0,0,0,0,-1,1063,1247,0,0
-154,-223,0,0,0,0,0,0,0,0,0,-1,1070,1247,0,0
-147,-223,0,0,0,0,0,0,0,0,0,-1,1077,1247,0,0
-140,-223,0,0,0,0,0,0,0,0,0,-1,1084,1247,0,0
-133,-223,0,0,0,0,0,0,0,0,0,-1,1091,1247,0,0
-126,-223,0,0,0,0,0,0,0,0,0,-1,1098,1247,0,0
-119,-223,0,0,0,0,0,0,0,0,0,-1,1105,1247,0,0
-112,-223,0,0,0,0,0,0,0,0,0,-1,1112,1247,0,0
-105,-223,0,0,0,0,0,0,0,0,0,-1,1119,1247,0,0
-98,-223,0,0,0,0,0,0,0,0,0,-1,1126,1247,0,0
-91,-223,0,0,0,0,0,0,0,0,0,-1,1133,1247,0,0
-84,-223,0,0,0,0,0,0,0,0,0,-1,1140,1247,0,0
-77,-223,0,0,0,0,0,0,0,0,0,-1,1147,1247,0,0
-70,-223,0,0,0,0,0,0,0,0,0,-1,1154,1247,0,0
-63,-223,0,0,0,0,0,0,0,0,0,-1,1161,1247,0,0
-56,-223,0,0,0,0,0,0,0,0,0,-1,1168,1247,0,0
-49,-223,0,0,0,0,0,0,0,0,0,-1,1175,1247,0,0
-42,-223,0,0,0,0,0,0,0,0,0,-1,1182,1247,0,0
-35,-223,0,0,0,0,0,0,0,0,0,-1,1189,1247,0,0
-28,-223,0,0,0,0,0,0,0,0,0,-1,1196,1247,0,0
-21,-223,0,0,0,0,0,0,0,0,0,-1,1203,1247,0,0
-14,-223,0,0,0,0,0,0,0,0,0,-1,1210,1247,0,0
-7,-223,0,0,0,0,0,0,0,0,0,-1,1217,1247,0,0
0,-223,0,0,0,0,0,0,0,0,0,-1,1224,1247,0,0
7,-223,0,0,0,0,0,0,0,0,0,-1,1231,1247,0,0
14,-223,0,0,0,0,0,0,0,0,0,-1,1238,1247,0,0
21,-223,0,0,0,0,0,0,0,0,0,-1,1245,1247,0,0
28,-223,0,0,0,0,0,0,0,0,0,-1,1252,1247,0,0
35,-223,0,0,0,0,0,0,0,0,0,-1,1259,1247,0,0
42,-223,0,0,0,0,0,0,0,0,0,-1,1266,1247,0,0
49,-223,0,0,0,0,0,0,0,0,0,-1,1273,1247,0,0
56,-223,0,0,0,0,0,0,0,0,0,-1,1280,1247,0,0
63,-223,0,0,0,0,0,0,0,0,0,-1,1287,1247,0,0
70,-223,0,0,0,0,0,0,0,0,0,-1,1294,1247,0,0
77,-223,0,0,0,0,0,0,0,0,0,-1,1301,1247,0,0
84,-223,0,0,0,0,0,0,0,0,0,-1,1308,1247,0,0
91,-223,0,0,0,0,0,0,0,0,0,-1,1315,1247,0,0
98,-223,0,0,0,0,0,0,0,0,0,-1,1322,1247,0,0
105,-223,0,0,0,0,0,0,0,0,0,-1,1329,1247,0,0
112,-223,0,0,0,0,0,0,0,0,0,-1,1336,1247,0,0
119,-223,0,0,0,0,0,0,0,0,0,-1,1343,1247,0,0
126,-223,0,0,0,0,0,0,0,0,0,-1,1350,1247,0,0
133,-223,0,0,0,0,0,0,0,0,0,-1,1357,1247,0,0
140,-223,0,0,0,0,0,0,0,0,0,-1,1364,1247,0,0
147,-223,0,0,0,0,0,0,0,0,0,-1,1371,1247,0,0
154,-223,0,0,0,0,0,0,0,0,0,-1,1378,1247,0,0
161,-223,0,0,0,0,0,0,0,0,0,-1,1385,1247,0,0
168,-223,0,0,0,0,0,0,0,0,0,-1,1392,1247,0,0
175,-223,0,0,0,0,0,0,0,0,0,-1,1399,1247,0,0
182,-223,0,0,0,0,0,0,0,0,0,-1,1406,1247,0,0
189,-223,0,0,0,0,0,0,0,0,0,-1,1413,1247,0,0
196,-223,0,0,0,0,0,0,0,0,0,-1,1420,1247,0,0
203,-223,0,0,0,0,0,0,0,0,0,-1,1427,1247,0,0
210,-223,0,0,0,0,0,0,0,0,0,-1,1434,1247,0,0
217,-223,0,0,0,0,0,0,0,0,0,-1,1441,1247,0,0
224,-223,0,0,0,0,0,0,0,0,0,-1,1448,1247,0,0
231,-223,0,0,0,0,0,0,0,0,0,-1,1455,1247,0,0
238,-223,0,0,0,0,0,0,0,0,0,-1,1462,1247,0,0
245,-223,0,0,0,0,0,0,0,0,0,-1,1469,1247,0,0
252,-223,0,0,0,0,0,0,0,0,0,-1,1476,1247,0,0
259,-223,0,0,0,0,0,0,0,0,0,-1,1483,1247,0,0
266,-223,0,0,0,0,0,0,0,0,0,-1,1490,1247,0,0
273,-223,0,0,0,0,0,0,0,0,0,-1,1497,1247,0,0
280,-223,0,0,0,0,0,0,0,0,0,-1,1504,1247,0,0
287,-223,0,0,0,0,0,0,0,0,0,-1,1511,1247,0,0
294,-223,0,0,0,0,0,0,0,0,0,-1,1518,1247,0,0
301,-223,0,0,0,0,0,0,0,0,0,-1,1525,1247,0,0
308,-223,0,0,0,0,0,0,0,0,0,-1,1532,1247,0,0
315,-223,0,0,0,0,0,0,0,0,0,-1,1539,1247,0,0
322,-223,0,0,0,0,0,0,0,0,0,-1,1546,1247,0,0
329,-223,0,0,0,0,0,0,0,0,0,-1,1553,1247,0,0
336,-223,0,0,0,0,0,0,0,0,0,-1,1560,1247,0,0
343,-223,0,0,0,0,0,0,0,0,0,-1,1567,1247,0,0
350,-223,0,0,0,0,0,0,0,0,0,-1,1574,1247,0,0
357,-223,0,0,0,0,0,0,0,0,0,-1,1581,1247,0,0
364,-223,0,0,0,0,0,0,0,0,0,-1,1588,1247,0,0
371,-223,0,0,0,0,0,0,0,0,0,-1,1595,1247,0,0
378,-223,0,0,0,0,0,0,0,0,0,-1,1602,1247,0,0
385,-223,0,0,0,0,0,0,0,0,0,-1,1609,1247,0,0
392,-223,0,0,0,0,0,0,0,0,0,-1,1616,1247,0,0
399,-223,0,0,0,0,0,0,0,0,0,-1,1623,1247,0,0
406,-223,0,0,0,0,0,0,0,0,0,-1,1630,1247,0,0
413,-223,0,0,0,0,0,0,0,0,0,-1,1637,1247,0,0
420,-223,0,0,0,0,0,0,0,0,0,-1,1644,1247,0,0
427,-223,0,0,0,0,0,0,0,0,0,-1,1651,1247,0,0
434,-223,0,0,0,0,0,0,0,0,0,-1,1658,1247,0,0
441,-223,0,0,0,0,0,0,0,0,0,-1,1665,1247,0,0
448,-223,0,0,0,0,0,0,0,0,0,-1,1672,1247,0,0
455,-223,0,0,0,0,0,0,0,0,0,-1,1679,1247,0,0
462,-223,0,0,0,0,0,0,0,0,0,-1,1686,1247,0,0
469,-223,0,0,0,0,0,0,0,0,0,-1,1693,1247,0,0
476,-223,0,0,0,0,0,0,0,0,0,-1,1700,1247,0,0
483,-223,0,0,0,0,0,0,0,0,0,-1,1707,1247,0,0
490,-223,0,0,0,0,0,0,0,0,0,-1,1714,1247,0,0
497,-223,0,0,0,0,0,0,0,0,0,-1,1721,1247,0,0
504,-223,0,0,0,0,0,0,0,0,0,-1,1728,1247,0,0
511,-223,0,0,0,0,0,0,0,0,0,-1,1735,1247,0,0
518,-223,0,0,0,0,0,0,0,0,0,-1,1742,1247,0,0
525,-223,0,0,0,0,0,0,0,0,0,-1,1749,1247,0,0
532,-223,0,0,0,0,0,0,0,0,0,-1,1756,1247,0,0
539,-223,0,0,0,0,0,0,0,0,0,-1,1763,1247,0,0
546,-223,0,0,0,0,0,0,0,0,0,-1,1770,1247,0,0
553,-223,0,0,0,0,0,0,0,0,0,-1,1777,1247,0,0
560,-223,0,0,0,0,0,0,0,0,0,-1,1784,1247,0,0
567,-223,0,0,0,0,0,0,0,0,0,-1,1791,1247,0,0
574,-223,0,0,0,0,0,0,0,0,0,-1,1798,1247,0,0
581,-223,0,0,0,0,0,0,0,0,0,-1,1805,1247,0,0
588,-223,0,0,0,0,0,0,0,0,0,-1,1812,1247,0,0
595,-223,0,0,0,0,0,0,0,0,0,-1,1819,1247,0,0
602,-223,0,0,0,0,0,0,0,0,0,-1,1826,1247,0,0
609,-223,0,0,0,0,0,0,0,0,0,-1,1833,1247,0,0
616,-223,0,0,0,0,0,0,0,0,0,-1,1840,1247,0,0
623,-223,-0.131958,0.124268,-0.00434238,0.00437674,0.000854528,0.00445969,-0.00442534,1.47402,0.00512979,0.0347249,1847,1247,-0.131942,-0.124274
630,-223,-0.163696,0.0529785,-0.00194279,0.0021347,0.00203034,0.00297324,-0.00278133,1.17913,0.00332302,0.0331612,1854,1247,-0.163648,-0.0530391
637,-223,-0.109253,-0.0272217,-0.000348072,-0.000464249,0.00256569,0.00216018,-0.0029725,0.77408,0.0029757,0.0263275,1861,1247,-0.109192,0.0272215
644,-223,-0.0789795,-0.0849609,8.96068e-05,-0.00250925,0.00277249,0.00185208,-0.00427172,0.566257,0.00362641,0.0185037,1868,1247,-0.0789945,0.0850169
651,-223,-0.0980225,-0.0681152,2.58642e-07,-0.00390789,0.00268726,0.0013688,-0.00527643,0.471036,0.0040517,0.019727,1875,1247,-0.0980366,0.0680974
658,-223,-0.147827,-0.0895996,-0.000408476,-0.00472937,0.00244391,0.000693012,-0.00583086,0.423442,0.00413764,0.0359861,1882,1247,-0.147812,0.0896309
665,-223,0.567139,0.103516,-0.000986803,-0.0050336,0.00211768,-8.12607e-05,-0.00593915,0.40408,0.00393262,0.042989,1889,1247,0.567131,-0.103556
672,-223,1.00134,0.349854,-0.00161221,-0.00499873,0.00178802,-0.000842918,-0.00576802,0.406305,0.00359744,0.045624,1896,1247,1.00134,-0.349794
679,-223,0.53186,0.167603,-0.00216726,-0.00465658,0.00148391,-0.00147512,-0.00534871,0.436429,0.00318989,0.045945,1903,1247,0.531892,-0.167559
686,-223,0.244385,0.0721436,-0.00257978,-0.00423626,0.0011524,-0.00198886,-0.00482718,0.473811,0.00280132,0.0433355,1910,1247,0.244366,-0.0721928
693,-223,-0.0664063,-0.0524902,-0.00284308,-0.00364675,0.000808065,-0.00234245,-0.00414738,0.554663,0.00240118,0.0195205,1917,1247,-0.0664097,0.0524569
700,-223,-0.0792236,-0.0657959,-0.00303087,-0.00292567,0.000480432,-0.00249497,-0.00346157,0.839927,0.00206245,0.00872868,1924,1247,-0.0791663,0.0657438
707,-223,-0.0734863,-0.0515137,-0.00297648,-0.00186612,0.000283903,-0.00179774,-0.00304486,1.33444,0.0017675,0.01103,1931,1247,-0.0734794,0.0514926
714,-223,-0.0665283,-0.0629883,-0.00284614,-0.000602974,-0.000130871,-0.000595364,-0.00285375,-1.51272,0.00173837,0.0104463,1938,1247,-0.0665619,0.0630001
721,-223,-0.0737305,-0.055542,-0.00279062,0.000403128,-0.000464263,0.000469247,-0.00285674,-1.42933,0.00207864,0.0136549,1945,1247,-0.0736823,0.0555719
728,-223,-0.0870361,-0.0496826,-0.00277395,0.000741301,-0.00107231,0.00104258,-0.00307523,-1.29689,0.00247209,0.01395,1952,1247,-0.0870627,0.0496843
735,-223,-0.0787354,-0.0579834,-0.00277553,0.00170646,-0.00151048,0.00216798,-0.00323705,-1.27426,0.00314088,0.00987081,1959,1247,-0.0787465,0.0579575
742,-223,-0.0837402,-0.0516357,-0.00251717,0.00236869,-0.00206781,0.00312635,-0.00327483,-1.21958,0.00369605,0.00851288,1966,1247,-0.0837673,0.051617
749,-223,-0.083374,-0.0499268,-0.00314896,0.00309124,-0.00270937,0.00410342,-0.00416114,-1.21327,0.00477158,0.00888894,1973,1247,-0.0833539,0.0498865
756,-223,-0.0788574,-0.0473633,-0.00435463,0.00385456,-0.0034268,0.00509698,-0.00559706,-1.22297,0.00617646,0.0106221,1980,1247,-0.0788693,0.0473574
763,-223,-0.0736084,-0.0634766,-0.00585256,0.00474887,-0.00412517,0.00616489,-0.00726859,-1.24013,0.00776455,0.0133207,1987,1247,-0.0735736,0.0635265
770,-223,-0.120361,0.0537109,-0.00755662,0.00569658,-0.00467602,0.00718028,-0.00904032,-1.26354,0.00938547,0.0338395,1994,1247,-0.120346,-0.0537013
777,-223,-0.176636,0.174194,0,0,0,0,0,0,0,-1,2001,1247,-0.176606,-0.174164
784,-223,0.149292,-0.259155,-0.0110984,0.00757657,-0.00447116,0.00859186,-0.0121137,-1.34751,0.0120119,0.0462619,2008,1247,0.14926,0.259214
791,-223,0.233765,-0.359131,-0.0123677,0.00833578,-0.00304337,0.00877388,-0.0128058,-1.42783,0.0125313,0.0495125,2015,1247,0.233791,0.359118
798,-223,0,0,0,0,0,0,0,0,0,-1,2022,1247,0,0
805,-223,0,0,0,0,0,0,0,0,0,-1,2029,1247,0,0
812,-223,0,0,0,0,0,0,0,0,0,-1,2036,1247,0,0
-700,-230,0,0,0,0,0,0,0,0,0,-1,524,1254,0,0
-693,-230,0,0,0,0,0,0,0,0,0,-1,531,1254,0,0
-686,-230,0,0,0,0,0,0,0,0,0,-1,538,1254,0,0
-679,-230,0,0,0,0,0,0,0,0,0,-1,545,1254,0,0
-672,-230,-0.12738,0.209961,0.0150566,0.0440634,0.00853718,0.0463895,0.0127305,1.30479,0.0276766,0.0452409,552,1254,-0.127377,-0.209919
-665,-230,-1.37091,0.445923,0,0,0,0,0,0,0,-1,559,1254,-1.37093,-0.445873
-658,-230,-0.977417,0.279175,0,0,0,0,0,0,0,-1,566,1254,-0.977412,-0.279184
-651,-230,-0.666077,0.183594,0,0,0,0,0,0,0,-1,573,1254,-0.666062,-0.183654
-644,-230,-0.276611,0.163452,0.0101072,0.020389,0.00242476,0.0209322,0.00956403,1.35044,0.0121001,0.0449447,580,1254,-0.276596,-0.163459
-637,-230,0.0685425,0.315674,0,0,0,0,0,0,0,-1,587,1254,0.0685437,-0.315639
-630,-230,0.0167847,0.17041,0.00736313,0.0117234,0.000614672,0.0118084,0.00727814,1.43339,0.00687883,0.0417907,594,1254,0.0168077,-0.170371
-623,-230,-0.0474854,0.0124512,0.00564888,0.00817875,0.000393163,0.00823844,0.00558919,1.42012,0.00485637,0.0255482,601,1254,-0.0474703,-0.0124784
-616,-230,-0.103271,-0.0537109,0.00479705,0.00574309,-7.22628e-05,0.00574858,0.00479156,-1.495,0.00355656,0.0154084,608,1254,-0.103273,0.0537543
-609,-230,-0.104065,-0.0625,0.00411169,0.00461696,-0.000690277,0.00509938,0.00362927,-0.960822,0.00303082,0.011634,615,1254,-0.104065,0.0624435
-602,-230,-0.0819092,-0.0640869,0.00286268,0.00245746,-0.00111775,0.00379604,0.00152411,-0.695739,0.00220577,0.0108521,622,1254,-0.0818838,0.0640782
-595,-230,-0.0612183,-0.0570068,0.00141826,0.0013978,-0.000585302,0.00199342,0.000822638,-0.77666,0.00115674,0.016577,629,1254,-0.0612227,0.0570403
-588,-230,-0.0543823,-0.101196,0.000408663,0.00112559,0.00030382,0.00123702,0.000297229,1.21926,0.00074562,0.0224154,636,1254,-0.0543935,0.101201
-581,-230,-0.076355,-0.0968018,0.000238375,0.00142425,0.000178782,0.00145062,0.000212008,1.42437,0.000904728,0.0210305,643,1254,-0.0763245,0.0968538
-574,-230,-0.0925903,-0.0803223,0.000685121,0.000994961,8.72995e-06,0.000995207,0.000684875,1.54265,0.00058799,0.0150584,650,1254,-0.0926198,0.0803487
-567,-230,-0.0814209,-0.0799561,0.00129803,0.001137,-0.000246803,0.00147712,0.00095791,-0.627731,0.000865261,0.015345,657,1254,-0.0814212,0.0798988
-560,-230,-0.0673218,-0.0837402,0.00183596,0.000825675,-0.000372044,0.00195818,0.000703453,-0.317407,0.00114539,0.0250404,664,1254,-0.0673134,0.0837711
-553,-230,-0.108398,-0.0948486,0.00267638,0.00038088,-0.000743669,0.00289625,0.000161014,-0.287461,0.00187946,0.0401033,671,1254,-0.108378,0.0948944
-546,-230,-0.131531,-0.118286,0,0,0,0,0,0,0,-1,678,1254,-0.131502,0.118258
-539,-230,-0.207825,0.505249,0,0,0,0,0,0,0,-1,685,1254,-0.207812,-0.505238
-532,-230,-0.242981,0.54248,0.00569539,-0.000937608,-0.00265257,0.00662569,-0.00186791,-0.337313,0.00515386,0.048611,692,1254,-0.242981,-0.542464
-525,-230,-0.358582,0.353882,0.00664381,-0.00139838,-0.00339746,0.00788693,-0.0026415,-0.350766,0.00632506,0.0476117,699,1254,-0.358557,-0.353856
-518,-230,-0.167908,0.0690918,0.00718114,-0.00180056,-0.00403031,0.00872445,-0.00334388,-0.365702,0.00719478,0.0420102,706,1254,-0.167878,-0.0690618
-511,-230,-0.0809326,-0.140137,0.00699602,-0.00212149,-0.00439286,0.0087681,-0.00389357,-0.383434,0.00748862,0.0362675,713,1254,-0.0809429,0.140155
-504,-230,-0.0559082,-0.109741,0.00567206,-0.00177499,-0.00430404,0.0076397,-0.00374263,-0.428794,0.00669875,0.0334042,720,1254,-0.0559299,0.109769
-497,-230,0,0,0,0,0,0,0,0,0,-1,727,1254,0,0
-490,-230,0,0,0,0,0,0,0,0,0,-1,734,1254,0,0
-483,-230,0,0,0,0,0,0,0,0,0,-1,741,1254,0,0
-476,-230,0,0,0,0,0,0,0,0,0,-1,748,1254,0,0
-469,-230,0,0,0,0,0,0,0,0,0,-1,755,1254,0,0
-462,-230,0,0,0,0,0,0,0,0,0,-1,762,1254,0,0
-455,-230,0,0,0,0,0,0,0,0,0,-1,769,1254,0,0
-448,-230,0,0,0,0,0,0,0,0,0,-1,776,1254,0,0
-441,-230,0,0,0,0,0,0,0,0,0,-1,783,1254,0,0
-434,-230,0,0,0,0,0,0,0,0,0,-1,790,1254,0,0
-427,-230,0,0,0,0,0,0,0,0,0,-1,797,1254,0,0
-420,-230,0,0,0,0,0,0,0,0,0,-1,804,1254,0,0
-413,-230,0,0,0,0,0,0,0,0,0,-1,811,1254,0,0
-406,-230,0,0,0,0,0,0,0,0,0,-1,818,1254,0,0
-399,-230,0,0,0,0,0,0,0,0,0,-1,825,1254,0,0
-392,-230,0,0,0,0,0,0,0,0,0,-1,832,1254,0,0
-385,-230,0,0,0,0,0,0,0,0,0,-1,839,1254,0,0
-378,-230,0,0,0,0,0,0,0,0,0,-1,846,1254,0,0
-371,-230,0,0,0,0,0,0,0,0,0,-1,853,1254,0,0
-364,-230,0,0,0,0,0,0,0,0,0,-1,860,1254,0,0
-357,-230,0,0,0,0,0,0,0,0,0,-1,867,1254,0,0
-350,-230,0,0,0,0,0,0,0,0,0,-1,874,1254,0,0
-343,-230,0,0,0,0,0,0,0,0,0,-1,881,1254,0,0
-336,-230,0,0,0,0,0,0,0,0,0,-1,888,1254,0,0
-329,-230,0,0,0,0,0,0,0,0,0,-1,895,1254,0,0
-322,-230,0,0,0,0,0,0,0,0,0,-1,902,1254,0,0
-315,-230,0,0,0,0,0,0,0,0,0,-1,909,1254,0,0
-308,-230,0,0,0,0,0,0,0,0,0,-1,916,1254,0,0
-301,-230,0,0,0,0,0,0,0,0,0,-1,923,1254,0,0
-294,-230,0,0,0,0,0,0,0,0,0,-1,930,1254,0,0
-287,-230,0,0,0,0,0,0,0,0,0,-1,937,1254,0,0
-280,-230,0,0,0,0,0,0,0,0,0,-1,944,1254,0,0
-273,-230,0,0,0,0,0,0,0,0,0,-1,951,1254,0,0
-266,-230,0,0,0,0,0,0,0,0,0,-1,958,1254,0,0
-259,-230,0,0,0,0,0,0,0,0,0,-1,965,1254,0,0
-252,-230,0,0,0,0,0,0,0,0,0,-1,972,1254,0,0
-245,-230,0,0,0,0,0,0,0,0,0,-1,979,1254,0,0
-238,-230,0,0,0,0,0,0,0,0,0,-1,986,1254,0,0
-231,-230,0,0,0,0,0,0,0,0,0,-1,993,1254,0,0
-224,-230,0,0,0,0,0,0,0,0,0,-1,1000,1254,0,0
-217,-230,0,0,0,0,0,0,0,0,0,-1,1007,1254,0,0
-210,-230,0,0,0,0,0,0,0,0,0,-1,1014,1254,0,0
-203,-230,0,0,0,0,0,0,0,0,0,-1,1021,1254,0,0
-196,-230,0,0,0,0,0,0,0,0,0,-1,1028,1254,0,0
-189,-230,0,0,0,0,0,0,0,0,0,-1,1035,1254,0,0
-182,-230,0,0,0,0,0,0,0,0,0,-1,1042,1254,0,0
-175,-230,0,0,0,0,0,0,0,0,0,-1,1049,1254,0,0
-168,-230,0,0,0,0,0,0,0,0,0,-1,1056,1254,0,0
-161,-230,0,0,0,0,0,0,0,0,0,-1,1063,1254,0,0
-154,-230,0,0,0,0,0,0,0,0,0,-1,1070,1254,0,0
-147,-230,0,0,0,0,0,0,0,0,0,-1,1077,1254,0,0
-140,-230,0,0,0,0,0,0,0,0,0,-1,1084,1254,0,0
-133,-230,0,0,0,0,0,0,0,0,0,-1,1091,1254,0,0
-126,-230,0,0,0,0,0,0,0,0,0,-1,1098,1254,0,0
-119,-230,0,0,0,0,0,0,0,0,0,-1,1105,1254,0,0
-112,-230,0,0,0,0,0,0,0,0,0,-1,1112,1254,0,0
-105,-230,0,0,0,0,0,0,0,0,0,-1,1119,1254,0,0
-98,-230,0,0,0,0,0,0,0,0,0,-1,1126,1254,0,0
-91,-230,0,0,0,0,0,0,0,0,0,-1,1133,1254,0,0
-84,-230,0,0,0,0,0,0,0,0,0,-1,1140,1254,0,0
-77,-230,0,0,0,0,0,0,0,0,0,-1,1147,1254,0,0
-70,-230,0,0,0,0,0,0,0,0,0,-1,1154,1254,0,0
-63,-230,0,0,0,0,0,0,0,0,0,-1,1161,1254,0,0
-56,-230,0,0,0,0,0,0,0,0,0,-1,1168,1254,0,0
-49,-230,0,0,0,0,0,0,0,0,0,-1,1175,1254,0,0
-42,-230,0,0,0,0,0,0,0,0,0,-1,1182,1254,0,0
-35,-230,0,0,0,0,0,0,0,0,0,-1,1189,1254,0,0
-28,-230,0,0,0,0,0,0,0,0,0,-1,1196,1254,0,0
-21,-230,0,0,0,0,0,0,0,0,0,-1,1203,1254,0,0
-14,-230,0,0,0,0,0,0,0,0,0,-1,1210,1254,0,0
-7,-230,0,0,0,0,0,0,0,0,0,-1,1217,1254,0,0
0,-230,0,0,0,0,0,0,0,0,0,-1,1224,1254,0,0
7,-230,0,0,0,0,0,0,0,0,0,-1,1231,1254,0,0
14,-230,0,0,0,0,0,0,0,0,0,-1,1238,1254,0,0
21,-230,0,0,0,0,0,0,0,0,0,-1,1245,1254,0,0
28,-230,0,0,0,0,0,0,0,0,0,-1,1252,1254,0,0
35,-230,0,0,0,0,0,0,0,0,0,-1,1259,1254,0,0
42,-230,0,0,0,0,0,0,0,0,0,-1,1266,1254,0,0
49,-230,0,0,0,0,0,0,0,0,0,-1,1273,1254,0,0
56,-230,0,0,0,0,0,0,0,0,0,-1,1280,1254,0,0
63,-230,0,0,0,0,0,0,0,0,0,-1,1287,1254,0,0
70,-230,0,0,0,0,0,0,0,0,0,-1,1294,1254,0,0
77,-230,0,0,0,0,0,0,0,0,0,-1,1301,1254,0,0
84,-230,0,0,0,0,0,0,0,0,0,-1,1308,1254,0,0
91,-230,0,0,0,0,0,0,0,0,0,-1,1315,1254,0,0
98,-230,0,0,0,0,0,0,0,0,0,-1,1322,1254,0,0
105,-230,0,0,0,0,0,0,0,0,0,-1,1329,1254,0,0
112,-230,0,0,0,0,0,0,0,0,0,-1,1336,1254,0,0
119,-230,0,0,0,0,0,0,0,0,0,-1,1343,1254,0,0
126,-230,0,0,0,0,0,0,0,0,0,-1,1350,1254,0,0
133,-230,0,0,0,0,0,0,0,0,0,-1,1357,1254,0,0
140,-230,0,0,0,0,0,0,0,0,0,-1,1364,1254,0,0
147,-230,0,0,0,0,0,0,0,0,0,-1,1371,1254,0,0
154,-230,0,0,0,0,0,0,0,0,0,-1,1378,1254,0,0
161,-230,0,0,0,0,0,0,0,0,0,-1,1385,1254,0,0
168,-230,0,0,0,0,0,0,0,0,0,-1,1392,1254,0,0
175,-230,0,0,0,0,0,0,0,0,0,-1,1399,1254,0,0
182,-230,0,0,0,0,0,0,0,0,0,-1,1406,1254,0,0
189,-230,0,0,0,0,0,0,0,0,0,-1,1413,1254,0,0
196,-230,0,0,0,0,0,0,0,0,0,-1,1420,1254,0,0
203,-230,0,0,0,0,0,0,0,0,0,-1,1427,1254,0,0
210,-230,0,0,0,0,0,0,0,0,0,-1,1434,1254,0,0
217,-230,0,0,0,0,0,0,0,0,0,-1,1441,1254,0,0
224,-230,0,0,0,0,0,0,0,0,0,-1,1448,1254,0,0
231,-230,0,0,0,0,0,0,0,0,0,-1,1455,1254,0,0
238,-230,0,0,0,0,0,0,0,0,0,-1,1462,1254,0,0
245,-230,0,0,0,0,0,0,0,0,0,-1,1469,1254,0,0
252,-230,0,0,0,0,0,0,0,0,0,-1,1476,1254,0,0
259,-230,0,0,0,0,0,0,0,0,0,-1,1483,1254,0,0
266,-230,0,0,0,0,0,0,0,0,0,-1,1490,1254,0,0
273,-230,0,0,0,0,0,0,0,0,0,-1,1497,1254,0,0
280,-230,0,0,0,0,0,0,0,0,0,-1,1504,1254,0,0
287,-230,0,0,0,0,0,0,0,0,0,-1,1511,1254,0,0
294,-230,0,0,0,0,0,0,0,0,0,-1,1518,1254,0,0
301,-230,0,0,0,0,0,0,0,0,0,-1,1525,1254,0,0
308,-230,0,0,0,0,0,0,0,0,0,-1,1532,1254,0,0
315,-230,0,0,0,0,0,0,0,0,0,-1,1539,1254,0,0
322,-230,0,0,0,0,0,0,0,0,0,-1,1546,1254,0,0
329,-230,0,0,0,0,0,0,0,0,0,-1,1553,1254,0,0
336,-230,0,0,0,0,0,0,0,0,0,-1,1560,1254,0,0
343,-230,0,0,0,0,0,0,0,0,0,-1,1567,1254,0,0
350,-230,0,0,0,0,0,0,0,0,0,-1,1574,1254,0,0
357,-230,0,0,0,0,0,0,0,0,0,-1,1581,1254,0,0
364,-230,0,0,0,0,0,0,0,0,0,-1,1588,1254,0,0
371,-230,0,0,0,0,0,0,0,0,0,-1,1595,1254,0,0
378,-230,0,0,0,0,0,0,0,0,0,-1,1602,1254,0,0
385,-230,0,0,0,0,0,0,0,0,0,-1,1609,1254,0,0
392,-230,0,0,0,0,0,0,0,0,0,-1,1616,1254,0,0
399,-230,0,0,0,0,0,0,0,0,0,-1,1623,1254,0,0
406,-230,0,0,0,0,0,0,0,0,0,-1,1630,1254,0,0
413,-230,0,0,0,0,0,0,0,0,0,-1,1637,1254,0,0
420,-230,0,0,0,0,0,0,0,0,0,-1,1644,1254,0,0
427,-230,0,0,0,0,0,0,0,0,0,-1,1651,1254,0,0
434,-230,0,0,0,0,0,0,0,0,0,-1,1658,1254,0,0
441,-230,0,0,0,0,0,0,0,0,0,-1,1665,1254,0,0
448,-230,0,0,0,0,0,0,0,0,0,-1,1672,1254,0,0
455,-230,0,0,0,0,0,0,0,0,0,-1,1679,1254,0,0
462,-230,0,0,0,0,0,0,0,0,0,-1,1686,1254,0,0
469,-230,0,0,0,0,0,0,0,0,0,-1,1693,1254,0,0
476,-230,0,0,0,0,0,0,0,0,0,-1,1700,1254,0,0
483,-230,0,0,0,0,0,0,0,0,0,-1,1707,1254,0,0
490,-230,0,0,0,0,0,0,0,0,0,-1,1714,1254,0,0
497,-230,0,0,0,0,0,0,0,0,0,-1,1721,1254,0,0
504,-230,0,0,0,0,0,0,0,0,0,-1,1728,1254,0,0
511,-230,0,0,0,0,0,0,0,0,0,-1,1735,1254,0,0
518,-230,0,0,0,0,0,0,0,0,0,-1,1742,1254,0,0
525,-230,0,0,0,0,0,0,0,0,0,-1,1749,1254,0,0
532,-230,0,0,0,0,0,0,0,0,0,-1,1756,1254,0,0
539,-230,0,0,0,0,0,0,0,0,0,-1,1763,1254,0,0
546,-230,0,0,0,0,0,0,0,0,0,-1,1770,1254,0,0
553,-230,0,0,0,0,0,0,0,0,0,-1,1777,1254,0,0
560,-230,0,0,0,0,0,0,0,0,0,-1,1784,1254,0,0
567,-230,0,0,0,0,0,0,0,0,0,-1,1791,1254,0,0
574,-230,0,0,0,0,0,0,0,0,0,-1,1798,1254,0,0
581,-230,0,0,0,0,0,0,0,0,0,-1,1805,1254,0,0
588,-230,0,0,0,0,0,0,0,0,0,-1,1812,1254,0,0
595,-230,0,0,0,0,0,0,0,0,0,-1,1819,1254,0,0
602,-230,0,0,0,0,0,0,0,0,0,-1,1826,1254,0,0
609,-230,0,0,0,0,0,0,0,0,0,-1,1833,1254,0,0
616,-230,-0.00732422,0.0301514,-0.00522921,0.00590228,0.000446115,0.00592013,-0.00524706,1.5308,0.00645128,0.0316806,1840,1254,-0.0073726,-0.0301292
623,-230,-0.0684814,0.0111084,-0.00399907,0.00380069,0.00195621,0.00426382,-0.0044622,1.33833,0.0050384,0.0300461,1847,1254,-0.0684335,-0.011051
630,-230,-0.110352,-0.0164795,-0.00223385,0.00196538,0.00265987,0.00325446,-0.00352294,1.11951,0.00391396,0.0270295,1854,1254,-0.110351,0.016448
637,-230,-0.0875244,-0.0437012,-0.00107246,-0.000244017,0.0028442,0.00221597,-0.00353244,0.857708,0.00334773,0.0219234,1861,1254,-0.0875316,0.0437113
644,-230,-0.0880127,-0.0742188,-0.000725581,-0.00208976,0.00276789,0.00144303,-0.00425837,0.664591,0.00342286,0.0160555,1868,1254,-0.0880172,0.074227
651,-230,-0.0760498,-0.0377197,-0.000744996,-0.00342533,0.00250652,0.000757138,-0.00492747,0.539898,0.00356427,0.03027,1875,1254,-0.0760832,0.0376751
658,-230,-0.0670166,0.0511475,-0.00103398,-0.00426174,0.00216394,5.16309e-05,-0.00534735,0.464992,0.00358223,0.0394491,1882,1254,-0.06705,-0.0511285
665,-230,0.603027,0.170776,-0.00146436,-0.00461779,0.0017869,-0.000658006,-0.00542414,0.423903,0.00341794,0.045017,1889,1254,0.603029,-0.170734
672,-230,0.895386,0.46814,-0.00194811,-0.00466083,0.00144566,-0.00132214,-0.0052868,0.408628,0.00317689,0.0462112,1896,1254,0.895388,-0.468099
679,-230,0.446167,0.289917,-0.00238402,-0.00440014,0.00116229,-0.00185354,-0.00493062,0.428169,0.00287576,0.0449444,1903,1254,0.446196,-0.289903
686,-230,0.0592041,0.0839844,-0.00267336,-0.00407415,0.000851084,-0.00227153,-0.00447598,0.44111,0.0025843,0.0368787,1910,1254,0.0591922,-0.0840408
693,-230,-0.0838623,-0.0498047,-0.00281338,-0.00354805,0.000538269,-0.00252905,-0.00383238,0.485978,0.00225003,0.0148745,1917,1254,-0.0838607,0.0498332
700,-230,-0.0704346,-0.0574951,-0.0029816,-0.00286739,0.000267113,-0.00265135,-0.00319764,0.8907,0.00197501,0.00931962,1924,1254,-0.0704421,0.057542
707,-230,-0.0635986,-0.0452881,-0.00290541,-0.00178987,0.000143102,-0.0017718,-0.00292347,1.44523,0.00170048,0.00810548,1931,1254,-0.0636422,0.0452787
714,-230,-0.0679932,-0.0524902,-0.00273435,-0.000347335,-0.000255893,-0.000320211,-0.00276147,-1.46519,0.00174407,0.0108002,1938,1254,-0.0680326,0.0524701
721,-230,-0.0742188,-0.0722656,-0.00271076,0.000809157,-0.000579194,0.000902013,-0.00280362,-1.41183,0.00223137,0.0114185,1945,1254,-0.0742721,0.0723089
728,-230,-0.0845947,-0.0690918,-0.00284792,0.00123964,-0.00129844,0.00161721,-0.0032255,-1.28781,0.00284687,0.0121875,1952,1254,-0.0845501,0.0691004
735,-230,-0.0836182,-0.0703125,-0.00315962,0.00235518,-0.0019203,0.00295796,-0.0037624,-1.26664,0.00388926,0.0124192,1959,1254,-0.0836441,0.0702654
742,-230,-0.0887451,-0.060791,-0.00330754,0.00321213,-0.00263365,0.00414307,-0.00423849,-1.23102,0.0048392,0.00964609,1966,1254,-0.0886898,0.0607546
749,-230,-0.092041,-0.0639648,-0.00444409,0.00418985,-0.00356223,0.00546981,-0.00572406,-1.22585,0.00646334,0.00917451,1973,1254,-0.0920062,0.0639528
756,-230,-0.0772705,-0.0662842,-0.00629002,0.00523856,-0.00464235,0.00687552,-0.00792697,-1.23179,0.00855341,0.0119671,1980,1254,-0.077258,0.0662299
763,-230,-0.0765381,-0.138184,-0.00861812,0.0063716,-0.00577186,0.00833651,-0.010583,-1.24267,0.0109488,0.0223636,1987,1254,-0.0765237,0.138207
770,-230,-0.0946045,-0.302612,-0.0113981,0.00751571,-0.00681444,0.00971512,-0.0135975,-1.25859,0.0135216,0.0379598,1994,1254,-0.0946134,0.302609
777,-230,-0.0675049,-0.441528,-0.0145577,0.00861214,-0.00753454,0.0108468,-0.0167923,-1.28248,0.01608,0.0442834,2001,1254,-0.0674462,0.441507
784,-230,-0.0167236,-0.598633,-0.0178857,0.00957888,-0.007578,0.011531,-0.0198379,-1.31867,0.0183213,0.0461519,2008,1254,-0.0167332,0.598681
791,-230,0.0849609,-0.525879,-0.0209381,0.0102687,-0.00633261,0.0115048,-0.0221742,-1.37803,0.0197672,0.0498344,2015,1254,0.0849729,0.52583
798,-230,0,0,0,0,0,0,0,0,0,-1,2022,1254,0,0
805,-230,0,0,0,0,0,0,0,0,0,-1,2029,1254,0,0
812,-230,0,0,0,0,0,0,0,0,0,-1,2036,1254,0,0
-700,-237,0,0,0,0,0,0,0,0,0,-1,524,1261,0,0
-693,-237,0,0,0,0,0,0,0,0,0,-1,531,1261,0,0
-686,-237,0,0,0,0,0,0,0,0,0,-1,538,1261,0,0
-679,-237,0,0,0,0,0,0,0,0,0,-1,545,1261,0,0
-672,-237,-0.369019,0.35498,0,0,0,0,0,0,0,-1,552,1261,-0.369001,-0.354986
-665,-237,-0.960083,0.102661,0,0,0,0,0,0,0,-1,559,1261,-0.960108,-0.102636
-658,-237,-0.565308,-0.00671387,0.0176723,0.0406693,0.00904036,0.0437976,0.014544,1.23765,0.0257575,0.0444834,566,1261,-0.565304,0.00675285
-651,-237,-0.266296,0.125977,0.0157857,0.0328822,0.00631307,0.0349607,0.0137072,1.25274,0.0203407,0.039623,573,1261,-0.2663,-0.125925
-644,-237,0.167725,-0.170776,0.0136915,0.02593,0.00419769,0.0272313,0.0123901,1.27017,0.0157432,0.0437718,580,1261,0.167749,0.170722
-637,-237,0.0682373,0.357056,0,0,0,0,0,0,0,-1,587,1261,0.0682672,-0.35706
-630,-237,0.0213013,0.223267,0.00940473,0.0148032,0.00146073,0.0151731,0.00903483,1.32278,0.00881323,0.0446682,594,1261,0.0212739,-0.223237
-623,-237,-0.0373535,0.0574951,0.00718718,0.0104713,0.000944313,0.0107234,0.00693501,1.30985,0.00627939,0.0274788,601,1261,-0.0373486,-0.0575037
-616,-237,-0.100525,-0.0522461,0.00588621,0.00740082,0.000299655,0.00745795,0.00582908,1.38241,0.00452775,0.0134545,608,1261,-0.100537,0.0522027
-609,-237,-0.101257,-0.0456543,0.00461017,0.00572896,-0.000332237,0.00582018,0.00451895,-1.30283,0.00352731,0.0154596,615,1261,-0.101279,0.0457098
-602,-237,-0.081665,-0.0623779,0.00295354,0.00269839,-0.000897612,0.0037326,0.00191933,-0.714806,0.00215531,0.0106845,622,1261,-0.0816637,0.0624316
-595,-237,-0.0720215,-0.0765381,0.0013855,0.001423,-0.000509731,0.00191433,0.000894174,-0.803778,0.00110603,0.0136728,629,1261,-0.0720211,0.0764961
-588,-237,-0.0775146,-0.106323,0.000403776,0.00097156,0.000364105,0.00114937,0.000225967,1.11652,0.000703133,0.0241618,636,1261,-0.0775091,0.106343
-581,-237,-0.0673218,-0.0969238,0.00034779,0.00118729,7.75658e-05,0.0011944,0.000340683,1.47943,0.000710474,0.0226334,643,1261,-0.0673004,0.0969759
-574,-237,-0.0730591,-0.0848389,0.000886234,0.000672655,-0.000350452,0.00114581,0.000413082,-0.637508,0.000670057,0.0135075,650,1261,-0.0730339,0.0848246
-567,-237,-0.0681763,-0.0618896,0.00169946,0.000778854,-0.000863578,0.00221775,0.000260563,-0.540542,0.00139975,0.0117761,657,1261,-0.0682001,0.0618536
-560,-237,-0.0488281,-0.0928955,0.00256113,0.0004483,-0.00113032,0.00305185,-4.24261e-05,-0.409592,0.00204886,0.0174723,664,1261,-0.0488262,0.0928632
-553,-237,-0.137939,-0.0570068,0.00363908,6.22728e-05,-0.00171765,0.00433034,-0.000628985,-0.382611,0.00311777,0.0370367,671,1261,-0.13795,0.0570388
-546,-237,-0.26001,0.0640869,0.00477095,-0.000373312,-0.00249659,0.00578334,-0.0013857,-0.385248,0.00439096,0.0481857,678,1261,-0.259995,-0.064058
-539,-237,0.0539551,0.20813,0.00606226,-0.000845117,-0.00324135,0.00734506,-0.00212792,-0.376847,0.00573905,0.0465825,685,1261,0.0539648,-0.208103
-532,-237,-0.176575,0.565674,0,0,0,0,0,0,0,-1,692,1261,-0.176579,-0.565652
-525,-237,-0.287476,0.432739,0,0,0,0,0,0,0,-1,699,1261,-0.287497,-0.43276
-518,-237,-0.248108,0.238892,0,0,0,0,0,0,0,-1,706,1261,-0.248133,-0.238834
-511,-237,0.0119629,-0.1604,0.0105145,-0.00119803,-0.00639674,0.0133308,-0.00401438,-0.414741,0.0104847,0.0379041,713,1261,0.0119833,0.160391
-504,-237,-0.0474854,-0.0906982,0.00986809,-0.000427856,-0.00633994,0.0128869,-0.00344668,-0.444393,0.00994137,0.0368267,720,1261,-0.0474594,0.0906754
-497,-237,0.038269,-0.22876,0.0067543,0.00247675,-0.00548641,0.0105041,-0.00127302,-0.599543,0.00746334,0.0403547,727,1261,0.0382844,0.228708
-490,-237,0,0,0,0,0,0,0,0,0,-1,734,1261,0,0
-483,-237,0,0,0,0,0,0,0,0,0,-1,741,1261,0,0
-476,-237,0,0,0,0,0,0,0,0,0,-1,748,1261,0,0
-469,-237,0,0,0,0,0,0,0,0,0,-1,755,1261,0,0
-462,-237,0,0,0,0,0,0,0,0,0,-1,762,1261,0,0
-455,-237,0,0,0,0,0,0,0,0,0,-1,769,1261,0,0
-448,-237,0,0,0,0,0,0,0,0,0,-1,776,1261,0,0
-441,-237,0,0,0,0,0,0,0,0,0,-1,783,1261,0,0
-434,-237,0,0,0,0,0,0,0,0,0,-1,790,1261,0,0
-427,-237,0,0,0,0,0,0,0,0,0,-1,797,1261,0,0
-420,-237,0,0,0,0,0,0,0,0,0,-1,804,1261,0,0
-413,-237,0,0,0,0,0,0,0,0,0,-1,811,1261,0,0
-406,-237,0,0,0,0,0,0,0,0,0,-1,818,1261,0,0
-399,-237,0,0,0,0,0,0,0,0,0,-1,825,1261,0,0
-392,-237,0,0,0,0,0,0,0,0,0,-1,832,1261,0,0
-385,-237,0,0,0,0,0,0,0,0,0,-1,839,1261,0,0
-378,-237,0,0,0,0,0,0,0,0,0,-1,846,1261,0,0
-371,-237,0,0,0,0,0,0,0,0,0,-1,853,1261,0,0
-364,-237,0,0,0,0,0,0,0,0,0,-1,860,1261,0,0
-357,-237,0,0,0,0,0,0,0,0,0,-1,867,1261,0,0
-350,-237,0,0,0,0,0,0,0,0,0,-1,874,1261,0,0
-343,-237,0,0,0,0,0,0,0,0,0,-1,881,1261,0,0
-336,-237,0,0,0,0,0,0,0,0,0,-1,888,1261,0,0
-329,-237,0,0,0,0,0,0,0,0,0,-1,895,1261,0,0
-322,-237,0,0,0,0,0,0,0,0,0,-1,902,1261,0,0
-315,-237,0,0,0,0,0,0,0,0,0,-1,909,1261,0,0
-308,-237,0,0,0,0,0,0,0,0,0,-1,916,1261,0,0
-301,-237,0,0,0,0,0,0,0,0,0,-1,923,1261,0,0
-294,-237,0,0,0,0,0,0,0,0,0,-1,930,1261,0,0
-287,-237,0,0,0,0,0,0,0,0,0,-1,937,1261,0,0
-280,-237,0,0,0,0,0,0,0,0,0,-1,944,1261,0,0
-273,-237,0,0,0,0,0,0,0,0,0,-1,951,1261,0,0
-266,-237,0,0,0,0,0,0,0,0,0,-1,958,1261,0,0
-259,-237,0,0,0,0,0,0,0,0,0,-1,965,1261,0,0
-252,-237,0,0,0,0,0,0,0,0,0,-1,972,1261,0,0
-245,-237,0,0,0,0,0,0,0,0,0,-1,979,1261,0,0
-238,-237,0,0,0,0,0,0,0,0,0,-1,986,1261,0,0
-231,-237,0,0,0,0,0,0,0,0,0,-1,993,1261,0,0
-224,-237,0,0,0,0,0,0,0,0,0,-1,1000,1261,0,0
-217,-237,0,0,0,0,0,0,0,0,0,-1,1007,1261,0,0
-210,-237,0,0,0,0,0,0,0,0,0,-1,1014,1261,0,0
-203,-237,0,0,0,0,0,0,0,0,0,-1,1021,1261,0,0
-196,-237,0,0,0,0,0,0,0,0,0,-1,1028,1261,0,0
-189,-237,0,0,0,0,0,0,0,0,0,-1,1035,1261,0,0
-182,-237,0,0,0,0,0,0,0,0,0,-1,1042,1261,0,0
-175,-237,0,0,0,0,0,0,0,0,0,-1,1049,1261,0,0
-168,-237,0,0,0,0,0,0,0,0,0,-1,1056,1261,0,0
-161,-237,0,0,0,0,0,0,0,0,0,-1,1063,1261,0,0
-154,-237,0,0,0,0,0,0,0,0,0,-1,1070,1261,0,0
-147,-237,0,0,0,0,0,0,0,0,0,-1,1077,1261,0,0
-140,-237,0,0,0,0,0,0,0,0,0,-1,1084,1261,0,0
-133,-237,0,0,0,0,0,0,0,0,0,-1,1091,1261,0,0
-126,-237,0,0,0,0,0,0,0,0,0,-1,1098,1261,0,0
-119,-237,0,0,0,0,0,0,0,0,0,-1,1105,1261,0,0
-112,-237,0,0,0,0,0,0,0,0,0,-1,1112,1261,0,0
-105,-237,0,0,0,0,0,0,0,0,0,-1,1119,1261,0,0
-98,-237,0,0,0,0,0,0,0,0,0,-1,1126,1261,0,0
-91,-237,0,0,0,0,0,0,0,0,0,-1,1133,1261,0,0
-84,-237,0,0,0,0,0,0,0,0,0,-1,1140,1261,0,0
-77,-237,0,0,0,0,0,0,0,0,0,-1,1147,1261,0,0
-70,-237,0,0,0,0,0,0,0,0,0,-1,1154,1261,0,0
-63,-237,0,0,0,0,0,0,0,0,0,-1,1161,1261,0,0
-56,-237,0,0,0,0,0,0,0,0,0,-1,1168,1261,0,0
-49,-237,0,0,0,0,0,0,0,0,0,-1,1175,1261,0,0
-42,-237,0,0,0,0,0,0,0,0,0,-1,1182,1261,0,0
-35,-237,0,0,0,0,0,0,0,0,0,-1,1189,1261,0,0
-28,-237,0,0,0,0,0,0,0,0,0,-1,1196,1261,0,0
-21,-237,0,0,0,0,0,0,0,0,0,-1,1203,1261,0,0
-14,-237,0,0,0,0,0,0,0,0,0,-1,1210,1261,0,0
-7,-237,0,0,0,0,0,0,0,0,0,-1,1217,1261,0,0
0,-237,0,0,0,0,0,0,0,0,0,-1,1224,1261,0,0
7,-237,0,0,0,0,0,0,0,0,0,-1,1231,1261,0,0
14,-237,0,0,0,0,0,0,0,0,0,-1,1238,1261,0,0
21,-237,0,0,0,0,0,0,0,0,0,-1,1245,1261,0,0
28,-237,0,0,0,0,0,0,0,0,0,-1,1252,1261,0,0
35,-237,0,0,0,0,0,0,0,0,0,-1,1259,1261,0,0
42,-237,0,0,0,0,0,0,0,0,0,-1,1266,1261,0,0
49,-237,0,0,0,0,0,0,0,0,0,-1,1273,1261,0,0
56,-237,0,0,0,0,0,0,0,0,0,-1,1280,1261,0,0
63,-237,0,0,0,0,0,0,0,0,0,-1,1287,1261,0,0
70,-237,0,0,0,0,0,0,0,0,0,-1,1294,1261,0,0
77,-237,0,0,0,0,0,0,0,0,0,-1,1301,1261,0,0
84,-237,0,0,0,0,0,0,0,0,0,-1,1308,1261,0,0
91,-237,0,0,0,0,0,0,0,0,0,-1,1315,1261,0,0
98,-237,0,0,0,0,0,0,0,0,0,-1,1322,1261,0,0
105,-237,0,0,0,0,0,0,0,0,0,-1,1329,1261,0,0
112,-237,0,0,0,0,0,0,0,0,0,-1,1336,1261,0,0
119,-237,0,0,0,0,0,0,0,0,0,-1,1343,1261,0,0
126,-237,0,0,0,0,0,0,0,0,0,-1,1350,1261,0,0
133,-237,0,0,0,0,0,0,0,0,0,-1,1357,1261,0,0
140,-237,0,0,0,0,0,0,0,0,0,-1,1364,1261,0,0
147,-237,0,0,0,0,0,0,0,0,0,-1,1371,1261,0,0
154,-237,0,0,0,0,0,0,0,0,0,-1,1378,1261,0,0
161,-237,0,0,0,0,0,0,0,0,0,-1,1385,1261,0,0
168,-237,0,0,0,0,0,0,0,0,0,-1,1392,1261,0,0
175,-237,0,0,0,0,0,0,0,0,0,-1,1399,1261,0,0
182,-237,0,0,0,0,0,0,0,0,0,-1,1406,1261,0,0
189,-237,0,0,0,0,0,0,0,0,0,-1,1413,1261,0,0
196,-237,0,0,0,0,0,0,0,0,0,-1,1420,1261,0,0
203,-237,0,0,0,0,0,0,0,0,0,-1,1427,1261,0,0
210,-237,0,0,0,0,0,0,0,0,0,-1,1434,1261,0,0
217,-237,0,0,0,0,0,0,0,0,0,-1,1441,1261,0,0
224,-237,0,0,0,0,0,0,0,0,0,-1,1448,1261,0,0
231,-237,0,0,0,0,0,0,0,0,0,-1,1455,1261,0,0
238,-237,0,0,0,0,0,0,0,0,0,-1,1462,1261,0,0
245,-237,0,0,0,0,0,0,0,0,0,-1,1469,1261,0,0
252,-237,0,0,0,0,0,0,0,0,0,-1,1476,1261,0,0
259,-237,0,0,0,0,0,0,0,0,0,-1,1483,1261,0,0
266,-237,0,0,0,0,0,0,0,0,0,-1,1490,1261,0,0
273,-237,0,0,0,0,0,0,0,0,0,-1,1497,1261,0,0
280,-237,0,0,0,0,0,0,0,0,0,-1,1504,1261,0,0
287,-237,0,0,0,0,0,0,0,0,0,-1,1511,1261,0,0
294,-237,0,0,0,0,0,0,0,0,0,-1,1518,1261,0,0
301,-237,0,0,0,0,0,0,0,0,0,-1,1525,1261,0,0
308,-237,0,0,0,0,0,0,0,0,0,-1,1532,1261,0,0
315,-237,0,0,0,0,0,0,0,0,0,-1,1539,1261,0,0
322,-237,0,0,0,0,0,0,0,0,0,-1,1546,1261,0,0
329,-237,0,0,0,0,0,0,0,0,0,-1,1553,1261,0,0
336,-237,0,0,0,0,0,0,0,0,0,-1,1560,1261,0,0
343,-237,0,0,0,0,0,0,0,0,0,-1,1567,1261,0,0
350,-237,0,0,0,0,0,0,0,0,0,-1,1574,1261,0,0
357,-237,0,0,0,0,0,0,0,0,0,-1,1581,1261,0,0
364,-237,0,0,0,0,0,0,0,0,0,-1,1588,1261,0,0
371,-237,0,0,0,0,0,0,0,0,0,-1,1595,1261,0,0
378,-237,0,0,0,0,0,0,0,0,0,-1,1602,1261,0,0
385,-237,0,0,0,0,0,0,0,0,0,-1,1609,1261,0,0
392,-237,0,0,0,0,0,0,0,0,0,-1,1616,1261,0,0
399,-237,0,0,0,0,0,0,0,0,0,-1,1623,1261,0,0
406,-237,0,0,0,0,0,0,0,0,0,-1,1630,1261,0,0
413,-237,0,0,0,0,0,0,0,0,0,-1,1637,1261,0,0
420,-237,0,0,0,0,0,0,0,0,0,-1,1644,1261,0,0
427,-237,0,0,0,0,0,0,0,0,0,-1,1651,1261,0,0
434,-237,0,0,0,0,0,0,0,0,0,-1,1658,1261,0,0
441,-237,0,0,0,0,0,0,0,0,0,-1,1665,1261,0,0
448,-237,0,0,0,0,0,0,0,0,0,-1,1672,1261,0,0
455,-237,0,0,0,0,0,0,0,0,0,-1,1679,1261,0,0
462,-237,0,0,0,0,0,0,0,0,0,-1,1686,1261,0,0
469,-237,0,0,0,0,0,0,0,0,0,-1,1693,1261,0,0
476,-237,0,0,0,0,0,0,0,0,0,-1,1700,1261,0,0
483,-237,0,0,0,0,0,0,0,0,0,-1,1707,1261,0,0
490,-237,0,0,0,0,0,0,0,0,0,-1,1714,1261,0,0
497,-237,0,0,0,0,0,0,0,0,0,-1,1721,1261,0,0
504,-237,0,0,0,0,0,0,0,0,0,-1,1728,1261,0,0
511,-237,0,0,0,0,0,0,0,0,0,-1,1735,1261,0,0
518,-237,0,0,0,0,0,0,0,0,0,-1,1742,1261,0,0
525,-237,0,0,0,0,0,0,0,0,0,-1,1749,1261,0,0
532,-237,0,0,0,0,0,0,0,0,0,-1,1756,1261,0,0
539,-237,0,0,0,0,0,0,0,0,0,-1,1763,1261,0,0
546,-237,0,0,0,0,0,0,0,0,0,-1,1770,1261,0,0
553,-237,0,0,0,0,0,0,0,0,0,-1,1777,1261,0,0
560,-237,0,0,0,0,0,0,0,0,0,-1,1784,1261,0,0
567,-237,0,0,0,0,0,0,0,0,0,-1,1791,1261,0,0
574,-237,0,0,0,0,0,0,0,0,0,-1,1798,1261,0,0
581,-237,0,0,0,0,0,0,0,0,0,-1,1805,1261,0,0
588,-237,0,0,0,0,0,0,0,0,0,-1,1812,1261,0,0
595,-237,0,0,0,0,0,0,0,0,0,-1,1819,1261,0,0
602,-237,0,0,0,0,0,0,0,0,0,-1,1826,1261,0,0
609,-237,0,0,0,0,0,0,0,0,0,-1,1833,1261,0,0
616,-237,-0.00476074,0.00952148,-0.00527223,0.00494788,0.00219807,0.00540058,-0.00572492,1.36769,0.00642422,0.0323232,1840,1261,-0.00476117,-0.00957377
623,-237,-0.0125732,-0.0111084,-0.00443721,0.00440077,0.00352544,0.00563476,-0.0056712,1.2341,0.00652752,0.0288125,1847,1261,-0.0125949,0.0111165
630,-237,-0.0474854,-0.0406494,-0.00306011,0.00345363,0.00394884,0.00531541,-0.00492189,1.13023,0.00591196,0.0220945,1854,1261,-0.0474798,0.0407008
637,-237,-0.0870361,-0.050415,-0.00210618,0.00180706,0.00381895,0.00414145,-0.00444057,1.02214,0.00495583,0.015992,1861,1261,-0.0870954,0.050371
644,-237,-0.0931396,-0.0274658,-0.00171367,0.000133212,0.0034218,0.00275398,-0.00433444,0.917193,0.00412627,0.0283876,1868,1261,-0.0931874,0.0274138
651,-237,-0.136963,0.0404053,-0.00158252,-0.00130113,0.00289938,0.00146096,-0.00434461,0.809642,0.00348695,0.0414857,1875,1261,-0.136924,-0.0403531
658,-237,-0.0515137,0.480347,-0.00169222,-0.00236337,0.00236272,0.000358637,-0.00441423,0.714855,0.00306936,0.0443371,1882,1261,-0.0515377,-0.480354
665,-237,0.360474,0.656494,-0.00192789,-0.00300727,0.00184503,-0.000545236,-0.00438992,0.643112,0.00276286,0.0438547,1889,1261,0.360441,-0.656543
672,-237,0.54248,0.703857,-0.00223032,-0.00336997,0.00141249,-0.00127704,-0.00432324,0.593674,0.00256474,0.0446135,1896,1261,0.542432,-0.703811
679,-237,0.193726,0.363159,-0.00248231,-0.00341357,0.00108054,-0.00177134,-0.00412454,0.581959,0.00238919,0.040998,1903,1261,0.193767,-0.363113
686,-237,0.00341797,-0.00549316,-0.00264777,-0.00335072,0.000652316,-0.00225826,-0.00374022,0.538292,0.00217487,0.025972,1910,1261,0.00347571,0.0055301
693,-237,-0.0772705,-0.0612793,-0.00268621,-0.00322536,0.000250698,-0.00258765,-0.00332392,0.374564,0.00201585,0.0118864,1917,1261,-0.0772936,0.0613077
700,-237,-0.0778809,-0.0576172,-0.00275901,-0.00269161,8.59676e-05,-0.00263298,-0.00281765,0.972189,0.00182,0.00907993,1924,1261,-0.0778683,0.0576778
707,-237,-0.0849609,-0.0509033,-0.0025889,-0.00169303,4.74821e-05,-0.00169052,-0.00259141,1.51799,0.00151912,0.00799176,1931,1261,-0.0850171,0.0508836
714,-237,-0.0780029,-0.0452881,-0.00237109,-0.000106513,-0.000372389,-4.68496e-05,-0.00243075,-1.41193,0.00160511,0.0104432,1938,1261,-0.0780168,0.0452434
721,-237,-0.0947266,-0.0640869,-0.00235695,0.00118482,-0.000713675,0.00132322,-0.00249535,-1.37925,0.00223901,0.0117074,1945,1261,-0.0947137,0.0640403
728,-237,-0.0792236,-0.0689697,-0.00263841,0.0017513,-0.00155631,0.00224707,-0.00313419,-1.2624,0.00312091,0.0120111,1952,1261,-0.0792549,0.0690043
735,-237,-0.0734863,-0.0760498,-0.00322533,0.00303846,-0.00235635,0.0038259,-0.00401277,-1.24829,0.00452609,0.0170571,1959,1261,-0.073513,0.0760317
742,-237,-0.0737305,-0.0605469,-0.00373401,0.00415533,-0.00322551,0.00530618,-0.00488485,-1.22808,0.00588547,0.0134446,1966,1261,-0.0736779,0.0605535
749,-237,-0.0786133,-0.0413818,-0.00531739,0.00543791,-0.00444188,0.00703518,-0.00691465,-1.2256,0.00805404,0.00909206,1973,1261,-0.0785963,0.0414195
756,-237,-0.0963135,-0.0699463,-0.00774106,0.00679972,-0.00589973,0.00889231,-0.00983365,-1.22995,0.010816,0.0132519,1980,1261,-0.096284,0.069949
763,-237,-0.113892,-0.253906,-0.0108884,0.00821623,-0.00751425,0.0108175,-0.0134897,-1.23752,0.014062,0.0273792,1987,1261,-0.113886,0.2539
770,-237,-0.0614014,-0.533691,-0.0147963,0.00958462,-0.00917249,0.01265,-0.0178617,-1.24827,0.0177014,0.0381749,1994,1261,-0.0613846,0.533659
777,-237,-0.104004,-0.742065,-0.0194569,0.0107907,-0.0106502,0.0141644,-0.0228306,-1.26403,0.0215535,0.0392513,2001,1261,-0.104007,0.742016
784,-237,-0.290405,-0.823486,-0.0247249,0.0116726,-0.0115891,0.0150494,-0.0281016,-1.28727,0.0252903,0.0428964,2008,1261,-0.290347,0.82344
791,-237,-0.342896,-0.55896,-0.0302189,0.0119583,-0.0113489,0.0148181,-0.0330788,-1.32394,0.0283152,0.0420531,2015,1261,-0.342868,0.558917
798,-237,0,0,0,0,0,0,0,0,0,-1,2022,1261,0,0
805,-237,0,0,0,0,0,0,0,0,0,-1,2029,1261,0,0
812,-237,0,0,0,0,0,0,0,0,0,-1,2036,1261,0,0
-700,-244,0,0,0,0,0,0,0,0,0,-1,524,1268,0,0
-693,-244,0,0,0,0,0,0,0,0,0,-1,531,1268,0,0
-686,-244,0,0,0,0,0,0,0,0,0,-1,538,1268,0,0
-679,-244,0,0,0,0,0,0,0,0,0,-1,545,1268,0,0
-672,-244,-0.506836,0.593628,0,0,0,0,0,0,0,-1,552,1268,-0.506825,-0.593626
-665,-244,0.0314941,-0.474487,0.0231529,0.0617594,0.0212191,0.0711417,0.0137705,1.15448,0.0435692,0.0469198,559,1268,0.0314887,0.474532
-658,-244,-0.145508,-0.113281,0.0213509,0.0501082,0.0154478,0.0568336,0.0146255,1.16018,0.0340767,0.0420392,566,1268,-0.145496,0.113291
-651,-244,0.287781,0.0756836,0.0188703,0.039756,0.0109625,0.0444535,0.0141728,1.16596,0.0262208,0.0418196,573,1268,0.287805,-0.0757094
-644,-244,1.14325,-0.331299,0.0161068,0.0307706,0.00754593,0.03396,0.0129174,1.1709,0.019793,0.0446928,580,1268,1.14326,0.331346
-637,-244,0.083313,0.112793,0,0,0,0,0,0,0,-1,587,1268,0.0832886,-0.112758
-630,-244,-0.00720215,-0.0531006,0.0106296,0.0169003,0.00313825,0.0182011,0.00932887,1.17787,0.0105095,0.0439725,594,1268,-0.00718637,0.0530549
-623,-244,-0.0959473,-0.0163574,0.00805104,0.0118383,0.00206289,0.0127449,0.00714443,1.15672,0.00737624,0.0313459,601,1268,-0.0959659,0.0163413
-616,-244,-0.102722,-0.036377,0.00641903,0.00820686,0.00104021,0.00868449,0.0059414,1.14035,0.00512608,0.0159638,608,1268,-0.102709,0.0364226
-609,-244,-0.0866699,-0.0526123,0.00480106,0.00610692,0.000227772,0.00614551,0.00476247,1.40297,0.00372264,0.0139392,615,1268,-0.0866655,0.0526452
-602,-244,-0.101013,-0.0539551,0.00285833,0.00242228,-0.000598173,0.00327697,0.00200364,-0.610639,0.00190756,0.0139265,622,1268,-0.101022,0.053975
-595,-244,-0.0994873,-0.0610352,0.00121531,0.00105992,-0.000414663,0.00155949,0.000715735,-0.692783,0.000901386,0.0153151,629,1268,-0.0994906,0.0610298
-588,-244,-0.0761108,-0.043335,0.000311876,0.000593725,0.000390172,0.000867643,3.79584e-05,0.958701,0.0005662,0.0194177,636,1268,-0.0761285,0.0432891
-581,-244,-0.0745239,-0.057373,0.000411846,0.000887001,-4.00806e-05,0.000890358,0.000408489,-1.48723,0.00051463,0.015876,643,1268,-0.0745159,0.0574247
-574,-244,-0.0862427,-0.067749,0.00109342,0.000350611,-0.000670842,0.00148881,-4.47763e-05,-0.532581,0.0010078,0.01147,650,1268,-0.0862287,0.0677155
-567,-244,-0.0755005,-0.0587158,0.00210167,0.000364868,-0.0014582,0.00293046,-0.000463922,-0.516835,0.00212523,0.00874502,657,1268,-0.0755058,0.0587679
-560,-244,-0.0601196,-0.0628662,0.00322881,-2.62023e-05,-0.00185386,0.0040682,-0.000865589,-0.425162,0.00304199,0.0106516,664,1268,-0.06013,0.062854
-553,-244,-0.0758667,-0.00793457,0.00451391,-0.000420125,-0.00261311,0.00564057,-0.00154679,-0.407074,0.00436823,0.0316674,671,1268,-0.0758665,0.00793906
-546,-244,-0.282104,0.179321,0.00586459,-0.000740851,-0.00365472,0.00748781,-0.00236407,-0.417974,0.00593887,0.0479355,678,1268,-0.282091,-0.179366
-539,-244,-0.346802,0.255371,0.00747339,-0.00111414,-0.00465163,0.00951003,-0.00315079,-0.412691,0.00761088,0.0439243,685,1268,-0.346814,-0.255314
-532,-244,-0.866943,1.07532,0,0,0,0,0,0,0,-1,692,1268,-0.866949,-1.07534
-525,-244,-0.458252,0.552734,0.0113427,-0.000924841,-0.00727588,0.0147253,-0.00430746,-0.435182,0.0115242,0.0468752,699,1268,-0.458242,-0.552715
-518,-244,-0.0672607,-0.085083,0.0128638,-0.000648143,-0.00831125,0.0168185,-0.00460293,-0.444129,0.0130207,0.0414943,706,1268,-0.0672321,0.0850991
-511,-244,0.107483,-0.255981,0.0138722,4.97848e-05,-0.00907829,0.0183707,-0.00444866,-0.460054,0.0139682,0.0417516,713,1268,0.10748,0.255984
-504,-244,0.126709,-0.22998,0.0140106,0.00156818,-0.00938411,0.0190484,-0.00346962,-0.492686,0.0139995,0.0413109,720,1268,0.126685,0.229963
-497,-244,0.0909424,-0.206787,0.0122556,0.00512466,-0.00891251,0.0182894,-0.000909118,-0.595123,0.012507,0.0429012,727,1268,0.0909563,0.206742
-490,-244,0,0,0,0,0,0,0,0,0,-1,734,1268,0,0
-483,-244,0,0,0,0,0,0,0,0,0,-1,741,1268,0,0
-476,-244,0,0,0,0,0,0,0,0,0,-1,748,1268,0,0
-469,-244,0,0,0,0,0,0,0,0,0,-1,755,1268,0,0
-462,-244,0,0,0,0,0,0,0,0,0,-1,762,1268,0,0
-455,-244,0,0,0,0,0,0,0,0,0,-1,769,1268,0,0
-448,-244,0,0,0,0,0,0,0,0,0,-1,776,1268,0,0
-441,-244,0,0,0,0,0,0,0,0,0,-1,783,1268,0,0
-434,-244,0,0,0,0,0,0,0,0,0,-1,790,1268,0,0
-427,-244,0,0,0,0,0,0,0,0,0,-1,797,1268,0,0
-420,-244,0,0,0,0,0,0,0,0,0,-1,804,1268,0,0
-413,-244,0,0,0,0,0,0,0,0,0,-1,811,1268,0,0
-406,-244,0,0,0,0,0,0,0,0,0,-1,818,1268,0,0
-399,-244,0,0,0,0,0,0,0,0,0,-1,825,1268,0,0
-392,-244,0,0,0,0,0,0,0,0,0,-1,832,1268,0,0
-385,-244,0,0,0,0,0,0,0,0,0,-1,839,1268,0,0
-378,-244,0,0,0,0,0,0,0,0,0,-1,846,1268,0,0
-371,-244,0,0,0,0,0,0,0,0,0,-1,853,1268,0,0
-364,-244,0,0,0,0,0,0,0,0,0,-1,860,1268,0,0
-357,-244,0,0,0,0,0,0,0,0,0,-1,867,1268,0,0
-350,-244,0,0,0,0,0,0,0,0,0,-1,874,1268,0,0
-343,-244,0,0,0,0,0,0,0,0,0,-1,881,1268,0,0
-336,-244,0,0,0,0,0,0,0,0,0,-1,888,1268,0,0
-329,-244,0,0,0,0,0,0,0,0,0,-1,895,1268,0,0
-322,-244,0,0,0,0,0,0,0,0,0,-1,902,1268,0,0
-315,-244,0,0,0,0,0,0,0,0,0,-1,909,1268,0,0
-308,-244,0,0,0,0,0,0,0,0,0,-1,916,1268,0,0
-301,-244,0,0,0,0,0,0,0,0,0,-1,923,1268,0,0
-294,-244,0,0,0,0,0,0,0,0,0,-1,930,1268,0,0
-287,-244,0,0,0,0,0,0,0,0,0,-1,937,1268,0,0
-280,-244,0,0,0,0,0,0,0,0,0,-1,944,1268,0,0
-273,-244,0,0,0,0,0,0,0,0,0,-1,951,1268,0,0
-266,-244,0,0,0,0,0,0,0,0,0,-1,958,1268,0,0
-259,-244,0,0,0,0,0,0,0,0,0,-1,965,1268,0,0
-252,-244,0,0,0,0,0,0,0,0,0,-1,972,1268,0,0
-245,-244,0,0,0,0,0,0,0,0,0,-1,979,1268,0,0
-238,-244,0,0,0,0,0,0,0,0,0,-1,986,1268,0,0
-231,-244,0,0,0,0,0,0,0,0,0,-1,993,1268,0,0
-224,-244,0,0,0,0,0,0,0,0,0,-1,1000,1268,0,0
-217,-244,0,0,0,0,0,0,0,0,0,-1,1007,1268,0,0
-210,-244,0,0,0,0,0,0,0,0,0,-1,1014,1268,0,0
-203,-244,0,0,0,0,0,0,0,0,0,-1,1021,1268,0,0
-196,-244,0,0,0,0,0,0,0,0,0,-1,1028,1268,0,0
-189,-244,0,0,0,0,0,0,0,0,0,-1,1035,1268,0,0
-182,-244,0,0,0,0,0,0,0,0,0,-1,1042,1268,0,0
-175,-244,0,0,0,0,0,0,0,0,0,-1,1049,1268,0,0
-168,-244,0,0,0,0,0,0,0,0,0,-1,1056,1268,0,0
-161,-244,0,0,0,0,0,0,0,0,0,-1,1063,1268,0,0
-154,-244,0,0,0,0,0,0,0,0,0,-1,1070,1268,0,0
-147,-244,0,0,0,0,0,0,0,0,0,-1,1077,1268,0,0
-140,-244,0,0,0,0,0,0,0,0,0,-1,1084,1268,0,0
-133,-244,0,0,0,0,0,0,0,0,0,-1,1091,1268,0,0
-126,-244,0,0,0,0,0,0,0,0,0,-1,1098,1268,0,0
-119,-244,0,0,0,0,0,0,0,0,0,-1,1105,1268,0,0
-112,-244,0,0,0,0,0,0,0,0,0,-1,1112,1268,0,0
-105,-244,0,0,0,0,0,0,0,0,0,-1,1119,1268,0,0
-98,-244,0,0,0,0,0,0,0,0,0,-1,1126,1268,0,0
-91,-244,0,0,0,0,0,0,0,0,0,-1,1133,1268,0,0
-84,-244,0,0,0,0,0,0,0,0,0,-1,1140,1268,0,0
-77,-244,0,0,0,0,0,0,0,0,0,-1,1147,1268,0,0
-70,-244,0,0,0,0,0,0,0,0,0,-1,1154,1268,0,0
-63,-244,0,0,0,0,0,0,0,0,0,-1,1161,1268,0,0
-56,-244,0,0,0,0,0,0,0,0,0,-1,1168,1268,0,0
-49,-244,0,0,0,0,0,0,0,0,0,-1,1175,1268,0,0
-42,-244,0,0,0,0,0,0,0,0,0,-1,1182,1268,0,0
-35,-244,0,0,0,0,0,0,0,0,0,-1,1189,1268,0,0
-28,-244,0,0,0,0,0,0,0,0,0,-1,1196,1268,0,0
-21,-244,0,0,0,0,0,0,0,0,0,-1,1203,1268,0,0
-14,-244,0,0,0,0,0,0,0,0,0,-1,1210,1268,0,0
-7,-244,0,0,0,0,0,0,0,0,0,-1,1217,1268,0,0
0,-244,0,0,0,0,0,0,0,0,0,-1,1224,1268,0,0
7,-244,0,0,0,0,0,0,0,0,0,-1,1231,1268,0,0
14,-244,0,0,0,0,0,0,0,0,0,-1,1238,1268,0,0
21,-244,0,0,0,0,0,0,0,0,0,-1,1245,1268,0,0
28,-244,0,0,0,0,0,0,0,0,0,-1,1252,1268,0,0
35,-244,0,0,0,0,0,0,0,0,0,-1,1259,1268,0,0
42,-244,0,0,0,0,0,0,0,0,0,-1,1266,1268,0,0
49,-244,0,0,0,0,0,0,0,0,0,-1,1273,1268,0,0
56,-244,0,0,0,0,0,0,0,0,0,-1,1280,1268,0,0
63,-244,0,0,0,0,0,0,0,0,0,-1,1287,1268,0,0
70,-244,0,0,0,0,0,0,0,0,0,-1,1294,1268,0,0
77,-244,0,0,0,0,0,0,0,0,0,-1,1301,1268,0,0
84,-244,0,0,0,0,0,0,0,0,0,-1,1308,1268,0,0
91,-244,0,0,0,0,0,0,0,0,0,-1,1315,1268,0,0
98,-244,0,0,0,0,0,0,0,0,0,-1,1322,1268,0,0
105,-244,0,0,0,0,0,0,0,0,0,-1,1329,1268,0,0
112,-244,0,0,0,0,0,0,0,0,0,-1,1336,1268,0,0
119,-244,0,0,0,0,0,0,0,0,0,-1,1343,1268,0,0
126,-244,0,0,0,0,0,0,0,0,0,-1,1350,1268,0,0
133,-244,0,0,0,0,0,0,0,0,0,-1,1357,1268,0,0
140,-244,0,0,0,0,0,0,0,0,0,-1,1364,1268,0,0
147,-244,0,0,0,0,0,0,0,0,0,-1,1371,1268,0,0
154,-244,0,0,0,0,0,0,0,0,0,-1,1378,1268,0,0
161,-244,0,0,0,0,0,0,0,0,0,-1,1385,1268,0,0
168,-244,0,0,0,0,0,0,0,0,0,-1,1392,1268,0,0
175,-244,0,0,0,0,0,0,0,0,0,-1,1399,1268,0,0
182,-244,0,0,0,0,0,0,0,0,0,-1,1406,1268,0,0
189,-244,0,0,0,0,0,0,0,0,0,-1,1413,1268,0,0
196,-244,0,0,0,0,0,0,0,0,0,-1,1420,1268,0,0
203,-244,0,0,0,0,0,0,0,0,0,-1,1427,1268,0,0
210,-244,0,0,0,0,0,0,0,0,0,-1,1434,1268,0,0
217,-244,0,0,0,0,0,0,0,0,0,-1,1441,1268,0,0
224,-244,0,0,0,0,0,0,0,0,0,-1,1448,1268,0,0
231,-244,0,0,0,0,0,0,0,0,0,-1,1455,1268,0,0
238,-244,0,0,0,0,0,0,0,0,0,-1,1462,1268,0,0
245,-244,0,0,0,0,0,0,0,0,0,-1,1469,1268,0,0
252,-244,0,0,0,0,0,0,0,0,0,-1,1476,1268,0,0
259,-244,0,0,0,0,0,0,0,0,0,-1,1483,1268,0,0
266,-244,0,0,0,0,0,0,0,0,0,-1,1490,1268,0,0
273,-244,0,0,0,0,0,0,0,0,0,-1,1497,1268,0,0
280,-244,0,0,0,0,0,0,0,0,0,-1,1504,1268,0,0
287,-244,0,0,0,0,0,0,0,0,0,-1,1511,1268,0,0
294,-244,0,0,0,0,0,0,0,0,0,-1,1518,1268,0,0
301,-244,0,0,0,0,0,0,0,0,0,-1,1525,1268,0,0
308,-244,0,0,0,0,0,0,0,0,0,-1,1532,1268,0,0
315,-244,0,0,0,0,0,0,0,0,0,-1,1539,1268,0,0
322,-244,0,0,0,0,0,0,0,0,0,-1,1546,1268,0,0
329,-244,0,0,0,0,0,0,0,0,0,-1,1553,1268,0,0
336,-244,0,0,0,0,0,0,0,0,0,-1,1560,1268,0,0
343,-244,0,0,0,0,0,0,0,0,0,-1,1567,1268,0,0
350,-244,0,0,0,0,0,0,0,0,0,-1,1574,1268,0,0
357,-244,0,0,0,0,0,0,0,0,0,-1,1581,1268,0,0
364,-244,0,0,0,0,0,0,0,0,0,-1,1588,1268,0,0
371,-244,0,0,0,0,0,0,0,0,0,-1,1595,1268,0,0
378,-244,0,0,0,0,0,0,0,0,0,-1,1602,1268,0,0
385,-244,0,0,0,0,0,0,0,0,0,-1,1609,1268,0,0
392,-244,0,0,0,0,0,0,0,0,0,-1,1616,1268,0,0
399,-244,0,0,0,0,0,0,0,0,0,-1,1623,1268,0,0
406,-244,0,0,0,0,0,0,0,0,0,-1,1630,1268,0,0
413,-244,0,0,0,0,0,0,0,0,0,-1,1637,1268,0,0
420,-244,0,0,0,0,0,0,0,0,0,-1,1644,1268,0,0
427,-244,0,0,0,0,0,0,0,0,0,-1,1651,1268,0,0
434,-244,0,0,0,0,0,0,0,0,0,-1,1658,1268,0,0
441,-244,0,0,0,0,0,0,0,0,0,-1,1665,1268,0,0
448,-244,0,0,0,0,0,0,0,0,0,-1,1672,1268,0,0
455,-244,0,0,0,0,0,0,0,0,0,-1,1679,1268,0,0
462,-244,0,0,0,0,0,0,0,0,0,-1,1686,1268,0,0
469,-244,0,0,0,0,0,0,0,0,0,-1,1693,1268,0,0
476,-244,0,0,0,0,0,0,0,0,0,-1,1700,1268,0,0
483,-244,0,0,0,0,0,0,0,0,0,-1,1707,1268,0,0
490,-244,0,0,0,0,0,0,0,0,0,-1,1714,1268,0,0
497,-244,0,0,0,0,0,0,0,0,0,-1,1721,1268,0,0
504,-244,0,0,0,0,0,0,0,0,0,-1,1728,1268,0,0
511,-244,0,0,0,0,0,0,0,0,0,-1,1735,1268,0,0
518,-244,0,0,0,0,0,0,0,0,0,-1,1742,1268,0,0
525,-244,0,0,0,0,0,0,0,0,0,-1,1749,1268,0,0
532,-244,0,0,0,0,0,0,0,0,0,-1,1756,1268,0,0
539,-244,0,0,0,0,0,0,0,0,0,-1,1763,1268,0,0
546,-244,0,0,0,0,0,0,0,0,0,-1,1770,1268,0,0
553,-244,0,0,0,0,0,0,0,0,0,-1,1777,1268,0,0
560,-244,0,0,0,0,0,0,0,0,0,-1,1784,1268,0,0
567,-244,0,0,0,0,0,0,0,0,0,-1,1791,1268,0,0
574,-244,0,0,0,0,0,0,0,0,0,-1,1798,1268,0,0
581,-244,0,0,0,0,0,0,0,0,0,-1,1805,1268,0,0
588,-244,0,0,0,0,0,0,0,0,0,-1,1812,1268,0,0
595,-244,0,0,0,0,0,0,0,0,0,-1,1819,1268,0,0
602,-244,0,0,0,0,0,0,0,0,0,-1,1826,1268,0,0
609,-244,0,0,0,0,0,0,0,0,0,-1,1833,1268,0,0
616,-244,-0.0732422,-0.020752,-0.00593367,0.00570986,0.00397883,0.00693963,-0.00716343,1.27103,0.00814275,0.0294896,1840,1268,-0.0731858,0.0207967
623,-244,-0.0668945,-0.0335693,-0.00538746,0.00628575,0.00503863,0.00815977,-0.00726148,1.21472,0.0089085,0.0248687,1847,1268,-0.0668364,0.0335121
630,-244,-0.0528564,-0.0296631,-0.00426648,0.00592723,0.00513225,0.00806348,-0.00640274,1.17637,0.0083704,0.0219859,1854,1268,-0.0528188,0.0296479
637,-244,-0.0455322,0.0256348,-0.00339567,0.00455526,0.00465628,0.00670232,-0.00554272,1.13874,0.00708024,0.0319426,1861,1268,-0.0455195,-0.0256265
644,-244,-0.069458,0.0518799,-0.00289966,0.00283733,0.00393134,0.00483543,-0.00489776,1.10057,0.00561949,0.0369807,1868,1268,-0.0694301,-0.0519162
651,-244,-0.271729,0.344849,-0.00258907,0.00114871,0.00313733,0.00293162,-0.00437197,1.05402,0.00424397,0.043318,1875,1268,-0.271782,-0.344873
658,-244,-0.563721,0.87854,-0.00249921,-0.00024147,0.0024026,0.00128424,-0.00402492,1.00502,0.00319849,0.0463764,1882,1268,-0.563758,-0.878593
665,-244,-0.340942,-0.87561,0,0,0,0,0,0,0,-1,1889,1268,-0.340899,0.875614
672,-244,-0.549438,-0.33606,0,0,0,0,0,0,0,-1,1896,1268,-0.549443,0.336081
679,-244,-0.126831,-0.0614014,0,0,0,0,0,0,0,-1,1903,1268,-0.126871,0.0614464
686,-244,-0.0800781,-0.0723877,-0.00262078,-0.00253413,0.00034432,-0.00223042,-0.00292449,0.847984,0.00176441,0.0181348,1910,1268,-0.0800444,0.0723964
693,-244,-0.0891113,-0.0544434,-0.00256561,-0.0028649,-0.000158576,-0.00249722,-0.00293329,-0.407179,0.0018276,0.00856012,1917,1268,-0.0890936,0.0543922
700,-244,-0.0942383,-0.0482178,-0.00256031,-0.00255671,-0.000263084,-0.00229542,-0.0028216,-0.788825,0.00173251,0.00764294,1924,1268,-0.0942616,0.0482104
707,-244,-0.0996094,-0.0437012,-0.00224884,-0.00158496,-0.000154273,-0.00155087,-0.00228294,-1.35326,0.00134602,0.00870674,1931,1268,-0.0995676,0.043735
714,-244,-0.0814209,-0.0402832,-0.00196297,0.00016696,-0.000543447,0.000297606,-0.00209361,-1.33487,0.00150479,0.00909523,1938,1268,-0.0813873,0.0402722
721,-244,-0.0847168,-0.0411377,-0.00197241,0.00158742,-0.00087934,0.00179278,-0.00217777,-1.34136,0.00229599,0.00918163,1945,1268,-0.0846635,0.04116
728,-244,-0.0672607,-0.0432129,-0.00244158,0.00231849,-0.00182545,0.00293792,-0.00306102,-1.24365,0.00346373,0.0120974,1952,1268,-0.0672383,0.0432681
735,-244,-0.0672607,-0.0699463,-0.00336556,0.00379373,-0.00279795,0.00475748,-0.0043293,-1.23908,0.0052482,0.0189947,1959,1268,-0.067201,0.0699468
742,-244,-0.0622559,-0.0594482,-0.00428563,0.00521192,-0.00382632,0.00656164,-0.00563535,-1.23168,0.0070487,0.0142084,1966,1268,-0.062216,0.0594707
749,-244,-0.0720215,-0.0604248,-0.00636941,0.00685623,-0.00532864,0.00873598,-0.00824916,-1.23166,0.00980771,0.0175676,1973,1268,-0.0720688,0.0603961
756,-244,-0.112549,-0.0587158,-0.00943842,0.00861918,-0.00718142,0.0111269,-0.0119462,-1.23483,0.0133241,0.0239083,1980,1268,-0.112571,0.0587197
763,-244,-0.165161,-0.192139,-0.0134917,0.0104436,-0.00934436,0.0136595,-0.0167077,-1.23933,0.0175619,0.0380309,1987,1268,-0.16511,0.192141
770,-244,-0.0643311,-0.386108,-0.0186501,0.0121903,-0.011746,0.0161544,-0.0226142,-1.24531,0.0224864,0.0414699,1994,1268,-0.0643843,0.386168
777,-244,-0.423462,-0.549072,-0.0249884,0.0136803,-0.0142045,0.0183373,-0.0296454,-1.25399,0.0279581,0.0423406,2001,1268,-0.423443,0.549057
784,-244,-1.05334,-0.965088,-0.0324537,0.0146591,-0.0164049,0.0198085,-0.0376032,-1.26664,0.0336732,0.0428139,2008,1268,-1.05329,0.965082
791,-244,0,0,0,0,0,0,0,0,0,-1,2015,1268,0,0
798,-244,0,0,0,0,0,0,0,0,0,-1,2022,1268,0,0
805,-244,0,0,0,0,0,0,0,0,0,-1,2029,1268,0,0
812,-244,0,0,0,0,0,0,0,0,0,-1,2036,1268,0,0
-700,-251,0,0,0,0,0,0,0,0,0,-1,524,1275,0,0
-693,-251,0,0,0,0,0,0,0,0,0,-1,531,1275,0,0
-686,-251,0,0,0,0,0,0,0,0,0,-1,538,1275,0,0
-679,-251,0,0,0,0,0,0,0,0,0,-1,545,1275,0,0
-672,-251,0,0,0,0,0,0,0,0,0,-1,552,1275,0,0
-665,-251,-0.0762939,0.238525,0.0275666,0.0773383,0.0325157,0.0933985,0.0115064,1.11202,0.0588066,0.0431873,559,1275,-0.0763168,-0.238496
-658,-251,0.198303,0.132935,0.0251294,0.06103,0.0237056,0.0728147,0.0133447,1.10945,0.0447629,0.0437122,566,1275,0.198295,-0.132885
-651,-251,0.750549,0.23938,0.0218671,0.047216,0.0169817,0.0557317,0.0133514,1.10598,0.0336001,0.044499,573,1275,0.75057,-0.239434
-644,-251,-1.42877,-0.995605,0,0,0,0,0,0,0,-1,580,1275,-1.42876,0.995547
-637,-251,-1.07166,-0.711304,0.014888,0.026133,0.00809407,0.0303658,0.0106552,1.08896,0.0177896,0.0434032,587,1275,-1.07167,0.711296
-630,-251,-0.586487,-0.307251,0.0116797,0.0185344,0.00529784,0.0214169,0.00879724,1.07251,0.0124305,0.0420053,594,1275,-0.586481,0.307209
-623,-251,-0.170959,0.0161133,0.00876363,0.0126656,0.0034914,0.0147142,0.0067151,1.04019,0.00850601,0.0344825,601,1275,-0.170972,-0.0160602
-616,-251,-0.103394,-0.0290527,0.00682854,0.00850098,0.00196709,0.00980222,0.00552731,0.986378,0.00567469,0.01828,608,1275,-0.103365,0.0290606
-609,-251,-0.0852051,-0.0516357,0.00494054,0.00603773,0.000861458,0.00651044,0.00446783,1.06893,0.00384476,0.017916,615,1275,-0.0852307,0.0516052
-602,-251,-0.0939941,-0.0552979,0.0027731,0.00179437,-0.000303387,0.00285951,0.00170796,-0.277484,0.00166133,0.013973,622,1275,-0.0939747,0.0552897
-595,-251,-0.0883179,-0.0600586,0.00109203,0.000395442,-0.000377174,0.00125712,0.000230346,-0.412595,0.000772828,0.012516,629,1275,-0.0883157,0.0601125
-588,-251,-0.0752563,-0.0739746,0.000261684,-1.33288e-06,0.000319736,0.000475901,-0.000215549,0.590292,0.000408533,0.0139093,636,1275,-0.075254,0.0739244
-581,-251,-0.0742798,-0.0592041,0.00045903,0.000419334,-0.000231494,0.000671526,0.000206839,-0.742633,0.000397118,0.012735,643,1275,-0.0742563,0.0591976
-574,-251,-0.0765381,-0.041626,0.00119193,-7.82444e-05,-0.00100949,0.0017495,-0.000635806,-0.504621,0.00142631,0.0118548,650,1275,-0.07654,0.0416173
-567,-251,-0.0831299,-0.0675049,0.00228129,-9.06092e-05,-0.00196666,0.00339191,-0.00120123,-0.514077,0.00275055,0.0100719,657,1275,-0.0831447,0.0675434
-560,-251,-0.0823364,-0.0802002,0.00360501,-0.000491242,-0.00244485,0.00474626,-0.00163249,-0.436735,0.00382624,0.0104788,664,1275,-0.0823217,0.0802527
-553,-251,-0.0510254,-0.0325928,0.0050719,-0.000871599,-0.0033372,0.00656873,-0.00236843,-0.42163,0.00534646,0.0242746,671,1275,-0.0510297,0.032624
-546,-251,-0.0292969,-0.0344238,0.00656994,-0.000948348,-0.00445428,0.00863932,-0.00301774,-0.434916,0.0069862,0.0457766,678,1275,-0.0293168,0.0344715
-539,-251,-1.9826,2.47327,0,0,0,0,0,0,0,-1,685,1275,-1.9826,-2.47324
-532,-251,-1.44037,1.57349,0.0107909,-0.000653074,-0.00698452,0.014098,-0.00396019,-0.442218,0.0109599,0.0471589,692,1275,-1.44039,-1.57349
-525,-251,-0.746826,0.626831,0.012862,-0.000311344,-0.00817626,0.0167747,-0.00422397,-0.446329,0.0128251,0.0493654,699,1275,-0.746806,-0.626864
-518,-251,0.0948486,-0.426636,0.0147516,0.000393664,-0.00919534,0.0192385,-0.00409321,-0.453962,0.0143855,0.0410093,706,1275,0.0948297,0.426603
-511,-251,0.0718384,-0.127563,0.0162663,0.00162702,-0.00994965,0.0212987,-0.00340537,-0.468265,0.0154598,0.0412441,713,1275,0.0718285,0.127513
-504,-251,0.0689087,-0.0900879,0.0171398,0.0037132,-0.0103157,0.0227343,-0.0018813,-0.496935,0.0158206,0.0413743,720,1275,0.0688819,0.0900411
-497,-251,0.015564,-0.114258,0.0166678,0.00755904,-0.0100794,0.0231741,0.00105279,-0.573203,0.0151107,0.0442738,727,1275,0.0155425,0.114318
-490,-251,0,0,0,0,0,0,0,0,0,-1,734,1275,0,0
-483,-251,0,0,0,0,0,0,0,0,0,-1,741,1275,0,0
-476,-251,0,0,0,0,0,0,0,0,0,-1,748,1275,0,0
-469,-251,0,0,0,0,0,0,0,0,0,-1,755,1275,0,0
-462,-251,0,0,0,0,0,0,0,0,0,-1,762,1275,0,0
-455,-251,0,0,0,0,0,0,0,0,0,-1,769,1275,0,0
-448,-251,0,0,0,0,0,0,0,0,0,-1,776,1275,0,0
-441,-251,0,0,0,0,0,0,0,0,0,-1,783,1275,0,0
-434,-251,0,0,0,0,0,0,0,0,0,-1,790,1275,0,0
-427,-251,0,0,0,0,0,0,0,0,0,-1,797,1275,0,0
-420,-251,0,0,0,0,0,0,0,0,0,-1,804,1275,0,0
-413,-251,0,0,0,0,0,0,0,0,0,-1,811,1275,0,0
-406,-251,0,0,0,0,0,0,0,0,0,-1,818,1275,0,0
-399,-251,0,0,0,0,0,0,0,0,0,-1,825,1275,0,0
-392,-251,0,0,0,0,0,0,0,0,0,-1,832,1275,0,0
-385,-251,0,0,0,0,0,0,0,0,0,-1,839,1275,0,0
-378,-251,0,0,0,0,0,0,0,0,0,-1,846,1275,0,0
-371,-251,0,0,0,0,0,0,0,0,0,-1,853,1275,0,0
-364,-251,0,0,0,0,0,0,0,0,0,-1,860,1275,0,0
-357,-251,0,0,0,0,0,0,0,0,0,-1,867,1275,0,0
-350,-251,0,0,0,0,0,0,0,0,0,-1,874,1275,0,0
-343,-251,0,0,0,0,0,0,0,0,0,-1,881,1275,0,0
-336,-251,0,0,0,0,0,0,0,0,0,-1,888,1275,0,0
-329,-251,0,0,0,0,0,0,0,0,0,-1,895,1275,0,0
-322,-251,0,0,0,0,0,0,0,0,0,-1,902,1275,0,0
-315,-251,0,0,0,0,0,0,0,0,0,-1,909,1275,0,0
-308,-251,0,0,0,0,0,0,0,0,0,-1,916,1275,0,0
-301,-251,0,0,0,0,0,0,0,0,0,-1,923,1275,0,0
-294,-251,0,0,0,0,0,0,0,0,0,-1,930,1275,0,0
-287,-251,0,0,0,0,0,0,0,0,0,-1,937,1275,0,0
-280,-251,0,0,0,0,0,0,0,0,0,-1,944,1275,0,0
-273,-251,0,0,0,0,0,0,0,0,0,-1,951,1275,0,0
-266,-251,0,0,0,0,0,0,0,0,0,-1,958,1275,0,0
-259,-251,0,0,0,0,0,0,0,0,0,-1,965,1275,0,0
-252,-251,0,0,0,0,0,0,0,0,0,-1,972,1275,0,0
-245,-251,0,0,0,0,0,0,0,0,0,-1,979,1275,0,0
-238,-251,0,0,0,0,0,0,0,0,0,-1,986,1275,0,0
-231,-251,0,0,0,0,0,0,0,0,0,-1,993,1275,0,0
-224,-251,0,0,0,0,0,0,0,0,0,-1,1000,1275,0,0
-217,-251,0,0,0,0,0,0,0,0,0,-1,1007,1275,0,0
-210,-251,0,0,0,0,0,0,0,0,0,-1,1014,1275,0,0
-203,-251,0,0,0,0,0,0,0,0,0,-1,1021,1275,0,0
-196,-251,0,0,0,0,0,0,0,0,0,-1,1028,1275,0,0
-189,-251,0,0,0,0,0,0,0,0,0,-1,1035,1275,0,0
-182,-251,0,0,0,0,0,0,0,0,0,-1,1042,1275,0,0
-175,-251,0,0,0,0,0,0,0,0,0,-1,1049,1275,0,0
-168,-251,0,0,0,0,0,0,0,0,0,-1,1056,1275,0,0
-161,-251,0,0,0,0,0,0,0,0,0,-1,1063,1275,0,0
-154,-251,0,0,0,0,0,0,0,0,0,-1,1070,1275,0,0
-147,-251,0,0,0,0,0,0,0,0,0,-1,1077,1275,0,0
-140,-251,0,0,0,0,0,0,0,0,0,-1,1084,1275,0,0
-133,-251,0,0,0,0,0,0,0,0,0,-1,1091,1275,0,0
-126,-251,0,0,0,0,0,0,0,0,0,-1,1098,1275,0,0
-119,-251,0,0,0,0,0,0,0,0,0,-1,1105,1275,0,0
-112,-251,0,0,0,0,0,0,0,0,0,-1,1112,1275,0,0
-105,-251,0,0,0,0,0,0,0,0,0,-1,1119,1275,0,0
-98,-251,0,0,0,0,0,0,0,0,0,-1,1126,1275,0,0
-91,-251,0,0,0,0,0,0,0,0,0,-1,1133,1275,0,0
-84,-251,0,0,0,0,0,0,0,0,0,-1,1140,1275,0,0
-77,-251,0,0,0,0,0,0,0,0,0,-1,1147,1275,0,0
-70,-251,0,0,0,0,0,0,0,0,0,-1,1154,1275,0,0
-63,-251,0,0,0,0,0,0,0,0,0,-1,1161,1275,0,0
-56,-251,0,0,0,0,0,0,0,0,0,-1,1168,1275,0,0
-49,-251,0,0,0,0,0,0,0,0,0,-1,1175,1275,0,0
-42,-251,0,0,0,0,0,0,0,0,0,-1,1182,1275,0,0
-35,-251,0,0,0,0,0,0,0,0,0,-1,1189,1275,0,0
-28,-251,0,0,0,0,0,0,0,0,0,-1,1196,1275,0,0
-21,-251,0,0,0,0,0,0,0,0,0,-1,1203,1275,0,0
-14,-251,0,0,0,0,0,0,0,0,0,-1,1210,1275,0,0
-7,-251,0,0,0,0,0,0,0,0,0,-1,1217,1275,0,0
0,-251,0,0,0,0,0,0,0,0,0,-1,1224,1275,0,0
7,-251,0,0,0,0,0,0,0,0,0,-1,1231,1275,0,0
14,-251,0,0,0,0,0,0,0,0,0,-1,1238,1275,0,0
21,-251,0,0,0,0,0,0,0,0,0,-1,1245,1275,0,0
28,-251,0,0,0,0,0,0,0,0,0,-1,1252,1275,0,0
35,-251,0,0,0,0,0,0,0,0,0,-1,1259,1275,0,0
42,-251,0,0,0,0,0,0,0,0,0,-1,1266,1275,0,0
49,-251,0,0,0,0,0,0,0,0,0,-1,1273,1275,0,0
56,-251,0,0,0,0,0,0,0,0,0,-1,1280,1275,0,0
63,-251,0,0,0,0,0,0,0,0,0,-1,1287,1275,0,0
70,-251,0,0,0,0,0,0,0,0,0,-1,1294,1275,0,0
77,-251,0,0,0,0,0,0,0,0,0,-1,1301,1275,0,0
84,-251,0,0,0,0,0,0,0,0,0,-1,1308,1275,0,0
91,-251,0,0,0,0,0,0,0,0,0,-1,1315,1275,0,0
98,-251,0,0,0,0,0,0,0,0,0,-1,1322,1275,0,0
105,-251,0,0,0,0,0,0,0,0,0,-1,1329,1275,0,0
112,-251,0,0,0,0,0,0,0,0,0,-1,1336,1275,0,0
119,-251,0,0,0,0,0,0,0,0,0,-1,1343,1275,0,0
126,-251,0,0,0,0,0,0,0,0,0,-1,1350,1275,0,0
133,-251,0,0,0,0,0,0,0,0,0,-1,1357,1275,0,0
140,-251,0,0,0,0,0,0,0,0,0,-1,1364,1275,0,0
147,-251,0,0,0,0,0,0,0,0,0,-1,1371,1275,0,0
154,-251,0,0,0,0,0,0,0,0,0,-1,1378,1275,0,0
161,-251,0,0,0,0,0,0,0,0,0,-1,1385,1275,0,0
168,-251,0,0,0,0,0,0,0,0,0,-1,1392,1275,0,0
175,-251,0,0,0,0,0,0,0,0,0,-1,1399,1275,0,0
182,-251,0,0,0,0,0,0,0,0,0,-1,1406,1275,0,0
189,-251,0,0,0,0,0,0,0,0,0,-1,1413,1275,0,0
196,-251,0,0,0,0,0,0,0,0,0,-1,1420,1275,0,0
203,-251,0,0,0,0,0,0,0,0,0,-1,1427,1275,0,0
210,-251,0,0,0,0,0,0,0,0,0,-1,1434,1275,0,0
217,-251,0,0,0,0,0,0,0,0,0,-1,1441,1275,0,0
224,-251,0,0,0,0,0,0,0,0,0,-1,1448,1275,0,0
231,-251,0,0,0,0,0,0,0,0,0,-1,1455,1275,0,0
238,-251,0,0,0,0,0,0,0,0,0,-1,1462,1275,0,0
245,-251,0,0,0,0,0,0,0,0,0,-1,1469,1275,0,0
252,-251,0,0,0,0,0,0,0,0,0,-1,1476,1275,0,0
259,-251,0,0,0,0,0,0,0,0,0,-1,1483,1275,0,0
266,-251,0,0,0,0,0,0,0,0,0,-1,1490,1275,0,0
273,-251,0,0,0,0,0,0,0,0,0,-1,1497,1275,0,0
280,-251,0,0,0,0,0,0,0,0,0,-1,1504,1275,0,0
287,-251,0,0,0,0,0,0,0,0,0,-1,1511,1275,0,0
294,-251,0,0,0,0,0,0,0,0,0,-1,1518,1275,0,0
301,-251,0,0,0,0,0,0,0,0,0,-1,1525,1275,0,0
308,-251,0,0,0,0,0,0,0,0,0,-1,1532,1275,0,0
315,-251,0,0,0,0,0,0,0,0,0,-1,1539,1275,0,0
322,-251,0,0,0,0,0,0,0,0,0,-1,1546,1275,0,0
329,-251,0,0,0,0,0,0,0,0,0,-1,1553,1275,0,0
336,-251,0,0,0,0,0,0,0,0,0,-1,1560,1275,0,0
343,-251,0,0,0,0,0,0,0,0,0,-1,1567,1275,0,0
350,-251,0,0,0,0,0,0,0,0,0,-1,1574,1275,0,0
357,-251,0,0,0,0,0,0,0,0,0,-1,1581,1275,0,0
364,-251,0,0,0,0,0,0,0,0,0,-1,1588,1275,0,0
371,-251,0,0,0,0,0,0,0,0,0,-1,1595,1275,0,0
378,-251,0,0,0,0,0,0,0,0,0,-1,1602,1275,0,0
385,-251,0,0,0,0,0,0,0,0,0,-1,1609,1275,0,0
392,-251,0,0,0,0,0,0,0,0,0,-1,1616,1275,0,0
399,-251,0,0,0,0,0,0,0,0,0,-1,1623,1275,0,0
406,-251,0,0,0,0,0,0,0,0,0,-1,1630,1275,0,0
413,-251,0,0,0,0,0,0,0,0,0,-1,1637,1275,0,0
420,-251,0,0,0,0,0,0,0,0,0,-1,1644,1275,0,0
427,-251,0,0,0,0,0,0,0,0,0,-1,1651,1275,0,0
434,-251,0,0,0,0,0,0,0,0,0,-1,1658,1275,0,0
441,-251,0,0,0,0,0,0,0,0,0,-1,1665,1275,0,0
448,-251,0,0,0,0,0,0,0,0,0,-1,1672,1275,0,0
455,-251,0,0,0,0,0,0,0,0,0,-1,1679,1275,0,0
462,-251,0,0,0,0,0,0,0,0,0,-1,1686,1275,0,0
469,-251,0,0,0,0,0,0,0,0,0,-1,1693,1275,0,0
476,-251,0,0,0,0,0,0,0,0,0,-1,1700,1275,0,0
483,-251,0,0,0,0,0,0,0,0,0,-1,1707,1275,0,0
490,-251,0,0,0,0,0,0,0,0,0,-1,1714,1275,0,0
497,-251,0,0,0,0,0,0,0,0,0,-1,1721,1275,0,0
504,-251,0,0,0,0,0,0,0,0,0,-1,1728,1275,0,0
511,-251,0,0,0,0,0,0,0,0,0,-1,1735,1275,0,0
518,-251,0,0,0,0,0,0,0,0,0,-1,1742,1275,0,0
525,-251,0,0,0,0,0,0,0,0,0,-1,1749,1275,0,0
532,-251,0,0,0,0,0,0,0,0,0,-1,1756,1275,0,0
539,-251,0,0,0,0,0,0,0,0,0,-1,1763,1275,0,0
546,-251,0,0,0,0,0,0,0,0,0,-1,1770,1275,0,0
553,-251,0,0,0,0,0,0,0,0,0,-1,1777,1275,0,0
560,-251,0,0,0,0,0,0,0,0,0,-1,1784,1275,0,0
567,-251,0,0,0,0,0,0,0,0,0,-1,1791,1275,0,0
574,-251,0,0,0,0,0,0,0,0,0,-1,1798,1275,0,0
581,-251,0,0,0,0,0,0,0,0,0,-1,1805,1275,0,0
588,-251,0,0,0,0,0,0,0,0,0,-1,1812,1275,0,0
595,-251,0,0,0,0,0,0,0,0,0,-1,1819,1275,0,0
602,-251,0,0,0,0,0,0,0,0,0,-1,1826,1275,0,0
609,-251,-0.0299072,-0.124878,-0.000510185,0.00283431,0.00304539,0.00463638,-0.00231225,1.03648,0.00408591,0.0261212,1833,1275,-0.029877,0.124878
616,-251,-0.0773926,-0.0997314,-0.00332637,0.00731204,0.00546769,0.00962104,-0.00563537,1.17122,0.00890792,0.0234711,1840,1275,-0.0773871,0.0996983
623,-251,-0.064209,-0.050293,-0.00411688,0.00877005,0.00617686,0.0112525,-0.00659932,1.18866,0.0104228,0.0216346,1847,1275,-0.06426,0.0503525
630,-251,-0.0183105,0.0286865,-0.00403931,0.00892141,0.00593054,0.0112255,-0.00634339,1.20023,0.0102731,0.0325829,1854,1275,-0.0183689,-0.0286271
637,-251,-0.0330811,0.0361328,-0.00381426,0.00781017,0.00514536,0.00976046,-0.00576455,1.20849,0.0090618,0.039676,1861,1275,-0.0330698,-0.0360792
644,-251,-0.214722,0.00744629,-0.00360216,0.00608655,0.00415139,0.007622,-0.0051376,1.21654,0.00741316,0.0456318,1868,1275,-0.214746,-0.00747409
651,-251,0.0601807,0.411499,-0.00335464,0.00418025,0.00314082,0.00531774,-0.00449213,1.22333,0.00567041,0.046805,1875,1275,0.06015,-0.411456
658,-251,0.400879,-0.0155029,0,0,0,0,0,0,0,-1,1882,1275,0.400829,0.0155635
665,-251,-0.159546,-0.0571289,0,0,0,0,0,0,0,-1,1889,1275,-0.159508,0.0570825
672,-251,-0.141968,-0.0500488,-0.00305062,-5.39626e-05,0.000925995,0.000209088,-0.00331367,1.29401,0.002282,0.0463924,1896,1275,-0.142002,0.0499896
679,-251,-0.139771,-0.0358887,-0.00283541,-0.00079438,0.000513009,-0.000672692,-0.0029571,1.3379,0.00178981,0.0366184,1903,1275,-0.139741,0.0359349
686,-251,-0.130615,-0.0292969,-0.00259531,-0.00126706,-2.14887e-05,-0.00126671,-0.00259566,-1.55462,0.00149875,0.0142181,1910,1275,-0.130594,0.029333
693,-251,-0.0921631,-0.0322266,-0.00238818,-0.00202955,-0.000566937,-0.00161424,-0.00280348,-0.938566,0.00162478,0.00778019,1917,1275,-0.0922002,0.0321983
700,-251,-0.0811768,-0.0402832,-0.00227177,-0.00214958,-0.000619357,-0.00158831,-0.00283303,-0.834561,0.00163966,0.00767433,1924,1275,-0.0811746,0.0402539
707,-251,-0.0791016,-0.0439453,-0.00183919,-0.00130624,-0.000387978,-0.00110204,-0.00204339,-1.08631,0.00118097,0.010032,1931,1275,-0.0791458,0.0439671
714,-251,-0.0734863,-0.0472412,-0.00146178,0.000512705,-0.000739025,0.000758672,-0.00170775,-1.2495,0.00145871,0.0101504,1938,1275,-0.0734547,0.0472292
721,-251,-0.0770264,-0.0501709,-0.00145898,0.00197931,-0.00108211,0.00229152,-0.00177119,-1.2899,0.00235201,0.0088049,1945,1275,-0.0770661,0.0501418
728,-251,-0.0703125,-0.0391846,-0.00205603,0.00282261,-0.0021438,0.00363078,-0.00286419,-1.21029,0.00375857,0.00950238,1952,1275,-0.0703269,0.0392451
735,-251,-0.067749,-0.057373,-0.00320964,0.00443284,-0.00333616,0.00568426,-0.00446105,-1.21193,0.00587157,0.012199,1959,1275,-0.0677182,0.0574175
742,-251,-0.0588379,-0.0495605,-0.00442344,0.00609247,-0.00457347,0.00780321,-0.00613418,-1.21285,0.00806597,0.013802,1966,1275,-0.0588109,0.0496198
749,-251,-0.0675049,-0.0759277,-0.00683799,0.00805023,-0.00640399,0.0104258,-0.00921355,-1.21558,0.011346,0.0216872,1973,1275,-0.0675369,0.0759184
756,-251,-0.107178,-0.0666504,-0.0103454,0.0101859,-0.00870993,0.013383,-0.0135425,-1.219,0.0155455,0.0382496,1980,1275,-0.107193,0.0666361
763,-251,-0.1698,-0.181152,-0.0150644,0.0124164,-0.0115005,0.0165942,-0.0192422,-1.22235,0.020709,0.0456839,1987,1275,-0.169769,0.181148
770,-251,-0.0490723,-0.0797119,0,0,0,0,0,0,0,-1,1994,1275,-0.049109,0.0797112
777,-251,-0.407349,0.0963135,-0.0289723,0.0164234,-0.0183513,0.0229139,-0.0354628,-1.23084,0.0339624,0.0439235,2001,1275,-0.407362,-0.0963413
784,-251,-1.25671,-0.664917,-0.038451,0.0176319,-0.0220519,0.0252641,-0.0460832,-1.2376,0.0417729,0.0452238,2008,1275,-1.25674,0.664925
791,-251,0,0,0,0,0,0,0,0,0,-1,2015,1275,0,0
798,-251,0,0,0,0,0,0,0,0,0,-1,2022,1275,0,0
805,-251,0,0,0,0,0,0,0,0,0,-1,2029,1275,0,0
812,-251,0,0,0,0,0,0,0,0,0,-1,2036,1275,0,0
-700,-258,0,0,0,0,0,0,0,0,0,-1,524,1282,0,0
-693,-258,0,0,0,0,0,0,0,0,0,-1,531,1282,0,0
-686,-258,0,0,0,0,0,0,0,0,0,-1,538,1282,0,0
-679,-258,0,0,0,0,0,0,0,0,0,-1,545,1282,0,0
-672,-258,0,0,0,0,0,0,0,0,0,-1,552,1282,0,0
-665,-258,0.490356,0.168213,0,0,0,0,0,0,0,-1,559,1282,0.490331,-0.168272
-658,-258,0.268066,-0.0354004,0,0,0,0,0,0,0,-1,566,1282,0.26809,0.0354046
-651,-258,-0.046936,-0.178467,0,0,0,0,0,0,0,-1,573,1282,-0.0469163,0.178428
-644,-258,-0.219604,-0.125488,0.0200656,0.0421157,0.017445,0.0517275,0.0104538,1.0672,0.0315824,0.0477966,580,1282,-0.219606,0.125453
-637,-258,-0.421143,-0.052002,0.0159655,0.0302443,0.0120458,0.0371075,0.00910229,1.05291,0.0223314,0.0442764,587,1282,-0.421155,0.0520371
-630,-258,-0.405396,0.228027,0.0123017,0.0210279,0.00807965,0.0258472,0.00748234,1.03297,0.0153575,0.0443871,594,1282,-0.405392,-0.228006
-623,-258,-0.268616,0.136963,0.00914287,0.0141299,0.00536708,0.0175544,0.00571835,1.00286,0.0103382,0.0404769,601,1282,-0.268607,-0.137002
-616,-258,-0.150696,-0.0273438,0.00698007,0.00932383,0.00324569,0.0116027,0.00470118,0.958644,0.00673887,0.0278728,608,1282,-0.150676,0.0274027
-609,-258,-0.072998,-0.0615234,0.00492112,0.00640223,0.00179003,0.00759885,0.0037245,0.981534,0.00438748,0.0152602,615,1282,-0.07302,0.0614879
-602,-258,-0.0643921,-0.0537109,0.002621,0.00159844,0.000220322,0.00266645,0.00155299,0.203439,0.00154643,0.012931,622,1282,-0.0643852,0.0536586
-595,-258,-0.0697632,-0.0593262,0.000947031,4.02554e-05,-0.000173047,0.000978932,8.3537e-06,-0.182305,0.000649855,0.0110207,629,1282,-0.0697455,0.0592716
-588,-258,-0.0647583,-0.067627,0.000201347,-0.000381187,0.000343747,0.000360633,-0.000540474,0.433927,0.000523696,0.0115999,636,1282,-0.0647652,0.0676454
-581,-258,-0.0643921,-0.0526123,0.000467634,1.01837e-05,-0.00033062,0.000640935,-0.000163117,-0.482796,0.000490783,0.0132401,643,1282,-0.0643651,0.0525789
-574,-258,-0.0511475,-0.045166,0.00118014,-0.000514049,-0.00125968,0.00185106,-0.00118497,-0.489395,0.00176686,0.0135186,650,1282,-0.0511446,0.045199
-567,-258,-0.0759277,-0.0837402,0.00228105,-0.000674926,-0.00239946,0.0036212,-0.00201507,-0.509359,0.00329785,0.0127898,657,1282,-0.0759543,0.0837196
-560,-258,-0.085144,-0.115845,0.00399861,-0.00125863,-0.00311051,0.00544245,-0.00270247,-0.434583,0.00479034,0.0173223,664,1282,-0.085139,0.115878
-553,-258,-0.0755005,-0.0559082,0.00572712,-0.00163927,-0.00419496,0.00762636,-0.00353851,-0.425133,0.00658849,0.0216804,671,1282,-0.0754758,0.0559653
-546,-258,-1.6806,3.2146,0,0,0,0,0,0,0,-1,678,1282,-1.6806,-3.21463
-539,-258,-1.28003,2.03247,0,0,0,0,0,0,0,-1,685,1282,-1.28004,-2.03242
-532,-258,-1.02869,1.00708,0,0,0,0,0,0,0,-1,692,1282,-1.02867,-1.00713
-525,-258,-0.798096,0.626465,0,0,0,0,0,0,0,-1,699,1282,-0.798087,-0.626425
-518,-258,0.241211,-0.569458,0.0177381,0.000742019,-0.0112567,0.0233443,-0.00486417,-0.462072,0.0174122,0.0445615,706,1282,0.241214,0.5695
-511,-258,-0.0977783,0.0905762,0.0200059,0.00249736,-0.0123171,0.0263628,-0.00385954,-0.476448,0.0189929,0.0444253,713,1282,-0.0977869,-0.0905159
-504,-258,-0.0985718,0.188843,0.021805,0.00526484,-0.0130536,0.0289878,-0.00191796,-0.503038,0.0199952,0.0415322,720,1282,-0.0985644,-0.188874
-497,-258,0.0244141,-0.0977783,0.0225716,0.00979706,-0.0132776,0.0309184,0.00145028,-0.561209,0.0201463,0.0436126,727,1282,0.0243919,0.0978281
-490,-258,-0.0622559,-0.121094,0.0211605,0.0159675,-0.0123887,0.0312218,0.00590613,-0.6821,0.0191518,0.041144,734,1282,-0.0622812,0.121143
-483,-258,0,0,0,0,0,0,0,0,0,-1,741,1282,0,0
-476,-258,0,0,0,0,0,0,0,0,0,-1,748,1282,0,0
-469,-258,0,0,0,0,0,0,0,0,0,-1,755,1282,0,0
-462,-258,0,0,0,0,0,0,0,0,0,-1,762,1282,0,0
-455,-258,0,0,0,0,0,0,0,0,0,-1,769,1282,0,0
-448,-258,0,0,0,0,0,0,0,0,0,-1,776,1282,0,0
-441,-258,0,0,0,0,0,0,0,0,0,-1,783,1282,0,0
-434,-258,0,0,0,0,0,0,0,0,0,-1,790,1282,0,0
-427,-258,0,0,0,0,0,0,0,0,0,-1,797,1282,0,0
-420,-258,0,0,0,0,0,0,0,0,0,-1,804,1282,0,0
-413,-258,0,0,0,0,0,0,0,0,0,-1,811,1282,0,0
-406,-258,0,0,0,0,0,0,0,0,0,-1,818,1282,0,0
-399,-258,0,0,0,0,0,0,0,0,0,-1,825,1282,0,0
-392,-258,0,0,0,0,0,0,0,0,0,-1,832,1282,0,0
-385,-258,0,0,0,0,0,0,0,0,0,-1,839,1282,0,0
-378,-258,0,0,0,0,0,0,0,0,0,-1,846,1282,0,0
-371,-258,0,0,0,0,0,0,0,0,0,-1,853,1282,0,0
-364,-258,0,0,0,0,0,0,0,0,0,-1,860,1282,0,0
-357,-258,0,0,0,0,0,0,0,0,0,-1,867,1282,0,0
-350,-258,0,0,0,0,0,0,0,0,0,-1,874,1282,0,0
-343,-258,0,0,0,0,0,0,0,0,0,-1,881,1282,0,0
-336,-258,0,0,0,0,0,0,0,0,0,-1,888,1282,0,0
-329,-258,0,0,0,0,0,0,0,0,0,-1,895,1282,0,0
-322,-258,0,0,0,0,0,0,0,0,0,-1,902,1282,0,0
-315,-258,0,0,0,0,0,0,0,0,0,-1,909,1282,0,0
-308,-258,0,0,0,0,0,0,0,0,0,-1,916,1282,0,0
-301,-258,0,0,0,0,0,0,0,0,0,-1,923,1282,0,0
-294,-258,0,0,0,0,0,0,0,0,0,-1,930,1282,0,0
-287,-258,0,0,0,0,0,0,0,0,0,-1,937,1282,0,0
-280,-258,0,0,0,0,0,0,0,0,0,-1,944,1282,0,0
-273,-258,0,0,0,0,0,0,0,0,0,-1,951,1282,0,0
-266,-258,0,0,0,0,0,0,0,0,0,-1,958,1282,0,0
-259,-258,0,0,0,0,0,0,0,0,0,-1,965,1282,0,0
-252,-258,0,0,0,0,0,0,0,0,0,-1,972,1282,0,0
-245,-258,0,0,0,0,0,0,0,0,0,-1,979,1282,0,0
-238,-258,0,0,0,0,0,0,0,0,0,-1,986,1282,0,0
-231,-258,0,0,0,0,0,0,0,0,0,-1,993,1282,0,0
-224,-258,0,0,0,0,0,0,0,0,0,-1,1000,1282,0,0
-217,-258,0,0,0,0,0,0,0,0,0,-1,1007,1282,0,0
-210,-258,0,0,0,0,0,0,0,0,0,-1,1014,1282,0,0
-203,-258,0,0,0,0,0,0,0,0,0,-1,1021,1282,0,0
-196,-258,0,0,0,0,0,0,0,0,0,-1,1028,1282,0,0
-189,-258,0,0,0,0,0,0,0,0,0,-1,1035,1282,0,0
-182,-258,0,0,0,0,0,0,0,0,0,-1,1042,1282,0,0
-175,-258,0,0,0,0,0,0,0,0,0,-1,1049,1282,0,0
-168,-258,0,0,0,0,0,0,0,0,0,-1,1056,1282,0,0
-161,-258,0,0,0,0,0,0,0,0,0,-1,1063,1282,0,0
-154,-258,0,0,0,0,0,0,0,0,0,-1,1070,1282,0,0
-147,-258,0,0,0,0,0,0,0,0,0,-1,1077,1282,0,0
-140,-258,0,0,0,0,0,0,0,0,0,-1,1084,1282,0,0
-133,-258,0,0,0,0,0,0,0,0,0,-1,1091,1282,0,0
-126,-258,0,0,0,0,0,0,0,0,0,-1,1098,1282,0,0
-119,-258,0,0,0,0,0,0,0,0,0,-1,1105,1282,0,0
-112,-258,0,0,0,0,0,0,0,0,0,-1,1112,1282,0,0
-105,-258,0,0,0,0,0,0,0,0,0,-1,1119,1282,0,0
-98,-258,0,0,0,0,0,0,0,0,0,-1,1126,1282,0,0
-91,-258,0,0,0,0,0,0,0,0,0,-1,1133,1282,0,0
-84,-258,0,0,0,0,0,0,0,0,0,-1,1140,1282,0,0
-77,-258,0,0,0,0,0,0,0,0,0,-1,1147,1282,0,0
-70,-258,0,0,0,0,0,0,0,0,0,-1,1154,1282,0,0
-63,-258,0,0,0,0,0,0,0,0,0,-1,1161,1282,0,0
-56,-258,0,0,0,0,0,0,0,0,0,-1,1168,1282,0,0
-49,-258,0,0,0,0,0,0,0,0,0,-1,1175,1282,0,0
-42,-258,0,0,0,0,0,0,0,0,0,-1,1182,1282,0,0
-35,-258,0,0,0,0,0,0,0,0,0,-1,1189,1282,0,0
-28,-258,0,0,0,0,0,0,0,0,0,-1,1196,1282,0,0
-21,-258,0,0,0,0,0,0,0,0,0,-1,1203,1282,0,0
-14,-258,0,0,0,0,0,0,0,0,0,-1,1210,1282,0,0
-7,-258,0,0,0,0,0,0,0,0,0,-1,1217,1282,0,0
0,-258,0,0,0,0,0,0,0,0,0,-1,1224,1282,0,0
7,-258,0,0,0,0,0,0,0,0,0,-1,1231,1282,0,0
14,-258,0,0,0,0,0,0,0,0,0,-1,1238,1282,0,0
21,-258,0,0,0,0,0,0,0,0,0,-1,1245,1282,0,0
28,-258,0,0,0,0,0,0,0,0,0,-1,1252,1282,0,0
35,-258,0,0,0,0,0,0,0,0,0,-1,1259,1282,0,0
42,-258,0,0,0,0,0,0,0,0,0,-1,1266,1282,0,0
49,-258,0,0,0,0,0,0,0,0,0,-1,1273,1282,0,0
56,-258,0,0,0,0,0,0,0,0,0,-1,1280,1282,0,0
63,-258,0,0,0,0,0,0,0,0,0,-1,1287,1282,0,0
70,-258,0,0,0,0,0,0,0,0,0,-1,1294,1282,0,0
77,-258,0,0,0,0,0,0,0,0,0,-1,1301,1282,0,0
84,-258,0,0,0,0,0,0,0,0,0,-1,1308,1282,0,0
91,-258,0,0,0,0,0,0,0,0,0,-1,1315,1282,0,0
98,-258,0,0,0,0,0,0,0,0,0,-1,1322,1282,0,0
105,-258,0,0,0,0,0,0,0,0,0,-1,1329,1282,0,0
112,-258,0,0,0,0,0,0,0,0,0,-1,1336,1282,0,0
119,-258,0,0,0,0,0,0,0,0,0,-1,1343,1282,0,0
126,-258,0,0,0,0,0,0,0,0,0,-1,1350,1282,0,0
133,-258,0,0,0,0,0,0,0,0,0,-1,1357,1282,0,0
140,-258,0,0,0,0,0,0,0,0,0,-1,1364,1282,0,0
147,-258,0,0,0,0,0,0,0,0,0,-1,1371,1282,0,0
154,-258,0,0,0,0,0,0,0,0,0,-1,1378,1282,0,0
161,-258,0,0,0,0,0,0,0,0,0,-1,1385,1282,0,0
168,-258,0,0,0,0,0,0,0,0,0,-1,1392,1282,0,0
175,-258,0,0,0,0,0,0,0,0,0,-1,1399,1282,0,0
182,-258,0,0,0,0,0,0,0,0,0,-1,1406,1282,0,0
189,-258,0,0,0,0,0,0,0,0,0,-1,1413,1282,0,0
196,-258,0,0,0,0,0,0,0,0,0,-1,1420,1282,0,0
203,-258,0,0,0,0,0,0,0,0,0,-1,1427,1282,0,0
210,-258,0,0,0,0,0,0,0,0,0,-1,1434,1282,0,0
217,-258,0,0,0,0,0,0,0,0,0,-1,1441,1282,0,0
224,-258,0,0,0,0,0,0,0,0,0,-1,1448,1282,0,0
231,-258,0,0,0,0,0,0,0,0,0,-1,1455,1282,0,0
238,-258,0,0,0,0,0,0,0,0,0,-1,1462,1282,0,0
245,-258,0,0,0,0,0,0,0,0,0,-1,1469,1282,0,0
252,-258,0,0,0,0,0,0,0,0,0,-1,1476,1282,0,0
259,-258,0,0,0,0,0,0,0,0,0,-1,1483,1282,0,0
266,-258,0,0,0,0,0,0,0,0,0,-1,1490,1282,0,0
273,-258,0,0,0,0,0,0,0,0,0,-1,1497,1282,0,0
280,-258,0,0,0,0,0,0,0,0,0,-1,1504,1282,0,0
287,-258,0,0,0,0,0,0,0,0,0,-1,1511,1282,0,0
294,-258,0,0,0,0,0,0,0,0,0,-1,1518,1282,0,0
301,-258,0,0,0,0,0,0,0,0,0,-1,1525,1282,0,0
308,-258,0,0,0,0,0,0,0,0,0,-1,1532,1282,0,0
315,-258,0,0,0,0,0,0,0,0,0,-1,1539,1282,0,0
322,-258,0,0,0,0,0,0,0,0,0,-1,1546,1282,0,0
329,-258,0,0,0,0,0,0,0,0,0,-1,1553,1282,0,0
336,-258,0,0,0,0,0,0,0,0,0,-1,1560,1282,0,0
343,-258,0,0,0,0,0,0,0,0,0,-1,1567,1282,0,0
350,-258,0,0,0,0,0,0,0,0,0,-1,1574,1282,0,0
357,-258,0,0,0,0,0,0,0,0,0,-1,1581,1282,0,0
364,-258,0,0,0,0,0,0,0,0,0,-1,1588,1282,0,0
371,-258,0,0,0,0,0,0,0,0,0,-1,1595,1282,0,0
378,-258,0,0,0,0,0,0,0,0,0,-1,1602,1282,0,0
385,-258,0,0,0,0,0,0,0,0,0,-1,1609,1282,0,0
392,-258,0,0,0,0,0,0,0,0,0,-1,1616,1282,0,0
399,-258,0,0,0,0,0,0,0,0,0,-1,1623,1282,0,0
406,-258,0,0,0,0,0,0,0,0,0,-1,1630,1282,0,0
413,-258,0,0,0,0,0,0,0,0,0,-1,1637,1282,0,0
420,-258,0,0,0,0,0,0,0,0,0,-1,1644,1282,0,0
427,-258,0,0,0,0,0,0,0,0,0,-1,1651,1282,0,0
434,-258,0,0,0,0,0,0,0,0,0,-1,1658,1282,0,0
441,-258,0,0,0,0,0,0,0,0,0,-1,1665,1282,0,0
448,-258,0,0,0,0,0,0,0,0,0,-1,1672,1282,0,0
455,-258,0,0,0,0,0,0,0,0,0,-1,1679,1282,0,0
462,-258,0,0,0,0,0,0,0,0,0,-1,1686,1282,0,0
469,-258,0,0,0,0,0,0,0,0,0,-1,1693,1282,0,0
476,-258,0,0,0,0,0,0,0,0,0,-1,1700,1282,0,0
483,-258,0,0,0,0,0,0,0,0,0,-1,1707,1282,0,0
490,-258,0,0,0,0,0,0,0,0,0,-1,1714,1282,0,0
497,-258,0,0,0,0,0,0,0,0,0,-1,1721,1282,0,0
504,-258,0,0,0,0,0,0,0,0,0,-1,1728,1282,0,0
511,-258,0,0,0,0,0,0,0,0,0,-1,1735,1282,0,0
518,-258,0,0,0,0,0,0,0,0,0,-1,1742,1282,0,0
525,-258,0,0,0,0,0,0,0,0,0,-1,1749,1282,0,0
532,-258,0,0,0,0,0,0,0,0,0,-1,1756,1282,0,0
539,-258,0,0,0,0,0,0,0,0,0,-1,1763,1282,0,0
546,-258,0,0,0,0,0,0,0,0,0,-1,1770,1282,0,0
553,-258,0,0,0,0,0,0,0,0,0,-1,1777,1282,0,0
560,-258,0,0,0,0,0,0,0,0,0,-1,1784,1282,0,0
567,-258,0,0,0,0,0,0,0,0,0,-1,1791,1282,0,0
574,-258,0,0,0,0,0,0,0,0,0,-1,1798,1282,0,0
581,-258,0,0,0,0,0,0,0,0,0,-1,1805,1282,0,0
588,-258,0,0,0,0,0,0,0,0,0,-1,1812,1282,0,0
595,-258,0,0,0,0,0,0,0,0,0,-1,1819,1282,0,0
602,-258,0,0,0,0,0,0,0,0,0,-1,1826,1282,0,0
609,-258,-0.0302734,-0.0997314,-0.000782649,0.00308553,0.00418668,0.00576327,-0.00346039,1.00178,0.00538032,0.0218925,1833,1282,-0.0302321,0.0997334
616,-258,-0.0727539,-0.0859375,-0.00399684,0.00823756,0.00635589,0.0109418,-0.00670106,1.16853,0.0102837,0.020854,1840,1282,-0.0727824,0.0859248
623,-258,-0.0758057,-0.0740967,-0.00519876,0.0105107,0.00677134,0.0130265,-0.00771456,1.21507,0.012105,0.0303295,1847,1282,-0.0758103,0.0741052
630,-258,-0.204102,-0.212158,-0.00539794,0.0112206,0.00622726,0.0132951,-0.00747244,1.24923,0.0121462,0.0400296,1854,1282,-0.204099,0.212136
637,-258,-0.67395,-0.223999,-0.00525024,0.0105242,0.00517772,0.0120719,-0.0067979,1.28034,0.0110354,0.0413563,1861,1282,-0.673908,0.224023
644,-258,-0.698486,-0.247681,-0.00494515,0.00900461,0.00395436,0.0100476,-0.00598812,1.31292,0.00935658,0.0430346,1868,1282,-0.698542,0.247631
651,-258,0.253662,0.272461,-0.00452355,0.00708719,0.00276116,0.00771037,-0.00514674,1.34882,0.00747208,0.0468583,1875,1282,0.253631,-0.272495
658,-258,0.207153,0.0859375,-0.00436978,0.00529782,0.00176553,0.00561016,-0.00468211,1.3957,0.00595029,0.0451912,1882,1282,0.207108,-0.0859421
665,-258,-0.0791016,-0.00109863,-0.00397135,0.00359774,0.000963779,0.00371853,-0.00409214,1.44612,0.00451122,0.0426131,1889,1282,-0.0791224,0.0011234
672,-258,-0.0472412,-0.0792236,-0.00349067,0.00210475,0.000355769,0.00212728,-0.0035132,1.50755,0.00328914,0.0434197,1896,1282,-0.0472051,0.0792712
679,-258,-0.0496826,-0.0606689,-0.00304489,0.00103217,-6.45024e-05,0.00103319,-0.00304591,-1.55498,0.00244877,0.0264156,1903,1282,-0.0496288,0.0606225
686,-258,-0.121948,-0.020874,-0.00259316,0.000248294,-0.000597827,0.00036895,-0.00271381,-1.37165,0.0019439,0.0136562,1910,1282,-0.121939,0.0208787
693,-258,-0.085083,-0.0400391,-0.00223788,-0.00101607,-0.0011345,-0.000338444,-0.0029155,-1.03238,0.00184125,0.00861094,1917,1282,-0.0850389,0.040068
700,-258,-0.0704346,-0.0571289,-0.00196974,-0.0015238,-0.0010552,-0.000668268,-0.00282527,-0.889518,0.00170499,0.00810989,1924,1282,-0.0704608,0.0571083
707,-258,-0.0793457,-0.0534668,-0.00139999,-0.000942488,-0.000658021,-0.000474591,-0.00186789,-0.952681,0.00112106,0.00984486,1931,1282,-0.0793085,0.053421
714,-258,-0.0834961,-0.0571289,-0.000932663,0.000829741,-0.000944067,0.00123996,-0.00134289,-1.16088,0.0014916,0.0096579,1938,1282,-0.0834483,0.0571143
721,-258,-0.0715332,-0.0717773,-0.000884908,0.00225355,-0.00126705,0.00270122,-0.00133258,-1.23117,0.00237318,0.00970204,1945,1282,-0.071552,0.0718183
728,-258,-0.0753174,-0.0568848,-0.00152375,0.00317643,-0.00239252,0.00418001,-0.00252732,-1.17362,0.00391147,0.00928744,1952,1282,-0.0752575,0.0569443
735,-258,-0.0944824,-0.0410156,-0.00279969,0.00483503,-0.00375493,0.00637227,-0.00433693,-1.18222,0.00622007,0.012716,1959,1282,-0.0944467,0.0409656
742,-258,-0.0714111,-0.0253906,-0.00425388,0.00668256,-0.00516474,0.00873603,-0.00630736,-1.19236,0.00872296,0.0141942,1966,1282,-0.0714011,0.0253817
749,-258,-0.10144,-0.0604248,-0.00689871,0.0088879,-0.00726531,0.0117226,-0.00973336,-1.1988,0.0124053,0.0239212,1973,1282,-0.101391,0.0603931
756,-258,-0.127075,-0.170044,0,0,0,0,0,0,0,-1,1980,1282,-0.127048,0.170061
763,-258,1.11511,2.43628,-0.0160262,0.0139083,-0.013308,0.0189691,-0.021087,-1.2074,0.0231371,0.0444471,1987,1282,1.11507,-2.43629
770,-258,0.492798,1.2334,-0.0230541,0.0163975,-0.0173398,0.0229353,-0.0295919,-1.21024,0.0304076,0.0426655,1994,1282,0.492791,-1.23346
777,-258,-0.157959,0.191284,-0.0321322,0.0185154,-0.0220038,0.0267395,-0.0403562,-1.21311,0.0390027,0.0429602,2001,1282,-0.157912,-0.191335
784,-258,-0.8927,-0.755493,-0.0435431,0.0198273,-0.0271456,0.0298654,-0.0535812,-1.2166,0.0488222,0.0432071,2008,1282,-0.892693,0.755502
791,-258,0,0,0,0,0,0,0,0,0,-1,2015,1282,0,0
798,-258,0,0,0,0,0,0,0,0,0,-1,2022,1282,0,0
805,-258,0,0,0,0,0,0,0,0,0,-1,2029,1282,0,0
812,-258,0,0,0,0,0,0,0,0,0,-1,2036,1282,0,0
-700,-265,0,0,0,0,0,0,0,0,0,-1,524,1289,0,0
-693,-265,0,0,0,0,0,0,0,0,0,-1,531,1289,0,0
-686,-265,0,0,0,0,0,0,0,0,0,-1,538,1289,0,0
-679,-265,0,0,0,0,0,0,0,0,0,-1,545,1289,0,0
-672,-265,0,0,0,0,0,0,0,0,0,-1,552,1289,0,0
-665,-265,0.523193,-0.263062,0,0,0,0,0,0,0,-1,559,1289,0.52321,0.263023
-658,-265,0.321167,-0.459229,0.030717,0.0902083,0.0458716,0.115134,0.0057908,1.07304,0.0749007,0.0444569,566,1289,0.321167,0.4592
-651,-265,0.159729,-0.327881,0.0257544,0.0667324,0.0321937,0.084404,0.00808277,1.06879,0.0537779,0.0494599,573,1289,0.15971,0.327847
-644,-265,-0.0681152,-0.0864258,0.0208419,0.0483048,0.0221893,0.0606677,0.00847897,1.06247,0.037936,0.0472421,580,1289,-0.0681072,0.0864281
-637,-265,-0.270752,-0.0725098,0.0164052,0.0340975,0.0148994,0.042579,0.00792371,1.05329,0.0261481,0.043344,587,1289,-0.27077,0.0725464
-630,-265,-0.308167,0.324951,0.0125801,0.0234052,0.00965809,0.029064,0.00692134,1.0408,0.0175304,0.0430994,594,1289,-0.308196,-0.32492
-623,-265,-0.267578,0.206177,0.00944987,0.0156092,0.00603716,0.0193068,0.00575225,1.02125,0.0114462,0.042679,601,1289,-0.267555,-0.206166
-616,-265,-0.150146,-0.0950928,0,0,0,0,0,0,0,-1,608,1289,-0.150117,0.0950527
-609,-265,-0.0533447,-0.072998,0.00508292,0.00696925,0.00178227,0.00804253,0.00400964,1.02876,0.00464336,0.0148069,615,1289,-0.0533303,0.0730178
-602,-265,-0.0580444,-0.0506592,0.00280479,0.00189469,-3.60573e-05,0.00280622,0.00189326,-0.0395364,0.00165279,0.0134735,622,1289,-0.0580289,0.0506747
-595,-265,-0.0667114,-0.0397949,0.00118485,0.00028812,-0.000613443,0.00149632,-2.33456e-05,-0.469815,0.00100542,0.0109607,629,1289,-0.066693,0.039808
-588,-265,-0.0661621,-0.0571289,0.000540123,-7.18704e-05,-0.000200886,0.000600172,-0.000131919,-0.290464,0.000450571,0.00976446,636,1289,-0.0661547,0.0570783
-581,-265,-0.0563354,-0.0552979,0.000866028,0.000382995,-0.000876111,0.0015333,-0.000284279,-0.650904,0.00112896,0.0120261,643,1289,-0.0563424,0.0552941
-574,-265,-0.0544434,-0.0415039,0.00155136,-3.50772e-05,-0.00187194,0.0027912,-0.00127492,-0.584996,0.00240137,0.0132734,650,1289,-0.0544601,0.0415201
-567,-265,-0.071106,-0.0769043,0.00261139,-0.000336772,-0.00309362,0.00456418,-0.00228956,-0.563066,0.00402899,0.0174582,657,1289,-0.0711278,0.0768644
-560,-265,-0.076416,-0.101685,0.00448833,-0.00100955,-0.00392408,0.00653054,-0.00305176,-0.479857,0.00565256,0.0187967,664,1289,-0.0764097,0.101745
-553,-265,-0.0736694,-0.0819092,0.00639296,-0.00135399,-0.00514595,0.00896034,-0.00392137,-0.462777,0.00762457,0.019288,671,1289,-0.0736906,0.0819436
-546,-265,-0.0812378,-0.0296631,0.00836318,-0.00119713,-0.00645633,0.0116163,-0.00445028,-0.466739,0.00957868,0.0277969,678,1289,-0.0812227,0.0296589
-539,-265,-0.616272,1.75891,0,0,0,0,0,0,0,-1,685,1289,-0.616247,-1.75888
-532,-265,-0.773926,0.561401,0.0142418,-0.000427369,-0.00911085,0.0186035,-0.0047891,-0.446496,0.0142692,0.0448312,692,1289,-0.773945,-0.56137
-525,-265,-0.479248,-0.48584,0,0,0,0,0,0,0,-1,699,1289,-0.479238,0.485848
-518,-265,-0.204956,-1.1676,0,0,0,0,0,0,0,-1,706,1289,-0.204953,1.16763
-511,-265,-0.414734,0.4552,0,0,0,0,0,0,0,-1,713,1289,-0.414717,-0.455151
-504,-265,-0.251526,0.0900879,0.0262843,0.00620608,-0.0119757,0.0318721,0.000618214,-0.436571,0.021045,0.0468784,720,1289,-0.251516,-0.0900668
-497,-265,0.0368652,-0.198486,0.028791,0.0109251,-0.0116024,0.0345009,0.00521519,-0.457334,0.0214743,0.048067,727,1289,0.0368695,0.19846
-490,-265,0.00109863,-0.131836,0.0301526,0.0178718,-0.0106243,0.0362833,0.0117411,-0.523371,0.0213784,0.043008,734,1289,0.00111022,0.131847
-483,-265,0,0,0,0,0,0,0,0,0,-1,741,1289,0,0
-476,-265,0,0,0,0,0,0,0,0,0,-1,748,1289,0,0
-469,-265,0,0,0,0,0,0,0,0,0,-1,755,1289,0,0
-462,-265,0,0,0,0,0,0,0,0,0,-1,762,1289,0,0
-455,-265,0,0,0,0,0,0,0,0,0,-1,769,1289,0,0
-448,-265,0,0,0,0,0,0,0,0,0,-1,776,1289,0,0
-441,-265,0,0,0,0,0,0,0,0,0,-1,783,1289,0,0
-434,-265,0,0,0,0,0,0,0,0,0,-1,790,1289,0,0
-427,-265,0,0,0,0,0,0,0,0,0,-1,797,1289,0,0
-420,-265,0,0,0,0,0,0,0,0,0,-1,804,1289,0,0
-413,-265,0,0,0,0,0,0,0,0,0,-1,811,1289,0,0
-406,-265,0,0,0,0,0,0,0,0,0,-1,818,1289,0,0
-399,-265,0,0,0,0,0,0,0,0,0,-1,825,1289,0,0
-392,-265,0,0,0,0,0,0,0,0,0,-1,832,1289,0,0
-385,-265,0,0,0,0,0,0,0,0,0,-1,839,1289,0,0
-378,-265,0,0,0,0,0,0,0,0,0,-1,846,1289,0,0
-371,-265,0,0,0,0,0,0,0,0,0,-1,853,1289,0,0
-364,-265,0,0,0,0,0,0,0,0,0,-1,860,1289,0,0
-357,-265,0,0,0,0,0,0,0,0,0,-1,867,1289,0,0
-350,-265,0,0,0,0,0,0,0,0,0,-1,874,1289,0,0
-343,-265,0,0,0,0,0,0,0,0,0,-1,881,1289,0,0
-336,-265,0,0,0,0,0,0,0,0,0,-1,888,1289,0,0
-329,-265,0,0,0,0,0,0,0,0,0,-1,895,1289,0,0
-322,-265,0,0,0,0,0,0,0,0,0,-1,902,1289,0,0
-315,-265,0,0,0,0,0,0,0,0,0,-1,909,1289,0,0
-308,-265,0,0,0,0,0,0,0,0,0,-1,916,1289,0,0
-301,-265,0,0,0,0,0,0,0,0,0,-1,923,1289,0,0
-294,-265,0,0,0,0,0,0,0,0,0,-1,930,1289,0,0
-287,-265,0,0,0,0,0,0,0,0,0,-1,937,1289,0,0
-280,-265,0,0,0,0,0,0,0,0,0,-1,944,1289,0,0
-273,-265,0,0,0,0,0,0,0,0,0,-1,951,1289,0,0
-266,-265,0,0,0,0,0,0,0,0,0,-1,958,1289,0,0
-259,-265,0,0,0,0,0,0,0,0,0,-1,965,1289,0,0
-252,-265,0,0,0,0,0,0,0,0,0,-1,972,1289,0,0
-245,-265,0,0,0,0,0,0,0,0,0,-1,979,1289,0,0
-238,-265,0,0,0,0,0,0,0,0,0,-1,986,1289,0,0
-231,-265,0,0,0,0,0,0,0,0,0,-1,993,1289,0,0
-224,-265,0,0,0,0,0,0,0,0,0,-1,1000,1289,0,0
-217,-265,0,0,0,0,0,0,0,0,0,-1,1007,1289,0,0
-210,-265,0,0,0,0,0,0,0,0,0,-1,1014,1289,0,0
-203,-265,0,0,0,0,0,0,0,0,0,-1,1021,1289,0,0
-196,-265,0,0,0,0,0,0,0,0,0,-1,1028,1289,0,0
-189,-265,0,0,0,0,0,0,0,0,0,-1,1035,1289,0,0
-182,-265,0,0,0,0,0,0,0,0,0,-1,1042,1289,0,0
-175,-265,0,0,0,0,0,0,0,0,0,-1,1049,1289,0,0
-168,-265,0,0,0,0,0,0,0,0,0,-1,1056,1289,0,0
-161,-265,0,0,0,0,0,0,0,0,0,-1,1063,1289,0,0
-154,-265,0,0,0,0,0,0,0,0,0,-1,1070,1289,0,0
-147,-265,0,0,0,0,0,0,0,0,0,-1,1077,1289,0,0
-140,-265,0,0,0,0,0,0,0,0,0,-1,1084,1289,0,0
-133,-265,0,0,0,0,0,0,0,0,0,-1,1091,1289,0,0
-126,-265,0,0,0,0,0,0,0,0,0,-1,1098,1289,0,0
-119,-265,0,0,0,0,0,0,0,0,0,-1,1105,1289,0,0
-112,-265,0,0,0,0,0,0,0,0,0,-1,1112,1289,0,0
-105,-265,0,0,0,0,0,0,0,0,0,-1,1119,1289,0,0
-98,-265,0,0,0,0,0,0,0,0,0,-1,1126,1289,0,0
-91,-265,0,0,0,0,0,0,0,0,0,-1,1133,1289,0,0
-84,-265,0,0,0,0,0,0,0,0,0,-1,1140,1289,0,0
-77,-265,0,0,0,0,0,0,0,0,0,-1,1147,1289,0,0
-70,-265,0,0,0,0,0,0,0,0,0,-1,1154,1289,0,0
-63,-265,0,0,0,0,0,0,0,0,0,-1,1161,1289,0,0
-56,-265,0,0,0,0,0,0,0,0,0,-1,1168,1289,0,0
-49,-265,0,0,0,0,0,0,0,0,0,-1,1175,1289,0,0
-42,-265,0,0,0,0,0,0,0,0,0,-1,1182,1289,0,0
-35,-265,0,0,0,0,0,0,0,0,0,-1,1189,1289,0,0
-28,-265,0,0,0,0,0,0,0,0,0,-1,1196,1289,0,0
-21,-265,0,0,0,0,0,0,0,0,0,-1,1203,1289,0,0
-14,-265,0,0,0,0,0,0,0,0,0,-1,1210,1289,0,0
-7,-265,0,0,0,0,0,0,0,0,0,-1,1217,1289,0,0
0,-265,0,0,0,0,0,0,0,0,0,-1,1224,1289,0,0
7,-265,0,0,0,0,0,0,0,0,0,-1,1231,1289,0,0
14,-265,0,0,0,0,0,0,0,0,0,-1,1238,1289,0,0
21,-265,0,0,0,0,0,0,0,0,0,-1,1245,1289,0,0
28,-265,0,0,0,0,0,0,0,0,0,-1,1252,1289,0,0
35,-265,0,0,0,0,0,0,0,0,0,-1,1259,1289,0,0
42,-265,0,0,0,0,0,0,0,0,0,-1,1266,1289,0,0
49,-265,0,0,0,0,0,0,0,0,0,-1,1273,1289,0,0
56,-265,0,0,0,0,0,0,0,0,0,-1,1280,1289,0,0
63,-265,0,0,0,0,0,0,0,0,0,-1,1287,1289,0,0
70,-265,0,0,0,0,0,0,0,0,0,-1,1294,1289,0,0
77,-265,0,0,0,0,0,0,0,0,0,-1,1301,1289,0,0
84,-265,0,0,0,0,0,0,0,0,0,-1,1308,1289,0,0
91,-265,0,0,0,0,0,0,0,0,0,-1,1315,1289,0,0
98,-265,0,0,0,0,0,0,0,0,0,-1,1322,1289,0,0
105,-265,0,0,0,0,0,0,0,0,0,-1,1329,1289,0,0
112,-265,0,0,0,0,0,0,0,0,0,-1,1336,1289,0,0
119,-265,0,0,0,0,0,0,0,0,0,-1,1343,1289,0,0
126,-265,0,0,0,0,0,0,0,0,0,-1,1350,1289,0,0
133,-265,0,0,0,0,0,0,0,0,0,-1,1357,1289,0,0
140,-265,0,0,0,0,0,0,0,0,0,-1,1364,1289,0,0
147,-265,0,0,0,0,0,0,0,0,0,-1,1371,1289,0,0
154,-265,0,0,0,0,0,0,0,0,0,-1,1378,1289,0,0
161,-265,0,0,0,0,0,0,0,0,0,-1,1385,1289,0,0
168,-265,0,0,0,0,0,0,0,0,0,-1,1392,1289,0,0
175,-265,0,0,0,0,0,0,0,0,0,-1,1399,1289,0,0
182,-265,0,0,0,0,0,0,0,0,0,-1,1406,1289,0,0
189,-265,0,0,0,0,0,0,0,0,0,-1,1413,1289,0,0
196,-265,0,0,0,0,0,0,0,0,0,-1,1420,1289,0,0
203,-265,0,0,0,0,0,0,0,0,0,-1,1427,1289,0,0
210,-265,0,0,0,0,0,0,0,0,0,-1,1434,1289,0,0
217,-265,0,0,0,0,0,0,0,0,0,-1,1441,1289,0,0
224,-265,0,0,0,0,0,0,0,0,0,-1,1448,1289,0,0
231,-265,0,0,0,0,0,0,0,0,0,-1,1455,1289,0,0
238,-265,0,0,0,0,0,0,0,0,0,-1,1462,1289,0,0
245,-265,0,0,0,0,0,0,0,0,0,-1,1469,1289,0,0
252,-265,0,0,0,0,0,0,0,0,0,-1,1476,1289,0,0
259,-265,0,0,0,0,0,0,0,0,0,-1,1483,1289,0,0
266,-265,0,0,0,0,0,0,0,0,0,-1,1490,1289,0,0
273,-265,0,0,0,0,0,0,0,0,0,-1,1497,1289,0,0
280,-265,0,0,0,0,0,0,0,0,0,-1,1504,1289,0,0
287,-265,0,0,0,0,0,0,0,0,0,-1,1511,1289,0,0
294,-265,0,0,0,0,0,0,0,0,0,-1,1518,1289,0,0
301,-265,0,0,0,0,0,0,0,0,0,-1,1525,1289,0,0
308,-265,0,0,0,0,0,0,0,0,0,-1,1532,1289,0,0
315,-265,0,0,0,0,0,0,0,0,0,-1,1539,1289,0,0
322,-265,0,0,0,0,0,0,0,0,0,-1,1546,1289,0,0
329,-265,0,0,0,0,0,0,0,0,0,-1,1553,1289,0,0
336,-265,0,0,0,0,0,0,0,0,0,-1,1560,1289,0,0
343,-265,0,0,0,0,0,0,0,0,0,-1,1567,1289,0,0
350,-265,0,0,0,0,0,0,0,0,0,-1,1574,1289,0,0
357,-265,0,0,0,0,0,0,0,0,0,-1,1581,1289,0,0
364,-265,0,0,0,0,0,0,0,0,0,-1,1588,1289,0,0
371,-265,0,0,0,0,0,0,0,0,0,-1,1595,1289,0,0
378,-265,0,0,0,0,0,0,0,0,0,-1,1602,1289,0,0
385,-265,0,0,0,0,0,0,0,0,0,-1,1609,1289,0,0
392,-265,0,0,0,0,0,0,0,0,0,-1,1616,1289,0,0
399,-265,0,0,0,0,0,0,0,0,0,-1,1623,1289,0,0
406,-265,0,0,0,0,0,0,0,0,0,-1,1630,1289,0,0
413,-265,0,0,0,0,0,0,0,0,0,-1,1637,1289,0,0
420,-265,0,0,0,0,0,0,0,0,0,-1,1644,1289,0,0
427,-265,0,0,0,0,0,0,0,0,0,-1,1651,1289,0,0
434,-265,0,0,0,0,0,0,0,0,0,-1,1658,1289,0,0
441,-265,0,0,0,0,0,0,0,0,0,-1,1665,1289,0,0
448,-265,0,0,0,0,0,0,0,0,0,-1,1672,1289,0,0
455,-265,0,0,0,0,0,0,0,0,0,-1,1679,1289,0,0
462,-265,0,0,0,0,0,0,0,0,0,-1,1686,1289,0,0
469,-265,0,0,0,0,0,0,0,0,0,-1,1693,1289,0,0
476,-265,0,0,0,0,0,0,0,0,0,-1,1700,1289,0,0
483,-265,0,0,0,0,0,0,0,0,0,-1,1707,1289,0,0
490,-265,0,0,0,0,0,0,0,0,0,-1,1714,1289,0,0
497,-265,0,0,0,0,0,0,0,0,0,-1,1721,1289,0,0
504,-265,0,0,0,0,0,0,0,0,0,-1,1728,1289,0,0
511,-265,0,0,0,0,0,0,0,0,0,-1,1735,1289,0,0
518,-265,0,0,0,0,0,0,0,0,0,-1,1742,1289,0,0
525,-265,0,0,0,0,0,0,0,0,0,-1,1749,1289,0,0
532,-265,0,0,0,0,0,0,0,0,0,-1,1756,1289,0,0
539,-265,0,0,0,0,0,0,0,0,0,-1,1763,1289,0,0
546,-265,0,0,0,0,0,0,0,0,0,-1,1770,1289,0,0
553,-265,0,0,0,0,0,0,0,0,0,-1,1777,1289,0,0
560,-265,0,0,0,0,0,0,0,0,0,-1,1784,1289,0,0
567,-265,0,0,0,0,0,0,0,0,0,-1,1791,1289,0,0
574,-265,0,0,0,0,0,0,0,0,0,-1,1798,1289,0,0
581,-265,0,0,0,0,0,0,0,0,0,-1,1805,1289,0,0
588,-265,0,0,0,0,0,0,0,0,0,-1,1812,1289,0,0
595,-265,0,0,0,0,0,0,0,0,0,-1,1819,1289,0,0
602,-265,-0.10144,-0.0473633,0.0049314,-0.0123513,0.00199066,0.00515772,-0.0125777,0.113207,0.010534,0.0233766,1826,1289,-0.101419,0.0473309
609,-265,-0.072876,-0.0831299,0.000918291,-0.00156281,0.00551382,0.00532939,-0.00597392,0.674746,0.0065295,0.0243381,1833,1289,-0.0729236,0.083075
616,-265,-0.0915527,-0.0904541,-0.00253188,0.00545143,0.0075394,0.00999065,-0.00707111,1.02886,0.00989857,0.0285645,1840,1289,-0.0916074,0.0904814
623,-265,0.513306,-0.22229,0,0,0,0,0,0,0,-1,1847,1289,0.513308,0.222237
630,-265,-0.668335,-0.536011,-0.00539813,0.0117089,0.00696518,0.0141861,-0.00787532,1.22909,0.0129097,0.0451051,1854,1289,-0.668337,0.536031
637,-265,-1.04443,-0.494507,-0.00570265,0.012127,0.00568261,0.0137842,-0.00735977,1.28705,0.0123939,0.0434446,1861,1289,-1.04449,0.494466
644,-265,0.221924,0.808105,0,0,0,0,0,0,0,-1,1868,1289,0.221962,-0.808097
651,-265,0.118164,0.588989,-0.00525036,0.00971102,0.00273287,0.0101946,-0.00573392,1.39567,0.00931575,0.0459112,1875,1289,0.118109,-0.589013
658,-265,0.0231934,0.342285,-0.00516088,0.0079285,0.00151776,0.00810219,-0.00533456,1.45686,0.00781238,0.0435043,1882,1289,0.0231921,-0.342293
665,-265,-0.111816,0.0968018,-0.00451719,0.00596859,0.000606168,0.00600351,-0.00455211,1.51324,0.00611347,0.0452666,1889,1289,-0.111875,-0.0967571
672,-265,-0.0917969,-0.0358887,-0.00373466,0.00419224,-8.65293e-05,0.00419318,-0.0037356,-1.55988,0.00458023,0.046281,1896,1289,-0.091742,0.0358917
679,-265,-0.0787354,-0.0582275,-0.00301019,0.00283205,-0.000552837,0.0028839,-0.00306205,-1.47727,0.00343341,0.0197438,1903,1289,-0.0787264,0.0582871
686,-265,-0.0961914,-0.0545654,-0.00233706,0.00177733,-0.00109038,0.00204844,-0.00260817,-1.3271,0.00269496,0.0106079,1910,1289,-0.0961598,0.0545441
693,-265,-0.0882568,-0.0599365,-0.00183439,5.71202e-05,-0.00163399,0.000999318,-0.00277658,-1.04774,0.00225908,0.00914254,1917,1289,-0.0882216,0.0599737
700,-265,-0.0788574,-0.0600586,-0.00139844,-0.000837624,-0.00145829,0.000366973,-0.00260303,-0.880381,0.00186972,0.00961876,1924,1289,-0.0788559,0.0601175
707,-265,-0.0629883,-0.0648193,-0.000706623,-0.000530581,-0.000913812,0.000299439,-0.00153664,-0.833412,0.00113746,0.00950674,1931,1289,-0.0629729,0.0648677
714,-265,-0.0841064,-0.0648193,-0.000217755,0.00114162,-0.00111631,0.00176888,-0.000845014,-1.05886,0.00154024,0.00868315,1938,1289,-0.0840853,0.0648046
721,-265,-0.0681152,-0.0789795,-0.000177891,0.00250324,-0.00141006,0.00310829,-0.000782935,-1.16547,0.00237655,0.00834738,1945,1289,-0.0681263,0.0789194
728,-265,-0.076416,-0.0515137,-0.000886296,0.00353724,-0.00254373,0.0046963,-0.00204536,-1.14325,0.00399134,0.0114762,1952,1289,-0.0764364,0.0515192
735,-265,-0.0963135,-0.0288086,-0.00224895,0.0052274,-0.00396554,0.00693895,-0.0039605,-1.16334,0.00637064,0.0148656,1959,1289,-0.0963056,0.0287541
742,-265,-0.0830078,-0.0391846,-0.00383022,0.00721869,-0.00547449,0.00947175,-0.00608327,-1.18037,0.00905144,0.0168686,1966,1289,-0.0830081,0.0391904
749,-265,-0.133423,-0.0976563,-0.0065381,0.00961457,-0.00770484,0.0127003,-0.00962383,-1.18987,0.0129296,0.0314983,1973,1289,-0.133482,0.0976069
756,-265,0.151001,-0.000366211,-0.0104854,0.012281,-0.0106022,0.0164537,-0.014658,-1.19585,0.0179723,0.0398509,1980,1289,0.151006,0.000324558
763,-265,0.315308,0.548828,-0.0159922,0.0150481,-0.0142651,0.020608,-0.0215521,-1.19915,0.0243431,0.0424149,1987,1289,0.315349,-0.548815
770,-265,0.390869,0.999878,-0.0234504,0.0176461,-0.0187847,0.0249384,-0.0307427,-1.2005,0.0322057,0.0404457,1994,1289,0.390831,-0.999837
777,-265,-0.0375977,0.0292969,-0.0332497,0.0196878,-0.0241903,0.0290767,-0.0426385,-1.20057,0.0416508,0.0425157,2001,1289,-0.0375983,-0.0292974
784,-265,0,0,0,0,0,0,0,0,0,-1,2008,1289,0,0
791,-265,0,0,0,0,0,0,0,0,0,-1,2015,1289,0,0
798,-265,0,0,0,0,0,0,0,0,0,-1,2022,1289,0,0
805,-265,0,0,0,0,0,0,0,0,0,-1,2029,1289,0,0
812,-265,0,0,0,0,0,0,0,0,0,-1,2036,1289,0,0
-700,-272,0,0,0,0,0,0,0,0,0,-1,524,1296,0,0
-693,-272,0,0,0,0,0,0,0,0,0,-1,531,1296,0,0
-686,-272,0,0,0,0,0,0,0,0,0,-1,538,1296,0,0
-679,-272,0,0,0,0,0,0,0,0,0,-1,545,1296,0,0
-672,-272,0,0,0,0,0,0,0,0,0,-1,552,1296,0,0
-665,-272,0,0,0,0,0,0,0,0,0,-1,559,1296,0,0
-658,-272,0.487427,-5.22766,0.036685,0.104668,0.0583928,0.138242,0.00311059,1.04898,0.0911422,0.0460661,566,1296,0.487427,5.22762
-651,-272,0.571899,-0.630981,0.0291612,0.0754336,0.0401904,0.0986715,0.00592341,1.04657,0.0638981,0.0424408,573,1296,0.571913,0.630951
-644,-272,0.396973,-0.313843,0.0226441,0.0532296,0.0271374,0.0690866,0.00678714,1.04198,0.0439703,0.0419329,580,1296,0.396976,0.313889
-637,-272,0.0531006,-0.0682373,0.0172974,0.0366803,0.0178027,0.0472585,0.00671919,1.03466,0.0295219,0.043027,587,1296,0.0531028,0.0682624
-630,-272,-0.278625,0.442261,0.0130161,0.0246146,0.0112136,0.0314397,0.00619091,1.02404,0.0192312,0.0439497,594,1296,-0.278655,-0.442228
-623,-272,-0.282654,0.312744,0.00962306,0.0160606,0.00667605,0.0202533,0.00543033,1.01002,0.0121051,0.0441766,601,1296,-0.282668,-0.3128
-616,-272,-0.154358,0.0153809,0.00719974,0.0102525,0.00363408,0.0126677,0.00478451,0.98422,0.0073863,0.0335391,608,1296,-0.154339,-0.0154132
-609,-272,-0.0760498,-0.0578613,0.00514006,0.00675248,0.00170145,0.00782907,0.00406348,1.00665,0.0045212,0.0165745,615,1296,-0.0760198,0.0579158
-602,-272,-0.0802002,-0.0496826,0.00292002,0.00160847,-0.000346368,0.00300587,0.00152262,-0.242969,0.00173549,0.0121791,622,1296,-0.0802301,0.0497408
-595,-272,-0.0696411,-0.0239258,0.00134933,8.7477e-05,-0.00102979,0.0019261,-0.000489292,-0.510554,0.00147448,0.00932386,629,1296,-0.0696339,0.0239721
-588,-272,-0.052063,-0.0319824,0.000747603,-0.000127177,-0.00064926,0.00109306,-0.000472633,-0.488979,0.000927309,0.00907016,636,1296,-0.0520687,0.0320057
-581,-272,-0.0517578,-0.0639648,0.00105964,0.000445126,-0.00124201,0.00203183,-0.000527065,-0.664139,0.00156021,0.00944802,643,1296,-0.0517318,0.0639362
-574,-272,-0.0665283,-0.0556641,0.00164104,0.000220179,-0.00217977,0.00322323,-0.00136201,-0.627866,0.00271902,0.0140272,650,1296,-0.0665512,0.055636
-567,-272,-0.0814209,-0.0618896,0.00257654,-0.000142691,-0.00335318,0.00483527,-0.00240142,-0.592791,0.00425614,0.0183497,657,1296,-0.0814405,0.0619346
-560,-272,-0.0722046,-0.0653076,0.00457301,-0.000745444,-0.00422102,0.00690262,-0.00307505,-0.504306,0.00590021,0.0177886,664,1296,-0.0722244,0.0653078
-553,-272,-0.0467529,-0.065918,0.0066281,-0.00102106,-0.00553239,0.0095292,-0.00392216,-0.482964,0.00798788,0.0127698,671,1296,-0.0467655,0.0659058
-546,-272,-0.0712891,-0.0687256,0.00880833,-0.000758979,-0.00676065,0.0123066,-0.00425722,-0.477503,0.00993238,0.0169497,678,1296,-0.0712795,0.0687315
-539,-272,-0.365051,0.14978,0,0,0,0,0,0,0,-1,685,1296,-0.365077,-0.149816
-532,-272,-0.823486,0.0601807,0,0,0,0,0,0,0,-1,692,1296,-0.823501,-0.0601349
-525,-272,-0.591248,-0.595825,0,0,0,0,0,0,0,-1,699,1296,-0.591241,0.595798
-518,-272,-0.609192,-0.999878,0,0,0,0,0,0,0,-1,706,1296,-0.60919,0.999869
-511,-272,-0.499756,-1.08777,0,0,0,0,0,0,0,-1,713,1296,-0.499763,1.08783
-504,-272,-0.410278,-0.0784912,0,0,0,0,0,0,0,-1,720,1296,-0.41026,0.0785261
-497,-272,0.074707,-0.238525,0,0,0,0,0,0,0,-1,727,1296,0.0747052,0.238473
-490,-272,2.03717,-1.7301,0,0,0,0,0,0,0,-1,734,1296,2.03719,1.73009
-483,-272,0.528625,-0.626099,0,0,0,0,0,0,0,-1,741,1296,0.528601,0.626159
-476,-272,0,0,0,0,0,0,0,0,0,-1,748,1296,0,0
-469,-272,0,0,0,0,0,0,0,0,0,-1,755,1296,0,0
-462,-272,0,0,0,0,0,0,0,0,0,-1,762,1296,0,0
-455,-272,0,0,0,0,0,0,0,0,0,-1,769,1296,0,0
-448,-272,0,0,0,0,0,0,0,0,0,-1,776,1296,0,0
-441,-272,0,0,0,0,0,0,0,0,0,-1,783,1296,0,0
-434,-272,0,0,0,0,0,0,0,0,0,-1,790,1296,0,0
-427,-272,0,0,0,0,0,0,0,0,0,-1,797,1296,0,0
-420,-272,0,0,0,0,0,0,0,0,0,-1,804,1296,0,0
-413,-272,0,0,0,0,0,0,0,0,0,-1,811,1296,0,0
-406,-272,0,0,0,0,0,0,0,0,0,-1,818,1296,0,0
-399,-272,0,0,0,0,0,0,0,0,0,-1,825,1296,0,0
-392,-272,0,0,0,0,0,0,0,0,0,-1,832,1296,0,0
-385,-272,0,0,0,0,0,0,0,0,0,-1,839,1296,0,0
-378,-272,0,0,0,0,0,0,0,0,0,-1,846,1296,0,0
-371,-272,0,0,0,0,0,0,0,0,0,-1,853,1296,0,0
-364,-272,0,0,0,0,0,0,0,0,0,-1,860,1296,0,0
-357,-272,0,0,0,0,0,0,0,0,0,-1,867,1296,0,0
-350,-272,0,0,0,0,0,0,0,0,0,-1,874,1296,0,0
-343,-272,0,0,0,0,0,0,0,0,0,-1,881,1296,0,0
-336,-272,0,0,0,0,0,0,0,0,0,-1,888,1296,0,0
-329,-272,0,0,0,0,0,0,0,0,0,-1,895,1296,0,0
-322,-272,0,0,0,0,0,0,0,0,0,-1,902,1296,0,0
-315,-272,0,0,0,0,0,0,0,0,0,-1,909,1296,0,0
-308,-272,0,0,0,0,0,0,0,0,0,-1,916,1296,0,0
-301,-272,0,0,0,0,0,0,0,0,0,-1,923,1296,0,0
-294,-272,0,0,0,0,0,0,0,0,0,-1,930,1296,0,0
-287,-272,0,0,0,0,0,0,0,0,0,-1,937,1296,0,0
-280,-272,0,0,0,0,0,0,0,0,0,-1,944,1296,0,0
-273,-272,0,0,0,0,0,0,0,0,0,-1,951,1296,0,0
-266,-272,0,0,0,0,0,0,0,0,0,-1,958,1296,0,0
-259,-272,0,0,0,0,0,0,0,0,0,-1,965,1296,0,0
-252,-272,0,0,0,0,0,0,0,0,0,-1,972,1296,0,0
-245,-272,0,0,0,0,0,0,0,0,0,-1,979,1296,0,0
-238,-272,0,0,0,0,0,0,0,0,0,-1,986,1296,0,0
-231,-272,0,0,0,0,0,0,0,0,0,-1,993,1296,0,0
-224,-272,0,0,0,0,0,0,0,0,0,-1,1000,1296,0,0
-217,-272,0,0,0,0,0,0,0,0,0,-1,1007,1296,0,0
-210,-272,0,0,0,0,0,0,0,0,0,-1,1014,1296,0,0
-203,-272,0,0,0,0,0,0,0,0,0,-1,1021,1296,0,0
-196,-272,0,0,0,0,0,0,0,0,0,-1,1028,1296,0,0
-189,-272,0,0,0,0,0,0,0,0,0,-1,1035,1296,0,0
-182,-272,0,0,0,0,0,0,0,0,0,-1,1042,1296,0,0
-175,-272,0,0,0,0,0,0,0,0,0,-1,1049,1296,0,0
-168,-272,0,0,0,0,0,0,0,0,0,-1,1056,1296,0,0
-161,-272,0,0,0,0,0,0,0,0,0,-1,1063,1296,0,0
-154,-272,0,0,0,0,0,0,0,0,0,-1,1070,1296,0,0
-147,-272,0,0,0,0,0,0,0,0,0,-1,1077,1296,0,0
-140,-272,0,0,0,0,0,0,0,0,0,-1,1084,1296,0,0
-133,-272,0,0,0,0,0,0,0,0,0,-1,1091,1296,0,0
-126,-272,0,0,0,0,0,0,0,0,0,-1,1098,1296,0,0
-119,-272,0,0,0,0,0,0,0,0,0,-1,1105,1296,0,0
-112,-272,0,0,0,0,0,0,0,0,0,-1,1112,1296,0,0
-105,-272,0,0,0,0,0,0,0,0,0,-1,1119,1296,0,0
-98,-272,0,0,0,0,0,0,0,0,0,-1,1126,1296,0,0
-91,-272,0,0,0,0,0,0,0,0,0,-1,1133,1296,0,0
-84,-272,0,0,0,0,0,0,0,0,0,-1,1140,1296,0,0
-77,-272,0,0,0,0,0,0,0,0,0,-1,1147,1296,0,0
-70,-272,0,0,0,0,0,0,0,0,0,-1,1154,1296,0,0
-63,-272,0,0,0,0,0,0,0,0,0,-1,1161,1296,0,0
-56,-272,0,0,0,0,0,0,0,0,0,-1,1168,1296,0,0
-49,-272,0,0,0,0,0,0,0,0,0,-1,1175,1296,0,0
-42,-272,0,0,0,0,0,0,0,0,0,-1,1182,1296,0,0
-35,-272,0,0,0,0,0,0,0,0,0,-1,1189,1296,0,0
-28,-272,0,0,0,0,0,0,0,0,0,-1,1196,1296,0,0
-21,-272,0,0,0,0,0,0,0,0,0,-1,1203,1296,0,0
-14,-272,0,0,0,0,0,0,0,0,0,-1,1210,1296,0,0
-7,-272,0,0,0,0,0,0,0,0,0,-1,1217,1296,0,0
0,-272,0,0,0,0,0,0,0,0,0,-1,1224,1296,0,0
7,-272,0,0,0,0,0,0,0,0,0,-1,1231,1296,0,0
14,-272,0,0,0,0,0,0,0,0,0,-1,1238,1296,0,0
21,-272,0,0,0,0,0,0,0,0,0,-1,1245,1296,0,0
28,-272,0,0,0,0,0,0,0,0,0,-1,1252,1296,0,0
35,-272,0,0,0,0,0,0,0,0,0,-1,1259,1296,0,0
42,-272,0,0,0,0,0,0,0,0,0,-1,1266,1296,0,0
49,-272,0,0,0,0,0,0,0,0,0,-1,1273,1296,0,0
56,-272,0,0,0,0,0,0,0,0,0,-1,1280,1296,0,0
63,-272,0,0,0,0,0,0,0,0,0,-1,1287,1296,0,0
70,-272,0,0,0,0,0,0,0,0,0,-1,1294,1296,0,0
77,-272,0,0,0,0,0,0,0,0,0,-1,1301,1296,0,0
84,-272,0,0,0,0,0,0,0,0,0,-1,1308,1296,0,0
91,-272,0,0,0,0,0,0,0,0,0,-1,1315,1296,0,0
98,-272,0,0,0,0,0,0,0,0,0,-1,1322,1296,0,0
105,-272,0,0,0,0,0,0,0,0,0,-1,1329,1296,0,0
112,-272,0,0,0,0,0,0,0,0,0,-1,1336,1296,0,0
119,-272,0,0,0,0,0,0,0,0,0,-1,1343,1296,0,0
126,-272,0,0,0,0,0,0,0,0,0,-1,1350,1296,0,0
133,-272,0,0,0,0,0,0,0,0,0,-1,1357,1296,0,0
140,-272,0,0,0,0,0,0,0,0,0,-1,1364,1296,0,0
147,-272,0,0,0,0,0,0,0,0,0,-1,1371,1296,0,0
154,-272,0,0,0,0,0,0,0,0,0,-1,1378,1296,0,0
161,-272,0,0,0,0,0,0,0,0,0,-1,1385,1296,0,0
168,-272,0,0,0,0,0,0,0,0,0,-1,1392,1296,0,0
175,-272,0,0,0,0,0,0,0,0,0,-1,1399,1296,0,0
182,-272,0,0,0,0,0,0,0,0,0,-1,1406,1296,0,0
189,-272,0,0,0,0,0,0,0,0,0,-1,1413,1296,0,0
196,-272,0,0,0,0,0,0,0,0,0,-1,1420,1296,0,0
203,-272,0,0,0,0,0,0,0,0,0,-1,1427,1296,0,0
210,-272,0,0,0,0,0,0,0,0,0,-1,1434,1296,0,0
217,-272,0,0,0,0,0,0,0,0,0,-1,1441,1296,0,0
224,-272,0,0,0,0,0,0,0,0,0,-1,1448,1296,0,0
231,-272,0,0,0,0,0,0,0,0,0,-1,1455,1296,0,0
238,-272,0,0,0,0,0,0,0,0,0,-1,1462,1296,0,0
245,-272,0,0,0,0,0,0,0,0,0,-1,1469,1296,0,0
252,-272,0,0,0,0,0,0,0,0,0,-1,1476,1296,0,0
259,-272,0,0,0,0,0,0,0,0,0,-1,1483,1296,0,0
266,-272,0,0,0,0,0,0,0,0,0,-1,1490,1296,0,0
273,-272,0,0,0,0,0,0,0,0,0,-1,1497,1296,0,0
280,-272,0,0,0,0,0,0,0,0,0,-1,1504,1296,0,0
287,-272,0,0,0,0,0,0,0,0,0,-1,1511,1296,0,0
294,-272,0,0,0,0,0,0,0,0,0,-1,1518,1296,0,0
301,-272,0,0,0,0,0,0,0,0,0,-1,1525,1296,0,0
308,-272,0,0,0,0,0,0,0,0,0,-1,1532,1296,0,0
315,-272,0,0,0,0,0,0,0,0,0,-1,1539,1296,0,0
322,-272,0,0,0,0,0,0,0,0,0,-1,1546,1296,0,0
329,-272,0,0,0,0,0,0,0,0,0,-1,1553,1296,0,0
336,-272,0,0,0,0,0,0,0,0,0,-1,1560,1296,0,0
343,-272,0,0,0,0,0,0,0,0,0,-1,1567,1296,0,0
350,-272,0,0,0,0,0,0,0,0,0,-1,1574,1296,0,0
357,-272,0,0,0,0,0,0,0,0,0,-1,1581,1296,0,0
364,-272,0,0,0,0,0,0,0,0,0,-1,1588,1296,0,0
371,-272,0,0,0,0,0,0,0,0,0,-1,1595,1296,0,0
378,-272,0,0,0,0,0,0,0,0,0,-1,1602,1296,0,0
385,-272,0,0,0,0,0,0,0,0,0,-1,1609,1296,0,0
392,-272,0,0,0,0,0,0,0,0,0,-1,1616,1296,0,0
399,-272,0,0,0,0,0,0,0,0,0,-1,1623,1296,0,0
406,-272,0,0,0,0,0,0,0,0,0,-1,1630,1296,0,0
413,-272,0,0,0,0,0,0,0,0,0,-1,1637,1296,0,0
420,-272,0,0,0,0,0,0,0,0,0,-1,1644,1296,0,0
427,-272,0,0,0,0,0,0,0,0,0,-1,1651,1296,0,0
434,-272,0,0,0,0,0,0,0,0,0,-1,1658,1296,0,0
441,-272,0,0,0,0,0,0,0,0,0,-1,1665,1296,0,0
448,-272,0,0,0,0,0,0,0,0,0,-1,1672,1296,0,0
455,-272,0,0,0,0,0,0,0,0,0,-1,1679,1296,0,0
462,-272,0,0,0,0,0,0,0,0,0,-1,1686,1296,0,0
469,-272,0,0,0,0,0,0,0,0,0,-1,1693,1296,0,0
476,-272,0,0,0,0,0,0,0,0,0,-1,1700,1296,0,0
483,-272,0,0,0,0,0,0,0,0,0,-1,1707,1296,0,0
490,-272,0,0,0,0,0,0,0,0,0,-1,1714,1296,0,0
497,-272,0,0,0,0,0,0,0,0,0,-1,1721,1296,0,0
504,-272,0,0,0,0,0,0,0,0,0,-1,1728,1296,0,0
511,-272,0,0,0,0,0,0,0,0,0,-1,1735,1296,0,0
518,-272,0,0,0,0,0,0,0,0,0,-1,1742,1296,0,0
525,-272,0,0,0,0,0,0,0,0,0,-1,1749,1296,0,0
532,-272,0,0,0,0,0,0,0,0,0,-1,1756,1296,0,0
539,-272,0,0,0,0,0,0,0,0,0,-1,1763,1296,0,0
546,-272,0,0,0,0,0,0,0,0,0,-1,1770,1296,0,0
553,-272,0,0,0,0,0,0,0,0,0,-1,1777,1296,0,0
560,-272,0,0,0,0,0,0,0,0,0,-1,1784,1296,0,0
567,-272,0,0,0,0,0,0,0,0,0,-1,1791,1296,0,0
574,-272,0,0,0,0,0,0,0,0,0,-1,1798,1296,0,0
581,-272,0,0,0,0,0,0,0,0,0,-1,1805,1296,0,0
588,-272,0,0,0,0,0,0,0,0,0,-1,1812,1296,0,0
595,-272,0,0,0,0,0,0,0,0,0,-1,1819,1296,0,0
602,-272,-0.0883789,-0.0802002,0.00482711,-0.0165352,0.00384417,0.00549782,-0.0172059,0.172734,0.0136767,0.0272522,1826,1296,-0.088423,0.0801508
609,-272,-0.0859375,-0.0849609,0.001442,-0.00562926,0.0071045,0.00584203,-0.0100293,0.554511,0.009269,0.0343645,1833,1296,-0.0858825,0.0850208
616,-272,0.835449,-0.0177002,0,0,0,0,0,0,0,-1,1840,1296,0.835439,0.017753
623,-272,1.33276,-0.5354,0,0,0,0,0,0,0,-1,1847,1296,1.33272,0.535387
630,-272,1.82996,-1.05298,0,0,0,0,0,0,0,-1,1854,1296,1.83001,1.05302
637,-272,0.539185,2.31592,0,0,0,0,0,0,0,-1,1861,1296,0.539181,-2.31586
644,-272,0.417725,1.9342,-0.00611699,0.0130353,0.00458425,0.014076,-0.00715772,1.34756,0.0124743,0.0466832,1868,1296,0.417785,-1.93415
651,-272,0.301147,1.51843,-0.00596232,0.0120024,0.00294511,0.0124729,-0.00643282,1.41238,0.0110994,0.045067,1875,1296,0.301144,-1.51848
658,-272,-0.00500488,1.03992,-0.00605009,0.0104027,0.00155846,0.0105491,-0.00619641,1.47718,0.00977627,0.0455028,1882,1296,-0.00503275,-1.03995
665,-272,-0.0585938,0.422607,-0.00531217,0.00833488,0.000520371,0.0083547,-0.00533198,1.53274,0.00796599,0.0480137,1889,1296,-0.0585547,-0.422565
672,-272,-0.0297852,0.00354004,-0.0043115,0.00632641,-0.000249353,0.00633225,-0.00431734,-1.54737,0.00618512,0.0440804,1896,1296,-0.0297849,-0.00358236
679,-272,-0.0582275,-0.059082,-0.00339519,0.0047081,-0.000773636,0.0047813,-0.00346839,-1.47646,0.00478302,0.016862,1903,1296,-0.0582381,0.0590891
686,-272,-0.0770264,-0.0733643,-0.0025216,0.00337818,-0.00133815,0.0036675,-0.00281092,-1.35786,0.0037512,0.0121608,1910,1296,-0.0769898,0.0734064
693,-272,-0.0892334,-0.0710449,-0.00186931,0.00120734,-0.00191351,0.0021242,-0.00278617,-1.12396,0.00284358,0.0106366,1917,1296,-0.0892428,0.0709888
700,-272,-0.0856934,-0.0535889,-0.00123496,-0.000126907,-0.00168988,0.00109745,-0.00245931,-0.943802,0.00210307,0.0101987,1924,1296,-0.0857327,0.0536221
707,-272,-0.0675049,-0.059082,-0.000373191,-0.000184928,-0.00105275,0.000777891,-0.00133601,-0.829987,0.00123456,0.00994445,1931,1296,-0.0674469,0.0590681
714,-272,-0.0684814,-0.0732422,0.000204662,0.00121788,-0.001199,0.0020129,-0.000590358,-0.985286,0.00157602,0.00936634,1938,1296,-0.0684899,0.0732247
721,-272,-0.0793457,-0.0748291,0.000345841,0.00235253,-0.00148984,0.00314538,-0.000447011,-1.08174,0.0022607,0.00950139,1945,1296,-0.0793596,0.074867
728,-272,-0.0753174,-0.059082,-0.000268438,0.0033268,-0.00260051,0.00469053,-0.00163217,-1.08781,0.00379009,0.0113147,1952,1296,-0.075378,0.0590881
735,-272,-0.057251,-0.0369873,-0.0015535,0.00488495,-0.0040062,0.00680508,-0.00347364,-1.12385,0.00603743,0.0117516,1959,1296,-0.057275,0.036992
742,-272,-0.0634766,-0.0509033,-0.00311916,0.00682455,-0.00552928,0.00928857,-0.00558318,-1.15158,0.00867459,0.0203691,1966,1296,-0.0634995,0.0508568
749,-272,-0.12793,-0.138794,-0.00577735,0.00918162,-0.0077603,0.0124801,-0.00907585,-1.16889,0.012497,0.0371939,1973,1296,-0.127938,0.138819
756,-272,-0.266846,-0.5,-0.00972322,0.0118011,-0.0106803,0.0162011,-0.0141233,-1.18001,0.0175215,0.0429663,1980,1296,-0.266875,0.500036
763,-272,-0.197144,-1.00403,-0.0153475,0.01447,-0.0144154,0.0202995,-0.021177,-1.18651,0.0239482,0.0459602,1987,1296,-0.197117,1.00399
770,-272,-0.141479,-1.45715,0,0,0,0,0,0,0,-1,1994,1296,-0.141426,1.45712
777,-272,0.174561,0.149902,0,0,0,0,0,0,0,-1,2001,1296,0.174558,-0.149864
784,-272,0,0,0,0,0,0,0,0,0,-1,2008,1296,0,0
791,-272,0,0,0,0,0,0,0,0,0,-1,2015,1296,0,0
798,-272,0,0,0,0,0,0,0,0,0,-1,2022,1296,0,0
805,-272,0,0,0,0,0,0,0,0,0,-1,2029,1296,0,0
812,-272,0,0,0,0,0,0,0,0,0,-1,2036,1296,0,0
-700,-279,0,0,0,0,0,0,0,0,0,-1,524,1303,0,0
-693,-279,0,0,0,0,0,0,0,0,0,-1,531,1303,0,0
-686,-279,0,0,0,0,0,0,0,0,0,-1,538,1303,0,0
-679,-279,0,0,0,0,0,0,0,0,0,-1,545,1303,0,0
-672,-279,0,0,0,0,0,0,0,0,0,-1,552,1303,0,0
-665,-279,0,0,0,0,0,0,0,0,0,-1,559,1303,0,0
-658,-279,0.425842,-4.18323,0.0383822,0.113246,0.0676685,0.153146,-0.00151749,1.03803,0.102607,0.045926,566,1303,0.425863,4.18326
-651,-279,0.687561,-3.5885,0.0299548,0.0801232,0.0457104,0.10718,0.00289822,1.03634,0.070507,0.0444104,573,1303,0.687547,3.58847
-644,-279,0.919312,-0.623901,0.0230373,0.0555367,0.0300786,0.0734744,0.00509967,1.03306,0.0473746,0.0401163,580,1303,0.919305,0.623854
-637,-279,0.593079,-0.0474854,0.0176207,0.0376923,0.0190553,0.0491931,0.00611997,1.02777,0.0309577,0.0438749,587,1303,0.593088,0.0474355
-630,-279,0.478394,-1.52393,0.0134342,0.0249979,0.0114212,0.0320174,0.00641481,1.01971,0.0195605,0.0406798,594,1303,0.478377,1.52393
-623,-279,-0.459717,0.874634,0.010173,0.0161865,0.00629235,0.0201536,0.00620591,1.00828,0.0119184,0.0431801,601,1303,-0.459695,-0.874591
-616,-279,0.314148,-0.313721,0.00777805,0.010273,0.00297739,0.0122537,0.00579735,0.983778,0.00707807,0.0383278,608,1303,0.314173,0.313682
-609,-279,-0.0894775,-0.0604248,0.00576826,0.00667271,0.000965667,0.0072868,0.00515417,1.00438,0.00432592,0.0250234,615,1303,-0.0894695,0.0604623
-602,-279,-0.0912476,-0.0648193,0.00357271,0.00170469,-0.00107007,0.00405906,0.00121834,-0.426591,0.00240509,0.0110512,622,1303,-0.0912748,0.0648417
-595,-279,-0.0657959,-0.0367432,0.00199519,9.6115e-05,-0.00169531,0.00298877,-0.000897458,-0.530116,0.00234951,0.00838249,629,1303,-0.0658224,0.0367731
-588,-279,-0.0457153,-0.0257568,0.00130997,-0.000146518,-0.00124398,0.0020232,-0.000859744,-0.520586,0.00170905,0.00898576,636,1303,-0.045714,0.0257807
-581,-279,-0.055542,-0.0429688,0.00148672,0.000366358,-0.00163282,0.00265278,-0.000799702,-0.620152,0.00208681,0.0108577,643,1303,-0.0555141,0.0430089
-574,-279,-0.0697021,-0.0598145,0.00187498,2.93698e-05,-0.00236063,0.00348677,-0.00158241,-0.599073,0.00299474,0.0105867,650,1303,-0.069679,0.0598599
-567,-279,-0.0770264,-0.0551758,0.00258407,-0.000489277,-0.00332224,0.00470781,-0.00261302,-0.568781,0.00428397,0.0127929,657,1303,-0.0770081,0.055224
-560,-279,-0.0576172,-0.0406494,0.00454229,-0.00116957,-0.0041149,0.00669522,-0.0033225,-0.482038,0.00589199,0.0138713,664,1303,-0.0576254,0.0406688
-553,-279,-0.0459595,-0.0389404,0.00666237,-0.00144312,-0.00544752,0.00939933,-0.00418009,-0.465585,0.00803079,0.0108565,671,1303,-0.0459859,0.0388841
-546,-279,-0.0800781,-0.0568848,0.00898796,-0.00118816,-0.00656308,0.0122043,-0.00440445,-0.455663,0.00993526,0.012078,678,1303,-0.0800941,0.0568952
-539,-279,-0.212646,0.0620117,0,0,0,0,0,0,0,-1,685,1303,-0.212668,-0.0620545
-532,-279,-0.415405,-0.646973,0.0158961,-0.000330265,-0.00833302,0.0194132,-0.00384734,-0.399382,0.014397,0.0432509,692,1303,-0.415398,0.646912
-525,-279,-0.477844,-1.01526,0.0193804,0.000447417,-0.00875913,0.022811,-0.00298326,-0.373303,0.0162931,0.041829,699,1303,-0.477866,1.01523
-518,-279,-0.702515,-1.13525,0.0229038,0.00178084,-0.00863303,0.0259832,-0.00129858,-0.342633,0.0177708,0.0425232,706,1303,-0.702512,1.13521
-511,-279,-1.06763,-1.2489,0,0,0,0,0,0,0,-1,713,1303,-1.06762,1.24895
-504,-279,1.84393,-0.619019,0,0,0,0,0,0,0,-1,720,1303,1.84393,0.619057
-497,-279,1.1214,-2.13208,0,0,0,0,0,0,0,-1,727,1303,1.12143,2.13208
-490,-279,1.52667,-1.56128,0.035467,0.0181627,-0.000165913,0.0354685,0.0181611,-0.00958683,0.0204798,0.0443574,734,1303,1.52666,1.56123
-483,-279,1.5108,-1.5752,0.0370059,0.0268678,0.00335099,0.0380134,0.0258603,0.292059,0.0224176,0.0398605,741,1303,1.5108,1.57516
-476,-279,0,0,0,0,0,0,0,0,0,-1,748,1303,0,0
-469,-279,0,0,0,0,0,0,0,0,0,-1,755,1303,0,0
-462,-279,0,0,0,0,0,0,0,0,0,-1,762,1303,0,0
-455,-279,0,0,0,0,0,0,0,0,0,-1,769,1303,0,0
-448,-279,0,0,0,0,0,0,0,0,0,-1,776,1303,0,0
-441,-279,0,0,0,0,0,0,0,0,0,-1,783,1303,0,0
-434,-279,0,0,0,0,0,0,0,0,0,-1,790,1303,0,0
-427,-279,0,0,0,0,0,0,0,0,0,-1,797,1303,0,0
-420,-279,0,0,0,0,0,0,0,0,0,-1,804,1303,0,0
-413,-279,0,0,0,0,0,0,0,0,0,-1,811,1303,0,0
-406,-279,0,0,0,0,0,0,0,0,0,-1,818,1303,0,0
-399,-279,0,0,0,0,0,0,0,0,0,-1,825,1303,0,0
-392,-279,0,0,0,0,0,0,0,0,0,-1,832,1303,0,0
-385,-279,0,0,0,0,0,0,0,0,0,-1,839,1303,0,0
-378,-279,0,0,0,0,0,0,0,0,0,-1,846,1303,0,0
-371,-279,0,0,0,0,0,0,0,0,0,-1,853,1303,0,0
-364,-279,0,0,0,0,0,0,0,0,0,-1,860,1303,0,0
-357,-279,0,0,0,0,0,0,0,0,0,-1,867,1303,0,0
-350,-279,0,0,0,0,0,0,0,0,0,-1,874,1303,0,0
-343,-279,0,0,0,0,0,0,0,0,0,-1,881,1303,0,0
-336,-279,0,0,0,0,0,0,0,0,0,-1,888,1303,0,0
-329,-279,0,0,0,0,0,0,0,0,0,-1,895,1303,0,0
-322,-279,0,0,0,0,0,0,0,0,0,-1,902,1303,0,0
-315,-279,0,0,0,0,0,0,0,0,0,-1,909,1303,0,0
-308,-279,0,0,0,0,0,0,0,0,0,-1,916,1303,0,0
-301,-279,0,0,0,0,0,0,0,0,0,-1,923,1303,0,0
-294,-279,0,0,0,0,0,0,0,0,0,-1,930,1303,0,0
-287,-279,0,0,0,0,0,0,0,0,0,-1,937,1303,0,0
-280,-279,0,0,0,0,0,0,0,0,0,-1,944,1303,0,0
-273,-279,0,0,0,0,0,0,0,0,0,-1,951,1303,0,0
-266,-279,0,0,0,0,0,0,0,0,0,-1,958,1303,0,0
-259,-279,0,0,0,0,0,0,0,0,0,-1,965,1303,0,0
-252,-279,0,0,0,0,0,0,0,0,0,-1,972,1303,0,0
-245,-279,0,0,0,0,0,0,0,0,0,-1,979,1303,0,0
-238,-279,0,0,0,0,0,0,0,0,0,-1,986,1303,0,0
-231,-279,0,0,0,0,0,0,0,0,0,-1,993,1303,0,0
-224,-279,0,0,0,0,0,0,0,0,0,-1,1000,1303,0,0
-217,-279,0,0,0,0,0,0,0,0,0,-1,1007,1303,0,0
-210,-279,0,0,0,0,0,0,0,0,0,-1,1014,1303,0,0
-203,-279,0,0,0,0,0,0,0,0,0,-1,1021,1303,0,0
-196,-279,0,0,0,0,0,0,0,0,0,-1,1028,1303,0,0
-189,-279,0,0,0,0,0,0,0,0,0,-1,1035,1303,0,0
-182,-279,0,0,0,0,0,0,0,0,0,-1,1042,1303,0,0
-175,-279,0,0,0,0,0,0,0,0,0,-1,1049,1303,0,0
-168,-279,0,0,0,0,0,0,0,0,0,-1,1056,1303,0,0
-161,-279,0,0,0,0,0,0,0,0,0,-1,1063,1303,0,0
-154,-279,0,0,0,0,0,0,0,0,0,-1,1070,1303,0,0
-147,-279,0,0,0,0,0,0,0,0,0,-1,1077,1303,0,0
-140,-279,0,0,0,0,0,0,0,0,0,-1,1084,1303,0,0
-133,-279,0,0,0,0,0,0,0,0,0,-1,1091,1303,0,0
-126,-279,0,0,0,0,0,0,0,0,0,-1,1098,1303,0,0
-119,-279,0,0,0,0,0,0,0,0,0,-1,1105,1303,0,0
-112,-279,0,0,0,0,0,0,0,0,0,-1,1112,1303,0,0
-105,-279,0,0,0,0,0,0,0,0,0,-1,1119,1303,0,0
-98,-279,0,0,0,0,0,0,0,0,0,-1,1126,1303,0,0
-91,-279,0,0,0,0,0,0,0,0,0,-1,1133,1303,0,0
-84,-279,0,0,0,0,0,0,0,0,0,-1,1140,1303,0,0
-77,-279,0,0,0,0,0,0,0,0,0,-1,1147,1303,0,0
-70,-279,0,0,0,0,0,0,0,0,0,-1,1154,1303,0,0
-63,-279,0,0,0,0,0,0,0,0,0,-1,1161,1303,0,0
-56,-279,0,0,0,0,0,0,0,0,0,-1,1168,1303,0,0
-49,-279,0,0,0,0,0,0,0,0,0,-1,1175,1303,0,0
-42,-279,0,0,0,0,0,0,0,0,0,-1,1182,1303,0,0
-35,-279,0,0,0,0,0,0,0,0,0,-1,1189,1303,0,0
-28,-279,0,0,0,0,0,0,0,0,0,-1,1196,1303,0,0
-21,-279,0,0,0,0,0,0,0,0,0,-1,1203,1303,0,0
-14,-279,0,0,0,0,0,0,0,0,0,-1,1210,1303,0,0
-7,-279,0,0,0,0,0,0,0,0,0,-1,1217,1303,0,0
0,-279,0,0,0,0,0,0,0,0,0,-1,1224,1303,0,0
7,-279,0,0,0,0,0,0,0,0,0,-1,1231,1303,0,0
14,-279,0,0,0,0,0,0,0,0,0,-1,1238,1303,0,0
21,-279,0,0,0,0,0,0,0,0,0,-1,1245,1303,0,0
28,-279,0,0,0,0,0,0,0,0,0,-1,1252,1303,0,0
35,-279,0,0,0,0,0,0,0,0,0,-1,1259,1303,0,0
42,-279,0,0,0,0,0,0,0,0,0,-1,1266,1303,0,0
49,-279,0,0,0,0,0,0,0,0,0,-1,1273,1303,0,0
56,-279,0,0,0,0,0,0,0,0,0,-1,1280,1303,0,0
63,-279,0,0,0,0,0,0,0,0,0,-1,1287,1303,0,0
70,-279,0,0,0,0,0,0,0,0,0,-1,1294,1303,0,0
77,-279,0,0,0,0,0,0,0,0,0,-1,1301,1303,0,0
84,-279,0,0,0,0,0,0,0,0,0,-1,1308,1303,0,0
91,-279,0,0,0,0,0,0,0,0,0,-1,1315,1303,0,0
98,-279,0,0,0,0,0,0,0,0,0,-1,1322,1303,0,0
105,-279,0,0,0,0,0,0,0,0,0,-1,1329,1303,0,0
112,-279,0,0,0,0,0,0,0,0,0,-1,1336,1303,0,0
119,-279,0,0,0,0,0,0,0,0,0,-1,1343,1303,0,0
126,-279,0,0,0,0,0,0,0,0,0,-1,1350,1303,0,0
133,-279,0,0,0,0,0,0,0,0,0,-1,1357,1303,0,0
140,-279,0,0,0,0,0,0,0,0,0,-1,1364,1303,0,0
147,-279,0,0,0,0,0,0,0,0,0,-1,1371,1303,0,0
154,-279,0,0,0,0,0,0,0,0,0,-1,1378,1303,0,0
161,-279,0,0,0,0,0,0,0,0,0,-1,1385,1303,0,0
168,-279,0,0,0,0,0,0,0,0,0,-1,1392,1303,0,0
175,-279,0,0,0,0,0,0,0,0,0,-1,1399,1303,0,0
182,-279,0,0,0,0,0,0,0,0,0,-1,1406,1303,0,0
189,-279,0,0,0,0,0,0,0,0,0,-1,1413,1303,0,0
196,-279,0,0,0,0,0,0,0,0,0,-1,1420,1303,0,0
203,-279,0,0,0,0,0,0,0,0,0,-1,1427,1303,0,0
210,-279,0,0,0,0,0,0,0,0,0,-1,1434,1303,0,0
217,-279,0,0,0,0,0,0,0,0,0,-1,1441,1303,0,0
224,-279,0,0,0,0,0,0,0,0,0,-1,1448,1303,0,0
231,-279,0,0,0,0,0,0,0,0,0,-1,1455,1303,0,0
238,-279,0,0,0,0,0,0,0,0,0,-1,1462,1303,0,0
245,-279,0,0,0,0,0,0,0,0,0,-1,1469,1303,0,0
252,-279,0,0,0,0,0,0,0,0,0,-1,1476,1303,0,0
259,-279,0,0,0,0,0,0,0,0,0,-1,1483,1303,0,0
266,-279,0,0,0,0,0,0,0,0,0,-1,1490,1303,0,0
273,-279,0,0,0,0,0,0,0,0,0,-1,1497,1303,0,0
280,-279,0,0,0,0,0,0,0,0,0,-1,1504,1303,0,0
287,-279,0,0,0,0,0,0,0,0,0,-1,1511,1303,0,0
294,-279,0,0,0,0,0,0,0,0,0,-1,1518,1303,0,0
301,-279,0,0,0,0,0,0,0,0,0,-1,1525,1303,0,0
308,-279,0,0,0,0,0,0,0,0,0,-1,1532,1303,0,0
315,-279,0,0,0,0,0,0,0,0,0,-1,1539,1303,0,0
322,-279,0,0,0,0,0,0,0,0,0,-1,1546,1303,0,0
329,-279,0,0,0,0,0,0,0,0,0,-1,1553,1303,0,0
336,-279,0,0,0,0,0,0,0,0,0,-1,1560,1303,0,0
343,-279,0,0,0,0,0,0,0,0,0,-1,1567,1303,0,0
350,-279,0,0,0,0,0,0,0,0,0,-1,1574,1303,0,0
357,-279,0,0,0,0,0,0,0,0,0,-1,1581,1303,0,0
364,-279,0,0,0,0,0,0,0,0,0,-1,1588,1303,0,0
371,-279,0,0,0,0,0,0,0,0,0,-1,1595,1303,0,0
378,-279,0,0,0,0,0,0,0,0,0,-1,1602,1303,0,0
385,-279,0,0,0,0,0,0,0,0,0,-1,1609,1303,0,0
392,-279,0,0,0,0,0,0,0,0,0,-1,1616,1303,0,0
399,-279,0,0,0,0,0,0,0,0,0,-1,1623,1303,0,0
406,-279,0,0,0,0,0,0,0,0,0,-1,1630,1303,0,0
413,-279,0,0,0,0,0,0,0,0,0,-1,1637,1303,0,0
420,-279,0,0,0,0,0,0,0,0,0,-1,1644,1303,0,0
427,-279,0,0,0,0,0,0,0,0,0,-1,1651,1303,0,0
434,-279,0,0,0,0,0,0,0,0,0,-1,1658,1303,0,0
441,-279,0,0,0,0,0,0,0,0,0,-1,1665,1303,0,0
448,-279,0,0,0,0,0,0,0,0,0,-1,1672,1303,0,0
455,-279,0,0,0,0,0,0,0,0,0,-1,1679,1303,0,0
462,-279,0,0,0,0,0,0,0,0,0,-1,1686,1303,0,0
469,-279,0,0,0,0,0,0,0,0,0,-1,1693,1303,0,0
476,-279,0,0,0,0,0,0,0,0,0,-1,1700,1303,0,0
483,-279,0,0,0,0,0,0,0,0,0,-1,1707,1303,0,0
490,-279,0,0,0,0,0,0,0,0,0,-1,1714,1303,0,0
497,-279,0,0,0,0,0,0,0,0,0,-1,1721,1303,0,0
504,-279,0,0,0,0,0,0,0,0,0,-1,1728,1303,0,0
511,-279,0,0,0,0,0,0,0,0,0,-1,1735,1303,0,0
518,-279,0,0,0,0,0,0,0,0,0,-1,1742,1303,0,0
525,-279,0,0,0,0,0,0,0,0,0,-1,1749,1303,0,0
532,-279,0,0,0,0,0,0,0,0,0,-1,1756,1303,0,0
539,-279,0,0,0,0,0,0,0,0,0,-1,1763,1303,0,0
546,-279,0,0,0,0,0,0,0,0,0,-1,1770,1303,0,0
553,-279,0,0,0,0,0,0,0,0,0,-1,1777,1303,0,0
560,-279,0,0,0,0,0,0,0,0,0,-1,1784,1303,0,0
567,-279,0,0,0,0,0,0,0,0,0,-1,1791,1303,0,0
574,-279,0,0,0,0,0,0,0,0,0,-1,1798,1303,0,0
581,-279,0,0,0,0,0,0,0,0,0,-1,1805,1303,0,0
588,-279,0,0,0,0,0,0,0,0,0,-1,1812,1303,0,0
595,-279,0,0,0,0,0,0,0,0,0,-1,1819,1303,0,0
602,-279,-0.150146,-0.132813,0,0,0,0,0,0,0,-1,1826,1303,-0.1501,0.1328
609,-279,1.77087,1.47656,0,0,0,0,0,0,0,-1,1833,1303,1.77088,-1.47662
616,-279,2.53687,-0.573853,0,0,0,0,0,0,0,-1,1840,1303,2.53681,0.573896
623,-279,2.09338,-1.12878,0,0,0,0,0,0,0,-1,1847,1303,2.09338,1.12881
630,-279,1.50464,2.4668,0,0,0,0,0,0,0,-1,1854,1303,1.50459,-2.4668
637,-279,1.18726,2.07715,-0.00662307,0.0133498,0.00678719,0.015438,-0.00871119,1.27233,0.0141217,0.0448143,1861,1303,1.18732,-2.07713
644,-279,0.684082,1.901,-0.00676305,0.0141806,0.00497173,0.0153009,-0.00788334,1.34917,0.0136119,0.0447505,1868,1303,0.684118,-1.90102
651,-279,0.67688,1.47449,-0.00666063,0.0136557,0.00318747,0.0141441,-0.00714898,1.41877,0.0125127,0.0442472,1875,1303,0.676862,-1.47455
658,-279,0.463013,1.21033,-0.00682962,0.0123509,0.00168121,0.0124972,-0.00697587,1.48403,0.0113924,0.0476423,1882,1303,0.463064,-1.21038
665,-279,0.284912,0.570068,-0.0059326,0.010254,0.000520493,0.0102708,-0.00594932,1.53868,0.00947481,0.0456034,1889,1303,0.284956,-0.570085
672,-279,0.043335,-0.00720215,-0.00469799,0.00807061,-0.000309444,0.00807811,-0.00470548,-1.54658,0.00746574,0.0327946,1896,1303,0.0433035,0.00719755
679,-279,-0.0673828,-0.0817871,-0.00357468,0.00621477,-0.000874518,0.00629228,-0.00365219,-1.4824,0.00580849,0.0184119,1903,1303,-0.0673989,0.0817858
686,-279,-0.0802002,-0.0742188,-0.00251108,0.00465951,-0.00145948,0.00494519,-0.00279676,-1.3775,0.00452682,0.0189267,1910,1303,-0.080216,0.0741725
693,-279,-0.0922852,-0.0778809,-0.00172016,0.00211452,-0.00205201,0.00300555,-0.00261119,-1.16114,0.00324549,0.015361,1917,1303,-0.0922862,0.0779233
700,-279,-0.0762939,-0.0526123,-0.000895882,0.000393109,-0.00182311,0.00168229,-0.00218506,-0.955299,0.0022391,0.0101918,1924,1303,-0.0763244,0.0526563
707,-279,-0.0795898,-0.0446777,0.000112785,-2.74747e-06,-0.00115817,0.00121463,-0.00110459,-0.76048,0.0013395,0.00805305,1931,1303,-0.0795388,0.044658
714,-279,-0.0848389,-0.0611572,0.000792659,0.00109517,-0.00128923,0.00224198,-0.000354157,-0.843792,0.00162562,0.00886531,1938,1303,-0.0848257,0.0612005
721,-279,-0.0895996,-0.0661621,0.00107093,0.00196157,-0.00161434,0.00319089,-0.000158391,-0.919978,0.00218197,0.0103552,1945,1303,-0.0896273,0.0661183
728,-279,-0.0749512,-0.0701904,0.000595742,0.00278994,-0.00271035,0.00461682,-0.00123114,-0.977709,0.00355994,0.0109516,1952,1303,-0.0749723,0.0701738
735,-279,-0.0477295,-0.0552979,-0.000538022,0.00414149,-0.00411848,0.00653843,-0.00293496,-1.04372,0.00559981,0.0111023,1959,1303,-0.0477521,0.0552555
742,-279,-0.026001,-0.0844727,-0.00199009,0.00591512,-0.00568485,0.00888643,-0.0049614,-1.08918,0.0081014,0.021336,1966,1303,-0.0259962,0.0844787
749,-279,-0.0626221,-0.141968,-0.00450197,0.00809629,-0.00792814,0.0119231,-0.00832877,-1.1211,0.0117536,0.0392292,1973,1303,-0.0625701,0.141966
756,-279,-0.116089,-0.191772,0,0,0,0,0,0,0,-1,1980,1303,-0.116117,0.1918
763,-279,-0.816528,-1.06409,0,0,0,0,0,0,0,-1,1987,1303,-0.816579,1.06415
770,-279,-0.065918,-0.166504,0,0,0,0,0,0,0,-1,1994,1303,-0.0659632,0.166447
777,-279,0.325317,0.277344,0,0,0,0,0,0,0,-1,2001,1303,0.325323,-0.277296
784,-279,0,0,0,0,0,0,0,0,0,-1,2008,1303,0,0
791,-279,0,0,0,0,0,0,0,0,0,-1,2015,1303,0,0
798,-279,0,0,0,0,0,0,0,0,0,-1,2022,1303,0,0
805,-279,0,0,0,0,0,0,0,0,0,-1,2029,1303,0,0
812,-279,0,0,0,0,0,0,0,0,0,-1,2036,1303,0,0
-700,-286,0,0,0,0,0,0,0,0,0,-1,524,1310,0,0
-693,-286,0,0,0,0,0,0,0,0,0,-1,531,1310,0,0
-686,-286,0,0,0,0,0,0,0,0,0,-1,538,1310,0,0
-679,-286,0,0,0,0,0,0,0,0,0,-1,545,1310,0,0
-672,-286,0,0,0,0,0,0,0,0,0,-1,552,1310,0,0
-665,-286,0,0,0,0,0,0,0,0,0,-1,559,1310,0,0
-658,-286,1.28192,-3.33533,0,0,0,0,0,0,0,-1,566,1310,1.28191,3.3353
-651,-286,0.934814,-2.56042,0,0,0,0,0,0,0,-1,573,1310,0.934796,2.56045
-644,-286,0.743286,-1.29675,0,0,0,0,0,0,0,-1,580,1310,0.743284,1.29672
-637,-286,0.529663,-1.16626,0.0223391,0.0386934,0.0185643,0.0508017,0.0102308,0.992851,0.031025,0.0435286,587,1310,0.529691,1.16628
-630,-286,0.353149,-1.08765,0.0172455,0.0255273,0.0105758,0.0327439,0.0100288,0.971996,0.0193719,0.04052,594,1310,0.353169,1.08765
-623,-286,0.351929,-0.683716,0.0132965,0.0165345,0.00533784,0.0204935,0.00933755,0.93264,0.0118474,0.0391902,601,1310,0.351933,0.683688
-616,-286,0.167664,-0.144409,0.0101893,0.0105035,0.00206215,0.0124145,0.00827825,0.823412,0.00729928,0.0405602,608,1310,0.167658,0.144404
-609,-286,-0.107849,-0.0650635,0.00772525,0.00681472,0.000159566,0.0077524,0.00678757,0.168556,0.00487856,0.0308213,615,1310,-0.107819,0.0650662
-602,-286,-0.0906372,-0.0692139,0.00517515,0.00209749,-0.00171309,0.00593907,0.00133357,-0.419466,0.0035982,0.0123405,622,1310,-0.090649,0.0692263
-595,-286,-0.0806274,-0.0527344,0.0032815,0.000403318,-0.00222316,0.0044907,-0.000805879,-0.498155,0.00329544,0.00872788,629,1310,-0.0806344,0.0527173
-588,-286,-0.0598755,-0.029541,0.00225796,8.32715e-05,-0.00172471,0.00320947,-0.000868241,-0.504143,0.00248025,0.00967459,636,1310,-0.0598775,0.0295535
-581,-286,-0.0505371,-0.0419922,0.00204919,0.00047539,-0.00188758,0.00330733,-0.00078275,-0.587911,0.00250687,0.0125923,643,1310,-0.0505528,0.0419312
-574,-286,-0.0661011,-0.0588379,0.00210506,2.7016e-05,-0.00244788,0.0037253,-0.00159322,-0.584692,0.00315182,0.0124691,650,1310,-0.0660911,0.0588671
-567,-286,-0.0913086,-0.0570068,0.00248618,-0.000683349,-0.00317642,0.00445122,-0.0026484,-0.554009,0.00414278,0.0108237,657,1310,-0.0913021,0.0570294
-560,-286,-0.0749512,-0.0494385,0.00427945,-0.0014477,-0.00386907,0.00622937,-0.00339762,-0.466824,0.00563773,0.0108862,664,1310,-0.0749661,0.0493845
-553,-286,-0.0517578,-0.0440674,0.00642805,-0.00172766,-0.00517693,0.0089403,-0.00423991,-0.451801,0.00776922,0.0092167,671,1310,-0.0517775,0.044087
-546,-286,-0.0764771,-0.0556641,0.00889161,-0.00155559,-0.00611392,0.0117095,-0.00437351,-0.431883,0.00960214,0.0113012,678,1310,-0.0764644,0.055703
-539,-286,-0.0874634,-0.178833,0,0,0,0,0,0,0,-1,685,1310,-0.0874625,0.178792
-532,-286,-0.0380249,-0.373291,0.0161948,-0.000953892,-0.00731597,0.0188918,-0.00365088,-0.353186,0.0139714,0.0388768,692,1310,-0.0380533,0.373339
-525,-286,-0.0426025,-1.18616,0.0199033,-0.00024411,-0.0073673,0.0223099,-0.00265065,-0.315725,0.0158309,0.045218,699,1310,-0.0425903,1.18618
-518,-286,-0.378601,-1.38794,0.0236691,0.00104269,-0.00677425,0.0255422,-0.000830426,-0.269765,0.0173116,0.0446383,706,1310,-0.378608,1.3879
-511,-286,1.38727,-0.172485,0.0276253,0.00294929,-0.00552934,0.0288076,0.00176694,-0.210659,0.018644,0.0426417,713,1310,1.38726,0.17253
-504,-286,1.45789,-0.421265,0.0315094,0.00583728,-0.00330569,0.0319282,0.00541846,-0.126027,0.0197289,0.0468618,720,1310,1.45787,0.421263
-497,-286,1.00128,-1.63318,0.0350824,0.0101099,0.000108096,0.0350829,0.0101094,0.00432849,0.0208523,0.0456285,727,1310,1.00127,1.6332
-490,-286,0.88501,-1.26672,0.0377872,0.0164752,0.00488287,0.0388527,0.0154097,0.214837,0.0225909,0.0454105,734,1310,0.885007,1.26668
-483,-286,2.2157,-2.57678,0.0397892,0.0249932,0.00968524,0.0445786,0.0202037,0.459248,0.025775,0.0489279,741,1310,2.21568,2.57678
-476,-286,3.05066,-3.06604,0,0,0,0,0,0,0,-1,748,1310,3.05063,3.06609
-469,-286,0,0,0,0,0,0,0,0,0,-1,755,1310,0,0
-462,-286,0,0,0,0,0,0,0,0,0,-1,762,1310,0,0
-455,-286,0,0,0,0,0,0,0,0,0,-1,769,1310,0,0
-448,-286,0,0,0,0,0,0,0,0,0,-1,776,1310,0,0
-441,-286,0,0,0,0,0,0,0,0,0,-1,783,1310,0,0
-434,-286,0,0,0,0,0,0,0,0,0,-1,790,1310,0,0
-427,-286,0,0,0,0,0,0,0,0,0,-1,797,1310,0,0
-420,-286,0,0,0,0,0,0,0,0,0,-1,804,1310,0,0
-413,-286,0,0,0,0,0,0,0,0,0,-1,811,1310,0,0
-406,-286,0,0,0,0,0,0,0,0,0,-1,818,1310,0,0
-399,-286,0,0,0,0,0,0,0,0,0,-1,825,1310,0,0
-392,-286,0,0,0,0,0,0,0,0,0,-1,832,1310,0,0
-385,-286,0,0,0,0,0,0,0,0,0,-1,839,1310,0,0
-378,-286,0,0,0,0,0,0,0,0,0,-1,846,1310,0,0
-371,-286,0,0,0,0,0,0,0,0,0,-1,853,1310,0,0
-364,-286,0,0,0,0,0,0,0,0,0,-1,860,1310,0,0
-357,-286,0,0,0,0,0,0,0,0,0,-1,867,1310,0,0
-350,-286,0,0,0,0,0,0,0,0,0,-1,874,1310,0,0
-343,-286,0,0,0,0,0,0,0,0,0,-1,881,1310,0,0
-336,-286,0,0,0,0,0,0,0,0,0,-1,888,1310,0,0
-329,-286,0,0,0,0,0,0,0,0,0,-1,895,1310,0,0
-322,-286,0,0,0,0,0,0,0,0,0,-1,902,1310,0,0
-315,-286,0,0,0,0,0,0,0,0,0,-1,909,1310,0,0
-308,-286,0,0,0,0,0,0,0,0,0,-1,916,1310,0,0
-301,-286,0,0,0,0,0,0,0,0,0,-1,923,1310,0,0
-294,-286,0,0,0,0,0,0,0,0,0,-1,930,1310,0,0
-287,-286,0,0,0,0,0,0,0,0,0,-1,937,1310,0,0
-280,-286,0,0,0,0,0,0,0,0,0,-1,944,1310,0,0
-273,-286,0,0,0,0,0,0,0,0,0,-1,951,1310,0,0
-266,-286,0,0,0,0,0,0,0,0,0,-1,958,1310,0,0
-259,-286,0,0,0,0,0,0,0,0,0,-1,965,1310,0,0
-252,-286,0,0,0,0,0,0,0,0,0,-1,972,1310,0,0
-245,-286,0,0,0,0,0,0,0,0,0,-1,979,1310,0,0
-238,-286,0,0,0,0,0,0,0,0,0,-1,986,1310,0,0
-231,-286,0,0,0,0,0,0,0,0,0,-1,993,1310,0,0
-224,-286,0,0,0,0,0,0,0,0,0,-1,1000,1310,0,0
-217,-286,0,0,0,0,0,0,0,0,0,-1,1007,1310,0,0
-210,-286,0,0,0,0,0,0,0,0,0,-1,1014,1310,0,0
-203,-286,0,0,0,0,0,0,0,0,0,-1,1021,1310,0,0
-196,-286,0,0,0,0,0,0,0,0,0,-1,1028,1310,0,0
-189,-286,0,0,0,0,0,0,0,0,0,-1,1035,1310,0,0
-182,-286,0,0,0,0,0,0,0,0,0,-1,1042,1310,0,0
-175,-286,0,0,0,0,0,0,0,0,0,-1,1049,1310,0,0
-168,-286,0,0,0,0,0,0,0,0,0,-1,1056,1310,0,0
-161,-286,0,0,0,0,0,0,0,0,0,-1,1063,1310,0,0
-154,-286,0,0,0,0,0,0,0,0,0,-1,1070,1310,0,0
-147,-286,0,0,0,0,0,0,0,0,0,-1,1077,1310,0,0
-140,-286,0,0,0,0,0,0,0,0,0,-1,1084,1310,0,0
-133,-286,0,0,0,0,0,0,0,0,0,-1,1091,1310,0,0
-126,-286,0,0,0,0,0,0,0,0,0,-1,1098,1310,0,0
-119,-286,0,0,0,0,0,0,0,0,0,-1,1105,1310,0,0
-112,-286,0,0,0,0,0,0,0,0,0,-1,1112,1310,0,0
-105,-286,0,0,0,0,0,0,0,0,0,-1,1119,1310,0,0
-98,-286,0,0,0,0,0,0,0,0,0,-1,1126,1310,0,0
-91,-286,0,0,0,0,0,0,0,0,0,-1,1133,1310,0,0
-84,-286,0,0,0,0,0,0,0,0,0,-1,1140,1310,0,0
-77,-286,0,0,0,0,0,0,0,0,0,-1,1147,1310,0,0
-70,-286,0,0,0,0,0,0,0,0,0,-1,1154,1310,0,0
-63,-286,0,0,0,0,0,0,0,0,0,-1,1161,1310,0,0
-56,-286,0,0,0,0,0,0,0,0,0,-1,1168,1310,0,0
-49,-286,0,0,0,0,0,0,0,0,0,-1,1175,1310,0,0
-42,-286,0,0,0,0,0,0,0,0,0,-1,1182,1310,0,0
-35,-286,0,0,0,0,0,0,0,0,0,-1,1189,1310,0,0
-28,-286,0,0,0,0,0,0,0,0,0,-1,1196,1310,0,0
-21,-286,0,0,0,0,0,0,0,0,0,-1,1203,1310,0,0
-14,-286,0,0,0,0,0,0,0,0,0,-1,1210,1310,0,0
-7,-286,0,0,0,0,0,0,0,0,0,-1,1217,1310,0,0
0,-286,0,0,0,0,0,0,0,0,0,-1,1224,1310,0,0
7,-286,0,0,0,0,0,0,0,0,0,-1,1231,1310,0,0
14,-286,0,0,0,0,0,0,0,0,0,-1,1238,1310,0,0
21,-286,0,0,0,0,0,0,0,0,0,-1,1245,1310,0,0
28,-286,0,0,0,0,0,0,0,0,0,-1,1252,1310,0,0
35,-286,0,0,0,0,0,0,0,0,0,-1,1259,1310,0,0
42,-286,0,0,0,0,0,0,0,0,0,-1,1266,1310,0,0
49,-286,0,0,0,0,0,0,0,0,0,-1,1273,1310,0,0
56,-286,0,0,0,0,0,0,0,0,0,-1,1280,1310,0,0
63,-286,0,0,0,0,0,0,0,0,0,-1,1287,1310,0,0
70,-286,0,0,0,0,0,0,0,0,0,-1,1294,1310,0,0
77,-286,0,0,0,0,0,0,0,0,0,-1,1301,1310,0,0
84,-286,0,0,0,0,0,0,0,0,0,-1,1308,1310,0,0
91,-286,0,0,0,0,0,0,0,0,0,-1,1315,1310,0,0
98,-286,0,0,0,0,0,0,0,0,0,-1,1322,1310,0,0
105,-286,0,0,0,0,0,0,0,0,0,-1,1329,1310,0,0
112,-286,0,0,0,0,0,0,0,0,0,-1,1336,1310,0,0
119,-286,0,0,0,0,0,0,0,0,0,-1,1343,1310,0,0
126,-286,0,0,0,0,0,0,0,0,0,-1,1350,1310,0,0
133,-286,0,0,0,0,0,0,0,0,0,-1,1357,1310,0,0
140,-286,0,0,0,0,0,0,0,0,0,-1,1364,1310,0,0
147,-286,0,0,0,0,0,0,0,0,0,-1,1371,1310,0,0
154,-286,0,0,0,0,0,0,0,0,0,-1,1378,1310,0,0
161,-286,0,0,0,0,0,0,0,0,0,-1,1385,1310,0,0
168,-286,0,0,0,0,0,0,0,0,0,-1,1392,1310,0,0
175,-286,0,0,0,0,0,0,0,0,0,-1,1399,1310,0,0
182,-286,0,0,0,0,0,0,0,0,0,-1,1406,1310,0,0
189,-286,0,0,0,0,0,0,0,0,0,-1,1413,1310,0,0
196,-286,0,0,0,0,0,0,0,0,0,-1,1420,1310,0,0
203,-286,0,0,0,0,0,0,0,0,0,-1,1427,1310,0,0
210,-286,0,0,0,0,0,0,0,0,0,-1,1434,1310,0,0
217,-286,0,0,0,0,0,0,0,0,0,-1,1441,1310,0,0
224,-286,0,0,0,0,0,0,0,0,0,-1,1448,1310,0,0
231,-286,0,0,0,0,0,0,0,0,0,-1,1455,1310,0,0
238,-286,0,0,0,0,0,0,0,0,0,-1,1462,1310,0,0
245,-286,0,0,0,0,0,0,0,0,0,-1,1469,1310,0,0
252,-286,0,0,0,0,0,0,0,0,0,-1,1476,1310,0,0
259,-286,0,0,0,0,0,0,0,0,0,-1,1483,1310,0,0
266,-286,0,0,0,0,0,0,0,0,0,-1,1490,1310,0,0
273,-286,0,0,0,0,0,0,0,0,0,-1,1497,1310,0,0
280,-286,0,0,0,0,0,0,0,0,0,-1,1504,1310,0,0
287,-286,0,0,0,0,0,0,0,0,0,-1,1511,1310,0,0
294,-286,0,0,0,0,0,0,0,0,0,-1,1518,1310,0,0
301,-286,0,0,0,0,0,0,0,0,0,-1,1525,1310,0,0
308,-286,0,0,0,0,0,0,0,0,0,-1,1532,1310,0,0
315,-286,0,0,0,0,0,0,0,0,0,-1,1539,1310,0,0
322,-286,0,0,0,0,0,0,0,0,0,-1,1546,1310,0,0
329,-286,0,0,0,0,0,0,0,0,0,-1,1553,1310,0,0
336,-286,0,0,0,0,0,0,0,0,0,-1,1560,1310,0,0
343,-286,0,0,0,0,0,0,0,0,0,-1,1567,1310,0,0
350,-286,0,0,0,0,0,0,0,0,0,-1,1574,1310,0,0
357,-286,0,0,0,0,0,0,0,0,0,-1,1581,1310,0,0
364,-286,0,0,0,0,0,0,0,0,0,-1,1588,1310,0,0
371,-286,0,0,0,0,0,0,0,0,0,-1,1595,1310,0,0
378,-286,0,0,0,0,0,0,0,0,0,-1,1602,1310,0,0
385,-286,0,0,0,0,0,0,0,0,0,-1,1609,1310,0,0
392,-286,0,0,0,0,0,0,0,0,0,-1,1616,1310,0,0
399,-286,0,0,0,0,0,0,0,0,0,-1,1623,1310,0,0
406,-286,0,0,0,0,0,0,0,0,0,-1,1630,1310,0,0
413,-286,0,0,0,0,0,0,0,0,0,-1,1637,1310,0,0
420,-286,0,0,0,0,0,0,0,0,0,-1,1644,1310,0,0
427,-286,0,0,0,0,0,0,0,0,0,-1,1651,1310,0,0
434,-286,0,0,0,0,0,0,0,0,0,-1,1658,1310,0,0
441,-286,0,0,0,0,0,0,0,0,0,-1,1665,1310,0,0
448,-286,0,0,0,0,0,0,0,0,0,-1,1672,1310,0,0
455,-286,0,0,0,0,0,0,0,0,0,-1,1679,1310,0,0
462,-286,0,0,0,0,0,0,0,0,0,-1,1686,1310,0,0
469,-286,0,0,0,0,0,0,0,0,0,-1,1693,1310,0,0
476,-286,0,0,0,0,0,0,0,0,0,-1,1700,1310,0,0
483,-286,0,0,0,0,0,0,0,0,0,-1,1707,1310,0,0
490,-286,0,0,0,0,0,0,0,0,0,-1,1714,1310,0,0
497,-286,0,0,0,0,0,0,0,0,0,-1,1721,1310,0,0
504,-286,0,0,0,0,0,0,0,0,0,-1,1728,1310,0,0
511,-286,0,0,0,0,0,0,0,0,0,-1,1735,1310,0,0
518,-286,0,0,0,0,0,0,0,0,0,-1,1742,1310,0,0
525,-286,0,0,0,0,0,0,0,0,0,-1,1749,1310,0,0
532,-286,0,0,0,0,0,0,0,0,0,-1,1756,1310,0,0
539,-286,0,0,0,0,0,0,0,0,0,-1,1763,1310,0,0
546,-286,0,0,0,0,0,0,0,0,0,-1,1770,1310,0,0
553,-286,0,0,0,0,0,0,0,0,0,-1,1777,1310,0,0
560,-286,0,0,0,0,0,0,0,0,0,-1,1784,1310,0,0
567,-286,0,0,0,0,0,0,0,0,0,-1,1791,1310,0,0
574,-286,0,0,0,0,0,0,0,0,0,-1,1798,1310,0,0
581,-286,0,0,0,0,0,0,0,0,0,-1,1805,1310,0,0
588,-286,0,0,0,0,0,0,0,0,0,-1,1812,1310,0,0
595,-286,-0.0474854,-0.0264893,0,0,0,0,0,0,0,-1,1819,1310,-0.0474707,0.0264724
602,-286,2.73743,1.4718,0,0,0,0,0,0,0,-1,1826,1310,2.73742,-1.47178
609,-286,2.22095,0.526489,0,0,0,0,0,0,0,-1,1833,1310,2.22096,-0.526442
616,-286,1.99524,-0.458984,0,0,0,0,0,0,0,-1,1840,1310,1.99527,0.458995
623,-286,1.71729,-1.08557,-0.00503008,0.00650659,0.00976821,0.0120825,-0.010606,1.05211,0.0131084,0.0473468,1847,1310,1.71734,1.08561
630,-286,1.21863,-1.63452,-0.00633604,0.0104316,0.00861626,0.0140698,-0.00997422,1.17126,0.0139488,0.0442657,1854,1310,1.21869,1.63456
637,-286,1.20752,2.02124,-0.00691253,0.013359,0.00701942,0.0155523,-0.00910584,1.26795,0.0143977,0.04245,1861,1310,1.20753,-2.02123
644,-286,1.06812,1.58337,-0.00706874,0.0147787,0.00510601,0.0159131,-0.00820317,1.35217,0.0141587,0.0415974,1868,1310,1.06809,-1.58338
651,-286,-0.151978,-0.479126,-0.00705034,0.0147006,0.0032009,0.0151619,-0.00751161,1.42768,0.0133366,0.0399533,1875,1310,-0.15198,0.47915
658,-286,-0.121338,-0.116455,-0.00735147,0.0136167,0.00157987,0.0137351,-0.00746984,1.49601,0.0124195,0.0445196,1882,1310,-0.121332,0.116468
665,-286,-0.048584,-0.057373,-0.00631902,0.0114838,0.000333236,0.01149,-0.00632525,1.55209,0.0104287,0.0439356,1889,1310,-0.0485624,0.0573192
672,-286,-0.081543,-0.0842285,-0.00488261,0.00917036,-0.000532828,0.00919054,-0.00490279,-1.53295,0.00826136,0.0232611,1896,1310,-0.081538,0.0842092
679,-286,-0.103027,-0.0904541,-0.0036049,0.00713586,-0.00110068,0.0072475,-0.00371653,-1.46972,0.00643858,0.0177689,1903,1310,-0.103074,0.090481
686,-286,-0.117676,-0.0666504,-0.00238743,0.0053901,-0.00164185,0.0057225,-0.00271982,-1.37105,0.00497588,0.018716,1910,1310,-0.117631,0.0666176
693,-286,-0.0958252,-0.0483398,-0.00147285,0.00260636,-0.00216959,0.00354452,-0.00241101,-1.16266,0.00345912,0.0151866,1917,1310,-0.0957893,0.0483611
700,-286,-0.0667725,-0.0541992,-0.000494455,0.000568427,-0.00191749,0.00202676,-0.00195278,-0.920582,0.00229772,0.0107926,1924,1310,-0.0667609,0.0541449
707,-286,-0.0687256,-0.0352783,0.000618972,-0.000132314,-0.00122338,0.00152308,-0.00103642,-0.63644,0.0014866,0.00826957,1931,1310,-0.0687719,0.0352373
714,-286,-0.0908203,-0.0461426,0.00137277,0.000593296,-0.00130421,0.00234423,-0.000378164,-0.640206,0.00170293,0.00766457,1938,1310,-0.0907995,0.046123
721,-286,-0.0942383,-0.0661621,0.00177865,0.00113075,-0.00158401,0.00307149,-0.000162089,-0.684533,0.00210377,0.00953874,1945,1310,-0.0942014,0.0661238
728,-286,-0.0848389,-0.0767822,0.00148503,0.00169965,-0.00256769,0.00416227,-0.000977587,-0.806282,0.00315166,0.0126229,1952,1310,-0.0848873,0.0768178
735,-286,-0.0922852,-0.0750732,0.000572173,0.00271164,-0.00387974,0.00566642,-0.00238261,-0.919917,0.00477428,0.0136271,1959,1310,-0.0923142,0.0750477
742,-286,-0.0422363,-0.140381,-0.00071673,0.00413162,-0.00539784,0.00762466,-0.00420976,-0.996451,0.00692677,0.0217256,1966,1310,-0.0421779,0.140367
749,-286,0.0108643,-0.268555,-0.00306273,0.00593021,-0.00754404,0.0102161,-0.00734867,-1.05415,0.010186,0.0375528,1973,1310,0.0108891,0.268605
756,-286,0.407959,-0.513916,-0.00690127,0.00799248,-0.0104526,0.0133796,-0.0122884,-1.09491,0.0148239,0.0456665,1980,1310,0.407937,0.513859
763,-286,0.66748,-0.562012,0,0,0,0,0,0,0,-1,1987,1310,0.667446,0.561961
770,-286,0.0947266,-0.400391,0,0,0,0,0,0,0,-1,1994,1310,0.0947485,0.400433
777,-286,0,0,0,0,0,0,0,0,0,-1,2001,1310,0,0
784,-286,0,0,0,0,0,0,0,0,0,-1,2008,1310,0,0
791,-286,0,0,0,0,0,0,0,0,0,-1,2015,1310,0,0
798,-286,0,0,0,0,0,0,0,0,0,-1,2022,1310,0,0
805,-286,0,0,0,0,0,0,0,0,0,-1,2029,1310,0,0
812,-286,0,0,0,0,0,0,0,0,0,-1,2036,1310,0,0
-700,-293,0,0,0,0,0,0,0,0,0,-1,524,1317,0,0
-693,-293,0,0,0,0,0,0,0,0,0,-1,531,1317,0,0
-686,-293,0,0,0,0,0,0,0,0,0,-1,538,1317,0,0
-679,-293,0,0,0,0,0,0,0,0,0,-1,545,1317,0,0
-672,-293,0,0,0,0,0,0,0,0,0,-1,552,1317,0,0
-665,-293,0,0,0,0,0,0,0,0,0,-1,559,1317,0,0
-658,-293,0,0,0,0,0,0,0,0,0,-1,566,1317,0,0
-651,-293,0.834595,-1.50317,0,0,0,0,0,0,0,-1,573,1317,0.834566,1.50319
-644,-293,0.539246,-0.670898,0,0,0,0,0,0,0,-1,580,1317,0.539274,0.67092
-637,-293,0.314514,-0.414917,0.0257625,0.0384179,0.0159506,0.0492501,0.0149303,0.974229,0.0291599,0.0424459,587,1317,0.314527,0.414918
-630,-293,0.0747681,-0.27417,0.0203412,0.0253533,0.0080495,0.0312778,0.0144166,0.936307,0.0180766,0.0413527,594,1317,0.0747621,0.274181
-623,-293,-0.0147705,-0.0695801,0.016057,0.016551,0.00305265,0.0193666,0.0132414,0.825765,0.0114302,0.0392013,601,1317,-0.0147539,0.0695432
-616,-293,-0.202209,-0.00646973,0.0125774,0.0106869,9.98433e-05,0.0125826,0.0106816,0.0526184,0.00783203,0.0414315,608,1317,-0.202217,0.00650891
-609,-293,-0.15918,0.0142822,0.00970444,0.00702505,-0.00145339,0.0103414,0.00638809,-0.413041,0.00602551,0.0381072,615,1317,-0.159181,-0.0143025
-602,-293,-0.0980225,-0.0205078,0.00684123,0.00266537,-0.00293983,0.00835913,0.00114747,-0.476622,0.00523238,0.0228689,622,1317,-0.0980394,0.0205675
-595,-293,-0.0932007,-0.0407715,0.00464347,0.000937648,-0.00316732,0.00646006,-0.000878938,-0.520736,0.00462759,0.012146,629,1317,-0.093196,0.040785
-588,-293,-0.0898438,-0.0533447,0.0032337,0.000512307,-0.00250629,0.00472484,-0.000978832,-0.536705,0.00352181,0.0137895,636,1317,-0.0898715,0.0533215
-581,-293,-0.0712891,-0.0605469,0.00261772,0.000743373,-0.00236554,0.00422497,-0.000863876,-0.596795,0.00314441,0.0169756,643,1317,-0.0712864,0.0604945
-574,-293,-0.0870972,-0.0487061,0.00233373,0.000206358,-0.00267949,0.00415294,-0.00161285,-0.596451,0.00343487,0.01534,650,1317,-0.0870746,0.0487254
-567,-293,-0.108704,-0.0483398,0.00234615,-0.000710884,-0.00310893,0.00428199,-0.00264673,-0.556924,0.00403726,0.0147298,657,1317,-0.1087,0.0483531
-560,-293,-0.0910034,-0.0455322,0.00383378,-0.00161969,-0.00367897,0.00568634,-0.00347225,-0.466485,0.00533897,0.0151535,664,1317,-0.0910073,0.0455227
-553,-293,-0.0474243,-0.050293,0.00590925,-0.00196493,-0.00491798,0.00827193,-0.00432762,-0.44786,0.00739222,0.0105505,671,1317,-0.0474523,0.0503025
-546,-293,-0.0686646,-0.048584,0.00843417,-0.00196373,-0.00564171,0.0109071,-0.00443667,-0.413109,0.00911751,0.0100028,678,1317,-0.0686428,0.0486324
-539,-293,-0.0856323,-0.0565186,0.0115869,-0.00272597,-0.00568463,0.0135699,-0.00470898,-0.335639,0.0109589,0.0167044,685,1317,-0.0856509,0.0565233
-532,-293,0.00494385,-0.131348,0.0158836,-0.00193539,-0.00608158,0.0177614,-0.00381314,-0.299474,0.0132955,0.0318414,692,1317,0.00494598,0.13138
-525,-293,0.382263,-0.098999,0.0196725,-0.0015902,-0.00560196,0.0210581,-0.00297582,-0.242479,0.0151285,0.0378553,699,1317,0.38228,0.0990431
-518,-293,0.789795,-0.130859,0.0234869,-0.000842173,-0.0043758,0.02425,-0.00160526,-0.172653,0.0167274,0.0401847,706,1317,0.789811,0.130809
-511,-293,1.15302,-0.155151,0.0274668,0.000104975,-0.00241004,0.0276775,-0.000105681,-0.0871858,0.018487,0.0447493,713,1317,1.15302,0.155154
-504,-293,1.03174,-0.579468,0.0313099,0.00135706,0.000581599,0.0313211,0.00134577,0.0194074,0.0204469,0.0459243,720,1317,1.03174,0.57945
-497,-293,1.12152,-1.14612,0.0347997,0.00274951,0.00465182,0.0354612,0.00208799,0.14126,0.0229764,0.0442042,727,1317,1.12155,1.1461
-490,-293,1.75964,-1.72192,0.037467,0.00474341,0.00980053,0.0401777,0.00203275,0.269838,0.0261339,0.0435804,734,1317,1.75965,1.72191
-483,-293,2.4527,-2.46692,0.0393291,0.00676788,0.0148592,0.0450907,0.00100636,0.369892,0.0297307,0.0449315,741,1317,2.45267,2.46693
-476,-293,3.23462,-2.96667,0,0,0,0,0,0,0,-1,748,1317,3.23462,2.96673
-469,-293,0,0,0,0,0,0,0,0,0,-1,755,1317,0,0
-462,-293,0,0,0,0,0,0,0,0,0,-1,762,1317,0,0
-455,-293,0,0,0,0,0,0,0,0,0,-1,769,1317,0,0
-448,-293,0,0,0,0,0,0,0,0,0,-1,776,1317,0,0
-441,-293,0,0,0,0,0,0,0,0,0,-1,783,1317,0,0
-434,-293,0,0,0,0,0,0,0,0,0,-1,790,1317,0,0
-427,-293,0,0,0,0,0,0,0,0,0,-1,797,1317,0,0
-420,-293,0,0,0,0,0,0,0,0,0,-1,804,1317,0,0
-413,-293,0,0,0,0,0,0,0,0,0,-1,811,1317,0,0
-406,-293,0,0,0,0,0,0,0,0,0,-1,818,1317,0,0
-399,-293,0,0,0,0,0,0,0,0,0,-1,825,1317,0,0
-392,-293,0,0,0,0,0,0,0,0,0,-1,832,1317,0,0
-385,-293,0,0,0,0,0,0,0,0,0,-1,839,1317,0,0
-378,-293,0,0,0,0,0,0,0,0,0,-1,846,1317,0,0
-371,-293,0,0,0,0,0,0,0,0,0,-1,853,1317,0,0
-364,-293,0,0,0,0,0,0,0,0,0,-1,860,1317,0,0
-357,-293,0,0,0,0,0,0,0,0,0,-1,867,1317,0,0
-350,-293,0,0,0,0,0,0,0,0,0,-1,874,1317,0,0
-343,-293,0,0,0,0,0,0,0,0,0,-1,881,1317,0,0
-336,-293,0,0,0,0,0,0,0,0,0,-1,888,1317,0,0
-329,-293,0,0,0,0,0,0,0,0,0,-1,895,1317,0,0
-322,-293,0,0,0,0,0,0,0,0,0,-1,902,1317,0,0
-315,-293,0,0,0,0,0,0,0,0,0,-1,909,1317,0,0
-308,-293,0,0,0,0,0,0,0,0,0,-1,916,1317,0,0
-301,-293,0,0,0,0,0,0,0,0,0,-1,923,1317,0,0
-294,-293,0,0,0,0,0,0,0,0,0,-1,930,1317,0,0
-287,-293,0,0,0,0,0,0,0,0,0,-1,937,1317,0,0
-280,-293,0,0,0,0,0,0,0,0,0,-1,944,1317,0,0
-273,-293,0,0,0,0,0,0,0,0,0,-1,951,1317,0,0
-266,-293,0,0,0,0,0,0,0,0,0,-1,958,1317,0,0
-259,-293,0,0,0,0,0,0,0,0,0,-1,965,1317,0,0
-252,-293,0,0,0,0,0,0,0,0,0,-1,972,1317,0,0
-245,-293,0,0,0,0,0,0,0,0,0,-1,979,1317,0,0
-238,-293,0,0,0,0,0,0,0,0,0,-1,986,1317,0,0
-231,-293,0,0,0,0,0,0,0,0,0,-1,993,1317,0,0
-224,-293,0,0,0,0,0,0,0,0,0,-1,1000,1317,0,0
-217,-293,0,0,0,0,0,0,0,0,0,-1,1007,1317,0,0
-210,-293,0,0,0,0,0,0,0,0,0,-1,1014,1317,0,0
-203,-293,0,0,0,0,0,0,0,0,0,-1,1021,1317,0,0
-196,-293,0,0,0,0,0,0,0,0,0,-1,1028,1317,0,0
-189,-293,0,0,0,0,0,0,0,0,0,-1,1035,1317,0,0
-182,-293,0,0,0,0,0,0,0,0,0,-1,1042,1317,0,0
-175,-293,0,0,0,0,0,0,0,0,0,-1,1049,1317,0,0
-168,-293,0,0,0,0,0,0,0,0,0,-1,1056,1317,0,0
-161,-293,0,0,0,0,0,0,0,0,0,-1,1063,1317,0,0
-154,-293,0,0,0,0,0,0,0,0,0,-1,1070,1317,0,0
-147,-293,0,0,0,0,0,0,0,0,0,-1,1077,1317,0,0
-140,-293,0,0,0,0,0,0,0,0,0,-1,1084,1317,0,0
-133,-293,0,0,0,0,0,0,0,0,0,-1,1091,1317,0,0
-126,-293,0,0,0,0,0,0,0,0,0,-1,1098,1317,0,0
-119,-293,0,0,0,0,0,0,0,0,0,-1,1105,1317,0,0
-112,-293,0,0,0,0,0,0,0,0,0,-1,1112,1317,0,0
-105,-293,0,0,0,0,0,0,0,0,0,-1,1119,1317,0,0
-98,-293,0,0,0,0,0,0,0,0,0,-1,1126,1317,0,0
-91,-293,0,0,0,0,0,0,0,0,0,-1,1133,1317,0,0
-84,-293,0,0,0,0,0,0,0,0,0,-1,1140,1317,0,0
-77,-293,0,0,0,0,0,0,0,0,0,-1,1147,1317,0,0
-70,-293,0,0,0,0,0,0,0,0,0,-1,1154,1317,0,0
-63,-293,0,0,0,0,0,0,0,0,0,-1,1161,1317,0,0
-56,-293,0,0,0,0,0,0,0,0,0,-1,1168,1317,0,0
-49,-293,0,0,0,0,0,0,0,0,0,-1,1175,1317,0,0
-42,-293,0,0,0,0,0,0,0,0,0,-1,1182,1317,0,0
-35,-293,0,0,0,0,0,0,0,0,0,-1,1189,1317,0,0
-28,-293,0,0,0,0,0,0,0,0,0,-1,1196,1317,0,0
-21,-293,0,0,0,0,0,0,0,0,0,-1,1203,1317,0,0
-14,-293,0,0,0,0,0,0,0,0,0,-1,1210,1317,0,0
-7,-293,0,0,0,0,0,0,0,0,0,-1,1217,1317,0,0
0,-293,0,0,0,0,0,0,0,0,0,-1,1224,1317,0,0
7,-293,0,0,0,0,0,0,0,0,0,-1,1231,1317,0,0
14,-293,0,0,0,0,0,0,0,0,0,-1,1238,1317,0,0
21,-293,0,0,0,0,0,0,0,0,0,-1,1245,1317,0,0
28,-293,0,0,0,0,0,0,0,0,0,-1,1252,1317,0,0
35,-293,0,0,0,0,0,0,0,0,0,-1,1259,1317,0,0
42,-293,0,0,0,0,0,0,0,0,0,-1,1266,1317,0,0
49,-293,0,0,0,0,0,0,0,0,0,-1,1273,1317,0,0
56,-293,0,0,0,0,0,0,0,0,0,-1,1280,1317,0,0
63,-293,0,0,0,0,0,0,0,0,0,-1,1287,1317,0,0
70,-293,0,0,0,0,0,0,0,0,0,-1,1294,1317,0,0
77,-293,0,0,0,0,0,0,0,0,0,-1,1301,1317,0,0
84,-293,0,0,0,0,0,0,0,0,0,-1,1308,1317,0,0
91,-293,0,0,0,0,0,0,0,0,0,-1,1315,1317,0,0
98,-293,0,0,0,0,0,0,0,0,0,-1,1322,1317,0,0
105,-293,0,0,0,0,0,0,0,0,0,-1,1329,1317,0,0
112,-293,0,0,0,0,0,0,0,0,0,-1,1336,1317,0,0
119,-293,0,0,0,0,0,0,0,0,0,-1,1343,1317,0,0
126,-293,0,0,0,0,0,0,0,0,0,-1,1350,1317,0,0
133,-293,0,0,0,0,0,0,0,0,0,-1,1357,1317,0,0
140,-293,0,0,0,0,0,0,0,0,0,-1,1364,1317,0,0
147,-293,0,0,0,0,0,0,0,0,0,-1,1371,1317,0,0
154,-293,0,0,0,0,0,0,0,0,0,-1,1378,1317,0,0
161,-293,0,0,0,0,0,0,0,0,0,-1,1385,1317,0,0
168,-293,0,0,0,0,0,0,0,0,0,-1,1392,1317,0,0
175,-293,0,0,0,0,0,0,0,0,0,-1,1399,1317,0,0
182,-293,0,0,0,0,0,0,0,0,0,-1,1406,1317,0,0
189,-293,0,0,0,0,0,0,0,0,0,-1,1413,1317,0,0
196,-293,0,0,0,0,0,0,0,0,0,-1,1420,1317,0,0
203,-293,0,0,0,0,0,0,0,0,0,-1,1427,1317,0,0
210,-293,0,0,0,0,0,0,0,0,0,-1,1434,1317,0,0
217,-293,0,0,0,0,0,0,0,0,0,-1,1441,1317,0,0
224,-293,0,0,0,0,0,0,0,0,0,-1,1448,1317,0,0
231,-293,0,0,0,0,0,0,0,0,0,-1,1455,1317,0,0
238,-293,0,0,0,0,0,0,0,0,0,-1,1462,1317,0,0
245,-293,0,0,0,0,0,0,0,0,0,-1,1469,1317,0,0
252,-293,0,0,0,0,0,0,0,0,0,-1,1476,1317,0,0
259,-293,0,0,0,0,0,0,0,0,0,-1,1483,1317,0,0
266,-293,0,0,0,0,0,0,0,0,0,-1,1490,1317,0,0
273,-293,0,0,0,0,0,0,0,0,0,-1,1497,1317,0,0
280,-293,0,0,0,0,0,0,0,0,0,-1,1504,1317,0,0
287,-293,0,0,0,0,0,0,0,0,0,-1,1511,1317,0,0
294,-293,0,0,0,0,0,0,0,0,0,-1,1518,1317,0,0
301,-293,0,0,0,0,0,0,0,0,0,-1,1525,1317,0,0
308,-293,0,0,0,0,0,0,0,0,0,-1,1532,1317,0,0
315,-293,0,0,0,0,0,0,0,0,0,-1,1539,1317,0,0
322,-293,0,0,0,0,0,0,0,0,0,-1,1546,1317,0,0
329,-293,0,0,0,0,0,0,0,0,0,-1,1553,1317,0,0
336,-293,0,0,0,0,0,0,0,0,0,-1,1560,1317,0,0
343,-293,0,0,0,0,0,0,0,0,0,-1,1567,1317,0,0
350,-293,0,0,0,0,0,0,0,0,0,-1,1574,1317,0,0
357,-293,0,0,0,0,0,0,0,0,0,-1,1581,1317,0,0
364,-293,0,0,0,0,0,0,0,0,0,-1,1588,1317,0,0
371,-293,0,0,0,0,0,0,0,0,0,-1,1595,1317,0,0
378,-293,0,0,0,0,0,0,0,0,0,-1,1602,1317,0,0
385,-293,0,0,0,0,0,0,0,0,0,-1,1609,1317,0,0
392,-293,0,0,0,0,0,0,0,0,0,-1,1616,1317,0,0
399,-293,0,0,0,0,0,0,0,0,0,-1,1623,1317,0,0
406,-293,0,0,0,0,0,0,0,0,0,-1,1630,1317,0,0
413,-293,0,0,0,0,0,0,0,0,0,-1,1637,1317,0,0
420,-293,0,0,0,0,0,0,0,0,0,-1,1644,1317,0,0
427,-293,0,0,0,0,0,0,0,0,0,-1,1651,1317,0,0
434,-293,0,0,0,0,0,0,0,0,0,-1,1658,1317,0,0
441,-293,0,0,0,0,0,0,0,0,0,-1,1665,1317,0,0
448,-293,0,0,0,0,0,0,0,0,0,-1,1672,1317,0,0
455,-293,0,0,0,0,0,0,0,0,0,-1,1679,1317,0,0
462,-293,0,0,0,0,0,0,0,0,0,-1,1686,1317,0,0
469,-293,0,0,0,0,0,0,0,0,0,-1,1693,1317,0,0
476,-293,0,0,0,0,0,0,0,0,0,-1,1700,1317,0,0
483,-293,0,0,0,0,0,0,0,0,0,-1,1707,1317,0,0
490,-293,0,0,0,0,0,0,0,0,0,-1,1714,1317,0,0
497,-293,0,0,0,0,0,0,0,0,0,-1,1721,1317,0,0
504,-293,0,0,0,0,0,0,0,0,0,-1,1728,1317,0,0
511,-293,0,0,0,0,0,0,0,0,0,-1,1735,1317,0,0
518,-293,0,0,0,0,0,0,0,0,0,-1,1742,1317,0,0
525,-293,0,0,0,0,0,0,0,0,0,-1,1749,1317,0,0
532,-293,0,0,0,0,0,0,0,0,0,-1,1756,1317,0,0
539,-293,0,0,0,0,0,0,0,0,0,-1,1763,1317,0,0
546,-293,0,0,0,0,0,0,0,0,0,-1,1770,1317,0,0
553,-293,0,0,0,0,0,0,0,0,0,-1,1777,1317,0,0
560,-293,0,0,0,0,0,0,0,0,0,-1,1784,1317,0,0
567,-293,0,0,0,0,0,0,0,0,0,-1,1791,1317,0,0
574,-293,0,0,0,0,0,0,0,0,0,-1,1798,1317,0,0
581,-293,0,0,0,0,0,0,0,0,0,-1,1805,1317,0,0
588,-293,0,0,0,0,0,0,0,0,0,-1,1812,1317,0,0
595,-293,0.639404,-0.557373,0,0,0,0,0,0,0,-1,1819,1317,0.639432,0.557355
602,-293,1.922,-0.100342,0,0,0,0,0,0,0,-1,1826,1317,1.92197,0.100294
609,-293,2.67102,-0.423706,0,0,0,0,0,0,0,-1,1833,1317,2.67104,0.423737
616,-293,1.448,-0.692139,0,0,0,0,0,0,0,-1,1840,1317,1.44801,0.692152
623,-293,1.21106,-0.928711,-0.00538389,0.00576633,0.00993044,0.0115796,-0.0111972,1.04118,0.0131508,0.0494624,1847,1317,1.21102,0.928708
630,-293,0.814209,-1.15234,-0.00653658,0.00941787,0.00871064,0.0132521,-0.0103708,1.15614,0.0136725,0.0430772,1854,1317,0.814164,1.15236
637,-293,0.473755,-1.29565,-0.00694714,0.0125938,0.00714526,0.0149278,-0.00928108,1.25508,0.0141032,0.0439651,1861,1317,0.473733,1.29561
644,-293,1.53247,1.22583,-0.00697872,0.0145026,0.0052279,0.0157074,-0.00818347,1.34431,0.0140195,0.0470059,1868,1317,1.53253,-1.22584
651,-293,0.312378,-0.346191,-0.00705411,0.0148906,0.00325346,0.0153628,-0.0075263,1.42667,0.0134707,0.0408214,1875,1317,0.312389,0.346251
658,-293,-0.157471,-0.147095,-0.00751314,0.0140753,0.00154492,0.0141853,-0.00762314,1.49972,0.0127797,0.039449,1882,1317,-0.157462,0.147142
665,-293,-0.156372,-0.0742188,-0.00638984,0.011965,0.000224306,0.0119678,-0.00639258,1.55858,0.010762,0.0297685,1889,1317,-0.156313,0.0742657
672,-293,-0.085083,-0.0480957,-0.00482437,0.00959437,-0.000653386,0.00962392,-0.00485391,-1.5256,0.00850866,0.014158,1896,1317,-0.0850251,0.0480495
679,-293,-0.0853271,-0.065918,-0.00347624,0.00747452,-0.00120849,0.0076063,-0.00360802,-1.46218,0.00661034,0.0102448,1903,1317,-0.0853434,0.0659433
686,-293,-0.0881348,-0.0651855,-0.00216748,0.00561899,-0.00168884,0.00596951,-0.002518,-1.36615,0.00503351,0.0120382,1910,1317,-0.0881626,0.0652093
693,-293,-0.0703125,-0.0595703,-0.00116136,0.00275419,-0.00214261,0.00369877,-0.00210593,-1.15557,0.00339314,0.0104812,1917,1317,-0.0703336,0.0596294
700,-293,-0.0631104,-0.0604248,-4.56306e-05,0.000566747,-0.00189959,0.00218467,-0.00166355,-0.865304,0.00222855,0.0100612,1924,1317,-0.0630882,0.0604321
707,-293,-0.0562744,-0.0509033,0.0011536,-0.000342041,-0.00120719,0.00182583,-0.00101427,-0.508092,0.0016619,0.0109467,1931,1317,-0.0563225,0.0509444
714,-293,-0.0802002,-0.0411377,0.00198112,4.88212e-05,-0.00124057,0.00258738,-0.00055743,-0.454558,0.00193764,0.00747865,1938,1317,-0.0802479,0.0411439
721,-293,-0.086792,-0.0546875,0.00254564,0.000321318,-0.00148123,0.00328576,-0.0004188,-0.46338,0.00234262,0.00807277,1945,1317,-0.0867396,0.0547475
728,-293,-0.0826416,-0.0825195,0.0025243,0.000686823,-0.00234328,0.00412251,-0.000911386,-0.598571,0.00309716,0.0107075,1952,1317,-0.082664,0.0825234
735,-293,-0.0766602,-0.0805664,0.00196171,0.00138414,-0.003552,0.00523664,-0.00189079,-0.744836,0.00426348,0.0128938,1959,1317,-0.0766359,0.0806267
742,-293,-0.0169678,-0.138062,0.000992542,0.00247153,-0.00502122,0.00680742,-0.00334334,-0.85851,0.00597321,0.0211587,1966,1317,-0.0170068,0.138051
749,-293,0.0389404,-0.285767,-0.00101439,0.00392947,-0.00707538,0.0089523,-0.00603722,-0.953455,0.00870858,0.0340003,1973,1317,0.0389772,0.285787
756,-293,0.0424805,-0.308105,-0.00458385,0.00570674,-0.0099623,0.011774,-0.0106511,-1.02377,0.0129526,0.0394816,1980,1317,0.0425376,0.308083
763,-293,0.14502,-0.0754395,0,0,0,0,0,0,0,-1,1987,1317,0.145022,0.0754301
770,-293,0.228394,-0.588379,0,0,0,0,0,0,0,-1,1994,1317,0.228352,0.58834
777,-293,0,0,0,0,0,0,0,0,0,-1,2001,1317,0,0
784,-293,0,0,0,0,0,0,0,0,0,-1,2008,1317,0,0
791,-293,0,0,0,0,0,0,0,0,0,-1,2015,1317,0,0
798,-293,0,0,0,0,0,0,0,0,0,-1,2022,1317,0,0
805,-293,0,0,0,0,0,0,0,0,0,-1,2029,1317,0,0
812,-293,0,0,0,0,0,0,0,0,0,-1,2036,1317,0,0
-700,-300,0,0,0,0,0,0,0,0,0,-1,524,1324,0,0
-693,-300,0,0,0,0,0,0,0,0,0,-1,531,1324,0,0
-686,-300,0,0,0,0,0,0,0,0,0,-1,538,1324,0,0
-679,-300,0,0,0,0,0,0,0,0,0,-1,545,1324,0,0
-672,-300,0,0,0,0,0,0,0,0,0,-1,552,1324,0,0
-665,-300,0,0,0,0,0,0,0,0,0,-1,559,1324,0,0
-658,-300,0,0,0,0,0,0,0,0,0,-1,566,1324,0,0
-651,-300,-0.446411,2.60718,0,0,0,0,0,0,0,-1,573,1324,-0.446404,-2.60722
-644,-300,-0.266663,0.694214,0,0,0,0,0,0,0,-1,580,1324,-0.266688,-0.694157
-637,-300,-0.301147,0.663818,0.0293668,0.0387996,0.0120961,0.0470663,0.0211001,0.971288,0.0272221,0.0423997,587,1324,-0.301149,-0.663784
-630,-300,-0.243469,0.668213,0.0236058,0.0253274,0.00439894,0.028949,0.0199843,0.88202,0.0171126,0.0423046,594,1324,-0.24349,-0.668213
-623,-300,-0.286682,0.882568,0.0189529,0.0164492,-0.000132303,0.0189599,0.0164422,-0.0526463,0.0118899,0.0402109,601,1324,-0.286666,-0.882606
-616,-300,0.123047,0.0679932,0.0150513,0.0106158,-0.00252147,0.0161916,0.00947556,-0.424701,0.00939335,0.0425816,608,1324,0.123038,-0.0680142
-609,-300,0.310181,-0.231079,0.0117052,0.0068763,-0.00351309,0.0135535,0.00502796,-0.484331,0.00791151,0.041443,615,1324,0.310179,0.231116
-602,-300,-0.0754395,-0.0262451,0.00848434,0.002904,-0.00441377,0.0109159,0.00047244,-0.503536,0.00712501,0.0283725,622,1324,-0.0754329,0.0262461
-595,-300,-0.0953369,-0.0374756,0.005978,0.00118328,-0.0042186,0.00843285,-0.00127156,-0.527012,0.00609016,0.0148645,629,1324,-0.0953347,0.0375106
-588,-300,-0.0862427,-0.0592041,0.00422478,0.000683816,-0.00331101,0.00620895,-0.00130035,-0.539878,0.00463397,0.0180289,636,1324,-0.0862504,0.0591661
-581,-300,-0.078186,-0.0616455,0.00321491,0.000813335,-0.00281839,0.00507766,-0.00104941,-0.584017,0.00378373,0.0181889,643,1324,-0.0782154,0.0616607
-574,-300,-0.100464,-0.0408936,0.00260225,0.000207952,-0.00282412,0.00447248,-0.00166228,-0.584929,0.00366368,0.0152478,650,1324,-0.100481,0.0409001
-567,-300,-0.0914307,-0.0170898,0.00226256,-0.000855262,-0.0028538,0.00395548,-0.00254818,-0.535415,0.00378408,0.0158471,657,1324,-0.0914506,0.0170769
-560,-300,-0.0730591,-0.0308838,0.00340696,-0.0018013,-0.00324565,0.00496404,-0.00335838,-0.447314,0.00483467,0.0146948,664,1324,-0.0730521,0.030854
-553,-300,-0.0493164,-0.0506592,0.00534858,-0.00217253,-0.00435153,0.00733934,-0.00416329,-0.429061,0.0067249,0.00995291,671,1324,-0.0493072,0.0506163
-546,-300,-0.0668945,-0.0463867,0.00786839,-0.00238489,-0.00482047,0.00977875,-0.00429525,-0.377314,0.00832867,0.00831852,678,1324,-0.0668999,0.0463643
-539,-300,-0.0742188,-0.0395508,0.0109663,-0.00343464,-0.00455231,0.0122846,-0.00475299,-0.281889,0.010152,0.0104169,685,1324,-0.0742445,0.0394983
-532,-300,-0.0419312,-0.110474,0.0151287,-0.00300621,-0.00443197,0.0161539,-0.00403138,-0.227314,0.0123346,0.0216737,692,1324,-0.0419105,0.110494
-525,-300,0.117798,-0.148193,0.018807,-0.00309973,-0.00340749,0.0193248,-0.00361751,-0.1508,0.014243,0.0390675,699,1324,0.117771,0.14816
-518,-300,0.25293,-0.186157,0,0,0,0,0,0,0,-1,706,1324,0.252946,0.186188
-511,-300,0.972473,-0.406616,0,0,0,0,0,0,0,-1,713,1324,0.972466,0.406673
-504,-300,1.23279,-0.506348,0,0,0,0,0,0,0,-1,720,1324,1.23276,0.506386
-497,-300,2.06665,-3.06641,0.0335571,-0.00372418,0.00898522,0.0356096,-0.00577672,0.224581,0.0258811,0.0454548,727,1324,2.06668,3.06645
-490,-300,1.97137,-1.59778,0.0364317,-0.00438443,0.0143411,0.0409666,-0.0089194,0.306273,0.0307189,0.0429969,734,1324,1.97137,1.59782
-483,-300,2.65662,-2.37585,0,0,0,0,0,0,0,-1,741,1324,2.65665,2.37588
-476,-300,1.89276,-0.931152,0,0,0,0,0,0,0,-1,748,1324,1.89276,0.931188
-469,-300,0,0,0,0,0,0,0,0,0,-1,755,1324,0,0
-462,-300,0,0,0,0,0,0,0,0,0,-1,762,1324,0,0
-455,-300,0,0,0,0,0,0,0,0,0,-1,769,1324,0,0
-448,-300,0,0,0,0,0,0,0,0,0,-1,776,1324,0,0
-441,-300,0,0,0,0,0,0,0,0,0,-1,783,1324,0,0
-434,-300,0,0,0,0,0,0,0,0,0,-1,790,1324,0,0
-427,-300,0,0,0,0,0,0,0,0,0,-1,797,1324,0,0
-420,-300,0,0,0,0,0,0,0,0,0,-1,804,1324,0,0
-413,-300,0,0,0,0,0,0,0,0,0,-1,811,1324,0,0
-406,-300,0,0,0,0,0,0,0,0,0,-1,818,1324,0,0
-399,-300,0,0,0,0,0,0,0,0,0,-1,825,1324,0,0
-392,-300,0,0,0,0,0,0,0,0,0,-1,832,1324,0,0
-385,-300,0,0,0,0,0,0,0,0,0,-1,839,1324,0,0
-378,-300,0,0,0,0,0,0,0,0,0,-1,846,1324,0,0
-371,-300,0,0,0,0,0,0,0,0,0,-1,853,1324,0,0
-364,-300,0,0,0,0,0,0,0,0,0,-1,860,1324,0,0
-357,-300,0,0,0,0,0,0,0,0,0,-1,867,1324,0,0
-350,-300,0,0,0,0,0,0,0,0,0,-1,874,1324,0,0
-343,-300,0,0,0,0,0,0,0,0,0,-1,881,1324,0,0
-336,-300,0,0,0,0,0,0,0,0,0,-1,888,1324,0,0
-329,-300,0,0,0,0,0,0,0,0,0,-1,895,1324,0,0
-322,-300,0,0,0,0,0,0,0,0,0,-1,902,1324,0,0
-315,-300,0,0,0,0,0,0,0,0,0,-1,909,1324,0,0
-308,-300,0,0,0,0,0,0,0,0,0,-1,916,1324,0,0
-301,-300,0,0,0,0,0,0,0,0,0,-1,923,1324,0,0
-294,-300,0,0,0,0,0,0,0,0,0,-1,930,1324,0,0
-287,-300,0,0,0,0,0,0,0,0,0,-1,937,1324,0,0
-280,-300,0,0,0,0,0,0,0,0,0,-1,944,1324,0,0
-273,-300,0,0,0,0,0,0,0,0,0,-1,951,1324,0,0
-266,-300,0,0,0,0,0,0,0,0,0,-1,958,1324,0,0
-259,-300,0,0,0,0,0,0,0,0,0,-1,965,1324,0,0
-252,-300,0,0,0,0,0,0,0,0,0,-1,972,1324,0,0
-245,-300,0,0,0,0,0,0,0,0,0,-1,979,1324,0,0
-238,-300,0,0,0,0,0,0,0,0,0,-1,986,1324,0,0
-231,-300,0,0,0,0,0,0,0,0,0,-1,993,1324,0,0
-224,-300,0,0,0,0,0,0,0,0,0,-1,1000,1324,0,0
-217,-300,0,0,0,0,0,0,0,0,0,-1,1007,1324,0,0
-210,-300,0,0,0,0,0,0,0,0,0,-1,1014,1324,0,0
-203,-300,0,0,0,0,0,0,0,0,0,-1,1021,1324,0,0
-196,-300,0,0,0,0,0,0,0,0,0,-1,1028,1324,0,0
-189,-300,0,0,0,0,0,0,0,0,0,-1,1035,1324,0,0
-182,-300,0,0,0,0,0,0,0,0,0,-1,1042,1324,0,0
-175,-300,0,0,0,0,0,0,0,0,0,-1,1049,1324,0,0
-168,-300,0,0,0,0,0,0,0,0,0,-1,1056,1324,0,0
-161,-300,0,0,0,0,0,0,0,0,0,-1,1063,1324,0,0
-154,-300,0,0,0,0,0,0,0,0,0,-1,1070,1324,0,0
-147,-300,0,0,0,0,0,0,0,0,0,-1,1077,1324,0,0
-140,-300,0,0,0,0,0,0,0,0,0,-1,1084,1324,0,0
-133,-300,0,0,0,0,0,0,0,0,0,-1,1091,1324,0,0
-126,-300,0,0,0,0,0,0,0,0,0,-1,1098,1324,0,0
-119,-300,0,0,0,0,0,0,0,0,0,-1,1105,1324,0,0
-112,-300,0,0,0,0,0,0,0,0,0,-1,1112,1324,0,0
-105,-300,0,0,0,0,0,0,0,0,0,-1,1119,1324,0,0
-98,-300,0,0,0,0,0,0,0,0,0,-1,1126,1324,0,0
-91,-300,0,0,0,0,0,0,0,0,0,-1,1133,1324,0,0
-84,-300,0,0,0,0,0,0,0,0,0,-1,1140,1324,0,0
-77,-300,0,0,0,0,0,0,0,0,0,-1,1147,1324,0,0
-70,-300,0,0,0,0,0,0,0,0,0,-1,1154,1324,0,0
-63,-300,0,0,0,0,0,0,0,0,0,-1,1161,1324,0,0
-56,-300,0,0,0,0,0,0,0,0,0,-1,1168,1324,0,0
-49,-300,0,0,0,0,0,0,0,0,0,-1,1175,1324,0,0
-42,-300,0,0,0,0,0,0,0,0,0,-1,1182,1324,0,0
-35,-300,0,0,0,0,0,0,0,0,0,-1,1189,1324,0,0
-28,-300,0,0,0,0,0,0,0,0,0,-1,1196,1324,0,0
-21,-300,0,0,0,0,0,0,0,0,0,-1,1203,1324,0,0
-14,-300,0,0,0,0,0,0,0,0,0,-1,1210,1324,0,0
-7,-300,0,0,0,0,0,0,0,0,0,-1,1217,1324,0,0
0,-300,0,0,0,0,0,0,0,0,0,-1,1224,1324,0,0
7,-300,0,0,0,0,0,0,0,0,0,-1,1231,1324,0,0
14,-300,0,0,0,0,0,0,0,0,0,-1,1238,1324,0,0
21,-300,0,0,0,0,0,0,0,0,0,-1,1245,1324,0,0
28,-300,0,0,0,0,0,0,0,0,0,-1,1252,1324,0,0
35,-300,0,0,0,0,0,0,0,0,0,-1,1259,1324,0,0
42,-300,0,0,0,0,0,0,0,0,0,-1,1266,1324,0,0
49,-300,0,0,0,0,0,0,0,0,0,-1,1273,1324,0,0
56,-300,0,0,0,0,0,0,0,0,0,-1,1280,1324,0,0
63,-300,0,0,0,0,0,0,0,0,0,-1,1287,1324,0,0
70,-300,0,0,0,0,0,0,0,0,0,-1,1294,1324,0,0
77,-300,0,0,0,0,0,0,0,0,0,-1,1301,1324,0,0
84,-300,0,0,0,0,0,0,0,0,0,-1,1308,1324,0,0
91,-300,0,0,0,0,0,0,0,0,0,-1,1315,1324,0,0
98,-300,0,0,0,0,0,0,0,0,0,-1,1322,1324,0,0
105,-300,0,0,0,0,0,0,0,0,0,-1,1329,1324,0,0
112,-300,0,0,0,0,0,0,0,0,0,-1,1336,1324,0,0
119,-300,0,0,0,0,0,0,0,0,0,-1,1343,1324,0,0
126,-300,0,0,0,0,0,0,0,0,0,-1,1350,1324,0,0
133,-300,0,0,0,0,0,0,0,0,0,-1,1357,1324,0,0
140,-300,0,0,0,0,0,0,0,0,0,-1,1364,1324,0,0
147,-300,0,0,0,0,0,0,0,0,0,-1,1371,1324,0,0
154,-300,0,0,0,0,0,0,0,0,0,-1,1378,1324,0,0
161,-300,0,0,0,0,0,0,0,0,0,-1,1385,1324,0,0
168,-300,0,0,0,0,0,0,0,0,0,-1,1392,1324,0,0
175,-300,0,0,0,0,0,0,0,0,0,-1,1399,1324,0,0
182,-300,0,0,0,0,0,0,0,0,0,-1,1406,1324,0,0
189,-300,0,0,0,0,0,0,0,0,0,-1,1413,1324,0,0
196,-300,0,0,0,0,0,0,0,0,0,-1,1420,1324,0,0
203,-300,0,0,0,0,0,0,0,0,0,-1,1427,1324,0,0
210,-300,0,0,0,0,0,0,0,0,0,-1,1434,1324,0,0
217,-300,0,0,0,0,0,0,0,0,0,-1,1441,1324,0,0
224,-300,0,0,0,0,0,0,0,0,0,-1,1448,1324,0,0
231,-300,0,0,0,0,0,0,0,0,0,-1,1455,1324,0,0
238,-300,0,0,0,0,0,0,0,0,0,-1,1462,1324,0,0
245,-300,0,0,0,0,0,0,0,0,0,-1,1469,1324,0,0
252,-300,0,0,0,0,0,0,0,0,0,-1,1476,1324,0,0
259,-300,0,0,0,0,0,0,0,0,0,-1,1483,1324,0,0
266,-300,0,0,0,0,0,0,0,0,0,-1,1490,1324,0,0
273,-300,0,0,0,0,0,0,0,0,0,-1,1497,1324,0,0
280,-300,0,0,0,0,0,0,0,0,0,-1,1504,1324,0,0
287,-300,0,0,0,0,0,0,0,0,0,-1,1511,1324,0,0
294,-300,0,0,0,0,0,0,0,0,0,-1,1518,1324,0,0
301,-300,0,0,0,0,0,0,0,0,0,-1,1525,1324,0,0
308,-300,0,0,0,0,0,0,0,0,0,-1,1532,1324,0,0
315,-300,0,0,0,0,0,0,0,0,0,-1,1539,1324,0,0
322,-300,0,0,0,0,0,0,0,0,0,-1,1546,1324,0,0
329,-300,0,0,0,0,0,0,0,0,0,-1,1553,1324,0,0
336,-300,0,0,0,0,0,0,0,0,0,-1,1560,1324,0,0
343,-300,0,0,0,0,0,0,0,0,0,-1,1567,1324,0,0
350,-300,0,0,0,0,0,0,0,0,0,-1,1574,1324,0,0
357,-300,0,0,0,0,0,0,0,0,0,-1,1581,1324,0,0
364,-300,0,0,0,0,0,0,0,0,0,-1,1588,1324,0,0
371,-300,0,0,0,0,0,0,0,0,0,-1,1595,1324,0,0
378,-300,0,0,0,0,0,0,0,0,0,-1,1602,1324,0,0
385,-300,0,0,0,0,0,0,0,0,0,-1,1609,1324,0,0
392,-300,0,0,0,0,0,0,0,0,0,-1,1616,1324,0,0
399,-300,0,0,0,0,0,0,0,0,0,-1,1623,1324,0,0
406,-300,0,0,0,0,0,0,0,0,0,-1,1630,1324,0,0
413,-300,0,0,0,0,0,0,0,0,0,-1,1637,1324,0,0
420,-300,0,0,0,0,0,0,0,0,0,-1,1644,1324,0,0
427,-300,0,0,0,0,0,0,0,0,0,-1,1651,1324,0,0
434,-300,0,0,0,0,0,0,0,0,0,-1,1658,1324,0,0
441,-300,0,0,0,0,0,0,0,0,0,-1,1665,1324,0,0
448,-300,0,0,0,0,0,0,0,0,0,-1,1672,1324,0,0
455,-300,0,0,0,0,0,0,0,0,0,-1,1679,1324,0,0
462,-300,0,0,0,0,0,0,0,0,0,-1,1686,1324,0,0
469,-300,0,0,0,0,0,0,0,0,0,-1,1693,1324,0,0
476,-300,0,0,0,0,0,0,0,0,0,-1,1700,1324,0,0
483,-300,0,0,0,0,0,0,0,0,0,-1,1707,1324,0,0
490,-300,0,0,0,0,0,0,0,0,0,-1,1714,1324,0,0
497,-300,0,0,0,0,0,0,0,0,0,-1,1721,1324,0,0
504,-300,0,0,0,0,0,0,0,0,0,-1,1728,1324,0,0
511,-300,0,0,0,0,0,0,0,0,0,-1,1735,1324,0,0
518,-300,0,0,0,0,0,0,0,0,0,-1,1742,1324,0,0
525,-300,0,0,0,0,0,0,0,0,0,-1,1749,1324,0,0
532,-300,0,0,0,0,0,0,0,0,0,-1,1756,1324,0,0
539,-300,0,0,0,0,0,0,0,0,0,-1,1763,1324,0,0
546,-300,0,0,0,0,0,0,0,0,0,-1,1770,1324,0,0
553,-300,0,0,0,0,0,0,0,0,0,-1,1777,1324,0,0
560,-300,0,0,0,0,0,0,0,0,0,-1,1784,1324,0,0
567,-300,0,0,0,0,0,0,0,0,0,-1,1791,1324,0,0
574,-300,0,0,0,0,0,0,0,0,0,-1,1798,1324,0,0
581,-300,0,0,0,0,0,0,0,0,0,-1,1805,1324,0,0
588,-300,0.0168457,-0.441406,0,0,0,0,0,0,0,-1,1812,1324,0.0169036,0.441346
595,-300,2.04187,-0.748169,0,0,0,0,0,0,0,-1,1819,1324,2.04183,0.748158
602,-300,2.77332,-0.218628,-0.00200283,-0.00867655,0.0100408,0.00524105,-0.0159204,0.624974,0.0127256,0.0456823,1826,1324,2.77331,0.218578
609,-300,3.5387,0.337769,-0.00347432,-0.00446504,0.0107986,0.00684025,-0.0147796,0.762478,0.0127597,0.0480398,1833,1324,3.53864,-0.337767
616,-300,4.40625,0.793579,0,0,0,0,0,0,0,-1,1840,1324,4.40622,-0.793555
623,-300,0.940308,-0.60791,0,0,0,0,0,0,0,-1,1847,1324,0.940248,0.60794
630,-300,0.728149,-0.50647,-0.0068198,0.007371,0.00856167,0.0113953,-0.0108441,1.13141,0.0128412,0.0443238,1854,1324,0.728167,0.506484
637,-300,0.636108,-0.638428,-0.00686021,0.0105287,0.0070556,0.0130313,-0.00936286,1.22994,0.012987,0.0455806,1861,1324,0.636102,0.638407
644,-300,0.685303,-0.561035,-0.00662097,0.0127897,0.00522212,0.0141054,-0.00793671,1.32398,0.0128911,0.0474916,1868,1324,0.685267,0.561013
651,-300,0.280029,0.0678711,0,0,0,0,0,0,0,-1,1875,1324,0.279975,-0.0678486
658,-300,0.0871582,0.0057373,-0.00721439,0.0132606,0.0015981,0.0133846,-0.00733837,1.49337,0.0121329,0.0374616,1882,1324,0.0872002,-0.00571935
665,-300,-0.0874023,-0.0910645,-0.00601801,0.0113646,0.000270798,0.0113688,-0.00602223,1.55522,0.0101977,0.0219555,1889,1324,-0.0873647,0.0910082
672,-300,-0.0822754,-0.0524902,-0.00440226,0.00917932,-0.000564982,0.00920278,-0.00442572,-1.52929,0.00802793,0.00905595,1896,1324,-0.0823256,0.0525482
679,-300,-0.0936279,-0.057251,-0.00308214,0.00718665,-0.00109893,0.00730293,-0.00319843,-1.46537,0.00621542,0.00945699,1903,1324,-0.0936639,0.0572658
686,-300,-0.0748291,-0.0609131,-0.00177807,0.0053664,-0.00152973,0.00568016,-0.00209182,-1.3685,0.00464384,0.00990069,1910,1324,-0.0748577,0.0608784
693,-300,-0.072998,-0.0592041,-0.000736342,0.00268617,-0.00193182,0.00355567,-0.00160585,-1.14786,0.00305006,0.00960963,1917,1324,-0.0729968,0.0591623
700,-300,-0.0704346,-0.0675049,0.000456544,0.000562038,-0.00176696,0.00227704,-0.00125846,-0.80032,0.00206926,0.0113603,1924,1324,-0.0704683,0.0674718
707,-300,-0.0675049,-0.0739746,0.00167916,-0.000437077,-0.00116244,0.00219294,-0.000950858,-0.41617,0.0018617,0.00869207,1931,1324,-0.0674562,0.0739607
714,-300,-0.0767822,-0.0541992,0.00254923,-0.000315584,-0.00119557,0.00298262,-0.000748971,-0.34776,0.00227946,0.0102202,1938,1324,-0.0767685,0.0541861
721,-300,-0.0725098,-0.0549316,0.0032958,-0.00021501,-0.00145391,0.00381971,-0.000738923,-0.345864,0.00282518,0.0109869,1945,1324,-0.0725259,0.0548773
728,-300,-0.0650635,-0.0699463,0.00363544,1.75109e-05,-0.00222034,0.00469044,-0.00103748,-0.44357,0.00352406,0.00871414,1952,1324,-0.0650301,0.0699007
735,-300,-0.0440674,-0.0737305,0.00358108,0.000523299,-0.00328266,0.00567343,-0.00156905,-0.567462,0.00439957,0.0122169,1959,1324,-0.0440389,0.0737877
742,-300,0.105591,-0.0623779,0.00312692,0.0013781,-0.00456413,0.00689964,-0.00239462,-0.690753,0.00557221,0.0247722,1966,1324,0.105597,0.0623372
749,-300,0.0999756,-0.149048,0.00176188,0.00263823,-0.00634093,0.00855611,-0.004156,-0.819894,0.00748446,0.0364306,1973,1324,0.0999443,0.149036
756,-300,0.0189209,-0.299805,-0.00104683,0.00433336,-0.00884677,0.01089,-0.00760347,-0.932994,0.0107333,0.0418712,1980,1324,0.0189631,0.299851
763,-300,-0.0522461,-0.325806,-0.00617631,0.00640502,-0.0124455,0.0140593,-0.0138306,-1.0194,0.0161024,0.0432694,1987,1324,-0.0522958,0.325769
770,-300,0.313599,-0.426758,0,0,0,0,0,0,0,-1,1994,1324,0.313633,0.426799
777,-300,0,0,0,0,0,0,0,0,0,-1,2001,1324,0,0
784,-300,0,0,0,0,0,0,0,0,0,-1,2008,1324,0,0
791,-300,0,0,0,0,0,0,0,0,0,-1,2015,1324,0,0
798,-300,0,0,0,0,0,0,0,0,0,-1,2022,1324,0,0
805,-300,0,0,0,0,0,0,0,0,0,-1,2029,1324,0,0
812,-300,0,0,0,0,0,0,0,0,0,-1,2036,1324,0,0
-700,-307,0,0,0,0,0,0,0,0,0,-1,524,1331,0,0
-693,-307,0,0,0,0,0,0,0,0,0,-1,531,1331,0,0
-686,-307,0,0,0,0,0,0,0,0,0,-1,538,1331,0,0
-679,-307,0,0,0,0,0,0,0,0,0,-1,545,1331,0,0
-672,-307,0,0,0,0,0,0,0,0,0,-1,552,1331,0,0
-665,-307,0,0,0,0,0,0,0,0,0,-1,559,1331,0,0
-658,-307,0,0,0,0,0,0,0,0,0,-1,566,1331,0,0
-651,-307,-0.236389,3.1416,0,0,0,0,0,0,0,-1,573,1331,-0.236408,-3.14165
-644,-307,-0.550964,2.62646,0,0,0,0,0,0,0,-1,580,1331,-0.550976,-2.62643
-637,-307,-0.803406,1.46802,0,0,0,0,0,0,0,-1,587,1331,-0.803389,-1.468
-630,-307,-0.638123,1.51111,0.0269244,0.0256965,0.000604454,0.027172,0.0254489,0.388799,0.0175685,0.0431313,594,1331,-0.638098,-1.51111
-623,-307,-0.702087,1.46497,0.0217875,0.0166442,-0.00324082,0.023353,0.0150786,-0.450009,0.0136723,0.0420613,601,1331,-0.702058,-1.46491
-616,-307,-0.293518,1.27966,0.0173627,0.0107131,-0.00492781,0.0199825,0.00809338,-0.488626,0.0116061,0.0433753,608,1331,-0.293506,-1.27969
-609,-307,0.213318,-0.218262,0,0,0,0,0,0,0,-1,615,1331,0.213342,0.218242
-602,-307,0.0580444,-0.148315,0.00993197,0.00313553,-0.0055915,0.0130769,-9.39937e-06,-0.51235,0.00872107,0.0290291,622,1331,0.0580297,0.148347
-595,-307,-0.0681763,-0.0614014,0.0070767,0.00137618,-0.00496997,0.00995571,-0.00150284,-0.525046,0.00719063,0.012275,629,1331,-0.0682007,0.0613706
-588,-307,-0.074707,-0.0563965,0.00495372,0.000765602,-0.00381031,0.00720749,-0.00148816,-0.534139,0.00537022,0.0153888,636,1331,-0.0747108,0.0564282
-581,-307,-0.0678101,-0.0537109,0.00353926,0.00071755,-0.00297319,0.00541935,-0.00116255,-0.563867,0.00405633,0.0135754,643,1331,-0.067814,0.0536629
-574,-307,-0.0841675,-0.0529785,0.00259754,-4.22813e-06,-0.00266987,0.00426659,-0.00167328,-0.558702,0.00353666,0.0123352,650,1331,-0.0841891,0.0529616
-567,-307,-0.074585,-0.0325928,0.00186235,-0.00114029,-0.00232056,0.00312489,-0.00240284,-0.498279,0.0032005,0.0128614,657,1331,-0.0745699,0.0325603
-560,-307,-0.0532227,-0.022583,0.00255013,-0.00203012,-0.00246694,0.00362609,-0.00310607,-0.411275,0.00389068,0.0131698,664,1331,-0.0532445,0.0226404
-553,-307,-0.0673828,-0.0456543,0.00419554,-0.00235514,-0.0033093,0.00557631,-0.00373591,-0.395278,0.0054113,0.0098197,671,1331,-0.0673802,0.0456925
-546,-307,-0.0748291,-0.0584717,0.00653843,-0.00279265,-0.00344783,0.00767417,-0.00392839,-0.318212,0.00681411,0.00915428,678,1331,-0.0748094,0.0584389
-539,-307,-0.0581055,-0.0462646,0.00941057,-0.00410984,-0.00284705,0.00998563,-0.0046849,-0.199302,0.00865237,0.0105098,685,1331,-0.0580791,0.0462077
-532,-307,-0.0446167,-0.0678711,0.0132083,-0.00405991,-0.00218002,0.0134793,-0.00433088,-0.12366,0.0107254,0.0175674,692,1331,-0.0446442,0.0678634
-525,-307,-0.00762939,-0.0651855,0.0166319,-0.00452822,-0.000664796,0.0166528,-0.00454909,-0.0313761,0.0128887,0.0364151,699,1331,-0.00765023,0.0652321
-518,-307,0.0442505,-0.060791,0,0,0,0,0,0,0,-1,706,1331,0.0442805,0.0608113
-511,-307,0.860901,-0.394775,0.0239384,-0.00555213,0.0046152,0.0246438,-0.00625753,0.151668,0.0188642,0.0398912,713,1331,0.860922,0.394736
-504,-307,1.90051,-3.19287,0,0,0,0,0,0,0,-1,720,1331,1.9005,3.19283
-497,-307,2.23804,-2.88879,0,0,0,0,0,0,0,-1,727,1331,2.23803,2.88881
-490,-307,2.65656,-2.39636,0,0,0,0,0,0,0,-1,734,1331,2.65654,2.39641
-483,-307,3.92804,-0.985229,0,0,0,0,0,0,0,-1,741,1331,3.92804,0.985284
-476,-307,1.80194,-0.748169,0,0,0,0,0,0,0,-1,748,1331,1.80197,0.748115
-469,-307,2.08179,-0.77771,0,0,0,0,0,0,0,-1,755,1331,2.08177,0.777723
-462,-307,0,0,0,0,0,0,0,0,0,-1,762,1331,0,0
-455,-307,0,0,0,0,0,0,0,0,0,-1,769,1331,0,0
-448,-307,0,0,0,0,0,0,0,0,0,-1,776,1331,0,0
-441,-307,0,0,0,0,0,0,0,0,0,-1,783,1331,0,0
-434,-307,0,0,0,0,0,0,0,0,0,-1,790,1331,0,0
-427,-307,0,0,0,0,0,0,0,0,0,-1,797,1331,0,0
-420,-307,0,0,0,0,0,0,0,0,0,-1,804,1331,0,0
-413,-307,0,0,0,0,0,0,0,0,0,-1,811,1331,0,0
-406,-307,0,0,0,0,0,0,0,0,0,-1,818,1331,0,0
-399,-307,0,0,0,0,0,0,0,0,0,-1,825,1331,0,0
-392,-307,0,0,0,0,0,0,0,0,0,-1,832,1331,0,0
-385,-307,0,0,0,0,0,0,0,0,0,-1,839,1331,0,0
-378,-307,0,0,0,0,0,0,0,0,0,-1,846,1331,0,0
-371,-307,0,0,0,0,0,0,0,0,0,-1,853,1331,0,0
-364,-307,0,0,0,0,0,0,0,0,0,-1,860,1331,0,0
-357,-307,0,0,0,0,0,0,0,0,0,-1,867,1331,0,0
-350,-307,0,0,0,0,0,0,0,0,0,-1,874,1331,0,0
-343,-307,0,0,0,0,0,0,0,0,0,-1,881,1331,0,0
-336,-307,0,0,0,0,0,0,0,0,0,-1,888,1331,0,0
-329,-307,0,0,0,0,0,0,0,0,0,-1,895,1331,0,0
-322,-307,0,0,0,0,0,0,0,0,0,-1,902,1331,0,0
-315,-307,0,0,0,0,0,0,0,0,0,-1,909,1331,0,0
-308,-307,0,0,0,0,0,0,0,0,0,-1,916,1331,0,0
-301,-307,0,0,0,0,0,0,0,0,0,-1,923,1331,0,0
-294,-307,0,0,0,0,0,0,0,0,0,-1,930,1331,0,0
-287,-307,0,0,0,0,0,0,0,0,0,-1,937,1331,0,0
-280,-307,0,0,0,0,0,0,0,0,0,-1,944,1331,0,0
-273,-307,0,0,0,0,0,0,0,0,0,-1,951,1331,0,0
-266,-307,0,0,0,0,0,0,0,0,0,-1,958,1331,0,0
-259,-307,0,0,0,0,0,0,0,0,0,-1,965,1331,0,0
-252,-307,0,0,0,0,0,0,0,0,0,-1,972,1331,0,0
-245,-307,0,0,0,0,0,0,0,0,0,-1,979,1331,0,0
-238,-307,0,0,0,0,0,0,0,0,0,-1,986,1331,0,0
-231,-307,0,0,0,0,0,0,0,0,0,-1,993,1331,0,0
-224,-307,0,0,0,0,0,0,0,0,0,-1,1000,1331,0,0
-217,-307,0,0,0,0,0,0,0,0,0,-1,1007,1331,0,0
-210,-307,0,0,0,0,0,0,0,0,0,-1,1014,1331,0,0
-203,-307,0,0,0,0,0,0,0,0,0,-1,1021,1331,0,0
-196,-307,0,0,0,0,0,0,0,0,0,-1,1028,1331,0,0
-189,-307,0,0,0,0,0,0,0,0,0,-1,1035,1331,0,0
-182,-307,0,0,0,0,0,0,0,0,0,-1,1042,1331,0,0
-175,-307,0,0,0,0,0,0,0,0,0,-1,1049,1331,0,0
-168,-307,0,0,0,0,0,0,0,0,0,-1,1056,1331,0,0
-161,-307,0,0,0,0,0,0,0,0,0,-1,1063,1331,0,0
-154,-307,0,0,0,0,0,0,0,0,0,-1,1070,1331,0,0
-147,-307,0,0,0,0,0,0,0,0,0,-1,1077,1331,0,0
-140,-307,0,0,0,0,0,0,0,0,0,-1,1084,1331,0,0
-133,-307,0,0,0,0,0,0,0,0,0,-1,1091,1331,0,0
-126,-307,0,0,0,0,0,0,0,0,0,-1,1098,1331,0,0
-119,-307,0,0,0,0,0,0,0,0,0,-1,1105,1331,0,0
-112,-307,0,0,0,0,0,0,0,0,0,-1,1112,1331,0,0
-105,-307,0,0,0,0,0,0,0,0,0,-1,1119,1331,0,0
-98,-307,0,0,0,0,0,0,0,0,0,-1,1126,1331,0,0
-91,-307,0,0,0,0,0,0,0,0,0,-1,1133,1331,0,0
-84,-307,0,0,0,0,0,0,0,0,0,-1,1140,1331,0,0
-77,-307,0,0,0,0,0,0,0,0,0,-1,1147,1331,0,0
-70,-307,0,0,0,0,0,0,0,0,0,-1,1154,1331,0,0
-63,-307,0,0,0,0,0,0,0,0,0,-1,1161,1331,0,0
-56,-307,0,0,0,0,0,0,0,0,0,-1,1168,1331,0,0
-49,-307,0,0,0,0,0,0,0,0,0,-1,1175,1331,0,0
-42,-307,0,0,0,0,0,0,0,0,0,-1,1182,1331,0,0
-35,-307,0,0,0,0,0,0,0,0,0,-1,1189,1331,0,0
-28,-307,0,0,0,0,0,0,0,0,0,-1,1196,1331,0,0
-21,-307,0,0,0,0,0,0,0,0,0,-1,1203,1331,0,0
-14,-307,0,0,0,0,0,0,0,0,0,-1,1210,1331,0,0
-7,-307,0,0,0,0,0,0,0,0,0,-1,1217,1331,0,0
0,-307,0,0,0,0,0,0,0,0,0,-1,1224,1331,0,0
7,-307,0,0,0,0,0,0,0,0,0,-1,1231,1331,0,0
14,-307,0,0,0,0,0,0,0,0,0,-1,1238,1331,0,0
21,-307,0,0,0,0,0,0,0,0,0,-1,1245,1331,0,0
28,-307,0,0,0,0,0,0,0,0,0,-1,1252,1331,0,0
35,-307,0,0,0,0,0,0,0,0,0,-1,1259,1331,0,0
42,-307,0,0,0,0,0,0,0,0,0,-1,1266,1331,0,0
49,-307,0,0,0,0,0,0,0,0,0,-1,1273,1331,0,0
56,-307,0,0,0,0,0,0,0,0,0,-1,1280,1331,0,0
63,-307,0,0,0,0,0,0,0,0,0,-1,1287,1331,0,0
70,-307,0,0,0,0,0,0,0,0,0,-1,1294,1331,0,0
77,-307,0,0,0,0,0,0,0,0,0,-1,1301,1331,0,0
84,-307,0,0,0,0,0,0,0,0,0,-1,1308,1331,0,0
91,-307,0,0,0,0,0,0,0,0,0,-1,1315,1331,0,0
98,-307,0,0,0,0,0,0,0,0,0,-1,1322,1331,0,0
105,-307,0,0,0,0,0,0,0,0,0,-1,1329,1331,0,0
112,-307,0,0,0,0,0,0,0,0,0,-1,1336,1331,0,0
119,-307,0,0,0,0,0,0,0,0,0,-1,1343,1331,0,0
126,-307,0,0,0,0,0,0,0,0,0,-1,1350,1331,0,0
133,-307,0,0,0,0,0,0,0,0,0,-1,1357,1331,0,0
140,-307,0,0,0,0,0,0,0,0,0,-1,1364,1331,0,0
147,-307,0,0,0,0,0,0,0,0,0,-1,1371,1331,0,0
154,-307,0,0,0,0,0,0,0,0,0,-1,1378,1331,0,0
161,-307,0,0,0,0,0,0,0,0,0,-1,1385,1331,0,0
168,-307,0,0,0,0,0,0,0,0,0,-1,1392,1331,0,0
175,-307,0,0,0,0,0,0,0,0,0,-1,1399,1331,0,0
182,-307,0,0,0,0,0,0,0,0,0,-1,1406,1331,0,0
189,-307,0,0,0,0,0,0,0,0,0,-1,1413,1331,0,0
196,-307,0,0,0,0,0,0,0,0,0,-1,1420,1331,0,0
203,-307,0,0,0,0,0,0,0,0,0,-1,1427,1331,0,0
210,-307,0,0,0,0,0,0,0,0,0,-1,1434,1331,0,0
217,-307,0,0,0,0,0,0,0,0,0,-1,1441,1331,0,0
224,-307,0,0,0,0,0,0,0,0,0,-1,1448,1331,0,0
231,-307,0,0,0,0,0,0,0,0,0,-1,1455,1331,0,0
238,-307,0,0,0,0,0,0,0,0,0,-1,1462,1331,0,0
245,-307,0,0,0,0,0,0,0,0,0,-1,1469,1331,0,0
252,-307,0,0,0,0,0,0,0,0,0,-1,1476,1331,0,0
259,-307,0,0,0,0,0,0,0,0,0,-1,1483,1331,0,0
266,-307,0,0,0,0,0,0,0,0,0,-1,1490,1331,0,0
273,-307,0,0,0,0,0,0,0,0,0,-1,1497,1331,0,0
280,-307,0,0,0,0,0,0,0,0,0,-1,1504,1331,0,0
287,-307,0,0,0,0,0,0,0,0,0,-1,1511,1331,0,0
294,-307,0,0,0,0,0,0,0,0,0,-1,1518,1331,0,0
301,-307,0,0,0,0,0,0,0,0,0,-1,1525,1331,0,0
308,-307,0,0,0,0,0,0,0,0,0,-1,1532,1331,0,0
315,-307,0,0,0,0,0,0,0,0,0,-1,1539,1331,0,0
322,-307,0,0,0,0,0,0,0,0,0,-1,1546,1331,0,0
329,-307,0,0,0,0,0,0,0,0,0,-1,1553,1331,0,0
336,-307,0,0,0,0,0,0,0,0,0,-1,1560,1331,0,0
343,-307,0,0,0,0,0,0,0,0,0,-1,1567,1331,0,0
350,-307,0,0,0,0,0,0,0,0,0,-1,1574,1331,0,0
357,-307,0,0,0,0,0,0,0,0,0,-1,1581,1331,0,0
364,-307,0,0,0,0,0,0,0,0,0,-1,1588,1331,0,0
371,-307,0,0,0,0,0,0,0,0,0,-1,1595,1331,0,0
378,-307,0,0,0,0,0,0,0,0,0,-1,1602,1331,0,0
385,-307,0,0,0,0,0,0,0,0,0,-1,1609,1331,0,0
392,-307,0,0,0,0,0,0,0,0,0,-1,1616,1331,0,0
399,-307,0,0,0,0,0,0,0,0,0,-1,1623,1331,0,0
406,-307,0,0,0,0,0,0,0,0,0,-1,1630,1331,0,0
413,-307,0,0,0,0,0,0,0,0,0,-1,1637,1331,0,0
420,-307,0,0,0,0,0,0,0,0,0,-1,1644,1331,0,0
427,-307,0,0,0,0,0,0,0,0,0,-1,1651,1331,0,0
434,-307,0,0,0,0,0,0,0,0,0,-1,1658,1331,0,0
441,-307,0,0,0,0,0,0,0,0,0,-1,1665,1331,0,0
448,-307,0,0,0,0,0,0,0,0,0,-1,1672,1331,0,0
455,-307,0,0,0,0,0,0,0,0,0,-1,1679,1331,0,0
462,-307,0,0,0,0,0,0,0,0,0,-1,1686,1331,0,0
469,-307,0,0,0,0,0,0,0,0,0,-1,1693,1331,0,0
476,-307,0,0,0,0,0,0,0,0,0,-1,1700,1331,0,0
483,-307,0,0,0,0,0,0,0,0,0,-1,1707,1331,0,0
490,-307,0,0,0,0,0,0,0,0,0,-1,1714,1331,0,0
497,-307,0,0,0,0,0,0,0,0,0,-1,1721,1331,0,0
504,-307,0,0,0,0,0,0,0,0,0,-1,1728,1331,0,0
511,-307,0,0,0,0,0,0,0,0,0,-1,1735,1331,0,0
518,-307,0,0,0,0,0,0,0,0,0,-1,1742,1331,0,0
525,-307,0,0,0,0,0,0,0,0,0,-1,1749,1331,0,0
532,-307,0,0,0,0,0,0,0,0,0,-1,1756,1331,0,0
539,-307,0,0,0,0,0,0,0,0,0,-1,1763,1331,0,0
546,-307,0,0,0,0,0,0,0,0,0,-1,1770,1331,0,0
553,-307,0,0,0,0,0,0,0,0,0,-1,1777,1331,0,0
560,-307,0,0,0,0,0,0,0,0,0,-1,1784,1331,0,0
567,-307,0,0,0,0,0,0,0,0,0,-1,1791,1331,0,0
574,-307,0,0,0,0,0,0,0,0,0,-1,1798,1331,0,0
581,-307,0,0,0,0,0,0,0,0,0,-1,1805,1331,0,0
588,-307,3.0437,-0.324463,0,0,0,0,0,0,0,-1,1812,1331,3.04372,0.324506
595,-307,2.5072,-0.559937,0,0,0,0,0,0,0,-1,1819,1331,2.50714,0.559895
602,-307,3.23291,-0.275757,-0.00352961,-0.007502,0.0114232,0.00607876,-0.0171104,0.699322,0.0138841,0.0447436,1826,1331,3.23293,0.275736
609,-307,3.97729,-0.00561523,-0.00500371,-0.00447332,0.0113448,0.00660936,-0.0160864,0.797084,0.0134788,0.0473141,1833,1331,3.97727,0.00564299
616,-307,0.641602,-0.509888,-0.00612615,-0.001565,0.0105193,0.00691814,-0.0146093,0.892145,0.0126905,0.0476993,1840,1331,0.641562,0.509828
623,-307,0.881226,-0.472168,-0.00708549,0.00188755,0.00952461,0.00792943,-0.0131274,1.00551,0.01228,0.045426,1847,1331,0.881166,0.472194
630,-307,0.609375,-0.356934,-0.00759962,0.00454669,0.00822189,0.00869522,-0.0117481,1.1035,0.0118468,0.04286,1854,1331,0.609336,0.356896
637,-307,0.669556,-0.430054,-0.00732351,0.00751577,0.00675787,0.0101321,-0.0099398,1.20142,0.0115887,0.0433622,1861,1331,0.669523,0.430004
644,-307,-0.455566,0.355835,0,0,0,0,0,0,0,-1,1868,1331,-0.455607,-0.355839
651,-307,-0.208008,0.374878,-0.00672696,0.011381,0.0033563,0.0119831,-0.00732903,1.3933,0.0112572,0.0404723,1875,1331,-0.208052,-0.374899
658,-307,0,0.0339355,-0.007202,0.0113677,0.00173618,0.0115286,-0.00736293,1.47837,0.0109951,0.0319804,1882,1331,-3.23411e-05,-0.0339482
665,-307,-0.0621338,-0.0682373,-0.00589665,0.00980611,0.000464874,0.00981986,-0.0059104,1.54123,0.00917489,0.0119593,1889,1331,-0.0621563,0.0682702
672,-307,-0.0761719,-0.0449219,-0.00422572,0.00799885,-0.000284673,0.00800548,-0.00423234,-1.54753,0.00717658,0.0074986,1896,1331,-0.0761967,0.0448784
679,-307,-0.0848389,-0.0432129,-0.00289036,0.00631051,-0.000790186,0.00637787,-0.00295773,-1.48574,0.00550916,0.00893037,1903,1331,-0.0848118,0.0432383
686,-307,-0.0732422,-0.055542,-0.0015272,0.00471045,-0.00121547,0.00493893,-0.00175567,-1.38499,0.00400813,0.00962531,1910,1331,-0.0733007,0.0555827
693,-307,-0.0697021,-0.0488281,-0.000411929,0.00236538,-0.00158506,0.00308404,-0.00113059,-1.14512,0.00251893,0.0118205,1917,1331,-0.0697558,0.048833
700,-307,-0.0610352,-0.0649414,0.000873355,0.000411704,-0.00152175,0.00218169,-0.000896627,-0.71013,0.00182816,0.0119894,1924,1331,-0.0610127,0.0649112
707,-307,-0.0556641,-0.0853271,0.00215155,-0.000601499,-0.00105367,0.00250853,-0.000958477,-0.326659,0.00206728,0.0123088,1931,1331,-0.055691,0.0853305
714,-307,-0.0712891,-0.0622559,0.00309783,-0.000638086,-0.00111118,0.00340334,-0.000943603,-0.268318,0.00264025,0.0113544,1938,1331,-0.0713166,0.0622236
721,-307,-0.0653076,-0.0544434,0.00401834,-0.000706097,-0.00138812,0.004396,-0.00108376,-0.265639,0.00335086,0.0132882,1945,1331,-0.0652866,0.0544478
728,-307,-0.0648193,-0.0473633,0.00472922,-0.000631999,-0.00201722,0.00540344,-0.00130621,-0.322556,0.00410752,0.014902,1952,1331,-0.0648145,0.0473693
735,-307,-0.0181885,0.0217285,0.00519417,-0.000348856,-0.00282248,0.00637838,-0.00153306,-0.397255,0.00484481,0.0254676,1959,1331,-0.0181542,-0.0216856
742,-307,0.145386,0.121094,0.00528224,0.000216532,-0.00376996,0.00729119,-0.00179242,-0.489606,0.0055555,0.0353547,1966,1331,0.145417,-0.121139
749,-307,0.304443,-0.050415,0.00463251,0.00116415,-0.00500493,0.00819519,-0.00239853,-0.618624,0.00641423,0.0402634,1973,1331,0.304399,0.0504244
756,-307,0.250732,-0.151123,0.00276472,0.00258871,-0.00666183,0.00933912,-0.0039857,-0.778793,0.00789734,0.0444447,1980,1331,0.25075,0.1511
763,-307,0.19458,-0.226318,-0.00116377,0.00458273,-0.00898193,0.0111398,-0.00772083,-0.940201,0.0109487,0.0433266,1987,1331,0.194613,0.226344
770,-307,0,0,0,0,0,0,0,0,0,-1,1994,1331,0,0
777,-307,0,0,0,0,0,0,0,0,0,-1,2001,1331,0,0
784,-307,0,0,0,0,0,0,0,0,0,-1,2008,1331,0,0
791,-307,0,0,0,0,0,0,0,0,0,-1,2015,1331,0,0
798,-307,0,0,0,0,0,0,0,0,0,-1,2022,1331,0,0
805,-307,0,0,0,0,0,0,0,0,0,-1,2029,1331,0,0
812,-307,0,0,0,0,0,0,0,0,0,-1,2036,1331,0,0
-700,-314,0,0,0,0,0,0,0,0,0,-1,524,1338,0,0
-693,-314,0,0,0,0,0,0,0,0,0,-1,531,1338,0,0
-686,-314,0,0,0,0,0,0,0,0,0,-1,538,1338,0,0
-679,-314,0,0,0,0,0,0,0,0,0,-1,545,1338,0,0
-672,-314,0,0,0,0,0,0,0,0,0,-1,552,1338,0,0
-665,-314,0,0,0,0,0,0,0,0,0,-1,559,1338,0,0
-658,-314,0,0,0,0,0,0,0,0,0,-1,566,1338,0,0
-651,-314,0,0,0,0,0,0,0,0,0,-1,573,1338,0,0
-644,-314,-0.385315,3.43335,0,0,0,0,0,0,0,-1,580,1338,-0.385342,-3.43332
-637,-314,-0.455322,2.88757,0.0375534,0.038766,0.00242298,0.0406574,0.035662,0.907998,0.0256028,0.0419112,587,1338,-0.455333,-2.88759
-630,-314,-0.647766,2.39661,0.0307047,0.0255178,-0.00342119,0.0324043,0.0238182,-0.46108,0.0193854,0.0423992,594,1338,-0.647789,-2.39655
-623,-314,-1.19122,1.98328,0.0248659,0.0167909,-0.0061893,0.0282182,0.0134386,-0.496389,0.0162979,0.0461314,601,1338,-1.19121,-1.98324
-616,-314,-0.665405,-1.69519,0.0197795,0.0109561,-0.00704699,0.0236818,0.00705376,-0.505724,0.0140403,0.047302,608,1338,-0.665404,1.69516
-609,-314,0.354248,0.204468,0,0,0,0,0,0,0,-1,615,1338,0.35423,-0.204448
-602,-314,0.135254,0.131592,0.0113741,0.00359943,-0.00650928,0.0150685,-9.49325e-05,-0.516219,0.0100774,0.0365526,622,1338,0.135241,-0.13154
-595,-314,-0.0497437,-0.0604248,0.00816376,0.00178581,-0.0055372,0.0113646,-0.00141507,-0.524136,0.00808947,0.0208031,629,1338,-0.0497501,0.0604437
-588,-314,-0.072937,-0.0574951,0.0057118,0.00102154,-0.00420985,0.00818564,-0.00145231,-0.531276,0.00600007,0.0113778,636,1338,-0.0729603,0.057546
-581,-314,-0.0730591,-0.0699463,0.00395497,0.000837055,-0.00315177,0.00591226,-0.00112024,-0.555728,0.00436313,0.0113889,643,1338,-0.0730849,0.0699918
-574,-314,-0.103394,-0.0936279,0.00280513,-2.10019e-05,-0.00267744,0.00441951,-0.00163539,-0.542592,0.00361688,0.0120587,650,1338,-0.103386,0.0935912
-567,-314,-0.0724487,-0.0510254,0.00189842,-0.00109718,-0.00211201,0.00298983,-0.00218859,-0.476967,0.00300166,0.0139671,657,1338,-0.072473,0.051022
-560,-314,-0.0405273,-0.024292,0.00223494,-0.00184386,-0.00211534,0.00313387,-0.0027428,-0.401837,0.0033954,0.0141153,664,1338,-0.0405258,0.0243401
-553,-314,-0.0774536,-0.0556641,0.00368738,-0.00198419,-0.00277331,0.00481807,-0.00311488,-0.38713,0.00461514,0.0153933,671,1338,-0.0774606,0.055627
-546,-314,-0.0944824,-0.0775146,0.00591277,-0.0025802,-0.00267277,0.00668389,-0.00335132,-0.280882,0.00589936,0.0160962,678,1338,-0.0945126,0.0775244
-539,-314,-0.0708618,-0.067627,0.00857855,-0.0041255,-0.00185556,0.00884403,-0.00439097,-0.142107,0.00778407,0.0155756,685,1338,-0.070858,0.0675926
-532,-314,-0.0794067,-0.0496826,0.0119745,-0.00450181,-0.000736683,0.0120074,-0.00453468,-0.044593,0.00987006,0.0169954,692,1338,-0.0793792,0.0497434
-525,-314,-0.0293579,-0.0170898,0.0151526,-0.00537001,0.00115486,0.0152174,-0.00543479,0.0560366,0.0123614,0.0281551,699,1338,-0.0293674,0.0171171
-518,-314,0.0310059,-0.0124512,0.018529,-0.00610139,0.00377643,0.019095,-0.00666741,0.148772,0.01544,0.0385785,706,1338,0.0309989,0.0124644
-511,-314,0.125977,-0.20813,0.0220288,-0.00763031,0.00714268,0.0236593,-0.00926082,0.224431,0.0196031,0.0401851,713,1338,0.125958,0.208142
-504,-314,1.76263,-3.21729,0,0,0,0,0,0,0,-1,720,1338,1.76264,3.21732
-497,-314,2.09015,-2.71179,0.0301683,-0.0120815,0.0168682,0.0360767,-0.0179899,0.336911,0.0317922,0.0441665,727,1338,2.09015,2.71179
-490,-314,2.43817,-2.15369,0.0341599,-0.0149769,0.0229056,0.0431813,-0.0239983,0.375194,0.0393097,0.0454744,734,1338,2.43819,2.15367
-483,-314,2.97913,-1.00366,0.0382497,-0.0195353,0.0296347,0.0507455,-0.0320311,0.399039,0.0481965,0.0438292,741,1338,2.9791,1.00363
-476,-314,2.43286,-0.452393,0,0,0,0,0,0,0,-1,748,1338,2.43285,0.45239
-469,-314,1.90186,-0.516357,0,0,0,0,0,0,0,-1,755,1338,1.90186,0.516309
-462,-314,0,0,0,0,0,0,0,0,0,-1,762,1338,0,0
-455,-314,0,0,0,0,0,0,0,0,0,-1,769,1338,0,0
-448,-314,0,0,0,0,0,0,0,0,0,-1,776,1338,0,0
-441,-314,0,0,0,0,0,0,0,0,0,-1,783,1338,0,0
-434,-314,0,0,0,0,0,0,0,0,0,-1,790,1338,0,0
-427,-314,0,0,0,0,0,0,0,0,0,-1,797,1338,0,0
-420,-314,0,0,0,0,0,0,0,0,0,-1,804,1338,0,0
-413,-314,0,0,0,0,0,0,0,0,0,-1,811,1338,0,0
-406,-314,0,0,0,0,0,0,0,0,0,-1,818,1338,0,0
-399,-314,0,0,0,0,0,0,0,0,0,-1,825,1338,0,0
-392,-314,0,0,0,0,0,0,0,0,0,-1,832,1338,0,0
-385,-314,0,0,0,0,0,0,0,0,0,-1,839,1338,0,0
-378,-314,0,0,0,0,0,0,0,0,0,-1,846,1338,0,0
-371,-314,0,0,0,0,0,0,0,0,0,-1,853,1338,0,0
-364,-314,0,0,0,0,0,0,0,0,0,-1,860,1338,0,0
-357,-314,0,0,0,0,0,0,0,0,0,-1,867,1338,0,0
-350,-314,0,0,0,0,0,0,0,0,0,-1,874,1338,0,0
-343,-314,0,0,0,0,0,0,0,0,0,-1,881,1338,0,0
-336,-314,0,0,0,0,0,0,0,0,0,-1,888,1338,0,0
-329,-314,0,0,0,0,0,0,0,0,0,-1,895,1338,0,0
-322,-314,0,0,0,0,0,0,0,0,0,-1,902,1338,0,0
-315,-314,0,0,0,0,0,0,0,0,0,-1,909,1338,0,0
-308,-314,0,0,0,0,0,0,0,0,0,-1,916,1338,0,0
-301,-314,0,0,0,0,0,0,0,0,0,-1,923,1338,0,0
-294,-314,0,0,0,0,0,0,0,0,0,-1,930,1338,0,0
-287,-314,0,0,0,0,0,0,0,0,0,-1,937,1338,0,0
-280,-314,0,0,0,0,0,0,0,0,0,-1,944,1338,0,0
-273,-314,0,0,0,0,0,0,0,0,0,-1,951,1338,0,0
-266,-314,0,0,0,0,0,0,0,0,0,-1,958,1338,0,0
-259,-314,0,0,0,0,0,0,0,0,0,-1,965,1338,0,0
-252,-314,0,0,0,0,0,0,0,0,0,-1,972,1338,0,0
-245,-314,0,0,0,0,0,0,0,0,0,-1,979,1338,0,0
-238,-314,0,0,0,0,0,0,0,0,0,-1,986,1338,0,0
-231,-314,0,0,0,0,0,0,0,0,0,-1,993,1338,0,0
-224,-314,0,0,0,0,0,0,0,0,0,-1,1000,1338,0,0
-217,-314,0,0,0,0,0,0,0,0,0,-1,1007,1338,0,0
-210,-314,0,0,0,0,0,0,0,0,0,-1,1014,1338,0,0
-203,-314,0,0,0,0,0,0,0,0,0,-1,1021,1338,0,0
-196,-314,0,0,0,0,0,0,0,0,0,-1,1028,1338,0,0
-189,-314,0,0,0,0,0,0,0,0,0,-1,1035,1338,0,0
-182,-314,0,0,0,0,0,0,0,0,0,-1,1042,1338,0,0
-175,-314,0,0,0,0,0,0,0,0,0,-1,1049,1338,0,0
-168,-314,0,0,0,0,0,0,0,0,0,-1,1056,1338,0,0
-161,-314,0,0,0,0,0,0,0,0,0,-1,1063,1338,0,0
-154,-314,0,0,0,0,0,0,0,0,0,-1,1070,1338,0,0
-147,-314,0,0,0,0,0,0,0,0,0,-1,1077,1338,0,0
-140,-314,0,0,0,0,0,0,0,0,0,-1,1084,1338,0,0
-133,-314,0,0,0,0,0,0,0,0,0,-1,1091,1338,0,0
-126,-314,0,0,0,0,0,0,0,0,0,-1,1098,1338,0,0
-119,-314,0,0,0,0,0,0,0,0,0,-1,1105,1338,0,0
-112,-314,0,0,0,0,0,0,0,0,0,-1,1112,1338,0,0
-105,-314,0,0,0,0,0,0,0,0,0,-1,1119,1338,0,0
-98,-314,0,0,0,0,0,0,0,0,0,-1,1126,1338,0,0
-91,-314,0,0,0,0,0,0,0,0,0,-1,1133,1338,0,0
-84,-314,0,0,0,0,0,0,0,0,0,-1,1140,1338,0,0
-77,-314,0,0,0,0,0,0,0,0,0,-1,1147,1338,0,0
-70,-314,0,0,0,0,0,0,0,0,0,-1,1154,1338,0,0
-63,-314,0,0,0,0,0,0,0,0,0,-1,1161,1338,0,0
-56,-314,0,0,0,0,0,0,0,0,0,-1,1168,1338,0,0
-49,-314,0,0,0,0,0,0,0,0,0,-1,1175,1338,0,0
-42,-314,0,0,0,0,0,0,0,0,0,-1,1182,1338,0,0
-35,-314,0,0,0,0,0,0,0,0,0,-1,1189,1338,0,0
-28,-314,0,0,0,0,0,0,0,0,0,-1,1196,1338,0,0
-21,-314,0,0,0,0,0,0,0,0,0,-1,1203,1338,0,0
-14,-314,0,0,0,0,0,0,0,0,0,-1,1210,1338,0,0
-7,-314,0,0,0,0,0,0,0,0,0,-1,1217,1338,0,0
0,-314,0,0,0,0,0,0,0,0,0,-1,1224,1338,0,0
7,-314,0,0,0,0,0,0,0,0,0,-1,1231,1338,0,0
14,-314,0,0,0,0,0,0,0,0,0,-1,1238,1338,0,0
21,-314,0,0,0,0,0,0,0,0,0,-1,1245,1338,0,0
28,-314,0,0,0,0,0,0,0,0,0,-1,1252,1338,0,0
35,-314,0,0,0,0,0,0,0,0,0,-1,1259,1338,0,0
42,-314,0,0,0,0,0,0,0,0,0,-1,1266,1338,0,0
49,-314,0,0,0,0,0,0,0,0,0,-1,1273,1338,0,0
56,-314,0,0,0,0,0,0,0,0,0,-1,1280,1338,0,0
63,-314,0,0,0,0,0,0,0,0,0,-1,1287,1338,0,0
70,-314,0,0,0,0,0,0,0,0,0,-1,1294,1338,0,0
77,-314,0,0,0,0,0,0,0,0,0,-1,1301,1338,0,0
84,-314,0,0,0,0,0,0,0,0,0,-1,1308,1338,0,0
91,-314,0,0,0,0,0,0,0,0,0,-1,1315,1338,0,0
98,-314,0,0,0,0,0,0,0,0,0,-1,1322,1338,0,0
105,-314,0,0,0,0,0,0,0,0,0,-1,1329,1338,0,0
112,-314,0,0,0,0,0,0,0,0,0,-1,1336,1338,0,0
119,-314,0,0,0,0,0,0,0,0,0,-1,1343,1338,0,0
126,-314,0,0,0,0,0,0,0,0,0,-1,1350,1338,0,0
133,-314,0,0,0,0,0,0,0,0,0,-1,1357,1338,0,0
140,-314,0,0,0,0,0,0,0,0,0,-1,1364,1338,0,0
147,-314,0,0,0,0,0,0,0,0,0,-1,1371,1338,0,0
154,-314,0,0,0,0,0,0,0,0,0,-1,1378,1338,0,0
161,-314,0,0,0,0,0,0,0,0,0,-1,1385,1338,0,0
168,-314,0,0,0,0,0,0,0,0,0,-1,1392,1338,0,0
175,-314,0,0,0,0,0,0,0,0,0,-1,1399,1338,0,0
182,-314,0,0,0,0,0,0,0,0,0,-1,1406,1338,0,0
189,-314,0,0,0,0,0,0,0,0,0,-1,1413,1338,0,0
196,-314,0,0,0,0,0,0,0,0,0,-1,1420,1338,0,0
203,-314,0,0,0,0,0,0,0,0,0,-1,1427,1338,0,0
210,-314,0,0,0,0,0,0,0,0,0,-1,1434,1338,0,0
217,-314,0,0,0,0,0,0,0,0,0,-1,1441,1338,0,0
224,-314,0,0,0,0,0,0,0,0,0,-1,1448,1338,0,0
231,-314,0,0,0,0,0,0,0,0,0,-1,1455,1338,0,0
238,-314,0,0,0,0,0,0,0,0,0,-1,1462,1338,0,0
245,-314,0,0,0,0,0,0,0,0,0,-1,1469,1338,0,0
252,-314,0,0,0,0,0,0,0,0,0,-1,1476,1338,0,0
259,-314,0,0,0,0,0,0,0,0,0,-1,1483,1338,0,0
266,-314,0,0,0,0,0,0,0,0,0,-1,1490,1338,0,0
273,-314,0,0,0,0,0,0,0,0,0,-1,1497,1338,0,0
280,-314,0,0,0,0,0,0,0,0,0,-1,1504,1338,0,0
287,-314,0,0,0,0,0,0,0,0,0,-1,1511,1338,0,0
294,-314,0,0,0,0,0,0,0,0,0,-1,1518,1338,0,0
301,-314,0,0,0,0,0,0,0,0,0,-1,1525,1338,0,0
308,-314,0,0,0,0,0,0,0,0,0,-1,1532,1338,0,0
315,-314,0,0,0,0,0,0,0,0,0,-1,1539,1338,0,0
322,-314,0,0,0,0,0,0,0,0,0,-1,1546,1338,0,0
329,-314,0,0,0,0,0,0,0,0,0,-1,1553,1338,0,0
336,-314,0,0,0,0,0,0,0,0,0,-1,1560,1338,0,0
343,-314,0,0,0,0,0,0,0,0,0,-1,1567,1338,0,0
350,-314,0,0,0,0,0,0,0,0,0,-1,1574,1338,0,0
357,-314,0,0,0,0,0,0,0,0,0,-1,1581,1338,0,0
364,-314,0,0,0,0,0,0,0,0,0,-1,1588,1338,0,0
371,-314,0,0,0,0,0,0,0,0,0,-1,1595,1338,0,0
378,-314,0,0,0,0,0,0,0,0,0,-1,1602,1338,0,0
385,-314,0,0,0,0,0,0,0,0,0,-1,1609,1338,0,0
392,-314,0,0,0,0,0,0,0,0,0,-1,1616,1338,0,0
399,-314,0,0,0,0,0,0,0,0,0,-1,1623,1338,0,0
406,-314,0,0,0,0,0,0,0,0,0,-1,1630,1338,0,0
413,-314,0,0,0,0,0,0,0,0,0,-1,1637,1338,0,0
420,-314,0,0,0,0,0,0,0,0,0,-1,1644,1338,0,0
427,-314,0,0,0,0,0,0,0,0,0,-1,1651,1338,0,0
434,-314,0,0,0,0,0,0,0,0,0,-1,1658,1338,0,0
441,-314,0,0,0,0,0,0,0,0,0,-1,1665,1338,0,0
448,-314,0,0,0,0,0,0,0,0,0,-1,1672,1338,0,0
455,-314,0,0,0,0,0,0,0,0,0,-1,1679,1338,0,0
462,-314,0,0,0,0,0,0,0,0,0,-1,1686,1338,0,0
469,-314,0,0,0,0,0,0,0,0,0,-1,1693,1338,0,0
476,-314,0,0,0,0,0,0,0,0,0,-1,1700,1338,0,0
483,-314,0,0,0,0,0,0,0,0,0,-1,1707,1338,0,0
490,-314,0,0,0,0,0,0,0,0,0,-1,1714,1338,0,0
497,-314,0,0,0,0,0,0,0,0,0,-1,1721,1338,0,0
504,-314,0,0,0,0,0,0,0,0,0,-1,1728,1338,0,0
511,-314,0,0,0,0,0,0,0,0,0,-1,1735,1338,0,0
518,-314,0,0,0,0,0,0,0,0,0,-1,1742,1338,0,0
525,-314,0,0,0,0,0,0,0,0,0,-1,1749,1338,0,0
532,-314,0,0,0,0,0,0,0,0,0,-1,1756,1338,0,0
539,-314,0,0,0,0,0,0,0,0,0,-1,1763,1338,0,0
546,-314,0,0,0,0,0,0,0,0,0,-1,1770,1338,0,0
553,-314,0,0,0,0,0,0,0,0,0,-1,1777,1338,0,0
560,-314,0,0,0,0,0,0,0,0,0,-1,1784,1338,0,0
567,-314,0,0,0,0,0,0,0,0,0,-1,1791,1338,0,0
574,-314,0,0,0,0,0,0,0,0,0,-1,1798,1338,0,0
581,-314,3.21094,0.227783,-0.0016991,-0.006188,0.0105623,0.00685456,-0.0147417,0.680707,0.0127427,0.0473567,1805,1338,3.21096,-0.22779
588,-314,2.85974,-0.109985,-0.00274007,-0.00970856,0.0118978,0.00617319,-0.0186218,0.642957,0.0149047,0.04292,1812,1338,2.85978,0.109971
595,-314,2.39355,-0.483398,-0.00385277,-0.0102804,0.0122904,0.00563709,-0.0197702,0.657517,0.0154069,0.0427141,1819,1338,2.39355,0.483397
602,-314,3.14575,0.0291748,-0.00532914,-0.00853285,0.0119456,0.00512156,-0.0189835,0.718748,0.0146641,0.0456046,1826,1338,3.14575,-0.0291539
609,-314,0.195923,-0.655884,0,0,0,0,0,0,0,-1,1833,1338,0.195918,0.655942
616,-314,0.473999,-0.46521,-0.00731844,-0.00362182,0.0100992,0.00479679,-0.0157371,0.875905,0.0124034,0.0435516,1840,1338,0.474009,0.465189
623,-314,0.597046,-0.335571,-0.00801171,-0.000599726,0.00895258,0.00538361,-0.013995,0.981639,0.0115506,0.0415765,1847,1338,0.597027,0.335587
630,-314,0.474365,-0.314209,-0.00825761,0.00173085,0.00762531,0.00585186,-0.0123786,1.07532,0.0107479,0.0423226,1854,1338,0.474386,0.31415
637,-314,0.568604,-0.506104,-0.00771154,0.00458159,0.0062097,0.00717234,-0.0103023,1.17554,0.0101428,0.0431475,1861,1338,0.568651,0.506069
644,-314,0.177246,-0.0789795,-0.00686787,0.00713598,0.00470407,0.00856941,-0.0083013,1.27501,0.00974072,0.0418917,1868,1338,0.177292,0.0789634
651,-314,-0.0494385,-0.00305176,-0.0066627,0.00892601,0.00319416,0.00955511,-0.0072918,1.37633,0.00975579,0.0404047,1875,1338,-0.0494861,0.00299191
658,-314,-0.0601807,-0.0430908,-0.00701867,0.0092971,0.00170165,0.00947269,-0.00719425,1.46798,0.00965258,0.0217243,1882,1338,-0.060217,0.0430343
665,-314,-0.0692139,-0.0593262,-0.00564856,0.00812534,0.000529129,0.00814564,-0.00566886,1.53246,0.00801842,0.0104263,1889,1338,-0.0692142,0.0592749
672,-314,-0.0593262,-0.036377,-0.00395717,0.0067163,-0.00011832,0.00671761,-0.00395848,-1.55971,0.00623208,0.0102641,1896,1338,-0.0593325,0.0363451
679,-314,-0.0714111,-0.0375977,-0.00261217,0.00535366,-0.000576336,0.00539514,-0.00265365,-1.49894,0.00473597,0.00899117,1903,1338,-0.0714397,0.0376501
686,-314,-0.0760498,-0.0748291,-0.00121659,0.00400325,-0.000967687,0.00417687,-0.00139021,-1.39327,0.00334569,0.0118932,1910,1338,-0.0760709,0.074772
693,-314,-0.074585,-0.0771484,-2.95093e-05,0.00205772,-0.00127525,0.00266195,-0.000633743,-1.12832,0.00201931,0.0118581,1917,1338,-0.0745669,0.077122
700,-314,-0.0684814,-0.0739746,0.00135283,0.000332373,-0.00127909,0.0022197,-0.000534498,-0.595619,0.00168644,0.0111675,1924,1338,-0.0684595,0.0739297
707,-314,-0.0666504,-0.0787354,0.00267213,-0.000646715,-0.000925476,0.00291276,-0.000887342,-0.254371,0.00229552,0.010554,1931,1338,-0.066658,0.0787229
714,-314,-0.0678711,-0.0560303,0.00373266,-0.00090416,-0.00095513,0.0039217,-0.0010932,-0.195394,0.00304499,0.0096093,1938,1338,-0.06783,0.0560794
721,-314,-0.0759277,-0.0516357,0.004907,-0.00116828,-0.00114883,0.00511698,-0.00137826,-0.180785,0.00395169,0.0133599,1945,1338,-0.0759422,0.0516295
728,-314,-0.0943604,-0.0494385,0,0,0,0,0,0,0,-1,1952,1338,-0.0943202,0.0494337
735,-314,0.0959473,0.422729,0,0,0,0,0,0,0,-1,1959,1338,0.0959301,-0.42267
742,-314,0.328857,-0.767456,0,0,0,0,0,0,0,-1,1966,1338,0.32882,0.767466
749,-314,0.213745,-0.174805,0.00786258,-0.00116427,-0.00277105,0.00864536,-0.00194704,-0.275309,0.00651037,0.0435564,1973,1338,0.213767,0.174774
756,-314,0.31189,-0.282227,0.00702803,-0.000614126,-0.0031273,0.00814463,-0.00173072,-0.34294,0.0060892,0.039504,1980,1338,0.311875,0.282193
763,-314,0.184814,-0.0625,0.00444282,0.000385209,-0.00337804,0.00635447,-0.00152644,-0.514973,0.00482627,0.0405459,1987,1338,0.184828,0.0624408
770,-314,0,0,0,0,0,0,0,0,0,-1,1994,1338,0,0
777,-314,0,0,0,0,0,0,0,0,0,-1,2001,1338,0,0
784,-314,0,0,0,0,0,0,0,0,0,-1,2008,1338,0,0
791,-314,0,0,0,0,0,0,0,0,0,-1,2015,1338,0,0
798,-314,0,0,0,0,0,0,0,0,0,-1,2022,1338,0,0
805,-314,0,0,0,0,0,0,0,0,0,-1,2029,1338,0,0
812,-314,0,0,0,0,0,0,0,0,0,-1,2036,1338,0,0
-700,-321,0,0,0,0,0,0,0,0,0,-1,524,1345,0,0
-693,-321,0,0,0,0,0,0,0,0,0,-1,531,1345,0,0
-686,-321,0,0,0,0,0,0,0,0,0,-1,538,1345,0,0
-679,-321,0,0,0,0,0,0,0,0,0,-1,545,1345,0,0
-672,-321,0,0,0,0,0,0,0,0,0,-1,552,1345,0,0
-665,-321,0,0,0,0,0,0,0,0,0,-1,559,1345,0,0
-658,-321,0,0,0,0,0,0,0,0,0,-1,566,1345,0,0
-651,-321,0,0,0,0,0,0,0,0,0,-1,573,1345,0,0
-644,-321,-0.159119,4.12988,0,0,0,0,0,0,0,-1,580,1345,-0.159097,-4.12982
-637,-321,-0.319519,3.38965,0,0,0,0,0,0,0,-1,587,1345,-0.319539,-3.38959
-630,-321,-0.425354,3.01111,0,0,0,0,0,0,0,-1,594,1345,-0.425379,-3.01105
-623,-321,-1.14032,-0.516968,0.0279108,0.0135259,-0.00932427,0.0324944,0.00894243,-0.45688,0.0193824,0.0474173,601,1345,-1.14034,0.517021
-616,-321,-0.738281,-1.06799,0.0219896,0.00917676,-0.00934104,0.02691,0.00425635,-0.48482,0.016703,0.0481171,608,1345,-0.738308,1.06793
-609,-321,0.0949097,0.904907,0,0,0,0,0,0,0,-1,615,1345,0.0949396,-0.904873
-602,-321,-0.00750732,0.548706,0.0124944,0.00383002,-0.0075218,0.0168424,-0.000517955,-0.524123,0.0114048,0.0422948,622,1345,-0.00749379,-0.548738
-595,-321,-0.0872803,0.0255127,0.00893863,0.00210396,-0.00616267,0.012568,-0.00152545,-0.532244,0.00893071,0.0342963,629,1345,-0.0872902,-0.0255327
-588,-321,-0.083374,-0.074707,0.00622416,0.0012871,-0.00463491,0.00900692,-0.00149566,-0.540707,0.00656024,0.0121062,636,1345,-0.0833519,0.0746611
-581,-321,-0.0797729,-0.0664063,0.00415128,0.000981667,-0.00330675,0.00623338,-0.00110043,-0.561937,0.00456681,0.0112028,643,1345,-0.079782,0.0663645
-574,-321,-0.0872192,-0.0849609,0.00281249,5.71233e-06,-0.00263775,0.00439695,-0.00157874,-0.540923,0.00357567,0.0148249,650,1345,-0.0872469,0.0849071
-567,-321,-0.050293,-0.0847168,0.00175356,-0.000934731,-0.00184301,0.00269052,-0.00187169,-0.470331,0.00264809,0.0211383,657,1345,-0.050305,0.0846924
-560,-321,-0.0292969,-0.0395508,0.00174461,-0.00156867,-0.0016269,0.00240987,-0.00223394,-0.38817,0.00268175,0.0242479,664,1345,-0.0293016,0.0396096
-553,-321,-0.102417,-0.0583496,0.00287658,-0.00163393,-0.00200589,0.00363957,-0.00239691,-0.363472,0.00350969,0.0240905,671,1345,-0.102416,0.0582947
-546,-321,-0.123718,-0.102783,0.0048119,-0.00241052,-0.00162329,0.00515997,-0.00275859,-0.211225,0.00464133,0.0231536,678,1345,-0.123706,0.102761
-539,-321,-0.0971069,-0.108643,0.00705935,-0.00415976,-0.000585419,0.00708982,-0.00419023,-0.0519923,0.00658387,0.0222425,685,1345,-0.0971138,0.108625
-532,-321,-0.0834351,-0.0671387,0.00982608,-0.00496838,0.000903308,0.00988103,-0.00502333,0.0607563,0.00875606,0.0147177,692,1345,-0.0834168,0.0670971
-525,-321,-0.065979,-0.0598145,0.0125438,-0.00626709,0.00308654,0.0130373,-0.00676059,0.158546,0.0116202,0.019067,699,1345,-0.0659629,0.0598372
-518,-321,-0.02771,-0.0993652,0.0154948,-0.00758154,0.00600906,0.0169658,-0.00905253,0.240073,0.0152515,0.0337891,706,1345,-0.0276892,0.099314
-511,-321,0.324707,-0.457153,0.0185004,-0.00992009,0.00962099,0.021451,-0.0128707,0.297577,0.020021,0.0413898,713,1345,0.324729,0.457177
-504,-321,1.62463,-2.81494,0,0,0,0,0,0,0,-1,720,1345,1.62462,2.81495
-497,-321,1.59747,-2.43469,0.0261681,-0.016387,0.019914,0.0340333,-0.0242522,0.376153,0.0338087,0.0450811,727,1345,1.59746,2.43472
-490,-321,1.96106,-1.72449,0.0301155,-0.0201427,0.0258889,0.0410656,-0.0310927,0.400145,0.041793,0.0420109,734,1345,1.96105,1.72449
-483,-321,1.86029,-1.17114,0.0343882,-0.0251798,0.0321546,0.0484335,-0.0392251,0.411826,0.0507027,0.0433288,741,1345,1.86026,1.17117
-476,-321,1.68091,-0.718018,0.0394187,-0.0323892,0.0386911,0.0562982,-0.0492687,0.411372,0.0609941,0.0435446,748,1345,1.68093,0.718035
-469,-321,1.57684,-0.348877,0.0456916,-0.0427749,0.0445627,0.064247,-0.0613303,0.394554,0.0725086,0.0425473,755,1345,1.57686,0.348823
-462,-321,1.52026,-0.318359,0,0,0,0,0,0,0,-1,762,1345,1.52027,0.318396
-455,-321,0,0,0,0,0,0,0,0,0,-1,769,1345,0,0
-448,-321,0,0,0,0,0,0,0,0,0,-1,776,1345,0,0
-441,-321,0,0,0,0,0,0,0,0,0,-1,783,1345,0,0
-434,-321,0,0,0,0,0,0,0,0,0,-1,790,1345,0,0
-427,-321,0,0,0,0,0,0,0,0,0,-1,797,1345,0,0
-420,-321,0,0,0,0,0,0,0,0,0,-1,804,1345,0,0
-413,-321,0,0,0,0,0,0,0,0,0,-1,811,1345,0,0
-406,-321,0,0,0,0,0,0,0,0,0,-1,818,1345,0,0
-399,-321,0,0,0,0,0,0,0,0,0,-1,825,1345,0,0
-392,-321,0,0,0,0,0,0,0,0,0,-1,832,1345,0,0
-385,-321,0,0,0,0,0,0,0,0,0,-1,839,1345,0,0
-378,-321,0,0,0,0,0,0,0,0,0,-1,846,1345,0,0
-371,-321,0,0,0,0,0,0,0,0,0,-1,853,1345,0,0
-364,-321,0,0,0,0,0,0,0,0,0,-1,860,1345,0,0
-357,-321,0,0,0,0,0,0,0,0,0,-1,867,1345,0,0
-350,-321,0,0,0,0,0,0,0,0,0,-1,874,1345,0,0
-343,-321,0,0,0,0,0,0,0,0,0,-1,881,1345,0,0
-336,-321,0,0,0,0,0,0,0,0,0,-1,888,1345,0,0
-329,-321,0,0,0,0,0,0,0,0,0,-1,895,1345,0,0
-322,-321,0,0,0,0,0,0,0,0,0,-1,902,1345,0,0
-315,-321,0,0,0,0,0,0,0,0,0,-1,909,1345,0,0
-308,-321,0,0,0,0,0,0,0,0,0,-1,916,1345,0,0
-301,-321,0,0,0,0,0,0,0,0,0,-1,923,1345,0,0
-294,-321,0,0,0,0,0,0,0,0,0,-1,930,1345,0,0
-287,-321,0,0,0,0,0,0,0,0,0,-1,937,1345,0,0
-280,-321,0,0,0,0,0,0,0,0,0,-1,944,1345,0,0
-273,-321,0,0,0,0,0,0,0,0,0,-1,951,1345,0,0
-266,-321,0,0,0,0,0,0,0,0,0,-1,958,1345,0,0
-259,-321,0,0,0,0,0,0,0,0,0,-1,965,1345,0,0
-252,-321,0,0,0,0,0,0,0,0,0,-1,972,1345,0,0
-245,-321,0,0,0,0,0,0,0,0,0,-1,979,1345,0,0
-238,-321,0,0,0,0,0,0,0,0,0,-1,986,1345,0,0
-231,-321,0,0,0,0,0,0,0,0,0,-1,993,1345,0,0
-224,-321,0,0,0,0,0,0,0,0,0,-1,1000,1345,0,0
-217,-321,0,0,0,0,0,0,0,0,0,-1,1007,1345,0,0
-210,-321,0,0,0,0,0,0,0,0,0,-1,1014,1345,0,0
-203,-321,0,0,0,0,0,0,0,0,0,-1,1021,1345,0,0
-196,-321,0,0,0,0,0,0,0,0,0,-1,1028,1345,0,0
-189,-321,0,0,0,0,0,0,0,0,0,-1,1035,1345,0,0
-182,-321,0,0,0,0,0,0,0,0,0,-1,1042,1345,0,0
-175,-321,0,0,0,0,0,0,0,0,0,-1,1049,1345,0,0
-168,-321,0,0,0,0,0,0,0,0,0,-1,1056,1345,0,0
-161,-321,0,0,0,0,0,0,0,0,0,-1,1063,1345,0,0
-154,-321,0,0,0,0,0,0,0,0,0,-1,1070,1345,0,0
-147,-321,0,0,0,0,0,0,0,0,0,-1,1077,1345,0,0
-140,-321,0,0,0,0,0,0,0,0,0,-1,1084,1345,0,0
-133,-321,0,0,0,0,0,0,0,0,0,-1,1091,1345,0,0
-126,-321,0,0,0,0,0,0,0,0,0,-1,1098,1345,0,0
-119,-321,0,0,0,0,0,0,0,0,0,-1,1105,1345,0,0
-112,-321,0,0,0,0,0,0,0,0,0,-1,1112,1345,0,0
-105,-321,0,0,0,0,0,0,0,0,0,-1,1119,1345,0,0
-98,-321,0,0,0,0,0,0,0,0,0,-1,1126,1345,0,0
-91,-321,0,0,0,0,0,0,0,0,0,-1,1133,1345,0,0
-84,-321,0,0,0,0,0,0,0,0,0,-1,1140,1345,0,0
-77,-321,0,0,0,0,0,0,0,0,0,-1,1147,1345,0,0
-70,-321,0,0,0,0,0,0,0,0,0,-1,1154,1345,0,0
-63,-321,0,0,0,0,0,0,0,0,0,-1,1161,1345,0,0
-56,-321,0,0,0,0,0,0,0,0,0,-1,1168,1345,0,0
-49,-321,0,0,0,0,0,0,0,0,0,-1,1175,1345,0,0
-42,-321,0,0,0,0,0,0,0,0,0,-1,1182,1345,0,0
-35,-321,0,0,0,0,0,0,0,0,0,-1,1189,1345,0,0
-28,-321,0,0,0,0,0,0,0,0,0,-1,1196,1345,0,0
-21,-321,0,0,0,0,0,0,0,0,0,-1,1203,1345,0,0
-14,-321,0,0,0,0,0,0,0,0,0,-1,1210,1345,0,0
-7,-321,0,0,0,0,0,0,0,0,0,-1,1217,1345,0,0
0,-321,0,0,0,0,0,0,0,0,0,-1,1224,1345,0,0
7,-321,0,0,0,0,0,0,0,0,0,-1,1231,1345,0,0
14,-321,0,0,0,0,0,0,0,0,0,-1,1238,1345,0,0
21,-321,0,0,0,0,0,0,0,0,0,-1,1245,1345,0,0
28,-321,0,0,0,0,0,0,0,0,0,-1,1252,1345,0,0
35,-321,0,0,0,0,0,0,0,0,0,-1,1259,1345,0,0
42,-321,0,0,0,0,0,0,0,0,0,-1,1266,1345,0,0
49,-321,0,0,0,0,0,0,0,0,0,-1,1273,1345,0,0
56,-321,0,0,0,0,0,0,0,0,0,-1,1280,1345,0,0
63,-321,0,0,0,0,0,0,0,0,0,-1,1287,1345,0,0
70,-321,0,0,0,0,0,0,0,0,0,-1,1294,1345,0,0
77,-321,0,0,0,0,0,0,0,0,0,-1,1301,1345,0,0
84,-321,0,0,0,0,0,0,0,0,0,-1,1308,1345,0,0
91,-321,0,0,0,0,0,0,0,0,0,-1,1315,1345,0,0
98,-321,0,0,0,0,0,0,0,0,0,-1,1322,1345,0,0
105,-321,0,0,0,0,0,0,0,0,0,-1,1329,1345,0,0
112,-321,0,0,0,0,0,0,0,0,0,-1,1336,1345,0,0
119,-321,0,0,0,0,0,0,0,0,0,-1,1343,1345,0,0
126,-321,0,0,0,0,0,0,0,0,0,-1,1350,1345,0,0
133,-321,0,0,0,0,0,0,0,0,0,-1,1357,1345,0,0
140,-321,0,0,0,0,0,0,0,0,0,-1,1364,1345,0,0
147,-321,0,0,0,0,0,0,0,0,0,-1,1371,1345,0,0
154,-321,0,0,0,0,0,0,0,0,0,-1,1378,1345,0,0
161,-321,0,0,0,0,0,0,0,0,0,-1,1385,1345,0,0
168,-321,0,0,0,0,0,0,0,0,0,-1,1392,1345,0,0
175,-321,0,0,0,0,0,0,0,0,0,-1,1399,1345,0,0
182,-321,0,0,0,0,0,0,0,0,0,-1,1406,1345,0,0
189,-321,0,0,0,0,0,0,0,0,0,-1,1413,1345,0,0
196,-321,0,0,0,0,0,0,0,0,0,-1,1420,1345,0,0
203,-321,0,0,0,0,0,0,0,0,0,-1,1427,1345,0,0
210,-321,0,0,0,0,0,0,0,0,0,-1,1434,1345,0,0
217,-321,0,0,0,0,0,0,0,0,0,-1,1441,1345,0,0
224,-321,0,0,0,0,0,0,0,0,0,-1,1448,1345,0,0
231,-321,0,0,0,0,0,0,0,0,0,-1,1455,1345,0,0
238,-321,0,0,0,0,0,0,0,0,0,-1,1462,1345,0,0
245,-321,0,0,0,0,0,0,0,0,0,-1,1469,1345,0,0
252,-321,0,0,0,0,0,0,0,0,0,-1,1476,1345,0,0
259,-321,0,0,0,0,0,0,0,0,0,-1,1483,1345,0,0
266,-321,0,0,0,0,0,0,0,0,0,-1,1490,1345,0,0
273,-321,0,0,0,0,0,0,0,0,0,-1,1497,1345,0,0
280,-321,0,0,0,0,0,0,0,0,0,-1,1504,1345,0,0
287,-321,0,0,0,0,0,0,0,0,0,-1,1511,1345,0,0
294,-321,0,0,0,0,0,0,0,0,0,-1,1518,1345,0,0
301,-321,0,0,0,0,0,0,0,0,0,-1,1525,1345,0,0
308,-321,0,0,0,0,0,0,0,0,0,-1,1532,1345,0,0
315,-321,0,0,0,0,0,0,0,0,0,-1,1539,1345,0,0
322,-321,0,0,0,0,0,0,0,0,0,-1,1546,1345,0,0
329,-321,0,0,0,0,0,0,0,0,0,-1,1553,1345,0,0
336,-321,0,0,0,0,0,0,0,0,0,-1,1560,1345,0,0
343,-321,0,0,0,0,0,0,0,0,0,-1,1567,1345,0,0
350,-321,0,0,0,0,0,0,0,0,0,-1,1574,1345,0,0
357,-321,0,0,0,0,0,0,0,0,0,-1,1581,1345,0,0
364,-321,0,0,0,0,0,0,0,0,0,-1,1588,1345,0,0
371,-321,0,0,0,0,0,0,0,0,0,-1,1595,1345,0,0
378,-321,0,0,0,0,0,0,0,0,0,-1,1602,1345,0,0
385,-321,0,0,0,0,0,0,0,0,0,-1,1609,1345,0,0
392,-321,0,0,0,0,0,0,0,0,0,-1,1616,1345,0,0
399,-321,0,0,0,0,0,0,0,0,0,-1,1623,1345,0,0
406,-321,0,0,0,0,0,0,0,0,0,-1,1630,1345,0,0
413,-321,0,0,0,0,0,0,0,0,0,-1,1637,1345,0,0
420,-321,0,0,0,0,0,0,0,0,0,-1,1644,1345,0,0
427,-321,0,0,0,0,0,0,0,0,0,-1,1651,1345,0,0
434,-321,0,0,0,0,0,0,0,0,0,-1,1658,1345,0,0
441,-321,0,0,0,0,0,0,0,0,0,-1,1665,1345,0,0
448,-321,0,0,0,0,0,0,0,0,0,-1,1672,1345,0,0
455,-321,0,0,0,0,0,0,0,0,0,-1,1679,1345,0,0
462,-321,0,0,0,0,0,0,0,0,0,-1,1686,1345,0,0
469,-321,0,0,0,0,0,0,0,0,0,-1,1693,1345,0,0
476,-321,0,0,0,0,0,0,0,0,0,-1,1700,1345,0,0
483,-321,0,0,0,0,0,0,0,0,0,-1,1707,1345,0,0
490,-321,0,0,0,0,0,0,0,0,0,-1,1714,1345,0,0
497,-321,0,0,0,0,0,0,0,0,0,-1,1721,1345,0,0
504,-321,0,0,0,0,0,0,0,0,0,-1,1728,1345,0,0
511,-321,0,0,0,0,0,0,0,0,0,-1,1735,1345,0,0
518,-321,0,0,0,0,0,0,0,0,0,-1,1742,1345,0,0
525,-321,0,0,0,0,0,0,0,0,0,-1,1749,1345,0,0
532,-321,0,0,0,0,0,0,0,0,0,-1,1756,1345,0,0
539,-321,0,0,0,0,0,0,0,0,0,-1,1763,1345,0,0
546,-321,0,0,0,0,0,0,0,0,0,-1,1770,1345,0,0
553,-321,0,0,0,0,0,0,0,0,0,-1,1777,1345,0,0
560,-321,0,0,0,0,0,0,0,0,0,-1,1784,1345,0,0
567,-321,0,0,0,0,0,0,0,0,0,-1,1791,1345,0,0
574,-321,0,0,0,0,0,0,0,0,0,-1,1798,1345,0,0
581,-321,3.02747,0.353149,-0.00455793,-0.00760331,0.0142379,0.0082385,-0.0203997,0.732128,0.017024,0.0445251,1805,1345,3.02749,-0.353175
588,-321,2.72937,0.338135,-0.00552537,-0.0107053,0.0138991,0.00602301,-0.0222536,0.693285,0.0171986,0.0467623,1812,1345,2.72932,-0.338082
595,-321,2.49377,0.281006,-0.00654314,-0.0108733,0.0131602,0.00462889,-0.0220454,0.703869,0.0164583,0.0459928,1819,1345,2.49378,-0.281028
602,-321,2.81604,0.300659,-0.00761137,-0.00931552,0.0120047,0.00357146,-0.0204984,0.749968,0.0149985,0.0438142,1826,1345,2.81601,-0.300654
609,-321,3.02185,0.276489,-0.00830921,-0.00706708,0.010912,0.00324152,-0.0186178,0.813825,0.0136216,0.0442477,1833,1345,3.02185,-0.276492
616,-321,0.355347,-0.280762,0,0,0,0,0,0,0,-1,1840,1345,0.355383,0.280726
623,-321,0.320801,-0.262207,-0.0089972,-0.00245041,0.00822815,0.00313157,-0.0145792,0.974715,0.0109141,0.0407397,1847,1345,0.320763,0.262187
630,-321,0.30249,-0.254272,-0.00885918,-0.000366938,0.00693854,0.00352161,-0.0127477,1.05998,0.00988374,0.043212,1854,1345,0.302464,0.254308
637,-321,0.335449,-0.177368,-0.00796522,0.00234595,0.00560401,0.00480515,-0.0104244,1.15727,0.00899009,0.0435696,1861,1345,0.335491,0.177391
644,-321,0.119751,-0.165771,-0.00676297,0.00487387,0.00428439,0.0062811,-0.0081702,1.25344,0.00836719,0.0413562,1868,1345,0.119711,0.165763
651,-321,-0.0291748,-0.0579834,-0.00626687,0.00682239,0.00308261,0.00751203,-0.00695651,1.3507,0.00835547,0.0357979,1875,1345,-0.0291542,0.0579438
658,-321,-0.0577393,-0.0744629,-0.006383,0.00739077,0.00176294,0.00761283,-0.00660506,1.44549,0.00821558,0.0170158,1882,1345,-0.0576927,0.0744194
665,-321,-0.0744629,-0.0601807,-0.00501116,0.00657773,0.000714335,0.0066216,-0.00505503,1.50947,0.0067617,0.0137389,1889,1345,-0.0744073,0.060224
672,-321,-0.0673828,-0.0432129,-0.00338902,0.00552209,0.000155176,0.00552479,-0.00339172,1.55339,0.00519682,0.0114593,1896,1345,-0.067331,0.0432403
679,-321,-0.0762939,-0.0496826,-0.00210499,0.0044398,-0.000272202,0.0044511,-0.00211629,-1.5293,0.00387073,0.00967162,1903,1345,-0.0763077,0.0496321
686,-321,-0.0925293,-0.0594482,-0.000759606,0.0032995,-0.000647339,0.00340024,-0.000860343,-1.41642,0.00260147,0.0106294,1910,1345,-0.0925735,0.0594588
693,-321,-0.0881348,-0.0632324,0.000425278,0.00173864,-0.000918106,0.00221074,-4.68235e-05,-1.09584,0.00148968,0.0112856,1917,1345,-0.0881054,0.0632076
700,-321,-0.0760498,-0.0806885,0.00180705,0.000227277,-0.00101045,0.00229972,-0.000265387,-0.453652,0.00162883,0.0107336,1924,1345,-0.0761038,0.0806918
707,-321,-0.0737305,-0.0699463,0.00310456,-0.000778487,-0.000802747,0.00326397,-0.000937896,-0.196029,0.00254684,0.0115481,1931,1345,-0.0737178,0.0699078
714,-321,-0.0888672,-0.0535889,0.00420686,-0.0013949,-0.000936939,0.00435942,-0.00154746,-0.161407,0.0035368,0.0105195,1938,1345,-0.0888391,0.0535386
721,-321,-0.0974121,-0.0616455,0.00550459,-0.00194784,-0.0011943,0.00569131,-0.00213455,-0.155084,0.00467122,0.013359,1945,1345,-0.0974258,0.0616155
728,-321,-0.0928955,-0.11084,0,0,0,0,0,0,0,-1,1952,1345,-0.0928576,0.110898
735,-321,0.157593,-0.415283,0.00797571,-0.0031668,-0.00196224,0.00831117,-0.00350226,-0.16932,0.00700633,0.0421393,1959,1345,0.157614,0.41524
742,-321,0.518555,-0.536865,0,0,0,0,0,0,0,-1,1966,1345,0.518616,0.536852
749,-321,0.421875,-0.263306,0.0091205,-0.00461712,-0.00271575,0.00963788,-0.00513451,-0.188256,0.00865994,0.0431349,1973,1345,0.421833,0.263326
756,-321,0.30188,-0.0668945,0.00835955,-0.00542352,-0.00288358,0.00893851,-0.00600248,-0.198143,0.00868152,0.0406596,1980,1345,0.301862,0.0668669
763,-321,0.166504,0.152588,0.0057084,-0.00628134,-0.00269071,0.00628456,-0.0068575,-0.210943,0.00758997,0.0428499,1987,1345,0.166546,-0.152599
770,-321,0,0,0,0,0,0,0,0,0,-1,1994,1345,0,0
777,-321,0,0,0,0,0,0,0,0,0,-1,2001,1345,0,0
784,-321,0,0,0,0,0,0,0,0,0,-1,2008,1345,0,0
791,-321,0,0,0,0,0,0,0,0,0,-1,2015,1345,0,0
798,-321,0,0,0,0,0,0,0,0,0,-1,2022,1345,0,0
805,-321,0,0,0,0,0,0,0,0,0,-1,2029,1345,0,0
812,-321,0,0,0,0,0,0,0,0,0,-1,2036,1345,0,0
-700,-328,0,0,0,0,0,0,0,0,0,-1,524,1352,0,0
-693,-328,0,0,0,0,0,0,0,0,0,-1,531,1352,0,0
-686,-328,0,0,0,0,0,0,0,0,0,-1,538,1352,0,0
-679,-328,0,0,0,0,0,0,0,0,0,-1,545,1352,0,0
-672,-328,0,0,0,0,0,0,0,0,0,-1,552,1352,0,0
-665,-328,0,0,0,0,0,0,0,0,0,-1,559,1352,0,0
-658,-328,0,0,0,0,0,0,0,0,0,-1,566,1352,0,0
-651,-328,0,0,0,0,0,0,0,0,0,-1,573,1352,0,0
-644,-328,0,0,0,0,0,0,0,0,0,-1,580,1352,0,0
-637,-328,-0.282288,3.89404,0,0,0,0,0,0,0,-1,587,1352,-0.282261,-3.89409
-630,-328,-0.680664,1.63892,0.0370979,0.0166018,-0.0161733,0.0459966,0.00770312,-0.503003,0.0284465,0.0451288,594,1352,-0.680685,-1.63893
-623,-328,-0.699585,0.61792,0.0298845,0.0119561,-0.0147414,0.0381733,0.00366729,-0.512223,0.0243188,0.0443359,601,1352,-0.699608,-0.617949
-616,-328,-0.666382,-0.284424,0.0234643,0.00844696,-0.0127302,0.0307353,0.00117598,-0.518943,0.0201097,0.0444396,608,1352,-0.666386,0.284464
-609,-328,0.0360107,-0.776611,0.017961,0.00583977,-0.0105597,0.0240758,-0.000274953,-0.52488,0.0161429,0.0430382,615,1352,0.0360171,0.776552
-602,-328,0.012146,0.555176,0,0,0,0,0,0,0,-1,622,1352,0.0121293,-0.555169
-595,-328,-0.102173,-0.0626221,0.0094853,0.00266074,-0.00663751,0.0135363,-0.00139024,-0.54797,0.00952149,0.040192,629,1352,-0.102188,0.0626172
-588,-328,-0.0839233,-0.0600586,0.00651821,0.00182149,-0.0049374,0.00963727,-0.00129757,-0.563419,0.00689817,0.0220984,636,1352,-0.0838937,0.0600752
-581,-328,-0.0723267,-0.0483398,0.0041874,0.00143016,-0.00341266,0.00648938,-0.00087182,-0.593435,0.00464422,0.0113762,643,1352,-0.0723258,0.0483123
-574,-328,-0.0732422,-0.0551758,0.00269712,0.000411078,-0.00260169,0.00439581,-0.00128761,-0.578422,0.003441,0.013612,650,1352,-0.0732308,0.0551868
-567,-328,-0.0432739,-0.0563965,0.00155897,-0.000428765,-0.00166079,0.00250056,-0.00137035,-0.515765,0.0022664,0.018509,657,1352,-0.0432743,0.0563831
-560,-328,-0.0280151,-0.0457764,0.00130471,-0.000911746,-0.00130586,0.00190922,-0.00151625,-0.433542,0.00198203,0.0255502,664,1352,-0.0280242,0.0457495
-553,-328,-0.0991821,-0.0211182,0.00219555,-0.000880127,-0.00147201,0.00278651,-0.00147108,-0.381766,0.00249692,0.0261589,671,1352,-0.0991984,0.0210834
-546,-328,-0.146667,-0.0643311,0.00383697,-0.00177861,-0.000915479,0.00398245,-0.00192409,-0.15759,0.00347848,0.0229935,678,1352,-0.146674,0.0643516
-539,-328,-0.108215,-0.0926514,0.00562742,-0.00361494,0.000207817,0.00563209,-0.00361961,0.0224702,0.00538343,0.0204077,685,1352,-0.108201,0.0926123
-532,-328,-0.0795288,-0.0708008,0.00773348,-0.00475835,0.0018362,0.00799779,-0.00502267,0.142964,0.0075825,0.0144754,692,1352,-0.0795529,0.0708133
-525,-328,-0.074585,-0.0665283,0.00994148,-0.00634635,0.00405353,0.0108945,-0.00729938,0.230918,0.0105724,0.00943229,699,1352,-0.0746148,0.066535
-518,-328,-0.0670166,-0.0780029,0.012417,-0.00806201,0.00694702,0.0145512,-0.0101962,0.298059,0.0143615,0.0229073,706,1352,-0.0669975,0.0779744
-511,-328,-0.0744629,-0.0688477,0.0148391,-0.0109597,0.010459,0.0185465,-0.014667,0.340649,0.0192194,0.0358522,713,1352,-0.0744912,0.0688482
-504,-328,1.28583,-2.27881,0,0,0,0,0,0,0,-1,720,1352,1.28581,2.27879
-497,-328,1.14655,-1.92346,0.02168,-0.0188673,0.0205523,0.0302754,-0.0274627,0.396111,0.0333483,0.0438897,727,1352,1.14656,1.92349
-490,-328,1.10974,-1.59802,0.0253724,-0.0231809,0.0260624,0.0367132,-0.0345217,0.410429,0.041134,0.0443093,734,1352,1.10974,1.59796
-483,-328,0.975342,-1.28174,0.0295202,-0.0283896,0.0315842,0.0434133,-0.0422827,0.414402,0.049478,0.0478493,741,1352,0.975359,1.28173
-476,-328,0.985413,-0.894165,0.0344529,-0.0357303,0.0375819,0.0507794,-0.0520568,0.409826,0.059374,0.0460419,748,1352,0.985422,0.894171
-469,-328,1.01837,-0.550293,0.0405806,-0.0454808,0.0430011,0.0583835,-0.0632837,0.392527,0.0702636,0.0477451,755,1352,1.01835,0.550288
-462,-328,1.02264,-0.166016,0,0,0,0,0,0,0,-1,762,1352,1.02267,0.165972
-455,-328,0,0,0,0,0,0,0,0,0,-1,769,1352,0,0
-448,-328,0,0,0,0,0,0,0,0,0,-1,776,1352,0,0
-441,-328,0,0,0,0,0,0,0,0,0,-1,783,1352,0,0
-434,-328,0,0,0,0,0,0,0,0,0,-1,790,1352,0,0
-427,-328,0,0,0,0,0,0,0,0,0,-1,797,1352,0,0
-420,-328,0,0,0,0,0,0,0,0,0,-1,804,1352,0,0
-413,-328,0,0,0,0,0,0,0,0,0,-1,811,1352,0,0
-406,-328,0,0,0,0,0,0,0,0,0,-1,818,1352,0,0
-399,-328,0,0,0,0,0,0,0,0,0,-1,825,1352,0,0
-392,-328,0,0,0,0,0,0,0,0,0,-1,832,1352,0,0
-385,-328,0,0,0,0,0,0,0,0,0,-1,839,1352,0,0
-378,-328,0,0,0,0,0,0,0,0,0,-1,846,1352,0,0
-371,-328,0,0,0,0,0,0,0,0,0,-1,853,1352,0,0
-364,-328,0,0,0,0,0,0,0,0,0,-1,860,1352,0,0
-357,-328,0,0,0,0,0,0,0,0,0,-1,867,1352,0,0
-350,-328,0,0,0,0,0,0,0,0,0,-1,874,1352,0,0
-343,-328,0,0,0,0,0,0,0,0,0,-1,881,1352,0,0
-336,-328,0,0,0,0,0,0,0,0,0,-1,888,1352,0,0
-329,-328,0,0,0,0,0,0,0,0,0,-1,895,1352,0,0
-322,-328,0,0,0,0,0,0,0,0,0,-1,902,1352,0,0
-315,-328,0,0,0,0,0,0,0,0,0,-1,909,1352,0,0
-308,-328,0,0,0,0,0,0,0,0,0,-1,916,1352,0,0
-301,-328,0,0,0,0,0,0,0,0,0,-1,923,1352,0,0
-294,-328,0,0,0,0,0,0,0,0,0,-1,930,1352,0,0
-287,-328,0,0,0,0,0,0,0,0,0,-1,937,1352,0,0
-280,-328,0,0,0,0,0,0,0,0,0,-1,944,1352,0,0
-273,-328,0,0,0,0,0,0,0,0,0,-1,951,1352,0,0
-266,-328,0,0,0,0,0,0,0,0,0,-1,958,1352,0,0
-259,-328,0,0,0,0,0,0,0,0,0,-1,965,1352,0,0
-252,-328,0,0,0,0,0,0,0,0,0,-1,972,1352,0,0
-245,-328,0,0,0,0,0,0,0,0,0,-1,979,1352,0,0
-238,-328,0,0,0,0,0,0,0,0,0,-1,986,1352,0,0
-231,-328,0,0,0,0,0,0,0,0,0,-1,993,1352,0,0
-224,-328,0,0,0,0,0,0,0,0,0,-1,1000,1352,0,0
-217,-328,0,0,0,0,0,0,0,0,0,-1,1007,1352,0,0
-210,-328,0,0,0,0,0,0,0,0,0,-1,1014,1352,0,0
-203,-328,0,0,0,0,0,0,0,0,0,-1,1021,1352,0,0
-196,-328,0,0,0,0,0,0,0,0,0,-1,1028,1352,0,0
-189,-328,0,0,0,0,0,0,0,0,0,-1,1035,1352,0,0
-182,-328,0,0,0,0,0,0,0,0,0,-1,1042,1352,0,0
-175,-328,0,0,0,0,0,0,0,0,0,-1,1049,1352,0,0
-168,-328,0,0,0,0,0,0,0,0,0,-1,1056,1352,0,0
-161,-328,0,0,0,0,0,0,0,0,0,-1,1063,1352,0,0
-154,-328,0,0,0,0,0,0,0,0,0,-1,1070,1352,0,0
-147,-328,0,0,0,0,0,0,0,0,0,-1,1077,1352,0,0
-140,-328,0,0,0,0,0,0,0,0,0,-1,1084,1352,0,0
-133,-328,0,0,0,0,0,0,0,0,0,-1,1091,1352,0,0
-126,-328,0,0,0,0,0,0,0,0,0,-1,1098,1352,0,0
-119,-328,0,0,0,0,0,0,0,0,0,-1,1105,1352,0,0
-112,-328,0,0,0,0,0,0,0,0,0,-1,1112,1352,0,0
-105,-328,0,0,0,0,0,0,0,0,0,-1,1119,1352,0,0
-98,-328,0,0,0,0,0,0,0,0,0,-1,1126,1352,0,0
-91,-328,0,0,0,0,0,0,0,0,0,-1,1133,1352,0,0
-84,-328,0,0,0,0,0,0,0,0,0,-1,1140,1352,0,0
-77,-328,0,0,0,0,0,0,0,0,0,-1,1147,1352,0,0
-70,-328,0,0,0,0,0,0,0,0,0,-1,1154,1352,0,0
-63,-328,0,0,0,0,0,0,0,0,0,-1,1161,1352,0,0
-56,-328,0,0,0,0,0,0,0,0,0,-1,1168,1352,0,0
-49,-328,0,0,0,0,0,0,0,0,0,-1,1175,1352,0,0
-42,-328,0,0,0,0,0,0,0,0,0,-1,1182,1352,0,0
-35,-328,0,0,0,0,0,0,0,0,0,-1,1189,1352,0,0
-28,-328,0,0,0,0,0,0,0,0,0,-1,1196,1352,0,0
-21,-328,0,0,0,0,0,0,0,0,0,-1,1203,1352,0,0
-14,-328,0,0,0,0,0,0,0,0,0,-1,1210,1352,0,0
-7,-328,0,0,0,0,0,0,0,0,0,-1,1217,1352,0,0
0,-328,0,0,0,0,0,0,0,0,0,-1,1224,1352,0,0
7,-328,0,0,0,0,0,0,0,0,0,-1,1231,1352,0,0
14,-328,0,0,0,0,0,0,0,0,0,-1,1238,1352,0,0
21,-328,0,0,0,0,0,0,0,0,0,-1,1245,1352,0,0
28,-328,0,0,0,0,0,0,0,0,0,-1,1252,1352,0,0
35,-328,0,0,0,0,0,0,0,0,0,-1,1259,1352,0,0
42,-328,0,0,0,0,0,0,0,0,0,-1,1266,1352,0,0
49,-328,0,0,0,0,0,0,0,0,0,-1,1273,1352,0,0
56,-328,0,0,0,0,0,0,0,0,0,-1,1280,1352,0,0
63,-328,0,0,0,0,0,0,0,0,0,-1,1287,1352,0,0
70,-328,0,0,0,0,0,0,0,0,0,-1,1294,1352,0,0
77,-328,0,0,0,0,0,0,0,0,0,-1,1301,1352,0,0
84,-328,0,0,0,0,0,0,0,0,0,-1,1308,1352,0,0
91,-328,0,0,0,0,0,0,0,0,0,-1,1315,1352,0,0
98,-328,0,0,0,0,0,0,0,0,0,-1,1322,1352,0,0
105,-328,0,0,0,0,0,0,0,0,0,-1,1329,1352,0,0
112,-328,0,0,0,0,0,0,0,0,0,-1,1336,1352,0,0
119,-328,0,0,0,0,0,0,0,0,0,-1,1343,1352,0,0
126,-328,0,0,0,0,0,0,0,0,0,-1,1350,1352,0,0
133,-328,0,0,0,0,0,0,0,0,0,-1,1357,1352,0,0
140,-328,0,0,0,0,0,0,0,0,0,-1,1364,1352,0,0
147,-328,0,0,0,0,0,0,0,0,0,-1,1371,1352,0,0
154,-328,0,0,0,0,0,0,0,0,0,-1,1378,1352,0,0
161,-328,0,0,0,0,0,0,0,0,0,-1,1385,1352,0,0
168,-328,0,0,0,0,0,0,0,0,0,-1,1392,1352,0,0
175,-328,0,0,0,0,0,0,0,0,0,-1,1399,1352,0,0
182,-328,0,0,0,0,0,0,0,0,0,-1,1406,1352,0,0
189,-328,0,0,0,0,0,0,0,0,0,-1,1413,1352,0,0
196,-328,0,0,0,0,0,0,0,0,0,-1,1420,1352,0,0
203,-328,0,0,0,0,0,0,0,0,0,-1,1427,1352,0,0
210,-328,0,0,0,0,0,0,0,0,0,-1,1434,1352,0,0
217,-328,0,0,0,0,0,0,0,0,0,-1,1441,1352,0,0
224,-328,0,0,0,0,0,0,0,0,0,-1,1448,1352,0,0
231,-328,0,0,0,0,0,0,0,0,0,-1,1455,1352,0,0
238,-328,0,0,0,0,0,0,0,0,0,-1,1462,1352,0,0
245,-328,0,0,0,0,0,0,0,0,0,-1,1469,1352,0,0
252,-328,0,0,0,0,0,0,0,0,0,-1,1476,1352,0,0
259,-328,0,0,0,0,0,0,0,0,0,-1,1483,1352,0,0
266,-328,0,0,0,0,0,0,0,0,0,-1,1490,1352,0,0
273,-328,0,0,0,0,0,0,0,0,0,-1,1497,1352,0,0
280,-328,0,0,0,0,0,0,0,0,0,-1,1504,1352,0,0
287,-328,0,0,0,0,0,0,0,0,0,-1,1511,1352,0,0
294,-328,0,0,0,0,0,0,0,0,0,-1,1518,1352,0,0
301,-328,0,0,0,0,0,0,0,0,0,-1,1525,1352,0,0
308,-328,0,0,0,0,0,0,0,0,0,-1,1532,1352,0,0
315,-328,0,0,0,0,0,0,0,0,0,-1,1539,1352,0,0
322,-328,0,0,0,0,0,0,0,0,0,-1,1546,1352,0,0
329,-328,0,0,0,0,0,0,0,0,0,-1,1553,1352,0,0
336,-328,0,0,0,0,0,0,0,0,0,-1,1560,1352,0,0
343,-328,0,0,0,0,0,0,0,0,0,-1,1567,1352,0,0
350,-328,0,0,0,0,0,0,0,0,0,-1,1574,1352,0,0
357,-328,0,0,0,0,0,0,0,0,0,-1,1581,1352,0,0
364,-328,0,0,0,0,0,0,0,0,0,-1,1588,1352,0,0
371,-328,0,0,0,0,0,0,0,0,0,-1,1595,1352,0,0
378,-328,0,0,0,0,0,0,0,0,0,-1,1602,1352,0,0
385,-328,0,0,0,0,0,0,0,0,0,-1,1609,1352,0,0
392,-328,0,0,0,0,0,0,0,0,0,-1,1616,1352,0,0
399,-328,0,0,0,0,0,0,0,0,0,-1,1623,1352,0,0
406,-328,0,0,0,0,0,0,0,0,0,-1,1630,1352,0,0
413,-328,0,0,0,0,0,0,0,0,0,-1,1637,1352,0,0
420,-328,0,0,0,0,0,0,0,0,0,-1,1644,1352,0,0
427,-328,0,0,0,0,0,0,0,0,0,-1,1651,1352,0,0
434,-328,0,0,0,0,0,0,0,0,0,-1,1658,1352,0,0
441,-328,0,0,0,0,0,0,0,0,0,-1,1665,1352,0,0
448,-328,0,0,0,0,0,0,0,0,0,-1,1672,1352,0,0
455,-328,0,0,0,0,0,0,0,0,0,-1,1679,1352,0,0
462,-328,0,0,0,0,0,0,0,0,0,-1,1686,1352,0,0
469,-328,0,0,0,0,0,0,0,0,0,-1,1693,1352,0,0
476,-328,0,0,0,0,0,0,0,0,0,-1,1700,1352,0,0
483,-328,0,0,0,0,0,0,0,0,0,-1,1707,1352,0,0
490,-328,0,0,0,0,0,0,0,0,0,-1,1714,1352,0,0
497,-328,0,0,0,0,0,0,0,0,0,-1,1721,1352,0,0
504,-328,0,0,0,0,0,0,0,0,0,-1,1728,1352,0,0
511,-328,0,0,0,0,0,0,0,0,0,-1,1735,1352,0,0
518,-328,0,0,0,0,0,0,0,0,0,-1,1742,1352,0,0
525,-328,0,0,0,0,0,0,0,0,0,-1,1749,1352,0,0
532,-328,0,0,0,0,0,0,0,0,0,-1,1756,1352,0,0
539,-328,0,0,0,0,0,0,0,0,0,-1,1763,1352,0,0
546,-328,0,0,0,0,0,0,0,0,0,-1,1770,1352,0,0
553,-328,0,0,0,0,0,0,0,0,0,-1,1777,1352,0,0
560,-328,0,0,0,0,0,0,0,0,0,-1,1784,1352,0,0
567,-328,0,0,0,0,0,0,0,0,0,-1,1791,1352,0,0
574,-328,2.75598,1.2146,-0.00662655,0.00344946,0.0196074,0.0186558,-0.0218329,0.91115,0.0234001,0.042601,1798,1352,2.756,-1.21461
581,-328,2.52026,0.642944,-0.00848618,-0.00483934,0.0163164,0.0097552,-0.0230807,0.841044,0.0194712,0.0453024,1805,1352,2.5203,-0.642969
588,-328,2.3175,0.526245,-0.00966993,-0.00886919,0.0145052,0.00524112,-0.0237802,0.799196,0.0178588,0.0491492,1812,1352,2.31747,-0.526203
595,-328,2.12134,0.447388,0,0,0,0,0,0,0,-1,1819,1352,2.12131,-0.447342
602,-328,2.70117,0.855347,-0.0109541,-0.00908621,0.0114648,0.00148265,-0.021523,0.826039,0.0148675,0.0456926,1826,1352,2.70122,-0.85533
609,-328,2.38599,0.533325,-0.0110501,-0.00747994,0.0101748,0.00106512,-0.0195952,0.872236,0.0134326,0.0496645,1833,1352,2.38599,-0.533281
616,-328,2.13708,1.03064,0,0,0,0,0,0,0,-1,1840,1352,2.13712,-1.0307
623,-328,0.0656738,-0.161011,0,0,0,0,0,0,0,-1,1847,1352,0.0656177,0.161056
630,-328,0.107544,0.00476074,-0.0100315,-0.00206431,0.00633021,0.00143144,-0.0135273,1.06624,0.00953123,0.0481212,1854,1352,0.107524,-0.00479417
637,-328,0.130615,-0.0430908,-0.00870318,0.000432485,0.00515033,0.00274877,-0.0110195,1.14816,0.00841359,0.0461342,1861,1352,0.130615,0.0431101
644,-328,0.0307617,-0.105347,-0.00706652,0.00282501,0.00406574,0.00428165,-0.00852317,1.22677,0.00752684,0.0403574,1868,1352,0.0307043,0.10532
651,-328,-0.0341797,-0.0875244,-0.00608861,0.00481461,0.00322096,0.00569503,-0.00696903,1.30397,0.00732392,0.0252202,1875,1352,-0.0341423,0.0874935
658,-328,-0.0743408,-0.0595703,-0.00586499,0.00546874,0.00209315,0.00584295,-0.00623921,1.39388,0.00697689,0.0137604,1882,1352,-0.0743107,0.0595861
665,-328,-0.0905762,-0.0469971,-0.00449167,0.00497917,0.00114978,0.00511676,-0.00462926,1.4517,0.00562921,0.0128006,1889,1352,-0.0905842,0.0470256
672,-328,-0.0871582,-0.0576172,-0.00291879,0.00424951,0.00064577,0.00430722,-0.0029765,1.48167,0.00422859,0.0107421,1896,1352,-0.0871712,0.0576563
679,-328,-0.0828857,-0.05896,-0.00167526,0.00341386,0.000225757,0.00342385,-0.00168525,1.52655,0.00300613,0.0121168,1903,1352,-0.0828971,0.0589877
686,-328,-0.0961914,-0.0478516,-0.000358249,0.00245351,-0.000182635,0.00246533,-0.000370063,-1.5062,0.00177978,0.0113331,1910,1352,-0.0962096,0.0478669
693,-328,-0.0761719,-0.0510254,0.000839173,0.00124934,-0.000453587,0.00154206,0.000546462,-0.997715,0.000902806,0.00857327,1917,1352,-0.076189,0.0509752
700,-328,-0.0667725,-0.0561523,0.00222805,-1.88335e-05,-0.000636888,0.00239602,-0.000186805,-0.257866,0.00166311,0.0120225,1924,1352,-0.0667459,0.0561422
707,-328,-0.088623,-0.057251,0.00354665,-0.000993185,-0.000539693,0.00360993,-0.00105646,-0.116712,0.0028254,0.013508,1931,1352,-0.0886061,0.0572573
714,-328,-0.100952,-0.059082,0.00475079,-0.00183731,-0.000673919,0.00481902,-0.00190554,-0.100901,0.00400205,0.0110574,1938,1352,-0.101011,0.0591167
721,-328,-0.0955811,-0.076416,0.00622286,-0.0025486,-0.000899804,0.00631421,-0.00263996,-0.101179,0.00531279,0.0181336,1945,1352,-0.0955353,0.076385
728,-328,-0.0473633,-0.0102539,0.00773193,-0.00335005,-0.0011848,0.00785718,-0.0034753,-0.105326,0.00670387,0.0350598,1952,1352,-0.0473731,0.0103054
735,-328,0.213013,-0.232666,0.00912911,-0.0042853,-0.00149805,0.00929436,-0.00445056,-0.109871,0.00809822,0.0467783,1959,1352,0.21296,0.232634
742,-328,0.708374,-0.306274,0,0,0,0,0,0,0,-1,1966,1352,0.708411,0.306239
749,-328,0.46582,-0.0428467,0,0,0,0,0,0,0,-1,1973,1352,0.46581,0.0428977
756,-328,0.28479,0.155518,0,0,0,0,0,0,0,-1,1980,1352,0.284826,-0.155488
763,-328,0,0,0,0,0,0,0,0,0,-1,1987,1352,0,0
770,-328,0,0,0,0,0,0,0,0,0,-1,1994,1352,0,0
777,-328,0,0,0,0,0,0,0,0,0,-1,2001,1352,0,0
784,-328,0,0,0,0,0,0,0,0,0,-1,2008,1352,0,0
791,-328,0,0,0,0,0,0,0,0,0,-1,2015,1352,0,0
798,-328,0,0,0,0,0,0,0,0,0,-1,2022,1352,0,0
805,-328,0,0,0,0,0,0,0,0,0,-1,2029,1352,0,0
812,-328,0,0,0,0,0,0,0,0,0,-1,2036,1352,0,0
-700,-335,0,0,0,0,0,0,0,0,0,-1,524,1359,0,0
-693,-335,0,0,0,0,0,0,0,0,0,-1,531,1359,0,0
-686,-335,0,0,0,0,0,0,0,0,0,-1,538,1359,0,0
-679,-335,0,0,0,0,0,0,0,0,0,-1,545,1359,0,0
-672,-335,0,0,0,0,0,0,0,0,0,-1,552,1359,0,0
-665,-335,0,0,0,0,0,0,0,0,0,-1,559,1359,0,0
-658,-335,0,0,0,0,0,0,0,0,0,-1,566,1359,0,0
-651,-335,0,0,0,0,0,0,0,0,0,-1,573,1359,0,0
-644,-335,0,0,0,0,0,0,0,0,0,-1,580,1359,0,0
-637,-335,-2.67352,-1.23816,0.0485874,0.0263207,-0.0239939,0.0639052,0.011003,-0.568177,0.0394506,0.0460831,587,1359,-2.67355,1.23818
-630,-335,-1.6347,-0.72876,0.0390654,0.0186189,-0.0207602,0.051983,0.00570122,-0.556606,0.0329199,0.048771,594,1359,-1.63472,0.728797
-623,-335,-0.8349,-0.233765,0.0307487,0.0133722,-0.0177598,0.0418315,0.00228937,-0.557909,0.0271567,0.0464656,601,1359,-0.834888,0.233788
-616,-335,-0.331787,-0.178589,0.0236173,0.00965197,-0.0147753,0.0329768,0.00029248,-0.564657,0.0218877,0.0428562,608,1359,-0.331758,0.178622
-609,-335,0.119141,-0.306274,0.0177323,0.00697239,-0.0120084,0.0255108,-0.000806125,-0.574797,0.0172822,0.0489127,615,1359,0.119164,0.306247
-602,-335,-0.0827637,-0.299194,0.0129154,0.00510171,-0.00953633,0.0193142,-0.00129702,-0.590986,0.0133295,0.0462508,622,1359,-0.0827784,0.299198
-595,-335,-0.0665894,-0.108154,0.00909669,0.00381562,-0.00736344,0.0142787,-0.00136642,-0.61324,0.0100058,0.0385828,629,1359,-0.0666182,0.108207
-588,-335,-0.0432739,-0.0423584,0.00618142,0.00292748,-0.00550394,0.0102938,-0.00118492,-0.64169,0.00728969,0.0256876,636,1359,-0.0433029,0.0423623
-581,-335,-0.0563965,-0.0516357,0.00381986,0.00240976,-0.00383931,0.00701832,-0.000788697,-0.69459,0.00496271,0.0119372,643,1359,-0.056419,0.051617
-574,-335,-0.0620728,-0.0441895,0.00233802,0.00124767,-0.00285221,0.00469669,-0.00111099,-0.690966,0.00355973,0.0105049,650,1359,-0.0620534,0.044173
-567,-335,-0.0505981,-0.0372314,0.00128914,0.00046143,-0.00176839,0.00269146,-0.000940884,-0.670452,0.0021768,0.0145052,657,1359,-0.0505688,0.0372317
-560,-335,-0.0432129,-0.0802002,0.000958286,-3.24619e-05,-0.00123758,0.00179595,-0.000870129,-0.595026,0.0015699,0.0221164,664,1359,-0.0431888,0.0801666
-553,-335,-0.0975952,-0.0780029,0.00168691,-0.000130801,-0.00110142,0.00220604,-0.000649932,-0.440449,0.00172856,0.0244365,671,1359,-0.0975908,0.0779598
-546,-335,-0.122559,-0.0511475,0.00309036,-0.00122807,-0.000344378,0.00311765,-0.00125536,-0.0790801,0.00259995,0.021376,678,1359,-0.122538,0.0512019
-539,-335,-0.0717773,-0.057251,0.00452447,-0.00313979,0.000830809,0.0046135,-0.00322881,0.106748,0.00455123,0.0183745,685,1359,-0.0717808,0.0573096
-532,-335,-0.0674438,-0.0415039,0.00614035,-0.00463865,0.00253932,0.00670861,-0.00520691,0.220156,0.00689761,0.0141185,692,1359,-0.067439,0.041474
-525,-335,-0.0701904,-0.0505371,0.00800068,-0.00648235,0.00470592,0.00939544,-0.00787711,0.288136,0.00998515,0.00920854,699,1359,-0.0701822,0.05057
-518,-335,-0.0883179,-0.0679932,0.0101987,-0.0084744,0.00741471,0.0127847,-0.0110605,0.335585,0.013779,0.012185,706,1359,-0.0883343,0.0680085
-511,-335,-0.146057,-0.0469971,0.012265,-0.0117278,0.0106465,0.016308,-0.0157708,0.362927,0.0185216,0.0314861,713,1359,-0.146083,0.0469879
-504,-335,0.870544,-1.6615,0,0,0,0,0,0,0,-1,720,1359,0.870552,1.66152
-497,-335,0.750305,-1.28406,0.0186719,-0.0205391,0.0200968,0.0271423,-0.0290095,0.398886,0.0324253,0.045135,727,1359,0.75032,1.28408
-490,-335,0.830017,-1.01135,0.0223068,-0.0250814,0.0249148,0.0329953,-0.0357698,0.405253,0.0397123,0.0438608,734,1359,0.830003,1.01139
-483,-335,0.213806,-1.25171,0,0,0,0,0,0,0,-1,741,1359,0.213794,1.25175
-476,-335,0.286255,-0.914185,0,0,0,0,0,0,0,-1,748,1359,0.286226,0.914225
-469,-335,0.22583,-0.5802,0,0,0,0,0,0,0,-1,755,1359,0.225803,0.580226
-462,-335,1.09363,-2.88489,0,0,0,0,0,0,0,-1,762,1359,1.09361,2.88489
-455,-335,1.14459,-2.79614,0,0,0,0,0,0,0,-1,769,1359,1.14459,2.79614
-448,-335,0,0,0,0,0,0,0,0,0,-1,776,1359,0,0
-441,-335,0,0,0,0,0,0,0,0,0,-1,783,1359,0,0
-434,-335,0,0,0,0,0,0,0,0,0,-1,790,1359,0,0
-427,-335,0,0,0,0,0,0,0,0,0,-1,797,1359,0,0
-420,-335,0,0,0,0,0,0,0,0,0,-1,804,1359,0,0
-413,-335,0,0,0,0,0,0,0,0,0,-1,811,1359,0,0
-406,-335,0,0,0,0,0,0,0,0,0,-1,818,1359,0,0
-399,-335,0,0,0,0,0,0,0,0,0,-1,825,1359,0,0
-392,-335,0,0,0,0,0,0,0,0,0,-1,832,1359,0,0
-385,-335,0,0,0,0,0,0,0,0,0,-1,839,1359,0,0
-378,-335,0,0,0,0,0,0,0,0,0,-1,846,1359,0,0
-371,-335,0,0,0,0,0,0,0,0,0,-1,853,1359,0,0
-364,-335,0,0,0,0,0,0,0,0,0,-1,860,1359,0,0
-357,-335,0,0,0,0,0,0,0,0,0,-1,867,1359,0,0
-350,-335,0,0,0,0,0,0,0,0,0,-1,874,1359,0,0
-343,-335,0,0,0,0,0,0,0,0,0,-1,881,1359,0,0
-336,-335,0,0,0,0,0,0,0,0,0,-1,888,1359,0,0
-329,-335,0,0,0,0,0,0,0,0,0,-1,895,1359,0,0
-322,-335,0,0,0,0,0,0,0,0,0,-1,902,1359,0,0
-315,-335,0,0,0,0,0,0,0,0,0,-1,909,1359,0,0
-308,-335,0,0,0,0,0,0,0,0,0,-1,916,1359,0,0
-301,-335,0,0,0,0,0,0,0,0,0,-1,923,1359,0,0
-294,-335,0,0,0,0,0,0,0,0,0,-1,930,1359,0,0
-287,-335,0,0,0,0,0,0,0,0,0,-1,937,1359,0,0
-280,-335,0,0,0,0,0,0,0,0,0,-1,944,1359,0,0
-273,-335,0,0,0,0,0,0,0,0,0,-1,951,1359,0,0
-266,-335,0,0,0,0,0,0,0,0,0,-1,958,1359,0,0
-259,-335,0,0,0,0,0,0,0,0,0,-1,965,1359,0,0
-252,-335,0,0,0,0,0,0,0,0,0,-1,972,1359,0,0
-245,-335,0,0,0,0,0,0,0,0,0,-1,979,1359,0,0
-238,-335,0,0,0,0,0,0,0,0,0,-1,986,1359,0,0
-231,-335,0,0,0,0,0,0,0,0,0,-1,993,1359,0,0
-224,-335,0,0,0,0,0,0,0,0,0,-1,1000,1359,0,0
-217,-335,0,0,0,0,0,0,0,0,0,-1,1007,1359,0,0
-210,-335,0,0,0,0,0,0,0,0,0,-1,1014,1359,0,0
-203,-335,0,0,0,0,0,0,0,0,0,-1,1021,1359,0,0
-196,-335,0,0,0,0,0,0,0,0,0,-1,1028,1359,0,0
-189,-335,0,0,0,0,0,0,0,0,0,-1,1035,1359,0,0
-182,-335,0,0,0,0,0,0,0,0,0,-1,1042,1359,0,0
-175,-335,0,0,0,0,0,0,0,0,0,-1,1049,1359,0,0
-168,-335,0,0,0,0,0,0,0,0,0,-1,1056,1359,0,0
-161,-335,0,0,0,0,0,0,0,0,0,-1,1063,1359,0,0
-154,-335,0,0,0,0,0,0,0,0,0,-1,1070,1359,0,0
-147,-335,0,0,0,0,0,0,0,0,0,-1,1077,1359,0,0
-140,-335,0,0,0,0,0,0,0,0,0,-1,1084,1359,0,0
-133,-335,0,0,0,0,0,0,0,0,0,-1,1091,1359,0,0
-126,-335,0,0,0,0,0,0,0,0,0,-1,1098,1359,0,0
-119,-335,0,0,0,0,0,0,0,0,0,-1,1105,1359,0,0
-112,-335,0,0,0,0,0,0,0,0,0,-1,1112,1359,0,0
-105,-335,0,0,0,0,0,0,0,0,0,-1,1119,1359,0,0
-98,-335,0,0,0,0,0,0,0,0,0,-1,1126,1359,0,0
-91,-335,0,0,0,0,0,0,0,0,0,-1,1133,1359,0,0
-84,-335,0,0,0,0,0,0,0,0,0,-1,1140,1359,0,0
-77,-335,0,0,0,0,0,0,0,0,0,-1,1147,1359,0,0
-70,-335,0,0,0,0,0,0,0,0,0,-1,1154,1359,0,0
-63,-335,0,0,0,0,0,0,0,0,0,-1,1161,1359,0,0
-56,-335,0,0,0,0,0,0,0,0,0,-1,1168,1359,0,0
-49,-335,0,0,0,0,0,0,0,0,0,-1,1175,1359,0,0
-42,-335,0,0,0,0,0,0,0,0,0,-1,1182,1359,0,0
-35,-335,0,0,0,0,0,0,0,0,0,-1,1189,1359,0,0
-28,-335,0,0,0,0,0,0,0,0,0,-1,1196,1359,0,0
-21,-335,0,0,0,0,0,0,0,0,0,-1,1203,1359,0,0
-14,-335,0,0,0,0,0,0,0,0,0,-1,1210,1359,0,0
-7,-335,0,0,0,0,0,0,0,0,0,-1,1217,1359,0,0
0,-335,0,0,0,0,0,0,0,0,0,-1,1224,1359,0,0
7,-335,0,0,0,0,0,0,0,0,0,-1,1231,1359,0,0
14,-335,0,0,0,0,0,0,0,0,0,-1,1238,1359,0,0
21,-335,0,0,0,0,0,0,0,0,0,-1,1245,1359,0,0
28,-335,0,0,0,0,0,0,0,0,0,-1,1252,1359,0,0
35,-335,0,0,0,0,0,0,0,0,0,-1,1259,1359,0,0
42,-335,0,0,0,0,0,0,0,0,0,-1,1266,1359,0,0
49,-335,0,0,0,0,0,0,0,0,0,-1,1273,1359,0,0
56,-335,0,0,0,0,0,0,0,0,0,-1,1280,1359,0,0
63,-335,0,0,0,0,0,0,0,0,0,-1,1287,1359,0,0
70,-335,0,0,0,0,0,0,0,0,0,-1,1294,1359,0,0
77,-335,0,0,0,0,0,0,0,0,0,-1,1301,1359,0,0
84,-335,0,0,0,0,0,0,0,0,0,-1,1308,1359,0,0
91,-335,0,0,0,0,0,0,0,0,0,-1,1315,1359,0,0
98,-335,0,0,0,0,0,0,0,0,0,-1,1322,1359,0,0
105,-335,0,0,0,0,0,0,0,0,0,-1,1329,1359,0,0
112,-335,0,0,0,0,0,0,0,0,0,-1,1336,1359,0,0
119,-335,0,0,0,0,0,0,0,0,0,-1,1343,1359,0,0
126,-335,0,0,0,0,0,0,0,0,0,-1,1350,1359,0,0
133,-335,0,0,0,0,0,0,0,0,0,-1,1357,1359,0,0
140,-335,0,0,0,0,0,0,0,0,0,-1,1364,1359,0,0
147,-335,0,0,0,0,0,0,0,0,0,-1,1371,1359,0,0
154,-335,0,0,0,0,0,0,0,0,0,-1,1378,1359,0,0
161,-335,0,0,0,0,0,0,0,0,0,-1,1385,1359,0,0
168,-335,0,0,0,0,0,0,0,0,0,-1,1392,1359,0,0
175,-335,0,0,0,0,0,0,0,0,0,-1,1399,1359,0,0
182,-335,0,0,0,0,0,0,0,0,0,-1,1406,1359,0,0
189,-335,0,0,0,0,0,0,0,0,0,-1,1413,1359,0,0
196,-335,0,0,0,0,0,0,0,0,0,-1,1420,1359,0,0
203,-335,0,0,0,0,0,0,0,0,0,-1,1427,1359,0,0
210,-335,0,0,0,0,0,0,0,0,0,-1,1434,1359,0,0
217,-335,0,0,0,0,0,0,0,0,0,-1,1441,1359,0,0
224,-335,0,0,0,0,0,0,0,0,0,-1,1448,1359,0,0
231,-335,0,0,0,0,0,0,0,0,0,-1,1455,1359,0,0
238,-335,0,0,0,0,0,0,0,0,0,-1,1462,1359,0,0
245,-335,0,0,0,0,0,0,0,0,0,-1,1469,1359,0,0
252,-335,0,0,0,0,0,0,0,0,0,-1,1476,1359,0,0
259,-335,0,0,0,0,0,0,0,0,0,-1,1483,1359,0,0
266,-335,0,0,0,0,0,0,0,0,0,-1,1490,1359,0,0
273,-335,0,0,0,0,0,0,0,0,0,-1,1497,1359,0,0
280,-335,0,0,0,0,0,0,0,0,0,-1,1504,1359,0,0
287,-335,0,0,0,0,0,0,0,0,0,-1,1511,1359,0,0
294,-335,0,0,0,0,0,0,0,0,0,-1,1518,1359,0,0
301,-335,0,0,0,0,0,0,0,0,0,-1,1525,1359,0,0
308,-335,0,0,0,0,0,0,0,0,0,-1,1532,1359,0,0
315,-335,0,0,0,0,0,0,0,0,0,-1,1539,1359,0,0
322,-335,0,0,0,0,0,0,0,0,0,-1,1546,1359,0,0
329,-335,0,0,0,0,0,0,0,0,0,-1,1553,1359,0,0
336,-335,0,0,0,0,0,0,0,0,0,-1,1560,1359,0,0
343,-335,0,0,0,0,0,0,0,0,0,-1,1567,1359,0,0
350,-335,0,0,0,0,0,0,0,0,0,-1,1574,1359,0,0
357,-335,0,0,0,0,0,0,0,0,0,-1,1581,1359,0,0
364,-335,0,0,0,0,0,0,0,0,0,-1,1588,1359,0,0
371,-335,0,0,0,0,0,0,0,0,0,-1,1595,1359,0,0
378,-335,0,0,0,0,0,0,0,0,0,-1,1602,1359,0,0
385,-335,0,0,0,0,0,0,0,0,0,-1,1609,1359,0,0
392,-335,0,0,0,0,0,0,0,0,0,-1,1616,1359,0,0
399,-335,0,0,0,0,0,0,0,0,0,-1,1623,1359,0,0
406,-335,0,0,0,0,0,0,0,0,0,-1,1630,1359,0,0
413,-335,0,0,0,0,0,0,0,0,0,-1,1637,1359,0,0
420,-335,0,0,0,0,0,0,0,0,0,-1,1644,1359,0,0
427,-335,0,0,0,0,0,0,0,0,0,-1,1651,1359,0,0
434,-335,0,0,0,0,0,0,0,0,0,-1,1658,1359,0,0
441,-335,0,0,0,0,0,0,0,0,0,-1,1665,1359,0,0
448,-335,0,0,0,0,0,0,0,0,0,-1,1672,1359,0,0
455,-335,0,0,0,0,0,0,0,0,0,-1,1679,1359,0,0
462,-335,0,0,0,0,0,0,0,0,0,-1,1686,1359,0,0
469,-335,0,0,0,0,0,0,0,0,0,-1,1693,1359,0,0
476,-335,0,0,0,0,0,0,0,0,0,-1,1700,1359,0,0
483,-335,0,0,0,0,0,0,0,0,0,-1,1707,1359,0,0
490,-335,0,0,0,0,0,0,0,0,0,-1,1714,1359,0,0
497,-335,0,0,0,0,0,0,0,0,0,-1,1721,1359,0,0
504,-335,0,0,0,0,0,0,0,0,0,-1,1728,1359,0,0
511,-335,0,0,0,0,0,0,0,0,0,-1,1735,1359,0,0
518,-335,0,0,0,0,0,0,0,0,0,-1,1742,1359,0,0
525,-335,0,0,0,0,0,0,0,0,0,-1,1749,1359,0,0
532,-335,0,0,0,0,0,0,0,0,0,-1,1756,1359,0,0
539,-335,0,0,0,0,0,0,0,0,0,-1,1763,1359,0,0
546,-335,0,0,0,0,0,0,0,0,0,-1,1770,1359,0,0
553,-335,0,0,0,0,0,0,0,0,0,-1,1777,1359,0,0
560,-335,0,0,0,0,0,0,0,0,0,-1,1784,1359,0,0
567,-335,0,0,0,0,0,0,0,0,0,-1,1791,1359,0,0
574,-335,2.27747,0.630737,-0.0110779,0.00838451,0.0212766,0.0220497,-0.024743,0.999879,0.0270307,0.0459363,1798,1359,2.27749,-0.630773
581,-335,2.21265,0.610962,-0.0138416,-0.000728206,0.0165338,0.0105016,-0.0250714,0.974168,0.0211045,0.0447647,1805,1359,2.2126,-0.610984
588,-335,2.05371,0.595459,-0.0151835,-0.00607454,0.013545,0.00366119,-0.0249192,0.947584,0.0179581,0.0463953,1812,1359,2.05377,-0.595453
595,-335,1.85498,0.566284,0,0,0,0,0,0,0,-1,1819,1359,1.85498,-0.566294
602,-335,0.248657,-0.0806885,0,0,0,0,0,0,0,-1,1826,1359,0.248648,0.0806465
609,-335,1.67273,0.823608,0,0,0,0,0,0,0,-1,1833,1359,1.67269,-0.823646
616,-335,1.48193,1.38391,0,0,0,0,0,0,0,-1,1840,1359,1.48196,-1.38396
623,-335,-0.51355,-1.10608,0,0,0,0,0,0,0,-1,1847,1359,-0.51351,1.10602
630,-335,0.250854,0.226318,0,0,0,0,0,0,0,-1,1854,1359,0.250804,-0.226311
637,-335,0.131226,0.268188,-0.00962043,-0.00171489,0.00413606,5.34826e-05,-0.0113888,1.16677,0.00761042,0.0495335,1861,1359,0.131269,-0.268153
644,-335,-0.0692139,-0.0633545,-0.00735239,0.000394116,0.00337835,0.00166045,-0.00861872,1.21217,0.00637183,0.0324071,1868,1359,-0.0692308,0.0634046
651,-335,-0.0750732,-0.0769043,-0.00579025,0.00228106,0.00290718,0.00321916,-0.00672835,1.25866,0.0058611,0.0126243,1875,1359,-0.0750409,0.0769186
658,-335,-0.0783691,-0.0535889,-0.00523326,0.00287163,0.00199454,0.00333587,-0.0056975,1.34211,0.0052745,0.0112591,1882,1359,-0.0783228,0.0536143
665,-335,-0.0795898,-0.0447998,-0.00386456,0.00261697,0.00120572,0.002834,-0.00408159,1.39271,0.00401432,0.0132414,1889,1359,-0.0795926,0.0447711
672,-335,-0.0861816,-0.0633545,-0.00235214,0.00216996,0.000807284,0.00230976,-0.00249194,1.39933,0.00277292,0.0155627,1896,1359,-0.0862129,0.0633029
679,-335,-0.0723877,-0.0455322,-0.00114872,0.00159167,0.000463932,0.00166808,-0.00122513,1.40756,0.00167691,0.0129831,1903,1359,-0.072446,0.0454968
686,-335,-0.0661621,-0.0467529,9.59104e-05,0.000870845,8.08678e-05,0.000879194,8.75614e-05,1.46792,0.000559232,0.0100805,1910,1359,-0.0661425,0.0467817
693,-335,-0.0595703,-0.0673828,0.00124288,5.6676e-05,-0.000138849,0.00125892,4.06401e-05,-0.114982,0.000826064,0.00921172,1917,1359,-0.0596195,0.0673356
700,-335,-0.0640869,-0.0397949,0.00259684,-0.000891755,-0.000345492,0.00263073,-0.000925641,-0.0977694,0.00213048,0.0100258,1924,1359,-0.0640316,0.0397619
707,-335,-0.0812988,-0.0375977,0.00391954,-0.00165257,-0.000296103,0.00393523,-0.00166826,-0.0529415,0.00332226,0.0128251,1931,1359,-0.0812681,0.0376567
714,-335,-0.0789795,-0.0686035,0.00521825,-0.00238439,-0.000400245,0.00523926,-0.0024054,-0.0524523,0.0045136,0.0145905,1938,1359,-0.0789279,0.0686192
721,-335,-0.0739746,-0.102905,0.00685147,-0.00299939,-0.000572881,0.00688467,-0.00303259,-0.0578953,0.00586794,0.0282893,1945,1359,-0.0740017,0.102899
728,-335,-0.0546875,-0.097168,0.00858539,-0.00364866,-0.000775371,0.00863433,-0.00369761,-0.0630419,0.00730754,0.0440719,1952,1359,-0.0546946,0.0971598
735,-335,0.281494,-0.0428467,0.0102551,-0.00432549,-0.00099741,0.010323,-0.00439341,-0.0679845,0.00872341,0.0470718,1959,1359,0.281456,0.0427925
742,-335,0.458252,0.0826416,0.0116414,-0.00500324,-0.00120821,0.0117286,-0.00509049,-0.072085,0.00995943,0.0464802,1966,1359,0.458263,-0.0826424
749,-335,0.460083,0.151123,0.0123976,-0.00564657,-0.00133948,0.0124965,-0.00574546,-0.0736947,0.0107698,0.0432576,1973,1359,0.460123,-0.151168
756,-335,0.381714,0.218994,0,0,0,0,0,0,0,-1,1980,1359,0.381747,-0.218933
763,-335,0,0,0,0,0,0,0,0,0,-1,1987,1359,0,0
770,-335,0,0,0,0,0,0,0,0,0,-1,1994,1359,0,0
777,-335,0,0,0,0,0,0,0,0,0,-1,2001,1359,0,0
784,-335,0,0,0,0,0,0,0,0,0,-1,2008,1359,0,0
791,-335,0,0,0,0,0,0,0,0,0,-1,2015,1359,0,0
798,-335,0,0,0,0,0,0,0,0,0,-1,2022,1359,0,0
805,-335,0,0,0,0,0,0,0,0,0,-1,2029,1359,0,0
812,-335,0,0,0,0,0,0,0,0,0,-1,2036,1359,0,0
-700,-342,0,0,0,0,0,0,0,0,0,-1,524,1366,0,0
-693,-342,0,0,0,0,0,0,0,0,0,-1,531,1366,0,0
-686,-342,0,0,0,0,0,0,0,0,0,-1,538,1366,0,0
-679,-342,0,0,0,0,0,0,0,0,0,-1,545,1366,0,0
-672,-342,0,0,0,0,0,0,0,0,0,-1,552,1366,0,0
-665,-342,0,0,0,0,0,0,0,0,0,-1,559,1366,0,0
-658,-342,0,0,0,0,0,0,0,0,0,-1,566,1366,0,0
-651,-342,0,0,0,0,0,0,0,0,0,-1,573,1366,0,0
-644,-342,0,0,0,0,0,0,0,0,0,-1,580,1366,0,0
-637,-342,-1.09357,-1.41382,0.0499058,0.0310599,-0.0239647,0.0662336,0.0147321,-0.598083,0.0401561,0.0450485,587,1366,-1.09359,1.41381
-630,-342,-0.739685,-0.430542,0.0394888,0.0218118,-0.0208781,0.0533221,0.00797841,-0.585167,0.0332096,0.0479568,594,1366,-0.739708,0.43055
-623,-342,-0.363831,-0.478394,0.0306653,0.0157364,-0.0181525,0.0428282,0.00357355,-0.590333,0.0274387,0.0437561,601,1366,-0.363825,0.478445
-616,-342,-0.111023,-0.738159,0.0232783,0.011587,-0.0153407,0.0338494,0.00101591,-0.603363,0.0222354,0.0466446,608,1366,-0.111052,0.738115
-609,-342,0.146912,-0.137817,0,0,0,0,0,0,0,-1,615,1366,0.146885,0.137874
-602,-342,-0.114624,-0.141357,0.0126287,0.00655218,-0.0103326,0.0203605,-0.00117962,-0.642405,0.0139835,0.0462477,622,1366,-0.114598,0.141341
-595,-342,-0.0960693,-0.15979,0.00893946,0.00509527,-0.00820834,0.0154477,-0.00141302,-0.670388,0.0108004,0.038227,629,1366,-0.0960712,0.159803
-588,-342,-0.083374,-0.130737,0.00615587,0.00403728,-0.00635286,0.0115371,-0.00134399,-0.702787,0.00817633,0.0318014,636,1366,-0.083359,0.130756
-581,-342,-0.071167,-0.0650635,0.00381323,0.00329526,-0.00456766,0.00812924,-0.00102076,-0.757079,0.00578982,0.0181832,643,1366,-0.0711535,0.0650658
-574,-342,-0.0735474,-0.0369873,0.00234687,0.00193514,-0.00342716,0.00557434,-0.00129233,-0.7554,0.00421359,0.00850632,650,1366,-0.0735351,0.0369328
-567,-342,-0.067749,-0.0255127,0.00128681,0.00125559,-0.00225166,0.00352291,-0.000980511,-0.781931,0.00273468,0.0144891,657,1366,-0.0677456,0.0255233
-560,-342,-0.0839233,-0.0826416,0.000744087,0.000762511,-0.00153298,0.00228631,-0.000779712,-0.788403,0.00184003,0.0229953,664,1366,-0.0839384,0.0826734
-553,-342,-0.111816,-0.124268,0.00118547,0.00057838,-0.00111378,0.00203632,-0.000272474,-0.652361,0.00145689,0.0251943,671,1366,-0.111841,0.124235
-546,-342,-0.0621948,-0.0811768,0.00222871,-0.000571476,-0.000174142,0.00223949,-0.000582265,-0.0618717,0.00172025,0.0237164,678,1366,-0.0621685,0.081116
-539,-342,-0.0482178,-0.0496826,0.00313737,-0.00246877,0.00109104,0.00334221,-0.00267362,0.185594,0.00348039,0.0215774,685,1366,-0.0482259,0.0496824
-532,-342,-0.0617065,-0.0384521,0.00403918,-0.00407345,0.00289382,0.00496562,-0.00499989,0.309835,0.00575361,0.0165501,692,1366,-0.061681,0.0384449
-525,-342,-0.0648804,-0.0582275,0.0053867,-0.00596535,0.0050141,0.00728421,-0.00786286,0.361779,0.00874729,0.00994435,699,1366,-0.0649068,0.0582145
-518,-342,-0.0800781,-0.0640869,0.00716574,-0.00802875,0.00755137,0.0102802,-0.0111432,0.391185,0.0123722,0.00902586,706,1366,-0.0800978,0.0641106
-511,-342,-0.116089,-0.0754395,0.0087127,-0.0113482,0.0105447,0.0132356,-0.0158711,0.405192,0.0168277,0.0236385,713,1366,-0.116073,0.0754532
-504,-342,0.420227,-0.798096,0,0,0,0,0,0,0,-1,720,1366,0.420224,0.798077
-497,-342,0.338257,-0.702637,0.0144275,-0.0205778,0.0194236,0.023071,-0.0292213,0.418686,0.0302605,0.0476364,727,1366,0.338235,0.702636
-490,-342,0.328613,-0.662354,0.0178361,-0.0249624,0.0235669,0.0282697,-0.0353959,0.416784,0.036834,0.0451709,734,1366,0.328632,0.662373
-483,-342,0.494446,-0.848877,0.0218557,-0.0297121,0.0273839,0.0336841,-0.0415405,0.407741,0.0435098,0.0407431,741,1366,0.494451,0.848886
-476,-342,0.526978,-1.30127,0.0266802,-0.0363263,0.0316845,0.0398576,-0.0495037,0.394134,0.0516929,0.0411676,748,1366,0.526988,1.30128
-469,-342,0.520874,-1.37085,0.0326221,-0.0440285,0.0353463,0.046433,-0.0578395,0.372492,0.0603217,0.0439665,755,1366,0.520898,1.37081
-462,-342,0.451782,-1.38245,0.0399662,-0.0527722,0.0378533,0.0534549,-0.0662609,0.342314,0.0692497,0.0477257,762,1366,0.451767,1.38245
-455,-342,0.575317,-1.12622,0.0488116,-0.0628988,0.038643,0.0608761,-0.0749633,0.302615,0.0785674,0.0481337,769,1366,0.575321,1.12618
-448,-342,0.999451,-0.683105,0.0594451,-0.075226,0.0378545,0.0693562,-0.0851371,0.256072,0.0893517,0.0469988,776,1366,0.999424,0.683151
-441,-342,0,0,0,0,0,0,0,0,0,-1,783,1366,0,0
-434,-342,0,0,0,0,0,0,0,0,0,-1,790,1366,0,0
-427,-342,0,0,0,0,0,0,0,0,0,-1,797,1366,0,0
-420,-342,0,0,0,0,0,0,0,0,0,-1,804,1366,0,0
-413,-342,0,0,0,0,0,0,0,0,0,-1,811,1366,0,0
-406,-342,0,0,0,0,0,0,0,0,0,-1,818,1366,0,0
-399,-342,0,0,0,0,0,0,0,0,0,-1,825,1366,0,0
-392,-342,0,0,0,0,0,0,0,0,0,-1,832,1366,0,0
-385,-342,0,0,0,0,0,0,0,0,0,-1,839,1366,0,0
-378,-342,0,0,0,0,0,0,0,0,0,-1,846,1366,0,0
-371,-342,0,0,0,0,0,0,0,0,0,-1,853,1366,0,0
-364,-342,0,0,0,0,0,0,0,0,0,-1,860,1366,0,0
-357,-342,0,0,0,0,0,0,0,0,0,-1,867,1366,0,0
-350,-342,0,0,0,0,0,0,0,0,0,-1,874,1366,0,0
-343,-342,0,0,0,0,0,0,0,0,0,-1,881,1366,0,0
-336,-342,0,0,0,0,0,0,0,0,0,-1,888,1366,0,0
-329,-342,0,0,0,0,0,0,0,0,0,-1,895,1366,0,0
-322,-342,0,0,0,0,0,0,0,0,0,-1,902,1366,0,0
-315,-342,0,0,0,0,0,0,0,0,0,-1,909,1366,0,0
-308,-342,0,0,0,0,0,0,0,0,0,-1,916,1366,0,0
-301,-342,0,0,0,0,0,0,0,0,0,-1,923,1366,0,0
-294,-342,0,0,0,0,0,0,0,0,0,-1,930,1366,0,0
-287,-342,0,0,0,0,0,0,0,0,0,-1,937,1366,0,0
-280,-342,0,0,0,0,0,0,0,0,0,-1,944,1366,0,0
-273,-342,0,0,0,0,0,0,0,0,0,-1,951,1366,0,0
-266,-342,0,0,0,0,0,0,0,0,0,-1,958,1366,0,0
-259,-342,0,0,0,0,0,0,0,0,0,-1,965,1366,0,0
-252,-342,0,0,0,0,0,0,0,0,0,-1,972,1366,0,0
-245,-342,0,0,0,0,0,0,0,0,0,-1,979,1366,0,0
-238,-342,0,0,0,0,0,0,0,0,0,-1,986,1366,0,0
-231,-342,0,0,0,0,0,0,0,0,0,-1,993,1366,0,0
-224,-342,0,0,0,0,0,0,0,0,0,-1,1000,1366,0,0
-217,-342,0,0,0,0,0,0,0,0,0,-1,1007,1366,0,0
-210,-342,0,0,0,0,0,0,0,0,0,-1,1014,1366,0,0
-203,-342,0,0,0,0,0,0,0,0,0,-1,1021,1366,0,0
-196,-342,0,0,0,0,0,0,0,0,0,-1,1028,1366,0,0
-189,-342,0,0,0,0,0,0,0,0,0,-1,1035,1366,0,0
-182,-342,0,0,0,0,0,0,0,0,0,-1,1042,1366,0,0
-175,-342,0,0,0,0,0,0,0,0,0,-1,1049,1366,0,0
-168,-342,0,0,0,0,0,0,0,0,0,-1,1056,1366,0,0
-161,-342,0,0,0,0,0,0,0,0,0,-1,1063,1366,0,0
-154,-342,0,0,0,0,0,0,0,0,0,-1,1070,1366,0,0
-147,-342,0,0,0,0,0,0,0,0,0,-1,1077,1366,0,0
-140,-342,0,0,0,0,0,0,0,0,0,-1,1084,1366,0,0
-133,-342,0,0,0,0,0,0,0,0,0,-1,1091,1366,0,0
-126,-342,0,0,0,0,0,0,0,0,0,-1,1098,1366,0,0
-119,-342,0,0,0,0,0,0,0,0,0,-1,1105,1366,0,0
-112,-342,0,0,0,0,0,0,0,0,0,-1,1112,1366,0,0
-105,-342,0,0,0,0,0,0,0,0,0,-1,1119,1366,0,0
-98,-342,0,0,0,0,0,0,0,0,0,-1,1126,1366,0,0
-91,-342,0,0,0,0,0,0,0,0,0,-1,1133,1366,0,0
-84,-342,0,0,0,0,0,0,0,0,0,-1,1140,1366,0,0
-77,-342,0,0,0,0,0,0,0,0,0,-1,1147,1366,0,0
-70,-342,0,0,0,0,0,0,0,0,0,-1,1154,1366,0,0
-63,-342,0,0,0,0,0,0,0,0,0,-1,1161,1366,0,0
-56,-342,0,0,0,0,0,0,0,0,0,-1,1168,1366,0,0
-49,-342,0,0,0,0,0,0,0,0,0,-1,1175,1366,0,0
-42,-342,0,0,0,0,0,0,0,0,0,-1,1182,1366,0,0
-35,-342,0,0,0,0,0,0,0,0,0,-1,1189,1366,0,0
-28,-342,0,0,0,0,0,0,0,0,0,-1,1196,1366,0,0
-21,-342,0,0,0,0,0,0,0,0,0,-1,1203,1366,0,0
-14,-342,0,0,0,0,0,0,0,0,0,-1,1210,1366,0,0
-7,-342,0,0,0,0,0,0,0,0,0,-1,1217,1366,0,0
0,-342,0,0,0,0,0,0,0,0,0,-1,1224,1366,0,0
7,-342,0,0,0,0,0,0,0,0,0,-1,1231,1366,0,0
14,-342,0,0,0,0,0,0,0,0,0,-1,1238,1366,0,0
21,-342,0,0,0,0,0,0,0,0,0,-1,1245,1366,0,0
28,-342,0,0,0,0,0,0,0,0,0,-1,1252,1366,0,0
35,-342,0,0,0,0,0,0,0,0,0,-1,1259,1366,0,0
42,-342,0,0,0,0,0,0,0,0,0,-1,1266,1366,0,0
49,-342,0,0,0,0,0,0,0,0,0,-1,1273,1366,0,0
56,-342,0,0,0,0,0,0,0,0,0,-1,1280,1366,0,0
63,-342,0,0,0,0,0,0,0,0,0,-1,1287,1366,0,0
70,-342,0,0,0,0,0,0,0,0,0,-1,1294,1366,0,0
77,-342,0,0,0,0,0,0,0,0,0,-1,1301,1366,0,0
84,-342,0,0,0,0,0,0,0,0,0,-1,1308,1366,0,0
91,-342,0,0,0,0,0,0,0,0,0,-1,1315,1366,0,0
98,-342,0,0,0,0,0,0,0,0,0,-1,1322,1366,0,0
105,-342,0,0,0,0,0,0,0,0,0,-1,1329,1366,0,0
112,-342,0,0,0,0,0,0,0,0,0,-1,1336,1366,0,0
119,-342,0,0,0,0,0,0,0,0,0,-1,1343,1366,0,0
126,-342,0,0,0,0,0,0,0,0,0,-1,1350,1366,0,0
133,-342,0,0,0,0,0,0,0,0,0,-1,1357,1366,0,0
140,-342,0,0,0,0,0,0,0,0,0,-1,1364,1366,0,0
147,-342,0,0,0,0,0,0,0,0,0,-1,1371,1366,0,0
154,-342,0,0,0,0,0,0,0,0,0,-1,1378,1366,0,0
161,-342,0,0,0,0,0,0,0,0,0,-1,1385,1366,0,0
168,-342,0,0,0,0,0,0,0,0,0,-1,1392,1366,0,0
175,-342,0,0,0,0,0,0,0,0,0,-1,1399,1366,0,0
182,-342,0,0,0,0,0,0,0,0,0,-1,1406,1366,0,0
189,-342,0,0,0,0,0,0,0,0,0,-1,1413,1366,0,0
196,-342,0,0,0,0,0,0,0,0,0,-1,1420,1366,0,0
203,-342,0,0,0,0,0,0,0,0,0,-1,1427,1366,0,0
210,-342,0,0,0,0,0,0,0,0,0,-1,1434,1366,0,0
217,-342,0,0,0,0,0,0,0,0,0,-1,1441,1366,0,0
224,-342,0,0,0,0,0,0,0,0,0,-1,1448,1366,0,0
231,-342,0,0,0,0,0,0,0,0,0,-1,1455,1366,0,0
238,-342,0,0,0,0,0,0,0,0,0,-1,1462,1366,0,0
245,-342,0,0,0,0,0,0,0,0,0,-1,1469,1366,0,0
252,-342,0,0,0,0,0,0,0,0,0,-1,1476,1366,0,0
259,-342,0,0,0,0,0,0,0,0,0,-1,1483,1366,0,0
266,-342,0,0,0,0,0,0,0,0,0,-1,1490,1366,0,0
273,-342,0,0,0,0,0,0,0,0,0,-1,1497,1366,0,0
280,-342,0,0,0,0,0,0,0,0,0,-1,1504,1366,0,0
287,-342,0,0,0,0,0,0,0,0,0,-1,1511,1366,0,0
294,-342,0,0,0,0,0,0,0,0,0,-1,1518,1366,0,0
301,-342,0,0,0,0,0,0,0,0,0,-1,1525,1366,0,0
308,-342,0,0,0,0,0,0,0,0,0,-1,1532,1366,0,0
315,-342,0,0,0,0,0,0,0,0,0,-1,1539,1366,0,0
322,-342,0,0,0,0,0,0,0,0,0,-1,1546,1366,0,0
329,-342,0,0,0,0,0,0,0,0,0,-1,1553,1366,0,0
336,-342,0,0,0,0,0,0,0,0,0,-1,1560,1366,0,0
343,-342,0,0,0,0,0,0,0,0,0,-1,1567,1366,0,0
350,-342,0,0,0,0,0,0,0,0,0,-1,1574,1366,0,0
357,-342,0,0,0,0,0,0,0,0,0,-1,1581,1366,0,0
364,-342,0,0,0,0,0,0,0,0,0,-1,1588,1366,0,0
371,-342,0,0,0,0,0,0,0,0,0,-1,1595,1366,0,0
378,-342,0,0,0,0,0,0,0,0,0,-1,1602,1366,0,0
385,-342,0,0,0,0,0,0,0,0,0,-1,1609,1366,0,0
392,-342,0,0,0,0,0,0,0,0,0,-1,1616,1366,0,0
399,-342,0,0,0,0,0,0,0,0,0,-1,1623,1366,0,0
406,-342,0,0,0,0,0,0,0,0,0,-1,1630,1366,0,0
413,-342,0,0,0,0,0,0,0,0,0,-1,1637,1366,0,0
420,-342,0,0,0,0,0,0,0,0,0,-1,1644,1366,0,0
427,-342,0,0,0,0,0,0,0,0,0,-1,1651,1366,0,0
434,-342,0,0,0,0,0,0,0,0,0,-1,1658,1366,0,0
441,-342,0,0,0,0,0,0,0,0,0,-1,1665,1366,0,0
448,-342,0,0,0,0,0,0,0,0,0,-1,1672,1366,0,0
455,-342,0,0,0,0,0,0,0,0,0,-1,1679,1366,0,0
462,-342,0,0,0,0,0,0,0,0,0,-1,1686,1366,0,0
469,-342,0,0,0,0,0,0,0,0,0,-1,1693,1366,0,0
476,-342,0,0,0,0,0,0,0,0,0,-1,1700,1366,0,0
483,-342,0,0,0,0,0,0,0,0,0,-1,1707,1366,0,0
490,-342,0,0,0,0,0,0,0,0,0,-1,1714,1366,0,0
497,-342,0,0,0,0,0,0,0,0,0,-1,1721,1366,0,0
504,-342,0,0,0,0,0,0,0,0,0,-1,1728,1366,0,0
511,-342,0,0,0,0,0,0,0,0,0,-1,1735,1366,0,0
518,-342,0,0,0,0,0,0,0,0,0,-1,1742,1366,0,0
525,-342,0,0,0,0,0,0,0,0,0,-1,1749,1366,0,0
532,-342,0,0,0,0,0,0,0,0,0,-1,1756,1366,0,0
539,-342,0,0,0,0,0,0,0,0,0,-1,1763,1366,0,0
546,-342,0,0,0,0,0,0,0,0,0,-1,1770,1366,0,0
553,-342,0,0,0,0,0,0,0,0,0,-1,1777,1366,0,0
560,-342,0,0,0,0,0,0,0,0,0,-1,1784,1366,0,0
567,-342,1.51868,0.630615,-0.00926804,0.0338967,0.0239357,0.0445435,-0.0199148,1.15227,0.0381097,0.0471702,1791,1366,1.51864,-0.630633
574,-342,1.79834,0.545044,-0.0142925,0.0168275,0.0180212,0.0250766,-0.0225416,1.14152,0.0275054,0.0456417,1798,1366,1.79833,-0.545002
581,-342,2.08667,0.651001,-0.0175708,0.00549689,0.0137936,0.0119434,-0.0240173,1.1336,0.0211484,0.0443593,1805,1366,2.08665,-0.650949
588,-342,1.86475,0.644775,-0.0189605,-0.00177878,0.0108127,0.00344043,-0.0241797,1.12109,0.0173805,0.0422364,1812,1366,1.86473,-0.644812
595,-342,1.13428,0.368652,0,0,0,0,0,0,0,-1,1819,1366,1.13427,-0.368712
602,-342,0.28833,0.0125732,0,0,0,0,0,0,0,-1,1826,1366,0.288345,-0.0125678
609,-342,1.24792,-0.182373,0,0,0,0,0,0,0,-1,1833,1366,1.24793,0.182317
616,-342,0.794678,0.0799561,0,0,0,0,0,0,0,-1,1840,1366,0.794646,-0.0799467
623,-342,0.449341,0.0812988,0,0,0,0,0,0,0,-1,1847,1366,0.449324,-0.0812639
630,-342,-0.473022,-0.753174,0,0,0,0,0,0,0,-1,1854,1366,-0.473075,0.753214
637,-342,0.0251465,-0.0809326,0,0,0,0,0,0,0,-1,1861,1366,0.0251945,0.0809013
644,-342,-0.0506592,-0.0755615,-0.00768832,-0.00191102,0.00190195,-0.0013411,-0.00825824,1.27966,0.00511738,0.024547,1868,1366,-0.0505987,0.0755773
651,-342,-0.0847168,-0.0664063,-0.00572598,-8.98655e-05,0.00183154,0.000453029,-0.00626888,1.28263,0.00433815,0.0140191,1875,1366,-0.0846583,0.0663897
658,-342,-0.104736,-0.0537109,-0.00488483,0.000597258,0.00130819,0.00089343,-0.005181,1.34815,0.0037871,0.0163367,1882,1366,-0.104678,0.0536656
665,-342,-0.0744629,-0.0512695,-0.00351423,0.000539451,0.000770582,0.000680992,-0.00365577,1.38914,0.00269303,0.0140029,1889,1366,-0.0745194,0.0512324
672,-342,-0.0830078,-0.0495605,-0.00201307,0.000335698,0.00058871,0.000474995,-0.00215237,1.33846,0.00161667,0.0119635,1896,1366,-0.0830489,0.0495817
679,-342,-0.0787354,-0.0395508,-0.000814872,-3.43392e-05,0.000421547,0.000149859,-0.00099907,1.15884,0.000721209,0.0118254,1903,1366,-0.0787657,0.0395138
686,-342,-0.0649414,-0.0344238,0.000423037,-0.000557148,0.000212394,0.000467081,-0.000601192,0.204472,0.000618386,0.00987368,1910,1366,-0.0649001,0.034426
693,-342,-0.0546875,-0.0552979,0.00159553,-0.000955426,0.000162186,0.0016058,-0.000965696,0.0632392,0.00149991,0.0110826,1917,1366,-0.0546974,0.0552441
700,-342,-0.067749,-0.0524902,0.00291485,-0.00163966,-2.76507e-05,0.00291502,-0.00163982,-0.00607077,0.00266387,0.013108,1924,1366,-0.0677102,0.0525507
707,-342,-0.0697021,-0.0449219,0.00424352,-0.00222834,4.12652e-06,0.00424352,-0.00222834,0.00063761,0.00379643,0.0124136,1931,1366,-0.0697515,0.0449404
714,-342,-0.0771484,-0.0831299,0.00566004,-0.00285156,-5.10224e-05,0.00566035,-0.00285186,-0.00599417,0.0050029,0.0176374,1938,1366,-0.0771804,0.0831146
721,-342,-0.0871582,-0.123169,0.00744001,-0.00334999,-0.000199963,0.00744371,-0.00335369,-0.0185238,0.00638123,0.0324945,1945,1366,-0.0871931,0.123125
728,-342,-0.0516357,0.0701904,0.00936112,-0.00380252,-0.000396995,0.00937308,-0.00381448,-0.0301219,0.00783605,0.0458853,1952,1366,-0.0516382,-0.0702377
735,-342,0.166016,0.197998,0.0112568,-0.00415644,-0.000632435,0.0112827,-0.00418234,-0.0409402,0.00923711,0.046304,1959,1366,0.16597,-0.197995
742,-342,0.338623,0.197876,0.0129087,-0.00434801,-0.000879474,0.0129534,-0.00439272,-0.0507887,0.0104134,0.0490645,1966,1366,0.338634,-0.197876
749,-342,0.540161,0.310425,0.0139509,-0.00428734,-0.00105938,0.0140122,-0.00434867,-0.0578264,0.0110793,0.0454172,1973,1366,0.540121,-0.310385
756,-342,0,0,0,0,0,0,0,0,0,-1,1980,1366,0,0
763,-342,0,0,0,0,0,0,0,0,0,-1,1987,1366,0,0
770,-342,0,0,0,0,0,0,0,0,0,-1,1994,1366,0,0
777,-342,0,0,0,0,0,0,0,0,0,-1,2001,1366,0,0
784,-342,0,0,0,0,0,0,0,0,0,-1,2008,1366,0,0
791,-342,0,0,0,0,0,0,0,0,0,-1,2015,1366,0,0
798,-342,0,0,0,0,0,0,0,0,0,-1,2022,1366,0,0
805,-342,0,0,0,0,0,0,0,0,0,-1,2029,1366,0,0
812,-342,0,0,0,0,0,0,0,0,0,-1,2036,1366,0,0
-700,-349,0,0,0,0,0,0,0,0,0,-1,524,1373,0,0
-693,-349,0,0,0,0,0,0,0,0,0,-1,531,1373,0,0
-686,-349,0,0,0,0,0,0,0,0,0,-1,538,1373,0,0
-679,-349,0,0,0,0,0,0,0,0,0,-1,545,1373,0,0
-672,-349,0,0,0,0,0,0,0,0,0,-1,552,1373,0,0
-665,-349,0,0,0,0,0,0,0,0,0,-1,559,1373,0,0
-658,-349,0,0,0,0,0,0,0,0,0,-1,566,1373,0,0
-651,-349,0,0,0,0,0,0,0,0,0,-1,573,1373,0,0
-644,-349,0,0,0,0,0,0,0,0,0,-1,580,1373,0,0
-637,-349,0,0,0,0,0,0,0,0,0,-1,587,1373,0,0
-630,-349,0.165894,-0.0678711,0,0,0,0,0,0,0,-1,594,1373,0.165878,0.0678167
-623,-349,0.119568,-0.811035,0.028185,0.0181667,-0.0172513,0.0411397,0.00521202,-0.644102,0.0258648,0.044727,601,1373,0.119553,0.811045
-616,-349,0.140808,-1.42236,0.020998,0.0136844,-0.0147169,0.0325057,0.00217676,-0.663626,0.0209825,0.0494105,608,1373,0.140801,1.42237
-609,-349,0.313904,-1.02271,0.0154319,0.0103989,-0.0122955,0.0254658,0.000365081,-0.684458,0.0168568,0.0440166,615,1373,0.313888,1.02271
-602,-349,0.211304,-0.366455,0,0,0,0,0,0,0,-1,622,1373,0.211298,0.366449
-595,-349,0.125916,-0.393066,0.00780228,0.00628796,-0.00805529,0.0151359,-0.00104568,-0.738538,0.0104566,0.0439742,629,1373,0.125903,0.393109
-588,-349,-0.0946655,-0.158813,0.00534766,0.00495427,-0.00626451,0.0114186,-0.00111663,-0.769704,0.00801057,0.0404721,636,1373,-0.0946636,0.158779
-581,-349,-0.0806885,-0.0880127,0.00320217,0.0038627,-0.00448785,0.00803242,-0.000967544,-0.822127,0.00570488,0.030534,643,1373,-0.0807018,0.0880671
-574,-349,-0.0674438,-0.0410156,0.00186114,0.00232641,-0.00335378,0.00545561,-0.00126806,-0.820025,0.00412524,0.0141729,650,1373,-0.0674164,0.0409601
-567,-349,-0.0800781,-0.0223389,0.00093829,0.0016896,-0.00223613,0.00358141,-0.000953517,-0.868618,0.00276089,0.0148738,657,1373,-0.0800773,0.0223564
-560,-349,-0.0856323,-0.0683594,0.000407065,0.00121274,-0.00149145,0.00235479,-0.000734987,-0.9173,0.00186381,0.019309,664,1373,-0.0856444,0.0683272
-553,-349,-0.0755615,-0.144775,0.000723154,0.000980866,-0.000991864,0.00185221,-0.000148189,-0.849993,0.00128705,0.0248595,671,1373,-0.0755425,0.144817
-546,-349,-0.0640869,-0.100708,0.00148837,-0.00022302,-2.03475e-05,0.00148862,-0.000223261,-0.0118872,0.00107459,0.0269031,678,1373,-0.0641115,0.100659
-539,-349,-0.0767212,-0.0543213,0.00202535,-0.00203136,0.00121459,0.00236119,-0.0023672,0.26977,0.00272994,0.0217829,685,1373,-0.0766996,0.0543649
-532,-349,-0.0795288,-0.0579834,0.00247913,-0.00362417,0.00292059,0.00365151,-0.00479655,0.381728,0.0048924,0.0160009,692,1373,-0.0795042,0.0580403
-525,-349,-0.088562,-0.0609131,0.00350104,-0.00540452,0.00478321,0.00558326,-0.00748675,0.410579,0.00757261,0.0114783,699,1373,-0.0885797,0.0608579
-518,-349,-0.0754395,-0.0582275,0.00503012,-0.00744649,0.0069755,0.00814991,-0.0105663,0.420565,0.0108358,0.00987207,706,1373,-0.0754496,0.0581917
-511,-349,-0.0648193,-0.0737305,0.0062739,-0.0106013,0.00958283,0.0106044,-0.0149318,0.424432,0.0148137,0.0178273,713,1373,-0.0648165,0.0737274
-504,-349,0.123718,-0.395386,0.00845022,-0.0134147,0.0130815,0.014566,-0.0195305,0.437325,0.0197551,0.0347355,720,1373,0.123712,0.395362
-497,-349,0.0401611,-0.390259,0.0116036,-0.0195556,0.0174257,0.0193987,-0.0273508,0.420637,0.0271207,0.0442318,727,1373,0.040174,0.390243
-490,-349,-0.185974,-0.27478,0.0149595,-0.0234357,0.0206399,0.0239497,-0.0324259,0.410793,0.0326708,0.0448914,734,1373,-0.185951,0.274828
-483,-349,-0.324646,-0.221436,0.0189789,-0.0273562,0.0233166,0.0286808,-0.037058,0.394302,0.0380569,0.0450524,741,1373,-0.324661,0.221423
-476,-349,-0.333923,-0.355103,0.0239024,-0.0327563,0.0263247,0.0342453,-0.0430992,0.374367,0.0447523,0.046863,748,1373,-0.333934,0.355073
-469,-349,-0.136719,0.111206,0.0299745,-0.0385368,0.0284425,0.0402433,-0.0488056,0.346473,0.0514916,0.0444832,755,1373,-0.13674,-0.11117
-462,-349,-0.0794678,0.541382,0.0373999,-0.0443496,0.0290455,0.0466688,-0.0536185,0.308902,0.0579472,0.0457383,762,1373,-0.0794868,-0.541366
-455,-349,0.113953,0.904297,0.0461481,-0.0498892,0.0276885,0.0535591,-0.0573002,0.261525,0.0640168,0.0465204,769,1373,0.113969,-0.904284
-448,-349,0.48584,1.21899,0.0565185,-0.0553331,0.0237999,0.061372,-0.0601867,0.201173,0.0701831,0.048043,776,1373,0.485843,-1.21905
-441,-349,0,0,0,0,0,0,0,0,0,-1,783,1373,0,0
-434,-349,0,0,0,0,0,0,0,0,0,-1,790,1373,0,0
-427,-349,0,0,0,0,0,0,0,0,0,-1,797,1373,0,0
-420,-349,0,0,0,0,0,0,0,0,0,-1,804,1373,0,0
-413,-349,0,0,0,0,0,0,0,0,0,-1,811,1373,0,0
-406,-349,0,0,0,0,0,0,0,0,0,-1,818,1373,0,0
-399,-349,0,0,0,0,0,0,0,0,0,-1,825,1373,0,0
-392,-349,0,0,0,0,0,0,0,0,0,-1,832,1373,0,0
-385,-349,0,0,0,0,0,0,0,0,0,-1,839,1373,0,0
-378,-349,0,0,0,0,0,0,0,0,0,-1,846,1373,0,0
-371,-349,0,0,0,0,0,0,0,0,0,-1,853,1373,0,0
-364,-349,0,0,0,0,0,0,0,0,0,-1,860,1373,0,0
-357,-349,0,0,0,0,0,0,0,0,0,-1,867,1373,0,0
-350,-349,0,0,0,0,0,0,0,0,0,-1,874,1373,0,0
-343,-349,0,0,0,0,0,0,0,0,0,-1,881,1373,0,0
-336,-349,0,0,0,0,0,0,0,0,0,-1,888,1373,0,0
-329,-349,0,0,0,0,0,0,0,0,0,-1,895,1373,0,0
-322,-349,0,0,0,0,0,0,0,0,0,-1,902,1373,0,0
-315,-349,0,0,0,0,0,0,0,0,0,-1,909,1373,0,0
-308,-349,0,0,0,0,0,0,0,0,0,-1,916,1373,0,0
-301,-349,0,0,0,0,0,0,0,0,0,-1,923,1373,0,0
-294,-349,0,0,0,0,0,0,0,0,0,-1,930,1373,0,0
-287,-349,0,0,0,0,0,0,0,0,0,-1,937,1373,0,0
-280,-349,0,0,0,0,0,0,0,0,0,-1,944,1373,0,0
-273,-349,0,0,0,0,0,0,0,0,0,-1,951,1373,0,0
-266,-349,0,0,0,0,0,0,0,0,0,-1,958,1373,0,0
-259,-349,0,0,0,0,0,0,0,0,0,-1,965,1373,0,0
-252,-349,0,0,0,0,0,0,0,0,0,-1,972,1373,0,0
-245,-349,0,0,0,0,0,0,0,0,0,-1,979,1373,0,0
-238,-349,0,0,0,0,0,0,0,0,0,-1,986,1373,0,0
-231,-349,0,0,0,0,0,0,0,0,0,-1,993,1373,0,0
-224,-349,0,0,0,0,0,0,0,0,0,-1,1000,1373,0,0
-217,-349,0,0,0,0,0,0,0,0,0,-1,1007,1373,0,0
-210,-349,0,0,0,0,0,0,0,0,0,-1,1014,1373,0,0
-203,-349,0,0,0,0,0,0,0,0,0,-1,1021,1373,0,0
-196,-349,0,0,0,0,0,0,0,0,0,-1,1028,1373,0,0
-189,-349,0,0,0,0,0,0,0,0,0,-1,1035,1373,0,0
-182,-349,0,0,0,0,0,0,0,0,0,-1,1042,1373,0,0
-175,-349,0,0,0,0,0,0,0,0,0,-1,1049,1373,0,0
-168,-349,0,0,0,0,0,0,0,0,0,-1,1056,1373,0,0
-161,-349,0,0,0,0,0,0,0,0,0,-1,1063,1373,0,0
-154,-349,0,0,0,0,0,0,0,0,0,-1,1070,1373,0,0
-147,-349,0,0,0,0,0,0,0,0,0,-1,1077,1373,0,0
-140,-349,0,0,0,0,0,0,0,0,0,-1,1084,1373,0,0
-133,-349,0,0,0,0,0,0,0,0,0,-1,1091,1373,0,0
-126,-349,0,0,0,0,0,0,0,0,0,-1,1098,1373,0,0
-119,-349,0,0,0,0,0,0,0,0,0,-1,1105,1373,0,0
-112,-349,0,0,0,0,0,0,0,0,0,-1,1112,1373,0,0
-105,-349,0,0,0,0,0,0,0,0,0,-1,1119,1373,0,0
-98,-349,0,0,0,0,0,0,0,0,0,-1,1126,1373,0,0
-91,-349,0,0,0,0,0,0,0,0,0,-1,1133,1373,0,0
-84,-349,0,0,0,0,0,0,0,0,0,-1,1140,1373,0,0
-77,-349,0,0,0,0,0,0,0,0,0,-1,1147,1373,0,0
-70,-349,0,0,0,0,0,0,0,0,0,-1,1154,1373,0,0
-63,-349,0,0,0,0,0,0,0,0,0,-1,1161,1373,0,0
-56,-349,0,0,0,0,0,0,0,0,0,-1,1168,1373,0,0
-49,-349,0,0,0,0,0,0,0,0,0,-1,1175,1373,0,0
-42,-349,0,0,0,0,0,0,0,0,0,-1,1182,1373,0,0
-35,-349,0,0,0,0,0,0,0,0,0,-1,1189,1373,0,0
-28,-349,0,0,0,0,0,0,0,0,0,-1,1196,1373,0,0
-21,-349,0,0,0,0,0,0,0,0,0,-1,1203,1373,0,0
-14,-349,0,0,0,0,0,0,0,0,0,-1,1210,1373,0,0
-7,-349,0,0,0,0,0,0,0,0,0,-1,1217,1373,0,0
0,-349,0,0,0,0,0,0,0,0,0,-1,1224,1373,0,0
7,-349,0,0,0,0,0,0,0,0,0,-1,1231,1373,0,0
14,-349,0,0,0,0,0,0,0,0,0,-1,1238,1373,0,0
21,-349,0,0,0,0,0,0,0,0,0,-1,1245,1373,0,0
28,-349,0,0,0,0,0,0,0,0,0,-1,1252,1373,0,0
35,-349,0,0,0,0,0,0,0,0,0,-1,1259,1373,0,0
42,-349,0,0,0,0,0,0,0,0,0,-1,1266,1373,0,0
49,-349,0,0,0,0,0,0,0,0,0,-1,1273,1373,0,0
56,-349,0,0,0,0,0,0,0,0,0,-1,1280,1373,0,0
63,-349,0,0,0,0,0,0,0,0,0,-1,1287,1373,0,0
70,-349,0,0,0,0,0,0,0,0,0,-1,1294,1373,0,0
77,-349,0,0,0,0,0,0,0,0,0,-1,1301,1373,0,0
84,-349,0,0,0,0,0,0,0,0,0,-1,1308,1373,0,0
91,-349,0,0,0,0,0,0,0,0,0,-1,1315,1373,0,0
98,-349,0,0,0,0,0,0,0,0,0,-1,1322,1373,0,0
105,-349,0,0,0,0,0,0,0,0,0,-1,1329,1373,0,0
112,-349,0,0,0,0,0,0,0,0,0,-1,1336,1373,0,0
119,-349,0,0,0,0,0,0,0,0,0,-1,1343,1373,0,0
126,-349,0,0,0,0,0,0,0,0,0,-1,1350,1373,0,0
133,-349,0,0,0,0,0,0,0,0,0,-1,1357,1373,0,0
140,-349,0,0,0,0,0,0,0,0,0,-1,1364,1373,0,0
147,-349,0,0,0,0,0,0,0,0,0,-1,1371,1373,0,0
154,-349,0,0,0,0,0,0,0,0,0,-1,1378,1373,0,0
161,-349,0,0,0,0,0,0,0,0,0,-1,1385,1373,0,0
168,-349,0,0,0,0,0,0,0,0,0,-1,1392,1373,0,0
175,-349,0,0,0,0,0,0,0,0,0,-1,1399,1373,0,0
182,-349,0,0,0,0,0,0,0,0,0,-1,1406,1373,0,0
189,-349,0,0,0,0,0,0,0,0,0,-1,1413,1373,0,0
196,-349,0,0,0,0,0,0,0,0,0,-1,1420,1373,0,0
203,-349,0,0,0,0,0,0,0,0,0,-1,1427,1373,0,0
210,-349,0,0,0,0,0,0,0,0,0,-1,1434,1373,0,0
217,-349,0,0,0,0,0,0,0,0,0,-1,1441,1373,0,0
224,-349,0,0,0,0,0,0,0,0,0,-1,1448,1373,0,0
231,-349,0,0,0,0,0,0,0,0,0,-1,1455,1373,0,0
238,-349,0,0,0,0,0,0,0,0,0,-1,1462,1373,0,0
245,-349,0,0,0,0,0,0,0,0,0,-1,1469,1373,0,0
252,-349,0,0,0,0,0,0,0,0,0,-1,1476,1373,0,0
259,-349,0,0,0,0,0,0,0,0,0,-1,1483,1373,0,0
266,-349,0,0,0,0,0,0,0,0,0,-1,1490,1373,0,0
273,-349,0,0,0,0,0,0,0,0,0,-1,1497,1373,0,0
280,-349,0,0,0,0,0,0,0,0,0,-1,1504,1373,0,0
287,-349,0,0,0,0,0,0,0,0,0,-1,1511,1373,0,0
294,-349,0,0,0,0,0,0,0,0,0,-1,1518,1373,0,0
301,-349,0,0,0,0,0,0,0,0,0,-1,1525,1373,0,0
308,-349,0,0,0,0,0,0,0,0,0,-1,1532,1373,0,0
315,-349,0,0,0,0,0,0,0,0,0,-1,1539,1373,0,0
322,-349,0,0,0,0,0,0,0,0,0,-1,1546,1373,0,0
329,-349,0,0,0,0,0,0,0,0,0,-1,1553,1373,0,0
336,-349,0,0,0,0,0,0,0,0,0,-1,1560,1373,0,0
343,-349,0,0,0,0,0,0,0,0,0,-1,1567,1373,0,0
350,-349,0,0,0,0,0,0,0,0,0,-1,1574,1373,0,0
357,-349,0,0,0,0,0,0,0,0,0,-1,1581,1373,0,0
364,-349,0,0,0,0,0,0,0,0,0,-1,1588,1373,0,0
371,-349,0,0,0,0,0,0,0,0,0,-1,1595,1373,0,0
378,-349,0,0,0,0,0,0,0,0,0,-1,1602,1373,0,0
385,-349,0,0,0,0,0,0,0,0,0,-1,1609,1373,0,0
392,-349,0,0,0,0,0,0,0,0,0,-1,1616,1373,0,0
399,-349,0,0,0,0,0,0,0,0,0,-1,1623,1373,0,0
406,-349,0,0,0,0,0,0,0,0,0,-1,1630,1373,0,0
413,-349,0,0,0,0,0,0,0,0,0,-1,1637,1373,0,0
420,-349,0,0,0,0,0,0,0,0,0,-1,1644,1373,0,0
427,-349,0,0,0,0,0,0,0,0,0,-1,1651,1373,0,0
434,-349,0,0,0,0,0,0,0,0,0,-1,1658,1373,0,0
441,-349,0,0,0,0,0,0,0,0,0,-1,1665,1373,0,0
448,-349,0,0,0,0,0,0,0,0,0,-1,1672,1373,0,0
455,-349,0,0,0,0,0,0,0,0,0,-1,1679,1373,0,0
462,-349,0,0,0,0,0,0,0,0,0,-1,1686,1373,0,0
469,-349,0,0,0,0,0,0,0,0,0,-1,1693,1373,0,0
476,-349,0,0,0,0,0,0,0,0,0,-1,1700,1373,0,0
483,-349,0,0,0,0,0,0,0,0,0,-1,1707,1373,0,0
490,-349,0,0,0,0,0,0,0,0,0,-1,1714,1373,0,0
497,-349,0,0,0,0,0,0,0,0,0,-1,1721,1373,0,0
504,-349,0,0,0,0,0,0,0,0,0,-1,1728,1373,0,0
511,-349,0,0,0,0,0,0,0,0,0,-1,1735,1373,0,0
518,-349,0,0,0,0,0,0,0,0,0,-1,1742,1373,0,0
525,-349,0,0,0,0,0,0,0,0,0,-1,1749,1373,0,0
532,-349,0,0,0,0,0,0,0,0,0,-1,1756,1373,0,0
539,-349,0,0,0,0,0,0,0,0,0,-1,1763,1373,0,0
546,-349,0,0,0,0,0,0,0,0,0,-1,1770,1373,0,0
553,-349,0,0,0,0,0,0,0,0,0,-1,1777,1373,0,0
560,-349,1.66992,0.913574,0.029802,0.078938,0.0229294,0.0879757,0.0207643,1.19534,0.0531,0.042354,1784,1373,1.66992,-0.913514
567,-349,1.51538,1.08557,0.0169849,0.055425,0.0223979,0.065719,0.00669095,1.13999,0.0417614,0.0456415,1791,1373,1.51537,-1.08555
574,-349,1.80103,0.826294,0,0,0,0,0,0,0,-1,1798,1373,1.80102,-0.826313
581,-349,1.9248,0.733643,-0.00504276,0.0208484,0.0155382,0.0281271,-0.0123216,1.13271,0.02394,0.0455161,1805,1373,1.9248,-0.733636
588,-349,1.56873,0.68457,-0.0114839,0.00991453,0.0120114,0.0153009,-0.0168703,1.14924,0.0185815,0.043109,1812,1373,1.56874,-0.684521
595,-349,0.773682,0.39209,0,0,0,0,0,0,0,-1,1819,1373,0.773732,-0.392108
602,-349,1.33875,0.0991211,0,0,0,0,0,0,0,-1,1826,1373,1.3387,-0.0991067
609,-349,1.0874,0.111572,0,0,0,0,0,0,0,-1,1833,1373,1.08736,-0.11152
616,-349,0.746948,0.175781,-0.016245,-0.00600248,0.00361305,-0.00485625,-0.0173912,1.26359,0.0103619,0.0471293,1840,1373,0.746932,-0.175771
623,-349,0.452271,0.0275879,-0.015633,-0.0057194,0.00237352,-0.00518043,-0.0161719,1.34751,0.00953568,0.0445439,1847,1373,0.452311,-0.0275801
630,-349,-0.053833,-0.0302734,0,0,0,0,0,0,0,-1,1854,1373,-0.0538648,0.0302635
637,-349,-0.0474854,-0.0378418,-0.0112576,-0.00451131,0.000577924,-0.00446216,-0.0113068,1.48596,0.00657611,0.0379167,1861,1373,-0.0474331,0.0378879
644,-349,-0.039917,-0.0484619,-0.00823331,-0.00284246,0.000456982,-0.002804,-0.00827177,1.48682,0.00485755,0.0214372,1868,1373,-0.0399274,0.0484473
651,-349,-0.0859375,-0.0603027,-0.00577179,-0.00115603,0.000832472,-0.00101048,-0.00591734,1.3977,0.00365492,0.0183094,1875,1373,-0.0859354,0.0603465
658,-349,-0.12915,-0.0543213,-0.00454378,-0.000302399,0.000775629,-0.000165009,-0.00468117,1.39548,0.00306726,0.0230697,1882,1373,-0.129207,0.0543464
665,-349,-0.0821533,-0.0560303,-0.00314907,-0.000187821,0.000518091,-9.97941e-05,-0.0032371,1.4025,0.00212558,0.0179528,1889,1373,-0.0820942,0.0560498
672,-349,-0.0855713,-0.0488281,-0.00169637,-0.000214174,0.000493089,-6.51242e-05,-0.00184542,1.27725,0.00120915,0.0128896,1896,1373,-0.0856044,0.0487923
679,-349,-0.0823975,-0.0598145,-0.000490977,-0.000450632,0.00045507,-1.52873e-05,-0.000926321,0.807548,0.000612515,0.0113776,1903,1373,-0.0824179,0.0597967
686,-349,-0.071167,-0.0478516,0.000676821,-0.000820312,0.000323901,0.000743892,-0.000887383,0.204185,0.000943031,0.00989207,1910,1373,-0.0711712,0.0478523
693,-349,-0.0637207,-0.0561523,0.00184968,-0.000938457,0.000376401,0.0018996,-0.000988377,0.131857,0.00169481,0.0132027,1917,1373,-0.0636953,0.0562021
700,-349,-0.0693359,-0.0445557,0.00316818,-0.00135909,0.000227688,0.0031796,-0.00137051,0.0501239,0.00269533,0.0158946,1924,1373,-0.0693153,0.0444962
707,-349,-0.0773926,-0.0574951,0.00453432,-0.00182195,0.000179098,0.00453936,-0.00182699,0.0281469,0.00378518,0.0145551,1931,1373,-0.0774425,0.0575341
714,-349,-0.081543,-0.0974121,0.00609672,-0.00229455,7.89474e-05,0.00609746,-0.00229529,0.00940717,0.00500857,0.0156582,1938,1373,-0.0815794,0.0974096
721,-349,-0.0789795,-0.134521,0.00808975,-0.00261065,-0.000135522,0.00809147,-0.00261236,-0.0126624,0.00644409,0.0340778,1945,1373,-0.0789947,0.134505
728,-349,-0.0965576,-0.115601,0.0103039,-0.00281311,-0.000424988,0.0103176,-0.00282687,-0.0323545,0.00798921,0.0472716,1952,1373,-0.0966118,0.115635
735,-349,0.133301,0.271851,0,0,0,0,0,0,0,-1,1959,1373,0.1333,-0.271801
742,-349,0.666138,-0.119385,0.0147214,-0.00254827,-0.00119116,0.0148031,-0.00263004,-0.0685419,0.0108522,0.0484642,1966,1373,0.666182,0.11934
749,-349,0.951172,-0.0695801,0.0163229,-0.00185017,-0.00155644,0.0164552,-0.0019825,-0.0848221,0.0116872,0.0450779,1973,1373,0.951119,0.0695992
756,-349,0,0,0,0,0,0,0,0,0,-1,1980,1373,0,0
763,-349,0,0,0,0,0,0,0,0,0,-1,1987,1373,0,0
770,-349,0,0,0,0,0,0,0,0,0,-1,1994,1373,0,0
777,-349,0,0,0,0,0,0,0,0,0,-1,2001,1373,0,0
784,-349,0,0,0,0,0,0,0,0,0,-1,2008,1373,0,0
791,-349,0,0,0,0,0,0,0,0,0,-1,2015,1373,0,0
798,-349,0,0,0,0,0,0,0,0,0,-1,2022,1373,0,0
805,-349,0,0,0,0,0,0,0,0,0,-1,2029,1373,0,0
812,-349,0,0,0,0,0,0,0,0,0,-1,2036,1373,0,0
-700,-356,0,0,0,0,0,0,0,0,0,-1,524,1380,0,0
-693,-356,0,0,0,0,0,0,0,0,0,-1,531,1380,0,0
-686,-356,0,0,0,0,0,0,0,0,0,-1,538,1380,0,0
-679,-356,0,0,0,0,0,0,0,0,0,-1,545,1380,0,0
-672,-356,0,0,0,0,0,0,0,0,0,-1,552,1380,0,0
-665,-356,0,0,0,0,0,0,0,0,0,-1,559,1380,0,0
-658,-356,0,0,0,0,0,0,0,0,0,-1,566,1380,0,0
-651,-356,0,0,0,0,0,0,0,0,0,-1,573,1380,0,0
-644,-356,0,0,0,0,0,0,0,0,0,-1,580,1380,0,0
-637,-356,0,0,0,0,0,0,0,0,0,-1,587,1380,0,0
-630,-356,0.229492,-1.13525,0,0,0,0,0,0,0,-1,594,1380,0.229499,1.13526
-623,-356,0.412354,-0.998047,0.0222648,0.0196601,-0.0141357,0.035158,0.00676692,-0.739461,0.0215403,0.0457095,601,1380,0.412382,0.998016
-616,-356,0.642212,0.214355,0.0160595,0.0161316,-0.0120784,0.028174,0.00401713,-0.78689,0.0175971,0.0487443,608,1380,0.642223,-0.214326
-609,-356,0.406433,-0.393555,0.0114762,0.0133463,-0.0100732,0.0225278,0.00229476,-0.831679,0.014315,0.0438213,615,1380,0.406406,0.393611
-602,-356,0.0743408,-0.420776,0.00806536,0.0111523,-0.00822595,0.0179783,0.00123934,-0.878138,0.0115946,0.0446244,622,1380,0.0743663,0.42083
-595,-356,-0.144775,-0.232422,0.00553616,0.0093418,-0.00653501,0.0142454,0.000632575,-0.927068,0.00929324,0.0433082,629,1380,-0.144769,0.232454
-588,-356,-0.0999756,-0.203613,0.00372554,0.00776756,-0.00504691,0.0111831,0.000310034,-0.975843,0.00735422,0.044844,636,1380,-0.0999792,0.203669
-581,-356,0.0454712,-0.322388,0.00207767,0.00624512,-0.00352571,0.00825682,6.59577e-05,-1.05229,0.0054827,0.0347931,643,1380,0.0454701,0.322366
-574,-356,-0.0546265,-0.0505371,0.00110322,0.00435391,-0.0026244,0.00581551,-0.000358373,-1.06265,0.00400181,0.0194626,650,1380,-0.0546557,0.0505575
-567,-356,-0.0765991,-0.0457764,0.000518016,0.00345248,-0.00181328,0.00431779,-0.000347295,-1.12555,0.003001,0.0145715,657,1380,-0.076601,0.0458271
-560,-356,-0.0604858,-0.0736084,0.000177862,0.00262267,-0.00125495,0.00315217,-0.000351638,-1.17153,0.00222793,0.0157393,664,1380,-0.0604582,0.0735623
-553,-356,-0.0473633,-0.102051,0.000503433,0.00196393,-0.000872592,0.00237152,9.58405e-05,-1.13381,0.00155005,0.0188669,671,1380,-0.0473378,0.102088
-546,-356,-0.076416,-0.0992432,0.00113142,0.000447528,-0.000120414,0.001152,0.000426946,-0.169291,0.000672491,0.0215239,678,1380,-0.0764211,0.0992979
-539,-356,-0.0808105,-0.0563965,0.00148731,-0.00144783,0.000784001,0.0016836,-0.00164412,0.245322,0.0019213,0.0148104,685,1380,-0.0807888,0.0563698
-532,-356,-0.0970459,-0.0511475,0.00179062,-0.00315998,0.00194986,0.00246636,-0.00383573,0.333606,0.00366703,0.0142875,692,1380,-0.097059,0.0511868
-525,-356,-0.100464,-0.0406494,0.00264829,-0.00496778,0.00322882,0.00383289,-0.00615238,0.351636,0.00581661,0.0116788,699,1380,-0.100457,0.0406976
-518,-356,-0.0825195,-0.0428467,0.00404382,-0.00680812,0.00473942,0.00582223,-0.00858654,0.358981,0.00836979,0.010844,706,1380,-0.0825409,0.0428736
-511,-356,-0.0772705,-0.0510254,0.00517357,-0.00945714,0.00655691,0.00768203,-0.0119656,0.365389,0.0114331,0.0147889,713,1380,-0.0772897,0.0510665
-504,-356,0.00469971,-0.148926,0.00723015,-0.011728,0.00911275,0.0109,-0.0153979,0.382849,0.0152569,0.0252676,720,1380,0.00466936,0.148902
-497,-356,-0.0426025,-0.227295,0.0102743,-0.0171659,0.0124857,0.0151051,-0.0219966,0.369165,0.0215435,0.0394644,727,1380,-0.0425868,0.227336
-490,-356,-0.169617,-0.0948486,0.0136781,-0.0199854,0.0143763,0.0189819,-0.0252893,0.35344,0.0256463,0.0452154,734,1380,-0.16962,0.094856
-483,-356,-0.245117,0.0181885,0.0177544,-0.0225152,0.0156048,0.0230935,-0.0278543,0.329661,0.0294575,0.0471528,741,1380,-0.245111,-0.0181888
-476,-356,-0.891235,0.391602,0.0227211,-0.026154,0.0171698,0.0281499,-0.0315827,0.306235,0.0345056,0.0473966,748,1380,-0.891256,-0.391541
-469,-356,-0.0299683,0.41687,0.0287778,-0.0295689,0.0177866,0.0337724,-0.0345634,0.273756,0.0394546,0.044458,755,1380,-0.0299522,-0.41691
-462,-356,0.175354,-0.0629883,0,0,0,0,0,0,0,-1,762,1380,0.175349,0.0629362
-455,-356,0.019043,0.149658,0.0445815,-0.0337946,0.0138611,0.0469607,-0.0361737,0.169987,0.0481322,0.0448163,769,1380,0.0190728,-0.149681
-448,-356,0.768494,2.92395,0.0545087,-0.0337368,0.00799741,0.0552276,-0.0344557,0.0896536,0.0522396,0.0484456,776,1380,0.768503,-2.92396
-441,-356,1.17621,3.26001,0,0,0,0,0,0,0,-1,783,1380,1.1762,-3.26003
-434,-356,0,0,0,0,0,0,0,0,0,-1,790,1380,0,0
-427,-356,0,0,0,0,0,0,0,0,0,-1,797,1380,0,0
-420,-356,0,0,0,0,0,0,0,0,0,-1,804,1380,0,0
-413,-356,0,0,0,0,0,0,0,0,0,-1,811,1380,0,0
-406,-356,0,0,0,0,0,0,0,0,0,-1,818,1380,0,0
-399,-356,0,0,0,0,0,0,0,0,0,-1,825,1380,0,0
-392,-356,0,0,0,0,0,0,0,0,0,-1,832,1380,0,0
-385,-356,0,0,0,0,0,0,0,0,0,-1,839,1380,0,0
-378,-356,0,0,0,0,0,0,0,0,0,-1,846,1380,0,0
-371,-356,0,0,0,0,0,0,0,0,0,-1,853,1380,0,0
-364,-356,0,0,0,0,0,0,0,0,0,-1,860,1380,0,0
-357,-356,0,0,0,0,0,0,0,0,0,-1,867,1380,0,0
-350,-356,0,0,0,0,0,0,0,0,0,-1,874,1380,0,0
-343,-356,0,0,0,0,0,0,0,0,0,-1,881,1380,0,0
-336,-356,0,0,0,0,0,0,0,0,0,-1,888,1380,0,0
-329,-356,0,0,0,0,0,0,0,0,0,-1,895,1380,0,0
-322,-356,0,0,0,0,0,0,0,0,0,-1,902,1380,0,0
-315,-356,0,0,0,0,0,0,0,0,0,-1,909,1380,0,0
-308,-356,0,0,0,0,0,0,0,0,0,-1,916,1380,0,0
-301,-356,0,0,0,0,0,0,0,0,0,-1,923,1380,0,0
-294,-356,0,0,0,0,0,0,0,0,0,-1,930,1380,0,0
-287,-356,0,0,0,0,0,0,0,0,0,-1,937,1380,0,0
-280,-356,0,0,0,0,0,0,0,0,0,-1,944,1380,0,0
-273,-356,0,0,0,0,0,0,0,0,0,-1,951,1380,0,0
-266,-356,0,0,0,0,0,0,0,0,0,-1,958,1380,0,0
-259,-356,0,0,0,0,0,0,0,0,0,-1,965,1380,0,0
-252,-356,0,0,0,0,0,0,0,0,0,-1,972,1380,0,0
-245,-356,0,0,0,0,0,0,0,0,0,-1,979,1380,0,0
-238,-356,0,0,0,0,0,0,0,0,0,-1,986,1380,0,0
-231,-356,0,0,0,0,0,0,0,0,0,-1,993,1380,0,0
-224,-356,0,0,0,0,0,0,0,0,0,-1,1000,1380,0,0
-217,-356,0,0,0,0,0,0,0,0,0,-1,1007,1380,0,0
-210,-356,0,0,0,0,0,0,0,0,0,-1,1014,1380,0,0
-203,-356,0,0,0,0,0,0,0,0,0,-1,1021,1380,0,0
-196,-356,0,0,0,0,0,0,0,0,0,-1,1028,1380,0,0
-189,-356,0,0,0,0,0,0,0,0,0,-1,1035,1380,0,0
-182,-356,0,0,0,0,0,0,0,0,0,-1,1042,1380,0,0
-175,-356,0,0,0,0,0,0,0,0,0,-1,1049,1380,0,0
-168,-356,0,0,0,0,0,0,0,0,0,-1,1056,1380,0,0
-161,-356,0,0,0,0,0,0,0,0,0,-1,1063,1380,0,0
-154,-356,0,0,0,0,0,0,0,0,0,-1,1070,1380,0,0
-147,-356,0,0,0,0,0,0,0,0,0,-1,1077,1380,0,0
-140,-356,0,0,0,0,0,0,0,0,0,-1,1084,1380,0,0
-133,-356,0,0,0,0,0,0,0,0,0,-1,1091,1380,0,0
-126,-356,0,0,0,0,0,0,0,0,0,-1,1098,1380,0,0
-119,-356,0,0,0,0,0,0,0,0,0,-1,1105,1380,0,0
-112,-356,0,0,0,0,0,0,0,0,0,-1,1112,1380,0,0
-105,-356,0,0,0,0,0,0,0,0,0,-1,1119,1380,0,0
-98,-356,0,0,0,0,0,0,0,0,0,-1,1126,1380,0,0
-91,-356,0,0,0,0,0,0,0,0,0,-1,1133,1380,0,0
-84,-356,0,0,0,0,0,0,0,0,0,-1,1140,1380,0,0
-77,-356,0,0,0,0,0,0,0,0,0,-1,1147,1380,0,0
-70,-356,0,0,0,0,0,0,0,0,0,-1,1154,1380,0,0
-63,-356,0,0,0,0,0,0,0,0,0,-1,1161,1380,0,0
-56,-356,0,0,0,0,0,0,0,0,0,-1,1168,1380,0,0
-49,-356,0,0,0,0,0,0,0,0,0,-1,1175,1380,0,0
-42,-356,0,0,0,0,0,0,0,0,0,-1,1182,1380,0,0
-35,-356,0,0,0,0,0,0,0,0,0,-1,1189,1380,0,0
-28,-356,0,0,0,0,0,0,0,0,0,-1,1196,1380,0,0
-21,-356,0,0,0,0,0,0,0,0,0,-1,1203,1380,0,0
-14,-356,0,0,0,0,0,0,0,0,0,-1,1210,1380,0,0
-7,-356,0,0,0,0,0,0,0,0,0,-1,1217,1380,0,0
0,-356,0,0,0,0,0,0,0,0,0,-1,1224,1380,0,0
7,-356,0,0,0,0,0,0,0,0,0,-1,1231,1380,0,0
14,-356,0,0,0,0,0,0,0,0,0,-1,1238,1380,0,0
21,-356,0,0,0,0,0,0,0,0,0,-1,1245,1380,0,0
28,-356,0,0,0,0,0,0,0,0,0,-1,1252,1380,0,0
35,-356,0,0,0,0,0,0,0,0,0,-1,1259,1380,0,0
42,-356,0,0,0,0,0,0,0,0,0,-1,1266,1380,0,0
49,-356,0,0,0,0,0,0,0,0,0,-1,1273,1380,0,0
56,-356,0,0,0,0,0,0,0,0,0,-1,1280,1380,0,0
63,-356,0,0,0,0,0,0,0,0,0,-1,1287,1380,0,0
70,-356,0,0,0,0,0,0,0,0,0,-1,1294,1380,0,0
77,-356,0,0,0,0,0,0,0,0,0,-1,1301,1380,0,0
84,-356,0,0,0,0,0,0,0,0,0,-1,1308,1380,0,0
91,-356,0,0,0,0,0,0,0,0,0,-1,1315,1380,0,0
98,-356,0,0,0,0,0,0,0,0,0,-1,1322,1380,0,0
105,-356,0,0,0,0,0,0,0,0,0,-1,1329,1380,0,0
112,-356,0,0,0,0,0,0,0,0,0,-1,1336,1380,0,0
119,-356,0,0,0,0,0,0,0,0,0,-1,1343,1380,0,0
126,-356,0,0,0,0,0,0,0,0,0,-1,1350,1380,0,0
133,-356,0,0,0,0,0,0,0,0,0,-1,1357,1380,0,0
140,-356,0,0,0,0,0,0,0,0,0,-1,1364,1380,0,0
147,-356,0,0,0,0,0,0,0,0,0,-1,1371,1380,0,0
154,-356,0,0,0,0,0,0,0,0,0,-1,1378,1380,0,0
161,-356,0,0,0,0,0,0,0,0,0,-1,1385,1380,0,0
168,-356,0,0,0,0,0,0,0,0,0,-1,1392,1380,0,0
175,-356,0,0,0,0,0,0,0,0,0,-1,1399,1380,0,0
182,-356,0,0,0,0,0,0,0,0,0,-1,1406,1380,0,0
189,-356,0,0,0,0,0,0,0,0,0,-1,1413,1380,0,0
196,-356,0,0,0,0,0,0,0,0,0,-1,1420,1380,0,0
203,-356,0,0,0,0,0,0,0,0,0,-1,1427,1380,0,0
210,-356,0,0,0,0,0,0,0,0,0,-1,1434,1380,0,0
217,-356,0,0,0,0,0,0,0,0,0,-1,1441,1380,0,0
224,-356,0,0,0,0,0,0,0,0,0,-1,1448,1380,0,0
231,-356,0,0,0,0,0,0,0,0,0,-1,1455,1380,0,0
238,-356,0,0,0,0,0,0,0,0,0,-1,1462,1380,0,0
245,-356,0,0,0,0,0,0,0,0,0,-1,1469,1380,0,0
252,-356,0,0,0,0,0,0,0,0,0,-1,1476,1380,0,0
259,-356,0,0,0,0,0,0,0,0,0,-1,1483,1380,0,0
266,-356,0,0,0,0,0,0,0,0,0,-1,1490,1380,0,0
273,-356,0,0,0,0,0,0,0,0,0,-1,1497,1380,0,0
280,-356,0,0,0,0,0,0,0,0,0,-1,1504,1380,0,0
287,-356,0,0,0,0,0,0,0,0,0,-1,1511,1380,0,0
294,-356,0,0,0,0,0,0,0,0,0,-1,1518,1380,0,0
301,-356,0,0,0,0,0,0,0,0,0,-1,1525,1380,0,0
308,-356,0,0,0,0,0,0,0,0,0,-1,1532,1380,0,0
315,-356,0,0,0,0,0,0,0,0,0,-1,1539,1380,0,0
322,-356,0,0,0,0,0,0,0,0,0,-1,1546,1380,0,0
329,-356,0,0,0,0,0,0,0,0,0,-1,1553,1380,0,0
336,-356,0,0,0,0,0,0,0,0,0,-1,1560,1380,0,0
343,-356,0,0,0,0,0,0,0,0,0,-1,1567,1380,0,0
350,-356,0,0,0,0,0,0,0,0,0,-1,1574,1380,0,0
357,-356,0,0,0,0,0,0,0,0,0,-1,1581,1380,0,0
364,-356,0,0,0,0,0,0,0,0,0,-1,1588,1380,0,0
371,-356,0,0,0,0,0,0,0,0,0,-1,1595,1380,0,0
378,-356,0,0,0,0,0,0,0,0,0,-1,1602,1380,0,0
385,-356,0,0,0,0,0,0,0,0,0,-1,1609,1380,0,0
392,-356,0,0,0,0,0,0,0,0,0,-1,1616,1380,0,0
399,-356,0,0,0,0,0,0,0,0,0,-1,1623,1380,0,0
406,-356,0,0,0,0,0,0,0,0,0,-1,1630,1380,0,0
413,-356,0,0,0,0,0,0,0,0,0,-1,1637,1380,0,0
420,-356,0,0,0,0,0,0,0,0,0,-1,1644,1380,0,0
427,-356,0,0,0,0,0,0,0,0,0,-1,1651,1380,0,0
434,-356,0,0,0,0,0,0,0,0,0,-1,1658,1380,0,0
441,-356,0,0,0,0,0,0,0,0,0,-1,1665,1380,0,0
448,-356,0,0,0,0,0,0,0,0,0,-1,1672,1380,0,0
455,-356,0,0,0,0,0,0,0,0,0,-1,1679,1380,0,0
462,-356,0,0,0,0,0,0,0,0,0,-1,1686,1380,0,0
469,-356,0,0,0,0,0,0,0,0,0,-1,1693,1380,0,0
476,-356,0,0,0,0,0,0,0,0,0,-1,1700,1380,0,0
483,-356,0,0,0,0,0,0,0,0,0,-1,1707,1380,0,0
490,-356,0,0,0,0,0,0,0,0,0,-1,1714,1380,0,0
497,-356,0,0,0,0,0,0,0,0,0,-1,1721,1380,0,0
504,-356,0,0,0,0,0,0,0,0,0,-1,1728,1380,0,0
511,-356,0,0,0,0,0,0,0,0,0,-1,1735,1380,0,0
518,-356,0,0,0,0,0,0,0,0,0,-1,1742,1380,0,0
525,-356,0,0,0,0,0,0,0,0,0,-1,1749,1380,0,0
532,-356,0,0,0,0,0,0,0,0,0,-1,1756,1380,0,0
539,-356,0,0,0,0,0,0,0,0,0,-1,1763,1380,0,0
546,-356,0,0,0,0,0,0,0,0,0,-1,1770,1380,0,0
553,-356,0,0,0,0,0,0,0,0,0,-1,1777,1380,0,0
560,-356,1.04065,0.32312,0.0496325,0.0957766,0.0230276,0.105302,0.0401071,1.17858,0.0613685,0.0471301,1784,1380,1.04064,-0.323108
567,-356,0.99707,0.552124,0.0378464,0.0733586,0.0275674,0.0883933,0.0228117,1.07151,0.0529878,0.0471055,1791,1380,0.997082,-0.552167
574,-356,1.14392,0.549683,0,0,0,0,0,0,0,-1,1798,1380,1.14396,-0.549622
581,-356,1.14832,0.632813,0.0101896,0.0357115,0.0220087,0.0483912,-0.00249013,1.04812,0.0331221,0.0432739,1805,1380,1.14837,-0.632772
588,-356,1.01575,0.657715,-0.000363108,0.022016,0.0172699,0.0314045,-0.00975155,1.07286,0.0248335,0.0433793,1812,1380,1.01569,-0.657753
595,-356,0.765991,0.46936,-0.00761896,0.0120256,0.0128619,0.0183868,-0.0139802,1.1115,0.0187447,0.0469727,1819,1380,0.766018,-0.469323
602,-356,0.565186,0.178711,0,0,0,0,0,0,0,-1,1826,1380,0.565154,-0.178739
609,-356,0.962769,0.560913,0,0,0,0,0,0,0,-1,1833,1380,0.962788,-0.560935
616,-356,0.679077,0.335571,-0.0150582,-0.00281334,0.00440608,-0.00139272,-0.0164789,1.2589,0.0105523,0.0413964,1840,1380,0.679132,-0.335551
623,-356,0.394409,0.0892334,-0.0154655,-0.00368696,0.00249934,-0.00317855,-0.0159739,1.37012,0.00976376,0.0369235,1847,1380,0.394377,-0.0892856
630,-356,0.0842285,0.0566406,-0.0146072,-0.00526184,0.000325677,-0.00525051,-0.0146185,1.536,0.00855086,0.0315534,1854,1380,0.0842838,-0.0566962
637,-356,-0.0640869,-0.019165,-0.0122905,-0.00440414,-0.000540816,-0.00436723,-0.0123274,-1.50265,0.00721728,0.0189812,1861,1380,-0.0641252,0.019126
644,-356,-0.0700684,-0.0437012,-0.00881009,-0.00290699,-0.000385538,-0.00288191,-0.00883516,-1.50585,0.00520271,0.0149229,1868,1380,-0.0701015,0.043741
651,-356,-0.0742188,-0.0620117,-0.00585546,-0.00138472,0.00028092,-0.00136714,-0.00587305,1.50829,0.00354855,0.0144039,1875,1380,-0.0742066,0.0619609
658,-356,-0.0970459,-0.0734863,-0.00422488,-0.000539877,0.00051993,-0.000467923,-0.00429683,1.43328,0.00272202,0.0140932,1882,1380,-0.0970849,0.0734587
665,-356,-0.0802002,-0.0535889,-0.00276972,-0.000346559,0.000444011,-0.000267763,-0.00284852,1.39516,0.00181635,0.0135249,1889,1380,-0.0802317,0.0535788
672,-356,-0.0881348,-0.0402832,-0.00136349,-0.000279627,0.00048529,-9.40994e-05,-0.00154902,1.20564,0.00100278,0.0134158,1896,1380,-0.0881479,0.0402547
679,-356,-0.0805664,-0.0566406,-0.000147857,-0.000442064,0.000519081,0.000244562,-0.000834483,0.647323,0.000653284,0.01372,1903,1380,-0.080508,0.0566025
686,-356,-0.0772705,-0.05896,0.000954393,-0.000671636,0.000429286,0.00106077,-0.000778012,0.242905,0.0010658,0.0118504,1910,1380,-0.0772552,0.0589971
693,-356,-0.0709229,-0.0478516,0.00207614,-0.000653609,0.000495039,0.00216314,-0.000740612,0.173972,0.00174225,0.0117369,1917,1380,-0.0708788,0.0478004
700,-356,-0.0753174,-0.048584,0.00338786,-0.000765586,0.000372679,0.00342103,-0.000798761,0.0887827,0.00258836,0.0164579,1924,1380,-0.0753496,0.0485357
707,-356,-0.100708,-0.0899658,0.00482506,-0.00103722,0.000264278,0.00483695,-0.00104911,0.0449595,0.0036253,0.0179108,1931,1380,-0.100753,0.0899313
714,-356,-0.105225,-0.146118,0.00651693,-0.00127671,9.62231e-05,0.00651812,-0.00127789,0.0123439,0.00482808,0.0267347,1938,1380,-0.105233,0.146096
721,-356,-0.164917,-0.0562744,0.00870148,-0.00132504,-0.000204116,0.00870563,-0.0013292,-0.0203464,0.00629378,0.0386382,1945,1380,-0.164964,0.0562695
728,-356,-0.228149,0.0751953,0.0111964,-0.00117967,-0.000597007,0.0112251,-0.0012084,-0.0480902,0.00791699,0.0453953,1952,1380,-0.228199,-0.0752159
735,-356,0.0192871,-0.135132,0.0138666,-0.000733447,-0.00107614,0.0139455,-0.00081234,-0.0731806,0.00957929,0.0466919,1959,1380,0.0192803,0.135183
742,-356,0.931152,-0.400391,0,0,0,0,0,0,0,-1,1966,1380,0.931204,0.400399
749,-356,1.00818,-0.331177,0,0,0,0,0,0,0,-1,1973,1380,1.00822,0.331178
756,-356,0,0,0,0,0,0,0,0,0,-1,1980,1380,0,0
763,-356,0,0,0,0,0,0,0,0,0,-1,1987,1380,0,0
770,-356,0,0,0,0,0,0,0,0,0,-1,1994,1380,0,0
777,-356,0,0,0,0,0,0,0,0,0,-1,2001,1380,0,0
784,-356,0,0,0,0,0,0,0,0,0,-1,2008,1380,0,0
791,-356,0,0,0,0,0,0,0,0,0,-1,2015,1380,0,0
798,-356,0,0,0,0,0,0,0,0,0,-1,2022,1380,0,0
805,-356,0,0,0,0,0,0,0,0,0,-1,2029,1380,0,0
812,-356,0,0,0,0,0,0,0,0,0,-1,2036,1380,0,0
-700,-363,0,0,0,0,0,0,0,0,0,-1,524,1387,0,0
-693,-363,0,0,0,0,0,0,0,0,0,-1,531,1387,0,0
-686,-363,0,0,0,0,0,0,0,0,0,-1,538,1387,0,0
-679,-363,0,0,0,0,0,0,0,0,0,-1,545,1387,0,0
-672,-363,0,0,0,0,0,0,0,0,0,-1,552,1387,0,0
-665,-363,0,0,0,0,0,0,0,0,0,-1,559,1387,0,0
-658,-363,0,0,0,0,0,0,0,0,0,-1,566,1387,0,0
-651,-363,0,0,0,0,0,0,0,0,0,-1,573,1387,0,0
-644,-363,0,0,0,0,0,0,0,0,0,-1,580,1387,0,0
-637,-363,0,0,0,0,0,0,0,0,0,-1,587,1387,0,0
-630,-363,0,0,0,0,0,0,0,0,0,-1,594,1387,0,0
-623,-363,0.779846,-1.10437,0.0148796,0.0202683,-0.00968205,0.0276239,0.00752397,-0.921108,0.0164904,0.0492345,601,1387,0.77985,1.10434
-616,-363,0.219849,0.0617676,0.010199,0.0188361,-0.00847161,0.0240264,0.00500871,-1.02111,0.0146365,0.0455195,608,1387,0.219839,-0.0617433
-609,-363,0.444641,0.261108,0.00694273,0.0172716,-0.00701729,0.02082,0.00339432,-1.10263,0.0128983,0.0432428,615,1387,0.444635,-0.261086
-602,-363,-0.279053,-0.151855,0.00465292,0.0156616,-0.00554861,0.0179729,0.00234158,-1.17609,0.0112827,0.0431193,622,1387,-0.279074,0.15189
-595,-363,-0.256226,-0.265625,0.0030205,0.013985,-0.00414246,0.0153741,0.00163143,-1.24725,0.00975116,0.0419801,629,1387,-0.25625,0.265647
-588,-363,0.0985718,-0.379883,0.00191394,0.0122118,-0.00290458,0.0129746,0.00115118,-1.31399,0.00829268,0.0417383,636,1387,0.0985512,0.379828
-581,-363,0.397705,-0.720459,0,0,0,0,0,0,0,-1,643,1387,0.397711,0.720447
-574,-363,-0.0224609,-0.0993652,0.000244532,0.00786923,-0.00100524,0.00799953,0.000114227,-1.44189,0.00529536,0.0259639,650,1387,-0.0224385,0.0994247
-567,-363,-0.065979,-0.0546875,-1.14904e-06,0.00650988,-0.00051957,0.00655108,-4.23493e-05,-1.49167,0.00438157,0.0158833,657,1387,-0.0659577,0.0547149
-560,-363,-0.0610962,-0.0784912,-0.000203917,0.00517302,-0.0001628,0.00517794,-0.000208842,-1.54056,0.00352364,0.0124296,664,1387,-0.0611068,0.0784572
-553,-363,-0.067627,-0.076416,0.000117003,0.00380317,2.94413e-05,0.0038034,0.000116768,1.56281,0.00249759,0.0123234,671,1387,-0.0676258,0.0764128
-546,-363,-0.0752563,-0.069458,0.000605593,0.00187879,0.000520896,0.00206475,0.000419641,1.22791,0.00126013,0.0119656,678,1387,-0.0752772,0.0694393
-539,-363,-0.0635986,-0.0656738,0.000781108,-0.000203222,0.00111064,0.00150374,-0.000925856,0.576832,0.00141589,0.013857,685,1387,-0.0636245,0.0656151
-532,-363,-0.0662231,-0.0546875,0.000914748,-0.00206713,0.00184643,0.00179703,-0.00294941,0.445758,0.00276715,0.012076,692,1387,-0.0662403,0.0546467
-525,-363,-0.0756226,-0.0477295,0.00162996,-0.00396417,0.00253175,0.0026056,-0.00493981,0.367825,0.00442529,0.00911994,699,1387,-0.0756351,0.0477485
-518,-363,-0.0842896,-0.050415,0.00291461,-0.00556734,0.00331309,0.00405531,-0.00670804,0.331589,0.00627682,0.00854506,706,1387,-0.0842976,0.0503916
-511,-363,-0.086853,-0.0491943,0.00392617,-0.00753742,0.00456442,0.00552155,-0.0091328,0.33625,0.00854589,0.0133153,713,1387,-0.0868634,0.0491724
-504,-363,-0.0783081,-0.0700684,0.00583394,-0.00918767,0.0063696,0.00817118,-0.0115249,0.351683,0.0114264,0.0183315,720,1387,-0.0783173,0.0700393
-497,-363,-0.0687866,-0.111572,0.00871125,-0.0138166,0.00894033,0.0118281,-0.0169334,0.335448,0.0166924,0.0321134,727,1387,-0.0687768,0.111595
-490,-363,-0.0562134,-0.0656738,0.0121104,-0.0155791,0.00974039,0.0151935,-0.0186622,0.306551,0.0195808,0.0415891,734,1387,-0.0562143,0.0656846
-483,-363,-0.0065918,-0.0584717,0.0161813,-0.0168416,0.00977322,0.0188569,-0.0195172,0.267223,0.0221564,0.041481,741,1387,-0.00661579,0.0585127
-476,-363,0.0124512,-0.256836,0.0211024,-0.0189704,0.010117,0.0235117,-0.0213798,0.233793,0.0259279,0.0410801,748,1387,0.0124368,0.256892
-469,-363,0.299805,-0.0722656,0.0270334,-0.020493,0.00946781,0.02885,-0.0223097,0.189573,0.0296174,0.0428995,755,1387,0.299805,0.0722397
-462,-363,0.442932,-0.331543,0.0340578,-0.0208937,0.00730495,0.0350123,-0.0218482,0.129929,0.0331204,0.0431814,762,1387,0.442911,0.331491
-455,-363,0.415466,-0.376587,0.042248,-0.0193782,0.0028844,0.0423827,-0.0195129,0.0466687,0.0365395,0.04439,769,1387,0.415441,0.376563
-448,-363,0.463867,-0.459595,0,0,0,0,0,0,0,-1,776,1387,0.463872,0.459555
-441,-363,-0.844421,0.81958,0,0,0,0,0,0,0,-1,783,1387,-0.844419,-0.819599
-434,-363,-0.481506,0.152954,0,0,0,0,0,0,0,-1,790,1387,-0.481481,-0.152977
-427,-363,0,0,0,0,0,0,0,0,0,-1,797,1387,0,0
-420,-363,0,0,0,0,0,0,0,0,0,-1,804,1387,0,0
-413,-363,0,0,0,0,0,0,0,0,0,-1,811,1387,0,0
-406,-363,0,0,0,0,0,0,0,0,0,-1,818,1387,0,0
-399,-363,0,0,0,0,0,0,0,0,0,-1,825,1387,0,0
-392,-363,0,0,0,0,0,0,0,0,0,-1,832,1387,0,0
-385,-363,0,0,0,0,0,0,0,0,0,-1,839,1387,0,0
-378,-363,0,0,0,0,0,0,0,0,0,-1,846,1387,0,0
-371,-363,0,0,0,0,0,0,0,0,0,-1,853,1387,0,0
-364,-363,0,0,0,0,0,0,0,0,0,-1,860,1387,0,0
-357,-363,0,0,0,0,0,0,0,0,0,-1,867,1387,0,0
-350,-363,0,0,0,0,0,0,0,0,0,-1,874,1387,0,0
-343,-363,0,0,0,0,0,0,0,0,0,-1,881,1387,0,0
-336,-363,0,0,0,0,0,0,0,0,0,-1,888,1387,0,0
-329,-363,0,0,0,0,0,0,0,0,0,-1,895,1387,0,0
-322,-363,0,0,0,0,0,0,0,0,0,-1,902,1387,0,0
-315,-363,0,0,0,0,0,0,0,0,0,-1,909,1387,0,0
-308,-363,0,0,0,0,0,0,0,0,0,-1,916,1387,0,0
-301,-363,0,0,0,0,0,0,0,0,0,-1,923,1387,0,0
-294,-363,0,0,0,0,0,0,0,0,0,-1,930,1387,0,0
-287,-363,0,0,0,0,0,0,0,0,0,-1,937,1387,0,0
-280,-363,0,0,0,0,0,0,0,0,0,-1,944,1387,0,0
-273,-363,0,0,0,0,0,0,0,0,0,-1,951,1387,0,0
-266,-363,0,0,0,0,0,0,0,0,0,-1,958,1387,0,0
-259,-363,0,0,0,0,0,0,0,0,0,-1,965,1387,0,0
-252,-363,0,0,0,0,0,0,0,0,0,-1,972,1387,0,0
-245,-363,0,0,0,0,0,0,0,0,0,-1,979,1387,0,0
-238,-363,0,0,0,0,0,0,0,0,0,-1,986,1387,0,0
-231,-363,0,0,0,0,0,0,0,0,0,-1,993,1387,0,0
-224,-363,0,0,0,0,0,0,0,0,0,-1,1000,1387,0,0
-217,-363,0,0,0,0,0,0,0,0,0,-1,1007,1387,0,0
-210,-363,0,0,0,0,0,0,0,0,0,-1,1014,1387,0,0
-203,-363,0,0,0,0,0,0,0,0,0,-1,1021,1387,0,0
-196,-363,0,0,0,0,0,0,0,0,0,-1,1028,1387,0,0
-189,-363,0,0,0,0,0,0,0,0,0,-1,1035,1387,0,0
-182,-363,0,0,0,0,0,0,0,0,0,-1,1042,1387,0,0
-175,-363,0,0,0,0,0,0,0,0,0,-1,1049,1387,0,0
-168,-363,0,0,0,0,0,0,0,0,0,-1,1056,1387,0,0
-161,-363,0,0,0,0,0,0,0,0,0,-1,1063,1387,0,0
-154,-363,0,0,0,0,0,0,0,0,0,-1,1070,1387,0,0
-147,-363,0,0,0,0,0,0,0,0,0,-1,1077,1387,0,0
-140,-363,0,0,0,0,0,0,0,0,0,-1,1084,1387,0,0
-133,-363,0,0,0,0,0,0,0,0,0,-1,1091,1387,0,0
-126,-363,0,0,0,0,0,0,0,0,0,-1,1098,1387,0,0
-119,-363,0,0,0,0,0,0,0,0,0,-1,1105,1387,0,0
-112,-363,0,0,0,0,0,0,0,0,0,-1,1112,1387,0,0
-105,-363,0,0,0,0,0,0,0,0,0,-1,1119,1387,0,0
-98,-363,0,0,0,0,0,0,0,0,0,-1,1126,1387,0,0
-91,-363,0,0,0,0,0,0,0,0,0,-1,1133,1387,0,0
-84,-363,0,0,0,0,0,0,0,0,0,-1,1140,1387,0,0
-77,-363,0,0,0,0,0,0,0,0,0,-1,1147,1387,0,0
-70,-363,0,0,0,0,0,0,0,0,0,-1,1154,1387,0,0
-63,-363,0,0,0,0,0,0,0,0,0,-1,1161,1387,0,0
-56,-363,0,0,0,0,0,0,0,0,0,-1,1168,1387,0,0
-49,-363,0,0,0,0,0,0,0,0,0,-1,1175,1387,0,0
-42,-363,0,0,0,0,0,0,0,0,0,-1,1182,1387,0,0
-35,-363,0,0,0,0,0,0,0,0,0,-1,1189,1387,0,0
-28,-363,0,0,0,0,0,0,0,0,0,-1,1196,1387,0,0
-21,-363,0,0,0,0,0,0,0,0,0,-1,1203,1387,0,0
-14,-363,0,0,0,0,0,0,0,0,0,-1,1210,1387,0,0
-7,-363,0,0,0,0,0,0,0,0,0,-1,1217,1387,0,0
0,-363,0,0,0,0,0,0,0,0,0,-1,1224,1387,0,0
7,-363,0,0,0,0,0,0,0,0,0,-1,1231,1387,0,0
14,-363,0,0,0,0,0,0,0,0,0,-1,1238,1387,0,0
21,-363,0,0,0,0,0,0,0,0,0,-1,1245,1387,0,0
28,-363,0,0,0,0,0,0,0,0,0,-1,1252,1387,0,0
35,-363,0,0,0,0,0,0,0,0,0,-1,1259,1387,0,0
42,-363,0,0,0,0,0,0,0,0,0,-1,1266,1387,0,0
49,-363,0,0,0,0,0,0,0,0,0,-1,1273,1387,0,0
56,-363,0,0,0,0,0,0,0,0,0,-1,1280,1387,0,0
63,-363,0,0,0,0,0,0,0,0,0,-1,1287,1387,0,0
70,-363,0,0,0,0,0,0,0,0,0,-1,1294,1387,0,0
77,-363,0,0,0,0,0,0,0,0,0,-1,1301,1387,0,0
84,-363,0,0,0,0,0,0,0,0,0,-1,1308,1387,0,0
91,-363,0,0,0,0,0,0,0,0,0,-1,1315,1387,0,0
98,-363,0,0,0,0,0,0,0,0,0,-1,1322,1387,0,0
105,-363,0,0,0,0,0,0,0,0,0,-1,1329,1387,0,0
112,-363,0,0,0,0,0,0,0,0,0,-1,1336,1387,0,0
119,-363,0,0,0,0,0,0,0,0,0,-1,1343,1387,0,0
126,-363,0,0,0,0,0,0,0,0,0,-1,1350,1387,0,0
133,-363,0,0,0,0,0,0,0,0,0,-1,1357,1387,0,0
140,-363,0,0,0,0,0,0,0,0,0,-1,1364,1387,0,0
147,-363,0,0,0,0,0,0,0,0,0,-1,1371,1387,0,0
154,-363,0,0,0,0,0,0,0,0,0,-1,1378,1387,0,0
161,-363,0,0,0,0,0,0,0,0,0,-1,1385,1387,0,0
168,-363,0,0,0,0,0,0,0,0,0,-1,1392,1387,0,0
175,-363,0,0,0,0,0,0,0,0,0,-1,1399,1387,0,0
182,-363,0,0,0,0,0,0,0,0,0,-1,1406,1387,0,0
189,-363,0,0,0,0,0,0,0,0,0,-1,1413,1387,0,0
196,-363,0,0,0,0,0,0,0,0,0,-1,1420,1387,0,0
203,-363,0,0,0,0,0,0,0,0,0,-1,1427,1387,0,0
210,-363,0,0,0,0,0,0,0,0,0,-1,1434,1387,0,0
217,-363,0,0,0,0,0,0,0,0,0,-1,1441,1387,0,0
224,-363,0,0,0,0,0,0,0,0,0,-1,1448,1387,0,0
231,-363,0,0,0,0,0,0,0,0,0,-1,1455,1387,0,0
238,-363,0,0,0,0,0,0,0,0,0,-1,1462,1387,0,0
245,-363,0,0,0,0,0,0,0,0,0,-1,1469,1387,0,0
252,-363,0,0,0,0,0,0,0,0,0,-1,1476,1387,0,0
259,-363,0,0,0,0,0,0,0,0,0,-1,1483,1387,0,0
266,-363,0,0,0,0,0,0,0,0,0,-1,1490,1387,0,0
273,-363,0,0,0,0,0,0,0,0,0,-1,1497,1387,0,0
280,-363,0,0,0,0,0,0,0,0,0,-1,1504,1387,0,0
287,-363,0,0,0,0,0,0,0,0,0,-1,1511,1387,0,0
294,-363,0,0,0,0,0,0,0,0,0,-1,1518,1387,0,0
301,-363,0,0,0,0,0,0,0,0,0,-1,1525,1387,0,0
308,-363,0,0,0,0,0,0,0,0,0,-1,1532,1387,0,0
315,-363,0,0,0,0,0,0,0,0,0,-1,1539,1387,0,0
322,-363,0,0,0,0,0,0,0,0,0,-1,1546,1387,0,0
329,-363,0,0,0,0,0,0,0,0,0,-1,1553,1387,0,0
336,-363,0,0,0,0,0,0,0,0,0,-1,1560,1387,0,0
343,-363,0,0,0,0,0,0,0,0,0,-1,1567,1387,0,0
350,-363,0,0,0,0,0,0,0,0,0,-1,1574,1387,0,0
357,-363,0,0,0,0,0,0,0,0,0,-1,1581,1387,0,0
364,-363,0,0,0,0,0,0,0,0,0,-1,1588,1387,0,0
371,-363,0,0,0,0,0,0,0,0,0,-1,1595,1387,0,0
378,-363,0,0,0,0,0,0,0,0,0,-1,1602,1387,0,0
385,-363,0,0,0,0,0,0,0,0,0,-1,1609,1387,0,0
392,-363,0,0,0,0,0,0,0,0,0,-1,1616,1387,0,0
399,-363,0,0,0,0,0,0,0,0,0,-1,1623,1387,0,0
406,-363,0,0,0,0,0,0,0,0,0,-1,1630,1387,0,0
413,-363,0,0,0,0,0,0,0,0,0,-1,1637,1387,0,0
420,-363,0,0,0,0,0,0,0,0,0,-1,1644,1387,0,0
427,-363,0,0,0,0,0,0,0,0,0,-1,1651,1387,0,0
434,-363,0,0,0,0,0,0,0,0,0,-1,1658,1387,0,0
441,-363,0,0,0,0,0,0,0,0,0,-1,1665,1387,0,0
448,-363,0,0,0,0,0,0,0,0,0,-1,1672,1387,0,0
455,-363,0,0,0,0,0,0,0,0,0,-1,1679,1387,0,0
462,-363,0,0,0,0,0,0,0,0,0,-1,1686,1387,0,0
469,-363,0,0,0,0,0,0,0,0,0,-1,1693,1387,0,0
476,-363,0,0,0,0,0,0,0,0,0,-1,1700,1387,0,0
483,-363,0,0,0,0,0,0,0,0,0,-1,1707,1387,0,0
490,-363,0,0,0,0,0,0,0,0,0,-1,1714,1387,0,0
497,-363,0,0,0,0,0,0,0,0,0,-1,1721,1387,0,0
504,-363,0,0,0,0,0,0,0,0,0,-1,1728,1387,0,0
511,-363,0,0,0,0,0,0,0,0,0,-1,1735,1387,0,0
518,-363,0,0,0,0,0,0,0,0,0,-1,1742,1387,0,0
525,-363,0,0,0,0,0,0,0,0,0,-1,1749,1387,0,0
532,-363,0,0,0,0,0,0,0,0,0,-1,1756,1387,0,0
539,-363,0,0,0,0,0,0,0,0,0,-1,1763,1387,0,0
546,-363,0,0,0,0,0,0,0,0,0,-1,1770,1387,0,0
553,-363,0.423706,0.959595,0,0,0,0,0,0,0,-1,1777,1387,0.423693,-0.959592
560,-363,0.513306,-0.22583,0,0,0,0,0,0,0,-1,1784,1387,0.513328,0.225818
567,-363,0.473267,0.0646973,0,0,0,0,0,0,0,-1,1791,1387,0.473219,-0.06474
574,-363,0.486938,0.272949,0,0,0,0,0,0,0,-1,1798,1387,0.486902,-0.272932
581,-363,1.16138,0.775269,0,0,0,0,0,0,0,-1,1805,1387,1.16142,-0.775234
588,-363,0.964233,0.673706,0.0074113,0.0302195,0.0195934,0.041486,-0.00385516,1.04895,0.0290278,0.043578,1812,1387,0.964221,-0.673733
595,-363,0.769165,0.700439,-0.00175818,0.0189675,0.0146272,0.0265307,-0.00932139,1.09359,0.0214794,0.0470402,1819,1387,0.769104,-0.700395
602,-363,0.442627,0.215454,0,0,0,0,0,0,0,-1,1826,1387,0.442669,-0.215434
609,-363,0.519165,0.303223,-0.0116163,0.00432357,0.007672,0.00741617,-0.0147089,1.18762,0.0130031,0.044691,1833,1387,0.519204,-0.303226
616,-363,0.557129,0.407349,-0.013183,0.000319947,0.00477249,0.00183643,-0.0146995,1.26313,0.0104657,0.0438721,1840,1387,0.557105,-0.407353
623,-363,0.280396,0.202026,-0.0144031,-0.001421,0.00244166,-0.000976957,-0.0148471,1.3909,0.00958903,0.0392679,1847,1387,0.28041,-0.20208
630,-363,-0.0306396,0.0135498,-0.0141422,-0.00394523,-0.000278686,-0.00393762,-0.0141498,-1.54349,0.00843289,0.0252134,1854,1387,-0.0306523,-0.0135805
637,-363,-0.0928955,-0.0495605,-0.0120639,-0.00370643,-0.00128385,-0.00351366,-0.0122567,-1.42176,0.00728795,0.0120607,1861,1387,-0.0929519,0.0495555
644,-363,-0.083252,-0.05896,-0.00853906,-0.00234378,-0.000875285,-0.0022225,-0.00866034,-1.4331,0.00519373,0.00992175,1868,1387,-0.0833125,0.0589824
651,-363,-0.0716553,-0.0596924,-0.00544619,-0.00101838,3.61704e-05,-0.00101809,-0.00544648,1.56263,0.0033437,0.0102174,1875,1387,-0.0716796,0.0596699
658,-363,-0.0601807,-0.0644531,-0.00370762,-0.000210539,0.000539531,-0.000129192,-0.00378896,1.42115,0.00248403,0.0116202,1882,1387,-0.0602303,0.0644502
665,-363,-0.0767822,-0.0539551,-0.00240744,-1.53499e-05,0.000587726,0.000121251,-0.00254404,1.34243,0.00173785,0.0113734,1889,1387,-0.0767535,0.0538961
672,-363,-0.0898438,-0.041626,-0.00110989,6.12874e-05,0.000678803,0.000372185,-0.00142079,1.1413,0.00109259,0.0123518,1896,1387,-0.089818,0.0416081
679,-363,-0.0875244,-0.0582275,0.000140913,-8.13783e-05,0.000773179,0.000810894,-0.000751359,0.714011,0.000902186,0.0133163,1903,1387,-0.0875291,0.0582222
686,-363,-0.0792236,-0.0507813,0.00121885,-0.000182223,0.000726135,0.00152728,-0.000490659,0.40167,0.00121522,0.0125317,1910,1387,-0.0792279,0.0507858
693,-363,-0.0748291,-0.0621338,0.00233161,-5.59383e-05,0.000801818,0.0025759,-0.000300221,0.295728,0.00182559,0.0120414,1917,1387,-0.074884,0.0620803
700,-363,-0.0883789,-0.0888672,0.00366405,-1.98759e-05,0.000677718,0.00378477,-0.000140597,0.17628,0.00257133,0.0149517,1924,1387,-0.088356,0.088892
707,-363,-0.101807,-0.123779,0.00520023,-9.98875e-05,0.000516145,0.00525003,-0.000149684,0.0961795,0.00355097,0.0209286,1931,1387,-0.101755,0.123755
714,-363,-0.123779,-0.203735,0.00706514,-0.000129892,0.000263963,0.00707481,-0.000139563,0.0366213,0.00476374,0.0324681,1938,1387,-0.123737,0.203688
721,-363,-0.0633545,-0.104614,0.00945592,3.74681e-05,-0.000161431,0.00945869,3.4702e-05,-0.0171332,0.00629426,0.0405675,1945,1387,-0.0633239,0.104554
728,-363,-0.0140381,0.127563,0,0,0,0,0,0,0,-1,1952,1387,-0.0140766,-0.127591
735,-363,0.312012,-0.35144,0.0153688,0.00126422,-0.00143121,0.0155126,0.00112046,-0.100111,0.00998921,0.0446266,1959,1387,0.312041,0.351437
742,-363,0.442871,-0.351929,0.0186421,0.00265635,-0.00224069,0.0189502,0.00234822,-0.13666,0.011928,0.0428317,1966,1387,0.442883,0.351897
749,-363,0,0,0,0,0,0,0,0,0,-1,1973,1387,0,0
756,-363,0,0,0,0,0,0,0,0,0,-1,1980,1387,0,0
763,-363,0,0,0,0,0,0,0,0,0,-1,1987,1387,0,0
770,-363,0,0,0,0,0,0,0,0,0,-1,1994,1387,0,0
777,-363,0,0,0,0,0,0,0,0,0,-1,2001,1387,0,0
784,-363,0,0,0,0,0,0,0,0,0,-1,2008,1387,0,0
791,-363,0,0,0,0,0,0,0,0,0,-1,2015,1387,0,0
798,-363,0,0,0,0,0,0,0,0,0,-1,2022,1387,0,0
805,-363,0,0,0,0,0,0,0,0,0,-1,2029,1387,0,0
812,-363,0,0,0,0,0,0,0,0,0,-1,2036,1387,0,0
-700,-370,0,0,0,0,0,0,0,0,0,-1,524,1394,0,0
-693,-370,0,0,0,0,0,0,0,0,0,-1,531,1394,0,0
-686,-370,0,0,0,0,0,0,0,0,0,-1,538,1394,0,0
-679,-370,0,0,0,0,0,0,0,0,0,-1,545,1394,0,0
-672,-370,0,0,0,0,0,0,0,0,0,-1,552,1394,0,0
-665,-370,0,0,0,0,0,0,0,0,0,-1,559,1394,0,0
-658,-370,0,0,0,0,0,0,0,0,0,-1,566,1394,0,0
-651,-370,0,0,0,0,0,0,0,0,0,-1,573,1394,0,0
-644,-370,0,0,0,0,0,0,0,0,0,-1,580,1394,0,0
-637,-370,0,0,0,0,0,0,0,0,0,-1,587,1394,0,0
-630,-370,0,0,0,0,0,0,0,0,0,-1,594,1394,0,0
-623,-370,0.605103,-0.0716553,0.00605894,0.020941,-0.00312275,0.0215697,0.00543024,-1.37212,0.0129548,0.0470433,601,1394,0.605125,0.0716042
-616,-370,0.438354,-0.15979,0.00264238,0.0213605,-0.00265794,0.0217306,0.00227228,-1.43244,0.0137922,0.0443649,608,1394,0.438375,0.159838
-609,-370,0.359436,-0.174072,0.000607574,0.0207556,-0.00189405,0.0209321,0.000431067,-1.47787,0.0138133,0.0425199,615,1394,0.359456,0.174038
-602,-370,0.293152,-0.119995,-0.000515793,0.0195258,-0.00111336,0.0195875,-0.000577453,-1.51547,0.013255,0.041949,622,1394,0.293179,0.120035
-595,-370,-0.188232,-0.197754,-0.00110031,0.0178982,-0.000360949,0.0179051,-0.00110716,-1.55181,0.0123224,0.0425051,629,1394,-0.188234,0.197777
-588,-370,0.162476,-0.360596,-0.00129882,0.0159213,0.000261005,0.0159252,-0.00130278,1.55564,0.0110766,0.0460751,636,1394,0.162489,0.360651
-581,-370,0.304077,-0.732666,0,0,0,0,0,0,0,-1,643,1394,0.304067,0.732609
-574,-370,0.00634766,-0.204102,-0.00156904,0.0107968,0.0010296,0.0108819,-0.00165418,1.48829,0.00786421,0.0324398,650,1394,0.00632448,0.204081
-567,-370,-0.0714111,-0.0360107,-0.00127068,0.00913557,0.000952398,0.00922202,-0.00135713,1.48028,0.00664673,0.0178169,657,1394,-0.0714364,0.0359827
-560,-370,-0.0771484,-0.0633545,-0.000997323,0.00731445,0.000892059,0.00740911,-0.00109198,1.46508,0.00534075,0.0134029,664,1394,-0.077141,0.0632959
-553,-370,-0.0855713,-0.0744629,-0.000460593,0.00534163,0.000786561,0.00544637,-0.000565331,1.43842,0.00383328,0.0101952,671,1394,-0.0855473,0.0744983
-546,-370,-0.074707,-0.0592041,8.36526e-05,0.00307792,0.000916439,0.00333614,-0.000174569,1.29615,0.00228451,0.0122186,678,1394,-0.0747038,0.0591844
-539,-370,-0.0419922,-0.0175781,0.00025628,0.000874811,0.00110525,0.00171325,-0.00058216,0.921816,0.00137785,0.015459,685,1394,-0.0419792,0.0176126
-532,-370,-0.0686646,-0.0148926,0.000439463,-0.0010912,0.00125828,0.00114688,-0.00179862,0.512171,0.00171441,0.0175133,692,1394,-0.0686871,0.0148538
-525,-370,-0.0770264,-0.0594482,0.00113961,-0.00294738,0.00133873,0.00153908,-0.00334684,0.289982,0.00288453,0.00984497,699,1394,-0.0770511,0.0594332
-518,-370,-0.0843506,-0.0772705,0.00232467,-0.00444259,0.0014936,0.00263966,-0.00475758,0.207848,0.00432876,0.0080483,706,1394,-0.0843328,0.077295
-511,-370,-0.0852051,-0.057373,0.00321953,-0.00587117,0.00220008,0.00372399,-0.00637563,0.225395,0.00589763,0.0126818,713,1394,-0.0851915,0.0574274
-504,-370,-0.106628,-0.0240479,0.00491088,-0.00705371,0.00340801,0.00581353,-0.00795635,0.258915,0.00798207,0.0161976,720,1394,-0.106626,0.0239888
-497,-370,-0.108093,-0.0374756,0.00745136,-0.0109608,0.00541522,0.00892594,-0.0124354,0.265857,0.0123883,0.0226024,727,1394,-0.10807,0.0375091
-490,-370,-0.0869141,-0.0369873,0.0105723,-0.0117978,0.0055376,0.011868,-0.0130935,0.229856,0.0144173,0.0329768,734,1394,-0.086903,0.0370276
-483,-370,0.0426636,-0.206787,0.0142628,-0.0120006,0.00492584,0.0151563,-0.012894,0.179434,0.0162124,0.0379925,741,1394,0.0426793,0.206749
-476,-370,0.337646,-0.406616,0.0186188,-0.0127573,0.004772,0.0193286,-0.013467,0.147644,0.0190351,0.0407933,748,1394,0.337672,0.406641
-469,-370,0.67688,-0.535522,0,0,0,0,0,0,0,-1,755,1394,0.676892,0.535518
-462,-370,0.716736,-0.603638,0.0298234,-0.0104157,0.00181321,0.0299049,-0.0104973,0.0449394,0.0242067,0.0454691,762,1394,0.716712,0.603625
-455,-370,0.567993,-0.7146,0.0367275,-0.00610818,-0.00212993,0.0368332,-0.00621382,-0.0495602,0.0268673,0.04629,769,1394,0.567998,0.714539
-448,-370,0.334351,-0.749268,0,0,0,0,0,0,0,-1,776,1394,0.334378,0.74926
-441,-370,-0.0761719,0.0350342,0.0525354,0.0137774,-0.0179366,0.0595622,0.00675055,-0.373382,0.0376602,0.0427638,783,1394,-0.0761679,-0.0350791
-434,-370,0.302856,-0.609497,0.060981,0.0336445,-0.0320041,0.0821134,0.0125121,-0.583583,0.0510849,0.0433172,790,1394,0.302839,0.609531
-427,-370,0,0,0,0,0,0,0,0,0,-1,797,1394,0,0
-420,-370,0,0,0,0,0,0,0,0,0,-1,804,1394,0,0
-413,-370,0,0,0,0,0,0,0,0,0,-1,811,1394,0,0
-406,-370,0,0,0,0,0,0,0,0,0,-1,818,1394,0,0
-399,-370,0,0,0,0,0,0,0,0,0,-1,825,1394,0,0
-392,-370,0,0,0,0,0,0,0,0,0,-1,832,1394,0,0
-385,-370,0,0,0,0,0,0,0,0,0,-1,839,1394,0,0
-378,-370,0,0,0,0,0,0,0,0,0,-1,846,1394,0,0
-371,-370,0,0,0,0,0,0,0,0,0,-1,853,1394,0,0
-364,-370,0,0,0,0,0,0,0,0,0,-1,860,1394,0,0
-357,-370,0,0,0,0,0,0,0,0,0,-1,867,1394,0,0
-350,-370,0,0,0,0,0,0,0,0,0,-1,874,1394,0,0
-343,-370,0,0,0,0,0,0,0,0,0,-1,881,1394,0,0
-336,-370,0,0,0,0,0,0,0,0,0,-1,888,1394,0,0
-329,-370,0,0,0,0,0,0,0,0,0,-1,895,1394,0,0
-322,-370,0,0,0,0,0,0,0,0,0,-1,902,1394,0,0
-315,-370,0,0,0,0,0,0,0,0,0,-1,909,1394,0,0
-308,-370,0,0,0,0,0,0,0,0,0,-1,916,1394,0,0
-301,-370,0,0,0,0,0,0,0,0,0,-1,923,1394,0,0
-294,-370,0,0,0,0,0,0,0,0,0,-1,930,1394,0,0
-287,-370,0,0,0,0,0,0,0,0,0,-1,937,1394,0,0
-280,-370,0,0,0,0,0,0,0,0,0,-1,944,1394,0,0
-273,-370,0,0,0,0,0,0,0,0,0,-1,951,1394,0,0
-266,-370,0,0,0,0,0,0,0,0,0,-1,958,1394,0,0
-259,-370,0,0,0,0,0,0,0,0,0,-1,965,1394,0,0
-252,-370,0,0,0,0,0,0,0,0,0,-1,972,1394,0,0
-245,-370,0,0,0,0,0,0,0,0,0,-1,979,1394,0,0
-238,-370,0,0,0,0,0,0,0,0,0,-1,986,1394,0,0
-231,-370,0,0,0,0,0,0,0,0,0,-1,993,1394,0,0
-224,-370,0,0,0,0,0,0,0,0,0,-1,1000,1394,0,0
-217,-370,0,0,0,0,0,0,0,0,0,-1,1007,1394,0,0
-210,-370,0,0,0,0,0,0,0,0,0,-1,1014,1394,0,0
-203,-370,0,0,0,0,0,0,0,0,0,-1,1021,1394,0,0
-196,-370,0,0,0,0,0,0,0,0,0,-1,1028,1394,0,0
-189,-370,0,0,0,0,0,0,0,0,0,-1,1035,1394,0,0
-182,-370,0,0,0,0,0,0,0,0,0,-1,1042,1394,0,0
-175,-370,0,0,0,0,0,0,0,0,0,-1,1049,1394,0,0
-168,-370,0,0,0,0,0,0,0,0,0,-1,1056,1394,0,0
-161,-370,0,0,0,0,0,0,0,0,0,-1,1063,1394,0,0
-154,-370,0,0,0,0,0,0,0,0,0,-1,1070,1394,0,0
-147,-370,0,0,0,0,0,0,0,0,0,-1,1077,1394,0,0
-140,-370,0,0,0,0,0,0,0,0,0,-1,1084,1394,0,0
-133,-370,0,0,0,0,0,0,0,0,0,-1,1091,1394,0,0
-126,-370,0,0,0,0,0,0,0,0,0,-1,1098,1394,0,0
-119,-370,0,0,0,0,0,0,0,0,0,-1,1105,1394,0,0
-112,-370,0,0,0,0,0,0,0,0,0,-1,1112,1394,0,0
-105,-370,0,0,0,0,0,0,0,0,0,-1,1119,1394,0,0
-98,-370,0,0,0,0,0,0,0,0,0,-1,1126,1394,0,0
-91,-370,0,0,0,0,0,0,0,0,0,-1,1133,1394,0,0
-84,-370,0,0,0,0,0,0,0,0,0,-1,1140,1394,0,0
-77,-370,0,0,0,0,0,0,0,0,0,-1,1147,1394,0,0
-70,-370,0,0,0,0,0,0,0,0,0,-1,1154,1394,0,0
-63,-370,0,0,0,0,0,0,0,0,0,-1,1161,1394,0,0
-56,-370,0,0,0,0,0,0,0,0,0,-1,1168,1394,0,0
-49,-370,0,0,0,0,0,0,0,0,0,-1,1175,1394,0,0
-42,-370,0,0,0,0,0,0,0,0,0,-1,1182,1394,0,0
-35,-370,0,0,0,0,0,0,0,0,0,-1,1189,1394,0,0
-28,-370,0,0,0,0,0,0,0,0,0,-1,1196,1394,0,0
-21,-370,0,0,0,0,0,0,0,0,0,-1,1203,1394,0,0
-14,-370,0,0,0,0,0,0,0,0,0,-1,1210,1394,0,0
-7,-370,0,0,0,0,0,0,0,0,0,-1,1217,1394,0,0
0,-370,0,0,0,0,0,0,0,0,0,-1,1224,1394,0,0
7,-370,0,0,0,0,0,0,0,0,0,-1,1231,1394,0,0
14,-370,0,0,0,0,0,0,0,0,0,-1,1238,1394,0,0
21,-370,0,0,0,0,0,0,0,0,0,-1,1245,1394,0,0
28,-370,0,0,0,0,0,0,0,0,0,-1,1252,1394,0,0
35,-370,0,0,0,0,0,0,0,0,0,-1,1259,1394,0,0
42,-370,0,0,0,0,0,0,0,0,0,-1,1266,1394,0,0
49,-370,0,0,0,0,0,0,0,0,0,-1,1273,1394,0,0
56,-370,0,0,0,0,0,0,0,0,0,-1,1280,1394,0,0
63,-370,0,0,0,0,0,0,0,0,0,-1,1287,1394,0,0
70,-370,0,0,0,0,0,0,0,0,0,-1,1294,1394,0,0
77,-370,0,0,0,0,0,0,0,0,0,-1,1301,1394,0,0
84,-370,0,0,0,0,0,0,0,0,0,-1,1308,1394,0,0
91,-370,0,0,0,0,0,0,0,0,0,-1,1315,1394,0,0
98,-370,0,0,0,0,0,0,0,0,0,-1,1322,1394,0,0
105,-370,0,0,0,0,0,0,0,0,0,-1,1329,1394,0,0
112,-370,0,0,0,0,0,0,0,0,0,-1,1336,1394,0,0
119,-370,0,0,0,0,0,0,0,0,0,-1,1343,1394,0,0
126,-370,0,0,0,0,0,0,0,0,0,-1,1350,1394,0,0
133,-370,0,0,0,0,0,0,0,0,0,-1,1357,1394,0,0
140,-370,0,0,0,0,0,0,0,0,0,-1,1364,1394,0,0
147,-370,0,0,0,0,0,0,0,0,0,-1,1371,1394,0,0
154,-370,0,0,0,0,0,0,0,0,0,-1,1378,1394,0,0
161,-370,0,0,0,0,0,0,0,0,0,-1,1385,1394,0,0
168,-370,0,0,0,0,0,0,0,0,0,-1,1392,1394,0,0
175,-370,0,0,0,0,0,0,0,0,0,-1,1399,1394,0,0
182,-370,0,0,0,0,0,0,0,0,0,-1,1406,1394,0,0
189,-370,0,0,0,0,0,0,0,0,0,-1,1413,1394,0,0
196,-370,0,0,0,0,0,0,0,0,0,-1,1420,1394,0,0
203,-370,0,0,0,0,0,0,0,0,0,-1,1427,1394,0,0
210,-370,0,0,0,0,0,0,0,0,0,-1,1434,1394,0,0
217,-370,0,0,0,0,0,0,0,0,0,-1,1441,1394,0,0
224,-370,0,0,0,0,0,0,0,0,0,-1,1448,1394,0,0
231,-370,0,0,0,0,0,0,0,0,0,-1,1455,1394,0,0
238,-370,0,0,0,0,0,0,0,0,0,-1,1462,1394,0,0
245,-370,0,0,0,0,0,0,0,0,0,-1,1469,1394,0,0
252,-370,0,0,0,0,0,0,0,0,0,-1,1476,1394,0,0
259,-370,0,0,0,0,0,0,0,0,0,-1,1483,1394,0,0
266,-370,0,0,0,0,0,0,0,0,0,-1,1490,1394,0,0
273,-370,0,0,0,0,0,0,0,0,0,-1,1497,1394,0,0
280,-370,0,0,0,0,0,0,0,0,0,-1,1504,1394,0,0
287,-370,0,0,0,0,0,0,0,0,0,-1,1511,1394,0,0
294,-370,0,0,0,0,0,0,0,0,0,-1,1518,1394,0,0
301,-370,0,0,0,0,0,0,0,0,0,-1,1525,1394,0,0
308,-370,0,0,0,0,0,0,0,0,0,-1,1532,1394,0,0
315,-370,0,0,0,0,0,0,0,0,0,-1,1539,1394,0,0
322,-370,0,0,0,0,0,0,0,0,0,-1,1546,1394,0,0
329,-370,0,0,0,0,0,0,0,0,0,-1,1553,1394,0,0
336,-370,0,0,0,0,0,0,0,0,0,-1,1560,1394,0,0
343,-370,0,0,0,0,0,0,0,0,0,-1,1567,1394,0,0
350,-370,0,0,0,0,0,0,0,0,0,-1,1574,1394,0,0
357,-370,0,0,0,0,0,0,0,0,0,-1,1581,1394,0,0
364,-370,0,0,0,0,0,0,0,0,0,-1,1588,1394,0,0
371,-370,0,0,0,0,0,0,0,0,0,-1,1595,1394,0,0
378,-370,0,0,0,0,0,0,0,0,0,-1,1602,1394,0,0
385,-370,0,0,0,0,0,0,0,0,0,-1,1609,1394,0,0
392,-370,0,0,0,0,0,0,0,0,0,-1,1616,1394,0,0
399,-370,0,0,0,0,0,0,0,0,0,-1,1623,1394,0,0
406,-370,0,0,0,0,0,0,0,0,0,-1,1630,1394,0,0
413,-370,0,0,0,0,0,0,0,0,0,-1,1637,1394,0,0
420,-370,0,0,0,0,0,0,0,0,0,-1,1644,1394,0,0
427,-370,0,0,0,0,0,0,0,0,0,-1,1651,1394,0,0
434,-370,0,0,0,0,0,0,0,0,0,-1,1658,1394,0,0
441,-370,0,0,0,0,0,0,0,0,0,-1,1665,1394,0,0
448,-370,0,0,0,0,0,0,0,0,0,-1,1672,1394,0,0
455,-370,0,0,0,0,0,0,0,0,0,-1,1679,1394,0,0
462,-370,0,0,0,0,0,0,0,0,0,-1,1686,1394,0,0
469,-370,0,0,0,0,0,0,0,0,0,-1,1693,1394,0,0
476,-370,0,0,0,0,0,0,0,0,0,-1,1700,1394,0,0
483,-370,0,0,0,0,0,0,0,0,0,-1,1707,1394,0,0
490,-370,0,0,0,0,0,0,0,0,0,-1,1714,1394,0,0
497,-370,0,0,0,0,0,0,0,0,0,-1,1721,1394,0,0
504,-370,0,0,0,0,0,0,0,0,0,-1,1728,1394,0,0
511,-370,0,0,0,0,0,0,0,0,0,-1,1735,1394,0,0
518,-370,0,0,0,0,0,0,0,0,0,-1,1742,1394,0,0
525,-370,0,0,0,0,0,0,0,0,0,-1,1749,1394,0,0
532,-370,0,0,0,0,0,0,0,0,0,-1,1756,1394,0,0
539,-370,0,0,0,0,0,0,0,0,0,-1,1763,1394,0,0
546,-370,-0.212646,0.550415,0,0,0,0,0,0,0,-1,1770,1394,-0.212707,-0.550474
553,-370,0.881714,1.08191,0,0,0,0,0,0,0,-1,1777,1394,0.881732,-1.08189
560,-370,-3.32678,-0.444824,0,0,0,0,0,0,0,-1,1784,1394,-3.32674,0.444827
567,-370,0.242676,0.765137,0,0,0,0,0,0,0,-1,1791,1394,0.242671,-0.765124
574,-370,0.187134,0.680298,0,0,0,0,0,0,0,-1,1798,1394,0.187076,-0.680242
581,-370,0.344971,0.604248,0,0,0,0,0,0,0,-1,1805,1394,0.344985,-0.604205
588,-370,1.71985,1.21497,0,0,0,0,0,0,0,-1,1812,1394,1.71981,-1.21497
595,-370,1.03442,0.859863,0.00400131,0.0244308,0.0156556,0.0329094,-0.00447721,1.07445,0.0235741,0.0411258,1819,1394,1.03443,-0.859918
602,-370,0.598145,0.571045,-0.00379125,0.0159449,0.0124015,0.0219253,-0.00977169,1.12146,0.0187433,0.0438746,1826,1394,0.598184,-0.571059
609,-370,0.552124,0.393433,-0.00885366,0.0083339,0.00807518,0.0115326,-0.0120523,1.19365,0.0136178,0.0452493,1833,1394,0.552136,-0.393379
616,-370,0.408813,0.279541,-0.0114672,0.00347221,0.00474137,0.00484995,-0.0128449,1.28801,0.010558,0.0474404,1840,1394,0.408776,-0.279597
623,-370,-0.013916,-0.0419922,-0.0135683,0.000929922,0.00197482,0.0011941,-0.0138325,1.43781,0.00964439,0.0416608,1847,1394,-0.0139155,0.0420097
630,-370,-0.0957031,-0.0494385,-0.0138931,-0.00252661,-0.00127857,-0.00238456,-0.0140351,-1.46015,0.00867186,0.0196269,1854,1394,-0.0957385,0.0494977
637,-370,-0.0899658,-0.0479736,-0.0120033,-0.00276682,-0.00233102,-0.00221188,-0.0125582,-1.33708,0.00774091,0.0116467,1861,1394,-0.0899513,0.0479623
644,-370,-0.0812988,-0.0566406,-0.0083503,-0.00163312,-0.00165031,-0.00124956,-0.00873386,-1.34244,0.00545398,0.00977884,1868,1394,-0.0813282,0.0566048
651,-370,-0.0655518,-0.0634766,-0.00502364,-0.000583257,-0.00046593,-0.000534893,-0.005072,-1.46737,0.00321789,0.0107396,1875,1394,-0.0655528,0.0634786
658,-370,-0.046875,-0.0523682,-0.0031035,0.000234891,0.000386708,0.000279101,-0.00314771,1.45697,0.00219742,0.0119866,1882,1394,-0.0468214,0.0524266
665,-370,-0.0734863,-0.060791,-0.00176822,0.000458632,0.000636682,0.000627813,-0.0019374,1.31107,0.00154402,0.0123407,1889,1394,-0.0735452,0.0607805
672,-370,-0.0927734,-0.0628662,-0.000442108,0.000630109,0.000834174,0.00108559,-0.000897594,1.071,0.00114671,0.0127211,1896,1394,-0.092834,0.0628944
679,-370,-0.0959473,-0.0524902,0.000865274,0.000613043,0.00104105,0.00178782,-0.0003095,0.72512,0.00130731,0.0124191,1903,1394,-0.0958985,0.0524486
686,-370,-0.085083,-0.0512695,0.00198167,0.000733075,0.00111614,0.00263625,7.84976e-05,0.530407,0.00173193,0.0125375,1910,1394,-0.0850257,0.0512183
693,-370,-0.0791016,-0.0649414,0.0031569,0.00105,0.00127808,0.00375972,0.000447178,0.440722,0.00237152,0.0107505,1917,1394,-0.079118,0.0649104
700,-370,-0.081665,-0.0770264,0.00458726,0.00131973,0.00122017,0.00499262,0.000914375,0.32074,0.00306936,0.0132062,1924,1394,-0.0816801,0.0770476
707,-370,-0.0877686,-0.0965576,0.00629191,0.00150385,0.00104137,0.00650859,0.00128717,0.20515,0.00398,0.022393,1931,1394,-0.0878171,0.0965743
714,-370,-0.0526123,-0.144165,0.00840732,0.00175267,0.000668093,0.00847373,0.00168626,0.0990775,0.00517939,0.0348872,1938,1394,-0.0525867,0.144111
721,-370,0.0166016,-0.140259,0.0110556,0.00217079,3.43834e-05,0.0110558,0.00217066,0.00386981,0.00676407,0.0420856,1945,1394,0.0165519,0.140265
728,-370,0.157227,-0.234253,0.0141784,0.00285799,-0.000877641,0.0142461,0.00279036,-0.0769148,0.0087174,0.04448,1952,1394,0.157201,0.234265
735,-370,0.183838,-0.291748,0.0177504,0.00399468,-0.00209018,0.018061,0.00368409,-0.147516,0.0110198,0.0462635,1959,1394,0.183854,0.291714
742,-370,0.166382,-0.395508,0.0216806,0.00588005,-0.00360199,0.022463,0.00509766,-0.213888,0.0135984,0.0449431,1966,1394,0.166392,0.395512
749,-370,0,0,0,0,0,0,0,0,0,-1,1973,1394,0,0
756,-370,0,0,0,0,0,0,0,0,0,-1,1980,1394,0,0
763,-370,0,0,0,0,0,0,0,0,0,-1,1987,1394,0,0
770,-370,0,0,0,0,0,0,0,0,0,-1,1994,1394,0,0
777,-370,0,0,0,0,0,0,0,0,0,-1,2001,1394,0,0
784,-370,0,0,0,0,0,0,0,0,0,-1,2008,1394,0,0
791,-370,0,0,0,0,0,0,0,0,0,-1,2015,1394,0,0
798,-370,0,0,0,0,0,0,0,0,0,-1,2022,1394,0,0
805,-370,0,0,0,0,0,0,0,0,0,-1,2029,1394,0,0
812,-370,0,0,0,0,0,0,0,0,0,-1,2036,1394,0,0
-700,-377,0,0,0,0,0,0,0,0,0,-1,524,1401,0,0
-693,-377,0,0,0,0,0,0,0,0,0,-1,531,1401,0,0
-686,-377,0,0,0,0,0,0,0,0,0,-1,538,1401,0,0
-679,-377,0,0,0,0,0,0,0,0,0,-1,545,1401,0,0
-672,-377,0,0,0,0,0,0,0,0,0,-1,552,1401,0,0
-665,-377,0,0,0,0,0,0,0,0,0,-1,559,1401,0,0
-658,-377,0,0,0,0,0,0,0,0,0,-1,566,1401,0,0
-651,-377,0,0,0,0,0,0,0,0,0,-1,573,1401,0,0
-644,-377,0,0,0,0,0,0,0,0,0,-1,580,1401,0,0
-637,-377,0,0,0,0,0,0,0,0,0,-1,587,1401,0,0
-630,-377,0,0,0,0,0,0,0,0,0,-1,594,1401,0,0
-623,-377,0,0,0,0,0,0,0,0,0,-1,601,1401,0,0
-616,-377,0.273315,0.188721,0,0,0,0,0,0,0,-1,608,1401,0.273325,-0.188672
-609,-377,0.313843,0.21228,0,0,0,0,0,0,0,-1,615,1401,0.31385,-0.212339
-602,-377,0.396301,-0.111328,-0.00728456,0.0243469,0.00399287,0.0248432,-0.0077808,1.44715,0.0196754,0.0414405,622,1401,0.396275,0.111267
-595,-377,0.499084,-0.429077,-0.00654893,0.0227385,0.00402542,0.0232817,-0.00709213,1.43666,0.0183479,0.0416035,629,1401,0.499114,0.429045
-588,-377,0.336609,-0.674805,-0.00561429,0.0204304,0.00396045,0.0210193,-0.00620322,1.42318,0.0164746,0.0479064,636,1401,0.336635,0.674785
-581,-377,0.137939,-1.00891,0,0,0,0,0,0,0,-1,643,1401,0.13792,1.00889
-574,-377,-0.0551758,-0.403564,-0.00408173,0.0143272,0.00344338,0.0149502,-0.00470473,1.39181,0.0118505,0.0400867,650,1401,-0.0551868,0.403567
-567,-377,-0.136536,-0.0457764,-0.00313678,0.0121536,0.00278806,0.0126461,-0.00362929,1.39595,0.00986558,0.0238571,657,1401,-0.136553,0.0458345
-560,-377,-0.0836792,-0.0396729,-0.00236669,0.00960815,0.00224055,0.0100136,-0.00277217,1.39176,0.00776652,0.0147293,664,1401,-0.0836853,0.0396795
-553,-377,-0.085083,-0.0689697,-0.00149644,0.00705368,0.00176364,0.00740318,-0.00184594,1.37516,0.00565216,0.0109083,671,1401,-0.085071,0.0689867
-546,-377,-0.0957642,-0.0300293,-0.00077306,0.00445671,0.00149523,0.00485402,-0.00117037,1.31108,0.00368856,0.013989,678,1401,-0.0957514,0.0299956
-539,-377,-0.081543,-0.0427246,-0.000466515,0.00211193,0.00129338,0.00264888,-0.00100347,1.17729,0.00217885,0.0186941,685,1401,-0.0815207,0.0427804
-532,-377,-0.0994263,-0.0557861,-3.10802e-05,8.2679e-05,0.000949434,0.000976936,-0.000925337,0.815317,0.00109841,0.0182788,692,1401,-0.0994214,0.0557455
-525,-377,-0.0800781,-0.0579834,0.000773218,-0.0018736,0.000523618,0.000873041,-0.00197342,0.188379,0.00168384,0.0140334,699,1401,-0.0800674,0.057965
-518,-377,-0.092041,-0.0766602,0.00194806,-0.00331059,0.000168055,0.00195342,-0.00331596,0.0319144,0.00307599,0.00965717,706,1401,-0.0920111,0.076711
-511,-377,-0.0797729,-0.0654297,0.00281797,-0.00432596,0.000488775,0.00285125,-0.00435925,0.0679959,0.00419322,0.0103897,713,1401,-0.0797709,0.0654469
-504,-377,-0.0985718,-0.0380859,0.00437976,-0.00521584,0.00123856,0.00453705,-0.00537313,0.126318,0.00572843,0.00977842,720,1401,-0.0985531,0.0381165
-497,-377,-0.0971069,-0.0620117,0.00664774,-0.0084831,0.00283187,0.00716038,-0.00899574,0.179086,0.00934778,0.0115383,727,1401,-0.0971176,0.0619757
-490,-377,-0.0637817,-0.0898438,0.00951542,-0.00859797,0.00254038,0.00986496,-0.00894751,0.136735,0.0108657,0.0262494,734,1401,-0.0638004,0.0898937
-483,-377,0.105347,-0.227539,0.0128316,-0.00800067,0.00156258,0.0129482,-0.00811722,0.0744522,0.0122683,0.036914,741,1401,0.105368,0.227575
-476,-377,0.303284,-0.493164,0.0165192,-0.00762893,0.00112403,0.0165714,-0.00768114,0.0464136,0.0143124,0.0410223,748,1401,0.303291,0.493142
-469,-377,0.626221,-0.695313,0.0206347,-0.00548806,0.000223547,0.0206367,-0.00548997,0.00855669,0.0159068,0.0444359,755,1401,0.62625,0.695307
-462,-377,0.886719,-0.934448,0.0254069,-0.00187844,-0.00178122,0.0255227,-0.00199423,-0.064914,0.0177173,0.0483614,762,1401,0.886694,0.934432
-455,-377,0.735413,-1.41516,0.0305769,0.004561,-0.00523389,0.0315904,0.00354753,-0.19127,0.019983,0.0480521,769,1401,0.735395,1.4152
-448,-377,0.739746,-1.72473,0,0,0,0,0,0,0,-1,776,1401,0.739766,1.72472
-441,-377,0.634827,-0.785156,0.0412741,0.0303715,-0.0188146,0.0554112,0.0162344,-0.644391,0.032893,0.0444357,783,1401,0.634834,0.785124
-434,-377,1.07501,-1.36719,0.0461102,0.0536455,-0.0306836,0.0807919,0.0189638,-0.846488,0.0487845,0.0443795,790,1401,1.07501,1.3672
-427,-377,0.850952,-1.62512,0,0,0,0,0,0,0,-1,797,1401,0.850946,1.62512
-420,-377,0,0,0,0,0,0,0,0,0,-1,804,1401,0,0
-413,-377,0,0,0,0,0,0,0,0,0,-1,811,1401,0,0
-406,-377,0,0,0,0,0,0,0,0,0,-1,818,1401,0,0
-399,-377,0,0,0,0,0,0,0,0,0,-1,825,1401,0,0
-392,-377,0,0,0,0,0,0,0,0,0,-1,832,1401,0,0
-385,-377,0,0,0,0,0,0,0,0,0,-1,839,1401,0,0
-378,-377,0,0,0,0,0,0,0,0,0,-1,846,1401,0,0
-371,-377,0,0,0,0,0,0,0,0,0,-1,853,1401,0,0
-364,-377,0,0,0,0,0,0,0,0,0,-1,860,1401,0,0
-357,-377,0,0,0,0,0,0,0,0,0,-1,867,1401,0,0
-350,-377,0,0,0,0,0,0,0,0,0,-1,874,1401,0,0
-343,-377,0,0,0,0,0,0,0,0,0,-1,881,1401,0,0
-336,-377,0,0,0,0,0,0,0,0,0,-1,888,1401,0,0
-329,-377,0,0,0,0,0,0,0,0,0,-1,895,1401,0,0
-322,-377,0,0,0,0,0,0,0,0,0,-1,902,1401,0,0
-315,-377,0,0,0,0,0,0,0,0,0,-1,909,1401,0,0
-308,-377,0,0,0,0,0,0,0,0,0,-1,916,1401,0,0
-301,-377,0,0,0,0,0,0,0,0,0,-1,923,1401,0,0
-294,-377,0,0,0,0,0,0,0,0,0,-1,930,1401,0,0
-287,-377,0,0,0,0,0,0,0,0,0,-1,937,1401,0,0
-280,-377,0,0,0,0,0,0,0,0,0,-1,944,1401,0,0
-273,-377,0,0,0,0,0,0,0,0,0,-1,951,1401,0,0
-266,-377,0,0,0,0,0,0,0,0,0,-1,958,1401,0,0
-259,-377,0,0,0,0,0,0,0,0,0,-1,965,1401,0,0
-252,-377,0,0,0,0,0,0,0,0,0,-1,972,1401,0,0
-245,-377,0,0,0,0,0,0,0,0,0,-1,979,1401,0,0
-238,-377,0,0,0,0,0,0,0,0,0,-1,986,1401,0,0
-231,-377,0,0,0,0,0,0,0,0,0,-1,993,1401,0,0
-224,-377,0,0,0,0,0,0,0,0,0,-1,1000,1401,0,0
-217,-377,0,0,0,0,0,0,0,0,0,-1,1007,1401,0,0
-210,-377,0,0,0,0,0,0,0,0,0,-1,1014,1401,0,0
-203,-377,0,0,0,0,0,0,0,0,0,-1,1021,1401,0,0
-196,-377,0,0,0,0,0,0,0,0,0,-1,1028,1401,0,0
-189,-377,0,0,0,0,0,0,0,0,0,-1,1035,1401,0,0
-182,-377,0,0,0,0,0,0,0,0,0,-1,1042,1401,0,0
-175,-377,0,0,0,0,0,0,0,0,0,-1,1049,1401,0,0
-168,-377,0,0,0,0,0,0,0,0,0,-1,1056,1401,0,0
-161,-377,0,0,0,0,0,0,0,0,0,-1,1063,1401,0,0
-154,-377,0,0,0,0,0,0,0,0,0,-1,1070,1401,0,0
-147,-377,0,0,0,0,0,0,0,0,0,-1,1077,1401,0,0
-140,-377,0,0,0,0,0,0,0,0,0,-1,1084,1401,0,0
-133,-377,0,0,0,0,0,0,0,0,0,-1,1091,1401,0,0
-126,-377,0,0,0,0,0,0,0,0,0,-1,1098,1401,0,0
-119,-377,0,0,0,0,0,0,0,0,0,-1,1105,1401,0,0
-112,-377,0,0,0,0,0,0,0,0,0,-1,1112,1401,0,0
-105,-377,0,0,0,0,0,0,0,0,0,-1,1119,1401,0,0
-98,-377,0,0,0,0,0,0,0,0,0,-1,1126,1401,0,0
-91,-377,0,0,0,0,0,0,0,0,0,-1,1133,1401,0,0
-84,-377,0,0,0,0,0,0,0,0,0,-1,1140,1401,0,0
-77,-377,0,0,0,0,0,0,0,0,0,-1,1147,1401,0,0
-70,-377,0,0,0,0,0,0,0,0,0,-1,1154,1401,0,0
-63,-377,0,0,0,0,0,0,0,0,0,-1,1161,1401,0,0
-56,-377,0,0,0,0,0,0,0,0,0,-1,1168,1401,0,0
-49,-377,0,0,0,0,0,0,0,0,0,-1,1175,1401,0,0
-42,-377,0,0,0,0,0,0,0,0,0,-1,1182,1401,0,0
-35,-377,0,0,0,0,0,0,0,0,0,-1,1189,1401,0,0
-28,-377,0,0,0,0,0,0,0,0,0,-1,1196,1401,0,0
-21,-377,0,0,0,0,0,0,0,0,0,-1,1203,1401,0,0
-14,-377,0,0,0,0,0,0,0,0,0,-1,1210,1401,0,0
-7,-377,0,0,0,0,0,0,0,0,0,-1,1217,1401,0,0
0,-377,0,0,0,0,0,0,0,0,0,-1,1224,1401,0,0
7,-377,0,0,0,0,0,0,0,0,0,-1,1231,1401,0,0
14,-377,0,0,0,0,0,0,0,0,0,-1,1238,1401,0,0
21,-377,0,0,0,0,0,0,0,0,0,-1,1245,1401,0,0
28,-377,0,0,0,0,0,0,0,0,0,-1,1252,1401,0,0
35,-377,0,0,0,0,0,0,0,0,0,-1,1259,1401,0,0
42,-377,0,0,0,0,0,0,0,0,0,-1,1266,1401,0,0
49,-377,0,0,0,0,0,0,0,0,0,-1,1273,1401,0,0
56,-377,0,0,0,0,0,0,0,0,0,-1,1280,1401,0,0
63,-377,0,0,0,0,0,0,0,0,0,-1,1287,1401,0,0
70,-377,0,0,0,0,0,0,0,0,0,-1,1294,1401,0,0
77,-377,0,0,0,0,0,0,0,0,0,-1,1301,1401,0,0
84,-377,0,0,0,0,0,0,0,0,0,-1,1308,1401,0,0
91,-377,0,0,0,0,0,0,0,0,0,-1,1315,1401,0,0
98,-377,0,0,0,0,0,0,0,0,0,-1,1322,1401,0,0
105,-377,0,0,0,0,0,0,0,0,0,-1,1329,1401,0,0
112,-377,0,0,0,0,0,0,0,0,0,-1,1336,1401,0,0
119,-377,0,0,0,0,0,0,0,0,0,-1,1343,1401,0,0
126,-377,0,0,0,0,0,0,0,0,0,-1,1350,1401,0,0
133,-377,0,0,0,0,0,0,0,0,0,-1,1357,1401,0,0
140,-377,0,0,0,0,0,0,0,0,0,-1,1364,1401,0,0
147,-377,0,0,0,0,0,0,0,0,0,-1,1371,1401,0,0
154,-377,0,0,0,0,0,0,0,0,0,-1,1378,1401,0,0
161,-377,0,0,0,0,0,0,0,0,0,-1,1385,1401,0,0
168,-377,0,0,0,0,0,0,0,0,0,-1,1392,1401,0,0
175,-377,0,0,0,0,0,0,0,0,0,-1,1399,1401,0,0
182,-377,0,0,0,0,0,0,0,0,0,-1,1406,1401,0,0
189,-377,0,0,0,0,0,0,0,0,0,-1,1413,1401,0,0
196,-377,0,0,0,0,0,0,0,0,0,-1,1420,1401,0,0
203,-377,0,0,0,0,0,0,0,0,0,-1,1427,1401,0,0
210,-377,0,0,0,0,0,0,0,0,0,-1,1434,1401,0,0
217,-377,0,0,0,0,0,0,0,0,0,-1,1441,1401,0,0
224,-377,0,0,0,0,0,0,0,0,0,-1,1448,1401,0,0
231,-377,0,0,0,0,0,0,0,0,0,-1,1455,1401,0,0
238,-377,0,0,0,0,0,0,0,0,0,-1,1462,1401,0,0
245,-377,0,0,0,0,0,0,0,0,0,-1,1469,1401,0,0
252,-377,0,0,0,0,0,0,0,0,0,-1,1476,1401,0,0
259,-377,0,0,0,0,0,0,0,0,0,-1,1483,1401,0,0
266,-377,0,0,0,0,0,0,0,0,0,-1,1490,1401,0,0
273,-377,0,0,0,0,0,0,0,0,0,-1,1497,1401,0,0
280,-377,0,0,0,0,0,0,0,0,0,-1,1504,1401,0,0
287,-377,0,0,0,0,0,0,0,0,0,-1,1511,1401,0,0
294,-377,0,0,0,0,0,0,0,0,0,-1,1518,1401,0,0
301,-377,0,0,0,0,0,0,0,0,0,-1,1525,1401,0,0
308,-377,0,0,0,0,0,0,0,0,0,-1,1532,1401,0,0
315,-377,0,0,0,0,0,0,0,0,0,-1,1539,1401,0,0
322,-377,0,0,0,0,0,0,0,0,0,-1,1546,1401,0,0
329,-377,0,0,0,0,0,0,0,0,0,-1,1553,1401,0,0
336,-377,0,0,0,0,0,0,0,0,0,-1,1560,1401,0,0
343,-377,0,0,0,0,0,0,0,0,0,-1,1567,1401,0,0
350,-377,0,0,0,0,0,0,0,0,0,-1,1574,1401,0,0
357,-377,0,0,0,0,0,0,0,0,0,-1,1581,1401,0,0
364,-377,0,0,0,0,0,0,0,0,0,-1,1588,1401,0,0
371,-377,0,0,0,0,0,0,0,0,0,-1,1595,1401,0,0
378,-377,0,0,0,0,0,0,0,0,0,-1,1602,1401,0,0
385,-377,0,0,0,0,0,0,0,0,0,-1,1609,1401,0,0
392,-377,0,0,0,0,0,0,0,0,0,-1,1616,1401,0,0
399,-377,0,0,0,0,0,0,0,0,0,-1,1623,1401,0,0
406,-377,0,0,0,0,0,0,0,0,0,-1,1630,1401,0,0
413,-377,0,0,0,0,0,0,0,0,0,-1,1637,1401,0,0
420,-377,0,0,0,0,0,0,0,0,0,-1,1644,1401,0,0
427,-377,0,0,0,0,0,0,0,0,0,-1,1651,1401,0,0
434,-377,0,0,0,0,0,0,0,0,0,-1,1658,1401,0,0
441,-377,0,0,0,0,0,0,0,0,0,-1,1665,1401,0,0
448,-377,0,0,0,0,0,0,0,0,0,-1,1672,1401,0,0
455,-377,0,0,0,0,0,0,0,0,0,-1,1679,1401,0,0
462,-377,0,0,0,0,0,0,0,0,0,-1,1686,1401,0,0
469,-377,0,0,0,0,0,0,0,0,0,-1,1693,1401,0,0
476,-377,0,0,0,0,0,0,0,0,0,-1,1700,1401,0,0
483,-377,0,0,0,0,0,0,0,0,0,-1,1707,1401,0,0
490,-377,0,0,0,0,0,0,0,0,0,-1,1714,1401,0,0
497,-377,0,0,0,0,0,0,0,0,0,-1,1721,1401,0,0
504,-377,0,0,0,0,0,0,0,0,0,-1,1728,1401,0,0
511,-377,0,0,0,0,0,0,0,0,0,-1,1735,1401,0,0
518,-377,0,0,0,0,0,0,0,0,0,-1,1742,1401,0,0
525,-377,0,0,0,0,0,0,0,0,0,-1,1749,1401,0,0
532,-377,0,0,0,0,0,0,0,0,0,-1,1756,1401,0,0
539,-377,0,0,0,0,0,0,0,0,0,-1,1763,1401,0,0
546,-377,0.114258,0.145386,0,0,0,0,0,0,0,-1,1770,1401,0.114259,-0.145436
553,-377,-3.39209,0.245361,0,0,0,0,0,0,0,-1,1777,1401,-3.39214,-0.245421
560,-377,-3.03735,-0.369751,0,0,0,0,0,0,0,-1,1784,1401,-3.03733,0.36971
567,-377,-2.6825,-0.984863,0,0,0,0,0,0,0,-1,1791,1401,-2.68252,0.984841
574,-377,0.583008,0.30957,0,0,0,0,0,0,0,-1,1798,1401,0.583048,-0.30955
581,-377,0.608643,0.571289,0,0,0,0,0,0,0,-1,1805,1401,0.608668,-0.571302
588,-377,2.34521,1.37744,0,0,0,0,0,0,0,-1,1812,1401,2.34519,-1.37746
595,-377,1.28833,0.828979,0.00999871,0.0295382,0.0163577,0.0388216,0.000715291,1.0546,0.025646,0.0391429,1819,1401,1.2883,-0.828972
602,-377,0.276245,0.280273,0.00123593,0.0207918,0.0132521,0.0274828,-0.00545507,1.10323,0.020385,0.0404982,1826,1401,0.276218,-0.280274
609,-377,0.585205,0.400269,-0.00500745,0.0123171,0.00853953,0.0158186,-0.008509,1.18166,0.0142553,0.0438245,1833,1401,0.585173,-0.400238
616,-377,0.284912,0.181885,-0.00873849,0.00662705,0.00484286,0.00802603,-0.0101375,1.28958,0.0105103,0.0464015,1840,1401,0.284965,-0.181905
623,-377,-0.0806885,-0.158081,0,0,0,0,0,0,0,-1,1847,1401,-0.080642,0.158086
630,-377,-0.109009,-0.0693359,-0.0129236,-0.00111975,-0.0020511,-0.000773497,-0.0132699,-1.40356,0.00860035,0.0164836,1854,1401,-0.108959,0.069332
637,-377,-0.110352,-0.0581055,-0.0114144,-0.00184641,-0.00311908,-0.000919426,-0.0123414,-1.28191,0.0079389,0.0113637,1861,1401,-0.110411,0.0580841
644,-377,-0.0982666,-0.0626221,-0.0078036,-0.000854664,-0.00216149,-0.000237193,-0.00842107,-1.29254,0.00553667,0.00998631,1868,1401,-0.0982161,0.062645
651,-377,-0.0769043,-0.0814209,-0.00445822,-1.93625e-05,-0.000779869,0.000113667,-0.00459125,-1.40184,0.00309942,0.0121671,1875,1401,-0.0768791,0.0813848
658,-377,-0.057251,-0.0871582,-0.00251344,0.0008348,0.000334869,0.000867963,-0.0025466,1.47209,0.00204927,0.0137098,1882,1401,-0.0572284,0.0872106
665,-377,-0.0526123,-0.0836182,-0.00116533,0.00110461,0.000761315,0.0013363,-0.00139702,1.27537,0.00157822,0.0148458,1889,1401,-0.0525581,0.083563
672,-377,-0.0721436,-0.0723877,0.000126167,0.00140144,0.00101433,0.0019619,-0.000434294,1.066,0.00147418,0.0145482,1896,1401,-0.0721178,0.072414
679,-377,-0.0947266,-0.039917,0.00146293,0.00155153,0.00130273,0.00281071,0.000203748,0.802395,0.00180972,0.0154466,1903,1401,-0.0947231,0.0398613
686,-377,-0.0914307,-0.0629883,0.00258563,0.00193602,0.00149285,0.0037886,0.000733043,0.67828,0.00232031,0.0136179,1910,1401,-0.0913882,0.063006
693,-377,-0.0880127,-0.071167,0.00381926,0.00250377,0.00172096,0.00500389,0.00131914,0.602866,0.00299468,0.0103506,1917,1401,-0.0880394,0.0711086
700,-377,-0.0994873,-0.0778809,0.0053631,0.00309624,0.00168935,0.00626402,0.00219532,0.489926,0.00367005,0.0164351,1924,1401,-0.0995334,0.0778943
707,-377,-0.0979004,-0.0313721,0.00723526,0.00365777,0.00144184,0.00774401,0.00314901,0.339213,0.00449691,0.034037,1931,1401,-0.097961,0.0314141
714,-377,-0.0516357,-0.0527344,0.00958976,0.00430626,0.000871298,0.00972973,0.00416628,0.159292,0.00563674,0.0393759,1938,1401,-0.0516889,0.0527353
721,-377,-0.0806885,-0.105469,0.0125106,0.00511226,-9.95706e-05,0.012512,0.00511092,-0.0134552,0.00726402,0.0418306,1945,1401,-0.0807158,0.105456
728,-377,0.012085,-0.0693359,0.0160051,0.00620069,-0.00155893,0.016247,0.00595878,-0.153946,0.00949059,0.044199,1952,1401,0.0120686,0.0693274
735,-377,0.0374756,-0.181274,0,0,0,0,0,0,0,-1,1959,1401,0.0375234,0.181316
742,-377,0,0,0,0,0,0,0,0,0,-1,1966,1401,0,0
749,-377,0,0,0,0,0,0,0,0,0,-1,1973,1401,0,0
756,-377,0,0,0,0,0,0,0,0,0,-1,1980,1401,0,0
763,-377,0,0,0,0,0,0,0,0,0,-1,1987,1401,0,0
770,-377,0,0,0,0,0,0,0,0,0,-1,1994,1401,0,0
777,-377,0,0,0,0,0,0,0,0,0,-1,2001,1401,0,0
784,-377,0,0,0,0,0,0,0,0,0,-1,2008,1401,0,0
791,-377,0,0,0,0,0,0,0,0,0,-1,2015,1401,0,0
798,-377,0,0,0,0,0,0,0,0,0,-1,2022,1401,0,0
805,-377,0,0,0,0,0,0,0,0,0,-1,2029,1401,0,0
812,-377,0,0,0,0,0,0,0,0,0,-1,2036,1401,0,0
-700,-384,0,0,0,0,0,0,0,0,0,-1,524,1408,0,0
-693,-384,0,0,0,0,0,0,0,0,0,-1,531,1408,0,0
-686,-384,0,0,0,0,0,0,0,0,0,-1,538,1408,0,0
-679,-384,0,0,0,0,0,0,0,0,0,-1,545,1408,0,0
-672,-384,0,0,0,0,0,0,0,0,0,-1,552,1408,0,0
-665,-384,0,0,0,0,0,0,0,0,0,-1,559,1408,0,0
-658,-384,0,0,0,0,0,0,0,0,0,-1,566,1408,0,0
-651,-384,0,0,0,0,0,0,0,0,0,-1,573,1408,0,0
-644,-384,0,0,0,0,0,0,0,0,0,-1,580,1408,0,0
-637,-384,0,0,0,0,0,0,0,0,0,-1,587,1408,0,0
-630,-384,0,0,0,0,0,0,0,0,0,-1,594,1408,0,0
-623,-384,0,0,0,0,0,0,0,0,0,-1,601,1408,0,0
-616,-384,0.785828,-0.63501,0,0,0,0,0,0,0,-1,608,1408,0.78583,0.634967
-609,-384,0.903625,-0.666748,-0.0163499,0.0270844,0.010219,0.0293685,-0.0186341,1.35089,0.0279443,0.0435425,615,1408,0.90364,0.666701
-602,-384,0.659668,-0.784302,-0.0147276,0.027866,0.00965019,0.0299504,-0.016812,1.35807,0.0273511,0.0438828,622,1408,0.65968,0.784272
-595,-384,0.49115,-0.852661,-0.01276,0.0268837,0.00891561,0.0287965,-0.0146728,1.35946,0.0255348,0.044623,629,1408,0.491128,0.852713
-588,-384,0.462524,-1.03662,-0.0106955,0.0246542,0.00810662,0.0264246,-0.0124659,1.35578,0.0229305,0.0473605,636,1408,0.462523,1.03667
-581,-384,0.445007,-1.46924,-0.00897298,0.021575,0.00731207,0.0232351,-0.010633,1.34755,0.0199999,0.0459384,643,1408,0.445001,1.46928
-574,-384,-0.138611,-0.492554,0,0,0,0,0,0,0,-1,650,1408,-0.138641,0.492585
-567,-384,-0.220398,-0.0245361,-0.00557767,0.0153776,0.00492295,0.0164765,-0.00667658,1.35118,0.0137608,0.0351858,657,1408,-0.220414,0.0245211
-560,-384,-0.106079,-0.0185547,-0.00418831,0.0121743,0.00383662,0.0130292,-0.00504323,1.35155,0.0107683,0.0194737,664,1408,-0.106068,0.0185019
-553,-384,-0.0811768,-0.050293,-0.00283596,0.00904127,0.00293991,0.00972913,-0.00352382,1.34096,0.00792625,0.0137992,671,1408,-0.0811868,0.0502797
-546,-384,-0.0805054,-0.0390625,-0.00179302,0.00615192,0.00228616,0.00676279,-0.0024039,1.30969,0.00548821,0.0125083,678,1408,-0.0804859,0.0390392
-539,-384,-0.100952,-0.0695801,-0.00120486,0.00364182,0.00172488,0.00419301,-0.00175605,1.2615,0.00352944,0.014553,685,1408,-0.100977,0.0696322
-532,-384,-0.108765,-0.0928955,-0.000421595,0.00156435,0.000951487,0.00194663,-0.000803875,1.18876,0.00163305,0.0201273,692,1408,-0.108736,0.0928445
-525,-384,-0.10437,-0.0744629,0.000567436,-0.000578916,0.000118858,0.00057963,-0.00059111,0.102235,0.000675938,0.019232,699,1408,-0.104376,0.074428
-518,-384,-0.081665,-0.0638428,0.00178079,-0.00202643,-0.000655873,0.00189061,-0.00213625,-0.165902,0.00232635,0.0114854,706,1408,-0.0816528,0.0638484
-511,-384,-0.0806274,-0.0532227,0.00265693,-0.00272652,-0.000583201,0.00271939,-0.00278897,-0.106683,0.00318034,0.00895222,713,1408,-0.0805978,0.0531737
-504,-384,-0.0861816,-0.0344238,0.00406973,-0.00345591,-0.000138101,0.00407226,-0.00345845,-0.0183424,0.00435267,0.00975925,720,1408,-0.0861873,0.0344825
-497,-384,-0.103088,-0.0511475,0.00598549,-0.00618533,0.00116646,0.00609628,-0.00629611,0.0946923,0.00715506,0.0101161,727,1408,-0.103098,0.0511068
-490,-384,-0.0865479,-0.0783691,0.00845851,-0.00577763,0.000648841,0.00848802,-0.00580714,0.0454514,0.00830155,0.0168869,734,1408,-0.0865508,0.0784048
-483,-384,0.0482788,-0.262329,0.0112773,-0.00468333,-0.000468985,0.011291,-0.0046971,-0.0293502,0.00948883,0.0347423,741,1408,0.0482568,0.262368
-476,-384,0.239075,-0.617432,0.0141583,-0.00344745,-0.00103818,0.0142193,-0.00350845,-0.0586969,0.01084,0.0411836,748,1408,0.239051,0.617473
-469,-384,0.450012,-0.913452,0.0171688,-9.52674e-05,-0.00193759,0.0173835,-0.000310056,-0.110403,0.0116938,0.0430169,755,1408,0.450031,0.913499
-462,-384,0.762695,-1.07593,0.0206344,0.00472118,-0.00373187,0.0214661,0.00388948,-0.219282,0.0132066,0.044736,762,1408,0.762719,1.07589
-455,-384,0.878174,-1.56677,0.0243583,0.0126928,-0.00675324,0.0274489,0.00960217,-0.429203,0.0160842,0.04816,769,1408,0.878167,1.5668
-448,-384,0.915527,-1.88184,0,0,0,0,0,0,0,-1,776,1408,0.915512,1.88188
-441,-384,1.52832,-1.62183,0.0319246,0.0422579,-0.0188166,0.0566043,0.0175782,-0.919386,0.0334534,0.0457354,783,1408,1.52834,1.62187
-434,-384,1.96332,-2.31738,0.0357764,0.0660774,-0.0290741,0.0837116,0.0181422,-1.02559,0.0508508,0.0481079,790,1408,1.96331,2.31737
-427,-384,2.72504,-2.7655,0,0,0,0,0,0,0,-1,797,1408,2.72503,2.76549
-420,-384,0,0,0,0,0,0,0,0,0,-1,804,1408,0,0
-413,-384,0,0,0,0,0,0,0,0,0,-1,811,1408,0,0
-406,-384,0,0,0,0,0,0,0,0,0,-1,818,1408,0,0
-399,-384,0,0,0,0,0,0,0,0,0,-1,825,1408,0,0
-392,-384,0,0,0,0,0,0,0,0,0,-1,832,1408,0,0
-385,-384,0,0,0,0,0,0,0,0,0,-1,839,1408,0,0
-378,-384,0,0,0,0,0,0,0,0,0,-1,846,1408,0,0
-371,-384,0,0,0,0,0,0,0,0,0,-1,853,1408,0,0
-364,-384,0,0,0,0,0,0,0,0,0,-1,860,1408,0,0
-357,-384,0,0,0,0,0,0,0,0,0,-1,867,1408,0,0
-350,-384,0,0,0,0,0,0,0,0,0,-1,874,1408,0,0
-343,-384,0,0,0,0,0,0,0,0,0,-1,881,1408,0,0
-336,-384,0,0,0,0,0,0,0,0,0,-1,888,1408,0,0
-329,-384,0,0,0,0,0,0,0,0,0,-1,895,1408,0,0
-322,-384,0,0,0,0,0,0,0,0,0,-1,902,1408,0,0
-315,-384,0,0,0,0,0,0,0,0,0,-1,909,1408,0,0
-308,-384,0,0,0,0,0,0,0,0,0,-1,916,1408,0,0
-301,-384,0,0,0,0,0,0,0,0,0,-1,923,1408,0,0
-294,-384,0,0,0,0,0,0,0,0,0,-1,930,1408,0,0
-287,-384,0,0,0,0,0,0,0,0,0,-1,937,1408,0,0
-280,-384,0,0,0,0,0,0,0,0,0,-1,944,1408,0,0
-273,-384,0,0,0,0,0,0,0,0,0,-1,951,1408,0,0
-266,-384,0,0,0,0,0,0,0,0,0,-1,958,1408,0,0
-259,-384,0,0,0,0,0,0,0,0,0,-1,965,1408,0,0
-252,-384,0,0,0,0,0,0,0,0,0,-1,972,1408,0,0
-245,-384,0,0,0,0,0,0,0,0,0,-1,979,1408,0,0
-238,-384,0,0,0,0,0,0,0,0,0,-1,986,1408,0,0
-231,-384,0,0,0,0,0,0,0,0,0,-1,993,1408,0,0
-224,-384,0,0,0,0,0,0,0,0,0,-1,1000,1408,0,0
-217,-384,0,0,0,0,0,0,0,0,0,-1,1007,1408,0,0
-210,-384,0,0,0,0,0,0,0,0,0,-1,1014,1408,0,0
-203,-384,0,0,0,0,0,0,0,0,0,-1,1021,1408,0,0
-196,-384,0,0,0,0,0,0,0,0,0,-1,1028,1408,0,0
-189,-384,0,0,0,0,0,0,0,0,0,-1,1035,1408,0,0
-182,-384,0,0,0,0,0,0,0,0,0,-1,1042,1408,0,0
-175,-384,0,0,0,0,0,0,0,0,0,-1,1049,1408,0,0
-168,-384,0,0,0,0,0,0,0,0,0,-1,1056,1408,0,0
-161,-384,0,0,0,0,0,0,0,0,0,-1,1063,1408,0,0
-154,-384,0,0,0,0,0,0,0,0,0,-1,1070,1408,0,0
-147,-384,0,0,0,0,0,0,0,0,0,-1,1077,1408,0,0
-140,-384,0,0,0,0,0,0,0,0,0,-1,1084,1408,0,0
-133,-384,0,0,0,0,0,0,0,0,0,-1,1091,1408,0,0
-126,-384,0,0,0,0,0,0,0,0,0,-1,1098,1408,0,0
-119,-384,0,0,0,0,0,0,0,0,0,-1,1105,1408,0,0
-112,-384,0,0,0,0,0,0,0,0,0,-1,1112,1408,0,0
-105,-384,0,0,0,0,0,0,0,0,0,-1,1119,1408,0,0
-98,-384,0,0,0,0,0,0,0,0,0,-1,1126,1408,0,0
-91,-384,0,0,0,0,0,0,0,0,0,-1,1133,1408,0,0
-84,-384,0,0,0,0,0,0,0,0,0,-1,1140,1408,0,0
-77,-384,0,0,0,0,0,0,0,0,0,-1,1147,1408,0,0
-70,-384,0,0,0,0,0,0,0,0,0,-1,1154,1408,0,0
-63,-384,0,0,0,0,0,0,0,0,0,-1,1161,1408,0,0
-56,-384,0,0,0,0,0,0,0,0,0,-1,1168,1408,0,0
-49,-384,0,0,0,0,0,0,0,0,0,-1,1175,1408,0,0
-42,-384,0,0,0,0,0,0,0,0,0,-1,1182,1408,0,0
-35,-384,0,0,0,0,0,0,0,0,0,-1,1189,1408,0,0
-28,-384,0,0,0,0,0,0,0,0,0,-1,1196,1408,0,0
-21,-384,0,0,0,0,0,0,0,0,0,-1,1203,1408,0,0
-14,-384,0,0,0,0,0,0,0,0,0,-1,1210,1408,0,0
-7,-384,0,0,0,0,0,0,0,0,0,-1,1217,1408,0,0
0,-384,0,0,0,0,0,0,0,0,0,-1,1224,1408,0,0
7,-384,0,0,0,0,0,0,0,0,0,-1,1231,1408,0,0
14,-384,0,0,0,0,0,0,0,0,0,-1,1238,1408,0,0
21,-384,0,0,0,0,0,0,0,0,0,-1,1245,1408,0,0
28,-384,0,0,0,0,0,0,0,0,0,-1,1252,1408,0,0
35,-384,0,0,0,0,0,0,0,0,0,-1,1259,1408,0,0
42,-384,0,0,0,0,0,0,0,0,0,-1,1266,1408,0,0
49,-384,0,0,0,0,0,0,0,0,0,-1,1273,1408,0,0
56,-384,0,0,0,0,0,0,0,0,0,-1,1280,1408,0,0
63,-384,0,0,0,0,0,0,0,0,0,-1,1287,1408,0,0
70,-384,0,0,0,0,0,0,0,0,0,-1,1294,1408,0,0
77,-384,0,0,0,0,0,0,0,0,0,-1,1301,1408,0,0
84,-384,0,0,0,0,0,0,0,0,0,-1,1308,1408,0,0
91,-384,0,0,0,0,0,0,0,0,0,-1,1315,1408,0,0
98,-384,0,0,0,0,0,0,0,0,0,-1,1322,1408,0,0
105,-384,0,0,0,0,0,0,0,0,0,-1,1329,1408,0,0
112,-384,0,0,0,0,0,0,0,0,0,-1,1336,1408,0,0
119,-384,0,0,0,0,0,0,0,0,0,-1,1343,1408,0,0
126,-384,0,0,0,0,0,0,0,0,0,-1,1350,1408,0,0
133,-384,0,0,0,0,0,0,0,0,0,-1,1357,1408,0,0
140,-384,0,0,0,0,0,0,0,0,0,-1,1364,1408,0,0
147,-384,0,0,0,0,0,0,0,0,0,-1,1371,1408,0,0
154,-384,0,0,0,0,0,0,0,0,0,-1,1378,1408,0,0
161,-384,0,0,0,0,0,0,0,0,0,-1,1385,1408,0,0
168,-384,0,0,0,0,0,0,0,0,0,-1,1392,1408,0,0
175,-384,0,0,0,0,0,0,0,0,0,-1,1399,1408,0,0
182,-384,0,0,0,0,0,0,0,0,0,-1,1406,1408,0,0
189,-384,0,0,0,0,0,0,0,0,0,-1,1413,1408,0,0
196,-384,0,0,0,0,0,0,0,0,0,-1,1420,1408,0,0
203,-384,0,0,0,0,0,0,0,0,0,-1,1427,1408,0,0
210,-384,0,0,0,0,0,0,0,0,0,-1,1434,1408,0,0
217,-384,0,0,0,0,0,0,0,0,0,-1,1441,1408,0,0
224,-384,0,0,0,0,0,0,0,0,0,-1,1448,1408,0,0
231,-384,0,0,0,0,0,0,0,0,0,-1,1455,1408,0,0
238,-384,0,0,0,0,0,0,0,0,0,-1,1462,1408,0,0
245,-384,0,0,0,0,0,0,0,0,0,-1,1469,1408,0,0
252,-384,0,0,0,0,0,0,0,0,0,-1,1476,1408,0,0
259,-384,0,0,0,0,0,0,0,0,0,-1,1483,1408,0,0
266,-384,0,0,0,0,0,0,0,0,0,-1,1490,1408,0,0
273,-384,0,0,0,0,0,0,0,0,0,-1,1497,1408,0,0
280,-384,0,0,0,0,0,0,0,0,0,-1,1504,1408,0,0
287,-384,0,0,0,0,0,0,0,0,0,-1,1511,1408,0,0
294,-384,0,0,0,0,0,0,0,0,0,-1,1518,1408,0,0
301,-384,0,0,0,0,0,0,0,0,0,-1,1525,1408,0,0
308,-384,0,0,0,0,0,0,0,0,0,-1,1532,1408,0,0
315,-384,0,0,0,0,0,0,0,0,0,-1,1539,1408,0,0
322,-384,0,0,0,0,0,0,0,0,0,-1,1546,1408,0,0
329,-384,0,0,0,0,0,0,0,0,0,-1,1553,1408,0,0
336,-384,0,0,0,0,0,0,0,0,0,-1,1560,1408,0,0
343,-384,0,0,0,0,0,0,0,0,0,-1,1567,1408,0,0
350,-384,0,0,0,0,0,0,0,0,0,-1,1574,1408,0,0
357,-384,0,0,0,0,0,0,0,0,0,-1,1581,1408,0,0
364,-384,0,0,0,0,0,0,0,0,0,-1,1588,1408,0,0
371,-384,0,0,0,0,0,0,0,0,0,-1,1595,1408,0,0
378,-384,0,0,0,0,0,0,0,0,0,-1,1602,1408,0,0
385,-384,0,0,0,0,0,0,0,0,0,-1,1609,1408,0,0
392,-384,0,0,0,0,0,0,0,0,0,-1,1616,1408,0,0
399,-384,0,0,0,0,0,0,0,0,0,-1,1623,1408,0,0
406,-384,0,0,0,0,0,0,0,0,0,-1,1630,1408,0,0
413,-384,0,0,0,0,0,0,0,0,0,-1,1637,1408,0,0
420,-384,0,0,0,0,0,0,0,0,0,-1,1644,1408,0,0
427,-384,0,0,0,0,0,0,0,0,0,-1,1651,1408,0,0
434,-384,0,0,0,0,0,0,0,0,0,-1,1658,1408,0,0
441,-384,0,0,0,0,0,0,0,0,0,-1,1665,1408,0,0
448,-384,0,0,0,0,0,0,0,0,0,-1,1672,1408,0,0
455,-384,0,0,0,0,0,0,0,0,0,-1,1679,1408,0,0
462,-384,0,0,0,0,0,0,0,0,0,-1,1686,1408,0,0
469,-384,0,0,0,0,0,0,0,0,0,-1,1693,1408,0,0
476,-384,0,0,0,0,0,0,0,0,0,-1,1700,1408,0,0
483,-384,0,0,0,0,0,0,0,0,0,-1,1707,1408,0,0
490,-384,0,0,0,0,0,0,0,0,0,-1,1714,1408,0,0
497,-384,0,0,0,0,0,0,0,0,0,-1,1721,1408,0,0
504,-384,0,0,0,0,0,0,0,0,0,-1,1728,1408,0,0
511,-384,0,0,0,0,0,0,0,0,0,-1,1735,1408,0,0
518,-384,0,0,0,0,0,0,0,0,0,-1,1742,1408,0,0
525,-384,0,0,0,0,0,0,0,0,0,-1,1749,1408,0,0
532,-384,0,0,0,0,0,0,0,0,0,-1,1756,1408,0,0
539,-384,0.461792,-0.326904,0,0,0,0,0,0,0,-1,1763,1408,0.461754,0.326847
546,-384,0.421143,-0.290283,0,0,0,0,0,0,0,-1,1770,1408,0.421181,0.290226
553,-384,-3.13904,0.339478,0,0,0,0,0,0,0,-1,1777,1408,-3.139,-0.339518
560,-384,-2.77271,-0.285156,0,0,0,0,0,0,0,-1,1784,1408,-2.77266,0.285195
567,-384,-2.40637,-0.909912,0,0,0,0,0,0,0,-1,1791,1408,-2.40632,0.909908
574,-384,5.67212,1.87292,0,0,0,0,0,0,0,-1,1798,1408,5.67214,-1.87297
581,-384,4.23657,2.58118,0,0,0,0,0,0,0,-1,1805,1408,4.23653,-2.58114
588,-384,2.9082,2.15759,0.0294838,0.044559,0.0234222,0.0616265,0.0124163,0.941073,0.0376346,0.0432283,1812,1408,2.90816,-2.1576
595,-384,1.53101,1.46057,0.0174094,0.0331764,0.0178038,0.044764,0.00582177,0.993823,0.0281038,0.0468239,1819,1408,1.53104,-1.46057
602,-384,0.674805,0.756104,0,0,0,0,0,0,0,-1,1826,1408,0.674811,-0.756125
609,-384,0.516602,0.431885,0.000308277,0.0152078,0.00957254,0.0198879,-0.00437178,1.11606,0.0149307,0.0439436,1833,1408,0.516641,-0.431833
616,-384,0.226807,0.139526,-0.00467379,0.00884565,0.00548689,0.0107922,-0.00662037,1.22988,0.0101489,0.0416442,1840,1408,0.226822,-0.139577
623,-384,-0.0957031,-0.0682373,-0.00892834,0.00483985,0.00194577,0.00510955,-0.00919803,1.43307,0.00837215,0.0270136,1847,1408,-0.0957062,0.0682705
630,-384,-0.111572,-0.0771484,-0.0109911,-0.000173698,-0.00226462,0.000281264,-0.0114461,-1.37254,0.00772619,0.0158174,1854,1408,-0.111595,0.0771025
637,-384,-0.130981,-0.0567627,-0.0101496,-0.00126812,-0.00345363,-8.32328e-05,-0.0113345,-1.2403,0.00752875,0.0139868,1861,1408,-0.131002,0.0567462
644,-384,-0.0986328,-0.0515137,-0.00686257,-0.000276905,-0.00235305,0.000477434,-0.00761691,-1.26057,0.00524433,0.0141341,1868,1408,-0.0986656,0.0515732
651,-384,-0.0872803,-0.0565186,-0.00375241,0.000506459,-0.000902472,0.000689804,-0.00393576,-1.37037,0.00288143,0.0142449,1875,1408,-0.0873114,0.0565392
658,-384,-0.0698242,-0.0786133,-0.00192638,0.00147688,0.000346364,0.00151177,-0.00196127,1.47039,0.00201075,0.0141495,1882,1408,-0.069766,0.078553
665,-384,-0.0388184,-0.0509033,-0.000630207,0.00187501,0.000864445,0.00214434,-0.000899536,1.26877,0.0018057,0.0147133,1889,1408,-0.0388722,0.0509418
672,-384,-0.0552979,-0.0385742,0.000606295,0.00236638,0.00112005,0.00291076,6.1912e-05,1.11838,0.0019202,0.013551,1896,1408,-0.0553355,0.0385328
679,-384,-0.0819092,-0.0491943,0.00195424,0.00274793,0.00143894,0.00384375,0.000858422,0.91995,0.00232969,0.013913,1903,1408,-0.0819081,0.0492498
686,-384,-0.0856934,-0.0778809,0.00311568,0.00345283,0.00171344,0.00500597,0.00156254,0.834431,0.00295742,0.0115194,1910,1408,-0.0857458,0.0779114
693,-384,-0.0927734,-0.0739746,0.00445104,0.00435156,0.00198518,0.0063871,0.00241549,0.772873,0.0037239,0.0134669,1917,1408,-0.0927173,0.0739571
700,-384,-0.104492,-0.0446777,0.00614303,0.00534308,0.0019764,0.00775952,0.00372659,0.685559,0.00448112,0.0288902,1924,1408,-0.104473,0.0446579
707,-384,-0.097168,0.03479,0.00820138,0.0063486,0.00168137,0.00919468,0.00535531,0.533602,0.00533255,0.043479,1931,1408,-0.0971618,-0.034743
714,-384,-0.0994873,0.166626,0.0107668,0.00744925,0.000958469,0.0110238,0.00719224,0.261976,0.00646241,0.044658,1938,1408,-0.0994475,-0.166611
721,-384,-0.177612,0.157471,0.0139081,0.0086936,-0.000313214,0.0139268,0.00867485,-0.0597797,0.0081212,0.0408809,1945,1408,-0.177637,-0.157463
728,-384,-0.0543213,0.133911,0.0176157,0.0101794,-0.00227998,0.0182591,0.00953602,-0.275035,0.0105454,0.0425835,1952,1408,-0.054374,-0.133887
735,-384,0.206055,0.187256,0,0,0,0,0,0,0,-1,1959,1408,0.20604,-0.187259
742,-384,0,0,0,0,0,0,0,0,0,-1,1966,1408,0,0
749,-384,0,0,0,0,0,0,0,0,0,-1,1973,1408,0,0
756,-384,0,0,0,0,0,0,0,0,0,-1,1980,1408,0,0
763,-384,0,0,0,0,0,0,0,0,0,-1,1987,1408,0,0
770,-384,0,0,0,0,0,0,0,0,0,-1,1994,1408,0,0
777,-384,0,0,0,0,0,0,0,0,0,-1,2001,1408,0,0
784,-384,0,0,0,0,0,0,0,0,0,-1,2008,1408,0,0
791,-384,0,0,0,0,0,0,0,0,0,-1,2015,1408,0,0
798,-384,0,0,0,0,0,0,0,0,0,-1,2022,1408,0,0
805,-384,0,0,0,0,0,0,0,0,0,-1,2029,1408,0,0
812,-384,0,0,0,0,0,0,0,0,0,-1,2036,1408,0,0
-700,-391,0,0,0,0,0,0,0,0,0,-1,524,1415,0,0
-693,-391,0,0,0,0,0,0,0,0,0,-1,531,1415,0,0
-686,-391,0,0,0,0,0,0,0,0,0,-1,538,1415,0,0
-679,-391,0,0,0,0,0,0,0,0,0,-1,545,1415,0,0
-672,-391,0,0,0,0,0,0,0,0,0,-1,552,1415,0,0
-665,-391,0,0,0,0,0,0,0,0,0,-1,559,1415,0,0
-658,-391,0,0,0,0,0,0,0,0,0,-1,566,1415,0,0
-651,-391,0,0,0,0,0,0,0,0,0,-1,573,1415,0,0
-644,-391,0,0,0,0,0,0,0,0,0,-1,580,1415,0,0
-637,-391,0,0,0,0,0,0,0,0,0,-1,587,1415,0,0
-630,-391,0,0,0,0,0,0,0,0,0,-1,594,1415,0,0
-623,-391,0,0,0,0,0,0,0,0,0,-1,601,1415,0,0
-616,-391,0,0,0,0,0,0,0,0,0,-1,608,1415,0,0
-609,-391,1.21783,-1.3407,0,0,0,0,0,0,0,-1,615,1415,1.21785,1.34074
-602,-391,0.708069,-1.16577,0,0,0,0,0,0,0,-1,622,1415,0.708057,1.16574
-595,-391,0.565857,-1.20239,-0.0212363,0.0312822,0.0139728,0.0347683,-0.0247224,1.32629,0.0345098,0.0437909,629,1415,0.565852,1.2024
-588,-391,0.760498,-1.24463,-0.0173746,0.0290731,0.0124248,0.0321878,-0.0204893,1.32517,0.0306622,0.0450118,636,1415,0.760486,1.24458
-581,-391,1.11761,-1.92444,-0.0140553,0.025686,0.0108386,0.0284498,-0.0168191,1.32112,0.026422,0.042672,643,1415,1.11761,1.92447
-574,-391,-0.213623,0.567139,0,0,0,0,0,0,0,-1,650,1415,-0.213646,-0.567119
-567,-391,-0.188904,0.367432,-0.0086098,0.0183798,0.00730509,0.0202302,-0.0104602,1.32272,0.0180159,0.0422028,657,1415,-0.18892,-0.367394
-560,-391,-0.184875,0.112183,-0.00652375,0.014486,0.00568853,0.0159274,-0.00796508,1.32264,0.0140473,0.0295314,664,1415,-0.184877,-0.112149
-553,-391,-0.0817871,-0.0471191,-0.00466693,0.0107204,0.00436511,0.0118725,-0.00581898,1.31276,0.0104116,0.0162576,671,1415,-0.0818001,0.0471233
-546,-391,-0.0823364,-0.052002,-0.00321891,0.00745025,0.00332061,0.00839932,-0.00416798,1.29241,0.00739155,0.00999159,678,1415,-0.0823619,0.0519572
-539,-391,-0.074646,-0.071167,-0.00227188,0.00473093,0.0024237,0.00548794,-0.00302889,1.26806,0.00498505,0.0125583,685,1415,-0.0746364,0.071114
-532,-391,-0.0934448,-0.0797119,-0.00110389,0.00258805,0.00131416,0.00300805,-0.00152389,1.26146,0.00266287,0.0222082,692,1415,-0.0934371,0.0796911
-525,-391,-0.0929565,-0.0620117,0.000115429,0.000285636,0.000203706,0.0004213,-2.02357e-05,0.983266,0.000287849,0.0219932,699,1415,-0.092934,0.061952
-518,-391,-0.0976563,-0.0571289,0.00136477,-0.00114853,-0.000815887,0.0016064,-0.00139016,-0.287926,0.00173156,0.0129879,706,1415,-0.0976336,0.0570709
-511,-391,-0.0817871,-0.0583496,0.00222672,-0.00157224,-0.000825144,0.0023982,-0.00174372,-0.204905,0.00240127,0.00996614,713,1415,-0.0818012,0.0584026
-504,-391,-0.0735474,-0.0543213,0.00345716,-0.00218381,-0.000509513,0.00350281,-0.00222946,-0.08936,0.00333663,0.00903157,720,1415,-0.0735556,0.0543742
-497,-391,-0.0737915,-0.0609131,0.00495711,-0.00429464,0.000635429,0.00500055,-0.00433807,0.068255,0.00539618,0.00816774,727,1415,-0.0737628,0.0608728
-490,-391,-0.0801392,-0.0585938,0.00694492,-0.00344492,0.000133231,0.00694663,-0.00344662,0.0128204,0.00611291,0.00988785,734,1415,-0.0801198,0.0585486
-483,-391,-0.0380859,-0.155029,0.00913816,-0.0019646,-0.000824596,0.00919906,-0.0020255,-0.0737304,0.00690759,0.0230832,741,1415,-0.0381094,0.155019
-476,-391,0.131592,-0.490967,0.0111213,1.2619e-06,-0.00125019,0.0112602,-0.00013756,-0.110587,0.00755304,0.0371319,748,1415,0.131616,0.490921
-469,-391,0.0345459,-0.289673,0,0,0,0,0,0,0,-1,755,1415,0.0345414,0.289722
-462,-391,0.249023,-0.164429,0,0,0,0,0,0,0,-1,762,1415,0.249022,0.164377
-455,-391,1.41138,-1.78296,0.0179074,0.0192697,-0.0058042,0.0244326,0.0127445,-0.843805,0.0141106,0.0477475,769,1415,1.41137,1.78299
-448,-391,1.93085,-2.12,0.020873,0.0327585,-0.0100561,0.0384966,0.0151349,-1.05227,0.0223946,0.0493402,776,1415,1.93085,2.11995
-441,-391,2.35999,-2.45251,0.0244846,0.0508243,-0.0168315,0.059026,0.0162828,-1.11737,0.0352016,0.0466806,783,1415,2.36,2.4525
-434,-391,2.71606,-2.63574,0.0289036,0.0741635,-0.0261981,0.0861522,0.0169149,-1.14162,0.0527091,0.0489901,790,1415,2.71608,2.63575
-427,-391,3.29797,-2.48926,0,0,0,0,0,0,0,-1,797,1415,3.29798,2.48932
-420,-391,-0.439026,0.0854492,0,0,0,0,0,0,0,-1,804,1415,-0.439033,-0.0853912
-413,-391,0,0,0,0,0,0,0,0,0,-1,811,1415,0,0
-406,-391,0,0,0,0,0,0,0,0,0,-1,818,1415,0,0
-399,-391,0,0,0,0,0,0,0,0,0,-1,825,1415,0,0
-392,-391,0,0,0,0,0,0,0,0,0,-1,832,1415,0,0
-385,-391,0,0,0,0,0,0,0,0,0,-1,839,1415,0,0
-378,-391,0,0,0,0,0,0,0,0,0,-1,846,1415,0,0
-371,-391,0,0,0,0,0,0,0,0,0,-1,853,1415,0,0
-364,-391,0,0,0,0,0,0,0,0,0,-1,860,1415,0,0
-357,-391,0,0,0,0,0,0,0,0,0,-1,867,1415,0,0
-350,-391,0,0,0,0,0,0,0,0,0,-1,874,1415,0,0
-343,-391,0,0,0,0,0,0,0,0,0,-1,881,1415,0,0
-336,-391,0,0,0,0,0,0,0,0,0,-1,888,1415,0,0
-329,-391,0,0,0,0,0,0,0,0,0,-1,895,1415,0,0
-322,-391,0,0,0,0,0,0,0,0,0,-1,902,1415,0,0
-315,-391,0,0,0,0,0,0,0,0,0,-1,909,1415,0,0
-308,-391,0,0,0,0,0,0,0,0,0,-1,916,1415,0,0
-301,-391,0,0,0,0,0,0,0,0,0,-1,923,1415,0,0
-294,-391,0,0,0,0,0,0,0,0,0,-1,930,1415,0,0
-287,-391,0,0,0,0,0,0,0,0,0,-1,937,1415,0,0
-280,-391,0,0,0,0,0,0,0,0,0,-1,944,1415,0,0
-273,-391,0,0,0,0,0,0,0,0,0,-1,951,1415,0,0
-266,-391,0,0,0,0,0,0,0,0,0,-1,958,1415,0,0
-259,-391,0,0,0,0,0,0,0,0,0,-1,965,1415,0,0
-252,-391,0,0,0,0,0,0,0,0,0,-1,972,1415,0,0
-245,-391,0,0,0,0,0,0,0,0,0,-1,979,1415,0,0
-238,-391,0,0,0,0,0,0,0,0,0,-1,986,1415,0,0
-231,-391,0,0,0,0,0,0,0,0,0,-1,993,1415,0,0
-224,-391,0,0,0,0,0,0,0,0,0,-1,1000,1415,0,0
-217,-391,0,0,0,0,0,0,0,0,0,-1,1007,1415,0,0
-210,-391,0,0,0,0,0,0,0,0,0,-1,1014,1415,0,0
-203,-391,0,0,0,0,0,0,0,0,0,-1,1021,1415,0,0
-196,-391,0,0,0,0,0,0,0,0,0,-1,1028,1415,0,0
-189,-391,0,0,0,0,0,0,0,0,0,-1,1035,1415,0,0
-182,-391,0,0,0,0,0,0,0,0,0,-1,1042,1415,0,0
-175,-391,0,0,0,0,0,0,0,0,0,-1,1049,1415,0,0
-168,-391,0,0,0,0,0,0,0,0,0,-1,1056,1415,0,0
-161,-391,0,0,0,0,0,0,0,0,0,-1,1063,1415,0,0
-154,-391,0,0,0,0,0,0,0,0,0,-1,1070,1415,0,0
-147,-391,0,0,0,0,0,0,0,0,0,-1,1077,1415,0,0
-140,-391,0,0,0,0,0,0,0,0,0,-1,1084,1415,0,0
-133,-391,0,0,0,0,0,0,0,0,0,-1,1091,1415,0,0
-126,-391,0,0,0,0,0,0,0,0,0,-1,1098,1415,0,0
-119,-391,0,0,0,0,0,0,0,0,0,-1,1105,1415,0,0
-112,-391,0,0,0,0,0,0,0,0,0,-1,1112,1415,0,0
-105,-391,0,0,0,0,0,0,0,0,0,-1,1119,1415,0,0
-98,-391,0,0,0,0,0,0,0,0,0,-1,1126,1415,0,0
-91,-391,0,0,0,0,0,0,0,0,0,-1,1133,1415,0,0
-84,-391,0,0,0,0,0,0,0,0,0,-1,1140,1415,0,0
-77,-391,0,0,0,0,0,0,0,0,0,-1,1147,1415,0,0
-70,-391,0,0,0,0,0,0,0,0,0,-1,1154,1415,0,0
-63,-391,0,0,0,0,0,0,0,0,0,-1,1161,1415,0,0
-56,-391,0,0,0,0,0,0,0,0,0,-1,1168,1415,0,0
-49,-391,0,0,0,0,0,0,0,0,0,-1,1175,1415,0,0
-42,-391,0,0,0,0,0,0,0,0,0,-1,1182,1415,0,0
-35,-391,0,0,0,0,0,0,0,0,0,-1,1189,1415,0,0
-28,-391,0,0,0,0,0,0,0,0,0,-1,1196,1415,0,0
-21,-391,0,0,0,0,0,0,0,0,0,-1,1203,1415,0,0
-14,-391,0,0,0,0,0,0,0,0,0,-1,1210,1415,0,0
-7,-391,0,0,0,0,0,0,0,0,0,-1,1217,1415,0,0
0,-391,0,0,0,0,0,0,0,0,0,-1,1224,1415,0,0
7,-391,0,0,0,0,0,0,0,0,0,-1,1231,1415,0,0
14,-391,0,0,0,0,0,0,0,0,0,-1,1238,1415,0,0
21,-391,0,0,0,0,0,0,0,0,0,-1,1245,1415,0,0
28,-391,0,0,0,0,0,0,0,0,0,-1,1252,1415,0,0
35,-391,0,0,0,0,0,0,0,0,0,-1,1259,1415,0,0
42,-391,0,0,0,0,0,0,0,0,0,-1,1266,1415,0,0
49,-391,0,0,0,0,0,0,0,0,0,-1,1273,1415,0,0
56,-391,0,0,0,0,0,0,0,0,0,-1,1280,1415,0,0
63,-391,0,0,0,0,0,0,0,0,0,-1,1287,1415,0,0
70,-391,0,0,0,0,0,0,0,0,0,-1,1294,1415,0,0
77,-391,0,0,0,0,0,0,0,0,0,-1,1301,1415,0,0
84,-391,0,0,0,0,0,0,0,0,0,-1,1308,1415,0,0
91,-391,0,0,0,0,0,0,0,0,0,-1,1315,1415,0,0
98,-391,0,0,0,0,0,0,0,0,0,-1,1322,1415,0,0
105,-391,0,0,0,0,0,0,0,0,0,-1,1329,1415,0,0
112,-391,0,0,0,0,0,0,0,0,0,-1,1336,1415,0,0
119,-391,0,0,0,0,0,0,0,0,0,-1,1343,1415,0,0
126,-391,0,0,0,0,0,0,0,0,0,-1,1350,1415,0,0
133,-391,0,0,0,0,0,0,0,0,0,-1,1357,1415,0,0
140,-391,0,0,0,0,0,0,0,0,0,-1,1364,1415,0,0
147,-391,0,0,0,0,0,0,0,0,0,-1,1371,1415,0,0
154,-391,0,0,0,0,0,0,0,0,0,-1,1378,1415,0,0
161,-391,0,0,0,0,0,0,0,0,0,-1,1385,1415,0,0
168,-391,0,0,0,0,0,0,0,0,0,-1,1392,1415,0,0
175,-391,0,0,0,0,0,0,0,0,0,-1,1399,1415,0,0
182,-391,0,0,0,0,0,0,0,0,0,-1,1406,1415,0,0
189,-391,0,0,0,0,0,0,0,0,0,-1,1413,1415,0,0
196,-391,0,0,0,0,0,0,0,0,0,-1,1420,1415,0,0
203,-391,0,0,0,0,0,0,0,0,0,-1,1427,1415,0,0
210,-391,0,0,0,0,0,0,0,0,0,-1,1434,1415,0,0
217,-391,0,0,0,0,0,0,0,0,0,-1,1441,1415,0,0
224,-391,0,0,0,0,0,0,0,0,0,-1,1448,1415,0,0
231,-391,0,0,0,0,0,0,0,0,0,-1,1455,1415,0,0
238,-391,0,0,0,0,0,0,0,0,0,-1,1462,1415,0,0
245,-391,0,0,0,0,0,0,0,0,0,-1,1469,1415,0,0
252,-391,0,0,0,0,0,0,0,0,0,-1,1476,1415,0,0
259,-391,0,0,0,0,0,0,0,0,0,-1,1483,1415,0,0
266,-391,0,0,0,0,0,0,0,0,0,-1,1490,1415,0,0
273,-391,0,0,0,0,0,0,0,0,0,-1,1497,1415,0,0
280,-391,0,0,0,0,0,0,0,0,0,-1,1504,1415,0,0
287,-391,0,0,0,0,0,0,0,0,0,-1,1511,1415,0,0
294,-391,0,0,0,0,0,0,0,0,0,-1,1518,1415,0,0
301,-391,0,0,0,0,0,0,0,0,0,-1,1525,1415,0,0
308,-391,0,0,0,0,0,0,0,0,0,-1,1532,1415,0,0
315,-391,0,0,0,0,0,0,0,0,0,-1,1539,1415,0,0
322,-391,0,0,0,0,0,0,0,0,0,-1,1546,1415,0,0
329,-391,0,0,0,0,0,0,0,0,0,-1,1553,1415,0,0
336,-391,0,0,0,0,0,0,0,0,0,-1,1560,1415,0,0
343,-391,0,0,0,0,0,0,0,0,0,-1,1567,1415,0,0
350,-391,0,0,0,0,0,0,0,0,0,-1,1574,1415,0,0
357,-391,0,0,0,0,0,0,0,0,0,-1,1581,1415,0,0
364,-391,0,0,0,0,0,0,0,0,0,-1,1588,1415,0,0
371,-391,0,0,0,0,0,0,0,0,0,-1,1595,1415,0,0
378,-391,0,0,0,0,0,0,0,0,0,-1,1602,1415,0,0
385,-391,0,0,0,0,0,0,0,0,0,-1,1609,1415,0,0
392,-391,0,0,0,0,0,0,0,0,0,-1,1616,1415,0,0
399,-391,0,0,0,0,0,0,0,0,0,-1,1623,1415,0,0
406,-391,0,0,0,0,0,0,0,0,0,-1,1630,1415,0,0
413,-391,0,0,0,0,0,0,0,0,0,-1,1637,1415,0,0
420,-391,0,0,0,0,0,0,0,0,0,-1,1644,1415,0,0
427,-391,0,0,0,0,0,0,0,0,0,-1,1651,1415,0,0
434,-391,0,0,0,0,0,0,0,0,0,-1,1658,1415,0,0
441,-391,0,0,0,0,0,0,0,0,0,-1,1665,1415,0,0
448,-391,0,0,0,0,0,0,0,0,0,-1,1672,1415,0,0
455,-391,0,0,0,0,0,0,0,0,0,-1,1679,1415,0,0
462,-391,0,0,0,0,0,0,0,0,0,-1,1686,1415,0,0
469,-391,0,0,0,0,0,0,0,0,0,-1,1693,1415,0,0
476,-391,0,0,0,0,0,0,0,0,0,-1,1700,1415,0,0
483,-391,0,0,0,0,0,0,0,0,0,-1,1707,1415,0,0
490,-391,0,0,0,0,0,0,0,0,0,-1,1714,1415,0,0
497,-391,0,0,0,0,0,0,0,0,0,-1,1721,1415,0,0
504,-391,0,0,0,0,0,0,0,0,0,-1,1728,1415,0,0
511,-391,0,0,0,0,0,0,0,0,0,-1,1735,1415,0,0
518,-391,0,0,0,0,0,0,0,0,0,-1,1742,1415,0,0
525,-391,0,0,0,0,0,0,0,0,0,-1,1749,1415,0,0
532,-391,0.257568,-0.318726,0,0,0,0,0,0,0,-1,1756,1415,0.257509,0.318704
539,-391,0.429199,-0.596069,0,0,0,0,0,0,0,-1,1763,1415,0.429258,0.596051
546,-391,-3.80127,-0.662842,0,0,0,0,0,0,0,-1,1770,1415,-3.80126,0.662868
553,-391,-2.49744,0.23584,0.0858972,0.0802987,0.0121728,0.0955885,0.0706074,0.672383,0.0572453,0.042854,1777,1415,-2.49741,-0.235805
560,-391,-2.36646,-0.553223,0.0821532,0.0799187,0.024252,0.105314,0.0567582,0.76238,0.0608643,0.0418346,1784,1415,-2.36645,0.553255
567,-391,-1.64331,0.0395508,0,0,0,0,0,0,0,-1,1791,1415,-1.64332,-0.0395483
574,-391,4.93127,2.37134,0,0,0,0,0,0,0,-1,1798,1415,4.93123,-2.37129
581,-391,4.08215,2.64673,0,0,0,0,0,0,0,-1,1805,1415,4.08217,-2.64677
588,-391,3.15356,2.55652,0,0,0,0,0,0,0,-1,1812,1415,3.1536,-2.55658
595,-391,1.93738,2.22839,0,0,0,0,0,0,0,-1,1819,1415,1.93734,-2.22836
602,-391,0.0975342,0.0550537,0.0128667,0.0259369,0.0156093,0.0363239,0.00247968,0.983646,0.0234331,0.0461276,1826,1415,0.0974951,-0.0550312
609,-391,0.083252,0.0352783,0.00483533,0.0166642,0.0103622,0.022681,-0.0011815,1.04472,0.0155295,0.0400869,1833,1415,0.0832698,-0.0352415
616,-391,-0.069458,-0.139038,-0.000935966,0.00988571,0.00613824,0.0126575,-0.00370774,1.14665,0.00990824,0.026036,1840,1415,-0.0694759,0.139048
623,-391,-0.086792,-0.0788574,-0.0059465,0.0054908,0.00242288,0.00598289,-0.00643859,1.37042,0.00717315,0.0151601,1847,1415,-0.0868504,0.0789169
630,-391,-0.0831299,-0.0966797,-0.00878541,0.000228442,-0.00200643,0.000654885,-0.00921185,-1.36137,0.00637076,0.015553,1854,1415,-0.0831134,0.096692
637,-391,-0.0880127,-0.0646973,-0.00863258,-0.00104114,-0.00336503,0.000235706,-0.00990942,-1.20813,0.00668624,0.013819,1861,1415,-0.0880076,0.0647072
644,-391,-0.0805664,-0.0402832,-0.00577481,5.28067e-05,-0.00226581,0.000830092,-0.00655209,-1.24033,0.00466942,0.0144367,1868,1415,-0.0805505,0.0402356
651,-391,-0.0931396,-0.0484619,-0.00298102,0.000910596,-0.000854405,0.00108992,-0.00316034,-1.36392,0.00254909,0.0147666,1875,1415,-0.0931012,0.0485202
658,-391,-0.0916748,-0.0444336,-0.00127489,0.00213458,0.000436463,0.00218957,-0.00132988,1.44547,0.00205206,0.013403,1882,1415,-0.0916934,0.0444196
665,-391,-0.0524902,-0.0385742,-1.96177e-05,0.00278558,0.000973415,0.00309027,-0.000324303,1.26745,0.00217635,0.0114402,1889,1415,-0.0524985,0.0385733
672,-391,-0.0609131,-0.0484619,0.00115521,0.00358539,0.00121876,0.00409129,0.0006493,1.17734,0.00253892,0.0117539,1896,1415,-0.0609302,0.0484162
679,-391,-0.0704346,-0.0574951,0.00252636,0.00432979,0.0015567,0.00522708,0.00162907,1.04791,0.0030884,0.0112166,1903,1415,-0.0703956,0.0574558
686,-391,-0.0650635,-0.0679932,0.00376997,0.00549649,0.0018939,0.00671459,0.00255187,0.999236,0.00391368,0.0112864,1910,1415,-0.0651008,0.0679966
693,-391,-0.0750732,-0.0447998,0.00526859,0.00689683,0.00219517,0.00842399,0.00374143,0.96297,0.0048737,0.0197741,1917,1415,-0.0750341,0.0448279
700,-391,0.03479,0.360718,0.00720471,0.0084861,0.00219874,0.0101356,0.00555522,0.927168,0.0058608,0.0352006,1924,1415,0.03478,-0.360709
707,-391,-0.000854492,1.10742,0.00955812,0.0101503,0.0018231,0.0117012,0.00800724,0.865906,0.006907,0.0428141,1931,1415,-0.000915181,-1.10746
714,-391,-0.137695,0.299683,0,0,0,0,0,0,0,-1,1938,1415,-0.137676,-0.299643
721,-391,-0.355957,0.479736,0.0159881,0.0138412,-0.000831401,0.0162724,0.0135569,-0.329506,0.010066,0.0423648,1945,1415,-0.355967,-0.479681
728,-391,-0.190308,0.133789,0.0200972,0.0159331,-0.00354434,0.0221258,0.0139045,-0.519833,0.012914,0.0429827,1952,1415,-0.190328,-0.133796
735,-391,0,0,0,0,0,0,0,0,0,-1,1959,1415,0,0
742,-391,0,0,0,0,0,0,0,0,0,-1,1966,1415,0,0
749,-391,0,0,0,0,0,0,0,0,0,-1,1973,1415,0,0
756,-391,0,0,0,0,0,0,0,0,0,-1,1980,1415,0,0
763,-391,0,0,0,0,0,0,0,0,0,-1,1987,1415,0,0
770,-391,0,0,0,0,0,0,0,0,0,-1,1994,1415,0,0
777,-391,0,0,0,0,0,0,0,0,0,-1,2001,1415,0,0
784,-391,0,0,0,0,0,0,0,0,0,-1,2008,1415,0,0
791,-391,0,0,0,0,0,0,0,0,0,-1,2015,1415,0,0
798,-391,0,0,0,0,0,0,0,0,0,-1,2022,1415,0,0
805,-391,0,0,0,0,0,0,0,0,0,-1,2029,1415,0,0
812,-391,0,0,0,0,0,0,0,0,0,-1,2036,1415,0,0
-700,-398,0,0,0,0,0,0,0,0,0,-1,524,1422,0,0
-693,-398,0,0,0,0,0,0,0,0,0,-1,531,1422,0,0
-686,-398,0,0,0,0,0,0,0,0,0,-1,538,1422,0,0
-679,-398,0,0,0,0,0,0,0,0,0,-1,545,1422,0,0
-672,-398,0,0,0,0,0,0,0,0,0,-1,552,1422,0,0
-665,-398,0,0,0,0,0,0,0,0,0,-1,559,1422,0,0
-658,-398,0,0,0,0,0,0,0,0,0,-1,566,1422,0,0
-651,-398,0,0,0,0,0,0,0,0,0,-1,573,1422,0,0
-644,-398,0,0,0,0,0,0,0,0,0,-1,580,1422,0,0
-637,-398,0,0,0,0,0,0,0,0,0,-1,587,1422,0,0
-630,-398,0,0,0,0,0,0,0,0,0,-1,594,1422,0,0
-623,-398,0,0,0,0,0,0,0,0,0,-1,601,1422,0,0
-616,-398,0,0,0,0,0,0,0,0,0,-1,608,1422,0,0
-609,-398,1.53131,-1.72717,0,0,0,0,0,0,0,-1,615,1422,1.53128,1.72716
-602,-398,1.68951,-2.00159,0,0,0,0,0,0,0,-1,622,1422,1.68953,2.0016
-595,-398,1.80786,-2.28577,0,0,0,0,0,0,0,-1,629,1422,1.80786,2.28575
-588,-398,1.14551,-1.60364,-0.0243983,0.0339405,0.0185491,0.0393388,-0.0297966,1.28759,0.0400418,0.043565,636,1422,1.14551,1.60361
-581,-398,1.15607,-1.88049,-0.0194589,0.030034,0.015762,0.0346274,-0.0240523,1.28723,0.0340617,0.0451526,643,1422,1.15607,1.88052
-574,-398,-0.164185,1.56702,-0.0152552,0.0254048,0.0129935,0.0292024,-0.0190528,1.28645,0.0280648,0.0434224,650,1422,-0.164198,-1.56702
-567,-398,-0.0985107,0.967529,-0.0117105,0.021227,0.0102737,0.0241688,-0.0146523,1.29192,0.0226368,0.0404992,657,1422,-0.0985086,-0.967507
-560,-398,-0.139404,0.315552,-0.00877583,0.0166702,0.00788317,0.0189145,-0.0110201,1.29344,0.0174819,0.0356761,664,1422,-0.139423,-0.315564
-553,-398,-0.0720825,-0.0720215,-0.00628454,0.012327,0.00594914,0.0140661,-0.00802366,1.28639,0.0129116,0.0217486,671,1422,-0.0720747,0.0720712
-546,-398,-0.0661621,-0.0639648,-0.00431789,0.00863303,0.00438605,0.00997864,-0.0056635,1.27312,0.00914482,0.0102052,678,1422,-0.0661491,0.0639553
-539,-398,-0.0703735,-0.0725098,-0.00296148,0.00565438,0.00308876,0.00664727,-0.00395437,1.25978,0.00618633,0.0117138,685,1422,-0.0703904,0.0724762
-532,-398,-0.0778198,-0.0623779,-0.00139419,0.00344288,0.00159907,0.00392371,-0.00187502,1.2787,0.00341684,0.0186078,692,1422,-0.0777972,0.0623759
-525,-398,-0.0879517,-0.0498047,1.5597e-06,0.000975568,0.000230243,0.00102725,-5.01244e-05,1.34998,0.00070214,0.0185334,699,1422,-0.0879754,0.049765
-518,-398,-0.106873,-0.0546875,0.00121818,-0.000415497,-0.000983383,0.00167972,-0.000877044,-0.438825,0.0015002,0.0159,706,1422,-0.106843,0.0547406
-511,-398,-0.0743408,-0.0689697,0.00200018,-0.000503194,-0.00106328,0.00239084,-0.000893847,-0.352095,0.00196096,0.0110101,713,1422,-0.074344,0.069017
-504,-398,-0.0581055,-0.0791016,0.00300111,-0.000827097,-0.000861495,0.00318605,-0.00101203,-0.211459,0.00252978,0.010511,720,1422,-0.0581131,0.0791229
-497,-398,-0.059021,-0.0844727,0.00406846,-0.00212811,0.000127656,0.00407109,-0.00213074,0.0205895,0.00363857,0.00833394,727,1422,-0.0590139,0.0845229
-490,-398,-0.0725708,-0.0761719,0.00555305,-0.000653985,-0.000341495,0.00557178,-0.000672716,-0.054797,0.00395786,0.00814338,734,1422,-0.0725981,0.0761122
-483,-398,-0.0720825,-0.102173,0.00716269,0.00141963,-0.00115753,0.00738722,0.0011951,-0.19159,0.00457873,0.0124319,741,1422,-0.0720948,0.102201
-476,-398,-0.0343018,-0.164429,0.00840521,0.00437264,-0.00151955,0.00891369,0.00386416,-0.322913,0.00516147,0.0313031,748,1422,-0.0343203,0.164395
-469,-398,-0.0146484,-0.196045,0.00946737,0.00997155,-0.00208004,0.0118147,0.0076242,-0.8457,0.00691659,0.0469589,755,1422,-0.0146552,0.196028
-462,-398,0.0909424,-0.206055,0.0107922,0.0170111,-0.00325278,0.0184016,0.00940176,-1.16684,0.010625,0.0454521,762,1422,0.090934,0.206113
-455,-398,0.244629,-0.275146,0.0124359,0.027317,-0.00543409,0.0290901,0.0106628,-1.2554,0.0169934,0.0399196,769,1422,0.244614,0.275191
-448,-398,0.532104,-0.282227,0.0145386,0.0419562,-0.00925515,0.0447879,0.0117069,-1.27388,0.0268219,0.0422682,776,1422,0.532129,0.282255
-441,-398,-0.621338,0.0197754,0,0,0,0,0,0,0,-1,783,1422,-0.621324,-0.0197964
-434,-398,3.37207,-2.8927,0,0,0,0,0,0,0,-1,790,1422,3.37207,2.89272
-427,-398,-0.297302,0.373413,0,0,0,0,0,0,0,-1,797,1422,-0.297281,-0.373407
-420,-398,-0.489746,0.354126,0,0,0,0,0,0,0,-1,804,1422,-0.489749,-0.35415
-413,-398,-0.641785,0.303101,0,0,0,0,0,0,0,-1,811,1422,-0.641812,-0.303072
-406,-398,0,0,0,0,0,0,0,0,0,-1,818,1422,0,0
-399,-398,0,0,0,0,0,0,0,0,0,-1,825,1422,0,0
-392,-398,0,0,0,0,0,0,0,0,0,-1,832,1422,0,0
-385,-398,0,0,0,0,0,0,0,0,0,-1,839,1422,0,0
-378,-398,0,0,0,0,0,0,0,0,0,-1,846,1422,0,0
-371,-398,0,0,0,0,0,0,0,0,0,-1,853,1422,0,0
-364,-398,0,0,0,0,0,0,0,0,0,-1,860,1422,0,0
-357,-398,0,0,0,0,0,0,0,0,0,-1,867,1422,0,0
-350,-398,0,0,0,0,0,0,0,0,0,-1,874,1422,0,0
-343,-398,0,0,0,0,0,0,0,0,0,-1,881,1422,0,0
-336,-398,0,0,0,0,0,0,0,0,0,-1,888,1422,0,0
-329,-398,0,0,0,0,0,0,0,0,0,-1,895,1422,0,0
-322,-398,0,0,0,0,0,0,0,0,0,-1,902,1422,0,0
-315,-398,0,0,0,0,0,0,0,0,0,-1,909,1422,0,0
-308,-398,0,0,0,0,0,0,0,0,0,-1,916,1422,0,0
-301,-398,0,0,0,0,0,0,0,0,0,-1,923,1422,0,0
-294,-398,0,0,0,0,0,0,0,0,0,-1,930,1422,0,0
-287,-398,0,0,0,0,0,0,0,0,0,-1,937,1422,0,0
-280,-398,0,0,0,0,0,0,0,0,0,-1,944,1422,0,0
-273,-398,0,0,0,0,0,0,0,0,0,-1,951,1422,0,0
-266,-398,0,0,0,0,0,0,0,0,0,-1,958,1422,0,0
-259,-398,0,0,0,0,0,0,0,0,0,-1,965,1422,0,0
-252,-398,0,0,0,0,0,0,0,0,0,-1,972,1422,0,0
-245,-398,0,0,0,0,0,0,0,0,0,-1,979,1422,0,0
-238,-398,0,0,0,0,0,0,0,0,0,-1,986,1422,0,0
-231,-398,0,0,0,0,0,0,0,0,0,-1,993,1422,0,0
-224,-398,0,0,0,0,0,0,0,0,0,-1,1000,1422,0,0
-217,-398,0,0,0,0,0,0,0,0,0,-1,1007,1422,0,0
-210,-398,0,0,0,0,0,0,0,0,0,-1,1014,1422,0,0
-203,-398,0,0,0,0,0,0,0,0,0,-1,1021,1422,0,0
-196,-398,0,0,0,0,0,0,0,0,0,-1,1028,1422,0,0
-189,-398,0,0,0,0,0,0,0,0,0,-1,1035,1422,0,0
-182,-398,0,0,0,0,0,0,0,0,0,-1,1042,1422,0,0
-175,-398,0,0,0,0,0,0,0,0,0,-1,1049,1422,0,0
-168,-398,0,0,0,0,0,0,0,0,0,-1,1056,1422,0,0
-161,-398,0,0,0,0,0,0,0,0,0,-1,1063,1422,0,0
-154,-398,0,0,0,0,0,0,0,0,0,-1,1070,1422,0,0
-147,-398,0,0,0,0,0,0,0,0,0,-1,1077,1422,0,0
-140,-398,0,0,0,0,0,0,0,0,0,-1,1084,1422,0,0
-133,-398,0,0,0,0,0,0,0,0,0,-1,1091,1422,0,0
-126,-398,0,0,0,0,0,0,0,0,0,-1,1098,1422,0,0
-119,-398,0,0,0,0,0,0,0,0,0,-1,1105,1422,0,0
-112,-398,0,0,0,0,0,0,0,0,0,-1,1112,1422,0,0
-105,-398,0,0,0,0,0,0,0,0,0,-1,1119,1422,0,0
-98,-398,0,0,0,0,0,0,0,0,0,-1,1126,1422,0,0
-91,-398,0,0,0,0,0,0,0,0,0,-1,1133,1422,0,0
-84,-398,0,0,0,0,0,0,0,0,0,-1,1140,1422,0,0
-77,-398,0,0,0,0,0,0,0,0,0,-1,1147,1422,0,0
-70,-398,0,0,0,0,0,0,0,0,0,-1,1154,1422,0,0
-63,-398,0,0,0,0,0,0,0,0,0,-1,1161,1422,0,0
-56,-398,0,0,0,0,0,0,0,0,0,-1,1168,1422,0,0
-49,-398,0,0,0,0,0,0,0,0,0,-1,1175,1422,0,0
-42,-398,0,0,0,0,0,0,0,0,0,-1,1182,1422,0,0
-35,-398,0,0,0,0,0,0,0,0,0,-1,1189,1422,0,0
-28,-398,0,0,0,0,0,0,0,0,0,-1,1196,1422,0,0
-21,-398,0,0,0,0,0,0,0,0,0,-1,1203,1422,0,0
-14,-398,0,0,0,0,0,0,0,0,0,-1,1210,1422,0,0
-7,-398,0,0,0,0,0,0,0,0,0,-1,1217,1422,0,0
0,-398,0,0,0,0,0,0,0,0,0,-1,1224,1422,0,0
7,-398,0,0,0,0,0,0,0,0,0,-1,1231,1422,0,0
14,-398,0,0,0,0,0,0,0,0,0,-1,1238,1422,0,0
21,-398,0,0,0,0,0,0,0,0,0,-1,1245,1422,0,0
28,-398,0,0,0,0,0,0,0,0,0,-1,1252,1422,0,0
35,-398,0,0,0,0,0,0,0,0,0,-1,1259,1422,0,0
42,-398,0,0,0,0,0,0,0,0,0,-1,1266,1422,0,0
49,-398,0,0,0,0,0,0,0,0,0,-1,1273,1422,0,0
56,-398,0,0,0,0,0,0,0,0,0,-1,1280,1422,0,0
63,-398,0,0,0,0,0,0,0,0,0,-1,1287,1422,0,0
70,-398,0,0,0,0,0,0,0,0,0,-1,1294,1422,0,0
77,-398,0,0,0,0,0,0,0,0,0,-1,1301,1422,0,0
84,-398,0,0,0,0,0,0,0,0,0,-1,1308,1422,0,0
91,-398,0,0,0,0,0,0,0,0,0,-1,1315,1422,0,0
98,-398,0,0,0,0,0,0,0,0,0,-1,1322,1422,0,0
105,-398,0,0,0,0,0,0,0,0,0,-1,1329,1422,0,0
112,-398,0,0,0,0,0,0,0,0,0,-1,1336,1422,0,0
119,-398,0,0,0,0,0,0,0,0,0,-1,1343,1422,0,0
126,-398,0,0,0,0,0,0,0,0,0,-1,1350,1422,0,0
133,-398,0,0,0,0,0,0,0,0,0,-1,1357,1422,0,0
140,-398,0,0,0,0,0,0,0,0,0,-1,1364,1422,0,0
147,-398,0,0,0,0,0,0,0,0,0,-1,1371,1422,0,0
154,-398,0,0,0,0,0,0,0,0,0,-1,1378,1422,0,0
161,-398,0,0,0,0,0,0,0,0,0,-1,1385,1422,0,0
168,-398,0,0,0,0,0,0,0,0,0,-1,1392,1422,0,0
175,-398,0,0,0,0,0,0,0,0,0,-1,1399,1422,0,0
182,-398,0,0,0,0,0,0,0,0,0,-1,1406,1422,0,0
189,-398,0,0,0,0,0,0,0,0,0,-1,1413,1422,0,0
196,-398,0,0,0,0,0,0,0,0,0,-1,1420,1422,0,0
203,-398,0,0,0,0,0,0,0,0,0,-1,1427,1422,0,0
210,-398,0,0,0,0,0,0,0,0,0,-1,1434,1422,0,0
217,-398,0,0,0,0,0,0,0,0,0,-1,1441,1422,0,0
224,-398,0,0,0,0,0,0,0,0,0,-1,1448,1422,0,0
231,-398,0,0,0,0,0,0,0,0,0,-1,1455,1422,0,0
238,-398,0,0,0,0,0,0,0,0,0,-1,1462,1422,0,0
245,-398,0,0,0,0,0,0,0,0,0,-1,1469,1422,0,0
252,-398,0,0,0,0,0,0,0,0,0,-1,1476,1422,0,0
259,-398,0,0,0,0,0,0,0,0,0,-1,1483,1422,0,0
266,-398,0,0,0,0,0,0,0,0,0,-1,1490,1422,0,0
273,-398,0,0,0,0,0,0,0,0,0,-1,1497,1422,0,0
280,-398,0,0,0,0,0,0,0,0,0,-1,1504,1422,0,0
287,-398,0,0,0,0,0,0,0,0,0,-1,1511,1422,0,0
294,-398,0,0,0,0,0,0,0,0,0,-1,1518,1422,0,0
301,-398,0,0,0,0,0,0,0,0,0,-1,1525,1422,0,0
308,-398,0,0,0,0,0,0,0,0,0,-1,1532,1422,0,0
315,-398,0,0,0,0,0,0,0,0,0,-1,1539,1422,0,0
322,-398,0,0,0,0,0,0,0,0,0,-1,1546,1422,0,0
329,-398,0,0,0,0,0,0,0,0,0,-1,1553,1422,0,0
336,-398,0,0,0,0,0,0,0,0,0,-1,1560,1422,0,0
343,-398,0,0,0,0,0,0,0,0,0,-1,1567,1422,0,0
350,-398,0,0,0,0,0,0,0,0,0,-1,1574,1422,0,0
357,-398,0,0,0,0,0,0,0,0,0,-1,1581,1422,0,0
364,-398,0,0,0,0,0,0,0,0,0,-1,1588,1422,0,0
371,-398,0,0,0,0,0,0,0,0,0,-1,1595,1422,0,0
378,-398,0,0,0,0,0,0,0,0,0,-1,1602,1422,0,0
385,-398,0,0,0,0,0,0,0,0,0,-1,1609,1422,0,0
392,-398,0,0,0,0,0,0,0,0,0,-1,1616,1422,0,0
399,-398,0,0,0,0,0,0,0,0,0,-1,1623,1422,0,0
406,-398,0,0,0,0,0,0,0,0,0,-1,1630,1422,0,0
413,-398,0,0,0,0,0,0,0,0,0,-1,1637,1422,0,0
420,-398,0,0,0,0,0,0,0,0,0,-1,1644,1422,0,0
427,-398,0,0,0,0,0,0,0,0,0,-1,1651,1422,0,0
434,-398,0,0,0,0,0,0,0,0,0,-1,1658,1422,0,0
441,-398,0,0,0,0,0,0,0,0,0,-1,1665,1422,0,0
448,-398,0,0,0,0,0,0,0,0,0,-1,1672,1422,0,0
455,-398,0,0,0,0,0,0,0,0,0,-1,1679,1422,0,0
462,-398,0,0,0,0,0,0,0,0,0,-1,1686,1422,0,0
469,-398,0,0,0,0,0,0,0,0,0,-1,1693,1422,0,0
476,-398,0,0,0,0,0,0,0,0,0,-1,1700,1422,0,0
483,-398,0,0,0,0,0,0,0,0,0,-1,1707,1422,0,0
490,-398,0,0,0,0,0,0,0,0,0,-1,1714,1422,0,0
497,-398,0,0,0,0,0,0,0,0,0,-1,1721,1422,0,0
504,-398,0,0,0,0,0,0,0,0,0,-1,1728,1422,0,0
511,-398,0,0,0,0,0,0,0,0,0,-1,1735,1422,0,0
518,-398,0,0,0,0,0,0,0,0,0,-1,1742,1422,0,0
525,-398,0,0,0,0,0,0,0,0,0,-1,1749,1422,0,0
532,-398,5.82739,0.124512,0,0,0,0,0,0,0,-1,1756,1422,5.82743,-0.12454
539,-398,-4.39343,-2.41541,0,0,0,0,0,0,0,-1,1763,1422,-4.39343,2.4154
546,-398,-3.57593,-1.96179,0.0956819,0.0718732,0.00382086,0.0962801,0.0712751,0.155288,0.0576873,0.0467391,1770,1422,-3.57595,1.96181
553,-398,-2.73401,-1.51025,0.0937621,0.0791172,0.0193405,0.10712,0.0657594,0.604433,0.0623781,0.0421926,1777,1422,-2.73395,1.5103
560,-398,-1.89111,-1.07971,0.0870373,0.0784103,0.0280007,0.111055,0.0543928,0.708974,0.064122,0.0409281,1784,1422,-1.89107,1.07973
567,-398,-1.45349,-0.584595,0.0762428,0.0725533,0.0314051,0.105857,0.0429388,0.756062,0.0614785,0.0417971,1791,1422,-1.45346,0.584649
574,-398,4.34888,2.67395,0.0642317,0.0651729,0.0315613,0.0962672,0.0331375,0.792853,0.0564719,0.0442173,1798,1422,4.34884,-2.67393
581,-398,3.62341,2.73315,0.0515402,0.0560244,0.0291526,0.083021,0.0245436,0.823777,0.0492488,0.0436378,1805,1422,3.62343,-2.73312
588,-398,2.80505,2.74268,0,0,0,0,0,0,0,-1,1812,1422,2.80511,-2.74268
595,-398,2.03735,2.5332,0.0267145,0.0352179,0.0191465,0.0505791,0.0113533,0.894657,0.0306442,0.0469169,1819,1422,2.03734,-2.53321
602,-398,1.47693,1.70496,0.0166578,0.026596,0.0161803,0.038553,0.00470072,0.934381,0.0242872,0.0450896,1826,1422,1.47697,-1.7049
609,-398,-0.104126,-0.143066,0.00842876,0.0173731,0.0108831,0.0246671,0.00113476,0.980344,0.0160798,0.0305895,1833,1422,-0.104178,0.143017
616,-398,-0.0858154,-0.0874023,0.00221298,0.010346,0.00656915,0.0140054,-0.00144646,1.06255,0.00985456,0.0132491,1840,1422,-0.0858572,0.0874451
623,-398,-0.0905762,-0.0736084,-0.00319342,0.00566387,0.00273911,0.00644249,-0.00397205,1.29384,0.00606897,0.00932042,1847,1422,-0.0906238,0.0735909
630,-398,-0.0740967,-0.0877686,-0.0065876,0.000404159,-0.00175906,0.000821779,-0.00700522,-1.3377,0.00496679,0.0105022,1854,1422,-0.0741041,0.0877775
637,-398,-0.0531006,-0.0673828,-0.00706712,-0.000980161,-0.00329804,0.000464103,-0.00851138,-1.15804,0.00583511,0.0116905,1861,1422,-0.0531511,0.0674315
644,-398,-0.0926514,-0.0689697,-0.0047059,0.000194894,-0.00230189,0.00110651,-0.00561752,-1.19372,0.00416316,0.0170735,1868,1422,-0.0926557,0.0689308
651,-398,-0.0930176,-0.067627,-0.00225951,0.00113138,-0.00099267,0.0014006,-0.00252873,-1.30595,0.00229956,0.023529,1875,1422,-0.0930761,0.0676244
658,-398,-0.0812988,-0.0410156,-0.000674981,0.00258792,0.000273086,0.00261061,-0.000697679,1.48787,0.00201367,0.0165844,1882,1422,-0.0812905,0.0409675
665,-398,-0.0671387,-0.0484619,0.000550298,0.00353333,0.000811479,0.00373979,0.00034384,1.32166,0.00238685,0.0123114,1889,1422,-0.0671777,0.0484283
672,-398,-0.0632324,-0.0563965,0.00167803,0.00470588,0.00104664,0.00503245,0.00135146,1.26835,0.00300746,0.0125715,1896,1422,-0.0632093,0.0563475
679,-398,-0.0684814,-0.0759277,0.00309591,0.00588854,0.00140329,0.00647185,0.0025126,1.17685,0.00376751,0.0114917,1903,1422,-0.0684883,0.0759524
686,-398,-0.0634766,-0.0812988,0.00447317,0.00761167,0.00181039,0.00843826,0.00364657,1.14248,0.00488676,0.0153471,1910,1422,-0.0634769,0.0813553
693,-398,-0.0439453,-0.0554199,0.00618935,0.0096345,0.00217389,0.0106856,0.00513829,1.12044,0.00617082,0.0310022,1917,1422,-0.0440031,0.0554806
700,-398,0.0869141,0.255737,0.00840549,0.0119447,0.00222585,0.0130187,0.00733152,1.12125,0.00753628,0.0400237,1924,1422,0.0868612,-0.255785
707,-398,0.0931396,0.697388,0.0111228,0.0144353,0.00181264,0.0152344,0.0103236,1.15558,0.00897876,0.0435218,1931,1422,0.0931217,-0.697362
714,-398,0.141724,0.851074,0.0144555,0.0170789,0.000689381,0.017249,0.0142854,1.32885,0.0106498,0.0457272,1938,1422,0.141729,-0.851064
721,-398,-0.47998,0.550293,0.0184329,0.019821,-0.00141837,0.020706,0.0175479,-1.01293,0.012881,0.0429089,1945,1422,-0.479953,-0.550329
728,-398,-0.0581055,0.142456,0.0229952,0.0226236,-0.00490687,0.0277198,0.017899,-0.766474,0.016229,0.043453,1952,1422,-0.0580472,-0.142485
735,-398,0,0,0,0,0,0,0,0,0,-1,1959,1422,0,0
742,-398,0,0,0,0,0,0,0,0,0,-1,1966,1422,0,0
749,-398,0,0,0,0,0,0,0,0,0,-1,1973,1422,0,0
756,-398,0,0,0,0,0,0,0,0,0,-1,1980,1422,0,0
763,-398,0,0,0,0,0,0,0,0,0,-1,1987,1422,0,0
770,-398,0,0,0,0,0,0,0,0,0,-1,1994,1422,0,0
777,-398,0,0,0,0,0,0,0,0,0,-1,2001,1422,0,0
784,-398,0,0,0,0,0,0,0,0,0,-1,2008,1422,0,0
791,-398,0,0,0,0,0,0,0,0,0,-1,2015,1422,0,0
798,-398,0,0,0,0,0,0,0,0,0,-1,2022,1422,0,0
805,-398,0,0,0,0,0,0,0,0,0,-1,2029,1422,0,0
812,-398,0,0,0,0,0,0,0,0,0,-1,2036,1422,0,0
-700,-405,0,0,0,0,0,0,0,0,0,-1,524,1429,0,0
-693,-405,0,0,0,0,0,0,0,0,0,-1,531,1429,0,0
-686,-405,0,0,0,0,0,0,0,0,0,-1,538,1429,0,0
-679,-405,0,0,0,0,0,0,0,0,0,-1,545,1429,0,0
-672,-405,0,0,0,0,0,0,0,0,0,-1,552,1429,0,0
-665,-405,0,0,0,0,0,0,0,0,0,-1,559,1429,0,0
-658,-405,0,0,0,0,0,0,0,0,0,-1,566,1429,0,0
-651,-405,0,0,0,0,0,0,0,0,0,-1,573,1429,0,0
-644,-405,0,0,0,0,0,0,0,0,0,-1,580,1429,0,0
-637,-405,0,0,0,0,0,0,0,0,0,-1,587,1429,0,0
-630,-405,0,0,0,0,0,0,0,0,0,-1,594,1429,0,0
-623,-405,0,0,0,0,0,0,0,0,0,-1,601,1429,0,0
-616,-405,0,0,0,0,0,0,0,0,0,-1,608,1429,0,0
-609,-405,0,0,0,0,0,0,0,0,0,-1,615,1429,0,0
-602,-405,2.00427,-2.26733,0,0,0,0,0,0,0,-1,622,1429,2.00427,2.26732
-595,-405,1.53448,-1.73083,0,0,0,0,0,0,0,-1,629,1429,1.53447,1.73087
-588,-405,1.53662,-2.02112,-0.0319708,0.0398762,0.0244094,0.0473844,-0.039479,1.27239,0.0502198,0.0473333,636,1429,1.53661,2.02116
-581,-405,-0.790222,1.51721,-0.0254642,0.0354635,0.0203643,0.0416432,-0.0316439,1.27617,0.0424434,0.041618,643,1429,-0.790207,-1.51724
-574,-405,-0.331787,1.39587,-0.019932,0.0301688,0.0164608,0.0350931,-0.0248562,1.28012,0.0347795,0.0441131,650,1429,-0.331777,-1.39586
-567,-405,-0.143311,0.941162,-0.0152733,0.0252112,0.0127642,0.0288995,-0.0189617,1.2895,0.0278305,0.0445917,657,1429,-0.143325,-0.94119
-560,-405,-0.123535,0.361816,-0.0114011,0.0198977,0.00958719,0.0226009,-0.0141043,1.29597,0.0213801,0.043431,664,1429,-0.12354,-0.361831
-553,-405,-0.0585327,-0.112305,-0.00817632,0.0149265,0.00704937,0.0169076,-0.0101574,1.29683,0.0157872,0.032984,671,1429,-0.0585377,0.112311
-546,-405,-0.053772,-0.0828857,-0.00564435,0.0107687,0.00501631,0.0121804,-0.00705606,1.29647,0.0112368,0.0136141,678,1429,-0.0537627,0.0829443
-539,-405,-0.0613403,-0.0834961,-0.00383552,0.00739619,0.00339837,0.00834438,-0.00478371,1.2987,0.00767188,0.0111113,685,1429,-0.0613511,0.0834602
-532,-405,-0.0584106,-0.048584,-0.00185532,0.00498377,0.00162433,0.00534995,-0.0022215,1.34907,0.00449404,0.0144674,692,1429,-0.0584228,0.0485831
-525,-405,-0.0796509,-0.0418701,-0.000255038,0.00219435,0.000111194,0.00219938,-0.000260076,1.52552,0.00156019,0.0136171,699,1429,-0.0796416,0.0418707
-518,-405,-0.0799561,-0.0632324,0.000959964,0.000570955,-0.0011631,0.00194472,-0.000413796,-0.702551,0.00145417,0.0144637,706,1429,-0.0799502,0.0632737
-511,-405,-0.0465088,-0.0667725,0.00169465,0.000406341,-0.00124222,0.0024498,-0.000348809,-0.546209,0.00176102,0.0146198,713,1429,-0.0464795,0.0667548
-504,-405,-0.0525513,-0.0921631,0.00249941,2.4709e-05,-0.00106193,0.00289262,-0.000368499,-0.354625,0.00206225,0.0149386,720,1429,-0.0525293,0.0922073
-497,-405,-0.0560913,-0.0803223,0.00318301,-0.000873122,-0.000117579,0.00318642,-0.000876528,-0.0289556,0.00246888,0.0112896,727,1429,-0.0560818,0.0803092
-490,-405,-0.0684814,-0.0681152,0.00418564,0.000809608,-0.000440613,0.0042422,0.00075305,-0.127664,0.00261353,0.00939063,734,1429,-0.0684695,0.0681684
-483,-405,-0.0819702,-0.076416,0.00522437,0.00307161,-0.00100423,0.00562009,0.00267589,-0.375366,0.00324599,0.00749348,741,1429,-0.0819795,0.0764593
-476,-405,-0.0715942,-0.0891113,0.00576726,0.00651927,-0.00119375,0.00739484,0.0048917,-0.937969,0.00434302,0.0182039,748,1429,-0.0716166,0.0891254
-469,-405,-0.102783,-0.0866699,0.00604303,0.0127129,-0.0015308,0.0130475,0.00570848,-1.35563,0.00755255,0.0336234,755,1429,-0.102762,0.0867132
-462,-405,-0.0842285,-0.154297,0.00649947,0.0202685,-0.00234505,0.0206569,0.00611103,-1.40665,0.0122532,0.0381133,762,1429,-0.084257,0.154342
-455,-405,0.0498047,-0.405273,0.00729026,0.0310407,-0.00404201,0.0317097,0.00662121,-1.40676,0.0193148,0.0386096,769,1429,0.0498025,0.405241
-448,-405,-0.238525,-0.303833,0.00858283,0.0460458,-0.00723347,0.0473939,0.00723468,-1.38653,0.0294818,0.0422453,776,1429,-0.238555,0.303782
-441,-405,-0.543701,0.0065918,0,0,0,0,0,0,0,-1,783,1429,-0.543684,-0.0066165
-434,-405,-0.818909,0.251709,0,0,0,0,0,0,0,-1,790,1429,-0.818922,-0.251717
-427,-405,-0.352844,0.77002,0,0,0,0,0,0,0,-1,797,1429,-0.352819,-0.770003
-420,-405,1.72083,-0.322998,0,0,0,0,0,0,0,-1,804,1429,1.72084,0.323002
-413,-405,2.8761,-0.555542,0,0,0,0,0,0,0,-1,811,1429,2.87609,0.555565
-406,-405,1.54565,-0.492065,0,0,0,0,0,0,0,-1,818,1429,1.54566,0.49202
-399,-405,0,0,0,0,0,0,0,0,0,-1,825,1429,0,0
-392,-405,0,0,0,0,0,0,0,0,0,-1,832,1429,0,0
-385,-405,0,0,0,0,0,0,0,0,0,-1,839,1429,0,0
-378,-405,0,0,0,0,0,0,0,0,0,-1,846,1429,0,0
-371,-405,0,0,0,0,0,0,0,0,0,-1,853,1429,0,0
-364,-405,0,0,0,0,0,0,0,0,0,-1,860,1429,0,0
-357,-405,0,0,0,0,0,0,0,0,0,-1,867,1429,0,0
-350,-405,0,0,0,0,0,0,0,0,0,-1,874,1429,0,0
-343,-405,0,0,0,0,0,0,0,0,0,-1,881,1429,0,0
-336,-405,0,0,0,0,0,0,0,0,0,-1,888,1429,0,0
-329,-405,0,0,0,0,0,0,0,0,0,-1,895,1429,0,0
-322,-405,0,0,0,0,0,0,0,0,0,-1,902,1429,0,0
-315,-405,0,0,0,0,0,0,0,0,0,-1,909,1429,0,0
-308,-405,0,0,0,0,0,0,0,0,0,-1,916,1429,0,0
-301,-405,0,0,0,0,0,0,0,0,0,-1,923,1429,0,0
-294,-405,0,0,0,0,0,0,0,0,0,-1,930,1429,0,0
-287,-405,0,0,0,0,0,0,0,0,0,-1,937,1429,0,0
-280,-405,0,0,0,0,0,0,0,0,0,-1,944,1429,0,0
-273,-405,0,0,0,0,0,0,0,0,0,-1,951,1429,0,0
-266,-405,0,0,0,0,0,0,0,0,0,-1,958,1429,0,0
-259,-405,0,0,0,0,0,0,0,0,0,-1,965,1429,0,0
-252,-405,0,0,0,0,0,0,0,0,0,-1,972,1429,0,0
-245,-405,0,0,0,0,0,0,0,0,0,-1,979,1429,0,0
-238,-405,0,0,0,0,0,0,0,0,0,-1,986,1429,0,0
-231,-405,0,0,0,0,0,0,0,0,0,-1,993,1429,0,0
-224,-405,0,0,0,0,0,0,0,0,0,-1,1000,1429,0,0
-217,-405,0,0,0,0,0,0,0,0,0,-1,1007,1429,0,0
-210,-405,0,0,0,0,0,0,0,0,0,-1,1014,1429,0,0
-203,-405,0,0,0,0,0,0,0,0,0,-1,1021,1429,0,0
-196,-405,0,0,0,0,0,0,0,0,0,-1,1028,1429,0,0
-189,-405,0,0,0,0,0,0,0,0,0,-1,1035,1429,0,0
-182,-405,0,0,0,0,0,0,0,0,0,-1,1042,1429,0,0
-175,-405,0,0,0,0,0,0,0,0,0,-1,1049,1429,0,0
-168,-405,0,0,0,0,0,0,0,0,0,-1,1056,1429,0,0
-161,-405,0,0,0,0,0,0,0,0,0,-1,1063,1429,0,0
-154,-405,0,0,0,0,0,0,0,0,0,-1,1070,1429,0,0
-147,-405,0,0,0,0,0,0,0,0,0,-1,1077,1429,0,0
-140,-405,0,0,0,0,0,0,0,0,0,-1,1084,1429,0,0
-133,-405,0,0,0,0,0,0,0,0,0,-1,1091,1429,0,0
-126,-405,0,0,0,0,0,0,0,0,0,-1,1098,1429,0,0
-119,-405,0,0,0,0,0,0,0,0,0,-1,1105,1429,0,0
-112,-405,0,0,0,0,0,0,0,0,0,-1,1112,1429,0,0
-105,-405,0,0,0,0,0,0,0,0,0,-1,1119,1429,0,0
-98,-405,0,0,0,0,0,0,0,0,0,-1,1126,1429,0,0
-91,-405,0,0,0,0,0,0,0,0,0,-1,1133,1429,0,0
-84,-405,0,0,0,0,0,0,0,0,0,-1,1140,1429,0,0
-77,-405,0,0,0,0,0,0,0,0,0,-1,1147,1429,0,0
-70,-405,0,0,0,0,0,0,0,0,0,-1,1154,1429,0,0
-63,-405,0,0,0,0,0,0,0,0,0,-1,1161,1429,0,0
-56,-405,0,0,0,0,0,0,0,0,0,-1,1168,1429,0,0
-49,-405,0,0,0,0,0,0,0,0,0,-1,1175,1429,0,0
-42,-405,0,0,0,0,0,0,0,0,0,-1,1182,1429,0,0
-35,-405,0,0,0,0,0,0,0,0,0,-1,1189,1429,0,0
-28,-405,0,0,0,0,0,0,0,0,0,-1,1196,1429,0,0
-21,-405,0,0,0,0,0,0,0,0,0,-1,1203,1429,0,0
-14,-405,0,0,0,0,0,0,0,0,0,-1,1210,1429,0,0
-7,-405,0,0,0,0,0,0,0,0,0,-1,1217,1429,0,0
0,-405,0,0,0,0,0,0,0,0,0,-1,1224,1429,0,0
7,-405,0,0,0,0,0,0,0,0,0,-1,1231,1429,0,0
14,-405,0,0,0,0,0,0,0,0,0,-1,1238,1429,0,0
21,-405,0,0,0,0,0,0,0,0,0,-1,1245,1429,0,0
28,-405,0,0,0,0,0,0,0,0,0,-1,1252,1429,0,0
35,-405,0,0,0,0,0,0,0,0,0,-1,1259,1429,0,0
42,-405,0,0,0,0,0,0,0,0,0,-1,1266,1429,0,0
49,-405,0,0,0,0,0,0,0,0,0,-1,1273,1429,0,0
56,-405,0,0,0,0,0,0,0,0,0,-1,1280,1429,0,0
63,-405,0,0,0,0,0,0,0,0,0,-1,1287,1429,0,0
70,-405,0,0,0,0,0,0,0,0,0,-1,1294,1429,0,0
77,-405,0,0,0,0,0,0,0,0,0,-1,1301,1429,0,0
84,-405,0,0,0,0,0,0,0,0,0,-1,1308,1429,0,0
91,-405,0,0,0,0,0,0,0,0,0,-1,1315,1429,0,0
98,-405,0,0,0,0,0,0,0,0,0,-1,1322,1429,0,0
105,-405,0,0,0,0,0,0,0,0,0,-1,1329,1429,0,0
112,-405,0,0,0,0,0,0,0,0,0,-1,1336,1429,0,0
119,-405,0,0,0,0,0,0,0,0,0,-1,1343,1429,0,0
126,-405,0,0,0,0,0,0,0,0,0,-1,1350,1429,0,0
133,-405,0,0,0,0,0,0,0,0,0,-1,1357,1429,0,0
140,-405,0,0,0,0,0,0,0,0,0,-1,1364,1429,0,0
147,-405,0,0,0,0,0,0,0,0,0,-1,1371,1429,0,0
154,-405,0,0,0,0,0,0,0,0,0,-1,1378,1429,0,0
161,-405,0,0,0,0,0,0,0,0,0,-1,1385,1429,0,0
168,-405,0,0,0,0,0,0,0,0,0,-1,1392,1429,0,0
175,-405,0,0,0,0,0,0,0,0,0,-1,1399,1429,0,0
182,-405,0,0,0,0,0,0,0,0,0,-1,1406,1429,0,0
189,-405,0,0,0,0,0,0,0,0,0,-1,1413,1429,0,0
196,-405,0,0,0,0,0,0,0,0,0,-1,1420,1429,0,0
203,-405,0,0,0,0,0,0,0,0,0,-1,1427,1429,0,0
210,-405,0,0,0,0,0,0,0,0,0,-1,1434,1429,0,0
217,-405,0,0,0,0,0,0,0,0,0,-1,1441,1429,0,0
224,-405,0,0,0,0,0,0,0,0,0,-1,1448,1429,0,0
231,-405,0,0,0,0,0,0,0,0,0,-1,1455,1429,0,0
238,-405,0,0,0,0,0,0,0,0,0,-1,1462,1429,0,0
245,-405,0,0,0,0,0,0,0,0,0,-1,1469,1429,0,0
252,-405,0,0,0,0,0,0,0,0,0,-1,1476,1429,0,0
259,-405,0,0,0,0,0,0,0,0,0,-1,1483,1429,0,0
266,-405,0,0,0,0,0,0,0,0,0,-1,1490,1429,0,0
273,-405,0,0,0,0,0,0,0,0,0,-1,1497,1429,0,0
280,-405,0,0,0,0,0,0,0,0,0,-1,1504,1429,0,0
287,-405,0,0,0,0,0,0,0,0,0,-1,1511,1429,0,0
294,-405,0,0,0,0,0,0,0,0,0,-1,1518,1429,0,0
301,-405,0,0,0,0,0,0,0,0,0,-1,1525,1429,0,0
308,-405,0,0,0,0,0,0,0,0,0,-1,1532,1429,0,0
315,-405,0,0,0,0,0,0,0,0,0,-1,1539,1429,0,0
322,-405,0,0,0,0,0,0,0,0,0,-1,1546,1429,0,0
329,-405,0,0,0,0,0,0,0,0,0,-1,1553,1429,0,0
336,-405,0,0,0,0,0,0,0,0,0,-1,1560,1429,0,0
343,-405,0,0,0,0,0,0,0,0,0,-1,1567,1429,0,0
350,-405,0,0,0,0,0,0,0,0,0,-1,1574,1429,0,0
357,-405,0,0,0,0,0,0,0,0,0,-1,1581,1429,0,0
364,-405,0,0,0,0,0,0,0,0,0,-1,1588,1429,0,0
371,-405,0,0,0,0,0,0,0,0,0,-1,1595,1429,0,0
378,-405,0,0,0,0,0,0,0,0,0,-1,1602,1429,0,0
385,-405,0,0,0,0,0,0,0,0,0,-1,1609,1429,0,0
392,-405,0,0,0,0,0,0,0,0,0,-1,1616,1429,0,0
399,-405,0,0,0,0,0,0,0,0,0,-1,1623,1429,0,0
406,-405,0,0,0,0,0,0,0,0,0,-1,1630,1429,0,0
413,-405,0,0,0,0,0,0,0,0,0,-1,1637,1429,0,0
420,-405,0,0,0,0,0,0,0,0,0,-1,1644,1429,0,0
427,-405,0,0,0,0,0,0,0,0,0,-1,1651,1429,0,0
434,-405,0,0,0,0,0,0,0,0,0,-1,1658,1429,0,0
441,-405,0,0,0,0,0,0,0,0,0,-1,1665,1429,0,0
448,-405,0,0,0,0,0,0,0,0,0,-1,1672,1429,0,0
455,-405,0,0,0,0,0,0,0,0,0,-1,1679,1429,0,0
462,-405,0,0,0,0,0,0,0,0,0,-1,1686,1429,0,0
469,-405,0,0,0,0,0,0,0,0,0,-1,1693,1429,0,0
476,-405,0,0,0,0,0,0,0,0,0,-1,1700,1429,0,0
483,-405,0,0,0,0,0,0,0,0,0,-1,1707,1429,0,0
490,-405,0,0,0,0,0,0,0,0,0,-1,1714,1429,0,0
497,-405,0,0,0,0,0,0,0,0,0,-1,1721,1429,0,0
504,-405,0,0,0,0,0,0,0,0,0,-1,1728,1429,0,0
511,-405,0,0,0,0,0,0,0,0,0,-1,1735,1429,0,0
518,-405,0,0,0,0,0,0,0,0,0,-1,1742,1429,0,0
525,-405,5.4187,-0.257568,0,0,0,0,0,0,0,-1,1749,1429,5.41864,0.257542
532,-405,4.96472,-0.0350342,0,0,0,0,0,0,0,-1,1756,1429,4.96476,0.0349804
539,-405,1.31677,-1.00562,0,0,0,0,0,0,0,-1,1763,1429,1.31681,1.00566
546,-405,1.92871,-0.523804,0,0,0,0,0,0,0,-1,1770,1429,1.92871,0.523822
553,-405,1.5564,-1.07935,0,0,0,0,0,0,0,-1,1777,1429,1.55643,1.07941
560,-405,-1.38977,-1.52209,0.0919344,0.0718653,0.0305954,0.114099,0.0497009,0.626937,0.0660569,0.0451264,1784,1429,-1.38975,1.52204
567,-405,-1.06787,-1.13269,0.0795307,0.0666395,0.0323266,0.106048,0.0401221,0.686993,0.0618281,0.0453925,1791,1429,-1.06782,1.13272
574,-405,-0.811279,-0.738892,0.0667429,0.0603337,0.0315333,0.095234,0.0318426,0.734759,0.05598,0.0410856,1798,1429,-0.811301,0.738906
581,-405,3.14453,2.43396,0.0538068,0.0521728,0.0286895,0.0816909,0.0242886,0.771164,0.0484387,0.0435071,1805,1429,3.14454,-2.43396
588,-405,2.64771,2.79724,0,0,0,0,0,0,0,-1,1812,1429,2.64767,-2.79722
595,-405,1.46448,1.86768,0,0,0,0,0,0,0,-1,1819,1429,1.46444,-1.86773
602,-405,0.453369,0.952515,0,0,0,0,0,0,0,-1,1826,1429,0.453336,-0.952542
609,-405,-0.072876,-0.0888672,0.0109659,0.0166911,0.0105924,0.0248009,0.00285615,0.917372,0.0156689,0.014941,1833,1429,-0.0729357,0.0888806
616,-405,-0.0760498,-0.0579834,0.00467966,0.0100013,0.00649104,0.0143557,0.00032524,0.979913,0.00946393,0.00902776,1840,1429,-0.0760265,0.0579279
623,-405,-0.0874023,-0.0518799,-0.000783194,0.00550283,0.00282999,0.00658916,-0.00186953,1.20428,0.00513077,0.00889179,1847,1429,-0.0874286,0.0518733
630,-405,-0.0714111,-0.0638428,-0.0044867,0.000569638,-0.00152514,0.000994044,-0.0049111,-1.29939,0.00365081,0.00963246,1854,1429,-0.0714499,0.063882
637,-405,-0.052124,-0.0797119,-0.00548888,-0.000848965,-0.00318543,0.000771787,-0.00710963,-1.10013,0.00501685,0.0101837,1861,1429,-0.0521589,0.0796509
644,-405,-0.104736,-0.0911865,-0.00359038,0.000375193,-0.00234484,0.00146319,-0.00467838,-1.13636,0.00370426,0.0264913,1868,1429,-0.104713,0.0911736
651,-405,-0.124756,-0.0899658,-0.00149933,0.00137359,-0.00119569,0.00180611,-0.00193185,-1.22371,0.00215852,0.0296783,1875,1429,-0.124813,0.0899879
658,-405,-0.0993652,-0.0407715,-6.70007e-05,0.00300637,-3.36785e-05,0.00300674,-6.73698e-05,-1.55984,0.00202732,0.0203419,1882,1429,-0.0994107,0.0407518
665,-405,-0.0603027,-0.043335,0.00109626,0.00423065,0.000464886,0.00429814,0.00102876,1.42661,0.00259149,0.0163678,1889,1429,-0.0603062,0.0433605
672,-405,-0.0614014,-0.0848389,0.002151,0.00578278,0.000673826,0.00590377,0.00203001,1.39314,0.00346351,0.0209334,1896,1429,-0.0613468,0.0848835
679,-405,-0.0888672,-0.135986,0.00359729,0.00742953,0.00103644,0.00769188,0.00333494,1.32288,0.00445396,0.019306,1903,1429,-0.0888963,0.135948
686,-405,-0.126343,-0.184204,0.00511824,0.00971794,0.00150719,0.0101678,0.00466837,1.28074,0.00587692,0.0279616,1910,1429,-0.12637,0.184233
693,-405,-0.0787354,-0.125,0.00705714,0.0123987,0.00195113,0.0130355,0.00642035,1.25533,0.00752633,0.0397121,1917,1429,-0.0787052,0.125054
700,-405,0.00158691,0.105835,0.0095756,0.0154768,0.00209043,0.0161423,0.00891013,1.2626,0.00933652,0.0416651,1924,1429,0.00159147,-0.105817
707,-405,0.00939941,0.33606,0.0127215,0.0188744,0.00170383,0.0193148,0.0122812,1.31791,0.0112877,0.0428163,1931,1429,0.00940788,-0.336002
714,-405,0.0866699,0.156006,0.0165839,0.0224922,0.000494373,0.0225333,0.0165428,1.48789,0.0134767,0.0428251,1938,1429,0.0866709,-0.155959
721,-405,0.137329,-0.0880127,0.0211701,0.0262039,-0.00193381,0.026861,0.020513,-1.24323,0.0162111,0.0419335,1945,1429,0.137351,0.0880343
728,-405,0,0,0,0,0,0,0,0,0,-1,1952,1429,0,0
735,-405,0,0,0,0,0,0,0,0,0,-1,1959,1429,0,0
742,-405,0,0,0,0,0,0,0,0,0,-1,1966,1429,0,0
749,-405,0,0,0,0,0,0,0,0,0,-1,1973,1429,0,0
756,-405,0,0,0,0,0,0,0,0,0,-1,1980,1429,0,0
763,-405,0,0,0,0,0,0,0,0,0,-1,1987,1429,0,0
770,-405,0,0,0,0,0,0,0,0,0,-1,1994,1429,0,0
777,-405,0,0,0,0,0,0,0,0,0,-1,2001,1429,0,0
784,-405,0,0,0,0,0,0,0,0,0,-1,2008,1429,0,0
791,-405,0,0,0,0,0,0,0,0,0,-1,2015,1429,0,0
798,-405,0,0,0,0,0,0,0,0,0,-1,2022,1429,0,0
805,-405,0,0,0,0,0,0,0,0,0,-1,2029,1429,0,0
812,-405,0,0,0,0,0,0,0,0,0,-1,2036,1429,0,0
-700,-412,0,0,0,0,0,0,0,0,0,-1,524,1436,0,0
-693,-412,0,0,0,0,0,0,0,0,0,-1,531,1436,0,0
-686,-412,0,0,0,0,0,0,0,0,0,-1,538,1436,0,0
-679,-412,0,0,0,0,0,0,0,0,0,-1,545,1436,0,0
-672,-412,0,0,0,0,0,0,0,0,0,-1,552,1436,0,0
-665,-412,0,0,0,0,0,0,0,0,0,-1,559,1436,0,0
-658,-412,0,0,0,0,0,0,0,0,0,-1,566,1436,0,0
-651,-412,0,0,0,0,0,0,0,0,0,-1,573,1436,0,0
-644,-412,0,0,0,0,0,0,0,0,0,-1,580,1436,0,0
-637,-412,0,0,0,0,0,0,0,0,0,-1,587,1436,0,0
-630,-412,0,0,0,0,0,0,0,0,0,-1,594,1436,0,0
-623,-412,0,0,0,0,0,0,0,0,0,-1,601,1436,0,0
-616,-412,0,0,0,0,0,0,0,0,0,-1,608,1436,0,0
-609,-412,0,0,0,0,0,0,0,0,0,-1,615,1436,0,0
-602,-412,-0.453247,0.60083,0,0,0,0,0,0,0,-1,622,1436,-0.453246,-0.600827
-595,-412,1.82922,-1.91309,0,0,0,0,0,0,0,-1,629,1436,1.82919,1.91303
-588,-412,1.65411,-2.3075,-0.0408861,0.04479,0.0300193,0.0542612,-0.0503573,1.26518,0.0604155,0.0487018,636,1436,1.65413,2.3075
-581,-412,1.85779,-3.03369,-0.0325426,0.0399471,0.0248822,0.047666,-0.0402615,1.26999,0.0508249,0.0466951,643,1436,1.85782,3.03375
-574,-412,-0.499329,1.32129,-0.0254287,0.0340594,0.0198959,0.0401002,-0.0314695,1.27602,0.0414208,0.0472517,650,1436,-0.499314,-1.32129
-567,-412,-0.0513306,0.00341797,0,0,0,0,0,0,0,-1,657,1436,-0.0513388,-0.00339972
-560,-412,-0.0636597,0.100464,-0.0144228,0.022373,0.0113455,0.02559,-0.0176398,1.2945,0.025099,0.0449454,664,1436,-0.0636384,-0.100512
-553,-412,-0.079834,-0.0396729,-0.0103459,0.0168651,0.00814935,0.019119,-0.0125999,1.30096,0.0184414,0.0385437,671,1436,-0.0798035,0.0396411
-546,-412,-0.0715942,-0.0736084,-0.00714573,0.0122576,0.0056508,0.0137833,-0.00867144,1.30709,0.0130758,0.0222698,678,1436,-0.0716211,0.0735778
-539,-412,-0.0535889,-0.0839844,-0.0048096,0.00851934,0.00371913,0.00948685,-0.0057771,1.31629,0.00889898,0.0112534,685,1436,-0.0535993,0.083983
-532,-412,-0.0462646,-0.0661621,-0.00237907,0.00593024,0.00167785,0.00625624,-0.00270508,1.37889,0.00530751,0.0122964,692,1436,-0.0462485,0.0661711
-525,-412,-0.0698242,-0.0457764,-0.000568449,0.00279687,9.17647e-05,0.00279937,-0.00057095,1.54356,0.00208281,0.0133707,699,1436,-0.0698044,0.0457466
-518,-412,-0.0640259,-0.0603027,0.000600569,0.00087172,-0.00115101,0.00189511,-0.000422819,-0.844022,0.0014254,0.0146835,706,1436,-0.0640516,0.0602878
-511,-412,-0.0551147,-0.0673828,0.00126433,0.000431432,-0.00114511,0.00206636,-0.000370604,-0.610996,0.00151628,0.0182929,713,1436,-0.0550931,0.0674347
-504,-412,-0.0668945,-0.0922852,0.00180148,-0.000217824,-0.000977,0.00219679,-0.000613137,-0.384482,0.00170604,0.0178491,720,1436,-0.0669181,0.092313
-497,-412,-0.0754395,-0.0748291,0.00201195,-0.000952478,-0.000105052,0.00201567,-0.000956196,-0.0353783,0.00175177,0.0128089,727,1436,-0.0754275,0.0748087
-490,-412,-0.0686646,-0.060791,0.00246267,0.000619613,-0.000263299,0.00249955,0.000582736,-0.139152,0.00151008,0.0099603,734,1436,-0.0686782,0.0607553
-483,-412,-0.0672607,-0.0721436,0.00283685,0.00271671,-0.00056768,0.00334763,0.00220593,-0.732687,0.00196504,0.00700519,741,1436,-0.067266,0.0721306
-476,-412,-0.0661621,-0.0758057,0.00259518,0.00619322,-0.000604877,0.00629219,0.00249622,-1.40862,0.00365854,0.0117488,748,1436,-0.066139,0.0757984
-469,-412,-0.0732422,-0.0682373,0.0020716,0.0124104,-0.00083493,0.0124774,0.0020046,-1.49073,0.0077371,0.0188731,755,1436,-0.0732302,0.0682088
-462,-412,-0.0542603,-0.109497,0.00169678,0.0196651,-0.00144891,0.0197812,0.00158069,-1.49085,0.0126934,0.0309124,762,1436,-0.0542415,0.109468
-455,-412,0.0253906,-0.240967,0.00167978,0.0299004,-0.00286732,0.0301888,0.0013914,-1.47056,0.0196784,0.0402123,769,1436,0.025389,0.240943
-448,-412,-0.0812378,-0.204956,0.00220227,0.0442268,-0.00564036,0.0449707,0.00145841,-1.43967,0.0295063,0.0420408,776,1436,-0.0812588,0.204983
-441,-412,-1.64172,3.11316,0,0,0,0,0,0,0,-1,783,1436,-1.64173,-3.1132
-434,-412,-2.06256,3.77979,0,0,0,0,0,0,0,-1,790,1436,-2.06258,-3.77973
-427,-412,-2.48865,4.46252,0,0,0,0,0,0,0,-1,797,1436,-2.48863,-4.46249
-420,-412,-2.49139,4.92468,0,0,0,0,0,0,0,-1,804,1436,-2.49137,-4.92462
-413,-412,2.34277,-0.317383,0,0,0,0,0,0,0,-1,811,1436,2.34275,0.31733
-406,-412,3.117,-0.329956,0,0,0,0,0,0,0,-1,818,1436,3.11698,0.329901
-399,-412,3.46075,0.708496,0,0,0,0,0,0,0,-1,825,1436,3.46077,-0.708486
-392,-412,0,0,0,0,0,0,0,0,0,-1,832,1436,0,0
-385,-412,0,0,0,0,0,0,0,0,0,-1,839,1436,0,0
-378,-412,0,0,0,0,0,0,0,0,0,-1,846,1436,0,0
-371,-412,0,0,0,0,0,0,0,0,0,-1,853,1436,0,0
-364,-412,0,0,0,0,0,0,0,0,0,-1,860,1436,0,0
-357,-412,0,0,0,0,0,0,0,0,0,-1,867,1436,0,0
-350,-412,0,0,0,0,0,0,0,0,0,-1,874,1436,0,0
-343,-412,0,0,0,0,0,0,0,0,0,-1,881,1436,0,0
-336,-412,0,0,0,0,0,0,0,0,0,-1,888,1436,0,0
-329,-412,0,0,0,0,0,0,0,0,0,-1,895,1436,0,0
-322,-412,0,0,0,0,0,0,0,0,0,-1,902,1436,0,0
-315,-412,0,0,0,0,0,0,0,0,0,-1,909,1436,0,0
-308,-412,0,0,0,0,0,0,0,0,0,-1,916,1436,0,0
-301,-412,0,0,0,0,0,0,0,0,0,-1,923,1436,0,0
-294,-412,0,0,0,0,0,0,0,0,0,-1,930,1436,0,0
-287,-412,0,0,0,0,0,0,0,0,0,-1,937,1436,0,0
-280,-412,0,0,0,0,0,0,0,0,0,-1,944,1436,0,0
-273,-412,0,0,0,0,0,0,0,0,0,-1,951,1436,0,0
-266,-412,0,0,0,0,0,0,0,0,0,-1,958,1436,0,0
-259,-412,0,0,0,0,0,0,0,0,0,-1,965,1436,0,0
-252,-412,0,0,0,0,0,0,0,0,0,-1,972,1436,0,0
-245,-412,0,0,0,0,0,0,0,0,0,-1,979,1436,0,0
-238,-412,0,0,0,0,0,0,0,0,0,-1,986,1436,0,0
-231,-412,0,0,0,0,0,0,0,0,0,-1,993,1436,0,0
-224,-412,0,0,0,0,0,0,0,0,0,-1,1000,1436,0,0
-217,-412,0,0,0,0,0,0,0,0,0,-1,1007,1436,0,0
-210,-412,0,0,0,0,0,0,0,0,0,-1,1014,1436,0,0
-203,-412,0,0,0,0,0,0,0,0,0,-1,1021,1436,0,0
-196,-412,0,0,0,0,0,0,0,0,0,-1,1028,1436,0,0
-189,-412,0,0,0,0,0,0,0,0,0,-1,1035,1436,0,0
-182,-412,0,0,0,0,0,0,0,0,0,-1,1042,1436,0,0
-175,-412,0,0,0,0,0,0,0,0,0,-1,1049,1436,0,0
-168,-412,0,0,0,0,0,0,0,0,0,-1,1056,1436,0,0
-161,-412,0,0,0,0,0,0,0,0,0,-1,1063,1436,0,0
-154,-412,0,0,0,0,0,0,0,0,0,-1,1070,1436,0,0
-147,-412,0,0,0,0,0,0,0,0,0,-1,1077,1436,0,0
-140,-412,0,0,0,0,0,0,0,0,0,-1,1084,1436,0,0
-133,-412,0,0,0,0,0,0,0,0,0,-1,1091,1436,0,0
-126,-412,0,0,0,0,0,0,0,0,0,-1,1098,1436,0,0
-119,-412,0,0,0,0,0,0,0,0,0,-1,1105,1436,0,0
-112,-412,0,0,0,0,0,0,0,0,0,-1,1112,1436,0,0
-105,-412,0,0,0,0,0,0,0,0,0,-1,1119,1436,0,0
-98,-412,0,0,0,0,0,0,0,0,0,-1,1126,1436,0,0
-91,-412,0,0,0,0,0,0,0,0,0,-1,1133,1436,0,0
-84,-412,0,0,0,0,0,0,0,0,0,-1,1140,1436,0,0
-77,-412,0,0,0,0,0,0,0,0,0,-1,1147,1436,0,0
-70,-412,0,0,0,0,0,0,0,0,0,-1,1154,1436,0,0
-63,-412,0,0,0,0,0,0,0,0,0,-1,1161,1436,0,0
-56,-412,0,0,0,0,0,0,0,0,0,-1,1168,1436,0,0
-49,-412,0,0,0,0,0,0,0,0,0,-1,1175,1436,0,0
-42,-412,0,0,0,0,0,0,0,0,0,-1,1182,1436,0,0
-35,-412,0,0,0,0,0,0,0,0,0,-1,1189,1436,0,0
-28,-412,0,0,0,0,0,0,0,0,0,-1,1196,1436,0,0
-21,-412,0,0,0,0,0,0,0,0,0,-1,1203,1436,0,0
-14,-412,0,0,0,0,0,0,0,0,0,-1,1210,1436,0,0
-7,-412,0,0,0,0,0,0,0,0,0,-1,1217,1436,0,0
0,-412,0,0,0,0,0,0,0,0,0,-1,1224,1436,0,0
7,-412,0,0,0,0,0,0,0,0,0,-1,1231,1436,0,0
14,-412,0,0,0,0,0,0,0,0,0,-1,1238,1436,0,0
21,-412,0,0,0,0,0,0,0,0,0,-1,1245,1436,0,0
28,-412,0,0,0,0,0,0,0,0,0,-1,1252,1436,0,0
35,-412,0,0,0,0,0,0,0,0,0,-1,1259,1436,0,0
42,-412,0,0,0,0,0,0,0,0,0,-1,1266,1436,0,0
49,-412,0,0,0,0,0,0,0,0,0,-1,1273,1436,0,0
56,-412,0,0,0,0,0,0,0,0,0,-1,1280,1436,0,0
63,-412,0,0,0,0,0,0,0,0,0,-1,1287,1436,0,0
70,-412,0,0,0,0,0,0,0,0,0,-1,1294,1436,0,0
77,-412,0,0,0,0,0,0,0,0,0,-1,1301,1436,0,0
84,-412,0,0,0,0,0,0,0,0,0,-1,1308,1436,0,0
91,-412,0,0,0,0,0,0,0,0,0,-1,1315,1436,0,0
98,-412,0,0,0,0,0,0,0,0,0,-1,1322,1436,0,0
105,-412,0,0,0,0,0,0,0,0,0,-1,1329,1436,0,0
112,-412,0,0,0,0,0,0,0,0,0,-1,1336,1436,0,0
119,-412,0,0,0,0,0,0,0,0,0,-1,1343,1436,0,0
126,-412,0,0,0,0,0,0,0,0,0,-1,1350,1436,0,0
133,-412,0,0,0,0,0,0,0,0,0,-1,1357,1436,0,0
140,-412,0,0,0,0,0,0,0,0,0,-1,1364,1436,0,0
147,-412,0,0,0,0,0,0,0,0,0,-1,1371,1436,0,0
154,-412,0,0,0,0,0,0,0,0,0,-1,1378,1436,0,0
161,-412,0,0,0,0,0,0,0,0,0,-1,1385,1436,0,0
168,-412,0,0,0,0,0,0,0,0,0,-1,1392,1436,0,0
175,-412,0,0,0,0,0,0,0,0,0,-1,1399,1436,0,0
182,-412,0,0,0,0,0,0,0,0,0,-1,1406,1436,0,0
189,-412,0,0,0,0,0,0,0,0,0,-1,1413,1436,0,0
196,-412,0,0,0,0,0,0,0,0,0,-1,1420,1436,0,0
203,-412,0,0,0,0,0,0,0,0,0,-1,1427,1436,0,0
210,-412,0,0,0,0,0,0,0,0,0,-1,1434,1436,0,0
217,-412,0,0,0,0,0,0,0,0,0,-1,1441,1436,0,0
224,-412,0,0,0,0,0,0,0,0,0,-1,1448,1436,0,0
231,-412,0,0,0,0,0,0,0,0,0,-1,1455,1436,0,0
238,-412,0,0,0,0,0,0,0,0,0,-1,1462,1436,0,0
245,-412,0,0,0,0,0,0,0,0,0,-1,1469,1436,0,0
252,-412,0,0,0,0,0,0,0,0,0,-1,1476,1436,0,0
259,-412,0,0,0,0,0,0,0,0,0,-1,1483,1436,0,0
266,-412,0,0,0,0,0,0,0,0,0,-1,1490,1436,0,0
273,-412,0,0,0,0,0,0,0,0,0,-1,1497,1436,0,0
280,-412,0,0,0,0,0,0,0,0,0,-1,1504,1436,0,0
287,-412,0,0,0,0,0,0,0,0,0,-1,1511,1436,0,0
294,-412,0,0,0,0,0,0,0,0,0,-1,1518,1436,0,0
301,-412,0,0,0,0,0,0,0,0,0,-1,1525,1436,0,0
308,-412,0,0,0,0,0,0,0,0,0,-1,1532,1436,0,0
315,-412,0,0,0,0,0,0,0,0,0,-1,1539,1436,0,0
322,-412,0,0,0,0,0,0,0,0,0,-1,1546,1436,0,0
329,-412,0,0,0,0,0,0,0,0,0,-1,1553,1436,0,0
336,-412,0,0,0,0,0,0,0,0,0,-1,1560,1436,0,0
343,-412,0,0,0,0,0,0,0,0,0,-1,1567,1436,0,0
350,-412,0,0,0,0,0,0,0,0,0,-1,1574,1436,0,0
357,-412,0,0,0,0,0,0,0,0,0,-1,1581,1436,0,0
364,-412,0,0,0,0,0,0,0,0,0,-1,1588,1436,0,0
371,-412,0,0,0,0,0,0,0,0,0,-1,1595,1436,0,0
378,-412,0,0,0,0,0,0,0,0,0,-1,1602,1436,0,0
385,-412,0,0,0,0,0,0,0,0,0,-1,1609,1436,0,0
392,-412,0,0,0,0,0,0,0,0,0,-1,1616,1436,0,0
399,-412,0,0,0,0,0,0,0,0,0,-1,1623,1436,0,0
406,-412,0,0,0,0,0,0,0,0,0,-1,1630,1436,0,0
413,-412,0,0,0,0,0,0,0,0,0,-1,1637,1436,0,0
420,-412,0,0,0,0,0,0,0,0,0,-1,1644,1436,0,0
427,-412,0,0,0,0,0,0,0,0,0,-1,1651,1436,0,0
434,-412,0,0,0,0,0,0,0,0,0,-1,1658,1436,0,0
441,-412,0,0,0,0,0,0,0,0,0,-1,1665,1436,0,0
448,-412,0,0,0,0,0,0,0,0,0,-1,1672,1436,0,0
455,-412,0,0,0,0,0,0,0,0,0,-1,1679,1436,0,0
462,-412,0,0,0,0,0,0,0,0,0,-1,1686,1436,0,0
469,-412,0,0,0,0,0,0,0,0,0,-1,1693,1436,0,0
476,-412,0,0,0,0,0,0,0,0,0,-1,1700,1436,0,0
483,-412,0,0,0,0,0,0,0,0,0,-1,1707,1436,0,0
490,-412,0,0,0,0,0,0,0,0,0,-1,1714,1436,0,0
497,-412,0,0,0,0,0,0,0,0,0,-1,1721,1436,0,0
504,-412,0,0,0,0,0,0,0,0,0,-1,1728,1436,0,0
511,-412,0,0,0,0,0,0,0,0,0,-1,1735,1436,0,0
518,-412,2.01477,-2.21021,0,0,0,0,0,0,0,-1,1742,1436,2.01471,2.21025
525,-412,4.245,-0.347778,0,0,0,0,0,0,0,-1,1749,1436,4.24502,0.347746
532,-412,0.494141,-1.29688,0,0,0,0,0,0,0,-1,1756,1436,0.494146,1.29693
539,-412,0.892212,-1.03894,0,0,0,0,0,0,0,-1,1763,1436,0.892169,1.03899
546,-412,1.27246,-0.743896,0.109209,0.0570062,0.0228104,0.117772,0.0484436,0.359107,0.068351,0.0460821,1770,1436,1.27246,0.743851
553,-412,1.53479,-0.724854,0.100415,0.061053,0.028699,0.115533,0.0459349,0.484842,0.0671677,0.0489386,1777,1436,1.53483,0.724902
560,-412,1.97205,-0.736572,0,0,0,0,0,0,0,-1,1784,1436,1.97201,0.736536
567,-412,-0.843384,-1.15186,0,0,0,0,0,0,0,-1,1791,1436,-0.843394,1.15188
574,-412,-0.723511,-0.884766,0.0644273,0.0524902,0.0303332,0.0893736,0.0275439,0.688256,0.0528504,0.0405559,1798,1436,-0.723467,0.884724
581,-412,-0.514893,-0.618042,0.0521164,0.0459361,0.0271534,0.076355,0.0216976,0.72874,0.045432,0.0362867,1805,1436,-0.514938,0.618
588,-412,-0.223999,-0.376099,0.0398812,0.0385622,0.0226556,0.061887,0.0165565,0.770847,0.0369954,0.0379891,1812,1436,-0.22402,0.376087
595,-412,0.89978,0.859375,0,0,0,0,0,0,0,-1,1819,1436,0.899737,-0.859432
602,-412,-0.050293,-0.0858154,0.0194604,0.0226083,0.0143914,0.0355116,0.00655708,0.839865,0.0218196,0.0216729,1826,1436,-0.0502763,0.0858661
609,-412,-0.0687256,-0.0638428,0.012071,0.0152126,0.00980069,0.0235676,0.00371605,0.86486,0.0146312,0.00816613,1833,1436,-0.0687679,0.0638837
616,-412,-0.0690918,-0.0595703,0.00619363,0.00914638,0.00607154,0.0139185,0.00142155,0.904665,0.0088433,0.00730222,1840,1436,-0.0691443,0.0596069
623,-412,-0.076416,-0.0574951,0.00109346,0.00512927,0.00271755,0.00649619,-0.000273456,1.10475,0.00442476,0.0085314,1847,1436,-0.0763659,0.0574997
630,-412,-0.0782471,-0.0662842,-0.00259023,0.000792155,-0.00131985,0.00124622,-0.00304429,-1.23945,0.00254861,0.0110083,1854,1436,-0.0782497,0.0662474
637,-412,-0.0628662,-0.0961914,-0.00387957,-0.000516146,-0.00302784,0.00126567,-0.00566138,-1.03889,0.00425929,0.0127927,1861,1436,-0.0628733,0.0961434
644,-412,-0.0737305,-0.0838623,-0.00238139,0.00079137,-0.00239769,0.00207997,-0.00366999,-1.07765,0.00336179,0.013903,1868,1436,-0.0736704,0.0838422
651,-412,-0.0939941,-0.0821533,-0.000636901,0.00189857,-0.00146529,0.00256842,-0.00130675,-1.14202,0.00227652,0.0224414,1875,1436,-0.0940131,0.0821537
658,-412,-0.0705566,-0.065918,0.000642126,0.00372856,-0.000479217,0.00380126,0.000569433,-1.42025,0.0023673,0.0149365,1882,1436,-0.0706151,0.0659525
665,-412,-0.0557861,-0.0445557,0.00174033,0.00529071,-6.23617e-05,0.0052918,0.00173923,-1.55324,0.00311444,0.0202036,1889,1436,-0.055775,0.044605
672,-412,-0.0773926,-0.0936279,0.00273521,0.00729086,9.57206e-05,0.00729288,0.0027332,1.5498,0.00425433,0.0245478,1896,1436,-0.0774029,0.0936213
679,-412,-0.121094,-0.172485,0.00419761,0.00948796,0.000443898,0.00952495,0.00416062,1.48766,0.00551385,0.027833,1903,1436,-0.121126,0.172516
686,-412,-0.154053,-0.298462,0.00583843,0.0124039,0.00098615,0.0125488,0.00569351,1.42488,0.00725542,0.0406848,1910,1436,-0.154072,0.29841
693,-412,-0.122559,-0.236084,0.00801232,0.0158473,0.0014936,0.0161224,0.00773725,1.38867,0.00931077,0.0444963,1917,1436,-0.122498,0.236029
700,-412,-0.173218,-0.130981,0.0108645,0.0198408,0.00171292,0.0201566,0.0105488,1.3885,0.0116416,0.0425883,1924,1436,-0.173232,0.130958
707,-412,-0.000976563,0.160889,0.0144736,0.0243066,0.00137433,0.024495,0.0142851,1.43451,0.0142073,0.045249,1931,1436,-0.000932498,-0.160919
714,-412,0.217896,0.0476074,0.0189658,0.0291606,0.000114203,0.0291619,0.0189645,1.5596,0.0170884,0.044331,1938,1436,0.217923,-0.0476629
721,-412,0,0,0,0,0,0,0,0,0,-1,1945,1436,0,0
728,-412,0,0,0,0,0,0,0,0,0,-1,1952,1436,0,0
735,-412,0,0,0,0,0,0,0,0,0,-1,1959,1436,0,0
742,-412,0,0,0,0,0,0,0,0,0,-1,1966,1436,0,0
749,-412,0,0,0,0,0,0,0,0,0,-1,1973,1436,0,0
756,-412,0,0,0,0,0,0,0,0,0,-1,1980,1436,0,0
763,-412,0,0,0,0,0,0,0,0,0,-1,1987,1436,0,0
770,-412,0,0,0,0,0,0,0,0,0,-1,1994,1436,0,0
777,-412,0,0,0,0,0,0,0,0,0,-1,2001,1436,0,0
784,-412,0,0,0,0,0,0,0,0,0,-1,2008,1436,0,0
791,-412,0,0,0,0,0,0,0,0,0,-1,2015,1436,0,0
798,-412,0,0,0,0,0,0,0,0,0,-1,2022,1436,0,0
805,-412,0,0,0,0,0,0,0,0,0,-1,2029,1436,0,0
812,-412,0,0,0,0,0,0,0,0,0,-1,2036,1436,0,0
-700,-419,0,0,0,0,0,0,0,0,0,-1,524,1443,0,0
-693,-419,0,0,0,0,0,0,0,0,0,-1,531,1443,0,0
-686,-419,0,0,0,0,0,0,0,0,0,-1,538,1443,0,0
-679,-419,0,0,0,0,0,0,0,0,0,-1,545,1443,0,0
-672,-419,0,0,0,0,0,0,0,0,0,-1,552,1443,0,0
-665,-419,0,0,0,0,0,0,0,0,0,-1,559,1443,0,0
-658,-419,0,0,0,0,0,0,0,0,0,-1,566,1443,0,0
-651,-419,0,0,0,0,0,0,0,0,0,-1,573,1443,0,0
-644,-419,0,0,0,0,0,0,0,0,0,-1,580,1443,0,0
-637,-419,0,0,0,0,0,0,0,0,0,-1,587,1443,0,0
-630,-419,0,0,0,0,0,0,0,0,0,-1,594,1443,0,0
-623,-419,0,0,0,0,0,0,0,0,0,-1,601,1443,0,0
-616,-419,0,0,0,0,0,0,0,0,0,-1,608,1443,0,0
-609,-419,0,0,0,0,0,0,0,0,0,-1,615,1443,0,0
-602,-419,0,0,0,0,0,0,0,0,0,-1,622,1443,0,0
-595,-419,0.812805,-1.73157,0,0,0,0,0,0,0,-1,629,1443,0.812823,1.73159
-588,-419,1.71411,-2.52881,-0.0502479,0.0466119,0.034559,0.0576781,-0.061314,1.2609,0.0687108,0.0460595,636,1443,1.71409,2.52881
-581,-419,0.561279,-0.87146,-0.0401445,0.0418554,0.0283062,0.0506774,-0.0489666,1.26867,0.0575323,0.0475644,643,1443,0.561282,0.87151
-574,-419,0.112488,-0.975586,-0.0314002,0.0358243,0.0223021,0.0425502,-0.0381261,1.27789,0.0466018,0.0488087,650,1443,0.112485,0.975593
-567,-419,0.232239,-0.31665,-0.0240369,0.0297092,0.0169555,0.0346111,-0.0289388,1.28936,0.0367393,0.0437807,657,1443,0.232224,0.31668
-560,-419,0.0993042,-0.0219727,-0.0178816,0.0235039,0.0123844,0.0269268,-0.0213045,1.30114,0.0279093,0.0382649,664,1443,0.099287,0.0219637
-553,-419,-0.0565186,-0.0582275,-0.0128815,0.0177687,0.00872788,0.0200797,-0.0151926,1.31194,0.0204295,0.0380993,671,1443,-0.056513,0.0582728
-546,-419,-0.0543823,-0.086792,-0.00897296,0.0129241,0.00590503,0.0144151,-0.0104639,1.32348,0.0144241,0.0333013,678,1443,-0.0544096,0.0867552
-539,-419,-0.0355225,-0.0968018,-0.00606995,0.00898395,0.00379211,0.00988523,-0.00697123,1.33745,0.00978043,0.02113,685,1443,-0.0355228,0.0967968
-532,-419,-0.041626,-0.0887451,-0.00322936,0.00632035,0.00162819,0.00659032,-0.00349933,1.40648,0.00591567,0.0111254,692,1443,-0.0416218,0.0887879
-525,-419,-0.0650024,-0.0646973,-0.00120766,0.00298218,9.28289e-05,0.00298424,-0.00120972,1.54866,0.00249258,0.0107862,699,1443,-0.0650143,0.064666
-518,-419,-0.0521851,-0.0559082,1.40261e-05,0.000854513,-0.00103974,0.00155573,-0.00068719,-0.97745,0.00132692,0.0142488,706,1443,-0.0521566,0.0558709
-511,-419,-0.0668335,-0.0557861,0.000672734,0.000133918,-0.00094051,0.00138166,-0.00057501,-0.645909,0.00116124,0.0177575,713,1443,-0.0668639,0.0557896
-504,-419,-0.0895386,-0.0682373,0.00115629,-0.000696506,-0.000639332,0.00135548,-0.000895701,-0.302035,0.00130873,0.018478,720,1443,-0.0895198,0.0682913
-497,-419,-0.0700073,-0.0755615,0.00120447,-0.00138372,0.000321705,0.00124386,-0.00142311,0.121828,0.00154093,0.0128685,727,1443,-0.070028,0.0755477
-490,-419,-0.0620728,-0.0687256,0.00137058,1.09459e-05,0.000447301,0.00150454,-0.000123012,0.290979,0.00104644,0.00978502,734,1443,-0.0620631,0.068668
-483,-419,-0.0598145,-0.0740967,0.00139353,0.00185963,0.000529919,0.00220548,0.00104768,0.992562,0.00127387,0.00830795,741,1443,-0.0598325,0.074149
-476,-419,-0.0698853,-0.0819092,0.000792501,0.00519802,0.000829367,0.00534898,0.000641541,1.39075,0.00337254,0.00900795,748,1443,-0.0698818,0.0819327
-469,-419,-0.0695801,-0.0865479,-4.46585e-05,0.0111597,0.000936287,0.0112374,-0.00012236,1.488,0.00753273,0.0129514,755,1443,-0.0695638,0.0865481
-462,-419,-0.0552368,-0.0501709,-0.00069166,0.0178334,0.000768517,0.0178652,-0.000723487,1.52941,0.0121585,0.0212102,762,1443,-0.0552204,0.050229
-455,-419,-0.102661,0.0218506,-0.000928737,0.0271015,-0.000103238,0.0271019,-0.000929117,-1.56711,0.0183855,0.0362972,769,1443,-0.102651,-0.0218365
-448,-419,-0.983032,1.34619,-0.000666194,0.0401199,-0.00214334,0.0402322,-0.000778519,-1.51844,0.0270847,0.0434178,776,1443,-0.983056,-1.34621
-441,-419,-1.1875,2.37781,0.000115202,0.0551474,-0.00594332,0.055782,-0.000519343,-1.46443,0.0373623,0.0443965,783,1443,-1.18753,-2.37782
-434,-419,-1.59271,3.03442,0.00105523,0.071933,-0.010472,0.0734478,-0.000459593,-1.42714,0.0491191,0.0472291,790,1443,-1.59273,-3.03445
-427,-419,-2.02118,3.72534,0.00321027,0.0904397,-0.0166488,0.0935094,0.000140652,-1.38847,0.0622927,0.0485998,797,1443,-2.02121,-3.72534
-420,-419,-2.10895,4.62793,0.00669238,0.108503,-0.0243604,0.114032,0.00116384,-1.34763,0.0756361,0.0469753,804,1443,-2.10895,-4.62793
-413,-419,-2.30017,5.18298,0,0,0,0,0,0,0,-1,811,1443,-2.30014,-5.18299
-406,-419,1.63568,0.176392,0,0,0,0,0,0,0,-1,818,1443,1.6357,-0.176401
-399,-419,1.80939,-0.0174561,0,0,0,0,0,0,0,-1,825,1443,1.80941,0.0174126
-392,-419,0,0,0,0,0,0,0,0,0,-1,832,1443,0,0
-385,-419,0,0,0,0,0,0,0,0,0,-1,839,1443,0,0
-378,-419,0,0,0,0,0,0,0,0,0,-1,846,1443,0,0
-371,-419,0,0,0,0,0,0,0,0,0,-1,853,1443,0,0
-364,-419,0,0,0,0,0,0,0,0,0,-1,860,1443,0,0
-357,-419,0,0,0,0,0,0,0,0,0,-1,867,1443,0,0
-350,-419,0,0,0,0,0,0,0,0,0,-1,874,1443,0,0
-343,-419,0,0,0,0,0,0,0,0,0,-1,881,1443,0,0
-336,-419,0,0,0,0,0,0,0,0,0,-1,888,1443,0,0
-329,-419,0,0,0,0,0,0,0,0,0,-1,895,1443,0,0
-322,-419,0,0,0,0,0,0,0,0,0,-1,902,1443,0,0
-315,-419,0,0,0,0,0,0,0,0,0,-1,909,1443,0,0
-308,-419,0,0,0,0,0,0,0,0,0,-1,916,1443,0,0
-301,-419,0,0,0,0,0,0,0,0,0,-1,923,1443,0,0
-294,-419,0,0,0,0,0,0,0,0,0,-1,930,1443,0,0
-287,-419,0,0,0,0,0,0,0,0,0,-1,937,1443,0,0
-280,-419,0,0,0,0,0,0,0,0,0,-1,944,1443,0,0
-273,-419,0,0,0,0,0,0,0,0,0,-1,951,1443,0,0
-266,-419,0,0,0,0,0,0,0,0,0,-1,958,1443,0,0
-259,-419,0,0,0,0,0,0,0,0,0,-1,965,1443,0,0
-252,-419,0,0,0,0,0,0,0,0,0,-1,972,1443,0,0
-245,-419,0,0,0,0,0,0,0,0,0,-1,979,1443,0,0
-238,-419,0,0,0,0,0,0,0,0,0,-1,986,1443,0,0
-231,-419,0,0,0,0,0,0,0,0,0,-1,993,1443,0,0
-224,-419,0,0,0,0,0,0,0,0,0,-1,1000,1443,0,0
-217,-419,0,0,0,0,0,0,0,0,0,-1,1007,1443,0,0
-210,-419,0,0,0,0,0,0,0,0,0,-1,1014,1443,0,0
-203,-419,0,0,0,0,0,0,0,0,0,-1,1021,1443,0,0
-196,-419,0,0,0,0,0,0,0,0,0,-1,1028,1443,0,0
-189,-419,0,0,0,0,0,0,0,0,0,-1,1035,1443,0,0
-182,-419,0,0,0,0,0,0,0,0,0,-1,1042,1443,0,0
-175,-419,0,0,0,0,0,0,0,0,0,-1,1049,1443,0,0
-168,-419,0,0,0,0,0,0,0,0,0,-1,1056,1443,0,0
-161,-419,0,0,0,0,0,0,0,0,0,-1,1063,1443,0,0
-154,-419,0,0,0,0,0,0,0,0,0,-1,1070,1443,0,0
-147,-419,0,0,0,0,0,0,0,0,0,-1,1077,1443,0,0
-140,-419,0,0,0,0,0,0,0,0,0,-1,1084,1443,0,0
-133,-419,0,0,0,0,0,0,0,0,0,-1,1091,1443,0,0
-126,-419,0,0,0,0,0,0,0,0,0,-1,1098,1443,0,0
-119,-419,0,0,0,0,0,0,0,0,0,-1,1105,1443,0,0
-112,-419,0,0,0,0,0,0,0,0,0,-1,1112,1443,0,0
-105,-419,0,0,0,0,0,0,0,0,0,-1,1119,1443,0,0
-98,-419,0,0,0,0,0,0,0,0,0,-1,1126,1443,0,0
-91,-419,0,0,0,0,0,0,0,0,0,-1,1133,1443,0,0
-84,-419,0,0,0,0,0,0,0,0,0,-1,1140,1443,0,0
-77,-419,0,0,0,0,0,0,0,0,0,-1,1147,1443,0,0
-70,-419,0,0,0,0,0,0,0,0,0,-1,1154,1443,0,0
-63,-419,0,0,0,0,0,0,0,0,0,-1,1161,1443,0,0
-56,-419,0,0,0,0,0,0,0,0,0,-1,1168,1443,0,0
-49,-419,0,0,0,0,0,0,0,0,0,-1,1175,1443,0,0
-42,-419,0,0,0,0,0,0,0,0,0,-1,1182,1443,0,0
-35,-419,0,0,0,0,0,0,0,0,0,-1,1189,1443,0,0
-28,-419,0,0,0,0,0,0,0,0,0,-1,1196,1443,0,0
-21,-419,0,0,0,0,0,0,0,0,0,-1,1203,1443,0,0
-14,-419,0,0,0,0,0,0,0,0,0,-1,1210,1443,0,0
-7,-419,0,0,0,0,0,0,0,0,0,-1,1217,1443,0,0
0,-419,0,0,0,0,0,0,0,0,0,-1,1224,1443,0,0
7,-419,0,0,0,0,0,0,0,0,0,-1,1231,1443,0,0
14,-419,0,0,0,0,0,0,0,0,0,-1,1238,1443,0,0
21,-419,0,0,0,0,0,0,0,0,0,-1,1245,1443,0,0
28,-419,0,0,0,0,0,0,0,0,0,-1,1252,1443,0,0
35,-419,0,0,0,0,0,0,0,0,0,-1,1259,1443,0,0
42,-419,0,0,0,0,0,0,0,0,0,-1,1266,1443,0,0
49,-419,0,0,0,0,0,0,0,0,0,-1,1273,1443,0,0
56,-419,0,0,0,0,0,0,0,0,0,-1,1280,1443,0,0
63,-419,0,0,0,0,0,0,0,0,0,-1,1287,1443,0,0
70,-419,0,0,0,0,0,0,0,0,0,-1,1294,1443,0,0
77,-419,0,0,0,0,0,0,0,0,0,-1,1301,1443,0,0
84,-419,0,0,0,0,0,0,0,0,0,-1,1308,1443,0,0
91,-419,0,0,0,0,0,0,0,0,0,-1,1315,1443,0,0
98,-419,0,0,0,0,0,0,0,0,0,-1,1322,1443,0,0
105,-419,0,0,0,0,0,0,0,0,0,-1,1329,1443,0,0
112,-419,0,0,0,0,0,0,0,0,0,-1,1336,1443,0,0
119,-419,0,0,0,0,0,0,0,0,0,-1,1343,1443,0,0
126,-419,0,0,0,0,0,0,0,0,0,-1,1350,1443,0,0
133,-419,0,0,0,0,0,0,0,0,0,-1,1357,1443,0,0
140,-419,0,0,0,0,0,0,0,0,0,-1,1364,1443,0,0
147,-419,0,0,0,0,0,0,0,0,0,-1,1371,1443,0,0
154,-419,0,0,0,0,0,0,0,0,0,-1,1378,1443,0,0
161,-419,0,0,0,0,0,0,0,0,0,-1,1385,1443,0,0
168,-419,0,0,0,0,0,0,0,0,0,-1,1392,1443,0,0
175,-419,0,0,0,0,0,0,0,0,0,-1,1399,1443,0,0
182,-419,0,0,0,0,0,0,0,0,0,-1,1406,1443,0,0
189,-419,0,0,0,0,0,0,0,0,0,-1,1413,1443,0,0
196,-419,0,0,0,0,0,0,0,0,0,-1,1420,1443,0,0
203,-419,0,0,0,0,0,0,0,0,0,-1,1427,1443,0,0
210,-419,0,0,0,0,0,0,0,0,0,-1,1434,1443,0,0
217,-419,0,0,0,0,0,0,0,0,0,-1,1441,1443,0,0
224,-419,0,0,0,0,0,0,0,0,0,-1,1448,1443,0,0
231,-419,0,0,0,0,0,0,0,0,0,-1,1455,1443,0,0
238,-419,0,0,0,0,0,0,0,0,0,-1,1462,1443,0,0
245,-419,0,0,0,0,0,0,0,0,0,-1,1469,1443,0,0
252,-419,0,0,0,0,0,0,0,0,0,-1,1476,1443,0,0
259,-419,0,0,0,0,0,0,0,0,0,-1,1483,1443,0,0
266,-419,0,0,0,0,0,0,0,0,0,-1,1490,1443,0,0
273,-419,0,0,0,0,0,0,0,0,0,-1,1497,1443,0,0
280,-419,0,0,0,0,0,0,0,0,0,-1,1504,1443,0,0
287,-419,0,0,0,0,0,0,0,0,0,-1,1511,1443,0,0
294,-419,0,0,0,0,0,0,0,0,0,-1,1518,1443,0,0
301,-419,0,0,0,0,0,0,0,0,0,-1,1525,1443,0,0
308,-419,0,0,0,0,0,0,0,0,0,-1,1532,1443,0,0
315,-419,0,0,0,0,0,0,0,0,0,-1,1539,1443,0,0
322,-419,0,0,0,0,0,0,0,0,0,-1,1546,1443,0,0
329,-419,0,0,0,0,0,0,0,0,0,-1,1553,1443,0,0
336,-419,0,0,0,0,0,0,0,0,0,-1,1560,1443,0,0
343,-419,0,0,0,0,0,0,0,0,0,-1,1567,1443,0,0
350,-419,0,0,0,0,0,0,0,0,0,-1,1574,1443,0,0
357,-419,0,0,0,0,0,0,0,0,0,-1,1581,1443,0,0
364,-419,0,0,0,0,0,0,0,0,0,-1,1588,1443,0,0
371,-419,0,0,0,0,0,0,0,0,0,-1,1595,1443,0,0
378,-419,0,0,0,0,0,0,0,0,0,-1,1602,1443,0,0
385,-419,0,0,0,0,0,0,0,0,0,-1,1609,1443,0,0
392,-419,0,0,0,0,0,0,0,0,0,-1,1616,1443,0,0
399,-419,0,0,0,0,0,0,0,0,0,-1,1623,1443,0,0
406,-419,0,0,0,0,0,0,0,0,0,-1,1630,1443,0,0
413,-419,0,0,0,0,0,0,0,0,0,-1,1637,1443,0,0
420,-419,0,0,0,0,0,0,0,0,0,-1,1644,1443,0,0
427,-419,0,0,0,0,0,0,0,0,0,-1,1651,1443,0,0
434,-419,0,0,0,0,0,0,0,0,0,-1,1658,1443,0,0
441,-419,0,0,0,0,0,0,0,0,0,-1,1665,1443,0,0
448,-419,0,0,0,0,0,0,0,0,0,-1,1672,1443,0,0
455,-419,0,0,0,0,0,0,0,0,0,-1,1679,1443,0,0
462,-419,0,0,0,0,0,0,0,0,0,-1,1686,1443,0,0
469,-419,0,0,0,0,0,0,0,0,0,-1,1693,1443,0,0
476,-419,0,0,0,0,0,0,0,0,0,-1,1700,1443,0,0
483,-419,0,0,0,0,0,0,0,0,0,-1,1707,1443,0,0
490,-419,0,0,0,0,0,0,0,0,0,-1,1714,1443,0,0
497,-419,0,0,0,0,0,0,0,0,0,-1,1721,1443,0,0
504,-419,0,0,0,0,0,0,0,0,0,-1,1728,1443,0,0
511,-419,0.733887,-1.92224,0,0,0,0,0,0,0,-1,1735,1443,0.733925,1.92222
518,-419,2.94104,-0.610718,0,0,0,0,0,0,0,-1,1742,1443,2.94108,0.610714
525,-419,2.99341,-0.185669,0,0,0,0,0,0,0,-1,1749,1443,2.99339,0.185713
532,-419,-0.0585938,-2.11072,0,0,0,0,0,0,0,-1,1756,1443,-0.0585789,2.1107
539,-419,0.550659,-0.374634,0,0,0,0,0,0,0,-1,1763,1443,0.55062,0.374591
546,-419,1.05444,-0.354248,0.0915262,0.0375298,0.0263925,0.102283,0.0267726,0.387027,0.0612473,0.0451707,1770,1443,1.05444,0.354223
553,-419,1.54456,-0.314697,0.0840484,0.0428123,0.0291558,0.0991398,0.0277209,0.477637,0.0590627,0.0449152,1777,1443,1.54453,0.314669
560,-419,1.9845,-0.298828,0,0,0,0,0,0,0,-1,1784,1443,1.98455,0.298836
567,-419,-0.768433,-0.814209,0,0,0,0,0,0,0,-1,1791,1443,-0.768482,0.814213
574,-419,-0.655151,-0.533325,0.0551159,0.0416892,0.0274837,0.0766943,0.0201108,0.66561,0.0459182,0.0433555,1798,1443,-0.655157,0.533313
581,-419,-0.398071,-0.394531,0.0450775,0.0374272,0.0243253,0.0658765,0.0166282,0.707412,0.0395576,0.0380949,1805,1443,-0.398017,0.394481
588,-419,-0.147461,-0.228638,0.0349238,0.0320554,0.0201559,0.0536965,0.0132828,0.74988,0.0322938,0.0357203,1812,1443,-0.147485,0.228656
595,-419,-0.0706787,-0.0738525,0.0256095,0.0247907,0.015275,0.0404806,0.00991963,0.772,0.0243632,0.0295421,1819,1443,-0.0706654,0.0738562
602,-419,-0.0690918,-0.0726318,0.0177754,0.0191708,0.0125872,0.0310796,0.00586655,0.813084,0.0190675,0.0128335,1826,1443,-0.0691396,0.072626
609,-419,-0.0628662,-0.064209,0.0116009,0.0131248,0.00860268,0.0209992,0.00372651,0.829569,0.0129375,0.00946012,1833,1443,-0.0628526,0.0641631
616,-419,-0.072998,-0.0404053,0.00660885,0.00789115,0.00534693,0.0126352,0.00186477,0.845068,0.00787583,0.0104612,1840,1443,-0.0729664,0.0404633
623,-419,-0.0731201,-0.0511475,0.0022205,0.00446687,0.00238731,0.00598201,0.000705356,1.00528,0.00377492,0.00838542,1847,1443,-0.0731401,0.0511767
630,-419,-0.0788574,-0.0574951,-0.00113955,0.000968121,-0.00114167,0.00146799,-0.00163941,-1.1581,0.00179497,0.0109706,1854,1443,-0.0788961,0.0575225
637,-419,-0.0808105,-0.0614014,-0.00250732,-0.000121836,-0.00281522,0.00174289,-0.00437205,-0.985773,0.00363761,0.0119481,1861,1443,-0.0807669,0.0614039
644,-419,-0.0794678,-0.0560303,-0.0013408,0.00128704,-0.00238075,0.00269237,-0.00274614,-1.03755,0.00313998,0.0105155,1868,1443,-0.0795003,0.0560508
651,-419,-0.0708008,-0.0610352,9.71127e-05,0.00254974,-0.00165842,0.00338601,-0.000739148,-1.10375,0.00253983,0.00995727,1875,1443,-0.0707594,0.0609943
658,-419,-0.0754395,-0.0615234,0.001237,0.00458437,-0.000863582,0.00479403,0.00102734,-1.33262,0.00291457,0.0113338,1882,1443,-0.0754553,0.0615345
665,-419,-0.0809326,-0.0556641,0.00227526,0.00654066,-0.000517396,0.00660252,0.00221339,-1.45179,0.00388034,0.0182078,1889,1443,-0.0809791,0.0556965
672,-419,-0.092041,-0.0883789,0.00321544,0.0090491,-0.00037423,0.00907301,0.00319153,-1.50699,0.00531449,0.0202877,1896,1443,-0.0920737,0.0883284
679,-419,-0.101074,-0.103394,0.00468442,0.0118337,-1.08518e-05,0.0118337,0.0046844,-1.56928,0.0068814,0.0298933,1903,1443,-0.101083,0.103434
686,-419,-0.145142,-0.300171,0.00643776,0.0154452,0.000604224,0.0154855,0.00639741,1.50411,0.00898546,0.045296,1910,1443,-0.145122,0.300172
693,-419,-0.151001,-0.421509,0,0,0,0,0,0,0,-1,1917,1443,-0.150999,0.421529
700,-419,-0.681641,-0.703491,0.011968,0.0246645,0.00150467,0.0248404,0.0117921,1.45443,0.0143477,0.0441234,1924,1443,-0.681653,0.703487
707,-419,-0.195557,-0.380005,0.0160409,0.0302202,0.00120394,0.0303217,0.0159394,1.48669,0.0175139,0.0462605,1931,1443,-0.195526,0.379957
714,-419,0.253906,-0.11377,0.0212385,0.0363641,-0.000174096,0.0363661,0.0212365,-1.55929,0.0210944,0.0467293,1938,1443,0.253964,0.113748
721,-419,0,0,0,0,0,0,0,0,0,-1,1945,1443,0,0
728,-419,0,0,0,0,0,0,0,0,0,-1,1952,1443,0,0
735,-419,0,0,0,0,0,0,0,0,0,-1,1959,1443,0,0
742,-419,0,0,0,0,0,0,0,0,0,-1,1966,1443,0,0
749,-419,0,0,0,0,0,0,0,0,0,-1,1973,1443,0,0
756,-419,0,0,0,0,0,0,0,0,0,-1,1980,1443,0,0
763,-419,0,0,0,0,0,0,0,0,0,-1,1987,1443,0,0
770,-419,0,0,0,0,0,0,0,0,0,-1,1994,1443,0,0
777,-419,0,0,0,0,0,0,0,0,0,-1,2001,1443,0,0
784,-419,0,0,0,0,0,0,0,0,0,-1,2008,1443,0,0
791,-419,0,0,0,0,0,0,0,0,0,-1,2015,1443,0,0
798,-419,0,0,0,0,0,0,0,0,0,-1,2022,1443,0,0
805,-419,0,0,0,0,0,0,0,0,0,-1,2029,1443,0,0
812,-419,0,0,0,0,0,0,0,0,0,-1,2036,1443,0,0
-700,-426,0,0,0,0,0,0,0,0,0,-1,524,1450,0,0
-693,-426,0,0,0,0,0,0,0,0,0,-1,531,1450,0,0
-686,-426,0,0,0,0,0,0,0,0,0,-1,538,1450,0,0
-679,-426,0,0,0,0,0,0,0,0,0,-1,545,1450,0,0
-672,-426,0,0,0,0,0,0,0,0,0,-1,552,1450,0,0
-665,-426,0,0,0,0,0,0,0,0,0,-1,559,1450,0,0
-658,-426,0,0,0,0,0,0,0,0,0,-1,566,1450,0,0
-651,-426,0,0,0,0,0,0,0,0,0,-1,573,1450,0,0
-644,-426,0,0,0,0,0,0,0,0,0,-1,580,1450,0,0
-637,-426,0,0,0,0,0,0,0,0,0,-1,587,1450,0,0
-630,-426,0,0,0,0,0,0,0,0,0,-1,594,1450,0,0
-623,-426,0,0,0,0,0,0,0,0,0,-1,601,1450,0,0
-616,-426,0,0,0,0,0,0,0,0,0,-1,608,1450,0,0
-609,-426,0,0,0,0,0,0,0,0,0,-1,615,1450,0,0
-602,-426,0,0,0,0,0,0,0,0,0,-1,622,1450,0,0
-595,-426,0,0,0,0,0,0,0,0,0,-1,629,1450,0,0
-588,-426,2.08929,-2.21228,-0.0605359,0.0468376,0.0392261,0.0596411,-0.0733394,1.2553,0.076912,0.047987,636,1450,2.08927,2.21234
-581,-426,0.803833,-0.661743,-0.0482919,0.0422304,0.031172,0.0519261,-0.0579877,1.26924,0.0634909,0.0448857,643,1450,0.803805,0.661783
-574,-426,0.442993,-1.07495,-0.0377429,0.0363038,0.0239471,0.0433735,-0.0448125,1.28373,0.0509165,0.0491016,650,1450,0.443003,1.07495
-567,-426,0.190247,-0.771362,-0.0289544,0.0300161,0.0177556,0.0349495,-0.0338878,1.29978,0.0397448,0.0446588,657,1450,0.190264,0.771347
-560,-426,0.282288,-0.275269,-0.021695,0.0238717,0.0126716,0.0271585,-0.0249817,1.31701,0.0301119,0.041002,664,1450,0.282304,0.275294
-553,-426,0.143555,0.172852,-0.0158145,0.0181883,0.00871651,0.0202925,-0.0179187,1.33392,0.0220754,0.0393734,671,1450,0.143546,-0.172847
-546,-426,-0.133484,-0.275024,-0.0112225,0.013282,0.00569533,0.014541,-0.0124816,1.35323,0.0156166,0.042043,678,1450,-0.133467,0.275033
-539,-426,-0.0510864,-0.173462,-0.00777469,0.00926192,0.00348303,0.0099465,-0.00845926,1.37672,0.0106381,0.0339716,685,1450,-0.0510778,0.173523
-532,-426,-0.0412598,-0.0897217,-0.00453704,0.00659672,0.0012873,0.00674362,-0.00468394,1.45717,0.00663334,0.0179933,692,1450,-0.0412302,0.0896975
-525,-426,-0.0617676,-0.0673828,-0.00227199,0.00318301,-0.000143972,0.00318681,-0.00227579,-1.54443,0.00316842,0.0107308,699,1450,-0.0617936,0.0673942
-518,-426,-0.0516968,-0.0528564,-0.00092297,0.000983822,-0.00113256,0.00151085,-0.00145,-1.13526,0.00170956,0.0131021,706,1450,-0.0516734,0.0528453
-511,-426,-0.0542603,-0.0440674,-0.000176542,4.2572e-05,-0.000963526,0.000902749,-0.00103672,-0.842007,0.00112064,0.013504,713,1450,-0.0542823,0.0441102
-504,-426,-0.0775757,-0.0535889,0.000349239,-0.000862224,-0.000577481,0.000580403,-0.00109339,-0.380763,0.000981376,0.0140804,720,1450,-0.0775654,0.0536121
-497,-426,-0.0647583,-0.0604248,0.000359871,-0.00142455,0.000385395,0.00043955,-0.00150423,0.203874,0.00117702,0.0116482,727,1450,-0.0647707,0.0604326
-490,-426,-0.0656738,-0.0563965,0.000351419,-0.000216665,0.00077261,0.000890546,-0.000755791,0.609247,0.000951574,0.0116129,734,1450,-0.0656841,0.0564004
-483,-426,-0.0714722,-0.0598145,0.000128917,0.00137486,0.00123273,0.00213308,-0.000629312,1.01936,0.00167179,0.0109529,741,1450,-0.0714675,0.059839
-476,-426,-0.0844727,-0.0606689,-0.000716608,0.00453594,0.00181487,0.00510201,-0.00128268,1.26845,0.00389986,0.00863698,748,1450,-0.0844573,0.0606201
-469,-426,-0.0852051,-0.0695801,-0.00174253,0.0101081,0.00220036,0.0105034,-0.00213789,1.39301,0.00781303,0.00706397,755,1450,-0.0852238,0.0695644
-462,-426,-0.0646973,-0.0455322,-0.00257919,0.0161109,0.00243829,0.0164238,-0.00289205,1.44318,0.0120296,0.0130095,762,1450,-0.0647142,0.045472
-455,-426,-0.13324,0.0424805,-0.0029838,0.024301,0.00206969,0.0244571,-0.0031399,1.49552,0.0174458,0.0250714,769,1450,-0.133237,-0.0424612
-448,-426,-0.247314,0.108276,-0.00292864,0.0358566,0.000723099,0.0358701,-0.00294212,1.55216,0.024952,0.0392421,776,1450,-0.247301,-0.108232
-441,-426,-1.11182,1.57605,-0.00258223,0.0489611,-0.00211692,0.0490479,-0.00266903,-1.52982,0.0336236,0.0430433,783,1450,-1.11181,-1.57609
-434,-426,-1.08722,2.44238,-0.00224788,0.06358,-0.00545278,0.0640286,-0.0026965,-1.48871,0.0436124,0.0452283,790,1450,-1.08721,-2.44234
-427,-426,-1.58167,2.90247,-0.000975506,0.0794792,-0.0101671,0.0807441,-0.00224043,-1.44702,0.0545916,0.0440985,797,1450,-1.58169,-2.90249
-420,-426,-2.53485,2.7406,0.00120286,0.0951244,-0.0161777,0.0978328,-0.00150559,-1.40492,0.0657295,0.0454625,804,1450,-2.53485,-2.74054
-413,-426,-3.1524,2.26245,0,0,0,0,0,0,0,-1,811,1450,-3.15242,-2.2625
-406,-426,-0.670227,2.60754,0,0,0,0,0,0,0,-1,818,1450,-0.670251,-2.60753
-399,-426,-0.262146,2.66162,0,0,0,0,0,0,0,-1,825,1450,-0.262166,-2.66166
-392,-426,-0.187195,1.77051,0,0,0,0,0,0,0,-1,832,1450,-0.187197,-1.7705
-385,-426,0,0,0,0,0,0,0,0,0,-1,839,1450,0,0
-378,-426,0,0,0,0,0,0,0,0,0,-1,846,1450,0,0
-371,-426,0,0,0,0,0,0,0,0,0,-1,853,1450,0,0
-364,-426,0,0,0,0,0,0,0,0,0,-1,860,1450,0,0
-357,-426,0,0,0,0,0,0,0,0,0,-1,867,1450,0,0
-350,-426,0,0,0,0,0,0,0,0,0,-1,874,1450,0,0
-343,-426,0,0,0,0,0,0,0,0,0,-1,881,1450,0,0
-336,-426,0,0,0,0,0,0,0,0,0,-1,888,1450,0,0
-329,-426,0,0,0,0,0,0,0,0,0,-1,895,1450,0,0
-322,-426,0,0,0,0,0,0,0,0,0,-1,902,1450,0,0
-315,-426,0,0,0,0,0,0,0,0,0,-1,909,1450,0,0
-308,-426,0,0,0,0,0,0,0,0,0,-1,916,1450,0,0
-301,-426,0,0,0,0,0,0,0,0,0,-1,923,1450,0,0
-294,-426,0,0,0,0,0,0,0,0,0,-1,930,1450,0,0
-287,-426,0,0,0,0,0,0,0,0,0,-1,937,1450,0,0
-280,-426,0,0,0,0,0,0,0,0,0,-1,944,1450,0,0
-273,-426,0,0,0,0,0,0,0,0,0,-1,951,1450,0,0
-266,-426,0,0,0,0,0,0,0,0,0,-1,958,1450,0,0
-259,-426,0,0,0,0,0,0,0,0,0,-1,965,1450,0,0
-252,-426,0,0,0,0,0,0,0,0,0,-1,972,1450,0,0
-245,-426,0,0,0,0,0,0,0,0,0,-1,979,1450,0,0
-238,-426,0,0,0,0,0,0,0,0,0,-1,986,1450,0,0
-231,-426,0,0,0,0,0,0,0,0,0,-1,993,1450,0,0
-224,-426,0,0,0,0,0,0,0,0,0,-1,1000,1450,0,0
-217,-426,0,0,0,0,0,0,0,0,0,-1,1007,1450,0,0
-210,-426,0,0,0,0,0,0,0,0,0,-1,1014,1450,0,0
-203,-426,0,0,0,0,0,0,0,0,0,-1,1021,1450,0,0
-196,-426,0,0,0,0,0,0,0,0,0,-1,1028,1450,0,0
-189,-426,0,0,0,0,0,0,0,0,0,-1,1035,1450,0,0
-182,-426,0,0,0,0,0,0,0,0,0,-1,1042,1450,0,0
-175,-426,0,0,0,0,0,0,0,0,0,-1,1049,1450,0,0
-168,-426,0,0,0,0,0,0,0,0,0,-1,1056,1450,0,0
-161,-426,0,0,0,0,0,0,0,0,0,-1,1063,1450,0,0
-154,-426,0,0,0,0,0,0,0,0,0,-1,1070,1450,0,0
-147,-426,0,0,0,0,0,0,0,0,0,-1,1077,1450,0,0
-140,-426,0,0,0,0,0,0,0,0,0,-1,1084,1450,0,0
-133,-426,0,0,0,0,0,0,0,0,0,-1,1091,1450,0,0
-126,-426,0,0,0,0,0,0,0,0,0,-1,1098,1450,0,0
-119,-426,0,0,0,0,0,0,0,0,0,-1,1105,1450,0,0
-112,-426,0,0,0,0,0,0,0,0,0,-1,1112,1450,0,0
-105,-426,0,0,0,0,0,0,0,0,0,-1,1119,1450,0,0
-98,-426,0,0,0,0,0,0,0,0,0,-1,1126,1450,0,0
-91,-426,0,0,0,0,0,0,0,0,0,-1,1133,1450,0,0
-84,-426,0,0,0,0,0,0,0,0,0,-1,1140,1450,0,0
-77,-426,0,0,0,0,0,0,0,0,0,-1,1147,1450,0,0
-70,-426,0,0,0,0,0,0,0,0,0,-1,1154,1450,0,0
-63,-426,0,0,0,0,0,0,0,0,0,-1,1161,1450,0,0
-56,-426,0,0,0,0,0,0,0,0,0,-1,1168,1450,0,0
-49,-426,0,0,0,0,0,0,0,0,0,-1,1175,1450,0,0
-42,-426,0,0,0,0,0,0,0,0,0,-1,1182,1450,0,0
-35,-426,0,0,0,0,0,0,0,0,0,-1,1189,1450,0,0
-28,-426,0,0,0,0,0,0,0,0,0,-1,1196,1450,0,0
-21,-426,0,0,0,0,0,0,0,0,0,-1,1203,1450,0,0
-14,-426,0,0,0,0,0,0,0,0,0,-1,1210,1450,0,0
-7,-426,0,0,0,0,0,0,0,0,0,-1,1217,1450,0,0
0,-426,0,0,0,0,0,0,0,0,0,-1,1224,1450,0,0
7,-426,0,0,0,0,0,0,0,0,0,-1,1231,1450,0,0
14,-426,0,0,0,0,0,0,0,0,0,-1,1238,1450,0,0
21,-426,0,0,0,0,0,0,0,0,0,-1,1245,1450,0,0
28,-426,0,0,0,0,0,0,0,0,0,-1,1252,1450,0,0
35,-426,0,0,0,0,0,0,0,0,0,-1,1259,1450,0,0
42,-426,0,0,0,0,0,0,0,0,0,-1,1266,1450,0,0
49,-426,0,0,0,0,0,0,0,0,0,-1,1273,1450,0,0
56,-426,0,0,0,0,0,0,0,0,0,-1,1280,1450,0,0
63,-426,0,0,0,0,0,0,0,0,0,-1,1287,1450,0,0
70,-426,0,0,0,0,0,0,0,0,0,-1,1294,1450,0,0
77,-426,0,0,0,0,0,0,0,0,0,-1,1301,1450,0,0
84,-426,0,0,0,0,0,0,0,0,0,-1,1308,1450,0,0
91,-426,0,0,0,0,0,0,0,0,0,-1,1315,1450,0,0
98,-426,0,0,0,0,0,0,0,0,0,-1,1322,1450,0,0
105,-426,0,0,0,0,0,0,0,0,0,-1,1329,1450,0,0
112,-426,0,0,0,0,0,0,0,0,0,-1,1336,1450,0,0
119,-426,0,0,0,0,0,0,0,0,0,-1,1343,1450,0,0
126,-426,0,0,0,0,0,0,0,0,0,-1,1350,1450,0,0
133,-426,0,0,0,0,0,0,0,0,0,-1,1357,1450,0,0
140,-426,0,0,0,0,0,0,0,0,0,-1,1364,1450,0,0
147,-426,0,0,0,0,0,0,0,0,0,-1,1371,1450,0,0
154,-426,0,0,0,0,0,0,0,0,0,-1,1378,1450,0,0
161,-426,0,0,0,0,0,0,0,0,0,-1,1385,1450,0,0
168,-426,0,0,0,0,0,0,0,0,0,-1,1392,1450,0,0
175,-426,0,0,0,0,0,0,0,0,0,-1,1399,1450,0,0
182,-426,0,0,0,0,0,0,0,0,0,-1,1406,1450,0,0
189,-426,0,0,0,0,0,0,0,0,0,-1,1413,1450,0,0
196,-426,0,0,0,0,0,0,0,0,0,-1,1420,1450,0,0
203,-426,0,0,0,0,0,0,0,0,0,-1,1427,1450,0,0
210,-426,0,0,0,0,0,0,0,0,0,-1,1434,1450,0,0
217,-426,0,0,0,0,0,0,0,0,0,-1,1441,1450,0,0
224,-426,0,0,0,0,0,0,0,0,0,-1,1448,1450,0,0
231,-426,0,0,0,0,0,0,0,0,0,-1,1455,1450,0,0
238,-426,0,0,0,0,0,0,0,0,0,-1,1462,1450,0,0
245,-426,0,0,0,0,0,0,0,0,0,-1,1469,1450,0,0
252,-426,0,0,0,0,0,0,0,0,0,-1,1476,1450,0,0
259,-426,0,0,0,0,0,0,0,0,0,-1,1483,1450,0,0
266,-426,0,0,0,0,0,0,0,0,0,-1,1490,1450,0,0
273,-426,0,0,0,0,0,0,0,0,0,-1,1497,1450,0,0
280,-426,0,0,0,0,0,0,0,0,0,-1,1504,1450,0,0
287,-426,0,0,0,0,0,0,0,0,0,-1,1511,1450,0,0
294,-426,0,0,0,0,0,0,0,0,0,-1,1518,1450,0,0
301,-426,0,0,0,0,0,0,0,0,0,-1,1525,1450,0,0
308,-426,0,0,0,0,0,0,0,0,0,-1,1532,1450,0,0
315,-426,0,0,0,0,0,0,0,0,0,-1,1539,1450,0,0
322,-426,0,0,0,0,0,0,0,0,0,-1,1546,1450,0,0
329,-426,0,0,0,0,0,0,0,0,0,-1,1553,1450,0,0
336,-426,0,0,0,0,0,0,0,0,0,-1,1560,1450,0,0
343,-426,0,0,0,0,0,0,0,0,0,-1,1567,1450,0,0
350,-426,0,0,0,0,0,0,0,0,0,-1,1574,1450,0,0
357,-426,0,0,0,0,0,0,0,0,0,-1,1581,1450,0,0
364,-426,0,0,0,0,0,0,0,0,0,-1,1588,1450,0,0
371,-426,0,0,0,0,0,0,0,0,0,-1,1595,1450,0,0
378,-426,0,0,0,0,0,0,0,0,0,-1,1602,1450,0,0
385,-426,0,0,0,0,0,0,0,0,0,-1,1609,1450,0,0
392,-426,0,0,0,0,0,0,0,0,0,-1,1616,1450,0,0
399,-426,0,0,0,0,0,0,0,0,0,-1,1623,1450,0,0
406,-426,0,0,0,0,0,0,0,0,0,-1,1630,1450,0,0
413,-426,0,0,0,0,0,0,0,0,0,-1,1637,1450,0,0
420,-426,0,0,0,0,0,0,0,0,0,-1,1644,1450,0,0
427,-426,0,0,0,0,0,0,0,0,0,-1,1651,1450,0,0
434,-426,0,0,0,0,0,0,0,0,0,-1,1658,1450,0,0
441,-426,0,0,0,0,0,0,0,0,0,-1,1665,1450,0,0
448,-426,0,0,0,0,0,0,0,0,0,-1,1672,1450,0,0
455,-426,0,0,0,0,0,0,0,0,0,-1,1679,1450,0,0
462,-426,0,0,0,0,0,0,0,0,0,-1,1686,1450,0,0
469,-426,0,0,0,0,0,0,0,0,0,-1,1693,1450,0,0
476,-426,0,0,0,0,0,0,0,0,0,-1,1700,1450,0,0
483,-426,0,0,0,0,0,0,0,0,0,-1,1707,1450,0,0
490,-426,0,0,0,0,0,0,0,0,0,-1,1714,1450,0,0
497,-426,0,0,0,0,0,0,0,0,0,-1,1721,1450,0,0
504,-426,0,0,0,0,0,0,0,0,0,-1,1728,1450,0,0
511,-426,0,0,0,0,0,0,0,0,0,-1,1735,1450,0,0
518,-426,-0.401245,-1.87805,0,0,0,0,0,0,0,-1,1742,1450,-0.401196,1.878
525,-426,0.327271,-2.5509,0,0,0,0,0,0,0,-1,1749,1450,0.327297,2.55093
532,-426,0.129395,-1.68713,0.0850469,0.000576726,0.0191307,0.0891776,-0.00355398,0.212656,0.0606711,0.0474086,1756,1450,0.129337,1.68711
539,-426,1.45544,0.309814,0.0789891,0.0112902,0.0233304,0.0862504,0.00402892,0.301733,0.0562054,0.0474274,1763,1450,1.45545,-0.309771
546,-426,1.4856,0.363403,0.0727619,0.0209484,0.0259662,0.0835349,0.0101754,0.393272,0.052627,0.0438289,1770,1450,1.48564,-0.363431
553,-426,1.36499,0.37085,0.0667738,0.0270797,0.0268922,0.0803498,0.0135038,0.467503,0.0496808,0.0432231,1777,1450,1.36501,-0.370838
560,-426,1.33765,0.108276,0,0,0,0,0,0,0,-1,1784,1450,1.3376,-0.108321
567,-426,1.03357,0.00634766,0,0,0,0,0,0,0,-1,1791,1450,1.03361,-0.00639439
574,-426,-0.242432,0.14563,0.0443874,0.0309362,0.0234611,0.0620679,0.0132558,0.645806,0.037744,0.0436166,1798,1450,-0.242424,-0.145638
581,-426,-0.182251,0.0372314,0.0366626,0.0285921,0.0205954,0.0536143,0.0116404,0.688659,0.0325638,0.0385624,1805,1450,-0.182232,-0.0372597
588,-426,-0.0755615,-0.00854492,0.0287274,0.0250266,0.0169953,0.0439727,0.00978127,0.731174,0.0266597,0.0306087,1812,1450,-0.0755688,0.00855958
595,-426,-0.0678711,-0.0704346,0.0214292,0.0194936,0.0128396,0.0333374,0.0075854,0.74778,0.0201775,0.0211785,1819,1450,-0.0679017,0.0704936
602,-426,-0.081665,-0.0983887,0.0152389,0.0152027,0.0104916,0.0257125,0.00472914,0.784536,0.0158029,0.0134185,1826,1450,-0.0816682,0.098409
609,-426,-0.076416,-0.0664063,0.0104359,0.0105233,0.00721511,0.0176948,0.00326432,0.788427,0.010873,0.0106185,1833,1450,-0.0764355,0.0664418
616,-426,-0.0797119,-0.0400391,0.00647263,0.00625459,0.00451063,0.0108756,0.00185166,0.773316,0.00671874,0.0124439,1840,1450,-0.0797353,0.0400414
623,-426,-0.0792236,-0.0533447,0.0029785,0.0036318,0.00207264,0.00540337,0.00120693,0.863556,0.00327493,0.00985564,1847,1450,-0.0792504,0.0533872
630,-426,-0.0789795,-0.0445557,0.000164286,0.00118277,-0.000804401,0.00162558,-0.000278515,-1.06759,0.00118749,0.0103639,1854,1450,-0.0790009,0.0445615
637,-426,-0.0646973,-0.0571289,-0.00109365,0.000498795,-0.00229867,0.00213524,-0.00273009,-0.952123,0.00281599,0.010959,1861,1450,-0.0646768,0.0571784
644,-426,-0.0754395,-0.0532227,-0.000136265,0.00213586,-0.00197568,0.00327883,-0.00127923,-1.04632,0.00271469,0.0105921,1868,1450,-0.0753974,0.0532681
651,-426,-0.0875244,-0.0570068,0.00110674,0.00371709,-0.00138282,0.00431341,0.000510419,-1.16366,0.00272147,0.0106059,1875,1450,-0.0875811,0.0570427
658,-426,-0.0847168,-0.0675049,0.00220944,0.00610622,-0.000690809,0.00622506,0.0020906,-1.40043,0.00365804,0.0106557,1882,1450,-0.0846738,0.0674714
665,-426,-0.0908203,-0.0698242,0.00329143,0.00861036,-0.00031718,0.0086292,0.00327258,-1.51144,0.00503027,0.015397,1889,1450,-0.090844,0.0698316
672,-426,-0.0755615,-0.0401611,0.00430821,0.0117871,-6.25163e-05,0.0117876,0.00430769,-1.56244,0.00688725,0.0221242,1896,1450,-0.0755722,0.0401764
679,-426,-0.104736,-0.149048,0.00589501,0.0153566,0.000446859,0.0153777,0.00587395,1.52371,0.00896037,0.0327951,1903,1450,-0.104731,0.149067
686,-426,-0.14209,-0.35791,0.00785529,0.0198614,0.00124561,0.0199893,0.00772743,1.4685,0.0116394,0.0424743,1910,1450,-0.142118,0.357947
693,-426,0.0256348,-0.0623779,0.0105274,0.0251454,0.00205436,0.0254286,0.0102441,1.4338,0.0147733,0.04323,1917,1450,0.0256224,0.0623355
700,-426,-0.993408,-0.910034,0,0,0,0,0,0,0,-1,1924,1450,-0.993422,0.910004
707,-426,-0.5979,-0.603271,0,0,0,0,0,0,0,-1,1931,1450,-0.597926,0.603217
714,-426,0,0,0,0,0,0,0,0,0,-1,1938,1450,0,0
721,-426,0,0,0,0,0,0,0,0,0,-1,1945,1450,0,0
728,-426,0,0,0,0,0,0,0,0,0,-1,1952,1450,0,0
735,-426,0,0,0,0,0,0,0,0,0,-1,1959,1450,0,0
742,-426,0,0,0,0,0,0,0,0,0,-1,1966,1450,0,0
749,-426,0,0,0,0,0,0,0,0,0,-1,1973,1450,0,0
756,-426,0,0,0,0,0,0,0,0,0,-1,1980,1450,0,0
763,-426,0,0,0,0,0,0,0,0,0,-1,1987,1450,0,0
770,-426,0,0,0,0,0,0,0,0,0,-1,1994,1450,0,0
777,-426,0,0,0,0,0,0,0,0,0,-1,2001,1450,0,0
784,-426,0,0,0,0,0,0,0,0,0,-1,2008,1450,0,0
791,-426,0,0,0,0,0,0,0,0,0,-1,2015,1450,0,0
798,-426,0,0,0,0,0,0,0,0,0,-1,2022,1450,0,0
805,-426,0,0,0,0,0,0,0,0,0,-1,2029,1450,0,0
812,-426,0,0,0,0,0,0,0,0,0,-1,2036,1450,0,0
-700,-433,0,0,0,0,0,0,0,0,0,-1,524,1457,0,0
-693,-433,0,0,0,0,0,0,0,0,0,-1,531,1457,0,0
-686,-433,0,0,0,0,0,0,0,0,0,-1,538,1457,0,0
-679,-433,0,0,0,0,0,0,0,0,0,-1,545,1457,0,0
-672,-433,0,0,0,0,0,0,0,0,0,-1,552,1457,0,0
-665,-433,0,0,0,0,0,0,0,0,0,-1,559,1457,0,0
-658,-433,0,0,0,0,0,0,0,0,0,-1,566,1457,0,0
-651,-433,0,0,0,0,0,0,0,0,0,-1,573,1457,0,0
-644,-433,0,0,0,0,0,0,0,0,0,-1,580,1457,0,0
-637,-433,0,0,0,0,0,0,0,0,0,-1,587,1457,0,0
-630,-433,0,0,0,0,0,0,0,0,0,-1,594,1457,0,0
-623,-433,0,0,0,0,0,0,0,0,0,-1,601,1457,0,0
-616,-433,0,0,0,0,0,0,0,0,0,-1,608,1457,0,0
-609,-433,0,0,0,0,0,0,0,0,0,-1,615,1457,0,0
-602,-433,0,0,0,0,0,0,0,0,0,-1,622,1457,0,0
-595,-433,0,0,0,0,0,0,0,0,0,-1,629,1457,0,0
-588,-433,1.66211,-1.52344,-0.0685046,0.0414722,0.0414048,0.0553176,-0.08235,1.2481,0.0799915,0.0464527,636,1457,1.66211,1.52344
-581,-433,1.36517,-1.49402,-0.0539473,0.0390335,0.0322231,0.0491089,-0.0640227,1.26775,0.0655055,0.0433788,643,1457,1.36515,1.49401
-574,-433,0.915894,-1.24414,-0.0416044,0.0343844,0.0243467,0.0415158,-0.0487358,1.28586,0.0521623,0.0462747,650,1457,0.915896,1.24418
-567,-433,0.565308,-0.755859,-0.0315662,0.0288283,0.0177816,0.0336748,-0.0364126,1.30471,0.0404753,0.044638,657,1457,0.565325,0.755834
-560,-433,0.231262,-0.588135,-0.0234751,0.0230995,0.0125018,0.0262431,-0.0266187,1.32445,0.03052,0.045096,664,1457,0.231292,0.588105
-553,-433,0.303223,0.611572,0,0,0,0,0,0,0,-1,671,1457,0.303199,-0.611631
-546,-433,0.0537109,-0.7854,-0.0120146,0.0128477,0.00531291,0.0139354,-0.0131024,1.36885,0.0156128,0.0449162,678,1457,0.0536946,0.785439
-539,-433,0.0274658,-0.289673,-0.00833509,0.0088779,0.00308223,0.00941317,-0.00887037,1.39885,0.0105576,0.0418335,685,1457,0.0274807,0.289643
-532,-433,-0.0644531,-0.0755615,-0.00501197,0.00628799,0.000930597,0.00636411,-0.00508809,1.48918,0.0066256,0.0244883,692,1457,-0.0644702,0.075596
-525,-433,-0.071167,-0.0523682,-0.00272422,0.00291815,-0.000355111,0.00294042,-0.00274649,-1.50819,0.00328397,0.0116027,699,1457,-0.0711925,0.0524289
-518,-433,-0.057251,-0.0523682,-0.00143821,0.000739083,-0.00117053,0.00124896,-0.00194809,-1.15998,0.00186047,0.0138717,706,1457,-0.0572374,0.0523542
-511,-433,-0.0658569,-0.057251,-0.000752041,-0.000347327,-0.000957397,0.000428865,-0.00152823,-0.889546,0.00118787,0.0138677,713,1457,-0.0658695,0.0572026
-504,-433,-0.0675659,-0.0556641,-0.000286934,-0.00123509,-0.000521466,-5.62589e-05,-0.00146576,-0.416482,0.000958973,0.0120825,720,1457,-0.067536,0.0557237
-497,-433,-0.0707397,-0.0594482,-0.000412918,-0.00162449,0.000383752,-0.000301597,-0.00173581,0.282337,0.00107092,0.0125139,727,1457,-0.070752,0.0594419
-490,-433,-0.067627,-0.0566406,-0.000575927,-0.000507466,0.000907466,0.000366415,-0.00144981,0.80425,0.00110904,0.0146882,734,1457,-0.0676486,0.056701
-483,-433,-0.069519,-0.0450439,-0.000933028,0.000919483,0.00159176,0.00183487,-0.00184842,1.0489,0.00212655,0.0148524,741,1457,-0.0694896,0.0451022
-476,-433,-0.0757446,-0.036499,-0.00189331,0.00388302,0.00233999,0.00471199,-0.00272227,1.23033,0.00434311,0.00963928,748,1457,-0.0757592,0.0364899
-469,-433,-0.0652466,-0.0544434,-0.00294342,0.00903088,0.00283222,0.00966698,-0.00357952,1.34987,0.00791249,0.00992788,755,1457,-0.0652745,0.0544739
-462,-433,-0.0574341,-0.065918,-0.00376693,0.0143661,0.00324738,0.0149301,-0.00433094,1.39883,0.0116682,0.00838882,762,1457,-0.057427,0.0658592
-455,-433,-0.0757446,-0.0462646,-0.00417452,0.0214798,0.00314031,0.0218586,-0.00455333,1.45075,0.0163035,0.0154871,769,1457,-0.0757605,0.0463218
-448,-433,-0.174744,0.0406494,-0.00418865,0.0314782,0.00224551,0.031619,-0.00432947,1.50817,0.0226608,0.0289704,776,1457,-0.174756,-0.0406184
-441,-433,-0.382507,0.392212,-0.00405549,0.0425752,8.17383e-05,0.0425753,-0.00405564,1.56904,0.0298275,0.0376211,783,1457,-0.382526,-0.392206
-434,-433,-0.376465,0.940674,0,0,0,0,0,0,0,-1,790,1457,-0.376441,-0.940687
-427,-433,-1.104,1.84326,-0.00326577,0.0680761,-0.00616585,0.068605,-0.00379474,-1.48522,0.0470526,0.0433198,797,1457,-1.10399,-1.84322
-420,-433,-1.5426,1.75195,-0.00183327,0.0809424,-0.0110542,0.0823932,-0.00328407,-1.4403,0.0560556,0.0456309,804,1457,-1.54257,-1.75192
-413,-433,-1.86322,1.69958,0,0,0,0,0,0,0,-1,811,1457,-1.86319,-1.69961
-406,-433,-0.512268,1.96667,0.00336334,0.106333,-0.0243819,0.111814,-0.00211818,-1.34965,0.0752587,0.0484532,818,1457,-0.51229,-1.96662
-399,-433,0.0687866,1.69153,0.0065362,0.120986,-0.0329646,0.129801,-0.00227947,-1.30948,0.0873039,0.0469948,825,1457,0.0687808,-1.69155
-392,-433,0.271301,0.975952,0.010589,0.136893,-0.044439,0.150962,-0.00347939,-1.2642,0.101821,0.0453192,832,1457,0.271307,-0.975909
-385,-433,0.304871,0.767944,0,0,0,0,0,0,0,-1,839,1457,0.30486,-0.76792
-378,-433,0,0,0,0,0,0,0,0,0,-1,846,1457,0,0
-371,-433,0,0,0,0,0,0,0,0,0,-1,853,1457,0,0
-364,-433,0,0,0,0,0,0,0,0,0,-1,860,1457,0,0
-357,-433,0,0,0,0,0,0,0,0,0,-1,867,1457,0,0
-350,-433,0,0,0,0,0,0,0,0,0,-1,874,1457,0,0
-343,-433,0,0,0,0,0,0,0,0,0,-1,881,1457,0,0
-336,-433,0,0,0,0,0,0,0,0,0,-1,888,1457,0,0
-329,-433,0,0,0,0,0,0,0,0,0,-1,895,1457,0,0
-322,-433,0,0,0,0,0,0,0,0,0,-1,902,1457,0,0
-315,-433,0,0,0,0,0,0,0,0,0,-1,909,1457,0,0
-308,-433,0,0,0,0,0,0,0,0,0,-1,916,1457,0,0
-301,-433,0,0,0,0,0,0,0,0,0,-1,923,1457,0,0
-294,-433,0,0,0,0,0,0,0,0,0,-1,930,1457,0,0
-287,-433,0,0,0,0,0,0,0,0,0,-1,937,1457,0,0
-280,-433,0,0,0,0,0,0,0,0,0,-1,944,1457,0,0
-273,-433,0,0,0,0,0,0,0,0,0,-1,951,1457,0,0
-266,-433,0,0,0,0,0,0,0,0,0,-1,958,1457,0,0
-259,-433,0,0,0,0,0,0,0,0,0,-1,965,1457,0,0
-252,-433,0,0,0,0,0,0,0,0,0,-1,972,1457,0,0
-245,-433,0,0,0,0,0,0,0,0,0,-1,979,1457,0,0
-238,-433,0,0,0,0,0,0,0,0,0,-1,986,1457,0,0
-231,-433,0,0,0,0,0,0,0,0,0,-1,993,1457,0,0
-224,-433,0,0,0,0,0,0,0,0,0,-1,1000,1457,0,0
-217,-433,0,0,0,0,0,0,0,0,0,-1,1007,1457,0,0
-210,-433,0,0,0,0,0,0,0,0,0,-1,1014,1457,0,0
-203,-433,0,0,0,0,0,0,0,0,0,-1,1021,1457,0,0
-196,-433,0,0,0,0,0,0,0,0,0,-1,1028,1457,0,0
-189,-433,0,0,0,0,0,0,0,0,0,-1,1035,1457,0,0
-182,-433,0,0,0,0,0,0,0,0,0,-1,1042,1457,0,0
-175,-433,0,0,0,0,0,0,0,0,0,-1,1049,1457,0,0
-168,-433,0,0,0,0,0,0,0,0,0,-1,1056,1457,0,0
-161,-433,0,0,0,0,0,0,0,0,0,-1,1063,1457,0,0
-154,-433,0,0,0,0,0,0,0,0,0,-1,1070,1457,0,0
-147,-433,0,0,0,0,0,0,0,0,0,-1,1077,1457,0,0
-140,-433,0,0,0,0,0,0,0,0,0,-1,1084,1457,0,0
-133,-433,0,0,0,0,0,0,0,0,0,-1,1091,1457,0,0
-126,-433,0,0,0,0,0,0,0,0,0,-1,1098,1457,0,0
-119,-433,0,0,0,0,0,0,0,0,0,-1,1105,1457,0,0
-112,-433,0,0,0,0,0,0,0,0,0,-1,1112,1457,0,0
-105,-433,0,0,0,0,0,0,0,0,0,-1,1119,1457,0,0
-98,-433,0,0,0,0,0,0,0,0,0,-1,1126,1457,0,0
-91,-433,0,0,0,0,0,0,0,0,0,-1,1133,1457,0,0
-84,-433,0,0,0,0,0,0,0,0,0,-1,1140,1457,0,0
-77,-433,0,0,0,0,0,0,0,0,0,-1,1147,1457,0,0
-70,-433,0,0,0,0,0,0,0,0,0,-1,1154,1457,0,0
-63,-433,0,0,0,0,0,0,0,0,0,-1,1161,1457,0,0
-56,-433,0,0,0,0,0,0,0,0,0,-1,1168,1457,0,0
-49,-433,0,0,0,0,0,0,0,0,0,-1,1175,1457,0,0
-42,-433,0,0,0,0,0,0,0,0,0,-1,1182,1457,0,0
-35,-433,0,0,0,0,0,0,0,0,0,-1,1189,1457,0,0
-28,-433,0,0,0,0,0,0,0,0,0,-1,1196,1457,0,0
-21,-433,0,0,0,0,0,0,0,0,0,-1,1203,1457,0,0
-14,-433,0,0,0,0,0,0,0,0,0,-1,1210,1457,0,0
-7,-433,0,0,0,0,0,0,0,0,0,-1,1217,1457,0,0
0,-433,0,0,0,0,0,0,0,0,0,-1,1224,1457,0,0
7,-433,0,0,0,0,0,0,0,0,0,-1,1231,1457,0,0
14,-433,0,0,0,0,0,0,0,0,0,-1,1238,1457,0,0
21,-433,0,0,0,0,0,0,0,0,0,-1,1245,1457,0,0
28,-433,0,0,0,0,0,0,0,0,0,-1,1252,1457,0,0
35,-433,0,0,0,0,0,0,0,0,0,-1,1259,1457,0,0
42,-433,0,0,0,0,0,0,0,0,0,-1,1266,1457,0,0
49,-433,0,0,0,0,0,0,0,0,0,-1,1273,1457,0,0
56,-433,0,0,0,0,0,0,0,0,0,-1,1280,1457,0,0
63,-433,0,0,0,0,0,0,0,0,0,-1,1287,1457,0,0
70,-433,0,0,0,0,0,0,0,0,0,-1,1294,1457,0,0
77,-433,0,0,0,0,0,0,0,0,0,-1,1301,1457,0,0
84,-433,0,0,0,0,0,0,0,0,0,-1,1308,1457,0,0
91,-433,0,0,0,0,0,0,0,0,0,-1,1315,1457,0,0
98,-433,0,0,0,0,0,0,0,0,0,-1,1322,1457,0,0
105,-433,0,0,0,0,0,0,0,0,0,-1,1329,1457,0,0
112,-433,0,0,0,0,0,0,0,0,0,-1,1336,1457,0,0
119,-433,0,0,0,0,0,0,0,0,0,-1,1343,1457,0,0
126,-433,0,0,0,0,0,0,0,0,0,-1,1350,1457,0,0
133,-433,0,0,0,0,0,0,0,0,0,-1,1357,1457,0,0
140,-433,0,0,0,0,0,0,0,0,0,-1,1364,1457,0,0
147,-433,0,0,0,0,0,0,0,0,0,-1,1371,1457,0,0
154,-433,0,0,0,0,0,0,0,0,0,-1,1378,1457,0,0
161,-433,0,0,0,0,0,0,0,0,0,-1,1385,1457,0,0
168,-433,0,0,0,0,0,0,0,0,0,-1,1392,1457,0,0
175,-433,0,0,0,0,0,0,0,0,0,-1,1399,1457,0,0
182,-433,0,0,0,0,0,0,0,0,0,-1,1406,1457,0,0
189,-433,0,0,0,0,0,0,0,0,0,-1,1413,1457,0,0
196,-433,0,0,0,0,0,0,0,0,0,-1,1420,1457,0,0
203,-433,0,0,0,0,0,0,0,0,0,-1,1427,1457,0,0
210,-433,0,0,0,0,0,0,0,0,0,-1,1434,1457,0,0
217,-433,0,0,0,0,0,0,0,0,0,-1,1441,1457,0,0
224,-433,0,0,0,0,0,0,0,0,0,-1,1448,1457,0,0
231,-433,0,0,0,0,0,0,0,0,0,-1,1455,1457,0,0
238,-433,0,0,0,0,0,0,0,0,0,-1,1462,1457,0,0
245,-433,0,0,0,0,0,0,0,0,0,-1,1469,1457,0,0
252,-433,0,0,0,0,0,0,0,0,0,-1,1476,1457,0,0
259,-433,0,0,0,0,0,0,0,0,0,-1,1483,1457,0,0
266,-433,0,0,0,0,0,0,0,0,0,-1,1490,1457,0,0
273,-433,0,0,0,0,0,0,0,0,0,-1,1497,1457,0,0
280,-433,0,0,0,0,0,0,0,0,0,-1,1504,1457,0,0
287,-433,0,0,0,0,0,0,0,0,0,-1,1511,1457,0,0
294,-433,0,0,0,0,0,0,0,0,0,-1,1518,1457,0,0
301,-433,0,0,0,0,0,0,0,0,0,-1,1525,1457,0,0
308,-433,0,0,0,0,0,0,0,0,0,-1,1532,1457,0,0
315,-433,0,0,0,0,0,0,0,0,0,-1,1539,1457,0,0
322,-433,0,0,0,0,0,0,0,0,0,-1,1546,1457,0,0
329,-433,0,0,0,0,0,0,0,0,0,-1,1553,1457,0,0
336,-433,0,0,0,0,0,0,0,0,0,-1,1560,1457,0,0
343,-433,0,0,0,0,0,0,0,0,0,-1,1567,1457,0,0
350,-433,0,0,0,0,0,0,0,0,0,-1,1574,1457,0,0
357,-433,0,0,0,0,0,0,0,0,0,-1,1581,1457,0,0
364,-433,0,0,0,0,0,0,0,0,0,-1,1588,1457,0,0
371,-433,0,0,0,0,0,0,0,0,0,-1,1595,1457,0,0
378,-433,0,0,0,0,0,0,0,0,0,-1,1602,1457,0,0
385,-433,0,0,0,0,0,0,0,0,0,-1,1609,1457,0,0
392,-433,0,0,0,0,0,0,0,0,0,-1,1616,1457,0,0
399,-433,0,0,0,0,0,0,0,0,0,-1,1623,1457,0,0
406,-433,0,0,0,0,0,0,0,0,0,-1,1630,1457,0,0
413,-433,0,0,0,0,0,0,0,0,0,-1,1637,1457,0,0
420,-433,0,0,0,0,0,0,0,0,0,-1,1644,1457,0,0
427,-433,0,0,0,0,0,0,0,0,0,-1,1651,1457,0,0
434,-433,0,0,0,0,0,0,0,0,0,-1,1658,1457,0,0
441,-433,0,0,0,0,0,0,0,0,0,-1,1665,1457,0,0
448,-433,0,0,0,0,0,0,0,0,0,-1,1672,1457,0,0
455,-433,0,0,0,0,0,0,0,0,0,-1,1679,1457,0,0
462,-433,0,0,0,0,0,0,0,0,0,-1,1686,1457,0,0
469,-433,0,0,0,0,0,0,0,0,0,-1,1693,1457,0,0
476,-433,0,0,0,0,0,0,0,0,0,-1,1700,1457,0,0
483,-433,0,0,0,0,0,0,0,0,0,-1,1707,1457,0,0
490,-433,0,0,0,0,0,0,0,0,0,-1,1714,1457,0,0
497,-433,0,0,0,0,0,0,0,0,0,-1,1721,1457,0,0
504,-433,1.1062,-1.36267,0,0,0,0,0,0,0,-1,1728,1457,1.10618,1.36265
511,-433,-0.487549,-2.26257,0,0,0,0,0,0,0,-1,1735,1457,-0.487575,2.26254
518,-433,-0.231812,-2.19336,0.0746748,-0.029906,0.00954224,0.0755383,-0.0307695,0.0902497,0.063165,0.0481982,1742,1457,-0.231761,2.19339
525,-433,0.228027,-1.88037,0.0714993,-0.0183957,0.0161872,0.0743252,-0.0212217,0.172838,0.0579345,0.0488995,1749,1457,0.227993,1.88033
532,-433,0.431763,-1.23352,0.0672132,-0.0077105,0.020376,0.072396,-0.0128934,0.249079,0.0530863,0.0455772,1756,1457,0.431791,1.2335
539,-433,0.408691,-0.514893,0.0611957,0.000782763,0.0222705,0.068518,-0.00653952,0.317654,0.0480072,0.0458222,1763,1457,0.408663,0.514883
546,-433,1.06274,0.315796,0.0559661,0.00934559,0.0233305,0.0656358,-0.000324167,0.392916,0.0438657,0.0415065,1770,1457,1.06272,-0.315816
553,-433,1.09192,0.776978,0.0511138,0.0153781,0.0232106,0.0625375,0.00395449,0.457367,0.040438,0.0394488,1777,1457,1.09188,-0.776993
560,-433,0.937988,0.784546,0,0,0,0,0,0,0,-1,1784,1457,0.93798,-0.784509
567,-433,0.626587,0.583008,0,0,0,0,0,0,0,-1,1791,1457,0.626586,-0.583054
574,-433,-0.286133,0.0565186,0.0338703,0.0219148,0.0189549,0.0477677,0.00801736,0.63265,0.0295376,0.0426777,1798,1457,-0.286157,-0.056552
581,-433,0.00317383,0.0684814,0.0281318,0.0209528,0.0164859,0.0414144,0.0076702,0.678206,0.0254412,0.0363698,1805,1457,0.00311346,-0.0684869
588,-433,-0.0428467,-0.0098877,0.0222122,0.0187923,0.0135209,0.0341308,0.00687364,0.722499,0.0208439,0.025434,1812,1457,-0.0428445,0.00994074
595,-433,-0.0551758,-0.0550537,0.0167963,0.0147647,0.0101452,0.0259764,0.00558459,0.735502,0.0157888,0.019246,1819,1457,-0.0552089,0.0550702
602,-433,-0.060791,-0.0543213,0.012184,0.0116395,0.00820725,0.0201235,0.00370001,0.76882,0.0123682,0.0172052,1826,1457,-0.0608329,0.0543536
609,-433,-0.0610352,-0.0313721,0.00870552,0.00817958,0.00566165,0.0141103,0.00277479,0.762191,0.0086319,0.013319,1833,1457,-0.0610505,0.0313437
616,-433,-0.0860596,-0.043335,0.00574745,0.00484428,0.00352355,0.00884823,0.00174349,0.721665,0.00541209,0.0117336,1840,1457,-0.0860677,0.0433173
623,-433,-0.0911865,-0.0606689,0.00313053,0.00296556,0.00159013,0.00464032,0.00145578,0.759485,0.00274036,0.00960329,1847,1457,-0.0911489,0.0606396
630,-433,-0.0963135,-0.0445557,0.000916939,0.00150835,-0.000623453,0.00190267,0.000522619,-1.00684,0.00113508,0.0121989,1854,1457,-0.0963094,0.0445199
637,-433,-0.0672607,-0.0562744,-0.000153426,0.00121584,-0.00189171,0.00254299,-0.00148058,-0.959022,0.00234985,0.0128757,1861,1457,-0.0672681,0.0562491
644,-433,-0.0587158,-0.0540771,0.000587535,0.00296829,-0.00170968,0.00386118,-0.00030536,-1.0895,0.00268171,0.0131081,1868,1457,-0.0586712,0.0541077
651,-433,-0.0865479,-0.045166,0.00160223,0.00476047,-0.00128808,0.00521918,0.00114351,-1.22868,0.00316785,0.0107633,1875,1457,-0.0865012,0.045217
658,-433,-0.088623,-0.0716553,0.00262976,0.00738336,-0.000760581,0.00750209,0.00251104,-1.41594,0.00440951,0.0116808,1882,1457,-0.0886747,0.0717079
665,-433,-0.0698242,-0.0578613,0.00371857,0.0103516,-0.000411791,0.010377,0.0036931,-1.50903,0.00607356,0.0163727,1889,1457,-0.0698449,0.0579139
672,-433,-0.0314941,0.0166016,0.00478656,0.0141213,-9.80695e-05,0.0141224,0.00478553,-1.56029,0.00829349,0.0320417,1896,1457,-0.0315195,-0.0165956
679,-433,0.00952148,-0.0163574,0.0064274,0.018452,0.00051579,0.0184741,0.00640532,1.52801,0.0108318,0.0387689,1903,1457,0.00947468,0.0163976
686,-433,-0.0814209,-0.404297,0.00850471,0.0237983,0.00147522,0.0239393,0.00836371,1.47551,0.0140289,0.0422676,1910,1457,-0.0814803,0.404285
693,-433,-0.178833,-0.563843,0.0113565,0.0300373,0.00253504,0.0303752,0.0110186,1.43828,0.017756,0.0429019,1917,1457,-0.178838,0.563793
700,-433,-0.213013,-0.694092,0.0151705,0.0370841,0.00339752,0.0375987,0.0146558,1.42046,0.0218827,0.0436212,1924,1457,-0.213044,0.694087
707,-433,-0.0932617,-0.413452,0,0,0,0,0,0,0,-1,1931,1457,-0.0932271,0.413402
714,-433,0,0,0,0,0,0,0,0,0,-1,1938,1457,0,0
721,-433,0,0,0,0,0,0,0,0,0,-1,1945,1457,0,0
728,-433,0,0,0,0,0,0,0,0,0,-1,1952,1457,0,0
735,-433,0,0,0,0,0,0,0,0,0,-1,1959,1457,0,0
742,-433,0,0,0,0,0,0,0,0,0,-1,1966,1457,0,0
749,-433,0,0,0,0,0,0,0,0,0,-1,1973,1457,0,0
756,-433,0,0,0,0,0,0,0,0,0,-1,1980,1457,0,0
763,-433,0,0,0,0,0,0,0,0,0,-1,1987,1457,0,0
770,-433,0,0,0,0,0,0,0,0,0,-1,1994,1457,0,0
777,-433,0,0,0,0,0,0,0,0,0,-1,2001,1457,0,0
784,-433,0,0,0,0,0,0,0,0,0,-1,2008,1457,0,0
791,-433,0,0,0,0,0,0,0,0,0,-1,2015,1457,0,0
798,-433,0,0,0,0,0,0,0,0,0,-1,2022,1457,0,0
805,-433,0,0,0,0,0,0,0,0,0,-1,2029,1457,0,0
812,-433,0,0,0,0,0,0,0,0,0,-1,2036,1457,0,0
-700,-440,0,0,0,0,0,0,0,0,0,-1,524,1464,0,0
-693,-440,0,0,0,0,0,0,0,0,0,-1,531,1464,0,0
-686,-440,0,0,0,0,0,0,0,0,0,-1,538,1464,0,0
-679,-440,0,0,0,0,0,0,0,0,0,-1,545,1464,0,0
-672,-440,0,0,0,0,0,0,0,0,0,-1,552,1464,0,0
-665,-440,0,0,0,0,0,0,0,0,0,-1,559,1464,0,0
-658,-440,0,0,0,0,0,0,0,0,0,-1,566,1464,0,0
-651,-440,0,0,0,0,0,0,0,0,0,-1,573,1464,0,0
-644,-440,0,0,0,0,0,0,0,0,0,-1,580,1464,0,0
-637,-440,0,0,0,0,0,0,0,0,0,-1,587,1464,0,0
-630,-440,0,0,0,0,0,0,0,0,0,-1,594,1464,0,0
-623,-440,0,0,0,0,0,0,0,0,0,-1,601,1464,0,0
-616,-440,0,0,0,0,0,0,0,0,0,-1,608,1464,0,0
-609,-440,0,0,0,0,0,0,0,0,0,-1,615,1464,0,0
-602,-440,0,0,0,0,0,0,0,0,0,-1,622,1464,0,0
-595,-440,0,0,0,0,0,0,0,0,0,-1,629,1464,0,0
-588,-440,0,0,0,0,0,0,0,0,0,-1,636,1464,0,0
-581,-440,1.78094,-1.69006,-0.0576553,0.0320802,0.0328639,0.0428285,-0.0684036,1.25471,0.0647833,0.0463915,643,1464,1.78097,1.69009
-574,-440,1.20819,-1.14832,-0.0435658,0.0291614,0.024411,0.0365952,-0.0509996,1.27519,0.0508003,0.0425502,650,1464,1.20819,1.14833
-567,-440,0.992065,-0.96167,-0.0323733,0.0247343,0.0175359,0.0296892,-0.0373281,1.29542,0.0387762,0.0428944,657,1464,0.992053,0.961678
-560,-440,0.648804,-1.12695,-0.02357,0.0198189,0.0120765,0.0229537,-0.0267047,1.31682,0.0286975,0.0443867,664,1464,0.648777,1.12692
-553,-440,0.395935,-1.30298,0,0,0,0,0,0,0,-1,671,1464,0.395929,1.30301
-546,-440,0.167969,-0.88147,-0.011455,0.0107114,0.00465834,0.0116506,-0.0123942,1.37185,0.0138845,0.0415914,678,1464,0.16797,0.881524
-539,-440,-0.0293579,-0.378174,-0.00769982,0.00712363,0.00242905,0.00751152,-0.00808771,1.41245,0.00900826,0.0431018,685,1464,-0.0293294,0.378197
-532,-440,-0.104614,-0.0250244,-0.00444752,0.00486726,0.000341338,0.00487975,-0.00446001,1.53422,0.00539413,0.0316341,692,1464,-0.104611,0.025012
-525,-440,-0.0970459,-0.0529785,-0.00227947,0.00186905,-0.000834085,0.00203047,-0.00244089,-1.37963,0.00258516,0.0123722,699,1464,-0.0970449,0.053
-518,-440,-0.0812378,-0.0631104,-0.00116509,-3.15567e-05,-0.00148471,0.000990886,-0.00218754,-0.96773,0.00187791,0.0101588,706,1464,-0.0812206,0.0630663
-511,-440,-0.0727539,-0.0533447,-0.000634293,-0.00105537,-0.00124961,0.000422392,-0.00211206,-0.701941,0.00156792,0.0129965,713,1464,-0.0727712,0.0532874
-504,-440,-0.0758057,-0.0512695,-0.000323977,-0.00172732,-0.000777621,2.17477e-05,-0.00207304,-0.418348,0.00138933,0.0176875,720,1464,-0.0757845,0.0512148
-497,-440,-0.0723877,-0.0675049,-0.000616219,-0.00181303,4.97728e-05,-0.000614153,-0.00181509,0.0414925,0.00106604,0.0207888,727,1464,-0.0724166,0.0674911
-490,-440,-0.069519,-0.0794678,-0.000964716,-0.00068618,0.000655692,-0.000155129,-0.00149577,0.890042,0.000949701,0.0203063,734,1464,-0.0695016,0.079419
-483,-440,-0.0675049,-0.0800781,-0.00152786,0.000654956,0.00150921,0.00142604,-0.00229895,1.09845,0.00217022,0.017834,741,1464,-0.0675189,0.0801118
-476,-440,-0.0788574,-0.0881348,-0.00260927,0.00341177,0.00237672,0.00423688,-0.00343438,1.23665,0.00443707,0.0123269,748,1464,-0.0788357,0.0880993
-469,-440,-0.0774536,-0.0843506,-0.00359972,0.0080621,0.00290669,0.00874643,-0.00428405,1.33957,0.00766879,0.0125179,755,1464,-0.0774694,0.0843387
-462,-440,-0.0549927,-0.0688477,-0.00432223,0.0126805,0.00338527,0.0133298,-0.00497145,1.38132,0.0109274,0.0127234,762,1464,-0.0550067,0.0688756
-455,-440,-0.0679321,-0.0556641,-0.00465818,0.0186473,0.00341047,0.0191361,-0.00514701,1.42843,0.014775,0.0118133,769,1464,-0.0679359,0.0556844
-448,-440,-0.117004,-0.041626,-0.00467924,0.0270085,0.00280798,0.0272554,-0.00492614,1.48309,0.0200154,0.0191791,776,1464,-0.117012,0.0416329
-441,-440,-0.27124,0.139404,-0.00467273,0.0361036,0.00112096,0.0361344,-0.00470352,1.54333,0.0258007,0.0325678,783,1464,-0.271232,-0.139419
-434,-440,-0.196472,0.535522,-0.00480034,0.0460396,-0.000853818,0.046054,-0.00481468,-1.55401,0.0324269,0.0408948,790,1464,-0.196476,-0.535548
-427,-440,-0.525085,1.10413,-0.00427202,0.0562764,-0.00389001,0.0565252,-0.00452092,-1.5069,0.0392773,0.040457,797,1464,-0.525088,-1.10416
-420,-440,-0.805542,1.21619,-0.00325132,0.0659428,-0.00796677,0.0668482,-0.00415673,-1.45763,0.0460137,0.0438584,804,1464,-0.805551,-1.21623
-413,-440,-0.420776,1.17712,-0.00149498,0.074789,-0.0131199,0.0769824,-0.00368836,-1.40515,0.0525942,0.0457026,811,1464,-0.420805,-1.17716
-406,-440,-0.320679,0.996826,0.000694561,0.0843693,-0.0192996,0.0886062,-0.00354236,-1.35469,0.0602863,0.0457769,818,1464,-0.320682,-0.99681
-399,-440,0.314026,0.376953,0.00310813,0.0941351,-0.0266353,0.101356,-0.00411278,-1.30606,0.0689825,0.0445358,825,1464,0.314037,-0.376964
-392,-440,0.967834,-0.12915,0.00611993,0.104094,-0.03597,0.115881,-0.00566784,-1.25411,0.0792111,0.0467642,832,1464,0.967822,0.12913
-385,-440,1.53363,-0.283813,0,0,0,0,0,0,0,-1,839,1464,1.5336,0.283848
-378,-440,-2.19324,0.340942,0,0,0,0,0,0,0,-1,846,1464,-2.19321,-0.34095
-371,-440,0,0,0,0,0,0,0,0,0,-1,853,1464,0,0
-364,-440,0,0,0,0,0,0,0,0,0,-1,860,1464,0,0
-357,-440,0,0,0,0,0,0,0,0,0,-1,867,1464,0,0
-350,-440,0,0,0,0,0,0,0,0,0,-1,874,1464,0,0
-343,-440,0,0,0,0,0,0,0,0,0,-1,881,1464,0,0
-336,-440,0,0,0,0,0,0,0,0,0,-1,888,1464,0,0
-329,-440,0,0,0,0,0,0,0,0,0,-1,895,1464,0,0
-322,-440,0,0,0,0,0,0,0,0,0,-1,902,1464,0,0
-315,-440,0,0,0,0,0,0,0,0,0,-1,909,1464,0,0
-308,-440,0,0,0,0,0,0,0,0,0,-1,916,1464,0,0
-301,-440,0,0,0,0,0,0,0,0,0,-1,923,1464,0,0
-294,-440,0,0,0,0,0,0,0,0,0,-1,930,1464,0,0
-287,-440,0,0,0,0,0,0,0,0,0,-1,937,1464,0,0
-280,-440,0,0,0,0,0,0,0,0,0,-1,944,1464,0,0
-273,-440,0,0,0,0,0,0,0,0,0,-1,951,1464,0,0
-266,-440,0,0,0,0,0,0,0,0,0,-1,958,1464,0,0
-259,-440,0,0,0,0,0,0,0,0,0,-1,965,1464,0,0
-252,-440,0,0,0,0,0,0,0,0,0,-1,972,1464,0,0
-245,-440,0,0,0,0,0,0,0,0,0,-1,979,1464,0,0
-238,-440,0,0,0,0,0,0,0,0,0,-1,986,1464,0,0
-231,-440,0,0,0,0,0,0,0,0,0,-1,993,1464,0,0
-224,-440,0,0,0,0,0,0,0,0,0,-1,1000,1464,0,0
-217,-440,0,0,0,0,0,0,0,0,0,-1,1007,1464,0,0
-210,-440,0,0,0,0,0,0,0,0,0,-1,1014,1464,0,0
-203,-440,0,0,0,0,0,0,0,0,0,-1,1021,1464,0,0
-196,-440,0,0,0,0,0,0,0,0,0,-1,1028,1464,0,0
-189,-440,0,0,0,0,0,0,0,0,0,-1,1035,1464,0,0
-182,-440,0,0,0,0,0,0,0,0,0,-1,1042,1464,0,0
-175,-440,0,0,0,0,0,0,0,0,0,-1,1049,1464,0,0
-168,-440,0,0,0,0,0,0,0,0,0,-1,1056,1464,0,0
-161,-440,0,0,0,0,0,0,0,0,0,-1,1063,1464,0,0
-154,-440,0,0,0,0,0,0,0,0,0,-1,1070,1464,0,0
-147,-440,0,0,0,0,0,0,0,0,0,-1,1077,1464,0,0
-140,-440,0,0,0,0,0,0,0,0,0,-1,1084,1464,0,0
-133,-440,0,0,0,0,0,0,0,0,0,-1,1091,1464,0,0
-126,-440,0,0,0,0,0,0,0,0,0,-1,1098,1464,0,0
-119,-440,0,0,0,0,0,0,0,0,0,-1,1105,1464,0,0
-112,-440,0,0,0,0,0,0,0,0,0,-1,1112,1464,0,0
-105,-440,0,0,0,0,0,0,0,0,0,-1,1119,1464,0,0
-98,-440,0,0,0,0,0,0,0,0,0,-1,1126,1464,0,0
-91,-440,0,0,0,0,0,0,0,0,0,-1,1133,1464,0,0
-84,-440,0,0,0,0,0,0,0,0,0,-1,1140,1464,0,0
-77,-440,0,0,0,0,0,0,0,0,0,-1,1147,1464,0,0
-70,-440,0,0,0,0,0,0,0,0,0,-1,1154,1464,0,0
-63,-440,0,0,0,0,0,0,0,0,0,-1,1161,1464,0,0
-56,-440,0,0,0,0,0,0,0,0,0,-1,1168,1464,0,0
-49,-440,0,0,0,0,0,0,0,0,0,-1,1175,1464,0,0
-42,-440,0,0,0,0,0,0,0,0,0,-1,1182,1464,0,0
-35,-440,0,0,0,0,0,0,0,0,0,-1,1189,1464,0,0
-28,-440,0,0,0,0,0,0,0,0,0,-1,1196,1464,0,0
-21,-440,0,0,0,0,0,0,0,0,0,-1,1203,1464,0,0
-14,-440,0,0,0,0,0,0,0,0,0,-1,1210,1464,0,0
-7,-440,0,0,0,0,0,0,0,0,0,-1,1217,1464,0,0
0,-440,0,0,0,0,0,0,0,0,0,-1,1224,1464,0,0
7,-440,0,0,0,0,0,0,0,0,0,-1,1231,1464,0,0
14,-440,0,0,0,0,0,0,0,0,0,-1,1238,1464,0,0
21,-440,0,0,0,0,0,0,0,0,0,-1,1245,1464,0,0
28,-440,0,0,0,0,0,0,0,0,0,-1,1252,1464,0,0
35,-440,0,0,0,0,0,0,0,0,0,-1,1259,1464,0,0
42,-440,0,0,0,0,0,0,0,0,0,-1,1266,1464,0,0
49,-440,0,0,0,0,0,0,0,0,0,-1,1273,1464,0,0
56,-440,0,0,0,0,0,0,0,0,0,-1,1280,1464,0,0
63,-440,0,0,0,0,0,0,0,0,0,-1,1287,1464,0,0
70,-440,0,0,0,0,0,0,0,0,0,-1,1294,1464,0,0
77,-440,0,0,0,0,0,0,0,0,0,-1,1301,1464,0,0
84,-440,0,0,0,0,0,0,0,0,0,-1,1308,1464,0,0
91,-440,0,0,0,0,0,0,0,0,0,-1,1315,1464,0,0
98,-440,0,0,0,0,0,0,0,0,0,-1,1322,1464,0,0
105,-440,0,0,0,0,0,0,0,0,0,-1,1329,1464,0,0
112,-440,0,0,0,0,0,0,0,0,0,-1,1336,1464,0,0
119,-440,0,0,0,0,0,0,0,0,0,-1,1343,1464,0,0
126,-440,0,0,0,0,0,0,0,0,0,-1,1350,1464,0,0
133,-440,0,0,0,0,0,0,0,0,0,-1,1357,1464,0,0
140,-440,0,0,0,0,0,0,0,0,0,-1,1364,1464,0,0
147,-440,0,0,0,0,0,0,0,0,0,-1,1371,1464,0,0
154,-440,0,0,0,0,0,0,0,0,0,-1,1378,1464,0,0
161,-440,0,0,0,0,0,0,0,0,0,-1,1385,1464,0,0
168,-440,0,0,0,0,0,0,0,0,0,-1,1392,1464,0,0
175,-440,0,0,0,0,0,0,0,0,0,-1,1399,1464,0,0
182,-440,0,0,0,0,0,0,0,0,0,-1,1406,1464,0,0
189,-440,0,0,0,0,0,0,0,0,0,-1,1413,1464,0,0
196,-440,0,0,0,0,0,0,0,0,0,-1,1420,1464,0,0
203,-440,0,0,0,0,0,0,0,0,0,-1,1427,1464,0,0
210,-440,0,0,0,0,0,0,0,0,0,-1,1434,1464,0,0
217,-440,0,0,0,0,0,0,0,0,0,-1,1441,1464,0,0
224,-440,0,0,0,0,0,0,0,0,0,-1,1448,1464,0,0
231,-440,0,0,0,0,0,0,0,0,0,-1,1455,1464,0,0
238,-440,0,0,0,0,0,0,0,0,0,-1,1462,1464,0,0
245,-440,0,0,0,0,0,0,0,0,0,-1,1469,1464,0,0
252,-440,0,0,0,0,0,0,0,0,0,-1,1476,1464,0,0
259,-440,0,0,0,0,0,0,0,0,0,-1,1483,1464,0,0
266,-440,0,0,0,0,0,0,0,0,0,-1,1490,1464,0,0
273,-440,0,0,0,0,0,0,0,0,0,-1,1497,1464,0,0
280,-440,0,0,0,0,0,0,0,0,0,-1,1504,1464,0,0
287,-440,0,0,0,0,0,0,0,0,0,-1,1511,1464,0,0
294,-440,0,0,0,0,0,0,0,0,0,-1,1518,1464,0,0
301,-440,0,0,0,0,0,0,0,0,0,-1,1525,1464,0,0
308,-440,0,0,0,0,0,0,0,0,0,-1,1532,1464,0,0
315,-440,0,0,0,0,0,0,0,0,0,-1,1539,1464,0,0
322,-440,0,0,0,0,0,0,0,0,0,-1,1546,1464,0,0
329,-440,0,0,0,0,0,0,0,0,0,-1,1553,1464,0,0
336,-440,0,0,0,0,0,0,0,0,0,-1,1560,1464,0,0
343,-440,0,0,0,0,0,0,0,0,0,-1,1567,1464,0,0
350,-440,0,0,0,0,0,0,0,0,0,-1,1574,1464,0,0
357,-440,0,0,0,0,0,0,0,0,0,-1,1581,1464,0,0
364,-440,0,0,0,0,0,0,0,0,0,-1,1588,1464,0,0
371,-440,0,0,0,0,0,0,0,0,0,-1,1595,1464,0,0
378,-440,0,0,0,0,0,0,0,0,0,-1,1602,1464,0,0
385,-440,0,0,0,0,0,0,0,0,0,-1,1609,1464,0,0
392,-440,0,0,0,0,0,0,0,0,0,-1,1616,1464,0,0
399,-440,0,0,0,0,0,0,0,0,0,-1,1623,1464,0,0
406,-440,0,0,0,0,0,0,0,0,0,-1,1630,1464,0,0
413,-440,0,0,0,0,0,0,0,0,0,-1,1637,1464,0,0
420,-440,0,0,0,0,0,0,0,0,0,-1,1644,1464,0,0
427,-440,0,0,0,0,0,0,0,0,0,-1,1651,1464,0,0
434,-440,0,0,0,0,0,0,0,0,0,-1,1658,1464,0,0
441,-440,0,0,0,0,0,0,0,0,0,-1,1665,1464,0,0
448,-440,0,0,0,0,0,0,0,0,0,-1,1672,1464,0,0
455,-440,0,0,0,0,0,0,0,0,0,-1,1679,1464,0,0
462,-440,0,0,0,0,0,0,0,0,0,-1,1686,1464,0,0
469,-440,0,0,0,0,0,0,0,0,0,-1,1693,1464,0,0
476,-440,0,0,0,0,0,0,0,0,0,-1,1700,1464,0,0
483,-440,0,0,0,0,0,0,0,0,0,-1,1707,1464,0,0
490,-440,0,0,0,0,0,0,0,0,0,-1,1714,1464,0,0
497,-440,-0.977783,-3.57605,0,0,0,0,0,0,0,-1,1721,1464,-0.977844,3.57607
504,-440,-0.610107,-3.16553,0,0,0,0,0,0,0,-1,1728,1464,-0.610049,3.16559
511,-440,0.0302734,-2.42871,0,0,0,0,0,0,0,-1,1735,1464,0.0302403,2.42876
518,-440,0.186768,-1.92004,0.0593584,-0.0273568,0.0124574,0.0611125,-0.0291109,0.13989,0.0531715,0.0474919,1742,1464,0.186731,1.92002
525,-440,0.567993,-1.41174,0.0562555,-0.0191158,0.0165045,0.0597112,-0.0225715,0.206394,0.0490925,0.0468222,1749,1464,0.568034,1.41179
532,-440,0.722656,-0.628418,0.0522204,-0.0109513,0.0190153,0.0575025,-0.0162334,0.270952,0.0447388,0.0434171,1756,1464,0.72265,0.62844
539,-440,0.728638,0.0354004,0.0467452,-0.00434145,0.0197645,0.0534989,-0.0110951,0.329268,0.0398821,0.0457494,1763,1464,0.728625,-0.0353582
546,-440,0.970581,0.41687,0.0423097,0.00275274,0.0199734,0.0506404,-0.00557796,0.395151,0.0357649,0.0432459,1770,1464,0.970522,-0.416818
553,-440,0.92041,0.882324,0.038283,0.00809364,0.0193152,0.0477021,-0.00132552,0.453722,0.0322523,0.0427155,1777,1464,0.92044,-0.882294
560,-440,0.760254,0.655884,0.0341491,0.0123488,0.0184803,0.0447043,0.00179355,0.518945,0.0292234,0.0436353,1784,1464,0.760202,-0.655916
567,-440,0.430664,0.401245,0.02977,0.0140651,0.0169935,0.0406376,0.00319752,0.568968,0.0260913,0.0459985,1791,1464,0.430723,-0.40124
574,-440,0.0778809,0.0983887,0.0251324,0.0152824,0.0148665,0.0358685,0.00454635,0.625447,0.0225502,0.043732,1798,1464,0.0778284,-0.0983695
581,-440,0.00378418,-0.0114746,0.0209908,0.015163,0.0128027,0.031207,0.00494674,0.673504,0.0193675,0.0291442,1805,1464,0.00383472,0.0115181
588,-440,-0.048584,-0.0374756,0.016735,0.0139652,0.010435,0.0258766,0.00482364,0.719426,0.0158891,0.0198698,1812,1464,-0.0485877,0.0375222
595,-440,-0.0657959,-0.0444336,0.0128867,0.0111085,0.00778291,0.0198311,0.00416409,0.728526,0.0120745,0.0165387,1819,1464,-0.0657897,0.0444515
602,-440,-0.052124,-0.038208,0.00960705,0.0088871,0.0062454,0.0155028,0.00299131,0.756611,0.00949648,0.0159585,1826,1464,-0.0520703,0.0382174
609,-440,-0.0723877,-0.0518799,0.00722694,0.00637307,0.00433964,0.0111606,0.00243942,0.736366,0.00677526,0.013708,1833,1464,-0.0723483,0.0518983
616,-440,-0.0917969,-0.0493164,0.00507469,0.00378134,0.00266331,0.00716871,0.00168732,0.666299,0.00432777,0.015076,1840,1464,-0.0917934,0.0493579
623,-440,-0.0805664,-0.0601807,0.00315343,0.00250202,0.00114337,0.00401658,0.00163887,0.646643,0.00233201,0.0124306,1847,1464,-0.0805222,0.0601928
630,-440,-0.0822754,-0.0675049,0.00144351,0.00185345,-0.000514314,0.00220213,0.00109483,-0.975016,0.00127141,0.0101487,1854,1464,-0.0822523,0.0675327
637,-440,-0.0709229,-0.0480957,0.000523641,0.00187662,-0.00158249,0.00292115,-0.00052089,-0.987385,0.00214228,0.0140991,1861,1464,-0.0708877,0.0480845
644,-440,-0.0609131,-0.0478516,0.000993931,0.00364849,-0.00156263,0.00437145,0.000270973,-1.13747,0.0028283,0.0132254,1868,1464,-0.0608941,0.047829
651,-440,-0.0743408,-0.0429688,0.00178411,0.00558493,-0.00130833,0.00599174,0.00137729,-1.26933,0.00362372,0.0106105,1875,1464,-0.0743665,0.0430056
658,-440,-0.0841064,-0.0622559,0.00270226,0.00841425,-0.000944355,0.00856633,0.00255018,-1.41113,0.00507892,0.0129488,1882,1464,-0.0841591,0.062273
665,-440,-0.0411377,-0.0821533,0.00374513,0.0118014,-0.000627656,0.01185,0.00369652,-1.49351,0.00700106,0.0256271,1889,1464,-0.0411741,0.0821221
672,-440,0.0372314,-0.234375,0.00482604,0.0161436,-0.00024822,0.0161491,0.00482059,-1.54888,0.00957271,0.0384918,1896,1464,0.0372362,0.234338
679,-440,0.123535,-0.398193,0.00645269,0.0212384,0.000504858,0.0212556,0.00643547,1.5367,0.0125862,0.0413091,1903,1464,0.123583,0.398203
686,-440,0.00830078,-0.372559,0.00857088,0.0274584,0.00169594,0.0276095,0.00841981,1.48195,0.0163396,0.0419592,1910,1464,0.0083386,0.372503
693,-440,-0.338867,-0.267212,0,0,0,0,0,0,0,-1,1917,1464,-0.338884,0.267221
700,-440,-0.112183,-0.378418,0,0,0,0,0,0,0,-1,1924,1464,-0.112148,0.378467
707,-440,0,0,0,0,0,0,0,0,0,-1,1931,1464,0,0
714,-440,0,0,0,0,0,0,0,0,0,-1,1938,1464,0,0
721,-440,0,0,0,0,0,0,0,0,0,-1,1945,1464,0,0
728,-440,0,0,0,0,0,0,0,0,0,-1,1952,1464,0,0
735,-440,0,0,0,0,0,0,0,0,0,-1,1959,1464,0,0
742,-440,0,0,0,0,0,0,0,0,0,-1,1966,1464,0,0
749,-440,0,0,0,0,0,0,0,0,0,-1,1973,1464,0,0
756,-440,0,0,0,0,0,0,0,0,0,-1,1980,1464,0,0
763,-440,0,0,0,0,0,0,0,0,0,-1,1987,1464,0,0
770,-440,0,0,0,0,0,0,0,0,0,-1,1994,1464,0,0
777,-440,0,0,0,0,0,0,0,0,0,-1,2001,1464,0,0
784,-440,0,0,0,0,0,0,0,0,0,-1,2008,1464,0,0
791,-440,0,0,0,0,0,0,0,0,0,-1,2015,1464,0,0
798,-440,0,0,0,0,0,0,0,0,0,-1,2022,1464,0,0
805,-440,0,0,0,0,0,0,0,0,0,-1,2029,1464,0,0
812,-440,0,0,0,0,0,0,0,0,0,-1,2036,1464,0,0
-700,-447,0,0,0,0,0,0,0,0,0,-1,524,1471,0,0
-693,-447,0,0,0,0,0,0,0,0,0,-1,531,1471,0,0
-686,-447,0,0,0,0,0,0,0,0,0,-1,538,1471,0,0
-679,-447,0,0,0,0,0,0,0,0,0,-1,545,1471,0,0
-672,-447,0,0,0,0,0,0,0,0,0,-1,552,1471,0,0
-665,-447,0,0,0,0,0,0,0,0,0,-1,559,1471,0,0
-658,-447,0,0,0,0,0,0,0,0,0,-1,566,1471,0,0
-651,-447,0,0,0,0,0,0,0,0,0,-1,573,1471,0,0
-644,-447,0,0,0,0,0,0,0,0,0,-1,580,1471,0,0
-637,-447,0,0,0,0,0,0,0,0,0,-1,587,1471,0,0
-630,-447,0,0,0,0,0,0,0,0,0,-1,594,1471,0,0
-623,-447,0,0,0,0,0,0,0,0,0,-1,601,1471,0,0
-616,-447,0,0,0,0,0,0,0,0,0,-1,608,1471,0,0
-609,-447,0,0,0,0,0,0,0,0,0,-1,615,1471,0,0
-602,-447,0,0,0,0,0,0,0,0,0,-1,622,1471,0,0
-595,-447,0,0,0,0,0,0,0,0,0,-1,629,1471,0,0
-588,-447,0,0,0,0,0,0,0,0,0,-1,636,1471,0,0
-581,-447,2.11792,-1.93896,0,0,0,0,0,0,0,-1,643,1471,2.11792,1.93891
-574,-447,1.37042,-1.15833,0,0,0,0,0,0,0,-1,650,1471,1.37039,1.15836
-567,-447,1.36407,-1.48987,0,0,0,0,0,0,0,-1,657,1471,1.3641,1.48987
-560,-447,-0.539734,0.617188,0,0,0,0,0,0,0,-1,664,1471,-0.539716,-0.617128
-553,-447,-0.916748,0.854126,0,0,0,0,0,0,0,-1,671,1471,-0.916754,-0.85416
-546,-447,-0.791321,0.655029,-0.0110751,0.00813979,0.00401858,0.00894638,-0.0118817,1.37271,0.0120648,0.0445561,678,1471,-0.791318,-0.655062
-539,-447,-0.536987,0.546021,-0.00725331,0.00509721,0.00179919,0.00535397,-0.00751007,1.42904,0.00746175,0.0466225,685,1471,-0.53697,-0.545962
-532,-447,-0.173218,0.0358887,-0.00409206,0.00330406,-0.000221481,0.00331069,-0.00409868,-1.54089,0.00428586,0.0403716,692,1471,-0.173235,-0.0359245
-525,-447,-0.10376,-0.0360107,-0.00203794,0.000830121,-0.0013021,0.00133307,-0.0025409,-1.20219,0.00227258,0.0233887,699,1471,-0.10379,0.0359647
-518,-447,-0.0771484,-0.0661621,-0.00106218,-0.000624339,-0.00183401,0.00100377,-0.00269029,-0.8448,0.00220561,0.0131782,706,1471,-0.0771732,0.0661292
-511,-447,-0.0776367,-0.0531006,-0.000619584,-0.00145769,-0.00163816,0.000652273,-0.00272955,-0.66018,0.00207164,0.0129814,713,1471,-0.077612,0.0530735
-504,-447,-0.0675049,-0.052002,-0.000392177,-0.00178551,-0.00121877,0.000314985,-0.00249267,-0.525754,0.00177611,0.0197685,720,1471,-0.0675251,0.0520507
-497,-447,-0.0730591,-0.0772705,-0.000766387,-0.00148068,-0.000560105,-0.000459251,-0.00178782,-0.501579,0.0010721,0.0250965,727,1471,-0.0730313,0.0772466
-490,-447,-0.069519,-0.0814209,-0.00118901,-0.000275382,1.19969e-05,-0.000275224,-0.00118917,1.55767,0.000718819,0.0224993,734,1471,-0.0695412,0.0814221
-483,-447,-0.0774536,-0.105591,-0.00181524,0.00106216,0.000850935,0.00129497,-0.00204805,1.30374,0.00194635,0.0189486,741,1471,-0.0774234,0.105563
-476,-447,-0.0689697,-0.113525,-0.00287487,0.00363406,0.00165889,0.00403246,-0.00327327,1.3351,0.00422555,0.0137319,748,1471,-0.0689677,0.113544
-469,-447,-0.0831909,-0.0847168,-0.00370693,0.00773058,0.00210507,0.00810571,-0.00408207,1.39444,0.0071633,0.0127836,755,1471,-0.0831823,0.0846645
-462,-447,-0.074707,-0.0552979,-0.00422635,0.0116132,0.0024811,0.0119927,-0.00460589,1.419,0.0098945,0.0125272,762,1471,-0.0746868,0.0552908
-455,-447,-0.0874634,-0.0273438,-0.00438797,0.0164307,0.0024544,0.0167161,-0.00467342,1.45502,0.0129853,0.0113748,769,1471,-0.0874706,0.0273297
-448,-447,-0.109985,-0.052002,-0.00432033,0.0231383,0.00196577,0.0232783,-0.00446035,1.49969,0.0171995,0.0140904,776,1471,-0.109979,0.0519906
-441,-447,-0.11792,-0.0571289,-0.00432539,0.030179,0.000612319,0.0301899,-0.00433626,1.55306,0.0217168,0.024629,783,1471,-0.117902,0.0570905
-434,-447,-0.0831299,0.0192871,-0.00444597,0.0376865,-0.000979026,0.0377092,-0.0044687,-1.54758,0.0267537,0.0342379,790,1471,-0.083129,-0.0192269
-427,-447,0.0344849,0.231689,-0.00398892,0.0450579,-0.00349813,0.0453061,-0.00423716,-1.49995,0.031711,0.0370173,797,1471,0.0345142,-0.231707
-420,-447,0.088623,0.239746,-0.00316746,0.0515589,-0.00690015,0.0524155,-0.00402405,-1.44729,0.0363593,0.043759,804,1471,0.0885937,-0.239688
-413,-447,-0.119934,0.234009,-0.00179415,0.0572516,-0.011232,0.059316,-0.00385858,-1.38903,0.0408909,0.048063,811,1471,-0.119921,-0.233988
-406,-447,0.207642,0.0358887,0,0,0,0,0,0,0,-1,818,1471,0.207636,-0.0358823
-399,-447,0.879272,-0.894409,0,0,0,0,0,0,0,-1,825,1471,0.879254,0.894431
-392,-447,-0.997192,-1.29333,0,0,0,0,0,0,0,-1,832,1471,-0.99718,1.29329
-385,-447,-1.27161,-0.810547,0,0,0,0,0,0,0,-1,839,1471,-1.27159,0.810601
-378,-447,-1.76587,0.830322,0,0,0,0,0,0,0,-1,846,1471,-1.76588,-0.830268
-371,-447,-1.4538,0.400024,0,0,0,0,0,0,0,-1,853,1471,-1.45382,-0.400035
-364,-447,0,0,0,0,0,0,0,0,0,-1,860,1471,0,0
-357,-447,0,0,0,0,0,0,0,0,0,-1,867,1471,0,0
-350,-447,0,0,0,0,0,0,0,0,0,-1,874,1471,0,0
-343,-447,0,0,0,0,0,0,0,0,0,-1,881,1471,0,0
-336,-447,0,0,0,0,0,0,0,0,0,-1,888,1471,0,0
-329,-447,0,0,0,0,0,0,0,0,0,-1,895,1471,0,0
-322,-447,0,0,0,0,0,0,0,0,0,-1,902,1471,0,0
-315,-447,0,0,0,0,0,0,0,0,0,-1,909,1471,0,0
-308,-447,0,0,0,0,0,0,0,0,0,-1,916,1471,0,0
-301,-447,0,0,0,0,0,0,0,0,0,-1,923,1471,0,0
-294,-447,0,0,0,0,0,0,0,0,0,-1,930,1471,0,0
-287,-447,0,0,0,0,0,0,0,0,0,-1,937,1471,0,0
-280,-447,0,0,0,0,0,0,0,0,0,-1,944,1471,0,0
-273,-447,0,0,0,0,0,0,0,0,0,-1,951,1471,0,0
-266,-447,0,0,0,0,0,0,0,0,0,-1,958,1471,0,0
-259,-447,0,0,0,0,0,0,0,0,0,-1,965,1471,0,0
-252,-447,0,0,0,0,0,0,0,0,0,-1,972,1471,0,0
-245,-447,0,0,0,0,0,0,0,0,0,-1,979,1471,0,0
-238,-447,0,0,0,0,0,0,0,0,0,-1,986,1471,0,0
-231,-447,0,0,0,0,0,0,0,0,0,-1,993,1471,0,0
-224,-447,0,0,0,0,0,0,0,0,0,-1,1000,1471,0,0
-217,-447,0,0,0,0,0,0,0,0,0,-1,1007,1471,0,0
-210,-447,0,0,0,0,0,0,0,0,0,-1,1014,1471,0,0
-203,-447,0,0,0,0,0,0,0,0,0,-1,1021,1471,0,0
-196,-447,0,0,0,0,0,0,0,0,0,-1,1028,1471,0,0
-189,-447,0,0,0,0,0,0,0,0,0,-1,1035,1471,0,0
-182,-447,0,0,0,0,0,0,0,0,0,-1,1042,1471,0,0
-175,-447,0,0,0,0,0,0,0,0,0,-1,1049,1471,0,0
-168,-447,0,0,0,0,0,0,0,0,0,-1,1056,1471,0,0
-161,-447,0,0,0,0,0,0,0,0,0,-1,1063,1471,0,0
-154,-447,0,0,0,0,0,0,0,0,0,-1,1070,1471,0,0
-147,-447,0,0,0,0,0,0,0,0,0,-1,1077,1471,0,0
-140,-447,0,0,0,0,0,0,0,0,0,-1,1084,1471,0,0
-133,-447,0,0,0,0,0,0,0,0,0,-1,1091,1471,0,0
-126,-447,0,0,0,0,0,0,0,0,0,-1,1098,1471,0,0
-119,-447,0,0,0,0,0,0,0,0,0,-1,1105,1471,0,0
-112,-447,0,0,0,0,0,0,0,0,0,-1,1112,1471,0,0
-105,-447,0,0,0,0,0,0,0,0,0,-1,1119,1471,0,0
-98,-447,0,0,0,0,0,0,0,0,0,-1,1126,1471,0,0
-91,-447,0,0,0,0,0,0,0,0,0,-1,1133,1471,0,0
-84,-447,0,0,0,0,0,0,0,0,0,-1,1140,1471,0,0
-77,-447,0,0,0,0,0,0,0,0,0,-1,1147,1471,0,0
-70,-447,0,0,0,0,0,0,0,0,0,-1,1154,1471,0,0
-63,-447,0,0,0,0,0,0,0,0,0,-1,1161,1471,0,0
-56,-447,0,0,0,0,0,0,0,0,0,-1,1168,1471,0,0
-49,-447,0,0,0,0,0,0,0,0,0,-1,1175,1471,0,0
-42,-447,0,0,0,0,0,0,0,0,0,-1,1182,1471,0,0
-35,-447,0,0,0,0,0,0,0,0,0,-1,1189,1471,0,0
-28,-447,0,0,0,0,0,0,0,0,0,-1,1196,1471,0,0
-21,-447,0,0,0,0,0,0,0,0,0,-1,1203,1471,0,0
-14,-447,0,0,0,0,0,0,0,0,0,-1,1210,1471,0,0
-7,-447,0,0,0,0,0,0,0,0,0,-1,1217,1471,0,0
0,-447,0,0,0,0,0,0,0,0,0,-1,1224,1471,0,0
7,-447,0,0,0,0,0,0,0,0,0,-1,1231,1471,0,0
14,-447,0,0,0,0,0,0,0,0,0,-1,1238,1471,0,0
21,-447,0,0,0,0,0,0,0,0,0,-1,1245,1471,0,0
28,-447,0,0,0,0,0,0,0,0,0,-1,1252,1471,0,0
35,-447,0,0,0,0,0,0,0,0,0,-1,1259,1471,0,0
42,-447,0,0,0,0,0,0,0,0,0,-1,1266,1471,0,0
49,-447,0,0,0,0,0,0,0,0,0,-1,1273,1471,0,0
56,-447,0,0,0,0,0,0,0,0,0,-1,1280,1471,0,0
63,-447,0,0,0,0,0,0,0,0,0,-1,1287,1471,0,0
70,-447,0,0,0,0,0,0,0,0,0,-1,1294,1471,0,0
77,-447,0,0,0,0,0,0,0,0,0,-1,1301,1471,0,0
84,-447,0,0,0,0,0,0,0,0,0,-1,1308,1471,0,0
91,-447,0,0,0,0,0,0,0,0,0,-1,1315,1471,0,0
98,-447,0,0,0,0,0,0,0,0,0,-1,1322,1471,0,0
105,-447,0,0,0,0,0,0,0,0,0,-1,1329,1471,0,0
112,-447,0,0,0,0,0,0,0,0,0,-1,1336,1471,0,0
119,-447,0,0,0,0,0,0,0,0,0,-1,1343,1471,0,0
126,-447,0,0,0,0,0,0,0,0,0,-1,1350,1471,0,0
133,-447,0,0,0,0,0,0,0,0,0,-1,1357,1471,0,0
140,-447,0,0,0,0,0,0,0,0,0,-1,1364,1471,0,0
147,-447,0,0,0,0,0,0,0,0,0,-1,1371,1471,0,0
154,-447,0,0,0,0,0,0,0,0,0,-1,1378,1471,0,0
161,-447,0,0,0,0,0,0,0,0,0,-1,1385,1471,0,0
168,-447,0,0,0,0,0,0,0,0,0,-1,1392,1471,0,0
175,-447,0,0,0,0,0,0,0,0,0,-1,1399,1471,0,0
182,-447,0,0,0,0,0,0,0,0,0,-1,1406,1471,0,0
189,-447,0,0,0,0,0,0,0,0,0,-1,1413,1471,0,0
196,-447,0,0,0,0,0,0,0,0,0,-1,1420,1471,0,0
203,-447,0,0,0,0,0,0,0,0,0,-1,1427,1471,0,0
210,-447,0,0,0,0,0,0,0,0,0,-1,1434,1471,0,0
217,-447,0,0,0,0,0,0,0,0,0,-1,1441,1471,0,0
224,-447,0,0,0,0,0,0,0,0,0,-1,1448,1471,0,0
231,-447,0,0,0,0,0,0,0,0,0,-1,1455,1471,0,0
238,-447,0,0,0,0,0,0,0,0,0,-1,1462,1471,0,0
245,-447,0,0,0,0,0,0,0,0,0,-1,1469,1471,0,0
252,-447,0,0,0,0,0,0,0,0,0,-1,1476,1471,0,0
259,-447,0,0,0,0,0,0,0,0,0,-1,1483,1471,0,0
266,-447,0,0,0,0,0,0,0,0,0,-1,1490,1471,0,0
273,-447,0,0,0,0,0,0,0,0,0,-1,1497,1471,0,0
280,-447,0,0,0,0,0,0,0,0,0,-1,1504,1471,0,0
287,-447,0,0,0,0,0,0,0,0,0,-1,1511,1471,0,0
294,-447,0,0,0,0,0,0,0,0,0,-1,1518,1471,0,0
301,-447,0,0,0,0,0,0,0,0,0,-1,1525,1471,0,0
308,-447,0,0,0,0,0,0,0,0,0,-1,1532,1471,0,0
315,-447,0,0,0,0,0,0,0,0,0,-1,1539,1471,0,0
322,-447,0,0,0,0,0,0,0,0,0,-1,1546,1471,0,0
329,-447,0,0,0,0,0,0,0,0,0,-1,1553,1471,0,0
336,-447,0,0,0,0,0,0,0,0,0,-1,1560,1471,0,0
343,-447,0,0,0,0,0,0,0,0,0,-1,1567,1471,0,0
350,-447,0,0,0,0,0,0,0,0,0,-1,1574,1471,0,0
357,-447,0,0,0,0,0,0,0,0,0,-1,1581,1471,0,0
364,-447,0,0,0,0,0,0,0,0,0,-1,1588,1471,0,0
371,-447,0,0,0,0,0,0,0,0,0,-1,1595,1471,0,0
378,-447,0,0,0,0,0,0,0,0,0,-1,1602,1471,0,0
385,-447,0,0,0,0,0,0,0,0,0,-1,1609,1471,0,0
392,-447,0,0,0,0,0,0,0,0,0,-1,1616,1471,0,0
399,-447,0,0,0,0,0,0,0,0,0,-1,1623,1471,0,0
406,-447,0,0,0,0,0,0,0,0,0,-1,1630,1471,0,0
413,-447,0,0,0,0,0,0,0,0,0,-1,1637,1471,0,0
420,-447,0,0,0,0,0,0,0,0,0,-1,1644,1471,0,0
427,-447,0,0,0,0,0,0,0,0,0,-1,1651,1471,0,0
434,-447,0,0,0,0,0,0,0,0,0,-1,1658,1471,0,0
441,-447,0,0,0,0,0,0,0,0,0,-1,1665,1471,0,0
448,-447,0,0,0,0,0,0,0,0,0,-1,1672,1471,0,0
455,-447,0,0,0,0,0,0,0,0,0,-1,1679,1471,0,0
462,-447,0,0,0,0,0,0,0,0,0,-1,1686,1471,0,0
469,-447,0,0,0,0,0,0,0,0,0,-1,1693,1471,0,0
476,-447,0,0,0,0,0,0,0,0,0,-1,1700,1471,0,0
483,-447,0,0,0,0,0,0,0,0,0,-1,1707,1471,0,0
490,-447,-0.12915,-2.57031,0,0,0,0,0,0,0,-1,1714,1471,-0.129145,2.57033
497,-447,0.147705,-2.43494,0,0,0,0,0,0,0,-1,1721,1471,0.147695,2.43494
504,-447,0.305664,-2.28662,0.0510627,-0.0247242,0.0100758,0.0523794,-0.0260409,0.129943,0.0461193,0.0444066,1728,1471,0.305649,2.28661
511,-447,0.470947,-2.12415,0,0,0,0,0,0,0,-1,1735,1471,0.470979,2.12418
518,-447,0.59375,-1.63086,0.0465472,-0.0241861,0.013073,0.048886,-0.026525,0.177033,0.044172,0.0486607,1742,1471,0.593703,1.63087
525,-447,1.34875,0.64856,0.0437883,-0.0185628,0.0155835,0.0474662,-0.0222406,0.231769,0.0411142,0.0461954,1749,1471,1.3488,-0.64856
532,-447,1.05969,-0.137085,0.0402735,-0.0125427,0.0171691,0.0453641,-0.0176332,0.288239,0.0375277,0.0440568,1756,1471,1.05968,0.137113
539,-447,1.05298,0.291138,0.035213,-0.00768468,0.0172847,0.0413107,-0.0137824,0.339151,0.0331052,0.0445104,1763,1471,1.05298,-0.291123
546,-447,1.20068,0.415771,0.0311796,-0.00210837,0.0169772,0.0383106,-0.00923929,0.397654,0.029113,0.0431158,1770,1471,1.20062,-0.415711
553,-447,0.769165,0.625,0.0277518,0.00255764,0.0161227,0.0356151,-0.00530569,0.453773,0.0256952,0.0419268,1777,1471,0.769138,-0.624988
560,-447,0.471436,0.192627,0.0242894,0.00640322,0.0150844,0.0328825,-0.00218989,0.517818,0.0226869,0.0407916,1784,1471,0.471396,-0.192607
567,-447,0.234863,0.185425,0.0207085,0.00813682,0.0135543,0.0293636,-0.000518259,0.568283,0.0197507,0.0377165,1791,1471,0.234808,-0.185448
574,-447,-0.0115967,0.0328369,0,0,0,0,0,0,0,-1,1798,1471,-0.0115373,-0.032829
581,-447,-0.0505371,-0.0496826,0.0139404,0.0101179,0.00969747,0.0219132,0.00214516,0.688101,0.0139488,0.0123325,1805,1471,-0.050531,0.0496915
588,-447,-0.0526123,-0.0532227,0.0109187,0.00968599,0.00776097,0.0180878,0.00251693,0.745773,0.0113132,0.0122074,1812,1471,-0.0525725,0.0532084
595,-447,-0.0754395,-0.0565186,0.00832258,0.00787557,0.00568193,0.0137854,0.00241275,0.76574,0.00850093,0.0109122,1819,1471,-0.0754303,0.0565096
602,-447,-0.078125,-0.0839844,0.00618479,0.00649546,0.00449213,0.0108349,0.00184531,0.802681,0.00669352,0.0102994,1826,1471,-0.0781837,0.0840234
609,-447,-0.0910645,-0.0866699,0.00481584,0.00494589,0.00313298,0.00801452,0.00174721,0.795774,0.00486631,0.0118752,1833,1471,-0.0910667,0.086716
616,-447,-0.0864258,-0.0731201,0.00354569,0.00304569,0.00186142,0.00517382,0.00141755,0.718645,0.00308716,0.0138916,1840,1471,-0.086472,0.0731721
623,-447,-0.0723877,-0.0667725,0.00242296,0.00232446,0.000792898,0.00316814,0.00157929,0.75438,0.00182913,0.0147563,1847,1471,-0.0724186,0.0667696
630,-447,-0.0606689,-0.060791,0.00135413,0.00238507,-0.0003029,0.00246748,0.00127172,-1.30516,0.00142482,0.00838934,1854,1471,-0.0606496,0.0607373
637,-447,-0.0584717,-0.059082,0.000783654,0.00272454,-0.00107705,0.00320386,0.00030434,-1.15209,0.00204203,0.00907907,1861,1471,-0.0585001,0.0590507
644,-447,-0.0651855,-0.0577393,0.00127395,0.00454127,-0.0010572,0.00485351,0.000961717,-1.28362,0.00296751,0.00885274,1868,1471,-0.0651811,0.0577253
651,-447,-0.0692139,-0.0537109,0.00204682,0.00662921,-0.000842246,0.00677911,0.00189692,-1.39466,0.00403844,0.0116971,1875,1471,-0.0692065,0.0536874
658,-447,-0.0646973,-0.0874023,0.00296665,0.00964621,-0.000536651,0.00968905,0.00292381,-1.49114,0.00573866,0.0204724,1882,1471,-0.0646853,0.0873939
665,-447,0.0490723,-0.147217,0.0040429,0.0133792,-0.000145885,0.0133815,0.00404063,-1.55518,0.00792522,0.0358949,1889,1471,0.0490454,0.147156
672,-447,0.129395,-0.33667,0.00517205,0.0182255,0.000401806,0.0182379,0.00515969,1.54005,0.0108554,0.040819,1896,1471,0.129405,0.336643
679,-447,0.167358,-0.599243,0.0067865,0.0240306,0.00143922,0.0241499,0.00666721,1.4881,0.0144015,0.0435001,1903,1471,0.167358,0.599277
686,-447,0.0615234,-0.608643,0.00890811,0.0310871,0.00304668,0.031498,0.00849721,1.43674,0.018817,0.0468962,1910,1471,0.0614719,0.608665
693,-447,-0.0354004,-0.617065,0,0,0,0,0,0,0,-1,1917,1471,-0.0354422,0.617076
700,-447,0,0,0,0,0,0,0,0,0,-1,1924,1471,0,0
707,-447,0,0,0,0,0,0,0,0,0,-1,1931,1471,0,0
714,-447,0,0,0,0,0,0,0,0,0,-1,1938,1471,0,0
721,-447,0,0,0,0,0,0,0,0,0,-1,1945,1471,0,0
728,-447,0,0,0,0,0,0,0,0,0,-1,1952,1471,0,0
735,-447,0,0,0,0,0,0,0,0,0,-1,1959,1471,0,0
742,-447,0,0,0,0,0,0,0,0,0,-1,1966,1471,0,0
749,-447,0,0,0,0,0,0,0,0,0,-1,1973,1471,0,0
756,-447,0,0,0,0,0,0,0,0,0,-1,1980,1471,0,0
763,-447,0,0,0,0,0,0,0,0,0,-1,1987,1471,0,0
770,-447,0,0,0,0,0,0,0,0,0,-1,1994,1471,0,0
777,-447,0,0,0,0,0,0,0,0,0,-1,2001,1471,0,0
784,-447,0,0,0,0,0,0,0,0,0,-1,2008,1471,0,0
791,-447,0,0,0,0,0,0,0,0,0,-1,2015,1471,0,0
798,-447,0,0,0,0,0,0,0,0,0,-1,2022,1471,0,0
805,-447,0,0,0,0,0,0,0,0,0,-1,2029,1471,0,0
812,-447,0,0,0,0,0,0,0,0,0,-1,2036,1471,0,0
-700,-454,0,0,0,0,0,0,0,0,0,-1,524,1478,0,0
-693,-454,0,0,0,0,0,0,0,0,0,-1,531,1478,0,0
-686,-454,0,0,0,0,0,0,0,0,0,-1,538,1478,0,0
-679,-454,0,0,0,0,0,0,0,0,0,-1,545,1478,0,0
-672,-454,0,0,0,0,0,0,0,0,0,-1,552,1478,0,0
-665,-454,0,0,0,0,0,0,0,0,0,-1,559,1478,0,0
-658,-454,0,0,0,0,0,0,0,0,0,-1,566,1478,0,0
-651,-454,0,0,0,0,0,0,0,0,0,-1,573,1478,0,0
-644,-454,0,0,0,0,0,0,0,0,0,-1,580,1478,0,0
-637,-454,0,0,0,0,0,0,0,0,0,-1,587,1478,0,0
-630,-454,0,0,0,0,0,0,0,0,0,-1,594,1478,0,0
-623,-454,0,0,0,0,0,0,0,0,0,-1,601,1478,0,0
-616,-454,0,0,0,0,0,0,0,0,0,-1,608,1478,0,0
-609,-454,0,0,0,0,0,0,0,0,0,-1,615,1478,0,0
-602,-454,0,0,0,0,0,0,0,0,0,-1,622,1478,0,0
-595,-454,0,0,0,0,0,0,0,0,0,-1,629,1478,0,0
-588,-454,0,0,0,0,0,0,0,0,0,-1,636,1478,0,0
-581,-454,0,0,0,0,0,0,0,0,0,-1,643,1478,0,0
-574,-454,-0.208496,-0.0452881,0,0,0,0,0,0,0,-1,650,1478,-0.208498,0.0452358
-567,-454,-0.194641,-0.111938,-0.0316524,0.0146562,0.0141008,0.018612,-0.0356082,1.29729,0.0318126,0.0464214,657,1478,-0.194627,0.111932
-560,-454,-0.406433,0.119507,0,0,0,0,0,0,0,-1,664,1478,-0.406403,-0.119482
-553,-454,-0.348694,0.0435791,-0.0151049,0.00858086,0.00537534,0.00974367,-0.0162678,1.35776,0.0151743,0.0464586,671,1478,-0.348667,-0.0435486
-546,-454,-0.440125,0.243042,-0.00991591,0.00556724,0.00251195,0.00596458,-0.0103132,1.41392,0.00950914,0.0459891,678,1478,-0.44012,-0.243013
-539,-454,-0.248901,0.286011,-0.00634326,0.00313881,0.000484629,0.00316352,-0.00636796,1.51986,0.00560571,0.0480197,685,1478,-0.248877,-0.286019
-532,-454,-0.0296021,0.00341797,-0.0034952,0.00186039,-0.00134723,0.0021802,-0.00381501,-1.33773,0.00350397,0.0439845,692,1478,-0.0296056,-0.00342463
-525,-454,0.0322266,-0.0717773,-0.00173084,-0.000120777,-0.00216216,0.00138135,-0.00323297,-0.963611,0.00273464,0.0347308,699,1478,0.0322023,0.0717224
-518,-454,-0.0585938,-0.0800781,-0.000968878,-0.00105802,-0.00252295,0.00150989,-0.0035368,-0.776565,0.00299101,0.019603,706,1478,-0.0585665,0.0800711
-511,-454,-0.0853271,-0.0566406,-0.000656539,-0.00164052,-0.00236311,0.00126525,-0.00356232,-0.682766,0.00289046,0.0123042,713,1478,-0.0852983,0.0566779
-504,-454,-0.0742188,-0.072876,-0.000490374,-0.00164795,-0.0019967,0.00100973,-0.00314806,-0.644328,0.00250409,0.0161831,720,1478,-0.0742411,0.0728206
-497,-454,-0.086792,-0.100098,-0.00089993,-0.00110921,-0.00146066,0.000459833,-0.00246897,-0.74964,0.00181874,0.0204594,727,1478,-0.0868003,0.100079
-490,-454,-0.0908813,-0.0665283,-0.00129344,0.000105841,-0.000941453,0.000579158,-0.00176676,-1.10495,0.00141108,0.016878,734,1478,-0.0908609,0.0665235
-483,-454,-0.0733643,-0.0661621,-0.00185009,0.00135109,-0.000156755,0.00135875,-0.00185774,-1.52198,0.00186448,0.0139707,741,1478,-0.0733492,0.0661358
-476,-454,-0.0769043,-0.0831299,-0.00276242,0.00358519,0.000598492,0.00364113,-0.00281836,1.4776,0.00373946,0.0125154,748,1478,-0.0769334,0.0831288
-469,-454,-0.065918,-0.0626221,-0.00330041,0.00701324,0.000952508,0.00710047,-0.00338764,1.47947,0.0061805,0.00963218,755,1478,-0.0659457,0.0625615
-462,-454,-0.0778198,-0.0583496,-0.00346361,0.0100607,0.00121096,0.0101682,-0.00357118,1.4822,0.00823162,0.0100183,762,1478,-0.0778114,0.0583912
-455,-454,-0.0812378,-0.0518799,-0.00331243,0.0136451,0.00110763,0.0137171,-0.00338447,1.50585,0.0104571,0.0104642,769,1478,-0.0812126,0.0518482
-448,-454,-0.104675,-0.0605469,-0.00303883,0.0186067,0.000701046,0.0186294,-0.00306151,1.53845,0.0135558,0.0105747,776,1478,-0.104673,0.0605606
-441,-454,-0.0791016,-0.0723877,-0.0029336,0.0235877,-0.000342991,0.0235921,-0.00293803,-1.55787,0.0167933,0.0183196,783,1478,-0.0791041,0.0723974
-434,-454,-0.0330811,-0.0651855,-0.00291552,0.0286794,-0.00157145,0.0287574,-0.00299349,-1.52122,0.0202433,0.0256489,790,1478,-0.0330541,0.0651511
-427,-454,0.0342407,-0.0474854,-0.0024455,0.0333583,-0.00358415,0.0337136,-0.00280077,-1.472,0.0234651,0.0345089,797,1478,0.0342514,0.0474644
-420,-454,0.0811157,0.00842285,-0.00175262,0.0370231,-0.00630367,0.0380221,-0.00275166,-1.41362,0.0263133,0.0442905,804,1478,0.0811293,-0.00846701
-413,-454,0.00146484,-0.00915527,0,0,0,0,0,0,0,-1,811,1478,0.001435,0.00915626
-406,-454,1.177,-2.53394,0,0,0,0,0,0,0,-1,818,1478,1.17701,2.53395
-399,-454,-0.0421753,-1.54529,0,0,0,0,0,0,0,-1,825,1478,-0.0421927,1.54533
-392,-454,-0.531677,-1.12378,0.0031089,0.0449745,-0.0244893,0.0562583,-0.00817489,-1.13903,0.0405064,0.0474065,832,1478,-0.531685,1.12375
-385,-454,-0.880798,-0.639648,0.00407458,0.0422934,-0.0305699,0.0592352,-0.0128672,-1.06474,0.044405,0.0469985,839,1478,-0.88077,0.639683
-378,-454,-1.25671,-0.287842,0,0,0,0,0,0,0,-1,846,1478,-1.25673,0.287803
-371,-454,-0.854797,-1.29565,0,0,0,0,0,0,0,-1,853,1478,-0.854774,1.29566
-364,-454,-1.33484,-1.03918,0,0,0,0,0,0,0,-1,860,1478,-1.33485,1.03919
-357,-454,0,0,0,0,0,0,0,0,0,-1,867,1478,0,0
-350,-454,0,0,0,0,0,0,0,0,0,-1,874,1478,0,0
-343,-454,0,0,0,0,0,0,0,0,0,-1,881,1478,0,0
-336,-454,0,0,0,0,0,0,0,0,0,-1,888,1478,0,0
-329,-454,0,0,0,0,0,0,0,0,0,-1,895,1478,0,0
-322,-454,0,0,0,0,0,0,0,0,0,-1,902,1478,0,0
-315,-454,0,0,0,0,0,0,0,0,0,-1,909,1478,0,0
-308,-454,0,0,0,0,0,0,0,0,0,-1,916,1478,0,0
-301,-454,0,0,0,0,0,0,0,0,0,-1,923,1478,0,0
-294,-454,0,0,0,0,0,0,0,0,0,-1,930,1478,0,0
-287,-454,0,0,0,0,0,0,0,0,0,-1,937,1478,0,0
-280,-454,0,0,0,0,0,0,0,0,0,-1,944,1478,0,0
-273,-454,0,0,0,0,0,0,0,0,0,-1,951,1478,0,0
-266,-454,0,0,0,0,0,0,0,0,0,-1,958,1478,0,0
-259,-454,0,0,0,0,0,0,0,0,0,-1,965,1478,0,0
-252,-454,0,0,0,0,0,0,0,0,0,-1,972,1478,0,0
-245,-454,0,0,0,0,0,0,0,0,0,-1,979,1478,0,0
-238,-454,0,0,0,0,0,0,0,0,0,-1,986,1478,0,0
-231,-454,0,0,0,0,0,0,0,0,0,-1,993,1478,0,0
-224,-454,0,0,0,0,0,0,0,0,0,-1,1000,1478,0,0
-217,-454,0,0,0,0,0,0,0,0,0,-1,1007,1478,0,0
-210,-454,0,0,0,0,0,0,0,0,0,-1,1014,1478,0,0
-203,-454,0,0,0,0,0,0,0,0,0,-1,1021,1478,0,0
-196,-454,0,0,0,0,0,0,0,0,0,-1,1028,1478,0,0
-189,-454,0,0,0,0,0,0,0,0,0,-1,1035,1478,0,0
-182,-454,0,0,0,0,0,0,0,0,0,-1,1042,1478,0,0
-175,-454,0,0,0,0,0,0,0,0,0,-1,1049,1478,0,0
-168,-454,0,0,0,0,0,0,0,0,0,-1,1056,1478,0,0
-161,-454,0,0,0,0,0,0,0,0,0,-1,1063,1478,0,0
-154,-454,0,0,0,0,0,0,0,0,0,-1,1070,1478,0,0
-147,-454,0,0,0,0,0,0,0,0,0,-1,1077,1478,0,0
-140,-454,0,0,0,0,0,0,0,0,0,-1,1084,1478,0,0
-133,-454,0,0,0,0,0,0,0,0,0,-1,1091,1478,0,0
-126,-454,0,0,0,0,0,0,0,0,0,-1,1098,1478,0,0
-119,-454,0,0,0,0,0,0,0,0,0,-1,1105,1478,0,0
-112,-454,0,0,0,0,0,0,0,0,0,-1,1112,1478,0,0
-105,-454,0,0,0,0,0,0,0,0,0,-1,1119,1478,0,0
-98,-454,0,0,0,0,0,0,0,0,0,-1,1126,1478,0,0
-91,-454,0,0,0,0,0,0,0,0,0,-1,1133,1478,0,0
-84,-454,0,0,0,0,0,0,0,0,0,-1,1140,1478,0,0
-77,-454,0,0,0,0,0,0,0,0,0,-1,1147,1478,0,0
-70,-454,0,0,0,0,0,0,0,0,0,-1,1154,1478,0,0
-63,-454,0,0,0,0,0,0,0,0,0,-1,1161,1478,0,0
-56,-454,0,0,0,0,0,0,0,0,0,-1,1168,1478,0,0
-49,-454,0,0,0,0,0,0,0,0,0,-1,1175,1478,0,0
-42,-454,0,0,0,0,0,0,0,0,0,-1,1182,1478,0,0
-35,-454,0,0,0,0,0,0,0,0,0,-1,1189,1478,0,0
-28,-454,0,0,0,0,0,0,0,0,0,-1,1196,1478,0,0
-21,-454,0,0,0,0,0,0,0,0,0,-1,1203,1478,0,0
-14,-454,0,0,0,0,0,0,0,0,0,-1,1210,1478,0,0
-7,-454,0,0,0,0,0,0,0,0,0,-1,1217,1478,0,0
0,-454,0,0,0,0,0,0,0,0,0,-1,1224,1478,0,0
7,-454,0,0,0,0,0,0,0,0,0,-1,1231,1478,0,0
14,-454,0,0,0,0,0,0,0,0,0,-1,1238,1478,0,0
21,-454,0,0,0,0,0,0,0,0,0,-1,1245,1478,0,0
28,-454,0,0,0,0,0,0,0,0,0,-1,1252,1478,0,0
35,-454,0,0,0,0,0,0,0,0,0,-1,1259,1478,0,0
42,-454,0,0,0,0,0,0,0,0,0,-1,1266,1478,0,0
49,-454,0,0,0,0,0,0,0,0,0,-1,1273,1478,0,0
56,-454,0,0,0,0,0,0,0,0,0,-1,1280,1478,0,0
63,-454,0,0,0,0,0,0,0,0,0,-1,1287,1478,0,0
70,-454,0,0,0,0,0,0,0,0,0,-1,1294,1478,0,0
77,-454,0,0,0,0,0,0,0,0,0,-1,1301,1478,0,0
84,-454,0,0,0,0,0,0,0,0,0,-1,1308,1478,0,0
91,-454,0,0,0,0,0,0,0,0,0,-1,1315,1478,0,0
98,-454,0,0,0,0,0,0,0,0,0,-1,1322,1478,0,0
105,-454,0,0,0,0,0,0,0,0,0,-1,1329,1478,0,0
112,-454,0,0,0,0,0,0,0,0,0,-1,1336,1478,0,0
119,-454,0,0,0,0,0,0,0,0,0,-1,1343,1478,0,0
126,-454,0,0,0,0,0,0,0,0,0,-1,1350,1478,0,0
133,-454,0,0,0,0,0,0,0,0,0,-1,1357,1478,0,0
140,-454,0,0,0,0,0,0,0,0,0,-1,1364,1478,0,0
147,-454,0,0,0,0,0,0,0,0,0,-1,1371,1478,0,0
154,-454,0,0,0,0,0,0,0,0,0,-1,1378,1478,0,0
161,-454,0,0,0,0,0,0,0,0,0,-1,1385,1478,0,0
168,-454,0,0,0,0,0,0,0,0,0,-1,1392,1478,0,0
175,-454,0,0,0,0,0,0,0,0,0,-1,1399,1478,0,0
182,-454,0,0,0,0,0,0,0,0,0,-1,1406,1478,0,0
189,-454,0,0,0,0,0,0,0,0,0,-1,1413,1478,0,0
196,-454,0,0,0,0,0,0,0,0,0,-1,1420,1478,0,0
203,-454,0,0,0,0,0,0,0,0,0,-1,1427,1478,0,0
210,-454,0,0,0,0,0,0,0,0,0,-1,1434,1478,0,0
217,-454,0,0,0,0,0,0,0,0,0,-1,1441,1478,0,0
224,-454,0,0,0,0,0,0,0,0,0,-1,1448,1478,0,0
231,-454,0,0,0,0,0,0,0,0,0,-1,1455,1478,0,0
238,-454,0,0,0,0,0,0,0,0,0,-1,1462,1478,0,0
245,-454,0,0,0,0,0,0,0,0,0,-1,1469,1478,0,0
252,-454,0,0,0,0,0,0,0,0,0,-1,1476,1478,0,0
259,-454,0,0,0,0,0,0,0,0,0,-1,1483,1478,0,0
266,-454,0,0,0,0,0,0,0,0,0,-1,1490,1478,0,0
273,-454,0,0,0,0,0,0,0,0,0,-1,1497,1478,0,0
280,-454,0,0,0,0,0,0,0,0,0,-1,1504,1478,0,0
287,-454,0,0,0,0,0,0,0,0,0,-1,1511,1478,0,0
294,-454,0,0,0,0,0,0,0,0,0,-1,1518,1478,0,0
301,-454,0,0,0,0,0,0,0,0,0,-1,1525,1478,0,0
308,-454,0,0,0,0,0,0,0,0,0,-1,1532,1478,0,0
315,-454,0,0,0,0,0,0,0,0,0,-1,1539,1478,0,0
322,-454,0,0,0,0,0,0,0,0,0,-1,1546,1478,0,0
329,-454,0,0,0,0,0,0,0,0,0,-1,1553,1478,0,0
336,-454,0,0,0,0,0,0,0,0,0,-1,1560,1478,0,0
343,-454,0,0,0,0,0,0,0,0,0,-1,1567,1478,0,0
350,-454,0,0,0,0,0,0,0,0,0,-1,1574,1478,0,0
357,-454,0,0,0,0,0,0,0,0,0,-1,1581,1478,0,0
364,-454,0,0,0,0,0,0,0,0,0,-1,1588,1478,0,0
371,-454,0,0,0,0,0,0,0,0,0,-1,1595,1478,0,0
378,-454,0,0,0,0,0,0,0,0,0,-1,1602,1478,0,0
385,-454,0,0,0,0,0,0,0,0,0,-1,1609,1478,0,0
392,-454,0,0,0,0,0,0,0,0,0,-1,1616,1478,0,0
399,-454,0,0,0,0,0,0,0,0,0,-1,1623,1478,0,0
406,-454,0,0,0,0,0,0,0,0,0,-1,1630,1478,0,0
413,-454,0,0,0,0,0,0,0,0,0,-1,1637,1478,0,0
420,-454,0,0,0,0,0,0,0,0,0,-1,1644,1478,0,0
427,-454,0,0,0,0,0,0,0,0,0,-1,1651,1478,0,0
434,-454,0,0,0,0,0,0,0,0,0,-1,1658,1478,0,0
441,-454,0,0,0,0,0,0,0,0,0,-1,1665,1478,0,0
448,-454,0,0,0,0,0,0,0,0,0,-1,1672,1478,0,0
455,-454,0,0,0,0,0,0,0,0,0,-1,1679,1478,0,0
462,-454,0,0,0,0,0,0,0,0,0,-1,1686,1478,0,0
469,-454,0,0,0,0,0,0,0,0,0,-1,1693,1478,0,0
476,-454,0,0,0,0,0,0,0,0,0,-1,1700,1478,0,0
483,-454,0.0483398,0.088623,0,0,0,0,0,0,0,-1,1707,1478,0.0483646,-0.0885877
490,-454,1.07373,-1.41711,0,0,0,0,0,0,0,-1,1714,1478,1.07377,1.41713
497,-454,1.27319,-1.29382,0,0,0,0,0,0,0,-1,1721,1478,1.27323,1.29382
504,-454,1.26416,-1.42334,0,0,0,0,0,0,0,-1,1728,1478,1.26412,1.42337
511,-454,-0.574097,0.153931,0,0,0,0,0,0,0,-1,1735,1478,-0.574133,-0.153877
518,-454,0.47644,0.417114,0.0343553,-0.0196391,0.0131771,0.0373995,-0.0226832,0.227037,0.0350339,0.0424374,1742,1478,0.476498,-0.417171
525,-454,0.750977,0.442261,0.031153,-0.0172445,0.0139709,0.0348964,-0.0209879,0.261796,0.0325962,0.0432872,1749,1478,0.750983,-0.442208
532,-454,1.15979,0.266357,0.0278838,-0.0134815,0.0146858,0.0325674,-0.0181651,0.30872,0.0296812,0.0483206,1756,1478,1.1598,-0.266362
539,-454,1.51831,0.366821,0,0,0,0,0,0,0,-1,1763,1478,1.51827,-0.366764
546,-454,0.379028,0.25354,0,0,0,0,0,0,0,-1,1770,1478,0.378985,-0.253575
553,-454,0.214844,0.216309,0.0163116,-0.002956,0.0121353,0.0221722,-0.00881658,0.449903,0.018437,0.0390673,1777,1478,0.214899,-0.216369
560,-454,0.0427246,0.0533447,0.0135439,0.000175546,0.0108704,0.0196208,-0.00590126,0.509746,0.0154285,0.0317177,1784,1478,0.0427262,-0.0533472
567,-454,-0.0618896,-0.0599365,0.0108756,0.00170776,0.00931453,0.0166731,-0.00408968,0.556733,0.0127,0.0172083,1791,1478,-0.0618697,0.0599819
574,-454,-0.0930176,-0.0670166,0.00820876,0.00328043,0.00738266,0.0135276,-0.00203845,0.624323,0.00976906,0.00993397,1798,1478,-0.0930213,0.0669721
581,-454,-0.0661621,-0.0566406,0.00638087,0.00419848,0.00589651,0.0112863,-0.000706951,0.693904,0.00777057,0.0105199,1805,1478,-0.066112,0.0566168
588,-454,-0.0734863,-0.0541992,0.00473306,0.0044759,0.00447489,0.00908122,0.00012774,0.771035,0.00601202,0.0119297,1812,1478,-0.0735347,0.0542326
595,-454,-0.0842285,-0.0601807,0.0035421,0.00374747,0.00308995,0.00673645,0.000553124,0.802007,0.00431841,0.0105824,1819,1478,-0.0842087,0.0602379
602,-454,-0.078125,-0.0795898,0.00267052,0.00337608,0.00227869,0.00532913,0.000717471,0.862197,0.00333939,0.00830874,1826,1478,-0.0781501,0.0795374
609,-454,-0.0769043,-0.0657959,0.00231595,0.00286632,0.0017119,0.00432502,0.000857259,0.865091,0.00264432,0.0105872,1833,1478,-0.0768465,0.0658484
616,-454,-0.0643311,-0.0571289,0.00186131,0.00186346,0.00104533,0.00290771,0.000817058,0.785912,0.00173161,0.0134981,1840,1478,-0.0643692,0.0571796
623,-454,-0.0618896,-0.0611572,0.00154335,0.00193205,0.000544678,0.00231601,0.00115939,0.956764,0.00133715,0.010523,1847,1478,-0.0618376,0.0611171
630,-454,-0.0621338,-0.0524902,0.00100584,0.00301674,0.000182121,0.0030331,0.000989478,1.4812,0.00178606,0.00834038,1854,1478,-0.0620904,0.0524486
637,-454,-0.0672607,-0.0467529,0.000477544,0.00376624,-0.00030787,0.00379481,0.000448971,-1.47825,0.00239429,0.00838953,1861,1478,-0.0673022,0.0467031
644,-454,-0.0765381,-0.0458984,0.000775537,0.0057729,-0.000226148,0.00578312,0.000765324,-1.52567,0.00362732,0.0100008,1868,1478,-0.0765255,0.0458737
651,-454,-0.0767822,-0.0458984,0.00133894,0.00815496,4.63511e-05,0.00815527,0.00133862,1.564,0.00505013,0.0157493,1875,1478,-0.0767345,0.0459236
658,-454,-0.000854492,-0.0932617,0.00212097,0.0114843,0.000475646,0.0115084,0.00209687,1.52017,0.0070776,0.029062,1882,1478,-0.000844855,0.0933077
665,-454,0.296997,-0.0264893,0.00319216,0.015613,0.00112739,0.0157145,0.00309066,1.48101,0.00961319,0.0402436,1889,1478,0.297013,0.026454
672,-454,0.404175,-0.116089,0.00437823,0.0209669,0.00207989,0.0212237,0.00412143,1.44795,0.012995,0.0442311,1896,1478,0.40415,0.11614
679,-454,0.216431,-0.560791,0.00595303,0.0275038,0.00369129,0.0281185,0.00533831,1.40578,0.0172439,0.0454505,1903,1478,0.216419,0.56084
686,-454,0.0881348,-0.502319,0.00815415,0.0353879,0.00609162,0.0366883,0.00685368,1.36047,0.0225246,0.0437751,1910,1478,0.0881694,0.502267
693,-454,-0.105347,-0.391846,0,0,0,0,0,0,0,-1,1917,1478,-0.10535,0.391809
700,-454,0,0,0,0,0,0,0,0,0,-1,1924,1478,0,0
707,-454,0,0,0,0,0,0,0,0,0,-1,1931,1478,0,0
714,-454,0,0,0,0,0,0,0,0,0,-1,1938,1478,0,0
721,-454,0,0,0,0,0,0,0,0,0,-1,1945,1478,0,0
728,-454,0,0,0,0,0,0,0,0,0,-1,1952,1478,0,0
735,-454,0,0,0,0,0,0,0,0,0,-1,1959,1478,0,0
742,-454,0,0,0,0,0,0,0,0,0,-1,1966,1478,0,0
749,-454,0,0,0,0,0,0,0,0,0,-1,1973,1478,0,0
756,-454,0,0,0,0,0,0,0,0,0,-1,1980,1478,0,0
763,-454,0,0,0,0,0,0,0,0,0,-1,1987,1478,0,0
770,-454,0,0,0,0,0,0,0,0,0,-1,1994,1478,0,0
777,-454,0,0,0,0,0,0,0,0,0,-1,2001,1478,0,0
784,-454,0,0,0,0,0,0,0,0,0,-1,2008,1478,0,0
791,-454,0,0,0,0,0,0,0,0,0,-1,2015,1478,0,0
798,-454,0,0,0,0,0,0,0,0,0,-1,2022,1478,0,0
805,-454,0,0,0,0,0,0,0,0,0,-1,2029,1478,0,0
812,-454,0,0,0,0,0,0,0,0,0,-1,2036,1478,0,0
-700,-461,0,0,0,0,0,0,0,0,0,-1,524,1485,0,0
-693,-461,0,0,0,0,0,0,0,0,0,-1,531,1485,0,0
-686,-461,0,0,0,0,0,0,0,0,0,-1,538,1485,0,0
-679,-461,0,0,0,0,0,0,0,0,0,-1,545,1485,0,0
-672,-461,0,0,0,0,0,0,0,0,0,-1,552,1485,0,0
-665,-461,0,0,0,0,0,0,0,0,0,-1,559,1485,0,0
-658,-461,0,0,0,0,0,0,0,0,0,-1,566,1485,0,0
-651,-461,0,0,0,0,0,0,0,0,0,-1,573,1485,0,0
-644,-461,0,0,0,0,0,0,0,0,0,-1,580,1485,0,0
-637,-461,0,0,0,0,0,0,0,0,0,-1,587,1485,0,0
-630,-461,0,0,0,0,0,0,0,0,0,-1,594,1485,0,0
-623,-461,0,0,0,0,0,0,0,0,0,-1,601,1485,0,0
-616,-461,0,0,0,0,0,0,0,0,0,-1,608,1485,0,0
-609,-461,0,0,0,0,0,0,0,0,0,-1,615,1485,0,0
-602,-461,0,0,0,0,0,0,0,0,0,-1,622,1485,0,0
-595,-461,0,0,0,0,0,0,0,0,0,-1,629,1485,0,0
-588,-461,0,0,0,0,0,0,0,0,0,-1,636,1485,0,0
-581,-461,0,0,0,0,0,0,0,0,0,-1,643,1485,0,0
-574,-461,0,0,0,0,0,0,0,0,0,-1,650,1485,0,0
-567,-461,-0.0304565,-1.04224,0,0,0,0,0,0,0,-1,657,1485,-0.0304557,1.04224
-560,-461,-0.273071,-0.378174,0,0,0,0,0,0,0,-1,664,1485,-0.27309,0.378163
-553,-461,0.411194,-0.707397,0,0,0,0,0,0,0,-1,671,1485,0.411216,0.707376
-546,-461,-0.0821533,0.0356445,0,0,0,0,0,0,0,-1,678,1485,-0.0821661,-0.0356328
-539,-461,0.0886841,0.176514,-0.00449112,0.000227318,-0.00117434,0.000503432,-0.00476724,-1.33987,0.00335857,0.0439972,685,1485,0.088681,-0.176502
-532,-461,0.343628,0.172119,-0.00228194,-0.000116696,-0.0026356,0.00164997,-0.00404861,-0.980276,0.00338583,0.0405569,692,1485,0.343605,-0.172084
-525,-461,0.311707,-0.112305,-0.000973299,-0.00103175,-0.0033098,0.0023074,-0.00431245,-0.780983,0.00387997,0.03856,699,1485,0.31169,0.112264
-518,-461,0.0599976,-0.132446,-0.000513465,-0.00135595,-0.00358816,0.00267809,-0.00454751,-0.726966,0.00421799,0.0296333,706,1485,0.0600013,0.13247
-511,-461,-0.0826416,-0.0467529,-0.000424948,-0.00159624,-0.00339465,0.0024342,-0.00445539,-0.699979,0.00403436,0.0132033,713,1485,-0.0826212,0.0467957
-504,-461,-0.0615234,-0.0715332,-0.000372383,-0.00133134,-0.00298596,0.00217235,-0.00387607,-0.705789,0.00353793,0.00967773,720,1485,-0.0615219,0.0715338
-497,-461,-0.0629272,-0.0716553,-0.000819151,-0.000694263,-0.00245512,0.0016992,-0.00321262,-0.798113,0.00288036,0.0111704,727,1485,-0.0629274,0.0716832
-490,-461,-0.0825806,-0.0609131,-0.00118374,0.000400972,-0.00187923,0.00164807,-0.00243083,-0.984907,0.00236936,0.0115052,734,1485,-0.0825838,0.0608907
-483,-461,-0.0750732,-0.0541992,-0.0016474,0.00140386,-0.00104166,0.00172555,-0.00196909,-1.27126,0.00213465,0.0106362,741,1485,-0.0750519,0.0542431
-476,-461,-0.071228,-0.0557861,-0.00237974,0.00313908,-0.000232639,0.00314887,-0.00238953,-1.52874,0.0032076,0.00927013,748,1485,-0.0712337,0.0558337
-469,-461,-0.0656738,-0.043457,-0.00264035,0.0057308,0.000174797,0.00573445,-0.002644,1.54993,0.00494578,0.0108977,755,1485,-0.0656971,0.0434934
-462,-461,-0.0709839,-0.0596924,-0.00247023,0.00787868,0.000442708,0.00789758,-0.00248913,1.52812,0.0062619,0.0165866,762,1485,-0.0709905,0.0597297
-455,-461,-0.0422974,-0.0643311,-0.00203385,0.0102637,0.000380535,0.0102755,-0.00204562,1.53989,0.00762422,0.0202485,769,1485,-0.0422691,0.0642958
-448,-461,-0.0562134,-0.0626221,-0.00160283,0.0136328,0.000129782,0.0136339,-0.00160394,1.56228,0.00966835,0.0157785,776,1485,-0.0562231,0.062668
-441,-461,-0.0476074,-0.0701904,-0.00143905,0.016871,-0.000584388,0.0168896,-0.00145768,-1.53892,0.0117757,0.0117896,783,1485,-0.0476375,0.0702465
-434,-461,-0.0129395,-0.0942383,-0.00134928,0.0200237,-0.00145835,0.0201228,-0.00144833,-1.50298,0.0139231,0.015468,790,1485,-0.0129182,0.0942689
-427,-461,-0.0159302,-0.106567,-0.000912094,0.0226303,-0.00302105,0.0230118,-0.00129359,-1.44518,0.0157901,0.0217644,797,1485,-0.0159249,0.106568
-420,-461,-0.0809326,-0.0992432,-0.000355774,0.024286,-0.00516807,0.025326,-0.00139577,-1.37221,0.017368,0.0376262,804,1485,-0.0809386,0.0993031
-413,-461,0.700256,-1.49219,0.000535546,0.0252411,-0.00804625,0.0276306,-0.0018539,-1.28213,0.0190684,0.0480479,811,1485,0.700286,1.49221
-406,-461,0.809326,-1.88135,0.00153074,0.0263842,-0.0114743,0.0308714,-0.00295649,-1.19801,0.0216339,0.0468452,818,1485,0.809348,1.88135
-399,-461,0.467407,-1.38269,0,0,0,0,0,0,0,-1,825,1485,0.467437,1.38266
-392,-461,-0.0384521,-0.97522,0.00303888,0.0250441,-0.0202078,0.0370505,-0.00896747,-1.03469,0.0281694,0.0452307,832,1485,-0.0384729,0.975221
-385,-461,-0.471802,-0.639038,0.00359535,0.0219795,-0.0255198,0.0399123,-0.0143374,-0.958262,0.0324605,0.0459142,839,1485,-0.471826,0.639048
-378,-461,-0.946899,-0.206665,0.004088,0.0177736,-0.031343,0.0430121,-0.0211505,-0.892872,0.0377542,0.0494698,846,1485,-0.946916,0.206695
-371,-461,-0.836731,-0.600586,0.00504533,0.011354,-0.0370715,0.0454051,-0.0290058,-0.82784,0.0433075,0.0473929,853,1485,-0.836739,0.600609
-364,-461,-0.921692,-0.796509,0.00644687,0.00124557,-0.0426015,0.046527,-0.0388346,-0.754913,0.0493502,0.046268,860,1485,-0.921705,0.796519
-357,-461,-0.305786,-1.06799,0,0,0,0,0,0,0,-1,867,1485,-0.305788,1.06803
-350,-461,0,0,0,0,0,0,0,0,0,-1,874,1485,0,0
-343,-461,0,0,0,0,0,0,0,0,0,-1,881,1485,0,0
-336,-461,0,0,0,0,0,0,0,0,0,-1,888,1485,0,0
-329,-461,0,0,0,0,0,0,0,0,0,-1,895,1485,0,0
-322,-461,0,0,0,0,0,0,0,0,0,-1,902,1485,0,0
-315,-461,0,0,0,0,0,0,0,0,0,-1,909,1485,0,0
-308,-461,0,0,0,0,0,0,0,0,0,-1,916,1485,0,0
-301,-461,0,0,0,0,0,0,0,0,0,-1,923,1485,0,0
-294,-461,0,0,0,0,0,0,0,0,0,-1,930,1485,0,0
-287,-461,0,0,0,0,0,0,0,0,0,-1,937,1485,0,0
-280,-461,0,0,0,0,0,0,0,0,0,-1,944,1485,0,0
-273,-461,0,0,0,0,0,0,0,0,0,-1,951,1485,0,0
-266,-461,0,0,0,0,0,0,0,0,0,-1,958,1485,0,0
-259,-461,0,0,0,0,0,0,0,0,0,-1,965,1485,0,0
-252,-461,0,0,0,0,0,0,0,0,0,-1,972,1485,0,0
-245,-461,0,0,0,0,0,0,0,0,0,-1,979,1485,0,0
-238,-461,0,0,0,0,0,0,0,0,0,-1,986,1485,0,0
-231,-461,0,0,0,0,0,0,0,0,0,-1,993,1485,0,0
-224,-461,0,0,0,0,0,0,0,0,0,-1,1000,1485,0,0
-217,-461,0,0,0,0,0,0,0,0,0,-1,1007,1485,0,0
-210,-461,0,0,0,0,0,0,0,0,0,-1,1014,1485,0,0
-203,-461,0,0,0,0,0,0,0,0,0,-1,1021,1485,0,0
-196,-461,0,0,0,0,0,0,0,0,0,-1,1028,1485,0,0
-189,-461,0,0,0,0,0,0,0,0,0,-1,1035,1485,0,0
-182,-461,0,0,0,0,0,0,0,0,0,-1,1042,1485,0,0
-175,-461,0,0,0,0,0,0,0,0,0,-1,1049,1485,0,0
-168,-461,0,0,0,0,0,0,0,0,0,-1,1056,1485,0,0
-161,-461,0,0,0,0,0,0,0,0,0,-1,1063,1485,0,0
-154,-461,0,0,0,0,0,0,0,0,0,-1,1070,1485,0,0
-147,-461,0,0,0,0,0,0,0,0,0,-1,1077,1485,0,0
-140,-461,0,0,0,0,0,0,0,0,0,-1,1084,1485,0,0
-133,-461,0,0,0,0,0,0,0,0,0,-1,1091,1485,0,0
-126,-461,0,0,0,0,0,0,0,0,0,-1,1098,1485,0,0
-119,-461,0,0,0,0,0,0,0,0,0,-1,1105,1485,0,0
-112,-461,0,0,0,0,0,0,0,0,0,-1,1112,1485,0,0
-105,-461,0,0,0,0,0,0,0,0,0,-1,1119,1485,0,0
-98,-461,0,0,0,0,0,0,0,0,0,-1,1126,1485,0,0
-91,-461,0,0,0,0,0,0,0,0,0,-1,1133,1485,0,0
-84,-461,0,0,0,0,0,0,0,0,0,-1,1140,1485,0,0
-77,-461,0,0,0,0,0,0,0,0,0,-1,1147,1485,0,0
-70,-461,0,0,0,0,0,0,0,0,0,-1,1154,1485,0,0
-63,-461,0,0,0,0,0,0,0,0,0,-1,1161,1485,0,0
-56,-461,0,0,0,0,0,0,0,0,0,-1,1168,1485,0,0
-49,-461,0,0,0,0,0,0,0,0,0,-1,1175,1485,0,0
-42,-461,0,0,0,0,0,0,0,0,0,-1,1182,1485,0,0
-35,-461,0,0,0,0,0,0,0,0,0,-1,1189,1485,0,0
-28,-461,0,0,0,0,0,0,0,0,0,-1,1196,1485,0,0
-21,-461,0,0,0,0,0,0,0,0,0,-1,1203,1485,0,0
-14,-461,0,0,0,0,0,0,0,0,0,-1,1210,1485,0,0
-7,-461,0,0,0,0,0,0,0,0,0,-1,1217,1485,0,0
0,-461,0,0,0,0,0,0,0,0,0,-1,1224,1485,0,0
7,-461,0,0,0,0,0,0,0,0,0,-1,1231,1485,0,0
14,-461,0,0,0,0,0,0,0,0,0,-1,1238,1485,0,0
21,-461,0,0,0,0,0,0,0,0,0,-1,1245,1485,0,0
28,-461,0,0,0,0,0,0,0,0,0,-1,1252,1485,0,0
35,-461,0,0,0,0,0,0,0,0,0,-1,1259,1485,0,0
42,-461,0,0,0,0,0,0,0,0,0,-1,1266,1485,0,0
49,-461,0,0,0,0,0,0,0,0,0,-1,1273,1485,0,0
56,-461,0,0,0,0,0,0,0,0,0,-1,1280,1485,0,0
63,-461,0,0,0,0,0,0,0,0,0,-1,1287,1485,0,0
70,-461,0,0,0,0,0,0,0,0,0,-1,1294,1485,0,0
77,-461,0,0,0,0,0,0,0,0,0,-1,1301,1485,0,0
84,-461,0,0,0,0,0,0,0,0,0,-1,1308,1485,0,0
91,-461,0,0,0,0,0,0,0,0,0,-1,1315,1485,0,0
98,-461,0,0,0,0,0,0,0,0,0,-1,1322,1485,0,0
105,-461,0,0,0,0,0,0,0,0,0,-1,1329,1485,0,0
112,-461,0,0,0,0,0,0,0,0,0,-1,1336,1485,0,0
119,-461,0,0,0,0,0,0,0,0,0,-1,1343,1485,0,0
126,-461,0,0,0,0,0,0,0,0,0,-1,1350,1485,0,0
133,-461,0,0,0,0,0,0,0,0,0,-1,1357,1485,0,0
140,-461,0,0,0,0,0,0,0,0,0,-1,1364,1485,0,0
147,-461,0,0,0,0,0,0,0,0,0,-1,1371,1485,0,0
154,-461,0,0,0,0,0,0,0,0,0,-1,1378,1485,0,0
161,-461,0,0,0,0,0,0,0,0,0,-1,1385,1485,0,0
168,-461,0,0,0,0,0,0,0,0,0,-1,1392,1485,0,0
175,-461,0,0,0,0,0,0,0,0,0,-1,1399,1485,0,0
182,-461,0,0,0,0,0,0,0,0,0,-1,1406,1485,0,0
189,-461,0,0,0,0,0,0,0,0,0,-1,1413,1485,0,0
196,-461,0,0,0,0,0,0,0,0,0,-1,1420,1485,0,0
203,-461,0,0,0,0,0,0,0,0,0,-1,1427,1485,0,0
210,-461,0,0,0,0,0,0,0,0,0,-1,1434,1485,0,0
217,-461,0,0,0,0,0,0,0,0,0,-1,1441,1485,0,0
224,-461,0,0,0,0,0,0,0,0,0,-1,1448,1485,0,0
231,-461,0,0,0,0,0,0,0,0,0,-1,1455,1485,0,0
238,-461,0,0,0,0,0,0,0,0,0,-1,1462,1485,0,0
245,-461,0,0,0,0,0,0,0,0,0,-1,1469,1485,0,0
252,-461,0,0,0,0,0,0,0,0,0,-1,1476,1485,0,0
259,-461,0,0,0,0,0,0,0,0,0,-1,1483,1485,0,0
266,-461,0,0,0,0,0,0,0,0,0,-1,1490,1485,0,0
273,-461,0,0,0,0,0,0,0,0,0,-1,1497,1485,0,0
280,-461,0,0,0,0,0,0,0,0,0,-1,1504,1485,0,0
287,-461,0,0,0,0,0,0,0,0,0,-1,1511,1485,0,0
294,-461,0,0,0,0,0,0,0,0,0,-1,1518,1485,0,0
301,-461,0,0,0,0,0,0,0,0,0,-1,1525,1485,0,0
308,-461,0,0,0,0,0,0,0,0,0,-1,1532,1485,0,0
315,-461,0,0,0,0,0,0,0,0,0,-1,1539,1485,0,0
322,-461,0,0,0,0,0,0,0,0,0,-1,1546,1485,0,0
329,-461,0,0,0,0,0,0,0,0,0,-1,1553,1485,0,0
336,-461,0,0,0,0,0,0,0,0,0,-1,1560,1485,0,0
343,-461,0,0,0,0,0,0,0,0,0,-1,1567,1485,0,0
350,-461,0,0,0,0,0,0,0,0,0,-1,1574,1485,0,0
357,-461,0,0,0,0,0,0,0,0,0,-1,1581,1485,0,0
364,-461,0,0,0,0,0,0,0,0,0,-1,1588,1485,0,0
371,-461,0,0,0,0,0,0,0,0,0,-1,1595,1485,0,0
378,-461,0,0,0,0,0,0,0,0,0,-1,1602,1485,0,0
385,-461,0,0,0,0,0,0,0,0,0,-1,1609,1485,0,0
392,-461,0,0,0,0,0,0,0,0,0,-1,1616,1485,0,0
399,-461,0,0,0,0,0,0,0,0,0,-1,1623,1485,0,0
406,-461,0,0,0,0,0,0,0,0,0,-1,1630,1485,0,0
413,-461,0,0,0,0,0,0,0,0,0,-1,1637,1485,0,0
420,-461,0,0,0,0,0,0,0,0,0,-1,1644,1485,0,0
427,-461,0,0,0,0,0,0,0,0,0,-1,1651,1485,0,0
434,-461,0,0,0,0,0,0,0,0,0,-1,1658,1485,0,0
441,-461,0,0,0,0,0,0,0,0,0,-1,1665,1485,0,0
448,-461,0,0,0,0,0,0,0,0,0,-1,1672,1485,0,0
455,-461,0,0,0,0,0,0,0,0,0,-1,1679,1485,0,0
462,-461,0,0,0,0,0,0,0,0,0,-1,1686,1485,0,0
469,-461,0,0,0,0,0,0,0,0,0,-1,1693,1485,0,0
476,-461,-0.328003,0.376343,0,0,0,0,0,0,0,-1,1700,1485,-0.327944,-0.376363
483,-461,0.0603027,0.275269,0.0245645,0.00817985,0.000458538,0.0245773,0.00816702,0.0279567,0.0144533,0.0479235,1707,1485,0.0602551,-0.275254
490,-461,0.583252,0.0303955,0.0278374,0.00079189,0.00450861,0.0285692,6.0088e-05,0.160909,0.0190262,0.0415236,1714,1485,0.583258,-0.0304341
497,-461,0.505737,-0.310181,0.0291726,-0.00627248,0.00707307,0.0305319,-0.00763179,0.189865,0.0233186,0.0422527,1721,1485,0.505708,0.310217
504,-461,-1.62329,-0.2677,0,0,0,0,0,0,0,-1,1728,1485,-1.62334,0.267735
511,-461,-0.970093,0.0184326,0.0284086,-0.0110055,0.0106544,0.0311043,-0.0137013,0.247814,0.026511,0.048608,1735,1485,-0.970054,-0.0184746
518,-461,-0.322388,0.322876,0.026444,-0.0126554,0.0104003,0.0290383,-0.0152497,0.244457,0.0259795,0.0408591,1742,1485,-0.322434,-0.322928
525,-461,0.120972,0.292603,0.0235207,-0.0119235,0.0105088,0.0264022,-0.014805,0.26762,0.024103,0.0422928,1749,1485,0.120971,-0.292564
532,-461,0.473267,0.256104,0.0200181,-0.010125,0.0104355,0.0232783,-0.0133852,0.302803,0.021423,0.0464717,1756,1485,0.473283,-0.256114
539,-461,0.121704,0.525024,0,0,0,0,0,0,0,-1,1763,1485,0.121647,-0.525019
546,-461,0.22583,0.326904,0,0,0,0,0,0,0,-1,1770,1485,0.225842,-0.326884
553,-461,0.0952148,0.182495,0.00914546,-0.00376189,0.00736831,0.0124868,-0.00710321,0.425737,0.0114518,0.0384931,1777,1485,0.0952318,-0.182441
560,-461,-0.0321045,0.0148926,0.00659294,-0.00163411,0.00613111,0.00986262,-0.00490378,0.489925,0.00868415,0.0198687,1784,1485,-0.0321025,-0.014898
567,-461,-0.0749512,-0.0841064,0.00424764,-0.000740858,0.00476977,0.00713596,-0.00362917,0.544487,0.00632422,0.0105378,1791,1485,-0.0748902,0.084097
574,-461,-0.0819092,-0.0759277,0.00201816,0.000366206,0.00308262,0.00438354,-0.00199918,0.6545,0.0037698,0.0118861,1798,1485,-0.0818601,0.0759431
581,-461,-0.0754395,-0.0518799,0.000728904,0.0011379,0.00194857,0.00289267,-0.00102587,0.837681,0.00234639,0.0122118,1805,1485,-0.0753895,0.0519347
588,-461,-0.0985107,-0.0495605,-0.000249756,0.00155221,0.00100519,0.00200111,-0.000698657,1.15079,0.00161804,0.00976412,1812,1485,-0.0984746,0.0495102
595,-461,-0.0889893,-0.0518799,-0.000708909,0.00136005,0.0002454,0.00138876,-0.000737617,1.45434,0.0012467,0.00751223,1819,1485,-0.0889385,0.0519018
602,-461,-0.0756836,-0.055542,-0.000898971,0.00149332,4.72004e-06,0.00149333,-0.00089898,1.56882,0.00139533,0.00835452,1826,1485,-0.0756295,0.055598
609,-461,-0.0721436,-0.050415,-0.000666224,0.00150868,2.14224e-05,0.00150889,-0.000666435,1.56095,0.00128693,0.0105586,1833,1485,-0.0721094,0.0504215
616,-461,-0.0571289,-0.0493164,-0.00053404,0.00113988,-0.000133676,0.00115049,-0.000544648,-1.49161,0.000999305,0.0127426,1840,1485,-0.057171,0.0492848
623,-461,-0.059082,-0.0571289,-0.000384991,0.00182258,-0.000112089,0.00182826,-0.000390668,-1.52019,0.00136778,0.0114313,1847,1485,-0.0590499,0.0571769
630,-461,-0.0751953,-0.0599365,-0.000401176,0.00354467,0.000111585,0.00354782,-0.000404329,1.54255,0.00251086,0.00886379,1854,1485,-0.075204,0.0598913
637,-461,-0.0738525,-0.050415,-0.000526717,0.00478676,0.000139539,0.00479043,-0.000530378,1.54456,0.00338429,0.0102975,1861,1485,-0.0738299,0.0503574
644,-461,-0.0919189,-0.0378418,-0.000347002,0.00699042,0.000411029,0.00701337,-0.000369955,1.51501,0.00480365,0.0123863,1868,1485,-0.0918892,0.0378496
651,-461,-0.0878906,-0.0550537,9.51741e-05,0.00964808,0.000875343,0.00972763,1.56276e-05,1.48017,0.00647988,0.0195188,1875,1485,-0.0878394,0.0550252
658,-461,0.182617,-0.0705566,0.000795127,0.0133182,0.00155767,0.0135091,0.000604287,1.44889,0.00881153,0.0353189,1882,1485,0.182564,0.070556
665,-461,0.464844,-0.0335693,0.00181901,0.0178987,0.00255913,0.0182962,0.00142154,1.41671,0.0117523,0.042806,1889,1485,0.464801,0.0335481
672,-461,0.41394,-0.505859,0.00305301,0.0237294,0.0040648,0.0244998,0.00228261,1.38349,0.015628,0.0443727,1896,1485,0.413999,0.505872
679,-461,0.350708,-0.739502,0.0047182,0.0309168,0.00633485,0.0323682,0.00326683,1.34558,0.0205765,0.0452233,1903,1485,0.350654,0.739548
686,-461,0.271362,-0.671875,0,0,0,0,0,0,0,-1,1910,1485,0.271416,0.671874
693,-461,0,0,0,0,0,0,0,0,0,-1,1917,1485,0,0
700,-461,0,0,0,0,0,0,0,0,0,-1,1924,1485,0,0
707,-461,0,0,0,0,0,0,0,0,0,-1,1931,1485,0,0
714,-461,0,0,0,0,0,0,0,0,0,-1,1938,1485,0,0
721,-461,0,0,0,0,0,0,0,0,0,-1,1945,1485,0,0
728,-461,0,0,0,0,0,0,0,0,0,-1,1952,1485,0,0
735,-461,0,0,0,0,0,0,0,0,0,-1,1959,1485,0,0
742,-461,0,0,0,0,0,0,0,0,0,-1,1966,1485,0,0
749,-461,0,0,0,0,0,0,0,0,0,-1,1973,1485,0,0
756,-461,0,0,0,0,0,0,0,0,0,-1,1980,1485,0,0
763,-461,0,0,0,0,0,0,0,0,0,-1,1987,1485,0,0
770,-461,0,0,0,0,0,0,0,0,0,-1,1994,1485,0,0
777,-461,0,0,0,0,0,0,0,0,0,-1,2001,1485,0,0
784,-461,0,0,0,0,0,0,0,0,0,-1,2008,1485,0,0
791,-461,0,0,0,0,0,0,0,0,0,-1,2015,1485,0,0
798,-461,0,0,0,0,0,0,0,0,0,-1,2022,1485,0,0
805,-461,0,0,0,0,0,0,0,0,0,-1,2029,1485,0,0
812,-461,0,0,0,0,0,0,0,0,0,-1,2036,1485,0,0
-700,-468,0,0,0,0,0,0,0,0,0,-1,524,1492,0,0
-693,-468,0,0,0,0,0,0,0,0,0,-1,531,1492,0,0
-686,-468,0,0,0,0,0,0,0,0,0,-1,538,1492,0,0
-679,-468,0,0,0,0,0,0,0,0,0,-1,545,1492,0,0
-672,-468,0,0,0,0,0,0,0,0,0,-1,552,1492,0,0
-665,-468,0,0,0,0,0,0,0,0,0,-1,559,1492,0,0
-658,-468,0,0,0,0,0,0,0,0,0,-1,566,1492,0,0
-651,-468,0,0,0,0,0,0,0,0,0,-1,573,1492,0,0
-644,-468,0,0,0,0,0,0,0,0,0,-1,580,1492,0,0
-637,-468,0,0,0,0,0,0,0,0,0,-1,587,1492,0,0
-630,-468,0,0,0,0,0,0,0,0,0,-1,594,1492,0,0
-623,-468,0,0,0,0,0,0,0,0,0,-1,601,1492,0,0
-616,-468,0,0,0,0,0,0,0,0,0,-1,608,1492,0,0
-609,-468,0,0,0,0,0,0,0,0,0,-1,615,1492,0,0
-602,-468,0,0,0,0,0,0,0,0,0,-1,622,1492,0,0
-595,-468,0,0,0,0,0,0,0,0,0,-1,629,1492,0,0
-588,-468,0,0,0,0,0,0,0,0,0,-1,636,1492,0,0
-581,-468,0,0,0,0,0,0,0,0,0,-1,643,1492,0,0
-574,-468,0,0,0,0,0,0,0,0,0,-1,650,1492,0,0
-567,-468,0.471313,-0.571167,0,0,0,0,0,0,0,-1,657,1492,0.471303,0.571188
-560,-468,0.974854,-0.532715,-0.0136872,-0.00496718,0.00388255,-0.00348905,-0.0151653,1.20703,0.00917116,0.0471765,664,1492,0.974862,0.532772
-553,-468,0.618835,-0.331299,-0.00794447,-0.00417889,0.000743505,-0.0040374,-0.00808596,1.38275,0.00466843,0.0449469,671,1492,0.618841,0.331323
-546,-468,0.214233,-0.163086,-0.0040704,-0.00369928,-0.00158714,-0.00228689,-0.00548279,-0.843593,0.00317996,0.0437523,678,1492,0.21423,0.163049
-539,-468,0.0717163,-0.0266113,-0.00182356,-0.00320242,-0.00326432,0.000823343,-0.00584932,-0.681326,0.00420097,0.0400316,685,1492,0.071687,0.0265523
-532,-468,0.342529,0.0756836,-0.00039322,-0.00227852,-0.0045718,0.0033321,-0.00600384,-0.683729,0.00546318,0.0394965,692,1492,0.342537,-0.0756594
-525,-468,0.44635,0.0904541,0.000191379,-0.00193121,-0.00499655,0.0042381,-0.00597793,-0.68075,0.00592667,0.041434,699,1492,0.446372,-0.0905058
-518,-468,0.149719,0.117188,7.09994e-05,-0.0014746,-0.00495697,0.00431505,-0.00571866,-0.70807,0.00581183,0.0362144,706,1492,0.149711,-0.117195
-511,-468,-0.0927124,0.026001,-0.000200888,-0.00135923,-0.00469996,0.00395545,-0.00551557,-0.724093,0.00549277,0.0255373,713,1492,-0.0927367,-0.0259852
-504,-468,-0.0703735,-0.0377197,-0.000362862,-0.000860396,-0.00422207,0.00361777,-0.00484102,-0.755972,0.00490068,0.0104749,720,1492,-0.0703731,0.0376709
-497,-468,-0.0517578,-0.0456543,-0.000933127,-0.000137624,-0.00366048,0.00314665,-0.00421741,-0.839516,0.0042666,0.00792427,727,1492,-0.0517691,0.0456371
-490,-468,-0.0518188,-0.0444336,-0.00131738,0.000818884,-0.00298951,0.00292535,-0.00342384,-0.956977,0.00366947,0.00750869,734,1492,-0.0517911,0.0444306
-483,-468,-0.0701294,-0.0445557,-0.00171563,0.00157858,-0.00205774,0.00256724,-0.00270429,-1.1229,0.00304386,0.00758418,741,1492,-0.070137,0.0445206
-476,-468,-0.0645142,-0.0533447,-0.00229062,0.00284783,-0.00114987,0.0030934,-0.0025362,-1.36039,0.00325556,0.00772419,748,1492,-0.0645078,0.0532955
-469,-468,-0.0599365,-0.052124,-0.00233185,0.00467021,-0.000607798,0.00472258,-0.00238422,-1.48485,0.00417649,0.0108419,755,1492,-0.0599137,0.0521591
-462,-468,-0.0584717,-0.0367432,-0.00192628,0.00606933,-0.000252128,0.00607728,-0.00193422,-1.5393,0.00482721,0.0198698,762,1492,-0.0584809,0.0367938
-455,-468,-0.0543213,-0.0529785,-0.00127363,0.00747019,-0.000191936,0.0074744,-0.00127784,-1.54886,0.00545896,0.0212502,769,1492,-0.0543219,0.0530243
-448,-468,-0.0521851,-0.0559082,-0.000707681,0.00956402,-0.000257426,0.00957047,-0.000714129,-1.54576,0.00663118,0.0128923,776,1492,-0.0521961,0.0558515
-441,-468,-0.0546875,-0.0708008,-0.000508437,0.0114565,-0.000645608,0.0114912,-0.000543173,-1.51705,0.00784813,0.0110831,783,1492,-0.0546676,0.0708108
-434,-468,-0.0534058,-0.0792236,-0.000354207,0.0131593,-0.00116869,0.0132596,-0.000454533,-1.48516,0.0089951,0.0102978,790,1492,-0.0533778,0.0791674
-427,-468,-0.0706787,-0.0681152,5.77222e-05,0.0142918,-0.00235454,0.0146712,-0.000321645,-1.41105,0.00988974,0.0123863,797,1492,-0.0706682,0.0680709
-420,-468,-0.0687866,-0.0681152,0.000536918,0.0146163,-0.00404353,0.0156949,-0.000541731,-1.31011,0.0106485,0.0210791,804,1492,-0.0688034,0.0681733
-413,-468,-0.0206909,-0.038208,0.00131117,0.0144219,-0.00640322,0.0170303,-0.00129719,-1.18397,0.0118097,0.039811,811,1492,-0.0206987,0.0382214
-406,-468,0.473083,-1.22778,0.00218168,0.0144781,-0.00923641,0.0194255,-0.00276568,-1.07905,0.0139638,0.0452426,818,1492,0.473105,1.2278
-399,-468,0.744629,-1.12781,0.00280947,0.0135165,-0.0126081,0.0218606,-0.00553462,-0.986168,0.0167267,0.0430272,825,1492,0.744601,1.12778
-392,-468,0.278992,-0.759766,0.0033366,0.011348,-0.0166345,0.0244523,-0.00976769,-0.903552,0.0203542,0.042276,832,1492,0.278987,0.759806
-385,-468,-0.161499,-0.562744,0.0038223,0.0083228,-0.021268,0.0274592,-0.0153141,-0.838104,0.0250248,0.043743,839,1492,-0.161516,0.562724
-378,-468,-0.588135,-0.0910645,0.00425826,0.00422976,-0.0264923,0.0307363,-0.0222483,-0.785129,0.0307213,0.045622,846,1492,-0.588117,0.0910928
-371,-468,-0.652527,0.121704,0.00494994,-0.00189539,-0.0316137,0.0333258,-0.0302712,-0.731476,0.0367318,0.0468771,853,1492,-0.652528,-0.121685
-364,-468,-0.747498,-0.279175,0.00575278,-0.011023,-0.0362543,0.0345769,-0.0398471,-0.671717,0.0430046,0.0484409,860,1492,-0.747486,0.279152
-357,-468,-0.749207,-0.695435,0,0,0,0,0,0,0,-1,867,1492,-0.749208,0.695389
-350,-468,-1.2594,1.099,0,0,0,0,0,0,0,-1,874,1492,-1.25941,-1.09899
-343,-468,0,0,0,0,0,0,0,0,0,-1,881,1492,0,0
-336,-468,0,0,0,0,0,0,0,0,0,-1,888,1492,0,0
-329,-468,0,0,0,0,0,0,0,0,0,-1,895,1492,0,0
-322,-468,0,0,0,0,0,0,0,0,0,-1,902,1492,0,0
-315,-468,0,0,0,0,0,0,0,0,0,-1,909,1492,0,0
-308,-468,0,0,0,0,0,0,0,0,0,-1,916,1492,0,0
-301,-468,0,0,0,0,0,0,0,0,0,-1,923,1492,0,0
-294,-468,0,0,0,0,0,0,0,0,0,-1,930,1492,0,0
-287,-468,0,0,0,0,0,0,0,0,0,-1,937,1492,0,0
-280,-468,0,0,0,0,0,0,0,0,0,-1,944,1492,0,0
-273,-468,0,0,0,0,0,0,0,0,0,-1,951,1492,0,0
-266,-468,0,0,0,0,0,0,0,0,0,-1,958,1492,0,0
-259,-468,0,0,0,0,0,0,0,0,0,-1,965,1492,0,0
-252,-468,0,0,0,0,0,0,0,0,0,-1,972,1492,0,0
-245,-468,0,0,0,0,0,0,0,0,0,-1,979,1492,0,0
-238,-468,0,0,0,0,0,0,0,0,0,-1,986,1492,0,0
-231,-468,0,0,0,0,0,0,0,0,0,-1,993,1492,0,0
-224,-468,0,0,0,0,0,0,0,0,0,-1,1000,1492,0,0
-217,-468,0,0,0,0,0,0,0,0,0,-1,1007,1492,0,0
-210,-468,0,0,0,0,0,0,0,0,0,-1,1014,1492,0,0
-203,-468,0,0,0,0,0,0,0,0,0,-1,1021,1492,0,0
-196,-468,0,0,0,0,0,0,0,0,0,-1,1028,1492,0,0
-189,-468,0,0,0,0,0,0,0,0,0,-1,1035,1492,0,0
-182,-468,0,0,0,0,0,0,0,0,0,-1,1042,1492,0,0
-175,-468,0,0,0,0,0,0,0,0,0,-1,1049,1492,0,0
-168,-468,0,0,0,0,0,0,0,0,0,-1,1056,1492,0,0
-161,-468,0,0,0,0,0,0,0,0,0,-1,1063,1492,0,0
-154,-468,0,0,0,0,0,0,0,0,0,-1,1070,1492,0,0
-147,-468,0,0,0,0,0,0,0,0,0,-1,1077,1492,0,0
-140,-468,0,0,0,0,0,0,0,0,0,-1,1084,1492,0,0
-133,-468,0,0,0,0,0,0,0,0,0,-1,1091,1492,0,0
-126,-468,0,0,0,0,0,0,0,0,0,-1,1098,1492,0,0
-119,-468,0,0,0,0,0,0,0,0,0,-1,1105,1492,0,0
-112,-468,0,0,0,0,0,0,0,0,0,-1,1112,1492,0,0
-105,-468,0,0,0,0,0,0,0,0,0,-1,1119,1492,0,0
-98,-468,0,0,0,0,0,0,0,0,0,-1,1126,1492,0,0
-91,-468,0,0,0,0,0,0,0,0,0,-1,1133,1492,0,0
-84,-468,0,0,0,0,0,0,0,0,0,-1,1140,1492,0,0
-77,-468,0,0,0,0,0,0,0,0,0,-1,1147,1492,0,0
-70,-468,0,0,0,0,0,0,0,0,0,-1,1154,1492,0,0
-63,-468,0,0,0,0,0,0,0,0,0,-1,1161,1492,0,0
-56,-468,0,0,0,0,0,0,0,0,0,-1,1168,1492,0,0
-49,-468,0,0,0,0,0,0,0,0,0,-1,1175,1492,0,0
-42,-468,0,0,0,0,0,0,0,0,0,-1,1182,1492,0,0
-35,-468,0,0,0,0,0,0,0,0,0,-1,1189,1492,0,0
-28,-468,0,0,0,0,0,0,0,0,0,-1,1196,1492,0,0
-21,-468,0,0,0,0,0,0,0,0,0,-1,1203,1492,0,0
-14,-468,0,0,0,0,0,0,0,0,0,-1,1210,1492,0,0
-7,-468,0,0,0,0,0,0,0,0,0,-1,1217,1492,0,0
0,-468,0,0,0,0,0,0,0,0,0,-1,1224,1492,0,0
7,-468,0,0,0,0,0,0,0,0,0,-1,1231,1492,0,0
14,-468,0,0,0,0,0,0,0,0,0,-1,1238,1492,0,0
21,-468,0,0,0,0,0,0,0,0,0,-1,1245,1492,0,0
28,-468,0,0,0,0,0,0,0,0,0,-1,1252,1492,0,0
35,-468,0,0,0,0,0,0,0,0,0,-1,1259,1492,0,0
42,-468,0,0,0,0,0,0,0,0,0,-1,1266,1492,0,0
49,-468,0,0,0,0,0,0,0,0,0,-1,1273,1492,0,0
56,-468,0,0,0,0,0,0,0,0,0,-1,1280,1492,0,0
63,-468,0,0,0,0,0,0,0,0,0,-1,1287,1492,0,0
70,-468,0,0,0,0,0,0,0,0,0,-1,1294,1492,0,0
77,-468,0,0,0,0,0,0,0,0,0,-1,1301,1492,0,0
84,-468,0,0,0,0,0,0,0,0,0,-1,1308,1492,0,0
91,-468,0,0,0,0,0,0,0,0,0,-1,1315,1492,0,0
98,-468,0,0,0,0,0,0,0,0,0,-1,1322,1492,0,0
105,-468,0,0,0,0,0,0,0,0,0,-1,1329,1492,0,0
112,-468,0,0,0,0,0,0,0,0,0,-1,1336,1492,0,0
119,-468,0,0,0,0,0,0,0,0,0,-1,1343,1492,0,0
126,-468,0,0,0,0,0,0,0,0,0,-1,1350,1492,0,0
133,-468,0,0,0,0,0,0,0,0,0,-1,1357,1492,0,0
140,-468,0,0,0,0,0,0,0,0,0,-1,1364,1492,0,0
147,-468,0,0,0,0,0,0,0,0,0,-1,1371,1492,0,0
154,-468,0,0,0,0,0,0,0,0,0,-1,1378,1492,0,0
161,-468,0,0,0,0,0,0,0,0,0,-1,1385,1492,0,0
168,-468,0,0,0,0,0,0,0,0,0,-1,1392,1492,0,0
175,-468,0,0,0,0,0,0,0,0,0,-1,1399,1492,0,0
182,-468,0,0,0,0,0,0,0,0,0,-1,1406,1492,0,0
189,-468,0,0,0,0,0,0,0,0,0,-1,1413,1492,0,0
196,-468,0,0,0,0,0,0,0,0,0,-1,1420,1492,0,0
203,-468,0,0,0,0,0,0,0,0,0,-1,1427,1492,0,0
210,-468,0,0,0,0,0,0,0,0,0,-1,1434,1492,0,0
217,-468,0,0,0,0,0,0,0,0,0,-1,1441,1492,0,0
224,-468,0,0,0,0,0,0,0,0,0,-1,1448,1492,0,0
231,-468,0,0,0,0,0,0,0,0,0,-1,1455,1492,0,0
238,-468,0,0,0,0,0,0,0,0,0,-1,1462,1492,0,0
245,-468,0,0,0,0,0,0,0,0,0,-1,1469,1492,0,0
252,-468,0,0,0,0,0,0,0,0,0,-1,1476,1492,0,0
259,-468,0,0,0,0,0,0,0,0,0,-1,1483,1492,0,0
266,-468,0,0,0,0,0,0,0,0,0,-1,1490,1492,0,0
273,-468,0,0,0,0,0,0,0,0,0,-1,1497,1492,0,0
280,-468,0,0,0,0,0,0,0,0,0,-1,1504,1492,0,0
287,-468,0,0,0,0,0,0,0,0,0,-1,1511,1492,0,0
294,-468,0,0,0,0,0,0,0,0,0,-1,1518,1492,0,0
301,-468,0,0,0,0,0,0,0,0,0,-1,1525,1492,0,0
308,-468,0,0,0,0,0,0,0,0,0,-1,1532,1492,0,0
315,-468,0,0,0,0,0,0,0,0,0,-1,1539,1492,0,0
322,-468,0,0,0,0,0,0,0,0,0,-1,1546,1492,0,0
329,-468,0,0,0,0,0,0,0,0,0,-1,1553,1492,0,0
336,-468,0,0,0,0,0,0,0,0,0,-1,1560,1492,0,0
343,-468,0,0,0,0,0,0,0,0,0,-1,1567,1492,0,0
350,-468,0,0,0,0,0,0,0,0,0,-1,1574,1492,0,0
357,-468,0,0,0,0,0,0,0,0,0,-1,1581,1492,0,0
364,-468,0,0,0,0,0,0,0,0,0,-1,1588,1492,0,0
371,-468,0,0,0,0,0,0,0,0,0,-1,1595,1492,0,0
378,-468,0,0,0,0,0,0,0,0,0,-1,1602,1492,0,0
385,-468,0,0,0,0,0,0,0,0,0,-1,1609,1492,0,0
392,-468,0,0,0,0,0,0,0,0,0,-1,1616,1492,0,0
399,-468,0,0,0,0,0,0,0,0,0,-1,1623,1492,0,0
406,-468,0,0,0,0,0,0,0,0,0,-1,1630,1492,0,0
413,-468,0,0,0,0,0,0,0,0,0,-1,1637,1492,0,0
420,-468,0,0,0,0,0,0,0,0,0,-1,1644,1492,0,0
427,-468,0,0,0,0,0,0,0,0,0,-1,1651,1492,0,0
434,-468,0,0,0,0,0,0,0,0,0,-1,1658,1492,0,0
441,-468,0,0,0,0,0,0,0,0,0,-1,1665,1492,0,0
448,-468,0,0,0,0,0,0,0,0,0,-1,1672,1492,0,0
455,-468,0,0,0,0,0,0,0,0,0,-1,1679,1492,0,0
462,-468,0,0,0,0,0,0,0,0,0,-1,1686,1492,0,0
469,-468,-0.298828,0.867065,0,0,0,0,0,0,0,-1,1693,1492,-0.298844,-0.867015
476,-468,-0.531006,0.581787,0,0,0,0,0,0,0,-1,1700,1492,-0.531049,-0.581732
483,-468,0.126709,-0.217773,0.0155411,0.0127018,0.000988548,0.0158514,0.0123915,0.304131,0.00962389,0.044556,1707,1492,0.126708,0.217814
490,-468,0.73938,-0.107788,0.0190933,0.00570938,0.0038617,0.0201276,0.00467508,0.261693,0.0121633,0.0414023,1714,1492,0.739366,0.107729
497,-468,0.631348,-0.0465088,0.0212324,-0.000596744,0.00571961,0.0226403,-0.00200458,0.241344,0.0158041,0.0379321,1721,1492,0.631401,0.0464674
504,-468,0.0568848,-0.106201,0.021924,-0.00346009,0.0073849,0.0239161,-0.00545221,0.263485,0.0180382,0.0410146,1728,1492,0.0568404,0.106148
511,-468,-0.343872,-0.197021,0.02166,-0.00484599,0.00847186,0.0241364,-0.0073224,0.284387,0.0190079,0.044972,1735,1492,-0.343907,0.19707
518,-468,-0.461182,0.108521,0.0202441,-0.00675528,0.00798418,0.0224285,-0.00893962,0.267049,0.0186602,0.0429129,1742,1492,-0.461122,-0.108576
525,-468,-0.34729,0.167114,0.017917,-0.00658104,0.00797997,0.0202871,-0.00895113,0.288707,0.0172984,0.0454433,1749,1492,-0.347265,-0.167064
532,-468,-0.118774,-0.208984,0.0151137,-0.00587538,0.0078047,0.0176977,-0.00845941,0.319726,0.0154126,0.0454873,1756,1492,-0.118783,0.208974
539,-468,-0.202148,0.00952148,0.0112264,-0.00502434,0.00706147,0.0138661,-0.007664,0.357729,0.0126011,0.0458158,1763,1492,-0.202172,-0.00955436
546,-468,-0.10498,-0.0339355,0,0,0,0,0,0,0,-1,1770,1492,-0.104949,0.0339794
553,-468,-0.0500488,0.0378418,0.00629876,-0.00201552,0.00523481,0.0088263,-0.00454307,0.449821,0.00784975,0.030775,1777,1492,-0.0500585,-0.0378814
560,-468,-0.0625,-0.0372314,0.0043518,-0.000626681,0.00427504,0.0068095,-0.00308438,0.521757,0.00584564,0.0149106,1784,1492,-0.0625168,0.0371861
567,-468,-0.0469971,-0.0736084,0.00253557,-0.000279876,0.0032218,0.00464376,-0.00238807,0.579429,0.00412887,0.0129084,1791,1492,-0.0469564,0.0736555
574,-468,-0.0544434,-0.0616455,0.000790165,0.000322472,0.00181298,0.00238432,-0.00127168,0.72126,0.00214313,0.0129008,1798,1492,-0.0544488,0.0616184
581,-468,-0.0688477,-0.0483398,-0.000166862,0.000746068,0.000899204,0.00129803,-0.000718825,1.02027,0.00118033,0.0135922,1805,1492,-0.0688829,0.0483355
588,-468,-0.0878906,-0.0587158,-0.000902938,0.0010096,0.000164228,0.0010236,-0.000916938,1.48576,0.00112094,0.0114287,1812,1492,-0.087904,0.0587203
595,-468,-0.0827637,-0.0505371,-0.00128601,0.000934737,-0.000393279,0.00100233,-0.0013536,-1.4006,0.00136522,0.00894957,1819,1492,-0.0827091,0.0504849
602,-468,-0.072998,-0.0456543,-0.00149026,0.0011452,-0.000501725,0.00123748,-0.00158255,-1.3889,0.0016322,0.00811748,1826,1492,-0.0730455,0.0456152
609,-468,-0.0770264,-0.0574951,-0.00136625,0.00132451,-0.000323338,0.00136282,-0.00140456,-1.45287,0.00159781,0.00884838,1833,1492,-0.0770421,0.0574507
616,-468,-0.0598145,-0.0628662,-0.00140859,0.00117253,-0.000409267,0.00123587,-0.00147193,-1.41725,0.00156532,0.00895188,1840,1492,-0.059789,0.0629031
623,-468,-0.0706787,-0.0599365,-0.00142337,0.00213422,-0.000227812,0.00214875,-0.0014379,-1.50711,0.00208427,0.00959577,1847,1492,-0.0706939,0.0599773
630,-468,-0.0767822,-0.0723877,-0.00153442,0.00412576,0.000189837,0.00413212,-0.00154078,1.53731,0.00338724,0.0100796,1854,1492,-0.0767223,0.0723798
637,-468,-0.0654297,-0.0507813,-0.00179256,0.00574533,0.000498633,0.00577817,-0.0018254,1.50503,0.00458339,0.0123711,1861,1492,-0.0654883,0.0507764
644,-468,-0.0811768,-0.0236816,-0.00176581,0.0081839,0.00102941,0.00828928,-0.0018712,1.46877,0.00624409,0.0180664,1868,1492,-0.081233,0.0237404
651,-468,-0.118652,-0.157349,-0.00147357,0.0111489,0.00177704,0.0113943,-0.00171898,1.43357,0.00822927,0.0342258,1875,1492,-0.118678,0.157341
658,-468,0.0477295,-0.290405,-0.000886147,0.0151818,0.00282094,0.0156626,-0.00136701,1.40196,0.010926,0.0384664,1882,1492,0.0477626,0.290345
665,-468,0.247192,-0.355103,0,0,0,0,0,0,0,-1,1889,1492,0.247232,0.355065
672,-468,0.0899658,-0.689697,0,0,0,0,0,0,0,-1,1896,1492,0.0899541,0.689727
679,-468,-0.295654,-1.30688,0.00310565,0.0349035,0.00924217,0.0373946,0.000614535,1.30752,0.0247274,0.0438464,1903,1492,-0.295656,1.30683
686,-468,-0.287842,-1.29321,0,0,0,0,0,0,0,-1,1910,1492,-0.287865,1.29326
693,-468,0,0,0,0,0,0,0,0,0,-1,1917,1492,0,0
700,-468,0,0,0,0,0,0,0,0,0,-1,1924,1492,0,0
707,-468,0,0,0,0,0,0,0,0,0,-1,1931,1492,0,0
714,-468,0,0,0,0,0,0,0,0,0,-1,1938,1492,0,0
721,-468,0,0,0,0,0,0,0,0,0,-1,1945,1492,0,0
728,-468,0,0,0,0,0,0,0,0,0,-1,1952,1492,0,0
735,-468,0,0,0,0,0,0,0,0,0,-1,1959,1492,0,0
742,-468,0,0,0,0,0,0,0,0,0,-1,1966,1492,0,0
749,-468,0,0,0,0,0,0,0,0,0,-1,1973,1492,0,0
756,-468,0,0,0,0,0,0,0,0,0,-1,1980,1492,0,0
763,-468,0,0,0,0,0,0,0,0,0,-1,1987,1492,0,0
770,-468,0,0,0,0,0,0,0,0,0,-1,1994,1492,0,0
777,-468,0,0,0,0,0,0,0,0,0,-1,2001,1492,0,0
784,-468,0,0,0,0,0,0,0,0,0,-1,2008,1492,0,0
791,-468,0,0,0,0,0,0,0,0,0,-1,2015,1492,0,0
798,-468,0,0,0,0,0,0,0,0,0,-1,2022,1492,0,0
805,-468,0,0,0,0,0,0,0,0,0,-1,2029,1492,0,0
812,-468,0,0,0,0,0,0,0,0,0,-1,2036,1492,0,0
-700,-475,0,0,0,0,0,0,0,0,0,-1,524,1499,0,0
-693,-475,0,0,0,0,0,0,0,0,0,-1,531,1499,0,0
-686,-475,0,0,0,0,0,0,0,0,0,-1,538,1499,0,0
-679,-475,0,0,0,0,0,0,0,0,0,-1,545,1499,0,0
-672,-475,0,0,0,0,0,0,0,0,0,-1,552,1499,0,0
-665,-475,0,0,0,0,0,0,0,0,0,-1,559,1499,0,0
-658,-475,0,0,0,0,0,0,0,0,0,-1,566,1499,0,0
-651,-475,0,0,0,0,0,0,0,0,0,-1,573,1499,0,0
-644,-475,0,0,0,0,0,0,0,0,0,-1,580,1499,0,0
-637,-475,0,0,0,0,0,0,0,0,0,-1,587,1499,0,0
-630,-475,0,0,0,0,0,0,0,0,0,-1,594,1499,0,0
-623,-475,0,0,0,0,0,0,0,0,0,-1,601,1499,0,0
-616,-475,0,0,0,0,0,0,0,0,0,-1,608,1499,0,0
-609,-475,0,0,0,0,0,0,0,0,0,-1,615,1499,0,0
-602,-475,0,0,0,0,0,0,0,0,0,-1,622,1499,0,0
-595,-475,0,0,0,0,0,0,0,0,0,-1,629,1499,0,0
-588,-475,0,0,0,0,0,0,0,0,0,-1,636,1499,0,0
-581,-475,0,0,0,0,0,0,0,0,0,-1,643,1499,0,0
-574,-475,0,0,0,0,0,0,0,0,0,-1,650,1499,0,0
-567,-475,0,0,0,0,0,0,0,0,0,-1,657,1499,0,0
-560,-475,1.18726,-0.35791,-0.0058141,-0.0132481,0.00301586,-0.00474451,-0.0143177,0.340817,0.00842158,0.0496431,664,1499,1.18726,0.357959
-553,-475,0.914856,0.0106201,-0.00158644,-0.0108345,-0.000258732,-0.0015792,-0.0108417,-0.0279479,0.00676313,0.0484801,671,1499,0.91485,-0.0106803
-546,-475,0.536377,-0.0515137,0.000814727,-0.00872903,-0.00270327,0.00152723,-0.00944153,-0.257711,0.00686033,0.0425093,678,1499,0.536348,0.0514973
-539,-475,0.0860596,-0.147217,0.0017375,-0.00674958,-0.00455334,0.00371815,-0.00873023,-0.410301,0.0073787,0.0387641,685,1499,0.0860333,0.147227
-532,-475,0.172241,-0.000366211,0,0,0,0,0,0,0,-1,692,1499,0.172243,0.000384318
-525,-475,0.344604,0.212036,0.00153028,-0.0035205,-0.0063146,0.00580575,-0.00779597,-0.595176,0.00788093,0.042385,699,1499,0.344614,-0.212054
-518,-475,0.231079,0.0206299,0.000757403,-0.00227612,-0.00631662,0.00573682,-0.00725553,-0.667568,0.0075182,0.0426536,706,1499,0.231088,-0.0206681
-511,-475,-0.108459,0.122559,2.79744e-05,-0.00174863,-0.00597804,0.00518335,-0.00690401,-0.711641,0.00700217,0.0400397,713,1499,-0.108473,-0.12251
-504,-475,-0.139404,0.015625,-0.000399278,-0.00105755,-0.00543163,0.00471318,-0.00617001,-0.755137,0.00630215,0.0220485,720,1499,-0.139404,-0.0156021
-497,-475,-0.065918,-0.0355225,-0.00111004,-0.000317251,-0.00485784,0.00416035,-0.00558763,-0.826107,0.00564807,0.0101521,727,1499,-0.0659271,0.0355651
-490,-475,-0.0614624,-0.0366211,-0.0014987,0.000456978,-0.00412103,0.00371459,-0.00475631,-0.901884,0.00490299,0.0078121,734,1499,-0.0614729,0.0366316
-483,-475,-0.0684204,-0.0441895,-0.00178076,0.000932095,-0.00313009,0.00298702,-0.00383569,-0.98986,0.00394924,0.0083773,741,1499,-0.0684263,0.0441584
-476,-475,-0.0723267,-0.0545654,-0.00214289,0.00171016,-0.00217837,0.00269169,-0.00312442,-1.14746,0.00336103,0.00923734,748,1499,-0.0723147,0.054554
-469,-475,-0.0657959,-0.0600586,-0.00194916,0.0027343,-0.00158781,0.00322185,-0.00243671,-1.27288,0.00327744,0.00967092,755,1499,-0.0658103,0.0600993
-462,-475,-0.0617676,-0.0727539,-0.0013252,0.00347763,-0.00120376,0.00376245,-0.00161001,-1.33846,0.00318369,0.0144936,762,1499,-0.0617401,0.0727637
-455,-475,-0.0654907,-0.0629883,-0.000487218,0.00407274,-0.00109574,0.00432238,-0.000736853,-1.3468,0.00315601,0.0143397,769,1499,-0.0655035,0.0629669
-448,-475,-0.0632935,-0.0496826,0.000193943,0.00515119,-0.00107679,0.00537498,-2.98489e-05,-1.36588,0.00359331,0.0120466,776,1499,-0.0632832,0.0496437
-441,-475,-0.0667725,-0.0554199,0.000451866,0.00604602,-0.00127645,0.00632351,0.000174376,-1.35673,0.00415877,0.0151869,783,1499,-0.0667819,0.0554021
-434,-475,-0.0739136,-0.0883789,0.000655829,0.00671525,-0.00155521,0.0070911,0.00027998,-1.33367,0.00463689,0.00983385,790,1499,-0.0739143,0.088318
-427,-475,-0.0678101,-0.0638428,0.00103099,0.00692223,-0.00246632,0.0078184,0.000134812,-1.22226,0.00516792,0.00991976,797,1499,-0.0678349,0.0638184
-420,-475,-0.0784912,-0.0482178,0.001438,0.00649809,-0.00381297,0.00854405,-0.000607966,-1.07831,0.00590912,0.0127975,804,1499,-0.078473,0.048263
-413,-475,-0.0584717,-0.0124512,0.00212627,0.00573888,-0.00574134,0.00995136,-0.00208621,-0.937803,0.00742795,0.0269956,811,1499,-0.0584859,0.0124006
-406,-475,-0.165405,0.0454102,0.00290594,0.00532091,-0.00805888,0.0122623,-0.00403541,-0.859761,0.00980093,0.0440409,818,1499,-0.165431,-0.045369
-399,-475,0.454651,-0.953369,0.00343693,0.00402021,-0.0108565,0.014589,-0.00713188,-0.798826,0.0127845,0.0483285,825,1499,0.454643,0.953409
-392,-475,0.179565,-0.460205,0.00388171,0.00172644,-0.0142334,0.0170782,-0.0114701,-0.747614,0.0165881,0.0459564,832,1499,0.17954,0.460201
-385,-475,-0.129517,0.445435,0,0,0,0,0,0,0,-1,839,1499,-0.129495,-0.44545
-378,-475,-0.415283,0.288574,0.00484895,-0.00452292,-0.0226414,0.0232842,-0.0229582,-0.683357,0.0266983,0.0452461,846,1499,-0.415284,-0.288514
-371,-475,-0.535156,0.121704,0.00550865,-0.00999996,-0.0270477,0.0258916,-0.0303829,-0.645797,0.0325246,0.0489351,853,1499,-0.535185,-0.121665
-364,-475,-0.672363,-0.050415,0,0,0,0,0,0,0,-1,860,1499,-0.672381,0.0503753
-357,-475,-0.447266,-0.361328,0,0,0,0,0,0,0,-1,867,1499,-0.447285,0.361367
-350,-475,-0.950806,-0.339844,0,0,0,0,0,0,0,-1,874,1499,-0.95078,0.339892
-343,-475,0.326843,-1.4574,0,0,0,0,0,0,0,-1,881,1499,0.326849,1.45737
-336,-475,0,0,0,0,0,0,0,0,0,-1,888,1499,0,0
-329,-475,0,0,0,0,0,0,0,0,0,-1,895,1499,0,0
-322,-475,0,0,0,0,0,0,0,0,0,-1,902,1499,0,0
-315,-475,0,0,0,0,0,0,0,0,0,-1,909,1499,0,0
-308,-475,0,0,0,0,0,0,0,0,0,-1,916,1499,0,0
-301,-475,0,0,0,0,0,0,0,0,0,-1,923,1499,0,0
-294,-475,0,0,0,0,0,0,0,0,0,-1,930,1499,0,0
-287,-475,0,0,0,0,0,0,0,0,0,-1,937,1499,0,0
-280,-475,0,0,0,0,0,0,0,0,0,-1,944,1499,0,0
-273,-475,0,0,0,0,0,0,0,0,0,-1,951,1499,0,0
-266,-475,0,0,0,0,0,0,0,0,0,-1,958,1499,0,0
-259,-475,0,0,0,0,0,0,0,0,0,-1,965,1499,0,0
-252,-475,0,0,0,0,0,0,0,0,0,-1,972,1499,0,0
-245,-475,0,0,0,0,0,0,0,0,0,-1,979,1499,0,0
-238,-475,0,0,0,0,0,0,0,0,0,-1,986,1499,0,0
-231,-475,0,0,0,0,0,0,0,0,0,-1,993,1499,0,0
-224,-475,0,0,0,0,0,0,0,0,0,-1,1000,1499,0,0
-217,-475,0,0,0,0,0,0,0,0,0,-1,1007,1499,0,0
-210,-475,0,0,0,0,0,0,0,0,0,-1,1014,1499,0,0
-203,-475,0,0,0,0,0,0,0,0,0,-1,1021,1499,0,0
-196,-475,0,0,0,0,0,0,0,0,0,-1,1028,1499,0,0
-189,-475,0,0,0,0,0,0,0,0,0,-1,1035,1499,0,0
-182,-475,0,0,0,0,0,0,0,0,0,-1,1042,1499,0,0
-175,-475,0,0,0,0,0,0,0,0,0,-1,1049,1499,0,0
-168,-475,0,0,0,0,0,0,0,0,0,-1,1056,1499,0,0
-161,-475,0,0,0,0,0,0,0,0,0,-1,1063,1499,0,0
-154,-475,0,0,0,0,0,0,0,0,0,-1,1070,1499,0,0
-147,-475,0,0,0,0,0,0,0,0,0,-1,1077,1499,0,0
-140,-475,0,0,0,0,0,0,0,0,0,-1,1084,1499,0,0
-133,-475,0,0,0,0,0,0,0,0,0,-1,1091,1499,0,0
-126,-475,0,0,0,0,0,0,0,0,0,-1,1098,1499,0,0
-119,-475,0,0,0,0,0,0,0,0,0,-1,1105,1499,0,0
-112,-475,0,0,0,0,0,0,0,0,0,-1,1112,1499,0,0
-105,-475,0,0,0,0,0,0,0,0,0,-1,1119,1499,0,0
-98,-475,0,0,0,0,0,0,0,0,0,-1,1126,1499,0,0
-91,-475,0,0,0,0,0,0,0,0,0,-1,1133,1499,0,0
-84,-475,0,0,0,0,0,0,0,0,0,-1,1140,1499,0,0
-77,-475,0,0,0,0,0,0,0,0,0,-1,1147,1499,0,0
-70,-475,0,0,0,0,0,0,0,0,0,-1,1154,1499,0,0
-63,-475,0,0,0,0,0,0,0,0,0,-1,1161,1499,0,0
-56,-475,0,0,0,0,0,0,0,0,0,-1,1168,1499,0,0
-49,-475,0,0,0,0,0,0,0,0,0,-1,1175,1499,0,0
-42,-475,0,0,0,0,0,0,0,0,0,-1,1182,1499,0,0
-35,-475,0,0,0,0,0,0,0,0,0,-1,1189,1499,0,0
-28,-475,0,0,0,0,0,0,0,0,0,-1,1196,1499,0,0
-21,-475,0,0,0,0,0,0,0,0,0,-1,1203,1499,0,0
-14,-475,0,0,0,0,0,0,0,0,0,-1,1210,1499,0,0
-7,-475,0,0,0,0,0,0,0,0,0,-1,1217,1499,0,0
0,-475,0,0,0,0,0,0,0,0,0,-1,1224,1499,0,0
7,-475,0,0,0,0,0,0,0,0,0,-1,1231,1499,0,0
14,-475,0,0,0,0,0,0,0,0,0,-1,1238,1499,0,0
21,-475,0,0,0,0,0,0,0,0,0,-1,1245,1499,0,0
28,-475,0,0,0,0,0,0,0,0,0,-1,1252,1499,0,0
35,-475,0,0,0,0,0,0,0,0,0,-1,1259,1499,0,0
42,-475,0,0,0,0,0,0,0,0,0,-1,1266,1499,0,0
49,-475,0,0,0,0,0,0,0,0,0,-1,1273,1499,0,0
56,-475,0,0,0,0,0,0,0,0,0,-1,1280,1499,0,0
63,-475,0,0,0,0,0,0,0,0,0,-1,1287,1499,0,0
70,-475,0,0,0,0,0,0,0,0,0,-1,1294,1499,0,0
77,-475,0,0,0,0,0,0,0,0,0,-1,1301,1499,0,0
84,-475,0,0,0,0,0,0,0,0,0,-1,1308,1499,0,0
91,-475,0,0,0,0,0,0,0,0,0,-1,1315,1499,0,0
98,-475,0,0,0,0,0,0,0,0,0,-1,1322,1499,0,0
105,-475,0,0,0,0,0,0,0,0,0,-1,1329,1499,0,0
112,-475,0,0,0,0,0,0,0,0,0,-1,1336,1499,0,0
119,-475,0,0,0,0,0,0,0,0,0,-1,1343,1499,0,0
126,-475,0,0,0,0,0,0,0,0,0,-1,1350,1499,0,0
133,-475,0,0,0,0,0,0,0,0,0,-1,1357,1499,0,0
140,-475,0,0,0,0,0,0,0,0,0,-1,1364,1499,0,0
147,-475,0,0,0,0,0,0,0,0,0,-1,1371,1499,0,0
154,-475,0,0,0,0,0,0,0,0,0,-1,1378,1499,0,0
161,-475,0,0,0,0,0,0,0,0,0,-1,1385,1499,0,0
168,-475,0,0,0,0,0,0,0,0,0,-1,1392,1499,0,0
175,-475,0,0,0,0,0,0,0,0,0,-1,1399,1499,0,0
182,-475,0,0,0,0,0,0,0,0,0,-1,1406,1499,0,0
189,-475,0,0,0,0,0,0,0,0,0,-1,1413,1499,0,0
196,-475,0,0,0,0,0,0,0,0,0,-1,1420,1499,0,0
203,-475,0,0,0,0,0,0,0,0,0,-1,1427,1499,0,0
210,-475,0,0,0,0,0,0,0,0,0,-1,1434,1499,0,0
217,-475,0,0,0,0,0,0,0,0,0,-1,1441,1499,0,0
224,-475,0,0,0,0,0,0,0,0,0,-1,1448,1499,0,0
231,-475,0,0,0,0,0,0,0,0,0,-1,1455,1499,0,0
238,-475,0,0,0,0,0,0,0,0,0,-1,1462,1499,0,0
245,-475,0,0,0,0,0,0,0,0,0,-1,1469,1499,0,0
252,-475,0,0,0,0,0,0,0,0,0,-1,1476,1499,0,0
259,-475,0,0,0,0,0,0,0,0,0,-1,1483,1499,0,0
266,-475,0,0,0,0,0,0,0,0,0,-1,1490,1499,0,0
273,-475,0,0,0,0,0,0,0,0,0,-1,1497,1499,0,0
280,-475,0,0,0,0,0,0,0,0,0,-1,1504,1499,0,0
287,-475,0,0,0,0,0,0,0,0,0,-1,1511,1499,0,0
294,-475,0,0,0,0,0,0,0,0,0,-1,1518,1499,0,0
301,-475,0,0,0,0,0,0,0,0,0,-1,1525,1499,0,0
308,-475,0,0,0,0,0,0,0,0,0,-1,1532,1499,0,0
315,-475,0,0,0,0,0,0,0,0,0,-1,1539,1499,0,0
322,-475,0,0,0,0,0,0,0,0,0,-1,1546,1499,0,0
329,-475,0,0,0,0,0,0,0,0,0,-1,1553,1499,0,0
336,-475,0,0,0,0,0,0,0,0,0,-1,1560,1499,0,0
343,-475,0,0,0,0,0,0,0,0,0,-1,1567,1499,0,0
350,-475,0,0,0,0,0,0,0,0,0,-1,1574,1499,0,0
357,-475,0,0,0,0,0,0,0,0,0,-1,1581,1499,0,0
364,-475,0,0,0,0,0,0,0,0,0,-1,1588,1499,0,0
371,-475,0,0,0,0,0,0,0,0,0,-1,1595,1499,0,0
378,-475,0,0,0,0,0,0,0,0,0,-1,1602,1499,0,0
385,-475,0,0,0,0,0,0,0,0,0,-1,1609,1499,0,0
392,-475,0,0,0,0,0,0,0,0,0,-1,1616,1499,0,0
399,-475,0,0,0,0,0,0,0,0,0,-1,1623,1499,0,0
406,-475,0,0,0,0,0,0,0,0,0,-1,1630,1499,0,0
413,-475,0,0,0,0,0,0,0,0,0,-1,1637,1499,0,0
420,-475,0,0,0,0,0,0,0,0,0,-1,1644,1499,0,0
427,-475,0,0,0,0,0,0,0,0,0,-1,1651,1499,0,0
434,-475,0,0,0,0,0,0,0,0,0,-1,1658,1499,0,0
441,-475,0,0,0,0,0,0,0,0,0,-1,1665,1499,0,0
448,-475,0,0,0,0,0,0,0,0,0,-1,1672,1499,0,0
455,-475,0,0,0,0,0,0,0,0,0,-1,1679,1499,0,0
462,-475,0.196899,0.677002,-0.00975313,0.0469428,-0.0075863,0.0479403,-0.0107507,-1.44005,0.0360816,0.0440741,1686,1499,0.196927,-0.67698
469,-475,-0.279663,0.675903,-0.00161569,0.0337273,-0.00340059,0.0340515,-0.00193991,-1.47574,0.0233745,0.0436851,1693,1499,-0.279696,-0.675943
476,-475,-0.693848,0.458252,0.004487,0.0231434,-0.000685069,0.0231685,0.00446187,-1.53414,0.0141941,0.0468451,1700,1499,-0.693908,-0.458261
483,-475,-1.1532,0.0334473,0,0,0,0,0,0,0,-1,1707,1499,-1.15315,-0.0334834
490,-475,0.689575,-0.0057373,0,0,0,0,0,0,0,-1,1714,1499,0.689523,0.00570962
497,-475,1.18982,0.476563,0,0,0,0,0,0,0,-1,1721,1499,1.18977,-0.476611
504,-475,0.430298,0.405151,0,0,0,0,0,0,0,-1,1728,1499,0.430242,-0.405153
511,-475,-0.252686,-0.447021,0,0,0,0,0,0,0,-1,1735,1499,-0.252736,0.447081
518,-475,-0.114624,-0.296265,0.0151516,-0.00229972,0.00596255,0.0169943,-0.00414237,0.299726,0.0129334,0.0440943,1742,1499,-0.114607,0.29627
525,-475,-0.282349,0.0661621,0.0132473,-0.002464,0.00589061,0.0152106,-0.00442723,0.321704,0.011894,0.0446502,1749,1499,-0.282388,-0.0661814
532,-475,-0.263062,0.0610352,0.0109833,-0.00227413,0.0057459,0.013127,-0.00441783,0.357088,0.0105373,0.0431441,1756,1499,-0.26306,-0.0610015
539,-475,-0.100952,-0.0323486,0.00772381,-0.00186735,0.00510979,0.0099359,-0.00407944,0.408554,0.00832391,0.0433487,1763,1499,-0.100994,0.0323377
546,-475,-0.0789795,-0.0483398,0.00540802,-0.0009218,0.00444947,0.00770337,-0.00321715,0.476263,0.00647988,0.0336902,1770,1499,-0.0789578,0.0483157
553,-475,-0.0794678,-0.0461426,0.00394693,3.49201e-05,0.00378049,0.00624746,-0.00226561,0.546665,0.00509108,0.0164038,1777,1499,-0.0795136,0.0461545
560,-475,-0.0812988,-0.0653076,0.00256241,0.00091316,0.00311794,0.00496293,-0.00148736,0.65612,0.00390012,0.0125014,1784,1499,-0.0812785,0.0652778
567,-475,-0.0389404,-0.103149,0.0012437,0.000905278,0.00236385,0.00344439,-0.00129541,0.749667,0.00282872,0.013695,1791,1499,-0.0389341,0.10311
574,-475,-0.0505371,-0.0784912,-6.26698e-05,0.00111983,0.00122776,0.00189129,-0.000834123,1.0098,0.00161249,0.0137154,1798,1499,-0.0505225,0.0784998
581,-475,-0.0722656,-0.0477295,-0.000734617,0.00123096,0.000481465,0.00134256,-0.000846215,1.34303,0.00127448,0.0113903,1805,1499,-0.0722266,0.0476915
588,-475,-0.0700684,-0.0546875,-0.00129739,0.001305,-0.000140515,0.00131257,-0.00130495,-1.51701,0.00151123,0.0097476,1812,1499,-0.0701139,0.0546961
595,-475,-0.0653076,-0.052002,-0.00169019,0.00121692,-0.000629742,0.00134747,-0.00182074,-1.36638,0.00183596,0.00991061,1819,1499,-0.0653388,0.0519441
602,-475,-0.0622559,-0.0534668,-0.00198432,0.00134858,-0.000743244,0.00150682,-0.00214256,-1.36103,0.0021176,0.0113728,1826,1499,-0.0622491,0.0534521
609,-475,-0.0644531,-0.065918,-0.00206064,0.0015484,-0.00052298,0.00162266,-0.00213489,-1.42975,0.00217613,0.0108309,1833,1499,-0.0644979,0.0658933
616,-475,-0.0689697,-0.0649414,-0.00237437,0.00142083,-0.0006625,0.00153315,-0.00248669,-1.40285,0.00234252,0.0100931,1840,1499,-0.0690134,0.0649765
623,-475,-0.0765381,-0.0605469,-0.00267261,0.00247185,-0.000446605,0.00251034,-0.00271109,-1.48484,0.00301534,0.00980659,1847,1499,-0.0765696,0.0605267
630,-475,-0.0831299,-0.0550537,-0.00302041,0.00456704,5.8586e-05,0.00456749,-0.00302086,1.56308,0.00441137,0.0117045,1854,1499,-0.0831348,0.0550076
637,-475,-0.0505371,-0.0385742,-0.00355211,0.00639581,0.000550869,0.00642622,-0.00358252,1.51565,0.00585578,0.0207714,1861,1499,-0.0505747,0.0385943
644,-475,-0.161743,-0.170166,-0.0038319,0.00908926,0.00135089,0.00922898,-0.00397162,1.46773,0.00782025,0.0349245,1868,1499,-0.161773,0.170216
651,-475,-0.26001,-0.306152,-0.00387543,0.0123692,0.00241276,0.01272,-0.00422622,1.42642,0.0101853,0.0441769,1875,1499,-0.259987,0.306103
658,-475,-0.019165,0.00427246,-0.00360643,0.0167433,0.00386332,0.017452,-0.00431518,1.38936,0.0133083,0.0434158,1882,1499,-0.0191246,-0.00424897
665,-475,0.139038,0.396973,0,0,0,0,0,0,0,-1,1889,1499,0.139028,-0.396992
672,-475,-1.38245,-2.23145,-0.00193814,0.0295169,0.00844086,0.0316389,-0.00406007,1.32451,0.022568,0.042331,1896,1499,-1.38247,2.2315
679,-475,-0.890137,-2.17944,-0.000508045,0.0384001,0.0119033,0.0417528,-0.00386076,1.29625,0.0292073,0.0448477,1903,1499,-0.890193,2.17944
686,-475,0,0,0,0,0,0,0,0,0,-1,1910,1499,0,0
693,-475,0,0,0,0,0,0,0,0,0,-1,1917,1499,0,0
700,-475,0,0,0,0,0,0,0,0,0,-1,1924,1499,0,0
707,-475,0,0,0,0,0,0,0,0,0,-1,1931,1499,0,0
714,-475,0,0,0,0,0,0,0,0,0,-1,1938,1499,0,0
721,-475,0,0,0,0,0,0,0,0,0,-1,1945,1499,0,0
728,-475,0,0,0,0,0,0,0,0,0,-1,1952,1499,0,0
735,-475,0,0,0,0,0,0,0,0,0,-1,1959,1499,0,0
742,-475,0,0,0,0,0,0,0,0,0,-1,1966,1499,0,0
749,-475,0,0,0,0,0,0,0,0,0,-1,1973,1499,0,0
756,-475,0,0,0,0,0,0,0,0,0,-1,1980,1499,0,0
763,-475,0,0,0,0,0,0,0,0,0,-1,1987,1499,0,0
770,-475,0,0,0,0,0,0,0,0,0,-1,1994,1499,0,0
777,-475,0,0,0,0,0,0,0,0,0,-1,2001,1499,0,0
784,-475,0,0,0,0,0,0,0,0,0,-1,2008,1499,0,0
791,-475,0,0,0,0,0,0,0,0,0,-1,2015,1499,0,0
798,-475,0,0,0,0,0,0,0,0,0,-1,2022,1499,0,0
805,-475,0,0,0,0,0,0,0,0,0,-1,2029,1499,0,0
812,-475,0,0,0,0,0,0,0,0,0,-1,2036,1499,0,0
-700,-482,0,0,0,0,0,0,0,0,0,-1,524,1506,0,0
-693,-482,0,0,0,0,0,0,0,0,0,-1,531,1506,0,0
-686,-482,0,0,0,0,0,0,0,0,0,-1,538,1506,0,0
-679,-482,0,0,0,0,0,0,0,0,0,-1,545,1506,0,0
-672,-482,0,0,0,0,0,0,0,0,0,-1,552,1506,0,0
-665,-482,0,0,0,0,0,0,0,0,0,-1,559,1506,0,0
-658,-482,0,0,0,0,0,0,0,0,0,-1,566,1506,0,0
-651,-482,0,0,0,0,0,0,0,0,0,-1,573,1506,0,0
-644,-482,0,0,0,0,0,0,0,0,0,-1,580,1506,0,0
-637,-482,0,0,0,0,0,0,0,0,0,-1,587,1506,0,0
-630,-482,0,0,0,0,0,0,0,0,0,-1,594,1506,0,0
-623,-482,0,0,0,0,0,0,0,0,0,-1,601,1506,0,0
-616,-482,0,0,0,0,0,0,0,0,0,-1,608,1506,0,0
-609,-482,0,0,0,0,0,0,0,0,0,-1,615,1506,0,0
-602,-482,0,0,0,0,0,0,0,0,0,-1,622,1506,0,0
-595,-482,0,0,0,0,0,0,0,0,0,-1,629,1506,0,0
-588,-482,0,0,0,0,0,0,0,0,0,-1,636,1506,0,0
-581,-482,0,0,0,0,0,0,0,0,0,-1,643,1506,0,0
-574,-482,0,0,0,0,0,0,0,0,0,-1,650,1506,0,0
-567,-482,0,0,0,0,0,0,0,0,0,-1,657,1506,0,0
-560,-482,0,0,0,0,0,0,0,0,0,-1,664,1506,0,0
-553,-482,-0.0922852,-0.0759277,0.00608449,-0.0179217,-0.000111187,0.006085,-0.0179222,-0.00463147,0.0144113,0.0469337,671,1506,-0.0922607,0.075965
-546,-482,0.726624,-0.399048,0.00619509,-0.0135224,-0.00285818,0.00660105,-0.0139284,-0.141089,0.0121017,0.0451117,678,1506,0.726595,0.399018
-539,-482,0.445984,0.0394287,0.00521819,-0.00963725,-0.00498782,0.00673751,-0.0111566,-0.295676,0.0104356,0.0405352,685,1506,0.44601,-0.0394838
-532,-482,0.343384,-0.0101318,0.00369753,-0.0063644,-0.00636642,0.00678087,-0.00944774,-0.451019,0.00941167,0.0415948,692,1506,0.34341,0.0100801
-525,-482,0.421753,0.0527344,0.00218017,-0.00411306,-0.00696382,0.00667528,-0.00860817,-0.573202,0.0088474,0.0422095,699,1506,0.421762,-0.0527508
-518,-482,0.519958,-0.187866,0.000624653,-0.00229368,-0.00704471,0.00635973,-0.00802875,-0.683278,0.0083258,0.0463498,706,1506,0.519936,0.187897
-511,-482,0.0551758,0.0917969,-0.000609864,-0.00142673,-0.00668807,0.00568223,-0.00771883,-0.754902,0.00776683,0.0470717,713,1506,0.0551932,-0.0917398
-504,-482,-0.284851,0.184082,-0.00129987,-0.000639503,-0.00609725,0.0051365,-0.00707587,-0.812448,0.00708039,0.0369374,720,1506,-0.284832,-0.184121
-497,-482,-0.0888062,-0.0452881,-0.00212891,1.11942e-05,-0.00552414,0.00456796,-0.00668568,-0.881066,0.00653553,0.0208174,727,1506,-0.0888234,0.045347
-490,-482,-0.0801392,-0.059082,-0.00247172,0.0005456,-0.00475664,0.0040271,-0.00595322,-0.938965,0.0057978,0.0120474,734,1506,-0.0801557,0.0590707
-483,-482,-0.072998,-0.0581055,-0.00257277,0.000667932,-0.00373778,0.00312146,-0.0050263,-0.989925,0.00474677,0.00868448,741,1506,-0.0730203,0.0580855
-476,-482,-0.071228,-0.0651855,-0.00263069,0.000922112,-0.00275264,0.00242178,-0.00413036,-1.07195,0.00382551,0.00930632,748,1506,-0.0712143,0.0651765
-469,-482,-0.0734253,-0.0706787,-0.00211896,0.00122124,-0.00203138,0.00218092,-0.00307864,-1.12945,0.00305132,0.00919254,755,1506,-0.0734446,0.0706966
-462,-482,-0.05896,-0.0797119,-0.00124569,0.00139636,-0.00155146,0.00211301,-0.00196234,-1.13807,0.00235344,0.0109101,762,1506,-0.0589842,0.0797578
-455,-482,-0.0640869,-0.0808105,-0.00014897,0.00134971,-0.00134719,0.00214193,-0.000941195,-1.0392,0.00182449,0.0116732,769,1506,-0.0640961,0.0808688
-448,-482,-0.0645752,-0.0668945,0.00073351,0.0016433,-0.00118416,0.00245694,-8.01272e-05,-0.968782,0.00166531,0.0115674,776,1506,-0.0645472,0.0669307
-441,-482,-0.0710449,-0.0776367,0.00113182,0.00188454,-0.00113178,0.0027009,0.000315462,-0.945917,0.0017052,0.0116418,783,1506,-0.071069,0.0776372
-434,-482,-0.079895,-0.0557861,0.00146378,0.00195268,-0.0011275,0.00286192,0.000554537,-0.89215,0.00175259,0.0135929,790,1506,-0.0798714,0.0558156
-427,-482,-0.0741577,-0.0379639,0.0018687,0.001733,-0.00176162,0.00356378,3.79193e-05,-0.766149,0.00236331,0.0146554,797,1506,-0.0741409,0.0379988
-420,-482,-0.107971,-0.036377,0.0022592,0.00103767,-0.00279814,0.00451246,-0.00121559,-0.677946,0.0034849,0.0150726,804,1506,-0.107982,0.0363618
-413,-482,-0.0985107,-0.0299072,0.0029241,0.000143015,-0.00436448,0.0061142,-0.00304709,-0.63118,0.00538718,0.0168765,811,1506,-0.0984989,0.0299042
-406,-482,-0.130493,-0.0441895,0.00369144,-0.000350769,-0.00627689,0.00826459,-0.00492392,-0.629644,0.00769538,0.033286,818,1506,-0.130497,0.0442349
-399,-482,-0.192139,-0.0692139,0.0042393,-0.00160984,-0.00868086,0.010475,-0.00784553,-0.62292,0.0106136,0.0436881,825,1506,-0.192138,0.0691564
-392,-482,-0.0396729,0.0241699,0.00466231,-0.00367745,-0.0116181,0.0128362,-0.0118514,-0.613103,0.0142572,0.0436593,832,1506,-0.0396689,-0.0241606
-385,-482,-0.264771,0.652466,0,0,0,0,0,0,0,-1,839,1506,-0.264796,-0.652513
-378,-482,-0.379883,0.498779,0.00559645,-0.00887619,-0.0188141,0.0185179,-0.0217976,-0.601808,0.0233018,0.0427186,846,1506,-0.379902,-0.498793
-371,-482,-0.417175,0.132202,0.00612977,-0.0136881,-0.0226639,0.0209563,-0.0285145,-0.579314,0.0286729,0.0439242,853,1506,-0.417186,-0.132219
-364,-482,-0.487549,-0.0968018,0.00648839,-0.0205736,-0.0259228,0.0221992,-0.0362843,-0.544863,0.0340903,0.0450568,860,1506,-0.487546,0.0968422
-357,-482,-0.10022,-0.679443,0.00655208,-0.0289839,-0.0282938,0.0221943,-0.0446261,-0.505028,0.0392967,0.0451904,867,1506,-0.100244,0.679449
-350,-482,0.259705,-1.26636,0,0,0,0,0,0,0,-1,874,1506,0.259691,1.26631
-343,-482,0.80011,-3.10352,0,0,0,0,0,0,0,-1,881,1506,0.8001,3.10351
-336,-482,0.606079,-1.48633,0,0,0,0,0,0,0,-1,888,1506,0.606084,1.48634
-329,-482,0,0,0,0,0,0,0,0,0,-1,895,1506,0,0
-322,-482,0,0,0,0,0,0,0,0,0,-1,902,1506,0,0
-315,-482,0,0,0,0,0,0,0,0,0,-1,909,1506,0,0
-308,-482,0,0,0,0,0,0,0,0,0,-1,916,1506,0,0
-301,-482,0,0,0,0,0,0,0,0,0,-1,923,1506,0,0
-294,-482,0,0,0,0,0,0,0,0,0,-1,930,1506,0,0
-287,-482,0,0,0,0,0,0,0,0,0,-1,937,1506,0,0
-280,-482,0,0,0,0,0,0,0,0,0,-1,944,1506,0,0
-273,-482,0,0,0,0,0,0,0,0,0,-1,951,1506,0,0
-266,-482,0,0,0,0,0,0,0,0,0,-1,958,1506,0,0
-259,-482,0,0,0,0,0,0,0,0,0,-1,965,1506,0,0
-252,-482,0,0,0,0,0,0,0,0,0,-1,972,1506,0,0
-245,-482,0,0,0,0,0,0,0,0,0,-1,979,1506,0,0
-238,-482,0,0,0,0,0,0,0,0,0,-1,986,1506,0,0
-231,-482,0,0,0,0,0,0,0,0,0,-1,993,1506,0,0
-224,-482,0,0,0,0,0,0,0,0,0,-1,1000,1506,0,0
-217,-482,0,0,0,0,0,0,0,0,0,-1,1007,1506,0,0
-210,-482,0,0,0,0,0,0,0,0,0,-1,1014,1506,0,0
-203,-482,0,0,0,0,0,0,0,0,0,-1,1021,1506,0,0
-196,-482,0,0,0,0,0,0,0,0,0,-1,1028,1506,0,0
-189,-482,0,0,0,0,0,0,0,0,0,-1,1035,1506,0,0
-182,-482,0,0,0,0,0,0,0,0,0,-1,1042,1506,0,0
-175,-482,0,0,0,0,0,0,0,0,0,-1,1049,1506,0,0
-168,-482,0,0,0,0,0,0,0,0,0,-1,1056,1506,0,0
-161,-482,0,0,0,0,0,0,0,0,0,-1,1063,1506,0,0
-154,-482,0,0,0,0,0,0,0,0,0,-1,1070,1506,0,0
-147,-482,0,0,0,0,0,0,0,0,0,-1,1077,1506,0,0
-140,-482,0,0,0,0,0,0,0,0,0,-1,1084,1506,0,0
-133,-482,0,0,0,0,0,0,0,0,0,-1,1091,1506,0,0
-126,-482,0,0,0,0,0,0,0,0,0,-1,1098,1506,0,0
-119,-482,0,0,0,0,0,0,0,0,0,-1,1105,1506,0,0
-112,-482,0,0,0,0,0,0,0,0,0,-1,1112,1506,0,0
-105,-482,0,0,0,0,0,0,0,0,0,-1,1119,1506,0,0
-98,-482,0,0,0,0,0,0,0,0,0,-1,1126,1506,0,0
-91,-482,0,0,0,0,0,0,0,0,0,-1,1133,1506,0,0
-84,-482,0,0,0,0,0,0,0,0,0,-1,1140,1506,0,0
-77,-482,0,0,0,0,0,0,0,0,0,-1,1147,1506,0,0
-70,-482,0,0,0,0,0,0,0,0,0,-1,1154,1506,0,0
-63,-482,0,0,0,0,0,0,0,0,0,-1,1161,1506,0,0
-56,-482,0,0,0,0,0,0,0,0,0,-1,1168,1506,0,0
-49,-482,0,0,0,0,0,0,0,0,0,-1,1175,1506,0,0
-42,-482,0,0,0,0,0,0,0,0,0,-1,1182,1506,0,0
-35,-482,0,0,0,0,0,0,0,0,0,-1,1189,1506,0,0
-28,-482,0,0,0,0,0,0,0,0,0,-1,1196,1506,0,0
-21,-482,0,0,0,0,0,0,0,0,0,-1,1203,1506,0,0
-14,-482,0,0,0,0,0,0,0,0,0,-1,1210,1506,0,0
-7,-482,0,0,0,0,0,0,0,0,0,-1,1217,1506,0,0
0,-482,0,0,0,0,0,0,0,0,0,-1,1224,1506,0,0
7,-482,0,0,0,0,0,0,0,0,0,-1,1231,1506,0,0
14,-482,0,0,0,0,0,0,0,0,0,-1,1238,1506,0,0
21,-482,0,0,0,0,0,0,0,0,0,-1,1245,1506,0,0
28,-482,0,0,0,0,0,0,0,0,0,-1,1252,1506,0,0
35,-482,0,0,0,0,0,0,0,0,0,-1,1259,1506,0,0
42,-482,0,0,0,0,0,0,0,0,0,-1,1266,1506,0,0
49,-482,0,0,0,0,0,0,0,0,0,-1,1273,1506,0,0
56,-482,0,0,0,0,0,0,0,0,0,-1,1280,1506,0,0
63,-482,0,0,0,0,0,0,0,0,0,-1,1287,1506,0,0
70,-482,0,0,0,0,0,0,0,0,0,-1,1294,1506,0,0
77,-482,0,0,0,0,0,0,0,0,0,-1,1301,1506,0,0
84,-482,0,0,0,0,0,0,0,0,0,-1,1308,1506,0,0
91,-482,0,0,0,0,0,0,0,0,0,-1,1315,1506,0,0
98,-482,0,0,0,0,0,0,0,0,0,-1,1322,1506,0,0
105,-482,0,0,0,0,0,0,0,0,0,-1,1329,1506,0,0
112,-482,0,0,0,0,0,0,0,0,0,-1,1336,1506,0,0
119,-482,0,0,0,0,0,0,0,0,0,-1,1343,1506,0,0
126,-482,0,0,0,0,0,0,0,0,0,-1,1350,1506,0,0
133,-482,0,0,0,0,0,0,0,0,0,-1,1357,1506,0,0
140,-482,0,0,0,0,0,0,0,0,0,-1,1364,1506,0,0
147,-482,0,0,0,0,0,0,0,0,0,-1,1371,1506,0,0
154,-482,0,0,0,0,0,0,0,0,0,-1,1378,1506,0,0
161,-482,0,0,0,0,0,0,0,0,0,-1,1385,1506,0,0
168,-482,0,0,0,0,0,0,0,0,0,-1,1392,1506,0,0
175,-482,0,0,0,0,0,0,0,0,0,-1,1399,1506,0,0
182,-482,0,0,0,0,0,0,0,0,0,-1,1406,1506,0,0
189,-482,0,0,0,0,0,0,0,0,0,-1,1413,1506,0,0
196,-482,0,0,0,0,0,0,0,0,0,-1,1420,1506,0,0
203,-482,0,0,0,0,0,0,0,0,0,-1,1427,1506,0,0
210,-482,0,0,0,0,0,0,0,0,0,-1,1434,1506,0,0
217,-482,0,0,0,0,0,0,0,0,0,-1,1441,1506,0,0
224,-482,0,0,0,0,0,0,0,0,0,-1,1448,1506,0,0
231,-482,0,0,0,0,0,0,0,0,0,-1,1455,1506,0,0
238,-482,0,0,0,0,0,0,0,0,0,-1,1462,1506,0,0
245,-482,0,0,0,0,0,0,0,0,0,-1,1469,1506,0,0
252,-482,0,0,0,0,0,0,0,0,0,-1,1476,1506,0,0
259,-482,0,0,0,0,0,0,0,0,0,-1,1483,1506,0,0
266,-482,0,0,0,0,0,0,0,0,0,-1,1490,1506,0,0
273,-482,0,0,0,0,0,0,0,0,0,-1,1497,1506,0,0
280,-482,0,0,0,0,0,0,0,0,0,-1,1504,1506,0,0
287,-482,0,0,0,0,0,0,0,0,0,-1,1511,1506,0,0
294,-482,0,0,0,0,0,0,0,0,0,-1,1518,1506,0,0
301,-482,0,0,0,0,0,0,0,0,0,-1,1525,1506,0,0
308,-482,0,0,0,0,0,0,0,0,0,-1,1532,1506,0,0
315,-482,0,0,0,0,0,0,0,0,0,-1,1539,1506,0,0
322,-482,0,0,0,0,0,0,0,0,0,-1,1546,1506,0,0
329,-482,0,0,0,0,0,0,0,0,0,-1,1553,1506,0,0
336,-482,0,0,0,0,0,0,0,0,0,-1,1560,1506,0,0
343,-482,0,0,0,0,0,0,0,0,0,-1,1567,1506,0,0
350,-482,0,0,0,0,0,0,0,0,0,-1,1574,1506,0,0
357,-482,0,0,0,0,0,0,0,0,0,-1,1581,1506,0,0
364,-482,0,0,0,0,0,0,0,0,0,-1,1588,1506,0,0
371,-482,0,0,0,0,0,0,0,0,0,-1,1595,1506,0,0
378,-482,0,0,0,0,0,0,0,0,0,-1,1602,1506,0,0
385,-482,0,0,0,0,0,0,0,0,0,-1,1609,1506,0,0
392,-482,0,0,0,0,0,0,0,0,0,-1,1616,1506,0,0
399,-482,0,0,0,0,0,0,0,0,0,-1,1623,1506,0,0
406,-482,0,0,0,0,0,0,0,0,0,-1,1630,1506,0,0
413,-482,0,0,0,0,0,0,0,0,0,-1,1637,1506,0,0
420,-482,0,0,0,0,0,0,0,0,0,-1,1644,1506,0,0
427,-482,0,0,0,0,0,0,0,0,0,-1,1651,1506,0,0
434,-482,0,0,0,0,0,0,0,0,0,-1,1658,1506,0,0
441,-482,0,0,0,0,0,0,0,0,0,-1,1665,1506,0,0
448,-482,-0.903198,0.0629883,-0.0289996,0.055218,-0.0097885,0.0563407,-0.0301223,-1.4566,0.0506787,0.046372,1672,1506,-0.903143,-0.0629499
455,-482,-1.24011,-0.0461426,-0.0209068,0.0453174,-0.0067226,0.0459929,-0.0215824,-1.47064,0.0398541,0.0468323,1679,1506,-1.24009,0.0461406
462,-482,-1.58386,-0.293091,-0.0127755,0.0373405,-0.00433413,0.0377126,-0.0131476,-1.48516,0.0304844,0.0469632,1686,1506,-1.58381,0.293065
469,-482,-0.591187,0.509521,-0.00506455,0.0286167,-0.0014043,0.0286752,-0.005123,-1.5292,0.0210335,0.0435934,1693,1506,-0.59124,-0.509525
476,-482,-0.919067,0.184082,0.000789958,0.0212492,0.00050955,0.0212619,0.000777276,1.54591,0.0139228,0.0436537,1700,1506,-0.919008,-0.184069
483,-482,0.0123291,-0.0113525,0.00498068,0.0152075,0.00175836,0.0155014,0.0046868,1.40519,0.00917986,0.0409061,1707,1506,0.0122801,0.0113979
490,-482,0.40271,0.362061,0.00790241,0.0103573,0.00257394,0.0119815,0.00627823,1.00789,0.00692017,0.0410124,1714,1506,0.40276,-0.362054
497,-482,0.293091,0.33606,0.0100258,0.00597937,0.0031498,0.0117462,0.00425896,0.499917,0.0068665,0.0443547,1721,1506,0.293059,-0.336078
504,-482,0.320557,0.19519,0,0,0,0,0,0,0,-1,1728,1506,0.320606,-0.195156
511,-482,0.477539,0.0998535,0,0,0,0,0,0,0,-1,1735,1506,0.477494,-0.0998017
518,-482,0.307373,-0.0888672,0,0,0,0,0,0,0,-1,1742,1506,0.307382,0.0888189
525,-482,-0.0155029,0.114746,0.00906385,7.97168e-05,0.00351948,0.0102784,-0.00113482,0.332295,0.00726016,0.0425491,1749,1506,-0.0154834,-0.114713
532,-482,-0.0683594,0.0693359,0.00728494,-0.000107067,0.00341811,0.00862321,-0.00144534,0.373178,0.00628622,0.0394262,1756,1506,-0.0683444,-0.0693334
539,-482,-0.0220947,-0.0318604,0.00465864,-2.30486e-05,0.00291801,0.0060587,-0.00142311,0.447356,0.00458768,0.0293043,1763,1506,-0.0221037,0.0318142
546,-482,-0.0632324,-0.0498047,0.00294439,0.000496464,0.00249397,0.00449855,-0.0010577,0.557281,0.00340678,0.0149318,1770,1506,-0.0632638,0.0497506
553,-482,-0.097168,-0.0513916,0.00204392,0.00102296,0.00212833,0.00372214,-0.00065525,0.667696,0.00272622,0.0130966,1777,1506,-0.0971392,0.0513403
560,-482,-0.0924072,-0.0715332,0.00123462,0.00151079,0.00180879,0.00318676,-0.000441349,0.823495,0.00228587,0.0115997,1784,1506,-0.0924297,0.0715648
567,-482,-0.0446777,-0.0894775,0.000444864,0.00127988,0.00140363,0.00232678,-0.000602034,0.929956,0.00178601,0.0145163,1791,1506,-0.0446775,0.0895061
574,-482,-0.0454102,-0.0516357,-0.000409754,0.0012304,0.000593733,0.00142276,-0.000602122,1.25747,0.00120065,0.013273,1798,1506,-0.0453611,0.051683
581,-482,-0.0671387,-0.0339355,-0.000784622,0.00111407,3.3961e-05,0.00111468,-0.000785229,1.55292,0.0011024,0.00942105,1805,1506,-0.0671444,0.0339446
588,-482,-0.0638428,-0.0401611,-0.00109575,0.00105791,-0.000448103,0.00114743,-0.00118526,-1.37363,0.00134684,0.00993196,1812,1506,-0.0638239,0.0401851
595,-482,-0.0562744,-0.0770264,-0.00149616,0.00105517,-0.000838382,0.00130601,-0.00174699,-1.28008,0.00176877,0.0133489,1819,1506,-0.0562267,0.0770699
602,-482,-0.0357666,-0.105957,-0.00197511,0.00118207,-0.00099574,0.00146988,-0.00226292,-1.28942,0.00217128,0.0171565,1826,1506,-0.0358115,0.105976
609,-482,-0.0561523,-0.0913086,-0.00233595,0.00146311,-0.000785738,0.0016192,-0.00249205,-1.37469,0.0023914,0.014557,1833,1506,-0.056189,0.0913091
616,-482,-0.0733643,-0.081665,-0.00294976,0.00139588,-0.00102131,0.00162394,-0.00317782,-1.3511,0.00282027,0.0109563,1840,1506,-0.0733986,0.0816519
623,-482,-0.0831299,-0.0601807,-0.00358995,0.00254869,-0.000827156,0.00265819,-0.00369946,-1.43918,0.00368697,0.00986802,1847,1506,-0.08319,0.0601684
630,-482,-0.0689697,-0.0357666,-0.00427645,0.00474779,-0.000291887,0.00475722,-0.00428588,-1.5385,0.0052234,0.018263,1854,1506,-0.0690041,0.0357987
637,-482,-0.0125732,-0.0212402,-0.00520518,0.0067896,0.000332055,0.00679879,-0.00521436,1.54314,0.00695588,0.0371459,1861,1506,-0.012607,0.0212987
644,-482,-0.215576,-0.295654,-0.00593977,0.00968153,0.00134683,0.0097968,-0.00605504,1.48542,0.00923666,0.0399037,1868,1506,-0.215595,0.295626
651,-482,-0.436279,-0.32605,-0.00639462,0.0133107,0.00278462,0.0136966,-0.00678057,1.43308,0.0120452,0.0412391,1875,1506,-0.436318,0.326043
658,-482,-0.560181,-0.140869,-0.00644306,0.0181025,0.00476778,0.018996,-0.00733664,1.38553,0.0156921,0.0420951,1882,1506,-0.560233,0.140857
665,-482,-0.652466,-0.0172119,0,0,0,0,0,0,0,-1,1889,1506,-0.652524,0.0172632
672,-482,-2.66589,-3.05151,0,0,0,0,0,0,0,-1,1896,1506,-2.66589,3.0515
679,-482,0,0,0,0,0,0,0,0,0,-1,1903,1506,0,0
686,-482,0,0,0,0,0,0,0,0,0,-1,1910,1506,0,0
693,-482,0,0,0,0,0,0,0,0,0,-1,1917,1506,0,0
700,-482,0,0,0,0,0,0,0,0,0,-1,1924,1506,0,0
707,-482,0,0,0,0,0,0,0,0,0,-1,1931,1506,0,0
714,-482,0,0,0,0,0,0,0,0,0,-1,1938,1506,0,0
721,-482,0,0,0,0,0,0,0,0,0,-1,1945,1506,0,0
728,-482,0,0,0,0,0,0,0,0,0,-1,1952,1506,0,0
735,-482,0,0,0,0,0,0,0,0,0,-1,1959,1506,0,0
742,-482,0,0,0,0,0,0,0,0,0,-1,1966,1506,0,0
749,-482,0,0,0,0,0,0,0,0,0,-1,1973,1506,0,0
756,-482,0,0,0,0,0,0,0,0,0,-1,1980,1506,0,0
763,-482,0,0,0,0,0,0,0,0,0,-1,1987,1506,0,0
770,-482,0,0,0,0,0,0,0,0,0,-1,1994,1506,0,0
777,-482,0,0,0,0,0,0,0,0,0,-1,2001,1506,0,0
784,-482,0,0,0,0,0,0,0,0,0,-1,2008,1506,0,0
791,-482,0,0,0,0,0,0,0,0,0,-1,2015,1506,0,0
798,-482,0,0,0,0,0,0,0,0,0,-1,2022,1506,0,0
805,-482,0,0,0,0,0,0,0,0,0,-1,2029,1506,0,0
812,-482,0,0,0,0,0,0,0,0,0,-1,2036,1506,0,0
-700,-489,0,0,0,0,0,0,0,0,0,-1,524,1513,0,0
-693,-489,0,0,0,0,0,0,0,0,0,-1,531,1513,0,0
-686,-489,0,0,0,0,0,0,0,0,0,-1,538,1513,0,0
-679,-489,0,0,0,0,0,0,0,0,0,-1,545,1513,0,0
-672,-489,0,0,0,0,0,0,0,0,0,-1,552,1513,0,0
-665,-489,0,0,0,0,0,0,0,0,0,-1,559,1513,0,0
-658,-489,0,0,0,0,0,0,0,0,0,-1,566,1513,0,0
-651,-489,0,0,0,0,0,0,0,0,0,-1,573,1513,0,0
-644,-489,0,0,0,0,0,0,0,0,0,-1,580,1513,0,0
-637,-489,0,0,0,0,0,0,0,0,0,-1,587,1513,0,0
-630,-489,0,0,0,0,0,0,0,0,0,-1,594,1513,0,0
-623,-489,0,0,0,0,0,0,0,0,0,-1,601,1513,0,0
-616,-489,0,0,0,0,0,0,0,0,0,-1,608,1513,0,0
-609,-489,0,0,0,0,0,0,0,0,0,-1,615,1513,0,0
-602,-489,0,0,0,0,0,0,0,0,0,-1,622,1513,0,0
-595,-489,0,0,0,0,0,0,0,0,0,-1,629,1513,0,0
-588,-489,0,0,0,0,0,0,0,0,0,-1,636,1513,0,0
-581,-489,0,0,0,0,0,0,0,0,0,-1,643,1513,0,0
-574,-489,0,0,0,0,0,0,0,0,0,-1,650,1513,0,0
-567,-489,0,0,0,0,0,0,0,0,0,-1,657,1513,0,0
-560,-489,0,0,0,0,0,0,0,0,0,-1,664,1513,0,0
-553,-489,-0.383606,0.656738,0.0142791,-0.0254341,0.0013132,0.0143225,-0.0254775,0.0330191,0.0232774,0.0446876,671,1513,-0.383633,-0.656686
-546,-489,-0.16687,0.62085,0.0117474,-0.0176914,-0.00231523,0.0119284,-0.0178724,-0.0780062,0.0173192,0.0460746,678,1513,-0.166851,-0.620848
-539,-489,0.338806,0.425903,0.00869284,-0.0113362,-0.00506484,0.00990076,-0.0125441,-0.234118,0.0129885,0.0439873,685,1513,0.338817,-0.425913
-532,-489,1.05017,-0.526611,0.0054836,-0.00654188,-0.00679931,0.00854741,-0.00960568,-0.423357,0.0104866,0.0409794,692,1513,1.05017,0.52665
-525,-489,0.77417,-0.337891,0,0,0,0,0,0,0,-1,699,1513,0.774172,0.33793
-518,-489,-0.31134,0.733887,0.000428387,-0.000482211,-0.00793379,0.00791994,-0.00797376,-0.756736,0.00917625,0.0437764,706,1513,-0.311352,-0.733889
-511,-489,-0.46875,0.673218,-0.0012607,0.000706782,-0.00764092,0.00742703,-0.00798095,-0.849419,0.00889772,0.0474581,713,1513,-0.468759,-0.673218
-504,-489,-0.27832,0.450195,-0.00216994,0.00153545,-0.00706022,0.00698202,-0.00761651,-0.913712,0.00843112,0.0443678,720,1513,-0.278332,-0.45024
-497,-489,-0.153442,0.192139,-0.00304216,0.00207392,-0.00648906,0.00649094,-0.00745918,-0.97315,0.00806056,0.0362811,727,1513,-0.153433,-0.192194
-490,-489,-0.10553,-0.0391846,-0.00330495,0.00233528,-0.00565084,0.00583062,-0.0068003,-1.01685,0.00729963,0.0193398,734,1513,-0.105553,0.0391664
-483,-489,-0.079834,-0.0570068,-0.00322989,0.00208338,-0.00457023,0.00471302,-0.00585953,-1.04867,0.00611601,0.00996391,741,1513,-0.0798461,0.0570432
-476,-489,-0.0614014,-0.072998,-0.00303297,0.00181314,-0.00350543,0.00365145,-0.00487128,-1.08781,0.00493738,0.00913255,748,1513,-0.0614079,0.0730284
-469,-489,-0.0614014,-0.0699463,-0.00233783,0.00146197,-0.00257898,0.00276531,-0.00364118,-1.10286,0.00371029,0.00956014,755,1513,-0.0613938,0.06997
-462,-489,-0.0576782,-0.0695801,-0.00135196,0.0011456,-0.00191875,0.00218616,-0.00239252,-1.07388,0.00264439,0.013941,762,1513,-0.0577005,0.0696188
-455,-489,-0.0755005,-0.0679932,-0.000171754,0.000528954,-0.00152114,0.00173956,-0.00138237,-0.898586,0.00180638,0.0165224,769,1513,-0.0754851,0.0680137
-448,-489,-0.0831299,-0.0759277,0.000729244,5.82947e-05,-0.00112282,0.00156563,-0.000778096,-0.64023,0.00137838,0.0144954,776,1513,-0.0831436,0.0759857
-441,-489,-0.0669556,-0.0715332,0.00110593,-0.000357916,-0.000739872,0.00141474,-0.000666725,-0.3954,0.00122733,0.0134962,783,1513,-0.06697,0.0715598
-434,-489,-0.0791626,-0.0473633,0.00139773,-0.000819291,-0.000406875,0.00147004,-0.000891603,-0.17589,0.00137706,0.0158882,790,1513,-0.0791466,0.0473278
-427,-489,-0.104126,-0.0406494,0.00170641,-0.00142095,-0.000743663,0.00187424,-0.00158878,-0.221963,0.00200164,0.0168261,797,1513,-0.104123,0.0406718
-420,-489,-0.119141,-0.0518799,0.00200181,-0.00244784,-0.00145924,0.00243767,-0.0028837,-0.290251,0.00307589,0.0153922,804,1513,-0.119159,0.0519014
-413,-489,-0.104736,-0.0666504,0.00259566,-0.00354162,-0.00269216,0.00360921,-0.00455517,-0.36007,0.00472424,0.0143395,811,1513,-0.104749,0.0666524
-406,-489,-0.0879517,-0.0812988,0.00333161,-0.00420708,-0.00425347,0.00524557,-0.00612104,-0.422834,0.006569,0.0192369,818,1513,-0.0879488,0.0812716
-399,-489,-0.133789,-0.0548096,0.00391165,-0.00554554,-0.00631644,0.00707337,-0.00870726,-0.46409,0.00912722,0.0303699,825,1513,-0.133819,0.0548446
-392,-489,-0.174377,0.00842285,0,0,0,0,0,0,0,-1,832,1513,-0.174381,-0.00837896
-385,-489,-0.490723,0.92334,0,0,0,0,0,0,0,-1,839,1513,-0.490711,-0.923338
-378,-489,-0.280396,0.487427,0.00549027,-0.0122675,-0.0150782,0.0141096,-0.0208868,-0.519306,0.0203311,0.0390773,846,1513,-0.280379,-0.487465
-371,-489,-0.0488281,-0.081543,0.00608723,-0.0165262,-0.0183655,0.0163475,-0.0267864,-0.509475,0.0251453,0.0411997,853,1513,-0.0488315,0.0815366
-364,-489,0.0124512,-0.548462,0.00645523,-0.0226278,-0.0211768,0.0176024,-0.033775,-0.484535,0.0301487,0.0431417,860,1513,0.0124544,0.548495
-357,-489,0.28656,-1.05334,0.00657799,-0.03007,-0.0231686,0.017793,-0.041285,-0.450815,0.034996,0.0428662,867,1513,0.286548,1.05331
-350,-489,0.594238,-1.59888,0.00639318,-0.0392077,-0.0239163,0.0166359,-0.0494504,-0.40464,0.0396918,0.0455483,874,1513,0.594248,1.59887
-343,-489,0.641785,-2.58826,0.00662038,-0.0512909,-0.0238706,0.0151912,-0.0598617,-0.344717,0.0458188,0.0478029,881,1513,0.641784,2.58825
-336,-489,0.560669,-3.02563,0,0,0,0,0,0,0,-1,888,1513,0.560644,3.02559
-329,-489,0.905151,-1.31152,0,0,0,0,0,0,0,-1,895,1513,0.905133,1.31146
-322,-489,0,0,0,0,0,0,0,0,0,-1,902,1513,0,0
-315,-489,0,0,0,0,0,0,0,0,0,-1,909,1513,0,0
-308,-489,0,0,0,0,0,0,0,0,0,-1,916,1513,0,0
-301,-489,0,0,0,0,0,0,0,0,0,-1,923,1513,0,0
-294,-489,0,0,0,0,0,0,0,0,0,-1,930,1513,0,0
-287,-489,0,0,0,0,0,0,0,0,0,-1,937,1513,0,0
-280,-489,0,0,0,0,0,0,0,0,0,-1,944,1513,0,0
-273,-489,0,0,0,0,0,0,0,0,0,-1,951,1513,0,0
-266,-489,0,0,0,0,0,0,0,0,0,-1,958,1513,0,0
-259,-489,0,0,0,0,0,0,0,0,0,-1,965,1513,0,0
-252,-489,0,0,0,0,0,0,0,0,0,-1,972,1513,0,0
-245,-489,0,0,0,0,0,0,0,0,0,-1,979,1513,0,0
-238,-489,0,0,0,0,0,0,0,0,0,-1,986,1513,0,0
-231,-489,0,0,0,0,0,0,0,0,0,-1,993,1513,0,0
-224,-489,0,0,0,0,0,0,0,0,0,-1,1000,1513,0,0
-217,-489,0,0,0,0,0,0,0,0,0,-1,1007,1513,0,0
-210,-489,0,0,0,0,0,0,0,0,0,-1,1014,1513,0,0
-203,-489,0,0,0,0,0,0,0,0,0,-1,1021,1513,0,0
-196,-489,0,0,0,0,0,0,0,0,0,-1,1028,1513,0,0
-189,-489,0,0,0,0,0,0,0,0,0,-1,1035,1513,0,0
-182,-489,0,0,0,0,0,0,0,0,0,-1,1042,1513,0,0
-175,-489,0,0,0,0,0,0,0,0,0,-1,1049,1513,0,0
-168,-489,0,0,0,0,0,0,0,0,0,-1,1056,1513,0,0
-161,-489,0,0,0,0,0,0,0,0,0,-1,1063,1513,0,0
-154,-489,0,0,0,0,0,0,0,0,0,-1,1070,1513,0,0
-147,-489,0,0,0,0,0,0,0,0,0,-1,1077,1513,0,0
-140,-489,0,0,0,0,0,0,0,0,0,-1,1084,1513,0,0
-133,-489,0,0,0,0,0,0,0,0,0,-1,1091,1513,0,0
-126,-489,0,0,0,0,0,0,0,0,0,-1,1098,1513,0,0
-119,-489,0,0,0,0,0,0,0,0,0,-1,1105,1513,0,0
-112,-489,0,0,0,0,0,0,0,0,0,-1,1112,1513,0,0
-105,-489,0,0,0,0,0,0,0,0,0,-1,1119,1513,0,0
-98,-489,0,0,0,0,0,0,0,0,0,-1,1126,1513,0,0
-91,-489,0,0,0,0,0,0,0,0,0,-1,1133,1513,0,0
-84,-489,0,0,0,0,0,0,0,0,0,-1,1140,1513,0,0
-77,-489,0,0,0,0,0,0,0,0,0,-1,1147,1513,0,0
-70,-489,0,0,0,0,0,0,0,0,0,-1,1154,1513,0,0
-63,-489,0,0,0,0,0,0,0,0,0,-1,1161,1513,0,0
-56,-489,0,0,0,0,0,0,0,0,0,-1,1168,1513,0,0
-49,-489,0,0,0,0,0,0,0,0,0,-1,1175,1513,0,0
-42,-489,0,0,0,0,0,0,0,0,0,-1,1182,1513,0,0
-35,-489,0,0,0,0,0,0,0,0,0,-1,1189,1513,0,0
-28,-489,0,0,0,0,0,0,0,0,0,-1,1196,1513,0,0
-21,-489,0,0,0,0,0,0,0,0,0,-1,1203,1513,0,0
-14,-489,0,0,0,0,0,0,0,0,0,-1,1210,1513,0,0
-7,-489,0,0,0,0,0,0,0,0,0,-1,1217,1513,0,0
0,-489,0,0,0,0,0,0,0,0,0,-1,1224,1513,0,0
7,-489,0,0,0,0,0,0,0,0,0,-1,1231,1513,0,0
14,-489,0,0,0,0,0,0,0,0,0,-1,1238,1513,0,0
21,-489,0,0,0,0,0,0,0,0,0,-1,1245,1513,0,0
28,-489,0,0,0,0,0,0,0,0,0,-1,1252,1513,0,0
35,-489,0,0,0,0,0,0,0,0,0,-1,1259,1513,0,0
42,-489,0,0,0,0,0,0,0,0,0,-1,1266,1513,0,0
49,-489,0,0,0,0,0,0,0,0,0,-1,1273,1513,0,0
56,-489,0,0,0,0,0,0,0,0,0,-1,1280,1513,0,0
63,-489,0,0,0,0,0,0,0,0,0,-1,1287,1513,0,0
70,-489,0,0,0,0,0,0,0,0,0,-1,1294,1513,0,0
77,-489,0,0,0,0,0,0,0,0,0,-1,1301,1513,0,0
84,-489,0,0,0,0,0,0,0,0,0,-1,1308,1513,0,0
91,-489,0,0,0,0,0,0,0,0,0,-1,1315,1513,0,0
98,-489,0,0,0,0,0,0,0,0,0,-1,1322,1513,0,0
105,-489,0,0,0,0,0,0,0,0,0,-1,1329,1513,0,0
112,-489,0,0,0,0,0,0,0,0,0,-1,1336,1513,0,0
119,-489,0,0,0,0,0,0,0,0,0,-1,1343,1513,0,0
126,-489,0,0,0,0,0,0,0,0,0,-1,1350,1513,0,0
133,-489,0,0,0,0,0,0,0,0,0,-1,1357,1513,0,0
140,-489,0,0,0,0,0,0,0,0,0,-1,1364,1513,0,0
147,-489,0,0,0,0,0,0,0,0,0,-1,1371,1513,0,0
154,-489,0,0,0,0,0,0,0,0,0,-1,1378,1513,0,0
161,-489,0,0,0,0,0,0,0,0,0,-1,1385,1513,0,0
168,-489,0,0,0,0,0,0,0,0,0,-1,1392,1513,0,0
175,-489,0,0,0,0,0,0,0,0,0,-1,1399,1513,0,0
182,-489,0,0,0,0,0,0,0,0,0,-1,1406,1513,0,0
189,-489,0,0,0,0,0,0,0,0,0,-1,1413,1513,0,0
196,-489,0,0,0,0,0,0,0,0,0,-1,1420,1513,0,0
203,-489,0,0,0,0,0,0,0,0,0,-1,1427,1513,0,0
210,-489,0,0,0,0,0,0,0,0,0,-1,1434,1513,0,0
217,-489,0,0,0,0,0,0,0,0,0,-1,1441,1513,0,0
224,-489,0,0,0,0,0,0,0,0,0,-1,1448,1513,0,0
231,-489,0,0,0,0,0,0,0,0,0,-1,1455,1513,0,0
238,-489,0,0,0,0,0,0,0,0,0,-1,1462,1513,0,0
245,-489,0,0,0,0,0,0,0,0,0,-1,1469,1513,0,0
252,-489,0,0,0,0,0,0,0,0,0,-1,1476,1513,0,0
259,-489,0,0,0,0,0,0,0,0,0,-1,1483,1513,0,0
266,-489,0,0,0,0,0,0,0,0,0,-1,1490,1513,0,0
273,-489,0,0,0,0,0,0,0,0,0,-1,1497,1513,0,0
280,-489,0,0,0,0,0,0,0,0,0,-1,1504,1513,0,0
287,-489,0,0,0,0,0,0,0,0,0,-1,1511,1513,0,0
294,-489,0,0,0,0,0,0,0,0,0,-1,1518,1513,0,0
301,-489,0,0,0,0,0,0,0,0,0,-1,1525,1513,0,0
308,-489,0,0,0,0,0,0,0,0,0,-1,1532,1513,0,0
315,-489,0,0,0,0,0,0,0,0,0,-1,1539,1513,0,0
322,-489,0,0,0,0,0,0,0,0,0,-1,1546,1513,0,0
329,-489,0,0,0,0,0,0,0,0,0,-1,1553,1513,0,0
336,-489,0,0,0,0,0,0,0,0,0,-1,1560,1513,0,0
343,-489,0,0,0,0,0,0,0,0,0,-1,1567,1513,0,0
350,-489,0,0,0,0,0,0,0,0,0,-1,1574,1513,0,0
357,-489,0,0,0,0,0,0,0,0,0,-1,1581,1513,0,0
364,-489,0,0,0,0,0,0,0,0,0,-1,1588,1513,0,0
371,-489,0,0,0,0,0,0,0,0,0,-1,1595,1513,0,0
378,-489,0,0,0,0,0,0,0,0,0,-1,1602,1513,0,0
385,-489,0,0,0,0,0,0,0,0,0,-1,1609,1513,0,0
392,-489,0,0,0,0,0,0,0,0,0,-1,1616,1513,0,0
399,-489,0,0,0,0,0,0,0,0,0,-1,1623,1513,0,0
406,-489,0,0,0,0,0,0,0,0,0,-1,1630,1513,0,0
413,-489,0,0,0,0,0,0,0,0,0,-1,1637,1513,0,0
420,-489,0,0,0,0,0,0,0,0,0,-1,1644,1513,0,0
427,-489,0,0,0,0,0,0,0,0,0,-1,1651,1513,0,0
434,-489,0,0,0,0,0,0,0,0,0,-1,1658,1513,0,0
441,-489,-0.238159,0.145142,-0.0344272,0.0458512,-0.00505056,0.0461677,-0.0347437,-1.50821,0.0468692,0.0461435,1665,1513,-0.238206,-0.145159
448,-489,-0.53479,0.022583,-0.0268029,0.0401815,-0.00385866,0.040403,-0.0270244,-1.51344,0.0391839,0.0469079,1672,1513,-0.534828,-0.0225264
455,-489,-0.822632,-0.198608,-0.0194273,0.0347322,-0.00284067,0.0348808,-0.0195759,-1.51854,0.0318518,0.044488,1679,1513,-0.822645,0.198625
462,-489,-0.473389,-0.18103,-0.0123735,0.0296325,-0.00171116,0.0297021,-0.0124431,-1.53015,0.0250034,0.0456634,1686,1513,-0.473394,0.181034
469,-489,-0.482056,-0.0750732,-0.00590342,0.0240319,4.47009e-05,0.024032,-0.00590349,1.5693,0.0183092,0.043789,1693,1513,-0.482055,0.0750873
476,-489,-0.891235,-0.174683,-0.000847314,0.0190881,0.00121536,0.0191619,-0.000921135,1.51013,0.0130924,0.0426258,1700,1513,-0.891234,0.17471
483,-489,-0.520874,0.126953,0.00288937,0.0148211,0.00193984,0.0151286,0.00258191,1.41361,0.00934473,0.0432153,1707,1513,-0.520841,-0.12701
490,-489,0.181885,0.318848,0.00527938,0.0111083,0.00225711,0.0118801,0.00450757,1.24131,0.00692516,0.0470345,1714,1513,0.181842,-0.318817
497,-489,0.16687,0.238403,0.0070222,0.00766832,0.00236671,0.00973392,0.0049566,0.85323,0.0056202,0.0422909,1721,1513,0.166859,-0.238433
504,-489,0.179688,0.181152,0.00799495,0.00582647,0.00292934,0.0100343,0.00378716,0.60815,0.00585103,0.0413399,1728,1513,0.179738,-0.181185
511,-489,0.149414,0.158691,0.00837566,0.00470446,0.00320708,0.0102353,0.00284482,0.525475,0.00610052,0.0449433,1735,1513,0.149375,-0.15875
518,-489,0.138184,0.168091,0.0078202,0.00268425,0.00235081,0.00873372,0.00177073,0.370638,0.00533118,0.0460638,1742,1513,0.138135,-0.168079
525,-489,0.0716553,0.177124,0.00643522,0.00215145,0.00212561,0.00731093,0.00127574,0.390792,0.00450927,0.0427433,1749,1513,0.0716012,-0.177091
532,-489,0.00463867,0.0654297,0.00496825,0.00166828,0.00199135,0.00590437,0.000732163,0.439436,0.00371631,0.0327316,1756,1513,0.00468783,-0.0654613
539,-489,-0.0550537,-0.026123,0.00281563,0.00147577,0.00153973,0.00382486,0.000466538,0.580203,0.00240949,0.0158131,1763,1513,-0.0550271,0.026072
546,-489,-0.0913086,-0.0411377,0.00151141,0.00159993,0.00122587,0.00278234,0.000328995,0.803444,0.00175554,0.0101705,1770,1513,-0.0912542,0.0411774
553,-489,-0.105957,-0.0445557,0.000956378,0.0017006,0.00102008,0.00241432,0.000242655,0.960291,0.00153507,0.0135149,1777,1513,-0.105934,0.0445947
560,-489,-0.0767822,-0.0560303,0.000530355,0.00178366,0.000897924,0.00225198,6.20381e-05,1.09005,0.00148107,0.0120284,1784,1513,-0.0768206,0.0560496
567,-489,-0.0357666,-0.0411377,0.000111115,0.00134418,0.000690886,0.00165363,-0.00019833,1.14969,0.00117413,0.0133616,1791,1513,-0.0357888,0.0411569
574,-489,-0.0689697,-0.0169678,-0.000402916,0.00108567,0.000102768,0.00109273,-0.000409978,1.50219,0.000896945,0.0134933,1798,1513,-0.0690115,0.0170043
581,-489,-0.0631104,-0.0367432,-0.00059969,0.000742321,-0.000331293,0.00081965,-0.000677018,-1.34149,0.000865409,0.00984808,1805,1513,-0.0630729,0.0367346
588,-489,-0.0595703,-0.0551758,-0.000878357,0.000614895,-0.000761453,0.000934694,-0.00119816,-1.17318,0.00123453,0.0124204,1812,1513,-0.0595824,0.0552131
595,-489,-0.0483398,-0.0926514,-0.00136034,0.00068203,-0.00112153,0.00117763,-0.00185594,-1.1547,0.00176597,0.0169914,1819,1513,-0.0483166,0.0926419
602,-489,-0.038208,-0.0861816,-0.00201534,0.000894182,-0.0012848,0.0013803,-0.00250147,-1.20908,0.00227209,0.0202485,1826,1513,-0.0382202,0.0862001
609,-489,-0.0452881,-0.0855713,-0.00269362,0.00133703,-0.00108099,0.00160863,-0.00296523,-1.32463,0.00267916,0.0148243,1833,1513,-0.0452544,0.0856171
616,-489,-0.0594482,-0.0821533,-0.00367133,0.0013914,-0.00139419,0.00174994,-0.00402987,-1.31908,0.00342243,0.00951228,1840,1513,-0.0594423,0.0821872
623,-489,-0.071167,-0.0577393,-0.00475965,0.002671,-0.00122291,0.00286709,-0.00495574,-1.4118,0.00456986,0.012766,1847,1513,-0.071162,0.0576812
630,-489,-0.0545654,-0.0635986,-0.00592334,0.00497291,-0.000655733,0.00501223,-0.00596266,-1.5109,0.00634427,0.0294543,1854,1513,-0.0545261,0.0635908
637,-489,-0.0668945,-0.0491943,-0.00739825,0.00723397,0.000123668,0.00723501,-0.0073993,1.56235,0.0084493,0.0445075,1861,1513,-0.0669037,0.0491646
644,-489,-0.208862,-0.28772,-0.00872578,0.0103067,0.00141172,0.0104108,-0.00882992,1.49716,0.0111211,0.0429239,1868,1513,-0.208857,0.287678
651,-489,-0.258789,-0.169312,-0.00972854,0.0143483,0.00331888,0.0147975,-0.0101777,1.43629,0.0145014,0.039082,1875,1513,-0.25874,0.169301
658,-489,-0.472656,-0.0162354,-0.0101589,0.0196063,0.00599153,0.0207671,-0.0113197,1.37943,0.0187911,0.041683,1882,1513,-0.472639,0.0161956
665,-489,-0.769043,-0.127808,-0.00978228,0.0263622,0.00962165,0.0287639,-0.012184,1.32618,0.0242786,0.0460167,1889,1513,-0.769019,0.12775
672,-489,0,0,0,0,0,0,0,0,0,-1,1896,1513,0,0
679,-489,0,0,0,0,0,0,0,0,0,-1,1903,1513,0,0
686,-489,0,0,0,0,0,0,0,0,0,-1,1910,1513,0,0
693,-489,0,0,0,0,0,0,0,0,0,-1,1917,1513,0,0
700,-489,0,0,0,0,0,0,0,0,0,-1,1924,1513,0,0
707,-489,0,0,0,0,0,0,0,0,0,-1,1931,1513,0,0
714,-489,0,0,0,0,0,0,0,0,0,-1,1938,1513,0,0
721,-489,0,0,0,0,0,0,0,0,0,-1,1945,1513,0,0
728,-489,0,0,0,0,0,0,0,0,0,-1,1952,1513,0,0
735,-489,0,0,0,0,0,0,0,0,0,-1,1959,1513,0,0
742,-489,0,0,0,0,0,0,0,0,0,-1,1966,1513,0,0
749,-489,0,0,0,0,0,0,0,0,0,-1,1973,1513,0,0
756,-489,0,0,0,0,0,0,0,0,0,-1,1980,1513,0,0
763,-489,0,0,0,0,0,0,0,0,0,-1,1987,1513,0,0
770,-489,0,0,0,0,0,0,0,0,0,-1,1994,1513,0,0
777,-489,0,0,0,0,0,0,0,0,0,-1,2001,1513,0,0
784,-489,0,0,0,0,0,0,0,0,0,-1,2008,1513,0,0
791,-489,0,0,0,0,0,0,0,0,0,-1,2015,1513,0,0
798,-489,0,0,0,0,0,0,0,0,0,-1,2022,1513,0,0
805,-489,0,0,0,0,0,0,0,0,0,-1,2029,1513,0,0
812,-489,0,0,0,0,0,0,0,0,0,-1,2036,1513,0,0
-700,-496,0,0,0,0,0,0,0,0,0,-1,524,1520,0,0
-693,-496,0,0,0,0,0,0,0,0,0,-1,531,1520,0,0
-686,-496,0,0,0,0,0,0,0,0,0,-1,538,1520,0,0
-679,-496,0,0,0,0,0,0,0,0,0,-1,545,1520,0,0
-672,-496,0,0,0,0,0,0,0,0,0,-1,552,1520,0,0
-665,-496,0,0,0,0,0,0,0,0,0,-1,559,1520,0,0
-658,-496,0,0,0,0,0,0,0,0,0,-1,566,1520,0,0
-651,-496,0,0,0,0,0,0,0,0,0,-1,573,1520,0,0
-644,-496,0,0,0,0,0,0,0,0,0,-1,580,1520,0,0
-637,-496,0,0,0,0,0,0,0,0,0,-1,587,1520,0,0
-630,-496,0,0,0,0,0,0,0,0,0,-1,594,1520,0,0
-623,-496,0,0,0,0,0,0,0,0,0,-1,601,1520,0,0
-616,-496,0,0,0,0,0,0,0,0,0,-1,608,1520,0,0
-609,-496,0,0,0,0,0,0,0,0,0,-1,615,1520,0,0
-602,-496,0,0,0,0,0,0,0,0,0,-1,622,1520,0,0
-595,-496,0,0,0,0,0,0,0,0,0,-1,629,1520,0,0
-588,-496,0,0,0,0,0,0,0,0,0,-1,636,1520,0,0
-581,-496,0,0,0,0,0,0,0,0,0,-1,643,1520,0,0
-574,-496,0,0,0,0,0,0,0,0,0,-1,650,1520,0,0
-567,-496,0,0,0,0,0,0,0,0,0,-1,657,1520,0,0
-560,-496,0,0,0,0,0,0,0,0,0,-1,664,1520,0,0
-553,-496,0,0,0,0,0,0,0,0,0,-1,671,1520,0,0
-546,-496,-0.259399,1.11536,0.017612,-0.020239,-0.0010842,0.0176431,-0.02027,-0.0286127,0.0219066,0.046722,678,1520,-0.259413,-1.11538
-539,-496,-0.0338135,0.723633,0.012206,-0.0105799,-0.00460472,0.0131014,-0.0114753,-0.192049,0.0141997,0.0439537,685,1520,-0.033821,-0.723615
-532,-496,-0.0545044,0.528198,0.00787806,-0.00365117,-0.00729412,0.0114105,-0.0071836,-0.450996,0.0108274,0.0433333,692,1520,-0.0545046,-0.528138
-525,-496,-0.22406,0.347656,0,0,0,0,0,0,0,-1,699,1520,-0.224044,-0.347715
-518,-496,-0.234497,0.296021,0.00129169,0.00424499,-0.00939472,0.0122784,-0.00674172,-0.86335,0.0111353,0.0471441,706,1520,-0.234498,-0.296008
-511,-496,-0.124573,0.234131,-0.000695655,0.00550937,-0.00932811,0.0122374,-0.00742367,-0.945943,0.0114642,0.0447808,713,1520,-0.124549,-0.23419
-504,-496,0.0355835,0.175171,-0.00170249,0.00607356,-0.00888304,0.0118822,-0.00751112,-0.991683,0.0112911,0.0463795,720,1520,0.0355845,-0.175177
-497,-496,-0.0109863,0.0474854,-0.00255744,0.00617966,-0.00835673,0.0112408,-0.00761858,-1.02624,0.0109552,0.0473248,727,1520,-0.0109597,-0.0475299
-490,-496,-0.0704956,-0.0222168,-0.00276604,0.0058477,-0.00744397,0.0101409,-0.00705928,-1.04766,0.00998354,0.0349184,734,1520,-0.0704739,0.0222716
-483,-496,-0.0817261,-0.0556641,-0.00259233,0.00492455,-0.00626081,0.00846841,-0.0061362,-1.05572,0.00846774,0.0150393,741,1520,-0.0817318,0.0556067
-476,-496,-0.0605469,-0.0700684,-0.00229825,0.00395215,-0.00506552,0.00677896,-0.00512505,-1.0618,0.00689486,0.00897236,748,1520,-0.0605695,0.0700319
-469,-496,-0.0661011,-0.0546875,-0.00166637,0.00282855,-0.00387205,0.00505812,-0.00389594,-1.04835,0.00518412,0.00964167,755,1520,-0.0661037,0.0546713
-462,-496,-0.0770874,-0.0495605,-0.000819621,0.00188018,-0.0029367,0.00376238,-0.00270181,-1.00083,0.00374881,0.013606,762,1520,-0.0770668,0.0495896
-455,-496,-0.0864258,-0.0567627,0.000216799,0.000674612,-0.00226648,0.00272371,-0.0018323,-0.835726,0.00264714,0.0177123,769,1520,-0.0863999,0.0567075
-448,-496,-0.0821533,-0.0516357,0.000926776,-0.000557059,-0.00160164,0.00194999,-0.00158028,-0.5685,0.00204192,0.0164972,776,1520,-0.082134,0.0516295
-441,-496,-0.0657349,-0.0617676,0.00106848,-0.00155045,-0.000876937,0.001335,-0.00181697,-0.295046,0.00182687,0.0134731,783,1520,-0.0657626,0.0617209
-434,-496,-0.0626831,-0.0625,0.00115306,-0.0024049,-0.000207109,0.00116507,-0.00241691,-0.0579493,0.00210974,0.0132359,790,1520,-0.062704,0.0624395
-427,-496,-0.0901489,-0.05896,0.00113878,-0.0032694,-0.000167199,0.00114512,-0.00327574,-0.0378567,0.00264935,0.0156761,797,1520,-0.0901264,0.0589843
-420,-496,-0.0994263,-0.064209,0.00127961,-0.004444,-0.000585054,0.0013388,-0.00450319,-0.100828,0.00353396,0.0153683,804,1520,-0.0994249,0.0642483
-413,-496,-0.083252,-0.0742188,0.00183949,-0.00556512,-0.00153756,0.00214607,-0.0058717,-0.196813,0.00479275,0.0130808,811,1520,-0.0832621,0.0741578
-406,-496,-0.0635376,-0.0908203,0.00254697,-0.00623537,-0.00278243,0.00335429,-0.00704269,-0.282395,0.00612731,0.0133935,818,1520,-0.0635302,0.0908598
-399,-496,-0.071167,-0.0541992,0.00315588,-0.00747698,-0.004514,0.00481373,-0.00913483,-0.351976,0.008181,0.0175289,825,1520,-0.0711513,0.0542305
-392,-496,-0.0841064,0.00390625,0.00368323,-0.00930683,-0.00669661,0.00651718,-0.0121408,-0.400339,0.0109341,0.0268103,832,1520,-0.0841153,-0.00394287
-385,-496,-0.487732,0.716797,0,0,0,0,0,0,0,-1,839,1520,-0.487737,-0.716783
-378,-496,-0.166138,0.354004,0.00493106,-0.0133185,-0.0118207,0.0107391,-0.0191266,-0.456703,0.0174682,0.0405128,846,1520,-0.166151,-0.353953
-371,-496,0.137268,-0.156128,0.00557567,-0.0170298,-0.014524,0.0126767,-0.0241308,-0.454742,0.0215911,0.0422604,853,1520,0.137245,0.156071
-364,-496,0.339966,-0.695923,0.00597776,-0.022258,-0.0168181,0.0138181,-0.0300984,-0.436231,0.0259294,0.0446481,860,1520,0.339967,0.695932
-357,-496,0.683899,-0.372437,0,0,0,0,0,0,0,-1,867,1520,0.683875,0.372431
-350,-496,0.542664,-1.62573,0.00605832,-0.0369014,-0.0186561,0.013029,-0.0438721,-0.357579,0.034423,0.0404278,874,1520,0.542652,1.62573
-343,-496,0.481567,-2.07556,0.00640192,-0.0474714,-0.0184421,0.0121102,-0.0531797,-0.300173,0.0401041,0.0443178,881,1520,0.481552,2.07562
-336,-496,0.39093,-2.53442,0,0,0,0,0,0,0,-1,888,1520,0.390906,2.53445
-329,-496,0.424988,-2.75708,0,0,0,0,0,0,0,-1,895,1520,0.424985,2.75703
-322,-496,0.750366,-3.01758,0,0,0,0,0,0,0,-1,902,1520,0.750337,3.01755
-315,-496,1.07568,-3.27808,0,0,0,0,0,0,0,-1,909,1520,1.07569,3.27808
-308,-496,0,0,0,0,0,0,0,0,0,-1,916,1520,0,0
-301,-496,0,0,0,0,0,0,0,0,0,-1,923,1520,0,0
-294,-496,0,0,0,0,0,0,0,0,0,-1,930,1520,0,0
-287,-496,0,0,0,0,0,0,0,0,0,-1,937,1520,0,0
-280,-496,0,0,0,0,0,0,0,0,0,-1,944,1520,0,0
-273,-496,0,0,0,0,0,0,0,0,0,-1,951,1520,0,0
-266,-496,0,0,0,0,0,0,0,0,0,-1,958,1520,0,0
-259,-496,0,0,0,0,0,0,0,0,0,-1,965,1520,0,0
-252,-496,0,0,0,0,0,0,0,0,0,-1,972,1520,0,0
-245,-496,0,0,0,0,0,0,0,0,0,-1,979,1520,0,0
-238,-496,0,0,0,0,0,0,0,0,0,-1,986,1520,0,0
-231,-496,0,0,0,0,0,0,0,0,0,-1,993,1520,0,0
-224,-496,0,0,0,0,0,0,0,0,0,-1,1000,1520,0,0
-217,-496,0,0,0,0,0,0,0,0,0,-1,1007,1520,0,0
-210,-496,0,0,0,0,0,0,0,0,0,-1,1014,1520,0,0
-203,-496,0,0,0,0,0,0,0,0,0,-1,1021,1520,0,0
-196,-496,0,0,0,0,0,0,0,0,0,-1,1028,1520,0,0
-189,-496,0,0,0,0,0,0,0,0,0,-1,1035,1520,0,0
-182,-496,0,0,0,0,0,0,0,0,0,-1,1042,1520,0,0
-175,-496,0,0,0,0,0,0,0,0,0,-1,1049,1520,0,0
-168,-496,0,0,0,0,0,0,0,0,0,-1,1056,1520,0,0
-161,-496,0,0,0,0,0,0,0,0,0,-1,1063,1520,0,0
-154,-496,0,0,0,0,0,0,0,0,0,-1,1070,1520,0,0
-147,-496,0,0,0,0,0,0,0,0,0,-1,1077,1520,0,0
-140,-496,0,0,0,0,0,0,0,0,0,-1,1084,1520,0,0
-133,-496,0,0,0,0,0,0,0,0,0,-1,1091,1520,0,0
-126,-496,0,0,0,0,0,0,0,0,0,-1,1098,1520,0,0
-119,-496,0,0,0,0,0,0,0,0,0,-1,1105,1520,0,0
-112,-496,0,0,0,0,0,0,0,0,0,-1,1112,1520,0,0
-105,-496,0,0,0,0,0,0,0,0,0,-1,1119,1520,0,0
-98,-496,0,0,0,0,0,0,0,0,0,-1,1126,1520,0,0
-91,-496,0,0,0,0,0,0,0,0,0,-1,1133,1520,0,0
-84,-496,0,0,0,0,0,0,0,0,0,-1,1140,1520,0,0
-77,-496,0,0,0,0,0,0,0,0,0,-1,1147,1520,0,0
-70,-496,0,0,0,0,0,0,0,0,0,-1,1154,1520,0,0
-63,-496,0,0,0,0,0,0,0,0,0,-1,1161,1520,0,0
-56,-496,0,0,0,0,0,0,0,0,0,-1,1168,1520,0,0
-49,-496,0,0,0,0,0,0,0,0,0,-1,1175,1520,0,0
-42,-496,0,0,0,0,0,0,0,0,0,-1,1182,1520,0,0
-35,-496,0,0,0,0,0,0,0,0,0,-1,1189,1520,0,0
-28,-496,0,0,0,0,0,0,0,0,0,-1,1196,1520,0,0
-21,-496,0,0,0,0,0,0,0,0,0,-1,1203,1520,0,0
-14,-496,0,0,0,0,0,0,0,0,0,-1,1210,1520,0,0
-7,-496,0,0,0,0,0,0,0,0,0,-1,1217,1520,0,0
0,-496,0,0,0,0,0,0,0,0,0,-1,1224,1520,0,0
7,-496,0,0,0,0,0,0,0,0,0,-1,1231,1520,0,0
14,-496,0,0,0,0,0,0,0,0,0,-1,1238,1520,0,0
21,-496,0,0,0,0,0,0,0,0,0,-1,1245,1520,0,0
28,-496,0,0,0,0,0,0,0,0,0,-1,1252,1520,0,0
35,-496,0,0,0,0,0,0,0,0,0,-1,1259,1520,0,0
42,-496,0,0,0,0,0,0,0,0,0,-1,1266,1520,0,0
49,-496,0,0,0,0,0,0,0,0,0,-1,1273,1520,0,0
56,-496,0,0,0,0,0,0,0,0,0,-1,1280,1520,0,0
63,-496,0,0,0,0,0,0,0,0,0,-1,1287,1520,0,0
70,-496,0,0,0,0,0,0,0,0,0,-1,1294,1520,0,0
77,-496,0,0,0,0,0,0,0,0,0,-1,1301,1520,0,0
84,-496,0,0,0,0,0,0,0,0,0,-1,1308,1520,0,0
91,-496,0,0,0,0,0,0,0,0,0,-1,1315,1520,0,0
98,-496,0,0,0,0,0,0,0,0,0,-1,1322,1520,0,0
105,-496,0,0,0,0,0,0,0,0,0,-1,1329,1520,0,0
112,-496,0,0,0,0,0,0,0,0,0,-1,1336,1520,0,0
119,-496,0,0,0,0,0,0,0,0,0,-1,1343,1520,0,0
126,-496,0,0,0,0,0,0,0,0,0,-1,1350,1520,0,0
133,-496,0,0,0,0,0,0,0,0,0,-1,1357,1520,0,0
140,-496,0,0,0,0,0,0,0,0,0,-1,1364,1520,0,0
147,-496,0,0,0,0,0,0,0,0,0,-1,1371,1520,0,0
154,-496,0,0,0,0,0,0,0,0,0,-1,1378,1520,0,0
161,-496,0,0,0,0,0,0,0,0,0,-1,1385,1520,0,0
168,-496,0,0,0,0,0,0,0,0,0,-1,1392,1520,0,0
175,-496,0,0,0,0,0,0,0,0,0,-1,1399,1520,0,0
182,-496,0,0,0,0,0,0,0,0,0,-1,1406,1520,0,0
189,-496,0,0,0,0,0,0,0,0,0,-1,1413,1520,0,0
196,-496,0,0,0,0,0,0,0,0,0,-1,1420,1520,0,0
203,-496,0,0,0,0,0,0,0,0,0,-1,1427,1520,0,0
210,-496,0,0,0,0,0,0,0,0,0,-1,1434,1520,0,0
217,-496,0,0,0,0,0,0,0,0,0,-1,1441,1520,0,0
224,-496,0,0,0,0,0,0,0,0,0,-1,1448,1520,0,0
231,-496,0,0,0,0,0,0,0,0,0,-1,1455,1520,0,0
238,-496,0,0,0,0,0,0,0,0,0,-1,1462,1520,0,0
245,-496,0,0,0,0,0,0,0,0,0,-1,1469,1520,0,0
252,-496,0,0,0,0,0,0,0,0,0,-1,1476,1520,0,0
259,-496,0,0,0,0,0,0,0,0,0,-1,1483,1520,0,0
266,-496,0,0,0,0,0,0,0,0,0,-1,1490,1520,0,0
273,-496,0,0,0,0,0,0,0,0,0,-1,1497,1520,0,0
280,-496,0,0,0,0,0,0,0,0,0,-1,1504,1520,0,0
287,-496,0,0,0,0,0,0,0,0,0,-1,1511,1520,0,0
294,-496,0,0,0,0,0,0,0,0,0,-1,1518,1520,0,0
301,-496,0,0,0,0,0,0,0,0,0,-1,1525,1520,0,0
308,-496,0,0,0,0,0,0,0,0,0,-1,1532,1520,0,0
315,-496,0,0,0,0,0,0,0,0,0,-1,1539,1520,0,0
322,-496,0,0,0,0,0,0,0,0,0,-1,1546,1520,0,0
329,-496,0,0,0,0,0,0,0,0,0,-1,1553,1520,0,0
336,-496,0,0,0,0,0,0,0,0,0,-1,1560,1520,0,0
343,-496,0,0,0,0,0,0,0,0,0,-1,1567,1520,0,0
350,-496,0,0,0,0,0,0,0,0,0,-1,1574,1520,0,0
357,-496,0,0,0,0,0,0,0,0,0,-1,1581,1520,0,0
364,-496,0,0,0,0,0,0,0,0,0,-1,1588,1520,0,0
371,-496,0,0,0,0,0,0,0,0,0,-1,1595,1520,0,0
378,-496,0,0,0,0,0,0,0,0,0,-1,1602,1520,0,0
385,-496,0,0,0,0,0,0,0,0,0,-1,1609,1520,0,0
392,-496,0,0,0,0,0,0,0,0,0,-1,1616,1520,0,0
399,-496,0,0,0,0,0,0,0,0,0,-1,1623,1520,0,0
406,-496,0,0,0,0,0,0,0,0,0,-1,1630,1520,0,0
413,-496,0,0,0,0,0,0,0,0,0,-1,1637,1520,0,0
420,-496,0,0,0,0,0,0,0,0,0,-1,1644,1520,0,0
427,-496,0,0,0,0,0,0,0,0,0,-1,1651,1520,0,0
434,-496,0.624023,-1.27209,-0.0322959,0.0355102,0.00208575,0.0355743,-0.03236,1.54007,0.0392365,0.0451793,1658,1520,0.624048,1.27207
441,-496,0.481079,-0.942139,-0.0249102,0.0337385,0.00165373,0.0337851,-0.0249568,1.54263,0.0340421,0.0451183,1665,1520,0.481094,0.942079
448,-496,0.152832,-0.408081,-0.0194759,0.0312769,0.000806589,0.0312897,-0.0194887,1.55491,0.0295796,0.0446707,1672,1520,0.152869,0.408025
455,-496,-0.0936279,-0.142578,-0.014397,0.0282606,0.000193792,0.0282614,-0.0143979,1.56625,0.0250592,0.0429694,1679,1520,-0.0936332,0.142592
462,-496,-0.220703,0.0124512,-0.00957263,0.0247844,0.000112299,0.0247847,-0.009573,1.56753,0.0204742,0.0438801,1686,1520,-0.220737,-0.0124027
469,-496,-0.285889,-0.0032959,-0.00497494,0.0206806,0.000965221,0.0207169,-0.00501121,1.53324,0.0157497,0.044256,1693,1520,-0.285938,0.0033062
476,-496,-0.667969,-0.0808105,-0.00113296,0.0171521,0.00159294,0.0172898,-0.0012707,1.48455,0.0119726,0.0415969,1700,1520,-0.668011,0.0807884
483,-496,-0.785278,-0.115967,0.00187455,0.0140263,0.00195986,0.0143346,0.00156628,1.41478,0.00907943,0.0450175,1707,1520,-0.785242,0.115922
490,-496,-0.769897,-0.0307617,0,0,0,0,0,0,0,-1,1714,1520,-0.769931,0.0307065
497,-496,0.231812,0.429565,0.00502946,0.00860534,0.00185922,0.00939682,0.00423798,1.16833,0.00543393,0.0426592,1721,1520,0.231856,-0.42953
504,-496,0.0444336,0.217773,0.00589281,0.00700181,0.00226064,0.00877496,0.00411965,0.905666,0.00506937,0.0400147,1728,1520,0.0444661,-0.217729
511,-496,-0.0806885,0.00866699,0.00636306,0.00605476,0.00242495,0.00863876,0.00377906,0.753657,0.00500058,0.0402268,1735,1520,-0.0806512,-0.00866913
518,-496,-0.0412598,-0.0976563,0.00599768,0.00417891,0.00159687,0.00692595,0.00325065,0.52656,0.0040012,0.0425936,1742,1520,-0.041312,0.0976078
525,-496,-0.0516357,-0.0354004,0.00483911,0.00360937,0.00137446,0.00572996,0.00271851,0.575072,0.00330963,0.0375947,1749,1520,-0.0516886,0.0354085
532,-496,-0.0628662,-0.0339355,0.00366935,0.00292535,0.00124936,0.00460091,0.00199378,0.640702,0.00266419,0.0208931,1756,1520,-0.0628927,0.0339685
539,-496,-0.0604248,-0.0491943,0.00197171,0.00254706,0.00087043,0.00317612,0.00134265,0.944995,0.00184102,0.0112636,1763,1520,-0.0604838,0.049233
546,-496,-0.092041,-0.0512695,0.0010304,0.00236242,0.000659746,0.00263387,0.000758951,1.18046,0.0015655,0.00894799,1770,1520,-0.0921019,0.0513198
553,-496,-0.079834,-0.057251,0.000738618,0.00212103,0.000574214,0.00232843,0.000531221,1.22419,0.001409,0.0135878,1777,1520,-0.0798291,0.0572999
560,-496,-0.0438232,-0.0483398,0.000597576,0.00188029,0.000589434,0.00211001,0.000367859,1.19918,0.0013015,0.0133023,1784,1520,-0.0438467,0.0483333
567,-496,-0.0541992,-0.048584,0.000447235,0.00129771,0.000507895,0.00153488,0.000210064,1.13392,0.000960915,0.0113156,1791,1520,-0.0541523,0.0485427
574,-496,-0.0679932,-0.0421143,0.000164477,0.000886602,7.99198e-05,0.000895341,0.000155738,1.46188,0.000552349,0.0114852,1798,1520,-0.0679605,0.0421079
581,-496,-0.0733643,-0.0480957,6.59097e-05,0.000348022,-0.000301956,0.000540244,-0.000126312,-1.00391,0.000408824,0.0127084,1805,1520,-0.0734099,0.048045
588,-496,-0.0588379,-0.0709229,-0.000238967,0.000178192,-0.000742634,0.000740982,-0.000801757,-0.922303,0.000890931,0.0164421,1812,1520,-0.0588155,0.0709559
595,-496,-0.0549316,-0.0718994,-0.00087992,0.000277024,-0.00115997,0.000994765,-0.00159766,-1.0167,0.00151017,0.0174316,1819,1520,-0.0549002,0.0718522
602,-496,-0.0463867,-0.0718994,-0.00178459,0.000560682,-0.00139278,0.00120874,-0.00243265,-1.1353,0.00214158,0.0159881,1826,1520,-0.0463927,0.0719594
609,-496,-0.0487061,-0.0706787,-0.00284069,0.00116303,-0.00126057,0.00152686,-0.00320452,-1.28981,0.00278832,0.0129242,1833,1520,-0.0486695,0.0707371
616,-496,-0.0635986,-0.0721436,-0.00425841,0.00132888,-0.00169284,0.00180176,-0.00473129,-1.2984,0.00389621,0.0112207,1840,1520,-0.0636505,0.0721205
623,-496,-0.092041,-0.0712891,-0.00590268,0.00269092,-0.00161709,0.00298514,-0.00619691,-1.39082,0.00540828,0.0222425,1847,1520,-0.0920428,0.0713404
630,-496,-0.112915,-0.281006,-0.00768092,0.00503234,-0.00111351,0.00512913,-0.00777772,-1.48409,0.00750389,0.0363877,1854,1520,-0.112891,0.280974
637,-496,-0.0738525,-0.348389,-0.00984986,0.00747035,-0.000298123,0.00747548,-0.00985499,-1.55359,0.0100371,0.0434708,1861,1520,-0.0739091,0.348401
644,-496,-0.128296,-0.319946,-0.0119737,0.0107386,0.0011323,0.0107949,-0.01203,1.52111,0.0131844,0.045136,1868,1520,-0.128263,0.319941
651,-496,-0.270508,-0.170898,-0.0137723,0.0150601,0.00334039,0.015442,-0.0141542,1.45695,0.0170928,0.0428889,1875,1520,-0.270545,0.170871
658,-496,-0.303711,0.141357,-0.0148635,0.0206521,0.0065555,0.0218235,-0.0160349,1.39398,0.0219426,0.0435129,1882,1520,-0.303723,-0.141393
665,-496,-0.146484,0.51001,-0.0148672,0.0277325,0.011029,0.0304185,-0.0175532,1.3319,0.0280266,0.0460739,1889,1520,-0.146438,-0.509954
672,-496,0,0,0,0,0,0,0,0,0,-1,1896,1520,0,0
679,-496,0,0,0,0,0,0,0,0,0,-1,1903,1520,0,0
686,-496,0,0,0,0,0,0,0,0,0,-1,1910,1520,0,0
693,-496,0,0,0,0,0,0,0,0,0,-1,1917,1520,0,0
700,-496,0,0,0,0,0,0,0,0,0,-1,1924,1520,0,0
707,-496,0,0,0,0,0,0,0,0,0,-1,1931,1520,0,0
714,-496,0,0,0,0,0,0,0,0,0,-1,1938,1520,0,0
721,-496,0,0,0,0,0,0,0,0,0,-1,1945,1520,0,0
728,-496,0,0,0,0,0,0,0,0,0,-1,1952,1520,0,0
735,-496,0,0,0,0,0,0,0,0,0,-1,1959,1520,0,0
742,-496,0,0,0,0,0,0,0,0,0,-1,1966,1520,0,0
749,-496,0,0,0,0,0,0,0,0,0,-1,1973,1520,0,0
756,-496,0,0,0,0,0,0,0,0,0,-1,1980,1520,0,0
763,-496,0,0,0,0,0,0,0,0,0,-1,1987,1520,0,0
770,-496,0,0,0,0,0,0,0,0,0,-1,1994,1520,0,0
777,-496,0,0,0,0,0,0,0,0,0,-1,2001,1520,0,0
784,-496,0,0,0,0,0,0,0,0,0,-1,2008,1520,0,0
791,-496,0,0,0,0,0,0,0,0,0,-1,2015,1520,0,0
798,-496,0,0,0,0,0,0,0,0,0,-1,2022,1520,0,0
805,-496,0,0,0,0,0,0,0,0,0,-1,2029,1520,0,0
812,-496,0,0,0,0,0,0,0,0,0,-1,2036,1520,0,0
-700,-503,0,0,0,0,0,0,0,0,0,-1,524,1527,0,0
-693,-503,0,0,0,0,0,0,0,0,0,-1,531,1527,0,0
-686,-503,0,0,0,0,0,0,0,0,0,-1,538,1527,0,0
-679,-503,0,0,0,0,0,0,0,0,0,-1,545,1527,0,0
-672,-503,0,0,0,0,0,0,0,0,0,-1,552,1527,0,0
-665,-503,0,0,0,0,0,0,0,0,0,-1,559,1527,0,0
-658,-503,0,0,0,0,0,0,0,0,0,-1,566,1527,0,0
-651,-503,0,0,0,0,0,0,0,0,0,-1,573,1527,0,0
-644,-503,0,0,0,0,0,0,0,0,0,-1,580,1527,0,0
-637,-503,0,0,0,0,0,0,0,0,0,-1,587,1527,0,0
-630,-503,0,0,0,0,0,0,0,0,0,-1,594,1527,0,0
-623,-503,0,0,0,0,0,0,0,0,0,-1,601,1527,0,0
-616,-503,0,0,0,0,0,0,0,0,0,-1,608,1527,0,0
-609,-503,0,0,0,0,0,0,0,0,0,-1,615,1527,0,0
-602,-503,0,0,0,0,0,0,0,0,0,-1,622,1527,0,0
-595,-503,0,0,0,0,0,0,0,0,0,-1,629,1527,0,0
-588,-503,0,0,0,0,0,0,0,0,0,-1,636,1527,0,0
-581,-503,0,0,0,0,0,0,0,0,0,-1,643,1527,0,0
-574,-503,0,0,0,0,0,0,0,0,0,-1,650,1527,0,0
-567,-503,0,0,0,0,0,0,0,0,0,-1,657,1527,0,0
-560,-503,0,0,0,0,0,0,0,0,0,-1,664,1527,0,0
-553,-503,0,0,0,0,0,0,0,0,0,-1,671,1527,0,0
-546,-503,0,0,0,0,0,0,0,0,0,-1,678,1527,0,0
-539,-503,-0.152893,1.06836,0,0,0,0,0,0,0,-1,685,1527,-0.152922,-1.0684
-532,-503,0.144165,0.338745,0,0,0,0,0,0,0,-1,692,1527,0.144164,-0.338725
-525,-503,-0.0178223,0.115356,0,0,0,0,0,0,0,-1,699,1527,-0.017799,-0.115306
-518,-503,0.110413,0.158813,0.000752356,0.0102951,-0.00993386,0.016544,-0.00549661,-1.00928,0.0132473,0.0487649,706,1527,0.110389,-0.158753
-511,-503,0.0914307,-0.163818,-0.00151119,0.0111993,-0.0100117,0.0167025,-0.00701443,-1.0682,0.0140686,0.0453182,713,1527,0.0914573,0.163876
-504,-503,0.120422,-0.310059,-0.00258874,0.0111328,-0.00965249,0.0161144,-0.00757028,-1.09436,0.0139678,0.0470224,720,1527,0.120438,0.310105
-497,-503,0.0881348,-0.133667,0,0,0,0,0,0,0,-1,727,1527,0.0881422,0.133631
-490,-503,0.214905,-0.0775146,-0.00345532,0.00949223,-0.00825506,0.0135092,-0.0074723,-1.11792,0.0122797,0.0437249,734,1527,0.214934,0.0774709
-483,-503,0.0359497,-0.0338135,-0.00307073,0.00780648,-0.0070385,0.0112628,-0.006527,-1.11433,0.0103915,0.0307925,741,1527,0.0359455,0.0338365
-476,-503,-0.0596924,-0.0727539,-0.00257895,0.00612171,-0.00578663,0.00901089,-0.00546813,-1.10772,0.00844246,0.0144169,748,1527,-0.0596619,0.0727833
-469,-503,-0.067688,-0.0577393,-0.00190133,0.00429638,-0.00442688,0.00660124,-0.0042062,-1.09076,0.00629054,0.00887832,755,1527,-0.0677043,0.0577816
-462,-503,-0.0839844,-0.0395508,-0.00105869,0.00282219,-0.00332422,0.00473087,-0.00296738,-1.04958,0.00448329,0.0107229,762,1527,-0.0840062,0.0395221
-455,-503,-0.0843506,-0.050293,-4.28789e-07,0.00126762,-0.00253955,0.0032511,-0.00198391,-0.907727,0.0030518,0.0155907,769,1527,-0.0843463,0.0502969
-448,-503,-0.0679932,-0.0474854,0.000745051,-0.000314513,-0.00181468,0.0021057,-0.00167516,-0.643374,0.0021876,0.0148428,776,1527,-0.0679651,0.047533
-441,-503,-0.0601196,-0.0548096,0.000919786,-0.00149253,-0.00101595,0.00129064,-0.00186338,-0.350004,0.00183096,0.0126905,783,1527,-0.0601027,0.0547823
-434,-503,-0.0576172,-0.0716553,0.00104647,-0.00228375,-0.000250312,0.00106518,-0.00230246,-0.0746051,0.00198757,0.0112703,790,1527,-0.0575923,0.0715989
-427,-503,-0.0794678,-0.0561523,0.00097334,-0.0030274,-5.19176e-05,0.000974014,-0.00302807,-0.0129741,0.00240992,0.0166666,797,1527,-0.0794798,0.0562012
-420,-503,-0.0792236,-0.0367432,0.00112848,-0.00394721,-0.000345297,0.00115187,-0.00397059,-0.0676144,0.00310312,0.0171704,804,1527,-0.0792189,0.0367051
-413,-503,-0.0823975,-0.0614014,0.0017621,-0.00478415,-0.0011271,0.00195073,-0.00497277,-0.165816,0.00412226,0.014461,811,1527,-0.0823766,0.0614196
-406,-503,-0.0753784,-0.0782471,0.00253407,-0.00521858,-0.00215294,0.00309182,-0.00577633,-0.253492,0.00519764,0.00976834,818,1527,-0.0753835,0.0782615
-399,-503,-0.0531006,-0.0493164,0.00324353,-0.0061704,-0.00361734,0.00447295,-0.00739982,-0.327621,0.00692383,0.0104242,825,1527,-0.0531222,0.0493056
-392,-503,-0.0852051,-0.0150146,0.00386149,-0.00769023,-0.00545009,0.00602692,-0.00985565,-0.378193,0.00925819,0.0151225,832,1527,-0.0851899,0.0149755
-385,-503,-0.103088,-0.0177002,0.0045289,-0.00899712,-0.00738514,0.00777981,-0.012248,-0.414671,0.0116586,0.0308213,839,1527,-0.103065,0.0176914
-378,-503,-0.000244141,-0.166016,0.00511609,-0.0111989,-0.00946781,0.00945596,-0.0155388,-0.429802,0.0145725,0.0390814,846,1527,-0.000216348,0.166061
-371,-503,0.151733,-0.0738525,0.00567708,-0.0146069,-0.0115166,0.0108808,-0.0198107,-0.42439,0.017968,0.0409151,853,1527,0.151755,0.0738235
-364,-503,0.412476,-0.193359,0.00592833,-0.0193548,-0.0132139,0.0115738,-0.0250002,-0.403765,0.0215851,0.0458035,860,1527,0.412473,0.193336
-357,-503,0.547363,-0.246704,0.00585885,-0.0254277,-0.0141405,0.0113027,-0.0308715,-0.367493,0.0252078,0.0476371,867,1527,0.547392,0.246742
-350,-503,0.393311,-1.16199,0.00562357,-0.0330584,-0.0140035,0.0101609,-0.0375957,-0.313337,0.0290492,0.0433088,874,1527,0.393339,1.162
-343,-503,0.35376,-1.60059,0.00563219,-0.0428265,-0.0133876,0.00908475,-0.046279,-0.252394,0.0342845,0.0421965,881,1527,0.353768,1.60059
-336,-503,0.23584,-2.06079,0,0,0,0,0,0,0,-1,888,1527,0.235833,2.06076
-329,-503,0.651306,-2.22961,0,0,0,0,0,0,0,-1,895,1527,0.651298,2.22962
-322,-503,0.67157,-2.51563,0.00712103,-0.0792506,-0.00480908,0.00738797,-0.0795175,-0.0554504,0.0556381,0.0426952,902,1527,0.671577,2.51567
-315,-503,0.794373,-2.72498,0.00786621,-0.094139,0.00199413,0.00790517,-0.094178,0.0195393,0.0655794,0.0434508,909,1527,0.794392,2.72495
-308,-503,0.907959,-2.94092,0.00810291,-0.109571,0.0101638,0.00897432,-0.110443,0.0855285,0.0767948,0.0491223,916,1527,0.907963,2.94089
-301,-503,0,0,0,0,0,0,0,0,0,-1,923,1527,0,0
-294,-503,0,0,0,0,0,0,0,0,0,-1,930,1527,0,0
-287,-503,0,0,0,0,0,0,0,0,0,-1,937,1527,0,0
-280,-503,0,0,0,0,0,0,0,0,0,-1,944,1527,0,0
-273,-503,0,0,0,0,0,0,0,0,0,-1,951,1527,0,0
-266,-503,0,0,0,0,0,0,0,0,0,-1,958,1527,0,0
-259,-503,0,0,0,0,0,0,0,0,0,-1,965,1527,0,0
-252,-503,0,0,0,0,0,0,0,0,0,-1,972,1527,0,0
-245,-503,0,0,0,0,0,0,0,0,0,-1,979,1527,0,0
-238,-503,0,0,0,0,0,0,0,0,0,-1,986,1527,0,0
-231,-503,0,0,0,0,0,0,0,0,0,-1,993,1527,0,0
-224,-503,0,0,0,0,0,0,0,0,0,-1,1000,1527,0,0
-217,-503,0,0,0,0,0,0,0,0,0,-1,1007,1527,0,0
-210,-503,0,0,0,0,0,0,0,0,0,-1,1014,1527,0,0
-203,-503,0,0,0,0,0,0,0,0,0,-1,1021,1527,0,0
-196,-503,0,0,0,0,0,0,0,0,0,-1,1028,1527,0,0
-189,-503,0,0,0,0,0,0,0,0,0,-1,1035,1527,0,0
-182,-503,0,0,0,0,0,0,0,0,0,-1,1042,1527,0,0
-175,-503,0,0,0,0,0,0,0,0,0,-1,1049,1527,0,0
-168,-503,0,0,0,0,0,0,0,0,0,-1,1056,1527,0,0
-161,-503,0,0,0,0,0,0,0,0,0,-1,1063,1527,0,0
-154,-503,0,0,0,0,0,0,0,0,0,-1,1070,1527,0,0
-147,-503,0,0,0,0,0,0,0,0,0,-1,1077,1527,0,0
-140,-503,0,0,0,0,0,0,0,0,0,-1,1084,1527,0,0
-133,-503,0,0,0,0,0,0,0,0,0,-1,1091,1527,0,0
-126,-503,0,0,0,0,0,0,0,0,0,-1,1098,1527,0,0
-119,-503,0,0,0,0,0,0,0,0,0,-1,1105,1527,0,0
-112,-503,0,0,0,0,0,0,0,0,0,-1,1112,1527,0,0
-105,-503,0,0,0,0,0,0,0,0,0,-1,1119,1527,0,0
-98,-503,0,0,0,0,0,0,0,0,0,-1,1126,1527,0,0
-91,-503,0,0,0,0,0,0,0,0,0,-1,1133,1527,0,0
-84,-503,0,0,0,0,0,0,0,0,0,-1,1140,1527,0,0
-77,-503,0,0,0,0,0,0,0,0,0,-1,1147,1527,0,0
-70,-503,0,0,0,0,0,0,0,0,0,-1,1154,1527,0,0
-63,-503,0,0,0,0,0,0,0,0,0,-1,1161,1527,0,0
-56,-503,0,0,0,0,0,0,0,0,0,-1,1168,1527,0,0
-49,-503,0,0,0,0,0,0,0,0,0,-1,1175,1527,0,0
-42,-503,0,0,0,0,0,0,0,0,0,-1,1182,1527,0,0
-35,-503,0,0,0,0,0,0,0,0,0,-1,1189,1527,0,0
-28,-503,0,0,0,0,0,0,0,0,0,-1,1196,1527,0,0
-21,-503,0,0,0,0,0,0,0,0,0,-1,1203,1527,0,0
-14,-503,0,0,0,0,0,0,0,0,0,-1,1210,1527,0,0
-7,-503,0,0,0,0,0,0,0,0,0,-1,1217,1527,0,0
0,-503,0,0,0,0,0,0,0,0,0,-1,1224,1527,0,0
7,-503,0,0,0,0,0,0,0,0,0,-1,1231,1527,0,0
14,-503,0,0,0,0,0,0,0,0,0,-1,1238,1527,0,0
21,-503,0,0,0,0,0,0,0,0,0,-1,1245,1527,0,0
28,-503,0,0,0,0,0,0,0,0,0,-1,1252,1527,0,0
35,-503,0,0,0,0,0,0,0,0,0,-1,1259,1527,0,0
42,-503,0,0,0,0,0,0,0,0,0,-1,1266,1527,0,0
49,-503,0,0,0,0,0,0,0,0,0,-1,1273,1527,0,0
56,-503,0,0,0,0,0,0,0,0,0,-1,1280,1527,0,0
63,-503,0,0,0,0,0,0,0,0,0,-1,1287,1527,0,0
70,-503,0,0,0,0,0,0,0,0,0,-1,1294,1527,0,0
77,-503,0,0,0,0,0,0,0,0,0,-1,1301,1527,0,0
84,-503,0,0,0,0,0,0,0,0,0,-1,1308,1527,0,0
91,-503,0,0,0,0,0,0,0,0,0,-1,1315,1527,0,0
98,-503,0,0,0,0,0,0,0,0,0,-1,1322,1527,0,0
105,-503,0,0,0,0,0,0,0,0,0,-1,1329,1527,0,0
112,-503,0,0,0,0,0,0,0,0,0,-1,1336,1527,0,0
119,-503,0,0,0,0,0,0,0,0,0,-1,1343,1527,0,0
126,-503,0,0,0,0,0,0,0,0,0,-1,1350,1527,0,0
133,-503,0,0,0,0,0,0,0,0,0,-1,1357,1527,0,0
140,-503,0,0,0,0,0,0,0,0,0,-1,1364,1527,0,0
147,-503,0,0,0,0,0,0,0,0,0,-1,1371,1527,0,0
154,-503,0,0,0,0,0,0,0,0,0,-1,1378,1527,0,0
161,-503,0,0,0,0,0,0,0,0,0,-1,1385,1527,0,0
168,-503,0,0,0,0,0,0,0,0,0,-1,1392,1527,0,0
175,-503,0,0,0,0,0,0,0,0,0,-1,1399,1527,0,0
182,-503,0,0,0,0,0,0,0,0,0,-1,1406,1527,0,0
189,-503,0,0,0,0,0,0,0,0,0,-1,1413,1527,0,0
196,-503,0,0,0,0,0,0,0,0,0,-1,1420,1527,0,0
203,-503,0,0,0,0,0,0,0,0,0,-1,1427,1527,0,0
210,-503,0,0,0,0,0,0,0,0,0,-1,1434,1527,0,0
217,-503,0,0,0,0,0,0,0,0,0,-1,1441,1527,0,0
224,-503,0,0,0,0,0,0,0,0,0,-1,1448,1527,0,0
231,-503,0,0,0,0,0,0,0,0,0,-1,1455,1527,0,0
238,-503,0,0,0,0,0,0,0,0,0,-1,1462,1527,0,0
245,-503,0,0,0,0,0,0,0,0,0,-1,1469,1527,0,0
252,-503,0,0,0,0,0,0,0,0,0,-1,1476,1527,0,0
259,-503,0,0,0,0,0,0,0,0,0,-1,1483,1527,0,0
266,-503,0,0,0,0,0,0,0,0,0,-1,1490,1527,0,0
273,-503,0,0,0,0,0,0,0,0,0,-1,1497,1527,0,0
280,-503,0,0,0,0,0,0,0,0,0,-1,1504,1527,0,0
287,-503,0,0,0,0,0,0,0,0,0,-1,1511,1527,0,0
294,-503,0,0,0,0,0,0,0,0,0,-1,1518,1527,0,0
301,-503,0,0,0,0,0,0,0,0,0,-1,1525,1527,0,0
308,-503,0,0,0,0,0,0,0,0,0,-1,1532,1527,0,0
315,-503,0,0,0,0,0,0,0,0,0,-1,1539,1527,0,0
322,-503,0,0,0,0,0,0,0,0,0,-1,1546,1527,0,0
329,-503,0,0,0,0,0,0,0,0,0,-1,1553,1527,0,0
336,-503,0,0,0,0,0,0,0,0,0,-1,1560,1527,0,0
343,-503,0,0,0,0,0,0,0,0,0,-1,1567,1527,0,0
350,-503,0,0,0,0,0,0,0,0,0,-1,1574,1527,0,0
357,-503,0,0,0,0,0,0,0,0,0,-1,1581,1527,0,0
364,-503,0,0,0,0,0,0,0,0,0,-1,1588,1527,0,0
371,-503,0,0,0,0,0,0,0,0,0,-1,1595,1527,0,0
378,-503,0,0,0,0,0,0,0,0,0,-1,1602,1527,0,0
385,-503,0,0,0,0,0,0,0,0,0,-1,1609,1527,0,0
392,-503,0,0,0,0,0,0,0,0,0,-1,1616,1527,0,0
399,-503,0,0,0,0,0,0,0,0,0,-1,1623,1527,0,0
406,-503,0,0,0,0,0,0,0,0,0,-1,1630,1527,0,0
413,-503,0,0,0,0,0,0,0,0,0,-1,1637,1527,0,0
420,-503,0,0,0,0,0,0,0,0,0,-1,1644,1527,0,0
427,-503,1.29871,-1.82813,0,0,0,0,0,0,0,-1,1651,1527,1.29876,1.82812
434,-503,1.13477,-1.62402,0,0,0,0,0,0,0,-1,1658,1527,1.13478,1.62402
441,-503,1.10291,-0.997314,0,0,0,0,0,0,0,-1,1665,1527,1.10295,0.997359
448,-503,0.845581,-0.458984,-0.0117599,0.0263427,0.00486006,0.0269529,-0.01237,1.44591,0.0232176,0.0449194,1672,1527,0.845626,0.459037
455,-503,0.715698,-0.0670166,-0.00878905,0.0247871,0.00303719,0.0250596,-0.00906158,1.48131,0.0204089,0.0430911,1679,1527,0.715661,0.0670226
462,-503,0.0922852,0.310547,-0.00604673,0.0222465,0.00188454,0.0223714,-0.00617171,1.50458,0.0173416,0.0445691,1686,1527,0.0922516,-0.310554
469,-503,-0.925049,-0.613281,0,0,0,0,0,0,0,-1,1693,1527,-0.92502,0.613308
476,-503,-0.558472,-0.102905,-0.000709934,0.0159311,0.00192268,0.0161503,-0.000929189,1.45725,0.0110896,0.0420158,1700,1527,-0.558501,0.102864
483,-503,-0.622192,-0.204102,0.00151311,0.0134191,0.00197249,0.0137373,0.00119483,1.41082,0.00878708,0.041213,1707,1527,-0.622229,0.204081
490,-503,-0.24707,-0.0588379,0,0,0,0,0,0,0,-1,1714,1527,-0.247095,0.0587773
497,-503,-0.0881348,0.307007,0.0036111,0.00914261,0.00138361,0.00946939,0.00328432,1.33887,0.005552,0.0442455,1721,1527,-0.0881727,-0.306983
504,-503,0.0109863,0.369263,0.00431096,0.00753522,0.00165014,0.00823002,0.00361616,1.17227,0.00476323,0.0394992,1728,1527,0.0109478,-0.369295
511,-503,-0.129639,-0.0269775,0.00476543,0.00680434,0.00171124,0.00777677,0.003793,1.05404,0.00449037,0.0375266,1735,1527,-0.129658,0.0269597
518,-503,-0.0336914,-0.116943,0.00449496,0.00508568,0.000912317,0.00574925,0.00383138,0.941947,0.00338006,0.0374979,1742,1527,-0.0337167,0.116961
525,-503,-0.0391846,-0.0682373,0.00350123,0.00447597,0.00067236,0.00481902,0.00315818,1.09901,0.00282668,0.0241525,1749,1527,-0.0391782,0.0682231
532,-503,-0.0430908,-0.0693359,0.00258316,0.00363938,0.000544508,0.00386981,0.00235272,1.17045,0.00225153,0.00995398,1756,1527,-0.0430831,0.0693383
539,-503,-0.0623779,-0.0576172,0.00130541,0.00310344,0.000239765,0.00313486,0.00127398,1.44048,0.00182046,0.0103819,1763,1527,-0.0623957,0.0575685
546,-503,-0.0959473,-0.0556641,0.000677691,0.00267553,0.000130667,0.00268404,0.000669181,1.50576,0.00161325,0.0104134,1770,1527,-0.0959448,0.0556613
553,-503,-0.0616455,-0.0634766,0.000579986,0.0021601,0.000152663,0.00217472,0.000565372,1.47536,0.00130291,0.0119972,1777,1527,-0.0616964,0.0634255
560,-503,-0.0430908,-0.0535889,0.000659728,0.0016203,0.000271465,0.00169171,0.000588319,1.31357,0.000991687,0.0122317,1784,1527,-0.0430369,0.0535749
567,-503,-0.0614014,-0.0622559,0.000723721,0.000963368,0.000307531,0.00117359,0.000513495,0.971166,0.000679335,0.0119181,1791,1527,-0.0613411,0.0622105
574,-503,-0.0767822,-0.0567627,0.000640535,0.000445948,7.94268e-05,0.000668838,0.000417645,0.342321,0.00039012,0.0123917,1798,1527,-0.0768011,0.0567147
581,-503,-0.0869141,-0.0541992,0.000588427,-0.00020517,-0.000237205,0.000653922,-0.000270665,-0.2694,0.000548885,0.0136207,1805,1527,-0.0868786,0.0541835
588,-503,-0.0821533,-0.0665283,0.000228812,-0.00039416,-0.000696857,0.000680631,-0.000845978,-0.575226,0.00088311,0.0176448,1812,1527,-0.0821995,0.066534
595,-503,-0.0806885,-0.0450439,-0.000566917,-0.000255292,-0.00114482,0.000744266,-0.00156647,-0.853034,0.00136197,0.0132473,1819,1527,-0.0806899,0.0450344
602,-503,-0.0797119,-0.0385742,-0.0017072,8.10523e-05,-0.00143033,0.000873725,-0.00249988,-1.06474,0.00202177,0.0123719,1826,1527,-0.0797035,0.0385571
609,-503,-0.0617676,-0.0500488,-0.00311575,0.000821274,-0.00137157,0.00125198,-0.00354645,-1.26652,0.00287401,0.0141119,1833,1527,-0.0617907,0.0499985
616,-503,-0.0574951,-0.0581055,-0.00493557,0.00109001,-0.00191999,0.00164979,-0.00549535,-1.28711,0.00431982,0.0173591,1840,1527,-0.0574694,0.0580943
623,-503,-0.0362549,-0.0343018,-0.00711807,0.00253634,-0.00199121,0.0029309,-0.00751263,-1.37518,0.00621999,0.03149,1847,1527,-0.0362214,0.0343346
630,-503,-0.0231934,-0.179321,-0.00955536,0.00496368,-0.00163278,0.00514503,-0.00973672,-1.46018,0.00872725,0.0384612,1854,1527,-0.0231865,0.179278
637,-503,-0.104248,-0.303711,-0.0125238,0.00763288,-0.000908409,0.00767373,-0.0125647,-1.52585,0.0117978,0.0417352,1861,1527,-0.104303,0.30368
644,-503,-0.316162,-0.452393,-0.0155741,0.0111919,0.000489427,0.0112009,-0.0155831,1.55252,0.0155325,0.0445556,1868,1527,-0.316116,0.452429
651,-503,-0.780884,-0.599365,-0.0183137,0.0158543,0.00281427,0.0160845,-0.0185439,1.48916,0.0200096,0.0419022,1875,1527,-0.78089,0.599322
658,-503,-1.28882,-0.494019,-0.0202377,0.0218588,0.00643755,0.0228213,-0.0212001,1.42239,0.0254215,0.0415425,1882,1527,-1.28877,0.493992
665,-503,0,0,0,0,0,0,0,0,0,-1,1889,1527,0,0
672,-503,0,0,0,0,0,0,0,0,0,-1,1896,1527,0,0
679,-503,0,0,0,0,0,0,0,0,0,-1,1903,1527,0,0
686,-503,0,0,0,0,0,0,0,0,0,-1,1910,1527,0,0
693,-503,0,0,0,0,0,0,0,0,0,-1,1917,1527,0,0
700,-503,0,0,0,0,0,0,0,0,0,-1,1924,1527,0,0
707,-503,0,0,0,0,0,0,0,0,0,-1,1931,1527,0,0
714,-503,0,0,0,0,0,0,0,0,0,-1,1938,1527,0,0
721,-503,0,0,0,0,0,0,0,0,0,-1,1945,1527,0,0
728,-503,0,0,0,0,0,0,0,0,0,-1,1952,1527,0,0
735,-503,0,0,0,0,0,0,0,0,0,-1,1959,1527,0,0
742,-503,0,0,0,0,0,0,0,0,0,-1,1966,1527,0,0
749,-503,0,0,0,0,0,0,0,0,0,-1,1973,1527,0,0
756,-503,0,0,0,0,0,0,0,0,0,-1,1980,1527,0,0
763,-503,0,0,0,0,0,0,0,0,0,-1,1987,1527,0,0
770,-503,0,0,0,0,0,0,0,0,0,-1,1994,1527,0,0
777,-503,0,0,0,0,0,0,0,0,0,-1,2001,1527,0,0
784,-503,0,0,0,0,0,0,0,0,0,-1,2008,1527,0,0
791,-503,0,0,0,0,0,0,0,0,0,-1,2015,1527,0,0
798,-503,0,0,0,0,0,0,0,0,0,-1,2022,1527,0,0
805,-503,0,0,0,0,0,0,0,0,0,-1,2029,1527,0,0
812,-503,0,0,0,0,0,0,0,0,0,-1,2036,1527,0,0
-700,-510,0,0,0,0,0,0,0,0,0,-1,524,1534,0,0
-693,-510,0,0,0,0,0,0,0,0,0,-1,531,1534,0,0
-686,-510,0,0,0,0,0,0,0,0,0,-1,538,1534,0,0
-679,-510,0,0,0,0,0,0,0,0,0,-1,545,1534,0,0
-672,-510,0,0,0,0,0,0,0,0,0,-1,552,1534,0,0
-665,-510,0,0,0,0,0,0,0,0,0,-1,559,1534,0,0
-658,-510,0,0,0,0,0,0,0,0,0,-1,566,1534,0,0
-651,-510,0,0,0,0,0,0,0,0,0,-1,573,1534,0,0
-644,-510,0,0,0,0,0,0,0,0,0,-1,580,1534,0,0
-637,-510,0,0,0,0,0,0,0,0,0,-1,587,1534,0,0
-630,-510,0,0,0,0,0,0,0,0,0,-1,594,1534,0,0
-623,-510,0,0,0,0,0,0,0,0,0,-1,601,1534,0,0
-616,-510,0,0,0,0,0,0,0,0,0,-1,608,1534,0,0
-609,-510,0,0,0,0,0,0,0,0,0,-1,615,1534,0,0
-602,-510,0,0,0,0,0,0,0,0,0,-1,622,1534,0,0
-595,-510,0,0,0,0,0,0,0,0,0,-1,629,1534,0,0
-588,-510,0,0,0,0,0,0,0,0,0,-1,636,1534,0,0
-581,-510,0,0,0,0,0,0,0,0,0,-1,643,1534,0,0
-574,-510,0,0,0,0,0,0,0,0,0,-1,650,1534,0,0
-567,-510,0,0,0,0,0,0,0,0,0,-1,657,1534,0,0
-560,-510,0,0,0,0,0,0,0,0,0,-1,664,1534,0,0
-553,-510,0,0,0,0,0,0,0,0,0,-1,671,1534,0,0
-546,-510,0,0,0,0,0,0,0,0,0,-1,678,1534,0,0
-539,-510,0,0,0,0,0,0,0,0,0,-1,685,1534,0,0
-532,-510,-0.26355,0.794434,0,0,0,0,0,0,0,-1,692,1534,-0.263571,-0.794408
-525,-510,0.0551147,0.629883,0.00423464,0.0136306,-0.00870501,0.0188244,-0.000959199,-1.03284,0.0128813,0.0464519,699,1534,0.0551357,-0.62991
-518,-510,0.467773,-0.0299072,0.000171739,0.016428,-0.009848,0.021069,-0.00446922,-1.1304,0.0157485,0.0458381,706,1534,0.467785,0.0298677
-511,-510,0.383728,-0.427856,-0.00232218,0.0170243,-0.0102233,0.0214254,-0.00672325,-1.16428,0.0169745,0.0475262,713,1534,0.383751,0.427823
-504,-510,0.0979004,-0.472046,-0.00338002,0.0162238,-0.010079,0.0204812,-0.00763741,-1.17113,0.0167893,0.045957,720,1534,0.0978906,0.472002
-497,-510,-0.109192,-0.476318,0,0,0,0,0,0,0,-1,727,1534,-0.109175,0.476321
-490,-510,0.424988,0.595337,0,0,0,0,0,0,0,-1,734,1534,0.424982,-0.59536
-483,-510,0.0593872,-0.081665,-0.00319261,0.01091,-0.00773976,0.0143289,-0.0066115,-1.15484,0.0123606,0.0375091,741,1534,0.0593698,0.0817005
-476,-510,-0.00439453,-0.0963135,-0.00247642,0.00863377,-0.0064609,0.0115994,-0.00544203,-1.14048,0.0100507,0.0217676,748,1534,-0.0043682,0.0963164
-469,-510,-0.0668335,-0.0664063,-0.00175213,0.00631247,-0.00497649,0.00868523,-0.0041249,-1.12588,0.00755053,0.00886304,755,1534,-0.0668316,0.0663733
-462,-510,-0.0753174,-0.0577393,-0.000945652,0.00456014,-0.00374189,0.00645269,-0.0028382,-1.10254,0.00549774,0.010424,762,1534,-0.0753225,0.0577931
-455,-510,-0.0861816,-0.0571289,0.000101948,0.00285947,-0.00287185,0.00466638,-0.00170496,-1.0092,0.00380864,0.0127212,769,1534,-0.086197,0.0570823
-448,-510,-0.0696411,-0.0509033,0.000837258,0.00109331,-0.00211026,0.00307942,-0.00114886,-0.815695,0.0025246,0.0121418,776,1534,-0.0696359,0.0508673
-441,-510,-0.0646362,-0.0443115,0.0010073,-0.000112907,-0.00125941,0.00182554,-0.000931145,-0.576164,0.00161925,0.013446,783,1534,-0.0646574,0.0442649
-434,-510,-0.0787964,-0.0578613,0.00112114,-0.000793928,-0.000432103,0.00121412,-0.00088691,-0.211953,0.00121793,0.0150143,790,1534,-0.0787962,0.0578386
-427,-510,-0.0808716,-0.050293,0.000910619,-0.00142214,-8.10401e-05,0.000913431,-0.00142495,-0.0346843,0.00136079,0.0224382,797,1534,-0.0808539,0.0502729
-420,-510,-0.0675659,-0.0297852,0.00102162,-0.00221206,-0.000258419,0.00104214,-0.00223258,-0.0792448,0.00193185,0.0212847,804,1534,-0.0675607,0.0297431
-413,-510,-0.0761719,-0.0533447,0.00168344,-0.00293586,-0.000887054,0.00184793,-0.00310035,-0.183347,0.00288723,0.0108971,811,1534,-0.0761635,0.0533623
-406,-510,-0.0817871,-0.0678711,0.00247086,-0.00333125,-0.00171592,0.00294034,-0.00380073,-0.267066,0.00390251,0.00962634,818,1534,-0.0817637,0.067921
-399,-510,-0.0722656,-0.0637207,0.00322427,-0.00420282,-0.00293213,0.0042423,-0.00522085,-0.334176,0.00547328,0.0103339,825,1534,-0.0722354,0.0637667
-392,-510,-0.083374,-0.0507813,0.00385947,-0.0056352,-0.00441851,0.00559753,-0.00737326,-0.374769,0.00751205,0.0127558,832,1534,-0.0833766,0.0507378
-385,-510,-0.086792,-0.0505371,0.00449121,-0.00688215,-0.00589712,0.00699686,-0.0093878,-0.401781,0.00949321,0.0173169,839,1534,-0.0867765,0.050547
-378,-510,-0.0749512,-0.0705566,0.00499866,-0.00895994,-0.00741498,0.00820232,-0.0121636,-0.407828,0.0118322,0.0274229,846,1534,-0.0749278,0.0705463
-371,-510,-0.0474243,0.0419922,0.00544628,-0.012148,-0.00887912,0.00914828,-0.01585,-0.395018,0.0146046,0.0386887,853,1534,-0.047442,-0.0419389
-364,-510,0.189758,0.0238037,0.00553714,-0.0164314,-0.0100492,0.00944049,-0.0203347,-0.370487,0.0175701,0.0461273,860,1534,0.18973,-0.0237538
-357,-510,0.362061,-0.0726318,0.00527016,-0.0220705,-0.0105257,0.00885288,-0.0256532,-0.328078,0.0206942,0.0477283,867,1534,0.36204,0.0726667
-350,-510,0.654358,-0.106567,0.00484148,-0.0290897,-0.00999706,0.00756782,-0.0318161,-0.26624,0.0241322,0.043145,874,1534,0.654363,0.106615
-343,-510,0.348938,-1.04749,0.00448558,-0.0379678,-0.00903798,0.00632959,-0.0398119,-0.201267,0.0288832,0.0427867,881,1534,0.348952,1.04755
-336,-510,0.268188,-1.02905,0.00431504,-0.0472358,-0.00745186,0.00537062,-0.0482913,-0.140717,0.0341256,0.0444577,888,1534,0.268168,1.02904
-329,-510,0.451477,-1.68176,0.0040293,-0.0581565,-0.00435668,0.00433304,-0.0584603,-0.0696059,0.0404952,0.0463634,895,1534,0.451481,1.68181
-322,-510,0.525879,-1.90601,0.00309043,-0.0697408,0.00026129,0.00309136,-0.0697417,0.00358755,0.0475584,0.0464571,902,1534,0.525908,1.90604
-315,-510,0.341431,-1.82129,0.00241732,-0.0821882,0.00708764,0.00300696,-0.0827779,0.0830018,0.0562144,0.0437517,909,1534,0.341452,1.82125
-308,-510,0.6073,-2.21667,0.00125701,-0.0937377,0.0148017,0.00350992,-0.0959906,0.151047,0.0651952,0.0446978,916,1534,0.607269,2.21663
-301,-510,0.426575,-2.16394,0.00337557,-0.101428,0.0194457,0.00686725,-0.10492,0.177668,0.0723444,0.0438077,923,1534,0.426577,2.16394
-294,-510,0,0,0,0,0,0,0,0,0,-1,930,1534,0,0
-287,-510,0,0,0,0,0,0,0,0,0,-1,937,1534,0,0
-280,-510,0,0,0,0,0,0,0,0,0,-1,944,1534,0,0
-273,-510,0,0,0,0,0,0,0,0,0,-1,951,1534,0,0
-266,-510,0,0,0,0,0,0,0,0,0,-1,958,1534,0,0
-259,-510,0,0,0,0,0,0,0,0,0,-1,965,1534,0,0
-252,-510,0,0,0,0,0,0,0,0,0,-1,972,1534,0,0
-245,-510,0,0,0,0,0,0,0,0,0,-1,979,1534,0,0
-238,-510,0,0,0,0,0,0,0,0,0,-1,986,1534,0,0
-231,-510,0,0,0,0,0,0,0,0,0,-1,993,1534,0,0
-224,-510,0,0,0,0,0,0,0,0,0,-1,1000,1534,0,0
-217,-510,0,0,0,0,0,0,0,0,0,-1,1007,1534,0,0
-210,-510,0,0,0,0,0,0,0,0,0,-1,1014,1534,0,0
-203,-510,0,0,0,0,0,0,0,0,0,-1,1021,1534,0,0
-196,-510,0,0,0,0,0,0,0,0,0,-1,1028,1534,0,0
-189,-510,0,0,0,0,0,0,0,0,0,-1,1035,1534,0,0
-182,-510,0,0,0,0,0,0,0,0,0,-1,1042,1534,0,0
-175,-510,0,0,0,0,0,0,0,0,0,-1,1049,1534,0,0
-168,-510,0,0,0,0,0,0,0,0,0,-1,1056,1534,0,0
-161,-510,0,0,0,0,0,0,0,0,0,-1,1063,1534,0,0
-154,-510,0,0,0,0,0,0,0,0,0,-1,1070,1534,0,0
-147,-510,0,0,0,0,0,0,0,0,0,-1,1077,1534,0,0
-140,-510,0,0,0,0,0,0,0,0,0,-1,1084,1534,0,0
-133,-510,0,0,0,0,0,0,0,0,0,-1,1091,1534,0,0
-126,-510,0,0,0,0,0,0,0,0,0,-1,1098,1534,0,0
-119,-510,0,0,0,0,0,0,0,0,0,-1,1105,1534,0,0
-112,-510,0,0,0,0,0,0,0,0,0,-1,1112,1534,0,0
-105,-510,0,0,0,0,0,0,0,0,0,-1,1119,1534,0,0
-98,-510,0,0,0,0,0,0,0,0,0,-1,1126,1534,0,0
-91,-510,0,0,0,0,0,0,0,0,0,-1,1133,1534,0,0
-84,-510,0,0,0,0,0,0,0,0,0,-1,1140,1534,0,0
-77,-510,0,0,0,0,0,0,0,0,0,-1,1147,1534,0,0
-70,-510,0,0,0,0,0,0,0,0,0,-1,1154,1534,0,0
-63,-510,0,0,0,0,0,0,0,0,0,-1,1161,1534,0,0
-56,-510,0,0,0,0,0,0,0,0,0,-1,1168,1534,0,0
-49,-510,0,0,0,0,0,0,0,0,0,-1,1175,1534,0,0
-42,-510,0,0,0,0,0,0,0,0,0,-1,1182,1534,0,0
-35,-510,0,0,0,0,0,0,0,0,0,-1,1189,1534,0,0
-28,-510,0,0,0,0,0,0,0,0,0,-1,1196,1534,0,0
-21,-510,0,0,0,0,0,0,0,0,0,-1,1203,1534,0,0
-14,-510,0,0,0,0,0,0,0,0,0,-1,1210,1534,0,0
-7,-510,0,0,0,0,0,0,0,0,0,-1,1217,1534,0,0
0,-510,0,0,0,0,0,0,0,0,0,-1,1224,1534,0,0
7,-510,0,0,0,0,0,0,0,0,0,-1,1231,1534,0,0
14,-510,0,0,0,0,0,0,0,0,0,-1,1238,1534,0,0
21,-510,0,0,0,0,0,0,0,0,0,-1,1245,1534,0,0
28,-510,0,0,0,0,0,0,0,0,0,-1,1252,1534,0,0
35,-510,0,0,0,0,0,0,0,0,0,-1,1259,1534,0,0
42,-510,0,0,0,0,0,0,0,0,0,-1,1266,1534,0,0
49,-510,0,0,0,0,0,0,0,0,0,-1,1273,1534,0,0
56,-510,0,0,0,0,0,0,0,0,0,-1,1280,1534,0,0
63,-510,0,0,0,0,0,0,0,0,0,-1,1287,1534,0,0
70,-510,0,0,0,0,0,0,0,0,0,-1,1294,1534,0,0
77,-510,0,0,0,0,0,0,0,0,0,-1,1301,1534,0,0
84,-510,0,0,0,0,0,0,0,0,0,-1,1308,1534,0,0
91,-510,0,0,0,0,0,0,0,0,0,-1,1315,1534,0,0
98,-510,0,0,0,0,0,0,0,0,0,-1,1322,1534,0,0
105,-510,0,0,0,0,0,0,0,0,0,-1,1329,1534,0,0
112,-510,0,0,0,0,0,0,0,0,0,-1,1336,1534,0,0
119,-510,0,0,0,0,0,0,0,0,0,-1,1343,1534,0,0
126,-510,0,0,0,0,0,0,0,0,0,-1,1350,1534,0,0
133,-510,0,0,0,0,0,0,0,0,0,-1,1357,1534,0,0
140,-510,0,0,0,0,0,0,0,0,0,-1,1364,1534,0,0
147,-510,0,0,0,0,0,0,0,0,0,-1,1371,1534,0,0
154,-510,0,0,0,0,0,0,0,0,0,-1,1378,1534,0,0
161,-510,0,0,0,0,0,0,0,0,0,-1,1385,1534,0,0
168,-510,0,0,0,0,0,0,0,0,0,-1,1392,1534,0,0
175,-510,0,0,0,0,0,0,0,0,0,-1,1399,1534,0,0
182,-510,0,0,0,0,0,0,0,0,0,-1,1406,1534,0,0
189,-510,0,0,0,0,0,0,0,0,0,-1,1413,1534,0,0
196,-510,0,0,0,0,0,0,0,0,0,-1,1420,1534,0,0
203,-510,0,0,0,0,0,0,0,0,0,-1,1427,1534,0,0
210,-510,0,0,0,0,0,0,0,0,0,-1,1434,1534,0,0
217,-510,0,0,0,0,0,0,0,0,0,-1,1441,1534,0,0
224,-510,0,0,0,0,0,0,0,0,0,-1,1448,1534,0,0
231,-510,0,0,0,0,0,0,0,0,0,-1,1455,1534,0,0
238,-510,0,0,0,0,0,0,0,0,0,-1,1462,1534,0,0
245,-510,0,0,0,0,0,0,0,0,0,-1,1469,1534,0,0
252,-510,0,0,0,0,0,0,0,0,0,-1,1476,1534,0,0
259,-510,0,0,0,0,0,0,0,0,0,-1,1483,1534,0,0
266,-510,0,0,0,0,0,0,0,0,0,-1,1490,1534,0,0
273,-510,0,0,0,0,0,0,0,0,0,-1,1497,1534,0,0
280,-510,0,0,0,0,0,0,0,0,0,-1,1504,1534,0,0
287,-510,0,0,0,0,0,0,0,0,0,-1,1511,1534,0,0
294,-510,0,0,0,0,0,0,0,0,0,-1,1518,1534,0,0
301,-510,0,0,0,0,0,0,0,0,0,-1,1525,1534,0,0
308,-510,0,0,0,0,0,0,0,0,0,-1,1532,1534,0,0
315,-510,0,0,0,0,0,0,0,0,0,-1,1539,1534,0,0
322,-510,0,0,0,0,0,0,0,0,0,-1,1546,1534,0,0
329,-510,0,0,0,0,0,0,0,0,0,-1,1553,1534,0,0
336,-510,0,0,0,0,0,0,0,0,0,-1,1560,1534,0,0
343,-510,0,0,0,0,0,0,0,0,0,-1,1567,1534,0,0
350,-510,0,0,0,0,0,0,0,0,0,-1,1574,1534,0,0
357,-510,0,0,0,0,0,0,0,0,0,-1,1581,1534,0,0
364,-510,0,0,0,0,0,0,0,0,0,-1,1588,1534,0,0
371,-510,0,0,0,0,0,0,0,0,0,-1,1595,1534,0,0
378,-510,0,0,0,0,0,0,0,0,0,-1,1602,1534,0,0
385,-510,0,0,0,0,0,0,0,0,0,-1,1609,1534,0,0
392,-510,0,0,0,0,0,0,0,0,0,-1,1616,1534,0,0
399,-510,0,0,0,0,0,0,0,0,0,-1,1623,1534,0,0
406,-510,0,0,0,0,0,0,0,0,0,-1,1630,1534,0,0
413,-510,0,0,0,0,0,0,0,0,0,-1,1637,1534,0,0
420,-510,1.72827,2.1377,0,0,0,0,0,0,0,-1,1644,1534,1.72825,-2.13773
427,-510,1.97754,-2.19006,0,0,0,0,0,0,0,-1,1651,1534,1.9776,2.19006
434,-510,1.71802,-1.92346,0,0,0,0,0,0,0,-1,1658,1534,1.71802,1.92344
441,-510,1.66687,-0.862549,0,0,0,0,0,0,0,-1,1665,1534,1.66687,0.862495
448,-510,1.50378,-0.33252,-0.00466401,0.0232461,0.00766935,0.0252147,-0.0066326,1.31954,0.0194023,0.0483693,1672,1534,1.50376,0.332489
455,-510,1.31421,0.124878,-0.00325561,0.0221393,0.00506935,0.0231138,-0.00423016,1.38087,0.0169957,0.0442337,1679,1534,1.31419,-0.124848
462,-510,-1.1178,-0.458618,-0.00218574,0.0200445,0.00311852,0.0204737,-0.00261493,1.43403,0.0145991,0.046217,1686,1534,-1.11777,0.458618
469,-510,-1.01965,-0.531128,-0.000939806,0.0168898,0.00245208,0.0172208,-0.00127089,1.43659,0.0119268,0.0453883,1693,1534,-1.01963,0.531121
476,-510,-0.760376,-0.462891,0.000550275,0.0141727,0.00208848,0.0144857,0.000237276,1.42203,0.00957899,0.0446564,1700,1534,-0.760351,0.462861
483,-510,-0.523804,-0.238037,0.00200883,0.0119082,0.00188983,0.0122567,0.00166032,1.38843,0.00767777,0.0433391,1707,1534,-0.523832,0.23808
490,-510,-0.437988,-0.0533447,0.00256348,0.00978862,0.00154439,0.0101049,0.00224721,1.3688,0.00612648,0.0443375,1714,1534,-0.438018,0.053295
497,-510,-0.259399,0.179443,0.00309494,0.008169,0.00092126,0.00833109,0.00293286,1.39664,0.00487965,0.0416035,1721,1534,-0.2594,-0.179391
504,-510,-0.0899658,0.13501,0.00355085,0.00651247,0.00110091,0.00687687,0.00318645,1.25115,0.00397391,0.0375476,1728,1534,-0.0899215,-0.134991
511,-510,-0.0311279,0.0588379,0.00387161,0.00595592,0.00110314,0.00643133,0.0033962,1.16389,0.00371508,0.0324103,1735,1534,-0.0311405,-0.0588654
518,-510,0.00378418,-0.010376,0.00359268,0.00448146,0.000407466,0.00463999,0.00343415,1.19976,0.00277996,0.0271785,1742,1534,0.00381139,0.0103648
525,-510,-0.0275879,-0.0452881,0.00267276,0.00394862,0.00018054,0.00397368,0.00264771,1.4329,0.00233613,0.0139881,1749,1534,-0.0276469,0.0452386
532,-510,-0.0549316,-0.0643311,0.00185381,0.00315554,6.29746e-05,0.00315858,0.00185077,1.52257,0.00183256,0.0106621,1756,1534,-0.0549894,0.0643486
539,-510,-0.0706787,-0.0740967,0.000840914,0.00264527,-0.000141923,0.00265637,0.000829819,-1.49278,0.00156923,0.0115489,1763,1534,-0.0706947,0.0740802
546,-510,-0.0777588,-0.0744629,0.000385266,0.00219751,-0.000154201,0.00221054,0.000372239,-1.48652,0.00136662,0.01105,1770,1534,-0.0777836,0.0744771
553,-510,-0.0672607,-0.0772705,0.000355301,0.00158999,-3.09219e-05,0.00159076,0.000354527,-1.54577,0.000964306,0.0113916,1777,1534,-0.0672028,0.0772228
560,-510,-0.0744629,-0.0716553,0.000537553,0.000952531,0.000200375,0.00103349,0.000456594,1.18682,0.000598031,0.0121462,1784,1534,-0.0744514,0.0716056
567,-510,-0.0792236,-0.0756836,0.000749502,0.000288063,0.000318511,0.000912077,0.000125488,0.47195,0.000570838,0.0115479,1791,1534,-0.0792212,0.0757155
574,-510,-0.0887451,-0.0678711,0.000760078,-0.000258645,0.000217394,0.00080453,-0.000303097,0.201696,0.000660971,0.0122718,1798,1534,-0.0887293,0.0678745
581,-510,-0.0872803,-0.0523682,0.000751774,-0.00099243,-4.30882e-05,0.000752838,-0.000993494,-0.0246836,0.00101143,0.0113868,1805,1534,-0.0872367,0.0523755
588,-510,-0.0848389,-0.0522461,0.000406869,-0.00124373,-0.000510402,0.000551945,-0.00138881,-0.276935,0.0011547,0.0124121,1812,1534,-0.0848628,0.052285
595,-510,-0.074585,-0.0596924,-0.000486975,-0.00112326,-0.00099566,0.000240137,-0.00185037,-0.630761,0.00132092,0.0119169,1819,1534,-0.0745689,0.0597401
602,-510,-0.0791016,-0.0576172,-0.00178201,-0.000813304,-0.00135627,0.00014251,-0.00273782,-0.9569,0.00187452,0.0142586,1826,1534,-0.0791343,0.0576659
609,-510,-0.0428467,-0.0394287,-0.0034669,-1.90115e-05,-0.00142631,0.000494529,-0.00398044,-1.2252,0.0028329,0.0218634,1833,1534,-0.0428753,0.0394252
616,-510,-0.0255127,-0.0220947,-0.00562565,0.000328241,-0.00214318,0.00101946,-0.00631687,-1.25881,0.00458897,0.0336392,1840,1534,-0.0255052,0.0221427
623,-510,0.000610352,-0.0118408,-0.0083279,0.00182271,-0.00247427,0.00239371,-0.00889889,-1.34399,0.00687092,0.036933,1847,1534,0.000627319,0.0118499
630,-510,0.164917,-0.0313721,0,0,0,0,0,0,0,-1,1854,1534,0.164934,0.0313556
637,-510,-0.272583,-0.292725,-0.0151841,0.00733033,-0.00191452,0.00749197,-0.0153457,-1.48657,0.0134427,0.0432846,1861,1534,-0.272615,0.292784
644,-510,-0.696899,-0.564453,-0.019195,0.0112861,-0.000768984,0.0113055,-0.0192144,-1.54559,0.0178168,0.0427157,1868,1534,-0.696949,0.564482
651,-510,-1.12024,-0.801636,-0.0229743,0.0163596,0.00149666,0.0164165,-0.0230312,1.53282,0.0228816,0.0428122,1875,1534,-1.12019,0.801638
658,-510,0,0,0,0,0,0,0,0,0,-1,1882,1534,0,0
665,-510,0,0,0,0,0,0,0,0,0,-1,1889,1534,0,0
672,-510,0,0,0,0,0,0,0,0,0,-1,1896,1534,0,0
679,-510,0,0,0,0,0,0,0,0,0,-1,1903,1534,0,0
686,-510,0,0,0,0,0,0,0,0,0,-1,1910,1534,0,0
693,-510,0,0,0,0,0,0,0,0,0,-1,1917,1534,0,0
700,-510,0,0,0,0,0,0,0,0,0,-1,1924,1534,0,0
707,-510,0,0,0,0,0,0,0,0,0,-1,1931,1534,0,0
714,-510,0,0,0,0,0,0,0,0,0,-1,1938,1534,0,0
721,-510,0,0,0,0,0,0,0,0,0,-1,1945,1534,0,0
728,-510,0,0,0,0,0,0,0,0,0,-1,1952,1534,0,0
735,-510,0,0,0,0,0,0,0,0,0,-1,1959,1534,0,0
742,-510,0,0,0,0,0,0,0,0,0,-1,1966,1534,0,0
749,-510,0,0,0,0,0,0,0,0,0,-1,1973,1534,0,0
756,-510,0,0,0,0,0,0,0,0,0,-1,1980,1534,0,0
763,-510,0,0,0,0,0,0,0,0,0,-1,1987,1534,0,0
770,-510,0,0,0,0,0,0,0,0,0,-1,1994,1534,0,0
777,-510,0,0,0,0,0,0,0,0,0,-1,2001,1534,0,0
784,-510,0,0,0,0,0,0,0,0,0,-1,2008,1534,0,0
791,-510,0,0,0,0,0,0,0,0,0,-1,2015,1534,0,0
798,-510,0,0,0,0,0,0,0,0,0,-1,2022,1534,0,0
805,-510,0,0,0,0,0,0,0,0,0,-1,2029,1534,0,0
812,-510,0,0,0,0,0,0,0,0,0,-1,2036,1534,0,0
-700,-517,0,0,0,0,0,0,0,0,0,-1,524,1541,0,0
-693,-517,0,0,0,0,0,0,0,0,0,-1,531,1541,0,0
-686,-517,0,0,0,0,0,0,0,0,0,-1,538,1541,0,0
-679,-517,0,0,0,0,0,0,0,0,0,-1,545,1541,0,0
-672,-517,0,0,0,0,0,0,0,0,0,-1,552,1541,0,0
-665,-517,0,0,0,0,0,0,0,0,0,-1,559,1541,0,0
-658,-517,0,0,0,0,0,0,0,0,0,-1,566,1541,0,0
-651,-517,0,0,0,0,0,0,0,0,0,-1,573,1541,0,0
-644,-517,0,0,0,0,0,0,0,0,0,-1,580,1541,0,0
-637,-517,0,0,0,0,0,0,0,0,0,-1,587,1541,0,0
-630,-517,0,0,0,0,0,0,0,0,0,-1,594,1541,0,0
-623,-517,0,0,0,0,0,0,0,0,0,-1,601,1541,0,0
-616,-517,0,0,0,0,0,0,0,0,0,-1,608,1541,0,0
-609,-517,0,0,0,0,0,0,0,0,0,-1,615,1541,0,0
-602,-517,0,0,0,0,0,0,0,0,0,-1,622,1541,0,0
-595,-517,0,0,0,0,0,0,0,0,0,-1,629,1541,0,0
-588,-517,0,0,0,0,0,0,0,0,0,-1,636,1541,0,0
-581,-517,0,0,0,0,0,0,0,0,0,-1,643,1541,0,0
-574,-517,0,0,0,0,0,0,0,0,0,-1,650,1541,0,0
-567,-517,0,0,0,0,0,0,0,0,0,-1,657,1541,0,0
-560,-517,0,0,0,0,0,0,0,0,0,-1,664,1541,0,0
-553,-517,0,0,0,0,0,0,0,0,0,-1,671,1541,0,0
-546,-517,0,0,0,0,0,0,0,0,0,-1,678,1541,0,0
-539,-517,0,0,0,0,0,0,0,0,0,-1,685,1541,0,0
-532,-517,0,0,0,0,0,0,0,0,0,-1,692,1541,0,0
-525,-517,0.142578,0.245117,0.00233965,0.0241664,-0.00780457,0.0266699,-0.000163866,-1.26039,0.0178348,0.0438798,699,1541,0.142595,-0.245101
-518,-517,0.392151,-0.31189,-0.00192797,0.0258414,-0.00956241,0.0288156,-0.00490223,-1.26924,0.0210358,0.0453847,706,1541,0.392178,0.311855
-511,-517,0.826477,-0.820923,-0.00435089,0.025223,-0.0104658,0.028552,-0.00767986,-1.26283,0.0220451,0.0499485,713,1541,0.826503,0.820938
-504,-517,0.217712,-0.49939,-0.00518905,0.0231562,-0.0107421,0.0267672,-0.00880003,-1.24651,0.0213903,0.0474226,720,1541,0.217724,0.499396
-497,-517,0.268311,0.377686,0,0,0,0,0,0,0,-1,727,1541,0.268283,-0.377706
-490,-517,0.230774,0.760376,-0.00489623,0.017976,-0.00999628,0.021729,-0.00864928,-1.21164,0.0180727,0.0399484,734,1541,0.230744,-0.760424
-483,-517,-0.161377,-0.113892,-0.00385888,0.0146963,-0.00884184,0.0182348,-0.00739736,-1.19012,0.0152333,0.0406908,741,1541,-0.16136,0.113913
-476,-517,-0.00640869,-0.119751,-0.00281459,0.0116687,-0.00752854,0.0148731,-0.00601901,-1.16839,0.0124179,0.0283565,748,1541,-0.00642689,0.11974
-469,-517,-0.067627,-0.0753174,-0.0019574,0.00874631,-0.00588646,0.0113501,-0.00456122,-1.15433,0.00946105,0.010899,755,1541,-0.0676176,0.0753392
-462,-517,-0.081543,-0.0621338,-0.00111851,0.00665719,-0.00445471,0.00868202,-0.00314334,-1.14418,0.0070726,0.0111898,762,1541,-0.0815222,0.0621122
-455,-517,-0.0820923,-0.0587158,-3.08878e-05,0.00479818,-0.00341869,0.00656903,-0.00180174,-1.09286,0.00508742,0.011525,769,1541,-0.0821142,0.0586947
-448,-517,-0.0792236,-0.0668945,0.000730068,0.00283818,-0.00251918,0.00451493,-0.000946679,-0.983537,0.00337013,0.0118105,776,1541,-0.0792066,0.0668899
-441,-517,-0.0834961,-0.0623779,0.00091557,0.00157829,-0.00151764,0.00280032,-0.000306458,-0.892881,0.00197697,0.011151,783,1541,-0.0834719,0.0624288
-434,-517,-0.0675659,-0.0559082,0.00100627,0.00102954,-0.000549583,0.00156761,0.000468199,-0.795979,0.000929196,0.0137644,790,1541,-0.0675423,0.0559374
-427,-517,-0.0766602,-0.0507813,0.000697177,0.000482277,4.27522e-05,0.00070537,0.000474084,0.189338,0.00041521,0.0133159,797,1541,-0.0766417,0.0507744
-420,-517,-0.0910645,-0.0306396,0.000752833,-0.00016086,3.50664e-05,0.000754177,-0.000162204,0.0383037,0.000564672,0.018097,804,1541,-0.091052,0.0305802
-413,-517,-0.0788574,-0.0473633,0.00138245,-0.000758033,-0.000412854,0.00145932,-0.000834903,-0.184084,0.00134083,0.00981139,811,1541,-0.0788384,0.047312
-406,-517,-0.0839844,-0.0639648,0.00213738,-0.00113094,-0.00105651,0.00244916,-0.00144272,-0.286961,0.00227188,0.00981307,818,1541,-0.0839611,0.0639658
-399,-517,-0.0855103,-0.0732422,0.00287384,-0.00193047,-0.00204039,0.00362344,-0.00268007,-0.352073,0.00365289,0.00989013,825,1541,-0.0854917,0.073237
-392,-517,-0.0855713,-0.0532227,0.00346885,-0.00328466,-0.0032435,0.00477427,-0.00459008,-0.382636,0.00540686,0.0100834,832,1541,-0.0855964,0.0532224
-385,-517,-0.0858154,-0.0255127,0.00401777,-0.00447841,-0.00436292,0.00585912,-0.00631976,-0.399366,0.00703316,0.0114587,839,1541,-0.0858015,0.0255701
-378,-517,-0.0896606,-0.0328369,0.00443039,-0.00641391,-0.00543718,0.00668695,-0.00867047,-0.393391,0.00889122,0.0185951,846,1541,-0.089691,0.0328544
-371,-517,-0.0759277,-0.050415,0.00477584,-0.0093545,-0.00644763,0.00727564,-0.0118543,-0.369865,0.0111496,0.033144,853,1541,-0.0759343,0.0504753
-364,-517,0.14032,-0.0506592,0.00476111,-0.0131507,-0.00724584,0.00732521,-0.0157148,-0.34012,0.0135929,0.0428745,860,1541,0.140308,0.0506148
-357,-517,0.167297,0.0162354,0.00434842,-0.0183545,-0.00737314,0.0065328,-0.0205388,-0.288024,0.0163122,0.0449882,867,1541,0.167303,-0.0161894
-350,-517,0.328796,-0.0780029,0.00374278,-0.0246881,-0.00658051,0.00519202,-0.0261373,-0.21677,0.0193887,0.0425196,874,1541,0.328768,0.0779994
-343,-517,0.37616,-0.598877,0.00310731,-0.0325889,-0.00544319,0.00391887,-0.0334005,-0.148006,0.0236816,0.0439299,881,1541,0.376172,0.598853
-336,-517,0.43219,-0.653442,0.00236938,-0.0406635,-0.00370656,0.0026863,-0.0409804,-0.0852962,0.0282583,0.0452668,888,1541,0.432218,0.6535
-329,-517,0.55658,-0.641357,0.00135622,-0.0499547,-0.000698341,0.00136572,-0.0499642,-0.0136066,0.0337739,0.0454425,895,1541,0.556604,0.641346
-322,-517,0.116272,-1.13586,-0.000506623,-0.0597148,0.00389854,-0.000251027,-0.0599704,0.0654679,0.0398968,0.046847,902,1541,0.116284,1.13587
-315,-517,0.156006,-1.35449,-0.00240639,-0.0698271,0.0105392,-0.000797316,-0.0714362,0.151506,0.0473606,0.0452182,909,1541,0.156004,1.35452
-308,-517,0.175598,-1.50891,-0.00488295,-0.0781383,0.0177093,-0.000826407,-0.0821948,0.225178,0.0545232,0.0448923,916,1541,0.175614,1.50885
-301,-517,0.22229,-1.00928,-0.00361846,-0.0817155,0.020604,0.00148405,-0.0868181,0.242762,0.0583797,0.0431314,923,1541,0.222299,1.00926
-294,-517,0.363281,-1.79395,0,0,0,0,0,0,0,-1,930,1541,0.363269,1.79389
-287,-517,0.687683,-1.78931,0,0,0,0,0,0,0,-1,937,1541,0.687678,1.78933
-280,-517,0,0,0,0,0,0,0,0,0,-1,944,1541,0,0
-273,-517,0,0,0,0,0,0,0,0,0,-1,951,1541,0,0
-266,-517,0,0,0,0,0,0,0,0,0,-1,958,1541,0,0
-259,-517,0,0,0,0,0,0,0,0,0,-1,965,1541,0,0
-252,-517,0,0,0,0,0,0,0,0,0,-1,972,1541,0,0
-245,-517,0,0,0,0,0,0,0,0,0,-1,979,1541,0,0
-238,-517,0,0,0,0,0,0,0,0,0,-1,986,1541,0,0
-231,-517,0,0,0,0,0,0,0,0,0,-1,993,1541,0,0
-224,-517,0,0,0,0,0,0,0,0,0,-1,1000,1541,0,0
-217,-517,0,0,0,0,0,0,0,0,0,-1,1007,1541,0,0
-210,-517,0,0,0,0,0,0,0,0,0,-1,1014,1541,0,0
-203,-517,0,0,0,0,0,0,0,0,0,-1,1021,1541,0,0
-196,-517,0,0,0,0,0,0,0,0,0,-1,1028,1541,0,0
-189,-517,0,0,0,0,0,0,0,0,0,-1,1035,1541,0,0
-182,-517,0,0,0,0,0,0,0,0,0,-1,1042,1541,0,0
-175,-517,0,0,0,0,0,0,0,0,0,-1,1049,1541,0,0
-168,-517,0,0,0,0,0,0,0,0,0,-1,1056,1541,0,0
-161,-517,0,0,0,0,0,0,0,0,0,-1,1063,1541,0,0
-154,-517,0,0,0,0,0,0,0,0,0,-1,1070,1541,0,0
-147,-517,0,0,0,0,0,0,0,0,0,-1,1077,1541,0,0
-140,-517,0,0,0,0,0,0,0,0,0,-1,1084,1541,0,0
-133,-517,0,0,0,0,0,0,0,0,0,-1,1091,1541,0,0
-126,-517,0,0,0,0,0,0,0,0,0,-1,1098,1541,0,0
-119,-517,0,0,0,0,0,0,0,0,0,-1,1105,1541,0,0
-112,-517,0,0,0,0,0,0,0,0,0,-1,1112,1541,0,0
-105,-517,0,0,0,0,0,0,0,0,0,-1,1119,1541,0,0
-98,-517,0,0,0,0,0,0,0,0,0,-1,1126,1541,0,0
-91,-517,0,0,0,0,0,0,0,0,0,-1,1133,1541,0,0
-84,-517,0,0,0,0,0,0,0,0,0,-1,1140,1541,0,0
-77,-517,0,0,0,0,0,0,0,0,0,-1,1147,1541,0,0
-70,-517,0,0,0,0,0,0,0,0,0,-1,1154,1541,0,0
-63,-517,0,0,0,0,0,0,0,0,0,-1,1161,1541,0,0
-56,-517,0,0,0,0,0,0,0,0,0,-1,1168,1541,0,0
-49,-517,0,0,0,0,0,0,0,0,0,-1,1175,1541,0,0
-42,-517,0,0,0,0,0,0,0,0,0,-1,1182,1541,0,0
-35,-517,0,0,0,0,0,0,0,0,0,-1,1189,1541,0,0
-28,-517,0,0,0,0,0,0,0,0,0,-1,1196,1541,0,0
-21,-517,0,0,0,0,0,0,0,0,0,-1,1203,1541,0,0
-14,-517,0,0,0,0,0,0,0,0,0,-1,1210,1541,0,0
-7,-517,0,0,0,0,0,0,0,0,0,-1,1217,1541,0,0
0,-517,0,0,0,0,0,0,0,0,0,-1,1224,1541,0,0
7,-517,0,0,0,0,0,0,0,0,0,-1,1231,1541,0,0
14,-517,0,0,0,0,0,0,0,0,0,-1,1238,1541,0,0
21,-517,0,0,0,0,0,0,0,0,0,-1,1245,1541,0,0
28,-517,0,0,0,0,0,0,0,0,0,-1,1252,1541,0,0
35,-517,0,0,0,0,0,0,0,0,0,-1,1259,1541,0,0
42,-517,0,0,0,0,0,0,0,0,0,-1,1266,1541,0,0
49,-517,0,0,0,0,0,0,0,0,0,-1,1273,1541,0,0
56,-517,0,0,0,0,0,0,0,0,0,-1,1280,1541,0,0
63,-517,0,0,0,0,0,0,0,0,0,-1,1287,1541,0,0
70,-517,0,0,0,0,0,0,0,0,0,-1,1294,1541,0,0
77,-517,0,0,0,0,0,0,0,0,0,-1,1301,1541,0,0
84,-517,0,0,0,0,0,0,0,0,0,-1,1308,1541,0,0
91,-517,0,0,0,0,0,0,0,0,0,-1,1315,1541,0,0
98,-517,0,0,0,0,0,0,0,0,0,-1,1322,1541,0,0
105,-517,0,0,0,0,0,0,0,0,0,-1,1329,1541,0,0
112,-517,0,0,0,0,0,0,0,0,0,-1,1336,1541,0,0
119,-517,0,0,0,0,0,0,0,0,0,-1,1343,1541,0,0
126,-517,0,0,0,0,0,0,0,0,0,-1,1350,1541,0,0
133,-517,0,0,0,0,0,0,0,0,0,-1,1357,1541,0,0
140,-517,0,0,0,0,0,0,0,0,0,-1,1364,1541,0,0
147,-517,0,0,0,0,0,0,0,0,0,-1,1371,1541,0,0
154,-517,0,0,0,0,0,0,0,0,0,-1,1378,1541,0,0
161,-517,0,0,0,0,0,0,0,0,0,-1,1385,1541,0,0
168,-517,0,0,0,0,0,0,0,0,0,-1,1392,1541,0,0
175,-517,0,0,0,0,0,0,0,0,0,-1,1399,1541,0,0
182,-517,0,0,0,0,0,0,0,0,0,-1,1406,1541,0,0
189,-517,0,0,0,0,0,0,0,0,0,-1,1413,1541,0,0
196,-517,0,0,0,0,0,0,0,0,0,-1,1420,1541,0,0
203,-517,0,0,0,0,0,0,0,0,0,-1,1427,1541,0,0
210,-517,0,0,0,0,0,0,0,0,0,-1,1434,1541,0,0
217,-517,0,0,0,0,0,0,0,0,0,-1,1441,1541,0,0
224,-517,0,0,0,0,0,0,0,0,0,-1,1448,1541,0,0
231,-517,0,0,0,0,0,0,0,0,0,-1,1455,1541,0,0
238,-517,0,0,0,0,0,0,0,0,0,-1,1462,1541,0,0
245,-517,0,0,0,0,0,0,0,0,0,-1,1469,1541,0,0
252,-517,0,0,0,0,0,0,0,0,0,-1,1476,1541,0,0
259,-517,0,0,0,0,0,0,0,0,0,-1,1483,1541,0,0
266,-517,0,0,0,0,0,0,0,0,0,-1,1490,1541,0,0
273,-517,0,0,0,0,0,0,0,0,0,-1,1497,1541,0,0
280,-517,0,0,0,0,0,0,0,0,0,-1,1504,1541,0,0
287,-517,0,0,0,0,0,0,0,0,0,-1,1511,1541,0,0
294,-517,0,0,0,0,0,0,0,0,0,-1,1518,1541,0,0
301,-517,0,0,0,0,0,0,0,0,0,-1,1525,1541,0,0
308,-517,0,0,0,0,0,0,0,0,0,-1,1532,1541,0,0
315,-517,0,0,0,0,0,0,0,0,0,-1,1539,1541,0,0
322,-517,0,0,0,0,0,0,0,0,0,-1,1546,1541,0,0
329,-517,0,0,0,0,0,0,0,0,0,-1,1553,1541,0,0
336,-517,0,0,0,0,0,0,0,0,0,-1,1560,1541,0,0
343,-517,0,0,0,0,0,0,0,0,0,-1,1567,1541,0,0
350,-517,0,0,0,0,0,0,0,0,0,-1,1574,1541,0,0
357,-517,0,0,0,0,0,0,0,0,0,-1,1581,1541,0,0
364,-517,0,0,0,0,0,0,0,0,0,-1,1588,1541,0,0
371,-517,0,0,0,0,0,0,0,0,0,-1,1595,1541,0,0
378,-517,0,0,0,0,0,0,0,0,0,-1,1602,1541,0,0
385,-517,0,0,0,0,0,0,0,0,0,-1,1609,1541,0,0
392,-517,0,0,0,0,0,0,0,0,0,-1,1616,1541,0,0
399,-517,0,0,0,0,0,0,0,0,0,-1,1623,1541,0,0
406,-517,-0.918823,0.211548,0,0,0,0,0,0,0,-1,1630,1541,-0.918805,-0.211607
413,-517,-0.348511,2.44287,0,0,0,0,0,0,0,-1,1637,1541,-0.348471,-2.44282
420,-517,0.399048,2.07239,0,0,0,0,0,0,0,-1,1644,1541,0.399022,-2.07241
427,-517,1.05664,1.66736,0,0,0,0,0,0,0,-1,1651,1541,1.05669,-1.66733
434,-517,2.63538,-1.8656,0,0,0,0,0,0,0,-1,1658,1541,2.63538,1.8656
441,-517,2.45068,-1.05469,0.000850265,0.0217298,0.0125559,0.0276191,-0.00503904,1.13222,0.0203019,0.046176,1665,1541,2.45068,1.05471
448,-517,2.16565,-0.186157,0.00154678,0.0217155,0.00934001,0.0253763,-0.00211405,1.19725,0.0176644,0.0492149,1672,1541,2.16562,0.186133
455,-517,1.69153,0.574341,0.00156474,0.0206437,0.00633669,0.0225566,-0.000348081,1.27763,0.0151551,0.0449097,1679,1541,1.69151,-0.574401
462,-517,-1.20728,-0.376221,0,0,0,0,0,0,0,-1,1686,1541,-1.20733,0.376278
469,-517,-1.20154,-0.250488,0.00101756,0.0154961,0.00286771,0.0160434,0.00047025,1.38221,0.0105423,0.045344,1693,1541,-1.20151,0.250526
476,-517,-0.901855,-0.381958,0.0014658,0.01276,0.00227339,0.0132005,0.00102537,1.37943,0.00847921,0.0464975,1700,1541,-0.901806,0.381976
483,-517,-0.746826,-0.397705,0.00220772,0.0105015,0.00194473,0.0109349,0.00177437,1.35154,0.00677636,0.0441736,1707,1541,-0.746829,0.397748
490,-517,-0.530029,-0.09021,0.00222562,0.00838925,0.00149541,0.0087329,0.00188196,1.34491,0.00530703,0.0404706,1714,1541,-0.529988,0.0901876
497,-517,-0.421509,-0.135132,0.00238195,0.00689996,0.000754594,0.00702266,0.00225925,1.4096,0.00413957,0.0344116,1721,1541,-0.421517,0.135186
504,-517,-0.0809326,0.0784912,0.00260156,0.0050993,0.000866935,0.00537071,0.00233015,1.26739,0.00310981,0.0299983,1728,1541,-0.0809036,-0.0784477
511,-517,-0.015625,0.0441895,0.00279376,0.00465682,0.000815352,0.00496325,0.00248733,1.2113,0.00286554,0.0242489,1735,1541,-0.0155819,-0.0442452
518,-517,-0.0551758,-0.0523682,0.0025257,0.00340945,0.000186255,0.0034471,0.00248805,1.37134,0.00205441,0.0180885,1742,1541,-0.0552289,0.0523573
525,-517,-0.0574951,-0.0609131,0.00168754,0.00300613,-6.5563e-05,0.00300938,0.00168429,-1.52124,0.00174159,0.0110296,1749,1541,-0.0575026,0.060899
532,-517,-0.0549316,-0.0648193,0.000954629,0.00233861,-0.000207848,0.00236915,0.000924088,-1.4249,0.00137881,0.0103412,1756,1541,-0.0548993,0.0648556
539,-517,-0.053833,-0.0821533,0.000179765,0.00198153,-0.000362046,0.00205156,0.000109738,-1.37973,0.00133263,0.0116244,1763,1541,-0.0538012,0.0821417
546,-517,-0.0554199,-0.0921631,-0.000145792,0.00165036,-0.000304326,0.00170052,-0.000195954,-1.40744,0.00120432,0.0117629,1770,1541,-0.0554151,0.0921563
553,-517,-0.0743408,-0.0710449,-0.000162568,0.00104649,-9.81299e-05,0.0010544,-0.000170481,-1.49034,0.000766108,0.0143634,1777,1541,-0.0743775,0.071095
560,-517,-0.0915527,-0.0603027,6.66101e-05,0.000412117,0.000228691,0.00052597,-4.7243e-05,1.10887,0.000367408,0.0146451,1784,1541,-0.0914946,0.0603099
567,-517,-0.086792,-0.0511475,0.000402157,-0.000186364,0.000420171,0.000620861,-0.000405068,0.479922,0.000596672,0.0110496,1791,1541,-0.0867786,0.0511756
574,-517,-0.0701904,-0.0522461,0.000470077,-0.000669759,0.000454142,0.000628892,-0.000828574,0.33641,0.000844097,0.011104,1798,1541,-0.0701548,0.0522718
581,-517,-0.0716553,-0.0576172,0.00048048,-0.0015102,0.000269022,0.000516195,-0.00154592,0.131987,0.00123905,0.0128466,1805,1541,-0.0716622,0.0575627
588,-517,-0.0876465,-0.0419922,0.000159662,-0.00185275,-0.000168438,0.000173663,-0.00186675,-0.0829306,0.00130624,0.0138594,1812,1541,-0.0876522,0.0420413
595,-517,-0.0974121,-0.0550537,-0.000771537,-0.00182551,-0.000661773,-0.000452557,-0.00214449,-0.449151,0.00130523,0.0123638,1819,1541,-0.0974216,0.0550029
602,-517,-0.0540771,-0.0864258,-0.00215396,-0.00162948,-0.00108391,-0.000776541,-0.0030069,-0.904086,0.0018024,0.0171702,1826,1541,-0.0540673,0.0863751
609,-517,0.0930176,-0.0495605,-0.00402573,-0.000906202,-0.00129749,-0.00043709,-0.00449484,-1.22387,0.00286201,0.0344262,1833,1541,0.0930392,0.049519
616,-517,0.0865479,0.0668945,-0.00642608,-0.000577599,-0.00218984,0.000151458,-0.00715513,-1.24941,0.00482137,0.0405034,1840,1541,0.0865383,-0.0669406
623,-517,-0.13562,-0.275635,-0.00956663,0.000872293,-0.00283461,0.00159234,-0.0102867,-1.32204,0.00744554,0.0401969,1847,1541,-0.135584,0.275637
630,-517,-0.32312,-0.522827,-0.0132448,0.00336533,-0.00312463,0.00393367,-0.0138132,-1.39087,0.0107624,0.0426042,1854,1541,-0.3231,0.522882
637,-517,-0.410767,-0.696655,-0.0177303,0.00645943,-0.00314447,0.00686151,-0.0181324,-1.44362,0.0149113,0.0455753,1861,1541,-0.410801,0.6966
644,-517,-0.608398,-0.813843,-0.022721,0.0106098,-0.00256996,0.0108068,-0.022918,-1.49429,0.0198851,0.0443736,1868,1541,-0.608449,0.813902
651,-517,0,0,0,0,0,0,0,0,0,-1,1875,1541,0,0
658,-517,0,0,0,0,0,0,0,0,0,-1,1882,1541,0,0
665,-517,0,0,0,0,0,0,0,0,0,-1,1889,1541,0,0
672,-517,0,0,0,0,0,0,0,0,0,-1,1896,1541,0,0
679,-517,0,0,0,0,0,0,0,0,0,-1,1903,1541,0,0
686,-517,0,0,0,0,0,0,0,0,0,-1,1910,1541,0,0
693,-517,0,0,0,0,0,0,0,0,0,-1,1917,1541,0,0
700,-517,0,0,0,0,0,0,0,0,0,-1,1924,1541,0,0
707,-517,0,0,0,0,0,0,0,0,0,-1,1931,1541,0,0
714,-517,0,0,0,0,0,0,0,0,0,-1,1938,1541,0,0
721,-517,0,0,0,0,0,0,0,0,0,-1,1945,1541,0,0
728,-517,0,0,0,0,0,0,0,0,0,-1,1952,1541,0,0
735,-517,0,0,0,0,0,0,0,0,0,-1,1959,1541,0,0
742,-517,0,0,0,0,0,0,0,0,0,-1,1966,1541,0,0
749,-517,0,0,0,0,0,0,0,0,0,-1,1973,1541,0,0
756,-517,0,0,0,0,0,0,0,0,0,-1,1980,1541,0,0
763,-517,0,0,0,0,0,0,0,0,0,-1,1987,1541,0,0
770,-517,0,0,0,0,0,0,0,0,0,-1,1994,1541,0,0
777,-517,0,0,0,0,0,0,0,0,0,-1,2001,1541,0,0
784,-517,0,0,0,0,0,0,0,0,0,-1,2008,1541,0,0
791,-517,0,0,0,0,0,0,0,0,0,-1,2015,1541,0,0
798,-517,0,0,0,0,0,0,0,0,0,-1,2022,1541,0,0
805,-517,0,0,0,0,0,0,0,0,0,-1,2029,1541,0,0
812,-517,0,0,0,0,0,0,0,0,0,-1,2036,1541,0,0
-700,-524,0,0,0,0,0,0,0,0,0,-1,524,1548,0,0
-693,-524,0,0,0,0,0,0,0,0,0,-1,531,1548,0,0
-686,-524,0,0,0,0,0,0,0,0,0,-1,538,1548,0,0
-679,-524,0,0,0,0,0,0,0,0,0,-1,545,1548,0,0
-672,-524,0,0,0,0,0,0,0,0,0,-1,552,1548,0,0
-665,-524,0,0,0,0,0,0,0,0,0,-1,559,1548,0,0
-658,-524,0,0,0,0,0,0,0,0,0,-1,566,1548,0,0
-651,-524,0,0,0,0,0,0,0,0,0,-1,573,1548,0,0
-644,-524,0,0,0,0,0,0,0,0,0,-1,580,1548,0,0
-637,-524,0,0,0,0,0,0,0,0,0,-1,587,1548,0,0
-630,-524,0,0,0,0,0,0,0,0,0,-1,594,1548,0,0
-623,-524,0,0,0,0,0,0,0,0,0,-1,601,1548,0,0
-616,-524,0,0,0,0,0,0,0,0,0,-1,608,1548,0,0
-609,-524,0,0,0,0,0,0,0,0,0,-1,615,1548,0,0
-602,-524,0,0,0,0,0,0,0,0,0,-1,622,1548,0,0
-595,-524,0,0,0,0,0,0,0,0,0,-1,629,1548,0,0
-588,-524,0,0,0,0,0,0,0,0,0,-1,636,1548,0,0
-581,-524,0,0,0,0,0,0,0,0,0,-1,643,1548,0,0
-574,-524,0,0,0,0,0,0,0,0,0,-1,650,1548,0,0
-567,-524,0,0,0,0,0,0,0,0,0,-1,657,1548,0,0
-560,-524,0,0,0,0,0,0,0,0,0,-1,664,1548,0,0
-553,-524,0,0,0,0,0,0,0,0,0,-1,671,1548,0,0
-546,-524,0,0,0,0,0,0,0,0,0,-1,678,1548,0,0
-539,-524,0,0,0,0,0,0,0,0,0,-1,685,1548,0,0
-532,-524,0,0,0,0,0,0,0,0,0,-1,692,1548,0,0
-525,-524,0.213013,-0.0159912,0,0,0,0,0,0,0,-1,699,1548,0.213035,0.0159532
-518,-524,0.22229,-0.319336,0,0,0,0,0,0,0,-1,706,1548,0.222317,0.31933
-511,-524,2.2536,0.752197,0,0,0,0,0,0,0,-1,713,1548,2.25363,-0.75222
-504,-524,1.07544,0.282715,0,0,0,0,0,0,0,-1,720,1548,1.07542,-0.282721
-497,-524,0.481262,0.643433,-0.0067107,0.0276156,-0.0118053,0.0312837,-0.0103788,-1.26954,0.0250428,0.0409749,727,1548,0.481246,-0.643487
-490,-524,0.171509,1.11523,-0.00566269,0.0233174,-0.0113944,0.0272609,-0.00960614,-1.23761,0.0220837,0.0405191,734,1548,0.171539,-1.11518
-483,-524,-0.458496,-0.174438,-0.00418099,0.0188524,-0.0103742,0.022836,-0.00816453,-1.20417,0.0185543,0.0449051,741,1548,-0.458509,0.174402
-476,-524,-0.175354,-0.11084,-0.00280794,0.0149007,-0.00908054,0.0187292,-0.00663649,-1.17179,0.0151895,0.0427633,748,1548,-0.175336,0.110881
-469,-524,-0.0449219,-0.0672607,-0.00182083,0.0112871,-0.0073591,0.0145876,-0.00512136,-1.14919,0.0118084,0.0298106,755,1548,-0.044926,0.0672861
-462,-524,-0.0769043,-0.0623779,-0.000941176,0.00871239,-0.00577838,0.0114147,-0.00364351,-1.13335,0.00907158,0.0212295,762,1548,-0.0769271,0.0624068
-455,-524,-0.0769653,-0.045166,0.000158275,0.00660551,-0.00460847,0.00900592,-0.00224214,-1.09059,0.00687431,0.0138442,769,1548,-0.0769485,0.0451268
-448,-524,-0.0689087,-0.0531006,0.00092529,0.00437936,-0.00357586,0.0066234,-0.00131875,-1.01036,0.00491452,0.0108612,776,1548,-0.068907,0.0531238
-441,-524,-0.0744629,-0.0635986,0.00110862,0.00298054,-0.00242031,0.00463957,-0.000550403,-0.969897,0.00329189,0.00973701,783,1548,-0.0744372,0.063585
-434,-524,-0.0490723,-0.0687256,0.00115403,0.00250218,-0.00128836,0.00328214,0.000374061,-1.02642,0.00207468,0.0115777,790,1548,-0.0490665,0.0687784
-427,-524,-0.0551758,-0.0596924,0.000711177,0.00197754,-0.00045033,0.00212135,0.000567367,-1.26169,0.00126815,0.0124857,797,1548,-0.0551741,0.0597465
-420,-524,-0.0835571,-0.05896,0.000694534,0.0014063,-0.000253602,0.00148741,0.000613419,-1.26123,0.000863138,0.0102753,804,1548,-0.0835356,0.0589379
-413,-524,-0.0665283,-0.0539551,0.00130492,0.000887756,-0.000472238,0.00161259,0.000580086,-0.577439,0.000943162,0.0100188,811,1548,-0.0665216,0.0539526
-406,-524,-0.0635376,-0.0587158,0.00197836,0.000486078,-0.000908217,0.00240762,5.68103e-05,-0.441528,0.00158648,0.0106097,818,1548,-0.063538,0.0587749
-399,-524,-0.0668335,-0.0710449,0.00266111,-0.000263469,-0.00162977,0.00338844,-0.000990799,-0.419755,0.00265166,0.0086078,825,1548,-0.0668466,0.0710323
-392,-524,-0.0599365,-0.0673828,0.00318658,-0.00153886,-0.00251262,0.00427287,-0.00262515,-0.408067,0.00402027,0.00899678,832,1548,-0.0599441,0.0673297
-385,-524,-0.071106,-0.0358887,0.00357872,-0.00267637,-0.0032822,0.00498487,-0.00408252,-0.404761,0.00524369,0.0101278,839,1548,-0.0710989,0.0358369
-378,-524,-0.0917358,-0.0369873,0.00385749,-0.00444907,-0.00396305,0.0054449,-0.00603648,-0.380982,0.00663171,0.0123716,846,1548,-0.0917284,0.0369819
-371,-524,-0.0716553,-0.0731201,0.00410266,-0.00709432,-0.00458102,0.00573803,-0.0087297,-0.342888,0.00841227,0.0222596,853,1548,-0.071671,0.0731576
-364,-524,0.0725708,-0.0853271,0.00395932,-0.0103444,-0.00503583,0.00555438,-0.0119395,-0.306745,0.0103219,0.0328155,860,1548,0.0725532,0.0853411
-357,-524,0.00726318,-0.0288086,0.00340135,-0.0149252,-0.00489852,0.00462851,-0.0161523,-0.245465,0.0125977,0.0418976,867,1548,0.00728353,0.0288658
-350,-524,-0.0875854,-0.000244141,0.00269519,-0.020477,-0.00393777,0.00334607,-0.0211279,-0.163811,0.0153229,0.0445312,874,1548,-0.0875669,0.000293474
-343,-524,0.100159,-0.224609,0.0018452,-0.0273134,-0.00268454,0.0020903,-0.0275585,-0.0910469,0.0191073,0.0428846,881,1548,0.100135,0.224628
-336,-524,0.0565186,-0.210815,0.000713974,-0.0341176,-0.000938812,0.00073926,-0.0341429,-0.0269269,0.0230123,0.0424543,888,1548,0.0565198,0.210853
-329,-524,-0.0708618,-0.168091,-0.000795825,-0.041796,0.00181927,-0.000715259,-0.0418766,0.0442563,0.0276824,0.0434973,895,1548,-0.0708515,0.1681
-322,-524,-0.0386963,-0.481812,-0.00328633,-0.0498064,0.00620948,-0.00247175,-0.050621,0.130438,0.0329543,0.0448714,902,1548,-0.0387012,0.481834
-315,-524,0.0688477,-0.742065,-0.00602676,-0.0577781,0.0124807,-0.00317409,-0.0606307,0.224707,0.0394051,0.0474232,909,1548,0.0688202,0.742017
-308,-524,-0.0751343,-0.992676,-0.00945467,-0.0635972,0.0190228,-0.00343939,-0.0696125,0.306265,0.0453054,0.0454776,916,1548,-0.0751308,0.992644
-301,-524,-0.11676,-1.05725,-0.00882933,-0.0640349,0.0204935,-0.00205336,-0.0708109,0.319324,0.0465379,0.0415799,923,1548,-0.116787,1.05719
-294,-524,0.109741,-0.818237,0.000299106,-0.0654421,0.0235924,0.00788932,-0.0730323,0.311265,0.0515197,0.0409617,930,1548,0.10975,0.818206
-287,-524,0.211426,-0.741821,0.00717799,-0.0651634,0.026388,0.0157806,-0.073766,0.315139,0.0551947,0.0411313,937,1548,0.211405,0.741869
-280,-524,0.440369,-0.88501,0.0192538,-0.0619154,0.0266095,0.0271993,-0.0698609,0.29017,0.0578139,0.0426748,944,1548,0.440339,0.885069
-273,-524,0,0,0,0,0,0,0,0,0,-1,951,1548,0,0
-266,-524,0,0,0,0,0,0,0,0,0,-1,958,1548,0,0
-259,-524,0,0,0,0,0,0,0,0,0,-1,965,1548,0,0
-252,-524,0,0,0,0,0,0,0,0,0,-1,972,1548,0,0
-245,-524,0,0,0,0,0,0,0,0,0,-1,979,1548,0,0
-238,-524,0,0,0,0,0,0,0,0,0,-1,986,1548,0,0
-231,-524,0,0,0,0,0,0,0,0,0,-1,993,1548,0,0
-224,-524,0,0,0,0,0,0,0,0,0,-1,1000,1548,0,0
-217,-524,0,0,0,0,0,0,0,0,0,-1,1007,1548,0,0
-210,-524,0,0,0,0,0,0,0,0,0,-1,1014,1548,0,0
-203,-524,0,0,0,0,0,0,0,0,0,-1,1021,1548,0,0
-196,-524,0,0,0,0,0,0,0,0,0,-1,1028,1548,0,0
-189,-524,0,0,0,0,0,0,0,0,0,-1,1035,1548,0,0
-182,-524,0,0,0,0,0,0,0,0,0,-1,1042,1548,0,0
-175,-524,0,0,0,0,0,0,0,0,0,-1,1049,1548,0,0
-168,-524,0,0,0,0,0,0,0,0,0,-1,1056,1548,0,0
-161,-524,0,0,0,0,0,0,0,0,0,-1,1063,1548,0,0
-154,-524,0,0,0,0,0,0,0,0,0,-1,1070,1548,0,0
-147,-524,0,0,0,0,0,0,0,0,0,-1,1077,1548,0,0
-140,-524,0,0,0,0,0,0,0,0,0,-1,1084,1548,0,0
-133,-524,0,0,0,0,0,0,0,0,0,-1,1091,1548,0,0
-126,-524,0,0,0,0,0,0,0,0,0,-1,1098,1548,0,0
-119,-524,0,0,0,0,0,0,0,0,0,-1,1105,1548,0,0
-112,-524,0,0,0,0,0,0,0,0,0,-1,1112,1548,0,0
-105,-524,0,0,0,0,0,0,0,0,0,-1,1119,1548,0,0
-98,-524,0,0,0,0,0,0,0,0,0,-1,1126,1548,0,0
-91,-524,0,0,0,0,0,0,0,0,0,-1,1133,1548,0,0
-84,-524,0,0,0,0,0,0,0,0,0,-1,1140,1548,0,0
-77,-524,0,0,0,0,0,0,0,0,0,-1,1147,1548,0,0
-70,-524,0,0,0,0,0,0,0,0,0,-1,1154,1548,0,0
-63,-524,0,0,0,0,0,0,0,0,0,-1,1161,1548,0,0
-56,-524,0,0,0,0,0,0,0,0,0,-1,1168,1548,0,0
-49,-524,0,0,0,0,0,0,0,0,0,-1,1175,1548,0,0
-42,-524,0,0,0,0,0,0,0,0,0,-1,1182,1548,0,0
-35,-524,0,0,0,0,0,0,0,0,0,-1,1189,1548,0,0
-28,-524,0,0,0,0,0,0,0,0,0,-1,1196,1548,0,0
-21,-524,0,0,0,0,0,0,0,0,0,-1,1203,1548,0,0
-14,-524,0,0,0,0,0,0,0,0,0,-1,1210,1548,0,0
-7,-524,0,0,0,0,0,0,0,0,0,-1,1217,1548,0,0
0,-524,0,0,0,0,0,0,0,0,0,-1,1224,1548,0,0
7,-524,0,0,0,0,0,0,0,0,0,-1,1231,1548,0,0
14,-524,0,0,0,0,0,0,0,0,0,-1,1238,1548,0,0
21,-524,0,0,0,0,0,0,0,0,0,-1,1245,1548,0,0
28,-524,0,0,0,0,0,0,0,0,0,-1,1252,1548,0,0
35,-524,0,0,0,0,0,0,0,0,0,-1,1259,1548,0,0
42,-524,0,0,0,0,0,0,0,0,0,-1,1266,1548,0,0
49,-524,0,0,0,0,0,0,0,0,0,-1,1273,1548,0,0
56,-524,0,0,0,0,0,0,0,0,0,-1,1280,1548,0,0
63,-524,0,0,0,0,0,0,0,0,0,-1,1287,1548,0,0
70,-524,0,0,0,0,0,0,0,0,0,-1,1294,1548,0,0
77,-524,0,0,0,0,0,0,0,0,0,-1,1301,1548,0,0
84,-524,0,0,0,0,0,0,0,0,0,-1,1308,1548,0,0
91,-524,0,0,0,0,0,0,0,0,0,-1,1315,1548,0,0
98,-524,0,0,0,0,0,0,0,0,0,-1,1322,1548,0,0
105,-524,0,0,0,0,0,0,0,0,0,-1,1329,1548,0,0
112,-524,0,0,0,0,0,0,0,0,0,-1,1336,1548,0,0
119,-524,0,0,0,0,0,0,0,0,0,-1,1343,1548,0,0
126,-524,0,0,0,0,0,0,0,0,0,-1,1350,1548,0,0
133,-524,0,0,0,0,0,0,0,0,0,-1,1357,1548,0,0
140,-524,0,0,0,0,0,0,0,0,0,-1,1364,1548,0,0
147,-524,0,0,0,0,0,0,0,0,0,-1,1371,1548,0,0
154,-524,0,0,0,0,0,0,0,0,0,-1,1378,1548,0,0
161,-524,0,0,0,0,0,0,0,0,0,-1,1385,1548,0,0
168,-524,0,0,0,0,0,0,0,0,0,-1,1392,1548,0,0
175,-524,0,0,0,0,0,0,0,0,0,-1,1399,1548,0,0
182,-524,0,0,0,0,0,0,0,0,0,-1,1406,1548,0,0
189,-524,0,0,0,0,0,0,0,0,0,-1,1413,1548,0,0
196,-524,0,0,0,0,0,0,0,0,0,-1,1420,1548,0,0
203,-524,0,0,0,0,0,0,0,0,0,-1,1427,1548,0,0
210,-524,0,0,0,0,0,0,0,0,0,-1,1434,1548,0,0
217,-524,0,0,0,0,0,0,0,0,0,-1,1441,1548,0,0
224,-524,0,0,0,0,0,0,0,0,0,-1,1448,1548,0,0
231,-524,0,0,0,0,0,0,0,0,0,-1,1455,1548,0,0
238,-524,0,0,0,0,0,0,0,0,0,-1,1462,1548,0,0
245,-524,0,0,0,0,0,0,0,0,0,-1,1469,1548,0,0
252,-524,0,0,0,0,0,0,0,0,0,-1,1476,1548,0,0
259,-524,0,0,0,0,0,0,0,0,0,-1,1483,1548,0,0
266,-524,0,0,0,0,0,0,0,0,0,-1,1490,1548,0,0
273,-524,0,0,0,0,0,0,0,0,0,-1,1497,1548,0,0
280,-524,0,0,0,0,0,0,0,0,0,-1,1504,1548,0,0
287,-524,0,0,0,0,0,0,0,0,0,-1,1511,1548,0,0
294,-524,0,0,0,0,0,0,0,0,0,-1,1518,1548,0,0
301,-524,0,0,0,0,0,0,0,0,0,-1,1525,1548,0,0
308,-524,0,0,0,0,0,0,0,0,0,-1,1532,1548,0,0
315,-524,0,0,0,0,0,0,0,0,0,-1,1539,1548,0,0
322,-524,0,0,0,0,0,0,0,0,0,-1,1546,1548,0,0
329,-524,0,0,0,0,0,0,0,0,0,-1,1553,1548,0,0
336,-524,0,0,0,0,0,0,0,0,0,-1,1560,1548,0,0
343,-524,0,0,0,0,0,0,0,0,0,-1,1567,1548,0,0
350,-524,0,0,0,0,0,0,0,0,0,-1,1574,1548,0,0
357,-524,0,0,0,0,0,0,0,0,0,-1,1581,1548,0,0
364,-524,0,0,0,0,0,0,0,0,0,-1,1588,1548,0,0
371,-524,0,0,0,0,0,0,0,0,0,-1,1595,1548,0,0
378,-524,0,0,0,0,0,0,0,0,0,-1,1602,1548,0,0
385,-524,0,0,0,0,0,0,0,0,0,-1,1609,1548,0,0
392,-524,0,0,0,0,0,0,0,0,0,-1,1616,1548,0,0
399,-524,-1.22546,0.238159,-0.0331684,0.0123961,0.0196027,0.0196688,-0.040441,1.21554,0.0353884,0.0459161,1623,1548,-1.22549,-0.238175
406,-524,-1.46106,0.427856,-0.021304,0.013572,0.0165787,0.0201951,-0.0279271,1.19072,0.0279027,0.0473374,1630,1548,-1.4611,-0.427818
413,-524,-1.74377,2.36816,0,0,0,0,0,0,0,-1,1637,1548,-1.74374,-2.36811
420,-524,-0.98645,1.96802,0,0,0,0,0,0,0,-1,1644,1548,-0.986496,-1.96802
427,-524,-0.314331,1.55469,0,0,0,0,0,0,0,-1,1651,1548,-0.314277,-1.55467
434,-524,-0.413574,1.96533,0,0,0,0,0,0,0,-1,1658,1548,-0.413602,-1.96531
441,-524,0.0687256,2.21082,0,0,0,0,0,0,0,-1,1665,1548,0.0687729,-2.21078
448,-524,2.84216,-0.0195313,0,0,0,0,0,0,0,-1,1672,1548,2.8422,0.0195436
455,-524,0.719482,1.8927,0,0,0,0,0,0,0,-1,1679,1548,0.719521,-1.89274
462,-524,1.1283,1.47681,0,0,0,0,0,0,0,-1,1686,1548,1.12834,-1.47683
469,-524,-1.13684,-0.153198,0,0,0,0,0,0,0,-1,1693,1548,-1.13681,0.153234
476,-524,-0.59021,-0.513794,0.00275844,0.0118552,0.00215447,0.0123397,0.00227398,1.34961,0.00758299,0.0436215,1700,1548,-0.590203,0.513777
483,-524,-0.509277,-0.100098,0.00302166,0.00958408,0.00179179,0.0100414,0.00256431,1.32088,0.00602427,0.0378838,1707,1548,-0.509322,0.100097
490,-524,-0.385254,-0.0421143,0.00270212,0.00746135,0.00132779,0.00780673,0.00235674,1.31632,0.00462365,0.0332394,1714,1548,-0.385238,0.0421226
497,-524,-0.172241,-0.0698242,0.00262286,0.00604205,0.000583591,0.00613891,0.002526,1.40632,0.00356277,0.0233707,1721,1548,-0.172273,0.0697676
504,-524,-0.0855713,-0.0427246,0.00267573,0.00409224,0.000681815,0.00436709,0.00240088,1.18761,0.0025255,0.0138893,1728,1548,-0.085586,0.0426787
511,-524,-0.0742188,-0.039917,0.0027389,0.00373295,0.000627626,0.00403651,0.00243533,1.12029,0.00234701,0.0149921,1735,1548,-0.074235,0.0398653
518,-524,-0.0797119,-0.0539551,0.00244167,0.00268626,0.000104528,0.00272485,0.00240308,1.21719,0.00171938,0.0155093,1742,1548,-0.0797124,0.0539536
525,-524,-0.0697021,-0.057373,0.00159214,0.00238786,-0.000136381,0.00241059,0.00156941,-1.40568,0.00141276,0.0137304,1749,1548,-0.0697342,0.0573396
532,-524,-0.0303955,-0.0665283,0.000803833,0.00182514,-0.000289582,0.00190153,0.000727439,-1.31286,0.0011079,0.00939247,1756,1548,-0.0303738,0.0665516
539,-524,-0.0447998,-0.0804443,5.88353e-05,0.00157058,-0.000391427,0.00166591,-3.65023e-05,-1.33188,0.00112297,0.0104656,1763,1548,-0.0448466,0.0804894
546,-524,-0.0742188,-0.0837402,-0.00035964,0.00133424,-0.000265979,0.00137503,-0.000400423,-1.41865,0.0010753,0.0132804,1770,1548,-0.0741685,0.0837645
553,-524,-0.0722656,-0.0472412,-0.000545543,0.00074681,8.20822e-06,0.000746862,-0.000545595,1.56445,0.00074921,0.0214178,1777,1548,-0.0722203,0.0472534
560,-524,-0.0617676,-0.0587158,-0.00045886,9.01489e-05,0.000398497,0.000299537,-0.000668249,1.087,0.000572109,0.0273679,1784,1548,-0.0618165,0.0586649
567,-524,-0.0891113,-0.0494385,-0.000204714,-0.000446831,0.000662549,0.000347746,-0.00099929,0.695037,0.000807467,0.0146753,1791,1548,-0.0891309,0.0494177
574,-524,-0.0721436,-0.0445557,-0.000205884,-0.000871754,0.000830643,0.000356063,-0.0014337,0.594793,0.00109398,0.0102779,1798,1548,-0.0721139,0.044539
581,-524,-0.0549316,-0.0618896,-0.000248377,-0.00181788,0.000752311,5.39807e-05,-0.00212024,0.382148,0.00143183,0.0118386,1805,1548,-0.0549138,0.0618347
588,-524,-0.0638428,-0.0531006,-0.00058066,-0.00227929,0.000389843,-0.000495462,-0.00236449,0.21516,0.00143987,0.0125454,1812,1548,-0.0638889,0.0530433
595,-524,-0.0922852,-0.0662842,-0.00153633,-0.00237997,-5.02855e-05,-0.00153334,-0.00238296,-0.0593253,0.00139455,0.0121918,1819,1548,-0.0923282,0.0662532
602,-524,-0.0561523,-0.11377,-0.0029637,-0.00234407,-0.000488927,-0.00207506,-0.00323271,-1.0678,0.00189129,0.0226532,1826,1548,-0.0561099,0.113729
609,-524,0.0836182,0.126099,-0.00494824,-0.00174958,-0.000820239,-0.00155151,-0.00514631,-1.33385,0.00304829,0.0368759,1833,1548,0.0836094,-0.126043
616,-524,0.271851,0.271606,-0.00749328,-0.00149421,-0.00188939,-0.000948749,-0.00803874,-1.28974,0.00507257,0.040949,1840,1548,0.271821,-0.271558
623,-524,0.0239258,-0.012207,-0.0109558,-0.000110403,-0.00293762,0.000634172,-0.0117004,-1.32256,0.00802003,0.0410258,1847,1548,0.0239525,0.0122373
630,-524,-0.403564,-0.41394,-0.0150368,0.00216754,-0.00384685,0.00298851,-0.0158578,-1.36054,0.011696,0.0437281,1854,1548,-0.403623,0.413951
637,-524,-0.338867,-0.762329,-0.0200501,0.00530303,-0.00465349,0.00613018,-0.0208773,-1.39489,0.0163493,0.0453477,1861,1548,-0.338919,0.76228
644,-524,-0.65686,-1.09143,-0.0258249,0.00960213,-0.00513728,0.010332,-0.0265548,-1.42966,0.0219725,0.0462501,1868,1548,-0.656839,1.09139
651,-524,0,0,0,0,0,0,0,0,0,-1,1875,1548,0,0
658,-524,0,0,0,0,0,0,0,0,0,-1,1882,1548,0,0
665,-524,0,0,0,0,0,0,0,0,0,-1,1889,1548,0,0
672,-524,0,0,0,0,0,0,0,0,0,-1,1896,1548,0,0
679,-524,0,0,0,0,0,0,0,0,0,-1,1903,1548,0,0
686,-524,0,0,0,0,0,0,0,0,0,-1,1910,1548,0,0
693,-524,0,0,0,0,0,0,0,0,0,-1,1917,1548,0,0
700,-524,0,0,0,0,0,0,0,0,0,-1,1924,1548,0,0
707,-524,0,0,0,0,0,0,0,0,0,-1,1931,1548,0,0
714,-524,0,0,0,0,0,0,0,0,0,-1,1938,1548,0,0
721,-524,0,0,0,0,0,0,0,0,0,-1,1945,1548,0,0
728,-524,0,0,0,0,0,0,0,0,0,-1,1952,1548,0,0
735,-524,0,0,0,0,0,0,0,0,0,-1,1959,1548,0,0
742,-524,0,0,0,0,0,0,0,0,0,-1,1966,1548,0,0
749,-524,0,0,0,0,0,0,0,0,0,-1,1973,1548,0,0
756,-524,0,0,0,0,0,0,0,0,0,-1,1980,1548,0,0
763,-524,0,0,0,0,0,0,0,0,0,-1,1987,1548,0,0
770,-524,0,0,0,0,0,0,0,0,0,-1,1994,1548,0,0
777,-524,0,0,0,0,0,0,0,0,0,-1,2001,1548,0,0
784,-524,0,0,0,0,0,0,0,0,0,-1,2008,1548,0,0
791,-524,0,0,0,0,0,0,0,0,0,-1,2015,1548,0,0
798,-524,0,0,0,0,0,0,0,0,0,-1,2022,1548,0,0
805,-524,0,0,0,0,0,0,0,0,0,-1,2029,1548,0,0
812,-524,0,0,0,0,0,0,0,0,0,-1,2036,1548,0,0
-700,-531,0,0,0,0,0,0,0,0,0,-1,524,1555,0,0
-693,-531,0,0,0,0,0,0,0,0,0,-1,531,1555,0,0
-686,-531,0,0,0,0,0,0,0,0,0,-1,538,1555,0,0
-679,-531,0,0,0,0,0,0,0,0,0,-1,545,1555,0,0
-672,-531,0,0,0,0,0,0,0,0,0,-1,552,1555,0,0
-665,-531,0,0,0,0,0,0,0,0,0,-1,559,1555,0,0
-658,-531,0,0,0,0,0,0,0,0,0,-1,566,1555,0,0
-651,-531,0,0,0,0,0,0,0,0,0,-1,573,1555,0,0
-644,-531,0,0,0,0,0,0,0,0,0,-1,580,1555,0,0
-637,-531,0,0,0,0,0,0,0,0,0,-1,587,1555,0,0
-630,-531,0,0,0,0,0,0,0,0,0,-1,594,1555,0,0
-623,-531,0,0,0,0,0,0,0,0,0,-1,601,1555,0,0
-616,-531,0,0,0,0,0,0,0,0,0,-1,608,1555,0,0
-609,-531,0,0,0,0,0,0,0,0,0,-1,615,1555,0,0
-602,-531,0,0,0,0,0,0,0,0,0,-1,622,1555,0,0
-595,-531,0,0,0,0,0,0,0,0,0,-1,629,1555,0,0
-588,-531,0,0,0,0,0,0,0,0,0,-1,636,1555,0,0
-581,-531,0,0,0,0,0,0,0,0,0,-1,643,1555,0,0
-574,-531,0,0,0,0,0,0,0,0,0,-1,650,1555,0,0
-567,-531,0,0,0,0,0,0,0,0,0,-1,657,1555,0,0
-560,-531,0,0,0,0,0,0,0,0,0,-1,664,1555,0,0
-553,-531,0,0,0,0,0,0,0,0,0,-1,671,1555,0,0
-546,-531,0,0,0,0,0,0,0,0,0,-1,678,1555,0,0
-539,-531,0,0,0,0,0,0,0,0,0,-1,685,1555,0,0
-532,-531,0,0,0,0,0,0,0,0,0,-1,692,1555,0,0
-525,-531,0,0,0,0,0,0,0,0,0,-1,699,1555,0,0
-518,-531,2.24017,0.289063,0,0,0,0,0,0,0,-1,706,1555,2.2402,-0.28912
-511,-531,1.60913,0.904907,-0.00862155,0.048798,-0.00948753,0.050325,-0.0101486,-1.41121,0.0373947,0.0469068,713,1555,1.60916,-0.904918
-504,-531,1.08356,1.29333,-0.00864454,0.0422919,-0.0113947,0.0447247,-0.0110774,-1.36045,0.0341138,0.0465288,720,1555,1.08356,-1.29335
-497,-531,0.479004,1.33459,-0.00788442,0.0359911,-0.0124962,0.0393006,-0.0111938,-1.31191,0.0306214,0.0412419,727,1555,0.479025,-1.33458
-490,-531,0.0740967,1.08557,-0.00628027,0.0298894,-0.0126167,0.0338554,-0.0102464,-1.26623,0.0266506,0.0408627,734,1555,0.0740761,-1.08553
-483,-531,-0.28009,0.873291,-0.00437857,0.0240228,-0.0119108,0.0283566,-0.00871234,-1.22183,0.0223811,0.0454822,741,1555,-0.280081,-0.873282
-476,-531,-0.177185,0.641113,-0.00270988,0.0190497,-0.0107438,0.0234604,-0.0071206,-1.18124,0.0184769,0.0461043,748,1555,-0.177187,-0.641139
-469,-531,0.0404053,-0.00854492,-0.00162577,0.0147289,-0.00901177,0.0187204,-0.00561728,-1.15384,0.0147146,0.0413741,755,1555,0.0404236,0.00852644
-462,-531,-0.0681152,-0.136108,-0.000743991,0.0115957,-0.00732193,0.0150007,-0.004149,-1.1355,0.0116328,0.0367831,762,1555,-0.0680859,0.136057
-455,-531,-0.045166,-0.0665283,0.000324278,0.00914146,-0.00604481,0.0122145,-0.0027488,-1.10046,0.00919725,0.0251047,769,1555,-0.0451401,0.0665694
-448,-531,-0.0656738,-0.0373535,0.00102445,0.00655462,-0.00487265,0.00939207,-0.001813,-1.04348,0.00694505,0.0109865,776,1555,-0.0656973,0.0374033
-441,-531,-0.0736694,-0.0524902,0.00113473,0.00488597,-0.00357064,0.00704364,-0.00102294,-1.02724,0.00507125,0.00955927,783,1555,-0.0736973,0.0524808
-434,-531,-0.0681152,-0.0609131,0.00106111,0.00432244,-0.00226865,0.00548567,-0.000102111,-1.09701,0.00369162,0.0105207,790,1555,-0.0681036,0.0608982
-427,-531,-0.0702515,-0.0750732,0.000435313,0.00366147,-0.00115007,0.00402947,6.73095e-05,-1.26111,0.00266416,0.0124934,797,1555,-0.0702433,0.075053
-420,-531,-0.0836792,-0.0699463,0.000308227,0.0029895,-0.000731488,0.00317607,0.00012165,-1.32106,0.00207802,0.0115692,804,1555,-0.0836761,0.0699901
-413,-531,-0.0739746,-0.0651855,0.000839225,0.0023571,-0.000728492,0.00265015,0.000546171,-1.18833,0.00161578,0.0100659,811,1555,-0.0739822,0.0651342
-406,-531,-0.0678101,-0.0722656,0.00139987,0.00177517,-0.00093946,0.00254554,0.000629506,-0.883971,0.00153096,0.010947,818,1555,-0.0678006,0.0722667
-399,-531,-0.0552979,-0.0621338,0.00196632,0.000936652,-0.00137704,0.00292162,-1.86511e-05,-0.606509,0.00195399,0.0124703,825,1555,-0.0552686,0.062111
-392,-531,-0.0514526,-0.0697021,0.00238724,-0.000365394,-0.0019131,0.00336766,-0.00134581,-0.473579,0.00280353,0.0156408,832,1555,-0.0514569,0.0697089
-385,-531,-0.0792236,-0.0656738,0.00263329,-0.00151392,-0.00235009,0.00369382,-0.00257444,-0.423909,0.00363816,0.0131731,839,1555,-0.0792101,0.0657159
-378,-531,-0.078064,-0.0645752,0.00279854,-0.00313763,-0.00270577,0.00384677,-0.00418586,-0.369599,0.00463902,0.00984948,846,1555,-0.0780661,0.0646177
-371,-531,-0.0836792,-0.0732422,0.00296822,-0.00544255,-0.00302676,0.0039442,-0.00641853,-0.311924,0.00603951,0.010687,853,1555,-0.0836561,0.0732707
-364,-531,-0.074646,-0.0726318,0.00276033,-0.00808884,-0.00324919,0.00365899,-0.00898749,-0.269832,0.00751438,0.0187774,860,1555,-0.0746459,0.0726084
-357,-531,-0.0494385,-0.0718994,0.00212763,-0.0119035,-0.00296184,0.00272722,-0.0125031,-0.199739,0.00937764,0.0291163,867,1555,-0.0494285,0.0719544
-350,-531,0.0163574,-0.00866699,0.00141281,-0.0165591,-0.00197161,0.00162657,-0.0167728,-0.107994,0.0117616,0.0375016,874,1555,0.0163877,0.00866506
-343,-531,0.212646,-0.25354,0.000518738,-0.022315,-0.000758055,0.000543878,-0.0223401,-0.0331503,0.015078,0.042109,881,1555,0.212665,0.25357
-336,-531,-0.217834,-0.514526,-0.00077408,-0.0278647,0.000876997,-0.000745719,-0.0278931,0.0323276,0.0183518,0.0418599,888,1555,-0.217829,0.514503
-329,-531,-0.767212,0.295532,-0.00251282,-0.0340756,0.00329477,-0.00217256,-0.0344159,0.102909,0.0222551,0.0454356,895,1555,-0.767207,-0.295526
-322,-531,-0.851746,0.133423,0,0,0,0,0,0,0,-1,902,1555,-0.851766,-0.133367
-315,-531,-0.0144653,-0.0269775,-0.00855288,-0.0467264,0.0131394,-0.00446751,-0.0508117,0.30145,0.0324879,0.0465856,909,1555,-0.0144864,0.0270293
-308,-531,-0.204712,-0.32251,-0.0126209,-0.0507087,0.0191131,-0.00468363,-0.058646,0.393606,0.0376334,0.0417422,916,1555,-0.204714,0.322495
-301,-531,-0.204102,-0.283569,0,0,0,0,0,0,0,-1,923,1555,-0.204105,0.283578
-294,-531,-0.191772,0.149292,-0.00449148,-0.0485451,0.0215242,0.00427898,-0.0573155,0.386929,0.0397136,0.043385,930,1555,-0.191761,-0.149294
-287,-531,-0.274597,0.426392,0.000701763,-0.0467274,0.0232268,0.0101815,-0.0562072,0.387504,0.041286,0.0458884,937,1555,-0.274602,-0.426385
-280,-531,-0.19104,0.186279,0.0101929,-0.0425776,0.0227526,0.0186482,-0.0510328,0.355802,0.0416535,0.0431393,944,1555,-0.191066,-0.186228
-273,-531,-0.0344238,0.112549,0.0261866,-0.0349642,0.0197821,0.032028,-0.0408056,0.287129,0.0421522,0.0422267,951,1555,-0.0343984,-0.112551
-266,-531,0.107605,-0.024292,0.0512666,-0.025581,0.0135721,0.0535931,-0.0279075,0.169771,0.047827,0.0417193,958,1555,0.107581,0.0243437
-259,-531,0,0,0,0,0,0,0,0,0,-1,965,1555,0,0
-252,-531,0,0,0,0,0,0,0,0,0,-1,972,1555,0,0
-245,-531,0,0,0,0,0,0,0,0,0,-1,979,1555,0,0
-238,-531,0,0,0,0,0,0,0,0,0,-1,986,1555,0,0
-231,-531,0,0,0,0,0,0,0,0,0,-1,993,1555,0,0
-224,-531,0,0,0,0,0,0,0,0,0,-1,1000,1555,0,0
-217,-531,0,0,0,0,0,0,0,0,0,-1,1007,1555,0,0
-210,-531,0,0,0,0,0,0,0,0,0,-1,1014,1555,0,0
-203,-531,0,0,0,0,0,0,0,0,0,-1,1021,1555,0,0
-196,-531,0,0,0,0,0,0,0,0,0,-1,1028,1555,0,0
-189,-531,0,0,0,0,0,0,0,0,0,-1,1035,1555,0,0
-182,-531,0,0,0,0,0,0,0,0,0,-1,1042,1555,0,0
-175,-531,0,0,0,0,0,0,0,0,0,-1,1049,1555,0,0
-168,-531,0,0,0,0,0,0,0,0,0,-1,1056,1555,0,0
-161,-531,0,0,0,0,0,0,0,0,0,-1,1063,1555,0,0
-154,-531,0,0,0,0,0,0,0,0,0,-1,1070,1555,0,0
-147,-531,0,0,0,0,0,0,0,0,0,-1,1077,1555,0,0
-140,-531,0,0,0,0,0,0,0,0,0,-1,1084,1555,0,0
-133,-531,0,0,0,0,0,0,0,0,0,-1,1091,1555,0,0
-126,-531,0,0,0,0,0,0,0,0,0,-1,1098,1555,0,0
-119,-531,0,0,0,0,0,0,0,0,0,-1,1105,1555,0,0
-112,-531,0,0,0,0,0,0,0,0,0,-1,1112,1555,0,0
-105,-531,0,0,0,0,0,0,0,0,0,-1,1119,1555,0,0
-98,-531,0,0,0,0,0,0,0,0,0,-1,1126,1555,0,0
-91,-531,0,0,0,0,0,0,0,0,0,-1,1133,1555,0,0
-84,-531,0,0,0,0,0,0,0,0,0,-1,1140,1555,0,0
-77,-531,0,0,0,0,0,0,0,0,0,-1,1147,1555,0,0
-70,-531,0,0,0,0,0,0,0,0,0,-1,1154,1555,0,0
-63,-531,0,0,0,0,0,0,0,0,0,-1,1161,1555,0,0
-56,-531,0,0,0,0,0,0,0,0,0,-1,1168,1555,0,0
-49,-531,0,0,0,0,0,0,0,0,0,-1,1175,1555,0,0
-42,-531,0,0,0,0,0,0,0,0,0,-1,1182,1555,0,0
-35,-531,0,0,0,0,0,0,0,0,0,-1,1189,1555,0,0
-28,-531,0,0,0,0,0,0,0,0,0,-1,1196,1555,0,0
-21,-531,0,0,0,0,0,0,0,0,0,-1,1203,1555,0,0
-14,-531,0,0,0,0,0,0,0,0,0,-1,1210,1555,0,0
-7,-531,0,0,0,0,0,0,0,0,0,-1,1217,1555,0,0
0,-531,0,0,0,0,0,0,0,0,0,-1,1224,1555,0,0
7,-531,0,0,0,0,0,0,0,0,0,-1,1231,1555,0,0
14,-531,0,0,0,0,0,0,0,0,0,-1,1238,1555,0,0
21,-531,0,0,0,0,0,0,0,0,0,-1,1245,1555,0,0
28,-531,0,0,0,0,0,0,0,0,0,-1,1252,1555,0,0
35,-531,0,0,0,0,0,0,0,0,0,-1,1259,1555,0,0
42,-531,0,0,0,0,0,0,0,0,0,-1,1266,1555,0,0
49,-531,0,0,0,0,0,0,0,0,0,-1,1273,1555,0,0
56,-531,0,0,0,0,0,0,0,0,0,-1,1280,1555,0,0
63,-531,0,0,0,0,0,0,0,0,0,-1,1287,1555,0,0
70,-531,0,0,0,0,0,0,0,0,0,-1,1294,1555,0,0
77,-531,0,0,0,0,0,0,0,0,0,-1,1301,1555,0,0
84,-531,0,0,0,0,0,0,0,0,0,-1,1308,1555,0,0
91,-531,0,0,0,0,0,0,0,0,0,-1,1315,1555,0,0
98,-531,0,0,0,0,0,0,0,0,0,-1,1322,1555,0,0
105,-531,0,0,0,0,0,0,0,0,0,-1,1329,1555,0,0
112,-531,0,0,0,0,0,0,0,0,0,-1,1336,1555,0,0
119,-531,0,0,0,0,0,0,0,0,0,-1,1343,1555,0,0
126,-531,0,0,0,0,0,0,0,0,0,-1,1350,1555,0,0
133,-531,0,0,0,0,0,0,0,0,0,-1,1357,1555,0,0
140,-531,0,0,0,0,0,0,0,0,0,-1,1364,1555,0,0
147,-531,0,0,0,0,0,0,0,0,0,-1,1371,1555,0,0
154,-531,0,0,0,0,0,0,0,0,0,-1,1378,1555,0,0
161,-531,0,0,0,0,0,0,0,0,0,-1,1385,1555,0,0
168,-531,0,0,0,0,0,0,0,0,0,-1,1392,1555,0,0
175,-531,0,0,0,0,0,0,0,0,0,-1,1399,1555,0,0
182,-531,0,0,0,0,0,0,0,0,0,-1,1406,1555,0,0
189,-531,0,0,0,0,0,0,0,0,0,-1,1413,1555,0,0
196,-531,0,0,0,0,0,0,0,0,0,-1,1420,1555,0,0
203,-531,0,0,0,0,0,0,0,0,0,-1,1427,1555,0,0
210,-531,0,0,0,0,0,0,0,0,0,-1,1434,1555,0,0
217,-531,0,0,0,0,0,0,0,0,0,-1,1441,1555,0,0
224,-531,0,0,0,0,0,0,0,0,0,-1,1448,1555,0,0
231,-531,0,0,0,0,0,0,0,0,0,-1,1455,1555,0,0
238,-531,0,0,0,0,0,0,0,0,0,-1,1462,1555,0,0
245,-531,0,0,0,0,0,0,0,0,0,-1,1469,1555,0,0
252,-531,0,0,0,0,0,0,0,0,0,-1,1476,1555,0,0
259,-531,0,0,0,0,0,0,0,0,0,-1,1483,1555,0,0
266,-531,0,0,0,0,0,0,0,0,0,-1,1490,1555,0,0
273,-531,0,0,0,0,0,0,0,0,0,-1,1497,1555,0,0
280,-531,0,0,0,0,0,0,0,0,0,-1,1504,1555,0,0
287,-531,0,0,0,0,0,0,0,0,0,-1,1511,1555,0,0
294,-531,0,0,0,0,0,0,0,0,0,-1,1518,1555,0,0
301,-531,0,0,0,0,0,0,0,0,0,-1,1525,1555,0,0
308,-531,0,0,0,0,0,0,0,0,0,-1,1532,1555,0,0
315,-531,0,0,0,0,0,0,0,0,0,-1,1539,1555,0,0
322,-531,0,0,0,0,0,0,0,0,0,-1,1546,1555,0,0
329,-531,0,0,0,0,0,0,0,0,0,-1,1553,1555,0,0
336,-531,0,0,0,0,0,0,0,0,0,-1,1560,1555,0,0
343,-531,0,0,0,0,0,0,0,0,0,-1,1567,1555,0,0
350,-531,0,0,0,0,0,0,0,0,0,-1,1574,1555,0,0
357,-531,0,0,0,0,0,0,0,0,0,-1,1581,1555,0,0
364,-531,0,0,0,0,0,0,0,0,0,-1,1588,1555,0,0
371,-531,0,0,0,0,0,0,0,0,0,-1,1595,1555,0,0
378,-531,0,0,0,0,0,0,0,0,0,-1,1602,1555,0,0
385,-531,-1.29602,1.23474,0,0,0,0,0,0,0,-1,1609,1555,-1.296,-1.23477
392,-531,-1.83606,0.418945,-0.0224723,0.0163576,0.0242504,0.0280075,-0.0341222,1.12295,0.0359284,0.0476727,1616,1555,-1.83601,-0.418939
399,-531,-1.82288,0.443359,-0.0124371,0.0175683,0.0197042,0.0273313,-0.0222,1.11078,0.028648,0.042255,1623,1555,-1.82284,-0.443366
406,-531,-2.0603,0.638306,-0.00571809,0.0182869,0.0168046,0.0269352,-0.0143664,1.09551,0.0242107,0.0461499,1630,1555,-2.06032,-0.63829
413,-531,-2.29834,0.81311,0,0,0,0,0,0,0,-1,1637,1555,-2.29833,-0.813122
420,-531,3.86121,1.82996,0,0,0,0,0,0,0,-1,1644,1555,3.86124,-1.82995
427,-531,-1.69775,1.44666,0,0,0,0,0,0,0,-1,1651,1555,-1.6978,-1.44665
434,-531,-0.956909,1.49951,0.0101863,0.0234801,0.0144242,0.0327152,0.000951208,1.0013,0.0215001,0.0472632,1658,1555,-0.956922,-1.49953
441,-531,-0.418823,1.9729,0.0114564,0.0226006,0.0119444,0.0302087,0.00384829,1.00365,0.0189868,0.0463829,1665,1555,-0.41881,-1.97289
448,-531,-0.00854492,1.93091,0.0107213,0.0208842,0.00956399,0.0266328,0.00497265,1.02959,0.0163517,0.0436075,1672,1555,-0.00854424,-1.93088
455,-531,0.422607,1.50134,0.00948014,0.0188705,0.00646809,0.0221679,0.00618276,1.09935,0.0132091,0.0456053,1679,1555,0.422649,-1.50133
462,-531,0.667603,0.735107,0,0,0,0,0,0,0,-1,1686,1555,0.667648,-0.735139
469,-531,0.59729,1.22546,0,0,0,0,0,0,0,-1,1693,1555,0.597231,-1.22548
476,-531,-0.0570068,0.043457,0,0,0,0,0,0,0,-1,1700,1555,-0.0569561,-0.0434161
483,-531,-0.171753,-0.0456543,0.00407886,0.00836979,0.00124275,0.00870373,0.00374492,1.30829,0.00504136,0.0333521,1707,1555,-0.171745,0.045624
490,-531,-0.136108,-0.0279541,0.00335585,0.00626982,0.000833818,0.00649154,0.00313413,1.3109,0.00374863,0.0244657,1714,1555,-0.136163,0.0279797
497,-531,-0.0932617,-0.0684814,0.00295595,0.00491666,0.000161014,0.0049298,0.00294282,1.4894,0.002864,0.0123338,1721,1555,-0.0933013,0.0685023
504,-531,-0.0804443,-0.0723877,0.00274978,0.00288451,0.00026956,0.003095,0.0025393,0.907843,0.0019053,0.0097998,1728,1555,-0.0803977,0.0723418
511,-531,-0.072998,-0.0561523,0.00256709,0.00265099,0.000247175,0.00285975,0.00235833,0.869462,0.00176329,0.012703,1735,1555,-0.0730587,0.0561479
518,-531,-0.0837402,-0.0552979,0.00214518,0.00193223,-8.70159e-05,0.00217621,0.00190119,-0.342586,0.00136838,0.0143109,1742,1555,-0.0837698,0.055352
525,-531,-0.0733643,-0.0612793,0.00127587,0.00172622,-0.00030224,0.00187794,0.00112415,-1.10555,0.00109124,0.0134012,1749,1555,-0.0733142,0.0613403
532,-531,-0.0269775,-0.0715332,0.000439366,0.00127503,-0.000456968,0.0014764,0.000238003,-1.15574,0.000915303,0.00960921,1756,1555,-0.027033,0.0715289
539,-531,-0.0412598,-0.0830078,-0.000285089,0.00104734,-0.000496617,0.00121207,-0.00044982,-1.25051,0.000992566,0.011067,1763,1555,-0.0412982,0.0830555
546,-531,-0.0640869,-0.088623,-0.000746441,0.000880493,-0.000302922,0.000935064,-0.000801012,-1.39256,0.00100332,0.0146999,1770,1555,-0.0640953,0.0886671
553,-531,-0.0472412,-0.0623779,-0.00103215,0.000298137,5.23696e-05,0.000300195,-0.0010342,1.53151,0.000808334,0.0286681,1777,1555,-0.0472575,0.0623301
560,-531,-0.0134277,-0.0350342,-0.00104618,-0.000386754,0.000521206,-9.97277e-05,-0.0013332,1.06742,0.000857495,0.029404,1784,1555,-0.0134869,0.0350735
567,-531,-0.10437,-0.0482178,-0.000877727,-0.000933918,0.000876239,-2.91337e-05,-0.00178251,0.769372,0.00117875,0.0169504,1791,1555,-0.104403,0.0481646
574,-531,-0.072876,-0.0445557,-0.000971857,-0.00135635,0.00119552,4.67763e-05,-0.00237498,0.705678,0.00159914,0.011253,1798,1555,-0.0728559,0.0445373
581,-531,-0.0579834,-0.0615234,-0.00109681,-0.00242977,0.00126949,-0.000329487,-0.00319709,0.543674,0.0020305,0.00998687,1805,1555,-0.0579521,0.0615642
588,-531,-0.0428467,-0.088623,-0.00144881,-0.0030412,0.00104469,-0.00093149,-0.00355851,0.459788,0.00213083,0.0129344,1812,1555,-0.0428842,0.0886601
595,-531,-0.0302734,-0.105835,-0.0024138,-0.00329684,0.000740824,-0.0019929,-0.00371774,0.516666,0.0021483,0.0260832,1819,1555,-0.0302255,0.105896
602,-531,0.092041,-0.0324707,-0.00387744,-0.00343598,0.000355668,-0.00323811,-0.0040753,1.06311,0.00248526,0.0358045,1826,1555,0.0919834,0.0324713
609,-531,0.00463867,0.150391,-0.00595703,-0.00299318,-7.10077e-05,-0.00299148,-0.00595873,-1.54686,0.00344028,0.0354488,1833,1555,0.00464384,-0.15034
616,-531,0.277954,0.39624,-0.00861392,-0.0027963,-0.00129119,-0.0025226,-0.00888762,-1.36192,0.0052887,0.0359169,1840,1555,0.277971,-0.396203
623,-531,0.155151,0.213501,0,0,0,0,0,0,0,-1,1847,1555,0.155135,-0.213488
630,-531,-0.1521,-0.0994873,-0.0171986,0.000327348,-0.00461374,0.00146772,-0.018339,-1.32848,0.0127435,0.0414234,1854,1555,-0.152112,0.0994732
637,-531,-0.0922852,-0.680298,-0.0228992,0.0032921,-0.00651441,0.00482292,-0.0244301,-1.33999,0.0181097,0.0442863,1861,1555,-0.0922327,0.680246
644,-531,0,0,0,0,0,0,0,0,0,-1,1868,1555,0,0
651,-531,0,0,0,0,0,0,0,0,0,-1,1875,1555,0,0
658,-531,0,0,0,0,0,0,0,0,0,-1,1882,1555,0,0
665,-531,0,0,0,0,0,0,0,0,0,-1,1889,1555,0,0
672,-531,0,0,0,0,0,0,0,0,0,-1,1896,1555,0,0
679,-531,0,0,0,0,0,0,0,0,0,-1,1903,1555,0,0
686,-531,0,0,0,0,0,0,0,0,0,-1,1910,1555,0,0
693,-531,0,0,0,0,0,0,0,0,0,-1,1917,1555,0,0
700,-531,0,0,0,0,0,0,0,0,0,-1,1924,1555,0,0
707,-531,0,0,0,0,0,0,0,0,0,-1,1931,1555,0,0
714,-531,0,0,0,0,0,0,0,0,0,-1,1938,1555,0,0
721,-531,0,0,0,0,0,0,0,0,0,-1,1945,1555,0,0
728,-531,0,0,0,0,0,0,0,0,0,-1,1952,1555,0,0
735,-531,0,0,0,0,0,0,0,0,0,-1,1959,1555,0,0
742,-531,0,0,0,0,0,0,0,0,0,-1,1966,1555,0,0
749,-531,0,0,0,0,0,0,0,0,0,-1,1973,1555,0,0
756,-531,0,0,0,0,0,0,0,0,0,-1,1980,1555,0,0
763,-531,0,0,0,0,0,0,0,0,0,-1,1987,1555,0,0
770,-531,0,0,0,0,0,0,0,0,0,-1,1994,1555,0,0
777,-531,0,0,0,0,0,0,0,0,0,-1,2001,1555,0,0
784,-531,0,0,0,0,0,0,0,0,0,-1,2008,1555,0,0
791,-531,0,0,0,0,0,0,0,0,0,-1,2015,1555,0,0
798,-531,0,0,0,0,0,0,0,0,0,-1,2022,1555,0,0
805,-531,0,0,0,0,0,0,0,0,0,-1,2029,1555,0,0
812,-531,0,0,0,0,0,0,0,0,0,-1,2036,1555,0,0
-700,-538,0,0,0,0,0,0,0,0,0,-1,524,1562,0,0
-693,-538,0,0,0,0,0,0,0,0,0,-1,531,1562,0,0
-686,-538,0,0,0,0,0,0,0,0,0,-1,538,1562,0,0
-679,-538,0,0,0,0,0,0,0,0,0,-1,545,1562,0,0
-672,-538,0,0,0,0,0,0,0,0,0,-1,552,1562,0,0
-665,-538,0,0,0,0,0,0,0,0,0,-1,559,1562,0,0
-658,-538,0,0,0,0,0,0,0,0,0,-1,566,1562,0,0
-651,-538,0,0,0,0,0,0,0,0,0,-1,573,1562,0,0
-644,-538,0,0,0,0,0,0,0,0,0,-1,580,1562,0,0
-637,-538,0,0,0,0,0,0,0,0,0,-1,587,1562,0,0
-630,-538,0,0,0,0,0,0,0,0,0,-1,594,1562,0,0
-623,-538,0,0,0,0,0,0,0,0,0,-1,601,1562,0,0
-616,-538,0,0,0,0,0,0,0,0,0,-1,608,1562,0,0
-609,-538,0,0,0,0,0,0,0,0,0,-1,615,1562,0,0
-602,-538,0,0,0,0,0,0,0,0,0,-1,622,1562,0,0
-595,-538,0,0,0,0,0,0,0,0,0,-1,629,1562,0,0
-588,-538,0,0,0,0,0,0,0,0,0,-1,636,1562,0,0
-581,-538,0,0,0,0,0,0,0,0,0,-1,643,1562,0,0
-574,-538,0,0,0,0,0,0,0,0,0,-1,650,1562,0,0
-567,-538,0,0,0,0,0,0,0,0,0,-1,657,1562,0,0
-560,-538,0,0,0,0,0,0,0,0,0,-1,664,1562,0,0
-553,-538,0,0,0,0,0,0,0,0,0,-1,671,1562,0,0
-546,-538,0,0,0,0,0,0,0,0,0,-1,678,1562,0,0
-539,-538,0,0,0,0,0,0,0,0,0,-1,685,1562,0,0
-532,-538,0,0,0,0,0,0,0,0,0,-1,692,1562,0,0
-525,-538,0,0,0,0,0,0,0,0,0,-1,699,1562,0,0
-518,-538,0,0,0,0,0,0,0,0,0,-1,706,1562,0,0
-511,-538,0.916077,0.928345,-0.0137557,0.0646857,-0.00798876,0.0654911,-0.0145611,-1.47033,0.0492374,0.0426231,713,1562,0.916055,-0.928348
-504,-538,0.49469,0.767212,-0.012061,0.0549203,-0.0113914,0.0568046,-0.0139453,-1.40687,0.0432737,0.0432898,720,1562,0.494712,-0.767177
-497,-538,0.226501,0.575195,-0.00982329,0.0458081,-0.0134171,0.048875,-0.0128901,-1.34608,0.0376234,0.0466192,727,1562,0.226472,-0.575185
-490,-538,-0.948853,1.27686,0,0,0,0,0,0,0,-1,734,1562,-0.948876,-1.27688
-483,-538,-0.685059,1.02173,-0.00488606,0.0301549,-0.0138457,0.0349654,-0.00969652,-1.23641,0.0271264,0.0483209,741,1562,-0.685061,-1.02177
-476,-538,-0.599182,0.533569,-0.00287072,0.0241249,-0.0128509,0.0292641,-0.00800985,-1.19037,0.0226563,0.0445101,748,1562,-0.599192,-0.533572
-469,-538,-0.412842,0.0401611,-0.00166806,0.0190573,-0.0110684,0.0238569,-0.00646767,-1.16164,0.0184425,0.0411477,755,1562,-0.412821,-0.0402025
-462,-538,-0.0286255,-0.274048,-0.000779846,0.0153146,-0.0092145,0.0195011,-0.00496639,-1.14434,0.014934,0.0396261,762,1562,-0.0286008,0.274075
-455,-538,0.0202637,-0.154175,0.00025838,0.0124482,-0.00777559,0.0162329,-0.00352638,-1.11781,0.0121689,0.036279,769,1562,0.0202625,0.154216
-448,-538,-0.0701904,-0.0584717,0.000914369,0.00942926,-0.00640838,0.0128655,-0.00252189,-1.0786,0.00952954,0.0146467,776,1562,-0.0701767,0.0584496
-441,-538,-0.072998,-0.0456543,0.000972926,0.00736614,-0.00489721,0.0100177,-0.00167862,-1.07455,0.0073026,0.0112308,783,1562,-0.0730195,0.045694
-434,-538,-0.0879517,-0.0618896,0.000824425,0.00655246,-0.00337729,0.00811661,-0.000739729,-1.13707,0.00567375,0.010228,790,1562,-0.0879235,0.0618837
-427,-538,-0.0942383,-0.0517578,7.64089e-05,0.00557929,-0.00194785,0.00619899,-0.000543286,-1.26278,0.00432514,0.0119595,797,1562,-0.0942494,0.051732
-420,-538,-0.098877,-0.0667725,-0.000126021,0.00465763,-0.00127285,0.00497523,-0.000443619,-1.32627,0.00347415,0.0155397,804,1562,-0.0988546,0.0667162
-413,-538,-0.0974121,-0.0567627,0.000330599,0.00373662,-0.000993441,0.0040052,6.20196e-05,-1.30676,0.0026497,0.0161763,811,1562,-0.0973939,0.0567798
-406,-538,-0.0753174,-0.0759277,0.000759093,0.00280461,-0.000930159,0.00316432,0.000399378,-1.20179,0.00198983,0.0135397,818,1562,-0.0753035,0.0759865
-399,-538,-0.0653076,-0.0533447,0.00120502,0.00174188,-0.00105221,0.00255936,0.000387539,-0.910287,0.00159285,0.0127819,825,1562,-0.0652875,0.0533471
-392,-538,-0.0784302,-0.0539551,0.00150461,0.000295278,-0.00124767,0.00228642,-0.000486527,-0.559757,0.00170969,0.0140772,832,1562,-0.0784465,0.0539014
-385,-538,-0.0990601,-0.0633545,0.00159886,-0.00095157,-0.00138076,0.00220318,-0.00155589,-0.412558,0.002181,0.0121572,839,1562,-0.0990718,0.0633128
-378,-538,-0.0817261,-0.0604248,0.00166546,-0.00247649,-0.00147301,0.00213589,-0.00294692,-0.309123,0.00294698,0.0100407,846,1562,-0.0817306,0.0603974
-371,-538,-0.0769043,-0.0701904,0.00177483,-0.00445979,-0.0015867,0.00215541,-0.00484037,-0.235409,0.00413698,0.0103405,853,1562,-0.0768876,0.0702502
-364,-538,-0.0858154,-0.0673828,0.00155682,-0.0065418,-0.00167862,0.00189096,-0.00687594,-0.19649,0.00532735,0.00885693,860,1562,-0.0857864,0.0673297
-357,-538,-0.0861816,-0.0853271,0.000926624,-0.00962888,-0.00133195,0.0010921,-0.00979436,-0.123604,0.00692238,0.0137616,867,1562,-0.0862022,0.0853307
-350,-538,-0.0997314,-0.101685,0.000246994,-0.0133822,-0.000404577,0.000258993,-0.0133942,-0.0296497,0.00901704,0.0275707,874,1562,-0.0997308,0.101663
-343,-538,-0.100403,-0.141113,-0.000616172,-0.01809,0.000665833,-0.000590838,-0.0181153,0.0380311,0.0118848,0.0381034,881,1562,-0.100393,0.141087
-336,-538,-0.159912,-0.385132,-0.00191134,-0.0224973,0.00208178,-0.00170292,-0.0227057,0.0997804,0.0146026,0.0362559,888,1562,-0.159897,0.385118
-329,-538,-0.273865,-0.410767,-0.00372201,-0.0273769,0.00410826,-0.00302882,-0.0280701,0.167156,0.01779,0.0368688,895,1562,-0.273836,0.410733
-322,-538,-0.0960083,-0.16333,-0.00658009,-0.0324645,0.00765629,-0.00448503,-0.0345595,0.267101,0.0216997,0.0400026,902,1562,-0.0960348,0.16334
-315,-538,0.0397949,0.677246,-0.00994512,-0.0372065,0.0128382,-0.00485108,-0.0423006,0.377733,0.0267305,0.0433009,909,1562,0.0397849,-0.677281
-308,-538,-0.494751,-0.608887,-0.0142502,-0.0398208,0.0181764,-0.00481283,-0.0492582,0.478895,0.0313579,0.0396939,916,1562,-0.494778,0.608923
-301,-538,-0.510681,0.219116,-0.0145631,-0.0365249,0.017664,-0.00474503,-0.046343,0.507303,0.0294414,0.042649,923,1562,-0.510651,-0.219116
-294,-538,-0.514404,0.954956,-0.00759292,-0.0351672,0.0189681,0.00206931,-0.0448295,0.471135,0.0305994,0.0458534,930,1562,-0.514428,-0.954964
-287,-538,-0.0910645,-0.151245,-0.00382396,-0.0325175,0.0198783,0.00634405,-0.0426855,0.472817,0.0307903,0.043268,937,1562,-0.0910876,0.151241
-280,-538,-0.848633,1.24695,0,0,0,0,0,0,0,-1,944,1562,-0.848636,-1.24697
-273,-538,-0.728455,1.08142,0.0155871,-0.0204953,0.0159583,0.0216323,-0.0265404,0.362107,0.0278606,0.0455895,951,1562,-0.728477,-1.08145
-266,-538,-2.44391,2.06897,0.034338,-0.0111725,0.0103857,0.036596,-0.0134305,0.214086,0.0298972,0.0451932,958,1562,-2.44392,-2.06898
-259,-538,-3.21094,2.45618,0.0605031,-0.00181044,0.00150799,0.0605395,-0.00184691,0.0241812,0.0409892,0.0458825,965,1562,-3.21091,-2.45617
-252,-538,0,0,0,0,0,0,0,0,0,-1,972,1562,0,0
-245,-538,0,0,0,0,0,0,0,0,0,-1,979,1562,0,0
-238,-538,0,0,0,0,0,0,0,0,0,-1,986,1562,0,0
-231,-538,0,0,0,0,0,0,0,0,0,-1,993,1562,0,0
-224,-538,0,0,0,0,0,0,0,0,0,-1,1000,1562,0,0
-217,-538,0,0,0,0,0,0,0,0,0,-1,1007,1562,0,0
-210,-538,0,0,0,0,0,0,0,0,0,-1,1014,1562,0,0
-203,-538,0,0,0,0,0,0,0,0,0,-1,1021,1562,0,0
-196,-538,0,0,0,0,0,0,0,0,0,-1,1028,1562,0,0
-189,-538,0,0,0,0,0,0,0,0,0,-1,1035,1562,0,0
-182,-538,0,0,0,0,0,0,0,0,0,-1,1042,1562,0,0
-175,-538,0,0,0,0,0,0,0,0,0,-1,1049,1562,0,0
-168,-538,0,0,0,0,0,0,0,0,0,-1,1056,1562,0,0
-161,-538,0,0,0,0,0,0,0,0,0,-1,1063,1562,0,0
-154,-538,0,0,0,0,0,0,0,0,0,-1,1070,1562,0,0
-147,-538,0,0,0,0,0,0,0,0,0,-1,1077,1562,0,0
-140,-538,0,0,0,0,0,0,0,0,0,-1,1084,1562,0,0
-133,-538,0,0,0,0,0,0,0,0,0,-1,1091,1562,0,0
-126,-538,0,0,0,0,0,0,0,0,0,-1,1098,1562,0,0
-119,-538,0,0,0,0,0,0,0,0,0,-1,1105,1562,0,0
-112,-538,0,0,0,0,0,0,0,0,0,-1,1112,1562,0,0
-105,-538,0,0,0,0,0,0,0,0,0,-1,1119,1562,0,0
-98,-538,0,0,0,0,0,0,0,0,0,-1,1126,1562,0,0
-91,-538,0,0,0,0,0,0,0,0,0,-1,1133,1562,0,0
-84,-538,0,0,0,0,0,0,0,0,0,-1,1140,1562,0,0
-77,-538,0,0,0,0,0,0,0,0,0,-1,1147,1562,0,0
-70,-538,0,0,0,0,0,0,0,0,0,-1,1154,1562,0,0
-63,-538,0,0,0,0,0,0,0,0,0,-1,1161,1562,0,0
-56,-538,0,0,0,0,0,0,0,0,0,-1,1168,1562,0,0
-49,-538,0,0,0,0,0,0,0,0,0,-1,1175,1562,0,0
-42,-538,0,0,0,0,0,0,0,0,0,-1,1182,1562,0,0
-35,-538,0,0,0,0,0,0,0,0,0,-1,1189,1562,0,0
-28,-538,0,0,0,0,0,0,0,0,0,-1,1196,1562,0,0
-21,-538,0,0,0,0,0,0,0,0,0,-1,1203,1562,0,0
-14,-538,0,0,0,0,0,0,0,0,0,-1,1210,1562,0,0
-7,-538,0,0,0,0,0,0,0,0,0,-1,1217,1562,0,0
0,-538,0,0,0,0,0,0,0,0,0,-1,1224,1562,0,0
7,-538,0,0,0,0,0,0,0,0,0,-1,1231,1562,0,0
14,-538,0,0,0,0,0,0,0,0,0,-1,1238,1562,0,0
21,-538,0,0,0,0,0,0,0,0,0,-1,1245,1562,0,0
28,-538,0,0,0,0,0,0,0,0,0,-1,1252,1562,0,0
35,-538,0,0,0,0,0,0,0,0,0,-1,1259,1562,0,0
42,-538,0,0,0,0,0,0,0,0,0,-1,1266,1562,0,0
49,-538,0,0,0,0,0,0,0,0,0,-1,1273,1562,0,0
56,-538,0,0,0,0,0,0,0,0,0,-1,1280,1562,0,0
63,-538,0,0,0,0,0,0,0,0,0,-1,1287,1562,0,0
70,-538,0,0,0,0,0,0,0,0,0,-1,1294,1562,0,0
77,-538,0,0,0,0,0,0,0,0,0,-1,1301,1562,0,0
84,-538,0,0,0,0,0,0,0,0,0,-1,1308,1562,0,0
91,-538,0,0,0,0,0,0,0,0,0,-1,1315,1562,0,0
98,-538,0,0,0,0,0,0,0,0,0,-1,1322,1562,0,0
105,-538,0,0,0,0,0,0,0,0,0,-1,1329,1562,0,0
112,-538,0,0,0,0,0,0,0,0,0,-1,1336,1562,0,0
119,-538,0,0,0,0,0,0,0,0,0,-1,1343,1562,0,0
126,-538,0,0,0,0,0,0,0,0,0,-1,1350,1562,0,0
133,-538,0,0,0,0,0,0,0,0,0,-1,1357,1562,0,0
140,-538,0,0,0,0,0,0,0,0,0,-1,1364,1562,0,0
147,-538,0,0,0,0,0,0,0,0,0,-1,1371,1562,0,0
154,-538,0,0,0,0,0,0,0,0,0,-1,1378,1562,0,0
161,-538,0,0,0,0,0,0,0,0,0,-1,1385,1562,0,0
168,-538,0,0,0,0,0,0,0,0,0,-1,1392,1562,0,0
175,-538,0,0,0,0,0,0,0,0,0,-1,1399,1562,0,0
182,-538,0,0,0,0,0,0,0,0,0,-1,1406,1562,0,0
189,-538,0,0,0,0,0,0,0,0,0,-1,1413,1562,0,0
196,-538,0,0,0,0,0,0,0,0,0,-1,1420,1562,0,0
203,-538,0,0,0,0,0,0,0,0,0,-1,1427,1562,0,0
210,-538,0,0,0,0,0,0,0,0,0,-1,1434,1562,0,0
217,-538,0,0,0,0,0,0,0,0,0,-1,1441,1562,0,0
224,-538,0,0,0,0,0,0,0,0,0,-1,1448,1562,0,0
231,-538,0,0,0,0,0,0,0,0,0,-1,1455,1562,0,0
238,-538,0,0,0,0,0,0,0,0,0,-1,1462,1562,0,0
245,-538,0,0,0,0,0,0,0,0,0,-1,1469,1562,0,0
252,-538,0,0,0,0,0,0,0,0,0,-1,1476,1562,0,0
259,-538,0,0,0,0,0,0,0,0,0,-1,1483,1562,0,0
266,-538,0,0,0,0,0,0,0,0,0,-1,1490,1562,0,0
273,-538,0,0,0,0,0,0,0,0,0,-1,1497,1562,0,0
280,-538,0,0,0,0,0,0,0,0,0,-1,1504,1562,0,0
287,-538,0,0,0,0,0,0,0,0,0,-1,1511,1562,0,0
294,-538,0,0,0,0,0,0,0,0,0,-1,1518,1562,0,0
301,-538,0,0,0,0,0,0,0,0,0,-1,1525,1562,0,0
308,-538,0,0,0,0,0,0,0,0,0,-1,1532,1562,0,0
315,-538,0,0,0,0,0,0,0,0,0,-1,1539,1562,0,0
322,-538,0,0,0,0,0,0,0,0,0,-1,1546,1562,0,0
329,-538,0,0,0,0,0,0,0,0,0,-1,1553,1562,0,0
336,-538,0,0,0,0,0,0,0,0,0,-1,1560,1562,0,0
343,-538,0,0,0,0,0,0,0,0,0,-1,1567,1562,0,0
350,-538,0,0,0,0,0,0,0,0,0,-1,1574,1562,0,0
357,-538,0,0,0,0,0,0,0,0,0,-1,1581,1562,0,0
364,-538,0,0,0,0,0,0,0,0,0,-1,1588,1562,0,0
371,-538,0,0,0,0,0,0,0,0,0,-1,1595,1562,0,0
378,-538,-0.988525,1.67407,-0.0256227,0.0252426,0.0139743,0.0288289,-0.0292091,1.31958,0.0335085,0.0475611,1602,1562,-0.988568,-1.67402
385,-538,-1.69104,0.922852,-0.0154778,0.0242087,0.0155503,0.0295759,-0.020845,1.23845,0.0292556,0.0491064,1609,1562,-1.69102,-0.922876
392,-538,-2.30103,0.398804,-0.0059671,0.0220217,0.0184261,0.0311652,-0.0151106,1.11017,0.0272481,0.0464575,1616,1562,-2.30108,-0.398836
399,-538,-2.89734,0.208984,0,0,0,0,0,0,0,-1,1623,1562,-2.8973,-0.20903
406,-538,2.03882,1.12439,0,0,0,0,0,0,0,-1,1630,1562,2.03879,-1.12441
413,-538,2.4635,1.66724,0,0,0,0,0,0,0,-1,1637,1562,2.46345,-1.66729
420,-538,2.93188,1.44727,0,0,0,0,0,0,0,-1,1644,1562,2.93185,-1.44722
427,-538,-2.56348,1.35681,0,0,0,0,0,0,0,-1,1651,1562,-2.56347,-1.35686
434,-538,-1.72852,1.54199,0.0137334,0.0244222,0.0133705,0.0334769,0.0046787,0.975528,0.0209334,0.0459732,1658,1562,-1.72848,-1.54203
441,-538,-0.897583,1.70728,0.0140139,0.022865,0.0111312,0.0304181,0.00646078,0.974608,0.018505,0.0428802,1665,1562,-0.897573,-1.70728
448,-538,-0.244019,1.47375,0.0126829,0.0205681,0.00908345,0.0265277,0.00672333,0.990152,0.0159244,0.0391801,1672,1562,-0.244067,-1.47374
455,-538,0.242188,0.901001,0.0109998,0.0181628,0.006266,0.0217986,0.00736394,1.04503,0.0128042,0.0401184,1679,1562,0.242133,-0.900991
462,-538,0.507813,0.239136,0.00822233,0.0157392,0.00344045,0.0170761,0.00688542,1.20017,0.00992027,0.0418961,1686,1562,0.507777,-0.239153
469,-538,-0.098999,0.0447998,0,0,0,0,0,0,0,-1,1693,1562,-0.0990053,-0.0447864
476,-538,-0.0734863,0.00512695,0.0043473,0.0097991,0.00122252,0.0100607,0.00408571,1.36,0.00584258,0.0386745,1700,1562,-0.0735189,-0.00509922
483,-538,-0.0388184,-0.0305176,0.00380892,0.00759881,0.0009055,0.00780404,0.00360369,1.34791,0.00451005,0.0224766,1707,1562,-0.0387893,0.030483
490,-538,-0.0466309,-0.0528564,0.00293486,0.00551881,0.000510811,0.00561612,0.00283755,1.38254,0.00324253,0.0113199,1714,1562,-0.0466002,0.0528122
497,-538,-0.0705566,-0.0621338,0.00245028,0.00417737,-0.000122479,0.00418601,0.00244164,-1.50035,0.00242795,0.00905684,1721,1562,-0.0705464,0.0620821
504,-538,-0.0665283,-0.0633545,0.0021779,0.0020801,-4.72729e-05,0.00219701,0.00206098,-0.38423,0.0014215,0.00847606,1728,1562,-0.0665186,0.0633925
511,-538,-0.069458,-0.069458,0.00195047,0.00194007,-7.87854e-05,0.00202423,0.00186631,-0.752419,0.00130005,0.00895646,1735,1562,-0.0695113,0.06945
518,-538,-0.0865479,-0.0712891,0.00165922,0.00142736,-0.000301382,0.0018662,0.00122038,-0.601789,0.00109434,0.00968497,1742,1562,-0.0865467,0.0712363
525,-538,-0.0882568,-0.0778809,0.000975253,0.00131891,-0.000481436,0.00165826,0.000635901,-0.956807,0.000966026,0.0107655,1749,1562,-0.0882814,0.0778517
532,-538,-0.0577393,-0.0755615,0.000246657,0.000951678,-0.000637457,0.0013276,-0.000129266,-1.03797,0.000931151,0.0116976,1756,1562,-0.0577824,0.0755396
539,-538,-0.0402832,-0.0653076,-0.000386565,0.000718479,-0.000612692,0.000990985,-0.000659072,-1.1523,0.000959064,0.0143599,1763,1562,-0.0402681,0.0652768
546,-538,-0.0395508,-0.0882568,-0.000853174,0.000607811,-0.00034459,0.000685007,-0.00093037,-1.35041,0.000936218,0.0170736,1770,1562,-0.0395711,0.0882389
553,-538,-0.0574951,-0.110229,-0.00122461,2.41651e-05,9.73734e-05,3.17121e-05,-0.00123216,1.49344,0.000832212,0.0274528,1777,1562,-0.0575511,0.11027
560,-538,-0.0557861,-0.104248,-0.00134493,-0.000695964,0.000650437,-0.000293565,-0.00174733,1.01677,0.00108041,0.0269903,1784,1562,-0.0557323,0.104195
567,-538,-0.0849609,-0.0495605,-0.00128918,-0.00127115,0.00111566,-0.000164464,-0.00239586,0.789438,0.00154534,0.0189414,1791,1562,-0.0850076,0.0495222
574,-538,-0.072876,-0.0522461,-0.00149712,-0.00173793,0.00161869,5.63485e-06,-0.00324069,0.748275,0.00216234,0.0108924,1798,1562,-0.0728954,0.052301
581,-538,-0.0532227,-0.0799561,-0.00174807,-0.0029416,0.00190645,-0.000347168,-0.0043425,0.633716,0.0027865,0.0123851,1805,1562,-0.0532671,0.0799169
588,-538,-0.052002,-0.14209,-0.00217638,-0.00373033,0.00190638,-0.000894719,-0.00501199,0.591892,0.00308662,0.0266537,1812,1562,-0.0520098,0.142029
595,-538,0.140991,0.117554,-0.00319131,-0.00418473,0.00183332,-0.00178861,-0.00558743,0.653107,0.00329476,0.0395997,1819,1562,0.140943,-0.117502
602,-538,0.260864,0.289551,-0.00468644,-0.00453272,0.00161684,-0.00299092,-0.00622824,0.809148,0.00359682,0.0431605,1826,1562,0.260898,-0.2896
609,-538,0.219727,0.337158,-0.00681393,-0.00431208,0.00117461,-0.00384705,-0.00727897,1.19382,0.00420479,0.0401347,1833,1562,0.219759,-0.337151
616,-538,0.460815,0.152344,-0.00960795,-0.00420802,-0.000123284,-0.00420521,-0.00961077,-1.54798,0.00556319,0.0349998,1840,1562,0.460863,-0.152374
623,-538,0.428589,-0.0766602,-0.0137537,-0.00306224,-0.00205096,-0.0026823,-0.0141336,-1.38762,0.00866777,0.0378141,1847,1562,0.428551,0.076716
630,-538,0.139771,0.329102,-0.0187212,-0.00124699,-0.0043056,-0.000243705,-0.0197245,-1.34186,0.0130692,0.043052,1854,1562,0.139725,-0.32906
637,-538,0,0,0,0,0,0,0,0,0,-1,1861,1562,0,0
644,-538,0,0,0,0,0,0,0,0,0,-1,1868,1562,0,0
651,-538,0,0,0,0,0,0,0,0,0,-1,1875,1562,0,0
658,-538,0,0,0,0,0,0,0,0,0,-1,1882,1562,0,0
665,-538,0,0,0,0,0,0,0,0,0,-1,1889,1562,0,0
672,-538,0,0,0,0,0,0,0,0,0,-1,1896,1562,0,0
679,-538,0,0,0,0,0,0,0,0,0,-1,1903,1562,0,0
686,-538,0,0,0,0,0,0,0,0,0,-1,1910,1562,0,0
693,-538,0,0,0,0,0,0,0,0,0,-1,1917,1562,0,0
700,-538,0,0,0,0,0,0,0,0,0,-1,1924,1562,0,0
707,-538,0,0,0,0,0,0,0,0,0,-1,1931,1562,0,0
714,-538,0,0,0,0,0,0,0,0,0,-1,1938,1562,0,0
721,-538,0,0,0,0,0,0,0,0,0,-1,1945,1562,0,0
728,-538,0,0,0,0,0,0,0,0,0,-1,1952,1562,0,0
735,-538,0,0,0,0,0,0,0,0,0,-1,1959,1562,0,0
742,-538,0,0,0,0,0,0,0,0,0,-1,1966,1562,0,0
749,-538,0,0,0,0,0,0,0,0,0,-1,1973,1562,0,0
756,-538,0,0,0,0,0,0,0,0,0,-1,1980,1562,0,0
763,-538,0,0,0,0,0,0,0,0,0,-1,1987,1562,0,0
770,-538,0,0,0,0,0,0,0,0,0,-1,1994,1562,0,0
777,-538,0,0,0,0,0,0,0,0,0,-1,2001,1562,0,0
784,-538,0,0,0,0,0,0,0,0,0,-1,2008,1562,0,0
791,-538,0,0,0,0,0,0,0,0,0,-1,2015,1562,0,0
798,-538,0,0,0,0,0,0,0,0,0,-1,2022,1562,0,0
805,-538,0,0,0,0,0,0,0,0,0,-1,2029,1562,0,0
812,-538,0,0,0,0,0,0,0,0,0,-1,2036,1562,0,0
-700,-545,0,0,0,0,0,0,0,0,0,-1,524,1569,0,0
-693,-545,0,0,0,0,0,0,0,0,0,-1,531,1569,0,0
-686,-545,0,0,0,0,0,0,0,0,0,-1,538,1569,0,0
-679,-545,0,0,0,0,0,0,0,0,0,-1,545,1569,0,0
-672,-545,0,0,0,0,0,0,0,0,0,-1,552,1569,0,0
-665,-545,0,0,0,0,0,0,0,0,0,-1,559,1569,0,0
-658,-545,0,0,0,0,0,0,0,0,0,-1,566,1569,0,0
-651,-545,0,0,0,0,0,0,0,0,0,-1,573,1569,0,0
-644,-545,0,0,0,0,0,0,0,0,0,-1,580,1569,0,0
-637,-545,0,0,0,0,0,0,0,0,0,-1,587,1569,0,0
-630,-545,0,0,0,0,0,0,0,0,0,-1,594,1569,0,0
-623,-545,0,0,0,0,0,0,0,0,0,-1,601,1569,0,0
-616,-545,0,0,0,0,0,0,0,0,0,-1,608,1569,0,0
-609,-545,0,0,0,0,0,0,0,0,0,-1,615,1569,0,0
-602,-545,0,0,0,0,0,0,0,0,0,-1,622,1569,0,0
-595,-545,0,0,0,0,0,0,0,0,0,-1,629,1569,0,0
-588,-545,0,0,0,0,0,0,0,0,0,-1,636,1569,0,0
-581,-545,0,0,0,0,0,0,0,0,0,-1,643,1569,0,0
-574,-545,0,0,0,0,0,0,0,0,0,-1,650,1569,0,0
-567,-545,0,0,0,0,0,0,0,0,0,-1,657,1569,0,0
-560,-545,0,0,0,0,0,0,0,0,0,-1,664,1569,0,0
-553,-545,0,0,0,0,0,0,0,0,0,-1,671,1569,0,0
-546,-545,0,0,0,0,0,0,0,0,0,-1,678,1569,0,0
-539,-545,0,0,0,0,0,0,0,0,0,-1,685,1569,0,0
-532,-545,0,0,0,0,0,0,0,0,0,-1,692,1569,0,0
-525,-545,0,0,0,0,0,0,0,0,0,-1,699,1569,0,0
-518,-545,0,0,0,0,0,0,0,0,0,-1,706,1569,0,0
-511,-545,0,0,0,0,0,0,0,0,0,-1,713,1569,0,0
-504,-545,0.301514,-0.524048,-0.0171574,0.0701145,-0.0112105,0.0715315,-0.0185744,-1.44506,0.054936,0.0439941,720,1569,0.301489,0.524017
-497,-545,0.105957,-0.410156,-0.0130705,0.0569816,-0.0144005,0.0598263,-0.0159152,-1.37576,0.046114,0.0481054,727,1569,0.105973,0.410193
-490,-545,-1.52515,1.82617,0,0,0,0,0,0,0,-1,734,1569,-1.52516,-1.82614
-483,-545,-1.06964,1.40283,-0.00608883,0.0369045,-0.0160507,0.0422357,-0.01142,-1.25012,0.0326367,0.047544,741,1569,-1.06961,-1.40277
-476,-545,0.778137,-1.10632,-0.00355566,0.0297398,-0.0152497,0.0356687,-0.0094845,-1.2,0.0274915,0.0443555,748,1569,0.778108,1.10637
-469,-545,0.407654,-0.807495,-0.00217984,0.0239213,-0.0134103,0.029583,-0.00784163,-1.1713,0.0227901,0.044435,755,1569,0.407658,0.807479
-462,-545,0.0437622,-0.276611,-0.00122748,0.0196237,-0.0113824,0.0246335,-0.00623729,-1.15617,0.0188486,0.0424028,762,1569,0.0437749,0.276585
-455,-545,0.00231934,-0.181396,-0.000174029,0.0163515,-0.00975823,0.0208753,-0.00469784,-1.1367,0.0157186,0.0407787,769,1569,0.00234983,0.181456
-448,-545,-0.0560303,-0.123657,0.00045998,0.0128316,-0.00814385,0.0168725,-0.00358097,-1.1102,0.0126126,0.0271986,776,1569,-0.056026,0.123661
-441,-545,-0.0731812,-0.0755615,0.000495829,0.0102171,-0.00636898,0.0133683,-0.00265539,-1.11134,0.00991655,0.0146059,783,1569,-0.0731895,0.0755085
-434,-545,-0.0778809,-0.0491943,0.000307973,0.00894876,-0.00458513,0.0109283,-0.00167157,-1.16324,0.00790188,0.0108631,790,1569,-0.0778729,0.049198
-427,-545,-0.0793457,-0.0396729,-0.000497963,0.0074748,-0.00282469,0.00837413,-0.00139729,-1.26256,0.00610208,0.0145776,797,1569,-0.0793497,0.0396265
-420,-545,-0.0964966,-0.0545654,-0.000740117,0.00614169,-0.00186291,0.00661362,-0.00121205,-1.32269,0.0048637,0.0206985,804,1569,-0.0964998,0.0545364
-413,-545,-0.095459,-0.0646973,-0.000334946,0.00480718,-0.00128878,0.0051121,-0.000639874,-1.33847,0.00364016,0.0212727,811,1569,-0.0954405,0.0647241
-406,-545,-0.0544434,-0.0751953,1.53787e-06,0.00342969,-0.000957059,0.00367878,-0.000247552,-1.31618,0.00253906,0.0162178,818,1569,-0.0544442,0.0751464
-399,-545,-0.0605469,-0.0695801,0.000342465,0.00205868,-0.000746319,0.00233782,6.33205e-05,-1.21288,0.00153787,0.0106821,825,1569,-0.0605771,0.0695585
-392,-545,-0.078125,-0.0578613,0.000542988,0.000434992,-0.000607625,0.00109901,-0.00012103,-0.741081,0.000776168,0.0105961,832,1569,-0.0780963,0.0578736
-385,-545,-0.0841675,-0.0532227,0.000540349,-0.000861436,-0.000490911,0.000695169,-0.00101626,-0.3055,0.000993872,0.00939116,839,1569,-0.0841957,0.0532224
-378,-545,-0.0894165,-0.0534668,0.000583846,-0.00219929,-0.000398141,0.000639681,-0.00225513,-0.139332,0.00175592,0.0116304,846,1569,-0.089435,0.0534178
-371,-545,-0.0929565,-0.0563965,0.000670135,-0.00378467,-0.000374593,0.000701415,-0.00381594,-0.083308,0.00280713,0.0149,853,1569,-0.0929334,0.0563909
-364,-545,-0.0800171,-0.0594482,0.000486862,-0.00524597,-0.000408419,0.000515813,-0.00527492,-0.0707658,0.00370055,0.00937224,860,1569,-0.080034,0.0594934
-357,-545,-0.0825806,-0.0635986,-7.8083e-05,-0.00762358,-5.66836e-05,-7.76572e-05,-0.007624,-0.00751168,0.00505698,0.00937442,867,1569,-0.0825887,0.063543
-350,-545,-0.0975952,-0.0805664,-0.000664023,-0.0105236,0.000763171,-0.0006053,-0.0105823,0.0767945,0.00686201,0.0129142,874,1569,-0.0976146,0.0805921
-343,-545,-0.128174,-0.0827637,-0.00144336,-0.0142251,0.00164082,-0.00123608,-0.0144324,0.125658,0.00923717,0.0200428,881,1569,-0.128195,0.0827693
-336,-545,-0.12262,-0.100342,-0.0026649,-0.0176342,0.00280209,-0.00215757,-0.0181415,0.179113,0.0114431,0.0256872,888,1569,-0.122624,0.100379
-329,-545,-0.0674438,-0.114746,-0.00442733,-0.0214161,0.00444635,-0.00333399,-0.0225095,0.241114,0.0140277,0.0332349,895,1569,-0.0674703,0.114732
-322,-545,-0.122375,-0.139282,-0.00712972,-0.0253916,0.00744994,-0.00447611,-0.0280452,0.342181,0.0173978,0.0409773,902,1569,-0.12236,0.139234
-315,-545,-0.235535,-0.376709,-0.0103553,-0.0290165,0.0119071,-0.00455848,-0.0348133,0.453064,0.0218485,0.0447683,909,1569,-0.235522,0.376687
-308,-545,-0.617249,0.17041,-0.0145524,-0.0307887,0.0165689,-0.00421969,-0.0411214,0.557605,0.0261215,0.046028,916,1569,-0.617275,-0.170358
-301,-545,-0.577881,1.0072,-0.015036,-0.0269363,0.0155703,-0.00431772,-0.0376546,0.602887,0.0237948,0.0485133,923,1569,-0.577904,-1.00722
-294,-545,-0.331421,-0.872559,0,0,0,0,0,0,0,-1,930,1569,-0.331423,0.872599
-287,-545,-0.427734,-0.173462,-0.00638687,-0.0221708,0.0166718,0.00416654,-0.0327242,0.564338,0.0233293,0.0432388,937,1569,-0.427762,0.173426
-280,-545,-1.52167,0.597412,-0.0010166,-0.0178458,0.0156166,0.0083081,-0.0271705,0.538287,0.0214268,0.044539,944,1569,-1.52168,-0.597375
-273,-545,-2.51758,1.02942,0.00808385,-0.0110144,0.012811,0.014513,-0.0174436,0.465127,0.018476,0.0461699,951,1569,-2.5176,-1.02945
-266,-545,-3.28455,1.58008,0.0217322,-0.00260109,0.00816855,0.02422,-0.00508888,0.295632,0.0180832,0.0470995,958,1569,-3.28453,-1.58007
-259,-545,-4.07751,2.02026,0.0404073,0.00500371,0.00086549,0.0404285,0.00498257,0.0244269,0.0254545,0.044635,965,1569,-4.0775,-2.0202
-252,-545,-5.05334,2.27869,0.0641034,0.0104319,-0.00912263,0.0656116,0.00892374,-0.163844,0.0410907,0.0470089,972,1569,-5.05337,-2.2787
-245,-545,0.621277,0.0905762,0.0944356,0.013933,-0.0218408,0.0999793,0.00838919,-0.248576,0.0640399,0.0481762,979,1569,0.621306,-0.0906261
-238,-545,0,0,0,0,0,0,0,0,0,-1,986,1569,0,0
-231,-545,0,0,0,0,0,0,0,0,0,-1,993,1569,0,0
-224,-545,0,0,0,0,0,0,0,0,0,-1,1000,1569,0,0
-217,-545,0,0,0,0,0,0,0,0,0,-1,1007,1569,0,0
-210,-545,0,0,0,0,0,0,0,0,0,-1,1014,1569,0,0
-203,-545,0,0,0,0,0,0,0,0,0,-1,1021,1569,0,0
-196,-545,0,0,0,0,0,0,0,0,0,-1,1028,1569,0,0
-189,-545,0,0,0,0,0,0,0,0,0,-1,1035,1569,0,0
-182,-545,0,0,0,0,0,0,0,0,0,-1,1042,1569,0,0
-175,-545,0,0,0,0,0,0,0,0,0,-1,1049,1569,0,0
-168,-545,0,0,0,0,0,0,0,0,0,-1,1056,1569,0,0
-161,-545,0,0,0,0,0,0,0,0,0,-1,1063,1569,0,0
-154,-545,0,0,0,0,0,0,0,0,0,-1,1070,1569,0,0
-147,-545,0,0,0,0,0,0,0,0,0,-1,1077,1569,0,0
-140,-545,0,0,0,0,0,0,0,0,0,-1,1084,1569,0,0
-133,-545,0,0,0,0,0,0,0,0,0,-1,1091,1569,0,0
-126,-545,0,0,0,0,0,0,0,0,0,-1,1098,1569,0,0
-119,-545,0,0,0,0,0,0,0,0,0,-1,1105,1569,0,0
-112,-545,0,0,0,0,0,0,0,0,0,-1,1112,1569,0,0
-105,-545,0,0,0,0,0,0,0,0,0,-1,1119,1569,0,0
-98,-545,0,0,0,0,0,0,0,0,0,-1,1126,1569,0,0
-91,-545,0,0,0,0,0,0,0,0,0,-1,1133,1569,0,0
-84,-545,0,0,0,0,0,0,0,0,0,-1,1140,1569,0,0
-77,-545,0,0,0,0,0,0,0,0,0,-1,1147,1569,0,0
-70,-545,0,0,0,0,0,0,0,0,0,-1,1154,1569,0,0
-63,-545,0,0,0,0,0,0,0,0,0,-1,1161,1569,0,0
-56,-545,0,0,0,0,0,0,0,0,0,-1,1168,1569,0,0
-49,-545,0,0,0,0,0,0,0,0,0,-1,1175,1569,0,0
-42,-545,0,0,0,0,0,0,0,0,0,-1,1182,1569,0,0
-35,-545,0,0,0,0,0,0,0,0,0,-1,1189,1569,0,0
-28,-545,0,0,0,0,0,0,0,0,0,-1,1196,1569,0,0
-21,-545,0,0,0,0,0,0,0,0,0,-1,1203,1569,0,0
-14,-545,0,0,0,0,0,0,0,0,0,-1,1210,1569,0,0
-7,-545,0,0,0,0,0,0,0,0,0,-1,1217,1569,0,0
0,-545,0,0,0,0,0,0,0,0,0,-1,1224,1569,0,0
7,-545,0,0,0,0,0,0,0,0,0,-1,1231,1569,0,0
14,-545,0,0,0,0,0,0,0,0,0,-1,1238,1569,0,0
21,-545,0,0,0,0,0,0,0,0,0,-1,1245,1569,0,0
28,-545,0,0,0,0,0,0,0,0,0,-1,1252,1569,0,0
35,-545,0,0,0,0,0,0,0,0,0,-1,1259,1569,0,0
42,-545,0,0,0,0,0,0,0,0,0,-1,1266,1569,0,0
49,-545,0,0,0,0,0,0,0,0,0,-1,1273,1569,0,0
56,-545,0,0,0,0,0,0,0,0,0,-1,1280,1569,0,0
63,-545,0,0,0,0,0,0,0,0,0,-1,1287,1569,0,0
70,-545,0,0,0,0,0,0,0,0,0,-1,1294,1569,0,0
77,-545,0,0,0,0,0,0,0,0,0,-1,1301,1569,0,0
84,-545,0,0,0,0,0,0,0,0,0,-1,1308,1569,0,0
91,-545,0,0,0,0,0,0,0,0,0,-1,1315,1569,0,0
98,-545,0,0,0,0,0,0,0,0,0,-1,1322,1569,0,0
105,-545,0,0,0,0,0,0,0,0,0,-1,1329,1569,0,0
112,-545,0,0,0,0,0,0,0,0,0,-1,1336,1569,0,0
119,-545,0,0,0,0,0,0,0,0,0,-1,1343,1569,0,0
126,-545,0,0,0,0,0,0,0,0,0,-1,1350,1569,0,0
133,-545,0,0,0,0,0,0,0,0,0,-1,1357,1569,0,0
140,-545,0,0,0,0,0,0,0,0,0,-1,1364,1569,0,0
147,-545,0,0,0,0,0,0,0,0,0,-1,1371,1569,0,0
154,-545,0,0,0,0,0,0,0,0,0,-1,1378,1569,0,0
161,-545,0,0,0,0,0,0,0,0,0,-1,1385,1569,0,0
168,-545,0,0,0,0,0,0,0,0,0,-1,1392,1569,0,0
175,-545,0,0,0,0,0,0,0,0,0,-1,1399,1569,0,0
182,-545,0,0,0,0,0,0,0,0,0,-1,1406,1569,0,0
189,-545,0,0,0,0,0,0,0,0,0,-1,1413,1569,0,0
196,-545,0,0,0,0,0,0,0,0,0,-1,1420,1569,0,0
203,-545,0,0,0,0,0,0,0,0,0,-1,1427,1569,0,0
210,-545,0,0,0,0,0,0,0,0,0,-1,1434,1569,0,0
217,-545,0,0,0,0,0,0,0,0,0,-1,1441,1569,0,0
224,-545,0,0,0,0,0,0,0,0,0,-1,1448,1569,0,0
231,-545,0,0,0,0,0,0,0,0,0,-1,1455,1569,0,0
238,-545,0,0,0,0,0,0,0,0,0,-1,1462,1569,0,0
245,-545,0,0,0,0,0,0,0,0,0,-1,1469,1569,0,0
252,-545,0,0,0,0,0,0,0,0,0,-1,1476,1569,0,0
259,-545,0,0,0,0,0,0,0,0,0,-1,1483,1569,0,0
266,-545,0,0,0,0,0,0,0,0,0,-1,1490,1569,0,0
273,-545,0,0,0,0,0,0,0,0,0,-1,1497,1569,0,0
280,-545,0,0,0,0,0,0,0,0,0,-1,1504,1569,0,0
287,-545,0,0,0,0,0,0,0,0,0,-1,1511,1569,0,0
294,-545,0,0,0,0,0,0,0,0,0,-1,1518,1569,0,0
301,-545,0,0,0,0,0,0,0,0,0,-1,1525,1569,0,0
308,-545,0,0,0,0,0,0,0,0,0,-1,1532,1569,0,0
315,-545,0,0,0,0,0,0,0,0,0,-1,1539,1569,0,0
322,-545,0,0,0,0,0,0,0,0,0,-1,1546,1569,0,0
329,-545,0,0,0,0,0,0,0,0,0,-1,1553,1569,0,0
336,-545,0,0,0,0,0,0,0,0,0,-1,1560,1569,0,0
343,-545,0,0,0,0,0,0,0,0,0,-1,1567,1569,0,0
350,-545,0,0,0,0,0,0,0,0,0,-1,1574,1569,0,0
357,-545,0,0,0,0,0,0,0,0,0,-1,1581,1569,0,0
364,-545,-0.509766,1.49951,-0.014803,0.0272524,0.00813309,0.0287705,-0.0163211,1.38627,0.0263623,0.0476818,1588,1569,-0.509728,-1.49946
371,-545,-0.589478,1.73132,-0.01196,0.0265151,0.00572169,0.0273479,-0.0127929,1.42625,0.0236777,0.0470655,1595,1569,-0.58946,-1.73135
378,-545,-1.28064,1.33801,-0.00786853,0.0264631,0.00607176,0.0275053,-0.00891072,1.40081,0.0219194,0.0462283,1602,1569,-1.28065,-1.33796
385,-545,-2.05505,0.624878,-0.00120658,0.0264845,0.00772398,0.0284933,-0.00321534,1.31636,0.020153,0.0459763,1609,1569,-2.0551,-0.624835
392,-545,-0.0561523,1.17725,0,0,0,0,0,0,0,-1,1616,1569,-0.056148,-1.17728
399,-545,0.36499,1.42737,0,0,0,0,0,0,0,-1,1623,1569,0.364966,-1.42736
406,-545,1.01489,1.43896,0.0134188,0.0257657,0.0121784,0.033246,0.00593851,1.01998,0.0204736,0.0460465,1630,1569,1.01489,-1.43902
413,-545,1.63489,1.51819,0.0163406,0.0257349,0.0129377,0.0348017,0.00727373,0.959528,0.0211967,0.0458855,1637,1569,1.63488,-1.51823
420,-545,1.94531,1.19165,0.0185741,0.0249969,0.0134873,0.0356498,0.00792119,0.902276,0.0216155,0.0452145,1644,1569,1.94531,-1.19169
427,-545,1.92322,0.990112,0,0,0,0,0,0,0,-1,1651,1569,1.92316,-0.990158
434,-545,-0.557861,0.922607,0.016449,0.0245882,0.0128446,0.0339925,0.00704478,0.938812,0.0207166,0.0454015,1658,1569,-0.557894,-0.92264
441,-545,-0.296143,1.22314,0.0159877,0.022557,0.0108968,0.0306535,0.00789125,0.931784,0.0183789,0.0419255,1665,1569,-0.296096,-1.22312
448,-545,-0.0782471,1.3396,0.0142351,0.0198526,0.0091667,0.0266313,0.00745653,0.934061,0.015864,0.0414426,1672,1569,-0.0782286,-1.33959
455,-545,0.298706,0.0822754,0,0,0,0,0,0,0,-1,1679,1569,0.298725,-0.0823325
462,-545,0.236084,0.0771484,0.00908182,0.0147253,0.00370337,0.0165594,0.00724768,1.11095,0.00958532,0.039153,1686,1569,0.236113,-0.0771277
469,-545,0.140503,0.0637207,0.0063013,0.0117,0.0022007,0.0124834,0.00551789,1.22881,0.00722346,0.0366332,1693,1569,0.140476,-0.0637589
476,-545,-0.0721436,-0.0185547,0.00448433,0.00897835,0.00129597,0.00932529,0.00413739,1.30922,0.00539533,0.0278438,1700,1569,-0.0720997,0.0185972
483,-545,-0.0603027,-0.0565186,0.00371437,0.00686755,0.000905534,0.0071091,0.00347282,1.31012,0.0041048,0.0122106,1707,1569,-0.060306,0.0564814
490,-545,-0.052124,-0.052124,0.00276139,0.0048597,0.000468932,0.00495973,0.00266136,1.36063,0.00286606,0.0106736,1714,1569,-0.0521796,0.0521712
497,-545,-0.0617676,-0.0383301,0.00217058,0.00360265,-0.000188248,0.00362698,0.00214625,-1.44225,0.00210576,0.0157722,1721,1569,-0.0618255,0.0383192
504,-545,-0.0592041,-0.0476074,0.00180672,0.00148833,-0.000205523,0.00190749,0.00138756,-0.455875,0.00113863,0.0135849,1728,1569,-0.0591804,0.0475877
511,-545,-0.064209,-0.0621338,0.00153627,0.00140538,-0.000286749,0.00176495,0.0011767,-0.6732,0.0010377,0.00966459,1735,1569,-0.0642316,0.0621525
518,-545,-0.0733643,-0.0825195,0.00131442,0.00102243,-0.000481193,0.00167128,0.000665571,-0.638107,0.000971552,0.0113714,1742,1569,-0.0733563,0.0825398
525,-545,-0.0706787,-0.081665,0.000741323,0.00101483,-0.00065723,0.00154939,0.000206771,-0.887974,0.000971364,0.0122045,1749,1569,-0.0706431,0.0817178
532,-545,-0.053833,-0.0689697,5.73957e-05,0.000735201,-0.000809714,0.00127408,-0.000481479,-0.983594,0.00104744,0.0122642,1756,1569,-0.0538562,0.0689746
539,-545,-0.0390625,-0.0698242,-0.000541122,0.000529094,-0.000742407,0.000909141,-0.00092117,-1.09766,0.00105674,0.0153517,1763,1569,-0.0391065,0.0697645
546,-545,-0.0419922,-0.0704346,-0.00103368,0.00049736,-0.000418138,0.000604113,-0.00114043,-1.32083,0.00102296,0.0174467,1770,1569,-0.041933,0.0704685
553,-545,-0.0643311,-0.105103,-0.00149905,-5.57569e-05,9.84692e-05,-4.90698e-05,-0.00150574,1.50299,0.000987874,0.0243836,1777,1569,-0.0642795,0.105087
560,-545,-0.0570068,-0.140015,-0.00175311,-0.000772091,0.000739843,-0.000374925,-0.00215027,1.07812,0.00132632,0.023646,1784,1569,-0.0570401,0.14002
567,-545,-0.0760498,-0.0751953,-0.00184789,-0.00135352,0.00133369,-0.000244301,-0.00295711,0.877028,0.00189523,0.0220864,1791,1569,-0.0760881,0.0752053
574,-545,-0.0759277,-0.0670166,-0.00220031,-0.00186621,0.00204216,1.57189e-05,-0.00408224,0.826208,0.00272674,0.0207814,1798,1569,-0.0759365,0.0670073
581,-545,-0.0949707,-0.164185,-0.00260471,-0.0031984,0.00259018,-0.000294421,-0.00550869,0.728345,0.00357836,0.0312517,1805,1569,-0.0949226,0.164178
588,-545,-0.155151,-0.348877,-0.00315148,-0.00419855,0.0028831,-0.000744766,-0.00660526,0.695583,0.00417744,0.0422706,1812,1569,-0.155143,0.348892
595,-545,0.0959473,-0.046875,-0.00429046,-0.00489968,0.00311235,-0.00146785,-0.00772229,0.736617,0.00473536,0.0412457,1819,1569,0.0959577,0.0469155
602,-545,0.148071,0.583618,-0.00581874,-0.00553402,0.00316617,-0.00250702,-0.00884575,0.807864,0.00526439,0.042122,1826,1569,0.148024,-0.583642
609,-545,0.172974,0.608398,-0.00795477,-0.00556731,0.00289768,-0.0036271,-0.00989498,0.980785,0.00578029,0.0390478,1833,1569,0.173006,-0.608367
616,-545,0.741089,0.0634766,0,0,0,0,0,0,0,-1,1840,1569,0.741077,-0.0634218
623,-545,0.504639,-0.633789,0,0,0,0,0,0,0,-1,1847,1569,0.504644,0.633812
630,-545,0,0,0,0,0,0,0,0,0,-1,1854,1569,0,0
637,-545,0,0,0,0,0,0,0,0,0,-1,1861,1569,0,0
644,-545,0,0,0,0,0,0,0,0,0,-1,1868,1569,0,0
651,-545,0,0,0,0,0,0,0,0,0,-1,1875,1569,0,0
658,-545,0,0,0,0,0,0,0,0,0,-1,1882,1569,0,0
665,-545,0,0,0,0,0,0,0,0,0,-1,1889,1569,0,0
672,-545,0,0,0,0,0,0,0,0,0,-1,1896,1569,0,0
679,-545,0,0,0,0,0,0,0,0,0,-1,1903,1569,0,0
686,-545,0,0,0,0,0,0,0,0,0,-1,1910,1569,0,0
693,-545,0,0,0,0,0,0,0,0,0,-1,1917,1569,0,0
700,-545,0,0,0,0,0,0,0,0,0,-1,1924,1569,0,0
707,-545,0,0,0,0,0,0,0,0,0,-1,1931,1569,0,0
714,-545,0,0,0,0,0,0,0,0,0,-1,1938,1569,0,0
721,-545,0,0,0,0,0,0,0,0,0,-1,1945,1569,0,0
728,-545,0,0,0,0,0,0,0,0,0,-1,1952,1569,0,0
735,-545,0,0,0,0,0,0,0,0,0,-1,1959,1569,0,0
742,-545,0,0,0,0,0,0,0,0,0,-1,1966,1569,0,0
749,-545,0,0,0,0,0,0,0,0,0,-1,1973,1569,0,0
756,-545,0,0,0,0,0,0,0,0,0,-1,1980,1569,0,0
763,-545,0,0,0,0,0,0,0,0,0,-1,1987,1569,0,0
770,-545,0,0,0,0,0,0,0,0,0,-1,1994,1569,0,0
777,-545,0,0,0,0,0,0,0,0,0,-1,2001,1569,0,0
784,-545,0,0,0,0,0,0,0,0,0,-1,2008,1569,0,0
791,-545,0,0,0,0,0,0,0,0,0,-1,2015,1569,0,0
798,-545,0,0,0,0,0,0,0,0,0,-1,2022,1569,0,0
805,-545,0,0,0,0,0,0,0,0,0,-1,2029,1569,0,0
812,-545,0,0,0,0,0,0,0,0,0,-1,2036,1569,0,0
-700,-552,0,0,0,0,0,0,0,0,0,-1,524,1576,0,0
-693,-552,0,0,0,0,0,0,0,0,0,-1,531,1576,0,0
-686,-552,0,0,0,0,0,0,0,0,0,-1,538,1576,0,0
-679,-552,0,0,0,0,0,0,0,0,0,-1,545,1576,0,0
-672,-552,0,0,0,0,0,0,0,0,0,-1,552,1576,0,0
-665,-552,0,0,0,0,0,0,0,0,0,-1,559,1576,0,0
-658,-552,0,0,0,0,0,0,0,0,0,-1,566,1576,0,0
-651,-552,0,0,0,0,0,0,0,0,0,-1,573,1576,0,0
-644,-552,0,0,0,0,0,0,0,0,0,-1,580,1576,0,0
-637,-552,0,0,0,0,0,0,0,0,0,-1,587,1576,0,0
-630,-552,0,0,0,0,0,0,0,0,0,-1,594,1576,0,0
-623,-552,0,0,0,0,0,0,0,0,0,-1,601,1576,0,0
-616,-552,0,0,0,0,0,0,0,0,0,-1,608,1576,0,0
-609,-552,0,0,0,0,0,0,0,0,0,-1,615,1576,0,0
-602,-552,0,0,0,0,0,0,0,0,0,-1,622,1576,0,0
-595,-552,0,0,0,0,0,0,0,0,0,-1,629,1576,0,0
-588,-552,0,0,0,0,0,0,0,0,0,-1,636,1576,0,0
-581,-552,0,0,0,0,0,0,0,0,0,-1,643,1576,0,0
-574,-552,0,0,0,0,0,0,0,0,0,-1,650,1576,0,0
-567,-552,0,0,0,0,0,0,0,0,0,-1,657,1576,0,0
-560,-552,0,0,0,0,0,0,0,0,0,-1,664,1576,0,0
-553,-552,0,0,0,0,0,0,0,0,0,-1,671,1576,0,0
-546,-552,0,0,0,0,0,0,0,0,0,-1,678,1576,0,0
-539,-552,0,0,0,0,0,0,0,0,0,-1,685,1576,0,0
-532,-552,0,0,0,0,0,0,0,0,0,-1,692,1576,0,0
-525,-552,0,0,0,0,0,0,0,0,0,-1,699,1576,0,0
-518,-552,0,0,0,0,0,0,0,0,0,-1,706,1576,0,0
-511,-552,0,0,0,0,0,0,0,0,0,-1,713,1576,0,0
-504,-552,0,0,0,0,0,0,0,0,0,-1,720,1576,0,0
-497,-552,0.44635,-1.69592,-0.0162362,0.0691672,-0.0156628,0.0719492,-0.0190181,-1.39502,0.0554044,0.0442123,727,1576,0.446345,1.69589
-490,-552,0.51355,-1.59473,0,0,0,0,0,0,0,-1,734,1576,0.513563,1.59467
-483,-552,0.544373,-0.48938,-0.00738653,0.0438987,-0.018113,0.0496507,-0.0131386,-1.2633,0.0382399,0.0438968,741,1576,0.544366,0.489396
-476,-552,0.380859,-0.375,-0.00436587,0.0355748,-0.0172673,0.0420047,-0.0107958,-1.21433,0.0322106,0.0405798,748,1576,0.380876,0.374964
-469,-552,0.16217,-0.290283,-0.00260731,0.0290164,-0.0153527,0.0352437,-0.00883454,-1.18546,0.0269281,0.0419272,755,1576,0.162143,0.29028
-462,-552,-0.00756836,-0.250977,-0.00139392,0.0242726,-0.013222,0.0298652,-0.00698658,-1.17064,0.0226019,0.0421409,762,1576,-0.00755176,0.250963
-455,-552,-0.0200195,-0.243896,-0.000231104,0.0206276,-0.0114179,0.0256624,-0.00526594,-1.15549,0.019107,0.0406749,769,1576,-0.0200168,0.243935
-448,-552,-0.136108,-0.0828857,0,0,0,0,0,0,0,-1,776,1576,-0.13612,0.0828705
-441,-552,-0.0940552,-0.0742188,0.00046973,0.0132508,-0.00759102,0.0167831,-0.00306257,-1.13527,0.0123369,0.0340512,783,1576,-0.0940275,0.0742323
-434,-552,-0.0655518,-0.0637207,0.000268499,0.0113415,-0.00565744,0.0137208,-0.00211077,-1.1727,0.00992588,0.0167816,790,1576,-0.0655234,0.0636716
-427,-552,-0.0651855,-0.0489502,-0.000532853,0.00920975,-0.00370828,0.0104606,-0.00178372,-1.24547,0.00763806,0.0126895,797,1576,-0.0651942,0.048946
-420,-552,-0.0791016,-0.0578613,-0.000810826,0.00734714,-0.00258083,0.00809503,-0.00155872,-1.28873,0.00598432,0.0170594,804,1576,-0.0790889,0.0578392
-413,-552,-0.0742188,-0.0791016,-0.000498625,0.00552743,-0.00181804,0.00603344,-0.00100463,-1.29934,0.00439561,0.0164227,811,1576,-0.0742362,0.0790744
-406,-552,-0.0634766,-0.0960693,-0.000282876,0.00369535,-0.0013438,0.00410673,-0.000694255,-1.27372,0.00299617,0.0131183,818,1576,-0.0634812,0.0960194
-399,-552,-0.0733032,-0.0938721,-6.61958e-05,0.0020332,-0.000919021,0.00237866,-0.000411655,-1.21124,0.00173931,0.0126542,825,1576,-0.0733003,0.0938274
-392,-552,-0.0736694,-0.0731201,5.75867e-06,0.00017324,-0.000590584,0.000685991,-0.000506992,-0.855825,0.000691349,0.0129948,832,1576,-0.0736825,0.0730744
-385,-552,-0.0753174,-0.0471191,-9.94747e-05,-0.00107633,-0.000327823,3.40631e-07,-0.00117614,-0.295561,0.000784209,0.0119558,839,1576,-0.0753229,0.0471009
-378,-552,-0.0882568,-0.0522461,-6.68723e-05,-0.00214043,-0.000133588,-5.83015e-05,-0.002149,-0.0640718,0.00141363,0.0135839,846,1576,-0.0882345,0.0521975
-371,-552,-0.0896606,-0.0705566,3.00346e-05,-0.00324783,-2.27147e-05,3.01921e-05,-0.00324799,-0.00692927,0.00217546,0.0186758,853,1576,-0.0896767,0.0705397
-364,-552,-0.0777588,-0.0672607,-0.000105436,-0.00404485,-9.69958e-06,-0.000105412,-0.00404487,-0.00246217,0.00266214,0.0146824,860,1576,-0.077739,0.0672617
-357,-552,-0.076416,-0.0535889,-0.000584063,-0.0057306,0.000361118,-0.000558848,-0.00575582,0.0697118,0.00366516,0.00952754,867,1576,-0.0763946,0.0535437
-350,-552,-0.0818481,-0.0610352,-0.00104099,-0.00782475,0.00105257,-0.000881424,-0.00798432,0.15045,0.00505475,0.00871911,874,1576,-0.0818577,0.0610207
-343,-552,-0.0884399,-0.0644531,-0.00169456,-0.0105655,0.00174714,-0.00136286,-0.0108972,0.187619,0.00685583,0.00855604,881,1576,-0.0884289,0.06449
-336,-552,-0.0535278,-0.0646973,-0.00281334,-0.0131181,0.00271478,-0.00214188,-0.0137895,0.242467,0.00856877,0.0118575,888,1576,-0.0535339,0.0646517
-329,-552,-0.00787354,-0.0577393,-0.00448238,-0.0160151,0.00406315,-0.00319465,-0.0173028,0.306914,0.0106315,0.0263105,895,1576,-0.00787988,0.057687
-322,-552,-0.210815,-0.14856,-0.00695329,-0.0191251,0.00658678,-0.00407126,-0.0220072,0.41245,0.0135202,0.0388569,902,1576,-0.210816,0.148512
-315,-552,-0.946289,0.152466,0,0,0,0,0,0,0,-1,909,1576,-0.946313,-0.152507
-308,-552,-0.849976,0.847046,0,0,0,0,0,0,0,-1,916,1576,-0.849981,-0.847028
-301,-552,0.0488281,-0.77832,0,0,0,0,0,0,0,-1,923,1576,0.04882,0.778378
-294,-552,-0.319336,-0.602051,-0.00964267,-0.0174175,0.0137051,0.000715704,-0.0277759,0.647205,0.0187604,0.0471258,930,1576,-0.319348,0.602046
-287,-552,-0.663391,-0.345337,-0.00778606,-0.0147561,0.0137975,0.00295977,-0.025502,0.661693,0.0180689,0.0447441,937,1576,-0.663364,0.345329
-280,-552,-1.22717,0.0107422,-0.00387,-0.0109396,0.0127799,0.00585495,-0.0206646,0.650476,0.0160872,0.0468241,944,1576,-1.22717,-0.0107303
-273,-552,-1.70953,0.218872,0,0,0,0,0,0,0,-1,951,1576,-1.70953,-0.218821
-266,-552,-4.10748,1.09973,0,0,0,0,0,0,0,-1,958,1576,-4.10747,-1.09968
-259,-552,0.4552,0.852661,0,0,0,0,0,0,0,-1,965,1576,0.455196,-0.852646
-252,-552,0.585205,0.648804,0.0432643,0.0122109,-0.00726626,0.0448804,0.0105948,-0.218855,0.0270884,0.0461902,972,1576,0.585195,-0.648798
-245,-552,0.390686,0.390503,0.0643261,0.0145145,-0.0169088,0.0695236,0.00931705,-0.298215,0.0435767,0.0475865,979,1576,0.390669,-0.390502
-238,-552,0.301514,0.113037,0.0883439,0.0132618,-0.0278347,0.0975372,0.00406852,-0.319003,0.0637119,0.0432161,986,1576,0.301529,-0.112998
-231,-552,0.0274658,0.0380859,0,0,0,0,0,0,0,-1,993,1576,0.0274862,-0.0381247
-224,-552,0,0,0,0,0,0,0,0,0,-1,1000,1576,0,0
-217,-552,0,0,0,0,0,0,0,0,0,-1,1007,1576,0,0
-210,-552,0,0,0,0,0,0,0,0,0,-1,1014,1576,0,0
-203,-552,0,0,0,0,0,0,0,0,0,-1,1021,1576,0,0
-196,-552,0,0,0,0,0,0,0,0,0,-1,1028,1576,0,0
-189,-552,0,0,0,0,0,0,0,0,0,-1,1035,1576,0,0
-182,-552,0,0,0,0,0,0,0,0,0,-1,1042,1576,0,0
-175,-552,0,0,0,0,0,0,0,0,0,-1,1049,1576,0,0
-168,-552,0,0,0,0,0,0,0,0,0,-1,1056,1576,0,0
-161,-552,0,0,0,0,0,0,0,0,0,-1,1063,1576,0,0
-154,-552,0,0,0,0,0,0,0,0,0,-1,1070,1576,0,0
-147,-552,0,0,0,0,0,0,0,0,0,-1,1077,1576,0,0
-140,-552,0,0,0,0,0,0,0,0,0,-1,1084,1576,0,0
-133,-552,0,0,0,0,0,0,0,0,0,-1,1091,1576,0,0
-126,-552,0,0,0,0,0,0,0,0,0,-1,1098,1576,0,0
-119,-552,0,0,0,0,0,0,0,0,0,-1,1105,1576,0,0
-112,-552,0,0,0,0,0,0,0,0,0,-1,1112,1576,0,0
-105,-552,0,0,0,0,0,0,0,0,0,-1,1119,1576,0,0
-98,-552,0,0,0,0,0,0,0,0,0,-1,1126,1576,0,0
-91,-552,0,0,0,0,0,0,0,0,0,-1,1133,1576,0,0
-84,-552,0,0,0,0,0,0,0,0,0,-1,1140,1576,0,0
-77,-552,0,0,0,0,0,0,0,0,0,-1,1147,1576,0,0
-70,-552,0,0,0,0,0,0,0,0,0,-1,1154,1576,0,0
-63,-552,0,0,0,0,0,0,0,0,0,-1,1161,1576,0,0
-56,-552,0,0,0,0,0,0,0,0,0,-1,1168,1576,0,0
-49,-552,0,0,0,0,0,0,0,0,0,-1,1175,1576,0,0
-42,-552,0,0,0,0,0,0,0,0,0,-1,1182,1576,0,0
-35,-552,0,0,0,0,0,0,0,0,0,-1,1189,1576,0,0
-28,-552,0,0,0,0,0,0,0,0,0,-1,1196,1576,0,0
-21,-552,0,0,0,0,0,0,0,0,0,-1,1203,1576,0,0
-14,-552,0,0,0,0,0,0,0,0,0,-1,1210,1576,0,0
-7,-552,0,0,0,0,0,0,0,0,0,-1,1217,1576,0,0
0,-552,0,0,0,0,0,0,0,0,0,-1,1224,1576,0,0
7,-552,0,0,0,0,0,0,0,0,0,-1,1231,1576,0,0
14,-552,0,0,0,0,0,0,0,0,0,-1,1238,1576,0,0
21,-552,0,0,0,0,0,0,0,0,0,-1,1245,1576,0,0
28,-552,0,0,0,0,0,0,0,0,0,-1,1252,1576,0,0
35,-552,0,0,0,0,0,0,0,0,0,-1,1259,1576,0,0
42,-552,0,0,0,0,0,0,0,0,0,-1,1266,1576,0,0
49,-552,0,0,0,0,0,0,0,0,0,-1,1273,1576,0,0
56,-552,0,0,0,0,0,0,0,0,0,-1,1280,1576,0,0
63,-552,0,0,0,0,0,0,0,0,0,-1,1287,1576,0,0
70,-552,0,0,0,0,0,0,0,0,0,-1,1294,1576,0,0
77,-552,0,0,0,0,0,0,0,0,0,-1,1301,1576,0,0
84,-552,0,0,0,0,0,0,0,0,0,-1,1308,1576,0,0
91,-552,0,0,0,0,0,0,0,0,0,-1,1315,1576,0,0
98,-552,0,0,0,0,0,0,0,0,0,-1,1322,1576,0,0
105,-552,0,0,0,0,0,0,0,0,0,-1,1329,1576,0,0
112,-552,0,0,0,0,0,0,0,0,0,-1,1336,1576,0,0
119,-552,0,0,0,0,0,0,0,0,0,-1,1343,1576,0,0
126,-552,0,0,0,0,0,0,0,0,0,-1,1350,1576,0,0
133,-552,0,0,0,0,0,0,0,0,0,-1,1357,1576,0,0
140,-552,0,0,0,0,0,0,0,0,0,-1,1364,1576,0,0
147,-552,0,0,0,0,0,0,0,0,0,-1,1371,1576,0,0
154,-552,0,0,0,0,0,0,0,0,0,-1,1378,1576,0,0
161,-552,0,0,0,0,0,0,0,0,0,-1,1385,1576,0,0
168,-552,0,0,0,0,0,0,0,0,0,-1,1392,1576,0,0
175,-552,0,0,0,0,0,0,0,0,0,-1,1399,1576,0,0
182,-552,0,0,0,0,0,0,0,0,0,-1,1406,1576,0,0
189,-552,0,0,0,0,0,0,0,0,0,-1,1413,1576,0,0
196,-552,0,0,0,0,0,0,0,0,0,-1,1420,1576,0,0
203,-552,0,0,0,0,0,0,0,0,0,-1,1427,1576,0,0
210,-552,0,0,0,0,0,0,0,0,0,-1,1434,1576,0,0
217,-552,0,0,0,0,0,0,0,0,0,-1,1441,1576,0,0
224,-552,0,0,0,0,0,0,0,0,0,-1,1448,1576,0,0
231,-552,0,0,0,0,0,0,0,0,0,-1,1455,1576,0,0
238,-552,0,0,0,0,0,0,0,0,0,-1,1462,1576,0,0
245,-552,0,0,0,0,0,0,0,0,0,-1,1469,1576,0,0
252,-552,0,0,0,0,0,0,0,0,0,-1,1476,1576,0,0
259,-552,0,0,0,0,0,0,0,0,0,-1,1483,1576,0,0
266,-552,0,0,0,0,0,0,0,0,0,-1,1490,1576,0,0
273,-552,0,0,0,0,0,0,0,0,0,-1,1497,1576,0,0
280,-552,0,0,0,0,0,0,0,0,0,-1,1504,1576,0,0
287,-552,0,0,0,0,0,0,0,0,0,-1,1511,1576,0,0
294,-552,0,0,0,0,0,0,0,0,0,-1,1518,1576,0,0
301,-552,0,0,0,0,0,0,0,0,0,-1,1525,1576,0,0
308,-552,0,0,0,0,0,0,0,0,0,-1,1532,1576,0,0
315,-552,0,0,0,0,0,0,0,0,0,-1,1539,1576,0,0
322,-552,0,0,0,0,0,0,0,0,0,-1,1546,1576,0,0
329,-552,0,0,0,0,0,0,0,0,0,-1,1553,1576,0,0
336,-552,0,0,0,0,0,0,0,0,0,-1,1560,1576,0,0
343,-552,0,0,0,0,0,0,0,0,0,-1,1567,1576,0,0
350,-552,0.216187,1.36707,0,0,0,0,0,0,0,-1,1574,1576,0.216184,-1.36705
357,-552,-0.0780029,1.26917,-0.00039318,0.0237735,0.00388291,0.024382,-0.00100173,1.41534,0.0165987,0.0458279,1581,1576,-0.0780323,-1.26916
364,-552,-0.380859,1.15027,-0.000700521,0.0241029,0.000517017,0.0241137,-0.000711294,1.54996,0.0163181,0.0457534,1588,1576,-0.380894,-1.1503
371,-552,-0.639282,1.00623,0.00102443,0.0246527,-0.00107674,0.0247017,0.000975464,-1.52535,0.0161524,0.0449498,1595,1576,-0.639262,-1.00622
378,-552,1.25293,-2.65515,0,0,0,0,0,0,0,-1,1602,1576,1.25296,2.65518
385,-552,-1.43213,0.943604,0,0,0,0,0,0,0,-1,1609,1576,-1.43219,-0.943558
392,-552,-0.991455,1.08252,0,0,0,0,0,0,0,-1,1616,1576,-0.991403,-1.08246
399,-552,-0.539307,1.29187,0,0,0,0,0,0,0,-1,1623,1576,-0.53936,-1.29185
406,-552,0.141113,1.43774,0.0180288,0.0270097,0.00804805,0.0317353,0.0133032,1.03986,0.018402,0.0445438,1630,1576,0.141143,-1.43773
413,-552,0.699341,1.2655,0.0202792,0.0266765,0.00958293,0.0335805,0.0133752,0.946478,0.0195209,0.0428329,1637,1576,0.699319,-1.26551
420,-552,1.11646,1.03027,0.0217355,0.0257311,0.010923,0.0348375,0.0126291,0.875848,0.0203653,0.0444357,1644,1576,1.11642,-1.03028
427,-552,1.5603,0.820068,0,0,0,0,0,0,0,-1,1651,1576,1.56032,-0.82011
434,-552,0.334473,0.150024,0,0,0,0,0,0,0,-1,1658,1576,0.334504,-0.150049
441,-552,0.333496,0.743286,0,0,0,0,0,0,0,-1,1665,1576,0.333469,-0.743318
448,-552,-0.0319824,-0.606445,0.0153522,0.0191332,0.00838859,0.0258417,0.00864373,0.896229,0.0151897,0.0400121,1672,1576,-0.0320357,0.606475
455,-552,-0.252075,-0.639038,0.013299,0.0162817,0.00611429,0.0210839,0.00849678,0.905021,0.0122489,0.0372757,1679,1576,-0.252111,0.639074
462,-552,-0.0471191,-0.185181,0.00993975,0.0137328,0.0035109,0.0158267,0.00784589,1.03303,0.00913764,0.0346911,1686,1576,-0.0471371,0.1852
469,-552,0.0206299,-0.00354004,0.00696771,0.0108552,0.00212823,0.0117937,0.00602919,1.15546,0.00680969,0.0272811,1693,1576,0.020682,0.00351089
476,-552,-0.0881348,-0.0325928,0.00492639,0.00824733,0.00128433,0.00868607,0.00448766,1.24162,0.00501583,0.0143702,1700,1576,-0.088174,0.0325928
483,-552,-0.0513916,-0.0509033,0.00397633,0.00626127,0.000932331,0.00659341,0.00364419,1.22857,0.00381375,0.013355,1707,1576,-0.0513356,0.050954
490,-552,-0.0466309,-0.0330811,0.00296445,0.00438522,0.000527553,0.00455968,0.00278998,1.25141,0.00265441,0.0145162,1714,1576,-0.0466668,0.0330879
497,-552,-0.0688477,-0.0125732,0.00227298,0.00320332,-5.16369e-05,0.00320617,0.00227012,-1.51552,0.00190375,0.020639,1721,1576,-0.0688345,0.0125412
504,-552,-0.0513916,-0.0308838,0.00178314,0.00115662,-0.000135907,0.00181135,0.00112841,-0.204671,0.00105627,0.0202597,1728,1576,-0.051436,0.0309373
511,-552,-0.0522461,-0.0716553,0.00138444,0.00110389,-0.000277291,0.00155492,0.000933416,-0.551232,0.000903734,0.014002,1735,1576,-0.0522439,0.071604
518,-552,-0.0517578,-0.0878906,0.00112559,0.000812118,-0.000459196,0.00145406,0.000483645,-0.620934,0.00085504,0.0119668,1742,1576,-0.0518134,0.0878804
525,-552,-0.052124,-0.0754395,0.000565625,0.0008384,-0.000665787,0.00138163,2.23996e-05,-0.886426,0.000913709,0.0119025,1749,1576,-0.0521726,0.0753965
532,-552,-0.0385742,-0.0679932,-0.000146901,0.000598595,-0.000842013,0.00114668,-0.000694983,-0.993776,0.00107389,0.0128765,1756,1576,-0.0385624,0.0679982
539,-552,-0.0338135,-0.081665,-0.000798487,0.000381653,-0.000772357,0.000763549,-0.00118038,-1.11159,0.0011309,0.0167833,1763,1576,-0.0337669,0.0816669
546,-552,-0.0610352,-0.0756836,-0.00136654,0.000387849,-0.000409224,0.000478608,-0.0014573,-1.35255,0.00116434,0.0196645,1770,1576,-0.0610671,0.0756889
553,-552,-0.0802002,-0.0710449,-0.00194367,-0.000151508,0.000178631,-0.000133876,-0.0019613,1.47241,0.00126527,0.0208802,1777,1576,-0.0802051,0.0709896
560,-552,-0.0803223,-0.0839844,-0.0023483,-0.000869253,0.000908392,-0.000437422,-0.00278013,1.12704,0.00172619,0.0232079,1784,1576,-0.0803558,0.0840287
567,-552,-0.0925293,-0.0716553,-0.00261904,-0.00147481,0.00164348,-0.00030671,-0.00378714,0.952893,0.00242899,0.0277362,1791,1576,-0.0924793,0.0716948
574,-552,-0.122925,-0.0855713,-0.00314423,-0.00205813,0.00258559,4.08243e-05,-0.00524318,0.888908,0.00350914,0.0358818,1798,1576,-0.122896,0.0856054
581,-552,-0.168335,-0.224121,-0.00373738,-0.00348584,0.00345474,-0.000154577,-0.00706864,0.803592,0.00466176,0.0443286,1805,1576,-0.168368,0.224162
588,-552,0.16272,-0.910156,-0.00444768,-0.00465621,0.0041235,-0.000427125,-0.00867676,0.772758,0.00564752,0.0421763,1812,1576,0.162726,0.910212
595,-552,0.173584,-0.209595,-0.00573143,-0.00559877,0.00473627,-0.000928371,-0.0104018,0.7924,0.00664675,0.0415827,1819,1576,0.173603,0.209541
602,-552,-0.0164795,0.501221,-0.00734282,-0.00659389,0.00510725,-0.0018474,-0.0120893,0.821993,0.00751977,0.0420445,1826,1576,-0.0164199,-0.501229
609,-552,-0.183105,0.710815,-0.00963005,-0.00703951,0.0050139,-0.00315627,-0.0135133,0.911802,0.00816277,0.0395286,1833,1576,-0.183148,-0.710861
616,-552,-0.215332,1.00293,0,0,0,0,0,0,0,-1,1840,1576,-0.215392,-1.00292
623,-552,0,0,0,0,0,0,0,0,0,-1,1847,1576,0,0
630,-552,0,0,0,0,0,0,0,0,0,-1,1854,1576,0,0
637,-552,0,0,0,0,0,0,0,0,0,-1,1861,1576,0,0
644,-552,0,0,0,0,0,0,0,0,0,-1,1868,1576,0,0
651,-552,0,0,0,0,0,0,0,0,0,-1,1875,1576,0,0
658,-552,0,0,0,0,0,0,0,0,0,-1,1882,1576,0,0
665,-552,0,0,0,0,0,0,0,0,0,-1,1889,1576,0,0
672,-552,0,0,0,0,0,0,0,0,0,-1,1896,1576,0,0
679,-552,0,0,0,0,0,0,0,0,0,-1,1903,1576,0,0
686,-552,0,0,0,0,0,0,0,0,0,-1,1910,1576,0,0
693,-552,0,0,0,0,0,0,0,0,0,-1,1917,1576,0,0
700,-552,0,0,0,0,0,0,0,0,0,-1,1924,1576,0,0
707,-552,0,0,0,0,0,0,0,0,0,-1,1931,1576,0,0
714,-552,0,0,0,0,0,0,0,0,0,-1,1938,1576,0,0
721,-552,0,0,0,0,0,0,0,0,0,-1,1945,1576,0,0
728,-552,0,0,0,0,0,0,0,0,0,-1,1952,1576,0,0
735,-552,0,0,0,0,0,0,0,0,0,-1,1959,1576,0,0
742,-552,0,0,0,0,0,0,0,0,0,-1,1966,1576,0,0
749,-552,0,0,0,0,0,0,0,0,0,-1,1973,1576,0,0
756,-552,0,0,0,0,0,0,0,0,0,-1,1980,1576,0,0
763,-552,0,0,0,0,0,0,0,0,0,-1,1987,1576,0,0
770,-552,0,0,0,0,0,0,0,0,0,-1,1994,1576,0,0
777,-552,0,0,0,0,0,0,0,0,0,-1,2001,1576,0,0
784,-552,0,0,0,0,0,0,0,0,0,-1,2008,1576,0,0
791,-552,0,0,0,0,0,0,0,0,0,-1,2015,1576,0,0
798,-552,0,0,0,0,0,0,0,0,0,-1,2022,1576,0,0
805,-552,0,0,0,0,0,0,0,0,0,-1,2029,1576,0,0
812,-552,0,0,0,0,0,0,0,0,0,-1,2036,1576,0,0
-700,-559,0,0,0,0,0,0,0,0,0,-1,524,1583,0,0
-693,-559,0,0,0,0,0,0,0,0,0,-1,531,1583,0,0
-686,-559,0,0,0,0,0,0,0,0,0,-1,538,1583,0,0
-679,-559,0,0,0,0,0,0,0,0,0,-1,545,1583,0,0
-672,-559,0,0,0,0,0,0,0,0,0,-1,552,1583,0,0
-665,-559,0,0,0,0,0,0,0,0,0,-1,559,1583,0,0
-658,-559,0,0,0,0,0,0,0,0,0,-1,566,1583,0,0
-651,-559,0,0,0,0,0,0,0,0,0,-1,573,1583,0,0
-644,-559,0,0,0,0,0,0,0,0,0,-1,580,1583,0,0
-637,-559,0,0,0,0,0,0,0,0,0,-1,587,1583,0,0
-630,-559,0,0,0,0,0,0,0,0,0,-1,594,1583,0,0
-623,-559,0,0,0,0,0,0,0,0,0,-1,601,1583,0,0
-616,-559,0,0,0,0,0,0,0,0,0,-1,608,1583,0,0
-609,-559,0,0,0,0,0,0,0,0,0,-1,615,1583,0,0
-602,-559,0,0,0,0,0,0,0,0,0,-1,622,1583,0,0
-595,-559,0,0,0,0,0,0,0,0,0,-1,629,1583,0,0
-588,-559,0,0,0,0,0,0,0,0,0,-1,636,1583,0,0
-581,-559,0,0,0,0,0,0,0,0,0,-1,643,1583,0,0
-574,-559,0,0,0,0,0,0,0,0,0,-1,650,1583,0,0
-567,-559,0,0,0,0,0,0,0,0,0,-1,657,1583,0,0
-560,-559,0,0,0,0,0,0,0,0,0,-1,664,1583,0,0
-553,-559,0,0,0,0,0,0,0,0,0,-1,671,1583,0,0
-546,-559,0,0,0,0,0,0,0,0,0,-1,678,1583,0,0
-539,-559,0,0,0,0,0,0,0,0,0,-1,685,1583,0,0
-532,-559,0,0,0,0,0,0,0,0,0,-1,692,1583,0,0
-525,-559,0,0,0,0,0,0,0,0,0,-1,699,1583,0,0
-518,-559,0,0,0,0,0,0,0,0,0,-1,706,1583,0,0
-511,-559,0,0,0,0,0,0,0,0,0,-1,713,1583,0,0
-504,-559,0,0,0,0,0,0,0,0,0,-1,720,1583,0,0
-497,-559,0,0,0,0,0,0,0,0,0,-1,727,1583,0,0
-490,-559,0.627502,-2.55701,0,0,0,0,0,0,0,-1,734,1583,0.627498,2.55702
-483,-559,-0.2547,0.0633545,-0.00931197,0.0501808,-0.0204822,0.0565504,-0.0156816,-1.26929,0.0438718,0.0482212,741,1583,-0.254697,-0.0634121
-476,-559,-0.183289,-0.00378418,-0.00559176,0.0409735,-0.019723,0.0482045,-0.0128227,-1.21939,0.0371555,0.0434475,748,1583,-0.183316,0.00374445
-469,-559,-0.205872,-0.122803,-0.00331542,0.0337522,-0.0176935,0.0408419,-0.0104051,-1.18969,0.0312786,0.041697,755,1583,-0.205897,0.122797
-462,-559,-0.319275,-0.286133,-0.00180767,0.0286211,-0.0153936,0.0350502,-0.00823679,-1.17517,0.0265419,0.0389808,762,1583,-0.319298,0.286159
-455,-559,-0.440369,-0.366821,-0.000493398,0.0246272,-0.0133682,0.03041,-0.00627625,-1.16252,0.0226571,0.0387374,769,1583,-0.440346,0.366813
-448,-559,-0.486755,-0.074585,0.000250734,0.0200287,-0.0112336,0.0251059,-0.00482644,-1.14631,0.0185565,0.0409241,776,1583,-0.486779,0.0745364
-441,-559,0.0102539,-0.259155,0.000402694,0.0160926,-0.00903743,0.020215,-0.00371974,-1.14284,0.0148725,0.0427012,783,1583,0.010277,0.259172
-434,-559,0.00671387,-0.132324,0.000250527,0.013521,-0.00694179,0.0164886,-0.00271709,-1.16681,0.0120011,0.0316237,790,1583,0.00668554,0.132349
-427,-559,-0.0626831,-0.0706787,-0.000428998,0.0107555,-0.00486103,0.0125729,-0.00224639,-1.21302,0.00922239,0.0177998,797,1583,-0.0626753,0.0707351
-420,-559,-0.057373,-0.0740967,-0.000653558,0.00838004,-0.00361467,0.00964833,-0.00192185,-1.23334,0.00715935,0.0148271,804,1583,-0.0573703,0.074062
-413,-559,-0.0604248,-0.0672607,-0.000362408,0.00609324,-0.0027205,0.00708679,-0.00135595,-1.22064,0.00523537,0.0108151,811,1583,-0.0604457,0.0672571
-406,-559,-0.0738525,-0.0821533,-0.000198714,0.00384008,-0.00214354,0.00476564,-0.00112427,-1.16319,0.00361067,0.00911478,818,1583,-0.0738365,0.0820991
-399,-559,-0.0731812,-0.0917969,-4.45588e-05,0.0019329,-0.00155607,0.0027878,-0.000899453,-1.06842,0.00221994,0.0111414,825,1583,-0.0731903,0.0917524
-392,-559,-0.0827637,-0.0895996,-4.2309e-05,-0.000101136,-0.00108375,0.00101242,-0.00115587,-0.771831,0.00125278,0.0136945,832,1583,-0.0827567,0.0895766
-385,-559,-0.0791626,-0.0568848,-0.000225368,-0.0012854,-0.000737315,0.000152663,-0.00166343,-0.473767,0.00116319,0.014555,839,1583,-0.0791426,0.0568767
-378,-559,-0.0665894,-0.0548096,-0.000206358,-0.00211074,-0.000476296,-9.38775e-05,-0.00222322,-0.231908,0.00145187,0.0137654,846,1583,-0.0666007,0.0547982
-371,-559,-0.0756836,-0.0643311,-0.000128418,-0.00275712,-0.000271994,-0.000100569,-0.00278496,-0.102031,0.00182404,0.0207476,853,1583,-0.0756857,0.0643353
-364,-559,-0.0704956,-0.0615234,-0.000248041,-0.00296937,-0.000199644,-0.000233472,-0.00298394,-0.0728429,0.00191622,0.019087,860,1583,-0.0704857,0.0615043
-357,-559,-0.072876,-0.0559082,-0.000698345,-0.00400015,0.000225664,-0.000682993,-0.0040155,0.0679249,0.00248087,0.0115277,867,1583,-0.0728952,0.0559234
-350,-559,-0.0749512,-0.0688477,-0.00112622,-0.00535975,0.000894947,-0.000944805,-0.00554116,0.199999,0.00342292,0.00926294,874,1583,-0.0749272,0.0688396
-343,-559,-0.0783691,-0.0704346,-0.00174302,-0.00724129,0.00149436,-0.00136312,-0.00762119,0.248949,0.00469288,0.00976634,881,1583,-0.0783723,0.0703854
-336,-559,-0.0700684,-0.0769043,-0.00279472,-0.00905597,0.00234623,-0.00201311,-0.00983758,0.321573,0.00600098,0.0104376,888,1583,-0.0700879,0.0769623
-329,-559,-0.050293,-0.0515137,-0.0043528,-0.0111996,0.00347991,-0.00289466,-0.0126577,0.396792,0.00765818,0.0136705,895,1583,-0.0502788,0.0514903
-322,-559,-0.152832,-0.0426025,-0.00657134,-0.0136059,0.00560425,-0.00347204,-0.0167051,0.505163,0.0101788,0.0269449,902,1583,-0.152841,0.0426417
-315,-559,-0.141052,-0.107788,-0.00922214,-0.0157958,0.00877669,-0.00313703,-0.021881,0.606233,0.0136622,0.0347609,909,1583,-0.141037,0.107737
-308,-559,-1.29315,1.30884,0,0,0,0,0,0,0,-1,916,1583,-1.29315,-1.30879
-301,-559,-0.21405,0.015625,0,0,0,0,0,0,0,-1,923,1583,-0.214051,-0.0156331
-294,-559,-0.303955,-0.297363,-0.00971267,-0.0115096,0.0113646,0.000788892,-0.0220112,0.745951,0.014944,0.0458523,930,1583,-0.303976,0.297378
-287,-559,-0.724915,-0.0476074,-0.00850562,-0.00920619,0.0113428,0.00249226,-0.0202041,0.769962,0.0143723,0.0431485,937,1583,-0.724891,0.0476605
-280,-559,-1.19873,0.297363,-0.00573426,-0.00597275,0.0104593,0.00460648,-0.0163135,0.779698,0.0126929,0.0466167,944,1583,-1.19876,-0.297376
-273,-559,-1.65289,0.597168,0,0,0,0,0,0,0,-1,951,1583,-1.65291,-0.597146
-266,-559,0.330505,0.717163,0,0,0,0,0,0,0,-1,958,1583,0.330481,-0.717189
-259,-559,0.377991,0.867798,0.0160946,0.0092432,0.00100833,0.0162399,0.00909789,0.143129,0.00939877,0.0494011,965,1583,0.377967,-0.867759
-252,-559,0.409912,0.84375,0.0284239,0.0123609,-0.00545287,0.0301,0.0106847,-0.298224,0.0176203,0.0465162,972,1583,0.409901,-0.843703
-245,-559,0.139221,0.636353,0.0434251,0.0138225,-0.0127463,0.048157,0.00909058,-0.35547,0.0295444,0.0453702,979,1583,0.139236,-0.636329
-238,-559,-0.0395508,0.505005,0.0602794,0.012813,-0.020657,0.0680101,0.00508229,-0.358105,0.0437445,0.044413,986,1583,-0.0395627,-0.504969
-231,-559,-0.17749,0.400391,0.0779728,0.00729697,-0.0285734,0.0880795,-0.00280968,-0.339974,0.0596783,0.0456443,993,1583,-0.177471,-0.400369
-224,-559,-0.335205,0.314453,0,0,0,0,0,0,0,-1,1000,1583,-0.335198,-0.314449
-217,-559,0,0,0,0,0,0,0,0,0,-1,1007,1583,0,0
-210,-559,0,0,0,0,0,0,0,0,0,-1,1014,1583,0,0
-203,-559,0,0,0,0,0,0,0,0,0,-1,1021,1583,0,0
-196,-559,0,0,0,0,0,0,0,0,0,-1,1028,1583,0,0
-189,-559,0,0,0,0,0,0,0,0,0,-1,1035,1583,0,0
-182,-559,0,0,0,0,0,0,0,0,0,-1,1042,1583,0,0
-175,-559,0,0,0,0,0,0,0,0,0,-1,1049,1583,0,0
-168,-559,0,0,0,0,0,0,0,0,0,-1,1056,1583,0,0
-161,-559,0,0,0,0,0,0,0,0,0,-1,1063,1583,0,0
-154,-559,0,0,0,0,0,0,0,0,0,-1,1070,1583,0,0
-147,-559,0,0,0,0,0,0,0,0,0,-1,1077,1583,0,0
-140,-559,0,0,0,0,0,0,0,0,0,-1,1084,1583,0,0
-133,-559,0,0,0,0,0,0,0,0,0,-1,1091,1583,0,0
-126,-559,0,0,0,0,0,0,0,0,0,-1,1098,1583,0,0
-119,-559,0,0,0,0,0,0,0,0,0,-1,1105,1583,0,0
-112,-559,0,0,0,0,0,0,0,0,0,-1,1112,1583,0,0
-105,-559,0,0,0,0,0,0,0,0,0,-1,1119,1583,0,0
-98,-559,0,0,0,0,0,0,0,0,0,-1,1126,1583,0,0
-91,-559,0,0,0,0,0,0,0,0,0,-1,1133,1583,0,0
-84,-559,0,0,0,0,0,0,0,0,0,-1,1140,1583,0,0
-77,-559,0,0,0,0,0,0,0,0,0,-1,1147,1583,0,0
-70,-559,0,0,0,0,0,0,0,0,0,-1,1154,1583,0,0
-63,-559,0,0,0,0,0,0,0,0,0,-1,1161,1583,0,0
-56,-559,0,0,0,0,0,0,0,0,0,-1,1168,1583,0,0
-49,-559,0,0,0,0,0,0,0,0,0,-1,1175,1583,0,0
-42,-559,0,0,0,0,0,0,0,0,0,-1,1182,1583,0,0
-35,-559,0,0,0,0,0,0,0,0,0,-1,1189,1583,0,0
-28,-559,0,0,0,0,0,0,0,0,0,-1,1196,1583,0,0
-21,-559,0,0,0,0,0,0,0,0,0,-1,1203,1583,0,0
-14,-559,0,0,0,0,0,0,0,0,0,-1,1210,1583,0,0
-7,-559,0,0,0,0,0,0,0,0,0,-1,1217,1583,0,0
0,-559,0,0,0,0,0,0,0,0,0,-1,1224,1583,0,0
7,-559,0,0,0,0,0,0,0,0,0,-1,1231,1583,0,0
14,-559,0,0,0,0,0,0,0,0,0,-1,1238,1583,0,0
21,-559,0,0,0,0,0,0,0,0,0,-1,1245,1583,0,0
28,-559,0,0,0,0,0,0,0,0,0,-1,1252,1583,0,0
35,-559,0,0,0,0,0,0,0,0,0,-1,1259,1583,0,0
42,-559,0,0,0,0,0,0,0,0,0,-1,1266,1583,0,0
49,-559,0,0,0,0,0,0,0,0,0,-1,1273,1583,0,0
56,-559,0,0,0,0,0,0,0,0,0,-1,1280,1583,0,0
63,-559,0,0,0,0,0,0,0,0,0,-1,1287,1583,0,0
70,-559,0,0,0,0,0,0,0,0,0,-1,1294,1583,0,0
77,-559,0,0,0,0,0,0,0,0,0,-1,1301,1583,0,0
84,-559,0,0,0,0,0,0,0,0,0,-1,1308,1583,0,0
91,-559,0,0,0,0,0,0,0,0,0,-1,1315,1583,0,0
98,-559,0,0,0,0,0,0,0,0,0,-1,1322,1583,0,0
105,-559,0,0,0,0,0,0,0,0,0,-1,1329,1583,0,0
112,-559,0,0,0,0,0,0,0,0,0,-1,1336,1583,0,0
119,-559,0,0,0,0,0,0,0,0,0,-1,1343,1583,0,0
126,-559,0,0,0,0,0,0,0,0,0,-1,1350,1583,0,0
133,-559,0,0,0,0,0,0,0,0,0,-1,1357,1583,0,0
140,-559,0,0,0,0,0,0,0,0,0,-1,1364,1583,0,0
147,-559,0,0,0,0,0,0,0,0,0,-1,1371,1583,0,0
154,-559,0,0,0,0,0,0,0,0,0,-1,1378,1583,0,0
161,-559,0,0,0,0,0,0,0,0,0,-1,1385,1583,0,0
168,-559,0,0,0,0,0,0,0,0,0,-1,1392,1583,0,0
175,-559,0,0,0,0,0,0,0,0,0,-1,1399,1583,0,0
182,-559,0,0,0,0,0,0,0,0,0,-1,1406,1583,0,0
189,-559,0,0,0,0,0,0,0,0,0,-1,1413,1583,0,0
196,-559,0,0,0,0,0,0,0,0,0,-1,1420,1583,0,0
203,-559,0,0,0,0,0,0,0,0,0,-1,1427,1583,0,0
210,-559,0,0,0,0,0,0,0,0,0,-1,1434,1583,0,0
217,-559,0,0,0,0,0,0,0,0,0,-1,1441,1583,0,0
224,-559,0,0,0,0,0,0,0,0,0,-1,1448,1583,0,0
231,-559,0,0,0,0,0,0,0,0,0,-1,1455,1583,0,0
238,-559,0,0,0,0,0,0,0,0,0,-1,1462,1583,0,0
245,-559,0,0,0,0,0,0,0,0,0,-1,1469,1583,0,0
252,-559,0,0,0,0,0,0,0,0,0,-1,1476,1583,0,0
259,-559,0,0,0,0,0,0,0,0,0,-1,1483,1583,0,0
266,-559,0,0,0,0,0,0,0,0,0,-1,1490,1583,0,0
273,-559,0,0,0,0,0,0,0,0,0,-1,1497,1583,0,0
280,-559,0,0,0,0,0,0,0,0,0,-1,1504,1583,0,0
287,-559,0,0,0,0,0,0,0,0,0,-1,1511,1583,0,0
294,-559,0,0,0,0,0,0,0,0,0,-1,1518,1583,0,0
301,-559,0,0,0,0,0,0,0,0,0,-1,1525,1583,0,0
308,-559,0,0,0,0,0,0,0,0,0,-1,1532,1583,0,0
315,-559,0,0,0,0,0,0,0,0,0,-1,1539,1583,0,0
322,-559,0,0,0,0,0,0,0,0,0,-1,1546,1583,0,0
329,-559,0,0,0,0,0,0,0,0,0,-1,1553,1583,0,0
336,-559,-0.803711,-0.309937,0,0,0,0,0,0,0,-1,1560,1583,-0.803771,0.309955
343,-559,-0.51062,-0.335327,0,0,0,0,0,0,0,-1,1567,1583,-0.510599,0.335373
350,-559,0.228027,-0.160645,0,0,0,0,0,0,0,-1,1574,1583,0.227977,0.160642
357,-559,-0.22583,0.757324,0.00670262,0.0192497,-0.00185508,0.0195182,0.00643409,-1.42704,0.0114848,0.0439527,1581,1583,-0.225888,-0.757365
364,-559,-0.41626,0.737427,0.00656781,0.0204021,-0.00443497,0.0217018,0.00526815,-1.28573,0.0130706,0.0441355,1588,1583,-0.416318,-0.737454
371,-559,-1.04126,-0.611572,0,0,0,0,0,0,0,-1,1595,1583,-1.04122,0.611549
378,-559,0.328125,-2.15527,0.00955831,0.0232075,-0.00569199,0.0252697,0.00749619,-1.22322,0.0149863,0.0464256,1602,1583,0.328157,2.15523
385,-559,1.69836,-3.6842,0,0,0,0,0,0,0,-1,1609,1583,1.69835,3.68419
392,-559,-1.54675,2.54651,0,0,0,0,0,0,0,-1,1616,1583,-1.54673,-2.54655
399,-559,-1.10144,1.26196,0,0,0,0,0,0,0,-1,1623,1583,-1.10149,-1.26194
406,-559,-0.616211,1.17163,0.0192462,0.0271841,0.00324468,0.0283416,0.0180887,1.22813,0.0165702,0.0459125,1630,1583,-0.616194,-1.17162
413,-559,-0.147949,1.01855,0.0210347,0.0267902,0.00513692,0.0298005,0.0180244,1.04072,0.0173309,0.0439824,1637,1583,-0.147904,-1.01857
420,-559,0.325806,0.786255,0.0218373,0.025862,0.00698213,0.031116,0.0165833,0.925704,0.0179778,0.0438855,1644,1583,0.325746,-0.786263
427,-559,0.259644,0.231079,0.0199857,0.0246277,0.00813996,0.0307711,0.0138423,0.924279,0.0177955,0.0462347,1651,1583,0.259648,-0.231058
434,-559,0.281372,0.0419922,0.0173556,0.0242268,0.00830005,0.0297742,0.0118082,0.981626,0.0173123,0.0452886,1658,1583,0.28139,-0.0420499
441,-559,0.166748,0.180542,0.0162857,0.021538,0.00722785,0.026602,0.0112217,0.959653,0.0154211,0.0405321,1665,1583,0.166767,-0.180575
448,-559,0.157227,0.204224,0,0,0,0,0,0,0,-1,1672,1583,0.157264,-0.204198
455,-559,-0.108887,-0.177124,0.0125947,0.0149859,0.00478988,0.0187271,0.00885346,0.907699,0.0108175,0.0333154,1679,1583,-0.108944,0.177106
462,-559,-0.0699463,-0.105347,0.00936703,0.0123698,0.0026032,0.0138735,0.00786329,1.04697,0.00803367,0.0259251,1686,1583,-0.0699418,0.105391
469,-559,-0.0776367,-0.0447998,0.00653007,0.00966513,0.00150577,0.0102712,0.00592401,1.18814,0.00595332,0.0148289,1693,1583,-0.077639,0.0447949
476,-559,-0.0916748,-0.0517578,0.00452658,0.00720332,0.000852166,0.00745159,0.00427831,1.28731,0.00431792,0.009454,1700,1583,-0.0916373,0.051809
483,-559,-0.0621338,-0.0565186,0.00358283,0.00536912,0.000637129,0.00557308,0.00337887,1.26098,0.00324176,0.0117898,1707,1583,-0.0621895,0.0564663
490,-559,-0.064209,-0.0406494,0.00268106,0.00365712,0.000355145,0.00377266,0.00256552,1.25625,0.00222471,0.0143594,1714,1583,-0.0641983,0.0405952
497,-559,-0.0668945,-0.0408936,0.00200994,0.00251158,-7.73088e-05,0.00252323,0.00199829,-1.42131,0.00153734,0.0174319,1721,1583,-0.0668678,0.0408786
504,-559,-0.0535889,-0.0427246,0.00147794,0.000637993,-0.000175601,0.00151317,0.000602759,-0.198017,0.000879629,0.0209058,1728,1583,-0.0536193,0.0427011
511,-559,-0.0571289,-0.0620117,0.00102215,0.000631778,-0.000327226,0.00120798,0.000445947,-0.51648,0.000705344,0.0172431,1735,1583,-0.0571819,0.062016
518,-559,-0.0438232,-0.0753174,0.000756792,0.000447451,-0.000455593,0.00108325,0.000120989,-0.621756,0.000685408,0.0108925,1742,1583,-0.0438402,0.0752652
525,-559,-0.0450439,-0.0761719,0.000258173,0.000503697,-0.000676349,0.00106834,-0.000306465,-0.875174,0.000833378,0.0103256,1749,1583,-0.045005,0.0761993
532,-559,-0.0585938,-0.0654297,-0.000451608,0.000296465,-0.000872406,0.000871636,-0.00102678,-0.987916,0.00109727,0.011853,1756,1583,-0.0586184,0.0654196
539,-559,-0.0474854,-0.0556641,-0.00114715,4.77611e-05,-0.0008195,0.000464472,-0.00156386,-1.10038,0.00122706,0.0162573,1763,1583,-0.0475441,0.0556983
546,-559,-0.0717773,-0.0716553,-0.00179311,7.43503e-05,-0.000439842,0.00017276,-0.00189152,-1.35068,0.00132237,0.0145618,1770,1583,-0.0718039,0.0716931
553,-559,-0.078125,-0.0576172,-0.00246777,-0.000444262,0.000198907,-0.000424895,-0.00248713,1.47374,0.00153617,0.0138181,1777,1583,-0.0781764,0.0575985
560,-559,-0.0976563,-0.05896,-0.00301822,-0.00114457,0.00100161,-0.000709947,-0.00345284,1.16139,0.00210553,0.0235893,1784,1583,-0.0976365,0.0589404
567,-559,-0.2854,-0.24231,-0.00348095,-0.0017575,0.00187905,-0.000552004,-0.00468645,1.00039,0.00295752,0.034163,1791,1583,-0.285413,0.242288
574,-559,0.263794,0.269409,-0.00421057,-0.00237748,0.00305566,-0.000103868,-0.00648418,0.931103,0.00428858,0.0412328,1798,1583,0.263776,-0.269434
581,-559,-0.0600586,-0.0211182,-0.00501611,-0.00382463,0.00426083,-0.000118093,-0.00872265,0.854857,0.00577614,0.0432832,1805,1583,-0.0600098,0.021099
588,-559,-0.250732,0.171265,-0.00587154,-0.00509554,0.00536756,-0.000101973,-0.0108651,0.821478,0.00720965,0.0414612,1812,1583,-0.250676,-0.171206
595,-559,0.241455,-0.353516,0,0,0,0,0,0,0,-1,1819,1583,0.241411,0.353489
602,-559,-0.115479,0.611328,-0.00879379,-0.0075905,0.0073254,-0.000842079,-0.0155422,0.826372,0.0100925,0.0421275,1826,1583,-0.115524,-0.611271
609,-559,-0.172363,0.815796,-0.0109754,-0.00865542,0.00749332,-0.00223286,-0.017398,0.862192,0.0109307,0.0423328,1833,1583,-0.172367,-0.815843
616,-559,0,0,0,0,0,0,0,0,0,-1,1840,1583,0,0
623,-559,0,0,0,0,0,0,0,0,0,-1,1847,1583,0,0
630,-559,0,0,0,0,0,0,0,0,0,-1,1854,1583,0,0
637,-559,0,0,0,0,0,0,0,0,0,-1,1861,1583,0,0
644,-559,0,0,0,0,0,0,0,0,0,-1,1868,1583,0,0
651,-559,0,0,0,0,0,0,0,0,0,-1,1875,1583,0,0
658,-559,0,0,0,0,0,0,0,0,0,-1,1882,1583,0,0
665,-559,0,0,0,0,0,0,0,0,0,-1,1889,1583,0,0
672,-559,0,0,0,0,0,0,0,0,0,-1,1896,1583,0,0
679,-559,0,0,0,0,0,0,0,0,0,-1,1903,1583,0,0
686,-559,0,0,0,0,0,0,0,0,0,-1,1910,1583,0,0
693,-559,0,0,0,0,0,0,0,0,0,-1,1917,1583,0,0
700,-559,0,0,0,0,0,0,0,0,0,-1,1924,1583,0,0
707,-559,0,0,0,0,0,0,0,0,0,-1,1931,1583,0,0
714,-559,0,0,0,0,0,0,0,0,0,-1,1938,1583,0,0
721,-559,0,0,0,0,0,0,0,0,0,-1,1945,1583,0,0
728,-559,0,0,0,0,0,0,0,0,0,-1,1952,1583,0,0
735,-559,0,0,0,0,0,0,0,0,0,-1,1959,1583,0,0
742,-559,0,0,0,0,0,0,0,0,0,-1,1966,1583,0,0
749,-559,0,0,0,0,0,0,0,0,0,-1,1973,1583,0,0
756,-559,0,0,0,0,0,0,0,0,0,-1,1980,1583,0,0
763,-559,0,0,0,0,0,0,0,0,0,-1,1987,1583,0,0
770,-559,0,0,0,0,0,0,0,0,0,-1,1994,1583,0,0
777,-559,0,0,0,0,0,0,0,0,0,-1,2001,1583,0,0
784,-559,0,0,0,0,0,0,0,0,0,-1,2008,1583,0,0
791,-559,0,0,0,0,0,0,0,0,0,-1,2015,1583,0,0
798,-559,0,0,0,0,0,0,0,0,0,-1,2022,1583,0,0
805,-559,0,0,0,0,0,0,0,0,0,-1,2029,1583,0,0
812,-559,0,0,0,0,0,0,0,0,0,-1,2036,1583,0,0
-700,-566,0,0,0,0,0,0,0,0,0,-1,524,1590,0,0
-693,-566,0,0,0,0,0,0,0,0,0,-1,531,1590,0,0
-686,-566,0,0,0,0,0,0,0,0,0,-1,538,1590,0,0
-679,-566,0,0,0,0,0,0,0,0,0,-1,545,1590,0,0
-672,-566,0,0,0,0,0,0,0,0,0,-1,552,1590,0,0
-665,-566,0,0,0,0,0,0,0,0,0,-1,559,1590,0,0
-658,-566,0,0,0,0,0,0,0,0,0,-1,566,1590,0,0
-651,-566,0,0,0,0,0,0,0,0,0,-1,573,1590,0,0
-644,-566,0,0,0,0,0,0,0,0,0,-1,580,1590,0,0
-637,-566,0,0,0,0,0,0,0,0,0,-1,587,1590,0,0
-630,-566,0,0,0,0,0,0,0,0,0,-1,594,1590,0,0
-623,-566,0,0,0,0,0,0,0,0,0,-1,601,1590,0,0
-616,-566,0,0,0,0,0,0,0,0,0,-1,608,1590,0,0
-609,-566,0,0,0,0,0,0,0,0,0,-1,615,1590,0,0
-602,-566,0,0,0,0,0,0,0,0,0,-1,622,1590,0,0
-595,-566,0,0,0,0,0,0,0,0,0,-1,629,1590,0,0
-588,-566,0,0,0,0,0,0,0,0,0,-1,636,1590,0,0
-581,-566,0,0,0,0,0,0,0,0,0,-1,643,1590,0,0
-574,-566,0,0,0,0,0,0,0,0,0,-1,650,1590,0,0
-567,-566,0,0,0,0,0,0,0,0,0,-1,657,1590,0,0
-560,-566,0,0,0,0,0,0,0,0,0,-1,664,1590,0,0
-553,-566,0,0,0,0,0,0,0,0,0,-1,671,1590,0,0
-546,-566,0,0,0,0,0,0,0,0,0,-1,678,1590,0,0
-539,-566,0,0,0,0,0,0,0,0,0,-1,685,1590,0,0
-532,-566,0,0,0,0,0,0,0,0,0,-1,692,1590,0,0
-525,-566,0,0,0,0,0,0,0,0,0,-1,699,1590,0,0
-518,-566,0,0,0,0,0,0,0,0,0,-1,706,1590,0,0
-511,-566,0,0,0,0,0,0,0,0,0,-1,713,1590,0,0
-504,-566,0,0,0,0,0,0,0,0,0,-1,720,1590,0,0
-497,-566,0,0,0,0,0,0,0,0,0,-1,727,1590,0,0
-490,-566,0,0,0,0,0,0,0,0,0,-1,734,1590,0,0
-483,-566,0.573853,-0.0379639,-0.0125685,0.0568149,-0.0231628,0.0638369,-0.0195905,-1.27645,0.0503743,0.0415687,741,1590,0.57388,0.0379624
-476,-566,-0.16449,0.125854,-0.00742547,0.0466749,-0.0224958,0.0548067,-0.0155573,-1.22393,0.0426794,0.0408314,748,1590,-0.164494,-0.125797
-469,-566,-0.202332,-0.198242,-0.0039782,0.0387179,-0.0203558,0.0468673,-0.0121276,-1.18999,0.0359753,0.0402673,755,1590,-0.20235,0.198235
-462,-566,-0.37677,-0.516235,-0.00189127,0.0332178,-0.0178484,0.0406978,-0.00937126,-1.17395,0.0307356,0.0421664,762,1590,-0.376783,0.516236
-455,-566,-0.646423,-0.78772,-0.000251694,0.0287811,-0.0155737,0.0355547,-0.00702531,-1.16054,0.0263588,0.0430686,769,1590,-0.646402,0.787779
-448,-566,-0.458557,-0.817627,0.00072093,0.0235778,-0.0131546,0.029575,-0.00527627,-1.14305,0.0216904,0.0410598,776,1590,-0.458572,0.81762
-441,-566,-0.214844,-0.835571,0.00108755,0.0188939,-0.0107379,0.0239396,-0.0039581,-1.13153,0.0174295,0.0410007,783,1590,-0.214871,0.835526
-434,-566,0.0748901,-0.385132,0.00110876,0.0155231,-0.00849259,0.0194545,-0.00282261,-1.13725,0.0140057,0.0452339,790,1590,0.0748948,0.38515
-427,-566,-0.0140381,-0.0933838,0.000650378,0.0120883,-0.00632135,0.0148938,-0.00215509,-1.1531,0.01072,0.0362725,797,1590,-0.0140609,0.0934001
-420,-566,-0.104126,-0.0695801,0.000483255,0.00916088,-0.00497114,0.0114204,-0.00177623,-1.14419,0.00826948,0.0226247,804,1590,-0.104102,0.069543
-413,-566,-0.0849609,-0.0574951,0.000710773,0.00639143,-0.00396363,0.00842736,-0.00132515,-1.09629,0.00610806,0.0103948,811,1590,-0.0849476,0.0574936
-406,-566,-0.0734253,-0.0687256,0.000749282,0.00375488,-0.0033094,0.00588672,-0.00138255,-0.998527,0.00445738,0.00757927,818,1590,-0.0734479,0.0686881
-399,-566,-0.076416,-0.0783691,0.000767928,0.0016139,-0.00258795,0.0038132,-0.00143138,-0.866404,0.00313032,0.00888021,825,1590,-0.0764295,0.0783343
-392,-566,-0.103455,-0.0831299,0.000630069,-0.000595886,-0.00199934,0.00210829,-0.00207411,-0.636652,0.00241473,0.0109758,832,1590,-0.103452,0.0831623
-385,-566,-0.0855103,-0.0700684,0.000309894,-0.00169584,-0.0015549,0.00115728,-0.00254322,-0.498982,0.00218587,0.0142482,839,1590,-0.0854965,0.070024
-378,-566,-0.076355,-0.0458984,0.000232326,-0.00224492,-0.00120084,0.000718874,-0.00273146,-0.384957,0.00210198,0.0149004,846,1590,-0.0763344,0.0459359
-371,-566,-0.0925903,-0.0512695,0.000133633,-0.00242731,-0.000891694,0.000413523,-0.0027072,-0.304146,0.00195725,0.0198065,853,1590,-0.0926123,0.051306
-364,-566,-0.0753784,-0.0383301,-8.60359e-05,-0.00211861,-0.000722102,0.000144381,-0.00234903,-0.308879,0.0016163,0.0204028,860,1590,-0.0753878,0.038291
-357,-566,-0.085083,-0.057251,-0.00053482,-0.00259928,-0.000185443,-0.000518295,-0.00261581,-0.0888784,0.00159935,0.0166045,867,1590,-0.0850621,0.0572228
-350,-566,-0.0761108,-0.0766602,-0.000950932,-0.00326876,0.000524611,-0.000837723,-0.00338197,0.212538,0.00203376,0.0193738,874,1590,-0.0761291,0.0766617
-343,-566,-0.0892944,-0.131836,-0.00153356,-0.00439229,0.00109985,-0.00115939,-0.00476646,0.327923,0.00287032,0.0251471,881,1590,-0.089305,0.13179
-336,-566,-0.0975952,-0.112915,-0.00250351,-0.00553714,0.00188197,-0.00160319,-0.00643745,0.446212,0.00386957,0.0232667,888,1590,-0.0975987,0.112916
-329,-566,-0.0565796,-0.0701904,-0.00392127,-0.00700579,0.00285604,-0.00221768,-0.00870938,0.537831,0.00522629,0.0128523,895,1590,-0.0565824,0.0702507
-322,-566,-0.0768433,-0.0616455,-0.00584915,-0.00878038,0.0046251,-0.002463,-0.0121665,0.631962,0.00742741,0.010949,902,1590,-0.0768717,0.0616464
-315,-566,-0.0472412,-0.10376,-0.00810555,-0.010415,0.00722204,-0.00194649,-0.016574,0.706125,0.0104611,0.020132,909,1590,-0.0472409,0.103738
-308,-566,0.0526123,-0.111816,-0.0112737,-0.0112413,0.0101741,-0.00108332,-0.0214316,0.786195,0.0139407,0.0300419,916,1590,0.0525851,0.111803
-301,-566,-0.175903,-0.0119629,-0.0120884,-0.00824147,0.00916487,-0.000800422,-0.0195295,0.888835,0.0127612,0.0393094,923,1590,-0.175919,0.0119759
-294,-566,-0.245911,-0.0123291,-0.00917461,-0.00672957,0.00929321,0.00142119,-0.0173254,0.850798,0.0120519,0.0420574,930,1590,-0.245935,0.0123828
-287,-566,-0.239563,0.0469971,0,0,0,0,0,0,0,-1,937,1590,-0.23954,-0.0469778
-280,-566,0.59845,-0.0437012,0,0,0,0,0,0,0,-1,944,1590,0.598435,0.043681
-273,-566,0.348633,0.134521,0,0,0,0,0,0,0,-1,951,1590,0.348605,-0.134533
-266,-566,0.294189,0.336426,0.00184317,0.00649984,0.00477927,0.00948776,-0.00114474,1.01207,0.00673924,0.0488642,958,1590,0.294192,-0.336367
-259,-566,0.346069,0.69873,0.0089297,0.00977905,0.00118576,0.0106139,0.00809486,0.957354,0.00640359,0.0475387,965,1590,0.346065,-0.698673
-252,-566,0.360107,0.887085,0.0179545,0.0119962,-0.00391476,0.0198948,0.0100559,-0.460145,0.0114865,0.0483635,972,1590,0.360128,-0.887099
-245,-566,0.327454,0.97229,0,0,0,0,0,0,0,-1,979,1590,0.327463,-0.972324
-238,-566,-0.280823,0.91687,0.0410277,0.0119746,-0.0152377,0.0475537,0.00544867,-0.404644,0.0300513,0.0488576,986,1590,-0.280827,-0.916889
-231,-566,-0.48645,0.787598,0.0544037,0.00749325,-0.021302,0.0626332,-0.000736291,-0.368664,0.0420031,0.0493348,993,1590,-0.486443,-0.787635
-224,-566,-0.219299,0.206787,0,0,0,0,0,0,0,-1,1000,1590,-0.219292,-0.206772
-217,-566,-0.700806,-0.0045166,0,0,0,0,0,0,0,-1,1007,1590,-0.700827,0.00448288
-210,-566,-1.17108,-0.0285645,0,0,0,0,0,0,0,-1,1014,1590,-1.1711,0.0285197
-203,-566,0,0,0,0,0,0,0,0,0,-1,1021,1590,0,0
-196,-566,0,0,0,0,0,0,0,0,0,-1,1028,1590,0,0
-189,-566,0,0,0,0,0,0,0,0,0,-1,1035,1590,0,0
-182,-566,0,0,0,0,0,0,0,0,0,-1,1042,1590,0,0
-175,-566,0,0,0,0,0,0,0,0,0,-1,1049,1590,0,0
-168,-566,0,0,0,0,0,0,0,0,0,-1,1056,1590,0,0
-161,-566,0,0,0,0,0,0,0,0,0,-1,1063,1590,0,0
-154,-566,0,0,0,0,0,0,0,0,0,-1,1070,1590,0,0
-147,-566,0,0,0,0,0,0,0,0,0,-1,1077,1590,0,0
-140,-566,0,0,0,0,0,0,0,0,0,-1,1084,1590,0,0
-133,-566,0,0,0,0,0,0,0,0,0,-1,1091,1590,0,0
-126,-566,0,0,0,0,0,0,0,0,0,-1,1098,1590,0,0
-119,-566,0,0,0,0,0,0,0,0,0,-1,1105,1590,0,0
-112,-566,0,0,0,0,0,0,0,0,0,-1,1112,1590,0,0
-105,-566,0,0,0,0,0,0,0,0,0,-1,1119,1590,0,0
-98,-566,0,0,0,0,0,0,0,0,0,-1,1126,1590,0,0
-91,-566,0,0,0,0,0,0,0,0,0,-1,1133,1590,0,0
-84,-566,0,0,0,0,0,0,0,0,0,-1,1140,1590,0,0
-77,-566,0,0,0,0,0,0,0,0,0,-1,1147,1590,0,0
-70,-566,0,0,0,0,0,0,0,0,0,-1,1154,1590,0,0
-63,-566,0,0,0,0,0,0,0,0,0,-1,1161,1590,0,0
-56,-566,0,0,0,0,0,0,0,0,0,-1,1168,1590,0,0
-49,-566,0,0,0,0,0,0,0,0,0,-1,1175,1590,0,0
-42,-566,0,0,0,0,0,0,0,0,0,-1,1182,1590,0,0
-35,-566,0,0,0,0,0,0,0,0,0,-1,1189,1590,0,0
-28,-566,0,0,0,0,0,0,0,0,0,-1,1196,1590,0,0
-21,-566,0,0,0,0,0,0,0,0,0,-1,1203,1590,0,0
-14,-566,0,0,0,0,0,0,0,0,0,-1,1210,1590,0,0
-7,-566,0,0,0,0,0,0,0,0,0,-1,1217,1590,0,0
0,-566,0,0,0,0,0,0,0,0,0,-1,1224,1590,0,0
7,-566,0,0,0,0,0,0,0,0,0,-1,1231,1590,0,0
14,-566,0,0,0,0,0,0,0,0,0,-1,1238,1590,0,0
21,-566,0,0,0,0,0,0,0,0,0,-1,1245,1590,0,0
28,-566,0,0,0,0,0,0,0,0,0,-1,1252,1590,0,0
35,-566,0,0,0,0,0,0,0,0,0,-1,1259,1590,0,0
42,-566,0,0,0,0,0,0,0,0,0,-1,1266,1590,0,0
49,-566,0,0,0,0,0,0,0,0,0,-1,1273,1590,0,0
56,-566,0,0,0,0,0,0,0,0,0,-1,1280,1590,0,0
63,-566,0,0,0,0,0,0,0,0,0,-1,1287,1590,0,0
70,-566,0,0,0,0,0,0,0,0,0,-1,1294,1590,0,0
77,-566,0,0,0,0,0,0,0,0,0,-1,1301,1590,0,0
84,-566,0,0,0,0,0,0,0,0,0,-1,1308,1590,0,0
91,-566,0,0,0,0,0,0,0,0,0,-1,1315,1590,0,0
98,-566,0,0,0,0,0,0,0,0,0,-1,1322,1590,0,0
105,-566,0,0,0,0,0,0,0,0,0,-1,1329,1590,0,0
112,-566,0,0,0,0,0,0,0,0,0,-1,1336,1590,0,0
119,-566,0,0,0,0,0,0,0,0,0,-1,1343,1590,0,0
126,-566,0,0,0,0,0,0,0,0,0,-1,1350,1590,0,0
133,-566,0,0,0,0,0,0,0,0,0,-1,1357,1590,0,0
140,-566,0,0,0,0,0,0,0,0,0,-1,1364,1590,0,0
147,-566,0,0,0,0,0,0,0,0,0,-1,1371,1590,0,0
154,-566,0,0,0,0,0,0,0,0,0,-1,1378,1590,0,0
161,-566,0,0,0,0,0,0,0,0,0,-1,1385,1590,0,0
168,-566,0,0,0,0,0,0,0,0,0,-1,1392,1590,0,0
175,-566,0,0,0,0,0,0,0,0,0,-1,1399,1590,0,0
182,-566,0,0,0,0,0,0,0,0,0,-1,1406,1590,0,0
189,-566,0,0,0,0,0,0,0,0,0,-1,1413,1590,0,0
196,-566,0,0,0,0,0,0,0,0,0,-1,1420,1590,0,0
203,-566,0,0,0,0,0,0,0,0,0,-1,1427,1590,0,0
210,-566,0,0,0,0,0,0,0,0,0,-1,1434,1590,0,0
217,-566,0,0,0,0,0,0,0,0,0,-1,1441,1590,0,0
224,-566,0,0,0,0,0,0,0,0,0,-1,1448,1590,0,0
231,-566,0,0,0,0,0,0,0,0,0,-1,1455,1590,0,0
238,-566,0,0,0,0,0,0,0,0,0,-1,1462,1590,0,0
245,-566,0,0,0,0,0,0,0,0,0,-1,1469,1590,0,0
252,-566,0,0,0,0,0,0,0,0,0,-1,1476,1590,0,0
259,-566,0,0,0,0,0,0,0,0,0,-1,1483,1590,0,0
266,-566,0,0,0,0,0,0,0,0,0,-1,1490,1590,0,0
273,-566,0,0,0,0,0,0,0,0,0,-1,1497,1590,0,0
280,-566,0,0,0,0,0,0,0,0,0,-1,1504,1590,0,0
287,-566,0,0,0,0,0,0,0,0,0,-1,1511,1590,0,0
294,-566,0,0,0,0,0,0,0,0,0,-1,1518,1590,0,0
301,-566,0,0,0,0,0,0,0,0,0,-1,1525,1590,0,0
308,-566,0,0,0,0,0,0,0,0,0,-1,1532,1590,0,0
315,-566,0,0,0,0,0,0,0,0,0,-1,1539,1590,0,0
322,-566,-0.276001,-0.647461,0.0303462,0.00355145,0.018106,0.0394725,-0.00557489,0.466882,0.0283566,0.0410203,1546,1590,-0.276062,0.647433
329,-566,0.0358887,-0.434692,0.0248356,0.00599391,0.0129482,0.0314275,-0.000597994,0.4709,0.0211538,0.0408831,1553,1590,0.0358437,0.434718
336,-566,-0.406372,-0.162842,0,0,0,0,0,0,0,-1,1560,1590,-0.406338,0.162818
343,-566,-0.125122,-0.193237,0.0131913,0.0115247,0.00208612,0.0146044,0.0101116,0.59538,0.00863734,0.0419466,1567,1590,-0.125159,0.193226
350,-566,0.141235,0.0255127,0.0100454,0.0130753,-0.00272711,0.01468,0.00844067,-1.03893,0.00850719,0.0445317,1574,1590,0.141183,-0.0254935
357,-566,-0.15564,0.210693,0.00900475,0.0154731,-0.00519754,0.0183606,0.0061173,-1.06371,0.0107954,0.0461635,1581,1590,-0.155579,-0.210665
364,-566,-3.50085,-0.290527,0,0,0,0,0,0,0,-1,1588,1590,-3.50084,0.290576
371,-566,-1.95923,-0.517578,0.0107215,0.0184639,-0.00880595,0.024212,0.00497344,-0.992489,0.0147654,0.0481318,1595,1590,-1.95927,0.517588
378,-566,-0.580933,-1.55212,0.011985,0.0202046,-0.00903602,0.0260215,0.00616803,-0.998827,0.0157008,0.0442128,1602,1590,-0.580884,1.5521
385,-566,-3.08557,1.59924,0,0,0,0,0,0,0,-1,1609,1590,-3.08562,-1.59923
392,-566,-2.45435,1.53455,0,0,0,0,0,0,0,-1,1616,1590,-2.4543,-1.53453
399,-566,-1.63953,1.37244,0,0,0,0,0,0,0,-1,1623,1590,-1.63949,-1.37248
406,-566,-1.29858,1.12073,0.0184933,0.0255198,-0.000669113,0.0255829,0.0184301,-1.4767,0.0152412,0.0495635,1630,1590,-1.29853,-1.12074
413,-566,-0.79187,0.773071,0.0199323,0.0250672,0.00140339,0.0254257,0.0195738,1.32068,0.0153756,0.0439813,1637,1590,-0.791852,-0.773087
420,-566,-0.119507,0.548462,0.0203338,0.0242377,0.00360717,0.0263872,0.0181843,1.0334,0.0155937,0.0435483,1644,1590,-0.119553,-0.548401
427,-566,0.16687,0.226563,0.0182606,0.022983,0.00513634,0.0262749,0.0149687,1.00085,0.0152189,0.046561,1651,1590,0.166915,-0.226601
434,-566,0.126587,-0.0115967,0.0155847,0.0223935,0.00565995,0.025594,0.0123842,1.05615,0.0147793,0.0456051,1658,1590,0.126612,0.0115583
441,-566,-0.0252686,0.0812988,0.0145079,0.0196625,0.00502828,0.0227355,0.0114348,1.02222,0.0131264,0.03692,1665,1590,-0.0252667,-0.0813481
448,-566,-0.0714111,0.000610352,0.0128961,0.0161542,0.00479864,0.0195928,0.00945756,0.949032,0.0113141,0.0284085,1672,1590,-0.071374,-0.000658417
455,-566,-0.102539,-0.0826416,0.0113474,0.0130533,0.0035337,0.0158355,0.00856517,0.903817,0.00915283,0.0178556,1679,1590,-0.102506,0.0825909
462,-566,-0.0742188,-0.0786133,0.00837543,0.0105607,0.00172092,0.0115065,0.00742958,1.06824,0.00673664,0.0128012,1686,1590,-0.0742041,0.0786418
469,-566,-0.0684814,-0.0664063,0.00577639,0.00814192,0.000870206,0.00842755,0.00549076,1.25364,0.00493956,0.0118156,1693,1590,-0.0684798,0.066418
476,-566,-0.0722656,-0.0706787,0.00388817,0.00591532,0.000375146,0.00598252,0.00382098,1.39355,0.00349802,0.00955475,1700,1590,-0.072223,0.0706568
483,-566,-0.0587158,-0.0720215,0.00298978,0.00429338,0.000267646,0.0043462,0.00293697,1.37598,0.00256043,0.00969857,1707,1590,-0.0587142,0.0720431
490,-566,-0.0612793,-0.0657959,0.00221325,0.00280276,9.84689e-05,0.00281877,0.00219724,1.40959,0.00171008,0.00998542,1714,1590,-0.0612674,0.065807
497,-566,-0.0582275,-0.0509033,0.001573,0.0017433,-0.000188499,0.00186499,0.00145131,-0.997535,0.00113094,0.0137103,1721,1590,-0.0582295,0.0509321
504,-566,-0.0498047,-0.0515137,0.0010217,7.80387e-05,-0.000267654,0.00109233,7.40949e-06,-0.258001,0.000725764,0.0183673,1728,1590,-0.04981,0.0514885
511,-566,-0.0693359,-0.0535889,0.000510873,0.000109037,-0.000396045,0.000754049,-0.000134139,-0.550659,0.000552864,0.0175239,1735,1590,-0.0693145,0.0535389
518,-566,-0.0782471,-0.0476074,0.00025321,5.41022e-05,-0.000444285,0.000608959,-0.000301647,-0.675181,0.000535625,0.0107796,1742,1590,-0.0782546,0.0476293
525,-566,-0.0827637,-0.0731201,-0.000176604,0.000163365,-0.000626085,0.000642131,-0.000655371,-0.917955,0.000749126,0.0105343,1749,1590,-0.0827125,0.0731263
532,-566,-0.0822754,-0.0703125,-0.000867588,2.29643e-05,-0.00079742,0.000491006,-0.00133563,-1.04003,0.00109154,0.0122056,1756,1590,-0.0822706,0.070367
539,-566,-0.0756836,-0.0582275,-0.00160589,-0.000207098,-0.000729061,0.000103795,-0.00191679,-1.16772,0.00131382,0.0150262,1763,1590,-0.0757305,0.0582003
546,-566,-0.0793457,-0.0717773,-0.00233861,-0.000119127,-0.000321143,-7.35939e-05,-0.00238415,-1.42995,0.00156548,0.0139677,1770,1590,-0.0793815,0.0717582
553,-566,-0.071167,-0.0528564,-0.00311293,-0.00057994,0.000361833,-0.000529267,-0.00316361,1.43166,0.00195666,0.020644,1777,1590,-0.0712064,0.0528672
560,-566,-0.175659,-0.194946,-0.00380841,-0.00123088,0.00123967,-0.000731438,-0.00430785,1.18781,0.0026618,0.0317976,1784,1590,-0.175661,0.194908
567,-566,0.871338,0.725342,0,0,0,0,0,0,0,-1,1791,1590,0.87135,-0.725398
574,-566,0.499634,0.540039,-0.00537192,-0.00240176,0.00366699,6.94599e-05,-0.00784314,0.977797,0.00525207,0.0426853,1798,1590,0.499588,-0.539978
581,-566,0.060791,0.348022,-0.00635164,-0.00384842,0.00519049,0.00023923,-0.0104393,0.903708,0.00704062,0.0395171,1805,1590,0.0607451,-0.348068
588,-566,-0.181396,0.451416,-0.00726517,-0.00528769,0.00676571,0.000561147,-0.013114,0.857955,0.00893559,0.039539,1812,1590,-0.181386,-0.451389
595,-566,-0.248047,0.692139,-0.00857984,-0.00676692,0.00844823,0.000823337,-0.0161701,0.838842,0.0110647,0.03915,1819,1590,-0.248018,-0.69219
602,-566,-0.278076,0.821167,-0.0099536,-0.00851465,0.00992583,0.00071774,-0.019186,0.821577,0.0130365,0.0436793,1826,1590,-0.278029,-0.821173
609,-566,0,0,0,0,0,0,0,0,0,-1,1833,1590,0,0
616,-566,0,0,0,0,0,0,0,0,0,-1,1840,1590,0,0
623,-566,0,0,0,0,0,0,0,0,0,-1,1847,1590,0,0
630,-566,0,0,0,0,0,0,0,0,0,-1,1854,1590,0,0
637,-566,0,0,0,0,0,0,0,0,0,-1,1861,1590,0,0
644,-566,0,0,0,0,0,0,0,0,0,-1,1868,1590,0,0
651,-566,0,0,0,0,0,0,0,0,0,-1,1875,1590,0,0
658,-566,0,0,0,0,0,0,0,0,0,-1,1882,1590,0,0
665,-566,0,0,0,0,0,0,0,0,0,-1,1889,1590,0,0
672,-566,0,0,0,0,0,0,0,0,0,-1,1896,1590,0,0
679,-566,0,0,0,0,0,0,0,0,0,-1,1903,1590,0,0
686,-566,0,0,0,0,0,0,0,0,0,-1,1910,1590,0,0
693,-566,0,0,0,0,0,0,0,0,0,-1,1917,1590,0,0
700,-566,0,0,0,0,0,0,0,0,0,-1,1924,1590,0,0
707,-566,0,0,0,0,0,0,0,0,0,-1,1931,1590,0,0
714,-566,0,0,0,0,0,0,0,0,0,-1,1938,1590,0,0
721,-566,0,0,0,0,0,0,0,0,0,-1,1945,1590,0,0
728,-566,0,0,0,0,0,0,0,0,0,-1,1952,1590,0,0
735,-566,0,0,0,0,0,0,0,0,0,-1,1959,1590,0,0
742,-566,0,0,0,0,0,0,0,0,0,-1,1966,1590,0,0
749,-566,0,0,0,0,0,0,0,0,0,-1,1973,1590,0,0
756,-566,0,0,0,0,0,0,0,0,0,-1,1980,1590,0,0
763,-566,0,0,0,0,0,0,0,0,0,-1,1987,1590,0,0
770,-566,0,0,0,0,0,0,0,0,0,-1,1994,1590,0,0
777,-566,0,0,0,0,0,0,0,0,0,-1,2001,1590,0,0
784,-566,0,0,0,0,0,0,0,0,0,-1,2008,1590,0,0
791,-566,0,0,0,0,0,0,0,0,0,-1,2015,1590,0,0
798,-566,0,0,0,0,0,0,0,0,0,-1,2022,1590,0,0
805,-566,0,0,0,0,0,0,0,0,0,-1,2029,1590,0,0
812,-566,0,0,0,0,0,0,0,0,0,-1,2036,1590,0,0
-700,-573,0,0,0,0,0,0,0,0,0,-1,524,1597,0,0
-693,-573,0,0,0,0,0,0,0,0,0,-1,531,1597,0,0
-686,-573,0,0,0,0,0,0,0,0,0,-1,538,1597,0,0
-679,-573,0,0,0,0,0,0,0,0,0,-1,545,1597,0,0
-672,-573,0,0,0,0,0,0,0,0,0,-1,552,1597,0,0
-665,-573,0,0,0,0,0,0,0,0,0,-1,559,1597,0,0
-658,-573,0,0,0,0,0,0,0,0,0,-1,566,1597,0,0
-651,-573,0,0,0,0,0,0,0,0,0,-1,573,1597,0,0
-644,-573,0,0,0,0,0,0,0,0,0,-1,580,1597,0,0
-637,-573,0,0,0,0,0,0,0,0,0,-1,587,1597,0,0
-630,-573,0,0,0,0,0,0,0,0,0,-1,594,1597,0,0
-623,-573,0,0,0,0,0,0,0,0,0,-1,601,1597,0,0
-616,-573,0,0,0,0,0,0,0,0,0,-1,608,1597,0,0
-609,-573,0,0,0,0,0,0,0,0,0,-1,615,1597,0,0
-602,-573,0,0,0,0,0,0,0,0,0,-1,622,1597,0,0
-595,-573,0,0,0,0,0,0,0,0,0,-1,629,1597,0,0
-588,-573,0,0,0,0,0,0,0,0,0,-1,636,1597,0,0
-581,-573,0,0,0,0,0,0,0,0,0,-1,643,1597,0,0
-574,-573,0,0,0,0,0,0,0,0,0,-1,650,1597,0,0
-567,-573,0,0,0,0,0,0,0,0,0,-1,657,1597,0,0
-560,-573,0,0,0,0,0,0,0,0,0,-1,664,1597,0,0
-553,-573,0,0,0,0,0,0,0,0,0,-1,671,1597,0,0
-546,-573,0,0,0,0,0,0,0,0,0,-1,678,1597,0,0
-539,-573,0,0,0,0,0,0,0,0,0,-1,685,1597,0,0
-532,-573,0,0,0,0,0,0,0,0,0,-1,692,1597,0,0
-525,-573,0,0,0,0,0,0,0,0,0,-1,699,1597,0,0
-518,-573,0,0,0,0,0,0,0,0,0,-1,706,1597,0,0
-511,-573,0,0,0,0,0,0,0,0,0,-1,713,1597,0,0
-504,-573,0,0,0,0,0,0,0,0,0,-1,720,1597,0,0
-497,-573,0,0,0,0,0,0,0,0,0,-1,727,1597,0,0
-490,-573,0,0,0,0,0,0,0,0,0,-1,734,1597,0,0
-483,-573,0,0,0,0,0,0,0,0,0,-1,741,1597,0,0
-476,-573,0.1922,0.154053,-0.00932668,0.0522532,-0.025101,0.0611883,-0.0182618,-1.22882,0.0480505,0.0421268,748,1597,0.192191,-0.154028
-469,-573,0.189758,-0.0109863,-0.0041098,0.0435438,-0.0227336,0.0526492,-0.0132152,-1.18984,0.0402346,0.0410314,755,1597,0.189758,0.0109281
-462,-573,-0.361145,-0.782837,-0.00117727,0.0376947,-0.0199545,0.0461144,-0.00959695,-1.17152,0.0343912,0.0485272,762,1597,-0.361134,0.782815
-455,-573,0.26123,-0.462402,0.000894667,0.0327559,-0.017447,0.0404511,-0.00680057,-1.1554,0.0294968,0.0474907,769,1597,0.261233,0.462448
-448,-573,-0.855957,-0.551758,0.00208461,0.0269181,-0.0147856,0.0338091,-0.00480642,-1.13467,0.0243005,0.0449545,776,1597,-0.855934,0.551771
-441,-573,-0.455627,-0.650513,0.00262309,0.0214684,-0.0122284,0.0274834,-0.00339191,-1.11366,0.0195512,0.0421194,783,1597,-0.455634,0.650457
-434,-573,0.0599365,-0.365601,0.00274639,0.0172248,-0.00994714,0.0222881,-0.00231692,-1.09996,0.0156882,0.0446972,790,1597,0.0599298,0.365549
-427,-573,0.217529,-0.204102,0.00242994,0.0131467,-0.00776892,0.0172259,-0.0016493,-1.08729,0.0120713,0.0403088,797,1597,0.217541,0.204148
-420,-573,-0.156067,0.0316162,0.00224384,0.00972168,-0.00636959,0.0133686,-0.00140311,-1.0508,0.00941505,0.0370645,804,1597,-0.156079,-0.0316221
-413,-573,-0.153015,-0.0216064,0.00230329,0.00655635,-0.00529894,0.0101395,-0.0012799,-0.976217,0.00722422,0.0267952,811,1597,-0.153033,0.0216592
-406,-573,-0.0926514,-0.0672607,0.00211761,0.00364496,-0.00459432,0.00753864,-0.00177607,-0.867756,0.0057106,0.0133391,818,1597,-0.092648,0.0672987
-399,-573,-0.076355,-0.0668945,0.00191357,0.00133507,-0.00377369,0.00540908,-0.00216045,-0.747149,0.00450243,0.00978096,825,1597,-0.0763388,0.0668748
-392,-573,-0.0808716,-0.0632324,0.00155746,-0.00101208,-0.00310728,0.0036351,-0.00308972,-0.589366,0.00388683,0.0102234,832,1597,-0.0808995,0.0632786
-385,-573,-0.0855713,-0.0699463,0.00105545,-0.00200384,-0.00260114,0.00254337,-0.00349176,-0.519599,0.0034987,0.0125468,839,1597,-0.0855612,0.0699564
-378,-573,-0.0921631,-0.0692139,0.000854397,-0.00233524,-0.00218476,0.0019645,-0.00344535,-0.470118,0.00316214,0.0135268,846,1597,-0.0921471,0.0692592
-371,-573,-0.0717773,-0.0579834,0.000528322,-0.00215558,-0.00178314,0.00141805,-0.00304531,-0.462824,0.00263339,0.0144013,853,1597,-0.0718034,0.0579252
-364,-573,-0.078125,-0.0622559,0.000173765,-0.0014812,-0.00151943,0.00107642,-0.00238386,-0.536053,0.00204478,0.0176467,860,1597,-0.0781037,0.0622371
-357,-573,-0.0776367,-0.0557861,-0.000265322,-0.00160758,-0.000882488,0.000172242,-0.00204514,-0.460306,0.00142432,0.0205026,867,1597,-0.0776308,0.0557258
-350,-573,-0.057373,-0.0727539,-0.00067591,-0.00184943,-0.000147229,-0.00065772,-0.00186762,-0.122922,0.00109387,0.0161079,874,1597,-0.0573945,0.0727422
-343,-573,-0.0704346,-0.119507,-0.00120368,-0.00243059,0.000398794,-0.00108545,-0.00254882,0.288214,0.00147695,0.0199706,881,1597,-0.0704183,0.119507
-336,-573,-0.0726929,-0.0898438,-0.00206515,-0.00308845,0.00111175,-0.00135296,-0.00380063,0.569738,0.00222443,0.0159526,888,1597,-0.0726628,0.0897884
-329,-573,-0.0706177,-0.0527344,-0.00331238,-0.0040459,0.00194275,-0.00170208,-0.00565621,0.692105,0.00335078,0.0160499,895,1597,-0.0706392,0.0526813
-322,-573,-0.071167,-0.065918,-0.00492494,-0.00531315,0.00336238,-0.00175107,-0.00848702,0.756567,0.00517405,0.0110119,902,1597,-0.0711958,0.0659008
-315,-573,-0.0505981,-0.0776367,-0.00676604,-0.0064879,0.00541666,-0.00120852,-0.0120454,0.798233,0.00765928,0.0134731,909,1597,-0.0505975,0.0776961
-308,-573,-0.0447388,-0.0683594,-0.00946321,-0.00718533,0.00787639,-0.000365963,-0.0162826,0.857202,0.0107351,0.0201928,916,1597,-0.0447279,0.0683467
-301,-573,-0.123779,-0.0394287,-0.0103132,-0.00477281,0.00710429,8.22661e-05,-0.0151683,0.971298,0.0101397,0.0249476,923,1597,-0.123793,0.0394525
-294,-573,-0.0597534,-0.0891113,-0.00828101,-0.00353037,0.00722446,0.00169925,-0.0135106,0.944225,0.00962363,0.0294298,930,1597,-0.059749,0.0891412
-287,-573,0.0343628,-0.0623779,0,0,0,0,0,0,0,-1,937,1597,0.0343928,0.0623788
-280,-573,0.42395,-0.30127,0,0,0,0,0,0,0,-1,944,1597,0.423971,0.301318
-273,-573,0.327148,-0.201172,0,0,0,0,0,0,0,-1,951,1597,0.327158,0.20112
-266,-573,0.254883,-0.0620117,0,0,0,0,0,0,0,-1,958,1597,0.254884,0.0619885
-259,-573,0.581604,-0.842529,0,0,0,0,0,0,0,-1,965,1597,0.581624,0.842485
-252,-573,0.307617,0.715576,0,0,0,0,0,0,0,-1,972,1597,0.307589,-0.715553
-245,-573,-1.78577,0.655029,0,0,0,0,0,0,0,-1,979,1597,-1.78579,-0.655044
-238,-573,-1.3996,0.778198,0,0,0,0,0,0,0,-1,986,1597,-1.3996,-0.778161
-231,-573,-0.690857,1.18518,0,0,0,0,0,0,0,-1,993,1597,-0.690835,-1.18515
-224,-573,-0.931763,1.07935,0,0,0,0,0,0,0,-1,1000,1597,-0.931751,-1.07937
-217,-573,-0.394958,-0.0213623,0,0,0,0,0,0,0,-1,1007,1597,-0.394967,0.0213716
-210,-573,-0.539856,0.0946045,0.071042,-0.0199832,-0.0310461,0.0806225,-0.0295638,-0.299321,0.0658534,0.0422968,1014,1597,-0.539854,-0.0945483
-203,-573,-0.577393,0.236694,0.0785805,-0.0362118,-0.0333393,0.0875607,-0.045192,-0.263114,0.0779351,0.0458963,1021,1597,-0.577418,-0.23674
-196,-573,-0.354736,0.408691,0,0,0,0,0,0,0,-1,1028,1597,-0.354752,-0.40865
-189,-573,0.0407715,0.293091,0,0,0,0,0,0,0,-1,1035,1597,0.0407113,-0.293048
-182,-573,0,0,0,0,0,0,0,0,0,-1,1042,1597,0,0
-175,-573,0,0,0,0,0,0,0,0,0,-1,1049,1597,0,0
-168,-573,0,0,0,0,0,0,0,0,0,-1,1056,1597,0,0
-161,-573,0,0,0,0,0,0,0,0,0,-1,1063,1597,0,0
-154,-573,0,0,0,0,0,0,0,0,0,-1,1070,1597,0,0
-147,-573,0,0,0,0,0,0,0,0,0,-1,1077,1597,0,0
-140,-573,0,0,0,0,0,0,0,0,0,-1,1084,1597,0,0
-133,-573,0,0,0,0,0,0,0,0,0,-1,1091,1597,0,0
-126,-573,0,0,0,0,0,0,0,0,0,-1,1098,1597,0,0
-119,-573,0,0,0,0,0,0,0,0,0,-1,1105,1597,0,0
-112,-573,0,0,0,0,0,0,0,0,0,-1,1112,1597,0,0
-105,-573,0,0,0,0,0,0,0,0,0,-1,1119,1597,0,0
-98,-573,0,0,0,0,0,0,0,0,0,-1,1126,1597,0,0
-91,-573,0,0,0,0,0,0,0,0,0,-1,1133,1597,0,0
-84,-573,0,0,0,0,0,0,0,0,0,-1,1140,1597,0,0
-77,-573,0,0,0,0,0,0,0,0,0,-1,1147,1597,0,0
-70,-573,0,0,0,0,0,0,0,0,0,-1,1154,1597,0,0
-63,-573,0,0,0,0,0,0,0,0,0,-1,1161,1597,0,0
-56,-573,0,0,0,0,0,0,0,0,0,-1,1168,1597,0,0
-49,-573,0,0,0,0,0,0,0,0,0,-1,1175,1597,0,0
-42,-573,0,0,0,0,0,0,0,0,0,-1,1182,1597,0,0
-35,-573,0,0,0,0,0,0,0,0,0,-1,1189,1597,0,0
-28,-573,0,0,0,0,0,0,0,0,0,-1,1196,1597,0,0
-21,-573,0,0,0,0,0,0,0,0,0,-1,1203,1597,0,0
-14,-573,0,0,0,0,0,0,0,0,0,-1,1210,1597,0,0
-7,-573,0,0,0,0,0,0,0,0,0,-1,1217,1597,0,0
0,-573,0,0,0,0,0,0,0,0,0,-1,1224,1597,0,0
7,-573,0,0,0,0,0,0,0,0,0,-1,1231,1597,0,0
14,-573,0,0,0,0,0,0,0,0,0,-1,1238,1597,0,0
21,-573,0,0,0,0,0,0,0,0,0,-1,1245,1597,0,0
28,-573,0,0,0,0,0,0,0,0,0,-1,1252,1597,0,0
35,-573,0,0,0,0,0,0,0,0,0,-1,1259,1597,0,0
42,-573,0,0,0,0,0,0,0,0,0,-1,1266,1597,0,0
49,-573,0,0,0,0,0,0,0,0,0,-1,1273,1597,0,0
56,-573,0,0,0,0,0,0,0,0,0,-1,1280,1597,0,0
63,-573,0,0,0,0,0,0,0,0,0,-1,1287,1597,0,0
70,-573,0,0,0,0,0,0,0,0,0,-1,1294,1597,0,0
77,-573,0,0,0,0,0,0,0,0,0,-1,1301,1597,0,0
84,-573,0,0,0,0,0,0,0,0,0,-1,1308,1597,0,0
91,-573,0,0,0,0,0,0,0,0,0,-1,1315,1597,0,0
98,-573,0,0,0,0,0,0,0,0,0,-1,1322,1597,0,0
105,-573,0,0,0,0,0,0,0,0,0,-1,1329,1597,0,0
112,-573,0,0,0,0,0,0,0,0,0,-1,1336,1597,0,0
119,-573,0,0,0,0,0,0,0,0,0,-1,1343,1597,0,0
126,-573,0,0,0,0,0,0,0,0,0,-1,1350,1597,0,0
133,-573,0,0,0,0,0,0,0,0,0,-1,1357,1597,0,0
140,-573,0,0,0,0,0,0,0,0,0,-1,1364,1597,0,0
147,-573,0,0,0,0,0,0,0,0,0,-1,1371,1597,0,0
154,-573,0,0,0,0,0,0,0,0,0,-1,1378,1597,0,0
161,-573,0,0,0,0,0,0,0,0,0,-1,1385,1597,0,0
168,-573,0,0,0,0,0,0,0,0,0,-1,1392,1597,0,0
175,-573,0,0,0,0,0,0,0,0,0,-1,1399,1597,0,0
182,-573,0,0,0,0,0,0,0,0,0,-1,1406,1597,0,0
189,-573,0,0,0,0,0,0,0,0,0,-1,1413,1597,0,0
196,-573,0,0,0,0,0,0,0,0,0,-1,1420,1597,0,0
203,-573,0,0,0,0,0,0,0,0,0,-1,1427,1597,0,0
210,-573,0,0,0,0,0,0,0,0,0,-1,1434,1597,0,0
217,-573,0,0,0,0,0,0,0,0,0,-1,1441,1597,0,0
224,-573,0,0,0,0,0,0,0,0,0,-1,1448,1597,0,0
231,-573,0,0,0,0,0,0,0,0,0,-1,1455,1597,0,0
238,-573,0,0,0,0,0,0,0,0,0,-1,1462,1597,0,0
245,-573,0,0,0,0,0,0,0,0,0,-1,1469,1597,0,0
252,-573,0,0,0,0,0,0,0,0,0,-1,1476,1597,0,0
259,-573,0,0,0,0,0,0,0,0,0,-1,1483,1597,0,0
266,-573,0,0,0,0,0,0,0,0,0,-1,1490,1597,0,0
273,-573,0,0,0,0,0,0,0,0,0,-1,1497,1597,0,0
280,-573,0,0,0,0,0,0,0,0,0,-1,1504,1597,0,0
287,-573,0,0,0,0,0,0,0,0,0,-1,1511,1597,0,0
294,-573,0,0,0,0,0,0,0,0,0,-1,1518,1597,0,0
301,-573,0,0,0,0,0,0,0,0,0,-1,1525,1597,0,0
308,-573,-0.986572,-0.973022,0.0502141,0.0238732,0.0430777,0.0820898,-0.00800242,0.637042,0.0575797,0.0423084,1532,1597,-0.98653,0.973042
315,-573,-0.734863,-0.826416,0.0180074,0.0129386,0.0218861,0.0375054,-0.00655938,0.727755,0.0274525,0.0409134,1539,1597,-0.734917,0.826468
322,-573,-0.353638,-0.560913,0.0150228,0.0107884,0.0139433,0.0270088,-0.00119757,0.710052,0.018418,0.0416513,1546,1597,-0.353618,0.560871
329,-573,-0.0480957,-0.449097,0.0146738,0.00943518,0.00979482,0.0221935,0.00191548,0.654747,0.0142003,0.0426182,1553,1597,-0.0480433,0.44904
336,-573,-0.102661,-0.4021,0,0,0,0,0,0,0,-1,1560,1597,-0.102619,0.402099
343,-573,-0.164429,0.0966797,0.0100295,0.0100586,0.000170357,0.010215,0.00987307,0.82796,0.00669894,0.0457151,1567,1597,-0.164467,-0.0966625
350,-573,0.0568848,0.282837,0.00844771,0.010747,-0.00425816,0.014008,0.00518674,-0.917248,0.00817775,0.0422319,1574,1597,0.0568646,-0.282859
357,-573,0.288086,0.428101,0.0085347,0.01278,-0.00664907,0.017637,0.00367768,-0.939905,0.010744,0.0460542,1581,1597,0.288047,-0.42808
364,-573,-2.66467,0.530396,0,0,0,0,0,0,0,-1,1588,1597,-2.66464,-0.530357
371,-573,-1.90222,-0.114624,0.010762,0.0153777,-0.0103788,0.0237021,0.00243758,-0.8948,0.0150548,0.04523,1595,1597,-1.90217,0.114586
378,-573,-1.0332,-0.941895,0.0118283,0.0170385,-0.0109291,0.0256687,0.00319806,-0.902397,0.0161523,0.0452104,1602,1597,-1.03319,0.941893
385,-573,-3.99292,0.517334,0,0,0,0,0,0,0,-1,1609,1597,-3.99293,-0.517337
392,-573,-3.36401,0.510132,0.0148389,0.0197724,-0.00791116,0.0255925,0.00901887,-0.936523,0.0149889,0.0489434,1616,1597,-3.36398,-0.510146
399,-573,-2.75525,0.54248,0.0157882,0.0224873,-0.00588553,0.0259097,0.0123658,-1.0441,0.0149641,0.0464441,1623,1597,-2.7553,-0.542504
406,-573,-2.39722,0.417969,0.0163582,0.0232783,-0.00393329,0.0250569,0.0145797,-1.14614,0.0145311,0.0458908,1630,1597,-2.39724,-0.418028
413,-573,-0.860107,-0.102417,0,0,0,0,0,0,0,-1,1637,1597,-0.860108,0.102444
420,-573,-0.272827,0.22876,0.0173663,0.022494,0.000289758,0.0225103,0.01735,1.51453,0.0136167,0.0455021,1644,1597,-0.272803,-0.2288
427,-573,0.0794678,0.108887,0.0152195,0.0214813,0.00194919,0.0220385,0.0146623,1.29237,0.0129537,0.0455174,1651,1597,0.0795189,-0.108874
434,-573,-0.00463867,-0.0153809,0.0126372,0.0209312,0.00271332,0.02174,0.0118284,1.28111,0.0125679,0.0345208,1658,1597,-0.00464021,0.0154172
441,-573,-0.081543,-0.0269775,0.0115939,0.0183975,0.00248322,0.0192074,0.010784,1.25552,0.0111173,0.0220037,1665,1597,-0.081526,0.0269678
448,-573,-0.0723877,-0.0506592,0.0102516,0.0150483,0.00270258,0.0162632,0.00903661,1.14831,0.00940894,0.014233,1672,1597,-0.0724327,0.0506939
455,-573,-0.0422363,-0.0614014,0.00905923,0.0120652,0.00193137,0.0130095,0.00811494,1.11605,0.00758737,0.0127979,1679,1597,-0.0422641,0.0613906
462,-573,-0.0550537,-0.0568848,0.00645601,0.0097043,0.000564038,0.00979946,0.00636086,1.40367,0.00574096,0.0170336,1686,1597,-0.0550372,0.0569172
469,-573,-0.0472412,-0.0469971,0.00424216,0.00750326,2.24349e-05,0.00750342,0.00424201,1.56392,0.00434441,0.014636,1693,1597,-0.047254,0.0469456
476,-573,-0.0354004,-0.0534668,0.00263139,0.00543086,-0.000268053,0.00545629,0.00260595,-1.47619,0.00315124,0.0130702,1700,1597,-0.0353483,0.0534187
483,-573,-0.0531006,-0.057251,0.00192424,0.0039208,-0.000258848,0.00395382,0.00189123,-1.44394,0.00228345,0.0103721,1707,1597,-0.0530609,0.0572059
490,-573,-0.0559082,-0.0526123,0.00137908,0.00260157,-0.00032531,0.00268275,0.0012979,-1.32626,0.00154916,0.00895353,1714,1597,-0.0559114,0.0526361
497,-573,-0.0595703,-0.0438232,0.000858546,0.00148792,-0.00042981,0.00170593,0.000640537,-1.10139,0.000995047,0.0135765,1721,1597,-0.0595131,0.043848
504,-573,-0.0596924,-0.0671387,0.000374378,6.7533e-05,-0.000536175,0.000778649,-0.000336738,-0.64605,0.000660601,0.0164892,1728,1597,-0.0596969,0.06718
511,-573,-0.0769043,-0.0712891,-6.31927e-05,9.63672e-05,-0.000658596,0.000679997,-0.000646823,-0.845673,0.00076612,0.016989,1735,1597,-0.0769373,0.0712548
518,-573,-0.0819092,-0.0667725,-0.000242025,0.000113905,-0.000700574,0.000658765,-0.000786885,-0.909781,0.000835738,0.0128708,1742,1597,-0.0818733,0.0667623
525,-573,-0.0804443,-0.0854492,-0.000610387,0.000313535,-0.00085805,0.000826078,-0.00112293,-1.03234,0.0011296,0.015801,1749,1597,-0.0805031,0.0854969
532,-573,-0.0767822,-0.06604,-0.00128022,0.000250874,-0.000998705,0.000743689,-0.00177303,-1.1124,0.00149299,0.0150373,1756,1597,-0.0767387,0.0660378
539,-573,-0.0622559,-0.0562744,-0.00205088,5.73645e-05,-0.000890263,0.000383003,-0.00237652,-1.22013,0.00172624,0.0152401,1763,1597,-0.0622872,0.0562813
546,-573,-0.0712891,-0.0629883,-0.00284952,0.000210106,-0.000426714,0.000268504,-0.00290792,-1.43479,0.00203403,0.0219652,1770,1597,-0.0712659,0.0629631
553,-573,-0.136475,-0.189819,-0.00370137,-0.000190883,0.000328718,-0.000160367,-0.00373189,1.47823,0.00243623,0.0356462,1777,1597,-0.136486,0.189831
560,-573,-0.268555,-0.481445,-0.00451394,-0.000761926,0.00135015,-0.000326589,-0.00494927,1.25889,0.00319622,0.0427948,1784,1597,-0.268528,0.481456
567,-573,0.918823,0.233521,0,0,0,0,0,0,0,-1,1791,1597,0.918812,-0.233473
574,-573,0.485962,0.162842,-0.00625144,-0.00191684,0.00425558,0.000691546,-0.00885983,1.02092,0.00615004,0.0437336,1798,1597,0.485954,-0.162888
581,-573,0.0157471,0.379761,-0.0072848,-0.00333743,0.00615432,0.00115194,-0.0117742,0.940567,0.00826025,0.0418953,1805,1597,0.0157313,-0.37981
588,-573,-0.166748,0.431396,-0.00816924,-0.00496912,0.00827349,0.00185761,-0.014996,0.880917,0.0106706,0.0433834,1812,1597,-0.166791,-0.4314
595,-573,-0.416016,0.642822,-0.00931815,-0.00693173,0.01066,0.00260165,-0.0188515,0.841133,0.0135186,0.0428248,1819,1597,-0.416038,-0.642777
602,-573,0,0,0,0,0,0,0,0,0,-1,1826,1597,0,0
609,-573,0,0,0,0,0,0,0,0,0,-1,1833,1597,0,0
616,-573,0,0,0,0,0,0,0,0,0,-1,1840,1597,0,0
623,-573,0,0,0,0,0,0,0,0,0,-1,1847,1597,0,0
630,-573,0,0,0,0,0,0,0,0,0,-1,1854,1597,0,0
637,-573,0,0,0,0,0,0,0,0,0,-1,1861,1597,0,0
644,-573,0,0,0,0,0,0,0,0,0,-1,1868,1597,0,0
651,-573,0,0,0,0,0,0,0,0,0,-1,1875,1597,0,0
658,-573,0,0,0,0,0,0,0,0,0,-1,1882,1597,0,0
665,-573,0,0,0,0,0,0,0,0,0,-1,1889,1597,0,0
672,-573,0,0,0,0,0,0,0,0,0,-1,1896,1597,0,0
679,-573,0,0,0,0,0,0,0,0,0,-1,1903,1597,0,0
686,-573,0,0,0,0,0,0,0,0,0,-1,1910,1597,0,0
693,-573,0,0,0,0,0,0,0,0,0,-1,1917,1597,0,0
700,-573,0,0,0,0,0,0,0,0,0,-1,1924,1597,0,0
707,-573,0,0,0,0,0,0,0,0,0,-1,1931,1597,0,0
714,-573,0,0,0,0,0,0,0,0,0,-1,1938,1597,0,0
721,-573,0,0,0,0,0,0,0,0,0,-1,1945,1597,0,0
728,-573,0,0,0,0,0,0,0,0,0,-1,1952,1597,0,0
735,-573,0,0,0,0,0,0,0,0,0,-1,1959,1597,0,0
742,-573,0,0,0,0,0,0,0,0,0,-1,1966,1597,0,0
749,-573,0,0,0,0,0,0,0,0,0,-1,1973,1597,0,0
756,-573,0,0,0,0,0,0,0,0,0,-1,1980,1597,0,0
763,-573,0,0,0,0,0,0,0,0,0,-1,1987,1597,0,0
770,-573,0,0,0,0,0,0,0,0,0,-1,1994,1597,0,0
777,-573,0,0,0,0,0,0,0,0,0,-1,2001,1597,0,0
784,-573,0,0,0,0,0,0,0,0,0,-1,2008,1597,0,0
791,-573,0,0,0,0,0,0,0,0,0,-1,2015,1597,0,0
798,-573,0,0,0,0,0,0,0,0,0,-1,2022,1597,0,0
805,-573,0,0,0,0,0,0,0,0,0,-1,2029,1597,0,0
812,-573,0,0,0,0,0,0,0,0,0,-1,2036,1597,0,0
-700,-580,0,0,0,0,0,0,0,0,0,-1,524,1604,0,0
-693,-580,0,0,0,0,0,0,0,0,0,-1,531,1604,0,0
-686,-580,0,0,0,0,0,0,0,0,0,-1,538,1604,0,0
-679,-580,0,0,0,0,0,0,0,0,0,-1,545,1604,0,0
-672,-580,0,0,0,0,0,0,0,0,0,-1,552,1604,0,0
-665,-580,0,0,0,0,0,0,0,0,0,-1,559,1604,0,0
-658,-580,0,0,0,0,0,0,0,0,0,-1,566,1604,0,0
-651,-580,0,0,0,0,0,0,0,0,0,-1,573,1604,0,0
-644,-580,0,0,0,0,0,0,0,0,0,-1,580,1604,0,0
-637,-580,0,0,0,0,0,0,0,0,0,-1,587,1604,0,0
-630,-580,0,0,0,0,0,0,0,0,0,-1,594,1604,0,0
-623,-580,0,0,0,0,0,0,0,0,0,-1,601,1604,0,0
-616,-580,0,0,0,0,0,0,0,0,0,-1,608,1604,0,0
-609,-580,0,0,0,0,0,0,0,0,0,-1,615,1604,0,0
-602,-580,0,0,0,0,0,0,0,0,0,-1,622,1604,0,0
-595,-580,0,0,0,0,0,0,0,0,0,-1,629,1604,0,0
-588,-580,0,0,0,0,0,0,0,0,0,-1,636,1604,0,0
-581,-580,0,0,0,0,0,0,0,0,0,-1,643,1604,0,0
-574,-580,0,0,0,0,0,0,0,0,0,-1,650,1604,0,0
-567,-580,0,0,0,0,0,0,0,0,0,-1,657,1604,0,0
-560,-580,0,0,0,0,0,0,0,0,0,-1,664,1604,0,0
-553,-580,0,0,0,0,0,0,0,0,0,-1,671,1604,0,0
-546,-580,0,0,0,0,0,0,0,0,0,-1,678,1604,0,0
-539,-580,0,0,0,0,0,0,0,0,0,-1,685,1604,0,0
-532,-580,0,0,0,0,0,0,0,0,0,-1,692,1604,0,0
-525,-580,0,0,0,0,0,0,0,0,0,-1,699,1604,0,0
-518,-580,0,0,0,0,0,0,0,0,0,-1,706,1604,0,0
-511,-580,0,0,0,0,0,0,0,0,0,-1,713,1604,0,0
-504,-580,0,0,0,0,0,0,0,0,0,-1,720,1604,0,0
-497,-580,0,0,0,0,0,0,0,0,0,-1,727,1604,0,0
-490,-580,0,0,0,0,0,0,0,0,0,-1,734,1604,0,0
-483,-580,0,0,0,0,0,0,0,0,0,-1,741,1604,0,0
-476,-580,0,0,0,0,0,0,0,0,0,-1,748,1604,0,0
-469,-580,0.680115,-0.0605469,0,0,0,0,0,0,0,-1,755,1604,0.680144,0.0605685
-462,-580,0.744202,-0.604492,0,0,0,0,0,0,0,-1,762,1604,0.74423,0.604469
-455,-580,0.814026,-0.587524,0.00233232,0.0373049,-0.0190554,0.0456812,-0.00604405,-1.15664,0.0326558,0.0483458,769,1604,0.814025,0.587538
-448,-580,1.05029,-0.233032,0.00373779,0.0308063,-0.0163157,0.0384706,-0.00392649,-1.13164,0.0270511,0.0477152,776,1604,1.05031,0.233072
-441,-580,0.833191,-0.381104,0.00433741,0.0244746,-0.0137523,0.0314501,-0.00263812,-1.10138,0.0218991,0.0470742,783,1604,0.833217,0.381151
-434,-580,0.728821,-0.532959,0.00447496,0.0193098,-0.0115796,0.0256439,-0.00185915,-1.07025,0.0177481,0.0419331,790,1604,0.728826,0.532945
-427,-580,0.490723,-0.506714,0.00423002,0.0144948,-0.00954122,0.0201964,-0.00147163,-1.03216,0.0139807,0.0394585,797,1604,0.49075,0.506739
-420,-580,0.341492,-0.484619,0.00400893,0.0105068,-0.00816363,0.0160442,-0.00152852,-0.974778,0.0112404,0.0402667,804,1604,0.341504,0.484607
-413,-580,-0.12384,0.128174,0.00386206,0.00694234,-0.00707279,0.0126407,-0.00183633,-0.892602,0.00910123,0.042883,811,1604,-0.12381,-0.128144
-406,-580,-0.133972,-0.0108643,0.00341608,0.00377018,-0.00631998,0.00991558,-0.00272933,-0.799402,0.00768349,0.0339249,818,1604,-0.133956,0.0108745
-399,-580,-0.0581665,-0.0683594,0.00298683,0.00130081,-0.00537493,0.00758446,-0.00329682,-0.707612,0.00644283,0.0139673,825,1604,-0.0581439,0.0683321
-392,-580,-0.053772,-0.0699463,0.00242661,-0.00122005,-0.00459134,0.00554341,-0.00433685,-0.596386,0.00571853,0.010066,832,1604,-0.0537775,0.0699098
-385,-580,-0.0580444,-0.0753174,0.0017844,-0.00214685,-0.00396616,0.0042453,-0.00460775,-0.555338,0.00511274,0.0113866,839,1604,-0.0580261,0.0753702
-378,-580,-0.0565186,-0.0649414,0.00148109,-0.00234211,-0.00341919,0.00348677,-0.00434779,-0.530504,0.00453239,0.0137689,846,1604,-0.0565278,0.0649785
-371,-580,-0.0532837,-0.0566406,0.000955495,-0.00192852,-0.00284037,0.00269894,-0.00367196,-0.550511,0.00369251,0.0122346,853,1604,-0.0532652,0.0565801
-364,-580,-0.0980225,-0.0566406,0.000479087,-0.00102879,-0.00241385,0.002254,-0.0028037,-0.634029,0.00292581,0.0181659,860,1604,-0.0980218,0.0566274
-357,-580,-0.0710449,-0.0727539,4.79206e-05,-0.000961319,-0.00160907,0.00122964,-0.00214304,-0.63345,0.00197088,0.0135726,867,1604,-0.0710615,0.0727476
-350,-580,-0.046875,-0.0584717,-0.000356655,-0.00098266,-0.000768629,0.000160258,-0.00149957,-0.59204,0.00105719,0.00996089,874,1604,-0.0468793,0.058446
-343,-580,-0.0467529,-0.0733643,-0.000846379,-0.00113215,-0.000216804,-0.000729609,-0.00124892,-0.494045,0.000724461,0.00995414,881,1604,-0.0467494,0.0734135
-336,-580,-0.0564575,-0.102051,-0.00161982,-0.00136189,0.000446123,-0.00102647,-0.00195524,0.926099,0.00112933,0.0172606,888,1604,-0.0564326,0.102056
-329,-580,-0.0698242,-0.0839844,-0.0027346,-0.00180992,0.00114303,-0.00103927,-0.00350525,0.977582,0.00207888,0.0166962,895,1604,-0.0698531,0.0839719
-322,-580,-0.0792847,-0.0837402,-0.0040977,-0.00254788,0.00224611,-0.000946772,-0.00569881,0.951506,0.00352624,0.0166016,902,1604,-0.0792972,0.0837832
-315,-580,-0.0838623,-0.0582275,-0.00562603,-0.00319283,0.00381393,-0.000406153,-0.0084127,0.939791,0.0054781,0.0133107,909,1604,-0.0838343,0.0582343
-308,-580,-0.0804443,-0.041748,-0.00793385,-0.00363685,0.00584048,0.000437779,-0.0120085,0.961648,0.0081555,0.0144039,916,1604,-0.0804579,0.0417801
-301,-580,-0.0557251,-0.0666504,-0.00882421,-0.00159991,0.00528682,0.00119092,-0.011615,1.08509,0.00816932,0.0128951,923,1604,-0.0557373,0.0666726
-294,-580,-0.0244751,-0.09021,-0.00752535,-0.000459986,0.00540419,0.00246373,-0.0104491,1.07488,0.00791613,0.0170102,930,1604,-0.0244794,0.0902181
-287,-580,-0.0250854,-0.0336914,-0.00755656,0.000776171,0.00537875,0.00341345,-0.0101938,1.11493,0.00817482,0.0347959,937,1604,-0.0250805,0.033675
-280,-580,-0.164612,0.0864258,0,0,0,0,0,0,0,-1,944,1604,-0.164611,-0.0864741
-273,-580,-0.111877,0.0697021,0,0,0,0,0,0,0,-1,951,1604,-0.111848,-0.0697521
-266,-580,0.277527,-0.60022,0,0,0,0,0,0,0,-1,958,1604,0.277504,0.600202
-259,-580,0.46228,-0.761353,0.000347463,0.00983169,0.00111572,0.00996118,0.000217977,1.45526,0.00656933,0.0444652,965,1604,0.462292,0.761307
-252,-580,-0.870178,0.0627441,0.00530828,0.0107845,-0.00191978,0.0113905,0.00470232,-1.26505,0.00660952,0.0458164,972,1604,-0.870173,-0.0627401
-245,-580,-0.909729,0.327759,0.0113704,0.0108017,-0.00486227,0.0159566,0.00621549,-0.75619,0.00928723,0.0455964,979,1604,-0.909738,-0.327776
-238,-580,-0.865417,0.457886,0.018338,0.0100582,-0.00789125,0.0231093,0.00528682,-0.543824,0.0139812,0.0491842,986,1604,-0.865412,-0.457853
-231,-580,-0.714905,0.717896,0,0,0,0,0,0,0,-1,993,1604,-0.714935,-0.717858
-224,-580,-0.542358,0.887695,0,0,0,0,0,0,0,-1,1000,1604,-0.542389,-0.887689
-217,-580,-0.344055,1.02222,0,0,0,0,0,0,0,-1,1007,1604,-0.344042,-1.02226
-210,-580,0.277039,0.261108,0.053851,-0.0156238,-0.0219488,0.0602041,-0.021977,-0.281755,0.0491286,0.0422527,1014,1604,0.277046,-0.261143
-203,-580,0.72229,0.733276,0.0601392,-0.0280123,-0.0231155,0.0658329,-0.033706,-0.241508,0.058458,0.0459776,1021,1604,0.722275,-0.733261
-196,-580,1.15112,0.987183,0,0,0,0,0,0,0,-1,1028,1604,1.15118,-0.987176
-189,-580,-0.31189,0.412964,0,0,0,0,0,0,0,-1,1035,1604,-0.31184,-0.412904
-182,-580,-0.00268555,0.329956,0,0,0,0,0,0,0,-1,1042,1604,-0.00263521,-0.329926
-175,-580,0.291138,0.340332,0,0,0,0,0,0,0,-1,1049,1604,0.29116,-0.340384
-168,-580,0,0,0,0,0,0,0,0,0,-1,1056,1604,0,0
-161,-580,0,0,0,0,0,0,0,0,0,-1,1063,1604,0,0
-154,-580,0,0,0,0,0,0,0,0,0,-1,1070,1604,0,0
-147,-580,0,0,0,0,0,0,0,0,0,-1,1077,1604,0,0
-140,-580,0,0,0,0,0,0,0,0,0,-1,1084,1604,0,0
-133,-580,0,0,0,0,0,0,0,0,0,-1,1091,1604,0,0
-126,-580,0,0,0,0,0,0,0,0,0,-1,1098,1604,0,0
-119,-580,0,0,0,0,0,0,0,0,0,-1,1105,1604,0,0
-112,-580,0,0,0,0,0,0,0,0,0,-1,1112,1604,0,0
-105,-580,0,0,0,0,0,0,0,0,0,-1,1119,1604,0,0
-98,-580,0,0,0,0,0,0,0,0,0,-1,1126,1604,0,0
-91,-580,0,0,0,0,0,0,0,0,0,-1,1133,1604,0,0
-84,-580,0,0,0,0,0,0,0,0,0,-1,1140,1604,0,0
-77,-580,0,0,0,0,0,0,0,0,0,-1,1147,1604,0,0
-70,-580,0,0,0,0,0,0,0,0,0,-1,1154,1604,0,0
-63,-580,0,0,0,0,0,0,0,0,0,-1,1161,1604,0,0
-56,-580,0,0,0,0,0,0,0,0,0,-1,1168,1604,0,0
-49,-580,0,0,0,0,0,0,0,0,0,-1,1175,1604,0,0
-42,-580,0,0,0,0,0,0,0,0,0,-1,1182,1604,0,0
-35,-580,0,0,0,0,0,0,0,0,0,-1,1189,1604,0,0
-28,-580,0,0,0,0,0,0,0,0,0,-1,1196,1604,0,0
-21,-580,0,0,0,0,0,0,0,0,0,-1,1203,1604,0,0
-14,-580,0,0,0,0,0,0,0,0,0,-1,1210,1604,0,0
-7,-580,0,0,0,0,0,0,0,0,0,-1,1217,1604,0,0
0,-580,0,0,0,0,0,0,0,0,0,-1,1224,1604,0,0
7,-580,0,0,0,0,0,0,0,0,0,-1,1231,1604,0,0
14,-580,0,0,0,0,0,0,0,0,0,-1,1238,1604,0,0
21,-580,0,0,0,0,0,0,0,0,0,-1,1245,1604,0,0
28,-580,0,0,0,0,0,0,0,0,0,-1,1252,1604,0,0
35,-580,0,0,0,0,0,0,0,0,0,-1,1259,1604,0,0
42,-580,0,0,0,0,0,0,0,0,0,-1,1266,1604,0,0
49,-580,0,0,0,0,0,0,0,0,0,-1,1273,1604,0,0
56,-580,0,0,0,0,0,0,0,0,0,-1,1280,1604,0,0
63,-580,0,0,0,0,0,0,0,0,0,-1,1287,1604,0,0
70,-580,0,0,0,0,0,0,0,0,0,-1,1294,1604,0,0
77,-580,0,0,0,0,0,0,0,0,0,-1,1301,1604,0,0
84,-580,0,0,0,0,0,0,0,0,0,-1,1308,1604,0,0
91,-580,0,0,0,0,0,0,0,0,0,-1,1315,1604,0,0
98,-580,0,0,0,0,0,0,0,0,0,-1,1322,1604,0,0
105,-580,0,0,0,0,0,0,0,0,0,-1,1329,1604,0,0
112,-580,0,0,0,0,0,0,0,0,0,-1,1336,1604,0,0
119,-580,0,0,0,0,0,0,0,0,0,-1,1343,1604,0,0
126,-580,0,0,0,0,0,0,0,0,0,-1,1350,1604,0,0
133,-580,0,0,0,0,0,0,0,0,0,-1,1357,1604,0,0
140,-580,0,0,0,0,0,0,0,0,0,-1,1364,1604,0,0
147,-580,0,0,0,0,0,0,0,0,0,-1,1371,1604,0,0
154,-580,0,0,0,0,0,0,0,0,0,-1,1378,1604,0,0
161,-580,0,0,0,0,0,0,0,0,0,-1,1385,1604,0,0
168,-580,0,0,0,0,0,0,0,0,0,-1,1392,1604,0,0
175,-580,0,0,0,0,0,0,0,0,0,-1,1399,1604,0,0
182,-580,0,0,0,0,0,0,0,0,0,-1,1406,1604,0,0
189,-580,0,0,0,0,0,0,0,0,0,-1,1413,1604,0,0
196,-580,0,0,0,0,0,0,0,0,0,-1,1420,1604,0,0
203,-580,0,0,0,0,0,0,0,0,0,-1,1427,1604,0,0
210,-580,0,0,0,0,0,0,0,0,0,-1,1434,1604,0,0
217,-580,0,0,0,0,0,0,0,0,0,-1,1441,1604,0,0
224,-580,0,0,0,0,0,0,0,0,0,-1,1448,1604,0,0
231,-580,0,0,0,0,0,0,0,0,0,-1,1455,1604,0,0
238,-580,0,0,0,0,0,0,0,0,0,-1,1462,1604,0,0
245,-580,0,0,0,0,0,0,0,0,0,-1,1469,1604,0,0
252,-580,0,0,0,0,0,0,0,0,0,-1,1476,1604,0,0
259,-580,0,0,0,0,0,0,0,0,0,-1,1483,1604,0,0
266,-580,0,0,0,0,0,0,0,0,0,-1,1490,1604,0,0
273,-580,0,0,0,0,0,0,0,0,0,-1,1497,1604,0,0
280,-580,0,0,0,0,0,0,0,0,0,-1,1504,1604,0,0
287,-580,0,0,0,0,0,0,0,0,0,-1,1511,1604,0,0
294,-580,-1.55298,-2.56873,0,0,0,0,0,0,0,-1,1518,1604,-1.55297,2.56871
301,-580,-1.35449,-1.9325,0.0899433,0.0439146,0.0584412,0.129738,0.00411943,0.597821,0.0851524,0.0445748,1525,1604,-1.3545,1.93247
308,-580,-1.32556,-1.37476,0.032211,0.0400557,0.039075,0.0754047,-0.00313801,0.835421,0.0513478,0.0425668,1532,1604,-1.32555,1.37471
315,-580,-0.929199,-0.813354,0.00563416,0.0251223,0.019164,0.0368771,-0.00612072,1.02059,0.0268585,0.0421462,1539,1604,-0.92916,0.813343
322,-580,-0.299438,-0.370728,0.00505992,0.018733,0.0116888,0.0254378,-0.00164484,1.05001,0.0175325,0.0435418,1546,1604,-0.299396,0.370717
329,-580,-0.291382,-0.179321,0.00720183,0.014551,0.00822184,0.019882,0.00187078,0.995546,0.0126772,0.0456063,1553,1604,-0.291389,0.179357
336,-580,-0.188599,0.00683594,0,0,0,0,0,0,0,-1,1560,1604,-0.188566,-0.00688803
343,-580,-0.00195313,0.187988,0.00610403,0.010499,-0.00032737,0.0105232,0.00607977,-1.49685,0.00610002,0.045231,1567,1604,-0.00200339,-0.188029
350,-580,0.151489,0.339111,0.00565239,0.0099209,-0.00443333,0.012707,0.00286633,-1.00973,0.00769589,0.0404471,1574,1604,0.151477,-0.339091
357,-580,0.368652,0.347046,0.00661723,0.0111786,-0.00701607,0.0162754,0.00152047,-0.942544,0.0103806,0.0406921,1581,1604,0.36863,-0.346993
364,-580,-1.22021,0.20813,0.00786314,0.011632,-0.00934296,0.0192787,0.000216478,-0.884912,0.0127809,0.0442413,1588,1604,-1.22025,-0.20812
371,-580,-1.00024,-0.295044,0.00938605,0.0129261,-0.0110724,0.022369,-5.68954e-05,-0.864657,0.0149317,0.0425053,1595,1604,-1.00026,0.295102
378,-580,-0.671143,-0.418701,0.0104585,0.0143718,-0.0119177,0.0244925,0.000337897,-0.866762,0.0162169,0.0423973,1602,1604,-0.671154,0.418756
385,-580,-0.276855,-0.322266,0.0115652,0.0157575,-0.0114727,0.025324,0.00199875,-0.875756,0.0162574,0.04256,1609,1604,-0.276818,0.322208
392,-580,0.0281982,-0.333618,0.0128115,0.0167938,-0.00963834,0.0246445,0.0049608,-0.887257,0.0150511,0.0448551,1616,1604,0.0282448,0.33358
399,-580,-3.54993,-0.53418,0.0134377,0.0190924,-0.00778211,0.0245449,0.00798527,-0.95964,0.0144563,0.049159,1623,1604,-3.54993,0.534171
406,-580,-1.06702,-0.302856,0,0,0,0,0,0,0,-1,1630,1604,-1.06706,0.302889
413,-580,-0.719116,-0.165039,0.0141372,0.0193445,-0.00394933,0.0214712,0.0120105,-1.07683,0.0124255,0.0433534,1637,1604,-0.719121,0.165029
420,-580,-0.349365,-0.0727539,0.0138715,0.0186086,-0.00164087,0.0191215,0.0133586,-1.26787,0.0113264,0.0405258,1644,1604,-0.349385,0.0727003
427,-580,-0.078125,-0.0299072,0.0117354,0.0175382,0.000151317,0.0175422,0.0117315,1.54474,0.0103185,0.0323553,1651,1604,-0.0781779,0.0299185
434,-580,-0.0924072,-0.0356445,0.00935361,0.0168456,0.00117265,0.0170248,0.00917435,1.41911,0.0098392,0.020552,1658,1604,-0.0924372,0.0356596
441,-580,-0.0931396,-0.0628662,0.00839207,0.0145391,0.0012985,0.0148021,0.00812903,1.37093,0.00855978,0.0105174,1665,1604,-0.0931411,0.0629067
448,-580,-0.0599365,-0.0524902,0.00742592,0.0115871,0.00182414,0.0122735,0.0067395,1.21089,0.00709751,0.0100613,1672,1604,-0.0599782,0.0524823
455,-580,-0.00915527,-0.0305176,0.00669746,0.00900797,0.00138621,0.00965721,0.00604822,1.13278,0.00563457,0.0161452,1679,1604,-0.00913676,0.0305567
462,-580,-0.064209,-0.0439453,0.00461394,0.00711814,0.000320946,0.00715861,0.00457346,1.44533,0.00418583,0.0215684,1686,1604,-0.0641705,0.0439742
469,-580,-0.0727539,-0.0689697,0.00294041,0.00558983,-0.00012944,0.00559614,0.0029341,-1.52209,0.00323221,0.0188194,1693,1604,-0.0727356,0.068925
476,-580,-0.041626,-0.0628662,0.00175002,0.00407638,-0.000418079,0.00414923,0.00167716,-1.39827,0.00241017,0.0134576,1700,1604,-0.0415894,0.0628769
483,-580,-0.0673828,-0.0579834,0.00130223,0.0030537,-0.000495474,0.00318415,0.00117178,-1.31336,0.0018596,0.0112743,1707,1604,-0.0673341,0.0579628
490,-580,-0.0845947,-0.0557861,0.0010013,0.00220061,-0.000613281,0.00245868,0.000743229,-1.17248,0.00145604,0.0120435,1714,1604,-0.0846005,0.0557914
497,-580,-0.0739746,-0.0546875,0.000595596,0.00145517,-0.000756628,0.00189555,0.000155208,-1.04369,0.00121527,0.009684,1721,1604,-0.0739537,0.0546461
504,-580,-0.0750732,-0.0622559,0.000141247,0.000435117,-0.000941726,0.0012413,-0.000664938,-0.862788,0.00111721,0.015498,1728,1604,-0.0750213,0.0622536
511,-580,-0.0699463,-0.0526123,-0.00027967,0.000569832,-0.00111227,0.00133569,-0.00104553,-0.967791,0.0013782,0.0158166,1735,1604,-0.0699826,0.0525867
518,-580,-0.0709229,-0.0661621,-0.000501495,0.000669267,-0.00114091,0.0013662,-0.00119843,-1.02243,0.00148175,0.0143719,1742,1604,-0.0709574,0.0661533
525,-580,-0.112793,-0.0791016,-0.000922281,0.000952685,-0.00125656,0.00158294,-0.00155254,-1.10589,0.0018103,0.01679,1749,1604,-0.112748,0.0790955
532,-580,-0.105347,-0.0598145,-0.00164947,0.000929445,-0.00133009,0.00149251,-0.00221254,-1.17034,0.00215254,0.0183932,1756,1604,-0.105301,0.0598243
539,-580,-0.0759277,-0.0529785,-0.00249919,0.000743473,-0.00114663,0.00110796,-0.00286367,-1.26302,0.00236653,0.021269,1763,1604,-0.0759225,0.0530379
546,-580,-0.156616,-0.043335,-0.00336651,0.000894715,-0.000589814,0.000974847,-0.00344664,-1.43576,0.00268242,0.0346422,1770,1604,-0.15657,0.04332
553,-580,-0.00317383,-0.0427246,-0.00434456,0.00050954,0.000254211,0.000522817,-0.00435784,1.51862,0.00309426,0.0438587,1777,1604,-0.00320146,0.0427153
560,-580,-0.126831,-0.33667,-0.00526383,1.33646e-05,0.00146721,0.000393856,-0.00564432,1.31706,0.0039008,0.0460342,1784,1604,-0.126811,0.336616
567,-580,-0.564087,-0.0562744,0,0,0,0,0,0,0,-1,1791,1604,-0.564058,0.0562365
574,-580,0.460327,-0.0822754,0,0,0,0,0,0,0,-1,1798,1604,0.460354,0.0822953
581,-580,0.0206299,0.356567,-0.00771046,-0.00247255,0.00717271,0.00254438,-0.0127274,0.960442,0.00944795,0.0402283,1805,1604,0.0206889,-0.356581
588,-580,-0.123901,0.531738,-0.00833585,-0.00408364,0.00994611,0.00396106,-0.0163806,0.890695,0.0124525,0.0455262,1812,1604,-0.123944,-0.531746
595,-580,0,0,0,0,0,0,0,0,0,-1,1819,1604,0,0
602,-580,0,0,0,0,0,0,0,0,0,-1,1826,1604,0,0
609,-580,0,0,0,0,0,0,0,0,0,-1,1833,1604,0,0
616,-580,0,0,0,0,0,0,0,0,0,-1,1840,1604,0,0
623,-580,0,0,0,0,0,0,0,0,0,-1,1847,1604,0,0
630,-580,0,0,0,0,0,0,0,0,0,-1,1854,1604,0,0
637,-580,0,0,0,0,0,0,0,0,0,-1,1861,1604,0,0
644,-580,0,0,0,0,0,0,0,0,0,-1,1868,1604,0,0
651,-580,0,0,0,0,0,0,0,0,0,-1,1875,1604,0,0
658,-580,0,0,0,0,0,0,0,0,0,-1,1882,1604,0,0
665,-580,0,0,0,0,0,0,0,0,0,-1,1889,1604,0,0
672,-580,0,0,0,0,0,0,0,0,0,-1,1896,1604,0,0
679,-580,0,0,0,0,0,0,0,0,0,-1,1903,1604,0,0
686,-580,0,0,0,0,0,0,0,0,0,-1,1910,1604,0,0
693,-580,0,0,0,0,0,0,0,0,0,-1,1917,1604,0,0
700,-580,0,0,0,0,0,0,0,0,0,-1,1924,1604,0,0
707,-580,0,0,0,0,0,0,0,0,0,-1,1931,1604,0,0
714,-580,0,0,0,0,0,0,0,0,0,-1,1938,1604,0,0
721,-580,0,0,0,0,0,0,0,0,0,-1,1945,1604,0,0
728,-580,0,0,0,0,0,0,0,0,0,-1,1952,1604,0,0
735,-580,0,0,0,0,0,0,0,0,0,-1,1959,1604,0,0
742,-580,0,0,0,0,0,0,0,0,0,-1,1966,1604,0,0
749,-580,0,0,0,0,0,0,0,0,0,-1,1973,1604,0,0
756,-580,0,0,0,0,0,0,0,0,0,-1,1980,1604,0,0
763,-580,0,0,0,0,0,0,0,0,0,-1,1987,1604,0,0
770,-580,0,0,0,0,0,0,0,0,0,-1,1994,1604,0,0
777,-580,0,0,0,0,0,0,0,0,0,-1,2001,1604,0,0
784,-580,0,0,0,0,0,0,0,0,0,-1,2008,1604,0,0
791,-580,0,0,0,0,0,0,0,0,0,-1,2015,1604,0,0
798,-580,0,0,0,0,0,0,0,0,0,-1,2022,1604,0,0
805,-580,0,0,0,0,0,0,0,0,0,-1,2029,1604,0,0
812,-580,0,0,0,0,0,0,0,0,0,-1,2036,1604,0,0
-700,-587,0,0,0,0,0,0,0,0,0,-1,524,1611,0,0
-693,-587,0,0,0,0,0,0,0,0,0,-1,531,1611,0,0
-686,-587,0,0,0,0,0,0,0,0,0,-1,538,1611,0,0
-679,-587,0,0,0,0,0,0,0,0,0,-1,545,1611,0,0
-672,-587,0,0,0,0,0,0,0,0,0,-1,552,1611,0,0
-665,-587,0,0,0,0,0,0,0,0,0,-1,559,1611,0,0
-658,-587,0,0,0,0,0,0,0,0,0,-1,566,1611,0,0
-651,-587,0,0,0,0,0,0,0,0,0,-1,573,1611,0,0
-644,-587,0,0,0,0,0,0,0,0,0,-1,580,1611,0,0
-637,-587,0,0,0,0,0,0,0,0,0,-1,587,1611,0,0
-630,-587,0,0,0,0,0,0,0,0,0,-1,594,1611,0,0
-623,-587,0,0,0,0,0,0,0,0,0,-1,601,1611,0,0
-616,-587,0,0,0,0,0,0,0,0,0,-1,608,1611,0,0
-609,-587,0,0,0,0,0,0,0,0,0,-1,615,1611,0,0
-602,-587,0,0,0,0,0,0,0,0,0,-1,622,1611,0,0
-595,-587,0,0,0,0,0,0,0,0,0,-1,629,1611,0,0
-588,-587,0,0,0,0,0,0,0,0,0,-1,636,1611,0,0
-581,-587,0,0,0,0,0,0,0,0,0,-1,643,1611,0,0
-574,-587,0,0,0,0,0,0,0,0,0,-1,650,1611,0,0
-567,-587,0,0,0,0,0,0,0,0,0,-1,657,1611,0,0
-560,-587,0,0,0,0,0,0,0,0,0,-1,664,1611,0,0
-553,-587,0,0,0,0,0,0,0,0,0,-1,671,1611,0,0
-546,-587,0,0,0,0,0,0,0,0,0,-1,678,1611,0,0
-539,-587,0,0,0,0,0,0,0,0,0,-1,685,1611,0,0
-532,-587,0,0,0,0,0,0,0,0,0,-1,692,1611,0,0
-525,-587,0,0,0,0,0,0,0,0,0,-1,699,1611,0,0
-518,-587,0,0,0,0,0,0,0,0,0,-1,706,1611,0,0
-511,-587,0,0,0,0,0,0,0,0,0,-1,713,1611,0,0
-504,-587,0,0,0,0,0,0,0,0,0,-1,720,1611,0,0
-497,-587,0,0,0,0,0,0,0,0,0,-1,727,1611,0,0
-490,-587,0,0,0,0,0,0,0,0,0,-1,734,1611,0,0
-483,-587,0,0,0,0,0,0,0,0,0,-1,741,1611,0,0
-476,-587,0,0,0,0,0,0,0,0,0,-1,748,1611,0,0
-469,-587,0,0,0,0,0,0,0,0,0,-1,755,1611,0,0
-462,-587,1.52893,-0.755737,0,0,0,0,0,0,0,-1,762,1611,1.52895,0.75575
-455,-587,1.47046,-0.832031,0.00541773,0.0411271,-0.019875,0.0499896,-0.00344474,-1.15135,0.0345319,0.0448913,769,1611,1.47049,0.832045
-448,-587,1.38574,-0.897339,0.00685773,0.0340118,-0.0172375,0.0423771,-0.0015076,-1.11898,0.0287671,0.047015,776,1611,1.38572,0.897357
-441,-587,1.31421,-1.08899,0.00735032,0.0269464,-0.0149804,0.0350484,-0.000751715,-1.07501,0.0236202,0.0482745,783,1611,1.31421,1.08896
-434,-587,1.16492,-1.20667,0.00728328,0.0210053,-0.0131923,0.0290141,-0.000725486,-1.02519,0.019589,0.0457354,790,1611,1.16489,1.20671
-427,-587,0.640869,-0.846191,0,0,0,0,0,0,0,-1,797,1611,0.640857,0.846219
-420,-587,0.281372,-0.46521,0.00653166,0.0117968,-0.010558,0.0200455,-0.00171704,-0.907578,0.0139712,0.0415616,804,1611,0.281395,0.465252
-413,-587,-0.015686,0.102051,0.00606485,0.00812245,-0.00961395,0.0167625,-0.00257519,-0.838701,0.0121249,0.0460837,811,1611,-0.015685,-0.102104
-406,-587,-0.0443115,-0.0319824,0.00525646,0.00497393,-0.00892921,0.0140455,-0.00381514,-0.777489,0.0108611,0.0446623,818,1611,-0.0443153,0.0319358
-399,-587,-0.00341797,-0.0875244,0.00449768,0.0025707,-0.00792459,0.0115171,-0.00444875,-0.724904,0.00951426,0.0305063,825,1611,-0.0033922,0.0875213
-392,-587,-6.10352e-05,-0.111938,0.00364447,6.8332e-05,-0.00704516,0.00912492,-0.00541213,-0.661122,0.00848373,0.0217847,832,1611,-4.91084e-05,0.11192
-385,-587,-0.0412598,-0.0810547,0.00282005,-0.000690137,-0.00626849,0.00757451,-0.0054446,-0.6489,0.00755004,0.0141993,839,1611,-0.0412407,0.0810422
-378,-587,-0.0693359,-0.0560303,0.00238458,-0.000785336,-0.00550555,0.00652877,-0.00492953,-0.645246,0.0066369,0.0125061,846,1611,-0.0693107,0.0560668
-371,-587,-0.0780029,-0.0474854,0.00162843,-0.000322523,-0.00462996,0.00538456,-0.00407865,-0.681573,0.0054809,0.0127179,853,1611,-0.0780093,0.0475294
-364,-587,-0.0756836,-0.0356445,0.0010076,0.000561361,-0.00390405,0.0046949,-0.00312594,-0.756854,0.00454555,0.0163735,860,1611,-0.0756874,0.0357033
-357,-587,-0.0775757,-0.0731201,0.000587206,0.000463096,-0.00278335,0.00330919,-0.00225889,-0.774252,0.00323374,0.0166156,867,1611,-0.077599,0.0730901
-350,-587,-0.0689697,-0.0623779,0.000219653,0.000319714,-0.00167029,0.00194073,-0.00140136,-0.80037,0.00193791,0.00910085,874,1611,-0.0689847,0.062386
-343,-587,-0.0767212,-0.0515137,-0.000196545,0.000236273,-0.000976613,0.00102017,-0.000980439,-0.894432,0.00115513,0.0107615,881,1611,-0.0767354,0.0515055
-336,-587,-0.0950928,-0.0649414,-0.000812799,-1.23345e-06,-0.000236007,6.24079e-05,-0.00087644,-1.3074,0.000606168,0.0107556,888,1611,-0.0951117,0.0649395
-329,-587,-0.0889282,-0.0722656,-0.00168466,-0.000343193,0.000442903,-0.000210156,-0.00181769,1.279,0.00114817,0.0132963,895,1611,-0.0889444,0.072302
-322,-587,-0.0722046,-0.0718994,-0.00274893,-0.00095227,0.00134812,-0.000230588,-0.00347061,1.07929,0.00224083,0.015718,902,1611,-0.0722177,0.0718566
-315,-587,-0.0895996,-0.0679932,-0.00393842,-0.00110194,0.00234628,0.000221435,-0.00526179,1.05725,0.00358395,0.0126075,909,1611,-0.0896271,0.0679474
-308,-587,-0.0968628,-0.0460205,-0.00581435,-0.00130544,0.00388663,0.000933261,-0.00805305,1.04821,0.00570529,0.0127688,916,1611,-0.0968506,0.0460497
-301,-587,-0.0727539,-0.0629883,-0.00670154,0.000432972,0.00347968,0.00184904,-0.00811761,1.18431,0.00612188,0.0110463,923,1611,-0.0727765,0.0629313
-294,-587,-0.0598755,-0.0655518,-0.00604687,0.00161855,0.00350312,0.00297829,-0.0074066,1.20055,0.00617475,0.0112871,930,1611,-0.0598481,0.0655652
-287,-587,-0.0894165,-0.0123291,-0.00637015,0.00280799,0.00341373,0.00393846,-0.00750062,1.25101,0.00671024,0.019913,937,1611,-0.0894459,0.0122729
-280,-587,-0.101135,0.0180664,-0.00630357,0.00436963,0.00310071,0.00520504,-0.00713898,1.30762,0.00715592,0.0327766,944,1611,-0.101121,-0.0180851
-273,-587,-0.0444946,0.0101318,-0.00571513,0.00665537,0.00244554,0.00712128,-0.00618105,1.38254,0.0076865,0.0399828,951,1611,-0.0444883,-0.0100767
-266,-587,0.00671387,0.00415039,0,0,0,0,0,0,0,-1,958,1611,0.00673124,-0.00412718
-259,-587,0.343628,-0.640015,-0.00176348,0.0104403,0.000231634,0.0104447,-0.00176787,1.55182,0.00762111,0.0413801,965,1611,0.343605,0.64005
-252,-587,0.0665283,-0.219727,0.00190878,0.0109577,-0.00206388,0.0114062,0.00146027,-1.35681,0.00716712,0.0416045,972,1611,0.0665129,0.219684
-245,-587,-0.351074,0.0484619,0.00652945,0.0107043,-0.00415729,0.0132688,0.00396494,-1.01806,0.00786472,0.0440514,979,1611,-0.351103,-0.0484508
-238,-587,-0.595154,0.256226,0.0118916,0.00980375,-0.00622422,0.0171588,0.00453651,-0.702313,0.0102667,0.0499207,986,1611,-0.595131,-0.256213
-231,-587,-0.380554,0.464355,0.0183582,0.00710603,-0.00867031,0.0230678,0.00239639,-0.497601,0.0146452,0.049592,993,1611,-0.380583,-0.464408
-224,-587,-0.181091,0.697876,0.0258627,0.00259654,-0.0110127,0.0302485,-0.00178935,-0.379005,0.0207878,0.0450818,1000,1611,-0.181112,-0.697896
-217,-587,0.442322,0.484619,0.0341865,-0.00352369,-0.0135017,0.0385222,-0.00785934,-0.310717,0.0286627,0.0394877,1007,1611,0.442344,-0.484674
-210,-587,0.945007,0.628052,0.0412794,-0.0117427,-0.0148868,0.0451732,-0.0156365,-0.255826,0.0364628,0.041947,1014,1611,0.94503,-0.628029
-203,-587,1.52057,1.0293,0.046581,-0.021245,-0.0150548,0.0497724,-0.0244364,-0.208895,0.0436689,0.0439145,1021,1611,1.52059,-1.02929
-196,-587,2.10669,1.35718,0.0493531,-0.034157,-0.0118937,0.051014,-0.0358179,-0.138747,0.0503876,0.0452898,1028,1611,2.10669,-1.35716
-189,-587,2.60706,1.52332,0,0,0,0,0,0,0,-1,1035,1611,2.60704,-1.52327
-182,-587,0.355103,0.619751,0,0,0,0,0,0,0,-1,1042,1611,0.355101,-0.61975
-175,-587,0.302612,0.400879,0,0,0,0,0,0,0,-1,1049,1611,0.302588,-0.400839
-168,-587,-0.0186768,0.536743,0,0,0,0,0,0,0,-1,1056,1611,-0.0186275,-0.536717
-161,-587,-0.0389404,0.87915,0,0,0,0,0,0,0,-1,1063,1611,-0.0389883,-0.879129
-154,-587,-0.199829,0.468262,0,0,0,0,0,0,0,-1,1070,1611,-0.199868,-0.46821
-147,-587,0,0,0,0,0,0,0,0,0,-1,1077,1611,0,0
-140,-587,0,0,0,0,0,0,0,0,0,-1,1084,1611,0,0
-133,-587,0,0,0,0,0,0,0,0,0,-1,1091,1611,0,0
-126,-587,0,0,0,0,0,0,0,0,0,-1,1098,1611,0,0
-119,-587,0,0,0,0,0,0,0,0,0,-1,1105,1611,0,0
-112,-587,0,0,0,0,0,0,0,0,0,-1,1112,1611,0,0
-105,-587,0,0,0,0,0,0,0,0,0,-1,1119,1611,0,0
-98,-587,0,0,0,0,0,0,0,0,0,-1,1126,1611,0,0
-91,-587,0,0,0,0,0,0,0,0,0,-1,1133,1611,0,0
-84,-587,0,0,0,0,0,0,0,0,0,-1,1140,1611,0,0
-77,-587,0,0,0,0,0,0,0,0,0,-1,1147,1611,0,0
-70,-587,0,0,0,0,0,0,0,0,0,-1,1154,1611,0,0
-63,-587,0,0,0,0,0,0,0,0,0,-1,1161,1611,0,0
-56,-587,0,0,0,0,0,0,0,0,0,-1,1168,1611,0,0
-49,-587,0,0,0,0,0,0,0,0,0,-1,1175,1611,0,0
-42,-587,0,0,0,0,0,0,0,0,0,-1,1182,1611,0,0
-35,-587,0,0,0,0,0,0,0,0,0,-1,1189,1611,0,0
-28,-587,0,0,0,0,0,0,0,0,0,-1,1196,1611,0,0
-21,-587,0,0,0,0,0,0,0,0,0,-1,1203,1611,0,0
-14,-587,0,0,0,0,0,0,0,0,0,-1,1210,1611,0,0
-7,-587,0,0,0,0,0,0,0,0,0,-1,1217,1611,0,0
0,-587,0,0,0,0,0,0,0,0,0,-1,1224,1611,0,0
7,-587,0,0,0,0,0,0,0,0,0,-1,1231,1611,0,0
14,-587,0,0,0,0,0,0,0,0,0,-1,1238,1611,0,0
21,-587,0,0,0,0,0,0,0,0,0,-1,1245,1611,0,0
28,-587,0,0,0,0,0,0,0,0,0,-1,1252,1611,0,0
35,-587,0,0,0,0,0,0,0,0,0,-1,1259,1611,0,0
42,-587,0,0,0,0,0,0,0,0,0,-1,1266,1611,0,0
49,-587,0,0,0,0,0,0,0,0,0,-1,1273,1611,0,0
56,-587,0,0,0,0,0,0,0,0,0,-1,1280,1611,0,0
63,-587,0,0,0,0,0,0,0,0,0,-1,1287,1611,0,0
70,-587,0,0,0,0,0,0,0,0,0,-1,1294,1611,0,0
77,-587,0,0,0,0,0,0,0,0,0,-1,1301,1611,0,0
84,-587,0,0,0,0,0,0,0,0,0,-1,1308,1611,0,0
91,-587,0,0,0,0,0,0,0,0,0,-1,1315,1611,0,0
98,-587,0,0,0,0,0,0,0,0,0,-1,1322,1611,0,0
105,-587,0,0,0,0,0,0,0,0,0,-1,1329,1611,0,0
112,-587,0,0,0,0,0,0,0,0,0,-1,1336,1611,0,0
119,-587,0,0,0,0,0,0,0,0,0,-1,1343,1611,0,0
126,-587,0,0,0,0,0,0,0,0,0,-1,1350,1611,0,0
133,-587,0,0,0,0,0,0,0,0,0,-1,1357,1611,0,0
140,-587,0,0,0,0,0,0,0,0,0,-1,1364,1611,0,0
147,-587,0,0,0,0,0,0,0,0,0,-1,1371,1611,0,0
154,-587,0,0,0,0,0,0,0,0,0,-1,1378,1611,0,0
161,-587,0,0,0,0,0,0,0,0,0,-1,1385,1611,0,0
168,-587,0,0,0,0,0,0,0,0,0,-1,1392,1611,0,0
175,-587,0,0,0,0,0,0,0,0,0,-1,1399,1611,0,0
182,-587,0,0,0,0,0,0,0,0,0,-1,1406,1611,0,0
189,-587,0,0,0,0,0,0,0,0,0,-1,1413,1611,0,0
196,-587,0,0,0,0,0,0,0,0,0,-1,1420,1611,0,0
203,-587,0,0,0,0,0,0,0,0,0,-1,1427,1611,0,0
210,-587,0,0,0,0,0,0,0,0,0,-1,1434,1611,0,0
217,-587,0,0,0,0,0,0,0,0,0,-1,1441,1611,0,0
224,-587,0,0,0,0,0,0,0,0,0,-1,1448,1611,0,0
231,-587,0,0,0,0,0,0,0,0,0,-1,1455,1611,0,0
238,-587,0,0,0,0,0,0,0,0,0,-1,1462,1611,0,0
245,-587,0,0,0,0,0,0,0,0,0,-1,1469,1611,0,0
252,-587,0,0,0,0,0,0,0,0,0,-1,1476,1611,0,0
259,-587,0,0,0,0,0,0,0,0,0,-1,1483,1611,0,0
266,-587,0,0,0,0,0,0,0,0,0,-1,1490,1611,0,0
273,-587,7.87524,6.36816,0,0,0,0,0,0,0,-1,1497,1611,7.87528,-6.36816
280,-587,6.34387,5.98242,0,0,0,0,0,0,0,-1,1504,1611,6.34388,-5.98248
287,-587,0.0327148,0.646484,0,0,0,0,0,0,0,-1,1511,1611,0.0327075,-0.646501
294,-587,3.85376,2.79968,0,0,0,0,0,0,0,-1,1518,1611,3.85379,-2.79963
301,-587,-1.18982,-1.23181,0.0676957,0.0613551,0.0518367,0.116459,0.0125919,0.754857,0.073801,0.0469545,1525,1611,-1.18983,1.23185
308,-587,-0.701416,-0.735229,0.0208427,0.0537416,0.0351916,0.0761384,-0.00155406,1.00402,0.0512848,0.0434972,1532,1611,-0.701413,0.735216
315,-587,2.65112,1.01929,0,0,0,0,0,0,0,-1,1539,1611,2.65109,-1.01925
322,-587,2.29407,1.60559,0,0,0,0,0,0,0,-1,1546,1611,2.29411,-1.60564
329,-587,1.94897,1.68494,0,0,0,0,0,0,0,-1,1553,1611,1.94901,-1.68489
336,-587,2.07214,1.63135,0,0,0,0,0,0,0,-1,1560,1611,2.07219,-1.63138
343,-587,0.0980225,0.229492,0.002225,0.0117417,-0.000174135,0.0117449,0.00222181,-1.55251,0.00720445,0.0471715,1567,1611,0.0979785,-0.229527
350,-587,0.236206,0.364502,0.00247859,0.00987517,-0.00380945,0.0114862,0.000867525,-1.17069,0.00738532,0.0418372,1574,1611,0.236202,-0.364531
357,-587,0.319336,0.348267,0.00399381,0.0101217,-0.00644098,0.0141903,-7.48495e-05,-1.00741,0.00948528,0.0402835,1581,1611,0.319395,-0.348252
364,-587,0.0922852,0.283569,0.00549195,0.0098607,-0.00881371,0.0167567,-0.00140404,-0.90687,0.0116673,0.0431664,1588,1611,0.0923359,-0.283569
371,-587,-0.432129,0.412109,0,0,0,0,0,0,0,-1,1595,1611,-0.432085,-0.412092
378,-587,-0.379761,0.137939,0.00807417,0.0117553,-0.0117853,0.0218429,-0.00201346,-0.86286,0.0152774,0.0477935,1602,1611,-0.379795,-0.137978
385,-587,-0.163574,-0.276367,0.00900859,0.0128682,-0.0117389,0.0228348,-0.000958044,-0.866867,0.0155524,0.0472608,1609,1611,-0.16354,0.276362
392,-587,0.102661,-0.32251,0.0099966,0.0136843,-0.0103737,0.0223767,0.00130418,-0.873351,0.0145026,0.0460917,1616,1611,0.102634,0.32255
399,-587,0.0412598,-0.188477,0.0104412,0.0155463,-0.00877153,0.0221291,0.00385835,-0.926989,0.0136496,0.04303,1623,1611,0.0413003,0.188507
406,-587,0,-0.107422,0.0103715,0.0159537,-0.00706597,0.0207599,0.00556538,-0.973494,0.012408,0.0370134,1630,1611,-4.45583e-05,0.107362
413,-587,-0.234375,-0.193115,0.0106109,0.0155484,-0.00524622,0.0188777,0.0072816,-1.00532,0.0109935,0.0302653,1637,1611,-0.234394,0.19308
420,-587,-0.171875,-0.0714111,0.010191,0.014751,-0.00302753,0.0162611,0.00868101,-1.10813,0.0093955,0.0262019,1644,1611,-0.171878,0.0714693
427,-587,-0.120728,-0.0653076,0.00824884,0.0137103,-0.0012603,0.0139871,0.00797204,-1.3546,0.00810177,0.0176499,1651,1611,-0.120722,0.0652925
434,-587,-0.0961914,-0.0723877,0.00620945,0.0129386,-0.000101179,0.0129401,0.00620793,-1.55577,0.00747304,0.0119965,1658,1611,-0.096163,0.0723616
441,-587,-0.0756836,-0.0675049,0.00542031,0.0109211,0.000265154,0.0109338,0.00540756,1.52274,0.00631277,0.0149759,1665,1611,-0.0757373,0.0675409
448,-587,-0.0585938,-0.0704346,0.0048987,0.00837776,0.000991891,0.00864068,0.00463578,1.31168,0.00499313,0.0134928,1672,1611,-0.0586378,0.0703903
455,-587,-0.052124,-0.0493164,0.00472356,0.0062339,0.00079504,0.00657526,0.00438221,1.16524,0.00386572,0.0126726,1679,1611,-0.052152,0.0493533
462,-587,-0.0775146,-0.0411377,0.00318911,0.00480673,-5.85303e-05,0.00480885,0.003187,-1.53468,0.00282498,0.0172253,1686,1611,-0.0775097,0.0411271
469,-587,-0.0756836,-0.0626221,0.00202791,0.00389247,-0.000486031,0.00401155,0.00190883,-1.33051,0.00231697,0.015592,1693,1611,-0.0756855,0.0625811
476,-587,-0.0548096,-0.0598145,0.00128451,0.0028913,-0.000811039,0.00322949,0.000946314,-1.17573,0.00191706,0.0100805,1700,1611,-0.0547909,0.0597855
483,-587,-0.081543,-0.0622559,0.00111948,0.00234977,-0.00101859,0.00292455,0.000544695,-1.05705,0.00179589,0.0133875,1707,1611,-0.0815804,0.0622197
490,-587,-0.098877,-0.0638428,0.00106125,0.00199265,-0.00122675,0.00283912,0.00021478,-0.966806,0.00182537,0.0156271,1714,1611,-0.0988482,0.0638481
497,-587,-0.0982666,-0.065918,0.000747093,0.0016855,-0.00146763,0.0027571,-0.000324513,-0.940114,0.00195524,0.0109441,1721,1611,-0.0982157,0.0659316
504,-587,-0.0817871,-0.0513916,0.000273624,0.00115217,-0.00180116,0.00256685,-0.00114105,-0.905005,0.00219288,0.010579,1728,1611,-0.0817759,0.0514385
511,-587,-0.0742188,-0.0362549,-0.000203611,0.00147403,-0.00207221,0.00287076,-0.00160034,-0.977715,0.00261589,0.0125171,1735,1611,-0.0741709,0.0362511
518,-587,-0.0577393,-0.055542,-0.000591788,0.00170913,-0.00211063,0.00296248,-0.00184514,-1.03493,0.00280056,0.0124115,1742,1611,-0.057752,0.0555059
525,-587,-0.104858,-0.0499268,-0.00117481,0.00211398,-0.00218001,0.00320024,-0.00226107,-1.10852,0.0031686,0.0150822,1749,1611,-0.104862,0.0499783
532,-587,-0.0961914,-0.0550537,-0.0020642,0.00216987,-0.00216639,0.00308188,-0.0029762,-1.17234,0.00349781,0.0262028,1756,1611,-0.0962065,0.0550238
539,-587,0.156616,0.0161133,-0.00306903,0.00204839,-0.00185578,0.00265053,-0.00367117,-1.25705,0.00366565,0.0361946,1763,1611,0.156597,-0.0161643
546,-587,0.276245,0.09375,-0.0040248,0.00220385,-0.00110094,0.00239272,-0.00421366,-1.4009,0.00386219,0.0427779,1770,1611,0.27625,-0.0937847
553,-587,0.171021,0.126343,0,0,0,0,0,0,0,-1,1777,1611,0.17099,-0.126344
560,-587,0.193481,0.0325928,0,0,0,0,0,0,0,-1,1784,1611,0.193539,-0.0325905
567,-587,0.00219727,0.290161,0,0,0,0,0,0,0,-1,1791,1611,0.00220764,-0.29014
574,-587,-0.0410156,0.191406,-0.00695385,-0.000133108,0.00549673,0.00292527,-0.0100122,1.06305,0.00783412,0.0401845,1798,1611,-0.0410193,-0.191427
581,-587,0.223755,0.424683,-0.00766035,-0.00108,0.0081742,0.00444134,-0.0131817,0.976731,0.0105836,0.0389645,1805,1611,0.223805,-0.42465
588,-587,0,0,0,0,0,0,0,0,0,-1,1812,1611,0,0
595,-587,0,0,0,0,0,0,0,0,0,-1,1819,1611,0,0
602,-587,0,0,0,0,0,0,0,0,0,-1,1826,1611,0,0
609,-587,0,0,0,0,0,0,0,0,0,-1,1833,1611,0,0
616,-587,0,0,0,0,0,0,0,0,0,-1,1840,1611,0,0
623,-587,0,0,0,0,0,0,0,0,0,-1,1847,1611,0,0
630,-587,0,0,0,0,0,0,0,0,0,-1,1854,1611,0,0
637,-587,0,0,0,0,0,0,0,0,0,-1,1861,1611,0,0
644,-587,0,0,0,0,0,0,0,0,0,-1,1868,1611,0,0
651,-587,0,0,0,0,0,0,0,0,0,-1,1875,1611,0,0
658,-587,0,0,0,0,0,0,0,0,0,-1,1882,1611,0,0
665,-587,0,0,0,0,0,0,0,0,0,-1,1889,1611,0,0
672,-587,0,0,0,0,0,0,0,0,0,-1,1896,1611,0,0
679,-587,0,0,0,0,0,0,0,0,0,-1,1903,1611,0,0
686,-587,0,0,0,0,0,0,0,0,0,-1,1910,1611,0,0
693,-587,0,0,0,0,0,0,0,0,0,-1,1917,1611,0,0
700,-587,0,0,0,0,0,0,0,0,0,-1,1924,1611,0,0
707,-587,0,0,0,0,0,0,0,0,0,-1,1931,1611,0,0
714,-587,0,0,0,0,0,0,0,0,0,-1,1938,1611,0,0
721,-587,0,0,0,0,0,0,0,0,0,-1,1945,1611,0,0
728,-587,0,0,0,0,0,0,0,0,0,-1,1952,1611,0,0
735,-587,0,0,0,0,0,0,0,0,0,-1,1959,1611,0,0
742,-587,0,0,0,0,0,0,0,0,0,-1,1966,1611,0,0
749,-587,0,0,0,0,0,0,0,0,0,-1,1973,1611,0,0
756,-587,0,0,0,0,0,0,0,0,0,-1,1980,1611,0,0
763,-587,0,0,0,0,0,0,0,0,0,-1,1987,1611,0,0
770,-587,0,0,0,0,0,0,0,0,0,-1,1994,1611,0,0
777,-587,0,0,0,0,0,0,0,0,0,-1,2001,1611,0,0
784,-587,0,0,0,0,0,0,0,0,0,-1,2008,1611,0,0
791,-587,0,0,0,0,0,0,0,0,0,-1,2015,1611,0,0
798,-587,0,0,0,0,0,0,0,0,0,-1,2022,1611,0,0
805,-587,0,0,0,0,0,0,0,0,0,-1,2029,1611,0,0
812,-587,0,0,0,0,0,0,0,0,0,-1,2036,1611,0,0
-700,-594,0,0,0,0,0,0,0,0,0,-1,524,1618,0,0
-693,-594,0,0,0,0,0,0,0,0,0,-1,531,1618,0,0
-686,-594,0,0,0,0,0,0,0,0,0,-1,538,1618,0,0
-679,-594,0,0,0,0,0,0,0,0,0,-1,545,1618,0,0
-672,-594,0,0,0,0,0,0,0,0,0,-1,552,1618,0,0
-665,-594,0,0,0,0,0,0,0,0,0,-1,559,1618,0,0
-658,-594,0,0,0,0,0,0,0,0,0,-1,566,1618,0,0
-651,-594,0,0,0,0,0,0,0,0,0,-1,573,1618,0,0
-644,-594,0,0,0,0,0,0,0,0,0,-1,580,1618,0,0
-637,-594,0,0,0,0,0,0,0,0,0,-1,587,1618,0,0
-630,-594,0,0,0,0,0,0,0,0,0,-1,594,1618,0,0
-623,-594,0,0,0,0,0,0,0,0,0,-1,601,1618,0,0
-616,-594,0,0,0,0,0,0,0,0,0,-1,608,1618,0,0
-609,-594,0,0,0,0,0,0,0,0,0,-1,615,1618,0,0
-602,-594,0,0,0,0,0,0,0,0,0,-1,622,1618,0,0
-595,-594,0,0,0,0,0,0,0,0,0,-1,629,1618,0,0
-588,-594,0,0,0,0,0,0,0,0,0,-1,636,1618,0,0
-581,-594,0,0,0,0,0,0,0,0,0,-1,643,1618,0,0
-574,-594,0,0,0,0,0,0,0,0,0,-1,650,1618,0,0
-567,-594,0,0,0,0,0,0,0,0,0,-1,657,1618,0,0
-560,-594,0,0,0,0,0,0,0,0,0,-1,664,1618,0,0
-553,-594,0,0,0,0,0,0,0,0,0,-1,671,1618,0,0
-546,-594,0,0,0,0,0,0,0,0,0,-1,678,1618,0,0
-539,-594,0,0,0,0,0,0,0,0,0,-1,685,1618,0,0
-532,-594,0,0,0,0,0,0,0,0,0,-1,692,1618,0,0
-525,-594,0,0,0,0,0,0,0,0,0,-1,699,1618,0,0
-518,-594,0,0,0,0,0,0,0,0,0,-1,706,1618,0,0
-511,-594,0,0,0,0,0,0,0,0,0,-1,713,1618,0,0
-504,-594,0,0,0,0,0,0,0,0,0,-1,720,1618,0,0
-497,-594,0,0,0,0,0,0,0,0,0,-1,727,1618,0,0
-490,-594,0,0,0,0,0,0,0,0,0,-1,734,1618,0,0
-483,-594,0,0,0,0,0,0,0,0,0,-1,741,1618,0,0
-476,-594,0,0,0,0,0,0,0,0,0,-1,748,1618,0,0
-469,-594,0,0,0,0,0,0,0,0,0,-1,755,1618,0,0
-462,-594,0,0,0,0,0,0,0,0,0,-1,762,1618,0,0
-455,-594,2.05072,-1.30542,0.0106124,0.0435134,-0.0189462,0.0521543,0.00197149,-1.1429,0.0341313,0.0440767,769,1618,2.05069,1.30542
-448,-594,1.96246,-1.45081,0.0120297,0.0358778,-0.0169409,0.0446703,0.00323721,-1.09206,0.0287619,0.0451978,776,1618,1.96246,1.45084
-441,-594,2.12701,-1.82263,0.0121999,0.0284095,-0.0154117,0.0377175,0.00289185,-1.02747,0.0242386,0.0461078,783,1618,2.12702,1.82259
-434,-594,1.63733,-1.61609,0.012014,0.0221027,-0.0145554,0.032463,0.00165362,-0.952202,0.0211124,0.0459866,790,1618,1.63734,1.61604
-427,-594,1.65234,-1.3811,0,0,0,0,0,0,0,-1,797,1618,1.65233,1.38109
-420,-594,0.253601,-0.382446,0.0108156,0.0130084,-0.0130147,0.0249728,-0.00114877,-0.827421,0.0170444,0.0420111,804,1618,0.253623,0.382456
-413,-594,0.257751,-0.0445557,0.0099417,0.00941376,-0.0123351,0.0220156,-0.00266018,-0.7747,0.0156394,0.046562,811,1618,0.257748,0.0445529
-406,-594,0.165894,-0.0863037,0.00866947,0.00641647,-0.011737,0.0193339,-0.00424793,-0.737555,0.0145139,0.0495276,818,1618,0.165905,0.0862473
-399,-594,0.098999,-0.117676,0.00745146,0.0041437,-0.0106476,0.0165728,-0.00497769,-0.708349,0.0130287,0.0442784,825,1618,0.0989976,0.117637
-392,-594,0.0696411,-0.148804,0.00616068,0.00172861,-0.00963614,0.0138323,-0.00594302,-0.672378,0.0117162,0.0372342,832,1618,0.0696703,0.148782
-385,-594,-0.015686,-0.088623,0.00497703,0.00120437,-0.00862866,0.0119231,-0.00574174,-0.677785,0.0104049,0.0237179,839,1618,-0.0156677,0.0886254
-378,-594,-0.0802002,-0.0460205,0.0041719,0.00123734,-0.00752104,0.0103674,-0.00495821,-0.689063,0.00903012,0.0107112,846,1618,-0.0802241,0.046024
-371,-594,-0.0848999,-0.0458984,0.00292067,0.00176774,-0.00625306,0.00862378,-0.00393537,-0.739433,0.00741753,0.0108927,853,1618,-0.0849265,0.0459498
-364,-594,-0.0690918,-0.0537109,0.00190307,0.00255597,-0.00514211,0.00738198,-0.00292295,-0.817098,0.00613241,0.00994764,860,1618,-0.0690702,0.0536616
-357,-594,-0.0637207,-0.0678711,0.00124344,0.00223986,-0.00365088,0.00542637,-0.00194307,-0.853211,0.00441033,0.0101441,867,1618,-0.0636972,0.0679119
-350,-594,-0.0745239,-0.0549316,0.000696331,0.00195896,-0.00226268,0.00367675,-0.00102145,-0.921444,0.00285326,0.01375,874,1618,-0.074541,0.0549011
-343,-594,-0.0806885,-0.0474854,0.000126787,0.00183903,-0.00137935,0.00260635,-0.00064053,-1.06314,0.00198581,0.0129935,881,1618,-0.0807088,0.047462
-336,-594,-0.0836182,-0.055542,-0.000527129,0.00144567,-0.000507236,0.00156845,-0.000649906,-1.33331,0.00131686,0.0103552,888,1618,-0.0836302,0.0555915
-329,-594,-0.0819702,-0.0445557,-0.00135515,0.000952863,0.000236738,0.000976896,-0.00137918,1.46963,0.00136687,0.0116892,895,1618,-0.0819657,0.0445782
-322,-594,-0.0657349,-0.046875,-0.00212288,0.000186747,0.000916868,0.000506464,-0.0024426,1.23527,0.00182085,0.0143698,902,1618,-0.0657634,0.0468762
-315,-594,-0.0701294,-0.059082,-0.00279899,0.000103879,0.00145769,0.00070951,-0.00340462,1.17702,0.0025395,0.0140872,909,1618,-0.0701108,0.059035
-308,-594,-0.0831299,-0.0583496,-0.00402246,-0.000226431,0.00252314,0.00103288,-0.00528177,1.10787,0.00391121,0.0134554,916,1618,-0.0831449,0.0583889
-301,-594,-0.076416,-0.0656738,-0.00457618,0.000943248,0.00220859,0.00171821,-0.00535114,1.23334,0.00425735,0.0112473,923,1618,-0.0764278,0.0657253
-294,-594,-0.0632935,-0.0737305,-0.00409031,0.00184562,0.00212642,0.00252874,-0.00477344,1.25995,0.0042818,0.00957208,930,1618,-0.0632678,0.0737377
-287,-594,-0.0581665,-0.0605469,-0.00430854,0.00273178,0.00196349,0.00324236,-0.00481912,1.3164,0.00468388,0.0100462,937,1618,-0.0581639,0.0605881
-280,-594,-0.0462036,-0.0384521,-0.00433892,0.00391437,0.00165648,0.00423442,-0.00465897,1.37994,0.00513655,0.0144797,944,1618,-0.0462028,0.0384595
-273,-594,0.00958252,-0.0374756,-0.00403199,0.00574411,0.00110037,0.00586643,-0.00415431,1.46008,0.00581356,0.0245063,951,1618,0.00956653,0.0374464
-266,-594,0.0472412,-0.0723877,-0.00311112,0.00774991,0.000701562,0.00779504,-0.00315625,1.50656,0.00650905,0.0311867,958,1618,0.0472421,0.0723284
-259,-594,0.16571,-0.217285,-0.00134268,0.00870178,-0.000484152,0.00872506,-0.00136596,-1.52274,0.00632142,0.0366674,965,1618,0.165704,0.217259
-252,-594,0.358398,-0.0578613,0.00130908,0.00895967,-0.00217391,0.00953424,0.000734513,-1.3124,0.00612602,0.0415915,972,1618,0.358386,0.0578183
-245,-594,0.275635,-0.226685,0,0,0,0,0,0,0,-1,979,1618,0.275626,0.226727
-238,-594,0.09552,-0.223022,0.0088178,0.00780424,-0.00496269,0.0132995,0.00332252,-0.734515,0.00799245,0.0462653,986,1618,0.0955108,0.223038
-231,-594,-0.135681,0.0622559,0.0138085,0.00584245,-0.00669339,0.0176143,0.00203663,-0.517006,0.0111263,0.0464331,993,1618,-0.135704,-0.0622551
-224,-594,-0.414063,0.000610352,0.0197493,0.0024998,-0.00818813,0.0230171,-0.000767962,-0.379717,0.015607,0.0428426,1000,1618,-0.414047,-0.000559721
-217,-594,-0.776062,-0.0373535,0.0263567,-0.00210894,-0.00950921,0.0292411,-0.0049933,-0.294503,0.021354,0.0440886,1007,1618,-0.776055,0.0373607
-210,-594,-0.628052,0.166992,0,0,0,0,0,0,0,-1,1014,1618,-0.628059,-0.167002
-203,-594,2.08661,1.55396,0.0358525,-0.0155368,-0.00895119,0.037367,-0.0170513,-0.16761,0.03214,0.0467132,1021,1618,2.08662,-1.554
-196,-594,2.61426,1.89392,0.0385597,-0.0247973,-0.00629517,0.0391791,-0.0254168,-0.0980825,0.0375755,0.0468243,1028,1618,2.61427,-1.89393
-189,-594,3.15356,2.23425,0,0,0,0,0,0,0,-1,1035,1618,3.15354,-2.23423
-182,-594,0.388062,-0.0439453,0,0,0,0,0,0,0,-1,1042,1618,0.388084,0.0439386
-175,-594,0.416016,0.186035,0,0,0,0,0,0,0,-1,1049,1618,0.415978,-0.186091
-168,-594,0.348511,0.664551,0,0,0,0,0,0,0,-1,1056,1618,0.348536,-0.6645
-161,-594,0.510132,1.09668,0,0,0,0,0,0,0,-1,1063,1618,0.510134,-1.09672
-154,-594,-0.207275,0.392944,0,0,0,0,0,0,0,-1,1070,1618,-0.207298,-0.393002
-147,-594,-1.15295,2.99695,0,0,0,0,0,0,0,-1,1077,1618,-1.15294,-2.99701
-140,-594,-1.42993,2.63062,0,0,0,0,0,0,0,-1,1084,1618,-1.42992,-2.63062
-133,-594,0,0,0,0,0,0,0,0,0,-1,1091,1618,0,0
-126,-594,0,0,0,0,0,0,0,0,0,-1,1098,1618,0,0
-119,-594,0,0,0,0,0,0,0,0,0,-1,1105,1618,0,0
-112,-594,0,0,0,0,0,0,0,0,0,-1,1112,1618,0,0
-105,-594,0,0,0,0,0,0,0,0,0,-1,1119,1618,0,0
-98,-594,0,0,0,0,0,0,0,0,0,-1,1126,1618,0,0
-91,-594,0,0,0,0,0,0,0,0,0,-1,1133,1618,0,0
-84,-594,0,0,0,0,0,0,0,0,0,-1,1140,1618,0,0
-77,-594,0,0,0,0,0,0,0,0,0,-1,1147,1618,0,0
-70,-594,0,0,0,0,0,0,0,0,0,-1,1154,1618,0,0
-63,-594,0,0,0,0,0,0,0,0,0,-1,1161,1618,0,0
-56,-594,0,0,0,0,0,0,0,0,0,-1,1168,1618,0,0
-49,-594,0,0,0,0,0,0,0,0,0,-1,1175,1618,0,0
-42,-594,0,0,0,0,0,0,0,0,0,-1,1182,1618,0,0
-35,-594,0,0,0,0,0,0,0,0,0,-1,1189,1618,0,0
-28,-594,0,0,0,0,0,0,0,0,0,-1,1196,1618,0,0
-21,-594,0,0,0,0,0,0,0,0,0,-1,1203,1618,0,0
-14,-594,0,0,0,0,0,0,0,0,0,-1,1210,1618,0,0
-7,-594,0,0,0,0,0,0,0,0,0,-1,1217,1618,0,0
0,-594,0,0,0,0,0,0,0,0,0,-1,1224,1618,0,0
7,-594,0,0,0,0,0,0,0,0,0,-1,1231,1618,0,0
14,-594,0,0,0,0,0,0,0,0,0,-1,1238,1618,0,0
21,-594,0,0,0,0,0,0,0,0,0,-1,1245,1618,0,0
28,-594,0,0,0,0,0,0,0,0,0,-1,1252,1618,0,0
35,-594,0,0,0,0,0,0,0,0,0,-1,1259,1618,0,0
42,-594,0,0,0,0,0,0,0,0,0,-1,1266,1618,0,0
49,-594,0,0,0,0,0,0,0,0,0,-1,1273,1618,0,0
56,-594,0,0,0,0,0,0,0,0,0,-1,1280,1618,0,0
63,-594,0,0,0,0,0,0,0,0,0,-1,1287,1618,0,0
70,-594,0,0,0,0,0,0,0,0,0,-1,1294,1618,0,0
77,-594,0,0,0,0,0,0,0,0,0,-1,1301,1618,0,0
84,-594,0,0,0,0,0,0,0,0,0,-1,1308,1618,0,0
91,-594,0,0,0,0,0,0,0,0,0,-1,1315,1618,0,0
98,-594,0,0,0,0,0,0,0,0,0,-1,1322,1618,0,0
105,-594,0,0,0,0,0,0,0,0,0,-1,1329,1618,0,0
112,-594,0,0,0,0,0,0,0,0,0,-1,1336,1618,0,0
119,-594,0,0,0,0,0,0,0,0,0,-1,1343,1618,0,0
126,-594,0,0,0,0,0,0,0,0,0,-1,1350,1618,0,0
133,-594,0,0,0,0,0,0,0,0,0,-1,1357,1618,0,0
140,-594,0,0,0,0,0,0,0,0,0,-1,1364,1618,0,0
147,-594,0,0,0,0,0,0,0,0,0,-1,1371,1618,0,0
154,-594,0,0,0,0,0,0,0,0,0,-1,1378,1618,0,0
161,-594,0,0,0,0,0,0,0,0,0,-1,1385,1618,0,0
168,-594,0,0,0,0,0,0,0,0,0,-1,1392,1618,0,0
175,-594,0,0,0,0,0,0,0,0,0,-1,1399,1618,0,0
182,-594,0,0,0,0,0,0,0,0,0,-1,1406,1618,0,0
189,-594,0,0,0,0,0,0,0,0,0,-1,1413,1618,0,0
196,-594,0,0,0,0,0,0,0,0,0,-1,1420,1618,0,0
203,-594,0,0,0,0,0,0,0,0,0,-1,1427,1618,0,0
210,-594,0,0,0,0,0,0,0,0,0,-1,1434,1618,0,0
217,-594,0,0,0,0,0,0,0,0,0,-1,1441,1618,0,0
224,-594,0,0,0,0,0,0,0,0,0,-1,1448,1618,0,0
231,-594,0,0,0,0,0,0,0,0,0,-1,1455,1618,0,0
238,-594,0,0,0,0,0,0,0,0,0,-1,1462,1618,0,0
245,-594,0,0,0,0,0,0,0,0,0,-1,1469,1618,0,0
252,-594,-0.0709229,0.292114,0.412809,0.130488,0.187643,0.50646,0.0368376,0.462919,0.326055,0.0433949,1476,1618,-0.0709522,-0.292062
259,-594,8.2041,5.88293,0.353469,0.131701,0.169786,0.445372,0.0397975,0.496129,0.284578,0.0499121,1483,1618,8.20413,-5.88295
266,-594,7.23438,5.66333,0.285514,0.128669,0.146929,0.373639,0.0405435,0.540258,0.236738,0.0472738,1490,1618,7.23431,-5.66334
273,-594,6.32813,5.58936,0.217152,0.117554,0.120265,0.297521,0.0371846,0.589107,0.187188,0.0464598,1497,1618,6.32811,-5.58938
280,-594,5.45398,4.85449,0.161122,0.105907,0.0965913,0.233974,0.0330553,0.646201,0.146215,0.0438842,1504,1618,5.45402,-4.85448
287,-594,3.79529,3.36914,0,0,0,0,0,0,0,-1,1511,1618,3.7953,-3.3692
294,-594,3.64636,2.68933,0,0,0,0,0,0,0,-1,1518,1618,3.64636,-2.68937
301,-594,3.58911,1.94666,0,0,0,0,0,0,0,-1,1525,1618,3.58914,-1.9467
308,-594,2.44812,0.764648,0,0,0,0,0,0,0,-1,1532,1618,2.44814,-0.764659
315,-594,2.11829,0.886719,-0.00531939,0.0433283,0.0149,0.0475292,-0.00952024,1.29599,0.0352902,0.0457773,1539,1618,2.11828,-0.886675
322,-594,1.72644,1.17249,-0.0053339,0.0314262,0.00862941,0.0333512,-0.00725885,1.35132,0.0250074,0.0451351,1546,1618,1.7265,-1.17253
329,-594,1.47888,1.29321,-0.00213311,0.0236605,0.00648034,0.0251971,-0.00366968,1.33798,0.0181454,0.0464677,1553,1618,1.47892,-1.29316
336,-594,1.53735,1.12585,-0.000593726,0.016906,0.00423878,0.0178786,-0.00156638,1.34523,0.012474,0.0481392,1560,1618,1.53734,-1.12591
343,-594,0.183594,0.423706,-0.000535927,0.012888,0.000335117,0.0128963,-0.000544287,1.54585,0.00878461,0.0479678,1567,1618,0.18361,-0.423721
350,-594,0.256836,0.428833,0.000172559,0.00993606,-0.00261192,0.0105909,-0.00048226,-1.32515,0.0072267,0.0415039,1574,1618,0.256873,-0.428864
357,-594,0.18457,0.436401,0.00197405,0.00917405,-0.00494283,0.0116889,-0.000540814,-1.10014,0.00797899,0.0410356,1581,1618,0.184577,-0.436354
364,-594,0.141479,0.452759,0.0036088,0.00814676,-0.00712842,0.0133586,-0.00160304,-0.939478,0.00948534,0.044793,1588,1618,0.141426,-0.452732
371,-594,0.236328,-0.542236,0,0,0,0,0,0,0,-1,1595,1618,0.236301,0.542252
378,-594,0.0216064,0.292114,0.00605317,0.0089457,-0.0101577,0.0177596,-0.00276076,-0.856113,0.0128592,0.0444346,1602,1618,0.021589,-0.292154
385,-594,0.0717773,-0.306396,0.00682112,0.00958827,-0.0103004,0.0185976,-0.00218821,-0.85216,0.0131885,0.0435923,1609,1618,0.0717654,0.306419
392,-594,0.0895996,-0.230225,0.00754292,0.0100623,-0.00929591,0.0181835,-0.000578249,-0.852744,0.0123196,0.043591,1616,1618,0.0896367,0.230244
399,-594,-0.046875,-0.0839844,0.00779078,0.0114381,-0.00793173,0.0177531,0.00147574,-0.898393,0.0113754,0.035461,1623,1618,-0.0468638,0.0839512
406,-594,-0.0561523,-0.0596924,0.00750326,0.0116886,-0.00644299,0.0163702,0.00282159,-0.942421,0.0101051,0.0223734,1630,1618,-0.0560939,0.0596437
413,-594,-0.0810547,-0.0509033,0.00744964,0.0113175,-0.0048319,0.0145881,0.00417903,-0.975757,0.00867471,0.0158923,1637,1618,-0.0810344,0.0509423
420,-594,-0.0708008,-0.0466309,0.00689293,0.0106344,-0.00285258,0.012175,0.00535239,-1.07562,0.00704628,0.0132468,1644,1618,-0.070763,0.0465935
427,-594,-0.0635986,-0.0612793,0.00520459,0.00981934,-0.00126406,0.0101429,0.00488102,-1.32021,0.00585739,0.0110652,1651,1618,-0.0635477,0.0613111
434,-594,-0.0882568,-0.0620117,0.00352023,0.00912163,-0.000148263,0.00912556,0.00351631,-1.54435,0.00531463,0.0151398,1658,1618,-0.0882781,0.0620668
441,-594,-0.0788574,-0.0587158,0.00290151,0.00754805,0.000236302,0.00756003,0.00288952,1.52012,0.00440498,0.014295,1665,1618,-0.0788589,0.0587116
448,-594,-0.0383301,-0.0651855,0.00284872,0.00554149,0.000910171,0.00582027,0.00256994,1.27358,0.00336798,0.0141736,1672,1618,-0.0383257,0.0652276
455,-594,-0.0662842,-0.0603027,0.00338394,0.00391136,0.000740234,0.00443346,0.00286185,0.956515,0.00259554,0.0110437,1679,1618,-0.0662446,0.0603014
462,-594,-0.0753174,-0.0577393,0.00254454,0.00291384,-5.15965e-05,0.00292091,0.00253746,-1.43456,0.00183288,0.0124264,1686,1618,-0.0752802,0.0577315
469,-594,-0.0621338,-0.0578613,0.00202457,0.00245729,-0.000562504,0.00284361,0.00163825,-0.968993,0.00164809,0.0113437,1693,1618,-0.0621854,0.0578986
476,-594,-0.0734863,-0.0512695,0.00190616,0.00184543,-0.00102117,0.00289741,0.000854173,-0.770536,0.00171914,0.0119485,1700,1618,-0.0734753,0.0512309
483,-594,-0.0776367,-0.0637207,0.0022159,0.00166176,-0.00143839,0.00340366,0.000473997,-0.690251,0.00212877,0.0157905,1707,1618,-0.0776414,0.0637027
490,-594,-0.0882568,-0.0758057,0.0025538,0.001722,-0.00185205,0.00403607,0.000239728,-0.67495,0.00261447,0.0132882,1714,1618,-0.0882471,0.0757709
497,-594,-0.0872803,-0.0737305,0.00246776,0.0017774,-0.00225494,0.00440379,-0.000158628,-0.70945,0.00299014,0.00871773,1721,1618,-0.0872394,0.0737205
504,-594,-0.0667725,-0.0612793,0.00207017,0.00166469,-0.00275856,0.00463343,-0.000898569,-0.748716,0.00342796,0.00842384,1728,1618,-0.0668134,0.0612918
511,-594,-0.0604248,-0.0480957,0.00153722,0.00216477,-0.00313127,0.00499794,-0.00129595,-0.835335,0.00383759,0.011072,1735,1618,-0.0603756,0.0481424
518,-594,-0.0683594,-0.0500488,0.000901625,0.00258599,-0.0031809,0.00503431,-0.00154669,-0.91481,0.00397341,0.0148434,1742,1618,-0.0683546,0.0500697
525,-594,-0.0839844,-0.060791,1.54039e-05,0.00317128,-0.00320029,0.0051615,-0.00197481,-1.01444,0.00425488,0.0245385,1749,1618,-0.0839657,0.0607671
532,-594,-0.0531006,-0.0953369,-0.00122312,0.00340201,-0.00309436,0.00495248,-0.00277359,-1.1063,0.00451939,0.0367335,1756,1618,-0.0531368,0.0952883
539,-594,0.139771,-0.0124512,-0.00265845,0.00344917,-0.00264322,0.00443422,-0.0036435,-1.21407,0.00467111,0.0427333,1763,1618,0.139818,0.0123915
546,-594,0.650757,0.155396,-0.00396384,0.00368426,-0.0016281,0.00401642,-0.004296,-1.36954,0.00480008,0.0468272,1770,1618,0.650787,-0.155412
553,-594,-0.439941,-0.225952,-0.00556437,0.00349826,-0.000376708,0.00351389,-0.00558,-1.52932,0.00529534,0.045738,1777,1618,-0.439948,0.225901
560,-594,-0.304932,-0.152954,-0.00706412,0.00318893,0.00144967,0.00338995,-0.00726515,1.43301,0.00628588,0.0422624,1784,1618,-0.30494,0.15293
567,-594,-0.177734,-0.0645752,-0.00694305,0.00258049,0.00358354,0.00377827,-0.00814083,1.24823,0.00703347,0.041066,1791,1618,-0.17777,0.0646008
574,-594,0.107666,0.0230713,-0.00657898,0.0013509,0.00632507,0.00485103,-0.0100791,1.06537,0.00879432,0.0423236,1798,1618,0.107608,-0.0230982
581,-594,0,0,0,0,0,0,0,0,0,-1,1805,1618,0,0
588,-594,0,0,0,0,0,0,0,0,0,-1,1812,1618,0,0
595,-594,0,0,0,0,0,0,0,0,0,-1,1819,1618,0,0
602,-594,0,0,0,0,0,0,0,0,0,-1,1826,1618,0,0
609,-594,0,0,0,0,0,0,0,0,0,-1,1833,1618,0,0
616,-594,0,0,0,0,0,0,0,0,0,-1,1840,1618,0,0
623,-594,0,0,0,0,0,0,0,0,0,-1,1847,1618,0,0
630,-594,0,0,0,0,0,0,0,0,0,-1,1854,1618,0,0
637,-594,0,0,0,0,0,0,0,0,0,-1,1861,1618,0,0
644,-594,0,0,0,0,0,0,0,0,0,-1,1868,1618,0,0
651,-594,0,0,0,0,0,0,0,0,0,-1,1875,1618,0,0
658,-594,0,0,0,0,0,0,0,0,0,-1,1882,1618,0,0
665,-594,0,0,0,0,0,0,0,0,0,-1,1889,1618,0,0
672,-594,0,0,0,0,0,0,0,0,0,-1,1896,1618,0,0
679,-594,0,0,0,0,0,0,0,0,0,-1,1903,1618,0,0
686,-594,0,0,0,0,0,0,0,0,0,-1,1910,1618,0,0
693,-594,0,0,0,0,0,0,0,0,0,-1,1917,1618,0,0
700,-594,0,0,0,0,0,0,0,0,0,-1,1924,1618,0,0
707,-594,0,0,0,0,0,0,0,0,0,-1,1931,1618,0,0
714,-594,0,0,0,0,0,0,0,0,0,-1,1938,1618,0,0
721,-594,0,0,0,0,0,0,0,0,0,-1,1945,1618,0,0
728,-594,0,0,0,0,0,0,0,0,0,-1,1952,1618,0,0
735,-594,0,0,0,0,0,0,0,0,0,-1,1959,1618,0,0
742,-594,0,0,0,0,0,0,0,0,0,-1,1966,1618,0,0
749,-594,0,0,0,0,0,0,0,0,0,-1,1973,1618,0,0
756,-594,0,0,0,0,0,0,0,0,0,-1,1980,1618,0,0
763,-594,0,0,0,0,0,0,0,0,0,-1,1987,1618,0,0
770,-594,0,0,0,0,0,0,0,0,0,-1,1994,1618,0,0
777,-594,0,0,0,0,0,0,0,0,0,-1,2001,1618,0,0
784,-594,0,0,0,0,0,0,0,0,0,-1,2008,1618,0,0
791,-594,0,0,0,0,0,0,0,0,0,-1,2015,1618,0,0
798,-594,0,0,0,0,0,0,0,0,0,-1,2022,1618,0,0
805,-594,0,0,0,0,0,0,0,0,0,-1,2029,1618,0,0
812,-594,0,0,0,0,0,0,0,0,0,-1,2036,1618,0,0
-700,-601,0,0,0,0,0,0,0,0,0,-1,524,1625,0,0
-693,-601,0,0,0,0,0,0,0,0,0,-1,531,1625,0,0
-686,-601,0,0,0,0,0,0,0,0,0,-1,538,1625,0,0
-679,-601,0,0,0,0,0,0,0,0,0,-1,545,1625,0,0
-672,-601,0,0,0,0,0,0,0,0,0,-1,552,1625,0,0
-665,-601,0,0,0,0,0,0,0,0,0,-1,559,1625,0,0
-658,-601,0,0,0,0,0,0,0,0,0,-1,566,1625,0,0
-651,-601,0,0,0,0,0,0,0,0,0,-1,573,1625,0,0
-644,-601,0,0,0,0,0,0,0,0,0,-1,580,1625,0,0
-637,-601,0,0,0,0,0,0,0,0,0,-1,587,1625,0,0
-630,-601,0,0,0,0,0,0,0,0,0,-1,594,1625,0,0
-623,-601,0,0,0,0,0,0,0,0,0,-1,601,1625,0,0
-616,-601,0,0,0,0,0,0,0,0,0,-1,608,1625,0,0
-609,-601,0,0,0,0,0,0,0,0,0,-1,615,1625,0,0
-602,-601,0,0,0,0,0,0,0,0,0,-1,622,1625,0,0
-595,-601,0,0,0,0,0,0,0,0,0,-1,629,1625,0,0
-588,-601,0,0,0,0,0,0,0,0,0,-1,636,1625,0,0
-581,-601,0,0,0,0,0,0,0,0,0,-1,643,1625,0,0
-574,-601,0,0,0,0,0,0,0,0,0,-1,650,1625,0,0
-567,-601,0,0,0,0,0,0,0,0,0,-1,657,1625,0,0
-560,-601,0,0,0,0,0,0,0,0,0,-1,664,1625,0,0
-553,-601,0,0,0,0,0,0,0,0,0,-1,671,1625,0,0
-546,-601,0,0,0,0,0,0,0,0,0,-1,678,1625,0,0
-539,-601,0,0,0,0,0,0,0,0,0,-1,685,1625,0,0
-532,-601,0,0,0,0,0,0,0,0,0,-1,692,1625,0,0
-525,-601,0,0,0,0,0,0,0,0,0,-1,699,1625,0,0
-518,-601,0,0,0,0,0,0,0,0,0,-1,706,1625,0,0
-511,-601,0,0,0,0,0,0,0,0,0,-1,713,1625,0,0
-504,-601,0,0,0,0,0,0,0,0,0,-1,720,1625,0,0
-497,-601,0,0,0,0,0,0,0,0,0,-1,727,1625,0,0
-490,-601,0,0,0,0,0,0,0,0,0,-1,734,1625,0,0
-483,-601,0,0,0,0,0,0,0,0,0,-1,741,1625,0,0
-476,-601,0,0,0,0,0,0,0,0,0,-1,748,1625,0,0
-469,-601,0,0,0,0,0,0,0,0,0,-1,755,1625,0,0
-462,-601,0,0,0,0,0,0,0,0,0,-1,762,1625,0,0
-455,-601,0,0,0,0,0,0,0,0,0,-1,769,1625,0,0
-448,-601,1.7204,-2.88196,0.0188548,0.0365407,-0.0146432,0.0448039,0.0105916,-1.05704,0.0270393,0.0464886,776,1625,1.72039,2.8819
-441,-601,1.93298,-2.354,0.0186479,0.029228,-0.0147209,0.0395805,0.00829535,-0.957892,0.0241025,0.0455058,783,1625,1.933,2.35402
-434,-601,1.91376,-1.58801,0.0180825,0.0229531,-0.0154198,0.0361288,0.00490688,-0.863717,0.0226283,0.0451158,790,1625,1.91373,1.58798
-427,-601,2.12,-1.04333,0,0,0,0,0,0,0,-1,797,1625,2.12002,1.04338
-420,-601,0.0195313,0.777222,0.0161182,0.0142041,-0.0157175,0.0309077,-0.000585388,-0.754991,0.020803,0.0429755,804,1625,0.0195266,-0.777235
-413,-601,0.439392,-0.324219,0.0144845,0.0107722,-0.0153595,0.0280996,-0.00284288,-0.725266,0.019749,0.0443797,811,1625,0.439371,0.324269
-406,-601,-1.21863,1.90259,0,0,0,0,0,0,0,-1,818,1625,-1.21863,-1.90255
-399,-601,0.135315,0.453735,0.0106149,0.00589327,-0.0136867,0.0221429,-0.0056347,-0.699993,0.0169552,0.0447836,825,1625,0.135344,-0.453694
-392,-601,-0.102905,0.349365,0.00873625,0.00358379,-0.0125267,0.0189489,-0.00662889,-0.683983,0.0153277,0.0429457,832,1625,-0.10293,-0.34936
-385,-601,-0.126404,0.146484,0.00707327,0.00328369,-0.0112524,0.0165893,-0.00623229,-0.701985,0.0136208,0.0381391,839,1625,-0.126382,-0.146464
-378,-601,-0.0993652,0.000976563,0.00579238,0.00344897,-0.00973976,0.0144307,-0.00518931,-0.725535,0.011739,0.0265459,846,1625,-0.0993689,-0.000983251
-371,-601,-0.101624,-0.0388184,0.00397811,0.00402218,-0.00798545,0.0119856,-0.00398534,-0.786778,0.00959872,0.0131197,853,1625,-0.101633,0.0388166
-364,-601,-0.0808105,-0.0501709,0.00252114,0.00463647,-0.00641631,0.0100817,-0.00292409,-0.867083,0.00787883,0.00967111,860,1625,-0.0807909,0.0501796
-357,-601,-0.0829468,-0.0610352,0.0016109,0.00409026,-0.00452365,0.00754101,-0.00183985,-0.919137,0.00573978,0.00966458,867,1625,-0.0829213,0.0610587
-350,-601,-0.0775757,-0.0756836,0.000897835,0.00362166,-0.00281777,0.00538938,-0.000869892,-1.01051,0.00391523,0.0194848,874,1625,-0.0776017,0.0756456
-343,-601,-0.0698853,-0.0640869,0.000236788,0.00334154,-0.00172095,0.00410682,-0.000528494,-1.15237,0.00292998,0.0147101,881,1625,-0.0698903,0.0641145
-336,-601,-0.0720825,-0.0679932,-0.000329671,0.0027511,-0.000765267,0.00293072,-0.000509291,-1.34025,0.00214384,0.0102914,888,1625,-0.072063,0.0679604
-329,-601,-0.0673218,-0.0563965,-0.000941372,0.00200463,1.03436e-05,0.00200467,-0.000941408,1.56729,0.00173745,0.0106569,895,1625,-0.0673514,0.0564458
-322,-601,-0.0662231,-0.048584,-0.00137881,0.000946296,0.000455282,0.00103227,-0.00146478,1.38416,0.00144886,0.0111915,902,1625,-0.0662211,0.0486133
-315,-601,-0.0639648,-0.0621338,-0.00153856,0.000677287,0.000576254,0.000818188,-0.00167946,1.33099,0.00147032,0.0107873,909,1625,-0.0639395,0.0621021
-308,-601,-0.0749512,-0.0601807,-0.00205739,8.52243e-05,0.00116078,0.000593507,-0.00256567,1.15807,0.0019388,0.0105515,916,1625,-0.0749773,0.0601708
-301,-601,-0.0664063,-0.0639648,-0.00255613,0.000187497,0.0013001,0.000705695,-0.00307432,1.19151,0.00232082,0.00975577,923,1625,-0.0664348,0.0640258
-294,-601,-0.0540771,-0.0767822,-0.00318536,0.000491965,0.00141497,0.000973391,-0.00366678,1.24284,0.00282544,0.009271,930,1625,-0.0540651,0.0767301
-287,-601,-0.0703735,-0.0755615,-0.00392404,0.000777901,0.00150749,0.00121971,-0.00436584,1.28571,0.00339105,0.00871444,937,1625,-0.0703517,0.0755998
-280,-601,-0.0691528,-0.0556641,-0.00483281,0.00130481,0.00160416,0.00169879,-0.00522679,1.32996,0.00416784,0.00934703,944,1625,-0.0691483,0.0556146
-273,-601,-0.0623779,-0.0559082,-0.00571776,0.00238705,0.00158406,0.00268565,-0.00601636,1.38448,0.00514531,0.00980503,951,1625,-0.0623874,0.055952
-266,-601,-0.0534668,-0.0758057,-0.00619724,0.00369711,0.00176746,0.00400336,-0.00650349,1.39923,0.00612311,0.01123,958,1625,-0.0534815,0.0757579
-259,-601,-0.0332642,-0.0936279,-0.00587735,0.00439068,0.00128286,0.00454853,-0.00603521,1.44837,0.00613059,0.0208823,965,1625,-0.0332776,0.0935999
-252,-601,0.03302,0.0523682,-0.00459032,0.00445846,0.000328183,0.00447034,-0.00460221,1.53459,0.00523823,0.0375525,972,1625,0.0330238,-0.0524048
-245,-601,-0.041687,0.123535,-0.00238468,0.00416027,-0.000486276,0.0041962,-0.00242061,-1.49704,0.00386579,0.0410661,979,1625,-0.0416615,-0.123595
-238,-601,-0.104675,0.0632324,0.000460587,0.00380169,-0.00134839,0.00427797,-1.56981e-05,-1.23125,0.00285723,0.0436811,986,1625,-0.104651,-0.0632886
-231,-601,-0.161926,0.0374756,0.00441194,0.00270536,-0.00261585,0.00631016,0.000807146,-0.627739,0.0039652,0.0443983,993,1625,-0.161929,-0.0374522
-224,-601,-0.557312,0.17041,0.00957861,0.000701355,-0.00378339,0.0109723,-0.000692294,-0.352937,0.00755618,0.0445316,1000,1625,-0.557335,-0.170396
-217,-601,-0.674561,-0.276489,0.0156245,-0.00224387,-0.00468044,0.0167763,-0.00339562,-0.241284,0.0124711,0.0443617,1007,1625,-0.674564,0.27644
-210,-601,-0.522644,-0.0775146,0.0205164,-0.00680336,-0.0044681,0.0212286,-0.00751554,-0.158063,0.0172134,0.0484378,1014,1625,-0.522652,0.0774561
-203,-601,-0.294189,0.09729,0,0,0,0,0,0,0,-1,1021,1625,-0.294218,-0.0973429
-196,-601,3.06482,2.41443,0.0274682,-0.0175067,-0.00192007,0.0275501,-0.0175885,-0.0425888,0.0262715,0.047617,1028,1625,3.06484,-2.41437
-189,-601,3.6604,2.75952,0.0282444,-0.023511,-0.000257511,0.0282457,-0.0235123,-0.00497538,0.0299241,0.0498654,1035,1625,3.66035,-2.75955
-182,-601,4.20972,3.11914,0,0,0,0,0,0,0,-1,1042,1625,4.20976,-3.11913
-175,-601,0.392578,-0.213867,0,0,0,0,0,0,0,-1,1049,1625,0.392632,0.21385
-168,-601,0.286987,-0.0423584,0,0,0,0,0,0,0,-1,1056,1625,0.286932,0.0423321
-161,-601,0.34668,0.0239258,0,0,0,0,0,0,0,-1,1063,1625,0.34671,-0.0238841
-154,-601,-0.937256,2.94836,0,0,0,0,0,0,0,-1,1070,1625,-0.937288,-2.9484
-147,-601,-1.22314,2.60706,0,0,0,0,0,0,0,-1,1077,1625,-1.2231,-2.6071
-140,-601,-1.73889,0.265503,0,0,0,0,0,0,0,-1,1084,1625,-1.73883,-0.265549
-133,-601,-1.66052,0.059082,0.00947772,-0.0201529,0.0122201,0.0138672,-0.0245424,0.344849,0.0224595,0.045125,1091,1625,-1.66052,-0.0590336
-126,-601,-1.54187,-0.128662,0.0109377,-0.0127877,0.00452609,0.0117718,-0.0136218,0.182246,0.014674,0.0471223,1098,1625,-1.54187,0.128613
-119,-601,-1.41467,-0.355469,0,0,0,0,0,0,0,-1,1105,1625,-1.41473,0.355485
-112,-601,0,0,0,0,0,0,0,0,0,-1,1112,1625,0,0
-105,-601,0,0,0,0,0,0,0,0,0,-1,1119,1625,0,0
-98,-601,0,0,0,0,0,0,0,0,0,-1,1126,1625,0,0
-91,-601,0,0,0,0,0,0,0,0,0,-1,1133,1625,0,0
-84,-601,0,0,0,0,0,0,0,0,0,-1,1140,1625,0,0
-77,-601,0,0,0,0,0,0,0,0,0,-1,1147,1625,0,0
-70,-601,0,0,0,0,0,0,0,0,0,-1,1154,1625,0,0
-63,-601,0,0,0,0,0,0,0,0,0,-1,1161,1625,0,0
-56,-601,0,0,0,0,0,0,0,0,0,-1,1168,1625,0,0
-49,-601,0,0,0,0,0,0,0,0,0,-1,1175,1625,0,0
-42,-601,0,0,0,0,0,0,0,0,0,-1,1182,1625,0,0
-35,-601,0,0,0,0,0,0,0,0,0,-1,1189,1625,0,0
-28,-601,0,0,0,0,0,0,0,0,0,-1,1196,1625,0,0
-21,-601,0,0,0,0,0,0,0,0,0,-1,1203,1625,0,0
-14,-601,0,0,0,0,0,0,0,0,0,-1,1210,1625,0,0
-7,-601,0,0,0,0,0,0,0,0,0,-1,1217,1625,0,0
0,-601,0,0,0,0,0,0,0,0,0,-1,1224,1625,0,0
7,-601,0,0,0,0,0,0,0,0,0,-1,1231,1625,0,0
14,-601,0,0,0,0,0,0,0,0,0,-1,1238,1625,0,0
21,-601,0,0,0,0,0,0,0,0,0,-1,1245,1625,0,0
28,-601,0,0,0,0,0,0,0,0,0,-1,1252,1625,0,0
35,-601,0,0,0,0,0,0,0,0,0,-1,1259,1625,0,0
42,-601,0,0,0,0,0,0,0,0,0,-1,1266,1625,0,0
49,-601,0,0,0,0,0,0,0,0,0,-1,1273,1625,0,0
56,-601,0,0,0,0,0,0,0,0,0,-1,1280,1625,0,0
63,-601,0,0,0,0,0,0,0,0,0,-1,1287,1625,0,0
70,-601,0,0,0,0,0,0,0,0,0,-1,1294,1625,0,0
77,-601,0,0,0,0,0,0,0,0,0,-1,1301,1625,0,0
84,-601,0,0,0,0,0,0,0,0,0,-1,1308,1625,0,0
91,-601,0,0,0,0,0,0,0,0,0,-1,1315,1625,0,0
98,-601,0,0,0,0,0,0,0,0,0,-1,1322,1625,0,0
105,-601,0,0,0,0,0,0,0,0,0,-1,1329,1625,0,0
112,-601,0,0,0,0,0,0,0,0,0,-1,1336,1625,0,0
119,-601,0,0,0,0,0,0,0,0,0,-1,1343,1625,0,0
126,-601,0,0,0,0,0,0,0,0,0,-1,1350,1625,0,0
133,-601,0,0,0,0,0,0,0,0,0,-1,1357,1625,0,0
140,-601,0,0,0,0,0,0,0,0,0,-1,1364,1625,0,0
147,-601,0,0,0,0,0,0,0,0,0,-1,1371,1625,0,0
154,-601,0,0,0,0,0,0,0,0,0,-1,1378,1625,0,0
161,-601,0,0,0,0,0,0,0,0,0,-1,1385,1625,0,0
168,-601,0,0,0,0,0,0,0,0,0,-1,1392,1625,0,0
175,-601,0,0,0,0,0,0,0,0,0,-1,1399,1625,0,0
182,-601,0,0,0,0,0,0,0,0,0,-1,1406,1625,0,0
189,-601,0,0,0,0,0,0,0,0,0,-1,1413,1625,0,0
196,-601,0,0,0,0,0,0,0,0,0,-1,1420,1625,0,0
203,-601,0,0,0,0,0,0,0,0,0,-1,1427,1625,0,0
210,-601,0,0,0,0,0,0,0,0,0,-1,1434,1625,0,0
217,-601,0,0,0,0,0,0,0,0,0,-1,1441,1625,0,0
224,-601,0,0,0,0,0,0,0,0,0,-1,1448,1625,0,0
231,-601,-1.62817,-0.715088,0,0,0,0,0,0,0,-1,1455,1625,-1.62822,0.715125
238,-601,-1.00867,-0.368652,0.32966,0.0892871,0.142755,0.396085,0.0228622,0.43551,0.256775,0.046179,1462,1625,-1.00872,0.368614
245,-601,-0.344482,-0.03125,0.33121,0.109149,0.150206,0.406967,0.0333919,0.467125,0.260894,0.0414339,1469,1625,-0.344486,0.0312667
252,-601,0.0803223,0.284058,0.302724,0.119248,0.145437,0.382939,0.0390329,0.504028,0.243327,0.0402586,1476,1625,0.0802992,-0.284051
259,-601,6.17249,5.4729,0.261704,0.123424,0.132507,0.342025,0.0431034,0.544937,0.215093,0.048181,1483,1625,6.17245,-5.47285
266,-601,5.53406,5.27966,0.21384,0.122723,0.115647,0.292579,0.0439845,0.597759,0.18217,0.0486739,1490,1625,5.53405,-5.27963
273,-601,4.77417,4.75281,0.164484,0.114585,0.0958746,0.238602,0.0404669,0.658107,0.147442,0.0474211,1497,1625,4.77411,-4.7528
280,-601,4.40479,3.98181,0.123085,0.105035,0.0778343,0.192416,0.0357043,0.727679,0.118187,0.0458936,1504,1625,4.40481,-3.98187
287,-601,3.87769,3.33374,0,0,0,0,0,0,0,-1,1511,1625,3.87764,-3.33372
294,-601,3.44263,2.58752,0.0613368,0.0840247,0.0489912,0.122968,0.0223934,0.899169,0.0756276,0.0452383,1518,1625,3.44266,-2.58755
301,-601,3.02051,1.6062,0.0410014,0.0737148,0.0382216,0.0989326,0.0157837,0.987579,0.0613741,0.0492001,1525,1625,3.02048,-1.60624
308,-601,2.203,0.924072,0.0107305,0.0646012,0.0269787,0.0757889,-0.000457153,1.17769,0.050679,0.0465472,1532,1625,2.20306,-0.924089
315,-601,1.65503,0.598877,-0.00603793,0.0466427,0.0129314,0.0496458,-0.00904097,1.34261,0.0364861,0.0472926,1539,1625,1.65501,-0.598912
322,-601,1.39197,0.649902,-0.00649316,0.0339928,0.00738829,0.0352989,-0.00779931,1.39582,0.0265175,0.0453195,1546,1625,1.39195,-0.649847
329,-601,1.19006,0.879272,-0.0037194,0.025742,0.00576154,0.0268286,-0.00480606,1.38438,0.0196843,0.0426168,1553,1625,1.19011,-0.879278
336,-601,0.957275,0.816162,-0.00223727,0.018316,0.00397912,0.0190595,-0.00298074,1.38608,0.0138076,0.0430067,1560,1625,0.957285,-0.816187
343,-601,0.576172,0.664185,-0.00238884,0.0134448,0.000785526,0.0134836,-0.00242771,1.52135,0.00989808,0.0472455,1567,1625,0.576171,-0.664221
350,-601,0.180176,0.517456,-0.00154304,0.00974799,-0.00152277,0.00994975,-0.00174481,-1.43907,0.00728476,0.04439,1574,1625,0.180175,-0.517485
357,-601,-0.00146484,0.453613,0.000253508,0.00818056,-0.00357701,0.009556,-0.00112193,-1.2037,0.00677568,0.0426191,1581,1625,-0.00143347,-0.453651
364,-601,0.307739,-0.483643,0,0,0,0,0,0,0,-1,1588,1625,0.307782,0.483589
371,-601,0.204712,-0.41626,0.00298951,0.00622792,-0.00749351,0.0122752,-0.00305773,-0.891803,0.00937049,0.0453341,1595,1625,0.20477,0.416302
378,-601,0.140869,-0.354736,0.00380004,0.00635956,-0.00870922,0.0138825,-0.00372295,-0.858347,0.0107138,0.0397757,1602,1625,0.140907,0.354794
385,-601,-0.00646973,-0.219727,0.00443761,0.00656125,-0.00899758,0.0145594,-0.00356058,-0.844132,0.0110854,0.0368867,1609,1625,-0.00651632,0.219744
392,-601,-0.0592041,-0.117554,0.00501502,0.00673199,-0.00831095,0.0142287,-0.00248167,-0.836863,0.0104121,0.033061,1616,1625,-0.0592529,0.117549
399,-601,-0.0703125,-0.0708008,0.00520964,0.00761176,-0.00721431,0.0137243,-0.000902905,-0.867883,0.00946487,0.0176951,1623,1625,-0.0703524,0.0707514
406,-601,-0.0578613,-0.0559082,0.00491641,0.00774852,-0.00598453,0.0124822,0.000182678,-0.901571,0.00826128,0.0117824,1630,1625,-0.05786,0.0558679
413,-601,-0.0721436,-0.0640869,0.00482176,0.00741511,-0.0046487,0.0109446,0.00129228,-0.921408,0.00690605,0.0108379,1637,1625,-0.0720853,0.0640448
420,-601,-0.0869141,-0.0639648,0.00436004,0.00689818,-0.00292268,0.00881542,0.0024428,-0.990223,0.00525546,0.00997561,1644,1625,-0.0869196,0.0639749
427,-601,-0.0683594,-0.0515137,0.00306866,0.00633632,-0.00151235,0.00692883,0.00247615,-1.19739,0.00405426,0.0145009,1651,1625,-0.0683888,0.0514603
434,-601,-0.0657959,-0.0529785,0.00192461,0.00573659,-0.000454176,0.00578996,0.00187125,-1.45383,0.00341179,0.0146392,1658,1625,-0.0657444,0.0530157
441,-601,-0.0644531,-0.0533447,0.00163524,0.00457461,-9.50258e-05,0.00457768,0.00163218,-1.53851,0.00267894,0.0157065,1665,1625,-0.0645051,0.0533193
448,-601,-0.0419922,-0.0646973,0.00208023,0.00307281,0.000477116,0.00326496,0.00188808,1.18795,0.00189271,0.0141497,1672,1625,-0.0420007,0.0646789
455,-601,-0.0654297,-0.0631104,0.0031405,0.00189173,0.000292369,0.00320556,0.00182667,0.218964,0.00185674,0.0124014,1679,1625,-0.0654205,0.0631006
462,-601,-0.0811768,-0.0649414,0.00289388,0.00129277,-0.00045088,0.00301212,0.00117453,-0.256464,0.00175304,0.0100992,1686,1625,-0.081193,0.0649649
469,-601,-0.0762939,-0.0593262,0.00286664,0.00128111,-0.00106518,0.00340169,0.000746061,-0.46549,0.00206454,0.00974309,1693,1625,-0.076334,0.0592712
476,-601,-0.0776367,-0.0522461,0.00322274,0.00104497,-0.00167449,0.00413125,0.000136462,-0.497113,0.00270983,0.0124608,1700,1625,-0.0776292,0.0522656
483,-601,-0.0870361,-0.0623779,0.00381964,0.00120335,-0.00231466,0.00517024,-0.000147244,-0.528196,0.00349694,0.0156449,1707,1625,-0.0869932,0.0624233
490,-601,-0.0970459,-0.072998,0.00433329,0.00168163,-0.00296319,0.00625373,-0.000238816,-0.57504,0.004251,0.0115588,1714,1625,-0.0970812,0.0729812
497,-601,-0.0690918,-0.083374,0.00431105,0.00210734,-0.00354591,0.00692236,-0.000503963,-0.634758,0.00479174,0.00879169,1721,1625,-0.0691417,0.0833681
504,-601,-0.0598145,-0.0799561,0.00386411,0.00244707,-0.00421879,0.00743346,-0.00112228,-0.702203,0.00536897,0.0101635,1728,1625,-0.0597803,0.079968
511,-601,-0.0825195,-0.0693359,0.00317911,0.00315466,-0.00468934,0.00785624,-0.00152247,-0.784094,0.00581184,0.0192447,1735,1625,-0.0825098,0.069312
518,-601,-0.121338,-0.0930176,0.00223725,0.00384625,-0.00475975,0.00786901,-0.00178551,-0.869118,0.00593144,0.0304747,1742,1625,-0.121368,0.0929861
525,-601,-0.0549316,-0.0925293,0.00102345,0.00469949,-0.00475539,0.00795971,-0.00223677,-0.969812,0.00618831,0.0390016,1749,1625,-0.0549496,0.0924728
532,-601,-0.0449219,-0.116455,-0.000593779,0.00521442,-0.00456034,0.00771685,-0.00309621,-1.06892,0.00643011,0.0403967,1756,1625,-0.0448711,0.116402
539,-601,-0.0234375,-0.0765381,-0.00260348,0.00552172,-0.00390921,0.00709708,-0.00417884,-1.18772,0.00658243,0.040664,1763,1625,-0.0233794,0.0765724
546,-601,-0.0994873,-0.116821,-0.00439811,0.00588561,-0.00252174,0.0064707,-0.0049832,-1.34281,0.00663147,0.0414501,1770,1625,-0.0994935,0.116781
553,-601,-0.339966,-0.114746,-0.00644821,0.00591803,-0.000913998,0.00598522,-0.0065154,-1.49742,0.0072194,0.0425955,1777,1625,-0.339948,0.114789
560,-601,-0.264526,-0.357056,-0.00830737,0.00572352,0.00129793,0.00584258,-0.00842642,1.47933,0.00828311,0.0438723,1784,1625,-0.264484,0.357094
567,-601,-0.202759,-0.158569,-0.00728415,0.00511837,0.00380308,0.00619166,-0.00835744,1.29573,0.00843089,0.0435075,1791,1625,-0.202721,0.158572
574,-601,0,0,0,0,0,0,0,0,0,-1,1798,1625,0,0
581,-601,0,0,0,0,0,0,0,0,0,-1,1805,1625,0,0
588,-601,0,0,0,0,0,0,0,0,0,-1,1812,1625,0,0
595,-601,0,0,0,0,0,0,0,0,0,-1,1819,1625,0,0
602,-601,0,0,0,0,0,0,0,0,0,-1,1826,1625,0,0
609,-601,0,0,0,0,0,0,0,0,0,-1,1833,1625,0,0
616,-601,0,0,0,0,0,0,0,0,0,-1,1840,1625,0,0
623,-601,0,0,0,0,0,0,0,0,0,-1,1847,1625,0,0
630,-601,0,0,0,0,0,0,0,0,0,-1,1854,1625,0,0
637,-601,0,0,0,0,0,0,0,0,0,-1,1861,1625,0,0
644,-601,0,0,0,0,0,0,0,0,0,-1,1868,1625,0,0
651,-601,0,0,0,0,0,0,0,0,0,-1,1875,1625,0,0
658,-601,0,0,0,0,0,0,0,0,0,-1,1882,1625,0,0
665,-601,0,0,0,0,0,0,0,0,0,-1,1889,1625,0,0
672,-601,0,0,0,0,0,0,0,0,0,-1,1896,1625,0,0
679,-601,0,0,0,0,0,0,0,0,0,-1,1903,1625,0,0
686,-601,0,0,0,0,0,0,0,0,0,-1,1910,1625,0,0
693,-601,0,0,0,0,0,0,0,0,0,-1,1917,1625,0,0
700,-601,0,0,0,0,0,0,0,0,0,-1,1924,1625,0,0
707,-601,0,0,0,0,0,0,0,0,0,-1,1931,1625,0,0
714,-601,0,0,0,0,0,0,0,0,0,-1,1938,1625,0,0
721,-601,0,0,0,0,0,0,0,0,0,-1,1945,1625,0,0
728,-601,0,0,0,0,0,0,0,0,0,-1,1952,1625,0,0
735,-601,0,0,0,0,0,0,0,0,0,-1,1959,1625,0,0
742,-601,0,0,0,0,0,0,0,0,0,-1,1966,1625,0,0
749,-601,0,0,0,0,0,0,0,0,0,-1,1973,1625,0,0
756,-601,0,0,0,0,0,0,0,0,0,-1,1980,1625,0,0
763,-601,0,0,0,0,0,0,0,0,0,-1,1987,1625,0,0
770,-601,0,0,0,0,0,0,0,0,0,-1,1994,1625,0,0
777,-601,0,0,0,0,0,0,0,0,0,-1,2001,1625,0,0
784,-601,0,0,0,0,0,0,0,0,0,-1,2008,1625,0,0
791,-601,0,0,0,0,0,0,0,0,0,-1,2015,1625,0,0
798,-601,0,0,0,0,0,0,0,0,0,-1,2022,1625,0,0
805,-601,0,0,0,0,0,0,0,0,0,-1,2029,1625,0,0
812,-601,0,0,0,0,0,0,0,0,0,-1,2036,1625,0,0
-700,-608,0,0,0,0,0,0,0,0,0,-1,524,1632,0,0
-693,-608,0,0,0,0,0,0,0,0,0,-1,531,1632,0,0
-686,-608,0,0,0,0,0,0,0,0,0,-1,538,1632,0,0
-679,-608,0,0,0,0,0,0,0,0,0,-1,545,1632,0,0
-672,-608,0,0,0,0,0,0,0,0,0,-1,552,1632,0,0
-665,-608,0,0,0,0,0,0,0,0,0,-1,559,1632,0,0
-658,-608,0,0,0,0,0,0,0,0,0,-1,566,1632,0,0
-651,-608,0,0,0,0,0,0,0,0,0,-1,573,1632,0,0
-644,-608,0,0,0,0,0,0,0,0,0,-1,580,1632,0,0
-637,-608,0,0,0,0,0,0,0,0,0,-1,587,1632,0,0
-630,-608,0,0,0,0,0,0,0,0,0,-1,594,1632,0,0
-623,-608,0,0,0,0,0,0,0,0,0,-1,601,1632,0,0
-616,-608,0,0,0,0,0,0,0,0,0,-1,608,1632,0,0
-609,-608,0,0,0,0,0,0,0,0,0,-1,615,1632,0,0
-602,-608,0,0,0,0,0,0,0,0,0,-1,622,1632,0,0
-595,-608,0,0,0,0,0,0,0,0,0,-1,629,1632,0,0
-588,-608,0,0,0,0,0,0,0,0,0,-1,636,1632,0,0
-581,-608,0,0,0,0,0,0,0,0,0,-1,643,1632,0,0
-574,-608,0,0,0,0,0,0,0,0,0,-1,650,1632,0,0
-567,-608,0,0,0,0,0,0,0,0,0,-1,657,1632,0,0
-560,-608,0,0,0,0,0,0,0,0,0,-1,664,1632,0,0
-553,-608,0,0,0,0,0,0,0,0,0,-1,671,1632,0,0
-546,-608,0,0,0,0,0,0,0,0,0,-1,678,1632,0,0
-539,-608,0,0,0,0,0,0,0,0,0,-1,685,1632,0,0
-532,-608,0,0,0,0,0,0,0,0,0,-1,692,1632,0,0
-525,-608,0,0,0,0,0,0,0,0,0,-1,699,1632,0,0
-518,-608,0,0,0,0,0,0,0,0,0,-1,706,1632,0,0
-511,-608,0,0,0,0,0,0,0,0,0,-1,713,1632,0,0
-504,-608,0,0,0,0,0,0,0,0,0,-1,720,1632,0,0
-497,-608,0,0,0,0,0,0,0,0,0,-1,727,1632,0,0
-490,-608,0,0,0,0,0,0,0,0,0,-1,734,1632,0,0
-483,-608,0,0,0,0,0,0,0,0,0,-1,741,1632,0,0
-476,-608,0,0,0,0,0,0,0,0,0,-1,748,1632,0,0
-469,-608,0,0,0,0,0,0,0,0,0,-1,755,1632,0,0
-462,-608,0,0,0,0,0,0,0,0,0,-1,762,1632,0,0
-455,-608,0,0,0,0,0,0,0,0,0,-1,769,1632,0,0
-448,-608,0,0,0,0,0,0,0,0,0,-1,776,1632,0,0
-441,-608,1.96204,-2.09583,0.0284085,0.0296681,-0.0137391,0.0427918,0.0152848,-0.808301,0.0250395,0.0497887,783,1632,1.96204,2.09579
-434,-608,2.159,-1.47021,0.0266207,0.0236394,-0.0162432,0.0414415,0.00881857,-0.739641,0.0252077,0.0481347,790,1632,2.159,1.47018
-427,-608,2.35193,-0.866577,0,0,0,0,0,0,0,-1,797,1632,2.35191,0.866558
-420,-608,-0.40155,1.35315,0,0,0,0,0,0,0,-1,804,1632,-0.401579,-1.35317
-413,-608,-0.973877,1.75647,0,0,0,0,0,0,0,-1,811,1632,-0.973888,-1.75647
-406,-608,-0.865967,1.79749,0.016821,0.010302,-0.0183062,0.0321556,-0.00503262,-0.697294,0.0232965,0.0425127,818,1632,-0.865996,-1.79754
-399,-608,-0.636475,1.41394,0.0141866,0.00853824,-0.0170991,0.0286932,-0.00596837,-0.703554,0.0213976,0.041028,825,1632,-0.636474,-1.414
-392,-608,-0.180908,0.817627,0.0116197,0.00649065,-0.0157846,0.0250468,-0.00693643,-0.704867,0.0194272,0.0436943,832,1632,-0.180901,-0.817658
-385,-608,-0.203796,0.473511,0.00939144,0.00649456,-0.0141933,0.02221,-0.00632397,-0.734549,0.0173042,0.044341,839,1632,-0.203773,-0.473508
-378,-608,-0.11438,0.137329,0.00755696,0.0067745,-0.012196,0.019368,-0.00503653,-0.769364,0.0148778,0.0433027,846,1632,-0.114409,-0.137282
-371,-608,-0.0968628,-0.0231934,0.00513409,0.00731222,-0.00989402,0.0161769,-0.00373062,-0.840214,0.0122195,0.0332784,853,1632,-0.0968904,0.0232402
-364,-608,-0.0874634,-0.065918,0.0032196,0.00771861,-0.00778687,0.0135744,-0.00263617,-0.926012,0.0100443,0.0136629,860,1632,-0.087459,0.0659012
-357,-608,-0.0801392,-0.0522461,0.00206287,0.00679732,-0.00541511,0.01034,-0.00147983,-0.991457,0.00743587,0.0115798,867,1632,-0.0801167,0.0522038
-350,-608,-0.0828247,-0.0825195,0.00120747,0.00597427,-0.00329054,0.00765391,-0.000472162,-1.09883,0.00526705,0.0172371,874,1632,-0.0827967,0.0825745
-343,-608,-0.0806274,-0.0993652,0.000461825,0.00538803,-0.00189321,0.00603156,-0.000181699,-1.24314,0.00408295,0.0172054,881,1632,-0.0806153,0.0993452
-336,-608,-0.0548096,-0.0797119,-7.92083e-05,0.00446822,-0.000735687,0.00458428,-0.000195267,-1.41433,0.00312331,0.0102148,888,1632,-0.0548076,0.0796762
-329,-608,-0.0547485,-0.0681152,-0.000614763,0.00338832,0.000208995,0.0033992,-0.000625645,1.51878,0.00250091,0.0105193,895,1632,-0.0547788,0.068084
-322,-608,-0.0664673,-0.0544434,-0.000965532,0.00192151,0.000697934,0.00208138,-0.0011254,1.34562,0.00187866,0.011248,902,1632,-0.0664614,0.0544482
-315,-608,-0.0648804,-0.0505371,-0.000939438,0.00155465,0.000678205,0.00172714,-0.00111193,1.32174,0.00165192,0.00968141,909,1632,-0.0649037,0.0505709
-308,-608,-0.0812988,-0.0489502,-0.00111624,0.000834568,0.00106828,0.00130576,-0.00158743,1.15539,0.00167302,0.0105201,916,1632,-0.0813248,0.0490093
-301,-608,-0.0768433,-0.0612793,-0.00120087,0.000498328,0.001276,0.0011817,-0.00188424,1.07911,0.00178554,0.00974481,923,1632,-0.0768359,0.0612519
-294,-608,-0.0637817,-0.0743408,-0.00145006,0.000551281,0.00137353,0.00125,-0.00214878,1.10021,0.00198503,0.00969206,930,1632,-0.0637715,0.0743723
-287,-608,-0.0783691,-0.0657959,-0.0019348,0.000636149,0.00148634,0.00131578,-0.00261444,1.14193,0.00231004,0.00949898,937,1632,-0.0783569,0.0658296
-280,-608,-0.0765381,-0.0615234,-0.00270351,0.000927888,0.00165169,0.00156675,-0.00334236,1.20173,0.00289542,0.00803497,944,1632,-0.0765198,0.0615071
-273,-608,-0.0753784,-0.0682373,-0.00349709,0.00169056,0.00173169,0.00221549,-0.00402203,1.27646,0.00365123,0.00844356,951,1632,-0.0753817,0.068265
-266,-608,-0.0699463,-0.0749512,-0.00395736,0.00265279,0.00195556,0.00318799,-0.00449256,1.30366,0.00445564,0.00794315,958,1632,-0.0699486,0.074983
-259,-608,-0.0762329,-0.0811768,-0.0037714,0.00317996,0.00163544,0.00354551,-0.00413695,1.3509,0.00443985,0.00986732,965,1632,-0.0762063,0.0811523
-252,-608,-0.0877686,-0.0848389,-0.00280324,0.00326914,0.000931388,0.00340878,-0.00294289,1.42197,0.00367042,0.0221009,972,1632,-0.0877696,0.084809
-245,-608,-0.0974731,-0.000244141,-0.00102803,0.00311872,0.00030057,0.00314039,-0.0010497,1.49881,0.00251753,0.0340691,979,1632,-0.0974437,0.000265856
-238,-608,-0.0791016,0.0841064,0.00124211,0.00291219,-0.000308355,0.0029673,0.00118699,-1.39393,0.00172455,0.0379367,986,1632,-0.0791113,-0.0841191
-231,-608,-0.076416,-0.0307617,0.00434083,0.00222886,-0.00126989,0.00493642,0.00163326,-0.438553,0.00290389,0.0414682,993,1632,-0.0763895,0.0307087
-224,-608,-0.339539,0.0377197,0.00837771,0.000922898,-0.00207151,0.00891466,0.000385948,-0.253624,0.00581873,0.0427196,1000,1632,-0.339522,-0.0377312
-217,-608,-0.38916,-0.219116,0.0130795,-0.00105581,-0.00252701,0.0135176,-0.00149399,-0.171691,0.0095488,0.0436821,1007,1632,-0.389136,0.219129
-210,-608,-0.205078,-0.152344,0.0166217,-0.0044321,-0.00187976,0.0167882,-0.00459861,-0.0883521,0.0129991,0.0461743,1014,1632,-0.205057,0.152304
-203,-608,-0.170349,-0.050415,0.0190399,-0.00803387,-0.000523522,0.0190501,-0.00804399,-0.0193272,0.0160672,0.0475391,1021,1632,-0.170349,0.0504557
-196,-608,-0.0860596,-0.154907,0,0,0,0,0,0,0,-1,1028,1632,-0.0860186,0.154921
-189,-608,4.22913,3.17932,0,0,0,0,0,0,0,-1,1035,1632,4.22916,-3.17934
-182,-608,4.72534,3.55627,0,0,0,0,0,0,0,-1,1042,1632,4.72534,-3.55631
-175,-608,0.42041,-0.635864,0,0,0,0,0,0,0,-1,1049,1632,0.420418,0.63584
-168,-608,2.34119,-1.86865,0,0,0,0,0,0,0,-1,1056,1632,2.34113,1.86864
-161,-608,1.41052,-1.25,0,0,0,0,0,0,0,-1,1063,1632,1.41047,1.25006
-154,-608,1.55396,-0.941895,0,0,0,0,0,0,0,-1,1070,1632,1.55395,0.941841
-147,-608,-1.28821,2.36572,0,0,0,0,0,0,0,-1,1077,1632,-1.2882,-2.36578
-140,-608,-1.84998,0.365112,0,0,0,0,0,0,0,-1,1084,1632,-1.85003,-0.365173
-133,-608,-1.74902,0.155151,0.00855773,-0.0111541,0.00876074,0.0118885,-0.0144849,0.363319,0.0152513,0.0495508,1091,1632,-1.74905,-0.155187
-126,-608,-1.6897,0.0102539,0.00945827,-0.00528426,0.00255263,0.00988774,-0.00571373,0.166685,0.00911434,0.0444593,1098,1632,-1.68966,-0.0103116
-119,-608,1.50854,0.980225,0,0,0,0,0,0,0,-1,1105,1632,1.50849,-0.980273
-112,-608,1.00391,0.676025,0.00226047,0.00533471,-0.00557975,0.00958519,-0.00199001,-0.919806,0.00714643,0.0463277,1112,1632,1.00388,-0.676063
-105,-608,0.435669,0.242676,-0.00560794,0.00837154,-0.00734565,0.0115216,-0.00875797,-1.16569,0.0117446,0.0408544,1119,1632,0.43572,-0.242675
-98,-608,-0.0527344,-0.118774,-0.0157512,0.00870164,-0.0079358,0.0110513,-0.0181008,-1.28294,0.0169942,0.042407,1126,1632,-0.0527403,0.11876
-91,-608,-0.338989,-0.279663,0,0,0,0,0,0,0,-1,1133,1632,-0.338967,0.279646
-84,-608,0,0,0,0,0,0,0,0,0,-1,1140,1632,0,0
-77,-608,0,0,0,0,0,0,0,0,0,-1,1147,1632,0,0
-70,-608,0,0,0,0,0,0,0,0,0,-1,1154,1632,0,0
-63,-608,0,0,0,0,0,0,0,0,0,-1,1161,1632,0,0
-56,-608,0,0,0,0,0,0,0,0,0,-1,1168,1632,0,0
-49,-608,0,0,0,0,0,0,0,0,0,-1,1175,1632,0,0
-42,-608,0,0,0,0,0,0,0,0,0,-1,1182,1632,0,0
-35,-608,0,0,0,0,0,0,0,0,0,-1,1189,1632,0,0
-28,-608,0,0,0,0,0,0,0,0,0,-1,1196,1632,0,0
-21,-608,0,0,0,0,0,0,0,0,0,-1,1203,1632,0,0
-14,-608,0,0,0,0,0,0,0,0,0,-1,1210,1632,0,0
-7,-608,0,0,0,0,0,0,0,0,0,-1,1217,1632,0,0
0,-608,0,0,0,0,0,0,0,0,0,-1,1224,1632,0,0
7,-608,0,0,0,0,0,0,0,0,0,-1,1231,1632,0,0
14,-608,0,0,0,0,0,0,0,0,0,-1,1238,1632,0,0
21,-608,0,0,0,0,0,0,0,0,0,-1,1245,1632,0,0
28,-608,0,0,0,0,0,0,0,0,0,-1,1252,1632,0,0
35,-608,0,0,0,0,0,0,0,0,0,-1,1259,1632,0,0
42,-608,0,0,0,0,0,0,0,0,0,-1,1266,1632,0,0
49,-608,0,0,0,0,0,0,0,0,0,-1,1273,1632,0,0
56,-608,0,0,0,0,0,0,0,0,0,-1,1280,1632,0,0
63,-608,0,0,0,0,0,0,0,0,0,-1,1287,1632,0,0
70,-608,0,0,0,0,0,0,0,0,0,-1,1294,1632,0,0
77,-608,0,0,0,0,0,0,0,0,0,-1,1301,1632,0,0
84,-608,0,0,0,0,0,0,0,0,0,-1,1308,1632,0,0
91,-608,0,0,0,0,0,0,0,0,0,-1,1315,1632,0,0
98,-608,0,0,0,0,0,0,0,0,0,-1,1322,1632,0,0
105,-608,0,0,0,0,0,0,0,0,0,-1,1329,1632,0,0
112,-608,0,0,0,0,0,0,0,0,0,-1,1336,1632,0,0
119,-608,0,0,0,0,0,0,0,0,0,-1,1343,1632,0,0
126,-608,0,0,0,0,0,0,0,0,0,-1,1350,1632,0,0
133,-608,0,0,0,0,0,0,0,0,0,-1,1357,1632,0,0
140,-608,0,0,0,0,0,0,0,0,0,-1,1364,1632,0,0
147,-608,0,0,0,0,0,0,0,0,0,-1,1371,1632,0,0
154,-608,0,0,0,0,0,0,0,0,0,-1,1378,1632,0,0
161,-608,0,0,0,0,0,0,0,0,0,-1,1385,1632,0,0
168,-608,0,0,0,0,0,0,0,0,0,-1,1392,1632,0,0
175,-608,0,0,0,0,0,0,0,0,0,-1,1399,1632,0,0
182,-608,0,0,0,0,0,0,0,0,0,-1,1406,1632,0,0
189,-608,0,0,0,0,0,0,0,0,0,-1,1413,1632,0,0
196,-608,0,0,0,0,0,0,0,0,0,-1,1420,1632,0,0
203,-608,0,0,0,0,0,0,0,0,0,-1,1427,1632,0,0
210,-608,0.195801,0.505859,0,0,0,0,0,0,0,-1,1434,1632,0.195766,-0.505884
217,-608,-2.54602,-1.9718,0,0,0,0,0,0,0,-1,1441,1632,-2.54602,1.97183
224,-608,-2.13513,-1.30383,0.20466,0.0524146,0.0902836,0.246629,0.0104449,0.435147,0.161051,0.0449758,1448,1632,-2.13514,1.30379
231,-608,-1.68408,-0.723145,0,0,0,0,0,0,0,-1,1455,1632,-1.68408,0.723095
238,-608,-0.947754,-0.254639,0.241097,0.0787511,0.109434,0.296177,0.023671,0.466298,0.190053,0.0423258,1462,1632,-0.947711,0.2546
245,-608,-0.232056,0.172485,0.242811,0.0944919,0.114436,0.305016,0.0322872,0.497898,0.193481,0.0408351,1469,1632,-0.232017,-0.172439
252,-608,0.383911,0.502563,0.223698,0.103519,0.11132,0.290111,0.0371056,0.537912,0.182302,0.0413213,1476,1632,0.383863,-0.502539
259,-608,-0.730347,0.234985,0.195499,0.109091,0.102184,0.263237,0.041353,0.585392,0.16346,0.0426784,1483,1632,-0.730335,-0.234998
266,-608,4.06079,4.7876,0.16211,0.110078,0.090091,0.229866,0.0423221,0.644836,0.141266,0.0471998,1490,1632,4.06083,-4.78764
273,-608,3.43848,4.07336,0.126461,0.104709,0.0757054,0.192068,0.0391024,0.714056,0.117206,0.0486925,1497,1632,3.43848,-4.07341
280,-608,3.33923,3.15479,0.0955988,0.097616,0.0620439,0.158659,0.0345552,0.793526,0.0963429,0.0481293,1504,1632,3.3392,-3.15485
287,-608,4.17957,2.4447,0,0,0,0,0,0,0,-1,1511,1632,4.17959,-2.44473
294,-608,3.41638,1.67285,0.0492784,0.0805423,0.0403892,0.108219,0.0216016,0.970037,0.0661322,0.0453568,1518,1632,3.41637,-1.67284
301,-608,2.59888,0.941895,0.0333114,0.0715148,0.0319199,0.089612,0.0152142,1.05503,0.0553711,0.0475951,1525,1632,2.59883,-0.941943
308,-608,1.95618,-0.0321045,0.00926739,0.0629898,0.0229188,0.0714386,0.000818633,1.21761,0.0473552,0.0489285,1532,1632,1.95621,0.0320627
315,-608,1.58496,-0.0450439,-0.00488658,0.046632,0.0111295,0.0489335,-0.00718805,1.36688,0.0352634,0.0468814,1539,1632,1.58499,0.0450776
322,-608,1.09326,0.216309,-0.00583925,0.0342685,0.00633799,0.0352463,-0.00681697,1.41774,0.0260687,0.0425209,1546,1632,1.09324,-0.216249
329,-608,0.87085,0.524292,-0.00377214,0.0261923,0.00514061,0.0270497,-0.00462952,1.40553,0.0197579,0.0402885,1553,1632,0.870807,-0.524258
336,-608,0.702026,0.631348,-0.00278112,0.0187774,0.00373554,0.0194063,-0.00341005,1.404,0.0142113,0.0403426,1560,1632,0.701975,-0.631343
343,-608,0.250122,0.352539,-0.00342604,0.013567,0.00118436,0.0136491,-0.00350819,1.50155,0.0104667,0.0461689,1567,1632,0.250115,-0.352596
350,-608,0.0529785,0.3479,-0.00273328,0.00952607,-0.000552346,0.00955091,-0.00275812,-1.52586,0.00745861,0.0467509,1574,1632,0.0529283,-0.347863
357,-608,-0.041626,0.350586,-0.00117516,0.00745843,-0.00222431,0.00799779,-0.00171453,-1.3329,0.00598579,0.0476599,1581,1632,-0.0416574,-0.35062
364,-608,-0.178589,0.198608,6.33254e-05,0.00538579,-0.00395738,0.00749352,-0.00204441,-1.0814,0.00579855,0.0465451,1588,1632,-0.178563,-0.19856
371,-608,-0.152954,0.215576,0.000890342,0.00470957,-0.00571498,0.00882554,-0.00322562,-0.946637,0.00720378,0.0394051,1595,1632,-0.152999,-0.215627
378,-608,-0.046875,-0.0784912,0.00146826,0.00447861,-0.00689777,0.0100335,-0.00408665,-0.89282,0.00838983,0.0322852,1602,1632,-0.0468364,0.0784322
385,-608,-0.103394,-0.092041,0.00200129,0.00434338,-0.00729167,0.0105574,-0.00421277,-0.865018,0.00878592,0.0260417,1609,1632,-0.103415,0.0920288
392,-608,-0.0950928,-0.0905762,0.00252032,0.00425966,-0.00690882,0.0103533,-0.00357336,-0.848008,0.00835215,0.0178814,1616,1632,-0.0950592,0.09057
399,-608,-0.0769043,-0.0651855,0.00278181,0.00466029,-0.00609321,0.00988623,-0.00244413,-0.861869,0.00753877,0.0096332,1623,1632,-0.0768791,0.0651711
406,-608,-0.0667725,-0.0609131,0.00263191,0.00473151,-0.00515788,0.00894533,-0.00158192,-0.885793,0.0065548,0.00931243,1630,1632,-0.0667301,0.0609235
413,-608,-0.0895996,-0.0720215,0.00258281,0.00448489,-0.00414019,0.00778187,-0.000714174,-0.898294,0.00544161,0.00993939,1637,1632,-0.0895586,0.072053
420,-608,-0.0986328,-0.0673828,0.00230876,0.00413994,-0.00277515,0.00614664,0.00030206,-0.944738,0.00400088,0.0163949,1644,1632,-0.0986287,0.0673471
427,-608,-0.0784912,-0.0495605,0.00146971,0.00378367,-0.00159285,0.00459539,0.000657995,-1.0995,0.00286952,0.0183848,1651,1632,-0.0785018,0.0495717
434,-608,-0.0704346,-0.0715332,0.000863431,0.00323894,-0.000630488,0.00339591,0.000706464,-1.3268,0.00206905,0.0140844,1658,1632,-0.0704664,0.0715213
441,-608,-0.0836182,-0.0703125,0.000828568,0.00239208,-0.000320454,0.00245521,0.000765438,-1.37628,0.00145062,0.0129805,1665,1632,-0.0836722,0.0702797
448,-608,-0.0661621,-0.046875,0.00163295,0.00130754,0.000126143,0.00167612,0.00126437,0.329746,0.00100858,0.0151298,1672,1632,-0.0661315,0.0468288
455,-608,-0.064209,-0.041626,0.00312144,0.000489299,-9.66867e-05,0.00312499,0.000485752,-0.0366672,0.00194177,0.0111956,1679,1632,-0.0641701,0.0416239
462,-608,-0.0683594,-0.0515137,0.00335143,0.000202709,-0.00080393,0.00354481,9.32603e-06,-0.236062,0.0023601,0.00972589,1686,1632,-0.0683209,0.0514989
469,-608,-0.0847168,-0.0567627,0.00373298,0.000548302,-0.00153397,0.00435166,-7.03759e-05,-0.383364,0.00292485,0.00774496,1693,1632,-0.084761,0.0567068
476,-608,-0.0812988,-0.0568848,0.00454421,0.000607196,-0.00229092,0.00559619,-0.000444782,-0.430474,0.00388754,0.00824175,1700,1632,-0.0812743,0.0568567
483,-608,-0.0754395,-0.0587158,0.00544066,0.00106102,-0.00316119,0.00709642,-0.000594732,-0.482487,0.00494113,0.00790322,1707,1632,-0.0754764,0.0586675
490,-608,-0.0653076,-0.0633545,0.00613731,0.0019138,-0.00405761,0.0085998,-0.000548693,-0.545464,0.00592458,0.00795378,1714,1632,-0.0653658,0.063345
497,-608,-0.0672607,-0.0710449,0.00623019,0.00274242,-0.00488895,0.00967696,-0.000704352,-0.614083,0.00669845,0.0104589,1721,1632,-0.0673066,0.0710736
504,-608,-0.0924072,-0.0870361,0.00580529,0.0035504,-0.0058339,0.0106197,-0.00126401,-0.689946,0.00753655,0.020839,1728,1632,-0.0924447,0.0870595
511,-608,-0.200806,-0.196167,0.00500986,0.00460721,-0.00650125,0.0113129,-0.00169583,-0.769919,0.00816612,0.0346668,1735,1632,-0.200751,0.196184
518,-608,-0.14624,-0.420654,0.00375952,0.00570738,-0.00670296,0.0115068,-0.00203989,-0.857542,0.0084338,0.0394252,1742,1632,-0.146202,0.420675
525,-608,0.136353,-0.213013,0.00216909,0.00698161,-0.00674431,0.0117361,-0.00258536,-0.956751,0.00881315,0.03914,1749,1632,0.136381,0.213057
532,-608,0.277344,0.146606,0.000123554,0.00798912,-0.00655672,0.0117021,-0.00358941,-1.05554,0.00923342,0.0380581,1756,1632,0.2774,-0.146621
539,-608,-0.00866699,0.184814,-0.00253893,0.0088479,-0.00577657,0.0112652,-0.00495623,-1.17447,0.00959865,0.0375479,1763,1632,-0.00869357,-0.184771
546,-608,-0.259155,0.0303955,-0.00494616,0.00946551,-0.00393608,0.0104705,-0.0059511,-1.32082,0.00959992,0.0392365,1770,1632,-0.259106,-0.0304523
553,-608,-0.484741,-0.0360107,-0.0076994,0.00980254,-0.00187262,0.0100007,-0.00789752,-1.46539,0.0103573,0.0412594,1777,1632,-0.484718,0.0360047
560,-608,-0.39978,-0.299805,-0.0102533,0.00967321,0.000846838,0.00970913,-0.0102892,1.5284,0.0115476,0.042682,1784,1632,-0.39977,0.29985
567,-608,0,0,0,0,0,0,0,0,0,-1,1791,1632,0,0
574,-608,0,0,0,0,0,0,0,0,0,-1,1798,1632,0,0
581,-608,0,0,0,0,0,0,0,0,0,-1,1805,1632,0,0
588,-608,0,0,0,0,0,0,0,0,0,-1,1812,1632,0,0
595,-608,0,0,0,0,0,0,0,0,0,-1,1819,1632,0,0
602,-608,0,0,0,0,0,0,0,0,0,-1,1826,1632,0,0
609,-608,0,0,0,0,0,0,0,0,0,-1,1833,1632,0,0
616,-608,0,0,0,0,0,0,0,0,0,-1,1840,1632,0,0
623,-608,0,0,0,0,0,0,0,0,0,-1,1847,1632,0,0
630,-608,0,0,0,0,0,0,0,0,0,-1,1854,1632,0,0
637,-608,0,0,0,0,0,0,0,0,0,-1,1861,1632,0,0
644,-608,0,0,0,0,0,0,0,0,0,-1,1868,1632,0,0
651,-608,0,0,0,0,0,0,0,0,0,-1,1875,1632,0,0
658,-608,0,0,0,0,0,0,0,0,0,-1,1882,1632,0,0
665,-608,0,0,0,0,0,0,0,0,0,-1,1889,1632,0,0
672,-608,0,0,0,0,0,0,0,0,0,-1,1896,1632,0,0
679,-608,0,0,0,0,0,0,0,0,0,-1,1903,1632,0,0
686,-608,0,0,0,0,0,0,0,0,0,-1,1910,1632,0,0
693,-608,0,0,0,0,0,0,0,0,0,-1,1917,1632,0,0
700,-608,0,0,0,0,0,0,0,0,0,-1,1924,1632,0,0
707,-608,0,0,0,0,0,0,0,0,0,-1,1931,1632,0,0
714,-608,0,0,0,0,0,0,0,0,0,-1,1938,1632,0,0
721,-608,0,0,0,0,0,0,0,0,0,-1,1945,1632,0,0
728,-608,0,0,0,0,0,0,0,0,0,-1,1952,1632,0,0
735,-608,0,0,0,0,0,0,0,0,0,-1,1959,1632,0,0
742,-608,0,0,0,0,0,0,0,0,0,-1,1966,1632,0,0
749,-608,0,0,0,0,0,0,0,0,0,-1,1973,1632,0,0
756,-608,0,0,0,0,0,0,0,0,0,-1,1980,1632,0,0
763,-608,0,0,0,0,0,0,0,0,0,-1,1987,1632,0,0
770,-608,0,0,0,0,0,0,0,0,0,-1,1994,1632,0,0
777,-608,0,0,0,0,0,0,0,0,0,-1,2001,1632,0,0
784,-608,0,0,0,0,0,0,0,0,0,-1,2008,1632,0,0
791,-608,0,0,0,0,0,0,0,0,0,-1,2015,1632,0,0
798,-608,0,0,0,0,0,0,0,0,0,-1,2022,1632,0,0
805,-608,0,0,0,0,0,0,0,0,0,-1,2029,1632,0,0
812,-608,0,0,0,0,0,0,0,0,0,-1,2036,1632,0,0
-700,-615,0,0,0,0,0,0,0,0,0,-1,524,1639,0,0
-693,-615,0,0,0,0,0,0,0,0,0,-1,531,1639,0,0
-686,-615,0,0,0,0,0,0,0,0,0,-1,538,1639,0,0
-679,-615,0,0,0,0,0,0,0,0,0,-1,545,1639,0,0
-672,-615,0,0,0,0,0,0,0,0,0,-1,552,1639,0,0
-665,-615,0,0,0,0,0,0,0,0,0,-1,559,1639,0,0
-658,-615,0,0,0,0,0,0,0,0,0,-1,566,1639,0,0
-651,-615,0,0,0,0,0,0,0,0,0,-1,573,1639,0,0
-644,-615,0,0,0,0,0,0,0,0,0,-1,580,1639,0,0
-637,-615,0,0,0,0,0,0,0,0,0,-1,587,1639,0,0
-630,-615,0,0,0,0,0,0,0,0,0,-1,594,1639,0,0
-623,-615,0,0,0,0,0,0,0,0,0,-1,601,1639,0,0
-616,-615,0,0,0,0,0,0,0,0,0,-1,608,1639,0,0
-609,-615,0,0,0,0,0,0,0,0,0,-1,615,1639,0,0
-602,-615,0,0,0,0,0,0,0,0,0,-1,622,1639,0,0
-595,-615,0,0,0,0,0,0,0,0,0,-1,629,1639,0,0
-588,-615,0,0,0,0,0,0,0,0,0,-1,636,1639,0,0
-581,-615,0,0,0,0,0,0,0,0,0,-1,643,1639,0,0
-574,-615,0,0,0,0,0,0,0,0,0,-1,650,1639,0,0
-567,-615,0,0,0,0,0,0,0,0,0,-1,657,1639,0,0
-560,-615,0,0,0,0,0,0,0,0,0,-1,664,1639,0,0
-553,-615,0,0,0,0,0,0,0,0,0,-1,671,1639,0,0
-546,-615,0,0,0,0,0,0,0,0,0,-1,678,1639,0,0
-539,-615,0,0,0,0,0,0,0,0,0,-1,685,1639,0,0
-532,-615,0,0,0,0,0,0,0,0,0,-1,692,1639,0,0
-525,-615,0,0,0,0,0,0,0,0,0,-1,699,1639,0,0
-518,-615,0,0,0,0,0,0,0,0,0,-1,706,1639,0,0
-511,-615,0,0,0,0,0,0,0,0,0,-1,713,1639,0,0
-504,-615,0,0,0,0,0,0,0,0,0,-1,720,1639,0,0
-497,-615,0,0,0,0,0,0,0,0,0,-1,727,1639,0,0
-490,-615,0,0,0,0,0,0,0,0,0,-1,734,1639,0,0
-483,-615,0,0,0,0,0,0,0,0,0,-1,741,1639,0,0
-476,-615,0,0,0,0,0,0,0,0,0,-1,748,1639,0,0
-469,-615,0,0,0,0,0,0,0,0,0,-1,755,1639,0,0
-462,-615,0,0,0,0,0,0,0,0,0,-1,762,1639,0,0
-455,-615,0,0,0,0,0,0,0,0,0,-1,769,1639,0,0
-448,-615,0,0,0,0,0,0,0,0,0,-1,776,1639,0,0
-441,-615,0,0,0,0,0,0,0,0,0,-1,783,1639,0,0
-434,-615,2.36499,-1.3866,0,0,0,0,0,0,0,-1,790,1639,2.36501,1.38656
-427,-615,-1.70776,1.76758,0.0335092,0.0212249,-0.0198952,0.0481889,0.00654531,-0.635678,0.0301816,0.0460362,797,1639,-1.70779,-1.76754
-420,-615,-0.871704,1.6958,0.0297023,0.0171615,-0.0216434,0.0459653,0.000898486,-0.644401,0.0303485,0.0479622,804,1639,-0.871705,-1.69575
-413,-615,-0.579163,2.09973,0,0,0,0,0,0,0,-1,811,1639,-0.579175,-2.09968
-406,-615,-0.506104,1.76941,0.021843,0.0133353,-0.0223988,0.0403883,-0.00520998,-0.691559,0.0288196,0.0465636,818,1639,-0.50609,-1.76947
-399,-615,-0.45105,1.40369,0.0183255,0.0121485,-0.0211944,0.0366552,-0.00618121,-0.713047,0.0267365,0.0422343,825,1639,-0.451072,-1.40364
-392,-615,-0.397583,0.998657,0.0149793,0.0106142,-0.0196853,0.0326027,-0.00700922,-0.730187,0.0244093,0.0437543,832,1639,-0.397596,-0.998657
-385,-615,-0.236694,0.592163,0.0120911,0.0109749,-0.0176753,0.0292171,-0.00615104,-0.769616,0.0218194,0.0464648,839,1639,-0.236692,-0.59222
-378,-615,0.163635,0.116577,0.00957446,0.0111829,-0.0149934,0.0253937,-0.00463634,-0.812191,0.0186675,0.0471089,846,1639,0.163608,-0.116588
-371,-615,0.696289,-0.423584,0,0,0,0,0,0,0,-1,853,1639,0.696263,0.423585
-364,-615,-0.0739746,-0.0256348,0.00400339,0.0113528,-0.00915389,0.0175421,-0.00218582,-0.976271,0.0124872,0.0289419,860,1639,-0.0739619,0.0256123
-357,-615,-0.0348511,-0.0966797,0.00251534,0.00982584,-0.00617748,0.0133485,-0.00100729,-1.05255,0.00925305,0.0239098,867,1639,-0.0348518,0.0966869
-350,-615,-0.0557251,-0.119751,0.00145528,0.00845787,-0.00352387,0.00992415,-1.09915e-05,-1.17649,0.00661976,0.0205129,874,1639,-0.0557029,0.119743
-343,-615,-0.0740967,-0.0725098,0.000563908,0.00737709,-0.00173526,0.00779358,0.000147413,-1.33523,0.00514729,0.017338,881,1639,-0.074068,0.0725611
-336,-615,-0.0623779,-0.0650635,-1.8863e-05,0.00600012,-0.000297518,0.00601479,-3.35337e-05,-1.52153,0.00402109,0.00973024,888,1639,-0.0623541,0.0650381
-329,-615,-0.0664063,-0.0609131,-0.000576754,0.00453847,0.000872936,0.00468334,-0.000721622,1.40634,0.00338848,0.00968931,895,1639,-0.0664327,0.0608732
-322,-615,-0.0749512,-0.0507813,-0.000909269,0.0026426,0.0014138,0.00313664,-0.0014033,1.23462,0.00268406,0.00941497,902,1639,-0.0749293,0.0508408
-315,-615,-0.0812988,-0.0319824,-0.00076067,0.00224746,0.00123994,0.00269266,-0.00120588,1.22608,0.00230474,0.0102156,909,1639,-0.0813117,0.0319784
-308,-615,-0.0866089,-0.0356445,-0.000671559,0.00146094,0.00142536,0.00217473,-0.00138535,1.10653,0.00207218,0.0154878,916,1639,-0.086594,0.0356425
-301,-615,-0.0759888,-0.0648193,-0.000421195,0.00106172,0.0014471,0.00194626,-0.00130573,1.02215,0.00188964,0.0113144,923,1639,-0.0759811,0.0648587
-294,-615,-0.0670166,-0.0766602,-0.000341275,0.0010652,0.00136253,0.00189527,-0.00117135,1.02363,0.00178688,0.00967924,930,1639,-0.0670013,0.0766098
-287,-615,-0.081543,-0.0723877,-0.00059083,0.00110966,0.00131943,0.00182907,-0.00131024,1.07161,0.00182072,0.00754865,937,1639,-0.0815256,0.0723551
-280,-615,-0.0782471,-0.0810547,-0.00122016,0.00137114,0.00135145,0.00194769,-0.00179671,1.16756,0.00216242,0.00803349,944,1639,-0.0782687,0.0810965
-273,-615,-0.0785522,-0.0778809,-0.00189687,0.0020275,0.00131342,0.00242651,-0.00229588,1.27586,0.00272682,0.0084251,951,1639,-0.0785755,0.0779016
-266,-615,-0.0707397,-0.0749512,-0.0022915,0.00279342,0.00139026,0.0031487,-0.00264678,1.3206,0.0033502,0.00858988,958,1639,-0.0707098,0.0749981
-259,-615,-0.0651245,-0.0629883,-0.00218528,0.00321226,0.00108336,0.00342159,-0.00239461,1.37993,0.00337539,0.00985592,965,1639,-0.065138,0.0629812
-252,-615,-0.0734863,-0.0631104,-0.00146044,0.00332044,0.000528517,0.00337817,-0.00151816,1.462,0.00289409,0.0111085,972,1639,-0.0734897,0.0631533
-245,-615,-0.109619,-0.0750732,-4.8355e-05,0.00325614,2.92457e-05,0.0032564,-4.86138e-05,1.56195,0.00218732,0.0167478,979,1639,-0.109619,0.0750759
-238,-615,-0.110229,-0.100342,0.0017236,0.00311233,-0.000353296,0.00319704,0.00163888,-1.33546,0.00184601,0.0239655,986,1639,-0.110238,0.100282
-231,-615,-0.0571289,-0.102539,0.00411002,0.00261207,-0.000991463,0.00460361,0.00211848,-0.461918,0.0026607,0.0309495,993,1639,-0.0571175,0.102534
-224,-615,-0.00939941,-0.0737305,0.0072032,0.00167521,-0.0013903,0.00753317,0.00134525,-0.233023,0.00463917,0.0395392,1000,1639,-0.00939216,0.0736816
-217,-615,-0.105469,-0.129028,0.0107673,0.000307958,-0.00139449,0.01095,0.00012523,-0.130293,0.00725865,0.0435502,1007,1639,-0.105459,0.128968
-210,-615,0.0265503,-0.116211,0.0132445,-0.00223754,-0.000381813,0.0132539,-0.00224695,-0.0246417,0.00967229,0.047181,1014,1639,0.0265567,0.116229
-203,-615,0.105408,0.0172119,0.014798,-0.00489072,0.00121946,0.0148732,-0.00496596,0.0616233,0.0119207,0.0460655,1021,1639,0.105393,-0.0172258
-196,-615,0.233887,0.188965,0.0163259,-0.00767213,0.00285533,0.016661,-0.00800719,0.116809,0.0145313,0.0429803,1028,1639,0.23391,-0.188939
-189,-615,0.500977,0.311279,0,0,0,0,0,0,0,-1,1035,1639,0.500916,-0.311262
-182,-615,0.236572,0.440674,0,0,0,0,0,0,0,-1,1042,1639,0.236535,-0.440696
-175,-615,3.15857,-1.7793,0,0,0,0,0,0,0,-1,1049,1639,3.15863,1.77926
-168,-615,2.14612,-1.37134,0,0,0,0,0,0,0,-1,1056,1639,2.14609,1.37137
-161,-615,1.17761,-0.786499,0.0199861,-0.0175679,0.0074056,0.0213937,-0.0189755,0.187834,0.0233211,0.0472999,1063,1639,1.17764,0.786462
-154,-615,0.751587,-0.115723,0.0177131,-0.0159398,0.00837591,0.0196826,-0.0179092,0.230936,0.0217117,0.0497517,1070,1639,0.751644,0.115782
-147,-615,0.217896,0.737061,0,0,0,0,0,0,0,-1,1077,1639,0.217926,-0.737
-140,-615,-1.46936,1.86682,0,0,0,0,0,0,0,-1,1084,1639,-1.46933,-1.86686
-133,-615,-2.18896,0.22876,0,0,0,0,0,0,0,-1,1091,1639,-2.18899,-0.228709
-126,-615,-1.68066,0.200806,0.00821804,-0.00115865,0.00126116,0.0083847,-0.00132531,0.131389,0.00607991,0.0460573,1098,1639,-1.68065,-0.200811
-119,-615,-1.04443,0.22583,0.00677201,0.00294798,-0.0026465,0.00812492,0.00159507,-0.472574,0.00497097,0.0446531,1105,1639,-1.04441,-0.225862
-112,-615,0.411377,0.710571,0.00292949,0.00704236,-0.00528523,0.0106571,-0.000685282,-0.970931,0.00734385,0.0435022,1112,1639,0.411418,-0.7106
-105,-615,0.430054,0.131592,-0.00218731,0.00965782,-0.00695748,0.0128722,-0.00540166,-1.13801,0.0108403,0.0382924,1119,1639,0.430061,-0.131542
-98,-615,0.328735,-0.26123,-0.00897923,0.0104169,-0.00768113,0.0130903,-0.0116526,-1.23587,0.0142933,0.0428434,1126,1639,0.328724,0.261236
-91,-615,-1.13098,-0.244507,0,0,0,0,0,0,0,-1,1133,1639,-1.13097,0.244472
-84,-615,-1.53723,-0.478882,0,0,0,0,0,0,0,-1,1140,1639,-1.53728,0.478837
-77,-615,-1.77942,-0.020752,0,0,0,0,0,0,0,-1,1147,1639,-1.77947,0.0207623
-70,-615,0.191528,-0.173584,0,0,0,0,0,0,0,-1,1154,1639,0.191517,0.173571
-63,-615,-0.067749,-0.229004,0,0,0,0,0,0,0,-1,1161,1639,-0.0677052,0.228984
-56,-615,0,0,0,0,0,0,0,0,0,-1,1168,1639,0,0
-49,-615,0,0,0,0,0,0,0,0,0,-1,1175,1639,0,0
-42,-615,0,0,0,0,0,0,0,0,0,-1,1182,1639,0,0
-35,-615,0,0,0,0,0,0,0,0,0,-1,1189,1639,0,0
-28,-615,0,0,0,0,0,0,0,0,0,-1,1196,1639,0,0
-21,-615,0,0,0,0,0,0,0,0,0,-1,1203,1639,0,0
-14,-615,0,0,0,0,0,0,0,0,0,-1,1210,1639,0,0
-7,-615,0,0,0,0,0,0,0,0,0,-1,1217,1639,0,0
0,-615,0,0,0,0,0,0,0,0,0,-1,1224,1639,0,0
7,-615,0,0,0,0,0,0,0,0,0,-1,1231,1639,0,0
14,-615,0,0,0,0,0,0,0,0,0,-1,1238,1639,0,0
21,-615,0,0,0,0,0,0,0,0,0,-1,1245,1639,0,0
28,-615,0,0,0,0,0,0,0,0,0,-1,1252,1639,0,0
35,-615,0,0,0,0,0,0,0,0,0,-1,1259,1639,0,0
42,-615,0,0,0,0,0,0,0,0,0,-1,1266,1639,0,0
49,-615,0,0,0,0,0,0,0,0,0,-1,1273,1639,0,0
56,-615,0,0,0,0,0,0,0,0,0,-1,1280,1639,0,0
63,-615,0,0,0,0,0,0,0,0,0,-1,1287,1639,0,0
70,-615,0,0,0,0,0,0,0,0,0,-1,1294,1639,0,0
77,-615,0,0,0,0,0,0,0,0,0,-1,1301,1639,0,0
84,-615,0,0,0,0,0,0,0,0,0,-1,1308,1639,0,0
91,-615,0,0,0,0,0,0,0,0,0,-1,1315,1639,0,0
98,-615,0,0,0,0,0,0,0,0,0,-1,1322,1639,0,0
105,-615,0,0,0,0,0,0,0,0,0,-1,1329,1639,0,0
112,-615,0,0,0,0,0,0,0,0,0,-1,1336,1639,0,0
119,-615,0,0,0,0,0,0,0,0,0,-1,1343,1639,0,0
126,-615,0,0,0,0,0,0,0,0,0,-1,1350,1639,0,0
133,-615,0,0,0,0,0,0,0,0,0,-1,1357,1639,0,0
140,-615,0,0,0,0,0,0,0,0,0,-1,1364,1639,0,0
147,-615,0,0,0,0,0,0,0,0,0,-1,1371,1639,0,0
154,-615,0,0,0,0,0,0,0,0,0,-1,1378,1639,0,0
161,-615,0,0,0,0,0,0,0,0,0,-1,1385,1639,0,0
168,-615,0,0,0,0,0,0,0,0,0,-1,1392,1639,0,0
175,-615,0.672119,4.3064,-0.0305878,-0.0233802,0.0324993,0.00571441,-0.0596825,0.840617,0.0418235,0.0452153,1399,1639,0.672063,-4.30639
182,-615,0.250732,4.21252,-0.0248473,-0.026494,0.0238839,-0.00177251,-0.0495688,0.768168,0.0324711,0.0449315,1406,1639,0.250771,-4.21258
189,-615,-0.0401611,3.3739,-0.0137961,-0.0253515,0.0190298,0.000313722,-0.0394614,0.638014,0.0264128,0.045943,1413,1639,-0.0401686,-3.37389
196,-615,-0.045166,4.13928,0,0,0,0,0,0,0,-1,1420,1639,-0.0451429,-4.13926
203,-615,0.0917969,3.4751,0,0,0,0,0,0,0,-1,1427,1639,0.0917866,-3.47514
210,-615,0.286621,2.81274,0,0,0,0,0,0,0,-1,1434,1639,0.286587,-2.81271
217,-615,-2.78784,-1.16699,0,0,0,0,0,0,0,-1,1441,1639,-2.78783,1.16697
224,-615,-2.15662,-0.712036,0,0,0,0,0,0,0,-1,1448,1639,-2.15658,0.711984
231,-615,-0.72937,-0.216064,0,0,0,0,0,0,0,-1,1455,1639,-0.729366,0.216062
238,-615,-0.642944,-0.174072,0.17508,0.0668465,0.0803135,0.217808,0.0241187,0.488928,0.137871,0.0434728,1462,1639,-0.642996,0.174051
245,-615,-0.214722,0.352417,0.177265,0.0791545,0.0843861,0.225818,0.0306013,0.522112,0.141453,0.0419168,1469,1639,-0.214706,-0.352367
252,-615,-0.293701,0.297607,0.165439,0.0869013,0.0832327,0.218201,0.034139,0.564983,0.135529,0.042084,1476,1639,-0.293692,-0.297568
259,-615,-0.420898,0.374146,0.146904,0.092933,0.0775704,0.202049,0.0377882,0.618004,0.124037,0.0397763,1483,1639,-0.420886,-0.374193
266,-615,-0.519165,0.338013,0.12421,0.0949404,0.0694741,0.180574,0.0385763,0.681592,0.109806,0.0417559,1490,1639,-0.519182,-0.338011
273,-615,1.84949,2.88794,0,0,0,0,0,0,0,-1,1497,1639,1.84946,-2.88791
280,-615,1.96082,2.5144,0,0,0,0,0,0,0,-1,1504,1639,1.96083,-2.51435
287,-615,3.73633,1.7439,0,0,0,0,0,0,0,-1,1511,1639,3.73632,-1.74392
294,-615,2.99634,0.964722,0.040289,0.0733777,0.0327579,0.0935321,0.0201346,1.01924,0.0568445,0.0474545,1518,1639,2.99629,-0.9647
301,-615,2.19238,0.300537,0.0276766,0.065737,0.0261127,0.0790182,0.0143955,1.10029,0.0485963,0.0497831,1525,1639,2.19234,-0.300566
308,-615,1.59778,-0.935669,0.00882354,0.0581766,0.0189909,0.0646383,0.00236189,1.24283,0.0423269,0.0483245,1532,1639,1.59775,0.935704
315,-615,0.812256,0.17627,0,0,0,0,0,0,0,-1,1539,1639,0.812306,-0.176235
322,-615,0.538574,0.270386,-0.0041898,0.0326235,0.00532362,0.0333779,-0.0049442,1.43003,0.0240698,0.0437385,1546,1639,0.538627,-0.270326
329,-615,0.376953,0.294189,-0.00298304,0.0252047,0.00448019,0.0258997,-0.00367799,1.41691,0.018614,0.0405087,1553,1639,0.376987,-0.294196
336,-615,0.359009,0.386841,-0.00265207,0.0183642,0.00339869,0.0189001,-0.00318803,1.41439,0.0137862,0.0405634,1560,1639,0.358961,-0.386864
343,-615,0.283569,0.594849,-0.00388438,0.0132807,0.00139927,0.013394,-0.0039977,1.48999,0.0105183,0.0432355,1567,1639,0.283559,-0.59487
350,-615,-0.0720215,0.275269,-0.00352765,0.00930082,0.000126993,0.00930208,-0.00352891,1.5609,0.00765385,0.0442732,1574,1639,-0.0720656,-0.275302
357,-615,-0.102417,0.119385,-0.00234113,0.00709356,-0.00114176,0.00722976,-0.00247733,-1.45206,0.00582398,0.0479499,1581,1639,-0.102435,-0.119408
364,-615,-0.0343018,0.0554199,-0.00146795,0.0049201,-0.00251964,0.00579429,-0.00234214,-1.23684,0.00483645,0.0479168,1588,1639,-0.0342524,-0.0553925
371,-615,-0.0224609,0.010376,-0.000994717,0.00403445,-0.00402146,0.00626278,-0.00322305,-1.0648,0.00556959,0.0344755,1595,1639,-0.0224137,-0.0103309
378,-615,-0.0834961,-0.0386963,-0.000589661,0.00355387,-0.00508593,0.00697381,-0.0040096,-0.978813,0.0064178,0.0172043,1602,1639,-0.0835331,0.0386942
385,-615,-0.107544,-0.0643311,-7.4913e-05,0.00314029,-0.0055211,0.00728307,-0.00421769,-0.927068,0.00671813,0.0105655,1609,1639,-0.107569,0.0643562
392,-615,-0.0828857,-0.064209,0.000472915,0.00278832,-0.0053965,0.0071499,-0.00388867,-0.891061,0.00646517,0.00923236,1616,1639,-0.0829182,0.0641721
399,-615,-0.0915527,-0.0616455,0.000824146,0.00293841,-0.00484548,0.00684074,-0.00307818,-0.8928,0.00586242,0.0107973,1623,1639,-0.0915135,0.0616493
406,-615,-0.088623,-0.0631104,0.000872146,0.0028904,-0.00420553,0.00620618,-0.00244364,-0.903148,0.00514906,0.011253,1630,1639,-0.0885875,0.063126
413,-615,-0.0778809,-0.0551758,0.000952773,0.00269038,-0.00351767,0.00544495,-0.00180179,-0.906467,0.00435658,0.0116264,1637,1639,-0.0778293,0.0551303
420,-615,-0.0644531,-0.0640869,0.000839474,0.00246715,-0.00250486,0.00428706,-0.000980439,-0.942471,0.00323477,0.0127514,1644,1639,-0.064497,0.0641257
427,-615,-0.0533447,-0.0566406,0.000323608,0.00219512,-0.00153817,0.00305981,-0.000541079,-1.05867,0.0022421,0.0140681,1651,1639,-0.0533792,0.056585
434,-615,-0.0639648,-0.0687256,0.000160778,0.00163337,-0.000686231,0.00190357,-0.000109427,-1.19569,0.00130705,0.012528,1658,1639,-0.0639102,0.0686673
441,-615,-0.0623779,-0.083252,0.000262762,0.000971368,-0.000449957,0.00118977,4.43592e-05,-1.11891,0.000778815,0.0134152,1665,1639,-0.0623673,0.0832237
448,-615,-0.0750732,-0.0548096,0.00131174,0.000125739,-0.000117526,0.00132327,0.000114205,-0.0978266,0.000846683,0.0141981,1672,1639,-0.0750301,0.0548369
455,-615,-0.0837402,-0.0164795,0.0031527,-0.000501358,-0.000378019,0.0031914,-0.000540055,-0.102012,0.00232859,0.012955,1679,1639,-0.0837862,0.0164875
462,-615,-0.0727539,-0.0405273,0.00379394,-0.00065514,-0.00106122,0.0040341,-0.000895304,-0.222561,0.00303222,0.0133978,1686,1639,-0.0727259,0.0404687
469,-615,-0.0875244,-0.0550537,0.00458477,-0.000117491,-0.00190622,0.00526044,-0.000793157,-0.340636,0.00379905,0.011672,1693,1639,-0.0875094,0.0550265
476,-615,-0.09021,-0.0509033,0.00590778,9.81447e-05,-0.00282422,0.00705441,-0.00104848,-0.385665,0.00508857,0.0103503,1700,1639,-0.090165,0.0508776
483,-615,-0.0792236,-0.0540771,0.00723908,0.000765832,-0.00394423,0.00910468,-0.00109977,-0.441811,0.00646762,0.0132021,1707,1639,-0.0792577,0.054052
490,-615,-0.0614014,-0.0507813,0.00826999,0.00196796,-0.0051419,0.0111496,-0.000911619,-0.510505,0.0077548,0.0138851,1714,1639,-0.0614196,0.0508092
497,-615,-0.0946045,-0.0566406,0.00865324,0.00323702,-0.00629475,0.0127977,-0.000907446,-0.582258,0.00884981,0.0178134,1721,1639,-0.0945521,0.0566696
504,-615,-0.102173,-0.0629883,0.00840291,0.00453045,-0.00760541,0.0143147,-0.00138132,-0.660753,0.0100353,0.03471,1728,1639,-0.102191,0.0629803
511,-615,-0.0554199,0.0129395,0.00757254,0.00621984,-0.00861044,0.0155332,-0.00174077,-0.746204,0.0109818,0.0441078,1735,1639,-0.0554175,-0.0129333
518,-615,0.0148926,0.0606689,0.00603742,0.00800242,-0.00909815,0.016171,-0.00213113,-0.839184,0.0115567,0.043513,1742,1639,0.014888,-0.060636
525,-615,0.137573,0.139526,0.00405168,0.00996302,-0.00938299,0.0168449,-0.00283015,-0.93798,0.0122825,0.0372973,1749,1639,0.137595,-0.139531
532,-615,0.0860596,0.136963,0.00152556,0.0118243,-0.0094373,0.0174256,-0.00407583,-1.03514,0.0131874,0.0396132,1756,1639,0.0860445,-0.136988
539,-615,-0.149292,0.120483,-0.00202264,0.0137215,-0.00873309,0.0176068,-0.00590797,-1.15219,0.0141252,0.040189,1763,1639,-0.149244,-0.120528
546,-615,-0.400757,0.127686,-0.00540459,0.0148745,-0.00628005,0.0166618,-0.00719189,-1.29353,0.014129,0.0436135,1770,1639,-0.400742,-0.127677
553,-615,-0.639526,0.0216064,0,0,0,0,0,0,0,-1,1777,1639,-0.639555,-0.0216036
560,-615,0,0,0,0,0,0,0,0,0,-1,1784,1639,0,0
567,-615,0,0,0,0,0,0,0,0,0,-1,1791,1639,0,0
574,-615,0,0,0,0,0,0,0,0,0,-1,1798,1639,0,0
581,-615,0,0,0,0,0,0,0,0,0,-1,1805,1639,0,0
588,-615,0,0,0,0,0,0,0,0,0,-1,1812,1639,0,0
595,-615,0,0,0,0,0,0,0,0,0,-1,1819,1639,0,0
602,-615,0,0,0,0,0,0,0,0,0,-1,1826,1639,0,0
609,-615,0,0,0,0,0,0,0,0,0,-1,1833,1639,0,0
616,-615,0,0,0,0,0,0,0,0,0,-1,1840,1639,0,0
623,-615,0,0,0,0,0,0,0,0,0,-1,1847,1639,0,0
630,-615,0,0,0,0,0,0,0,0,0,-1,1854,1639,0,0
637,-615,0,0,0,0,0,0,0,0,0,-1,1861,1639,0,0
644,-615,0,0,0,0,0,0,0,0,0,-1,1868,1639,0,0
651,-615,0,0,0,0,0,0,0,0,0,-1,1875,1639,0,0
658,-615,0,0,0,0,0,0,0,0,0,-1,1882,1639,0,0
665,-615,0,0,0,0,0,0,0,0,0,-1,1889,1639,0,0
672,-615,0,0,0,0,0,0,0,0,0,-1,1896,1639,0,0
679,-615,0,0,0,0,0,0,0,0,0,-1,1903,1639,0,0
686,-615,0,0,0,0,0,0,0,0,0,-1,1910,1639,0,0
693,-615,0,0,0,0,0,0,0,0,0,-1,1917,1639,0,0
700,-615,0,0,0,0,0,0,0,0,0,-1,1924,1639,0,0
707,-615,0,0,0,0,0,0,0,0,0,-1,1931,1639,0,0
714,-615,0,0,0,0,0,0,0,0,0,-1,1938,1639,0,0
721,-615,0,0,0,0,0,0,0,0,0,-1,1945,1639,0,0
728,-615,0,0,0,0,0,0,0,0,0,-1,1952,1639,0,0
735,-615,0,0,0,0,0,0,0,0,0,-1,1959,1639,0,0
742,-615,0,0,0,0,0,0,0,0,0,-1,1966,1639,0,0
749,-615,0,0,0,0,0,0,0,0,0,-1,1973,1639,0,0
756,-615,0,0,0,0,0,0,0,0,0,-1,1980,1639,0,0
763,-615,0,0,0,0,0,0,0,0,0,-1,1987,1639,0,0
770,-615,0,0,0,0,0,0,0,0,0,-1,1994,1639,0,0
777,-615,0,0,0,0,0,0,0,0,0,-1,2001,1639,0,0
784,-615,0,0,0,0,0,0,0,0,0,-1,2008,1639,0,0
791,-615,0,0,0,0,0,0,0,0,0,-1,2015,1639,0,0
798,-615,0,0,0,0,0,0,0,0,0,-1,2022,1639,0,0
805,-615,0,0,0,0,0,0,0,0,0,-1,2029,1639,0,0
812,-615,0,0,0,0,0,0,0,0,0,-1,2036,1639,0,0
-700,-622,0,0,0,0,0,0,0,0,0,-1,524,1646,0,0
-693,-622,0,0,0,0,0,0,0,0,0,-1,531,1646,0,0
-686,-622,0,0,0,0,0,0,0,0,0,-1,538,1646,0,0
-679,-622,0,0,0,0,0,0,0,0,0,-1,545,1646,0,0
-672,-622,0,0,0,0,0,0,0,0,0,-1,552,1646,0,0
-665,-622,0,0,0,0,0,0,0,0,0,-1,559,1646,0,0
-658,-622,0,0,0,0,0,0,0,0,0,-1,566,1646,0,0
-651,-622,0,0,0,0,0,0,0,0,0,-1,573,1646,0,0
-644,-622,0,0,0,0,0,0,0,0,0,-1,580,1646,0,0
-637,-622,0,0,0,0,0,0,0,0,0,-1,587,1646,0,0
-630,-622,0,0,0,0,0,0,0,0,0,-1,594,1646,0,0
-623,-622,0,0,0,0,0,0,0,0,0,-1,601,1646,0,0
-616,-622,0,0,0,0,0,0,0,0,0,-1,608,1646,0,0
-609,-622,0,0,0,0,0,0,0,0,0,-1,615,1646,0,0
-602,-622,0,0,0,0,0,0,0,0,0,-1,622,1646,0,0
-595,-622,0,0,0,0,0,0,0,0,0,-1,629,1646,0,0
-588,-622,0,0,0,0,0,0,0,0,0,-1,636,1646,0,0
-581,-622,0,0,0,0,0,0,0,0,0,-1,643,1646,0,0
-574,-622,0,0,0,0,0,0,0,0,0,-1,650,1646,0,0
-567,-622,0,0,0,0,0,0,0,0,0,-1,657,1646,0,0
-560,-622,0,0,0,0,0,0,0,0,0,-1,664,1646,0,0
-553,-622,0,0,0,0,0,0,0,0,0,-1,671,1646,0,0
-546,-622,0,0,0,0,0,0,0,0,0,-1,678,1646,0,0
-539,-622,0,0,0,0,0,0,0,0,0,-1,685,1646,0,0
-532,-622,0,0,0,0,0,0,0,0,0,-1,692,1646,0,0
-525,-622,0,0,0,0,0,0,0,0,0,-1,699,1646,0,0
-518,-622,0,0,0,0,0,0,0,0,0,-1,706,1646,0,0
-511,-622,0,0,0,0,0,0,0,0,0,-1,713,1646,0,0
-504,-622,0,0,0,0,0,0,0,0,0,-1,720,1646,0,0
-497,-622,0,0,0,0,0,0,0,0,0,-1,727,1646,0,0
-490,-622,0,0,0,0,0,0,0,0,0,-1,734,1646,0,0
-483,-622,0,0,0,0,0,0,0,0,0,-1,741,1646,0,0
-476,-622,0,0,0,0,0,0,0,0,0,-1,748,1646,0,0
-469,-622,0,0,0,0,0,0,0,0,0,-1,755,1646,0,0
-462,-622,0,0,0,0,0,0,0,0,0,-1,762,1646,0,0
-455,-622,0,0,0,0,0,0,0,0,0,-1,769,1646,0,0
-448,-622,0,0,0,0,0,0,0,0,0,-1,776,1646,0,0
-441,-622,0,0,0,0,0,0,0,0,0,-1,783,1646,0,0
-434,-622,0,0,0,0,0,0,0,0,0,-1,790,1646,0,0
-427,-622,-1.90979,2.18005,0.043843,0.0227397,-0.0213714,0.0571257,0.00945708,-0.556089,0.0353556,0.0463161,797,1646,-1.9098,-2.1801
-420,-622,-1.10339,2.14636,0.0379842,0.0194946,-0.0249047,0.0553046,0.00217416,-0.607677,0.0361668,0.0487213,804,1646,-1.10341,-2.14636
-413,-622,-0.344055,2.03528,0,0,0,0,0,0,0,-1,811,1646,-0.344033,-2.03533
-406,-622,-0.151001,1.6405,0.0274116,0.0176556,-0.0270743,0.0500438,-0.0049766,-0.696269,0.0351391,0.0477877,818,1646,-0.15102,-1.64054
-399,-622,-0.192932,1.26917,0.0229156,0.0171753,-0.0259138,0.0461177,-0.00602678,-0.730244,0.0329384,0.0449408,825,1646,-0.192946,-1.26914
-392,-622,-0.522278,1.16382,0.0186747,0.0162174,-0.0240894,0.0415667,-0.00667472,-0.759918,0.0301831,0.0463657,832,1646,-0.522298,-1.16377
-385,-622,-0.435364,0.654541,0.0151241,0.0168295,-0.0213883,0.0373821,-0.00542849,-0.805321,0.026914,0.0483518,839,1646,-0.435379,-0.654484
-378,-622,-0.242004,-0.0390625,0.0119473,0.0168216,-0.0177284,0.0322795,-0.00351064,-0.853705,0.0227802,0.0460517,846,1646,-0.241978,0.0390918
-371,-622,-0.0215454,-0.322876,0.00819094,0.0165241,-0.0137946,0.0267677,-0.00205262,-0.932064,0.0185672,0.0455612,853,1646,-0.0215296,0.322846
-364,-622,0.207458,-0.105713,0.00526761,0.0157838,-0.0101357,0.0219441,-0.000892681,-1.02467,0.0149358,0.0427555,860,1646,0.20744,0.105739
-357,-622,0.178711,-0.165039,0.00339734,0.0134805,-0.00647003,0.0166413,0.000236562,-1.11637,0.0110162,0.0407752,867,1646,0.178717,0.16508
-350,-622,0.0192261,-0.145142,0.00212012,0.0114419,-0.00325075,0.0124636,0.00109847,-1.26629,0.00796816,0.0333726,874,1646,0.0192349,0.145087
-343,-622,-0.0772095,-0.0725098,0.00104939,0.00970798,-0.00102525,0.00982772,0.000929648,-1.45453,0.00626496,0.0207619,881,1646,-0.0772336,0.0725262
-336,-622,-0.0787964,-0.0604248,0.00034433,0.00774821,0.000702766,0.00781432,0.000278214,1.47699,0.00511933,0.00883416,888,1646,-0.0787683,0.0604595
-329,-622,-0.0881348,-0.0651855,-0.000376659,0.0057618,0.00209682,0.00640968,-0.00102453,1.27112,0.00465238,0.00826089,895,1646,-0.0881096,0.0652183
-322,-622,-0.0943604,-0.0554199,-0.000839076,0.00331786,0.00265467,0.00461093,-0.00213215,1.11753,0.00397984,0.00973095,902,1646,-0.0943354,0.0554328
-315,-622,-0.0986938,-0.0335693,-0.000735467,0.0027613,0.00228369,0.00388903,-0.0018632,1.1121,0.00338901,0.0127818,909,1646,-0.0987136,0.0336248
-308,-622,-0.0865479,-0.0615234,-0.000560227,0.00179405,0.00223469,0.00314268,-0.00190886,1.02781,0.00294536,0.0122915,916,1646,-0.0865402,0.0615795
-301,-622,-0.0765381,-0.0782471,-0.00015392,0.00121796,0.00202253,0.0026677,-0.00160367,0.948886,0.00249145,0.0111865,923,1646,-0.0765519,0.0782314
-294,-622,-0.0766602,-0.0722656,8.6898e-05,0.00105578,0.00171536,0.00235379,-0.00121112,0.92302,0.00209315,0.0087282,930,1646,-0.0766339,0.0723199
-287,-622,-0.0818481,-0.0765381,-3.12529e-05,0.000952897,0.00147597,0.00201665,-0.00109501,0.9463,0.0018226,0.0070049,937,1646,-0.0818187,0.0765364
-280,-622,-0.0858154,-0.0853271,-0.000626788,0.00107308,0.00131699,0.00179058,-0.00134429,1.07195,0.00181602,0.00777976,944,1646,-0.0858116,0.0852776
-273,-622,-0.0888672,-0.101807,-0.00120583,0.0015469,0.00110768,0.00193726,-0.0015962,1.23197,0.00204321,0.0107702,951,1646,-0.088842,0.101779
-266,-622,-0.0883789,-0.088623,-0.00150751,0.00210348,0.00102504,0.00237416,-0.0017782,1.31262,0.00240558,0.0112025,958,1646,-0.088394,0.0886816
-259,-622,-0.0645142,-0.0444336,-0.00143298,0.00240987,0.000715384,0.00253872,-0.00156184,1.39259,0.00238975,0.0111073,965,1646,-0.0645139,0.0444684
-252,-622,-0.0742798,-0.0587158,-0.000847545,0.00254777,0.00027597,0.00257005,-0.000869829,1.49022,0.0020653,0.0110359,972,1646,-0.074297,0.0586818
-245,-622,-0.0750122,-0.0703125,0.000261614,0.00258763,-0.000117132,0.00259352,0.00025573,-1.52061,0.00165039,0.00847201,979,1646,-0.0750114,0.070322
-238,-622,-0.0822144,-0.0812988,0.00163242,0.00256785,-0.000333446,0.00267455,0.00152573,-1.26112,0.00154925,0.00916135,986,1646,-0.0821985,0.0813438
-231,-622,-0.0709839,-0.0836182,0.0034555,0.00228738,-0.000705829,0.00378758,0.00195529,-0.43976,0.00218715,0.0122619,993,1646,-0.0709548,0.0836017
-224,-622,-0.0249634,-0.0500488,0.00579217,0.00171234,-0.000791833,0.00594046,0.00156405,-0.185133,0.00355554,0.0184532,1000,1646,-0.0249382,0.0500291
-217,-622,0.0310059,-0.0157471,0.00841501,0.000848519,-0.000465551,0.00844354,0.000819983,-0.0612202,0.00537658,0.0290982,1007,1646,0.0309967,0.0157733
-210,-622,-0.0310669,-0.0552979,0.0100875,-0.000960277,0.00076173,0.0101398,-0.00101255,0.0685163,0.00712143,0.0425409,1014,1646,-0.0310425,0.0553062
-203,-622,0.165955,-0.0986328,0.0110077,-0.00284572,0.00245639,0.0114304,-0.00326837,0.170395,0.00891179,0.0448632,1021,1646,0.165983,0.0986675
-196,-622,0.619141,-0.0783691,0.0119648,-0.00472246,0.0040892,0.012913,-0.00567064,0.227847,0.0109975,0.0431687,1028,1646,0.619148,0.0784067
-189,-622,0.873779,-0.0718994,0.0116676,-0.00755722,0.00601757,0.0133958,-0.00928542,0.279666,0.0131665,0.0438855,1035,1646,0.873757,0.0719479
-182,-622,1.20215,-0.145996,0,0,0,0,0,0,0,-1,1042,1646,1.20213,0.146015
-175,-622,0.924805,0.0327148,0,0,0,0,0,0,0,-1,1049,1646,0.92486,-0.0327185
-168,-622,1.35693,0.03125,0,0,0,0,0,0,0,-1,1056,1646,1.35689,-0.0312373
-161,-622,0.954956,-0.310059,0.0144152,-0.0122832,0.00892066,0.0171215,-0.0149895,0.294551,0.0185529,0.0442891,1063,1646,0.954906,0.310006
-154,-622,0.530518,0.0621338,0.0129293,-0.0107211,0.00901027,0.0159709,-0.0137626,0.325554,0.0171824,0.0449209,1070,1646,0.530538,-0.0621885
-147,-622,0.29187,0.263794,0,0,0,0,0,0,0,-1,1077,1646,0.291878,-0.263758
-140,-622,0.784058,-0.922363,0,0,0,0,0,0,0,-1,1084,1646,0.78405,0.922336
-133,-622,0.690063,-1.00037,0,0,0,0,0,0,0,-1,1091,1646,0.690067,1.00039
-126,-622,-1.61987,0.2771,0,0,0,0,0,0,0,-1,1098,1646,-1.61987,-0.27714
-119,-622,-1.06628,0.240845,0.0056073,0.00428817,-0.00269101,0.00771839,0.00217707,-0.665217,0.00459515,0.0480614,1105,1646,-1.06629,-0.240876
-112,-622,-0.0799561,0.318848,0.00285075,0.00734043,-0.00474154,0.0103417,-0.000150505,-1.00649,0.00694517,0.0435143,1112,1646,-0.0799167,-0.318789
-105,-622,0.200928,-0.0585938,-0.000544838,0.00940547,-0.00616521,0.0123526,-0.00349193,-1.12489,0.00961281,0.0401942,1119,1646,0.200869,0.0585387
-98,-622,-0.172607,-0.332764,-0.005192,0.0101642,-0.00679438,0.0127387,-0.00776655,-1.20859,0.0119542,0.0417459,1126,1646,-0.172581,0.332758
-91,-622,-1.26233,-0.464478,-0.00982793,0.00888932,-0.00633772,0.0108334,-0.011772,-1.27316,0.013055,0.0451514,1133,1646,-1.26235,0.464467
-84,-622,-1.74255,-0.502441,-0.0124871,0.00725276,-0.00579178,0.00882661,-0.0140609,-1.30546,0.0133288,0.0448589,1140,1646,-1.74257,0.502472
-77,-622,-2.06531,-0.167603,0,0,0,0,0,0,0,-1,1147,1646,-2.06533,0.167614
-70,-622,-2.36609,0.108765,0,0,0,0,0,0,0,-1,1154,1646,-2.36614,-0.108747
-63,-622,-0.140503,-0.0458984,0,0,0,0,0,0,0,-1,1161,1646,-0.140529,0.0459114
-56,-622,-0.223877,-0.00537109,0,0,0,0,0,0,0,-1,1168,1646,-0.223854,0.00531197
-49,-622,-0.258789,0.130615,0,0,0,0,0,0,0,-1,1175,1646,-0.258844,-0.130582
-42,-622,-0.179932,0.176758,-0.0165798,0.00257091,-0.00962297,0.00657086,-0.0205798,-1.17686,0.0163562,0.0465839,1182,1646,-0.179916,-0.176783
-35,-622,-0.0889893,0.400513,-0.0149317,0.00663764,-0.0119105,0.0119206,-0.0202147,-1.15331,0.0187582,0.0496738,1189,1646,-0.0889835,-0.400557
-28,-622,0.00012207,0.614136,0,0,0,0,0,0,0,-1,1196,1646,7.48836e-05,-0.614127
-21,-622,-1.19897,0.70105,0,0,0,0,0,0,0,-1,1203,1646,-1.19892,-0.701041
-14,-622,-1.06348,0.0262451,0,0,0,0,0,0,0,-1,1210,1646,-1.06348,-0.0261957
-7,-622,-1.49426,-0.168823,0,0,0,0,0,0,0,-1,1217,1646,-1.49431,0.16887
0,-622,0,0,0,0,0,0,0,0,0,-1,1224,1646,0,0
7,-622,0,0,0,0,0,0,0,0,0,-1,1231,1646,0,0
14,-622,0,0,0,0,0,0,0,0,0,-1,1238,1646,0,0
21,-622,0,0,0,0,0,0,0,0,0,-1,1245,1646,0,0
28,-622,0,0,0,0,0,0,0,0,0,-1,1252,1646,0,0
35,-622,0,0,0,0,0,0,0,0,0,-1,1259,1646,0,0
42,-622,0,0,0,0,0,0,0,0,0,-1,1266,1646,0,0
49,-622,0,0,0,0,0,0,0,0,0,-1,1273,1646,0,0
56,-622,0,0,0,0,0,0,0,0,0,-1,1280,1646,0,0
63,-622,0,0,0,0,0,0,0,0,0,-1,1287,1646,0,0
70,-622,0,0,0,0,0,0,0,0,0,-1,1294,1646,0,0
77,-622,0,0,0,0,0,0,0,0,0,-1,1301,1646,0,0
84,-622,0,0,0,0,0,0,0,0,0,-1,1308,1646,0,0
91,-622,0,0,0,0,0,0,0,0,0,-1,1315,1646,0,0
98,-622,0,0,0,0,0,0,0,0,0,-1,1322,1646,0,0
105,-622,0,0,0,0,0,0,0,0,0,-1,1329,1646,0,0
112,-622,0,0,0,0,0,0,0,0,0,-1,1336,1646,0,0
119,-622,0,0,0,0,0,0,0,0,0,-1,1343,1646,0,0
126,-622,-0.351196,-0.859009,-0.0426239,0.019375,0.123155,0.115372,-0.138621,0.908692,0.146847,0.0414528,1350,1646,-0.351148,0.858993
133,-622,-0.425537,0.325562,-0.038489,0.0180443,0.10892,0.102306,-0.122751,0.912356,0.130115,0.0421591,1357,1646,-0.425523,-0.325587
140,-622,-0.966919,1.56238,-0.0357577,0.0157734,0.094795,0.088242,-0.108226,0.918094,0.113627,0.0465514,1364,1646,-0.966979,-1.56235
147,-622,2.07434,6.82336,0,0,0,0,0,0,0,-1,1371,1646,2.07433,-6.82331
154,-622,1.46509,6.24915,0,0,0,0,0,0,0,-1,1378,1646,1.46512,-6.24914
161,-622,0.838867,5.63721,0,0,0,0,0,0,0,-1,1385,1646,0.83882,-5.63719
168,-622,0.519897,5.01379,-0.0334723,0.00233419,0.0328422,0.021836,-0.0529741,1.03495,0.0444213,0.0444977,1392,1646,0.519946,-5.01383
175,-622,0.202393,4.48108,-0.0271099,0.000660325,0.0231541,0.0137735,-0.0402231,1.05549,0.0323977,0.0456634,1399,1646,0.202344,-4.48108
182,-622,0.0113525,4.18274,-0.0206264,-0.00158426,0.014759,0.00645823,-0.0286689,1.07186,0.0215897,0.0451787,1406,1646,0.0113408,-4.18269
189,-622,-0.222778,3.54626,-0.0109699,-0.00221425,0.00950097,0.00386899,-0.0170531,1.00129,0.012854,0.04164,1413,1646,-0.222823,-3.54623
196,-622,-0.585205,3.62854,0,0,0,0,0,0,0,-1,1420,1646,-0.58524,-3.62855
203,-622,-0.36792,3.29675,0.0366856,0.0018266,0.00892058,0.0388358,-0.000323586,0.236525,0.0259991,0.0423273,1427,1646,-0.367947,-3.29674
210,-622,-0.539551,3.172,0.069563,0.0178642,0.0231085,0.0783863,0.0090409,0.364736,0.0495198,0.0450596,1434,1646,-0.539555,-3.17198
217,-622,-3.27405,-0.410767,0,0,0,0,0,0,0,-1,1441,1646,-3.27402,0.410792
224,-622,-1.43872,-1.23962,0,0,0,0,0,0,0,-1,1448,1646,-1.43872,1.23968
231,-622,-1.03406,-0.702393,0.117111,0.0499391,0.049664,0.143479,0.0235706,0.488091,0.0888444,0.0498484,1455,1646,-1.03407,0.702452
238,-622,-0.573486,-0.13916,0.128509,0.0571201,0.0578098,0.160756,0.0248728,0.508824,0.099917,0.0483142,1462,1646,-0.573463,0.13913
245,-622,-0.402954,0.169678,0.130585,0.0661088,0.0613279,0.167632,0.0290619,0.543413,0.103437,0.0448965,1469,1646,-0.402949,-0.169711
252,-622,-0.134888,0.323486,0.123356,0.0720315,0.0615123,0.164345,0.0310431,0.587779,0.100821,0.0485333,1476,1646,-0.134911,-0.323471
259,-622,-0.148682,0.450928,0.111304,0.0774206,0.0583222,0.155095,0.0336291,0.644047,0.0942095,0.0416366,1483,1646,-0.148658,-0.450953
266,-622,-0.232178,0.408447,0.0960221,0.079632,0.0531259,0.141581,0.0340728,0.708873,0.0853285,0.042123,1490,1646,-0.232229,-0.408496
273,-622,-0.335327,0.429443,0.0776543,0.0781293,0.0461542,0.124047,0.0317369,0.787971,0.0744101,0.0423216,1497,1646,-0.33527,-0.429456
280,-622,0.706909,1.93958,0,0,0,0,0,0,0,-1,1504,1646,0.706863,-1.93963
287,-622,2.58801,1.05029,0.0451021,0.0701622,0.0319109,0.0919149,0.0233495,0.972478,0.0551659,0.0495973,1511,1646,2.58802,-1.05027
294,-622,2.53735,0.152832,0.0332091,0.0647778,0.0261982,0.0795793,0.0184076,1.05652,0.0481056,0.0477378,1518,1646,2.53738,-0.152777
301,-622,1.7915,-0.218262,0,0,0,0,0,0,0,-1,1525,1646,1.79151,0.218305
308,-622,-0.300171,0.177124,0,0,0,0,0,0,0,-1,1532,1646,-0.300179,-0.177138
315,-622,-0.494141,-0.395508,-0.00108834,0.0400717,0.0076553,0.0414494,-0.00246602,1.39274,0.0284905,0.0480369,1539,1646,-0.49414,0.395464
322,-622,0.490479,0.313477,-0.0027651,0.0301566,0.00434266,0.0307198,-0.0033283,1.44183,0.0216746,0.0418333,1546,1646,0.490509,-0.31353
329,-622,-0.329956,-0.0305176,0,0,0,0,0,0,0,-1,1553,1646,-0.329943,0.0304802
336,-622,-0.24231,0.092041,-0.00249033,0.0175864,0.00292817,0.0180047,-0.00290869,1.42888,0.013081,0.0422466,1560,1646,-0.242331,-0.0920326
343,-622,-0.172119,0.113403,-0.00417097,0.012882,0.00137789,0.0129926,-0.00428159,1.49069,0.0103874,0.043741,1567,1646,-0.172157,-0.113347
350,-622,-0.12561,0.0675049,-0.00413486,0.00918479,0.000475997,0.00920178,-0.00415185,1.53512,0.00789135,0.038577,1574,1646,-0.125655,-0.0675209
357,-622,-0.0615234,-0.00854492,-0.003275,0.00702761,-0.000403946,0.00704342,-0.00329081,-1.53167,0.00609618,0.0351626,1581,1646,-0.0615048,0.0085602
364,-622,-0.0371094,-0.0164795,-0.00270099,0.00489386,-0.0014137,0.00514847,-0.0029556,-1.3926,0.00473564,0.0298889,1588,1646,-0.0370921,0.0164459
371,-622,-0.0441895,-0.0197754,-0.00249778,0.00388436,-0.00260962,0.00481556,-0.00342897,-1.22805,0.00478237,0.0179042,1595,1646,-0.044135,0.0197447
378,-622,-0.0809326,-0.0388184,-0.00218286,0.00319611,-0.0034873,0.00491055,-0.0038973,-1.11387,0.00509642,0.0101868,1602,1646,-0.0809804,0.038875
385,-622,-0.081543,-0.0413818,-0.00162432,0.0025479,-0.00387896,0.00486613,-0.00394254,-1.03211,0.005095,0.00885933,1609,1646,-0.0815561,0.0414052
392,-622,-0.0948486,-0.0561523,-0.00104499,0.00193821,-0.00390518,0.00462696,-0.00373374,-0.967825,0.00483622,0.0101423,1616,1646,-0.0948933,0.0561419
399,-622,-0.107056,-0.0699463,-0.000584121,0.00179019,-0.00354645,0.00434291,-0.00313684,-0.946908,0.00433711,0.0114279,1623,1646,-0.107092,0.0698957
406,-622,-0.102783,-0.0820313,-0.000336735,0.00152209,-0.00314559,0.0038727,-0.00268734,-0.929044,0.003808,0.0135944,1630,1646,-0.102811,0.0819985
413,-622,-0.0877686,-0.0787354,-0.000136144,0.00124068,-0.00276824,0.00340482,-0.00230029,-0.907267,0.00331436,0.0141549,1637,1646,-0.087774,0.0787204
420,-622,-0.0517578,-0.0861816,-0.000149378,0.00102271,-0.00206366,0.00258193,-0.0017086,-0.923747,0.00249418,0.014604,1644,1646,-0.0517472,0.0861611
427,-622,-0.0527344,-0.0681152,-0.000392749,0.000699817,-0.00126314,0.00152974,-0.00122267,-0.989493,0.0015924,0.0114873,1651,1646,-0.0527946,0.0680883
434,-622,-0.0567627,-0.0633545,-0.000258898,4.27578e-05,-0.000467443,0.000383104,-0.000599244,-0.941458,0.000571717,0.0114817,1658,1646,-0.0568141,0.0633369
441,-622,-0.0605469,-0.0794678,-6.47449e-05,-0.000561841,-0.000291671,6.99144e-05,-0.000696501,-0.432527,0.000489306,0.0134694,1665,1646,-0.0605938,0.0794103
448,-622,-0.0836182,-0.0654297,0.00116776,-0.00130213,-5.31899e-05,0.0011689,-0.00130327,-0.0215221,0.00142801,0.0123427,1672,1646,-0.0835732,0.0654666
455,-622,-0.0979004,-0.0469971,0.0033171,-0.00184117,-0.000340834,0.00333952,-0.00186359,-0.0656946,0.00304404,0.0135487,1679,1646,-0.0979038,0.0470013
462,-622,-0.0811768,-0.041748,0.00432036,-0.00194297,-0.00100316,0.0044771,-0.00209972,-0.155,0.00387894,0.0159395,1686,1646,-0.0812201,0.0417813
469,-622,-0.0709229,-0.0319824,0.00550527,-0.0012773,-0.00195739,0.00602962,-0.00180165,-0.261737,0.00473594,0.0174215,1693,1646,-0.0709307,0.0320059
476,-622,-0.09729,-0.0444336,0.0073644,-0.000935776,-0.00303786,0.00835744,-0.00192882,-0.31594,0.00631355,0.0158913,1700,1646,-0.0973503,0.0444772
483,-622,-0.071167,-0.0476074,0.00920551,-4.67233e-05,-0.00441955,0.0109773,-0.00181853,-0.381283,0.00799363,0.0221976,1707,1646,-0.0711454,0.0476028
490,-622,-0.0565186,-0.0350342,0.0106789,0.00153394,-0.00597346,0.013629,-0.00141621,-0.458736,0.00959298,0.0284752,1714,1646,-0.0565377,0.0350293
497,-622,-0.176514,-0.14563,0.0114896,0.00333241,-0.00753677,0.0159806,-0.00115859,-0.537383,0.0110602,0.0325044,1721,1646,-0.176571,0.145575
504,-622,-0.0947266,-0.305298,0.0115753,0.005306,-0.00931331,0.0182674,-0.00138602,-0.623064,0.0126656,0.0413114,1728,1646,-0.0947461,0.305316
511,-622,0.349854,0.621338,0,0,0,0,0,0,0,-1,1735,1646,0.349842,-0.621365
518,-622,0.010376,0.526123,0.00917131,0.0106529,-0.0116601,0.0215957,-0.00177147,-0.817122,0.0150225,0.0408872,1742,1646,0.01036,-0.526131
525,-622,-0.112061,0.126343,0.00701257,0.013613,-0.0124383,0.0231814,-0.00255584,-0.915075,0.0163729,0.0405132,1749,1646,-0.112101,-0.126293
532,-622,-0.0931396,-0.101929,0.00406166,0.0168579,-0.0131905,0.0251201,-0.00420059,-1.01121,0.0183083,0.0414468,1756,1646,-0.0931862,0.101958
539,-622,-0.269165,-0.306763,-0.000724114,0.0205682,-0.0131524,0.0268433,-0.00699917,-1.12563,0.0206283,0.0441202,1763,1646,-0.269123,0.306767
546,-622,-0.540039,0.156494,0,0,0,0,0,0,0,-1,1770,1646,-0.540002,-0.156443
553,-622,0,0,0,0,0,0,0,0,0,-1,1777,1646,0,0
560,-622,0,0,0,0,0,0,0,0,0,-1,1784,1646,0,0
567,-622,0,0,0,0,0,0,0,0,0,-1,1791,1646,0,0
574,-622,0,0,0,0,0,0,0,0,0,-1,1798,1646,0,0
581,-622,0,0,0,0,0,0,0,0,0,-1,1805,1646,0,0
588,-622,0,0,0,0,0,0,0,0,0,-1,1812,1646,0,0
595,-622,0,0,0,0,0,0,0,0,0,-1,1819,1646,0,0
602,-622,0,0,0,0,0,0,0,0,0,-1,1826,1646,0,0
609,-622,0,0,0,0,0,0,0,0,0,-1,1833,1646,0,0
616,-622,0,0,0,0,0,0,0,0,0,-1,1840,1646,0,0
623,-622,0,0,0,0,0,0,0,0,0,-1,1847,1646,0,0
630,-622,0,0,0,0,0,0,0,0,0,-1,1854,1646,0,0
637,-622,0,0,0,0,0,0,0,0,0,-1,1861,1646,0,0
644,-622,0,0,0,0,0,0,0,0,0,-1,1868,1646,0,0
651,-622,0,0,0,0,0,0,0,0,0,-1,1875,1646,0,0
658,-622,0,0,0,0,0,0,0,0,0,-1,1882,1646,0,0
665,-622,0,0,0,0,0,0,0,0,0,-1,1889,1646,0,0
672,-622,0,0,0,0,0,0,0,0,0,-1,1896,1646,0,0
679,-622,0,0,0,0,0,0,0,0,0,-1,1903,1646,0,0
686,-622,0,0,0,0,0,0,0,0,0,-1,1910,1646,0,0
693,-622,0,0,0,0,0,0,0,0,0,-1,1917,1646,0,0
700,-622,0,0,0,0,0,0,0,0,0,-1,1924,1646,0,0
707,-622,0,0,0,0,0,0,0,0,0,-1,1931,1646,0,0
714,-622,0,0,0,0,0,0,0,0,0,-1,1938,1646,0,0
721,-622,0,0,0,0,0,0,0,0,0,-1,1945,1646,0,0
728,-622,0,0,0,0,0,0,0,0,0,-1,1952,1646,0,0
735,-622,0,0,0,0,0,0,0,0,0,-1,1959,1646,0,0
742,-622,0,0,0,0,0,0,0,0,0,-1,1966,1646,0,0
749,-622,0,0,0,0,0,0,0,0,0,-1,1973,1646,0,0
756,-622,0,0,0,0,0,0,0,0,0,-1,1980,1646,0,0
763,-622,0,0,0,0,0,0,0,0,0,-1,1987,1646,0,0
770,-622,0,0,0,0,0,0,0,0,0,-1,1994,1646,0,0
777,-622,0,0,0,0,0,0,0,0,0,-1,2001,1646,0,0
784,-622,0,0,0,0,0,0,0,0,0,-1,2008,1646,0,0
791,-622,0,0,0,0,0,0,0,0,0,-1,2015,1646,0,0
798,-622,0,0,0,0,0,0,0,0,0,-1,2022,1646,0,0
805,-622,0,0,0,0,0,0,0,0,0,-1,2029,1646,0,0
812,-622,0,0,0,0,0,0,0,0,0,-1,2036,1646,0,0
-700,-629,0,0,0,0,0,0,0,0,0,-1,524,1653,0,0
-693,-629,0,0,0,0,0,0,0,0,0,-1,531,1653,0,0
-686,-629,0,0,0,0,0,0,0,0,0,-1,538,1653,0,0
-679,-629,0,0,0,0,0,0,0,0,0,-1,545,1653,0,0
-672,-629,0,0,0,0,0,0,0,0,0,-1,552,1653,0,0
-665,-629,0,0,0,0,0,0,0,0,0,-1,559,1653,0,0
-658,-629,0,0,0,0,0,0,0,0,0,-1,566,1653,0,0
-651,-629,0,0,0,0,0,0,0,0,0,-1,573,1653,0,0
-644,-629,0,0,0,0,0,0,0,0,0,-1,580,1653,0,0
-637,-629,0,0,0,0,0,0,0,0,0,-1,587,1653,0,0
-630,-629,0,0,0,0,0,0,0,0,0,-1,594,1653,0,0
-623,-629,0,0,0,0,0,0,0,0,0,-1,601,1653,0,0
-616,-629,0,0,0,0,0,0,0,0,0,-1,608,1653,0,0
-609,-629,0,0,0,0,0,0,0,0,0,-1,615,1653,0,0
-602,-629,0,0,0,0,0,0,0,0,0,-1,622,1653,0,0
-595,-629,0,0,0,0,0,0,0,0,0,-1,629,1653,0,0
-588,-629,0,0,0,0,0,0,0,0,0,-1,636,1653,0,0
-581,-629,0,0,0,0,0,0,0,0,0,-1,643,1653,0,0
-574,-629,0,0,0,0,0,0,0,0,0,-1,650,1653,0,0
-567,-629,0,0,0,0,0,0,0,0,0,-1,657,1653,0,0
-560,-629,0,0,0,0,0,0,0,0,0,-1,664,1653,0,0
-553,-629,0,0,0,0,0,0,0,0,0,-1,671,1653,0,0
-546,-629,0,0,0,0,0,0,0,0,0,-1,678,1653,0,0
-539,-629,0,0,0,0,0,0,0,0,0,-1,685,1653,0,0
-532,-629,0,0,0,0,0,0,0,0,0,-1,692,1653,0,0
-525,-629,0,0,0,0,0,0,0,0,0,-1,699,1653,0,0
-518,-629,0,0,0,0,0,0,0,0,0,-1,706,1653,0,0
-511,-629,0,0,0,0,0,0,0,0,0,-1,713,1653,0,0
-504,-629,0,0,0,0,0,0,0,0,0,-1,720,1653,0,0
-497,-629,0,0,0,0,0,0,0,0,0,-1,727,1653,0,0
-490,-629,0,0,0,0,0,0,0,0,0,-1,734,1653,0,0
-483,-629,0,0,0,0,0,0,0,0,0,-1,741,1653,0,0
-476,-629,0,0,0,0,0,0,0,0,0,-1,748,1653,0,0
-469,-629,0,0,0,0,0,0,0,0,0,-1,755,1653,0,0
-462,-629,0,0,0,0,0,0,0,0,0,-1,762,1653,0,0
-455,-629,0,0,0,0,0,0,0,0,0,-1,769,1653,0,0
-448,-629,0,0,0,0,0,0,0,0,0,-1,776,1653,0,0
-441,-629,0,0,0,0,0,0,0,0,0,-1,783,1653,0,0
-434,-629,0,0,0,0,0,0,0,0,0,-1,790,1653,0,0
-427,-629,0,0,0,0,0,0,0,0,0,-1,797,1653,0,0
-420,-629,-1.24188,2.53967,0,0,0,0,0,0,0,-1,804,1653,-1.2419,-2.53962
-413,-629,0.0380859,2.29346,0,0,0,0,0,0,0,-1,811,1653,0.0380717,-2.29342
-406,-629,-0.0571899,1.5531,0.0335055,0.0232963,-0.0321755,0.0609787,-0.00417701,-0.706729,0.0421139,0.0449104,818,1653,-0.0571829,-1.55314
-399,-629,-0.16687,0.842163,0.0279274,0.0236579,-0.031021,0.056887,-0.00530171,-0.751044,0.0398097,0.0427038,825,1653,-0.166894,-0.84211
-392,-629,-0.441711,0.782715,0.0226468,0.0233308,-0.0287935,0.0517843,-0.00580674,-0.791337,0.0366123,0.0431271,832,1653,-0.441705,-0.782716
-385,-629,-0.511902,0.46582,0.0181807,0.0239799,-0.0252378,0.0464841,-0.00432346,-0.842593,0.0325265,0.0429563,839,1653,-0.511921,-0.465783
-378,-629,-0.36438,-0.816162,0,0,0,0,0,0,0,-1,846,1653,-0.364367,0.816121
-371,-629,0.162292,-0.570923,0.0101842,0.0224316,-0.0152145,0.0327085,-9.27038e-05,-0.976726,0.0218366,0.0453378,853,1653,0.162304,0.570887
-364,-629,0.642883,-0.400757,0.00687618,0.0208522,-0.0105825,0.0265458,0.00118261,-1.0772,0.0173164,0.0464858,860,1653,0.642883,0.400707
-357,-629,0.196533,-0.409058,0.00466471,0.0176246,-0.00617661,0.0200968,0.00219256,-1.19008,0.0127301,0.0431884,867,1653,0.196548,0.408999
-350,-629,0.0418091,-0.263794,0.00315098,0.0148096,-0.00237547,0.015275,0.00268555,-1.37732,0.00941667,0.0394112,874,1653,0.0417803,0.263845
-343,-629,-0.135742,-0.0218506,0.00180834,0.0123483,0.000327514,0.0123584,0.00179817,1.53976,0.00770979,0.0321981,881,1653,-0.135761,0.0218385
-336,-629,-0.124573,-0.0294189,0.0009492,0.00974255,0.00237272,0.0103419,0.000349819,1.32336,0.00678102,0.0168129,888,1653,-0.12456,0.0294029
-329,-629,-0.0909424,-0.0562744,1.42556e-05,0.00717414,0.00399895,0.00896147,-0.00177307,1.15048,0.00664466,0.0103497,895,1653,-0.0909132,0.0562568
-322,-629,-0.0755005,-0.0598145,-0.000634322,0.00414887,0.00453865,0.00688748,-0.00337294,1.02788,0.00603858,0.010965,902,1653,-0.0755157,0.0598006
-315,-629,-0.0963745,-0.0551758,-0.000640209,0.00340519,0.00394621,0.00581689,-0.00305191,1.02222,0.00520269,0.0144373,909,1653,-0.0963893,0.0552331
-308,-629,-0.0884399,-0.0799561,-0.000487259,0.0022256,0.00364465,0.00475805,-0.00301971,0.963542,0.00452772,0.0114128,916,1653,-0.0884486,0.0799723
-301,-629,-0.0651245,-0.0849609,-3.97366e-05,0.00145164,0.00316616,0.00395873,-0.00254683,0.90105,0.00378536,0.00955986,923,1653,-0.0650993,0.0849967
-294,-629,-0.0726318,-0.072876,0.0002728,0.00112448,0.00259407,0.00332742,-0.00193015,0.866752,0.00307099,0.0101656,930,1653,-0.0726098,0.0729157
-287,-629,-0.0925293,-0.078125,0.000219283,0.000833575,0.00212352,0.00267204,-0.00161918,0.85722,0.00250227,0.00826902,937,1653,-0.092547,0.0781175
-280,-629,-0.088501,-0.0810547,-0.000307488,0.000747107,0.00173931,0.00203729,-0.00159767,0.932577,0.00210375,0.00922151,944,1653,-0.0885135,0.0810415
-273,-629,-0.0802002,-0.0957031,-0.000810154,0.00097622,0.0012851,0.00164805,-0.00148198,1.08909,0.00180797,0.0119963,951,1653,-0.080211,0.0956625
-266,-629,-0.0891113,-0.0667725,-0.00107333,0.0013031,0.00099619,0.00166545,-0.00143568,1.22194,0.00179208,0.0128557,958,1653,-0.0890826,0.0667823
-259,-629,-0.0968628,-0.0372314,-0.000972312,0.00145869,0.000695969,0.00164383,-0.00115746,1.31079,0.00162543,0.0141723,965,1653,-0.0968797,0.0372335
-252,-629,-0.0915527,-0.0673828,-0.000465181,0.00161778,0.000381475,0.00168545,-0.000532846,1.39524,0.00133712,0.0104053,972,1653,-0.0915771,0.0673229
-245,-629,-0.0765381,-0.0618896,0.000412194,0.00172846,8.55836e-05,0.001734,0.000406653,1.50614,0.00104711,0.00773358,979,1653,-0.0765311,0.0618385
-238,-629,-0.0701294,-0.0523682,0.0014656,0.00181137,-4.96248e-06,0.00181144,0.00146553,-1.55645,0.00111043,0.00960251,986,1653,-0.0701442,0.0523385
-231,-629,-0.0704346,-0.043335,0.00280429,0.0016967,-0.000135353,0.00282059,0.0016804,-0.119855,0.00163839,0.00864935,993,1653,-0.0704162,0.0433388
-224,-629,-0.0591431,-0.0443115,0.00452613,0.00141141,3.95025e-05,0.00452663,0.00141091,0.0126798,0.00267452,0.00830004,1000,1653,-0.0591674,0.0442857
-217,-629,-0.0501099,-0.0284424,0.00641618,0.0009545,0.000618143,0.00648527,0.000885413,0.111302,0.00406068,0.0121209,1007,1653,-0.0501129,0.0283903
-210,-629,-0.0610962,-0.0444336,0.00751526,-0.000255615,0.00193605,0.00797089,-0.000711252,0.231137,0.00556618,0.0245304,1014,1653,-0.0610952,0.0444219
-203,-629,-0.0745239,-0.0812988,0.00802322,-0.00151665,0.00361982,0.00924122,-0.00273465,0.324581,0.00724645,0.0353007,1021,1653,-0.0745374,0.0812631
-196,-629,-0.0065918,-0.0717773,0.00862441,-0.00266205,0.00516514,0.0106313,-0.00466896,0.370597,0.00905444,0.0372967,1028,1653,-0.00659214,0.0717827
-189,-629,-0.0119629,-0.0638428,0.00828992,-0.00471136,0.00691262,0.0112784,-0.0076998,0.408051,0.0110218,0.0401391,1035,1653,-0.0119568,0.0638537
-182,-629,0.506714,0.114502,0,0,0,0,0,0,0,-1,1042,1653,0.506657,-0.114443
-175,-629,0.710449,-0.131348,0.006362,-0.00837819,0.00980973,0.0112618,-0.0132779,0.46323,0.0141839,0.0483833,1049,1653,0.710499,0.131373
-168,-629,0.882446,-0.00720215,0.00858766,-0.00870711,0.00956608,0.0128355,-0.012955,0.417898,0.0148902,0.0481096,1056,1653,0.882474,0.00724576
-161,-629,0.714233,0.102539,0.010216,-0.00807308,0.0094736,0.0142385,-0.0120956,0.401535,0.0152208,0.0444306,1063,1653,0.714232,-0.102567
-154,-629,0.352905,0.32373,0.00931399,-0.00671903,0.00874814,0.0131632,-0.0105682,0.414506,0.0137286,0.0427468,1070,1653,0.352937,-0.323779
-147,-629,0.0777588,0.546265,0,0,0,0,0,0,0,-1,1077,1653,0.07774,-0.546206
-140,-629,0.502075,-0.672241,0.00533063,-0.0027665,0.00571449,0.00828538,-0.00572124,0.477203,0.00813176,0.0467654,1084,1653,0.502116,0.672225
-133,-629,0.336792,-0.818359,0,0,0,0,0,0,0,-1,1091,1653,0.336768,0.81835
-126,-629,0.386353,0.200928,0,0,0,0,0,0,0,-1,1098,1653,0.38635,-0.200971
-119,-629,-0.960327,0.381958,0.00449081,0.0048057,-0.00250105,0.00715426,0.00214226,-0.816832,0.00423983,0.0451855,1105,1653,-0.96038,-0.381988
-112,-629,-0.180664,0.150879,0.00252993,0.0070605,-0.0040502,0.00943587,0.000154565,-1.04038,0.00623969,0.0444593,1112,1653,-0.180617,-0.150865
-105,-629,0.0755615,-0.199097,0.000254381,0.00864829,-0.00517187,0.0111119,-0.0022092,-1.12625,0.00824358,0.0442809,1119,1653,0.0755347,0.19908
-98,-629,-0.542847,-0.391357,-0.0029591,0.00932618,-0.00561189,0.0115037,-0.00513664,-1.20066,0.00983895,0.0430331,1126,1653,-0.542831,0.391319
-91,-629,-1.35547,-0.577271,-0.00658203,0.00828557,-0.00489212,0.00975088,-0.00804735,-1.27978,0.0102915,0.0453699,1133,1653,-1.35552,0.577244
-84,-629,-1.90002,-0.603027,-0.0087884,0.00722173,-0.00418297,0.00824874,-0.0098154,-1.33004,0.0104424,0.0458166,1140,1653,-1.90002,0.602986
-77,-629,-2.32556,-0.433472,0,0,0,0,0,0,0,-1,1147,1653,-2.3256,0.433459
-70,-629,0.387695,0.202637,0,0,0,0,0,0,0,-1,1154,1653,0.387735,-0.20262
-63,-629,0.000244141,0.329468,0,0,0,0,0,0,0,-1,1161,1653,0.000260246,-0.329415
-56,-629,-0.0280762,0.338867,-0.0176879,0.00161752,-0.00829354,0.00469107,-0.0207614,-1.21589,0.0156409,0.0476322,1168,1653,-0.0280831,-0.338928
-49,-629,-0.0379639,0.38623,-0.0152114,0.000559784,-0.00880377,0.00449321,-0.0191448,-1.15062,0.014495,0.0458468,1175,1653,-0.0379405,-0.38626
-42,-629,0.0725098,0.393066,-0.0124439,0.0021957,-0.00946158,0.00683839,-0.0170866,-1.11463,0.0142292,0.0441233,1182,1653,0.0725651,-0.393037
-35,-629,-0.0718994,0.428101,-0.0117029,0.00461047,-0.0123197,0.011229,-0.0183214,-1.07781,0.017224,0.0486123,1189,1653,-0.0718413,-0.428058
-28,-629,-0.0911865,0.439941,-0.0128632,0.00841021,-0.015491,0.0165648,-0.0210178,-1.08625,0.021749,0.0496448,1196,1653,-0.0911946,-0.439979
-21,-629,-0.632568,0.680054,-0.0150777,0.0140449,-0.0185522,0.0230678,-0.0241007,-1.11812,0.0272349,0.0461955,1203,1653,-0.632557,-0.680063
-14,-629,-0.866821,-0.0065918,-0.0130508,0.018911,-0.0236026,0.031434,-0.0255738,-1.08299,0.0329714,0.0481473,1210,1653,-0.86677,0.00662592
-7,-629,-0.852173,-0.355225,-0.00977457,0.0293277,-0.0285154,0.0443508,-0.0247976,-1.08591,0.0404514,0.046036,1217,1653,-0.852199,0.355208
0,-629,0.266479,1.09131,0,0,0,0,0,0,0,-1,1224,1653,0.266441,-1.0913
7,-629,-0.550049,0.90918,-0.00133735,0.0458091,-0.0360304,0.0652927,-0.0208209,-1.07508,0.0518806,0.0490971,1231,1653,-0.550048,-0.909156
14,-629,-1.1947,0.49707,0.00365546,0.0540289,-0.0414079,0.0773085,-0.0196242,-1.05863,0.0591752,0.0477605,1238,1653,-1.1947,-0.497095
21,-629,-1.47083,0.265625,0.00729661,0.0571447,-0.045348,0.0839667,-0.0195254,-1.03667,0.063495,0.0492942,1245,1653,-1.47085,-0.265565
28,-629,-1.73108,0.0181885,0,0,0,0,0,0,0,-1,1252,1653,-1.73112,-0.0182375
35,-629,-1.82361,-0.0114746,0.0128713,0.0527822,-0.0438826,0.0810336,-0.0153802,-0.998795,0.059812,0.0442732,1259,1653,-1.82355,0.0114842
42,-629,-1.81848,0.30127,0.0115452,0.0478994,-0.0381624,0.0719926,-0.0125479,-1.00766,0.0526782,0.0493517,1266,1653,-1.81844,-0.301282
49,-629,-1.87585,0.543335,0,0,0,0,0,0,0,-1,1273,1653,-1.87589,-0.543331
56,-629,3.13855,-2.80737,0,0,0,0,0,0,0,-1,1280,1653,3.1385,2.80738
63,-629,3.27625,-3.08911,0,0,0,0,0,0,0,-1,1287,1653,3.27628,3.08913
70,-629,3.75208,-3.1416,0,0,0,0,0,0,0,-1,1294,1653,3.75213,3.1416
77,-629,3.87598,-3.18201,0,0,0,0,0,0,0,-1,1301,1653,3.87596,3.18199
84,-629,3.87683,-3.66882,-0.0300777,-0.00433719,0.0461098,0.0306649,-0.0650798,0.921495,0.056456,0.0431037,1308,1653,3.87681,3.66887
91,-629,3.66187,-3.70679,-0.0367311,-0.00408127,0.0671787,0.0487276,-0.0895399,0.904591,0.0809797,0.0442654,1315,1653,3.66186,3.7068
98,-629,2.97717,-3.62109,-0.0398439,-0.00878752,0.0831929,0.060314,-0.108945,0.877663,0.0990573,0.0468201,1322,1653,2.97718,3.62113
105,-629,2.71252,-3.77576,0,0,0,0,0,0,0,-1,1329,1653,2.71255,3.7758
112,-629,-1.21851,7.16064,0,0,0,0,0,0,0,-1,1336,1653,-1.21846,-7.1606
119,-629,-0.461304,-2.55591,0,0,0,0,0,0,0,-1,1343,1653,-0.461318,2.55585
126,-629,-0.752441,-1.41797,-0.0373624,0.0147359,0.0890985,0.0815151,-0.104142,0.927616,0.107454,0.0391617,1350,1653,-0.752382,1.41795
133,-629,-1.04358,-0.103638,-0.0353149,0.0181142,0.0803975,0.0761193,-0.0933201,0.945799,0.0979938,0.0422237,1357,1653,-1.04352,0.103615
140,-629,-1.55261,1.21143,-0.0340905,0.0204243,0.0720895,0.0702374,-0.0839036,0.966143,0.0891099,0.0435235,1364,1653,-1.55263,-1.21137
147,-629,-1.65796,2.59863,-0.0338242,0.02158,0.0623343,0.0620906,-0.0743348,0.994497,0.0788709,0.0475836,1371,1653,-1.65793,-2.5986
154,-629,0.843018,7.06909,0,0,0,0,0,0,0,-1,1378,1653,0.842965,-7.06912
161,-629,0.357056,6.2041,0,0,0,0,0,0,0,-1,1385,1653,0.35703,-6.20411
168,-629,0.090332,5.57324,-0.0303153,0.0202332,0.0249214,0.0304535,-0.0405356,1.18161,0.0411232,0.0467181,1392,1653,0.0903768,-5.57323
175,-629,-0.0870361,5.03113,-0.0237746,0.0204434,0.0162209,0.0257556,-0.0290869,1.25431,0.0316828,0.045468,1399,1653,-0.0870479,-5.03116
182,-629,-0.281006,4.52527,-0.0170303,0.0189487,0.00819348,0.0207267,-0.0188083,1.3571,0.0228345,0.0421165,1406,1653,-0.281053,-4.52524
189,-629,-0.378174,3.92236,-0.00842765,0.0175583,0.00279834,0.0178562,-0.00872558,1.46473,0.0156459,0.0406816,1413,1653,-0.37812,-3.92233
196,-629,-0.5271,3.53296,0.00145476,0.0169209,-0.000457521,0.0169345,0.00144123,-1.54125,0.0108412,0.0413837,1420,1653,-0.527042,-3.53297
203,-629,-0.836792,3.22412,0.0261804,0.0169061,0.00102037,0.0262914,0.0167951,0.108294,0.0153731,0.044912,1427,1653,-0.836747,-3.22411
210,-629,-1.20715,3.17786,0.0494914,0.0255745,0.0109108,0.0537209,0.021345,0.36981,0.031233,0.0447844,1434,1653,-1.20714,-3.1779
217,-629,-3.54602,-1.90637,0,0,0,0,0,0,0,-1,1441,1653,-3.546,1.90632
224,-629,-2.57617,-1.67554,0.075958,0.0405027,0.0270774,0.0905948,0.0258659,0.495562,0.0538852,0.0451545,1448,1653,-2.57613,1.67551
231,-629,-1.72034,-1.27649,0.0859888,0.0447406,0.0337683,0.104933,0.0257964,0.511253,0.0631383,0.0496685,1455,1653,-1.72029,1.27645
238,-629,-0.707275,-0.844116,0,0,0,0,0,0,0,-1,1462,1653,-0.707309,0.844145
245,-629,-0.813354,-0.418945,0.0968072,0.0550975,0.0438258,0.124487,0.0274176,0.563324,0.0755296,0.0432661,1469,1653,-0.813374,0.418915
252,-629,0.108276,0.26709,0.0924147,0.0590683,0.0448134,0.123556,0.0279268,0.607303,0.0748198,0.0450788,1476,1653,0.10827,-0.267134
259,-629,0.0721436,0.545044,0.0847707,0.0634057,0.0433747,0.118759,0.0294174,0.664659,0.0714159,0.0421701,1483,1653,0.0721049,-0.545012
266,-629,-0.0552979,0.55835,0.0746527,0.0655147,0.0402918,0.110634,0.0295337,0.72894,0.0661468,0.0424919,1490,1653,-0.0552933,-0.5584
273,-629,-0.211914,0.481934,0.0615117,0.0650126,0.0356249,0.09893,0.0275943,0.809946,0.0589489,0.0453072,1497,1653,-0.211972,-0.481918
280,-629,-0.518433,0.328003,0,0,0,0,0,0,0,-1,1504,1653,-0.518377,-0.327951
287,-629,-0.476563,-0.195801,0.0367534,0.0596789,0.0249755,0.0756965,0.0207357,1.00054,0.0451679,0.0475954,1511,1653,-0.476562,0.195849
294,-629,2.17249,-0.888306,0.0274781,0.0556272,0.0206074,0.0665077,0.0165975,1.08501,0.0399716,0.0466585,1518,1653,2.17249,0.888254
301,-629,1.80029,-2.09839,0,0,0,0,0,0,0,-1,1525,1653,1.80024,2.0984
308,-629,-0.4021,0.425415,0,0,0,0,0,0,0,-1,1532,1653,-0.402115,-0.425474
315,-629,-0.532227,-0.067749,0,0,0,0,0,0,0,-1,1539,1653,-0.532258,0.0676891
322,-629,-0.300049,-0.115967,0,0,0,0,0,0,0,-1,1546,1653,-0.30004,0.115946
329,-629,-0.25708,-0.0839844,-0.00147622,0.0211051,0.00302541,0.0215034,-0.00187454,1.43989,0.0149995,0.0385932,1553,1653,-0.257095,0.0839797
336,-629,-0.207275,-0.0238037,-0.00204422,0.0159307,0.00244931,0.0162585,-0.00237199,1.43776,0.01171,0.0365012,1560,1653,-0.207327,0.0237562
343,-629,-0.0841064,-0.026123,-0.00397692,0.0116095,0.00141936,0.0117377,-0.00410512,1.48072,0.00949411,0.0352838,1567,1653,-0.0840882,0.0261077
350,-629,-0.0423584,-0.0385742,-0.00418511,0.00820873,0.000844472,0.00826601,-0.00424238,1.50308,0.00734521,0.0244138,1574,1653,-0.0424175,0.0385193
357,-629,-0.024292,-0.064209,-0.00354727,0.00613107,0.000349306,0.00614366,-0.00355986,1.53477,0.00566815,0.0153302,1581,1653,-0.0242801,0.0642146
364,-629,-0.0354004,-0.0690918,-0.00311647,0.0041074,-0.000252414,0.0041162,-0.00312528,-1.53591,0.0041939,0.0123417,1588,1653,-0.0353547,0.0691011
371,-629,-0.0646973,-0.0643311,-0.00305406,0.00300307,-0.00109704,0.00319564,-0.00324663,-1.39703,0.00371948,0.00974049,1595,1653,-0.0646617,0.0643766
378,-629,-0.0690918,-0.0643311,-0.00279525,0.00217051,-0.00176905,0.00273627,-0.00336101,-1.26126,0.00352642,0.00874486,1602,1653,-0.0690559,0.0643392
385,-629,-0.0693359,-0.0499268,-0.00222475,0.00137224,-0.0020917,0.00233233,-0.00318485,-1.14048,0.00319799,0.0101185,1609,1653,-0.0693835,0.0499581
392,-629,-0.0853271,-0.0426025,-0.00166555,0.000615145,-0.00222708,0.00197686,-0.00302726,-1.02201,0.00291027,0.00951912,1616,1653,-0.0853322,0.0426187
399,-629,-0.102295,-0.0611572,-0.00115975,0.000314674,-0.00206178,0.00176708,-0.00261215,-0.957095,0.00254399,0.0110822,1623,1653,-0.102333,0.0611166
406,-629,-0.101807,-0.105103,-0.000752743,-7.30204e-05,-0.00193909,0.00155576,-0.00238153,-0.872151,0.0022898,0.0134938,1630,1653,-0.101761,0.105059
413,-629,-0.0894775,-0.107178,-0.000432732,-0.000388126,-0.00191633,0.00150603,-0.00232688,-0.791217,0.00222978,0.0197431,1637,1653,-0.0894953,0.107232
420,-629,-0.078125,-0.0838623,-0.000406621,-0.000538181,-0.00155364,0.00108263,-0.00202744,-0.764241,0.00182301,0.0186038,1644,1653,-0.0781751,0.0838287
427,-629,-0.0687256,-0.060791,-0.000531371,-0.00085281,-0.000968161,0.00028932,-0.0016735,-0.703146,0.00122356,0.0117187,1651,1653,-0.0686675,0.060779
434,-629,-0.0721436,-0.0581055,-0.000215496,-0.00157512,-0.000311071,-0.000147705,-0.00164291,-0.214571,0.00104951,0.0094918,1658,1653,-0.0721238,0.0580472
441,-629,-0.064209,-0.0714111,8.71598e-05,-0.00215447,-0.000271489,0.000119572,-0.00218689,-0.118823,0.00149937,0.0138652,1665,1653,-0.0641832,0.0714657
448,-629,-0.0643311,-0.0760498,0.00153199,-0.00281078,-0.00024928,0.00154625,-0.00282504,-0.057151,0.00255951,0.0130652,1672,1653,-0.0643669,0.0761032
455,-629,-0.0863037,-0.0787354,0.0040343,-0.00331391,-0.000585004,0.00408058,-0.00336019,-0.0789491,0.00430264,0.0123502,1679,1653,-0.0863022,0.0787149
462,-629,-0.0671387,-0.0477295,0.00539068,-0.00344808,-0.00126748,0.00556885,-0.00362625,-0.139651,0.00534814,0.0155153,1686,1653,-0.0671091,0.0476854
469,-629,-0.0722656,-0.0532227,0.0069752,-0.0027169,-0.00235669,0.00751786,-0.00325956,-0.226319,0.00638219,0.0189126,1693,1653,-0.0723054,0.0531921
476,-629,-0.0446777,-0.0611572,0.00944096,-0.00228401,-0.00361237,0.0104645,-0.00330759,-0.276117,0.00830152,0.0239952,1700,1653,-0.0446234,0.0612029
483,-629,0.0526123,-0.0419922,0.0119147,-0.00118364,-0.00527361,0.0137741,-0.00304295,-0.338961,0.0103473,0.0362494,1707,1653,0.0525686,0.0420461
490,-629,-0.0217285,-0.0155029,0.0139874,0.000818429,-0.00724011,0.0171894,-0.00238353,-0.416393,0.0123311,0.0437442,1714,1653,-0.0216747,0.0155097
497,-629,-0.322266,-0.188965,0.015384,0.00326183,-0.00928983,0.0204151,-0.00176932,-0.496353,0.0142366,0.0399839,1721,1653,-0.322211,0.189008
504,-629,1.23767,0.322144,0.0159143,0.00607322,-0.0116066,0.0236004,-0.00161279,-0.58491,0.0162978,0.0463763,1728,1653,1.23762,-0.322132
511,-629,0.662476,-0.123291,0.0152872,0.00983675,-0.0135702,0.0264031,-0.00127921,-0.686305,0.0180436,0.0456051,1735,1653,0.662444,0.123277
518,-629,0.161987,-0.215698,0.0135648,0.0140661,-0.0149653,0.0287828,-0.0011519,-0.793772,0.0195838,0.0428048,1742,1653,0.161951,0.215711
525,-629,-0.18396,-0.321655,0,0,0,0,0,0,0,-1,1749,1653,-0.183965,0.321619
532,-629,-0.234131,-0.458984,0,0,0,0,0,0,0,-1,1756,1653,-0.234159,0.458977
539,-629,-0.404541,-0.768188,0,0,0,0,0,0,0,-1,1763,1653,-0.404549,0.768223
546,-629,0,0,0,0,0,0,0,0,0,-1,1770,1653,0,0
553,-629,0,0,0,0,0,0,0,0,0,-1,1777,1653,0,0
560,-629,0,0,0,0,0,0,0,0,0,-1,1784,1653,0,0
567,-629,0,0,0,0,0,0,0,0,0,-1,1791,1653,0,0
574,-629,0,0,0,0,0,0,0,0,0,-1,1798,1653,0,0
581,-629,0,0,0,0,0,0,0,0,0,-1,1805,1653,0,0
588,-629,0,0,0,0,0,0,0,0,0,-1,1812,1653,0,0
595,-629,0,0,0,0,0,0,0,0,0,-1,1819,1653,0,0
602,-629,0,0,0,0,0,0,0,0,0,-1,1826,1653,0,0
609,-629,0,0,0,0,0,0,0,0,0,-1,1833,1653,0,0
616,-629,0,0,0,0,0,0,0,0,0,-1,1840,1653,0,0
623,-629,0,0,0,0,0,0,0,0,0,-1,1847,1653,0,0
630,-629,0,0,0,0,0,0,0,0,0,-1,1854,1653,0,0
637,-629,0,0,0,0,0,0,0,0,0,-1,1861,1653,0,0
644,-629,0,0,0,0,0,0,0,0,0,-1,1868,1653,0,0
651,-629,0,0,0,0,0,0,0,0,0,-1,1875,1653,0,0
658,-629,0,0,0,0,0,0,0,0,0,-1,1882,1653,0,0
665,-629,0,0,0,0,0,0,0,0,0,-1,1889,1653,0,0
672,-629,0,0,0,0,0,0,0,0,0,-1,1896,1653,0,0
679,-629,0,0,0,0,0,0,0,0,0,-1,1903,1653,0,0
686,-629,0,0,0,0,0,0,0,0,0,-1,1910,1653,0,0
693,-629,0,0,0,0,0,0,0,0,0,-1,1917,1653,0,0
700,-629,0,0,0,0,0,0,0,0,0,-1,1924,1653,0,0
707,-629,0,0,0,0,0,0,0,0,0,-1,1931,1653,0,0
714,-629,0,0,0,0,0,0,0,0,0,-1,1938,1653,0,0
721,-629,0,0,0,0,0,0,0,0,0,-1,1945,1653,0,0
728,-629,0,0,0,0,0,0,0,0,0,-1,1952,1653,0,0
735,-629,0,0,0,0,0,0,0,0,0,-1,1959,1653,0,0
742,-629,0,0,0,0,0,0,0,0,0,-1,1966,1653,0,0
749,-629,0,0,0,0,0,0,0,0,0,-1,1973,1653,0,0
756,-629,0,0,0,0,0,0,0,0,0,-1,1980,1653,0,0
763,-629,0,0,0,0,0,0,0,0,0,-1,1987,1653,0,0
770,-629,0,0,0,0,0,0,0,0,0,-1,1994,1653,0,0
777,-629,0,0,0,0,0,0,0,0,0,-1,2001,1653,0,0
784,-629,0,0,0,0,0,0,0,0,0,-1,2008,1653,0,0
791,-629,0,0,0,0,0,0,0,0,0,-1,2015,1653,0,0
798,-629,0,0,0,0,0,0,0,0,0,-1,2022,1653,0,0
805,-629,0,0,0,0,0,0,0,0,0,-1,2029,1653,0,0
812,-629,0,0,0,0,0,0,0,0,0,-1,2036,1653,0,0
-700,-636,0,0,0,0,0,0,0,0,0,-1,524,1660,0,0
-693,-636,0,0,0,0,0,0,0,0,0,-1,531,1660,0,0
-686,-636,0,0,0,0,0,0,0,0,0,-1,538,1660,0,0
-679,-636,0,0,0,0,0,0,0,0,0,-1,545,1660,0,0
-672,-636,0,0,0,0,0,0,0,0,0,-1,552,1660,0,0
-665,-636,0,0,0,0,0,0,0,0,0,-1,559,1660,0,0
-658,-636,0,0,0,0,0,0,0,0,0,-1,566,1660,0,0
-651,-636,0,0,0,0,0,0,0,0,0,-1,573,1660,0,0
-644,-636,0,0,0,0,0,0,0,0,0,-1,580,1660,0,0
-637,-636,0,0,0,0,0,0,0,0,0,-1,587,1660,0,0
-630,-636,0,0,0,0,0,0,0,0,0,-1,594,1660,0,0
-623,-636,0,0,0,0,0,0,0,0,0,-1,601,1660,0,0
-616,-636,0,0,0,0,0,0,0,0,0,-1,608,1660,0,0
-609,-636,0,0,0,0,0,0,0,0,0,-1,615,1660,0,0
-602,-636,0,0,0,0,0,0,0,0,0,-1,622,1660,0,0
-595,-636,0,0,0,0,0,0,0,0,0,-1,629,1660,0,0
-588,-636,0,0,0,0,0,0,0,0,0,-1,636,1660,0,0
-581,-636,0,0,0,0,0,0,0,0,0,-1,643,1660,0,0
-574,-636,0,0,0,0,0,0,0,0,0,-1,650,1660,0,0
-567,-636,0,0,0,0,0,0,0,0,0,-1,657,1660,0,0
-560,-636,0,0,0,0,0,0,0,0,0,-1,664,1660,0,0
-553,-636,0,0,0,0,0,0,0,0,0,-1,671,1660,0,0
-546,-636,0,0,0,0,0,0,0,0,0,-1,678,1660,0,0
-539,-636,0,0,0,0,0,0,0,0,0,-1,685,1660,0,0
-532,-636,0,0,0,0,0,0,0,0,0,-1,692,1660,0,0
-525,-636,0,0,0,0,0,0,0,0,0,-1,699,1660,0,0
-518,-636,0,0,0,0,0,0,0,0,0,-1,706,1660,0,0
-511,-636,0,0,0,0,0,0,0,0,0,-1,713,1660,0,0
-504,-636,0,0,0,0,0,0,0,0,0,-1,720,1660,0,0
-497,-636,0,0,0,0,0,0,0,0,0,-1,727,1660,0,0
-490,-636,0,0,0,0,0,0,0,0,0,-1,734,1660,0,0
-483,-636,0,0,0,0,0,0,0,0,0,-1,741,1660,0,0
-476,-636,0,0,0,0,0,0,0,0,0,-1,748,1660,0,0
-469,-636,0,0,0,0,0,0,0,0,0,-1,755,1660,0,0
-462,-636,0,0,0,0,0,0,0,0,0,-1,762,1660,0,0
-455,-636,0,0,0,0,0,0,0,0,0,-1,769,1660,0,0
-448,-636,0,0,0,0,0,0,0,0,0,-1,776,1660,0,0
-441,-636,0,0,0,0,0,0,0,0,0,-1,783,1660,0,0
-434,-636,0,0,0,0,0,0,0,0,0,-1,790,1660,0,0
-427,-636,0,0,0,0,0,0,0,0,0,-1,797,1660,0,0
-420,-636,0,0,0,0,0,0,0,0,0,-1,804,1660,0,0
-413,-636,0,0,0,0,0,0,0,0,0,-1,811,1660,0,0
-406,-636,0.0854492,1.49792,0.0398427,0.0299029,-0.038005,0.0732013,-0.00345572,-0.720382,0.0499926,0.0426529,818,1660,0.0854647,-1.4979
-399,-636,-0.060791,0.678833,0.033332,0.0314262,-0.036663,0.0690544,-0.00429628,-0.772406,0.0475331,0.0411574,825,1660,-0.0607829,-0.67887
-392,-636,0.2146,0.442017,0.0269739,0.0318943,-0.0337767,0.0633002,-0.00443205,-0.821753,0.0437524,0.0416779,832,1660,0.214628,-0.442001
-385,-636,-0.208191,0.11792,0.0213297,0.0321982,-0.0290582,0.0563259,-0.00279803,-0.877837,0.0385172,0.0402158,839,1660,-0.208191,-0.117954
-378,-636,-0.387512,-0.637939,0.0165296,0.0309228,-0.0226687,0.0475098,-5.73993e-05,-0.939101,0.0316923,0.0436179,846,1660,-0.387495,0.637887
-371,-636,0.0802002,-0.379395,0.011966,0.0286739,-0.0164153,0.0387387,0.00190121,-1.02077,0.025216,0.0450215,853,1660,0.0801748,0.379403
-364,-636,0.557312,-0.382324,0.00829628,0.0260907,-0.0108788,0.0312472,0.00313972,-1.12816,0.0198678,0.0457173,860,1660,0.557328,0.382374
-357,-636,0.44989,-0.378052,0.00570384,0.021889,-0.00585433,0.0237846,0.00380828,-1.25766,0.0147517,0.043059,867,1660,0.449912,0.378031
-350,-636,0.347107,-0.286255,0.00391649,0.0182972,-0.00161224,0.0184757,0.00373796,-1.46051,0.0112795,0.0429094,874,1660,0.347092,0.286208
-343,-636,-0.310181,-0.0488281,0.00232141,0.0151985,0.00141475,0.0153521,0.00216781,1.46265,0.0095941,0.0443065,881,1660,-0.310198,0.0488358
-336,-636,-0.329163,0.0219727,0.0013425,0.0120514,0.00369461,0.0132023,0.000191547,1.2688,0.0087384,0.0305898,888,1660,-0.329142,-0.0219786
-329,-636,-0.134277,-0.0484619,0.000261279,0.00896181,0.00550452,0.0116276,-0.00240448,1.1198,0.00866513,0.0162079,895,1660,-0.134259,0.0484105
-322,-636,-0.0739746,-0.0666504,-0.000402971,0.0054372,0.00595784,0.00915208,-0.00411785,1.01326,0.00784302,0.010015,902,1660,-0.0739803,0.0667009
-315,-636,-0.0847778,-0.0656738,-0.000343874,0.00451645,0.00513903,0.00777095,-0.00359837,1.00626,0.00670981,0.0107495,909,1660,-0.0847751,0.0657301
-308,-636,-0.0903931,-0.0705566,-7.06214e-05,0.00312531,0.00458232,0.00638029,-0.00332561,0.953167,0.00569546,0.0105433,916,1660,-0.0903949,0.0705825
-301,-636,-0.0696411,-0.0509033,0.000518428,0.00212859,0.00385704,0.00526367,-0.00261665,0.888286,0.00463448,0.0103925,923,1660,-0.0696496,0.0509325
-294,-636,-0.0715332,-0.0803223,0.000967328,0.00157828,0.00305975,0.00434777,-0.00180216,0.835152,0.00365065,0.0123135,930,1660,-0.0715589,0.0803795
-287,-636,-0.0835571,-0.0814209,0.00102605,0.00103586,0.00239391,0.00342486,-0.00136296,0.786423,0.00284841,0.0109694,937,1660,-0.0835591,0.0814456
-280,-636,-0.0858154,-0.076416,0.000613775,0.000679395,0.0018339,0.00248078,-0.00118761,0.794343,0.00216137,0.0111742,944,1660,-0.0858329,0.0763972
-273,-636,-0.0796509,-0.0736084,0.000212385,0.000623917,0.00119768,0.00163338,-0.000797074,0.87047,0.00143064,0.0116466,951,1660,-0.0796497,0.0735705
-266,-636,-0.0776978,-0.0477295,-2.89932e-05,0.000717489,0.000769462,0.00119946,-0.00051096,1.01121,0.00101383,0.012425,958,1660,-0.0777184,0.0476877
-259,-636,-0.0723877,-0.03479,-3.31767e-06,0.000664304,0.00047132,0.000908051,-0.000247064,1.09352,0.000702359,0.014186,965,1660,-0.0723987,0.034777
-252,-636,-0.0828247,-0.0635986,0.000352316,0.000768069,0.000217612,0.000861137,0.000259248,1.16666,0.000510128,0.0109887,972,1660,-0.0828432,0.0635568
-245,-636,-0.0639038,-0.0515137,0.000951475,0.000886228,-1.84039e-06,0.000951527,0.000886176,-0.0281768,0.000613729,0.0100788,979,1660,-0.0638943,0.0514976
-238,-636,-0.0554199,-0.0585938,0.00161977,0.00100558,2.38899e-07,0.00161977,0.00100558,0.000388971,0.000944229,0.0107847,986,1660,-0.0554453,0.0585444
-231,-636,-0.0653687,-0.0627441,0.00243282,0.000979738,2.67791e-05,0.00243331,0.000979244,0.0184209,0.00141376,0.00912127,993,1660,-0.0653661,0.0627118
-224,-636,-0.0679321,-0.0556641,0.00353507,0.000912781,0.000343336,0.00357928,0.000868573,0.128055,0.0021558,0.00714018,1000,1660,-0.0679154,0.0556035
-217,-636,-0.0698242,-0.052002,0.00470686,0.000750372,0.00102131,0.00495494,0.000502292,0.238289,0.00314924,0.00868798,1007,1660,-0.069799,0.0519745
-210,-636,-0.0661621,-0.0614014,0.0052954,1.06551e-05,0.0022732,0.00613865,-0.000832595,0.355218,0.00439632,0.0126919,1014,1660,-0.0661807,0.0613939
-203,-636,-0.0654297,-0.0708008,0.00539067,-0.000780192,0.00382867,0.00722241,-0.00261193,0.446241,0.00588217,0.016322,1021,1660,-0.0654141,0.0708373
-196,-636,-0.0628662,-0.0556641,0.00564566,-0.00137377,0.00515865,0.00837532,-0.00410343,0.486688,0.00734398,0.016384,1028,1660,-0.0629047,0.0556582
-189,-636,-0.0510254,-0.0661621,0.00528748,-0.00277038,0.00661462,0.00900358,-0.00648648,0.511858,0.00898246,0.0194792,1035,1660,-0.0510235,0.0661377
-182,-636,0.138062,-0.135498,0.00450636,-0.00401762,0.00820692,0.00949197,-0.00900322,0.545907,0.0106794,0.0381177,1042,1660,0.138014,0.13555
-175,-636,0.431763,-0.283569,0.00372373,-0.00536034,0.00916892,0.00941395,-0.0110506,0.555429,0.0118278,0.0453372,1049,1660,0.431766,0.283536
-168,-636,0.37085,-0.029541,0.00533959,-0.00546649,0.00890553,0.0103529,-0.0104799,0.51273,0.0120279,0.0455264,1056,1660,0.370853,0.0294833
-161,-636,0.357544,0.206299,0.00674267,-0.00488544,0.00866037,0.0113596,-0.00950236,0.489783,0.0120606,0.0430222,1063,1660,0.357599,-0.206275
-154,-636,-0.00305176,0.465454,0,0,0,0,0,0,0,-1,1070,1660,-0.00301546,-0.465407
-147,-636,0.0495605,0.31311,0.00510681,-0.00254222,0.00596042,0.00836421,-0.00579963,0.500156,0.00822206,0.0465238,1077,1660,0.0495019,-0.313134
-140,-636,0.188354,-0.435181,0.00406794,-0.00108598,0.00409649,0.0063306,-0.00334864,0.504639,0.00567602,0.0452526,1084,1660,0.188341,0.435139
-133,-636,-0.546265,0.0952148,0,0,0,0,0,0,0,-1,1091,1660,-0.546221,-0.0952603
-126,-636,0.269287,0.144775,0.00412396,0.00292641,-0.000407445,0.00424944,0.00280093,-0.298746,0.00249449,0.0464047,1098,1660,0.269317,-0.14474
-119,-636,0.0925293,-0.258301,0.00349882,0.00475284,-0.0021624,0.0063773,0.00187436,-0.926509,0.00378475,0.0453039,1105,1660,0.0925445,0.258343
-112,-636,0.282227,-0.264526,0.00214133,0.00639475,-0.00329104,0.00818644,0.000349649,-1.07225,0.00534489,0.0435672,1112,1660,0.282276,0.264574
-105,-636,0.287842,-0.179932,0.00062666,0.00758879,-0.00411428,0.00949707,-0.00128162,-1.13651,0.00679897,0.0430168,1119,1660,0.287849,0.179915
-98,-636,-0.0256348,-0.187622,-0.0015867,0.0081707,-0.00436064,0.00983546,-0.00325147,-1.2061,0.00786802,0.046495,1126,1660,-0.0256083,0.187606
-91,-636,-0.0263672,-0.325195,0,0,0,0,0,0,0,-1,1133,1660,-0.026409,0.325136
-84,-636,-2.07629,-0.630737,0,0,0,0,0,0,0,-1,1140,1660,-2.07626,0.630789
-77,-636,0.517822,0.0119629,-0.00774581,0.00527531,-0.00236441,0.00569136,-0.00816185,-1.39662,0.00804044,0.0432238,1147,1660,0.517782,-0.0119561
-70,-636,0.360962,0.147095,-0.00958233,0.00468095,-0.00306342,0.00531106,-0.0102124,-1.36794,0.0091102,0.0446896,1154,1660,0.361018,-0.147151
-63,-636,0.235352,0.158203,0,0,0,0,0,0,0,-1,1161,1660,0.235358,-0.158166
-56,-636,-0.0205078,1.15808,-0.0124646,0.0022086,-0.00592875,0.0043047,-0.0145607,-1.23096,0.0114159,0.0452629,1168,1660,-0.0204885,-1.1581
-49,-636,0.115112,0.533936,-0.010831,0.00127128,-0.0069962,0.00447017,-0.0140299,-1.14194,0.0111462,0.045775,1175,1660,0.115087,-0.533962
-42,-636,0.0913086,0.253174,-0.00924253,0.00212192,-0.0086097,0.00675544,-0.0138761,-1.07708,0.0121458,0.0418341,1182,1660,0.091351,-0.253132
-35,-636,-0.0288086,0.358398,-0.0091511,0.00317669,-0.011804,0.0103293,-0.0163037,-1.02602,0.0155049,0.0426817,1189,1660,-0.0288312,-0.358342
-28,-636,-0.0512695,0.436768,-0.0100285,0.00557487,-0.0151678,0.0148298,-0.0192835,-1.02293,0.0197512,0.0446035,1196,1660,-0.05122,-0.436799
-21,-636,-0.300537,0.421875,-0.0111258,0.00960121,-0.0182471,0.0202224,-0.021747,-1.04366,0.0242364,0.0443754,1203,1660,-0.300505,-0.421857
-14,-636,-0.635254,-0.193604,-0.00817528,0.0133835,-0.0227848,0.0278101,-0.0226019,-1.00634,0.0291571,0.0482379,1210,1660,-0.635228,0.193589
-7,-636,-0.581299,-0.566162,-0.00372765,0.02195,-0.0266586,0.0387002,-0.0204779,-1.00981,0.0347023,0.0464758,1217,1660,-0.581358,0.566186
0,-636,-0.115356,0.530396,0,0,0,0,0,0,0,-1,1224,1660,-0.115342,-0.530406
7,-636,-0.630859,0.513184,0.00700294,0.0347684,-0.0309799,0.0548339,-0.0130626,-0.996043,0.0415995,0.0466345,1231,1660,-0.630867,-0.513127
14,-636,-1.13293,0.415649,0.013133,0.0416361,-0.0340672,0.0643127,-0.00954353,-0.983505,0.0463847,0.045121,1238,1660,-1.13293,-0.415597
21,-636,-1.46167,0.083374,0.0179812,0.0443924,-0.0356718,0.0692245,-0.00685089,-0.962675,0.0485945,0.0489024,1245,1660,-1.46169,-0.0833912
28,-636,-1.71936,-0.174072,0,0,0,0,0,0,0,-1,1252,1660,-1.71939,0.174101
35,-636,-0.892334,0.220093,0.0259317,0.0410499,-0.0314482,0.0658347,0.00114693,-0.903344,0.0435125,0.0439463,1259,1660,-0.892366,-0.22012
42,-636,-1.11292,0.474609,0.0269196,0.0365779,-0.0259638,0.0581579,0.00533965,-0.877345,0.0371203,0.0478745,1266,1660,-1.11288,-0.474588
49,-636,3.54321,-3.479,0,0,0,0,0,0,0,-1,1273,1660,3.54327,3.47896
56,-636,2.18335,-2.25793,0.0215927,0.0208632,-0.0101083,0.0313428,0.0111131,-0.767363,0.0183492,0.0447678,1280,1660,2.18339,2.25789
63,-636,2.46277,-2.51782,0,0,0,0,0,0,0,-1,1287,1660,2.46273,2.51788
70,-636,2.91052,-2.60791,0.00991758,-0.00432862,0.00935882,0.0145557,-0.00896673,0.460111,0.0137079,0.0453131,1294,1660,2.91057,2.60787
77,-636,2.92224,-2.61731,0.00197219,-0.0111596,0.0206733,0.0170972,-0.0262846,0.631635,0.025233,0.0471563,1301,1660,2.92221,2.61725
84,-636,2.64758,-2.92139,-0.00722559,-0.015173,0.0300158,0.0190784,-0.041477,0.719587,0.03575,0.0439387,1308,1660,2.64759,2.92144
91,-636,2.17273,-3.26697,-0.0156403,-0.0150412,0.0426723,0.0273326,-0.0580141,0.788908,0.0503251,0.040924,1315,1660,2.17279,3.26695
98,-636,1.80823,-3.49829,-0.0211988,-0.0171649,0.0532371,0.0340935,-0.0724572,0.804332,0.0628321,0.0468778,1322,1660,1.80825,3.49832
105,-636,1.54382,-3.63086,0,0,0,0,0,0,0,-1,1329,1660,1.54383,3.63083
112,-636,0.273438,-3.18848,0,0,0,0,0,0,0,-1,1336,1660,0.273405,3.18842
119,-636,-0.317139,-2.36499,-0.0316561,0.00306662,0.0662749,0.0542164,-0.0828059,0.9135,0.0796818,0.0483464,1343,1660,-0.317146,2.36495
126,-636,-0.892944,-1.52209,-0.031548,0.0106317,0.0630964,0.0560696,-0.0769858,0.946685,0.0771353,0.0443666,1350,1660,-0.892954,1.52207
133,-636,-1.49414,-1.27832,0,0,0,0,0,0,0,-1,1357,1660,-1.49415,1.27834
140,-636,-2.11011,0.831543,-0.0313691,0.0228052,0.0540833,0.0562054,-0.0647693,1.01756,0.0699031,0.0414447,1364,1660,-2.11005,-0.831485
147,-636,-2.5022,2.15698,-0.0319435,0.0267853,0.0481779,0.0538423,-0.0590005,1.05909,0.0651725,0.0440307,1371,1660,-2.50221,-2.15698
154,-636,-2.771,3.67065,-0.0311641,0.0292185,0.0401935,0.0492968,-0.0512424,1.10752,0.05805,0.044946,1378,1660,-2.77097,-3.67067
161,-636,-3.10583,5.06555,0,0,0,0,0,0,0,-1,1385,1660,-3.10579,-5.06556
168,-636,-0.348633,6.09729,0,0,0,0,0,0,0,-1,1392,1660,-0.348694,-6.09726
175,-636,-0.373291,5.40051,-0.0210578,0.0351,0.0114971,0.0373626,-0.0233205,1.37648,0.0353467,0.0438835,1399,1660,-0.373278,-5.40054
182,-636,-0.579956,4.97241,-0.0145021,0.0345527,0.00411366,0.0348952,-0.0148447,1.48771,0.0294848,0.0408232,1406,1660,-0.579979,-4.97246
189,-636,-0.119873,3.93726,0,0,0,0,0,0,0,-1,1413,1660,-0.119825,-3.93723
196,-636,-0.192749,3.53406,0.00212005,0.0311493,-0.00436206,0.0317906,0.00147876,-1.42483,0.0207184,0.0428713,1420,1660,-0.192807,-3.53403
203,-636,-0.635986,2.89441,0.019258,0.028972,-0.00389191,0.030339,0.017891,-1.23303,0.0176099,0.0450044,1427,1660,-0.635928,-2.8944
210,-636,-1.42065,3.41992,0.0359079,0.0322858,0.00288165,0.0375004,0.0306933,0.504849,0.0230685,0.0431432,1434,1660,-1.42061,-3.41989
217,-636,-4.74622,-2.0199,0,0,0,0,0,0,0,-1,1441,1660,-4.74617,2.01984
224,-636,-3.75354,-1.82788,0.0556877,0.0392242,0.0160576,0.0655005,0.0294113,0.548545,0.0378822,0.0451434,1448,1660,-3.75353,1.82787
231,-636,-0.950439,-0.829712,0.0634254,0.0404041,0.0219589,0.0767077,0.0271218,0.543992,0.0449158,0.0468171,1455,1660,-0.950384,0.829662
238,-636,-0.48584,-0.616455,0.0703654,0.0423205,0.0277528,0.0874371,0.0252488,0.551473,0.0519618,0.0436793,1462,1660,-0.485798,0.616407
245,-636,-0.236816,-0.234497,0.0719027,0.0457036,0.0305604,0.0920527,0.0255536,0.582921,0.0548712,0.0396358,1469,1660,-0.236799,0.234556
252,-636,0.389282,0.211548,0.069383,0.048132,0.0320924,0.0925632,0.0249518,0.625533,0.0553009,0.0404306,1476,1660,0.389287,-0.211555
259,-636,0.243042,0.537231,0.0645548,0.0513038,0.0317616,0.0903746,0.025484,0.682573,0.0538058,0.0438208,1483,1660,0.243004,-0.537257
266,-636,0.294678,0.291626,0.0578862,0.0530197,0.030088,0.0856392,0.0252667,0.74505,0.0508097,0.0451403,1490,1660,0.294637,-0.291648
273,-636,0.260376,-0.0270996,0.0485244,0.0531031,0.0270553,0.0779658,0.0236617,0.827606,0.0461579,0.048563,1497,1660,0.260406,0.02712
280,-636,-0.896729,0.688965,0,0,0,0,0,0,0,-1,1504,1660,-0.896739,-0.688907
287,-636,-0.353027,0.103638,0.0297899,0.0498015,0.019059,0.0613215,0.0182699,1.02712,0.0363549,0.0442916,1511,1660,-0.353071,-0.103594
294,-636,0.239746,-0.549805,0.0226656,0.0468755,0.0157378,0.0546252,0.0149159,1.11323,0.0326027,0.0446915,1518,1660,0.23974,0.549798
301,-636,-0.33606,0.0273438,0,0,0,0,0,0,0,-1,1525,1660,-0.336053,-0.0273038
308,-636,-0.352173,0.0170898,0,0,0,0,0,0,0,-1,1532,1660,-0.352122,-0.0170737
315,-636,-0.32605,-0.0544434,0.00160428,0.0304437,0.00453348,0.0311396,0.000908416,1.41849,0.0204636,0.0434259,1539,1660,-0.32611,0.0543969
322,-636,-0.266357,-0.17749,-4.0142e-05,0.023261,0.0025284,0.0235322,-0.000311342,1.46394,0.0157929,0.0362034,1546,1660,-0.266381,0.177469
329,-636,-0.19043,-0.149414,-0.000188853,0.0183303,0.00235155,0.0186243,-0.000482786,1.44645,0.0125802,0.0233012,1553,1660,-0.190442,0.149473
336,-636,-0.103516,-0.0563965,-0.000895223,0.01392,0.00200994,0.0141878,-0.00116306,1.43832,0.00986912,0.0184025,1560,1660,-0.103518,0.0563472
343,-636,-0.0848389,-0.0424805,-0.00273101,0.0101211,0.00133736,0.0102588,-0.00286869,1.4682,0.00796944,0.0178753,1567,1660,-0.0847998,0.0425001
350,-636,-0.071167,-0.0631104,-0.00280627,0.00717761,0.00104757,0.00728634,-0.002915,1.46737,0.00606732,0.0111769,1574,1660,-0.0712222,0.063078
357,-636,-0.0449219,-0.0811768,-0.00213408,0.00536903,0.00088736,0.00547255,-0.0022376,1.45467,0.0045802,0.00977892,1581,1660,-0.0448623,0.0811863
364,-636,-0.0562744,-0.0845947,-0.00168864,0.00366031,0.000598185,0.00372639,-0.00175472,1.46077,0.00323205,0.00966878,1588,1660,-0.0562917,0.0846287
371,-636,-0.0629883,-0.071167,-0.00157994,0.00273284,5.9557e-05,0.00273366,-0.00158077,1.55699,0.00252041,0.00847079,1595,1660,-0.0630485,0.0711338
378,-636,-0.0678711,-0.0637207,-0.00127255,0.00200967,-0.000416258,0.00206164,-0.00132451,-1.44659,0.00197038,0.00875505,1602,1660,-0.0678542,0.0637076
385,-636,-0.0563965,-0.0594482,-0.000697707,0.00128847,-0.000645395,0.00147976,-0.000889,-1.28265,0.00138171,0.0129089,1609,1660,-0.0563939,0.0594238
392,-636,-0.0701904,-0.0456543,-0.000226267,0.000557856,-0.000821899,0.00107642,-0.000744827,-1.00795,0.00105729,0.0141373,1616,1660,-0.070137,0.0456812
399,-636,-0.0776367,-0.0692139,0.000172347,0.000226345,-0.000797294,0.000997097,-0.000598404,-0.802323,0.000930701,0.0112421,1623,1660,-0.07763,0.0692254
406,-636,-0.0766602,-0.0736084,0.000509365,-0.000267539,-0.000887036,0.00108928,-0.00084745,-0.579016,0.00112107,0.0129287,1630,1660,-0.0766887,0.0736444
413,-636,-0.0715332,-0.0769043,0.000640273,-0.000699543,-0.00114911,0.00130049,-0.00135976,-0.521493,0.00153603,0.0183236,1637,1660,-0.0715798,0.0769209
420,-636,-0.0684814,-0.0974121,0.000374241,-0.000954826,-0.00108545,0.000982426,-0.00156301,-0.510721,0.0014823,0.0193369,1644,1660,-0.0684501,0.0973757
427,-636,-0.0751953,-0.0767822,9.98212e-06,-0.00148138,-0.00061891,0.000233367,-0.00170477,-0.346382,0.00122175,0.0122819,1651,1660,-0.0751585,0.0768284
434,-636,-0.0788574,-0.0683594,0.000240606,-0.00249664,-4.24984e-05,0.000241266,-0.0024973,-0.015521,0.00175084,0.0102132,1658,1660,-0.0788993,0.0683233
441,-636,-0.0727539,-0.0793457,0.000484092,-0.00331352,-0.00012189,0.000488,-0.00331742,-0.0320526,0.00239094,0.010611,1665,1660,-0.0727013,0.0793487
448,-636,-0.0404053,-0.0758057,0.00190581,-0.00422184,-0.000214211,0.00191329,-0.00422932,-0.0349012,0.00362949,0.0121575,1672,1660,-0.040428,0.0758259
455,-636,-0.0672607,-0.0733643,0.00458449,-0.0049275,-0.000626437,0.00462557,-0.00496858,-0.0654807,0.00554037,0.0122223,1679,1660,-0.06732,0.0733347
462,-636,-0.104126,-0.0839844,0.00625779,-0.00527369,-0.00131759,0.00640642,-0.00542232,-0.112331,0.0068372,0.0151575,1686,1660,-0.1041,0.0839514
469,-636,-0.115601,-0.103516,0.00830022,-0.00456744,-0.00246955,0.00875789,-0.00502511,-0.183248,0.00805431,0.024095,1693,1660,-0.115547,0.103458
476,-636,-0.0959473,0.00012207,0.0114382,-0.00411477,-0.00384634,0.0123375,-0.005014,-0.229663,0.010311,0.0385731,1700,1660,-0.0959191,-0.000107176
483,-636,0.216919,0.313599,0.0146889,-0.00283861,-0.00576444,0.0164148,-0.00456447,-0.290905,0.0127402,0.0443318,1707,1660,0.21687,-0.313658
490,-636,0.085083,-0.0397949,0.017568,-0.000419211,-0.0081566,0.0207159,-0.00356707,-0.368316,0.0151403,0.0467684,1714,1660,0.0851063,0.0398145
497,-636,-0.190796,-0.513672,0.0197884,0.00274222,-0.0107627,0.0249941,-0.00246348,-0.450505,0.0175416,0.0438624,1721,1660,-0.190808,0.513706
504,-636,1.83765,0.0291748,0.0209708,0.00654536,-0.0137277,0.0292653,-0.00174914,-0.543513,0.0201186,0.0457832,1728,1660,1.83769,-0.0291672
511,-636,1.09277,-0.575806,0.0206522,0.0117623,-0.0163702,0.0331702,-0.000755697,-0.652831,0.0223696,0.044412,1735,1660,1.09277,0.575831
518,-636,0.442505,-1.24744,0.0190336,0.0177483,-0.0184387,0.0368408,-5.8949e-05,-0.767979,0.0245802,0.0430424,1742,1660,0.442461,1.24743
525,-636,-0.012207,-1.87817,0,0,0,0,0,0,0,-1,1749,1660,-0.0122373,1.87822
532,-636,0,0,0,0,0,0,0,0,0,-1,1756,1660,0,0
539,-636,0,0,0,0,0,0,0,0,0,-1,1763,1660,0,0
546,-636,0,0,0,0,0,0,0,0,0,-1,1770,1660,0,0
553,-636,0,0,0,0,0,0,0,0,0,-1,1777,1660,0,0
560,-636,0,0,0,0,0,0,0,0,0,-1,1784,1660,0,0
567,-636,0,0,0,0,0,0,0,0,0,-1,1791,1660,0,0
574,-636,0,0,0,0,0,0,0,0,0,-1,1798,1660,0,0
581,-636,0,0,0,0,0,0,0,0,0,-1,1805,1660,0,0
588,-636,0,0,0,0,0,0,0,0,0,-1,1812,1660,0,0
595,-636,0,0,0,0,0,0,0,0,0,-1,1819,1660,0,0
602,-636,0,0,0,0,0,0,0,0,0,-1,1826,1660,0,0
609,-636,0,0,0,0,0,0,0,0,0,-1,1833,1660,0,0
616,-636,0,0,0,0,0,0,0,0,0,-1,1840,1660,0,0
623,-636,0,0,0,0,0,0,0,0,0,-1,1847,1660,0,0
630,-636,0,0,0,0,0,0,0,0,0,-1,1854,1660,0,0
637,-636,0,0,0,0,0,0,0,0,0,-1,1861,1660,0,0
644,-636,0,0,0,0,0,0,0,0,0,-1,1868,1660,0,0
651,-636,0,0,0,0,0,0,0,0,0,-1,1875,1660,0,0
658,-636,0,0,0,0,0,0,0,0,0,-1,1882,1660,0,0
665,-636,0,0,0,0,0,0,0,0,0,-1,1889,1660,0,0
672,-636,0,0,0,0,0,0,0,0,0,-1,1896,1660,0,0
679,-636,0,0,0,0,0,0,0,0,0,-1,1903,1660,0,0
686,-636,0,0,0,0,0,0,0,0,0,-1,1910,1660,0,0
693,-636,0,0,0,0,0,0,0,0,0,-1,1917,1660,0,0
700,-636,0,0,0,0,0,0,0,0,0,-1,1924,1660,0,0
707,-636,0,0,0,0,0,0,0,0,0,-1,1931,1660,0,0
714,-636,0,0,0,0,0,0,0,0,0,-1,1938,1660,0,0
721,-636,0,0,0,0,0,0,0,0,0,-1,1945,1660,0,0
728,-636,0,0,0,0,0,0,0,0,0,-1,1952,1660,0,0
735,-636,0,0,0,0,0,0,0,0,0,-1,1959,1660,0,0
742,-636,0,0,0,0,0,0,0,0,0,-1,1966,1660,0,0
749,-636,0,0,0,0,0,0,0,0,0,-1,1973,1660,0,0
756,-636,0,0,0,0,0,0,0,0,0,-1,1980,1660,0,0
763,-636,0,0,0,0,0,0,0,0,0,-1,1987,1660,0,0
770,-636,0,0,0,0,0,0,0,0,0,-1,1994,1660,0,0
777,-636,0,0,0,0,0,0,0,0,0,-1,2001,1660,0,0
784,-636,0,0,0,0,0,0,0,0,0,-1,2008,1660,0,0
791,-636,0,0,0,0,0,0,0,0,0,-1,2015,1660,0,0
798,-636,0,0,0,0,0,0,0,0,0,-1,2022,1660,0,0
805,-636,0,0,0,0,0,0,0,0,0,-1,2029,1660,0,0
812,-636,0,0,0,0,0,0,0,0,0,-1,2036,1660,0,0
-700,-643,0,0,0,0,0,0,0,0,0,-1,524,1667,0,0
-693,-643,0,0,0,0,0,0,0,0,0,-1,531,1667,0,0
-686,-643,0,0,0,0,0,0,0,0,0,-1,538,1667,0,0
-679,-643,0,0,0,0,0,0,0,0,0,-1,545,1667,0,0
-672,-643,0,0,0,0,0,0,0,0,0,-1,552,1667,0,0
-665,-643,0,0,0,0,0,0,0,0,0,-1,559,1667,0,0
-658,-643,0,0,0,0,0,0,0,0,0,-1,566,1667,0,0
-651,-643,0,0,0,0,0,0,0,0,0,-1,573,1667,0,0
-644,-643,0,0,0,0,0,0,0,0,0,-1,580,1667,0,0
-637,-643,0,0,0,0,0,0,0,0,0,-1,587,1667,0,0
-630,-643,0,0,0,0,0,0,0,0,0,-1,594,1667,0,0
-623,-643,0,0,0,0,0,0,0,0,0,-1,601,1667,0,0
-616,-643,0,0,0,0,0,0,0,0,0,-1,608,1667,0,0
-609,-643,0,0,0,0,0,0,0,0,0,-1,615,1667,0,0
-602,-643,0,0,0,0,0,0,0,0,0,-1,622,1667,0,0
-595,-643,0,0,0,0,0,0,0,0,0,-1,629,1667,0,0
-588,-643,0,0,0,0,0,0,0,0,0,-1,636,1667,0,0
-581,-643,0,0,0,0,0,0,0,0,0,-1,643,1667,0,0
-574,-643,0,0,0,0,0,0,0,0,0,-1,650,1667,0,0
-567,-643,0,0,0,0,0,0,0,0,0,-1,657,1667,0,0
-560,-643,0,0,0,0,0,0,0,0,0,-1,664,1667,0,0
-553,-643,0,0,0,0,0,0,0,0,0,-1,671,1667,0,0
-546,-643,0,0,0,0,0,0,0,0,0,-1,678,1667,0,0
-539,-643,0,0,0,0,0,0,0,0,0,-1,685,1667,0,0
-532,-643,0,0,0,0,0,0,0,0,0,-1,692,1667,0,0
-525,-643,0,0,0,0,0,0,0,0,0,-1,699,1667,0,0
-518,-643,0,0,0,0,0,0,0,0,0,-1,706,1667,0,0
-511,-643,0,0,0,0,0,0,0,0,0,-1,713,1667,0,0
-504,-643,0,0,0,0,0,0,0,0,0,-1,720,1667,0,0
-497,-643,0,0,0,0,0,0,0,0,0,-1,727,1667,0,0
-490,-643,0,0,0,0,0,0,0,0,0,-1,734,1667,0,0
-483,-643,0,0,0,0,0,0,0,0,0,-1,741,1667,0,0
-476,-643,0,0,0,0,0,0,0,0,0,-1,748,1667,0,0
-469,-643,0,0,0,0,0,0,0,0,0,-1,755,1667,0,0
-462,-643,0,0,0,0,0,0,0,0,0,-1,762,1667,0,0
-455,-643,0,0,0,0,0,0,0,0,0,-1,769,1667,0,0
-448,-643,0,0,0,0,0,0,0,0,0,-1,776,1667,0,0
-441,-643,0,0,0,0,0,0,0,0,0,-1,783,1667,0,0
-434,-643,0,0,0,0,0,0,0,0,0,-1,790,1667,0,0
-427,-643,0,0,0,0,0,0,0,0,0,-1,797,1667,0,0
-420,-643,0,0,0,0,0,0,0,0,0,-1,804,1667,0,0
-413,-643,0,0,0,0,0,0,0,0,0,-1,811,1667,0,0
-406,-643,0,0,0,0,0,0,0,0,0,-1,818,1667,0,0
-399,-643,-0.13501,0.845703,0.0385758,0.040737,-0.0428513,0.0825213,-0.00320853,-0.798005,0.0561143,0.0412688,825,1667,-0.135006,-0.84576
-392,-643,0.323364,0.0841064,0.0311806,0.0419819,-0.0388439,0.0757988,-0.00263629,-0.854473,0.0514338,0.0405141,832,1667,0.323339,-0.084104
-385,-643,-0.0991821,-0.552734,0.0244311,0.04135,-0.0325497,0.0665215,-0.000740454,-0.912532,0.0445966,0.0416507,839,1667,-0.0991838,0.552687
-378,-643,1.74084,-2.97375,0.0189434,0.0387674,-0.0243285,0.0551256,0.00258518,-0.978844,0.0359197,0.0476935,846,1667,1.74084,2.97376
-371,-643,0.298218,-0.0966797,0.0143065,0.0350317,-0.0167467,0.0443626,0.00497561,-1.06246,0.028064,0.0479174,853,1667,0.298205,0.0966302
-364,-643,0.556763,-0.648438,0.0104974,0.0313363,-0.0103322,0.0355906,0.00624309,-1.1802,0.0219441,0.0448645,860,1667,0.556741,0.648402
-357,-643,0.530762,-0.526123,0.00756892,0.0261727,-0.0048093,0.0273424,0.00639921,-1.33221,0.0165138,0.0469771,867,1667,0.530765,0.526091
-350,-643,0.250854,-0.398682,0.00549223,0.0218727,-0.00021649,0.0218755,0.00548937,-1.55758,0.0131418,0.0450222,874,1667,0.250861,0.398717
-343,-643,-0.296326,-0.435303,0.00358755,0.0182191,0.00307804,0.0188403,0.00296639,1.37167,0.0116974,0.0462215,881,1667,-0.296323,0.435332
-336,-643,-0.270996,-0.227051,0.00240076,0.0145952,0.00554553,0.0167399,0.000256078,1.20177,0.0110755,0.0468699,888,1667,-0.271018,0.227043
-329,-643,-0.0991821,-0.125732,0.00108204,0.0109541,0.00740955,0.0149212,-0.00288507,1.07923,0.0110356,0.0370716,895,1667,-0.0991994,0.125787
-322,-643,-0.0482178,-0.130493,0.000323979,0.00694438,0.00763803,0.0119587,-0.0046903,0.989873,0.00991291,0.0232,902,1667,-0.048201,0.130456
-315,-643,-0.0567627,-0.108276,0.000363443,0.00581453,0.00646544,0.0101054,-0.00392746,0.984873,0.00835952,0.0151979,909,1667,-0.056765,0.108257
-308,-643,-0.0839844,-0.0756836,0.00057068,0.00417296,0.00557173,0.00822744,-0.0034838,0.941729,0.00694392,0.0119557,916,1667,-0.0839577,0.0757017
-301,-643,-0.0695801,-0.0635986,0.001101,0.0029352,0.0045061,0.00661657,-0.00258038,0.885789,0.00547766,0.0135045,923,1667,-0.0695522,0.0635478
-294,-643,-0.0582275,-0.0852051,0.00151173,0.00213719,0.00340975,0.00524851,-0.0015996,0.831128,0.00413662,0.0111425,930,1667,-0.0582085,0.0851631
-287,-643,-0.0731812,-0.0771484,0.00153611,0.00132325,0.00249844,0.00393039,-0.00107103,0.764112,0.0030408,0.00959588,937,1667,-0.0731771,0.0771626
-280,-643,-0.0897217,-0.0704346,0.00109445,0.000676951,0.00172677,0.00262504,-0.000853638,0.725245,0.00209341,0.0133623,944,1667,-0.0897132,0.0704155
-273,-643,-0.090332,-0.0793457,0.000651773,0.000309377,0.000885787,0.00138275,-0.000421605,0.689939,0.0010899,0.0123401,951,1667,-0.0903439,0.0793853
-266,-643,-0.0906982,-0.059082,0.000314102,0.000141419,0.000300205,0.000540135,-8.46143e-05,0.645374,0.000391356,0.0113579,958,1667,-0.0906685,0.0590418
-259,-643,-0.0787354,-0.0633545,0.000225722,-0.00015437,-4.86274e-06,0.000225784,-0.000154432,-0.0127908,0.000220802,0.0109668,965,1667,-0.0787654,0.0633623
-252,-643,-0.0811157,-0.0769043,0.000437631,-0.000162939,-0.000233222,0.000517561,-0.000242869,-0.330175,0.000448481,0.012257,972,1667,-0.0811124,0.0769264
-245,-643,-0.0579224,-0.0567627,0.000771409,-7.44157e-05,-0.00039843,0.000929531,-0.000232538,-0.3778,0.000710009,0.0116877,979,1667,-0.0579503,0.0567278
-238,-643,-0.0357666,-0.0568848,0.00112545,3.66906e-05,-0.000346704,0.00122648,-6.43384e-05,-0.283547,0.000839923,0.0139953,986,1667,-0.0357866,0.0568807
-231,-643,-0.0596924,-0.0634766,0.0015249,4.36191e-05,-0.00021481,0.00155542,1.3097e-05,-0.141144,0.00103261,0.0095951,993,1667,-0.059672,0.0635135
-224,-643,-0.072937,-0.0643311,0.00215115,0.000143108,0.0001992,0.00217072,0.000123538,0.0979294,0.00140778,0.00829126,1000,1667,-0.0729392,0.0643843
-217,-643,-0.0683594,-0.0743408,0.00278282,0.000189497,0.000902113,0.00306576,-9.34425e-05,0.303924,0.00207569,0.00807631,1007,1667,-0.0683832,0.0743164
-210,-643,-0.0616455,-0.0693359,0.00302572,-0.000178966,0.00204398,0.00402057,-0.00117381,0.452965,0.00314552,0.0103179,1014,1667,-0.0616526,0.069289
-203,-643,-0.0548096,-0.0604248,0.00294248,-0.000595033,0.00342279,0.00502651,-0.00267906,0.546916,0.0045171,0.011367,1021,1667,-0.0548251,0.0604489
-196,-643,-0.0616455,-0.0661621,0.00301859,-0.000785511,0.00454459,0.00604311,-0.00381003,0.587209,0.00573721,0.0107702,1028,1667,-0.0615891,0.0661397
-189,-643,-0.083252,-0.0733643,0.00269119,-0.00164442,0.00573783,0.00665707,-0.0056103,0.604783,0.00709116,0.0102965,1035,1667,-0.0832968,0.0733356
-182,-643,-0.06604,-0.0911865,0.00214818,-0.00236713,0.00705878,0.00730156,-0.00752051,0.630621,0.00855783,0.0173147,1042,1667,-0.0659952,0.0912211
-175,-643,-0.0430908,-0.106934,0.00160977,-0.00320076,0.00788597,0.00744913,-0.00904012,0.637377,0.00953483,0.0327566,1049,1667,-0.0431313,0.10695
-168,-643,-0.0142822,-0.0949707,0.00284376,-0.00304789,0.00763206,0.00807878,-0.00828291,0.601217,0.00944667,0.0397745,1056,1667,-0.014238,0.0950307
-161,-643,0.0665283,0.0595703,0.00410302,-0.002495,0.00736823,0.00887707,-0.00726905,0.574914,0.00933736,0.0403554,1063,1667,0.0665823,-0.059582
-154,-643,0.0800781,0.0887451,0.00425145,-0.00183255,0.0062498,0.00816026,-0.00574135,0.558908,0.0080665,0.0413731,1070,1667,0.0800747,-0.088765
-147,-643,-0.0258789,0.0721436,0.00352165,-0.000986862,0.00461115,0.00640007,-0.00386529,0.558046,0.00598663,0.047162,1077,1667,-0.0259036,-0.0721368
-140,-643,-0.0766602,-0.13208,0.00297201,-0.000124312,0.00287463,0.00468886,-0.00184116,0.538389,0.00388777,0.0476154,1084,1667,-0.0766555,0.13202
-133,-643,-0.637573,-0.0118408,0,0,0,0,0,0,0,-1,1091,1667,-0.63762,0.0118442
-126,-643,0.172241,0.0836182,0,0,0,0,0,0,0,-1,1098,1667,0.172271,-0.083566
-119,-643,0.180054,-0.247925,0,0,0,0,0,0,0,-1,1105,1667,0.180016,0.247908
-112,-643,0.230347,-0.286377,0.00176479,0.00548011,-0.00252841,0.00675993,0.000484973,-1.10222,0.00435397,0.0428414,1112,1667,0.230387,0.286337
-105,-643,0.304443,-0.326904,0.000775622,0.00635659,-0.00308091,0.00772288,-0.000590673,-1.15339,0.00535635,0.0408504,1119,1667,0.304498,0.326928
-98,-643,0.370239,-0.333252,-0.000729858,0.00684628,-0.00315945,0.00799092,-0.0018745,-1.22321,0.0060497,0.0461578,1126,1667,0.370189,0.33325
-91,-643,0.435913,-0.415039,0,0,0,0,0,0,0,-1,1133,1667,0.435956,0.415013
-84,-643,-0.12561,0.161011,-0.00398652,0.00587521,-0.00151578,0.00610293,-0.00421424,-1.42168,0.0059898,0.0482852,1140,1667,-0.125638,-0.161044
-77,-643,0.162354,0.124756,-0.00520361,0.00480758,-0.00108449,0.00492372,-0.00531975,-1.46412,0.00591554,0.0427522,1147,1667,0.162377,-0.124743
-70,-643,0.364258,0.0792236,-0.00646861,0.00435842,-0.00155907,0.00457845,-0.00668864,-1.43059,0.00654298,0.0426353,1154,1667,0.364243,-0.0792498
-63,-643,0.240845,0.126709,-0.00832731,0.003025,-0.00239519,0.00350966,-0.00881197,-1.37114,0.00733017,0.0439466,1161,1667,0.240803,-0.126702
-56,-643,0.0721436,0.830688,-0.00852804,0.00244236,-0.00397813,0.00373307,-0.00981875,-1.25706,0.00808284,0.0476756,1168,1667,0.0721383,-0.830663
-49,-643,0.108765,0.543579,-0.00754928,0.00151311,-0.00527136,0.0039331,-0.00996927,-1.14041,0.00827489,0.0464052,1175,1667,0.108717,-0.543583
-42,-643,-0.0720215,0.22876,-0.00677279,0.00166765,-0.00729407,0.0058744,-0.0109795,-1.04766,0.0098783,0.0408217,1182,1667,-0.072,-0.228783
-35,-643,-0.0859375,0.330933,-0.00700314,0.00169983,-0.0105303,0.00874228,-0.0140456,-0.981331,0.0132748,0.0416921,1189,1667,-0.0859253,-0.330923
-28,-643,-0.0839844,0.129272,0,0,0,0,0,0,0,-1,1196,1667,-0.0839254,-0.129278
-21,-643,-0.377563,0.026123,-0.0080915,0.00559752,-0.0167811,0.0168763,-0.0193703,-0.979034,0.0209435,0.0425331,1203,1667,-0.377591,-0.0260757
-14,-643,-0.452515,-0.339966,-0.00490239,0.00835482,-0.0206703,0.0234333,-0.0199809,-0.94056,0.0250916,0.0492676,1210,1667,-0.45253,0.340009
-7,-643,-0.325317,-0.843262,-0.000169655,0.0150676,-0.0236243,0.0322713,-0.0173734,-0.941379,0.0290894,0.0498833,1217,1667,-0.325349,0.843217
0,-643,-0.21814,-1.3291,0,0,0,0,0,0,0,-1,1224,1667,-0.218081,1.32911
7,-643,-0.633911,-0.0524902,0,0,0,0,0,0,0,-1,1231,1667,-0.633912,0.0524486
14,-643,-1.45703,-0.557983,0,0,0,0,0,0,0,-1,1238,1667,-1.45707,0.557948
21,-643,-1.4303,-0.529175,0,0,0,0,0,0,0,-1,1245,1667,-1.43026,0.529196
28,-643,-0.578491,-0.717041,0,0,0,0,0,0,0,-1,1252,1667,-0.578549,0.717028
35,-643,0.0482178,-0.0162354,0.0313566,0.0288412,-0.0212282,0.0513643,0.00883346,-0.75581,0.0317112,0.0417403,1259,1667,0.0482392,0.0162754
42,-643,2.16296,-2.63843,0.0334922,0.0248849,-0.0160184,0.045775,0.0126021,-0.654162,0.0273032,0.0479415,1266,1667,2.16295,2.63838
49,-643,2.64355,-2.88367,0.0324839,0.0190333,-0.0099322,0.0377536,0.0137637,-0.487795,0.022062,0.0449343,1273,1667,2.6436,2.88366
56,-643,3.33655,-3.24219,0.0307728,0.0110022,-0.00361494,0.0314131,0.010362,-0.175291,0.018483,0.0447538,1280,1667,3.33651,3.24218
63,-643,1.76868,-1.44641,0,0,0,0,0,0,0,-1,1287,1667,1.76868,1.44643
70,-643,2.09875,-2.09241,0.0216259,-0.00944131,0.00911568,0.0241031,-0.0119185,0.265342,0.02119,0.0441593,1294,1667,2.09874,2.09242
77,-643,1.86292,-2.2218,0.0139892,-0.015471,0.0154051,0.0205732,-0.0220551,0.403896,0.0246164,0.0428604,1301,1667,1.86294,2.22176
84,-643,1.55713,-2.35669,0.00530254,-0.018821,0.0200294,0.0166216,-0.0301401,0.51438,0.0273714,0.0455473,1308,1667,1.55717,2.35674
91,-643,1.20911,-1.98206,0,0,0,0,0,0,0,-1,1315,1667,1.2091,1.98202
98,-643,0.604248,-3.5376,0,0,0,0,0,0,0,-1,1322,1667,0.604277,3.53762
105,-643,2.92444,-2.09924,0,0,0,0,0,0,0,-1,1329,1667,2.92438,2.0992
112,-643,-0.256104,-1.28015,0,0,0,0,0,0,0,-1,1336,1667,-0.256162,1.28012
119,-643,-0.626831,-1.38647,-0.0248705,-0.000330281,0.0468598,0.0358392,-0.06104,0.913447,0.0565605,0.0458714,1343,1667,-0.626805,1.38651
126,-643,-0.821167,-1.4397,-0.0262636,0.00859682,0.0454657,0.039859,-0.0575258,0.968442,0.0565327,0.0471141,1350,1667,-0.821212,1.43964
133,-643,-1.12146,-1.48669,-0.0271507,0.0164678,0.0428953,0.0427797,-0.0534627,1.02058,0.0556796,0.0465441,1357,1667,-1.12152,1.48665
140,-643,-1.78064,-1.48767,0,0,0,0,0,0,0,-1,1364,1667,-1.78061,1.48765
147,-643,-2.77734,1.64001,-0.0291878,0.0290626,0.0369717,0.0470032,-0.0471284,1.11902,0.0543469,0.0417575,1371,1667,-2.77738,-1.64005
154,-643,-3.18591,2.92419,-0.0287378,0.0333427,0.0312986,0.0463831,-0.0417781,1.17603,0.050923,0.0427311,1378,1667,-3.1859,-2.92425
161,-643,-0.930542,5.70325,0,0,0,0,0,0,0,-1,1385,1667,-0.930544,-5.7033
168,-643,-0.816284,5.53467,0,0,0,0,0,0,0,-1,1392,1667,-0.816302,-5.53462
175,-643,-0.62439,5.46204,-0.0185596,0.0440792,0.0080644,0.0451008,-0.0195812,1.44479,0.0383008,0.0453835,1399,1667,-0.624418,-5.46201
182,-643,-0.375488,3.08191,-0.0124093,0.0444973,0.00153599,0.0445388,-0.0124507,1.54383,0.0345978,0.0430848,1406,1667,-0.375531,-3.08195
189,-643,-0.450562,3.3042,0,0,0,0,0,0,0,-1,1413,1667,-0.450525,-3.30418
196,-643,-0.108887,3.14734,0.0022686,0.0407599,-0.00643775,0.0418081,0.00122042,-1.40939,0.0274743,0.0400435,1420,1667,-0.108906,-3.14737
203,-643,-0.293091,2.65161,0.0144844,0.0372109,-0.00667483,0.0390263,0.012669,-1.30524,0.0229892,0.0426518,1427,1667,-0.293135,-2.65166
210,-643,-0.483276,2.23401,0.0264325,0.0369027,-0.00213996,0.0373232,0.026012,-1.37677,0.0220987,0.0474272,1434,1667,-0.483251,-2.23397
217,-643,-0.63147,1.79346,0.0348414,0.0374682,0.0039474,0.040315,0.0319947,0.945997,0.0245772,0.0498353,1441,1667,-0.631514,-1.79343
224,-643,-4.90784,-2.01892,0,0,0,0,0,0,0,-1,1448,1667,-4.90783,2.01891
231,-643,-0.546265,-0.455811,0.0468682,0.0366587,0.0134402,0.0561404,0.0273865,0.603907,0.0324159,0.0441812,1455,1667,-0.546244,0.455812
238,-643,-0.173218,-0.385986,0.0520806,0.0366295,0.0181975,0.0641246,0.0245855,0.584659,0.0373564,0.043141,1462,1667,-0.173265,0.385973
245,-643,-0.0437012,-0.0482178,0.0532732,0.0379503,0.0207001,0.0676842,0.0235393,0.608157,0.0396765,0.0418145,1469,1667,-0.0437224,0.0482641
252,-643,0.359863,0.150391,0.0516844,0.0389143,0.0223942,0.0685861,0.0220126,0.646523,0.0404356,0.0412061,1476,1667,0.359803,-0.150383
259,-643,0.312012,0.380249,0.0485527,0.0408537,0.0227384,0.0677652,0.0216412,0.701546,0.0399663,0.0430397,1483,1667,0.31196,-0.38022
266,-643,0.310425,0.257324,0.0441031,0.0418109,0.0219821,0.064969,0.020945,0.759353,0.0382906,0.0442153,1490,1667,0.310445,-0.257311
273,-643,0.516602,0.151978,0,0,0,0,0,0,0,-1,1497,1667,0.516566,-0.151965
280,-643,0.366455,0.975708,0,0,0,0,0,0,0,-1,1504,1667,0.366439,-0.975737
287,-643,-0.0594482,0.372559,0,0,0,0,0,0,0,-1,1511,1667,-0.0594731,-0.372522
294,-643,0.360107,0.0539551,0,0,0,0,0,0,0,-1,1518,1667,0.360157,-0.0539689
301,-643,-0.258057,-0.0427246,0.0132017,0.0342958,0.00925185,0.0377786,0.00971888,1.21076,0.0226521,0.0348897,1525,1667,-0.258016,0.0426987
308,-643,-0.207764,-0.000488281,0.00693982,0.0307136,0.0067376,0.0324902,0.00516313,1.31297,0.0201607,0.0278223,1532,1667,-0.207766,0.000507257
315,-643,-0.113281,-0.0113525,0.00264664,0.0244637,0.00344485,0.0249947,0.00211564,1.41785,0.0160046,0.0223244,1539,1667,-0.113226,0.0113141
322,-643,-0.0744629,-0.0585938,0.00126173,0.0187153,0.00195808,0.0189322,0.00104475,1.46044,0.012288,0.0139519,1546,1667,-0.0744135,0.058651
329,-643,-0.0897217,-0.0792236,0.000941612,0.0146841,0.0018491,0.0149285,0.000697158,1.43936,0.0097283,0.0108959,1553,1667,-0.0897567,0.0792049
336,-643,-0.0968018,-0.0620117,0.000118315,0.0112372,0.0015993,0.0114626,-0.000107151,1.43074,0.00767773,0.0098399,1560,1667,-0.0968355,0.0620067
343,-643,-0.0958252,-0.0626221,-0.00165461,0.00824433,0.00108597,0.00836207,-0.00177235,1.4628,0.00624983,0.0121074,1567,1667,-0.0957891,0.0626763
350,-643,-0.0744629,-0.0688477,-0.00191178,0.00603888,0.000936656,0.00614774,-0.00202063,1.4551,0.00491256,0.0116975,1574,1667,-0.0745236,0.0688977
357,-643,-0.0609131,-0.0616455,-0.00143139,0.00472545,0.000930952,0.00486313,-0.00156908,1.42396,0.00387256,0.00998002,1581,1667,-0.0609019,0.0616083
364,-643,-0.0655518,-0.0673828,-0.00115262,0.0035217,0.000791005,0.00365193,-0.00128285,1.40762,0.00295651,0.00882698,1588,1667,-0.0655684,0.0674298
371,-643,-0.0743408,-0.0527344,-0.00116513,0.00293991,0.000468753,0.00299276,-0.00121798,1.45853,0.00250202,0.00751967,1595,1667,-0.0743827,0.0527325
378,-643,-0.0800781,-0.032959,-0.000912518,0.00248617,0.00016936,0.00249458,-0.000920936,1.52113,0.00204053,0.00929644,1602,1667,-0.0801007,0.032986
385,-643,-0.06604,-0.0280762,-0.000363119,0.00194841,2.99383e-05,0.0019488,-0.000363506,1.55785,0.00143579,0.0141645,1609,1667,-0.0660962,0.0280228
392,-643,-0.0587158,-0.045166,7.18802e-05,0.0013076,-0.000134252,0.00132202,5.74628e-05,-1.46382,0.000862831,0.0147059,1616,1667,-0.0587019,0.0451309
399,-643,-0.0549316,-0.0445557,0.000468435,0.000972383,-0.000190192,0.0010361,0.000404713,-1.24751,0.000602949,0.0126867,1623,1667,-0.0549178,0.0445654
406,-643,-0.0651855,-0.0581055,0.000905491,0.000327149,-0.000427728,0.00113263,0.000100015,-0.488158,0.000724051,0.0113401,1630,1667,-0.0651443,0.0581338
413,-643,-0.0681152,-0.0661621,0.00110633,-0.00033077,-0.000905947,0.00154409,-0.000768531,-0.450124,0.00135999,0.0149405,1637,1667,-0.0680856,0.0662173
420,-643,-0.0888672,-0.0819092,0.000797831,-0.000836788,-0.0010291,0.00129469,-0.00133365,-0.449801,0.00151752,0.0152866,1644,1667,-0.0888943,0.0818762
427,-643,-0.088623,-0.0760498,0.000366162,-0.00175275,-0.000593206,0.00052093,-0.00190752,-0.255212,0.00147628,0.0133702,1651,1667,-0.0885723,0.0760167
434,-643,-0.0749512,-0.0552979,0.000649821,-0.00320902,-5.13405e-05,0.000650504,-0.0032097,-0.0133015,0.00238637,0.0137183,1658,1667,-0.0749137,0.0552499
441,-643,-0.0574951,-0.0622559,0.000952389,-0.00446075,-0.000208242,0.000960388,-0.00446875,-0.038394,0.00334557,0.013257,1665,1667,-0.0574376,0.0622766
448,-643,-0.074585,-0.0825195,0.00241466,-0.00584342,-0.000335706,0.00242828,-0.00585705,-0.0405626,0.00491818,0.0160631,1672,1667,-0.0745678,0.0825777
455,-643,-0.12793,-0.10376,0.00528899,-0.00699319,-0.000757934,0.00533559,-0.00703979,-0.0613996,0.00716747,0.0231615,1679,1667,-0.127923,0.103777
462,-643,-0.175659,-0.188354,0.00715356,-0.00771354,-0.00136526,0.00727789,-0.00783787,-0.0908188,0.00872909,0.0324163,1686,1667,-0.175668,0.188354
469,-643,-0.214722,-0.191772,0.00954903,-0.00722893,-0.00243336,0.00989482,-0.00757472,-0.141159,0.0101156,0.036378,1693,1667,-0.214673,0.191777
476,-643,-0.492554,0.191528,0.0133265,-0.00684215,-0.00382168,0.0140263,-0.00754202,-0.181125,0.0126387,0.0407561,1700,1667,-0.492507,-0.191576
483,-643,-0.52063,0.660034,0.0174072,-0.00546297,-0.00589761,0.0188385,-0.00689424,-0.238083,0.015381,0.0431317,1707,1667,-0.520587,-0.660008
490,-643,0.332886,0.130859,0.0212081,-0.00266741,-0.00862952,0.0240005,-0.00545985,-0.312958,0.018097,0.0421751,1714,1667,0.332917,-0.130846
497,-643,0.262329,-0.304077,0.0244664,0.00125362,-0.0118081,0.0294171,-0.00369711,-0.397005,0.0209528,0.0411633,1721,1667,0.262326,0.30408
504,-643,2.20398,-0.196167,0.0265148,0.00613799,-0.0154769,0.0348558,-0.00220301,-0.494305,0.0240053,0.0478768,1728,1667,2.20404,0.196188
511,-643,1.11743,-1.28467,0,0,0,0,0,0,0,-1,1735,1667,1.11737,1.28464
518,-643,0.704102,-1.99548,0,0,0,0,0,0,0,-1,1742,1667,0.704051,1.99554
525,-643,0,0,0,0,0,0,0,0,0,-1,1749,1667,0,0
532,-643,0,0,0,0,0,0,0,0,0,-1,1756,1667,0,0
539,-643,0,0,0,0,0,0,0,0,0,-1,1763,1667,0,0
546,-643,0,0,0,0,0,0,0,0,0,-1,1770,1667,0,0
553,-643,0,0,0,0,0,0,0,0,0,-1,1777,1667,0,0
560,-643,0,0,0,0,0,0,0,0,0,-1,1784,1667,0,0
567,-643,0,0,0,0,0,0,0,0,0,-1,1791,1667,0,0
574,-643,0,0,0,0,0,0,0,0,0,-1,1798,1667,0,0
581,-643,0,0,0,0,0,0,0,0,0,-1,1805,1667,0,0
588,-643,0,0,0,0,0,0,0,0,0,-1,1812,1667,0,0
595,-643,0,0,0,0,0,0,0,0,0,-1,1819,1667,0,0
602,-643,0,0,0,0,0,0,0,0,0,-1,1826,1667,0,0
609,-643,0,0,0,0,0,0,0,0,0,-1,1833,1667,0,0
616,-643,0,0,0,0,0,0,0,0,0,-1,1840,1667,0,0
623,-643,0,0,0,0,0,0,0,0,0,-1,1847,1667,0,0
630,-643,0,0,0,0,0,0,0,0,0,-1,1854,1667,0,0
637,-643,0,0,0,0,0,0,0,0,0,-1,1861,1667,0,0
644,-643,0,0,0,0,0,0,0,0,0,-1,1868,1667,0,0
651,-643,0,0,0,0,0,0,0,0,0,-1,1875,1667,0,0
658,-643,0,0,0,0,0,0,0,0,0,-1,1882,1667,0,0
665,-643,0,0,0,0,0,0,0,0,0,-1,1889,1667,0,0
672,-643,0,0,0,0,0,0,0,0,0,-1,1896,1667,0,0
679,-643,0,0,0,0,0,0,0,0,0,-1,1903,1667,0,0
686,-643,0,0,0,0,0,0,0,0,0,-1,1910,1667,0,0
693,-643,0,0,0,0,0,0,0,0,0,-1,1917,1667,0,0
700,-643,0,0,0,0,0,0,0,0,0,-1,1924,1667,0,0
707,-643,0,0,0,0,0,0,0,0,0,-1,1931,1667,0,0
714,-643,0,0,0,0,0,0,0,0,0,-1,1938,1667,0,0
721,-643,0,0,0,0,0,0,0,0,0,-1,1945,1667,0,0
728,-643,0,0,0,0,0,0,0,0,0,-1,1952,1667,0,0
735,-643,0,0,0,0,0,0,0,0,0,-1,1959,1667,0,0
742,-643,0,0,0,0,0,0,0,0,0,-1,1966,1667,0,0
749,-643,0,0,0,0,0,0,0,0,0,-1,1973,1667,0,0
756,-643,0,0,0,0,0,0,0,0,0,-1,1980,1667,0,0
763,-643,0,0,0,0,0,0,0,0,0,-1,1987,1667,0,0
770,-643,0,0,0,0,0,0,0,0,0,-1,1994,1667,0,0
777,-643,0,0,0,0,0,0,0,0,0,-1,2001,1667,0,0
784,-643,0,0,0,0,0,0,0,0,0,-1,2008,1667,0,0
791,-643,0,0,0,0,0,0,0,0,0,-1,2015,1667,0,0
798,-643,0,0,0,0,0,0,0,0,0,-1,2022,1667,0,0
805,-643,0,0,0,0,0,0,0,0,0,-1,2029,1667,0,0
812,-643,0,0,0,0,0,0,0,0,0,-1,2036,1667,0,0
-700,-650,0,0,0,0,0,0,0,0,0,-1,524,1674,0,0
-693,-650,0,0,0,0,0,0,0,0,0,-1,531,1674,0,0
-686,-650,0,0,0,0,0,0,0,0,0,-1,538,1674,0,0
-679,-650,0,0,0,0,0,0,0,0,0,-1,545,1674,0,0
-672,-650,0,0,0,0,0,0,0,0,0,-1,552,1674,0,0
-665,-650,0,0,0,0,0,0,0,0,0,-1,559,1674,0,0
-658,-650,0,0,0,0,0,0,0,0,0,-1,566,1674,0,0
-651,-650,0,0,0,0,0,0,0,0,0,-1,573,1674,0,0
-644,-650,0,0,0,0,0,0,0,0,0,-1,580,1674,0,0
-637,-650,0,0,0,0,0,0,0,0,0,-1,587,1674,0,0
-630,-650,0,0,0,0,0,0,0,0,0,-1,594,1674,0,0
-623,-650,0,0,0,0,0,0,0,0,0,-1,601,1674,0,0
-616,-650,0,0,0,0,0,0,0,0,0,-1,608,1674,0,0
-609,-650,0,0,0,0,0,0,0,0,0,-1,615,1674,0,0
-602,-650,0,0,0,0,0,0,0,0,0,-1,622,1674,0,0
-595,-650,0,0,0,0,0,0,0,0,0,-1,629,1674,0,0
-588,-650,0,0,0,0,0,0,0,0,0,-1,636,1674,0,0
-581,-650,0,0,0,0,0,0,0,0,0,-1,643,1674,0,0
-574,-650,0,0,0,0,0,0,0,0,0,-1,650,1674,0,0
-567,-650,0,0,0,0,0,0,0,0,0,-1,657,1674,0,0
-560,-650,0,0,0,0,0,0,0,0,0,-1,664,1674,0,0
-553,-650,0,0,0,0,0,0,0,0,0,-1,671,1674,0,0
-546,-650,0,0,0,0,0,0,0,0,0,-1,678,1674,0,0
-539,-650,0,0,0,0,0,0,0,0,0,-1,685,1674,0,0
-532,-650,0,0,0,0,0,0,0,0,0,-1,692,1674,0,0
-525,-650,0,0,0,0,0,0,0,0,0,-1,699,1674,0,0
-518,-650,0,0,0,0,0,0,0,0,0,-1,706,1674,0,0
-511,-650,0,0,0,0,0,0,0,0,0,-1,713,1674,0,0
-504,-650,0,0,0,0,0,0,0,0,0,-1,720,1674,0,0
-497,-650,0,0,0,0,0,0,0,0,0,-1,727,1674,0,0
-490,-650,0,0,0,0,0,0,0,0,0,-1,734,1674,0,0
-483,-650,0,0,0,0,0,0,0,0,0,-1,741,1674,0,0
-476,-650,0,0,0,0,0,0,0,0,0,-1,748,1674,0,0
-469,-650,0,0,0,0,0,0,0,0,0,-1,755,1674,0,0
-462,-650,0,0,0,0,0,0,0,0,0,-1,762,1674,0,0
-455,-650,0,0,0,0,0,0,0,0,0,-1,769,1674,0,0
-448,-650,0,0,0,0,0,0,0,0,0,-1,776,1674,0,0
-441,-650,0,0,0,0,0,0,0,0,0,-1,783,1674,0,0
-434,-650,0,0,0,0,0,0,0,0,0,-1,790,1674,0,0
-427,-650,0,0,0,0,0,0,0,0,0,-1,797,1674,0,0
-420,-650,0,0,0,0,0,0,0,0,0,-1,804,1674,0,0
-413,-650,0,0,0,0,0,0,0,0,0,-1,811,1674,0,0
-406,-650,0,0,0,0,0,0,0,0,0,-1,818,1674,0,0
-399,-650,0,0,0,0,0,0,0,0,0,-1,825,1674,0,0
-392,-650,0.0249634,-0.193848,0.0349848,0.0521221,-0.0432348,0.0876292,-0.000522271,-0.883225,0.0585943,0.0410427,832,1674,0.0249534,0.193883
-385,-650,0.380005,-1.34399,0.0272302,0.0498219,-0.0351365,0.0754336,0.00161856,-0.940923,0.0497583,0.0448282,839,1674,0.380025,1.34397
-378,-650,0.50354,-2.53455,0.0213862,0.0458219,-0.0249467,0.061382,0.00582606,-1.01311,0.0391242,0.0490829,846,1674,0.50352,2.53457
-371,-650,0.690613,-3.76697,0,0,0,0,0,0,0,-1,853,1674,0.690603,3.76696
-364,-650,0.491699,-0.909302,0.0133186,0.0360913,-0.00897338,0.0392022,0.0102077,-1.23708,0.0234838,0.0455241,860,1674,0.49171,0.909244
-357,-650,0.421265,-0.737793,0.0100342,0.0301212,-0.00323463,0.0306292,0.00952612,-1.41501,0.0180999,0.0468634,867,1674,0.421264,0.737764
-350,-650,-0.118835,-0.26001,0.00760189,0.0253057,0.00153467,0.0254378,0.00746984,1.48496,0.0150976,0.0464337,874,1674,-0.118814,0.26002
-343,-650,-0.320679,-0.532593,0.00531102,0.0212557,0.00499109,0.0226891,0.00387755,1.29112,0.0140136,0.0453629,881,1674,-0.320653,0.532603
-336,-650,-0.250122,-0.31189,0,0,0,0,0,0,0,-1,888,1674,-0.250129,0.311924
-329,-650,-0.031189,-0.312866,0,0,0,0,0,0,0,-1,895,1674,-0.0312192,0.312924
-322,-650,-0.0822144,-0.266724,0.0014852,0.00858006,0.00941432,0.0150931,-0.00502787,0.965577,0.0120917,0.040287,902,1674,-0.0822018,0.266717
-315,-650,-0.124084,-0.21814,0.00144636,0.00721732,0.007853,0.0126982,-0.0040345,0.96146,0.010083,0.0366354,909,1674,-0.124069,0.218085
-308,-650,-0.108459,-0.128174,0.00151222,0.00530062,0.00659953,0.0102724,-0.00345957,0.925152,0.00824699,0.0212494,916,1674,-0.108462,0.128124
-301,-650,-0.072998,-0.0776367,0.00186106,0.00381842,0.00514966,0.00808157,-0.0024021,0.879302,0.00634191,0.0115555,923,1674,-0.0729729,0.077652
-294,-650,-0.0569458,-0.0878906,0.00208613,0.00278975,0.00371675,0.0061713,-0.00129543,0.832585,0.00460712,0.00900726,930,1674,-0.0569264,0.0879426
-287,-650,-0.0792847,-0.0782471,0.00194614,0.00174905,0.00250121,0.00435074,-0.000655556,0.765709,0.00314189,0.0122226,937,1674,-0.0792907,0.078269
-280,-650,-0.0812988,-0.079834,0.00139154,0.000876615,0.00147491,0.00263129,-0.000363131,0.698988,0.00188692,0.0132039,944,1674,-0.0813238,0.079879
-273,-650,-0.0879517,-0.0852051,0.000856168,0.000297317,0.000393488,0.00105935,9.41335e-05,0.476654,0.000677041,0.0123695,951,1674,-0.0879359,0.085244
-266,-650,-0.102478,-0.0686035,0.000425413,2.73136e-06,-0.000339173,0.000613701,-0.000185557,-0.50678,0.000483017,0.0104157,958,1674,-0.102453,0.0685966
-259,-650,-0.0749512,-0.0836182,0.000293452,-0.000435727,-0.000678816,0.000699393,-0.000841667,-0.538957,0.000890995,0.0129267,965,1674,-0.0749496,0.083677
-252,-650,-0.0736084,-0.0734863,0.000461823,-0.000473525,-0.000908011,0.00101552,-0.00102722,-0.547589,0.00117939,0.0118728,972,1674,-0.0735997,0.0734324
-245,-650,-0.0675049,-0.0570068,0.000690583,-0.000381109,-0.00103338,0.00131878,-0.00100931,-0.546214,0.00134808,0.0111013,979,1674,-0.0675002,0.0570504
-238,-650,-0.0536499,-0.0661621,0.000927317,-0.000246742,-0.000943035,0.00145111,-0.000770532,-0.507002,0.00130257,0.0123822,986,1674,-0.0536657,0.0661833
-231,-650,-0.0620728,-0.048584,0.0011461,-0.000192272,-0.000706097,0.00144973,-0.000495909,-0.406116,0.00116745,0.0164308,993,1674,-0.0620487,0.0486212
-224,-650,-0.0773926,-0.0471191,0.00156397,3.95693e-05,-0.000201133,0.00159006,1.34779e-05,-0.129001,0.00105558,0.0138247,1000,1674,-0.0773938,0.0470682
-217,-650,-0.0668335,-0.0587158,0.0019451,0.000213491,0.000533506,0.00209627,6.23162e-05,0.276123,0.00137721,0.00988483,1007,1674,-0.066861,0.0587546
-210,-650,-0.0614014,-0.0614014,0.00205221,7.85076e-05,0.00155467,0.00290679,-0.000776074,0.502602,0.00224179,0.00898762,1014,1674,-0.0614147,0.061458
-203,-650,-0.0535278,-0.0617676,0.00195382,-0.000123694,0.00273795,0.00384344,-0.00201331,0.60409,0.00343598,0.0133877,1021,1674,-0.0535139,0.0617535
-196,-650,-0.0512695,-0.0667725,0.00197424,-0.000136155,0.00367593,0.00474343,-0.00290535,0.645629,0.00445832,0.0126906,1028,1674,-0.0513236,0.0668166
-189,-650,-0.0700684,-0.0740967,0.00168674,-0.000691509,0.00462598,0.00527399,-0.00427876,0.659595,0.00552525,0.00995128,1035,1674,-0.0700394,0.0741386
-182,-650,-0.0837402,-0.0507813,0.00125895,-0.00112171,0.00567265,0.00586481,-0.00572757,0.681981,0.00669302,0.00877392,1042,1674,-0.0837132,0.0508176
-175,-650,-0.0646973,-0.0709229,0.000812187,-0.00164044,0.00632165,0.00602537,-0.00685362,0.689595,0.00744081,0.0137644,1049,1674,-0.0647321,0.0709558
-168,-650,-0.0863037,-0.0671387,0.00158309,-0.00142558,0.00607355,0.00633584,-0.00617833,0.663998,0.00722525,0.0185305,1056,1674,-0.0863115,0.0670922
-161,-650,-0.112671,-0.0400391,0.00248083,-0.000997261,0.0057923,0.00678951,-0.00530594,0.639562,0.0070008,0.0252602,1063,1674,-0.112638,0.0400429
-154,-650,-0.0938721,-0.0584717,0.00273249,-0.000577812,0.00485014,0.00620212,-0.00404745,0.620965,0.00596102,0.0274985,1070,1674,-0.0938604,0.0584676
-147,-650,-0.0687256,0.00354004,0.00236434,-0.000100742,0.00343586,0.00478204,-0.00251845,0.613184,0.00428194,0.035176,1077,1674,-0.068687,-0.00349241
-140,-650,-0.124146,0.0507813,0.00207127,0.000339274,0.00198219,0.00336837,-0.000957834,0.579449,0.0026238,0.0424066,1084,1674,-0.124137,-0.0508345
-133,-650,-0.0257568,-0.0102539,0,0,0,0,0,0,0,-1,1091,1674,-0.0257423,0.0102357
-126,-650,0.00500488,-0.00964355,0,0,0,0,0,0,0,-1,1098,1674,0.00499554,0.00968881
-119,-650,0.297241,-0.100952,0,0,0,0,0,0,0,-1,1105,1674,0.297225,0.100915
-112,-650,0.148804,-0.267212,0.00143251,0.00443858,-0.00180256,0.00528253,0.000588565,-1.13292,0.00334282,0.0456598,1112,1674,0.148767,0.26724
-105,-650,0.132568,-0.285156,0.00080964,0.00506887,-0.00212929,0.00595076,-7.22485e-05,-1.17814,0.00399147,0.0418092,1119,1674,0.132568,0.285136
-98,-650,0.191772,-0.343506,-0.000191302,0.0054797,-0.00208162,0.00616175,-0.00087336,-1.25416,0.00442776,0.0417584,1126,1674,0.191722,0.343523
-91,-650,0.0380859,-0.55249,-0.00159978,0.00504671,-0.00126693,0.00528002,-0.00183308,-1.38868,0.00426445,0.0454526,1133,1674,0.0381265,0.552493
-84,-650,-0.0367432,-0.59314,-0.00247182,0.00488828,-0.000532586,0.00492662,-0.00251016,-1.49893,0.00436852,0.0442611,1140,1674,-0.0367508,0.593181
-77,-650,0.130859,-0.157349,-0.00329317,0.00415735,-9.99706e-05,0.00415869,-0.00329451,-1.55738,0.00431274,0.0444064,1147,1674,0.130905,0.157395
-70,-650,0.233887,0.032959,-0.00414694,0.00387614,-0.000409202,0.00389695,-0.00416776,-1.51997,0.00465704,0.0456245,1154,1674,0.233935,-0.0329864
-63,-650,0.24646,0.113281,-0.0054982,0.00278201,-0.00107544,0.00291941,-0.0056356,-1.44372,0.00502153,0.044026,1161,1674,0.24648,-0.11326
-56,-650,0.184937,0.102051,0,0,0,0,0,0,0,-1,1168,1674,0.184925,-0.101997
-49,-650,0.0302734,0.596069,-0.0051407,0.00147997,-0.00374834,0.00317047,-0.0068312,-1.14711,0.00590199,0.0452465,1175,1674,0.0303132,-0.596051
-42,-650,-0.0950928,0.299194,-0.0048884,0.00112129,-0.00588287,0.00472229,-0.0084894,-1.02152,0.00773044,0.0425856,1182,1674,-0.0951336,-0.299194
-35,-650,-0.129517,0.30603,-0.00525034,0.000456967,-0.00899317,0.00703838,-0.0118318,-0.93903,0.0110112,0.0436684,1189,1674,-0.129492,-0.306062
-28,-650,-0.12207,0.200928,-0.00570469,0.00081552,-0.012106,0.0100927,-0.0149818,-0.916927,0.0145682,0.0448848,1196,1674,-0.122094,-0.200908
-21,-650,-0.262817,-0.0927734,-0.00578903,0.00240035,-0.0148471,0.013707,-0.0170957,-0.919949,0.0178198,0.0459603,1203,1674,-0.262859,0.0927851
-14,-650,-0.309692,-0.388672,-0.00273302,0.00427409,-0.0180829,0.0191898,-0.0176487,-0.881087,0.0212749,0.0482728,1210,1674,-0.309729,0.388622
-7,-650,-0.209961,-0.855225,0.0018039,0.00931414,-0.0202812,0.0261849,-0.0150668,-0.876938,0.0241033,0.0455283,1217,1674,-0.21,0.855202
0,-650,-0.290161,-0.970093,0.00692693,0.0114503,-0.0199847,0.0293009,-0.0109236,-0.841745,0.0240179,0.0407207,1224,1674,-0.290143,0.970071
7,-650,-0.742432,-1.14807,0,0,0,0,0,0,0,-1,1231,1674,-0.742423,1.14803
14,-650,-1.52014,-1.39905,0,0,0,0,0,0,0,-1,1238,1674,-1.52017,1.39902
21,-650,-1.43787,-1.30688,0.0238973,0.0214615,-0.0202778,0.0429938,0.00236507,-0.755404,0.0279076,0.0434215,1245,1674,-1.43783,1.30689
28,-650,-0.673096,-1.46497,0.0288017,0.0217206,-0.0177112,0.0433228,0.00719947,-0.686746,0.0268062,0.0459413,1252,1674,-0.67309,1.46499
35,-650,-0.133545,-1.67798,0,0,0,0,0,0,0,-1,1259,1674,-0.133491,1.67793
42,-650,0.750244,-2.00464,0.0346874,0.0154249,-0.00886962,0.0381493,0.011963,-0.372127,0.02253,0.0461675,1266,1674,0.750237,2.00459
49,-650,1.64087,-2.29248,0.0344117,0.0104344,-0.00390095,0.0350304,0.00981575,-0.157291,0.020866,0.0449455,1273,1674,1.64091,2.29247
56,-650,1.43811,-1.62781,0,0,0,0,0,0,0,-1,1280,1674,1.43816,1.62786
63,-650,1.24207,-1.3335,0.0313564,-0.00327729,0.0051212,0.0320978,-0.00401868,0.14377,0.0228561,0.0448374,1287,1674,1.24212,1.33344
70,-650,1.17651,-1.53625,0.0263351,-0.0113033,0.00848019,0.0281575,-0.0131257,0.211682,0.0243558,0.0452716,1294,1674,1.17654,1.53626
77,-650,1.02307,-1.9082,0.0195295,-0.016298,0.0117385,0.023033,-0.0198014,0.290039,0.0247539,0.0438835,1301,1674,1.02307,1.90823
84,-650,1.13428,-1.60168,0.0118269,-0.0191511,0.0136632,0.016992,-0.0243162,0.361424,0.0239739,0.0469089,1308,1674,1.13429,1.60167
91,-650,1.4928,-1.52026,0.00349136,-0.0194807,0.0181001,0.0134422,-0.0294316,0.502667,0.0253205,0.0499461,1315,1674,1.49283,1.52029
98,-650,1.96179,-1.50427,0,0,0,0,0,0,0,-1,1322,1674,1.96184,1.50433
105,-650,3.32092,-1.98425,0,0,0,0,0,0,0,-1,1329,1674,3.32096,1.9842
112,-650,0.454224,-1.21423,0,0,0,0,0,0,0,-1,1336,1674,0.454254,1.21427
119,-650,0.0045166,-1.22607,-0.0192674,-0.00195254,0.0332733,0.0237712,-0.0449911,0.912672,0.0403251,0.0471237,1343,1674,0.00457763,1.2261
126,-650,-0.472778,-1.42505,-0.0214755,0.00714387,0.0327946,0.0286148,-0.0429464,0.991118,0.0415912,0.0488506,1350,1674,-0.47283,1.42511
133,-650,-0.979858,-1.55994,-0.0229939,0.015277,0.0313816,0.0328971,-0.040614,1.05918,0.0425195,0.044946,1357,1674,-0.979826,1.55998
140,-650,-1.57104,-1.65247,0,0,0,0,0,0,0,-1,1364,1674,-1.5711,1.65252
147,-650,-3.14795,1.29053,-0.0258753,0.0290687,0.0280246,0.0408407,-0.0376473,1.17312,0.0453276,0.0475946,1371,1674,-3.14798,-1.29054
154,-650,-3.74219,2.34412,-0.0257183,0.0343617,0.0239892,0.042765,-0.0341215,1.23386,0.0444838,0.0494878,1378,1674,-3.74222,-2.34417
161,-650,0.453613,1.96887,0,0,0,0,0,0,0,-1,1385,1674,0.453567,-1.96886
168,-650,-0.910767,5.84705,0,0,0,0,0,0,0,-1,1392,1674,-0.910789,-5.84704
175,-650,-0.050293,2.36243,-0.0161091,0.0481176,0.00550168,0.0485855,-0.0165769,1.48596,0.0391052,0.0454521,1399,1674,-0.0503123,-2.36237
182,-650,-0.1521,2.57983,-0.0105179,0.0493581,-4.73647e-05,0.0493582,-0.010518,-1.57001,0.0369144,0.0453906,1406,1674,-0.152063,-2.57989
189,-650,-0.343628,2.75342,-0.00460023,0.0488225,-0.0043087,0.0491678,-0.0049455,-1.49083,0.0345452,0.0454032,1413,1674,-0.343568,-2.75341
196,-650,-0.257202,2.70862,0.00213684,0.0459961,-0.00717851,0.0471412,0.000991818,-1.41262,0.0311021,0.0441584,1420,1674,-0.257171,-2.70856
203,-650,-0.277954,2.3208,0.00906912,0.0417977,-0.00819595,0.0437354,0.00713141,-1.33864,0.0270945,0.0437247,1427,1674,-0.277951,-2.32086
210,-650,-0.394287,1.92944,0.0161483,0.039233,-0.00568633,0.0405576,0.0148236,-1.34192,0.0236967,0.0468846,1434,1674,-0.394262,-1.92945
217,-650,-0.716675,1.04846,0.0214837,0.037463,-0.00125707,0.0375613,0.0213854,-1.49277,0.0217554,0.0492939,1441,1674,-0.716684,-1.0484
224,-650,-1.0354,0.54834,0,0,0,0,0,0,0,-1,1448,1674,-1.03545,-0.5483
231,-650,0.0362549,0.261963,0,0,0,0,0,0,0,-1,1455,1674,0.036215,-0.261941
238,-650,-0.150757,-0.0386963,0.0320091,0.0316878,0.00975841,0.0416082,0.0220887,0.777167,0.0240377,0.0441938,1462,1674,-0.150787,0.0387209
245,-650,0.0310059,0.0670166,0.032655,0.0315112,0.0118508,0.0439477,0.0202185,0.761289,0.0254002,0.0397193,1469,1674,0.031065,-0.0669893
252,-650,0.301514,0.0965576,0.0315078,0.0312033,0.0133917,0.0447482,0.017963,0.779714,0.0260022,0.0387513,1476,1674,0.301533,-0.0966054
259,-650,0.43103,0.253296,0.0296685,0.0318554,0.0140003,0.0448049,0.016719,0.824372,0.0261441,0.0407228,1483,1674,0.431044,-0.253357
266,-650,0.421021,0.393799,0.0273459,0.0319815,0.0138651,0.0437212,0.0156063,0.868217,0.0255845,0.0404033,1490,1674,0.421033,-0.39378
273,-650,0.401978,0.534546,0.0235028,0.0317384,0.0128763,0.0411393,0.0141019,0.940157,0.02414,0.0467788,1497,1674,0.401938,-0.534557
280,-650,0.174561,0.531006,0,0,0,0,0,0,0,-1,1504,1674,0.174612,-0.531031
287,-650,0.0447998,0.209839,0.0150694,0.0296592,0.00878554,0.0337837,0.010945,1.13188,0.0199039,0.0383976,1511,1674,0.0447751,-0.20987
294,-650,0.0169678,0.00964355,0.0122421,0.0280202,0.00722383,0.0308279,0.00943441,1.20009,0.0182394,0.0331652,1518,1674,0.0169361,-0.00965219
301,-650,-0.135254,-0.0618896,0.00943941,0.0255347,0.00560837,0.0272962,0.00767796,1.26648,0.0162543,0.0233933,1525,1674,-0.135208,0.0619322
308,-650,-0.102539,-0.0678711,0.00678653,0.0226149,0.00412705,0.0236263,0.00577508,1.33046,0.0142222,0.0138555,1532,1674,-0.10257,0.0678428
315,-650,-0.0692139,-0.0526123,0.00440158,0.0179305,0.00212212,0.0182556,0.00407652,1.4188,0.0110648,0.00931532,1539,1674,-0.0692651,0.052571
322,-650,-0.0670166,-0.0601807,0.00309282,0.0135965,0.00111488,0.0137136,0.00297579,1.46621,0.00832956,0.00887655,1546,1674,-0.0670257,0.0601644
329,-650,-0.0758057,-0.0766602,0.00251206,0.0106043,0.00109413,0.0107496,0.00236673,1.43875,0.00652225,0.0146444,1553,1674,-0.0758342,0.0766374
336,-650,-0.0859375,-0.0581055,0.00148344,0.00825113,0.000928711,0.00837626,0.00135831,1.43687,0.00519098,0.0131729,1560,1674,-0.085997,0.0581236
343,-650,-0.0848389,-0.0430908,-0.000231989,0.00611478,0.000556106,0.00616314,-0.000280346,1.48406,0.00420533,0.0122066,1567,1674,-0.084793,0.0431472
350,-650,-0.069458,-0.0531006,-0.00068792,0.00466452,0.000453145,0.00470261,-0.000726013,1.48693,0.00340299,0.0142809,1574,1674,-0.0694683,0.0531055
357,-650,-0.0662842,-0.0565186,-0.0005028,0.00391505,0.000517319,0.00397482,-0.000562568,1.45577,0.00285593,0.0118623,1581,1674,-0.0662688,0.0565414
364,-650,-0.0755615,-0.0526123,-0.000460877,0.00323858,0.000427497,0.00328733,-0.000509635,1.45723,0.0023797,0.00838301,1588,1674,-0.0755488,0.0526057
371,-650,-0.0910645,-0.0483398,-0.000589152,0.00294167,0.000231253,0.00295675,-0.000604234,1.50567,0.00220041,0.0100935,1595,1674,-0.0910924,0.0483138
378,-650,-0.0826416,-0.0345459,-0.000394771,0.00273787,2.91884e-05,0.00273814,-0.000395043,1.56148,0.00197035,0.0118901,1602,1674,-0.0826552,0.0345435
385,-650,-0.0721436,-0.0358887,0.000132872,0.00237978,-6.98874e-05,0.00238195,0.0001307,-1.53973,0.00154624,0.0131123,1609,1674,-0.0721623,0.0359407
392,-650,-0.0535889,-0.0439453,0.000534337,0.00182929,-0.000247351,0.00187493,0.000488699,-1.38834,0.00112307,0.015834,1616,1674,-0.0536003,0.043918
399,-650,-0.0506592,-0.0362549,0.000937727,0.0014876,-0.000387145,0.0016875,0.000737825,-1.09415,0.000976835,0.0143772,1623,1674,-0.050618,0.0362652
406,-650,-0.0770264,-0.0419922,0.00151527,0.000682425,-0.000733003,0.00194187,0.000255816,-0.527081,0.0012183,0.0128157,1630,1674,-0.0769911,0.0420182
413,-650,-0.0755615,-0.0418701,0.00183533,-0.000233448,-0.00137008,0.00251764,-0.000915763,-0.462056,0.00205293,0.0133454,1637,1674,-0.075533,0.0418609
420,-650,-0.0969238,-0.0535889,0.00152126,-0.00102244,-0.0015835,0.00228043,-0.00178162,-0.447056,0.00235111,0.0142212,1644,1674,-0.0969805,0.0536228
427,-650,-0.0963135,-0.0600586,0.00103266,-0.00234518,-0.0011027,0.00136077,-0.00267328,-0.289206,0.00236979,0.0126401,1651,1674,-0.0962924,0.0601159
434,-650,-0.0809326,-0.0267334,0.00137791,-0.0042565,-0.000497177,0.00142145,-0.00430004,-0.08734,0.00343984,0.0147861,1658,1674,-0.0809518,0.0267081
441,-650,-0.0651855,-0.00732422,0.00173576,-0.00598486,-0.000640628,0.00178855,-0.00603766,-0.0822269,0.00473525,0.0230052,1665,1674,-0.065199,0.00735434
448,-650,-0.060791,-0.0114746,0.00314576,-0.00790428,-0.00072955,0.00319372,-0.00795224,-0.0656426,0.00662773,0.0323935,1672,1674,-0.0608296,0.0114657
455,-650,0.0855713,-0.160645,0.00605894,-0.00963032,-0.00102179,0.00612521,-0.00969659,-0.0647623,0.00921196,0.0378944,1679,1674,0.0855875,0.160593
462,-650,0.126099,-0.273071,0.00796625,-0.0108946,-0.00141535,0.00807187,-0.0110003,-0.0744858,0.0110545,0.0429922,1686,1674,0.12615,0.273072
469,-650,-0.220337,-0.282349,0.010569,-0.010878,-0.00217926,0.0107882,-0.0110972,-0.100246,0.012636,0.043104,1693,1674,-0.220278,0.282376
476,-650,-0.623291,0.280396,0.0148314,-0.0106607,-0.00339825,0.0152766,-0.0111059,-0.130276,0.0152953,0.0427765,1700,1674,-0.623315,-0.280408
483,-650,-0.92688,0.768433,0.0197844,-0.00930787,-0.00547482,0.0207806,-0.0103041,-0.179988,0.0182833,0.0431176,1707,1674,-0.926918,-0.768448
490,-650,0.643677,0.176636,0.0246333,-0.00626196,-0.00843624,0.0267868,-0.00841545,-0.249929,0.0212265,0.0430346,1714,1674,0.643667,-0.176615
497,-650,0.822754,0.0632324,0.0292018,-0.00162434,-0.0121916,0.0334407,-0.0058632,-0.334612,0.0244833,0.0393009,1721,1674,0.822804,-0.0632877
504,-650,2.62439,-0.111084,0,0,0,0,0,0,0,-1,1728,1674,2.62438,0.111087
511,-650,2.4624,0.60791,0,0,0,0,0,0,0,-1,1735,1674,2.46235,-0.607851
518,-650,0,0,0,0,0,0,0,0,0,-1,1742,1674,0,0
525,-650,0,0,0,0,0,0,0,0,0,-1,1749,1674,0,0
532,-650,0,0,0,0,0,0,0,0,0,-1,1756,1674,0,0
539,-650,0,0,0,0,0,0,0,0,0,-1,1763,1674,0,0
546,-650,0,0,0,0,0,0,0,0,0,-1,1770,1674,0,0
553,-650,0,0,0,0,0,0,0,0,0,-1,1777,1674,0,0
560,-650,0,0,0,0,0,0,0,0,0,-1,1784,1674,0,0
567,-650,0,0,0,0,0,0,0,0,0,-1,1791,1674,0,0
574,-650,0,0,0,0,0,0,0,0,0,-1,1798,1674,0,0
581,-650,0,0,0,0,0,0,0,0,0,-1,1805,1674,0,0
588,-650,0,0,0,0,0,0,0,0,0,-1,1812,1674,0,0
595,-650,0,0,0,0,0,0,0,0,0,-1,1819,1674,0,0
602,-650,0,0,0,0,0,0,0,0,0,-1,1826,1674,0,0
609,-650,0,0,0,0,0,0,0,0,0,-1,1833,1674,0,0
616,-650,0,0,0,0,0,0,0,0,0,-1,1840,1674,0,0
623,-650,0,0,0,0,0,0,0,0,0,-1,1847,1674,0,0
630,-650,0,0,0,0,0,0,0,0,0,-1,1854,1674,0,0
637,-650,0,0,0,0,0,0,0,0,0,-1,1861,1674,0,0
644,-650,0,0,0,0,0,0,0,0,0,-1,1868,1674,0,0
651,-650,0,0,0,0,0,0,0,0,0,-1,1875,1674,0,0
658,-650,0,0,0,0,0,0,0,0,0,-1,1882,1674,0,0
665,-650,0,0,0,0,0,0,0,0,0,-1,1889,1674,0,0
672,-650,0,0,0,0,0,0,0,0,0,-1,1896,1674,0,0
679,-650,0,0,0,0,0,0,0,0,0,-1,1903,1674,0,0
686,-650,0,0,0,0,0,0,0,0,0,-1,1910,1674,0,0
693,-650,0,0,0,0,0,0,0,0,0,-1,1917,1674,0,0
700,-650,0,0,0,0,0,0,0,0,0,-1,1924,1674,0,0
707,-650,0,0,0,0,0,0,0,0,0,-1,1931,1674,0,0
714,-650,0,0,0,0,0,0,0,0,0,-1,1938,1674,0,0
721,-650,0,0,0,0,0,0,0,0,0,-1,1945,1674,0,0
728,-650,0,0,0,0,0,0,0,0,0,-1,1952,1674,0,0
735,-650,0,0,0,0,0,0,0,0,0,-1,1959,1674,0,0
742,-650,0,0,0,0,0,0,0,0,0,-1,1966,1674,0,0
749,-650,0,0,0,0,0,0,0,0,0,-1,1973,1674,0,0
756,-650,0,0,0,0,0,0,0,0,0,-1,1980,1674,0,0
763,-650,0,0,0,0,0,0,0,0,0,-1,1987,1674,0,0
770,-650,0,0,0,0,0,0,0,0,0,-1,1994,1674,0,0
777,-650,0,0,0,0,0,0,0,0,0,-1,2001,1674,0,0
784,-650,0,0,0,0,0,0,0,0,0,-1,2008,1674,0,0
791,-650,0,0,0,0,0,0,0,0,0,-1,2015,1674,0,0
798,-650,0,0,0,0,0,0,0,0,0,-1,2022,1674,0,0
805,-650,0,0,0,0,0,0,0,0,0,-1,2029,1674,0,0
812,-650,0,0,0,0,0,0,0,0,0,-1,2036,1674,0,0
-700,-657,0,0,0,0,0,0,0,0,0,-1,524,1681,0,0
-693,-657,0,0,0,0,0,0,0,0,0,-1,531,1681,0,0
-686,-657,0,0,0,0,0,0,0,0,0,-1,538,1681,0,0
-679,-657,0,0,0,0,0,0,0,0,0,-1,545,1681,0,0
-672,-657,0,0,0,0,0,0,0,0,0,-1,552,1681,0,0
-665,-657,0,0,0,0,0,0,0,0,0,-1,559,1681,0,0
-658,-657,0,0,0,0,0,0,0,0,0,-1,566,1681,0,0
-651,-657,0,0,0,0,0,0,0,0,0,-1,573,1681,0,0
-644,-657,0,0,0,0,0,0,0,0,0,-1,580,1681,0,0
-637,-657,0,0,0,0,0,0,0,0,0,-1,587,1681,0,0
-630,-657,0,0,0,0,0,0,0,0,0,-1,594,1681,0,0
-623,-657,0,0,0,0,0,0,0,0,0,-1,601,1681,0,0
-616,-657,0,0,0,0,0,0,0,0,0,-1,608,1681,0,0
-609,-657,0,0,0,0,0,0,0,0,0,-1,615,1681,0,0
-602,-657,0,0,0,0,0,0,0,0,0,-1,622,1681,0,0
-595,-657,0,0,0,0,0,0,0,0,0,-1,629,1681,0,0
-588,-657,0,0,0,0,0,0,0,0,0,-1,636,1681,0,0
-581,-657,0,0,0,0,0,0,0,0,0,-1,643,1681,0,0
-574,-657,0,0,0,0,0,0,0,0,0,-1,650,1681,0,0
-567,-657,0,0,0,0,0,0,0,0,0,-1,657,1681,0,0
-560,-657,0,0,0,0,0,0,0,0,0,-1,664,1681,0,0
-553,-657,0,0,0,0,0,0,0,0,0,-1,671,1681,0,0
-546,-657,0,0,0,0,0,0,0,0,0,-1,678,1681,0,0
-539,-657,0,0,0,0,0,0,0,0,0,-1,685,1681,0,0
-532,-657,0,0,0,0,0,0,0,0,0,-1,692,1681,0,0
-525,-657,0,0,0,0,0,0,0,0,0,-1,699,1681,0,0
-518,-657,0,0,0,0,0,0,0,0,0,-1,706,1681,0,0
-511,-657,0,0,0,0,0,0,0,0,0,-1,713,1681,0,0
-504,-657,0,0,0,0,0,0,0,0,0,-1,720,1681,0,0
-497,-657,0,0,0,0,0,0,0,0,0,-1,727,1681,0,0
-490,-657,0,0,0,0,0,0,0,0,0,-1,734,1681,0,0
-483,-657,0,0,0,0,0,0,0,0,0,-1,741,1681,0,0
-476,-657,0,0,0,0,0,0,0,0,0,-1,748,1681,0,0
-469,-657,0,0,0,0,0,0,0,0,0,-1,755,1681,0,0
-462,-657,0,0,0,0,0,0,0,0,0,-1,762,1681,0,0
-455,-657,0,0,0,0,0,0,0,0,0,-1,769,1681,0,0
-448,-657,0,0,0,0,0,0,0,0,0,-1,776,1681,0,0
-441,-657,0,0,0,0,0,0,0,0,0,-1,783,1681,0,0
-434,-657,0,0,0,0,0,0,0,0,0,-1,790,1681,0,0
-427,-657,0,0,0,0,0,0,0,0,0,-1,797,1681,0,0
-420,-657,0,0,0,0,0,0,0,0,0,-1,804,1681,0,0
-413,-657,0,0,0,0,0,0,0,0,0,-1,811,1681,0,0
-406,-657,0,0,0,0,0,0,0,0,0,-1,818,1681,0,0
-399,-657,0,0,0,0,0,0,0,0,0,-1,825,1681,0,0
-392,-657,0,0,0,0,0,0,0,0,0,-1,832,1681,0,0
-385,-657,-0.279358,-1.16528,0,0,0,0,0,0,0,-1,839,1681,-0.279375,1.1653
-378,-657,-0.409363,-2.33704,0,0,0,0,0,0,0,-1,846,1681,-0.409344,2.33702
-371,-657,0.483093,-1.24695,0,0,0,0,0,0,0,-1,853,1681,0.483106,1.24694
-364,-657,0.388428,-1.12048,0.0169885,0.0398131,-0.00705413,0.0418172,0.0149844,-1.29398,0.0244641,0.046729,860,1681,0.388449,1.12043
-357,-657,0.323669,-0.934204,0.0132242,0.0336335,-0.0012776,0.0337132,0.0131446,-1.50852,0.019621,0.0468888,867,1681,0.323665,0.934147
-350,-657,-0.224731,-0.165161,0,0,0,0,0,0,0,-1,874,1681,-0.224762,0.165118
-343,-657,-0.448914,-0.447021,0,0,0,0,0,0,0,-1,881,1681,-0.448893,0.447004
-336,-657,-0.0925903,-2.74414,0,0,0,0,0,0,0,-1,888,1681,-0.0925802,2.74413
-329,-657,-0.093689,-1.96313,0,0,0,0,0,0,0,-1,895,1681,-0.0936918,1.96316
-322,-657,-0.650513,-0.406982,0,0,0,0,0,0,0,-1,902,1681,-0.650536,0.406925
-315,-657,-0.431824,-0.32605,0.00263111,0.00886576,0.00948289,0.0157306,-0.0042337,0.9442,0.0121468,0.0404162,909,1681,-0.431805,0.326021
-308,-657,-0.203857,-0.265259,0.00248857,0.00664412,0.00784845,0.0126852,-0.00355248,0.914798,0.0098567,0.0343704,916,1681,-0.20383,0.265235
-301,-657,-0.0449829,-0.126587,0.00260579,0.0048801,0.00598329,0.00983334,-0.00234744,0.879306,0.00746215,0.0275608,923,1681,-0.0450077,0.126631
-294,-657,-0.0733032,-0.0812988,0.00261523,0.00357238,0.00417993,0.00730105,-0.00111344,0.842396,0.00527781,0.0150091,930,1681,-0.0732845,0.0812921
-287,-657,-0.0837402,-0.0738525,0.00227622,0.00229881,0.00262361,0.00491114,-0.000336118,0.787551,0.00339169,0.0100851,937,1681,-0.083734,0.0738855
-280,-657,-0.0831299,-0.086792,0.00159653,0.0012131,0.00132777,0.00274635,6.32801e-05,0.713701,0.00181018,0.0112683,944,1681,-0.0831232,0.0867601
-273,-657,-0.0773926,-0.0928955,0.000955806,0.000431862,-1.54441e-05,0.000956261,0.000431407,-0.0294424,0.000552976,0.00846725,951,1681,-0.0773761,0.0928544
-266,-657,-0.0855713,-0.0698242,0.000377743,8.1591e-05,-0.000886118,0.00112807,-0.000668739,-0.70261,0.00104863,0.0127439,958,1681,-0.085561,0.0697777
-259,-657,-0.0911865,-0.0765381,0.000156422,-0.000442378,-0.00126188,0.00115393,-0.00143989,-0.668919,0.00150057,0.0169917,965,1681,-0.0911658,0.0765507
-252,-657,-0.0759277,-0.0712891,0.000276904,-0.000477298,-0.00150879,0.001455,-0.0016554,-0.662939,0.00179703,0.0122188,972,1681,-0.0759247,0.0713083
-245,-657,-0.0848999,-0.050293,0.00038581,-0.000352351,-0.00160686,0.00166543,-0.00163197,-0.672511,0.00190379,0.0138614,979,1681,-0.0849073,0.0503531
-238,-657,-0.0443726,-0.0911865,0.000455078,-0.000152486,-0.00148233,0.00166443,-0.00136184,-0.68433,0.00175013,0.0188809,986,1681,-0.0443903,0.0911551
-231,-657,-0.0524902,-0.0598145,0.000483766,-6.00034e-05,-0.00114612,0.0013898,-0.000966042,-0.668939,0.00136746,0.019899,993,1681,-0.0524816,0.0598224
-224,-657,-0.0779419,-0.0412598,0.000703709,0.000286802,-0.000583305,0.00111469,-0.000124178,-0.613787,0.000787788,0.015129,1000,1681,-0.0779345,0.0412556
-217,-657,-0.0687866,-0.0461426,0.000865725,0.000547933,0.000176526,0.000944335,0.000469322,0.418955,0.000545215,0.00938688,1007,1681,-0.068762,0.0461719
-210,-657,-0.0579834,-0.0489502,0.000883675,0.000555365,0.00108127,0.00181318,-0.000374135,0.710065,0.00135088,0.00997936,1014,1681,-0.0579944,0.0489827
-203,-657,-0.0552979,-0.0422363,0.000816355,0.000487458,0.00209224,0.0027506,-0.00144679,0.746179,0.00246203,0.0126195,1021,1681,-0.0553255,0.0422332
-196,-657,-0.0401611,-0.0531006,0.000839771,0.000537496,0.00287997,0.00357256,-0.00219529,0.759183,0.00336157,0.0133147,1028,1681,-0.04021,0.0531547
-189,-657,-0.0549316,-0.0578613,0.000641696,0.000144202,0.00361851,0.00402,-0.0032341,0.751081,0.00419634,0.0102103,1035,1681,-0.0548833,0.0578472
-182,-657,-0.0703125,-0.0632324,0.000385814,-0.00017177,0.00444667,0.00456242,-0.00434838,0.754091,0.00514515,0.00851943,1042,1681,-0.0703054,0.0632199
-175,-657,-0.0571289,-0.0720215,8.58043e-05,-0.000523752,0.00495246,0.00474285,-0.0051808,0.754667,0.00573128,0.00942463,1049,1681,-0.0570925,0.0720645
-168,-657,-0.0689697,-0.0717773,0.000587259,-0.000335392,0.00472355,0.00487195,-0.00462009,0.73672,0.00548087,0.0105191,1056,1681,-0.0689346,0.071818
-161,-657,-0.0797119,-0.0714111,0.00125841,-5.60686e-05,0.00445026,0.0050997,-0.00389736,0.712085,0.00520989,0.0100095,1063,1681,-0.0796523,0.0713884
-154,-657,-0.108765,-0.0628662,0.00154787,0.000208775,0.00370249,0.00464087,-0.00288422,0.695946,0.00438389,0.00971226,1070,1681,-0.108753,0.0628853
-147,-657,-0.114868,-0.06604,0.00135358,0.000478001,0.00259186,0.00354436,-0.00171278,0.701733,0.00309601,0.0138785,1077,1681,-0.114897,0.0660716
-140,-657,-0.110474,-0.0269775,0.00123127,0.000635932,0.00143338,0.00239757,-0.000530361,0.683018,0.00180138,0.0242029,1084,1681,-0.110496,0.02702
-133,-657,-0.0427246,-0.0418701,0.00136237,0.00159965,0.00023822,0.00174714,0.00121488,1.01643,0.00103406,0.0337686,1091,1681,-0.0427072,0.0418883
-126,-657,0.0241699,-0.0579834,0.00149877,0.00220129,-0.000273313,0.0022951,0.00140496,-1.24018,0.00133614,0.0374377,1098,1681,0.0241991,0.0579918
-119,-657,-0.14209,-0.00952148,0.00139043,0.00300964,-0.000853756,0.00337662,0.00102345,-1.16483,0.00199925,0.0448257,1105,1681,-0.142075,0.00950017
-112,-657,-0.116821,-0.120483,0.0010814,0.00355731,-0.00117148,0.00402373,0.00061498,-1.19189,0.00250281,0.0436928,1112,1681,-0.116773,0.120507
-105,-657,-0.0601807,-0.138062,0.000721257,0.00399655,-0.00133974,0.00447475,0.000243064,-1.22796,0.00290553,0.0423146,1119,1681,-0.0601723,0.138121
-98,-657,0.010376,-0.283203,8.84283e-05,0.0043219,-0.00121315,0.0046449,-0.000234572,-1.31058,0.00317768,0.0393969,1126,1681,0.0103316,0.283199
-91,-657,0.0114746,-0.455566,-0.00085768,0.00401502,-0.000477725,0.00406142,-0.000904075,-1.47398,0.00305391,0.0392459,1133,1681,0.0114525,0.455626
-84,-657,0.128296,-0.50354,-0.0014197,0.00396868,0.000184766,0.00397501,-0.00142603,1.53656,0.00323197,0.0397828,1140,1681,0.12828,0.503595
-77,-657,0.310303,-0.112061,-0.00192129,0.00349143,0.000592434,0.00355551,-0.00198537,1.46304,0.00324156,0.0416138,1147,1681,0.31036,0.112082
-70,-657,0.36853,0.0471191,0,0,0,0,0,0,0,-1,1154,1681,0.36858,-0.0471709
-63,-657,0.242432,0.0761719,-0.00344278,0.00247343,-0.000109718,0.00247547,-0.00344482,-1.55226,0.00343332,0.0452591,1161,1681,0.242382,-0.0761191
-56,-657,0.121948,0.0892334,-0.00356534,0.0022602,-0.0012094,0.00250129,-0.00380644,-1.37402,0.00366766,0.0403975,1168,1681,0.121934,-0.0892414
-49,-657,0.0166016,0.15564,-0.0033811,0.0013434,-0.00246712,0.00239683,-0.00443453,-1.16724,0.00400215,0.0468883,1175,1681,0.0166603,-0.15559
-42,-657,-0.141479,0.316406,-0.00344142,0.000657441,-0.00453418,0.00358385,-0.00636783,-0.997654,0.00582006,0.0467005,1182,1681,-0.141468,-0.316457
-35,-657,-0.126221,0.392822,-0.00383015,-0.00043336,-0.00740916,0.00546957,-0.00973308,-0.898066,0.00889157,0.0443174,1189,1681,-0.12619,-0.392811
-28,-657,-0.0319824,0.463989,-0.00414421,-0.000698411,-0.0102382,0.00796082,-0.0128034,-0.868758,0.0120964,0.0453234,1196,1681,-0.031968,-0.463994
-21,-657,0.0683594,0.47168,-0.004046,5.80223e-05,-0.0127272,0.0108975,-0.0148855,-0.865326,0.0149451,0.0430074,1203,1681,0.0683787,-0.471683
-14,-657,-0.168335,-0.423706,0,0,0,0,0,0,0,-1,1210,1681,-0.16831,0.423701
-7,-657,-0.178711,-0.841431,0,0,0,0,0,0,0,-1,1217,1681,-0.178695,0.841452
0,-657,-1.25354,-0.478516,0.00744213,0.00596793,-0.0164092,0.0231308,-0.00972071,-0.762953,0.0194864,0.0420831,1224,1681,-1.25357,0.478488
7,-657,-1.46143,-1.55945,0.0126096,0.00900113,-0.0166429,0.0275457,-0.00593502,-0.731405,0.0206287,0.0417092,1231,1681,-1.4614,1.55949
14,-657,-1.48145,-2.00439,0.0179594,0.0118414,-0.0163485,0.0315326,-0.0017318,-0.692912,0.0216222,0.0402998,1238,1681,-1.48149,2.00436
21,-657,-1.23889,-2.07751,0.0228321,0.012967,-0.0147166,0.0334208,0.00237833,-0.623698,0.0215316,0.0419808,1245,1681,-1.23886,2.07756
28,-657,-1.01855,-1.9895,0.0271797,0.0130106,-0.011895,0.0339401,0.00625019,-0.516812,0.0208579,0.0423664,1252,1681,-1.01852,1.9895
35,-657,0.217041,-2.16321,0,0,0,0,0,0,0,-1,1259,1681,0.217094,2.16315
42,-657,0.440796,-1.94812,0.032908,0.00814861,-0.00385029,0.033493,0.00756368,-0.150766,0.0202831,0.0472432,1266,1681,0.440749,1.94806
49,-657,0.655151,-1.78394,0.0330808,0.00427181,3.53694e-05,0.0330808,0.00427176,0.00122772,0.0207768,0.0467227,1273,1681,0.655181,1.78396
56,-657,0.818115,-1.58069,0.0326722,-0.000258939,0.00294006,0.0329326,-0.000519363,0.0883479,0.0221302,0.0436285,1280,1681,0.818157,1.58075
63,-657,0.987793,-1.34741,0.0312105,-0.00565818,0.00593818,0.0321434,-0.006591,0.155815,0.0239304,0.0497103,1287,1681,0.987733,1.34735
70,-657,1.10693,-1.14453,0.0273188,-0.0114972,0.00771791,0.028797,-0.0129755,0.189247,0.0246873,0.0484313,1294,1681,1.10688,1.14452
77,-657,1.33618,-1.19507,0.0215539,-0.0155027,0.00908007,0.0236592,-0.017608,0.227835,0.0239108,0.0426106,1301,1681,1.33623,1.19504
84,-657,1.5332,-1.2356,0.0149761,-0.0179437,0.00940003,0.0174711,-0.0204387,0.259444,0.0219096,0.0428117,1308,1681,1.53325,1.23559
91,-657,2.13647,-1.3252,0.00747953,-0.0184474,0.0116899,0.0119719,-0.0229398,0.366892,0.0204851,0.0424702,1315,1681,2.13644,1.3252
98,-657,3.21204,-1.63123,0.00106638,-0.0181177,0.0151595,0.00941364,-0.026465,0.503325,0.0214802,0.0434498,1322,1681,3.21204,1.6312
105,-657,3.89038,-1.71729,-0.00479481,-0.0122185,0.017177,0.00906686,-0.0260801,0.678988,0.0210697,0.0480119,1329,1681,3.89037,1.71727
112,-657,4.71814,-1.85779,0,0,0,0,0,0,0,-1,1336,1681,4.71813,1.85782
119,-657,0.51123,-1.14246,0,0,0,0,0,0,0,-1,1343,1681,0.511232,1.14241
126,-657,-0.045166,-1.32324,-0.0172153,0.00600847,0.0233099,0.0204386,-0.0316455,1.01648,0.0303019,0.0483982,1350,1681,-0.0452213,1.32319
133,-657,-0.634399,-1.49329,-0.0190793,0.0138806,0.022625,0.0253914,-0.0305901,1.10016,0.0323673,0.0438038,1357,1681,-0.634395,1.4933
140,-657,-1.17334,-1.33887,-0.0206729,0.0214406,0.0221413,0.0309392,-0.0301714,1.16555,0.0352831,0.0461119,1364,1681,-1.17335,1.33892
147,-657,-1.76306,-1.21704,0,0,0,0,0,0,0,-1,1371,1681,-1.76306,1.21707
154,-657,0.735596,1.58777,0,0,0,0,0,0,0,-1,1378,1681,0.735568,-1.58772
161,-657,0.457642,1.5719,0,0,0,0,0,0,0,-1,1385,1681,0.457613,-1.5719
168,-657,0.24707,1.54858,-0.0182933,0.044186,0.00790849,0.0451715,-0.0192788,1.44682,0.0381983,0.0426269,1392,1681,0.247029,-1.54861
175,-657,0.186401,1.60852,-0.0137159,0.0486093,0.00362336,0.0488193,-0.0139259,1.51292,0.0380473,0.0413923,1399,1681,0.186351,-1.60851
182,-657,0.0581055,2.07874,-0.00878124,0.0504011,-0.000905115,0.0504149,-0.00879508,-1.55551,0.0368927,0.0446045,1406,1681,0.0581138,-2.07876
189,-657,-0.184326,2.23877,-0.00378604,0.0503876,-0.00447148,0.0507542,-0.00415264,-1.48899,0.0353018,0.0427332,1413,1681,-0.18431,-2.23873
196,-657,-0.428955,2.42871,0.00173969,0.0477221,-0.00702682,0.0487719,0.000689855,-1.42249,0.0322871,0.0449744,1420,1681,-0.428958,-2.42874
203,-657,-0.621826,2.29907,0.00662039,0.0434406,-0.0082499,0.0452046,0.00485643,-1.36015,0.0286551,0.048549,1427,1681,-0.621851,-2.29902
210,-657,-0.860352,1.9668,0.0112173,0.0392468,-0.00718904,0.0409831,0.00948101,-1.33381,0.024774,0.0473943,1434,1681,-0.860409,-1.96679
217,-657,0.38916,0.845337,0.0148334,0.0359357,-0.00408563,0.0366991,0.01407,-1.38607,0.0213794,0.0424232,1441,1681,0.389111,-0.845344
224,-657,0.25647,0.844482,0,0,0,0,0,0,0,-1,1448,1681,0.256426,-0.844445
231,-657,0.0446777,0.554932,0,0,0,0,0,0,0,-1,1455,1681,0.0446372,-0.554957
238,-657,0.610107,0.803589,0,0,0,0,0,0,0,-1,1462,1681,0.610148,-0.80361
245,-657,0.471069,0.409546,0,0,0,0,0,0,0,-1,1469,1681,0.471059,-0.409599
252,-657,0.103271,0.233765,0.0211596,0.0233228,0.00701109,0.0293352,0.0151472,0.861929,0.0169397,0.0372012,1476,1681,0.103267,-0.233795
259,-657,0.261353,0.130859,0.0200715,0.0227615,0.00774926,0.0292816,0.0135514,0.871322,0.0169213,0.0404648,1483,1681,0.261358,-0.130908
266,-657,0.316528,0.242188,0.0188293,0.0220894,0.0080335,0.0286565,0.0122621,0.885492,0.0166021,0.0390849,1490,1681,0.316581,-0.242192
273,-657,0.179688,0.202637,0.0164708,0.0215571,0.00771119,0.0271336,0.0108942,0.944682,0.0157666,0.0411007,1497,1681,0.179718,-0.202691
280,-657,0.103149,0.133179,0,0,0,0,0,0,0,-1,1504,1681,0.103126,-0.133162
287,-657,-0.0494385,-0.0534668,0.011164,0.0197373,0.00512082,0.0221288,0.00877245,1.13388,0.0128671,0.0282325,1511,1681,-0.0494111,0.0535261
294,-657,-0.046875,-0.0675049,0.00969458,0.0185044,0.00424266,0.0202154,0.00798367,1.18748,0.0117569,0.0209205,1518,1681,-0.046817,0.0675462
301,-657,-0.0662842,-0.0638428,0.00809278,0.0166311,0.00325673,0.0177315,0.0069924,1.24496,0.0103132,0.0141315,1525,1681,-0.0662449,0.0638516
308,-657,-0.0620117,-0.069458,0.00685215,0.0145398,0.00241069,0.0152332,0.00615875,1.29072,0.00884841,0.010721,1532,1681,-0.0620557,0.0695088
315,-657,-0.0574951,-0.0615234,0.00555528,0.0117064,0.00144187,0.0120276,0.00523406,1.3516,0.00696355,0.00970354,1539,1681,-0.0574886,0.0615153
322,-657,-0.0583496,-0.0577393,0.00437322,0.00870575,0.000665149,0.00880557,0.0042734,1.42184,0.00508463,0.0122298,1546,1681,-0.0583919,0.0577884
329,-657,-0.0666504,-0.0826416,0.00365268,0.00671751,0.000531936,0.00680721,0.00356299,1.40374,0.00393158,0.0181819,1553,1681,-0.0666523,0.0826677
336,-657,-0.0718994,-0.0618896,0.0025161,0.00542085,0.000283088,0.00544818,0.00248877,1.47455,0.00314942,0.0158145,1560,1681,-0.0718634,0.0618416
343,-657,-0.0527344,-0.0367432,0.000916957,0.00413093,-8.39215e-05,0.00413312,0.000914767,-1.54471,0.00250676,0.0125014,1567,1681,-0.0527072,0.0367714
350,-657,-0.048584,-0.0646973,0.00033014,0.00346666,-0.00025165,0.00348672,0.000310078,-1.49124,0.00222832,0.0142396,1574,1681,-0.0485666,0.0647265
357,-657,-0.0727539,-0.0634766,0.000301052,0.00327887,-0.000196615,0.00329179,0.000288126,-1.50515,0.00210507,0.0133294,1581,1681,-0.0727414,0.0634297
364,-657,-0.0756836,-0.0595703,0.000175082,0.00310125,-0.000270643,0.00312607,0.000150261,-1.47934,0.00203581,0.00993769,1588,1681,-0.075657,0.0595383
371,-657,-0.0637207,-0.0565186,2.00411e-05,0.00303524,-0.000367746,0.00307944,-2.41628e-05,-1.45117,0.00206106,0.0138196,1595,1681,-0.0636698,0.0565111
378,-657,-0.0738525,-0.0426025,0.000225428,0.00300336,-0.000452206,0.00307512,0.000153669,-1.41342,0.00200083,0.0146034,1602,1681,-0.0738784,0.0425665
385,-657,-0.0690918,-0.0397949,0.000768204,0.0027518,-0.000459057,0.00285289,0.000667118,-1.35405,0.00172315,0.0128953,1609,1681,-0.0691398,0.0398389
392,-657,-0.0679932,-0.0284424,0.00119539,0.00223945,-0.000571221,0.00249125,0.00094359,-1.15562,0.00145235,0.0127053,1616,1681,-0.0679342,0.028382
399,-657,-0.0579834,-0.043457,0.00163701,0.00187506,-0.000704941,0.00247095,0.00104111,-0.86903,0.00143248,0.0126001,1623,1681,-0.0579708,0.0434858
406,-657,-0.0595703,-0.0408936,0.00235249,0.000867536,-0.00109619,0.00293399,0.000286036,-0.487727,0.00186796,0.0125953,1630,1681,-0.0595106,0.0408662
413,-657,-0.0522461,-0.0500488,0.00281813,-0.000389227,-0.00185147,0.00366388,-0.00123498,-0.428496,0.00294196,0.0119301,1637,1681,-0.0522416,0.0500715
420,-657,-0.0758057,-0.0750732,0.00250832,-0.00153293,-0.00214336,0.00343336,-0.00245796,-0.407432,0.00341686,0.0131601,1644,1681,-0.0758629,0.0750922
427,-657,-0.101074,-0.0726318,0.00196015,-0.0032889,-0.00164101,0.00243095,-0.0037597,-0.279393,0.00360151,0.0157995,1651,1681,-0.101021,0.0725738
434,-657,-0.0811768,-0.0111084,0.00236131,-0.00570233,-0.00096917,0.00247616,-0.00581718,-0.117952,0.00491597,0.02229,1658,1681,-0.0811366,0.0111692
441,-657,-0.0356445,0.17395,0.00280004,-0.00793021,-0.00111177,0.00291402,-0.00804419,-0.102165,0.00655376,0.0341405,1665,1681,-0.0357005,-0.173992
448,-657,-0.0333252,0.113037,0.00406461,-0.0104525,-0.0011819,0.0041602,-0.0105481,-0.0807062,0.00875473,0.0407577,1672,1681,-0.033365,-0.113056
455,-657,0.306152,-0.204224,0,0,0,0,0,0,0,-1,1679,1681,0.306171,0.204278
462,-657,0.450073,-0.33606,0,0,0,0,0,0,0,-1,1686,1681,0.450027,0.336037
469,-657,-0.142822,-0.395874,0,0,0,0,0,0,0,-1,1693,1681,-0.142862,0.395916
476,-657,-0.680664,0.345215,0.0157481,-0.0158262,-0.00251187,0.0159467,-0.0160248,-0.078893,0.0184588,0.0449188,1700,1681,-0.680669,-0.34525
483,-657,-0.936768,0.796265,0.0215317,-0.0146613,-0.0043367,0.0220441,-0.0151737,-0.117604,0.0216094,0.0457931,1707,1681,-0.936792,-0.796324
490,-657,0.953125,0.258911,0,0,0,0,0,0,0,-1,1714,1681,0.953152,-0.258921
497,-657,1.81384,0.253418,0,0,0,0,0,0,0,-1,1721,1681,1.81383,-0.25341
504,-657,0,0,0,0,0,0,0,0,0,-1,1728,1681,0,0
511,-657,0,0,0,0,0,0,0,0,0,-1,1735,1681,0,0
518,-657,0,0,0,0,0,0,0,0,0,-1,1742,1681,0,0
525,-657,0,0,0,0,0,0,0,0,0,-1,1749,1681,0,0
532,-657,0,0,0,0,0,0,0,0,0,-1,1756,1681,0,0
539,-657,0,0,0,0,0,0,0,0,0,-1,1763,1681,0,0
546,-657,0,0,0,0,0,0,0,0,0,-1,1770,1681,0,0
553,-657,0,0,0,0,0,0,0,0,0,-1,1777,1681,0,0
560,-657,0,0,0,0,0,0,0,0,0,-1,1784,1681,0,0
567,-657,0,0,0,0,0,0,0,0,0,-1,1791,1681,0,0
574,-657,0,0,0,0,0,0,0,0,0,-1,1798,1681,0,0
581,-657,0,0,0,0,0,0,0,0,0,-1,1805,1681,0,0
588,-657,0,0,0,0,0,0,0,0,0,-1,1812,1681,0,0
595,-657,0,0,0,0,0,0,0,0,0,-1,1819,1681,0,0
602,-657,0,0,0,0,0,0,0,0,0,-1,1826,1681,0,0
609,-657,0,0,0,0,0,0,0,0,0,-1,1833,1681,0,0
616,-657,0,0,0,0,0,0,0,0,0,-1,1840,1681,0,0
623,-657,0,0,0,0,0,0,0,0,0,-1,1847,1681,0,0
630,-657,0,0,0,0,0,0,0,0,0,-1,1854,1681,0,0
637,-657,0,0,0,0,0,0,0,0,0,-1,1861,1681,0,0
644,-657,0,0,0,0,0,0,0,0,0,-1,1868,1681,0,0
651,-657,0,0,0,0,0,0,0,0,0,-1,1875,1681,0,0
658,-657,0,0,0,0,0,0,0,0,0,-1,1882,1681,0,0
665,-657,0,0,0,0,0,0,0,0,0,-1,1889,1681,0,0
672,-657,0,0,0,0,0,0,0,0,0,-1,1896,1681,0,0
679,-657,0,0,0,0,0,0,0,0,0,-1,1903,1681,0,0
686,-657,0,0,0,0,0,0,0,0,0,-1,1910,1681,0,0
693,-657,0,0,0,0,0,0,0,0,0,-1,1917,1681,0,0
700,-657,0,0,0,0,0,0,0,0,0,-1,1924,1681,0,0
707,-657,0,0,0,0,0,0,0,0,0,-1,1931,1681,0,0
714,-657,0,0,0,0,0,0,0,0,0,-1,1938,1681,0,0
721,-657,0,0,0,0,0,0,0,0,0,-1,1945,1681,0,0
728,-657,0,0,0,0,0,0,0,0,0,-1,1952,1681,0,0
735,-657,0,0,0,0,0,0,0,0,0,-1,1959,1681,0,0
742,-657,0,0,0,0,0,0,0,0,0,-1,1966,1681,0,0
749,-657,0,0,0,0,0,0,0,0,0,-1,1973,1681,0,0
756,-657,0,0,0,0,0,0,0,0,0,-1,1980,1681,0,0
763,-657,0,0,0,0,0,0,0,0,0,-1,1987,1681,0,0
770,-657,0,0,0,0,0,0,0,0,0,-1,1994,1681,0,0
777,-657,0,0,0,0,0,0,0,0,0,-1,2001,1681,0,0
784,-657,0,0,0,0,0,0,0,0,0,-1,2008,1681,0,0
791,-657,0,0,0,0,0,0,0,0,0,-1,2015,1681,0,0
798,-657,0,0,0,0,0,0,0,0,0,-1,2022,1681,0,0
805,-657,0,0,0,0,0,0,0,0,0,-1,2029,1681,0,0
812,-657,0,0,0,0,0,0,0,0,0,-1,2036,1681,0,0
-700,-664,0,0,0,0,0,0,0,0,0,-1,524,1688,0,0
-693,-664,0,0,0,0,0,0,0,0,0,-1,531,1688,0,0
-686,-664,0,0,0,0,0,0,0,0,0,-1,538,1688,0,0
-679,-664,0,0,0,0,0,0,0,0,0,-1,545,1688,0,0
-672,-664,0,0,0,0,0,0,0,0,0,-1,552,1688,0,0
-665,-664,0,0,0,0,0,0,0,0,0,-1,559,1688,0,0
-658,-664,0,0,0,0,0,0,0,0,0,-1,566,1688,0,0
-651,-664,0,0,0,0,0,0,0,0,0,-1,573,1688,0,0
-644,-664,0,0,0,0,0,0,0,0,0,-1,580,1688,0,0
-637,-664,0,0,0,0,0,0,0,0,0,-1,587,1688,0,0
-630,-664,0,0,0,0,0,0,0,0,0,-1,594,1688,0,0
-623,-664,0,0,0,0,0,0,0,0,0,-1,601,1688,0,0
-616,-664,0,0,0,0,0,0,0,0,0,-1,608,1688,0,0
-609,-664,0,0,0,0,0,0,0,0,0,-1,615,1688,0,0
-602,-664,0,0,0,0,0,0,0,0,0,-1,622,1688,0,0
-595,-664,0,0,0,0,0,0,0,0,0,-1,629,1688,0,0
-588,-664,0,0,0,0,0,0,0,0,0,-1,636,1688,0,0
-581,-664,0,0,0,0,0,0,0,0,0,-1,643,1688,0,0
-574,-664,0,0,0,0,0,0,0,0,0,-1,650,1688,0,0
-567,-664,0,0,0,0,0,0,0,0,0,-1,657,1688,0,0
-560,-664,0,0,0,0,0,0,0,0,0,-1,664,1688,0,0
-553,-664,0,0,0,0,0,0,0,0,0,-1,671,1688,0,0
-546,-664,0,0,0,0,0,0,0,0,0,-1,678,1688,0,0
-539,-664,0,0,0,0,0,0,0,0,0,-1,685,1688,0,0
-532,-664,0,0,0,0,0,0,0,0,0,-1,692,1688,0,0
-525,-664,0,0,0,0,0,0,0,0,0,-1,699,1688,0,0
-518,-664,0,0,0,0,0,0,0,0,0,-1,706,1688,0,0
-511,-664,0,0,0,0,0,0,0,0,0,-1,713,1688,0,0
-504,-664,0,0,0,0,0,0,0,0,0,-1,720,1688,0,0
-497,-664,0,0,0,0,0,0,0,0,0,-1,727,1688,0,0
-490,-664,0,0,0,0,0,0,0,0,0,-1,734,1688,0,0
-483,-664,0,0,0,0,0,0,0,0,0,-1,741,1688,0,0
-476,-664,0,0,0,0,0,0,0,0,0,-1,748,1688,0,0
-469,-664,0,0,0,0,0,0,0,0,0,-1,755,1688,0,0
-462,-664,0,0,0,0,0,0,0,0,0,-1,762,1688,0,0
-455,-664,0,0,0,0,0,0,0,0,0,-1,769,1688,0,0
-448,-664,0,0,0,0,0,0,0,0,0,-1,776,1688,0,0
-441,-664,0,0,0,0,0,0,0,0,0,-1,783,1688,0,0
-434,-664,0,0,0,0,0,0,0,0,0,-1,790,1688,0,0
-427,-664,0,0,0,0,0,0,0,0,0,-1,797,1688,0,0
-420,-664,0,0,0,0,0,0,0,0,0,-1,804,1688,0,0
-413,-664,0,0,0,0,0,0,0,0,0,-1,811,1688,0,0
-406,-664,0,0,0,0,0,0,0,0,0,-1,818,1688,0,0
-399,-664,0,0,0,0,0,0,0,0,0,-1,825,1688,0,0
-392,-664,0,0,0,0,0,0,0,0,0,-1,832,1688,0,0
-385,-664,0,0,0,0,0,0,0,0,0,-1,839,1688,0,0
-378,-664,0,0,0,0,0,0,0,0,0,-1,846,1688,0,0
-371,-664,0.728027,-1.80603,0,0,0,0,0,0,0,-1,853,1688,0.728022,1.80599
-364,-664,0.517334,-1.57874,0,0,0,0,0,0,0,-1,860,1688,0.517321,1.57869
-357,-664,0.243958,-1.12744,0,0,0,0,0,0,0,-1,867,1688,0.243936,1.12745
-350,-664,0.0216064,-0.9552,0,0,0,0,0,0,0,-1,874,1688,0.0216291,0.955167
-343,-664,-0.619812,-1.11682,0,0,0,0,0,0,0,-1,881,1688,-0.619837,1.11677
-336,-664,-0.206116,-2.31177,0,0,0,0,0,0,0,-1,888,1688,-0.206108,2.31179
-329,-664,-0.193054,-1.5752,0.00591977,0.0179018,0.0141701,0.0272953,-0.0034737,0.985399,0.0194584,0.0481718,895,1688,-0.193047,1.57521
-322,-664,-0.219849,-0.923218,0.00471211,0.0127576,0.013339,0.0226673,-0.0051975,0.931851,0.0171092,0.0484372,902,1688,-0.219865,0.92327
-315,-664,-0.187744,-0.579102,0.00437272,0.0108304,0.0110219,0.0190867,-0.00388355,0.927885,0.0141971,0.043784,909,1688,-0.187765,0.57905
-308,-664,-0.103638,-0.24585,0.00402006,0.00822943,0.00900494,0.0153724,-0.00312288,0.9002,0.0114323,0.0446936,916,1688,-0.103656,0.245856
-301,-664,-0.228882,-0.104614,0.00392139,0.00607899,0.00674313,0.0118291,-0.0018287,0.864718,0.00856097,0.0441621,923,1688,-0.2289,0.104634
-294,-664,-0.194153,0.0368652,0.00379418,0.00442497,0.00465185,0.00877211,-0.000552959,0.819247,0.00604083,0.0380611,930,1688,-0.194153,-0.0368417
-287,-664,-0.0769653,-0.0374756,0.0033308,0.0028242,0.00282033,0.00590919,0.000245814,0.740612,0.00386013,0.0254039,937,1688,-0.0769512,0.0375144
-280,-664,-0.101746,-0.0557861,0.0025856,0.00148439,0.00133838,0.00348221,0.000587788,0.590252,0.00215246,0.015214,944,1688,-0.101719,0.0557746
-273,-664,-0.0737305,-0.0827637,0.00183436,0.000473741,-0.000181827,0.00185824,0.000449861,-0.130584,0.00111942,0.0121174,951,1688,-0.073738,0.0827189
-266,-664,-0.0591431,-0.0649414,0.00108977,5.39542e-05,-0.0011343,0.00181881,-0.00067508,-0.571238,0.00148946,0.0181935,958,1688,-0.0591705,0.0649635
-259,-664,-0.090271,-0.0587158,0.00072778,-0.000526554,-0.00150597,0.00173195,-0.00153073,-0.588093,0.0018849,0.0172574,965,1688,-0.0902948,0.0587414
-252,-664,-0.0830688,-0.0754395,0.000708616,-0.000562136,-0.00173511,0.00192103,-0.00177455,-0.609887,0.0021342,0.015144,972,1688,-0.083057,0.0754884
-245,-664,-0.071106,-0.0473633,0.000636134,-0.000414708,-0.00180175,0.00198751,-0.00176609,-0.643524,0.0021684,0.0185174,979,1688,-0.071119,0.0473278
-238,-664,-0.0322876,-0.0623779,0.000489726,-0.000175658,-0.00168724,0.00187677,-0.0015627,-0.688057,0.00198853,0.0215421,986,1688,-0.0322811,0.0624036
-231,-664,-0.0495605,-0.0737305,0.00024646,-5.50397e-05,-0.00132473,0.00142899,-0.00123757,-0.728744,0.00154086,0.0185611,993,1688,-0.0495446,0.0737584
-224,-664,-0.0610352,-0.0499268,0.000218086,0.000385936,-0.000781723,0.00108823,-0.000484204,-0.838873,0.000929901,0.0130453,1000,1688,-0.0610546,0.0499434
-217,-664,-0.0639648,-0.0498047,0.000134801,0.000708242,-9.52258e-05,0.000723642,0.000119402,-1.41047,0.000447963,0.00937412,1007,1688,-0.0639912,0.0498187
-210,-664,-0.0667725,-0.0599365,6.40235e-05,0.00078673,0.000606097,0.00113102,-0.000280265,1.05421,0.000862744,0.0103517,1014,1688,-0.0667475,0.0599504
-203,-664,-0.0620117,-0.0565186,5.19248e-05,0.000796998,0.00139345,0.00186685,-0.00101793,0.916018,0.00168939,0.0126068,1021,1688,-0.0620122,0.0564772
-196,-664,-0.0511475,-0.0646973,0.000124588,0.000850013,0.00199982,0.00251975,-0.00154515,0.875109,0.00236925,0.0130602,1028,1688,-0.0511808,0.0647333
-189,-664,-0.0693359,-0.0611572,3.93572e-05,0.000517359,0.00251129,0.002801,-0.00224428,0.832841,0.0029188,0.00963416,1035,1688,-0.0693374,0.0612137
-182,-664,-0.0723877,-0.0754395,7.20998e-06,0.000256457,0.00314665,0.00328095,-0.00301729,0.80519,0.00363735,0.00947055,1042,1688,-0.0723481,0.0754386
-175,-664,-0.0556641,-0.0933838,-7.67706e-05,-9.43413e-06,0.00352016,0.00347722,-0.00356342,0.79018,0.00406501,0.0117246,1049,1688,-0.0556306,0.0933578
-168,-664,-0.0593262,-0.0887451,0.000269219,0.000137082,0.00333615,0.00353996,-0.00313366,0.775498,0.00385539,0.0120756,1056,1688,-0.0592954,0.0887201
-161,-664,-0.0717773,-0.0799561,0.000782032,0.000302666,0.0031324,0.0036839,-0.00259921,0.747214,0.00364553,0.00849425,1063,1688,-0.0717893,0.0798985
-154,-664,-0.0865479,-0.0672607,0.00110695,0.000458578,0.00263208,0.00343473,-0.0018692,0.724123,0.00310637,0.00802605,1070,1688,-0.0864961,0.067217
-147,-664,-0.095459,-0.0751953,0.00108805,0.000607285,0.00185462,0.0027178,-0.00102246,0.720951,0.00223216,0.00881228,1077,1688,-0.0955146,0.0752053
-140,-664,-0.09021,-0.0771484,0.00106965,0.000631784,0.00102987,0.0019036,-0.000202168,0.680667,0.00134154,0.00930625,1084,1688,-0.0901639,0.0771056
-133,-664,-0.059082,-0.0551758,0.00127636,0.00133928,0.000203106,0.00151334,0.00110229,0.862234,0.0009036,0.0100611,1091,1688,-0.0590725,0.0551675
-126,-664,-0.0247803,-0.0610352,0.0014768,0.00172156,-3.17037e-05,0.0017256,0.00147276,-1.44405,0.00107607,0.0176796,1098,1688,-0.0247578,0.0610596
-119,-664,-0.130493,-0.0643311,0.00152176,0.00234147,-0.0003652,0.00248057,0.00138266,-1.20687,0.0014353,0.0336915,1105,1688,-0.130535,0.0643346
-112,-664,-0.195923,0.0264893,0.00141669,0.00270383,-0.000518892,0.00288696,0.00123356,-1.23152,0.00167265,0.0396399,1112,1688,-0.195928,-0.0265187
-105,-664,-0.137085,0.0230713,0.00123617,0.00300852,-0.000562527,0.00317198,0.00107271,-1.288,0.00186304,0.0411012,1119,1688,-0.137113,-0.0230959
-98,-664,-0.0820313,-0.105347,0.000825536,0.00326926,-0.000393325,0.00333101,0.000763789,-1.41508,0.00201492,0.039198,1126,1688,-0.0820049,0.105348
-91,-664,-0.0970459,-0.13269,0.000152433,0.00306333,0.0002407,0.0030831,0.000132663,1.48885,0.00201263,0.0388247,1133,1688,-0.0970909,0.132707
-84,-664,-0.147095,0.0426025,0,0,0,0,0,0,0,-1,1140,1688,-0.147054,-0.0426429
-77,-664,0.0697021,0.0513916,-0.000635926,0.00282087,0.00115631,0.00317199,-0.000987047,1.27599,0.00250925,0.0406379,1147,1688,0.0697334,-0.0514412
-70,-664,-0.134644,0.45105,-0.0010585,0.00279491,0.00105029,0.00306259,-0.00132617,1.32125,0.00259912,0.0428645,1154,1688,-0.134648,-0.451049
-63,-664,0.252075,0.179565,-0.00182997,0.00211519,0.00064473,0.00221788,-0.00193266,1.41285,0.0023982,0.0457642,1161,1688,0.252087,-0.179583
-56,-664,0.153931,0.0932617,-0.0020236,0.00200248,-0.000236347,0.0020163,-0.00203743,-1.51236,0.00234043,0.0428136,1168,1688,0.153986,-0.0932046
-49,-664,0.0671387,0.118774,-0.00208536,0.00114782,-0.00138435,0.00165956,-0.0025971,-1.21672,0.00247737,0.0471885,1175,1688,0.0671997,-0.118737
-42,-664,-0.14978,0.324463,-0.00234212,0.000297025,-0.00330508,0.00253622,-0.00458131,-0.97533,0.00416547,0.0485842,1182,1688,-0.14975,-0.324472
-35,-664,-0.0693359,0.401978,-0.0027007,-0.0010144,-0.00587353,0.00407619,-0.00779129,-0.856687,0.0069627,0.0454713,1189,1688,-0.0693635,-0.40203
-28,-664,0.20752,0.394165,-0.00291453,-0.00169366,-0.00836073,0.00607889,-0.0106871,-0.82184,0.00980096,0.0421456,1196,1688,0.207476,-0.394115
-21,-664,0.274414,0.446655,-0.00274627,-0.00155741,-0.0105643,0.00842921,-0.0127329,-0.813502,0.0123019,0.0407624,1203,1688,0.274362,-0.446618
-14,-664,0.293823,0.595581,-0.000439111,-0.00101257,-0.0126386,0.0119161,-0.0133677,-0.774057,0.0146056,0.0441251,1210,1688,0.293784,-0.595527
-7,-664,-0.92688,0.407471,0,0,0,0,0,0,0,-1,1217,1688,-0.926892,-0.407446
0,-664,-1.07654,-0.236938,0.00713668,0.00183007,-0.0131386,0.0178873,-0.00892051,-0.685765,0.0157634,0.0453874,1224,1688,-1.0765,0.236905
7,-664,-1.23682,-0.866211,0.0116109,0.00373233,-0.012932,0.0211903,-0.00584711,-0.637556,0.0164266,0.0451386,1231,1688,-1.23678,0.866259
14,-664,-1.58936,-2.13245,0.0162033,0.00559479,-0.0122281,0.024228,-0.00242988,-0.580757,0.0170199,0.0420898,1238,1688,-1.58936,2.13245
21,-664,-1.27344,-2.97656,0,0,0,0,0,0,0,-1,1245,1688,-1.2734,2.97653
28,-664,-1.08154,-2.8009,0.0242215,0.00623486,-0.0075253,0.0269546,0.00350172,-0.348381,0.0169237,0.0412336,1252,1688,-1.08152,2.80088
35,-664,-0.865234,-2.30676,0.0270131,0.00433211,-0.00394569,0.0276799,0.0036653,-0.167414,0.017361,0.044652,1259,1688,-0.865249,2.30675
42,-664,-0.238037,-1.89685,0.0294828,0.00273327,-0.000494792,0.029492,0.00272412,-0.0184888,0.0188191,0.0475712,1266,1688,-0.237983,1.89684
49,-664,-0.0662842,-1.7002,0.0299447,5.40075e-06,0.0024262,0.0301401,-0.000189937,0.0803388,0.020157,0.0427234,1273,1688,-0.066227,1.70024
56,-664,0.189941,-1.50647,0.0299231,-0.00310005,0.00426204,0.0304643,-0.00364125,0.126305,0.0216257,0.0438114,1280,1688,0.189964,1.5065
63,-664,0.39917,-1.3009,0,0,0,0,0,0,0,-1,1287,1688,0.399198,1.30087
70,-664,-0.541504,-1.25574,0,0,0,0,0,0,0,-1,1294,1688,-0.541537,1.25569
77,-664,1.70642,-0.966675,0,0,0,0,0,0,0,-1,1301,1688,1.70642,0.966667
84,-664,0.789917,0.335571,0,0,0,0,0,0,0,-1,1308,1688,0.789916,-0.335571
91,-664,2.78149,-1.25977,0.00950647,-0.0165718,0.00732539,0.0114233,-0.0184886,0.255929,0.0174295,0.0395401,1315,1688,2.78155,1.25975
98,-664,3.88513,-1.43018,0.00373324,-0.0161061,0.00951062,0.00755591,-0.0199287,0.382175,0.0163955,0.0479117,1322,1688,3.88517,1.43021
105,-664,4.59204,-1.26953,-0.00163997,-0.0110481,0.0109162,0.00554255,-0.0182306,0.581958,0.0143623,0.0475165,1329,1688,4.59207,1.26949
112,-664,4.93005,-1.0874,0,0,0,0,0,0,0,-1,1336,1688,4.93002,1.08741
119,-664,0.697876,-0.332642,0,0,0,0,0,0,0,-1,1343,1688,0.697914,0.332654
126,-664,0.460327,-0.970093,0,0,0,0,0,0,0,-1,1350,1688,0.460357,0.970136
133,-664,-0.223145,-1.18616,-0.0154796,0.0124331,0.0159113,0.0196415,-0.022688,1.14542,0.0244601,0.0475346,1357,1688,-0.223187,1.18619
140,-664,-0.730469,-1.30603,-0.0171425,0.0195915,0.0158329,0.0254738,-0.0230247,1.21508,0.0280126,0.0442393,1364,1688,-0.73042,1.30599
147,-664,1.63867,1.65271,0,0,0,0,0,0,0,-1,1371,1688,1.63862,-1.65276
154,-664,0.921509,1.46741,0,0,0,0,0,0,0,-1,1378,1688,0.921551,-1.46744
161,-664,0.396362,1.15125,0,0,0,0,0,0,0,-1,1385,1688,0.396361,-1.15124
168,-664,0.288208,1.21057,-0.0152795,0.0421973,0.00561195,0.0427401,-0.0158223,1.47437,0.0349813,0.0477312,1392,1688,0.288183,-1.21055
175,-664,0.209839,1.23926,-0.0114422,0.0467067,0.00225323,0.0467938,-0.0115294,1.53212,0.0356657,0.0443506,1399,1688,0.209779,-1.23921
182,-664,0.086792,1.28772,-0.00723758,0.0487712,-0.00130544,0.0488017,-0.00726799,-1.54751,0.0352081,0.0437147,1406,1688,0.0867939,-1.28771
189,-664,-0.0178223,1.59375,-0.00314826,0.0491435,-0.00415218,0.0494712,-0.0034759,-1.49205,0.0341983,0.0431565,1413,1688,-0.0178317,-1.59375
196,-664,0.0316162,1.83301,0.00119845,0.0468154,-0.0063271,0.0476767,0.000337137,-1.4355,0.0316727,0.0435931,1420,1688,0.0316338,-1.83306
203,-664,0.536255,2.39038,0.0050673,0.042801,-0.00752031,0.0442446,0.00362373,-1.38115,0.0283657,0.0443485,1427,1688,0.536311,-2.39032
210,-664,0.175903,0.691162,0.00826308,0.038047,-0.00723551,0.0397117,0.00659838,-1.34466,0.0245721,0.0423206,1434,1688,0.175923,-0.691113
217,-664,0.0980225,0.807861,0.0104594,0.0336904,-0.00536416,0.0348692,0.00928058,-1.35448,0.0208527,0.0432803,1441,1688,0.0980123,-0.807914
224,-664,0.0596924,0.782593,0.0120294,0.0300325,-0.00370693,0.0307659,0.011296,-1.37547,0.0179705,0.04499,1448,1688,0.0597095,-0.78256
231,-664,0.207275,0.714111,0.0134038,0.0251099,-0.00174684,0.025365,0.0131487,-1.42578,0.0146478,0.0423734,1455,1688,0.207274,-0.714172
238,-664,0.39624,0.554321,0.014689,0.0215695,0.000109774,0.0215712,0.0146872,1.55485,0.0127229,0.0380016,1462,1688,0.39619,-0.554355
245,-664,0.288818,0.265137,0.0147833,0.0188633,0.00134963,0.0192693,0.0143772,1.27856,0.0115657,0.0366957,1469,1688,0.288839,-0.265165
252,-664,0.00622559,0.0891113,0.0139359,0.0163178,0.00231543,0.0177306,0.0125231,1.02292,0.0105232,0.0369606,1476,1688,0.00626605,-0.0891139
259,-664,-0.0150146,0.0566406,0.0131283,0.0146651,0.00295841,0.0169533,0.0108402,0.912457,0.00991401,0.0346011,1483,1688,-0.0150334,-0.0566654
266,-664,-0.0579834,0.0181885,0.01237,0.0132611,0.00338749,0.0162323,0.00939892,0.850785,0.00941063,0.0262622,1490,1688,-0.0579803,-0.0181979
273,-664,-0.0883789,-0.0247803,0.0108398,0.0125038,0.00341996,0.0151915,0.00815211,0.904716,0.00877867,0.023529,1497,1688,-0.0883318,0.024749
280,-664,-0.0849609,-0.0452881,0.00891274,0.0116324,0.00230636,0.01295,0.00759517,1.05177,0.00751386,0.0204041,1504,1688,-0.0849806,0.0452978
287,-664,-0.0762939,-0.0734863,0.00766725,0.0109802,0.00191002,0.011852,0.00679547,1.14261,0.00686724,0.0186167,1511,1688,-0.076322,0.0735241
294,-664,-0.0637207,-0.0769043,0.00716371,0.0102419,0.00154872,0.0108863,0.00651939,1.17654,0.00632601,0.0132433,1518,1688,-0.0636854,0.0768658
301,-664,-0.052124,-0.0632324,0.00647975,0.00908281,0.0010805,0.00947286,0.00608969,1.22436,0.00554307,0.00951068,1525,1688,-0.0521535,0.0631816
308,-664,-0.0534668,-0.0767822,0.00585269,0.00786915,0.000670451,0.00807172,0.00565012,1.27738,0.00478286,0.00922133,1532,1688,-0.0534915,0.076824
315,-664,-0.0455322,-0.0780029,0.00540106,0.00657417,0.000405027,0.00670042,0.00527481,1.26863,0.00407572,0.0104095,1539,1688,-0.0454763,0.0779887
322,-664,-0.0570068,-0.0710449,0.00484463,0.00499899,0.000129253,0.00507235,0.00477126,1.05455,0.00328581,0.0142083,1546,1688,-0.0569977,0.071021
329,-664,-0.0755615,-0.0792236,0.00409042,0.00381824,-3.51474e-05,0.00409488,0.00381377,-0.126372,0.00264121,0.0166117,1553,1688,-0.0756171,0.0792617
336,-664,-0.0643311,-0.0695801,0.00294876,0.00324377,-0.000240502,0.0033784,0.00281413,-1.06048,0.00208973,0.0136475,1560,1688,-0.0643843,0.0695936
343,-664,-0.0522461,-0.0562744,0.00151062,0.00252539,-0.00049771,0.00272875,0.00130726,-1.18291,0.0015759,0.0106114,1567,1688,-0.0522353,0.0563303
350,-664,-0.0567627,-0.0777588,0.000817342,0.00236831,-0.000588867,0.00256655,0.000619101,-1.24607,0.00154654,0.0119858,1574,1688,-0.0567391,0.0777629
357,-664,-0.0766602,-0.0678711,0.000608149,0.00251476,-0.000463027,0.00262126,0.00050165,-1.34472,0.00160661,0.0118779,1581,1688,-0.0766105,0.0678901
364,-664,-0.06604,-0.0650635,0.000355749,0.00265598,-0.000463807,0.00274598,0.000265751,-1.37914,0.00174881,0.0103249,1588,1688,-0.0660806,0.0650733
371,-664,-0.0368652,-0.0618896,0.000180572,0.00272704,-0.000436937,0.00279992,0.000107686,-1.40551,0.00183177,0.0130931,1595,1688,-0.0368077,0.0619434
378,-664,-0.0529785,-0.0541992,0.000395716,0.00280562,-0.000402181,0.00287097,0.000330369,-1.40972,0.00181391,0.0122078,1602,1688,-0.0530099,0.0542394
385,-664,-0.0646973,-0.0482178,0.000976798,0.00263927,-0.000337272,0.00270509,0.00091098,-1.37807,0.00158928,0.0126951,1609,1688,-0.0646419,0.04826
392,-664,-0.0906982,-0.0424805,0.00148525,0.00219479,-0.00042338,0.00239239,0.00128765,-1.13413,0.00138259,0.0157086,1616,1688,-0.090659,0.0425032
399,-664,-0.0839844,-0.0554199,0.00205831,0.00185462,-0.000591964,0.00255713,0.0013558,-0.700207,0.00147726,0.0133273,1623,1688,-0.0839541,0.055409
406,-664,-0.0544434,-0.0479736,0.00301089,0.000670186,-0.00111423,0.00345647,0.000224608,-0.380418,0.00223321,0.0106551,1630,1688,-0.0544582,0.0480121
413,-664,-0.0427246,-0.0529785,0.00372671,-0.000928138,-0.00209563,0.00453116,-0.00173258,-0.36652,0.00373475,0.00914617,1637,1688,-0.0427497,0.0530381
420,-664,-0.078125,-0.0662842,0.00351531,-0.00243518,-0.00255983,0.00446496,-0.00338483,-0.355243,0.00454636,0.0206148,1644,1688,-0.0781527,0.0662388
427,-664,-0.012207,-0.0135498,0.00302242,-0.00461087,-0.0021603,0.0035914,-0.00517985,-0.25753,0.00509169,0.0384464,1651,1688,-0.0122275,0.0135726
434,-664,0.158447,0.0683594,0.00359397,-0.00757163,-0.00153206,0.00380037,-0.00777803,-0.133916,0.00681502,0.0393238,1658,1688,0.158405,-0.0683062
441,-664,0.104248,0.410889,0.00421954,-0.0103577,-0.00174098,0.00442459,-0.0105628,-0.117235,0.00889156,0.0406669,1665,1688,0.104235,-0.410873
448,-664,-0.312256,-0.531128,0.00530444,-0.013534,-0.00181722,0.00547814,-0.0137077,-0.0952927,0.0114116,0.0480885,1672,1688,-0.312296,0.531132
455,-664,-0.345947,-0.334473,0.0075619,-0.0168923,-0.00178426,0.0076914,-0.0170218,-0.072452,0.0146032,0.0468012,1679,1688,-0.346001,0.334504
462,-664,-0.300659,-0.052002,0.00886645,-0.0200333,-0.00145174,0.0089392,-0.020106,-0.0500657,0.0171774,0.0446422,1686,1688,-0.300679,0.0520292
469,-664,-0.466919,0.217529,0.0112785,-0.021859,-0.000960469,0.0113063,-0.0218869,-0.028952,0.0194859,0.0436632,1693,1688,-0.466944,-0.217579
476,-664,-0.767822,0.540039,0.0158441,-0.0225384,-0.0011099,0.0158761,-0.0225705,-0.0288848,0.022309,0.0456381,1700,1688,-0.767861,-0.54001
483,-664,-0.733154,1.17346,0.0223011,-0.0217766,-0.00235664,0.0224268,-0.0219023,-0.0532631,0.025594,0.0450519,1707,1688,-0.733204,-1.17349
490,-664,-0.626831,1.57361,0,0,0,0,0,0,0,-1,1714,1688,-0.626817,-1.57363
497,-664,0,0,0,0,0,0,0,0,0,-1,1721,1688,0,0
504,-664,0,0,0,0,0,0,0,0,0,-1,1728,1688,0,0
511,-664,0,0,0,0,0,0,0,0,0,-1,1735,1688,0,0
518,-664,0,0,0,0,0,0,0,0,0,-1,1742,1688,0,0
525,-664,0,0,0,0,0,0,0,0,0,-1,1749,1688,0,0
532,-664,0,0,0,0,0,0,0,0,0,-1,1756,1688,0,0
539,-664,0,0,0,0,0,0,0,0,0,-1,1763,1688,0,0
546,-664,0,0,0,0,0,0,0,0,0,-1,1770,1688,0,0
553,-664,0,0,0,0,0,0,0,0,0,-1,1777,1688,0,0
560,-664,0,0,0,0,0,0,0,0,0,-1,1784,1688,0,0
567,-664,0,0,0,0,0,0,0,0,0,-1,1791,1688,0,0
574,-664,0,0,0,0,0,0,0,0,0,-1,1798,1688,0,0
581,-664,0,0,0,0,0,0,0,0,0,-1,1805,1688,0,0
588,-664,0,0,0,0,0,0,0,0,0,-1,1812,1688,0,0
595,-664,0,0,0,0,0,0,0,0,0,-1,1819,1688,0,0
602,-664,0,0,0,0,0,0,0,0,0,-1,1826,1688,0,0
609,-664,0,0,0,0,0,0,0,0,0,-1,1833,1688,0,0
616,-664,0,0,0,0,0,0,0,0,0,-1,1840,1688,0,0
623,-664,0,0,0,0,0,0,0,0,0,-1,1847,1688,0,0
630,-664,0,0,0,0,0,0,0,0,0,-1,1854,1688,0,0
637,-664,0,0,0,0,0,0,0,0,0,-1,1861,1688,0,0
644,-664,0,0,0,0,0,0,0,0,0,-1,1868,1688,0,0
651,-664,0,0,0,0,0,0,0,0,0,-1,1875,1688,0,0
658,-664,0,0,0,0,0,0,0,0,0,-1,1882,1688,0,0
665,-664,0,0,0,0,0,0,0,0,0,-1,1889,1688,0,0
672,-664,0,0,0,0,0,0,0,0,0,-1,1896,1688,0,0
679,-664,0,0,0,0,0,0,0,0,0,-1,1903,1688,0,0
686,-664,0,0,0,0,0,0,0,0,0,-1,1910,1688,0,0
693,-664,0,0,0,0,0,0,0,0,0,-1,1917,1688,0,0
700,-664,0,0,0,0,0,0,0,0,0,-1,1924,1688,0,0
707,-664,0,0,0,0,0,0,0,0,0,-1,1931,1688,0,0
714,-664,0,0,0,0,0,0,0,0,0,-1,1938,1688,0,0
721,-664,0,0,0,0,0,0,0,0,0,-1,1945,1688,0,0
728,-664,0,0,0,0,0,0,0,0,0,-1,1952,1688,0,0
735,-664,0,0,0,0,0,0,0,0,0,-1,1959,1688,0,0
742,-664,0,0,0,0,0,0,0,0,0,-1,1966,1688,0,0
749,-664,0,0,0,0,0,0,0,0,0,-1,1973,1688,0,0
756,-664,0,0,0,0,0,0,0,0,0,-1,1980,1688,0,0
763,-664,0,0,0,0,0,0,0,0,0,-1,1987,1688,0,0
770,-664,0,0,0,0,0,0,0,0,0,-1,1994,1688,0,0
777,-664,0,0,0,0,0,0,0,0,0,-1,2001,1688,0,0
784,-664,0,0,0,0,0,0,0,0,0,-1,2008,1688,0,0
791,-664,0,0,0,0,0,0,0,0,0,-1,2015,1688,0,0
798,-664,0,0,0,0,0,0,0,0,0,-1,2022,1688,0,0
805,-664,0,0,0,0,0,0,0,0,0,-1,2029,1688,0,0
812,-664,0,0,0,0,0,0,0,0,0,-1,2036,1688,0,0
-700,-671,0,0,0,0,0,0,0,0,0,-1,524,1695,0,0
-693,-671,0,0,0,0,0,0,0,0,0,-1,531,1695,0,0
-686,-671,0,0,0,0,0,0,0,0,0,-1,538,1695,0,0
-679,-671,0,0,0,0,0,0,0,0,0,-1,545,1695,0,0
-672,-671,0,0,0,0,0,0,0,0,0,-1,552,1695,0,0
-665,-671,0,0,0,0,0,0,0,0,0,-1,559,1695,0,0
-658,-671,0,0,0,0,0,0,0,0,0,-1,566,1695,0,0
-651,-671,0,0,0,0,0,0,0,0,0,-1,573,1695,0,0
-644,-671,0,0,0,0,0,0,0,0,0,-1,580,1695,0,0
-637,-671,0,0,0,0,0,0,0,0,0,-1,587,1695,0,0
-630,-671,0,0,0,0,0,0,0,0,0,-1,594,1695,0,0
-623,-671,0,0,0,0,0,0,0,0,0,-1,601,1695,0,0
-616,-671,0,0,0,0,0,0,0,0,0,-1,608,1695,0,0
-609,-671,0,0,0,0,0,0,0,0,0,-1,615,1695,0,0
-602,-671,0,0,0,0,0,0,0,0,0,-1,622,1695,0,0
-595,-671,0,0,0,0,0,0,0,0,0,-1,629,1695,0,0
-588,-671,0,0,0,0,0,0,0,0,0,-1,636,1695,0,0
-581,-671,0,0,0,0,0,0,0,0,0,-1,643,1695,0,0
-574,-671,0,0,0,0,0,0,0,0,0,-1,650,1695,0,0
-567,-671,0,0,0,0,0,0,0,0,0,-1,657,1695,0,0
-560,-671,0,0,0,0,0,0,0,0,0,-1,664,1695,0,0
-553,-671,0,0,0,0,0,0,0,0,0,-1,671,1695,0,0
-546,-671,0,0,0,0,0,0,0,0,0,-1,678,1695,0,0
-539,-671,0,0,0,0,0,0,0,0,0,-1,685,1695,0,0
-532,-671,0,0,0,0,0,0,0,0,0,-1,692,1695,0,0
-525,-671,0,0,0,0,0,0,0,0,0,-1,699,1695,0,0
-518,-671,0,0,0,0,0,0,0,0,0,-1,706,1695,0,0
-511,-671,0,0,0,0,0,0,0,0,0,-1,713,1695,0,0
-504,-671,0,0,0,0,0,0,0,0,0,-1,720,1695,0,0
-497,-671,0,0,0,0,0,0,0,0,0,-1,727,1695,0,0
-490,-671,0,0,0,0,0,0,0,0,0,-1,734,1695,0,0
-483,-671,0,0,0,0,0,0,0,0,0,-1,741,1695,0,0
-476,-671,0,0,0,0,0,0,0,0,0,-1,748,1695,0,0
-469,-671,0,0,0,0,0,0,0,0,0,-1,755,1695,0,0
-462,-671,0,0,0,0,0,0,0,0,0,-1,762,1695,0,0
-455,-671,0,0,0,0,0,0,0,0,0,-1,769,1695,0,0
-448,-671,0,0,0,0,0,0,0,0,0,-1,776,1695,0,0
-441,-671,0,0,0,0,0,0,0,0,0,-1,783,1695,0,0
-434,-671,0,0,0,0,0,0,0,0,0,-1,790,1695,0,0
-427,-671,0,0,0,0,0,0,0,0,0,-1,797,1695,0,0
-420,-671,0,0,0,0,0,0,0,0,0,-1,804,1695,0,0
-413,-671,0,0,0,0,0,0,0,0,0,-1,811,1695,0,0
-406,-671,0,0,0,0,0,0,0,0,0,-1,818,1695,0,0
-399,-671,0,0,0,0,0,0,0,0,0,-1,825,1695,0,0
-392,-671,0,0,0,0,0,0,0,0,0,-1,832,1695,0,0
-385,-671,0,0,0,0,0,0,0,0,0,-1,839,1695,0,0
-378,-671,0,0,0,0,0,0,0,0,0,-1,846,1695,0,0
-371,-671,0,0,0,0,0,0,0,0,0,-1,853,1695,0,0
-364,-671,0.454163,-1.74426,0,0,0,0,0,0,0,-1,860,1695,0.454183,1.74426
-357,-671,0.786438,-0.682251,0,0,0,0,0,0,0,-1,867,1695,0.786433,0.682201
-350,-671,0.200195,-1.85559,0,0,0,0,0,0,0,-1,874,1695,0.200168,1.85557
-343,-671,-0.508301,-1.71729,0,0,0,0,0,0,0,-1,881,1695,-0.508301,1.71728
-336,-671,-1.12054,-1.61084,0.0107858,0.0264119,0.0142687,0.0348666,0.00233115,1.03588,0.0225076,0.044494,888,1695,-1.12053,1.6108
-329,-671,-0.461914,-1.02747,0.00838754,0.0209559,0.0161712,0.0320211,-0.00267759,0.97072,0.0222936,0.0492591,895,1695,-0.461901,1.02751
-322,-671,-0.376038,-0.727539,0.00699701,0.0155295,0.0148907,0.0267531,-0.00422653,0.924914,0.0193983,0.0494315,902,1695,-0.376038,0.72749
-315,-671,0.550415,-0.192871,0,0,0,0,0,0,0,-1,909,1695,0.550434,0.192869
-308,-671,0.18457,-0.307251,0.00581875,0.0101167,0.00993356,0.0181311,-0.00219564,0.891923,0.0128818,0.0459138,916,1695,0.18457,0.307232
-301,-671,-0.4552,-0.232178,0.00542529,0.00751091,0.00732636,0.0138683,-0.000932104,0.856092,0.00957137,0.0457344,923,1695,-0.45519,0.232229
-294,-671,-0.197327,-0.0557861,0.00506734,0.00544766,0.00500489,0.010266,0.000248993,0.804387,0.00676253,0.0451033,930,1695,-0.197345,0.0557611
-287,-671,-0.104858,-0.0760498,0.00443147,0.00347265,0.00294783,0.00693862,0.000965503,0.704788,0.00433986,0.0403571,937,1695,-0.10488,0.0760898
-280,-671,-0.074585,-0.121338,0.00360573,0.00184404,0.00133196,0.00432176,0.00112801,0.493252,0.00258844,0.0320093,944,1695,-0.074615,0.121301
-273,-671,-0.0826416,-0.102051,0.00273344,0.000605849,-0.000299145,0.0027747,0.000564588,-0.137063,0.00169327,0.0280745,951,1695,-0.0826271,0.10206
-266,-671,-0.0859375,-0.0515137,0.00180668,0.00012222,-0.0013097,0.00252158,-0.000592681,-0.499653,0.00190952,0.0207308,958,1695,-0.0859231,0.051513
-259,-671,-0.100952,-0.0791016,0.00129663,-0.000484611,-0.00167337,0.00230163,-0.00148961,-0.540849,0.00220555,0.0190403,965,1695,-0.100937,0.0791469
-252,-671,-0.0715942,-0.0782471,0.00110666,-0.000526453,-0.00192556,0.00238164,-0.00180144,-0.584861,0.00242284,0.0152374,972,1695,-0.0716111,0.0782139
-245,-671,-0.0622559,-0.0620117,0.000856716,-0.000340907,-0.00199678,0.00234254,-0.00182673,-0.639721,0.00241326,0.0178157,979,1695,-0.0622291,0.0620458
-238,-671,-0.0311279,-0.0527344,0.000506458,-5.24549e-05,-0.00192847,0.00217561,-0.00172161,-0.713444,0.00225515,0.0181006,986,1695,-0.0311458,0.052721
-231,-671,-0.0418091,-0.06604,3.90164e-06,9.46566e-05,-0.00159579,0.00164571,-0.00154715,-0.799612,0.00184369,0.0144025,993,1695,-0.0417951,0.0660502
-224,-671,-0.0605469,-0.0705566,-0.000243387,0.00060583,-0.00115571,0.00141246,-0.00105002,-0.961444,0.00142684,0.012459,1000,1695,-0.0605426,0.0705372
-217,-671,-0.0651855,-0.071167,-0.000537856,0.000983179,-0.000588224,0.00118412,-0.000738793,-1.24163,0.00112007,0.0107953,1007,1695,-0.0651804,0.0711356
-210,-671,-0.0802002,-0.069458,-0.000688243,0.00111467,-0.000142405,0.00112585,-0.000699422,-1.49246,0.00106336,0.0100624,1014,1695,-0.080174,0.0694583
-203,-671,-0.0775757,-0.0733643,-0.000654569,0.00118361,0.000396995,0.00126568,-0.000736645,1.36693,0.00116942,0.0166506,1021,1695,-0.0775628,0.0733561
-196,-671,-0.0635986,-0.0657959,-0.000526104,0.00120294,0.000832605,0.00153868,-0.000861844,1.1875,0.00140419,0.014125,1028,1695,-0.0635844,0.0658287
-189,-671,-0.0689697,-0.0506592,-0.000491974,0.000878306,0.00114788,0.00152997,-0.00114364,1.05446,0.00154897,0.0112811,1035,1695,-0.0689541,0.0507151
-182,-671,-0.0731201,-0.0706787,-0.000309626,0.00064337,0.00163983,0.00187453,-0.00154078,0.926793,0.00197497,0.00926115,1042,1695,-0.0731774,0.0707363
-175,-671,-0.067627,-0.0861816,-0.000205579,0.000429244,0.00191575,0.00205369,-0.00183003,0.867495,0.00224351,0.0114454,1049,1695,-0.0676107,0.0862136
-168,-671,-0.0889893,-0.0817871,-9.2523e-06,0.000520956,0.00177147,0.00204705,-0.00153535,0.859673,0.00207532,0.0128881,1056,1695,-0.0889296,0.0818219
-161,-671,-0.0928955,-0.0633545,0.000223141,0.000594268,0.00163158,0.00205081,-0.0012334,0.842021,0.00191561,0.0086638,1063,1695,-0.0929371,0.0632989
-154,-671,-0.0828857,-0.0686035,0.000382209,0.000662784,0.00133544,0.00186528,-0.000820288,0.837731,0.00158916,0.00749261,1070,1695,-0.0829314,0.0685782
-147,-671,-0.0755615,-0.0699463,0.000287821,0.000740316,0.000842253,0.00138618,-0.000358043,0.916612,0.00106375,0.00877283,1077,1695,-0.0755603,0.0699897
-140,-671,-0.0720215,-0.0653076,0.000133153,0.000660463,0.000286896,0.000786453,7.16344e-06,1.157,0.000521931,0.0091132,1084,1695,-0.0720806,0.0653166
-133,-671,-0.0690918,-0.0582275,0.000175531,0.00110543,-0.000228989,0.00115876,0.000122201,-1.34198,0.000735167,0.0106044,1091,1695,-0.0691335,0.0582185
-126,-671,-0.0544434,-0.0771484,0.000250956,0.00129261,-0.000249439,0.00134926,0.000194305,-1.34747,0.000842244,0.0127605,1098,1695,-0.0545,0.0771797
-119,-671,-0.0480957,-0.123901,0.000267211,0.00173366,-0.000356228,0.00181562,0.000185257,-1.34467,0.00115363,0.0237234,1105,1695,-0.0481415,0.123864
-112,-671,-0.0968018,-0.0742188,0.00024057,0.00193082,-0.000357627,0.00200337,0.000168017,-1.37064,0.00128325,0.0307491,1112,1695,-0.0968586,0.0741861
-105,-671,-0.107422,-0.0194092,0.000171115,0.0020897,-0.000250935,0.00212198,0.000138838,-1.44287,0.00137072,0.0315474,1119,1695,-0.107366,0.0194048
-98,-671,-0.0861816,-0.0234375,4.27927e-06,0.00228732,-6.22643e-06,0.00228734,4.2622e-06,-1.56807,0.00152347,0.0282804,1126,1695,-0.0861666,0.0233831
-91,-671,-0.175781,-0.00109863,-0.000275447,0.00217883,0.000541146,0.00229285,-0.000389468,1.36313,0.00167357,0.0295775,1133,1695,-0.175817,0.00110729
-84,-671,-0.103638,0.00305176,-0.000377122,0.00225835,0.001033,0.00261498,-0.000733754,1.23837,0.00203254,0.0382169,1140,1695,-0.10368,-0.00301167
-77,-671,-0.0305176,0.0379639,-0.000462875,0.00217403,0.00135537,0.00274644,-0.00103528,1.17119,0.00225665,0.0403088,1147,1695,-0.0305008,-0.0380227
-70,-671,0.0343018,0.271362,-0.00059224,0.00224898,0.00133752,0.00277955,-0.0011228,1.19316,0.00231972,0.039381,1154,1695,0.0342893,-0.271409
-63,-671,0.117432,0.0687256,0,0,0,0,0,0,0,-1,1161,1695,0.117449,-0.0687678
-56,-671,0.132568,0.010376,0,0,0,0,0,0,0,-1,1168,1695,0.132618,-0.0103955
-49,-671,0.147827,-0.0479736,0,0,0,0,0,0,0,-1,1175,1695,0.147787,0.0479768
-42,-671,0.0706787,-0.252686,0,0,0,0,0,0,0,-1,1182,1695,0.0706397,0.252643
-35,-671,0.100464,-0.194824,0,0,0,0,0,0,0,-1,1189,1695,0.10051,0.19484
-28,-671,0.299316,0.201538,-0.00196575,-0.00224452,-0.00657195,0.0044683,-0.00867857,-0.774795,0.007719,0.0431441,1196,1695,0.299263,-0.201512
-21,-671,0.460449,0.512329,-0.00179298,-0.00254653,-0.00847007,0.00630869,-0.0106482,-0.763171,0.00989635,0.0415587,1203,1695,0.460398,-0.512324
-14,-671,0.634644,1.00464,7.33669e-05,-0.00245001,-0.0100673,0.00895769,-0.0113343,-0.72306,0.0117424,0.0447639,1210,1695,0.634633,-1.00465
-7,-671,-0.684204,0.710938,0,0,0,0,0,0,0,-1,1217,1695,-0.684227,-0.710959
0,-671,-0.670166,0.128662,0.00635389,-0.00109005,-0.0102206,0.0135091,-0.00824529,-0.61078,0.0126819,0.0462543,1224,1695,-0.670117,-0.128695
7,-671,-0.673584,-0.405273,0.010085,-7.4596e-05,-0.00976803,0.0160151,-0.00600474,-0.545622,0.0131438,0.0452934,1231,1695,-0.6736,0.405258
14,-671,-0.602905,-0.965698,0.0138725,0.000998576,-0.00887509,0.0183992,-0.00352813,-0.471652,0.0135956,0.0432531,1238,1695,-0.602901,0.965679
21,-671,0.145264,-1.00085,0,0,0,0,0,0,0,-1,1245,1695,0.145304,1.00091
28,-671,-2.28162,-3.20215,0,0,0,0,0,0,0,-1,1252,1695,-2.28164,3.2022
35,-671,-1.65454,-2.85022,0.022986,-0.000189545,-0.00125264,0.0230535,-0.000257053,-0.0538411,0.0154554,0.0476348,1259,1695,-1.65456,2.85019
42,-671,-0.98938,-1.59851,0.0252237,-0.00107912,0.0015595,0.0253158,-0.00117127,0.0590145,0.0172809,0.0490155,1266,1695,-0.989339,1.59845
49,-671,-0.638428,-1.38745,0.0258603,-0.0027645,0.00368031,0.0263259,-0.00323011,0.125844,0.0187204,0.0453515,1273,1695,-0.638421,1.38747
56,-671,-0.352905,-1.14868,0.0261013,-0.00471858,0.0047818,0.0268261,-0.00544344,0.150443,0.0199477,0.04636,1280,1695,-0.352905,1.14874
63,-671,-0.177124,-0.893433,0,0,0,0,0,0,0,-1,1287,1695,-0.177164,0.893413
70,-671,-0.409546,-0.906128,0,0,0,0,0,0,0,-1,1294,1695,-0.409545,0.906088
77,-671,0.388794,0.425293,0,0,0,0,0,0,0,-1,1301,1695,0.388834,-0.425264
84,-671,0.484985,0.251587,0,0,0,0,0,0,0,-1,1308,1695,0.484946,-0.251623
91,-671,0.581055,0.0780029,0,0,0,0,0,0,0,-1,1315,1695,0.581058,-0.0779816
98,-671,0.615234,1.54578,0,0,0,0,0,0,0,-1,1322,1695,0.615205,-1.54572
105,-671,4.71826,-1.49121,0,0,0,0,0,0,0,-1,1329,1695,4.71821,1.49123
112,-671,0.106323,-0.729492,0,0,0,0,0,0,0,-1,1336,1695,0.106292,0.729473
119,-671,0.164551,-0.484131,0,0,0,0,0,0,0,-1,1343,1695,0.164516,0.484099
126,-671,0.0344238,-0.581421,0,0,0,0,0,0,0,-1,1350,1695,0.0344286,0.581444
133,-671,0.00854492,-0.783447,0,0,0,0,0,0,0,-1,1357,1695,0.00856425,0.783498
140,-671,1.23584,1.54785,0,0,0,0,0,0,0,-1,1364,1695,1.23584,-1.54786
147,-671,0.917114,1.40662,0,0,0,0,0,0,0,-1,1371,1695,0.917163,-1.40663
154,-671,0.625122,1.18469,0,0,0,0,0,0,0,-1,1378,1695,0.625119,-1.18463
161,-671,0.491943,0.968994,0,0,0,0,0,0,0,-1,1385,1695,0.491958,-0.968985
168,-671,0.386963,0.922485,-0.0122892,0.0394946,0.00385134,0.0397794,-0.0125741,1.49696,0.0315574,0.0493484,1392,1695,0.386939,-0.922533
175,-671,0.257324,0.91687,-0.00907433,0.0436828,0.00132581,0.0437161,-0.00910763,1.54569,0.0326067,0.0453902,1399,1695,0.257377,-0.916914
182,-671,0.12793,0.949951,-0.00555511,0.0457093,-0.00136405,0.0457456,-0.00559138,-1.54421,0.0325214,0.0430925,1406,1695,0.127906,-0.949989
189,-671,0.10022,1.11865,-0.00224795,0.0461957,-0.003532,0.0464519,-0.00250411,-1.4984,0.0318355,0.0446329,1413,1695,0.100177,-1.11859
196,-671,0.413818,0.974731,0.0011227,0.0440589,-0.00527877,0.0446984,0.000483228,-1.45024,0.0296391,0.04049,1420,1695,0.413795,-0.974697
203,-671,0.80542,1.15881,0.00408146,0.0402948,-0.0063721,0.0413833,0.00299294,-1.4016,0.0266473,0.0401326,1427,1695,0.805386,-1.15881
210,-671,0.613892,1.01282,0.00651139,0.0358654,-0.00624233,0.0371378,0.00523906,-1.36973,0.0232101,0.0443399,1434,1695,0.613895,-1.01287
217,-671,-0.10144,0.729126,0,0,0,0,0,0,0,-1,1441,1695,-0.101482,-0.729179
224,-671,-0.0202637,-0.0966797,0.00925305,0.0275243,-0.00363396,0.0282206,0.00855683,-1.3815,0.0167085,0.0369325,1448,1695,-0.0202946,0.0967062
231,-671,0.0288086,0.359985,0.0102271,0.0226788,-0.0021187,0.0230294,0.00987646,-1.40679,0.0133408,0.0322287,1455,1695,0.0288156,-0.360022
238,-671,0.137817,0.196899,0.0111135,0.0189563,-0.00068727,0.0190161,0.0110537,-1.48405,0.0110272,0.0295433,1462,1695,0.137758,-0.196891
245,-671,0.0150146,0.0147705,0.0111935,0.015847,0.000365166,0.0158755,0.011165,1.49296,0.00941485,0.0245131,1469,1695,0.0150421,-0.0148267
252,-671,-0.0349121,-0.0209961,0.0105704,0.0130057,0.00121572,0.0135087,0.0100674,1.1785,0.00810598,0.0234757,1476,1695,-0.0348824,0.0210095
259,-671,-0.0506592,-0.0321045,0.0100586,0.0109003,0.00189478,0.0124204,0.00853847,0.89468,0.00733697,0.0188473,1483,1695,-0.0506896,0.0320986
266,-671,-0.0424805,-0.0593262,0.00953528,0.00922691,0.00241632,0.0118023,0.00695986,0.753537,0.00685054,0.0103058,1490,1695,-0.0425201,0.0593281
273,-671,-0.0559082,-0.0570068,0.00839562,0.00834465,0.00257296,0.0109432,0.00579705,0.780446,0.00632179,0.00757837,1497,1695,-0.0559381,0.0570534
280,-671,-0.0705566,-0.0490723,0.00703939,0.00742312,0.00174067,0.00898247,0.00548004,0.840289,0.00522776,0.0082316,1504,1695,-0.070605,0.0491024
287,-671,-0.0705566,-0.0830078,0.00621603,0.00678728,0.00145818,0.00798754,0.00501577,0.882112,0.00466167,0.00997567,1511,1695,-0.0705609,0.0830143
294,-671,-0.0679932,-0.0985107,0.00598701,0.00614603,0.00118246,0.00725165,0.00488139,0.818967,0.0042696,0.0098303,1518,1695,-0.0680438,0.0985064
301,-671,-0.0531006,-0.0755615,0.00556686,0.00534182,0.000821988,0.00628399,0.00462469,0.717379,0.00376031,0.00947121,1525,1695,-0.0531001,0.0755896
308,-671,-0.0460205,-0.0715332,0.00508466,0.00459449,0.000447161,0.0053495,0.00432966,0.534712,0.00327967,0.0105916,1532,1695,-0.0459986,0.0715628
315,-671,-0.0308838,-0.0748291,0.00473276,0.00385123,0.000143917,0.00475566,0.00382832,0.157801,0.00291099,0.0130673,1539,1695,-0.0308756,0.0748261
322,-671,-0.0539551,-0.0626221,0.00430932,0.00318547,-5.85092e-05,0.00431235,0.00318243,-0.0518747,0.00258203,0.0150797,1546,1695,-0.0539116,0.0626614
329,-671,-0.103394,-0.0604248,0.0036677,0.00249199,-0.000276435,0.00372945,0.00243024,-0.219781,0.00218596,0.0134203,1553,1695,-0.103411,0.0603795
336,-671,-0.072876,-0.0727539,0.00262123,0.0022821,-0.000464735,0.00294637,0.00195696,-0.610469,0.00173139,0.0100695,1560,1695,-0.072871,0.0727315
343,-671,-0.0637207,-0.0721436,0.00139266,0.00186313,-0.000644605,0.00231408,0.00094171,-0.960352,0.00134373,0.00899995,1567,1695,-0.0637025,0.0721114
350,-671,-0.0667725,-0.0795898,0.000719484,0.00192143,-0.000669397,0.00222004,0.000420867,-1.15119,0.0013616,0.00873785,1574,1695,-0.0667321,0.0795599
357,-671,-0.0789795,-0.0751953,0.000444983,0.00215533,-0.000509403,0.00229555,0.000304761,-1.30218,0.00143958,0.00920612,1581,1695,-0.0789994,0.0751608
364,-671,-0.0817871,-0.0714111,0.000170051,0.00238814,-0.000476138,0.00248602,7.21621e-05,-1.36803,0.00163383,0.0119129,1588,1695,-0.0818145,0.0714694
371,-671,-0.0758057,-0.0550537,7.62893e-05,0.00240211,-0.000347499,0.00245292,2.54798e-05,-1.42561,0.00162685,0.0135899,1595,1695,-0.0758014,0.0550437
378,-671,-0.0596924,-0.0582275,0.000369053,0.00247273,-0.000212586,0.002494,0.000347785,-1.47109,0.00155972,0.0113905,1602,1695,-0.0597074,0.0582644
385,-671,-0.0793457,-0.0611572,0.00105869,0.00229408,-7.78908e-05,0.00229897,0.0010538,-1.50808,0.00132885,0.0129963,1609,1695,-0.0792856,0.0611019
392,-671,-0.0935059,-0.0609131,0.00175433,0.00186596,-0.000133743,0.00195507,0.00166522,-0.983065,0.00121831,0.0173486,1616,1695,-0.0934961,0.060863
399,-671,-0.0799561,-0.0605469,0.00259596,0.00151546,-0.000320408,0.00268383,0.00142759,-0.267655,0.00155056,0.0132681,1623,1695,-0.0799916,0.0606024
406,-671,-0.0467529,-0.0631104,0.00393894,5.47891e-05,-0.000988652,0.00417611,-0.000182376,-0.235438,0.00284681,0.0163567,1630,1695,-0.0466992,0.0631078
413,-671,-0.0379639,-0.0598145,0.00500596,-0.00190768,-0.00220024,0.00564678,-0.0025485,-0.28341,0.00484294,0.0242807,1637,1695,-0.0379251,0.0597908
420,-671,-0.0629883,-0.0915527,0.00494433,-0.00379183,-0.0028793,0.00580794,-0.00465544,-0.291397,0.00605323,0.0391364,1644,1695,-0.0629546,0.091517
427,-671,0.173828,0.0516357,0.00455684,-0.00638584,-0.00264745,0.00516371,-0.0069927,-0.225333,0.00704493,0.0467107,1651,1695,0.173877,-0.0516731
434,-671,0.468506,0.216553,0.00536224,-0.00991032,-0.0021374,0.00565573,-0.0102038,-0.136458,0.00928116,0.0442637,1658,1695,0.468476,-0.216499
441,-671,0.424072,-0.480225,0,0,0,0,0,0,0,-1,1665,1695,0.424104,0.480183
448,-671,0.0704346,-0.1875,0.00720881,-0.0171616,-0.00269394,0.00750305,-0.0174558,-0.108792,0.014787,0.0453021,1672,1695,0.0704577,0.18756
455,-671,-0.0192871,0.13855,0.00866075,-0.0215456,-0.00251521,0.00886875,-0.0217536,-0.0825103,0.0181941,0.0432876,1679,1695,-0.0192733,-0.138543
462,-671,0.214111,0.242676,0.00920219,-0.0261116,-0.00167919,0.00928185,-0.0261913,-0.0474079,0.0212419,0.0410863,1686,1695,0.214103,-0.242669
469,-671,-0.493774,0.260498,0.0109148,-0.0295849,-8.27331e-05,0.010915,-0.0295851,-0.00204279,0.0241968,0.0455872,1693,1695,-0.493778,-0.260476
476,-671,-0.894287,0.755249,0.0149173,-0.0310689,0.000853126,0.0149331,-0.0310848,0.0185433,0.0271084,0.0440848,1700,1695,-0.89427,-0.755256
483,-671,-0.639404,1.51013,0.0218138,-0.0309929,0.000685696,0.0218227,-0.0310018,0.0129821,0.0306513,0.044765,1707,1695,-0.639368,-1.51016
490,-671,0,0,0,0,0,0,0,0,0,-1,1714,1695,0,0
497,-671,0,0,0,0,0,0,0,0,0,-1,1721,1695,0,0
504,-671,0,0,0,0,0,0,0,0,0,-1,1728,1695,0,0
511,-671,0,0,0,0,0,0,0,0,0,-1,1735,1695,0,0
518,-671,0,0,0,0,0,0,0,0,0,-1,1742,1695,0,0
525,-671,0,0,0,0,0,0,0,0,0,-1,1749,1695,0,0
532,-671,0,0,0,0,0,0,0,0,0,-1,1756,1695,0,0
539,-671,0,0,0,0,0,0,0,0,0,-1,1763,1695,0,0
546,-671,0,0,0,0,0,0,0,0,0,-1,1770,1695,0,0
553,-671,0,0,0,0,0,0,0,0,0,-1,1777,1695,0,0
560,-671,0,0,0,0,0,0,0,0,0,-1,1784,1695,0,0
567,-671,0,0,0,0,0,0,0,0,0,-1,1791,1695,0,0
574,-671,0,0,0,0,0,0,0,0,0,-1,1798,1695,0,0
581,-671,0,0,0,0,0,0,0,0,0,-1,1805,1695,0,0
588,-671,0,0,0,0,0,0,0,0,0,-1,1812,1695,0,0
595,-671,0,0,0,0,0,0,0,0,0,-1,1819,1695,0,0
602,-671,0,0,0,0,0,0,0,0,0,-1,1826,1695,0,0
609,-671,0,0,0,0,0,0,0,0,0,-1,1833,1695,0,0
616,-671,0,0,0,0,0,0,0,0,0,-1,1840,1695,0,0
623,-671,0,0,0,0,0,0,0,0,0,-1,1847,1695,0,0
630,-671,0,0,0,0,0,0,0,0,0,-1,1854,1695,0,0
637,-671,0,0,0,0,0,0,0,0,0,-1,1861,1695,0,0
644,-671,0,0,0,0,0,0,0,0,0,-1,1868,1695,0,0
651,-671,0,0,0,0,0,0,0,0,0,-1,1875,1695,0,0
658,-671,0,0,0,0,0,0,0,0,0,-1,1882,1695,0,0
665,-671,0,0,0,0,0,0,0,0,0,-1,1889,1695,0,0
672,-671,0,0,0,0,0,0,0,0,0,-1,1896,1695,0,0
679,-671,0,0,0,0,0,0,0,0,0,-1,1903,1695,0,0
686,-671,0,0,0,0,0,0,0,0,0,-1,1910,1695,0,0
693,-671,0,0,0,0,0,0,0,0,0,-1,1917,1695,0,0
700,-671,0,0,0,0,0,0,0,0,0,-1,1924,1695,0,0
707,-671,0,0,0,0,0,0,0,0,0,-1,1931,1695,0,0
714,-671,0,0,0,0,0,0,0,0,0,-1,1938,1695,0,0
721,-671,0,0,0,0,0,0,0,0,0,-1,1945,1695,0,0
728,-671,0,0,0,0,0,0,0,0,0,-1,1952,1695,0,0
735,-671,0,0,0,0,0,0,0,0,0,-1,1959,1695,0,0
742,-671,0,0,0,0,0,0,0,0,0,-1,1966,1695,0,0
749,-671,0,0,0,0,0,0,0,0,0,-1,1973,1695,0,0
756,-671,0,0,0,0,0,0,0,0,0,-1,1980,1695,0,0
763,-671,0,0,0,0,0,0,0,0,0,-1,1987,1695,0,0
770,-671,0,0,0,0,0,0,0,0,0,-1,1994,1695,0,0
777,-671,0,0,0,0,0,0,0,0,0,-1,2001,1695,0,0
784,-671,0,0,0,0,0,0,0,0,0,-1,2008,1695,0,0
791,-671,0,0,0,0,0,0,0,0,0,-1,2015,1695,0,0
798,-671,0,0,0,0,0,0,0,0,0,-1,2022,1695,0,0
805,-671,0,0,0,0,0,0,0,0,0,-1,2029,1695,0,0
812,-671,0,0,0,0,0,0,0,0,0,-1,2036,1695,0,0
-700,-678,0,0,0,0,0,0,0,0,0,-1,524,1702,0,0
-693,-678,0,0,0,0,0,0,0,0,0,-1,531,1702,0,0
-686,-678,0,0,0,0,0,0,0,0,0,-1,538,1702,0,0
-679,-678,0,0,0,0,0,0,0,0,0,-1,545,1702,0,0
-672,-678,0,0,0,0,0,0,0,0,0,-1,552,1702,0,0
-665,-678,0,0,0,0,0,0,0,0,0,-1,559,1702,0,0
-658,-678,0,0,0,0,0,0,0,0,0,-1,566,1702,0,0
-651,-678,0,0,0,0,0,0,0,0,0,-1,573,1702,0,0
-644,-678,0,0,0,0,0,0,0,0,0,-1,580,1702,0,0
-637,-678,0,0,0,0,0,0,0,0,0,-1,587,1702,0,0
-630,-678,0,0,0,0,0,0,0,0,0,-1,594,1702,0,0
-623,-678,0,0,0,0,0,0,0,0,0,-1,601,1702,0,0
-616,-678,0,0,0,0,0,0,0,0,0,-1,608,1702,0,0
-609,-678,0,0,0,0,0,0,0,0,0,-1,615,1702,0,0
-602,-678,0,0,0,0,0,0,0,0,0,-1,622,1702,0,0
-595,-678,0,0,0,0,0,0,0,0,0,-1,629,1702,0,0
-588,-678,0,0,0,0,0,0,0,0,0,-1,636,1702,0,0
-581,-678,0,0,0,0,0,0,0,0,0,-1,643,1702,0,0
-574,-678,0,0,0,0,0,0,0,0,0,-1,650,1702,0,0
-567,-678,0,0,0,0,0,0,0,0,0,-1,657,1702,0,0
-560,-678,0,0,0,0,0,0,0,0,0,-1,664,1702,0,0
-553,-678,0,0,0,0,0,0,0,0,0,-1,671,1702,0,0
-546,-678,0,0,0,0,0,0,0,0,0,-1,678,1702,0,0
-539,-678,0,0,0,0,0,0,0,0,0,-1,685,1702,0,0
-532,-678,0,0,0,0,0,0,0,0,0,-1,692,1702,0,0
-525,-678,0,0,0,0,0,0,0,0,0,-1,699,1702,0,0
-518,-678,0,0,0,0,0,0,0,0,0,-1,706,1702,0,0
-511,-678,0,0,0,0,0,0,0,0,0,-1,713,1702,0,0
-504,-678,0,0,0,0,0,0,0,0,0,-1,720,1702,0,0
-497,-678,0,0,0,0,0,0,0,0,0,-1,727,1702,0,0
-490,-678,0,0,0,0,0,0,0,0,0,-1,734,1702,0,0
-483,-678,0,0,0,0,0,0,0,0,0,-1,741,1702,0,0
-476,-678,0,0,0,0,0,0,0,0,0,-1,748,1702,0,0
-469,-678,0,0,0,0,0,0,0,0,0,-1,755,1702,0,0
-462,-678,0,0,0,0,0,0,0,0,0,-1,762,1702,0,0
-455,-678,0,0,0,0,0,0,0,0,0,-1,769,1702,0,0
-448,-678,0,0,0,0,0,0,0,0,0,-1,776,1702,0,0
-441,-678,0,0,0,0,0,0,0,0,0,-1,783,1702,0,0
-434,-678,0,0,0,0,0,0,0,0,0,-1,790,1702,0,0
-427,-678,0,0,0,0,0,0,0,0,0,-1,797,1702,0,0
-420,-678,0,0,0,0,0,0,0,0,0,-1,804,1702,0,0
-413,-678,0,0,0,0,0,0,0,0,0,-1,811,1702,0,0
-406,-678,0,0,0,0,0,0,0,0,0,-1,818,1702,0,0
-399,-678,0,0,0,0,0,0,0,0,0,-1,825,1702,0,0
-392,-678,0,0,0,0,0,0,0,0,0,-1,832,1702,0,0
-385,-678,0,0,0,0,0,0,0,0,0,-1,839,1702,0,0
-378,-678,0,0,0,0,0,0,0,0,0,-1,846,1702,0,0
-371,-678,0,0,0,0,0,0,0,0,0,-1,853,1702,0,0
-364,-678,0,0,0,0,0,0,0,0,0,-1,860,1702,0,0
-357,-678,0,0,0,0,0,0,0,0,0,-1,867,1702,0,0
-350,-678,0.583801,-0.557007,0,0,0,0,0,0,0,-1,874,1702,0.583797,0.556971
-343,-678,-0.526917,-1.96057,0,0,0,0,0,0,0,-1,881,1702,-0.52689,1.96056
-336,-678,-1.13745,-1.76221,0.0138813,0.0303672,0.0155547,0.039728,0.0045204,1.02905,0.0251145,0.0460608,888,1702,-1.13747,1.7622
-329,-678,-1.53247,-1.90259,0.0113303,0.0246092,0.0175345,0.0367192,-0.000779724,0.966381,0.0247435,0.0452792,895,1702,-1.53246,1.90255
-322,-678,-0.357971,-0.670288,0.00974004,0.0189504,0.0159152,0.0309133,-0.00222282,0.926231,0.0213883,0.0421998,902,1702,-0.35796,0.6703
-315,-678,-0.748535,0.225708,0,0,0,0,0,0,0,-1,909,1702,-0.748507,-0.225749
-308,-678,0.062439,-0.019043,0.00797419,0.0125702,0.0104411,0.0209632,-0.000418798,0.893718,0.0141172,0.0461159,916,1702,0.0624491,0.0190946
-301,-678,-0.274414,-0.164551,0.00716944,0.00945152,0.00759466,0.0159904,0.000630588,0.859962,0.0104564,0.0430114,923,1702,-0.274421,0.164511
-294,-678,-1.00598,0.529785,0.00649974,0.006919,0.00517949,0.0118931,0.00152564,0.805624,0.00747228,0.0461641,930,1702,-1.00597,-0.52973
-287,-678,-0.467896,0.917358,0,0,0,0,0,0,0,-1,937,1702,-0.467888,-0.917353
-280,-678,-0.00695801,0.145264,0,0,0,0,0,0,0,-1,944,1702,-0.00697026,-0.145247
-273,-678,-0.74469,-0.0136719,0,0,0,0,0,0,0,-1,951,1702,-0.744706,0.013663
-266,-678,-0.153259,-0.00488281,0.00245723,0.000581551,-0.001313,0.00313293,-9.41453e-05,-0.475277,0.0021207,0.0328282,958,1702,-0.153264,0.00484941
-259,-678,-0.0703735,-0.0283203,0.00174326,-4.4941e-05,-0.00158845,0.00267195,-0.000973634,-0.52906,0.00217958,0.0196153,965,1702,-0.0703814,0.0282609
-252,-678,-0.0510864,-0.0690918,0.00132853,-7.55818e-05,-0.0017949,0.00255379,-0.00130084,-0.598976,0.00226432,0.0159132,972,1702,-0.0510915,0.0690563
-245,-678,-0.0601196,-0.0776367,0.000860183,0.000159582,-0.00183563,0.00237864,-0.00135888,-0.691115,0.00218446,0.0168463,979,1702,-0.0601471,0.0776745
-238,-678,-0.0446777,-0.064209,0.000279947,0.000488989,-0.00179792,0.00218542,-0.00141648,-0.814433,0.0020953,0.0140352,986,1702,-0.0446976,0.0642076
-231,-678,-0.0612183,-0.0526123,-0.00046962,0.000660502,-0.00149827,0.00169673,-0.00150584,-0.965722,0.0018501,0.0125238,993,1702,-0.0612309,0.0526221
-224,-678,-0.0789185,-0.0662842,-0.000992101,0.0011919,-0.00121849,0.00173611,-0.00153631,-1.15075,0.00189051,0.0135361,1000,1702,-0.0789296,0.0662748
-217,-678,-0.0755615,-0.0620117,-0.00153992,0.0015588,-0.000820931,0.00176285,-0.00174397,-1.32718,0.00202467,0.0130304,1007,1702,-0.0755607,0.0619806
-210,-678,-0.0839844,-0.0487061,-0.00182656,0.00163709,-0.000639106,0.00175126,-0.00194073,-1.39403,0.0021325,0.0132265,1014,1702,-0.0840049,0.0487555
-203,-678,-0.0921631,-0.0626221,-0.00183547,0.00166759,-0.00035144,0.0017025,-0.00187038,-1.47179,0.00206356,0.0171163,1021,1702,-0.0921512,0.0626601
-196,-678,-0.0916748,-0.06604,-0.00173104,0.00157679,-0.000126388,0.00158162,-0.00173586,-1.53266,0.00191603,0.0159177,1028,1702,-0.0916264,0.0660331
-189,-678,-0.0787354,-0.0551758,-0.0016587,0.00115142,-4.52598e-05,0.00115215,-0.00165943,-1.5547,0.00163205,0.00959058,1035,1702,-0.0786805,0.0552022
-182,-678,-0.0644531,-0.0615234,-0.00133015,0.000843448,0.000311138,0.000887109,-0.00137382,1.43138,0.00131539,0.00921001,1042,1702,-0.064449,0.0615189
-175,-678,-0.0761719,-0.0684814,-0.000992062,0.000558043,0.000527114,0.000720304,-0.00115432,1.27217,0.00109194,0.00980358,1049,1702,-0.0761702,0.0684229
-168,-678,-0.083252,-0.0588379,-0.000750649,0.000549667,0.000472505,0.000703229,-0.000904212,1.25657,0.000930471,0.0102852,1056,1702,-0.083296,0.0588266
-161,-678,-0.0808105,-0.0554199,-0.000548444,0.00053267,0.000463487,0.000704168,-0.000719942,1.2164,0.000822227,0.00881786,1063,1702,-0.0808315,0.0554467
-154,-678,-0.0808105,-0.0593262,-0.000351542,0.00053104,0.000357547,0.000657708,-0.00047821,1.23032,0.000658546,0.00748748,1070,1702,-0.0807518,0.0593061
-147,-678,-0.0749512,-0.0743408,-0.000276052,0.000573355,0.000120294,0.000590062,-0.00029276,1.43279,0.000519242,0.00886717,1077,1702,-0.0749353,0.0743556
-140,-678,-0.0793457,-0.0722656,-0.00027221,0.000433467,-0.000169541,0.000472086,-0.000310829,-1.34683,0.000455201,0.00982203,1084,1702,-0.0793501,0.072237
-133,-678,-0.0792236,-0.0661621,-0.000135645,0.000682332,-0.000418685,0.000858637,-0.00031195,-1.17224,0.000699975,0.010463,1091,1702,-0.0792284,0.0662006
-126,-678,-0.0640869,-0.0727539,-7.77201e-06,0.000750921,-0.000316728,0.000865761,-0.000122612,-1.22296,0.000622086,0.00820489,1098,1702,-0.0641099,0.0727857
-119,-678,-0.0401611,-0.09021,0.000141965,0.00107992,-0.000269585,0.00115189,7.00027e-05,-1.30994,0.000745686,0.0148944,1105,1702,-0.0401416,0.09018
-112,-678,-0.0623779,-0.072876,0.000262536,0.00118644,-0.000198723,0.00122737,0.000221606,-1.36767,0.000755295,0.0206195,1112,1702,-0.0623795,0.0729186
-105,-678,-0.107666,-0.0546875,0.0003078,0.00127001,-5.41982e-05,0.00127305,0.000304757,-1.51471,0.000767553,0.020524,1119,1702,-0.1077,0.0546883
-98,-678,-0.09375,-0.0472412,0.000298153,0.0014287,0.000176842,0.00145572,0.000271137,1.4192,0.000893911,0.0134227,1126,1702,-0.0937635,0.0471913
-91,-678,-0.101929,-0.0557861,0.000223012,0.00141571,0.000615898,0.00167666,-3.79379e-05,1.17003,0.00113063,0.013847,1133,1702,-0.101936,0.0557995
-84,-678,-0.100098,-0.0395508,0.000231934,0.00155056,0.00101771,0.00210385,-0.000321364,1.07283,0.00152105,0.0221401,1140,1702,-0.100138,0.0395905
-77,-678,-0.0584717,-0.0231934,0.000213906,0.00161786,0.00130679,0.00239929,-0.000567519,1.03187,0.00181846,0.0277338,1147,1702,-0.0585009,0.0231434
-70,-678,-0.0345459,-0.02771,0.000111501,0.00179678,0.00134924,0.00254489,-0.000636614,1.06453,0.00194386,0.0286085,1154,1702,-0.0345335,0.0276743
-63,-678,0.00146484,-0.00366211,-0.000168106,0.00143605,0.00117898,0.00205992,-0.000791978,1.08409,0.00169992,0.0327793,1161,1702,0.00148323,0.00369105
-56,-678,0.0270996,-0.0615234,-0.000258224,0.0014871,0.000723545,0.00174805,-0.000519165,1.22467,0.00137157,0.0340013,1168,1702,0.0270766,0.0614917
-49,-678,-0.00744629,-0.204224,-0.000499969,0.000839862,-6.66131e-05,0.000843166,-0.000503273,-1.52124,0.000785579,0.0424053,1175,1702,-0.00740586,0.204171
-42,-678,0.083252,-0.182861,-0.000910976,-2.04652e-05,-0.00146002,0.00106068,-0.00199213,-0.933401,0.00178968,0.047573,1182,1702,0.0832293,0.182884
-35,-678,0.110107,-0.125732,-0.00122071,-0.00133562,-0.00332549,0.00204782,-0.00460415,-0.77676,0.00393391,0.0487218,1189,1702,0.110167,0.125677
-28,-678,0.199097,0.0803223,-0.001344,-0.00235152,-0.00505663,0.0032339,-0.00692942,-0.73575,0.0059957,0.045367,1196,1702,0.199058,-0.0802612
-21,-678,-0.0251465,-0.0783691,-0.00119296,-0.00293551,-0.00664638,0.004639,-0.00876748,-0.720225,0.00786162,0.0434898,1203,1702,-0.0251412,0.0783817
-14,-678,1.03345,0.660767,0,0,0,0,0,0,0,-1,1210,1702,1.03345,-0.660743
-7,-678,-0.127686,0.0147705,0,0,0,0,0,0,0,-1,1217,1702,-0.127677,-0.0147931
0,-678,-0.185669,0.554321,0,0,0,0,0,0,0,-1,1224,1702,-0.185647,-0.554382
7,-678,0.00146484,-0.576294,0.00830484,-0.00254029,-0.00721214,0.0119055,-0.00614099,-0.463051,0.0105949,0.0460719,1231,1702,0.00140725,0.576352
14,-678,-0.150513,-0.547119,0.0113202,-0.0020953,-0.00625956,0.0137872,-0.00456229,-0.375424,0.0110313,0.0445381,1238,1702,-0.150548,0.547134
21,-678,0.0938721,-0.681763,0.0142575,-0.0019696,-0.00443129,0.0153888,-0.00310083,-0.249945,0.0114338,0.0435168,1245,1702,0.0938931,0.681762
28,-678,0.0618896,-0.826172,0.0167273,-0.0022062,-0.0021904,0.0169774,-0.00245631,-0.113688,0.0122196,0.0450196,1252,1702,0.0619416,0.826162
35,-678,-2.41028,-3.30603,0,0,0,0,0,0,0,-1,1259,1702,-2.41031,3.30607
42,-678,-1.02441,-0.69104,0,0,0,0,0,0,0,-1,1266,1702,-1.02447,0.69107
49,-678,-0.679321,-0.710815,0.0213757,-0.00436295,0.00412178,0.0220196,-0.0050069,0.154978,0.0166023,0.0470742,1273,1702,-0.679358,0.710859
56,-678,-0.414063,-0.693481,0.021764,-0.00543799,0.00475001,0.0225696,-0.00624358,0.167998,0.0175028,0.0456054,1280,1702,-0.414061,0.693532
63,-678,-0.352539,-0.711304,0.0215676,-0.006725,0.0054275,0.022573,-0.00773045,0.183175,0.0181818,0.0447293,1287,1702,-0.352538,0.711292
70,-678,-0.314575,-0.741699,0,0,0,0,0,0,0,-1,1294,1702,-0.314625,0.741718
77,-678,-0.107178,-0.00878906,0,0,0,0,0,0,0,-1,1301,1702,-0.107125,0.00875514
84,-678,-0.0723877,0.131348,0,0,0,0,0,0,0,-1,1308,1702,-0.0723396,-0.131401
91,-678,-0.0375977,0.271606,0,0,0,0,0,0,0,-1,1315,1702,-0.0375537,-0.271558
98,-678,0.420044,1.05212,0,0,0,0,0,0,0,-1,1322,1702,0.420026,-1.05217
105,-678,0.494385,0.612793,0,0,0,0,0,0,0,-1,1329,1702,0.494398,-0.612798
112,-678,0.0505371,-0.589844,-0.00186067,-0.00603619,0.003703,0.000302561,-0.00819942,0.528709,0.00556987,0.041611,1336,1702,0.0505319,0.589874
119,-678,-0.0090332,-0.400269,-0.00496246,-0.0025851,0.00504828,0.00141256,-0.00896012,0.901023,0.00649566,0.0415565,1343,1702,-0.00899015,0.400213
126,-678,-0.0178223,-0.336914,-0.00748189,0.00347341,0.00560774,0.00583485,-0.00984334,1.17223,0.0091499,0.0448326,1350,1702,-0.0178167,0.336912
133,-678,-0.0493164,-0.557007,-0.00936924,0.00949037,0.0060115,0.0112436,-0.0111224,1.28703,0.0129131,0.0479872,1357,1702,-0.0492919,0.557024
140,-678,-0.0441895,-0.732422,0,0,0,0,0,0,0,-1,1364,1702,-0.0442244,0.732439
147,-678,0.477661,1.02991,0,0,0,0,0,0,0,-1,1371,1702,0.477664,-1.02993
154,-678,0.393066,0.895996,-0.0123415,0.0266398,0.00601421,0.0275466,-0.0132483,1.42115,0.0240303,0.0437334,1378,1702,0.393046,-0.89601
161,-678,0.368774,0.781372,-0.0116394,0.0322198,0.00460669,0.0326985,-0.012118,1.46727,0.0267688,0.0440196,1385,1702,0.368766,-0.781365
168,-678,0.35791,0.242554,0,0,0,0,0,0,0,-1,1392,1702,0.357856,-0.242547
175,-678,0.311035,0.45166,-0.0069341,0.0401092,0.000424774,0.040113,-0.00693793,1.56177,0.0293295,0.0405639,1399,1702,0.311049,-0.451719
182,-678,0.118408,0.682495,-0.00407684,0.0419171,-0.00144797,0.0419626,-0.00412238,-1.53936,0.0294456,0.037384,1406,1702,0.118454,-0.682493
189,-678,0.0458984,0.603394,-0.00148483,0.0423044,-0.00295672,0.0425031,-0.00168357,-1.50368,0.0289129,0.0349625,1413,1702,0.0458958,-0.603416
196,-678,0.122559,0.365845,0.00101402,0.0402004,-0.00428184,0.0406628,0.000551607,-1.46322,0.0269266,0.0317307,1420,1702,0.122538,-0.365794
203,-678,0.215332,0.227417,0.00318492,0.0366828,-0.00529315,0.0374993,0.00236842,-1.41775,0.0242486,0.0304214,1427,1702,0.215284,-0.227405
210,-678,0.113647,0.128418,0.0049491,0.0326058,-0.0053293,0.0335972,0.00395771,-1.38687,0.0212024,0.0316184,1434,1702,0.113613,-0.128465
217,-678,-0.0454102,-0.0314941,0.00605384,0.0283638,-0.00438569,0.029195,0.00522267,-1.3835,0.0179771,0.0322378,1441,1702,-0.0453824,0.0314419
224,-678,-0.0843506,-0.0539551,0.00680362,0.0247966,-0.00339836,0.025417,0.00618317,-1.39021,0.0153058,0.0238673,1448,1702,-0.084347,0.05396
231,-678,-0.0758057,-0.0610352,0.00745987,0.0204347,-0.00224928,0.0208136,0.007081,-1.40392,0.0122196,0.0179552,1455,1702,-0.0758201,0.061089
238,-678,-0.0854492,-0.0678711,0.00805464,0.0167928,-0.00119191,0.0169524,0.00789498,-1.43763,0.00979515,0.0139627,1462,1702,-0.0854256,0.0679069
245,-678,-0.0847168,-0.0635986,0.00801892,0.0136976,-0.000292137,0.0137125,0.00800393,-1.51953,0.00795382,0.0106685,1469,1702,-0.0847406,0.0636391
252,-678,-0.0723877,-0.0748291,0.0074279,0.0109894,0.00044774,0.0110449,0.00737247,1.44763,0.00649493,0.00966974,1476,1702,-0.0724406,0.0748455
259,-678,-0.0695801,-0.0644531,0.00696874,0.00889303,0.00107961,0.00937701,0.00648476,1.14936,0.00554468,0.0102689,1483,1702,-0.0696052,0.0644414
266,-678,-0.0404053,-0.0664063,0.00644551,0.00729307,0.00157612,0.00850139,0.00523719,0.916729,0.00495214,0.00995334,1490,1702,-0.0404415,0.0663818
273,-678,-0.0518799,-0.0644531,0.00540077,0.0064517,0.00170238,0.00770787,0.00414461,0.935093,0.00445436,0.00949711,1497,1702,-0.0518426,0.06447
280,-678,-0.0830078,-0.0574951,0.00431952,0.00558852,0.00103757,0.00617022,0.00373782,1.05982,0.00358885,0.0100861,1504,1702,-0.0829669,0.0575025
287,-678,-0.0795898,-0.0883789,0.00367097,0.00501563,0.000807377,0.00539396,0.00329264,1.13259,0.00313942,0.0112723,1511,1702,-0.0795753,0.0883813
294,-678,-0.0699463,-0.0946045,0.00346544,0.00440756,0.000520012,0.00463815,0.00323485,1.15342,0.00274655,0.0117739,1518,1702,-0.0699157,0.094615
301,-678,-0.0758057,-0.0718994,0.00319561,0.00387938,0.000227416,0.00394811,0.00312689,1.27731,0.00240552,0.0114223,1525,1702,-0.0758008,0.0718598
308,-678,-0.071167,-0.0792236,0.00287312,0.00343239,-0.000129626,0.00346098,0.00284453,-1.35376,0.00213176,0.0132522,1532,1702,-0.0712121,0.0792692
315,-678,-0.0377197,-0.0645752,0.00271918,0.00305436,-0.000419909,0.00333889,0.00243465,-0.975269,0.00199407,0.0151685,1539,1702,-0.0377176,0.0645759
322,-678,-0.0655518,-0.0316162,0.00258992,0.00271097,-0.000581756,0.00323534,0.00206555,-0.83723,0.00189164,0.0180221,1546,1702,-0.0655398,0.0315908
329,-678,-0.0819092,-0.0450439,0.0022723,0.00236178,-0.000709762,0.00302821,0.00160587,-0.816872,0.00174941,0.0145001,1553,1702,-0.0819376,0.0450861
336,-678,-0.0812988,-0.0750732,0.00161698,0.00234189,-0.000757135,0.00281885,0.00114001,-1.00864,0.00163735,0.0112899,1560,1702,-0.0813102,0.0750946
343,-678,-0.0706787,-0.0690918,0.000842011,0.00214671,-0.000754495,0.00249177,0.000496953,-1.14186,0.0015228,0.0104852,1567,1702,-0.0706792,0.0690565
350,-678,-0.0722656,-0.0629883,0.000492477,0.00223642,-0.000680205,0.00247035,0.00025855,-1.23956,0.00156784,0.0101072,1574,1702,-0.0722663,0.0629499
357,-678,-0.0604248,-0.0731201,0.000392291,0.00238395,-0.000464132,0.0024868,0.000289442,-1.35273,0.0015703,0.00861401,1581,1702,-0.060463,0.0731415
364,-678,-0.0811768,-0.0664063,0.000232349,0.00256052,-0.000394429,0.00262553,0.000167341,-1.40745,0.00169732,0.011148,1588,1702,-0.0812294,0.0664407
371,-678,-0.0998535,-0.0543213,0.000293484,0.00245401,-0.000198308,0.00247206,0.000275433,-1.48002,0.00156433,0.0119107,1595,1702,-0.0999139,0.0543177
378,-678,-0.0864258,-0.0654297,0.000702545,0.00248026,-1.70473e-05,0.00248043,0.000702382,-1.56121,0.00147628,0.0119732,1602,1702,-0.0863854,0.0654438
385,-678,-0.0875244,-0.0770264,0.00148331,0.00222239,0.000119897,0.00224135,0.00146435,1.41393,0.00131417,0.0114781,1609,1702,-0.0875077,0.0769706
392,-678,-0.0856934,-0.0718994,0.00235675,0.00173934,4.79474e-05,0.00236045,0.00173563,0.0770424,0.00141221,0.0201092,1616,1702,-0.0857253,0.0718479
399,-678,-0.0638428,-0.0975342,0.0034557,0.00127555,-0.000197297,0.00347341,0.00125784,-0.0895279,0.00203062,0.0299337,1623,1702,-0.0637861,0.0974955
406,-678,-0.0568848,-0.107788,0.00509658,-0.000581281,-0.00107396,0.00529293,-0.000777629,-0.180829,0.00381434,0.0345222,1630,1702,-0.056868,0.107824
413,-678,0.00146484,-0.048584,0.00649611,-0.00300211,-0.00254774,0.00713635,-0.00364234,-0.246197,0.00633113,0.0392054,1637,1702,0.00143694,0.0485822
420,-678,-0.0194092,-0.041748,0.00664772,-0.00536677,-0.00346475,0.00757528,-0.00629433,-0.261579,0.008019,0.0462832,1644,1702,-0.0194653,0.0417026
427,-678,0.169922,-0.0595703,0.00643584,-0.00847636,-0.00342078,0.00718311,-0.00922362,-0.21507,0.00949682,0.046119,1651,1702,0.169962,0.059567
434,-678,0.27771,-0.152832,0.00757572,-0.012601,-0.00303836,0.00802333,-0.0130486,-0.146267,0.0122807,0.0442687,1658,1702,0.277695,0.152791
441,-678,0.127808,-0.371704,0,0,0,0,0,0,0,-1,1665,1702,0.127811,0.371691
448,-678,0.204468,0.0249023,0,0,0,0,0,0,0,-1,1672,1702,0.204508,-0.0249341
455,-678,0.562134,0.619019,0.0103434,-0.0267552,-0.00366129,0.0107013,-0.0271131,-0.0974383,0.0225071,0.0449468,1679,1702,0.562167,-0.618976
462,-678,0.843384,0.684448,0.00976379,-0.0331498,-0.00234375,0.00989142,-0.0332774,-0.0543999,0.0261142,0.0439035,1686,1702,0.843409,-0.684454
469,-678,-0.430176,0.182373,0,0,0,0,0,0,0,-1,1693,1702,-0.430208,-0.18235
476,-678,0,0,0,0,0,0,0,0,0,-1,1700,1702,0,0
483,-678,0,0,0,0,0,0,0,0,0,-1,1707,1702,0,0
490,-678,0,0,0,0,0,0,0,0,0,-1,1714,1702,0,0
497,-678,0,0,0,0,0,0,0,0,0,-1,1721,1702,0,0
504,-678,0,0,0,0,0,0,0,0,0,-1,1728,1702,0,0
511,-678,0,0,0,0,0,0,0,0,0,-1,1735,1702,0,0
518,-678,0,0,0,0,0,0,0,0,0,-1,1742,1702,0,0
525,-678,0,0,0,0,0,0,0,0,0,-1,1749,1702,0,0
532,-678,0,0,0,0,0,0,0,0,0,-1,1756,1702,0,0
539,-678,0,0,0,0,0,0,0,0,0,-1,1763,1702,0,0
546,-678,0,0,0,0,0,0,0,0,0,-1,1770,1702,0,0
553,-678,0,0,0,0,0,0,0,0,0,-1,1777,1702,0,0
560,-678,0,0,0,0,0,0,0,0,0,-1,1784,1702,0,0
567,-678,0,0,0,0,0,0,0,0,0,-1,1791,1702,0,0
574,-678,0,0,0,0,0,0,0,0,0,-1,1798,1702,0,0
581,-678,0,0,0,0,0,0,0,0,0,-1,1805,1702,0,0
588,-678,0,0,0,0,0,0,0,0,0,-1,1812,1702,0,0
595,-678,0,0,0,0,0,0,0,0,0,-1,1819,1702,0,0
602,-678,0,0,0,0,0,0,0,0,0,-1,1826,1702,0,0
609,-678,0,0,0,0,0,0,0,0,0,-1,1833,1702,0,0
616,-678,0,0,0,0,0,0,0,0,0,-1,1840,1702,0,0
623,-678,0,0,0,0,0,0,0,0,0,-1,1847,1702,0,0
630,-678,0,0,0,0,0,0,0,0,0,-1,1854,1702,0,0
637,-678,0,0,0,0,0,0,0,0,0,-1,1861,1702,0,0
644,-678,0,0,0,0,0,0,0,0,0,-1,1868,1702,0,0
651,-678,0,0,0,0,0,0,0,0,0,-1,1875,1702,0,0
658,-678,0,0,0,0,0,0,0,0,0,-1,1882,1702,0,0
665,-678,0,0,0,0,0,0,0,0,0,-1,1889,1702,0,0
672,-678,0,0,0,0,0,0,0,0,0,-1,1896,1702,0,0
679,-678,0,0,0,0,0,0,0,0,0,-1,1903,1702,0,0
686,-678,0,0,0,0,0,0,0,0,0,-1,1910,1702,0,0
693,-678,0,0,0,0,0,0,0,0,0,-1,1917,1702,0,0
700,-678,0,0,0,0,0,0,0,0,0,-1,1924,1702,0,0
707,-678,0,0,0,0,0,0,0,0,0,-1,1931,1702,0,0
714,-678,0,0,0,0,0,0,0,0,0,-1,1938,1702,0,0
721,-678,0,0,0,0,0,0,0,0,0,-1,1945,1702,0,0
728,-678,0,0,0,0,0,0,0,0,0,-1,1952,1702,0,0
735,-678,0,0,0,0,0,0,0,0,0,-1,1959,1702,0,0
742,-678,0,0,0,0,0,0,0,0,0,-1,1966,1702,0,0
749,-678,0,0,0,0,0,0,0,0,0,-1,1973,1702,0,0
756,-678,0,0,0,0,0,0,0,0,0,-1,1980,1702,0,0
763,-678,0,0,0,0,0,0,0,0,0,-1,1987,1702,0,0
770,-678,0,0,0,0,0,0,0,0,0,-1,1994,1702,0,0
777,-678,0,0,0,0,0,0,0,0,0,-1,2001,1702,0,0
784,-678,0,0,0,0,0,0,0,0,0,-1,2008,1702,0,0
791,-678,0,0,0,0,0,0,0,0,0,-1,2015,1702,0,0
798,-678,0,0,0,0,0,0,0,0,0,-1,2022,1702,0,0
805,-678,0,0,0,0,0,0,0,0,0,-1,2029,1702,0,0
812,-678,0,0,0,0,0,0,0,0,0,-1,2036,1702,0,0
-700,-685,0,0,0,0,0,0,0,0,0,-1,524,1709,0,0
-693,-685,0,0,0,0,0,0,0,0,0,-1,531,1709,0,0
-686,-685,0,0,0,0,0,0,0,0,0,-1,538,1709,0,0
-679,-685,0,0,0,0,0,0,0,0,0,-1,545,1709,0,0
-672,-685,0,0,0,0,0,0,0,0,0,-1,552,1709,0,0
-665,-685,0,0,0,0,0,0,0,0,0,-1,559,1709,0,0
-658,-685,0,0,0,0,0,0,0,0,0,-1,566,1709,0,0
-651,-685,0,0,0,0,0,0,0,0,0,-1,573,1709,0,0
-644,-685,0,0,0,0,0,0,0,0,0,-1,580,1709,0,0
-637,-685,0,0,0,0,0,0,0,0,0,-1,587,1709,0,0
-630,-685,0,0,0,0,0,0,0,0,0,-1,594,1709,0,0
-623,-685,0,0,0,0,0,0,0,0,0,-1,601,1709,0,0
-616,-685,0,0,0,0,0,0,0,0,0,-1,608,1709,0,0
-609,-685,0,0,0,0,0,0,0,0,0,-1,615,1709,0,0
-602,-685,0,0,0,0,0,0,0,0,0,-1,622,1709,0,0
-595,-685,0,0,0,0,0,0,0,0,0,-1,629,1709,0,0
-588,-685,0,0,0,0,0,0,0,0,0,-1,636,1709,0,0
-581,-685,0,0,0,0,0,0,0,0,0,-1,643,1709,0,0
-574,-685,0,0,0,0,0,0,0,0,0,-1,650,1709,0,0
-567,-685,0,0,0,0,0,0,0,0,0,-1,657,1709,0,0
-560,-685,0,0,0,0,0,0,0,0,0,-1,664,1709,0,0
-553,-685,0,0,0,0,0,0,0,0,0,-1,671,1709,0,0
-546,-685,0,0,0,0,0,0,0,0,0,-1,678,1709,0,0
-539,-685,0,0,0,0,0,0,0,0,0,-1,685,1709,0,0
-532,-685,0,0,0,0,0,0,0,0,0,-1,692,1709,0,0
-525,-685,0,0,0,0,0,0,0,0,0,-1,699,1709,0,0
-518,-685,0,0,0,0,0,0,0,0,0,-1,706,1709,0,0
-511,-685,0,0,0,0,0,0,0,0,0,-1,713,1709,0,0
-504,-685,0,0,0,0,0,0,0,0,0,-1,720,1709,0,0
-497,-685,0,0,0,0,0,0,0,0,0,-1,727,1709,0,0
-490,-685,0,0,0,0,0,0,0,0,0,-1,734,1709,0,0
-483,-685,0,0,0,0,0,0,0,0,0,-1,741,1709,0,0
-476,-685,0,0,0,0,0,0,0,0,0,-1,748,1709,0,0
-469,-685,0,0,0,0,0,0,0,0,0,-1,755,1709,0,0
-462,-685,0,0,0,0,0,0,0,0,0,-1,762,1709,0,0
-455,-685,0,0,0,0,0,0,0,0,0,-1,769,1709,0,0
-448,-685,0,0,0,0,0,0,0,0,0,-1,776,1709,0,0
-441,-685,0,0,0,0,0,0,0,0,0,-1,783,1709,0,0
-434,-685,0,0,0,0,0,0,0,0,0,-1,790,1709,0,0
-427,-685,0,0,0,0,0,0,0,0,0,-1,797,1709,0,0
-420,-685,0,0,0,0,0,0,0,0,0,-1,804,1709,0,0
-413,-685,0,0,0,0,0,0,0,0,0,-1,811,1709,0,0
-406,-685,0,0,0,0,0,0,0,0,0,-1,818,1709,0,0
-399,-685,0,0,0,0,0,0,0,0,0,-1,825,1709,0,0
-392,-685,0,0,0,0,0,0,0,0,0,-1,832,1709,0,0
-385,-685,0,0,0,0,0,0,0,0,0,-1,839,1709,0,0
-378,-685,0,0,0,0,0,0,0,0,0,-1,846,1709,0,0
-371,-685,0,0,0,0,0,0,0,0,0,-1,853,1709,0,0
-364,-685,0,0,0,0,0,0,0,0,0,-1,860,1709,0,0
-357,-685,0,0,0,0,0,0,0,0,0,-1,867,1709,0,0
-350,-685,0,0,0,0,0,0,0,0,0,-1,874,1709,0,0
-343,-685,-0.686707,-1.80591,0,0,0,0,0,0,0,-1,881,1709,-0.686729,1.80594
-336,-685,-1.15778,-1.92981,0.0173315,0.0351165,0.015556,0.0441423,0.00830572,1.04505,0.0270875,0.0480801,888,1709,-1.15779,1.92987
-329,-685,-1.50751,-2.21387,0.0147431,0.0292046,0.0177272,0.0411191,0.00282864,0.979043,0.0265202,0.0471259,895,1709,-1.50748,2.21393
-322,-685,-0.790649,-0.264526,0,0,0,0,0,0,0,-1,902,1709,-0.790655,0.264546
-315,-685,-0.617188,-0.0498047,0.0117487,0.0198175,0.0131876,0.029574,0.00199219,0.933838,0.0190866,0.0446183,909,1709,-0.617206,0.0498504
-308,-685,-0.265869,0.0361328,0.0104881,0.0155745,0.0104275,0.0237645,0.00229812,0.905009,0.0151352,0.0452778,916,1709,-0.265866,-0.0360815
-301,-685,-0.150757,0.0860596,0.00919599,0.0117625,0.00756349,0.0181508,0.00280767,0.86943,0.0112817,0.0455332,923,1709,-0.150729,-0.0860794
-294,-685,-0.309998,0.256226,0.00817788,0.00865067,0.00528077,0.0137003,0.00312822,0.807766,0.00828995,0.0477163,930,1709,-0.309974,-0.256253
-287,-685,-0.196472,0.45813,0.00708994,0.0057641,0.00314223,0.00963842,0.00321562,0.681437,0.0056665,0.0460435,937,1709,-0.19645,-0.458118
-280,-685,-0.725769,0.203979,0,0,0,0,0,0,0,-1,944,1709,-0.725789,-0.203971
-273,-685,-0.462952,0.181641,0.0049133,0.00178457,-7.4752e-05,0.00491508,0.00178278,-0.023874,0.00287316,0.0448966,951,1709,-0.462964,-0.181672
-266,-685,-0.0383911,0.175537,0.00353891,0.0011025,-0.00103408,0.00391862,0.000722785,-0.351916,0.00240792,0.0392557,958,1709,-0.0383905,-0.175555
-259,-685,0.116943,0.0799561,0.002659,0.000450479,-0.00119273,0.00318016,-7.06849e-05,-0.411948,0.00214406,0.0337221,965,1709,0.116927,-0.0800019
-252,-685,-0.026123,-0.000854492,0.0020964,0.000452365,-0.00135182,0.00285651,-0.000307742,-0.512227,0.00201477,0.031583,972,1709,-0.026119,0.000849084
-245,-685,-0.0661621,-0.020874,0.00150474,0.000765388,-0.00136583,0.00255003,-0.000279907,-0.653235,0.00180059,0.0308363,979,1709,-0.0661348,0.0208361
-238,-685,-0.0466309,-0.0529785,0.00079041,0.00114078,-0.00133596,0.00231299,-0.000381801,-0.850592,0.00168375,0.0235091,986,1709,-0.0466321,0.0529887
-231,-685,-0.0487671,-0.0571289,-0.000117418,0.00137164,-0.00106293,0.00192486,-0.000670635,-1.09091,0.00155574,0.0151816,993,1709,-0.0487415,0.0571585
-224,-685,-0.0673218,-0.0551758,-0.000871006,0.00191562,-0.000940164,0.00220315,-0.00115854,-1.274,0.00197186,0.0139676,1000,1709,-0.0673019,0.0551967
-217,-685,-0.0809937,-0.0499268,-0.00165283,0.00222964,-0.000725892,0.00236092,-0.00178411,-1.39188,0.00240085,0.0111111,1007,1709,-0.080966,0.0499517
-210,-685,-0.0910645,-0.0406494,-0.0021297,0.00216593,-0.00078967,0.0023065,-0.00227026,-1.39464,0.00264242,0.0149137,1014,1709,-0.0910769,0.040622
-203,-685,-0.0983887,-0.0487061,-0.00229766,0.00206977,-0.000725119,0.00218702,-0.00241491,-1.4105,0.00265801,0.0143609,1021,1709,-0.098394,0.0486855
-196,-685,-0.098877,-0.0557861,-0.00233601,0.00181557,-0.000680767,0.00192435,-0.00244479,-1.41234,0.00252848,0.0119988,1028,1709,-0.0988743,0.0558007
-189,-685,-0.0714111,-0.0709229,-0.00237038,0.00119643,-0.000828646,0.00137954,-0.00255349,-1.35331,0.00230421,0.00805456,1035,1709,-0.0713908,0.0709576
-182,-685,-0.0649414,-0.0754395,-0.00209703,0.000718026,-0.000583651,0.000834238,-0.00221324,-1.37425,0.00181852,0.0120181,1042,1709,-0.0649962,0.0754401
-175,-685,-0.0644531,-0.06604,-0.00173975,0.000278879,-0.000430364,0.000366801,-0.00182767,-1.36927,0.00135734,0.0125371,1049,1709,-0.0643923,0.0659875
-168,-685,-0.0653076,-0.0661621,-0.00149495,0.000102199,-0.000435165,0.000213069,-0.00160582,-1.32133,0.00114818,0.0104171,1056,1709,-0.0652661,0.0661431
-161,-685,-0.0667725,-0.0629883,-0.00128026,2.18032e-05,-0.000328961,0.000100194,-0.00135865,-1.33686,0.000940947,0.0108144,1063,1709,-0.0667116,0.062997
-154,-685,-0.0708008,-0.0455322,-0.00102385,-1.59453e-05,-0.000273256,5.33709e-05,-0.00109317,-1.32237,0.000747204,0.00933328,1070,1709,-0.0707688,0.045529
-147,-685,-0.0765381,-0.0587158,-0.000810621,3.98034e-05,-0.000257796,0.000111848,-0.000882666,-1.29829,0.00062905,0.00793419,1077,1709,-0.0765317,0.0587378
-140,-685,-0.0872803,-0.0743408,-0.000660006,-7.62411e-05,-0.000289847,4.32238e-05,-0.000779471,-1.17985,0.000534638,0.0100284,1084,1709,-0.0873251,0.0743125
-133,-685,-0.0809326,-0.0703125,-0.000392767,0.000110535,-0.000299487,0.000250063,-0.000532295,-1.13481,0.000461387,0.00999115,1091,1709,-0.0808774,0.0702714
-126,-685,-0.0804443,-0.0617676,-0.000157625,0.00017136,-8.90885e-05,0.000193935,-0.000180201,-1.32261,0.000216056,0.00894681,1098,1709,-0.0804068,0.0617805
-119,-685,-0.0561523,-0.0716553,0.000148198,0.000484809,9.84257e-05,0.000511476,0.000121531,1.30621,0.000308558,0.0120919,1105,1709,-0.056118,0.071649
-112,-685,-0.0667725,-0.0678711,0.000392472,0.000598444,0.00023795,0.000754738,0.000236177,0.989629,0.000445799,0.0113195,1112,1709,-0.0668072,0.0678624
-105,-685,-0.0904541,-0.0738525,0.000523567,0.000756339,0.000367044,0.00102501,0.000254898,0.938928,0.000616204,0.00961268,1119,1709,-0.0904705,0.0738739
-98,-685,-0.0665283,-0.0675049,0.000598649,0.000945456,0.000536571,0.00133595,0.000208158,0.941686,0.000829992,0.0119745,1126,1709,-0.0665562,0.0674691
-91,-685,-0.0689697,-0.0915527,0.000636673,0.00101949,0.000836686,0.00168638,-3.02214e-05,0.897847,0.00113446,0.0149264,1133,1709,-0.0689463,0.091547
-84,-685,-0.0855713,-0.100464,0.000691581,0.00120116,0.00113551,0.00211012,-0.000217373,0.895762,0.00148452,0.013589,1140,1709,-0.0856187,0.100509
-77,-685,-0.0834961,-0.0513916,0.000729421,0.00139779,0.00135843,0.00246254,-0.000335329,0.906007,0.00176413,0.011603,1147,1709,-0.0835084,0.0513934
-70,-685,-0.0550537,-0.0633545,0.000679796,0.0016391,0.00143529,0.00267277,-0.00035387,0.946656,0.00191076,0.0127485,1154,1709,-0.0550408,0.0633261
-63,-685,-0.0488281,-0.0780029,0.000505124,0.00140204,0.00133284,0.00235985,-0.000452677,0.947684,0.00174382,0.0177423,1161,1709,-0.04879,0.0779509
-56,-685,-0.0516357,-0.0872803,0.000437474,0.00145298,0.00105467,0.00211576,-0.000225305,1.00974,0.00149129,0.0238099,1168,1709,-0.0516232,0.0873026
-49,-685,-0.0657959,-0.0949707,0.000180172,0.000854627,0.000460569,0.00108823,-5.34295e-05,1.1014,0.000743936,0.025965,1175,1709,-0.0658205,0.0949233
-42,-685,0.036499,-0.100098,-0.000184659,-4.12832e-05,-0.000653583,0.000544532,-0.000770474,-0.840022,0.000762946,0.0291441,1182,1709,0.0365214,0.100141
-35,-685,0.0174561,-0.0604248,-0.000398563,-0.00135957,-0.00217107,0.00134454,-0.00310268,-0.676493,0.00263364,0.0340266,1189,1709,0.0174592,0.0604589
-28,-685,-0.0638428,-0.0565186,-0.000435205,-0.00250252,-0.00355433,0.00223272,-0.00517044,-0.643893,0.00438496,0.0361324,1196,1709,-0.0638409,0.0564762
-21,-685,-0.0541992,-0.072998,-0.000242771,-0.00333081,-0.00484953,0.0033026,-0.00687618,-0.631279,0.00599624,0.0287909,1203,1709,-0.0542475,0.0729713
-14,-685,-0.0583496,-0.0603027,0.000987847,-0.00381169,-0.00571613,0.00478751,-0.00761136,-0.586659,0.00722011,0.0214095,1210,1709,-0.0583229,0.0603506
-7,-685,-0.106079,-0.0313721,0.00287035,-0.0035772,-0.00603611,0.00648963,-0.00719647,-0.540128,0.00790519,0.0365582,1217,1709,-0.106076,0.0314061
0,-685,0.0661621,-0.195068,0.00514425,-0.00428158,-0.00549496,0.00767055,-0.00680788,-0.43093,0.00836407,0.0422511,1224,1709,0.0661035,0.195063
7,-685,-0.0964355,-0.316284,0.00759138,-0.00430552,-0.00490254,0.00935129,-0.00606544,-0.344653,0.00896799,0.0375454,1231,1709,-0.0964285,0.316296
14,-685,-0.0893555,-0.316284,0.00997221,-0.00418274,-0.00400498,0.0110268,-0.00523733,-0.257476,0.00958635,0.0372017,1238,1709,-0.0893349,0.316242
21,-685,0.0286865,-0.362671,0.0122658,-0.00416712,-0.00238909,0.0126061,-0.00450741,-0.141483,0.0102426,0.0347813,1245,1709,0.0286261,0.362707
28,-685,-0.0714111,-0.156494,0.0141172,-0.00437452,-0.000485569,0.0141299,-0.00438726,-0.0262347,0.0111733,0.0384813,1252,1709,-0.0714433,0.156493
35,-685,-0.11084,-0.052002,0.0156764,-0.00495353,0.00155236,0.0157926,-0.00506969,0.0746875,0.012564,0.0399296,1259,1709,-0.110809,0.0519594
42,-685,-0.0720215,0.0268555,0.0173001,-0.00476755,0.00317866,0.0177489,-0.00521628,0.140244,0.0139015,0.0423605,1266,1709,-0.0720253,-0.0269015
49,-685,-0.730713,-0.0869141,0,0,0,0,0,0,0,-1,1273,1709,-0.730732,0.0868567
56,-685,-0.312134,-0.243408,0.0184881,-0.00533494,0.00428624,0.0192358,-0.00608266,0.172707,0.015261,0.0431004,1280,1709,-0.312106,0.243395
63,-685,-0.334229,-0.372925,0.0184454,-0.00585785,0.00451671,0.0192577,-0.00667013,0.177936,0.0155463,0.0427439,1287,1709,-0.33428,0.372907
70,-685,0.136719,0.052124,0,0,0,0,0,0,0,-1,1294,1709,0.136777,-0.0520991
77,-685,0.0345459,0.0532227,0.0155093,-0.00770079,0.00281078,0.0158449,-0.00803633,0.118814,0.0140313,0.0423391,1301,1709,0.0345692,-0.0532835
84,-685,-0.0943604,0.0826416,0.0130978,-0.0088679,0.00100263,0.0131435,-0.00891357,0.0455193,0.0128125,0.0446654,1308,1709,-0.0943058,-0.0826255
91,-685,0.098877,0.636597,0.0098301,-0.00969406,-0.000547713,0.00984545,-0.00970941,-0.0280237,0.0112901,0.0433059,1315,1709,0.0988783,-0.636607
98,-685,0.206177,0.561646,0.00653564,-0.00950405,-0.00100703,0.00659862,-0.00956702,-0.0624565,0.00938554,0.0402071,1322,1709,0.206139,-0.561666
105,-685,-0.0957031,-0.374756,0.00323633,-0.00688975,-0.00114105,0.00336331,-0.00701673,-0.110833,0.0061154,0.0415248,1329,1709,-0.0956755,0.374726
112,-685,-0.139771,-0.497925,0.000220716,-0.00499902,-0.000600379,0.000288882,-0.00506718,-0.113054,0.00347842,0.0422492,1336,1709,-0.139768,0.497894
119,-685,-0.0368652,-0.274536,-0.00246595,-0.0022577,0.000359395,-0.00198765,-0.002736,0.926401,0.00163275,0.0398128,1343,1709,-0.0368543,0.274478
126,-685,-0.0653076,-0.179321,-0.00482592,0.00277463,0.000934087,0.00288774,-0.00493903,1.45029,0.00457023,0.0416418,1350,1709,-0.0653339,0.179372
133,-685,-0.0400391,-0.293091,-0.00666067,0.00799648,0.00152069,0.00815259,-0.00681678,1.4685,0.00865403,0.0440454,1357,1709,-0.0400905,0.293087
140,-685,0.328735,0.426147,0,0,0,0,0,0,0,-1,1364,1709,0.328743,-0.426122
147,-685,0.305054,0.46106,-0.00932917,0.0185692,0.00290302,0.0188681,-0.00962805,1.4682,0.0167381,0.0399804,1371,1709,0.305012,-0.46106
154,-685,0.164795,0.448364,-0.00953642,0.0235453,0.00292347,0.0238017,-0.00979278,1.48333,0.01995,0.0397612,1378,1709,0.164853,-0.448423
161,-685,-0.0404053,0.0241699,-0.00892645,0.0287163,0.00224631,0.0288499,-0.00906002,1.5114,0.0228598,0.0431583,1385,1709,-0.0403813,-0.024224
168,-685,0.171753,0.105225,-0.00722326,0.0323784,0.000746289,0.0323924,-0.00723732,1.55196,0.0243683,0.0385823,1392,1709,0.171704,-0.105203
175,-685,0.121704,0.0976563,-0.00520711,0.0356018,-0.000291709,0.0356039,-0.0052092,-1.56365,0.0256493,0.0329583,1399,1709,0.121736,-0.0977076
182,-685,0.0316162,0.0928955,-0.00304679,0.0371138,-0.00139311,0.0371621,-0.00309505,-1.53616,0.0258682,0.0273215,1406,1709,0.031664,-0.0929248
189,-685,-0.0748291,0.0153809,-0.00110123,0.0373294,-0.00228745,0.037465,-0.0012369,-1.51155,0.025399,0.0245096,1413,1709,-0.0748545,-0.0154403
196,-685,-0.0554199,-0.0463867,0,0,0,0,0,0,0,-1,1420,1709,-0.0554178,0.0463522
203,-685,-0.0535889,-0.0500488,0.00205041,0.0321603,-0.00401021,0.0326853,0.00152546,-1.44063,0.0212999,0.017907,1427,1709,-0.0536238,0.0499919
210,-685,-0.0717773,-0.0393066,0.00319119,0.0285532,-0.00418812,0.0292269,0.00251748,-1.4113,0.018702,0.0188436,1434,1709,-0.0718139,0.0393149
217,-685,-0.100586,-0.0450439,0.00383638,0.024792,-0.0035989,0.0253928,0.00323554,-1.40537,0.0159597,0.0192174,1441,1709,-0.100599,0.0450557
224,-685,-0.102295,-0.0599365,0.00427078,0.0215395,-0.00291727,0.022019,0.00379127,-1.40788,0.013593,0.0142787,1448,1709,-0.102247,0.0598861
231,-685,-0.088501,-0.0628662,0.00463437,0.0177435,-0.00212227,0.0180785,0.00429935,-1.41423,0.0109055,0.0136405,1455,1709,-0.088452,0.0628121
238,-685,-0.0959473,-0.0876465,0.00471085,0.0144558,-0.00137451,0.014646,0.00452069,-1.43332,0.00865977,0.0166993,1462,1709,-0.0959463,0.0876433
245,-685,-0.112183,-0.0866699,0.00437339,0.0116455,-0.000678852,0.0117083,0.00431056,-1.47851,0.00683769,0.0183238,1469,1709,-0.112178,0.0866617
252,-685,-0.0769043,-0.0753174,0.00365135,0.00924784,-8.7064e-05,0.00924919,0.00365,-1.55524,0.00537941,0.0141234,1476,1709,-0.0768767,0.07531
259,-685,-0.05896,-0.0616455,0.00309831,0.00740766,0.000454227,0.00745501,0.00305095,1.46691,0.00432772,0.0100451,1483,1709,-0.0589307,0.061625
266,-685,-0.0400391,-0.0640869,0.00255267,0.00606018,0.000922354,0.00628794,0.00232491,1.32871,0.00367118,0.0103252,1490,1709,-0.0400205,0.064128
273,-685,-0.0516357,-0.0610352,0.00169584,0.00541991,0.00107321,0.00570705,0.0014087,1.30937,0.00343287,0.0111916,1497,1709,-0.0516859,0.060992
280,-685,-0.0786133,-0.0427246,0.00101161,0.00479224,0.000669237,0.00490721,0.000896638,1.40066,0.00301733,0.0129015,1504,1709,-0.0785964,0.0427796
287,-685,-0.0716553,-0.0568848,0.000687867,0.00436209,0.000488987,0.00442605,0.000623903,1.44073,0.00276629,0.0123319,1511,1709,-0.0716172,0.0568899
294,-685,-0.0776367,-0.0709229,0.000695338,0.00387876,0.000209345,0.00389247,0.00068163,1.50541,0.00240025,0.0107568,1518,1709,-0.0776444,0.0708673
301,-685,-0.0959473,-0.0570068,0.000855712,0.00357859,-1.87816e-05,0.00357872,0.000855582,-1.5639,0.00215792,0.0122785,1525,1709,-0.0959619,0.057015
308,-685,-0.0887451,-0.0681152,0.000990913,0.00335547,-0.000365026,0.00341054,0.000935845,-1.42106,0.00203479,0.0136681,1532,1709,-0.0887453,0.0681244
315,-685,-0.0533447,-0.0628662,0.00127317,0.00321353,-0.000691946,0.00343501,0.0010517,-1.26103,0.00203227,0.0121561,1539,1709,-0.0533431,0.0628173
322,-685,-0.0528564,-0.0506592,0.00158968,0.00301054,-0.0008787,0.00343008,0.00117014,-1.12535,0.0020134,0.0194283,1546,1709,-0.0527957,0.0506366
329,-685,-0.0631104,-0.0535889,0.00163134,0.00279234,-0.00101606,0.00338203,0.00104164,-1.04493,0.00200003,0.0185485,1553,1709,-0.0630779,0.0535459
336,-685,-0.0695801,-0.0649414,0.00131782,0.00274821,-0.00104973,0.00330323,0.000762809,-1.08444,0.00199705,0.0126343,1560,1709,-0.0696099,0.0649014
343,-685,-0.0657959,-0.0687256,0.00104027,0.00249558,-0.00100549,0.00300909,0.000526765,-1.09862,0.00185557,0.0115627,1567,1709,-0.0657817,0.0687339
350,-685,-0.0584717,-0.071167,0.000931775,0.00246338,-0.000859393,0.00284867,0.000546486,-1.14933,0.0017457,0.0122271,1574,1709,-0.0584633,0.0712123
357,-685,-0.0600586,-0.0655518,0.000838081,0.00247857,-0.000611508,0.00268143,0.000635221,-1.25048,0.00161799,0.00977533,1581,1709,-0.0600178,0.0655039
364,-685,-0.0759277,-0.0743408,0.000665084,0.0025426,-0.000502183,0.00266848,0.000539204,-1.32519,0.00162927,0.00937614,1588,1709,-0.0759466,0.074391
371,-685,-0.0456543,-0.0794678,0.000726838,0.00225813,-0.000234807,0.00229332,0.000691642,-1.42201,0.00135836,0.0142662,1595,1709,-0.0456386,0.0794518
378,-685,-0.0533447,-0.0687256,0.00114355,0.00213682,2.67053e-05,0.00213754,0.00114283,1.54394,0.0012351,0.0176642,1602,1709,-0.053401,0.068703
385,-685,-0.156616,-0.0881348,0.00201229,0.00169088,0.000223476,0.00212684,0.00157633,0.473684,0.00127465,0.0273406,1609,1709,-0.156588,0.0881512
392,-685,-0.18103,-0.399292,0.00309079,0.00104193,0.000208301,0.00311175,0.00102097,0.100299,0.00183162,0.031446,1616,1709,-0.181013,0.39929
399,-685,-0.239746,-0.42395,0.00449529,0.00034907,-3.03198e-05,0.00449551,0.000348848,-0.00731213,0.00288776,0.0376031,1623,1709,-0.239783,0.423976
406,-685,-0.165039,-0.240845,0.00649309,-0.00194774,-0.0010876,0.00663097,-0.00208562,-0.126106,0.00525566,0.0413023,1630,1709,-0.165096,0.240805
413,-685,0.0284424,-0.0388184,0,0,0,0,0,0,0,-1,1637,1709,0.0284704,0.0387973
420,-685,0.0113525,0.0264893,0,0,0,0,0,0,0,-1,1644,1709,0.0113219,-0.0265064
427,-685,-0.0354004,0.0340576,0,0,0,0,0,0,0,-1,1651,1709,-0.0353892,-0.0340585
434,-685,-0.0184326,0.141235,0,0,0,0,0,0,0,-1,1658,1709,-0.0183751,-0.141249
441,-685,-0.139648,-0.0526123,0,0,0,0,0,0,0,-1,1665,1709,-0.139698,0.0526229
448,-685,0.57605,0.89209,0,0,0,0,0,0,0,-1,1672,1709,0.57599,-0.892066
455,-685,1.18542,1.0459,0,0,0,0,0,0,0,-1,1679,1709,1.18546,-1.0459
462,-685,0,0,0,0,0,0,0,0,0,-1,1686,1709,0,0
469,-685,0,0,0,0,0,0,0,0,0,-1,1693,1709,0,0
476,-685,0,0,0,0,0,0,0,0,0,-1,1700,1709,0,0
483,-685,0,0,0,0,0,0,0,0,0,-1,1707,1709,0,0
490,-685,0,0,0,0,0,0,0,0,0,-1,1714,1709,0,0
497,-685,0,0,0,0,0,0,0,0,0,-1,1721,1709,0,0
504,-685,0,0,0,0,0,0,0,0,0,-1,1728,1709,0,0
511,-685,0,0,0,0,0,0,0,0,0,-1,1735,1709,0,0
518,-685,0,0,0,0,0,0,0,0,0,-1,1742,1709,0,0
525,-685,0,0,0,0,0,0,0,0,0,-1,1749,1709,0,0
532,-685,0,0,0,0,0,0,0,0,0,-1,1756,1709,0,0
539,-685,0,0,0,0,0,0,0,0,0,-1,1763,1709,0,0
546,-685,0,0,0,0,0,0,0,0,0,-1,1770,1709,0,0
553,-685,0,0,0,0,0,0,0,0,0,-1,1777,1709,0,0
560,-685,0,0,0,0,0,0,0,0,0,-1,1784,1709,0,0
567,-685,0,0,0,0,0,0,0,0,0,-1,1791,1709,0,0
574,-685,0,0,0,0,0,0,0,0,0,-1,1798,1709,0,0
581,-685,0,0,0,0,0,0,0,0,0,-1,1805,1709,0,0
588,-685,0,0,0,0,0,0,0,0,0,-1,1812,1709,0,0
595,-685,0,0,0,0,0,0,0,0,0,-1,1819,1709,0,0
602,-685,0,0,0,0,0,0,0,0,0,-1,1826,1709,0,0
609,-685,0,0,0,0,0,0,0,0,0,-1,1833,1709,0,0
616,-685,0,0,0,0,0,0,0,0,0,-1,1840,1709,0,0
623,-685,0,0,0,0,0,0,0,0,0,-1,1847,1709,0,0
630,-685,0,0,0,0,0,0,0,0,0,-1,1854,1709,0,0
637,-685,0,0,0,0,0,0,0,0,0,-1,1861,1709,0,0
644,-685,0,0,0,0,0,0,0,0,0,-1,1868,1709,0,0
651,-685,0,0,0,0,0,0,0,0,0,-1,1875,1709,0,0
658,-685,0,0,0,0,0,0,0,0,0,-1,1882,1709,0,0
665,-685,0,0,0,0,0,0,0,0,0,-1,1889,1709,0,0
672,-685,0,0,0,0,0,0,0,0,0,-1,1896,1709,0,0
679,-685,0,0,0,0,0,0,0,0,0,-1,1903,1709,0,0
686,-685,0,0,0,0,0,0,0,0,0,-1,1910,1709,0,0
693,-685,0,0,0,0,0,0,0,0,0,-1,1917,1709,0,0
700,-685,0,0,0,0,0,0,0,0,0,-1,1924,1709,0,0
707,-685,0,0,0,0,0,0,0,0,0,-1,1931,1709,0,0
714,-685,0,0,0,0,0,0,0,0,0,-1,1938,1709,0,0
721,-685,0,0,0,0,0,0,0,0,0,-1,1945,1709,0,0
728,-685,0,0,0,0,0,0,0,0,0,-1,1952,1709,0,0
735,-685,0,0,0,0,0,0,0,0,0,-1,1959,1709,0,0
742,-685,0,0,0,0,0,0,0,0,0,-1,1966,1709,0,0
749,-685,0,0,0,0,0,0,0,0,0,-1,1973,1709,0,0
756,-685,0,0,0,0,0,0,0,0,0,-1,1980,1709,0,0
763,-685,0,0,0,0,0,0,0,0,0,-1,1987,1709,0,0
770,-685,0,0,0,0,0,0,0,0,0,-1,1994,1709,0,0
777,-685,0,0,0,0,0,0,0,0,0,-1,2001,1709,0,0
784,-685,0,0,0,0,0,0,0,0,0,-1,2008,1709,0,0
791,-685,0,0,0,0,0,0,0,0,0,-1,2015,1709,0,0
798,-685,0,0,0,0,0,0,0,0,0,-1,2022,1709,0,0
805,-685,0,0,0,0,0,0,0,0,0,-1,2029,1709,0,0
812,-685,0,0,0,0,0,0,0,0,0,-1,2036,1709,0,0
-700,-692,0,0,0,0,0,0,0,0,0,-1,524,1716,0,0
-693,-692,0,0,0,0,0,0,0,0,0,-1,531,1716,0,0
-686,-692,0,0,0,0,0,0,0,0,0,-1,538,1716,0,0
-679,-692,0,0,0,0,0,0,0,0,0,-1,545,1716,0,0
-672,-692,0,0,0,0,0,0,0,0,0,-1,552,1716,0,0
-665,-692,0,0,0,0,0,0,0,0,0,-1,559,1716,0,0
-658,-692,0,0,0,0,0,0,0,0,0,-1,566,1716,0,0
-651,-692,0,0,0,0,0,0,0,0,0,-1,573,1716,0,0
-644,-692,0,0,0,0,0,0,0,0,0,-1,580,1716,0,0
-637,-692,0,0,0,0,0,0,0,0,0,-1,587,1716,0,0
-630,-692,0,0,0,0,0,0,0,0,0,-1,594,1716,0,0
-623,-692,0,0,0,0,0,0,0,0,0,-1,601,1716,0,0
-616,-692,0,0,0,0,0,0,0,0,0,-1,608,1716,0,0
-609,-692,0,0,0,0,0,0,0,0,0,-1,615,1716,0,0
-602,-692,0,0,0,0,0,0,0,0,0,-1,622,1716,0,0
-595,-692,0,0,0,0,0,0,0,0,0,-1,629,1716,0,0
-588,-692,0,0,0,0,0,0,0,0,0,-1,636,1716,0,0
-581,-692,0,0,0,0,0,0,0,0,0,-1,643,1716,0,0
-574,-692,0,0,0,0,0,0,0,0,0,-1,650,1716,0,0
-567,-692,0,0,0,0,0,0,0,0,0,-1,657,1716,0,0
-560,-692,0,0,0,0,0,0,0,0,0,-1,664,1716,0,0
-553,-692,0,0,0,0,0,0,0,0,0,-1,671,1716,0,0
-546,-692,0,0,0,0,0,0,0,0,0,-1,678,1716,0,0
-539,-692,0,0,0,0,0,0,0,0,0,-1,685,1716,0,0
-532,-692,0,0,0,0,0,0,0,0,0,-1,692,1716,0,0
-525,-692,0,0,0,0,0,0,0,0,0,-1,699,1716,0,0
-518,-692,0,0,0,0,0,0,0,0,0,-1,706,1716,0,0
-511,-692,0,0,0,0,0,0,0,0,0,-1,713,1716,0,0
-504,-692,0,0,0,0,0,0,0,0,0,-1,720,1716,0,0
-497,-692,0,0,0,0,0,0,0,0,0,-1,727,1716,0,0
-490,-692,0,0,0,0,0,0,0,0,0,-1,734,1716,0,0
-483,-692,0,0,0,0,0,0,0,0,0,-1,741,1716,0,0
-476,-692,0,0,0,0,0,0,0,0,0,-1,748,1716,0,0
-469,-692,0,0,0,0,0,0,0,0,0,-1,755,1716,0,0
-462,-692,0,0,0,0,0,0,0,0,0,-1,762,1716,0,0
-455,-692,0,0,0,0,0,0,0,0,0,-1,769,1716,0,0
-448,-692,0,0,0,0,0,0,0,0,0,-1,776,1716,0,0
-441,-692,0,0,0,0,0,0,0,0,0,-1,783,1716,0,0
-434,-692,0,0,0,0,0,0,0,0,0,-1,790,1716,0,0
-427,-692,0,0,0,0,0,0,0,0,0,-1,797,1716,0,0
-420,-692,0,0,0,0,0,0,0,0,0,-1,804,1716,0,0
-413,-692,0,0,0,0,0,0,0,0,0,-1,811,1716,0,0
-406,-692,0,0,0,0,0,0,0,0,0,-1,818,1716,0,0
-399,-692,0,0,0,0,0,0,0,0,0,-1,825,1716,0,0
-392,-692,0,0,0,0,0,0,0,0,0,-1,832,1716,0,0
-385,-692,0,0,0,0,0,0,0,0,0,-1,839,1716,0,0
-378,-692,0,0,0,0,0,0,0,0,0,-1,846,1716,0,0
-371,-692,0,0,0,0,0,0,0,0,0,-1,853,1716,0,0
-364,-692,0,0,0,0,0,0,0,0,0,-1,860,1716,0,0
-357,-692,0,0,0,0,0,0,0,0,0,-1,867,1716,0,0
-350,-692,0,0,0,0,0,0,0,0,0,-1,874,1716,0,0
-343,-692,0,0,0,0,0,0,0,0,0,-1,881,1716,0,0
-336,-692,0,0,0,0,0,0,0,0,0,-1,888,1716,0,0
-329,-692,-0.725342,-0.773804,0,0,0,0,0,0,0,-1,895,1716,-0.725339,0.773813
-322,-692,-0.583862,-0.590332,0,0,0,0,0,0,0,-1,902,1716,-0.583858,0.590361
-315,-692,-0.491699,-0.358154,0.0149234,0.0242754,0.0123758,0.0328292,0.00636968,0.966025,0.0201021,0.0419461,909,1716,-0.491724,0.358195
-308,-692,-0.267944,-0.154541,0.0133946,0.0191498,0.00983476,0.0265193,0.00602511,0.927723,0.0160526,0.0434798,916,1716,-0.267946,0.154557
-301,-692,-0.114868,-0.0744629,0.0116496,0.0144918,0.00725238,0.020461,0.0056804,0.88215,0.0121964,0.0447513,923,1716,-0.114889,0.0744982
-294,-692,-0.107971,-0.00598145,0.0102668,0.0107298,0.00534371,0.015847,0.00514957,0.807046,0.0093343,0.0478216,930,1716,-0.107993,0.00603932
-287,-692,-0.0922241,0.0345459,0.00889967,0.00733108,0.00326996,0.0114781,0.00475268,0.667697,0.00665942,0.0476096,937,1716,-0.0922484,-0.0345
-280,-692,-0.307373,0.136597,0.00781563,0.00477803,0.00176778,0.00862746,0.00396621,0.430506,0.00498645,0.0464273,944,1716,-0.307362,-0.136583
-273,-692,-0.208008,0.326782,0.00643809,0.00275015,0.000270412,0.00645781,0.00273043,0.0728046,0.0037432,0.0430646,951,1716,-0.20801,-0.326808
-266,-692,0.247192,0.304688,0.00477382,0.00196273,-0.000608396,0.00489985,0.0018367,-0.204252,0.00285831,0.0407402,958,1716,0.247207,-0.304639
-259,-692,0.149841,0.189209,0.00365271,0.00132837,-0.000676417,0.00383523,0.00114585,-0.26355,0.00227326,0.043172,965,1716,0.149858,-0.189154
-252,-692,0.00640869,0.0928955,0.00289687,0.00140477,-0.000774858,0.00322645,0.00107518,-0.40217,0.00189701,0.0442341,972,1716,0.00638422,-0.0929222
-245,-692,-0.0823364,0.0574951,0.00214628,0.00181037,-0.000749009,0.00274594,0.00121072,-0.675105,0.00158905,0.0416299,979,1716,-0.0823618,-0.0574915
-238,-692,0.0203247,-0.0687256,0.00129132,0.00223523,-0.000681927,0.00259259,0.000933962,-1.0881,0.0015162,0.0366151,986,1716,0.0203394,0.0687023
-231,-692,0.0385132,-0.105225,0.000268229,0.00251162,-0.000368347,0.00257055,0.000209297,-1.41215,0.00164837,0.0283089,993,1716,0.038515,0.105184
-224,-692,-0.0491943,-0.0930176,-0.000643616,0.00304874,-0.000308224,0.00307429,-0.000669169,-1.48808,0.00230519,0.0148995,1000,1716,-0.0492101,0.0929904
-217,-692,-0.0980835,-0.0697021,-0.001613,0.00328527,-0.00017758,0.0032917,-0.00161942,-1.53461,0.00288971,0.0109295,1007,1716,-0.0980733,0.0697406
-210,-692,-0.0828247,-0.0487061,-0.00228392,0.0029822,-0.000393181,0.0030114,-0.00231312,-1.49668,0.00308291,0.0123476,1014,1716,-0.0828061,0.0486988
-203,-692,-0.0788574,-0.0653076,-0.00265776,0.00265786,-0.000446788,0.00269515,-0.00269505,-1.48752,0.00311203,0.0142459,1021,1716,-0.0788537,0.0653488
-196,-692,-0.083374,-0.0551758,-0.00284303,0.00214166,-0.000508376,0.00219298,-0.00289435,-1.47019,0.00294646,0.0162256,1028,1716,-0.0833803,0.0551823
-189,-692,-0.0876465,-0.0697021,-0.00300987,0.00121749,-0.00082618,0.00137322,-0.0031656,-1.38449,0.00268774,0.00845233,1035,1716,-0.0876953,0.0696437
-182,-692,-0.0788574,-0.0698242,-0.0028599,0.000467572,-0.000654774,0.000591781,-0.00298411,-1.38333,0.0022132,0.0123842,1042,1716,-0.0788322,0.0698723
-175,-692,-0.0692139,-0.0561523,-0.00256862,-0.000217945,-0.000578813,-8.31513e-05,-0.00270341,-1.342,0.00177521,0.01358,1049,1716,-0.0692377,0.056111
-168,-692,-0.0639648,-0.0646973,-0.00232856,-0.000655471,-0.00062334,-0.00044877,-0.00253526,-1.25061,0.00156222,0.0110691,1056,1716,-0.0639127,0.0647083
-161,-692,-0.0634766,-0.0716553,-0.00205911,-0.000845718,-0.000518838,-0.000654121,-0.00225071,-1.21705,0.00133688,0.0128251,1063,1716,-0.0635296,0.0716603
-154,-692,-0.0706787,-0.0375977,-0.00171772,-0.000944215,-0.000420774,-0.000759453,-0.00190248,-1.15704,0.00110581,0.0134833,1070,1716,-0.0707239,0.0375446
-147,-692,-0.0671387,-0.0401611,-0.00136858,-0.000878826,-0.000299117,-0.000737134,-0.00151027,-1.12841,0.000872039,0.011395,1077,1716,-0.0671465,0.040131
-140,-692,-0.0576172,-0.067749,-0.00107115,-0.000913989,-0.0002112,-0.000767225,-0.00121792,-0.963498,0.000711036,0.00860916,1084,1716,-0.0575942,0.0677319
-133,-692,-0.0662842,-0.0668945,-0.000677784,-0.000693421,-0.000112833,-0.000572499,-0.000798706,-0.750807,0.000475361,0.00868378,1091,1716,-0.0662334,0.0668374
-126,-692,-0.0698242,-0.0708008,-0.000311077,-0.000540782,8.41327e-05,-0.000283559,-0.000568301,0.316113,0.000328109,0.00740718,1098,1716,-0.0697651,0.0707851
-119,-692,-0.0614014,-0.0787354,0.000123508,-0.000172531,0.000297433,0.000307718,-0.000356741,0.554512,0.000383973,0.0107322,1105,1716,-0.0613936,0.0787061
-112,-692,-0.064209,-0.0720215,0.000450581,3.59745e-05,0.000418527,0.000710332,-0.000223776,0.555451,0.000563167,0.0104437,1112,1716,-0.0641578,0.0719629
-105,-692,-0.0423584,-0.0681152,0.000608184,0.000298452,0.000504035,0.000980609,-7.39719e-05,0.63635,0.000679739,0.0147828,1119,1716,-0.042307,0.0681344
-98,-692,-0.0233154,-0.0876465,0.000692994,0.000535354,0.000594979,0.00121435,1.39975e-05,0.719544,0.000804942,0.0156131,1126,1716,-0.02336,0.0877006
-91,-692,-0.0405273,-0.125732,0.000710705,0.000652725,0.000772377,0.00145464,-9.12055e-05,0.76664,0.00100154,0.0176023,1133,1716,-0.040549,0.125765
-84,-692,-0.0670166,-0.140869,0.00071805,0.000829736,0.000988412,0.00176388,-0.000216095,0.813617,0.00125417,0.0182535,1140,1716,-0.0670717,0.140865
-77,-692,-0.0777588,-0.0595703,0.000750748,0.00106093,0.00119961,0.00211544,-0.00030376,0.849683,0.00152168,0.0117609,1147,1716,-0.0778151,0.059534
-70,-692,-0.0739746,-0.0537109,0.00071949,0.00129258,0.00132463,0.0023613,-0.000349232,0.891918,0.00170259,0.012272,1154,1716,-0.0739689,0.0537488
-63,-692,-0.0703125,-0.0844727,0.000592969,0.00114599,0.001311,0.00220932,-0.000470365,0.889332,0.00165214,0.0129418,1161,1716,-0.070338,0.0845
-56,-692,-0.0772705,-0.0786133,0.00053615,0.00114314,0.00120047,0.00207789,-0.000398595,0.90921,0.00153547,0.0141642,1168,1716,-0.0772784,0.078589
-49,-692,-0.0800781,-0.032959,0.000334268,0.000602779,0.000804911,0.00128455,-0.000347507,0.868035,0.000992692,0.0188922,1175,1716,-0.0801003,0.0329784
-42,-692,-0.0467529,-0.0020752,7.00545e-05,-0.000259158,-5.6817e-05,7.95844e-05,-0.000268687,-0.166182,0.000210724,0.0213224,1182,1716,-0.0466979,0.00208017
-35,-692,-0.0421143,-0.0449219,-1.99284e-05,-0.00148434,-0.00125043,0.0006969,-0.00220117,-0.52053,0.00174672,0.0232081,1189,1716,-0.0420962,0.0449437
-28,-692,-0.0888672,-0.0401611,2.31941e-05,-0.00264766,-0.00232749,0.00137116,-0.00399562,-0.524946,0.00321964,0.023887,1196,1716,-0.0888106,0.0402181
-21,-692,-0.0710449,-0.0366211,0.000191391,-0.00359279,-0.00335545,0.00215145,-0.00555284,-0.528678,0.0045903,0.0180026,1203,1716,-0.0711011,0.0365843
-14,-692,-0.0853271,-0.0587158,0.0011743,-0.00422809,-0.00396804,0.0032733,-0.00632708,-0.486558,0.00563548,0.0116998,1210,1716,-0.0853675,0.0587053
-7,-692,-0.102661,-0.0712891,0.00268127,-0.00457485,-0.00410108,0.00452876,-0.00642235,-0.423261,0.00635405,0.0133849,1217,1716,-0.102618,0.0712356
0,-692,-0.0953369,-0.0797119,0.00449104,-0.00547146,-0.00364644,0.00568307,-0.00666349,-0.315952,0.00713577,0.016872,1224,1716,-0.0953207,0.0797002
7,-692,-0.144531,-0.0853271,0.00639956,-0.00598499,-0.00301228,0.00709336,-0.00667879,-0.226378,0.00795256,0.0201349,1231,1716,-0.144476,0.0853845
14,-692,-0.13208,-0.0821533,0.00820442,-0.00627056,-0.00215664,0.00851891,-0.00658505,-0.144802,0.00874407,0.0214214,1238,1716,-0.132112,0.0820971
21,-692,-0.050415,-0.115845,0.00997998,-0.00649648,-0.000758075,0.0100148,-0.00653129,-0.0458804,0.00962319,0.0231203,1245,1716,-0.0503771,0.115898
28,-692,-0.0894775,-0.0865479,0.0114129,-0.0068008,0.000810048,0.0114488,-0.00683676,0.044358,0.0106685,0.0236538,1252,1716,-0.0894659,0.0865792
35,-692,-0.11853,-0.05896,0.012664,-0.00718532,0.00241685,0.012954,-0.00747536,0.119435,0.0119354,0.0223851,1259,1716,-0.118569,0.0589023
42,-692,-0.111694,-0.0324707,0.0140357,-0.00670311,0.00359518,0.0146413,-0.00730867,0.16687,0.0129064,0.0208193,1266,1716,-0.111735,0.0324634
49,-692,-0.108032,-0.0462646,0.0147786,-0.00634882,0.00410591,0.0155485,-0.00711871,0.185355,0.0133852,0.0247087,1273,1716,-0.108009,0.0462443
56,-692,-0.0992432,-0.0400391,0.0152695,-0.00622694,0.00405057,0.0160074,-0.00696486,0.1802,0.0136012,0.0309922,1280,1716,-0.0992793,0.0400164
63,-692,-0.0235596,-0.0395508,0.0153218,-0.00609042,0.00399856,0.0160441,-0.00681275,0.178721,0.0135504,0.0288946,1287,1716,-0.0235935,0.0395334
70,-692,-0.00671387,-0.0469971,0.0147673,-0.00597315,0.00337233,0.0153019,-0.0065077,0.157204,0.0129285,0.0240649,1294,1716,-0.00667722,0.0470481
77,-692,-0.0218506,-0.00939941,0.0134578,-0.0062929,0.00186557,0.0136325,-0.00646757,0.0933555,0.011848,0.0271192,1301,1716,-0.0218276,0.00942627
84,-692,-0.0543213,0.00366211,0.0117344,-0.00682878,8.32489e-05,0.0117348,-0.00682915,0.0044845,0.0108419,0.0339822,1308,1716,-0.0543702,-0.00360567
91,-692,-0.142578,0.0441895,0.00929907,-0.00727456,-0.00171818,0.00947532,-0.00745081,-0.102221,0.00979558,0.0331418,1315,1716,-0.142521,-0.0441576
98,-692,-0.0974121,0.00854492,0.00679805,-0.00671804,-0.00267465,0.00730808,-0.00722807,-0.188429,0.00839249,0.0285889,1322,1716,-0.0973745,-0.00854644
105,-692,-0.0753174,-0.0570068,0.00424741,-0.00471138,-0.00320335,0.00527496,-0.00573893,-0.310405,0.00636075,0.034892,1329,1716,-0.0753745,0.057062
112,-692,-0.127075,-0.108521,0.0019289,-0.00302896,-0.00312844,0.00344149,-0.00454155,-0.450358,0.00462357,0.0371292,1336,1716,-0.127033,0.108527
119,-692,-0.112427,-0.11853,-0.000225613,-0.00104976,-0.00246612,0.00186262,-0.003138,-0.702616,0.00291824,0.02939,1343,1716,-0.11245,0.118512
126,-692,-0.101318,-0.052002,-0.00226289,0.00267918,-0.00188559,0.00331643,-0.00290015,-1.24489,0.00359183,0.0274964,1350,1716,-0.101311,0.051947
133,-692,-0.0688477,-0.0817871,-0.00390936,0.00658652,-0.00121427,0.00672517,-0.00404801,-1.45711,0.00628358,0.0213376,1357,1716,-0.0688476,0.0817406
140,-692,-0.072998,-0.0982666,-0.00521758,0.0108412,-0.000463174,0.0108545,-0.00523093,-1.54199,0.00947424,0.0248952,1364,1716,-0.0730323,0.0982073
147,-692,-0.106689,-0.0264893,-0.00630373,0.014834,0.000378596,0.0148408,-0.00631051,1.55289,0.0125384,0.0262503,1371,1716,-0.106629,0.0264733
154,-692,-0.0750732,-0.0372314,-0.00652133,0.0188772,0.000797652,0.0189022,-0.00654636,1.53943,0.0152591,0.0230601,1378,1716,-0.0750736,0.0372738
161,-692,-0.0473633,-0.0571289,-0.00604787,0.0231017,0.00063517,0.0231155,-0.0060617,1.54902,0.0177788,0.0265745,1385,1716,-0.0473383,0.0571117
168,-692,-0.0483398,-0.0548096,-0.00478994,0.0260081,-0.000134311,0.0260087,-0.00479053,-1.56644,0.0191369,0.0216989,1392,1716,-0.0482841,0.0548361
175,-692,-0.0332031,-0.0612793,-0.00363536,0.0283749,-0.000660486,0.0283885,-0.00364899,-1.55017,0.0202519,0.0187388,1399,1716,-0.0332123,0.0612214
182,-692,-0.071167,-0.0548096,-0.0023319,0.0295743,-0.00120867,0.02962,-0.00237762,-1.53299,0.020585,0.0128388,1406,1716,-0.0711771,0.0547717
189,-692,-0.0618896,-0.067749,-0.0011112,0.0298421,-0.00172866,0.0299383,-0.00120744,-1.51518,0.0203733,0.0126279,1413,1716,-0.0619086,0.0677679
196,-692,-0.0699463,-0.0717773,-0.000164127,0.0283457,-0.00227383,0.0285259,-0.00034434,-1.49171,0.0191331,0.0101065,1420,1716,-0.0699393,0.0717406
203,-692,-0.072998,-0.0554199,0.000579691,0.0258673,-0.00287084,0.0261891,0.000257868,-1.45916,0.0173741,0.0125541,1427,1716,-0.0730572,0.0554792
210,-692,-0.0563965,-0.0356445,0.00112178,0.0230784,-0.00304815,0.0234937,0.000706472,-1.43538,0.0154324,0.0158591,1434,1716,-0.0563492,0.0355977
217,-692,-0.0545654,-0.0401611,0.00135347,0.0201538,-0.0027654,0.0205522,0.00095514,-1.42774,0.0133944,0.0153799,1441,1716,-0.0545573,0.0401664
224,-692,-0.0646973,-0.0544434,0.00151858,0.0175761,-0.00235005,0.017913,0.00118171,-1.42842,0.0115682,0.0120057,1448,1716,-0.0646791,0.0544532
231,-692,-0.081665,-0.0633545,0.00165644,0.0145314,-0.00183735,0.0147885,0.00139938,-1.43179,0.00942724,0.0105061,1455,1716,-0.0816932,0.0633207
238,-692,-0.0827637,-0.126831,0.00162668,0.0119385,-0.00127448,0.0120937,0.00147149,-1.44963,0.00761946,0.0163657,1462,1716,-0.0827123,0.126771
245,-692,-0.0979004,-0.117432,0.00135608,0.00965478,-0.000770401,0.00972569,0.00128517,-1.47901,0.0061007,0.0195817,1469,1716,-0.0978399,0.117377
252,-692,-0.0705566,-0.0582275,0.00085155,0.00769139,-0.000301143,0.00770463,0.000838317,-1.52688,0.00488104,0.0170306,1476,1716,-0.0705389,0.0581921
259,-692,-0.0604248,-0.0732422,0.000561467,0.00621288,0.000157549,0.00621727,0.000557079,1.54295,0.00397219,0.0088778,1483,1716,-0.0604539,0.0732853
266,-692,-0.0565186,-0.0657959,0.000320784,0.00520881,0.000582994,0.00527738,0.000252212,1.45371,0.00343727,0.00885672,1490,1716,-0.0564822,0.0658419
273,-692,-0.0645752,-0.0540771,-9.54716e-05,0.00479239,0.000758684,0.00490745,-0.000210525,1.42029,0.00334402,0.0118186,1497,1716,-0.0645394,0.0540629
280,-692,-0.0657959,-0.0355225,-0.000197783,0.00444851,0.000556272,0.00451418,-0.000263453,1.45328,0.003101,0.0118663,1504,1716,-0.065763,0.0355187
287,-692,-0.0672607,-0.036377,-0.00018812,0.00418724,0.000365175,0.00421751,-0.000218389,1.4881,0.00288722,0.010798,1511,1716,-0.0672012,0.036361
294,-692,-0.0761719,-0.0534668,-4.53807e-05,0.00384441,2.54796e-05,0.00384457,-4.55476e-05,1.56425,0.00257836,0.00989817,1518,1716,-0.0761814,0.0534384
301,-692,-0.0843506,-0.0535889,0.000306062,0.003739,-0.000217648,0.00375274,0.000292318,-1.50773,0.00241031,0.0122576,1525,1716,-0.0843822,0.0535864
308,-692,-0.083252,-0.0576172,0.000690151,0.00368216,-0.000611436,0.00380229,0.000570024,-1.3768,0.00236783,0.0156674,1532,1716,-0.0831991,0.0575825
315,-692,-0.053833,-0.0303955,0.00115935,0.00371193,-0.00100861,0.00406236,0.00080892,-1.23641,0.00248292,0.0143505,1539,1716,-0.0538094,0.0303887
322,-692,-0.0688477,-0.05896,0.00164927,0.00358541,-0.0012352,0.0041867,0.00104798,-1.11777,0.00251565,0.0184582,1546,1716,-0.0688178,0.0590123
329,-692,-0.0809326,-0.0776367,0.0018032,0.00342857,-0.0014055,0.00423943,0.000992338,-1.04752,0.00256043,0.0167715,1553,1716,-0.0808941,0.0776382
336,-692,-0.0721436,-0.0756836,0.00160089,0.00334454,-0.00144495,0.0041603,0.000785127,-1.05684,0.0025524,0.0116651,1560,1716,-0.072126,0.0756602
343,-692,-0.0507813,-0.0644531,0.00149149,0.00292761,-0.00138413,0.00376885,0.000650251,-1.02468,0.00232631,0.0122612,1567,1716,-0.0508267,0.0644479
350,-692,-0.0430908,-0.0544434,0.00153108,0.00269511,-0.00111596,0.00337171,0.000854477,-1.02576,0.00202402,0.0125945,1574,1716,-0.0430988,0.0544808
357,-692,-0.0618896,-0.0531006,0.00146406,0.00253033,-0.000788281,0.00294884,0.00104555,-1.08273,0.00172635,0.015326,1581,1716,-0.0619446,0.0530778
364,-692,-0.067749,-0.0770264,0.00129039,0.00239987,-0.000584525,0.00265099,0.00103928,-1.16503,0.0015424,0.0213695,1588,1716,-0.0677524,0.0770856
371,-692,0.00354004,-0.139893,0.00136268,0.00186909,-0.00017494,0.00192365,0.00130812,-1.2685,0.00113436,0.0301155,1595,1716,0.0034965,0.139855
378,-692,-0.0917969,-0.216553,0.00179002,0.00146694,0.000209716,0.0018932,0.00136376,0.457225,0.00112786,0.0361551,1602,1716,-0.0918162,0.216559
385,-692,-0.334839,-0.329712,0.00277155,0.000672491,0.000494834,0.00288236,0.000561688,0.220287,0.0017644,0.0393804,1609,1716,-0.3348,0.329741
392,-692,-0.286377,-0.773193,0,0,0,0,0,0,0,-1,1616,1716,-0.286437,0.773157
399,-692,-0.376099,-0.725708,0.00585641,-0.00135786,0.000341407,0.00587253,-0.00137398,0.0471833,0.00444438,0.0419135,1623,1716,-0.376098,0.725666
406,-692,-0.266235,-0.458008,0.0082524,-0.0042068,-0.00095074,0.00832453,-0.00427893,-0.075724,0.00740051,0.040519,1630,1716,-0.266219,0.458009
413,-692,-0.0998535,-0.286865,0.0103733,-0.00773627,-0.00309081,0.0108863,-0.00824926,-0.164472,0.0110828,0.0423939,1637,1716,-0.0998341,0.286925
420,-692,0.0351563,0.0257568,0,0,0,0,0,0,0,-1,1644,1716,0.0351871,-0.0257795
427,-692,-0.44043,0.52356,0,0,0,0,0,0,0,-1,1651,1716,-0.440477,-0.523616
434,-692,-0.255005,0.441284,0.013626,-0.0209932,-0.00549224,0.0144765,-0.0218436,-0.153623,0.0211127,0.0472656,1658,1716,-0.255022,-0.441295
441,-692,-0.0997314,0.152588,0,0,0,0,0,0,0,-1,1665,1716,-0.0997008,-0.152629
448,-692,-0.0541992,-0.439209,0,0,0,0,0,0,0,-1,1672,1716,-0.0542153,0.439222
455,-692,0,0,0,0,0,0,0,0,0,-1,1679,1716,0,0
462,-692,0,0,0,0,0,0,0,0,0,-1,1686,1716,0,0
469,-692,0,0,0,0,0,0,0,0,0,-1,1693,1716,0,0
476,-692,0,0,0,0,0,0,0,0,0,-1,1700,1716,0,0
483,-692,0,0,0,0,0,0,0,0,0,-1,1707,1716,0,0
490,-692,0,0,0,0,0,0,0,0,0,-1,1714,1716,0,0
497,-692,0,0,0,0,0,0,0,0,0,-1,1721,1716,0,0
504,-692,0,0,0,0,0,0,0,0,0,-1,1728,1716,0,0
511,-692,0,0,0,0,0,0,0,0,0,-1,1735,1716,0,0
518,-692,0,0,0,0,0,0,0,0,0,-1,1742,1716,0,0
525,-692,0,0,0,0,0,0,0,0,0,-1,1749,1716,0,0
532,-692,0,0,0,0,0,0,0,0,0,-1,1756,1716,0,0
539,-692,0,0,0,0,0,0,0,0,0,-1,1763,1716,0,0
546,-692,0,0,0,0,0,0,0,0,0,-1,1770,1716,0,0
553,-692,0,0,0,0,0,0,0,0,0,-1,1777,1716,0,0
560,-692,0,0,0,0,0,0,0,0,0,-1,1784,1716,0,0
567,-692,0,0,0,0,0,0,0,0,0,-1,1791,1716,0,0
574,-692,0,0,0,0,0,0,0,0,0,-1,1798,1716,0,0
581,-692,0,0,0,0,0,0,0,0,0,-1,1805,1716,0,0
588,-692,0,0,0,0,0,0,0,0,0,-1,1812,1716,0,0
595,-692,0,0,0,0,0,0,0,0,0,-1,1819,1716,0,0
602,-692,0,0,0,0,0,0,0,0,0,-1,1826,1716,0,0
609,-692,0,0,0,0,0,0,0,0,0,-1,1833,1716,0,0
616,-692,0,0,0,0,0,0,0,0,0,-1,1840,1716,0,0
623,-692,0,0,0,0,0,0,0,0,0,-1,1847,1716,0,0
630,-692,0,0,0,0,0,0,0,0,0,-1,1854,1716,0,0
637,-692,0,0,0,0,0,0,0,0,0,-1,1861,1716,0,0
644,-692,0,0,0,0,0,0,0,0,0,-1,1868,1716,0,0
651,-692,0,0,0,0,0,0,0,0,0,-1,1875,1716,0,0
658,-692,0,0,0,0,0,0,0,0,0,-1,1882,1716,0,0
665,-692,0,0,0,0,0,0,0,0,0,-1,1889,1716,0,0
672,-692,0,0,0,0,0,0,0,0,0,-1,1896,1716,0,0
679,-692,0,0,0,0,0,0,0,0,0,-1,1903,1716,0,0
686,-692,0,0,0,0,0,0,0,0,0,-1,1910,1716,0,0
693,-692,0,0,0,0,0,0,0,0,0,-1,1917,1716,0,0
700,-692,0,0,0,0,0,0,0,0,0,-1,1924,1716,0,0
707,-692,0,0,0,0,0,0,0,0,0,-1,1931,1716,0,0
714,-692,0,0,0,0,0,0,0,0,0,-1,1938,1716,0,0
721,-692,0,0,0,0,0,0,0,0,0,-1,1945,1716,0,0
728,-692,0,0,0,0,0,0,0,0,0,-1,1952,1716,0,0
735,-692,0,0,0,0,0,0,0,0,0,-1,1959,1716,0,0
742,-692,0,0,0,0,0,0,0,0,0,-1,1966,1716,0,0
749,-692,0,0,0,0,0,0,0,0,0,-1,1973,1716,0,0
756,-692,0,0,0,0,0,0,0,0,0,-1,1980,1716,0,0
763,-692,0,0,0,0,0,0,0,0,0,-1,1987,1716,0,0
770,-692,0,0,0,0,0,0,0,0,0,-1,1994,1716,0,0
777,-692,0,0,0,0,0,0,0,0,0,-1,2001,1716,0,0
784,-692,0,0,0,0,0,0,0,0,0,-1,2008,1716,0,0
791,-692,0,0,0,0,0,0,0,0,0,-1,2015,1716,0,0
798,-692,0,0,0,0,0,0,0,0,0,-1,2022,1716,0,0
805,-692,0,0,0,0,0,0,0,0,0,-1,2029,1716,0,0
812,-692,0,0,0,0,0,0,0,0,0,-1,2036,1716,0,0
-700,-699,0,0,0,0,0,0,0,0,0,-1,524,1723,0,0
-693,-699,0,0,0,0,0,0,0,0,0,-1,531,1723,0,0
-686,-699,0,0,0,0,0,0,0,0,0,-1,538,1723,0,0
-679,-699,0,0,0,0,0,0,0,0,0,-1,545,1723,0,0
-672,-699,0,0,0,0,0,0,0,0,0,-1,552,1723,0,0
-665,-699,0,0,0,0,0,0,0,0,0,-1,559,1723,0,0
-658,-699,0,0,0,0,0,0,0,0,0,-1,566,1723,0,0
-651,-699,0,0,0,0,0,0,0,0,0,-1,573,1723,0,0
-644,-699,0,0,0,0,0,0,0,0,0,-1,580,1723,0,0
-637,-699,0,0,0,0,0,0,0,0,0,-1,587,1723,0,0
-630,-699,0,0,0,0,0,0,0,0,0,-1,594,1723,0,0
-623,-699,0,0,0,0,0,0,0,0,0,-1,601,1723,0,0
-616,-699,0,0,0,0,0,0,0,0,0,-1,608,1723,0,0
-609,-699,0,0,0,0,0,0,0,0,0,-1,615,1723,0,0
-602,-699,0,0,0,0,0,0,0,0,0,-1,622,1723,0,0
-595,-699,0,0,0,0,0,0,0,0,0,-1,629,1723,0,0
-588,-699,0,0,0,0,0,0,0,0,0,-1,636,1723,0,0
-581,-699,0,0,0,0,0,0,0,0,0,-1,643,1723,0,0
-574,-699,0,0,0,0,0,0,0,0,0,-1,650,1723,0,0
-567,-699,0,0,0,0,0,0,0,0,0,-1,657,1723,0,0
-560,-699,0,0,0,0,0,0,0,0,0,-1,664,1723,0,0
-553,-699,0,0,0,0,0,0,0,0,0,-1,671,1723,0,0
-546,-699,0,0,0,0,0,0,0,0,0,-1,678,1723,0,0
-539,-699,0,0,0,0,0,0,0,0,0,-1,685,1723,0,0
-532,-699,0,0,0,0,0,0,0,0,0,-1,692,1723,0,0
-525,-699,0,0,0,0,0,0,0,0,0,-1,699,1723,0,0
-518,-699,0,0,0,0,0,0,0,0,0,-1,706,1723,0,0
-511,-699,0,0,0,0,0,0,0,0,0,-1,713,1723,0,0
-504,-699,0,0,0,0,0,0,0,0,0,-1,720,1723,0,0
-497,-699,0,0,0,0,0,0,0,0,0,-1,727,1723,0,0
-490,-699,0,0,0,0,0,0,0,0,0,-1,734,1723,0,0
-483,-699,0,0,0,0,0,0,0,0,0,-1,741,1723,0,0
-476,-699,0,0,0,0,0,0,0,0,0,-1,748,1723,0,0
-469,-699,0,0,0,0,0,0,0,0,0,-1,755,1723,0,0
-462,-699,0,0,0,0,0,0,0,0,0,-1,762,1723,0,0
-455,-699,0,0,0,0,0,0,0,0,0,-1,769,1723,0,0
-448,-699,0,0,0,0,0,0,0,0,0,-1,776,1723,0,0
-441,-699,0,0,0,0,0,0,0,0,0,-1,783,1723,0,0
-434,-699,0,0,0,0,0,0,0,0,0,-1,790,1723,0,0
-427,-699,0,0,0,0,0,0,0,0,0,-1,797,1723,0,0
-420,-699,0,0,0,0,0,0,0,0,0,-1,804,1723,0,0
-413,-699,0,0,0,0,0,0,0,0,0,-1,811,1723,0,0
-406,-699,0,0,0,0,0,0,0,0,0,-1,818,1723,0,0
-399,-699,0,0,0,0,0,0,0,0,0,-1,825,1723,0,0
-392,-699,0,0,0,0,0,0,0,0,0,-1,832,1723,0,0
-385,-699,0,0,0,0,0,0,0,0,0,-1,839,1723,0,0
-378,-699,0,0,0,0,0,0,0,0,0,-1,846,1723,0,0
-371,-699,0,0,0,0,0,0,0,0,0,-1,853,1723,0,0
-364,-699,0,0,0,0,0,0,0,0,0,-1,860,1723,0,0
-357,-699,0,0,0,0,0,0,0,0,0,-1,867,1723,0,0
-350,-699,0,0,0,0,0,0,0,0,0,-1,874,1723,0,0
-343,-699,0,0,0,0,0,0,0,0,0,-1,881,1723,0,0
-336,-699,0,0,0,0,0,0,0,0,0,-1,888,1723,0,0
-329,-699,0,0,0,0,0,0,0,0,0,-1,895,1723,0,0
-322,-699,0,0,0,0,0,0,0,0,0,-1,902,1723,0,0
-315,-699,-0.382324,-0.708984,0,0,0,0,0,0,0,-1,909,1723,-0.382337,0.708941
-308,-699,-0.207886,-0.441528,0.0166874,0.0235675,0.00861583,0.0294046,0.0108502,0.975338,0.0171699,0.0454923,916,1723,-0.207911,0.441586
-301,-699,-0.0658569,-0.330322,0.0144883,0.0177822,0.00685918,0.0231893,0.00908108,0.903223,0.0134928,0.0470229,923,1723,-0.0658685,0.330367
-294,-699,0.0879517,-0.295044,0.0127176,0.0132383,0.00570084,0.0186847,0.00727116,0.808217,0.0108756,0.0451504,930,1723,0.0879387,0.295066
-287,-699,0.13092,-0.210938,0.0110926,0.00918967,0.00389717,0.0141528,0.00612951,0.665667,0.00819547,0.0446399,937,1723,0.130911,0.210966
-280,-699,0.679321,0.510132,0.00995112,0.00622521,0.00257751,0.0112684,0.00490789,0.472475,0.00652383,0.0456473,944,1723,0.679326,-0.510125
-273,-699,0.511108,0.546631,0.00838985,0.0038796,0.00126645,0.00872113,0.00354832,0.255848,0.00506418,0.0437429,951,1723,0.511084,-0.546614
-266,-699,0.352112,0.449341,0.0063729,0.00303311,0.000532861,0.00645586,0.00295015,0.154442,0.00373189,0.0426208,958,1723,0.352126,-0.449331
-259,-699,0.138,0.31665,0.00488801,0.00247245,0.000571535,0.00501641,0.00234405,0.220994,0.00289829,0.0440431,965,1723,0.13798,-0.316693
-252,-699,0.0235596,0.18042,0.00395131,0.00262396,0.00057964,0.0041688,0.00240647,0.358956,0.00241641,0.044854,972,1723,0.0235722,-0.180417
-245,-699,-0.0824585,0.11499,0,0,0,0,0,0,0,-1,979,1723,-0.0824727,-0.11495
-238,-699,0.206543,-0.00146484,0.0023281,0.00358604,0.000737652,0.00392647,0.00198767,1.13842,0.002267,0.0413988,986,1723,0.206553,0.00140698
-231,-699,0.162354,-0.127808,0.00130448,0.00388883,0.00106261,0.00426963,0.000923681,1.22669,0.00259394,0.0386776,993,1723,0.162378,0.127755
-224,-699,-0.00823975,-0.170532,0.00034214,0.00438535,0.00102948,0.00463238,9.51067e-05,1.33529,0.00305704,0.0351688,1000,1723,-0.00821116,0.170526
-217,-699,-0.0107422,-0.166016,-0.000698566,0.00450985,0.00106057,0.00471753,-0.000906246,1.37742,0.00348659,0.0231149,1007,1723,-0.0107212,0.16606
-210,-699,-0.0579834,-0.0690918,-0.00145887,0.00396256,0.000671676,0.00404453,-0.00154085,1.44935,0.00333097,0.0154246,1014,1723,-0.0579556,0.0691485
-203,-699,-0.0296631,-0.0821533,-0.00184504,0.00336243,0.000449151,0.00340089,-0.0018835,1.48539,0.00309258,0.0186714,1021,1723,-0.0296515,0.0821729
-196,-699,-0.0479736,-0.0792236,-0.00201593,0.00254801,0.00023592,0.00256017,-0.0020281,1.51929,0.00265497,0.0162469,1028,1723,-0.0479253,0.0792225
-189,-699,-0.081543,-0.0583496,-0.00221604,0.00128995,-0.000314955,0.00131801,-0.00224411,-1.48191,0.00207963,0.00873022,1035,1723,-0.0815618,0.0583925
-182,-699,-0.0897217,-0.0574951,-0.00214247,0.000245842,-0.000287827,0.00028004,-0.00217666,-1.45254,0.0015529,0.0115071,1042,1723,-0.0897544,0.0574824
-175,-699,-0.0842285,-0.0605469,-0.00193358,-0.000699557,-0.000356789,-0.000603826,-0.00202931,-1.30866,0.00120321,0.0130029,1049,1723,-0.0842701,0.0605067
-168,-699,-0.0706787,-0.0810547,-0.00175809,-0.00133849,-0.000565371,-0.000945248,-0.00215133,-0.963062,0.00124511,0.0136798,1056,1723,-0.070721,0.0810034
-161,-699,-0.0560303,-0.0882568,-0.00151476,-0.00164103,-0.00059375,-0.000980796,-0.00217499,-0.732431,0.00125774,0.012364,1063,1723,-0.0560781,0.0882815
-154,-699,-0.0557861,-0.0494385,-0.0012249,-0.00177626,-0.000583669,-0.000855081,-0.00214608,-0.564769,0.00124753,0.0127162,1070,1723,-0.0558064,0.0494115
-147,-699,-0.0645752,-0.046875,-0.00099664,-0.00166192,-0.000516989,-0.000714524,-0.00194404,-0.49953,0.00113544,0.0126127,1077,1723,-0.0646184,0.0468274
-140,-699,-0.0671387,-0.0657959,-0.000878455,-0.00155236,-0.000426428,-0.00067192,-0.00175889,-0.451039,0.00102488,0.00823594,1084,1723,-0.0671715,0.0658002
-133,-699,-0.0634766,-0.0623779,-0.000559054,-0.00129674,-0.000293836,-0.00045632,-0.00139948,-0.336344,0.000824124,0.00808427,1091,1723,-0.0635073,0.062328
-126,-699,-0.0438232,-0.071167,-0.000307989,-0.0010577,-0.000141896,-0.000282032,-0.00108366,-0.180932,0.000649182,0.0101013,1098,1723,-0.043825,0.0712027
-119,-699,-0.0372314,-0.0700684,3.62593e-05,-0.000657792,7.09066e-05,4.34292e-05,-0.000664962,0.100776,0.000458471,0.0146867,1105,1723,-0.0372515,0.0700968
-112,-699,-0.0640869,-0.0489502,0.000259985,-0.000392064,0.000126888,0.000283807,-0.000415886,0.18558,0.00040636,0.011083,1112,1723,-0.0640881,0.0489418
-105,-699,-0.0695801,-0.0440674,0.000291043,-0.000142075,0.000154572,0.000340548,-0.00019158,0.309952,0.000311212,0.0118587,1119,1723,-0.0695213,0.0441096
-98,-699,-0.055542,-0.0756836,0.000225488,6.09851e-05,0.000192295,0.000352384,-6.59108e-05,0.583306,0.000259696,0.0137864,1126,1723,-0.0555953,0.0756479
-91,-699,-0.0415039,-0.105591,0.000153059,0.000135433,0.000279858,0.000424243,-0.000135751,0.769657,0.000337311,0.017794,1133,1723,-0.041551,0.105538
-84,-699,-0.0500488,-0.10083,0.000122723,0.000232642,0.000434804,0.000615946,-0.000260582,0.848265,0.000519742,0.0187772,1140,1723,-0.0500332,0.100805
-77,-699,-0.0848389,-0.0616455,0.000204523,0.000427549,0.00062868,0.00095453,-0.000322458,0.873173,0.000766783,0.0137094,1147,1723,-0.0848984,0.0616674
-70,-699,-0.100098,-0.0297852,0.000258168,0.000624417,0.000783607,0.00124601,-0.000363427,0.900185,0.000974671,0.01594,1154,1723,-0.100058,0.029846
-63,-699,-0.0837402,-0.0477295,0.000233081,0.000530608,0.000853523,0.00124823,-0.000484546,0.871678,0.0010323,0.0140558,1161,1723,-0.0836895,0.0477343
-56,-699,-0.0888672,-0.074707,0.000259392,0.000533336,0.000892243,0.00129906,-0.000506331,0.861561,0.00107531,0.009948,1168,1723,-0.0889108,0.0746546
-49,-699,-0.0893555,-0.0474854,0.000187751,0.000143808,0.000688025,0.000854155,-0.000522596,0.769437,0.000802514,0.018683,1175,1723,-0.0893367,0.0474797
-42,-699,-0.0822754,-0.026001,3.28618e-05,-0.000494411,0.00011637,5.74025e-05,-0.000518951,0.207841,0.000366603,0.0204063,1182,1723,-0.0822437,0.0259803
-35,-699,-0.0737305,-0.0318604,4.68941e-06,-0.00145556,-0.000710257,0.000293166,-0.00174403,-0.385803,0.00127173,0.0194639,1189,1723,-0.0737048,0.0318464
-28,-699,-0.0594482,-0.0421143,5.9419e-05,-0.0023472,-0.00144633,0.000737551,-0.00302534,-0.43843,0.00230246,0.0149293,1196,1723,-0.0594986,0.0421181
-21,-699,-0.0511475,-0.0546875,0.000156951,-0.00318234,-0.00216498,0.00122133,-0.00424672,-0.45693,0.00331414,0.0105971,1203,1723,-0.0511127,0.0546339
-14,-699,-0.0739746,-0.0782471,0.000540208,-0.00380302,-0.00236465,0.00157912,-0.00484193,-0.413964,0.00386345,0.00961797,1210,1723,-0.0740138,0.0782551
-7,-699,-0.0856934,-0.074585,0.00128029,-0.00439895,-0.00218649,0.00202454,-0.00514321,-0.328087,0.00426688,0.00766943,1217,1723,-0.085697,0.0745631
0,-699,-0.0765381,-0.0672607,0.00228656,-0.00520856,-0.00176861,0.00268293,-0.00560493,-0.220473,0.00488312,0.00968168,1224,1723,-0.0765719,0.0672007
7,-699,-0.0705566,-0.0825195,0.00332414,-0.00593969,-0.00110592,0.00345433,-0.00606988,-0.117186,0.0055675,0.014996,1231,1723,-0.0705251,0.0825049
14,-699,-0.0695801,-0.0474854,0.00429143,-0.00643779,-0.000316401,0.00430075,-0.00644711,-0.0294556,0.00624639,0.0156157,1238,1723,-0.0695417,0.0474782
21,-699,-0.0488281,-0.0522461,0.00530223,-0.00680262,0.000863712,0.00536355,-0.00686394,0.070874,0.00707724,0.0154767,1245,1723,-0.0488573,0.0522943
28,-699,-0.0632324,-0.0666504,0.00615886,-0.00717929,0.00211239,0.00648541,-0.00750583,0.153373,0.00808501,0.0153133,1252,1723,-0.063289,0.0667102
35,-699,-0.0736084,-0.0665283,0.00699581,-0.00745336,0.00333524,0.00772852,-0.00818607,0.21625,0.00918956,0.0130656,1259,1723,-0.0735524,0.066494
42,-699,-0.0827637,-0.0769043,0.00806457,-0.00690427,0.00417989,0.00915267,-0.00799237,0.254665,0.00990625,0.0122127,1266,1723,-0.0827074,0.0768819
49,-699,-0.0665283,-0.067749,0.0087962,-0.00631742,0.00442744,0.00999767,-0.0075189,0.264989,0.0101469,0.0150168,1273,1723,-0.0665668,0.0677445
56,-699,-0.0600586,-0.0441895,0.00939306,-0.00592564,0.00424872,0.0104925,-0.00702513,0.253226,0.0101797,0.0153366,1280,1723,-0.060095,0.044225
63,-699,-0.0626221,-0.050293,0.00971347,-0.0054615,0.00406255,0.0107326,-0.00648065,0.245793,0.0100386,0.0122608,1287,1723,-0.0626058,0.0503413
70,-699,-0.0526123,-0.0499268,0.00967069,-0.00488607,0.00344292,0.0104439,-0.00565931,0.220921,0.00943301,0.010152,1294,1723,-0.0526588,0.0498989
77,-699,-0.0583496,-0.0516357,0.00910975,-0.00470314,0.00209379,0.00942016,-0.00501355,0.147179,0.00846177,0.0102797,1301,1723,-0.0583825,0.0516717
84,-699,-0.0739746,-0.0627441,0.00823928,-0.00479472,0.000550416,0.00826249,-0.00481793,0.0421292,0.00763876,0.0129149,1308,1723,-0.0739778,0.0628036
91,-699,-0.0943604,-0.0562744,0.00696389,-0.0048904,-0.00114039,0.0070726,-0.00499911,-0.0950396,0.00700379,0.0130523,1315,1723,-0.0943289,0.0562265
98,-699,-0.0732422,-0.0444336,0.00545616,-0.00417068,-0.00213302,0.0059076,-0.00462213,-0.208568,0.00609442,0.0117782,1322,1723,-0.0732535,0.0443787
105,-699,-0.0662842,-0.0393066,0.00374274,-0.0027889,-0.00261538,0.00466092,-0.00370707,-0.337624,0.00484171,0.0156204,1329,1723,-0.066253,0.0392706
112,-699,-0.117676,-0.0528564,0.00218761,-0.00140392,-0.00268672,0.00362344,-0.00283975,-0.490802,0.00374066,0.0209213,1336,1723,-0.117684,0.0528246
119,-699,-0.11438,-0.0675049,0.000666616,-7.88162e-05,-0.00222295,0.00254788,-0.00196008,-0.702337,0.00261004,0.0149666,1343,1723,-0.11432,0.0674828
126,-699,-0.0875244,-0.0561523,-0.000968606,0.00218616,-0.00157297,0.00283641,-0.00161886,-1.1788,0.00260407,0.0162204,1350,1723,-0.0875241,0.0561829
133,-699,-0.0618896,-0.0610352,-0.00237074,0.00475014,-0.000807444,0.00484055,-0.00246115,-1.45929,0.0042896,0.0142316,1357,1723,-0.0618773,0.0610503
140,-699,-0.0290527,-0.05896,-0.00346644,0.00771818,-0.000124493,0.00771956,-0.00346782,-1.55967,0.0066127,0.0153627,1364,1723,-0.0290841,0.0589044
147,-699,-0.0574951,-0.0446777,-0.00436768,0.0105779,0.000644465,0.0106056,-0.00439542,1.52778,0.00890482,0.0136474,1371,1723,-0.0575522,0.0446858
154,-699,-0.0787354,-0.053833,-0.00464306,0.0135919,0.00118699,0.0136689,-0.00472001,1.50607,0.0110279,0.0123179,1378,1723,-0.0787575,0.0538807
161,-699,-0.0488281,-0.0977783,-0.00441157,0.0167799,0.00132676,0.0168626,-0.00449431,1.50851,0.0130014,0.00861715,1385,1723,-0.0488747,0.0978061
168,-699,-0.041626,-0.0895996,-0.00361235,0.0189574,0.000964482,0.0189986,-0.00365349,1.52817,0.0140429,0.00981655,1392,1723,-0.0416663,0.0896213
175,-699,-0.038208,-0.0814209,-0.0028551,0.0206269,0.000729768,0.0206496,-0.00287776,1.53976,0.0148191,0.0122813,1399,1723,-0.0382506,0.0814425
182,-699,-0.0655518,-0.0705566,-0.00196714,0.0215667,0.000439944,0.0215749,-0.00197536,1.55211,0.0150849,0.0130439,1406,1723,-0.0655866,0.070508
189,-699,-0.0688477,-0.0598145,-0.00111089,0.021871,8.70311e-05,0.0218713,-0.00111122,1.56701,0.0149651,0.0144128,1413,1723,-0.0688931,0.0597727
196,-699,-0.0750732,-0.0654297,-0.000418212,0.0209358,-0.000383902,0.0209427,-0.000425112,-1.55283,0.0141056,0.0142477,1420,1723,-0.0751096,0.0654086
203,-699,-0.0782471,-0.0562744,0.000122721,0.0192141,-0.000920703,0.0192584,7.84211e-05,-1.52272,0.0128129,0.01218,1427,1723,-0.0782489,0.0562958
210,-699,-0.0554199,-0.0469971,0.000524454,0.0172447,-0.00119651,0.0173299,0.000439264,-1.49972,0.0114097,0.0124561,1434,1723,-0.0554244,0.0469583
217,-699,-0.0377197,-0.0377197,0.000709752,0.0151701,-0.00126292,0.0152796,0.000600281,-1.48433,0.00999233,0.0127175,1441,1723,-0.037698,0.0376631
224,-699,-0.0546875,-0.0360107,0.000845769,0.0132977,-0.00120419,0.0134131,0.000730384,-1.47527,0.00870882,0.0140614,1448,1723,-0.0546966,0.0359593
231,-699,-0.052002,-0.0402832,0.00097558,0.0111231,-0.00112036,0.0112453,0.000853356,-1.46213,0.00722922,0.0110622,1455,1723,-0.0520299,0.0403424
238,-699,-0.0761719,-0.0655518,0.000946572,0.00917433,-0.000949365,0.00928245,0.00083845,-1.4574,0.00592862,0.00962682,1462,1723,-0.0761397,0.0655928
245,-699,-0.0708008,-0.0906982,0.000661845,0.00738809,-0.000695727,0.0074593,0.000590636,-1.4688,0.00478814,0.0112913,1469,1723,-0.070786,0.0906676
252,-699,-0.0787354,-0.0982666,0.000186449,0.00588383,-0.000453867,0.00591976,0.00015052,-1.4918,0.0038973,0.00950608,1476,1723,-0.0787489,0.098217
259,-699,-0.0649414,-0.0787354,-6.66692e-05,0.00477338,-0.000182418,0.00478024,-7.35347e-05,-1.53318,0.00321162,0.00941978,1483,1723,-0.0649641,0.0787481
266,-699,-0.0695801,-0.0693359,-0.000217972,0.00409432,0.000113818,0.00409732,-0.000220974,1.54443,0.0028081,0.0115136,1490,1723,-0.0695748,0.069396
273,-699,-0.0797119,-0.0640869,-0.00048584,0.00388432,0.000272789,0.00390128,-0.000502802,1.5087,0.00278363,0.010807,1497,1723,-0.079685,0.0641022
280,-699,-0.0720215,-0.0488281,-0.000465169,0.00378584,0.00018775,0.00379411,-0.000473445,1.52674,0.00270109,0.0116854,1504,1723,-0.0720339,0.0487779
287,-699,-0.0629883,-0.06604,-0.000297013,0.00372354,5.42703e-05,0.00372427,-0.000297745,1.5573,0.00258781,0.0108168,1511,1723,-0.0629869,0.0660246
294,-699,-0.0681152,-0.0665283,-2.64126e-05,0.00353839,-0.000259318,0.00355715,-4.51775e-05,-1.49856,0.00238664,0.0106015,1518,1723,-0.0681521,0.0665331
301,-699,-0.0744629,-0.0552979,0.000507425,0.00367251,-0.000435913,0.00373145,0.000448486,-1.4364,0.00235243,0.011503,1525,1723,-0.0745221,0.0552827
308,-699,-0.0671387,-0.0441895,0.00111883,0.00381687,-0.000821502,0.00404731,0.000888381,-1.2973,0.00245623,0.0157573,1532,1723,-0.0670831,0.0441303
315,-699,-0.0350342,-0.0340576,0.00174784,0.00406667,-0.00123022,0.00459773,0.00121678,-1.16329,0.00275077,0.0179621,1539,1723,-0.0350387,0.0340687
322,-699,-0.0649414,-0.0634766,0.00238082,0.00407763,-0.00143835,0.00489915,0.0015593,-1.05186,0.00289012,0.0188082,1546,1723,-0.0649034,0.0634983
329,-699,-0.0985107,-0.0908203,0.00261948,0.00402907,-0.0015973,0.00507015,0.00157839,-0.993171,0.00299593,0.0144234,1553,1723,-0.0985197,0.0907952
336,-699,-0.076416,-0.0823975,0.00246732,0.00398921,-0.00164683,0.0050424,0.00141413,-1.00182,0.00300332,0.0118816,1560,1723,-0.0763563,0.0823565
343,-699,-0.0675049,-0.0714111,0.0024237,0.00346402,-0.00155021,0.00457902,0.00130871,-0.947267,0.00272336,0.0153751,1567,1723,-0.0674546,0.0714253
350,-699,-0.039917,-0.0288086,0.00254297,0.00301267,-0.00121982,0.00402004,0.0015356,-0.880498,0.00234242,0.0245719,1574,1723,-0.0399585,0.0288325
357,-699,-0.0490723,-0.0200195,0.00247141,0.00260312,-0.00081259,0.00335252,0.00172201,-0.825831,0.00193582,0.0340613,1581,1723,-0.0491258,0.0199765
364,-699,-0.0327148,-0.0777588,0.00223259,0.00217872,-0.000511608,0.00271797,0.00169334,-0.759098,0.00158497,0.0377487,1588,1723,-0.0326906,0.0777435
371,-699,0.0870361,-0.290649,0.00222001,0.00128366,2.70399e-05,0.00222079,0.00128288,0.028846,0.00128732,0.0409375,1595,1723,0.0870759,0.290591
378,-699,0.0800781,-0.303711,0.00259783,0.000454785,0.000579181,0.00274434,0.000308272,0.247769,0.00173595,0.0441497,1602,1723,0.080139,0.303747
385,-699,-0.372681,-0.345581,0.00364003,-0.000864145,0.000975111,0.00384207,-0.00106618,0.204306,0.00298102,0.0418755,1609,1723,-0.372719,0.345607
392,-699,-0.429565,-0.396973,0.00517849,-0.00230635,0.00117018,0.00535717,-0.00248503,0.151524,0.00462781,0.0424457,1616,1723,-0.429607,0.396965
399,-699,-0.244873,-0.455322,0,0,0,0,0,0,0,-1,1623,1723,-0.244817,0.45536
406,-699,0.211792,-0.395264,0.0102735,-0.00747852,-0.000626661,0.0102956,-0.00750061,-0.0352424,0.0103168,0.0412099,1630,1723,0.211758,0.395211
413,-699,0.337769,-0.52356,0.0128489,-0.0117019,-0.00318175,0.0132546,-0.0121076,-0.126808,0.0146478,0.0385488,1637,1723,0.337794,0.523542
420,-699,0.627319,-0.823853,0.0144523,-0.0160982,-0.00524481,0.0153277,-0.0169735,-0.165371,0.0186572,0.041934,1644,1723,0.627289,0.823865
427,-699,0.932495,-0.910278,0,0,0,0,0,0,0,-1,1651,1723,0.932536,0.910302
434,-699,-0.32312,0.724609,0,0,0,0,0,0,0,-1,1658,1723,-0.323122,-0.724563
441,-699,0,0,0,0,0,0,0,0,0,-1,1665,1723,0,0
448,-699,0,0,0,0,0,0,0,0,0,-1,1672,1723,0,0
455,-699,0,0,0,0,0,0,0,0,0,-1,1679,1723,0,0
462,-699,0,0,0,0,0,0,0,0,0,-1,1686,1723,0,0
469,-699,0,0,0,0,0,0,0,0,0,-1,1693,1723,0,0
476,-699,0,0,0,0,0,0,0,0,0,-1,1700,1723,0,0
483,-699,0,0,0,0,0,0,0,0,0,-1,1707,1723,0,0
490,-699,0,0,0,0,0,0,0,0,0,-1,1714,1723,0,0
497,-699,0,0,0,0,0,0,0,0,0,-1,1721,1723,0,0
504,-699,0,0,0,0,0,0,0,0,0,-1,1728,1723,0,0
511,-699,0,0,0,0,0,0,0,0,0,-1,1735,1723,0,0
518,-699,0,0,0,0,0,0,0,0,0,-1,1742,1723,0,0
525,-699,0,0,0,0,0,0,0,0,0,-1,1749,1723,0,0
532,-699,0,0,0,0,0,0,0,0,0,-1,1756,1723,0,0
539,-699,0,0,0,0,0,0,0,0,0,-1,1763,1723,0,0
546,-699,0,0,0,0,0,0,0,0,0,-1,1770,1723,0,0
553,-699,0,0,0,0,0,0,0,0,0,-1,1777,1723,0,0
560,-699,0,0,0,0,0,0,0,0,0,-1,1784,1723,0,0
567,-699,0,0,0,0,0,0,0,0,0,-1,1791,1723,0,0
574,-699,0,0,0,0,0,0,0,0,0,-1,1798,1723,0,0
581,-699,0,0,0,0,0,0,0,0,0,-1,1805,1723,0,0
588,-699,0,0,0,0,0,0,0,0,0,-1,1812,1723,0,0
595,-699,0,0,0,0,0,0,0,0,0,-1,1819,1723,0,0
602,-699,0,0,0,0,0,0,0,0,0,-1,1826,1723,0,0
609,-699,0,0,0,0,0,0,0,0,0,-1,1833,1723,0,0
616,-699,0,0,0,0,0,0,0,0,0,-1,1840,1723,0,0
623,-699,0,0,0,0,0,0,0,0,0,-1,1847,1723,0,0
630,-699,0,0,0,0,0,0,0,0,0,-1,1854,1723,0,0
637,-699,0,0,0,0,0,0,0,0,0,-1,1861,1723,0,0
644,-699,0,0,0,0,0,0,0,0,0,-1,1868,1723,0,0
651,-699,0,0,0,0,0,0,0,0,0,-1,1875,1723,0,0
658,-699,0,0,0,0,0,0,0,0,0,-1,1882,1723,0,0
665,-699,0,0,0,0,0,0,0,0,0,-1,1889,1723,0,0
672,-699,0,0,0,0,0,0,0,0,0,-1,1896,1723,0,0
679,-699,0,0,0,0,0,0,0,0,0,-1,1903,1723,0,0
686,-699,0,0,0,0,0,0,0,0,0,-1,1910,1723,0,0
693,-699,0,0,0,0,0,0,0,0,0,-1,1917,1723,0,0
700,-699,0,0,0,0,0,0,0,0,0,-1,1924,1723,0,0
707,-699,0,0,0,0,0,0,0,0,0,-1,1931,1723,0,0
714,-699,0,0,0,0,0,0,0,0,0,-1,1938,1723,0,0
721,-699,0,0,0,0,0,0,0,0,0,-1,1945,1723,0,0
728,-699,0,0,0,0,0,0,0,0,0,-1,1952,1723,0,0
735,-699,0,0,0,0,0,0,0,0,0,-1,1959,1723,0,0
742,-699,0,0,0,0,0,0,0,0,0,-1,1966,1723,0,0
749,-699,0,0,0,0,0,0,0,0,0,-1,1973,1723,0,0
756,-699,0,0,0,0,0,0,0,0,0,-1,1980,1723,0,0
763,-699,0,0,0,0,0,0,0,0,0,-1,1987,1723,0,0
770,-699,0,0,0,0,0,0,0,0,0,-1,1994,1723,0,0
777,-699,0,0,0,0,0,0,0,0,0,-1,2001,1723,0,0
784,-699,0,0,0,0,0,0,0,0,0,-1,2008,1723,0,0
791,-699,0,0,0,0,0,0,0,0,0,-1,2015,1723,0,0
798,-699,0,0,0,0,0,0,0,0,0,-1,2022,1723,0,0
805,-699,0,0,0,0,0,0,0,0,0,-1,2029,1723,0,0
812,-699,0,0,0,0,0,0,0,0,0,-1,2036,1723,0,0
-700,-706,0,0,0,0,0,0,0,0,0,-1,524,1730,0,0
-693,-706,0,0,0,0,0,0,0,0,0,-1,531,1730,0,0
-686,-706,0,0,0,0,0,0,0,0,0,-1,538,1730,0,0
-679,-706,0,0,0,0,0,0,0,0,0,-1,545,1730,0,0
-672,-706,0,0,0,0,0,0,0,0,0,-1,552,1730,0,0
-665,-706,0,0,0,0,0,0,0,0,0,-1,559,1730,0,0
-658,-706,0,0,0,0,0,0,0,0,0,-1,566,1730,0,0
-651,-706,0,0,0,0,0,0,0,0,0,-1,573,1730,0,0
-644,-706,0,0,0,0,0,0,0,0,0,-1,580,1730,0,0
-637,-706,0,0,0,0,0,0,0,0,0,-1,587,1730,0,0
-630,-706,0,0,0,0,0,0,0,0,0,-1,594,1730,0,0
-623,-706,0,0,0,0,0,0,0,0,0,-1,601,1730,0,0
-616,-706,0,0,0,0,0,0,0,0,0,-1,608,1730,0,0
-609,-706,0,0,0,0,0,0,0,0,0,-1,615,1730,0,0
-602,-706,0,0,0,0,0,0,0,0,0,-1,622,1730,0,0
-595,-706,0,0,0,0,0,0,0,0,0,-1,629,1730,0,0
-588,-706,0,0,0,0,0,0,0,0,0,-1,636,1730,0,0
-581,-706,0,0,0,0,0,0,0,0,0,-1,643,1730,0,0
-574,-706,0,0,0,0,0,0,0,0,0,-1,650,1730,0,0
-567,-706,0,0,0,0,0,0,0,0,0,-1,657,1730,0,0
-560,-706,0,0,0,0,0,0,0,0,0,-1,664,1730,0,0
-553,-706,0,0,0,0,0,0,0,0,0,-1,671,1730,0,0
-546,-706,0,0,0,0,0,0,0,0,0,-1,678,1730,0,0
-539,-706,0,0,0,0,0,0,0,0,0,-1,685,1730,0,0
-532,-706,0,0,0,0,0,0,0,0,0,-1,692,1730,0,0
-525,-706,0,0,0,0,0,0,0,0,0,-1,699,1730,0,0
-518,-706,0,0,0,0,0,0,0,0,0,-1,706,1730,0,0
-511,-706,0,0,0,0,0,0,0,0,0,-1,713,1730,0,0
-504,-706,0,0,0,0,0,0,0,0,0,-1,720,1730,0,0
-497,-706,0,0,0,0,0,0,0,0,0,-1,727,1730,0,0
-490,-706,0,0,0,0,0,0,0,0,0,-1,734,1730,0,0
-483,-706,0,0,0,0,0,0,0,0,0,-1,741,1730,0,0
-476,-706,0,0,0,0,0,0,0,0,0,-1,748,1730,0,0
-469,-706,0,0,0,0,0,0,0,0,0,-1,755,1730,0,0
-462,-706,0,0,0,0,0,0,0,0,0,-1,762,1730,0,0
-455,-706,0,0,0,0,0,0,0,0,0,-1,769,1730,0,0
-448,-706,0,0,0,0,0,0,0,0,0,-1,776,1730,0,0
-441,-706,0,0,0,0,0,0,0,0,0,-1,783,1730,0,0
-434,-706,0,0,0,0,0,0,0,0,0,-1,790,1730,0,0
-427,-706,0,0,0,0,0,0,0,0,0,-1,797,1730,0,0
-420,-706,0,0,0,0,0,0,0,0,0,-1,804,1730,0,0
-413,-706,0,0,0,0,0,0,0,0,0,-1,811,1730,0,0
-406,-706,0,0,0,0,0,0,0,0,0,-1,818,1730,0,0
-399,-706,0,0,0,0,0,0,0,0,0,-1,825,1730,0,0
-392,-706,0,0,0,0,0,0,0,0,0,-1,832,1730,0,0
-385,-706,0,0,0,0,0,0,0,0,0,-1,839,1730,0,0
-378,-706,0,0,0,0,0,0,0,0,0,-1,846,1730,0,0
-371,-706,0,0,0,0,0,0,0,0,0,-1,853,1730,0,0
-364,-706,0,0,0,0,0,0,0,0,0,-1,860,1730,0,0
-357,-706,0,0,0,0,0,0,0,0,0,-1,867,1730,0,0
-350,-706,0,0,0,0,0,0,0,0,0,-1,874,1730,0,0
-343,-706,0,0,0,0,0,0,0,0,0,-1,881,1730,0,0
-336,-706,0,0,0,0,0,0,0,0,0,-1,888,1730,0,0
-329,-706,0,0,0,0,0,0,0,0,0,-1,895,1730,0,0
-322,-706,0,0,0,0,0,0,0,0,0,-1,902,1730,0,0
-315,-706,0,0,0,0,0,0,0,0,0,-1,909,1730,0,0
-308,-706,-0.225037,-0.37146,0,0,0,0,0,0,0,-1,916,1730,-0.225038,0.371485
-301,-706,-0.0149536,-0.630249,0,0,0,0,0,0,0,-1,923,1730,-0.0149814,0.630208
-294,-706,0.272705,-0.615723,0,0,0,0,0,0,0,-1,930,1730,0.272696,0.615725
-287,-706,0.834717,-0.213745,0.01363,0.0114417,0.00534765,0.0179943,0.00707741,0.68449,0.0104675,0.0454647,937,1730,0.8347,0.213755
-280,-706,0.725708,0.455933,0.0124841,0.00795243,0.00418883,0.0149806,0.00545587,0.537476,0.00875477,0.0470765,944,1730,0.725709,-0.455947
-273,-706,0.481628,0.630737,0,0,0,0,0,0,0,-1,951,1730,0.481646,-0.630792
-266,-706,0.208069,0.380005,0.00836561,0.00427868,0.00242117,0.0094904,0.0031539,0.434898,0.00558104,0.0450345,958,1730,0.208057,-0.379957
-259,-706,0.111389,0.351685,0.00652697,0.0037667,0.00249819,0.00800091,0.00229276,0.533036,0.00475755,0.0436452,965,1730,0.111404,-0.351683
-252,-706,0.164368,0.152588,0.00594243,0.00394256,0.00265411,0.00777872,0.00210627,0.605246,0.00464571,0.0440884,972,1730,0.164374,-0.152638
-245,-706,0.460571,0.108765,0,0,0,0,0,0,0,-1,979,1730,0.46057,-0.108761
-238,-706,0.641418,-0.152344,0.00483096,0.00487159,0.0028008,0.00765215,0.0020504,0.789025,0.00457382,0.042694,986,1730,0.641432,0.152322
-231,-706,0.306091,-0.19458,0.00399612,0.00512143,0.00307831,0.00768809,0.00142946,0.875791,0.00472159,0.0423358,993,1730,0.306093,0.194565
-224,-706,0.0324097,-0.230469,0,0,0,0,0,0,0,-1,1000,1730,0.0324045,0.23049
-217,-706,0.140442,-0.365112,0.00207664,0.00535834,0.00288494,0.00703641,0.000398563,1.04397,0.00456389,0.0369386,1007,1730,0.140466,0.365162
-210,-706,0.121521,-0.226074,0.00122995,0.00449754,0.00232929,0.0057089,1.85943e-05,1.09124,0.00379975,0.0338142,1014,1730,0.121522,0.226039
-203,-706,0.0849609,-0.151245,0.000645296,0.00356454,0.00196332,0.00455137,-0.000341536,1.10504,0.00315426,0.0272489,1021,1730,0.0849529,0.151214
-196,-706,-0.0214844,-0.0860596,0.00041069,0.00240417,0.00163519,0.00332246,-0.0005076,1.05911,0.00240212,0.0212305,1028,1730,-0.0214612,0.0860046
-189,-706,-0.0596924,-0.0638428,4.82222e-05,0.000820318,0.000828517,0.00134831,-0.000479772,1.00342,0.00109443,0.0169389,1035,1730,-0.05967,0.0638383
-182,-706,-0.0904541,-0.0545654,-0.00018694,-0.000513194,0.00073019,0.000398123,-0.00109826,0.675501,0.000894902,0.0125028,1042,1730,-0.0904603,0.0545421
-175,-706,-0.088501,-0.0582275,-0.000263904,-0.00168923,0.00051006,-0.000100183,-0.00185295,0.310596,0.0012033,0.0131265,1049,1730,-0.088518,0.0582365
-168,-706,-0.0736084,-0.0751953,-0.000333065,-0.00237294,1.7753e-05,-0.000332911,-0.0023731,0.00870211,0.0014836,0.0137858,1056,1730,-0.0736159,0.0752163
-161,-706,-0.0690918,-0.0800781,-0.000237646,-0.00266985,-0.000223811,-0.000217223,-0.00269027,-0.0910015,0.00172567,0.0123301,1063,1730,-0.06906,0.08012
-154,-706,-0.0601807,-0.0537109,-7.68736e-05,-0.00268716,-0.000378384,-2.31301e-05,-0.00274091,-0.141091,0.00181961,0.0126055,1070,1730,-0.0601661,0.0537062
-147,-706,-0.0734863,-0.0561523,-0.000167497,-0.00237782,-0.000503389,-5.82528e-05,-0.00248707,-0.213704,0.00163897,0.0116593,1077,1730,-0.0734385,0.0561374
-140,-706,-0.0773926,-0.0617676,-0.000240895,-0.00196583,-0.000485958,-0.000113411,-0.00209332,-0.256555,0.00135932,0.00981004,1084,1730,-0.0773746,0.0617943
-133,-706,-0.0528564,-0.0690918,3.0908e-05,-0.00145936,-0.00039284,0.000128121,-0.00155657,-0.242588,0.00108295,0.00777683,1091,1730,-0.0528591,0.0691476
-126,-706,-0.0483398,-0.0751953,0.000219854,-0.000992526,-0.000318882,0.000298611,-0.00107128,-0.242132,0.000831789,0.0120232,1098,1730,-0.0483222,0.0751708
-119,-706,-0.0332031,-0.0721436,0.000591825,-0.00045166,-0.000188972,0.000624993,-0.000484828,-0.173748,0.000642456,0.0168766,1105,1730,-0.0331995,0.0721419
-112,-706,-0.0588379,-0.0424805,0.00073963,-2.64951e-05,-0.000212561,0.000794653,-8.15185e-05,-0.253299,0.000558927,0.0122873,1112,1730,-0.0588052,0.0424927
-105,-706,-0.0689697,-0.0219727,0.000597974,0.000270736,-0.000217289,0.000706358,0.000162352,-0.462688,0.000427198,0.00871288,1119,1730,-0.0689832,0.0219383
-98,-706,-0.0693359,-0.0474854,0.00042938,0.000425244,-0.000224541,0.000651863,0.000202761,-0.780793,0.000385207,0.0104123,1126,1730,-0.0693649,0.0475445
-91,-706,-0.0605469,-0.0666504,0.000170569,0.000407578,-0.000211945,0.000531899,4.62491e-05,-1.04031,0.000340232,0.0132459,1133,1730,-0.060489,0.0666627
-84,-706,-0.0640869,-0.0756836,8.8812e-06,0.000335215,-6.43133e-05,0.000347432,-3.33617e-06,-1.38307,0.000232741,0.0149895,1140,1730,-0.0640267,0.0756285
-77,-706,-0.079834,-0.0657959,0.000118179,0.000401116,0.000117909,0.00044381,7.54854e-05,1.22339,0.000274197,0.0147248,1147,1730,-0.0797795,0.0657702
-70,-706,-0.0856934,-0.0423584,0.000188929,0.000484352,0.000294397,0.000666016,7.26493e-06,1.01792,0.000441609,0.0164405,1154,1730,-0.0856563,0.0423948
-63,-706,-0.0875244,-0.0574951,0.000184766,0.000290184,0.000468316,0.000708748,-0.000233798,0.841437,0.000566741,0.0121997,1161,1730,-0.0875418,0.0574635
-56,-706,-0.0910645,-0.0775146,0.000209671,0.00025971,0.000590352,0.000825572,-0.000356191,0.806576,0.000700001,0.0118708,1168,1730,-0.0911103,0.0774941
-49,-706,-0.0721436,-0.0651855,0.000190356,-1.27977e-05,0.00048204,0.000581405,-0.000403847,0.681556,0.000571906,0.0126837,1175,1730,-0.0721935,0.0651367
-42,-706,-0.0622559,-0.0384521,7.74703e-05,-0.000455584,0.000128067,0.000106642,-0.000484756,0.223965,0.000363964,0.0177501,1182,1730,-0.0622795,0.0384708
-35,-706,-0.0766602,-0.0305176,7.76181e-05,-0.0011634,-0.00042648,0.000210047,-0.00129583,-0.301077,0.000941745,0.0163221,1189,1730,-0.0766172,0.0305721
-28,-706,-0.0651855,-0.0645752,7.01845e-05,-0.0018791,-0.000902758,0.000424038,-0.00223295,-0.373564,0.00164826,0.00990973,1196,1730,-0.0651687,0.0645946
-21,-706,-0.0626221,-0.0626221,1.34393e-05,-0.00261243,-0.00140322,0.000622176,-0.00322117,-0.409313,0.00238208,0.00996355,1203,1730,-0.0626258,0.0626006
-14,-706,-0.0712891,-0.0881348,0.000147617,-0.00315247,-0.00148819,0.000719588,-0.00372444,-0.366934,0.00275434,0.00942972,1210,1730,-0.0712646,0.0880821
-7,-706,-0.0759277,-0.0786133,0.000521996,-0.00368838,-0.00136943,0.000928214,-0.00409459,-0.288365,0.00308602,0.00785176,1217,1730,-0.0759689,0.0785906
0,-706,-0.0692139,-0.0749512,0.00110563,-0.00437841,-0.00116599,0.00134324,-0.00461602,-0.201033,0.0036094,0.0116678,1224,1730,-0.0692172,0.0748944
7,-706,-0.0533447,-0.079834,0.00168001,-0.00500234,-0.000776827,0.00176913,-0.00509146,-0.114221,0.00411286,0.0136431,1231,1730,-0.0533269,0.0797978
14,-706,-0.0657959,-0.0814209,0.00222,-0.00548429,-0.000301522,0.00223178,-0.00549608,-0.0390572,0.00459245,0.0131152,1238,1730,-0.065815,0.0814502
21,-706,-0.0588379,-0.0776367,0.00281228,-0.00577837,0.000451921,0.00283599,-0.00580208,0.0524133,0.00508425,0.0111177,1245,1730,-0.0588678,0.0776926
28,-706,-0.0617676,-0.0761719,0.0033096,-0.00602387,0.00125214,0.00347466,-0.00618894,0.131068,0.00565216,0.011935,1252,1730,-0.0617643,0.0761858
35,-706,-0.0622559,-0.0662842,0.00382481,-0.00609503,0.0020494,0.00423153,-0.00650175,0.195914,0.0062429,0.0136979,1259,1730,-0.0622985,0.0662556
42,-706,-0.0629883,-0.0698242,0.00457058,-0.0054332,0.00266879,0.00523802,-0.00610064,0.245065,0.00655269,0.0126032,1266,1730,-0.0629772,0.0697759
49,-706,-0.0576172,-0.069458,0.00512342,-0.00469315,0.0028539,0.00589281,-0.00546254,0.263332,0.00655759,0.0146711,1273,1730,-0.0575897,0.0694464
56,-706,-0.0534668,-0.0610352,0.00557113,-0.00415021,0.00278039,0.00631016,-0.00488925,0.259795,0.00648331,0.0131323,1280,1730,-0.0534481,0.0610025
63,-706,-0.0668945,-0.0773926,0.00585489,-0.00353544,0.00270833,0.00658003,-0.00426058,0.261606,0.0063064,0.0113368,1287,1730,-0.0669267,0.0773929
70,-706,-0.0686035,-0.0845947,0.00595514,-0.00283331,0.00240509,0.00657027,-0.00344844,0.250395,0.00587717,0.0119996,1294,1730,-0.0685674,0.0846289
77,-706,-0.0732422,-0.0681152,0.00578983,-0.00242671,0.00153336,0.00606666,-0.00270354,0.178612,0.00518609,0.010753,1301,1730,-0.0732531,0.0681177
84,-706,-0.0726318,-0.0662842,0.00543648,-0.00236288,0.000547863,0.00547477,-0.00240118,0.0697879,0.00466117,0.00907856,1308,1730,-0.0726372,0.0662908
91,-706,-0.0631104,-0.053833,0.00468534,-0.00247911,-0.000539364,0.00472572,-0.00251949,-0.0747222,0.00424717,0.0105398,1315,1730,-0.0631689,0.0538462
98,-706,-0.0750732,-0.0377197,0.0038994,-0.00206541,-0.00117418,0.00412221,-0.00228823,-0.187533,0.00375122,0.0142419,1322,1730,-0.0751085,0.037762
105,-706,-0.0751953,-0.0377197,0.00297786,-0.00122275,-0.00151136,0.00346512,-0.00171001,-0.311877,0.0030446,0.0152998,1329,1730,-0.0751784,0.037741
112,-706,-0.0665283,-0.0621338,0.00206684,-0.000283093,-0.00156293,0.0028472,-0.00106345,-0.463082,0.00233479,0.014113,1336,1730,-0.0664927,0.0621196
119,-706,-0.0709229,-0.0499268,0.00117777,0.000563086,-0.00127295,0.00217995,-0.000439099,-0.666945,0.00161963,0.0118878,1343,1730,-0.0709529,0.0498709
126,-706,-0.0809326,-0.0393066,0.000163176,0.00174999,-0.000895166,0.00215275,-0.000239585,-1.148,0.00152133,0.0139004,1350,1730,-0.0809663,0.0393338
133,-706,-0.0716553,-0.046875,-0.000736076,0.00337465,-0.000454864,0.00342438,-0.000785807,-1.4619,0.00258498,0.0120079,1357,1730,-0.0716451,0.0468961
140,-706,-0.0294189,-0.0354004,-0.00147915,0.00536003,-6.0156e-05,0.00536056,-0.00147968,-1.562,0.00415569,0.0116887,1364,1730,-0.0294667,0.0353447
147,-706,-0.0450439,-0.0418701,-0.00210946,0.00732794,0.00037811,0.00734307,-0.00212459,1.53082,0.00573626,0.0206146,1371,1730,-0.0450417,0.0418888
154,-706,-0.0823975,-0.0457764,-0.00238138,0.00954768,0.000754066,0.00959516,-0.00242886,1.50792,0.00734156,0.0187238,1378,1730,-0.0823869,0.0457699
161,-706,-0.081543,-0.0632324,-0.00232281,0.0119846,0.000879413,0.0120384,-0.00237666,1.50964,0.00892395,0.00964647,1385,1730,-0.0814854,0.063257
168,-706,-0.0645752,-0.0766602,-0.00188961,0.0136608,0.000690996,0.0136914,-0.00192025,1.52648,0.00983041,0.0089584,1392,1730,-0.0645891,0.0766245
175,-706,-0.057373,-0.0754395,-0.00149577,0.0149187,0.000521286,0.0149353,-0.00151231,1.53908,0.0104973,0.00999521,1399,1730,-0.0574237,0.0754828
182,-706,-0.0616455,-0.0717773,-0.000957155,0.0156348,0.000345681,0.015642,-0.000964353,1.54997,0.0107639,0.0109867,1406,1730,-0.0616529,0.0718197
189,-706,-0.0767822,-0.0683594,-0.000440052,0.015937,0.000115415,0.0159378,-0.000440866,1.56375,0.0107752,0.0133078,1413,1730,-0.0767518,0.0683185
196,-706,-0.0792236,-0.0618896,-3.2644e-05,0.0153376,-0.000218603,0.0153407,-3.57521e-05,-1.55658,0.0102391,0.0109622,1420,1730,-0.0792592,0.0619251
203,-706,-0.0792236,-0.0517578,0.000248135,0.0141111,-0.0006203,0.0141388,0.000220435,-1.52617,0.00935327,0.0111768,1427,1730,-0.0792555,0.0517581
210,-706,-0.0631104,-0.052002,0.000466355,0.0126567,-0.000862415,0.0127174,0.000405645,-1.50052,0.00834637,0.0117758,1434,1730,-0.0630504,0.0519566
217,-706,-0.0596924,-0.0388184,0.000550514,0.0111074,-0.00105136,0.0112111,0.000446828,-1.47249,0.00732968,0.0128826,1441,1730,-0.0596401,0.0388075
224,-706,-0.078125,-0.0332031,0.00063199,0.00968043,-0.00115145,0.00982466,0.000487762,-1.44619,0.00639339,0.0174308,1448,1730,-0.0781002,0.0332359
231,-706,-0.0587158,-0.0472412,0.000682511,0.00814445,-0.00121141,0.00833619,0.000490771,-1.41382,0.00540131,0.0127807,1455,1730,-0.0587445,0.0471858
238,-706,-0.0692139,-0.0474854,0.000596418,0.0066237,-0.00119137,0.00685065,0.000369472,-1.38256,0.00444906,0.00822842,1462,1730,-0.0692502,0.0474274
245,-706,-0.0812988,-0.0689697,0.000305274,0.00525619,-0.00110897,0.00549324,6.82222e-05,-1.36021,0.00363963,0.0102299,1469,1730,-0.081289,0.0690077
252,-706,-0.0644531,-0.0927734,-0.000146084,0.0041421,-0.000991741,0.00436035,-0.000364339,-1.35418,0.00303564,0.0100549,1476,1730,-0.0644965,0.0927287
259,-706,-0.0584717,-0.0805664,-0.000430643,0.00335958,-0.00079884,0.00352106,-0.000592129,-1.37133,0.00256761,0.0111116,1483,1730,-0.0584833,0.0805809
266,-706,-0.0656738,-0.0620117,-0.000630633,0.00294257,-0.00049006,0.00300856,-0.000696625,-1.43694,0.00227377,0.0114635,1490,1730,-0.0656563,0.0619772
273,-706,-0.0793457,-0.050415,-0.000882492,0.00293445,-0.000279054,0.00295474,-0.000902786,-1.4982,0.00232981,0.0105871,1497,1730,-0.0793654,0.0503819
280,-706,-0.0797119,-0.0484619,-0.000891637,0.00310954,-0.000175568,0.00311723,-0.000899326,-1.52703,0.00243395,0.00948662,1504,1730,-0.0797318,0.0484548
287,-706,-0.081665,-0.0710449,-0.000761128,0.00328509,-0.000181817,0.00329324,-0.000769282,-1.52598,0.00249182,0.0108603,1511,1730,-0.0816498,0.0710826
294,-706,-0.0612793,-0.0609131,-0.0005419,0.00327086,-0.000429166,0.00331857,-0.000589611,-1.46008,0.00243285,0.0107579,1518,1730,-0.0613286,0.0608832
301,-706,-0.0695801,-0.0437012,4.91174e-05,0.00364935,-0.000496297,0.00371651,-1.8045e-05,-1.43629,0.00248371,0.00959198,1525,1730,-0.0695815,0.0437358
308,-706,-0.0627441,-0.0472412,0.000807869,0.00396852,-0.000824062,0.00417047,0.000605919,-1.33047,0.00260196,0.0111462,1532,1730,-0.0627966,0.0471834
315,-706,-0.043457,-0.0556641,0.00153479,0.00437097,-0.00123976,0.00483649,0.00106927,-1.2116,0.0029336,0.0178115,1539,1730,-0.0434111,0.0556732
322,-706,-0.0543213,-0.0681152,0.00232544,0.00446506,-0.00143084,0.00518181,0.00160869,-1.1064,0.00306254,0.0189923,1546,1730,-0.0542864,0.0680891
329,-706,-0.0791016,-0.0859375,0.00272271,0.00446553,-0.00158283,0.00540097,0.00178727,-1.03703,0.00317713,0.015429,1553,1730,-0.0791028,0.0858844
336,-706,-0.0499268,-0.071167,0.00275332,0.00445069,-0.00165235,0.00545957,0.00174444,-1.02264,0.0032198,0.0195917,1560,1730,-0.049951,0.0711114
343,-706,-0.0522461,-0.09021,0.0029534,0.00380256,-0.00153294,0.00496863,0.00178733,-0.920496,0.00290603,0.027406,1567,1730,-0.0522445,0.0902534
350,-706,0.173584,-0.0101318,0.00333334,0.00307355,-0.00116002,0.00437072,0.00203617,-0.729642,0.0025254,0.0351923,1574,1730,0.173577,0.0101884
357,-706,0.164185,-0.408325,0.0034557,0.0023827,-0.000680227,0.00378554,0.00205286,-0.451488,0.00218819,0.0398696,1581,1730,0.164172,0.408293
364,-706,0.0140381,-0.599854,0.00334106,0.00160842,-0.000267424,0.00338139,0.00156808,-0.149705,0.00195396,0.0441459,1588,1730,0.014036,0.599822
371,-706,0.154785,-0.500244,0.00340957,0.000272425,0.000370509,0.00345274,0.000229261,0.115978,0.00222934,0.043564,1595,1730,0.154754,0.500208
378,-706,0.027832,0.283447,0,0,0,0,0,0,0,-1,1602,1730,0.0278179,-0.283423
385,-706,-0.317627,0.0285645,0.00481335,-0.00305058,0.00169949,0.00516492,-0.00340214,0.203987,0.00498097,0.0418601,1609,1730,-0.317605,-0.0285271
392,-706,-0.475098,-0.0286865,0.00659583,-0.0051163,0.00204874,0.00694387,-0.00546434,0.168271,0.00718083,0.0442392,1616,1730,-0.475131,0.0286371
399,-706,-0.290283,-0.0341797,0.00927387,-0.00747165,0.0018037,0.00946594,-0.00766372,0.106091,0.00990805,0.0430914,1623,1730,-0.290244,0.0341337
406,-706,-0.0743408,-0.398193,0.0126352,-0.0118353,-4.77581e-05,0.0126353,-0.0118354,-0.00195165,0.0141307,0.0405894,1630,1730,-0.0743695,0.398213
413,-706,0.0449219,-0.552856,0,0,0,0,0,0,0,-1,1637,1730,0.0449039,0.552813
420,-706,0.445435,-0.460815,0,0,0,0,0,0,0,-1,1644,1730,0.445423,0.460807
427,-706,0,0,0,0,0,0,0,0,0,-1,1651,1730,0,0
434,-706,0,0,0,0,0,0,0,0,0,-1,1658,1730,0,0
441,-706,0,0,0,0,0,0,0,0,0,-1,1665,1730,0,0
448,-706,0,0,0,0,0,0,0,0,0,-1,1672,1730,0,0
455,-706,0,0,0,0,0,0,0,0,0,-1,1679,1730,0,0
462,-706,0,0,0,0,0,0,0,0,0,-1,1686,1730,0,0
469,-706,0,0,0,0,0,0,0,0,0,-1,1693,1730,0,0
476,-706,0,0,0,0,0,0,0,0,0,-1,1700,1730,0,0
483,-706,0,0,0,0,0,0,0,0,0,-1,1707,1730,0,0
490,-706,0,0,0,0,0,0,0,0,0,-1,1714,1730,0,0
497,-706,0,0,0,0,0,0,0,0,0,-1,1721,1730,0,0
504,-706,0,0,0,0,0,0,0,0,0,-1,1728,1730,0,0
511,-706,0,0,0,0,0,0,0,0,0,-1,1735,1730,0,0
518,-706,0,0,0,0,0,0,0,0,0,-1,1742,1730,0,0
525,-706,0,0,0,0,0,0,0,0,0,-1,1749,1730,0,0
532,-706,0,0,0,0,0,0,0,0,0,-1,1756,1730,0,0
539,-706,0,0,0,0,0,0,0,0,0,-1,1763,1730,0,0
546,-706,0,0,0,0,0,0,0,0,0,-1,1770,1730,0,0
553,-706,0,0,0,0,0,0,0,0,0,-1,1777,1730,0,0
560,-706,0,0,0,0,0,0,0,0,0,-1,1784,1730,0,0
567,-706,0,0,0,0,0,0,0,0,0,-1,1791,1730,0,0
574,-706,0,0,0,0,0,0,0,0,0,-1,1798,1730,0,0
581,-706,0,0,0,0,0,0,0,0,0,-1,1805,1730,0,0
588,-706,0,0,0,0,0,0,0,0,0,-1,1812,1730,0,0
595,-706,0,0,0,0,0,0,0,0,0,-1,1819,1730,0,0
602,-706,0,0,0,0,0,0,0,0,0,-1,1826,1730,0,0
609,-706,0,0,0,0,0,0,0,0,0,-1,1833,1730,0,0
616,-706,0,0,0,0,0,0,0,0,0,-1,1840,1730,0,0
623,-706,0,0,0,0,0,0,0,0,0,-1,1847,1730,0,0
630,-706,0,0,0,0,0,0,0,0,0,-1,1854,1730,0,0
637,-706,0,0,0,0,0,0,0,0,0,-1,1861,1730,0,0
644,-706,0,0,0,0,0,0,0,0,0,-1,1868,1730,0,0
651,-706,0,0,0,0,0,0,0,0,0,-1,1875,1730,0,0
658,-706,0,0,0,0,0,0,0,0,0,-1,1882,1730,0,0
665,-706,0,0,0,0,0,0,0,0,0,-1,1889,1730,0,0
672,-706,0,0,0,0,0,0,0,0,0,-1,1896,1730,0,0
679,-706,0,0,0,0,0,0,0,0,0,-1,1903,1730,0,0
686,-706,0,0,0,0,0,0,0,0,0,-1,1910,1730,0,0
693,-706,0,0,0,0,0,0,0,0,0,-1,1917,1730,0,0
700,-706,0,0,0,0,0,0,0,0,0,-1,1924,1730,0,0
707,-706,0,0,0,0,0,0,0,0,0,-1,1931,1730,0,0
714,-706,0,0,0,0,0,0,0,0,0,-1,1938,1730,0,0
721,-706,0,0,0,0,0,0,0,0,0,-1,1945,1730,0,0
728,-706,0,0,0,0,0,0,0,0,0,-1,1952,1730,0,0
735,-706,0,0,0,0,0,0,0,0,0,-1,1959,1730,0,0
742,-706,0,0,0,0,0,0,0,0,0,-1,1966,1730,0,0
749,-706,0,0,0,0,0,0,0,0,0,-1,1973,1730,0,0
756,-706,0,0,0,0,0,0,0,0,0,-1,1980,1730,0,0
763,-706,0,0,0,0,0,0,0,0,0,-1,1987,1730,0,0
770,-706,0,0,0,0,0,0,0,0,0,-1,1994,1730,0,0
777,-706,0,0,0,0,0,0,0,0,0,-1,2001,1730,0,0
784,-706,0,0,0,0,0,0,0,0,0,-1,2008,1730,0,0
791,-706,0,0,0,0,0,0,0,0,0,-1,2015,1730,0,0
798,-706,0,0,0,0,0,0,0,0,0,-1,2022,1730,0,0
805,-706,0,0,0,0,0,0,0,0,0,-1,2029,1730,0,0
812,-706,0,0,0,0,0,0,0,0,0,-1,2036,1730,0,0
-700,-713,0,0,0,0,0,0,0,0,0,-1,524,1737,0,0
-693,-713,0,0,0,0,0,0,0,0,0,-1,531,1737,0,0
-686,-713,0,0,0,0,0,0,0,0,0,-1,538,1737,0,0
-679,-713,0,0,0,0,0,0,0,0,0,-1,545,1737,0,0
-672,-713,0,0,0,0,0,0,0,0,0,-1,552,1737,0,0
-665,-713,0,0,0,0,0,0,0,0,0,-1,559,1737,0,0
-658,-713,0,0,0,0,0,0,0,0,0,-1,566,1737,0,0
-651,-713,0,0,0,0,0,0,0,0,0,-1,573,1737,0,0
-644,-713,0,0,0,0,0,0,0,0,0,-1,580,1737,0,0
-637,-713,0,0,0,0,0,0,0,0,0,-1,587,1737,0,0
-630,-713,0,0,0,0,0,0,0,0,0,-1,594,1737,0,0
-623,-713,0,0,0,0,0,0,0,0,0,-1,601,1737,0,0
-616,-713,0,0,0,0,0,0,0,0,0,-1,608,1737,0,0
-609,-713,0,0,0,0,0,0,0,0,0,-1,615,1737,0,0
-602,-713,0,0,0,0,0,0,0,0,0,-1,622,1737,0,0
-595,-713,0,0,0,0,0,0,0,0,0,-1,629,1737,0,0
-588,-713,0,0,0,0,0,0,0,0,0,-1,636,1737,0,0
-581,-713,0,0,0,0,0,0,0,0,0,-1,643,1737,0,0
-574,-713,0,0,0,0,0,0,0,0,0,-1,650,1737,0,0
-567,-713,0,0,0,0,0,0,0,0,0,-1,657,1737,0,0
-560,-713,0,0,0,0,0,0,0,0,0,-1,664,1737,0,0
-553,-713,0,0,0,0,0,0,0,0,0,-1,671,1737,0,0
-546,-713,0,0,0,0,0,0,0,0,0,-1,678,1737,0,0
-539,-713,0,0,0,0,0,0,0,0,0,-1,685,1737,0,0
-532,-713,0,0,0,0,0,0,0,0,0,-1,692,1737,0,0
-525,-713,0,0,0,0,0,0,0,0,0,-1,699,1737,0,0
-518,-713,0,0,0,0,0,0,0,0,0,-1,706,1737,0,0
-511,-713,0,0,0,0,0,0,0,0,0,-1,713,1737,0,0
-504,-713,0,0,0,0,0,0,0,0,0,-1,720,1737,0,0
-497,-713,0,0,0,0,0,0,0,0,0,-1,727,1737,0,0
-490,-713,0,0,0,0,0,0,0,0,0,-1,734,1737,0,0
-483,-713,0,0,0,0,0,0,0,0,0,-1,741,1737,0,0
-476,-713,0,0,0,0,0,0,0,0,0,-1,748,1737,0,0
-469,-713,0,0,0,0,0,0,0,0,0,-1,755,1737,0,0
-462,-713,0,0,0,0,0,0,0,0,0,-1,762,1737,0,0
-455,-713,0,0,0,0,0,0,0,0,0,-1,769,1737,0,0
-448,-713,0,0,0,0,0,0,0,0,0,-1,776,1737,0,0
-441,-713,0,0,0,0,0,0,0,0,0,-1,783,1737,0,0
-434,-713,0,0,0,0,0,0,0,0,0,-1,790,1737,0,0
-427,-713,0,0,0,0,0,0,0,0,0,-1,797,1737,0,0
-420,-713,0,0,0,0,0,0,0,0,0,-1,804,1737,0,0
-413,-713,0,0,0,0,0,0,0,0,0,-1,811,1737,0,0
-406,-713,0,0,0,0,0,0,0,0,0,-1,818,1737,0,0
-399,-713,0,0,0,0,0,0,0,0,0,-1,825,1737,0,0
-392,-713,0,0,0,0,0,0,0,0,0,-1,832,1737,0,0
-385,-713,0,0,0,0,0,0,0,0,0,-1,839,1737,0,0
-378,-713,0,0,0,0,0,0,0,0,0,-1,846,1737,0,0
-371,-713,0,0,0,0,0,0,0,0,0,-1,853,1737,0,0
-364,-713,0,0,0,0,0,0,0,0,0,-1,860,1737,0,0
-357,-713,0,0,0,0,0,0,0,0,0,-1,867,1737,0,0
-350,-713,0,0,0,0,0,0,0,0,0,-1,874,1737,0,0
-343,-713,0,0,0,0,0,0,0,0,0,-1,881,1737,0,0
-336,-713,0,0,0,0,0,0,0,0,0,-1,888,1737,0,0
-329,-713,0,0,0,0,0,0,0,0,0,-1,895,1737,0,0
-322,-713,0,0,0,0,0,0,0,0,0,-1,902,1737,0,0
-315,-713,0,0,0,0,0,0,0,0,0,-1,909,1737,0,0
-308,-713,0,0,0,0,0,0,0,0,0,-1,916,1737,0,0
-301,-713,0,0,0,0,0,0,0,0,0,-1,923,1737,0,0
-294,-713,2.1311,-0.455688,0,0,0,0,0,0,0,-1,930,1737,2.13111,0.455639
-287,-713,2.04114,-0.385254,0,0,0,0,0,0,0,-1,937,1737,2.04115,0.38531
-280,-713,-0.633362,-0.128784,0,0,0,0,0,0,0,-1,944,1737,-0.633349,0.128729
-273,-713,-0.383362,-0.0783691,0.0134616,0.00679604,0.00589049,0.0168968,0.00336087,0.527955,0.0103282,0.0475639,951,1737,-0.383335,0.0784286
-266,-713,-0.0776367,0.0751953,0.0106848,0.00570503,0.00521829,0.0139768,0.00241303,0.562801,0.00862673,0.046863,958,1737,-0.0776102,-0.0752117
-259,-713,0.200439,0.452148,0.00846552,0.00525973,0.005206,0.0123098,0.00141544,0.636057,0.00777777,0.0443363,965,1737,0.200457,-0.452102
-252,-713,0.355347,0.303467,0.00813317,0.00553533,0.00541861,0.0124064,0.00126213,0.667761,0.00788396,0.0440043,972,1737,0.355372,-0.30345
-245,-713,0.935425,0.631226,0.0081068,0.00597402,0.00539406,0.0125389,0.00154194,0.687808,0.00789562,0.0447639,979,1737,0.935413,-0.631172
-238,-713,1.00397,-0.374146,0,0,0,0,0,0,0,-1,986,1737,1.00398,0.374139
-231,-713,0.236084,-0.425049,0.00669863,0.00671246,0.00559918,0.0123047,0.00110636,0.786015,0.00786036,0.0409552,993,1737,0.236086,0.425004
-224,-713,-0.0563354,-0.575195,0.00581751,0.00690546,0.00529556,0.0116849,0.00103806,0.83658,0.00746801,0.0393608,1000,1737,-0.0563198,0.575166
-217,-713,0.262634,-0.526123,0,0,0,0,0,0,0,-1,1007,1737,0.262659,0.526106
-210,-713,0.363586,-0.401611,0.00372774,0.00527861,0.00431953,0.00889176,0.000114589,0.874211,0.00589001,0.0427848,1014,1737,0.363578,0.401565
-203,-713,0.259094,-0.359863,0.00290143,0.00392717,0.00377297,0.00722197,-0.000393369,0.852951,0.00495098,0.0395872,1021,1737,0.259085,0.359901
-196,-713,0.0428467,-0.0412598,0.00253973,0.00236599,0.00329358,0.00574759,-0.000841867,0.772213,0.00414097,0.0399629,1028,1737,0.0428705,0.0412495
-189,-713,-0.0178223,-0.00634766,0.00198468,0.000379839,0.00222755,0.00354993,-0.00118541,0.61252,0.0028453,0.0394314,1035,1737,-0.01786,0.0063702
-182,-713,-0.074707,-0.0239258,0.00142765,-0.001319,0.00199006,0.00247225,-0.0023636,0.483376,0.00279221,0.0245688,1042,1737,-0.0746713,0.0239736
-175,-713,-0.0957031,-0.0394287,0.00103895,-0.00279054,0.00160798,0.00162457,-0.00337616,0.349268,0.00294562,0.0192732,1049,1737,-0.0957283,0.0393902
-168,-713,-0.0933838,-0.0517578,0.000429729,-0.00344079,0.000835904,0.000602541,-0.00361361,0.203864,0.002633,0.0209088,1056,1737,-0.0933396,0.0517548
-161,-713,-0.0628662,-0.0756836,0.000109547,-0.00358298,0.000256244,0.000127244,-0.00360068,0.0689549,0.00244397,0.0109025,1063,1737,-0.0629084,0.0757197
-154,-713,-0.0761719,-0.0908203,-8.91734e-05,-0.00332206,-0.000154847,-8.17736e-05,-0.00332946,-0.0477516,0.00219289,0.011265,1070,1737,-0.0762046,0.0908679
-147,-713,-0.0946045,-0.0787354,-0.000714525,-0.00260593,-0.00054801,-0.000567219,-0.00275324,-0.262595,0.00167867,0.0185925,1077,1737,-0.0945623,0.0787121
-140,-713,-0.0806885,-0.0513916,-0.00125373,-0.00166184,-0.000675548,-0.000752095,-0.00216348,-0.638727,0.00126827,0.0163601,1084,1737,-0.080642,0.0513746
-133,-713,-0.0664063,-0.0513916,-0.00124647,-0.000615491,-0.000691885,-0.000170562,-0.0016914,-0.999309,0.00107527,0.00995774,1091,1737,-0.0664624,0.0513693
-126,-713,-0.0610352,-0.0761719,-0.00115762,0.000311463,-0.00072584,0.000609585,-0.00145574,-1.18108,0.00122532,0.0153631,1098,1737,-0.0610613,0.0761961
-119,-713,-0.0463867,-0.0979004,-0.000701711,0.00113915,-0.000737908,0.00139843,-0.000960983,-1.23291,0.00136999,0.0237617,1105,1737,-0.046411,0.0978779
-112,-713,-0.0577393,-0.0435791,-0.00050846,0.00179724,-0.000808742,0.00205263,-0.000763845,-1.26493,0.00168188,0.0126262,1112,1737,-0.0576791,0.0436161
-105,-713,-0.0537109,-0.0385742,-0.000539009,0.0021737,-0.000822349,0.00240352,-0.000768831,-1.29828,0.00191089,0.00979554,1119,1737,-0.0536738,0.0386146
-98,-713,-0.0571289,-0.0533447,-0.00051142,0.00223407,-0.000852138,0.00247705,-0.0007544,-1.29303,0.00195205,0.00908714,1126,1737,-0.0571638,0.0534026
-91,-713,-0.0683594,-0.0664063,-0.000584188,0.00197913,-0.000856575,0.00223902,-0.000844077,-1.27622,0.00183975,0.00968232,1133,1737,-0.068311,0.0664002
-84,-713,-0.0690918,-0.0760498,-0.000540542,0.0015477,-0.00066187,0.0017398,-0.000732649,-1.28831,0.00146642,0.00902816,1140,1737,-0.0691526,0.0760151
-77,-713,-0.0529785,-0.0618896,-0.00016013,0.00123037,-0.000438062,0.00135687,-0.000286629,-1.28967,0.00101372,0.0117347,1147,1737,-0.0530044,0.061858
-70,-713,-0.0548096,-0.0720215,0.000114667,0.000947472,-0.00022449,0.00100413,5.80082e-05,-1.32357,0.000650946,0.0131669,1154,1737,-0.0548476,0.0720124
-63,-713,-0.0695801,-0.0758057,0.000396929,0.000360697,1.45871e-06,0.000396987,0.000360639,0.0401743,0.000253412,0.011612,1161,1737,-0.0695346,0.0758241
-56,-713,-0.0750732,-0.0646973,0.000485247,0.00012607,0.000206587,0.000579392,3.19247e-05,0.427598,0.000376072,0.0119645,1168,1737,-0.0750236,0.0646365
-49,-713,-0.0893555,-0.0671387,0.000453295,-0.000169356,0.000192181,0.000507834,-0.000223896,0.276521,0.000432937,0.014214,1175,1737,-0.0892976,0.06708
-42,-713,-0.0838623,-0.0378418,0.000320099,-0.000456076,1.68403e-05,0.000320464,-0.000456441,0.021683,0.000450831,0.0168732,1182,1737,-0.0838345,0.0378816
-35,-713,-0.0720215,-0.0765381,0.000265191,-0.000927262,-0.000317117,0.000344279,-0.00100635,-0.24441,0.000810413,0.0138025,1189,1737,-0.0720071,0.0765139
-28,-713,-0.0515137,-0.0715332,0.000200871,-0.00139913,-0.000592976,0.000396672,-0.00159493,-0.318929,0.00121725,0.0117915,1196,1737,-0.051497,0.0714744
-21,-713,-0.0668945,-0.0545654,-1.18818e-06,-0.00187685,-0.000896067,0.000358079,-0.00223612,-0.381315,0.00162332,0.00914784,1203,1737,-0.0668623,0.0545295
-14,-713,-0.0661621,-0.0797119,-6.97365e-05,-0.00216164,-0.000823521,0.000215552,-0.00244693,-0.333487,0.00170768,0.00995372,1210,1737,-0.0661597,0.0797096
-7,-713,-0.0689697,-0.0737305,0.000185792,-0.0025267,-0.000712828,0.00036171,-0.00270262,-0.241954,0.00193363,0.00867566,1217,1737,-0.0689301,0.0737377
0,-713,-0.09021,-0.0662842,0.000623445,-0.00304798,-0.000625129,0.000726966,-0.0031515,-0.16411,0.00238061,0.0139694,1224,1737,-0.0901767,0.0662255
7,-713,-0.0634766,-0.072876,0.000976273,-0.00352594,-0.000448001,0.00102042,-0.00357008,-0.0982236,0.00278326,0.0164318,1231,1737,-0.0635236,0.0729012
14,-713,-0.0476074,-0.090332,0.00131139,-0.00397373,-0.000228461,0.00132125,-0.00398359,-0.04312,0.00318873,0.0114248,1238,1737,-0.0475559,0.0903766
21,-713,-0.0576172,-0.0827637,0.00169336,-0.00427985,0.000178854,0.00169871,-0.0042852,0.0299069,0.00356077,0.00996521,1245,1737,-0.0575687,0.0828242
28,-713,-0.0643311,-0.0697021,0.00197813,-0.00452278,0.000620116,0.00203675,-0.0045814,0.0942565,0.00391401,0.010675,1252,1737,-0.0643553,0.0697085
35,-713,-0.0617676,-0.0593262,0.00224659,-0.00457475,0.00108955,0.00241639,-0.00474455,0.154603,0.00420657,0.0106983,1259,1737,-0.0617066,0.0593185
42,-713,-0.0533447,-0.0571289,0.00263215,-0.00400612,0.00151689,0.00296235,-0.00433631,0.214335,0.0042387,0.0110198,1266,1737,-0.0533592,0.0571525
49,-713,-0.0582275,-0.0814209,0.00283632,-0.0033505,0.00169497,0.00327024,-0.00378443,0.250626,0.00407662,0.0106849,1273,1737,-0.0582368,0.0814147
56,-713,-0.0656738,-0.0754395,0.00291876,-0.00276201,0.00171627,0.00339701,-0.00324026,0.271765,0.00383239,0.0105072,1280,1737,-0.0657195,0.0754437
63,-713,-0.0693359,-0.0769043,0.00290298,-0.00208637,0.00182073,0.00349675,-0.00268013,0.315239,0.0035766,0.0115439,1287,1737,-0.0693178,0.0768896
70,-713,-0.0662842,-0.0882568,0.00277605,-0.00128592,0.00182946,0.00347853,-0.00198839,0.366622,0.00319517,0.0113812,1294,1737,-0.066287,0.0882419
77,-713,-0.0621338,-0.0766602,0.00260583,-0.000713022,0.0014679,0.0031619,-0.00126909,0.362116,0.00263489,0.0114934,1301,1737,-0.0621125,0.0766345
84,-713,-0.0614014,-0.0579834,0.0023824,-0.000475474,0.0010136,0.00270539,-0.000798465,0.308484,0.00212047,0.0119881,1308,1737,-0.0613774,0.0579425
91,-713,-0.065918,-0.0529785,0.00194701,-0.000517332,0.000473428,0.00203483,-0.000605153,0.183416,0.00159696,0.0124162,1315,1737,-0.0659315,0.0529847
98,-713,-0.0759277,-0.0532227,0.00149715,-0.000204499,0.00022371,0.00152607,-0.000233418,0.128557,0.00110345,0.0123655,1322,1737,-0.0758672,0.0532607
105,-713,-0.0686035,-0.057251,0.00102822,0.000451538,0.000127294,0.00105507,0.00042469,0.207869,0.000612991,0.0132804,1329,1737,-0.0685443,0.0571977
112,-713,-0.0632324,-0.0545654,0.000654599,0.00116071,0.00017664,0.00121626,0.000599047,1.2661,0.000702234,0.0123148,1336,1737,-0.0632219,0.0545736
119,-713,-0.0684814,-0.0552979,0.00036005,0.00173708,0.000359729,0.00182539,0.00027174,1.33007,0.00113722,0.0128185,1343,1737,-0.068443,0.0552987
126,-713,-0.0866699,-0.0413818,-3.17058e-05,0.00247243,0.000505596,0.00257066,-0.000129935,1.3789,0.00175868,0.0134868,1350,1737,-0.086696,0.0413891
133,-713,-0.0969238,-0.052124,-0.000400017,0.00350978,0.000648772,0.00361462,-0.000504859,1.41058,0.00259446,0.0123186,1357,1737,-0.0969788,0.0521582
140,-713,-0.0634766,-0.0457764,-0.000716749,0.00482285,0.00076178,0.0049257,-0.000819597,1.4366,0.00358833,0.0131363,1364,1737,-0.063429,0.0457419
147,-713,-0.0562744,-0.048584,-0.000946864,0.0060939,0.000900872,0.00620734,-0.0010603,1.44553,0.00453319,0.0140699,1371,1737,-0.0563337,0.0485943
154,-713,-0.105103,-0.0489502,-0.000976075,0.00765172,0.00103506,0.00777415,-0.00109851,1.45305,0.00558507,0.0131492,1378,1737,-0.10512,0.0490092
161,-713,-0.101563,-0.043335,-0.000924682,0.00932491,0.0010387,0.00942911,-0.00102889,1.47081,0.0066556,0.00918351,1385,1737,-0.101514,0.0432855
168,-713,-0.0880127,-0.0616455,-0.000792808,0.0104512,0.000840631,0.0105137,-0.000855308,1.49658,0.00731091,0.00863703,1392,1737,-0.0879806,0.0616561
175,-713,-0.0603027,-0.0657959,-0.000617713,0.0112506,0.000637307,0.0112847,-0.000651837,1.5173,0.00774956,0.0121763,1399,1737,-0.0603636,0.0658173
182,-713,-0.0721436,-0.059082,-0.000365487,0.0116373,0.000448257,0.0116541,-0.000382205,1.53352,0.00789986,0.0116477,1406,1737,-0.0720916,0.0590509
189,-713,-0.0864258,-0.0733643,-9.93033e-05,0.0117162,0.000254359,0.0117217,-0.000104776,1.54928,0.0078496,0.0107001,1413,1737,-0.0864656,0.073415
196,-713,-0.0733643,-0.0581055,0.000103757,0.01113,-3.98483e-05,0.0111301,0.000103613,-1.56718,0.00738579,0.0107823,1420,1737,-0.0733461,0.0581199
203,-713,-0.0726318,-0.034668,0.000218088,0.0101337,-0.000392619,0.0101492,0.000202566,-1.53128,0.00669967,0.0131157,1427,1737,-0.0726473,0.0347137
210,-713,-0.0634766,-0.0419922,0.000248253,0.0088875,-0.00066051,0.00893771,0.000198046,-1.49493,0.00589356,0.0114295,1434,1737,-0.0634515,0.0420222
217,-713,-0.0584717,-0.050415,0.000187504,0.00761636,-0.000931854,0.00773146,7.2398e-05,-1.4479,0.00513035,0.0100585,1441,1737,-0.0585027,0.0504098
224,-713,-0.0628662,-0.0498047,0.00019848,0.00647307,-0.00114061,0.00667398,-2.43122e-06,-1.39644,0.00445013,0.0111719,1448,1737,-0.0629009,0.0498044
231,-713,-0.0534668,-0.0544434,0.000192051,0.00531022,-0.00128024,0.00561259,-0.000110321,-1.33886,0.00377904,0.0102635,1455,1737,-0.0534238,0.0544094
238,-713,-0.0615234,-0.0681152,5.9371e-05,0.00418602,-0.00134991,0.00458837,-0.00034298,-1.28112,0.00317941,0.00805963,1462,1737,-0.0614753,0.0680946
245,-713,-0.0697021,-0.0775146,-0.000249525,0.00319521,-0.00138754,0.00368459,-0.000738903,-1.23172,0.00273616,0.010694,1469,1737,-0.0697062,0.0774632
252,-713,-0.048584,-0.0773926,-0.000691484,0.00245455,-0.00135124,0.00295524,-0.00119217,-1.21595,0.00246557,0.0105728,1476,1737,-0.0485619,0.0774129
259,-713,-0.0412598,-0.0693359,-0.000991594,0.00194365,-0.00120886,0.00237741,-0.00142535,-1.22629,0.00221834,0.0108816,1483,1737,-0.0412394,0.0692896
266,-713,-0.0601807,-0.0471191,-0.00115944,0.001781,-0.000906756,0.00203814,-0.00141657,-1.29447,0.00200531,0.00995718,1490,1737,-0.0602262,0.0470765
273,-713,-0.0678711,-0.0408936,-0.00131837,0.00196142,-0.000648511,0.00208499,-0.00144194,-1.3825,0.00204753,0.00791461,1497,1737,-0.067818,0.040874
280,-713,-0.0804443,-0.0534668,-0.00134046,0.00245625,-0.000414922,0.00250106,-0.00138528,-1.4632,0.0022744,0.00877292,1504,1737,-0.0803898,0.0534401
287,-713,-0.0847168,-0.0666504,-0.0012071,0.0028926,-0.000366677,0.00292514,-0.00123964,-1.48229,0.0024693,0.0102844,1511,1737,-0.0847445,0.0666778
294,-713,-0.0570068,-0.0571289,-0.00101169,0.00307945,-0.000639608,0.00317711,-0.00110936,-1.41927,0.00256898,0.0143262,1518,1737,-0.0569618,0.0571229
301,-713,-0.043457,-0.0467529,-0.00032755,0.00371277,-0.000660319,0.00381795,-0.000432729,-1.41284,0.00270112,0.015387,1525,1737,-0.0434142,0.0467008
308,-713,-0.0494385,-0.0638428,0.000706504,0.00418325,-0.000976514,0.00443875,0.000451006,-1.31489,0.00282087,0.0167094,1532,1737,-0.0494567,0.0637948
315,-713,-0.0617676,-0.0545654,0.00165758,0.0047055,-0.00141613,0.0052619,0.00110118,-1.19643,0.00320457,0.0232932,1539,1737,-0.0617711,0.0546039
322,-713,-0.0638428,-0.0587158,0.00264834,0.00489049,-0.00162509,0.00574368,0.00179515,-1.08734,0.00339291,0.0292565,1546,1737,-0.0637839,0.0587107
329,-713,-0.0317383,-0.0925293,0.00323555,0.00490141,-0.00178092,0.00603455,0.00210241,-1.00413,0.00353703,0.0328257,1553,1737,-0.031734,0.0924877
336,-713,0.205444,0.0395508,0.00346815,0.00490066,-0.00186831,0.0061853,0.0021835,-0.968442,0.00362216,0.0354818,1560,1737,0.205414,-0.039566
343,-713,0.269897,0.204712,0.00394562,0.00409429,-0.0016964,0.00571799,0.00232193,-0.807293,0.00332064,0.0377469,1567,1737,0.269911,-0.204769
350,-713,0.385132,0.178711,0.00461749,0.00304072,-0.00123753,0.00529642,0.00236178,-0.501784,0.00306385,0.0401091,1574,1737,0.385141,-0.178762
357,-713,0.390015,-0.707886,0,0,0,0,0,0,0,-1,1581,1737,0.389976,0.70791
364,-713,-0.0469971,-0.995483,0,0,0,0,0,0,0,-1,1588,1737,-0.0470444,0.995507
371,-713,-0.0321045,-0.47583,0.00502972,-0.00101936,0.000799724,0.00513366,-0.0011233,0.129248,0.00385186,0.0405274,1595,1737,-0.0321234,0.475846
378,-713,-0.121216,-0.0795898,0.00524874,-0.00304982,0.00189192,0.00565971,-0.00346078,0.213901,0.00531649,0.0380779,1602,1737,-0.121274,0.0795732
385,-713,-0.341187,0.359741,0.00641913,-0.00579348,0.00266179,0.00697406,-0.00634841,0.205537,0.00769456,0.0419132,1609,1737,-0.341186,-0.359685
392,-713,-0.492188,0.379272,0.00844864,-0.00867125,0.00324916,0.00904455,-0.00926716,0.181388,0.0105725,0.0412631,1616,1737,-0.492169,-0.37927
399,-713,-0.409302,0.262695,0.0116189,-0.0120832,0.00298474,0.011989,-0.0124533,0.123361,0.0141126,0.041668,1623,1737,-0.40929,-0.262651
406,-713,-0.180298,-0.00305176,0,0,0,0,0,0,0,-1,1630,1737,-0.180349,0.00310696
413,-713,-0.0655518,0.310547,0,0,0,0,0,0,0,-1,1637,1737,-0.0655247,-0.310496
420,-713,0,0,0,0,0,0,0,0,0,-1,1644,1737,0,0
427,-713,0,0,0,0,0,0,0,0,0,-1,1651,1737,0,0
434,-713,0,0,0,0,0,0,0,0,0,-1,1658,1737,0,0
441,-713,0,0,0,0,0,0,0,0,0,-1,1665,1737,0,0
448,-713,0,0,0,0,0,0,0,0,0,-1,1672,1737,0,0
455,-713,0,0,0,0,0,0,0,0,0,-1,1679,1737,0,0
462,-713,0,0,0,0,0,0,0,0,0,-1,1686,1737,0,0
469,-713,0,0,0,0,0,0,0,0,0,-1,1693,1737,0,0
476,-713,0,0,0,0,0,0,0,0,0,-1,1700,1737,0,0
483,-713,0,0,0,0,0,0,0,0,0,-1,1707,1737,0,0
490,-713,0,0,0,0,0,0,0,0,0,-1,1714,1737,0,0
497,-713,0,0,0,0,0,0,0,0,0,-1,1721,1737,0,0
504,-713,0,0,0,0,0,0,0,0,0,-1,1728,1737,0,0
511,-713,0,0,0,0,0,0,0,0,0,-1,1735,1737,0,0
518,-713,0,0,0,0,0,0,0,0,0,-1,1742,1737,0,0
525,-713,0,0,0,0,0,0,0,0,0,-1,1749,1737,0,0
532,-713,0,0,0,0,0,0,0,0,0,-1,1756,1737,0,0
539,-713,0,0,0,0,0,0,0,0,0,-1,1763,1737,0,0
546,-713,0,0,0,0,0,0,0,0,0,-1,1770,1737,0,0
553,-713,0,0,0,0,0,0,0,0,0,-1,1777,1737,0,0
560,-713,0,0,0,0,0,0,0,0,0,-1,1784,1737,0,0
567,-713,0,0,0,0,0,0,0,0,0,-1,1791,1737,0,0
574,-713,0,0,0,0,0,0,0,0,0,-1,1798,1737,0,0
581,-713,0,0,0,0,0,0,0,0,0,-1,1805,1737,0,0
588,-713,0,0,0,0,0,0,0,0,0,-1,1812,1737,0,0
595,-713,0,0,0,0,0,0,0,0,0,-1,1819,1737,0,0
602,-713,0,0,0,0,0,0,0,0,0,-1,1826,1737,0,0
609,-713,0,0,0,0,0,0,0,0,0,-1,1833,1737,0,0
616,-713,0,0,0,0,0,0,0,0,0,-1,1840,1737,0,0
623,-713,0,0,0,0,0,0,0,0,0,-1,1847,1737,0,0
630,-713,0,0,0,0,0,0,0,0,0,-1,1854,1737,0,0
637,-713,0,0,0,0,0,0,0,0,0,-1,1861,1737,0,0
644,-713,0,0,0,0,0,0,0,0,0,-1,1868,1737,0,0
651,-713,0,0,0,0,0,0,0,0,0,-1,1875,1737,0,0
658,-713,0,0,0,0,0,0,0,0,0,-1,1882,1737,0,0
665,-713,0,0,0,0,0,0,0,0,0,-1,1889,1737,0,0
672,-713,0,0,0,0,0,0,0,0,0,-1,1896,1737,0,0
679,-713,0,0,0,0,0,0,0,0,0,-1,1903,1737,0,0
686,-713,0,0,0,0,0,0,0,0,0,-1,1910,1737,0,0
693,-713,0,0,0,0,0,0,0,0,0,-1,1917,1737,0,0
700,-713,0,0,0,0,0,0,0,0,0,-1,1924,1737,0,0
707,-713,0,0,0,0,0,0,0,0,0,-1,1931,1737,0,0
714,-713,0,0,0,0,0,0,0,0,0,-1,1938,1737,0,0
721,-713,0,0,0,0,0,0,0,0,0,-1,1945,1737,0,0
728,-713,0,0,0,0,0,0,0,0,0,-1,1952,1737,0,0
735,-713,0,0,0,0,0,0,0,0,0,-1,1959,1737,0,0
742,-713,0,0,0,0,0,0,0,0,0,-1,1966,1737,0,0
749,-713,0,0,0,0,0,0,0,0,0,-1,1973,1737,0,0
756,-713,0,0,0,0,0,0,0,0,0,-1,1980,1737,0,0
763,-713,0,0,0,0,0,0,0,0,0,-1,1987,1737,0,0
770,-713,0,0,0,0,0,0,0,0,0,-1,1994,1737,0,0
777,-713,0,0,0,0,0,0,0,0,0,-1,2001,1737,0,0
784,-713,0,0,0,0,0,0,0,0,0,-1,2008,1737,0,0
791,-713,0,0,0,0,0,0,0,0,0,-1,2015,1737,0,0
798,-713,0,0,0,0,0,0,0,0,0,-1,2022,1737,0,0
805,-713,0,0,0,0,0,0,0,0,0,-1,2029,1737,0,0
812,-713,0,0,0,0,0,0,0,0,0,-1,2036,1737,0,0
-700,-720,0,0,0,0,0,0,0,0,0,-1,524,1744,0,0
-693,-720,0,0,0,0,0,0,0,0,0,-1,531,1744,0,0
-686,-720,0,0,0,0,0,0,0,0,0,-1,538,1744,0,0
-679,-720,0,0,0,0,0,0,0,0,0,-1,545,1744,0,0
-672,-720,0,0,0,0,0,0,0,0,0,-1,552,1744,0,0
-665,-720,0,0,0,0,0,0,0,0,0,-1,559,1744,0,0
-658,-720,0,0,0,0,0,0,0,0,0,-1,566,1744,0,0
-651,-720,0,0,0,0,0,0,0,0,0,-1,573,1744,0,0
-644,-720,0,0,0,0,0,0,0,0,0,-1,580,1744,0,0
-637,-720,0,0,0,0,0,0,0,0,0,-1,587,1744,0,0
-630,-720,0,0,0,0,0,0,0,0,0,-1,594,1744,0,0
-623,-720,0,0,0,0,0,0,0,0,0,-1,601,1744,0,0
-616,-720,0,0,0,0,0,0,0,0,0,-1,608,1744,0,0
-609,-720,0,0,0,0,0,0,0,0,0,-1,615,1744,0,0
-602,-720,0,0,0,0,0,0,0,0,0,-1,622,1744,0,0
-595,-720,0,0,0,0,0,0,0,0,0,-1,629,1744,0,0
-588,-720,0,0,0,0,0,0,0,0,0,-1,636,1744,0,0
-581,-720,0,0,0,0,0,0,0,0,0,-1,643,1744,0,0
-574,-720,0,0,0,0,0,0,0,0,0,-1,650,1744,0,0
-567,-720,0,0,0,0,0,0,0,0,0,-1,657,1744,0,0
-560,-720,0,0,0,0,0,0,0,0,0,-1,664,1744,0,0
-553,-720,0,0,0,0,0,0,0,0,0,-1,671,1744,0,0
-546,-720,0,0,0,0,0,0,0,0,0,-1,678,1744,0,0
-539,-720,0,0,0,0,0,0,0,0,0,-1,685,1744,0,0
-532,-720,0,0,0,0,0,0,0,0,0,-1,692,1744,0,0
-525,-720,0,0,0,0,0,0,0,0,0,-1,699,1744,0,0
-518,-720,0,0,0,0,0,0,0,0,0,-1,706,1744,0,0
-511,-720,0,0,0,0,0,0,0,0,0,-1,713,1744,0,0
-504,-720,0,0,0,0,0,0,0,0,0,-1,720,1744,0,0
-497,-720,0,0,0,0,0,0,0,0,0,-1,727,1744,0,0
-490,-720,0,0,0,0,0,0,0,0,0,-1,734,1744,0,0
-483,-720,0,0,0,0,0,0,0,0,0,-1,741,1744,0,0
-476,-720,0,0,0,0,0,0,0,0,0,-1,748,1744,0,0
-469,-720,0,0,0,0,0,0,0,0,0,-1,755,1744,0,0
-462,-720,0,0,0,0,0,0,0,0,0,-1,762,1744,0,0
-455,-720,0,0,0,0,0,0,0,0,0,-1,769,1744,0,0
-448,-720,0,0,0,0,0,0,0,0,0,-1,776,1744,0,0
-441,-720,0,0,0,0,0,0,0,0,0,-1,783,1744,0,0
-434,-720,0,0,0,0,0,0,0,0,0,-1,790,1744,0,0
-427,-720,0,0,0,0,0,0,0,0,0,-1,797,1744,0,0
-420,-720,0,0,0,0,0,0,0,0,0,-1,804,1744,0,0
-413,-720,0,0,0,0,0,0,0,0,0,-1,811,1744,0,0
-406,-720,0,0,0,0,0,0,0,0,0,-1,818,1744,0,0
-399,-720,0,0,0,0,0,0,0,0,0,-1,825,1744,0,0
-392,-720,0,0,0,0,0,0,0,0,0,-1,832,1744,0,0
-385,-720,0,0,0,0,0,0,0,0,0,-1,839,1744,0,0
-378,-720,0,0,0,0,0,0,0,0,0,-1,846,1744,0,0
-371,-720,0,0,0,0,0,0,0,0,0,-1,853,1744,0,0
-364,-720,0,0,0,0,0,0,0,0,0,-1,860,1744,0,0
-357,-720,0,0,0,0,0,0,0,0,0,-1,867,1744,0,0
-350,-720,0,0,0,0,0,0,0,0,0,-1,874,1744,0,0
-343,-720,0,0,0,0,0,0,0,0,0,-1,881,1744,0,0
-336,-720,0,0,0,0,0,0,0,0,0,-1,888,1744,0,0
-329,-720,0,0,0,0,0,0,0,0,0,-1,895,1744,0,0
-322,-720,0,0,0,0,0,0,0,0,0,-1,902,1744,0,0
-315,-720,0,0,0,0,0,0,0,0,0,-1,909,1744,0,0
-308,-720,0,0,0,0,0,0,0,0,0,-1,916,1744,0,0
-301,-720,0,0,0,0,0,0,0,0,0,-1,923,1744,0,0
-294,-720,0,0,0,0,0,0,0,0,0,-1,930,1744,0,0
-287,-720,0,0,0,0,0,0,0,0,0,-1,937,1744,0,0
-280,-720,-0.325134,0.00427246,0,0,0,0,0,0,0,-1,944,1744,-0.325133,-0.0042231
-273,-720,-0.251282,0.0941162,0.0166276,0.00845079,0.00987867,0.0232305,0.00184793,0.589198,0.0149092,0.0444611,951,1744,-0.251254,-0.0941633
-266,-720,-0.292847,0.10022,0.0133616,0.00722819,0.008986,0.0197898,0.000800014,0.620957,0.0129348,0.0471099,958,1744,-0.29282,-0.100242
-259,-720,0.151062,0.653809,0.0106924,0.00685694,0.0086936,0.0176773,-0.000127919,0.67684,0.0118277,0.0473894,965,1744,0.151069,-0.653845
-252,-720,0.38147,0.67981,0.0109155,0.00728965,0.00894867,0.018233,-2.78857e-05,0.685455,0.0121647,0.0425995,972,1744,0.381449,-0.679834
-245,-720,0.411438,0.39502,0.0114256,0.00770183,0.00878023,0.0185392,0.000588241,0.680919,0.0121681,0.044111,979,1744,0.411457,-0.395069
-238,-720,0.441101,0.203979,0,0,0,0,0,0,0,-1,986,1744,0.441131,-0.203968
-231,-720,0.0895386,0.239502,0,0,0,0,0,0,0,-1,993,1744,0.0895334,-0.239534
-224,-720,-0.26886,-0.789551,0.00976634,0.00841284,0.00833616,0.0174532,0.000726002,0.744896,0.0114012,0.0436156,1000,1744,-0.268844,0.789565
-217,-720,-0.16217,-0.630127,0,0,0,0,0,0,0,-1,1007,1744,-0.162165,0.630092
-210,-720,0.708557,0.026123,0,0,0,0,0,0,0,-1,1014,1744,0.708533,-0.0261479
-203,-720,0.226074,0.394165,0.00643645,0.00415152,0.00627019,0.0116674,-0.00107944,0.695284,0.00816191,0.0422579,1021,1744,0.226087,-0.394174
-196,-720,0.0576172,-0.182983,0.00589071,0.00212365,0.00564017,0.00995354,-0.00193918,0.624246,0.00736765,0.0434548,1028,1744,0.0575956,0.183006
-189,-720,0.419434,-0.147095,0.00508083,-0.000273321,0.00430549,0.00747366,-0.00266615,0.507257,0.00606959,0.0454504,1035,1744,0.419409,0.147131
-182,-720,-0.0712891,-0.00341797,0.00407062,-0.00237173,0.00391016,0.00591554,-0.00421665,0.440856,0.00587717,0.0394966,1042,1744,-0.0713345,0.00335994
-175,-720,0.0500488,-0.0765381,0.00322061,-0.00415553,0.00332989,0.00450145,-0.00543636,0.367202,0.00574605,0.0374596,1049,1744,0.050099,0.0765011
-168,-720,0.0291748,-0.0983887,0.00210017,-0.00470744,0.00230549,0.00280747,-0.00541474,0.297673,0.004826,0.0329643,1056,1744,0.029209,0.0983324
-161,-720,-0.0098877,-0.108398,0.00135075,-0.00455317,0.00140438,0.00166779,-0.00487021,0.222028,0.00392275,0.0211144,1063,1744,-0.00990171,0.108401
-154,-720,-0.0379639,-0.114014,0.000667901,-0.00385027,0.00072683,0.000781946,-0.00396432,0.155639,0.00293842,0.0159469,1070,1744,-0.0379342,0.11396
-147,-720,-0.0714111,-0.083252,-0.000726971,-0.0025426,4.21201e-05,-0.000725994,-0.00254358,0.023182,0.00151294,0.0169095,1077,1744,-0.0713905,0.0833038
-140,-720,-0.0828857,-0.0427246,-0.00193339,-0.000835952,-0.000234641,-0.000787889,-0.00198145,-1.36875,0.00115196,0.0135248,1084,1744,-0.0828777,0.0426923
-133,-720,-0.0811768,-0.053833,-0.00230105,0.000949859,-0.000334205,0.000983861,-0.00233505,-1.46941,0.0019684,0.010629,1091,1744,-0.0812284,0.0538554
-126,-720,-0.0670166,-0.0616455,-0.00251399,0.00248505,-0.000418687,0.00251987,-0.00254881,-1.48781,0.00292642,0.0112921,1098,1744,-0.0669734,0.0615985
-119,-720,-0.0688477,-0.0688477,-0.00220972,0.00374143,-0.000544457,0.00379083,-0.00225912,-1.48031,0.00353006,0.0133671,1105,1744,-0.0688113,0.0688323
-112,-720,-0.0664063,-0.0718994,-0.00219804,0.00469207,-0.000641625,0.00475131,-0.00225729,-1.47873,0.00413093,0.0126489,1112,1744,-0.0664303,0.0718576
-105,-720,-0.055542,-0.0697021,-0.00235487,0.00517004,-0.000662438,0.00522791,-0.00241274,-1.48366,0.00451004,0.0121843,1119,1744,-0.0555978,0.0696714
-98,-720,-0.0622559,-0.0673828,-0.00237023,0.00512551,-0.000733752,0.00519666,-0.00244139,-1.47413,0.00450445,0.00979531,1126,1744,-0.0622272,0.0673757
-91,-720,-0.0748291,-0.0673828,-0.00243959,0.00456531,-0.000784749,0.00465214,-0.00252643,-1.46059,0.00420469,0.00938743,1133,1744,-0.07486,0.0674132
-84,-720,-0.0831299,-0.0643311,-0.00227935,0.00361933,-0.000573789,0.00367463,-0.00233465,-1.47472,0.00349809,0.00953663,1140,1744,-0.0831442,0.0643431
-77,-720,-0.0759277,-0.0679932,-0.00164568,0.00275655,-0.00038262,0.00278956,-0.00167869,-1.48474,0.00260618,0.0113833,1147,1744,-0.0759276,0.0679846
-70,-720,-0.0592041,-0.0698242,-0.00112249,0.00192901,-0.000214444,0.00194401,-0.00113749,-1.50098,0.0017993,0.0116228,1154,1744,-0.0591942,0.0698057
-63,-720,-0.0806885,-0.0551758,-0.000542434,0.000753876,-5.62232e-05,0.00075631,-0.000544868,-1.52753,0.000754534,0.0116989,1161,1744,-0.0806904,0.055121
-56,-720,-0.0709229,-0.0410156,-0.000205303,0.000148996,0.000156422,0.000208172,-0.000264479,1.20913,0.00027353,0.0128172,1168,1744,-0.0708843,0.0409986
-49,-720,-0.098877,-0.069458,2.50267e-05,-0.000248714,0.000197227,0.000128223,-0.000351911,0.482063,0.000287058,0.0172101,1175,1744,-0.0988614,0.0694175
-42,-720,-0.111328,-0.0646973,0.000160374,-0.000406286,0.000142763,0.000194309,-0.000440221,0.233372,0.000375405,0.0188067,1182,1744,-0.111387,0.0646517
-35,-720,-0.05896,-0.0548096,0.000288311,-0.000631993,1.22825e-05,0.000288475,-0.000632156,0.013343,0.000543732,0.0161565,1189,1744,-0.0590158,0.0548444
-28,-720,-0.0639648,-0.0618896,0.000358014,-0.000722822,-0.0001257,0.00037244,-0.000737248,-0.114268,0.000652117,0.0100103,1196,1744,-0.0639667,0.0619173
-21,-720,-0.0767822,-0.0603027,0.000217522,-0.000801544,-0.000268064,0.000283734,-0.000867756,-0.242154,0.00069273,0.00914057,1203,1744,-0.0767387,0.0603416
-14,-720,-0.0748291,-0.0761719,9.65277e-05,-0.000714435,-4.27584e-05,9.87759e-05,-0.000716683,-0.0525313,0.000513888,0.0105285,1210,1744,-0.0748624,0.0761439
-7,-720,-0.0797119,-0.06604,0.000341417,-0.000754785,0.000120454,0.000354496,-0.000767864,0.108164,0.000662483,0.0106646,1217,1744,-0.0797428,0.0660978
0,-720,-0.0946045,-0.0543213,0.000721262,-0.00101158,0.000180799,0.000739926,-0.00103025,0.102861,0.00102658,0.0118205,1224,1744,-0.0945776,0.0543494
7,-720,-0.0811768,-0.071167,0.000896452,-0.00125995,0.000234289,0.000921613,-0.00128511,0.106985,0.0012798,0.013991,1231,1744,-0.081192,0.0711453
14,-720,-0.0526123,-0.0894775,0.00102773,-0.00161497,0.00028589,0.0010583,-0.00164554,0.106539,0.00157329,0.0129371,1238,1744,-0.0526047,0.0894496
21,-720,-0.0638428,-0.072998,0.0011728,-0.00196432,0.000427531,0.00123002,-0.00202154,0.13305,0.00189574,0.0103651,1245,1744,-0.0638323,0.0730007
28,-720,-0.0665283,-0.057251,0.00119212,-0.00239815,0.000534785,0.00127008,-0.00247612,0.144768,0.00219991,0.0104169,1252,1744,-0.0665293,0.0572178
35,-720,-0.0539551,-0.0599365,0.00120904,-0.00259391,0.000669585,0.00132349,-0.00270836,0.16929,0.00237312,0.0106311,1259,1744,-0.0539634,0.0599563
42,-720,-0.064209,-0.0637207,0.0012274,-0.00231957,0.000836954,0.00141497,-0.00250714,0.220469,0.00229351,0.0110711,1266,1744,-0.0641963,0.0636643
49,-720,-0.0657959,-0.0704346,0.00113664,-0.00205589,0.000884583,0.00136535,-0.0022846,0.253015,0.00212946,0.0102018,1273,1744,-0.0657793,0.0704716
56,-720,-0.067627,-0.0577393,0.000989371,-0.00175731,0.000835785,0.0012237,-0.00199163,0.273352,0.00187394,0.0085832,1280,1744,-0.0676871,0.0577842
63,-720,-0.0662842,-0.06604,0.00093997,-0.00126912,0.00105605,0.00136358,-0.00169273,0.381477,0.00176797,0.0105954,1287,1744,-0.0662349,0.0660571
70,-720,-0.0576172,-0.0712891,0.000931076,-0.000588697,0.00126748,0.001649,-0.00130662,0.515362,0.00171024,0.011075,1294,1744,-0.0576469,0.0712521
77,-720,-0.0606689,-0.0629883,0.00101706,-5.72454e-05,0.00132444,0.00190913,-0.000949316,0.592749,0.00168105,0.0127849,1301,1744,-0.0606646,0.0630091
84,-720,-0.0491943,-0.0627441,0.00109147,0.000326128,0.0013185,0.00208171,-0.00066411,0.644162,0.00165422,0.0137038,1308,1744,-0.0492419,0.0627946
91,-720,-0.0545654,-0.0517578,0.00110955,0.000451587,0.001282,0.00210411,-0.000542973,0.659801,0.00161446,0.0129001,1315,1744,-0.0545856,0.0517031
98,-720,-0.0611572,-0.0638428,0.00109917,0.000745707,0.00134124,0.00227527,-0.000430392,0.719892,0.0016788,0.012156,1322,1744,-0.0611237,0.0638171
105,-720,-0.0684814,-0.0725098,0.00106218,0.00143008,0.00146283,0.00272048,-0.000228216,0.847945,0.00189431,0.0116291,1329,1744,-0.0684312,0.0724884
112,-720,-0.083252,-0.0656738,0.00110134,0.00209949,0.00163222,0.00330723,-0.000106397,0.933767,0.00224113,0.010632,1336,1744,-0.0832691,0.0656755
119,-720,-0.0717773,-0.0523682,0.00115922,0.00265292,0.00178592,0.00384187,-2.97227e-05,0.983441,0.00257121,0.0104293,1343,1744,-0.0717796,0.0524
126,-720,-0.0673828,-0.0581055,0.00111109,0.00327992,0.00184829,0.00433844,5.25764e-05,1.05069,0.00287493,0.0105837,1350,1744,-0.0674151,0.0581262
133,-720,-0.090332,-0.0708008,0.000992988,0.00407644,0.0018651,0.00495453,0.000114899,1.13078,0.00326539,0.0123823,1357,1744,-0.0902791,0.0707496
140,-720,-0.0622559,-0.0438232,0.000783977,0.00490764,0.0018285,0.00560163,8.99872e-05,1.20805,0.00370479,0.0187886,1364,1744,-0.0623121,0.0438084
147,-720,-0.0731201,-0.0472412,0.000665648,0.00558498,0.00179357,0.00616947,8.11629e-05,1.25577,0.00408619,0.0189886,1371,1744,-0.0731644,0.0472342
154,-720,-0.0919189,-0.0629883,0.000639658,0.00652146,0.00177816,0.00701724,0.000143883,1.29889,0.00463094,0.0116159,1378,1744,-0.0919797,0.0630426
161,-720,-0.0825195,-0.0578613,0.000582546,0.00752677,0.00171408,0.00792682,0.000182496,1.34151,0.00522477,0.0081855,1385,1744,-0.0825116,0.0578768
168,-720,-0.0767822,-0.0656738,0.000447646,0.00805677,0.00136471,0.00829413,0.000210287,1.39859,0.00546067,0.00866331,1392,1744,-0.0768372,0.0656329
175,-720,-0.0739746,-0.0817871,0.000378969,0.00827906,0.00106386,0.00841982,0.000238214,1.43925,0.00553551,0.0144959,1399,1744,-0.0740341,0.0817739
182,-720,-0.0646973,-0.0627441,0.000407092,0.00825482,0.000806559,0.00833686,0.000325055,1.46943,0.00545278,0.0144516,1406,1744,-0.0646836,0.0627417
189,-720,-0.0806885,-0.0603027,0.000577253,0.00801038,0.000574156,0.00805446,0.000533165,1.49416,0.00520104,0.011737,1413,1744,-0.0807038,0.0603608
196,-720,-0.0753174,-0.0737305,0.00067471,0.00732869,0.00023623,0.00733707,0.000666334,1.53535,0.00468509,0.0112268,1420,1744,-0.0752609,0.0737455
203,-720,-0.0842285,-0.0755615,0.00066057,0.00642917,-0.000142215,0.00643268,0.000657066,-1.54616,0.00408707,0.0127194,1427,1744,-0.0842705,0.0756197
210,-720,-0.0854492,-0.0511475,0.000544963,0.00524128,-0.00051817,0.00529777,0.00048847,-1.4622,0.00338081,0.0115042,1434,1744,-0.0854638,0.0511041
217,-720,-0.0936279,-0.0582275,0.000357186,0.0041808,-0.000893148,0.00437913,0.000158846,-1.35227,0.00286794,0.0107989,1441,1744,-0.0936658,0.0582526
224,-720,-0.0743408,-0.0693359,0.000279905,0.00331256,-0.00120031,0.00373014,-0.000137674,-1.236,0.0025339,0.00870114,1448,1744,-0.074396,0.0692822
231,-720,-0.0684814,-0.0795898,0.000169855,0.00249003,-0.00138967,0.00314019,-0.000480306,-1.1332,0.00227056,0.00891252,1455,1744,-0.0685371,0.0796197
238,-720,-0.0753174,-0.0852051,-7.37789e-05,0.00174137,-0.00150111,0.00258794,-0.000920345,-1.0573,0.0021004,0.00821772,1462,1744,-0.0753595,0.0851807
245,-720,-0.0679932,-0.0803223,-0.000483893,0.00111716,-0.00159624,0.00210236,-0.00146909,-1.01782,0.00207276,0.0112069,1469,1744,-0.0680292,0.0803776
252,-720,-0.0565186,-0.0733643,-0.00101251,0.000732912,-0.00159717,0.00168024,-0.00195985,-1.03544,0.00210367,0.0108056,1476,1744,-0.0565247,0.0733451
259,-720,-0.0517578,-0.0670166,-0.00137992,0.0004819,-0.00144648,0.00127114,-0.00216916,-1.07132,0.00200869,0.00912117,1483,1744,-0.0517005,0.0669682
266,-720,-0.0681152,-0.0639648,-0.00162574,0.000504922,-0.00109102,0.000964474,-0.00208529,-1.17214,0.00179998,0.00724282,1490,1744,-0.0680762,0.0639873
273,-720,-0.0717773,-0.0629883,-0.0018319,0.000839531,-0.000721807,0.00102209,-0.00201445,-1.32308,0.00178408,0.00971481,1497,1744,-0.071813,0.0629751
280,-720,-0.0657959,-0.0657959,-0.0018834,0.00163676,-0.000381656,0.00167767,-0.0019243,-1.46403,0.00208122,0.0109043,1504,1744,-0.0657614,0.0657558
287,-720,-0.0601807,-0.0789795,-0.00175952,0.0022857,-0.000320173,0.00231089,-0.0017847,-1.4923,0.00237109,0.0177818,1511,1744,-0.0601874,0.0789688
294,-720,-0.0384521,-0.0751953,-0.00162434,0.00262673,-0.000681219,0.00273323,-0.00173083,-1.41572,0.0025989,0.0257538,1518,1744,-0.0384162,0.0751629
301,-720,-0.103271,-0.114014,-0.000836527,0.00346059,-0.000715945,0.00357674,-0.000952671,-1.40997,0.00275746,0.0299945,1525,1744,-0.103268,0.113968
308,-720,-0.189209,-0.283813,0.000491351,0.00402265,-0.00105449,0.00431356,0.000200433,-1.30161,0.00281128,0.0302696,1532,1744,-0.189163,0.283817
315,-720,-0.294922,-0.360474,0.00162199,0.00466455,-0.00152502,0.00529733,0.000989207,-1.17748,0.00325236,0.0353019,1539,1744,-0.294911,0.36047
322,-720,-0.279663,-0.276245,0.00281663,0.00495601,-0.00178768,0.0059696,0.00180304,-1.05501,0.00353545,0.038817,1546,1744,-0.279643,0.276258
329,-720,0.0985107,-0.370728,0.00361467,0.00499082,-0.0019669,0.00638652,0.00221896,-0.953659,0.00374403,0.0417302,1553,1744,0.0984587,0.370671
336,-720,0.488892,0.0621338,0.0041159,0.00507511,-0.00209571,0.00674539,0.00244562,-0.897888,0.00394319,0.0441541,1560,1744,0.488871,-0.0621574
343,-720,0.776367,0.545654,0.00497182,0.00415908,-0.00187182,0.00648088,0.00265003,-0.678508,0.00376238,0.0452857,1567,1744,0.776356,-0.545637
350,-720,0.308594,0.29541,0.00604611,0.0028048,-0.00132758,0.00652045,0.00233046,-0.343159,0.00381527,0.0419255,1574,1744,0.308624,-0.295445
357,-720,-0.401001,-0.479614,0.0066719,0.00144861,-0.000565924,0.00673252,0.00138799,-0.106697,0.00410466,0.0409261,1581,1744,-0.401003,0.479602
364,-720,-0.357788,-0.260376,0.00689388,-0.000195573,0.000257636,0.00690323,-0.000204924,0.036277,0.00467196,0.0407151,1588,1744,-0.357736,0.260331
371,-720,-0.31543,-0.187134,0.00717174,-0.00251178,0.00126719,0.00733482,-0.00267486,0.12799,0.00598421,0.041908,1595,1744,-0.315479,0.187193
378,-720,-0.337402,-0.0477295,0.00732855,-0.00532546,0.00278081,0.00791269,-0.00590959,0.20705,0.00800818,0.0406219,1602,1744,-0.337429,0.0477894
385,-720,-0.453857,0.329102,0.00861458,-0.00900349,0.00386712,0.00942603,-0.00981494,0.206832,0.0111095,0.040604,1609,1744,-0.453891,-0.329152
392,-720,-0.748047,0.618774,0.0109442,-0.0129243,0.00485747,0.0118949,-0.013875,0.193272,0.0148929,0.0389943,1616,1744,-0.748087,-0.61879
399,-720,-0.420288,0.550049,0.014683,-0.0176899,0.00469608,0.0153504,-0.0183573,0.141186,0.019487,0.0389172,1623,1744,-0.42028,-0.550024
406,-720,0,0,0,0,0,0,0,0,0,-1,1630,1744,0,0
413,-720,0,0,0,0,0,0,0,0,0,-1,1637,1744,0,0
420,-720,0,0,0,0,0,0,0,0,0,-1,1644,1744,0,0
427,-720,0,0,0,0,0,0,0,0,0,-1,1651,1744,0,0
434,-720,0,0,0,0,0,0,0,0,0,-1,1658,1744,0,0
441,-720,0,0,0,0,0,0,0,0,0,-1,1665,1744,0,0
448,-720,0,0,0,0,0,0,0,0,0,-1,1672,1744,0,0
455,-720,0,0,0,0,0,0,0,0,0,-1,1679,1744,0,0
462,-720,0,0,0,0,0,0,0,0,0,-1,1686,1744,0,0
469,-720,0,0,0,0,0,0,0,0,0,-1,1693,1744,0,0
476,-720,0,0,0,0,0,0,0,0,0,-1,1700,1744,0,0
483,-720,0,0,0,0,0,0,0,0,0,-1,1707,1744,0,0
490,-720,0,0,0,0,0,0,0,0,0,-1,1714,1744,0,0
497,-720,0,0,0,0,0,0,0,0,0,-1,1721,1744,0,0
504,-720,0,0,0,0,0,0,0,0,0,-1,1728,1744,0,0
511,-720,0,0,0,0,0,0,0,0,0,-1,1735,1744,0,0
518,-720,0,0,0,0,0,0,0,0,0,-1,1742,1744,0,0
525,-720,0,0,0,0,0,0,0,0,0,-1,1749,1744,0,0
532,-720,0,0,0,0,0,0,0,0,0,-1,1756,1744,0,0
539,-720,0,0,0,0,0,0,0,0,0,-1,1763,1744,0,0
546,-720,0,0,0,0,0,0,0,0,0,-1,1770,1744,0,0
553,-720,0,0,0,0,0,0,0,0,0,-1,1777,1744,0,0
560,-720,0,0,0,0,0,0,0,0,0,-1,1784,1744,0,0
567,-720,0,0,0,0,0,0,0,0,0,-1,1791,1744,0,0
574,-720,0,0,0,0,0,0,0,0,0,-1,1798,1744,0,0
581,-720,0,0,0,0,0,0,0,0,0,-1,1805,1744,0,0
588,-720,0,0,0,0,0,0,0,0,0,-1,1812,1744,0,0
595,-720,0,0,0,0,0,0,0,0,0,-1,1819,1744,0,0
602,-720,0,0,0,0,0,0,0,0,0,-1,1826,1744,0,0
609,-720,0,0,0,0,0,0,0,0,0,-1,1833,1744,0,0
616,-720,0,0,0,0,0,0,0,0,0,-1,1840,1744,0,0
623,-720,0,0,0,0,0,0,0,0,0,-1,1847,1744,0,0
630,-720,0,0,0,0,0,0,0,0,0,-1,1854,1744,0,0
637,-720,0,0,0,0,0,0,0,0,0,-1,1861,1744,0,0
644,-720,0,0,0,0,0,0,0,0,0,-1,1868,1744,0,0
651,-720,0,0,0,0,0,0,0,0,0,-1,1875,1744,0,0
658,-720,0,0,0,0,0,0,0,0,0,-1,1882,1744,0,0
665,-720,0,0,0,0,0,0,0,0,0,-1,1889,1744,0,0
672,-720,0,0,0,0,0,0,0,0,0,-1,1896,1744,0,0
679,-720,0,0,0,0,0,0,0,0,0,-1,1903,1744,0,0
686,-720,0,0,0,0,0,0,0,0,0,-1,1910,1744,0,0
693,-720,0,0,0,0,0,0,0,0,0,-1,1917,1744,0,0
700,-720,0,0,0,0,0,0,0,0,0,-1,1924,1744,0,0
707,-720,0,0,0,0,0,0,0,0,0,-1,1931,1744,0,0
714,-720,0,0,0,0,0,0,0,0,0,-1,1938,1744,0,0
721,-720,0,0,0,0,0,0,0,0,0,-1,1945,1744,0,0
728,-720,0,0,0,0,0,0,0,0,0,-1,1952,1744,0,0
735,-720,0,0,0,0,0,0,0,0,0,-1,1959,1744,0,0
742,-720,0,0,0,0,0,0,0,0,0,-1,1966,1744,0,0
749,-720,0,0,0,0,0,0,0,0,0,-1,1973,1744,0,0
756,-720,0,0,0,0,0,0,0,0,0,-1,1980,1744,0,0
763,-720,0,0,0,0,0,0,0,0,0,-1,1987,1744,0,0
770,-720,0,0,0,0,0,0,0,0,0,-1,1994,1744,0,0
777,-720,0,0,0,0,0,0,0,0,0,-1,2001,1744,0,0
784,-720,0,0,0,0,0,0,0,0,0,-1,2008,1744,0,0
791,-720,0,0,0,0,0,0,0,0,0,-1,2015,1744,0,0
798,-720,0,0,0,0,0,0,0,0,0,-1,2022,1744,0,0
805,-720,0,0,0,0,0,0,0,0,0,-1,2029,1744,0,0
812,-720,0,0,0,0,0,0,0,0,0,-1,2036,1744,0,0
-700,-727,0,0,0,0,0,0,0,0,0,-1,524,1751,0,0
-693,-727,0,0,0,0,0,0,0,0,0,-1,531,1751,0,0
-686,-727,0,0,0,0,0,0,0,0,0,-1,538,1751,0,0
-679,-727,0,0,0,0,0,0,0,0,0,-1,545,1751,0,0
-672,-727,0,0,0,0,0,0,0,0,0,-1,552,1751,0,0
-665,-727,0,0,0,0,0,0,0,0,0,-1,559,1751,0,0
-658,-727,0,0,0,0,0,0,0,0,0,-1,566,1751,0,0
-651,-727,0,0,0,0,0,0,0,0,0,-1,573,1751,0,0
-644,-727,0,0,0,0,0,0,0,0,0,-1,580,1751,0,0
-637,-727,0,0,0,0,0,0,0,0,0,-1,587,1751,0,0
-630,-727,0,0,0,0,0,0,0,0,0,-1,594,1751,0,0
-623,-727,0,0,0,0,0,0,0,0,0,-1,601,1751,0,0
-616,-727,0,0,0,0,0,0,0,0,0,-1,608,1751,0,0
-609,-727,0,0,0,0,0,0,0,0,0,-1,615,1751,0,0
-602,-727,0,0,0,0,0,0,0,0,0,-1,622,1751,0,0
-595,-727,0,0,0,0,0,0,0,0,0,-1,629,1751,0,0
-588,-727,0,0,0,0,0,0,0,0,0,-1,636,1751,0,0
-581,-727,0,0,0,0,0,0,0,0,0,-1,643,1751,0,0
-574,-727,0,0,0,0,0,0,0,0,0,-1,650,1751,0,0
-567,-727,0,0,0,0,0,0,0,0,0,-1,657,1751,0,0
-560,-727,0,0,0,0,0,0,0,0,0,-1,664,1751,0,0
-553,-727,0,0,0,0,0,0,0,0,0,-1,671,1751,0,0
-546,-727,0,0,0,0,0,0,0,0,0,-1,678,1751,0,0
-539,-727,0,0,0,0,0,0,0,0,0,-1,685,1751,0,0
-532,-727,0,0,0,0,0,0,0,0,0,-1,692,1751,0,0
-525,-727,0,0,0,0,0,0,0,0,0,-1,699,1751,0,0
-518,-727,0,0,0,0,0,0,0,0,0,-1,706,1751,0,0
-511,-727,0,0,0,0,0,0,0,0,0,-1,713,1751,0,0
-504,-727,0,0,0,0,0,0,0,0,0,-1,720,1751,0,0
-497,-727,0,0,0,0,0,0,0,0,0,-1,727,1751,0,0
-490,-727,0,0,0,0,0,0,0,0,0,-1,734,1751,0,0
-483,-727,0,0,0,0,0,0,0,0,0,-1,741,1751,0,0
-476,-727,0,0,0,0,0,0,0,0,0,-1,748,1751,0,0
-469,-727,0,0,0,0,0,0,0,0,0,-1,755,1751,0,0
-462,-727,0,0,0,0,0,0,0,0,0,-1,762,1751,0,0
-455,-727,0,0,0,0,0,0,0,0,0,-1,769,1751,0,0
-448,-727,0,0,0,0,0,0,0,0,0,-1,776,1751,0,0
-441,-727,0,0,0,0,0,0,0,0,0,-1,783,1751,0,0
-434,-727,0,0,0,0,0,0,0,0,0,-1,790,1751,0,0
-427,-727,0,0,0,0,0,0,0,0,0,-1,797,1751,0,0
-420,-727,0,0,0,0,0,0,0,0,0,-1,804,1751,0,0
-413,-727,0,0,0,0,0,0,0,0,0,-1,811,1751,0,0
-406,-727,0,0,0,0,0,0,0,0,0,-1,818,1751,0,0
-399,-727,0,0,0,0,0,0,0,0,0,-1,825,1751,0,0
-392,-727,0,0,0,0,0,0,0,0,0,-1,832,1751,0,0
-385,-727,0,0,0,0,0,0,0,0,0,-1,839,1751,0,0
-378,-727,0,0,0,0,0,0,0,0,0,-1,846,1751,0,0
-371,-727,0,0,0,0,0,0,0,0,0,-1,853,1751,0,0
-364,-727,0,0,0,0,0,0,0,0,0,-1,860,1751,0,0
-357,-727,0,0,0,0,0,0,0,0,0,-1,867,1751,0,0
-350,-727,0,0,0,0,0,0,0,0,0,-1,874,1751,0,0
-343,-727,0,0,0,0,0,0,0,0,0,-1,881,1751,0,0
-336,-727,0,0,0,0,0,0,0,0,0,-1,888,1751,0,0
-329,-727,0,0,0,0,0,0,0,0,0,-1,895,1751,0,0
-322,-727,0,0,0,0,0,0,0,0,0,-1,902,1751,0,0
-315,-727,0,0,0,0,0,0,0,0,0,-1,909,1751,0,0
-308,-727,0,0,0,0,0,0,0,0,0,-1,916,1751,0,0
-301,-727,0,0,0,0,0,0,0,0,0,-1,923,1751,0,0
-294,-727,0,0,0,0,0,0,0,0,0,-1,930,1751,0,0
-287,-727,0,0,0,0,0,0,0,0,0,-1,937,1751,0,0
-280,-727,0,0,0,0,0,0,0,0,0,-1,944,1751,0,0
-273,-727,0,0,0,0,0,0,0,0,0,-1,951,1751,0,0
-266,-727,-0.486023,0.153442,0,0,0,0,0,0,0,-1,958,1751,-0.486012,-0.153462
-259,-727,0.0414429,0.704956,0,0,0,0,0,0,0,-1,965,1751,0.0414555,-0.704958
-252,-727,-0.223389,0.282227,0.014394,0.00913506,0.0132142,0.0252378,-0.00170872,0.687187,0.0174227,0.0424825,972,1751,-0.223403,-0.282182
-245,-727,-0.333252,0.156372,0.0157807,0.0095004,0.0128363,0.0258553,-0.000574242,0.665439,0.0174314,0.0443332,979,1751,-0.333279,-0.15632
-238,-727,-0.285767,0.172852,0.0157807,0.0101185,0.0127293,0.0259899,-9.0708e-05,0.675976,0.0173569,0.0472445,986,1751,-0.285771,-0.172902
-231,-727,-0.263,0.148804,0.0157998,0.0101944,0.0126167,0.0259213,7.28397e-05,0.676101,0.0172567,0.0491831,993,1751,-0.262995,-0.148842
-224,-727,-0.238159,-0.0445557,0,0,0,0,0,0,0,-1,1000,1751,-0.238187,0.0445025
-217,-727,0.42334,-0.0722656,0,0,0,0,0,0,0,-1,1007,1751,0.423341,0.0722709
-210,-727,0.327637,0.139893,0.0132028,0.00666172,0.0104877,0.0209181,-0.00105358,0.634255,0.0143095,0.0441818,1014,1751,0.32766,-0.13995
-203,-727,0.223206,0.369873,0.011704,0.00421093,0.00955391,0.0182197,-0.00230479,0.59854,0.0129831,0.0449835,1021,1751,0.223227,-0.36989
-196,-727,0.564697,-0.139648,0,0,0,0,0,0,0,-1,1028,1751,0.564653,0.139645
-189,-727,0.531738,-0.245972,0,0,0,0,0,0,0,-1,1035,1751,0.531717,0.246005
-182,-727,-0.0739746,0.010376,0,0,0,0,0,0,0,-1,1042,1751,-0.0739354,-0.0103747
-175,-727,0.884277,0.289551,0.0067195,-0.00578548,0.00567083,0.00890809,-0.00797408,0.368327,0.0097519,0.0480608,1049,1751,0.884235,-0.289513
-168,-727,0.227417,-0.143188,0.0046426,-0.00601508,0.00428351,0.00615079,-0.00752327,0.338538,0.00790797,0.0447962,1056,1751,0.227452,0.14323
-161,-727,0.108276,-0.139038,0.00305449,-0.00528649,0.00302168,0.00403409,-0.0062661,0.313502,0.00599318,0.0399049,1063,1751,0.108225,0.139025
-154,-727,0.0545654,-0.14978,0.00150278,-0.00386384,0.00208363,0.00221678,-0.00457783,0.330128,0.00400103,0.0329061,1070,1751,0.0545224,0.149734
-147,-727,-0.0306396,-0.123779,-0.00113042,-0.00174215,0.00111247,-0.000282532,-0.00259004,0.651241,0.00164064,0.0295752,1077,1751,-0.0306422,0.123785
-140,-727,-0.0812988,-0.0634766,-0.00340977,0.00100381,0.000729986,0.00112141,-0.00352737,1.41107,0.00280124,0.0199917,1084,1751,-0.0812867,0.0634313
-133,-727,-0.0843506,-0.0714111,-0.00445622,0.00367501,0.000570648,0.00371486,-0.00449608,1.50107,0.00474774,0.0124781,1091,1751,-0.0843142,0.0714527
-126,-727,-0.0808105,-0.0721436,-0.00515234,0.00591793,0.00047738,0.00593848,-0.00517288,1.52778,0.00642022,0.0104574,1098,1751,-0.0807598,0.0721312
-119,-727,-0.0780029,-0.0617676,-0.00511096,0.00764649,0.000246253,0.00765124,-0.00511571,1.5515,0.0074193,0.0109333,1105,1751,-0.077998,0.0617405
-112,-727,-0.0718994,-0.0800781,-0.00532501,0.00889251,0.000104147,0.00889327,-0.00532578,1.56347,0.00829505,0.0123843,1112,1751,-0.071846,0.0800986
-105,-727,-0.0672607,-0.0772705,-0.00561095,0.0094148,4.98464e-05,0.00941497,-0.00561112,1.56748,0.00876748,0.0122309,1119,1751,-0.0672651,0.0772289
-98,-727,-0.0758057,-0.0617676,-0.00562987,0.00921797,-0.000101997,0.00921868,-0.00563057,-1.56393,0.00865624,0.0103785,1126,1751,-0.0758271,0.0617847
-91,-727,-0.0750732,-0.057251,-0.00559928,0.00827123,-0.000298547,0.00827765,-0.0056057,-1.54929,0.00806489,0.0099646,1133,1751,-0.0750514,0.0571949
-84,-727,-0.086792,-0.0703125,-0.00515307,0.00668627,-0.000209534,0.00668998,-0.00515678,-1.55311,0.0068588,0.0102809,1140,1751,-0.0867495,0.0702718
-77,-727,-0.083374,-0.0710449,-0.00405846,0.0051357,-0.000217896,0.00514086,-0.00406363,-1.54711,0.00532633,0.011347,1147,1751,-0.0834131,0.0710945
-70,-727,-0.0766602,-0.0562744,-0.00310087,0.00359235,-0.000272322,0.00360341,-0.00311193,-1.5302,0.00388056,0.0133666,1154,1751,-0.0766145,0.0562483
-63,-727,-0.0799561,-0.0405273,-0.00201426,0.00160379,-0.000335917,0.00163471,-0.00204519,-1.479,0.00212899,0.0111467,1161,1751,-0.0799387,0.0404962
-56,-727,-0.0854492,-0.0430908,-0.00128196,0.00038893,-0.000302837,0.000442123,-0.00133516,-1.39692,0.00106842,0.0107826,1168,1751,-0.0854136,0.0430771
-49,-727,-0.0765381,-0.0593262,-0.000757119,-0.000257644,-0.000396053,-3.91646e-05,-0.000975598,-1.06669,0.000637745,0.013344,1175,1751,-0.0765686,0.0593589
-42,-727,-0.0699463,-0.059082,-0.000369409,-0.00040785,-0.00049397,0.000105714,-0.000882973,-0.765953,0.000626865,0.0156816,1182,1751,-0.0699003,0.0590426
-35,-727,-0.0750732,-0.0686035,-9.32215e-05,-0.000515443,-0.000561794,0.000295818,-0.000904482,-0.605671,0.000722083,0.0131254,1189,1751,-0.0750336,0.0686392
-28,-727,-0.0755615,-0.0751953,5.76337e-05,-0.000296277,-0.000612252,0.00051799,-0.000756633,-0.64472,0.000740191,0.00791789,1196,1751,-0.0755288,0.0751555
-21,-727,-0.0739746,-0.0744629,-0.000133934,7.80142e-05,-0.000589277,0.00057077,-0.00062669,-0.874366,0.000691605,0.00965393,1203,1751,-0.0739176,0.0744134
-14,-727,-0.0806885,-0.0760498,-0.000409451,0.000553036,-0.000156581,0.000577868,-0.000434284,-1.41351,0.000586323,0.0107798,1210,1751,-0.0806565,0.0760483
-7,-727,-0.0754395,-0.083374,-0.00021213,0.000853031,0.000169775,0.000879437,-0.000238535,1.4165,0.000679897,0.0136203,1217,1751,-0.0754349,0.0833454
0,-727,-0.083374,-0.0731201,0.000127052,0.000927699,0.000383282,0.0010816,-2.6848e-05,1.18897,0.00073018,0.0137035,1224,1751,-0.0834315,0.0730685
7,-727,-0.0964355,-0.0718994,0.000228473,0.000974737,0.000528043,0.00124818,-4.49679e-05,1.09298,0.000847506,0.0131955,1231,1751,-0.0963863,0.0718558
14,-727,-0.0783691,-0.0795898,0.000313206,0.000833914,0.000722687,0.00134171,-0.000194594,0.95829,0.000965897,0.0130892,1238,1751,-0.0783785,0.0796155
21,-727,-0.0754395,-0.0534668,0.000366226,0.000584117,0.000963294,0.00144461,-0.000494264,0.841707,0.00116337,0.0116328,1245,1751,-0.0754384,0.0534455
28,-727,-0.0668945,-0.0529785,0.000296655,3.99522e-05,0.00103354,0.00120978,-0.000873172,0.723621,0.00120781,0.0103234,1252,1751,-0.0669114,0.0529316
35,-727,-0.0491943,-0.0750732,0.000294132,-0.000298954,0.00109321,0.00113031,-0.00113513,0.652956,0.00130795,0.0108967,1259,1751,-0.0491849,0.0750945
42,-727,-0.0550537,-0.0822754,0.000406206,-0.000288296,0.00117179,0.00128112,-0.00116321,0.64135,0.00141178,0.0112008,1266,1751,-0.0550475,0.0822866
49,-727,-0.0727539,-0.0736084,0.000380339,-0.000442286,0.00113717,0.00117829,-0.00124024,0.611869,0.0013965,0.00962975,1273,1751,-0.072709,0.0736638
56,-727,-0.0758057,-0.0567627,0.000377695,-0.00056453,0.00100448,0.00101606,-0.00120289,0.566123,0.00128262,0.00811151,1280,1751,-0.0758378,0.0567596
63,-727,-0.067749,-0.0666504,0.000651773,-0.000431494,0.00120507,0.00143133,-0.00121106,0.574194,0.00152735,0.0101929,1287,1751,-0.0677678,0.0666645
70,-727,-0.071167,-0.0649414,0.00111004,-3.09909e-05,0.00144505,0.00209312,-0.00101407,0.597387,0.00182964,0.0118359,1294,1751,-0.0712065,0.0649155
77,-727,-0.0716553,-0.0428467,0.00175296,0.000301269,0.00164957,0.00282932,-0.000775083,0.578135,0.00219076,0.0136582,1301,1751,-0.0717029,0.0429002
84,-727,-0.057373,-0.0598145,0.0023229,0.00055668,0.00178209,0.0034287,-0.000549114,0.555359,0.00248911,0.0151791,1308,1751,-0.0573347,0.0597815
91,-727,-0.052002,-0.064209,0.00287923,0.000727062,0.0019659,0.00404429,-0.000437992,0.534985,0.00285342,0.0155133,1315,1751,-0.0520563,0.0642672
98,-727,-0.0462646,-0.0595703,0.00333705,0.000979667,0.00213433,0.00459653,-0.000279812,0.533112,0.00316175,0.0133621,1322,1751,-0.046255,0.0595821
105,-727,-0.0499268,-0.0777588,0.00363678,0.00171982,0.00233837,0.00520549,0.000151116,0.590896,0.00342107,0.012804,1329,1751,-0.0498833,0.0777302
112,-727,-0.081543,-0.0697021,0.00385019,0.00247829,0.00261436,0.00586709,0.000461385,0.657101,0.00376703,0.0115112,1336,1751,-0.0814998,0.069753
119,-727,-0.0645752,-0.0440674,0.00392665,0.00313582,0.00276525,0.00632461,0.000737857,0.714382,0.00399324,0.00856065,1343,1751,-0.0645766,0.0441013
126,-727,-0.045166,-0.0786133,0.00386016,0.00380902,0.00281739,0.0066521,0.00101708,0.780861,0.00413759,0.00957033,1350,1751,-0.0451229,0.0785834
133,-727,-0.0535889,-0.0709229,0.00362369,0.0046512,0.00287667,0.00705963,0.00121526,0.873763,0.00435818,0.01496,1357,1751,-0.0535284,0.0709221
140,-727,-0.0466309,-0.0338135,0.00312143,0.00530969,0.00283615,0.00725543,0.00117568,0.969492,0.00449659,0.0206205,1364,1751,-0.0465796,0.033851
147,-727,-0.0650635,-0.043457,0.00267476,0.00566295,0.00271958,0.00727182,0.00106588,1.03658,0.00453454,0.0172097,1371,1751,-0.0650743,0.0435171
154,-727,-0.0788574,-0.0695801,0.00245553,0.00615013,0.00255061,0.00745214,0.00115352,1.09881,0.00463171,0.0106005,1378,1751,-0.0788208,0.0695336
161,-727,-0.0643311,-0.0673828,0.00216766,0.00672035,0.00234712,0.00771367,0.00117434,1.17044,0.00479913,0.00837721,1385,1751,-0.064351,0.067325
168,-727,-0.0657959,-0.0654297,0.00174478,0.00683558,0.00183611,0.00742871,0.00115165,1.25834,0.00461672,0.0113062,1392,1751,-0.0657953,0.0653968
175,-727,-0.0551758,-0.0703125,0.00144895,0.00666259,0.00134438,0.00698884,0.00112271,1.33273,0.00433374,0.0166933,1399,1751,-0.0551449,0.0703299
182,-727,-0.038208,-0.0638428,0.00132318,0.00631261,0.000909054,0.00647308,0.00116271,1.39608,0.00398476,0.0184072,1406,1751,-0.0382145,0.0638735
189,-727,-0.0612793,-0.0557861,0.00146441,0.00582013,0.000569188,0.00589328,0.00139126,1.44298,0.00355698,0.011469,1413,1751,-0.0612227,0.0557864
196,-727,-0.0819092,-0.060791,0.00154758,0.00503649,0.000172442,0.00504499,0.00153907,1.52153,0.0029856,0.0119835,1420,1751,-0.0818492,0.0607932
203,-727,-0.0838623,-0.0701904,0.00143701,0.00415547,-0.000291535,0.00418639,0.00140609,-1.46515,0.00246003,0.0141562,1427,1751,-0.0838767,0.070223
210,-727,-0.081665,-0.050415,0.00120332,0.00294039,-0.000788409,0.00324486,0.000898845,-1.20226,0.00193453,0.013912,1434,1751,-0.0816629,0.0504715
217,-727,-0.0876465,-0.0549316,0.000887398,0.0019423,-0.00126908,0.00278918,4.05216e-05,-0.982346,0.00184609,0.0104942,1441,1751,-0.0875993,0.0549473
224,-727,-0.0855713,-0.0847168,0.000693014,0.00120469,-0.00162995,0.00259876,-0.000701056,-0.863243,0.00200742,0.0113583,1448,1751,-0.0855492,0.0846876
231,-727,-0.0805664,-0.0948486,0.000442272,0.000577536,-0.00181611,0.00232727,-0.00130746,-0.80401,0.00212587,0.00910583,1455,1751,-0.0805136,0.0948014
238,-727,-0.0761719,-0.09375,4.58143e-05,2.69534e-05,-0.00191043,0.00194684,-0.00187407,-0.78293,0.00220613,0.00944589,1462,1751,-0.0761781,0.0937159
245,-727,-0.0756836,-0.0793457,-0.000502679,-0.000387973,-0.00199392,0.00154942,-0.00244007,-0.799776,0.00232239,0.00950667,1469,1751,-0.0757046,0.0793932
252,-727,-0.0748291,-0.0722656,-0.00118865,-0.000600061,-0.00194624,0.00107401,-0.00286272,-0.860435,0.00234978,0.00977363,1476,1751,-0.0747684,0.0722538
259,-727,-0.0706787,-0.0731201,-0.00172624,-0.000664891,-0.00171208,0.00059687,-0.00298801,-0.935683,0.0022179,0.0111406,1483,1751,-0.0706684,0.0730967
266,-727,-0.0836182,-0.0655518,-0.00207678,-0.000649186,-0.00125647,8.20837e-05,-0.00280805,-1.04371,0.00189998,0.0133763,1490,1751,-0.0836698,0.0655291
273,-727,-0.0673828,-0.0571289,-0.00235743,-0.00028828,-0.000789807,-2.12633e-05,-0.00262444,-1.24478,0.00174259,0.0203004,1497,1751,-0.0673966,0.0571642
280,-727,-0.0460205,-0.0717773,-0.00248507,0.00065084,-0.000336802,0.000686605,-0.00252084,-1.465,0.00195014,0.0308468,1504,1751,-0.0460297,0.0718062
287,-727,-0.050293,-0.109619,-0.00243332,0.00141853,-0.000273245,0.00143781,-0.00245261,-1.50033,0.00227146,0.0360863,1511,1751,-0.0503382,0.109664
294,-727,-0.00720215,-0.0977783,-0.00242292,0.00183007,-0.000739936,0.00195513,-0.00254798,-1.40337,0.00260737,0.0406282,1518,1751,-0.00722519,0.0978048
301,-727,-0.515747,-0.329956,-0.00158054,0.00278241,-0.000809037,0.0029276,-0.00172573,-1.39323,0.00271631,0.0414094,1525,1751,-0.515686,0.32998
308,-727,-0.49939,-0.585571,1.97616e-05,0.00338437,-0.00110212,0.00371324,-0.000309107,-1.28081,0.0025847,0.0423189,1532,1751,-0.499431,0.585596
315,-727,-0.393921,-0.741699,0.00128789,0.00413378,-0.00154596,0.00481197,0.000609698,-1.15739,0.0030253,0.0411094,1539,1751,-0.393974,0.741688
322,-727,-0.515503,-0.862183,0,0,0,0,0,0,0,-1,1546,1751,-0.515491,0.862195
329,-727,0.0318604,-0.520752,0,0,0,0,0,0,0,-1,1553,1751,0.0318795,0.520796
336,-727,0.606079,0.0349121,0,0,0,0,0,0,0,-1,1560,1751,0.606048,-0.0349637
343,-727,1.25562,0.840332,0,0,0,0,0,0,0,-1,1567,1751,1.25561,-0.840367
350,-727,-0.941162,-0.719116,0.00750179,0.00226014,-0.00142685,0.00786503,0.0018969,-0.249278,0.00473933,0.0414436,1574,1751,-0.941177,0.719115
357,-727,-0.340942,-0.425537,0.00861948,0.000632376,-0.000519646,0.00865315,0.00059871,-0.064697,0.00557991,0.0419122,1581,1751,-0.340939,0.425542
364,-727,-0.239258,-0.0959473,0.00928265,-0.00140345,0.000535328,0.00930941,-0.0014302,0.0499291,0.00673382,0.0408119,1588,1751,-0.23921,0.0959499
371,-727,-0.496704,0.052124,0,0,0,0,0,0,0,-1,1595,1751,-0.496654,-0.0521198
378,-727,-0.479736,0.0935059,0.0101359,-0.00784936,0.00374202,0.0108834,-0.00859686,0.197163,0.0112727,0.0416301,1602,1751,-0.479745,-0.0935446
385,-727,-0.484863,-0.0811768,0.0116684,-0.0126298,0.00524279,0.0127514,-0.0137127,0.203698,0.0152824,0.0400055,1609,1751,-0.484882,0.0811604
392,-727,0,0,0,0,0,0,0,0,0,-1,1616,1751,0,0
399,-727,0,0,0,0,0,0,0,0,0,-1,1623,1751,0,0
406,-727,0,0,0,0,0,0,0,0,0,-1,1630,1751,0,0
413,-727,0,0,0,0,0,0,0,0,0,-1,1637,1751,0,0
420,-727,0,0,0,0,0,0,0,0,0,-1,1644,1751,0,0
427,-727,0,0,0,0,0,0,0,0,0,-1,1651,1751,0,0
434,-727,0,0,0,0,0,0,0,0,0,-1,1658,1751,0,0
441,-727,0,0,0,0,0,0,0,0,0,-1,1665,1751,0,0
448,-727,0,0,0,0,0,0,0,0,0,-1,1672,1751,0,0
455,-727,0,0,0,0,0,0,0,0,0,-1,1679,1751,0,0
462,-727,0,0,0,0,0,0,0,0,0,-1,1686,1751,0,0
469,-727,0,0,0,0,0,0,0,0,0,-1,1693,1751,0,0
476,-727,0,0,0,0,0,0,0,0,0,-1,1700,1751,0,0
483,-727,0,0,0,0,0,0,0,0,0,-1,1707,1751,0,0
490,-727,0,0,0,0,0,0,0,0,0,-1,1714,1751,0,0
497,-727,0,0,0,0,0,0,0,0,0,-1,1721,1751,0,0
504,-727,0,0,0,0,0,0,0,0,0,-1,1728,1751,0,0
511,-727,0,0,0,0,0,0,0,0,0,-1,1735,1751,0,0
518,-727,0,0,0,0,0,0,0,0,0,-1,1742,1751,0,0
525,-727,0,0,0,0,0,0,0,0,0,-1,1749,1751,0,0
532,-727,0,0,0,0,0,0,0,0,0,-1,1756,1751,0,0
539,-727,0,0,0,0,0,0,0,0,0,-1,1763,1751,0,0
546,-727,0,0,0,0,0,0,0,0,0,-1,1770,1751,0,0
553,-727,0,0,0,0,0,0,0,0,0,-1,1777,1751,0,0
560,-727,0,0,0,0,0,0,0,0,0,-1,1784,1751,0,0
567,-727,0,0,0,0,0,0,0,0,0,-1,1791,1751,0,0
574,-727,0,0,0,0,0,0,0,0,0,-1,1798,1751,0,0
581,-727,0,0,0,0,0,0,0,0,0,-1,1805,1751,0,0
588,-727,0,0,0,0,0,0,0,0,0,-1,1812,1751,0,0
595,-727,0,0,0,0,0,0,0,0,0,-1,1819,1751,0,0
602,-727,0,0,0,0,0,0,0,0,0,-1,1826,1751,0,0
609,-727,0,0,0,0,0,0,0,0,0,-1,1833,1751,0,0
616,-727,0,0,0,0,0,0,0,0,0,-1,1840,1751,0,0
623,-727,0,0,0,0,0,0,0,0,0,-1,1847,1751,0,0
630,-727,0,0,0,0,0,0,0,0,0,-1,1854,1751,0,0
637,-727,0,0,0,0,0,0,0,0,0,-1,1861,1751,0,0
644,-727,0,0,0,0,0,0,0,0,0,-1,1868,1751,0,0
651,-727,0,0,0,0,0,0,0,0,0,-1,1875,1751,0,0
658,-727,0,0,0,0,0,0,0,0,0,-1,1882,1751,0,0
665,-727,0,0,0,0,0,0,0,0,0,-1,1889,1751,0,0
672,-727,0,0,0,0,0,0,0,0,0,-1,1896,1751,0,0
679,-727,0,0,0,0,0,0,0,0,0,-1,1903,1751,0,0
686,-727,0,0,0,0,0,0,0,0,0,-1,1910,1751,0,0
693,-727,0,0,0,0,0,0,0,0,0,-1,1917,1751,0,0
700,-727,0,0,0,0,0,0,0,0,0,-1,1924,1751,0,0
707,-727,0,0,0,0,0,0,0,0,0,-1,1931,1751,0,0
714,-727,0,0,0,0,0,0,0,0,0,-1,1938,1751,0,0
721,-727,0,0,0,0,0,0,0,0,0,-1,1945,1751,0,0
728,-727,0,0,0,0,0,0,0,0,0,-1,1952,1751,0,0
735,-727,0,0,0,0,0,0,0,0,0,-1,1959,1751,0,0
742,-727,0,0,0,0,0,0,0,0,0,-1,1966,1751,0,0
749,-727,0,0,0,0,0,0,0,0,0,-1,1973,1751,0,0
756,-727,0,0,0,0,0,0,0,0,0,-1,1980,1751,0,0
763,-727,0,0,0,0,0,0,0,0,0,-1,1987,1751,0,0
770,-727,0,0,0,0,0,0,0,0,0,-1,1994,1751,0,0
777,-727,0,0,0,0,0,0,0,0,0,-1,2001,1751,0,0
784,-727,0,0,0,0,0,0,0,0,0,-1,2008,1751,0,0
791,-727,0,0,0,0,0,0,0,0,0,-1,2015,1751,0,0
798,-727,0,0,0,0,0,0,0,0,0,-1,2022,1751,0,0
805,-727,0,0,0,0,0,0,0,0,0,-1,2029,1751,0,0
812,-727,0,0,0,0,0,0,0,0,0,-1,2036,1751,0,0
-700,-734,0,0,0,0,0,0,0,0,0,-1,524,1758,0,0
-693,-734,0,0,0,0,0,0,0,0,0,-1,531,1758,0,0
-686,-734,0,0,0,0,0,0,0,0,0,-1,538,1758,0,0
-679,-734,0,0,0,0,0,0,0,0,0,-1,545,1758,0,0
-672,-734,0,0,0,0,0,0,0,0,0,-1,552,1758,0,0
-665,-734,0,0,0,0,0,0,0,0,0,-1,559,1758,0,0
-658,-734,0,0,0,0,0,0,0,0,0,-1,566,1758,0,0
-651,-734,0,0,0,0,0,0,0,0,0,-1,573,1758,0,0
-644,-734,0,0,0,0,0,0,0,0,0,-1,580,1758,0,0
-637,-734,0,0,0,0,0,0,0,0,0,-1,587,1758,0,0
-630,-734,0,0,0,0,0,0,0,0,0,-1,594,1758,0,0
-623,-734,0,0,0,0,0,0,0,0,0,-1,601,1758,0,0
-616,-734,0,0,0,0,0,0,0,0,0,-1,608,1758,0,0
-609,-734,0,0,0,0,0,0,0,0,0,-1,615,1758,0,0
-602,-734,0,0,0,0,0,0,0,0,0,-1,622,1758,0,0
-595,-734,0,0,0,0,0,0,0,0,0,-1,629,1758,0,0
-588,-734,0,0,0,0,0,0,0,0,0,-1,636,1758,0,0
-581,-734,0,0,0,0,0,0,0,0,0,-1,643,1758,0,0
-574,-734,0,0,0,0,0,0,0,0,0,-1,650,1758,0,0
-567,-734,0,0,0,0,0,0,0,0,0,-1,657,1758,0,0
-560,-734,0,0,0,0,0,0,0,0,0,-1,664,1758,0,0
-553,-734,0,0,0,0,0,0,0,0,0,-1,671,1758,0,0
-546,-734,0,0,0,0,0,0,0,0,0,-1,678,1758,0,0
-539,-734,0,0,0,0,0,0,0,0,0,-1,685,1758,0,0
-532,-734,0,0,0,0,0,0,0,0,0,-1,692,1758,0,0
-525,-734,0,0,0,0,0,0,0,0,0,-1,699,1758,0,0
-518,-734,0,0,0,0,0,0,0,0,0,-1,706,1758,0,0
-511,-734,0,0,0,0,0,0,0,0,0,-1,713,1758,0,0
-504,-734,0,0,0,0,0,0,0,0,0,-1,720,1758,0,0
-497,-734,0,0,0,0,0,0,0,0,0,-1,727,1758,0,0
-490,-734,0,0,0,0,0,0,0,0,0,-1,734,1758,0,0
-483,-734,0,0,0,0,0,0,0,0,0,-1,741,1758,0,0
-476,-734,0,0,0,0,0,0,0,0,0,-1,748,1758,0,0
-469,-734,0,0,0,0,0,0,0,0,0,-1,755,1758,0,0
-462,-734,0,0,0,0,0,0,0,0,0,-1,762,1758,0,0
-455,-734,0,0,0,0,0,0,0,0,0,-1,769,1758,0,0
-448,-734,0,0,0,0,0,0,0,0,0,-1,776,1758,0,0
-441,-734,0,0,0,0,0,0,0,0,0,-1,783,1758,0,0
-434,-734,0,0,0,0,0,0,0,0,0,-1,790,1758,0,0
-427,-734,0,0,0,0,0,0,0,0,0,-1,797,1758,0,0
-420,-734,0,0,0,0,0,0,0,0,0,-1,804,1758,0,0
-413,-734,0,0,0,0,0,0,0,0,0,-1,811,1758,0,0
-406,-734,0,0,0,0,0,0,0,0,0,-1,818,1758,0,0
-399,-734,0,0,0,0,0,0,0,0,0,-1,825,1758,0,0
-392,-734,0,0,0,0,0,0,0,0,0,-1,832,1758,0,0
-385,-734,0,0,0,0,0,0,0,0,0,-1,839,1758,0,0
-378,-734,0,0,0,0,0,0,0,0,0,-1,846,1758,0,0
-371,-734,0,0,0,0,0,0,0,0,0,-1,853,1758,0,0
-364,-734,0,0,0,0,0,0,0,0,0,-1,860,1758,0,0
-357,-734,0,0,0,0,0,0,0,0,0,-1,867,1758,0,0
-350,-734,0,0,0,0,0,0,0,0,0,-1,874,1758,0,0
-343,-734,0,0,0,0,0,0,0,0,0,-1,881,1758,0,0
-336,-734,0,0,0,0,0,0,0,0,0,-1,888,1758,0,0
-329,-734,0,0,0,0,0,0,0,0,0,-1,895,1758,0,0
-322,-734,0,0,0,0,0,0,0,0,0,-1,902,1758,0,0
-315,-734,0,0,0,0,0,0,0,0,0,-1,909,1758,0,0
-308,-734,0,0,0,0,0,0,0,0,0,-1,916,1758,0,0
-301,-734,0,0,0,0,0,0,0,0,0,-1,923,1758,0,0
-294,-734,0,0,0,0,0,0,0,0,0,-1,930,1758,0,0
-287,-734,0,0,0,0,0,0,0,0,0,-1,937,1758,0,0
-280,-734,0,0,0,0,0,0,0,0,0,-1,944,1758,0,0
-273,-734,0,0,0,0,0,0,0,0,0,-1,951,1758,0,0
-266,-734,0,0,0,0,0,0,0,0,0,-1,958,1758,0,0
-259,-734,0,0,0,0,0,0,0,0,0,-1,965,1758,0,0
-252,-734,-0.758179,0.420288,0.0187789,0.0106544,0.0179577,0.0331281,-0.00369483,0.674163,0.0234144,0.040701,972,1758,-0.758175,-0.420314
-245,-734,-0.912048,0.174927,0.0215152,0.0110712,0.0174507,0.0345084,-0.00192205,0.640017,0.0236723,0.045413,979,1758,-0.912074,-0.174979
-238,-734,-0.847351,0.184326,0.0223111,0.0118797,0.01738,0.0352412,-0.00105035,0.639626,0.0238519,0.048522,986,1758,-0.847335,-0.184384
-231,-734,-0.267944,-0.0948486,0.0230024,0.0118949,0.0171295,0.035456,-0.000558639,0.628634,0.0238257,0.0473383,993,1758,-0.267944,0.0948982
-224,-734,0.136597,-0.00305176,0.0230792,0.0114737,0.01669,0.0349464,-0.000393474,0.618096,0.0234299,0.043929,1000,1758,0.136585,0.00308041
-217,-734,0.0239258,-0.0148926,0.02242,0.00986576,0.016183,0.0335006,-0.00121487,0.600389,0.0227495,0.0406064,1007,1758,0.0239407,0.0148443
-210,-734,-0.115479,0.184448,0.021267,0.00715541,0.0149237,0.0307188,-0.0022964,0.564576,0.021286,0.0424958,1014,1758,-0.115483,-0.184488
-203,-734,0.0197754,0.275269,0.0192696,0.0040232,0.0138007,0.0274126,-0.00411977,0.533064,0.0197917,0.0430901,1021,1758,0.0198048,-0.275274
-196,-734,0.281616,0.055542,0.0181319,0.000857252,0.0128119,0.0249461,-0.00595691,0.48881,0.0189314,0.0465432,1028,1758,0.281638,-0.0555533
-189,-734,0.321655,-0.0695801,0.0165556,-0.00233424,0.010877,0.0215161,-0.00729472,0.427875,0.0172962,0.0475068,1035,1758,0.321653,0.069633
-182,-734,1.23743,0.574829,0,0,0,0,0,0,0,-1,1042,1758,1.23747,-0.574824
-175,-734,0.858276,0.468628,0.0118164,-0.00774332,0.00887899,0.0152457,-0.0111726,0.368577,0.0153129,0.0465113,1049,1758,0.858319,-0.468618
-168,-734,0.408691,0.222168,0.00845341,-0.00748534,0.00703808,0.0111163,-0.0101483,0.361711,0.0122813,0.0441198,1056,1758,0.408711,-0.222153
-161,-734,0.0526123,0.000244141,0.00560683,-0.00584518,0.00535982,0.00772396,-0.00796231,0.376189,0.00905682,0.0417409,1063,1758,0.0526251,-0.000184343
-154,-734,-0.0550537,-0.0772705,0.00274806,-0.00343599,0.00413406,0.00481851,-0.00550644,0.464308,0.00596552,0.0386037,1070,1758,-0.0550665,0.0772988
-147,-734,-0.254272,-0.262451,-0.00167692,-0.000327819,0.00284412,0.00192065,-0.00392539,0.901833,0.00344073,0.0389798,1077,1758,-0.254294,0.262459
-140,-734,-0.115234,0.0375977,-0.00534365,0.00360201,0.00233594,0.00417525,-0.00591689,1.33015,0.00585555,0.0379734,1084,1758,-0.115229,-0.0375832
-133,-734,-0.0944824,0.0489502,-0.00710892,0.00718137,0.00197989,0.00745061,-0.00737816,1.43564,0.00856143,0.0287713,1091,1758,-0.0944285,-0.0489019
-126,-734,-0.115479,-0.0283203,-0.00826723,0.01014,0.00189601,0.0103333,-0.0084605,1.46921,0.0108686,0.0283556,1098,1758,-0.115441,0.0282755
-119,-734,-0.12561,-0.0411377,-0.00849147,0.0123399,0.00151831,0.0124499,-0.00860155,1.49842,0.0122216,0.0331244,1105,1758,-0.125615,0.041104
-112,-734,-0.0661621,-0.0787354,-0.00888172,0.0138285,0.0013088,0.0139037,-0.0089569,1.51342,0.0133012,0.024848,1112,1758,-0.0661383,0.0787036
-105,-734,-0.0618896,-0.0783691,-0.00915771,0.0142672,0.00121404,0.0143299,-0.00922046,1.51915,0.0137031,0.0173367,1119,1758,-0.0618881,0.0784031
-98,-734,-0.0631104,-0.0666504,-0.00902088,0.0137985,0.000980972,0.0138405,-0.00906297,1.52791,0.0133189,0.0132329,1126,1758,-0.0630822,0.0667057
-91,-734,-0.0533447,-0.0622559,-0.00871833,0.0123499,0.000632725,0.0123689,-0.00873732,1.5408,0.0122456,0.0121953,1133,1758,-0.053402,0.0622091
-84,-734,-0.0610352,-0.0727539,-0.007817,0.0100052,0.000573859,0.0100236,-0.00783545,1.53864,0.0103367,0.0101275,1140,1758,-0.0610518,0.0727616
-77,-734,-0.0698242,-0.0681152,-0.00614888,0.00769771,0.000341454,0.00770613,-0.0061573,1.54616,0.00802069,0.0105443,1147,1758,-0.0698833,0.0680583
-70,-734,-0.0767822,-0.0447998,-0.00470141,0.00544391,5.3835e-05,0.0054442,-0.00470169,1.56549,0.00586296,0.0100526,1154,1758,-0.0768018,0.0447411
-63,-734,-0.0739746,-0.0595703,-0.00314854,0.00268994,-0.000250866,0.0027007,-0.0031593,-1.52793,0.00338672,0.0101627,1161,1758,-0.0740318,0.0595788
-56,-734,-0.0808105,-0.083374,-0.00205093,0.000908533,-0.000451157,0.000975781,-0.00211818,-1.42283,0.00182643,0.0108797,1168,1758,-0.0808375,0.083342
-49,-734,-0.0661621,-0.069458,-0.00126457,-5.31588e-05,-0.00075212,0.000306829,-0.00162456,-1.12439,0.00119848,0.0117959,1175,1758,-0.0661724,0.0694055
-42,-734,-0.0688477,-0.0571289,-0.00064963,-0.000300444,-0.00101126,0.000551184,-0.00150126,-0.87088,0.00122657,0.0128604,1182,1758,-0.0688469,0.0571513
-35,-734,-0.0894775,-0.0769043,-0.000325796,-0.000406917,-0.00114541,0.000779769,-0.00151248,-0.7677,0.00134578,0.012448,1189,1758,-0.0894787,0.0769091
-28,-734,-0.0574951,-0.088501,-0.000204457,1.02119e-05,-0.0011737,0.00108148,-0.00127572,-0.830996,0.00136247,0.00895128,1196,1758,-0.0575211,0.0885591
-21,-734,-0.0223389,-0.0783691,-0.000409565,0.000733315,-0.0011244,0.00142315,-0.0010994,-1.0205,0.00146039,0.0136379,1203,1758,-0.0223716,0.0783694
-14,-734,-0.0670166,-0.0437012,-0.000660374,0.00155196,-0.000442102,0.00163703,-0.00074545,-1.38069,0.00140727,0.0138064,1210,1758,-0.0669923,0.0437543
-7,-734,-0.0684814,-0.0762939,-0.000325507,0.00215789,0.00012809,0.00216448,-0.000332096,1.5194,0.00156547,0.0166243,1217,1758,-0.0684932,0.0762958
0,-734,-0.0737305,-0.0860596,0.000179227,0.00253885,0.000621879,0.00269271,2.5364e-05,1.32825,0.00178675,0.0165877,1224,1758,-0.0737237,0.0860611
7,-734,-0.0839844,-0.0839844,0.000392113,0.00287732,0.00106865,0.00327364,-4.21144e-06,1.21566,0.00218384,0.01221,1231,1758,-0.0839328,0.0839657
14,-734,-0.0743408,-0.057251,0.000557684,0.00297294,0.00165181,0.00381149,-0.000280863,1.10104,0.0026396,0.0124051,1238,1758,-0.0743839,0.0572988
21,-734,-0.0690918,-0.0496826,0.000657275,0.00288221,0.00229677,0.00432174,-0.000782261,1.01093,0.00317421,0.0114841,1245,1758,-0.0690641,0.0497328
28,-734,-0.0709229,-0.0631104,0.000551108,0.00235844,0.00264478,0.00424967,-0.00134013,0.950019,0.00336985,0.0109257,1252,1758,-0.0708789,0.0631132
35,-734,-0.0737305,-0.0596924,0.000580783,0.00205487,0.00284093,0.00425281,-0.00161716,0.912319,0.00350105,0.0126316,1259,1758,-0.0737244,0.0596351
42,-734,-0.0587158,-0.0604248,0.000887394,0.00195972,0.00291067,0.0043832,-0.00153609,0.87648,0.00354683,0.0103794,1266,1758,-0.0587456,0.0603954
49,-734,-0.0720215,-0.0682373,0.000907525,0.00149843,0.00285299,0.00407123,-0.00166527,0.836994,0.00340769,0.00921015,1273,1758,-0.0720818,0.06826
56,-734,-0.0864258,-0.0567627,0.001006,0.00112198,0.00261965,0.00368428,-0.0015563,0.796465,0.00310769,0.00887605,1280,1758,-0.0864496,0.0568057
63,-734,-0.0791016,-0.0655518,0.00152799,0.00101461,0.00270766,0.00399109,-0.0014485,0.738138,0.0032529,0.0113653,1287,1758,-0.0791527,0.0655656
70,-734,-0.102783,-0.0621338,0.00238523,0.00123962,0.00280538,0.00467569,-0.00105084,0.684691,0.00352008,0.0119051,1294,1758,-0.102807,0.0621209
77,-734,-0.0927734,-0.00915527,0.00357375,0.00141,0.0029094,0.00559591,-0.000612165,0.607394,0.00395051,0.0157189,1301,1758,-0.0927709,0.00915772
84,-734,-0.0760498,-0.0349121,0.00461898,0.00161895,0.00287287,0.00635986,-0.000121934,0.5448,0.00428113,0.0157071,1308,1758,-0.0760523,0.0349473
91,-734,-0.0671387,-0.0593262,0.00564352,0.00182324,0.00294261,0.0072416,0.000225157,0.497516,0.00475446,0.0168828,1315,1758,-0.0671181,0.0593173
98,-734,-0.0422363,-0.0539551,0.00655787,0.00212262,0.00299969,0.00807066,0.000609836,0.467094,0.00518912,0.0130611,1322,1758,-0.042259,0.0539129
105,-734,-0.0305176,-0.0570068,0.0071921,0.00303979,0.00319111,0.008923,0.0013089,0.496998,0.00556392,0.0148148,1329,1758,-0.0305393,0.0569585
112,-734,-0.057251,-0.0655518,0.00758329,0.00396329,0.0035333,0.00974321,0.00180336,0.548691,0.0059856,0.013099,1336,1758,-0.0572913,0.0655733
119,-734,-0.0625,-0.0838623,0.00768916,0.00481966,0.00373479,0.0102553,0.00225351,0.602011,0.00622322,0.0130077,1343,1758,-0.0624539,0.0838441
126,-734,-0.0386963,-0.0917969,0.00751692,0.00559047,0.00382033,0.0104936,0.00261381,0.661906,0.00630764,0.0149011,1350,1758,-0.0386617,0.0917644
133,-734,-0.0379639,-0.0841064,0.00708443,0.00651145,0.00397268,0.0107809,0.00281494,0.749403,0.00645686,0.0141327,1357,1758,-0.0379697,0.0840463
140,-734,-0.0523682,-0.0701904,0.00617382,0.00704998,0.00405324,0.0106887,0.00253506,0.83923,0.00644909,0.0178043,1364,1758,-0.0523506,0.0701437
147,-734,-0.0526123,-0.074585,0.00523107,0.00724733,0.00401761,0.0103814,0.00209704,0.908324,0.0063386,0.0129436,1371,1758,-0.0525595,0.0745493
154,-734,-0.0666504,-0.0720215,0.00480723,0.00738671,0.00372805,0.0100418,0.00215213,0.951931,0.00610495,0.00910171,1378,1758,-0.0666853,0.072007
161,-734,-0.0664063,-0.0749512,0.00439893,0.00757122,0.00330203,0.0096483,0.00232184,1.0093,0.00581488,0.00808223,1385,1758,-0.0664569,0.0749855
168,-734,-0.0941162,-0.0715332,0.00376017,0.00730432,0.00259219,0.00867226,0.00239223,1.08522,0.00517192,0.013662,1392,1758,-0.0941402,0.0715521
175,-734,-0.0827637,-0.0625,0.00331393,0.00673162,0.0018732,0.00755833,0.00248722,1.15517,0.00444799,0.0166074,1399,1758,-0.0827742,0.0625439
182,-734,-0.0466309,-0.0797119,0.00311424,0.00600941,0.00120485,0.00644522,0.00267843,1.22373,0.00373879,0.0144591,1406,1758,-0.0466409,0.0797273
189,-734,-0.0666504,-0.0709229,0.00331591,0.00512333,0.000695644,0.00536006,0.00307917,1.24278,0.00310605,0.0105716,1413,1758,-0.066653,0.0708622
196,-734,-0.085083,-0.0491943,0.00349588,0.00414973,0.000139751,0.00417835,0.00346726,1.36882,0.00258139,0.0109511,1420,1758,-0.0851282,0.0491614
203,-734,-0.0673828,-0.0559082,0.00334689,0.00317244,-0.00048472,0.00375217,0.00276716,-0.696377,0.00224629,0.0105093,1427,1758,-0.0673859,0.0559385
210,-734,-0.0626221,-0.0509033,0.00299149,0.00180573,-0.00117568,0.00371532,0.0010819,-0.551863,0.00220651,0.0110214,1434,1758,-0.0626447,0.0508531
217,-734,-0.0800781,-0.0529785,0.00249052,0.000751656,-0.00180565,0.00362516,-0.000382981,-0.561026,0.00255402,0.00975254,1441,1758,-0.0800865,0.0529894
224,-734,-0.0786133,-0.0656738,0.00207797,-3.16618e-05,-0.00224364,0.00350238,-0.00145608,-0.565663,0.0029429,0.0106091,1448,1758,-0.0786347,0.0656202
231,-734,-0.0543213,-0.0720215,0.00153992,-0.000600749,-0.00240676,0.00310362,-0.00216445,-0.576171,0.00305759,0.0115041,1455,1758,-0.054299,0.0720657
238,-734,-0.0380859,-0.065918,0.000807979,-0.00109908,-0.00245782,0.00249075,-0.00278185,-0.600357,0.00304568,0.0142036,1462,1758,-0.0380923,0.065923
245,-734,-0.0294189,-0.0744629,-8.46898e-05,-0.00147208,-0.0025015,0.00181752,-0.00337429,-0.650141,0.00304208,0.0198668,1469,1758,-0.0293711,0.07446
252,-734,-0.041748,-0.0888672,-0.00111848,-0.00170423,-0.00237671,0.000983335,-0.00380604,-0.724094,0.00292085,0.0241871,1476,1758,-0.0416917,0.0888448
259,-734,-0.196899,-0.148071,-0.00203479,-0.00173739,-0.00200911,0.000128516,-0.0039007,-0.822337,0.00264434,0.0304824,1483,1758,-0.196924,0.148015
266,-734,-0.29541,-0.205078,-0.00272564,-0.00190402,-0.00130897,-0.000942907,-0.00368675,-0.937451,0.00221158,0.0349164,1490,1758,-0.295409,0.205042
273,-734,0.039917,-0.301025,-0.003094,-0.00165619,-0.000728753,-0.00135142,-0.00339876,-1.1747,0.00197594,0.0368717,1497,1758,0.0399629,0.301069
280,-734,0.421875,-0.548584,-0.00331622,-0.000707678,-0.000149077,-0.000699186,-0.00332471,-1.51389,0.00202408,0.0451157,1504,1758,0.421884,0.548605
287,-734,-0.00598145,-0.231689,-0.00335962,6.90622e-05,-7.34924e-05,7.06367e-05,-0.0033612,-1.54937,0.00226471,0.0464495,1511,1758,-0.00594891,0.231666
294,-734,-0.309692,-0.338745,-0.00351346,0.000478856,-0.000622414,0.000573641,-0.00360825,-1.41967,0.00261775,0.0440204,1518,1758,-0.30967,0.338752
301,-734,-0.908325,-0.565918,0,0,0,0,0,0,0,-1,1525,1758,-0.908272,0.565958
308,-734,-0.747681,-0.790527,0,0,0,0,0,0,0,-1,1532,1758,-0.747706,0.790549
315,-734,-0.399292,-0.917236,0,0,0,0,0,0,0,-1,1539,1758,-0.399247,0.917249
322,-734,-0.502441,-1.06116,0,0,0,0,0,0,0,-1,1546,1758,-0.502469,1.06114
329,-734,-0.520386,-0.0842285,0,0,0,0,0,0,0,-1,1553,1758,-0.520431,0.0842156
336,-734,-0.730225,-0.230591,0.00469592,0.00388287,-0.00241554,0.00673891,0.00183988,-0.702031,0.00402212,0.0446486,1560,1758,-0.730225,0.230565
343,-734,-0.827148,-0.345093,0.00656817,0.00301301,-0.00218397,0.00760653,0.00197465,-0.443812,0.00455769,0.04571,1567,1758,-0.827151,0.345116
350,-734,-0.679199,-0.582031,0.00881673,0.00129903,-0.00154526,0.00912197,0.000993797,-0.195019,0.0057786,0.0428417,1574,1758,-0.679182,0.582027
357,-734,-0.168457,-0.379883,0.0106538,-0.000466358,-0.000526543,0.0106787,-0.000491234,-0.0472096,0.00728838,0.0411302,1581,1758,-0.168409,0.379878
364,-734,0.13562,-0.127808,0.0120652,-0.00272377,0.000727359,0.0121009,-0.00275946,0.0490248,0.0091272,0.0410565,1588,1758,0.13556,0.127795
371,-734,-0.339966,-0.0655518,0,0,0,0,0,0,0,-1,1595,1758,-0.339988,0.0655803
378,-734,0,0,0,0,0,0,0,0,0,-1,1602,1758,0,0
385,-734,0,0,0,0,0,0,0,0,0,-1,1609,1758,0,0
392,-734,0,0,0,0,0,0,0,0,0,-1,1616,1758,0,0
399,-734,0,0,0,0,0,0,0,0,0,-1,1623,1758,0,0
406,-734,0,0,0,0,0,0,0,0,0,-1,1630,1758,0,0
413,-734,0,0,0,0,0,0,0,0,0,-1,1637,1758,0,0
420,-734,0,0,0,0,0,0,0,0,0,-1,1644,1758,0,0
427,-734,0,0,0,0,0,0,0,0,0,-1,1651,1758,0,0
434,-734,0,0,0,0,0,0,0,0,0,-1,1658,1758,0,0
441,-734,0,0,0,0,0,0,0,0,0,-1,1665,1758,0,0
448,-734,0,0,0,0,0,0,0,0,0,-1,1672,1758,0,0
455,-734,0,0,0,0,0,0,0,0,0,-1,1679,1758,0,0
462,-734,0,0,0,0,0,0,0,0,0,-1,1686,1758,0,0
469,-734,0,0,0,0,0,0,0,0,0,-1,1693,1758,0,0
476,-734,0,0,0,0,0,0,0,0,0,-1,1700,1758,0,0
483,-734,0,0,0,0,0,0,0,0,0,-1,1707,1758,0,0
490,-734,0,0,0,0,0,0,0,0,0,-1,1714,1758,0,0
497,-734,0,0,0,0,0,0,0,0,0,-1,1721,1758,0,0
504,-734,0,0,0,0,0,0,0,0,0,-1,1728,1758,0,0
511,-734,0,0,0,0,0,0,0,0,0,-1,1735,1758,0,0
518,-734,0,0,0,0,0,0,0,0,0,-1,1742,1758,0,0
525,-734,0,0,0,0,0,0,0,0,0,-1,1749,1758,0,0
532,-734,0,0,0,0,0,0,0,0,0,-1,1756,1758,0,0
539,-734,0,0,0,0,0,0,0,0,0,-1,1763,1758,0,0
546,-734,0,0,0,0,0,0,0,0,0,-1,1770,1758,0,0
553,-734,0,0,0,0,0,0,0,0,0,-1,1777,1758,0,0
560,-734,0,0,0,0,0,0,0,0,0,-1,1784,1758,0,0
567,-734,0,0,0,0,0,0,0,0,0,-1,1791,1758,0,0
574,-734,0,0,0,0,0,0,0,0,0,-1,1798,1758,0,0
581,-734,0,0,0,0,0,0,0,0,0,-1,1805,1758,0,0
588,-734,0,0,0,0,0,0,0,0,0,-1,1812,1758,0,0
595,-734,0,0,0,0,0,0,0,0,0,-1,1819,1758,0,0
602,-734,0,0,0,0,0,0,0,0,0,-1,1826,1758,0,0
609,-734,0,0,0,0,0,0,0,0,0,-1,1833,1758,0,0
616,-734,0,0,0,0,0,0,0,0,0,-1,1840,1758,0,0
623,-734,0,0,0,0,0,0,0,0,0,-1,1847,1758,0,0
630,-734,0,0,0,0,0,0,0,0,0,-1,1854,1758,0,0
637,-734,0,0,0,0,0,0,0,0,0,-1,1861,1758,0,0
644,-734,0,0,0,0,0,0,0,0,0,-1,1868,1758,0,0
651,-734,0,0,0,0,0,0,0,0,0,-1,1875,1758,0,0
658,-734,0,0,0,0,0,0,0,0,0,-1,1882,1758,0,0
665,-734,0,0,0,0,0,0,0,0,0,-1,1889,1758,0,0
672,-734,0,0,0,0,0,0,0,0,0,-1,1896,1758,0,0
679,-734,0,0,0,0,0,0,0,0,0,-1,1903,1758,0,0
686,-734,0,0,0,0,0,0,0,0,0,-1,1910,1758,0,0
693,-734,0,0,0,0,0,0,0,0,0,-1,1917,1758,0,0
700,-734,0,0,0,0,0,0,0,0,0,-1,1924,1758,0,0
707,-734,0,0,0,0,0,0,0,0,0,-1,1931,1758,0,0
714,-734,0,0,0,0,0,0,0,0,0,-1,1938,1758,0,0
721,-734,0,0,0,0,0,0,0,0,0,-1,1945,1758,0,0
728,-734,0,0,0,0,0,0,0,0,0,-1,1952,1758,0,0
735,-734,0,0,0,0,0,0,0,0,0,-1,1959,1758,0,0
742,-734,0,0,0,0,0,0,0,0,0,-1,1966,1758,0,0
749,-734,0,0,0,0,0,0,0,0,0,-1,1973,1758,0,0
756,-734,0,0,0,0,0,0,0,0,0,-1,1980,1758,0,0
763,-734,0,0,0,0,0,0,0,0,0,-1,1987,1758,0,0
770,-734,0,0,0,0,0,0,0,0,0,-1,1994,1758,0,0
777,-734,0,0,0,0,0,0,0,0,0,-1,2001,1758,0,0
784,-734,0,0,0,0,0,0,0,0,0,-1,2008,1758,0,0
791,-734,0,0,0,0,0,0,0,0,0,-1,2015,1758,0,0
798,-734,0,0,0,0,0,0,0,0,0,-1,2022,1758,0,0
805,-734,0,0,0,0,0,0,0,0,0,-1,2029,1758,0,0
812,-734,0,0,0,0,0,0,0,0,0,-1,2036,1758,0,0
-700,-741,0,0,0,0,0,0,0,0,0,-1,524,1765,0,0
-693,-741,0,0,0,0,0,0,0,0,0,-1,531,1765,0,0
-686,-741,0,0,0,0,0,0,0,0,0,-1,538,1765,0,0
-679,-741,0,0,0,0,0,0,0,0,0,-1,545,1765,0,0
-672,-741,0,0,0,0,0,0,0,0,0,-1,552,1765,0,0
-665,-741,0,0,0,0,0,0,0,0,0,-1,559,1765,0,0
-658,-741,0,0,0,0,0,0,0,0,0,-1,566,1765,0,0
-651,-741,0,0,0,0,0,0,0,0,0,-1,573,1765,0,0
-644,-741,0,0,0,0,0,0,0,0,0,-1,580,1765,0,0
-637,-741,0,0,0,0,0,0,0,0,0,-1,587,1765,0,0
-630,-741,0,0,0,0,0,0,0,0,0,-1,594,1765,0,0
-623,-741,0,0,0,0,0,0,0,0,0,-1,601,1765,0,0
-616,-741,0,0,0,0,0,0,0,0,0,-1,608,1765,0,0
-609,-741,0,0,0,0,0,0,0,0,0,-1,615,1765,0,0
-602,-741,0,0,0,0,0,0,0,0,0,-1,622,1765,0,0
-595,-741,0,0,0,0,0,0,0,0,0,-1,629,1765,0,0
-588,-741,0,0,0,0,0,0,0,0,0,-1,636,1765,0,0
-581,-741,0,0,0,0,0,0,0,0,0,-1,643,1765,0,0
-574,-741,0,0,0,0,0,0,0,0,0,-1,650,1765,0,0
-567,-741,0,0,0,0,0,0,0,0,0,-1,657,1765,0,0
-560,-741,0,0,0,0,0,0,0,0,0,-1,664,1765,0,0
-553,-741,0,0,0,0,0,0,0,0,0,-1,671,1765,0,0
-546,-741,0,0,0,0,0,0,0,0,0,-1,678,1765,0,0
-539,-741,0,0,0,0,0,0,0,0,0,-1,685,1765,0,0
-532,-741,0,0,0,0,0,0,0,0,0,-1,692,1765,0,0
-525,-741,0,0,0,0,0,0,0,0,0,-1,699,1765,0,0
-518,-741,0,0,0,0,0,0,0,0,0,-1,706,1765,0,0
-511,-741,0,0,0,0,0,0,0,0,0,-1,713,1765,0,0
-504,-741,0,0,0,0,0,0,0,0,0,-1,720,1765,0,0
-497,-741,0,0,0,0,0,0,0,0,0,-1,727,1765,0,0
-490,-741,0,0,0,0,0,0,0,0,0,-1,734,1765,0,0
-483,-741,0,0,0,0,0,0,0,0,0,-1,741,1765,0,0
-476,-741,0,0,0,0,0,0,0,0,0,-1,748,1765,0,0
-469,-741,0,0,0,0,0,0,0,0,0,-1,755,1765,0,0
-462,-741,0,0,0,0,0,0,0,0,0,-1,762,1765,0,0
-455,-741,0,0,0,0,0,0,0,0,0,-1,769,1765,0,0
-448,-741,0,0,0,0,0,0,0,0,0,-1,776,1765,0,0
-441,-741,0,0,0,0,0,0,0,0,0,-1,783,1765,0,0
-434,-741,0,0,0,0,0,0,0,0,0,-1,790,1765,0,0
-427,-741,0,0,0,0,0,0,0,0,0,-1,797,1765,0,0
-420,-741,0,0,0,0,0,0,0,0,0,-1,804,1765,0,0
-413,-741,0,0,0,0,0,0,0,0,0,-1,811,1765,0,0
-406,-741,0,0,0,0,0,0,0,0,0,-1,818,1765,0,0
-399,-741,0,0,0,0,0,0,0,0,0,-1,825,1765,0,0
-392,-741,0,0,0,0,0,0,0,0,0,-1,832,1765,0,0
-385,-741,0,0,0,0,0,0,0,0,0,-1,839,1765,0,0
-378,-741,0,0,0,0,0,0,0,0,0,-1,846,1765,0,0
-371,-741,0,0,0,0,0,0,0,0,0,-1,853,1765,0,0
-364,-741,0,0,0,0,0,0,0,0,0,-1,860,1765,0,0
-357,-741,0,0,0,0,0,0,0,0,0,-1,867,1765,0,0
-350,-741,0,0,0,0,0,0,0,0,0,-1,874,1765,0,0
-343,-741,0,0,0,0,0,0,0,0,0,-1,881,1765,0,0
-336,-741,0,0,0,0,0,0,0,0,0,-1,888,1765,0,0
-329,-741,0,0,0,0,0,0,0,0,0,-1,895,1765,0,0
-322,-741,0,0,0,0,0,0,0,0,0,-1,902,1765,0,0
-315,-741,0,0,0,0,0,0,0,0,0,-1,909,1765,0,0
-308,-741,0,0,0,0,0,0,0,0,0,-1,916,1765,0,0
-301,-741,0,0,0,0,0,0,0,0,0,-1,923,1765,0,0
-294,-741,0,0,0,0,0,0,0,0,0,-1,930,1765,0,0
-287,-741,0,0,0,0,0,0,0,0,0,-1,937,1765,0,0
-280,-741,0,0,0,0,0,0,0,0,0,-1,944,1765,0,0
-273,-741,0,0,0,0,0,0,0,0,0,-1,951,1765,0,0
-266,-741,0,0,0,0,0,0,0,0,0,-1,958,1765,0,0
-259,-741,0,0,0,0,0,0,0,0,0,-1,965,1765,0,0
-252,-741,0,0,0,0,0,0,0,0,0,-1,972,1765,0,0
-245,-741,0,0,0,0,0,0,0,0,0,-1,979,1765,0,0
-238,-741,-0.195251,0.0300293,0.0312736,0.0133045,0.0224134,0.0464361,-0.00185806,0.594776,0.031595,0.0425448,986,1765,-0.195272,-0.0300624
-231,-741,-0.210815,-0.183105,0.0329398,0.0133367,0.0221829,0.0473901,-0.00111352,0.577369,0.031971,0.04365,993,1765,-0.21083,0.183077
-224,-741,-0.235718,-0.188599,0.0339521,0.0127934,0.0221047,0.0478787,-0.00113321,0.562207,0.0323035,0.0406159,1000,1765,-0.235703,0.188603
-217,-741,-0.259277,0.10144,0.0338037,0.0106709,0.0217449,0.046867,-0.0023924,0.540973,0.0320719,0.0396381,1007,1765,-0.259301,-0.101474
-210,-741,-0.474854,0.0726318,0.0327615,0.00738528,0.0204937,0.044177,-0.00403015,0.508217,0.0308825,0.0425203,1014,1765,-0.474861,-0.0726789
-203,-741,-0.125122,-0.209961,0.0299798,0.00350854,0.0192133,0.0400751,-0.0065868,0.483787,0.0291614,0.0406157,1021,1765,-0.125135,0.209959
-196,-741,0.213379,-0.0098877,0.0281732,-0.000324122,0.0180384,0.0369117,-0.00906258,0.45112,0.0281197,0.0430135,1028,1765,0.213427,0.00985789
-189,-741,0.248291,0.100952,0.0258819,-0.00385531,0.0157731,0.0326897,-0.0106631,0.407454,0.0260844,0.0459025,1035,1765,0.248343,-0.10098
-182,-741,0.562378,0.275879,0.0223529,-0.00728749,0.0146901,0.0283998,-0.0133344,0.390495,0.024613,0.0465078,1042,1765,0.562369,-0.275832
-175,-741,0.780762,0.577515,0.0188719,-0.0100229,0.0131129,0.0239354,-0.0150864,0.368507,0.0227215,0.0427693,1049,1765,0.780809,-0.577568
-168,-741,0.503418,0.633301,0.0136391,-0.00890511,0.0107587,0.0179494,-0.0132154,0.38105,0.0180621,0.0396935,1056,1765,0.503384,-0.633283
-161,-741,-0.0969238,0.539185,0.00901091,-0.00601383,0.00852722,0.0128629,-0.00986584,0.424293,0.0131604,0.0397584,1063,1765,-0.0968697,-0.539147
-154,-741,-0.552002,0.311646,0.00439431,-0.00235546,0.00689829,0.00869902,-0.00666017,0.557899,0.00889364,0.0378684,1070,1765,-0.551993,-0.311669
-147,-741,-0.965942,-0.0878906,-0.00233348,0.00195895,0.00512664,0.00537049,-0.00574502,0.983634,0.00641876,0.0392346,1077,1765,-0.965924,0.0879257
-140,-741,-0.123291,0.00183105,-0.00778505,0.00733722,0.00438294,0.0085157,-0.00896353,1.30813,0.0100927,0.0418611,1084,1765,-0.12329,-0.00187304
-133,-741,-0.0467529,0.00952148,-0.0105262,0.012041,0.00375521,0.0126495,-0.0111346,1.41016,0.013741,0.0404222,1091,1765,-0.0467545,-0.00955285
-126,-741,-0.111206,0.0216064,-0.0122605,0.0158097,0.00364793,0.016276,-0.0127268,1.44365,0.0167866,0.0417541,1098,1765,-0.111151,-0.0215711
-119,-741,-0.158691,0.0198975,-0.0128853,0.0186007,0.00305314,0.018894,-0.0131786,1.47502,0.0186149,0.0435932,1105,1765,-0.158643,-0.0198623
-112,-741,0.144531,-0.186646,-0.0135269,0.0203871,0.00276638,0.0206113,-0.0137511,1.48994,0.0199705,0.0370896,1112,1765,0.144557,0.18666
-105,-741,0.115967,-0.114014,-0.0137615,0.0206735,0.00264406,0.0208754,-0.0139633,1.49461,0.0202456,0.0299182,1119,1765,0.11593,0.113999
-98,-741,0.0484619,-0.0982666,-0.0133953,0.0198373,0.00234735,0.0200023,-0.0135602,1.50063,0.019496,0.026079,1126,1765,0.0484491,0.0983175
-91,-741,0.0496826,-0.0844727,-0.0126965,0.0177343,0.00187322,0.0178492,-0.0128114,1.50955,0.0177814,0.0267716,1133,1765,0.0496882,0.0844877
-84,-741,0.0262451,-0.0865479,-0.0111779,0.0144001,0.00170643,0.0145134,-0.0112913,1.50447,0.014937,0.0270215,1140,1765,0.0262125,0.0865111
-77,-741,-0.0111084,-0.0875244,-0.00877042,0.0111413,0.00124441,0.0112188,-0.00884789,1.50862,0.0116124,0.025543,1147,1765,-0.0111482,0.0875829
-70,-741,-0.0333252,-0.0684814,-0.00671084,0.00805463,0.000713542,0.00808903,-0.00674524,1.52262,0.00857627,0.0263,1154,1765,-0.0333664,0.0684364
-63,-741,-0.0579834,-0.0679932,-0.00457707,0.00439306,0.000127101,0.00439486,-0.00457887,1.55663,0.00518135,0.0250818,1161,1765,-0.0580049,0.0680388
-56,-741,-0.0429688,-0.092041,-0.00308013,0.00198869,-0.000349914,0.00201273,-0.00310417,-1.5022,0.00297656,0.0216292,1168,1765,-0.042908,0.0920575
-49,-741,-0.0667725,-0.0726318,-0.00200304,0.000703425,-0.000906117,0.000978777,-0.00227839,-1.27578,0.00192978,0.0148594,1175,1765,-0.0667547,0.0726713
-42,-741,-0.0681152,-0.0603027,-0.00137783,0.000366276,-0.00140748,0.00114997,-0.00216152,-1.06275,0.00194139,0.010742,1182,1765,-0.0680858,0.0603633
-35,-741,-0.0605469,-0.0628662,-0.00112332,0.000211696,-0.001684,0.00135566,-0.00226728,-0.97409,0.00211367,0.00758073,1189,1765,-0.0604984,0.0628717
-28,-741,-0.0458984,-0.0688477,-0.00101007,0.000804395,-0.00174513,0.00186403,-0.00206971,-1.0251,0.00227218,0.0112751,1196,1765,-0.0458775,0.0688264
-21,-741,-0.0355225,-0.0490723,-0.00125588,0.00181794,-0.00170717,0.0025781,-0.00201603,-1.15188,0.00265903,0.0155704,1203,1765,-0.0354794,0.0490843
-14,-741,-0.0645752,-0.0411377,-0.00149489,0.00292632,-0.000770769,0.00305684,-0.00162541,-1.40305,0.00274508,0.0156149,1210,1765,-0.0646221,0.0410895
-7,-741,-0.0693359,-0.0626221,-0.00102925,0.00377914,7.71654e-05,0.00378038,-0.00103049,1.55475,0.0029249,0.0151881,1217,1765,-0.0692986,0.0626656
0,-741,-0.060791,-0.0777588,-0.000330484,0.0043175,0.000938346,0.00449978,-0.00051277,1.37892,0.00318457,0.0154201,1224,1765,-0.0607904,0.0777838
7,-741,-0.0667725,-0.0933838,6.06465e-05,0.00479336,0.00182147,0.0054132,-0.000559197,1.24279,0.00380891,0.0164151,1231,1765,-0.0667292,0.0933394
14,-741,-0.0693359,-0.0701904,0.000404075,0.00495093,0.00294186,0.00639544,-0.00104043,1.11436,0.0046494,0.0147831,1238,1765,-0.0693515,0.0702018
21,-741,-0.0605469,-0.0628662,0.00067681,0.00487667,0.00410441,0.00738715,-0.00183367,1.02185,0.00563631,0.0114682,1245,1765,-0.0605926,0.0628388
28,-741,-0.0761719,-0.0541992,0.00076125,0.00426335,0.00474967,0.00757447,-0.00254987,0.962002,0.00608051,0.0123961,1252,1765,-0.076184,0.0541766
35,-741,-0.0733643,-0.0415039,0.00104505,0.00417666,0.0050905,0.00793673,-0.00271502,0.934603,0.00639136,0.014029,1259,1765,-0.0733697,0.0414999
42,-741,-0.0826416,-0.0583496,0.00172512,0.00403466,0.00523344,0.00823922,-0.00247944,0.893984,0.0064794,0.0133517,1266,1765,-0.0826508,0.058335
49,-741,-0.0852051,-0.0633545,0.00207348,0.00338896,0.00517989,0.00795271,-0.00249027,0.84855,0.0062982,0.0097618,1273,1765,-0.0852554,0.0633611
56,-741,-0.0996094,-0.0499268,0.00244305,0.002948,0.00479034,0.00749251,-0.00210146,0.811726,0.00582329,0.0103884,1280,1765,-0.0996448,0.0498739
63,-741,-0.0943604,-0.0682373,0.00354969,0.00281548,0.00473311,0.00792991,-0.00156474,0.746695,0.00587803,0.0143693,1287,1765,-0.0943386,0.0682239
70,-741,-0.105957,-0.0617676,0.00497658,0.00309215,0.00459931,0.00872919,-0.000660462,0.684366,0.00605164,0.0157989,1294,1765,-0.105942,0.0617758
77,-741,-0.114014,-0.0195313,0.00686616,0.00325876,0.00446954,0.00988222,0.000242699,0.593615,0.00650875,0.0130377,1301,1765,-0.114027,0.0195568
84,-741,-0.112671,-0.0179443,0.00860077,0.00354813,0.00415409,0.0109364,0.00121248,0.512202,0.00692227,0.0151007,1308,1765,-0.112719,0.0179043
91,-741,-0.10791,-0.0283203,0.0102593,0.0038504,0.00402453,0.0121993,0.00191039,0.449181,0.00757675,0.0124513,1315,1765,-0.107894,0.0282829
98,-741,-0.0771484,-0.0439453,0.0117614,0.00416,0.00387112,0.0133858,0.00253568,0.397287,0.00821018,0.00993829,1322,1765,-0.0772078,0.043968
105,-741,-0.0509033,-0.0582275,0.0127926,0.00521943,0.00396665,0.0144899,0.00352216,0.40431,0.0087261,0.0106709,1329,1765,-0.0509303,0.0582043
112,-741,-0.0552979,-0.0827637,0.0133679,0.00626831,0.0043229,0.0154117,0.0042245,0.441642,0.00919567,0.0106491,1336,1765,-0.0553413,0.0827708
119,-741,-0.0611572,-0.086792,0.0134485,0.0072223,0.00451636,0.0158208,0.00485007,0.483645,0.00935919,0.0135133,1343,1765,-0.0611628,0.0867678
126,-741,-0.0374756,-0.0882568,0.0129741,0.007983,0.00466023,0.0157649,0.0051922,0.539576,0.0092769,0.0186929,1350,1765,-0.0375291,0.088212
133,-741,-0.0384521,-0.0837402,0.0120943,0.00888182,0.0049928,0.0157329,0.00524326,0.629769,0.0092502,0.0144308,1357,1765,-0.0384875,0.0837381
140,-741,-0.0700684,-0.083374,0.010543,0.00906032,0.00520676,0.0150609,0.00454237,0.714685,0.00892069,0.0110213,1364,1765,-0.0700646,0.083354
147,-741,-0.0598145,-0.0761719,0.00891253,0.00925765,0.00520178,0.0142897,0.00388045,0.801979,0.00853239,0.00966367,1371,1765,-0.0598227,0.0761939
154,-741,-0.0549316,-0.0731201,0.00795377,0.0092401,0.00483427,0.0134738,0.00372007,0.851532,0.00803489,0.00762055,1378,1765,-0.054977,0.0731587
161,-741,-0.0673828,-0.0640869,0.00712377,0.00915674,0.004296,0.0125549,0.00372564,0.901568,0.00744551,0.00906815,1385,1765,-0.0674169,0.0640815
168,-741,-0.0960693,-0.0638428,0.00604359,0.00861508,0.00346119,0.0110216,0.00363705,0.963236,0.00648479,0.0139352,1392,1765,-0.0961273,0.0638241
175,-741,-0.09021,-0.0582275,0.00524136,0.00772657,0.00260088,0.00936643,0.00360149,1.00825,0.00545559,0.0145423,1399,1765,-0.0902048,0.0582205
182,-741,-0.0581055,-0.0723877,0.00473398,0.00669823,0.00179902,0.00776575,0.00366646,1.03525,0.00448588,0.0116828,1406,1765,-0.0580916,0.0724118
189,-741,-0.0726318,-0.0715332,0.00489743,0.00545662,0.00121072,0.0064196,0.00393444,0.898876,0.00373771,0.0142623,1413,1765,-0.072587,0.0714743
196,-741,-0.12439,-0.0628662,0.00518891,0.00425531,0.000538581,0.00543483,0.00400939,0.428337,0.00325387,0.0157535,1420,1765,-0.124359,0.0628127
203,-741,-0.120972,-0.0571289,0.00499777,0.0031461,-0.000227802,0.00502538,0.00311848,-0.120629,0.00292938,0.0136068,1427,1765,-0.120956,0.057148
210,-741,-0.129028,-0.0472412,0.00449671,0.00151275,-0.00114007,0.00488243,0.00112703,-0.326242,0.00295189,0.0156941,1434,1765,-0.129082,0.047229
217,-741,-0.10498,-0.0480957,0.00378436,0.000225696,-0.00195521,0.00464867,-0.000638615,-0.416228,0.00333245,0.0172687,1441,1765,-0.105003,0.0481366
224,-741,-0.0787354,-0.0513916,0.00314808,-0.000703403,-0.00246243,0.00434837,-0.00190369,-0.453549,0.00370047,0.0225887,1448,1765,-0.0787766,0.0514123
231,-741,0.0507813,-0.0439453,0.00235934,-0.00134911,-0.00263136,0.00372415,-0.00271393,-0.478474,0.00373225,0.0291623,1455,1765,0.0508332,0.0438917
238,-741,0.0870361,-0.0518799,0.00132519,-0.00191124,-0.00266246,0.00282263,-0.00340869,-0.512335,0.00360295,0.0321302,1462,1765,0.0870904,0.0518771
245,-741,0.0996094,-0.0582275,0.00010578,-0.0023976,-0.00267856,0.00181067,-0.0041025,-0.566824,0.0034984,0.0361887,1469,1765,0.0996145,0.0582715
252,-741,-0.0334473,-0.0234375,-0.0012729,-0.00279467,-0.00248747,0.000567455,-0.00463502,-0.636974,0.00329549,0.0385504,1476,1765,-0.0335002,0.0234024
259,-741,-0.224243,-0.0539551,-0.00253706,-0.00296328,-0.00200262,-0.000736241,-0.0047641,-0.73239,0.00296132,0.0404243,1483,1765,-0.224186,0.0539871
266,-741,-0.266968,-0.310181,-0.00350801,-0.00345539,-0.00108029,-0.00240109,-0.0045623,-0.797573,0.00263526,0.0425135,1490,1765,-0.26698,0.3102
273,-741,-0.107178,-0.517578,-0.00396911,-0.00342863,-0.000384619,-0.00322881,-0.00416894,-1.09164,0.00252495,0.0438813,1497,1765,-0.107159,0.517567
280,-741,0.0810547,-0.405029,-0.00430778,-0.00257121,0.000328064,-0.0025113,-0.00436769,1.39017,0.00253112,0.0437162,1504,1765,0.0810337,0.405035
287,-741,-0.1073,-0.403564,-0.00447845,-0.00188757,0.000415288,-0.00182263,-0.00454338,1.41568,0.00264015,0.0453957,1511,1765,-0.10725,0.403548
294,-741,-0.266724,-0.48938,-0.0048617,-0.00156308,-0.000215896,-0.00154901,-0.00487577,-1.50572,0.00287672,0.0442707,1518,1765,-0.266682,0.489364
301,-741,-0.287842,-0.411011,-0.00407253,-0.000644754,-0.000356834,-0.000608001,-0.00410928,-1.46816,0.00256102,0.0414236,1525,1765,-0.287804,0.411019
308,-741,-0.124268,-0.356079,-0.00198389,-0.00020286,-0.000493041,-7.54818e-05,-0.00211127,-1.31797,0.00138304,0.0390914,1532,1765,-0.12421,0.356093
315,-741,-0.0117188,-0.663818,-0.000593222,0.000601234,-0.000809765,0.00101019,-0.00100217,-1.10314,0.00116184,0.0424862,1539,1765,-0.0117652,0.663781
322,-741,0.0979004,-0.80542,0,0,0,0,0,0,0,-1,1546,1765,0.0979039,0.805405
329,-741,-0.0402832,-0.180664,0.00273309,0.00151674,-0.00184901,0.00407137,0.000178452,-0.626512,0.00265676,0.0407961,1553,1765,-0.0402235,0.180705
336,-741,-0.290161,-0.226685,0.00424526,0.00213458,-0.00238927,0.00580188,0.000577954,-0.577434,0.00369039,0.0412313,1560,1765,-0.290211,0.226727
343,-741,-0.338257,-0.412964,0.00669864,0.00150566,-0.00226081,0.00754497,0.000659331,-0.3582,0.00482524,0.043189,1567,1765,-0.338243,0.413009
350,-741,-0.596436,-0.454834,0.00971808,-0.000102046,-0.00167458,0.00999579,-0.000379752,-0.16434,0.00679398,0.0434762,1574,1765,-0.596428,0.454792
357,-741,-0.0759277,-0.225952,0.0125343,-0.00170991,-0.000607184,0.0125601,-0.00173575,-0.042524,0.0090079,0.0406591,1581,1765,-0.0758698,0.225895
364,-741,0,0,0,0,0,0,0,0,0,-1,1588,1765,0,0
371,-741,0,0,0,0,0,0,0,0,0,-1,1595,1765,0,0
378,-741,0,0,0,0,0,0,0,0,0,-1,1602,1765,0,0
385,-741,0,0,0,0,0,0,0,0,0,-1,1609,1765,0,0
392,-741,0,0,0,0,0,0,0,0,0,-1,1616,1765,0,0
399,-741,0,0,0,0,0,0,0,0,0,-1,1623,1765,0,0
406,-741,0,0,0,0,0,0,0,0,0,-1,1630,1765,0,0
413,-741,0,0,0,0,0,0,0,0,0,-1,1637,1765,0,0
420,-741,0,0,0,0,0,0,0,0,0,-1,1644,1765,0,0
427,-741,0,0,0,0,0,0,0,0,0,-1,1651,1765,0,0
434,-741,0,0,0,0,0,0,0,0,0,-1,1658,1765,0,0
441,-741,0,0,0,0,0,0,0,0,0,-1,1665,1765,0,0
448,-741,0,0,0,0,0,0,0,0,0,-1,1672,1765,0,0
455,-741,0,0,0,0,0,0,0,0,0,-1,1679,1765,0,0
462,-741,0,0,0,0,0,0,0,0,0,-1,1686,1765,0,0
469,-741,0,0,0,0,0,0,0,0,0,-1,1693,1765,0,0
476,-741,0,0,0,0,0,0,0,0,0,-1,1700,1765,0,0
483,-741,0,0,0,0,0,0,0,0,0,-1,1707,1765,0,0
490,-741,0,0,0,0,0,0,0,0,0,-1,1714,1765,0,0
497,-741,0,0,0,0,0,0,0,0,0,-1,1721,1765,0,0
504,-741,0,0,0,0,0,0,0,0,0,-1,1728,1765,0,0
511,-741,0,0,0,0,0,0,0,0,0,-1,1735,1765,0,0
518,-741,0,0,0,0,0,0,0,0,0,-1,1742,1765,0,0
525,-741,0,0,0,0,0,0,0,0,0,-1,1749,1765,0,0
532,-741,0,0,0,0,0,0,0,0,0,-1,1756,1765,0,0
539,-741,0,0,0,0,0,0,0,0,0,-1,1763,1765,0,0
546,-741,0,0,0,0,0,0,0,0,0,-1,1770,1765,0,0
553,-741,0,0,0,0,0,0,0,0,0,-1,1777,1765,0,0
560,-741,0,0,0,0,0,0,0,0,0,-1,1784,1765,0,0
567,-741,0,0,0,0,0,0,0,0,0,-1,1791,1765,0,0
574,-741,0,0,0,0,0,0,0,0,0,-1,1798,1765,0,0
581,-741,0,0,0,0,0,0,0,0,0,-1,1805,1765,0,0
588,-741,0,0,0,0,0,0,0,0,0,-1,1812,1765,0,0
595,-741,0,0,0,0,0,0,0,0,0,-1,1819,1765,0,0
602,-741,0,0,0,0,0,0,0,0,0,-1,1826,1765,0,0
609,-741,0,0,0,0,0,0,0,0,0,-1,1833,1765,0,0
616,-741,0,0,0,0,0,0,0,0,0,-1,1840,1765,0,0
623,-741,0,0,0,0,0,0,0,0,0,-1,1847,1765,0,0
630,-741,0,0,0,0,0,0,0,0,0,-1,1854,1765,0,0
637,-741,0,0,0,0,0,0,0,0,0,-1,1861,1765,0,0
644,-741,0,0,0,0,0,0,0,0,0,-1,1868,1765,0,0
651,-741,0,0,0,0,0,0,0,0,0,-1,1875,1765,0,0
658,-741,0,0,0,0,0,0,0,0,0,-1,1882,1765,0,0
665,-741,0,0,0,0,0,0,0,0,0,-1,1889,1765,0,0
672,-741,0,0,0,0,0,0,0,0,0,-1,1896,1765,0,0
679,-741,0,0,0,0,0,0,0,0,0,-1,1903,1765,0,0
686,-741,0,0,0,0,0,0,0,0,0,-1,1910,1765,0,0
693,-741,0,0,0,0,0,0,0,0,0,-1,1917,1765,0,0
700,-741,0,0,0,0,0,0,0,0,0,-1,1924,1765,0,0
707,-741,0,0,0,0,0,0,0,0,0,-1,1931,1765,0,0
714,-741,0,0,0,0,0,0,0,0,0,-1,1938,1765,0,0
721,-741,0,0,0,0,0,0,0,0,0,-1,1945,1765,0,0
728,-741,0,0,0,0,0,0,0,0,0,-1,1952,1765,0,0
735,-741,0,0,0,0,0,0,0,0,0,-1,1959,1765,0,0
742,-741,0,0,0,0,0,0,0,0,0,-1,1966,1765,0,0
749,-741,0,0,0,0,0,0,0,0,0,-1,1973,1765,0,0
756,-741,0,0,0,0,0,0,0,0,0,-1,1980,1765,0,0
763,-741,0,0,0,0,0,0,0,0,0,-1,1987,1765,0,0
770,-741,0,0,0,0,0,0,0,0,0,-1,1994,1765,0,0
777,-741,0,0,0,0,0,0,0,0,0,-1,2001,1765,0,0
784,-741,0,0,0,0,0,0,0,0,0,-1,2008,1765,0,0
791,-741,0,0,0,0,0,0,0,0,0,-1,2015,1765,0,0
798,-741,0,0,0,0,0,0,0,0,0,-1,2022,1765,0,0
805,-741,0,0,0,0,0,0,0,0,0,-1,2029,1765,0,0
812,-741,0,0,0,0,0,0,0,0,0,-1,2036,1765,0,0
-700,-748,0,0,0,0,0,0,0,0,0,-1,524,1772,0,0
-693,-748,0,0,0,0,0,0,0,0,0,-1,531,1772,0,0
-686,-748,0,0,0,0,0,0,0,0,0,-1,538,1772,0,0
-679,-748,0,0,0,0,0,0,0,0,0,-1,545,1772,0,0
-672,-748,0,0,0,0,0,0,0,0,0,-1,552,1772,0,0
-665,-748,0,0,0,0,0,0,0,0,0,-1,559,1772,0,0
-658,-748,0,0,0,0,0,0,0,0,0,-1,566,1772,0,0
-651,-748,0,0,0,0,0,0,0,0,0,-1,573,1772,0,0
-644,-748,0,0,0,0,0,0,0,0,0,-1,580,1772,0,0
-637,-748,0,0,0,0,0,0,0,0,0,-1,587,1772,0,0
-630,-748,0,0,0,0,0,0,0,0,0,-1,594,1772,0,0
-623,-748,0,0,0,0,0,0,0,0,0,-1,601,1772,0,0
-616,-748,0,0,0,0,0,0,0,0,0,-1,608,1772,0,0
-609,-748,0,0,0,0,0,0,0,0,0,-1,615,1772,0,0
-602,-748,0,0,0,0,0,0,0,0,0,-1,622,1772,0,0
-595,-748,0,0,0,0,0,0,0,0,0,-1,629,1772,0,0
-588,-748,0,0,0,0,0,0,0,0,0,-1,636,1772,0,0
-581,-748,0,0,0,0,0,0,0,0,0,-1,643,1772,0,0
-574,-748,0,0,0,0,0,0,0,0,0,-1,650,1772,0,0
-567,-748,0,0,0,0,0,0,0,0,0,-1,657,1772,0,0
-560,-748,0,0,0,0,0,0,0,0,0,-1,664,1772,0,0
-553,-748,0,0,0,0,0,0,0,0,0,-1,671,1772,0,0
-546,-748,0,0,0,0,0,0,0,0,0,-1,678,1772,0,0
-539,-748,0,0,0,0,0,0,0,0,0,-1,685,1772,0,0
-532,-748,0,0,0,0,0,0,0,0,0,-1,692,1772,0,0
-525,-748,0,0,0,0,0,0,0,0,0,-1,699,1772,0,0
-518,-748,0,0,0,0,0,0,0,0,0,-1,706,1772,0,0
-511,-748,0,0,0,0,0,0,0,0,0,-1,713,1772,0,0
-504,-748,0,0,0,0,0,0,0,0,0,-1,720,1772,0,0
-497,-748,0,0,0,0,0,0,0,0,0,-1,727,1772,0,0
-490,-748,0,0,0,0,0,0,0,0,0,-1,734,1772,0,0
-483,-748,0,0,0,0,0,0,0,0,0,-1,741,1772,0,0
-476,-748,0,0,0,0,0,0,0,0,0,-1,748,1772,0,0
-469,-748,0,0,0,0,0,0,0,0,0,-1,755,1772,0,0
-462,-748,0,0,0,0,0,0,0,0,0,-1,762,1772,0,0
-455,-748,0,0,0,0,0,0,0,0,0,-1,769,1772,0,0
-448,-748,0,0,0,0,0,0,0,0,0,-1,776,1772,0,0
-441,-748,0,0,0,0,0,0,0,0,0,-1,783,1772,0,0
-434,-748,0,0,0,0,0,0,0,0,0,-1,790,1772,0,0
-427,-748,0,0,0,0,0,0,0,0,0,-1,797,1772,0,0
-420,-748,0,0,0,0,0,0,0,0,0,-1,804,1772,0,0
-413,-748,0,0,0,0,0,0,0,0,0,-1,811,1772,0,0
-406,-748,0,0,0,0,0,0,0,0,0,-1,818,1772,0,0
-399,-748,0,0,0,0,0,0,0,0,0,-1,825,1772,0,0
-392,-748,0,0,0,0,0,0,0,0,0,-1,832,1772,0,0
-385,-748,0,0,0,0,0,0,0,0,0,-1,839,1772,0,0
-378,-748,0,0,0,0,0,0,0,0,0,-1,846,1772,0,0
-371,-748,0,0,0,0,0,0,0,0,0,-1,853,1772,0,0
-364,-748,0,0,0,0,0,0,0,0,0,-1,860,1772,0,0
-357,-748,0,0,0,0,0,0,0,0,0,-1,867,1772,0,0
-350,-748,0,0,0,0,0,0,0,0,0,-1,874,1772,0,0
-343,-748,0,0,0,0,0,0,0,0,0,-1,881,1772,0,0
-336,-748,0,0,0,0,0,0,0,0,0,-1,888,1772,0,0
-329,-748,0,0,0,0,0,0,0,0,0,-1,895,1772,0,0
-322,-748,0,0,0,0,0,0,0,0,0,-1,902,1772,0,0
-315,-748,0,0,0,0,0,0,0,0,0,-1,909,1772,0,0
-308,-748,0,0,0,0,0,0,0,0,0,-1,916,1772,0,0
-301,-748,0,0,0,0,0,0,0,0,0,-1,923,1772,0,0
-294,-748,0,0,0,0,0,0,0,0,0,-1,930,1772,0,0
-287,-748,0,0,0,0,0,0,0,0,0,-1,937,1772,0,0
-280,-748,0,0,0,0,0,0,0,0,0,-1,944,1772,0,0
-273,-748,0,0,0,0,0,0,0,0,0,-1,951,1772,0,0
-266,-748,0,0,0,0,0,0,0,0,0,-1,958,1772,0,0
-259,-748,0,0,0,0,0,0,0,0,0,-1,965,1772,0,0
-252,-748,0,0,0,0,0,0,0,0,0,-1,972,1772,0,0
-245,-748,0,0,0,0,0,0,0,0,0,-1,979,1772,0,0
-238,-748,0,0,0,0,0,0,0,0,0,-1,986,1772,0,0
-231,-748,0,0,0,0,0,0,0,0,0,-1,993,1772,0,0
-224,-748,0,0,0,0,0,0,0,0,0,-1,1000,1772,0,0
-217,-748,-0.53064,-0.353516,0.0502111,0.0110844,0.0284535,0.0651779,-0.00388235,0.484236,0.0448021,0.0428723,1007,1772,-0.530639,0.353575
-210,-748,-0.753479,-0.200317,0.0493176,0.00723603,0.0274327,0.0628495,-0.00629583,0.458253,0.0441481,0.0467359,1014,1772,-0.753482,0.200291
-203,-748,-1.20667,-0.383911,0.0451407,0.00260925,0.0260498,0.0575027,-0.00975272,0.443083,0.0419655,0.0449542,1021,1772,-1.20668,0.383898
-196,-748,0.32605,0.110107,0.0420389,-0.00191785,0.0246775,0.0531063,-0.0129853,0.421593,0.0404338,0.0409088,1028,1772,0.326082,-0.110116
-189,-748,0.0939941,0.231567,0,0,0,0,0,0,0,-1,1035,1772,0.0940303,-0.231539
-182,-748,0.331543,0.392456,0.0333568,-0.00956462,0.0206404,0.0416717,-0.0178796,0.382959,0.0352848,0.04435,1042,1772,0.33158,-0.392413
-175,-748,0.459473,0.476196,0.0282702,-0.0125755,0.0185679,0.0354492,-0.0197545,0.36893,0.0322984,0.0421437,1049,1772,0.45946,-0.476148
-168,-748,0.466919,0.465454,0.0203223,-0.0100608,0.0156524,0.0269431,-0.0166817,0.400169,0.025418,0.0453146,1056,1772,0.466944,-0.465453
-161,-748,-0.439331,0.837769,0,0,0,0,0,0,0,-1,1063,1772,-0.439274,-0.837762
-154,-748,-1.11084,0.581665,0.00604407,1.46193e-05,0.0107915,0.014234,-0.00817532,0.64919,0.0130947,0.045308,1070,1772,-1.11089,-0.581683
-147,-748,-0.264282,-0.186401,-0.00369545,0.00577298,0.00850531,0.0107729,-0.00869535,1.03935,0.0112613,0.0447634,1077,1772,-0.264268,0.186459
-140,-748,0.0291748,0.123657,-0.0113847,0.0128614,0.00749973,0.0149937,-0.013517,1.29379,0.016468,0.0429411,1084,1772,0.0291359,-0.123598
-133,-748,-0.00805664,0.00720215,0,0,0,0,0,0,0,-1,1091,1772,-0.0080695,-0.00717483
-126,-748,-0.076416,0.0140381,-0.017766,0.023475,0.00630747,0.0244181,-0.0187091,1.42237,0.0249722,0.0411215,1098,1772,-0.0764152,-0.0140275
-119,-748,-0.149414,0.0383301,-0.0189961,0.0269598,0.00543,0.0275927,-0.019629,1.45477,0.0273924,0.0425075,1105,1772,-0.149466,-0.0382769
-112,-748,-0.186279,0.00280762,0,0,0,0,0,0,0,-1,1112,1772,-0.186273,-0.00275426
-105,-748,0.535645,-0.108276,-0.0201005,0.029075,0.00481963,0.0295429,-0.0205684,1.47401,0.029086,0.0413878,1119,1772,0.535646,0.108304
-98,-748,0.279297,-0.105225,-0.0193868,0.0277144,0.00440618,0.0281231,-0.0197955,1.47832,0.0278047,0.0411456,1126,1772,0.279265,0.105241
-91,-748,0.193237,-0.125977,-0.0180797,0.0247323,0.00373349,0.0250554,-0.0184028,1.48446,0.0251884,0.0424175,1133,1772,0.193272,0.125977
-84,-748,0.0155029,-0.0961914,-0.0156769,0.0200973,0.0033591,0.0204099,-0.0159896,1.47798,0.0210669,0.0428602,1140,1772,0.0155048,0.0962145
-77,-748,-0.03479,-0.0877686,-0.0123148,0.015616,0.00250964,0.0158397,-0.0125385,1.48189,0.0164211,0.0428805,1147,1772,-0.0347802,0.0877985
-70,-748,0.00842285,-0.0966797,-0.00947238,0.0114862,0.0015975,0.0116072,-0.00959344,1.49516,0.0122586,0.042187,1154,1772,0.00846413,0.0967352
-63,-748,0.122437,-0.116943,-0.00660642,0.00673201,0.000612937,0.00676011,-0.00663453,1.52497,0.00773351,0.0421169,1161,1772,0.122381,0.116956
-56,-748,-0.0362549,-0.0609131,-0.00454709,0.00351538,-0.000256157,0.00352351,-0.00455522,-1.53907,0.00467691,0.041829,1168,1772,-0.0362152,0.0609252
-49,-748,-0.065918,-0.0595703,-0.00305896,0.00178502,-0.00114853,0.00204354,-0.00331749,-1.3494,0.00312419,0.032719,1175,1772,-0.0658707,0.0595459
-42,-748,-0.0588379,-0.0698242,-0.00247606,0.00125109,-0.00194497,0.00208118,-0.00330615,-1.16741,0.00313707,0.0207584,1182,1772,-0.0588479,0.0698227
-35,-748,-0.0773926,-0.0650635,-0.002323,0.000964494,-0.00238139,0.00221435,-0.00357285,-1.08747,0.00337178,0.0127151,1189,1772,-0.0774067,0.0650075
-28,-748,-0.102295,-0.0551758,-0.00218634,0.00170163,-0.00245224,0.00288695,-0.00337166,-1.12055,0.00361702,0.0105859,1196,1772,-0.102292,0.0551453
-21,-748,-0.0726318,-0.0227051,-0.00241128,0.00299388,-0.00238988,0.00389899,-0.00331639,-1.20876,0.00417033,0.0152313,1203,1772,-0.0726406,0.0227379
-14,-748,-0.0756836,-0.05896,-0.002607,0.0043648,-0.00115797,0.0045521,-0.0027943,-1.41044,0.00428173,0.0156637,1210,1772,-0.0757441,0.0589716
-7,-748,-0.081543,-0.0794678,-0.00198959,0.00546403,7.26769e-05,0.00546474,-0.00199029,1.56105,0.00445726,0.0155603,1217,1772,-0.0815292,0.0795192
0,-748,-0.0661621,-0.0738525,-0.00107866,0.00615547,0.00145304,0.00643641,-0.0013596,1.3798,0.00480864,0.0157071,1224,1772,-0.0661513,0.0738707
7,-748,-0.060791,-0.0725098,-0.00044131,0.00675613,0.0028371,0.00773997,-0.00142515,1.23699,0.00569479,0.0144266,1231,1772,-0.0608401,0.0725501
14,-748,-0.0700684,-0.071167,0.000147207,0.00698629,0.00455785,0.00926475,-0.00213126,1.10723,0.00699598,0.0145396,1238,1772,-0.0700328,0.0711454
21,-748,-0.0595703,-0.0786133,0.000588154,0.00701836,0.0063105,0.0108856,-0.00327906,1.021,0.008562,0.0106268,1245,1772,-0.059583,0.0786078
28,-748,-0.0715332,-0.0594482,0.000767703,0.00640209,0.00734842,0.0114548,-0.00428504,0.968444,0.00939643,0.0113914,1252,1772,-0.0715312,0.0595054
35,-748,-0.0531006,-0.052124,0.00124035,0.00644683,0.00793097,0.0121909,-0.00450369,0.943977,0.0099734,0.0128639,1259,1772,-0.0531614,0.052179
42,-748,-0.0467529,-0.057251,0.00233291,0.00632173,0.00819057,0.0127572,-0.00410258,0.904824,0.0101525,0.0132096,1266,1772,-0.0467245,0.0572309
49,-748,-0.0831299,-0.0616455,0.00275068,0.00557147,0.00818678,0.0124685,-0.00414631,0.870699,0.0099856,0.0100479,1273,1772,-0.0830766,0.061692
56,-748,-0.0877686,-0.0675049,0.00324141,0.00507586,0.00762487,0.0118385,-0.00352121,0.845258,0.0092912,0.0100325,1280,1772,-0.0877324,0.0675137
63,-748,-0.0866699,-0.0767822,0.00493386,0.00492377,0.00741986,0.0123487,-0.00249105,0.785058,0.00917621,0.0119908,1287,1772,-0.0867159,0.0767292
70,-748,-0.0911865,-0.0637207,0.00689226,0.0052036,0.00703322,0.0131317,-0.00103579,0.72566,0.00911933,0.0136263,1294,1772,-0.0912386,0.0637443
77,-748,-0.102539,-0.0456543,0.00943543,0.00528433,0.0066521,0.0143283,0.000391501,0.634177,0.00942439,0.0125996,1301,1772,-0.102565,0.0456444
84,-748,-0.115112,-0.0385742,0.0119301,0.00540735,0.00605617,0.0155472,0.00179024,0.538403,0.00982262,0.0133363,1308,1772,-0.115073,0.0386209
91,-748,-0.112549,-0.0421143,0.0144438,0.00566922,0.00565863,0.0172167,0.00289632,0.45564,0.0106446,0.0106212,1315,1772,-0.11249,0.0421254
98,-748,-0.0955811,-0.0449219,0.0167564,0.00585445,0.00522307,0.0188549,0.00375602,0.382024,0.0115238,0.01025,1322,1772,-0.0955302,0.044886
105,-748,-0.0720215,-0.0532227,0.0184252,0.00693727,0.0051536,0.0203983,0.0049642,0.365637,0.0122832,0.0120617,1329,1772,-0.0720748,0.0532226
112,-748,-0.0498047,-0.0734863,0.0193425,0.00808402,0.0055369,0.0216092,0.00581734,0.388564,0.0129115,0.0150091,1336,1772,-0.0498431,0.0734647
119,-748,-0.0584717,-0.0789795,0.0195827,0.00911928,0.00572222,0.0221043,0.00659763,0.415074,0.0131029,0.0132094,1343,1772,-0.0584723,0.0789794
126,-748,-0.0467529,-0.0710449,0.0190704,0.0098872,0.00589543,0.0219513,0.00700626,0.454546,0.0129469,0.014282,1350,1772,-0.0467219,0.0710141
133,-748,-0.0925293,-0.0799561,0.0179577,0.0108937,0.0063531,0.0216946,0.0071568,0.531699,0.0127647,0.00895476,1357,1772,-0.0925414,0.0799884
140,-748,-0.102539,-0.0726318,0.015797,0.0110395,0.00665904,0.0204894,0.00634707,0.613851,0.0121116,0.0117488,1364,1772,-0.102589,0.0725751
147,-748,-0.0301514,-0.0552979,0.0134001,0.0113782,0.00667764,0.0191429,0.00563542,0.710269,0.0113594,0.0123556,1371,1772,-0.0301195,0.0553466
154,-748,-0.0388184,-0.0700684,0.0120158,0.0113665,0.00625318,0.0179528,0.00542957,0.759464,0.0106313,0.0106303,1378,1772,-0.0387995,0.0700515
161,-748,-0.0750732,-0.0678711,0.0106467,0.0112202,0.00562416,0.0165649,0.00530201,0.81087,0.009768,0.011954,1385,1772,-0.0750175,0.0678375
168,-748,-0.0541992,-0.057373,0.0090214,0.0105459,0.00467538,0.0145208,0.00504654,0.866206,0.00851249,0.0152984,1392,1772,-0.0542568,0.0574235
175,-748,-0.0638428,-0.0609131,0.0077576,0.00942103,0.00366424,0.0123468,0.00483188,0.896998,0.00718429,0.0168621,1399,1772,-0.0638896,0.0609724
182,-748,-0.0681152,-0.071167,0.0068612,0.00808754,0.00269947,0.0102426,0.00470613,0.897075,0.00592004,0.0221721,1406,1772,-0.0680966,0.0711589
189,-748,-0.101807,-0.0579834,0.00691344,0.00652614,0.00200066,0.0087298,0.00470977,0.737152,0.00504539,0.0252822,1413,1772,-0.101752,0.0580254
196,-748,-0.136108,-0.0754395,0.00732908,0.00494533,0.00125686,0.00786933,0.00440508,0.405964,0.00455417,0.0283812,1420,1772,-0.13606,0.0754955
203,-748,-0.0163574,-0.0646973,0.00716064,0.00354011,0.000319357,0.00718859,0.00351215,0.0873087,0.0041507,0.031162,1427,1772,-0.016353,0.0646615
210,-748,0.00756836,-0.0493164,0.00652587,0.00148471,-0.000849424,0.00666515,0.00134543,-0.162521,0.00406978,0.0333266,1434,1772,0.00762771,0.0493158
217,-748,0.0400391,-0.161133,0.00556142,-0.000215731,-0.0018718,0.00611486,-0.000769177,-0.287485,0.00435566,0.0335405,1441,1772,0.0400512,0.161164
224,-748,-0.0866699,-0.0675049,0.00464387,-0.00139045,-0.00245802,0.00551838,-0.00226496,-0.341814,0.00462272,0.03904,1448,1772,-0.0866885,0.0674605
231,-748,0.125366,-0.0341797,0.00355034,-0.00217194,-0.00262073,0.00456919,-0.00319079,-0.370785,0.00450373,0.0419414,1455,1772,0.125353,0.0342156
238,-748,0.217529,-0.0460205,0.00214846,-0.00285698,-0.00260978,0.00326162,-0.00397014,-0.403169,0.00418193,0.0417876,1462,1772,0.21759,0.0460105
245,-748,0.236572,-0.0721436,0.000516934,-0.00350463,-0.00256649,0.00176654,-0.00475424,-0.453106,0.00389427,0.0423876,1469,1772,0.23653,0.072162
252,-748,-0.0306396,-0.0596924,-0.00131135,-0.00411643,-0.00228007,-3.69803e-05,-0.0053908,-0.509663,0.0035816,0.0427403,1476,1772,-0.0306704,0.0597103
259,-748,0.020752,-0.0266113,-0.0030471,-0.00442763,-0.00165716,-0.00194219,-0.00553253,-0.588058,0.00324111,0.0424281,1483,1772,0.0207207,0.0265773
266,-748,0.151978,-0.0883789,-0.00441694,-0.00534477,-0.000458113,-0.00422887,-0.00553284,-0.389553,0.00333986,0.0446996,1490,1772,0.152005,0.0883437
273,-748,0.0240479,-0.141968,-0.00498179,-0.00561983,0.000355753,-0.00482297,-0.00577865,0.419892,0.00357669,0.0473457,1497,1772,0.0240368,0.141992
280,-748,-0.125488,0.0177002,-0.00545717,-0.00493804,0.00121435,-0.00395582,-0.00643939,0.890688,0.00375003,0.0443375,1504,1772,-0.125439,-0.0176854
287,-748,-0.0545654,-0.0981445,-0.00578514,-0.00444298,0.00132682,-0.00362718,-0.00660094,1.01953,0.00381727,0.0442096,1511,1772,-0.0545294,0.0980855
294,-748,-0.0795898,-0.280518,-0.00647137,-0.00429688,0.000623699,-0.00413069,-0.00663756,1.31039,0.00387023,0.0443067,1518,1772,-0.0795293,0.280463
301,-748,-0.108276,-0.31958,-0.00587362,-0.00360303,0.000394995,-0.00353628,-0.00594037,1.40339,0.00345038,0.0410639,1525,1772,-0.108295,0.319576
308,-748,-0.181763,-0.313965,-0.00367449,-0.00343586,0.000399859,-0.0031379,-0.00397246,0.930387,0.0024186,0.0425674,1532,1772,-0.181797,0.313958
315,-748,0.179932,-0.245605,-0.00239772,-0.00270643,0.000264287,-0.00224601,-0.00285814,0.521092,0.0017377,0.0469316,1539,1772,0.179968,0.245601
322,-748,0.48999,-0.278198,0,0,0,0,0,0,0,-1,1546,1772,0.48998,0.278226
329,-748,-0.0130615,-0.439941,0.00113188,-0.00154059,-0.0012271,0.00160984,-0.00201855,-0.371423,0.00209927,0.0428052,1553,1772,-0.0130989,0.439982
336,-748,0.0889893,-0.400269,0.00281094,-0.000698623,-0.00207712,0.00377529,-0.00166298,-0.434661,0.00321777,0.0428582,1560,1772,0.088974,0.400249
343,-748,0,0,0,0,0,0,0,0,0,-1,1567,1772,0,0
350,-748,0,0,0,0,0,0,0,0,0,-1,1574,1772,0,0
357,-748,0,0,0,0,0,0,0,0,0,-1,1581,1772,0,0
364,-748,0,0,0,0,0,0,0,0,0,-1,1588,1772,0,0
371,-748,0,0,0,0,0,0,0,0,0,-1,1595,1772,0,0
378,-748,0,0,0,0,0,0,0,0,0,-1,1602,1772,0,0
385,-748,0,0,0,0,0,0,0,0,0,-1,1609,1772,0,0
392,-748,0,0,0,0,0,0,0,0,0,-1,1616,1772,0,0
399,-748,0,0,0,0,0,0,0,0,0,-1,1623,1772,0,0
406,-748,0,0,0,0,0,0,0,0,0,-1,1630,1772,0,0
413,-748,0,0,0,0,0,0,0,0,0,-1,1637,1772,0,0
420,-748,0,0,0,0,0,0,0,0,0,-1,1644,1772,0,0
427,-748,0,0,0,0,0,0,0,0,0,-1,1651,1772,0,0
434,-748,0,0,0,0,0,0,0,0,0,-1,1658,1772,0,0
441,-748,0,0,0,0,0,0,0,0,0,-1,1665,1772,0,0
448,-748,0,0,0,0,0,0,0,0,0,-1,1672,1772,0,0
455,-748,0,0,0,0,0,0,0,0,0,-1,1679,1772,0,0
462,-748,0,0,0,0,0,0,0,0,0,-1,1686,1772,0,0
469,-748,0,0,0,0,0,0,0,0,0,-1,1693,1772,0,0
476,-748,0,0,0,0,0,0,0,0,0,-1,1700,1772,0,0
483,-748,0,0,0,0,0,0,0,0,0,-1,1707,1772,0,0
490,-748,0,0,0,0,0,0,0,0,0,-1,1714,1772,0,0
497,-748,0,0,0,0,0,0,0,0,0,-1,1721,1772,0,0
504,-748,0,0,0,0,0,0,0,0,0,-1,1728,1772,0,0
511,-748,0,0,0,0,0,0,0,0,0,-1,1735,1772,0,0
518,-748,0,0,0,0,0,0,0,0,0,-1,1742,1772,0,0
525,-748,0,0,0,0,0,0,0,0,0,-1,1749,1772,0,0
532,-748,0,0,0,0,0,0,0,0,0,-1,1756,1772,0,0
539,-748,0,0,0,0,0,0,0,0,0,-1,1763,1772,0,0
546,-748,0,0,0,0,0,0,0,0,0,-1,1770,1772,0,0
553,-748,0,0,0,0,0,0,0,0,0,-1,1777,1772,0,0
560,-748,0,0,0,0,0,0,0,0,0,-1,1784,1772,0,0
567,-748,0,0,0,0,0,0,0,0,0,-1,1791,1772,0,0
574,-748,0,0,0,0,0,0,0,0,0,-1,1798,1772,0,0
581,-748,0,0,0,0,0,0,0,0,0,-1,1805,1772,0,0
588,-748,0,0,0,0,0,0,0,0,0,-1,1812,1772,0,0
595,-748,0,0,0,0,0,0,0,0,0,-1,1819,1772,0,0
602,-748,0,0,0,0,0,0,0,0,0,-1,1826,1772,0,0
609,-748,0,0,0,0,0,0,0,0,0,-1,1833,1772,0,0
616,-748,0,0,0,0,0,0,0,0,0,-1,1840,1772,0,0
623,-748,0,0,0,0,0,0,0,0,0,-1,1847,1772,0,0
630,-748,0,0,0,0,0,0,0,0,0,-1,1854,1772,0,0
637,-748,0,0,0,0,0,0,0,0,0,-1,1861,1772,0,0
644,-748,0,0,0,0,0,0,0,0,0,-1,1868,1772,0,0
651,-748,0,0,0,0,0,0,0,0,0,-1,1875,1772,0,0
658,-748,0,0,0,0,0,0,0,0,0,-1,1882,1772,0,0
665,-748,0,0,0,0,0,0,0,0,0,-1,1889,1772,0,0
672,-748,0,0,0,0,0,0,0,0,0,-1,1896,1772,0,0
679,-748,0,0,0,0,0,0,0,0,0,-1,1903,1772,0,0
686,-748,0,0,0,0,0,0,0,0,0,-1,1910,1772,0,0
693,-748,0,0,0,0,0,0,0,0,0,-1,1917,1772,0,0
700,-748,0,0,0,0,0,0,0,0,0,-1,1924,1772,0,0
707,-748,0,0,0,0,0,0,0,0,0,-1,1931,1772,0,0
714,-748,0,0,0,0,0,0,0,0,0,-1,1938,1772,0,0
721,-748,0,0,0,0,0,0,0,0,0,-1,1945,1772,0,0
728,-748,0,0,0,0,0,0,0,0,0,-1,1952,1772,0,0
735,-748,0,0,0,0,0,0,0,0,0,-1,1959,1772,0,0
742,-748,0,0,0,0,0,0,0,0,0,-1,1966,1772,0,0
749,-748,0,0,0,0,0,0,0,0,0,-1,1973,1772,0,0
756,-748,0,0,0,0,0,0,0,0,0,-1,1980,1772,0,0
763,-748,0,0,0,0,0,0,0,0,0,-1,1987,1772,0,0
770,-748,0,0,0,0,0,0,0,0,0,-1,1994,1772,0,0
777,-748,0,0,0,0,0,0,0,0,0,-1,2001,1772,0,0
784,-748,0,0,0,0,0,0,0,0,0,-1,2008,1772,0,0
791,-748,0,0,0,0,0,0,0,0,0,-1,2015,1772,0,0
798,-748,0,0,0,0,0,0,0,0,0,-1,2022,1772,0,0
805,-748,0,0,0,0,0,0,0,0,0,-1,2029,1772,0,0
812,-748,0,0,0,0,0,0,0,0,0,-1,2036,1772,0,0
-700,-755,0,0,0,0,0,0,0,0,0,-1,524,1779,0,0
-693,-755,0,0,0,0,0,0,0,0,0,-1,531,1779,0,0
-686,-755,0,0,0,0,0,0,0,0,0,-1,538,1779,0,0
-679,-755,0,0,0,0,0,0,0,0,0,-1,545,1779,0,0
-672,-755,0,0,0,0,0,0,0,0,0,-1,552,1779,0,0
-665,-755,0,0,0,0,0,0,0,0,0,-1,559,1779,0,0
-658,-755,0,0,0,0,0,0,0,0,0,-1,566,1779,0,0
-651,-755,0,0,0,0,0,0,0,0,0,-1,573,1779,0,0
-644,-755,0,0,0,0,0,0,0,0,0,-1,580,1779,0,0
-637,-755,0,0,0,0,0,0,0,0,0,-1,587,1779,0,0
-630,-755,0,0,0,0,0,0,0,0,0,-1,594,1779,0,0
-623,-755,0,0,0,0,0,0,0,0,0,-1,601,1779,0,0
-616,-755,0,0,0,0,0,0,0,0,0,-1,608,1779,0,0
-609,-755,0,0,0,0,0,0,0,0,0,-1,615,1779,0,0
-602,-755,0,0,0,0,0,0,0,0,0,-1,622,1779,0,0
-595,-755,0,0,0,0,0,0,0,0,0,-1,629,1779,0,0
-588,-755,0,0,0,0,0,0,0,0,0,-1,636,1779,0,0
-581,-755,0,0,0,0,0,0,0,0,0,-1,643,1779,0,0
-574,-755,0,0,0,0,0,0,0,0,0,-1,650,1779,0,0
-567,-755,0,0,0,0,0,0,0,0,0,-1,657,1779,0,0
-560,-755,0,0,0,0,0,0,0,0,0,-1,664,1779,0,0
-553,-755,0,0,0,0,0,0,0,0,0,-1,671,1779,0,0
-546,-755,0,0,0,0,0,0,0,0,0,-1,678,1779,0,0
-539,-755,0,0,0,0,0,0,0,0,0,-1,685,1779,0,0
-532,-755,0,0,0,0,0,0,0,0,0,-1,692,1779,0,0
-525,-755,0,0,0,0,0,0,0,0,0,-1,699,1779,0,0
-518,-755,0,0,0,0,0,0,0,0,0,-1,706,1779,0,0
-511,-755,0,0,0,0,0,0,0,0,0,-1,713,1779,0,0
-504,-755,0,0,0,0,0,0,0,0,0,-1,720,1779,0,0
-497,-755,0,0,0,0,0,0,0,0,0,-1,727,1779,0,0
-490,-755,0,0,0,0,0,0,0,0,0,-1,734,1779,0,0
-483,-755,0,0,0,0,0,0,0,0,0,-1,741,1779,0,0
-476,-755,0,0,0,0,0,0,0,0,0,-1,748,1779,0,0
-469,-755,0,0,0,0,0,0,0,0,0,-1,755,1779,0,0
-462,-755,0,0,0,0,0,0,0,0,0,-1,762,1779,0,0
-455,-755,0,0,0,0,0,0,0,0,0,-1,769,1779,0,0
-448,-755,0,0,0,0,0,0,0,0,0,-1,776,1779,0,0
-441,-755,0,0,0,0,0,0,0,0,0,-1,783,1779,0,0
-434,-755,0,0,0,0,0,0,0,0,0,-1,790,1779,0,0
-427,-755,0,0,0,0,0,0,0,0,0,-1,797,1779,0,0
-420,-755,0,0,0,0,0,0,0,0,0,-1,804,1779,0,0
-413,-755,0,0,0,0,0,0,0,0,0,-1,811,1779,0,0
-406,-755,0,0,0,0,0,0,0,0,0,-1,818,1779,0,0
-399,-755,0,0,0,0,0,0,0,0,0,-1,825,1779,0,0
-392,-755,0,0,0,0,0,0,0,0,0,-1,832,1779,0,0
-385,-755,0,0,0,0,0,0,0,0,0,-1,839,1779,0,0
-378,-755,0,0,0,0,0,0,0,0,0,-1,846,1779,0,0
-371,-755,0,0,0,0,0,0,0,0,0,-1,853,1779,0,0
-364,-755,0,0,0,0,0,0,0,0,0,-1,860,1779,0,0
-357,-755,0,0,0,0,0,0,0,0,0,-1,867,1779,0,0
-350,-755,0,0,0,0,0,0,0,0,0,-1,874,1779,0,0
-343,-755,0,0,0,0,0,0,0,0,0,-1,881,1779,0,0
-336,-755,0,0,0,0,0,0,0,0,0,-1,888,1779,0,0
-329,-755,0,0,0,0,0,0,0,0,0,-1,895,1779,0,0
-322,-755,0,0,0,0,0,0,0,0,0,-1,902,1779,0,0
-315,-755,0,0,0,0,0,0,0,0,0,-1,909,1779,0,0
-308,-755,0,0,0,0,0,0,0,0,0,-1,916,1779,0,0
-301,-755,0,0,0,0,0,0,0,0,0,-1,923,1779,0,0
-294,-755,0,0,0,0,0,0,0,0,0,-1,930,1779,0,0
-287,-755,0,0,0,0,0,0,0,0,0,-1,937,1779,0,0
-280,-755,0,0,0,0,0,0,0,0,0,-1,944,1779,0,0
-273,-755,0,0,0,0,0,0,0,0,0,-1,951,1779,0,0
-266,-755,0,0,0,0,0,0,0,0,0,-1,958,1779,0,0
-259,-755,0,0,0,0,0,0,0,0,0,-1,965,1779,0,0
-252,-755,0,0,0,0,0,0,0,0,0,-1,972,1779,0,0
-245,-755,0,0,0,0,0,0,0,0,0,-1,979,1779,0,0
-238,-755,0,0,0,0,0,0,0,0,0,-1,986,1779,0,0
-231,-755,0,0,0,0,0,0,0,0,0,-1,993,1779,0,0
-224,-755,0,0,0,0,0,0,0,0,0,-1,1000,1779,0,0
-217,-755,0,0,0,0,0,0,0,0,0,-1,1007,1779,0,0
-210,-755,0,0,0,0,0,0,0,0,0,-1,1014,1779,0,0
-203,-755,-1.78113,-0.163208,0.0666925,0.00162277,0.0344974,0.0815769,-0.0132616,0.407334,0.0593015,0.0438496,1021,1779,-1.78115,0.1632
-196,-755,0.386475,0.445923,0.0610788,-0.0036987,0.0329674,0.0749056,-0.0175256,0.397126,0.0566892,0.0406053,1028,1779,0.386532,-0.445903
-189,-755,0.418945,0.47876,0,0,0,0,0,0,0,-1,1035,1779,0.418916,-0.478813
-182,-755,0.348022,0.43042,0.0477733,-0.0119924,0.0281611,0.0589518,-0.0231709,0.377872,0.0488906,0.0419297,1042,1779,0.348005,-0.430477
-175,-755,0.10498,0.388306,0.0403986,-0.0152565,0.0254812,0.0503025,-0.0251604,0.370706,0.0443673,0.0446247,1049,1779,0.105013,-0.38833
-168,-755,0.189819,0.72583,0.0285174,-0.0106101,0.0219955,0.0383907,-0.0204835,0.421923,0.0345112,0.0468779,1056,1779,0.189879,-0.725792
-161,-755,-1.44714,1.18042,0,0,0,0,0,0,0,-1,1063,1779,-1.44718,-1.18038
-154,-755,-1.63733,0.923828,0.00731293,0.00418492,0.0162126,0.0220368,-0.010539,0.737313,0.0191942,0.0479981,1070,1779,-1.63737,-0.923782
-147,-755,-1.79712,0.674316,-0.006187,0.0115252,0.0134217,0.0187493,-0.0134111,1.07703,0.0186529,0.0478269,1077,1779,-1.79706,-0.674325
-140,-755,0.347412,-0.170166,-0.0165245,0.0205197,0.0121347,0.0241408,-0.0201456,1.2808,0.0256034,0.0478094,1084,1779,0.347353,0.170219
-133,-755,-0.302246,0.00524902,-0.0217836,0.0277121,0.0105729,0.029876,-0.0239475,1.36892,0.0311378,0.0446952,1091,1779,-0.302248,-0.00523528
-126,-755,-0.0861816,0.0283203,-0.0250126,0.0332919,0.0102391,0.0350377,-0.0267584,1.40191,0.0357846,0.043458,1098,1779,-0.0861917,-0.0283775
-119,-755,-0.151245,0.0238037,-0.0270782,0.0375493,0.0090092,0.0387817,-0.0283106,1.43485,0.0388927,0.0430419,1105,1779,-0.151188,-0.0238348
-112,-755,0.26062,-0.132935,0,0,0,0,0,0,0,-1,1112,1779,0.260577,0.132923
-105,-755,0.213257,0.0170898,-0.0283116,0.0394678,0.00804616,0.0404099,-0.0292537,1.45424,0.0403918,0.0454871,1119,1779,0.213278,-0.0171288
-98,-755,0.200073,0.228149,-0.0270589,0.037374,0.00744217,0.0382224,-0.0279073,1.45728,0.0383345,0.0464263,1126,1779,0.200027,-0.228185
-91,-755,0.297729,-0.122437,-0.0248581,0.0332706,0.00647611,0.0339834,-0.0255708,1.46118,0.0344978,0.0463889,1133,1779,0.297736,0.122442
-84,-755,-0.271851,0.0817871,-0.0212651,0.0270592,0.00576595,0.0277377,-0.0219435,1.45367,0.0287484,0.0441642,1140,1779,-0.271842,-0.0818345
-77,-755,-0.368042,0.0552979,-0.0167478,0.0211368,0.00438989,0.0216388,-0.0172498,1.45693,0.0225,0.0441419,1147,1779,-0.367996,-0.0552947
-70,-755,0.0518799,-0.209717,-0.0129455,0.015771,0.00296157,0.0160733,-0.0132477,1.46909,0.0169547,0.0430591,1154,1779,0.0518289,0.209775
-63,-755,1.80554,0.0222168,-0.00920834,0.00977059,0.00143683,0.00987875,-0.0093165,1.49566,0.011084,0.045126,1161,1779,1.80548,-0.0221992
-56,-755,-0.0136719,-0.052002,-0.00644279,0.00554888,4.93012e-05,0.00554908,-0.00644299,1.56669,0.00693004,0.0482167,1168,1779,-0.0137104,0.052052
-49,-755,-0.000732422,-0.0314941,-0.00441288,0.00321693,-0.00127605,0.00342468,-0.00462063,-1.4094,0.00466204,0.0412304,1175,1779,-0.000772739,0.0314825
-42,-755,0.126099,-0.1521,-0.00373655,0.00236377,-0.00246091,0.00323273,-0.00460552,-1.23136,0.00454849,0.0370312,1182,1779,0.126105,0.152098
-35,-755,-0.0848389,-0.0842285,-0.00363357,0.00184779,-0.00312009,0.00325998,-0.00504576,-1.14577,0.00483213,0.033709,1189,1779,-0.084846,0.0842602
-28,-755,-0.171753,-0.0166016,-0.00349195,0.00268872,-0.00321887,0.00406059,-0.00486382,-1.16791,0.00515946,0.0269438,1196,1779,-0.171728,0.0165886
-21,-755,-0.108276,0.00537109,-0.00372362,0.00423139,-0.00316381,0.00533623,-0.00482846,-1.23482,0.00587103,0.0312021,1203,1779,-0.108292,-0.00534702
-14,-755,-0.0834961,-0.0449219,-0.00382762,0.00587163,-0.00158392,0.00612374,-0.00407972,-1.41295,0.00593024,0.031441,1210,1779,-0.0834923,0.0449565
-7,-755,-0.112183,-0.0836182,-0.00301756,0.00722346,8.04467e-05,0.00722409,-0.00301819,1.56294,0.0060773,0.0226961,1217,1779,-0.112215,0.0836488
0,-755,-0.0778809,-0.0639648,-0.00185668,0.00806375,0.00205538,0.00847273,-0.00226566,1.37438,0.00653594,0.0135094,1224,1779,-0.0778275,0.063958
7,-755,-0.0498047,-0.0653076,-0.000926334,0.00876969,0.0040498,0.0102386,-0.00239529,1.22283,0.0077486,0.0117365,1231,1779,-0.0498095,0.0653005
14,-755,-0.0714111,-0.065918,-5.2759e-05,0.00904149,0.00650968,0.0124349,-0.00344618,1.09026,0.0096461,0.0110701,1238,1779,-0.0713921,0.0659539
21,-755,-0.0731201,-0.0710449,0.000580245,0.00922327,0.00897451,0.0148625,-0.00505903,1.00978,0.0119569,0.0154615,1245,1779,-0.0731795,0.0710196
28,-755,-0.0415039,-0.079834,0.000887551,0.00866268,0.0103865,0.0158653,-0.00631505,0.964473,0.0131956,0.0178718,1252,1779,-0.0415526,0.0798855
35,-755,-0.0327148,-0.0393066,0.00160543,0.00898116,0.0111982,0.0170831,-0.0064965,0.944469,0.0140636,0.0186208,1259,1779,-0.0327585,0.0392478
42,-755,-0.0313721,-0.0383301,0.00315949,0.00899535,0.011545,0.0179855,-0.00583062,0.909178,0.0143347,0.0141615,1266,1779,-0.0313316,0.0383035
49,-755,-0.0791016,-0.0701904,0.00375464,0.00826125,0.0115344,0.0177603,-0.00574445,0.881861,0.0141492,0.00931905,1273,1779,-0.0790551,0.0702128
56,-755,-0.0776367,-0.0751953,0.00443804,0.00783757,0.010699,0.016971,-0.00469535,0.864175,0.0131613,0.00820175,1280,1779,-0.0776601,0.0751699
63,-755,-0.0761719,-0.0748291,0.00677571,0.00774763,0.0102539,0.017527,-0.00300371,0.809077,0.0128039,0.0088132,1287,1779,-0.0761749,0.0748366
70,-755,-0.0777588,-0.067627,0.00937568,0.00811524,0.00952934,0.0182956,-0.000804698,0.752379,0.012474,0.011332,1294,1779,-0.0777149,0.0675965
77,-755,-0.0898438,-0.0629883,0.0127392,0.00817588,0.00883243,0.0195799,0.00133517,0.658997,0.0126318,0.0109806,1301,1779,-0.0898699,0.0629843
84,-755,-0.0699463,-0.0786133,0.0161394,0.00823389,0.00788212,0.0210043,0.00336892,0.552982,0.0130259,0.0104674,1308,1779,-0.0699933,0.0786159
91,-755,-0.0667725,-0.0739746,0.0196259,0.00845697,0.00719583,0.02315,0.00493286,0.455409,0.0140801,0.0103314,1315,1779,-0.0667137,0.0739599
98,-755,-0.0864258,-0.0518799,0.0228566,0.00852234,0.00649284,0.0253603,0.00601865,0.368039,0.0153004,0.0118402,1322,1779,-0.0863815,0.0518512
105,-755,-0.0666504,-0.0454102,0.0252509,0.00965215,0.00630183,0.0274786,0.00742439,0.339798,0.0164139,0.0164936,1329,1779,-0.0667094,0.0453657
112,-755,-0.0377197,-0.0656738,0.0265602,0.0109083,0.00675975,0.0290754,0.00839313,0.356215,0.0172793,0.0222335,1336,1779,-0.0376676,0.0656198
119,-755,-0.0944824,-0.0610352,0.0269688,0.0120506,0.00699929,0.0297385,0.00928094,0.376803,0.0175691,0.020288,1343,1779,-0.0944236,0.0610338
126,-755,-0.111816,-0.0113525,0.0264062,0.0127711,0.00727843,0.0295613,0.00961593,0.40904,0.0174111,0.0209408,1350,1779,-0.111841,0.0113424
133,-755,-0.118408,-0.0319824,0.0250014,0.0138673,0.00801242,0.0291909,0.00967778,0.481785,0.0171693,0.0227433,1357,1779,-0.118424,0.0320194
140,-755,-0.114868,-0.0632324,0.0220264,0.0138999,0.00851399,0.027397,0.00852928,0.562761,0.0161887,0.0287031,1364,1779,-0.11483,0.0631905
147,-755,-0.0428467,-0.0506592,0.018661,0.0143858,0.00861482,0.0253995,0.00764736,0.66379,0.0150462,0.0289178,1371,1779,-0.0428473,0.050603
154,-755,-0.0288086,-0.0800781,0.0166609,0.0143056,0.00815225,0.0237202,0.00724641,0.713666,0.014036,0.0297629,1378,1779,-0.0287654,0.0800924
161,-755,-0.128906,-0.102905,0.0146775,0.014037,0.00742382,0.021788,0.00692651,0.763842,0.0128544,0.0317029,1385,1779,-0.128863,0.102911
168,-755,-0.0571289,-0.0532227,0.0124427,0.0131482,0.00635725,0.0191625,0.00642841,0.813116,0.0112613,0.0292051,1392,1779,-0.0571033,0.0532443
175,-755,-0.0627441,-0.0686035,0.0106976,0.0116368,0.00516963,0.0163581,0.0059763,0.830693,0.00955785,0.0367271,1399,1779,-0.06272,0.0686084
182,-755,-0.0743408,-0.205811,0.00942636,0.00981066,0.00400059,0.0136237,0.00561331,0.809395,0.00790613,0.0405325,1406,1779,-0.0742966,0.205814
189,-755,-0.0695801,-0.271973,0.009438,0.00770413,0.00317024,0.0118577,0.00528443,0.651931,0.00685951,0.0374492,1413,1779,-0.0696256,0.271992
196,-755,-0.0721436,-0.201172,0.0100806,0.00562626,0.00231942,0.011069,0.00463785,0.402841,0.0064186,0.0369539,1420,1779,-0.0721049,0.201222
203,-755,0.153198,-0.145996,0.00997491,0.00382586,0.00118659,0.0101959,0.00360482,0.184164,0.0059702,0.0402588,1427,1779,0.153138,0.14595
210,-755,0.287476,-0.223389,0.00921367,0.00128038,-0.000264897,0.0092225,0.00127154,-0.0333411,0.00577137,0.0453786,1434,1779,0.287422,0.223428
217,-755,0.226196,-0.321655,0.00799233,-0.000887703,-0.00148808,0.00823506,-0.00113044,-0.161694,0.00590304,0.0429941,1441,1779,0.226162,0.321702
224,-755,0.12793,-0.403687,0.00674181,-0.00233355,-0.00214075,0.00722143,-0.00281317,-0.220406,0.00597692,0.0400302,1448,1779,0.127915,0.403742
231,-755,0.235474,-0.0109863,0,0,0,0,0,0,0,-1,1455,1779,0.235451,0.0110108
238,-755,0.370483,0.0290527,0.00344566,-0.00402299,-0.002199,0.00404502,-0.00462235,-0.266094,0.0050078,0.0409905,1462,1779,0.370433,-0.0290599
245,-755,0.371826,0.0445557,0.00128869,-0.00482148,-0.00205185,0.00191378,-0.00544656,-0.295711,0.00440964,0.0428233,1469,1779,0.371882,-0.044506
252,-755,-0.0361328,0.000732422,-0.00112064,-0.00566768,-0.00161909,-0.000603046,-0.00618528,-0.309417,0.00393793,0.0445094,1476,1779,-0.0360805,-0.000766196
259,-755,0.250977,0.108154,-0.00350222,-0.00605443,-0.000819767,-0.00326159,-0.00629505,-0.285506,0.00363524,0.0429338,1483,1779,0.250986,-0.108098
266,-755,0.582397,0.0440674,0,0,0,0,0,0,0,-1,1490,1779,0.582428,-0.0440488
273,-755,0.419678,0.111816,0,0,0,0,0,0,0,-1,1497,1779,0.419699,-0.111767
280,-755,-0.0827637,0.184326,-0.00675275,-0.00770387,0.00266739,-0.00451886,-0.00993777,0.697182,0.00574541,0.0404982,1504,1779,-0.0827648,-0.184281
287,-755,-0.0389404,0.105469,-0.00725925,-0.00751149,0.00283156,-0.004551,-0.0102197,0.763142,0.00591212,0.0403088,1511,1779,-0.0388985,-0.105443
294,-755,0.122681,-0.0455322,0,0,0,0,0,0,0,-1,1518,1779,0.122661,0.0455611
301,-755,-0.00439453,-0.173706,-0.00808831,-0.00742227,0.00173359,-0.00599,-0.00952058,0.880292,0.00555751,0.0412465,1525,1779,-0.00439768,0.173746
308,-755,-0.315063,-0.125,-0.00596315,-0.00776725,0.00195719,-0.00471014,-0.00902026,0.569461,0.00520956,0.04386,1532,1779,-0.315013,0.125004
315,-755,-1.05774,-0.12439,-0.00502526,-0.00722164,0.00215595,-0.00370392,-0.00854298,0.549838,0.00494679,0.0455213,1539,1779,-1.05773,0.124331
322,-755,0,0,0,0,0,0,0,0,0,-1,1546,1779,0,0
329,-755,0,0,0,0,0,0,0,0,0,-1,1553,1779,0,0
336,-755,0,0,0,0,0,0,0,0,0,-1,1560,1779,0,0
343,-755,0,0,0,0,0,0,0,0,0,-1,1567,1779,0,0
350,-755,0,0,0,0,0,0,0,0,0,-1,1574,1779,0,0
357,-755,0,0,0,0,0,0,0,0,0,-1,1581,1779,0,0
364,-755,0,0,0,0,0,0,0,0,0,-1,1588,1779,0,0
371,-755,0,0,0,0,0,0,0,0,0,-1,1595,1779,0,0
378,-755,0,0,0,0,0,0,0,0,0,-1,1602,1779,0,0
385,-755,0,0,0,0,0,0,0,0,0,-1,1609,1779,0,0
392,-755,0,0,0,0,0,0,0,0,0,-1,1616,1779,0,0
399,-755,0,0,0,0,0,0,0,0,0,-1,1623,1779,0,0
406,-755,0,0,0,0,0,0,0,0,0,-1,1630,1779,0,0
413,-755,0,0,0,0,0,0,0,0,0,-1,1637,1779,0,0
420,-755,0,0,0,0,0,0,0,0,0,-1,1644,1779,0,0
427,-755,0,0,0,0,0,0,0,0,0,-1,1651,1779,0,0
434,-755,0,0,0,0,0,0,0,0,0,-1,1658,1779,0,0
441,-755,0,0,0,0,0,0,0,0,0,-1,1665,1779,0,0
448,-755,0,0,0,0,0,0,0,0,0,-1,1672,1779,0,0
455,-755,0,0,0,0,0,0,0,0,0,-1,1679,1779,0,0
462,-755,0,0,0,0,0,0,0,0,0,-1,1686,1779,0,0
469,-755,0,0,0,0,0,0,0,0,0,-1,1693,1779,0,0
476,-755,0,0,0,0,0,0,0,0,0,-1,1700,1779,0,0
483,-755,0,0,0,0,0,0,0,0,0,-1,1707,1779,0,0
490,-755,0,0,0,0,0,0,0,0,0,-1,1714,1779,0,0
497,-755,0,0,0,0,0,0,0,0,0,-1,1721,1779,0,0
504,-755,0,0,0,0,0,0,0,0,0,-1,1728,1779,0,0
511,-755,0,0,0,0,0,0,0,0,0,-1,1735,1779,0,0
518,-755,0,0,0,0,0,0,0,0,0,-1,1742,1779,0,0
525,-755,0,0,0,0,0,0,0,0,0,-1,1749,1779,0,0
532,-755,0,0,0,0,0,0,0,0,0,-1,1756,1779,0,0
539,-755,0,0,0,0,0,0,0,0,0,-1,1763,1779,0,0
546,-755,0,0,0,0,0,0,0,0,0,-1,1770,1779,0,0
553,-755,0,0,0,0,0,0,0,0,0,-1,1777,1779,0,0
560,-755,0,0,0,0,0,0,0,0,0,-1,1784,1779,0,0
567,-755,0,0,0,0,0,0,0,0,0,-1,1791,1779,0,0
574,-755,0,0,0,0,0,0,0,0,0,-1,1798,1779,0,0
581,-755,0,0,0,0,0,0,0,0,0,-1,1805,1779,0,0
588,-755,0,0,0,0,0,0,0,0,0,-1,1812,1779,0,0
595,-755,0,0,0,0,0,0,0,0,0,-1,1819,1779,0,0
602,-755,0,0,0,0,0,0,0,0,0,-1,1826,1779,0,0
609,-755,0,0,0,0,0,0,0,0,0,-1,1833,1779,0,0
616,-755,0,0,0,0,0,0,0,0,0,-1,1840,1779,0,0
623,-755,0,0,0,0,0,0,0,0,0,-1,1847,1779,0,0
630,-755,0,0,0,0,0,0,0,0,0,-1,1854,1779,0,0
637,-755,0,0,0,0,0,0,0,0,0,-1,1861,1779,0,0
644,-755,0,0,0,0,0,0,0,0,0,-1,1868,1779,0,0
651,-755,0,0,0,0,0,0,0,0,0,-1,1875,1779,0,0
658,-755,0,0,0,0,0,0,0,0,0,-1,1882,1779,0,0
665,-755,0,0,0,0,0,0,0,0,0,-1,1889,1779,0,0
672,-755,0,0,0,0,0,0,0,0,0,-1,1896,1779,0,0
679,-755,0,0,0,0,0,0,0,0,0,-1,1903,1779,0,0
686,-755,0,0,0,0,0,0,0,0,0,-1,1910,1779,0,0
693,-755,0,0,0,0,0,0,0,0,0,-1,1917,1779,0,0
700,-755,0,0,0,0,0,0,0,0,0,-1,1924,1779,0,0
707,-755,0,0,0,0,0,0,0,0,0,-1,1931,1779,0,0
714,-755,0,0,0,0,0,0,0,0,0,-1,1938,1779,0,0
721,-755,0,0,0,0,0,0,0,0,0,-1,1945,1779,0,0
728,-755,0,0,0,0,0,0,0,0,0,-1,1952,1779,0,0
735,-755,0,0,0,0,0,0,0,0,0,-1,1959,1779,0,0
742,-755,0,0,0,0,0,0,0,0,0,-1,1966,1779,0,0
749,-755,0,0,0,0,0,0,0,0,0,-1,1973,1779,0,0
756,-755,0,0,0,0,0,0,0,0,0,-1,1980,1779,0,0
763,-755,0,0,0,0,0,0,0,0,0,-1,1987,1779,0,0
770,-755,0,0,0,0,0,0,0,0,0,-1,1994,1779,0,0
777,-755,0,0,0,0,0,0,0,0,0,-1,2001,1779,0,0
784,-755,0,0,0,0,0,0,0,0,0,-1,2008,1779,0,0
791,-755,0,0,0,0,0,0,0,0,0,-1,2015,1779,0,0
798,-755,0,0,0,0,0,0,0,0,0,-1,2022,1779,0,0
805,-755,0,0,0,0,0,0,0,0,0,-1,2029,1779,0,0
812,-755,0,0,0,0,0,0,0,0,0,-1,2036,1779,0,0
-700,-762,0,0,0,0,0,0,0,0,0,-1,524,1786,0,0
-693,-762,0,0,0,0,0,0,0,0,0,-1,531,1786,0,0
-686,-762,0,0,0,0,0,0,0,0,0,-1,538,1786,0,0
-679,-762,0,0,0,0,0,0,0,0,0,-1,545,1786,0,0
-672,-762,0,0,0,0,0,0,0,0,0,-1,552,1786,0,0
-665,-762,0,0,0,0,0,0,0,0,0,-1,559,1786,0,0
-658,-762,0,0,0,0,0,0,0,0,0,-1,566,1786,0,0
-651,-762,0,0,0,0,0,0,0,0,0,-1,573,1786,0,0
-644,-762,0,0,0,0,0,0,0,0,0,-1,580,1786,0,0
-637,-762,0,0,0,0,0,0,0,0,0,-1,587,1786,0,0
-630,-762,0,0,0,0,0,0,0,0,0,-1,594,1786,0,0
-623,-762,0,0,0,0,0,0,0,0,0,-1,601,1786,0,0
-616,-762,0,0,0,0,0,0,0,0,0,-1,608,1786,0,0
-609,-762,0,0,0,0,0,0,0,0,0,-1,615,1786,0,0
-602,-762,0,0,0,0,0,0,0,0,0,-1,622,1786,0,0
-595,-762,0,0,0,0,0,0,0,0,0,-1,629,1786,0,0
-588,-762,0,0,0,0,0,0,0,0,0,-1,636,1786,0,0
-581,-762,0,0,0,0,0,0,0,0,0,-1,643,1786,0,0
-574,-762,0,0,0,0,0,0,0,0,0,-1,650,1786,0,0
-567,-762,0,0,0,0,0,0,0,0,0,-1,657,1786,0,0
-560,-762,0,0,0,0,0,0,0,0,0,-1,664,1786,0,0
-553,-762,0,0,0,0,0,0,0,0,0,-1,671,1786,0,0
-546,-762,0,0,0,0,0,0,0,0,0,-1,678,1786,0,0
-539,-762,0,0,0,0,0,0,0,0,0,-1,685,1786,0,0
-532,-762,0,0,0,0,0,0,0,0,0,-1,692,1786,0,0
-525,-762,0,0,0,0,0,0,0,0,0,-1,699,1786,0,0
-518,-762,0,0,0,0,0,0,0,0,0,-1,706,1786,0,0
-511,-762,0,0,0,0,0,0,0,0,0,-1,713,1786,0,0
-504,-762,0,0,0,0,0,0,0,0,0,-1,720,1786,0,0
-497,-762,0,0,0,0,0,0,0,0,0,-1,727,1786,0,0
-490,-762,0,0,0,0,0,0,0,0,0,-1,734,1786,0,0
-483,-762,0,0,0,0,0,0,0,0,0,-1,741,1786,0,0
-476,-762,0,0,0,0,0,0,0,0,0,-1,748,1786,0,0
-469,-762,0,0,0,0,0,0,0,0,0,-1,755,1786,0,0
-462,-762,0,0,0,0,0,0,0,0,0,-1,762,1786,0,0
-455,-762,0,0,0,0,0,0,0,0,0,-1,769,1786,0,0
-448,-762,0,0,0,0,0,0,0,0,0,-1,776,1786,0,0
-441,-762,0,0,0,0,0,0,0,0,0,-1,783,1786,0,0
-434,-762,0,0,0,0,0,0,0,0,0,-1,790,1786,0,0
-427,-762,0,0,0,0,0,0,0,0,0,-1,797,1786,0,0
-420,-762,0,0,0,0,0,0,0,0,0,-1,804,1786,0,0
-413,-762,0,0,0,0,0,0,0,0,0,-1,811,1786,0,0
-406,-762,0,0,0,0,0,0,0,0,0,-1,818,1786,0,0
-399,-762,0,0,0,0,0,0,0,0,0,-1,825,1786,0,0
-392,-762,0,0,0,0,0,0,0,0,0,-1,832,1786,0,0
-385,-762,0,0,0,0,0,0,0,0,0,-1,839,1786,0,0
-378,-762,0,0,0,0,0,0,0,0,0,-1,846,1786,0,0
-371,-762,0,0,0,0,0,0,0,0,0,-1,853,1786,0,0
-364,-762,0,0,0,0,0,0,0,0,0,-1,860,1786,0,0
-357,-762,0,0,0,0,0,0,0,0,0,-1,867,1786,0,0
-350,-762,0,0,0,0,0,0,0,0,0,-1,874,1786,0,0
-343,-762,0,0,0,0,0,0,0,0,0,-1,881,1786,0,0
-336,-762,0,0,0,0,0,0,0,0,0,-1,888,1786,0,0
-329,-762,0,0,0,0,0,0,0,0,0,-1,895,1786,0,0
-322,-762,0,0,0,0,0,0,0,0,0,-1,902,1786,0,0
-315,-762,0,0,0,0,0,0,0,0,0,-1,909,1786,0,0
-308,-762,0,0,0,0,0,0,0,0,0,-1,916,1786,0,0
-301,-762,0,0,0,0,0,0,0,0,0,-1,923,1786,0,0
-294,-762,0,0,0,0,0,0,0,0,0,-1,930,1786,0,0
-287,-762,0,0,0,0,0,0,0,0,0,-1,937,1786,0,0
-280,-762,0,0,0,0,0,0,0,0,0,-1,944,1786,0,0
-273,-762,0,0,0,0,0,0,0,0,0,-1,951,1786,0,0
-266,-762,0,0,0,0,0,0,0,0,0,-1,958,1786,0,0
-259,-762,0,0,0,0,0,0,0,0,0,-1,965,1786,0,0
-252,-762,0,0,0,0,0,0,0,0,0,-1,972,1786,0,0
-245,-762,0,0,0,0,0,0,0,0,0,-1,979,1786,0,0
-238,-762,0,0,0,0,0,0,0,0,0,-1,986,1786,0,0
-231,-762,0,0,0,0,0,0,0,0,0,-1,993,1786,0,0
-224,-762,0,0,0,0,0,0,0,0,0,-1,1000,1786,0,0
-217,-762,0,0,0,0,0,0,0,0,0,-1,1007,1786,0,0
-210,-762,0,0,0,0,0,0,0,0,0,-1,1014,1786,0,0
-203,-762,0,0,0,0,0,0,0,0,0,-1,1021,1786,0,0
-196,-762,0,0,0,0,0,0,0,0,0,-1,1028,1786,0,0
-189,-762,0,0,0,0,0,0,0,0,0,-1,1035,1786,0,0
-182,-762,0.536499,0.361694,0,0,0,0,0,0,0,-1,1042,1786,0.536449,-0.361638
-175,-762,-0.176147,0.443359,0,0,0,0,0,0,0,-1,1049,1786,-0.176117,-0.44342
-168,-762,-0.349365,1.44702,0,0,0,0,0,0,0,-1,1056,1786,-0.349388,-1.44696
-161,-762,-2.24097,1.36499,0,0,0,0,0,0,0,-1,1063,1786,-2.24093,-1.365
-154,-762,-2.30798,1.15503,0.00764758,0.0107353,0.0237406,0.0329822,-0.0145994,0.817867,0.0281463,0.0448127,1070,1786,-2.30796,-1.15505
-147,-762,-2.31262,0.932495,-0.0103229,0.0196152,0.020492,0.0300233,-0.0207309,1.10084,0.0294662,0.0474662,1077,1786,-2.31263,-0.93248
-140,-762,-0.784058,0.355469,0,0,0,0,0,0,0,-1,1084,1786,-0.784099,-0.355464
-133,-762,-0.486572,0.128662,0,0,0,0,0,0,0,-1,1091,1786,-0.486529,-0.128665
-126,-762,4.06873,-1.40759,0,0,0,0,0,0,0,-1,1098,1786,4.06874,1.40765
-119,-762,3.29089,-1.16089,-0.0373932,0.0504737,0.0142089,0.0527143,-0.0396338,1.4144,0.0534952,0.0446472,1105,1786,3.29088,1.16087
-112,-762,-0.0914307,-0.763916,-0.0391864,0.053073,0.0133104,0.054955,-0.0410684,1.43034,0.055632,0.0422865,1112,1786,-0.0914795,0.763867
-105,-762,-0.210693,-0.62085,-0.0385428,0.0518296,0.012629,0.0535612,-0.0402744,1.43453,0.0543568,0.0429146,1119,1786,-0.210689,0.620881
-98,-762,-0.4729,-0.194092,-0.0364892,0.04874,0.0117049,0.0503182,-0.0380675,1.43677,0.0511926,0.0446664,1126,1786,-0.472955,0.194093
-91,-762,-0.666138,-0.216187,-0.0330426,0.0432538,0.010295,0.0446185,-0.0344073,1.439,0.0457524,0.0459544,1133,1786,-0.66609,0.216184
-84,-762,-0.807129,-0.279785,-0.0279184,0.0352238,0.0090635,0.036499,-0.0291937,1.43101,0.0380058,0.042649,1140,1786,-0.807072,0.279725
-77,-762,-0.886475,0.0482178,-0.0220475,0.0277064,0.00694338,0.0286572,-0.0229984,1.43471,0.0298829,0.0398232,1147,1786,-0.886453,-0.048243
-70,-762,1.14966,0.307861,-0.0171255,0.0210219,0.00481219,0.0216196,-0.0177232,1.44723,0.0227517,0.0439612,1154,1786,1.14971,-0.307839
-63,-762,0.943359,0.21521,-0.0124214,0.0137617,0.00257851,0.0140132,-0.0126729,1.47356,0.0154137,0.0451904,1161,1786,0.943352,-0.215198
-56,-762,0.14978,0.373047,0,0,0,0,0,0,0,-1,1168,1786,0.149754,-0.373046
-49,-762,0.130493,0.239624,-0.00615049,0.00534398,-0.00139226,0.00551021,-0.00631673,-1.45196,0.00683358,0.0449493,1175,1786,0.130536,-0.239677
-42,-762,0.293945,0.302856,-0.005434,0.00403122,-0.00308044,0.00494544,-0.00634822,-1.28229,0.00653714,0.0437625,1182,1786,0.293946,-0.302901
-35,-762,0.13269,0.133057,-0.00544601,0.0031687,-0.00402406,0.00475595,-0.00703326,-1.19509,0.0068487,0.0499773,1189,1786,0.132647,-0.13311
-28,-762,-0.271851,0.0601807,-0.00531944,0.00404906,-0.00415379,0.0056255,-0.00689587,-1.20807,0.00724161,0.0475329,1196,1786,-0.271848,-0.0602378
-21,-762,-0.189453,0.0324707,-0.00553783,0.00577512,-0.00412859,0.00712157,-0.00688428,-1.25554,0.00808667,0.0429075,1203,1786,-0.189432,-0.032475
-14,-762,-0.0615234,0.0874023,0,0,0,0,0,0,0,-1,1210,1786,-0.0615106,-0.0873656
-7,-762,-0.170166,0.0108643,-0.00444085,0.00919876,3.115e-05,0.00919884,-0.00444092,1.56851,0.00803303,0.045826,1217,1786,-0.170128,-0.0108891
0,-762,-0.141235,-0.0383301,-0.00300062,0.0101616,0.00275802,0.0107161,-0.00355518,1.37237,0.00857832,0.0328848,1224,1786,-0.141196,0.0383367
7,-762,-0.0992432,-0.0257568,-0.00168707,0.0109404,0.00553289,0.0130216,-0.00376835,1.21101,0.0101726,0.0197451,1231,1786,-0.0992019,0.0257526
14,-762,-0.0712891,-0.0273438,-0.000435536,0.0112413,0.00892728,0.0160698,-0.00526405,1.07499,0.012833,0.0346936,1238,1786,-0.0712436,0.0273475
21,-762,-0.0532227,-0.101929,0.000475672,0.0116026,0.0122943,0.0195336,-0.00745538,0.997873,0.0160938,0.0423131,1245,1786,-0.0531816,0.101915
28,-762,0.0317383,-0.182739,0.000991064,0.0111636,0.01422,0.0211796,-0.0090249,0.957151,0.017903,0.0370271,1252,1786,0.0317678,0.18271
35,-762,0.0045166,-0.0908203,0.00206525,0.0119003,0.0153623,0.0231129,-0.00914741,0.940296,0.0191984,0.0410956,1259,1786,0.00446619,0.0907979
42,-762,-0.0916748,0.0552979,0.00425312,0.0121282,0.0158597,0.0245319,-0.00815057,0.907074,0.0196434,0.0412,1266,1786,-0.0917115,-0.0552388
49,-762,-0.12561,-0.0219727,0.00511333,0.0114998,0.0158864,0.0245107,-0.00789752,0.88458,0.0195132,0.0324691,1273,1786,-0.12558,0.0219787
56,-762,-0.0145264,-0.0946045,0.0060738,0.011233,0.0147164,0.0235942,-0.00628739,0.872161,0.0181912,0.0210794,1280,1786,-0.01447,0.0946153
63,-762,-0.0601807,-0.0771484,0.00925436,0.0112516,0.0139391,0.0242278,-0.00372183,0.821159,0.0175247,0.0199252,1287,1786,-0.0601449,0.0771976
70,-762,-0.125977,-0.0626221,0.0126323,0.0117215,0.0127333,0.0249183,-0.000564537,0.767523,0.0168035,0.0194894,1294,1786,-0.125937,0.0625822
77,-762,-0.102661,-0.0753174,0.0169637,0.0117398,0.0115651,0.0262082,0.00249536,0.674338,0.0167026,0.025952,1301,1786,-0.102623,0.0753571
84,-762,-0.0560303,-0.124146,0.0214536,0.0116696,0.010104,0.0277876,0.00533556,0.559949,0.0170275,0.0304609,1308,1786,-0.0560809,0.124148
91,-762,0.0241699,-0.133423,0.0261103,0.0118043,0.0089659,0.0304269,0.00748768,0.4487,0.0183065,0.0389499,1315,1786,0.0241485,0.133424
98,-762,-0.0418701,-0.0213623,0.0304093,0.0116723,0.00784219,0.0332583,0.0088232,0.348473,0.0198944,0.0398587,1322,1786,-0.0418849,0.0213253
105,-762,-0.0467529,-0.00622559,0.0336459,0.0127494,0.00740932,0.0360064,0.0103889,0.308418,0.0213991,0.0396684,1329,1786,-0.0466986,0.00622041
112,-762,-0.0578613,-0.06604,0.0353747,0.0140452,0.00788918,0.0379756,0.0114444,0.318452,0.0224945,0.0449476,1336,1786,-0.0578244,0.0660586
119,-762,-0.469482,-0.193604,0.035963,0.0152343,0.00815222,0.0387849,0.0124123,0.333247,0.0228709,0.0420808,1343,1786,-0.469439,0.193629
126,-762,-0.196045,0.0422363,0.0352911,0.0158402,0.00854545,0.0385121,0.0126193,0.360452,0.0226709,0.0422572,1350,1786,-0.196103,-0.0422697
133,-762,-0.0131836,0.013916,0.0335084,0.0169689,0.00959689,0.0379071,0.0125702,0.42977,0.0222956,0.0457226,1357,1786,-0.0131254,-0.0139477
140,-762,0.0253906,-0.120483,0.029556,0.0168054,0.0103625,0.0353473,0.0110141,0.509627,0.0208851,0.0429444,1364,1786,0.0254388,0.120525
147,-762,-0.0473633,0.104492,0.0250128,0.017495,0.0105951,0.0324961,0.0100117,0.614935,0.0192167,0.041671,1371,1786,-0.0473132,-0.104446
154,-762,-0.640503,-0.8479,0.0222523,0.0173374,0.0101498,0.0302379,0.00935178,0.666624,0.0178762,0.0419186,1378,1786,-0.640485,0.847901
161,-762,-0.369019,-0.753906,0.0195125,0.0169287,0.00937441,0.0276836,0.00875761,0.716923,0.0163386,0.0422659,1385,1786,-0.369028,0.753931
168,-762,-0.0289307,-0.446289,0.0165719,0.0158193,0.00827765,0.0244818,0.0079094,0.762684,0.0144265,0.0432599,1392,1786,-0.0289893,0.446335
175,-762,-0.129639,-0.370117,0.014277,0.0138706,0.00697065,0.0210474,0.00710017,0.770827,0.0123642,0.0450932,1399,1786,-0.1296,0.370103
182,-762,-0.071167,-0.297241,0.0125823,0.0114572,0.00562202,0.0176699,0.00636966,0.735531,0.0103332,0.0477461,1406,1786,-0.0712269,0.297279
189,-762,0.000610352,-0.427612,0.0125504,0.00871738,0.00467056,0.0156824,0.00558543,0.590703,0.00917828,0.0420814,1413,1786,0.000552227,0.427602
196,-762,0.0930176,-0.351196,0.0135249,0.00606538,0.00375116,0.015085,0.00450531,0.39413,0.00894157,0.0394867,1420,1786,0.0929697,0.351255
203,-762,0.352417,-0.491211,0.0135789,0.00382883,0.00243745,0.0141543,0.00325344,0.231819,0.00856032,0.038108,1427,1786,0.352397,0.491226
210,-762,0.527954,-0.473877,0.0127295,0.000804295,0.000692922,0.0127696,0.000764168,0.0578463,0.00827012,0.0454725,1434,1786,0.528003,0.47385
217,-762,0.500122,-0.310059,0.0112594,-0.00187941,-0.000717408,0.0112984,-0.00191846,-0.0543868,0.0082465,0.047751,1441,1786,0.500082,0.310006
224,-762,0.460083,-0.138062,0.00964092,-0.00358697,-0.00140213,0.00978791,-0.00373396,-0.104452,0.00806345,0.0431157,1448,1786,0.460023,0.138003
231,-762,0.368042,-0.0307617,0.00780419,-0.00455623,-0.00149208,0.00798175,-0.00473379,-0.118448,0.00742072,0.0406033,1455,1786,0.36799,0.0308175
238,-762,0.474731,0.109863,0.0054474,-0.00540501,-0.00129581,0.00559998,-0.00555759,-0.117208,0.00644184,0.0403465,1462,1786,0.474742,-0.109872
245,-762,0.76709,0.376465,0.00264128,-0.00631906,-0.000985919,0.00274848,-0.00642626,-0.108305,0.00543705,0.0423604,1469,1786,0.76706,-0.376438
252,-762,1.24036,0.667358,-0.000513197,-0.00740764,-0.000334989,-0.000496958,-0.00742388,-0.0484362,0.0047922,0.0438464,1476,1786,1.24037,-0.667309
259,-762,0.159668,-0.11792,-0.00378127,-0.00771717,0.000691768,-0.00366322,-0.00783521,0.169013,0.00452684,0.0417744,1483,1786,0.159646,0.117875
266,-762,-0.0856934,-0.147339,-0.00656056,-0.00969876,0.00269292,-0.00501295,-0.0112464,0.521606,0.00650583,0.040143,1490,1786,-0.0856473,0.14735
273,-762,-0.216553,-0.129395,-0.00735523,-0.0107682,0.00370634,-0.00498138,-0.013142,0.569655,0.0076612,0.0399656,1497,1786,-0.216566,0.12942
280,-762,-0.231323,-0.0578613,-0.00814501,-0.0107261,0.00488299,-0.00438489,-0.0144862,0.656207,0.00857791,0.0388096,1504,1786,-0.231296,0.0578182
287,-762,-0.0714111,0.0325928,-0.00884496,-0.010987,0.00514353,-0.00466211,-0.0151698,0.682753,0.00897243,0.040298,1511,1786,-0.0714207,-0.0325409
294,-762,-0.0992432,0.0805664,0,0,0,0,0,0,0,-1,1518,1786,-0.0992789,-0.08052
301,-762,-0.0771484,-0.124634,0,0,0,0,0,0,0,-1,1525,1786,-0.07715,0.124652
308,-762,0,0,0,0,0,0,0,0,0,-1,1532,1786,0,0
315,-762,0,0,0,0,0,0,0,0,0,-1,1539,1786,0,0
322,-762,0,0,0,0,0,0,0,0,0,-1,1546,1786,0,0
329,-762,0,0,0,0,0,0,0,0,0,-1,1553,1786,0,0
336,-762,0,0,0,0,0,0,0,0,0,-1,1560,1786,0,0
343,-762,0,0,0,0,0,0,0,0,0,-1,1567,1786,0,0
350,-762,0,0,0,0,0,0,0,0,0,-1,1574,1786,0,0
357,-762,0,0,0,0,0,0,0,0,0,-1,1581,1786,0,0
364,-762,0,0,0,0,0,0,0,0,0,-1,1588,1786,0,0
371,-762,0,0,0,0,0,0,0,0,0,-1,1595,1786,0,0
378,-762,0,0,0,0,0,0,0,0,0,-1,1602,1786,0,0
385,-762,0,0,0,0,0,0,0,0,0,-1,1609,1786,0,0
392,-762,0,0,0,0,0,0,0,0,0,-1,1616,1786,0,0
399,-762,0,0,0,0,0,0,0,0,0,-1,1623,1786,0,0
406,-762,0,0,0,0,0,0,0,0,0,-1,1630,1786,0,0
413,-762,0,0,0,0,0,0,0,0,0,-1,1637,1786,0,0
420,-762,0,0,0,0,0,0,0,0,0,-1,1644,1786,0,0
427,-762,0,0,0,0,0,0,0,0,0,-1,1651,1786,0,0
434,-762,0,0,0,0,0,0,0,0,0,-1,1658,1786,0,0
441,-762,0,0,0,0,0,0,0,0,0,-1,1665,1786,0,0
448,-762,0,0,0,0,0,0,0,0,0,-1,1672,1786,0,0
455,-762,0,0,0,0,0,0,0,0,0,-1,1679,1786,0,0
462,-762,0,0,0,0,0,0,0,0,0,-1,1686,1786,0,0
469,-762,0,0,0,0,0,0,0,0,0,-1,1693,1786,0,0
476,-762,0,0,0,0,0,0,0,0,0,-1,1700,1786,0,0
483,-762,0,0,0,0,0,0,0,0,0,-1,1707,1786,0,0
490,-762,0,0,0,0,0,0,0,0,0,-1,1714,1786,0,0
497,-762,0,0,0,0,0,0,0,0,0,-1,1721,1786,0,0
504,-762,0,0,0,0,0,0,0,0,0,-1,1728,1786,0,0
511,-762,0,0,0,0,0,0,0,0,0,-1,1735,1786,0,0
518,-762,0,0,0,0,0,0,0,0,0,-1,1742,1786,0,0
525,-762,0,0,0,0,0,0,0,0,0,-1,1749,1786,0,0
532,-762,0,0,0,0,0,0,0,0,0,-1,1756,1786,0,0
539,-762,0,0,0,0,0,0,0,0,0,-1,1763,1786,0,0
546,-762,0,0,0,0,0,0,0,0,0,-1,1770,1786,0,0
553,-762,0,0,0,0,0,0,0,0,0,-1,1777,1786,0,0
560,-762,0,0,0,0,0,0,0,0,0,-1,1784,1786,0,0
567,-762,0,0,0,0,0,0,0,0,0,-1,1791,1786,0,0
574,-762,0,0,0,0,0,0,0,0,0,-1,1798,1786,0,0
581,-762,0,0,0,0,0,0,0,0,0,-1,1805,1786,0,0
588,-762,0,0,0,0,0,0,0,0,0,-1,1812,1786,0,0
595,-762,0,0,0,0,0,0,0,0,0,-1,1819,1786,0,0
602,-762,0,0,0,0,0,0,0,0,0,-1,1826,1786,0,0
609,-762,0,0,0,0,0,0,0,0,0,-1,1833,1786,0,0
616,-762,0,0,0,0,0,0,0,0,0,-1,1840,1786,0,0
623,-762,0,0,0,0,0,0,0,0,0,-1,1847,1786,0,0
630,-762,0,0,0,0,0,0,0,0,0,-1,1854,1786,0,0
637,-762,0,0,0,0,0,0,0,0,0,-1,1861,1786,0,0
644,-762,0,0,0,0,0,0,0,0,0,-1,1868,1786,0,0
651,-762,0,0,0,0,0,0,0,0,0,-1,1875,1786,0,0
658,-762,0,0,0,0,0,0,0,0,0,-1,1882,1786,0,0
665,-762,0,0,0,0,0,0,0,0,0,-1,1889,1786,0,0
672,-762,0,0,0,0,0,0,0,0,0,-1,1896,1786,0,0
679,-762,0,0,0,0,0,0,0,0,0,-1,1903,1786,0,0
686,-762,0,0,0,0,0,0,0,0,0,-1,1910,1786,0,0
693,-762,0,0,0,0,0,0,0,0,0,-1,1917,1786,0,0
700,-762,0,0,0,0,0,0,0,0,0,-1,1924,1786,0,0
707,-762,0,0,0,0,0,0,0,0,0,-1,1931,1786,0,0
714,-762,0,0,0,0,0,0,0,0,0,-1,1938,1786,0,0
721,-762,0,0,0,0,0,0,0,0,0,-1,1945,1786,0,0
728,-762,0,0,0,0,0,0,0,0,0,-1,1952,1786,0,0
735,-762,0,0,0,0,0,0,0,0,0,-1,1959,1786,0,0
742,-762,0,0,0,0,0,0,0,0,0,-1,1966,1786,0,0
749,-762,0,0,0,0,0,0,0,0,0,-1,1973,1786,0,0
756,-762,0,0,0,0,0,0,0,0,0,-1,1980,1786,0,0
763,-762,0,0,0,0,0,0,0,0,0,-1,1987,1786,0,0
770,-762,0,0,0,0,0,0,0,0,0,-1,1994,1786,0,0
777,-762,0,0,0,0,0,0,0,0,0,-1,2001,1786,0,0
784,-762,0,0,0,0,0,0,0,0,0,-1,2008,1786,0,0
791,-762,0,0,0,0,0,0,0,0,0,-1,2015,1786,0,0
798,-762,0,0,0,0,0,0,0,0,0,-1,2022,1786,0,0
805,-762,0,0,0,0,0,0,0,0,0,-1,2029,1786,0,0
812,-762,0,0,0,0,0,0,0,0,0,-1,2036,1786,0,0
-700,-769,0,0,0,0,0,0,0,0,0,-1,524,1793,0,0
-693,-769,0,0,0,0,0,0,0,0,0,-1,531,1793,0,0
-686,-769,0,0,0,0,0,0,0,0,0,-1,538,1793,0,0
-679,-769,0,0,0,0,0,0,0,0,0,-1,545,1793,0,0
-672,-769,0,0,0,0,0,0,0,0,0,-1,552,1793,0,0
-665,-769,0,0,0,0,0,0,0,0,0,-1,559,1793,0,0
-658,-769,0,0,0,0,0,0,0,0,0,-1,566,1793,0,0
-651,-769,0,0,0,0,0,0,0,0,0,-1,573,1793,0,0
-644,-769,0,0,0,0,0,0,0,0,0,-1,580,1793,0,0
-637,-769,0,0,0,0,0,0,0,0,0,-1,587,1793,0,0
-630,-769,0,0,0,0,0,0,0,0,0,-1,594,1793,0,0
-623,-769,0,0,0,0,0,0,0,0,0,-1,601,1793,0,0
-616,-769,0,0,0,0,0,0,0,0,0,-1,608,1793,0,0
-609,-769,0,0,0,0,0,0,0,0,0,-1,615,1793,0,0
-602,-769,0,0,0,0,0,0,0,0,0,-1,622,1793,0,0
-595,-769,0,0,0,0,0,0,0,0,0,-1,629,1793,0,0
-588,-769,0,0,0,0,0,0,0,0,0,-1,636,1793,0,0
-581,-769,0,0,0,0,0,0,0,0,0,-1,643,1793,0,0
-574,-769,0,0,0,0,0,0,0,0,0,-1,650,1793,0,0
-567,-769,0,0,0,0,0,0,0,0,0,-1,657,1793,0,0
-560,-769,0,0,0,0,0,0,0,0,0,-1,664,1793,0,0
-553,-769,0,0,0,0,0,0,0,0,0,-1,671,1793,0,0
-546,-769,0,0,0,0,0,0,0,0,0,-1,678,1793,0,0
-539,-769,0,0,0,0,0,0,0,0,0,-1,685,1793,0,0
-532,-769,0,0,0,0,0,0,0,0,0,-1,692,1793,0,0
-525,-769,0,0,0,0,0,0,0,0,0,-1,699,1793,0,0
-518,-769,0,0,0,0,0,0,0,0,0,-1,706,1793,0,0
-511,-769,0,0,0,0,0,0,0,0,0,-1,713,1793,0,0
-504,-769,0,0,0,0,0,0,0,0,0,-1,720,1793,0,0
-497,-769,0,0,0,0,0,0,0,0,0,-1,727,1793,0,0
-490,-769,0,0,0,0,0,0,0,0,0,-1,734,1793,0,0
-483,-769,0,0,0,0,0,0,0,0,0,-1,741,1793,0,0
-476,-769,0,0,0,0,0,0,0,0,0,-1,748,1793,0,0
-469,-769,0,0,0,0,0,0,0,0,0,-1,755,1793,0,0
-462,-769,0,0,0,0,0,0,0,0,0,-1,762,1793,0,0
-455,-769,0,0,0,0,0,0,0,0,0,-1,769,1793,0,0
-448,-769,0,0,0,0,0,0,0,0,0,-1,776,1793,0,0
-441,-769,0,0,0,0,0,0,0,0,0,-1,783,1793,0,0
-434,-769,0,0,0,0,0,0,0,0,0,-1,790,1793,0,0
-427,-769,0,0,0,0,0,0,0,0,0,-1,797,1793,0,0
-420,-769,0,0,0,0,0,0,0,0,0,-1,804,1793,0,0
-413,-769,0,0,0,0,0,0,0,0,0,-1,811,1793,0,0
-406,-769,0,0,0,0,0,0,0,0,0,-1,818,1793,0,0
-399,-769,0,0,0,0,0,0,0,0,0,-1,825,1793,0,0
-392,-769,0,0,0,0,0,0,0,0,0,-1,832,1793,0,0
-385,-769,0,0,0,0,0,0,0,0,0,-1,839,1793,0,0
-378,-769,0,0,0,0,0,0,0,0,0,-1,846,1793,0,0
-371,-769,0,0,0,0,0,0,0,0,0,-1,853,1793,0,0
-364,-769,0,0,0,0,0,0,0,0,0,-1,860,1793,0,0
-357,-769,0,0,0,0,0,0,0,0,0,-1,867,1793,0,0
-350,-769,0,0,0,0,0,0,0,0,0,-1,874,1793,0,0
-343,-769,0,0,0,0,0,0,0,0,0,-1,881,1793,0,0
-336,-769,0,0,0,0,0,0,0,0,0,-1,888,1793,0,0
-329,-769,0,0,0,0,0,0,0,0,0,-1,895,1793,0,0
-322,-769,0,0,0,0,0,0,0,0,0,-1,902,1793,0,0
-315,-769,0,0,0,0,0,0,0,0,0,-1,909,1793,0,0
-308,-769,0,0,0,0,0,0,0,0,0,-1,916,1793,0,0
-301,-769,0,0,0,0,0,0,0,0,0,-1,923,1793,0,0
-294,-769,0,0,0,0,0,0,0,0,0,-1,930,1793,0,0
-287,-769,0,0,0,0,0,0,0,0,0,-1,937,1793,0,0
-280,-769,0,0,0,0,0,0,0,0,0,-1,944,1793,0,0
-273,-769,0,0,0,0,0,0,0,0,0,-1,951,1793,0,0
-266,-769,0,0,0,0,0,0,0,0,0,-1,958,1793,0,0
-259,-769,0,0,0,0,0,0,0,0,0,-1,965,1793,0,0
-252,-769,0,0,0,0,0,0,0,0,0,-1,972,1793,0,0
-245,-769,0,0,0,0,0,0,0,0,0,-1,979,1793,0,0
-238,-769,0,0,0,0,0,0,0,0,0,-1,986,1793,0,0
-231,-769,0,0,0,0,0,0,0,0,0,-1,993,1793,0,0
-224,-769,0,0,0,0,0,0,0,0,0,-1,1000,1793,0,0
-217,-769,0,0,0,0,0,0,0,0,0,-1,1007,1793,0,0
-210,-769,0,0,0,0,0,0,0,0,0,-1,1014,1793,0,0
-203,-769,0,0,0,0,0,0,0,0,0,-1,1021,1793,0,0
-196,-769,0,0,0,0,0,0,0,0,0,-1,1028,1793,0,0
-189,-769,0,0,0,0,0,0,0,0,0,-1,1035,1793,0,0
-182,-769,0,0,0,0,0,0,0,0,0,-1,1042,1793,0,0
-175,-769,0,0,0,0,0,0,0,0,0,-1,1049,1793,0,0
-168,-769,0,0,0,0,0,0,0,0,0,-1,1056,1793,0,0
-161,-769,-2.96216,1.53711,0,0,0,0,0,0,0,-1,1063,1793,-2.96212,-1.53709
-154,-769,-2.97546,1.32751,0.00626256,0.020428,0.0340483,0.0481224,-0.0214319,0.887945,0.041131,0.0456152,1070,1793,-2.97547,-1.32746
-147,-769,-2.98169,1.18286,-0.0167114,0.0304797,0.0304791,0.0454292,-0.031661,1.11479,0.0447441,0.045006,1077,1793,-2.98174,-1.18281
-140,-769,-3.0957,1.01746,0,0,0,0,0,0,0,-1,1084,1793,-3.09574,-1.01749
-133,-769,5.42627,-2.15881,0,0,0,0,0,0,0,-1,1091,1793,5.42621,2.15877
-126,-769,3.61438,-1.75549,0,0,0,0,0,0,0,-1,1098,1793,3.61441,1.75553
-119,-769,2.80396,-1.83752,-0.0501181,0.0657128,0.0215521,0.069593,-0.0539983,1.39267,0.0715445,0.0479349,1105,1793,2.8039,1.83747
-112,-769,3.15698,-1.01453,-0.0523222,0.068426,0.020164,0.0717042,-0.0556005,1.40963,0.0736952,0.0433531,1112,1793,3.15702,1.01453
-105,-769,1.9082,-0.855591,-0.0508145,0.0660034,0.0189156,0.0689899,-0.053801,1.4142,0.0710739,0.0386439,1119,1793,1.90825,0.855641
-98,-769,0.989258,-0.933105,-0.0476173,0.061607,0.0174573,0.0643293,-0.0503396,1.4161,0.0663681,0.0385573,1126,1793,0.989303,0.933082
-91,-769,-0.927002,-0.775146,-0.04251,0.0544781,0.0153765,0.0568576,-0.0448895,1.41727,0.058879,0.0450829,1133,1793,-0.927061,0.775094
-84,-769,-1.07141,-0.806519,-0.0354968,0.0444538,0.0133715,0.0466309,-0.0376739,1.4094,0.0487649,0.048157,1140,1793,-1.07147,0.806558
-77,-769,-1.43164,-0.00671387,-0.0281059,0.0352793,0.0102342,0.0368908,-0.0297173,1.41462,0.0385305,0.0428438,1147,1793,-1.43163,0.00668519
-70,-769,0.328491,0.582031,0,0,0,0,0,0,0,-1,1154,1793,0.328536,-0.582031
-63,-769,0.391357,0.599121,-0.0162173,0.0188636,0.00406317,0.0193281,-0.0166817,1.45698,0.020809,0.0489848,1161,1793,0.391349,-0.599119
-56,-769,0.320068,0.670654,0,0,0,0,0,0,0,-1,1168,1793,0.320027,-0.67066
-49,-769,0.196777,0.657837,-0.00828206,0.00833859,-0.00150882,0.00847445,-0.00841791,-1.48099,0.00975283,0.0450136,1175,1793,0.196779,-0.657864
-42,-769,-0.00146484,0.694458,-0.00762866,0.00639116,-0.00382235,0.00736556,-0.00860305,-1.32119,0.0092287,0.0428429,1182,1793,-0.00141162,-0.694484
-35,-769,-0.0760498,0.314331,-0.00785773,0.0050317,-0.00510761,0.00681025,-0.00963627,-1.23571,0.00954202,0.0450543,1189,1793,-0.0760951,-0.314282
-28,-769,-0.414307,-0.118042,-0.00778457,0.00584761,-0.00526322,0.00764317,-0.00958013,-1.24202,0.00996482,0.0469426,1196,1793,-0.414316,0.118023
-21,-769,-0.339355,0.0780029,0,0,0,0,0,0,0,-1,1203,1793,-0.33939,-0.078016
-14,-769,-0.404663,-1.29053,-0.00765932,0.0095644,-0.00292952,0.010049,-0.00814396,-1.40685,0.0105229,0.0492457,1210,1793,-0.404653,1.29052
-7,-769,-0.336304,-1.59033,-0.00636376,0.0113094,-7.56912e-05,0.0113098,-0.00636408,-1.56651,0.0103363,0.0474671,1217,1793,-0.336246,1.59036
0,-769,-0.0407715,-0.400635,-0.00462106,0.0123455,0.00357219,0.0130669,-0.00534248,1.37152,0.0109361,0.0460992,1224,1793,-0.0407735,0.400637
7,-769,0.437012,-0.334351,-0.0028211,0.0131492,0.0073159,0.0159939,-0.00566578,1.19995,0.0129704,0.0427547,1231,1793,0.436955,0.334323
14,-769,-0.0786133,0.012207,0,0,0,0,0,0,0,-1,1238,1793,-0.0786649,-0.0121915
21,-769,0.146851,-0.431152,0.000184338,0.0141052,0.0162881,0.0248578,-0.0105682,0.98732,0.0210005,0.0431403,1245,1793,0.146902,0.431199
28,-769,0.119751,-0.353027,0.000977091,0.0139706,0.0188029,0.0273675,-0.0124198,0.951736,0.0235054,0.0389726,1252,1793,0.119801,0.353082
35,-769,0.15979,-0.314087,0.00250587,0.0153569,0.0203606,0.0302818,-0.012419,0.938245,0.0253622,0.0409576,1259,1793,0.159741,0.314083
42,-769,-0.151611,0.157959,0.00546783,0.0159443,0.0210586,0.0324064,-0.0109942,0.907298,0.026054,0.047751,1266,1793,-0.151671,-0.15801
49,-769,-0.321289,0.279663,0,0,0,0,0,0,0,-1,1273,1793,-0.321337,-0.279724
56,-769,0.13916,-0.14502,0,0,0,0,0,0,0,-1,1280,1793,0.139192,0.145042
63,-769,1.55029,1.89929,0,0,0,0,0,0,0,-1,1287,1793,1.55028,-1.89927
70,-769,1.66992,1.9071,0,0,0,0,0,0,0,-1,1294,1793,1.66995,-1.90705
77,-769,-0.107422,-0.128052,0.0216825,0.0164554,0.0146272,0.0339277,0.00421011,0.696992,0.0213539,0.0462768,1301,1793,-0.107433,0.128032
84,-769,-0.337402,-0.402588,0.0274059,0.0161458,0.0125049,0.0354898,0.00806196,0.573876,0.0214828,0.0448809,1308,1793,-0.337401,0.402619
91,-769,0.403809,-0.326172,0.0334118,0.0160815,0.0107531,0.0385566,0.0109368,0.446256,0.0229447,0.0470602,1315,1793,0.403821,0.326146
98,-769,0.113037,-0.0422363,0.0389108,0.0155967,0.00906768,0.0420223,0.0124852,0.330551,0.0249185,0.0463963,1322,1793,0.113015,0.0422764
105,-769,-0.0330811,0.0256348,0,0,0,0,0,0,0,-1,1329,1793,-0.0331336,-0.0256513
112,-769,-3.14685,-0.69165,0.0453508,0.0175665,0.00872637,0.0478642,0.0150531,0.280431,0.0282613,0.0443717,1336,1793,-3.14685,0.691701
119,-769,-1.93005,-0.522949,0.0461961,0.0186472,0.0089899,0.0488702,0.0159732,0.289118,0.0287737,0.0424856,1343,1793,-1.93001,0.522897
126,-769,-0.671021,-0.322388,0.0454868,0.018955,0.00951267,0.048545,0.0158969,0.311048,0.0285783,0.0422074,1350,1793,-0.671078,0.322356
133,-769,0.0528564,0.0618896,0,0,0,0,0,0,0,-1,1357,1793,0.0528139,-0.0619121
140,-769,0.151367,-0.170166,0,0,0,0,0,0,0,-1,1364,1793,0.151337,0.1702
147,-769,-0.349365,-2.50037,0,0,0,0,0,0,0,-1,1371,1793,-0.349312,2.50041
154,-769,-0.317383,-1.76208,0.0286709,0.0202282,0.0120972,0.0372621,0.011637,0.617526,0.0220127,0.0481733,1378,1793,-0.317368,1.76206
161,-769,-0.128052,-1.06738,0.0250457,0.0196604,0.0113497,0.0340178,0.0106883,0.668931,0.0200871,0.0472784,1385,1793,-0.128006,1.06735
168,-769,-0.168945,-0.751587,0.0213361,0.0183339,0.0103445,0.0302878,0.00938215,0.713346,0.0179036,0.0472335,1392,1793,-0.16898,0.751542
175,-769,-0.17041,-0.455811,0.0184684,0.0159091,0.00900316,0.0262824,0.00809509,0.714804,0.0155426,0.0489975,1399,1793,-0.170433,0.455787
182,-769,-0.128296,-0.0852051,0.0163568,0.0128292,0.00751994,0.022317,0.006869,0.670206,0.0131983,0.044783,1406,1793,-0.128326,0.0851746
189,-769,-0.127808,-0.0280762,0.0163057,0.00940939,0.00646227,0.0201822,0.00553287,0.540323,0.0120419,0.0386209,1413,1793,-0.127784,0.0280239
196,-769,0.233765,0.78479,0.017749,0.00613551,0.0055397,0.0199676,0.00391689,0.380933,0.0122173,0.0398094,1420,1793,0.233762,-0.7848
203,-769,0.680908,-0.793701,0,0,0,0,0,0,0,-1,1427,1793,0.680903,0.793696
210,-769,0.779541,-0.760986,0,0,0,0,0,0,0,-1,1434,1793,0.7796,0.761035
217,-769,0.837036,-0.337524,0,0,0,0,0,0,0,-1,1441,1793,0.837086,0.337568
224,-769,0.530396,0.234863,0.0136013,-0.00512515,-0.000146111,0.0136024,-0.00512629,-0.00780175,0.0111761,0.044931,1448,1793,0.53041,-0.234883
231,-769,0.519409,-0.0020752,0.0113876,-0.00608582,-0.000132126,0.0113886,-0.00608682,-0.00756094,0.0102431,0.042995,1455,1793,0.519469,0.00211901
238,-769,0.27417,0.0159912,0.00848761,-0.00692637,0.000245862,0.00849153,-0.00693029,0.0159452,0.00891899,0.039825,1462,1793,0.274187,-0.015932
245,-769,0.688721,0.326294,0.00491687,-0.00789257,0.000806037,0.00496739,-0.00794309,0.0625961,0.00751958,0.0419432,1469,1793,0.688745,-0.326324
252,-769,-0.112305,0.434692,0.000816636,-0.00921636,0.00178385,0.00112436,-0.00952408,0.170826,0.00675544,0.0433038,1476,1793,-0.112321,-0.434653
259,-769,-0.155762,-0.0305176,-0.0036767,-0.00915411,0.00311928,-0.00226445,-0.0105664,0.425137,0.00642386,0.0423878,1483,1793,-0.155784,0.0305437
266,-769,-0.481323,0.0654297,-0.00768018,-0.0116896,0.00573893,-0.0036059,-0.0157639,0.617364,0.0095373,0.0425663,1490,1793,-0.48131,-0.0654061
273,-769,-0.339233,-0.0661621,-0.00858634,-0.0131755,0.00682488,-0.00368065,-0.0180812,0.623229,0.0110338,0.0425642,1497,1793,-0.339279,0.0661096
280,-769,-0.265381,0.00183105,-0.00952462,-0.0135524,0.008196,-0.00309871,-0.0199783,0.664927,0.0124155,0.0415559,1504,1793,-0.265322,-0.00181569
287,-769,0,0,0,0,0,0,0,0,0,-1,1511,1793,0,0
294,-769,0,0,0,0,0,0,0,0,0,-1,1518,1793,0,0
301,-769,0,0,0,0,0,0,0,0,0,-1,1525,1793,0,0
308,-769,0,0,0,0,0,0,0,0,0,-1,1532,1793,0,0
315,-769,0,0,0,0,0,0,0,0,0,-1,1539,1793,0,0
322,-769,0,0,0,0,0,0,0,0,0,-1,1546,1793,0,0
329,-769,0,0,0,0,0,0,0,0,0,-1,1553,1793,0,0
336,-769,0,0,0,0,0,0,0,0,0,-1,1560,1793,0,0
343,-769,0,0,0,0,0,0,0,0,0,-1,1567,1793,0,0
350,-769,0,0,0,0,0,0,0,0,0,-1,1574,1793,0,0
357,-769,0,0,0,0,0,0,0,0,0,-1,1581,1793,0,0
364,-769,0,0,0,0,0,0,0,0,0,-1,1588,1793,0,0
371,-769,0,0,0,0,0,0,0,0,0,-1,1595,1793,0,0
378,-769,0,0,0,0,0,0,0,0,0,-1,1602,1793,0,0
385,-769,0,0,0,0,0,0,0,0,0,-1,1609,1793,0,0
392,-769,0,0,0,0,0,0,0,0,0,-1,1616,1793,0,0
399,-769,0,0,0,0,0,0,0,0,0,-1,1623,1793,0,0
406,-769,0,0,0,0,0,0,0,0,0,-1,1630,1793,0,0
413,-769,0,0,0,0,0,0,0,0,0,-1,1637,1793,0,0
420,-769,0,0,0,0,0,0,0,0,0,-1,1644,1793,0,0
427,-769,0,0,0,0,0,0,0,0,0,-1,1651,1793,0,0
434,-769,0,0,0,0,0,0,0,0,0,-1,1658,1793,0,0
441,-769,0,0,0,0,0,0,0,0,0,-1,1665,1793,0,0
448,-769,0,0,0,0,0,0,0,0,0,-1,1672,1793,0,0
455,-769,0,0,0,0,0,0,0,0,0,-1,1679,1793,0,0
462,-769,0,0,0,0,0,0,0,0,0,-1,1686,1793,0,0
469,-769,0,0,0,0,0,0,0,0,0,-1,1693,1793,0,0
476,-769,0,0,0,0,0,0,0,0,0,-1,1700,1793,0,0
483,-769,0,0,0,0,0,0,0,0,0,-1,1707,1793,0,0
490,-769,0,0,0,0,0,0,0,0,0,-1,1714,1793,0,0
497,-769,0,0,0,0,0,0,0,0,0,-1,1721,1793,0,0
504,-769,0,0,0,0,0,0,0,0,0,-1,1728,1793,0,0
511,-769,0,0,0,0,0,0,0,0,0,-1,1735,1793,0,0
518,-769,0,0,0,0,0,0,0,0,0,-1,1742,1793,0,0
525,-769,0,0,0,0,0,0,0,0,0,-1,1749,1793,0,0
532,-769,0,0,0,0,0,0,0,0,0,-1,1756,1793,0,0
539,-769,0,0,0,0,0,0,0,0,0,-1,1763,1793,0,0
546,-769,0,0,0,0,0,0,0,0,0,-1,1770,1793,0,0
553,-769,0,0,0,0,0,0,0,0,0,-1,1777,1793,0,0
560,-769,0,0,0,0,0,0,0,0,0,-1,1784,1793,0,0
567,-769,0,0,0,0,0,0,0,0,0,-1,1791,1793,0,0
574,-769,0,0,0,0,0,0,0,0,0,-1,1798,1793,0,0
581,-769,0,0,0,0,0,0,0,0,0,-1,1805,1793,0,0
588,-769,0,0,0,0,0,0,0,0,0,-1,1812,1793,0,0
595,-769,0,0,0,0,0,0,0,0,0,-1,1819,1793,0,0
602,-769,0,0,0,0,0,0,0,0,0,-1,1826,1793,0,0
609,-769,0,0,0,0,0,0,0,0,0,-1,1833,1793,0,0
616,-769,0,0,0,0,0,0,0,0,0,-1,1840,1793,0,0
623,-769,0,0,0,0,0,0,0,0,0,-1,1847,1793,0,0
630,-769,0,0,0,0,0,0,0,0,0,-1,1854,1793,0,0
637,-769,0,0,0,0,0,0,0,0,0,-1,1861,1793,0,0
644,-769,0,0,0,0,0,0,0,0,0,-1,1868,1793,0,0
651,-769,0,0,0,0,0,0,0,0,0,-1,1875,1793,0,0
658,-769,0,0,0,0,0,0,0,0,0,-1,1882,1793,0,0
665,-769,0,0,0,0,0,0,0,0,0,-1,1889,1793,0,0
672,-769,0,0,0,0,0,0,0,0,0,-1,1896,1793,0,0
679,-769,0,0,0,0,0,0,0,0,0,-1,1903,1793,0,0
686,-769,0,0,0,0,0,0,0,0,0,-1,1910,1793,0,0
693,-769,0,0,0,0,0,0,0,0,0,-1,1917,1793,0,0
700,-769,0,0,0,0,0,0,0,0,0,-1,1924,1793,0,0
707,-769,0,0,0,0,0,0,0,0,0,-1,1931,1793,0,0
714,-769,0,0,0,0,0,0,0,0,0,-1,1938,1793,0,0
721,-769,0,0,0,0,0,0,0,0,0,-1,1945,1793,0,0
728,-769,0,0,0,0,0,0,0,0,0,-1,1952,1793,0,0
735,-769,0,0,0,0,0,0,0,0,0,-1,1959,1793,0,0
742,-769,0,0,0,0,0,0,0,0,0,-1,1966,1793,0,0
749,-769,0,0,0,0,0,0,0,0,0,-1,1973,1793,0,0
756,-769,0,0,0,0,0,0,0,0,0,-1,1980,1793,0,0
763,-769,0,0,0,0,0,0,0,0,0,-1,1987,1793,0,0
770,-769,0,0,0,0,0,0,0,0,0,-1,1994,1793,0,0
777,-769,0,0,0,0,0,0,0,0,0,-1,2001,1793,0,0
784,-769,0,0,0,0,0,0,0,0,0,-1,2008,1793,0,0
791,-769,0,0,0,0,0,0,0,0,0,-1,2015,1793,0,0
798,-769,0,0,0,0,0,0,0,0,0,-1,2022,1793,0,0
805,-769,0,0,0,0,0,0,0,0,0,-1,2029,1793,0,0
812,-769,0,0,0,0,0,0,0,0,0,-1,2036,1793,0,0
-700,-776,0,0,0,0,0,0,0,0,0,-1,524,1800,0,0
-693,-776,0,0,0,0,0,0,0,0,0,-1,531,1800,0,0
-686,-776,0,0,0,0,0,0,0,0,0,-1,538,1800,0,0
-679,-776,0,0,0,0,0,0,0,0,0,-1,545,1800,0,0
-672,-776,0,0,0,0,0,0,0,0,0,-1,552,1800,0,0
-665,-776,0,0,0,0,0,0,0,0,0,-1,559,1800,0,0
-658,-776,0,0,0,0,0,0,0,0,0,-1,566,1800,0,0
-651,-776,0,0,0,0,0,0,0,0,0,-1,573,1800,0,0
-644,-776,0,0,0,0,0,0,0,0,0,-1,580,1800,0,0
-637,-776,0,0,0,0,0,0,0,0,0,-1,587,1800,0,0
-630,-776,0,0,0,0,0,0,0,0,0,-1,594,1800,0,0
-623,-776,0,0,0,0,0,0,0,0,0,-1,601,1800,0,0
-616,-776,0,0,0,0,0,0,0,0,0,-1,608,1800,0,0
-609,-776,0,0,0,0,0,0,0,0,0,-1,615,1800,0,0
-602,-776,0,0,0,0,0,0,0,0,0,-1,622,1800,0,0
-595,-776,0,0,0,0,0,0,0,0,0,-1,629,1800,0,0
-588,-776,0,0,0,0,0,0,0,0,0,-1,636,1800,0,0
-581,-776,0,0,0,0,0,0,0,0,0,-1,643,1800,0,0
-574,-776,0,0,0,0,0,0,0,0,0,-1,650,1800,0,0
-567,-776,0,0,0,0,0,0,0,0,0,-1,657,1800,0,0
-560,-776,0,0,0,0,0,0,0,0,0,-1,664,1800,0,0
-553,-776,0,0,0,0,0,0,0,0,0,-1,671,1800,0,0
-546,-776,0,0,0,0,0,0,0,0,0,-1,678,1800,0,0
-539,-776,0,0,0,0,0,0,0,0,0,-1,685,1800,0,0
-532,-776,0,0,0,0,0,0,0,0,0,-1,692,1800,0,0
-525,-776,0,0,0,0,0,0,0,0,0,-1,699,1800,0,0
-518,-776,0,0,0,0,0,0,0,0,0,-1,706,1800,0,0
-511,-776,0,0,0,0,0,0,0,0,0,-1,713,1800,0,0
-504,-776,0,0,0,0,0,0,0,0,0,-1,720,1800,0,0
-497,-776,0,0,0,0,0,0,0,0,0,-1,727,1800,0,0
-490,-776,0,0,0,0,0,0,0,0,0,-1,734,1800,0,0
-483,-776,0,0,0,0,0,0,0,0,0,-1,741,1800,0,0
-476,-776,0,0,0,0,0,0,0,0,0,-1,748,1800,0,0
-469,-776,0,0,0,0,0,0,0,0,0,-1,755,1800,0,0
-462,-776,0,0,0,0,0,0,0,0,0,-1,762,1800,0,0
-455,-776,0,0,0,0,0,0,0,0,0,-1,769,1800,0,0
-448,-776,0,0,0,0,0,0,0,0,0,-1,776,1800,0,0
-441,-776,0,0,0,0,0,0,0,0,0,-1,783,1800,0,0
-434,-776,0,0,0,0,0,0,0,0,0,-1,790,1800,0,0
-427,-776,0,0,0,0,0,0,0,0,0,-1,797,1800,0,0
-420,-776,0,0,0,0,0,0,0,0,0,-1,804,1800,0,0
-413,-776,0,0,0,0,0,0,0,0,0,-1,811,1800,0,0
-406,-776,0,0,0,0,0,0,0,0,0,-1,818,1800,0,0
-399,-776,0,0,0,0,0,0,0,0,0,-1,825,1800,0,0
-392,-776,0,0,0,0,0,0,0,0,0,-1,832,1800,0,0
-385,-776,0,0,0,0,0,0,0,0,0,-1,839,1800,0,0
-378,-776,0,0,0,0,0,0,0,0,0,-1,846,1800,0,0
-371,-776,0,0,0,0,0,0,0,0,0,-1,853,1800,0,0
-364,-776,0,0,0,0,0,0,0,0,0,-1,860,1800,0,0
-357,-776,0,0,0,0,0,0,0,0,0,-1,867,1800,0,0
-350,-776,0,0,0,0,0,0,0,0,0,-1,874,1800,0,0
-343,-776,0,0,0,0,0,0,0,0,0,-1,881,1800,0,0
-336,-776,0,0,0,0,0,0,0,0,0,-1,888,1800,0,0
-329,-776,0,0,0,0,0,0,0,0,0,-1,895,1800,0,0
-322,-776,0,0,0,0,0,0,0,0,0,-1,902,1800,0,0
-315,-776,0,0,0,0,0,0,0,0,0,-1,909,1800,0,0
-308,-776,0,0,0,0,0,0,0,0,0,-1,916,1800,0,0
-301,-776,0,0,0,0,0,0,0,0,0,-1,923,1800,0,0
-294,-776,0,0,0,0,0,0,0,0,0,-1,930,1800,0,0
-287,-776,0,0,0,0,0,0,0,0,0,-1,937,1800,0,0
-280,-776,0,0,0,0,0,0,0,0,0,-1,944,1800,0,0
-273,-776,0,0,0,0,0,0,0,0,0,-1,951,1800,0,0
-266,-776,0,0,0,0,0,0,0,0,0,-1,958,1800,0,0
-259,-776,0,0,0,0,0,0,0,0,0,-1,965,1800,0,0
-252,-776,0,0,0,0,0,0,0,0,0,-1,972,1800,0,0
-245,-776,0,0,0,0,0,0,0,0,0,-1,979,1800,0,0
-238,-776,0,0,0,0,0,0,0,0,0,-1,986,1800,0,0
-231,-776,0,0,0,0,0,0,0,0,0,-1,993,1800,0,0
-224,-776,0,0,0,0,0,0,0,0,0,-1,1000,1800,0,0
-217,-776,0,0,0,0,0,0,0,0,0,-1,1007,1800,0,0
-210,-776,0,0,0,0,0,0,0,0,0,-1,1014,1800,0,0
-203,-776,0,0,0,0,0,0,0,0,0,-1,1021,1800,0,0
-196,-776,0,0,0,0,0,0,0,0,0,-1,1028,1800,0,0
-189,-776,0,0,0,0,0,0,0,0,0,-1,1035,1800,0,0
-182,-776,0,0,0,0,0,0,0,0,0,-1,1042,1800,0,0
-175,-776,0,0,0,0,0,0,0,0,0,-1,1049,1800,0,0
-168,-776,0,0,0,0,0,0,0,0,0,-1,1056,1800,0,0
-161,-776,0,0,0,0,0,0,0,0,0,-1,1063,1800,0,0
-154,-776,0,0,0,0,0,0,0,0,0,-1,1070,1800,0,0
-147,-776,0,0,0,0,0,0,0,0,0,-1,1077,1800,0,0
-140,-776,5.63843,-2.94849,0,0,0,0,0,0,0,-1,1084,1800,5.63849,2.94844
-133,-776,4.45886,-2.75745,0,0,0,0,0,0,0,-1,1091,1800,4.45886,2.75746
-126,-776,3.28418,-2.57507,0,0,0,0,0,0,0,-1,1098,1800,3.28419,2.57508
-119,-776,2.3186,-2.51062,-0.0653726,0.0829845,0.0317296,0.0894857,-0.0718738,1.3687,0.0933458,0.0480217,1105,1800,2.31856,2.51063
-112,-776,1.52856,-2.32825,-0.067875,0.0856316,0.0295547,0.0911252,-0.0733686,1.38702,0.0951548,0.0463098,1112,1800,1.52857,2.32826
-105,-776,0.852661,-1.90894,-0.0649954,0.0815349,0.027347,0.0864723,-0.0699328,1.39217,0.0904687,0.0429776,1119,1800,0.852692,1.90899
-98,-776,0.0820313,-1.7207,-0.060214,0.0754901,0.0250161,0.0799548,-0.0646786,1.39418,0.0836593,0.0413499,1126,1800,0.082071,1.72067
-91,-776,-0.707397,-1.64526,-0.0529752,0.0665034,0.0219373,0.070404,-0.0568757,1.39483,0.0736232,0.0444246,1133,1800,-0.707359,1.64531
-84,-776,-1.65588,-1.28577,-0.0437162,0.0544216,0.0188335,0.0579118,-0.0472064,1.38756,0.0607948,0.0449049,1140,1800,-1.65584,1.28574
-77,-776,-1.94226,-0.0539551,0,0,0,0,0,0,0,-1,1147,1800,-1.94227,0.0539918
-70,-776,2.1499,-0.76355,0,0,0,0,0,0,0,-1,1154,1800,2.14989,0.76356
-63,-776,0.256104,0.782471,0,0,0,0,0,0,0,-1,1161,1800,0.256044,-0.782443
-56,-776,0.0324707,-0.0313721,0,0,0,0,0,0,0,-1,1168,1800,0.0324676,0.0313265
-49,-776,-0.167725,1.18774,0,0,0,0,0,0,0,-1,1175,1800,-0.167722,-1.18772
-42,-776,-0.100342,0.657959,-0.0103737,0.00956865,-0.00468655,0.0106151,-0.0114201,-1.35111,0.0127249,0.0450326,1182,1800,-0.100374,-0.657971
-35,-776,-0.112915,0.0949707,-0.0109715,0.00752839,-0.0063627,0.00950544,-0.0129485,-1.26953,0.0130145,0.0441102,1189,1800,-0.112974,-0.0949875
-28,-776,-0.303467,-0.498169,-0.011015,0.00812687,-0.00653389,0.0101445,-0.0130326,-1.27129,0.0134159,0.046303,1196,1800,-0.303515,0.49822
-21,-776,-0.539795,-0.638062,-0.0111571,0.00979428,-0.00665773,0.0117309,-0.0130938,-1.28773,0.0143397,0.0419999,1203,1800,-0.539851,0.6381
-14,-776,-0.546265,-0.717529,-0.0105028,0.0116111,-0.00388275,0.0122731,-0.0111647,-1.40194,0.0135368,0.0436848,1210,1800,-0.546229,0.717523
-7,-776,-0.459229,-1.06287,-0.00891285,0.0134178,-0.000248152,0.0134206,-0.00891561,-1.55969,0.0129829,0.0425404,1217,1800,-0.459226,1.06281
0,-776,-0.399902,-1.50598,-0.0068501,0.0144493,0.00448728,0.0153561,-0.00775686,1.37141,0.0135825,0.0441516,1224,1800,-0.399918,1.50594
7,-776,-0.549561,-1.92114,-0.00444547,0.015211,0.00939817,0.0189813,-0.00821575,1.18928,0.0161071,0.0463385,1231,1800,-0.549613,1.92115
14,-776,-0.385864,-2.77637,0,0,0,0,0,0,0,-1,1238,1800,-0.385862,2.77635
21,-776,0.195068,-0.461182,-0.000385302,0.0165801,0.0209308,0.0306818,-0.014487,0.977919,0.0266311,0.0429759,1245,1800,0.195074,0.461236
28,-776,-0.12854,-0.0184326,0.000758722,0.0170065,0.0240738,0.0342902,-0.0165249,0.948127,0.0299298,0.0412316,1252,1800,-0.128529,0.0184206
35,-776,-0.198853,-0.556274,0.00283926,0.0193352,0.0261335,0.0384914,-0.016317,0.938255,0.0324954,0.0428792,1259,1800,-0.198796,0.556228
42,-776,-0.326294,0.132324,0.00670416,0.0204728,0.0270886,0.0415382,-0.0143612,0.909834,0.0335209,0.0408535,1266,1800,-0.326237,-0.132292
49,-776,-0.428711,0.799072,0.00823241,0.0206856,0.0272714,0.0424322,-0.0135142,0.897634,0.0337083,0.0426045,1273,1800,-0.428704,-0.799112
56,-776,-0.431152,1.36633,0.00985941,0.0213475,0.025115,0.0413669,-0.0101601,0.897819,0.0315154,0.0462295,1280,1800,-0.431187,-1.36632
63,-776,0.458252,1.8562,0.0151363,0.021946,0.0232579,0.0420469,-0.00496469,0.85808,0.0298242,0.0488324,1287,1800,0.458238,-1.85623
70,-776,0.533447,1.86047,0.020187,0.0227268,0.020564,0.04206,0.000853727,0.816236,0.0277598,0.0492968,1294,1800,0.53339,-1.8605
77,-776,0.0349121,2.02551,0.026591,0.0225447,0.0178977,0.0425795,0.00655614,0.729117,0.026473,0.0487934,1301,1800,0.0348549,-2.02552
84,-776,-0.603027,-0.650513,0.0336499,0.0218399,0.0149633,0.0438312,0.0116586,0.597462,0.0262135,0.0468899,1308,1800,-0.603063,0.650502
91,-776,0.260864,-0.575073,0.0411525,0.0214212,0.0124254,0.0471526,0.0154211,0.449865,0.0277611,0.0444113,1315,1800,0.260847,0.575107
98,-776,0.120117,-0.0982666,0,0,0,0,0,0,0,-1,1322,1800,0.120058,0.0982636
105,-776,-1.84058,-0.473389,0,0,0,0,0,0,0,-1,1329,1800,-1.84063,0.473366
112,-776,-3.03711,-0.410034,0.0560697,0.0214121,0.00910325,0.0583153,0.0191665,0.241851,0.0343209,0.0445964,1336,1800,-3.03709,0.410057
119,-776,-2.0929,-0.38623,0.0572855,0.0221624,0.00933146,0.0596108,0.0198372,0.244209,0.035052,0.0418735,1343,1800,-2.09286,0.386171
126,-776,-1.11169,-0.338623,0.056681,0.0219233,0.00998559,0.0593455,0.0192587,0.26076,0.0349594,0.042055,1350,1800,-1.11169,0.338569
133,-776,-0.471313,-0.186646,0.0542158,0.0226154,0.0118516,0.0581667,0.0186645,0.321779,0.0342934,0.0467564,1357,1800,-0.471349,0.186689
140,-776,0.308594,-0.175171,0,0,0,0,0,0,0,-1,1364,1800,0.308593,0.175147
147,-776,-0.320313,-2.20825,0,0,0,0,0,0,0,-1,1371,1800,-0.320256,2.20828
154,-776,-0.153687,-1.90735,0,0,0,0,0,0,0,-1,1378,1800,-0.153652,1.90731
161,-776,-0.109131,-1.32397,0.0310933,0.021981,0.0131442,0.0404486,0.0126257,0.618563,0.0238961,0.0460267,1385,1800,-0.109161,1.324
168,-776,-0.121094,-0.694092,0.0266011,0.0204478,0.0123839,0.0362848,0.0107642,0.663643,0.0215188,0.047308,1392,1800,-0.121116,0.694121
175,-776,-0.13855,-0.406616,0.0232,0.0175162,0.0111225,0.031838,0.00887827,0.66032,0.0189715,0.046788,1399,1800,-0.13857,0.40658
182,-776,-0.0500488,0.244995,0.0207588,0.0137006,0.00957108,0.0274307,0.00702868,0.608769,0.0164525,0.0457448,1406,1800,-0.0500112,-0.244943
189,-776,-0.0715332,0.352783,0.0207527,0.00960594,0.00842242,0.0252788,0.00507983,0.49311,0.0154403,0.0410275,1413,1800,-0.0714841,-0.352786
196,-776,0.0141602,0.655029,0.0228304,0.00569515,0.00759911,0.0257149,0.00281067,0.36278,0.0162874,0.0396094,1420,1800,0.0141836,-0.655045
203,-776,0.346924,-0.705078,0.0237035,0.00259382,0.00607499,0.0253269,0.000970392,0.26113,0.0165706,0.0408118,1427,1800,0.346901,0.705051
210,-776,0.959106,-0.955078,0.0229955,-0.00106998,0.00382745,0.0235896,-0.00166405,0.153983,0.0163094,0.0436448,1434,1800,0.95907,0.95505
217,-776,0.0385742,0.433105,0,0,0,0,0,0,0,-1,1441,1800,0.0386311,-0.43308
224,-776,0.609741,0.585938,0,0,0,0,0,0,0,-1,1448,1800,0.609708,-0.585936
231,-776,0.0228271,-0.322144,0,0,0,0,0,0,0,-1,1455,1800,0.0228174,0.322107
238,-776,0.0388184,-0.0412598,0.0130593,-0.0085051,0.00262806,0.013375,-0.00882076,0.119539,0.0129043,0.0455042,1462,1800,0.0387975,0.041211
245,-776,0.0649414,0.217285,0.00866551,-0.00942605,0.00357601,0.0093467,-0.0101072,0.188234,0.0112346,0.0443994,1469,1800,0.0649149,-0.217238
252,-776,0.06604,0.415283,0.00337729,-0.0109296,0.00506904,0.00499122,-0.0125435,0.308243,0.010432,0.0476439,1476,1800,0.0660453,-0.415231
259,-776,0.123169,0.268555,-0.00284431,-0.00992561,0.00685345,0.00132906,-0.014099,0.546969,0.0098722,0.0438866,1483,1800,0.123187,-0.268595
266,-776,0,0,0,0,0,0,0,0,0,-1,1490,1800,0,0
273,-776,0,0,0,0,0,0,0,0,0,-1,1497,1800,0,0
280,-776,0,0,0,0,0,0,0,0,0,-1,1504,1800,0,0
287,-776,0,0,0,0,0,0,0,0,0,-1,1511,1800,0,0
294,-776,0,0,0,0,0,0,0,0,0,-1,1518,1800,0,0
301,-776,0,0,0,0,0,0,0,0,0,-1,1525,1800,0,0
308,-776,0,0,0,0,0,0,0,0,0,-1,1532,1800,0,0
315,-776,0,0,0,0,0,0,0,0,0,-1,1539,1800,0,0
322,-776,0,0,0,0,0,0,0,0,0,-1,1546,1800,0,0
329,-776,0,0,0,0,0,0,0,0,0,-1,1553,1800,0,0
336,-776,0,0,0,0,0,0,0,0,0,-1,1560,1800,0,0
343,-776,0,0,0,0,0,0,0,0,0,-1,1567,1800,0,0
350,-776,0,0,0,0,0,0,0,0,0,-1,1574,1800,0,0
357,-776,0,0,0,0,0,0,0,0,0,-1,1581,1800,0,0
364,-776,0,0,0,0,0,0,0,0,0,-1,1588,1800,0,0
371,-776,0,0,0,0,0,0,0,0,0,-1,1595,1800,0,0
378,-776,0,0,0,0,0,0,0,0,0,-1,1602,1800,0,0
385,-776,0,0,0,0,0,0,0,0,0,-1,1609,1800,0,0
392,-776,0,0,0,0,0,0,0,0,0,-1,1616,1800,0,0
399,-776,0,0,0,0,0,0,0,0,0,-1,1623,1800,0,0
406,-776,0,0,0,0,0,0,0,0,0,-1,1630,1800,0,0
413,-776,0,0,0,0,0,0,0,0,0,-1,1637,1800,0,0
420,-776,0,0,0,0,0,0,0,0,0,-1,1644,1800,0,0
427,-776,0,0,0,0,0,0,0,0,0,-1,1651,1800,0,0
434,-776,0,0,0,0,0,0,0,0,0,-1,1658,1800,0,0
441,-776,0,0,0,0,0,0,0,0,0,-1,1665,1800,0,0
448,-776,0,0,0,0,0,0,0,0,0,-1,1672,1800,0,0
455,-776,0,0,0,0,0,0,0,0,0,-1,1679,1800,0,0
462,-776,0,0,0,0,0,0,0,0,0,-1,1686,1800,0,0
469,-776,0,0,0,0,0,0,0,0,0,-1,1693,1800,0,0
476,-776,0,0,0,0,0,0,0,0,0,-1,1700,1800,0,0
483,-776,0,0,0,0,0,0,0,0,0,-1,1707,1800,0,0
490,-776,0,0,0,0,0,0,0,0,0,-1,1714,1800,0,0
497,-776,0,0,0,0,0,0,0,0,0,-1,1721,1800,0,0
504,-776,0,0,0,0,0,0,0,0,0,-1,1728,1800,0,0
511,-776,0,0,0,0,0,0,0,0,0,-1,1735,1800,0,0
518,-776,0,0,0,0,0,0,0,0,0,-1,1742,1800,0,0
525,-776,0,0,0,0,0,0,0,0,0,-1,1749,1800,0,0
532,-776,0,0,0,0,0,0,0,0,0,-1,1756,1800,0,0
539,-776,0,0,0,0,0,0,0,0,0,-1,1763,1800,0,0
546,-776,0,0,0,0,0,0,0,0,0,-1,1770,1800,0,0
553,-776,0,0,0,0,0,0,0,0,0,-1,1777,1800,0,0
560,-776,0,0,0,0,0,0,0,0,0,-1,1784,1800,0,0
567,-776,0,0,0,0,0,0,0,0,0,-1,1791,1800,0,0
574,-776,0,0,0,0,0,0,0,0,0,-1,1798,1800,0,0
581,-776,0,0,0,0,0,0,0,0,0,-1,1805,1800,0,0
588,-776,0,0,0,0,0,0,0,0,0,-1,1812,1800,0,0
595,-776,0,0,0,0,0,0,0,0,0,-1,1819,1800,0,0
602,-776,0,0,0,0,0,0,0,0,0,-1,1826,1800,0,0
609,-776,0,0,0,0,0,0,0,0,0,-1,1833,1800,0,0
616,-776,0,0,0,0,0,0,0,0,0,-1,1840,1800,0,0
623,-776,0,0,0,0,0,0,0,0,0,-1,1847,1800,0,0
630,-776,0,0,0,0,0,0,0,0,0,-1,1854,1800,0,0
637,-776,0,0,0,0,0,0,0,0,0,-1,1861,1800,0,0
644,-776,0,0,0,0,0,0,0,0,0,-1,1868,1800,0,0
651,-776,0,0,0,0,0,0,0,0,0,-1,1875,1800,0,0
658,-776,0,0,0,0,0,0,0,0,0,-1,1882,1800,0,0
665,-776,0,0,0,0,0,0,0,0,0,-1,1889,1800,0,0
672,-776,0,0,0,0,0,0,0,0,0,-1,1896,1800,0,0
679,-776,0,0,0,0,0,0,0,0,0,-1,1903,1800,0,0
686,-776,0,0,0,0,0,0,0,0,0,-1,1910,1800,0,0
693,-776,0,0,0,0,0,0,0,0,0,-1,1917,1800,0,0
700,-776,0,0,0,0,0,0,0,0,0,-1,1924,1800,0,0
707,-776,0,0,0,0,0,0,0,0,0,-1,1931,1800,0,0
714,-776,0,0,0,0,0,0,0,0,0,-1,1938,1800,0,0
721,-776,0,0,0,0,0,0,0,0,0,-1,1945,1800,0,0
728,-776,0,0,0,0,0,0,0,0,0,-1,1952,1800,0,0
735,-776,0,0,0,0,0,0,0,0,0,-1,1959,1800,0,0
742,-776,0,0,0,0,0,0,0,0,0,-1,1966,1800,0,0
749,-776,0,0,0,0,0,0,0,0,0,-1,1973,1800,0,0
756,-776,0,0,0,0,0,0,0,0,0,-1,1980,1800,0,0
763,-776,0,0,0,0,0,0,0,0,0,-1,1987,1800,0,0
770,-776,0,0,0,0,0,0,0,0,0,-1,1994,1800,0,0
777,-776,0,0,0,0,0,0,0,0,0,-1,2001,1800,0,0
784,-776,0,0,0,0,0,0,0,0,0,-1,2008,1800,0,0
791,-776,0,0,0,0,0,0,0,0,0,-1,2015,1800,0,0
798,-776,0,0,0,0,0,0,0,0,0,-1,2022,1800,0,0
805,-776,0,0,0,0,0,0,0,0,0,-1,2029,1800,0,0
812,-776,0,0,0,0,0,0,0,0,0,-1,2036,1800,0,0
-700,-783,0,0,0,0,0,0,0,0,0,-1,524,1807,0,0
-693,-783,0,0,0,0,0,0,0,0,0,-1,531,1807,0,0
-686,-783,0,0,0,0,0,0,0,0,0,-1,538,1807,0,0
-679,-783,0,0,0,0,0,0,0,0,0,-1,545,1807,0,0
-672,-783,0,0,0,0,0,0,0,0,0,-1,552,1807,0,0
-665,-783,0,0,0,0,0,0,0,0,0,-1,559,1807,0,0
-658,-783,0,0,0,0,0,0,0,0,0,-1,566,1807,0,0
-651,-783,0,0,0,0,0,0,0,0,0,-1,573,1807,0,0
-644,-783,0,0,0,0,0,0,0,0,0,-1,580,1807,0,0
-637,-783,0,0,0,0,0,0,0,0,0,-1,587,1807,0,0
-630,-783,0,0,0,0,0,0,0,0,0,-1,594,1807,0,0
-623,-783,0,0,0,0,0,0,0,0,0,-1,601,1807,0,0
-616,-783,0,0,0,0,0,0,0,0,0,-1,608,1807,0,0
-609,-783,0,0,0,0,0,0,0,0,0,-1,615,1807,0,0
-602,-783,0,0,0,0,0,0,0,0,0,-1,622,1807,0,0
-595,-783,0,0,0,0,0,0,0,0,0,-1,629,1807,0,0
-588,-783,0,0,0,0,0,0,0,0,0,-1,636,1807,0,0
-581,-783,0,0,0,0,0,0,0,0,0,-1,643,1807,0,0
-574,-783,0,0,0,0,0,0,0,0,0,-1,650,1807,0,0
-567,-783,0,0,0,0,0,0,0,0,0,-1,657,1807,0,0
-560,-783,0,0,0,0,0,0,0,0,0,-1,664,1807,0,0
-553,-783,0,0,0,0,0,0,0,0,0,-1,671,1807,0,0
-546,-783,0,0,0,0,0,0,0,0,0,-1,678,1807,0,0
-539,-783,0,0,0,0,0,0,0,0,0,-1,685,1807,0,0
-532,-783,0,0,0,0,0,0,0,0,0,-1,692,1807,0,0
-525,-783,0,0,0,0,0,0,0,0,0,-1,699,1807,0,0
-518,-783,0,0,0,0,0,0,0,0,0,-1,706,1807,0,0
-511,-783,0,0,0,0,0,0,0,0,0,-1,713,1807,0,0
-504,-783,0,0,0,0,0,0,0,0,0,-1,720,1807,0,0
-497,-783,0,0,0,0,0,0,0,0,0,-1,727,1807,0,0
-490,-783,0,0,0,0,0,0,0,0,0,-1,734,1807,0,0
-483,-783,0,0,0,0,0,0,0,0,0,-1,741,1807,0,0
-476,-783,0,0,0,0,0,0,0,0,0,-1,748,1807,0,0
-469,-783,0,0,0,0,0,0,0,0,0,-1,755,1807,0,0
-462,-783,0,0,0,0,0,0,0,0,0,-1,762,1807,0,0
-455,-783,0,0,0,0,0,0,0,0,0,-1,769,1807,0,0
-448,-783,0,0,0,0,0,0,0,0,0,-1,776,1807,0,0
-441,-783,0,0,0,0,0,0,0,0,0,-1,783,1807,0,0
-434,-783,0,0,0,0,0,0,0,0,0,-1,790,1807,0,0
-427,-783,0,0,0,0,0,0,0,0,0,-1,797,1807,0,0
-420,-783,0,0,0,0,0,0,0,0,0,-1,804,1807,0,0
-413,-783,0,0,0,0,0,0,0,0,0,-1,811,1807,0,0
-406,-783,0,0,0,0,0,0,0,0,0,-1,818,1807,0,0
-399,-783,0,0,0,0,0,0,0,0,0,-1,825,1807,0,0
-392,-783,0,0,0,0,0,0,0,0,0,-1,832,1807,0,0
-385,-783,0,0,0,0,0,0,0,0,0,-1,839,1807,0,0
-378,-783,0,0,0,0,0,0,0,0,0,-1,846,1807,0,0
-371,-783,0,0,0,0,0,0,0,0,0,-1,853,1807,0,0
-364,-783,0,0,0,0,0,0,0,0,0,-1,860,1807,0,0
-357,-783,0,0,0,0,0,0,0,0,0,-1,867,1807,0,0
-350,-783,0,0,0,0,0,0,0,0,0,-1,874,1807,0,0
-343,-783,0,0,0,0,0,0,0,0,0,-1,881,1807,0,0
-336,-783,0,0,0,0,0,0,0,0,0,-1,888,1807,0,0
-329,-783,0,0,0,0,0,0,0,0,0,-1,895,1807,0,0
-322,-783,0,0,0,0,0,0,0,0,0,-1,902,1807,0,0
-315,-783,0,0,0,0,0,0,0,0,0,-1,909,1807,0,0
-308,-783,0,0,0,0,0,0,0,0,0,-1,916,1807,0,0
-301,-783,0,0,0,0,0,0,0,0,0,-1,923,1807,0,0
-294,-783,0,0,0,0,0,0,0,0,0,-1,930,1807,0,0
-287,-783,0,0,0,0,0,0,0,0,0,-1,937,1807,0,0
-280,-783,0,0,0,0,0,0,0,0,0,-1,944,1807,0,0
-273,-783,0,0,0,0,0,0,0,0,0,-1,951,1807,0,0
-266,-783,0,0,0,0,0,0,0,0,0,-1,958,1807,0,0
-259,-783,0,0,0,0,0,0,0,0,0,-1,965,1807,0,0
-252,-783,0,0,0,0,0,0,0,0,0,-1,972,1807,0,0
-245,-783,0,0,0,0,0,0,0,0,0,-1,979,1807,0,0
-238,-783,0,0,0,0,0,0,0,0,0,-1,986,1807,0,0
-231,-783,0,0,0,0,0,0,0,0,0,-1,993,1807,0,0
-224,-783,0,0,0,0,0,0,0,0,0,-1,1000,1807,0,0
-217,-783,0,0,0,0,0,0,0,0,0,-1,1007,1807,0,0
-210,-783,0,0,0,0,0,0,0,0,0,-1,1014,1807,0,0
-203,-783,0,0,0,0,0,0,0,0,0,-1,1021,1807,0,0
-196,-783,0,0,0,0,0,0,0,0,0,-1,1028,1807,0,0
-189,-783,0,0,0,0,0,0,0,0,0,-1,1035,1807,0,0
-182,-783,0,0,0,0,0,0,0,0,0,-1,1042,1807,0,0
-175,-783,0,0,0,0,0,0,0,0,0,-1,1049,1807,0,0
-168,-783,0,0,0,0,0,0,0,0,0,-1,1056,1807,0,0
-161,-783,0,0,0,0,0,0,0,0,0,-1,1063,1807,0,0
-154,-783,0,0,0,0,0,0,0,0,0,-1,1070,1807,0,0
-147,-783,0,0,0,0,0,0,0,0,0,-1,1077,1807,0,0
-140,-783,0,0,0,0,0,0,0,0,0,-1,1084,1807,0,0
-133,-783,0,0,0,0,0,0,0,0,0,-1,1091,1807,0,0
-126,-783,0,0,0,0,0,0,0,0,0,-1,1098,1807,0,0
-119,-783,0,0,0,0,0,0,0,0,0,-1,1105,1807,0,0
-112,-783,1.03809,-3.2251,-0.0856749,0.103754,0.0423053,0.112772,-0.0946936,1.36076,0.119932,0.0497504,1112,1807,1.0381,3.22508
-105,-783,0.472168,-2.45898,-0.0807034,0.0974594,0.0384986,0.105422,-0.0886665,1.36683,0.112196,0.0455013,1119,1807,0.47221,2.45894
-98,-783,-0.504517,-1.92053,-0.0737682,0.0894889,0.0347477,0.0965769,-0.0808562,1.36957,0.102575,0.0451858,1126,1807,-0.504468,1.92052
-91,-783,-1.43347,-2.31067,0,0,0,0,0,0,0,-1,1133,1807,-1.43347,2.31069
-84,-783,0.0739746,-0.657715,-0.0520682,0.0645908,0.0255649,0.0699472,-0.0574246,1.36426,0.0736566,0.0422044,1140,1807,0.0740146,0.657666
-77,-783,0.495483,-0.31311,-0.0414287,0.0525933,0.0193178,0.0564076,-0.045243,1.37585,0.0588059,0.0408326,1147,1807,0.495482,0.313064
-70,-783,0.668091,-0.0998535,0,0,0,0,0,0,0,-1,1154,1807,0.668067,0.0998444
-63,-783,0.146362,-0.340454,0,0,0,0,0,0,0,-1,1161,1807,0.146329,0.34051
-56,-783,0.0871582,-0.140747,-0.0187892,0.0236147,0.00281166,0.0238003,-0.0189748,1.50487,0.0247485,0.0462873,1168,1807,0.0871141,0.140718
-49,-783,0.0463867,0.120483,-0.0135959,0.0176001,-0.00173308,0.0176961,-0.0136919,-1.51547,0.0181709,0.0453502,1175,1807,0.0464303,-0.1205
-42,-783,-0.0515137,0.272217,-0.0137142,0.013735,-0.00569373,0.0148692,-0.0148484,-1.37417,0.0171574,0.0461046,1182,1807,-0.0515589,-0.27217
-35,-783,-0.13623,-0.110229,-0.0149047,0.0107955,-0.00779594,0.0129754,-0.0170846,-1.29814,0.0174091,0.048268,1189,1807,-0.13629,0.110178
-28,-783,-0.249268,-0.374634,-0.0151576,0.0109636,-0.00796612,0.0132013,-0.0173953,-1.29695,0.0177202,0.0476374,1196,1807,-0.24922,0.374578
-21,-783,-0.273071,-0.454712,-0.015251,0.0122431,-0.00823458,0.0145207,-0.0175286,-1.30095,0.0185308,0.0445023,1203,1807,-0.27307,0.45469
-14,-783,-0.546143,-0.660278,-0.0141632,0.0136744,-0.00506944,0.0145689,-0.0150576,-1.39616,0.0171057,0.0430696,1210,1807,-0.546119,0.660286
-7,-783,-0.658569,-0.998535,-0.012246,0.0153862,-0.000520267,0.015396,-0.0122558,-1.55198,0.0159991,0.0420751,1217,1807,-0.658596,0.998515
0,-783,-0.755493,-1.22607,-0.00985358,0.0163015,0.00545912,0.0173952,-0.0109473,1.37307,0.0165041,0.0432567,1224,1807,-0.755442,1.22607
7,-783,-0.911499,-1.46179,-0.00670962,0.0169349,0.0117432,0.0217761,-0.0115507,1.17978,0.0195408,0.045605,1231,1807,-0.91149,1.46179
14,-783,-1.01721,-1.70032,0,0,0,0,0,0,0,-1,1238,1807,-1.01726,1.70037
21,-783,-1.84985,-0.852295,0,0,0,0,0,0,0,-1,1245,1807,-1.84983,0.852253
28,-783,-1.23328,-0.682983,0.000214133,0.020225,0.0298922,0.0417418,-0.0213027,0.946896,0.0370309,0.0454349,1252,1807,-1.23329,0.68297
35,-783,-0.578979,-0.477173,0.00293241,0.0238549,0.0325412,0.047575,-0.0207877,0.940919,0.0404667,0.0444319,1259,1807,-0.578935,0.47716
42,-783,-0.505493,-0.0452881,0.00780235,0.0257869,0.033818,0.0517878,-0.0181985,0.915343,0.0419291,0.0438115,1266,1807,-0.505529,0.0452633
49,-783,-0.584229,0.60437,0.00968059,0.0268866,0.034136,0.053487,-0.0169198,0.908839,0.0424375,0.0463194,1273,1807,-0.584188,-0.604356
56,-783,-0.22583,1.38916,0.0116332,0.028465,0.0312983,0.0524591,-0.0123609,0.916738,0.0397391,0.0460093,1280,1807,-0.225779,-1.38922
63,-783,-0.590332,1.59875,0.0180906,0.0296294,0.028662,0.0530968,-0.00537686,0.884716,0.0373195,0.0462329,1287,1807,-0.590368,-1.59878
70,-783,-0.701294,1.7063,0.0238713,0.030649,0.0249397,0.0524291,0.0020912,0.852925,0.0342769,0.044343,1294,1807,-0.701261,-1.70631
77,-783,-0.774414,1.74377,0.0312046,0.0302837,0.0212036,0.0519528,0.00953554,0.774542,0.0319348,0.047714,1301,1807,-0.774357,-1.74377
84,-783,-1.1698,1.68091,0.0396471,0.0289597,0.0173164,0.0524255,0.0161813,0.635738,0.0309979,0.0467135,1308,1807,-1.16976,-1.68087
91,-783,-0.0910645,-0.659912,0.0487576,0.0279671,0.0138183,0.0556542,0.0210705,0.462918,0.0324462,0.0444342,1315,1807,-0.0910188,0.659896
98,-783,-2.51196,0.0292969,0,0,0,0,0,0,0,-1,1322,1807,-2.51196,-0.029348
105,-783,-2.49854,-0.23291,0,0,0,0,0,0,0,-1,1329,1807,-2.49852,0.23292
112,-783,-2.52161,-0.174194,0.0669297,0.0254794,0.00881996,0.0687284,0.0236807,0.201176,0.0403145,0.0470502,1336,1807,-2.52157,0.174211
119,-783,-2.34338,-0.265625,0.068681,0.0255871,0.00896031,0.0704699,0.0237983,0.197048,0.041394,0.0436575,1343,1807,-2.34339,0.265672
126,-783,-1.59949,-0.346069,0.0684219,0.0244619,0.00972302,0.0704764,0.0224074,0.20824,0.0415789,0.0470749,1350,1807,-1.59952,0.346084
133,-783,-0.744629,-0.319214,0.0657744,0.0245365,0.012048,0.0690363,0.0212746,0.264404,0.0408243,0.0499387,1357,1807,-0.744599,0.319218
140,-783,-0.450195,-2.43018,0,0,0,0,0,0,0,-1,1364,1807,-0.450246,2.43017
147,-783,-0.379028,-2.47729,0.0487642,0.0248938,0.0147878,0.0558324,0.0178256,0.445871,0.0329293,0.0486255,1371,1807,-0.37903,2.47729
154,-783,-0.303101,-2.42188,0.0430169,0.0244517,0.0148767,0.0512695,0.0161992,0.506468,0.0302615,0.0439101,1378,1807,-0.303139,2.42187
161,-783,-0.171143,-1.83435,0.0373573,0.0235259,0.0144803,0.0464886,0.0143946,0.562618,0.027481,0.0442103,1385,1807,-0.171147,1.83435
168,-783,-0.138306,-1.13696,0.0321288,0.0217973,0.0141588,0.0420348,0.0118913,0.610481,0.0250198,0.046723,1392,1807,-0.138266,1.1369
175,-783,-0.139038,-0.49585,0.0283175,0.0183257,0.0131299,0.0373699,0.00927339,0.603607,0.0224693,0.0417039,1399,1807,-0.139085,0.495864
182,-783,-0.15979,-0.333374,0.025756,0.0137093,0.0116008,0.0328039,0.00666134,0.545946,0.0200217,0.0422388,1406,1807,-0.1598,0.333412
189,-783,-0.0927734,-0.0509033,0.0259234,0.00901146,0.0103638,0.0308432,0.00409167,0.443212,0.019343,0.0425357,1413,1807,-0.0927752,0.0508722
196,-783,-0.0734863,0.230469,0.0288251,0.0044759,0.00978069,0.0322673,0.00103376,0.338396,0.0211753,0.0400471,1420,1807,-0.0735077,-0.23042
203,-783,-0.212158,0.143677,0.030487,0.00100731,0.00829772,0.0326621,-0.00116779,0.256364,0.0221743,0.0415616,1427,1807,-0.212212,-0.14369
210,-783,1.19922,-1.09802,0.0301627,-0.00262071,0.00592075,0.0311992,-0.00365724,0.173311,0.0221195,0.0460325,1434,1807,1.19919,1.09802
217,-783,0.174683,0.369995,0,0,0,0,0,0,0,-1,1441,1807,0.174742,-0.369954
224,-783,0.652222,0.869629,0,0,0,0,0,0,0,-1,1448,1807,0.652269,-0.869573
231,-783,0.786377,0.584717,0,0,0,0,0,0,0,-1,1455,1807,0.7864,-0.584715
238,-783,0,0,0,0,0,0,0,0,0,-1,1462,1807,0,0
245,-783,0,0,0,0,0,0,0,0,0,-1,1469,1807,0,0
252,-783,0,0,0,0,0,0,0,0,0,-1,1476,1807,0,0
259,-783,0,0,0,0,0,0,0,0,0,-1,1483,1807,0,0
266,-783,0,0,0,0,0,0,0,0,0,-1,1490,1807,0,0
273,-783,0,0,0,0,0,0,0,0,0,-1,1497,1807,0,0
280,-783,0,0,0,0,0,0,0,0,0,-1,1504,1807,0,0
287,-783,0,0,0,0,0,0,0,0,0,-1,1511,1807,0,0
294,-783,0,0,0,0,0,0,0,0,0,-1,1518,1807,0,0
301,-783,0,0,0,0,0,0,0,0,0,-1,1525,1807,0,0
308,-783,0,0,0,0,0,0,0,0,0,-1,1532,1807,0,0
315,-783,0,0,0,0,0,0,0,0,0,-1,1539,1807,0,0
322,-783,0,0,0,0,0,0,0,0,0,-1,1546,1807,0,0
329,-783,0,0,0,0,0,0,0,0,0,-1,1553,1807,0,0
336,-783,0,0,0,0,0,0,0,0,0,-1,1560,1807,0,0
343,-783,0,0,0,0,0,0,0,0,0,-1,1567,1807,0,0
350,-783,0,0,0,0,0,0,0,0,0,-1,1574,1807,0,0
357,-783,0,0,0,0,0,0,0,0,0,-1,1581,1807,0,0
364,-783,0,0,0,0,0,0,0,0,0,-1,1588,1807,0,0
371,-783,0,0,0,0,0,0,0,0,0,-1,1595,1807,0,0
378,-783,0,0,0,0,0,0,0,0,0,-1,1602,1807,0,0
385,-783,0,0,0,0,0,0,0,0,0,-1,1609,1807,0,0
392,-783,0,0,0,0,0,0,0,0,0,-1,1616,1807,0,0
399,-783,0,0,0,0,0,0,0,0,0,-1,1623,1807,0,0
406,-783,0,0,0,0,0,0,0,0,0,-1,1630,1807,0,0
413,-783,0,0,0,0,0,0,0,0,0,-1,1637,1807,0,0
420,-783,0,0,0,0,0,0,0,0,0,-1,1644,1807,0,0
427,-783,0,0,0,0,0,0,0,0,0,-1,1651,1807,0,0
434,-783,0,0,0,0,0,0,0,0,0,-1,1658,1807,0,0
441,-783,0,0,0,0,0,0,0,0,0,-1,1665,1807,0,0
448,-783,0,0,0,0,0,0,0,0,0,-1,1672,1807,0,0
455,-783,0,0,0,0,0,0,0,0,0,-1,1679,1807,0,0
462,-783,0,0,0,0,0,0,0,0,0,-1,1686,1807,0,0
469,-783,0,0,0,0,0,0,0,0,0,-1,1693,1807,0,0
476,-783,0,0,0,0,0,0,0,0,0,-1,1700,1807,0,0
483,-783,0,0,0,0,0,0,0,0,0,-1,1707,1807,0,0
490,-783,0,0,0,0,0,0,0,0,0,-1,1714,1807,0,0
497,-783,0,0,0,0,0,0,0,0,0,-1,1721,1807,0,0
504,-783,0,0,0,0,0,0,0,0,0,-1,1728,1807,0,0
511,-783,0,0,0,0,0,0,0,0,0,-1,1735,1807,0,0
518,-783,0,0,0,0,0,0,0,0,0,-1,1742,1807,0,0
525,-783,0,0,0,0,0,0,0,0,0,-1,1749,1807,0,0
532,-783,0,0,0,0,0,0,0,0,0,-1,1756,1807,0,0
539,-783,0,0,0,0,0,0,0,0,0,-1,1763,1807,0,0
546,-783,0,0,0,0,0,0,0,0,0,-1,1770,1807,0,0
553,-783,0,0,0,0,0,0,0,0,0,-1,1777,1807,0,0
560,-783,0,0,0,0,0,0,0,0,0,-1,1784,1807,0,0
567,-783,0,0,0,0,0,0,0,0,0,-1,1791,1807,0,0
574,-783,0,0,0,0,0,0,0,0,0,-1,1798,1807,0,0
581,-783,0,0,0,0,0,0,0,0,0,-1,1805,1807,0,0
588,-783,0,0,0,0,0,0,0,0,0,-1,1812,1807,0,0
595,-783,0,0,0,0,0,0,0,0,0,-1,1819,1807,0,0
602,-783,0,0,0,0,0,0,0,0,0,-1,1826,1807,0,0
609,-783,0,0,0,0,0,0,0,0,0,-1,1833,1807,0,0
616,-783,0,0,0,0,0,0,0,0,0,-1,1840,1807,0,0
623,-783,0,0,0,0,0,0,0,0,0,-1,1847,1807,0,0
630,-783,0,0,0,0,0,0,0,0,0,-1,1854,1807,0,0
637,-783,0,0,0,0,0,0,0,0,0,-1,1861,1807,0,0
644,-783,0,0,0,0,0,0,0,0,0,-1,1868,1807,0,0
651,-783,0,0,0,0,0,0,0,0,0,-1,1875,1807,0,0
658,-783,0,0,0,0,0,0,0,0,0,-1,1882,1807,0,0
665,-783,0,0,0,0,0,0,0,0,0,-1,1889,1807,0,0
672,-783,0,0,0,0,0,0,0,0,0,-1,1896,1807,0,0
679,-783,0,0,0,0,0,0,0,0,0,-1,1903,1807,0,0
686,-783,0,0,0,0,0,0,0,0,0,-1,1910,1807,0,0
693,-783,0,0,0,0,0,0,0,0,0,-1,1917,1807,0,0
700,-783,0,0,0,0,0,0,0,0,0,-1,1924,1807,0,0
707,-783,0,0,0,0,0,0,0,0,0,-1,1931,1807,0,0
714,-783,0,0,0,0,0,0,0,0,0,-1,1938,1807,0,0
721,-783,0,0,0,0,0,0,0,0,0,-1,1945,1807,0,0
728,-783,0,0,0,0,0,0,0,0,0,-1,1952,1807,0,0
735,-783,0,0,0,0,0,0,0,0,0,-1,1959,1807,0,0
742,-783,0,0,0,0,0,0,0,0,0,-1,1966,1807,0,0
749,-783,0,0,0,0,0,0,0,0,0,-1,1973,1807,0,0
756,-783,0,0,0,0,0,0,0,0,0,-1,1980,1807,0,0
763,-783,0,0,0,0,0,0,0,0,0,-1,1987,1807,0,0
770,-783,0,0,0,0,0,0,0,0,0,-1,1994,1807,0,0
777,-783,0,0,0,0,0,0,0,0,0,-1,2001,1807,0,0
784,-783,0,0,0,0,0,0,0,0,0,-1,2008,1807,0,0
791,-783,0,0,0,0,0,0,0,0,0,-1,2015,1807,0,0
798,-783,0,0,0,0,0,0,0,0,0,-1,2022,1807,0,0
805,-783,0,0,0,0,0,0,0,0,0,-1,2029,1807,0,0
812,-783,0,0,0,0,0,0,0,0,0,-1,2036,1807,0,0
-700,-790,0,0,0,0,0,0,0,0,0,-1,524,1814,0,0
-693,-790,0,0,0,0,0,0,0,0,0,-1,531,1814,0,0
-686,-790,0,0,0,0,0,0,0,0,0,-1,538,1814,0,0
-679,-790,0,0,0,0,0,0,0,0,0,-1,545,1814,0,0
-672,-790,0,0,0,0,0,0,0,0,0,-1,552,1814,0,0
-665,-790,0,0,0,0,0,0,0,0,0,-1,559,1814,0,0
-658,-790,0,0,0,0,0,0,0,0,0,-1,566,1814,0,0
-651,-790,0,0,0,0,0,0,0,0,0,-1,573,1814,0,0
-644,-790,0,0,0,0,0,0,0,0,0,-1,580,1814,0,0
-637,-790,0,0,0,0,0,0,0,0,0,-1,587,1814,0,0
-630,-790,0,0,0,0,0,0,0,0,0,-1,594,1814,0,0
-623,-790,0,0,0,0,0,0,0,0,0,-1,601,1814,0,0
-616,-790,0,0,0,0,0,0,0,0,0,-1,608,1814,0,0
-609,-790,0,0,0,0,0,0,0,0,0,-1,615,1814,0,0
-602,-790,0,0,0,0,0,0,0,0,0,-1,622,1814,0,0
-595,-790,0,0,0,0,0,0,0,0,0,-1,629,1814,0,0
-588,-790,0,0,0,0,0,0,0,0,0,-1,636,1814,0,0
-581,-790,0,0,0,0,0,0,0,0,0,-1,643,1814,0,0
-574,-790,0,0,0,0,0,0,0,0,0,-1,650,1814,0,0
-567,-790,0,0,0,0,0,0,0,0,0,-1,657,1814,0,0
-560,-790,0,0,0,0,0,0,0,0,0,-1,664,1814,0,0
-553,-790,0,0,0,0,0,0,0,0,0,-1,671,1814,0,0
-546,-790,0,0,0,0,0,0,0,0,0,-1,678,1814,0,0
-539,-790,0,0,0,0,0,0,0,0,0,-1,685,1814,0,0
-532,-790,0,0,0,0,0,0,0,0,0,-1,692,1814,0,0
-525,-790,0,0,0,0,0,0,0,0,0,-1,699,1814,0,0
-518,-790,0,0,0,0,0,0,0,0,0,-1,706,1814,0,0
-511,-790,0,0,0,0,0,0,0,0,0,-1,713,1814,0,0
-504,-790,0,0,0,0,0,0,0,0,0,-1,720,1814,0,0
-497,-790,0,0,0,0,0,0,0,0,0,-1,727,1814,0,0
-490,-790,0,0,0,0,0,0,0,0,0,-1,734,1814,0,0
-483,-790,0,0,0,0,0,0,0,0,0,-1,741,1814,0,0
-476,-790,0,0,0,0,0,0,0,0,0,-1,748,1814,0,0
-469,-790,0,0,0,0,0,0,0,0,0,-1,755,1814,0,0
-462,-790,0,0,0,0,0,0,0,0,0,-1,762,1814,0,0
-455,-790,0,0,0,0,0,0,0,0,0,-1,769,1814,0,0
-448,-790,0,0,0,0,0,0,0,0,0,-1,776,1814,0,0
-441,-790,0,0,0,0,0,0,0,0,0,-1,783,1814,0,0
-434,-790,0,0,0,0,0,0,0,0,0,-1,790,1814,0,0
-427,-790,0,0,0,0,0,0,0,0,0,-1,797,1814,0,0
-420,-790,0,0,0,0,0,0,0,0,0,-1,804,1814,0,0
-413,-790,0,0,0,0,0,0,0,0,0,-1,811,1814,0,0
-406,-790,0,0,0,0,0,0,0,0,0,-1,818,1814,0,0
-399,-790,0,0,0,0,0,0,0,0,0,-1,825,1814,0,0
-392,-790,0,0,0,0,0,0,0,0,0,-1,832,1814,0,0
-385,-790,0,0,0,0,0,0,0,0,0,-1,839,1814,0,0
-378,-790,0,0,0,0,0,0,0,0,0,-1,846,1814,0,0
-371,-790,0,0,0,0,0,0,0,0,0,-1,853,1814,0,0
-364,-790,0,0,0,0,0,0,0,0,0,-1,860,1814,0,0
-357,-790,0,0,0,0,0,0,0,0,0,-1,867,1814,0,0
-350,-790,0,0,0,0,0,0,0,0,0,-1,874,1814,0,0
-343,-790,0,0,0,0,0,0,0,0,0,-1,881,1814,0,0
-336,-790,0,0,0,0,0,0,0,0,0,-1,888,1814,0,0
-329,-790,0,0,0,0,0,0,0,0,0,-1,895,1814,0,0
-322,-790,0,0,0,0,0,0,0,0,0,-1,902,1814,0,0
-315,-790,0,0,0,0,0,0,0,0,0,-1,909,1814,0,0
-308,-790,0,0,0,0,0,0,0,0,0,-1,916,1814,0,0
-301,-790,0,0,0,0,0,0,0,0,0,-1,923,1814,0,0
-294,-790,0,0,0,0,0,0,0,0,0,-1,930,1814,0,0
-287,-790,0,0,0,0,0,0,0,0,0,-1,937,1814,0,0
-280,-790,0,0,0,0,0,0,0,0,0,-1,944,1814,0,0
-273,-790,0,0,0,0,0,0,0,0,0,-1,951,1814,0,0
-266,-790,0,0,0,0,0,0,0,0,0,-1,958,1814,0,0
-259,-790,0,0,0,0,0,0,0,0,0,-1,965,1814,0,0
-252,-790,0,0,0,0,0,0,0,0,0,-1,972,1814,0,0
-245,-790,0,0,0,0,0,0,0,0,0,-1,979,1814,0,0
-238,-790,0,0,0,0,0,0,0,0,0,-1,986,1814,0,0
-231,-790,0,0,0,0,0,0,0,0,0,-1,993,1814,0,0
-224,-790,0,0,0,0,0,0,0,0,0,-1,1000,1814,0,0
-217,-790,0,0,0,0,0,0,0,0,0,-1,1007,1814,0,0
-210,-790,0,0,0,0,0,0,0,0,0,-1,1014,1814,0,0
-203,-790,0,0,0,0,0,0,0,0,0,-1,1021,1814,0,0
-196,-790,0,0,0,0,0,0,0,0,0,-1,1028,1814,0,0
-189,-790,0,0,0,0,0,0,0,0,0,-1,1035,1814,0,0
-182,-790,0,0,0,0,0,0,0,0,0,-1,1042,1814,0,0
-175,-790,0,0,0,0,0,0,0,0,0,-1,1049,1814,0,0
-168,-790,0,0,0,0,0,0,0,0,0,-1,1056,1814,0,0
-161,-790,0,0,0,0,0,0,0,0,0,-1,1063,1814,0,0
-154,-790,0,0,0,0,0,0,0,0,0,-1,1070,1814,0,0
-147,-790,0,0,0,0,0,0,0,0,0,-1,1077,1814,0,0
-140,-790,0,0,0,0,0,0,0,0,0,-1,1084,1814,0,0
-133,-790,0,0,0,0,0,0,0,0,0,-1,1091,1814,0,0
-126,-790,0,0,0,0,0,0,0,0,0,-1,1098,1814,0,0
-119,-790,0,0,0,0,0,0,0,0,0,-1,1105,1814,0,0
-112,-790,0,0,0,0,0,0,0,0,0,-1,1112,1814,0,0
-105,-790,0,0,0,0,0,0,0,0,0,-1,1119,1814,0,0
-98,-790,0,0,0,0,0,0,0,0,0,-1,1126,1814,0,0
-91,-790,0,0,0,0,0,0,0,0,0,-1,1133,1814,0,0
-84,-790,0,0,0,0,0,0,0,0,0,-1,1140,1814,0,0
-77,-790,0.1521,-0.453613,-0.0475564,0.0616056,0.0249607,0.0670422,-0.052993,1.35634,0.0694604,0.0432222,1147,1814,0.15214,0.453589
-70,-790,0.213013,-0.284302,0,0,0,0,0,0,0,-1,1154,1814,0.21299,0.284351
-63,-790,0.0566406,-0.406738,0,0,0,0,0,0,0,-1,1161,1814,0.0566861,0.406757
-56,-790,0.121582,-0.308838,-0.0226037,0.0315259,0.00392151,0.0318085,-0.0228863,1.49885,0.0317178,0.0449805,1168,1814,0.121525,0.308863
-49,-790,-0.000244141,-0.124268,-0.0165657,0.0243009,-0.00188346,0.0243875,-0.0166523,-1.52484,0.0238342,0.0422782,1175,1814,-0.000299495,0.124304
-42,-790,-0.0134277,0.0435791,-0.0176837,0.019065,-0.00686073,0.020304,-0.0189228,-1.39212,0.0226523,0.0465549,1182,1814,-0.0134756,-0.0436389
-35,-790,-0.0799561,-0.282471,0,0,0,0,0,0,0,-1,1189,1814,-0.0799307,0.282478
-28,-790,-0.144653,-0.257935,-0.0203973,0.0144191,-0.00955037,0.0168668,-0.0228449,-1.31991,0.023014,0.0463542,1196,1814,-0.144698,0.257909
-21,-790,-0.0620117,-0.472534,-0.0204533,0.0149399,-0.0100352,0.0175873,-0.0231006,-1.31287,0.023563,0.0435187,1203,1814,-0.0620096,0.47258
-14,-790,-0.138306,-0.591064,-0.0188502,0.0155959,-0.00654126,0.0167962,-0.0200506,-1.38931,0.0213011,0.0454197,1210,1814,-0.138322,0.591043
-7,-790,-0.620972,-1.32117,-0.0165774,0.0169862,-0.000944821,0.0170127,-0.0166039,-1.54268,0.0194091,0.0453464,1217,1814,-0.620984,1.32118
0,-790,-0.9021,-1.37866,0,0,0,0,0,0,0,-1,1224,1814,-0.902157,1.37871
7,-790,-1.18652,-1.49158,-0.00982686,0.0180332,0.014271,0.0240458,-0.0158394,1.17205,0.0231896,0.0438046,1231,1814,-1.18651,1.4916
14,-790,-3.49744,-2.01294,-0.00571822,0.0182358,0.0234966,0.0326319,-0.0201143,1.0211,0.0307376,0.045591,1238,1814,-3.49742,2.01298
21,-790,-2.43677,-1.51855,-0.002907,0.0208332,0.0317372,0.0428474,-0.0249212,0.96435,0.0395799,0.0462064,1245,1814,-2.43682,1.51851
28,-790,-1.46838,-0.939941,-0.000859024,0.023561,0.0360008,0.049366,-0.026664,0.948891,0.0445435,0.0458232,1252,1814,-1.46837,0.939975
35,-790,-0.806274,-0.563965,0.00255848,0.0289331,0.0393201,0.0572184,-0.0257268,0.947195,0.0490254,0.0451234,1259,1814,-0.806328,0.564014
42,-790,-0.628174,-0.173584,0.00848818,0.0319719,0.0409944,0.0628729,-0.0224128,0.924877,0.0510533,0.0445704,1266,1814,-0.628186,0.173583
49,-790,-0.874512,0.815552,0.0106569,0.0344,0.041512,0.0657046,-0.0206477,0.92467,0.0520686,0.0477997,1273,1814,-0.874457,-0.815566
56,-790,-1.26099,1.59131,0.0128522,0.037313,0.0378657,0.0648745,-0.0147092,0.941606,0.0488959,0.0465086,1280,1814,-1.26097,-1.59126
63,-790,-1.52002,1.99182,0.0204938,0.0393106,0.0342815,0.0654513,-0.00564697,0.919323,0.0456332,0.0438063,1287,1814,-1.51999,-1.99178
70,-790,-1.74841,2.46606,0,0,0,0,0,0,0,-1,1294,1814,-1.74838,-2.4661
77,-790,-1.62805,1.1958,0.0347621,0.0400123,0.0243086,0.0618371,0.0129373,0.839185,0.0376605,0.0443202,1301,1814,-1.62807,-1.19582
84,-790,-1.24207,-0.99939,0.0445669,0.0377542,0.0193542,0.0608122,0.0215089,0.69829,0.0356075,0.0445636,1308,1814,-1.24211,0.999419
91,-790,-0.423462,-0.599976,0.0553565,0.0358904,0.0147338,0.0632818,0.0279652,0.493505,0.0366179,0.0471168,1315,1814,-0.423505,0.599988
98,-790,0.550903,-0.291138,0.0647872,0.0328525,0.0105203,0.0679414,0.0296983,0.291291,0.0393293,0.0479289,1322,1814,0.550892,0.291112
105,-790,-3.70984,0.341919,0,0,0,0,0,0,0,-1,1329,1814,-3.70989,-0.341872
112,-790,-3.3208,0.0837402,0.0770352,0.0296166,0.00765901,0.0782416,0.0284103,0.156228,0.0457336,0.048283,1336,1814,-3.32079,-0.0836924
119,-790,-2.89014,-0.270386,0.0795576,0.0286419,0.00763977,0.0806792,0.0275203,0.145772,0.0473577,0.0456543,1343,1814,-2.89016,0.270367
126,-790,-1.91553,-0.471558,0.0800229,0.0261577,0.0084512,0.0813178,0.0248629,0.15203,0.0481154,0.0495717,1350,1814,-1.91555,0.471601
133,-790,0.119507,-2.0802,0.0774253,0.0251886,0.0112241,0.0797349,0.022879,0.202939,0.0474077,0.0472714,1357,1814,0.119454,2.0802
140,-790,-0.0246582,-2.40942,0.0680428,0.0232213,0.0135056,0.0717977,0.0194664,0.271179,0.0428756,0.0447787,1364,1814,-0.024719,2.40939
147,-790,-0.301636,-2.7417,0.0569829,0.0254315,0.0145799,0.0626885,0.019726,0.373012,0.0370127,0.042569,1371,1814,-0.301688,2.74169
154,-790,-0.463013,-2.93201,0.0500746,0.0248636,0.0150508,0.0571013,0.0178369,0.436792,0.0337323,0.0396635,1378,1814,-0.463035,2.932
161,-790,-0.273193,-2.2926,0.0433487,0.0237341,0.0150156,0.0514761,0.0156068,0.496109,0.0304776,0.0444791,1385,1814,-0.273196,2.29261
168,-790,-0.153687,-1.38989,0,0,0,0,0,0,0,-1,1392,1814,-0.153699,1.38986
175,-790,-0.109253,-0.487915,0.0335456,0.017748,0.0147906,0.0424144,0.00887925,0.540144,0.0258303,0.0470608,1399,1814,-0.109288,0.487966
182,-790,-0.0975342,-0.215576,0.0312763,0.0122666,0.0133992,0.0381995,0.00534334,0.476908,0.0238853,0.0447386,1406,1814,-0.0975197,0.215536
189,-790,-0.0430908,-0.0687256,0.0318636,0.00715038,0.0120524,0.0367682,0.00224586,0.386468,0.0237988,0.0433165,1413,1814,-0.0430444,0.0686659
196,-790,-0.171753,-0.119019,0,0,0,0,0,0,0,-1,1420,1814,-0.171693,0.118999
203,-790,0,0,0,0,0,0,0,0,0,-1,1427,1814,0,0
210,-790,0,0,0,0,0,0,0,0,0,-1,1434,1814,0,0
217,-790,0,0,0,0,0,0,0,0,0,-1,1441,1814,0,0
224,-790,0,0,0,0,0,0,0,0,0,-1,1448,1814,0,0
231,-790,0,0,0,0,0,0,0,0,0,-1,1455,1814,0,0
238,-790,0,0,0,0,0,0,0,0,0,-1,1462,1814,0,0
245,-790,0,0,0,0,0,0,0,0,0,-1,1469,1814,0,0
252,-790,0,0,0,0,0,0,0,0,0,-1,1476,1814,0,0
259,-790,0,0,0,0,0,0,0,0,0,-1,1483,1814,0,0
266,-790,0,0,0,0,0,0,0,0,0,-1,1490,1814,0,0
273,-790,0,0,0,0,0,0,0,0,0,-1,1497,1814,0,0
280,-790,0,0,0,0,0,0,0,0,0,-1,1504,1814,0,0
287,-790,0,0,0,0,0,0,0,0,0,-1,1511,1814,0,0
294,-790,0,0,0,0,0,0,0,0,0,-1,1518,1814,0,0
301,-790,0,0,0,0,0,0,0,0,0,-1,1525,1814,0,0
308,-790,0,0,0,0,0,0,0,0,0,-1,1532,1814,0,0
315,-790,0,0,0,0,0,0,0,0,0,-1,1539,1814,0,0
322,-790,0,0,0,0,0,0,0,0,0,-1,1546,1814,0,0
329,-790,0,0,0,0,0,0,0,0,0,-1,1553,1814,0,0
336,-790,0,0,0,0,0,0,0,0,0,-1,1560,1814,0,0
343,-790,0,0,0,0,0,0,0,0,0,-1,1567,1814,0,0
350,-790,0,0,0,0,0,0,0,0,0,-1,1574,1814,0,0
357,-790,0,0,0,0,0,0,0,0,0,-1,1581,1814,0,0
364,-790,0,0,0,0,0,0,0,0,0,-1,1588,1814,0,0
371,-790,0,0,0,0,0,0,0,0,0,-1,1595,1814,0,0
378,-790,0,0,0,0,0,0,0,0,0,-1,1602,1814,0,0
385,-790,0,0,0,0,0,0,0,0,0,-1,1609,1814,0,0
392,-790,0,0,0,0,0,0,0,0,0,-1,1616,1814,0,0
399,-790,0,0,0,0,0,0,0,0,0,-1,1623,1814,0,0
406,-790,0,0,0,0,0,0,0,0,0,-1,1630,1814,0,0
413,-790,0,0,0,0,0,0,0,0,0,-1,1637,1814,0,0
420,-790,0,0,0,0,0,0,0,0,0,-1,1644,1814,0,0
427,-790,0,0,0,0,0,0,0,0,0,-1,1651,1814,0,0
434,-790,0,0,0,0,0,0,0,0,0,-1,1658,1814,0,0
441,-790,0,0,0,0,0,0,0,0,0,-1,1665,1814,0,0
448,-790,0,0,0,0,0,0,0,0,0,-1,1672,1814,0,0
455,-790,0,0,0,0,0,0,0,0,0,-1,1679,1814,0,0
462,-790,0,0,0,0,0,0,0,0,0,-1,1686,1814,0,0
469,-790,0,0,0,0,0,0,0,0,0,-1,1693,1814,0,0
476,-790,0,0,0,0,0,0,0,0,0,-1,1700,1814,0,0
483,-790,0,0,0,0,0,0,0,0,0,-1,1707,1814,0,0
490,-790,0,0,0,0,0,0,0,0,0,-1,1714,1814,0,0
497,-790,0,0,0,0,0,0,0,0,0,-1,1721,1814,0,0
504,-790,0,0,0,0,0,0,0,0,0,-1,1728,1814,0,0
511,-790,0,0,0,0,0,0,0,0,0,-1,1735,1814,0,0
518,-790,0,0,0,0,0,0,0,0,0,-1,1742,1814,0,0
525,-790,0,0,0,0,0,0,0,0,0,-1,1749,1814,0,0
532,-790,0,0,0,0,0,0,0,0,0,-1,1756,1814,0,0
539,-790,0,0,0,0,0,0,0,0,0,-1,1763,1814,0,0
546,-790,0,0,0,0,0,0,0,0,0,-1,1770,1814,0,0
553,-790,0,0,0,0,0,0,0,0,0,-1,1777,1814,0,0
560,-790,0,0,0,0,0,0,0,0,0,-1,1784,1814,0,0
567,-790,0,0,0,0,0,0,0,0,0,-1,1791,1814,0,0
574,-790,0,0,0,0,0,0,0,0,0,-1,1798,1814,0,0
581,-790,0,0,0,0,0,0,0,0,0,-1,1805,1814,0,0
588,-790,0,0,0,0,0,0,0,0,0,-1,1812,1814,0,0
595,-790,0,0,0,0,0,0,0,0,0,-1,1819,1814,0,0
602,-790,0,0,0,0,0,0,0,0,0,-1,1826,1814,0,0
609,-790,0,0,0,0,0,0,0,0,0,-1,1833,1814,0,0
616,-790,0,0,0,0,0,0,0,0,0,-1,1840,1814,0,0
623,-790,0,0,0,0,0,0,0,0,0,-1,1847,1814,0,0
630,-790,0,0,0,0,0,0,0,0,0,-1,1854,1814,0,0
637,-790,0,0,0,0,0,0,0,0,0,-1,1861,1814,0,0
644,-790,0,0,0,0,0,0,0,0,0,-1,1868,1814,0,0
651,-790,0,0,0,0,0,0,0,0,0,-1,1875,1814,0,0
658,-790,0,0,0,0,0,0,0,0,0,-1,1882,1814,0,0
665,-790,0,0,0,0,0,0,0,0,0,-1,1889,1814,0,0
672,-790,0,0,0,0,0,0,0,0,0,-1,1896,1814,0,0
679,-790,0,0,0,0,0,0,0,0,0,-1,1903,1814,0,0
686,-790,0,0,0,0,0,0,0,0,0,-1,1910,1814,0,0
693,-790,0,0,0,0,0,0,0,0,0,-1,1917,1814,0,0
700,-790,0,0,0,0,0,0,0,0,0,-1,1924,1814,0,0
707,-790,0,0,0,0,0,0,0,0,0,-1,1931,1814,0,0
714,-790,0,0,0,0,0,0,0,0,0,-1,1938,1814,0,0
721,-790,0,0,0,0,0,0,0,0,0,-1,1945,1814,0,0
728,-790,0,0,0,0,0,0,0,0,0,-1,1952,1814,0,0
735,-790,0,0,0,0,0,0,0,0,0,-1,1959,1814,0,0
742,-790,0,0,0,0,0,0,0,0,0,-1,1966,1814,0,0
749,-790,0,0,0,0,0,0,0,0,0,-1,1973,1814,0,0
756,-790,0,0,0,0,0,0,0,0,0,-1,1980,1814,0,0
763,-790,0,0,0,0,0,0,0,0,0,-1,1987,1814,0,0
770,-790,0,0,0,0,0,0,0,0,0,-1,1994,1814,0,0
777,-790,0,0,0,0,0,0,0,0,0,-1,2001,1814,0,0
784,-790,0,0,0,0,0,0,0,0,0,-1,2008,1814,0,0
791,-790,0,0,0,0,0,0,0,0,0,-1,2015,1814,0,0
798,-790,0,0,0,0,0,0,0,0,0,-1,2022,1814,0,0
805,-790,0,0,0,0,0,0,0,0,0,-1,2029,1814,0,0
812,-790,0,0,0,0,0,0,0,0,0,-1,2036,1814,0,0
-700,-797,0,0,0,0,0,0,0,0,0,-1,524,1821,0,0
-693,-797,0,0,0,0,0,0,0,0,0,-1,531,1821,0,0
-686,-797,0,0,0,0,0,0,0,0,0,-1,538,1821,0,0
-679,-797,0,0,0,0,0,0,0,0,0,-1,545,1821,0,0
-672,-797,0,0,0,0,0,0,0,0,0,-1,552,1821,0,0
-665,-797,0,0,0,0,0,0,0,0,0,-1,559,1821,0,0
-658,-797,0,0,0,0,0,0,0,0,0,-1,566,1821,0,0
-651,-797,0,0,0,0,0,0,0,0,0,-1,573,1821,0,0
-644,-797,0,0,0,0,0,0,0,0,0,-1,580,1821,0,0
-637,-797,0,0,0,0,0,0,0,0,0,-1,587,1821,0,0
-630,-797,0,0,0,0,0,0,0,0,0,-1,594,1821,0,0
-623,-797,0,0,0,0,0,0,0,0,0,-1,601,1821,0,0
-616,-797,0,0,0,0,0,0,0,0,0,-1,608,1821,0,0
-609,-797,0,0,0,0,0,0,0,0,0,-1,615,1821,0,0
-602,-797,0,0,0,0,0,0,0,0,0,-1,622,1821,0,0
-595,-797,0,0,0,0,0,0,0,0,0,-1,629,1821,0,0
-588,-797,0,0,0,0,0,0,0,0,0,-1,636,1821,0,0
-581,-797,0,0,0,0,0,0,0,0,0,-1,643,1821,0,0
-574,-797,0,0,0,0,0,0,0,0,0,-1,650,1821,0,0
-567,-797,0,0,0,0,0,0,0,0,0,-1,657,1821,0,0
-560,-797,0,0,0,0,0,0,0,0,0,-1,664,1821,0,0
-553,-797,0,0,0,0,0,0,0,0,0,-1,671,1821,0,0
-546,-797,0,0,0,0,0,0,0,0,0,-1,678,1821,0,0
-539,-797,0,0,0,0,0,0,0,0,0,-1,685,1821,0,0
-532,-797,0,0,0,0,0,0,0,0,0,-1,692,1821,0,0
-525,-797,0,0,0,0,0,0,0,0,0,-1,699,1821,0,0
-518,-797,0,0,0,0,0,0,0,0,0,-1,706,1821,0,0
-511,-797,0,0,0,0,0,0,0,0,0,-1,713,1821,0,0
-504,-797,0,0,0,0,0,0,0,0,0,-1,720,1821,0,0
-497,-797,0,0,0,0,0,0,0,0,0,-1,727,1821,0,0
-490,-797,0,0,0,0,0,0,0,0,0,-1,734,1821,0,0
-483,-797,0,0,0,0,0,0,0,0,0,-1,741,1821,0,0
-476,-797,0,0,0,0,0,0,0,0,0,-1,748,1821,0,0
-469,-797,0,0,0,0,0,0,0,0,0,-1,755,1821,0,0
-462,-797,0,0,0,0,0,0,0,0,0,-1,762,1821,0,0
-455,-797,0,0,0,0,0,0,0,0,0,-1,769,1821,0,0
-448,-797,0,0,0,0,0,0,0,0,0,-1,776,1821,0,0
-441,-797,0,0,0,0,0,0,0,0,0,-1,783,1821,0,0
-434,-797,0,0,0,0,0,0,0,0,0,-1,790,1821,0,0
-427,-797,0,0,0,0,0,0,0,0,0,-1,797,1821,0,0
-420,-797,0,0,0,0,0,0,0,0,0,-1,804,1821,0,0
-413,-797,0,0,0,0,0,0,0,0,0,-1,811,1821,0,0
-406,-797,0,0,0,0,0,0,0,0,0,-1,818,1821,0,0
-399,-797,0,0,0,0,0,0,0,0,0,-1,825,1821,0,0
-392,-797,0,0,0,0,0,0,0,0,0,-1,832,1821,0,0
-385,-797,0,0,0,0,0,0,0,0,0,-1,839,1821,0,0
-378,-797,0,0,0,0,0,0,0,0,0,-1,846,1821,0,0
-371,-797,0,0,0,0,0,0,0,0,0,-1,853,1821,0,0
-364,-797,0,0,0,0,0,0,0,0,0,-1,860,1821,0,0
-357,-797,0,0,0,0,0,0,0,0,0,-1,867,1821,0,0
-350,-797,0,0,0,0,0,0,0,0,0,-1,874,1821,0,0
-343,-797,0,0,0,0,0,0,0,0,0,-1,881,1821,0,0
-336,-797,0,0,0,0,0,0,0,0,0,-1,888,1821,0,0
-329,-797,0,0,0,0,0,0,0,0,0,-1,895,1821,0,0
-322,-797,0,0,0,0,0,0,0,0,0,-1,902,1821,0,0
-315,-797,0,0,0,0,0,0,0,0,0,-1,909,1821,0,0
-308,-797,0,0,0,0,0,0,0,0,0,-1,916,1821,0,0
-301,-797,0,0,0,0,0,0,0,0,0,-1,923,1821,0,0
-294,-797,0,0,0,0,0,0,0,0,0,-1,930,1821,0,0
-287,-797,0,0,0,0,0,0,0,0,0,-1,937,1821,0,0
-280,-797,0,0,0,0,0,0,0,0,0,-1,944,1821,0,0
-273,-797,0,0,0,0,0,0,0,0,0,-1,951,1821,0,0
-266,-797,0,0,0,0,0,0,0,0,0,-1,958,1821,0,0
-259,-797,0,0,0,0,0,0,0,0,0,-1,965,1821,0,0
-252,-797,0,0,0,0,0,0,0,0,0,-1,972,1821,0,0
-245,-797,0,0,0,0,0,0,0,0,0,-1,979,1821,0,0
-238,-797,0,0,0,0,0,0,0,0,0,-1,986,1821,0,0
-231,-797,0,0,0,0,0,0,0,0,0,-1,993,1821,0,0
-224,-797,0,0,0,0,0,0,0,0,0,-1,1000,1821,0,0
-217,-797,0,0,0,0,0,0,0,0,0,-1,1007,1821,0,0
-210,-797,0,0,0,0,0,0,0,0,0,-1,1014,1821,0,0
-203,-797,0,0,0,0,0,0,0,0,0,-1,1021,1821,0,0
-196,-797,0,0,0,0,0,0,0,0,0,-1,1028,1821,0,0
-189,-797,0,0,0,0,0,0,0,0,0,-1,1035,1821,0,0
-182,-797,0,0,0,0,0,0,0,0,0,-1,1042,1821,0,0
-175,-797,0,0,0,0,0,0,0,0,0,-1,1049,1821,0,0
-168,-797,0,0,0,0,0,0,0,0,0,-1,1056,1821,0,0
-161,-797,0,0,0,0,0,0,0,0,0,-1,1063,1821,0,0
-154,-797,0,0,0,0,0,0,0,0,0,-1,1070,1821,0,0
-147,-797,0,0,0,0,0,0,0,0,0,-1,1077,1821,0,0
-140,-797,0,0,0,0,0,0,0,0,0,-1,1084,1821,0,0
-133,-797,0,0,0,0,0,0,0,0,0,-1,1091,1821,0,0
-126,-797,0,0,0,0,0,0,0,0,0,-1,1098,1821,0,0
-119,-797,0,0,0,0,0,0,0,0,0,-1,1105,1821,0,0
-112,-797,0,0,0,0,0,0,0,0,0,-1,1112,1821,0,0
-105,-797,0,0,0,0,0,0,0,0,0,-1,1119,1821,0,0
-98,-797,0,0,0,0,0,0,0,0,0,-1,1126,1821,0,0
-91,-797,0,0,0,0,0,0,0,0,0,-1,1133,1821,0,0
-84,-797,0,0,0,0,0,0,0,0,0,-1,1140,1821,0,0
-77,-797,0,0,0,0,0,0,0,0,0,-1,1147,1821,0,0
-70,-797,0,0,0,0,0,0,0,0,0,-1,1154,1821,0,0
-63,-797,0,0,0,0,0,0,0,0,0,-1,1161,1821,0,0
-56,-797,0,0,0,0,0,0,0,0,0,-1,1168,1821,0,0
-49,-797,0,0,0,0,0,0,0,0,0,-1,1175,1821,0,0
-42,-797,-0.0246582,-0.126831,0,0,0,0,0,0,0,-1,1182,1821,-0.0247009,0.126879
-35,-797,-0.036499,-0.200684,0,0,0,0,0,0,0,-1,1189,1821,-0.0365227,0.200664
-28,-797,-0.134644,-0.394531,-0.0270378,0.0185799,-0.0111622,0.0211647,-0.0296227,-1.34324,0.0294573,0.0432926,1196,1821,-0.134657,0.394483
-21,-797,-0.180176,-0.832275,-0.0270617,0.0178054,-0.0119688,0.0207985,-0.0300548,-1.32574,0.0295219,0.0411487,1203,1821,-0.180232,0.832217
-14,-797,-0.456299,-0.864746,-0.0248681,0.0171303,-0.00829358,0.0187088,-0.0264465,-1.38272,0.0261977,0.0451855,1210,1821,-0.45631,0.86478
-7,-797,-0.673706,-1.42981,-0.0222234,0.0178758,-0.00154255,0.017935,-0.0222827,-1.5324,0.0232649,0.0491778,1217,1821,-0.673709,1.42982
0,-797,-0.494019,-2.08093,0,0,0,0,0,0,0,-1,1224,1821,-0.493986,2.08094
7,-797,-1.73718,-1.2854,-0.0141147,0.0181017,0.0168679,0.0253173,-0.0213303,1.16658,0.0269648,0.0468559,1231,1821,-1.73722,1.28539
14,-797,-4.04297,-1.70972,-0.0087961,0.0182188,0.0280437,0.0358385,-0.0264158,1.00983,0.0360795,0.0454816,1238,1821,-4.04294,1.70968
21,-797,-2.74097,-1.68018,-0.00535197,0.0221518,0.0374008,0.0482488,-0.031449,0.961571,0.046353,0.0450685,1245,1821,-2.74101,1.68017
28,-797,-1.59802,-1.46533,-0.00279361,0.0269713,0.0418923,0.0565462,-0.0323685,0.956073,0.0519637,0.0424588,1252,1821,-1.598,1.46537
35,-797,-0.545776,-1.76953,0,0,0,0,0,0,0,-1,1259,1821,-0.545736,1.76957
42,-797,-0.906738,-0.589722,0.00827326,0.0392123,0.0480822,0.0742522,-0.0267666,0.941034,0.060433,0.0459953,1266,1821,-0.906796,0.589673
49,-797,-1.49768,0.569458,0.0105672,0.0435627,0.0488901,0.0786636,-0.0245337,0.948122,0.0622532,0.0440236,1273,1821,-1.49764,-0.569516
56,-797,-2.23181,1.83252,0,0,0,0,0,0,0,-1,1280,1821,-2.23176,-1.83258
63,-797,-2.34119,2.95923,0,0,0,0,0,0,0,-1,1287,1821,-2.34124,-2.9592
70,-797,-1.7334,1.20117,0.0278002,0.0533018,0.0333322,0.0762388,0.0048632,0.96808,0.0492849,0.0439649,1294,1821,-1.73342,-1.20114
77,-797,-2.22681,0.710938,0.035979,0.052277,0.0267593,0.0721006,0.0161554,0.933201,0.0436892,0.0436476,1301,1821,-2.22675,-0.71091
84,-797,-1.51501,-0.871704,0,0,0,0,0,0,0,-1,1308,1821,-1.51504,0.871706
91,-797,-0.644531,-0.614014,0.0594951,0.04546,0.0148202,0.0688752,0.0360799,0.564281,0.0397802,0.0488388,1315,1821,-0.644587,0.61398
98,-797,0.370728,-0.313232,0.0701373,0.0407657,0.00954723,0.0729679,0.0379352,0.288222,0.0421391,0.0458057,1322,1821,0.370705,0.313208
105,-797,-4.35022,0.335938,0,0,0,0,0,0,0,-1,1329,1821,-4.35027,-0.335962
112,-797,-3.77112,-0.0593262,0.084883,0.0335134,0.00528073,0.0854202,0.0329762,0.101386,0.0497425,0.0453101,1336,1821,-3.77117,0.059372
119,-797,-3.34741,-0.278198,0.0885153,0.0307886,0.00500012,0.0889452,0.0303587,0.0857659,0.0522075,0.0432628,1343,1821,-3.34736,0.27823
126,-797,-2.33716,-0.498657,0.0902985,0.026228,0.00573231,0.0908074,0.0257192,0.0885318,0.0540451,0.0465575,1350,1821,-2.33712,0.498705
133,-797,-1.03235,-1.00134,0.0881569,0.0235387,0.00886621,0.0893514,0.0223442,0.133913,0.0536923,0.0459214,1357,1821,-1.03229,1.00133
140,-797,-0.148682,-2.65491,0.0770778,0.0208534,0.0114484,0.0793195,0.0186117,0.193366,0.0478967,0.0432705,1364,1821,-0.148628,2.65492
147,-797,-0.411743,-2.86877,0.0640436,0.0236154,0.0126769,0.0676898,0.0199692,0.280065,0.0401606,0.0432435,1371,1821,-0.41176,2.86882
154,-797,-0.609375,-2.95313,0.0559127,0.0228647,0.013643,0.060817,0.0179603,0.345091,0.0360801,0.0387984,1378,1821,-0.609395,2.95308
161,-797,-0.299072,-2.59753,0.0481628,0.0214853,0.0140971,0.0542315,0.0154166,0.406515,0.0322674,0.0431574,1385,1821,-0.299027,2.5975
168,-797,0,0,0,0,0,0,0,0,0,-1,1392,1821,0,0
175,-797,0,0,0,0,0,0,0,0,0,-1,1399,1821,0,0
182,-797,0,0,0,0,0,0,0,0,0,-1,1406,1821,0,0
189,-797,0,0,0,0,0,0,0,0,0,-1,1413,1821,0,0
196,-797,0,0,0,0,0,0,0,0,0,-1,1420,1821,0,0
203,-797,0,0,0,0,0,0,0,0,0,-1,1427,1821,0,0
210,-797,0,0,0,0,0,0,0,0,0,-1,1434,1821,0,0
217,-797,0,0,0,0,0,0,0,0,0,-1,1441,1821,0,0
224,-797,0,0,0,0,0,0,0,0,0,-1,1448,1821,0,0
231,-797,0,0,0,0,0,0,0,0,0,-1,1455,1821,0,0
238,-797,0,0,0,0,0,0,0,0,0,-1,1462,1821,0,0
245,-797,0,0,0,0,0,0,0,0,0,-1,1469,1821,0,0
252,-797,0,0,0,0,0,0,0,0,0,-1,1476,1821,0,0
259,-797,0,0,0,0,0,0,0,0,0,-1,1483,1821,0,0
266,-797,0,0,0,0,0,0,0,0,0,-1,1490,1821,0,0
273,-797,0,0,0,0,0,0,0,0,0,-1,1497,1821,0,0
280,-797,0,0,0,0,0,0,0,0,0,-1,1504,1821,0,0
287,-797,0,0,0,0,0,0,0,0,0,-1,1511,1821,0,0
294,-797,0,0,0,0,0,0,0,0,0,-1,1518,1821,0,0
301,-797,0,0,0,0,0,0,0,0,0,-1,1525,1821,0,0
308,-797,0,0,0,0,0,0,0,0,0,-1,1532,1821,0,0
315,-797,0,0,0,0,0,0,0,0,0,-1,1539,1821,0,0
322,-797,0,0,0,0,0,0,0,0,0,-1,1546,1821,0,0
329,-797,0,0,0,0,0,0,0,0,0,-1,1553,1821,0,0
336,-797,0,0,0,0,0,0,0,0,0,-1,1560,1821,0,0
343,-797,0,0,0,0,0,0,0,0,0,-1,1567,1821,0,0
350,-797,0,0,0,0,0,0,0,0,0,-1,1574,1821,0,0
357,-797,0,0,0,0,0,0,0,0,0,-1,1581,1821,0,0
364,-797,0,0,0,0,0,0,0,0,0,-1,1588,1821,0,0
371,-797,0,0,0,0,0,0,0,0,0,-1,1595,1821,0,0
378,-797,0,0,0,0,0,0,0,0,0,-1,1602,1821,0,0
385,-797,0,0,0,0,0,0,0,0,0,-1,1609,1821,0,0
392,-797,0,0,0,0,0,0,0,0,0,-1,1616,1821,0,0
399,-797,0,0,0,0,0,0,0,0,0,-1,1623,1821,0,0
406,-797,0,0,0,0,0,0,0,0,0,-1,1630,1821,0,0
413,-797,0,0,0,0,0,0,0,0,0,-1,1637,1821,0,0
420,-797,0,0,0,0,0,0,0,0,0,-1,1644,1821,0,0
427,-797,0,0,0,0,0,0,0,0,0,-1,1651,1821,0,0
434,-797,0,0,0,0,0,0,0,0,0,-1,1658,1821,0,0
441,-797,0,0,0,0,0,0,0,0,0,-1,1665,1821,0,0
448,-797,0,0,0,0,0,0,0,0,0,-1,1672,1821,0,0
455,-797,0,0,0,0,0,0,0,0,0,-1,1679,1821,0,0
462,-797,0,0,0,0,0,0,0,0,0,-1,1686,1821,0,0
469,-797,0,0,0,0,0,0,0,0,0,-1,1693,1821,0,0
476,-797,0,0,0,0,0,0,0,0,0,-1,1700,1821,0,0
483,-797,0,0,0,0,0,0,0,0,0,-1,1707,1821,0,0
490,-797,0,0,0,0,0,0,0,0,0,-1,1714,1821,0,0
497,-797,0,0,0,0,0,0,0,0,0,-1,1721,1821,0,0
504,-797,0,0,0,0,0,0,0,0,0,-1,1728,1821,0,0
511,-797,0,0,0,0,0,0,0,0,0,-1,1735,1821,0,0
518,-797,0,0,0,0,0,0,0,0,0,-1,1742,1821,0,0
525,-797,0,0,0,0,0,0,0,0,0,-1,1749,1821,0,0
532,-797,0,0,0,0,0,0,0,0,0,-1,1756,1821,0,0
539,-797,0,0,0,0,0,0,0,0,0,-1,1763,1821,0,0
546,-797,0,0,0,0,0,0,0,0,0,-1,1770,1821,0,0
553,-797,0,0,0,0,0,0,0,0,0,-1,1777,1821,0,0
560,-797,0,0,0,0,0,0,0,0,0,-1,1784,1821,0,0
567,-797,0,0,0,0,0,0,0,0,0,-1,1791,1821,0,0
574,-797,0,0,0,0,0,0,0,0,0,-1,1798,1821,0,0
581,-797,0,0,0,0,0,0,0,0,0,-1,1805,1821,0,0
588,-797,0,0,0,0,0,0,0,0,0,-1,1812,1821,0,0
595,-797,0,0,0,0,0,0,0,0,0,-1,1819,1821,0,0
602,-797,0,0,0,0,0,0,0,0,0,-1,1826,1821,0,0
609,-797,0,0,0,0,0,0,0,0,0,-1,1833,1821,0,0
616,-797,0,0,0,0,0,0,0,0,0,-1,1840,1821,0,0
623,-797,0,0,0,0,0,0,0,0,0,-1,1847,1821,0,0
630,-797,0,0,0,0,0,0,0,0,0,-1,1854,1821,0,0
637,-797,0,0,0,0,0,0,0,0,0,-1,1861,1821,0,0
644,-797,0,0,0,0,0,0,0,0,0,-1,1868,1821,0,0
651,-797,0,0,0,0,0,0,0,0,0,-1,1875,1821,0,0
658,-797,0,0,0,0,0,0,0,0,0,-1,1882,1821,0,0
665,-797,0,0,0,0,0,0,0,0,0,-1,1889,1821,0,0
672,-797,0,0,0,0,0,0,0,0,0,-1,1896,1821,0,0
679,-797,0,0,0,0,0,0,0,0,0,-1,1903,1821,0,0
686,-797,0,0,0,0,0,0,0,0,0,-1,1910,1821,0,0
693,-797,0,0,0,0,0,0,0,0,0,-1,1917,1821,0,0
700,-797,0,0,0,0,0,0,0,0,0,-1,1924,1821,0,0
707,-797,0,0,0,0,0,0,0,0,0,-1,1931,1821,0,0
714,-797,0,0,0,0,0,0,0,0,0,-1,1938,1821,0,0
721,-797,0,0,0,0,0,0,0,0,0,-1,1945,1821,0,0
728,-797,0,0,0,0,0,0,0,0,0,-1,1952,1821,0,0
735,-797,0,0,0,0,0,0,0,0,0,-1,1959,1821,0,0
742,-797,0,0,0,0,0,0,0,0,0,-1,1966,1821,0,0
749,-797,0,0,0,0,0,0,0,0,0,-1,1973,1821,0,0
756,-797,0,0,0,0,0,0,0,0,0,-1,1980,1821,0,0
763,-797,0,0,0,0,0,0,0,0,0,-1,1987,1821,0,0
770,-797,0,0,0,0,0,0,0,0,0,-1,1994,1821,0,0
777,-797,0,0,0,0,0,0,0,0,0,-1,2001,1821,0,0
784,-797,0,0,0,0,0,0,0,0,0,-1,2008,1821,0,0
791,-797,0,0,0,0,0,0,0,0,0,-1,2015,1821,0,0
798,-797,0,0,0,0,0,0,0,0,0,-1,2022,1821,0,0
805,-797,0,0,0,0,0,0,0,0,0,-1,2029,1821,0,0
812,-797,0,0,0,0,0,0,0,0,0,-1,2036,1821,0,0
-700,-804,0,0,0,0,0,0,0,0,0,-1,524,1828,0,0
-693,-804,0,0,0,0,0,0,0,0,0,-1,531,1828,0,0
-686,-804,0,0,0,0,0,0,0,0,0,-1,538,1828,0,0
-679,-804,0,0,0,0,0,0,0,0,0,-1,545,1828,0,0
-672,-804,0,0,0,0,0,0,0,0,0,-1,552,1828,0,0
-665,-804,0,0,0,0,0,0,0,0,0,-1,559,1828,0,0
-658,-804,0,0,0,0,0,0,0,0,0,-1,566,1828,0,0
-651,-804,0,0,0,0,0,0,0,0,0,-1,573,1828,0,0
-644,-804,0,0,0,0,0,0,0,0,0,-1,580,1828,0,0
-637,-804,0,0,0,0,0,0,0,0,0,-1,587,1828,0,0
-630,-804,0,0,0,0,0,0,0,0,0,-1,594,1828,0,0
-623,-804,0,0,0,0,0,0,0,0,0,-1,601,1828,0,0
-616,-804,0,0,0,0,0,0,0,0,0,-1,608,1828,0,0
-609,-804,0,0,0,0,0,0,0,0,0,-1,615,1828,0,0
-602,-804,0,0,0,0,0,0,0,0,0,-1,622,1828,0,0
-595,-804,0,0,0,0,0,0,0,0,0,-1,629,1828,0,0
-588,-804,0,0,0,0,0,0,0,0,0,-1,636,1828,0,0
-581,-804,0,0,0,0,0,0,0,0,0,-1,643,1828,0,0
-574,-804,0,0,0,0,0,0,0,0,0,-1,650,1828,0,0
-567,-804,0,0,0,0,0,0,0,0,0,-1,657,1828,0,0
-560,-804,0,0,0,0,0,0,0,0,0,-1,664,1828,0,0
-553,-804,0,0,0,0,0,0,0,0,0,-1,671,1828,0,0
-546,-804,0,0,0,0,0,0,0,0,0,-1,678,1828,0,0
-539,-804,0,0,0,0,0,0,0,0,0,-1,685,1828,0,0
-532,-804,0,0,0,0,0,0,0,0,0,-1,692,1828,0,0
-525,-804,0,0,0,0,0,0,0,0,0,-1,699,1828,0,0
-518,-804,0,0,0,0,0,0,0,0,0,-1,706,1828,0,0
-511,-804,0,0,0,0,0,0,0,0,0,-1,713,1828,0,0
-504,-804,0,0,0,0,0,0,0,0,0,-1,720,1828,0,0
-497,-804,0,0,0,0,0,0,0,0,0,-1,727,1828,0,0
-490,-804,0,0,0,0,0,0,0,0,0,-1,734,1828,0,0
-483,-804,0,0,0,0,0,0,0,0,0,-1,741,1828,0,0
-476,-804,0,0,0,0,0,0,0,0,0,-1,748,1828,0,0
-469,-804,0,0,0,0,0,0,0,0,0,-1,755,1828,0,0
-462,-804,0,0,0,0,0,0,0,0,0,-1,762,1828,0,0
-455,-804,0,0,0,0,0,0,0,0,0,-1,769,1828,0,0
-448,-804,0,0,0,0,0,0,0,0,0,-1,776,1828,0,0
-441,-804,0,0,0,0,0,0,0,0,0,-1,783,1828,0,0
-434,-804,0,0,0,0,0,0,0,0,0,-1,790,1828,0,0
-427,-804,0,0,0,0,0,0,0,0,0,-1,797,1828,0,0
-420,-804,0,0,0,0,0,0,0,0,0,-1,804,1828,0,0
-413,-804,0,0,0,0,0,0,0,0,0,-1,811,1828,0,0
-406,-804,0,0,0,0,0,0,0,0,0,-1,818,1828,0,0
-399,-804,0,0,0,0,0,0,0,0,0,-1,825,1828,0,0
-392,-804,0,0,0,0,0,0,0,0,0,-1,832,1828,0,0
-385,-804,0,0,0,0,0,0,0,0,0,-1,839,1828,0,0
-378,-804,0,0,0,0,0,0,0,0,0,-1,846,1828,0,0
-371,-804,0,0,0,0,0,0,0,0,0,-1,853,1828,0,0
-364,-804,0,0,0,0,0,0,0,0,0,-1,860,1828,0,0
-357,-804,0,0,0,0,0,0,0,0,0,-1,867,1828,0,0
-350,-804,0,0,0,0,0,0,0,0,0,-1,874,1828,0,0
-343,-804,0,0,0,0,0,0,0,0,0,-1,881,1828,0,0
-336,-804,0,0,0,0,0,0,0,0,0,-1,888,1828,0,0
-329,-804,0,0,0,0,0,0,0,0,0,-1,895,1828,0,0
-322,-804,0,0,0,0,0,0,0,0,0,-1,902,1828,0,0
-315,-804,0,0,0,0,0,0,0,0,0,-1,909,1828,0,0
-308,-804,0,0,0,0,0,0,0,0,0,-1,916,1828,0,0
-301,-804,0,0,0,0,0,0,0,0,0,-1,923,1828,0,0
-294,-804,0,0,0,0,0,0,0,0,0,-1,930,1828,0,0
-287,-804,0,0,0,0,0,0,0,0,0,-1,937,1828,0,0
-280,-804,0,0,0,0,0,0,0,0,0,-1,944,1828,0,0
-273,-804,0,0,0,0,0,0,0,0,0,-1,951,1828,0,0
-266,-804,0,0,0,0,0,0,0,0,0,-1,958,1828,0,0
-259,-804,0,0,0,0,0,0,0,0,0,-1,965,1828,0,0
-252,-804,0,0,0,0,0,0,0,0,0,-1,972,1828,0,0
-245,-804,0,0,0,0,0,0,0,0,0,-1,979,1828,0,0
-238,-804,0,0,0,0,0,0,0,0,0,-1,986,1828,0,0
-231,-804,0,0,0,0,0,0,0,0,0,-1,993,1828,0,0
-224,-804,0,0,0,0,0,0,0,0,0,-1,1000,1828,0,0
-217,-804,0,0,0,0,0,0,0,0,0,-1,1007,1828,0,0
-210,-804,0,0,0,0,0,0,0,0,0,-1,1014,1828,0,0
-203,-804,0,0,0,0,0,0,0,0,0,-1,1021,1828,0,0
-196,-804,0,0,0,0,0,0,0,0,0,-1,1028,1828,0,0
-189,-804,0,0,0,0,0,0,0,0,0,-1,1035,1828,0,0
-182,-804,0,0,0,0,0,0,0,0,0,-1,1042,1828,0,0
-175,-804,0,0,0,0,0,0,0,0,0,-1,1049,1828,0,0
-168,-804,0,0,0,0,0,0,0,0,0,-1,1056,1828,0,0
-161,-804,0,0,0,0,0,0,0,0,0,-1,1063,1828,0,0
-154,-804,0,0,0,0,0,0,0,0,0,-1,1070,1828,0,0
-147,-804,0,0,0,0,0,0,0,0,0,-1,1077,1828,0,0
-140,-804,0,0,0,0,0,0,0,0,0,-1,1084,1828,0,0
-133,-804,0,0,0,0,0,0,0,0,0,-1,1091,1828,0,0
-126,-804,0,0,0,0,0,0,0,0,0,-1,1098,1828,0,0
-119,-804,0,0,0,0,0,0,0,0,0,-1,1105,1828,0,0
-112,-804,0,0,0,0,0,0,0,0,0,-1,1112,1828,0,0
-105,-804,0,0,0,0,0,0,0,0,0,-1,1119,1828,0,0
-98,-804,0,0,0,0,0,0,0,0,0,-1,1126,1828,0,0
-91,-804,0,0,0,0,0,0,0,0,0,-1,1133,1828,0,0
-84,-804,0,0,0,0,0,0,0,0,0,-1,1140,1828,0,0
-77,-804,0,0,0,0,0,0,0,0,0,-1,1147,1828,0,0
-70,-804,0,0,0,0,0,0,0,0,0,-1,1154,1828,0,0
-63,-804,0,0,0,0,0,0,0,0,0,-1,1161,1828,0,0
-56,-804,0,0,0,0,0,0,0,0,0,-1,1168,1828,0,0
-49,-804,0,0,0,0,0,0,0,0,0,-1,1175,1828,0,0
-42,-804,0,0,0,0,0,0,0,0,0,-1,1182,1828,0,0
-35,-804,0,0,0,0,0,0,0,0,0,-1,1189,1828,0,0
-28,-804,0,0,0,0,0,0,0,0,0,-1,1196,1828,0,0
-21,-804,0,0,0,0,0,0,0,0,0,-1,1203,1828,0,0
-14,-804,0,0,0,0,0,0,0,0,0,-1,1210,1828,0,0
-7,-804,0,0,0,0,0,0,0,0,0,-1,1217,1828,0,0
0,-804,0,0,0,0,0,0,0,0,0,-1,1224,1828,0,0
7,-804,0,0,0,0,0,0,0,0,0,-1,1231,1828,0,0
14,-804,0,0,0,0,0,0,0,0,0,-1,1238,1828,0,0
21,-804,0,0,0,0,0,0,0,0,0,-1,1245,1828,0,0
28,-804,0,0,0,0,0,0,0,0,0,-1,1252,1828,0,0
35,-804,-0.769043,-2.48193,0,0,0,0,0,0,0,-1,1259,1828,-0.76899,2.48189
42,-804,-1.10925,-1.14026,0,0,0,0,0,0,0,-1,1266,1828,-1.10922,1.14026
49,-804,-1.4679,0.0758057,0,0,0,0,0,0,0,-1,1273,1828,-1.46787,-0.0758543
56,-804,-0.93042,1.75171,0,0,0,0,0,0,0,-1,1280,1828,-0.930359,-1.75175
63,-804,-2.18054,1.24695,0,0,0,0,0,0,0,-1,1287,1828,-2.18054,-1.24699
70,-804,-2.36353,0.552002,0.0250499,0.0694576,0.0358967,0.0894625,0.005045,1.06237,0.0580331,0.047312,1294,1828,-2.36355,-0.551947
77,-804,-2.59534,0.160156,0.0324188,0.0678601,0.0275661,0.08291,0.0173689,1.07106,0.0504895,0.0460666,1301,1828,-2.59537,-0.160145
84,-804,-2.71729,-0.924805,0,0,0,0,0,0,0,-1,1308,1828,-2.71733,0.924813
91,-804,0,0,0,0,0,0,0,0,0,-1,1315,1828,0,0
98,-804,0,0,0,0,0,0,0,0,0,-1,1322,1828,0,0
105,-804,0,0,0,0,0,0,0,0,0,-1,1329,1828,0,0
112,-804,0,0,0,0,0,0,0,0,0,-1,1336,1828,0,0
119,-804,0,0,0,0,0,0,0,0,0,-1,1343,1828,0,0
126,-804,0,0,0,0,0,0,0,0,0,-1,1350,1828,0,0
133,-804,0,0,0,0,0,0,0,0,0,-1,1357,1828,0,0
140,-804,0,0,0,0,0,0,0,0,0,-1,1364,1828,0,0
147,-804,0,0,0,0,0,0,0,0,0,-1,1371,1828,0,0
154,-804,0,0,0,0,0,0,0,0,0,-1,1378,1828,0,0
161,-804,0,0,0,0,0,0,0,0,0,-1,1385,1828,0,0
168,-804,0,0,0,0,0,0,0,0,0,-1,1392,1828,0,0
175,-804,0,0,0,0,0,0,0,0,0,-1,1399,1828,0,0
182,-804,0,0,0,0,0,0,0,0,0,-1,1406,1828,0,0
189,-804,0,0,0,0,0,0,0,0,0,-1,1413,1828,0,0
196,-804,0,0,0,0,0,0,0,0,0,-1,1420,1828,0,0
203,-804,0,0,0,0,0,0,0,0,0,-1,1427,1828,0,0
210,-804,0,0,0,0,0,0,0,0,0,-1,1434,1828,0,0
217,-804,0,0,0,0,0,0,0,0,0,-1,1441,1828,0,0
224,-804,0,0,0,0,0,0,0,0,0,-1,1448,1828,0,0
231,-804,0,0,0,0,0,0,0,0,0,-1,1455,1828,0,0
238,-804,0,0,0,0,0,0,0,0,0,-1,1462,1828,0,0
245,-804,0,0,0,0,0,0,0,0,0,-1,1469,1828,0,0
252,-804,0,0,0,0,0,0,0,0,0,-1,1476,1828,0,0
259,-804,0,0,0,0,0,0,0,0,0,-1,1483,1828,0,0
266,-804,0,0,0,0,0,0,0,0,0,-1,1490,1828,0,0
273,-804,0,0,0,0,0,0,0,0,0,-1,1497,1828,0,0
280,-804,0,0,0,0,0,0,0,0,0,-1,1504,1828,0,0
287,-804,0,0,0,0,0,0,0,0,0,-1,1511,1828,0,0
294,-804,0,0,0,0,0,0,0,0,0,-1,1518,1828,0,0
301,-804,0,0,0,0,0,0,0,0,0,-1,1525,1828,0,0
308,-804,0,0,0,0,0,0,0,0,0,-1,1532,1828,0,0
315,-804,0,0,0,0,0,0,0,0,0,-1,1539,1828,0,0
322,-804,0,0,0,0,0,0,0,0,0,-1,1546,1828,0,0
329,-804,0,0,0,0,0,0,0,0,0,-1,1553,1828,0,0
336,-804,0,0,0,0,0,0,0,0,0,-1,1560,1828,0,0
343,-804,0,0,0,0,0,0,0,0,0,-1,1567,1828,0,0
350,-804,0,0,0,0,0,0,0,0,0,-1,1574,1828,0,0
357,-804,0,0,0,0,0,0,0,0,0,-1,1581,1828,0,0
364,-804,0,0,0,0,0,0,0,0,0,-1,1588,1828,0,0
371,-804,0,0,0,0,0,0,0,0,0,-1,1595,1828,0,0
378,-804,0,0,0,0,0,0,0,0,0,-1,1602,1828,0,0
385,-804,0,0,0,0,0,0,0,0,0,-1,1609,1828,0,0
392,-804,0,0,0,0,0,0,0,0,0,-1,1616,1828,0,0
399,-804,0,0,0,0,0,0,0,0,0,-1,1623,1828,0,0
406,-804,0,0,0,0,0,0,0,0,0,-1,1630,1828,0,0
413,-804,0,0,0,0,0,0,0,0,0,-1,1637,1828,0,0
420,-804,0,0,0,0,0,0,0,0,0,-1,1644,1828,0,0
427,-804,0,0,0,0,0,0,0,0,0,-1,1651,1828,0,0
434,-804,0,0,0,0,0,0,0,0,0,-1,1658,1828,0,0
441,-804,0,0,0,0,0,0,0,0,0,-1,1665,1828,0,0
448,-804,0,0,0,0,0,0,0,0,0,-1,1672,1828,0,0
455,-804,0,0,0,0,0,0,0,0,0,-1,1679,1828,0,0
462,-804,0,0,0,0,0,0,0,0,0,-1,1686,1828,0,0
469,-804,0,0,0,0,0,0,0,0,0,-1,1693,1828,0,0
476,-804,0,0,0,0,0,0,0,0,0,-1,1700,1828,0,0
483,-804,0,0,0,0,0,0,0,0,0,-1,1707,1828,0,0
490,-804,0,0,0,0,0,0,0,0,0,-1,1714,1828,0,0
497,-804,0,0,0,0,0,0,0,0,0,-1,1721,1828,0,0
504,-804,0,0,0,0,0,0,0,0,0,-1,1728,1828,0,0
511,-804,0,0,0,0,0,0,0,0,0,-1,1735,1828,0,0
518,-804,0,0,0,0,0,0,0,0,0,-1,1742,1828,0,0
525,-804,0,0,0,0,0,0,0,0,0,-1,1749,1828,0,0
532,-804,0,0,0,0,0,0,0,0,0,-1,1756,1828,0,0
539,-804,0,0,0,0,0,0,0,0,0,-1,1763,1828,0,0
546,-804,0,0,0,0,0,0,0,0,0,-1,1770,1828,0,0
553,-804,0,0,0,0,0,0,0,0,0,-1,1777,1828,0,0
560,-804,0,0,0,0,0,0,0,0,0,-1,1784,1828,0,0
567,-804,0,0,0,0,0,0,0,0,0,-1,1791,1828,0,0
574,-804,0,0,0,0,0,0,0,0,0,-1,1798,1828,0,0
581,-804,0,0,0,0,0,0,0,0,0,-1,1805,1828,0,0
588,-804,0,0,0,0,0,0,0,0,0,-1,1812,1828,0,0
595,-804,0,0,0,0,0,0,0,0,0,-1,1819,1828,0,0
602,-804,0,0,0,0,0,0,0,0,0,-1,1826,1828,0,0
609,-804,0,0,0,0,0,0,0,0,0,-1,1833,1828,0,0
616,-804,0,0,0,0,0,0,0,0,0,-1,1840,1828,0,0
623,-804,0,0,0,0,0,0,0,0,0,-1,1847,1828,0,0
630,-804,0,0,0,0,0,0,0,0,0,-1,1854,1828,0,0
637,-804,0,0,0,0,0,0,0,0,0,-1,1861,1828,0,0
644,-804,0,0,0,0,0,0,0,0,0,-1,1868,1828,0,0
651,-804,0,0,0,0,0,0,0,0,0,-1,1875,1828,0,0
658,-804,0,0,0,0,0,0,0,0,0,-1,1882,1828,0,0
665,-804,0,0,0,0,0,0,0,0,0,-1,1889,1828,0,0
672,-804,0,0,0,0,0,0,0,0,0,-1,1896,1828,0,0
679,-804,0,0,0,0,0,0,0,0,0,-1,1903,1828,0,0
686,-804,0,0,0,0,0,0,0,0,0,-1,1910,1828,0,0
693,-804,0,0,0,0,0,0,0,0,0,-1,1917,1828,0,0
700,-804,0,0,0,0,0,0,0,0,0,-1,1924,1828,0,0
707,-804,0,0,0,0,0,0,0,0,0,-1,1931,1828,0,0
714,-804,0,0,0,0,0,0,0,0,0,-1,1938,1828,0,0
721,-804,0,0,0,0,0,0,0,0,0,-1,1945,1828,0,0
728,-804,0,0,0,0,0,0,0,0,0,-1,1952,1828,0,0
735,-804,0,0,0,0,0,0,0,0,0,-1,1959,1828,0,0
742,-804,0,0,0,0,0,0,0,0,0,-1,1966,1828,0,0
749,-804,0,0,0,0,0,0,0,0,0,-1,1973,1828,0,0
756,-804,0,0,0,0,0,0,0,0,0,-1,1980,1828,0,0
763,-804,0,0,0,0,0,0,0,0,0,-1,1987,1828,0,0
770,-804,0,0,0,0,0,0,0,0,0,-1,1994,1828,0,0
777,-804,0,0,0,0,0,0,0,0,0,-1,2001,1828,0,0
784,-804,0,0,0,0,0,0,0,0,0,-1,2008,1828,0,0
791,-804,0,0,0,0,0,0,0,0,0,-1,2015,1828,0,0
798,-804,0,0,0,0,0,0,0,0,0,-1,2022,1828,0,0
805,-804,0,0,0,0,0,0,0,0,0,-1,2029,1828,0,0
812,-804,0,0,0,0,0,0,0,0,0,-1,2036,1828,0,0

