 "x_c",  "y_c",  "u_c",  "v_c",  "exx",  "eyy",  "exy",  "e1",  "e2",  "gamma",  "e_vonmises",  "sigma",  "x",  "y",  "u",  "v"
-700,715,0,0,0,0,0,0,0,0,0,-1,524,309,0,0
-693,715,0,0,0,0,0,0,0,0,0,-1,531,309,0,0
-686,715,0,0,0,0,0,0,0,0,0,-1,538,309,0,0
-679,715,0,0,0,0,0,0,0,0,0,-1,545,309,0,0
-672,715,0,0,0,0,0,0,0,0,0,-1,552,309,0,0
-665,715,0,0,0,0,0,0,0,0,0,-1,559,309,0,0
-658,715,0,0,0,0,0,0,0,0,0,-1,566,309,0,0
-651,715,0,0,0,0,0,0,0,0,0,-1,573,309,0,0
-644,715,0,0,0,0,0,0,0,0,0,-1,580,309,0,0
-637,715,0,0,0,0,0,0,0,0,0,-1,587,309,0,0
-630,715,0,0,0,0,0,0,0,0,0,-1,594,309,0,0
-623,715,0,0,0,0,0,0,0,0,0,-1,601,309,0,0
-616,715,0,0,0,0,0,0,0,0,0,-1,608,309,0,0
-609,715,0,0,0,0,0,0,0,0,0,-1,615,309,0,0
-602,715,0,0,0,0,0,0,0,0,0,-1,622,309,0,0
-595,715,0,0,0,0,0,0,0,0,0,-1,629,309,0,0
-588,715,0,0,0,0,0,0,0,0,0,-1,636,309,0,0
-581,715,0,0,0,0,0,0,0,0,0,-1,643,309,0,0
-574,715,0,0,0,0,0,0,0,0,0,-1,650,309,0,0
-567,715,0,0,0,0,0,0,0,0,0,-1,657,309,0,0
-560,715,0,0,0,0,0,0,0,0,0,-1,664,309,0,0
-553,715,0,0,0,0,0,0,0,0,0,-1,671,309,0,0
-546,715,0,0,0,0,0,0,0,0,0,-1,678,309,0,0
-539,715,0,0,0,0,0,0,0,0,0,-1,685,309,0,0
-532,715,0,0,0,0,0,0,0,0,0,-1,692,309,0,0
-525,715,0,0,0,0,0,0,0,0,0,-1,699,309,0,0
-518,715,0,0,0,0,0,0,0,0,0,-1,706,309,0,0
-511,715,0,0,0,0,0,0,0,0,0,-1,713,309,0,0
-504,715,0,0,0,0,0,0,0,0,0,-1,720,309,0,0
-497,715,0,0,0,0,0,0,0,0,0,-1,727,309,0,0
-490,715,0,0,0,0,0,0,0,0,0,-1,734,309,0,0
-483,715,0,0,0,0,0,0,0,0,0,-1,741,309,0,0
-476,715,0,0,0,0,0,0,0,0,0,-1,748,309,0,0
-469,715,0,0,0,0,0,0,0,0,0,-1,755,309,0,0
-462,715,0,0,0,0,0,0,0,0,0,-1,762,309,0,0
-455,715,0,0,0,0,0,0,0,0,0,-1,769,309,0,0
-448,715,0,0,0,0,0,0,0,0,0,-1,776,309,0,0
-441,715,0,0,0,0,0,0,0,0,0,-1,783,309,0,0
-434,715,0,0,0,0,0,0,0,0,0,-1,790,309,0,0
-427,715,0,0,0,0,0,0,0,0,0,-1,797,309,0,0
-420,715,0,0,0,0,0,0,0,0,0,-1,804,309,0,0
-413,715,0,0,0,0,0,0,0,0,0,-1,811,309,0,0
-406,715,0,0,0,0,0,0,0,0,0,-1,818,309,0,0
-399,715,0,0,0,0,0,0,0,0,0,-1,825,309,0,0
-392,715,0,0,0,0,0,0,0,0,0,-1,832,309,0,0
-385,715,0,0,0,0,0,0,0,0,0,-1,839,309,0,0
-378,715,0,0,0,0,0,0,0,0,0,-1,846,309,0,0
-371,715,0,0,0,0,0,0,0,0,0,-1,853,309,0,0
-364,715,0,0,0,0,0,0,0,0,0,-1,860,309,0,0
-357,715,0,0,0,0,0,0,0,0,0,-1,867,309,0,0
-350,715,0,0,0,0,0,0,0,0,0,-1,874,309,0,0
-343,715,0,0,0,0,0,0,0,0,0,-1,881,309,0,0
-336,715,0,0,0,0,0,0,0,0,0,-1,888,309,0,0
-329,715,0,0,0,0,0,0,0,0,0,-1,895,309,0,0
-322,715,0,0,0,0,0,0,0,0,0,-1,902,309,0,0
-315,715,0,0,0,0,0,0,0,0,0,-1,909,309,0,0
-308,715,0,0,0,0,0,0,0,0,0,-1,916,309,0,0
-301,715,0,0,0,0,0,0,0,0,0,-1,923,309,0,0
-294,715,0,0,0,0,0,0,0,0,0,-1,930,309,0,0
-287,715,0,0,0,0,0,0,0,0,0,-1,937,309,0,0
-280,715,0,0,0,0,0,0,0,0,0,-1,944,309,0,0
-273,715,0,0,0,0,0,0,0,0,0,-1,951,309,0,0
-266,715,0,0,0,0,0,0,0,0,0,-1,958,309,0,0
-259,715,0,0,0,0,0,0,0,0,0,-1,965,309,0,0
-252,715,0,0,0,0,0,0,0,0,0,-1,972,309,0,0
-245,715,0,0,0,0,0,0,0,0,0,-1,979,309,0,0
-238,715,0,0,0,0,0,0,0,0,0,-1,986,309,0,0
-231,715,0,0,0,0,0,0,0,0,0,-1,993,309,0,0
-224,715,0,0,0,0,0,0,0,0,0,-1,1000,309,0,0
-217,715,0,0,0,0,0,0,0,0,0,-1,1007,309,0,0
-210,715,0,0,0,0,0,0,0,0,0,-1,1014,309,0,0
-203,715,0,0,0,0,0,0,0,0,0,-1,1021,309,0,0
-196,715,0,0,0,0,0,0,0,0,0,-1,1028,309,0,0
-189,715,0,0,0,0,0,0,0,0,0,-1,1035,309,0,0
-182,715,0,0,0,0,0,0,0,0,0,-1,1042,309,0,0
-175,715,0,0,0,0,0,0,0,0,0,-1,1049,309,0,0
-168,715,0,0,0,0,0,0,0,0,0,-1,1056,309,0,0
-161,715,0,0,0,0,0,0,0,0,0,-1,1063,309,0,0
-154,715,0,0,0,0,0,0,0,0,0,-1,1070,309,0,0
-147,715,0,0,0,0,0,0,0,0,0,-1,1077,309,0,0
-140,715,0,0,0,0,0,0,0,0,0,-1,1084,309,0,0
-133,715,0,0,0,0,0,0,0,0,0,-1,1091,309,0,0
-126,715,0,0,0,0,0,0,0,0,0,-1,1098,309,0,0
-119,715,0,0,0,0,0,0,0,0,0,-1,1105,309,0,0
-112,715,0,0,0,0,0,0,0,0,0,-1,1112,309,0,0
-105,715,0,0,0,0,0,0,0,0,0,-1,1119,309,0,0
-98,715,0,0,0,0,0,0,0,0,0,-1,1126,309,0,0
-91,715,0,0,0,0,0,0,0,0,0,-1,1133,309,0,0
-84,715,0,0,0,0,0,0,0,0,0,-1,1140,309,0,0
-77,715,0,0,0,0,0,0,0,0,0,-1,1147,309,0,0
-70,715,0,0,0,0,0,0,0,0,0,-1,1154,309,0,0
-63,715,0,0,0,0,0,0,0,0,0,-1,1161,309,0,0
-56,715,0,0,0,0,0,0,0,0,0,-1,1168,309,0,0
-49,715,0,0,0,0,0,0,0,0,0,-1,1175,309,0,0
-42,715,0,0,0,0,0,0,0,0,0,-1,1182,309,0,0
-35,715,0,0,0,0,0,0,0,0,0,-1,1189,309,0,0
-28,715,0,0,0,0,0,0,0,0,0,-1,1196,309,0,0
-21,715,0,0,0,0,0,0,0,0,0,-1,1203,309,0,0
-14,715,0,0,0,0,0,0,0,0,0,-1,1210,309,0,0
-7,715,0,0,0,0,0,0,0,0,0,-1,1217,309,0,0
0,715,0,0,0,0,0,0,0,0,0,-1,1224,309,0,0
7,715,0,0,0,0,0,0,0,0,0,-1,1231,309,0,0
14,715,0,0,0,0,0,0,0,0,0,-1,1238,309,0,0
21,715,0,0,0,0,0,0,0,0,0,-1,1245,309,0,0
28,715,0,0,0,0,0,0,0,0,0,-1,1252,309,0,0
35,715,0,0,0,0,0,0,0,0,0,-1,1259,309,0,0
42,715,0,0,0,0,0,0,0,0,0,-1,1266,309,0,0
49,715,0,0,0,0,0,0,0,0,0,-1,1273,309,0,0
56,715,0,0,0,0,0,0,0,0,0,-1,1280,309,0,0
63,715,8.21533,-54.1193,0.0368676,0.118588,0.0590381,0.149527,0.00592913,1.0881,0.0977682,0.0433572,1287,309,8.21532,54.1193
70,715,8.44543,-54.045,0.0463378,0.116942,0.0519696,0.144466,0.0188142,1.08374,0.0906921,0.0458031,1294,309,8.44547,54.045
77,715,0,0,0,0,0,0,0,0,0,-1,1301,309,0,0
84,715,0,0,0,0,0,0,0,0,0,-1,1308,309,0,0
91,715,0,0,0,0,0,0,0,0,0,-1,1315,309,0,0
98,715,0,0,0,0,0,0,0,0,0,-1,1322,309,0,0
105,715,0,0,0,0,0,0,0,0,0,-1,1329,309,0,0
112,715,0,0,0,0,0,0,0,0,0,-1,1336,309,0,0
119,715,0,0,0,0,0,0,0,0,0,-1,1343,309,0,0
126,715,0,0,0,0,0,0,0,0,0,-1,1350,309,0,0
133,715,0,0,0,0,0,0,0,0,0,-1,1357,309,0,0
140,715,0,0,0,0,0,0,0,0,0,-1,1364,309,0,0
147,715,0,0,0,0,0,0,0,0,0,-1,1371,309,0,0
154,715,0,0,0,0,0,0,0,0,0,-1,1378,309,0,0
161,715,0,0,0,0,0,0,0,0,0,-1,1385,309,0,0
168,715,0,0,0,0,0,0,0,0,0,-1,1392,309,0,0
175,715,0,0,0,0,0,0,0,0,0,-1,1399,309,0,0
182,715,0,0,0,0,0,0,0,0,0,-1,1406,309,0,0
189,715,0,0,0,0,0,0,0,0,0,-1,1413,309,0,0
196,715,0,0,0,0,0,0,0,0,0,-1,1420,309,0,0
203,715,0,0,0,0,0,0,0,0,0,-1,1427,309,0,0
210,715,0,0,0,0,0,0,0,0,0,-1,1434,309,0,0
217,715,0,0,0,0,0,0,0,0,0,-1,1441,309,0,0
224,715,0,0,0,0,0,0,0,0,0,-1,1448,309,0,0
231,715,0,0,0,0,0,0,0,0,0,-1,1455,309,0,0
238,715,0,0,0,0,0,0,0,0,0,-1,1462,309,0,0
245,715,0,0,0,0,0,0,0,0,0,-1,1469,309,0,0
252,715,0,0,0,0,0,0,0,0,0,-1,1476,309,0,0
259,715,0,0,0,0,0,0,0,0,0,-1,1483,309,0,0
266,715,0,0,0,0,0,0,0,0,0,-1,1490,309,0,0
273,715,0,0,0,0,0,0,0,0,0,-1,1497,309,0,0
280,715,0,0,0,0,0,0,0,0,0,-1,1504,309,0,0
287,715,0,0,0,0,0,0,0,0,0,-1,1511,309,0,0
294,715,0,0,0,0,0,0,0,0,0,-1,1518,309,0,0
301,715,0,0,0,0,0,0,0,0,0,-1,1525,309,0,0
308,715,0,0,0,0,0,0,0,0,0,-1,1532,309,0,0
315,715,0,0,0,0,0,0,0,0,0,-1,1539,309,0,0
322,715,0,0,0,0,0,0,0,0,0,-1,1546,309,0,0
329,715,0,0,0,0,0,0,0,0,0,-1,1553,309,0,0
336,715,0,0,0,0,0,0,0,0,0,-1,1560,309,0,0
343,715,0,0,0,0,0,0,0,0,0,-1,1567,309,0,0
350,715,0,0,0,0,0,0,0,0,0,-1,1574,309,0,0
357,715,0,0,0,0,0,0,0,0,0,-1,1581,309,0,0
364,715,0,0,0,0,0,0,0,0,0,-1,1588,309,0,0
371,715,0,0,0,0,0,0,0,0,0,-1,1595,309,0,0
378,715,0,0,0,0,0,0,0,0,0,-1,1602,309,0,0
385,715,0,0,0,0,0,0,0,0,0,-1,1609,309,0,0
392,715,0,0,0,0,0,0,0,0,0,-1,1616,309,0,0
399,715,0,0,0,0,0,0,0,0,0,-1,1623,309,0,0
406,715,0,0,0,0,0,0,0,0,0,-1,1630,309,0,0
413,715,0,0,0,0,0,0,0,0,0,-1,1637,309,0,0
420,715,0,0,0,0,0,0,0,0,0,-1,1644,309,0,0
427,715,0,0,0,0,0,0,0,0,0,-1,1651,309,0,0
434,715,0,0,0,0,0,0,0,0,0,-1,1658,309,0,0
441,715,0,0,0,0,0,0,0,0,0,-1,1665,309,0,0
448,715,0,0,0,0,0,0,0,0,0,-1,1672,309,0,0
455,715,0,0,0,0,0,0,0,0,0,-1,1679,309,0,0
462,715,0,0,0,0,0,0,0,0,0,-1,1686,309,0,0
469,715,0,0,0,0,0,0,0,0,0,-1,1693,309,0,0
476,715,0,0,0,0,0,0,0,0,0,-1,1700,309,0,0
483,715,0,0,0,0,0,0,0,0,0,-1,1707,309,0,0
490,715,0,0,0,0,0,0,0,0,0,-1,1714,309,0,0
497,715,0,0,0,0,0,0,0,0,0,-1,1721,309,0,0
504,715,0,0,0,0,0,0,0,0,0,-1,1728,309,0,0
511,715,0,0,0,0,0,0,0,0,0,-1,1735,309,0,0
518,715,0,0,0,0,0,0,0,0,0,-1,1742,309,0,0
525,715,0,0,0,0,0,0,0,0,0,-1,1749,309,0,0
532,715,0,0,0,0,0,0,0,0,0,-1,1756,309,0,0
539,715,0,0,0,0,0,0,0,0,0,-1,1763,309,0,0
546,715,0,0,0,0,0,0,0,0,0,-1,1770,309,0,0
553,715,0,0,0,0,0,0,0,0,0,-1,1777,309,0,0
560,715,0,0,0,0,0,0,0,0,0,-1,1784,309,0,0
567,715,0,0,0,0,0,0,0,0,0,-1,1791,309,0,0
574,715,0,0,0,0,0,0,0,0,0,-1,1798,309,0,0
581,715,0,0,0,0,0,0,0,0,0,-1,1805,309,0,0
588,715,0,0,0,0,0,0,0,0,0,-1,1812,309,0,0
595,715,0,0,0,0,0,0,0,0,0,-1,1819,309,0,0
602,715,0,0,0,0,0,0,0,0,0,-1,1826,309,0,0
609,715,0,0,0,0,0,0,0,0,0,-1,1833,309,0,0
616,715,0,0,0,0,0,0,0,0,0,-1,1840,309,0,0
623,715,0,0,0,0,0,0,0,0,0,-1,1847,309,0,0
630,715,0,0,0,0,0,0,0,0,0,-1,1854,309,0,0
637,715,0,0,0,0,0,0,0,0,0,-1,1861,309,0,0
644,715,0,0,0,0,0,0,0,0,0,-1,1868,309,0,0
651,715,0,0,0,0,0,0,0,0,0,-1,1875,309,0,0
658,715,0,0,0,0,0,0,0,0,0,-1,1882,309,0,0
665,715,0,0,0,0,0,0,0,0,0,-1,1889,309,0,0
672,715,0,0,0,0,0,0,0,0,0,-1,1896,309,0,0
679,715,0,0,0,0,0,0,0,0,0,-1,1903,309,0,0
686,715,0,0,0,0,0,0,0,0,0,-1,1910,309,0,0
693,715,0,0,0,0,0,0,0,0,0,-1,1917,309,0,0
700,715,0,0,0,0,0,0,0,0,0,-1,1924,309,0,0
707,715,0,0,0,0,0,0,0,0,0,-1,1931,309,0,0
714,715,0,0,0,0,0,0,0,0,0,-1,1938,309,0,0
721,715,0,0,0,0,0,0,0,0,0,-1,1945,309,0,0
728,715,0,0,0,0,0,0,0,0,0,-1,1952,309,0,0
735,715,0,0,0,0,0,0,0,0,0,-1,1959,309,0,0
742,715,0,0,0,0,0,0,0,0,0,-1,1966,309,0,0
749,715,0,0,0,0,0,0,0,0,0,-1,1973,309,0,0
756,715,0,0,0,0,0,0,0,0,0,-1,1980,309,0,0
763,715,0,0,0,0,0,0,0,0,0,-1,1987,309,0,0
770,715,0,0,0,0,0,0,0,0,0,-1,1994,309,0,0
777,715,0,0,0,0,0,0,0,0,0,-1,2001,309,0,0
784,715,0,0,0,0,0,0,0,0,0,-1,2008,309,0,0
791,715,0,0,0,0,0,0,0,0,0,-1,2015,309,0,0
798,715,0,0,0,0,0,0,0,0,0,-1,2022,309,0,0
805,715,0,0,0,0,0,0,0,0,0,-1,2029,309,0,0
812,715,0,0,0,0,0,0,0,0,0,-1,2036,309,0,0
-700,708,0,0,0,0,0,0,0,0,0,-1,524,316,0,0
-693,708,0,0,0,0,0,0,0,0,0,-1,531,316,0,0
-686,708,0,0,0,0,0,0,0,0,0,-1,538,316,0,0
-679,708,0,0,0,0,0,0,0,0,0,-1,545,316,0,0
-672,708,0,0,0,0,0,0,0,0,0,-1,552,316,0,0
-665,708,0,0,0,0,0,0,0,0,0,-1,559,316,0,0
-658,708,0,0,0,0,0,0,0,0,0,-1,566,316,0,0
-651,708,0,0,0,0,0,0,0,0,0,-1,573,316,0,0
-644,708,0,0,0,0,0,0,0,0,0,-1,580,316,0,0
-637,708,0,0,0,0,0,0,0,0,0,-1,587,316,0,0
-630,708,0,0,0,0,0,0,0,0,0,-1,594,316,0,0
-623,708,0,0,0,0,0,0,0,0,0,-1,601,316,0,0
-616,708,0,0,0,0,0,0,0,0,0,-1,608,316,0,0
-609,708,0,0,0,0,0,0,0,0,0,-1,615,316,0,0
-602,708,0,0,0,0,0,0,0,0,0,-1,622,316,0,0
-595,708,0,0,0,0,0,0,0,0,0,-1,629,316,0,0
-588,708,0,0,0,0,0,0,0,0,0,-1,636,316,0,0
-581,708,0,0,0,0,0,0,0,0,0,-1,643,316,0,0
-574,708,0,0,0,0,0,0,0,0,0,-1,650,316,0,0
-567,708,0,0,0,0,0,0,0,0,0,-1,657,316,0,0
-560,708,0,0,0,0,0,0,0,0,0,-1,664,316,0,0
-553,708,0,0,0,0,0,0,0,0,0,-1,671,316,0,0
-546,708,0,0,0,0,0,0,0,0,0,-1,678,316,0,0
-539,708,0,0,0,0,0,0,0,0,0,-1,685,316,0,0
-532,708,0,0,0,0,0,0,0,0,0,-1,692,316,0,0
-525,708,0,0,0,0,0,0,0,0,0,-1,699,316,0,0
-518,708,0,0,0,0,0,0,0,0,0,-1,706,316,0,0
-511,708,0,0,0,0,0,0,0,0,0,-1,713,316,0,0
-504,708,0,0,0,0,0,0,0,0,0,-1,720,316,0,0
-497,708,0,0,0,0,0,0,0,0,0,-1,727,316,0,0
-490,708,0,0,0,0,0,0,0,0,0,-1,734,316,0,0
-483,708,0,0,0,0,0,0,0,0,0,-1,741,316,0,0
-476,708,0,0,0,0,0,0,0,0,0,-1,748,316,0,0
-469,708,0,0,0,0,0,0,0,0,0,-1,755,316,0,0
-462,708,0,0,0,0,0,0,0,0,0,-1,762,316,0,0
-455,708,0,0,0,0,0,0,0,0,0,-1,769,316,0,0
-448,708,0,0,0,0,0,0,0,0,0,-1,776,316,0,0
-441,708,0,0,0,0,0,0,0,0,0,-1,783,316,0,0
-434,708,0,0,0,0,0,0,0,0,0,-1,790,316,0,0
-427,708,0,0,0,0,0,0,0,0,0,-1,797,316,0,0
-420,708,0,0,0,0,0,0,0,0,0,-1,804,316,0,0
-413,708,0,0,0,0,0,0,0,0,0,-1,811,316,0,0
-406,708,0,0,0,0,0,0,0,0,0,-1,818,316,0,0
-399,708,0,0,0,0,0,0,0,0,0,-1,825,316,0,0
-392,708,0,0,0,0,0,0,0,0,0,-1,832,316,0,0
-385,708,0,0,0,0,0,0,0,0,0,-1,839,316,0,0
-378,708,0,0,0,0,0,0,0,0,0,-1,846,316,0,0
-371,708,0,0,0,0,0,0,0,0,0,-1,853,316,0,0
-364,708,0,0,0,0,0,0,0,0,0,-1,860,316,0,0
-357,708,0,0,0,0,0,0,0,0,0,-1,867,316,0,0
-350,708,0,0,0,0,0,0,0,0,0,-1,874,316,0,0
-343,708,0,0,0,0,0,0,0,0,0,-1,881,316,0,0
-336,708,0,0,0,0,0,0,0,0,0,-1,888,316,0,0
-329,708,0,0,0,0,0,0,0,0,0,-1,895,316,0,0
-322,708,0,0,0,0,0,0,0,0,0,-1,902,316,0,0
-315,708,0,0,0,0,0,0,0,0,0,-1,909,316,0,0
-308,708,0,0,0,0,0,0,0,0,0,-1,916,316,0,0
-301,708,0,0,0,0,0,0,0,0,0,-1,923,316,0,0
-294,708,0,0,0,0,0,0,0,0,0,-1,930,316,0,0
-287,708,0,0,0,0,0,0,0,0,0,-1,937,316,0,0
-280,708,0,0,0,0,0,0,0,0,0,-1,944,316,0,0
-273,708,0,0,0,0,0,0,0,0,0,-1,951,316,0,0
-266,708,0,0,0,0,0,0,0,0,0,-1,958,316,0,0
-259,708,0,0,0,0,0,0,0,0,0,-1,965,316,0,0
-252,708,0,0,0,0,0,0,0,0,0,-1,972,316,0,0
-245,708,0,0,0,0,0,0,0,0,0,-1,979,316,0,0
-238,708,0,0,0,0,0,0,0,0,0,-1,986,316,0,0
-231,708,0,0,0,0,0,0,0,0,0,-1,993,316,0,0
-224,708,0,0,0,0,0,0,0,0,0,-1,1000,316,0,0
-217,708,0,0,0,0,0,0,0,0,0,-1,1007,316,0,0
-210,708,0,0,0,0,0,0,0,0,0,-1,1014,316,0,0
-203,708,0,0,0,0,0,0,0,0,0,-1,1021,316,0,0
-196,708,0,0,0,0,0,0,0,0,0,-1,1028,316,0,0
-189,708,0,0,0,0,0,0,0,0,0,-1,1035,316,0,0
-182,708,0,0,0,0,0,0,0,0,0,-1,1042,316,0,0
-175,708,0,0,0,0,0,0,0,0,0,-1,1049,316,0,0
-168,708,0,0,0,0,0,0,0,0,0,-1,1056,316,0,0
-161,708,0,0,0,0,0,0,0,0,0,-1,1063,316,0,0
-154,708,0,0,0,0,0,0,0,0,0,-1,1070,316,0,0
-147,708,0,0,0,0,0,0,0,0,0,-1,1077,316,0,0
-140,708,0,0,0,0,0,0,0,0,0,-1,1084,316,0,0
-133,708,0,0,0,0,0,0,0,0,0,-1,1091,316,0,0
-126,708,0,0,0,0,0,0,0,0,0,-1,1098,316,0,0
-119,708,0,0,0,0,0,0,0,0,0,-1,1105,316,0,0
-112,708,0,0,0,0,0,0,0,0,0,-1,1112,316,0,0
-105,708,0,0,0,0,0,0,0,0,0,-1,1119,316,0,0
-98,708,0,0,0,0,0,0,0,0,0,-1,1126,316,0,0
-91,708,0,0,0,0,0,0,0,0,0,-1,1133,316,0,0
-84,708,0,0,0,0,0,0,0,0,0,-1,1140,316,0,0
-77,708,0,0,0,0,0,0,0,0,0,-1,1147,316,0,0
-70,708,0,0,0,0,0,0,0,0,0,-1,1154,316,0,0
-63,708,0,0,0,0,0,0,0,0,0,-1,1161,316,0,0
-56,708,0,0,0,0,0,0,0,0,0,-1,1168,316,0,0
-49,708,0,0,0,0,0,0,0,0,0,-1,1175,316,0,0
-42,708,0,0,0,0,0,0,0,0,0,-1,1182,316,0,0
-35,708,-2.71204,-6.31558,0,0,0,0,0,0,0,-1,1189,316,-2.712,6.3156
-28,708,-2.92371,-5.53253,0,0,0,0,0,0,0,-1,1196,316,-2.92375,5.53254
-21,708,-0.417969,-24.5911,0,0,0,0,0,0,0,-1,1203,316,-0.418022,24.5911
-14,708,9.65771,-57.0417,0,0,0,0,0,0,0,-1,1210,316,9.65766,57.0417
-7,708,10.1088,-56.4328,0,0,0,0,0,0,0,-1,1217,316,10.1088,56.4328
0,708,11.4828,-58.247,0,0,0,0,0,0,0,-1,1224,316,11.4828,58.247
7,708,11.0122,-56.9639,0,0,0,0,0,0,0,-1,1231,316,11.0122,56.9639
14,708,10.4865,-55.6297,0,0,0,0,0,0,0,-1,1238,316,10.4865,55.6297
21,708,9.10168,-54.5925,0,0,0,0,0,0,0,-1,1245,316,9.1017,54.5925
28,708,9.05432,-54.2419,0,0,0,0,0,0,0,-1,1252,316,9.05432,54.2419
35,708,8.9176,-56.6208,0,0,0,0,0,0,0,-1,1259,316,8.91759,56.6208
42,708,8.6377,-56.1953,0,0,0,0,0,0,0,-1,1266,316,8.63769,56.1953
49,708,8.44287,-55.742,0.00630394,0.12923,0.0662496,0.158137,-0.022603,1.15937,0.11371,0.0413059,1273,316,8.44285,55.742
56,708,8.09424,-55.2561,0.0202181,0.126743,0.0572137,0.151649,-0.00468784,1.16022,0.102698,0.0408752,1280,316,8.09422,55.2561
63,708,7.84387,-55.0197,0.0320696,0.122886,0.0488735,0.14419,0.0107655,1.15973,0.0927465,0.0419045,1287,316,7.84387,55.0197
70,708,8.13171,-54.8302,0.0391233,0.120737,0.0432722,0.139408,0.0204516,1.16344,0.0869274,0.0418766,1294,316,8.13176,54.8302
77,708,8.90979,-55.1031,0.0400257,0.118508,0.0403246,0.135533,0.0230001,1.17129,0.0837483,0.0414532,1301,316,8.90974,55.1031
84,708,9.59192,-55.5639,0.0358841,0.116515,0.0377021,0.131397,0.0210019,1.19484,0.0815047,0.0431628,1308,316,9.59193,55.5639
91,708,10.1985,-55.8324,0.0305417,0.113644,0.034662,0.126203,0.0179823,1.22317,0.078828,0.0478154,1315,316,10.1985,55.8324
98,708,9.82068,-54.426,0.0233939,0.111077,0.0310689,0.12097,0.0135013,1.26254,0.0765439,0.0483104,1322,316,9.82066,54.426
105,708,10.0804,-54.5103,0,0,0,0,0,0,0,-1,1329,316,10.0804,54.5103
112,708,10.3992,-54.5452,0,0,0,0,0,0,0,-1,1336,316,10.3992,54.5452
119,708,2.64331,-56.3386,-0.0028891,0.107447,0.0186584,0.110517,-0.00595892,1.40773,0.0757423,0.0414849,1343,316,2.64329,56.3386
126,708,2.5376,-56.4522,-0.0133255,0.109018,0.0150096,0.110833,-0.01514,1.45049,0.0794176,0.0449994,1350,316,2.5376,56.4523
133,708,2.43091,-56.5326,-0.0220547,0.117526,0.0125945,0.118654,-0.023182,1.48153,0.0878553,0.0472806,1357,316,2.43096,56.5326
140,708,2.27563,-56.9321,0,0,0,0,0,0,0,-1,1364,316,2.27566,56.9321
147,708,3.29382,-55.7296,0,0,0,0,0,0,0,-1,1371,316,3.29387,55.7296
154,708,0,0,0,0,0,0,0,0,0,-1,1378,316,0,0
161,708,0,0,0,0,0,0,0,0,0,-1,1385,316,0,0
168,708,0,0,0,0,0,0,0,0,0,-1,1392,316,0,0
175,708,0,0,0,0,0,0,0,0,0,-1,1399,316,0,0
182,708,0,0,0,0,0,0,0,0,0,-1,1406,316,0,0
189,708,0,0,0,0,0,0,0,0,0,-1,1413,316,0,0
196,708,0,0,0,0,0,0,0,0,0,-1,1420,316,0,0
203,708,0,0,0,0,0,0,0,0,0,-1,1427,316,0,0
210,708,0,0,0,0,0,0,0,0,0,-1,1434,316,0,0
217,708,0,0,0,0,0,0,0,0,0,-1,1441,316,0,0
224,708,0,0,0,0,0,0,0,0,0,-1,1448,316,0,0
231,708,0,0,0,0,0,0,0,0,0,-1,1455,316,0,0
238,708,0,0,0,0,0,0,0,0,0,-1,1462,316,0,0
245,708,0,0,0,0,0,0,0,0,0,-1,1469,316,0,0
252,708,0,0,0,0,0,0,0,0,0,-1,1476,316,0,0
259,708,0,0,0,0,0,0,0,0,0,-1,1483,316,0,0
266,708,0,0,0,0,0,0,0,0,0,-1,1490,316,0,0
273,708,0,0,0,0,0,0,0,0,0,-1,1497,316,0,0
280,708,0,0,0,0,0,0,0,0,0,-1,1504,316,0,0
287,708,0,0,0,0,0,0,0,0,0,-1,1511,316,0,0
294,708,0,0,0,0,0,0,0,0,0,-1,1518,316,0,0
301,708,0,0,0,0,0,0,0,0,0,-1,1525,316,0,0
308,708,0,0,0,0,0,0,0,0,0,-1,1532,316,0,0
315,708,0,0,0,0,0,0,0,0,0,-1,1539,316,0,0
322,708,0,0,0,0,0,0,0,0,0,-1,1546,316,0,0
329,708,0,0,0,0,0,0,0,0,0,-1,1553,316,0,0
336,708,0,0,0,0,0,0,0,0,0,-1,1560,316,0,0
343,708,0,0,0,0,0,0,0,0,0,-1,1567,316,0,0
350,708,0,0,0,0,0,0,0,0,0,-1,1574,316,0,0
357,708,0,0,0,0,0,0,0,0,0,-1,1581,316,0,0
364,708,0,0,0,0,0,0,0,0,0,-1,1588,316,0,0
371,708,0,0,0,0,0,0,0,0,0,-1,1595,316,0,0
378,708,0,0,0,0,0,0,0,0,0,-1,1602,316,0,0
385,708,0,0,0,0,0,0,0,0,0,-1,1609,316,0,0
392,708,0,0,0,0,0,0,0,0,0,-1,1616,316,0,0
399,708,0,0,0,0,0,0,0,0,0,-1,1623,316,0,0
406,708,0,0,0,0,0,0,0,0,0,-1,1630,316,0,0
413,708,0,0,0,0,0,0,0,0,0,-1,1637,316,0,0
420,708,0,0,0,0,0,0,0,0,0,-1,1644,316,0,0
427,708,0,0,0,0,0,0,0,0,0,-1,1651,316,0,0
434,708,0,0,0,0,0,0,0,0,0,-1,1658,316,0,0
441,708,0,0,0,0,0,0,0,0,0,-1,1665,316,0,0
448,708,0,0,0,0,0,0,0,0,0,-1,1672,316,0,0
455,708,0,0,0,0,0,0,0,0,0,-1,1679,316,0,0
462,708,0,0,0,0,0,0,0,0,0,-1,1686,316,0,0
469,708,0,0,0,0,0,0,0,0,0,-1,1693,316,0,0
476,708,0,0,0,0,0,0,0,0,0,-1,1700,316,0,0
483,708,0,0,0,0,0,0,0,0,0,-1,1707,316,0,0
490,708,0,0,0,0,0,0,0,0,0,-1,1714,316,0,0
497,708,0,0,0,0,0,0,0,0,0,-1,1721,316,0,0
504,708,0,0,0,0,0,0,0,0,0,-1,1728,316,0,0
511,708,0,0,0,0,0,0,0,0,0,-1,1735,316,0,0
518,708,0,0,0,0,0,0,0,0,0,-1,1742,316,0,0
525,708,0,0,0,0,0,0,0,0,0,-1,1749,316,0,0
532,708,0,0,0,0,0,0,0,0,0,-1,1756,316,0,0
539,708,0,0,0,0,0,0,0,0,0,-1,1763,316,0,0
546,708,0,0,0,0,0,0,0,0,0,-1,1770,316,0,0
553,708,0,0,0,0,0,0,0,0,0,-1,1777,316,0,0
560,708,0,0,0,0,0,0,0,0,0,-1,1784,316,0,0
567,708,0,0,0,0,0,0,0,0,0,-1,1791,316,0,0
574,708,0,0,0,0,0,0,0,0,0,-1,1798,316,0,0
581,708,0,0,0,0,0,0,0,0,0,-1,1805,316,0,0
588,708,0,0,0,0,0,0,0,0,0,-1,1812,316,0,0
595,708,0,0,0,0,0,0,0,0,0,-1,1819,316,0,0
602,708,0,0,0,0,0,0,0,0,0,-1,1826,316,0,0
609,708,0,0,0,0,0,0,0,0,0,-1,1833,316,0,0
616,708,0,0,0,0,0,0,0,0,0,-1,1840,316,0,0
623,708,0,0,0,0,0,0,0,0,0,-1,1847,316,0,0
630,708,0,0,0,0,0,0,0,0,0,-1,1854,316,0,0
637,708,0,0,0,0,0,0,0,0,0,-1,1861,316,0,0
644,708,0,0,0,0,0,0,0,0,0,-1,1868,316,0,0
651,708,0,0,0,0,0,0,0,0,0,-1,1875,316,0,0
658,708,0,0,0,0,0,0,0,0,0,-1,1882,316,0,0
665,708,0,0,0,0,0,0,0,0,0,-1,1889,316,0,0
672,708,0,0,0,0,0,0,0,0,0,-1,1896,316,0,0
679,708,0,0,0,0,0,0,0,0,0,-1,1903,316,0,0
686,708,0,0,0,0,0,0,0,0,0,-1,1910,316,0,0
693,708,0,0,0,0,0,0,0,0,0,-1,1917,316,0,0
700,708,0,0,0,0,0,0,0,0,0,-1,1924,316,0,0
707,708,0,0,0,0,0,0,0,0,0,-1,1931,316,0,0
714,708,0,0,0,0,0,0,0,0,0,-1,1938,316,0,0
721,708,0,0,0,0,0,0,0,0,0,-1,1945,316,0,0
728,708,0,0,0,0,0,0,0,0,0,-1,1952,316,0,0
735,708,0,0,0,0,0,0,0,0,0,-1,1959,316,0,0
742,708,0,0,0,0,0,0,0,0,0,-1,1966,316,0,0
749,708,0,0,0,0,0,0,0,0,0,-1,1973,316,0,0
756,708,0,0,0,0,0,0,0,0,0,-1,1980,316,0,0
763,708,0,0,0,0,0,0,0,0,0,-1,1987,316,0,0
770,708,0,0,0,0,0,0,0,0,0,-1,1994,316,0,0
777,708,0,0,0,0,0,0,0,0,0,-1,2001,316,0,0
784,708,0,0,0,0,0,0,0,0,0,-1,2008,316,0,0
791,708,0,0,0,0,0,0,0,0,0,-1,2015,316,0,0
798,708,0,0,0,0,0,0,0,0,0,-1,2022,316,0,0
805,708,0,0,0,0,0,0,0,0,0,-1,2029,316,0,0
812,708,0,0,0,0,0,0,0,0,0,-1,2036,316,0,0
-700,701,0,0,0,0,0,0,0,0,0,-1,524,323,0,0
-693,701,0,0,0,0,0,0,0,0,0,-1,531,323,0,0
-686,701,0,0,0,0,0,0,0,0,0,-1,538,323,0,0
-679,701,0,0,0,0,0,0,0,0,0,-1,545,323,0,0
-672,701,0,0,0,0,0,0,0,0,0,-1,552,323,0,0
-665,701,0,0,0,0,0,0,0,0,0,-1,559,323,0,0
-658,701,0,0,0,0,0,0,0,0,0,-1,566,323,0,0
-651,701,0,0,0,0,0,0,0,0,0,-1,573,323,0,0
-644,701,0,0,0,0,0,0,0,0,0,-1,580,323,0,0
-637,701,0,0,0,0,0,0,0,0,0,-1,587,323,0,0
-630,701,0,0,0,0,0,0,0,0,0,-1,594,323,0,0
-623,701,0,0,0,0,0,0,0,0,0,-1,601,323,0,0
-616,701,0,0,0,0,0,0,0,0,0,-1,608,323,0,0
-609,701,0,0,0,0,0,0,0,0,0,-1,615,323,0,0
-602,701,0,0,0,0,0,0,0,0,0,-1,622,323,0,0
-595,701,0,0,0,0,0,0,0,0,0,-1,629,323,0,0
-588,701,0,0,0,0,0,0,0,0,0,-1,636,323,0,0
-581,701,0,0,0,0,0,0,0,0,0,-1,643,323,0,0
-574,701,0,0,0,0,0,0,0,0,0,-1,650,323,0,0
-567,701,0,0,0,0,0,0,0,0,0,-1,657,323,0,0
-560,701,0,0,0,0,0,0,0,0,0,-1,664,323,0,0
-553,701,0,0,0,0,0,0,0,0,0,-1,671,323,0,0
-546,701,0,0,0,0,0,0,0,0,0,-1,678,323,0,0
-539,701,0,0,0,0,0,0,0,0,0,-1,685,323,0,0
-532,701,0,0,0,0,0,0,0,0,0,-1,692,323,0,0
-525,701,0,0,0,0,0,0,0,0,0,-1,699,323,0,0
-518,701,0,0,0,0,0,0,0,0,0,-1,706,323,0,0
-511,701,0,0,0,0,0,0,0,0,0,-1,713,323,0,0
-504,701,0,0,0,0,0,0,0,0,0,-1,720,323,0,0
-497,701,0,0,0,0,0,0,0,0,0,-1,727,323,0,0
-490,701,0,0,0,0,0,0,0,0,0,-1,734,323,0,0
-483,701,0,0,0,0,0,0,0,0,0,-1,741,323,0,0
-476,701,0,0,0,0,0,0,0,0,0,-1,748,323,0,0
-469,701,0,0,0,0,0,0,0,0,0,-1,755,323,0,0
-462,701,0,0,0,0,0,0,0,0,0,-1,762,323,0,0
-455,701,0,0,0,0,0,0,0,0,0,-1,769,323,0,0
-448,701,0,0,0,0,0,0,0,0,0,-1,776,323,0,0
-441,701,0,0,0,0,0,0,0,0,0,-1,783,323,0,0
-434,701,0,0,0,0,0,0,0,0,0,-1,790,323,0,0
-427,701,0,0,0,0,0,0,0,0,0,-1,797,323,0,0
-420,701,0,0,0,0,0,0,0,0,0,-1,804,323,0,0
-413,701,0,0,0,0,0,0,0,0,0,-1,811,323,0,0
-406,701,0,0,0,0,0,0,0,0,0,-1,818,323,0,0
-399,701,0,0,0,0,0,0,0,0,0,-1,825,323,0,0
-392,701,0,0,0,0,0,0,0,0,0,-1,832,323,0,0
-385,701,0,0,0,0,0,0,0,0,0,-1,839,323,0,0
-378,701,0,0,0,0,0,0,0,0,0,-1,846,323,0,0
-371,701,0,0,0,0,0,0,0,0,0,-1,853,323,0,0
-364,701,0,0,0,0,0,0,0,0,0,-1,860,323,0,0
-357,701,0,0,0,0,0,0,0,0,0,-1,867,323,0,0
-350,701,0,0,0,0,0,0,0,0,0,-1,874,323,0,0
-343,701,0,0,0,0,0,0,0,0,0,-1,881,323,0,0
-336,701,0,0,0,0,0,0,0,0,0,-1,888,323,0,0
-329,701,0,0,0,0,0,0,0,0,0,-1,895,323,0,0
-322,701,0,0,0,0,0,0,0,0,0,-1,902,323,0,0
-315,701,0,0,0,0,0,0,0,0,0,-1,909,323,0,0
-308,701,0,0,0,0,0,0,0,0,0,-1,916,323,0,0
-301,701,0,0,0,0,0,0,0,0,0,-1,923,323,0,0
-294,701,0,0,0,0,0,0,0,0,0,-1,930,323,0,0
-287,701,0,0,0,0,0,0,0,0,0,-1,937,323,0,0
-280,701,0,0,0,0,0,0,0,0,0,-1,944,323,0,0
-273,701,0,0,0,0,0,0,0,0,0,-1,951,323,0,0
-266,701,0,0,0,0,0,0,0,0,0,-1,958,323,0,0
-259,701,0,0,0,0,0,0,0,0,0,-1,965,323,0,0
-252,701,0,0,0,0,0,0,0,0,0,-1,972,323,0,0
-245,701,0,0,0,0,0,0,0,0,0,-1,979,323,0,0
-238,701,0,0,0,0,0,0,0,0,0,-1,986,323,0,0
-231,701,0,0,0,0,0,0,0,0,0,-1,993,323,0,0
-224,701,0,0,0,0,0,0,0,0,0,-1,1000,323,0,0
-217,701,0,0,0,0,0,0,0,0,0,-1,1007,323,0,0
-210,701,0,0,0,0,0,0,0,0,0,-1,1014,323,0,0
-203,701,0,0,0,0,0,0,0,0,0,-1,1021,323,0,0
-196,701,0,0,0,0,0,0,0,0,0,-1,1028,323,0,0
-189,701,0,0,0,0,0,0,0,0,0,-1,1035,323,0,0
-182,701,0,0,0,0,0,0,0,0,0,-1,1042,323,0,0
-175,701,0,0,0,0,0,0,0,0,0,-1,1049,323,0,0
-168,701,0,0,0,0,0,0,0,0,0,-1,1056,323,0,0
-161,701,0,0,0,0,0,0,0,0,0,-1,1063,323,0,0
-154,701,0,0,0,0,0,0,0,0,0,-1,1070,323,0,0
-147,701,0,0,0,0,0,0,0,0,0,-1,1077,323,0,0
-140,701,0,0,0,0,0,0,0,0,0,-1,1084,323,0,0
-133,701,0,0,0,0,0,0,0,0,0,-1,1091,323,0,0
-126,701,0,0,0,0,0,0,0,0,0,-1,1098,323,0,0
-119,701,0,0,0,0,0,0,0,0,0,-1,1105,323,0,0
-112,701,0,0,0,0,0,0,0,0,0,-1,1112,323,0,0
-105,701,0,0,0,0,0,0,0,0,0,-1,1119,323,0,0
-98,701,0,0,0,0,0,0,0,0,0,-1,1126,323,0,0
-91,701,0,0,0,0,0,0,0,0,0,-1,1133,323,0,0
-84,701,0,0,0,0,0,0,0,0,0,-1,1140,323,0,0
-77,701,0,0,0,0,0,0,0,0,0,-1,1147,323,0,0
-70,701,-12.7566,-30.413,0,0,0,0,0,0,0,-1,1154,323,-12.7566,30.413
-63,701,-18.3169,-21.2322,0,0,0,0,0,0,0,-1,1161,323,-18.3169,21.2322
-56,701,-0.420166,-0.101776,0,0,0,0,0,0,0,-1,1168,323,-0.420119,0.101777
-49,701,-1.09021,-0.155762,0,0,0,0,0,0,0,-1,1175,323,-1.09024,0.155768
-42,701,-0.210327,-0.299133,0,0,0,0,0,0,0,-1,1182,323,-0.210379,0.29914
-35,701,-2.9635,-7.98676,0,0,0,0,0,0,0,-1,1189,323,-2.9635,7.98676
-28,701,-6.64417,-5.4917,0,0,0,0,0,0,0,-1,1196,323,-6.64411,5.4917
-21,701,8.80872,-58.7184,0,0,0,0,0,0,0,-1,1203,323,8.80876,58.7184
-14,701,9.06299,-57.9953,0,0,0,0,0,0,0,-1,1210,323,9.06297,57.9953
-7,701,9.30737,-57.231,0,0,0,0,0,0,0,-1,1217,323,9.30741,57.231
0,701,11.3474,-59.4254,0,0,0,0,0,0,0,-1,1224,323,11.3474,59.4254
7,701,10.5741,-58.1558,-0.0759671,0.163919,0.118847,0.212828,-0.124876,1.18039,0.197165,0.0460195,1231,323,10.5741,58.1558
14,701,10.0363,-56.8732,-0.0632479,0.1541,0.105623,0.196973,-0.10612,1.18521,0.177592,0.0491304,1238,323,10.0362,56.8732
21,701,9.13672,-56.4286,0,0,0,0,0,0,0,-1,1245,323,9.13668,56.4286
28,701,9.40698,-55.5733,0,0,0,0,0,0,0,-1,1252,323,9.40697,55.5733
35,701,7.6991,-54.4843,0,0,0,0,0,0,0,-1,1259,323,7.69915,54.4842
42,701,6.88318,-55.0966,0,0,0,0,0,0,0,-1,1266,323,6.88322,55.0966
49,701,6.9635,-55.3104,0.00463934,0.123212,0.0530467,0.143479,-0.0156283,1.20584,0.101265,0.0477095,1273,323,6.96346,55.3104
56,701,7.03809,-55.5131,0.0162398,0.121383,0.0463513,0.138899,-0.00127573,1.2095,0.0930275,0.0437332,1280,323,7.0381,55.5131
63,701,7.53381,-55.9539,0.0259063,0.11822,0.040013,0.133149,0.0109772,1.21369,0.0853428,0.0429028,1287,323,7.53387,55.9539
70,701,7.97546,-56.0385,0.0313541,0.115746,0.0357207,0.128835,0.0182647,1.21955,0.0804956,0.0424859,1294,323,7.97548,56.0385
77,701,8.37122,-55.9151,0.0318042,0.112778,0.0331906,0.124644,0.0199384,1.22745,0.0773116,0.0449551,1301,323,8.37117,55.9151
84,701,8.81689,-55.789,0.0279877,0.110519,0.0304517,0.120538,0.0179682,1.25293,0.0750895,0.0465615,1308,323,8.81692,55.789
91,701,9.27466,-55.6394,0.0233709,0.10712,0.0275318,0.11536,0.0151308,1.27999,0.0723922,0.047254,1315,323,9.27467,55.6394
98,701,9.68567,-55.5447,0.0177295,0.104464,0.0242422,0.11078,0.0114138,1.31594,0.0703581,0.0472371,1322,323,9.68564,55.5447
105,701,10.0398,-55.4878,0,0,0,0,0,0,0,-1,1329,323,10.0398,55.4878
112,701,2.56592,-56.8278,0.00536224,0.101916,0.0165638,0.104679,0.00259975,1.40554,0.0689356,0.0423272,1336,323,2.56591,56.8278
119,701,2.35925,-56.9063,-0.00213883,0.100568,0.0131827,0.102233,-0.00380387,1.44516,0.0694582,0.0412977,1343,323,2.3593,56.9063
126,701,2.01904,-57.0988,-0.00969559,0.101373,0.00992803,0.102254,-0.010576,1.48234,0.071954,0.0475868,1350,323,2.01908,57.0988
133,701,1.67908,-57.123,-0.0157634,0.106838,0.00758923,0.107306,-0.0162314,1.50921,0.0775162,0.0494888,1357,323,1.67912,57.1229
140,701,1.35352,-57.1248,0,0,0,0,0,0,0,-1,1364,323,1.35351,57.1248
147,701,2.37073,-56.4018,0,0,0,0,0,0,0,-1,1371,323,2.37068,56.4018
154,701,2.54285,-56.0464,0,0,0,0,0,0,0,-1,1378,323,2.5429,56.0464
161,701,-0.704102,-37.5125,0,0,0,0,0,0,0,-1,1385,323,-0.704147,37.5126
168,701,30.7272,1.76184,0,0,0,0,0,0,0,-1,1392,323,30.7272,-1.76184
175,701,31.5035,2.25711,0,0,0,0,0,0,0,-1,1399,323,31.5036,-2.25712
182,701,8.80652,5.42807,0,0,0,0,0,0,0,-1,1406,323,8.8065,-5.42808
189,701,8.58081,4.24493,0,0,0,0,0,0,0,-1,1413,323,8.58082,-4.24494
196,701,0,0,0,0,0,0,0,0,0,-1,1420,323,0,0
203,701,0,0,0,0,0,0,0,0,0,-1,1427,323,0,0
210,701,0,0,0,0,0,0,0,0,0,-1,1434,323,0,0
217,701,0,0,0,0,0,0,0,0,0,-1,1441,323,0,0
224,701,0,0,0,0,0,0,0,0,0,-1,1448,323,0,0
231,701,0,0,0,0,0,0,0,0,0,-1,1455,323,0,0
238,701,0,0,0,0,0,0,0,0,0,-1,1462,323,0,0
245,701,0,0,0,0,0,0,0,0,0,-1,1469,323,0,0
252,701,0,0,0,0,0,0,0,0,0,-1,1476,323,0,0
259,701,0,0,0,0,0,0,0,0,0,-1,1483,323,0,0
266,701,0,0,0,0,0,0,0,0,0,-1,1490,323,0,0
273,701,0,0,0,0,0,0,0,0,0,-1,1497,323,0,0
280,701,0,0,0,0,0,0,0,0,0,-1,1504,323,0,0
287,701,0,0,0,0,0,0,0,0,0,-1,1511,323,0,0
294,701,0,0,0,0,0,0,0,0,0,-1,1518,323,0,0
301,701,0,0,0,0,0,0,0,0,0,-1,1525,323,0,0
308,701,0,0,0,0,0,0,0,0,0,-1,1532,323,0,0
315,701,0,0,0,0,0,0,0,0,0,-1,1539,323,0,0
322,701,0,0,0,0,0,0,0,0,0,-1,1546,323,0,0
329,701,0,0,0,0,0,0,0,0,0,-1,1553,323,0,0
336,701,0,0,0,0,0,0,0,0,0,-1,1560,323,0,0
343,701,0,0,0,0,0,0,0,0,0,-1,1567,323,0,0
350,701,0,0,0,0,0,0,0,0,0,-1,1574,323,0,0
357,701,0,0,0,0,0,0,0,0,0,-1,1581,323,0,0
364,701,0,0,0,0,0,0,0,0,0,-1,1588,323,0,0
371,701,0,0,0,0,0,0,0,0,0,-1,1595,323,0,0
378,701,0,0,0,0,0,0,0,0,0,-1,1602,323,0,0
385,701,0,0,0,0,0,0,0,0,0,-1,1609,323,0,0
392,701,0,0,0,0,0,0,0,0,0,-1,1616,323,0,0
399,701,0,0,0,0,0,0,0,0,0,-1,1623,323,0,0
406,701,0,0,0,0,0,0,0,0,0,-1,1630,323,0,0
413,701,0,0,0,0,0,0,0,0,0,-1,1637,323,0,0
420,701,0,0,0,0,0,0,0,0,0,-1,1644,323,0,0
427,701,0,0,0,0,0,0,0,0,0,-1,1651,323,0,0
434,701,0,0,0,0,0,0,0,0,0,-1,1658,323,0,0
441,701,0,0,0,0,0,0,0,0,0,-1,1665,323,0,0
448,701,0,0,0,0,0,0,0,0,0,-1,1672,323,0,0
455,701,0,0,0,0,0,0,0,0,0,-1,1679,323,0,0
462,701,0,0,0,0,0,0,0,0,0,-1,1686,323,0,0
469,701,0,0,0,0,0,0,0,0,0,-1,1693,323,0,0
476,701,0,0,0,0,0,0,0,0,0,-1,1700,323,0,0
483,701,0,0,0,0,0,0,0,0,0,-1,1707,323,0,0
490,701,0,0,0,0,0,0,0,0,0,-1,1714,323,0,0
497,701,0,0,0,0,0,0,0,0,0,-1,1721,323,0,0
504,701,0,0,0,0,0,0,0,0,0,-1,1728,323,0,0
511,701,0,0,0,0,0,0,0,0,0,-1,1735,323,0,0
518,701,0,0,0,0,0,0,0,0,0,-1,1742,323,0,0
525,701,0,0,0,0,0,0,0,0,0,-1,1749,323,0,0
532,701,0,0,0,0,0,0,0,0,0,-1,1756,323,0,0
539,701,0,0,0,0,0,0,0,0,0,-1,1763,323,0,0
546,701,0,0,0,0,0,0,0,0,0,-1,1770,323,0,0
553,701,0,0,0,0,0,0,0,0,0,-1,1777,323,0,0
560,701,0,0,0,0,0,0,0,0,0,-1,1784,323,0,0
567,701,0,0,0,0,0,0,0,0,0,-1,1791,323,0,0
574,701,0,0,0,0,0,0,0,0,0,-1,1798,323,0,0
581,701,0,0,0,0,0,0,0,0,0,-1,1805,323,0,0
588,701,0,0,0,0,0,0,0,0,0,-1,1812,323,0,0
595,701,0,0,0,0,0,0,0,0,0,-1,1819,323,0,0
602,701,0,0,0,0,0,0,0,0,0,-1,1826,323,0,0
609,701,0,0,0,0,0,0,0,0,0,-1,1833,323,0,0
616,701,0,0,0,0,0,0,0,0,0,-1,1840,323,0,0
623,701,0,0,0,0,0,0,0,0,0,-1,1847,323,0,0
630,701,0,0,0,0,0,0,0,0,0,-1,1854,323,0,0
637,701,0,0,0,0,0,0,0,0,0,-1,1861,323,0,0
644,701,0,0,0,0,0,0,0,0,0,-1,1868,323,0,0
651,701,0,0,0,0,0,0,0,0,0,-1,1875,323,0,0
658,701,0,0,0,0,0,0,0,0,0,-1,1882,323,0,0
665,701,0,0,0,0,0,0,0,0,0,-1,1889,323,0,0
672,701,0,0,0,0,0,0,0,0,0,-1,1896,323,0,0
679,701,0,0,0,0,0,0,0,0,0,-1,1903,323,0,0
686,701,0,0,0,0,0,0,0,0,0,-1,1910,323,0,0
693,701,0,0,0,0,0,0,0,0,0,-1,1917,323,0,0
700,701,0,0,0,0,0,0,0,0,0,-1,1924,323,0,0
707,701,0,0,0,0,0,0,0,0,0,-1,1931,323,0,0
714,701,0,0,0,0,0,0,0,0,0,-1,1938,323,0,0
721,701,0,0,0,0,0,0,0,0,0,-1,1945,323,0,0
728,701,0,0,0,0,0,0,0,0,0,-1,1952,323,0,0
735,701,0,0,0,0,0,0,0,0,0,-1,1959,323,0,0
742,701,0,0,0,0,0,0,0,0,0,-1,1966,323,0,0
749,701,0,0,0,0,0,0,0,0,0,-1,1973,323,0,0
756,701,0,0,0,0,0,0,0,0,0,-1,1980,323,0,0
763,701,0,0,0,0,0,0,0,0,0,-1,1987,323,0,0
770,701,0,0,0,0,0,0,0,0,0,-1,1994,323,0,0
777,701,0,0,0,0,0,0,0,0,0,-1,2001,323,0,0
784,701,0,0,0,0,0,0,0,0,0,-1,2008,323,0,0
791,701,0,0,0,0,0,0,0,0,0,-1,2015,323,0,0
798,701,0,0,0,0,0,0,0,0,0,-1,2022,323,0,0
805,701,0,0,0,0,0,0,0,0,0,-1,2029,323,0,0
812,701,0,0,0,0,0,0,0,0,0,-1,2036,323,0,0
-700,694,0,0,0,0,0,0,0,0,0,-1,524,330,0,0
-693,694,0,0,0,0,0,0,0,0,0,-1,531,330,0,0
-686,694,0,0,0,0,0,0,0,0,0,-1,538,330,0,0
-679,694,0,0,0,0,0,0,0,0,0,-1,545,330,0,0
-672,694,0,0,0,0,0,0,0,0,0,-1,552,330,0,0
-665,694,0,0,0,0,0,0,0,0,0,-1,559,330,0,0
-658,694,0,0,0,0,0,0,0,0,0,-1,566,330,0,0
-651,694,0,0,0,0,0,0,0,0,0,-1,573,330,0,0
-644,694,0,0,0,0,0,0,0,0,0,-1,580,330,0,0
-637,694,0,0,0,0,0,0,0,0,0,-1,587,330,0,0
-630,694,0,0,0,0,0,0,0,0,0,-1,594,330,0,0
-623,694,0,0,0,0,0,0,0,0,0,-1,601,330,0,0
-616,694,0,0,0,0,0,0,0,0,0,-1,608,330,0,0
-609,694,0,0,0,0,0,0,0,0,0,-1,615,330,0,0
-602,694,0,0,0,0,0,0,0,0,0,-1,622,330,0,0
-595,694,0,0,0,0,0,0,0,0,0,-1,629,330,0,0
-588,694,0,0,0,0,0,0,0,0,0,-1,636,330,0,0
-581,694,0,0,0,0,0,0,0,0,0,-1,643,330,0,0
-574,694,0,0,0,0,0,0,0,0,0,-1,650,330,0,0
-567,694,0,0,0,0,0,0,0,0,0,-1,657,330,0,0
-560,694,0,0,0,0,0,0,0,0,0,-1,664,330,0,0
-553,694,0,0,0,0,0,0,0,0,0,-1,671,330,0,0
-546,694,0,0,0,0,0,0,0,0,0,-1,678,330,0,0
-539,694,0,0,0,0,0,0,0,0,0,-1,685,330,0,0
-532,694,0,0,0,0,0,0,0,0,0,-1,692,330,0,0
-525,694,0,0,0,0,0,0,0,0,0,-1,699,330,0,0
-518,694,0,0,0,0,0,0,0,0,0,-1,706,330,0,0
-511,694,0,0,0,0,0,0,0,0,0,-1,713,330,0,0
-504,694,0,0,0,0,0,0,0,0,0,-1,720,330,0,0
-497,694,0,0,0,0,0,0,0,0,0,-1,727,330,0,0
-490,694,0,0,0,0,0,0,0,0,0,-1,734,330,0,0
-483,694,0,0,0,0,0,0,0,0,0,-1,741,330,0,0
-476,694,0,0,0,0,0,0,0,0,0,-1,748,330,0,0
-469,694,0,0,0,0,0,0,0,0,0,-1,755,330,0,0
-462,694,0,0,0,0,0,0,0,0,0,-1,762,330,0,0
-455,694,0,0,0,0,0,0,0,0,0,-1,769,330,0,0
-448,694,0,0,0,0,0,0,0,0,0,-1,776,330,0,0
-441,694,0,0,0,0,0,0,0,0,0,-1,783,330,0,0
-434,694,0,0,0,0,0,0,0,0,0,-1,790,330,0,0
-427,694,0,0,0,0,0,0,0,0,0,-1,797,330,0,0
-420,694,0,0,0,0,0,0,0,0,0,-1,804,330,0,0
-413,694,0,0,0,0,0,0,0,0,0,-1,811,330,0,0
-406,694,0,0,0,0,0,0,0,0,0,-1,818,330,0,0
-399,694,0,0,0,0,0,0,0,0,0,-1,825,330,0,0
-392,694,0,0,0,0,0,0,0,0,0,-1,832,330,0,0
-385,694,0,0,0,0,0,0,0,0,0,-1,839,330,0,0
-378,694,0,0,0,0,0,0,0,0,0,-1,846,330,0,0
-371,694,0,0,0,0,0,0,0,0,0,-1,853,330,0,0
-364,694,0,0,0,0,0,0,0,0,0,-1,860,330,0,0
-357,694,0,0,0,0,0,0,0,0,0,-1,867,330,0,0
-350,694,0,0,0,0,0,0,0,0,0,-1,874,330,0,0
-343,694,0,0,0,0,0,0,0,0,0,-1,881,330,0,0
-336,694,0,0,0,0,0,0,0,0,0,-1,888,330,0,0
-329,694,0,0,0,0,0,0,0,0,0,-1,895,330,0,0
-322,694,0,0,0,0,0,0,0,0,0,-1,902,330,0,0
-315,694,0,0,0,0,0,0,0,0,0,-1,909,330,0,0
-308,694,0,0,0,0,0,0,0,0,0,-1,916,330,0,0
-301,694,0,0,0,0,0,0,0,0,0,-1,923,330,0,0
-294,694,0,0,0,0,0,0,0,0,0,-1,930,330,0,0
-287,694,0,0,0,0,0,0,0,0,0,-1,937,330,0,0
-280,694,0,0,0,0,0,0,0,0,0,-1,944,330,0,0
-273,694,0,0,0,0,0,0,0,0,0,-1,951,330,0,0
-266,694,0,0,0,0,0,0,0,0,0,-1,958,330,0,0
-259,694,0,0,0,0,0,0,0,0,0,-1,965,330,0,0
-252,694,0,0,0,0,0,0,0,0,0,-1,972,330,0,0
-245,694,0,0,0,0,0,0,0,0,0,-1,979,330,0,0
-238,694,0,0,0,0,0,0,0,0,0,-1,986,330,0,0
-231,694,0,0,0,0,0,0,0,0,0,-1,993,330,0,0
-224,694,0,0,0,0,0,0,0,0,0,-1,1000,330,0,0
-217,694,0,0,0,0,0,0,0,0,0,-1,1007,330,0,0
-210,694,0,0,0,0,0,0,0,0,0,-1,1014,330,0,0
-203,694,0,0,0,0,0,0,0,0,0,-1,1021,330,0,0
-196,694,0,0,0,0,0,0,0,0,0,-1,1028,330,0,0
-189,694,0,0,0,0,0,0,0,0,0,-1,1035,330,0,0
-182,694,0,0,0,0,0,0,0,0,0,-1,1042,330,0,0
-175,694,0,0,0,0,0,0,0,0,0,-1,1049,330,0,0
-168,694,0,0,0,0,0,0,0,0,0,-1,1056,330,0,0
-161,694,0,0,0,0,0,0,0,0,0,-1,1063,330,0,0
-154,694,0,0,0,0,0,0,0,0,0,-1,1070,330,0,0
-147,694,0,0,0,0,0,0,0,0,0,-1,1077,330,0,0
-140,694,0,0,0,0,0,0,0,0,0,-1,1084,330,0,0
-133,694,0,0,0,0,0,0,0,0,0,-1,1091,330,0,0
-126,694,0,0,0,0,0,0,0,0,0,-1,1098,330,0,0
-119,694,0,0,0,0,0,0,0,0,0,-1,1105,330,0,0
-112,694,0,0,0,0,0,0,0,0,0,-1,1112,330,0,0
-105,694,2.5188,-19.3963,0,0,0,0,0,0,0,-1,1119,330,2.51882,19.3963
-98,694,1.34875,-10.1051,0,0,0,0,0,0,0,-1,1126,330,1.34874,10.1051
-91,694,6.62366,-46.8039,0,0,0,0,0,0,0,-1,1133,330,6.62363,46.8039
-84,694,0.0577393,-40.8823,0,0,0,0,0,0,0,-1,1140,330,0.0577026,40.8823
-77,694,-5.51379,-31.2714,0,0,0,0,0,0,0,-1,1147,330,-5.51383,31.2714
-70,694,-11.9945,-25.5143,0,0,0,0,0,0,0,-1,1154,330,-11.9945,25.5143
-63,694,-18.4752,-19.7572,0,0,0,0,0,0,0,-1,1161,330,-18.4752,19.7572
-56,694,-6.50623,-0.649139,0,0,0,0,0,0,0,-1,1168,330,-6.5062,0.649126
-49,694,-1.11426,0.0341797,0,0,0,0,0,0,0,-1,1175,330,-1.11424,-0.0341846
-42,694,-0.346313,-0.709595,0,0,0,0,0,0,0,-1,1182,330,-0.346298,0.709581
-35,694,-0.459106,-1.24713,0,0,0,0,0,0,0,-1,1189,330,-0.459142,1.24714
-28,694,-6.48413,-3.95972,0,0,0,0,0,0,0,-1,1196,330,-6.48414,3.9597
-21,694,7.13831,-55.3012,0,0,0,0,0,0,0,-1,1203,330,7.13827,55.3012
-14,694,8.46826,-58.9489,0,0,0,0,0,0,0,-1,1210,330,8.46828,58.9489
-7,694,12.297,-62.1397,0,0,0,0,0,0,0,-1,1217,330,12.297,62.1397
0,694,11.3843,-60.867,0,0,0,0,0,0,0,-1,1224,330,11.3842,60.867
7,694,10.4501,-59.6016,-0.0619174,0.136524,0.0878368,0.169818,-0.095211,1.20849,0.155022,0.0435424,1231,330,10.4501,59.6016
14,694,9.54602,-58.2834,-0.0521221,0.13107,0.078782,0.160289,-0.0813418,1.21563,0.141966,0.0455565,1238,330,9.54601,58.2834
21,694,8.75146,-57.3301,-0.0408782,0.126484,0.0695273,0.151599,-0.0659932,1.22416,0.128827,0.0489697,1245,330,8.75141,57.3301
28,694,8.01086,-56.4088,0,0,0,0,0,0,0,-1,1252,330,8.01086,56.4088
35,694,7.29382,-55.403,0,0,0,0,0,0,0,-1,1259,330,7.29381,55.403
42,694,7.48865,-57.2808,0,0,0,0,0,0,0,-1,1266,330,7.48867,57.2808
49,694,7.32446,-57.3199,0,0,0,0,0,0,0,-1,1273,330,7.32441,57.3199
56,694,7.49524,-57.2138,0.0119053,0.111392,0.0369035,0.123586,-0.000288997,1.25165,0.0824872,0.0440662,1280,330,7.49519,57.2138
63,694,7.6803,-57.246,0.0196748,0.108859,0.0322489,0.119298,0.00923557,1.25773,0.0766392,0.0438226,1287,330,7.68026,57.246
70,694,7.90479,-57.0926,0.0240066,0.10637,0.0290765,0.115601,0.0147763,1.26341,0.0726443,0.0429075,1294,330,7.90479,57.0925
77,694,8.25439,-56.8637,0.0243485,0.103145,0.0270474,0.111536,0.0159577,1.26999,0.0696498,0.0447292,1301,330,8.25437,56.8637
84,694,8.69946,-56.8159,0,0,0,0,0,0,0,-1,1308,330,8.69947,56.8159
91,694,9.19739,-56.843,0,0,0,0,0,0,0,-1,1315,330,9.19733,56.843
98,694,9.55713,-56.6681,0,0,0,0,0,0,0,-1,1322,330,9.5571,56.6681
105,694,2.50854,-57.4604,0,0,0,0,0,0,0,-1,1329,330,2.50849,57.4604
112,694,2.31421,-57.4698,0.00373992,0.0922545,0.0127231,0.094047,0.0019474,1.43083,0.0620591,0.0424827,1336,330,2.31426,57.4698
119,694,2.11353,-57.5595,-0.00192151,0.090885,0.00984111,0.0919171,-0.00295358,1.46631,0.0622859,0.04196,1343,330,2.11349,57.5596
126,694,1.828,-57.8471,-0.00759308,0.091163,0.00703123,0.0916611,-0.00809117,1.50007,0.0639752,0.042179,1350,330,1.82797,57.8471
133,694,1.20239,-57.7467,-0.012183,0.0946319,0.00482575,0.0948495,-0.0124006,1.52574,0.0677459,0.0467495,1357,330,1.20241,57.7467
140,694,1.23108,-57.4742,0,0,0,0,0,0,0,-1,1364,330,1.2311,57.4742
147,694,1.46057,-57.0742,0,0,0,0,0,0,0,-1,1371,330,1.46057,57.0742
154,694,1.66174,-56.7108,0,0,0,0,0,0,0,-1,1378,330,1.66169,56.7108
161,694,0.0187988,-38.6779,0,0,0,0,0,0,0,-1,1385,330,0.0187579,38.6779
168,694,30.451,0.196686,0,0,0,0,0,0,0,-1,1392,330,30.4511,-0.196674
175,694,31.0701,0.869873,0,0,0,0,0,0,0,-1,1399,330,31.07,-0.869874
182,694,8.29028,5.75238,0,0,0,0,0,0,0,-1,1406,330,8.29034,-5.75237
189,694,7.9801,4.46118,0,0,0,0,0,0,0,-1,1413,330,7.9801,-4.46118
196,694,7.39331,3.32632,0,0,0,0,0,0,0,-1,1420,330,7.39329,-3.32633
203,694,7.04492,2.20529,0,0,0,0,0,0,0,-1,1427,330,7.04496,-2.20529
210,694,6.44714,0.646912,0,0,0,0,0,0,0,-1,1434,330,6.44717,-0.646903
217,694,7.12061,-0.644958,0,0,0,0,0,0,0,-1,1441,330,7.12059,0.644961
224,694,6.74011,-1.70544,0,0,0,0,0,0,0,-1,1448,330,6.74013,1.70546
231,694,0,0,0,0,0,0,0,0,0,-1,1455,330,0,0
238,694,0,0,0,0,0,0,0,0,0,-1,1462,330,0,0
245,694,0,0,0,0,0,0,0,0,0,-1,1469,330,0,0
252,694,0,0,0,0,0,0,0,0,0,-1,1476,330,0,0
259,694,0,0,0,0,0,0,0,0,0,-1,1483,330,0,0
266,694,0,0,0,0,0,0,0,0,0,-1,1490,330,0,0
273,694,0,0,0,0,0,0,0,0,0,-1,1497,330,0,0
280,694,0,0,0,0,0,0,0,0,0,-1,1504,330,0,0
287,694,0,0,0,0,0,0,0,0,0,-1,1511,330,0,0
294,694,0,0,0,0,0,0,0,0,0,-1,1518,330,0,0
301,694,0,0,0,0,0,0,0,0,0,-1,1525,330,0,0
308,694,0,0,0,0,0,0,0,0,0,-1,1532,330,0,0
315,694,0,0,0,0,0,0,0,0,0,-1,1539,330,0,0
322,694,0,0,0,0,0,0,0,0,0,-1,1546,330,0,0
329,694,0,0,0,0,0,0,0,0,0,-1,1553,330,0,0
336,694,0,0,0,0,0,0,0,0,0,-1,1560,330,0,0
343,694,0,0,0,0,0,0,0,0,0,-1,1567,330,0,0
350,694,0,0,0,0,0,0,0,0,0,-1,1574,330,0,0
357,694,0,0,0,0,0,0,0,0,0,-1,1581,330,0,0
364,694,0,0,0,0,0,0,0,0,0,-1,1588,330,0,0
371,694,0,0,0,0,0,0,0,0,0,-1,1595,330,0,0
378,694,0,0,0,0,0,0,0,0,0,-1,1602,330,0,0
385,694,0,0,0,0,0,0,0,0,0,-1,1609,330,0,0
392,694,0,0,0,0,0,0,0,0,0,-1,1616,330,0,0
399,694,0,0,0,0,0,0,0,0,0,-1,1623,330,0,0
406,694,0,0,0,0,0,0,0,0,0,-1,1630,330,0,0
413,694,0,0,0,0,0,0,0,0,0,-1,1637,330,0,0
420,694,0,0,0,0,0,0,0,0,0,-1,1644,330,0,0
427,694,0,0,0,0,0,0,0,0,0,-1,1651,330,0,0
434,694,0,0,0,0,0,0,0,0,0,-1,1658,330,0,0
441,694,0,0,0,0,0,0,0,0,0,-1,1665,330,0,0
448,694,0,0,0,0,0,0,0,0,0,-1,1672,330,0,0
455,694,0,0,0,0,0,0,0,0,0,-1,1679,330,0,0
462,694,0,0,0,0,0,0,0,0,0,-1,1686,330,0,0
469,694,0,0,0,0,0,0,0,0,0,-1,1693,330,0,0
476,694,0,0,0,0,0,0,0,0,0,-1,1700,330,0,0
483,694,0,0,0,0,0,0,0,0,0,-1,1707,330,0,0
490,694,0,0,0,0,0,0,0,0,0,-1,1714,330,0,0
497,694,0,0,0,0,0,0,0,0,0,-1,1721,330,0,0
504,694,0,0,0,0,0,0,0,0,0,-1,1728,330,0,0
511,694,0,0,0,0,0,0,0,0,0,-1,1735,330,0,0
518,694,0,0,0,0,0,0,0,0,0,-1,1742,330,0,0
525,694,0,0,0,0,0,0,0,0,0,-1,1749,330,0,0
532,694,0,0,0,0,0,0,0,0,0,-1,1756,330,0,0
539,694,0,0,0,0,0,0,0,0,0,-1,1763,330,0,0
546,694,0,0,0,0,0,0,0,0,0,-1,1770,330,0,0
553,694,0,0,0,0,0,0,0,0,0,-1,1777,330,0,0
560,694,0,0,0,0,0,0,0,0,0,-1,1784,330,0,0
567,694,0,0,0,0,0,0,0,0,0,-1,1791,330,0,0
574,694,0,0,0,0,0,0,0,0,0,-1,1798,330,0,0
581,694,0,0,0,0,0,0,0,0,0,-1,1805,330,0,0
588,694,0,0,0,0,0,0,0,0,0,-1,1812,330,0,0
595,694,0,0,0,0,0,0,0,0,0,-1,1819,330,0,0
602,694,0,0,0,0,0,0,0,0,0,-1,1826,330,0,0
609,694,0,0,0,0,0,0,0,0,0,-1,1833,330,0,0
616,694,0,0,0,0,0,0,0,0,0,-1,1840,330,0,0
623,694,0,0,0,0,0,0,0,0,0,-1,1847,330,0,0
630,694,0,0,0,0,0,0,0,0,0,-1,1854,330,0,0
637,694,0,0,0,0,0,0,0,0,0,-1,1861,330,0,0
644,694,0,0,0,0,0,0,0,0,0,-1,1868,330,0,0
651,694,0,0,0,0,0,0,0,0,0,-1,1875,330,0,0
658,694,0,0,0,0,0,0,0,0,0,-1,1882,330,0,0
665,694,0,0,0,0,0,0,0,0,0,-1,1889,330,0,0
672,694,0,0,0,0,0,0,0,0,0,-1,1896,330,0,0
679,694,0,0,0,0,0,0,0,0,0,-1,1903,330,0,0
686,694,0,0,0,0,0,0,0,0,0,-1,1910,330,0,0
693,694,0,0,0,0,0,0,0,0,0,-1,1917,330,0,0
700,694,0,0,0,0,0,0,0,0,0,-1,1924,330,0,0
707,694,0,0,0,0,0,0,0,0,0,-1,1931,330,0,0
714,694,0,0,0,0,0,0,0,0,0,-1,1938,330,0,0
721,694,0,0,0,0,0,0,0,0,0,-1,1945,330,0,0
728,694,0,0,0,0,0,0,0,0,0,-1,1952,330,0,0
735,694,0,0,0,0,0,0,0,0,0,-1,1959,330,0,0
742,694,0,0,0,0,0,0,0,0,0,-1,1966,330,0,0
749,694,0,0,0,0,0,0,0,0,0,-1,1973,330,0,0
756,694,0,0,0,0,0,0,0,0,0,-1,1980,330,0,0
763,694,0,0,0,0,0,0,0,0,0,-1,1987,330,0,0
770,694,0,0,0,0,0,0,0,0,0,-1,1994,330,0,0
777,694,0,0,0,0,0,0,0,0,0,-1,2001,330,0,0
784,694,0,0,0,0,0,0,0,0,0,-1,2008,330,0,0
791,694,0,0,0,0,0,0,0,0,0,-1,2015,330,0,0
798,694,0,0,0,0,0,0,0,0,0,-1,2022,330,0,0
805,694,0,0,0,0,0,0,0,0,0,-1,2029,330,0,0
812,694,0,0,0,0,0,0,0,0,0,-1,2036,330,0,0
-700,687,0,0,0,0,0,0,0,0,0,-1,524,337,0,0
-693,687,0,0,0,0,0,0,0,0,0,-1,531,337,0,0
-686,687,0,0,0,0,0,0,0,0,0,-1,538,337,0,0
-679,687,0,0,0,0,0,0,0,0,0,-1,545,337,0,0
-672,687,0,0,0,0,0,0,0,0,0,-1,552,337,0,0
-665,687,0,0,0,0,0,0,0,0,0,-1,559,337,0,0
-658,687,0,0,0,0,0,0,0,0,0,-1,566,337,0,0
-651,687,0,0,0,0,0,0,0,0,0,-1,573,337,0,0
-644,687,0,0,0,0,0,0,0,0,0,-1,580,337,0,0
-637,687,0,0,0,0,0,0,0,0,0,-1,587,337,0,0
-630,687,0,0,0,0,0,0,0,0,0,-1,594,337,0,0
-623,687,0,0,0,0,0,0,0,0,0,-1,601,337,0,0
-616,687,0,0,0,0,0,0,0,0,0,-1,608,337,0,0
-609,687,0,0,0,0,0,0,0,0,0,-1,615,337,0,0
-602,687,0,0,0,0,0,0,0,0,0,-1,622,337,0,0
-595,687,0,0,0,0,0,0,0,0,0,-1,629,337,0,0
-588,687,0,0,0,0,0,0,0,0,0,-1,636,337,0,0
-581,687,0,0,0,0,0,0,0,0,0,-1,643,337,0,0
-574,687,0,0,0,0,0,0,0,0,0,-1,650,337,0,0
-567,687,0,0,0,0,0,0,0,0,0,-1,657,337,0,0
-560,687,0,0,0,0,0,0,0,0,0,-1,664,337,0,0
-553,687,0,0,0,0,0,0,0,0,0,-1,671,337,0,0
-546,687,0,0,0,0,0,0,0,0,0,-1,678,337,0,0
-539,687,0,0,0,0,0,0,0,0,0,-1,685,337,0,0
-532,687,0,0,0,0,0,0,0,0,0,-1,692,337,0,0
-525,687,0,0,0,0,0,0,0,0,0,-1,699,337,0,0
-518,687,0,0,0,0,0,0,0,0,0,-1,706,337,0,0
-511,687,0,0,0,0,0,0,0,0,0,-1,713,337,0,0
-504,687,0,0,0,0,0,0,0,0,0,-1,720,337,0,0
-497,687,0,0,0,0,0,0,0,0,0,-1,727,337,0,0
-490,687,0,0,0,0,0,0,0,0,0,-1,734,337,0,0
-483,687,0,0,0,0,0,0,0,0,0,-1,741,337,0,0
-476,687,0,0,0,0,0,0,0,0,0,-1,748,337,0,0
-469,687,0,0,0,0,0,0,0,0,0,-1,755,337,0,0
-462,687,0,0,0,0,0,0,0,0,0,-1,762,337,0,0
-455,687,0,0,0,0,0,0,0,0,0,-1,769,337,0,0
-448,687,0,0,0,0,0,0,0,0,0,-1,776,337,0,0
-441,687,0,0,0,0,0,0,0,0,0,-1,783,337,0,0
-434,687,0,0,0,0,0,0,0,0,0,-1,790,337,0,0
-427,687,0,0,0,0,0,0,0,0,0,-1,797,337,0,0
-420,687,0,0,0,0,0,0,0,0,0,-1,804,337,0,0
-413,687,0,0,0,0,0,0,0,0,0,-1,811,337,0,0
-406,687,0,0,0,0,0,0,0,0,0,-1,818,337,0,0
-399,687,0,0,0,0,0,0,0,0,0,-1,825,337,0,0
-392,687,0,0,0,0,0,0,0,0,0,-1,832,337,0,0
-385,687,0,0,0,0,0,0,0,0,0,-1,839,337,0,0
-378,687,0,0,0,0,0,0,0,0,0,-1,846,337,0,0
-371,687,0,0,0,0,0,0,0,0,0,-1,853,337,0,0
-364,687,0,0,0,0,0,0,0,0,0,-1,860,337,0,0
-357,687,0,0,0,0,0,0,0,0,0,-1,867,337,0,0
-350,687,0,0,0,0,0,0,0,0,0,-1,874,337,0,0
-343,687,0,0,0,0,0,0,0,0,0,-1,881,337,0,0
-336,687,0,0,0,0,0,0,0,0,0,-1,888,337,0,0
-329,687,0,0,0,0,0,0,0,0,0,-1,895,337,0,0
-322,687,0,0,0,0,0,0,0,0,0,-1,902,337,0,0
-315,687,0,0,0,0,0,0,0,0,0,-1,909,337,0,0
-308,687,0,0,0,0,0,0,0,0,0,-1,916,337,0,0
-301,687,0,0,0,0,0,0,0,0,0,-1,923,337,0,0
-294,687,0,0,0,0,0,0,0,0,0,-1,930,337,0,0
-287,687,0,0,0,0,0,0,0,0,0,-1,937,337,0,0
-280,687,0,0,0,0,0,0,0,0,0,-1,944,337,0,0
-273,687,0,0,0,0,0,0,0,0,0,-1,951,337,0,0
-266,687,0,0,0,0,0,0,0,0,0,-1,958,337,0,0
-259,687,0,0,0,0,0,0,0,0,0,-1,965,337,0,0
-252,687,0,0,0,0,0,0,0,0,0,-1,972,337,0,0
-245,687,0,0,0,0,0,0,0,0,0,-1,979,337,0,0
-238,687,0,0,0,0,0,0,0,0,0,-1,986,337,0,0
-231,687,0,0,0,0,0,0,0,0,0,-1,993,337,0,0
-224,687,0,0,0,0,0,0,0,0,0,-1,1000,337,0,0
-217,687,0,0,0,0,0,0,0,0,0,-1,1007,337,0,0
-210,687,0,0,0,0,0,0,0,0,0,-1,1014,337,0,0
-203,687,0,0,0,0,0,0,0,0,0,-1,1021,337,0,0
-196,687,0,0,0,0,0,0,0,0,0,-1,1028,337,0,0
-189,687,0,0,0,0,0,0,0,0,0,-1,1035,337,0,0
-182,687,0,0,0,0,0,0,0,0,0,-1,1042,337,0,0
-175,687,0,0,0,0,0,0,0,0,0,-1,1049,337,0,0
-168,687,0,0,0,0,0,0,0,0,0,-1,1056,337,0,0
-161,687,0,0,0,0,0,0,0,0,0,-1,1063,337,0,0
-154,687,0,0,0,0,0,0,0,0,0,-1,1070,337,0,0
-147,687,0,0,0,0,0,0,0,0,0,-1,1077,337,0,0
-140,687,0,0,0,0,0,0,0,0,0,-1,1084,337,0,0
-133,687,7.93958,-37.548,0,0,0,0,0,0,0,-1,1091,337,7.93957,37.548
-126,687,0.688477,-38.7298,0,0,0,0,0,0,0,-1,1098,337,0.688509,38.7298
-119,687,7.70825,-33.9236,0,0,0,0,0,0,0,-1,1105,337,7.70826,33.9236
-112,687,7.99866,-32.2983,0,0,0,0,0,0,0,-1,1112,337,7.99866,32.2983
-105,687,1.3208,-29.8313,0,0,0,0,0,0,0,-1,1119,337,1.3208,29.8313
-98,687,13.7111,-47.5645,0,0,0,0,0,0,0,-1,1126,337,13.711,47.5645
-91,687,7.22083,-41.1667,0,0,0,0,0,0,0,-1,1133,337,7.22079,41.1666
-84,687,0.745117,-35.0345,0,0,0,0,0,0,0,-1,1140,337,0.745155,35.0345
-77,687,-5.74353,-28.9553,0,0,0,0,0,0,0,-1,1147,337,-5.74357,28.9553
-70,687,-11.6842,-19.8473,0,0,0,0,0,0,0,-1,1154,337,-11.6842,19.8473
-63,687,-17.6757,-14.8966,0,0,0,0,0,0,0,-1,1161,337,-17.6756,14.8966
-56,687,-18.104,7.81931,0,0,0,0,0,0,0,-1,1168,337,-18.104,-7.81931
-49,687,-15.6449,-9.94391,0,0,0,0,0,0,0,-1,1175,337,-15.6449,9.94392
-42,687,-4.2019,-0.405609,0,0,0,0,0,0,0,-1,1182,337,-4.20192,0.405614
-35,687,-4.42273,-0.688171,0,0,0,0,0,0,0,-1,1189,337,-4.42276,0.688178
-28,687,-1.14038,-1.39072,0,0,0,0,0,0,0,-1,1196,337,-1.14035,1.3907
-21,687,8.57568,-58.074,0,0,0,0,0,0,0,-1,1203,337,8.57564,58.074
-14,687,8.70313,-57.4118,0,0,0,0,0,0,0,-1,1210,337,8.7031,57.4118
-7,687,8.7395,-58.0794,0,0,0,0,0,0,0,-1,1217,337,8.73956,58.0794
0,687,10.5247,-61.5695,0,0,0,0,0,0,0,-1,1224,337,10.5246,61.5695
7,687,9.81519,-60.5308,-0.0494558,0.111339,0.0628302,0.132978,-0.0710945,1.23912,0.119613,0.0466667,1231,337,9.81519,60.5308
14,687,9.1322,-59.3493,-0.0421533,0.108873,0.0569354,0.127932,-0.0612122,1.24777,0.111444,0.043106,1238,337,9.13218,59.3493
21,687,8.35669,-58.2328,-0.0335748,0.106858,0.0508069,0.123312,-0.0500284,1.25761,0.103016,0.0454366,1245,337,8.35673,58.2328
28,687,7.61621,-57.3055,0,0,0,0,0,0,0,-1,1252,337,7.61626,57.3055
35,687,6.8717,-56.3818,0,0,0,0,0,0,0,-1,1259,337,6.87173,56.3818
42,687,7.63049,-58.0791,0,0,0,0,0,0,0,-1,1266,337,7.63046,58.0791
49,687,7.30847,-58.2838,0,0,0,0,0,0,0,-1,1273,337,7.30851,58.2838
56,687,7.42578,-58.4901,0.00780058,0.0989374,0.0287825,0.107266,-0.000528239,1.28912,0.0716875,0.0464017,1280,337,7.42575,58.4901
63,687,7.56226,-58.3429,0.0139354,0.0969948,0.025492,0.104195,0.00673565,1.29553,0.0673302,0.0433666,1287,337,7.5622,58.3429
70,687,7.79285,-58.3292,0.01744,0.0947279,0.0232452,0.10118,0.0109874,1.30003,0.0641058,0.0401137,1294,337,7.79291,58.3292
77,687,7.95752,-57.65,0.0178344,0.0916132,0.0217171,0.0975311,0.0119166,1.30476,0.061435,0.0445518,1301,337,7.95747,57.65
84,687,8.48438,-57.1219,0,0,0,0,0,0,0,-1,1308,337,8.48432,57.1219
91,687,9.01782,-58.0655,0,0,0,0,0,0,0,-1,1315,337,9.0178,58.0655
98,687,9.18567,-58.2867,0,0,0,0,0,0,0,-1,1322,337,9.18568,58.2867
105,687,3.23511,-58.2689,0,0,0,0,0,0,0,-1,1329,337,3.23506,58.2688
112,687,2.08252,-58.1561,0,0,0,0,0,0,0,-1,1336,337,2.08246,58.1561
119,687,2.01099,-57.6855,-0.00205679,0.0800886,0.00749287,0.0807665,-0.00273466,1.48057,0.0547786,0.0418479,1343,337,2.01093,57.6855
126,687,2.36865,-58.2223,-0.0063832,0.0799972,0.00507914,0.0802948,-0.00668082,1.51227,0.0558901,0.0457416,1350,337,2.36864,58.2223
133,687,2.45935,-58.8949,-0.00996727,0.082084,0.00303692,0.0821841,-0.0100674,1.53785,0.058435,0.0499171,1357,337,2.45937,58.8949
140,687,4.86963,-55.966,0,0,0,0,0,0,0,-1,1364,337,4.86969,55.966
147,687,4.92566,-55.7701,0,0,0,0,0,0,0,-1,1371,337,4.92571,55.77
154,687,5.29272,-50.2722,0,0,0,0,0,0,0,-1,1378,337,5.29275,50.2722
161,687,29.3895,-1.90628,0,0,0,0,0,0,0,-1,1385,337,29.3895,1.90628
168,687,29.8564,-1.19434,0,0,0,0,0,0,0,-1,1392,337,29.8564,1.19434
175,687,30.3419,-0.453583,0,0,0,0,0,0,0,-1,1399,337,30.3419,0.45357
182,687,6.67249,0.289917,0,0,0,0,0,0,0,-1,1406,337,6.67247,-0.289916
189,687,7.76062,4.53635,0,0,0,0,0,0,0,-1,1413,337,7.76064,-4.53636
196,687,6.99048,3.2966,0,0,0,0,0,0,0,-1,1420,337,6.99046,-3.2966
203,687,6.36499,2.1445,0,0,0,0,0,0,0,-1,1427,337,6.36499,-2.14451
210,687,6.68066,0.674652,0,0,0,0,0,0,0,-1,1434,337,6.68062,-0.674655
217,687,5.99683,-0.630493,0,0,0,0,0,0,0,-1,1441,337,5.99684,0.630497
224,687,5.52917,0.524902,0,0,0,0,0,0,0,-1,1448,337,5.5292,-0.524915
231,687,5.85583,-1.73651,0,0,0,0,0,0,0,-1,1455,337,5.85577,1.73651
238,687,5.96582,-2.96774,0,0,0,0,0,0,0,-1,1462,337,5.96577,2.96773
245,687,1.28259,2.32211,0,0,0,0,0,0,0,-1,1469,337,1.28258,-2.32211
252,687,1.97278,3.88422,0,0,0,0,0,0,0,-1,1476,337,1.97281,-3.88421
259,687,0,0,0,0,0,0,0,0,0,-1,1483,337,0,0
266,687,0,0,0,0,0,0,0,0,0,-1,1490,337,0,0
273,687,0,0,0,0,0,0,0,0,0,-1,1497,337,0,0
280,687,0,0,0,0,0,0,0,0,0,-1,1504,337,0,0
287,687,0,0,0,0,0,0,0,0,0,-1,1511,337,0,0
294,687,0,0,0,0,0,0,0,0,0,-1,1518,337,0,0
301,687,0,0,0,0,0,0,0,0,0,-1,1525,337,0,0
308,687,0,0,0,0,0,0,0,0,0,-1,1532,337,0,0
315,687,0,0,0,0,0,0,0,0,0,-1,1539,337,0,0
322,687,0,0,0,0,0,0,0,0,0,-1,1546,337,0,0
329,687,0,0,0,0,0,0,0,0,0,-1,1553,337,0,0
336,687,0,0,0,0,0,0,0,0,0,-1,1560,337,0,0
343,687,0,0,0,0,0,0,0,0,0,-1,1567,337,0,0
350,687,0,0,0,0,0,0,0,0,0,-1,1574,337,0,0
357,687,0,0,0,0,0,0,0,0,0,-1,1581,337,0,0
364,687,0,0,0,0,0,0,0,0,0,-1,1588,337,0,0
371,687,0,0,0,0,0,0,0,0,0,-1,1595,337,0,0
378,687,0,0,0,0,0,0,0,0,0,-1,1602,337,0,0
385,687,0,0,0,0,0,0,0,0,0,-1,1609,337,0,0
392,687,0,0,0,0,0,0,0,0,0,-1,1616,337,0,0
399,687,0,0,0,0,0,0,0,0,0,-1,1623,337,0,0
406,687,0,0,0,0,0,0,0,0,0,-1,1630,337,0,0
413,687,0,0,0,0,0,0,0,0,0,-1,1637,337,0,0
420,687,0,0,0,0,0,0,0,0,0,-1,1644,337,0,0
427,687,0,0,0,0,0,0,0,0,0,-1,1651,337,0,0
434,687,0,0,0,0,0,0,0,0,0,-1,1658,337,0,0
441,687,0,0,0,0,0,0,0,0,0,-1,1665,337,0,0
448,687,0,0,0,0,0,0,0,0,0,-1,1672,337,0,0
455,687,0,0,0,0,0,0,0,0,0,-1,1679,337,0,0
462,687,0,0,0,0,0,0,0,0,0,-1,1686,337,0,0
469,687,0,0,0,0,0,0,0,0,0,-1,1693,337,0,0
476,687,0,0,0,0,0,0,0,0,0,-1,1700,337,0,0
483,687,0,0,0,0,0,0,0,0,0,-1,1707,337,0,0
490,687,0,0,0,0,0,0,0,0,0,-1,1714,337,0,0
497,687,0,0,0,0,0,0,0,0,0,-1,1721,337,0,0
504,687,0,0,0,0,0,0,0,0,0,-1,1728,337,0,0
511,687,0,0,0,0,0,0,0,0,0,-1,1735,337,0,0
518,687,0,0,0,0,0,0,0,0,0,-1,1742,337,0,0
525,687,0,0,0,0,0,0,0,0,0,-1,1749,337,0,0
532,687,0,0,0,0,0,0,0,0,0,-1,1756,337,0,0
539,687,0,0,0,0,0,0,0,0,0,-1,1763,337,0,0
546,687,0,0,0,0,0,0,0,0,0,-1,1770,337,0,0
553,687,0,0,0,0,0,0,0,0,0,-1,1777,337,0,0
560,687,0,0,0,0,0,0,0,0,0,-1,1784,337,0,0
567,687,0,0,0,0,0,0,0,0,0,-1,1791,337,0,0
574,687,0,0,0,0,0,0,0,0,0,-1,1798,337,0,0
581,687,0,0,0,0,0,0,0,0,0,-1,1805,337,0,0
588,687,0,0,0,0,0,0,0,0,0,-1,1812,337,0,0
595,687,0,0,0,0,0,0,0,0,0,-1,1819,337,0,0
602,687,0,0,0,0,0,0,0,0,0,-1,1826,337,0,0
609,687,0,0,0,0,0,0,0,0,0,-1,1833,337,0,0
616,687,0,0,0,0,0,0,0,0,0,-1,1840,337,0,0
623,687,0,0,0,0,0,0,0,0,0,-1,1847,337,0,0
630,687,0,0,0,0,0,0,0,0,0,-1,1854,337,0,0
637,687,0,0,0,0,0,0,0,0,0,-1,1861,337,0,0
644,687,0,0,0,0,0,0,0,0,0,-1,1868,337,0,0
651,687,0,0,0,0,0,0,0,0,0,-1,1875,337,0,0
658,687,0,0,0,0,0,0,0,0,0,-1,1882,337,0,0
665,687,0,0,0,0,0,0,0,0,0,-1,1889,337,0,0
672,687,0,0,0,0,0,0,0,0,0,-1,1896,337,0,0
679,687,0,0,0,0,0,0,0,0,0,-1,1903,337,0,0
686,687,0,0,0,0,0,0,0,0,0,-1,1910,337,0,0
693,687,0,0,0,0,0,0,0,0,0,-1,1917,337,0,0
700,687,0,0,0,0,0,0,0,0,0,-1,1924,337,0,0
707,687,0,0,0,0,0,0,0,0,0,-1,1931,337,0,0
714,687,0,0,0,0,0,0,0,0,0,-1,1938,337,0,0
721,687,0,0,0,0,0,0,0,0,0,-1,1945,337,0,0
728,687,0,0,0,0,0,0,0,0,0,-1,1952,337,0,0
735,687,0,0,0,0,0,0,0,0,0,-1,1959,337,0,0
742,687,0,0,0,0,0,0,0,0,0,-1,1966,337,0,0
749,687,0,0,0,0,0,0,0,0,0,-1,1973,337,0,0
756,687,0,0,0,0,0,0,0,0,0,-1,1980,337,0,0
763,687,0,0,0,0,0,0,0,0,0,-1,1987,337,0,0
770,687,0,0,0,0,0,0,0,0,0,-1,1994,337,0,0
777,687,0,0,0,0,0,0,0,0,0,-1,2001,337,0,0
784,687,0,0,0,0,0,0,0,0,0,-1,2008,337,0,0
791,687,0,0,0,0,0,0,0,0,0,-1,2015,337,0,0
798,687,0,0,0,0,0,0,0,0,0,-1,2022,337,0,0
805,687,0,0,0,0,0,0,0,0,0,-1,2029,337,0,0
812,687,0,0,0,0,0,0,0,0,0,-1,2036,337,0,0
-700,680,0,0,0,0,0,0,0,0,0,-1,524,344,0,0
-693,680,0,0,0,0,0,0,0,0,0,-1,531,344,0,0
-686,680,0,0,0,0,0,0,0,0,0,-1,538,344,0,0
-679,680,0,0,0,0,0,0,0,0,0,-1,545,344,0,0
-672,680,0,0,0,0,0,0,0,0,0,-1,552,344,0,0
-665,680,0,0,0,0,0,0,0,0,0,-1,559,344,0,0
-658,680,0,0,0,0,0,0,0,0,0,-1,566,344,0,0
-651,680,0,0,0,0,0,0,0,0,0,-1,573,344,0,0
-644,680,0,0,0,0,0,0,0,0,0,-1,580,344,0,0
-637,680,0,0,0,0,0,0,0,0,0,-1,587,344,0,0
-630,680,0,0,0,0,0,0,0,0,0,-1,594,344,0,0
-623,680,0,0,0,0,0,0,0,0,0,-1,601,344,0,0
-616,680,0,0,0,0,0,0,0,0,0,-1,608,344,0,0
-609,680,0,0,0,0,0,0,0,0,0,-1,615,344,0,0
-602,680,0,0,0,0,0,0,0,0,0,-1,622,344,0,0
-595,680,0,0,0,0,0,0,0,0,0,-1,629,344,0,0
-588,680,0,0,0,0,0,0,0,0,0,-1,636,344,0,0
-581,680,0,0,0,0,0,0,0,0,0,-1,643,344,0,0
-574,680,0,0,0,0,0,0,0,0,0,-1,650,344,0,0
-567,680,0,0,0,0,0,0,0,0,0,-1,657,344,0,0
-560,680,0,0,0,0,0,0,0,0,0,-1,664,344,0,0
-553,680,0,0,0,0,0,0,0,0,0,-1,671,344,0,0
-546,680,0,0,0,0,0,0,0,0,0,-1,678,344,0,0
-539,680,0,0,0,0,0,0,0,0,0,-1,685,344,0,0
-532,680,0,0,0,0,0,0,0,0,0,-1,692,344,0,0
-525,680,0,0,0,0,0,0,0,0,0,-1,699,344,0,0
-518,680,0,0,0,0,0,0,0,0,0,-1,706,344,0,0
-511,680,0,0,0,0,0,0,0,0,0,-1,713,344,0,0
-504,680,0,0,0,0,0,0,0,0,0,-1,720,344,0,0
-497,680,0,0,0,0,0,0,0,0,0,-1,727,344,0,0
-490,680,0,0,0,0,0,0,0,0,0,-1,734,344,0,0
-483,680,0,0,0,0,0,0,0,0,0,-1,741,344,0,0
-476,680,0,0,0,0,0,0,0,0,0,-1,748,344,0,0
-469,680,0,0,0,0,0,0,0,0,0,-1,755,344,0,0
-462,680,0,0,0,0,0,0,0,0,0,-1,762,344,0,0
-455,680,0,0,0,0,0,0,0,0,0,-1,769,344,0,0
-448,680,0,0,0,0,0,0,0,0,0,-1,776,344,0,0
-441,680,0,0,0,0,0,0,0,0,0,-1,783,344,0,0
-434,680,0,0,0,0,0,0,0,0,0,-1,790,344,0,0
-427,680,0,0,0,0,0,0,0,0,0,-1,797,344,0,0
-420,680,0,0,0,0,0,0,0,0,0,-1,804,344,0,0
-413,680,0,0,0,0,0,0,0,0,0,-1,811,344,0,0
-406,680,0,0,0,0,0,0,0,0,0,-1,818,344,0,0
-399,680,0,0,0,0,0,0,0,0,0,-1,825,344,0,0
-392,680,0,0,0,0,0,0,0,0,0,-1,832,344,0,0
-385,680,0,0,0,0,0,0,0,0,0,-1,839,344,0,0
-378,680,0,0,0,0,0,0,0,0,0,-1,846,344,0,0
-371,680,0,0,0,0,0,0,0,0,0,-1,853,344,0,0
-364,680,0,0,0,0,0,0,0,0,0,-1,860,344,0,0
-357,680,0,0,0,0,0,0,0,0,0,-1,867,344,0,0
-350,680,0,0,0,0,0,0,0,0,0,-1,874,344,0,0
-343,680,0,0,0,0,0,0,0,0,0,-1,881,344,0,0
-336,680,0,0,0,0,0,0,0,0,0,-1,888,344,0,0
-329,680,0,0,0,0,0,0,0,0,0,-1,895,344,0,0
-322,680,0,0,0,0,0,0,0,0,0,-1,902,344,0,0
-315,680,0,0,0,0,0,0,0,0,0,-1,909,344,0,0
-308,680,0,0,0,0,0,0,0,0,0,-1,916,344,0,0
-301,680,0,0,0,0,0,0,0,0,0,-1,923,344,0,0
-294,680,0,0,0,0,0,0,0,0,0,-1,930,344,0,0
-287,680,0,0,0,0,0,0,0,0,0,-1,937,344,0,0
-280,680,0,0,0,0,0,0,0,0,0,-1,944,344,0,0
-273,680,0,0,0,0,0,0,0,0,0,-1,951,344,0,0
-266,680,0,0,0,0,0,0,0,0,0,-1,958,344,0,0
-259,680,0,0,0,0,0,0,0,0,0,-1,965,344,0,0
-252,680,0,0,0,0,0,0,0,0,0,-1,972,344,0,0
-245,680,0,0,0,0,0,0,0,0,0,-1,979,344,0,0
-238,680,0,0,0,0,0,0,0,0,0,-1,986,344,0,0
-231,680,0,0,0,0,0,0,0,0,0,-1,993,344,0,0
-224,680,0,0,0,0,0,0,0,0,0,-1,1000,344,0,0
-217,680,0,0,0,0,0,0,0,0,0,-1,1007,344,0,0
-210,680,0,0,0,0,0,0,0,0,0,-1,1014,344,0,0
-203,680,0,0,0,0,0,0,0,0,0,-1,1021,344,0,0
-196,680,0,0,0,0,0,0,0,0,0,-1,1028,344,0,0
-189,680,0,0,0,0,0,0,0,0,0,-1,1035,344,0,0
-182,680,0,0,0,0,0,0,0,0,0,-1,1042,344,0,0
-175,680,0,0,0,0,0,0,0,0,0,-1,1049,344,0,0
-168,680,0,0,0,0,0,0,0,0,0,-1,1056,344,0,0
-161,680,0,0,0,0,0,0,0,0,0,-1,1063,344,0,0
-154,680,2.25244,-29.1442,0,0,0,0,0,0,0,-1,1070,344,2.25241,29.1442
-147,680,9.29614,-33.0369,0,0,0,0,0,0,0,-1,1077,344,9.29612,33.0369
-140,680,6.98022,-36.6899,0,0,0,0,0,0,0,-1,1084,344,6.98023,36.6899
-133,680,1.85693,-39.7233,0,0,0,0,0,0,0,-1,1091,344,1.85699,39.7233
-126,680,2.30017,-38.3751,0,0,0,0,0,0,0,-1,1098,344,2.30011,38.3751
-119,680,2.74329,-37.0269,0,0,0,0,0,0,0,-1,1105,344,2.74323,37.0269
-112,680,7.7467,-32.4407,0,0,0,0,0,0,0,-1,1112,344,7.74668,32.4407
-105,680,20.6371,-48.461,0,0,0,0,0,0,0,-1,1119,344,20.6371,48.461
-98,680,14.2684,-41.9997,0,0,0,0,0,0,0,-1,1126,344,14.2685,41.9997
-91,680,7.89648,-35.5147,0,0,0,0,0,0,0,-1,1133,344,7.8965,35.5147
-84,680,1.47168,-29.471,0,0,0,0,0,0,0,-1,1140,344,1.47163,29.471
-77,680,-4.95337,-23.3355,0,0,0,0,0,0,0,-1,1147,344,-4.9534,23.3356
-70,680,-11.5099,-17.4337,0,0,0,0,0,0,0,-1,1154,344,-11.5098,17.4338
-63,680,-17.2391,-1.43134,0,0,0,0,0,0,0,-1,1161,344,-17.2392,1.43133
-56,680,-6.96912,-8.83356,0,0,0,0,0,0,0,-1,1168,344,-6.96907,8.83354
-49,680,-6.7677,-2.24063,0,0,0,0,0,0,0,-1,1175,344,-6.76772,2.24063
-42,680,-1.02368,0.618805,0,0,0,0,0,0,0,-1,1182,344,-1.0237,-0.618797
-35,680,-0.947876,-0.942719,0,0,0,0,0,0,0,-1,1189,344,-0.947842,0.942731
-28,680,-1.46118,-1.10574,0,0,0,0,0,0,0,-1,1196,344,-1.4612,1.10575
-21,680,8.66602,-57.5111,0,0,0,0,0,0,0,-1,1203,344,8.66601,57.5111
-14,680,8.552,-57.8918,0,0,0,0,0,0,0,-1,1210,344,8.55205,57.8918
-7,680,8.43811,-58.2726,0,0,0,0,0,0,0,-1,1217,344,8.4381,58.2725
0,680,8.44568,-58.3319,0,0,0,0,0,0,0,-1,1224,344,8.44562,58.3319
7,680,9.29077,-61.4413,0,0,0,0,0,0,0,-1,1231,344,9.29074,61.4413
14,680,8.37842,-58.217,-0.0333763,0.0882864,0.0396119,0.100047,-0.0451367,1.2822,0.0857968,0.0423974,1238,344,8.37847,58.217
21,680,8.20129,-58.9392,-0.027077,0.0879746,0.0358332,0.0982222,-0.0373247,1.29225,0.0808478,0.0491981,1245,344,8.20131,58.9392
28,680,8.16272,-59.1656,0,0,0,0,0,0,0,-1,1252,344,8.16267,59.1656
35,680,7.92688,-58.8155,0,0,0,0,0,0,0,-1,1259,344,7.92691,58.8155
42,680,7.68103,-58.9549,-0.00722804,0.0853993,0.0263377,0.0923644,-0.0141931,1.31226,0.0668117,0.0467833,1266,344,7.68098,58.9549
49,680,7.26465,-59.266,-0.00125738,0.0854938,0.0239082,0.0916464,-0.00741001,1.31892,0.0637114,0.0418524,1273,344,7.26462,59.266
56,680,7.29333,-59.4572,0.00427644,0.0852521,0.0218923,0.0907919,-0.00126332,1.32295,0.0609534,0.0383427,1280,344,7.29331,59.4573
63,680,7.43628,-58.979,0.00900474,0.083855,0.0196655,0.0887072,0.00415253,1.32889,0.0578037,0.0377658,1287,344,7.43629,58.979
70,680,7.60583,-58.8235,0.0118378,0.081968,0.0181597,0.0863913,0.00741445,1.33187,0.0552887,0.037941,1294,344,7.60586,58.8235
77,680,7.65686,-58.4467,0.0123205,0.0792211,0.0170916,0.0833347,0.00820693,1.33461,0.0530329,0.0437903,1301,344,7.65685,58.4467
84,680,6.95056,-59.1779,0,0,0,0,0,0,0,-1,1308,344,6.95053,59.1779
91,680,8.8606,-59.4919,0,0,0,0,0,0,0,-1,1315,344,8.86055,59.4919
98,680,9.38733,-60.0023,0,0,0,0,0,0,0,-1,1322,344,9.38735,60.0023
105,680,10.1569,-60.4123,0,0,0,0,0,0,0,-1,1329,344,10.1569,60.4123
112,680,3.15601,-58.171,0,0,0,0,0,0,0,-1,1336,344,3.156,58.171
119,680,1.91736,-57.5318,0,0,0,0,0,0,0,-1,1343,344,1.91732,57.5318
126,680,2.32922,-58.0363,0,0,0,0,0,0,0,-1,1350,344,2.32922,58.0363
133,680,5.42688,-57.3586,0,0,0,0,0,0,0,-1,1357,344,5.42687,57.3587
140,680,5.39539,-57.0496,0,0,0,0,0,0,0,-1,1364,344,5.39537,57.0496
147,680,5.35596,-56.791,0,0,0,0,0,0,0,-1,1371,344,5.35601,56.791
154,680,5.59631,-56.5157,0,0,0,0,0,0,0,-1,1378,344,5.5963,56.5157
161,680,5.56555,-51.1379,0,0,0,0,0,0,0,-1,1385,344,5.56556,51.1379
168,680,29.4142,-2.51651,0,0,0,0,0,0,0,-1,1392,344,29.4142,2.51652
175,680,6.66541,0.942078,0,0,0,0,0,0,0,-1,1399,344,6.66538,-0.942088
182,680,6.52917,0.532379,0,0,0,0,0,0,0,-1,1406,344,6.52922,-0.532385
189,680,7.55884,4.77695,0,0,0,0,0,0,0,-1,1413,344,7.55886,-4.77694
196,680,6.55627,3.35254,0,0,0,0,0,0,0,-1,1420,344,6.55622,-3.35255
203,680,5.7334,1.90753,0,0,0,0,0,0,0,-1,1427,344,5.73341,-1.90754
210,680,5.27515,0.493622,0,0,0,0,0,0,0,-1,1434,344,5.27514,-0.493632
217,680,6.56384,-0.374176,0,0,0,0,0,0,0,-1,1441,344,6.56379,0.374176
224,680,3.9491,-0.640228,0,0,0,0,0,0,0,-1,1448,344,3.94908,0.64024
231,680,4.24866,-1.96881,0,0,0,0,0,0,0,-1,1455,344,4.2486,1.96882
238,680,4.29333,-3.23984,0,0,0,0,0,0,0,-1,1462,344,4.29332,3.23984
245,680,2.44397,0.985382,0,0,0,0,0,0,0,-1,1469,344,2.44402,-0.985394
252,680,3.07349,2.18951,0,0,0,0,0,0,0,-1,1476,344,3.0735,-2.18952
259,680,2.82971,1.30682,0,0,0,0,0,0,0,-1,1483,344,2.82972,-1.30684
266,680,2.67554,1.44067,0,0,0,0,0,0,0,-1,1490,344,2.67551,-1.44066
273,680,2.46411,1.54666,0,0,0,0,0,0,0,-1,1497,344,2.46407,-1.54666
280,680,0,0,0,0,0,0,0,0,0,-1,1504,344,0,0
287,680,0,0,0,0,0,0,0,0,0,-1,1511,344,0,0
294,680,0,0,0,0,0,0,0,0,0,-1,1518,344,0,0
301,680,0,0,0,0,0,0,0,0,0,-1,1525,344,0,0
308,680,0,0,0,0,0,0,0,0,0,-1,1532,344,0,0
315,680,0,0,0,0,0,0,0,0,0,-1,1539,344,0,0
322,680,0,0,0,0,0,0,0,0,0,-1,1546,344,0,0
329,680,0,0,0,0,0,0,0,0,0,-1,1553,344,0,0
336,680,0,0,0,0,0,0,0,0,0,-1,1560,344,0,0
343,680,0,0,0,0,0,0,0,0,0,-1,1567,344,0,0
350,680,0,0,0,0,0,0,0,0,0,-1,1574,344,0,0
357,680,0,0,0,0,0,0,0,0,0,-1,1581,344,0,0
364,680,0,0,0,0,0,0,0,0,0,-1,1588,344,0,0
371,680,0,0,0,0,0,0,0,0,0,-1,1595,344,0,0
378,680,0,0,0,0,0,0,0,0,0,-1,1602,344,0,0
385,680,0,0,0,0,0,0,0,0,0,-1,1609,344,0,0
392,680,0,0,0,0,0,0,0,0,0,-1,1616,344,0,0
399,680,0,0,0,0,0,0,0,0,0,-1,1623,344,0,0
406,680,0,0,0,0,0,0,0,0,0,-1,1630,344,0,0
413,680,0,0,0,0,0,0,0,0,0,-1,1637,344,0,0
420,680,0,0,0,0,0,0,0,0,0,-1,1644,344,0,0
427,680,0,0,0,0,0,0,0,0,0,-1,1651,344,0,0
434,680,0,0,0,0,0,0,0,0,0,-1,1658,344,0,0
441,680,0,0,0,0,0,0,0,0,0,-1,1665,344,0,0
448,680,0,0,0,0,0,0,0,0,0,-1,1672,344,0,0
455,680,0,0,0,0,0,0,0,0,0,-1,1679,344,0,0
462,680,0,0,0,0,0,0,0,0,0,-1,1686,344,0,0
469,680,0,0,0,0,0,0,0,0,0,-1,1693,344,0,0
476,680,0,0,0,0,0,0,0,0,0,-1,1700,344,0,0
483,680,0,0,0,0,0,0,0,0,0,-1,1707,344,0,0
490,680,0,0,0,0,0,0,0,0,0,-1,1714,344,0,0
497,680,0,0,0,0,0,0,0,0,0,-1,1721,344,0,0
504,680,0,0,0,0,0,0,0,0,0,-1,1728,344,0,0
511,680,0,0,0,0,0,0,0,0,0,-1,1735,344,0,0
518,680,0,0,0,0,0,0,0,0,0,-1,1742,344,0,0
525,680,0,0,0,0,0,0,0,0,0,-1,1749,344,0,0
532,680,0,0,0,0,0,0,0,0,0,-1,1756,344,0,0
539,680,0,0,0,0,0,0,0,0,0,-1,1763,344,0,0
546,680,0,0,0,0,0,0,0,0,0,-1,1770,344,0,0
553,680,0,0,0,0,0,0,0,0,0,-1,1777,344,0,0
560,680,0,0,0,0,0,0,0,0,0,-1,1784,344,0,0
567,680,0,0,0,0,0,0,0,0,0,-1,1791,344,0,0
574,680,0,0,0,0,0,0,0,0,0,-1,1798,344,0,0
581,680,0,0,0,0,0,0,0,0,0,-1,1805,344,0,0
588,680,0,0,0,0,0,0,0,0,0,-1,1812,344,0,0
595,680,0,0,0,0,0,0,0,0,0,-1,1819,344,0,0
602,680,0,0,0,0,0,0,0,0,0,-1,1826,344,0,0
609,680,0,0,0,0,0,0,0,0,0,-1,1833,344,0,0
616,680,0,0,0,0,0,0,0,0,0,-1,1840,344,0,0
623,680,0,0,0,0,0,0,0,0,0,-1,1847,344,0,0
630,680,0,0,0,0,0,0,0,0,0,-1,1854,344,0,0
637,680,0,0,0,0,0,0,0,0,0,-1,1861,344,0,0
644,680,0,0,0,0,0,0,0,0,0,-1,1868,344,0,0
651,680,0,0,0,0,0,0,0,0,0,-1,1875,344,0,0
658,680,0,0,0,0,0,0,0,0,0,-1,1882,344,0,0
665,680,0,0,0,0,0,0,0,0,0,-1,1889,344,0,0
672,680,0,0,0,0,0,0,0,0,0,-1,1896,344,0,0
679,680,0,0,0,0,0,0,0,0,0,-1,1903,344,0,0
686,680,0,0,0,0,0,0,0,0,0,-1,1910,344,0,0
693,680,0,0,0,0,0,0,0,0,0,-1,1917,344,0,0
700,680,0,0,0,0,0,0,0,0,0,-1,1924,344,0,0
707,680,0,0,0,0,0,0,0,0,0,-1,1931,344,0,0
714,680,0,0,0,0,0,0,0,0,0,-1,1938,344,0,0
721,680,0,0,0,0,0,0,0,0,0,-1,1945,344,0,0
728,680,0,0,0,0,0,0,0,0,0,-1,1952,344,0,0
735,680,0,0,0,0,0,0,0,0,0,-1,1959,344,0,0
742,680,0,0,0,0,0,0,0,0,0,-1,1966,344,0,0
749,680,0,0,0,0,0,0,0,0,0,-1,1973,344,0,0
756,680,0,0,0,0,0,0,0,0,0,-1,1980,344,0,0
763,680,0,0,0,0,0,0,0,0,0,-1,1987,344,0,0
770,680,0,0,0,0,0,0,0,0,0,-1,1994,344,0,0
777,680,0,0,0,0,0,0,0,0,0,-1,2001,344,0,0
784,680,0,0,0,0,0,0,0,0,0,-1,2008,344,0,0
791,680,0,0,0,0,0,0,0,0,0,-1,2015,344,0,0
798,680,0,0,0,0,0,0,0,0,0,-1,2022,344,0,0
805,680,0,0,0,0,0,0,0,0,0,-1,2029,344,0,0
812,680,0,0,0,0,0,0,0,0,0,-1,2036,344,0,0
-700,673,0,0,0,0,0,0,0,0,0,-1,524,351,0,0
-693,673,0,0,0,0,0,0,0,0,0,-1,531,351,0,0
-686,673,0,0,0,0,0,0,0,0,0,-1,538,351,0,0
-679,673,0,0,0,0,0,0,0,0,0,-1,545,351,0,0
-672,673,0,0,0,0,0,0,0,0,0,-1,552,351,0,0
-665,673,0,0,0,0,0,0,0,0,0,-1,559,351,0,0
-658,673,0,0,0,0,0,0,0,0,0,-1,566,351,0,0
-651,673,0,0,0,0,0,0,0,0,0,-1,573,351,0,0
-644,673,0,0,0,0,0,0,0,0,0,-1,580,351,0,0
-637,673,0,0,0,0,0,0,0,0,0,-1,587,351,0,0
-630,673,0,0,0,0,0,0,0,0,0,-1,594,351,0,0
-623,673,0,0,0,0,0,0,0,0,0,-1,601,351,0,0
-616,673,0,0,0,0,0,0,0,0,0,-1,608,351,0,0
-609,673,0,0,0,0,0,0,0,0,0,-1,615,351,0,0
-602,673,0,0,0,0,0,0,0,0,0,-1,622,351,0,0
-595,673,0,0,0,0,0,0,0,0,0,-1,629,351,0,0
-588,673,0,0,0,0,0,0,0,0,0,-1,636,351,0,0
-581,673,0,0,0,0,0,0,0,0,0,-1,643,351,0,0
-574,673,0,0,0,0,0,0,0,0,0,-1,650,351,0,0
-567,673,0,0,0,0,0,0,0,0,0,-1,657,351,0,0
-560,673,0,0,0,0,0,0,0,0,0,-1,664,351,0,0
-553,673,0,0,0,0,0,0,0,0,0,-1,671,351,0,0
-546,673,0,0,0,0,0,0,0,0,0,-1,678,351,0,0
-539,673,0,0,0,0,0,0,0,0,0,-1,685,351,0,0
-532,673,0,0,0,0,0,0,0,0,0,-1,692,351,0,0
-525,673,0,0,0,0,0,0,0,0,0,-1,699,351,0,0
-518,673,0,0,0,0,0,0,0,0,0,-1,706,351,0,0
-511,673,0,0,0,0,0,0,0,0,0,-1,713,351,0,0
-504,673,0,0,0,0,0,0,0,0,0,-1,720,351,0,0
-497,673,0,0,0,0,0,0,0,0,0,-1,727,351,0,0
-490,673,0,0,0,0,0,0,0,0,0,-1,734,351,0,0
-483,673,0,0,0,0,0,0,0,0,0,-1,741,351,0,0
-476,673,0,0,0,0,0,0,0,0,0,-1,748,351,0,0
-469,673,0,0,0,0,0,0,0,0,0,-1,755,351,0,0
-462,673,0,0,0,0,0,0,0,0,0,-1,762,351,0,0
-455,673,0,0,0,0,0,0,0,0,0,-1,769,351,0,0
-448,673,0,0,0,0,0,0,0,0,0,-1,776,351,0,0
-441,673,0,0,0,0,0,0,0,0,0,-1,783,351,0,0
-434,673,0,0,0,0,0,0,0,0,0,-1,790,351,0,0
-427,673,0,0,0,0,0,0,0,0,0,-1,797,351,0,0
-420,673,0,0,0,0,0,0,0,0,0,-1,804,351,0,0
-413,673,0,0,0,0,0,0,0,0,0,-1,811,351,0,0
-406,673,0,0,0,0,0,0,0,0,0,-1,818,351,0,0
-399,673,0,0,0,0,0,0,0,0,0,-1,825,351,0,0
-392,673,0,0,0,0,0,0,0,0,0,-1,832,351,0,0
-385,673,0,0,0,0,0,0,0,0,0,-1,839,351,0,0
-378,673,0,0,0,0,0,0,0,0,0,-1,846,351,0,0
-371,673,0,0,0,0,0,0,0,0,0,-1,853,351,0,0
-364,673,0,0,0,0,0,0,0,0,0,-1,860,351,0,0
-357,673,0,0,0,0,0,0,0,0,0,-1,867,351,0,0
-350,673,0,0,0,0,0,0,0,0,0,-1,874,351,0,0
-343,673,0,0,0,0,0,0,0,0,0,-1,881,351,0,0
-336,673,0,0,0,0,0,0,0,0,0,-1,888,351,0,0
-329,673,0,0,0,0,0,0,0,0,0,-1,895,351,0,0
-322,673,0,0,0,0,0,0,0,0,0,-1,902,351,0,0
-315,673,0,0,0,0,0,0,0,0,0,-1,909,351,0,0
-308,673,0,0,0,0,0,0,0,0,0,-1,916,351,0,0
-301,673,0,0,0,0,0,0,0,0,0,-1,923,351,0,0
-294,673,0,0,0,0,0,0,0,0,0,-1,930,351,0,0
-287,673,0,0,0,0,0,0,0,0,0,-1,937,351,0,0
-280,673,0,0,0,0,0,0,0,0,0,-1,944,351,0,0
-273,673,0,0,0,0,0,0,0,0,0,-1,951,351,0,0
-266,673,0,0,0,0,0,0,0,0,0,-1,958,351,0,0
-259,673,0,0,0,0,0,0,0,0,0,-1,965,351,0,0
-252,673,0,0,0,0,0,0,0,0,0,-1,972,351,0,0
-245,673,0,0,0,0,0,0,0,0,0,-1,979,351,0,0
-238,673,0,0,0,0,0,0,0,0,0,-1,986,351,0,0
-231,673,0,0,0,0,0,0,0,0,0,-1,993,351,0,0
-224,673,0,0,0,0,0,0,0,0,0,-1,1000,351,0,0
-217,673,0,0,0,0,0,0,0,0,0,-1,1007,351,0,0
-210,673,0,0,0,0,0,0,0,0,0,-1,1014,351,0,0
-203,673,0,0,0,0,0,0,0,0,0,-1,1021,351,0,0
-196,673,0,0,0,0,0,0,0,0,0,-1,1028,351,0,0
-189,673,0,0,0,0,0,0,0,0,0,-1,1035,351,0,0
-182,673,0,0,0,0,0,0,0,0,0,-1,1042,351,0,0
-175,673,7.10449,-31.8279,0,0,0,0,0,0,0,-1,1049,351,7.10448,31.8279
-168,673,7.33081,-32.7122,0,0,0,0,0,0,0,-1,1056,351,7.33085,32.7122
-161,673,7.8938,-33.5352,0,0,0,0,0,0,0,-1,1063,351,7.89385,33.5352
-154,673,8.80566,-35.3518,0,0,0,0,0,0,0,-1,1070,351,8.80563,35.3518
-147,673,2.89221,-37.7351,0,0,0,0,0,0,0,-1,1077,351,2.89224,37.7351
-140,673,3.35046,-37.7151,0,0,0,0,0,0,0,-1,1084,351,3.35046,37.715
-133,673,3.35339,-39.0288,0,0,0,0,0,0,0,-1,1091,351,3.35342,39.0288
-126,673,3.7533,-38.0453,0,0,0,0,0,0,0,-1,1098,351,3.7533,38.0453
-119,673,4.1532,-37.0618,0,0,0,0,0,0,0,-1,1105,351,4.15318,37.0618
-112,673,7.27234,-32.5801,0,0,0,0,0,0,0,-1,1112,351,7.27231,32.5801
-105,673,21.1144,-43.3143,0,0,0,0,0,0,0,-1,1119,351,21.1143,43.3143
-98,673,14.8014,-36.7519,0,0,0,0,0,0,0,-1,1126,351,14.8014,36.7519
-91,673,8.54944,-29.9639,0,0,0,0,0,0,0,-1,1133,351,8.54949,29.9639
-84,673,2.17102,-24.3204,0,0,0,0,0,0,0,-1,1140,351,2.17107,24.3204
-77,673,-4.25378,-18.8346,0,0,0,0,0,0,0,-1,1147,351,-4.25381,18.8346
-70,673,-10.7933,-13.6681,0,0,0,0,0,0,0,-1,1154,351,-10.7934,13.6681
-63,673,-17.3896,-8.24469,0,0,0,0,0,0,0,-1,1161,351,-17.3896,8.2447
-56,673,-18.0282,2.79053,0,0,0,0,0,0,0,-1,1168,351,-18.0283,-2.79052
-49,673,-0.926758,-0.115448,0,0,0,0,0,0,0,-1,1175,351,-0.926732,0.115444
-42,673,-1.15015,0.289917,0,0,0,0,0,0,0,-1,1182,351,-1.15017,-0.289932
-35,673,-0.919556,-1.00711,0,0,0,0,0,0,0,-1,1189,351,-0.919514,1.00711
-28,673,5.28918,-39.2331,0,0,0,0,0,0,0,-1,1196,351,5.28924,39.2331
-21,673,8.63013,-58.0894,0,0,0,0,0,0,0,-1,1203,351,8.63015,58.0895
-14,673,8.39587,-58.3728,-0.0314327,0.0675595,0.027758,0.0748117,-0.038685,1.31524,0.0666247,0.0479554,1210,351,8.39587,58.3728
-7,673,8.2998,-58.8511,-0.0320564,0.0693779,0.0286832,0.076927,-0.0396055,1.31344,0.0684206,0.0459518,1217,351,8.29982,58.8511
0,673,8.14063,-59.2162,0,0,0,0,0,0,0,-1,1224,351,8.14062,59.2162
7,673,7.98975,-59.1432,0,0,0,0,0,0,0,-1,1231,351,7.98971,59.1432
14,673,8.07605,-58.9388,-0.0257844,0.0697748,0.0263831,0.076575,-0.0325847,1.31854,0.0647068,0.0467005,1238,351,8.07605,58.9388
21,673,7.93384,-59.4122,-0.0213405,0.0704908,0.0242784,0.0765144,-0.0273641,1.3276,0.0621718,0.0347994,1245,351,7.93379,59.4122
28,673,7.91663,-59.5905,-0.0163653,0.0711285,0.0222846,0.0764774,-0.0217141,1.33523,0.0595574,0.0350259,1252,351,7.91668,59.5905
35,673,7.91687,-59.4354,0,0,0,0,0,0,0,-1,1259,351,7.91691,59.4354
42,673,7.54456,-59.6592,-0.00688124,0.0707144,0.0187409,0.0750036,-0.0111704,1.3458,0.0541116,0.0426162,1266,351,7.54461,59.6592
49,673,7.40991,-59.8229,-0.00246757,0.0711763,0.0173403,0.075055,-0.00634627,1.35074,0.0522806,0.0248288,1273,351,7.40995,59.8229
56,673,7.38293,-59.8712,0.00156489,0.0712444,0.016156,0.0748081,-0.00199881,1.35369,0.0505515,0.0182291,1280,351,7.38294,59.8712
63,673,7.3916,-59.6495,0.0050935,0.0703044,0.0147182,0.0734724,0.00192549,1.35879,0.0483526,0.0241826,1287,351,7.39157,59.6495
70,673,7.34644,-59.5524,0.00733204,0.0688438,0.0137748,0.0717876,0.00438823,1.36025,0.0464648,0.0384671,1294,351,7.34642,59.5524
77,673,7.39136,-59.2679,0.00786166,0.066585,0.0130921,0.0693716,0.00507505,1.36108,0.0446523,0.0430575,1301,351,7.39135,59.2679
84,673,7.09326,-59.6158,0.0066241,0.0648873,0.0117633,0.0671727,0.00433872,1.37891,0.0434079,0.0477537,1308,351,7.0932,59.6158
91,673,6.60034,-60.003,0,0,0,0,0,0,0,-1,1315,351,6.60032,60.003
98,673,6.69861,-59.9359,0,0,0,0,0,0,0,-1,1322,351,6.69858,59.9359
105,673,6.42236,-59.6329,0,0,0,0,0,0,0,-1,1329,351,6.42238,59.6329
112,673,3.22485,-58.9245,0,0,0,0,0,0,0,-1,1336,351,3.22481,58.9245
119,673,2.51001,-58.6554,0,0,0,0,0,0,0,-1,1343,351,2.50996,58.6554
126,673,2.2959,-57.8765,0,0,0,0,0,0,0,-1,1350,351,2.29591,57.8765
133,673,2.77563,-57.2675,0,0,0,0,0,0,0,-1,1357,351,2.7756,57.2675
140,673,5.80847,-58.6352,0,0,0,0,0,0,0,-1,1364,351,5.8085,58.6352
147,673,5.69885,-57.7414,-0.00871492,0.06288,0.000593371,0.0628849,-0.00871983,1.56251,0.0451117,0.0442661,1371,351,5.69886,57.7414
154,673,5.79553,-57.2921,-0.00891278,0.0636908,0.00114316,0.0637088,-0.00893078,1.55506,0.045741,0.0437951,1378,351,5.79554,57.2921
161,673,5.8844,-57.0186,0,0,0,0,0,0,0,-1,1385,351,5.88437,57.0186
168,673,6.87061,1.83954,0,0,0,0,0,0,0,-1,1392,351,6.87063,-1.83953
175,673,6.6228,1.1459,0,0,0,0,0,0,0,-1,1399,351,6.62276,-1.14591
182,673,6.37244,0.796112,0,0,0,0,0,0,0,-1,1406,351,6.3724,-0.796102
189,673,6.12097,0.265472,0,0,0,0,0,0,0,-1,1413,351,6.121,-0.265482
196,673,6.02173,3.12717,0,0,0,0,0,0,0,-1,1420,351,6.02176,-3.12717
203,673,5.04456,1.6351,0,0,0,0,0,0,0,-1,1427,351,5.04455,-1.63509
210,673,4.79224,0.447479,0,0,0,0,0,0,0,-1,1434,351,4.79229,-0.447469
217,673,2.01648,0.972687,0,0,0,0,0,0,0,-1,1441,351,2.01644,-0.972691
224,673,2.3689,-1.80539,0,0,0,0,0,0,0,-1,1448,351,2.36896,1.80539
231,673,2.65857,-2.18497,0,0,0,0,0,0,0,-1,1455,351,2.65852,2.18496
238,673,3.77844,-2.06088,0,0,0,0,0,0,0,-1,1462,351,3.77839,2.06088
245,673,3.5376,-0.190399,0,0,0,0,0,0,0,-1,1469,351,3.53759,0.1904
252,673,3.80518,0.55603,0,0,0,0,0,0,0,-1,1476,351,3.80519,-0.556022
259,673,3.88562,1.29617,0,0,0,0,0,0,0,-1,1483,351,3.88562,-1.29618
266,673,4.22424,2.04834,0,0,0,0,0,0,0,-1,1490,351,4.22429,-2.04834
273,673,6.07886,0.385895,0,0,0,0,0,0,0,-1,1497,351,6.0789,-0.385906
280,673,6.97534,-0.0820007,0,0,0,0,0,0,0,-1,1504,351,6.97536,0.0820122
287,673,7.66968,-0.348541,0,0,0,0,0,0,0,-1,1511,351,7.66969,0.348534
294,673,8.20996,0.28537,0,0,0,0,0,0,0,-1,1518,351,8.20993,-0.28536
301,673,0,0,0,0,0,0,0,0,0,-1,1525,351,0,0
308,673,0,0,0,0,0,0,0,0,0,-1,1532,351,0,0
315,673,0,0,0,0,0,0,0,0,0,-1,1539,351,0,0
322,673,0,0,0,0,0,0,0,0,0,-1,1546,351,0,0
329,673,0,0,0,0,0,0,0,0,0,-1,1553,351,0,0
336,673,0,0,0,0,0,0,0,0,0,-1,1560,351,0,0
343,673,0,0,0,0,0,0,0,0,0,-1,1567,351,0,0
350,673,0,0,0,0,0,0,0,0,0,-1,1574,351,0,0
357,673,0,0,0,0,0,0,0,0,0,-1,1581,351,0,0
364,673,0,0,0,0,0,0,0,0,0,-1,1588,351,0,0
371,673,0,0,0,0,0,0,0,0,0,-1,1595,351,0,0
378,673,0,0,0,0,0,0,0,0,0,-1,1602,351,0,0
385,673,0,0,0,0,0,0,0,0,0,-1,1609,351,0,0
392,673,0,0,0,0,0,0,0,0,0,-1,1616,351,0,0
399,673,0,0,0,0,0,0,0,0,0,-1,1623,351,0,0
406,673,0,0,0,0,0,0,0,0,0,-1,1630,351,0,0
413,673,0,0,0,0,0,0,0,0,0,-1,1637,351,0,0
420,673,0,0,0,0,0,0,0,0,0,-1,1644,351,0,0
427,673,0,0,0,0,0,0,0,0,0,-1,1651,351,0,0
434,673,0,0,0,0,0,0,0,0,0,-1,1658,351,0,0
441,673,0,0,0,0,0,0,0,0,0,-1,1665,351,0,0
448,673,0,0,0,0,0,0,0,0,0,-1,1672,351,0,0
455,673,0,0,0,0,0,0,0,0,0,-1,1679,351,0,0
462,673,0,0,0,0,0,0,0,0,0,-1,1686,351,0,0
469,673,0,0,0,0,0,0,0,0,0,-1,1693,351,0,0
476,673,0,0,0,0,0,0,0,0,0,-1,1700,351,0,0
483,673,0,0,0,0,0,0,0,0,0,-1,1707,351,0,0
490,673,0,0,0,0,0,0,0,0,0,-1,1714,351,0,0
497,673,0,0,0,0,0,0,0,0,0,-1,1721,351,0,0
504,673,0,0,0,0,0,0,0,0,0,-1,1728,351,0,0
511,673,0,0,0,0,0,0,0,0,0,-1,1735,351,0,0
518,673,0,0,0,0,0,0,0,0,0,-1,1742,351,0,0
525,673,0,0,0,0,0,0,0,0,0,-1,1749,351,0,0
532,673,0,0,0,0,0,0,0,0,0,-1,1756,351,0,0
539,673,0,0,0,0,0,0,0,0,0,-1,1763,351,0,0
546,673,0,0,0,0,0,0,0,0,0,-1,1770,351,0,0
553,673,0,0,0,0,0,0,0,0,0,-1,1777,351,0,0
560,673,0,0,0,0,0,0,0,0,0,-1,1784,351,0,0
567,673,0,0,0,0,0,0,0,0,0,-1,1791,351,0,0
574,673,0,0,0,0,0,0,0,0,0,-1,1798,351,0,0
581,673,0,0,0,0,0,0,0,0,0,-1,1805,351,0,0
588,673,0,0,0,0,0,0,0,0,0,-1,1812,351,0,0
595,673,0,0,0,0,0,0,0,0,0,-1,1819,351,0,0
602,673,0,0,0,0,0,0,0,0,0,-1,1826,351,0,0
609,673,0,0,0,0,0,0,0,0,0,-1,1833,351,0,0
616,673,0,0,0,0,0,0,0,0,0,-1,1840,351,0,0
623,673,0,0,0,0,0,0,0,0,0,-1,1847,351,0,0
630,673,0,0,0,0,0,0,0,0,0,-1,1854,351,0,0
637,673,0,0,0,0,0,0,0,0,0,-1,1861,351,0,0
644,673,0,0,0,0,0,0,0,0,0,-1,1868,351,0,0
651,673,0,0,0,0,0,0,0,0,0,-1,1875,351,0,0
658,673,0,0,0,0,0,0,0,0,0,-1,1882,351,0,0
665,673,0,0,0,0,0,0,0,0,0,-1,1889,351,0,0
672,673,0,0,0,0,0,0,0,0,0,-1,1896,351,0,0
679,673,0,0,0,0,0,0,0,0,0,-1,1903,351,0,0
686,673,0,0,0,0,0,0,0,0,0,-1,1910,351,0,0
693,673,0,0,0,0,0,0,0,0,0,-1,1917,351,0,0
700,673,0,0,0,0,0,0,0,0,0,-1,1924,351,0,0
707,673,0,0,0,0,0,0,0,0,0,-1,1931,351,0,0
714,673,0,0,0,0,0,0,0,0,0,-1,1938,351,0,0
721,673,0,0,0,0,0,0,0,0,0,-1,1945,351,0,0
728,673,0,0,0,0,0,0,0,0,0,-1,1952,351,0,0
735,673,0,0,0,0,0,0,0,0,0,-1,1959,351,0,0
742,673,0,0,0,0,0,0,0,0,0,-1,1966,351,0,0
749,673,0,0,0,0,0,0,0,0,0,-1,1973,351,0,0
756,673,0,0,0,0,0,0,0,0,0,-1,1980,351,0,0
763,673,0,0,0,0,0,0,0,0,0,-1,1987,351,0,0
770,673,0,0,0,0,0,0,0,0,0,-1,1994,351,0,0
777,673,0,0,0,0,0,0,0,0,0,-1,2001,351,0,0
784,673,0,0,0,0,0,0,0,0,0,-1,2008,351,0,0
791,673,0,0,0,0,0,0,0,0,0,-1,2015,351,0,0
798,673,0,0,0,0,0,0,0,0,0,-1,2022,351,0,0
805,673,0,0,0,0,0,0,0,0,0,-1,2029,351,0,0
812,673,0,0,0,0,0,0,0,0,0,-1,2036,351,0,0
-700,666,0,0,0,0,0,0,0,0,0,-1,524,358,0,0
-693,666,0,0,0,0,0,0,0,0,0,-1,531,358,0,0
-686,666,0,0,0,0,0,0,0,0,0,-1,538,358,0,0
-679,666,0,0,0,0,0,0,0,0,0,-1,545,358,0,0
-672,666,0,0,0,0,0,0,0,0,0,-1,552,358,0,0
-665,666,0,0,0,0,0,0,0,0,0,-1,559,358,0,0
-658,666,0,0,0,0,0,0,0,0,0,-1,566,358,0,0
-651,666,0,0,0,0,0,0,0,0,0,-1,573,358,0,0
-644,666,0,0,0,0,0,0,0,0,0,-1,580,358,0,0
-637,666,0,0,0,0,0,0,0,0,0,-1,587,358,0,0
-630,666,0,0,0,0,0,0,0,0,0,-1,594,358,0,0
-623,666,0,0,0,0,0,0,0,0,0,-1,601,358,0,0
-616,666,0,0,0,0,0,0,0,0,0,-1,608,358,0,0
-609,666,0,0,0,0,0,0,0,0,0,-1,615,358,0,0
-602,666,0,0,0,0,0,0,0,0,0,-1,622,358,0,0
-595,666,0,0,0,0,0,0,0,0,0,-1,629,358,0,0
-588,666,0,0,0,0,0,0,0,0,0,-1,636,358,0,0
-581,666,0,0,0,0,0,0,0,0,0,-1,643,358,0,0
-574,666,0,0,0,0,0,0,0,0,0,-1,650,358,0,0
-567,666,0,0,0,0,0,0,0,0,0,-1,657,358,0,0
-560,666,0,0,0,0,0,0,0,0,0,-1,664,358,0,0
-553,666,0,0,0,0,0,0,0,0,0,-1,671,358,0,0
-546,666,0,0,0,0,0,0,0,0,0,-1,678,358,0,0
-539,666,0,0,0,0,0,0,0,0,0,-1,685,358,0,0
-532,666,0,0,0,0,0,0,0,0,0,-1,692,358,0,0
-525,666,0,0,0,0,0,0,0,0,0,-1,699,358,0,0
-518,666,0,0,0,0,0,0,0,0,0,-1,706,358,0,0
-511,666,0,0,0,0,0,0,0,0,0,-1,713,358,0,0
-504,666,0,0,0,0,0,0,0,0,0,-1,720,358,0,0
-497,666,0,0,0,0,0,0,0,0,0,-1,727,358,0,0
-490,666,0,0,0,0,0,0,0,0,0,-1,734,358,0,0
-483,666,0,0,0,0,0,0,0,0,0,-1,741,358,0,0
-476,666,0,0,0,0,0,0,0,0,0,-1,748,358,0,0
-469,666,0,0,0,0,0,0,0,0,0,-1,755,358,0,0
-462,666,0,0,0,0,0,0,0,0,0,-1,762,358,0,0
-455,666,0,0,0,0,0,0,0,0,0,-1,769,358,0,0
-448,666,0,0,0,0,0,0,0,0,0,-1,776,358,0,0
-441,666,0,0,0,0,0,0,0,0,0,-1,783,358,0,0
-434,666,0,0,0,0,0,0,0,0,0,-1,790,358,0,0
-427,666,0,0,0,0,0,0,0,0,0,-1,797,358,0,0
-420,666,0,0,0,0,0,0,0,0,0,-1,804,358,0,0
-413,666,0,0,0,0,0,0,0,0,0,-1,811,358,0,0
-406,666,0,0,0,0,0,0,0,0,0,-1,818,358,0,0
-399,666,0,0,0,0,0,0,0,0,0,-1,825,358,0,0
-392,666,0,0,0,0,0,0,0,0,0,-1,832,358,0,0
-385,666,0,0,0,0,0,0,0,0,0,-1,839,358,0,0
-378,666,0,0,0,0,0,0,0,0,0,-1,846,358,0,0
-371,666,0,0,0,0,0,0,0,0,0,-1,853,358,0,0
-364,666,0,0,0,0,0,0,0,0,0,-1,860,358,0,0
-357,666,0,0,0,0,0,0,0,0,0,-1,867,358,0,0
-350,666,0,0,0,0,0,0,0,0,0,-1,874,358,0,0
-343,666,0,0,0,0,0,0,0,0,0,-1,881,358,0,0
-336,666,0,0,0,0,0,0,0,0,0,-1,888,358,0,0
-329,666,0,0,0,0,0,0,0,0,0,-1,895,358,0,0
-322,666,0,0,0,0,0,0,0,0,0,-1,902,358,0,0
-315,666,0,0,0,0,0,0,0,0,0,-1,909,358,0,0
-308,666,0,0,0,0,0,0,0,0,0,-1,916,358,0,0
-301,666,0,0,0,0,0,0,0,0,0,-1,923,358,0,0
-294,666,0,0,0,0,0,0,0,0,0,-1,930,358,0,0
-287,666,0,0,0,0,0,0,0,0,0,-1,937,358,0,0
-280,666,0,0,0,0,0,0,0,0,0,-1,944,358,0,0
-273,666,0,0,0,0,0,0,0,0,0,-1,951,358,0,0
-266,666,0,0,0,0,0,0,0,0,0,-1,958,358,0,0
-259,666,0,0,0,0,0,0,0,0,0,-1,965,358,0,0
-252,666,0,0,0,0,0,0,0,0,0,-1,972,358,0,0
-245,666,0,0,0,0,0,0,0,0,0,-1,979,358,0,0
-238,666,0,0,0,0,0,0,0,0,0,-1,986,358,0,0
-231,666,0,0,0,0,0,0,0,0,0,-1,993,358,0,0
-224,666,0,0,0,0,0,0,0,0,0,-1,1000,358,0,0
-217,666,0,0,0,0,0,0,0,0,0,-1,1007,358,0,0
-210,666,0,0,0,0,0,0,0,0,0,-1,1014,358,0,0
-203,666,0,0,0,0,0,0,0,0,0,-1,1021,358,0,0
-196,666,4.03418,-28.8724,0,0,0,0,0,0,0,-1,1028,358,4.03422,28.8724
-189,666,5.00366,-29.597,0,0,0,0,0,0,0,-1,1035,358,5.00363,29.597
-182,666,6.83252,-30.9843,0,0,0,0,0,0,0,-1,1042,358,6.83247,30.9844
-175,666,7.01611,-31.8763,0,0,0,0,0,0,0,-1,1049,358,7.01617,31.8762
-168,666,7.21545,-32.7414,0,0,0,0,0,0,0,-1,1056,358,7.2154,32.7414
-161,666,7.69116,-33.6269,0,0,0,0,0,0,0,-1,1063,358,7.69121,33.6269
-154,666,3.79041,-37.9204,0,0,0,0,0,0,0,-1,1070,358,3.79034,37.9204
-147,666,4.17908,-37.7466,0,0,0,0,0,0,0,-1,1077,358,4.17912,37.7466
-140,666,4.54309,-37.735,0,0,0,0,0,0,0,-1,1084,358,4.54304,37.735
-133,666,4.65723,-39.0643,0,0,0,0,0,0,0,-1,1091,358,4.65727,39.0643
-126,666,5.02368,-38.0699,0,0,0,0,0,0,0,-1,1098,358,5.02363,38.0698
-119,666,5.39001,-37.0754,0,0,0,0,0,0,0,-1,1105,358,5.38999,37.0754
-112,666,6.77014,-32.8165,0,0,0,0,0,0,0,-1,1112,358,6.77013,32.8165
-105,666,6.30908,-29.0855,0,0,0,0,0,0,0,-1,1119,358,6.30905,29.0855
-98,666,15.4427,-31.5168,0,0,0,0,0,0,0,-1,1126,358,15.4428,31.5168
-91,666,9.5127,-25.1347,0,0,0,0,0,0,0,-1,1133,358,9.51269,25.1347
-84,666,2.91589,-19.4071,0,0,0,0,0,0,0,-1,1140,358,2.91592,19.4071
-77,666,-3.48083,-14.0782,0,0,0,0,0,0,0,-1,1147,358,-3.48081,14.0782
-70,666,-9.99438,-8.90146,0,0,0,0,0,0,0,-1,1154,358,-9.99433,8.90146
-63,666,-11.7778,-0.975189,0,0,0,0,0,0,0,-1,1161,358,-11.7778,0.97519
-56,666,0.424683,-2.04132,0,0,0,0,0,0,0,-1,1168,358,0.424665,2.04132
-49,666,0.754395,-2.23169,0,0,0,0,0,0,0,-1,1175,358,0.754383,2.23169
-42,666,1.34473,-3.53897,0,0,0,0,0,0,0,-1,1182,358,1.34476,3.53896
-35,666,8.25879,-58.4391,0,0,0,0,0,0,0,-1,1189,358,8.25874,58.4391
-28,666,8.39478,-58.5231,0,0,0,0,0,0,0,-1,1196,358,8.39477,58.5231
-21,666,8.35095,-58.5415,-0.0223586,0.0470082,0.0149451,0.0500911,-0.0254415,1.36737,0.0443761,0.0429309,1203,358,8.35092,58.5415
-14,666,8.16357,-58.8276,-0.0229081,0.0491784,0.0164722,0.0527641,-0.0264937,1.35646,0.0465899,0.038381,1210,358,8.16358,58.8277
-7,666,8.0625,-59.1113,-0.0234182,0.0511025,0.017348,0.0549431,-0.0272588,1.35293,0.0483481,0.0232644,1217,358,8.06251,59.1113
0,666,8.02136,-59.3894,-0.0232065,0.0511399,0.0180421,0.0552869,-0.0273536,1.34487,0.0486126,0.0150017,1224,358,8.02139,59.3894
7,666,7.91235,-59.5069,-0.0217312,0.0525359,0.0176876,0.0565332,-0.0257286,1.34853,0.0485912,0.0215871,1231,358,7.91237,59.5069
14,666,7.81323,-59.5738,-0.0193036,0.0537084,0.0167485,0.0573671,-0.0229623,1.35573,0.0477751,0.020829,1238,358,7.81327,59.5738
21,666,7.73218,-59.8519,-0.0162867,0.0549074,0.0157354,0.0582301,-0.0196095,1.36269,0.0467482,0.017141,1245,358,7.73222,59.8519
28,666,7.67249,-60.0237,-0.01279,0.0560433,0.0147483,0.0590702,-0.0158169,1.36837,0.0455767,0.0235241,1252,358,7.6725,60.0236
35,666,7.64282,-60.0246,-0.00942642,0.0564734,0.0135993,0.0591695,-0.0121225,1.37508,0.0440468,0.0217848,1259,358,7.64277,60.0246
42,666,7.50415,-60.1304,-0.0061253,0.0566628,0.0128561,0.0591932,-0.00865565,1.37646,0.0426412,0.018067,1266,358,7.50415,60.1304
49,666,7.38733,-60.2151,-0.00299615,0.0572902,0.0121462,0.0596454,-0.0053513,1.37927,0.0416621,0.0171131,1273,358,7.38735,60.2152
56,666,7.34204,-60.2723,-0.000176333,0.0575254,0.0115125,0.0597375,-0.00238847,1.38096,0.0406446,0.0175747,1280,358,7.34209,60.2723
63,666,7.29517,-60.3677,0.00234984,0.0569243,0.0106301,0.0589218,0.000352398,1.38506,0.0391642,0.0210949,1287,358,7.29513,60.3677
70,666,7.15857,-60.4705,0,0,0,0,0,0,0,-1,1294,358,7.15855,60.4705
77,666,7.18359,-60.1595,0.00453956,0.0541016,0.00969361,0.0559301,0.00271109,1.38436,0.0364167,0.0238227,1301,358,7.18357,60.1595
84,666,7.10144,-60.1973,0.0037401,0.0527652,0.0087403,0.0542768,0.00222846,1.39954,0.0354651,0.0317247,1308,358,7.1014,60.1973
91,666,6.95386,-60.2336,0.00261031,0.0506889,0.00776841,0.051913,0.00138628,1.41452,0.0341559,0.0269291,1315,358,6.95387,60.2336
98,666,6.81201,-60.1096,0.0015111,0.0492797,0.00677976,0.0502233,0.000567498,1.4325,0.0332946,0.0233691,1322,358,6.81202,60.1096
105,666,6.66357,-59.9055,0.000343012,0.0489247,0.00558531,0.0495585,-0.000290846,1.45779,0.0331364,0.0281247,1329,358,6.66358,59.9055
112,666,6.63049,-59.7978,0,0,0,0,0,0,0,-1,1336,358,6.63046,59.7977
119,666,6.55554,-59.502,0,0,0,0,0,0,0,-1,1343,358,6.55559,59.502
126,666,6.47571,-59.3118,0,0,0,0,0,0,0,-1,1350,358,6.47566,59.3118
133,666,6.33118,-59.131,0,0,0,0,0,0,0,-1,1357,358,6.3312,59.131
140,666,6.15527,-58.8909,-0.00688359,0.0479663,0.000742764,0.0479764,-0.00689364,1.55726,0.0345124,0.0438612,1364,358,6.15532,58.8909
147,666,5.99036,-58.6233,-0.00717292,0.0498574,0.000756714,0.0498675,-0.00718296,1.55753,0.0358798,0.0315955,1371,358,5.99032,58.6233
154,666,6.00476,-58.0182,-0.00731033,0.0503092,0.0013038,0.0503386,-0.00733982,1.54818,0.0362542,0.0278461,1378,358,6.00471,58.0183
161,666,6.02844,-57.6333,-0.00707363,0.0508127,0.00241944,0.0509136,-0.00717457,1.5291,0.0365693,0.036959,1385,358,6.0285,57.6333
168,666,5.96973,-57.2468,0,0,0,0,0,0,0,-1,1392,358,5.96976,57.2468
175,666,6.03174,-57.3746,0,0,0,0,0,0,0,-1,1399,358,6.03173,57.3746
182,666,2.60876,-5.17068,0,0,0,0,0,0,0,-1,1406,358,2.6088,5.17068
189,666,2.46973,-5.49979,0,0,0,0,0,0,0,-1,1413,358,2.46975,5.49979
196,666,2.32458,-5.23651,0,0,0,0,0,0,0,-1,1420,358,2.32461,5.23653
203,666,2.28064,-3.88004,0,0,0,0,0,0,0,-1,1427,358,2.28059,3.88003
210,666,3.02576,-5.83548,0,0,0,0,0,0,0,-1,1434,358,3.02581,5.83547
217,666,2.30444,-5.36011,0,0,0,0,0,0,0,-1,1441,358,2.30447,5.3601
224,666,1.82324,-6.03101,0,0,0,0,0,0,0,-1,1448,358,1.82322,6.031
231,666,2.29797,-10.1093,0,0,0,0,0,0,0,-1,1455,358,2.29801,10.1093
238,666,2.52429,-6.10568,0,0,0,0,0,0,0,-1,1462,358,2.52423,6.10567
245,666,4.53345,-1.38205,0,0,0,0,0,0,0,-1,1469,358,4.53349,1.38204
252,666,4.77405,-0.246979,0,0,0,0,0,0,0,-1,1476,358,4.77405,0.246993
259,666,4.83655,1.14087,0,0,0,0,0,0,0,-1,1483,358,4.83652,-1.14087
266,666,6.14148,0.749512,0,0,0,0,0,0,0,-1,1490,358,6.14144,-0.749519
273,666,3.17737,-33.7881,0,0,0,0,0,0,0,-1,1497,358,3.17735,33.7881
280,666,3.37268,-35.2123,0,0,0,0,0,0,0,-1,1504,358,3.37266,35.2123
287,666,-7.06934,-20.3464,0,0,0,0,0,0,0,-1,1511,358,-7.06933,20.3464
294,666,-2.11157,-23.2753,0,0,0,0,0,0,0,-1,1518,358,-2.11162,23.2753
301,666,-4.77222,-21.6957,0,0,0,0,0,0,0,-1,1525,358,-4.77218,21.6957
308,666,-7.45471,-24.766,0,0,0,0,0,0,0,-1,1532,358,-7.45475,24.766
315,666,1.76294,-0.284027,0,0,0,0,0,0,0,-1,1539,358,1.76291,0.284016
322,666,0,0,0,0,0,0,0,0,0,-1,1546,358,0,0
329,666,0,0,0,0,0,0,0,0,0,-1,1553,358,0,0
336,666,0,0,0,0,0,0,0,0,0,-1,1560,358,0,0
343,666,0,0,0,0,0,0,0,0,0,-1,1567,358,0,0
350,666,0,0,0,0,0,0,0,0,0,-1,1574,358,0,0
357,666,0,0,0,0,0,0,0,0,0,-1,1581,358,0,0
364,666,0,0,0,0,0,0,0,0,0,-1,1588,358,0,0
371,666,0,0,0,0,0,0,0,0,0,-1,1595,358,0,0
378,666,0,0,0,0,0,0,0,0,0,-1,1602,358,0,0
385,666,0,0,0,0,0,0,0,0,0,-1,1609,358,0,0
392,666,0,0,0,0,0,0,0,0,0,-1,1616,358,0,0
399,666,0,0,0,0,0,0,0,0,0,-1,1623,358,0,0
406,666,0,0,0,0,0,0,0,0,0,-1,1630,358,0,0
413,666,0,0,0,0,0,0,0,0,0,-1,1637,358,0,0
420,666,0,0,0,0,0,0,0,0,0,-1,1644,358,0,0
427,666,0,0,0,0,0,0,0,0,0,-1,1651,358,0,0
434,666,0,0,0,0,0,0,0,0,0,-1,1658,358,0,0
441,666,0,0,0,0,0,0,0,0,0,-1,1665,358,0,0
448,666,0,0,0,0,0,0,0,0,0,-1,1672,358,0,0
455,666,0,0,0,0,0,0,0,0,0,-1,1679,358,0,0
462,666,0,0,0,0,0,0,0,0,0,-1,1686,358,0,0
469,666,0,0,0,0,0,0,0,0,0,-1,1693,358,0,0
476,666,0,0,0,0,0,0,0,0,0,-1,1700,358,0,0
483,666,0,0,0,0,0,0,0,0,0,-1,1707,358,0,0
490,666,0,0,0,0,0,0,0,0,0,-1,1714,358,0,0
497,666,0,0,0,0,0,0,0,0,0,-1,1721,358,0,0
504,666,0,0,0,0,0,0,0,0,0,-1,1728,358,0,0
511,666,0,0,0,0,0,0,0,0,0,-1,1735,358,0,0
518,666,0,0,0,0,0,0,0,0,0,-1,1742,358,0,0
525,666,0,0,0,0,0,0,0,0,0,-1,1749,358,0,0
532,666,0,0,0,0,0,0,0,0,0,-1,1756,358,0,0
539,666,0,0,0,0,0,0,0,0,0,-1,1763,358,0,0
546,666,0,0,0,0,0,0,0,0,0,-1,1770,358,0,0
553,666,0,0,0,0,0,0,0,0,0,-1,1777,358,0,0
560,666,0,0,0,0,0,0,0,0,0,-1,1784,358,0,0
567,666,0,0,0,0,0,0,0,0,0,-1,1791,358,0,0
574,666,0,0,0,0,0,0,0,0,0,-1,1798,358,0,0
581,666,0,0,0,0,0,0,0,0,0,-1,1805,358,0,0
588,666,0,0,0,0,0,0,0,0,0,-1,1812,358,0,0
595,666,0,0,0,0,0,0,0,0,0,-1,1819,358,0,0
602,666,0,0,0,0,0,0,0,0,0,-1,1826,358,0,0
609,666,0,0,0,0,0,0,0,0,0,-1,1833,358,0,0
616,666,0,0,0,0,0,0,0,0,0,-1,1840,358,0,0
623,666,0,0,0,0,0,0,0,0,0,-1,1847,358,0,0
630,666,0,0,0,0,0,0,0,0,0,-1,1854,358,0,0
637,666,0,0,0,0,0,0,0,0,0,-1,1861,358,0,0
644,666,0,0,0,0,0,0,0,0,0,-1,1868,358,0,0
651,666,0,0,0,0,0,0,0,0,0,-1,1875,358,0,0
658,666,0,0,0,0,0,0,0,0,0,-1,1882,358,0,0
665,666,0,0,0,0,0,0,0,0,0,-1,1889,358,0,0
672,666,0,0,0,0,0,0,0,0,0,-1,1896,358,0,0
679,666,0,0,0,0,0,0,0,0,0,-1,1903,358,0,0
686,666,0,0,0,0,0,0,0,0,0,-1,1910,358,0,0
693,666,0,0,0,0,0,0,0,0,0,-1,1917,358,0,0
700,666,0,0,0,0,0,0,0,0,0,-1,1924,358,0,0
707,666,0,0,0,0,0,0,0,0,0,-1,1931,358,0,0
714,666,0,0,0,0,0,0,0,0,0,-1,1938,358,0,0
721,666,0,0,0,0,0,0,0,0,0,-1,1945,358,0,0
728,666,0,0,0,0,0,0,0,0,0,-1,1952,358,0,0
735,666,0,0,0,0,0,0,0,0,0,-1,1959,358,0,0
742,666,0,0,0,0,0,0,0,0,0,-1,1966,358,0,0
749,666,0,0,0,0,0,0,0,0,0,-1,1973,358,0,0
756,666,0,0,0,0,0,0,0,0,0,-1,1980,358,0,0
763,666,0,0,0,0,0,0,0,0,0,-1,1987,358,0,0
770,666,0,0,0,0,0,0,0,0,0,-1,1994,358,0,0
777,666,0,0,0,0,0,0,0,0,0,-1,2001,358,0,0
784,666,0,0,0,0,0,0,0,0,0,-1,2008,358,0,0
791,666,0,0,0,0,0,0,0,0,0,-1,2015,358,0,0
798,666,0,0,0,0,0,0,0,0,0,-1,2022,358,0,0
805,666,0,0,0,0,0,0,0,0,0,-1,2029,358,0,0
812,666,0,0,0,0,0,0,0,0,0,-1,2036,358,0,0
-700,659,0,0,0,0,0,0,0,0,0,-1,524,365,0,0
-693,659,0,0,0,0,0,0,0,0,0,-1,531,365,0,0
-686,659,0,0,0,0,0,0,0,0,0,-1,538,365,0,0
-679,659,0,0,0,0,0,0,0,0,0,-1,545,365,0,0
-672,659,0,0,0,0,0,0,0,0,0,-1,552,365,0,0
-665,659,0,0,0,0,0,0,0,0,0,-1,559,365,0,0
-658,659,0,0,0,0,0,0,0,0,0,-1,566,365,0,0
-651,659,0,0,0,0,0,0,0,0,0,-1,573,365,0,0
-644,659,0,0,0,0,0,0,0,0,0,-1,580,365,0,0
-637,659,0,0,0,0,0,0,0,0,0,-1,587,365,0,0
-630,659,0,0,0,0,0,0,0,0,0,-1,594,365,0,0
-623,659,0,0,0,0,0,0,0,0,0,-1,601,365,0,0
-616,659,0,0,0,0,0,0,0,0,0,-1,608,365,0,0
-609,659,0,0,0,0,0,0,0,0,0,-1,615,365,0,0
-602,659,0,0,0,0,0,0,0,0,0,-1,622,365,0,0
-595,659,0,0,0,0,0,0,0,0,0,-1,629,365,0,0
-588,659,0,0,0,0,0,0,0,0,0,-1,636,365,0,0
-581,659,0,0,0,0,0,0,0,0,0,-1,643,365,0,0
-574,659,0,0,0,0,0,0,0,0,0,-1,650,365,0,0
-567,659,0,0,0,0,0,0,0,0,0,-1,657,365,0,0
-560,659,0,0,0,0,0,0,0,0,0,-1,664,365,0,0
-553,659,0,0,0,0,0,0,0,0,0,-1,671,365,0,0
-546,659,0,0,0,0,0,0,0,0,0,-1,678,365,0,0
-539,659,0,0,0,0,0,0,0,0,0,-1,685,365,0,0
-532,659,0,0,0,0,0,0,0,0,0,-1,692,365,0,0
-525,659,0,0,0,0,0,0,0,0,0,-1,699,365,0,0
-518,659,0,0,0,0,0,0,0,0,0,-1,706,365,0,0
-511,659,0,0,0,0,0,0,0,0,0,-1,713,365,0,0
-504,659,0,0,0,0,0,0,0,0,0,-1,720,365,0,0
-497,659,0,0,0,0,0,0,0,0,0,-1,727,365,0,0
-490,659,0,0,0,0,0,0,0,0,0,-1,734,365,0,0
-483,659,0,0,0,0,0,0,0,0,0,-1,741,365,0,0
-476,659,0,0,0,0,0,0,0,0,0,-1,748,365,0,0
-469,659,0,0,0,0,0,0,0,0,0,-1,755,365,0,0
-462,659,0,0,0,0,0,0,0,0,0,-1,762,365,0,0
-455,659,0,0,0,0,0,0,0,0,0,-1,769,365,0,0
-448,659,0,0,0,0,0,0,0,0,0,-1,776,365,0,0
-441,659,0,0,0,0,0,0,0,0,0,-1,783,365,0,0
-434,659,0,0,0,0,0,0,0,0,0,-1,790,365,0,0
-427,659,0,0,0,0,0,0,0,0,0,-1,797,365,0,0
-420,659,0,0,0,0,0,0,0,0,0,-1,804,365,0,0
-413,659,0,0,0,0,0,0,0,0,0,-1,811,365,0,0
-406,659,0,0,0,0,0,0,0,0,0,-1,818,365,0,0
-399,659,0,0,0,0,0,0,0,0,0,-1,825,365,0,0
-392,659,0,0,0,0,0,0,0,0,0,-1,832,365,0,0
-385,659,0,0,0,0,0,0,0,0,0,-1,839,365,0,0
-378,659,0,0,0,0,0,0,0,0,0,-1,846,365,0,0
-371,659,0,0,0,0,0,0,0,0,0,-1,853,365,0,0
-364,659,0,0,0,0,0,0,0,0,0,-1,860,365,0,0
-357,659,0,0,0,0,0,0,0,0,0,-1,867,365,0,0
-350,659,0,0,0,0,0,0,0,0,0,-1,874,365,0,0
-343,659,0,0,0,0,0,0,0,0,0,-1,881,365,0,0
-336,659,0,0,0,0,0,0,0,0,0,-1,888,365,0,0
-329,659,0,0,0,0,0,0,0,0,0,-1,895,365,0,0
-322,659,0,0,0,0,0,0,0,0,0,-1,902,365,0,0
-315,659,0,0,0,0,0,0,0,0,0,-1,909,365,0,0
-308,659,0,0,0,0,0,0,0,0,0,-1,916,365,0,0
-301,659,0,0,0,0,0,0,0,0,0,-1,923,365,0,0
-294,659,0,0,0,0,0,0,0,0,0,-1,930,365,0,0
-287,659,0,0,0,0,0,0,0,0,0,-1,937,365,0,0
-280,659,0,0,0,0,0,0,0,0,0,-1,944,365,0,0
-273,659,0,0,0,0,0,0,0,0,0,-1,951,365,0,0
-266,659,0,0,0,0,0,0,0,0,0,-1,958,365,0,0
-259,659,0,0,0,0,0,0,0,0,0,-1,965,365,0,0
-252,659,0,0,0,0,0,0,0,0,0,-1,972,365,0,0
-245,659,0,0,0,0,0,0,0,0,0,-1,979,365,0,0
-238,659,0,0,0,0,0,0,0,0,0,-1,986,365,0,0
-231,659,0,0,0,0,0,0,0,0,0,-1,993,365,0,0
-224,659,0,0,0,0,0,0,0,0,0,-1,1000,365,0,0
-217,659,10.1305,-25.2622,0,0,0,0,0,0,0,-1,1007,365,10.1305,25.2622
-210,659,9.65643,-25.515,0,0,0,0,0,0,0,-1,1014,365,9.65642,25.515
-203,659,8.58911,-25.7432,0,0,0,0,0,0,0,-1,1021,365,8.58916,25.7432
-196,659,2.68323,-27.8121,0,0,0,0,0,0,0,-1,1028,365,2.6832,27.8121
-189,659,6.88049,-28.9412,0,0,0,0,0,0,0,-1,1035,365,6.88045,28.9412
-182,659,6.94189,-30.6316,0,0,0,0,0,0,0,-1,1042,365,6.94189,30.6316
-175,659,6.948,-32.0092,0,0,0,0,0,0,0,-1,1049,365,6.94798,32.0093
-168,659,7.1416,-32.7405,0,0,0,0,0,0,0,-1,1056,365,7.14157,32.7405
-161,659,7.57361,-33.7099,0,0,0,0,0,0,0,-1,1063,365,7.57355,33.7099
-154,659,7.71448,-34.8995,0,0,0,0,0,0,0,-1,1070,365,7.7145,34.8995
-147,659,5.46606,-37.758,0,0,0,0,0,0,0,-1,1077,365,5.46601,37.758
-140,659,5.7356,-37.755,0,0,0,0,0,0,0,-1,1084,365,5.73562,37.755
-133,659,5.91455,-37.9017,0,0,0,0,0,0,0,-1,1091,365,5.9146,37.9017
-126,659,6.31226,-37.9904,0,0,0,0,0,0,0,-1,1098,365,6.3122,37.9904
-119,659,6.26941,-35.0837,0,0,0,0,0,0,0,-1,1105,365,6.26943,35.0837
-112,659,6.24353,-35.0562,0,0,0,0,0,0,0,-1,1112,365,6.24349,35.0562
-105,659,5.38696,-30.5854,0,0,0,0,0,0,0,-1,1119,365,5.387,30.5854
-98,659,4.68042,-26.2438,0,0,0,0,0,0,0,-1,1126,365,4.68041,26.2438
-91,659,4.20776,-20.8654,0,0,0,0,0,0,0,-1,1133,365,4.20777,20.8654
-84,659,2.8584,-17.8303,0,0,0,0,0,0,0,-1,1140,365,2.85836,17.8303
-77,659,2.80139,-15.3457,0,0,0,0,0,0,0,-1,1147,365,2.80139,15.3457
-70,659,2.9353,-12.7028,0,0,0,0,0,0,0,-1,1154,365,2.93533,12.7028
-63,659,2.11267,-9.7796,0,0,0,0,0,0,0,-1,1161,365,2.11266,9.7796
-56,659,2.11182,-9.91541,0,0,0,0,0,0,0,-1,1168,365,2.11178,9.91541
-49,659,8.3031,-57.6559,0,0,0,0,0,0,0,-1,1175,365,8.30309,57.6559
-42,659,8.02661,-58.2614,0,0,0,0,0,0,0,-1,1182,365,8.02663,58.2614
-35,659,8.18665,-58.3423,-0.0147631,0.0277563,0.00487026,0.0283071,-0.0153138,1.4582,0.0255542,0.0425544,1189,365,8.18663,58.3423
-28,659,8.17493,-58.5607,-0.0156705,0.0311606,0.00669868,0.0320999,-0.0166098,1.43148,0.0285927,0.0177671,1196,365,8.17492,58.5607
-21,659,8.10461,-58.8782,-0.01586,0.0334082,0.00790501,0.0346455,-0.0170973,1.41554,0.030441,0.0154593,1203,365,8.1046,58.8782
-14,659,7.97656,-59.1621,-0.0161799,0.0352009,0.00912862,0.0367745,-0.0177536,1.40009,0.0321139,0.0129401,1210,365,7.97659,59.1621
-7,659,7.89783,-59.4013,-0.0164892,0.0369039,0.00987224,0.0386708,-0.0182561,1.3937,0.0335638,0.0124471,1217,365,7.89785,59.4013
0,659,7.85962,-59.6029,-0.0163516,0.0374119,0.0104683,0.0393783,-0.0183179,1.38512,0.0340426,0.0101209,1224,365,7.8596,59.6029
7,659,7.8175,-59.7647,-0.0153681,0.0387966,0.0104659,0.0407485,-0.01732,1.38641,0.0344235,0.00983152,1231,365,7.81745,59.7647
14,659,7.73181,-59.8885,-0.013863,0.0400044,0.0101269,0.0418453,-0.0157039,1.39098,0.0343497,0.0127369,1238,365,7.73181,59.8885
21,659,7.64929,-60.0378,-0.0119578,0.0412544,0.00976592,0.0429901,-0.0136935,1.3949,0.0341523,0.0131577,1245,365,7.64923,60.0378
28,659,7.55884,-60.1924,-0.00958686,0.0424805,0.00939103,0.0441225,-0.0112289,1.3977,0.0337858,0.0127463,1252,365,7.55886,60.1924
35,659,7.51343,-60.2958,-0.00732172,0.0431088,0.008809,0.0446033,-0.00881615,1.40275,0.0330683,0.0136409,1259,365,7.51348,60.2958
42,659,7.47144,-60.3786,-0.00508906,0.0434976,0.0085145,0.0449465,-0.00653796,1.40224,0.0323645,0.0146333,1266,365,7.47149,60.3786
49,659,7.37109,-60.4383,-0.00295866,0.0441544,0.00821877,0.045547,-0.00435125,1.40295,0.0319141,0.0157012,1273,365,7.3711,60.4383
56,659,7.27954,-60.4849,-0.00105353,0.0444804,0.00790947,0.0458152,-0.00238832,1.40361,0.0313699,0.0191482,1280,365,7.27949,60.4848
63,659,7.2688,-60.5164,0.000687108,0.0441371,0.00737188,0.0453538,-0.000529565,1.40723,0.0304139,0.0183375,1287,365,7.26875,60.5164
70,659,7.1842,-60.5179,0.00190846,0.0434027,0.00706558,0.0445728,0.000738345,1.40668,0.0294722,0.0189066,1294,365,7.18415,60.5179
77,659,7.06775,-60.4855,0.00233,0.0421335,0.00685234,0.0432801,0.00118337,1.405,0.0284671,0.0191039,1301,365,7.06769,60.4855
84,659,7.05103,-60.4686,0.00182578,0.0411393,0.00618642,0.0420898,0.000875259,1.41834,0.0277727,0.0137597,1308,365,7.05099,60.4686
91,659,6.99561,-60.3845,0.00100594,0.0394871,0.00547971,0.0402522,0.000240842,1.43207,0.0267549,0.0114611,1315,365,6.99557,60.3845
98,659,6.9126,-60.2495,0.000251479,0.0383329,0.00479787,0.0389281,-0.000343701,1.44738,0.0260674,0.00870184,1322,365,6.91258,60.2496
105,659,6.85034,-60.1074,-0.000559088,0.0379666,0.00399239,0.038376,-0.000968467,1.46861,0.0259128,0.010589,1329,365,6.85038,60.1074
112,659,6.79968,-59.9588,-0.00169229,0.0369093,0.0032116,0.0371747,-0.00195766,1.48835,0.0254608,0.0158635,1336,365,6.79967,59.9588
119,659,6.69995,-59.7409,-0.00293179,0.0359873,0.00237492,0.0361317,-0.00307618,1.51007,0.0251759,0.0182374,1343,365,6.69992,59.7409
126,659,6.62891,-59.4933,-0.00414061,0.0355761,0.00149395,0.0356323,-0.00419673,1.53325,0.0252702,0.0187447,1350,365,6.6289,59.4933
133,659,6.53198,-59.2568,-0.00520031,0.0355082,0.000726173,0.0355211,-0.00521326,1.55297,0.0255961,0.0190019,1357,365,6.53197,59.2568
140,659,6.44751,-59.0875,-0.00549567,0.0367514,0.000858912,0.0367689,-0.00551313,1.55048,0.0265418,0.013558,1364,365,6.44751,59.0875
147,659,6.38611,-58.8566,-0.00566387,0.0381006,0.00104582,0.0381256,-0.00568885,1.54692,0.0275101,0.0111117,1371,365,6.3861,58.8566
154,659,6.29431,-58.5247,-0.00576172,0.0384285,0.0015961,0.038486,-0.00581929,1.53474,0.0278009,0.0125714,1378,365,6.29437,58.5246
161,659,6.22119,-58.1706,-0.00566133,0.0387007,0.00254134,0.0388458,-0.00580644,1.51376,0.0280338,0.0143298,1385,365,6.22124,58.1706
168,659,6.17651,-57.7841,-0.00561121,0.038181,0.00337595,0.0384398,-0.00586994,1.49431,0.0277906,0.0205715,1392,365,6.17649,57.7841
175,659,6.13184,-57.4302,-0.00598748,0.0376704,0.00446553,0.0381225,-0.00643955,1.4699,0.0278111,0.0431549,1399,365,6.1318,57.4302
182,659,5.97253,-57.0964,0,0,0,0,0,0,0,-1,1406,365,5.97249,57.0964
189,659,6.01929,-56.5277,0,0,0,0,0,0,0,-1,1413,365,6.01923,56.5277
196,659,2.41248,-13.4371,0,0,0,0,0,0,0,-1,1420,365,2.41243,13.4371
203,659,2.38623,-12.2163,0,0,0,0,0,0,0,-1,1427,365,2.38617,12.2163
210,659,2.20789,-13.9792,0,0,0,0,0,0,0,-1,1434,365,2.20794,13.9792
217,659,2.24121,-13.487,0,0,0,0,0,0,0,-1,1441,365,2.24116,13.487
224,659,2.3479,-15.2926,0,0,0,0,0,0,0,-1,1448,365,2.34793,15.2926
231,659,2.47974,-17.8629,0,0,0,0,0,0,0,-1,1455,365,2.47976,17.8628
238,659,3.57886,-21.1258,0,0,0,0,0,0,0,-1,1462,365,3.57889,21.1258
245,659,3.29883,-25.0283,0,0,0,0,0,0,0,-1,1469,365,3.29889,25.0283
252,659,2.81909,-24.1604,0,0,0,0,0,0,0,-1,1476,365,2.81905,24.1604
259,659,2.33069,-3.36703,0,0,0,0,0,0,0,-1,1483,365,2.33073,3.36702
266,659,3.40918,-35.2544,0,0,0,0,0,0,0,-1,1490,365,3.40913,35.2544
273,659,4.45557,-42.3683,0,0,0,0,0,0,0,-1,1497,365,4.45554,42.3683
280,659,4.87903,-41.4995,0,0,0,0,0,0,0,-1,1504,365,4.87898,41.4995
287,659,1.09851,-23.7787,0,0,0,0,0,0,0,-1,1511,365,1.09847,23.7787
294,659,-0.146973,-23.1876,0,0,0,0,0,0,0,-1,1518,365,-0.146929,23.1876
301,659,-1.39233,-22.5964,0,0,0,0,0,0,0,-1,1525,365,-1.39232,22.5964
308,659,-4.59692,-21.4031,0,0,0,0,0,0,0,-1,1532,365,-4.59689,21.4031
315,659,-6.78564,-21.0916,0,0,0,0,0,0,0,-1,1539,365,-6.78563,21.0916
322,659,-8.245,-20.894,0,0,0,0,0,0,0,-1,1546,365,-8.245,20.894
329,659,-7.67749,-23.0449,0,0,0,0,0,0,0,-1,1553,365,-7.67745,23.0449
336,659,-7.71436,-22.4188,0,0,0,0,0,0,0,-1,1560,365,-7.71432,22.4188
343,659,0,0,0,0,0,0,0,0,0,-1,1567,365,0,0
350,659,0,0,0,0,0,0,0,0,0,-1,1574,365,0,0
357,659,0,0,0,0,0,0,0,0,0,-1,1581,365,0,0
364,659,0,0,0,0,0,0,0,0,0,-1,1588,365,0,0
371,659,0,0,0,0,0,0,0,0,0,-1,1595,365,0,0
378,659,0,0,0,0,0,0,0,0,0,-1,1602,365,0,0
385,659,0,0,0,0,0,0,0,0,0,-1,1609,365,0,0
392,659,0,0,0,0,0,0,0,0,0,-1,1616,365,0,0
399,659,0,0,0,0,0,0,0,0,0,-1,1623,365,0,0
406,659,0,0,0,0,0,0,0,0,0,-1,1630,365,0,0
413,659,0,0,0,0,0,0,0,0,0,-1,1637,365,0,0
420,659,0,0,0,0,0,0,0,0,0,-1,1644,365,0,0
427,659,0,0,0,0,0,0,0,0,0,-1,1651,365,0,0
434,659,0,0,0,0,0,0,0,0,0,-1,1658,365,0,0
441,659,0,0,0,0,0,0,0,0,0,-1,1665,365,0,0
448,659,0,0,0,0,0,0,0,0,0,-1,1672,365,0,0
455,659,0,0,0,0,0,0,0,0,0,-1,1679,365,0,0
462,659,0,0,0,0,0,0,0,0,0,-1,1686,365,0,0
469,659,0,0,0,0,0,0,0,0,0,-1,1693,365,0,0
476,659,0,0,0,0,0,0,0,0,0,-1,1700,365,0,0
483,659,0,0,0,0,0,0,0,0,0,-1,1707,365,0,0
490,659,0,0,0,0,0,0,0,0,0,-1,1714,365,0,0
497,659,0,0,0,0,0,0,0,0,0,-1,1721,365,0,0
504,659,0,0,0,0,0,0,0,0,0,-1,1728,365,0,0
511,659,0,0,0,0,0,0,0,0,0,-1,1735,365,0,0
518,659,0,0,0,0,0,0,0,0,0,-1,1742,365,0,0
525,659,0,0,0,0,0,0,0,0,0,-1,1749,365,0,0
532,659,0,0,0,0,0,0,0,0,0,-1,1756,365,0,0
539,659,0,0,0,0,0,0,0,0,0,-1,1763,365,0,0
546,659,0,0,0,0,0,0,0,0,0,-1,1770,365,0,0
553,659,0,0,0,0,0,0,0,0,0,-1,1777,365,0,0
560,659,0,0,0,0,0,0,0,0,0,-1,1784,365,0,0
567,659,0,0,0,0,0,0,0,0,0,-1,1791,365,0,0
574,659,0,0,0,0,0,0,0,0,0,-1,1798,365,0,0
581,659,0,0,0,0,0,0,0,0,0,-1,1805,365,0,0
588,659,0,0,0,0,0,0,0,0,0,-1,1812,365,0,0
595,659,0,0,0,0,0,0,0,0,0,-1,1819,365,0,0
602,659,0,0,0,0,0,0,0,0,0,-1,1826,365,0,0
609,659,0,0,0,0,0,0,0,0,0,-1,1833,365,0,0
616,659,0,0,0,0,0,0,0,0,0,-1,1840,365,0,0
623,659,0,0,0,0,0,0,0,0,0,-1,1847,365,0,0
630,659,0,0,0,0,0,0,0,0,0,-1,1854,365,0,0
637,659,0,0,0,0,0,0,0,0,0,-1,1861,365,0,0
644,659,0,0,0,0,0,0,0,0,0,-1,1868,365,0,0
651,659,0,0,0,0,0,0,0,0,0,-1,1875,365,0,0
658,659,0,0,0,0,0,0,0,0,0,-1,1882,365,0,0
665,659,0,0,0,0,0,0,0,0,0,-1,1889,365,0,0
672,659,0,0,0,0,0,0,0,0,0,-1,1896,365,0,0
679,659,0,0,0,0,0,0,0,0,0,-1,1903,365,0,0
686,659,0,0,0,0,0,0,0,0,0,-1,1910,365,0,0
693,659,0,0,0,0,0,0,0,0,0,-1,1917,365,0,0
700,659,0,0,0,0,0,0,0,0,0,-1,1924,365,0,0
707,659,0,0,0,0,0,0,0,0,0,-1,1931,365,0,0
714,659,0,0,0,0,0,0,0,0,0,-1,1938,365,0,0
721,659,0,0,0,0,0,0,0,0,0,-1,1945,365,0,0
728,659,0,0,0,0,0,0,0,0,0,-1,1952,365,0,0
735,659,0,0,0,0,0,0,0,0,0,-1,1959,365,0,0
742,659,0,0,0,0,0,0,0,0,0,-1,1966,365,0,0
749,659,0,0,0,0,0,0,0,0,0,-1,1973,365,0,0
756,659,0,0,0,0,0,0,0,0,0,-1,1980,365,0,0
763,659,0,0,0,0,0,0,0,0,0,-1,1987,365,0,0
770,659,0,0,0,0,0,0,0,0,0,-1,1994,365,0,0
777,659,0,0,0,0,0,0,0,0,0,-1,2001,365,0,0
784,659,0,0,0,0,0,0,0,0,0,-1,2008,365,0,0
791,659,0,0,0,0,0,0,0,0,0,-1,2015,365,0,0
798,659,0,0,0,0,0,0,0,0,0,-1,2022,365,0,0
805,659,0,0,0,0,0,0,0,0,0,-1,2029,365,0,0
812,659,0,0,0,0,0,0,0,0,0,-1,2036,365,0,0
-700,652,0,0,0,0,0,0,0,0,0,-1,524,372,0,0
-693,652,0,0,0,0,0,0,0,0,0,-1,531,372,0,0
-686,652,0,0,0,0,0,0,0,0,0,-1,538,372,0,0
-679,652,0,0,0,0,0,0,0,0,0,-1,545,372,0,0
-672,652,0,0,0,0,0,0,0,0,0,-1,552,372,0,0
-665,652,0,0,0,0,0,0,0,0,0,-1,559,372,0,0
-658,652,0,0,0,0,0,0,0,0,0,-1,566,372,0,0
-651,652,0,0,0,0,0,0,0,0,0,-1,573,372,0,0
-644,652,0,0,0,0,0,0,0,0,0,-1,580,372,0,0
-637,652,0,0,0,0,0,0,0,0,0,-1,587,372,0,0
-630,652,0,0,0,0,0,0,0,0,0,-1,594,372,0,0
-623,652,0,0,0,0,0,0,0,0,0,-1,601,372,0,0
-616,652,0,0,0,0,0,0,0,0,0,-1,608,372,0,0
-609,652,0,0,0,0,0,0,0,0,0,-1,615,372,0,0
-602,652,0,0,0,0,0,0,0,0,0,-1,622,372,0,0
-595,652,0,0,0,0,0,0,0,0,0,-1,629,372,0,0
-588,652,0,0,0,0,0,0,0,0,0,-1,636,372,0,0
-581,652,0,0,0,0,0,0,0,0,0,-1,643,372,0,0
-574,652,0,0,0,0,0,0,0,0,0,-1,650,372,0,0
-567,652,0,0,0,0,0,0,0,0,0,-1,657,372,0,0
-560,652,0,0,0,0,0,0,0,0,0,-1,664,372,0,0
-553,652,0,0,0,0,0,0,0,0,0,-1,671,372,0,0
-546,652,0,0,0,0,0,0,0,0,0,-1,678,372,0,0
-539,652,0,0,0,0,0,0,0,0,0,-1,685,372,0,0
-532,652,0,0,0,0,0,0,0,0,0,-1,692,372,0,0
-525,652,0,0,0,0,0,0,0,0,0,-1,699,372,0,0
-518,652,0,0,0,0,0,0,0,0,0,-1,706,372,0,0
-511,652,0,0,0,0,0,0,0,0,0,-1,713,372,0,0
-504,652,0,0,0,0,0,0,0,0,0,-1,720,372,0,0
-497,652,0,0,0,0,0,0,0,0,0,-1,727,372,0,0
-490,652,0,0,0,0,0,0,0,0,0,-1,734,372,0,0
-483,652,0,0,0,0,0,0,0,0,0,-1,741,372,0,0
-476,652,0,0,0,0,0,0,0,0,0,-1,748,372,0,0
-469,652,0,0,0,0,0,0,0,0,0,-1,755,372,0,0
-462,652,0,0,0,0,0,0,0,0,0,-1,762,372,0,0
-455,652,0,0,0,0,0,0,0,0,0,-1,769,372,0,0
-448,652,0,0,0,0,0,0,0,0,0,-1,776,372,0,0
-441,652,0,0,0,0,0,0,0,0,0,-1,783,372,0,0
-434,652,0,0,0,0,0,0,0,0,0,-1,790,372,0,0
-427,652,0,0,0,0,0,0,0,0,0,-1,797,372,0,0
-420,652,0,0,0,0,0,0,0,0,0,-1,804,372,0,0
-413,652,0,0,0,0,0,0,0,0,0,-1,811,372,0,0
-406,652,0,0,0,0,0,0,0,0,0,-1,818,372,0,0
-399,652,0,0,0,0,0,0,0,0,0,-1,825,372,0,0
-392,652,0,0,0,0,0,0,0,0,0,-1,832,372,0,0
-385,652,0,0,0,0,0,0,0,0,0,-1,839,372,0,0
-378,652,0,0,0,0,0,0,0,0,0,-1,846,372,0,0
-371,652,0,0,0,0,0,0,0,0,0,-1,853,372,0,0
-364,652,0,0,0,0,0,0,0,0,0,-1,860,372,0,0
-357,652,0,0,0,0,0,0,0,0,0,-1,867,372,0,0
-350,652,0,0,0,0,0,0,0,0,0,-1,874,372,0,0
-343,652,0,0,0,0,0,0,0,0,0,-1,881,372,0,0
-336,652,0,0,0,0,0,0,0,0,0,-1,888,372,0,0
-329,652,0,0,0,0,0,0,0,0,0,-1,895,372,0,0
-322,652,0,0,0,0,0,0,0,0,0,-1,902,372,0,0
-315,652,0,0,0,0,0,0,0,0,0,-1,909,372,0,0
-308,652,0,0,0,0,0,0,0,0,0,-1,916,372,0,0
-301,652,0,0,0,0,0,0,0,0,0,-1,923,372,0,0
-294,652,0,0,0,0,0,0,0,0,0,-1,930,372,0,0
-287,652,0,0,0,0,0,0,0,0,0,-1,937,372,0,0
-280,652,0,0,0,0,0,0,0,0,0,-1,944,372,0,0
-273,652,0,0,0,0,0,0,0,0,0,-1,951,372,0,0
-266,652,0,0,0,0,0,0,0,0,0,-1,958,372,0,0
-259,652,0,0,0,0,0,0,0,0,0,-1,965,372,0,0
-252,652,0,0,0,0,0,0,0,0,0,-1,972,372,0,0
-245,652,0,0,0,0,0,0,0,0,0,-1,979,372,0,0
-238,652,0,0,0,0,0,0,0,0,0,-1,986,372,0,0
-231,652,8.79358,-27.1656,0,0,0,0,0,0,0,-1,993,372,8.79357,27.1656
-224,652,8.84552,-27.675,0,0,0,0,0,0,0,-1,1000,372,8.84555,27.675
-217,652,9.03113,-27.7474,0,0,0,0,0,0,0,-1,1007,372,9.0311,27.7474
-210,652,9.72803,-30.4624,0,0,0,0,0,0,0,-1,1014,372,9.72805,30.4624
-203,652,7.2677,-26.0732,0,0,0,0,0,0,0,-1,1021,372,7.26775,26.0732
-196,652,5.90686,-26.957,0,0,0,0,0,0,0,-1,1028,372,5.9068,26.957
-189,652,6.21326,-28.3035,0,0,0,0,0,0,0,-1,1035,372,6.21331,28.3035
-182,652,6.45068,-29.9377,0,0,0,0,0,0,0,-1,1042,372,6.45074,29.9377
-175,652,6.72559,-31.6948,0,0,0,0,0,0,0,-1,1049,372,6.72563,31.6948
-168,652,7.08533,-32.8669,0,0,0,0,0,0,0,-1,1056,372,7.08532,32.8669
-161,652,7.85291,-37.3545,0,0,0,0,0,0,0,-1,1063,372,7.85294,37.3545
-154,652,7.54639,-37.9586,0,0,0,0,0,0,0,-1,1070,372,7.54642,37.9586
-147,652,7.85571,-42.3712,0,0,0,0,0,0,0,-1,1077,372,7.8557,42.3712
-140,652,5.6842,-33.9781,0,0,0,0,0,0,0,-1,1084,372,5.68421,33.9781
-133,652,6.3009,-35.2887,0,0,0,0,0,0,0,-1,1091,372,6.30093,35.2887
-126,652,5.86841,-37.0981,0,0,0,0,0,0,0,-1,1098,372,5.86845,37.0981
-119,652,8.18018,-49.52,0,0,0,0,0,0,0,-1,1105,372,8.18015,49.52
-112,652,7.81982,-48.4793,0,0,0,0,0,0,0,-1,1112,372,7.81981,48.4793
-105,652,6.63855,-39.9965,0,0,0,0,0,0,0,-1,1119,372,6.63852,39.9965
-98,652,5.84302,-35.2455,0,0,0,0,0,0,0,-1,1126,372,5.84307,35.2455
-91,652,5.66296,-32.9003,0,0,0,0,0,0,0,-1,1133,372,5.66297,32.9003
-84,652,5.46057,-34.9186,0,0,0,0,0,0,0,-1,1140,372,5.46057,34.9186
-77,652,8.35168,-55.9037,0,0,0,0,0,0,0,-1,1147,372,8.35171,55.9036
-70,652,8.29163,-56.4741,0,0,0,0,0,0,0,-1,1154,372,8.29165,56.4741
-63,652,8.24304,-56.8653,0,0,0,0,0,0,0,-1,1161,372,8.243,56.8653
-56,652,8.12158,-57.3159,0,0,0,0,0,0,0,-1,1168,372,8.1216,57.3159
-49,652,8.07239,-57.6979,-0.00904421,0.0131435,-0.00270887,0.0134694,-0.00937014,-1.45105,0.013257,0.0379866,1175,372,8.07242,57.6979
-42,652,7.98035,-57.9842,-0.0096042,0.0166012,-0.000210418,0.0166029,-0.00960588,-1.56277,0.0153104,0.0135358,1182,372,7.98041,57.9842
-35,652,7.94287,-58.2973,-0.0102125,0.0191785,0.00180289,0.0192887,-0.0103227,1.50976,0.0173554,0.0108215,1189,372,7.94289,58.2973
-28,652,7.88696,-58.6151,-0.0106451,0.0215395,0.00301199,0.021819,-0.0109245,1.47828,0.0192501,0.00903153,1196,372,7.88699,58.6151
-21,652,7.81519,-58.9376,-0.010638,0.0231177,0.00386739,0.0235551,-0.0110754,1.45817,0.0204221,0.00930937,1203,372,7.81519,58.9376
-14,652,7.76306,-59.1992,-0.0107599,0.024355,0.00475336,0.0249871,-0.011392,1.4386,0.0214868,0.0112487,1210,372,7.76307,59.1992
-7,652,7.70068,-59.4612,-0.0108872,0.0255941,0.00532018,0.0263541,-0.0116472,1.4289,0.0224811,0.0145651,1217,372,7.70072,59.4613
0,652,7.65759,-59.6723,-0.0107575,0.02622,0.00565185,0.0270646,-0.0116021,1.42246,0.0229115,0.0147041,1224,372,7.65754,59.6723
7,652,7.63904,-59.8017,-0.0101031,0.0273628,0.0056619,0.0281997,-0.01094,1.42404,0.0233182,0.0143258,1231,372,7.63904,59.8017
14,652,7.59399,-59.9722,-0.00914783,0.0283262,0.00549968,0.0291166,-0.00993829,1.42805,0.0234371,0.0127119,1238,372,7.59404,59.9722
21,652,7.50439,-60.1569,-0.00799694,0.0293108,0.00535132,0.0300632,-0.00874935,1.43111,0.0235078,0.0123729,1245,372,7.50434,60.1569
28,652,7.45447,-60.3145,-0.00652835,0.0303517,0.00521088,0.0310738,-0.00725047,1.43309,0.0235084,0.0114564,1252,372,7.45444,60.3145
35,652,7.41223,-60.41,-0.00516943,0.0309986,0.00486207,0.0316408,-0.00581163,1.43947,0.0232742,0.0111335,1259,372,7.4122,60.41
42,652,7.38098,-60.469,-0.00383726,0.0315192,0.00468531,0.0321296,-0.0044476,1.44126,0.0230458,0.0122805,1266,372,7.38101,60.469
49,652,7.36328,-60.5161,-0.0025672,0.0321146,0.00452241,0.0326946,-0.00314721,1.44324,0.0229176,0.014656,1273,372,7.36327,60.5161
56,652,7.31494,-60.5233,-0.00146193,0.032471,0.00433932,0.0330172,-0.00200805,1.4456,0.0227104,0.0155438,1280,372,7.31497,60.5233
63,652,7.2666,-60.5601,-0.000456428,0.0323489,0.00398691,0.0328265,-0.00093401,1.45158,0.0222022,0.0190505,1287,372,7.26656,60.5601
70,652,7.20093,-60.5501,0.000262213,0.0319303,0.0038027,0.0323805,-0.000188015,1.45295,0.0216499,0.0176552,1294,372,7.20096,60.5501
77,652,7.09131,-60.5527,0.000490831,0.0310961,0.00368042,0.0315325,5.44656e-05,1.45278,0.0210035,0.0170734,1301,372,7.09132,60.5527
84,652,7.11365,-60.5287,0.000160184,0.0304217,0.0032097,0.0307584,-0.00017651,1.46628,0.0205647,0.014335,1308,372,7.11369,60.5287
91,652,7.06812,-60.4908,-0.000413105,0.0291383,0.00270306,0.0293835,-0.000658318,1.48033,0.0198121,0.0163436,1315,372,7.06808,60.4908
98,652,7.01978,-60.3578,-0.00088737,0.0282095,0.00225806,0.0283837,-0.00106156,1.49381,0.019286,0.012682,1322,372,7.01979,60.3578
105,652,6.98279,-60.2002,-0.00137751,0.0277865,0.0018323,0.0279011,-0.00149218,1.5083,0.0191176,0.0117941,1329,372,6.98278,60.2002
112,652,6.92786,-60.047,-0.00211519,0.0269031,0.00136212,0.0269669,-0.00217898,1.52399,0.0187465,0.010397,1336,372,6.92781,60.047
119,652,6.86255,-59.8564,-0.00286281,0.0261894,0.000811011,0.026212,-0.00288543,1.54291,0.0185116,0.0109127,1343,372,6.86258,59.8564
126,652,6.79651,-59.614,-0.00350738,0.0259249,0.000243479,0.0259269,-0.00350939,1.56252,0.0185653,0.0131815,1350,372,6.79653,59.614
133,652,6.73865,-59.3755,-0.00406021,0.0258383,-0.000185447,0.0258394,-0.00406136,-1.56459,0.0187275,0.0138439,1357,372,6.73865,59.3755
140,652,6.68872,-59.1638,-0.00405825,0.0267174,0.000194403,0.0267187,-0.00405948,1.56448,0.0193084,0.0103495,1364,372,6.68873,59.1638
147,652,6.65466,-58.907,-0.00412415,0.027683,0.000659385,0.0276967,-0.00413782,1.55008,0.019987,0.00981871,1371,372,6.65468,58.907
154,652,6.59424,-58.6152,-0.0042473,0.0281466,0.00129622,0.0281983,-0.00429909,1.53087,0.0203836,0.00961586,1378,372,6.59427,58.6152
161,652,6.51697,-58.2851,-0.00433332,0.0283971,0.00213141,0.0285353,-0.00447153,1.50604,0.0206759,0.0114753,1385,372,6.51702,58.2851
168,652,6.44653,-57.9011,-0.00451983,0.0279854,0.00289852,0.0282418,-0.00477627,1.48255,0.0206053,0.0131945,1392,372,6.44648,57.9011
175,652,6.38843,-57.5168,-0.00500342,0.0274048,0.00384257,0.0278542,-0.0054528,1.45438,0.0206287,0.0135415,1399,372,6.3884,57.5168
182,652,6.32874,-57.1755,-0.00536708,0.0263983,0.00493069,0.0271461,-0.00611483,1.42029,0.0204428,0.0197567,1406,372,6.32879,57.1755
189,652,6.31116,-56.7734,-0.00557901,0.0236685,0.00637546,0.0249979,-0.00690833,1.36524,0.0193828,0.0323422,1413,372,6.3111,56.7734
196,652,6.24207,-56.3053,0,0,0,0,0,0,0,-1,1420,372,6.24201,56.3053
203,652,6.15918,-55.882,0,0,0,0,0,0,0,-1,1427,372,6.15923,55.8821
210,652,6.17493,-55.3201,0,0,0,0,0,0,0,-1,1434,372,6.17494,55.3201
217,652,5.88513,-53.8912,0,0,0,0,0,0,0,-1,1441,372,5.88513,53.8913
224,652,3.63794,-31.2791,0,0,0,0,0,0,0,-1,1448,372,3.63799,31.2791
231,652,3.83936,-30.4812,0,0,0,0,0,0,0,-1,1455,372,3.8393,30.4812
238,652,4.42358,-36.4103,0,0,0,0,0,0,0,-1,1462,372,4.4236,36.4103
245,652,4.53296,-41.8512,0,0,0,0,0,0,0,-1,1469,372,4.5329,41.8512
252,652,5.00793,-47.7065,0,0,0,0,0,0,0,-1,1476,372,5.00791,47.7064
259,652,3.44922,-31.2655,0,0,0,0,0,0,0,-1,1483,372,3.44921,31.2655
266,652,5.5387,-50.3915,0,0,0,0,0,0,0,-1,1490,372,5.53875,50.3915
273,652,5.41797,-50.1443,0,0,0,0,0,0,0,-1,1497,372,5.41791,50.1443
280,652,4.05066,-24.6993,0,0,0,0,0,0,0,-1,1504,372,4.05066,24.6993
287,652,3.0979,-23.6951,0,0,0,0,0,0,0,-1,1511,372,3.09796,23.6951
294,652,1.79321,-23.0648,0,0,0,0,0,0,0,-1,1518,372,1.79317,23.0648
301,652,0.488403,-22.4346,0,0,0,0,0,0,0,-1,1525,372,0.488378,22.4346
308,652,-2.57666,-21.5525,0,0,0,0,0,0,0,-1,1532,372,-2.5766,21.5525
315,652,-4.21008,-21.5407,0,0,0,0,0,0,0,-1,1539,372,-4.21006,21.5407
322,652,-5.69116,-21.7166,0,0,0,0,0,0,0,-1,1546,372,-5.6911,21.7166
329,652,-7.12329,-21.7065,0,0,0,0,0,0,0,-1,1553,372,-7.12334,21.7065
336,652,-3.56519,-22.3688,0,0,0,0,0,0,0,-1,1560,372,-3.56517,22.3688
343,652,-3.58069,-21.9185,0,0,0,0,0,0,0,-1,1567,372,-3.58069,21.9185
350,652,5.28394,-25.6715,0,0,0,0,0,0,0,-1,1574,372,5.28393,25.6715
357,652,0,0,0,0,0,0,0,0,0,-1,1581,372,0,0
364,652,0,0,0,0,0,0,0,0,0,-1,1588,372,0,0
371,652,0,0,0,0,0,0,0,0,0,-1,1595,372,0,0
378,652,0,0,0,0,0,0,0,0,0,-1,1602,372,0,0
385,652,0,0,0,0,0,0,0,0,0,-1,1609,372,0,0
392,652,0,0,0,0,0,0,0,0,0,-1,1616,372,0,0
399,652,0,0,0,0,0,0,0,0,0,-1,1623,372,0,0
406,652,0,0,0,0,0,0,0,0,0,-1,1630,372,0,0
413,652,0,0,0,0,0,0,0,0,0,-1,1637,372,0,0
420,652,0,0,0,0,0,0,0,0,0,-1,1644,372,0,0
427,652,0,0,0,0,0,0,0,0,0,-1,1651,372,0,0
434,652,0,0,0,0,0,0,0,0,0,-1,1658,372,0,0
441,652,0,0,0,0,0,0,0,0,0,-1,1665,372,0,0
448,652,0,0,0,0,0,0,0,0,0,-1,1672,372,0,0
455,652,0,0,0,0,0,0,0,0,0,-1,1679,372,0,0
462,652,0,0,0,0,0,0,0,0,0,-1,1686,372,0,0
469,652,0,0,0,0,0,0,0,0,0,-1,1693,372,0,0
476,652,0,0,0,0,0,0,0,0,0,-1,1700,372,0,0
483,652,0,0,0,0,0,0,0,0,0,-1,1707,372,0,0
490,652,0,0,0,0,0,0,0,0,0,-1,1714,372,0,0
497,652,0,0,0,0,0,0,0,0,0,-1,1721,372,0,0
504,652,0,0,0,0,0,0,0,0,0,-1,1728,372,0,0
511,652,0,0,0,0,0,0,0,0,0,-1,1735,372,0,0
518,652,0,0,0,0,0,0,0,0,0,-1,1742,372,0,0
525,652,0,0,0,0,0,0,0,0,0,-1,1749,372,0,0
532,652,0,0,0,0,0,0,0,0,0,-1,1756,372,0,0
539,652,0,0,0,0,0,0,0,0,0,-1,1763,372,0,0
546,652,0,0,0,0,0,0,0,0,0,-1,1770,372,0,0
553,652,0,0,0,0,0,0,0,0,0,-1,1777,372,0,0
560,652,0,0,0,0,0,0,0,0,0,-1,1784,372,0,0
567,652,0,0,0,0,0,0,0,0,0,-1,1791,372,0,0
574,652,0,0,0,0,0,0,0,0,0,-1,1798,372,0,0
581,652,0,0,0,0,0,0,0,0,0,-1,1805,372,0,0
588,652,0,0,0,0,0,0,0,0,0,-1,1812,372,0,0
595,652,0,0,0,0,0,0,0,0,0,-1,1819,372,0,0
602,652,0,0,0,0,0,0,0,0,0,-1,1826,372,0,0
609,652,0,0,0,0,0,0,0,0,0,-1,1833,372,0,0
616,652,0,0,0,0,0,0,0,0,0,-1,1840,372,0,0
623,652,0,0,0,0,0,0,0,0,0,-1,1847,372,0,0
630,652,0,0,0,0,0,0,0,0,0,-1,1854,372,0,0
637,652,0,0,0,0,0,0,0,0,0,-1,1861,372,0,0
644,652,0,0,0,0,0,0,0,0,0,-1,1868,372,0,0
651,652,0,0,0,0,0,0,0,0,0,-1,1875,372,0,0
658,652,0,0,0,0,0,0,0,0,0,-1,1882,372,0,0
665,652,0,0,0,0,0,0,0,0,0,-1,1889,372,0,0
672,652,0,0,0,0,0,0,0,0,0,-1,1896,372,0,0
679,652,0,0,0,0,0,0,0,0,0,-1,1903,372,0,0
686,652,0,0,0,0,0,0,0,0,0,-1,1910,372,0,0
693,652,0,0,0,0,0,0,0,0,0,-1,1917,372,0,0
700,652,0,0,0,0,0,0,0,0,0,-1,1924,372,0,0
707,652,0,0,0,0,0,0,0,0,0,-1,1931,372,0,0
714,652,0,0,0,0,0,0,0,0,0,-1,1938,372,0,0
721,652,0,0,0,0,0,0,0,0,0,-1,1945,372,0,0
728,652,0,0,0,0,0,0,0,0,0,-1,1952,372,0,0
735,652,0,0,0,0,0,0,0,0,0,-1,1959,372,0,0
742,652,0,0,0,0,0,0,0,0,0,-1,1966,372,0,0
749,652,0,0,0,0,0,0,0,0,0,-1,1973,372,0,0
756,652,0,0,0,0,0,0,0,0,0,-1,1980,372,0,0
763,652,0,0,0,0,0,0,0,0,0,-1,1987,372,0,0
770,652,0,0,0,0,0,0,0,0,0,-1,1994,372,0,0
777,652,0,0,0,0,0,0,0,0,0,-1,2001,372,0,0
784,652,0,0,0,0,0,0,0,0,0,-1,2008,372,0,0
791,652,0,0,0,0,0,0,0,0,0,-1,2015,372,0,0
798,652,0,0,0,0,0,0,0,0,0,-1,2022,372,0,0
805,652,0,0,0,0,0,0,0,0,0,-1,2029,372,0,0
812,652,0,0,0,0,0,0,0,0,0,-1,2036,372,0,0
-700,645,0,0,0,0,0,0,0,0,0,-1,524,379,0,0
-693,645,0,0,0,0,0,0,0,0,0,-1,531,379,0,0
-686,645,0,0,0,0,0,0,0,0,0,-1,538,379,0,0
-679,645,0,0,0,0,0,0,0,0,0,-1,545,379,0,0
-672,645,0,0,0,0,0,0,0,0,0,-1,552,379,0,0
-665,645,0,0,0,0,0,0,0,0,0,-1,559,379,0,0
-658,645,0,0,0,0,0,0,0,0,0,-1,566,379,0,0
-651,645,0,0,0,0,0,0,0,0,0,-1,573,379,0,0
-644,645,0,0,0,0,0,0,0,0,0,-1,580,379,0,0
-637,645,0,0,0,0,0,0,0,0,0,-1,587,379,0,0
-630,645,0,0,0,0,0,0,0,0,0,-1,594,379,0,0
-623,645,0,0,0,0,0,0,0,0,0,-1,601,379,0,0
-616,645,0,0,0,0,0,0,0,0,0,-1,608,379,0,0
-609,645,0,0,0,0,0,0,0,0,0,-1,615,379,0,0
-602,645,0,0,0,0,0,0,0,0,0,-1,622,379,0,0
-595,645,0,0,0,0,0,0,0,0,0,-1,629,379,0,0
-588,645,0,0,0,0,0,0,0,0,0,-1,636,379,0,0
-581,645,0,0,0,0,0,0,0,0,0,-1,643,379,0,0
-574,645,0,0,0,0,0,0,0,0,0,-1,650,379,0,0
-567,645,0,0,0,0,0,0,0,0,0,-1,657,379,0,0
-560,645,0,0,0,0,0,0,0,0,0,-1,664,379,0,0
-553,645,0,0,0,0,0,0,0,0,0,-1,671,379,0,0
-546,645,0,0,0,0,0,0,0,0,0,-1,678,379,0,0
-539,645,0,0,0,0,0,0,0,0,0,-1,685,379,0,0
-532,645,0,0,0,0,0,0,0,0,0,-1,692,379,0,0
-525,645,0,0,0,0,0,0,0,0,0,-1,699,379,0,0
-518,645,0,0,0,0,0,0,0,0,0,-1,706,379,0,0
-511,645,0,0,0,0,0,0,0,0,0,-1,713,379,0,0
-504,645,0,0,0,0,0,0,0,0,0,-1,720,379,0,0
-497,645,0,0,0,0,0,0,0,0,0,-1,727,379,0,0
-490,645,0,0,0,0,0,0,0,0,0,-1,734,379,0,0
-483,645,0,0,0,0,0,0,0,0,0,-1,741,379,0,0
-476,645,0,0,0,0,0,0,0,0,0,-1,748,379,0,0
-469,645,0,0,0,0,0,0,0,0,0,-1,755,379,0,0
-462,645,0,0,0,0,0,0,0,0,0,-1,762,379,0,0
-455,645,0,0,0,0,0,0,0,0,0,-1,769,379,0,0
-448,645,0,0,0,0,0,0,0,0,0,-1,776,379,0,0
-441,645,0,0,0,0,0,0,0,0,0,-1,783,379,0,0
-434,645,0,0,0,0,0,0,0,0,0,-1,790,379,0,0
-427,645,0,0,0,0,0,0,0,0,0,-1,797,379,0,0
-420,645,0,0,0,0,0,0,0,0,0,-1,804,379,0,0
-413,645,0,0,0,0,0,0,0,0,0,-1,811,379,0,0
-406,645,0,0,0,0,0,0,0,0,0,-1,818,379,0,0
-399,645,0,0,0,0,0,0,0,0,0,-1,825,379,0,0
-392,645,0,0,0,0,0,0,0,0,0,-1,832,379,0,0
-385,645,0,0,0,0,0,0,0,0,0,-1,839,379,0,0
-378,645,0,0,0,0,0,0,0,0,0,-1,846,379,0,0
-371,645,0,0,0,0,0,0,0,0,0,-1,853,379,0,0
-364,645,0,0,0,0,0,0,0,0,0,-1,860,379,0,0
-357,645,0,0,0,0,0,0,0,0,0,-1,867,379,0,0
-350,645,0,0,0,0,0,0,0,0,0,-1,874,379,0,0
-343,645,0,0,0,0,0,0,0,0,0,-1,881,379,0,0
-336,645,0,0,0,0,0,0,0,0,0,-1,888,379,0,0
-329,645,0,0,0,0,0,0,0,0,0,-1,895,379,0,0
-322,645,0,0,0,0,0,0,0,0,0,-1,902,379,0,0
-315,645,0,0,0,0,0,0,0,0,0,-1,909,379,0,0
-308,645,0,0,0,0,0,0,0,0,0,-1,916,379,0,0
-301,645,0,0,0,0,0,0,0,0,0,-1,923,379,0,0
-294,645,0,0,0,0,0,0,0,0,0,-1,930,379,0,0
-287,645,0,0,0,0,0,0,0,0,0,-1,937,379,0,0
-280,645,0,0,0,0,0,0,0,0,0,-1,944,379,0,0
-273,645,0,0,0,0,0,0,0,0,0,-1,951,379,0,0
-266,645,0,0,0,0,0,0,0,0,0,-1,958,379,0,0
-259,645,0,0,0,0,0,0,0,0,0,-1,965,379,0,0
-252,645,2.95691,-26.9133,0,0,0,0,0,0,0,-1,972,379,2.9569,26.9133
-245,645,2.73169,-27.0215,0,0,0,0,0,0,0,-1,979,379,2.73172,27.0215
-238,645,2.6665,-26.9464,0,0,0,0,0,0,0,-1,986,379,2.66649,26.9464
-231,645,7.26807,-29.1054,0,0,0,0,0,0,0,-1,993,379,7.26806,29.1054
-224,645,7.69073,-29.5737,0,0,0,0,0,0,0,-1,1000,379,7.69071,29.5737
-217,645,8.65485,-33.4136,0,0,0,0,0,0,0,-1,1007,379,8.65487,33.4136
-210,645,9.21594,-32.5157,0,0,0,0,0,0,0,-1,1014,379,9.21591,32.5156
-203,645,9.77698,-31.6176,0,0,0,0,0,0,0,-1,1021,379,9.77696,31.6177
-196,645,10.2664,-29.7741,0,0,0,0,0,0,0,-1,1028,379,10.2664,29.7741
-189,645,5.88062,-28.2191,0,0,0,0,0,0,0,-1,1035,379,5.88062,28.2191
-182,645,6.34167,-29.2525,0,0,0,0,0,0,0,-1,1042,379,6.3417,29.2525
-175,645,6.36462,-35.5586,0,0,0,0,0,0,0,-1,1049,379,6.3646,35.5586
-168,645,7.19116,-39.5785,0,0,0,0,0,0,0,-1,1056,379,7.19115,39.5785
-161,645,7.22083,-37.6093,0,0,0,0,0,0,0,-1,1063,379,7.22085,37.6094
-154,645,7.42102,-41.6806,0,0,0,0,0,0,0,-1,1070,379,7.42105,41.6806
-147,645,8.89526,-50.6488,0,0,0,0,0,0,0,-1,1077,379,8.89521,50.6488
-140,645,8.47729,-50.9752,0,0,0,0,0,0,0,-1,1084,379,8.47729,50.9752
-133,645,8.31311,-51.5271,0,0,0,0,0,0,0,-1,1091,379,8.31305,51.5271
-126,645,8.51819,-52.3673,0,0,0,0,0,0,0,-1,1098,379,8.5182,52.3673
-119,645,8.35327,-52.885,0,0,0,0,0,0,0,-1,1105,379,8.35331,52.885
-112,645,8.24194,-53.5303,0,0,0,0,0,0,0,-1,1112,379,8.24189,53.5303
-105,645,8.18909,-54.1788,0,0,0,0,0,0,0,-1,1119,379,8.18912,54.1788
-98,645,8.08936,-54.6942,0,0,0,0,0,0,0,-1,1126,379,8.0893,54.6942
-91,645,8.00562,-55.2031,0,0,0,0,0,0,0,-1,1133,379,8.0056,55.2031
-84,645,7.96008,-55.6771,0,0,0,0,0,0,0,-1,1140,379,7.96012,55.6771
-77,645,7.9978,-56.1249,-0.00747316,0.00534975,-0.00195572,0.0056414,-0.00776481,-1.42276,0.00777237,0.0436848,1147,379,7.99778,56.1249
-70,645,7.88403,-56.5361,-0.00736488,0.00603324,-0.00181714,0.00627532,-0.00760696,-1.43836,0.00802722,0.0153318,1154,379,7.884,56.5361
-63,645,7.83154,-56.9215,-0.00711247,0.00761266,-0.00195592,0.00786803,-0.00736784,-1.44097,0.00879802,0.0130413,1161,379,7.83151,56.9215
-56,645,7.78772,-57.2852,-0.0067615,0.00866469,-0.00208327,0.00894108,-0.00703789,-1.4389,0.00924725,0.0152807,1168,379,7.78773,57.2852
-49,645,7.74976,-57.6538,-0.00627751,0.00927469,-0.00198681,0.00952449,-0.00652731,-1.44572,0.00932121,0.012462,1175,379,7.74977,57.6538
-42,645,7.67053,-57.9947,-0.00625299,0.0106541,-0.000893253,0.0107012,-0.00630006,-1.51816,0.00992468,0.0114138,1182,379,7.67052,57.9947
-35,645,7.62585,-58.3568,-0.00635021,0.0118043,-1.15899e-05,0.0118043,-0.00635022,-1.57016,0.010638,0.0112535,1189,379,7.62588,58.3568
-28,645,7.57117,-58.7028,-0.00642984,0.0131128,0.000660938,0.0131351,-0.00645217,1.53703,0.0115261,0.00962193,1196,379,7.57118,58.7028
-21,645,7.52478,-58.9843,-0.00624811,0.0139193,0.00111863,0.0139811,-0.00630997,1.51555,0.0119909,0.01108,1203,379,7.52476,58.9843
-14,645,7.51038,-59.2617,-0.00617106,0.0145335,0.00160598,0.0146573,-0.00629489,1.49384,0.0124138,0.0104602,1210,379,7.51041,59.2617
-7,645,7.495,-59.5322,-0.00612609,0.015181,0.00192546,0.0153536,-0.00629869,1.48139,0.0128601,0.0145871,1217,379,7.49504,59.5322
0,645,7.48779,-59.7036,-0.00601569,0.0155679,0.00205957,0.0157627,-0.00621046,1.47651,0.0130797,0.0273217,1224,379,7.48782,59.7036
7,645,7.42285,-59.8681,-0.00569319,0.0162348,0.00211398,0.0164368,-0.00589513,1.47556,0.0133636,0.0177683,1231,379,7.42283,59.8681
14,645,7.39832,-60.0262,-0.00531579,0.0168053,0.00211122,0.017005,-0.00551548,1.47649,0.0135545,0.0174459,1238,379,7.39835,60.0262
21,645,7.34314,-60.1996,-0.0048437,0.017423,0.002146,0.017628,-0.00504864,1.47559,0.0137474,0.0123746,1245,379,7.34312,60.1996
28,645,7.32935,-60.3481,-0.00418164,0.0181573,0.00220385,0.0183726,-0.00439698,1.47339,0.0139471,0.0103588,1252,379,7.32938,60.3481
35,645,7.3053,-60.4596,-0.00362587,0.0186767,0.00207921,0.0188689,-0.00381806,1.47863,0.0140262,0.00912722,1259,379,7.3053,60.4596
42,645,7.29907,-60.5434,-0.00311832,0.0191263,0.00208314,0.0193197,-0.00331172,1.47822,0.0141138,0.00974648,1266,379,7.29903,60.5434
49,645,7.31885,-60.5905,-0.00261515,0.0196077,0.0020897,0.0198025,-0.00280995,1.47785,0.0142311,0.0129118,1273,379,7.31885,60.5905
56,645,7.30566,-60.6005,-0.00211603,0.0199433,0.00204808,0.0201319,-0.00230457,1.479,0.0142517,0.0122532,1280,379,7.30569,60.6005
63,645,7.26208,-60.6319,-0.0016073,0.0200012,0.00191394,0.0201694,-0.00177551,1.48313,0.0140755,0.0119356,1287,379,7.26211,60.6319
70,645,7.19775,-60.632,-0.00118876,0.0198293,0.0018706,0.0199945,-0.00135394,1.48272,0.0138031,0.0168324,1294,379,7.1978,60.632
77,645,7.16809,-60.6215,-0.000958979,0.0193672,0.00179546,0.0195246,-0.00111636,1.48337,0.013404,0.0203384,1301,379,7.1681,60.6215
84,645,7.20764,-60.5545,-0.000979037,0.0189947,0.00145592,0.0191003,-0.00108461,1.49841,0.01311,0.0146858,1308,379,7.20766,60.5545
91,645,7.14697,-60.5099,-0.00117834,0.0181207,0.00109184,0.0181822,-0.00123992,1.51446,0.0125552,0.0157408,1315,379,7.14695,60.5099
98,645,7.11145,-60.379,-0.00129385,0.017538,0.00081619,0.0175733,-0.00132916,1.52756,0.0121828,0.0135294,1322,379,7.11139,60.379
105,645,7.10059,-60.2214,-0.00132898,0.0172516,0.000640931,0.0172737,-0.00135107,1.53636,0.0119916,0.0107492,1329,379,7.10056,60.2214
112,645,7.07227,-60.0705,-0.00153073,0.0167737,0.000363744,0.0167809,-0.00153796,1.55093,0.0117336,0.0093524,1336,379,7.07232,60.0705
119,645,7.0354,-59.9005,-0.00172366,0.0164185,4.33435e-05,0.0164186,-0.00172376,1.56841,0.0115633,0.00912171,1343,379,7.03536,59.9005
126,645,6.97937,-59.6777,-0.00191963,0.0164305,-0.000252303,0.0164339,-0.0019231,-1.55705,0.01165,0.0118167,1350,379,6.97936,59.6777
133,645,6.95764,-59.4399,-0.00211185,0.0165184,-0.000399471,0.016527,-0.00212041,-1.54937,0.0117885,0.013613,1357,379,6.95764,59.4399
140,645,6.94373,-59.21,-0.00194908,0.0172629,7.30338e-05,0.0172631,-0.00194936,1.56699,0.0122105,0.0132599,1364,379,6.94374,59.21
147,645,6.8905,-58.9373,-0.00190383,0.0181647,0.000536042,0.018179,-0.00191813,1.54411,0.0128067,0.0138716,1371,379,6.89046,58.9373
154,645,6.86829,-58.6497,-0.00198516,0.0188041,0.00106365,0.0188583,-0.00203944,1.51981,0.0133043,0.0124353,1378,379,6.86824,58.6497
161,645,6.83533,-58.3238,-0.00219217,0.0192087,0.00171954,0.019346,-0.00232946,1.49113,0.0137398,0.0147208,1385,379,6.83531,58.3238
168,645,6.78467,-57.9716,-0.00252782,0.0191824,0.00233995,0.0194318,-0.00277716,1.46464,0.0139725,0.017431,1392,379,6.78471,57.9715
175,645,6.76917,-57.6021,-0.0030689,0.0189927,0.00304636,0.0194056,-0.00348182,1.43607,0.0142403,0.01543,1399,379,6.76922,57.6021
182,645,6.70789,-57.222,-0.00359064,0.0185881,0.00381663,0.0192265,-0.00422904,1.40506,0.0144353,0.0113775,1406,379,6.70787,57.2219
189,645,6.6582,-56.7889,-0.00399342,0.017199,0.00481322,0.0182409,-0.00503537,1.35761,0.0141411,0.0114632,1413,379,6.65824,56.7889
196,645,6.59595,-56.3919,-0.00409244,0.0166316,0.00518353,0.0178558,-0.00531664,1.33887,0.0140163,0.0119744,1420,379,6.59595,56.3919
203,645,6.52466,-55.9409,-0.00452089,0.0154632,0.00559688,0.0169239,-0.00598162,1.3155,0.0137183,0.0129351,1427,379,6.52464,55.941
210,645,6.51538,-55.3899,-0.00509924,0.0138328,0.00576029,0.0154477,-0.00671412,1.29747,0.0131222,0.0235551,1434,379,6.51534,55.3899
217,645,6.39893,-55.0553,0,0,0,0,0,0,0,-1,1441,379,6.39896,55.0553
224,645,6.35718,-54.5146,0,0,0,0,0,0,0,-1,1448,379,6.3572,54.5146
231,645,6.27307,-53.9384,0,0,0,0,0,0,0,-1,1455,379,6.27302,53.9384
238,645,6.17542,-53.4059,0,0,0,0,0,0,0,-1,1462,379,6.1754,53.406
245,645,6.19177,-52.6682,0,0,0,0,0,0,0,-1,1469,379,6.19175,52.6682
252,645,6.2262,-52.0227,0,0,0,0,0,0,0,-1,1476,379,6.22615,52.0227
259,645,6.08142,-51.5677,0,0,0,0,0,0,0,-1,1483,379,6.08148,51.5677
266,645,5.96057,-50.8563,-0.00402101,0.0290682,0.00971628,0.0317103,-0.00666312,1.30529,0.0236759,0.0490063,1490,379,5.96056,50.8563
273,645,5.89697,-50.3889,-0.00313109,0.0316851,0.0111156,0.0349313,-0.00637724,1.28666,0.0256786,0.0351891,1497,379,5.89692,50.3889
280,645,5.92371,-49.8304,0,0,0,0,0,0,0,-1,1504,379,5.92365,49.8304
287,645,5.25439,-22.6157,0,0,0,0,0,0,0,-1,1511,379,5.25445,22.6157
294,645,3.76428,-22.9539,0,0,0,0,0,0,0,-1,1518,379,3.7643,22.9539
301,645,1.35217,-22.1208,0,0,0,0,0,0,0,-1,1525,379,1.3522,22.1208
308,645,-0.529297,-21.7611,0,0,0,0,0,0,0,-1,1532,379,-0.529316,21.7611
315,645,5.62427,-45.4924,0,0,0,0,0,0,0,-1,1539,379,5.62432,45.4924
322,645,5.8894,-44.4522,0,0,0,0,0,0,0,-1,1546,379,5.88945,44.4522
329,645,-4.45581,-22.707,0,0,0,0,0,0,0,-1,1553,379,-4.45579,22.707
336,645,-5.83154,-22.8404,0,0,0,0,0,0,0,-1,1560,379,-5.83149,22.8404
343,645,4.03186,-38.0623,0,0,0,0,0,0,0,-1,1567,379,4.03187,38.0623
350,645,4.76404,-22.1987,0,0,0,0,0,0,0,-1,1574,379,4.76399,22.1987
357,645,4.61316,-21.967,0,0,0,0,0,0,0,-1,1581,379,4.61316,21.967
364,645,-0.0794678,-3.22021,0,0,0,0,0,0,0,-1,1588,379,-0.0794987,3.22021
371,645,0,0,0,0,0,0,0,0,0,-1,1595,379,0,0
378,645,0,0,0,0,0,0,0,0,0,-1,1602,379,0,0
385,645,0,0,0,0,0,0,0,0,0,-1,1609,379,0,0
392,645,0,0,0,0,0,0,0,0,0,-1,1616,379,0,0
399,645,0,0,0,0,0,0,0,0,0,-1,1623,379,0,0
406,645,0,0,0,0,0,0,0,0,0,-1,1630,379,0,0
413,645,0,0,0,0,0,0,0,0,0,-1,1637,379,0,0
420,645,0,0,0,0,0,0,0,0,0,-1,1644,379,0,0
427,645,0,0,0,0,0,0,0,0,0,-1,1651,379,0,0
434,645,0,0,0,0,0,0,0,0,0,-1,1658,379,0,0
441,645,0,0,0,0,0,0,0,0,0,-1,1665,379,0,0
448,645,0,0,0,0,0,0,0,0,0,-1,1672,379,0,0
455,645,0,0,0,0,0,0,0,0,0,-1,1679,379,0,0
462,645,0,0,0,0,0,0,0,0,0,-1,1686,379,0,0
469,645,0,0,0,0,0,0,0,0,0,-1,1693,379,0,0
476,645,0,0,0,0,0,0,0,0,0,-1,1700,379,0,0
483,645,0,0,0,0,0,0,0,0,0,-1,1707,379,0,0
490,645,0,0,0,0,0,0,0,0,0,-1,1714,379,0,0
497,645,0,0,0,0,0,0,0,0,0,-1,1721,379,0,0
504,645,0,0,0,0,0,0,0,0,0,-1,1728,379,0,0
511,645,0,0,0,0,0,0,0,0,0,-1,1735,379,0,0
518,645,0,0,0,0,0,0,0,0,0,-1,1742,379,0,0
525,645,0,0,0,0,0,0,0,0,0,-1,1749,379,0,0
532,645,0,0,0,0,0,0,0,0,0,-1,1756,379,0,0
539,645,0,0,0,0,0,0,0,0,0,-1,1763,379,0,0
546,645,0,0,0,0,0,0,0,0,0,-1,1770,379,0,0
553,645,0,0,0,0,0,0,0,0,0,-1,1777,379,0,0
560,645,0,0,0,0,0,0,0,0,0,-1,1784,379,0,0
567,645,0,0,0,0,0,0,0,0,0,-1,1791,379,0,0
574,645,0,0,0,0,0,0,0,0,0,-1,1798,379,0,0
581,645,0,0,0,0,0,0,0,0,0,-1,1805,379,0,0
588,645,0,0,0,0,0,0,0,0,0,-1,1812,379,0,0
595,645,0,0,0,0,0,0,0,0,0,-1,1819,379,0,0
602,645,0,0,0,0,0,0,0,0,0,-1,1826,379,0,0
609,645,0,0,0,0,0,0,0,0,0,-1,1833,379,0,0
616,645,0,0,0,0,0,0,0,0,0,-1,1840,379,0,0
623,645,0,0,0,0,0,0,0,0,0,-1,1847,379,0,0
630,645,0,0,0,0,0,0,0,0,0,-1,1854,379,0,0
637,645,0,0,0,0,0,0,0,0,0,-1,1861,379,0,0
644,645,0,0,0,0,0,0,0,0,0,-1,1868,379,0,0
651,645,0,0,0,0,0,0,0,0,0,-1,1875,379,0,0
658,645,0,0,0,0,0,0,0,0,0,-1,1882,379,0,0
665,645,0,0,0,0,0,0,0,0,0,-1,1889,379,0,0
672,645,0,0,0,0,0,0,0,0,0,-1,1896,379,0,0
679,645,0,0,0,0,0,0,0,0,0,-1,1903,379,0,0
686,645,0,0,0,0,0,0,0,0,0,-1,1910,379,0,0
693,645,0,0,0,0,0,0,0,0,0,-1,1917,379,0,0
700,645,0,0,0,0,0,0,0,0,0,-1,1924,379,0,0
707,645,0,0,0,0,0,0,0,0,0,-1,1931,379,0,0
714,645,0,0,0,0,0,0,0,0,0,-1,1938,379,0,0
721,645,0,0,0,0,0,0,0,0,0,-1,1945,379,0,0
728,645,0,0,0,0,0,0,0,0,0,-1,1952,379,0,0
735,645,0,0,0,0,0,0,0,0,0,-1,1959,379,0,0
742,645,0,0,0,0,0,0,0,0,0,-1,1966,379,0,0
749,645,0,0,0,0,0,0,0,0,0,-1,1973,379,0,0
756,645,0,0,0,0,0,0,0,0,0,-1,1980,379,0,0
763,645,0,0,0,0,0,0,0,0,0,-1,1987,379,0,0
770,645,0,0,0,0,0,0,0,0,0,-1,1994,379,0,0
777,645,0,0,0,0,0,0,0,0,0,-1,2001,379,0,0
784,645,0,0,0,0,0,0,0,0,0,-1,2008,379,0,0
791,645,0,0,0,0,0,0,0,0,0,-1,2015,379,0,0
798,645,0,0,0,0,0,0,0,0,0,-1,2022,379,0,0
805,645,0,0,0,0,0,0,0,0,0,-1,2029,379,0,0
812,645,0,0,0,0,0,0,0,0,0,-1,2036,379,0,0
-700,638,0,0,0,0,0,0,0,0,0,-1,524,386,0,0
-693,638,0,0,0,0,0,0,0,0,0,-1,531,386,0,0
-686,638,0,0,0,0,0,0,0,0,0,-1,538,386,0,0
-679,638,0,0,0,0,0,0,0,0,0,-1,545,386,0,0
-672,638,0,0,0,0,0,0,0,0,0,-1,552,386,0,0
-665,638,0,0,0,0,0,0,0,0,0,-1,559,386,0,0
-658,638,0,0,0,0,0,0,0,0,0,-1,566,386,0,0
-651,638,0,0,0,0,0,0,0,0,0,-1,573,386,0,0
-644,638,0,0,0,0,0,0,0,0,0,-1,580,386,0,0
-637,638,0,0,0,0,0,0,0,0,0,-1,587,386,0,0
-630,638,0,0,0,0,0,0,0,0,0,-1,594,386,0,0
-623,638,0,0,0,0,0,0,0,0,0,-1,601,386,0,0
-616,638,0,0,0,0,0,0,0,0,0,-1,608,386,0,0
-609,638,0,0,0,0,0,0,0,0,0,-1,615,386,0,0
-602,638,0,0,0,0,0,0,0,0,0,-1,622,386,0,0
-595,638,0,0,0,0,0,0,0,0,0,-1,629,386,0,0
-588,638,0,0,0,0,0,0,0,0,0,-1,636,386,0,0
-581,638,0,0,0,0,0,0,0,0,0,-1,643,386,0,0
-574,638,0,0,0,0,0,0,0,0,0,-1,650,386,0,0
-567,638,0,0,0,0,0,0,0,0,0,-1,657,386,0,0
-560,638,0,0,0,0,0,0,0,0,0,-1,664,386,0,0
-553,638,0,0,0,0,0,0,0,0,0,-1,671,386,0,0
-546,638,0,0,0,0,0,0,0,0,0,-1,678,386,0,0
-539,638,0,0,0,0,0,0,0,0,0,-1,685,386,0,0
-532,638,0,0,0,0,0,0,0,0,0,-1,692,386,0,0
-525,638,0,0,0,0,0,0,0,0,0,-1,699,386,0,0
-518,638,0,0,0,0,0,0,0,0,0,-1,706,386,0,0
-511,638,0,0,0,0,0,0,0,0,0,-1,713,386,0,0
-504,638,0,0,0,0,0,0,0,0,0,-1,720,386,0,0
-497,638,0,0,0,0,0,0,0,0,0,-1,727,386,0,0
-490,638,0,0,0,0,0,0,0,0,0,-1,734,386,0,0
-483,638,0,0,0,0,0,0,0,0,0,-1,741,386,0,0
-476,638,0,0,0,0,0,0,0,0,0,-1,748,386,0,0
-469,638,0,0,0,0,0,0,0,0,0,-1,755,386,0,0
-462,638,0,0,0,0,0,0,0,0,0,-1,762,386,0,0
-455,638,0,0,0,0,0,0,0,0,0,-1,769,386,0,0
-448,638,0,0,0,0,0,0,0,0,0,-1,776,386,0,0
-441,638,0,0,0,0,0,0,0,0,0,-1,783,386,0,0
-434,638,0,0,0,0,0,0,0,0,0,-1,790,386,0,0
-427,638,0,0,0,0,0,0,0,0,0,-1,797,386,0,0
-420,638,0,0,0,0,0,0,0,0,0,-1,804,386,0,0
-413,638,0,0,0,0,0,0,0,0,0,-1,811,386,0,0
-406,638,0,0,0,0,0,0,0,0,0,-1,818,386,0,0
-399,638,0,0,0,0,0,0,0,0,0,-1,825,386,0,0
-392,638,0,0,0,0,0,0,0,0,0,-1,832,386,0,0
-385,638,0,0,0,0,0,0,0,0,0,-1,839,386,0,0
-378,638,0,0,0,0,0,0,0,0,0,-1,846,386,0,0
-371,638,0,0,0,0,0,0,0,0,0,-1,853,386,0,0
-364,638,0,0,0,0,0,0,0,0,0,-1,860,386,0,0
-357,638,0,0,0,0,0,0,0,0,0,-1,867,386,0,0
-350,638,0,0,0,0,0,0,0,0,0,-1,874,386,0,0
-343,638,0,0,0,0,0,0,0,0,0,-1,881,386,0,0
-336,638,0,0,0,0,0,0,0,0,0,-1,888,386,0,0
-329,638,0,0,0,0,0,0,0,0,0,-1,895,386,0,0
-322,638,0,0,0,0,0,0,0,0,0,-1,902,386,0,0
-315,638,0,0,0,0,0,0,0,0,0,-1,909,386,0,0
-308,638,0,0,0,0,0,0,0,0,0,-1,916,386,0,0
-301,638,0,0,0,0,0,0,0,0,0,-1,923,386,0,0
-294,638,0,0,0,0,0,0,0,0,0,-1,930,386,0,0
-287,638,0,0,0,0,0,0,0,0,0,-1,937,386,0,0
-280,638,0,0,0,0,0,0,0,0,0,-1,944,386,0,0
-273,638,0,0,0,0,0,0,0,0,0,-1,951,386,0,0
-266,638,10.1613,-36.3326,0,0,0,0,0,0,0,-1,958,386,10.1612,36.3326
-259,638,9.95282,-34.6103,0,0,0,0,0,0,0,-1,965,386,9.9528,34.6103
-252,638,9.95746,-33.6964,0,0,0,0,0,0,0,-1,972,386,9.95744,33.6965
-245,638,9.84143,-32.9009,0,0,0,0,0,0,0,-1,979,386,9.84145,32.9009
-238,638,2.93518,-26.3649,0,0,0,0,0,0,0,-1,986,386,2.93516,26.3649
-231,638,2.36829,-26.0088,0,0,0,0,0,0,0,-1,993,386,2.3683,26.0088
-224,638,6.3465,-30.9124,0,0,0,0,0,0,0,-1,1000,386,6.34648,30.9124
-217,638,7.41205,-32.7263,0,0,0,0,0,0,0,-1,1007,386,7.41204,32.7262
-210,638,8.7038,-34.5688,0,0,0,0,0,0,0,-1,1014,386,8.70378,34.5689
-203,638,4.32593,-27.5803,0,0,0,0,0,0,0,-1,1021,386,4.32594,27.5803
-196,638,6.0614,-28.4651,0,0,0,0,0,0,0,-1,1028,386,6.06143,28.4651
-189,638,11.4561,-30.1556,0,0,0,0,0,0,0,-1,1035,386,11.456,30.1556
-182,638,6.45471,-33.4271,0,0,0,0,0,0,0,-1,1042,386,6.45473,33.427
-175,638,7.91394,-47.8045,0,0,0,0,0,0,0,-1,1049,386,7.91391,47.8045
-168,638,8.23792,-49.2334,0,0,0,0,0,0,0,-1,1056,386,8.2379,49.2334
-161,638,8.28943,-49.8988,0,0,0,0,0,0,0,-1,1063,386,8.28941,49.8988
-154,638,8.16394,-50.4401,0,0,0,0,0,0,0,-1,1070,386,8.16388,50.4401
-147,638,8.16687,-50.4532,-0.00473246,0.0237994,-0.00855714,0.026169,-0.00710208,-1.30065,0.0202332,0.0487492,1077,386,8.16689,50.4532
-140,638,8.06628,-51.1818,-0.00501665,0.0214087,-0.00753048,0.023404,-0.00701196,-1.31178,0.0183911,0.0418647,1084,386,8.06626,51.1818
-133,638,7.90271,-51.9064,0,0,0,0,0,0,0,-1,1091,386,7.90269,51.9064
-126,638,7.91357,-52.5615,-0.00560926,0.0160199,-0.00552763,0.0173507,-0.00694004,-1.33454,0.0144472,0.0243139,1098,386,7.9136,52.5615
-119,638,7.84082,-53.1295,-0.00575022,0.0134733,-0.00476544,0.0145898,-0.00686671,-1.34066,0.0126526,0.0235824,1105,386,7.84088,53.1295
-112,638,7.79895,-53.6808,-0.00571797,0.0113531,-0.004062,0.0122703,-0.00663522,-1.34871,0.0110756,0.0208765,1112,386,7.79891,53.6808
-105,638,7.77051,-54.2159,-0.00559297,0.00955909,-0.0035138,0.0103343,-0.00636817,-1.35366,0.00973337,0.0189072,1119,386,7.77049,54.2159
-98,638,7.70093,-54.7185,-0.005555,0.0079317,-0.00297931,0.00856054,-0.00618384,-1.36278,0.00854945,0.0170151,1126,386,7.70088,54.7185
-91,638,7.59412,-55.2147,-0.00547935,0.00567066,-0.00243916,0.0061809,-0.00598959,-1.36458,0.00702693,0.0128252,1133,386,7.59411,55.2147
-84,638,7.54504,-55.6816,-0.00520535,0.00425678,-0.00195636,0.00464531,-0.00559388,-1.37475,0.00592005,0.0151228,1140,386,7.54505,55.6816
-77,638,7.49402,-56.1379,-0.00489447,0.00413346,-0.00170026,0.00444306,-0.00520407,-1.39068,0.00557554,0.0130002,1147,386,7.49405,56.1379
-70,638,7.45789,-56.5598,-0.00468238,0.00440823,-0.00152499,0.00465724,-0.00493139,-1.40894,0.00553675,0.0126927,1154,386,7.45784,56.5598
-63,638,7.43616,-56.9669,-0.00435436,0.00517865,-0.00149882,0.00540875,-0.00458446,-1.41847,0.00577612,0.0132532,1161,386,7.43614,56.967
-56,638,7.42395,-57.3534,-0.00398426,0.00562008,-0.001456,0.00583595,-0.00420013,-1.4236,0.00581994,0.0175654,1168,386,7.42395,57.3534
-49,638,7.39368,-57.698,-0.00353218,0.00577777,-0.0012695,0.00594777,-0.00370218,-1.43767,0.00562146,0.0142639,1175,386,7.39363,57.698
-42,638,7.35327,-58.0348,-0.00314163,0.00607408,-0.000822219,0.00614686,-0.00321441,-1.48251,0.00549241,0.0126017,1182,386,7.35327,58.0348
-35,638,7.32788,-58.3831,-0.00285368,0.00636488,-0.000452069,0.006387,-0.0028758,-1.52191,0.00547445,0.0118996,1189,386,7.32785,58.3831
-28,638,7.30469,-58.7193,-0.00263593,0.00671975,-0.000212604,0.00672457,-0.00264076,-1.54809,0.0055758,0.0111901,1196,386,7.30468,58.7193
-21,638,7.25964,-59.0026,-0.00238164,0.00690062,-5.6154e-05,0.00690096,-0.00238198,-1.56475,0.00556717,0.012517,1203,386,7.2596,59.0026
-14,638,7.24072,-59.293,-0.00226445,0.00710015,0.000102261,0.00710127,-0.00226556,1.55988,0.00564305,0.0124832,1210,386,7.24071,59.293
-7,638,7.27283,-59.5999,-0.00226409,0.00732766,0.000169488,0.00733065,-0.00226708,1.55313,0.00579261,0.0190441,1217,386,7.27285,59.5998
0,638,7.22607,-59.6779,-0.00238776,0.00743144,0.000159751,0.00743404,-0.00239036,1.55453,0.00591603,0.0366442,1224,386,7.2261,59.6779
7,638,7.1936,-59.8687,-0.00255035,0.00769551,0.000141988,0.00769748,-0.00255232,1.55694,0.00616124,0.0266562,1231,386,7.19356,59.8686
14,638,7.1875,-60.0768,-0.00282366,0.00789315,0.000105598,0.00789419,-0.0028247,1.56094,0.00641512,0.0132614,1238,386,7.18752,60.0768
21,638,7.21765,-60.2527,-0.00305058,0.00813533,9.34314e-05,0.00813611,-0.00305136,1.56244,0.00667776,0.0122708,1245,386,7.2177,60.2527
28,638,7.21851,-60.3824,-0.00318312,0.00840441,0.000117818,0.00840561,-0.00318432,1.56063,0.00691409,0.00984396,1252,386,7.21851,60.3824
35,638,7.21021,-60.4734,-0.00334825,0.0083928,4.35719e-05,0.00839296,-0.00334841,1.56709,0.00698432,0.0108654,1259,386,7.21017,60.4735
42,638,7.2334,-60.5572,-0.00352962,0.00844705,-1.97256e-05,0.00844708,-0.00352965,-1.56915,0.00710639,0.0107119,1266,386,7.23337,60.5572
49,638,7.25781,-60.6213,-0.00363654,0.00853657,-0.000160395,0.00853868,-0.00363865,-1.55762,0.00721782,0.00925641,1273,386,7.2578,60.6213
56,638,7.24194,-60.6435,-0.00358153,0.00850968,-0.000298951,0.00851707,-0.00358892,-1.54609,0.00717984,0.0116341,1280,386,7.24194,60.6435
63,638,7.22559,-60.6499,-0.00335104,0.00834826,-0.000464552,0.00836668,-0.00336945,-1.53117,0.0069776,0.0145163,1287,386,7.22557,60.6499
70,638,7.21252,-60.6706,-0.00298733,0.00811207,-0.000547194,0.00813899,-0.00301424,-1.52166,0.00666205,0.0199756,1294,386,7.21252,60.6706
77,638,7.2356,-60.6221,-0.0025882,0.00789666,-0.000636703,0.00793518,-0.00262673,-1.51037,0.00634946,0.0204675,1301,386,7.23564,60.6221
84,638,7.29016,-60.5537,-0.00213922,0.0077571,-0.000860855,0.00783143,-0.00221355,-1.48467,0.00609431,0.0142998,1308,386,7.29021,60.5537
91,638,7.27161,-60.4727,-0.00176693,0.00736092,-0.00103456,0.00747671,-0.00188272,-1.45934,0.00571635,0.0150825,1315,386,7.27163,60.4727
98,638,7.24121,-60.3439,-0.00136653,0.00731221,-0.00105298,0.00743814,-0.00149246,-1.45177,0.00552387,0.0137398,1322,386,7.24119,60.3439
105,638,7.22913,-60.2359,-0.000824352,0.00749777,-0.000949021,0.00760462,-0.000931203,-1.45868,0.00540694,0.0110661,1329,386,7.22907,60.2359
112,638,7.23303,-60.0864,-0.000376826,0.00762481,-0.000853159,0.00771477,-0.000466781,-1.46575,0.00530562,0.0103074,1336,386,7.23299,60.0864
119,638,7.2323,-59.9144,1.38889e-05,0.00778908,-0.000749058,0.00786058,-5.76177e-05,-1.47562,0.0052597,0.0126138,1343,386,7.23235,59.9144
126,638,7.2002,-59.7013,0.00020449,0.00814462,-0.000648676,0.00819726,0.000151844,-1.48982,0.00541494,0.0163013,1350,386,7.2002,59.7013
133,638,7.19275,-59.4767,0.00027819,0.00853603,-0.000473106,0.00856304,0.000251174,-1.51375,0.00562684,0.0171287,1357,386,7.19279,59.4767
140,638,7.17236,-59.2433,0.000433747,0.00929029,-6.76258e-06,0.00929029,0.000433742,-1.57003,0.00605413,0.0173658,1364,386,7.17242,59.2434
147,638,7.14429,-58.9797,0.000456901,0.0100276,0.000440132,0.0100478,0.000436703,1.52494,0.00655779,0.0178939,1371,386,7.14424,58.9797
154,638,7.14478,-58.6927,0.000315685,0.0106602,0.000863101,0.0107317,0.000244166,1.48812,0.00707449,0.0163394,1378,386,7.14481,58.6927
161,638,7.13647,-58.3575,8.37656e-06,0.0112456,0.00131191,0.0113968,-0.000142752,1.4561,0.00764587,0.0196697,1385,386,7.13644,58.3575
168,638,7.12891,-58.0082,-0.000431541,0.011622,0.00175475,0.0118722,-0.000681802,1.42913,0.00815159,0.0245347,1392,386,7.12892,58.0082
175,638,7.1322,-57.659,-0.000998424,0.0118352,0.00222744,0.0122108,-0.00137403,1.40374,0.00863507,0.0193044,1399,386,7.13223,57.659
182,638,7.05481,-57.2568,-0.00161727,0.0119525,0.00270601,0.0124722,-0.00213699,1.38105,0.00911107,0.0133124,1406,386,7.05479,57.2568
189,638,7.03967,-56.8258,-0.00212579,0.0116241,0.00331951,0.0123835,-0.00288524,1.34588,0.00936675,0.0118981,1413,386,7.03972,56.8258
196,638,6.99915,-56.4159,-0.00234098,0.0115654,0.00369826,0.0124878,-0.00326332,1.32638,0.00959967,0.0145636,1420,386,6.9992,56.4159
203,638,6.96033,-56.006,-0.00275285,0.0111743,0.00410638,0.0122949,-0.00387344,1.30439,0.00974772,0.0223412,1427,386,6.96032,56.006
210,638,6.89185,-55.577,-0.00328647,0.0104607,0.00435209,0.0117227,-0.00454841,1.28857,0.00969372,0.0189511,1434,386,6.89181,55.577
217,638,6.84021,-55.0713,-0.00357119,0.0110792,0.00451574,0.0123593,-0.00485125,1.29458,0.0102468,0.0143045,1441,386,6.84023,55.0713
224,638,6.81348,-54.5303,-0.00366665,0.0123744,0.00469303,0.0136465,-0.00493878,1.30609,0.0111159,0.011837,1448,386,6.81353,54.5303
231,638,6.73218,-53.9959,-0.00370579,0.0135826,0.00504304,0.0149461,-0.00506931,1.30673,0.0120157,0.0128086,1455,386,6.73218,53.9959
238,638,6.6554,-53.5102,-0.00387505,0.015014,0.00543121,0.0164643,-0.00532534,1.30986,0.0131168,0.0158647,1462,386,6.65535,53.5102
245,638,6.65076,-52.9027,-0.00406423,0.0166739,0.00585131,0.0182109,-0.00560127,1.31392,0.0143761,0.0269919,1469,386,6.6507,52.9027
252,638,6.74756,-52.2523,-0.00394634,0.0184104,0.00644225,0.0201339,-0.00566986,1.30939,0.0156585,0.0482328,1476,386,6.74751,52.2523
259,638,6.59302,-51.8336,-0.00344962,0.0207362,0.00746668,0.0228556,-0.00556902,1.29422,0.0173932,0.0398205,1483,386,6.59308,51.8336
266,638,6.42053,-51.2107,-0.00310347,0.0225234,0.00828982,0.0249712,-0.00555127,1.28368,0.0187735,0.0183272,1490,386,6.4205,51.2107
273,638,6.37671,-50.6337,-0.0025284,0.0245434,0.00944938,0.0275154,-0.00550042,1.26607,0.0204255,0.0132767,1497,386,6.37666,50.6337
280,638,6.40088,-49.9575,-0.00165361,0.0266325,0.0108024,0.030286,-0.00530711,1.24466,0.0221724,0.0254395,1504,386,6.40092,49.9575
287,638,6.34277,-49.156,0,0,0,0,0,0,0,-1,1511,386,6.34274,49.156
294,638,6.30151,-48.437,0,0,0,0,0,0,0,-1,1518,386,6.30156,48.437
301,638,6.14026,-47.7273,0,0,0,0,0,0,0,-1,1525,386,6.14031,47.7273
308,638,6.44482,-46.4474,0,0,0,0,0,0,0,-1,1532,386,6.4448,46.4473
315,638,6.39209,-45.6606,0,0,0,0,0,0,0,-1,1539,386,6.39211,45.6606
322,638,6.1698,-44.6835,0,0,0,0,0,0,0,-1,1546,386,6.16984,44.6835
329,638,6.06885,-44.2856,0,0,0,0,0,0,0,-1,1553,386,6.06881,44.2855
336,638,5.15234,-38.1966,0,0,0,0,0,0,0,-1,1560,386,5.15238,38.1966
343,638,4.8208,-37.2159,0,0,0,0,0,0,0,-1,1567,386,4.82078,37.2159
350,638,4.35254,-37.1565,0,0,0,0,0,0,0,-1,1574,386,4.35259,37.1565
357,638,0.387329,-3.01077,0,0,0,0,0,0,0,-1,1581,386,0.387332,3.01077
364,638,3.78149,-6.45215,0,0,0,0,0,0,0,-1,1588,386,3.78155,6.45216
371,638,4.18604,-6.71164,0,0,0,0,0,0,0,-1,1595,386,4.18598,6.71164
378,638,4.59045,-6.97113,0,0,0,0,0,0,0,-1,1602,386,4.5904,6.97112
385,638,0,0,0,0,0,0,0,0,0,-1,1609,386,0,0
392,638,0,0,0,0,0,0,0,0,0,-1,1616,386,0,0
399,638,0,0,0,0,0,0,0,0,0,-1,1623,386,0,0
406,638,0,0,0,0,0,0,0,0,0,-1,1630,386,0,0
413,638,0,0,0,0,0,0,0,0,0,-1,1637,386,0,0
420,638,0,0,0,0,0,0,0,0,0,-1,1644,386,0,0
427,638,0,0,0,0,0,0,0,0,0,-1,1651,386,0,0
434,638,0,0,0,0,0,0,0,0,0,-1,1658,386,0,0
441,638,0,0,0,0,0,0,0,0,0,-1,1665,386,0,0
448,638,0,0,0,0,0,0,0,0,0,-1,1672,386,0,0
455,638,0,0,0,0,0,0,0,0,0,-1,1679,386,0,0
462,638,0,0,0,0,0,0,0,0,0,-1,1686,386,0,0
469,638,0,0,0,0,0,0,0,0,0,-1,1693,386,0,0
476,638,0,0,0,0,0,0,0,0,0,-1,1700,386,0,0
483,638,0,0,0,0,0,0,0,0,0,-1,1707,386,0,0
490,638,0,0,0,0,0,0,0,0,0,-1,1714,386,0,0
497,638,0,0,0,0,0,0,0,0,0,-1,1721,386,0,0
504,638,0,0,0,0,0,0,0,0,0,-1,1728,386,0,0
511,638,0,0,0,0,0,0,0,0,0,-1,1735,386,0,0
518,638,0,0,0,0,0,0,0,0,0,-1,1742,386,0,0
525,638,0,0,0,0,0,0,0,0,0,-1,1749,386,0,0
532,638,0,0,0,0,0,0,0,0,0,-1,1756,386,0,0
539,638,0,0,0,0,0,0,0,0,0,-1,1763,386,0,0
546,638,0,0,0,0,0,0,0,0,0,-1,1770,386,0,0
553,638,0,0,0,0,0,0,0,0,0,-1,1777,386,0,0
560,638,0,0,0,0,0,0,0,0,0,-1,1784,386,0,0
567,638,0,0,0,0,0,0,0,0,0,-1,1791,386,0,0
574,638,0,0,0,0,0,0,0,0,0,-1,1798,386,0,0
581,638,0,0,0,0,0,0,0,0,0,-1,1805,386,0,0
588,638,0,0,0,0,0,0,0,0,0,-1,1812,386,0,0
595,638,0,0,0,0,0,0,0,0,0,-1,1819,386,0,0
602,638,0,0,0,0,0,0,0,0,0,-1,1826,386,0,0
609,638,0,0,0,0,0,0,0,0,0,-1,1833,386,0,0
616,638,0,0,0,0,0,0,0,0,0,-1,1840,386,0,0
623,638,0,0,0,0,0,0,0,0,0,-1,1847,386,0,0
630,638,0,0,0,0,0,0,0,0,0,-1,1854,386,0,0
637,638,0,0,0,0,0,0,0,0,0,-1,1861,386,0,0
644,638,0,0,0,0,0,0,0,0,0,-1,1868,386,0,0
651,638,0,0,0,0,0,0,0,0,0,-1,1875,386,0,0
658,638,0,0,0,0,0,0,0,0,0,-1,1882,386,0,0
665,638,0,0,0,0,0,0,0,0,0,-1,1889,386,0,0
672,638,0,0,0,0,0,0,0,0,0,-1,1896,386,0,0
679,638,0,0,0,0,0,0,0,0,0,-1,1903,386,0,0
686,638,0,0,0,0,0,0,0,0,0,-1,1910,386,0,0
693,638,0,0,0,0,0,0,0,0,0,-1,1917,386,0,0
700,638,0,0,0,0,0,0,0,0,0,-1,1924,386,0,0
707,638,0,0,0,0,0,0,0,0,0,-1,1931,386,0,0
714,638,0,0,0,0,0,0,0,0,0,-1,1938,386,0,0
721,638,0,0,0,0,0,0,0,0,0,-1,1945,386,0,0
728,638,0,0,0,0,0,0,0,0,0,-1,1952,386,0,0
735,638,0,0,0,0,0,0,0,0,0,-1,1959,386,0,0
742,638,0,0,0,0,0,0,0,0,0,-1,1966,386,0,0
749,638,0,0,0,0,0,0,0,0,0,-1,1973,386,0,0
756,638,0,0,0,0,0,0,0,0,0,-1,1980,386,0,0
763,638,0,0,0,0,0,0,0,0,0,-1,1987,386,0,0
770,638,0,0,0,0,0,0,0,0,0,-1,1994,386,0,0
777,638,0,0,0,0,0,0,0,0,0,-1,2001,386,0,0
784,638,0,0,0,0,0,0,0,0,0,-1,2008,386,0,0
791,638,0,0,0,0,0,0,0,0,0,-1,2015,386,0,0
798,638,0,0,0,0,0,0,0,0,0,-1,2022,386,0,0
805,638,0,0,0,0,0,0,0,0,0,-1,2029,386,0,0
812,638,0,0,0,0,0,0,0,0,0,-1,2036,386,0,0
-700,631,0,0,0,0,0,0,0,0,0,-1,524,393,0,0
-693,631,0,0,0,0,0,0,0,0,0,-1,531,393,0,0
-686,631,0,0,0,0,0,0,0,0,0,-1,538,393,0,0
-679,631,0,0,0,0,0,0,0,0,0,-1,545,393,0,0
-672,631,0,0,0,0,0,0,0,0,0,-1,552,393,0,0
-665,631,0,0,0,0,0,0,0,0,0,-1,559,393,0,0
-658,631,0,0,0,0,0,0,0,0,0,-1,566,393,0,0
-651,631,0,0,0,0,0,0,0,0,0,-1,573,393,0,0
-644,631,0,0,0,0,0,0,0,0,0,-1,580,393,0,0
-637,631,0,0,0,0,0,0,0,0,0,-1,587,393,0,0
-630,631,0,0,0,0,0,0,0,0,0,-1,594,393,0,0
-623,631,0,0,0,0,0,0,0,0,0,-1,601,393,0,0
-616,631,0,0,0,0,0,0,0,0,0,-1,608,393,0,0
-609,631,0,0,0,0,0,0,0,0,0,-1,615,393,0,0
-602,631,0,0,0,0,0,0,0,0,0,-1,622,393,0,0
-595,631,0,0,0,0,0,0,0,0,0,-1,629,393,0,0
-588,631,0,0,0,0,0,0,0,0,0,-1,636,393,0,0
-581,631,0,0,0,0,0,0,0,0,0,-1,643,393,0,0
-574,631,0,0,0,0,0,0,0,0,0,-1,650,393,0,0
-567,631,0,0,0,0,0,0,0,0,0,-1,657,393,0,0
-560,631,0,0,0,0,0,0,0,0,0,-1,664,393,0,0
-553,631,0,0,0,0,0,0,0,0,0,-1,671,393,0,0
-546,631,0,0,0,0,0,0,0,0,0,-1,678,393,0,0
-539,631,0,0,0,0,0,0,0,0,0,-1,685,393,0,0
-532,631,0,0,0,0,0,0,0,0,0,-1,692,393,0,0
-525,631,0,0,0,0,0,0,0,0,0,-1,699,393,0,0
-518,631,0,0,0,0,0,0,0,0,0,-1,706,393,0,0
-511,631,0,0,0,0,0,0,0,0,0,-1,713,393,0,0
-504,631,0,0,0,0,0,0,0,0,0,-1,720,393,0,0
-497,631,0,0,0,0,0,0,0,0,0,-1,727,393,0,0
-490,631,0,0,0,0,0,0,0,0,0,-1,734,393,0,0
-483,631,0,0,0,0,0,0,0,0,0,-1,741,393,0,0
-476,631,0,0,0,0,0,0,0,0,0,-1,748,393,0,0
-469,631,0,0,0,0,0,0,0,0,0,-1,755,393,0,0
-462,631,0,0,0,0,0,0,0,0,0,-1,762,393,0,0
-455,631,0,0,0,0,0,0,0,0,0,-1,769,393,0,0
-448,631,0,0,0,0,0,0,0,0,0,-1,776,393,0,0
-441,631,0,0,0,0,0,0,0,0,0,-1,783,393,0,0
-434,631,0,0,0,0,0,0,0,0,0,-1,790,393,0,0
-427,631,0,0,0,0,0,0,0,0,0,-1,797,393,0,0
-420,631,0,0,0,0,0,0,0,0,0,-1,804,393,0,0
-413,631,0,0,0,0,0,0,0,0,0,-1,811,393,0,0
-406,631,0,0,0,0,0,0,0,0,0,-1,818,393,0,0
-399,631,0,0,0,0,0,0,0,0,0,-1,825,393,0,0
-392,631,0,0,0,0,0,0,0,0,0,-1,832,393,0,0
-385,631,0,0,0,0,0,0,0,0,0,-1,839,393,0,0
-378,631,0,0,0,0,0,0,0,0,0,-1,846,393,0,0
-371,631,0,0,0,0,0,0,0,0,0,-1,853,393,0,0
-364,631,0,0,0,0,0,0,0,0,0,-1,860,393,0,0
-357,631,0,0,0,0,0,0,0,0,0,-1,867,393,0,0
-350,631,0,0,0,0,0,0,0,0,0,-1,874,393,0,0
-343,631,0,0,0,0,0,0,0,0,0,-1,881,393,0,0
-336,631,0,0,0,0,0,0,0,0,0,-1,888,393,0,0
-329,631,0,0,0,0,0,0,0,0,0,-1,895,393,0,0
-322,631,0,0,0,0,0,0,0,0,0,-1,902,393,0,0
-315,631,0,0,0,0,0,0,0,0,0,-1,909,393,0,0
-308,631,0,0,0,0,0,0,0,0,0,-1,916,393,0,0
-301,631,0,0,0,0,0,0,0,0,0,-1,923,393,0,0
-294,631,0,0,0,0,0,0,0,0,0,-1,930,393,0,0
-287,631,0,0,0,0,0,0,0,0,0,-1,937,393,0,0
-280,631,7.71283,-34.969,0,0,0,0,0,0,0,-1,944,393,7.71282,34.969
-273,631,8.04437,-34.934,0,0,0,0,0,0,0,-1,951,393,8.04436,34.9339
-266,631,8.40277,-34.7584,0,0,0,0,0,0,0,-1,958,393,8.40275,34.7584
-259,631,8.56659,-34.037,0,0,0,0,0,0,0,-1,965,393,8.56662,34.037
-252,631,8.44446,-33.2643,0,0,0,0,0,0,0,-1,972,393,8.44445,33.2644
-245,631,8.34705,-32.527,0,0,0,0,0,0,0,-1,979,393,8.34704,32.527
-238,631,8.41888,-31.8855,0,0,0,0,0,0,0,-1,986,393,8.41887,31.8855
-231,631,2.14966,-25.2306,0,0,0,0,0,0,0,-1,993,393,2.14968,25.2306
-224,631,6.83575,-19.7909,0,0,0,0,0,0,0,-1,1000,393,6.83575,19.7909
-217,631,5.05188,-18.3867,0,0,0,0,0,0,0,-1,1007,393,5.0519,18.3866
-210,631,3.37842,-26.3769,0,0,0,0,0,0,0,-1,1014,393,3.37839,26.3769
-203,631,5.05298,-26.4169,0,0,0,0,0,0,0,-1,1021,393,5.05302,26.4169
-196,631,8.11865,-45.7962,0,0,0,0,0,0,0,-1,1028,393,8.11871,45.7962
-189,631,6.57983,-42.4494,0,0,0,0,0,0,0,-1,1035,393,6.57983,42.4494
-182,631,7.56335,-47.1651,0,0,0,0,0,0,0,-1,1042,393,7.5633,47.1651
-175,631,7.69934,-47.9691,0,0,0,0,0,0,0,-1,1049,393,7.69929,47.9691
-168,631,7.72485,-48.9891,-0.00263248,0.0226383,-0.0101003,0.0261792,-0.0061733,-1.23362,0.0198334,0.0387413,1056,393,7.72485,48.9891
-161,631,7.68958,-49.722,-0.00294065,0.0211885,-0.00889731,0.0241144,-0.00586661,-1.25308,0.0183472,0.0210867,1063,393,7.68954,49.722
-154,631,7.61633,-50.4088,-0.00320984,0.0195422,-0.00779438,0.0219563,-0.00562389,-1.27045,0.0168284,0.01854,1070,393,7.61634,50.4088
-147,631,7.55225,-50.9506,-0.00344513,0.0178551,-0.00682391,0.0198537,-0.00544376,-1.28588,0.0153751,0.0159978,1077,393,7.5523,50.9506
-140,631,7.50867,-51.5381,-0.00352844,0.0160232,-0.00598371,0.0177091,-0.00521436,-1.29616,0.0138747,0.0113884,1084,393,7.50863,51.5381
-133,631,7.43225,-52.1125,-0.00354581,0.0141268,-0.00523639,0.0155618,-0.00498083,-1.30332,0.0123736,0.00840437,1091,393,7.43226,52.1125
-126,631,7.40356,-52.669,-0.00375132,0.0119361,-0.00433102,0.0130524,-0.0048676,-1.31855,0.0106998,0.0123652,1098,393,7.40351,52.669
-119,631,7.35425,-53.1901,-0.00372888,0.0100219,-0.00370991,0.0109589,-0.00466594,-1.32339,0.0092617,0.0166485,1105,393,7.35423,53.1901
-112,631,7.29858,-53.7214,-0.00356997,0.0084146,-0.00314963,0.00919193,-0.0043473,-1.32883,0.00798194,0.0156892,1112,393,7.29861,53.7214
-105,631,7.34985,-54.2312,-0.00336191,0.00703957,-0.00273239,0.00771366,-0.00403601,-1.32892,0.00689355,0.0200954,1119,393,7.34981,54.2312
-98,631,7.26184,-54.7357,-0.00321837,0.00580989,-0.00235042,0.00638515,-0.00379363,-1.33077,0.00593987,0.0175235,1126,393,7.2618,54.7357
-91,631,7.17737,-55.2329,-0.00305305,0.00417129,-0.00194854,0.00466334,-0.00354509,-1.32345,0.00475378,0.0186234,1133,393,7.17734,55.2329
-84,631,7.1405,-55.7073,-0.002747,0.00312335,-0.00156204,0.00351312,-0.00313677,-1.32627,0.00384136,0.0171026,1140,393,7.14049,55.7073
-77,631,7.07483,-56.1559,-0.00239311,0.00289609,-0.00132379,0.00320891,-0.00270593,-1.33875,0.00341905,0.0121714,1147,393,7.07484,56.1559
-70,631,7.06042,-56.5643,-0.00206095,0.00283716,-0.00111715,0.00307993,-0.00230372,-1.35682,0.003119,0.0144198,1154,393,7.06039,56.5643
-63,631,7.06909,-56.9744,-0.00162746,0.00293842,-0.000969679,0.00313582,-0.00182486,-1.36997,0.0028972,0.0153626,1161,393,7.06913,56.9744
-56,631,7.04114,-57.3905,-0.00123278,0.00282285,-0.000787022,0.00297022,-0.00138015,-1.38569,0.002567,0.0161005,1168,393,7.04118,57.3905
-49,631,7.02039,-57.7319,-0.000807029,0.0025585,-0.000526722,0.00263901,-0.000887537,-1.41912,0.0021181,0.0121922,1175,393,7.02038,57.7319
-42,631,7.02832,-58.0667,-0.000304905,0.00226774,-0.000275257,0.00229687,-0.000334026,-1.46539,0.00165387,0.00959428,1182,393,7.02831,58.0666
-35,631,7.02881,-58.3822,-3.74587e-05,0.00220561,-0.0001576,0.00221663,-4.84777e-05,-1.50099,0.00149417,0.0109775,1189,393,7.02877,58.3822
-28,631,7.0332,-58.6957,3.97372e-05,0.00194466,-6.89919e-05,0.00194715,3.72418e-05,-1.53464,0.00128587,0.0142295,1196,393,7.03315,58.6957
-21,631,7.00354,-58.9966,3.3732e-06,0.00173217,-3.00821e-05,0.00173269,2.84996e-06,-1.5534,0.00115418,0.0124898,1203,393,7.00357,58.9966
-14,631,6.9928,-59.2718,-0.000171315,0.00175625,-2.78883e-05,0.00175665,-0.000171719,-1.55633,0.00123234,0.0147159,1210,393,6.99282,59.2718
-7,631,7.07898,-59.5605,-0.000507679,0.00173057,-0.000110905,0.00173605,-0.000513161,-1.52141,0.00136106,0.0237362,1217,393,7.07897,59.5605
0,631,7.04419,-59.7415,-0.00107281,0.00161499,-0.000183217,0.00162742,-0.00108525,-1.50305,0.00157655,0.0277308,1224,393,7.04423,59.7415
7,631,7.01563,-59.921,-0.00178227,0.00158418,-0.000318175,0.00161399,-0.00181207,-1.47738,0.00197914,0.0209801,1231,393,7.01567,59.921
14,631,7.05457,-60.1174,-0.00266553,0.00142765,-0.000487486,0.00148491,-0.00272279,-1.45388,0.00246411,0.0112508,1238,393,7.05455,60.1174
21,631,7.0835,-60.2605,-0.00346055,0.00129727,-0.000685857,0.00139416,-0.00355744,-1.43045,0.00294835,0.0151264,1245,393,7.08352,60.2605
28,631,7.08069,-60.3504,-0.00424539,0.000989346,-0.000834638,0.0011192,-0.00437524,-1.41645,0.00335275,0.0169124,1252,393,7.08064,60.3504
35,631,7.13269,-60.453,-0.00488982,0.000449297,-0.00119089,0.000702881,-0.0051434,-1.36099,0.00368564,0.0151398,1259,393,7.13275,60.453
42,631,7.18005,-60.5424,-0.00542161,3.00324e-05,-0.00174535,0.000540928,-0.00593251,-1.28603,0.00414709,0.0128017,1266,393,7.18002,60.5424
49,631,7.19617,-60.627,-0.00584498,-0.000300396,-0.00245934,0.000633249,-0.00677862,-1.20797,0.00474427,0.0115114,1273,393,7.19619,60.627
56,631,7.21472,-60.6855,-0.00598991,-0.000739322,-0.00310708,0.000703075,-0.00743231,-1.13617,0.00520508,0.0138222,1280,393,7.21474,60.6855
63,631,7.21289,-60.7224,-0.00581942,-0.00120206,-0.00376996,0.00090996,-0.00793144,-1.06014,0.00561557,0.0173843,1287,393,7.21289,60.7224
70,631,7.23767,-60.6527,-0.00535816,-0.0016688,-0.00431169,0.00117625,-0.0082032,-0.987532,0.0059001,0.0177882,1294,393,7.23767,60.6527
77,631,7.29138,-60.602,-0.00476148,-0.00176101,-0.00486003,0.00182507,-0.00834756,-0.935102,0.00626267,0.0170577,1301,393,7.29142,60.602
84,631,7.33691,-60.5621,-0.00392216,-0.00181312,-0.00524106,0.00247846,-0.00821374,-0.884674,0.00646239,0.0138086,1308,393,7.33693,60.5621
91,631,7.34595,-60.4742,-0.00308782,-0.001945,-0.00542044,0.00293407,-0.00796689,-0.837913,0.00651342,0.0167594,1315,393,7.34589,60.4741
98,631,7.37256,-60.3606,-0.00222989,-0.00161882,-0.00529603,0.00338048,-0.00722919,-0.814212,0.0062584,0.0141946,1322,393,7.37254,60.3606
105,631,7.35217,-60.2488,-0.00111322,-0.00104622,-0.00493556,0.00385595,-0.0060154,-0.788792,0.0057445,0.0122794,1329,393,7.3522,60.2488
112,631,7.38477,-60.1114,1.35331e-05,-0.000433277,-0.00430841,0.00410432,-0.00452407,-0.759495,0.00498357,0.0127699,1336,393,7.38472,60.1114
119,631,7.39941,-59.9512,0.00108572,0.000239403,-0.00355227,0.00423995,-0.00291483,-0.726116,0.00415436,0.0133939,1343,393,7.39944,59.9512
126,631,7.37842,-59.7177,0.0017625,0.000946321,-0.00275441,0.00413889,-0.00143007,-0.711854,0.00333962,0.0175746,1350,393,7.37839,59.7177
133,631,7.40845,-59.498,0.00225663,0.00178748,-0.00198668,0.00402254,2.15757e-05,-0.726633,0.00267453,0.019209,1357,393,7.40848,59.498
140,631,7.41309,-59.2874,0.00250646,0.00265425,-0.00106861,0.00365152,0.00150919,-0.819917,0.00211874,0.0200061,1364,393,7.41308,59.2875
147,631,7.37756,-59.0014,0.00256168,0.00325391,-0.000204093,0.00330961,0.00250599,-1.3044,0.00199328,0.0231032,1371,393,7.37751,59.0014
154,631,7.38159,-58.672,0.00251572,0.00380978,0.00038481,0.00391556,0.00240994,1.30253,0.00228066,0.0227975,1378,393,7.38164,58.672
161,631,7.4325,-58.3534,0.00216058,0.00454519,0.000660327,0.00471583,0.00198994,1.31791,0.00273372,0.0251623,1385,393,7.43251,58.3534
168,631,7.46448,-58.0027,0.00168929,0.00523572,0.00095997,0.0054789,0.00144612,1.3227,0.00327865,0.0292122,1392,393,7.46445,58.0027
175,631,7.45239,-57.6875,0.00116092,0.00581183,0.00125299,0.00612792,0.000844834,1.32369,0.00383481,0.0207262,1399,393,7.4524,57.6875
182,631,7.41101,-57.2926,0.000545917,0.00631159,0.00153322,0.00669395,0.00016356,1.3264,0.00440912,0.0113088,1406,393,7.41098,57.2926
189,631,7.40234,-56.8719,-2.74122e-05,0.00672071,0.00184904,0.00719414,-0.000500848,1.32014,0.00497146,0.011526,1413,393,7.4024,56.8719
196,631,7.37244,-56.4608,-0.000391405,0.00712438,0.00224163,0.00774218,-0.0010092,1.30187,0.00552864,0.0128697,1420,393,7.37244,56.4608
203,631,7.37598,-56.0366,-0.00084154,0.00731321,0.00264549,0.00809625,-0.00162458,1.28302,0.00601263,0.0149208,1427,393,7.37603,56.0366
210,631,7.32727,-55.5755,-0.00141252,0.00728292,0.00294762,0.00818793,-0.00231753,1.2729,0.00637317,0.0170905,1434,393,7.32729,55.5755
217,631,7.29114,-55.1059,-0.00179691,0.00798925,0.00319884,0.00894209,-0.00274976,1.28129,0.00705882,0.0179499,1441,393,7.2911,55.1059
224,631,7.26611,-54.5902,-0.00201859,0.00903667,0.00345562,0.0100279,-0.00300985,1.29144,0.00788251,0.0140291,1448,393,7.26607,54.5903
231,631,7.21277,-54.07,-0.00216873,0.0100093,0.00383439,0.011116,-0.00327545,1.2898,0.00871024,0.0118024,1455,393,7.21277,54.07
238,631,7.16101,-53.5428,-0.00238545,0.0111207,0.00420692,0.0123239,-0.00358865,1.29223,0.0096375,0.018427,1462,393,7.16105,53.5428
245,631,7.14233,-53.0185,-0.00261303,0.012404,0.0045956,0.0136988,-0.00390777,1.29618,0.0106762,0.0191927,1469,393,7.14237,53.0185
252,631,7.10156,-52.4826,-0.00262449,0.013802,0.00512414,0.0152693,-0.00409185,1.2919,0.0117828,0.0178978,1476,393,7.10156,52.4826
259,631,7.04163,-51.8921,-0.00234506,0.0156883,0.00601601,0.017511,-0.0041678,1.27661,0.0132831,0.0132426,1483,393,7.04159,51.8921
266,631,6.99878,-51.3051,-0.00218341,0.0171364,0.00674148,0.0192562,-0.0043032,1.26615,0.0144865,0.0123105,1490,393,6.99872,51.3051
273,631,6.9585,-50.7103,-0.00185771,0.0187448,0.00769261,0.0213002,-0.00441306,1.25008,0.0158769,0.015468,1497,393,6.95851,50.7103
280,631,6.91516,-50.0405,-0.00130203,0.0203832,0.00877658,0.0234901,-0.00440899,1.23056,0.0173179,0.0146933,1504,393,6.9152,50.0405
287,631,6.83691,-49.3666,-0.000477358,0.0224123,0.0102091,0.0263041,-0.0043691,1.2066,0.0191592,0.0162486,1511,393,6.83694,49.3666
294,631,6.77551,-48.627,0.000339659,0.0243117,0.0116578,0.029046,-0.00439465,1.18504,0.0209828,0.0220982,1518,393,6.77551,48.627
301,631,6.69849,-47.8495,0.00120269,0.0261447,0.0131616,0.0318052,-0.00445784,1.16463,0.0228349,0.0360925,1525,393,6.69854,47.8495
308,631,6.90894,-46.8627,0.00226463,0.028092,0.0147476,0.0347807,-0.0044241,1.145,0.0247937,0.042087,1532,393,6.90893,46.8627
315,631,6.78381,-46.6584,0,0,0,0,0,0,0,-1,1539,393,6.78381,46.6584
322,631,6.76172,-46.1563,0,0,0,0,0,0,0,-1,1546,393,6.76169,46.1563
329,631,5.70972,-38.2651,0,0,0,0,0,0,0,-1,1553,393,5.70967,38.2651
336,631,5.38281,-39.6306,0,0,0,0,0,0,0,-1,1560,393,5.38277,39.6306
343,631,6.21558,-38.7278,0,0,0,0,0,0,0,-1,1567,393,6.21558,38.7278
350,631,5.18359,-35.9677,0,0,0,0,0,0,0,-1,1574,393,5.18355,35.9677
357,631,2.6449,-9.60303,0,0,0,0,0,0,0,-1,1581,393,2.64491,9.60304
364,631,3.39136,-5.7594,0,0,0,0,0,0,0,-1,1588,393,3.39137,5.75939
371,631,3.72839,-6.0574,0,0,0,0,0,0,0,-1,1595,393,3.72845,6.05742
378,631,4.06555,-6.35544,0,0,0,0,0,0,0,-1,1602,393,4.06553,6.35544
385,631,3.90442,-3.58298,0,0,0,0,0,0,0,-1,1609,393,3.90437,3.58299
392,631,0.352295,-2.21301,0,0,0,0,0,0,0,-1,1616,393,0.352345,2.213
399,631,0,0,0,0,0,0,0,0,0,-1,1623,393,0,0
406,631,0,0,0,0,0,0,0,0,0,-1,1630,393,0,0
413,631,0,0,0,0,0,0,0,0,0,-1,1637,393,0,0
420,631,0,0,0,0,0,0,0,0,0,-1,1644,393,0,0
427,631,0,0,0,0,0,0,0,0,0,-1,1651,393,0,0
434,631,0,0,0,0,0,0,0,0,0,-1,1658,393,0,0
441,631,0,0,0,0,0,0,0,0,0,-1,1665,393,0,0
448,631,0,0,0,0,0,0,0,0,0,-1,1672,393,0,0
455,631,0,0,0,0,0,0,0,0,0,-1,1679,393,0,0
462,631,0,0,0,0,0,0,0,0,0,-1,1686,393,0,0
469,631,0,0,0,0,0,0,0,0,0,-1,1693,393,0,0
476,631,0,0,0,0,0,0,0,0,0,-1,1700,393,0,0
483,631,0,0,0,0,0,0,0,0,0,-1,1707,393,0,0
490,631,0,0,0,0,0,0,0,0,0,-1,1714,393,0,0
497,631,0,0,0,0,0,0,0,0,0,-1,1721,393,0,0
504,631,0,0,0,0,0,0,0,0,0,-1,1728,393,0,0
511,631,0,0,0,0,0,0,0,0,0,-1,1735,393,0,0
518,631,0,0,0,0,0,0,0,0,0,-1,1742,393,0,0
525,631,0,0,0,0,0,0,0,0,0,-1,1749,393,0,0
532,631,0,0,0,0,0,0,0,0,0,-1,1756,393,0,0
539,631,0,0,0,0,0,0,0,0,0,-1,1763,393,0,0
546,631,0,0,0,0,0,0,0,0,0,-1,1770,393,0,0
553,631,0,0,0,0,0,0,0,0,0,-1,1777,393,0,0
560,631,0,0,0,0,0,0,0,0,0,-1,1784,393,0,0
567,631,0,0,0,0,0,0,0,0,0,-1,1791,393,0,0
574,631,0,0,0,0,0,0,0,0,0,-1,1798,393,0,0
581,631,0,0,0,0,0,0,0,0,0,-1,1805,393,0,0
588,631,0,0,0,0,0,0,0,0,0,-1,1812,393,0,0
595,631,0,0,0,0,0,0,0,0,0,-1,1819,393,0,0
602,631,0,0,0,0,0,0,0,0,0,-1,1826,393,0,0
609,631,0,0,0,0,0,0,0,0,0,-1,1833,393,0,0
616,631,0,0,0,0,0,0,0,0,0,-1,1840,393,0,0
623,631,0,0,0,0,0,0,0,0,0,-1,1847,393,0,0
630,631,0,0,0,0,0,0,0,0,0,-1,1854,393,0,0
637,631,0,0,0,0,0,0,0,0,0,-1,1861,393,0,0
644,631,0,0,0,0,0,0,0,0,0,-1,1868,393,0,0
651,631,0,0,0,0,0,0,0,0,0,-1,1875,393,0,0
658,631,0,0,0,0,0,0,0,0,0,-1,1882,393,0,0
665,631,0,0,0,0,0,0,0,0,0,-1,1889,393,0,0
672,631,0,0,0,0,0,0,0,0,0,-1,1896,393,0,0
679,631,0,0,0,0,0,0,0,0,0,-1,1903,393,0,0
686,631,0,0,0,0,0,0,0,0,0,-1,1910,393,0,0
693,631,0,0,0,0,0,0,0,0,0,-1,1917,393,0,0
700,631,0,0,0,0,0,0,0,0,0,-1,1924,393,0,0
707,631,0,0,0,0,0,0,0,0,0,-1,1931,393,0,0
714,631,0,0,0,0,0,0,0,0,0,-1,1938,393,0,0
721,631,0,0,0,0,0,0,0,0,0,-1,1945,393,0,0
728,631,0,0,0,0,0,0,0,0,0,-1,1952,393,0,0
735,631,0,0,0,0,0,0,0,0,0,-1,1959,393,0,0
742,631,0,0,0,0,0,0,0,0,0,-1,1966,393,0,0
749,631,0,0,0,0,0,0,0,0,0,-1,1973,393,0,0
756,631,0,0,0,0,0,0,0,0,0,-1,1980,393,0,0
763,631,0,0,0,0,0,0,0,0,0,-1,1987,393,0,0
770,631,0,0,0,0,0,0,0,0,0,-1,1994,393,0,0
777,631,0,0,0,0,0,0,0,0,0,-1,2001,393,0,0
784,631,0,0,0,0,0,0,0,0,0,-1,2008,393,0,0
791,631,0,0,0,0,0,0,0,0,0,-1,2015,393,0,0
798,631,0,0,0,0,0,0,0,0,0,-1,2022,393,0,0
805,631,0,0,0,0,0,0,0,0,0,-1,2029,393,0,0
812,631,0,0,0,0,0,0,0,0,0,-1,2036,393,0,0
-700,624,0,0,0,0,0,0,0,0,0,-1,524,400,0,0
-693,624,0,0,0,0,0,0,0,0,0,-1,531,400,0,0
-686,624,0,0,0,0,0,0,0,0,0,-1,538,400,0,0
-679,624,0,0,0,0,0,0,0,0,0,-1,545,400,0,0
-672,624,0,0,0,0,0,0,0,0,0,-1,552,400,0,0
-665,624,0,0,0,0,0,0,0,0,0,-1,559,400,0,0
-658,624,0,0,0,0,0,0,0,0,0,-1,566,400,0,0
-651,624,0,0,0,0,0,0,0,0,0,-1,573,400,0,0
-644,624,0,0,0,0,0,0,0,0,0,-1,580,400,0,0
-637,624,0,0,0,0,0,0,0,0,0,-1,587,400,0,0
-630,624,0,0,0,0,0,0,0,0,0,-1,594,400,0,0
-623,624,0,0,0,0,0,0,0,0,0,-1,601,400,0,0
-616,624,0,0,0,0,0,0,0,0,0,-1,608,400,0,0
-609,624,0,0,0,0,0,0,0,0,0,-1,615,400,0,0
-602,624,0,0,0,0,0,0,0,0,0,-1,622,400,0,0
-595,624,0,0,0,0,0,0,0,0,0,-1,629,400,0,0
-588,624,0,0,0,0,0,0,0,0,0,-1,636,400,0,0
-581,624,0,0,0,0,0,0,0,0,0,-1,643,400,0,0
-574,624,0,0,0,0,0,0,0,0,0,-1,650,400,0,0
-567,624,0,0,0,0,0,0,0,0,0,-1,657,400,0,0
-560,624,0,0,0,0,0,0,0,0,0,-1,664,400,0,0
-553,624,0,0,0,0,0,0,0,0,0,-1,671,400,0,0
-546,624,0,0,0,0,0,0,0,0,0,-1,678,400,0,0
-539,624,0,0,0,0,0,0,0,0,0,-1,685,400,0,0
-532,624,0,0,0,0,0,0,0,0,0,-1,692,400,0,0
-525,624,0,0,0,0,0,0,0,0,0,-1,699,400,0,0
-518,624,0,0,0,0,0,0,0,0,0,-1,706,400,0,0
-511,624,0,0,0,0,0,0,0,0,0,-1,713,400,0,0
-504,624,0,0,0,0,0,0,0,0,0,-1,720,400,0,0
-497,624,0,0,0,0,0,0,0,0,0,-1,727,400,0,0
-490,624,0,0,0,0,0,0,0,0,0,-1,734,400,0,0
-483,624,0,0,0,0,0,0,0,0,0,-1,741,400,0,0
-476,624,0,0,0,0,0,0,0,0,0,-1,748,400,0,0
-469,624,0,0,0,0,0,0,0,0,0,-1,755,400,0,0
-462,624,0,0,0,0,0,0,0,0,0,-1,762,400,0,0
-455,624,0,0,0,0,0,0,0,0,0,-1,769,400,0,0
-448,624,0,0,0,0,0,0,0,0,0,-1,776,400,0,0
-441,624,0,0,0,0,0,0,0,0,0,-1,783,400,0,0
-434,624,0,0,0,0,0,0,0,0,0,-1,790,400,0,0
-427,624,0,0,0,0,0,0,0,0,0,-1,797,400,0,0
-420,624,0,0,0,0,0,0,0,0,0,-1,804,400,0,0
-413,624,0,0,0,0,0,0,0,0,0,-1,811,400,0,0
-406,624,0,0,0,0,0,0,0,0,0,-1,818,400,0,0
-399,624,0,0,0,0,0,0,0,0,0,-1,825,400,0,0
-392,624,0,0,0,0,0,0,0,0,0,-1,832,400,0,0
-385,624,0,0,0,0,0,0,0,0,0,-1,839,400,0,0
-378,624,0,0,0,0,0,0,0,0,0,-1,846,400,0,0
-371,624,0,0,0,0,0,0,0,0,0,-1,853,400,0,0
-364,624,0,0,0,0,0,0,0,0,0,-1,860,400,0,0
-357,624,0,0,0,0,0,0,0,0,0,-1,867,400,0,0
-350,624,0,0,0,0,0,0,0,0,0,-1,874,400,0,0
-343,624,0,0,0,0,0,0,0,0,0,-1,881,400,0,0
-336,624,0,0,0,0,0,0,0,0,0,-1,888,400,0,0
-329,624,0,0,0,0,0,0,0,0,0,-1,895,400,0,0
-322,624,0,0,0,0,0,0,0,0,0,-1,902,400,0,0
-315,624,0,0,0,0,0,0,0,0,0,-1,909,400,0,0
-308,624,0,0,0,0,0,0,0,0,0,-1,916,400,0,0
-301,624,0,0,0,0,0,0,0,0,0,-1,923,400,0,0
-294,624,5.08527,-28.5311,0,0,0,0,0,0,0,-1,930,400,5.08525,28.5311
-287,624,6.70825,-33.8,0,0,0,0,0,0,0,-1,937,400,6.70827,33.8
-280,624,6.92474,-33.8738,0,0,0,0,0,0,0,-1,944,400,6.92477,33.8739
-273,624,8.617,-37.3463,0,0,0,0,0,0,0,-1,951,400,8.61697,37.3463
-266,624,7.71747,-37.0599,0,0,0,0,0,0,0,-1,958,400,7.7175,37.0599
-259,624,7.33569,-33.1199,0,0,0,0,0,0,0,-1,965,400,7.33567,33.1199
-252,624,7.5528,-32.8158,0,0,0,0,0,0,0,-1,972,400,7.5528,32.8158
-245,624,6.8396,-32.02,0,0,0,0,0,0,0,-1,979,400,6.83963,32.02
-238,624,6.99402,-31.5278,0,0,0,0,0,0,0,-1,986,400,6.99404,31.5278
-231,624,3.86121,-29.6032,0,0,0,0,0,0,0,-1,993,400,3.86122,29.6032
-224,624,4.59351,-27.4048,0,0,0,0,0,0,0,-1,1000,400,4.59353,27.4048
-217,624,5.90167,-32.048,0,0,0,0,0,0,0,-1,1007,400,5.90167,32.048
-210,624,7.59607,-44.7305,0,0,0,0,0,0,0,-1,1014,400,7.59608,44.7305
-203,624,7.50415,-45.5818,0,0,0,0,0,0,0,-1,1021,400,7.50417,45.5818
-196,624,7.44885,-46.1296,0,0,0,0,0,0,0,-1,1028,400,7.44886,46.1296
-189,624,7.32617,-46.9345,0,0,0,0,0,0,0,-1,1035,400,7.3262,46.9345
-182,624,7.06702,-47.5109,-0.00154005,0.0196173,-0.00994023,0.0235547,-0.00547746,-1.19365,0.0178119,0.0476911,1042,400,7.06696,47.5109
-175,624,7.18286,-48.2741,-0.00180482,0.0184194,-0.00898564,0.021835,-0.00522032,-1.20756,0.0165731,0.0304386,1049,400,7.18282,48.2741
-168,624,7.21179,-49.0798,-0.00206484,0.0170737,-0.00798063,0.0199649,-0.00495596,-1.22324,0.015233,0.0221389,1056,400,7.21181,49.0798
-161,624,7.10205,-49.7681,-0.0021858,0.0158154,-0.00702083,0.0182298,-0.00460023,-1.23957,0.013942,0.0119888,1063,400,7.10201,49.7681
-154,624,7.04419,-50.3734,-0.00229228,0.0144312,-0.00610479,0.0164225,-0.00428367,-1.25548,0.0126209,0.0104801,1070,400,7.0442,50.3734
-147,624,7.00208,-50.9741,-0.00236608,0.0130609,-0.0052935,0.0147026,-0.00400775,-1.27007,0.0113755,0.0112589,1077,400,7.00213,50.9741
-140,624,6.96472,-51.5546,-0.00230932,0.0115389,-0.00457471,0.0129136,-0.00368408,-1.27887,0.0100645,0.00991646,1084,400,6.96476,51.5546
-133,624,6.92249,-52.1273,-0.00220755,0.00999531,-0.00392853,0.0111507,-0.00336289,-1.28477,0.0087723,0.0105962,1091,400,6.92254,52.1273
-126,624,6.8761,-52.6344,-0.00223828,0.00827232,-0.00318688,0.0091631,-0.00312907,-1.29824,0.0073764,0.0128654,1098,400,6.87605,52.6344
-119,624,6.80859,-53.1792,-0.00207054,0.00679198,-0.0026673,0.00753281,-0.00281137,-1.29988,0.00617611,0.0157743,1105,400,6.80856,53.1792
-112,624,6.79395,-53.6967,-0.00178908,0.00555874,-0.00221288,0.00617371,-0.00240405,-1.29973,0.00510929,0.0180823,1112,400,6.79391,53.6968
-105,624,6.83264,-54.2251,-0.00147696,0.00452059,-0.00189131,0.00506719,-0.00202356,-1.28946,0.00421769,0.0133975,1119,400,6.83262,54.2251
-98,624,6.76514,-54.7203,-0.00119345,0.00362409,-0.00161942,0.00411785,-0.00168721,-1.27485,0.0034481,0.0140254,1126,400,6.76517,54.7203
-91,624,6.74792,-55.2254,-0.000885579,0.00256251,-0.00133718,0.00302029,-0.00134337,-1.24095,0.00258063,0.0207938,1133,400,6.74798,55.2254
-84,624,6.75378,-55.7091,-0.000469314,0.00187057,-0.00104421,0.0022688,-0.000867538,-1.20646,0.00187004,0.0187717,1140,400,6.75378,55.7091
-77,624,6.71936,-56.1374,-1.04703e-05,0.00162155,-0.000833886,0.00197226,-0.000361182,-1.17268,0.0014503,0.0140929,1147,400,6.71934,56.1373
-70,624,6.70557,-56.5383,0.000488948,0.00130645,-0.000598958,0.00162284,0.00017256,-1.08482,0.00102921,0.016693,1154,400,6.70558,56.5383
-63,624,6.72119,-56.963,0.00107002,0.00102184,-0.000357505,0.00140425,0.000687617,-0.751757,0.000810801,0.0190366,1161,400,6.72119,56.963
-56,624,6.67334,-57.3565,0.00152312,0.000604766,-9.38883e-05,0.00153262,0.000595266,-0.100846,0.000892174,0.0155644,1168,400,6.67329,57.3565
-49,624,6.68689,-57.7414,0.00200423,0.000218886,0.000201172,0.00202661,0.000196499,0.110828,0.00129057,0.0112775,1175,400,6.68687,57.7414
-42,624,6.69592,-58.0752,0.00262099,-0.000150728,0.000469567,0.00269838,-0.000228118,0.163344,0.00187958,0.0102701,1182,400,6.69596,58.0752
-35,624,6.69519,-58.3814,0.0027083,-0.000204343,0.000456215,0.00277808,-0.000274129,0.151791,0.00194987,0.0153308,1189,400,6.69519,58.3814
-28,624,6.71094,-58.7041,0.00256989,-0.000638217,0.000717989,0.00272324,-0.000791576,0.210432,0.00212899,0.0199702,1196,400,6.71089,58.7041
-21,624,6.73523,-58.983,0.00231191,-0.000943735,0.00087183,0.00253068,-0.0011625,0.245852,0.00218049,0.0151452,1203,400,6.73521,58.983
-14,624,6.76807,-59.2541,0.00199571,-0.0008754,0.000944731,0.00227868,-0.00115837,0.291022,0.00201922,0.0162575,1210,400,6.7681,59.2541
-7,624,6.83362,-59.475,0.00154385,-0.00102913,0.000879093,0.00181552,-0.0013008,0.299724,0.00180737,0.0211715,1217,400,6.83358,59.475
0,624,6.87402,-59.6989,0.000707778,-0.00141052,0.000884159,0.00102832,-0.00173106,0.347796,0.00161026,0.0219159,1224,400,6.87401,59.6989
7,624,6.84521,-59.9099,-0.000501192,-0.00183597,0.00072501,-0.000183164,-0.002154,0.413377,0.00137901,0.0164144,1231,400,6.84524,59.91
14,624,6.91101,-60.124,-0.00189252,-0.00252897,0.000437367,-0.00166986,-0.00275163,0.470894,0.0016007,0.0139845,1238,400,6.91099,60.124
21,624,6.93176,-60.2449,-0.00309102,-0.00323471,-2.52534e-05,-0.00308671,-0.00323902,-0.168997,0.00211041,0.0158666,1245,400,6.93172,60.2449
28,624,6.94531,-60.3614,-0.00439881,-0.00429107,-0.000448851,-0.00389287,-0.00479701,-0.845123,0.00294329,0.0147216,1252,400,6.94531,60.3614
35,624,6.99365,-60.465,-0.00552367,-0.00546973,-0.00137191,-0.00412453,-0.00686888,-0.795227,0.00399234,0.0174806,1259,400,6.99363,60.465
42,624,7.06238,-60.5572,-0.00650475,-0.006637,-0.00272876,-0.00384131,-0.00930044,-0.773284,0.00539662,0.0183192,1266,400,7.06236,60.5572
49,624,7.14172,-60.5946,-0.00736916,-0.00753334,-0.00426264,-0.00318782,-0.0117147,-0.775771,0.0069937,0.0190312,1273,400,7.1417,60.5946
56,624,7.18018,-60.6825,-0.0079817,-0.00864007,-0.00600038,-0.00230148,-0.0143203,-0.757996,0.00887968,0.0212431,1280,400,7.18019,60.6825
63,624,7.22412,-60.6938,-0.00809671,-0.00954356,-0.00764346,-0.00114252,-0.0164978,-0.738216,0.0106381,0.0175277,1287,400,7.22406,60.6937
70,624,7.25024,-60.6915,-0.00773348,-0.0103552,-0.00914352,0.000192653,-0.0182814,-0.7142,0.0122523,0.015015,1294,400,7.25021,60.6915
77,624,7.31421,-60.6216,-0.00720506,-0.0106349,-0.0107741,0.00198975,-0.0198297,-0.706474,0.0139305,0.015302,1301,400,7.31425,60.6215
84,624,7.38806,-60.5589,-0.0062612,-0.0108082,-0.0119586,0.00363805,-0.0207075,-0.691461,0.0151639,0.0134258,1308,400,7.38811,60.5589
91,624,7.41943,-60.4682,-0.00519641,-0.0110055,-0.0126908,0.00491797,-0.0211198,-0.672901,0.0159736,0.0137324,1315,400,7.41947,60.4682
98,624,7.46753,-60.3824,-0.00405625,-0.0105994,-0.0129301,0.00600973,-0.0206654,-0.661489,0.0161571,0.0130759,1322,400,7.46758,60.3823
105,624,7.50134,-60.2848,-0.00235261,-0.00981874,-0.0126452,0.00709901,-0.0192704,-0.641867,0.0157557,0.0145495,1329,400,7.50135,60.2848
112,624,7.53687,-60.1526,-0.000355019,-0.00891347,-0.011723,0.00784539,-0.0171139,-0.610399,0.0147377,0.0153361,1336,400,7.53686,60.1526
119,624,7.57532,-60.0111,0.00156291,-0.00779047,-0.0103491,0.00824293,-0.0144705,-0.573184,0.0132769,0.0150531,1343,400,7.57536,60.0111
126,624,7.55884,-59.748,0.00285186,-0.00666505,-0.00860276,0.00792449,-0.0117377,-0.532776,0.0114229,0.0176176,1350,400,7.55886,59.7479
133,624,7.64319,-59.4854,0.00402178,-0.00518924,-0.00691076,0.00772104,-0.0088885,-0.49148,0.00959742,0.0193941,1357,400,7.64315,59.4854
140,624,7.69678,-59.2679,0.00470217,-0.00402837,-0.00481592,0.0068368,-0.00616299,-0.417221,0.00750879,0.0195041,1364,400,7.69681,59.2678
147,624,7.63391,-58.9731,0.00503005,-0.00321051,-0.00279215,0.005887,-0.00406746,-0.297788,0.00577912,0.024812,1371,400,7.63385,58.9731
154,624,7.68091,-58.6778,0.00521286,-0.00255027,-0.00154949,0.00551071,-0.00284812,-0.189905,0.0049069,0.0281623,1378,400,7.68094,58.6778
161,624,7.77539,-58.3608,0.00500299,-0.00127937,-0.000812523,0.00510637,-0.00138276,-0.12656,0.00394675,0.0259336,1385,400,7.77535,58.3608
168,624,7.83154,-58.0225,0.00439772,-0.000281184,-0.000508945,0.00445244,-0.000335905,-0.107105,0.00308636,0.0252484,1392,400,7.8316,58.0225
175,624,7.84021,-57.6982,0.00373858,0.000652695,-0.000220976,0.00375433,0.000636952,-0.071125,0.0023199,0.0188647,1399,400,7.84017,57.6982
182,624,7.80164,-57.3196,0.00299322,0.00149175,5.32178e-05,0.0029951,0.00148987,0.0353846,0.00172923,0.0112009,1406,400,7.80168,57.3197
189,624,7.78833,-56.9058,0.00225769,0.00232196,0.000367666,0.00265889,0.00192075,0.828989,0.00158492,0.0112681,1413,400,7.78839,56.9058
196,624,7.7782,-56.4742,0.00171095,0.00315606,0.000784494,0.00350005,0.00136696,1.15756,0.00203683,0.0125471,1420,400,7.77822,56.4742
203,624,7.81189,-56.0058,0.00117608,0.00376812,0.00119076,0.00423209,0.000712101,1.19925,0.00261653,0.0147272,1427,400,7.81194,56.0058
210,624,7.81067,-55.5578,0.000508056,0.0042623,0.00154481,0.00481623,-4.58788e-05,1.2265,0.00322622,0.0191916,1434,400,7.81068,55.5578
217,624,7.77612,-55.091,-1.9869e-06,0.00501578,0.00188789,0.00564674,-0.000632949,1.24825,0.00399224,0.0225612,1441,400,7.77613,55.091
224,624,7.7439,-54.6118,-0.000359329,0.00590032,0.0022374,0.0066178,-0.00107681,1.26048,0.00481114,0.0173532,1448,400,7.74391,54.6118
231,624,7.71826,-54.0929,-0.000616862,0.00673329,0.00267041,0.00760104,-0.00148461,1.25661,0.00562789,0.012805,1455,400,7.71823,54.0929
238,624,7.69775,-53.5855,-0.000869506,0.00765026,0.00304978,0.00862944,-0.00184868,1.26013,0.006458,0.0193817,1462,400,7.69771,53.5855
245,624,7.67383,-53.0791,-0.00113409,0.00870341,0.00341999,0.00977552,-0.00220621,1.26702,0.00736342,0.0190673,1469,400,7.67379,53.0791
252,624,7.62244,-52.4854,-0.00126962,0.00987403,0.00389169,0.0110986,-0.00249415,1.26595,0.00835545,0.0131672,1476,400,7.62245,52.4855
259,624,7.57202,-51.9138,-0.00120135,0.0114105,0.00464549,0.0129369,-0.00272775,1.25333,0.00966304,0.00933713,1483,400,7.57203,51.9138
266,624,7.53821,-51.3123,-0.00120188,0.0126254,0.00527772,0.0144096,-0.00298609,1.24479,0.0107411,0.012477,1490,400,7.53819,51.3123
273,624,7.50317,-50.7167,-0.00107859,0.013968,0.00606277,0.0161069,-0.00321744,1.23164,0.0119556,0.0161984,1497,400,7.50318,50.7167
280,624,7.44727,-50.115,-0.000778194,0.0153239,0.006945,0.0179055,-0.00335976,1.21491,0.0132002,0.0150225,1504,400,7.44727,50.115
287,624,7.37317,-49.4914,-0.000269902,0.0169802,0.00808996,0.0201805,-0.00347021,1.1941,0.0147471,0.0109562,1511,400,7.37322,49.4914
294,624,7.33179,-48.855,0.000194504,0.0184803,0.00920966,0.0223147,-0.0036399,1.17628,0.0162264,0.0103377,1518,400,7.33181,48.855
301,624,7.29028,-48.1478,0.00068795,0.019906,0.0103521,0.0244213,-0.00382743,1.15949,0.0176952,0.0134121,1525,400,7.29033,48.1478
308,624,7.28198,-47.3987,0.00133487,0.0213992,0.0115332,0.0266529,-0.00391889,1.14335,0.0192086,0.0205945,1532,400,7.28203,47.3987
315,624,7.27856,-46.7232,0.00204799,0.0230081,0.0128206,0.029087,-0.00403091,1.12804,0.0208652,0.0263173,1539,400,7.27851,46.7232
322,624,7.2533,-46.0878,0.00272199,0.0242622,0.0142196,0.03133,-0.00434584,1.10951,0.0224758,0.0444327,1546,400,7.25335,46.0878
329,624,7.0105,-45.5282,0,0,0,0,0,0,0,-1,1553,400,7.01045,45.5282
336,624,7.04114,-44.0608,0,0,0,0,0,0,0,-1,1560,400,7.04115,44.0608
343,624,6.53369,-39.5615,0,0,0,0,0,0,0,-1,1567,400,6.53364,39.5615
350,624,1.99194,-7.29742,0,0,0,0,0,0,0,-1,1574,400,1.99198,7.29741
357,624,2.64075,-3.13092,0,0,0,0,0,0,0,-1,1581,400,2.64076,3.13091
364,624,3.16565,-4.9458,0,0,0,0,0,0,0,-1,1588,400,3.16564,4.94579
371,624,3.37561,-5.23529,0,0,0,0,0,0,0,-1,1595,400,3.37563,5.23529
378,624,1.50439,-5.22165,0,0,0,0,0,0,0,-1,1602,400,1.50438,5.22164
385,624,1.2301,-10.5866,0,0,0,0,0,0,0,-1,1609,400,1.2301,10.5866
392,624,4.26819,-5.14236,0,0,0,0,0,0,0,-1,1616,400,4.26818,5.14236
399,624,2.22168,-9.19293,0,0,0,0,0,0,0,-1,1623,400,2.22173,9.19294
406,624,2.68213,-9.91171,0,0,0,0,0,0,0,-1,1630,400,2.68213,9.91171
413,624,0,0,0,0,0,0,0,0,0,-1,1637,400,0,0
420,624,0,0,0,0,0,0,0,0,0,-1,1644,400,0,0
427,624,0,0,0,0,0,0,0,0,0,-1,1651,400,0,0
434,624,0,0,0,0,0,0,0,0,0,-1,1658,400,0,0
441,624,0,0,0,0,0,0,0,0,0,-1,1665,400,0,0
448,624,0,0,0,0,0,0,0,0,0,-1,1672,400,0,0
455,624,0,0,0,0,0,0,0,0,0,-1,1679,400,0,0
462,624,0,0,0,0,0,0,0,0,0,-1,1686,400,0,0
469,624,0,0,0,0,0,0,0,0,0,-1,1693,400,0,0
476,624,0,0,0,0,0,0,0,0,0,-1,1700,400,0,0
483,624,0,0,0,0,0,0,0,0,0,-1,1707,400,0,0
490,624,0,0,0,0,0,0,0,0,0,-1,1714,400,0,0
497,624,0,0,0,0,0,0,0,0,0,-1,1721,400,0,0
504,624,0,0,0,0,0,0,0,0,0,-1,1728,400,0,0
511,624,0,0,0,0,0,0,0,0,0,-1,1735,400,0,0
518,624,0,0,0,0,0,0,0,0,0,-1,1742,400,0,0
525,624,0,0,0,0,0,0,0,0,0,-1,1749,400,0,0
532,624,0,0,0,0,0,0,0,0,0,-1,1756,400,0,0
539,624,0,0,0,0,0,0,0,0,0,-1,1763,400,0,0
546,624,0,0,0,0,0,0,0,0,0,-1,1770,400,0,0
553,624,0,0,0,0,0,0,0,0,0,-1,1777,400,0,0
560,624,0,0,0,0,0,0,0,0,0,-1,1784,400,0,0
567,624,0,0,0,0,0,0,0,0,0,-1,1791,400,0,0
574,624,0,0,0,0,0,0,0,0,0,-1,1798,400,0,0
581,624,0,0,0,0,0,0,0,0,0,-1,1805,400,0,0
588,624,0,0,0,0,0,0,0,0,0,-1,1812,400,0,0
595,624,0,0,0,0,0,0,0,0,0,-1,1819,400,0,0
602,624,0,0,0,0,0,0,0,0,0,-1,1826,400,0,0
609,624,0,0,0,0,0,0,0,0,0,-1,1833,400,0,0
616,624,0,0,0,0,0,0,0,0,0,-1,1840,400,0,0
623,624,0,0,0,0,0,0,0,0,0,-1,1847,400,0,0
630,624,0,0,0,0,0,0,0,0,0,-1,1854,400,0,0
637,624,0,0,0,0,0,0,0,0,0,-1,1861,400,0,0
644,624,0,0,0,0,0,0,0,0,0,-1,1868,400,0,0
651,624,0,0,0,0,0,0,0,0,0,-1,1875,400,0,0
658,624,0,0,0,0,0,0,0,0,0,-1,1882,400,0,0
665,624,0,0,0,0,0,0,0,0,0,-1,1889,400,0,0
672,624,0,0,0,0,0,0,0,0,0,-1,1896,400,0,0
679,624,0,0,0,0,0,0,0,0,0,-1,1903,400,0,0
686,624,0,0,0,0,0,0,0,0,0,-1,1910,400,0,0
693,624,0,0,0,0,0,0,0,0,0,-1,1917,400,0,0
700,624,0,0,0,0,0,0,0,0,0,-1,1924,400,0,0
707,624,0,0,0,0,0,0,0,0,0,-1,1931,400,0,0
714,624,0,0,0,0,0,0,0,0,0,-1,1938,400,0,0
721,624,0,0,0,0,0,0,0,0,0,-1,1945,400,0,0
728,624,0,0,0,0,0,0,0,0,0,-1,1952,400,0,0
735,624,0,0,0,0,0,0,0,0,0,-1,1959,400,0,0
742,624,0,0,0,0,0,0,0,0,0,-1,1966,400,0,0
749,624,0,0,0,0,0,0,0,0,0,-1,1973,400,0,0
756,624,0,0,0,0,0,0,0,0,0,-1,1980,400,0,0
763,624,0,0,0,0,0,0,0,0,0,-1,1987,400,0,0
770,624,0,0,0,0,0,0,0,0,0,-1,1994,400,0,0
777,624,0,0,0,0,0,0,0,0,0,-1,2001,400,0,0
784,624,0,0,0,0,0,0,0,0,0,-1,2008,400,0,0
791,624,0,0,0,0,0,0,0,0,0,-1,2015,400,0,0
798,624,0,0,0,0,0,0,0,0,0,-1,2022,400,0,0
805,624,0,0,0,0,0,0,0,0,0,-1,2029,400,0,0
812,624,0,0,0,0,0,0,0,0,0,-1,2036,400,0,0
-700,617,0,0,0,0,0,0,0,0,0,-1,524,407,0,0
-693,617,0,0,0,0,0,0,0,0,0,-1,531,407,0,0
-686,617,0,0,0,0,0,0,0,0,0,-1,538,407,0,0
-679,617,0,0,0,0,0,0,0,0,0,-1,545,407,0,0
-672,617,0,0,0,0,0,0,0,0,0,-1,552,407,0,0
-665,617,0,0,0,0,0,0,0,0,0,-1,559,407,0,0
-658,617,0,0,0,0,0,0,0,0,0,-1,566,407,0,0
-651,617,0,0,0,0,0,0,0,0,0,-1,573,407,0,0
-644,617,0,0,0,0,0,0,0,0,0,-1,580,407,0,0
-637,617,0,0,0,0,0,0,0,0,0,-1,587,407,0,0
-630,617,0,0,0,0,0,0,0,0,0,-1,594,407,0,0
-623,617,0,0,0,0,0,0,0,0,0,-1,601,407,0,0
-616,617,0,0,0,0,0,0,0,0,0,-1,608,407,0,0
-609,617,0,0,0,0,0,0,0,0,0,-1,615,407,0,0
-602,617,0,0,0,0,0,0,0,0,0,-1,622,407,0,0
-595,617,0,0,0,0,0,0,0,0,0,-1,629,407,0,0
-588,617,0,0,0,0,0,0,0,0,0,-1,636,407,0,0
-581,617,0,0,0,0,0,0,0,0,0,-1,643,407,0,0
-574,617,0,0,0,0,0,0,0,0,0,-1,650,407,0,0
-567,617,0,0,0,0,0,0,0,0,0,-1,657,407,0,0
-560,617,0,0,0,0,0,0,0,0,0,-1,664,407,0,0
-553,617,0,0,0,0,0,0,0,0,0,-1,671,407,0,0
-546,617,0,0,0,0,0,0,0,0,0,-1,678,407,0,0
-539,617,0,0,0,0,0,0,0,0,0,-1,685,407,0,0
-532,617,0,0,0,0,0,0,0,0,0,-1,692,407,0,0
-525,617,0,0,0,0,0,0,0,0,0,-1,699,407,0,0
-518,617,0,0,0,0,0,0,0,0,0,-1,706,407,0,0
-511,617,0,0,0,0,0,0,0,0,0,-1,713,407,0,0
-504,617,0,0,0,0,0,0,0,0,0,-1,720,407,0,0
-497,617,0,0,0,0,0,0,0,0,0,-1,727,407,0,0
-490,617,0,0,0,0,0,0,0,0,0,-1,734,407,0,0
-483,617,0,0,0,0,0,0,0,0,0,-1,741,407,0,0
-476,617,0,0,0,0,0,0,0,0,0,-1,748,407,0,0
-469,617,0,0,0,0,0,0,0,0,0,-1,755,407,0,0
-462,617,0,0,0,0,0,0,0,0,0,-1,762,407,0,0
-455,617,0,0,0,0,0,0,0,0,0,-1,769,407,0,0
-448,617,0,0,0,0,0,0,0,0,0,-1,776,407,0,0
-441,617,0,0,0,0,0,0,0,0,0,-1,783,407,0,0
-434,617,0,0,0,0,0,0,0,0,0,-1,790,407,0,0
-427,617,0,0,0,0,0,0,0,0,0,-1,797,407,0,0
-420,617,0,0,0,0,0,0,0,0,0,-1,804,407,0,0
-413,617,0,0,0,0,0,0,0,0,0,-1,811,407,0,0
-406,617,0,0,0,0,0,0,0,0,0,-1,818,407,0,0
-399,617,0,0,0,0,0,0,0,0,0,-1,825,407,0,0
-392,617,0,0,0,0,0,0,0,0,0,-1,832,407,0,0
-385,617,0,0,0,0,0,0,0,0,0,-1,839,407,0,0
-378,617,0,0,0,0,0,0,0,0,0,-1,846,407,0,0
-371,617,0,0,0,0,0,0,0,0,0,-1,853,407,0,0
-364,617,0,0,0,0,0,0,0,0,0,-1,860,407,0,0
-357,617,0,0,0,0,0,0,0,0,0,-1,867,407,0,0
-350,617,0,0,0,0,0,0,0,0,0,-1,874,407,0,0
-343,617,0,0,0,0,0,0,0,0,0,-1,881,407,0,0
-336,617,0,0,0,0,0,0,0,0,0,-1,888,407,0,0
-329,617,0,0,0,0,0,0,0,0,0,-1,895,407,0,0
-322,617,0,0,0,0,0,0,0,0,0,-1,902,407,0,0
-315,617,0,0,0,0,0,0,0,0,0,-1,909,407,0,0
-308,617,0,0,0,0,0,0,0,0,0,-1,916,407,0,0
-301,617,6.81897,-24.525,0,0,0,0,0,0,0,-1,923,407,6.81899,24.525
-294,617,6.19263,-26.917,0,0,0,0,0,0,0,-1,930,407,6.19261,26.917
-287,617,7.00409,-31.9773,0,0,0,0,0,0,0,-1,937,407,7.00406,31.9773
-280,617,9.1106,-36.5021,0,0,0,0,0,0,0,-1,944,407,9.11059,36.5021
-273,617,8.35004,-36.2751,0,0,0,0,0,0,0,-1,951,407,8.35003,36.2751
-266,617,7.61749,-36.1671,0,0,0,0,0,0,0,-1,958,407,7.61746,36.1671
-259,617,6.83643,-36.3605,0,0,0,0,0,0,0,-1,965,407,6.83643,36.3605
-252,617,6.02264,-36.5001,0,0,0,0,0,0,0,-1,972,407,6.02265,36.5001
-245,617,6.72626,-34.4465,0,0,0,0,0,0,0,-1,979,407,6.72627,34.4465
-238,617,5.6474,-34.6842,0,0,0,0,0,0,0,-1,986,407,5.64741,34.6842
-231,617,6.45605,-40.3772,0,0,0,0,0,0,0,-1,993,407,6.45605,40.3772
-224,617,6.89587,-43.3475,0,0,0,0,0,0,0,-1,1000,407,6.89586,43.3475
-217,617,6.95605,-44.1127,0,0,0,0,0,0,0,-1,1007,407,6.95605,44.1127
-210,617,6.93231,-45.0202,-0.00084606,0.0203635,-0.0104065,0.0246166,-0.00509913,-1.18282,0.0183485,0.0355041,1014,407,6.9323,45.0202
-203,617,6.89221,-45.8478,-0.000912501,0.0181485,-0.00955661,0.0221146,-0.00487864,-1.17741,0.0166099,0.0245609,1021,407,6.89223,45.8478
-196,617,6.77722,-46.4523,-0.0010314,0.0169736,-0.00876414,0.0205352,-0.00459294,-1.18481,0.0154504,0.0199336,1028,407,6.77723,46.4523
-189,617,6.72607,-47.1172,-0.00107593,0.0158055,-0.00827479,0.019185,-0.00445544,-1.18306,0.0145051,0.0159706,1035,407,6.7261,47.1171
-182,617,6.66187,-47.8271,-0.00110408,0.0147573,-0.00771088,0.017888,-0.00423474,-1.18512,0.0135591,0.0181138,1042,407,6.66184,47.8271
-175,617,6.65247,-48.4669,-0.00117886,0.0136063,-0.00694537,0.0163571,-0.00392968,-1.19369,0.0124235,0.0168494,1049,407,6.65243,48.4669
-168,617,6.59509,-49.1221,-0.00128423,0.0123417,-0.00612554,0.0146906,-0.00363307,-1.20464,0.0112029,0.0123688,1056,407,6.59512,49.1221
-161,617,6.51465,-49.7925,-0.00127564,0.0111572,-0.00531208,0.0131177,-0.00323615,-1.21724,0.00999993,0.0110182,1063,407,6.51467,49.7925
-154,617,6.45959,-50.389,-0.00126649,0.00990104,-0.00450263,0.0114903,-0.00285573,-1.23149,0.00876851,0.0119715,1070,407,6.45965,50.389
-147,617,6.44348,-50.9563,-0.00123014,0.00870058,-0.00376855,0.00996874,-0.0024983,-1.24619,0.00761642,0.016962,1077,407,6.44354,50.9563
-140,617,6.43091,-51.5872,-0.00108411,0.00735966,-0.00309733,0.00837397,-0.00209842,-1.25432,0.00639788,0.0125123,1084,407,6.43095,51.5872
-133,617,6.39746,-52.1419,-0.000902897,0.00604075,-0.00249386,0.0068436,-0.00170576,-1.25934,0.00522464,0.0138407,1091,407,6.39749,52.1419
-126,617,6.34766,-52.6407,-0.000801971,0.00465902,-0.00186173,0.00523332,-0.00137626,-1.27158,0.00402681,0.01456,1098,407,6.34771,52.6407
-119,617,6.27039,-53.1837,-0.000529135,0.00350706,-0.00140125,0.00394583,-0.000967911,-1.26734,0.0030056,0.0150624,1105,407,6.27033,53.1837
-112,617,6.29089,-53.695,-0.000159215,0.00258455,-0.00102152,0.00292309,-0.000497763,-1.25077,0.00213409,0.0161054,1112,407,6.29088,53.695
-105,617,6.31104,-54.1979,0.000232208,0.00185636,-0.00077172,0.00216456,-7.59921e-05,-1.19084,0.00146903,0.0164507,1119,407,6.311,54.1979
-98,617,6.27344,-54.7116,0.00063388,0.00124972,-0.000581911,0.00160016,0.000283443,-1.02875,0.000985968,0.0132111,1126,407,6.27349,54.7116
-91,617,6.28345,-55.2076,0.00110116,0.000714264,-0.000423874,0.00137364,0.000441781,-0.571324,0.000809723,0.0189433,1133,407,6.28347,55.2076
-84,617,6.30737,-55.6968,0.00167649,0.000390532,-0.000299449,0.0017428,0.000324221,-0.217926,0.00107029,0.0184807,1140,407,6.30734,55.6968
-77,617,6.30151,-56.0971,0.00227827,0.000351112,-0.000248934,0.0023099,0.000319477,-0.126408,0.00144526,0.0146738,1147,407,6.30153,56.0971
-70,617,6.31653,-56.5405,0.00297137,-0.000182297,2.46187e-05,0.00297156,-0.00018249,0.00780574,0.00204459,0.0169851,1154,407,6.31658,56.5405
-63,617,6.36023,-56.9702,0.0039473,-7.88987e-05,0.000462832,0.00399982,-0.000131419,0.112992,0.00271141,0.0212667,1161,407,6.36019,56.9702
-56,617,6.32031,-57.3431,0.00466388,-0.000270297,0.000773662,0.00478235,-0.00038876,0.15194,0.0033254,0.0164439,1168,407,6.32036,57.3431
-49,617,6.34155,-57.7396,0.0053777,-0.000335946,0.00114717,0.00559942,-0.000557667,0.190923,0.00393204,0.012331,1175,407,6.34154,57.7396
-42,617,6.36389,-58.1004,0.00625453,-0.000485974,0.00154611,0.00659225,-0.000823692,0.215053,0.00469355,0.0124671,1182,407,6.36386,58.1004
-35,617,6.3988,-58.3954,0.00615931,-0.000245993,0.00151859,0.0065011,-0.000587786,0.221383,0.00454269,0.0172871,1189,407,6.39876,58.3954
-28,617,6.4176,-58.6785,0.00584499,-0.000597609,0.00208162,0.00645904,-0.00121166,0.286852,0.00476158,0.0189486,1196,407,6.41766,58.6785
-21,617,6.47192,-58.9452,0.00543435,-0.000838541,0.00244244,0.00627317,-0.00167737,0.330817,0.00483913,0.014256,1203,407,6.47198,58.9452
-14,617,6.51917,-59.2154,0.00505606,-0.000728246,0.00264949,0.0060862,-0.00175838,0.370818,0.00475327,0.0166158,1210,407,6.51917,59.2154
-7,617,6.54724,-59.4024,0.00458089,-0.000997698,0.0026309,0.00562588,-0.00204269,0.378091,0.00458573,0.0203426,1217,407,6.54719,59.4024
0,617,6.60791,-59.6239,0.00349077,-0.00168154,0.00268343,0.00463141,-0.00282218,0.401928,0.00434538,0.0181993,1224,407,6.60787,59.6239
7,617,6.70166,-59.9167,0.00187341,-0.00257634,0.00247666,0.00297779,-0.00368071,0.41945,0.00385142,0.0136865,1231,407,6.70167,59.9167
14,617,6.73645,-60.131,3.64138e-06,-0.00388875,0.00204976,0.000883961,-0.00476907,0.405655,0.00351132,0.0159971,1238,407,6.73646,60.131
21,617,6.80859,-60.235,-0.00163247,-0.00523595,0.00141215,-0.00114501,-0.00572341,0.332383,0.00349699,0.0147183,1245,407,6.80861,60.2349
28,617,6.87805,-60.3907,-0.00349632,-0.00687743,0.00113954,-0.00314812,-0.00722563,0.296552,0.00418321,0.0130302,1252,407,6.87806,60.3906
35,617,6.87976,-60.5304,-0.00515689,-0.00881278,-0.000161788,-0.00514974,-0.00881993,-0.044139,0.00511601,0.0163268,1259,407,6.87976,60.5304
42,617,7.0072,-60.5565,-0.00669569,-0.0108077,-0.00213833,-0.00578528,-0.0117181,-0.402512,0.00676562,0.0239447,1266,407,7.00726,60.5565
49,617,7.10364,-60.5942,-0.00805447,-0.0123269,-0.00431855,-0.00537266,-0.0150087,-0.555716,0.00878103,0.0227588,1273,407,7.10369,60.5942
56,617,7.14404,-60.6459,-0.00907419,-0.0141494,-0.00696318,-0.00420065,-0.019023,-0.61066,0.0115395,0.0165066,1280,407,7.14404,60.6459
63,617,7.21106,-60.6773,-0.00949971,-0.0155431,-0.00946211,-0.00258851,-0.0224543,-0.630843,0.0141856,0.0122658,1287,407,7.2111,60.6773
70,617,7.28064,-60.695,-0.00927314,-0.0167539,-0.0118986,-0.000540867,-0.0254861,-0.633112,0.0168134,0.0173802,1294,407,7.28069,60.695
77,617,7.38745,-60.624,-0.00883505,-0.0173371,-0.014639,0.00215762,-0.0283298,-0.644089,0.0196452,0.0156939,1301,407,7.38751,60.624
84,617,7.47144,-60.548,-0.00787029,-0.0177939,-0.0168656,0.00474824,-0.0304124,-0.642336,0.0220289,0.0123678,1308,407,7.47139,60.548
91,617,7.5144,-60.4836,-0.00671483,-0.0182705,-0.0185643,0.00694997,-0.0319353,-0.634533,0.0239455,0.0112333,1315,407,7.51444,60.4836
98,617,7.56946,-60.3953,-0.00544902,-0.0180883,-0.0196471,0.00886978,-0.0324071,-0.629795,0.0250895,0.0119889,1322,407,7.56949,60.3953
105,617,7.65149,-60.2589,-0.00326756,-0.0173731,-0.0198781,0.0107719,-0.0314126,-0.614926,0.0253084,0.0139861,1329,407,7.65151,60.2589
112,617,7.73694,-60.1233,-0.000645999,-0.0164707,-0.0192045,0.0122123,-0.029329,-0.589992,0.0246532,0.0167008,1336,407,7.73695,60.1233
119,617,7.79114,-59.9591,0.00193891,-0.0152253,-0.0177771,0.0130971,-0.0263834,-0.560517,0.0232203,0.0184177,1343,407,7.79112,59.9592
126,617,7.8269,-59.7228,0.00377498,-0.0140288,-0.0158033,0.0130111,-0.023265,-0.528902,0.0212211,0.0205678,1350,407,7.82686,59.7228
133,617,7.88806,-59.468,0.00567307,-0.0124739,-0.0141298,0.0133919,-0.0201927,-0.49998,0.0195221,0.0196078,1357,407,7.88807,59.468
140,617,7.96948,-59.2451,0.00690245,-0.0108354,-0.0105011,0.0117788,-0.0157117,-0.434732,0.0159256,0.0176202,1364,407,7.9695,59.2451
147,617,7.98657,-58.9803,0.00761824,-0.00959401,-0.00670472,0.00992168,-0.0118975,-0.330922,0.0126145,0.0220817,1371,407,7.98662,58.9803
154,617,8.03601,-58.7302,0.00820588,-0.00869146,-0.00418915,0.00918743,-0.009673,-0.230155,0.0108903,0.0257765,1378,407,8.03604,58.7302
161,617,8.09631,-58.4381,0.00822859,-0.00647292,-0.00230835,0.00858251,-0.00682685,-0.152139,0.00891582,0.0265929,1385,407,8.09634,58.4382
168,617,8.13806,-58.0939,0.00745508,-0.00516547,-0.00200007,0.00776446,-0.00547485,-0.153469,0.00768173,0.0239155,1392,407,8.13803,58.0939
175,617,8.16284,-57.7141,0.00661636,-0.00390346,-0.00171819,0.00688988,-0.00417698,-0.157866,0.00645313,0.0186542,1399,407,8.16282,57.7141
182,617,8.19763,-57.319,0.00567866,-0.0027932,-0.00145188,0.00592057,-0.00303511,-0.165102,0.00525926,0.0124925,1406,407,8.19765,57.319
189,617,8.18994,-56.9102,0.00472344,-0.00160991,-0.00114326,0.0049235,-0.00180997,-0.173233,0.00402372,0.0123941,1413,407,8.18991,56.9102
196,617,8.17944,-56.4705,0.00394524,-0.00040368,-0.000691178,0.00405244,-0.000510886,-0.153881,0.00288703,0.0162452,1420,407,8.1794,56.4704
203,617,8.18335,-56.0453,0.00327212,0.000468945,-0.000275087,0.00329886,0.000442205,-0.0969024,0.00206766,0.0160899,1427,407,8.18332,56.0454
210,617,8.23059,-55.5742,0.00245543,0.00136594,0.000130471,0.00247084,0.00135053,0.117539,0.0014286,0.015952,1434,407,8.23064,55.5742
217,617,8.23914,-55.0956,0.00179843,0.00214298,0.000566453,0.00256278,0.00137864,0.933019,0.00148104,0.0214766,1441,407,8.23915,55.0956
224,617,8.22644,-54.6265,0.00129817,0.00292768,0.00101197,0.00341212,0.00081373,1.12433,0.00205785,0.0207093,1448,407,8.22642,54.6265
231,617,8.23169,-54.1208,0.000942077,0.00368659,0.00152264,0.0043641,0.00026457,1.15215,0.00282534,0.0155399,1455,407,8.23168,54.1208
238,617,8.22656,-53.6132,0.000669189,0.00446107,0.00190953,0.00525603,-0.000125764,1.17631,0.00354668,0.0164058,1462,407,8.2266,53.6132
245,617,8.21985,-53.0849,0.000372906,0.00534504,0.0022502,0.00621216,-0.000494221,1.20298,0.00431563,0.0130495,1469,407,8.2198,53.0849
252,617,8.17346,-52.4917,0.000121133,0.00633336,0.00265997,0.00731666,-0.000862174,1.21671,0.0051891,0.0137444,1476,407,8.1735,52.4917
259,617,8.12354,-51.9144,-8.13819e-06,0.00756263,0.00327138,0.00878035,-0.00122586,1.21445,0.00630205,0.0118437,1483,407,8.12355,51.9144
266,617,8.08899,-51.3036,-0.000149523,0.00860036,0.00381023,0.010027,-0.00157613,1.21254,0.00726721,0.0130908,1490,407,8.08896,51.3035
273,617,8.06384,-50.6917,-0.00019105,0.00976718,0.00445698,0.0114706,-0.00189447,1.20574,0.0083505,0.014552,1497,407,8.0639,50.6917
280,617,8.01465,-50.1018,-9.49238e-05,0.0109509,0.00518288,0.0130019,-0.00214597,1.19397,0.00946471,0.0135661,1504,407,8.01467,50.1018
287,617,7.96484,-49.4683,0.000169643,0.0123673,0.00610709,0.0148994,-0.00236242,1.17776,0.0108068,0.0121796,1511,407,7.96489,49.4683
294,617,7.94189,-48.8509,0.000380895,0.0136482,0.00699552,0.0166552,-0.00262613,1.16482,0.0120744,0.00953036,1518,407,7.94185,48.8509
301,617,7.89526,-48.2233,0.000614138,0.014869,0.00789577,0.0183785,-0.00289532,1.15255,0.0133227,0.00775199,1525,407,7.89521,48.2233
308,617,7.83557,-47.5357,0.000972368,0.0161409,0.00881813,0.0201877,-0.00307437,1.14056,0.0145916,0.00829698,1532,407,7.83561,47.5357
315,617,7.79248,-46.8488,0.00134658,0.0174347,0.00978803,0.02206,-0.00327871,1.12935,0.0159126,0.010259,1539,407,7.79247,46.8488
322,617,7.72754,-46.158,0.00164541,0.0185026,0.0108032,0.0237762,-0.0036282,1.11667,0.0171883,0.0159722,1546,407,7.72759,46.158
329,617,7.68689,-45.457,0.00192345,0.0196529,0.0118512,0.025588,-0.00401165,1.10651,0.0185411,0.0227871,1553,407,7.68688,45.457
336,617,7.76135,-44.5084,0.00211939,0.0213204,0.0130079,0.027887,-0.0044472,1.1033,0.0202372,0.0470928,1560,407,7.76139,44.5084
343,617,7.49207,-44.1294,0,0,0,0,0,0,0,-1,1567,407,7.49203,44.1294
350,617,7.45898,-43.2177,0,0,0,0,0,0,0,-1,1574,407,7.45903,43.2177
357,617,7.47314,-42.1846,0,0,0,0,0,0,0,-1,1581,407,7.47316,42.1846
364,617,7.59924,-38.6995,0,0,0,0,0,0,0,-1,1588,407,7.59927,38.6995
371,617,2.60266,-6.20667,0,0,0,0,0,0,0,-1,1595,407,2.60261,6.20668
378,617,1.56921,-10.3601,0,0,0,0,0,0,0,-1,1602,407,1.56918,10.3601
385,617,1.74146,-10.3561,0,0,0,0,0,0,0,-1,1609,407,1.7414,10.3561
392,617,1.96936,-5.10449,0,0,0,0,0,0,0,-1,1616,407,1.96931,5.10451
399,617,2.48889,-5.81256,0,0,0,0,0,0,0,-1,1623,407,2.48888,5.81255
406,617,3.01465,-6.51642,0,0,0,0,0,0,0,-1,1630,407,3.01461,6.51643
413,617,3.6427,-7.2074,0,0,0,0,0,0,0,-1,1637,407,3.64274,7.20739
420,617,3.42737,-4.47391,0,0,0,0,0,0,0,-1,1644,407,3.42737,4.47391
427,617,0,0,0,0,0,0,0,0,0,-1,1651,407,0,0
434,617,0,0,0,0,0,0,0,0,0,-1,1658,407,0,0
441,617,0,0,0,0,0,0,0,0,0,-1,1665,407,0,0
448,617,0,0,0,0,0,0,0,0,0,-1,1672,407,0,0
455,617,0,0,0,0,0,0,0,0,0,-1,1679,407,0,0
462,617,0,0,0,0,0,0,0,0,0,-1,1686,407,0,0
469,617,0,0,0,0,0,0,0,0,0,-1,1693,407,0,0
476,617,0,0,0,0,0,0,0,0,0,-1,1700,407,0,0
483,617,0,0,0,0,0,0,0,0,0,-1,1707,407,0,0
490,617,0,0,0,0,0,0,0,0,0,-1,1714,407,0,0
497,617,0,0,0,0,0,0,0,0,0,-1,1721,407,0,0
504,617,0,0,0,0,0,0,0,0,0,-1,1728,407,0,0
511,617,0,0,0,0,0,0,0,0,0,-1,1735,407,0,0
518,617,0,0,0,0,0,0,0,0,0,-1,1742,407,0,0
525,617,0,0,0,0,0,0,0,0,0,-1,1749,407,0,0
532,617,0,0,0,0,0,0,0,0,0,-1,1756,407,0,0
539,617,0,0,0,0,0,0,0,0,0,-1,1763,407,0,0
546,617,0,0,0,0,0,0,0,0,0,-1,1770,407,0,0
553,617,0,0,0,0,0,0,0,0,0,-1,1777,407,0,0
560,617,0,0,0,0,0,0,0,0,0,-1,1784,407,0,0
567,617,0,0,0,0,0,0,0,0,0,-1,1791,407,0,0
574,617,0,0,0,0,0,0,0,0,0,-1,1798,407,0,0
581,617,0,0,0,0,0,0,0,0,0,-1,1805,407,0,0
588,617,0,0,0,0,0,0,0,0,0,-1,1812,407,0,0
595,617,0,0,0,0,0,0,0,0,0,-1,1819,407,0,0
602,617,0,0,0,0,0,0,0,0,0,-1,1826,407,0,0
609,617,0,0,0,0,0,0,0,0,0,-1,1833,407,0,0
616,617,0,0,0,0,0,0,0,0,0,-1,1840,407,0,0
623,617,0,0,0,0,0,0,0,0,0,-1,1847,407,0,0
630,617,0,0,0,0,0,0,0,0,0,-1,1854,407,0,0
637,617,0,0,0,0,0,0,0,0,0,-1,1861,407,0,0
644,617,0,0,0,0,0,0,0,0,0,-1,1868,407,0,0
651,617,0,0,0,0,0,0,0,0,0,-1,1875,407,0,0
658,617,0,0,0,0,0,0,0,0,0,-1,1882,407,0,0
665,617,0,0,0,0,0,0,0,0,0,-1,1889,407,0,0
672,617,0,0,0,0,0,0,0,0,0,-1,1896,407,0,0
679,617,0,0,0,0,0,0,0,0,0,-1,1903,407,0,0
686,617,0,0,0,0,0,0,0,0,0,-1,1910,407,0,0
693,617,0,0,0,0,0,0,0,0,0,-1,1917,407,0,0
700,617,0,0,0,0,0,0,0,0,0,-1,1924,407,0,0
707,617,0,0,0,0,0,0,0,0,0,-1,1931,407,0,0
714,617,0,0,0,0,0,0,0,0,0,-1,1938,407,0,0
721,617,0,0,0,0,0,0,0,0,0,-1,1945,407,0,0
728,617,0,0,0,0,0,0,0,0,0,-1,1952,407,0,0
735,617,0,0,0,0,0,0,0,0,0,-1,1959,407,0,0
742,617,0,0,0,0,0,0,0,0,0,-1,1966,407,0,0
749,617,0,0,0,0,0,0,0,0,0,-1,1973,407,0,0
756,617,0,0,0,0,0,0,0,0,0,-1,1980,407,0,0
763,617,0,0,0,0,0,0,0,0,0,-1,1987,407,0,0
770,617,0,0,0,0,0,0,0,0,0,-1,1994,407,0,0
777,617,0,0,0,0,0,0,0,0,0,-1,2001,407,0,0
784,617,0,0,0,0,0,0,0,0,0,-1,2008,407,0,0
791,617,0,0,0,0,0,0,0,0,0,-1,2015,407,0,0
798,617,0,0,0,0,0,0,0,0,0,-1,2022,407,0,0
805,617,0,0,0,0,0,0,0,0,0,-1,2029,407,0,0
812,617,0,0,0,0,0,0,0,0,0,-1,2036,407,0,0
-700,610,0,0,0,0,0,0,0,0,0,-1,524,414,0,0
-693,610,0,0,0,0,0,0,0,0,0,-1,531,414,0,0
-686,610,0,0,0,0,0,0,0,0,0,-1,538,414,0,0
-679,610,0,0,0,0,0,0,0,0,0,-1,545,414,0,0
-672,610,0,0,0,0,0,0,0,0,0,-1,552,414,0,0
-665,610,0,0,0,0,0,0,0,0,0,-1,559,414,0,0
-658,610,0,0,0,0,0,0,0,0,0,-1,566,414,0,0
-651,610,0,0,0,0,0,0,0,0,0,-1,573,414,0,0
-644,610,0,0,0,0,0,0,0,0,0,-1,580,414,0,0
-637,610,0,0,0,0,0,0,0,0,0,-1,587,414,0,0
-630,610,0,0,0,0,0,0,0,0,0,-1,594,414,0,0
-623,610,0,0,0,0,0,0,0,0,0,-1,601,414,0,0
-616,610,0,0,0,0,0,0,0,0,0,-1,608,414,0,0
-609,610,0,0,0,0,0,0,0,0,0,-1,615,414,0,0
-602,610,0,0,0,0,0,0,0,0,0,-1,622,414,0,0
-595,610,0,0,0,0,0,0,0,0,0,-1,629,414,0,0
-588,610,0,0,0,0,0,0,0,0,0,-1,636,414,0,0
-581,610,0,0,0,0,0,0,0,0,0,-1,643,414,0,0
-574,610,0,0,0,0,0,0,0,0,0,-1,650,414,0,0
-567,610,0,0,0,0,0,0,0,0,0,-1,657,414,0,0
-560,610,0,0,0,0,0,0,0,0,0,-1,664,414,0,0
-553,610,0,0,0,0,0,0,0,0,0,-1,671,414,0,0
-546,610,0,0,0,0,0,0,0,0,0,-1,678,414,0,0
-539,610,0,0,0,0,0,0,0,0,0,-1,685,414,0,0
-532,610,0,0,0,0,0,0,0,0,0,-1,692,414,0,0
-525,610,0,0,0,0,0,0,0,0,0,-1,699,414,0,0
-518,610,0,0,0,0,0,0,0,0,0,-1,706,414,0,0
-511,610,0,0,0,0,0,0,0,0,0,-1,713,414,0,0
-504,610,0,0,0,0,0,0,0,0,0,-1,720,414,0,0
-497,610,0,0,0,0,0,0,0,0,0,-1,727,414,0,0
-490,610,0,0,0,0,0,0,0,0,0,-1,734,414,0,0
-483,610,0,0,0,0,0,0,0,0,0,-1,741,414,0,0
-476,610,0,0,0,0,0,0,0,0,0,-1,748,414,0,0
-469,610,0,0,0,0,0,0,0,0,0,-1,755,414,0,0
-462,610,0,0,0,0,0,0,0,0,0,-1,762,414,0,0
-455,610,0,0,0,0,0,0,0,0,0,-1,769,414,0,0
-448,610,0,0,0,0,0,0,0,0,0,-1,776,414,0,0
-441,610,0,0,0,0,0,0,0,0,0,-1,783,414,0,0
-434,610,0,0,0,0,0,0,0,0,0,-1,790,414,0,0
-427,610,0,0,0,0,0,0,0,0,0,-1,797,414,0,0
-420,610,0,0,0,0,0,0,0,0,0,-1,804,414,0,0
-413,610,0,0,0,0,0,0,0,0,0,-1,811,414,0,0
-406,610,0,0,0,0,0,0,0,0,0,-1,818,414,0,0
-399,610,0,0,0,0,0,0,0,0,0,-1,825,414,0,0
-392,610,0,0,0,0,0,0,0,0,0,-1,832,414,0,0
-385,610,0,0,0,0,0,0,0,0,0,-1,839,414,0,0
-378,610,0,0,0,0,0,0,0,0,0,-1,846,414,0,0
-371,610,0,0,0,0,0,0,0,0,0,-1,853,414,0,0
-364,610,0,0,0,0,0,0,0,0,0,-1,860,414,0,0
-357,610,0,0,0,0,0,0,0,0,0,-1,867,414,0,0
-350,610,0,0,0,0,0,0,0,0,0,-1,874,414,0,0
-343,610,0,0,0,0,0,0,0,0,0,-1,881,414,0,0
-336,610,0,0,0,0,0,0,0,0,0,-1,888,414,0,0
-329,610,0,0,0,0,0,0,0,0,0,-1,895,414,0,0
-322,610,0,0,0,0,0,0,0,0,0,-1,902,414,0,0
-315,610,7.68475,-21.5402,0,0,0,0,0,0,0,-1,909,414,7.68475,21.5402
-308,610,3.97211,-23.4133,0,0,0,0,0,0,0,-1,916,414,3.9721,23.4133
-301,610,7.38513,-22.4166,0,0,0,0,0,0,0,-1,923,414,7.38516,22.4166
-294,610,6.77832,-24.1945,0,0,0,0,0,0,0,-1,930,414,6.77829,24.1946
-287,610,3.39276,-28.5804,0,0,0,0,0,0,0,-1,937,414,3.39276,28.5803
-280,610,8.8728,-35.4336,0,0,0,0,0,0,0,-1,944,414,8.87283,35.4336
-273,610,8.14722,-35.5264,0,0,0,0,0,0,0,-1,951,414,8.14723,35.5264
-266,610,7.38361,-35.6366,0,0,0,0,0,0,0,-1,958,414,7.38359,35.6366
-259,610,6.47375,-35.762,0,0,0,0,0,0,0,-1,965,414,6.47373,35.762
-252,610,5.65308,-35.8931,0,0,0,0,0,0,0,-1,972,414,5.65305,35.8931
-245,610,6.75262,-41.2705,0,0,0,0,0,0,0,-1,979,414,6.75261,41.2705
-238,610,6.46777,-42.0294,0,0,0,0,0,0,0,-1,986,414,6.46775,42.0295
-231,610,6.37207,-42.7382,0,0,0,0,0,0,0,-1,993,414,6.37205,42.7382
-224,610,6.32581,-43.5401,-0.000779534,0.0192459,-0.00938357,0.0229557,-0.00448927,-1.19431,0.016999,0.0325616,1000,414,6.32581,43.5401
-217,610,6.30573,-44.3588,-0.000731076,0.0175181,-0.00877738,0.0210545,-0.00426748,-1.18779,0.0156539,0.0210269,1007,414,6.30573,44.3588
-210,610,6.27191,-45.1646,-0.000691247,0.0158573,-0.00809984,0.0191619,-0.00399588,-1.18342,0.014294,0.015602,1014,414,6.27191,45.1646
-203,610,6.255,-45.887,-0.000658637,0.0140602,-0.00737287,0.0171181,-0.00371652,-1.17764,0.0128316,0.0177577,1021,414,6.25504,45.887
-196,610,6.19873,-46.5305,-0.000656331,0.0128581,-0.00668659,0.0156072,-0.00340545,-1.18072,0.0117063,0.0155827,1028,414,6.19878,46.5304
-189,610,6.13879,-47.2004,-0.000589994,0.0116539,-0.00622139,0.0142603,-0.00319639,-1.17407,0.0107322,0.0126842,1035,414,6.13876,47.2004
-182,610,6.08643,-47.8524,-0.000502213,0.0105066,-0.00566823,0.0129033,-0.0028989,-1.17077,0.00971377,0.0145226,1042,414,6.08639,47.8524
-175,610,6.04443,-48.4822,-0.000468079,0.00932518,-0.00497318,0.0114078,-0.00255067,-1.17422,0.00858268,0.0154944,1049,414,6.04446,48.4823
-168,610,5.97974,-49.1205,-0.00048791,0.00806287,-0.00422897,0.00980106,-0.0022261,-1.18083,0.00738872,0.0133337,1056,414,5.97969,49.1205
-161,610,5.92529,-49.806,-0.000408216,0.00687866,-0.00347403,0.00826946,-0.00179901,-1.19,0.00620026,0.0115506,1063,414,5.92533,49.806
-154,610,5.90039,-50.3864,-0.000323581,0.0056699,-0.0027072,0.00671165,-0.00136533,-1.20346,0.00499217,0.0140243,1070,414,5.90043,50.3865
-147,610,5.87805,-50.9347,-0.000207329,0.00455523,-0.00200545,0.0052872,-0.000939296,-1.22083,0.00387603,0.0167452,1077,414,5.8781,50.9347
-140,610,5.87,-51.5469,2.25683e-06,0.00332897,-0.00135745,0.00381257,-0.000481343,-1.22856,0.00271641,0.0129436,1084,414,5.87,51.5469
-133,610,5.85376,-52.0944,0.000242628,0.00217233,-0.000784698,0.00245114,-3.618e-05,-1.2294,0.00164629,0.0143373,1091,414,5.8538,52.0944
-126,610,5.81689,-52.6085,0.000462278,0.00107357,-0.000253994,0.00116533,0.000370517,-1.22411,0.000687509,0.0131597,1098,414,5.81687,52.6085
-119,610,5.79688,-53.153,0.000843509,0.000197247,0.000135135,0.000870628,0.000170128,0.19805,0.000532841,0.0116205,1105,414,5.79685,53.153
-112,610,5.81665,-53.6745,0.00129433,-0.000450735,0.000422428,0.00139121,-0.000547614,0.225439,0.00115416,0.0198176,1112,414,5.81666,53.6745
-105,610,5.79553,-54.1989,0.00176288,-0.000884606,0.00058033,0.0018845,-0.00100623,0.206583,0.00169445,0.0192596,1119,414,5.79559,54.1989
-98,610,5.80054,-54.6906,0.00228158,-0.00122899,0.00067404,0.00240655,-0.00135396,0.183322,0.0021993,0.0135682,1126,414,5.80052,54.6906
-91,610,5.81458,-55.1933,0.00292655,-0.00128504,0.000685447,0.0030353,-0.00139379,0.157344,0.00261502,0.0151571,1133,414,5.81462,55.1933
-84,610,5.83167,-55.6482,0.0036889,-0.00124198,0.00059514,0.00375971,-0.0013128,0.118431,0.00304007,0.0157845,1140,414,5.83172,55.6482
-77,610,5.82642,-56.102,0.00444882,-0.000918005,0.000425876,0.00448241,-0.00095159,0.0786971,0.00335082,0.0128811,1147,414,5.82639,56.102
-70,610,5.87708,-56.5585,0.0053538,-0.00158829,0.000749186,0.00543373,-0.00166823,0.106289,0.00428813,0.0159573,1154,414,5.87704,56.5585
-63,610,5.9209,-56.9515,0.00684547,-0.000465081,0.00140739,0.00710705,-0.000726666,0.183768,0.0049979,0.0159929,1161,414,5.92095,56.9515
-56,610,5.95178,-57.3181,0.00788457,-9.90239e-05,0.00168434,0.00822538,-0.000439828,0.199642,0.00563592,0.014754,1168,414,5.95177,57.3181
-49,610,5.96838,-57.6985,0.00888464,0.000353863,0.00209914,0.00937319,-0.000134688,0.228668,0.00629417,0.0143722,1175,414,5.96835,57.6985
-42,610,5.99902,-58.0541,0.00999162,0.000785724,0.00252826,0.0106403,0.000137079,0.251141,0.00704826,0.0164066,1182,414,5.99901,58.0541
-35,610,6.06531,-58.3566,0.00951696,0.00159896,0.00231607,0.0101447,0.000971256,0.264664,0.00646373,0.0167334,1189,414,6.06525,58.3566
-28,610,6.13062,-58.6482,0.00890613,0.00132272,0.00316198,0.0100516,0.000177299,0.347542,0.00664272,0.0140944,1196,414,6.13068,58.6482
-21,610,6.1803,-58.9028,0.00824088,0.00107099,0.00368881,0.00979978,-0.000487912,0.399838,0.00670175,0.0120003,1203,414,6.18032,58.9028
-14,610,6.23413,-59.148,0.00799891,0.00111293,0.00397039,0.00981121,-0.000699376,0.42821,0.00678596,0.0135342,1210,414,6.23408,59.148
-7,610,6.33289,-59.3707,0.0082499,0.00068346,0.00413352,0.0100701,-0.00113678,0.414809,0.00712265,0.0162164,1217,414,6.33284,59.3707
0,610,6.39282,-59.6244,0.00717635,-0.000328935,0.00426688,0.00910602,-0.0022586,0.424717,0.00694703,0.0135163,1224,414,6.39286,59.6244
7,610,6.46631,-59.8968,0.00511831,-0.00177698,0.00408139,0.00701333,-0.003672,0.434687,0.00626891,0.016415,1231,414,6.46634,59.8968
14,610,6.65247,-60.0029,0.00268285,-0.00374431,0.00361215,0.00430401,-0.00536547,0.421862,0.00559388,0.0227195,1238,414,6.65241,60.0029
21,610,6.72156,-60.0986,0.000389556,-0.00566658,0.0030869,0.00168562,-0.00696264,0.397509,0.00529386,0.0224109,1245,414,6.72155,60.0986
28,610,6.70435,-60.2732,-0.00154412,-0.00783214,0.0032082,-0.000196215,-0.00918005,0.397751,0.00605569,0.019736,1252,414,6.70437,60.2732
35,610,6.88867,-60.3871,-0.00227677,-0.0104517,0.00159051,-0.00197822,-0.0107503,0.185546,0.0066069,0.0236049,1259,414,6.88866,60.3871
42,610,6.92053,-60.4074,-0.00371167,-0.0131948,-0.000772062,-0.00364922,-0.0132572,-0.0807061,0.00790758,0.0218745,1266,414,6.92058,60.4075
49,610,6.94092,-60.5243,-0.00475198,-0.0153151,-0.00348729,-0.00370456,-0.0163625,-0.291782,0.00990714,0.0217452,1273,414,6.94092,60.5243
56,610,7.0498,-60.5508,-0.00523904,-0.0177937,-0.00697734,-0.00213084,-0.0209019,-0.419082,0.0132814,0.0204997,1280,414,7.04985,60.5508
63,610,7.1499,-60.5775,-0.00492784,-0.0196582,-0.0104221,0.000468872,-0.0250549,-0.477798,0.0168618,0.0270651,1287,414,7.14985,60.5775
70,610,7.32556,-60.6048,-0.00375638,-0.0212583,-0.0138654,0.00388866,-0.0289034,-0.503898,0.0206873,0.0386805,1294,414,7.32558,60.6048
77,610,7.44775,-60.4333,-0.00228372,-0.0220347,-0.0178073,0.00820315,-0.0325216,-0.532224,0.0248705,0.0447267,1301,414,7.44777,60.4333
84,610,7.52356,-60.4258,-0.000467115,-0.0226605,-0.0212195,0.0123821,-0.0355097,-0.54448,0.0287049,0.0395904,1308,414,7.52359,60.4258
91,610,7.58203,-60.4974,0.00112472,-0.0233854,-0.0241433,0.0159452,-0.0382059,-0.550545,0.0321326,0.0306195,1315,414,7.58208,60.4974
98,610,7.73376,-60.4193,0.00232075,-0.023435,-0.0264748,0.0188836,-0.0399978,-0.559036,0.0347161,0.0270462,1322,414,7.7338,60.4193
105,610,7.83875,-60.2195,0.00465242,-0.0228103,-0.0274695,0.0216314,-0.0397893,-0.553624,0.0359741,0.0226205,1329,414,7.83873,60.2195
112,610,7.92566,-60.0662,0.00741078,-0.0220316,-0.0274935,0.0238762,-0.038497,-0.539599,0.0363395,0.0142167,1336,414,7.92566,60.0662
119,610,8.01892,-59.9073,0.0098355,-0.0208744,-0.0265213,0.0251262,-0.036165,-0.522993,0.0355773,0.0193386,1343,414,8.01892,59.9072
126,610,8.14111,-59.6821,0.0112611,-0.0199159,-0.025152,0.0252636,-0.0339183,-0.507982,0.0342903,0.0275159,1350,414,8.14112,59.6821
133,610,8.19067,-59.4632,0.0110946,-0.0186885,-0.0242442,0.0246554,-0.0322494,-0.509989,0.0329514,0.0219778,1357,414,8.19066,59.4632
140,610,8.24683,-59.2492,0.00838533,-0.0167514,-0.018784,0.0184179,-0.026784,-0.490556,0.0262459,0.0195266,1364,414,8.24679,59.2492
147,610,8.25696,-58.9401,0.0096295,-0.0150003,-0.0128803,0.0151348,-0.0205056,-0.403918,0.0206547,0.0208508,1371,414,8.25698,58.9401
154,610,8.27429,-58.6355,0.0109295,-0.0139202,-0.00844938,0.0135302,-0.016521,-0.298602,0.0173787,0.0252828,1378,414,8.27431,58.6355
161,610,8.38672,-58.3346,0.0116496,-0.0105654,-0.00440102,0.0124897,-0.0114055,-0.188623,0.0138006,0.0297063,1385,414,8.38668,58.3346
168,610,8.46753,-58.0087,0.0108837,-0.00919019,-0.00351229,0.0114805,-0.00978698,-0.168309,0.0122918,0.028954,1392,414,8.46752,58.0087
175,610,8.53967,-57.6656,0.00981054,-0.00761183,-0.0032346,0.0103917,-0.00819298,-0.177769,0.0107549,0.0229857,1399,414,8.53966,57.6655
182,610,8.59448,-57.2839,0.00861283,-0.00629722,-0.00297367,0.00918402,-0.00686841,-0.189771,0.00929996,0.0163165,1406,414,8.59444,57.2839
189,610,8.59082,-56.8616,0.00737734,-0.00485144,-0.00267276,0.00793599,-0.00541009,-0.206049,0.00775122,0.0149508,1413,414,8.59086,56.8616
196,610,8.62207,-56.4515,0.00632379,-0.0033762,-0.00216947,0.0067869,-0.00383931,-0.210309,0.00621322,0.0150766,1420,414,8.62213,56.4515
203,610,8.63293,-56.0239,0.00545362,-0.00248266,-0.00174182,0.00581908,-0.00284812,-0.206814,0.00510106,0.0152068,1427,414,8.63297,56.0239
210,610,8.65161,-55.583,0.00442181,-0.00137742,-0.00129527,0.00469796,-0.00165357,-0.210055,0.00380488,0.0109477,1434,414,8.6516,55.583
217,610,8.69934,-55.08,0.00359249,-0.000629783,-0.00076822,0.00372792,-0.000765212,-0.174497,0.00277574,0.0169204,1441,414,8.69935,55.08
224,610,8.72205,-54.6028,0.0029433,0.000116218,-0.000219606,0.00296025,9.92612e-05,-0.0770633,0.00194126,0.0204329,1448,414,8.722,54.6028
231,610,8.72339,-54.1224,0.00250013,0.00085559,0.000393764,0.00258955,0.00076617,0.223303,0.00153605,0.0163096,1455,414,8.72338,54.1224
238,610,8.71399,-53.5829,0.00222236,0.00151844,0.000781116,0.00272715,0.00101365,0.57373,0.00159171,0.011849,1462,414,8.71393,53.5829
245,610,8.74707,-53.0208,0.00187944,0.00224873,0.0010815,0.00316123,0.000966942,0.869948,0.00187043,0.0121346,1469,414,8.74709,53.0209
252,610,8.70972,-52.473,0.00149888,0.0030321,0.00143166,0.00388948,0.000641498,1.03121,0.00240781,0.0140247,1476,414,8.70976,52.473
259,610,8.67236,-51.9005,0.00118472,0.00394099,0.00189969,0.00490978,0.000215927,1.0992,0.00320364,0.0132752,1483,414,8.67234,51.9005
266,610,8.66211,-51.3093,0.000917699,0.00480139,0.00234483,0.00590404,-0.00018496,1.13123,0.00399911,0.0125676,1490,414,8.66208,51.3093
273,610,8.65515,-50.6952,0.000737616,0.00581542,0.00287816,0.00711446,-0.000561429,1.14682,0.00494076,0.0105338,1497,414,8.65516,50.6952
280,610,8.61414,-50.0636,0.000671374,0.0068712,0.0034885,0.00843809,-0.000895518,1.14864,0.00594642,0.010266,1504,414,8.61415,50.0636
287,610,8.56409,-49.4298,0.000750641,0.00811312,0.00424804,0.010053,-0.00118927,1.14242,0.00713158,0.0127204,1511,414,8.5641,49.4298
294,610,8.552,-48.8185,0.000786629,0.00928378,0.00498539,0.0115854,-0.00151495,1.13828,0.00827491,0.0103334,1518,414,8.55206,48.8184
301,610,8.53735,-48.2199,0.000844526,0.0104328,0.00573844,0.0131162,-0.00183886,1.13339,0.00941713,0.00922222,1525,414,8.53741,48.2199
308,610,8.48694,-47.5313,0.0010108,0.0116445,0.00651058,0.0147334,-0.0020781,1.1278,0.0105832,0.0110663,1532,414,8.48694,47.5313
315,610,8.41467,-46.8481,0.00116843,0.0128467,0.00729905,0.0163548,-0.00233972,1.12276,0.0117609,0.0133502,1539,414,8.41467,46.8481
322,610,8.35291,-46.1611,0.00123958,0.0139366,0.00810727,0.0178853,-0.00270907,1.11756,0.0129215,0.013658,1546,414,8.35285,46.1611
329,610,8.30334,-45.4767,0.00131124,0.0150114,0.0089342,0.0194193,-0.00309673,1.11246,0.0140923,0.0124263,1553,414,8.30338,45.4768
336,610,8.28101,-44.7957,0.00134685,0.0164681,0.00988015,0.0213486,-0.0035336,1.11199,0.0155447,0.0148195,1560,414,8.28103,44.7957
343,610,8.20715,-44.0814,0.00129523,0.0181584,0.0108685,0.0234824,-0.00402874,1.1153,0.0171563,0.0226718,1567,414,8.20717,44.0814
350,610,8.13562,-43.2638,0.001245,0.0201303,0.0119568,0.0259234,-0.00454812,1.11962,0.0189808,0.0305096,1574,414,8.13566,43.2638
357,610,8.13123,-42.3693,0.000963657,0.02201,0.0131545,0.0283326,-0.00535888,1.12276,0.0209049,0.0411618,1581,414,8.13122,42.3693
364,610,8.20544,-41.4035,0,0,0,0,0,0,0,-1,1588,414,8.2054,41.4035
371,610,8.12695,-40.7272,0,0,0,0,0,0,0,-1,1595,414,8.127,40.7272
378,610,7.86743,-39.6608,0,0,0,0,0,0,0,-1,1602,414,7.86744,39.6608
385,610,2.57104,-10.3878,0,0,0,0,0,0,0,-1,1609,414,2.57109,10.3878
392,610,1.99744,-1.83582,0,0,0,0,0,0,0,-1,1616,414,1.99741,1.8358
399,610,2.77136,-2.60333,0,0,0,0,0,0,0,-1,1623,414,2.77133,2.60332
406,610,3.54529,-3.37085,0,0,0,0,0,0,0,-1,1630,414,3.54525,3.37084
413,610,3.01929,-3.20306,0,0,0,0,0,0,0,-1,1637,414,3.01929,3.20306
420,610,4.78149,-3.64041,0,0,0,0,0,0,0,-1,1644,414,4.78152,3.64042
427,610,8.85168,-23.3853,0,0,0,0,0,0,0,-1,1651,414,8.85174,23.3853
434,610,8.73706,-22.6227,0,0,0,0,0,0,0,-1,1658,414,8.73703,22.6227
441,610,0,0,0,0,0,0,0,0,0,-1,1665,414,0,0
448,610,0,0,0,0,0,0,0,0,0,-1,1672,414,0,0
455,610,0,0,0,0,0,0,0,0,0,-1,1679,414,0,0
462,610,0,0,0,0,0,0,0,0,0,-1,1686,414,0,0
469,610,0,0,0,0,0,0,0,0,0,-1,1693,414,0,0
476,610,0,0,0,0,0,0,0,0,0,-1,1700,414,0,0
483,610,0,0,0,0,0,0,0,0,0,-1,1707,414,0,0
490,610,0,0,0,0,0,0,0,0,0,-1,1714,414,0,0
497,610,0,0,0,0,0,0,0,0,0,-1,1721,414,0,0
504,610,0,0,0,0,0,0,0,0,0,-1,1728,414,0,0
511,610,0,0,0,0,0,0,0,0,0,-1,1735,414,0,0
518,610,0,0,0,0,0,0,0,0,0,-1,1742,414,0,0
525,610,0,0,0,0,0,0,0,0,0,-1,1749,414,0,0
532,610,0,0,0,0,0,0,0,0,0,-1,1756,414,0,0
539,610,0,0,0,0,0,0,0,0,0,-1,1763,414,0,0
546,610,0,0,0,0,0,0,0,0,0,-1,1770,414,0,0
553,610,0,0,0,0,0,0,0,0,0,-1,1777,414,0,0
560,610,0,0,0,0,0,0,0,0,0,-1,1784,414,0,0
567,610,0,0,0,0,0,0,0,0,0,-1,1791,414,0,0
574,610,0,0,0,0,0,0,0,0,0,-1,1798,414,0,0
581,610,0,0,0,0,0,0,0,0,0,-1,1805,414,0,0
588,610,0,0,0,0,0,0,0,0,0,-1,1812,414,0,0
595,610,0,0,0,0,0,0,0,0,0,-1,1819,414,0,0
602,610,0,0,0,0,0,0,0,0,0,-1,1826,414,0,0
609,610,0,0,0,0,0,0,0,0,0,-1,1833,414,0,0
616,610,0,0,0,0,0,0,0,0,0,-1,1840,414,0,0
623,610,0,0,0,0,0,0,0,0,0,-1,1847,414,0,0
630,610,0,0,0,0,0,0,0,0,0,-1,1854,414,0,0
637,610,0,0,0,0,0,0,0,0,0,-1,1861,414,0,0
644,610,0,0,0,0,0,0,0,0,0,-1,1868,414,0,0
651,610,0,0,0,0,0,0,0,0,0,-1,1875,414,0,0
658,610,0,0,0,0,0,0,0,0,0,-1,1882,414,0,0
665,610,0,0,0,0,0,0,0,0,0,-1,1889,414,0,0
672,610,0,0,0,0,0,0,0,0,0,-1,1896,414,0,0
679,610,0,0,0,0,0,0,0,0,0,-1,1903,414,0,0
686,610,0,0,0,0,0,0,0,0,0,-1,1910,414,0,0
693,610,0,0,0,0,0,0,0,0,0,-1,1917,414,0,0
700,610,0,0,0,0,0,0,0,0,0,-1,1924,414,0,0
707,610,0,0,0,0,0,0,0,0,0,-1,1931,414,0,0
714,610,0,0,0,0,0,0,0,0,0,-1,1938,414,0,0
721,610,0,0,0,0,0,0,0,0,0,-1,1945,414,0,0
728,610,0,0,0,0,0,0,0,0,0,-1,1952,414,0,0
735,610,0,0,0,0,0,0,0,0,0,-1,1959,414,0,0
742,610,0,0,0,0,0,0,0,0,0,-1,1966,414,0,0
749,610,0,0,0,0,0,0,0,0,0,-1,1973,414,0,0
756,610,0,0,0,0,0,0,0,0,0,-1,1980,414,0,0
763,610,0,0,0,0,0,0,0,0,0,-1,1987,414,0,0
770,610,0,0,0,0,0,0,0,0,0,-1,1994,414,0,0
777,610,0,0,0,0,0,0,0,0,0,-1,2001,414,0,0
784,610,0,0,0,0,0,0,0,0,0,-1,2008,414,0,0
791,610,0,0,0,0,0,0,0,0,0,-1,2015,414,0,0
798,610,0,0,0,0,0,0,0,0,0,-1,2022,414,0,0
805,610,0,0,0,0,0,0,0,0,0,-1,2029,414,0,0
812,610,0,0,0,0,0,0,0,0,0,-1,2036,414,0,0
-700,603,0,0,0,0,0,0,0,0,0,-1,524,421,0,0
-693,603,0,0,0,0,0,0,0,0,0,-1,531,421,0,0
-686,603,0,0,0,0,0,0,0,0,0,-1,538,421,0,0
-679,603,0,0,0,0,0,0,0,0,0,-1,545,421,0,0
-672,603,0,0,0,0,0,0,0,0,0,-1,552,421,0,0
-665,603,0,0,0,0,0,0,0,0,0,-1,559,421,0,0
-658,603,0,0,0,0,0,0,0,0,0,-1,566,421,0,0
-651,603,0,0,0,0,0,0,0,0,0,-1,573,421,0,0
-644,603,0,0,0,0,0,0,0,0,0,-1,580,421,0,0
-637,603,0,0,0,0,0,0,0,0,0,-1,587,421,0,0
-630,603,0,0,0,0,0,0,0,0,0,-1,594,421,0,0
-623,603,0,0,0,0,0,0,0,0,0,-1,601,421,0,0
-616,603,0,0,0,0,0,0,0,0,0,-1,608,421,0,0
-609,603,0,0,0,0,0,0,0,0,0,-1,615,421,0,0
-602,603,0,0,0,0,0,0,0,0,0,-1,622,421,0,0
-595,603,0,0,0,0,0,0,0,0,0,-1,629,421,0,0
-588,603,0,0,0,0,0,0,0,0,0,-1,636,421,0,0
-581,603,0,0,0,0,0,0,0,0,0,-1,643,421,0,0
-574,603,0,0,0,0,0,0,0,0,0,-1,650,421,0,0
-567,603,0,0,0,0,0,0,0,0,0,-1,657,421,0,0
-560,603,0,0,0,0,0,0,0,0,0,-1,664,421,0,0
-553,603,0,0,0,0,0,0,0,0,0,-1,671,421,0,0
-546,603,0,0,0,0,0,0,0,0,0,-1,678,421,0,0
-539,603,0,0,0,0,0,0,0,0,0,-1,685,421,0,0
-532,603,0,0,0,0,0,0,0,0,0,-1,692,421,0,0
-525,603,0,0,0,0,0,0,0,0,0,-1,699,421,0,0
-518,603,0,0,0,0,0,0,0,0,0,-1,706,421,0,0
-511,603,0,0,0,0,0,0,0,0,0,-1,713,421,0,0
-504,603,0,0,0,0,0,0,0,0,0,-1,720,421,0,0
-497,603,0,0,0,0,0,0,0,0,0,-1,727,421,0,0
-490,603,0,0,0,0,0,0,0,0,0,-1,734,421,0,0
-483,603,0,0,0,0,0,0,0,0,0,-1,741,421,0,0
-476,603,0,0,0,0,0,0,0,0,0,-1,748,421,0,0
-469,603,0,0,0,0,0,0,0,0,0,-1,755,421,0,0
-462,603,0,0,0,0,0,0,0,0,0,-1,762,421,0,0
-455,603,0,0,0,0,0,0,0,0,0,-1,769,421,0,0
-448,603,0,0,0,0,0,0,0,0,0,-1,776,421,0,0
-441,603,0,0,0,0,0,0,0,0,0,-1,783,421,0,0
-434,603,0,0,0,0,0,0,0,0,0,-1,790,421,0,0
-427,603,0,0,0,0,0,0,0,0,0,-1,797,421,0,0
-420,603,0,0,0,0,0,0,0,0,0,-1,804,421,0,0
-413,603,0,0,0,0,0,0,0,0,0,-1,811,421,0,0
-406,603,0,0,0,0,0,0,0,0,0,-1,818,421,0,0
-399,603,0,0,0,0,0,0,0,0,0,-1,825,421,0,0
-392,603,0,0,0,0,0,0,0,0,0,-1,832,421,0,0
-385,603,0,0,0,0,0,0,0,0,0,-1,839,421,0,0
-378,603,0,0,0,0,0,0,0,0,0,-1,846,421,0,0
-371,603,0,0,0,0,0,0,0,0,0,-1,853,421,0,0
-364,603,0,0,0,0,0,0,0,0,0,-1,860,421,0,0
-357,603,0,0,0,0,0,0,0,0,0,-1,867,421,0,0
-350,603,0,0,0,0,0,0,0,0,0,-1,874,421,0,0
-343,603,0,0,0,0,0,0,0,0,0,-1,881,421,0,0
-336,603,0,0,0,0,0,0,0,0,0,-1,888,421,0,0
-329,603,4.09686,-17.9702,0,0,0,0,0,0,0,-1,895,421,4.09687,17.9702
-322,603,8.83179,-28.7376,0,0,0,0,0,0,0,-1,902,421,8.83179,28.7376
-315,603,5.99744,-20.4501,0,0,0,0,0,0,0,-1,909,421,5.99745,20.4501
-308,603,5.92249,-20.778,0,0,0,0,0,0,0,-1,916,421,5.92248,20.778
-301,603,2.72424,-20.9059,0,0,0,0,0,0,0,-1,923,421,2.72424,20.9059
-294,603,2.41553,-20.6767,0,0,0,0,0,0,0,-1,930,421,2.41554,20.6767
-287,603,1.91766,-21.2242,0,0,0,0,0,0,0,-1,937,421,1.91767,21.2242
-280,603,2.36121,-27.3314,0,0,0,0,0,0,0,-1,944,421,2.36119,27.3314
-273,603,7.96613,-34.8225,0,0,0,0,0,0,0,-1,951,421,7.96613,34.8225
-266,603,7.18787,-34.9736,0,0,0,0,0,0,0,-1,958,421,7.18788,34.9736
-259,603,5.44666,-36.8901,0,0,0,0,0,0,0,-1,965,421,5.44664,36.8901
-252,603,5.92603,-40.7482,0,0,0,0,0,0,0,-1,972,421,5.92604,40.7482
-245,603,5.93396,-41.3801,-0.000843073,0.0178173,-0.00930245,0.0216624,-0.00468817,-1.17884,0.0162316,0.039406,979,421,5.93398,41.3801
-238,603,5.85156,-42.1648,-0.000962732,0.0166715,-0.00855844,0.0201421,-0.00443335,-1.18554,0.015124,0.022681,986,421,5.85155,42.1648
-231,603,5.76099,-42.9587,-0.000736702,0.0158084,-0.00801716,0.0190559,-0.00398413,-1.18594,0.0142192,0.0139416,993,421,5.76099,42.9587
-224,603,5.7074,-43.7232,-0.000571026,0.0148459,-0.00739007,0.0178161,-0.00354121,-1.18864,0.0132169,0.0147526,1000,421,5.70738,43.7232
-217,603,5.67621,-44.4336,-0.000472726,0.0133478,-0.00680189,0.0161338,-0.00325873,-1.18205,0.0119906,0.0138824,1007,421,5.67622,44.4336
-210,603,5.633,-45.1551,-0.000364631,0.011829,-0.00616952,0.014406,-0.00294157,-1.17513,0.0107199,0.0118371,1014,421,5.63297,45.1551
-203,603,5.61365,-45.9086,-0.000254916,0.0102216,-0.00550456,0.012582,-0.00261532,-1.1657,0.00938205,0.0177492,1021,421,5.61364,45.9086
-196,603,5.59167,-46.6016,-0.000170381,0.00896126,-0.00486295,0.0110659,-0.00227502,-1.16235,0.00824095,0.0202213,1028,421,5.59167,46.6016
-189,603,5.54968,-47.1992,-3.38696e-05,0.00769585,-0.00436206,0.00965892,-0.00199694,-1.14792,0.00719786,0.0172001,1035,421,5.54973,47.1992
-182,603,5.48193,-47.8384,0.000138638,0.00640165,-0.0037537,0.00815856,-0.00161827,-1.13304,0.00605103,0.0125705,1042,421,5.48189,47.8384
-175,603,5.42847,-48.4803,0.000255757,0.00516415,-0.00306885,0.00663945,-0.00121954,-1.12268,0.00488384,0.0126421,1049,421,5.42843,48.4802
-168,603,5.35889,-49.109,0.000302013,0.00389192,-0.00234664,0.00505138,-0.00085745,-1.11188,0.00368679,0.0156706,1056,421,5.35894,49.109
-161,603,5.31702,-49.7615,0.000437883,0.00269956,-0.00160239,0.00352996,-0.000392516,-1.09268,0.00249446,0.0153437,1063,421,5.31703,49.7615
-154,603,5.30713,-50.356,0.00058595,0.00152771,-0.000838597,0.00201859,9.50746e-05,-1.04122,0.00131518,0.013735,1070,421,5.3071,50.356
-147,603,5.28931,-50.919,0.000767537,0.000486439,-0.000130243,0.000818605,0.000435371,-0.373679,0.000472941,0.0147709,1077,421,5.28934,50.919
-140,603,5.32068,-51.503,0.00101855,-0.000650509,0.000530414,0.00117285,-0.000804806,0.283087,0.00114837,0.0129768,1084,421,5.32068,51.503
-133,603,5.29749,-52.0554,0.00129433,-0.00167228,0.00110233,0.00165909,-0.00203704,0.319554,0.00213767,0.0128737,1091,421,5.29746,52.0554
-126,603,5.29077,-52.5697,0.00161173,-0.00251416,0.00155479,0.00213202,-0.00303445,0.322925,0.00299799,0.0113978,1098,421,5.29081,52.5697
-119,603,5.29163,-53.1165,0.00208154,-0.00317661,0.00189848,0.00269535,-0.00379041,0.312706,0.00376231,0.0119718,1105,421,5.29168,53.1165
-112,603,5.29321,-53.67,0.00259127,-0.0035989,0.0021106,0.0032424,-0.00425004,0.299244,0.00433878,0.0171456,1112,421,5.29318,53.67
-105,603,5.30103,-54.1926,0.00312042,-0.00377399,0.00218855,0.00375648,-0.00441004,0.282836,0.00471997,0.0169692,1119,421,5.30107,54.1926
-98,603,5.3042,-54.6596,0.00373987,-0.00390445,0.0022053,0.00433045,-0.00449503,0.261659,0.00509569,0.0144189,1126,421,5.30425,54.6596
-91,603,5.33118,-55.1405,0.00457187,-0.00355808,0.00207395,0.00507037,-0.00405657,0.235887,0.00528027,0.0110075,1133,421,5.33122,55.1405
-84,603,5.38,-55.6265,0.00555029,-0.00317855,0.00171733,0.00587601,-0.00350427,0.187438,0.00547311,0.0127008,1140,421,5.37997,55.6265
-77,603,5.44031,-56.1012,0.00648973,-0.00222054,0.00120307,0.00665285,-0.00238365,0.13476,0.00540782,0.0194098,1147,421,5.44037,56.1012
-70,603,5.38281,-56.5003,0,0,0,0,0,0,0,-1,1154,421,5.3828,56.5003
-63,603,5.4292,-56.8329,0,0,0,0,0,0,0,-1,1161,421,5.42921,56.8329
-56,603,5.5199,-57.2455,0,0,0,0,0,0,0,-1,1168,421,5.51985,57.2455
-49,603,5.59143,-57.6402,0,0,0,0,0,0,0,-1,1175,421,5.5914,57.6402
-42,603,5.64197,-57.961,0,0,0,0,0,0,0,-1,1182,421,5.64196,57.961
-35,603,5.66431,-58.2451,0.0134787,0.00679208,0.00268746,0.0144249,0.00584584,0.338537,0.00837791,0.0443794,1189,421,5.6643,58.2451
-28,603,5.724,-58.5014,0.01261,0.00676604,0.00378851,0.0144725,0.00490359,0.456909,0.00849916,0.0308678,1196,421,5.72399,58.5014
-21,603,5.80469,-58.7716,0.0117446,0.00656747,0.00441803,0.0142766,0.00403553,0.5204,0.00849817,0.0267105,1203,421,5.80464,58.7716
-14,603,5.94702,-58.997,0.0115325,0.00640101,0.00475158,0.0143668,0.00356671,0.537838,0.00863803,0.0237344,1210,421,5.94701,58.997
-7,603,5.99988,-59.2403,0.0120531,0.00566734,0.00514838,0.0149183,0.00280214,0.50784,0.00915553,0.026672,1217,421,5.99987,59.2403
0,603,6,-59.556,0.01086,0.00425248,0.00539623,0.0138835,0.001229,0.510714,0.00887443,0.0349368,1224,421,6.00003,59.556
7,603,6.03735,-59.7882,0,0,0,0,0,0,0,-1,1231,421,6.03731,59.7882
14,603,6.42725,-59.5434,0,0,0,0,0,0,0,-1,1238,421,6.42719,59.5434
21,603,6.5332,-59.4762,0.00165787,-0.00349036,0.00452817,0.00429243,-0.00612493,0.526943,0.00604541,0.0425836,1245,421,6.53317,59.4762
28,603,6.63525,-59.7123,-0.000990193,-0.00648556,0.00495173,0.0019251,-0.00940086,0.532102,0.00699777,0.0462742,1252,421,6.63531,59.7123
35,603,6.96912,-60.1175,0,0,0,0,0,0,0,-1,1259,421,6.96915,60.1175
42,603,6.8429,-59.7768,-0.00401599,-0.0138876,0.000332851,-0.00400478,-0.0138988,0.0336671,0.0082611,0.0438048,1266,421,6.84292,59.7768
49,603,6.77979,-59.9651,-0.00533197,-0.0169281,-0.00305457,-0.00457656,-0.0176835,-0.24244,0.0105981,0.0240923,1273,421,6.77983,59.9651
56,603,6.74109,-60.1498,0,0,0,0,0,0,0,-1,1280,421,6.7411,60.1498
63,603,7.02795,-60.4052,0,0,0,0,0,0,0,-1,1287,421,7.028,60.4052
70,603,7.29553,-60.4414,0,0,0,0,0,0,0,-1,1294,421,7.29548,60.4414
77,603,7.50269,-60.1688,0,0,0,0,0,0,0,-1,1301,421,7.50274,60.1688
84,603,7.56348,-60.3366,0,0,0,0,0,0,0,-1,1308,421,7.56351,60.3366
91,603,7.62402,-60.5243,0,0,0,0,0,0,0,-1,1315,421,7.62403,60.5243
98,603,7.91638,-60.5515,0,0,0,0,0,0,0,-1,1322,421,7.91642,60.5515
105,603,8.31128,-59.8034,0,0,0,0,0,0,0,-1,1329,421,8.31122,59.8034
112,603,8.27881,-59.7404,0.0119887,-0.0267397,-0.0376749,0.0349845,-0.0497355,-0.548013,0.0491596,0.0452916,1336,421,8.2788,59.7404
119,603,8.40918,-59.5842,0.0149444,-0.0255079,-0.0373231,0.0371695,-0.0477331,-0.537089,0.0491448,0.0443122,1343,421,8.40916,59.5842
126,603,8.52747,-59.3339,0,0,0,0,0,0,0,-1,1350,421,8.52741,59.3339
133,603,8.48376,-59.1985,0.0154109,-0.0235496,-0.0364846,0.0372901,-0.0454287,-0.540187,0.0478347,0.0485438,1357,421,8.48373,59.1985
140,603,8.71301,-58.8527,0.0107326,-0.0216119,-0.0305001,0.0290828,-0.0399621,-0.541627,0.0400277,0.0422965,1364,421,8.71302,58.8527
147,603,8.60571,-58.8168,0,0,0,0,0,0,0,-1,1371,421,8.6057,58.8168
154,603,8.50232,-58.5011,0.0134315,-0.0185394,-0.0173289,0.021022,-0.0261299,-0.412851,0.0272764,0.0387155,1378,421,8.50235,58.5011
161,603,8.72913,-58.2068,0.0148581,-0.0139891,-0.0100056,0.0179888,-0.0171198,-0.303242,0.020272,0.0355504,1385,421,8.72909,58.2068
168,603,8.92224,-57.8937,0.0142296,-0.0128635,-0.00727929,0.0160616,-0.0146954,-0.246541,0.0177634,0.038746,1392,421,8.92222,57.8937
175,603,9.17676,-57.5714,0.0130307,-0.0111309,-0.00577075,0.0143382,-0.0124384,-0.222817,0.0154724,0.0432847,1399,421,9.1768,57.5714
182,603,9.16187,-57.2113,0.0116656,-0.00969194,-0.00468512,0.0126481,-0.0106745,-0.206722,0.0134814,0.0481795,1406,421,9.16193,57.2113
189,603,9.12256,-56.765,0.0101011,-0.00793929,-0.00434148,0.0110915,-0.00892971,-0.224291,0.0115817,0.0405305,1413,421,9.12257,56.765
196,603,9.05774,-56.3244,0.00872822,-0.00616763,-0.00372843,0.00960932,-0.00704874,-0.232063,0.00965534,0.0293138,1420,421,9.05776,56.3244
203,603,9.09558,-55.976,0.00764251,-0.00526511,-0.00324394,0.00841192,-0.00603452,-0.232878,0.00837821,0.017321,1427,421,9.0956,55.976
210,603,9.13416,-55.6236,0.00638561,-0.00397795,-0.00272884,0.00706023,-0.00465257,-0.242359,0.00680985,0.0138873,1434,421,9.13418,55.6236
217,603,9.15796,-55.0941,0.00537362,-0.00330607,-0.00211522,0.00586165,-0.00379411,-0.226756,0.00561719,0.0138427,1441,421,9.15797,55.0942
224,603,9.21863,-54.5863,0.0045679,-0.00254916,-0.00146176,0.00485643,-0.00283769,-0.19488,0.00449288,0.0173794,1448,421,9.21858,54.5863
231,603,9.23242,-54.0886,0.00405216,-0.00178196,-0.000716755,0.00413892,-0.00186873,-0.120469,0.00355011,0.0154645,1455,421,9.2324,54.0886
238,603,9.23254,-53.5476,0.00379006,-0.00121337,-0.000325205,0.00381111,-0.00123442,-0.064634,0.00303702,0.0116753,1462,421,9.23258,53.5476
245,603,9.26978,-53.0001,0.00340489,-0.000621667,-6.78432e-05,0.00340603,-0.00062281,-0.0168426,0.00250424,0.0118442,1469,421,9.2698,53
252,603,9.27856,-52.4444,0.0029319,-0.000128192,0.000220617,0.00294772,-0.000144016,0.0716015,0.00201487,0.0109158,1476,421,9.2786,52.4444
259,603,9.24683,-51.891,0.00247951,0.000396172,0.000530451,0.0026068,0.000268888,0.235502,0.00165553,0.0109198,1483,421,9.24677,51.891
266,603,9.22925,-51.3042,0.00210507,0.00102787,0.00086046,0.0025816,0.000551348,0.50576,0.00156989,0.0116917,1490,421,9.22923,51.3042
273,603,9.24475,-50.6957,0.00179883,0.00185006,0.00128113,0.00310583,0.000543062,0.795394,0.00191537,0.0110173,1497,421,9.24479,50.6957
280,603,9.23279,-50.0761,0.00159064,0.00274542,0.00178615,0.00404519,0.000290874,0.941726,0.00260525,0.0122592,1504,421,9.2328,50.0761
287,603,9.20105,-49.4377,0.00150237,0.00380645,0.0023956,0.00531263,-3.80538e-06,1.00952,0.00354302,0.0113281,1511,421,9.20101,49.4378
294,603,9.16785,-48.8141,0.00137908,0.00489333,0.00301663,0.00662727,-0.00035486,1.04912,0.00454109,0.00933438,1518,421,9.16786,48.8141
301,603,9.14563,-48.1792,0.00127302,0.00601373,0.00367068,0.00801288,-0.000726118,1.07209,0.00559967,0.01029,1525,421,9.14564,48.1792
308,603,9.11511,-47.5052,0.00126209,0.00723003,0.00435338,0.00952394,-0.00103182,1.08584,0.00671969,0.0155319,1532,421,9.11516,47.5052
315,603,9.06128,-46.8478,0.00123249,0.0084523,0.00504681,0.0110474,-0.00136257,1.09585,0.00785858,0.0160767,1539,421,9.06133,46.8478
322,603,8.99976,-46.162,0.00112398,0.0096665,0.00576745,0.0125721,-0.00178161,1.10412,0.00903401,0.0154183,1546,421,8.99974,46.162
329,603,8.96033,-45.4675,0.00103951,0.0108271,0.00651336,0.0140803,-0.00221366,1.10758,0.0102051,0.011,1553,421,8.96038,45.4675
336,603,8.93677,-44.7971,0.000952427,0.0122712,0.0073751,0.0159081,-0.00268445,1.11266,0.0116042,0.00940711,1560,421,8.9368,44.7971
343,603,8.90344,-44.0951,0.000797778,0.0139171,0.00827744,0.0179189,-0.00320405,1.12047,0.0131448,0.0110678,1567,421,8.9034,44.0951
350,603,8.85242,-43.3575,0.000680447,0.015777,0.0092597,0.0201752,-0.00371777,1.12736,0.0148454,0.012849,1574,421,8.85248,43.3574
357,603,8.80249,-42.5891,0.000470785,0.0174429,0.0103074,0.0223081,-0.00439438,1.12979,0.0165327,0.0154693,1581,421,8.80243,42.5891
364,603,8.77991,-41.7825,0.000194282,0.0191057,0.0112136,0.0243182,-0.00501815,1.13568,0.018118,0.0214719,1588,421,8.77986,41.7825
371,603,8.70959,-40.9656,0.000163781,0.0218894,0.0125498,0.0276247,-0.00557154,1.14213,0.0205273,0.0311178,1595,421,8.70962,40.9657
378,603,8.69128,-40.3353,0,0,0,0,0,0,0,-1,1602,421,8.69127,40.3353
385,603,8.69788,-39.2688,0,0,0,0,0,0,0,-1,1609,421,8.69789,39.2688
392,603,8.50818,-38.4429,0,0,0,0,0,0,0,-1,1616,421,8.50823,38.4429
399,603,8.19946,-37.0551,0,0,0,0,0,0,0,-1,1623,421,8.19949,37.055
406,603,3.01917,-2.37219,0,0,0,0,0,0,0,-1,1630,421,3.01915,2.37219
413,603,2.38928,-2.41275,0,0,0,0,0,0,0,-1,1637,421,2.38926,2.41274
420,603,8.22217,-23.7068,0,0,0,0,0,0,0,-1,1644,421,8.22215,23.7068
427,603,8.20386,-23.1278,0,0,0,0,0,0,0,-1,1651,421,8.2039,23.1278
434,603,8.01489,-22.5655,0,0,0,0,0,0,0,-1,1658,421,8.01493,22.5655
441,603,8.00122,-22.3072,0,0,0,0,0,0,0,-1,1665,421,8.00116,22.3071
448,603,1.14355,-4.59842,0,0,0,0,0,0,0,-1,1672,421,1.14355,4.59841
455,603,0,0,0,0,0,0,0,0,0,-1,1679,421,0,0
462,603,0,0,0,0,0,0,0,0,0,-1,1686,421,0,0
469,603,0,0,0,0,0,0,0,0,0,-1,1693,421,0,0
476,603,0,0,0,0,0,0,0,0,0,-1,1700,421,0,0
483,603,0,0,0,0,0,0,0,0,0,-1,1707,421,0,0
490,603,0,0,0,0,0,0,0,0,0,-1,1714,421,0,0
497,603,0,0,0,0,0,0,0,0,0,-1,1721,421,0,0
504,603,0,0,0,0,0,0,0,0,0,-1,1728,421,0,0
511,603,0,0,0,0,0,0,0,0,0,-1,1735,421,0,0
518,603,0,0,0,0,0,0,0,0,0,-1,1742,421,0,0
525,603,0,0,0,0,0,0,0,0,0,-1,1749,421,0,0
532,603,0,0,0,0,0,0,0,0,0,-1,1756,421,0,0
539,603,0,0,0,0,0,0,0,0,0,-1,1763,421,0,0
546,603,0,0,0,0,0,0,0,0,0,-1,1770,421,0,0
553,603,0,0,0,0,0,0,0,0,0,-1,1777,421,0,0
560,603,0,0,0,0,0,0,0,0,0,-1,1784,421,0,0
567,603,0,0,0,0,0,0,0,0,0,-1,1791,421,0,0
574,603,0,0,0,0,0,0,0,0,0,-1,1798,421,0,0
581,603,0,0,0,0,0,0,0,0,0,-1,1805,421,0,0
588,603,0,0,0,0,0,0,0,0,0,-1,1812,421,0,0
595,603,0,0,0,0,0,0,0,0,0,-1,1819,421,0,0
602,603,0,0,0,0,0,0,0,0,0,-1,1826,421,0,0
609,603,0,0,0,0,0,0,0,0,0,-1,1833,421,0,0
616,603,0,0,0,0,0,0,0,0,0,-1,1840,421,0,0
623,603,0,0,0,0,0,0,0,0,0,-1,1847,421,0,0
630,603,0,0,0,0,0,0,0,0,0,-1,1854,421,0,0
637,603,0,0,0,0,0,0,0,0,0,-1,1861,421,0,0
644,603,0,0,0,0,0,0,0,0,0,-1,1868,421,0,0
651,603,0,0,0,0,0,0,0,0,0,-1,1875,421,0,0
658,603,0,0,0,0,0,0,0,0,0,-1,1882,421,0,0
665,603,0,0,0,0,0,0,0,0,0,-1,1889,421,0,0
672,603,0,0,0,0,0,0,0,0,0,-1,1896,421,0,0
679,603,0,0,0,0,0,0,0,0,0,-1,1903,421,0,0
686,603,0,0,0,0,0,0,0,0,0,-1,1910,421,0,0
693,603,0,0,0,0,0,0,0,0,0,-1,1917,421,0,0
700,603,0,0,0,0,0,0,0,0,0,-1,1924,421,0,0
707,603,0,0,0,0,0,0,0,0,0,-1,1931,421,0,0
714,603,0,0,0,0,0,0,0,0,0,-1,1938,421,0,0
721,603,0,0,0,0,0,0,0,0,0,-1,1945,421,0,0
728,603,0,0,0,0,0,0,0,0,0,-1,1952,421,0,0
735,603,0,0,0,0,0,0,0,0,0,-1,1959,421,0,0
742,603,0,0,0,0,0,0,0,0,0,-1,1966,421,0,0
749,603,0,0,0,0,0,0,0,0,0,-1,1973,421,0,0
756,603,0,0,0,0,0,0,0,0,0,-1,1980,421,0,0
763,603,0,0,0,0,0,0,0,0,0,-1,1987,421,0,0
770,603,0,0,0,0,0,0,0,0,0,-1,1994,421,0,0
777,603,0,0,0,0,0,0,0,0,0,-1,2001,421,0,0
784,603,0,0,0,0,0,0,0,0,0,-1,2008,421,0,0
791,603,0,0,0,0,0,0,0,0,0,-1,2015,421,0,0
798,603,0,0,0,0,0,0,0,0,0,-1,2022,421,0,0
805,603,0,0,0,0,0,0,0,0,0,-1,2029,421,0,0
812,603,0,0,0,0,0,0,0,0,0,-1,2036,421,0,0
-700,596,0,0,0,0,0,0,0,0,0,-1,524,428,0,0
-693,596,0,0,0,0,0,0,0,0,0,-1,531,428,0,0
-686,596,0,0,0,0,0,0,0,0,0,-1,538,428,0,0
-679,596,0,0,0,0,0,0,0,0,0,-1,545,428,0,0
-672,596,0,0,0,0,0,0,0,0,0,-1,552,428,0,0
-665,596,0,0,0,0,0,0,0,0,0,-1,559,428,0,0
-658,596,0,0,0,0,0,0,0,0,0,-1,566,428,0,0
-651,596,0,0,0,0,0,0,0,0,0,-1,573,428,0,0
-644,596,0,0,0,0,0,0,0,0,0,-1,580,428,0,0
-637,596,0,0,0,0,0,0,0,0,0,-1,587,428,0,0
-630,596,0,0,0,0,0,0,0,0,0,-1,594,428,0,0
-623,596,0,0,0,0,0,0,0,0,0,-1,601,428,0,0
-616,596,0,0,0,0,0,0,0,0,0,-1,608,428,0,0
-609,596,0,0,0,0,0,0,0,0,0,-1,615,428,0,0
-602,596,0,0,0,0,0,0,0,0,0,-1,622,428,0,0
-595,596,0,0,0,0,0,0,0,0,0,-1,629,428,0,0
-588,596,0,0,0,0,0,0,0,0,0,-1,636,428,0,0
-581,596,0,0,0,0,0,0,0,0,0,-1,643,428,0,0
-574,596,0,0,0,0,0,0,0,0,0,-1,650,428,0,0
-567,596,0,0,0,0,0,0,0,0,0,-1,657,428,0,0
-560,596,0,0,0,0,0,0,0,0,0,-1,664,428,0,0
-553,596,0,0,0,0,0,0,0,0,0,-1,671,428,0,0
-546,596,0,0,0,0,0,0,0,0,0,-1,678,428,0,0
-539,596,0,0,0,0,0,0,0,0,0,-1,685,428,0,0
-532,596,0,0,0,0,0,0,0,0,0,-1,692,428,0,0
-525,596,0,0,0,0,0,0,0,0,0,-1,699,428,0,0
-518,596,0,0,0,0,0,0,0,0,0,-1,706,428,0,0
-511,596,0,0,0,0,0,0,0,0,0,-1,713,428,0,0
-504,596,0,0,0,0,0,0,0,0,0,-1,720,428,0,0
-497,596,0,0,0,0,0,0,0,0,0,-1,727,428,0,0
-490,596,0,0,0,0,0,0,0,0,0,-1,734,428,0,0
-483,596,0,0,0,0,0,0,0,0,0,-1,741,428,0,0
-476,596,0,0,0,0,0,0,0,0,0,-1,748,428,0,0
-469,596,0,0,0,0,0,0,0,0,0,-1,755,428,0,0
-462,596,0,0,0,0,0,0,0,0,0,-1,762,428,0,0
-455,596,0,0,0,0,0,0,0,0,0,-1,769,428,0,0
-448,596,0,0,0,0,0,0,0,0,0,-1,776,428,0,0
-441,596,0,0,0,0,0,0,0,0,0,-1,783,428,0,0
-434,596,0,0,0,0,0,0,0,0,0,-1,790,428,0,0
-427,596,0,0,0,0,0,0,0,0,0,-1,797,428,0,0
-420,596,0,0,0,0,0,0,0,0,0,-1,804,428,0,0
-413,596,0,0,0,0,0,0,0,0,0,-1,811,428,0,0
-406,596,0,0,0,0,0,0,0,0,0,-1,818,428,0,0
-399,596,0,0,0,0,0,0,0,0,0,-1,825,428,0,0
-392,596,0,0,0,0,0,0,0,0,0,-1,832,428,0,0
-385,596,0,0,0,0,0,0,0,0,0,-1,839,428,0,0
-378,596,0,0,0,0,0,0,0,0,0,-1,846,428,0,0
-371,596,0,0,0,0,0,0,0,0,0,-1,853,428,0,0
-364,596,0,0,0,0,0,0,0,0,0,-1,860,428,0,0
-357,596,0,0,0,0,0,0,0,0,0,-1,867,428,0,0
-350,596,0,0,0,0,0,0,0,0,0,-1,874,428,0,0
-343,596,0,0,0,0,0,0,0,0,0,-1,881,428,0,0
-336,596,6.81445,-30.5258,0,0,0,0,0,0,0,-1,888,428,6.81446,30.5258
-329,596,6.84772,-28.9253,0,0,0,0,0,0,0,-1,895,428,6.84773,28.9253
-322,596,6.97449,-27.9047,0,0,0,0,0,0,0,-1,902,428,6.97451,27.9047
-315,596,7.10132,-26.8841,0,0,0,0,0,0,0,-1,909,428,7.10129,26.8841
-308,596,0.254761,-20.841,0,0,0,0,0,0,0,-1,916,428,0.254731,20.841
-301,596,3.43213,-26.756,0,0,0,0,0,0,0,-1,923,428,3.43214,26.756
-294,596,4.1767,-27.6454,0,0,0,0,0,0,0,-1,930,428,4.17667,27.6454
-287,596,4.36041,-27.6119,0,0,0,0,0,0,0,-1,937,428,4.3604,27.6119
-280,596,5.27679,-38.2106,0,0,0,0,0,0,0,-1,944,428,5.27677,38.2106
-273,596,5.27161,-38.5363,0,0,0,0,0,0,0,-1,951,428,5.27159,38.5363
-266,596,5.15839,-39.1947,0,0,0,0,0,0,0,-1,958,428,5.15837,39.1947
-259,596,5.21844,-39.8291,0,0,0,0,0,0,0,-1,965,428,5.21845,39.8291
-252,596,5.16669,-40.7331,-0.000771891,0.0142668,-0.00811284,0.0178091,-0.00431413,-1.15912,0.0135418,0.0250029,972,428,5.16666,40.7331
-245,596,5.18494,-41.5797,-0.000755769,0.0135736,-0.00752454,0.0167989,-0.00398106,-1.16585,0.0127354,0.0154586,979,428,5.18497,41.5797
-238,596,5.16718,-42.3205,-0.000703404,0.0125721,-0.00686134,0.015481,-0.00361225,-1.16982,0.0117119,0.0129259,986,428,5.16719,42.3205
-231,596,5.07318,-43.0652,-0.000437305,0.0116772,-0.00627139,0.0143389,-0.00309904,-1.16941,0.0107423,0.0135419,993,428,5.07318,43.0652
-224,596,5.02887,-43.7814,-0.000244275,0.0107136,-0.005623,0.0130856,-0.00261625,-1.17161,0.00971396,0.0144608,1000,428,5.02884,43.7814
-217,596,4.99652,-44.4764,-8.61288e-05,0.0092725,-0.0049997,0.011441,-0.00225466,-1.16155,0.00847942,0.0157389,1007,428,4.99651,44.4764
-210,596,4.97302,-45.176,8.86663e-05,0.00776765,-0.00435495,0.00973395,-0.00187764,-1.14669,0.00719729,0.0138481,1014,428,4.97303,45.176
-203,596,4.94373,-45.8761,0.000269589,0.00623716,-0.00370528,0.00801069,-0.00150394,-1.12437,0.00590595,0.0175622,1021,428,4.94376,45.8761
-196,596,4.9259,-46.5339,0.000420409,0.00494487,-0.0030761,0.00650103,-0.00113575,-1.10245,0.004758,0.0177184,1028,428,4.92586,46.5339
-189,596,4.88367,-47.1645,0.000606648,0.00366178,-0.00251717,0.00507863,-0.000810207,-1.05812,0.00368563,0.0140391,1035,428,4.88362,47.1645
-182,596,4.85181,-47.7879,0.000844164,0.00224116,-0.00182904,0.00350054,-0.000415217,-0.967798,0.0024837,0.0126094,1042,428,4.85182,47.7879
-175,596,4.82544,-48.4407,0.00102447,0.000979624,-0.00113582,0.00213808,-0.000133993,-0.775529,0.00147209,0.0149868,1049,428,4.8255,48.4407
-168,596,4.77417,-49.0945,0.00111871,-0.000274089,-0.000416804,0.00123391,-0.000389292,-0.269663,0.000978535,0.0180155,1056,428,4.77413,49.0945
-161,596,4.74548,-49.7215,0.00129246,-0.00145223,0.000337195,0.00133328,-0.00149305,0.120467,0.00163265,0.0175257,1063,428,4.74551,49.7215
-154,596,4.71057,-50.3268,0.00148133,-0.00257714,0.00112293,0.00177131,-0.00286713,0.252716,0.0027028,0.0142247,1070,428,4.71052,50.3268
-147,596,4.75195,-50.8817,0.00169994,-0.0035445,0.00186864,0.00229763,-0.00414219,0.309572,0.00376853,0.013675,1077,428,4.75193,50.8817
-140,596,4.76978,-51.4535,0.00196744,-0.00463304,0.00259043,0.00286266,-0.00552826,0.33274,0.00492531,0.0157897,1084,428,4.76973,51.4534
-133,596,4.74023,-52.0489,0.00225083,-0.00556995,0.00321127,0.00340042,-0.00671954,0.343772,0.00594659,0.0157769,1091,428,4.74029,52.0489
-126,596,4.76135,-52.5637,0.0026377,-0.00621685,0.00363738,0.00394028,-0.00751943,0.343882,0.00672298,0.0116771,1098,428,4.76139,52.5636
-119,596,4.75623,-53.1119,0.00317668,-0.00672895,0.00396995,0.00457137,-0.00812365,0.337844,0.0074245,0.0144003,1105,428,4.75627,53.1119
-112,596,4.7251,-53.6537,0.0037217,-0.00697593,0.00412799,0.00512938,-0.0083836,0.328641,0.00787677,0.0161275,1112,428,4.72515,53.6537
-105,596,4.72742,-54.1954,0.00429291,-0.00692963,0.00413942,0.00565453,-0.00829124,0.31779,0.00809942,0.0237073,1119,428,4.7274,54.1954
-98,596,4.77173,-54.7324,0.00499143,-0.00690173,0.00410286,0.00626948,-0.00817978,0.301975,0.00836655,0.0323964,1126,428,4.77171,54.7324
-91,596,4.75073,-55.2895,0,0,0,0,0,0,0,-1,1133,428,4.75075,55.2895
-84,596,4.92163,-55.6187,0,0,0,0,0,0,0,-1,1140,428,4.92166,55.6187
-77,596,5.02466,-56.1247,0,0,0,0,0,0,0,-1,1147,428,5.02462,56.1247
-70,596,3.50696,-32.137,0,0,0,0,0,0,0,-1,1154,428,3.50696,32.137
-63,596,1.95569,-12.2758,0,0,0,0,0,0,0,-1,1161,428,1.95563,12.2759
-56,596,1.60107,-10.5827,0,0,0,0,0,0,0,-1,1168,428,1.60108,10.5827
-49,596,1.59473,-10.0393,0,0,0,0,0,0,0,-1,1175,428,1.59472,10.0393
-42,596,1.99585,-6.6246,0,0,0,0,0,0,0,-1,1182,428,1.99586,6.62459
-35,596,5.11194,-57.9567,0,0,0,0,0,0,0,-1,1189,428,5.11191,57.9567
-28,596,5.3363,-58.3004,0,0,0,0,0,0,0,-1,1196,428,5.33626,58.3004
-21,596,5.39282,-58.5714,0,0,0,0,0,0,0,-1,1203,428,5.39277,58.5714
-14,596,5.6416,-58.6155,0,0,0,0,0,0,0,-1,1210,428,5.64158,58.6155
-7,596,5.61792,-58.986,0,0,0,0,0,0,0,-1,1217,428,5.61796,58.986
0,596,5.55591,-59.4385,0,0,0,0,0,0,0,-1,1224,428,5.5559,59.4386
7,596,9.09851,-58.2454,0,0,0,0,0,0,0,-1,1231,428,9.09855,58.2454
14,596,9.06738,-58.3636,0,0,0,0,0,0,0,-1,1238,428,9.06739,58.3636
21,596,8.74512,-58.5024,0,0,0,0,0,0,0,-1,1245,428,8.74513,58.5024
28,596,6.52515,-58.9773,0,0,0,0,0,0,0,-1,1252,428,6.52514,58.9773
35,596,7.81177,-58.5992,0,0,0,0,0,0,0,-1,1259,428,7.81182,58.5992
42,596,6.71301,-59.1672,0,0,0,0,0,0,0,-1,1266,428,6.71303,59.1672
49,596,6.86462,-59.5572,-0.00416818,-0.017878,-0.00216606,-0.0038341,-0.0182121,-0.153029,0.0110866,0.0436933,1273,428,6.86468,59.5572
56,596,6.27039,-59.5214,-0.00452257,-0.0224973,-0.00798401,-0.0014884,-0.0255315,-0.363174,0.0165472,0.0424211,1280,428,6.27033,59.5214
63,596,5.33032,-59.7083,-0.00344582,-0.0260918,-0.0139277,0.00318091,-0.0327185,-0.444095,0.0229462,0.0423173,1287,428,5.33028,59.7083
70,596,3.81726,-60.013,0,0,0,0,0,0,0,-1,1294,428,3.8172,60.013
77,596,3.02856,-60.0097,0,0,0,0,0,0,0,-1,1301,428,3.02857,60.0097
84,596,2.21228,-60.2366,0,0,0,0,0,0,0,-1,1308,428,2.21223,60.2366
91,596,1.49963,-60.8047,0,0,0,0,0,0,0,-1,1315,428,1.49959,60.8047
98,596,0.886963,-61.3271,0,0,0,0,0,0,0,-1,1322,428,0.887016,61.3271
105,596,0.302002,-61.7488,0,0,0,0,0,0,0,-1,1329,428,0.302033,61.7488
112,596,8.62952,-59.3715,0,0,0,0,0,0,0,-1,1336,428,8.6295,59.3715
119,596,8.85449,-59.0617,0,0,0,0,0,0,0,-1,1343,428,8.85454,59.0617
126,596,6.12146,-57.7535,0,0,0,0,0,0,0,-1,1350,428,6.12145,57.7535
133,596,8.80066,-58.8284,0,0,0,0,0,0,0,-1,1357,428,8.80063,58.8284
140,596,9.25439,-58.202,0,0,0,0,0,0,0,-1,1364,428,9.25436,58.202
147,596,8.73999,-57.4973,0,0,0,0,0,0,0,-1,1371,428,8.74004,57.4973
154,596,8.6405,-58.265,0,0,0,0,0,0,0,-1,1378,428,8.6405,58.265
161,596,9.151,-57.9674,0,0,0,0,0,0,0,-1,1385,428,9.15098,57.9674
168,596,9.50391,-57.4699,0,0,0,0,0,0,0,-1,1392,428,9.50385,57.4699
175,596,9.71545,-57.1898,0,0,0,0,0,0,0,-1,1399,428,9.71548,57.1899
182,596,9.71069,-57.0827,0,0,0,0,0,0,0,-1,1406,428,9.71072,57.0827
189,596,9.69409,-56.6496,0,0,0,0,0,0,0,-1,1413,428,9.69404,56.6496
196,596,9.57739,-56.0101,0,0,0,0,0,0,0,-1,1420,428,9.57739,56.0101
203,596,9.51855,-55.8756,0,0,0,0,0,0,0,-1,1427,428,9.51859,55.8756
210,596,9.58813,-55.6524,0,0,0,0,0,0,0,-1,1434,428,9.58819,55.6524
217,596,9.6283,-55.0949,0,0,0,0,0,0,0,-1,1441,428,9.62835,55.0949
224,596,9.72559,-54.5681,0,0,0,0,0,0,0,-1,1448,428,9.72564,54.5681
231,596,9.79736,-54.0787,0.00560018,-0.00426731,-0.00181366,0.00592297,-0.00459011,-0.176135,0.00608597,0.027716,1455,428,9.79734,54.0787
238,596,9.78906,-53.5012,0.00537276,-0.00378904,-0.00141974,0.00558772,-0.004004,-0.150269,0.00556289,0.01845,1462,428,9.78908,53.5012
245,596,9.81409,-52.9629,0.00493982,-0.00334188,-0.00121189,0.00511351,-0.00351557,-0.142358,0.0050104,0.0147889,1469,428,9.81411,52.9629
252,596,9.82935,-52.4197,0.00437312,-0.00315848,-0.000979385,0.00449839,-0.00328375,-0.127218,0.00451123,0.0104073,1476,428,9.82933,52.4197
259,596,9.83105,-51.8645,0.00380162,-0.00301729,-0.000817342,0.00389822,-0.0031139,-0.117644,0.00405688,0.00878029,1483,428,9.831,51.8645
266,596,9.80444,-51.2796,0.00333235,-0.00261938,-0.000598206,0.00339188,-0.00267891,-0.0991877,0.00351302,0.0101918,1490,428,9.80444,51.2796
273,596,9.82751,-50.6878,0.00291494,-0.00199145,-0.000277326,0.00293057,-0.00200707,-0.0562844,0.00286732,0.012538,1497,428,9.82751,50.6878
280,596,9.83716,-50.0899,0.002639,-0.0013054,0.000121502,0.00264274,-0.00130914,0.0307647,0.00232452,0.0133856,1504,428,9.83721,50.0899
287,596,9.82007,-49.4588,0.00243691,-0.000444725,0.000564226,0.00254345,-0.000551262,0.186623,0.00190614,0.0118106,1511,428,9.82005,49.4588
294,596,9.77856,-48.8181,0.00219163,0.000514872,0.00106777,0.00271083,-4.32413e-06,0.452582,0.00180866,0.00885486,1518,428,9.77854,48.8181
301,596,9.75024,-48.1685,0.00196463,0.00155587,0.00162586,0.00339891,0.000121593,0.722874,0.00222651,0.0101705,1525,428,9.75027,48.1685
308,596,9.74146,-47.5039,0.00182115,0.00273082,0.00222422,0.00454623,5.73928e-06,0.886254,0.00302891,0.0159016,1532,428,9.74142,47.5039
315,596,9.6825,-46.8371,0.00165225,0.0039478,0.00284301,0.00586599,-0.000265939,0.977252,0.00400225,0.0151167,1539,428,9.68245,46.8371
322,596,9.67712,-46.1482,0.00140661,0.00525319,0.00351512,0.00733679,-0.000676981,1.03572,0.00513176,0.0127011,1546,428,9.67712,46.1482
329,596,9.62903,-45.4707,0.0011878,0.00651959,0.00423365,0.00885677,-0.00114938,1.06638,0.00632256,0.00981637,1553,428,9.62904,45.4707
336,596,9.57507,-44.8034,0.000974704,0.0080267,0.00506481,0.010672,-0.0016706,1.08948,0.00773193,0.00927593,1560,428,9.57502,44.8034
343,596,9.56458,-44.099,0.000707479,0.00974499,0.00594986,0.0126975,-0.00224504,1.11017,0.00930408,0.0118628,1567,428,9.56457,44.099
350,596,9.54163,-43.3509,0.000506617,0.0116547,0.00690665,0.014956,-0.00279469,1.12491,0.011021,0.0120989,1574,428,9.54162,43.3509
357,596,9.4729,-42.6222,0.000260215,0.0134004,0.00788874,0.0170966,-0.00343607,1.13262,0.012699,0.00942186,1581,428,9.47296,42.6222
364,596,9.40479,-41.8758,-4.46648e-06,0.0151094,0.00878388,0.0191397,-0.00403476,1.14063,0.0142958,0.0109131,1588,428,9.40477,41.8758
371,596,9.36182,-41.1328,-0.000116052,0.0174186,0.00989999,0.0218753,-0.0045728,1.1478,0.0163227,0.0129039,1595,428,9.36183,41.1328
378,596,9.31262,-40.3487,-0.000295225,0.0199602,0.0110443,0.0248174,-0.00515243,1.15646,0.0185031,0.017763,1602,428,9.31265,40.3487
385,596,9.36084,-39.3238,-0.000398107,0.022172,0.0118827,0.0272745,-0.00550057,1.1652,0.0202669,0.0381993,1609,428,9.3609,39.3238
392,596,9.22021,-38.3707,-0.000448937,0.0241639,0.0124529,0.0293653,-0.00565033,1.17514,0.0217068,0.0492336,1616,428,9.22021,38.3707
399,596,9.05774,-37.7413,0,0,0,0,0,0,0,-1,1623,428,9.05772,37.7413
406,596,8.91809,-36.6775,0,0,0,0,0,0,0,-1,1630,428,8.91815,36.6775
413,596,3.39124,-2.63528,0,0,0,0,0,0,0,-1,1637,428,3.39122,2.6353
420,596,2.6344,-3.06308,0,0,0,0,0,0,0,-1,1644,428,2.63439,3.06308
427,596,7.61975,-22.7222,0,0,0,0,0,0,0,-1,1651,428,7.61974,22.7222
434,596,5.09753,-22.5213,0,0,0,0,0,0,0,-1,1658,428,5.09755,22.5213
441,596,7.19043,-22.087,0,0,0,0,0,0,0,-1,1665,428,7.19046,22.087
448,596,1.0769,0.0083313,0,0,0,0,0,0,0,-1,1672,428,1.07684,-0.00832231
455,596,2.00769,-1.43329,0,0,0,0,0,0,0,-1,1679,428,2.00765,1.4333
462,596,0,0,0,0,0,0,0,0,0,-1,1686,428,0,0
469,596,0,0,0,0,0,0,0,0,0,-1,1693,428,0,0
476,596,0,0,0,0,0,0,0,0,0,-1,1700,428,0,0
483,596,0,0,0,0,0,0,0,0,0,-1,1707,428,0,0
490,596,0,0,0,0,0,0,0,0,0,-1,1714,428,0,0
497,596,0,0,0,0,0,0,0,0,0,-1,1721,428,0,0
504,596,0,0,0,0,0,0,0,0,0,-1,1728,428,0,0
511,596,0,0,0,0,0,0,0,0,0,-1,1735,428,0,0
518,596,0,0,0,0,0,0,0,0,0,-1,1742,428,0,0
525,596,0,0,0,0,0,0,0,0,0,-1,1749,428,0,0
532,596,0,0,0,0,0,0,0,0,0,-1,1756,428,0,0
539,596,0,0,0,0,0,0,0,0,0,-1,1763,428,0,0
546,596,0,0,0,0,0,0,0,0,0,-1,1770,428,0,0
553,596,0,0,0,0,0,0,0,0,0,-1,1777,428,0,0
560,596,0,0,0,0,0,0,0,0,0,-1,1784,428,0,0
567,596,0,0,0,0,0,0,0,0,0,-1,1791,428,0,0
574,596,0,0,0,0,0,0,0,0,0,-1,1798,428,0,0
581,596,0,0,0,0,0,0,0,0,0,-1,1805,428,0,0
588,596,0,0,0,0,0,0,0,0,0,-1,1812,428,0,0
595,596,0,0,0,0,0,0,0,0,0,-1,1819,428,0,0
602,596,0,0,0,0,0,0,0,0,0,-1,1826,428,0,0
609,596,0,0,0,0,0,0,0,0,0,-1,1833,428,0,0
616,596,0,0,0,0,0,0,0,0,0,-1,1840,428,0,0
623,596,0,0,0,0,0,0,0,0,0,-1,1847,428,0,0
630,596,0,0,0,0,0,0,0,0,0,-1,1854,428,0,0
637,596,0,0,0,0,0,0,0,0,0,-1,1861,428,0,0
644,596,0,0,0,0,0,0,0,0,0,-1,1868,428,0,0
651,596,0,0,0,0,0,0,0,0,0,-1,1875,428,0,0
658,596,0,0,0,0,0,0,0,0,0,-1,1882,428,0,0
665,596,0,0,0,0,0,0,0,0,0,-1,1889,428,0,0
672,596,0,0,0,0,0,0,0,0,0,-1,1896,428,0,0
679,596,0,0,0,0,0,0,0,0,0,-1,1903,428,0,0
686,596,0,0,0,0,0,0,0,0,0,-1,1910,428,0,0
693,596,0,0,0,0,0,0,0,0,0,-1,1917,428,0,0
700,596,0,0,0,0,0,0,0,0,0,-1,1924,428,0,0
707,596,0,0,0,0,0,0,0,0,0,-1,1931,428,0,0
714,596,0,0,0,0,0,0,0,0,0,-1,1938,428,0,0
721,596,0,0,0,0,0,0,0,0,0,-1,1945,428,0,0
728,596,0,0,0,0,0,0,0,0,0,-1,1952,428,0,0
735,596,0,0,0,0,0,0,0,0,0,-1,1959,428,0,0
742,596,0,0,0,0,0,0,0,0,0,-1,1966,428,0,0
749,596,0,0,0,0,0,0,0,0,0,-1,1973,428,0,0
756,596,0,0,0,0,0,0,0,0,0,-1,1980,428,0,0
763,596,0,0,0,0,0,0,0,0,0,-1,1987,428,0,0
770,596,0,0,0,0,0,0,0,0,0,-1,1994,428,0,0
777,596,0,0,0,0,0,0,0,0,0,-1,2001,428,0,0
784,596,0,0,0,0,0,0,0,0,0,-1,2008,428,0,0
791,596,0,0,0,0,0,0,0,0,0,-1,2015,428,0,0
798,596,0,0,0,0,0,0,0,0,0,-1,2022,428,0,0
805,596,0,0,0,0,0,0,0,0,0,-1,2029,428,0,0
812,596,0,0,0,0,0,0,0,0,0,-1,2036,428,0,0
-700,589,0,0,0,0,0,0,0,0,0,-1,524,435,0,0
-693,589,0,0,0,0,0,0,0,0,0,-1,531,435,0,0
-686,589,0,0,0,0,0,0,0,0,0,-1,538,435,0,0
-679,589,0,0,0,0,0,0,0,0,0,-1,545,435,0,0
-672,589,0,0,0,0,0,0,0,0,0,-1,552,435,0,0
-665,589,0,0,0,0,0,0,0,0,0,-1,559,435,0,0
-658,589,0,0,0,0,0,0,0,0,0,-1,566,435,0,0
-651,589,0,0,0,0,0,0,0,0,0,-1,573,435,0,0
-644,589,0,0,0,0,0,0,0,0,0,-1,580,435,0,0
-637,589,0,0,0,0,0,0,0,0,0,-1,587,435,0,0
-630,589,0,0,0,0,0,0,0,0,0,-1,594,435,0,0
-623,589,0,0,0,0,0,0,0,0,0,-1,601,435,0,0
-616,589,0,0,0,0,0,0,0,0,0,-1,608,435,0,0
-609,589,0,0,0,0,0,0,0,0,0,-1,615,435,0,0
-602,589,0,0,0,0,0,0,0,0,0,-1,622,435,0,0
-595,589,0,0,0,0,0,0,0,0,0,-1,629,435,0,0
-588,589,0,0,0,0,0,0,0,0,0,-1,636,435,0,0
-581,589,0,0,0,0,0,0,0,0,0,-1,643,435,0,0
-574,589,0,0,0,0,0,0,0,0,0,-1,650,435,0,0
-567,589,0,0,0,0,0,0,0,0,0,-1,657,435,0,0
-560,589,0,0,0,0,0,0,0,0,0,-1,664,435,0,0
-553,589,0,0,0,0,0,0,0,0,0,-1,671,435,0,0
-546,589,0,0,0,0,0,0,0,0,0,-1,678,435,0,0
-539,589,0,0,0,0,0,0,0,0,0,-1,685,435,0,0
-532,589,0,0,0,0,0,0,0,0,0,-1,692,435,0,0
-525,589,0,0,0,0,0,0,0,0,0,-1,699,435,0,0
-518,589,0,0,0,0,0,0,0,0,0,-1,706,435,0,0
-511,589,0,0,0,0,0,0,0,0,0,-1,713,435,0,0
-504,589,0,0,0,0,0,0,0,0,0,-1,720,435,0,0
-497,589,0,0,0,0,0,0,0,0,0,-1,727,435,0,0
-490,589,0,0,0,0,0,0,0,0,0,-1,734,435,0,0
-483,589,0,0,0,0,0,0,0,0,0,-1,741,435,0,0
-476,589,0,0,0,0,0,0,0,0,0,-1,748,435,0,0
-469,589,0,0,0,0,0,0,0,0,0,-1,755,435,0,0
-462,589,0,0,0,0,0,0,0,0,0,-1,762,435,0,0
-455,589,0,0,0,0,0,0,0,0,0,-1,769,435,0,0
-448,589,0,0,0,0,0,0,0,0,0,-1,776,435,0,0
-441,589,0,0,0,0,0,0,0,0,0,-1,783,435,0,0
-434,589,0,0,0,0,0,0,0,0,0,-1,790,435,0,0
-427,589,0,0,0,0,0,0,0,0,0,-1,797,435,0,0
-420,589,0,0,0,0,0,0,0,0,0,-1,804,435,0,0
-413,589,0,0,0,0,0,0,0,0,0,-1,811,435,0,0
-406,589,0,0,0,0,0,0,0,0,0,-1,818,435,0,0
-399,589,0,0,0,0,0,0,0,0,0,-1,825,435,0,0
-392,589,0,0,0,0,0,0,0,0,0,-1,832,435,0,0
-385,589,0,0,0,0,0,0,0,0,0,-1,839,435,0,0
-378,589,0,0,0,0,0,0,0,0,0,-1,846,435,0,0
-371,589,0,0,0,0,0,0,0,0,0,-1,853,435,0,0
-364,589,0,0,0,0,0,0,0,0,0,-1,860,435,0,0
-357,589,0,0,0,0,0,0,0,0,0,-1,867,435,0,0
-350,589,-0.799927,-20.664,0,0,0,0,0,0,0,-1,874,435,-0.799952,20.664
-343,589,5.15289,-30.4847,0,0,0,0,0,0,0,-1,881,435,5.15291,30.4847
-336,589,5.07684,-29.2368,0,0,0,0,0,0,0,-1,888,435,5.07687,29.2368
-329,589,4.9624,-28.1366,0,0,0,0,0,0,0,-1,895,435,4.96242,28.1366
-322,589,5.10156,-27.065,0,0,0,0,0,0,0,-1,902,435,5.10155,27.065
-315,589,4.22705,-27.9655,0,0,0,0,0,0,0,-1,909,435,4.22705,27.9655
-308,589,4.46698,-29.037,0,0,0,0,0,0,0,-1,916,435,4.46696,29.037
-301,589,4.94867,-33.7458,0,0,0,0,0,0,0,-1,923,435,4.94869,33.7458
-294,589,4.1037,-31.2976,0,0,0,0,0,0,0,-1,930,435,4.10371,31.2976
-287,589,4.8988,-36.8458,0,0,0,0,0,0,0,-1,937,435,4.89881,36.8458
-280,589,4.63403,-37.7921,-0.00443909,0.0139096,-0.00822442,0.0170564,-0.00758585,-1.20537,0.0145732,0.0478986,944,435,4.63406,37.7921
-273,589,4.65417,-38.4347,-0.00301451,0.0133871,-0.00799224,0.0166375,-0.00626486,-1.18454,0.0136672,0.029896,951,435,4.65417,38.4347
-266,589,4.60919,-39.2484,-0.00220162,0.0124548,-0.00757337,0.015665,-0.00541183,-1.16987,0.0126396,0.0274357,958,435,4.6092,39.2484
-259,589,4.55743,-40.0542,-0.00113497,0.0112332,-0.00714766,0.0145006,-0.00440245,-1.14202,0.011421,0.0228427,965,435,4.55742,40.0542
-252,589,4.54919,-40.882,-0.000627241,0.0107842,-0.0064125,0.013662,-0.00350495,-1.14897,0.0104736,0.0115723,972,435,4.54917,40.882
-245,589,4.53979,-41.6366,-0.000478509,0.01004,-0.00587492,0.0126658,-0.00310433,-1.15048,0.00964663,0.0103774,979,435,4.5398,41.6366
-238,589,4.47656,-42.3635,-0.000302139,0.00896631,-0.00523523,0.0113238,-0.0026596,-1.14769,0.00857432,0.0146703,986,435,4.47653,42.3635
-231,589,4.40399,-43.0471,-2.4597e-06,0.00787999,-0.00458212,0.00998269,-0.00210516,-1.14057,0.00745657,0.0152218,993,435,4.404,43.0471
-224,589,4.3526,-43.7479,0.00021646,0.00675881,-0.00388913,0.00856955,-0.00159428,-1.13505,0.00631194,0.0153507,1000,435,4.3526,43.7479
-217,589,4.31787,-44.4667,0.000422396,0.00523186,-0.00321385,0.00684105,-0.00118679,-1.10659,0.00500344,0.016707,1007,435,4.31788,44.4667
-210,589,4.28662,-45.1631,0.000646112,0.00363205,-0.0025389,0.00508441,-0.000806252,-1.05119,0.00368785,0.016335,1014,435,4.28661,45.163
-203,589,4.25854,-45.8282,0.000881196,0.00208579,-0.0018914,0.00346847,-0.000501484,-0.939542,0.00249632,0.0126137,1021,435,4.25852,45.8282
-196,589,4.22668,-46.4972,0.00107743,0.000757822,-0.00126937,0.00219702,-0.000361766,-0.722782,0.00159897,0.0147978,1028,435,4.22666,46.4972
-189,589,4.19678,-47.1977,0.00129199,-0.0005289,-0.000646716,0.00149831,-0.000735214,-0.308812,0.00131437,0.017867,1035,435,4.19674,47.1977
-182,589,4.19934,-47.7555,0.00157419,-0.00207205,0.000140345,0.00157958,-0.00207745,0.0384147,0.0021179,0.0131225,1042,435,4.19931,47.7555
-175,589,4.20837,-48.3833,0.00179796,-0.00333116,0.000860287,0.00193841,-0.0034716,0.161828,0.00316501,0.0166022,1049,435,4.20833,48.3833
-168,589,4.18677,-49.0717,0.00192861,-0.00454757,0.00159061,0.00229819,-0.00491714,0.228299,0.00425627,0.014613,1056,435,4.18672,49.0717
-161,589,4.17651,-49.682,0.00211977,-0.00569644,0.00238436,0.00278971,-0.00636637,0.273908,0.00541904,0.0139921,1063,435,4.17648,49.682
-154,589,4.14636,-50.2787,0.00232821,-0.00677012,0.00322459,0.00335514,-0.00779705,0.308314,0.00660677,0.0131001,1070,435,4.14632,50.2788
-147,589,4.16211,-50.8447,0.00258125,-0.00766734,0.00404759,0.00398698,-0.00907308,0.33427,0.00772848,0.0128946,1077,435,4.16211,50.8447
-140,589,4.19543,-51.3985,0.00284042,-0.00874877,0.00488828,0.0046269,-0.0105352,0.350381,0.00897267,0.0154337,1084,435,4.19549,51.3985
-133,589,4.18274,-51.9944,0.00310171,-0.00964725,0.00561834,0.00522427,-0.0117698,0.361216,0.0100512,0.0154776,1091,435,4.18273,51.9944
-126,589,4.21143,-52.5516,0.00353161,-0.0101509,0.00607574,0.00584007,-0.0124594,0.363102,0.0107931,0.0123041,1098,435,4.21141,52.5516
-119,589,4.16431,-53.089,0.00411976,-0.0105831,0.00644365,0.00654401,-0.0130074,0.359844,0.0114918,0.023096,1105,435,4.16428,53.089
-112,589,4.09119,-53.6362,0,0,0,0,0,0,0,-1,1112,435,4.09124,53.6362
-105,589,4.16394,-54.1992,0,0,0,0,0,0,0,-1,1119,435,4.16391,54.1992
-98,589,4.22241,-54.8502,0,0,0,0,0,0,0,-1,1126,435,4.22239,54.8502
-91,589,3.39563,-37.8231,0,0,0,0,0,0,0,-1,1133,435,3.39565,37.8231
-84,589,2.76538,-22.6013,0,0,0,0,0,0,0,-1,1140,435,2.76539,22.6014
-77,589,2.18152,-14.8023,0,0,0,0,0,0,0,-1,1147,435,2.18155,14.8023
-70,589,1.48267,-9.90961,0,0,0,0,0,0,0,-1,1154,435,1.48264,9.9096
-63,589,0.880127,-5.50586,0,0,0,0,0,0,0,-1,1161,435,0.880186,5.50587
-56,589,-2.78052,-7.28082,0,0,0,0,0,0,0,-1,1168,435,-2.78053,7.28082
-49,589,-0.525757,-2.76703,0,0,0,0,0,0,0,-1,1175,435,-0.525771,2.76702
-42,589,-2.7738,-2.87921,0,0,0,0,0,0,0,-1,1182,435,-2.77383,2.87922
-35,589,-2.55225,-3.27551,0,0,0,0,0,0,0,-1,1189,435,-2.55223,3.27552
-28,589,-0.0632324,-3.42938,0,0,0,0,0,0,0,-1,1196,435,-0.063241,3.42938
-21,589,0.474854,-57.4146,0,0,0,0,0,0,0,-1,1203,435,0.474822,57.4146
-14,589,5.30261,-58.3271,0,0,0,0,0,0,0,-1,1210,435,5.3026,58.3271
-7,589,3.5188,-57.0017,0,0,0,0,0,0,0,-1,1217,435,3.51874,57.0017
0,589,9.35608,-58.5016,0,0,0,0,0,0,0,-1,1224,435,9.35607,58.5016
7,589,9.22949,-58.5095,0,0,0,0,0,0,0,-1,1231,435,9.22953,58.5095
14,589,9.00208,-58.5379,0.0124443,0.00890523,0.00893853,0.0197868,0.00156276,0.687678,0.0127023,0.0453296,1238,435,9.00208,58.5379
21,589,8.66577,-58.7463,0.00752908,0.00423319,0.00892817,0.0149601,-0.00319785,0.694136,0.0111927,0.0458578,1245,435,8.66571,58.7463
28,589,8.16333,-58.7815,0.00356783,-0.000484501,0.0103379,0.0120763,-0.00899294,0.688628,0.0122077,0.047778,1252,435,8.16334,58.7815
35,589,7.76477,-58.9124,0.0028022,-0.00609865,0.0080802,0.00757652,-0.010873,0.533677,0.0107083,0.0450848,1259,435,7.76476,58.9124
42,589,7.40881,-59.1875,0.000116648,-0.0122367,0.00446974,0.00156426,-0.0136844,0.31321,0.00968652,0.0440468,1266,435,7.40884,59.1875
49,589,6.95105,-59.2505,-0.00135158,-0.0172539,-0.000264051,-0.0013472,-0.0172583,-0.0165985,0.0110838,0.0425007,1273,435,6.95105,59.2505
56,589,6.39502,-59.0749,-0.00149351,-0.0231004,-0.00733573,0.000761654,-0.0253556,-0.298252,0.0171632,0.0415887,1280,435,6.39504,59.0749
63,589,5.6969,-59.0705,9.7235e-05,-0.0276987,-0.0146229,0.00637304,-0.0339745,-0.405404,0.0250458,0.0426877,1287,435,5.69685,59.0705
70,589,4.89355,-59.2438,0.00340382,-0.0315844,-0.0224917,0.014404,-0.0425845,-0.454869,0.034217,0.0439496,1294,435,4.89354,59.2438
77,589,4.17798,-59.22,0.00722602,-0.0338073,-0.0316113,0.024395,-0.0509763,-0.497552,0.0444085,0.0429659,1301,435,4.17799,59.22
84,589,3.52698,-59.8102,0.0116072,-0.0355219,-0.0399016,0.034383,-0.0582977,-0.518671,0.0540997,0.0403198,1308,435,3.52698,59.8101
91,589,2.85071,-60.3474,0.0153437,-0.0369786,-0.0473344,0.0432654,-0.0649002,-0.532946,0.0628645,0.0423434,1315,435,2.85067,60.3474
98,589,2.25952,-60.8429,0.0181964,-0.0371931,-0.053744,0.0509617,-0.0699584,-0.547488,0.0700998,0.0461349,1322,435,2.25949,60.8429
105,589,1.65369,-61.3218,0,0,0,0,0,0,0,-1,1329,435,1.65367,61.3218
112,589,0.908569,-61.7886,0,0,0,0,0,0,0,-1,1336,435,0.908624,61.7886
119,589,-0.0408936,-61.9715,0,0,0,0,0,0,0,-1,1343,435,-0.0409056,61.9715
126,589,1.88867,-55.6635,0,0,0,0,0,0,0,-1,1350,435,1.88866,55.6635
133,589,1.10754,-56.0854,0,0,0,0,0,0,0,-1,1357,435,1.10754,56.0854
140,589,0.379883,-55.5643,0,0,0,0,0,0,0,-1,1364,435,0.379915,55.5643
147,589,4.36267,-70.4608,0,0,0,0,0,0,0,-1,1371,435,4.36273,70.4608
154,589,4.0575,-71.5477,0,0,0,0,0,0,0,-1,1378,435,4.05752,71.5477
161,589,-2.87488,-52.599,0,0,0,0,0,0,0,-1,1385,435,-2.87491,52.599
168,589,20.0441,-47.9614,0,0,0,0,0,0,0,-1,1392,435,20.044,47.9613
175,589,8.66992,-7.65527,0,0,0,0,0,0,0,-1,1399,435,8.66994,7.65528
182,589,3.8136,-2.45389,0,0,0,0,0,0,0,-1,1406,435,3.81363,2.4539
189,589,3.69983,-3.68149,0,0,0,0,0,0,0,-1,1413,435,3.69987,3.68147
196,589,3.31055,-5.31677,0,0,0,0,0,0,0,-1,1420,435,3.31059,5.31678
203,589,2.72559,-8.84338,0,0,0,0,0,0,0,-1,1427,435,2.72558,8.84338
210,589,3.62378,-14.4032,0,0,0,0,0,0,0,-1,1434,435,3.62378,14.4032
217,589,4.65601,-22.3745,0,0,0,0,0,0,0,-1,1441,435,4.65607,22.3745
224,589,6.79028,-33.9412,0,0,0,0,0,0,0,-1,1448,435,6.79028,33.9412
231,589,10.3717,-54.1171,0,0,0,0,0,0,0,-1,1455,435,10.3717,54.1171
238,589,10.3458,-53.4859,0,0,0,0,0,0,0,-1,1462,435,10.3459,53.4859
245,589,10.3599,-52.9192,0,0,0,0,0,0,0,-1,1469,435,10.3598,52.9192
252,589,10.3899,-52.3543,0.00583531,-0.00594365,-0.0022452,0.00624876,-0.0063571,-0.182107,0.00727808,0.0253097,1476,435,10.3899,52.3543
259,589,10.4053,-51.8467,0.00517437,-0.00632316,-0.00222101,0.00558849,-0.00673728,-0.18434,0.00712658,0.0102369,1483,435,10.4053,51.8467
266,589,10.4143,-51.2507,0.00462534,-0.00626131,-0.00209874,0.00501593,-0.00665189,-0.184,0.00675846,0.00943881,1490,435,10.4143,51.2507
273,589,10.4374,-50.6793,0.00410921,-0.00590705,-0.00185288,0.00444098,-0.00623882,-0.177179,0.00619504,0.0120465,1497,435,10.4373,50.6793
280,589,10.4379,-50.063,0.00377849,-0.00547454,-0.00153234,0.00402565,-0.0057217,-0.159919,0.00565596,0.0136305,1504,435,10.4379,50.063
287,589,10.4329,-49.4427,0.00347998,-0.00482819,-0.00122721,0.00365746,-0.00500567,-0.143626,0.00502181,0.0116897,1511,435,10.4328,49.4427
294,589,10.4147,-48.7996,0.00311162,-0.00404924,-0.000830069,0.00320658,-0.0041442,-0.113905,0.00425546,0.0102889,1518,435,10.4147,48.7996
301,589,10.3948,-48.1443,0.00276625,-0.00312113,-0.000367807,0.00278914,-0.00314402,-0.0621516,0.00342756,0.0115481,1525,435,10.3948,48.1443
308,589,10.3745,-47.4788,0.00249677,-0.00199448,0.000138565,0.00250104,-0.00199875,0.0308132,0.00260334,0.0112524,1532,435,10.3745,47.4788
315,589,10.3658,-46.8098,0.00220731,-0.0007667,0.000684344,0.00235723,-0.000916617,0.215659,0.0019502,0.00941768,1539,435,10.3658,46.8098
322,589,10.3809,-46.1281,0.00186009,0.000647486,0.0013094,0.00269675,-0.000189176,0.568578,0.00186409,0.0102328,1546,435,10.3809,46.1281
329,589,10.3336,-45.4654,0.00155072,0.00205199,0.00199991,0.00381691,-0.000214198,0.847735,0.00261893,0.00988269,1553,435,10.3337,45.4654
336,589,10.2759,-44.7933,0.0012602,0.00366316,0.00279926,0.00550789,-0.000584531,0.988115,0.00388147,0.010042,1560,435,10.2759,44.7933
343,589,10.2448,-44.0886,0.000936046,0.00550225,0.00367683,0.00754716,-0.00110886,1.06324,0.00543887,0.0115274,1567,435,10.2447,44.0886
350,589,10.2059,-43.3526,0.000709596,0.00752214,0.00462899,0.00986306,-0.00163132,1.10259,0.00718118,0.0167399,1574,435,10.2059,43.3526
357,589,10.1699,-42.6011,0.000466043,0.00942844,0.00558686,0.0121092,-0.00221475,1.12341,0.00890337,0.0136487,1581,435,10.1699,42.6011
364,589,10.1324,-41.8813,0.000219789,0.0112522,0.00650458,0.0142646,-0.00279267,1.13708,0.0105644,0.0113037,1588,435,10.1324,41.8813
371,589,10.0778,-41.1401,7.74981e-05,0.0133377,0.00752389,0.0167359,-0.00332072,1.14656,0.0124131,0.0117759,1595,435,10.0777,41.1401
378,589,10.0156,-40.3652,-0.000113011,0.0154779,0.00848918,0.0192079,-0.00384297,1.15681,0.0142599,0.0130916,1602,435,10.0157,40.3652
385,589,9.97864,-39.5732,-0.000247521,0.0172243,0.00914704,0.0211369,-0.00416011,1.1666,0.0156632,0.0220918,1609,435,9.97865,39.5732
392,589,9.91772,-38.631,-0.000282144,0.0186859,0.00961398,0.0227066,-0.00430276,1.1747,0.0167571,0.0313494,1616,435,9.91767,38.6309
399,589,9.91553,-37.7054,-0.000275227,0.0198344,0.0104829,0.0243051,-0.00474596,1.16768,0.0179952,0.0392736,1623,435,9.91551,37.7054
406,589,9.9613,-36.8616,0,0,0,0,0,0,0,-1,1630,435,9.96128,36.8616
413,589,5.61377,-19.0606,0,0,0,0,0,0,0,-1,1637,435,5.61372,19.0606
420,589,2.79724,-5.79956,0,0,0,0,0,0,0,-1,1644,435,2.7973,5.79955
427,589,9.14038,-34.9413,0,0,0,0,0,0,0,-1,1651,435,9.14041,34.9413
434,589,9.78113,-33.2408,0,0,0,0,0,0,0,-1,1658,435,9.78111,33.2408
441,589,7.85901,-29.8665,0,0,0,0,0,0,0,-1,1665,435,7.85898,29.8666
448,589,0.453735,-3.2868,0,0,0,0,0,0,0,-1,1672,435,0.453701,3.28681
455,589,0.664307,-3.46848,0,0,0,0,0,0,0,-1,1679,435,0.66425,3.46846
462,589,3.46716,-4.41891,0,0,0,0,0,0,0,-1,1686,435,3.4672,4.41891
469,589,0.0238037,-3.81497,0,0,0,0,0,0,0,-1,1693,435,0.0237965,3.81498
476,589,0,0,0,0,0,0,0,0,0,-1,1700,435,0,0
483,589,0,0,0,0,0,0,0,0,0,-1,1707,435,0,0
490,589,0,0,0,0,0,0,0,0,0,-1,1714,435,0,0
497,589,0,0,0,0,0,0,0,0,0,-1,1721,435,0,0
504,589,0,0,0,0,0,0,0,0,0,-1,1728,435,0,0
511,589,0,0,0,0,0,0,0,0,0,-1,1735,435,0,0
518,589,0,0,0,0,0,0,0,0,0,-1,1742,435,0,0
525,589,0,0,0,0,0,0,0,0,0,-1,1749,435,0,0
532,589,0,0,0,0,0,0,0,0,0,-1,1756,435,0,0
539,589,0,0,0,0,0,0,0,0,0,-1,1763,435,0,0
546,589,0,0,0,0,0,0,0,0,0,-1,1770,435,0,0
553,589,0,0,0,0,0,0,0,0,0,-1,1777,435,0,0
560,589,0,0,0,0,0,0,0,0,0,-1,1784,435,0,0
567,589,0,0,0,0,0,0,0,0,0,-1,1791,435,0,0
574,589,0,0,0,0,0,0,0,0,0,-1,1798,435,0,0
581,589,0,0,0,0,0,0,0,0,0,-1,1805,435,0,0
588,589,0,0,0,0,0,0,0,0,0,-1,1812,435,0,0
595,589,0,0,0,0,0,0,0,0,0,-1,1819,435,0,0
602,589,0,0,0,0,0,0,0,0,0,-1,1826,435,0,0
609,589,0,0,0,0,0,0,0,0,0,-1,1833,435,0,0
616,589,0,0,0,0,0,0,0,0,0,-1,1840,435,0,0
623,589,0,0,0,0,0,0,0,0,0,-1,1847,435,0,0
630,589,0,0,0,0,0,0,0,0,0,-1,1854,435,0,0
637,589,0,0,0,0,0,0,0,0,0,-1,1861,435,0,0
644,589,0,0,0,0,0,0,0,0,0,-1,1868,435,0,0
651,589,0,0,0,0,0,0,0,0,0,-1,1875,435,0,0
658,589,0,0,0,0,0,0,0,0,0,-1,1882,435,0,0
665,589,0,0,0,0,0,0,0,0,0,-1,1889,435,0,0
672,589,0,0,0,0,0,0,0,0,0,-1,1896,435,0,0
679,589,0,0,0,0,0,0,0,0,0,-1,1903,435,0,0
686,589,0,0,0,0,0,0,0,0,0,-1,1910,435,0,0
693,589,0,0,0,0,0,0,0,0,0,-1,1917,435,0,0
700,589,0,0,0,0,0,0,0,0,0,-1,1924,435,0,0
707,589,0,0,0,0,0,0,0,0,0,-1,1931,435,0,0
714,589,0,0,0,0,0,0,0,0,0,-1,1938,435,0,0
721,589,0,0,0,0,0,0,0,0,0,-1,1945,435,0,0
728,589,0,0,0,0,0,0,0,0,0,-1,1952,435,0,0
735,589,0,0,0,0,0,0,0,0,0,-1,1959,435,0,0
742,589,0,0,0,0,0,0,0,0,0,-1,1966,435,0,0
749,589,0,0,0,0,0,0,0,0,0,-1,1973,435,0,0
756,589,0,0,0,0,0,0,0,0,0,-1,1980,435,0,0
763,589,0,0,0,0,0,0,0,0,0,-1,1987,435,0,0
770,589,0,0,0,0,0,0,0,0,0,-1,1994,435,0,0
777,589,0,0,0,0,0,0,0,0,0,-1,2001,435,0,0
784,589,0,0,0,0,0,0,0,0,0,-1,2008,435,0,0
791,589,0,0,0,0,0,0,0,0,0,-1,2015,435,0,0
798,589,0,0,0,0,0,0,0,0,0,-1,2022,435,0,0
805,589,0,0,0,0,0,0,0,0,0,-1,2029,435,0,0
812,589,0,0,0,0,0,0,0,0,0,-1,2036,435,0,0
-700,582,0,0,0,0,0,0,0,0,0,-1,524,442,0,0
-693,582,0,0,0,0,0,0,0,0,0,-1,531,442,0,0
-686,582,0,0,0,0,0,0,0,0,0,-1,538,442,0,0
-679,582,0,0,0,0,0,0,0,0,0,-1,545,442,0,0
-672,582,0,0,0,0,0,0,0,0,0,-1,552,442,0,0
-665,582,0,0,0,0,0,0,0,0,0,-1,559,442,0,0
-658,582,0,0,0,0,0,0,0,0,0,-1,566,442,0,0
-651,582,0,0,0,0,0,0,0,0,0,-1,573,442,0,0
-644,582,0,0,0,0,0,0,0,0,0,-1,580,442,0,0
-637,582,0,0,0,0,0,0,0,0,0,-1,587,442,0,0
-630,582,0,0,0,0,0,0,0,0,0,-1,594,442,0,0
-623,582,0,0,0,0,0,0,0,0,0,-1,601,442,0,0
-616,582,0,0,0,0,0,0,0,0,0,-1,608,442,0,0
-609,582,0,0,0,0,0,0,0,0,0,-1,615,442,0,0
-602,582,0,0,0,0,0,0,0,0,0,-1,622,442,0,0
-595,582,0,0,0,0,0,0,0,0,0,-1,629,442,0,0
-588,582,0,0,0,0,0,0,0,0,0,-1,636,442,0,0
-581,582,0,0,0,0,0,0,0,0,0,-1,643,442,0,0
-574,582,0,0,0,0,0,0,0,0,0,-1,650,442,0,0
-567,582,0,0,0,0,0,0,0,0,0,-1,657,442,0,0
-560,582,0,0,0,0,0,0,0,0,0,-1,664,442,0,0
-553,582,0,0,0,0,0,0,0,0,0,-1,671,442,0,0
-546,582,0,0,0,0,0,0,0,0,0,-1,678,442,0,0
-539,582,0,0,0,0,0,0,0,0,0,-1,685,442,0,0
-532,582,0,0,0,0,0,0,0,0,0,-1,692,442,0,0
-525,582,0,0,0,0,0,0,0,0,0,-1,699,442,0,0
-518,582,0,0,0,0,0,0,0,0,0,-1,706,442,0,0
-511,582,0,0,0,0,0,0,0,0,0,-1,713,442,0,0
-504,582,0,0,0,0,0,0,0,0,0,-1,720,442,0,0
-497,582,0,0,0,0,0,0,0,0,0,-1,727,442,0,0
-490,582,0,0,0,0,0,0,0,0,0,-1,734,442,0,0
-483,582,0,0,0,0,0,0,0,0,0,-1,741,442,0,0
-476,582,0,0,0,0,0,0,0,0,0,-1,748,442,0,0
-469,582,0,0,0,0,0,0,0,0,0,-1,755,442,0,0
-462,582,0,0,0,0,0,0,0,0,0,-1,762,442,0,0
-455,582,0,0,0,0,0,0,0,0,0,-1,769,442,0,0
-448,582,0,0,0,0,0,0,0,0,0,-1,776,442,0,0
-441,582,0,0,0,0,0,0,0,0,0,-1,783,442,0,0
-434,582,0,0,0,0,0,0,0,0,0,-1,790,442,0,0
-427,582,0,0,0,0,0,0,0,0,0,-1,797,442,0,0
-420,582,0,0,0,0,0,0,0,0,0,-1,804,442,0,0
-413,582,0,0,0,0,0,0,0,0,0,-1,811,442,0,0
-406,582,0,0,0,0,0,0,0,0,0,-1,818,442,0,0
-399,582,0,0,0,0,0,0,0,0,0,-1,825,442,0,0
-392,582,0,0,0,0,0,0,0,0,0,-1,832,442,0,0
-385,582,0,0,0,0,0,0,0,0,0,-1,839,442,0,0
-378,582,0,0,0,0,0,0,0,0,0,-1,846,442,0,0
-371,582,0,0,0,0,0,0,0,0,0,-1,853,442,0,0
-364,582,0,0,0,0,0,0,0,0,0,-1,860,442,0,0
-357,582,-1.4903,-21.5295,0,0,0,0,0,0,0,-1,867,442,-1.49031,21.5295
-350,582,-0.880859,-19.7966,0,0,0,0,0,0,0,-1,874,442,-0.880885,19.7966
-343,582,0.939941,-19.1705,0,0,0,0,0,0,0,-1,881,442,0.939935,19.1705
-336,582,3.33929,-27.9479,0,0,0,0,0,0,0,-1,888,442,3.33928,27.9479
-329,582,3.63544,-26.4736,0,0,0,0,0,0,0,-1,895,442,3.63546,26.4736
-322,582,3.67145,-27.1796,0,0,0,0,0,0,0,-1,902,442,3.67143,27.1796
-315,582,3.90686,-27.6446,0,0,0,0,0,0,0,-1,909,442,3.90689,27.6446
-308,582,4.07587,-33.1895,0,0,0,0,0,0,0,-1,916,442,4.07588,33.1895
-301,582,4.38049,-35.4268,0,0,0,0,0,0,0,-1,923,442,4.38049,35.4268
-294,582,4.34222,-36.0064,0,0,0,0,0,0,0,-1,930,442,4.34222,36.0064
-287,582,4.14185,-36.8698,-0.00577138,0.0124332,-0.00690424,0.0147555,-0.00809363,-1.24633,0.0133775,0.0394203,937,442,4.14183,36.8698
-280,582,4.0462,-37.6557,-0.0040618,0.0113772,-0.00655607,0.0137855,-0.00647013,-1.21876,0.0119461,0.0190458,944,442,4.04619,37.6557
-273,582,4.02789,-38.5189,-0.00277844,0.0107773,-0.0063678,0.0132993,-0.0053005,-1.19369,0.0110647,0.0135436,951,442,4.02791,38.5188
-266,582,3.96381,-39.3168,-0.0020688,0.00975023,-0.00595002,0.0122267,-0.00454529,-1.17639,0.0100161,0.011386,958,442,3.96383,39.3168
-259,582,3.90277,-40.087,-0.0010208,0.00834344,-0.00553512,0.0109111,-0.00358849,-1.13645,0.00871995,0.00853315,965,442,3.90275,40.087
-252,582,3.85364,-40.8658,-0.000439204,0.00763801,-0.00480422,0.00987562,-0.00267682,-1.13491,0.00763409,0.00805847,972,442,3.85363,40.8658
-245,582,3.83636,-41.5859,-0.000179382,0.00670059,-0.00425709,0.00873384,-0.00221263,-1.12522,0.00668333,0.0123597,979,442,3.83636,41.5859
-238,582,3.78009,-42.277,0.000117248,0.00541885,-0.00360233,0.00724058,-0.00170448,-1.10259,0.00548423,0.0161355,986,442,3.78008,42.277
-231,582,3.72595,-42.9915,0.00048339,0.00404828,-0.002886,0.00565791,-0.00112623,-1.06203,0.00419801,0.0127197,993,442,3.72597,42.9915
-224,582,3.68915,-43.7202,0.00076847,0.00267658,-0.00214811,0.00407298,-0.000627925,-0.994382,0.00294701,0.0111547,1000,442,3.68915,43.7202
-217,582,3.64606,-44.4483,0.00105636,0.000979862,-0.00142815,0.00244677,-0.000410549,-0.772011,0.00178385,0.0132318,1007,442,3.64604,44.4483
-210,582,3.62457,-45.1177,0.00135275,-0.000773066,-0.000729211,0.00157884,-0.000999159,-0.300652,0.0015009,0.013723,1014,442,3.62457,45.1177
-203,582,3.61975,-45.7956,0.00165715,-0.00238149,-8.71848e-05,0.00165903,-0.00238337,-0.0215742,0.00234634,0.0112291,1021,442,3.61971,45.7956
-196,582,3.59595,-46.5267,0.00190687,-0.00376499,0.000524759,0.00195501,-0.00381313,0.091485,0.00338734,0.0181081,1028,442,3.5959,46.5267
-189,582,3.54858,-47.1842,0.00213905,-0.0050528,0.00121283,0.00233808,-0.00525182,0.162649,0.00448837,0.0252182,1035,442,3.54861,47.1842
-182,582,3.54907,-47.7764,0.00243827,-0.00670418,0.00211813,0.00290516,-0.00717107,0.216955,0.00598878,0.0166508,1042,442,3.54912,47.7764
-175,582,3.53455,-48.3719,0.00269503,-0.00787206,0.0028933,0.00343536,-0.00861239,0.250501,0.00716664,0.0142109,1049,442,3.53455,48.372
-168,582,3.54565,-49.0295,0.00281862,-0.00901151,0.00365933,0.00385904,-0.0100519,0.277008,0.00829254,0.0126711,1056,442,3.54568,49.0296
-161,582,3.55835,-49.638,0.00292684,-0.0100877,0.00455593,0.00436318,-0.0115241,0.305405,0.00947801,0.014261,1063,442,3.5584,49.638
-154,582,3.55115,-50.2411,0.00312776,-0.0110703,0.0054971,0.00500728,-0.0129498,0.32945,0.0107002,0.0131198,1070,442,3.55115,50.2411
-147,582,3.5564,-50.8265,0.00337884,-0.01184,0.00645402,0.00574727,-0.0142084,0.351713,0.0118616,0.0125559,1077,442,3.55639,50.8265
-140,582,3.55432,-51.3697,0.00358784,-0.0128738,0.00748888,0.00648491,-0.0157708,0.369118,0.0132169,0.0145619,1084,442,3.55431,51.3697
-133,582,3.6145,-51.9496,0.00376783,-0.0136905,0.00842032,0.00716714,-0.0170899,0.383695,0.0143901,0.0199321,1091,442,3.61449,51.9496
-126,582,3.63599,-52.396,0.00416965,-0.0140134,0.00901854,0.00788398,-0.0177277,0.390684,0.0151466,0.0190397,1098,442,3.63599,52.396
-119,582,3.55872,-52.9538,0.0047393,-0.0143816,0.00953222,0.00867943,-0.0183217,0.391961,0.015917,0.0482769,1105,442,3.55866,52.9538
-112,582,3.47888,-53.7394,0,0,0,0,0,0,0,-1,1112,442,3.47883,53.7394
-105,582,2.87219,-43.073,0,0,0,0,0,0,0,-1,1119,442,2.87217,43.073
-98,582,2.61938,-32.8673,0,0,0,0,0,0,0,-1,1126,442,2.61944,32.8673
-91,582,2.16492,-24.1119,0,0,0,0,0,0,0,-1,1133,442,2.16496,24.1119
-84,582,2.10278,-16.7533,0,0,0,0,0,0,0,-1,1140,442,2.10279,16.7533
-77,582,2.30212,-11.4907,0,0,0,0,0,0,0,-1,1147,442,2.30207,11.4907
-70,582,1.49255,-6.36548,0,0,0,0,0,0,0,-1,1154,442,1.49251,6.36549
-63,582,-4.62915,-4.0347,0,0,0,0,0,0,0,-1,1161,442,-4.6292,4.03471
-56,582,-5.81714,-5.24149,0,0,0,0,0,0,0,-1,1168,442,-5.81718,5.24149
-49,582,-3.88672,-10.1064,0,0,0,0,0,0,0,-1,1175,442,-3.88678,10.1064
-42,582,-0.948975,1.13968,0,0,0,0,0,0,0,-1,1182,442,-0.949003,-1.13969
-35,582,-2.58435,-3.86911,0,0,0,0,0,0,0,-1,1189,442,-2.58437,3.86912
-28,582,-0.825317,-3.45941,0,0,0,0,0,0,0,-1,1196,442,-0.825377,3.45942
-21,582,4.96826,-53.577,0,0,0,0,0,0,0,-1,1203,442,4.96832,53.577
-14,582,5.58142,-53.9977,0,0,0,0,0,0,0,-1,1210,442,5.58147,53.9977
-7,582,6.19458,-54.4184,0,0,0,0,0,0,0,-1,1217,442,6.19462,54.4184
0,582,5.99878,-56.3393,0,0,0,0,0,0,0,-1,1224,442,5.99877,56.3393
7,582,9.36047,-58.7735,0,0,0,0,0,0,0,-1,1231,442,9.36051,58.7735
14,582,9.45166,-58.6591,0.0186229,0.0167388,0.011249,0.0289692,0.00639242,0.743623,0.0175739,0.0461374,1238,442,9.4517,58.6591
21,582,8.70984,-58.8501,0.0126828,0.0109507,0.0117453,0.0235939,3.96157e-05,0.748597,0.0157161,0.0447022,1245,442,8.7098,58.8501
28,582,7.87122,-59.1123,0.00810461,0.00532479,0.0140391,0.0208224,-0.00739301,0.736058,0.016894,0.0461284,1252,442,7.87121,59.1123
35,582,7.45776,-59.2366,0.00792906,-0.0013052,0.0118707,0.016049,-0.00942511,0.599926,0.0148723,0.0460344,1259,442,7.45771,59.2366
42,582,7.56714,-59.4532,0.00512983,-0.00860519,0.00820389,0.00896122,-0.0124366,0.436918,0.0124082,0.0447855,1266,442,7.56712,59.4532
49,582,6.90637,-59.2003,0.00387892,-0.0146382,0.0030584,0.00437099,-0.0151302,0.159524,0.0118164,0.046179,1273,442,6.90639,59.2003
56,582,7.12378,-58.6761,0.00412784,-0.0217379,-0.00516134,0.00511972,-0.0227298,-0.189859,0.0171169,0.0448137,1280,442,7.12379,58.6762
63,582,6.1969,-58.3854,0.00633298,-0.0274216,-0.0136915,0.0111881,-0.0322768,-0.340777,0.0260605,0.0446155,1287,442,6.19695,58.3854
70,582,6.0437,-58.4531,0.0103836,-0.0323783,-0.0232441,0.0205848,-0.0425796,-0.413563,0.0371977,0.0452894,1294,442,6.04374,58.4531
77,582,4.87634,-57.8528,0.0147778,-0.0354927,-0.0345642,0.0323798,-0.0530946,-0.471022,0.0498294,0.0429304,1301,442,4.87637,57.8528
84,582,3.60364,-57.4936,0.0198292,-0.037983,-0.0451555,0.0445382,-0.062692,-0.50069,0.0622044,0.0423382,1308,442,3.60359,57.4936
91,582,4.33667,-60.0065,0.0239865,-0.0399948,-0.0547351,0.0553941,-0.0714024,-0.52094,0.0734002,0.0439146,1315,442,4.33667,60.0065
98,582,4.1405,-60.5091,0.0270409,-0.0404855,-0.0630988,0.0648417,-0.0782863,-0.539738,0.0827565,0.0433331,1322,442,4.14044,60.5091
105,582,3.00525,-60.8948,0,0,0,0,0,0,0,-1,1329,442,3.0053,60.8948
112,582,2.19226,-61.9155,0,0,0,0,0,0,0,-1,1336,442,2.19232,61.9155
119,582,1.19324,-62.0116,0,0,0,0,0,0,0,-1,1343,442,1.19321,62.0116
126,582,1.80225,-55.3164,0,0,0,0,0,0,0,-1,1350,442,1.80222,55.3164
133,582,1.17834,-55.627,0,0,0,0,0,0,0,-1,1357,442,1.17833,55.6271
140,582,0.46167,-55.7964,0,0,0,0,0,0,0,-1,1364,442,0.461716,55.7964
147,582,-0.181519,-55.8953,0,0,0,0,0,0,0,-1,1371,442,-0.181508,55.8953
154,582,3.85791,-70.96,0,0,0,0,0,0,0,-1,1378,442,3.85786,70.9599
161,582,3.60242,-72.0464,0,0,0,0,0,0,0,-1,1385,442,3.60244,72.0464
168,582,0.081665,-40.4535,0,0,0,0,0,0,0,-1,1392,442,0.0816215,40.4535
175,582,6.50549,-2.00424,0,0,0,0,0,0,0,-1,1399,442,6.50546,2.00425
182,582,5.18958,-2.18652,0,0,0,0,0,0,0,-1,1406,442,5.1896,2.18652
189,582,6.19751,-0.880951,0,0,0,0,0,0,0,-1,1413,442,6.19754,0.88096
196,582,4.87354,-2.22327,0,0,0,0,0,0,0,-1,1420,442,4.87348,2.22325
203,582,3.11401,-4.48257,0,0,0,0,0,0,0,-1,1427,442,3.11404,4.48259
210,582,2.93115,-11.0731,0,0,0,0,0,0,0,-1,1434,442,2.93113,11.0731
217,582,4.94092,-16.5476,0,0,0,0,0,0,0,-1,1441,442,4.94087,16.5476
224,582,5.21008,-20.9908,0,0,0,0,0,0,0,-1,1448,442,5.21006,20.9908
231,582,5.70032,-25.622,0,0,0,0,0,0,0,-1,1455,442,5.70026,25.6221
238,582,6.44189,-30.7028,0,0,0,0,0,0,0,-1,1462,442,6.44195,30.7028
245,582,10.0378,-45.1569,0,0,0,0,0,0,0,-1,1469,442,10.0379,45.1568
252,582,11.0157,-52.5542,0,0,0,0,0,0,0,-1,1476,442,11.0158,52.5542
259,582,10.998,-51.8367,0.00667487,-0.00978314,-0.00356522,0.00741399,-0.0105223,-0.204419,0.0104072,0.0297317,1483,442,10.998,51.8367
266,582,11.0359,-51.1996,0.00603462,-0.0101078,-0.00360152,0.0068017,-0.0108749,-0.209852,0.0102955,0.0125776,1490,442,11.0359,51.1996
273,582,11.0601,-50.6406,0.00540963,-0.0100498,-0.00345883,0.00614821,-0.0107883,-0.210375,0.00989989,0.0111402,1497,442,11.0601,50.6406
280,582,11.0485,-50.0507,0.00504935,-0.00989804,-0.00323584,0.00571978,-0.0105685,-0.204299,0.0095419,0.0120056,1504,442,11.0485,50.0507
287,582,11.0679,-49.4162,0.0046671,-0.00945702,-0.00308337,0.00531087,-0.0101008,-0.205832,0.00904004,0.0112105,1511,442,11.0679,49.4162
294,582,11.0747,-48.769,0.00418604,-0.00883984,-0.00278925,0.00475818,-0.00941197,-0.202316,0.00832691,0.00934802,1518,442,11.0747,48.769
301,582,11.0614,-48.0981,0.0037375,-0.00800152,-0.00240976,0.00421292,-0.00847694,-0.194787,0.00746309,0.0108495,1525,442,11.0613,48.0981
308,582,11.0503,-47.4301,0.0033521,-0.00689344,-0.00197878,0.00372099,-0.00726233,-0.184308,0.00645016,0.0137073,1532,442,11.0503,47.4301
315,582,11.0387,-46.7816,0.00294556,-0.00562665,-0.00148802,0.00319652,-0.0058776,-0.167077,0.00531462,0.0124899,1539,442,11.0387,46.7816
322,582,11.0338,-46.0973,0.00250035,-0.00410072,-0.000884272,0.00261675,-0.00421712,-0.130885,0.00398144,0.00961822,1546,442,11.0338,46.0973
329,582,11.0016,-45.4356,0.00209669,-0.00254333,-0.00019851,0.00210517,-0.00255181,-0.0426782,0.00269283,0.0106304,1553,442,11.0016,45.4356
336,582,10.9705,-44.7482,0.00170291,-0.000803721,0.000577242,0.00182945,-0.000930263,0.215805,0.00162127,0.0117508,1560,442,10.9705,44.7482
343,582,10.9368,-44.024,0.00128996,0.00116988,0.00145668,0.00268784,-0.000228001,0.764801,0.00187252,0.01377,1567,442,10.9367,44.0241
350,582,10.8986,-43.3025,0.00100535,0.00329684,0.00241258,0.00482192,-0.000519725,1.00708,0.00340112,0.0164788,1574,442,10.8985,43.3025
357,582,10.8895,-42.5683,0.000718543,0.00535784,0.00335814,0.0071196,-0.00104321,1.08765,0.00512962,0.0142515,1581,442,10.8895,42.5683
364,582,10.8538,-41.8513,0.000434942,0.00727857,0.0043031,0.00935453,-0.00164102,1.1213,0.0068492,0.0115892,1588,442,10.8537,41.8513
371,582,10.8046,-41.1306,0.000251865,0.00924249,0.00528132,0.0116826,-0.00218825,1.13799,0.00861101,0.0159948,1595,442,10.8045,41.1306
378,582,10.736,-40.3766,5.05804e-05,0.0111629,0.00615515,0.0138987,-0.00268523,1.15255,0.0102785,0.0169901,1602,442,10.736,40.3766
385,582,10.6791,-39.6119,-0.000113301,0.0126893,0.00674245,0.0155852,-0.00300916,1.16512,0.0115249,0.0121316,1609,442,10.6791,39.6119
392,582,10.6329,-38.836,-0.00012897,0.0138867,0.00719296,0.0169212,-0.00316347,1.17158,0.0124697,0.0110544,1616,442,10.6329,38.836
399,582,10.5787,-38.0839,-0.000116603,0.0147315,0.00792215,0.0181646,-0.00354967,1.16187,0.01345,0.0189146,1623,442,10.5788,38.0839
406,582,10.5323,-37.2073,-0.000273395,0.0160357,0.00902034,0.0200411,-0.00427874,1.15291,0.0149919,0.0343191,1630,442,10.5323,37.2073
413,582,10.498,-36.3018,0,0,0,0,0,0,0,-1,1637,442,10.4981,36.3018
420,582,10.3586,-35.6356,0,0,0,0,0,0,0,-1,1644,442,10.3586,35.6356
427,582,10.1443,-34.7979,0,0,0,0,0,0,0,-1,1651,442,10.1442,34.798
434,582,9.96497,-34.1365,0,0,0,0,0,0,0,-1,1658,442,9.96499,34.1365
441,582,10.3073,-32.8766,0,0,0,0,0,0,0,-1,1665,442,10.3072,32.8766
448,582,10.0519,-31.8645,0,0,0,0,0,0,0,-1,1672,442,10.0519,31.8645
455,582,6.4585,-19.4734,0,0,0,0,0,0,0,-1,1679,442,6.45854,19.4734
462,582,5.35022,-19.2616,0,0,0,0,0,0,0,-1,1686,442,5.35025,19.2616
469,582,6.28601,-21.5695,0,0,0,0,0,0,0,-1,1693,442,6.28597,21.5695
476,582,1.93579,-8.53891,0,0,0,0,0,0,0,-1,1700,442,1.93579,8.53892
483,582,0,0,0,0,0,0,0,0,0,-1,1707,442,0,0
490,582,0,0,0,0,0,0,0,0,0,-1,1714,442,0,0
497,582,0,0,0,0,0,0,0,0,0,-1,1721,442,0,0
504,582,0,0,0,0,0,0,0,0,0,-1,1728,442,0,0
511,582,0,0,0,0,0,0,0,0,0,-1,1735,442,0,0
518,582,0,0,0,0,0,0,0,0,0,-1,1742,442,0,0
525,582,0,0,0,0,0,0,0,0,0,-1,1749,442,0,0
532,582,0,0,0,0,0,0,0,0,0,-1,1756,442,0,0
539,582,0,0,0,0,0,0,0,0,0,-1,1763,442,0,0
546,582,0,0,0,0,0,0,0,0,0,-1,1770,442,0,0
553,582,0,0,0,0,0,0,0,0,0,-1,1777,442,0,0
560,582,0,0,0,0,0,0,0,0,0,-1,1784,442,0,0
567,582,0,0,0,0,0,0,0,0,0,-1,1791,442,0,0
574,582,0,0,0,0,0,0,0,0,0,-1,1798,442,0,0
581,582,0,0,0,0,0,0,0,0,0,-1,1805,442,0,0
588,582,0,0,0,0,0,0,0,0,0,-1,1812,442,0,0
595,582,0,0,0,0,0,0,0,0,0,-1,1819,442,0,0
602,582,0,0,0,0,0,0,0,0,0,-1,1826,442,0,0
609,582,0,0,0,0,0,0,0,0,0,-1,1833,442,0,0
616,582,0,0,0,0,0,0,0,0,0,-1,1840,442,0,0
623,582,0,0,0,0,0,0,0,0,0,-1,1847,442,0,0
630,582,0,0,0,0,0,0,0,0,0,-1,1854,442,0,0
637,582,0,0,0,0,0,0,0,0,0,-1,1861,442,0,0
644,582,0,0,0,0,0,0,0,0,0,-1,1868,442,0,0
651,582,0,0,0,0,0,0,0,0,0,-1,1875,442,0,0
658,582,0,0,0,0,0,0,0,0,0,-1,1882,442,0,0
665,582,0,0,0,0,0,0,0,0,0,-1,1889,442,0,0
672,582,0,0,0,0,0,0,0,0,0,-1,1896,442,0,0
679,582,0,0,0,0,0,0,0,0,0,-1,1903,442,0,0
686,582,0,0,0,0,0,0,0,0,0,-1,1910,442,0,0
693,582,0,0,0,0,0,0,0,0,0,-1,1917,442,0,0
700,582,0,0,0,0,0,0,0,0,0,-1,1924,442,0,0
707,582,0,0,0,0,0,0,0,0,0,-1,1931,442,0,0
714,582,0,0,0,0,0,0,0,0,0,-1,1938,442,0,0
721,582,0,0,0,0,0,0,0,0,0,-1,1945,442,0,0
728,582,0,0,0,0,0,0,0,0,0,-1,1952,442,0,0
735,582,0,0,0,0,0,0,0,0,0,-1,1959,442,0,0
742,582,0,0,0,0,0,0,0,0,0,-1,1966,442,0,0
749,582,0,0,0,0,0,0,0,0,0,-1,1973,442,0,0
756,582,0,0,0,0,0,0,0,0,0,-1,1980,442,0,0
763,582,0,0,0,0,0,0,0,0,0,-1,1987,442,0,0
770,582,0,0,0,0,0,0,0,0,0,-1,1994,442,0,0
777,582,0,0,0,0,0,0,0,0,0,-1,2001,442,0,0
784,582,0,0,0,0,0,0,0,0,0,-1,2008,442,0,0
791,582,0,0,0,0,0,0,0,0,0,-1,2015,442,0,0
798,582,0,0,0,0,0,0,0,0,0,-1,2022,442,0,0
805,582,0,0,0,0,0,0,0,0,0,-1,2029,442,0,0
812,582,0,0,0,0,0,0,0,0,0,-1,2036,442,0,0
-700,575,0,0,0,0,0,0,0,0,0,-1,524,449,0,0
-693,575,0,0,0,0,0,0,0,0,0,-1,531,449,0,0
-686,575,0,0,0,0,0,0,0,0,0,-1,538,449,0,0
-679,575,0,0,0,0,0,0,0,0,0,-1,545,449,0,0
-672,575,0,0,0,0,0,0,0,0,0,-1,552,449,0,0
-665,575,0,0,0,0,0,0,0,0,0,-1,559,449,0,0
-658,575,0,0,0,0,0,0,0,0,0,-1,566,449,0,0
-651,575,0,0,0,0,0,0,0,0,0,-1,573,449,0,0
-644,575,0,0,0,0,0,0,0,0,0,-1,580,449,0,0
-637,575,0,0,0,0,0,0,0,0,0,-1,587,449,0,0
-630,575,0,0,0,0,0,0,0,0,0,-1,594,449,0,0
-623,575,0,0,0,0,0,0,0,0,0,-1,601,449,0,0
-616,575,0,0,0,0,0,0,0,0,0,-1,608,449,0,0
-609,575,0,0,0,0,0,0,0,0,0,-1,615,449,0,0
-602,575,0,0,0,0,0,0,0,0,0,-1,622,449,0,0
-595,575,0,0,0,0,0,0,0,0,0,-1,629,449,0,0
-588,575,0,0,0,0,0,0,0,0,0,-1,636,449,0,0
-581,575,0,0,0,0,0,0,0,0,0,-1,643,449,0,0
-574,575,0,0,0,0,0,0,0,0,0,-1,650,449,0,0
-567,575,0,0,0,0,0,0,0,0,0,-1,657,449,0,0
-560,575,0,0,0,0,0,0,0,0,0,-1,664,449,0,0
-553,575,0,0,0,0,0,0,0,0,0,-1,671,449,0,0
-546,575,0,0,0,0,0,0,0,0,0,-1,678,449,0,0
-539,575,0,0,0,0,0,0,0,0,0,-1,685,449,0,0
-532,575,0,0,0,0,0,0,0,0,0,-1,692,449,0,0
-525,575,0,0,0,0,0,0,0,0,0,-1,699,449,0,0
-518,575,0,0,0,0,0,0,0,0,0,-1,706,449,0,0
-511,575,0,0,0,0,0,0,0,0,0,-1,713,449,0,0
-504,575,0,0,0,0,0,0,0,0,0,-1,720,449,0,0
-497,575,0,0,0,0,0,0,0,0,0,-1,727,449,0,0
-490,575,0,0,0,0,0,0,0,0,0,-1,734,449,0,0
-483,575,0,0,0,0,0,0,0,0,0,-1,741,449,0,0
-476,575,0,0,0,0,0,0,0,0,0,-1,748,449,0,0
-469,575,0,0,0,0,0,0,0,0,0,-1,755,449,0,0
-462,575,0,0,0,0,0,0,0,0,0,-1,762,449,0,0
-455,575,0,0,0,0,0,0,0,0,0,-1,769,449,0,0
-448,575,0,0,0,0,0,0,0,0,0,-1,776,449,0,0
-441,575,0,0,0,0,0,0,0,0,0,-1,783,449,0,0
-434,575,0,0,0,0,0,0,0,0,0,-1,790,449,0,0
-427,575,0,0,0,0,0,0,0,0,0,-1,797,449,0,0
-420,575,0,0,0,0,0,0,0,0,0,-1,804,449,0,0
-413,575,0,0,0,0,0,0,0,0,0,-1,811,449,0,0
-406,575,0,0,0,0,0,0,0,0,0,-1,818,449,0,0
-399,575,0,0,0,0,0,0,0,0,0,-1,825,449,0,0
-392,575,0,0,0,0,0,0,0,0,0,-1,832,449,0,0
-385,575,0,0,0,0,0,0,0,0,0,-1,839,449,0,0
-378,575,0,0,0,0,0,0,0,0,0,-1,846,449,0,0
-371,575,0.56897,-3.52304,0,0,0,0,0,0,0,-1,853,449,0.568955,3.52306
-364,575,1.49805,-4.67191,0,0,0,0,0,0,0,-1,860,449,1.49803,4.6719
-357,575,3.15521,-8.29892,0,0,0,0,0,0,0,-1,867,449,3.15521,8.29891
-350,575,-0.825928,-18.5347,0,0,0,0,0,0,0,-1,874,449,-0.825948,18.5347
-343,575,0.465393,-16.3569,0,0,0,0,0,0,0,-1,881,449,0.465397,16.3569
-336,575,3.1994,-17.5725,0,0,0,0,0,0,0,-1,888,449,3.19941,17.5725
-329,575,2.81946,-29.1576,0,0,0,0,0,0,0,-1,895,449,2.81945,29.1576
-322,575,4.28943,-27.9487,0,0,0,0,0,0,0,-1,902,449,4.28944,27.9487
-315,575,5.09296,-32.5668,0,0,0,0,0,0,0,-1,909,449,5.09298,32.5668
-308,575,3.44025,-34.7898,0,0,0,0,0,0,0,-1,916,449,3.44022,34.7898
-301,575,3.60077,-35.4749,-0.00876464,0.0136817,-0.00613268,0.015248,-0.0103309,-1.32075,0.0148586,0.0410775,923,449,3.60077,35.4749
-294,575,3.54834,-36.1053,-0.00665825,0.0115867,-0.00576911,0.0132579,-0.00832939,-1.28884,0.0125712,0.0268417,930,449,3.54837,36.1053
-287,575,3.42352,-36.9323,-0.00500335,0.010013,-0.00540813,0.011758,-0.00674831,-1.25869,0.0108143,0.0179354,937,449,3.42352,36.9323
-280,575,3.37146,-37.7454,-0.00354937,0.00888914,-0.00508098,0.0107008,-0.00536102,-1.22829,0.00944257,0.0131462,944,449,3.37148,37.7454
-273,575,3.32251,-38.5388,-0.00239896,0.00815159,-0.00486323,0.0100512,-0.00429861,-1.19841,0.0085039,0.0120038,951,449,3.32253,38.5388
-266,575,3.2644,-39.3018,-0.001683,0.00699333,-0.0044487,0.00886891,-0.00355858,-1.17181,0.00739014,0.0130645,958,449,3.2644,39.3018
-259,575,3.19165,-40.0545,-0.000669753,0.00543809,-0.0040228,0.00743484,-0.00266651,-1.11006,0.00604473,0.0126057,965,449,3.19166,40.0545
-252,575,3.12183,-40.7982,-4.68808e-05,0.00447675,-0.0032822,0.00620099,-0.00177112,-1.08709,0.00483377,0.0124361,972,449,3.1218,40.7982
-245,575,3.08197,-41.5247,0.000299122,0.00333422,-0.00270555,0.00491876,-0.00128542,-1.04099,0.00378119,0.0162926,979,449,3.08196,41.5247
-238,575,3.06158,-42.2265,0.000687131,0.001838,-0.00201625,0.00335933,-0.000834194,-0.924402,0.00256327,0.0149659,986,449,3.06158,42.2265
-231,575,3.01904,-42.9515,0.0011045,0.000184748,-0.00122993,0.00195772,-0.000668468,-0.606493,0.00157595,0.0122225,993,449,3.01906,42.9515
-224,575,2.98157,-43.6724,0.00144006,-0.00145823,-0.000430716,0.00150272,-0.00152089,-0.144452,0.00174569,0.0128844,1000,449,2.98154,43.6724
-217,575,2.98145,-44.3905,0.00178718,-0.0033603,0.00036062,0.00181233,-0.00338544,0.0696044,0.0030464,0.0111676,1007,449,2.98144,44.3905
-210,575,2.97461,-45.091,0.00213042,-0.00530666,0.00110979,0.0022925,-0.00546873,0.145017,0.00460433,0.00971044,1014,449,2.97459,45.091
-203,575,2.97058,-45.7812,0.00247972,-0.00702309,0.00177006,0.00279871,-0.00734209,0.178304,0.0060475,0.0135016,1021,449,2.97059,45.7811
-196,575,2.95935,-46.4832,0.00276023,-0.00844181,0.00237907,0.00324455,-0.00892613,0.200832,0.00727749,0.0194982,1028,449,2.95936,46.4832
-189,575,2.92578,-47.1286,0.00298972,-0.00971802,0.00314055,0.0037235,-0.0104518,0.229528,0.00848585,0.0204758,1035,449,2.92574,47.1286
-182,575,2.87952,-47.7141,0.00329052,-0.0115021,0.00418908,0.00439443,-0.012606,0.257664,0.0101897,0.015973,1042,449,2.87951,47.7141
-175,575,2.88965,-48.3343,0.00355945,-0.0126122,0.00504564,0.00500458,-0.0140573,0.278944,0.0114116,0.0125862,1049,449,2.88959,48.3343
-168,575,2.88452,-48.9666,0.00366665,-0.0137212,0.00588489,0.00547112,-0.0155256,0.297526,0.0125772,0.0122479,1056,449,2.88455,48.9666
-161,575,2.90125,-49.5858,0.00367616,-0.0147812,0.00694304,0.00599626,-0.0171013,0.322496,0.0138396,0.0167575,1063,449,2.90125,49.5858
-154,575,2.92163,-50.1797,0.00384112,-0.0157431,0.00806802,0.00673673,-0.0186388,0.344581,0.0151782,0.0167254,1070,449,2.92157,50.1798
-147,575,2.94751,-50.7269,0.00406775,-0.0164694,0.0092788,0.00763896,-0.0200406,0.367403,0.0165068,0.0150009,1077,449,2.94754,50.7269
-140,575,2.92871,-51.1851,0.00418549,-0.0176294,0.0106885,0.0085495,-0.0219934,0.387631,0.0181945,0.0229968,1084,449,2.92872,51.1851
-133,575,3.03381,-51.5776,0.00422545,-0.0185762,0.0120514,0.0094142,-0.023765,0.406564,0.0197442,0.0386317,1091,449,3.03384,51.5776
-126,575,2.90442,-51.9681,0,0,0,0,0,0,0,-1,1098,449,2.90447,51.9681
-119,575,3.00208,-52.3971,0,0,0,0,0,0,0,-1,1105,449,3.00204,52.3971
-112,575,2.70337,-43.3701,0,0,0,0,0,0,0,-1,1112,449,2.70333,43.3701
-105,575,2.18347,-36.5414,0,0,0,0,0,0,0,-1,1119,449,2.18351,36.5414
-98,575,1.521,-25.6961,0,0,0,0,0,0,0,-1,1126,449,1.52105,25.6961
-91,575,1.60803,-16.4247,0,0,0,0,0,0,0,-1,1133,449,1.60802,16.4247
-84,575,1.16553,-11.9056,0,0,0,0,0,0,0,-1,1140,449,1.16558,11.9056
-77,575,0.205078,-11.2584,0,0,0,0,0,0,0,-1,1147,449,0.205117,11.2584
-70,575,-4.2467,-1.78738,0,0,0,0,0,0,0,-1,1154,449,-4.24674,1.78739
-63,575,-4.52209,-3.48798,0,0,0,0,0,0,0,-1,1161,449,-4.5221,3.48796
-56,575,-5.5968,-5.4928,0,0,0,0,0,0,0,-1,1168,449,-5.59683,5.49281
-49,575,-5.96863,-7.17612,0,0,0,0,0,0,0,-1,1175,449,-5.96868,7.1761
-42,575,-0.830322,0.773499,0,0,0,0,0,0,0,-1,1182,449,-0.83038,-0.77351
-35,575,-0.62085,0.205139,0,0,0,0,0,0,0,-1,1189,449,-0.620855,-0.205126
-28,575,0.49292,-3.87988,0,0,0,0,0,0,0,-1,1196,449,0.492941,3.87989
-21,575,4.30151,-54.3922,0,0,0,0,0,0,0,-1,1203,449,4.30157,54.3922
-14,575,4.69531,-54.6829,0.0378782,0.0488744,0.00779324,0.0529138,0.0338388,1.0926,0.0309436,0.0477157,1210,449,4.69535,54.6828
-7,575,4.78711,-55.6139,0.0378557,0.044307,0.00957353,0.0511837,0.030979,0.947891,0.0297684,0.0436805,1217,449,4.78713,55.6139
0,575,5.19507,-56.3422,0.03698,0.0396764,0.0110483,0.0494585,0.0271979,0.846112,0.0286023,0.0445239,1224,449,5.1951,56.3422
7,575,5.54553,-57.227,0.0329866,0.0337363,0.0125686,0.0459357,0.0207873,0.800306,0.0265608,0.0467856,1231,449,5.54549,57.2269
14,575,5.96289,-57.587,0,0,0,0,0,0,0,-1,1238,449,5.96286,57.587
21,575,6.21021,-57.9234,0.0198221,0.0198779,0.0149564,0.0348065,0.00489353,0.78633,0.0217574,0.0451374,1245,449,6.21017,57.9234
28,575,6.46252,-58.3921,0.014797,0.0134014,0.0185562,0.0326684,-0.00447013,0.766605,0.0234117,0.0430732,1252,449,6.46248,58.3921
35,575,6.75415,-58.9384,0.0158247,0.00585861,0.016822,0.0283862,-0.0067029,0.641405,0.0215095,0.0424885,1259,449,6.75411,58.9385
42,575,7.31738,-59.5087,0.0132176,-0.00247641,0.013546,0.0210253,-0.0102841,0.522873,0.0184276,0.0420619,1266,449,7.31739,59.5087
49,575,6.64563,-59.0408,0,0,0,0,0,0,0,-1,1273,449,6.64569,59.0408
56,575,7.92236,-58.1988,0.0134414,-0.0177151,-0.000753943,0.0134596,-0.0177333,-0.0241797,0.0180655,0.0455042,1280,449,7.92237,58.1988
63,575,6.8833,-57.9071,0.0163555,-0.024498,-0.0102139,0.0187668,-0.0269092,-0.231833,0.0265104,0.0466537,1287,449,6.88331,57.9071
70,575,7.31055,-57.6832,0.0210344,-0.0306755,-0.0213397,0.0287035,-0.0383446,-0.345008,0.0388434,0.0467183,1294,449,7.31057,57.6832
77,575,6.51257,-57.4324,0,0,0,0,0,0,0,-1,1301,449,6.51258,57.4324
84,575,7.63489,-57.687,0.0310303,-0.0385651,-0.0483761,0.0558239,-0.0633588,-0.473612,0.068856,0.0485408,1308,449,7.63494,57.687
91,575,7.47729,-57.835,0.0351147,-0.0415275,-0.0606413,0.0685284,-0.0749411,-0.503614,0.0828597,0.0477672,1315,449,7.47728,57.8349
98,575,5.89368,-60.3129,0,0,0,0,0,0,0,-1,1322,449,5.89367,60.3129
105,575,4.4314,-62.0078,0.0411489,-0.0416925,-0.0780618,0.0880986,-0.0886421,-0.541479,0.102041,0.0481583,1329,449,4.43143,62.0077
112,575,3.47559,-62.0134,0,0,0,0,0,0,0,-1,1336,449,3.47553,62.0134
119,575,2.47925,-62.0277,0,0,0,0,0,0,0,-1,1343,449,2.47921,62.0277
126,575,1.77966,-55.4232,0,0,0,0,0,0,0,-1,1350,449,1.77963,55.4233
133,575,1.63037,-55.0302,0,0,0,0,0,0,0,-1,1357,449,1.63034,55.0302
140,575,0.543457,-56.0284,0,0,0,0,0,0,0,-1,1364,449,0.543517,56.0284
147,575,-8.00549,-58.4072,0,0,0,0,0,0,0,-1,1371,449,-8.00554,58.4072
154,575,3.6582,-70.3721,0,0,0,0,0,0,0,-1,1378,449,3.6582,70.3722
161,575,12.8262,-51.4623,0,0,0,0,0,0,0,-1,1385,449,12.8262,51.4623
168,575,7.5509,-35.3165,0,0,0,0,0,0,0,-1,1392,449,7.5509,35.3165
175,575,4.32617,1.93634,0,0,0,0,0,0,0,-1,1399,449,4.32612,-1.93634
182,575,6.3147,-2.88345,0,0,0,0,0,0,0,-1,1406,449,6.31466,2.88346
189,575,6.10449,-1.30817,0,0,0,0,0,0,0,-1,1413,449,6.10455,1.30817
196,575,5.79895,0.818359,0,0,0,0,0,0,0,-1,1420,449,5.79895,-0.81837
203,575,3.29724,-1.46378,0,0,0,0,0,0,0,-1,1427,449,3.29722,1.46377
210,575,2.32739,-7.74503,0,0,0,0,0,0,0,-1,1434,449,2.32741,7.74502
217,575,3.33618,-11.5521,0,0,0,0,0,0,0,-1,1441,449,3.3362,11.5521
224,575,5.51709,-16.3903,0,0,0,0,0,0,0,-1,1448,449,5.51713,16.3903
231,575,5.48572,-20.4595,0,0,0,0,0,0,0,-1,1455,449,5.48571,20.4595
238,575,5.33484,-22.3575,0,0,0,0,0,0,0,-1,1462,449,5.33478,22.3575
245,575,5.59741,-23.513,0,0,0,0,0,0,0,-1,1469,449,5.5974,23.513
252,575,10.5602,-44.9309,0,0,0,0,0,0,0,-1,1476,449,10.5602,44.9309
259,575,11.5171,-51.5841,0,0,0,0,0,0,0,-1,1483,449,11.5171,51.5841
266,575,11.6139,-51.0313,0.00786399,-0.0140117,-0.00482176,0.00887964,-0.0150273,-0.207603,0.013954,0.0337047,1490,449,11.6139,51.0312
273,575,11.6661,-50.5572,0.00708259,-0.0143292,-0.0048434,0.00812721,-0.0153738,-0.212426,0.0137817,0.0203713,1497,449,11.6661,50.5572
280,575,11.6879,-49.9685,0.00669152,-0.0145714,-0.00479087,0.00772113,-0.015601,-0.211689,0.0137188,0.0159638,1504,449,11.6878,49.9685
287,575,11.7008,-49.3661,0.00619289,-0.0143966,-0.00487242,0.00728772,-0.0154914,-0.221027,0.0134328,0.0133608,1511,449,11.7008,49.3661
294,575,11.7292,-48.7357,0.00553741,-0.0140208,-0.00474461,0.00662763,-0.015111,-0.22586,0.0128654,0.0110355,1518,449,11.7292,48.7357
301,575,11.7393,-48.0864,0.00493042,-0.0133235,-0.00449857,0.00597885,-0.0143719,-0.228971,0.012078,0.010278,1525,449,11.7392,48.0864
308,575,11.7448,-47.4176,0.00438671,-0.0122494,-0.00417861,0.0053773,-0.01324,-0.232765,0.0110636,0.0108268,1532,449,11.7448,47.4176
315,575,11.722,-46.7702,0.00383848,-0.0109204,-0.00375204,0.00473755,-0.0118195,-0.23519,0.0098464,0.0105022,1539,449,11.7221,46.7702
322,575,11.7146,-46.0898,0.00327423,-0.00926232,-0.00316797,0.00402929,-0.0100174,-0.233978,0.00835188,0.00967484,1546,449,11.7146,46.0897
329,575,11.687,-45.4056,0.00275159,-0.00750602,-0.0024763,0.00331811,-0.00807253,-0.224905,0.00676465,0.0113404,1553,449,11.687,45.4056
336,575,11.6635,-44.7052,0.00223201,-0.00557495,-0.00170805,0.00258935,-0.00593229,-0.206235,0.00504458,0.0132188,1560,449,11.6635,44.7052
343,575,11.6586,-43.9803,0.00171741,-0.00340038,-0.000799941,0.00183953,-0.00352251,-0.151493,0.00314619,0.0131227,1567,449,11.6585,43.9803
350,575,11.6193,-43.26,0.00137415,-0.0010739,0.000202738,0.00139083,-0.00109058,0.0820708,0.00143613,0.0121197,1574,449,11.6193,43.26
357,575,11.5858,-42.544,0.00104314,0.00124937,0.00118329,0.00233403,-4.15203e-05,0.828858,0.00157004,0.0114497,1581,449,11.5858,42.544
364,575,11.5692,-41.835,0.000721762,0.00338338,0.00220741,0.00463011,-0.000524968,1.05667,0.00327578,0.0114851,1588,449,11.5693,41.835
371,575,11.5339,-41.1088,0.000499055,0.00535992,0.00319976,0.00694763,-0.00108866,1.1102,0.00503403,0.0204462,1595,449,11.5339,41.1088
378,575,11.4888,-40.3637,0.000286815,0.0072232,0.00404605,0.00908406,-0.00157405,1.13972,0.00664318,0.0190821,1602,449,11.4888,40.3637
385,575,11.421,-39.5833,6.93384e-05,0.0087235,0.00464024,0.0107411,-0.0019483,1.16064,0.00789078,0.0119315,1609,449,11.4211,39.5833
392,575,11.3728,-38.8359,3.86734e-05,0.00983535,0.00513688,0.012035,-0.00216097,1.16621,0.00883221,0.0103727,1616,449,11.3727,38.8359
399,575,11.3058,-38.1139,4.04204e-05,0.0106195,0.005802,0.0131813,-0.0025213,1.15501,0.00973736,0.011234,1623,449,11.3058,38.1139
406,575,11.2588,-37.299,-0.000137686,0.0117519,0.00674041,0.0147945,-0.00318032,1.14678,0.0110764,0.0125739,1630,449,11.2588,37.299
413,575,11.205,-36.4947,-0.000475011,0.0122758,0.00702423,0.0153865,-0.00358567,1.15391,0.0116385,0.0144696,1637,449,11.2049,36.4947
420,575,11.1449,-35.6769,-0.000764894,0.0125378,0.00773345,0.0160868,-0.00431387,1.14056,0.0124149,0.0145391,1644,449,11.1449,35.6769
427,575,11.0577,-34.8127,-0.00112665,0.0124692,0.00888395,0.0168577,-0.00551515,1.11197,0.0134589,0.0184787,1651,449,11.0577,34.8127
434,575,10.9261,-34.1052,-0.00152531,0.0126086,0.0100114,0.017796,-0.00671277,1.09273,0.0146245,0.0297023,1658,449,10.9262,34.1052
441,575,11.0171,-33.4554,0,0,0,0,0,0,0,-1,1665,449,11.0171,33.4554
448,575,11.4283,-32.438,0,0,0,0,0,0,0,-1,1672,449,11.4284,32.438
455,575,11.2101,-31.3509,0,0,0,0,0,0,0,-1,1679,449,11.21,31.3509
462,575,7.12781,-21.7179,0,0,0,0,0,0,0,-1,1686,449,7.12778,21.7178
469,575,10.1736,-30.1585,0,0,0,0,0,0,0,-1,1693,449,10.1736,30.1585
476,575,9.43701,-26.9697,0,0,0,0,0,0,0,-1,1700,449,9.43705,26.9697
483,575,8.9624,-26.4681,0,0,0,0,0,0,0,-1,1707,449,8.96243,26.4681
490,575,7.42871,-25.5027,0,0,0,0,0,0,0,-1,1714,449,7.42869,25.5027
497,575,0,0,0,0,0,0,0,0,0,-1,1721,449,0,0
504,575,0,0,0,0,0,0,0,0,0,-1,1728,449,0,0
511,575,0,0,0,0,0,0,0,0,0,-1,1735,449,0,0
518,575,0,0,0,0,0,0,0,0,0,-1,1742,449,0,0
525,575,0,0,0,0,0,0,0,0,0,-1,1749,449,0,0
532,575,0,0,0,0,0,0,0,0,0,-1,1756,449,0,0
539,575,0,0,0,0,0,0,0,0,0,-1,1763,449,0,0
546,575,0,0,0,0,0,0,0,0,0,-1,1770,449,0,0
553,575,0,0,0,0,0,0,0,0,0,-1,1777,449,0,0
560,575,0,0,0,0,0,0,0,0,0,-1,1784,449,0,0
567,575,0,0,0,0,0,0,0,0,0,-1,1791,449,0,0
574,575,0,0,0,0,0,0,0,0,0,-1,1798,449,0,0
581,575,0,0,0,0,0,0,0,0,0,-1,1805,449,0,0
588,575,0,0,0,0,0,0,0,0,0,-1,1812,449,0,0
595,575,0,0,0,0,0,0,0,0,0,-1,1819,449,0,0
602,575,0,0,0,0,0,0,0,0,0,-1,1826,449,0,0
609,575,0,0,0,0,0,0,0,0,0,-1,1833,449,0,0
616,575,0,0,0,0,0,0,0,0,0,-1,1840,449,0,0
623,575,0,0,0,0,0,0,0,0,0,-1,1847,449,0,0
630,575,0,0,0,0,0,0,0,0,0,-1,1854,449,0,0
637,575,0,0,0,0,0,0,0,0,0,-1,1861,449,0,0
644,575,0,0,0,0,0,0,0,0,0,-1,1868,449,0,0
651,575,0,0,0,0,0,0,0,0,0,-1,1875,449,0,0
658,575,0,0,0,0,0,0,0,0,0,-1,1882,449,0,0
665,575,0,0,0,0,0,0,0,0,0,-1,1889,449,0,0
672,575,0,0,0,0,0,0,0,0,0,-1,1896,449,0,0
679,575,0,0,0,0,0,0,0,0,0,-1,1903,449,0,0
686,575,0,0,0,0,0,0,0,0,0,-1,1910,449,0,0
693,575,0,0,0,0,0,0,0,0,0,-1,1917,449,0,0
700,575,0,0,0,0,0,0,0,0,0,-1,1924,449,0,0
707,575,0,0,0,0,0,0,0,0,0,-1,1931,449,0,0
714,575,0,0,0,0,0,0,0,0,0,-1,1938,449,0,0
721,575,0,0,0,0,0,0,0,0,0,-1,1945,449,0,0
728,575,0,0,0,0,0,0,0,0,0,-1,1952,449,0,0
735,575,0,0,0,0,0,0,0,0,0,-1,1959,449,0,0
742,575,0,0,0,0,0,0,0,0,0,-1,1966,449,0,0
749,575,0,0,0,0,0,0,0,0,0,-1,1973,449,0,0
756,575,0,0,0,0,0,0,0,0,0,-1,1980,449,0,0
763,575,0,0,0,0,0,0,0,0,0,-1,1987,449,0,0
770,575,0,0,0,0,0,0,0,0,0,-1,1994,449,0,0
777,575,0,0,0,0,0,0,0,0,0,-1,2001,449,0,0
784,575,0,0,0,0,0,0,0,0,0,-1,2008,449,0,0
791,575,0,0,0,0,0,0,0,0,0,-1,2015,449,0,0
798,575,0,0,0,0,0,0,0,0,0,-1,2022,449,0,0
805,575,0,0,0,0,0,0,0,0,0,-1,2029,449,0,0
812,575,0,0,0,0,0,0,0,0,0,-1,2036,449,0,0
-700,568,0,0,0,0,0,0,0,0,0,-1,524,456,0,0
-693,568,0,0,0,0,0,0,0,0,0,-1,531,456,0,0
-686,568,0,0,0,0,0,0,0,0,0,-1,538,456,0,0
-679,568,0,0,0,0,0,0,0,0,0,-1,545,456,0,0
-672,568,0,0,0,0,0,0,0,0,0,-1,552,456,0,0
-665,568,0,0,0,0,0,0,0,0,0,-1,559,456,0,0
-658,568,0,0,0,0,0,0,0,0,0,-1,566,456,0,0
-651,568,0,0,0,0,0,0,0,0,0,-1,573,456,0,0
-644,568,0,0,0,0,0,0,0,0,0,-1,580,456,0,0
-637,568,0,0,0,0,0,0,0,0,0,-1,587,456,0,0
-630,568,0,0,0,0,0,0,0,0,0,-1,594,456,0,0
-623,568,0,0,0,0,0,0,0,0,0,-1,601,456,0,0
-616,568,0,0,0,0,0,0,0,0,0,-1,608,456,0,0
-609,568,0,0,0,0,0,0,0,0,0,-1,615,456,0,0
-602,568,0,0,0,0,0,0,0,0,0,-1,622,456,0,0
-595,568,0,0,0,0,0,0,0,0,0,-1,629,456,0,0
-588,568,0,0,0,0,0,0,0,0,0,-1,636,456,0,0
-581,568,0,0,0,0,0,0,0,0,0,-1,643,456,0,0
-574,568,0,0,0,0,0,0,0,0,0,-1,650,456,0,0
-567,568,0,0,0,0,0,0,0,0,0,-1,657,456,0,0
-560,568,0,0,0,0,0,0,0,0,0,-1,664,456,0,0
-553,568,0,0,0,0,0,0,0,0,0,-1,671,456,0,0
-546,568,0,0,0,0,0,0,0,0,0,-1,678,456,0,0
-539,568,0,0,0,0,0,0,0,0,0,-1,685,456,0,0
-532,568,0,0,0,0,0,0,0,0,0,-1,692,456,0,0
-525,568,0,0,0,0,0,0,0,0,0,-1,699,456,0,0
-518,568,0,0,0,0,0,0,0,0,0,-1,706,456,0,0
-511,568,0,0,0,0,0,0,0,0,0,-1,713,456,0,0
-504,568,0,0,0,0,0,0,0,0,0,-1,720,456,0,0
-497,568,0,0,0,0,0,0,0,0,0,-1,727,456,0,0
-490,568,0,0,0,0,0,0,0,0,0,-1,734,456,0,0
-483,568,0,0,0,0,0,0,0,0,0,-1,741,456,0,0
-476,568,0,0,0,0,0,0,0,0,0,-1,748,456,0,0
-469,568,0,0,0,0,0,0,0,0,0,-1,755,456,0,0
-462,568,0,0,0,0,0,0,0,0,0,-1,762,456,0,0
-455,568,0,0,0,0,0,0,0,0,0,-1,769,456,0,0
-448,568,0,0,0,0,0,0,0,0,0,-1,776,456,0,0
-441,568,0,0,0,0,0,0,0,0,0,-1,783,456,0,0
-434,568,0,0,0,0,0,0,0,0,0,-1,790,456,0,0
-427,568,0,0,0,0,0,0,0,0,0,-1,797,456,0,0
-420,568,0,0,0,0,0,0,0,0,0,-1,804,456,0,0
-413,568,0,0,0,0,0,0,0,0,0,-1,811,456,0,0
-406,568,0,0,0,0,0,0,0,0,0,-1,818,456,0,0
-399,568,0,0,0,0,0,0,0,0,0,-1,825,456,0,0
-392,568,0,0,0,0,0,0,0,0,0,-1,832,456,0,0
-385,568,0,0,0,0,0,0,0,0,0,-1,839,456,0,0
-378,568,0.321777,-7.29929,0,0,0,0,0,0,0,-1,846,456,0.321806,7.29927
-371,568,1.09595,-7.46707,0,0,0,0,0,0,0,-1,853,456,1.09597,7.46707
-364,568,2.70746,-23.4782,0,0,0,0,0,0,0,-1,860,456,2.70746,23.4782
-357,568,2.14166,-7.67645,0,0,0,0,0,0,0,-1,867,456,2.14167,7.67646
-350,568,2.7467,-11.2507,0,0,0,0,0,0,0,-1,874,456,2.7467,11.2507
-343,568,2.16516,-11.3762,0,0,0,0,0,0,0,-1,881,456,2.16514,11.3762
-336,568,1.14984,-29.3232,0,0,0,0,0,0,0,-1,888,456,1.14984,29.3231
-329,568,2.80359,-32.459,0,0,0,0,0,0,0,-1,895,456,2.80357,32.4591
-322,568,2.62225,-32.5117,0,0,0,0,0,0,0,-1,902,456,2.62227,32.5117
-315,568,3.76685,-33.0524,-0.0094085,0.0168207,-0.00567939,0.0179976,-0.0105854,-1.36646,0.0166864,0.0416791,909,456,3.76687,33.0524
-308,568,2.86389,-34.5164,-0.00853236,0.0138979,-0.00522806,0.0150566,-0.00969107,-1.35269,0.0143996,0.0458442,916,456,2.86386,34.5164
-301,568,2.83313,-35.4423,-0.00696783,0.0113031,-0.00492341,0.0125454,-0.00821006,-1.32364,0.01207,0.0251339,923,456,2.83315,35.4423
-294,568,2.76257,-36.173,-0.00534872,0.00936792,-0.00451064,0.0106404,-0.0066212,-1.29583,0.0100556,0.0142675,930,456,2.7626,36.173
-287,568,2.70764,-36.9749,-0.00400428,0.00788569,-0.00412138,0.00917456,-0.00529315,-1.2677,0.00845254,0.0118266,937,456,2.70763,36.9748
-280,568,2.65314,-37.7757,-0.00279986,0.00670628,-0.00379264,0.00803399,-0.00412756,-1.23406,0.00714119,0.0115673,944,456,2.65314,37.7757
-273,568,2.59155,-38.559,-0.00181235,0.00583035,-0.00351989,0.00720442,-0.00318642,-1.19862,0.00614684,0.0127999,951,456,2.59153,38.5589
-266,568,2.52551,-39.3121,-0.00111699,0.00452458,-0.00308238,0.00588206,-0.00247447,-1.15595,0.00495655,0.0119585,958,456,2.52551,39.3121
-259,568,2.4873,-40.0494,-0.000180442,0.00280453,-0.00261281,0.00432108,-0.00169699,-1.04489,0.00358294,0.0134182,965,456,2.4873,40.0494
-252,568,2.43536,-40.7692,0.000447934,0.00150403,-0.00183718,0.00288754,-0.00093558,-0.925337,0.00230118,0.0146935,972,456,2.43537,40.7692
-245,568,2.37708,-41.4625,0.000862535,6.74118e-05,-0.00120088,0.00172995,-0.000800007,-0.625548,0.0014932,0.0162947,979,456,2.37706,41.4625
-238,568,2.35303,-42.1911,0.00132906,-0.0017288,-0.000448479,0.00139348,-0.00179322,-0.142662,0.00184466,0.0139226,986,456,2.35302,42.1911
-231,568,2.31403,-42.9112,0.00178911,-0.00375897,0.000435736,0.00182313,-0.00379299,0.0779015,0.00330828,0.012885,993,456,2.314,42.9112
-224,568,2.27216,-43.6289,0.0021724,-0.00576809,0.001326,0.00238798,-0.00598367,0.161169,0.00497976,0.0145328,1000,456,2.27216,43.6289
-217,568,2.29071,-44.3254,0.00258,-0.00795313,0.00220741,0.00302389,-0.00839702,0.198447,0.00683279,0.0120294,1007,456,2.29074,44.3254
-210,568,2.28967,-45.0254,0.00297328,-0.0101625,0.00302601,0.00363684,-0.0108261,0.215869,0.00868726,0.0120608,1014,456,2.28965,45.0254
-203,568,2.26709,-45.7185,0.00337142,-0.0120593,0.00372143,0.00422203,-0.0129099,0.224711,0.0103063,0.0114414,1021,456,2.26711,45.7185
-196,568,2.28918,-46.3762,0.00369162,-0.0135449,0.00433849,0.00472203,-0.0145753,0.233185,0.0116153,0.0169066,1028,456,2.28922,46.3761
-189,568,2.26038,-47.0096,0.00393247,-0.0148269,0.00517442,0.00526507,-0.0161595,0.252059,0.0128915,0.0171271,1035,456,2.26035,47.0097
-182,568,2.25562,-47.6762,0.00424939,-0.0167645,0.00637581,0.00603255,-0.0185477,0.272709,0.0147919,0.0156224,1042,456,2.25566,47.6762
-175,568,2.26416,-48.2782,0.00456208,-0.0177967,0.00733096,0.00675137,-0.019986,0.290206,0.0160548,0.0158901,1049,456,2.26421,48.2782
-168,568,2.28638,-48.7845,0.00467264,-0.0189113,0.00826171,0.0072788,-0.0215175,0.305571,0.0172898,0.0224727,1056,456,2.28641,48.7846
-161,568,2.28467,-49.3534,0.00453571,-0.0200155,0.00955599,0.00781669,-0.0232965,0.330732,0.0186896,0.0322234,1063,456,2.28462,49.3534
-154,568,2.35034,-50.1575,0.00465086,-0.0210419,0.010952,0.00868571,-0.0250767,0.352982,0.020244,0.0365222,1070,456,2.35036,50.1575
-147,568,2.41565,-50.7702,0.00483514,-0.0218218,0.0125551,0.00981729,-0.026804,0.377764,0.0218884,0.0398856,1077,456,2.41564,50.7702
-140,568,2.26074,-51.0959,0.00479965,-0.0233407,0.0145727,0.0109862,-0.0295272,0.401471,0.0241932,0.0431348,1084,456,2.26079,51.0958
-133,568,2.26941,-50.8972,0.00459499,-0.0247244,0.0166747,0.0121378,-0.0322672,0.424808,0.0265008,0.0479067,1091,456,2.2694,50.8972
-126,568,2.43677,-50.9071,0,0,0,0,0,0,0,-1,1098,456,2.43674,50.9071
-119,568,1.89978,-50.8443,0,0,0,0,0,0,0,-1,1105,456,1.89978,50.8443
-112,568,1.98242,-35.0942,0,0,0,0,0,0,0,-1,1112,456,1.98247,35.0942
-105,568,2.02454,-25.038,0,0,0,0,0,0,0,-1,1119,456,2.02459,25.038
-98,568,1.58618,-14.7874,0,0,0,0,0,0,0,-1,1126,456,1.58617,14.7874
-91,568,1.11621,-11.1853,0,0,0,0,0,0,0,-1,1133,456,1.11626,11.1853
-84,568,0.461792,-9.7959,0,0,0,0,0,0,0,-1,1140,456,0.461793,9.7959
-77,568,-1.13806,-8.57822,0,0,0,0,0,0,0,-1,1147,456,-1.13807,8.57821
-70,568,-4.09766,-1.42911,0,0,0,0,0,0,0,-1,1154,456,-4.09767,1.4291
-63,568,-5.92273,-3.70752,0,0,0,0,0,0,0,-1,1161,456,-5.92272,3.70751
-56,568,-5.24158,-6.01385,0,0,0,0,0,0,0,-1,1168,456,-5.24161,6.01386
-49,568,-5.24365,-8.33557,0,0,0,0,0,0,0,-1,1175,456,-5.24371,8.33557
-42,568,-0.664795,0.521973,0,0,0,0,0,0,0,-1,1182,456,-0.664829,-0.521984
-35,568,-0.153076,-1.67731,0,0,0,0,0,0,0,-1,1189,456,-0.153068,1.67731
-28,568,1.25439,-4.48798,0,0,0,0,0,0,0,-1,1196,456,1.2544,4.48797
-21,568,3.20483,-54.9489,0,0,0,0,0,0,0,-1,1203,456,3.20485,54.9489
-14,568,3.60608,-55.3174,0.0491908,0.0679191,0.00641928,0.0699081,0.0472018,1.27033,0.0411791,0.0428043,1210,456,3.60603,55.3173
-7,568,4.15137,-55.8852,0.0475355,0.061344,0.0088249,0.0656445,0.0432349,1.11734,0.0385304,0.0443052,1217,456,4.15143,55.8852
0,568,4.36328,-56.5028,0.0474569,0.0551728,0.0111485,0.063112,0.0395177,0.951975,0.0368223,0.0485528,1224,456,4.3633,56.5028
7,568,4.66418,-57.0685,0.0441979,0.0479842,0.0137947,0.060015,0.0321671,0.853592,0.0346796,0.0459284,1231,456,4.66421,57.0685
14,568,4.87305,-57.5845,0.037615,0.0397935,0.015921,0.0546624,0.022746,0.819552,0.0317071,0.0468722,1238,456,4.87309,57.5845
21,568,5.078,-58.0591,0.0295386,0.0315382,0.0185545,0.0491198,0.011957,0.812314,0.0295778,0.0433691,1245,456,5.07806,58.0591
28,568,5.53735,-58.5934,0.0244077,0.0243833,0.024078,0.0484735,0.000317501,0.785145,0.0322103,0.0438275,1252,456,5.53739,58.5934
35,568,5.90125,-59.1654,0.0276047,0.0161409,0.0232818,0.0458498,-0.00210417,0.664701,0.0312915,0.043162,1259,456,5.90122,59.1654
42,568,6.80981,-59.3517,0.0256295,0.00703277,0.0210978,0.0393871,-0.00672485,0.577841,0.0287629,0.043023,1266,456,6.80977,59.3517
49,568,7.29712,-59.8234,0,0,0,0,0,0,0,-1,1273,456,7.29706,59.8234
56,568,8.42297,-57.7922,0,0,0,0,0,0,0,-1,1280,456,8.42291,57.7922
63,568,6.41382,-57.3182,0,0,0,0,0,0,0,-1,1287,456,6.41386,57.3182
70,568,8.47961,-57.2524,0.0368239,-0.0251272,-0.0150701,0.0402953,-0.0285986,-0.226401,0.0399666,0.0462429,1294,456,8.47956,57.2524
77,568,8.63525,-57.2957,0.0411967,-0.0307524,-0.0311507,0.0528093,-0.042365,-0.356829,0.0550591,0.047951,1301,456,8.63525,57.2957
84,568,8.71582,-57.3319,0.0463576,-0.0359702,-0.047626,0.0681437,-0.0577563,-0.429025,0.0727708,0.0490451,1308,456,8.71587,57.3319
91,568,8.72668,-57.3381,0.0495735,-0.0405084,-0.0632222,0.0821581,-0.0730931,-0.475891,0.0896853,0.0449412,1315,456,8.72674,57.3382
98,568,8.87073,-57.2323,0.0508707,-0.0430009,-0.0779091,0.0948898,-0.08702,-0.514291,0.105058,0.0452585,1322,456,8.87071,57.2323
105,568,9.00781,-57.0311,0.0528749,-0.0428101,-0.0874067,0.104676,-0.0946111,-0.534993,0.115107,0.0450847,1329,456,9.00777,57.031
112,568,4.76196,-62.0958,0,0,0,0,0,0,0,-1,1336,456,4.76193,62.0957
119,568,1.62219,-56.3361,0,0,0,0,0,0,0,-1,1343,456,1.62214,56.3361
126,568,1.77686,-55.7574,0,0,0,0,0,0,0,-1,1350,456,1.7768,55.7574
133,568,2.12463,-55.2573,0,0,0,0,0,0,0,-1,1357,456,2.1246,55.2573
140,568,-8.30859,-58.9365,0,0,0,0,0,0,0,-1,1364,456,-8.3086,58.9365
147,568,3.35278,-68.8009,0,0,0,0,0,0,0,-1,1371,456,3.35275,68.8009
154,568,3.09143,-69.9826,0,0,0,0,0,0,0,-1,1378,456,3.09145,69.9826
161,568,2.81067,-71.1118,0,0,0,0,0,0,0,-1,1385,456,2.81065,71.1118
168,568,-1.74231,-39.2641,0,0,0,0,0,0,0,-1,1392,456,-1.74226,39.2641
175,568,10.5151,0.747498,0,0,0,0,0,0,0,-1,1399,456,10.5152,-0.747501
182,568,6.35095,-3.63361,0,0,0,0,0,0,0,-1,1406,456,6.35093,3.63359
189,568,6.17493,-1.70911,0,0,0,0,0,0,0,-1,1413,456,6.17497,1.70911
196,568,6.04724,0.200836,0,0,0,0,0,0,0,-1,1420,456,6.04724,-0.200835
203,568,5.9281,2.08649,0,0,0,0,0,0,0,-1,1427,456,5.92812,-2.08648
210,568,1.46216,-2.50446,0,0,0,0,0,0,0,-1,1434,456,1.46219,2.50446
217,568,2.62366,-7.86703,0,0,0,0,0,0,0,-1,1441,456,2.62365,7.86704
224,568,3.43494,-12.1555,0,0,0,0,0,0,0,-1,1448,456,3.43492,12.1555
231,568,4.38245,-9.3205,0,0,0,0,0,0,0,-1,1455,456,4.38244,9.32048
238,568,5.88879,-20.7448,0,0,0,0,0,0,0,-1,1462,456,5.88876,20.7449
245,568,3.34387,-10.6774,0,0,0,0,0,0,0,-1,1469,456,3.34389,10.6774
252,568,3.56946,-9.28928,0,0,0,0,0,0,0,-1,1476,456,3.56948,9.28928
259,568,3.38843,-8.73068,0,0,0,0,0,0,0,-1,1483,456,3.38842,8.73068
266,568,12.1849,-50.8471,0,0,0,0,0,0,0,-1,1490,456,12.1849,50.8471
273,568,12.2241,-50.4596,0,0,0,0,0,0,0,-1,1497,456,12.2241,50.4596
280,568,12.3276,-49.9087,0.00847617,-0.020305,-0.00659349,0.00991477,-0.0217436,-0.214818,0.0186984,0.0376524,1504,456,12.3277,49.9086
287,568,12.3724,-49.1377,0.00792456,-0.0202764,-0.00688625,0.00951624,-0.021868,-0.22715,0.0185816,0.0256997,1511,456,12.3724,49.1377
294,568,12.4414,-48.5773,0.00710915,-0.0200669,-0.00688809,0.00875531,-0.0217131,-0.234585,0.0181134,0.022823,1518,456,12.4415,48.5773
301,568,12.4009,-47.9948,0.0063618,-0.0194116,-0.00673968,0.00801781,-0.0210676,-0.240937,0.0173467,0.0192473,1525,456,12.4009,47.9948
308,568,12.3975,-47.3626,0.00566399,-0.0182467,-0.00650252,0.00731795,-0.0199006,-0.249074,0.0162647,0.0136082,1532,456,12.3974,47.3626
315,568,12.4058,-46.7354,0.00496717,-0.0167267,-0.0061042,0.00656682,-0.0183264,-0.256293,0.0148971,0.0084215,1539,456,12.4057,46.7354
322,568,12.4008,-46.0655,0.00427167,-0.0148283,-0.00550669,0.00574556,-0.0163022,-0.261524,0.0132067,0.00975932,1546,456,12.4008,46.0655
329,568,12.3849,-45.3666,0.0036093,-0.0127771,-0.00478485,0.00490416,-0.014072,-0.264286,0.0113741,0.0109994,1553,456,12.3848,45.3666
336,568,12.3743,-44.6579,0.00293639,-0.0105688,-0.00400234,0.0040334,-0.0116658,-0.267522,0.00941421,0.0115208,1560,456,12.3743,44.6579
343,568,12.3865,-43.9487,0.00229246,-0.00812448,-0.00304558,0.00311754,-0.00894956,-0.26456,0.00723308,0.0120743,1567,456,12.3864,43.9487
350,568,12.3448,-43.2482,0.00186463,-0.00554176,-0.00197974,0.00236061,-0.00603773,-0.245473,0.00500131,0.0102878,1574,456,12.3449,43.2482
357,568,12.2916,-42.524,0.00146106,-0.00288045,-0.000936273,0.00165437,-0.00307375,-0.203602,0.00277048,0.00932525,1581,456,12.2916,42.524
364,568,12.2927,-41.8054,0.00105908,-0.000477154,0.000177601,0.00107935,-0.000497419,0.113612,0.000930782,0.0121839,1588,456,12.2927,41.8054
371,568,12.2611,-41.0551,0.000806302,0.00165138,0.00124112,0.00253992,-8.22366e-05,0.949469,0.00172135,0.0214178,1595,456,12.2612,41.0551
378,568,12.2174,-40.3072,0.000596242,0.00359939,0.00212291,0.0046981,-0.000502466,1.09321,0.00331228,0.0183238,1602,456,12.2174,40.3072
385,568,12.1656,-39.5504,0.000322135,0.00522725,0.00279615,0.00649403,-0.00094465,1.14541,0.00467615,0.0101729,1609,456,12.1657,39.5504
392,568,12.0902,-38.8222,0.000274697,0.00637996,0.00339907,0.00789594,-0.00124129,1.15127,0.00572278,0.0121792,1616,456,12.0902,38.8222
399,568,12.0203,-38.1188,0.000282729,0.00726382,0.00406377,0.00913034,-0.00158379,1.14023,0.00667772,0.0198427,1623,456,12.0202,38.1188
406,568,12.0111,-37.3291,9.9533e-05,0.00833549,0.00490503,0.010622,-0.00218695,1.13459,0.0079117,0.0173421,1630,456,12.0111,37.3291
413,568,11.973,-36.4953,-0.00024233,0.0088371,0.00521598,0.0112123,-0.00261749,1.14349,0.00848303,0.0139117,1637,456,11.9731,36.4953
420,568,11.9336,-35.6856,-0.000565553,0.00906367,0.0058573,0.0118312,-0.00333305,1.1294,0.00920192,0.0121818,1644,456,11.9336,35.6856
427,568,11.8628,-34.8622,-0.000949852,0.00911064,0.00685821,0.0125856,-0.0044248,1.10181,0.0101907,0.0143107,1651,456,11.8627,34.8622
434,568,11.8219,-34.0382,-0.00133529,0.00929854,0.00783113,0.0134472,-0.00548391,1.08363,0.0112476,0.0208667,1658,456,11.8219,34.0382
441,568,11.8473,-33.295,-0.00188772,0.00917017,0.00893977,0.0141526,-0.00687014,1.06234,0.0123778,0.0281384,1665,456,11.8473,33.295
448,568,12.0095,-32.376,-0.00252494,0.0088118,0.0103714,0.0149627,-0.00867586,1.03549,0.0138077,0.0412956,1672,456,12.0095,32.376
455,568,11.9867,-31.1028,-0.00340153,0.00838349,0.0121443,0.0159893,-0.0110073,1.01127,0.0156747,0.0498349,1679,456,11.9867,31.1027
462,568,11.0911,-30.6549,0,0,0,0,0,0,0,-1,1686,456,11.0911,30.6549
469,568,11.1531,-30.1317,0,0,0,0,0,0,0,-1,1693,456,11.153,30.1317
476,568,11.1921,-29.3232,0,0,0,0,0,0,0,-1,1700,456,11.1921,29.3232
483,568,9.50525,-26.0135,0,0,0,0,0,0,0,-1,1707,456,9.50521,26.0135
490,568,9.21021,-25.4427,0,0,0,0,0,0,0,-1,1714,456,9.21025,25.4427
497,568,9.19275,-22.8114,0,0,0,0,0,0,0,-1,1721,456,9.19273,22.8114
504,568,0,0,0,0,0,0,0,0,0,-1,1728,456,0,0
511,568,0,0,0,0,0,0,0,0,0,-1,1735,456,0,0
518,568,0,0,0,0,0,0,0,0,0,-1,1742,456,0,0
525,568,0,0,0,0,0,0,0,0,0,-1,1749,456,0,0
532,568,0,0,0,0,0,0,0,0,0,-1,1756,456,0,0
539,568,0,0,0,0,0,0,0,0,0,-1,1763,456,0,0
546,568,0,0,0,0,0,0,0,0,0,-1,1770,456,0,0
553,568,0,0,0,0,0,0,0,0,0,-1,1777,456,0,0
560,568,0,0,0,0,0,0,0,0,0,-1,1784,456,0,0
567,568,0,0,0,0,0,0,0,0,0,-1,1791,456,0,0
574,568,0,0,0,0,0,0,0,0,0,-1,1798,456,0,0
581,568,0,0,0,0,0,0,0,0,0,-1,1805,456,0,0
588,568,0,0,0,0,0,0,0,0,0,-1,1812,456,0,0
595,568,0,0,0,0,0,0,0,0,0,-1,1819,456,0,0
602,568,0,0,0,0,0,0,0,0,0,-1,1826,456,0,0
609,568,0,0,0,0,0,0,0,0,0,-1,1833,456,0,0
616,568,0,0,0,0,0,0,0,0,0,-1,1840,456,0,0
623,568,0,0,0,0,0,0,0,0,0,-1,1847,456,0,0
630,568,0,0,0,0,0,0,0,0,0,-1,1854,456,0,0
637,568,0,0,0,0,0,0,0,0,0,-1,1861,456,0,0
644,568,0,0,0,0,0,0,0,0,0,-1,1868,456,0,0
651,568,0,0,0,0,0,0,0,0,0,-1,1875,456,0,0
658,568,0,0,0,0,0,0,0,0,0,-1,1882,456,0,0
665,568,0,0,0,0,0,0,0,0,0,-1,1889,456,0,0
672,568,0,0,0,0,0,0,0,0,0,-1,1896,456,0,0
679,568,0,0,0,0,0,0,0,0,0,-1,1903,456,0,0
686,568,0,0,0,0,0,0,0,0,0,-1,1910,456,0,0
693,568,0,0,0,0,0,0,0,0,0,-1,1917,456,0,0
700,568,0,0,0,0,0,0,0,0,0,-1,1924,456,0,0
707,568,0,0,0,0,0,0,0,0,0,-1,1931,456,0,0
714,568,0,0,0,0,0,0,0,0,0,-1,1938,456,0,0
721,568,0,0,0,0,0,0,0,0,0,-1,1945,456,0,0
728,568,0,0,0,0,0,0,0,0,0,-1,1952,456,0,0
735,568,0,0,0,0,0,0,0,0,0,-1,1959,456,0,0
742,568,0,0,0,0,0,0,0,0,0,-1,1966,456,0,0
749,568,0,0,0,0,0,0,0,0,0,-1,1973,456,0,0
756,568,0,0,0,0,0,0,0,0,0,-1,1980,456,0,0
763,568,0,0,0,0,0,0,0,0,0,-1,1987,456,0,0
770,568,0,0,0,0,0,0,0,0,0,-1,1994,456,0,0
777,568,0,0,0,0,0,0,0,0,0,-1,2001,456,0,0
784,568,0,0,0,0,0,0,0,0,0,-1,2008,456,0,0
791,568,0,0,0,0,0,0,0,0,0,-1,2015,456,0,0
798,568,0,0,0,0,0,0,0,0,0,-1,2022,456,0,0
805,568,0,0,0,0,0,0,0,0,0,-1,2029,456,0,0
812,568,0,0,0,0,0,0,0,0,0,-1,2036,456,0,0
-700,561,0,0,0,0,0,0,0,0,0,-1,524,463,0,0
-693,561,0,0,0,0,0,0,0,0,0,-1,531,463,0,0
-686,561,0,0,0,0,0,0,0,0,0,-1,538,463,0,0
-679,561,0,0,0,0,0,0,0,0,0,-1,545,463,0,0
-672,561,0,0,0,0,0,0,0,0,0,-1,552,463,0,0
-665,561,0,0,0,0,0,0,0,0,0,-1,559,463,0,0
-658,561,0,0,0,0,0,0,0,0,0,-1,566,463,0,0
-651,561,0,0,0,0,0,0,0,0,0,-1,573,463,0,0
-644,561,0,0,0,0,0,0,0,0,0,-1,580,463,0,0
-637,561,0,0,0,0,0,0,0,0,0,-1,587,463,0,0
-630,561,0,0,0,0,0,0,0,0,0,-1,594,463,0,0
-623,561,0,0,0,0,0,0,0,0,0,-1,601,463,0,0
-616,561,0,0,0,0,0,0,0,0,0,-1,608,463,0,0
-609,561,0,0,0,0,0,0,0,0,0,-1,615,463,0,0
-602,561,0,0,0,0,0,0,0,0,0,-1,622,463,0,0
-595,561,0,0,0,0,0,0,0,0,0,-1,629,463,0,0
-588,561,0,0,0,0,0,0,0,0,0,-1,636,463,0,0
-581,561,0,0,0,0,0,0,0,0,0,-1,643,463,0,0
-574,561,0,0,0,0,0,0,0,0,0,-1,650,463,0,0
-567,561,0,0,0,0,0,0,0,0,0,-1,657,463,0,0
-560,561,0,0,0,0,0,0,0,0,0,-1,664,463,0,0
-553,561,0,0,0,0,0,0,0,0,0,-1,671,463,0,0
-546,561,0,0,0,0,0,0,0,0,0,-1,678,463,0,0
-539,561,0,0,0,0,0,0,0,0,0,-1,685,463,0,0
-532,561,0,0,0,0,0,0,0,0,0,-1,692,463,0,0
-525,561,0,0,0,0,0,0,0,0,0,-1,699,463,0,0
-518,561,0,0,0,0,0,0,0,0,0,-1,706,463,0,0
-511,561,0,0,0,0,0,0,0,0,0,-1,713,463,0,0
-504,561,0,0,0,0,0,0,0,0,0,-1,720,463,0,0
-497,561,0,0,0,0,0,0,0,0,0,-1,727,463,0,0
-490,561,0,0,0,0,0,0,0,0,0,-1,734,463,0,0
-483,561,0,0,0,0,0,0,0,0,0,-1,741,463,0,0
-476,561,0,0,0,0,0,0,0,0,0,-1,748,463,0,0
-469,561,0,0,0,0,0,0,0,0,0,-1,755,463,0,0
-462,561,0,0,0,0,0,0,0,0,0,-1,762,463,0,0
-455,561,0,0,0,0,0,0,0,0,0,-1,769,463,0,0
-448,561,0,0,0,0,0,0,0,0,0,-1,776,463,0,0
-441,561,0,0,0,0,0,0,0,0,0,-1,783,463,0,0
-434,561,0,0,0,0,0,0,0,0,0,-1,790,463,0,0
-427,561,0,0,0,0,0,0,0,0,0,-1,797,463,0,0
-420,561,0,0,0,0,0,0,0,0,0,-1,804,463,0,0
-413,561,0,0,0,0,0,0,0,0,0,-1,811,463,0,0
-406,561,0,0,0,0,0,0,0,0,0,-1,818,463,0,0
-399,561,0,0,0,0,0,0,0,0,0,-1,825,463,0,0
-392,561,4.92407,-2.54578,0,0,0,0,0,0,0,-1,832,463,4.92408,2.54576
-385,561,5.55634,-1.02338,0,0,0,0,0,0,0,-1,839,463,5.55634,1.02338
-378,561,0.160522,-4.51785,0,0,0,0,0,0,0,-1,846,463,0.160542,4.51785
-371,561,2.20026,-26.5992,0,0,0,0,0,0,0,-1,853,463,2.20026,26.5992
-364,561,2.58044,-27.161,0,0,0,0,0,0,0,-1,860,463,2.58046,27.161
-357,561,2.16742,-23.5582,0,0,0,0,0,0,0,-1,867,463,2.1674,23.5582
-350,561,1.33124,-11.9406,0,0,0,0,0,0,0,-1,874,463,1.33127,11.9406
-343,561,1.13214,-14.1837,0,0,0,0,0,0,0,-1,881,463,1.13217,14.1837
-336,561,2.51453,-31.1771,0,0,0,0,0,0,0,-1,888,463,2.5145,31.1771
-329,561,2.13495,-32.3968,-0.00687339,0.0204553,-0.00659869,0.0219652,-0.00838327,-1.34585,0.0180971,0.0486325,895,463,2.13493,32.3967
-322,561,2.02405,-32.8505,-0.00704786,0.0169313,-0.00559182,0.0181712,-0.00828773,-1.3526,0.0156273,0.0458148,902,463,2.02402,32.8505
-315,561,2.32037,-33.4584,-0.00676124,0.0139379,-0.0047677,0.0149832,-0.00780661,-1.35495,0.0133734,0.0321254,909,463,2.32039,33.4584
-308,561,2.15253,-34.3874,-0.00637662,0.0114023,-0.00422086,0.0123534,-0.0073278,-1.34915,0.0114858,0.0283372,916,463,2.15251,34.3874
-301,561,2.06226,-35.4163,-0.00529476,0.00908476,-0.00384014,0.010046,-0.00625603,-1.32551,0.00949641,0.0168522,923,463,2.06224,35.4163
-294,561,2.00977,-36.2102,-0.00403041,0.00733806,-0.00339165,0.00827302,-0.00496538,-1.30181,0.00772231,0.0119545,930,463,2.00976,36.2102
-287,561,1.96747,-36.976,-0.00292747,0.0059612,-0.00297597,0.00686555,-0.00383182,-1.27578,0.00625837,0.0109759,937,463,1.96746,36.976
-280,561,1.89459,-37.733,-0.00194915,0.00471614,-0.00263438,0.00563161,-0.00286462,-1.23634,0.00499126,0.0134465,944,463,1.89459,37.733
-273,561,1.82361,-38.464,-0.00112117,0.00368793,-0.0022899,0.00460385,-0.00203709,-1.19031,0.00392845,0.0156788,951,463,1.82358,38.464
-266,561,1.78827,-39.2441,-0.000434471,0.00221756,-0.00181487,0.00313922,-0.00135614,-1.10089,0.00266258,0.00986253,958,463,1.78828,39.2441
-259,561,1.76532,-40.0065,0.000415736,0.00031123,-0.00127462,0.00163918,-0.000912212,-0.764912,0.00149284,0.0108942,965,463,1.76532,40.0065
-252,561,1.72906,-40.7206,0.0010388,-0.00139208,-0.000445882,0.001118,-0.00147128,-0.175803,0.00149956,0.0165064,972,463,1.72905,40.7206
-245,561,1.67584,-41.4435,0.00151982,-0.00320008,0.000274841,0.00153577,-0.00321603,0.0579692,0.00280004,0.0183127,979,463,1.67583,41.4436
-238,561,1.64539,-42.1734,0.00206013,-0.00537307,0.00111727,0.00222444,-0.00553738,0.146011,0.00461535,0.0134262,986,463,1.64536,42.1734
-231,561,1.60229,-42.8968,0.00258649,-0.00781918,0.00210398,0.00299581,-0.0082285,0.192143,0.00671099,0.0121687,993,463,1.60228,42.8968
-224,561,1.57825,-43.6057,0.00304359,-0.010249,0.00309355,0.00372827,-0.0109337,0.217815,0.00879925,0.0127187,1000,463,1.57825,43.6057
-217,561,1.59137,-44.2892,0.0035285,-0.0127939,0.00408044,0.00449172,-0.0137571,0.231816,0.0109793,0.0126472,1007,463,1.59135,44.2892
-210,561,1.58331,-44.9803,0.00397847,-0.0153505,0.00499382,0.00519243,-0.0165644,0.238467,0.0131208,0.0132361,1014,463,1.58333,44.9803
-203,561,1.56165,-45.6627,0.0044207,-0.0175336,0.00576061,0.00584042,-0.0189534,0.241638,0.0149672,0.015104,1021,463,1.56163,45.6626
-196,561,1.4823,-46.2618,0.00476456,-0.0191988,0.00642257,0.00637737,-0.0208116,0.246028,0.0164184,0.0180453,1028,463,1.48231,46.2618
-189,561,1.56946,-46.8706,0.00497902,-0.0205972,0.00737806,0.00695477,-0.0225729,0.261648,0.017825,0.0236572,1035,463,1.56943,46.8706
-182,561,1.70398,-47.4546,0.0052486,-0.0228013,0.00881081,0.00778655,-0.0253392,0.280457,0.0200001,0.0270275,1042,463,1.70396,47.4546
-175,561,1.57813,-48.0573,0.00554356,-0.0238097,0.00997073,0.00861008,-0.0268762,0.29837,0.0213736,0.0425458,1049,463,1.57818,48.0573
-168,561,1.42322,-48.6671,0,0,0,0,0,0,0,-1,1056,463,1.42327,48.6671
-161,561,1.76599,-49.0607,0,0,0,0,0,0,0,-1,1063,463,1.76599,49.0607
-154,561,1.8728,-50.2194,0,0,0,0,0,0,0,-1,1070,463,1.8728,50.2194
-147,561,1.8822,-50.8672,0,0,0,0,0,0,0,-1,1077,463,1.88226,50.8672
-140,561,1.69055,-50.9615,0,0,0,0,0,0,0,-1,1084,463,1.69061,50.9616
-133,561,1.49817,-50.2451,0,0,0,0,0,0,0,-1,1091,463,1.49814,50.2451
-126,561,1.77014,-49.4318,0,0,0,0,0,0,0,-1,1098,463,1.7702,49.4318
-119,561,-0.336304,-35.422,0,0,0,0,0,0,0,-1,1105,463,-0.336245,35.422
-112,561,1.24365,-29.1982,0,0,0,0,0,0,0,-1,1112,463,1.2437,29.1981
-105,561,0.530518,-13.5379,0,0,0,0,0,0,0,-1,1119,463,0.530477,13.5379
-98,561,1.5387,-7.54352,0,0,0,0,0,0,0,-1,1126,463,1.53871,7.54351
-91,561,1.29553,-6.57968,0,0,0,0,0,0,0,-1,1133,463,1.29549,6.5797
-84,561,1.23364,-5.84555,0,0,0,0,0,0,0,-1,1140,463,1.23363,5.84556
-77,561,-2.36023,1.00204,0,0,0,0,0,0,0,-1,1147,463,-2.3602,-1.00205
-70,561,-3.90015,-1.41541,0,0,0,0,0,0,0,-1,1154,463,-3.90009,1.4154
-63,561,-6.95691,-4.02756,0,0,0,0,0,0,0,-1,1161,463,-6.95696,4.02756
-56,561,-5.37988,-6.66855,0,0,0,0,0,0,0,-1,1168,463,-5.37988,6.66854
-49,561,-5.7439,-9.11029,0,0,0,0,0,0,0,-1,1175,463,-5.74387,9.1103
-42,561,-1.72644,-5.63065,0,0,0,0,0,0,0,-1,1182,463,-1.72648,5.63064
-35,561,-1.65674,-4.87994,0,0,0,0,0,0,0,-1,1189,463,-1.6567,4.87993
-28,561,-1.91418,-3.86896,0,0,0,0,0,0,0,-1,1196,463,-1.91414,3.86895
-21,561,1.98987,-55.6553,0,0,0,0,0,0,0,-1,1203,463,1.98988,55.6553
-14,561,2.39026,-56.0234,0,0,0,0,0,0,0,-1,1210,463,2.39028,56.0234
-7,561,3.31921,-56.2607,0,0,0,0,0,0,0,-1,1217,463,3.31925,56.2607
0,561,3.39551,-56.6041,0,0,0,0,0,0,0,-1,1224,463,3.39553,56.6041
7,561,3.59924,-57.0929,0.0592251,0.0659648,0.0141713,0.0771614,0.0480286,0.902127,0.0449922,0.0475107,1231,463,3.5992,57.0929
14,561,3.77368,-57.5813,0.052241,0.0562383,0.0178778,0.0722288,0.0362505,0.841065,0.0417014,0.043708,1238,463,3.77364,57.5813
21,561,4.0155,-58.0878,0,0,0,0,0,0,0,-1,1245,463,4.01548,58.0878
28,561,4.61243,-58.6953,0,0,0,0,0,0,0,-1,1252,463,4.61243,58.6953
35,561,5.28906,-59.3582,0.0451611,0.0305891,0.0318051,0.0705041,0.00524609,0.672799,0.0453553,0.043339,1259,463,5.28906,59.3582
42,561,6.5166,-59.6885,0.0444037,0.0211321,0.0318404,0.0666677,-0.00113194,0.610216,0.0448272,0.0434163,1266,463,6.51661,59.6885
49,561,10.9142,-57.9373,0,0,0,0,0,0,0,-1,1273,463,10.9141,57.9373
56,561,8.89832,-57.4073,0.0501833,0.0032848,0.019491,0.0572261,-0.003758,0.346738,0.0394631,0.0446028,1280,463,8.89837,57.4073
63,561,6.8783,-56.8071,0.0549035,-0.00517042,0.0106868,0.0567479,-0.0070149,0.170911,0.0403739,0.0474344,1287,463,6.87827,56.8071
70,561,4.79761,-56.6017,0.0602255,-0.0136718,-0.00145284,0.0602541,-0.0137003,-0.0196501,0.0454301,0.0454858,1294,463,4.79761,56.6017
77,561,2.995,-56.4528,0.0638478,-0.0206004,-0.0193298,0.0680621,-0.0248146,-0.214657,0.0555263,0.0462071,1301,463,2.99505,56.4528
84,561,9.84338,-56.9532,0.0682215,-0.0277822,-0.0390248,0.0820833,-0.041644,-0.341304,0.0726947,0.0469267,1308,463,9.84341,56.9532
91,561,9.83398,-56.8158,0,0,0,0,0,0,0,-1,1315,463,9.83404,56.8158
98,561,10.1285,-56.6788,0.067868,-0.0396654,-0.0783468,0.109123,-0.0809201,-0.484674,0.110123,0.0441017,1322,463,10.1285,56.6788
105,561,10.3181,-56.4829,0.067199,-0.0415209,-0.0932735,0.120797,-0.0951191,-0.521559,0.124953,0.0473873,1329,463,10.3181,56.4829
112,561,10.3151,-56.4361,0.0621548,-0.0415384,-0.10204,0.124765,-0.104148,-0.550345,0.132342,0.0469145,1336,463,10.315,56.4361
119,561,10.8175,-56.7739,0,0,0,0,0,0,0,-1,1343,463,10.8175,56.7739
126,561,11.1963,-56.7338,0,0,0,0,0,0,0,-1,1350,463,11.1962,56.7338
133,561,0.0228271,-57.6559,0,0,0,0,0,0,0,-1,1357,463,0.0227935,57.656
140,561,3.3894,-67.1954,0,0,0,0,0,0,0,-1,1364,463,3.38944,67.1954
147,561,3.31396,-68.5279,0,0,0,0,0,0,0,-1,1371,463,3.31402,68.5279
154,561,2.9801,-69.6845,0,0,0,0,0,0,0,-1,1378,463,2.9801,69.6845
161,561,2.58667,-70.5203,0,0,0,0,0,0,0,-1,1385,463,2.58669,70.5203
168,561,2.2384,-71.3521,0,0,0,0,0,0,0,-1,1392,463,2.23841,71.352
175,561,10.4185,0.276398,0,0,0,0,0,0,0,-1,1399,463,10.4185,-0.276394
182,561,6.45703,-4.02127,0,0,0,0,0,0,0,-1,1406,463,6.45704,4.02127
189,561,6.50854,-2.08685,0,0,0,0,0,0,0,-1,1413,463,6.50851,2.08686
196,561,6.44775,-0.27182,0,0,0,0,0,0,0,-1,1420,463,6.44773,0.271814
203,561,6.18591,1.1301,0,0,0,0,0,0,0,-1,1427,463,6.18592,-1.13009
210,561,5.68713,2.68427,0,0,0,0,0,0,0,-1,1434,463,5.6871,-2.68425
217,561,3.61743,-7.33582,0,0,0,0,0,0,0,-1,1441,463,3.61738,7.33581
224,561,4.27466,-8.59171,0,0,0,0,0,0,0,-1,1448,463,4.27466,8.59171
231,561,4.93188,-9.8476,0,0,0,0,0,0,0,-1,1455,463,4.93193,9.84761
238,561,2.18018,-5.18359,0,0,0,0,0,0,0,-1,1462,463,2.18023,5.18359
245,561,3.07568,-3.50238,0,0,0,0,0,0,0,-1,1469,463,3.0757,3.50238
252,561,3.47412,-3.71109,0,0,0,0,0,0,0,-1,1476,463,3.47413,3.71109
259,561,3.42212,-3.2334,0,0,0,0,0,0,0,-1,1483,463,3.42214,3.2334
266,561,4.44373,-5.90027,0,0,0,0,0,0,0,-1,1490,463,4.44372,5.90026
273,561,2.59485,-3.65268,0,0,0,0,0,0,0,-1,1497,463,2.5948,3.65268
280,561,12.9779,-49.8553,0,0,0,0,0,0,0,-1,1504,463,12.9779,49.8553
287,561,13.1869,-48.9557,0.0100312,-0.0281221,-0.00925683,0.0121585,-0.0302494,-0.225887,0.0252159,0.047773,1511,463,13.1868,48.9556
294,561,13.2211,-48.3168,0.0090202,-0.0278853,-0.00936121,0.0112589,-0.030124,-0.234738,0.0247061,0.0439914,1518,463,13.2211,48.3168
301,561,13.0128,-47.6819,0.00810773,-0.0270445,-0.00928453,0.0104093,-0.029346,-0.242995,0.0238049,0.0356776,1525,463,13.0128,47.6818
308,561,13.0402,-47.1615,0.00721554,-0.0255326,-0.00910534,0.00957693,-0.0278939,-0.253751,0.0224789,0.0276992,1532,463,13.0402,47.1615
315,561,13.0997,-46.6479,0.00632244,-0.0235809,-0.00869653,0.00866765,-0.0259261,-0.263406,0.0207847,0.0159687,1539,463,13.0997,46.6479
322,561,13.0736,-46.0186,0.00545156,-0.0212323,-0.00804769,0.00769079,-0.0234715,-0.271381,0.0187448,0.0150363,1546,463,13.0736,46.0186
329,561,13.0917,-45.3258,0.0046049,-0.0187049,-0.00726237,0.0066824,-0.0207824,-0.278622,0.0165387,0.0121352,1553,463,13.0916,45.3258
336,561,13.101,-44.6097,0.00373518,-0.0160546,-0.00642693,0.0056392,-0.0179586,-0.288019,0.0142296,0.0115844,1560,463,13.101,44.6097
343,561,13.0898,-43.9364,0.00292795,-0.0132065,-0.00538343,0.00455925,-0.0148378,-0.294228,0.0117113,0.0108276,1567,463,13.0898,43.9364
350,561,13.0396,-43.2107,0.00239558,-0.0102463,-0.00421366,0.0036713,-0.011522,-0.293985,0.00915389,0.009627,1574,463,13.0396,43.2107
357,561,13.0009,-42.4669,0.00190194,-0.00714676,-0.00307024,0.00284532,-0.00809014,-0.29811,0.00655118,0.00949132,1581,463,13.0008,42.467
364,561,12.9974,-41.7769,0.00140964,-0.00438709,-0.001833,0.00194062,-0.00491807,-0.28196,0.00408235,0.0092266,1588,463,12.9974,41.7769
371,561,12.9589,-41.0241,0.00112843,-0.00196045,-0.000648364,0.00125901,-0.00209102,-0.198731,0.00195392,0.0157739,1595,463,12.9589,41.0241
378,561,12.9235,-40.2823,0.000925388,0.000228017,0.000327548,0.00105511,9.82998e-05,0.377075,0.000673034,0.0118369,1602,463,12.9234,40.2823
385,561,12.901,-39.5208,0.000592339,0.00213391,0.00114602,0.00274424,-1.79851e-05,1.08144,0.00183552,0.0114454,1609,463,12.9011,39.5208
392,561,12.8293,-38.7656,0.000535643,0.0034672,0.00191196,0.00441059,-0.000407746,1.11243,0.0030853,0.0167048,1616,463,12.8293,38.7656
399,561,12.8146,-38.026,0.000563418,0.00459655,0.00261638,0.00588332,-0.000723347,1.11372,0.00418422,0.0234031,1623,463,12.8146,38.026
406,561,12.8014,-37.258,0.000391957,0.00570378,0.00339619,0.00735924,-0.00126351,1.11724,0.00537704,0.0199869,1630,463,12.8013,37.258
413,561,12.7496,-36.4472,6.84248e-05,0.00625254,0.00376603,0.00803324,-0.00171228,1.12912,0.00600814,0.0179906,1637,463,12.7496,36.4472
420,561,12.6931,-35.6448,-0.000255785,0.00651257,0.0043578,0.00864591,-0.00238913,1.11555,0.00670376,0.0143129,1644,463,12.6931,35.6448
427,561,12.6563,-34.8368,-0.000629731,0.00668537,0.00523215,0.00941163,-0.003356,1.09044,0.00764277,0.010999,1651,463,12.6562,34.8368
434,561,12.6111,-34.0084,-0.000982914,0.00692914,0.00608159,0.0102282,-0.00428195,1.07376,0.0086087,0.0128595,1658,463,12.6111,34.0084
441,561,12.6094,-33.209,-0.00146372,0.0070251,0.00707549,0.0110316,-0.00547022,1.05556,0.00970601,0.015568,1665,463,12.6094,33.209
448,561,12.6016,-32.3525,-0.00203137,0.0069681,0.00828308,0.0118948,-0.00695804,1.03422,0.0110084,0.0220877,1672,463,12.6016,32.3525
455,561,12.4139,-31.4923,-0.00271864,0.00686922,0.0097127,0.0129066,-0.00875607,1.01464,0.0125833,0.042578,1679,463,12.414,31.4923
462,561,12.0953,-30.8051,-0.00328452,0.00701886,0.0114526,0.0144251,-0.0106908,0.996753,0.014554,0.0413255,1686,463,12.0954,30.8051
469,561,12.127,-30.1146,-0.00387066,0.00705894,0.0133011,0.0159741,-0.0127859,0.980311,0.0166386,0.028054,1693,463,12.1269,30.1146
476,561,11.8859,-28.9647,-0.00432249,0.00678781,0.0153506,0.0175575,-0.0150922,0.95901,0.0188682,0.0438765,1700,463,11.8859,28.9647
483,561,11.5626,-27.6752,0,0,0,0,0,0,0,-1,1707,463,11.5626,27.6752
490,561,10.2549,-20.4551,0,0,0,0,0,0,0,-1,1714,463,10.2548,20.4551
497,561,11.7618,-20.3894,0,0,0,0,0,0,0,-1,1721,463,11.7618,20.3894
504,561,12.9351,-20.1285,0,0,0,0,0,0,0,-1,1728,463,12.935,20.1285
511,561,0,0,0,0,0,0,0,0,0,-1,1735,463,0,0
518,561,0,0,0,0,0,0,0,0,0,-1,1742,463,0,0
525,561,0,0,0,0,0,0,0,0,0,-1,1749,463,0,0
532,561,0,0,0,0,0,0,0,0,0,-1,1756,463,0,0
539,561,0,0,0,0,0,0,0,0,0,-1,1763,463,0,0
546,561,0,0,0,0,0,0,0,0,0,-1,1770,463,0,0
553,561,0,0,0,0,0,0,0,0,0,-1,1777,463,0,0
560,561,0,0,0,0,0,0,0,0,0,-1,1784,463,0,0
567,561,0,0,0,0,0,0,0,0,0,-1,1791,463,0,0
574,561,0,0,0,0,0,0,0,0,0,-1,1798,463,0,0
581,561,0,0,0,0,0,0,0,0,0,-1,1805,463,0,0
588,561,0,0,0,0,0,0,0,0,0,-1,1812,463,0,0
595,561,0,0,0,0,0,0,0,0,0,-1,1819,463,0,0
602,561,0,0,0,0,0,0,0,0,0,-1,1826,463,0,0
609,561,0,0,0,0,0,0,0,0,0,-1,1833,463,0,0
616,561,0,0,0,0,0,0,0,0,0,-1,1840,463,0,0
623,561,0,0,0,0,0,0,0,0,0,-1,1847,463,0,0
630,561,0,0,0,0,0,0,0,0,0,-1,1854,463,0,0
637,561,0,0,0,0,0,0,0,0,0,-1,1861,463,0,0
644,561,0,0,0,0,0,0,0,0,0,-1,1868,463,0,0
651,561,0,0,0,0,0,0,0,0,0,-1,1875,463,0,0
658,561,0,0,0,0,0,0,0,0,0,-1,1882,463,0,0
665,561,0,0,0,0,0,0,0,0,0,-1,1889,463,0,0
672,561,0,0,0,0,0,0,0,0,0,-1,1896,463,0,0
679,561,0,0,0,0,0,0,0,0,0,-1,1903,463,0,0
686,561,0,0,0,0,0,0,0,0,0,-1,1910,463,0,0
693,561,0,0,0,0,0,0,0,0,0,-1,1917,463,0,0
700,561,0,0,0,0,0,0,0,0,0,-1,1924,463,0,0
707,561,0,0,0,0,0,0,0,0,0,-1,1931,463,0,0
714,561,0,0,0,0,0,0,0,0,0,-1,1938,463,0,0
721,561,0,0,0,0,0,0,0,0,0,-1,1945,463,0,0
728,561,0,0,0,0,0,0,0,0,0,-1,1952,463,0,0
735,561,0,0,0,0,0,0,0,0,0,-1,1959,463,0,0
742,561,0,0,0,0,0,0,0,0,0,-1,1966,463,0,0
749,561,0,0,0,0,0,0,0,0,0,-1,1973,463,0,0
756,561,0,0,0,0,0,0,0,0,0,-1,1980,463,0,0
763,561,0,0,0,0,0,0,0,0,0,-1,1987,463,0,0
770,561,0,0,0,0,0,0,0,0,0,-1,1994,463,0,0
777,561,0,0,0,0,0,0,0,0,0,-1,2001,463,0,0
784,561,0,0,0,0,0,0,0,0,0,-1,2008,463,0,0
791,561,0,0,0,0,0,0,0,0,0,-1,2015,463,0,0
798,561,0,0,0,0,0,0,0,0,0,-1,2022,463,0,0
805,561,0,0,0,0,0,0,0,0,0,-1,2029,463,0,0
812,561,0,0,0,0,0,0,0,0,0,-1,2036,463,0,0
-700,554,0,0,0,0,0,0,0,0,0,-1,524,470,0,0
-693,554,0,0,0,0,0,0,0,0,0,-1,531,470,0,0
-686,554,0,0,0,0,0,0,0,0,0,-1,538,470,0,0
-679,554,0,0,0,0,0,0,0,0,0,-1,545,470,0,0
-672,554,0,0,0,0,0,0,0,0,0,-1,552,470,0,0
-665,554,0,0,0,0,0,0,0,0,0,-1,559,470,0,0
-658,554,0,0,0,0,0,0,0,0,0,-1,566,470,0,0
-651,554,0,0,0,0,0,0,0,0,0,-1,573,470,0,0
-644,554,0,0,0,0,0,0,0,0,0,-1,580,470,0,0
-637,554,0,0,0,0,0,0,0,0,0,-1,587,470,0,0
-630,554,0,0,0,0,0,0,0,0,0,-1,594,470,0,0
-623,554,0,0,0,0,0,0,0,0,0,-1,601,470,0,0
-616,554,0,0,0,0,0,0,0,0,0,-1,608,470,0,0
-609,554,0,0,0,0,0,0,0,0,0,-1,615,470,0,0
-602,554,0,0,0,0,0,0,0,0,0,-1,622,470,0,0
-595,554,0,0,0,0,0,0,0,0,0,-1,629,470,0,0
-588,554,0,0,0,0,0,0,0,0,0,-1,636,470,0,0
-581,554,0,0,0,0,0,0,0,0,0,-1,643,470,0,0
-574,554,0,0,0,0,0,0,0,0,0,-1,650,470,0,0
-567,554,0,0,0,0,0,0,0,0,0,-1,657,470,0,0
-560,554,0,0,0,0,0,0,0,0,0,-1,664,470,0,0
-553,554,0,0,0,0,0,0,0,0,0,-1,671,470,0,0
-546,554,0,0,0,0,0,0,0,0,0,-1,678,470,0,0
-539,554,0,0,0,0,0,0,0,0,0,-1,685,470,0,0
-532,554,0,0,0,0,0,0,0,0,0,-1,692,470,0,0
-525,554,0,0,0,0,0,0,0,0,0,-1,699,470,0,0
-518,554,0,0,0,0,0,0,0,0,0,-1,706,470,0,0
-511,554,0,0,0,0,0,0,0,0,0,-1,713,470,0,0
-504,554,0,0,0,0,0,0,0,0,0,-1,720,470,0,0
-497,554,0,0,0,0,0,0,0,0,0,-1,727,470,0,0
-490,554,0,0,0,0,0,0,0,0,0,-1,734,470,0,0
-483,554,0,0,0,0,0,0,0,0,0,-1,741,470,0,0
-476,554,0,0,0,0,0,0,0,0,0,-1,748,470,0,0
-469,554,0,0,0,0,0,0,0,0,0,-1,755,470,0,0
-462,554,0,0,0,0,0,0,0,0,0,-1,762,470,0,0
-455,554,0,0,0,0,0,0,0,0,0,-1,769,470,0,0
-448,554,0,0,0,0,0,0,0,0,0,-1,776,470,0,0
-441,554,0,0,0,0,0,0,0,0,0,-1,783,470,0,0
-434,554,0,0,0,0,0,0,0,0,0,-1,790,470,0,0
-427,554,0,0,0,0,0,0,0,0,0,-1,797,470,0,0
-420,554,0,0,0,0,0,0,0,0,0,-1,804,470,0,0
-413,554,0,0,0,0,0,0,0,0,0,-1,811,470,0,0
-406,554,0,0,0,0,0,0,0,0,0,-1,818,470,0,0
-399,554,-1.32275,-3.95142,0,0,0,0,0,0,0,-1,825,470,-1.32275,3.95141
-392,554,-1.35632,-3.7406,0,0,0,0,0,0,0,-1,832,470,-1.35632,3.7406
-385,554,-0.849243,-4.14447,0,0,0,0,0,0,0,-1,839,470,-0.849262,4.14446
-378,554,0.715332,-26.4245,0,0,0,0,0,0,0,-1,846,470,0.715328,26.4245
-371,554,1.08099,-26.9558,0,0,0,0,0,0,0,-1,853,470,1.081,26.9558
-364,554,1.42053,-27.5194,0,0,0,0,0,0,0,-1,860,470,1.42055,27.5194
-357,554,2.36322,-27.5764,0,0,0,0,0,0,0,-1,867,470,2.36323,27.5764
-350,554,1.17157,-18.1341,0,0,0,0,0,0,0,-1,874,470,1.17156,18.1341
-343,554,1.73083,-30.1893,0,0,0,0,0,0,0,-1,881,470,1.73086,30.1893
-336,554,1.6756,-31.2585,-0.00292037,0.0208419,-0.00721786,0.0228626,-0.00494099,-1.29784,0.0171279,0.0414251,888,470,1.67558,31.2584
-329,554,1.47717,-32.1912,-0.00404878,0.017069,-0.00592398,0.0186173,-0.00559706,-1.31516,0.0146383,0.0218748,895,470,1.47719,32.1912
-322,554,1.39502,-33.0064,-0.00456695,0.0139354,-0.00481167,0.0151119,-0.00574345,-1.33099,0.0124392,0.0160447,902,470,1.39502,33.0065
-315,554,1.36755,-33.7812,-0.00460855,0.0112953,-0.00390318,0.0122016,-0.00551484,-1.34265,0.0104686,0.0154221,909,470,1.36756,33.7811
-308,554,1.32843,-34.5716,-0.00450045,0.00908745,-0.00330472,0.00984856,-0.00526156,-1.34443,0.00885681,0.0148896,916,470,1.32843,34.5716
-301,554,1.29266,-35.3939,-0.00373684,0.00703846,-0.00288404,0.00776182,-0.0044602,-1.32505,0.00714169,0.0143264,923,470,1.29266,35.3939
-294,554,1.23352,-36.167,-0.00272888,0.00548829,-0.002416,0.006146,-0.00338659,-1.30501,0.00557997,0.0130094,930,470,1.23352,36.167
-287,554,1.1861,-36.9402,-0.00180972,0.00421472,-0.00197798,0.00480609,-0.00240109,-1.28028,0.00423759,0.0133139,937,470,1.18607,36.9402
-280,554,1.13818,-37.7107,-0.00103118,0.00288184,-0.00161495,0.00346226,-0.00161159,-1.22577,0.00299364,0.0125066,944,470,1.1382,37.7107
-273,554,1.07916,-38.4648,-0.000353793,0.0016667,-0.0011755,0.00220642,-0.000893517,-1.14037,0.00184248,0.0151492,951,470,1.07914,38.4648
-266,554,1.03833,-39.2192,0.000344469,5.89621e-06,-0.000641717,0.000838854,-0.000488488,-0.656435,0.000775189,0.0120636,958,470,1.03835,39.2192
-259,554,0.992004,-39.9257,0.00111231,-0.0020889,-8.49103e-06,0.00111233,-0.00208893,-0.00265242,0.0018767,0.0125599,965,470,0.992012,39.9257
-252,554,0.936096,-40.6323,0.00171956,-0.00424859,0.0008911,0.00184977,-0.0043788,0.145095,0.00369355,0.0155527,972,470,0.936078,40.6323
-245,554,0.90448,-41.3674,0.0022603,-0.00650586,0.00172655,0.0025881,-0.00683366,0.187624,0.00562073,0.0166528,979,470,0.904494,41.3674
-238,554,0.922729,-42.134,0.00287379,-0.00912132,0.00267782,0.00344444,-0.00969198,0.209964,0.00786503,0.0116948,986,470,0.922707,42.134
-231,554,0.901184,-42.8688,0.00347623,-0.0120572,0.00378252,0.00434834,-0.0129294,0.226603,0.0103773,0.0102073,993,470,0.901205,42.8688
-224,554,0.894226,-43.5656,0.00402722,-0.0150112,0.00489678,0.00521286,-0.0161968,0.237555,0.0128917,0.0108635,1000,470,0.894198,43.5656
-217,554,0.892151,-44.2427,0.00460969,-0.0180376,0.00602388,0.00611227,-0.0195402,0.244449,0.015472,0.0114924,1007,470,0.89215,44.2427
-210,554,0.888367,-44.9064,0.00513608,-0.0210769,0.00707504,0.00692376,-0.0228645,0.247494,0.0180004,0.0156008,1014,470,0.88835,44.9064
-203,554,0.865845,-45.5048,0.00563749,-0.0237083,0.00796896,0.00766185,-0.0257327,0.248768,0.0201994,0.0257052,1021,470,0.865856,45.5048
-196,554,0.849976,-46.0513,0.00602028,-0.0257224,0.0087272,0.00826146,-0.0279636,0.251372,0.0219214,0.0335904,1028,470,0.849971,46.0514
-189,554,0.907104,-46.5689,0.00620541,-0.0274091,0.00986268,0.0088855,-0.0300892,0.265333,0.0235859,0.0379002,1035,470,0.907052,46.5689
-182,554,0.919678,-47.0074,0.00639416,-0.0300744,0.0116336,0.00978925,-0.0334695,0.283949,0.0261931,0.0485368,1042,470,0.919707,47.0074
-175,554,0.796387,-47.3909,0,0,0,0,0,0,0,-1,1049,470,0.796425,47.3909
-168,554,1.0968,-46.834,0,0,0,0,0,0,0,-1,1056,470,1.09681,46.834
-161,554,1.09583,-42.015,0,0,0,0,0,0,0,-1,1063,470,1.09577,42.015
-154,554,1.03186,-42.7216,0,0,0,0,0,0,0,-1,1070,470,1.03187,42.7216
-147,554,1.4552,-41.5187,0,0,0,0,0,0,0,-1,1077,470,1.45525,41.5187
-140,554,0.428101,-38.9893,0,0,0,0,0,0,0,-1,1084,470,0.428152,38.9893
-133,554,2.67163,-32.8187,0,0,0,0,0,0,0,-1,1091,470,2.67161,32.8187
-126,554,0.851929,-33.5393,0,0,0,0,0,0,0,-1,1098,470,0.851942,33.5393
-119,554,-1.03479,-32.1628,0,0,0,0,0,0,0,-1,1105,470,-1.03476,32.1628
-112,554,1.03162,-24.5784,0,0,0,0,0,0,0,-1,1112,470,1.03156,24.5784
-105,554,0.608765,-21.0475,0,0,0,0,0,0,0,-1,1119,470,0.608728,21.0475
-98,554,1.51929,-7.3624,0,0,0,0,0,0,0,-1,1126,470,1.51928,7.36241
-91,554,1.41089,-6.5864,0,0,0,0,0,0,0,-1,1133,470,1.41093,6.58638
-84,554,1.62305,-5.87186,0,0,0,0,0,0,0,-1,1140,470,1.62299,5.87186
-77,554,-2.56958,1.33258,0,0,0,0,0,0,0,-1,1147,470,-2.56959,-1.33257
-70,554,-3.68164,-1.18332,0,0,0,0,0,0,0,-1,1154,470,-3.68158,1.18331
-63,554,-4.86853,-3.88708,0,0,0,0,0,0,0,-1,1161,470,-4.86853,3.88708
-56,554,-5.69958,-6.45422,0,0,0,0,0,0,0,-1,1168,470,-5.69955,6.45422
-49,554,-6.23645,-8.8569,0,0,0,0,0,0,0,-1,1175,470,-6.23643,8.85689
-42,554,-6.62524,-11.5382,0,0,0,0,0,0,0,-1,1182,470,-6.62522,11.5382
-35,554,-2.40173,-4.59482,0,0,0,0,0,0,0,-1,1189,470,-2.40169,4.59481
-28,554,-0.760132,-1.65555,0,0,0,0,0,0,0,-1,1196,470,-0.760095,1.65556
-21,554,7.92444,-43.2634,0,0,0,0,0,0,0,-1,1203,470,7.92438,43.2634
-14,554,1.1947,-56.7411,0,0,0,0,0,0,0,-1,1210,470,1.19471,56.7412
-7,554,4.14246,-54.6483,0,0,0,0,0,0,0,-1,1217,470,4.1425,54.6483
0,554,3.71765,-57.5967,0,0,0,0,0,0,0,-1,1224,470,3.7176,57.5967
7,554,3.8219,-58.0628,0.0821832,0.0872928,0.0131139,0.0980985,0.0713776,0.881601,0.0585607,0.0488544,1231,470,3.82187,58.0628
14,554,4.07788,-58.3665,0.073824,0.0755469,0.0191741,0.0938789,0.0554919,0.807847,0.0545001,0.0441182,1238,470,4.07783,58.3664
21,554,4.34387,-58.9624,0,0,0,0,0,0,0,-1,1245,470,4.34391,58.9624
28,554,4.51636,-59.5162,0,0,0,0,0,0,0,-1,1252,470,4.51641,59.5162
35,554,4.84485,-59.6802,0.0723419,0.0489453,0.0435827,0.105769,0.0155182,0.654281,0.0659514,0.0404173,1259,470,4.84483,59.6801
42,554,5.17493,-59.7764,0.0735348,0.039906,0.0477881,0.10738,0.00606044,0.616236,0.0696547,0.0470769,1266,470,5.17492,59.7764
49,554,5.4989,-59.8585,0,0,0,0,0,0,0,-1,1273,470,5.49891,59.8585
56,554,9.35815,-57.0542,0.0846952,0.0229911,0.0402158,0.10453,0.0031562,0.458201,0.0686588,0.0475609,1280,470,9.3582,57.0542
63,554,7.34888,-56.4691,0.0907481,0.0149611,0.0347859,0.104294,0.00141555,0.371333,0.0690621,0.0483516,1287,470,7.34893,56.469
70,554,5.3407,-55.881,0,0,0,0,0,0,0,-1,1294,470,5.34065,55.881
77,554,2.70081,-56.4901,0,0,0,0,0,0,0,-1,1301,470,2.70083,56.4901
84,554,10.9109,-56.5646,0,0,0,0,0,0,0,-1,1308,470,10.9109,56.5646
91,554,10.6215,-56.3431,0,0,0,0,0,0,0,-1,1315,470,10.6215,56.3431
98,554,11.1879,-56.2906,0.0953769,-0.0262592,-0.0597953,0.119848,-0.0507307,-0.388459,0.101143,0.0435459,1322,470,11.1879,56.2906
105,554,11.8629,-56.3692,0.0899054,-0.0327618,-0.0855493,0.133836,-0.0766921,-0.474396,0.123032,0.0448529,1329,470,11.8629,56.3692
112,554,12.1208,-56.2353,0.0782315,-0.0370122,-0.104596,0.140027,-0.0988081,-0.533631,0.138575,0.0428726,1336,470,12.1209,56.2353
119,554,12.4128,-56.1415,0.0548081,-0.0388713,-0.113838,0.131067,-0.11513,-0.590226,0.142241,0.042591,1343,470,12.4129,56.1415
126,554,12.5792,-56.0535,0.0305166,-0.0350867,-0.108136,0.110717,-0.115287,-0.638141,0.130492,0.0468792,1350,470,12.5792,56.0535
133,554,12.6967,-55.7712,0,0,0,0,0,0,0,-1,1357,470,12.6966,55.7712
140,554,-1.13306,-58.787,0,0,0,0,0,0,0,-1,1364,470,-1.13302,58.787
147,554,3.19788,-67.9967,0,0,0,0,0,0,0,-1,1371,470,3.19791,67.9967
154,554,2.79199,-69.7485,0,0,0,0,0,0,0,-1,1378,470,2.79198,69.7485
161,554,2.5188,-70.3378,0,0,0,0,0,0,0,-1,1385,470,2.51883,70.3378
168,554,2.19226,-70.7622,0,0,0,0,0,0,0,-1,1392,470,2.19222,70.7622
175,554,10.663,0.286957,0,0,0,0,0,0,0,-1,1399,470,10.663,-0.286966
182,554,6.71106,-4.50217,0,0,0,0,0,0,0,-1,1406,470,6.71107,4.50215
189,554,6.90479,-2.50348,0,0,0,0,0,0,0,-1,1413,470,6.90477,2.50348
196,554,6.96216,-0.740906,0,0,0,0,0,0,0,-1,1420,470,6.96214,0.740912
203,554,6.43518,0.414154,0,0,0,0,0,0,0,-1,1427,470,6.43523,-0.414141
210,554,6.21167,1.96707,0,0,0,0,0,0,0,-1,1434,470,6.21165,-1.96706
217,554,5.64551,3.4989,0,0,0,0,0,0,0,-1,1441,470,5.64555,-3.49891
224,554,4.85144,-8.85172,0,0,0,0,0,0,0,-1,1448,470,4.85146,8.85173
231,554,3.25073,-5.29642,0,0,0,0,0,0,0,-1,1455,470,3.25078,5.29642
238,554,4.28625,-3.25253,0,0,0,0,0,0,0,-1,1462,470,4.28622,3.25252
245,554,4.0752,-2.90033,0,0,0,0,0,0,0,-1,1469,470,4.07515,2.90032
252,554,3.52112,-0.934998,0,0,0,0,0,0,0,-1,1476,470,3.52113,0.934996
259,554,3.96448,-2.16425,0,0,0,0,0,0,0,-1,1483,470,3.96446,2.16424
266,554,3.0592,-2.71716,0,0,0,0,0,0,0,-1,1490,470,3.05923,2.71718
273,554,2.58521,-3.06876,0,0,0,0,0,0,0,-1,1497,470,2.58524,3.06874
280,554,2.83301,-0.991699,0,0,0,0,0,0,0,-1,1504,470,2.83303,0.991704
287,554,14.1409,-48.7074,0,0,0,0,0,0,0,-1,1511,470,14.1409,48.7074
294,554,13.6132,-47.7021,0,0,0,0,0,0,0,-1,1518,470,13.6131,47.7021
301,554,13.5769,-47.1661,0.0100549,-0.0370729,-0.0126318,0.0132271,-0.0402451,-0.246041,0.032159,0.0466947,1525,470,13.5769,47.1661
308,554,13.7583,-46.6776,0.00896134,-0.0348958,-0.0124246,0.0122366,-0.038171,-0.257748,0.0303597,0.0497248,1532,470,13.7583,46.6775
315,554,13.9293,-46.2665,0.00782122,-0.0321877,-0.0119071,0.0110967,-0.0354632,-0.268449,0.0280817,0.0443447,1539,470,13.9293,46.2666
322,554,13.7758,-45.6725,0.00673907,-0.0290739,-0.0111006,0.00990071,-0.0322356,-0.27747,0.0254411,0.0340667,1546,470,13.7757,45.6725
329,554,13.8032,-45.1525,0.00567527,-0.0257721,-0.0101482,0.00866574,-0.0287626,-0.286569,0.0226238,0.021536,1553,470,13.8032,45.1525
336,554,13.8167,-44.5621,0.00457872,-0.0223857,-0.00914777,0.0073892,-0.0251961,-0.298078,0.0197273,0.0131567,1560,470,13.8167,44.5621
343,554,13.793,-43.902,0.00359022,-0.0188827,-0.00791382,0.00609737,-0.0213898,-0.306803,0.0166683,0.0108947,1567,470,13.793,43.902
350,554,13.7683,-43.1477,0.0029548,-0.0153193,-0.00654082,0.00505465,-0.0174192,-0.310644,0.0136141,0.0101016,1574,470,13.7683,43.1477
357,554,13.7634,-42.4194,0.00238373,-0.0115914,-0.00520953,0.00411197,-0.0133196,-0.320321,0.0105217,0.0106613,1581,470,13.7634,42.4194
364,554,13.7422,-41.7508,0.00181014,-0.00832207,-0.00378495,0.0030679,-0.00957983,-0.320825,0.00761796,0.00909226,1588,470,13.7422,41.7508
371,554,13.6991,-41.0192,0.00150626,-0.00547014,-0.00243234,0.00227056,-0.00623444,-0.304458,0.00508503,0.00865101,1595,470,13.6991,41.0192
378,554,13.6687,-40.2346,0.00130762,-0.0028843,-0.00129802,0.001677,-0.00325368,-0.277243,0.00289484,0.0101626,1602,470,13.6687,40.2347
385,554,13.6512,-39.476,0.000897432,-0.000573674,-0.00027621,0.000947583,-0.000623824,-0.17961,0.000913648,0.0103319,1609,470,13.6512,39.476
392,554,13.627,-38.713,0.000807851,0.00102237,0.00067237,0.00159598,0.000234239,0.864495,0.000995141,0.0144954,1616,470,13.627,38.713
399,554,13.5948,-37.9339,0.000855581,0.00250234,0.0014408,0.00333844,1.94849e-05,1.04499,0.00221916,0.0189311,1623,470,13.5949,37.9339
406,554,13.5643,-37.1558,0.000699336,0.00370823,0.00217894,0.00485164,-0.000444073,1.08754,0.00339216,0.0168058,1630,470,13.5643,37.1558
413,554,13.5032,-36.3762,0.000402656,0.00435419,0.00262144,0.00566105,-0.000904197,1.10833,0.00410873,0.0157407,1637,470,13.5032,36.3762
420,554,13.4557,-35.5991,8.40756e-05,0.00468086,0.00315659,0.00628716,-0.00152223,1.10008,0.00478034,0.0167598,1644,470,13.4557,35.5991
427,554,13.4409,-34.8068,-0.000275374,0.00496436,0.00389736,0.00704057,-0.00235158,1.08132,0.00564332,0.0120117,1651,470,13.441,34.8068
434,554,13.3839,-34.0242,-0.000600079,0.00525308,0.00462504,0.0077997,-0.0031467,1.06748,0.00650744,0.010378,1658,470,13.3839,34.0242
441,554,13.3457,-33.2327,-0.00100833,0.00549254,0.00549135,0.00862334,-0.00413914,1.05263,0.0075185,0.0116026,1665,470,13.3457,33.2327
448,554,13.3,-32.3699,-0.00148968,0.00559862,0.00649247,0.00945131,-0.00534237,1.03524,0.00865025,0.0163817,1672,470,13.3,32.3699
455,554,13.2065,-31.5568,-0.00201084,0.00566776,0.00764163,0.0103803,-0.00672343,1.01819,0.00994982,0.0187793,1679,470,13.2065,31.5568
462,554,13.0845,-30.7964,-0.00232291,0.00588074,0.00902408,0.0116915,-0.00813365,0.998711,0.0115073,0.0224134,1686,470,13.0845,30.7964
469,554,12.9083,-30.017,-0.00253406,0.00606364,0.0104369,0.0130523,-0.00952274,0.980756,0.0130867,0.0273211,1693,470,12.9084,30.017
476,554,12.7899,-28.6933,-0.00257557,0.00606651,0.0120032,0.0145028,-0.0110118,0.958172,0.0147767,0.042335,1700,470,12.79,28.6933
483,554,12.668,-27.3053,0,0,0,0,0,0,0,-1,1707,470,12.668,27.3053
490,554,12.5504,-17.9805,0,0,0,0,0,0,0,-1,1714,470,12.5505,17.9805
497,554,14.3204,-17.9055,0,0,0,0,0,0,0,-1,1721,470,14.3204,17.9055
504,554,2.13257,-3.81628,0,0,0,0,0,0,0,-1,1728,470,2.1326,3.8163
511,554,1.31396,-4.02713,0,0,0,0,0,0,0,-1,1735,470,1.31398,4.02712
518,554,5.04236,-5.9472,0,0,0,0,0,0,0,-1,1742,470,5.04231,5.94721
525,554,0,0,0,0,0,0,0,0,0,-1,1749,470,0,0
532,554,0,0,0,0,0,0,0,0,0,-1,1756,470,0,0
539,554,0,0,0,0,0,0,0,0,0,-1,1763,470,0,0
546,554,0,0,0,0,0,0,0,0,0,-1,1770,470,0,0
553,554,0,0,0,0,0,0,0,0,0,-1,1777,470,0,0
560,554,0,0,0,0,0,0,0,0,0,-1,1784,470,0,0
567,554,0,0,0,0,0,0,0,0,0,-1,1791,470,0,0
574,554,0,0,0,0,0,0,0,0,0,-1,1798,470,0,0
581,554,0,0,0,0,0,0,0,0,0,-1,1805,470,0,0
588,554,0,0,0,0,0,0,0,0,0,-1,1812,470,0,0
595,554,0,0,0,0,0,0,0,0,0,-1,1819,470,0,0
602,554,0,0,0,0,0,0,0,0,0,-1,1826,470,0,0
609,554,0,0,0,0,0,0,0,0,0,-1,1833,470,0,0
616,554,0,0,0,0,0,0,0,0,0,-1,1840,470,0,0
623,554,0,0,0,0,0,0,0,0,0,-1,1847,470,0,0
630,554,0,0,0,0,0,0,0,0,0,-1,1854,470,0,0
637,554,0,0,0,0,0,0,0,0,0,-1,1861,470,0,0
644,554,0,0,0,0,0,0,0,0,0,-1,1868,470,0,0
651,554,0,0,0,0,0,0,0,0,0,-1,1875,470,0,0
658,554,0,0,0,0,0,0,0,0,0,-1,1882,470,0,0
665,554,0,0,0,0,0,0,0,0,0,-1,1889,470,0,0
672,554,0,0,0,0,0,0,0,0,0,-1,1896,470,0,0
679,554,0,0,0,0,0,0,0,0,0,-1,1903,470,0,0
686,554,0,0,0,0,0,0,0,0,0,-1,1910,470,0,0
693,554,0,0,0,0,0,0,0,0,0,-1,1917,470,0,0
700,554,0,0,0,0,0,0,0,0,0,-1,1924,470,0,0
707,554,0,0,0,0,0,0,0,0,0,-1,1931,470,0,0
714,554,0,0,0,0,0,0,0,0,0,-1,1938,470,0,0
721,554,0,0,0,0,0,0,0,0,0,-1,1945,470,0,0
728,554,0,0,0,0,0,0,0,0,0,-1,1952,470,0,0
735,554,0,0,0,0,0,0,0,0,0,-1,1959,470,0,0
742,554,0,0,0,0,0,0,0,0,0,-1,1966,470,0,0
749,554,0,0,0,0,0,0,0,0,0,-1,1973,470,0,0
756,554,0,0,0,0,0,0,0,0,0,-1,1980,470,0,0
763,554,0,0,0,0,0,0,0,0,0,-1,1987,470,0,0
770,554,0,0,0,0,0,0,0,0,0,-1,1994,470,0,0
777,554,0,0,0,0,0,0,0,0,0,-1,2001,470,0,0
784,554,0,0,0,0,0,0,0,0,0,-1,2008,470,0,0
791,554,0,0,0,0,0,0,0,0,0,-1,2015,470,0,0
798,554,0,0,0,0,0,0,0,0,0,-1,2022,470,0,0
805,554,0,0,0,0,0,0,0,0,0,-1,2029,470,0,0
812,554,0,0,0,0,0,0,0,0,0,-1,2036,470,0,0
-700,547,0,0,0,0,0,0,0,0,0,-1,524,477,0,0
-693,547,0,0,0,0,0,0,0,0,0,-1,531,477,0,0
-686,547,0,0,0,0,0,0,0,0,0,-1,538,477,0,0
-679,547,0,0,0,0,0,0,0,0,0,-1,545,477,0,0
-672,547,0,0,0,0,0,0,0,0,0,-1,552,477,0,0
-665,547,0,0,0,0,0,0,0,0,0,-1,559,477,0,0
-658,547,0,0,0,0,0,0,0,0,0,-1,566,477,0,0
-651,547,0,0,0,0,0,0,0,0,0,-1,573,477,0,0
-644,547,0,0,0,0,0,0,0,0,0,-1,580,477,0,0
-637,547,0,0,0,0,0,0,0,0,0,-1,587,477,0,0
-630,547,0,0,0,0,0,0,0,0,0,-1,594,477,0,0
-623,547,0,0,0,0,0,0,0,0,0,-1,601,477,0,0
-616,547,0,0,0,0,0,0,0,0,0,-1,608,477,0,0
-609,547,0,0,0,0,0,0,0,0,0,-1,615,477,0,0
-602,547,0,0,0,0,0,0,0,0,0,-1,622,477,0,0
-595,547,0,0,0,0,0,0,0,0,0,-1,629,477,0,0
-588,547,0,0,0,0,0,0,0,0,0,-1,636,477,0,0
-581,547,0,0,0,0,0,0,0,0,0,-1,643,477,0,0
-574,547,0,0,0,0,0,0,0,0,0,-1,650,477,0,0
-567,547,0,0,0,0,0,0,0,0,0,-1,657,477,0,0
-560,547,0,0,0,0,0,0,0,0,0,-1,664,477,0,0
-553,547,0,0,0,0,0,0,0,0,0,-1,671,477,0,0
-546,547,0,0,0,0,0,0,0,0,0,-1,678,477,0,0
-539,547,0,0,0,0,0,0,0,0,0,-1,685,477,0,0
-532,547,0,0,0,0,0,0,0,0,0,-1,692,477,0,0
-525,547,0,0,0,0,0,0,0,0,0,-1,699,477,0,0
-518,547,0,0,0,0,0,0,0,0,0,-1,706,477,0,0
-511,547,0,0,0,0,0,0,0,0,0,-1,713,477,0,0
-504,547,0,0,0,0,0,0,0,0,0,-1,720,477,0,0
-497,547,0,0,0,0,0,0,0,0,0,-1,727,477,0,0
-490,547,0,0,0,0,0,0,0,0,0,-1,734,477,0,0
-483,547,0,0,0,0,0,0,0,0,0,-1,741,477,0,0
-476,547,0,0,0,0,0,0,0,0,0,-1,748,477,0,0
-469,547,0,0,0,0,0,0,0,0,0,-1,755,477,0,0
-462,547,0,0,0,0,0,0,0,0,0,-1,762,477,0,0
-455,547,0,0,0,0,0,0,0,0,0,-1,769,477,0,0
-448,547,0,0,0,0,0,0,0,0,0,-1,776,477,0,0
-441,547,0,0,0,0,0,0,0,0,0,-1,783,477,0,0
-434,547,0,0,0,0,0,0,0,0,0,-1,790,477,0,0
-427,547,0,0,0,0,0,0,0,0,0,-1,797,477,0,0
-420,547,0,0,0,0,0,0,0,0,0,-1,804,477,0,0
-413,547,0,0,0,0,0,0,0,0,0,-1,811,477,0,0
-406,547,0.144592,-11.0292,0,0,0,0,0,0,0,-1,818,477,0.144583,11.0292
-399,547,0.775513,-10.0294,0,0,0,0,0,0,0,-1,825,477,0.775482,10.0295
-392,547,-1.52271,-4.41675,0,0,0,0,0,0,0,-1,832,477,-1.52273,4.41674
-385,547,-1.73743,-4.6431,0,0,0,0,0,0,0,-1,839,477,-1.73743,4.64308
-378,547,-0.279053,-27.0299,0,0,0,0,0,0,0,-1,846,477,-0.279051,27.0299
-371,547,-0.0546875,-27.381,0,0,0,0,0,0,0,-1,853,477,-0.0546824,27.381
-364,547,0.865173,-27.6205,0,0,0,0,0,0,0,-1,860,477,0.86519,27.6205
-357,547,1.30682,-27.9534,0,0,0,0,0,0,0,-1,867,477,1.3068,27.9534
-350,547,1.05841,-29.2681,0,0,0,0,0,0,0,-1,874,477,1.05842,29.2681
-343,547,0.890076,-30.2689,0.000996554,0.0208254,-0.00820821,0.0237823,-0.00196033,-1.22503,0.016547,0.0457988,881,477,0.890074,30.2689
-336,547,0.79718,-31.3089,-0.000942455,0.0172752,-0.0065254,0.0193713,-0.00303861,-1.25998,0.0140371,0.0188176,888,477,0.797194,31.3089
-329,547,0.704773,-32.1411,-0.00208837,0.0140312,-0.00521081,0.015569,-0.00362612,-1.28383,0.0117756,0.0115576,895,477,0.704766,32.1411
-322,547,0.64917,-32.9671,-0.00271909,0.0112247,-0.00406214,0.0123217,-0.00381617,-1.30702,0.00973904,0.0121456,902,477,0.649167,32.9671
-315,547,0.583374,-33.7904,-0.00289521,0.00888522,-0.00312343,0.00966212,-0.00367211,-1.32701,0.00795323,0.0112736,909,477,0.583352,33.7904
-308,547,0.555481,-34.5649,-0.00288474,0.00695651,-0.00250746,0.00755855,-0.00348678,-1.33515,0.00651986,0.0124465,916,477,0.555502,34.5649
-301,547,0.520569,-35.3486,-0.00229292,0.00516864,-0.00207408,0.00570641,-0.00283069,-1.3171,0.00502124,0.0119217,923,477,0.520566,35.3485
-294,547,0.450073,-36.1083,-0.00144327,0.00379929,-0.00160233,0.00425024,-0.00189422,-1.29646,0.00363339,0.0108486,930,477,0.450098,36.1084
-287,547,0.401733,-36.8836,-0.000641266,0.00260949,-0.00114594,0.00297284,-0.00100462,-1.26375,0.00238827,0.0121121,937,477,0.401758,36.8836
-280,547,0.374451,-37.6664,-2.59614e-05,0.0011563,-0.000755683,0.00152459,-0.000394254,-1.11731,0.00117016,0.0129813,944,477,0.374453,37.6664
-273,547,0.331238,-38.4227,0.00052799,-0.000259006,-0.000211574,0.000581263,-0.000312279,-0.246666,0.000523621,0.0129579,951,477,0.331212,38.4226
-266,547,0.276001,-39.1654,0.00127053,-0.00211568,0.000391305,0.00131516,-0.00216031,0.113565,0.00202624,0.0129646,958,477,0.276027,39.1654
-259,547,0.237244,-39.8936,0.00196475,-0.00438565,0.00114401,0.00216456,-0.00458546,0.172909,0.00397979,0.0120733,965,477,0.237243,39.8936
-252,547,0.233948,-40.6224,0.00253919,-0.00703483,0.00213972,0.00299564,-0.00749128,0.210172,0.00623732,0.0115463,972,477,0.233967,40.6224
-245,547,0.218933,-41.3615,0.00311586,-0.00982469,0.00313651,0.003836,-0.0105448,0.225689,0.00859867,0.0124367,979,477,0.218953,41.3614
-238,547,0.215698,-42.0988,0.00380364,-0.0129673,0.00422506,0.00480791,-0.0139716,0.233363,0.0112644,0.00870664,986,477,0.21567,42.0987
-231,547,0.199097,-42.8164,0.00449457,-0.0165087,0.0054854,0.00584088,-0.0178551,0.240679,0.014255,0.00825227,993,477,0.19908,42.8164
-224,547,0.176697,-43.4883,0.00516129,-0.0201559,0.00678048,0.00686288,-0.0218574,0.245877,0.0173186,0.0102604,1000,477,0.176717,43.4883
-217,547,0.166321,-44.1142,0.00586048,-0.0238582,0.00812052,0.00793462,-0.0259323,0.250073,0.0204527,0.0157644,1007,477,0.166324,44.1142
-210,547,0.167969,-44.6414,0.00647739,-0.0276024,0.00939885,0.00889762,-0.0300227,0.252027,0.0235481,0.0273887,1014,477,0.167995,44.6413
-203,547,0.261108,-45.0068,0.00704112,-0.0309354,0.0105274,0.00976416,-0.0336584,0.253114,0.0263048,0.0434145,1021,477,0.261086,45.0068
-196,547,0.30957,-45.329,0,0,0,0,0,0,0,-1,1028,477,0.309532,45.329
-189,547,0.172485,-46.0811,0,0,0,0,0,0,0,-1,1035,477,0.172483,46.081
-182,547,0.0866699,-46.4281,0,0,0,0,0,0,0,-1,1042,477,0.086648,46.4281
-175,547,0.253174,-45.8817,0,0,0,0,0,0,0,-1,1049,477,0.253132,45.8817
-168,547,0.761719,-32.9387,0,0,0,0,0,0,0,-1,1056,477,0.761738,32.9387
-161,547,0.0430908,-34.6016,0,0,0,0,0,0,0,-1,1063,477,0.0431231,34.6016
-154,547,-0.284424,-31.1176,0,0,0,0,0,0,0,-1,1070,477,-0.284395,31.1176
-147,547,3.69434,-26.413,0,0,0,0,0,0,0,-1,1077,477,3.69437,26.413
-140,547,1.55676,-22.5229,0,0,0,0,0,0,0,-1,1084,477,1.5568,22.5229
-133,547,2.31665,-17.9421,0,0,0,0,0,0,0,-1,1091,477,2.31667,17.9421
-126,547,-1.15271,-30.6984,0,0,0,0,0,0,0,-1,1098,477,-1.15267,30.6984
-119,547,0.967651,-24.9351,0,0,0,0,0,0,0,-1,1105,477,0.967657,24.9351
-112,547,1.15674,-22.2276,0,0,0,0,0,0,0,-1,1112,477,1.15677,22.2276
-105,547,0.966797,-20.5777,0,0,0,0,0,0,0,-1,1119,477,0.966804,20.5777
-98,547,0.70166,-18.9755,0,0,0,0,0,0,0,-1,1126,477,0.701713,18.9755
-91,547,1.37805,-7.12024,0,0,0,0,0,0,0,-1,1133,477,1.37804,7.12025
-84,547,1.94202,-6.66241,0,0,0,0,0,0,0,-1,1140,477,1.94201,6.66241
-77,547,-2.28357,1.8588,0,0,0,0,0,0,0,-1,1147,477,-2.28356,-1.85879
-70,547,-3.70178,-0.874908,0,0,0,0,0,0,0,-1,1154,477,-3.70182,0.874918
-63,547,-5.12012,-3.60861,0,0,0,0,0,0,0,-1,1161,477,-5.12009,3.60862
-56,547,-6.01917,-6.2399,0,0,0,0,0,0,0,-1,1168,477,-6.01921,6.23991
-49,547,-6.729,-8.60349,0,0,0,0,0,0,0,-1,1175,477,-6.72899,8.60348
-42,547,-2.41736,-5.53012,0,0,0,0,0,0,0,-1,1182,477,-2.41734,5.53011
-35,547,-2.96838,-4.45734,0,0,0,0,0,0,0,-1,1189,477,-2.96839,4.45734
-28,547,-0.869141,-1.29901,0,0,0,0,0,0,0,-1,1196,477,-0.869135,1.29901
-21,547,-7.68262,-30.8089,0,0,0,0,0,0,0,-1,1203,477,-7.68256,30.8089
-14,547,12.377,-55.4496,0,0,0,0,0,0,0,-1,1210,477,12.377,55.4496
-7,547,4.08606,-54.6218,0,0,0,0,0,0,0,-1,1217,477,4.0861,54.6218
0,547,13.0702,-56.3131,0,0,0,0,0,0,0,-1,1224,477,13.0702,56.3131
7,547,2.78284,-59.9823,0,0,0,0,0,0,0,-1,1231,477,2.78282,59.9823
14,547,0,0,0,0,0,0,0,0,0,-1,1238,477,0,0
21,547,0,0,0,0,0,0,0,0,0,-1,1245,477,0,0
28,547,0,0,0,0,0,0,0,0,0,-1,1252,477,0,0
35,547,0,0,0,0,0,0,0,0,0,-1,1259,477,0,0
42,547,0,0,0,0,0,0,0,0,0,-1,1266,477,0,0
49,547,0,0,0,0,0,0,0,0,0,-1,1273,477,0,0
56,547,0,0,0,0,0,0,0,0,0,-1,1280,477,0,0
63,547,0,0,0,0,0,0,0,0,0,-1,1287,477,0,0
70,547,0,0,0,0,0,0,0,0,0,-1,1294,477,0,0
77,547,0,0,0,0,0,0,0,0,0,-1,1301,477,0,0
84,547,0,0,0,0,0,0,0,0,0,-1,1308,477,0,0
91,547,0,0,0,0,0,0,0,0,0,-1,1315,477,0,0
98,547,0,0,0,0,0,0,0,0,0,-1,1322,477,0,0
105,547,12.6282,-55.7908,0.126481,-0.0138931,-0.0459039,0.140159,-0.0275714,-0.289599,0.103857,0.0430676,1329,477,12.6281,55.7909
112,547,13.499,-55.7259,0.121377,-0.0205881,-0.073533,0.152599,-0.0518093,-0.401522,0.122704,0.0422106,1336,477,13.499,55.7259
119,547,14.1699,-55.6945,0.0790307,-0.0311955,-0.107231,0.144483,-0.0966476,-0.548019,0.140127,0.0427026,1343,477,14.17,55.6945
126,547,14.0704,-55.6947,-0.0135766,-0.0414704,-0.137797,0.110977,-0.166024,-0.734963,0.160976,0.0471648,1350,477,14.0704,55.6947
133,547,13.9619,-55.6763,0,0,0,0,0,0,0,-1,1357,477,13.962,55.6763
140,547,-1.6875,-59.8236,0,0,0,0,0,0,0,-1,1364,477,-1.6875,59.8236
147,547,2.81067,-68.8452,0,0,0,0,0,0,0,-1,1371,477,2.81066,68.8451
154,547,2.70801,-69.8948,0,0,0,0,0,0,0,-1,1378,477,2.70798,69.8948
161,547,2.22986,-70.2653,0,0,0,0,0,0,0,-1,1385,477,2.22983,70.2653
168,547,0.68689,-68.7853,0,0,0,0,0,0,0,-1,1392,477,0.68688,68.7854
175,547,3.35034,-0.26532,0,0,0,0,0,0,0,-1,1399,477,3.3503,0.265306
182,547,4.26038,3.72672,0,0,0,0,0,0,0,-1,1406,477,4.26039,-3.7267
189,547,3.40454,1.28671,0,0,0,0,0,0,0,-1,1413,477,3.40457,-1.28673
196,547,3.53931,1.87793,0,0,0,0,0,0,0,-1,1420,477,3.53928,-1.87794
203,547,6.49414,-0.425842,0,0,0,0,0,0,0,-1,1427,477,6.4941,0.425844
210,547,4.82092,0.53595,0,0,0,0,0,0,0,-1,1434,477,4.82096,-0.535942
217,547,4.68579,0.480072,0,0,0,0,0,0,0,-1,1441,477,4.68577,-0.480069
224,547,4.55615,0.739807,0,0,0,0,0,0,0,-1,1448,477,4.55613,-0.73981
231,547,5.90869,-3.57721,0,0,0,0,0,0,0,-1,1455,477,5.90871,3.57722
238,547,5.50049,-3.15356,0,0,0,0,0,0,0,-1,1462,477,5.50045,3.15356
245,547,5.13708,-2.65213,0,0,0,0,0,0,0,-1,1469,477,5.13708,2.65212
252,547,3.73511,-0.645233,0,0,0,0,0,0,0,-1,1476,477,3.73515,0.645237
259,547,5.86816,-3.20816,0,0,0,0,0,0,0,-1,1483,477,5.86815,3.20816
266,547,5.40222,-2.45731,0,0,0,0,0,0,0,-1,1490,477,5.40221,2.45732
273,547,3.05737,0.495789,0,0,0,0,0,0,0,-1,1497,477,3.05742,-0.49578
280,547,2.0885,1.47797,0,0,0,0,0,0,0,-1,1504,477,2.08848,-1.47795
287,547,2.31177,-2.21716,0,0,0,0,0,0,0,-1,1511,477,2.31174,2.21717
294,547,2.4823,-3.03659,0,0,0,0,0,0,0,-1,1518,477,2.48229,3.0366
301,547,14.2118,-46.6964,0,0,0,0,0,0,0,-1,1525,477,14.2118,46.6964
308,547,14.5352,-46.2472,0,0,0,0,0,0,0,-1,1532,477,14.5351,46.2472
315,547,14.7712,-45.875,0,0,0,0,0,0,0,-1,1539,477,14.7712,45.875
322,547,14.4723,-45.2829,0,0,0,0,0,0,0,-1,1546,477,14.4723,45.2829
329,547,14.3711,-44.6523,0.00681815,-0.0345584,-0.0136814,0.0109328,-0.0386731,-0.292143,0.0300957,0.0493029,1553,477,14.3712,44.6523
336,547,14.7621,-44.3503,0.00542027,-0.0300337,-0.0123796,0.00931504,-0.0339285,-0.304808,0.0262802,0.0392037,1560,477,14.7621,44.3503
343,547,14.6101,-43.8463,0.00420641,-0.0255147,-0.0108176,0.00772672,-0.029035,-0.314616,0.0223813,0.0318661,1567,477,14.6102,43.8463
350,547,14.516,-43.1152,0.00346328,-0.0210077,-0.00909848,0.00647539,-0.0240199,-0.3197,0.0185523,0.0219936,1574,477,14.516,43.1152
357,547,14.5044,-42.4057,0.00283571,-0.0163521,-0.0074466,0.00538655,-0.0189029,-0.330023,0.0147295,0.0142705,1581,477,14.5043,42.4057
364,547,14.4851,-41.7166,0.00220228,-0.0123399,-0.00573668,0.00419285,-0.0143304,-0.333991,0.0112156,0.01079,1588,477,14.4851,41.7165
371,547,14.4713,-40.9728,0.0018967,-0.00886315,-0.00414249,0.00330675,-0.0102732,-0.328086,0.00817705,0.00938773,1595,477,14.4713,40.9729
378,547,14.4403,-40.2135,0.00171839,-0.00574157,-0.00279571,0.00264982,-0.006673,-0.321599,0.00554708,0.010427,1602,477,14.4403,40.2135
385,547,14.4026,-39.4337,0.00126944,-0.00291794,-0.00150442,0.00175389,-0.00340239,-0.311533,0.00302727,0.0115535,1609,477,14.4026,39.4337
392,547,14.3739,-38.6682,0.00117397,-0.00101961,-0.000350201,0.00122853,-0.00107417,-0.154532,0.00133046,0.0128009,1616,477,14.3739,38.6682
399,547,14.3381,-37.9017,0.00125622,0.000865383,0.000495781,0.0015937,0.000527896,0.597668,0.000937433,0.013979,1623,477,14.3381,37.9017
406,547,14.3209,-37.1428,0.0011213,0.00217942,0.00120441,0.00296585,0.000334865,0.992345,0.0018756,0.0137566,1630,477,14.3209,37.1428
413,547,14.2887,-36.3705,0.000851463,0.00291252,0.00172426,0.00389073,-0.000126754,1.05475,0.00263709,0.0137812,1637,477,14.2887,36.3705
420,547,14.2539,-35.5988,0.000537953,0.00332168,0.00221818,0.00454852,-0.00068889,1.06559,0.00328614,0.0165544,1644,477,14.2539,35.5988
427,547,14.23,-34.7977,0.000177549,0.00370198,0.00284214,0.00528389,-0.00140436,1.06291,0.00407225,0.0168256,1651,477,14.2299,34.7977
434,547,14.1509,-34.0188,-0.000146797,0.00402731,0.0034687,0.00598842,-0.00210791,1.05623,0.00485009,0.0109,1658,477,14.1508,34.0188
441,547,14.0719,-33.2456,-0.000514155,0.00436122,0.00422004,0.00679703,-0.00294997,1.04731,0.0057717,0.0108539,1665,477,14.0718,33.2456
448,547,14.0161,-32.4064,-0.000940542,0.00456363,0.00504961,0.00756242,-0.00393933,1.0349,0.00674946,0.01204,1672,477,14.0161,32.4064
455,547,13.9755,-31.5877,-0.00136068,0.00473266,0.00597914,0.0083966,-0.00502462,1.02103,0.00782984,0.0117661,1679,477,13.9755,31.5877
462,547,13.9156,-30.7657,-0.00151547,0.0049972,0.00709818,0.00955034,-0.0060686,1.00045,0.00909198,0.012206,1686,477,13.9157,30.7657
469,547,13.7677,-29.9464,-0.00152524,0.00527821,0.00821282,0.0107659,-0.00701295,0.981741,0.0103406,0.0208185,1693,477,13.7676,29.9464
476,547,13.6257,-28.787,-0.00144063,0.00545574,0.00943685,0.0120546,-0.00803954,0.96056,0.0116783,0.0355052,1700,477,13.6257,28.7871
483,547,13.5294,-27.5234,0,0,0,0,0,0,0,-1,1707,477,13.5295,27.5234
490,547,3.65271,-3.71707,0,0,0,0,0,0,0,-1,1714,477,3.65277,3.71708
497,547,2.55481,-3.81421,0,0,0,0,0,0,0,-1,1721,477,2.55476,3.8142
504,547,4.01953,-2.22714,0,0,0,0,0,0,0,-1,1728,477,4.0195,2.22713
511,547,5.2146,-6.9552,0,0,0,0,0,0,0,-1,1735,477,5.21464,6.95521
518,547,5.24243,-6.56122,0,0,0,0,0,0,0,-1,1742,477,5.24241,6.56121
525,547,5.89368,-5.49866,0,0,0,0,0,0,0,-1,1749,477,5.89372,5.49866
532,547,0,0,0,0,0,0,0,0,0,-1,1756,477,0,0
539,547,0,0,0,0,0,0,0,0,0,-1,1763,477,0,0
546,547,0,0,0,0,0,0,0,0,0,-1,1770,477,0,0
553,547,0,0,0,0,0,0,0,0,0,-1,1777,477,0,0
560,547,0,0,0,0,0,0,0,0,0,-1,1784,477,0,0
567,547,0,0,0,0,0,0,0,0,0,-1,1791,477,0,0
574,547,0,0,0,0,0,0,0,0,0,-1,1798,477,0,0
581,547,0,0,0,0,0,0,0,0,0,-1,1805,477,0,0
588,547,0,0,0,0,0,0,0,0,0,-1,1812,477,0,0
595,547,0,0,0,0,0,0,0,0,0,-1,1819,477,0,0
602,547,0,0,0,0,0,0,0,0,0,-1,1826,477,0,0
609,547,0,0,0,0,0,0,0,0,0,-1,1833,477,0,0
616,547,0,0,0,0,0,0,0,0,0,-1,1840,477,0,0
623,547,0,0,0,0,0,0,0,0,0,-1,1847,477,0,0
630,547,0,0,0,0,0,0,0,0,0,-1,1854,477,0,0
637,547,0,0,0,0,0,0,0,0,0,-1,1861,477,0,0
644,547,0,0,0,0,0,0,0,0,0,-1,1868,477,0,0
651,547,0,0,0,0,0,0,0,0,0,-1,1875,477,0,0
658,547,0,0,0,0,0,0,0,0,0,-1,1882,477,0,0
665,547,0,0,0,0,0,0,0,0,0,-1,1889,477,0,0
672,547,0,0,0,0,0,0,0,0,0,-1,1896,477,0,0
679,547,0,0,0,0,0,0,0,0,0,-1,1903,477,0,0
686,547,0,0,0,0,0,0,0,0,0,-1,1910,477,0,0
693,547,0,0,0,0,0,0,0,0,0,-1,1917,477,0,0
700,547,0,0,0,0,0,0,0,0,0,-1,1924,477,0,0
707,547,0,0,0,0,0,0,0,0,0,-1,1931,477,0,0
714,547,0,0,0,0,0,0,0,0,0,-1,1938,477,0,0
721,547,0,0,0,0,0,0,0,0,0,-1,1945,477,0,0
728,547,0,0,0,0,0,0,0,0,0,-1,1952,477,0,0
735,547,0,0,0,0,0,0,0,0,0,-1,1959,477,0,0
742,547,0,0,0,0,0,0,0,0,0,-1,1966,477,0,0
749,547,0,0,0,0,0,0,0,0,0,-1,1973,477,0,0
756,547,0,0,0,0,0,0,0,0,0,-1,1980,477,0,0
763,547,0,0,0,0,0,0,0,0,0,-1,1987,477,0,0
770,547,0,0,0,0,0,0,0,0,0,-1,1994,477,0,0
777,547,0,0,0,0,0,0,0,0,0,-1,2001,477,0,0
784,547,0,0,0,0,0,0,0,0,0,-1,2008,477,0,0
791,547,0,0,0,0,0,0,0,0,0,-1,2015,477,0,0
798,547,0,0,0,0,0,0,0,0,0,-1,2022,477,0,0
805,547,0,0,0,0,0,0,0,0,0,-1,2029,477,0,0
812,547,0,0,0,0,0,0,0,0,0,-1,2036,477,0,0
-700,540,0,0,0,0,0,0,0,0,0,-1,524,484,0,0
-693,540,0,0,0,0,0,0,0,0,0,-1,531,484,0,0
-686,540,0,0,0,0,0,0,0,0,0,-1,538,484,0,0
-679,540,0,0,0,0,0,0,0,0,0,-1,545,484,0,0
-672,540,0,0,0,0,0,0,0,0,0,-1,552,484,0,0
-665,540,0,0,0,0,0,0,0,0,0,-1,559,484,0,0
-658,540,0,0,0,0,0,0,0,0,0,-1,566,484,0,0
-651,540,0,0,0,0,0,0,0,0,0,-1,573,484,0,0
-644,540,0,0,0,0,0,0,0,0,0,-1,580,484,0,0
-637,540,0,0,0,0,0,0,0,0,0,-1,587,484,0,0
-630,540,0,0,0,0,0,0,0,0,0,-1,594,484,0,0
-623,540,0,0,0,0,0,0,0,0,0,-1,601,484,0,0
-616,540,0,0,0,0,0,0,0,0,0,-1,608,484,0,0
-609,540,0,0,0,0,0,0,0,0,0,-1,615,484,0,0
-602,540,0,0,0,0,0,0,0,0,0,-1,622,484,0,0
-595,540,0,0,0,0,0,0,0,0,0,-1,629,484,0,0
-588,540,0,0,0,0,0,0,0,0,0,-1,636,484,0,0
-581,540,0,0,0,0,0,0,0,0,0,-1,643,484,0,0
-574,540,0,0,0,0,0,0,0,0,0,-1,650,484,0,0
-567,540,0,0,0,0,0,0,0,0,0,-1,657,484,0,0
-560,540,0,0,0,0,0,0,0,0,0,-1,664,484,0,0
-553,540,0,0,0,0,0,0,0,0,0,-1,671,484,0,0
-546,540,0,0,0,0,0,0,0,0,0,-1,678,484,0,0
-539,540,0,0,0,0,0,0,0,0,0,-1,685,484,0,0
-532,540,0,0,0,0,0,0,0,0,0,-1,692,484,0,0
-525,540,0,0,0,0,0,0,0,0,0,-1,699,484,0,0
-518,540,0,0,0,0,0,0,0,0,0,-1,706,484,0,0
-511,540,0,0,0,0,0,0,0,0,0,-1,713,484,0,0
-504,540,0,0,0,0,0,0,0,0,0,-1,720,484,0,0
-497,540,0,0,0,0,0,0,0,0,0,-1,727,484,0,0
-490,540,0,0,0,0,0,0,0,0,0,-1,734,484,0,0
-483,540,0,0,0,0,0,0,0,0,0,-1,741,484,0,0
-476,540,0,0,0,0,0,0,0,0,0,-1,748,484,0,0
-469,540,0,0,0,0,0,0,0,0,0,-1,755,484,0,0
-462,540,0,0,0,0,0,0,0,0,0,-1,762,484,0,0
-455,540,0,0,0,0,0,0,0,0,0,-1,769,484,0,0
-448,540,0,0,0,0,0,0,0,0,0,-1,776,484,0,0
-441,540,0,0,0,0,0,0,0,0,0,-1,783,484,0,0
-434,540,0,0,0,0,0,0,0,0,0,-1,790,484,0,0
-427,540,0,0,0,0,0,0,0,0,0,-1,797,484,0,0
-420,540,0.227051,-10.0402,0,0,0,0,0,0,0,-1,804,484,0.227063,10.0402
-413,540,-0.0393677,-10.3862,0,0,0,0,0,0,0,-1,811,484,-0.0393683,10.3862
-406,540,-0.518372,-11.5288,0,0,0,0,0,0,0,-1,818,484,-0.518402,11.5288
-399,540,0.0863037,-11.3801,0,0,0,0,0,0,0,-1,825,484,0.0863201,11.3801
-392,540,-0.517395,-10.6735,0,0,0,0,0,0,0,-1,832,484,-0.517377,10.6735
-385,540,-2.29407,-5.03418,0,0,0,0,0,0,0,-1,839,484,-2.29408,5.03418
-378,540,-1.60217,-27.8152,0,0,0,0,0,0,0,-1,846,484,-1.60218,27.8153
-371,540,-0.203369,-26.4858,0,0,0,0,0,0,0,-1,853,484,-0.203386,26.4858
-364,540,0.00653076,-27.5199,0.0117118,0.0306164,-0.0146276,0.03858,0.00374822,-1.07225,0.0245661,0.0482213,860,484,0.00653312,27.5199
-357,540,0.263611,-28.2478,0.00760406,0.0256846,-0.0120285,0.0316913,0.00159738,-1.10765,0.0206157,0.0458343,867,484,0.263637,28.2478
-350,540,0.131775,-29.2642,0.00441242,0.0210739,-0.00950104,0.0253793,0.000107068,-1.14533,0.0168839,0.0357023,874,484,0.131801,29.2641
-343,540,0.0331421,-30.3958,0.0020672,0.0172813,-0.00746905,0.0203351,-0.000986607,-1.18267,0.0138973,0.0196073,881,484,0.0331418,30.3957
-336,540,-0.0467529,-31.3716,0.000405597,0.0141357,-0.0058207,0.0162712,-0.00172988,-1.21917,0.0114677,0.0132208,888,484,-0.0467608,31.3716
-329,540,-0.0983887,-32.1398,-0.000663051,0.0112813,-0.00451144,0.0127938,-0.00217553,-1.24732,0.00933919,0.010729,895,484,-0.0984177,32.1398
-322,540,-0.151611,-32.9314,-0.00130814,0.00873548,-0.00334869,0.00974959,-0.00232224,-1.27674,0.00739634,0.0143622,902,484,-0.151586,32.9314
-315,540,-0.206177,-33.7275,-0.00152567,0.00664044,-0.00239953,0.00729332,-0.00217855,-1.30514,0.00572819,0.0132732,909,484,-0.20616,33.7275
-308,540,-0.213135,-34.51,-0.00151524,0.00494371,-0.0017755,0.0053996,-0.00197113,-1.31946,0.00440627,0.0129707,916,484,-0.213128,34.51
-301,540,-0.281067,-35.2661,-0.00102072,0.00339612,-0.0013261,0.00376368,-0.00138828,-1.30041,0.00307807,0.0131473,923,484,-0.281084,35.2661
-294,540,-0.323181,-36.0369,-0.000280354,0.00222046,-0.000851187,0.00248268,-0.000542573,-1.27196,0.00186251,0.0123114,930,484,-0.323173,36.0368
-287,540,-0.334106,-36.8361,0.000445076,0.00112678,-0.000380421,0.00129671,0.000275144,-1.15069,0.000788918,0.00897766,937,484,-0.334129,36.8361
-280,540,-0.380432,-37.6104,0.000928755,-0.000445557,3.50036e-05,0.000929646,-0.000446448,0.0254479,0.00081065,0.00995491,944,484,-0.380451,37.6104
-273,540,-0.405518,-38.3694,0.00139463,-0.00206369,0.000684472,0.00152518,-0.00219423,0.188458,0.00215895,0.0124319,951,484,-0.405519,38.3694
-266,540,-0.430725,-39.129,0.00224306,-0.00411548,0.00135257,0.00251882,-0.00439124,0.201119,0.00403805,0.0142485,958,484,-0.430696,39.1291
-259,540,-0.472473,-39.8893,0.00291565,-0.00654595,0.00223306,0.0034162,-0.0070465,0.220509,0.00616066,0.0136882,965,484,-0.472499,39.8893
-252,540,-0.482361,-40.5958,0.00349214,-0.00972545,0.0033285,0.00428302,-0.0105163,0.23328,0.0087934,0.0129852,972,484,-0.482369,40.5958
-245,540,-0.496033,-41.3299,0.00414153,-0.0131629,0.00451345,0.00524801,-0.0142693,0.24041,0.0116627,0.0124579,979,484,-0.496057,41.3299
-238,540,-0.5354,-42.0211,0.00493421,-0.0169874,0.00577791,0.00636386,-0.018417,0.242563,0.0148607,0.0103244,986,484,-0.535402,42.0211
-231,540,-0.543152,-42.687,0.00575866,-0.0213304,0.00724506,0.00757464,-0.0231464,0.245591,0.0184807,0.013587,993,484,-0.543174,42.687
-224,540,-0.577698,-43.3387,0.0066012,-0.0259393,0.00879592,0.00882661,-0.0281647,0.247804,0.0223085,0.0189878,1000,484,-0.577691,43.3388
-217,540,-0.63501,-43.8442,0.00747377,-0.0306064,0.0104451,0.0101506,-0.0332832,0.250879,0.0262353,0.0312692,1007,484,-0.635002,43.8443
-210,540,-0.461792,-44.3149,0.00823362,-0.0353741,0.0120739,0.0113534,-0.0384939,0.252859,0.0301678,0.0452952,1014,484,-0.461782,44.315
-203,540,-0.471558,-44.6252,0.00889939,-0.039757,0.0135977,0.0124416,-0.0432992,0.254835,0.0337857,0.0499278,1021,484,-0.471574,44.6252
-196,540,-0.548828,-45.2071,0,0,0,0,0,0,0,-1,1028,484,-0.548821,45.2071
-189,540,-0.891968,-45.8049,0,0,0,0,0,0,0,-1,1035,484,-0.891933,45.8049
-182,540,-0.826782,-43.3494,0,0,0,0,0,0,0,-1,1042,484,-0.826777,43.3494
-175,540,1.73413,-10.728,0,0,0,0,0,0,0,-1,1049,484,1.73414,10.728
-168,540,1.18164,-7.65347,0,0,0,0,0,0,0,-1,1056,484,1.18163,7.65347
-161,540,-0.405884,-9.86481,0,0,0,0,0,0,0,-1,1063,484,-0.405886,9.8648
-154,540,1.96863,-22.0727,0,0,0,0,0,0,0,-1,1070,484,1.96859,22.0727
-147,540,1.32764,-21.9952,0,0,0,0,0,0,0,-1,1077,484,1.32762,21.9952
-140,540,1.40735,-15.6289,0,0,0,0,0,0,0,-1,1084,484,1.4073,15.6289
-133,540,2.28345,-17.6413,0,0,0,0,0,0,0,-1,1091,484,2.2835,17.6413
-126,540,1.25293,-23.9108,0,0,0,0,0,0,0,-1,1098,484,1.25288,23.9108
-119,540,1.55969,-23.0125,0,0,0,0,0,0,0,-1,1105,484,1.55968,23.0125
-112,540,1.4801,-21.6515,0,0,0,0,0,0,0,-1,1112,484,1.4801,21.6515
-105,540,1.30078,-19.8938,0,0,0,0,0,0,0,-1,1119,484,1.30077,19.8938
-98,540,1.08105,-18.1304,0,0,0,0,0,0,0,-1,1126,484,1.08101,18.1304
-91,540,1.56519,-7.48666,0,0,0,0,0,0,0,-1,1133,484,1.56514,7.48667
-84,540,-0.945923,4.43073,0,0,0,0,0,0,0,-1,1140,484,-0.945891,-4.43074
-77,540,-2.28894,2.14368,0,0,0,0,0,0,0,-1,1147,484,-2.28894,-2.14368
-70,540,-3.75244,-0.452576,0,0,0,0,0,0,0,-1,1154,484,-3.75244,0.452576
-63,540,-5.26257,-3.04767,0,0,0,0,0,0,0,-1,1161,484,-5.26262,3.04766
-56,540,-5.19055,-6.12595,0,0,0,0,0,0,0,-1,1168,484,-5.19057,6.12595
-49,540,-5.63867,-8.52298,0,0,0,0,0,0,0,-1,1175,484,-5.63871,8.52298
-42,540,0,0,0,0,0,0,0,0,0,-1,1182,484,0,0
-35,540,0,0,0,0,0,0,0,0,0,-1,1189,484,0,0
-28,540,0,0,0,0,0,0,0,0,0,-1,1196,484,0,0
-21,540,0,0,0,0,0,0,0,0,0,-1,1203,484,0,0
-14,540,0,0,0,0,0,0,0,0,0,-1,1210,484,0,0
-7,540,0,0,0,0,0,0,0,0,0,-1,1217,484,0,0
0,540,0,0,0,0,0,0,0,0,0,-1,1224,484,0,0
7,540,0,0,0,0,0,0,0,0,0,-1,1231,484,0,0
14,540,0,0,0,0,0,0,0,0,0,-1,1238,484,0,0
21,540,0,0,0,0,0,0,0,0,0,-1,1245,484,0,0
28,540,0,0,0,0,0,0,0,0,0,-1,1252,484,0,0
35,540,0,0,0,0,0,0,0,0,0,-1,1259,484,0,0
42,540,0,0,0,0,0,0,0,0,0,-1,1266,484,0,0
49,540,0,0,0,0,0,0,0,0,0,-1,1273,484,0,0
56,540,0,0,0,0,0,0,0,0,0,-1,1280,484,0,0
63,540,0,0,0,0,0,0,0,0,0,-1,1287,484,0,0
70,540,0,0,0,0,0,0,0,0,0,-1,1294,484,0,0
77,540,0,0,0,0,0,0,0,0,0,-1,1301,484,0,0
84,540,0,0,0,0,0,0,0,0,0,-1,1308,484,0,0
91,540,0,0,0,0,0,0,0,0,0,-1,1315,484,0,0
98,540,0,0,0,0,0,0,0,0,0,-1,1322,484,0,0
105,540,0,0,0,0,0,0,0,0,0,-1,1329,484,0,0
112,540,0,0,0,0,0,0,0,0,0,-1,1336,484,0,0
119,540,0,0,0,0,0,0,0,0,0,-1,1343,484,0,0
126,540,0,0,0,0,0,0,0,0,0,-1,1350,484,0,0
133,540,0,0,0,0,0,0,0,0,0,-1,1357,484,0,0
140,540,0,0,0,0,0,0,0,0,0,-1,1364,484,0,0
147,540,0,0,0,0,0,0,0,0,0,-1,1371,484,0,0
154,540,0,0,0,0,0,0,0,0,0,-1,1378,484,0,0
161,540,0,0,0,0,0,0,0,0,0,-1,1385,484,0,0
168,540,3.05078,-0.0010376,0,0,0,0,0,0,0,-1,1392,484,3.05084,0.00102554
175,540,3.37708,0.617035,0,0,0,0,0,0,0,-1,1399,484,3.37707,-0.617046
182,540,3.32678,1.23267,0,0,0,0,0,0,0,-1,1406,484,3.32678,-1.23266
189,540,3.5813,2.15619,0,0,0,0,0,0,0,-1,1413,484,3.58129,-2.1562
196,540,1.84448,-0.801483,0,0,0,0,0,0,0,-1,1420,484,1.84446,0.80148
203,540,4.14648,0.702087,0,0,0,0,0,0,0,-1,1427,484,4.14645,-0.702089
210,540,4.50671,-0.56076,0,0,0,0,0,0,0,-1,1434,484,4.50667,0.560771
217,540,5.00452,-0.278717,0,0,0,0,0,0,0,-1,1441,484,5.00452,0.278709
224,540,6.44458,-2.83527,0,0,0,0,0,0,0,-1,1448,484,6.44457,2.83525
231,540,6.9231,-3.10504,0,0,0,0,0,0,0,-1,1455,484,6.92307,3.10505
238,540,6.4823,-2.58365,0,0,0,0,0,0,0,-1,1462,484,6.48225,2.58363
245,540,6.02087,-1.97916,0,0,0,0,0,0,0,-1,1469,484,6.02088,1.97915
252,540,6.50647,-3.56006,0,0,0,0,0,0,0,-1,1476,484,6.50649,3.56006
259,540,6.01941,-2.798,0,0,0,0,0,0,0,-1,1483,484,6.01941,2.79801
266,540,5.5332,-2.02853,0,0,0,0,0,0,0,-1,1490,484,5.53323,2.02855
273,540,5.06787,-1.28137,0,0,0,0,0,0,0,-1,1497,484,5.06786,1.28136
280,540,1.62903,-2.14609,0,0,0,0,0,0,0,-1,1504,484,1.62906,2.1461
287,540,1.97156,-2.45053,0,0,0,0,0,0,0,-1,1511,484,1.97159,2.45053
294,540,2.44165,-2.6185,0,0,0,0,0,0,0,-1,1518,484,2.44167,2.6185
301,540,4.36169,-2.54272,0,0,0,0,0,0,0,-1,1525,484,4.36165,2.54272
308,540,4.2019,-4.30469,0,0,0,0,0,0,0,-1,1532,484,4.20193,4.3047
315,540,4.45923,-5.32101,0,0,0,0,0,0,0,-1,1539,484,4.45923,5.32103
322,540,4.71655,-6.33737,0,0,0,0,0,0,0,-1,1546,484,4.71653,6.33736
329,540,15.0289,-44.3801,0,0,0,0,0,0,0,-1,1553,484,15.0289,44.3801
336,540,15.6206,-43.6586,0,0,0,0,0,0,0,-1,1560,484,15.6206,43.6586
343,540,15.4106,-43.152,0.00478526,-0.0336652,-0.0142174,0.0094712,-0.0383511,-0.318379,0.0292403,0.0490057,1567,484,15.4107,43.152
350,540,15.3013,-42.6202,0.00392991,-0.027696,-0.0119258,0.00792288,-0.0316889,-0.323086,0.0242031,0.0451383,1574,484,15.3012,42.6203
357,540,15.2981,-42.1794,0.00327314,-0.021631,-0.00974372,0.00663228,-0.0249901,-0.331989,0.0192554,0.037103,1581,484,15.2981,42.1794
364,540,15.1967,-41.624,0.00259691,-0.0164982,-0.00759879,0.0052517,-0.019153,-0.336115,0.0148324,0.0237788,1588,484,15.1967,41.6239
371,540,15.1835,-40.9113,0.00230399,-0.0120817,-0.00566359,0.0042661,-0.0140438,-0.333503,0.0110623,0.0183352,1595,484,15.1835,40.9113
378,540,15.1953,-40.1553,0.00215166,-0.00819545,-0.00403253,0.0035376,-0.00958139,-0.331042,0.0078376,0.0138794,1602,484,15.1953,40.1554
385,540,15.1755,-39.4052,0.00165675,-0.0047642,-0.00244906,0.00248423,-0.00559168,-0.325833,0.0047763,0.0145942,1609,484,15.1755,39.4052
392,540,15.1117,-38.6453,0.00153252,-0.00261106,-0.00115437,0.00183241,-0.00291095,-0.254172,0.00276208,0.0136981,1616,484,15.1116,38.6453
399,540,15.073,-37.9017,0.00163897,-0.000354178,-0.000289672,0.00168021,-0.000395424,-0.141437,0.0012726,0.0181177,1623,484,15.073,37.9018
406,540,15.0847,-37.1417,0.00153291,0.000997573,0.000355498,0.00171024,0.000820242,0.462708,0.000987683,0.0192371,1630,484,15.0847,37.1417
413,540,15.071,-36.3401,0.00130109,0.00175109,0.000922804,0.00247593,0.000576252,0.904976,0.001496,0.0159478,1637,484,15.0711,36.3401
420,540,15.0305,-35.5488,0.00100494,0.00220058,0.00136054,0.00308884,0.000116673,0.9924,0.00202146,0.0141933,1644,484,15.0305,35.5488
427,540,14.9775,-34.7665,0.000657083,0.00261498,0.00187486,0.00375109,-0.000479022,1.026,0.00267474,0.0149274,1651,484,14.9776,34.7666
434,540,14.9038,-33.9775,0.000344031,0.00296046,0.00243522,0.00441661,-0.00111213,1.03188,0.00337672,0.0177194,1658,484,14.9038,33.9775
441,540,14.8766,-33.1745,2.73809e-05,0.00336736,0.00311371,0.00523065,-0.00183591,1.03154,0.0042339,0.0206549,1665,484,14.8765,33.1745
448,540,14.8235,-32.3746,-0.000337784,0.00364684,0.00383247,0.00597392,-0.00266486,1.0251,0.00510811,0.0123961,1672,484,14.8235,32.3746
455,540,14.7791,-31.5574,-0.000666286,0.00388092,0.00461514,0.0067521,-0.00353747,1.01427,0.00603655,0.0105613,1679,484,14.779,31.5574
462,540,14.7106,-30.7357,-0.000703082,0.00419583,0.00556235,0.00782417,-0.00433142,0.992804,0.00711395,0.0101643,1686,484,14.7105,30.7356
469,540,14.6322,-29.905,-0.000565567,0.00456314,0.00649005,0.00897709,-0.00497951,0.973545,0.00816728,0.0145079,1693,484,14.6322,29.905
476,540,14.5787,-29.0896,-0.000368754,0.00486769,0.00750169,0.0101949,-0.005696,0.953298,0.00929639,0.0224317,1700,484,14.5787,29.0896
483,540,14.5856,-28.1857,0.000140244,0.00520653,0.00866529,0.0117013,-0.00635457,0.927602,0.0105758,0.0398792,1707,484,14.5855,28.1858
490,540,14.7552,-27.1965,0,0,0,0,0,0,0,-1,1714,484,14.7552,27.1965
497,540,10.3452,-16.9359,0,0,0,0,0,0,0,-1,1721,484,10.3453,16.9359
504,540,12.519,-18.0764,0,0,0,0,0,0,0,-1,1728,484,12.519,18.0765
511,540,5.82471,-6.83521,0,0,0,0,0,0,0,-1,1735,484,5.82465,6.83522
518,540,9.98181,-12.4608,0,0,0,0,0,0,0,-1,1742,484,9.98187,12.4608
525,540,12.4843,-16.3481,0,0,0,0,0,0,0,-1,1749,484,12.4842,16.3481
532,540,2.84265,-1.07925,0,0,0,0,0,0,0,-1,1756,484,2.84269,1.07927
539,540,0,0,0,0,0,0,0,0,0,-1,1763,484,0,0
546,540,0,0,0,0,0,0,0,0,0,-1,1770,484,0,0
553,540,0,0,0,0,0,0,0,0,0,-1,1777,484,0,0
560,540,0,0,0,0,0,0,0,0,0,-1,1784,484,0,0
567,540,0,0,0,0,0,0,0,0,0,-1,1791,484,0,0
574,540,0,0,0,0,0,0,0,0,0,-1,1798,484,0,0
581,540,0,0,0,0,0,0,0,0,0,-1,1805,484,0,0
588,540,0,0,0,0,0,0,0,0,0,-1,1812,484,0,0
595,540,0,0,0,0,0,0,0,0,0,-1,1819,484,0,0
602,540,0,0,0,0,0,0,0,0,0,-1,1826,484,0,0
609,540,0,0,0,0,0,0,0,0,0,-1,1833,484,0,0
616,540,0,0,0,0,0,0,0,0,0,-1,1840,484,0,0
623,540,0,0,0,0,0,0,0,0,0,-1,1847,484,0,0
630,540,0,0,0,0,0,0,0,0,0,-1,1854,484,0,0
637,540,0,0,0,0,0,0,0,0,0,-1,1861,484,0,0
644,540,0,0,0,0,0,0,0,0,0,-1,1868,484,0,0
651,540,0,0,0,0,0,0,0,0,0,-1,1875,484,0,0
658,540,0,0,0,0,0,0,0,0,0,-1,1882,484,0,0
665,540,0,0,0,0,0,0,0,0,0,-1,1889,484,0,0
672,540,0,0,0,0,0,0,0,0,0,-1,1896,484,0,0
679,540,0,0,0,0,0,0,0,0,0,-1,1903,484,0,0
686,540,0,0,0,0,0,0,0,0,0,-1,1910,484,0,0
693,540,0,0,0,0,0,0,0,0,0,-1,1917,484,0,0
700,540,0,0,0,0,0,0,0,0,0,-1,1924,484,0,0
707,540,0,0,0,0,0,0,0,0,0,-1,1931,484,0,0
714,540,0,0,0,0,0,0,0,0,0,-1,1938,484,0,0
721,540,0,0,0,0,0,0,0,0,0,-1,1945,484,0,0
728,540,0,0,0,0,0,0,0,0,0,-1,1952,484,0,0
735,540,0,0,0,0,0,0,0,0,0,-1,1959,484,0,0
742,540,0,0,0,0,0,0,0,0,0,-1,1966,484,0,0
749,540,0,0,0,0,0,0,0,0,0,-1,1973,484,0,0
756,540,0,0,0,0,0,0,0,0,0,-1,1980,484,0,0
763,540,0,0,0,0,0,0,0,0,0,-1,1987,484,0,0
770,540,0,0,0,0,0,0,0,0,0,-1,1994,484,0,0
777,540,0,0,0,0,0,0,0,0,0,-1,2001,484,0,0
784,540,0,0,0,0,0,0,0,0,0,-1,2008,484,0,0
791,540,0,0,0,0,0,0,0,0,0,-1,2015,484,0,0
798,540,0,0,0,0,0,0,0,0,0,-1,2022,484,0,0
805,540,0,0,0,0,0,0,0,0,0,-1,2029,484,0,0
812,540,0,0,0,0,0,0,0,0,0,-1,2036,484,0,0
-700,533,0,0,0,0,0,0,0,0,0,-1,524,491,0,0
-693,533,0,0,0,0,0,0,0,0,0,-1,531,491,0,0
-686,533,0,0,0,0,0,0,0,0,0,-1,538,491,0,0
-679,533,0,0,0,0,0,0,0,0,0,-1,545,491,0,0
-672,533,0,0,0,0,0,0,0,0,0,-1,552,491,0,0
-665,533,0,0,0,0,0,0,0,0,0,-1,559,491,0,0
-658,533,0,0,0,0,0,0,0,0,0,-1,566,491,0,0
-651,533,0,0,0,0,0,0,0,0,0,-1,573,491,0,0
-644,533,0,0,0,0,0,0,0,0,0,-1,580,491,0,0
-637,533,0,0,0,0,0,0,0,0,0,-1,587,491,0,0
-630,533,0,0,0,0,0,0,0,0,0,-1,594,491,0,0
-623,533,0,0,0,0,0,0,0,0,0,-1,601,491,0,0
-616,533,0,0,0,0,0,0,0,0,0,-1,608,491,0,0
-609,533,0,0,0,0,0,0,0,0,0,-1,615,491,0,0
-602,533,0,0,0,0,0,0,0,0,0,-1,622,491,0,0
-595,533,0,0,0,0,0,0,0,0,0,-1,629,491,0,0
-588,533,0,0,0,0,0,0,0,0,0,-1,636,491,0,0
-581,533,0,0,0,0,0,0,0,0,0,-1,643,491,0,0
-574,533,0,0,0,0,0,0,0,0,0,-1,650,491,0,0
-567,533,0,0,0,0,0,0,0,0,0,-1,657,491,0,0
-560,533,0,0,0,0,0,0,0,0,0,-1,664,491,0,0
-553,533,0,0,0,0,0,0,0,0,0,-1,671,491,0,0
-546,533,0,0,0,0,0,0,0,0,0,-1,678,491,0,0
-539,533,0,0,0,0,0,0,0,0,0,-1,685,491,0,0
-532,533,0,0,0,0,0,0,0,0,0,-1,692,491,0,0
-525,533,0,0,0,0,0,0,0,0,0,-1,699,491,0,0
-518,533,0,0,0,0,0,0,0,0,0,-1,706,491,0,0
-511,533,0,0,0,0,0,0,0,0,0,-1,713,491,0,0
-504,533,0,0,0,0,0,0,0,0,0,-1,720,491,0,0
-497,533,0,0,0,0,0,0,0,0,0,-1,727,491,0,0
-490,533,0,0,0,0,0,0,0,0,0,-1,734,491,0,0
-483,533,0,0,0,0,0,0,0,0,0,-1,741,491,0,0
-476,533,0,0,0,0,0,0,0,0,0,-1,748,491,0,0
-469,533,0,0,0,0,0,0,0,0,0,-1,755,491,0,0
-462,533,0,0,0,0,0,0,0,0,0,-1,762,491,0,0
-455,533,0,0,0,0,0,0,0,0,0,-1,769,491,0,0
-448,533,0,0,0,0,0,0,0,0,0,-1,776,491,0,0
-441,533,0,0,0,0,0,0,0,0,0,-1,783,491,0,0
-434,533,0,0,0,0,0,0,0,0,0,-1,790,491,0,0
-427,533,0.559814,-4.40222,0,0,0,0,0,0,0,-1,797,491,0.559816,4.40222
-420,533,-1.11127,-10.9054,0,0,0,0,0,0,0,-1,804,491,-1.11124,10.9054
-413,533,-0.704773,-11.0942,0,0,0,0,0,0,0,-1,811,491,-0.704742,11.0942
-406,533,-0.670898,-12.0899,0,0,0,0,0,0,0,-1,818,491,-0.670908,12.0899
-399,533,-0.455017,-12.4423,0,0,0,0,0,0,0,-1,825,491,-0.455032,12.4423
-392,533,-1.89661,-10.3905,0,0,0,0,0,0,0,-1,832,491,-1.89661,10.3905
-385,533,0.797729,-17.0485,0,0,0,0,0,0,0,-1,839,491,0.797746,17.0485
-378,533,-1.89435,-19.6771,0,0,0,0,0,0,0,-1,846,491,-1.89433,19.6771
-371,533,-0.893555,-26.4914,0,0,0,0,0,0,0,-1,853,491,-0.893529,26.4914
-364,533,-0.822083,-27.6424,0.00987353,0.0249312,-0.0130416,0.0324611,0.00234362,-1.04718,0.0209034,0.0470361,860,491,-0.822068,27.6424
-357,533,-0.66217,-28.6593,0.00684063,0.0209252,-0.0106506,0.0266512,0.00111462,-1.07751,0.0174078,0.0248806,867,491,-0.662187,28.6593
-350,533,-0.674561,-29.6021,0.00436403,0.0171222,-0.00836973,0.0212666,0.000219563,-1.11102,0.0141051,0.0135819,874,491,-0.674565,29.6021
-343,533,-0.731201,-30.4955,0.00251297,0.0138557,-0.00650139,0.0168117,-0.000443098,-1.14406,0.0113584,0.0123223,881,491,-0.731217,30.4955
-336,533,-0.827393,-31.3417,0.00116053,0.011114,-0.00494699,0.0131544,-0.000879909,-1.17959,0.00907712,0.0160476,888,491,-0.827402,31.3417
-329,533,-0.874329,-32.1107,0.000246959,0.00865621,-0.00370161,0.0100534,-0.00115027,-1.20987,0.00711677,0.015042,895,491,-0.874355,32.1107
-322,533,-0.912964,-32.8848,-0.000319119,0.00639514,-0.0025821,0.00727328,-0.00119727,-1.24298,0.00529327,0.0118323,902,491,-0.912973,32.8849
-315,533,-0.97168,-33.6697,-0.000481993,0.0045613,-0.00167302,0.00506582,-0.000986515,-1.27791,0.00374956,0.0123843,909,491,-0.971706,33.6697
-308,533,-1.00031,-34.4584,-0.000374863,0.00310148,-0.00107471,0.00340689,-0.000680278,-1.29391,0.00252871,0.0120883,916,491,-1.00031,34.4584
-301,533,-1.05621,-35.2216,0.00011967,0.00181743,-0.000642999,0.00203346,-9.63659e-05,-1.24666,0.00138888,0.0137038,923,491,-1.05622,35.2215
-294,533,-1.07758,-35.9993,0.000826756,0.000845424,-0.000191939,0.00102826,0.000643925,-0.809695,0.000599937,0.0123353,930,491,-1.07761,35.9993
-287,533,-1.08875,-36.7981,0.00154172,-0.000158872,0.000271897,0.00158413,-0.000201286,0.154746,0.00112918,0.00931009,937,491,-1.08874,36.7981
-280,533,-1.12177,-37.5803,0.00195146,-0.00188391,0.000698473,0.0020747,-0.00200715,0.174646,0.00235676,0.00874136,944,491,-1.12179,37.5803
-273,533,-1.16132,-38.3313,0.00237805,-0.00375695,0.0014391,0.00269885,-0.00407775,0.21933,0.00393938,0.0122738,951,491,-1.1613,38.3313
-266,533,-1.18512,-39.0803,0.0034074,-0.00607874,0.00216955,0.00388004,-0.00655138,0.214501,0.00608805,0.0124272,958,491,-1.18511,39.0803
-259,533,-1.19421,-39.8333,0.00411611,-0.00874001,0.00319863,0.00486796,-0.00949186,0.230865,0.0084327,0.0134923,965,491,-1.19424,39.8333
-252,533,-1.21912,-40.5574,0.00471654,-0.0126114,0.00441944,0.00577861,-0.0136735,0.235845,0.0115349,0.0187237,972,491,-1.21912,40.5574
-245,533,-1.28644,-41.2695,0.00544845,-0.016989,0.00587316,0.00689281,-0.0184334,0.241141,0.0151196,0.0272232,979,491,-1.28646,41.2695
-238,533,-1.19415,-41.7953,0.00637041,-0.021792,0.00737569,0.00818515,-0.0236067,0.241252,0.0190613,0.0285349,986,491,-1.19414,41.7953
-231,533,-1.1806,-42.2109,0.00737158,-0.027268,0.0091247,0.00962819,-0.0295246,0.242443,0.0235577,0.0365193,993,491,-1.18059,42.2109
-224,533,-1.48761,-42.9276,0.00841425,-0.0331074,0.0109973,0.0111471,-0.0358403,0.243568,0.0283494,0.0435681,1000,491,-1.48764,42.9276
-217,533,-1.1181,-43.5263,0.00948796,-0.0390616,0.0130451,0.0127711,-0.0423448,0.246557,0.0333131,0.0441153,1007,491,-1.11808,43.5263
-210,533,-1.02844,-44.1132,0,0,0,0,0,0,0,-1,1014,491,-1.02847,44.1132
-203,533,-1.13916,-44.277,0,0,0,0,0,0,0,-1,1021,491,-1.13919,44.277
-196,533,-1.06763,-44.7434,0,0,0,0,0,0,0,-1,1028,491,-1.06761,44.7434
-189,533,-1.75317,-43.4744,0,0,0,0,0,0,0,-1,1035,491,-1.75312,43.4744
-182,533,1.26123,-11.4969,0,0,0,0,0,0,0,-1,1042,491,1.26128,11.4969
-175,533,0.937744,-7.36966,0,0,0,0,0,0,0,-1,1049,491,0.937769,7.36965
-168,533,2.64807,-2.7543,0,0,0,0,0,0,0,-1,1056,491,2.64812,2.7543
-161,533,1.91833,-1.76553,0,0,0,0,0,0,0,-1,1063,491,1.91836,1.76554
-154,533,0.376709,-11.0633,0,0,0,0,0,0,0,-1,1070,491,0.376715,11.0632
-147,533,0.383789,-12.1586,0,0,0,0,0,0,0,-1,1077,491,0.383829,12.1586
-140,533,1.14001,-15.4608,0,0,0,0,0,0,0,-1,1084,491,1.14005,15.4608
-133,533,0.189941,-16.0795,0,0,0,0,0,0,0,-1,1091,491,0.18994,16.0795
-126,533,2.89612,-2.59003,0,0,0,0,0,0,0,-1,1098,491,2.89608,2.59003
-119,533,1.78284,-22.5394,0,0,0,0,0,0,0,-1,1105,491,1.78279,22.5394
-112,533,1.83862,-21.2401,0,0,0,0,0,0,0,-1,1112,491,1.83859,21.24
-105,533,1.67554,-19.4018,0,0,0,0,0,0,0,-1,1119,491,1.6755,19.4018
-98,533,-1.39392,-5.16367,0,0,0,0,0,0,0,-1,1126,491,-1.39394,5.16367
-91,533,0.367432,4.49753,0,0,0,0,0,0,0,-1,1133,491,0.367468,-4.49754
-84,533,-0.88623,3.03604,0,0,0,0,0,0,0,-1,1140,491,-0.886288,-3.03605
-77,533,0,0,0,0,0,0,0,0,0,-1,1147,491,0,0
-70,533,0,0,0,0,0,0,0,0,0,-1,1154,491,0,0
-63,533,0,0,0,0,0,0,0,0,0,-1,1161,491,0,0
-56,533,0,0,0,0,0,0,0,0,0,-1,1168,491,0,0
-49,533,0,0,0,0,0,0,0,0,0,-1,1175,491,0,0
-42,533,0,0,0,0,0,0,0,0,0,-1,1182,491,0,0
-35,533,0,0,0,0,0,0,0,0,0,-1,1189,491,0,0
-28,533,0,0,0,0,0,0,0,0,0,-1,1196,491,0,0
-21,533,0,0,0,0,0,0,0,0,0,-1,1203,491,0,0
-14,533,0,0,0,0,0,0,0,0,0,-1,1210,491,0,0
-7,533,0,0,0,0,0,0,0,0,0,-1,1217,491,0,0
0,533,0,0,0,0,0,0,0,0,0,-1,1224,491,0,0
7,533,0,0,0,0,0,0,0,0,0,-1,1231,491,0,0
14,533,0,0,0,0,0,0,0,0,0,-1,1238,491,0,0
21,533,0,0,0,0,0,0,0,0,0,-1,1245,491,0,0
28,533,0,0,0,0,0,0,0,0,0,-1,1252,491,0,0
35,533,0,0,0,0,0,0,0,0,0,-1,1259,491,0,0
42,533,0,0,0,0,0,0,0,0,0,-1,1266,491,0,0
49,533,0,0,0,0,0,0,0,0,0,-1,1273,491,0,0
56,533,0,0,0,0,0,0,0,0,0,-1,1280,491,0,0
63,533,0,0,0,0,0,0,0,0,0,-1,1287,491,0,0
70,533,0,0,0,0,0,0,0,0,0,-1,1294,491,0,0
77,533,0,0,0,0,0,0,0,0,0,-1,1301,491,0,0
84,533,0,0,0,0,0,0,0,0,0,-1,1308,491,0,0
91,533,0,0,0,0,0,0,0,0,0,-1,1315,491,0,0
98,533,0,0,0,0,0,0,0,0,0,-1,1322,491,0,0
105,533,0,0,0,0,0,0,0,0,0,-1,1329,491,0,0
112,533,0,0,0,0,0,0,0,0,0,-1,1336,491,0,0
119,533,0,0,0,0,0,0,0,0,0,-1,1343,491,0,0
126,533,0,0,0,0,0,0,0,0,0,-1,1350,491,0,0
133,533,0,0,0,0,0,0,0,0,0,-1,1357,491,0,0
140,533,0,0,0,0,0,0,0,0,0,-1,1364,491,0,0
147,533,0,0,0,0,0,0,0,0,0,-1,1371,491,0,0
154,533,0,0,0,0,0,0,0,0,0,-1,1378,491,0,0
161,533,0,0,0,0,0,0,0,0,0,-1,1385,491,0,0
168,533,0,0,0,0,0,0,0,0,0,-1,1392,491,0,0
175,533,0,0,0,0,0,0,0,0,0,-1,1399,491,0,0
182,533,0,0,0,0,0,0,0,0,0,-1,1406,491,0,0
189,533,0,0,0,0,0,0,0,0,0,-1,1413,491,0,0
196,533,0,0,0,0,0,0,0,0,0,-1,1420,491,0,0
203,533,3.7887,1.16193,0,0,0,0,0,0,0,-1,1427,491,3.78872,-1.16193
210,533,5.09558,-0.216034,0,0,0,0,0,0,0,-1,1434,491,5.09559,0.216028
217,533,6.91614,-2.46814,0,0,0,0,0,0,0,-1,1441,491,6.91618,2.46814
224,533,7.23621,-2.1857,0,0,0,0,0,0,0,-1,1448,491,7.23621,2.1857
231,533,7.23474,-1.92282,0,0,0,0,0,0,0,-1,1455,491,7.2347,1.92282
238,533,7.23535,-1.67258,0,0,0,0,0,0,0,-1,1462,491,7.23539,1.67258
245,533,6.86682,-1.2301,0,0,0,0,0,0,0,-1,1469,491,6.86686,1.23011
252,533,6.63354,-3.07825,0,0,0,0,0,0,0,-1,1476,491,6.6335,3.07824
259,533,6.16431,-2.35037,0,0,0,0,0,0,0,-1,1483,491,6.1643,2.35037
266,533,5.68884,-1.6214,0,0,0,0,0,0,0,-1,1490,491,5.68885,1.6214
273,533,5.21399,-0.864227,0,0,0,0,0,0,0,-1,1497,491,5.21403,0.864227
280,533,1.41089,-1.97946,0,0,0,0,0,0,0,-1,1504,491,1.41087,1.97946
287,533,1.6814,-2.44443,0,0,0,0,0,0,0,-1,1511,491,1.6814,2.44444
294,533,2.2384,-2.57626,0,0,0,0,0,0,0,-1,1518,491,2.23839,2.57625
301,533,3.39941,-4.0817,0,0,0,0,0,0,0,-1,1525,491,3.3994,4.08171
308,533,4.13733,-4.14752,0,0,0,0,0,0,0,-1,1532,491,4.13727,4.14752
315,533,4.80762,-5.29349,0,0,0,0,0,0,0,-1,1539,491,4.80762,5.29347
322,533,5.47803,-6.43942,0,0,0,0,0,0,0,-1,1546,491,5.47798,6.43943
329,533,3.88477,-3.86301,0,0,0,0,0,0,0,-1,1553,491,3.88475,3.86299
336,533,14.5214,-40.908,0,0,0,0,0,0,0,-1,1560,491,14.5214,40.908
343,533,15.9988,-42.5446,0,0,0,0,0,0,0,-1,1567,491,15.9988,42.5446
350,533,15.9288,-42.0493,0,0,0,0,0,0,0,-1,1574,491,15.9289,42.0492
357,533,16.0525,-41.9745,0,0,0,0,0,0,0,-1,1581,491,16.0524,41.9745
364,533,15.8621,-41.6501,0,0,0,0,0,0,0,-1,1588,491,15.862,41.6501
371,533,15.8889,-40.8796,0,0,0,0,0,0,0,-1,1595,491,15.889,40.8796
378,533,15.9611,-40.0687,0,0,0,0,0,0,0,-1,1602,491,15.9611,40.0686
385,533,15.9569,-39.3401,0.00217092,-0.00588697,-0.00306731,0.00320565,-0.00692169,-0.325353,0.00597679,0.0371603,1609,491,15.9569,39.3401
392,533,15.8912,-38.6191,0.00200705,-0.00350844,-0.00163699,0.00245631,-0.0039577,-0.267849,0.0037368,0.0162316,1616,491,15.8912,38.6191
399,533,15.881,-37.8845,0.00211999,-0.000947037,-0.000777733,0.00230593,-0.00113298,-0.234679,0.00202359,0.0144783,1623,491,15.881,37.8845
406,533,15.8881,-37.114,0.00202795,0.000339903,-0.000216388,0.00205525,0.000312606,-0.125486,0.00127876,0.0172639,1630,491,15.8881,37.1139
413,533,15.8462,-36.2993,0.00182597,0.00102569,0.00036821,0.00196961,0.000882057,0.371933,0.00113921,0.0154219,1637,491,15.8462,36.2993
420,533,15.7792,-35.5197,0.00153291,0.00143792,0.000721045,0.00220802,0.000762805,0.752512,0.00129494,0.0138874,1644,491,15.7792,35.5197
427,533,15.7446,-34.7115,0.0011764,0.00180233,0.00110633,0.00263911,0.000339623,0.92324,0.00165784,0.013302,1651,491,15.7446,34.7115
434,533,15.6906,-33.9273,0.000848859,0.00211954,0.00157914,0.00318636,-0.000217961,0.976656,0.0022005,0.0127213,1658,491,15.6906,33.9273
441,533,15.6737,-33.1047,0.000561175,0.00252252,0.00215913,0.00391325,-0.000829556,0.998568,0.00292483,0.0159118,1665,491,15.6737,33.1047
448,533,15.6412,-32.3168,0.000244511,0.00281581,0.00276886,0.00458294,-0.00152262,1.00275,0.00366968,0.0165233,1672,491,15.6412,32.3168
455,533,15.5743,-31.5173,-3.08155e-05,0.00309262,0.00343193,0.00530146,-0.00223966,0.998923,0.00447189,0.0155332,1679,491,15.5743,31.5173
462,533,15.5,-30.6771,-1.72785e-05,0.00341453,0.00423164,0.00626492,-0.00286767,0.978015,0.00539294,0.014863,1686,491,15.5,30.6771
469,533,15.4548,-29.8739,0.000184694,0.00380317,0.00501035,0.00732093,-0.00333307,0.958663,0.00629308,0.00997419,1693,491,15.4549,29.8739
476,533,15.4407,-29.0219,0.000411307,0.00413987,0.00586107,0.00842601,-0.00387483,0.939378,0.00726212,0.0118882,1700,491,15.4407,29.0219
483,533,15.4691,-28.1385,0.000910984,0.00452521,0.00683689,0.00978979,-0.00435359,0.914602,0.00836433,0.0236132,1707,491,15.4691,28.1386
490,533,15.4884,-26.8577,0,0,0,0,0,0,0,-1,1714,491,15.4884,26.8577
497,533,15.4799,-26.3297,0,0,0,0,0,0,0,-1,1721,491,15.4799,26.3297
504,533,14.6896,-22.6455,0,0,0,0,0,0,0,-1,1728,491,14.6895,22.6455
511,533,13.6221,-19.2798,0,0,0,0,0,0,0,-1,1735,491,13.6221,19.2798
518,533,14.1954,-19.4995,0,0,0,0,0,0,0,-1,1742,491,14.1955,19.4995
525,533,13.7935,-19.6901,0,0,0,0,0,0,0,-1,1749,491,13.7934,19.6901
532,533,15.4377,-17.9016,0,0,0,0,0,0,0,-1,1756,491,15.4377,17.9015
539,533,12.8733,-18.2556,0,0,0,0,0,0,0,-1,1763,491,12.8733,18.2556
546,533,3.59607,1.65799,0,0,0,0,0,0,0,-1,1770,491,3.59605,-1.658
553,533,0,0,0,0,0,0,0,0,0,-1,1777,491,0,0
560,533,0,0,0,0,0,0,0,0,0,-1,1784,491,0,0
567,533,0,0,0,0,0,0,0,0,0,-1,1791,491,0,0
574,533,0,0,0,0,0,0,0,0,0,-1,1798,491,0,0
581,533,0,0,0,0,0,0,0,0,0,-1,1805,491,0,0
588,533,0,0,0,0,0,0,0,0,0,-1,1812,491,0,0
595,533,0,0,0,0,0,0,0,0,0,-1,1819,491,0,0
602,533,0,0,0,0,0,0,0,0,0,-1,1826,491,0,0
609,533,0,0,0,0,0,0,0,0,0,-1,1833,491,0,0
616,533,0,0,0,0,0,0,0,0,0,-1,1840,491,0,0
623,533,0,0,0,0,0,0,0,0,0,-1,1847,491,0,0
630,533,0,0,0,0,0,0,0,0,0,-1,1854,491,0,0
637,533,0,0,0,0,0,0,0,0,0,-1,1861,491,0,0
644,533,0,0,0,0,0,0,0,0,0,-1,1868,491,0,0
651,533,0,0,0,0,0,0,0,0,0,-1,1875,491,0,0
658,533,0,0,0,0,0,0,0,0,0,-1,1882,491,0,0
665,533,0,0,0,0,0,0,0,0,0,-1,1889,491,0,0
672,533,0,0,0,0,0,0,0,0,0,-1,1896,491,0,0
679,533,0,0,0,0,0,0,0,0,0,-1,1903,491,0,0
686,533,0,0,0,0,0,0,0,0,0,-1,1910,491,0,0
693,533,0,0,0,0,0,0,0,0,0,-1,1917,491,0,0
700,533,0,0,0,0,0,0,0,0,0,-1,1924,491,0,0
707,533,0,0,0,0,0,0,0,0,0,-1,1931,491,0,0
714,533,0,0,0,0,0,0,0,0,0,-1,1938,491,0,0
721,533,0,0,0,0,0,0,0,0,0,-1,1945,491,0,0
728,533,0,0,0,0,0,0,0,0,0,-1,1952,491,0,0
735,533,0,0,0,0,0,0,0,0,0,-1,1959,491,0,0
742,533,0,0,0,0,0,0,0,0,0,-1,1966,491,0,0
749,533,0,0,0,0,0,0,0,0,0,-1,1973,491,0,0
756,533,0,0,0,0,0,0,0,0,0,-1,1980,491,0,0
763,533,0,0,0,0,0,0,0,0,0,-1,1987,491,0,0
770,533,0,0,0,0,0,0,0,0,0,-1,1994,491,0,0
777,533,0,0,0,0,0,0,0,0,0,-1,2001,491,0,0
784,533,0,0,0,0,0,0,0,0,0,-1,2008,491,0,0
791,533,0,0,0,0,0,0,0,0,0,-1,2015,491,0,0
798,533,0,0,0,0,0,0,0,0,0,-1,2022,491,0,0
805,533,0,0,0,0,0,0,0,0,0,-1,2029,491,0,0
812,533,0,0,0,0,0,0,0,0,0,-1,2036,491,0,0
-700,526,0,0,0,0,0,0,0,0,0,-1,524,498,0,0
-693,526,0,0,0,0,0,0,0,0,0,-1,531,498,0,0
-686,526,0,0,0,0,0,0,0,0,0,-1,538,498,0,0
-679,526,0,0,0,0,0,0,0,0,0,-1,545,498,0,0
-672,526,0,0,0,0,0,0,0,0,0,-1,552,498,0,0
-665,526,0,0,0,0,0,0,0,0,0,-1,559,498,0,0
-658,526,0,0,0,0,0,0,0,0,0,-1,566,498,0,0
-651,526,0,0,0,0,0,0,0,0,0,-1,573,498,0,0
-644,526,0,0,0,0,0,0,0,0,0,-1,580,498,0,0
-637,526,0,0,0,0,0,0,0,0,0,-1,587,498,0,0
-630,526,0,0,0,0,0,0,0,0,0,-1,594,498,0,0
-623,526,0,0,0,0,0,0,0,0,0,-1,601,498,0,0
-616,526,0,0,0,0,0,0,0,0,0,-1,608,498,0,0
-609,526,0,0,0,0,0,0,0,0,0,-1,615,498,0,0
-602,526,0,0,0,0,0,0,0,0,0,-1,622,498,0,0
-595,526,0,0,0,0,0,0,0,0,0,-1,629,498,0,0
-588,526,0,0,0,0,0,0,0,0,0,-1,636,498,0,0
-581,526,0,0,0,0,0,0,0,0,0,-1,643,498,0,0
-574,526,0,0,0,0,0,0,0,0,0,-1,650,498,0,0
-567,526,0,0,0,0,0,0,0,0,0,-1,657,498,0,0
-560,526,0,0,0,0,0,0,0,0,0,-1,664,498,0,0
-553,526,0,0,0,0,0,0,0,0,0,-1,671,498,0,0
-546,526,0,0,0,0,0,0,0,0,0,-1,678,498,0,0
-539,526,0,0,0,0,0,0,0,0,0,-1,685,498,0,0
-532,526,0,0,0,0,0,0,0,0,0,-1,692,498,0,0
-525,526,0,0,0,0,0,0,0,0,0,-1,699,498,0,0
-518,526,0,0,0,0,0,0,0,0,0,-1,706,498,0,0
-511,526,0,0,0,0,0,0,0,0,0,-1,713,498,0,0
-504,526,0,0,0,0,0,0,0,0,0,-1,720,498,0,0
-497,526,0,0,0,0,0,0,0,0,0,-1,727,498,0,0
-490,526,0,0,0,0,0,0,0,0,0,-1,734,498,0,0
-483,526,0,0,0,0,0,0,0,0,0,-1,741,498,0,0
-476,526,0,0,0,0,0,0,0,0,0,-1,748,498,0,0
-469,526,0,0,0,0,0,0,0,0,0,-1,755,498,0,0
-462,526,0,0,0,0,0,0,0,0,0,-1,762,498,0,0
-455,526,0,0,0,0,0,0,0,0,0,-1,769,498,0,0
-448,526,0,0,0,0,0,0,0,0,0,-1,776,498,0,0
-441,526,0,0,0,0,0,0,0,0,0,-1,783,498,0,0
-434,526,-0.153564,-5.96649,0,0,0,0,0,0,0,-1,790,498,-0.153589,5.9665
-427,526,1.23206,-4.59808,0,0,0,0,0,0,0,-1,797,498,1.23208,4.59809
-420,526,-1.76373,-11.6241,0,0,0,0,0,0,0,-1,804,498,-1.76373,11.6241
-413,526,-1.38965,-11.7916,0,0,0,0,0,0,0,-1,811,498,-1.38963,11.7916
-406,526,-1.35187,-12.5182,0,0,0,0,0,0,0,-1,818,498,-1.35185,12.5181
-399,526,-1.32715,-13.2116,0,0,0,0,0,0,0,-1,825,498,-1.32713,13.2116
-392,526,0.197571,-15.303,0,0,0,0,0,0,0,-1,832,498,0.197598,15.303
-385,526,-2.69397,-19.6176,0,0,0,0,0,0,0,-1,839,498,-2.69399,19.6176
-378,526,-1.63916,-25.4235,0,0,0,0,0,0,0,-1,846,498,-1.63918,25.4235
-371,526,-1.5849,-26.5976,0.0104569,0.022789,-0.0136386,0.0315907,0.00165528,-0.997698,0.020531,0.0451989,853,498,-1.58489,26.5976
-364,526,-1.48755,-27.7853,0.00803548,0.0197311,-0.0111195,0.0264467,0.00131985,-1.02748,0.0172081,0.0218631,860,498,-1.48754,27.7853
-357,526,-1.45587,-28.7378,0.00584207,0.0164887,-0.00901632,0.0216359,0.00069487,-1.05207,0.014198,0.013342,867,498,-1.45587,28.7378
-350,526,-1.47205,-29.5751,0.00399692,0.0133984,-0.00704801,0.0171695,0.000225869,-1.0795,0.0113718,0.0126928,874,498,-1.47203,29.5751
-343,526,-1.54114,-30.4337,0.0026005,0.0106306,-0.0053975,0.0133427,-0.000111523,-1.10518,0.00893251,0.0171544,881,498,-1.54111,30.4337
-336,526,-1.60413,-31.2605,0.00156298,0.00827815,-0.00399269,0.0101374,-0.000296226,-1.135,0.00685911,0.0176721,888,498,-1.60415,31.2605
-329,526,-1.64716,-32.0518,0.000858815,0.00616621,-0.00285432,0.00740985,-0.000384827,-1.15989,0.00507304,0.0170201,895,498,-1.64713,32.0518
-322,526,-1.67334,-32.8365,0.000437652,0.00419659,-0.00182749,0.00493859,-0.000304356,-1.18511,0.00339839,0.0109033,902,498,-1.67334,32.8366
-315,526,-1.73682,-33.6621,0.000394159,0.00262473,-0.00100782,0.00301263,6.25732e-06,-1.20338,0.00200634,0.00946782,909,498,-1.73684,33.6621
-308,526,-1.78442,-34.4659,0.000665859,0.00139492,-0.000470267,0.0016254,0.000435383,-1.1151,0.000971553,0.00887291,916,498,-1.78443,34.4659
-301,526,-1.83209,-35.2077,0.00122027,0.000387755,-8.11883e-05,0.00122811,0.000379911,-0.096313,0.000726028,0.0100697,923,498,-1.83208,35.2077
-294,526,-1.84491,-35.9713,0.00192491,-0.000374607,0.000319358,0.00196844,-0.000418136,0.135465,0.00147161,0.00967799,930,498,-1.84493,35.9713
-287,526,-1.87225,-36.7451,0.00264579,-0.00128908,0.000755495,0.00278586,-0.00142915,0.183319,0.0024752,0.00969319,937,498,-1.87224,36.7451
-280,526,-1.90765,-37.5078,0.00299679,-0.00319897,0.00118433,0.00321546,-0.00341764,0.182579,0.00383022,0.0128443,944,498,-1.90767,37.5077
-273,526,-1.93781,-38.2782,0.00340264,-0.00538676,0.00199712,0.00383514,-0.00581926,0.21327,0.00561307,0.0111571,951,498,-1.93778,38.2782
-266,526,-1.96661,-39.0272,0.0046693,-0.00806927,0.00278172,0.00525025,-0.00865022,0.205886,0.00810507,0.017308,958,498,-1.9666,39.0272
-259,526,-1.90796,-39.7604,0.00546855,-0.011047,0.00398599,0.00638023,-0.0119586,0.224855,0.01075,0.0460142,965,498,-1.90798,39.7604
-252,526,-1.94421,-40.5677,0,0,0,0,0,0,0,-1,972,498,-1.94423,40.5677
-245,526,-1.99323,-41.2532,0,0,0,0,0,0,0,-1,979,498,-1.99322,41.2533
-238,526,-1.84259,-41.5844,0,0,0,0,0,0,0,-1,986,498,-1.84258,41.5844
-231,526,-1.74908,-41.1436,0,0,0,0,0,0,0,-1,993,498,-1.74907,41.1436
-224,526,-2.33728,-42.5666,0,0,0,0,0,0,0,-1,1000,498,-2.33731,42.5666
-217,526,-1.41901,-43.2393,0,0,0,0,0,0,0,-1,1007,498,-1.41901,43.2393
-210,526,-2.38544,-44.0952,0,0,0,0,0,0,0,-1,1014,498,-2.38544,44.0952
-203,526,-0.659302,-18.8818,0,0,0,0,0,0,0,-1,1021,498,-0.659273,18.8818
-196,526,-0.328247,-12.179,0,0,0,0,0,0,0,-1,1028,498,-0.328238,12.179
-189,526,0.401245,-5.96826,0,0,0,0,0,0,0,-1,1035,498,0.401197,5.96826
-182,526,1.7323,-2.99405,0,0,0,0,0,0,0,-1,1042,498,1.73226,2.99404
-175,526,2.27637,-2.07983,0,0,0,0,0,0,0,-1,1049,498,2.27639,2.07984
-168,526,2.12036,-1.66049,0,0,0,0,0,0,0,-1,1056,498,2.12035,1.66048
-161,526,2.09082,-1.20572,0,0,0,0,0,0,0,-1,1063,498,2.09086,1.2057
-154,526,-1.3446,-5.37799,0,0,0,0,0,0,0,-1,1070,498,-1.34457,5.37799
-147,526,-0.472656,-6.64996,0,0,0,0,0,0,0,-1,1077,498,-0.472659,6.64997
-140,526,0.422852,-8.03339,0,0,0,0,0,0,0,-1,1084,498,0.422844,8.0334
-133,526,1.09583,-9.2215,0,0,0,0,0,0,0,-1,1091,498,1.09581,9.2215
-126,526,3.42529,-2.36053,0,0,0,0,0,0,0,-1,1098,498,3.42523,2.36052
-119,526,2.7771,-0.764099,0,0,0,0,0,0,0,-1,1105,498,2.7771,0.764107
-112,526,2.57715,-1.1893,0,0,0,0,0,0,0,-1,1112,498,2.57718,1.1893
-105,526,0,0,0,0,0,0,0,0,0,-1,1119,498,0,0
-98,526,0,0,0,0,0,0,0,0,0,-1,1126,498,0,0
-91,526,0,0,0,0,0,0,0,0,0,-1,1133,498,0,0
-84,526,0,0,0,0,0,0,0,0,0,-1,1140,498,0,0
-77,526,0,0,0,0,0,0,0,0,0,-1,1147,498,0,0
-70,526,0,0,0,0,0,0,0,0,0,-1,1154,498,0,0
-63,526,0,0,0,0,0,0,0,0,0,-1,1161,498,0,0
-56,526,0,0,0,0,0,0,0,0,0,-1,1168,498,0,0
-49,526,0,0,0,0,0,0,0,0,0,-1,1175,498,0,0
-42,526,0,0,0,0,0,0,0,0,0,-1,1182,498,0,0
-35,526,0,0,0,0,0,0,0,0,0,-1,1189,498,0,0
-28,526,0,0,0,0,0,0,0,0,0,-1,1196,498,0,0
-21,526,0,0,0,0,0,0,0,0,0,-1,1203,498,0,0
-14,526,0,0,0,0,0,0,0,0,0,-1,1210,498,0,0
-7,526,0,0,0,0,0,0,0,0,0,-1,1217,498,0,0
0,526,0,0,0,0,0,0,0,0,0,-1,1224,498,0,0
7,526,0,0,0,0,0,0,0,0,0,-1,1231,498,0,0
14,526,0,0,0,0,0,0,0,0,0,-1,1238,498,0,0
21,526,0,0,0,0,0,0,0,0,0,-1,1245,498,0,0
28,526,0,0,0,0,0,0,0,0,0,-1,1252,498,0,0
35,526,0,0,0,0,0,0,0,0,0,-1,1259,498,0,0
42,526,0,0,0,0,0,0,0,0,0,-1,1266,498,0,0
49,526,0,0,0,0,0,0,0,0,0,-1,1273,498,0,0
56,526,0,0,0,0,0,0,0,0,0,-1,1280,498,0,0
63,526,0,0,0,0,0,0,0,0,0,-1,1287,498,0,0
70,526,0,0,0,0,0,0,0,0,0,-1,1294,498,0,0
77,526,0,0,0,0,0,0,0,0,0,-1,1301,498,0,0
84,526,0,0,0,0,0,0,0,0,0,-1,1308,498,0,0
91,526,0,0,0,0,0,0,0,0,0,-1,1315,498,0,0
98,526,0,0,0,0,0,0,0,0,0,-1,1322,498,0,0
105,526,0,0,0,0,0,0,0,0,0,-1,1329,498,0,0
112,526,0,0,0,0,0,0,0,0,0,-1,1336,498,0,0
119,526,0,0,0,0,0,0,0,0,0,-1,1343,498,0,0
126,526,0,0,0,0,0,0,0,0,0,-1,1350,498,0,0
133,526,0,0,0,0,0,0,0,0,0,-1,1357,498,0,0
140,526,0,0,0,0,0,0,0,0,0,-1,1364,498,0,0
147,526,0,0,0,0,0,0,0,0,0,-1,1371,498,0,0
154,526,0,0,0,0,0,0,0,0,0,-1,1378,498,0,0
161,526,0,0,0,0,0,0,0,0,0,-1,1385,498,0,0
168,526,0,0,0,0,0,0,0,0,0,-1,1392,498,0,0
175,526,0,0,0,0,0,0,0,0,0,-1,1399,498,0,0
182,526,0,0,0,0,0,0,0,0,0,-1,1406,498,0,0
189,526,0,0,0,0,0,0,0,0,0,-1,1413,498,0,0
196,526,0,0,0,0,0,0,0,0,0,-1,1420,498,0,0
203,526,0,0,0,0,0,0,0,0,0,-1,1427,498,0,0
210,526,0,0,0,0,0,0,0,0,0,-1,1434,498,0,0
217,526,0,0,0,0,0,0,0,0,0,-1,1441,498,0,0
224,526,0,0,0,0,0,0,0,0,0,-1,1448,498,0,0
231,526,7.93237,-1.30618,0,0,0,0,0,0,0,-1,1455,498,7.93238,1.30618
238,526,7.97717,-1.08197,0,0,0,0,0,0,0,-1,1462,498,7.97723,1.08196
245,526,7.2793,-0.792938,0,0,0,0,0,0,0,-1,1469,498,7.27931,0.792926
252,526,6.73523,-2.23608,0,0,0,0,0,0,0,-1,1476,498,6.73525,2.23608
259,526,6.22949,-1.84967,0,0,0,0,0,0,0,-1,1483,498,6.22953,1.84968
266,526,5.72375,-1.46329,0,0,0,0,0,0,0,-1,1490,498,5.72381,1.46328
273,526,4.33984,0.49173,0,0,0,0,0,0,0,-1,1497,498,4.33979,-0.491727
280,526,1.4585,-1.59897,0,0,0,0,0,0,0,-1,1504,498,1.45846,1.59895
287,526,1.46411,-2.40134,0,0,0,0,0,0,0,-1,1511,498,1.46406,2.40133
294,526,5.57471,-4.59085,0,0,0,0,0,0,0,-1,1518,498,5.57466,4.59084
301,526,4.42786,-3.99677,0,0,0,0,0,0,0,-1,1525,498,4.42788,3.99676
308,526,5.79529,-4.19366,0,0,0,0,0,0,0,-1,1532,498,5.79528,4.19368
315,526,5.09851,-5.20068,0,0,0,0,0,0,0,-1,1539,498,5.09851,5.20068
322,526,5.50708,-4.72348,0,0,0,0,0,0,0,-1,1546,498,5.50713,4.72347
329,526,3.88672,-4.345,0,0,0,0,0,0,0,-1,1553,498,3.88674,4.34501
336,526,4.97876,-2.23828,0,0,0,0,0,0,0,-1,1560,498,4.97877,2.23828
343,526,3.31665,-2.69696,0,0,0,0,0,0,0,-1,1567,498,3.31667,2.69696
350,526,6.06287,-6.12015,0,0,0,0,0,0,0,-1,1574,498,6.06286,6.12014
357,526,12.9944,-29.1665,0,0,0,0,0,0,0,-1,1581,498,12.9943,29.1665
364,526,13.2582,-29.5416,0,0,0,0,0,0,0,-1,1588,498,13.2581,29.5416
371,526,12.4481,-29.0131,0,0,0,0,0,0,0,-1,1595,498,12.4481,29.0131
378,526,15.619,-39.1503,0,0,0,0,0,0,0,-1,1602,498,15.619,39.1503
385,526,16.5936,-39.4775,0,0,0,0,0,0,0,-1,1609,498,16.5936,39.4776
392,526,16.644,-38.584,0,0,0,0,0,0,0,-1,1616,498,16.6441,38.584
399,526,16.6166,-37.8295,0.00264641,-0.00116087,-0.00111495,0.00294889,-0.00146335,-0.264917,0.00259509,0.0244768,1623,498,16.6166,37.8295
406,526,16.6569,-37.0224,0.0025958,4.30592e-05,-0.000611964,0.00273492,-9.60636e-05,-0.223539,0.00185613,0.0141665,1630,498,16.6569,37.0224
413,526,16.6204,-36.2576,0.00243402,0.000634115,-8.61924e-06,0.00243406,0.000634074,-0.00478857,0.00145806,0.0140026,1637,498,16.6204,36.2576
420,526,16.5542,-35.4761,0.00213766,0.000972679,0.000257407,0.002192,0.000918338,0.208052,0.00127108,0.0143068,1644,498,16.5542,35.4761
427,526,16.5427,-34.6862,0.00175614,0.0012386,0.000512418,0.00207142,0.000923316,0.551577,0.00119828,0.0138137,1651,498,16.5427,34.6862
434,526,16.5001,-33.8778,0.00138911,0.00149265,0.000889317,0.0023317,0.000550057,0.814474,0.00140741,0.0117136,1658,498,16.5001,33.8778
441,526,16.4583,-33.0516,0.00110194,0.00183762,0.00135991,0.00287856,6.1005e-05,0.917482,0.00189903,0.0114109,1665,498,16.4582,33.0516
448,526,16.432,-32.2605,0.000805224,0.00210578,0.001864,0.00342967,-0.000518673,0.953228,0.0024775,0.0111126,1672,498,16.432,32.2605
455,526,16.3647,-31.4787,0.000544526,0.00238606,0.00241607,0.00405087,-0.00112028,0.967453,0.00314132,0.0142381,1679,498,16.3648,31.4787
462,526,16.3282,-30.6514,0.000561041,0.00271965,0.00309218,0.00491547,-0.00163478,0.953309,0.00393673,0.0109284,1686,498,16.3283,30.6514
469,526,16.3051,-29.8464,0.000772286,0.00311794,0.00375692,0.00588084,-0.00199062,0.936693,0.00472598,0.00830997,1693,498,16.305,29.8464
476,526,16.2657,-29.0125,0.000980272,0.00346264,0.0044813,0.00687146,-0.00242856,0.920496,0.00556986,0.00974611,1700,498,16.2658,29.0125
483,526,16.2352,-28.1078,0.0014263,0.00384481,0.00530711,0.00807869,-0.00280758,0.897413,0.00652616,0.0144986,1707,498,16.2352,28.1078
490,526,16.257,-27.1331,0.00210503,0.00419939,0.00625466,0.00949392,-0.00318951,0.868341,0.00761836,0.0384204,1714,498,16.257,27.1331
497,526,16.3033,-26.2663,0,0,0,0,0,0,0,-1,1721,498,16.3033,26.2663
504,526,16.5188,-25.5757,0,0,0,0,0,0,0,-1,1728,498,16.5188,25.5757
511,526,16.668,-24.6174,0,0,0,0,0,0,0,-1,1735,498,16.668,24.6174
518,526,14.7889,-20.4046,0,0,0,0,0,0,0,-1,1742,498,14.7889,20.4046
525,526,14.7009,-19.7487,0,0,0,0,0,0,0,-1,1749,498,14.7009,19.7486
532,526,15.7457,-17.9624,0,0,0,0,0,0,0,-1,1756,498,15.7458,17.9624
539,526,16.1064,-16.42,0,0,0,0,0,0,0,-1,1763,498,16.1065,16.42
546,526,12.4675,-17.1617,0,0,0,0,0,0,0,-1,1770,498,12.4675,17.1617
553,526,3.40796,1.37137,0,0,0,0,0,0,0,-1,1777,498,3.40792,-1.37138
560,526,0,0,0,0,0,0,0,0,0,-1,1784,498,0,0
567,526,0,0,0,0,0,0,0,0,0,-1,1791,498,0,0
574,526,0,0,0,0,0,0,0,0,0,-1,1798,498,0,0
581,526,0,0,0,0,0,0,0,0,0,-1,1805,498,0,0
588,526,0,0,0,0,0,0,0,0,0,-1,1812,498,0,0
595,526,0,0,0,0,0,0,0,0,0,-1,1819,498,0,0
602,526,0,0,0,0,0,0,0,0,0,-1,1826,498,0,0
609,526,0,0,0,0,0,0,0,0,0,-1,1833,498,0,0
616,526,0,0,0,0,0,0,0,0,0,-1,1840,498,0,0
623,526,0,0,0,0,0,0,0,0,0,-1,1847,498,0,0
630,526,0,0,0,0,0,0,0,0,0,-1,1854,498,0,0
637,526,0,0,0,0,0,0,0,0,0,-1,1861,498,0,0
644,526,0,0,0,0,0,0,0,0,0,-1,1868,498,0,0
651,526,0,0,0,0,0,0,0,0,0,-1,1875,498,0,0
658,526,0,0,0,0,0,0,0,0,0,-1,1882,498,0,0
665,526,0,0,0,0,0,0,0,0,0,-1,1889,498,0,0
672,526,0,0,0,0,0,0,0,0,0,-1,1896,498,0,0
679,526,0,0,0,0,0,0,0,0,0,-1,1903,498,0,0
686,526,0,0,0,0,0,0,0,0,0,-1,1910,498,0,0
693,526,0,0,0,0,0,0,0,0,0,-1,1917,498,0,0
700,526,0,0,0,0,0,0,0,0,0,-1,1924,498,0,0
707,526,0,0,0,0,0,0,0,0,0,-1,1931,498,0,0
714,526,0,0,0,0,0,0,0,0,0,-1,1938,498,0,0
721,526,0,0,0,0,0,0,0,0,0,-1,1945,498,0,0
728,526,0,0,0,0,0,0,0,0,0,-1,1952,498,0,0
735,526,0,0,0,0,0,0,0,0,0,-1,1959,498,0,0
742,526,0,0,0,0,0,0,0,0,0,-1,1966,498,0,0
749,526,0,0,0,0,0,0,0,0,0,-1,1973,498,0,0
756,526,0,0,0,0,0,0,0,0,0,-1,1980,498,0,0
763,526,0,0,0,0,0,0,0,0,0,-1,1987,498,0,0
770,526,0,0,0,0,0,0,0,0,0,-1,1994,498,0,0
777,526,0,0,0,0,0,0,0,0,0,-1,2001,498,0,0
784,526,0,0,0,0,0,0,0,0,0,-1,2008,498,0,0
791,526,0,0,0,0,0,0,0,0,0,-1,2015,498,0,0
798,526,0,0,0,0,0,0,0,0,0,-1,2022,498,0,0
805,526,0,0,0,0,0,0,0,0,0,-1,2029,498,0,0
812,526,0,0,0,0,0,0,0,0,0,-1,2036,498,0,0
-700,519,0,0,0,0,0,0,0,0,0,-1,524,505,0,0
-693,519,0,0,0,0,0,0,0,0,0,-1,531,505,0,0
-686,519,0,0,0,0,0,0,0,0,0,-1,538,505,0,0
-679,519,0,0,0,0,0,0,0,0,0,-1,545,505,0,0
-672,519,0,0,0,0,0,0,0,0,0,-1,552,505,0,0
-665,519,0,0,0,0,0,0,0,0,0,-1,559,505,0,0
-658,519,0,0,0,0,0,0,0,0,0,-1,566,505,0,0
-651,519,0,0,0,0,0,0,0,0,0,-1,573,505,0,0
-644,519,0,0,0,0,0,0,0,0,0,-1,580,505,0,0
-637,519,0,0,0,0,0,0,0,0,0,-1,587,505,0,0
-630,519,0,0,0,0,0,0,0,0,0,-1,594,505,0,0
-623,519,0,0,0,0,0,0,0,0,0,-1,601,505,0,0
-616,519,0,0,0,0,0,0,0,0,0,-1,608,505,0,0
-609,519,0,0,0,0,0,0,0,0,0,-1,615,505,0,0
-602,519,0,0,0,0,0,0,0,0,0,-1,622,505,0,0
-595,519,0,0,0,0,0,0,0,0,0,-1,629,505,0,0
-588,519,0,0,0,0,0,0,0,0,0,-1,636,505,0,0
-581,519,0,0,0,0,0,0,0,0,0,-1,643,505,0,0
-574,519,0,0,0,0,0,0,0,0,0,-1,650,505,0,0
-567,519,0,0,0,0,0,0,0,0,0,-1,657,505,0,0
-560,519,0,0,0,0,0,0,0,0,0,-1,664,505,0,0
-553,519,0,0,0,0,0,0,0,0,0,-1,671,505,0,0
-546,519,0,0,0,0,0,0,0,0,0,-1,678,505,0,0
-539,519,0,0,0,0,0,0,0,0,0,-1,685,505,0,0
-532,519,0,0,0,0,0,0,0,0,0,-1,692,505,0,0
-525,519,0,0,0,0,0,0,0,0,0,-1,699,505,0,0
-518,519,0,0,0,0,0,0,0,0,0,-1,706,505,0,0
-511,519,0,0,0,0,0,0,0,0,0,-1,713,505,0,0
-504,519,0,0,0,0,0,0,0,0,0,-1,720,505,0,0
-497,519,0,0,0,0,0,0,0,0,0,-1,727,505,0,0
-490,519,0,0,0,0,0,0,0,0,0,-1,734,505,0,0
-483,519,0,0,0,0,0,0,0,0,0,-1,741,505,0,0
-476,519,0,0,0,0,0,0,0,0,0,-1,748,505,0,0
-469,519,0,0,0,0,0,0,0,0,0,-1,755,505,0,0
-462,519,0,0,0,0,0,0,0,0,0,-1,762,505,0,0
-455,519,0,0,0,0,0,0,0,0,0,-1,769,505,0,0
-448,519,0,0,0,0,0,0,0,0,0,-1,776,505,0,0
-441,519,1.34839,-5.29346,0,0,0,0,0,0,0,-1,783,505,1.3484,5.29347
-434,519,0.949585,-5.77313,0,0,0,0,0,0,0,-1,790,505,0.949598,5.77315
-427,519,-0.0523682,-9.31567,0,0,0,0,0,0,0,-1,797,505,-0.0523854,9.31568
-420,519,-2.38867,-12.1938,0,0,0,0,0,0,0,-1,804,505,-2.38867,12.1938
-413,519,-2.2298,-12.4998,0,0,0,0,0,0,0,-1,811,505,-2.22979,12.4998
-406,519,-1.44373,-12.3475,0,0,0,0,0,0,0,-1,818,505,-1.44376,12.3475
-399,519,-1.60516,-15.0849,0,0,0,0,0,0,0,-1,825,505,-1.60518,15.0849
-392,519,-2.04517,-24.3765,0,0,0,0,0,0,0,-1,832,505,-2.04516,24.3765
-385,519,-2.58472,-24.6919,0,0,0,0,0,0,0,-1,839,505,-2.58469,24.6919
-378,519,-2.36237,-25.7393,0.00954032,0.0207521,-0.0133804,0.0296535,0.000638983,-0.983772,0.0195595,0.040475,846,505,-2.36237,25.7392
-371,519,-2.20203,-26.8472,0.00810391,0.0178578,-0.011323,0.0253094,0.000652237,-0.988747,0.0166598,0.0199317,853,505,-2.202,26.8472
-364,519,-2.21307,-27.8411,0.00641465,0.0152129,-0.00921745,0.0210272,0.000600359,-1.00804,0.0138223,0.011005,860,505,-2.2131,27.8411
-357,519,-2.22552,-28.7238,0.00482972,0.0125487,-0.00738549,0.0170224,0.000356087,-1.02617,0.0112314,0.0106394,867,505,-2.22549,28.7238
-350,519,-2.27087,-29.5389,0.0034877,0.0100368,-0.00571271,0.0133469,0.000177592,-1.04564,0.00883934,0.0136691,874,505,-2.2709,29.5389
-343,519,-2.37274,-30.3216,0.00247056,0.00768787,-0.00427337,0.0100859,7.25449e-05,-1.05943,0.00669987,0.0174211,881,505,-2.37275,30.3216
-336,519,-2.44836,-31.1467,0.00171723,0.00566642,-0.0030247,0.00730401,7.96509e-05,-1.07458,0.00484301,0.017413,888,505,-2.44837,31.1467
-329,519,-2.4386,-31.9864,0.001226,0.00384452,-0.00200985,0.00493394,0.000136582,-1.07408,0.00324473,0.0147513,895,505,-2.43859,31.9864
-322,519,-2.45203,-32.7869,0.000978779,0.00215324,-0.00110439,0.00281682,0.000315199,-1.02975,0.00178213,0.0114965,902,505,-2.452,32.7869
-315,519,-2.51007,-33.5999,0.00109147,0.000829578,-0.000401946,0.00138326,0.000537785,-0.627931,0.000805184,0.00933939,909,505,-2.51007,33.5999
-308,519,-2.5769,-34.4242,0.001571,-0.000184534,5.82437e-05,0.00157293,-0.000186464,0.0331287,0.00111598,0.00803659,916,505,-2.57689,34.4242
-301,519,-2.65247,-35.186,0.00223072,-0.000912847,0.000408109,0.00228283,-0.000964965,0.127019,0.00192589,0.0126791,923,505,-2.65246,35.186
-294,519,-2.66876,-35.9252,0.00296314,-0.00146271,0.000774437,0.00309474,-0.00159431,0.16832,0.00275304,0.0156088,930,505,-2.66878,35.9252
-287,519,-2.69476,-36.6843,0.00371265,-0.00226666,0.00118851,0.00394023,-0.00249424,0.189192,0.00374608,0.011816,937,505,-2.69474,36.6842
-280,519,-2.71991,-37.4617,0.00402398,-0.00436257,0.00163187,0.00433032,-0.00466892,0.185565,0.00519694,0.0251599,944,505,-2.71992,37.4617
-273,519,-2.73529,-38.241,0,0,0,0,0,0,0,-1,951,505,-2.73532,38.241
-266,519,-2.7627,-39.0829,0,0,0,0,0,0,0,-1,958,505,-2.7627,39.0829
-259,519,-2.55902,-39.9622,0,0,0,0,0,0,0,-1,965,505,-2.55901,39.9622
-252,519,-1.84009,-26.8372,0,0,0,0,0,0,0,-1,972,505,-1.8401,26.8372
-245,519,-1.23254,-23.2696,0,0,0,0,0,0,0,-1,979,505,-1.23256,23.2696
-238,519,-0.645386,-38.9008,0,0,0,0,0,0,0,-1,986,505,-0.645375,38.9008
-231,519,-2.36322,-40.2355,0,0,0,0,0,0,0,-1,993,505,-2.36321,40.2355
-224,519,-2.90112,-39.5726,0,0,0,0,0,0,0,-1,1000,505,-2.90114,39.5726
-217,519,-2.87396,-38.149,0,0,0,0,0,0,0,-1,1007,505,-2.87394,38.149
-210,519,-0.883362,-34.799,0,0,0,0,0,0,0,-1,1014,505,-0.883379,34.799
-203,519,-0.513611,-5.39017,0,0,0,0,0,0,0,-1,1021,505,-0.513585,5.39017
-196,519,-0.374023,-5.41635,0,0,0,0,0,0,0,-1,1028,505,-0.374047,5.41635
-189,519,-0.234497,-5.44254,0,0,0,0,0,0,0,-1,1035,505,-0.234508,5.44253
-182,519,2.76697,-1.19659,0,0,0,0,0,0,0,-1,1042,505,2.76696,1.19661
-175,519,2.31323,-0.960938,0,0,0,0,0,0,0,-1,1049,505,2.31319,0.960941
-168,519,2.01074,-0.721405,0,0,0,0,0,0,0,-1,1056,505,2.01072,0.721407
-161,519,2.32056,-0.522339,0,0,0,0,0,0,0,-1,1063,505,2.32057,0.522328
-154,519,2.55566,0.116669,0,0,0,0,0,0,0,-1,1070,505,2.55563,-0.116661
-147,519,-0.55127,-6.14001,0,0,0,0,0,0,0,-1,1077,505,-0.551252,6.14001
-140,519,0.240601,-7.53503,0,0,0,0,0,0,0,-1,1084,505,0.240653,7.53501
-133,519,2.70911,-4.4516,0,0,0,0,0,0,0,-1,1091,505,2.70915,4.45161
-126,519,0,0,0,0,0,0,0,0,0,-1,1098,505,0,0
-119,519,0,0,0,0,0,0,0,0,0,-1,1105,505,0,0
-112,519,0,0,0,0,0,0,0,0,0,-1,1112,505,0,0
-105,519,0,0,0,0,0,0,0,0,0,-1,1119,505,0,0
-98,519,0,0,0,0,0,0,0,0,0,-1,1126,505,0,0
-91,519,0,0,0,0,0,0,0,0,0,-1,1133,505,0,0
-84,519,0,0,0,0,0,0,0,0,0,-1,1140,505,0,0
-77,519,0,0,0,0,0,0,0,0,0,-1,1147,505,0,0
-70,519,0,0,0,0,0,0,0,0,0,-1,1154,505,0,0
-63,519,0,0,0,0,0,0,0,0,0,-1,1161,505,0,0
-56,519,0,0,0,0,0,0,0,0,0,-1,1168,505,0,0
-49,519,0,0,0,0,0,0,0,0,0,-1,1175,505,0,0
-42,519,0,0,0,0,0,0,0,0,0,-1,1182,505,0,0
-35,519,0,0,0,0,0,0,0,0,0,-1,1189,505,0,0
-28,519,0,0,0,0,0,0,0,0,0,-1,1196,505,0,0
-21,519,0,0,0,0,0,0,0,0,0,-1,1203,505,0,0
-14,519,0,0,0,0,0,0,0,0,0,-1,1210,505,0,0
-7,519,0,0,0,0,0,0,0,0,0,-1,1217,505,0,0
0,519,0,0,0,0,0,0,0,0,0,-1,1224,505,0,0
7,519,0,0,0,0,0,0,0,0,0,-1,1231,505,0,0
14,519,0,0,0,0,0,0,0,0,0,-1,1238,505,0,0
21,519,0,0,0,0,0,0,0,0,0,-1,1245,505,0,0
28,519,0,0,0,0,0,0,0,0,0,-1,1252,505,0,0
35,519,0,0,0,0,0,0,0,0,0,-1,1259,505,0,0
42,519,0,0,0,0,0,0,0,0,0,-1,1266,505,0,0
49,519,0,0,0,0,0,0,0,0,0,-1,1273,505,0,0
56,519,0,0,0,0,0,0,0,0,0,-1,1280,505,0,0
63,519,0,0,0,0,0,0,0,0,0,-1,1287,505,0,0
70,519,0,0,0,0,0,0,0,0,0,-1,1294,505,0,0
77,519,0,0,0,0,0,0,0,0,0,-1,1301,505,0,0
84,519,0,0,0,0,0,0,0,0,0,-1,1308,505,0,0
91,519,0,0,0,0,0,0,0,0,0,-1,1315,505,0,0
98,519,0,0,0,0,0,0,0,0,0,-1,1322,505,0,0
105,519,0,0,0,0,0,0,0,0,0,-1,1329,505,0,0
112,519,0,0,0,0,0,0,0,0,0,-1,1336,505,0,0
119,519,0,0,0,0,0,0,0,0,0,-1,1343,505,0,0
126,519,0,0,0,0,0,0,0,0,0,-1,1350,505,0,0
133,519,0,0,0,0,0,0,0,0,0,-1,1357,505,0,0
140,519,0,0,0,0,0,0,0,0,0,-1,1364,505,0,0
147,519,0,0,0,0,0,0,0,0,0,-1,1371,505,0,0
154,519,0,0,0,0,0,0,0,0,0,-1,1378,505,0,0
161,519,0,0,0,0,0,0,0,0,0,-1,1385,505,0,0
168,519,0,0,0,0,0,0,0,0,0,-1,1392,505,0,0
175,519,0,0,0,0,0,0,0,0,0,-1,1399,505,0,0
182,519,0,0,0,0,0,0,0,0,0,-1,1406,505,0,0
189,519,0,0,0,0,0,0,0,0,0,-1,1413,505,0,0
196,519,0,0,0,0,0,0,0,0,0,-1,1420,505,0,0
203,519,0,0,0,0,0,0,0,0,0,-1,1427,505,0,0
210,519,0,0,0,0,0,0,0,0,0,-1,1434,505,0,0
217,519,0,0,0,0,0,0,0,0,0,-1,1441,505,0,0
224,519,0,0,0,0,0,0,0,0,0,-1,1448,505,0,0
231,519,0,0,0,0,0,0,0,0,0,-1,1455,505,0,0
238,519,0,0,0,0,0,0,0,0,0,-1,1462,505,0,0
245,519,0,0,0,0,0,0,0,0,0,-1,1469,505,0,0
252,519,5.26208,0.0938416,0,0,0,0,0,0,0,-1,1476,505,5.26207,-0.0938493
259,519,6.14246,-1.36441,0,0,0,0,0,0,0,-1,1483,505,6.14241,1.36441
266,519,5.31909,-0.400787,0,0,0,0,0,0,0,-1,1490,505,5.31912,0.400773
273,519,4.02393,0.325531,0,0,0,0,0,0,0,-1,1497,505,4.0239,-0.325522
280,519,4.68848,0.53006,0,0,0,0,0,0,0,-1,1504,505,4.68842,-0.530073
287,519,7.9519,-3.80801,0,0,0,0,0,0,0,-1,1511,505,7.95193,3.808
294,519,6.92273,-3.38889,0,0,0,0,0,0,0,-1,1518,505,6.92268,3.38888
301,519,5.35669,-2.92661,0,0,0,0,0,0,0,-1,1525,505,5.35675,2.9266
308,519,7.37549,-5.64529,0,0,0,0,0,0,0,-1,1532,505,7.3755,5.64529
315,519,6.30029,-4.53754,0,0,0,0,0,0,0,-1,1539,505,6.30024,4.53753
322,519,5.84302,-5.45117,0,0,0,0,0,0,0,-1,1546,505,5.84303,5.45116
329,519,4.92407,0.62384,0,0,0,0,0,0,0,-1,1553,505,4.92403,-0.623832
336,519,3.10095,-0.329285,0,0,0,0,0,0,0,-1,1560,505,3.1009,0.329283
343,519,2.49146,-2.31119,0,0,0,0,0,0,0,-1,1567,505,2.49145,2.31119
350,519,3.47729,-2.22516,0,0,0,0,0,0,0,-1,1574,505,3.47726,2.22515
357,519,13.271,-29.6344,0,0,0,0,0,0,0,-1,1581,505,13.271,29.6344
364,519,12.8292,-28.3627,0,0,0,0,0,0,0,-1,1588,505,12.8292,28.3627
371,519,12.3875,-27.0911,0,0,0,0,0,0,0,-1,1595,505,12.3874,27.091
378,519,6.36597,-10.0967,0,0,0,0,0,0,0,-1,1602,505,6.36597,10.0967
385,519,6.24756,-9.72186,0,0,0,0,0,0,0,-1,1609,505,6.24752,9.72183
392,519,16.8391,-37.6736,0,0,0,0,0,0,0,-1,1616,505,16.8391,37.6737
399,519,17.2809,-37.8069,0,0,0,0,0,0,0,-1,1623,505,17.2808,37.8069
406,519,17.3971,-37.0063,0.00309744,-9.3381e-05,-0.00103175,0.00340198,-0.000397927,-0.287025,0.0024116,0.0356107,1630,505,17.3971,37.0063
413,519,17.4386,-36.2183,0.00301825,0.000415117,-0.000371775,0.00307031,0.000363062,-0.139114,0.00193723,0.0160667,1637,505,17.4386,36.2183
420,519,17.3584,-35.4025,0.00273923,0.000671758,-0.000160075,0.00275155,0.000659438,-0.0768154,0.00165884,0.0154891,1644,505,17.3584,35.4025
427,519,17.3516,-34.6522,0.00234039,0.000799985,-2.11963e-06,0.00234039,0.000799982,-0.00137602,0.00137358,0.0142316,1651,505,17.3515,34.6522
434,519,17.3063,-33.8579,0.0019202,0.000975883,0.000300786,0.00200787,0.000888215,0.283607,0.00116181,0.0129701,1658,505,17.3062,33.8579
441,519,17.2444,-33.0304,0.00161678,0.00124546,0.000680814,0.00213679,0.000725442,0.652283,0.00125469,0.0121038,1665,505,17.2444,33.0304
448,519,17.2147,-32.2351,0.00132378,0.00147934,0.00110376,0.00250806,0.000295061,0.820574,0.00158288,0.0103652,1672,505,17.2147,32.2351
455,519,17.1553,-31.4382,0.00105102,0.0017518,0.0015606,0.00300086,-0.000198045,0.895828,0.00206975,0.0121576,1679,505,17.1553,31.4382
462,519,17.1294,-30.6224,0.00102412,0.00209229,0.00212237,0.00374674,-0.000630329,0.908662,0.00273228,0.0108563,1686,505,17.1294,30.6225
469,519,17.1238,-29.8017,0.00120338,0.00249271,0.00269735,0.00462136,-0.000925273,0.902697,0.00343117,0.0111409,1693,505,17.1237,29.8017
476,519,17.1052,-28.9631,0.00136596,0.0028388,0.00332526,0.00550821,-0.00130344,0.894371,0.004175,0.0131182,1700,505,17.1053,28.9631
483,519,17.0549,-28.1147,0.00172852,0.00320563,0.00402712,0.00656136,-0.00162721,0.876088,0.0050056,0.0141192,1707,505,17.0549,28.1147
490,519,16.9597,-27.2244,0.00225964,0.00355793,0.00479756,0.00775006,-0.00193249,0.852644,0.00591701,0.0133047,1714,505,16.9597,27.2244
497,519,16.9159,-26.5151,0.00293768,0.00369651,0.00544774,0.00877803,-0.00214385,0.820165,0.00668227,0.0367235,1721,505,16.9159,26.5151
504,519,16.8081,-25.6241,0.00378839,0.00390128,0.00601119,0.00985629,-0.00216662,0.790093,0.00739957,0.0389706,1728,505,16.8081,25.6241
511,519,16.9357,-24.6075,0.00491263,0.00380453,0.00647155,0.0108538,-0.00213665,0.742696,0.00804325,0.0478136,1735,505,16.9356,24.6075
518,519,16.8435,-23.7643,0,0,0,0,0,0,0,-1,1742,505,16.8435,23.7643
525,519,15.9647,-20.5714,0,0,0,0,0,0,0,-1,1749,505,15.9648,20.5714
532,519,15.825,-19.0025,0,0,0,0,0,0,0,-1,1756,505,15.8249,19.0025
539,519,16.5902,-16.8075,0,0,0,0,0,0,0,-1,1763,505,16.5903,16.8075
546,519,12.4001,-16.5616,0,0,0,0,0,0,0,-1,1770,505,12.4002,16.5616
553,519,4.14136,0.0667419,0,0,0,0,0,0,0,-1,1777,505,4.14141,-0.0667503
560,519,3.77856,0.279724,0,0,0,0,0,0,0,-1,1784,505,3.77861,-0.279731
567,519,0,0,0,0,0,0,0,0,0,-1,1791,505,0,0
574,519,0,0,0,0,0,0,0,0,0,-1,1798,505,0,0
581,519,0,0,0,0,0,0,0,0,0,-1,1805,505,0,0
588,519,0,0,0,0,0,0,0,0,0,-1,1812,505,0,0
595,519,0,0,0,0,0,0,0,0,0,-1,1819,505,0,0
602,519,0,0,0,0,0,0,0,0,0,-1,1826,505,0,0
609,519,0,0,0,0,0,0,0,0,0,-1,1833,505,0,0
616,519,0,0,0,0,0,0,0,0,0,-1,1840,505,0,0
623,519,0,0,0,0,0,0,0,0,0,-1,1847,505,0,0
630,519,0,0,0,0,0,0,0,0,0,-1,1854,505,0,0
637,519,0,0,0,0,0,0,0,0,0,-1,1861,505,0,0
644,519,0,0,0,0,0,0,0,0,0,-1,1868,505,0,0
651,519,0,0,0,0,0,0,0,0,0,-1,1875,505,0,0
658,519,0,0,0,0,0,0,0,0,0,-1,1882,505,0,0
665,519,0,0,0,0,0,0,0,0,0,-1,1889,505,0,0
672,519,0,0,0,0,0,0,0,0,0,-1,1896,505,0,0
679,519,0,0,0,0,0,0,0,0,0,-1,1903,505,0,0
686,519,0,0,0,0,0,0,0,0,0,-1,1910,505,0,0
693,519,0,0,0,0,0,0,0,0,0,-1,1917,505,0,0
700,519,0,0,0,0,0,0,0,0,0,-1,1924,505,0,0
707,519,0,0,0,0,0,0,0,0,0,-1,1931,505,0,0
714,519,0,0,0,0,0,0,0,0,0,-1,1938,505,0,0
721,519,0,0,0,0,0,0,0,0,0,-1,1945,505,0,0
728,519,0,0,0,0,0,0,0,0,0,-1,1952,505,0,0
735,519,0,0,0,0,0,0,0,0,0,-1,1959,505,0,0
742,519,0,0,0,0,0,0,0,0,0,-1,1966,505,0,0
749,519,0,0,0,0,0,0,0,0,0,-1,1973,505,0,0
756,519,0,0,0,0,0,0,0,0,0,-1,1980,505,0,0
763,519,0,0,0,0,0,0,0,0,0,-1,1987,505,0,0
770,519,0,0,0,0,0,0,0,0,0,-1,1994,505,0,0
777,519,0,0,0,0,0,0,0,0,0,-1,2001,505,0,0
784,519,0,0,0,0,0,0,0,0,0,-1,2008,505,0,0
791,519,0,0,0,0,0,0,0,0,0,-1,2015,505,0,0
798,519,0,0,0,0,0,0,0,0,0,-1,2022,505,0,0
805,519,0,0,0,0,0,0,0,0,0,-1,2029,505,0,0
812,519,0,0,0,0,0,0,0,0,0,-1,2036,505,0,0
-700,512,0,0,0,0,0,0,0,0,0,-1,524,512,0,0
-693,512,0,0,0,0,0,0,0,0,0,-1,531,512,0,0
-686,512,0,0,0,0,0,0,0,0,0,-1,538,512,0,0
-679,512,0,0,0,0,0,0,0,0,0,-1,545,512,0,0
-672,512,0,0,0,0,0,0,0,0,0,-1,552,512,0,0
-665,512,0,0,0,0,0,0,0,0,0,-1,559,512,0,0
-658,512,0,0,0,0,0,0,0,0,0,-1,566,512,0,0
-651,512,0,0,0,0,0,0,0,0,0,-1,573,512,0,0
-644,512,0,0,0,0,0,0,0,0,0,-1,580,512,0,0
-637,512,0,0,0,0,0,0,0,0,0,-1,587,512,0,0
-630,512,0,0,0,0,0,0,0,0,0,-1,594,512,0,0
-623,512,0,0,0,0,0,0,0,0,0,-1,601,512,0,0
-616,512,0,0,0,0,0,0,0,0,0,-1,608,512,0,0
-609,512,0,0,0,0,0,0,0,0,0,-1,615,512,0,0
-602,512,0,0,0,0,0,0,0,0,0,-1,622,512,0,0
-595,512,0,0,0,0,0,0,0,0,0,-1,629,512,0,0
-588,512,0,0,0,0,0,0,0,0,0,-1,636,512,0,0
-581,512,0,0,0,0,0,0,0,0,0,-1,643,512,0,0
-574,512,0,0,0,0,0,0,0,0,0,-1,650,512,0,0
-567,512,0,0,0,0,0,0,0,0,0,-1,657,512,0,0
-560,512,0,0,0,0,0,0,0,0,0,-1,664,512,0,0
-553,512,0,0,0,0,0,0,0,0,0,-1,671,512,0,0
-546,512,0,0,0,0,0,0,0,0,0,-1,678,512,0,0
-539,512,0,0,0,0,0,0,0,0,0,-1,685,512,0,0
-532,512,0,0,0,0,0,0,0,0,0,-1,692,512,0,0
-525,512,0,0,0,0,0,0,0,0,0,-1,699,512,0,0
-518,512,0,0,0,0,0,0,0,0,0,-1,706,512,0,0
-511,512,0,0,0,0,0,0,0,0,0,-1,713,512,0,0
-504,512,0,0,0,0,0,0,0,0,0,-1,720,512,0,0
-497,512,0,0,0,0,0,0,0,0,0,-1,727,512,0,0
-490,512,0,0,0,0,0,0,0,0,0,-1,734,512,0,0
-483,512,0,0,0,0,0,0,0,0,0,-1,741,512,0,0
-476,512,0,0,0,0,0,0,0,0,0,-1,748,512,0,0
-469,512,0,0,0,0,0,0,0,0,0,-1,755,512,0,0
-462,512,0,0,0,0,0,0,0,0,0,-1,762,512,0,0
-455,512,0,0,0,0,0,0,0,0,0,-1,769,512,0,0
-448,512,1.96283,-4.15674,0,0,0,0,0,0,0,-1,776,512,1.96285,4.15677
-441,512,1.78198,-4.88824,0,0,0,0,0,0,0,-1,783,512,1.78201,4.88826
-434,512,0.0726929,-9.85822,0,0,0,0,0,0,0,-1,790,512,0.0727008,9.85819
-427,512,-0.384583,-9.94824,0,0,0,0,0,0,0,-1,797,512,-0.384552,9.94823
-420,512,-2.93219,-12.4855,0,0,0,0,0,0,0,-1,804,512,-2.93219,12.4855
-413,512,-2.22711,-11.4485,0,0,0,0,0,0,0,-1,811,512,-2.22712,11.4485
-406,512,-2.38037,-13.5743,0,0,0,0,0,0,0,-1,818,512,-2.38034,13.5743
-399,512,-3.18091,-23.3688,0,0,0,0,0,0,0,-1,825,512,-3.18088,23.3688
-392,512,-2.94678,-24.3435,0.00887509,0.0209964,-0.0142748,0.0304438,-0.000572371,-0.986151,0.0204893,0.0494033,832,512,-2.94677,24.3435
-385,512,-2.91852,-25.2526,0.00794329,0.0184323,-0.0124516,0.0266988,-0.000323168,-0.984719,0.0179079,0.022792,839,512,-2.91853,25.2526
-378,512,-2.93939,-26.0667,0.00695152,0.0159027,-0.0107051,0.0230301,-0.000175925,-0.983395,0.0154124,0.01833,846,512,-2.93937,26.0667
-371,512,-2.96149,-26.9629,0.00604799,0.0135182,-0.00905578,0.0195789,-1.27163e-05,-0.980997,0.0130569,0.0137353,853,512,-2.96151,26.9629
-364,512,-2.9928,-27.9,0.00503463,0.0111968,-0.00731794,0.0160558,0.000175599,-0.98465,0.0106458,0.0101154,860,512,-2.99278,27.9
-357,512,-3.02911,-28.719,0.00401749,0.00901506,-0.00573556,0.0127725,0.000260037,-0.990833,0.00842967,0.0110073,867,512,-3.02908,28.719
-350,512,-3.08838,-29.5297,0.00313906,0.00696133,-0.00432628,0.0097798,0.000320585,-0.993384,0.00641567,0.012067,874,512,-3.08839,29.5297
-343,512,-3.18732,-30.3175,0.00246683,0.0049696,-0.00308248,0.00704503,0.00039141,-0.978218,0.0045718,0.0140534,881,512,-3.18729,30.3175
-336,512,-3.23804,-31.1454,0.00196528,0.00323303,-0.00199362,0.00469113,0.000507188,-0.93932,0.00297281,0.0153492,888,512,-3.23805,31.1454
-329,512,-3.22107,-31.959,0.00164115,0.00167745,-0.00111299,0.00277244,0.000546167,-0.793552,0.00169581,0.0174285,895,512,-3.22104,31.959
-322,512,-3.25775,-32.7509,0.00150496,0.000280814,-0.000369097,0.00160763,0.000178138,-0.271322,0.00101759,0.0144867,902,512,-3.25773,32.7509
-315,512,-3.31281,-33.5673,0.00167554,-0.000764258,0.000147852,0.00168446,-0.000773185,0.0603061,0.00145107,0.0116153,909,512,-3.31284,33.5673
-308,512,-3.38116,-34.3622,0.00222916,-0.00152294,0.000441186,0.00228034,-0.00157412,0.115485,0.00223779,0.011076,916,512,-3.38116,34.3622
-301,512,-3.42688,-35.1588,0.00282969,-0.00191628,0.000657313,0.00291905,-0.00200563,0.135112,0.00285952,0.0158538,923,512,-3.42687,35.1588
-294,512,-3.43127,-35.8846,0.00338584,-0.00221182,0.000902655,0.00352779,-0.00235378,0.15599,0.0034182,0.0164983,930,512,-3.43129,35.8847
-287,512,-3.51428,-36.6203,0,0,0,0,0,0,0,-1,937,512,-3.51431,36.6203
-280,512,-3.51599,-37.4252,0,0,0,0,0,0,0,-1,944,512,-3.51596,37.4252
-273,512,-2.90118,-34.7153,0,0,0,0,0,0,0,-1,951,512,-2.90121,34.7153
-266,512,-2.33594,-25.9839,0,0,0,0,0,0,0,-1,958,512,-2.33592,25.9839
-259,512,-0.525452,-14.0815,0,0,0,0,0,0,0,-1,965,512,-0.525475,14.0815
-252,512,1.45941,-3.43475,0,0,0,0,0,0,0,-1,972,512,1.45938,3.43475
-245,512,-1.6731,-22.8959,0,0,0,0,0,0,0,-1,979,512,-1.67312,22.8959
-238,512,0.227051,-8.92969,0,0,0,0,0,0,0,-1,986,512,0.227073,8.92968
-231,512,-1.90576,-38.0918,0,0,0,0,0,0,0,-1,993,512,-1.90575,38.0918
-224,512,-1.29974,-33.6304,0,0,0,0,0,0,0,-1,1000,512,-1.29974,33.6304
-217,512,-0.963196,-34.1697,0,0,0,0,0,0,0,-1,1007,512,-0.963226,34.1697
-210,512,-3.76642,-1.94702,0,0,0,0,0,0,0,-1,1014,512,-3.76641,1.94702
-203,512,-2.48328,-5.19061,0,0,0,0,0,0,0,-1,1021,512,-2.48328,5.19059
-196,512,-1.14929,-4.63202,0,0,0,0,0,0,0,-1,1028,512,-1.14934,4.632
-189,512,0.197998,4.55505,0,0,0,0,0,0,0,-1,1035,512,0.197996,-4.55506
-182,512,2.73938,0.0778503,0,0,0,0,0,0,0,-1,1042,512,2.73944,-0.077852
-175,512,2.29565,0.209808,0,0,0,0,0,0,0,-1,1049,512,2.29565,-0.209813
-168,512,2.09399,-0.302856,0,0,0,0,0,0,0,-1,1056,512,2.09403,0.302826
-161,512,2.76636,0.0921021,0,0,0,0,0,0,0,-1,1063,512,2.76633,-0.0921104
-154,512,3.41382,0.466187,0,0,0,0,0,0,0,-1,1070,512,3.41382,-0.466178
-147,512,0,0,0,0,0,0,0,0,0,-1,1077,512,0,0
-140,512,0,0,0,0,0,0,0,0,0,-1,1084,512,0,0
-133,512,0,0,0,0,0,0,0,0,0,-1,1091,512,0,0
-126,512,0,0,0,0,0,0,0,0,0,-1,1098,512,0,0
-119,512,0,0,0,0,0,0,0,0,0,-1,1105,512,0,0
-112,512,0,0,0,0,0,0,0,0,0,-1,1112,512,0,0
-105,512,0,0,0,0,0,0,0,0,0,-1,1119,512,0,0
-98,512,0,0,0,0,0,0,0,0,0,-1,1126,512,0,0
-91,512,0,0,0,0,0,0,0,0,0,-1,1133,512,0,0
-84,512,0,0,0,0,0,0,0,0,0,-1,1140,512,0,0
-77,512,0,0,0,0,0,0,0,0,0,-1,1147,512,0,0
-70,512,0,0,0,0,0,0,0,0,0,-1,1154,512,0,0
-63,512,0,0,0,0,0,0,0,0,0,-1,1161,512,0,0
-56,512,0,0,0,0,0,0,0,0,0,-1,1168,512,0,0
-49,512,0,0,0,0,0,0,0,0,0,-1,1175,512,0,0
-42,512,0,0,0,0,0,0,0,0,0,-1,1182,512,0,0
-35,512,0,0,0,0,0,0,0,0,0,-1,1189,512,0,0
-28,512,0,0,0,0,0,0,0,0,0,-1,1196,512,0,0
-21,512,0,0,0,0,0,0,0,0,0,-1,1203,512,0,0
-14,512,0,0,0,0,0,0,0,0,0,-1,1210,512,0,0
-7,512,0,0,0,0,0,0,0,0,0,-1,1217,512,0,0
0,512,0,0,0,0,0,0,0,0,0,-1,1224,512,0,0
7,512,0,0,0,0,0,0,0,0,0,-1,1231,512,0,0
14,512,0,0,0,0,0,0,0,0,0,-1,1238,512,0,0
21,512,0,0,0,0,0,0,0,0,0,-1,1245,512,0,0
28,512,0,0,0,0,0,0,0,0,0,-1,1252,512,0,0
35,512,0,0,0,0,0,0,0,0,0,-1,1259,512,0,0
42,512,0,0,0,0,0,0,0,0,0,-1,1266,512,0,0
49,512,0,0,0,0,0,0,0,0,0,-1,1273,512,0,0
56,512,0,0,0,0,0,0,0,0,0,-1,1280,512,0,0
63,512,0,0,0,0,0,0,0,0,0,-1,1287,512,0,0
70,512,0,0,0,0,0,0,0,0,0,-1,1294,512,0,0
77,512,0,0,0,0,0,0,0,0,0,-1,1301,512,0,0
84,512,0,0,0,0,0,0,0,0,0,-1,1308,512,0,0
91,512,0,0,0,0,0,0,0,0,0,-1,1315,512,0,0
98,512,0,0,0,0,0,0,0,0,0,-1,1322,512,0,0
105,512,0,0,0,0,0,0,0,0,0,-1,1329,512,0,0
112,512,0,0,0,0,0,0,0,0,0,-1,1336,512,0,0
119,512,0,0,0,0,0,0,0,0,0,-1,1343,512,0,0
126,512,0,0,0,0,0,0,0,0,0,-1,1350,512,0,0
133,512,0,0,0,0,0,0,0,0,0,-1,1357,512,0,0
140,512,0,0,0,0,0,0,0,0,0,-1,1364,512,0,0
147,512,0,0,0,0,0,0,0,0,0,-1,1371,512,0,0
154,512,0,0,0,0,0,0,0,0,0,-1,1378,512,0,0
161,512,0,0,0,0,0,0,0,0,0,-1,1385,512,0,0
168,512,0,0,0,0,0,0,0,0,0,-1,1392,512,0,0
175,512,0,0,0,0,0,0,0,0,0,-1,1399,512,0,0
182,512,0,0,0,0,0,0,0,0,0,-1,1406,512,0,0
189,512,0,0,0,0,0,0,0,0,0,-1,1413,512,0,0
196,512,0,0,0,0,0,0,0,0,0,-1,1420,512,0,0
203,512,0,0,0,0,0,0,0,0,0,-1,1427,512,0,0
210,512,0,0,0,0,0,0,0,0,0,-1,1434,512,0,0
217,512,0,0,0,0,0,0,0,0,0,-1,1441,512,0,0
224,512,0,0,0,0,0,0,0,0,0,-1,1448,512,0,0
231,512,0,0,0,0,0,0,0,0,0,-1,1455,512,0,0
238,512,0,0,0,0,0,0,0,0,0,-1,1462,512,0,0
245,512,0,0,0,0,0,0,0,0,0,-1,1469,512,0,0
252,512,0,0,0,0,0,0,0,0,0,-1,1476,512,0,0
259,512,0,0,0,0,0,0,0,0,0,-1,1483,512,0,0
266,512,0,0,0,0,0,0,0,0,0,-1,1490,512,0,0
273,512,4.00745,0.618622,0,0,0,0,0,0,0,-1,1497,512,4.00747,-0.618611
280,512,4.49609,0.649841,0,0,0,0,0,0,0,-1,1504,512,4.49612,-0.649834
287,512,4.77234,0.458069,0,0,0,0,0,0,0,-1,1511,512,4.77233,-0.458083
294,512,8.54956,-2.36273,0,0,0,0,0,0,0,-1,1518,512,8.54952,2.36274
301,512,6.302,-1.69092,0,0,0,0,0,0,0,-1,1525,512,6.30196,1.69093
308,512,8.2439,-6.22754,0,0,0,0,0,0,0,-1,1532,512,8.24394,6.22757
315,512,7.53687,-6.04211,0,0,0,0,0,0,0,-1,1539,512,7.53691,6.04211
322,512,6.82983,-5.85663,0,0,0,0,0,0,0,-1,1546,512,6.82988,5.85666
329,512,4.38147,-0.329651,0,0,0,0,0,0,0,-1,1553,512,4.38144,0.329662
336,512,4.41467,-0.741455,0,0,0,0,0,0,0,-1,1560,512,4.41467,0.741442
343,512,4.44727,-1.21667,0,0,0,0,0,0,0,-1,1567,512,4.44732,1.21666
350,512,4.55469,-1.65082,0,0,0,0,0,0,0,-1,1574,512,4.5547,1.65083
357,512,5.79993,-2.67456,0,0,0,0,0,0,0,-1,1581,512,5.79991,2.67454
364,512,13.118,-28.5485,0,0,0,0,0,0,0,-1,1588,512,13.1181,28.5485
371,512,5.28467,-7.69269,0,0,0,0,0,0,0,-1,1595,512,5.28464,7.69269
378,512,6.29407,-9.88055,0,0,0,0,0,0,0,-1,1602,512,6.29412,9.88057
385,512,6.45569,-9.32233,0,0,0,0,0,0,0,-1,1609,512,6.45565,9.3223
392,512,6.35522,-8.98425,0,0,0,0,0,0,0,-1,1616,512,6.35526,8.98422
399,512,16.9089,-33.7311,0,0,0,0,0,0,0,-1,1623,512,16.9089,33.7311
406,512,18.2378,-37.0848,0,0,0,0,0,0,0,-1,1630,512,18.2378,37.0849
413,512,18.2643,-36.2252,0,0,0,0,0,0,0,-1,1637,512,18.2642,36.2252
420,512,18.2094,-35.4401,0.00380057,0.000528538,-0.000101416,0.00380371,0.000525398,-0.0309552,0.00238008,0.0274404,1644,512,18.2093,35.4401
427,512,18.1791,-34.6295,0.00320826,0.000498177,-0.000151395,0.00321669,0.000489746,-0.0556331,0.00200128,0.0156904,1651,512,18.1791,34.6295
434,512,18.1198,-33.8277,0.0025917,0.000576158,-3.19686e-05,0.00259221,0.000575651,-0.0158557,0.0015718,0.0115625,1658,512,18.1197,33.8277
441,512,18.0543,-33.0105,0.00214628,0.000755642,0.00017343,0.00216758,0.00073434,0.122219,0.00127296,0.0120404,1665,512,18.0543,33.0105
448,512,18.0082,-32.2297,0.00176473,0.000937671,0.00045173,0.00196363,0.000738774,0.414758,0.00114522,0.0097374,1672,512,18.0082,32.2297
455,512,17.9512,-31.4017,0.00141327,0.00118044,0.000761966,0.00206766,0.000526044,0.709593,0.00124083,0.0100608,1679,512,17.9511,31.4018
462,512,17.9198,-30.5648,0.00128193,0.00149131,0.00117254,0.00256383,0.00020941,0.829924,0.00164387,0.0101197,1686,512,17.9197,30.5648
469,512,17.8967,-29.746,0.00137825,0.00185909,0.00164821,0.00328432,-4.69781e-05,0.857822,0.00220537,0.0114618,1693,512,17.8967,29.746
476,512,17.8813,-28.9266,0.00147612,0.0021787,0.00218438,0.00403986,-0.000385037,0.865125,0.00283033,0.0146127,1700,512,17.8813,28.9266
483,512,17.8374,-28.0689,0.00175155,0.00250685,0.00278209,0.00493681,-0.000678408,0.852857,0.00353908,0.0138171,1707,512,17.8374,28.0689
490,512,17.7888,-27.2339,0.00213798,0.00284872,0.0034133,0.00592511,-0.0009384,0.837268,0.00429716,0.0113881,1714,512,17.7888,27.2339
497,512,17.7322,-26.3871,0.00265384,0.00303466,0.00397666,0.00682547,-0.00113696,0.809321,0.00497281,0.0128557,1721,512,17.7321,26.3871
504,512,17.652,-25.507,0.00331838,0.00324044,0.00452555,0.00780513,-0.00124631,0.781093,0.00566474,0.0167315,1728,512,17.652,25.507
511,512,17.5917,-24.5876,0.00407993,0.00340153,0.0050522,0.00880431,-0.00132285,0.751879,0.00635654,0.0252254,1735,512,17.5917,24.5876
518,512,17.6576,-23.7413,0.00491966,0.00378751,0.00555333,0.00993569,-0.00122852,0.734607,0.00706897,0.0320264,1742,512,17.6576,23.7413
525,512,17.8273,-22.8804,0,0,0,0,0,0,0,-1,1749,512,17.8272,22.8804
532,512,16.6807,-19.0635,0,0,0,0,0,0,0,-1,1756,512,16.6807,19.0635
539,512,12.6367,-16.4022,0,0,0,0,0,0,0,-1,1763,512,12.6367,16.4021
546,512,2.77551,-0.66449,0,0,0,0,0,0,0,-1,1770,512,2.77548,0.664503
553,512,3.927,-0.448853,0,0,0,0,0,0,0,-1,1777,512,3.92704,0.448843
560,512,3.55762,-0.201233,0,0,0,0,0,0,0,-1,1784,512,3.55768,0.201259
567,512,3.09045,0.191193,0,0,0,0,0,0,0,-1,1791,512,3.09045,-0.191203
574,512,0,0,0,0,0,0,0,0,0,-1,1798,512,0,0
581,512,0,0,0,0,0,0,0,0,0,-1,1805,512,0,0
588,512,0,0,0,0,0,0,0,0,0,-1,1812,512,0,0
595,512,0,0,0,0,0,0,0,0,0,-1,1819,512,0,0
602,512,0,0,0,0,0,0,0,0,0,-1,1826,512,0,0
609,512,0,0,0,0,0,0,0,0,0,-1,1833,512,0,0
616,512,0,0,0,0,0,0,0,0,0,-1,1840,512,0,0
623,512,0,0,0,0,0,0,0,0,0,-1,1847,512,0,0
630,512,0,0,0,0,0,0,0,0,0,-1,1854,512,0,0
637,512,0,0,0,0,0,0,0,0,0,-1,1861,512,0,0
644,512,0,0,0,0,0,0,0,0,0,-1,1868,512,0,0
651,512,0,0,0,0,0,0,0,0,0,-1,1875,512,0,0
658,512,0,0,0,0,0,0,0,0,0,-1,1882,512,0,0
665,512,0,0,0,0,0,0,0,0,0,-1,1889,512,0,0
672,512,0,0,0,0,0,0,0,0,0,-1,1896,512,0,0
679,512,0,0,0,0,0,0,0,0,0,-1,1903,512,0,0
686,512,0,0,0,0,0,0,0,0,0,-1,1910,512,0,0
693,512,0,0,0,0,0,0,0,0,0,-1,1917,512,0,0
700,512,0,0,0,0,0,0,0,0,0,-1,1924,512,0,0
707,512,0,0,0,0,0,0,0,0,0,-1,1931,512,0,0
714,512,0,0,0,0,0,0,0,0,0,-1,1938,512,0,0
721,512,0,0,0,0,0,0,0,0,0,-1,1945,512,0,0
728,512,0,0,0,0,0,0,0,0,0,-1,1952,512,0,0
735,512,0,0,0,0,0,0,0,0,0,-1,1959,512,0,0
742,512,0,0,0,0,0,0,0,0,0,-1,1966,512,0,0
749,512,0,0,0,0,0,0,0,0,0,-1,1973,512,0,0
756,512,0,0,0,0,0,0,0,0,0,-1,1980,512,0,0
763,512,0,0,0,0,0,0,0,0,0,-1,1987,512,0,0
770,512,0,0,0,0,0,0,0,0,0,-1,1994,512,0,0
777,512,0,0,0,0,0,0,0,0,0,-1,2001,512,0,0
784,512,0,0,0,0,0,0,0,0,0,-1,2008,512,0,0
791,512,0,0,0,0,0,0,0,0,0,-1,2015,512,0,0
798,512,0,0,0,0,0,0,0,0,0,-1,2022,512,0,0
805,512,0,0,0,0,0,0,0,0,0,-1,2029,512,0,0
812,512,0,0,0,0,0,0,0,0,0,-1,2036,512,0,0
-700,505,0,0,0,0,0,0,0,0,0,-1,524,519,0,0
-693,505,0,0,0,0,0,0,0,0,0,-1,531,519,0,0
-686,505,0,0,0,0,0,0,0,0,0,-1,538,519,0,0
-679,505,0,0,0,0,0,0,0,0,0,-1,545,519,0,0
-672,505,0,0,0,0,0,0,0,0,0,-1,552,519,0,0
-665,505,0,0,0,0,0,0,0,0,0,-1,559,519,0,0
-658,505,0,0,0,0,0,0,0,0,0,-1,566,519,0,0
-651,505,0,0,0,0,0,0,0,0,0,-1,573,519,0,0
-644,505,0,0,0,0,0,0,0,0,0,-1,580,519,0,0
-637,505,0,0,0,0,0,0,0,0,0,-1,587,519,0,0
-630,505,0,0,0,0,0,0,0,0,0,-1,594,519,0,0
-623,505,0,0,0,0,0,0,0,0,0,-1,601,519,0,0
-616,505,0,0,0,0,0,0,0,0,0,-1,608,519,0,0
-609,505,0,0,0,0,0,0,0,0,0,-1,615,519,0,0
-602,505,0,0,0,0,0,0,0,0,0,-1,622,519,0,0
-595,505,0,0,0,0,0,0,0,0,0,-1,629,519,0,0
-588,505,0,0,0,0,0,0,0,0,0,-1,636,519,0,0
-581,505,0,0,0,0,0,0,0,0,0,-1,643,519,0,0
-574,505,0,0,0,0,0,0,0,0,0,-1,650,519,0,0
-567,505,0,0,0,0,0,0,0,0,0,-1,657,519,0,0
-560,505,0,0,0,0,0,0,0,0,0,-1,664,519,0,0
-553,505,0,0,0,0,0,0,0,0,0,-1,671,519,0,0
-546,505,0,0,0,0,0,0,0,0,0,-1,678,519,0,0
-539,505,0,0,0,0,0,0,0,0,0,-1,685,519,0,0
-532,505,0,0,0,0,0,0,0,0,0,-1,692,519,0,0
-525,505,0,0,0,0,0,0,0,0,0,-1,699,519,0,0
-518,505,0,0,0,0,0,0,0,0,0,-1,706,519,0,0
-511,505,0,0,0,0,0,0,0,0,0,-1,713,519,0,0
-504,505,0,0,0,0,0,0,0,0,0,-1,720,519,0,0
-497,505,0,0,0,0,0,0,0,0,0,-1,727,519,0,0
-490,505,0,0,0,0,0,0,0,0,0,-1,734,519,0,0
-483,505,0,0,0,0,0,0,0,0,0,-1,741,519,0,0
-476,505,0,0,0,0,0,0,0,0,0,-1,748,519,0,0
-469,505,0,0,0,0,0,0,0,0,0,-1,755,519,0,0
-462,505,0,0,0,0,0,0,0,0,0,-1,762,519,0,0
-455,505,2.72137,-3.26379,0,0,0,0,0,0,0,-1,769,519,2.72135,3.26377
-448,505,2.51111,-3.94989,0,0,0,0,0,0,0,-1,776,519,2.51112,3.94986
-441,505,2.80212,-6.8902,0,0,0,0,0,0,0,-1,783,519,2.80209,6.89019
-434,505,-0.155212,-10.6374,0,0,0,0,0,0,0,-1,790,519,-0.155194,10.6374
-427,505,-0.474426,-10.4702,0,0,0,0,0,0,0,-1,797,519,-0.474433,10.4702
-420,505,-0.922546,-10.1928,0,0,0,0,0,0,0,-1,804,519,-0.92257,10.1928
-413,505,-3.33948,-13.6183,0,0,0,0,0,0,0,-1,811,519,-3.33949,13.6184
-406,505,-3.2439,-18.3408,0,0,0,0,0,0,0,-1,818,519,-3.24389,18.3408
-399,505,-3.60034,-23.3261,0,0,0,0,0,0,0,-1,825,519,-3.60036,23.3261
-392,505,-3.61017,-24.3139,0.00614583,0.0162845,-0.0112716,0.0235742,-0.00114394,-0.996718,0.016111,0.0261366,832,519,-3.61014,24.3139
-385,505,-3.69153,-25.2454,0.00563508,0.0140673,-0.00980083,0.0205204,-0.000818004,-0.988523,0.0139609,0.0107525,839,519,-3.6915,25.2453
-378,505,-3.75385,-26.1093,0.00508781,0.0119957,-0.00840652,0.0176302,-0.000546665,-0.980317,0.0119398,0.0117626,846,519,-3.75383,26.1092
-371,505,-3.77765,-27.0193,0.00450797,0.00995211,-0.00706939,0.0148054,-0.000345318,-0.969175,0.00998736,0.0145023,853,519,-3.77765,27.0193
-364,505,-3.82025,-27.8918,0.00380701,0.00788586,-0.00564846,0.0118518,-0.000158926,-0.958645,0.0079547,0.0158265,860,519,-3.82027,27.8918
-357,505,-3.85419,-28.7029,0.00311491,0.00602308,-0.00430388,0.00911187,2.61213e-05,-0.948305,0.00606589,0.012864,867,519,-3.8542,28.7029
-350,505,-3.92816,-29.4976,0.00254611,0.00429713,-0.00312699,0.00666887,0.000174382,-0.921896,0.00438894,0.012476,874,519,-3.92815,29.4976
-343,505,-3.97919,-30.3198,0.00210992,0.0025804,-0.00205486,0.00441344,0.000276881,-0.842391,0.00285448,0.011768,881,519,-3.97917,30.3198
-336,505,-4.01379,-31.1329,0.00181121,0.00105601,-0.00110343,0.00259986,0.000267359,-0.62054,0.00165135,0.0146807,888,519,-4.01378,31.1329
-329,505,-4.02954,-31.9002,0.00167142,-0.000293929,-0.000313695,0.00172027,-0.000342784,-0.1545,0.00127654,0.0200134,895,519,-4.02957,31.9002
-322,505,-4.06177,-32.7247,0.00173877,-0.00142414,0.000320522,0.00177093,-0.0014563,0.0999833,0.00186619,0.0237302,902,519,-4.06179,32.7247
-315,505,-4.12512,-33.5439,0.00213029,-0.00220449,0.000718652,0.00224632,-0.00232053,0.160084,0.00263679,0.016818,909,519,-4.12511,33.544
-308,505,-4.18365,-34.304,0.00299085,-0.00270034,0.0009313,0.00313937,-0.00284886,0.158145,0.00345866,0.0119914,916,519,-4.18367,34.304
-301,505,-4.18604,-35.13,0.00381548,-0.00271086,0.00113294,0.00400656,-0.00290194,0.167085,0.00400558,0.0187506,923,519,-4.18605,35.13
-294,505,-4.1839,-35.8378,0,0,0,0,0,0,0,-1,930,519,-4.18392,35.8378
-287,505,-4.271,-36.0826,0,0,0,0,0,0,0,-1,937,519,-4.27101,36.0826
-280,505,-2.79846,-27.7252,0,0,0,0,0,0,0,-1,944,519,-2.79845,27.7252
-273,505,-0.0680542,-9.44867,0,0,0,0,0,0,0,-1,951,519,-0.0680462,9.44866
-266,505,-0.036377,-9.07922,0,0,0,0,0,0,0,-1,958,519,-0.0364055,9.0792
-259,505,0.10321,-6.69824,0,0,0,0,0,0,0,-1,965,519,0.103235,6.69826
-252,505,6.82312,-15.6972,0,0,0,0,0,0,0,-1,972,519,6.82314,15.6972
-245,505,4.26727,-12.9861,0,0,0,0,0,0,0,-1,979,519,4.2673,12.9861
-238,505,1.67432,-11.2307,0,0,0,0,0,0,0,-1,986,519,1.67429,11.2307
-231,505,-0.958435,-8.3075,0,0,0,0,0,0,0,-1,993,519,-0.958421,8.30751
-224,505,-1.46399,-33.4399,0,0,0,0,0,0,0,-1,1000,519,-1.46397,33.4399
-217,505,-6.34302,-1.65533,0,0,0,0,0,0,0,-1,1007,519,-6.34299,1.65535
-210,505,-3.06128,-0.396301,0,0,0,0,0,0,0,-1,1014,519,-3.06129,0.396294
-203,505,-4.26465,2.03607,0,0,0,0,0,0,0,-1,1021,519,-4.26462,-2.03606
-196,505,-5.47595,4.27295,0,0,0,0,0,0,0,-1,1028,519,-5.47597,-4.27292
-189,505,1.51526,5.56207,0,0,0,0,0,0,0,-1,1035,519,1.51523,-5.56209
-182,505,2.97815,7.5097,0,0,0,0,0,0,0,-1,1042,519,2.97812,-7.5097
-175,505,-2.38416,-2.17548,0,0,0,0,0,0,0,-1,1049,519,-2.38411,2.1755
-168,505,0,0,0,0,0,0,0,0,0,-1,1056,519,0,0
-161,505,0,0,0,0,0,0,0,0,0,-1,1063,519,0,0
-154,505,0,0,0,0,0,0,0,0,0,-1,1070,519,0,0
-147,505,0,0,0,0,0,0,0,0,0,-1,1077,519,0,0
-140,505,0,0,0,0,0,0,0,0,0,-1,1084,519,0,0
-133,505,0,0,0,0,0,0,0,0,0,-1,1091,519,0,0
-126,505,0,0,0,0,0,0,0,0,0,-1,1098,519,0,0
-119,505,0,0,0,0,0,0,0,0,0,-1,1105,519,0,0
-112,505,0,0,0,0,0,0,0,0,0,-1,1112,519,0,0
-105,505,0,0,0,0,0,0,0,0,0,-1,1119,519,0,0
-98,505,0,0,0,0,0,0,0,0,0,-1,1126,519,0,0
-91,505,0,0,0,0,0,0,0,0,0,-1,1133,519,0,0
-84,505,0,0,0,0,0,0,0,0,0,-1,1140,519,0,0
-77,505,0,0,0,0,0,0,0,0,0,-1,1147,519,0,0
-70,505,0,0,0,0,0,0,0,0,0,-1,1154,519,0,0
-63,505,0,0,0,0,0,0,0,0,0,-1,1161,519,0,0
-56,505,0,0,0,0,0,0,0,0,0,-1,1168,519,0,0
-49,505,0,0,0,0,0,0,0,0,0,-1,1175,519,0,0
-42,505,0,0,0,0,0,0,0,0,0,-1,1182,519,0,0
-35,505,0,0,0,0,0,0,0,0,0,-1,1189,519,0,0
-28,505,0,0,0,0,0,0,0,0,0,-1,1196,519,0,0
-21,505,0,0,0,0,0,0,0,0,0,-1,1203,519,0,0
-14,505,0,0,0,0,0,0,0,0,0,-1,1210,519,0,0
-7,505,0,0,0,0,0,0,0,0,0,-1,1217,519,0,0
0,505,0,0,0,0,0,0,0,0,0,-1,1224,519,0,0
7,505,0,0,0,0,0,0,0,0,0,-1,1231,519,0,0
14,505,0,0,0,0,0,0,0,0,0,-1,1238,519,0,0
21,505,0,0,0,0,0,0,0,0,0,-1,1245,519,0,0
28,505,0,0,0,0,0,0,0,0,0,-1,1252,519,0,0
35,505,0,0,0,0,0,0,0,0,0,-1,1259,519,0,0
42,505,0,0,0,0,0,0,0,0,0,-1,1266,519,0,0
49,505,0,0,0,0,0,0,0,0,0,-1,1273,519,0,0
56,505,0,0,0,0,0,0,0,0,0,-1,1280,519,0,0
63,505,0,0,0,0,0,0,0,0,0,-1,1287,519,0,0
70,505,0,0,0,0,0,0,0,0,0,-1,1294,519,0,0
77,505,0,0,0,0,0,0,0,0,0,-1,1301,519,0,0
84,505,0,0,0,0,0,0,0,0,0,-1,1308,519,0,0
91,505,0,0,0,0,0,0,0,0,0,-1,1315,519,0,0
98,505,0,0,0,0,0,0,0,0,0,-1,1322,519,0,0
105,505,0,0,0,0,0,0,0,0,0,-1,1329,519,0,0
112,505,0,0,0,0,0,0,0,0,0,-1,1336,519,0,0
119,505,0,0,0,0,0,0,0,0,0,-1,1343,519,0,0
126,505,0,0,0,0,0,0,0,0,0,-1,1350,519,0,0
133,505,0,0,0,0,0,0,0,0,0,-1,1357,519,0,0
140,505,0,0,0,0,0,0,0,0,0,-1,1364,519,0,0
147,505,0,0,0,0,0,0,0,0,0,-1,1371,519,0,0
154,505,0,0,0,0,0,0,0,0,0,-1,1378,519,0,0
161,505,0,0,0,0,0,0,0,0,0,-1,1385,519,0,0
168,505,0,0,0,0,0,0,0,0,0,-1,1392,519,0,0
175,505,0,0,0,0,0,0,0,0,0,-1,1399,519,0,0
182,505,0,0,0,0,0,0,0,0,0,-1,1406,519,0,0
189,505,0,0,0,0,0,0,0,0,0,-1,1413,519,0,0
196,505,0,0,0,0,0,0,0,0,0,-1,1420,519,0,0
203,505,0,0,0,0,0,0,0,0,0,-1,1427,519,0,0
210,505,0,0,0,0,0,0,0,0,0,-1,1434,519,0,0
217,505,0,0,0,0,0,0,0,0,0,-1,1441,519,0,0
224,505,0,0,0,0,0,0,0,0,0,-1,1448,519,0,0
231,505,0,0,0,0,0,0,0,0,0,-1,1455,519,0,0
238,505,0,0,0,0,0,0,0,0,0,-1,1462,519,0,0
245,505,0,0,0,0,0,0,0,0,0,-1,1469,519,0,0
252,505,0,0,0,0,0,0,0,0,0,-1,1476,519,0,0
259,505,0,0,0,0,0,0,0,0,0,-1,1483,519,0,0
266,505,0,0,0,0,0,0,0,0,0,-1,1490,519,0,0
273,505,0,0,0,0,0,0,0,0,0,-1,1497,519,0,0
280,505,0,0,0,0,0,0,0,0,0,-1,1504,519,0,0
287,505,4.39478,0.499512,0,0,0,0,0,0,0,-1,1511,519,4.39476,-0.499506
294,505,4.88867,0.0822754,0,0,0,0,0,0,0,-1,1518,519,4.88871,-0.0822748
301,505,4.82153,-0.0704346,0,0,0,0,0,0,0,-1,1525,519,4.82156,0.0704312
308,505,4.67761,-0.29187,0,0,0,0,0,0,0,-1,1532,519,4.67762,0.291845
315,505,8.44055,-6.54352,0,0,0,0,0,0,0,-1,1539,519,8.44059,6.54349
322,505,4.78955,-0.594116,0,0,0,0,0,0,0,-1,1546,519,4.78957,0.594096
329,505,5.16321,0.434631,0,0,0,0,0,0,0,-1,1553,519,5.16316,-0.434614
336,505,4.94495,-0.920471,0,0,0,0,0,0,0,-1,1560,519,4.945,0.920495
343,505,5.01855,-1.4823,0,0,0,0,0,0,0,-1,1567,519,5.01851,1.48227
350,505,5.33154,-1.77838,0,0,0,0,0,0,0,-1,1574,519,5.33152,1.77838
357,505,5.56567,-1.9425,0,0,0,0,0,0,0,-1,1581,519,5.56562,1.94248
364,505,5.85205,-2.6579,0,0,0,0,0,0,0,-1,1588,519,5.85211,2.65788
371,505,5.88477,-7.00922,0,0,0,0,0,0,0,-1,1595,519,5.88473,7.00924
378,505,5.44104,-7.10162,0,0,0,0,0,0,0,-1,1602,519,5.44099,7.10162
385,505,6.64661,-8.65015,0,0,0,0,0,0,0,-1,1609,519,6.64662,8.65014
392,505,6.34558,-8.3429,0,0,0,0,0,0,0,-1,1616,519,6.34554,8.34288
399,505,7.45898,-9.70386,0,0,0,0,0,0,0,-1,1623,519,7.45899,9.70388
406,505,7.08679,-9.4928,0,0,0,0,0,0,0,-1,1630,519,7.08678,9.49278
413,505,8.4032,-14.0308,0,0,0,0,0,0,0,-1,1637,519,8.4032,14.0308
420,505,19.0094,-35.6158,0,0,0,0,0,0,0,-1,1644,519,19.0094,35.6158
427,505,18.9673,-34.7192,0.0037366,2.62449e-05,-0.000361763,0.00377154,-8.6982e-06,-0.0962925,0.00251726,0.0307853,1651,519,18.9673,34.7192
434,505,18.9054,-33.8132,0.00298532,5.93177e-05,-0.00038337,0.00303472,9.92173e-06,-0.12814,0.00201985,0.0125434,1658,519,18.9054,33.8132
441,505,18.8844,-32.9507,0.00248187,0.000182442,-0.000294038,0.00251888,0.000145438,-0.125191,0.00163293,0.00978462,1665,519,18.8843,32.9507
448,505,18.8271,-32.1566,0.00211094,0.000382074,-8.21784e-05,0.00211483,0.000378176,-0.0473908,0.00130226,0.0106228,1672,519,18.8272,32.1566
455,505,18.7701,-31.3461,0.00177798,0.000666917,0.000159758,0.00180049,0.000644402,0.14001,0.00105341,0.0115191,1679,519,18.7702,31.3461
462,505,18.7244,-30.5094,0.00160381,0.00100614,0.000479171,0.00186969,0.000740254,0.506581,0.00108724,0.0110974,1686,519,18.7243,30.5094
469,505,18.7032,-29.6909,0.00165931,0.00139632,0.000914108,0.00245133,0.000604299,0.713964,0.00147466,0.0113184,1693,519,18.7033,29.6909
476,505,18.6775,-28.879,0.00174006,0.0017426,0.00140489,0.00314622,0.000336436,0.78585,0.00199481,0.0121351,1700,519,18.6775,28.879
483,505,18.6539,-28.0543,0.00195839,0.00207678,0.00193668,0.00395517,7.99954e-05,0.800676,0.00261053,0.0127785,1707,519,18.6539,28.0542
490,505,18.6161,-27.2231,0.00221,0.00245078,0.00247296,0.00480628,-0.000145492,0.809721,0.00325377,0.0123428,1714,519,18.6161,27.2231
497,505,18.5623,-26.3669,0.0025514,0.00271141,0.00298676,0.00561923,-0.000356424,0.798789,0.00387044,0.0128564,1721,519,18.5623,26.3669
504,505,18.5038,-25.4865,0.00299928,0.00291821,0.00349216,0.00645114,-0.000533647,0.779594,0.00448923,0.0139344,1728,519,18.5038,25.4865
511,505,18.4482,-24.6108,0.00342169,0.00316137,0.00395661,0.00725028,-0.000667216,0.768956,0.00507058,0.0159434,1735,519,18.4482,24.6108
518,505,18.5403,-23.8213,0.00380995,0.00355429,0.00429828,0.00798229,-0.000618059,0.770533,0.00553905,0.0363037,1742,519,18.5403,23.8213
525,505,18.6302,-22.9086,0,0,0,0,0,0,0,-1,1749,519,18.6303,22.9086
532,505,17.2922,-20.1019,0,0,0,0,0,0,0,-1,1756,519,17.2923,20.1019
539,505,13.9879,-13.9018,0,0,0,0,0,0,0,-1,1763,519,13.988,13.9018
546,505,7.94946,-6.64539,0,0,0,0,0,0,0,-1,1770,519,7.94947,6.64539
553,505,2.82837,0.162659,0,0,0,0,0,0,0,-1,1777,519,2.82841,-0.162672
560,505,3.66223,-0.479797,0,0,0,0,0,0,0,-1,1784,519,3.66219,0.47982
567,505,4.65271,-0.950256,0,0,0,0,0,0,0,-1,1791,519,4.65274,0.95028
574,505,5.54443,-1.19977,0,0,0,0,0,0,0,-1,1798,519,5.54443,1.19974
581,505,0,0,0,0,0,0,0,0,0,-1,1805,519,0,0
588,505,0,0,0,0,0,0,0,0,0,-1,1812,519,0,0
595,505,0,0,0,0,0,0,0,0,0,-1,1819,519,0,0
602,505,0,0,0,0,0,0,0,0,0,-1,1826,519,0,0
609,505,0,0,0,0,0,0,0,0,0,-1,1833,519,0,0
616,505,0,0,0,0,0,0,0,0,0,-1,1840,519,0,0
623,505,0,0,0,0,0,0,0,0,0,-1,1847,519,0,0
630,505,0,0,0,0,0,0,0,0,0,-1,1854,519,0,0
637,505,0,0,0,0,0,0,0,0,0,-1,1861,519,0,0
644,505,0,0,0,0,0,0,0,0,0,-1,1868,519,0,0
651,505,0,0,0,0,0,0,0,0,0,-1,1875,519,0,0
658,505,0,0,0,0,0,0,0,0,0,-1,1882,519,0,0
665,505,0,0,0,0,0,0,0,0,0,-1,1889,519,0,0
672,505,0,0,0,0,0,0,0,0,0,-1,1896,519,0,0
679,505,0,0,0,0,0,0,0,0,0,-1,1903,519,0,0
686,505,0,0,0,0,0,0,0,0,0,-1,1910,519,0,0
693,505,0,0,0,0,0,0,0,0,0,-1,1917,519,0,0
700,505,0,0,0,0,0,0,0,0,0,-1,1924,519,0,0
707,505,0,0,0,0,0,0,0,0,0,-1,1931,519,0,0
714,505,0,0,0,0,0,0,0,0,0,-1,1938,519,0,0
721,505,0,0,0,0,0,0,0,0,0,-1,1945,519,0,0
728,505,0,0,0,0,0,0,0,0,0,-1,1952,519,0,0
735,505,0,0,0,0,0,0,0,0,0,-1,1959,519,0,0
742,505,0,0,0,0,0,0,0,0,0,-1,1966,519,0,0
749,505,0,0,0,0,0,0,0,0,0,-1,1973,519,0,0
756,505,0,0,0,0,0,0,0,0,0,-1,1980,519,0,0
763,505,0,0,0,0,0,0,0,0,0,-1,1987,519,0,0
770,505,0,0,0,0,0,0,0,0,0,-1,1994,519,0,0
777,505,0,0,0,0,0,0,0,0,0,-1,2001,519,0,0
784,505,0,0,0,0,0,0,0,0,0,-1,2008,519,0,0
791,505,0,0,0,0,0,0,0,0,0,-1,2015,519,0,0
798,505,0,0,0,0,0,0,0,0,0,-1,2022,519,0,0
805,505,0,0,0,0,0,0,0,0,0,-1,2029,519,0,0
812,505,0,0,0,0,0,0,0,0,0,-1,2036,519,0,0
-700,498,0,0,0,0,0,0,0,0,0,-1,524,526,0,0
-693,498,0,0,0,0,0,0,0,0,0,-1,531,526,0,0
-686,498,0,0,0,0,0,0,0,0,0,-1,538,526,0,0
-679,498,0,0,0,0,0,0,0,0,0,-1,545,526,0,0
-672,498,0,0,0,0,0,0,0,0,0,-1,552,526,0,0
-665,498,0,0,0,0,0,0,0,0,0,-1,559,526,0,0
-658,498,0,0,0,0,0,0,0,0,0,-1,566,526,0,0
-651,498,0,0,0,0,0,0,0,0,0,-1,573,526,0,0
-644,498,0,0,0,0,0,0,0,0,0,-1,580,526,0,0
-637,498,0,0,0,0,0,0,0,0,0,-1,587,526,0,0
-630,498,0,0,0,0,0,0,0,0,0,-1,594,526,0,0
-623,498,0,0,0,0,0,0,0,0,0,-1,601,526,0,0
-616,498,0,0,0,0,0,0,0,0,0,-1,608,526,0,0
-609,498,0,0,0,0,0,0,0,0,0,-1,615,526,0,0
-602,498,0,0,0,0,0,0,0,0,0,-1,622,526,0,0
-595,498,0,0,0,0,0,0,0,0,0,-1,629,526,0,0
-588,498,0,0,0,0,0,0,0,0,0,-1,636,526,0,0
-581,498,0,0,0,0,0,0,0,0,0,-1,643,526,0,0
-574,498,0,0,0,0,0,0,0,0,0,-1,650,526,0,0
-567,498,0,0,0,0,0,0,0,0,0,-1,657,526,0,0
-560,498,0,0,0,0,0,0,0,0,0,-1,664,526,0,0
-553,498,0,0,0,0,0,0,0,0,0,-1,671,526,0,0
-546,498,0,0,0,0,0,0,0,0,0,-1,678,526,0,0
-539,498,0,0,0,0,0,0,0,0,0,-1,685,526,0,0
-532,498,0,0,0,0,0,0,0,0,0,-1,692,526,0,0
-525,498,0,0,0,0,0,0,0,0,0,-1,699,526,0,0
-518,498,0,0,0,0,0,0,0,0,0,-1,706,526,0,0
-511,498,0,0,0,0,0,0,0,0,0,-1,713,526,0,0
-504,498,0,0,0,0,0,0,0,0,0,-1,720,526,0,0
-497,498,0,0,0,0,0,0,0,0,0,-1,727,526,0,0
-490,498,0,0,0,0,0,0,0,0,0,-1,734,526,0,0
-483,498,0,0,0,0,0,0,0,0,0,-1,741,526,0,0
-476,498,0,0,0,0,0,0,0,0,0,-1,748,526,0,0
-469,498,0,0,0,0,0,0,0,0,0,-1,755,526,0,0
-462,498,6.81024,1.15515,0,0,0,0,0,0,0,-1,762,526,6.81026,-1.15514
-455,498,3.25757,-3.0592,0,0,0,0,0,0,0,-1,769,526,3.25754,3.05921
-448,498,3.05939,-3.74298,0,0,0,0,0,0,0,-1,776,526,3.05939,3.74296
-441,498,2.77191,-6.08209,0,0,0,0,0,0,0,-1,783,526,2.77189,6.08207
-434,498,2.10681,-6.95929,0,0,0,0,0,0,0,-1,790,526,2.10682,6.9593
-427,498,-0.368042,-10.7726,0,0,0,0,0,0,0,-1,797,526,-0.36807,10.7726
-420,498,-1.05035,-10.5142,0,0,0,0,0,0,0,-1,804,526,-1.05034,10.5142
-413,498,-4.52112,-18.8354,0,0,0,0,0,0,0,-1,811,526,-4.52111,18.8354
-406,498,-4.33331,-22.3758,0,0,0,0,0,0,0,-1,818,526,-4.33331,22.3758
-399,498,-4.36377,-23.3958,0.00423454,0.014428,-0.0097387,0.0203231,-0.0016605,-1.02647,0.0141348,0.0320208,825,526,-4.36377,23.3958
-392,498,-4.46497,-24.3517,0.00414574,0.0123843,-0.00862705,0.0178251,-0.00129503,-1.00813,0.0123377,0.0171788,832,526,-4.46496,24.3517
-385,498,-4.51172,-25.2245,0.00396594,0.0104823,-0.00747657,0.0153798,-0.000931529,-0.990884,0.0105774,0.0109202,839,526,-4.51171,25.2245
-378,498,-4.54932,-26.0839,0.00371243,0.00870628,-0.00632432,0.0130087,-0.000590032,-0.973412,0.00887571,0.0117216,846,526,-4.54934,26.0839
-371,498,-4.58044,-26.9451,0.00337366,0.0069253,-0.00521379,0.0106574,-0.000358433,-0.949536,0.00722737,0.0168976,853,526,-4.58047,26.945
-364,498,-4.61096,-27.8176,0.00291784,0.00508877,-0.00401532,0.00816276,-0.000156149,-0.917408,0.00549463,0.0166299,860,526,-4.61096,27.8177
-357,498,-4.66638,-28.6439,0.00247523,0.00346721,-0.00287247,0.00588619,5.62435e-05,-0.87089,0.00390551,0.0119661,867,526,-4.66637,28.6439
-350,498,-4.73474,-29.4568,0.00215305,0.00199065,-0.00190112,0.00397471,0.000168994,-0.764056,0.00259531,0.0128921,874,526,-4.73474,29.4568
-343,498,-4.79095,-30.3367,0.0018973,0.000500549,-0.000992321,0.00241236,-1.45113e-05,-0.478768,0.0016131,0.0163712,881,526,-4.79097,30.3367
-336,498,-4.81036,-31.1628,0.00174991,-0.000858634,-0.000192909,0.0017641,-0.000872822,-0.0734205,0.00155115,0.0209099,888,526,-4.81037,31.1629
-329,498,-4.81128,-31.867,0.00174565,-0.0020541,0.000477803,0.00180481,-0.00211326,0.123191,0.00226443,0.0258377,895,526,-4.8113,31.867
-322,498,-4.87445,-32.6681,0.00197822,-0.00295197,0.000942231,0.00215215,-0.0031259,0.182547,0.00306453,0.0272229,902,526,-4.87448,32.6681
-315,498,-4.94379,-33.476,0.00255723,-0.00351028,0.00113437,0.00276238,-0.00371543,0.178911,0.00375343,0.0200624,909,526,-4.94376,33.476
-308,498,-4.97717,-34.2474,0.00370408,-0.00378588,0.00116333,0.00388061,-0.00396241,0.150593,0.00452825,0.0221355,916,526,-4.97715,34.2474
-301,498,-4.89178,-35.1258,0.00474071,-0.00344478,0.0012737,0.00493433,-0.00363839,0.150854,0.00496828,0.0457052,923,526,-4.89179,35.1258
-294,498,-4.80426,-36.0192,0,0,0,0,0,0,0,-1,930,526,-4.80428,36.0192
-287,498,-0.91394,-13.4327,0,0,0,0,0,0,0,-1,937,526,-0.913935,13.4327
-280,498,-0.341614,-8.66608,0,0,0,0,0,0,0,-1,944,526,-0.341589,8.66606
-273,498,-0.988892,-8.62921,0,0,0,0,0,0,0,-1,951,526,-0.988906,8.62922
-266,498,0.362488,-6.33545,0,0,0,0,0,0,0,-1,958,526,0.362478,6.33547
-259,498,10.9454,-17.3615,0,0,0,0,0,0,0,-1,965,526,10.9454,17.3614
-252,498,8.56586,-14.6886,0,0,0,0,0,0,0,-1,972,526,8.56584,14.6886
-245,498,5.97382,-11.928,0,0,0,0,0,0,0,-1,979,526,5.97381,11.928
-238,498,2.24841,-13.8145,0,0,0,0,0,0,0,-1,986,526,2.24838,13.8145
-231,498,0.665894,-10.4898,0,0,0,0,0,0,0,-1,993,526,0.665863,10.4898
-224,498,-2.11243,-4.76312,0,0,0,0,0,0,0,-1,1000,526,-2.11245,4.76314
-217,498,-3.82239,-1.42841,0,0,0,0,0,0,0,-1,1007,526,-3.82241,1.42843
-210,498,-1.80591,-0.358215,0,0,0,0,0,0,0,-1,1014,526,-1.8059,0.3582
-203,498,-3.17316,1.06641,0,0,0,0,0,0,0,-1,1021,526,-3.17313,-1.0664
-196,498,-0.103271,5.40527,0,0,0,0,0,0,0,-1,1028,526,-0.103285,-5.40528
-189,498,3.00256,6.47137,0,0,0,0,0,0,0,-1,1035,526,3.00256,-6.47139
-182,498,0,0,0,0,0,0,0,0,0,-1,1042,526,0,0
-175,498,0,0,0,0,0,0,0,0,0,-1,1049,526,0,0
-168,498,0,0,0,0,0,0,0,0,0,-1,1056,526,0,0
-161,498,0,0,0,0,0,0,0,0,0,-1,1063,526,0,0
-154,498,0,0,0,0,0,0,0,0,0,-1,1070,526,0,0
-147,498,0,0,0,0,0,0,0,0,0,-1,1077,526,0,0
-140,498,0,0,0,0,0,0,0,0,0,-1,1084,526,0,0
-133,498,0,0,0,0,0,0,0,0,0,-1,1091,526,0,0
-126,498,0,0,0,0,0,0,0,0,0,-1,1098,526,0,0
-119,498,0,0,0,0,0,0,0,0,0,-1,1105,526,0,0
-112,498,0,0,0,0,0,0,0,0,0,-1,1112,526,0,0
-105,498,0,0,0,0,0,0,0,0,0,-1,1119,526,0,0
-98,498,0,0,0,0,0,0,0,0,0,-1,1126,526,0,0
-91,498,0,0,0,0,0,0,0,0,0,-1,1133,526,0,0
-84,498,0,0,0,0,0,0,0,0,0,-1,1140,526,0,0
-77,498,0,0,0,0,0,0,0,0,0,-1,1147,526,0,0
-70,498,0,0,0,0,0,0,0,0,0,-1,1154,526,0,0
-63,498,0,0,0,0,0,0,0,0,0,-1,1161,526,0,0
-56,498,0,0,0,0,0,0,0,0,0,-1,1168,526,0,0
-49,498,0,0,0,0,0,0,0,0,0,-1,1175,526,0,0
-42,498,0,0,0,0,0,0,0,0,0,-1,1182,526,0,0
-35,498,0,0,0,0,0,0,0,0,0,-1,1189,526,0,0
-28,498,0,0,0,0,0,0,0,0,0,-1,1196,526,0,0
-21,498,0,0,0,0,0,0,0,0,0,-1,1203,526,0,0
-14,498,0,0,0,0,0,0,0,0,0,-1,1210,526,0,0
-7,498,0,0,0,0,0,0,0,0,0,-1,1217,526,0,0
0,498,0,0,0,0,0,0,0,0,0,-1,1224,526,0,0
7,498,0,0,0,0,0,0,0,0,0,-1,1231,526,0,0
14,498,0,0,0,0,0,0,0,0,0,-1,1238,526,0,0
21,498,0,0,0,0,0,0,0,0,0,-1,1245,526,0,0
28,498,0,0,0,0,0,0,0,0,0,-1,1252,526,0,0
35,498,0,0,0,0,0,0,0,0,0,-1,1259,526,0,0
42,498,0,0,0,0,0,0,0,0,0,-1,1266,526,0,0
49,498,0,0,0,0,0,0,0,0,0,-1,1273,526,0,0
56,498,0,0,0,0,0,0,0,0,0,-1,1280,526,0,0
63,498,0,0,0,0,0,0,0,0,0,-1,1287,526,0,0
70,498,0,0,0,0,0,0,0,0,0,-1,1294,526,0,0
77,498,0,0,0,0,0,0,0,0,0,-1,1301,526,0,0
84,498,0,0,0,0,0,0,0,0,0,-1,1308,526,0,0
91,498,0,0,0,0,0,0,0,0,0,-1,1315,526,0,0
98,498,0,0,0,0,0,0,0,0,0,-1,1322,526,0,0
105,498,0,0,0,0,0,0,0,0,0,-1,1329,526,0,0
112,498,0,0,0,0,0,0,0,0,0,-1,1336,526,0,0
119,498,0,0,0,0,0,0,0,0,0,-1,1343,526,0,0
126,498,0,0,0,0,0,0,0,0,0,-1,1350,526,0,0
133,498,0,0,0,0,0,0,0,0,0,-1,1357,526,0,0
140,498,0,0,0,0,0,0,0,0,0,-1,1364,526,0,0
147,498,0,0,0,0,0,0,0,0,0,-1,1371,526,0,0
154,498,0,0,0,0,0,0,0,0,0,-1,1378,526,0,0
161,498,0,0,0,0,0,0,0,0,0,-1,1385,526,0,0
168,498,0,0,0,0,0,0,0,0,0,-1,1392,526,0,0
175,498,0,0,0,0,0,0,0,0,0,-1,1399,526,0,0
182,498,0,0,0,0,0,0,0,0,0,-1,1406,526,0,0
189,498,0,0,0,0,0,0,0,0,0,-1,1413,526,0,0
196,498,0,0,0,0,0,0,0,0,0,-1,1420,526,0,0
203,498,0,0,0,0,0,0,0,0,0,-1,1427,526,0,0
210,498,0,0,0,0,0,0,0,0,0,-1,1434,526,0,0
217,498,0,0,0,0,0,0,0,0,0,-1,1441,526,0,0
224,498,0,0,0,0,0,0,0,0,0,-1,1448,526,0,0
231,498,0,0,0,0,0,0,0,0,0,-1,1455,526,0,0
238,498,0,0,0,0,0,0,0,0,0,-1,1462,526,0,0
245,498,0,0,0,0,0,0,0,0,0,-1,1469,526,0,0
252,498,0,0,0,0,0,0,0,0,0,-1,1476,526,0,0
259,498,0,0,0,0,0,0,0,0,0,-1,1483,526,0,0
266,498,0,0,0,0,0,0,0,0,0,-1,1490,526,0,0
273,498,0,0,0,0,0,0,0,0,0,-1,1497,526,0,0
280,498,0,0,0,0,0,0,0,0,0,-1,1504,526,0,0
287,498,0,0,0,0,0,0,0,0,0,-1,1511,526,0,0
294,498,0,0,0,0,0,0,0,0,0,-1,1518,526,0,0
301,498,0,0,0,0,0,0,0,0,0,-1,1525,526,0,0
308,498,4.77942,-0.293884,0,0,0,0,0,0,0,-1,1532,526,4.77939,0.293899
315,498,4.56091,-0.564148,0,0,0,0,0,0,0,-1,1539,526,4.56097,0.564142
322,498,4.52344,-0.447266,0,0,0,0,0,0,0,-1,1546,526,4.52341,0.447295
329,498,4.63232,-0.156982,0,0,0,0,0,0,0,-1,1553,526,4.63238,0.156991
336,498,5.22644,0.0925903,0,0,0,0,0,0,0,-1,1560,526,5.22648,-0.0926188
343,498,6.22607,-1.67615,0,0,0,0,0,0,0,-1,1567,526,6.22605,1.67617
350,498,6.19373,-1.59906,0,0,0,0,0,0,0,-1,1574,526,6.19367,1.59906
357,498,6.21472,-1.58929,0,0,0,0,0,0,0,-1,1581,526,6.21476,1.58927
364,498,5.73547,-1.2019,0,0,0,0,0,0,0,-1,1588,526,5.73547,1.20192
371,498,3.27087,-4.55334,0,0,0,0,0,0,0,-1,1595,526,3.27089,4.55332
378,498,8.42944,-4.70624,0,0,0,0,0,0,0,-1,1602,526,8.42942,4.70624
385,498,4.7793,-5.15314,0,0,0,0,0,0,0,-1,1609,526,4.77935,5.15311
392,498,9.12439,-8.57953,0,0,0,0,0,0,0,-1,1616,526,9.12443,8.57955
399,498,7.98938,-9.46021,0,0,0,0,0,0,0,-1,1623,526,7.98936,9.4602
406,498,7.58081,-9.26819,0,0,0,0,0,0,0,-1,1630,526,7.58085,9.26817
413,498,7.17236,-9.07611,0,0,0,0,0,0,0,-1,1637,526,7.17234,9.07614
420,498,11.4314,-16.1147,0,0,0,0,0,0,0,-1,1644,526,11.4313,16.1147
427,498,19.4512,-34.5951,0,0,0,0,0,0,0,-1,1651,526,19.4512,34.5951
434,498,19.5912,-33.7794,0.00333278,-0.00051484,-0.000612655,0.00342798,-0.000610037,-0.154152,0.00251346,0.0385352,1658,526,19.5911,33.7794
441,498,19.6875,-32.9275,0.0027115,-0.000425828,-0.000643872,0.0028385,-0.000552829,-0.194745,0.002101,0.0125076,1665,526,19.6876,32.9275
448,498,19.6667,-32.0979,0.00230961,-0.000170709,-0.000495014,0.00240475,-0.000265852,-0.189888,0.00169873,0.0104783,1672,526,19.6667,32.0979
455,498,19.6007,-31.294,0.00195432,0.000181745,-0.000333282,0.00201491,0.000121152,-0.179842,0.00130477,0.0136657,1679,526,19.6007,31.294
462,498,19.5746,-30.4855,0.00167945,0.000553053,-0.000126332,0.00169345,0.000539058,-0.110329,0.000998996,0.0163884,1686,526,19.5746,30.4855
469,498,19.5426,-29.6616,0.00164095,0.000946588,0.000256957,0.0017257,0.000861841,0.318576,0.000996332,0.0146101,1693,526,19.5426,29.6616
476,498,19.5121,-28.8353,0.00168006,0.00129693,0.000693414,0.00220789,0.000769109,0.650629,0.00129412,0.0106903,1700,526,19.5121,28.8353
483,498,19.4612,-28.0099,0.00182085,0.00160932,0.00115337,0.0028733,0.000556877,0.739675,0.00175953,0.00859525,1707,526,19.4612,28.0099
490,498,19.4111,-27.1828,0.00193991,0.00198272,0.00160438,0.00356584,0.000356792,0.792069,0.00226767,0.010845,1714,526,19.4112,27.1828
497,498,19.3768,-26.3225,0.00214279,0.0022962,0.0020891,0.00431001,0.000128986,0.803748,0.00283132,0.0136915,1721,526,19.3768,26.3225
504,498,19.3301,-25.446,0.00245023,0.00247782,0.0025594,0.00502347,-9.54147e-05,0.788093,0.00338123,0.0161823,1728,526,19.3301,25.4461
511,498,19.2889,-24.5925,0.00268859,0.0027102,0.00297705,0.00567647,-0.000277682,0.787213,0.00388019,0.0166422,1735,526,19.289,24.5925
518,498,19.3419,-23.7371,0.00282491,0.00305837,0.00327446,0.00621818,-0.000334904,0.803214,0.00426148,0.0219369,1742,526,19.3419,23.7371
525,498,19.1333,-22.9006,0.00291202,0.00346965,0.00351449,0.00671636,-0.000334697,0.824982,0.00459321,0.0393158,1749,526,19.1333,22.9006
532,498,19.08,-21.9557,0,0,0,0,0,0,0,-1,1756,526,19.0799,21.9558
539,498,18.3168,-20.9863,0,0,0,0,0,0,0,-1,1763,526,18.3168,20.9863
546,498,10.2014,-8.47589,0,0,0,0,0,0,0,-1,1770,526,10.2014,8.47589
553,498,5.93958,-1.71448,0,0,0,0,0,0,0,-1,1777,526,5.93956,1.71447
560,498,3.69385,-0.615112,0,0,0,0,0,0,0,-1,1784,526,3.69381,0.615118
567,498,5.12695,-0.581604,0,0,0,0,0,0,0,-1,1791,526,5.12699,0.58159
574,498,3.88,0.0286255,0,0,0,0,0,0,0,-1,1798,526,3.87999,-0.0286535
581,498,10.8722,2.58551,0,0,0,0,0,0,0,-1,1805,526,10.8723,-2.58551
588,498,0,0,0,0,0,0,0,0,0,-1,1812,526,0,0
595,498,0,0,0,0,0,0,0,0,0,-1,1819,526,0,0
602,498,0,0,0,0,0,0,0,0,0,-1,1826,526,0,0
609,498,0,0,0,0,0,0,0,0,0,-1,1833,526,0,0
616,498,0,0,0,0,0,0,0,0,0,-1,1840,526,0,0
623,498,0,0,0,0,0,0,0,0,0,-1,1847,526,0,0
630,498,0,0,0,0,0,0,0,0,0,-1,1854,526,0,0
637,498,0,0,0,0,0,0,0,0,0,-1,1861,526,0,0
644,498,0,0,0,0,0,0,0,0,0,-1,1868,526,0,0
651,498,0,0,0,0,0,0,0,0,0,-1,1875,526,0,0
658,498,0,0,0,0,0,0,0,0,0,-1,1882,526,0,0
665,498,0,0,0,0,0,0,0,0,0,-1,1889,526,0,0
672,498,0,0,0,0,0,0,0,0,0,-1,1896,526,0,0
679,498,0,0,0,0,0,0,0,0,0,-1,1903,526,0,0
686,498,0,0,0,0,0,0,0,0,0,-1,1910,526,0,0
693,498,0,0,0,0,0,0,0,0,0,-1,1917,526,0,0
700,498,0,0,0,0,0,0,0,0,0,-1,1924,526,0,0
707,498,0,0,0,0,0,0,0,0,0,-1,1931,526,0,0
714,498,0,0,0,0,0,0,0,0,0,-1,1938,526,0,0
721,498,0,0,0,0,0,0,0,0,0,-1,1945,526,0,0
728,498,0,0,0,0,0,0,0,0,0,-1,1952,526,0,0
735,498,0,0,0,0,0,0,0,0,0,-1,1959,526,0,0
742,498,0,0,0,0,0,0,0,0,0,-1,1966,526,0,0
749,498,0,0,0,0,0,0,0,0,0,-1,1973,526,0,0
756,498,0,0,0,0,0,0,0,0,0,-1,1980,526,0,0
763,498,0,0,0,0,0,0,0,0,0,-1,1987,526,0,0
770,498,0,0,0,0,0,0,0,0,0,-1,1994,526,0,0
777,498,0,0,0,0,0,0,0,0,0,-1,2001,526,0,0
784,498,0,0,0,0,0,0,0,0,0,-1,2008,526,0,0
791,498,0,0,0,0,0,0,0,0,0,-1,2015,526,0,0
798,498,0,0,0,0,0,0,0,0,0,-1,2022,526,0,0
805,498,0,0,0,0,0,0,0,0,0,-1,2029,526,0,0
812,498,0,0,0,0,0,0,0,0,0,-1,2036,526,0,0
-700,491,0,0,0,0,0,0,0,0,0,-1,524,533,0,0
-693,491,0,0,0,0,0,0,0,0,0,-1,531,533,0,0
-686,491,0,0,0,0,0,0,0,0,0,-1,538,533,0,0
-679,491,0,0,0,0,0,0,0,0,0,-1,545,533,0,0
-672,491,0,0,0,0,0,0,0,0,0,-1,552,533,0,0
-665,491,0,0,0,0,0,0,0,0,0,-1,559,533,0,0
-658,491,0,0,0,0,0,0,0,0,0,-1,566,533,0,0
-651,491,0,0,0,0,0,0,0,0,0,-1,573,533,0,0
-644,491,0,0,0,0,0,0,0,0,0,-1,580,533,0,0
-637,491,0,0,0,0,0,0,0,0,0,-1,587,533,0,0
-630,491,0,0,0,0,0,0,0,0,0,-1,594,533,0,0
-623,491,0,0,0,0,0,0,0,0,0,-1,601,533,0,0
-616,491,0,0,0,0,0,0,0,0,0,-1,608,533,0,0
-609,491,0,0,0,0,0,0,0,0,0,-1,615,533,0,0
-602,491,0,0,0,0,0,0,0,0,0,-1,622,533,0,0
-595,491,0,0,0,0,0,0,0,0,0,-1,629,533,0,0
-588,491,0,0,0,0,0,0,0,0,0,-1,636,533,0,0
-581,491,0,0,0,0,0,0,0,0,0,-1,643,533,0,0
-574,491,0,0,0,0,0,0,0,0,0,-1,650,533,0,0
-567,491,0,0,0,0,0,0,0,0,0,-1,657,533,0,0
-560,491,0,0,0,0,0,0,0,0,0,-1,664,533,0,0
-553,491,0,0,0,0,0,0,0,0,0,-1,671,533,0,0
-546,491,0,0,0,0,0,0,0,0,0,-1,678,533,0,0
-539,491,0,0,0,0,0,0,0,0,0,-1,685,533,0,0
-532,491,0,0,0,0,0,0,0,0,0,-1,692,533,0,0
-525,491,0,0,0,0,0,0,0,0,0,-1,699,533,0,0
-518,491,0,0,0,0,0,0,0,0,0,-1,706,533,0,0
-511,491,0,0,0,0,0,0,0,0,0,-1,713,533,0,0
-504,491,0,0,0,0,0,0,0,0,0,-1,720,533,0,0
-497,491,0,0,0,0,0,0,0,0,0,-1,727,533,0,0
-490,491,0,0,0,0,0,0,0,0,0,-1,734,533,0,0
-483,491,0,0,0,0,0,0,0,0,0,-1,741,533,0,0
-476,491,0,0,0,0,0,0,0,0,0,-1,748,533,0,0
-469,491,-5.85913,4.55011,0,0,0,0,0,0,0,-1,755,533,-5.8591,-4.55009
-462,491,-9.93713,4.90381,0,0,0,0,0,0,0,-1,762,533,-9.93716,-4.9038
-455,491,1.9494,-0.27887,0,0,0,0,0,0,0,-1,769,533,1.94941,0.27885
-448,491,2.68909,-1.8999,0,0,0,0,0,0,0,-1,776,533,2.6891,1.89988
-441,491,3.46069,-3.51855,0,0,0,0,0,0,0,-1,783,533,3.46071,3.51854
-434,491,2.67145,-7.44061,0,0,0,0,0,0,0,-1,790,533,2.67146,7.44061
-427,491,2.27136,-8.34546,0,0,0,0,0,0,0,-1,797,533,2.27136,8.34546
-420,491,-5.62592,-20.2425,0,0,0,0,0,0,0,-1,804,533,-5.6259,20.2425
-413,491,-5.2254,-21.4537,0,0,0,0,0,0,0,-1,811,533,-5.22539,21.4538
-406,491,-5.1637,-22.5832,0.00275408,0.0131221,-0.00827236,0.0177006,-0.00182439,-1.0653,0.0124531,0.0284986,818,533,-5.16367,22.5832
-399,491,-5.17889,-23.5576,0.00279232,0.0110212,-0.00733288,0.0153151,-0.00150155,-1.04106,0.0107456,0.014116,825,533,-5.1789,23.5576
-392,491,-5.29419,-24.4099,0.00281273,0.00920305,-0.00643105,0.0131889,-0.00117316,-1.01595,0.00920862,0.0121713,832,533,-5.29417,24.4099
-385,491,-5.34009,-25.2133,0.0027989,0.00754766,-0.00550155,0.0111653,-0.000818771,-0.989115,0.00773094,0.0107598,839,533,-5.3401,25.2132
-378,491,-5.35754,-26.0374,0.00271653,0.0059802,-0.00453476,0.0091678,-0.000471071,-0.95811,0.00627479,0.0155141,846,533,-5.35752,26.0374
-371,491,-5.40033,-26.8774,0.00253319,0.00440659,-0.00360163,0.00719133,-0.000251552,-0.912618,0.00488023,0.0158542,853,533,-5.40034,26.8774
-364,491,-5.44684,-27.7363,0.00224918,0.00277423,-0.00258327,0.00510828,-8.48672e-05,-0.836037,0.00343416,0.0139254,860,533,-5.44685,27.7363
-357,491,-5.48193,-28.5646,0.00199479,0.00135306,-0.00161683,0.00332228,2.55654e-05,-0.687445,0.00220638,0.0127995,867,533,-5.48193,28.5646
-350,491,-5.54419,-29.3792,0.00187062,7.21887e-05,-0.00083083,0.00219568,-0.000252879,-0.372946,0.00155495,0.0168576,874,533,-5.54418,29.3791
-343,491,-5.58514,-30.2377,0.00176547,-0.00122491,-7.60976e-05,0.0017674,-0.00122685,-0.0254255,0.0017381,0.0277513,881,533,-5.58512,30.2377
-336,491,-5.63904,-31.0593,0.00175747,-0.00245771,0.000572859,0.00183394,-0.00253418,0.132698,0.00253271,0.02836,888,533,-5.63901,31.0592
-329,491,-5.6217,-31.7891,0.00189559,-0.00355294,0.00113198,0.00212141,-0.00377876,0.196906,0.00345097,0.0278439,895,533,-5.62172,31.7891
-322,491,-5.71173,-32.5644,0.00232823,-0.00427183,0.00142117,0.00262124,-0.00456484,0.203325,0.00419916,0.0228904,902,533,-5.71173,32.5644
-315,491,-5.7616,-33.3232,0.00315163,-0.0046804,0.0013718,0.00338495,-0.00491373,0.168474,0.00481827,0.0218112,909,533,-5.76159,33.3232
-308,491,-5.7536,-34.306,0,0,0,0,0,0,0,-1,916,533,-5.75362,34.306
-301,491,-5.73248,-35.5356,0,0,0,0,0,0,0,-1,923,533,-5.73246,35.5357
-294,491,-0.777283,-8.60913,0,0,0,0,0,0,0,-1,930,533,-0.777288,8.6091
-287,491,-0.26123,-8.69055,0,0,0,0,0,0,0,-1,937,533,-0.261204,8.69053
-280,491,0.2948,-5.99219,0,0,0,0,0,0,0,-1,944,533,0.294811,5.99221
-273,491,0.369995,-5.33691,0,0,0,0,0,0,0,-1,951,533,0.369985,5.33693
-266,491,1.1167,-5.0321,0,0,0,0,0,0,0,-1,958,533,1.11668,5.0321
-259,491,12.0862,-16.9615,0,0,0,0,0,0,0,-1,965,533,12.0862,16.9615
-252,491,9.72443,-13.8417,0,0,0,0,0,0,0,-1,972,533,9.72444,13.8418
-245,491,5.27258,-14.3619,0,0,0,0,0,0,0,-1,979,533,5.27255,14.3619
-238,491,3.65381,-11.1472,0,0,0,0,0,0,0,-1,986,533,3.6538,11.1472
-231,491,2.17719,-7.86835,0,0,0,0,0,0,0,-1,993,533,2.17719,7.86832
-224,491,0.554626,-4.61725,0,0,0,0,0,0,0,-1,1000,533,0.554608,4.61727
-217,491,-2.92743,-1.0766,0,0,0,0,0,0,0,-1,1007,533,-2.92743,1.07659
-210,491,-0.92395,0.374512,0,0,0,0,0,0,0,-1,1014,533,-0.923959,-0.374531
-203,491,0.417419,4.77161,0,0,0,0,0,0,0,-1,1021,533,0.417446,-4.77162
-196,491,0,0,0,0,0,0,0,0,0,-1,1028,533,0,0
-189,491,0,0,0,0,0,0,0,0,0,-1,1035,533,0,0
-182,491,0,0,0,0,0,0,0,0,0,-1,1042,533,0,0
-175,491,0,0,0,0,0,0,0,0,0,-1,1049,533,0,0
-168,491,0,0,0,0,0,0,0,0,0,-1,1056,533,0,0
-161,491,0,0,0,0,0,0,0,0,0,-1,1063,533,0,0
-154,491,0,0,0,0,0,0,0,0,0,-1,1070,533,0,0
-147,491,0,0,0,0,0,0,0,0,0,-1,1077,533,0,0
-140,491,0,0,0,0,0,0,0,0,0,-1,1084,533,0,0
-133,491,0,0,0,0,0,0,0,0,0,-1,1091,533,0,0
-126,491,0,0,0,0,0,0,0,0,0,-1,1098,533,0,0
-119,491,0,0,0,0,0,0,0,0,0,-1,1105,533,0,0
-112,491,0,0,0,0,0,0,0,0,0,-1,1112,533,0,0
-105,491,0,0,0,0,0,0,0,0,0,-1,1119,533,0,0
-98,491,0,0,0,0,0,0,0,0,0,-1,1126,533,0,0
-91,491,0,0,0,0,0,0,0,0,0,-1,1133,533,0,0
-84,491,0,0,0,0,0,0,0,0,0,-1,1140,533,0,0
-77,491,0,0,0,0,0,0,0,0,0,-1,1147,533,0,0
-70,491,0,0,0,0,0,0,0,0,0,-1,1154,533,0,0
-63,491,0,0,0,0,0,0,0,0,0,-1,1161,533,0,0
-56,491,0,0,0,0,0,0,0,0,0,-1,1168,533,0,0
-49,491,0,0,0,0,0,0,0,0,0,-1,1175,533,0,0
-42,491,0,0,0,0,0,0,0,0,0,-1,1182,533,0,0
-35,491,0,0,0,0,0,0,0,0,0,-1,1189,533,0,0
-28,491,0,0,0,0,0,0,0,0,0,-1,1196,533,0,0
-21,491,0,0,0,0,0,0,0,0,0,-1,1203,533,0,0
-14,491,0,0,0,0,0,0,0,0,0,-1,1210,533,0,0
-7,491,0,0,0,0,0,0,0,0,0,-1,1217,533,0,0
0,491,0,0,0,0,0,0,0,0,0,-1,1224,533,0,0
7,491,0,0,0,0,0,0,0,0,0,-1,1231,533,0,0
14,491,0,0,0,0,0,0,0,0,0,-1,1238,533,0,0
21,491,0,0,0,0,0,0,0,0,0,-1,1245,533,0,0
28,491,0,0,0,0,0,0,0,0,0,-1,1252,533,0,0
35,491,0,0,0,0,0,0,0,0,0,-1,1259,533,0,0
42,491,0,0,0,0,0,0,0,0,0,-1,1266,533,0,0
49,491,0,0,0,0,0,0,0,0,0,-1,1273,533,0,0
56,491,0,0,0,0,0,0,0,0,0,-1,1280,533,0,0
63,491,0,0,0,0,0,0,0,0,0,-1,1287,533,0,0
70,491,0,0,0,0,0,0,0,0,0,-1,1294,533,0,0
77,491,0,0,0,0,0,0,0,0,0,-1,1301,533,0,0
84,491,0,0,0,0,0,0,0,0,0,-1,1308,533,0,0
91,491,0,0,0,0,0,0,0,0,0,-1,1315,533,0,0
98,491,0,0,0,0,0,0,0,0,0,-1,1322,533,0,0
105,491,0,0,0,0,0,0,0,0,0,-1,1329,533,0,0
112,491,0,0,0,0,0,0,0,0,0,-1,1336,533,0,0
119,491,0,0,0,0,0,0,0,0,0,-1,1343,533,0,0
126,491,0,0,0,0,0,0,0,0,0,-1,1350,533,0,0
133,491,0,0,0,0,0,0,0,0,0,-1,1357,533,0,0
140,491,0,0,0,0,0,0,0,0,0,-1,1364,533,0,0
147,491,0,0,0,0,0,0,0,0,0,-1,1371,533,0,0
154,491,0,0,0,0,0,0,0,0,0,-1,1378,533,0,0
161,491,0,0,0,0,0,0,0,0,0,-1,1385,533,0,0
168,491,0,0,0,0,0,0,0,0,0,-1,1392,533,0,0
175,491,0,0,0,0,0,0,0,0,0,-1,1399,533,0,0
182,491,0,0,0,0,0,0,0,0,0,-1,1406,533,0,0
189,491,0,0,0,0,0,0,0,0,0,-1,1413,533,0,0
196,491,0,0,0,0,0,0,0,0,0,-1,1420,533,0,0
203,491,0,0,0,0,0,0,0,0,0,-1,1427,533,0,0
210,491,0,0,0,0,0,0,0,0,0,-1,1434,533,0,0
217,491,0,0,0,0,0,0,0,0,0,-1,1441,533,0,0
224,491,0,0,0,0,0,0,0,0,0,-1,1448,533,0,0
231,491,0,0,0,0,0,0,0,0,0,-1,1455,533,0,0
238,491,0,0,0,0,0,0,0,0,0,-1,1462,533,0,0
245,491,0,0,0,0,0,0,0,0,0,-1,1469,533,0,0
252,491,0,0,0,0,0,0,0,0,0,-1,1476,533,0,0
259,491,0,0,0,0,0,0,0,0,0,-1,1483,533,0,0
266,491,0,0,0,0,0,0,0,0,0,-1,1490,533,0,0
273,491,0,0,0,0,0,0,0,0,0,-1,1497,533,0,0
280,491,0,0,0,0,0,0,0,0,0,-1,1504,533,0,0
287,491,0,0,0,0,0,0,0,0,0,-1,1511,533,0,0
294,491,0,0,0,0,0,0,0,0,0,-1,1518,533,0,0
301,491,0,0,0,0,0,0,0,0,0,-1,1525,533,0,0
308,491,0,0,0,0,0,0,0,0,0,-1,1532,533,0,0
315,491,0,0,0,0,0,0,0,0,0,-1,1539,533,0,0
322,491,4.26331,-0.734314,0,0,0,0,0,0,0,-1,1546,533,4.26326,0.734324
329,491,4.25354,-0.783752,0,0,0,0,0,0,0,-1,1553,533,4.25359,0.783734
336,491,4.81604,-0.722107,0,0,0,0,0,0,0,-1,1560,533,4.81605,0.722115
343,491,6.14478,-1.44281,0,0,0,0,0,0,0,-1,1567,533,6.14474,1.44281
350,491,6.36353,-1.30792,0,0,0,0,0,0,0,-1,1574,533,6.36352,1.3079
357,491,6.69482,-1.06018,0,0,0,0,0,0,0,-1,1581,533,6.69489,1.06018
364,491,8.01086,-1.69604,0,0,0,0,0,0,0,-1,1588,533,8.01087,1.69607
371,491,8.2135,-0.539307,0,0,0,0,0,0,0,-1,1595,533,8.21348,0.53929
378,491,13.3589,2.17267,0,0,0,0,0,0,0,-1,1602,533,13.3589,-2.17264
385,491,8.08228,-4.95471,0,0,0,0,0,0,0,-1,1609,533,8.08227,4.95474
392,491,2.88721,-4.30988,0,0,0,0,0,0,0,-1,1616,533,2.88716,4.30986
399,491,8.95862,-8.55518,0,0,0,0,0,0,0,-1,1623,533,8.95864,8.55516
406,491,8.16541,-9.00806,0,0,0,0,0,0,0,-1,1630,533,8.16535,9.00807
413,491,5.31848,-3.7124,0,0,0,0,0,0,0,-1,1637,533,5.31849,3.7124
420,491,4.86389,-3.95892,0,0,0,0,0,0,0,-1,1644,533,4.86387,3.95893
427,491,11.5096,-15.2742,0,0,0,0,0,0,0,-1,1651,533,11.5096,15.2742
434,491,20.3604,-33.7413,0,0,0,0,0,0,0,-1,1658,533,20.3604,33.7413
441,491,20.5032,-32.6522,0.00273734,-0.00088112,-0.000962596,0.00297748,-0.00112126,-0.244478,0.00244596,0.0346953,1665,533,20.5032,32.6521
448,491,20.4586,-32.0452,0.00230649,-0.000503936,-0.000851177,0.00254418,-0.000741624,-0.27231,0.00198994,0.0199433,1672,533,20.4586,32.0451
455,491,20.4034,-31.2322,0.00195183,-5.76561e-05,-0.00075042,0.00220113,-0.000306962,-0.32075,0.00157972,0.0140617,1679,533,20.4035,31.2322
462,491,20.4224,-30.4279,0.00158237,0.000317822,-0.000641456,0.00185078,4.94102e-05,-0.396303,0.00121772,0.0161636,1686,533,20.4224,30.4279
469,491,20.3685,-29.6362,0.00145356,0.000661644,-0.000278299,0.00154158,0.000573625,-0.306319,0.000899682,0.0156173,1693,533,20.3685,29.6362
476,491,20.3429,-28.8046,0.00148453,0.00096414,0.0001336,0.00151683,0.000931845,0.237179,0.000883339,0.0107324,1700,533,20.3429,28.8046
483,491,20.2902,-27.9514,0.00157927,0.00120457,0.000546626,0.00196976,0.00081408,0.620306,0.00114293,0.0120599,1707,533,20.2902,27.9514
490,491,20.2402,-27.1411,0.00161028,0.0015269,0.000938463,0.00250798,0.000629201,0.7632,0.0015067,0.0110845,1714,533,20.2402,27.1411
497,491,20.2024,-26.296,0.00172675,0.00185987,0.0014156,0.00321047,0.000376149,0.808892,0.0020266,0.0129689,1721,533,20.2024,26.296
504,491,20.1638,-25.4138,0.00194457,0.00199626,0.0018602,0.0038308,0.000110035,0.792344,0.00251799,0.0147133,1728,533,20.1638,25.4138
511,491,20.0972,-24.5583,0.00207102,0.00220219,0.00225067,0.00438824,-0.00011502,0.799964,0.00296458,0.0132439,1735,533,20.0972,24.5583
518,491,20.0515,-23.7377,0.00205957,0.00251195,0.00253876,0.00483458,-0.000263051,0.829828,0.00331422,0.0103593,1742,533,20.0515,23.7377
525,491,20.0244,-22.8687,0.00202545,0.00289054,0.0028062,0.00529733,-0.000381342,0.861866,0.00366529,0.0114925,1749,533,20.0245,22.8686
532,491,19.9388,-21.9405,0,0,0,0,0,0,0,-1,1756,533,19.9389,21.9405
539,491,19.9275,-21.0005,0,0,0,0,0,0,0,-1,1763,533,19.9274,21.0005
546,491,19.1566,-20.1898,0,0,0,0,0,0,0,-1,1770,533,19.1566,20.1897
553,491,10.5021,-7.77869,0,0,0,0,0,0,0,-1,1777,533,10.502,7.77871
560,491,6.28455,-1.43585,0,0,0,0,0,0,0,-1,1784,533,6.28458,1.43586
567,491,5.67651,-1.3562,0,0,0,0,0,0,0,-1,1791,533,5.67649,1.3562
574,491,8.0719,1.58325,0,0,0,0,0,0,0,-1,1798,533,8.07195,-1.58326
581,491,9.44812,1.60931,0,0,0,0,0,0,0,-1,1805,533,9.44808,-1.60933
588,491,11.0497,1.54962,0,0,0,0,0,0,0,-1,1812,533,11.0496,-1.54963
595,491,0,0,0,0,0,0,0,0,0,-1,1819,533,0,0
602,491,0,0,0,0,0,0,0,0,0,-1,1826,533,0,0
609,491,0,0,0,0,0,0,0,0,0,-1,1833,533,0,0
616,491,0,0,0,0,0,0,0,0,0,-1,1840,533,0,0
623,491,0,0,0,0,0,0,0,0,0,-1,1847,533,0,0
630,491,0,0,0,0,0,0,0,0,0,-1,1854,533,0,0
637,491,0,0,0,0,0,0,0,0,0,-1,1861,533,0,0
644,491,0,0,0,0,0,0,0,0,0,-1,1868,533,0,0
651,491,0,0,0,0,0,0,0,0,0,-1,1875,533,0,0
658,491,0,0,0,0,0,0,0,0,0,-1,1882,533,0,0
665,491,0,0,0,0,0,0,0,0,0,-1,1889,533,0,0
672,491,0,0,0,0,0,0,0,0,0,-1,1896,533,0,0
679,491,0,0,0,0,0,0,0,0,0,-1,1903,533,0,0
686,491,0,0,0,0,0,0,0,0,0,-1,1910,533,0,0
693,491,0,0,0,0,0,0,0,0,0,-1,1917,533,0,0
700,491,0,0,0,0,0,0,0,0,0,-1,1924,533,0,0
707,491,0,0,0,0,0,0,0,0,0,-1,1931,533,0,0
714,491,0,0,0,0,0,0,0,0,0,-1,1938,533,0,0
721,491,0,0,0,0,0,0,0,0,0,-1,1945,533,0,0
728,491,0,0,0,0,0,0,0,0,0,-1,1952,533,0,0
735,491,0,0,0,0,0,0,0,0,0,-1,1959,533,0,0
742,491,0,0,0,0,0,0,0,0,0,-1,1966,533,0,0
749,491,0,0,0,0,0,0,0,0,0,-1,1973,533,0,0
756,491,0,0,0,0,0,0,0,0,0,-1,1980,533,0,0
763,491,0,0,0,0,0,0,0,0,0,-1,1987,533,0,0
770,491,0,0,0,0,0,0,0,0,0,-1,1994,533,0,0
777,491,0,0,0,0,0,0,0,0,0,-1,2001,533,0,0
784,491,0,0,0,0,0,0,0,0,0,-1,2008,533,0,0
791,491,0,0,0,0,0,0,0,0,0,-1,2015,533,0,0
798,491,0,0,0,0,0,0,0,0,0,-1,2022,533,0,0
805,491,0,0,0,0,0,0,0,0,0,-1,2029,533,0,0
812,491,0,0,0,0,0,0,0,0,0,-1,2036,533,0,0
-700,484,0,0,0,0,0,0,0,0,0,-1,524,540,0,0
-693,484,0,0,0,0,0,0,0,0,0,-1,531,540,0,0
-686,484,0,0,0,0,0,0,0,0,0,-1,538,540,0,0
-679,484,0,0,0,0,0,0,0,0,0,-1,545,540,0,0
-672,484,0,0,0,0,0,0,0,0,0,-1,552,540,0,0
-665,484,0,0,0,0,0,0,0,0,0,-1,559,540,0,0
-658,484,0,0,0,0,0,0,0,0,0,-1,566,540,0,0
-651,484,0,0,0,0,0,0,0,0,0,-1,573,540,0,0
-644,484,0,0,0,0,0,0,0,0,0,-1,580,540,0,0
-637,484,0,0,0,0,0,0,0,0,0,-1,587,540,0,0
-630,484,0,0,0,0,0,0,0,0,0,-1,594,540,0,0
-623,484,0,0,0,0,0,0,0,0,0,-1,601,540,0,0
-616,484,0,0,0,0,0,0,0,0,0,-1,608,540,0,0
-609,484,0,0,0,0,0,0,0,0,0,-1,615,540,0,0
-602,484,0,0,0,0,0,0,0,0,0,-1,622,540,0,0
-595,484,0,0,0,0,0,0,0,0,0,-1,629,540,0,0
-588,484,0,0,0,0,0,0,0,0,0,-1,636,540,0,0
-581,484,0,0,0,0,0,0,0,0,0,-1,643,540,0,0
-574,484,0,0,0,0,0,0,0,0,0,-1,650,540,0,0
-567,484,0,0,0,0,0,0,0,0,0,-1,657,540,0,0
-560,484,0,0,0,0,0,0,0,0,0,-1,664,540,0,0
-553,484,0,0,0,0,0,0,0,0,0,-1,671,540,0,0
-546,484,0,0,0,0,0,0,0,0,0,-1,678,540,0,0
-539,484,0,0,0,0,0,0,0,0,0,-1,685,540,0,0
-532,484,0,0,0,0,0,0,0,0,0,-1,692,540,0,0
-525,484,0,0,0,0,0,0,0,0,0,-1,699,540,0,0
-518,484,0,0,0,0,0,0,0,0,0,-1,706,540,0,0
-511,484,0,0,0,0,0,0,0,0,0,-1,713,540,0,0
-504,484,0,0,0,0,0,0,0,0,0,-1,720,540,0,0
-497,484,0,0,0,0,0,0,0,0,0,-1,727,540,0,0
-490,484,0,0,0,0,0,0,0,0,0,-1,734,540,0,0
-483,484,0,0,0,0,0,0,0,0,0,-1,741,540,0,0
-476,484,-8.46552,1.44702,0,0,0,0,0,0,0,-1,748,540,-8.46554,-1.44702
-469,484,-7.82343,1.70355,0,0,0,0,0,0,0,-1,755,540,-7.82345,-1.70355
-462,484,-8.36987,3.08612,0,0,0,0,0,0,0,-1,762,540,-8.36988,-3.0861
-455,484,-6.77197,2.07092,0,0,0,0,0,0,0,-1,769,540,-6.77197,-2.07094
-448,484,3.54895,-1.40106,0,0,0,0,0,0,0,-1,776,540,3.54897,1.40106
-441,484,4.28906,-3.05884,0,0,0,0,0,0,0,-1,783,540,4.28905,3.05883
-434,484,-2.17548,-5.07245,0,0,0,0,0,0,0,-1,790,540,-2.17546,5.07243
-427,484,-5.84851,-19.3742,0,0,0,0,0,0,0,-1,797,540,-5.84851,19.3742
-420,484,-5.84296,-20.4943,0,0,0,0,0,0,0,-1,804,540,-5.84295,20.4943
-413,484,-5.85779,-21.5685,0.00152714,0.0119228,-0.00679275,0.0152783,-0.00182832,-1.11198,0.0108465,0.0349236,811,540,-5.85782,21.5685
-406,484,-5.93091,-22.5951,0.00173383,0.00993765,-0.00622084,0.0132872,-0.00161574,-1.07687,0.00944291,0.0189393,818,540,-5.93094,22.5951
-399,484,-6.04309,-23.519,0.00177345,0.00807925,-0.00545208,0.0112244,-0.00137174,-1.04755,0.0079796,0.0164278,825,540,-6.04311,23.519
-392,484,-6.11011,-24.3486,0.00183519,0.00645051,-0.004703,0.0093815,-0.0010958,-1.01348,0.00664977,0.0189544,832,540,-6.11011,24.3486
-385,484,-6.17999,-25.1876,0.00192152,0.00499868,-0.00393421,0.00768446,-0.000764262,-0.971793,0.0053958,0.01376,839,540,-6.17998,25.1877
-378,484,-6.18195,-26.0061,0.00196328,0.00361291,-0.00309772,0.00599375,-0.000417556,-0.915512,0.00414204,0.015402,846,540,-6.18194,26.0061
-371,484,-6.2312,-26.8242,0.00191236,0.00224703,-0.00228473,0.00437055,-0.000211154,-0.821953,0.00298657,0.017354,853,540,-6.2312,26.8242
-364,484,-6.29144,-27.6509,0.00179279,0.000862875,-0.0014003,0.0028033,-0.000147638,-0.625104,0.00191997,0.0124752,860,540,-6.29145,27.6509
-357,484,-6.32715,-28.4774,0.00173454,-0.000304928,-0.000573675,0.00188483,-0.00045522,-0.256222,0.00143261,0.0134763,867,540,-6.32714,28.4774
-350,484,-6.4071,-29.2964,0.00182771,-0.00132428,5.72642e-05,0.00182875,-0.00132532,0.0181597,0.00182872,0.01656,874,540,-6.40708,29.2964
-343,484,-6.44128,-30.1319,0.00190498,-0.00232996,0.000674005,0.00200966,-0.00243465,0.154083,0.00256983,0.0243549,881,540,-6.44129,30.1319
-336,484,-6.49396,-30.9329,0.00208159,-0.00333327,0.00117726,0.00232647,-0.00357815,0.205082,0.00343447,0.0268876,888,540,-6.49398,30.9328
-329,484,-6.47491,-31.6872,0.00242605,-0.00423472,0.00161991,0.00279912,-0.00460779,0.226355,0.00431867,0.0359664,895,540,-6.4749,31.6872
-322,484,-6.43823,-32.464,0,0,0,0,0,0,0,-1,902,540,-6.43822,32.464
-315,484,-6.33636,-33.3194,0,0,0,0,0,0,0,-1,909,540,-6.33639,33.3194
-308,484,-1.32623,-8.9317,0,0,0,0,0,0,0,-1,916,540,-1.32626,8.93173
-301,484,-1.33453,-6.52667,0,0,0,0,0,0,0,-1,923,540,-1.33454,6.5267
-294,484,-1.61224,-8.17059,0,0,0,0,0,0,0,-1,930,540,-1.61227,8.17058
-287,484,-0.715759,-5.62103,0,0,0,0,0,0,0,-1,937,540,-0.715772,5.62105
-280,484,2.66742,-1.6795,0,0,0,0,0,0,0,-1,944,540,2.6674,1.67949
-273,484,2.53125,-2.22296,0,0,0,0,0,0,0,-1,951,540,2.53128,2.22295
-266,484,2.6778,-2.72058,0,0,0,0,0,0,0,-1,958,540,2.6778,2.72061
-259,484,2.41718,-2.59894,0,0,0,0,0,0,0,-1,965,540,2.41717,2.59892
-252,484,10.6069,-11.696,0,0,0,0,0,0,0,-1,972,540,10.6069,11.696
-245,484,6.34106,-11.6107,0,0,0,0,0,0,0,-1,979,540,6.34104,11.6107
-238,484,4.89319,-8.54059,0,0,0,0,0,0,0,-1,986,540,4.89321,8.5406
-231,484,3.47675,-5.22064,0,0,0,0,0,0,0,-1,993,540,3.47676,5.22067
-224,484,1.71344,-2.03473,0,0,0,0,0,0,0,-1,1000,540,1.71342,2.03472
-217,484,-0.745056,1.17358,0,0,0,0,0,0,0,-1,1007,540,-0.745043,-1.17359
-210,484,0,0,0,0,0,0,0,0,0,-1,1014,540,0,0
-203,484,0,0,0,0,0,0,0,0,0,-1,1021,540,0,0
-196,484,0,0,0,0,0,0,0,0,0,-1,1028,540,0,0
-189,484,0,0,0,0,0,0,0,0,0,-1,1035,540,0,0
-182,484,0,0,0,0,0,0,0,0,0,-1,1042,540,0,0
-175,484,0,0,0,0,0,0,0,0,0,-1,1049,540,0,0
-168,484,0,0,0,0,0,0,0,0,0,-1,1056,540,0,0
-161,484,0,0,0,0,0,0,0,0,0,-1,1063,540,0,0
-154,484,0,0,0,0,0,0,0,0,0,-1,1070,540,0,0
-147,484,0,0,0,0,0,0,0,0,0,-1,1077,540,0,0
-140,484,0,0,0,0,0,0,0,0,0,-1,1084,540,0,0
-133,484,0,0,0,0,0,0,0,0,0,-1,1091,540,0,0
-126,484,0,0,0,0,0,0,0,0,0,-1,1098,540,0,0
-119,484,0,0,0,0,0,0,0,0,0,-1,1105,540,0,0
-112,484,0,0,0,0,0,0,0,0,0,-1,1112,540,0,0
-105,484,0,0,0,0,0,0,0,0,0,-1,1119,540,0,0
-98,484,0,0,0,0,0,0,0,0,0,-1,1126,540,0,0
-91,484,0,0,0,0,0,0,0,0,0,-1,1133,540,0,0
-84,484,0,0,0,0,0,0,0,0,0,-1,1140,540,0,0
-77,484,0,0,0,0,0,0,0,0,0,-1,1147,540,0,0
-70,484,0,0,0,0,0,0,0,0,0,-1,1154,540,0,0
-63,484,0,0,0,0,0,0,0,0,0,-1,1161,540,0,0
-56,484,0,0,0,0,0,0,0,0,0,-1,1168,540,0,0
-49,484,0,0,0,0,0,0,0,0,0,-1,1175,540,0,0
-42,484,0,0,0,0,0,0,0,0,0,-1,1182,540,0,0
-35,484,0,0,0,0,0,0,0,0,0,-1,1189,540,0,0
-28,484,0,0,0,0,0,0,0,0,0,-1,1196,540,0,0
-21,484,0,0,0,0,0,0,0,0,0,-1,1203,540,0,0
-14,484,0,0,0,0,0,0,0,0,0,-1,1210,540,0,0
-7,484,0,0,0,0,0,0,0,0,0,-1,1217,540,0,0
0,484,0,0,0,0,0,0,0,0,0,-1,1224,540,0,0
7,484,0,0,0,0,0,0,0,0,0,-1,1231,540,0,0
14,484,0,0,0,0,0,0,0,0,0,-1,1238,540,0,0
21,484,0,0,0,0,0,0,0,0,0,-1,1245,540,0,0
28,484,0,0,0,0,0,0,0,0,0,-1,1252,540,0,0
35,484,0,0,0,0,0,0,0,0,0,-1,1259,540,0,0
42,484,0,0,0,0,0,0,0,0,0,-1,1266,540,0,0
49,484,0,0,0,0,0,0,0,0,0,-1,1273,540,0,0
56,484,0,0,0,0,0,0,0,0,0,-1,1280,540,0,0
63,484,0,0,0,0,0,0,0,0,0,-1,1287,540,0,0
70,484,0,0,0,0,0,0,0,0,0,-1,1294,540,0,0
77,484,0,0,0,0,0,0,0,0,0,-1,1301,540,0,0
84,484,0,0,0,0,0,0,0,0,0,-1,1308,540,0,0
91,484,0,0,0,0,0,0,0,0,0,-1,1315,540,0,0
98,484,0,0,0,0,0,0,0,0,0,-1,1322,540,0,0
105,484,0,0,0,0,0,0,0,0,0,-1,1329,540,0,0
112,484,0,0,0,0,0,0,0,0,0,-1,1336,540,0,0
119,484,0,0,0,0,0,0,0,0,0,-1,1343,540,0,0
126,484,0,0,0,0,0,0,0,0,0,-1,1350,540,0,0
133,484,0,0,0,0,0,0,0,0,0,-1,1357,540,0,0
140,484,0,0,0,0,0,0,0,0,0,-1,1364,540,0,0
147,484,0,0,0,0,0,0,0,0,0,-1,1371,540,0,0
154,484,0,0,0,0,0,0,0,0,0,-1,1378,540,0,0
161,484,0,0,0,0,0,0,0,0,0,-1,1385,540,0,0
168,484,0,0,0,0,0,0,0,0,0,-1,1392,540,0,0
175,484,0,0,0,0,0,0,0,0,0,-1,1399,540,0,0
182,484,0,0,0,0,0,0,0,0,0,-1,1406,540,0,0
189,484,0,0,0,0,0,0,0,0,0,-1,1413,540,0,0
196,484,0,0,0,0,0,0,0,0,0,-1,1420,540,0,0
203,484,0,0,0,0,0,0,0,0,0,-1,1427,540,0,0
210,484,0,0,0,0,0,0,0,0,0,-1,1434,540,0,0
217,484,0,0,0,0,0,0,0,0,0,-1,1441,540,0,0
224,484,0,0,0,0,0,0,0,0,0,-1,1448,540,0,0
231,484,0,0,0,0,0,0,0,0,0,-1,1455,540,0,0
238,484,0,0,0,0,0,0,0,0,0,-1,1462,540,0,0
245,484,0,0,0,0,0,0,0,0,0,-1,1469,540,0,0
252,484,0,0,0,0,0,0,0,0,0,-1,1476,540,0,0
259,484,0,0,0,0,0,0,0,0,0,-1,1483,540,0,0
266,484,0,0,0,0,0,0,0,0,0,-1,1490,540,0,0
273,484,0,0,0,0,0,0,0,0,0,-1,1497,540,0,0
280,484,0,0,0,0,0,0,0,0,0,-1,1504,540,0,0
287,484,0,0,0,0,0,0,0,0,0,-1,1511,540,0,0
294,484,0,0,0,0,0,0,0,0,0,-1,1518,540,0,0
301,484,0,0,0,0,0,0,0,0,0,-1,1525,540,0,0
308,484,0,0,0,0,0,0,0,0,0,-1,1532,540,0,0
315,484,0,0,0,0,0,0,0,0,0,-1,1539,540,0,0
322,484,0,0,0,0,0,0,0,0,0,-1,1546,540,0,0
329,484,0,0,0,0,0,0,0,0,0,-1,1553,540,0,0
336,484,4.38708,-1.64136,0,0,0,0,0,0,0,-1,1560,540,4.38704,1.64138
343,484,7.57996,-1.05457,0,0,0,0,0,0,0,-1,1567,540,7.57995,1.05454
350,484,8.10425,-1.18878,0,0,0,0,0,0,0,-1,1574,540,8.1043,1.18877
357,484,7.74902,-3.80286,0,0,0,0,0,0,0,-1,1581,540,7.74901,3.80287
364,484,6.31262,-3.87213,0,0,0,0,0,0,0,-1,1588,540,6.31263,3.87215
371,484,7.21008,0.973511,0,0,0,0,0,0,0,-1,1595,540,7.21014,-0.973541
378,484,11.0563,1.5014,0,0,0,0,0,0,0,-1,1602,540,11.0563,-1.5014
385,484,14.3469,2.5545,0,0,0,0,0,0,0,-1,1609,540,14.3469,-2.55453
392,484,7.39453,-4.95026,0,0,0,0,0,0,0,-1,1616,540,7.39448,4.95023
399,484,7.14417,-2.5639,0,0,0,0,0,0,0,-1,1623,540,7.14417,2.56391
406,484,7.88953,-2.47321,0,0,0,0,0,0,0,-1,1630,540,7.88954,2.47323
413,484,4.4895,-1.08673,0,0,0,0,0,0,0,-1,1637,540,4.48952,1.08674
420,484,4.50012,-2.11255,0,0,0,0,0,0,0,-1,1644,540,4.50012,2.11256
427,484,5.28601,-3.54053,0,0,0,0,0,0,0,-1,1651,540,5.28599,3.54051
434,484,11.1488,-13.5359,0,0,0,0,0,0,0,-1,1658,540,11.1489,13.5359
441,484,21.2445,-32.3012,0,0,0,0,0,0,0,-1,1665,540,21.2445,32.3012
448,484,21.2535,-32.009,0,0,0,0,0,0,0,-1,1672,540,21.2536,32.009
455,484,21.1902,-31.3035,0,0,0,0,0,0,0,-1,1679,540,21.1902,31.3034
462,484,21.2468,-30.4037,0.00150744,0.000186556,-0.00130596,0.00231046,-0.000616463,-0.551295,0.0017817,0.0290045,1686,540,21.2468,30.4037
469,484,21.2377,-29.5982,0.00125237,0.000507569,-0.00085141,0.00180926,-4.93212e-05,-0.579238,0.00122295,0.0189884,1693,540,21.2377,29.5982
476,484,21.1737,-28.7301,0.00128113,0.000802175,-0.000363623,0.00147705,0.000606254,-0.494205,0.000857322,0.0169538,1700,540,21.1737,28.7301
483,484,21.125,-27.8854,0.00133402,0.000990025,7.38778e-05,0.00134921,0.00097483,0.202852,0.00080427,0.0137788,1707,540,21.125,27.8854
490,484,21.0905,-27.098,0.00129928,0.0012703,0.000463914,0.00174893,0.000820647,0.769786,0.00101038,0.0137126,1714,540,21.0904,27.098
497,484,21.0449,-26.2587,0.00136069,0.00162047,0.000969759,0.002469,0.000512163,0.851972,0.00150462,0.0147919,1721,540,21.045,26.2587
504,484,20.9939,-25.392,0.00151255,0.00170168,0.00139819,0.0030085,0.000205727,0.819164,0.00194073,0.0170514,1728,540,20.9939,25.392
511,484,20.9634,-24.5425,0.00156684,0.00185564,0.00176257,0.00347972,-5.72372e-05,0.82627,0.00233913,0.0192907,1735,540,20.9634,24.5426
518,484,20.9065,-23.697,0.00147579,0.00210088,0.00203575,0.00384794,-0.000271262,0.861568,0.00266033,0.0164853,1742,540,20.9065,23.6969
525,484,20.8519,-22.8314,0.00138259,0.00242137,0.00228534,0.0042456,-0.00044164,0.897135,0.00298851,0.0145182,1749,540,20.852,22.8314
532,484,20.8119,-21.9147,0.00125983,0.00295162,0.00253415,0.00477733,-0.000565878,0.946482,0.0033893,0.0161669,1756,540,20.8119,21.9147
539,484,20.7212,-21.003,0.00101932,0.0036122,0.00266673,0.00528092,-0.000649403,1.01165,0.00375584,0.0420073,1763,540,20.7212,21.003
546,484,20.6487,-19.9811,0,0,0,0,0,0,0,-1,1770,540,20.6486,19.9811
553,484,12.4246,-8.96423,0,0,0,0,0,0,0,-1,1777,540,12.4246,8.96422
560,484,10.0549,-5.47931,0,0,0,0,0,0,0,-1,1784,540,10.055,5.47928
567,484,7.78223,-1.38312,0,0,0,0,0,0,0,-1,1791,540,7.78224,1.38311
574,484,5.74463,1.50922,0,0,0,0,0,0,0,-1,1798,540,5.74463,-1.50924
581,484,10.34,2.9491,0,0,0,0,0,0,0,-1,1805,540,10.34,-2.94912
588,484,10.6669,2.88568,0,0,0,0,0,0,0,-1,1812,540,10.6669,-2.88567
595,484,10.7233,1.04767,0,0,0,0,0,0,0,-1,1819,540,10.7233,-1.04766
602,484,0,0,0,0,0,0,0,0,0,-1,1826,540,0,0
609,484,0,0,0,0,0,0,0,0,0,-1,1833,540,0,0
616,484,0,0,0,0,0,0,0,0,0,-1,1840,540,0,0
623,484,0,0,0,0,0,0,0,0,0,-1,1847,540,0,0
630,484,0,0,0,0,0,0,0,0,0,-1,1854,540,0,0
637,484,0,0,0,0,0,0,0,0,0,-1,1861,540,0,0
644,484,0,0,0,0,0,0,0,0,0,-1,1868,540,0,0
651,484,0,0,0,0,0,0,0,0,0,-1,1875,540,0,0
658,484,0,0,0,0,0,0,0,0,0,-1,1882,540,0,0
665,484,0,0,0,0,0,0,0,0,0,-1,1889,540,0,0
672,484,0,0,0,0,0,0,0,0,0,-1,1896,540,0,0
679,484,0,0,0,0,0,0,0,0,0,-1,1903,540,0,0
686,484,0,0,0,0,0,0,0,0,0,-1,1910,540,0,0
693,484,0,0,0,0,0,0,0,0,0,-1,1917,540,0,0
700,484,0,0,0,0,0,0,0,0,0,-1,1924,540,0,0
707,484,0,0,0,0,0,0,0,0,0,-1,1931,540,0,0
714,484,0,0,0,0,0,0,0,0,0,-1,1938,540,0,0
721,484,0,0,0,0,0,0,0,0,0,-1,1945,540,0,0
728,484,0,0,0,0,0,0,0,0,0,-1,1952,540,0,0
735,484,0,0,0,0,0,0,0,0,0,-1,1959,540,0,0
742,484,0,0,0,0,0,0,0,0,0,-1,1966,540,0,0
749,484,0,0,0,0,0,0,0,0,0,-1,1973,540,0,0
756,484,0,0,0,0,0,0,0,0,0,-1,1980,540,0,0
763,484,0,0,0,0,0,0,0,0,0,-1,1987,540,0,0
770,484,0,0,0,0,0,0,0,0,0,-1,1994,540,0,0
777,484,0,0,0,0,0,0,0,0,0,-1,2001,540,0,0
784,484,0,0,0,0,0,0,0,0,0,-1,2008,540,0,0
791,484,0,0,0,0,0,0,0,0,0,-1,2015,540,0,0
798,484,0,0,0,0,0,0,0,0,0,-1,2022,540,0,0
805,484,0,0,0,0,0,0,0,0,0,-1,2029,540,0,0
812,484,0,0,0,0,0,0,0,0,0,-1,2036,540,0,0
-700,477,0,0,0,0,0,0,0,0,0,-1,524,547,0,0
-693,477,0,0,0,0,0,0,0,0,0,-1,531,547,0,0
-686,477,0,0,0,0,0,0,0,0,0,-1,538,547,0,0
-679,477,0,0,0,0,0,0,0,0,0,-1,545,547,0,0
-672,477,0,0,0,0,0,0,0,0,0,-1,552,547,0,0
-665,477,0,0,0,0,0,0,0,0,0,-1,559,547,0,0
-658,477,0,0,0,0,0,0,0,0,0,-1,566,547,0,0
-651,477,0,0,0,0,0,0,0,0,0,-1,573,547,0,0
-644,477,0,0,0,0,0,0,0,0,0,-1,580,547,0,0
-637,477,0,0,0,0,0,0,0,0,0,-1,587,547,0,0
-630,477,0,0,0,0,0,0,0,0,0,-1,594,547,0,0
-623,477,0,0,0,0,0,0,0,0,0,-1,601,547,0,0
-616,477,0,0,0,0,0,0,0,0,0,-1,608,547,0,0
-609,477,0,0,0,0,0,0,0,0,0,-1,615,547,0,0
-602,477,0,0,0,0,0,0,0,0,0,-1,622,547,0,0
-595,477,0,0,0,0,0,0,0,0,0,-1,629,547,0,0
-588,477,0,0,0,0,0,0,0,0,0,-1,636,547,0,0
-581,477,0,0,0,0,0,0,0,0,0,-1,643,547,0,0
-574,477,0,0,0,0,0,0,0,0,0,-1,650,547,0,0
-567,477,0,0,0,0,0,0,0,0,0,-1,657,547,0,0
-560,477,0,0,0,0,0,0,0,0,0,-1,664,547,0,0
-553,477,0,0,0,0,0,0,0,0,0,-1,671,547,0,0
-546,477,0,0,0,0,0,0,0,0,0,-1,678,547,0,0
-539,477,0,0,0,0,0,0,0,0,0,-1,685,547,0,0
-532,477,0,0,0,0,0,0,0,0,0,-1,692,547,0,0
-525,477,0,0,0,0,0,0,0,0,0,-1,699,547,0,0
-518,477,0,0,0,0,0,0,0,0,0,-1,706,547,0,0
-511,477,0,0,0,0,0,0,0,0,0,-1,713,547,0,0
-504,477,0,0,0,0,0,0,0,0,0,-1,720,547,0,0
-497,477,0,0,0,0,0,0,0,0,0,-1,727,547,0,0
-490,477,0,0,0,0,0,0,0,0,0,-1,734,547,0,0
-483,477,-7.73151,-0.224182,0,0,0,0,0,0,0,-1,741,547,-7.73152,0.224176
-476,477,-6.25806,-0.310547,0,0,0,0,0,0,0,-1,748,547,-6.25804,0.310549
-469,477,-7.26617,0.525085,0,0,0,0,0,0,0,-1,755,547,-7.2662,-0.525111
-462,477,-6.65143,1.06042,0,0,0,0,0,0,0,-1,762,547,-6.65143,-1.06043
-455,477,-5.31757,0.429016,0,0,0,0,0,0,0,-1,769,547,-5.31756,-0.42902
-448,477,-4.0697,0.273376,0,0,0,0,0,0,0,-1,776,547,-4.06971,-0.273363
-441,477,-2.47504,-4.76971,0,0,0,0,0,0,0,-1,783,547,-2.47505,4.76973
-434,477,-6.41357,-19.1988,0,0,0,0,0,0,0,-1,790,547,-6.41358,19.1988
-427,477,-6.64478,-19.7104,0.000147775,0.0126897,-0.00507296,0.0144847,-0.00164723,-1.23071,0.0102498,0.0458865,797,547,-6.6448,19.7105
-420,477,-6.72754,-20.4103,0.00058672,0.010836,-0.00510818,0.012947,-0.00152435,-1.1789,0.00918176,0.0374641,804,547,-6.72757,20.4104
-413,477,-6.74445,-21.5852,0.000951346,0.00908363,-0.00492854,0.0114069,-0.00137188,-1.1303,0.00810068,0.0224765,811,547,-6.74442,21.5852
-406,477,-6.83997,-22.558,0.00113379,0.00738818,-0.00444801,0.00969828,-0.0011763,-1.09178,0.00689117,0.0122552,818,547,-6.83996,22.558
-399,477,-6.86761,-23.412,0.00120762,0.00584152,-0.00382923,0.0080002,-0.000951061,-1.05747,0.0056771,0.0198497,825,547,-6.8676,23.412
-392,477,-6.93909,-24.2778,0.00131822,0.00444716,-0.003221,0.00646353,-0.00069815,-1.01147,0.00455959,0.0187374,832,547,-6.93908,24.2777
-385,477,-6.98718,-25.1232,0.00148589,0.00321498,-0.00260127,0.00509161,-0.000390741,-0.945833,0.00353186,0.0153544,839,547,-6.98718,25.1232
-378,477,-7.00818,-25.9572,0.00162692,0.00201407,-0.00189719,0.00372754,-8.65374e-05,-0.836239,0.00251437,0.0138743,846,547,-7.0082,25.9572
-371,477,-7.06561,-26.7554,0.00169067,0.00085059,-0.00121069,0.00255211,-1.08511e-05,-0.618424,0.00170503,0.013894,853,547,-7.06561,26.7553
-364,477,-7.11847,-27.5634,0.00172169,-0.000294523,-0.000483433,0.00183161,-0.000404444,-0.223575,0.00137585,0.014152,860,547,-7.11849,27.5634
-357,477,-7.18201,-28.4056,0.00184788,-0.00126271,0.000173752,0.00185755,-0.00127239,0.0556275,0.00181757,0.0120238,867,547,-7.182,28.4056
-350,477,-7.23602,-29.225,0.00215203,-0.00210771,0.000625757,0.00224205,-0.00219773,0.14288,0.00256335,0.0116511,874,547,-7.23602,29.225
-343,477,-7.1991,-30.0859,0.00240532,-0.002935,0.00108828,0.00261858,-0.00314826,0.193508,0.00333417,0.0227623,881,547,-7.19908,30.0859
-336,477,-7.19922,-30.9172,0.00276135,-0.00382865,0.00143574,0.00306056,-0.00412786,0.205463,0.00416546,0.0447051,888,547,-7.19922,30.9172
-329,477,-7.18982,-31.7217,0,0,0,0,0,0,0,-1,895,547,-7.18979,31.7217
-322,477,-5.91638,-27.4468,0,0,0,0,0,0,0,-1,902,547,-5.91639,27.4468
-315,477,-1.67358,-9.15253,0,0,0,0,0,0,0,-1,909,547,-1.67356,9.15253
-308,477,-1.30127,-6.55188,0,0,0,0,0,0,0,-1,916,547,-1.30128,6.55185
-301,477,-1.21185,-6.28351,0,0,0,0,0,0,0,-1,923,547,-1.21184,6.28352
-294,477,-0.352905,3.27142,0,0,0,0,0,0,0,-1,930,547,-0.35292,-3.27144
-287,477,3.54364,2.15399,0,0,0,0,0,0,0,-1,937,547,3.54362,-2.15396
-280,477,1.97308,-0.954163,0,0,0,0,0,0,0,-1,944,547,1.9731,0.954178
-273,477,2.11621,-3.76709,0,0,0,0,0,0,0,-1,951,547,2.11619,3.76706
-266,477,2.04669,-3.42389,0,0,0,0,0,0,0,-1,958,547,2.04671,3.42391
-259,477,-1.33478,-3.41205,0,0,0,0,0,0,0,-1,965,547,-1.3348,3.41206
-252,477,0.597168,-5.32922,0,0,0,0,0,0,0,-1,972,547,0.597144,5.32924
-245,477,8.2309,-8.48492,0,0,0,0,0,0,0,-1,979,547,8.23091,8.48494
-238,477,6.60938,-5.64063,0,0,0,0,0,0,0,-1,986,547,6.60938,5.64063
-231,477,4.71716,-2.52484,0,0,0,0,0,0,0,-1,993,547,4.71716,2.52483
-224,477,0,0,0,0,0,0,0,0,0,-1,1000,547,0,0
-217,477,0,0,0,0,0,0,0,0,0,-1,1007,547,0,0
-210,477,0,0,0,0,0,0,0,0,0,-1,1014,547,0,0
-203,477,0,0,0,0,0,0,0,0,0,-1,1021,547,0,0
-196,477,0,0,0,0,0,0,0,0,0,-1,1028,547,0,0
-189,477,0,0,0,0,0,0,0,0,0,-1,1035,547,0,0
-182,477,0,0,0,0,0,0,0,0,0,-1,1042,547,0,0
-175,477,0,0,0,0,0,0,0,0,0,-1,1049,547,0,0
-168,477,0,0,0,0,0,0,0,0,0,-1,1056,547,0,0
-161,477,0,0,0,0,0,0,0,0,0,-1,1063,547,0,0
-154,477,0,0,0,0,0,0,0,0,0,-1,1070,547,0,0
-147,477,0,0,0,0,0,0,0,0,0,-1,1077,547,0,0
-140,477,0,0,0,0,0,0,0,0,0,-1,1084,547,0,0
-133,477,0,0,0,0,0,0,0,0,0,-1,1091,547,0,0
-126,477,0,0,0,0,0,0,0,0,0,-1,1098,547,0,0
-119,477,0,0,0,0,0,0,0,0,0,-1,1105,547,0,0
-112,477,0,0,0,0,0,0,0,0,0,-1,1112,547,0,0
-105,477,0,0,0,0,0,0,0,0,0,-1,1119,547,0,0
-98,477,0,0,0,0,0,0,0,0,0,-1,1126,547,0,0
-91,477,0,0,0,0,0,0,0,0,0,-1,1133,547,0,0
-84,477,0,0,0,0,0,0,0,0,0,-1,1140,547,0,0
-77,477,0,0,0,0,0,0,0,0,0,-1,1147,547,0,0
-70,477,0,0,0,0,0,0,0,0,0,-1,1154,547,0,0
-63,477,0,0,0,0,0,0,0,0,0,-1,1161,547,0,0
-56,477,0,0,0,0,0,0,0,0,0,-1,1168,547,0,0
-49,477,0,0,0,0,0,0,0,0,0,-1,1175,547,0,0
-42,477,0,0,0,0,0,0,0,0,0,-1,1182,547,0,0
-35,477,0,0,0,0,0,0,0,0,0,-1,1189,547,0,0
-28,477,0,0,0,0,0,0,0,0,0,-1,1196,547,0,0
-21,477,0,0,0,0,0,0,0,0,0,-1,1203,547,0,0
-14,477,0,0,0,0,0,0,0,0,0,-1,1210,547,0,0
-7,477,0,0,0,0,0,0,0,0,0,-1,1217,547,0,0
0,477,0,0,0,0,0,0,0,0,0,-1,1224,547,0,0
7,477,0,0,0,0,0,0,0,0,0,-1,1231,547,0,0
14,477,0,0,0,0,0,0,0,0,0,-1,1238,547,0,0
21,477,0,0,0,0,0,0,0,0,0,-1,1245,547,0,0
28,477,0,0,0,0,0,0,0,0,0,-1,1252,547,0,0
35,477,0,0,0,0,0,0,0,0,0,-1,1259,547,0,0
42,477,0,0,0,0,0,0,0,0,0,-1,1266,547,0,0
49,477,0,0,0,0,0,0,0,0,0,-1,1273,547,0,0
56,477,0,0,0,0,0,0,0,0,0,-1,1280,547,0,0
63,477,0,0,0,0,0,0,0,0,0,-1,1287,547,0,0
70,477,0,0,0,0,0,0,0,0,0,-1,1294,547,0,0
77,477,0,0,0,0,0,0,0,0,0,-1,1301,547,0,0
84,477,0,0,0,0,0,0,0,0,0,-1,1308,547,0,0
91,477,0,0,0,0,0,0,0,0,0,-1,1315,547,0,0
98,477,0,0,0,0,0,0,0,0,0,-1,1322,547,0,0
105,477,0,0,0,0,0,0,0,0,0,-1,1329,547,0,0
112,477,0,0,0,0,0,0,0,0,0,-1,1336,547,0,0
119,477,0,0,0,0,0,0,0,0,0,-1,1343,547,0,0
126,477,0,0,0,0,0,0,0,0,0,-1,1350,547,0,0
133,477,0,0,0,0,0,0,0,0,0,-1,1357,547,0,0
140,477,0,0,0,0,0,0,0,0,0,-1,1364,547,0,0
147,477,0,0,0,0,0,0,0,0,0,-1,1371,547,0,0
154,477,0,0,0,0,0,0,0,0,0,-1,1378,547,0,0
161,477,0,0,0,0,0,0,0,0,0,-1,1385,547,0,0
168,477,0,0,0,0,0,0,0,0,0,-1,1392,547,0,0
175,477,0,0,0,0,0,0,0,0,0,-1,1399,547,0,0
182,477,0,0,0,0,0,0,0,0,0,-1,1406,547,0,0
189,477,0,0,0,0,0,0,0,0,0,-1,1413,547,0,0
196,477,0,0,0,0,0,0,0,0,0,-1,1420,547,0,0
203,477,0,0,0,0,0,0,0,0,0,-1,1427,547,0,0
210,477,0,0,0,0,0,0,0,0,0,-1,1434,547,0,0
217,477,0,0,0,0,0,0,0,0,0,-1,1441,547,0,0
224,477,0,0,0,0,0,0,0,0,0,-1,1448,547,0,0
231,477,0,0,0,0,0,0,0,0,0,-1,1455,547,0,0
238,477,0,0,0,0,0,0,0,0,0,-1,1462,547,0,0
245,477,0,0,0,0,0,0,0,0,0,-1,1469,547,0,0
252,477,0,0,0,0,0,0,0,0,0,-1,1476,547,0,0
259,477,0,0,0,0,0,0,0,0,0,-1,1483,547,0,0
266,477,0,0,0,0,0,0,0,0,0,-1,1490,547,0,0
273,477,0,0,0,0,0,0,0,0,0,-1,1497,547,0,0
280,477,0,0,0,0,0,0,0,0,0,-1,1504,547,0,0
287,477,0,0,0,0,0,0,0,0,0,-1,1511,547,0,0
294,477,0,0,0,0,0,0,0,0,0,-1,1518,547,0,0
301,477,0,0,0,0,0,0,0,0,0,-1,1525,547,0,0
308,477,0,0,0,0,0,0,0,0,0,-1,1532,547,0,0
315,477,0,0,0,0,0,0,0,0,0,-1,1539,547,0,0
322,477,0,0,0,0,0,0,0,0,0,-1,1546,547,0,0
329,477,0,0,0,0,0,0,0,0,0,-1,1553,547,0,0
336,477,0,0,0,0,0,0,0,0,0,-1,1560,547,0,0
343,477,0,0,0,0,0,0,0,0,0,-1,1567,547,0,0
350,477,1.7699,-3.32275,0,0,0,0,0,0,0,-1,1574,547,1.7699,3.32272
357,477,3.073,-4.83313,0,0,0,0,0,0,0,-1,1581,547,3.07303,4.83316
364,477,4.30127,-4.22864,0,0,0,0,0,0,0,-1,1588,547,4.30125,4.22865
371,477,4.57703,0.283264,0,0,0,0,0,0,0,-1,1595,547,4.57706,-0.283262
378,477,8.57947,1.05969,0,0,0,0,0,0,0,-1,1602,547,8.5795,-1.05972
385,477,12.3726,2.02356,0,0,0,0,0,0,0,-1,1609,547,12.3725,-2.02355
392,477,16.4678,2.76843,0,0,0,0,0,0,0,-1,1616,547,16.4678,-2.76845
399,477,8.00037,-2.29523,0,0,0,0,0,0,0,-1,1623,547,8.00031,2.2952
406,477,4.82495,2.7475,0,0,0,0,0,0,0,-1,1630,547,4.825,-2.74752
413,477,4.88171,-0.336426,0,0,0,0,0,0,0,-1,1637,547,4.88169,0.336398
420,477,3.34875,0.102722,0,0,0,0,0,0,0,-1,1644,547,3.34871,-0.1027
427,477,1.66772,-0.373108,0,0,0,0,0,0,0,-1,1651,547,1.66768,0.373104
434,477,3.76978,-2.30798,0,0,0,0,0,0,0,-1,1658,547,3.76974,2.30801
441,477,4.05444,-2.80402,0,0,0,0,0,0,0,-1,1665,547,4.05444,2.804
448,477,10.4247,-11.7421,0,0,0,0,0,0,0,-1,1672,547,10.4247,11.7421
455,477,13.3054,-16.8109,0,0,0,0,0,0,0,-1,1679,547,13.3054,16.8109
462,477,22.0586,-30.5303,0,0,0,0,0,0,0,-1,1686,547,22.0586,30.5303
469,477,22.0189,-29.7365,0,0,0,0,0,0,0,-1,1693,547,22.0189,29.7365
476,477,22.0195,-28.7364,0.00123075,0.000703141,-0.00072706,0.00174038,0.000193505,-0.611367,0.00110143,0.0284387,1700,547,22.0195,28.7364
483,477,21.9882,-27.8598,0.00127645,0.000897427,-0.0002397,0.0013925,0.000781372,-0.450901,0.000805963,0.0143673,1707,547,21.9882,27.8598
490,477,21.9164,-27.0635,0.00120906,0.00117553,0.000158394,0.00135158,0.00103302,0.732676,0.000815865,0.0141711,1714,547,21.9164,27.0635
497,477,21.8817,-26.1887,0.00124115,0.00156536,0.000698951,0.00212076,0.000685756,0.899346,0.00124963,0.0144652,1721,547,21.8817,26.1887
504,477,21.8428,-25.3429,0.00133532,0.00159323,0.00110289,0.00257468,0.000353865,0.843596,0.0016115,0.0195193,1728,547,21.8427,25.3429
511,477,21.8179,-24.5191,0.00133115,0.00167483,0.00143161,0.00294488,6.11024e-05,0.84513,0.00194321,0.0239818,1735,547,21.8179,24.5191
518,477,21.7529,-23.6539,0.0011807,0.00183177,0.00167569,0.00321325,-0.000200775,0.881338,0.00221213,0.0208083,1742,547,21.753,23.6539
525,477,21.6971,-22.7601,0.00103109,0.00206759,0.00188283,0.00350219,-0.000403516,0.919698,0.00248027,0.0179715,1749,547,21.6971,22.7601
532,477,21.6388,-21.9009,0.000866253,0.00248755,0.00207683,0.00390633,-0.000552528,0.97147,0.00280659,0.0204462,1756,547,21.6388,21.9009
539,477,21.5886,-20.9558,0.000631302,0.00299969,0.00219881,0.00431291,-0.000681917,1.03241,0.00312746,0.019012,1763,547,21.5886,20.9558
546,477,21.4734,-20.1699,0.000370047,0.00380498,0.00236812,0.00501286,-0.000837837,1.09913,0.00365335,0.0432075,1770,547,21.4734,20.1698
553,477,21.4781,-18.9161,0,0,0,0,0,0,0,-1,1777,547,21.4782,18.9162
560,477,19.4597,-16.1135,0,0,0,0,0,0,0,-1,1784,547,19.4597,16.1135
567,477,13.9529,-8.70972,0,0,0,0,0,0,0,-1,1791,547,13.9529,8.7097
574,477,6.82593,-0.916992,0,0,0,0,0,0,0,-1,1798,547,6.82598,0.916977
581,477,9.29321,-0.557007,0,0,0,0,0,0,0,-1,1805,547,9.29324,0.55703
588,477,9.75195,0.422729,0,0,0,0,0,0,0,-1,1812,547,9.75198,-0.42273
595,477,9.89172,1.21326,0,0,0,0,0,0,0,-1,1819,547,9.89174,-1.21328
602,477,6.5271,-0.964417,0,0,0,0,0,0,0,-1,1826,547,6.52706,0.964427
609,477,0,0,0,0,0,0,0,0,0,-1,1833,547,0,0
616,477,0,0,0,0,0,0,0,0,0,-1,1840,547,0,0
623,477,0,0,0,0,0,0,0,0,0,-1,1847,547,0,0
630,477,0,0,0,0,0,0,0,0,0,-1,1854,547,0,0
637,477,0,0,0,0,0,0,0,0,0,-1,1861,547,0,0
644,477,0,0,0,0,0,0,0,0,0,-1,1868,547,0,0
651,477,0,0,0,0,0,0,0,0,0,-1,1875,547,0,0
658,477,0,0,0,0,0,0,0,0,0,-1,1882,547,0,0
665,477,0,0,0,0,0,0,0,0,0,-1,1889,547,0,0
672,477,0,0,0,0,0,0,0,0,0,-1,1896,547,0,0
679,477,0,0,0,0,0,0,0,0,0,-1,1903,547,0,0
686,477,0,0,0,0,0,0,0,0,0,-1,1910,547,0,0
693,477,0,0,0,0,0,0,0,0,0,-1,1917,547,0,0
700,477,0,0,0,0,0,0,0,0,0,-1,1924,547,0,0
707,477,0,0,0,0,0,0,0,0,0,-1,1931,547,0,0
714,477,0,0,0,0,0,0,0,0,0,-1,1938,547,0,0
721,477,0,0,0,0,0,0,0,0,0,-1,1945,547,0,0
728,477,0,0,0,0,0,0,0,0,0,-1,1952,547,0,0
735,477,0,0,0,0,0,0,0,0,0,-1,1959,547,0,0
742,477,0,0,0,0,0,0,0,0,0,-1,1966,547,0,0
749,477,0,0,0,0,0,0,0,0,0,-1,1973,547,0,0
756,477,0,0,0,0,0,0,0,0,0,-1,1980,547,0,0
763,477,0,0,0,0,0,0,0,0,0,-1,1987,547,0,0
770,477,0,0,0,0,0,0,0,0,0,-1,1994,547,0,0
777,477,0,0,0,0,0,0,0,0,0,-1,2001,547,0,0
784,477,0,0,0,0,0,0,0,0,0,-1,2008,547,0,0
791,477,0,0,0,0,0,0,0,0,0,-1,2015,547,0,0
798,477,0,0,0,0,0,0,0,0,0,-1,2022,547,0,0
805,477,0,0,0,0,0,0,0,0,0,-1,2029,547,0,0
812,477,0,0,0,0,0,0,0,0,0,-1,2036,547,0,0
-700,470,0,0,0,0,0,0,0,0,0,-1,524,554,0,0
-693,470,0,0,0,0,0,0,0,0,0,-1,531,554,0,0
-686,470,0,0,0,0,0,0,0,0,0,-1,538,554,0,0
-679,470,0,0,0,0,0,0,0,0,0,-1,545,554,0,0
-672,470,0,0,0,0,0,0,0,0,0,-1,552,554,0,0
-665,470,0,0,0,0,0,0,0,0,0,-1,559,554,0,0
-658,470,0,0,0,0,0,0,0,0,0,-1,566,554,0,0
-651,470,0,0,0,0,0,0,0,0,0,-1,573,554,0,0
-644,470,0,0,0,0,0,0,0,0,0,-1,580,554,0,0
-637,470,0,0,0,0,0,0,0,0,0,-1,587,554,0,0
-630,470,0,0,0,0,0,0,0,0,0,-1,594,554,0,0
-623,470,0,0,0,0,0,0,0,0,0,-1,601,554,0,0
-616,470,0,0,0,0,0,0,0,0,0,-1,608,554,0,0
-609,470,0,0,0,0,0,0,0,0,0,-1,615,554,0,0
-602,470,0,0,0,0,0,0,0,0,0,-1,622,554,0,0
-595,470,0,0,0,0,0,0,0,0,0,-1,629,554,0,0
-588,470,0,0,0,0,0,0,0,0,0,-1,636,554,0,0
-581,470,0,0,0,0,0,0,0,0,0,-1,643,554,0,0
-574,470,0,0,0,0,0,0,0,0,0,-1,650,554,0,0
-567,470,0,0,0,0,0,0,0,0,0,-1,657,554,0,0
-560,470,0,0,0,0,0,0,0,0,0,-1,664,554,0,0
-553,470,0,0,0,0,0,0,0,0,0,-1,671,554,0,0
-546,470,0,0,0,0,0,0,0,0,0,-1,678,554,0,0
-539,470,0,0,0,0,0,0,0,0,0,-1,685,554,0,0
-532,470,0,0,0,0,0,0,0,0,0,-1,692,554,0,0
-525,470,0,0,0,0,0,0,0,0,0,-1,699,554,0,0
-518,470,0,0,0,0,0,0,0,0,0,-1,706,554,0,0
-511,470,0,0,0,0,0,0,0,0,0,-1,713,554,0,0
-504,470,0,0,0,0,0,0,0,0,0,-1,720,554,0,0
-497,470,0,0,0,0,0,0,0,0,0,-1,727,554,0,0
-490,470,-9.13263,-1.03125,0,0,0,0,0,0,0,-1,734,554,-9.1326,1.03127
-483,470,-7.68677,-1.03955,0,0,0,0,0,0,0,-1,741,554,-7.68678,1.03958
-476,470,-6.17969,-1.03394,0,0,0,0,0,0,0,-1,748,554,-6.17971,1.03395
-469,470,-6.23016,-0.651855,0,0,0,0,0,0,0,-1,755,554,-6.23014,0.651829
-462,470,-4.87915,-1.03705,0,0,0,0,0,0,0,-1,762,554,-4.87914,1.03702
-455,470,-4.14777,-1.37079,0,0,0,0,0,0,0,-1,769,554,-4.14779,1.37078
-448,470,-2.9314,-5.74518,0,0,0,0,0,0,0,-1,776,554,-2.93137,5.74518
-441,470,-6.77209,-16.3221,0,0,0,0,0,0,0,-1,783,554,-6.77212,16.3221
-434,470,-7.47522,-18.9004,0,0,0,0,0,0,0,-1,790,554,-7.4752,18.9004
-427,470,-7.54907,-19.8024,-0.000232963,0.00937554,-0.00348584,0.0105069,-0.00136436,-1.25695,0.00750089,0.0261687,797,554,-7.54906,19.8024
-420,470,-7.56311,-20.7245,0.000280275,0.00803995,-0.00356733,0.00943068,-0.00111046,-1.19907,0.00668808,0.0172281,804,554,-7.56311,20.7245
-413,470,-7.62323,-21.6324,0.000652457,0.00672027,-0.00343076,0.00826617,-0.00089345,-1.14744,0.00583146,0.0147617,811,554,-7.6232,21.6324
-406,470,-7.66724,-22.5052,0.000844143,0.00537456,-0.00303049,0.00689288,-0.000674172,-1.10634,0.00483567,0.0138324,818,554,-7.66727,22.5052
-399,470,-7.70227,-23.3665,0.000974589,0.00416786,-0.00255185,0.00558141,-0.000438955,-1.06494,0.00387555,0.0178062,825,554,-7.70226,23.3665
-392,470,-7.73505,-24.2263,0.0011454,0.00303583,-0.00207544,0.00437116,-0.000189933,-0.999077,0.00297944,0.0155758,832,554,-7.73502,24.2263
-385,470,-7.81396,-25.0437,0.00139264,0.00203587,-0.00160017,0.00334642,8.20867e-05,-0.884571,0.00220409,0.0116601,839,554,-7.81396,25.0437
-378,470,-7.85291,-25.8816,0.00163375,0.00103469,-0.00104168,0.00241812,0.000250334,-0.645403,0.00153545,0.0160909,846,554,-7.85289,25.8816
-371,470,-7.89691,-26.716,0.00182143,8.6985e-05,-0.000504679,0.00195759,-4.91745e-05,-0.26352,0.00132176,0.014317,853,554,-7.89689,26.716
-364,470,-7.95453,-27.5217,0.00201906,-0.000802538,1.9791e-05,0.0020192,-0.000802677,0.00701366,0.00167892,0.0150905,860,554,-7.95454,27.5218
-357,470,-8.0166,-28.3374,0.00235204,-0.00160659,0.000446778,0.00240184,-0.00165639,0.111001,0.00235616,0.0158057,867,554,-8.0166,28.3374
-350,470,-8.03986,-29.2071,0.00288263,-0.00237736,0.000667519,0.00296601,-0.00246074,0.124281,0.00313766,0.0139926,874,554,-8.03985,29.2071
-343,470,-7.93011,-30.0297,0,0,0,0,0,0,0,-1,881,554,-7.93011,30.0297
-336,470,-7.76941,-30.9209,0,0,0,0,0,0,0,-1,888,554,-7.76943,30.9209
-329,470,-2.78516,-12.3594,0,0,0,0,0,0,0,-1,895,554,-2.78517,12.3594
-322,470,-2.30829,-11.4527,0,0,0,0,0,0,0,-1,902,554,-2.30827,11.4527
-315,470,-1.04797,-8.29529,0,0,0,0,0,0,0,-1,909,554,-1.04797,8.29526
-308,470,-1.39368,-6.68152,0,0,0,0,0,0,0,-1,916,554,-1.39369,6.68149
-301,470,-0.0340576,3.34888,0,0,0,0,0,0,0,-1,923,554,-0.0340496,-3.3489
-294,470,-1.18378,3.22266,0,0,0,0,0,0,0,-1,930,554,-1.18376,-3.22268
-287,470,-2.15454,3.2204,0,0,0,0,0,0,0,-1,937,554,-2.15452,-3.22037
-280,470,-3.00537,3.099,0,0,0,0,0,0,0,-1,944,554,-3.00536,-3.09898
-273,470,-12.3932,3.65009,0,0,0,0,0,0,0,-1,951,554,-12.3932,-3.65011
-266,470,-11.5706,1.16028,0,0,0,0,0,0,0,-1,958,554,-11.5706,-1.16031
-259,470,-7.50415,-2.77167,0,0,0,0,0,0,0,-1,965,554,-7.50413,2.7717
-252,470,-0.371155,-5.87823,0,0,0,0,0,0,0,-1,972,554,-0.37114,5.87821
-245,470,1.33221,-6.81122,0,0,0,0,0,0,0,-1,979,554,1.33223,6.8112
-238,470,0,0,0,0,0,0,0,0,0,-1,986,554,0,0
-231,470,0,0,0,0,0,0,0,0,0,-1,993,554,0,0
-224,470,0,0,0,0,0,0,0,0,0,-1,1000,554,0,0
-217,470,0,0,0,0,0,0,0,0,0,-1,1007,554,0,0
-210,470,0,0,0,0,0,0,0,0,0,-1,1014,554,0,0
-203,470,0,0,0,0,0,0,0,0,0,-1,1021,554,0,0
-196,470,0,0,0,0,0,0,0,0,0,-1,1028,554,0,0
-189,470,0,0,0,0,0,0,0,0,0,-1,1035,554,0,0
-182,470,0,0,0,0,0,0,0,0,0,-1,1042,554,0,0
-175,470,0,0,0,0,0,0,0,0,0,-1,1049,554,0,0
-168,470,0,0,0,0,0,0,0,0,0,-1,1056,554,0,0
-161,470,0,0,0,0,0,0,0,0,0,-1,1063,554,0,0
-154,470,0,0,0,0,0,0,0,0,0,-1,1070,554,0,0
-147,470,0,0,0,0,0,0,0,0,0,-1,1077,554,0,0
-140,470,0,0,0,0,0,0,0,0,0,-1,1084,554,0,0
-133,470,0,0,0,0,0,0,0,0,0,-1,1091,554,0,0
-126,470,0,0,0,0,0,0,0,0,0,-1,1098,554,0,0
-119,470,0,0,0,0,0,0,0,0,0,-1,1105,554,0,0
-112,470,0,0,0,0,0,0,0,0,0,-1,1112,554,0,0
-105,470,0,0,0,0,0,0,0,0,0,-1,1119,554,0,0
-98,470,0,0,0,0,0,0,0,0,0,-1,1126,554,0,0
-91,470,0,0,0,0,0,0,0,0,0,-1,1133,554,0,0
-84,470,0,0,0,0,0,0,0,0,0,-1,1140,554,0,0
-77,470,0,0,0,0,0,0,0,0,0,-1,1147,554,0,0
-70,470,0,0,0,0,0,0,0,0,0,-1,1154,554,0,0
-63,470,0,0,0,0,0,0,0,0,0,-1,1161,554,0,0
-56,470,0,0,0,0,0,0,0,0,0,-1,1168,554,0,0
-49,470,0,0,0,0,0,0,0,0,0,-1,1175,554,0,0
-42,470,0,0,0,0,0,0,0,0,0,-1,1182,554,0,0
-35,470,0,0,0,0,0,0,0,0,0,-1,1189,554,0,0
-28,470,0,0,0,0,0,0,0,0,0,-1,1196,554,0,0
-21,470,0,0,0,0,0,0,0,0,0,-1,1203,554,0,0
-14,470,0,0,0,0,0,0,0,0,0,-1,1210,554,0,0
-7,470,0,0,0,0,0,0,0,0,0,-1,1217,554,0,0
0,470,0,0,0,0,0,0,0,0,0,-1,1224,554,0,0
7,470,0,0,0,0,0,0,0,0,0,-1,1231,554,0,0
14,470,0,0,0,0,0,0,0,0,0,-1,1238,554,0,0
21,470,0,0,0,0,0,0,0,0,0,-1,1245,554,0,0
28,470,0,0,0,0,0,0,0,0,0,-1,1252,554,0,0
35,470,0,0,0,0,0,0,0,0,0,-1,1259,554,0,0
42,470,0,0,0,0,0,0,0,0,0,-1,1266,554,0,0
49,470,0,0,0,0,0,0,0,0,0,-1,1273,554,0,0
56,470,0,0,0,0,0,0,0,0,0,-1,1280,554,0,0
63,470,0,0,0,0,0,0,0,0,0,-1,1287,554,0,0
70,470,0,0,0,0,0,0,0,0,0,-1,1294,554,0,0
77,470,0,0,0,0,0,0,0,0,0,-1,1301,554,0,0
84,470,0,0,0,0,0,0,0,0,0,-1,1308,554,0,0
91,470,0,0,0,0,0,0,0,0,0,-1,1315,554,0,0
98,470,0,0,0,0,0,0,0,0,0,-1,1322,554,0,0
105,470,0,0,0,0,0,0,0,0,0,-1,1329,554,0,0
112,470,0,0,0,0,0,0,0,0,0,-1,1336,554,0,0
119,470,0,0,0,0,0,0,0,0,0,-1,1343,554,0,0
126,470,0,0,0,0,0,0,0,0,0,-1,1350,554,0,0
133,470,0,0,0,0,0,0,0,0,0,-1,1357,554,0,0
140,470,0,0,0,0,0,0,0,0,0,-1,1364,554,0,0
147,470,0,0,0,0,0,0,0,0,0,-1,1371,554,0,0
154,470,0,0,0,0,0,0,0,0,0,-1,1378,554,0,0
161,470,0,0,0,0,0,0,0,0,0,-1,1385,554,0,0
168,470,0,0,0,0,0,0,0,0,0,-1,1392,554,0,0
175,470,0,0,0,0,0,0,0,0,0,-1,1399,554,0,0
182,470,0,0,0,0,0,0,0,0,0,-1,1406,554,0,0
189,470,0,0,0,0,0,0,0,0,0,-1,1413,554,0,0
196,470,0,0,0,0,0,0,0,0,0,-1,1420,554,0,0
203,470,0,0,0,0,0,0,0,0,0,-1,1427,554,0,0
210,470,0,0,0,0,0,0,0,0,0,-1,1434,554,0,0
217,470,0,0,0,0,0,0,0,0,0,-1,1441,554,0,0
224,470,0,0,0,0,0,0,0,0,0,-1,1448,554,0,0
231,470,0,0,0,0,0,0,0,0,0,-1,1455,554,0,0
238,470,0,0,0,0,0,0,0,0,0,-1,1462,554,0,0
245,470,0,0,0,0,0,0,0,0,0,-1,1469,554,0,0
252,470,0,0,0,0,0,0,0,0,0,-1,1476,554,0,0
259,470,0,0,0,0,0,0,0,0,0,-1,1483,554,0,0
266,470,0,0,0,0,0,0,0,0,0,-1,1490,554,0,0
273,470,0,0,0,0,0,0,0,0,0,-1,1497,554,0,0
280,470,0,0,0,0,0,0,0,0,0,-1,1504,554,0,0
287,470,0,0,0,0,0,0,0,0,0,-1,1511,554,0,0
294,470,0,0,0,0,0,0,0,0,0,-1,1518,554,0,0
301,470,0,0,0,0,0,0,0,0,0,-1,1525,554,0,0
308,470,0,0,0,0,0,0,0,0,0,-1,1532,554,0,0
315,470,0,0,0,0,0,0,0,0,0,-1,1539,554,0,0
322,470,0,0,0,0,0,0,0,0,0,-1,1546,554,0,0
329,470,0,0,0,0,0,0,0,0,0,-1,1553,554,0,0
336,470,0,0,0,0,0,0,0,0,0,-1,1560,554,0,0
343,470,0,0,0,0,0,0,0,0,0,-1,1567,554,0,0
350,470,0,0,0,0,0,0,0,0,0,-1,1574,554,0,0
357,470,0,0,0,0,0,0,0,0,0,-1,1581,554,0,0
364,470,1.33423,0.293335,0,0,0,0,0,0,0,-1,1588,554,1.33422,-0.293348
371,470,2.22498,-0.0305176,0,0,0,0,0,0,0,-1,1595,554,2.22494,0.0305046
378,470,6.27051,0.710083,0,0,0,0,0,0,0,-1,1602,554,6.27054,-0.710093
385,470,10.3657,1.47296,0,0,0,0,0,0,0,-1,1609,554,10.3657,-1.47299
392,470,15.3881,3.01935,0,0,0,0,0,0,0,-1,1616,554,15.388,-3.01937
399,470,18.4479,2.93793,0,0,0,0,0,0,0,-1,1623,554,18.4479,-2.93792
406,470,15.1896,1.36676,0,0,0,0,0,0,0,-1,1630,554,15.1896,-1.36679
413,470,6.55383,1.99207,0,0,0,0,0,0,0,-1,1637,554,6.5538,-1.99208
420,470,4.47095,0.845703,0,0,0,0,0,0,0,-1,1644,554,4.47098,-0.845718
427,470,3.51038,1.19684,0,0,0,0,0,0,0,-1,1651,554,3.51039,-1.19684
434,470,3.31775,-1.37427,0,0,0,0,0,0,0,-1,1658,554,3.31781,1.37426
441,470,2.55457,-2.05902,0,0,0,0,0,0,0,-1,1665,554,2.55461,2.05904
448,470,3.27258,-2.64032,0,0,0,0,0,0,0,-1,1672,554,3.27257,2.64029
455,470,10.3658,-9.82233,0,0,0,0,0,0,0,-1,1679,554,10.3659,9.82233
462,470,11.0651,-11.9958,0,0,0,0,0,0,0,-1,1686,554,11.0651,11.9958
469,470,15.4242,-19.0521,0,0,0,0,0,0,0,-1,1693,554,15.4242,19.0521
476,470,22.8372,-28.8,0,0,0,0,0,0,0,-1,1700,554,22.8372,28.8
483,470,22.8568,-27.8419,0.00143722,0.00100184,-0.000282681,0.00157632,0.00086274,-0.457281,0.000911443,0.0208505,1707,554,22.8568,27.8419
490,470,22.7653,-27.02,0.00138308,0.00124457,6.51204e-05,0.00140889,0.00121876,0.377317,0.000882733,0.0130134,1714,554,22.7652,27.0199
497,470,22.7274,-26.1427,0.00140421,0.00164174,0.000598332,0.00213298,0.00091297,0.883371,0.00123572,0.0137089,1721,554,22.7275,26.1427
504,470,22.7083,-25.3126,0.00143645,0.00159457,0.000939038,0.00245787,0.000573145,0.827395,0.00148487,0.0203675,1728,554,22.7082,25.3126
511,470,22.672,-24.5214,0.00138201,0.00158199,0.00121194,0.00269807,0.000265939,0.826558,0.00171694,0.0269229,1735,554,22.6721,24.5213
518,470,22.6279,-23.6478,0.00119446,0.00164322,0.00142708,0.00286345,-2.57769e-05,0.863373,0.00191762,0.0259828,1742,554,22.6279,23.6478
525,470,22.5786,-22.7183,0.000997363,0.00180121,0.00160184,0.00305078,-0.000252207,0.908318,0.00212292,0.0164868,1749,554,22.5786,22.7183
532,470,22.489,-21.7951,0.0007882,0.00212841,0.00176127,0.00334275,-0.000426135,0.967176,0.00238328,0.0146771,1756,554,22.489,21.7951
539,470,22.4109,-20.9192,0.000547823,0.00253507,0.0018852,0.00367247,-0.00058958,1.02793,0.00266666,0.0170015,1763,554,22.4109,20.9192
546,470,22.3655,-20.0744,0.000311518,0.00321304,0.00204963,0.00427339,-0.00074883,1.09338,0.00312855,0.0157875,1770,554,22.3655,20.0744
553,470,22.3842,-19.1523,0.000160305,0.00406028,0.00228652,0.0051154,-0.00089481,1.13846,0.00374435,0.0272318,1777,554,22.3842,19.1523
560,470,22.4279,-18.0242,0,0,0,0,0,0,0,-1,1784,554,22.4278,18.0242
567,470,22.3451,-17.0518,0,0,0,0,0,0,0,-1,1791,554,22.3451,17.0518
574,470,14.2793,-8.07147,0,0,0,0,0,0,0,-1,1798,554,14.2793,8.07147
581,470,8.24646,-4.06317,0,0,0,0,0,0,0,-1,1805,554,8.24648,4.06318
588,470,11.1803,1.74927,0,0,0,0,0,0,0,-1,1812,554,11.1803,-1.74926
595,470,4.72192,3.44116,0,0,0,0,0,0,0,-1,1819,554,4.72191,-3.44116
602,470,14.4307,2.76141,0,0,0,0,0,0,0,-1,1826,554,14.4306,-2.76139
609,470,20.9181,4.41058,0,0,0,0,0,0,0,-1,1833,554,20.9181,-4.4106
616,470,0,0,0,0,0,0,0,0,0,-1,1840,554,0,0
623,470,0,0,0,0,0,0,0,0,0,-1,1847,554,0,0
630,470,0,0,0,0,0,0,0,0,0,-1,1854,554,0,0
637,470,0,0,0,0,0,0,0,0,0,-1,1861,554,0,0
644,470,0,0,0,0,0,0,0,0,0,-1,1868,554,0,0
651,470,0,0,0,0,0,0,0,0,0,-1,1875,554,0,0
658,470,0,0,0,0,0,0,0,0,0,-1,1882,554,0,0
665,470,0,0,0,0,0,0,0,0,0,-1,1889,554,0,0
672,470,0,0,0,0,0,0,0,0,0,-1,1896,554,0,0
679,470,0,0,0,0,0,0,0,0,0,-1,1903,554,0,0
686,470,0,0,0,0,0,0,0,0,0,-1,1910,554,0,0
693,470,0,0,0,0,0,0,0,0,0,-1,1917,554,0,0
700,470,0,0,0,0,0,0,0,0,0,-1,1924,554,0,0
707,470,0,0,0,0,0,0,0,0,0,-1,1931,554,0,0
714,470,0,0,0,0,0,0,0,0,0,-1,1938,554,0,0
721,470,0,0,0,0,0,0,0,0,0,-1,1945,554,0,0
728,470,0,0,0,0,0,0,0,0,0,-1,1952,554,0,0
735,470,0,0,0,0,0,0,0,0,0,-1,1959,554,0,0
742,470,0,0,0,0,0,0,0,0,0,-1,1966,554,0,0
749,470,0,0,0,0,0,0,0,0,0,-1,1973,554,0,0
756,470,0,0,0,0,0,0,0,0,0,-1,1980,554,0,0
763,470,0,0,0,0,0,0,0,0,0,-1,1987,554,0,0
770,470,0,0,0,0,0,0,0,0,0,-1,1994,554,0,0
777,470,0,0,0,0,0,0,0,0,0,-1,2001,554,0,0
784,470,0,0,0,0,0,0,0,0,0,-1,2008,554,0,0
791,470,0,0,0,0,0,0,0,0,0,-1,2015,554,0,0
798,470,0,0,0,0,0,0,0,0,0,-1,2022,554,0,0
805,470,0,0,0,0,0,0,0,0,0,-1,2029,554,0,0
812,470,0,0,0,0,0,0,0,0,0,-1,2036,554,0,0
-700,463,0,0,0,0,0,0,0,0,0,-1,524,561,0,0
-693,463,0,0,0,0,0,0,0,0,0,-1,531,561,0,0
-686,463,0,0,0,0,0,0,0,0,0,-1,538,561,0,0
-679,463,0,0,0,0,0,0,0,0,0,-1,545,561,0,0
-672,463,0,0,0,0,0,0,0,0,0,-1,552,561,0,0
-665,463,0,0,0,0,0,0,0,0,0,-1,559,561,0,0
-658,463,0,0,0,0,0,0,0,0,0,-1,566,561,0,0
-651,463,0,0,0,0,0,0,0,0,0,-1,573,561,0,0
-644,463,0,0,0,0,0,0,0,0,0,-1,580,561,0,0
-637,463,0,0,0,0,0,0,0,0,0,-1,587,561,0,0
-630,463,0,0,0,0,0,0,0,0,0,-1,594,561,0,0
-623,463,0,0,0,0,0,0,0,0,0,-1,601,561,0,0
-616,463,0,0,0,0,0,0,0,0,0,-1,608,561,0,0
-609,463,0,0,0,0,0,0,0,0,0,-1,615,561,0,0
-602,463,0,0,0,0,0,0,0,0,0,-1,622,561,0,0
-595,463,0,0,0,0,0,0,0,0,0,-1,629,561,0,0
-588,463,0,0,0,0,0,0,0,0,0,-1,636,561,0,0
-581,463,0,0,0,0,0,0,0,0,0,-1,643,561,0,0
-574,463,0,0,0,0,0,0,0,0,0,-1,650,561,0,0
-567,463,0,0,0,0,0,0,0,0,0,-1,657,561,0,0
-560,463,0,0,0,0,0,0,0,0,0,-1,664,561,0,0
-553,463,0,0,0,0,0,0,0,0,0,-1,671,561,0,0
-546,463,0,0,0,0,0,0,0,0,0,-1,678,561,0,0
-539,463,0,0,0,0,0,0,0,0,0,-1,685,561,0,0
-532,463,0,0,0,0,0,0,0,0,0,-1,692,561,0,0
-525,463,0,0,0,0,0,0,0,0,0,-1,699,561,0,0
-518,463,0,0,0,0,0,0,0,0,0,-1,706,561,0,0
-511,463,0,0,0,0,0,0,0,0,0,-1,713,561,0,0
-504,463,0,0,0,0,0,0,0,0,0,-1,720,561,0,0
-497,463,-9.81451,-1.67126,0,0,0,0,0,0,0,-1,727,561,-9.81452,1.67127
-490,463,-8.57043,-1.58942,0,0,0,0,0,0,0,-1,734,561,-8.57045,1.58944
-483,463,-7.29224,-1.7226,0,0,0,0,0,0,0,-1,741,561,-7.29226,1.72261
-476,463,-5.77704,-1.7312,0,0,0,0,0,0,0,-1,748,561,-5.77703,1.73121
-469,463,-5.14545,-2.138,0,0,0,0,0,0,0,-1,755,561,-5.14546,2.13799
-462,463,-3.13672,-3.07977,0,0,0,0,0,0,0,-1,762,561,-3.13672,3.07974
-455,463,-2.91406,-5.61798,0,0,0,0,0,0,0,-1,769,561,-2.91406,5.61801
-448,463,-4.00177,-8.54681,0,0,0,0,0,0,0,-1,776,561,-4.00175,8.54683
-441,463,-8.42065,-17.8054,0,0,0,0,0,0,0,-1,783,561,-8.42066,17.8054
-434,463,-8.31848,-18.9359,-0.000972527,0.0077143,-0.0020968,0.00819394,-0.00145216,-1.34592,0.00600549,0.0377929,790,561,-8.31845,18.9359
-427,463,-8.37195,-19.8461,-0.000332356,0.00679228,-0.00233037,0.00748681,-0.00102688,-1.28114,0.00536635,0.0112718,797,561,-8.37193,19.8462
-420,463,-8.40338,-20.7322,0.000190016,0.00584897,-0.00245747,0.00676717,-0.000728186,-1.21322,0.00477273,0.00899565,804,561,-8.40335,20.7322
-413,463,-8.46167,-21.5958,0.000568264,0.00486484,-0.00237523,0.00591919,-0.000486084,-1.15303,0.00411773,0.0101308,811,561,-8.46169,21.5957
-406,463,-8.52594,-22.4552,0.000782617,0.00382281,-0.00206029,0.00486308,-0.000257656,-1.10322,0.00333126,0.0116651,818,561,-8.52594,22.4552
-399,463,-8.5592,-23.2999,0.000980107,0.00291101,-0.00171284,0.00391176,-2.06365e-05,-1.04203,0.00261474,0.0125361,825,561,-8.55923,23.2999
-392,463,-8.61285,-24.1344,0.00122301,0.00202716,-0.0013638,0.00304693,0.000203248,-0.928747,0.00196704,0.0113154,832,561,-8.61284,24.1344
-385,463,-8.67694,-24.9938,0.00155847,0.00125989,-0.00102952,0.00244947,0.000368893,-0.713394,0.00152496,0.0115142,839,561,-8.67694,24.9938
-378,463,-8.72119,-25.8409,0.00191871,0.000489842,-0.000624687,0.0021533,0.000255249,-0.35924,0.00135847,0.0122477,846,561,-8.72121,25.8409
-371,463,-8.75085,-26.6959,0.00226596,-0.000178634,-0.000251211,0.00229151,-0.000204182,-0.10135,0.00160008,0.0123017,853,561,-8.75083,26.696
-364,463,-8.78912,-27.4954,0.0026733,-0.000703354,4.38375e-05,0.00267387,-0.000703923,0.0129796,0.00205776,0.0149681,860,561,-8.7891,27.4954
-357,463,-8.8493,-28.2847,0.00325349,-0.00123244,0.000214385,0.00326371,-0.00124266,0.0476457,0.00268756,0.0226437,867,561,-8.84931,28.2847
-350,463,-8.78784,-29.2064,0.00405553,-0.00187279,0.000205167,0.00406262,-0.00187988,0.0345529,0.0035072,0.0473007,874,561,-8.78782,29.2064
-343,463,-8.47064,-30.1831,0,0,0,0,0,0,0,-1,881,561,-8.47062,30.1831
-336,463,-2.94928,-12.2127,0,0,0,0,0,0,0,-1,888,561,-2.94925,12.2127
-329,463,-2.64307,-12.7037,0,0,0,0,0,0,0,-1,895,561,-2.64307,12.7038
-322,463,-1.82898,-9.11957,0,0,0,0,0,0,0,-1,902,561,-1.829,9.11957
-315,463,-0.944763,-5.96234,0,0,0,0,0,0,0,-1,909,561,-0.94479,5.96237
-308,463,-1.1535,-3.17889,0,0,0,0,0,0,0,-1,916,561,-1.15352,3.17889
-301,463,-1.50366,-3.15338,0,0,0,0,0,0,0,-1,923,561,-1.50364,3.15341
-294,463,-2.35889,-3.93463,0,0,0,0,0,0,0,-1,930,561,-2.35886,3.93465
-287,463,-2.80322,2.73999,0,0,0,0,0,0,0,-1,937,561,-2.80322,-2.74
-280,463,-12.864,5.25146,0,0,0,0,0,0,0,-1,944,561,-12.864,-5.25149
-273,463,-12.4598,3.39178,0,0,0,0,0,0,0,-1,951,561,-12.4598,-3.3918
-266,463,-8.78101,-3.7356,0,0,0,0,0,0,0,-1,958,561,-8.78098,3.73562
-259,463,-6.23285,-5.68842,0,0,0,0,0,0,0,-1,965,561,-6.23288,5.68843
-252,463,0,0,0,0,0,0,0,0,0,-1,972,561,0,0
-245,463,0,0,0,0,0,0,0,0,0,-1,979,561,0,0
-238,463,0,0,0,0,0,0,0,0,0,-1,986,561,0,0
-231,463,0,0,0,0,0,0,0,0,0,-1,993,561,0,0
-224,463,0,0,0,0,0,0,0,0,0,-1,1000,561,0,0
-217,463,0,0,0,0,0,0,0,0,0,-1,1007,561,0,0
-210,463,0,0,0,0,0,0,0,0,0,-1,1014,561,0,0
-203,463,0,0,0,0,0,0,0,0,0,-1,1021,561,0,0
-196,463,0,0,0,0,0,0,0,0,0,-1,1028,561,0,0
-189,463,0,0,0,0,0,0,0,0,0,-1,1035,561,0,0
-182,463,0,0,0,0,0,0,0,0,0,-1,1042,561,0,0
-175,463,0,0,0,0,0,0,0,0,0,-1,1049,561,0,0
-168,463,0,0,0,0,0,0,0,0,0,-1,1056,561,0,0
-161,463,0,0,0,0,0,0,0,0,0,-1,1063,561,0,0
-154,463,0,0,0,0,0,0,0,0,0,-1,1070,561,0,0
-147,463,0,0,0,0,0,0,0,0,0,-1,1077,561,0,0
-140,463,0,0,0,0,0,0,0,0,0,-1,1084,561,0,0
-133,463,0,0,0,0,0,0,0,0,0,-1,1091,561,0,0
-126,463,0,0,0,0,0,0,0,0,0,-1,1098,561,0,0
-119,463,0,0,0,0,0,0,0,0,0,-1,1105,561,0,0
-112,463,0,0,0,0,0,0,0,0,0,-1,1112,561,0,0
-105,463,0,0,0,0,0,0,0,0,0,-1,1119,561,0,0
-98,463,0,0,0,0,0,0,0,0,0,-1,1126,561,0,0
-91,463,0,0,0,0,0,0,0,0,0,-1,1133,561,0,0
-84,463,0,0,0,0,0,0,0,0,0,-1,1140,561,0,0
-77,463,0,0,0,0,0,0,0,0,0,-1,1147,561,0,0
-70,463,0,0,0,0,0,0,0,0,0,-1,1154,561,0,0
-63,463,0,0,0,0,0,0,0,0,0,-1,1161,561,0,0
-56,463,0,0,0,0,0,0,0,0,0,-1,1168,561,0,0
-49,463,0,0,0,0,0,0,0,0,0,-1,1175,561,0,0
-42,463,0,0,0,0,0,0,0,0,0,-1,1182,561,0,0
-35,463,0,0,0,0,0,0,0,0,0,-1,1189,561,0,0
-28,463,0,0,0,0,0,0,0,0,0,-1,1196,561,0,0
-21,463,0,0,0,0,0,0,0,0,0,-1,1203,561,0,0
-14,463,0,0,0,0,0,0,0,0,0,-1,1210,561,0,0
-7,463,0,0,0,0,0,0,0,0,0,-1,1217,561,0,0
0,463,0,0,0,0,0,0,0,0,0,-1,1224,561,0,0
7,463,0,0,0,0,0,0,0,0,0,-1,1231,561,0,0
14,463,0,0,0,0,0,0,0,0,0,-1,1238,561,0,0
21,463,0,0,0,0,0,0,0,0,0,-1,1245,561,0,0
28,463,0,0,0,0,0,0,0,0,0,-1,1252,561,0,0
35,463,0,0,0,0,0,0,0,0,0,-1,1259,561,0,0
42,463,0,0,0,0,0,0,0,0,0,-1,1266,561,0,0
49,463,0,0,0,0,0,0,0,0,0,-1,1273,561,0,0
56,463,0,0,0,0,0,0,0,0,0,-1,1280,561,0,0
63,463,0,0,0,0,0,0,0,0,0,-1,1287,561,0,0
70,463,0,0,0,0,0,0,0,0,0,-1,1294,561,0,0
77,463,0,0,0,0,0,0,0,0,0,-1,1301,561,0,0
84,463,0,0,0,0,0,0,0,0,0,-1,1308,561,0,0
91,463,0,0,0,0,0,0,0,0,0,-1,1315,561,0,0
98,463,0,0,0,0,0,0,0,0,0,-1,1322,561,0,0
105,463,0,0,0,0,0,0,0,0,0,-1,1329,561,0,0
112,463,0,0,0,0,0,0,0,0,0,-1,1336,561,0,0
119,463,0,0,0,0,0,0,0,0,0,-1,1343,561,0,0
126,463,0,0,0,0,0,0,0,0,0,-1,1350,561,0,0
133,463,0,0,0,0,0,0,0,0,0,-1,1357,561,0,0
140,463,0,0,0,0,0,0,0,0,0,-1,1364,561,0,0
147,463,0,0,0,0,0,0,0,0,0,-1,1371,561,0,0
154,463,0,0,0,0,0,0,0,0,0,-1,1378,561,0,0
161,463,0,0,0,0,0,0,0,0,0,-1,1385,561,0,0
168,463,0,0,0,0,0,0,0,0,0,-1,1392,561,0,0
175,463,0,0,0,0,0,0,0,0,0,-1,1399,561,0,0
182,463,0,0,0,0,0,0,0,0,0,-1,1406,561,0,0
189,463,0,0,0,0,0,0,0,0,0,-1,1413,561,0,0
196,463,0,0,0,0,0,0,0,0,0,-1,1420,561,0,0
203,463,0,0,0,0,0,0,0,0,0,-1,1427,561,0,0
210,463,0,0,0,0,0,0,0,0,0,-1,1434,561,0,0
217,463,0,0,0,0,0,0,0,0,0,-1,1441,561,0,0
224,463,0,0,0,0,0,0,0,0,0,-1,1448,561,0,0
231,463,0,0,0,0,0,0,0,0,0,-1,1455,561,0,0
238,463,0,0,0,0,0,0,0,0,0,-1,1462,561,0,0
245,463,0,0,0,0,0,0,0,0,0,-1,1469,561,0,0
252,463,0,0,0,0,0,0,0,0,0,-1,1476,561,0,0
259,463,0,0,0,0,0,0,0,0,0,-1,1483,561,0,0
266,463,0,0,0,0,0,0,0,0,0,-1,1490,561,0,0
273,463,0,0,0,0,0,0,0,0,0,-1,1497,561,0,0
280,463,0,0,0,0,0,0,0,0,0,-1,1504,561,0,0
287,463,0,0,0,0,0,0,0,0,0,-1,1511,561,0,0
294,463,0,0,0,0,0,0,0,0,0,-1,1518,561,0,0
301,463,0,0,0,0,0,0,0,0,0,-1,1525,561,0,0
308,463,0,0,0,0,0,0,0,0,0,-1,1532,561,0,0
315,463,0,0,0,0,0,0,0,0,0,-1,1539,561,0,0
322,463,0,0,0,0,0,0,0,0,0,-1,1546,561,0,0
329,463,0,0,0,0,0,0,0,0,0,-1,1553,561,0,0
336,463,0,0,0,0,0,0,0,0,0,-1,1560,561,0,0
343,463,0,0,0,0,0,0,0,0,0,-1,1567,561,0,0
350,463,0,0,0,0,0,0,0,0,0,-1,1574,561,0,0
357,463,0,0,0,0,0,0,0,0,0,-1,1581,561,0,0
364,463,0,0,0,0,0,0,0,0,0,-1,1588,561,0,0
371,463,1.75842,0.152588,0,0,0,0,0,0,0,-1,1595,561,1.75844,-0.152558
378,463,4.58813,-0.0444336,0,0,0,0,0,0,0,-1,1602,561,4.58809,0.0444505
385,463,8.88574,1.65057,0,0,0,0,0,0,0,-1,1609,561,8.88575,-1.65055
392,463,14.0912,2.50513,0,0,0,0,0,0,0,-1,1616,561,14.0912,-2.5051
399,463,21.4769,2.7002,0,0,0,0,0,0,0,-1,1623,561,21.477,-2.70017
406,463,26.2987,4.32318,0,0,0,0,0,0,0,-1,1630,561,26.2987,-4.3232
413,463,26.5011,2.65222,0,0,0,0,0,0,0,-1,1637,561,26.5011,-2.65224
420,463,8.849,2.26611,0,0,0,0,0,0,0,-1,1644,561,8.84899,-2.26613
427,463,5.12207,1.69183,0,0,0,0,0,0,0,-1,1651,561,5.12206,-1.69184
434,463,4.59814,1.81995,0,0,0,0,0,0,0,-1,1658,561,4.59812,-1.81994
441,463,1.76392,-5.99225,0,0,0,0,0,0,0,-1,1665,561,1.7639,5.99225
448,463,2.49939,-4.30536,0,0,0,0,0,0,0,-1,1672,561,2.49941,4.30536
455,463,4.40295,-3.02557,0,0,0,0,0,0,0,-1,1679,561,4.40299,3.02558
462,463,5.38293,-4.06445,0,0,0,0,0,0,0,-1,1686,561,5.38289,4.06444
469,463,5.94373,-4.50647,0,0,0,0,0,0,0,-1,1693,561,5.94368,4.50646
476,463,15.2559,-17.3189,0,0,0,0,0,0,0,-1,1700,561,15.2558,17.3189
483,463,23.6415,-28.0167,0,0,0,0,0,0,0,-1,1707,561,23.6415,28.0167
490,463,23.6495,-27.0483,0.00186817,0.00127048,0.000272329,0.00197364,0.00116501,0.369504,0.00114566,0.033332,1714,561,23.6496,27.0483
497,463,23.5682,-26.0847,0.00188168,0.00174447,0.000770439,0.00258656,0.00103959,0.74099,0.0015029,0.0154241,1721,561,23.5682,26.0847
504,463,23.5588,-25.2382,0.00180287,0.00167666,0.0010011,0.00274285,0.00073668,0.753922,0.00163915,0.0157051,1728,561,23.5589,25.2382
511,463,23.5472,-24.4283,0.00165434,0.00159531,0.00117274,0.00279794,0.000451708,0.772818,0.00173444,0.0224274,1735,561,23.5473,24.4284
518,463,23.5173,-23.5573,0.00140307,0.00158022,0.00132118,0.0028158,0.000167499,0.818869,0.00182393,0.0244326,1742,561,23.5173,23.5573
525,463,23.4272,-22.6899,0.0011389,0.00168571,0.00142776,0.00286601,-4.13954e-05,0.879999,0.00192462,0.0200113,1749,561,23.4272,22.6899
532,463,23.4211,-21.7679,0.000882669,0.00194237,0.00152675,0.00302859,-0.000203559,0.952418,0.00209022,0.0174356,1756,561,23.4211,21.7679
539,463,23.3209,-20.8627,0.000637085,0.00226751,0.00162823,0.00327321,-0.000368613,1.01749,0.00231482,0.0186757,1763,561,23.3209,20.8627
546,463,23.2373,-20.0602,0.000421938,0.00283214,0.0017588,0.0037591,-0.000505016,1.08575,0.00269025,0.0148824,1770,561,23.2373,20.0603
553,463,23.2079,-19.1466,0.000279613,0.00352557,0.00194661,0.00443703,-0.000631842,1.13289,0.00318956,0.0109899,1777,561,23.2079,19.1466
560,463,23.2123,-18.1355,0.00029479,0.00438512,0.00222081,0.00535902,-0.000679103,1.15752,0.00381922,0.0252852,1784,561,23.2122,18.1355
567,463,23.0461,-17.2629,0.000323072,0.00538152,0.00256732,0.0064562,-0.000751609,1.17436,0.00457529,0.0397725,1791,561,23.0461,17.2629
574,463,23.1577,-16.376,0,0,0,0,0,0,0,-1,1798,561,23.1578,16.3761
581,463,9.4939,-3.88245,0,0,0,0,0,0,0,-1,1805,561,9.49392,3.88245
588,463,1.97424,2.16016,0,0,0,0,0,0,0,-1,1812,561,1.97422,-2.16013
595,463,9.98657,2.99854,0,0,0,0,0,0,0,-1,1819,561,9.98662,-2.99856
602,463,17.2202,4.91302,0,0,0,0,0,0,0,-1,1826,561,17.2202,-4.91305
609,463,17.96,4.03131,0,0,0,0,0,0,0,-1,1833,561,17.96,-4.03132
616,463,20.8352,3.15131,0,0,0,0,0,0,0,-1,1840,561,20.8352,-3.1513
623,463,0,0,0,0,0,0,0,0,0,-1,1847,561,0,0
630,463,0,0,0,0,0,0,0,0,0,-1,1854,561,0,0
637,463,0,0,0,0,0,0,0,0,0,-1,1861,561,0,0
644,463,0,0,0,0,0,0,0,0,0,-1,1868,561,0,0
651,463,0,0,0,0,0,0,0,0,0,-1,1875,561,0,0
658,463,0,0,0,0,0,0,0,0,0,-1,1882,561,0,0
665,463,0,0,0,0,0,0,0,0,0,-1,1889,561,0,0
672,463,0,0,0,0,0,0,0,0,0,-1,1896,561,0,0
679,463,0,0,0,0,0,0,0,0,0,-1,1903,561,0,0
686,463,0,0,0,0,0,0,0,0,0,-1,1910,561,0,0
693,463,0,0,0,0,0,0,0,0,0,-1,1917,561,0,0
700,463,0,0,0,0,0,0,0,0,0,-1,1924,561,0,0
707,463,0,0,0,0,0,0,0,0,0,-1,1931,561,0,0
714,463,0,0,0,0,0,0,0,0,0,-1,1938,561,0,0
721,463,0,0,0,0,0,0,0,0,0,-1,1945,561,0,0
728,463,0,0,0,0,0,0,0,0,0,-1,1952,561,0,0
735,463,0,0,0,0,0,0,0,0,0,-1,1959,561,0,0
742,463,0,0,0,0,0,0,0,0,0,-1,1966,561,0,0
749,463,0,0,0,0,0,0,0,0,0,-1,1973,561,0,0
756,463,0,0,0,0,0,0,0,0,0,-1,1980,561,0,0
763,463,0,0,0,0,0,0,0,0,0,-1,1987,561,0,0
770,463,0,0,0,0,0,0,0,0,0,-1,1994,561,0,0
777,463,0,0,0,0,0,0,0,0,0,-1,2001,561,0,0
784,463,0,0,0,0,0,0,0,0,0,-1,2008,561,0,0
791,463,0,0,0,0,0,0,0,0,0,-1,2015,561,0,0
798,463,0,0,0,0,0,0,0,0,0,-1,2022,561,0,0
805,463,0,0,0,0,0,0,0,0,0,-1,2029,561,0,0
812,463,0,0,0,0,0,0,0,0,0,-1,2036,561,0,0
-700,456,0,0,0,0,0,0,0,0,0,-1,524,568,0,0
-693,456,0,0,0,0,0,0,0,0,0,-1,531,568,0,0
-686,456,0,0,0,0,0,0,0,0,0,-1,538,568,0,0
-679,456,0,0,0,0,0,0,0,0,0,-1,545,568,0,0
-672,456,0,0,0,0,0,0,0,0,0,-1,552,568,0,0
-665,456,0,0,0,0,0,0,0,0,0,-1,559,568,0,0
-658,456,0,0,0,0,0,0,0,0,0,-1,566,568,0,0
-651,456,0,0,0,0,0,0,0,0,0,-1,573,568,0,0
-644,456,0,0,0,0,0,0,0,0,0,-1,580,568,0,0
-637,456,0,0,0,0,0,0,0,0,0,-1,587,568,0,0
-630,456,0,0,0,0,0,0,0,0,0,-1,594,568,0,0
-623,456,0,0,0,0,0,0,0,0,0,-1,601,568,0,0
-616,456,0,0,0,0,0,0,0,0,0,-1,608,568,0,0
-609,456,0,0,0,0,0,0,0,0,0,-1,615,568,0,0
-602,456,0,0,0,0,0,0,0,0,0,-1,622,568,0,0
-595,456,0,0,0,0,0,0,0,0,0,-1,629,568,0,0
-588,456,0,0,0,0,0,0,0,0,0,-1,636,568,0,0
-581,456,0,0,0,0,0,0,0,0,0,-1,643,568,0,0
-574,456,0,0,0,0,0,0,0,0,0,-1,650,568,0,0
-567,456,0,0,0,0,0,0,0,0,0,-1,657,568,0,0
-560,456,0,0,0,0,0,0,0,0,0,-1,664,568,0,0
-553,456,0,0,0,0,0,0,0,0,0,-1,671,568,0,0
-546,456,0,0,0,0,0,0,0,0,0,-1,678,568,0,0
-539,456,0,0,0,0,0,0,0,0,0,-1,685,568,0,0
-532,456,0,0,0,0,0,0,0,0,0,-1,692,568,0,0
-525,456,0,0,0,0,0,0,0,0,0,-1,699,568,0,0
-518,456,0,0,0,0,0,0,0,0,0,-1,706,568,0,0
-511,456,0,0,0,0,0,0,0,0,0,-1,713,568,0,0
-504,456,-10.3994,-2.34839,0,0,0,0,0,0,0,-1,720,568,-10.3994,2.3484
-497,456,-9.21375,-2.38068,0,0,0,0,0,0,0,-1,727,568,-9.21372,2.38069
-490,456,-8.09058,-2.31824,0,0,0,0,0,0,0,-1,734,568,-8.09057,2.31821
-483,456,-6.66119,-2.24329,0,0,0,0,0,0,0,-1,741,568,-6.66121,2.24331
-476,456,-5.1499,-2.21185,0,0,0,0,0,0,0,-1,748,568,-5.14992,2.21184
-469,456,-2.81238,-3.51501,0,0,0,0,0,0,0,-1,755,568,-2.81237,3.51501
-462,456,-4.2431,-5.27478,0,0,0,0,0,0,0,-1,762,568,-4.24312,5.27476
-455,456,-5.98364,-8.72119,0,0,0,0,0,0,0,-1,769,568,-5.98364,8.72122
-448,456,-8.57849,-16.2391,0,0,0,0,0,0,0,-1,776,568,-8.57846,16.2392
-441,456,-9.28845,-17.8708,0,0,0,0,0,0,0,-1,783,568,-9.28843,17.8708
-434,456,-9.19702,-18.9027,-0.000941964,0.00565393,-0.00141791,0.00594582,-0.00123385,-1.36777,0.00443278,0.0223409,790,568,-9.19703,18.9027
-427,456,-9.22955,-19.808,-0.00027339,0.00497805,-0.00163351,0.0054447,-0.00074004,-1.29253,0.00389995,0.00942667,797,568,-9.22954,19.808
-420,456,-9.27271,-20.6903,0.00029153,0.0043079,-0.0017779,0.00498183,-0.000382396,-1.20847,0.00345575,0.00919282,804,568,-9.27271,20.6903
-413,456,-9.32251,-21.5372,0.00070275,0.00357512,-0.0017322,0.00438908,-0.000111209,-1.13152,0.00296382,0.00864585,811,568,-9.32252,21.5372
-406,456,-9.4021,-22.375,0.000967051,0.00277578,-0.00149164,0.0036158,0.000127033,-1.05791,0.00236932,0.00925346,818,568,-9.40207,22.375
-399,456,-9.44434,-23.2202,0.00124613,0.00210739,-0.00125835,0.00300676,0.000346758,-0.950261,0.0018995,0.0110579,825,568,-9.44432,23.2202
-392,456,-9.46692,-24.0665,0.00156813,0.00143729,-0.00102311,0.00252791,0.000477505,-0.753471,0.00155081,0.0106193,832,568,-9.46693,24.0666
-385,456,-9.50385,-24.9171,0.00198377,0.000866067,-0.000808979,0.00240816,0.000441678,-0.483132,0.00148034,0.0099589,839,568,-9.50387,24.9171
-378,456,-9.56769,-25.7891,0.00245185,0.000309278,-0.00053824,0.00257946,0.000181666,-0.232793,0.0016624,0.0110106,846,568,-9.56768,25.7891
-371,456,-9.60913,-26.6368,0.00294546,-7.13525e-05,-0.000299672,0.00297494,-0.000100832,-0.0980571,0.00201775,0.0125425,853,568,-9.60913,26.6368
-364,456,-9.64246,-27.4232,0.00353935,-0.000176611,-0.000207378,0.00355089,-0.000188149,-0.0555772,0.0024324,0.0239538,860,568,-9.64248,27.4232
-357,456,-9.58582,-28.3087,0,0,0,0,0,0,0,-1,867,568,-9.58579,28.3087
-350,456,-9.46259,-29.4399,0,0,0,0,0,0,0,-1,874,568,-9.46257,29.4399
-343,456,-3.39081,-12.0217,0,0,0,0,0,0,0,-1,881,568,-3.39078,12.0217
-336,456,-3.04517,-12.4623,0,0,0,0,0,0,0,-1,888,568,-3.04519,12.4624
-329,456,-1.06183,-10.7184,0,0,0,0,0,0,0,-1,895,568,-1.06184,10.7184
-322,456,-0.662537,-7.66632,0,0,0,0,0,0,0,-1,902,568,-0.662564,7.66633
-315,456,-0.675476,-3.38397,0,0,0,0,0,0,0,-1,909,568,-0.675473,3.38399
-308,456,-1.1618,-3.15314,0,0,0,0,0,0,0,-1,916,568,-1.16178,3.15314
-301,456,-1.83551,-3.26447,0,0,0,0,0,0,0,-1,923,568,-1.8355,3.26449
-294,456,-2.93414,-3.35449,0,0,0,0,0,0,0,-1,930,568,-2.93413,3.35451
-287,456,-3.7569,-3.53101,0,0,0,0,0,0,0,-1,937,568,-3.75692,3.53101
-280,456,-13.072,4.52856,0,0,0,0,0,0,0,-1,944,568,-13.072,-4.52855
-273,456,-8.26538,-6.66748,0,0,0,0,0,0,0,-1,951,568,-8.26536,6.66745
-266,456,-5.71527,-9.36884,0,0,0,0,0,0,0,-1,958,568,-5.71529,9.36885
-259,456,0,0,0,0,0,0,0,0,0,-1,965,568,0,0
-252,456,0,0,0,0,0,0,0,0,0,-1,972,568,0,0
-245,456,0,0,0,0,0,0,0,0,0,-1,979,568,0,0
-238,456,0,0,0,0,0,0,0,0,0,-1,986,568,0,0
-231,456,0,0,0,0,0,0,0,0,0,-1,993,568,0,0
-224,456,0,0,0,0,0,0,0,0,0,-1,1000,568,0,0
-217,456,0,0,0,0,0,0,0,0,0,-1,1007,568,0,0
-210,456,0,0,0,0,0,0,0,0,0,-1,1014,568,0,0
-203,456,0,0,0,0,0,0,0,0,0,-1,1021,568,0,0
-196,456,0,0,0,0,0,0,0,0,0,-1,1028,568,0,0
-189,456,0,0,0,0,0,0,0,0,0,-1,1035,568,0,0
-182,456,0,0,0,0,0,0,0,0,0,-1,1042,568,0,0
-175,456,0,0,0,0,0,0,0,0,0,-1,1049,568,0,0
-168,456,0,0,0,0,0,0,0,0,0,-1,1056,568,0,0
-161,456,0,0,0,0,0,0,0,0,0,-1,1063,568,0,0
-154,456,0,0,0,0,0,0,0,0,0,-1,1070,568,0,0
-147,456,0,0,0,0,0,0,0,0,0,-1,1077,568,0,0
-140,456,0,0,0,0,0,0,0,0,0,-1,1084,568,0,0
-133,456,0,0,0,0,0,0,0,0,0,-1,1091,568,0,0
-126,456,0,0,0,0,0,0,0,0,0,-1,1098,568,0,0
-119,456,0,0,0,0,0,0,0,0,0,-1,1105,568,0,0
-112,456,0,0,0,0,0,0,0,0,0,-1,1112,568,0,0
-105,456,0,0,0,0,0,0,0,0,0,-1,1119,568,0,0
-98,456,0,0,0,0,0,0,0,0,0,-1,1126,568,0,0
-91,456,0,0,0,0,0,0,0,0,0,-1,1133,568,0,0
-84,456,0,0,0,0,0,0,0,0,0,-1,1140,568,0,0
-77,456,0,0,0,0,0,0,0,0,0,-1,1147,568,0,0
-70,456,0,0,0,0,0,0,0,0,0,-1,1154,568,0,0
-63,456,0,0,0,0,0,0,0,0,0,-1,1161,568,0,0
-56,456,0,0,0,0,0,0,0,0,0,-1,1168,568,0,0
-49,456,0,0,0,0,0,0,0,0,0,-1,1175,568,0,0
-42,456,0,0,0,0,0,0,0,0,0,-1,1182,568,0,0
-35,456,0,0,0,0,0,0,0,0,0,-1,1189,568,0,0
-28,456,0,0,0,0,0,0,0,0,0,-1,1196,568,0,0
-21,456,0,0,0,0,0,0,0,0,0,-1,1203,568,0,0
-14,456,0,0,0,0,0,0,0,0,0,-1,1210,568,0,0
-7,456,0,0,0,0,0,0,0,0,0,-1,1217,568,0,0
0,456,0,0,0,0,0,0,0,0,0,-1,1224,568,0,0
7,456,0,0,0,0,0,0,0,0,0,-1,1231,568,0,0
14,456,0,0,0,0,0,0,0,0,0,-1,1238,568,0,0
21,456,0,0,0,0,0,0,0,0,0,-1,1245,568,0,0
28,456,0,0,0,0,0,0,0,0,0,-1,1252,568,0,0
35,456,0,0,0,0,0,0,0,0,0,-1,1259,568,0,0
42,456,0,0,0,0,0,0,0,0,0,-1,1266,568,0,0
49,456,0,0,0,0,0,0,0,0,0,-1,1273,568,0,0
56,456,0,0,0,0,0,0,0,0,0,-1,1280,568,0,0
63,456,0,0,0,0,0,0,0,0,0,-1,1287,568,0,0
70,456,0,0,0,0,0,0,0,0,0,-1,1294,568,0,0
77,456,0,0,0,0,0,0,0,0,0,-1,1301,568,0,0
84,456,0,0,0,0,0,0,0,0,0,-1,1308,568,0,0
91,456,0,0,0,0,0,0,0,0,0,-1,1315,568,0,0
98,456,0,0,0,0,0,0,0,0,0,-1,1322,568,0,0
105,456,0,0,0,0,0,0,0,0,0,-1,1329,568,0,0
112,456,0,0,0,0,0,0,0,0,0,-1,1336,568,0,0
119,456,0,0,0,0,0,0,0,0,0,-1,1343,568,0,0
126,456,0,0,0,0,0,0,0,0,0,-1,1350,568,0,0
133,456,0,0,0,0,0,0,0,0,0,-1,1357,568,0,0
140,456,0,0,0,0,0,0,0,0,0,-1,1364,568,0,0
147,456,0,0,0,0,0,0,0,0,0,-1,1371,568,0,0
154,456,0,0,0,0,0,0,0,0,0,-1,1378,568,0,0
161,456,0,0,0,0,0,0,0,0,0,-1,1385,568,0,0
168,456,0,0,0,0,0,0,0,0,0,-1,1392,568,0,0
175,456,0,0,0,0,0,0,0,0,0,-1,1399,568,0,0
182,456,0,0,0,0,0,0,0,0,0,-1,1406,568,0,0
189,456,0,0,0,0,0,0,0,0,0,-1,1413,568,0,0
196,456,0,0,0,0,0,0,0,0,0,-1,1420,568,0,0
203,456,0,0,0,0,0,0,0,0,0,-1,1427,568,0,0
210,456,0,0,0,0,0,0,0,0,0,-1,1434,568,0,0
217,456,0,0,0,0,0,0,0,0,0,-1,1441,568,0,0
224,456,0,0,0,0,0,0,0,0,0,-1,1448,568,0,0
231,456,0,0,0,0,0,0,0,0,0,-1,1455,568,0,0
238,456,0,0,0,0,0,0,0,0,0,-1,1462,568,0,0
245,456,0,0,0,0,0,0,0,0,0,-1,1469,568,0,0
252,456,0,0,0,0,0,0,0,0,0,-1,1476,568,0,0
259,456,0,0,0,0,0,0,0,0,0,-1,1483,568,0,0
266,456,0,0,0,0,0,0,0,0,0,-1,1490,568,0,0
273,456,0,0,0,0,0,0,0,0,0,-1,1497,568,0,0
280,456,0,0,0,0,0,0,0,0,0,-1,1504,568,0,0
287,456,0,0,0,0,0,0,0,0,0,-1,1511,568,0,0
294,456,0,0,0,0,0,0,0,0,0,-1,1518,568,0,0
301,456,0,0,0,0,0,0,0,0,0,-1,1525,568,0,0
308,456,0,0,0,0,0,0,0,0,0,-1,1532,568,0,0
315,456,0,0,0,0,0,0,0,0,0,-1,1539,568,0,0
322,456,0,0,0,0,0,0,0,0,0,-1,1546,568,0,0
329,456,0,0,0,0,0,0,0,0,0,-1,1553,568,0,0
336,456,0,0,0,0,0,0,0,0,0,-1,1560,568,0,0
343,456,0,0,0,0,0,0,0,0,0,-1,1567,568,0,0
350,456,0,0,0,0,0,0,0,0,0,-1,1574,568,0,0
357,456,0,0,0,0,0,0,0,0,0,-1,1581,568,0,0
364,456,0,0,0,0,0,0,0,0,0,-1,1588,568,0,0
371,456,0,0,0,0,0,0,0,0,0,-1,1595,568,0,0
378,456,0,0,0,0,0,0,0,0,0,-1,1602,568,0,0
385,456,5.66284,0.660645,0,0,0,0,0,0,0,-1,1609,568,5.66285,-0.660615
392,456,17.5027,4.32971,0,0,0,0,0,0,0,-1,1616,568,17.5026,-4.32971
399,456,24.1917,5.99652,0,0,0,0,0,0,0,-1,1623,568,24.1916,-5.99651
406,456,24.446,4.53003,0,0,0,0,0,0,0,-1,1630,568,24.446,-4.53005
413,456,24.9418,2.90521,0,0,0,0,0,0,0,-1,1637,568,24.9418,-2.90524
420,456,25.3048,1.04712,0,0,0,0,0,0,0,-1,1644,568,25.3048,-1.04713
427,456,6.21375,2.02905,0,0,0,0,0,0,0,-1,1651,568,6.21372,-2.02904
434,456,3.0719,-4.86285,0,0,0,0,0,0,0,-1,1658,568,3.07184,4.86287
441,456,2.90344,-4.70459,0,0,0,0,0,0,0,-1,1665,568,2.90346,4.7046
448,456,3.06995,-4.93689,0,0,0,0,0,0,0,-1,1672,568,3.06991,4.93687
455,456,3.46582,-3.43701,0,0,0,0,0,0,0,-1,1679,568,3.46585,3.43698
462,456,4.68445,-4.45831,0,0,0,0,0,0,0,-1,1686,568,4.68439,4.45833
469,456,4.93201,-2.289,0,0,0,0,0,0,0,-1,1693,568,4.93197,2.28903
476,456,4.8363,-2.79364,0,0,0,0,0,0,0,-1,1700,568,4.83636,2.79363
483,456,12.8522,-13.692,0,0,0,0,0,0,0,-1,1707,568,12.8522,13.6919
490,456,24.3562,-27.3293,0,0,0,0,0,0,0,-1,1714,568,24.3561,27.3293
497,456,24.3264,-26.0217,0,0,0,0,0,0,0,-1,1721,568,24.3264,26.0217
504,456,24.3654,-25.1924,0.00241225,0.00202956,0.00118932,0.00342552,0.00101629,0.705639,0.0020315,0.0157915,1728,568,24.3653,25.1924
511,456,24.3837,-24.3337,0.00216628,0.00176681,0.00128161,0.00326362,0.000669466,0.708097,0.00199048,0.0143606,1735,568,24.3836,24.3338
518,456,24.3459,-23.4797,0.00185509,0.00159368,0.00138175,0.00311231,0.000336467,0.738241,0.0019723,0.0175009,1742,568,24.346,23.4797
525,456,24.2677,-22.6132,0.00151542,0.00159355,0.00142696,0.00298198,0.000126988,0.799083,0.00194704,0.0171995,1749,568,24.2678,22.6132
532,456,24.2771,-21.6971,0.00119961,0.00174234,0.00146877,0.0029646,-2.26522e-05,0.876747,0.00198399,0.0169351,1756,568,24.2771,21.6971
539,456,24.2086,-20.7683,0.000936195,0.0019666,0.00153387,0.00306948,-0.000166684,0.94742,0.00210408,0.0234643,1763,568,24.2087,20.7683
546,456,24.0745,-19.9309,0.000729731,0.00240347,0.00161271,0.00338351,-0.000250312,1.02473,0.00234357,0.0262007,1770,568,24.0745,19.9309
553,456,24.001,-19.0522,0.000577992,0.00296648,0.0017509,0.00389164,-0.000347169,1.08469,0.00271755,0.0143796,1777,568,24.001,19.0522
560,456,24.0101,-18.2141,0.000572437,0.00366551,0.00199837,0.00464588,-0.000407935,1.11471,0.0032418,0.0107567,1784,568,24.0101,18.214
567,456,23.989,-17.3078,0.000710727,0.00455125,0.00239039,0.00569716,-0.000435178,1.12378,0.00395116,0.0223856,1791,568,23.989,17.3078
574,456,23.9515,-16.4371,0,0,0,0,0,0,0,-1,1798,568,23.9516,16.4371
581,456,16.2228,-9.08563,0,0,0,0,0,0,0,-1,1805,568,16.2228,9.08562
588,456,5.23901,-0.0901489,0,0,0,0,0,0,0,-1,1812,568,5.23906,0.0901656
595,456,6.90063,3.14886,0,0,0,0,0,0,0,-1,1819,568,6.90066,-3.14887
602,456,16.894,4.10938,0,0,0,0,0,0,0,-1,1826,568,16.8941,-4.1094
609,456,14.9966,3.5708,0,0,0,0,0,0,0,-1,1833,568,14.9966,-3.57083
616,456,17.7407,2.6579,0,0,0,0,0,0,0,-1,1840,568,17.7408,-2.6579
623,456,20.6838,1.7121,0,0,0,0,0,0,0,-1,1847,568,20.6838,-1.71208
630,456,0,0,0,0,0,0,0,0,0,-1,1854,568,0,0
637,456,0,0,0,0,0,0,0,0,0,-1,1861,568,0,0
644,456,0,0,0,0,0,0,0,0,0,-1,1868,568,0,0
651,456,0,0,0,0,0,0,0,0,0,-1,1875,568,0,0
658,456,0,0,0,0,0,0,0,0,0,-1,1882,568,0,0
665,456,0,0,0,0,0,0,0,0,0,-1,1889,568,0,0
672,456,0,0,0,0,0,0,0,0,0,-1,1896,568,0,0
679,456,0,0,0,0,0,0,0,0,0,-1,1903,568,0,0
686,456,0,0,0,0,0,0,0,0,0,-1,1910,568,0,0
693,456,0,0,0,0,0,0,0,0,0,-1,1917,568,0,0
700,456,0,0,0,0,0,0,0,0,0,-1,1924,568,0,0
707,456,0,0,0,0,0,0,0,0,0,-1,1931,568,0,0
714,456,0,0,0,0,0,0,0,0,0,-1,1938,568,0,0
721,456,0,0,0,0,0,0,0,0,0,-1,1945,568,0,0
728,456,0,0,0,0,0,0,0,0,0,-1,1952,568,0,0
735,456,0,0,0,0,0,0,0,0,0,-1,1959,568,0,0
742,456,0,0,0,0,0,0,0,0,0,-1,1966,568,0,0
749,456,0,0,0,0,0,0,0,0,0,-1,1973,568,0,0
756,456,0,0,0,0,0,0,0,0,0,-1,1980,568,0,0
763,456,0,0,0,0,0,0,0,0,0,-1,1987,568,0,0
770,456,0,0,0,0,0,0,0,0,0,-1,1994,568,0,0
777,456,0,0,0,0,0,0,0,0,0,-1,2001,568,0,0
784,456,0,0,0,0,0,0,0,0,0,-1,2008,568,0,0
791,456,0,0,0,0,0,0,0,0,0,-1,2015,568,0,0
798,456,0,0,0,0,0,0,0,0,0,-1,2022,568,0,0
805,456,0,0,0,0,0,0,0,0,0,-1,2029,568,0,0
812,456,0,0,0,0,0,0,0,0,0,-1,2036,568,0,0
-700,449,0,0,0,0,0,0,0,0,0,-1,524,575,0,0
-693,449,0,0,0,0,0,0,0,0,0,-1,531,575,0,0
-686,449,0,0,0,0,0,0,0,0,0,-1,538,575,0,0
-679,449,0,0,0,0,0,0,0,0,0,-1,545,575,0,0
-672,449,0,0,0,0,0,0,0,0,0,-1,552,575,0,0
-665,449,0,0,0,0,0,0,0,0,0,-1,559,575,0,0
-658,449,0,0,0,0,0,0,0,0,0,-1,566,575,0,0
-651,449,0,0,0,0,0,0,0,0,0,-1,573,575,0,0
-644,449,0,0,0,0,0,0,0,0,0,-1,580,575,0,0
-637,449,0,0,0,0,0,0,0,0,0,-1,587,575,0,0
-630,449,0,0,0,0,0,0,0,0,0,-1,594,575,0,0
-623,449,0,0,0,0,0,0,0,0,0,-1,601,575,0,0
-616,449,0,0,0,0,0,0,0,0,0,-1,608,575,0,0
-609,449,0,0,0,0,0,0,0,0,0,-1,615,575,0,0
-602,449,0,0,0,0,0,0,0,0,0,-1,622,575,0,0
-595,449,0,0,0,0,0,0,0,0,0,-1,629,575,0,0
-588,449,0,0,0,0,0,0,0,0,0,-1,636,575,0,0
-581,449,0,0,0,0,0,0,0,0,0,-1,643,575,0,0
-574,449,0,0,0,0,0,0,0,0,0,-1,650,575,0,0
-567,449,0,0,0,0,0,0,0,0,0,-1,657,575,0,0
-560,449,0,0,0,0,0,0,0,0,0,-1,664,575,0,0
-553,449,0,0,0,0,0,0,0,0,0,-1,671,575,0,0
-546,449,0,0,0,0,0,0,0,0,0,-1,678,575,0,0
-539,449,0,0,0,0,0,0,0,0,0,-1,685,575,0,0
-532,449,0,0,0,0,0,0,0,0,0,-1,692,575,0,0
-525,449,0,0,0,0,0,0,0,0,0,-1,699,575,0,0
-518,449,0,0,0,0,0,0,0,0,0,-1,706,575,0,0
-511,449,-0.941345,-4.4519,0,0,0,0,0,0,0,-1,713,575,-0.941356,4.45191
-504,449,-14.1078,0.318237,0,0,0,0,0,0,0,-1,720,575,-14.1078,-0.318231
-497,449,-8.61292,-3.09009,0,0,0,0,0,0,0,-1,727,575,-8.61291,3.09011
-490,449,-7.50995,-2.96252,0,0,0,0,0,0,0,-1,734,575,-7.50995,2.96251
-483,449,-5.77789,-2.50061,0,0,0,0,0,0,0,-1,741,575,-5.77792,2.50059
-476,449,-4.1723,-2.07739,0,0,0,0,0,0,0,-1,748,575,-4.17228,2.0774
-469,449,-5.0976,-5.78448,0,0,0,0,0,0,0,-1,755,575,-5.09758,5.78451
-462,449,-6.54181,-9.54535,0,0,0,0,0,0,0,-1,762,575,-6.54178,9.54536
-455,449,-8.67291,-13.2226,0,0,0,0,0,0,0,-1,769,575,-8.67289,13.2226
-448,449,-9.8844,-16.9905,0,0,0,0,0,0,0,-1,776,575,-9.88438,16.9905
-441,449,-9.92804,-18.0902,-0.00159448,0.00452418,-0.000611315,0.00458466,-0.00165496,-1.47219,0.00373247,0.0249527,783,575,-9.92807,18.0902
-434,449,-10.0662,-18.8931,-0.000714371,0.0040463,-0.000973184,0.00423755,-0.000905628,-1.37674,0.00317032,0.0147883,790,575,-10.0662,18.8931
-427,449,-10.1043,-19.7459,-1.88446e-05,0.00359536,-0.00119482,0.00395464,-0.000378123,-1.2787,0.00277108,0.0139036,797,575,-10.1043,19.7459
-420,449,-10.1334,-20.6241,0.000598247,0.00317147,-0.00138126,0.00377251,-2.79804e-06,-1.16037,0.00251594,0.0131496,804,575,-10.1334,20.6241
-413,449,-10.1649,-21.4778,0.00105197,0.00268482,-0.00138937,0.00347989,0.000256903,-1.05103,0.00223921,0.0106941,811,575,-10.1649,21.4779
-406,449,-10.2413,-22.3331,0.00136847,0.00213784,-0.0012383,0.00304983,0.000456485,-0.936,0.00189943,0.0100461,818,575,-10.2414,22.3331
-399,449,-10.3057,-23.1724,0.00171925,0.00171371,-0.00112349,0.00283998,0.000592982,-0.784167,0.00172987,0.00949596,825,575,-10.3056,23.1724
-392,449,-10.3314,-24.0146,0.0021008,0.0012665,-0.00100578,0.00277251,0.000594797,-0.588819,0.00168543,0.0103033,832,575,-10.3313,24.0146
-385,449,-10.3611,-24.8638,0.00256095,0.000875064,-0.000909083,0.00295776,0.000478255,-0.411565,0.00183333,0.0108012,839,575,-10.3612,24.8638
-378,449,-10.4161,-25.7299,0.00310278,0.000517464,-0.000775938,0.00331778,0.000302461,-0.270307,0.00211825,0.0107069,846,575,-10.4161,25.7299
-371,449,-10.4382,-26.5872,0.00371022,0.000413159,-0.000673143,0.00384236,0.000281023,-0.193833,0.00247323,0.0201644,853,575,-10.4381,26.5871
-364,449,-10.47,-27.4547,0,0,0,0,0,0,0,-1,860,575,-10.47,27.4547
-357,449,-5.88049,-15.8704,0,0,0,0,0,0,0,-1,867,575,-5.88051,15.8704
-350,449,-2.8764,-9.90204,0,0,0,0,0,0,0,-1,874,575,-2.87638,9.90203
-343,449,-2.98492,-9.2254,0,0,0,0,0,0,0,-1,881,575,-2.98491,9.22541
-336,449,-1.29523,-9.54626,0,0,0,0,0,0,0,-1,888,575,-1.29525,9.54626
-329,449,-0.733398,-7.78937,0,0,0,0,0,0,0,-1,895,575,-0.733398,7.78937
-322,449,-0.628845,-3.16669,0,0,0,0,0,0,0,-1,902,575,-0.628861,3.16667
-315,449,-0.540344,-3.21918,0,0,0,0,0,0,0,-1,909,575,-0.540336,3.21917
-308,449,-1.04413,-2.99341,0,0,0,0,0,0,0,-1,916,575,-1.04415,2.99338
-301,449,-1.58691,-2.80725,0,0,0,0,0,0,0,-1,923,575,-1.58692,2.80728
-294,449,-3.71118,-2.76086,0,0,0,0,0,0,0,-1,930,575,-3.71119,2.76087
-287,449,-4.4082,-2.69525,0,0,0,0,0,0,0,-1,937,575,-4.40822,2.69526
-280,449,0.723999,-14.2697,0,0,0,0,0,0,0,-1,944,575,0.723977,14.2696
-273,449,0,0,0,0,0,0,0,0,0,-1,951,575,0,0
-266,449,0,0,0,0,0,0,0,0,0,-1,958,575,0,0
-259,449,0,0,0,0,0,0,0,0,0,-1,965,575,0,0
-252,449,0,0,0,0,0,0,0,0,0,-1,972,575,0,0
-245,449,0,0,0,0,0,0,0,0,0,-1,979,575,0,0
-238,449,0,0,0,0,0,0,0,0,0,-1,986,575,0,0
-231,449,0,0,0,0,0,0,0,0,0,-1,993,575,0,0
-224,449,0,0,0,0,0,0,0,0,0,-1,1000,575,0,0
-217,449,0,0,0,0,0,0,0,0,0,-1,1007,575,0,0
-210,449,0,0,0,0,0,0,0,0,0,-1,1014,575,0,0
-203,449,0,0,0,0,0,0,0,0,0,-1,1021,575,0,0
-196,449,0,0,0,0,0,0,0,0,0,-1,1028,575,0,0
-189,449,0,0,0,0,0,0,0,0,0,-1,1035,575,0,0
-182,449,0,0,0,0,0,0,0,0,0,-1,1042,575,0,0
-175,449,0,0,0,0,0,0,0,0,0,-1,1049,575,0,0
-168,449,0,0,0,0,0,0,0,0,0,-1,1056,575,0,0
-161,449,0,0,0,0,0,0,0,0,0,-1,1063,575,0,0
-154,449,0,0,0,0,0,0,0,0,0,-1,1070,575,0,0
-147,449,0,0,0,0,0,0,0,0,0,-1,1077,575,0,0
-140,449,0,0,0,0,0,0,0,0,0,-1,1084,575,0,0
-133,449,0,0,0,0,0,0,0,0,0,-1,1091,575,0,0
-126,449,0,0,0,0,0,0,0,0,0,-1,1098,575,0,0
-119,449,0,0,0,0,0,0,0,0,0,-1,1105,575,0,0
-112,449,0,0,0,0,0,0,0,0,0,-1,1112,575,0,0
-105,449,0,0,0,0,0,0,0,0,0,-1,1119,575,0,0
-98,449,0,0,0,0,0,0,0,0,0,-1,1126,575,0,0
-91,449,0,0,0,0,0,0,0,0,0,-1,1133,575,0,0
-84,449,0,0,0,0,0,0,0,0,0,-1,1140,575,0,0
-77,449,0,0,0,0,0,0,0,0,0,-1,1147,575,0,0
-70,449,0,0,0,0,0,0,0,0,0,-1,1154,575,0,0
-63,449,0,0,0,0,0,0,0,0,0,-1,1161,575,0,0
-56,449,0,0,0,0,0,0,0,0,0,-1,1168,575,0,0
-49,449,0,0,0,0,0,0,0,0,0,-1,1175,575,0,0
-42,449,0,0,0,0,0,0,0,0,0,-1,1182,575,0,0
-35,449,0,0,0,0,0,0,0,0,0,-1,1189,575,0,0
-28,449,0,0,0,0,0,0,0,0,0,-1,1196,575,0,0
-21,449,0,0,0,0,0,0,0,0,0,-1,1203,575,0,0
-14,449,0,0,0,0,0,0,0,0,0,-1,1210,575,0,0
-7,449,0,0,0,0,0,0,0,0,0,-1,1217,575,0,0
0,449,0,0,0,0,0,0,0,0,0,-1,1224,575,0,0
7,449,0,0,0,0,0,0,0,0,0,-1,1231,575,0,0
14,449,0,0,0,0,0,0,0,0,0,-1,1238,575,0,0
21,449,0,0,0,0,0,0,0,0,0,-1,1245,575,0,0
28,449,0,0,0,0,0,0,0,0,0,-1,1252,575,0,0
35,449,0,0,0,0,0,0,0,0,0,-1,1259,575,0,0
42,449,0,0,0,0,0,0,0,0,0,-1,1266,575,0,0
49,449,0,0,0,0,0,0,0,0,0,-1,1273,575,0,0
56,449,0,0,0,0,0,0,0,0,0,-1,1280,575,0,0
63,449,0,0,0,0,0,0,0,0,0,-1,1287,575,0,0
70,449,0,0,0,0,0,0,0,0,0,-1,1294,575,0,0
77,449,0,0,0,0,0,0,0,0,0,-1,1301,575,0,0
84,449,0,0,0,0,0,0,0,0,0,-1,1308,575,0,0
91,449,0,0,0,0,0,0,0,0,0,-1,1315,575,0,0
98,449,0,0,0,0,0,0,0,0,0,-1,1322,575,0,0
105,449,0,0,0,0,0,0,0,0,0,-1,1329,575,0,0
112,449,0,0,0,0,0,0,0,0,0,-1,1336,575,0,0
119,449,0,0,0,0,0,0,0,0,0,-1,1343,575,0,0
126,449,0,0,0,0,0,0,0,0,0,-1,1350,575,0,0
133,449,0,0,0,0,0,0,0,0,0,-1,1357,575,0,0
140,449,0,0,0,0,0,0,0,0,0,-1,1364,575,0,0
147,449,0,0,0,0,0,0,0,0,0,-1,1371,575,0,0
154,449,0,0,0,0,0,0,0,0,0,-1,1378,575,0,0
161,449,0,0,0,0,0,0,0,0,0,-1,1385,575,0,0
168,449,0,0,0,0,0,0,0,0,0,-1,1392,575,0,0
175,449,0,0,0,0,0,0,0,0,0,-1,1399,575,0,0
182,449,0,0,0,0,0,0,0,0,0,-1,1406,575,0,0
189,449,0,0,0,0,0,0,0,0,0,-1,1413,575,0,0
196,449,0,0,0,0,0,0,0,0,0,-1,1420,575,0,0
203,449,0,0,0,0,0,0,0,0,0,-1,1427,575,0,0
210,449,0,0,0,0,0,0,0,0,0,-1,1434,575,0,0
217,449,0,0,0,0,0,0,0,0,0,-1,1441,575,0,0
224,449,0,0,0,0,0,0,0,0,0,-1,1448,575,0,0
231,449,0,0,0,0,0,0,0,0,0,-1,1455,575,0,0
238,449,0,0,0,0,0,0,0,0,0,-1,1462,575,0,0
245,449,0,0,0,0,0,0,0,0,0,-1,1469,575,0,0
252,449,0,0,0,0,0,0,0,0,0,-1,1476,575,0,0
259,449,0,0,0,0,0,0,0,0,0,-1,1483,575,0,0
266,449,0,0,0,0,0,0,0,0,0,-1,1490,575,0,0
273,449,0,0,0,0,0,0,0,0,0,-1,1497,575,0,0
280,449,0,0,0,0,0,0,0,0,0,-1,1504,575,0,0
287,449,0,0,0,0,0,0,0,0,0,-1,1511,575,0,0
294,449,0,0,0,0,0,0,0,0,0,-1,1518,575,0,0
301,449,0,0,0,0,0,0,0,0,0,-1,1525,575,0,0
308,449,0,0,0,0,0,0,0,0,0,-1,1532,575,0,0
315,449,0,0,0,0,0,0,0,0,0,-1,1539,575,0,0
322,449,0,0,0,0,0,0,0,0,0,-1,1546,575,0,0
329,449,0,0,0,0,0,0,0,0,0,-1,1553,575,0,0
336,449,0,0,0,0,0,0,0,0,0,-1,1560,575,0,0
343,449,0,0,0,0,0,0,0,0,0,-1,1567,575,0,0
350,449,0,0,0,0,0,0,0,0,0,-1,1574,575,0,0
357,449,0,0,0,0,0,0,0,0,0,-1,1581,575,0,0
364,449,0,0,0,0,0,0,0,0,0,-1,1588,575,0,0
371,449,0,0,0,0,0,0,0,0,0,-1,1595,575,0,0
378,449,0,0,0,0,0,0,0,0,0,-1,1602,575,0,0
385,449,0,0,0,0,0,0,0,0,0,-1,1609,575,0,0
392,449,7.95471,3.66217,0,0,0,0,0,0,0,-1,1616,575,7.95471,-3.66218
399,449,19.9791,5.565,0,0,0,0,0,0,0,-1,1623,575,19.9791,-5.56499
406,449,24.9847,4.55969,0,0,0,0,0,0,0,-1,1630,575,24.9848,-4.55968
413,449,30.4159,3.15027,0,0,0,0,0,0,0,-1,1637,575,30.4159,-3.15028
420,449,23.9675,1.29718,0,0,0,0,0,0,0,-1,1644,575,23.9675,-1.29721
427,449,24.4276,-0.596558,0,0,0,0,0,0,0,-1,1651,575,24.4277,0.596569
434,449,25.61,-2.96594,0,0,0,0,0,0,0,-1,1658,575,25.61,2.96595
441,449,3.89856,-6.06458,0,0,0,0,0,0,0,-1,1665,575,3.89855,6.06459
448,449,4.03198,-5.18207,0,0,0,0,0,0,0,-1,1672,575,4.03197,5.18207
455,449,4.21948,-4.09467,0,0,0,0,0,0,0,-1,1679,575,4.21952,4.09465
462,449,4.23181,-2.96924,0,0,0,0,0,0,0,-1,1686,575,4.23185,2.96926
469,449,4.51672,-2.95135,0,0,0,0,0,0,0,-1,1693,575,4.51672,2.95135
476,449,4.71838,-1.86688,0,0,0,0,0,0,0,-1,1700,575,4.71842,1.86689
483,449,4.87878,-1.73126,0,0,0,0,0,0,0,-1,1707,575,4.87875,1.73128
490,449,5.73279,-2.74573,0,0,0,0,0,0,0,-1,1714,575,5.73282,2.74575
497,449,17.2095,-16.4381,0,0,0,0,0,0,0,-1,1721,575,17.2094,16.4381
504,449,25.1512,-25.2258,0,0,0,0,0,0,0,-1,1728,575,25.1512,25.2259
511,449,25.2469,-24.301,0.00302995,0.00207929,0.00153632,0.0041628,0.000946444,0.635371,0.00251968,0.0165343,1735,575,25.247,24.301
518,449,25.2076,-23.4504,0.00262168,0.0017308,0.00158788,0.00382541,0.000527064,0.64865,0.00239401,0.0141315,1742,575,25.2077,23.4504
525,449,25.1295,-22.5635,0.00216631,0.00162149,0.00155886,0.00347638,0.00031142,0.698897,0.00222107,0.0137616,1749,575,25.1295,22.5635
532,449,25.0673,-21.6772,0.00174871,0.0016564,0.00152437,0.00322762,0.00017748,0.770264,0.00209509,0.0116651,1756,575,25.0673,21.6772
539,449,24.989,-20.7883,0.00141977,0.00178641,0.00152773,0.00314178,6.43953e-05,0.84511,0.00207339,0.0172129,1763,575,24.989,20.7884
546,449,24.925,-19.8517,0.00115756,0.00209141,0.00152895,0.00322314,2.58286e-05,0.933596,0.0021402,0.0307531,1770,575,24.925,19.8517
553,449,24.8674,-19.0294,0.000923652,0.0025272,0.0015863,0.00350284,-5.19851e-05,1.01939,0.00235275,0.0201638,1777,575,24.8675,19.0294
560,449,24.8896,-18.1991,0.000803638,0.00307818,0.00175163,0.00402935,-0.000147533,1.07333,0.00273674,0.0146308,1784,575,24.8897,18.1991
567,449,24.8301,-17.3137,0.000865049,0.00383674,0.00206869,0.0048979,-0.00019611,1.09683,0.00333256,0.0105374,1791,575,24.8301,17.3136
574,449,24.8014,-16.373,0.000966672,0.00469783,0.00246266,0.00592177,-0.000257263,1.10955,0.00403633,0.0269714,1798,575,24.8014,16.373
581,449,24.7893,-15.3466,0,0,0,0,0,0,0,-1,1805,575,24.7893,15.3465
588,449,12.3274,-4.5672,0,0,0,0,0,0,0,-1,1812,575,12.3274,4.5672
595,449,15.9352,-5.65479,0,0,0,0,0,0,0,-1,1819,575,15.9352,5.65478
602,449,9.46167,4.17444,0,0,0,0,0,0,0,-1,1826,575,9.46164,-4.17442
609,449,12.2028,3.18652,0,0,0,0,0,0,0,-1,1833,575,12.2027,-3.18655
616,449,14.9438,2.19867,0,0,0,0,0,0,0,-1,1840,575,14.9438,-2.19867
623,449,9.83789,-0.0820313,0,0,0,0,0,0,0,-1,1847,575,9.83794,0.0820443
630,449,8.90686,4.99329,0,0,0,0,0,0,0,-1,1854,575,8.90685,-4.99327
637,449,0,0,0,0,0,0,0,0,0,-1,1861,575,0,0
644,449,0,0,0,0,0,0,0,0,0,-1,1868,575,0,0
651,449,0,0,0,0,0,0,0,0,0,-1,1875,575,0,0
658,449,0,0,0,0,0,0,0,0,0,-1,1882,575,0,0
665,449,0,0,0,0,0,0,0,0,0,-1,1889,575,0,0
672,449,0,0,0,0,0,0,0,0,0,-1,1896,575,0,0
679,449,0,0,0,0,0,0,0,0,0,-1,1903,575,0,0
686,449,0,0,0,0,0,0,0,0,0,-1,1910,575,0,0
693,449,0,0,0,0,0,0,0,0,0,-1,1917,575,0,0
700,449,0,0,0,0,0,0,0,0,0,-1,1924,575,0,0
707,449,0,0,0,0,0,0,0,0,0,-1,1931,575,0,0
714,449,0,0,0,0,0,0,0,0,0,-1,1938,575,0,0
721,449,0,0,0,0,0,0,0,0,0,-1,1945,575,0,0
728,449,0,0,0,0,0,0,0,0,0,-1,1952,575,0,0
735,449,0,0,0,0,0,0,0,0,0,-1,1959,575,0,0
742,449,0,0,0,0,0,0,0,0,0,-1,1966,575,0,0
749,449,0,0,0,0,0,0,0,0,0,-1,1973,575,0,0
756,449,0,0,0,0,0,0,0,0,0,-1,1980,575,0,0
763,449,0,0,0,0,0,0,0,0,0,-1,1987,575,0,0
770,449,0,0,0,0,0,0,0,0,0,-1,1994,575,0,0
777,449,0,0,0,0,0,0,0,0,0,-1,2001,575,0,0
784,449,0,0,0,0,0,0,0,0,0,-1,2008,575,0,0
791,449,0,0,0,0,0,0,0,0,0,-1,2015,575,0,0
798,449,0,0,0,0,0,0,0,0,0,-1,2022,575,0,0
805,449,0,0,0,0,0,0,0,0,0,-1,2029,575,0,0
812,449,0,0,0,0,0,0,0,0,0,-1,2036,575,0,0
-700,442,0,0,0,0,0,0,0,0,0,-1,524,582,0,0
-693,442,0,0,0,0,0,0,0,0,0,-1,531,582,0,0
-686,442,0,0,0,0,0,0,0,0,0,-1,538,582,0,0
-679,442,0,0,0,0,0,0,0,0,0,-1,545,582,0,0
-672,442,0,0,0,0,0,0,0,0,0,-1,552,582,0,0
-665,442,0,0,0,0,0,0,0,0,0,-1,559,582,0,0
-658,442,0,0,0,0,0,0,0,0,0,-1,566,582,0,0
-651,442,0,0,0,0,0,0,0,0,0,-1,573,582,0,0
-644,442,0,0,0,0,0,0,0,0,0,-1,580,582,0,0
-637,442,0,0,0,0,0,0,0,0,0,-1,587,582,0,0
-630,442,0,0,0,0,0,0,0,0,0,-1,594,582,0,0
-623,442,0,0,0,0,0,0,0,0,0,-1,601,582,0,0
-616,442,0,0,0,0,0,0,0,0,0,-1,608,582,0,0
-609,442,0,0,0,0,0,0,0,0,0,-1,615,582,0,0
-602,442,0,0,0,0,0,0,0,0,0,-1,622,582,0,0
-595,442,0,0,0,0,0,0,0,0,0,-1,629,582,0,0
-588,442,0,0,0,0,0,0,0,0,0,-1,636,582,0,0
-581,442,0,0,0,0,0,0,0,0,0,-1,643,582,0,0
-574,442,0,0,0,0,0,0,0,0,0,-1,650,582,0,0
-567,442,0,0,0,0,0,0,0,0,0,-1,657,582,0,0
-560,442,0,0,0,0,0,0,0,0,0,-1,664,582,0,0
-553,442,0,0,0,0,0,0,0,0,0,-1,671,582,0,0
-546,442,0,0,0,0,0,0,0,0,0,-1,678,582,0,0
-539,442,0,0,0,0,0,0,0,0,0,-1,685,582,0,0
-532,442,0,0,0,0,0,0,0,0,0,-1,692,582,0,0
-525,442,0,0,0,0,0,0,0,0,0,-1,699,582,0,0
-518,442,-0.493774,-5.72943,0,0,0,0,0,0,0,-1,706,582,-0.493791,5.72946
-511,442,-1.33008,-6.18512,0,0,0,0,0,0,0,-1,713,582,-1.33006,6.18511
-504,442,-3.20807,-6.34082,0,0,0,0,0,0,0,-1,720,582,-3.2081,6.34083
-497,442,-13.6886,-0.250122,0,0,0,0,0,0,0,-1,727,582,-13.6886,0.250143
-490,442,-9.09039,-3.64862,0,0,0,0,0,0,0,-1,734,582,-9.09037,3.64861
-483,442,-7.36499,-1.01892,0,0,0,0,0,0,0,-1,741,582,-7.365,1.01895
-476,442,-4.84784,-4.44141,0,0,0,0,0,0,0,-1,748,582,-4.84787,4.44138
-469,442,-11.0978,-13.4954,0,0,0,0,0,0,0,-1,755,582,-11.0978,13.4953
-462,442,-10.2018,-14.6873,0,0,0,0,0,0,0,-1,762,582,-10.2019,14.6873
-455,442,-10.7742,-16.0338,0,0,0,0,0,0,0,-1,769,582,-10.7742,16.0338
-448,442,-10.7655,-17.0485,-0.00225887,0.00360279,5.92105e-05,0.00360339,-0.00225947,1.5607,0.00341444,0.0232042,776,582,-10.7655,17.0485
-441,442,-10.8407,-17.9691,-0.00121411,0.00319175,-0.000407004,0.00322903,-0.00125139,-1.47945,0.00266945,0.0138735,783,582,-10.8407,17.9691
-434,442,-10.9149,-18.837,-0.000374215,0.0028487,-0.000725466,0.00300447,-0.000529986,-1.35929,0.00220102,0.0136067,790,582,-10.9148,18.837
-427,442,-10.9693,-19.6947,0.000341292,0.00258416,-0.000968649,0.00294458,-1.91291e-05,-1.21458,0.00196946,0.0132085,797,582,-10.9693,19.6947
-420,442,-10.9962,-20.5731,0.00100076,0.00237352,-0.00120348,0.00307259,0.000301693,-1.04456,0.0019556,0.013627,804,582,-10.9962,20.5731
-413,442,-11.0212,-21.4393,0.00149261,0.00212346,-0.00127306,0.00311959,0.000496474,-0.906836,0.00193558,0.0119175,811,582,-11.0212,21.4393
-406,442,-11.0818,-22.3113,0.00186504,0.00185094,-0.00122656,0.00308457,0.000631404,-0.782525,0.00188156,0.0104285,818,582,-11.0818,22.3113
-399,442,-11.144,-23.1431,0.00229496,0.00169784,-0.00124541,0.0032771,0.000715709,-0.667753,0.00198954,0.00923466,825,582,-11.144,23.1431
-392,442,-11.1949,-23.9571,0.00274737,0.00153432,-0.00126469,0.00354346,0.000738235,-0.561809,0.00215872,0.011297,832,582,-11.1949,23.9571
-385,442,-11.2302,-24.8038,0.00325432,0.00138282,-0.0013072,0.00392618,0.000710964,-0.474757,0.00241559,0.0135788,839,582,-11.2302,24.8038
-378,442,-11.2584,-25.6957,0.00388317,0.00130435,-0.00135089,0.00446124,0.00072628,-0.404338,0.00276405,0.0200538,846,582,-11.2584,25.6957
-371,442,-11.3257,-26.6674,0,0,0,0,0,0,0,-1,853,582,-11.3258,26.6674
-364,442,-6.89764,-17.5333,0,0,0,0,0,0,0,-1,860,582,-6.89765,17.5333
-357,442,-4.9115,-11.2649,0,0,0,0,0,0,0,-1,867,582,-4.91147,11.2649
-350,442,-1.75372,-6.27618,0,0,0,0,0,0,0,-1,874,582,-1.75371,6.27618
-343,442,-1.4599,-4.63605,0,0,0,0,0,0,0,-1,881,582,-1.4599,4.63607
-336,442,-1.4054,-2.64313,0,0,0,0,0,0,0,-1,888,582,-1.40539,2.64315
-329,442,-0.952576,-2.76923,0,0,0,0,0,0,0,-1,895,582,-0.952571,2.7692
-322,442,-0.972534,-2.63208,0,0,0,0,0,0,0,-1,902,582,-0.972512,2.6321
-315,442,-0.445557,-2.89764,0,0,0,0,0,0,0,-1,909,582,-0.445582,2.89765
-308,442,-0.654175,-3.07831,0,0,0,0,0,0,0,-1,916,582,-0.654145,3.07832
-301,442,-1.37427,-2.41455,0,0,0,0,0,0,0,-1,923,582,-1.37425,2.41453
-294,442,-2.99963,-2.07855,0,0,0,0,0,0,0,-1,930,582,-2.99964,2.07857
-287,442,3.91034,-10.1913,0,0,0,0,0,0,0,-1,937,582,3.91034,10.1913
-280,442,0,0,0,0,0,0,0,0,0,-1,944,582,0,0
-273,442,0,0,0,0,0,0,0,0,0,-1,951,582,0,0
-266,442,0,0,0,0,0,0,0,0,0,-1,958,582,0,0
-259,442,0,0,0,0,0,0,0,0,0,-1,965,582,0,0
-252,442,0,0,0,0,0,0,0,0,0,-1,972,582,0,0
-245,442,0,0,0,0,0,0,0,0,0,-1,979,582,0,0
-238,442,0,0,0,0,0,0,0,0,0,-1,986,582,0,0
-231,442,0,0,0,0,0,0,0,0,0,-1,993,582,0,0
-224,442,0,0,0,0,0,0,0,0,0,-1,1000,582,0,0
-217,442,0,0,0,0,0,0,0,0,0,-1,1007,582,0,0
-210,442,0,0,0,0,0,0,0,0,0,-1,1014,582,0,0
-203,442,0,0,0,0,0,0,0,0,0,-1,1021,582,0,0
-196,442,0,0,0,0,0,0,0,0,0,-1,1028,582,0,0
-189,442,0,0,0,0,0,0,0,0,0,-1,1035,582,0,0
-182,442,0,0,0,0,0,0,0,0,0,-1,1042,582,0,0
-175,442,0,0,0,0,0,0,0,0,0,-1,1049,582,0,0
-168,442,0,0,0,0,0,0,0,0,0,-1,1056,582,0,0
-161,442,0,0,0,0,0,0,0,0,0,-1,1063,582,0,0
-154,442,0,0,0,0,0,0,0,0,0,-1,1070,582,0,0
-147,442,0,0,0,0,0,0,0,0,0,-1,1077,582,0,0
-140,442,0,0,0,0,0,0,0,0,0,-1,1084,582,0,0
-133,442,0,0,0,0,0,0,0,0,0,-1,1091,582,0,0
-126,442,0,0,0,0,0,0,0,0,0,-1,1098,582,0,0
-119,442,0,0,0,0,0,0,0,0,0,-1,1105,582,0,0
-112,442,0,0,0,0,0,0,0,0,0,-1,1112,582,0,0
-105,442,0,0,0,0,0,0,0,0,0,-1,1119,582,0,0
-98,442,0,0,0,0,0,0,0,0,0,-1,1126,582,0,0
-91,442,0,0,0,0,0,0,0,0,0,-1,1133,582,0,0
-84,442,0,0,0,0,0,0,0,0,0,-1,1140,582,0,0
-77,442,0,0,0,0,0,0,0,0,0,-1,1147,582,0,0
-70,442,0,0,0,0,0,0,0,0,0,-1,1154,582,0,0
-63,442,0,0,0,0,0,0,0,0,0,-1,1161,582,0,0
-56,442,0,0,0,0,0,0,0,0,0,-1,1168,582,0,0
-49,442,0,0,0,0,0,0,0,0,0,-1,1175,582,0,0
-42,442,0,0,0,0,0,0,0,0,0,-1,1182,582,0,0
-35,442,0,0,0,0,0,0,0,0,0,-1,1189,582,0,0
-28,442,0,0,0,0,0,0,0,0,0,-1,1196,582,0,0
-21,442,0,0,0,0,0,0,0,0,0,-1,1203,582,0,0
-14,442,0,0,0,0,0,0,0,0,0,-1,1210,582,0,0
-7,442,0,0,0,0,0,0,0,0,0,-1,1217,582,0,0
0,442,0,0,0,0,0,0,0,0,0,-1,1224,582,0,0
7,442,0,0,0,0,0,0,0,0,0,-1,1231,582,0,0
14,442,0,0,0,0,0,0,0,0,0,-1,1238,582,0,0
21,442,0,0,0,0,0,0,0,0,0,-1,1245,582,0,0
28,442,0,0,0,0,0,0,0,0,0,-1,1252,582,0,0
35,442,0,0,0,0,0,0,0,0,0,-1,1259,582,0,0
42,442,0,0,0,0,0,0,0,0,0,-1,1266,582,0,0
49,442,0,0,0,0,0,0,0,0,0,-1,1273,582,0,0
56,442,0,0,0,0,0,0,0,0,0,-1,1280,582,0,0
63,442,0,0,0,0,0,0,0,0,0,-1,1287,582,0,0
70,442,0,0,0,0,0,0,0,0,0,-1,1294,582,0,0
77,442,0,0,0,0,0,0,0,0,0,-1,1301,582,0,0
84,442,0,0,0,0,0,0,0,0,0,-1,1308,582,0,0
91,442,0,0,0,0,0,0,0,0,0,-1,1315,582,0,0
98,442,0,0,0,0,0,0,0,0,0,-1,1322,582,0,0
105,442,0,0,0,0,0,0,0,0,0,-1,1329,582,0,0
112,442,0,0,0,0,0,0,0,0,0,-1,1336,582,0,0
119,442,0,0,0,0,0,0,0,0,0,-1,1343,582,0,0
126,442,0,0,0,0,0,0,0,0,0,-1,1350,582,0,0
133,442,0,0,0,0,0,0,0,0,0,-1,1357,582,0,0
140,442,0,0,0,0,0,0,0,0,0,-1,1364,582,0,0
147,442,0,0,0,0,0,0,0,0,0,-1,1371,582,0,0
154,442,0,0,0,0,0,0,0,0,0,-1,1378,582,0,0
161,442,0,0,0,0,0,0,0,0,0,-1,1385,582,0,0
168,442,0,0,0,0,0,0,0,0,0,-1,1392,582,0,0
175,442,0,0,0,0,0,0,0,0,0,-1,1399,582,0,0
182,442,0,0,0,0,0,0,0,0,0,-1,1406,582,0,0
189,442,0,0,0,0,0,0,0,0,0,-1,1413,582,0,0
196,442,0,0,0,0,0,0,0,0,0,-1,1420,582,0,0
203,442,0,0,0,0,0,0,0,0,0,-1,1427,582,0,0
210,442,0,0,0,0,0,0,0,0,0,-1,1434,582,0,0
217,442,0,0,0,0,0,0,0,0,0,-1,1441,582,0,0
224,442,0,0,0,0,0,0,0,0,0,-1,1448,582,0,0
231,442,0,0,0,0,0,0,0,0,0,-1,1455,582,0,0
238,442,0,0,0,0,0,0,0,0,0,-1,1462,582,0,0
245,442,0,0,0,0,0,0,0,0,0,-1,1469,582,0,0
252,442,0,0,0,0,0,0,0,0,0,-1,1476,582,0,0
259,442,0,0,0,0,0,0,0,0,0,-1,1483,582,0,0
266,442,0,0,0,0,0,0,0,0,0,-1,1490,582,0,0
273,442,0,0,0,0,0,0,0,0,0,-1,1497,582,0,0
280,442,0,0,0,0,0,0,0,0,0,-1,1504,582,0,0
287,442,0,0,0,0,0,0,0,0,0,-1,1511,582,0,0
294,442,0,0,0,0,0,0,0,0,0,-1,1518,582,0,0
301,442,0,0,0,0,0,0,0,0,0,-1,1525,582,0,0
308,442,0,0,0,0,0,0,0,0,0,-1,1532,582,0,0
315,442,0,0,0,0,0,0,0,0,0,-1,1539,582,0,0
322,442,0,0,0,0,0,0,0,0,0,-1,1546,582,0,0
329,442,0,0,0,0,0,0,0,0,0,-1,1553,582,0,0
336,442,0,0,0,0,0,0,0,0,0,-1,1560,582,0,0
343,442,0,0,0,0,0,0,0,0,0,-1,1567,582,0,0
350,442,0,0,0,0,0,0,0,0,0,-1,1574,582,0,0
357,442,0,0,0,0,0,0,0,0,0,-1,1581,582,0,0
364,442,0,0,0,0,0,0,0,0,0,-1,1588,582,0,0
371,442,0,0,0,0,0,0,0,0,0,-1,1595,582,0,0
378,442,0,0,0,0,0,0,0,0,0,-1,1602,582,0,0
385,442,0,0,0,0,0,0,0,0,0,-1,1609,582,0,0
392,442,0,0,0,0,0,0,0,0,0,-1,1616,582,0,0
399,442,0,0,0,0,0,0,0,0,0,-1,1623,582,0,0
406,442,17.6321,4.08295,0,0,0,0,0,0,0,-1,1630,582,17.6321,-4.08293
413,442,25.4768,2.74445,0,0,0,0,0,0,0,-1,1637,582,25.4768,-2.74444
420,442,22.7478,1.55011,0,0,0,0,0,0,0,-1,1644,582,22.7478,-1.55009
427,442,23.2969,-0.456787,0,0,0,0,0,0,0,-1,1651,582,23.2968,0.456769
434,442,23.9512,-2.49365,0,0,0,0,0,0,0,-1,1658,582,23.9512,2.49366
441,442,24.8251,-4.43958,0,0,0,0,0,0,0,-1,1665,582,24.8251,4.43956
448,442,4.7749,-5.88562,0,0,0,0,0,0,0,-1,1672,582,4.7749,5.8856
455,442,4.87024,-4.60687,0,0,0,0,0,0,0,-1,1679,582,4.87019,4.60686
462,442,5.02307,-3.72821,0,0,0,0,0,0,0,-1,1686,582,5.02311,3.7282
469,442,5.12976,-2.98834,0,0,0,0,0,0,0,-1,1693,582,5.12971,2.98834
476,442,5.4624,1.76947,0,0,0,0,0,0,0,-1,1700,582,5.46234,-1.76944
483,442,5.98486,1.87042,0,0,0,0,0,0,0,-1,1707,582,5.98492,-1.87045
490,442,5.04407,-2.35834,0,0,0,0,0,0,0,-1,1714,582,5.04411,2.35837
497,442,6.20984,-3.07831,0,0,0,0,0,0,0,-1,1721,582,6.2098,3.07833
504,442,20.9276,-19.7709,0,0,0,0,0,0,0,-1,1728,582,20.9276,19.771
511,442,26.0988,-24.2721,0,0,0,0,0,0,0,-1,1735,582,26.0987,24.2721
518,442,26.0505,-23.3808,0.0034043,0.00195984,0.00191001,0.00472407,0.000640072,0.604643,0.00295919,0.0160338,1742,582,26.0505,23.3808
525,442,25.9934,-22.4962,0.00289141,0.0017317,0.00175953,0.00416417,0.000458936,0.626226,0.00263649,0.0113313,1749,582,25.9934,22.4962
532,442,25.943,-21.6306,0.00240949,0.00164323,0.00161683,0.00368797,0.000364751,0.669061,0.00234653,0.0118717,1756,582,25.943,21.6306
539,442,25.8829,-20.7333,0.00203828,0.0016886,0.00153974,0.00341307,0.000313805,0.728864,0.00217832,0.015406,1763,582,25.8829,20.7334
546,442,25.8569,-19.8522,0.001731,0.0018642,0.00146218,0.0032613,0.000333901,0.808156,0.00207189,0.021027,1770,582,25.8569,19.8522
553,442,25.7676,-18.9921,0.00142933,0.00217482,0.00144815,0.00329742,0.000306723,0.911361,0.00210351,0.020608,1777,582,25.7675,18.9921
560,442,25.7552,-18.1454,0.0012159,0.00258886,0.00154086,0.00358924,0.000215514,0.994959,0.00232432,0.0155009,1784,582,25.7552,18.1455
567,442,25.708,-17.2637,0.00121039,0.00320951,0.00180053,0.00426932,0.000150578,1.03879,0.00279737,0.0105316,1791,582,25.708,17.2637
574,442,25.6571,-16.3763,0.00126833,0.00392756,0.00214705,0.00512336,7.25277e-05,1.06263,0.00339166,0.0125275,1798,582,25.6571,16.3764
581,442,25.6694,-15.3873,0.00152008,0.00493108,0.00276358,0.00647306,-2.18963e-05,1.06186,0.00432269,0.0293965,1805,582,25.6694,15.3873
588,442,25.7526,-14.3587,0,0,0,0,0,0,0,-1,1812,582,25.7526,14.3587
595,442,16.27,-6.47083,0,0,0,0,0,0,0,-1,1819,582,16.27,6.47082
602,442,16.2213,-4.49225,0,0,0,0,0,0,0,-1,1826,582,16.2213,4.49223
609,442,12.761,2.97223,0,0,0,0,0,0,0,-1,1833,582,12.761,-2.97221
616,442,9.78345,-0.103394,0,0,0,0,0,0,0,-1,1840,582,9.78341,0.103424
623,442,9.23828,0.326721,0,0,0,0,0,0,0,-1,1847,582,9.23829,-0.326727
630,442,7.74304,2.3924,0,0,0,0,0,0,0,-1,1854,582,7.7431,-2.39238
637,442,5.87805,1.84027,0,0,0,0,0,0,0,-1,1861,582,5.87807,-1.84025
644,442,0,0,0,0,0,0,0,0,0,-1,1868,582,0,0
651,442,0,0,0,0,0,0,0,0,0,-1,1875,582,0,0
658,442,0,0,0,0,0,0,0,0,0,-1,1882,582,0,0
665,442,0,0,0,0,0,0,0,0,0,-1,1889,582,0,0
672,442,0,0,0,0,0,0,0,0,0,-1,1896,582,0,0
679,442,0,0,0,0,0,0,0,0,0,-1,1903,582,0,0
686,442,0,0,0,0,0,0,0,0,0,-1,1910,582,0,0
693,442,0,0,0,0,0,0,0,0,0,-1,1917,582,0,0
700,442,0,0,0,0,0,0,0,0,0,-1,1924,582,0,0
707,442,0,0,0,0,0,0,0,0,0,-1,1931,582,0,0
714,442,0,0,0,0,0,0,0,0,0,-1,1938,582,0,0
721,442,0,0,0,0,0,0,0,0,0,-1,1945,582,0,0
728,442,0,0,0,0,0,0,0,0,0,-1,1952,582,0,0
735,442,0,0,0,0,0,0,0,0,0,-1,1959,582,0,0
742,442,0,0,0,0,0,0,0,0,0,-1,1966,582,0,0
749,442,0,0,0,0,0,0,0,0,0,-1,1973,582,0,0
756,442,0,0,0,0,0,0,0,0,0,-1,1980,582,0,0
763,442,0,0,0,0,0,0,0,0,0,-1,1987,582,0,0
770,442,0,0,0,0,0,0,0,0,0,-1,1994,582,0,0
777,442,0,0,0,0,0,0,0,0,0,-1,2001,582,0,0
784,442,0,0,0,0,0,0,0,0,0,-1,2008,582,0,0
791,442,0,0,0,0,0,0,0,0,0,-1,2015,582,0,0
798,442,0,0,0,0,0,0,0,0,0,-1,2022,582,0,0
805,442,0,0,0,0,0,0,0,0,0,-1,2029,582,0,0
812,442,0,0,0,0,0,0,0,0,0,-1,2036,582,0,0
-700,435,0,0,0,0,0,0,0,0,0,-1,524,589,0,0
-693,435,0,0,0,0,0,0,0,0,0,-1,531,589,0,0
-686,435,0,0,0,0,0,0,0,0,0,-1,538,589,0,0
-679,435,0,0,0,0,0,0,0,0,0,-1,545,589,0,0
-672,435,0,0,0,0,0,0,0,0,0,-1,552,589,0,0
-665,435,0,0,0,0,0,0,0,0,0,-1,559,589,0,0
-658,435,0,0,0,0,0,0,0,0,0,-1,566,589,0,0
-651,435,0,0,0,0,0,0,0,0,0,-1,573,589,0,0
-644,435,0,0,0,0,0,0,0,0,0,-1,580,589,0,0
-637,435,0,0,0,0,0,0,0,0,0,-1,587,589,0,0
-630,435,0,0,0,0,0,0,0,0,0,-1,594,589,0,0
-623,435,0,0,0,0,0,0,0,0,0,-1,601,589,0,0
-616,435,0,0,0,0,0,0,0,0,0,-1,608,589,0,0
-609,435,0,0,0,0,0,0,0,0,0,-1,615,589,0,0
-602,435,0,0,0,0,0,0,0,0,0,-1,622,589,0,0
-595,435,0,0,0,0,0,0,0,0,0,-1,629,589,0,0
-588,435,0,0,0,0,0,0,0,0,0,-1,636,589,0,0
-581,435,0,0,0,0,0,0,0,0,0,-1,643,589,0,0
-574,435,0,0,0,0,0,0,0,0,0,-1,650,589,0,0
-567,435,0,0,0,0,0,0,0,0,0,-1,657,589,0,0
-560,435,0,0,0,0,0,0,0,0,0,-1,664,589,0,0
-553,435,0,0,0,0,0,0,0,0,0,-1,671,589,0,0
-546,435,0,0,0,0,0,0,0,0,0,-1,678,589,0,0
-539,435,0,0,0,0,0,0,0,0,0,-1,685,589,0,0
-532,435,0,0,0,0,0,0,0,0,0,-1,692,589,0,0
-525,435,-10.0776,10.0547,0,0,0,0,0,0,0,-1,699,589,-10.0776,-10.0547
-518,435,-1.83093,-5.82367,0,0,0,0,0,0,0,-1,706,589,-1.83093,5.8237
-511,435,-2.45154,-5.33118,0,0,0,0,0,0,0,-1,713,589,-2.45151,5.33115
-504,435,-3.07208,-4.83862,0,0,0,0,0,0,0,-1,720,589,-3.0721,4.8386
-497,435,-6.31012,-5.84698,0,0,0,0,0,0,0,-1,727,589,-6.31012,5.84697
-490,435,-5.81903,-0.458679,0,0,0,0,0,0,0,-1,734,589,-5.81902,0.458684
-483,435,-6.96503,-3.01624,0,0,0,0,0,0,0,-1,741,589,-6.96505,3.01623
-476,435,-12.1337,-12.8022,0,0,0,0,0,0,0,-1,748,589,-12.1337,12.8023
-469,435,-11.6581,-13.9255,0,0,0,0,0,0,0,-1,755,589,-11.6581,13.9255
-462,435,-11.5726,-14.9639,0,0,0,0,0,0,0,-1,762,589,-11.5726,14.9639
-455,435,-11.6486,-16.0993,-0.00287812,0.00315912,0.000604692,0.00321909,-0.00293809,1.47194,0.00355609,0.0290608,769,589,-11.6486,16.0993
-448,435,-11.6475,-17.0338,-0.00174815,0.00263028,0.000100802,0.0026326,-0.00175047,1.54779,0.00254759,0.0140865,776,589,-11.6475,17.0338
-441,435,-11.691,-17.9044,-0.000760875,0.00233574,-0.000329083,0.00237032,-0.000795461,-1.46608,0.00190166,0.0113624,783,589,-11.691,17.9044
-434,435,-11.7515,-18.7643,4.14285e-05,0.00210702,-0.000640153,0.00228932,-0.000140874,-1.29336,0.00157527,0.0127547,790,589,-11.7515,18.7643
-427,435,-11.8134,-19.6547,0.000772087,0.002001,-0.000927561,0.00249916,0.000273922,-1.07793,0.00158272,0.0102872,797,589,-11.8134,19.6547
-420,435,-11.842,-20.5113,0.00146779,0.00197363,-0.0012222,0.00296881,0.000472616,-0.887428,0.00184199,0.0107848,804,589,-11.842,20.5113
-413,435,-11.8755,-21.3807,0.00200182,0.00194186,-0.00137251,0.00334467,0.000599006,-0.774479,0.00205936,0.0119908,811,589,-11.8755,21.3807
-406,435,-11.9327,-22.254,0.0024485,0.00194481,-0.00146061,0.00367882,0.000714497,-0.700025,0.00225248,0.0124353,818,589,-11.9327,22.254
-399,435,-11.9997,-23.0892,0.00299047,0.00205929,-0.001647,0.00423642,0.000813339,-0.647646,0.00259599,0.0108014,825,589,-11.9997,23.0892
-392,435,-12.0598,-23.92,0.00356258,0.00220117,-0.00184152,0.00484518,0.00091858,-0.608365,0.00297163,0.0117599,832,589,-12.0598,23.92
-385,435,-12.0863,-24.7802,0.00415396,0.00231364,-0.00205294,0.00548352,0.000984079,-0.574713,0.00337581,0.0237519,839,589,-12.0863,24.7802
-378,435,-12.0208,-25.6685,0,0,0,0,0,0,0,-1,846,589,-12.0208,25.6685
-371,435,-10.247,-21.7153,0,0,0,0,0,0,0,-1,853,589,-10.247,21.7153
-364,435,-5.62848,-11.5937,0,0,0,0,0,0,0,-1,860,589,-5.62847,11.5937
-357,435,-5.57343,-10.9666,0,0,0,0,0,0,0,-1,867,589,-5.57342,10.9666
-350,435,-0.86676,-3.69836,0,0,0,0,0,0,0,-1,874,589,-0.866784,3.69834
-343,435,-1.60706,-2.36835,0,0,0,0,0,0,0,-1,881,589,-1.60706,2.36838
-336,435,-2.07263,-1.94012,0,0,0,0,0,0,0,-1,888,589,-2.07265,1.94014
-329,435,-2.55963,-1.5517,0,0,0,0,0,0,0,-1,895,589,-2.5596,1.55168
-322,435,-3.08545,-1.55255,0,0,0,0,0,0,0,-1,902,589,-3.08544,1.55254
-315,435,-0.404297,-2.63763,0,0,0,0,0,0,0,-1,909,589,-0.404276,2.63761
-308,435,-1.70056,-1.90369,0,0,0,0,0,0,0,-1,916,589,-1.70056,1.90367
-301,435,-1.19391,-2.41632,0,0,0,0,0,0,0,-1,923,589,-1.1939,2.41635
-294,435,3.78278,-10.3275,0,0,0,0,0,0,0,-1,930,589,3.78281,10.3275
-287,435,0,0,0,0,0,0,0,0,0,-1,937,589,0,0
-280,435,0,0,0,0,0,0,0,0,0,-1,944,589,0,0
-273,435,0,0,0,0,0,0,0,0,0,-1,951,589,0,0
-266,435,0,0,0,0,0,0,0,0,0,-1,958,589,0,0
-259,435,0,0,0,0,0,0,0,0,0,-1,965,589,0,0
-252,435,0,0,0,0,0,0,0,0,0,-1,972,589,0,0
-245,435,0,0,0,0,0,0,0,0,0,-1,979,589,0,0
-238,435,0,0,0,0,0,0,0,0,0,-1,986,589,0,0
-231,435,0,0,0,0,0,0,0,0,0,-1,993,589,0,0
-224,435,0,0,0,0,0,0,0,0,0,-1,1000,589,0,0
-217,435,0,0,0,0,0,0,0,0,0,-1,1007,589,0,0
-210,435,0,0,0,0,0,0,0,0,0,-1,1014,589,0,0
-203,435,0,0,0,0,0,0,0,0,0,-1,1021,589,0,0
-196,435,0,0,0,0,0,0,0,0,0,-1,1028,589,0,0
-189,435,0,0,0,0,0,0,0,0,0,-1,1035,589,0,0
-182,435,0,0,0,0,0,0,0,0,0,-1,1042,589,0,0
-175,435,0,0,0,0,0,0,0,0,0,-1,1049,589,0,0
-168,435,0,0,0,0,0,0,0,0,0,-1,1056,589,0,0
-161,435,0,0,0,0,0,0,0,0,0,-1,1063,589,0,0
-154,435,0,0,0,0,0,0,0,0,0,-1,1070,589,0,0
-147,435,0,0,0,0,0,0,0,0,0,-1,1077,589,0,0
-140,435,0,0,0,0,0,0,0,0,0,-1,1084,589,0,0
-133,435,0,0,0,0,0,0,0,0,0,-1,1091,589,0,0
-126,435,0,0,0,0,0,0,0,0,0,-1,1098,589,0,0
-119,435,0,0,0,0,0,0,0,0,0,-1,1105,589,0,0
-112,435,0,0,0,0,0,0,0,0,0,-1,1112,589,0,0
-105,435,0,0,0,0,0,0,0,0,0,-1,1119,589,0,0
-98,435,0,0,0,0,0,0,0,0,0,-1,1126,589,0,0
-91,435,0,0,0,0,0,0,0,0,0,-1,1133,589,0,0
-84,435,0,0,0,0,0,0,0,0,0,-1,1140,589,0,0
-77,435,0,0,0,0,0,0,0,0,0,-1,1147,589,0,0
-70,435,0,0,0,0,0,0,0,0,0,-1,1154,589,0,0
-63,435,0,0,0,0,0,0,0,0,0,-1,1161,589,0,0
-56,435,0,0,0,0,0,0,0,0,0,-1,1168,589,0,0
-49,435,0,0,0,0,0,0,0,0,0,-1,1175,589,0,0
-42,435,0,0,0,0,0,0,0,0,0,-1,1182,589,0,0
-35,435,0,0,0,0,0,0,0,0,0,-1,1189,589,0,0
-28,435,0,0,0,0,0,0,0,0,0,-1,1196,589,0,0
-21,435,0,0,0,0,0,0,0,0,0,-1,1203,589,0,0
-14,435,0,0,0,0,0,0,0,0,0,-1,1210,589,0,0
-7,435,0,0,0,0,0,0,0,0,0,-1,1217,589,0,0
0,435,0,0,0,0,0,0,0,0,0,-1,1224,589,0,0
7,435,0,0,0,0,0,0,0,0,0,-1,1231,589,0,0
14,435,0,0,0,0,0,0,0,0,0,-1,1238,589,0,0
21,435,0,0,0,0,0,0,0,0,0,-1,1245,589,0,0
28,435,0,0,0,0,0,0,0,0,0,-1,1252,589,0,0
35,435,0,0,0,0,0,0,0,0,0,-1,1259,589,0,0
42,435,0,0,0,0,0,0,0,0,0,-1,1266,589,0,0
49,435,0,0,0,0,0,0,0,0,0,-1,1273,589,0,0
56,435,0,0,0,0,0,0,0,0,0,-1,1280,589,0,0
63,435,0,0,0,0,0,0,0,0,0,-1,1287,589,0,0
70,435,0,0,0,0,0,0,0,0,0,-1,1294,589,0,0
77,435,0,0,0,0,0,0,0,0,0,-1,1301,589,0,0
84,435,0,0,0,0,0,0,0,0,0,-1,1308,589,0,0
91,435,0,0,0,0,0,0,0,0,0,-1,1315,589,0,0
98,435,0,0,0,0,0,0,0,0,0,-1,1322,589,0,0
105,435,0,0,0,0,0,0,0,0,0,-1,1329,589,0,0
112,435,0,0,0,0,0,0,0,0,0,-1,1336,589,0,0
119,435,0,0,0,0,0,0,0,0,0,-1,1343,589,0,0
126,435,0,0,0,0,0,0,0,0,0,-1,1350,589,0,0
133,435,0,0,0,0,0,0,0,0,0,-1,1357,589,0,0
140,435,0,0,0,0,0,0,0,0,0,-1,1364,589,0,0
147,435,0,0,0,0,0,0,0,0,0,-1,1371,589,0,0
154,435,0,0,0,0,0,0,0,0,0,-1,1378,589,0,0
161,435,0,0,0,0,0,0,0,0,0,-1,1385,589,0,0
168,435,0,0,0,0,0,0,0,0,0,-1,1392,589,0,0
175,435,0,0,0,0,0,0,0,0,0,-1,1399,589,0,0
182,435,0,0,0,0,0,0,0,0,0,-1,1406,589,0,0
189,435,0,0,0,0,0,0,0,0,0,-1,1413,589,0,0
196,435,0,0,0,0,0,0,0,0,0,-1,1420,589,0,0
203,435,0,0,0,0,0,0,0,0,0,-1,1427,589,0,0
210,435,0,0,0,0,0,0,0,0,0,-1,1434,589,0,0
217,435,0,0,0,0,0,0,0,0,0,-1,1441,589,0,0
224,435,0,0,0,0,0,0,0,0,0,-1,1448,589,0,0
231,435,0,0,0,0,0,0,0,0,0,-1,1455,589,0,0
238,435,0,0,0,0,0,0,0,0,0,-1,1462,589,0,0
245,435,0,0,0,0,0,0,0,0,0,-1,1469,589,0,0
252,435,0,0,0,0,0,0,0,0,0,-1,1476,589,0,0
259,435,0,0,0,0,0,0,0,0,0,-1,1483,589,0,0
266,435,0,0,0,0,0,0,0,0,0,-1,1490,589,0,0
273,435,0,0,0,0,0,0,0,0,0,-1,1497,589,0,0
280,435,0,0,0,0,0,0,0,0,0,-1,1504,589,0,0
287,435,0,0,0,0,0,0,0,0,0,-1,1511,589,0,0
294,435,0,0,0,0,0,0,0,0,0,-1,1518,589,0,0
301,435,0,0,0,0,0,0,0,0,0,-1,1525,589,0,0
308,435,0,0,0,0,0,0,0,0,0,-1,1532,589,0,0
315,435,0,0,0,0,0,0,0,0,0,-1,1539,589,0,0
322,435,0,0,0,0,0,0,0,0,0,-1,1546,589,0,0
329,435,0,0,0,0,0,0,0,0,0,-1,1553,589,0,0
336,435,0,0,0,0,0,0,0,0,0,-1,1560,589,0,0
343,435,0,0,0,0,0,0,0,0,0,-1,1567,589,0,0
350,435,0,0,0,0,0,0,0,0,0,-1,1574,589,0,0
357,435,0,0,0,0,0,0,0,0,0,-1,1581,589,0,0
364,435,0,0,0,0,0,0,0,0,0,-1,1588,589,0,0
371,435,0,0,0,0,0,0,0,0,0,-1,1595,589,0,0
378,435,0,0,0,0,0,0,0,0,0,-1,1602,589,0,0
385,435,0,0,0,0,0,0,0,0,0,-1,1609,589,0,0
392,435,0,0,0,0,0,0,0,0,0,-1,1616,589,0,0
399,435,0,0,0,0,0,0,0,0,0,-1,1623,589,0,0
406,435,0,0,0,0,0,0,0,0,0,-1,1630,589,0,0
413,435,20.4565,3.49835,0,0,0,0,0,0,0,-1,1637,589,20.4565,-3.49836
420,435,21.4015,1.49609,0,0,0,0,0,0,0,-1,1644,589,21.4015,-1.49609
427,435,22.0464,-0.373962,0,0,0,0,0,0,0,-1,1651,589,22.0464,0.373972
434,435,22.1863,-1.54407,0,0,0,0,0,0,0,-1,1658,589,22.1862,1.54405
441,435,22.3992,-2.38287,0,0,0,0,0,0,0,-1,1665,589,22.3992,2.38289
448,435,7.4585,-0.00292969,0,0,0,0,0,0,0,-1,1672,589,7.45848,0.00294131
455,435,5.49915,-5.047,0,0,0,0,0,0,0,-1,1679,589,5.49914,5.04703
462,435,5.60669,-4.71466,0,0,0,0,0,0,0,-1,1686,589,5.60675,4.71469
469,435,5.87708,1.22351,0,0,0,0,0,0,0,-1,1693,589,5.87703,-1.22351
476,435,6.14136,1.37714,0,0,0,0,0,0,0,-1,1700,589,6.14138,-1.37712
483,435,6.49243,1.36169,0,0,0,0,0,0,0,-1,1707,589,6.49242,-1.36171
490,435,4.38391,-1.36218,0,0,0,0,0,0,0,-1,1714,589,4.38389,1.3622
497,435,7.23499,-3.64551,0,0,0,0,0,0,0,-1,1721,589,7.23495,3.64551
504,435,7.31189,-3.75909,0,0,0,0,0,0,0,-1,1728,589,7.31184,3.75911
511,435,26.6802,-24.3708,0,0,0,0,0,0,0,-1,1735,589,26.6801,24.3709
518,435,26.9187,-23.3321,0.00445736,0.00231349,0.00239193,0.00600656,0.000764285,0.574742,0.00377549,0.0430946,1742,589,26.9188,23.3321
525,435,26.8655,-22.4413,0.00376196,0.00192705,0.00207044,0.00510911,0.000579899,0.576839,0.00323017,0.0147363,1749,589,26.8655,22.4413
532,435,26.8441,-21.5599,0.00312762,0.00168921,0.00178071,0.00432889,0.000487946,0.593472,0.00273781,0.0162078,1756,589,26.8441,21.5599
539,435,26.7809,-20.6646,0.00264559,0.00165098,0.00159878,0.00382262,0.000473947,0.634615,0.00240604,0.0173405,1763,589,26.7808,20.6645
546,435,26.7197,-19.827,0.00223702,0.00168953,0.00143024,0.00341947,0.000507075,0.690843,0.00213083,0.0172463,1770,589,26.7197,19.827
553,435,26.6675,-18.9842,0.00184342,0.00187457,0.00134084,0.00319992,0.000518069,0.791207,0.00198328,0.0124925,1777,589,26.6674,18.9842
560,435,26.6287,-18.0978,0.00153786,0.00215815,0.00136541,0.0032482,0.000447811,0.897076,0.00203271,0.0102024,1784,589,26.6287,18.0978
567,435,26.5919,-17.1939,0.00145687,0.00264939,0.00157459,0.00373683,0.000369425,0.966394,0.00237766,0.00930156,1791,589,26.5919,17.1939
574,435,26.5277,-16.3257,0.0014888,0.00324074,0.00188184,0.00444049,0.000289042,1.00323,0.00286884,0.0103756,1798,589,26.5277,16.3257
581,435,26.4675,-15.4464,0.00173795,0.0040594,0.00243444,0.00559567,0.000201673,1.00785,0.00366507,0.0167609,1805,589,26.4675,15.4463
588,435,26.4287,-14.6052,0.00232482,0.00515796,0.00325384,0.00729021,0.000192561,0.990702,0.00479724,0.0491845,1812,589,26.4287,14.6052
595,435,26.444,-13.438,0,0,0,0,0,0,0,-1,1819,589,26.4439,13.438
602,435,16.8671,-6.39026,0,0,0,0,0,0,0,-1,1826,589,16.867,6.39024
609,435,15.2611,-3.42242,0,0,0,0,0,0,0,-1,1833,589,15.2611,3.42242
616,435,5.05151,-2.75269,0,0,0,0,0,0,0,-1,1840,589,5.05157,2.7527
623,435,11.7588,3.9704,0,0,0,0,0,0,0,-1,1847,589,11.7587,-3.97043
630,435,4.72742,-0.87561,0,0,0,0,0,0,0,-1,1854,589,4.7274,0.875636
637,435,5.05286,1.48792,0,0,0,0,0,0,0,-1,1861,589,5.05291,-1.48792
644,435,0,0,0,0,0,0,0,0,0,-1,1868,589,0,0
651,435,0,0,0,0,0,0,0,0,0,-1,1875,589,0,0
658,435,0,0,0,0,0,0,0,0,0,-1,1882,589,0,0
665,435,0,0,0,0,0,0,0,0,0,-1,1889,589,0,0
672,435,0,0,0,0,0,0,0,0,0,-1,1896,589,0,0
679,435,0,0,0,0,0,0,0,0,0,-1,1903,589,0,0
686,435,0,0,0,0,0,0,0,0,0,-1,1910,589,0,0
693,435,0,0,0,0,0,0,0,0,0,-1,1917,589,0,0
700,435,0,0,0,0,0,0,0,0,0,-1,1924,589,0,0
707,435,0,0,0,0,0,0,0,0,0,-1,1931,589,0,0
714,435,0,0,0,0,0,0,0,0,0,-1,1938,589,0,0
721,435,0,0,0,0,0,0,0,0,0,-1,1945,589,0,0
728,435,0,0,0,0,0,0,0,0,0,-1,1952,589,0,0
735,435,0,0,0,0,0,0,0,0,0,-1,1959,589,0,0
742,435,0,0,0,0,0,0,0,0,0,-1,1966,589,0,0
749,435,0,0,0,0,0,0,0,0,0,-1,1973,589,0,0
756,435,0,0,0,0,0,0,0,0,0,-1,1980,589,0,0
763,435,0,0,0,0,0,0,0,0,0,-1,1987,589,0,0
770,435,0,0,0,0,0,0,0,0,0,-1,1994,589,0,0
777,435,0,0,0,0,0,0,0,0,0,-1,2001,589,0,0
784,435,0,0,0,0,0,0,0,0,0,-1,2008,589,0,0
791,435,0,0,0,0,0,0,0,0,0,-1,2015,589,0,0
798,435,0,0,0,0,0,0,0,0,0,-1,2022,589,0,0
805,435,0,0,0,0,0,0,0,0,0,-1,2029,589,0,0
812,435,0,0,0,0,0,0,0,0,0,-1,2036,589,0,0
-700,428,0,0,0,0,0,0,0,0,0,-1,524,596,0,0
-693,428,0,0,0,0,0,0,0,0,0,-1,531,596,0,0
-686,428,0,0,0,0,0,0,0,0,0,-1,538,596,0,0
-679,428,0,0,0,0,0,0,0,0,0,-1,545,596,0,0
-672,428,0,0,0,0,0,0,0,0,0,-1,552,596,0,0
-665,428,0,0,0,0,0,0,0,0,0,-1,559,596,0,0
-658,428,0,0,0,0,0,0,0,0,0,-1,566,596,0,0
-651,428,0,0,0,0,0,0,0,0,0,-1,573,596,0,0
-644,428,0,0,0,0,0,0,0,0,0,-1,580,596,0,0
-637,428,0,0,0,0,0,0,0,0,0,-1,587,596,0,0
-630,428,0,0,0,0,0,0,0,0,0,-1,594,596,0,0
-623,428,0,0,0,0,0,0,0,0,0,-1,601,596,0,0
-616,428,0,0,0,0,0,0,0,0,0,-1,608,596,0,0
-609,428,0,0,0,0,0,0,0,0,0,-1,615,596,0,0
-602,428,0,0,0,0,0,0,0,0,0,-1,622,596,0,0
-595,428,0,0,0,0,0,0,0,0,0,-1,629,596,0,0
-588,428,0,0,0,0,0,0,0,0,0,-1,636,596,0,0
-581,428,0,0,0,0,0,0,0,0,0,-1,643,596,0,0
-574,428,0,0,0,0,0,0,0,0,0,-1,650,596,0,0
-567,428,0,0,0,0,0,0,0,0,0,-1,657,596,0,0
-560,428,0,0,0,0,0,0,0,0,0,-1,664,596,0,0
-553,428,0,0,0,0,0,0,0,0,0,-1,671,596,0,0
-546,428,0,0,0,0,0,0,0,0,0,-1,678,596,0,0
-539,428,0,0,0,0,0,0,0,0,0,-1,685,596,0,0
-532,428,0,0,0,0,0,0,0,0,0,-1,692,596,0,0
-525,428,-9.59918,7.58618,0,0,0,0,0,0,0,-1,699,596,-9.59918,-7.5862
-518,428,-2.92285,-4.81854,0,0,0,0,0,0,0,-1,706,596,-2.92285,4.81856
-511,428,-3.68811,-4.79474,0,0,0,0,0,0,0,-1,713,596,-3.68811,4.79474
-504,428,-4.45337,-4.77094,0,0,0,0,0,0,0,-1,720,596,-4.45337,4.77092
-497,428,-2.98108,-3.77502,0,0,0,0,0,0,0,-1,727,596,-2.98106,3.77505
-490,428,-6.39044,-2.80481,0,0,0,0,0,0,0,-1,734,596,-6.39047,2.80483
-483,428,-10.8474,-9.11322,0,0,0,0,0,0,0,-1,741,596,-10.8473,9.11321
-476,428,-12.2451,-13.3397,0,0,0,0,0,0,0,-1,748,596,-12.2451,13.3397
-469,428,-12.1797,-14.2528,-0.00478512,0.00343194,0.00173393,0.00378284,-0.00513602,1.37112,0.00516903,0.0365434,755,596,-12.1797,14.2528
-462,428,-12.3779,-15.0654,-0.00336184,0.00299693,0.000963444,0.0031397,-0.00350461,1.42368,0.00383802,0.0381648,762,596,-12.378,15.0654
-455,428,-12.4841,-16.0335,-0.00216248,0.00237923,0.000476088,0.0024286,-0.00221185,1.46747,0.00268014,0.0177354,769,596,-12.484,16.0335
-448,428,-12.509,-16.9522,-0.00112756,0.00197888,2.5487e-05,0.00197908,-0.00112777,1.56259,0.00181605,0.011121,776,596,-12.509,16.9522
-441,428,-12.5613,-17.8322,-0.000189009,0.00177105,-0.000378218,0.0018415,-0.000259459,-1.38664,0.00132266,0.0135549,783,596,-12.5613,17.8322
-434,428,-12.6035,-18.7336,0.000592527,0.00164338,-0.00069809,0.00199169,0.000244225,-1.108,0.00125433,0.0108836,790,596,-12.6035,18.7336
-427,428,-12.6475,-19.6183,0.00134216,0.00167927,-0.00104437,0.0025686,0.000452832,-0.865404,0.00158319,0.011457,797,596,-12.6474,19.6183
-420,428,-12.6804,-20.4404,0.0020638,0.00182256,-0.0014076,0.00335594,0.000530422,-0.742657,0.00208312,0.0122316,804,596,-12.6804,20.4403
-413,428,-12.7159,-21.2891,0.00263372,0.00201005,-0.00165794,0.0040089,0.000634873,-0.692441,0.00248812,0.0154311,811,596,-12.7159,21.2891
-406,428,-12.7952,-22.1658,0.00315469,0.00230358,-0.00191971,0.00469545,0.00076282,-0.676325,0.00290955,0.0181765,818,596,-12.7952,22.1657
-399,428,-12.8492,-23.0518,0.00381388,0.00269048,-0.00232728,0.00564629,0.000858074,-0.666985,0.00351327,0.0179712,825,596,-12.8493,23.0518
-392,428,-12.8237,-23.9456,0.00451508,0.00315037,-0.00275674,0.00667266,0.000992788,-0.664075,0.00415721,0.0376216,832,596,-12.8237,23.9456
-385,428,-12.9214,-24.793,0,0,0,0,0,0,0,-1,839,596,-12.9214,24.793
-378,428,-10.8172,-20.952,0,0,0,0,0,0,0,-1,846,596,-10.8172,20.952
-371,428,-5.96155,-11.0703,0,0,0,0,0,0,0,-1,853,596,-5.96154,11.0702
-364,428,-6.33643,-10.7223,0,0,0,0,0,0,0,-1,860,596,-6.33645,10.7223
-357,428,-3.20996,-4.70966,0,0,0,0,0,0,0,-1,867,596,-3.20997,4.70965
-350,428,-1.62793,-3.94055,0,0,0,0,0,0,0,-1,874,596,-1.62794,3.94055
-343,428,-0.0567017,-4.80994,0,0,0,0,0,0,0,-1,881,596,-0.0567096,4.80996
-336,428,-3.29175,-1.39569,0,0,0,0,0,0,0,-1,888,596,-3.29172,1.39568
-329,428,-3.71564,-0.791321,0,0,0,0,0,0,0,-1,895,596,-3.71564,0.791299
-322,428,-5.52863,-3.59827,0,0,0,0,0,0,0,-1,902,596,-5.52865,3.59829
-315,428,-4.57172,-1.22052,0,0,0,0,0,0,0,-1,909,596,-4.57171,1.22052
-308,428,-5.60742,-3.40961,0,0,0,0,0,0,0,-1,916,596,-5.60744,3.40959
-301,428,0,0,0,0,0,0,0,0,0,-1,923,596,0,0
-294,428,0,0,0,0,0,0,0,0,0,-1,930,596,0,0
-287,428,0,0,0,0,0,0,0,0,0,-1,937,596,0,0
-280,428,0,0,0,0,0,0,0,0,0,-1,944,596,0,0
-273,428,0,0,0,0,0,0,0,0,0,-1,951,596,0,0
-266,428,0,0,0,0,0,0,0,0,0,-1,958,596,0,0
-259,428,0,0,0,0,0,0,0,0,0,-1,965,596,0,0
-252,428,0,0,0,0,0,0,0,0,0,-1,972,596,0,0
-245,428,0,0,0,0,0,0,0,0,0,-1,979,596,0,0
-238,428,0,0,0,0,0,0,0,0,0,-1,986,596,0,0
-231,428,0,0,0,0,0,0,0,0,0,-1,993,596,0,0
-224,428,0,0,0,0,0,0,0,0,0,-1,1000,596,0,0
-217,428,0,0,0,0,0,0,0,0,0,-1,1007,596,0,0
-210,428,0,0,0,0,0,0,0,0,0,-1,1014,596,0,0
-203,428,0,0,0,0,0,0,0,0,0,-1,1021,596,0,0
-196,428,0,0,0,0,0,0,0,0,0,-1,1028,596,0,0
-189,428,0,0,0,0,0,0,0,0,0,-1,1035,596,0,0
-182,428,0,0,0,0,0,0,0,0,0,-1,1042,596,0,0
-175,428,0,0,0,0,0,0,0,0,0,-1,1049,596,0,0
-168,428,0,0,0,0,0,0,0,0,0,-1,1056,596,0,0
-161,428,0,0,0,0,0,0,0,0,0,-1,1063,596,0,0
-154,428,0,0,0,0,0,0,0,0,0,-1,1070,596,0,0
-147,428,0,0,0,0,0,0,0,0,0,-1,1077,596,0,0
-140,428,0,0,0,0,0,0,0,0,0,-1,1084,596,0,0
-133,428,0,0,0,0,0,0,0,0,0,-1,1091,596,0,0
-126,428,0,0,0,0,0,0,0,0,0,-1,1098,596,0,0
-119,428,0,0,0,0,0,0,0,0,0,-1,1105,596,0,0
-112,428,0,0,0,0,0,0,0,0,0,-1,1112,596,0,0
-105,428,0,0,0,0,0,0,0,0,0,-1,1119,596,0,0
-98,428,0,0,0,0,0,0,0,0,0,-1,1126,596,0,0
-91,428,0,0,0,0,0,0,0,0,0,-1,1133,596,0,0
-84,428,0,0,0,0,0,0,0,0,0,-1,1140,596,0,0
-77,428,0,0,0,0,0,0,0,0,0,-1,1147,596,0,0
-70,428,0,0,0,0,0,0,0,0,0,-1,1154,596,0,0
-63,428,0,0,0,0,0,0,0,0,0,-1,1161,596,0,0
-56,428,0,0,0,0,0,0,0,0,0,-1,1168,596,0,0
-49,428,0,0,0,0,0,0,0,0,0,-1,1175,596,0,0
-42,428,0,0,0,0,0,0,0,0,0,-1,1182,596,0,0
-35,428,0,0,0,0,0,0,0,0,0,-1,1189,596,0,0
-28,428,0,0,0,0,0,0,0,0,0,-1,1196,596,0,0
-21,428,0,0,0,0,0,0,0,0,0,-1,1203,596,0,0
-14,428,0,0,0,0,0,0,0,0,0,-1,1210,596,0,0
-7,428,0,0,0,0,0,0,0,0,0,-1,1217,596,0,0
0,428,0,0,0,0,0,0,0,0,0,-1,1224,596,0,0
7,428,0,0,0,0,0,0,0,0,0,-1,1231,596,0,0
14,428,0,0,0,0,0,0,0,0,0,-1,1238,596,0,0
21,428,0,0,0,0,0,0,0,0,0,-1,1245,596,0,0
28,428,0,0,0,0,0,0,0,0,0,-1,1252,596,0,0
35,428,0,0,0,0,0,0,0,0,0,-1,1259,596,0,0
42,428,0,0,0,0,0,0,0,0,0,-1,1266,596,0,0
49,428,0,0,0,0,0,0,0,0,0,-1,1273,596,0,0
56,428,0,0,0,0,0,0,0,0,0,-1,1280,596,0,0
63,428,0,0,0,0,0,0,0,0,0,-1,1287,596,0,0
70,428,0,0,0,0,0,0,0,0,0,-1,1294,596,0,0
77,428,0,0,0,0,0,0,0,0,0,-1,1301,596,0,0
84,428,0,0,0,0,0,0,0,0,0,-1,1308,596,0,0
91,428,0,0,0,0,0,0,0,0,0,-1,1315,596,0,0
98,428,0,0,0,0,0,0,0,0,0,-1,1322,596,0,0
105,428,0,0,0,0,0,0,0,0,0,-1,1329,596,0,0
112,428,0,0,0,0,0,0,0,0,0,-1,1336,596,0,0
119,428,0,0,0,0,0,0,0,0,0,-1,1343,596,0,0
126,428,0,0,0,0,0,0,0,0,0,-1,1350,596,0,0
133,428,0,0,0,0,0,0,0,0,0,-1,1357,596,0,0
140,428,0,0,0,0,0,0,0,0,0,-1,1364,596,0,0
147,428,0,0,0,0,0,0,0,0,0,-1,1371,596,0,0
154,428,0,0,0,0,0,0,0,0,0,-1,1378,596,0,0
161,428,0,0,0,0,0,0,0,0,0,-1,1385,596,0,0
168,428,0,0,0,0,0,0,0,0,0,-1,1392,596,0,0
175,428,0,0,0,0,0,0,0,0,0,-1,1399,596,0,0
182,428,0,0,0,0,0,0,0,0,0,-1,1406,596,0,0
189,428,0,0,0,0,0,0,0,0,0,-1,1413,596,0,0
196,428,0,0,0,0,0,0,0,0,0,-1,1420,596,0,0
203,428,0,0,0,0,0,0,0,0,0,-1,1427,596,0,0
210,428,0,0,0,0,0,0,0,0,0,-1,1434,596,0,0
217,428,0,0,0,0,0,0,0,0,0,-1,1441,596,0,0
224,428,0,0,0,0,0,0,0,0,0,-1,1448,596,0,0
231,428,0,0,0,0,0,0,0,0,0,-1,1455,596,0,0
238,428,0,0,0,0,0,0,0,0,0,-1,1462,596,0,0
245,428,0,0,0,0,0,0,0,0,0,-1,1469,596,0,0
252,428,0,0,0,0,0,0,0,0,0,-1,1476,596,0,0
259,428,0,0,0,0,0,0,0,0,0,-1,1483,596,0,0
266,428,0,0,0,0,0,0,0,0,0,-1,1490,596,0,0
273,428,0,0,0,0,0,0,0,0,0,-1,1497,596,0,0
280,428,0,0,0,0,0,0,0,0,0,-1,1504,596,0,0
287,428,0,0,0,0,0,0,0,0,0,-1,1511,596,0,0
294,428,0,0,0,0,0,0,0,0,0,-1,1518,596,0,0
301,428,0,0,0,0,0,0,0,0,0,-1,1525,596,0,0
308,428,0,0,0,0,0,0,0,0,0,-1,1532,596,0,0
315,428,0,0,0,0,0,0,0,0,0,-1,1539,596,0,0
322,428,0,0,0,0,0,0,0,0,0,-1,1546,596,0,0
329,428,0,0,0,0,0,0,0,0,0,-1,1553,596,0,0
336,428,0,0,0,0,0,0,0,0,0,-1,1560,596,0,0
343,428,0,0,0,0,0,0,0,0,0,-1,1567,596,0,0
350,428,0,0,0,0,0,0,0,0,0,-1,1574,596,0,0
357,428,0,0,0,0,0,0,0,0,0,-1,1581,596,0,0
364,428,0,0,0,0,0,0,0,0,0,-1,1588,596,0,0
371,428,0,0,0,0,0,0,0,0,0,-1,1595,596,0,0
378,428,0,0,0,0,0,0,0,0,0,-1,1602,596,0,0
385,428,0,0,0,0,0,0,0,0,0,-1,1609,596,0,0
392,428,0,0,0,0,0,0,0,0,0,-1,1616,596,0,0
399,428,0,0,0,0,0,0,0,0,0,-1,1623,596,0,0
406,428,0,0,0,0,0,0,0,0,0,-1,1630,596,0,0
413,428,0,0,0,0,0,0,0,0,0,-1,1637,596,0,0
420,428,19.8469,1.3399,0,0,0,0,0,0,0,-1,1644,596,19.8469,-1.33992
427,428,20.7299,-0.225281,0,0,0,0,0,0,0,-1,1651,596,20.7299,0.225262
434,428,19.8915,-0.583069,0,0,0,0,0,0,0,-1,1658,596,19.8915,0.583075
441,428,8.17993,0.607483,0,0,0,0,0,0,0,-1,1665,596,8.17997,-0.607513
448,428,7.84338,-0.385986,0,0,0,0,0,0,0,-1,1672,596,7.84336,0.385978
455,428,6.64038,2.1123,0,0,0,0,0,0,0,-1,1679,596,6.64037,-2.11229
462,428,4.84106,4.12341,0,0,0,0,0,0,0,-1,1686,596,4.84107,-4.12339
469,428,7.83789,3.10083,0,0,0,0,0,0,0,-1,1693,596,7.83785,-3.10086
476,428,7.61255,1.73956,0,0,0,0,0,0,0,-1,1700,596,7.61252,-1.73958
483,428,7.22766,1.05121,0,0,0,0,0,0,0,-1,1707,596,7.2277,-1.05121
490,428,5.4071,-3.2793,0,0,0,0,0,0,0,-1,1714,596,5.40707,3.27929
497,428,7.84106,-3.65491,0,0,0,0,0,0,0,-1,1721,596,7.84107,3.65491
504,428,6.92139,-2.83356,0,0,0,0,0,0,0,-1,1728,596,6.92137,2.83353
511,428,7.88501,-3.78723,0,0,0,0,0,0,0,-1,1735,596,7.88502,3.78722
518,428,27.7006,-23.3992,0,0,0,0,0,0,0,-1,1742,596,27.7006,23.3992
525,428,27.6312,-22.4899,0.00477203,0.00217201,0.0025574,0.00634087,0.000603162,0.550253,0.00404123,0.04126,1749,596,27.6312,22.4898
532,428,27.6636,-21.5167,0.00394475,0.001758,0.00204716,0.00517222,0.000530524,0.540124,0.00328561,0.0228563,1756,596,27.6636,21.5167
539,428,27.6512,-20.6211,0.00332265,0.00164004,0.00171735,0.00439369,0.000569001,0.557636,0.00275909,0.0229279,1763,596,27.6512,20.6211
546,428,27.5834,-19.7789,0.00278421,0.00153612,0.00143467,0.00372468,0.000595646,0.580255,0.00231031,0.0176551,1770,596,27.5834,19.7789
553,428,27.5333,-18.937,0.00228447,0.00160623,0.00125465,0.00324502,0.000645678,0.653407,0.00198347,0.0125802,1777,596,27.5333,18.937
560,428,27.5232,-18.0434,0.00187494,0.00177548,0.00120271,0.00302895,0.000621475,0.764736,0.00184732,0.0129239,1784,596,27.5233,18.0434
567,428,27.4702,-17.1536,0.00169859,0.0021545,0.0013547,0.00330029,0.000552799,0.868752,0.00204104,0.0116174,1791,596,27.4702,17.1535
574,428,27.4133,-16.2963,0.00166696,0.00264427,0.00162193,0.00384956,0.000461676,0.931714,0.00242716,0.0132638,1798,596,27.4134,16.2963
581,428,27.3525,-15.4087,0.00184431,0.00331904,0.00211966,0.00482593,0.000337427,0.952786,0.00311091,0.0111959,1805,596,27.3525,15.4087
588,428,27.287,-14.4872,0.00233441,0.00430243,0.00288862,0.00637004,0.00026679,0.949559,0.00416062,0.0176884,1812,596,27.2869,14.4872
595,428,27.2108,-13.5274,0.0030522,0.00553693,0.00383113,0.0083221,0.000267039,0.942189,0.00546123,0.0312246,1819,596,27.2108,13.5274
602,428,27.3252,-12.5229,0,0,0,0,0,0,0,-1,1826,596,27.3252,12.5229
609,428,17.2073,-4.82446,0,0,0,0,0,0,0,-1,1833,596,17.2073,4.82447
616,428,15.7817,-3.09558,0,0,0,0,0,0,0,-1,1840,596,15.7817,3.09556
623,428,9.53577,1.12518,0,0,0,0,0,0,0,-1,1847,596,9.5358,-1.1252
630,428,7.07996,6.88562,0,0,0,0,0,0,0,-1,1854,596,7.0799,-6.88565
637,428,3.95435,1.90857,0,0,0,0,0,0,0,-1,1861,596,3.95439,-1.90858
644,428,5.75476,0.888977,0,0,0,0,0,0,0,-1,1868,596,5.75472,-0.888955
651,428,0,0,0,0,0,0,0,0,0,-1,1875,596,0,0
658,428,0,0,0,0,0,0,0,0,0,-1,1882,596,0,0
665,428,0,0,0,0,0,0,0,0,0,-1,1889,596,0,0
672,428,0,0,0,0,0,0,0,0,0,-1,1896,596,0,0
679,428,0,0,0,0,0,0,0,0,0,-1,1903,596,0,0
686,428,0,0,0,0,0,0,0,0,0,-1,1910,596,0,0
693,428,0,0,0,0,0,0,0,0,0,-1,1917,596,0,0
700,428,0,0,0,0,0,0,0,0,0,-1,1924,596,0,0
707,428,0,0,0,0,0,0,0,0,0,-1,1931,596,0,0
714,428,0,0,0,0,0,0,0,0,0,-1,1938,596,0,0
721,428,0,0,0,0,0,0,0,0,0,-1,1945,596,0,0
728,428,0,0,0,0,0,0,0,0,0,-1,1952,596,0,0
735,428,0,0,0,0,0,0,0,0,0,-1,1959,596,0,0
742,428,0,0,0,0,0,0,0,0,0,-1,1966,596,0,0
749,428,0,0,0,0,0,0,0,0,0,-1,1973,596,0,0
756,428,0,0,0,0,0,0,0,0,0,-1,1980,596,0,0
763,428,0,0,0,0,0,0,0,0,0,-1,1987,596,0,0
770,428,0,0,0,0,0,0,0,0,0,-1,1994,596,0,0
777,428,0,0,0,0,0,0,0,0,0,-1,2001,596,0,0
784,428,0,0,0,0,0,0,0,0,0,-1,2008,596,0,0
791,428,0,0,0,0,0,0,0,0,0,-1,2015,596,0,0
798,428,0,0,0,0,0,0,0,0,0,-1,2022,596,0,0
805,428,0,0,0,0,0,0,0,0,0,-1,2029,596,0,0
812,428,0,0,0,0,0,0,0,0,0,-1,2036,596,0,0
-700,421,0,0,0,0,0,0,0,0,0,-1,524,603,0,0
-693,421,0,0,0,0,0,0,0,0,0,-1,531,603,0,0
-686,421,0,0,0,0,0,0,0,0,0,-1,538,603,0,0
-679,421,0,0,0,0,0,0,0,0,0,-1,545,603,0,0
-672,421,0,0,0,0,0,0,0,0,0,-1,552,603,0,0
-665,421,0,0,0,0,0,0,0,0,0,-1,559,603,0,0
-658,421,0,0,0,0,0,0,0,0,0,-1,566,603,0,0
-651,421,0,0,0,0,0,0,0,0,0,-1,573,603,0,0
-644,421,0,0,0,0,0,0,0,0,0,-1,580,603,0,0
-637,421,0,0,0,0,0,0,0,0,0,-1,587,603,0,0
-630,421,0,0,0,0,0,0,0,0,0,-1,594,603,0,0
-623,421,0,0,0,0,0,0,0,0,0,-1,601,603,0,0
-616,421,0,0,0,0,0,0,0,0,0,-1,608,603,0,0
-609,421,0,0,0,0,0,0,0,0,0,-1,615,603,0,0
-602,421,0,0,0,0,0,0,0,0,0,-1,622,603,0,0
-595,421,0,0,0,0,0,0,0,0,0,-1,629,603,0,0
-588,421,0,0,0,0,0,0,0,0,0,-1,636,603,0,0
-581,421,0,0,0,0,0,0,0,0,0,-1,643,603,0,0
-574,421,0,0,0,0,0,0,0,0,0,-1,650,603,0,0
-567,421,0,0,0,0,0,0,0,0,0,-1,657,603,0,0
-560,421,0,0,0,0,0,0,0,0,0,-1,664,603,0,0
-553,421,0,0,0,0,0,0,0,0,0,-1,671,603,0,0
-546,421,0,0,0,0,0,0,0,0,0,-1,678,603,0,0
-539,421,0,0,0,0,0,0,0,0,0,-1,685,603,0,0
-532,421,-8.97382,6.95636,0,0,0,0,0,0,0,-1,692,603,-8.97384,-6.95634
-525,421,-2.11481,-8.04272,0,0,0,0,0,0,0,-1,699,603,-2.11483,8.0427
-518,421,-3.05908,-5.07233,0,0,0,0,0,0,0,-1,706,603,-3.0591,5.07235
-511,421,-4.63525,-4.08447,0,0,0,0,0,0,0,-1,713,603,-4.63524,4.08449
-504,421,-5.17029,-4.94458,0,0,0,0,0,0,0,-1,720,603,-5.17029,4.9446
-497,421,-6.63141,-2.32501,0,0,0,0,0,0,0,-1,727,603,-6.6314,2.32498
-490,421,-6.7616,-4.14783,0,0,0,0,0,0,0,-1,734,603,-6.76159,4.1478
-483,421,-12.8506,-12.6644,0,0,0,0,0,0,0,-1,741,603,-12.8507,12.6643
-476,421,-13.0151,-13.4476,-0.00452898,0.00304503,0.00183568,0.00346649,-0.00495043,1.34512,0.00488462,0.0417277,748,603,-13.0152,13.4477
-469,421,-13.2332,-14.1539,-0.00350635,0.00255994,0.00115435,0.00277218,-0.00371859,1.38897,0.0037607,0.0347624,755,603,-13.2332,14.1539
-462,421,-13.2961,-15.1384,-0.00240701,0.00208963,0.000623715,0.00217454,-0.00249192,1.43549,0.00269626,0.0219964,762,603,-13.2961,15.1384
-455,421,-13.3516,-16.0195,-0.00141039,0.00159378,0.000223804,0.00161036,-0.00142697,1.49684,0.00175467,0.0201485,769,603,-13.3516,16.0195
-448,421,-13.3912,-16.8914,-0.000471892,0.00131394,-0.000170766,0.00133012,-0.000488075,-1.47631,0.00108661,0.0184979,776,603,-13.3912,16.8914
-441,421,-13.4393,-17.7952,0.000421439,0.00121103,-0.000542935,0.00148753,0.000144936,-1.09976,0.000947079,0.0143974,783,603,-13.4393,17.7952
-434,421,-13.5004,-18.6956,0.00119905,0.00122882,-0.00087077,0.00208483,0.000343037,-0.793944,0.00129083,0.0107877,790,603,-13.5005,18.6956
-427,421,-13.5231,-19.5634,0.00198141,0.00147008,-0.00127271,0.00302388,0.00042761,-0.686276,0.00188958,0.0100985,797,603,-13.5232,19.5634
-420,421,-13.5502,-20.3913,0.00273576,0.00187116,-0.00169782,0.00405545,0.000551468,-0.660738,0.00253985,0.011987,804,603,-13.5502,20.3913
-413,421,-13.5928,-21.2333,0.00336256,0.00240857,-0.00205882,0.00499891,0.000772212,-0.671565,0.00310735,0.0152328,811,603,-13.5928,21.2333
-406,421,-13.7087,-22.1439,0.00400234,0.00317507,-0.0025372,0.00615941,0.00101801,-0.704595,0.00381251,0.0225066,818,603,-13.7088,22.1439
-399,421,-13.6546,-23.1766,0.00484128,0.00403418,-0.00323942,0.00770218,0.00117327,-0.72343,0.00479182,0.0490674,825,603,-13.6546,23.1766
-392,421,-13.4371,-24.0667,0,0,0,0,0,0,0,-1,832,603,-13.4371,24.0667
-385,421,-11.5825,-18.8583,0,0,0,0,0,0,0,-1,839,603,-11.5825,18.8583
-378,421,-4.94733,-8.87909,0,0,0,0,0,0,0,-1,846,603,-4.94731,8.87906
-371,421,-5.65082,-7.01849,0,0,0,0,0,0,0,-1,853,603,-5.65082,7.0185
-364,421,-5.94189,-7.09875,0,0,0,0,0,0,0,-1,860,603,-5.94192,7.09878
-357,421,-7.62531,-8.26337,0,0,0,0,0,0,0,-1,867,603,-7.62532,8.26337
-350,421,-5.38019,-3.75024,0,0,0,0,0,0,0,-1,874,603,-5.38017,3.75026
-343,421,-6.22797,-2.57123,0,0,0,0,0,0,0,-1,881,603,-6.22798,2.57121
-336,421,-6.22882,-2.59369,0,0,0,0,0,0,0,-1,888,603,-6.22883,2.5937
-329,421,-4.50134,-1.49469,0,0,0,0,0,0,0,-1,895,603,-4.50137,1.49468
-322,421,-7.55817,1.13263,0,0,0,0,0,0,0,-1,902,603,-7.55818,-1.13263
-315,421,-4.16144,-1.96649,0,0,0,0,0,0,0,-1,909,603,-4.16146,1.9665
-308,421,0,0,0,0,0,0,0,0,0,-1,916,603,0,0
-301,421,0,0,0,0,0,0,0,0,0,-1,923,603,0,0
-294,421,0,0,0,0,0,0,0,0,0,-1,930,603,0,0
-287,421,0,0,0,0,0,0,0,0,0,-1,937,603,0,0
-280,421,0,0,0,0,0,0,0,0,0,-1,944,603,0,0
-273,421,0,0,0,0,0,0,0,0,0,-1,951,603,0,0
-266,421,0,0,0,0,0,0,0,0,0,-1,958,603,0,0
-259,421,0,0,0,0,0,0,0,0,0,-1,965,603,0,0
-252,421,0,0,0,0,0,0,0,0,0,-1,972,603,0,0
-245,421,0,0,0,0,0,0,0,0,0,-1,979,603,0,0
-238,421,0,0,0,0,0,0,0,0,0,-1,986,603,0,0
-231,421,0,0,0,0,0,0,0,0,0,-1,993,603,0,0
-224,421,0,0,0,0,0,0,0,0,0,-1,1000,603,0,0
-217,421,0,0,0,0,0,0,0,0,0,-1,1007,603,0,0
-210,421,0,0,0,0,0,0,0,0,0,-1,1014,603,0,0
-203,421,0,0,0,0,0,0,0,0,0,-1,1021,603,0,0
-196,421,0,0,0,0,0,0,0,0,0,-1,1028,603,0,0
-189,421,0,0,0,0,0,0,0,0,0,-1,1035,603,0,0
-182,421,0,0,0,0,0,0,0,0,0,-1,1042,603,0,0
-175,421,0,0,0,0,0,0,0,0,0,-1,1049,603,0,0
-168,421,0,0,0,0,0,0,0,0,0,-1,1056,603,0,0
-161,421,0,0,0,0,0,0,0,0,0,-1,1063,603,0,0
-154,421,0,0,0,0,0,0,0,0,0,-1,1070,603,0,0
-147,421,0,0,0,0,0,0,0,0,0,-1,1077,603,0,0
-140,421,0,0,0,0,0,0,0,0,0,-1,1084,603,0,0
-133,421,0,0,0,0,0,0,0,0,0,-1,1091,603,0,0
-126,421,0,0,0,0,0,0,0,0,0,-1,1098,603,0,0
-119,421,0,0,0,0,0,0,0,0,0,-1,1105,603,0,0
-112,421,0,0,0,0,0,0,0,0,0,-1,1112,603,0,0
-105,421,0,0,0,0,0,0,0,0,0,-1,1119,603,0,0
-98,421,0,0,0,0,0,0,0,0,0,-1,1126,603,0,0
-91,421,0,0,0,0,0,0,0,0,0,-1,1133,603,0,0
-84,421,0,0,0,0,0,0,0,0,0,-1,1140,603,0,0
-77,421,0,0,0,0,0,0,0,0,0,-1,1147,603,0,0
-70,421,0,0,0,0,0,0,0,0,0,-1,1154,603,0,0
-63,421,0,0,0,0,0,0,0,0,0,-1,1161,603,0,0
-56,421,0,0,0,0,0,0,0,0,0,-1,1168,603,0,0
-49,421,0,0,0,0,0,0,0,0,0,-1,1175,603,0,0
-42,421,0,0,0,0,0,0,0,0,0,-1,1182,603,0,0
-35,421,0,0,0,0,0,0,0,0,0,-1,1189,603,0,0
-28,421,0,0,0,0,0,0,0,0,0,-1,1196,603,0,0
-21,421,0,0,0,0,0,0,0,0,0,-1,1203,603,0,0
-14,421,0,0,0,0,0,0,0,0,0,-1,1210,603,0,0
-7,421,0,0,0,0,0,0,0,0,0,-1,1217,603,0,0
0,421,0,0,0,0,0,0,0,0,0,-1,1224,603,0,0
7,421,0,0,0,0,0,0,0,0,0,-1,1231,603,0,0
14,421,0,0,0,0,0,0,0,0,0,-1,1238,603,0,0
21,421,0,0,0,0,0,0,0,0,0,-1,1245,603,0,0
28,421,0,0,0,0,0,0,0,0,0,-1,1252,603,0,0
35,421,0,0,0,0,0,0,0,0,0,-1,1259,603,0,0
42,421,0,0,0,0,0,0,0,0,0,-1,1266,603,0,0
49,421,0,0,0,0,0,0,0,0,0,-1,1273,603,0,0
56,421,0,0,0,0,0,0,0,0,0,-1,1280,603,0,0
63,421,0,0,0,0,0,0,0,0,0,-1,1287,603,0,0
70,421,0,0,0,0,0,0,0,0,0,-1,1294,603,0,0
77,421,0,0,0,0,0,0,0,0,0,-1,1301,603,0,0
84,421,0,0,0,0,0,0,0,0,0,-1,1308,603,0,0
91,421,0,0,0,0,0,0,0,0,0,-1,1315,603,0,0
98,421,0,0,0,0,0,0,0,0,0,-1,1322,603,0,0
105,421,0,0,0,0,0,0,0,0,0,-1,1329,603,0,0
112,421,0,0,0,0,0,0,0,0,0,-1,1336,603,0,0
119,421,0,0,0,0,0,0,0,0,0,-1,1343,603,0,0
126,421,0,0,0,0,0,0,0,0,0,-1,1350,603,0,0
133,421,0,0,0,0,0,0,0,0,0,-1,1357,603,0,0
140,421,0,0,0,0,0,0,0,0,0,-1,1364,603,0,0
147,421,0,0,0,0,0,0,0,0,0,-1,1371,603,0,0
154,421,0,0,0,0,0,0,0,0,0,-1,1378,603,0,0
161,421,0,0,0,0,0,0,0,0,0,-1,1385,603,0,0
168,421,0,0,0,0,0,0,0,0,0,-1,1392,603,0,0
175,421,0,0,0,0,0,0,0,0,0,-1,1399,603,0,0
182,421,0,0,0,0,0,0,0,0,0,-1,1406,603,0,0
189,421,0,0,0,0,0,0,0,0,0,-1,1413,603,0,0
196,421,0,0,0,0,0,0,0,0,0,-1,1420,603,0,0
203,421,0,0,0,0,0,0,0,0,0,-1,1427,603,0,0
210,421,0,0,0,0,0,0,0,0,0,-1,1434,603,0,0
217,421,0,0,0,0,0,0,0,0,0,-1,1441,603,0,0
224,421,0,0,0,0,0,0,0,0,0,-1,1448,603,0,0
231,421,0,0,0,0,0,0,0,0,0,-1,1455,603,0,0
238,421,0,0,0,0,0,0,0,0,0,-1,1462,603,0,0
245,421,0,0,0,0,0,0,0,0,0,-1,1469,603,0,0
252,421,0,0,0,0,0,0,0,0,0,-1,1476,603,0,0
259,421,0,0,0,0,0,0,0,0,0,-1,1483,603,0,0
266,421,0,0,0,0,0,0,0,0,0,-1,1490,603,0,0
273,421,0,0,0,0,0,0,0,0,0,-1,1497,603,0,0
280,421,0,0,0,0,0,0,0,0,0,-1,1504,603,0,0
287,421,0,0,0,0,0,0,0,0,0,-1,1511,603,0,0
294,421,0,0,0,0,0,0,0,0,0,-1,1518,603,0,0
301,421,0,0,0,0,0,0,0,0,0,-1,1525,603,0,0
308,421,0,0,0,0,0,0,0,0,0,-1,1532,603,0,0
315,421,0,0,0,0,0,0,0,0,0,-1,1539,603,0,0
322,421,0,0,0,0,0,0,0,0,0,-1,1546,603,0,0
329,421,0,0,0,0,0,0,0,0,0,-1,1553,603,0,0
336,421,0,0,0,0,0,0,0,0,0,-1,1560,603,0,0
343,421,0,0,0,0,0,0,0,0,0,-1,1567,603,0,0
350,421,0,0,0,0,0,0,0,0,0,-1,1574,603,0,0
357,421,0,0,0,0,0,0,0,0,0,-1,1581,603,0,0
364,421,0,0,0,0,0,0,0,0,0,-1,1588,603,0,0
371,421,0,0,0,0,0,0,0,0,0,-1,1595,603,0,0
378,421,0,0,0,0,0,0,0,0,0,-1,1602,603,0,0
385,421,0,0,0,0,0,0,0,0,0,-1,1609,603,0,0
392,421,0,0,0,0,0,0,0,0,0,-1,1616,603,0,0
399,421,0,0,0,0,0,0,0,0,0,-1,1623,603,0,0
406,421,0,0,0,0,0,0,0,0,0,-1,1630,603,0,0
413,421,0,0,0,0,0,0,0,0,0,-1,1637,603,0,0
420,421,0,0,0,0,0,0,0,0,0,-1,1644,603,0,0
427,421,0,0,0,0,0,0,0,0,0,-1,1651,603,0,0
434,421,3.68176,-0.0327759,0,0,0,0,0,0,0,-1,1658,603,3.6818,0.0328037
441,421,8.06689,0.527832,0,0,0,0,0,0,0,-1,1665,603,8.06693,-0.527851
448,421,6.93921,0.802246,0,0,0,0,0,0,0,-1,1672,603,6.93923,-0.802251
455,421,7.29456,2.14825,0,0,0,0,0,0,0,-1,1679,603,7.29461,-2.14827
462,421,7.86902,3.53174,0,0,0,0,0,0,0,-1,1686,603,7.869,-3.53173
469,421,8.06604,2.81213,0,0,0,0,0,0,0,-1,1693,603,8.06606,-2.81212
476,421,8.26306,2.09253,0,0,0,0,0,0,0,-1,1700,603,8.26312,-2.09251
483,421,8.05322,0.798096,0,0,0,0,0,0,0,-1,1707,603,8.05323,-0.7981
490,421,7.51233,0.213074,0,0,0,0,0,0,0,-1,1714,603,7.51235,-0.213043
497,421,7.49634,-2.86688,0,0,0,0,0,0,0,-1,1721,603,7.4963,2.86688
504,421,6.90491,-2.18671,0,0,0,0,0,0,0,-1,1728,603,6.90491,2.18669
511,421,6.31348,-1.50653,0,0,0,0,0,0,0,-1,1735,603,6.31353,1.5065
518,421,6.27588,-2.49878,0,0,0,0,0,0,0,-1,1742,603,6.2759,2.4988
525,421,28.3275,-22.5646,0,0,0,0,0,0,0,-1,1749,603,28.3275,22.5646
532,421,28.4625,-21.5473,0.00478212,0.00171319,0.00225623,0.00597623,0.000519077,0.486775,0.00382289,0.0452665,1756,603,28.4625,21.5473
539,421,28.5411,-20.6163,0.00398751,0.00158991,0.00178321,0.00493742,0.000639995,0.489462,0.00310038,0.0252672,1763,603,28.5411,20.6163
546,421,28.4828,-19.7421,0.00329915,0.00136991,0.00140177,0.00403614,0.000632925,0.484037,0.00250656,0.0137829,1770,603,28.4828,19.7422
553,421,28.436,-18.8542,0.0026969,0.00136194,0.00114831,0.00335764,0.000701207,0.522131,0.00204516,0.0130948,1777,603,28.4361,18.8542
560,421,28.3892,-17.9674,0.00218415,0.00144232,0.00103491,0.00291261,0.000713863,0.613329,0.00175293,0.0148104,1784,603,28.3892,17.9674
567,421,28.3398,-17.1063,0.00190442,0.00171737,0.00113719,0.00295193,0.000669866,0.744368,0.00178701,0.0166103,1791,603,28.3399,17.1063
574,421,28.2902,-16.2451,0.00180806,0.0021277,0.00138325,0.00336034,0.000575425,0.842912,0.00207518,0.019909,1798,603,28.2901,16.2451
581,421,28.2517,-15.335,0.00191735,0.00268503,0.00183759,0.00417843,0.000423942,0.888359,0.00265561,0.0219847,1805,603,28.2518,15.335
588,421,28.177,-14.4848,0.0023161,0.00354674,0.00254834,0.00555299,0.00030984,0.90386,0.00360316,0.014878,1812,603,28.177,14.4848
595,421,28.1754,-13.5706,0.00297942,0.00463624,0.00346821,0.00737361,0.000242055,0.902631,0.00483707,0.0205829,1819,603,28.1754,13.5706
602,421,28.1772,-12.6098,0,0,0,0,0,0,0,-1,1826,603,28.1773,12.6098
609,421,22.8762,-8.37524,0,0,0,0,0,0,0,-1,1833,603,22.8762,8.37525
616,421,17.7633,-4.72491,0,0,0,0,0,0,0,-1,1840,603,17.7633,4.7249
623,421,6.19885,0.376648,0,0,0,0,0,0,0,-1,1847,603,6.19881,-0.376624
630,421,6.54993,0.778748,0,0,0,0,0,0,0,-1,1854,603,6.54991,-0.778744
637,421,3.74512,1.65405,0,0,0,0,0,0,0,-1,1861,603,3.74517,-1.65407
644,421,3.58081,0.354675,0,0,0,0,0,0,0,-1,1868,603,3.58082,-0.354704
651,421,3.28687,3.66351,0,0,0,0,0,0,0,-1,1875,603,3.28688,-3.66353
658,421,0,0,0,0,0,0,0,0,0,-1,1882,603,0,0
665,421,0,0,0,0,0,0,0,0,0,-1,1889,603,0,0
672,421,0,0,0,0,0,0,0,0,0,-1,1896,603,0,0
679,421,0,0,0,0,0,0,0,0,0,-1,1903,603,0,0
686,421,0,0,0,0,0,0,0,0,0,-1,1910,603,0,0
693,421,0,0,0,0,0,0,0,0,0,-1,1917,603,0,0
700,421,0,0,0,0,0,0,0,0,0,-1,1924,603,0,0
707,421,0,0,0,0,0,0,0,0,0,-1,1931,603,0,0
714,421,0,0,0,0,0,0,0,0,0,-1,1938,603,0,0
721,421,0,0,0,0,0,0,0,0,0,-1,1945,603,0,0
728,421,0,0,0,0,0,0,0,0,0,-1,1952,603,0,0
735,421,0,0,0,0,0,0,0,0,0,-1,1959,603,0,0
742,421,0,0,0,0,0,0,0,0,0,-1,1966,603,0,0
749,421,0,0,0,0,0,0,0,0,0,-1,1973,603,0,0
756,421,0,0,0,0,0,0,0,0,0,-1,1980,603,0,0
763,421,0,0,0,0,0,0,0,0,0,-1,1987,603,0,0
770,421,0,0,0,0,0,0,0,0,0,-1,1994,603,0,0
777,421,0,0,0,0,0,0,0,0,0,-1,2001,603,0,0
784,421,0,0,0,0,0,0,0,0,0,-1,2008,603,0,0
791,421,0,0,0,0,0,0,0,0,0,-1,2015,603,0,0
798,421,0,0,0,0,0,0,0,0,0,-1,2022,603,0,0
805,421,0,0,0,0,0,0,0,0,0,-1,2029,603,0,0
812,421,0,0,0,0,0,0,0,0,0,-1,2036,603,0,0
-700,414,0,0,0,0,0,0,0,0,0,-1,524,610,0,0
-693,414,0,0,0,0,0,0,0,0,0,-1,531,610,0,0
-686,414,0,0,0,0,0,0,0,0,0,-1,538,610,0,0
-679,414,0,0,0,0,0,0,0,0,0,-1,545,610,0,0
-672,414,0,0,0,0,0,0,0,0,0,-1,552,610,0,0
-665,414,0,0,0,0,0,0,0,0,0,-1,559,610,0,0
-658,414,0,0,0,0,0,0,0,0,0,-1,566,610,0,0
-651,414,0,0,0,0,0,0,0,0,0,-1,573,610,0,0
-644,414,0,0,0,0,0,0,0,0,0,-1,580,610,0,0
-637,414,0,0,0,0,0,0,0,0,0,-1,587,610,0,0
-630,414,0,0,0,0,0,0,0,0,0,-1,594,610,0,0
-623,414,0,0,0,0,0,0,0,0,0,-1,601,610,0,0
-616,414,0,0,0,0,0,0,0,0,0,-1,608,610,0,0
-609,414,0,0,0,0,0,0,0,0,0,-1,615,610,0,0
-602,414,0,0,0,0,0,0,0,0,0,-1,622,610,0,0
-595,414,0,0,0,0,0,0,0,0,0,-1,629,610,0,0
-588,414,0,0,0,0,0,0,0,0,0,-1,636,610,0,0
-581,414,0,0,0,0,0,0,0,0,0,-1,643,610,0,0
-574,414,0,0,0,0,0,0,0,0,0,-1,650,610,0,0
-567,414,0,0,0,0,0,0,0,0,0,-1,657,610,0,0
-560,414,0,0,0,0,0,0,0,0,0,-1,664,610,0,0
-553,414,0,0,0,0,0,0,0,0,0,-1,671,610,0,0
-546,414,0,0,0,0,0,0,0,0,0,-1,678,610,0,0
-539,414,-7.50146,5.65619,0,0,0,0,0,0,0,-1,685,610,-7.50149,-5.65617
-532,414,-8.15204,4.01605,0,0,0,0,0,0,0,-1,692,610,-8.15206,-4.01606
-525,414,-3.47137,-3.27924,0,0,0,0,0,0,0,-1,699,610,-3.47136,3.27922
-518,414,-4.12909,-4.36908,0,0,0,0,0,0,0,-1,706,610,-4.12909,4.36909
-511,414,-3.92542,-4.97021,0,0,0,0,0,0,0,-1,713,610,-3.92542,4.97023
-504,414,-9.35394,-5.49896,0,0,0,0,0,0,0,-1,720,610,-9.35394,5.49898
-497,414,-9.67627,-6.54761,0,0,0,0,0,0,0,-1,727,610,-9.6763,6.5476
-490,414,-10.9006,-8.3277,0,0,0,0,0,0,0,-1,734,610,-10.9006,8.3277
-483,414,-13.8782,-12.5137,0,0,0,0,0,0,0,-1,741,610,-13.8783,12.5137
-476,414,-14.0602,-13.3674,-0.00300645,0.00241972,0.00108838,0.00262988,-0.00321662,1.38004,0.00338114,0.025148,748,610,-14.0602,13.3674
-469,414,-14.1464,-14.2005,-0.00231898,0.0019434,0.000681911,0.00204984,-0.00242542,1.41596,0.00258682,0.0148508,755,610,-14.1464,14.2005
-462,414,-14.1573,-15.0936,-0.00149562,0.00150444,0.000322756,0.00153877,-0.00152995,1.46483,0.00177173,0.0235067,762,610,-14.1573,15.0936
-455,414,-14.2213,-15.9785,-0.000687265,0.00113988,-8.0918e-06,0.00113991,-0.0006873,-1.56637,0.00106567,0.025751,769,610,-14.2212,15.9785
-448,414,-14.266,-16.8692,0.000163288,0.000974541,-0.000368524,0.00111695,2.08796e-05,-1.20204,0.000737772,0.0240181,776,610,-14.266,16.8692
-441,414,-14.3016,-17.7755,0.00102587,0.000970285,-0.000737565,0.00173616,0.000259987,-0.766568,0.00108125,0.0171335,783,610,-14.3016,17.7754
-434,414,-14.3727,-18.6342,0.00183205,0.00111796,-0.00110811,0.00263922,0.000310793,-0.629546,0.00166558,0.0102809,790,610,-14.3727,18.6342
-427,414,-14.415,-19.4971,0.00267714,0.00152857,-0.00159356,0.00379674,0.000408975,-0.612453,0.00240645,0.0109181,797,610,-14.415,19.4971
-420,414,-14.4418,-20.3528,0.00349053,0.00214338,-0.00209564,0.00501818,0.000615725,-0.629905,0.00316027,0.0107994,804,610,-14.4418,20.3528
-413,414,-14.4886,-21.2209,0.00423009,0.00300053,-0.00259877,0.00628581,0.000944813,-0.669251,0.0039138,0.0118467,811,610,-14.4887,21.2209
-406,414,-14.5044,-22.2652,0.00506438,0.00424105,-0.00335092,0.00802883,0.0012766,-0.724279,0.00498184,0.0401304,818,610,-14.5044,22.2652
-399,414,-14.4049,-23.2991,0,0,0,0,0,0,0,-1,825,610,-14.4049,23.2991
-392,414,-9.43781,-14.5624,0,0,0,0,0,0,0,-1,832,610,-9.43779,14.5624
-385,414,-8.14691,-13.0653,0,0,0,0,0,0,0,-1,839,610,-8.14692,13.0653
-378,414,-8.04907,-11.3331,0,0,0,0,0,0,0,-1,846,610,-8.04905,11.3331
-371,414,-5.20886,-8.05151,0,0,0,0,0,0,0,-1,853,610,-5.20887,8.05153
-364,414,-6.76282,-6.58759,0,0,0,0,0,0,0,-1,860,610,-6.7628,6.58756
-357,414,-9.08685,-8.86188,0,0,0,0,0,0,0,-1,867,610,-9.08688,8.86187
-350,414,-6.4502,-2.41821,0,0,0,0,0,0,0,-1,874,610,-6.45021,2.41822
-343,414,-6.80249,-2.32117,0,0,0,0,0,0,0,-1,881,610,-6.80252,2.32116
-336,414,-7.11017,-2.52026,0,0,0,0,0,0,0,-1,888,610,-7.11016,2.52026
-329,414,-7.59747,-2.70313,0,0,0,0,0,0,0,-1,895,610,-7.59747,2.70315
-322,414,-4.42236,-1.29163,0,0,0,0,0,0,0,-1,902,610,-4.42238,1.2916
-315,414,0,0,0,0,0,0,0,0,0,-1,909,610,0,0
-308,414,0,0,0,0,0,0,0,0,0,-1,916,610,0,0
-301,414,0,0,0,0,0,0,0,0,0,-1,923,610,0,0
-294,414,0,0,0,0,0,0,0,0,0,-1,930,610,0,0
-287,414,0,0,0,0,0,0,0,0,0,-1,937,610,0,0
-280,414,0,0,0,0,0,0,0,0,0,-1,944,610,0,0
-273,414,0,0,0,0,0,0,0,0,0,-1,951,610,0,0
-266,414,0,0,0,0,0,0,0,0,0,-1,958,610,0,0
-259,414,0,0,0,0,0,0,0,0,0,-1,965,610,0,0
-252,414,0,0,0,0,0,0,0,0,0,-1,972,610,0,0
-245,414,0,0,0,0,0,0,0,0,0,-1,979,610,0,0
-238,414,0,0,0,0,0,0,0,0,0,-1,986,610,0,0
-231,414,0,0,0,0,0,0,0,0,0,-1,993,610,0,0
-224,414,0,0,0,0,0,0,0,0,0,-1,1000,610,0,0
-217,414,0,0,0,0,0,0,0,0,0,-1,1007,610,0,0
-210,414,0,0,0,0,0,0,0,0,0,-1,1014,610,0,0
-203,414,0,0,0,0,0,0,0,0,0,-1,1021,610,0,0
-196,414,0,0,0,0,0,0,0,0,0,-1,1028,610,0,0
-189,414,0,0,0,0,0,0,0,0,0,-1,1035,610,0,0
-182,414,0,0,0,0,0,0,0,0,0,-1,1042,610,0,0
-175,414,0,0,0,0,0,0,0,0,0,-1,1049,610,0,0
-168,414,0,0,0,0,0,0,0,0,0,-1,1056,610,0,0
-161,414,0,0,0,0,0,0,0,0,0,-1,1063,610,0,0
-154,414,0,0,0,0,0,0,0,0,0,-1,1070,610,0,0
-147,414,0,0,0,0,0,0,0,0,0,-1,1077,610,0,0
-140,414,0,0,0,0,0,0,0,0,0,-1,1084,610,0,0
-133,414,0,0,0,0,0,0,0,0,0,-1,1091,610,0,0
-126,414,0,0,0,0,0,0,0,0,0,-1,1098,610,0,0
-119,414,0,0,0,0,0,0,0,0,0,-1,1105,610,0,0
-112,414,0,0,0,0,0,0,0,0,0,-1,1112,610,0,0
-105,414,0,0,0,0,0,0,0,0,0,-1,1119,610,0,0
-98,414,0,0,0,0,0,0,0,0,0,-1,1126,610,0,0
-91,414,0,0,0,0,0,0,0,0,0,-1,1133,610,0,0
-84,414,0,0,0,0,0,0,0,0,0,-1,1140,610,0,0
-77,414,0,0,0,0,0,0,0,0,0,-1,1147,610,0,0
-70,414,0,0,0,0,0,0,0,0,0,-1,1154,610,0,0
-63,414,0,0,0,0,0,0,0,0,0,-1,1161,610,0,0
-56,414,0,0,0,0,0,0,0,0,0,-1,1168,610,0,0
-49,414,0,0,0,0,0,0,0,0,0,-1,1175,610,0,0
-42,414,0,0,0,0,0,0,0,0,0,-1,1182,610,0,0
-35,414,0,0,0,0,0,0,0,0,0,-1,1189,610,0,0
-28,414,0,0,0,0,0,0,0,0,0,-1,1196,610,0,0
-21,414,0,0,0,0,0,0,0,0,0,-1,1203,610,0,0
-14,414,0,0,0,0,0,0,0,0,0,-1,1210,610,0,0
-7,414,0,0,0,0,0,0,0,0,0,-1,1217,610,0,0
0,414,0,0,0,0,0,0,0,0,0,-1,1224,610,0,0
7,414,0,0,0,0,0,0,0,0,0,-1,1231,610,0,0
14,414,0,0,0,0,0,0,0,0,0,-1,1238,610,0,0
21,414,0,0,0,0,0,0,0,0,0,-1,1245,610,0,0
28,414,0,0,0,0,0,0,0,0,0,-1,1252,610,0,0
35,414,0,0,0,0,0,0,0,0,0,-1,1259,610,0,0
42,414,0,0,0,0,0,0,0,0,0,-1,1266,610,0,0
49,414,0,0,0,0,0,0,0,0,0,-1,1273,610,0,0
56,414,0,0,0,0,0,0,0,0,0,-1,1280,610,0,0
63,414,0,0,0,0,0,0,0,0,0,-1,1287,610,0,0
70,414,0,0,0,0,0,0,0,0,0,-1,1294,610,0,0
77,414,0,0,0,0,0,0,0,0,0,-1,1301,610,0,0
84,414,0,0,0,0,0,0,0,0,0,-1,1308,610,0,0
91,414,0,0,0,0,0,0,0,0,0,-1,1315,610,0,0
98,414,0,0,0,0,0,0,0,0,0,-1,1322,610,0,0
105,414,0,0,0,0,0,0,0,0,0,-1,1329,610,0,0
112,414,0,0,0,0,0,0,0,0,0,-1,1336,610,0,0
119,414,0,0,0,0,0,0,0,0,0,-1,1343,610,0,0
126,414,0,0,0,0,0,0,0,0,0,-1,1350,610,0,0
133,414,0,0,0,0,0,0,0,0,0,-1,1357,610,0,0
140,414,0,0,0,0,0,0,0,0,0,-1,1364,610,0,0
147,414,0,0,0,0,0,0,0,0,0,-1,1371,610,0,0
154,414,0,0,0,0,0,0,0,0,0,-1,1378,610,0,0
161,414,0,0,0,0,0,0,0,0,0,-1,1385,610,0,0
168,414,0,0,0,0,0,0,0,0,0,-1,1392,610,0,0
175,414,0,0,0,0,0,0,0,0,0,-1,1399,610,0,0
182,414,0,0,0,0,0,0,0,0,0,-1,1406,610,0,0
189,414,0,0,0,0,0,0,0,0,0,-1,1413,610,0,0
196,414,0,0,0,0,0,0,0,0,0,-1,1420,610,0,0
203,414,0,0,0,0,0,0,0,0,0,-1,1427,610,0,0
210,414,0,0,0,0,0,0,0,0,0,-1,1434,610,0,0
217,414,0,0,0,0,0,0,0,0,0,-1,1441,610,0,0
224,414,0,0,0,0,0,0,0,0,0,-1,1448,610,0,0
231,414,0,0,0,0,0,0,0,0,0,-1,1455,610,0,0
238,414,0,0,0,0,0,0,0,0,0,-1,1462,610,0,0
245,414,0,0,0,0,0,0,0,0,0,-1,1469,610,0,0
252,414,0,0,0,0,0,0,0,0,0,-1,1476,610,0,0
259,414,0,0,0,0,0,0,0,0,0,-1,1483,610,0,0
266,414,0,0,0,0,0,0,0,0,0,-1,1490,610,0,0
273,414,0,0,0,0,0,0,0,0,0,-1,1497,610,0,0
280,414,0,0,0,0,0,0,0,0,0,-1,1504,610,0,0
287,414,0,0,0,0,0,0,0,0,0,-1,1511,610,0,0
294,414,0,0,0,0,0,0,0,0,0,-1,1518,610,0,0
301,414,0,0,0,0,0,0,0,0,0,-1,1525,610,0,0
308,414,0,0,0,0,0,0,0,0,0,-1,1532,610,0,0
315,414,0,0,0,0,0,0,0,0,0,-1,1539,610,0,0
322,414,0,0,0,0,0,0,0,0,0,-1,1546,610,0,0
329,414,0,0,0,0,0,0,0,0,0,-1,1553,610,0,0
336,414,0,0,0,0,0,0,0,0,0,-1,1560,610,0,0
343,414,0,0,0,0,0,0,0,0,0,-1,1567,610,0,0
350,414,0,0,0,0,0,0,0,0,0,-1,1574,610,0,0
357,414,0,0,0,0,0,0,0,0,0,-1,1581,610,0,0
364,414,0,0,0,0,0,0,0,0,0,-1,1588,610,0,0
371,414,0,0,0,0,0,0,0,0,0,-1,1595,610,0,0
378,414,0,0,0,0,0,0,0,0,0,-1,1602,610,0,0
385,414,0,0,0,0,0,0,0,0,0,-1,1609,610,0,0
392,414,0,0,0,0,0,0,0,0,0,-1,1616,610,0,0
399,414,0,0,0,0,0,0,0,0,0,-1,1623,610,0,0
406,414,0,0,0,0,0,0,0,0,0,-1,1630,610,0,0
413,414,0,0,0,0,0,0,0,0,0,-1,1637,610,0,0
420,414,0,0,0,0,0,0,0,0,0,-1,1644,610,0,0
427,414,0,0,0,0,0,0,0,0,0,-1,1651,610,0,0
434,414,0,0,0,0,0,0,0,0,0,-1,1658,610,0,0
441,414,7.84375,0.584412,0,0,0,0,0,0,0,-1,1665,610,7.84379,-0.584394
448,414,7.40808,1.25446,0,0,0,0,0,0,0,-1,1672,610,7.40807,-1.25446
455,414,6.3512,1.73846,0,0,0,0,0,0,0,-1,1679,610,6.3512,-1.73847
462,414,8.18103,3.22113,0,0,0,0,0,0,0,-1,1686,610,8.18108,-3.22112
469,414,8.38513,2.49579,0,0,0,0,0,0,0,-1,1693,610,8.38516,-2.49576
476,414,8.64099,1.71161,0,0,0,0,0,0,0,-1,1700,610,8.64097,-1.71164
483,414,8.62744,0.687622,0,0,0,0,0,0,0,-1,1707,610,8.62749,-0.687615
490,414,8.38831,-0.0302734,0,0,0,0,0,0,0,-1,1714,610,8.38835,0.0302913
497,414,4.71094,-0.110046,0,0,0,0,0,0,0,-1,1721,610,4.71089,0.110024
504,414,7.19568,-1.43835,0,0,0,0,0,0,0,-1,1728,610,7.19563,1.43836
511,414,5.94153,-1.28772,0,0,0,0,0,0,0,-1,1735,610,5.94151,1.28769
518,414,4.53381,-0.0996704,0,0,0,0,0,0,0,-1,1742,610,4.53378,0.0996819
525,414,6.18811,-1.64056,0,0,0,0,0,0,0,-1,1749,610,6.18814,1.64055
532,414,29.3055,-21.636,0,0,0,0,0,0,0,-1,1756,610,29.3055,21.636
539,414,29.447,-20.5853,0,0,0,0,0,0,0,-1,1763,610,29.447,20.5854
546,414,29.3519,-19.6765,0.00392114,0.00134745,0.00152509,0.00462976,0.000638835,0.434962,0.00289714,0.018284,1770,610,29.3519,19.6765
553,414,29.3344,-18.8081,0.00314301,0.00125122,0.00118211,0.00371108,0.000683146,0.447974,0.0022807,0.0142695,1777,610,29.3344,18.8081
560,414,29.2865,-17.9269,0.00247496,0.00122527,0.000985386,0.00301691,0.000683318,0.502836,0.00182661,0.016336,1784,610,29.2865,17.9269
567,414,29.2178,-17.0266,0.00204361,0.00136649,0.000996776,0.00275775,0.000652345,0.621682,0.00166423,0.0245242,1791,610,29.2178,17.0266
574,414,29.1465,-16.1719,0.00185229,0.00168281,0.00117858,0.00294917,0.000585918,0.74951,0.00180283,0.0233478,1798,610,29.1465,16.172
581,414,29.1274,-15.2792,0.00187526,0.00212466,0.0015442,0.00354918,0.000450736,0.825687,0.0022311,0.0211722,1805,610,29.1275,15.2792
588,414,29.0688,-14.4333,0.00217584,0.00285142,0.00213411,0.00467431,0.00035296,0.863888,0.00300547,0.0196,1812,610,29.0688,14.4333
595,414,29.0359,-13.4822,0.00277737,0.00378749,0.00293004,0.00625569,0.000309178,0.870746,0.00407131,0.0213932,1819,610,29.0358,13.4822
602,414,28.9923,-12.6276,0.00367202,0.00501045,0.00392861,0.00832644,0.000356031,0.86976,0.00543617,0.0290359,1826,610,28.9923,12.6275
609,414,28.9011,-11.684,0,0,0,0,0,0,0,-1,1833,610,28.9011,11.684
616,414,29.2192,-10.437,0,0,0,0,0,0,0,-1,1840,610,29.2192,10.437
623,414,9.6969,0.0378418,0,0,0,0,0,0,0,-1,1847,610,9.69685,-0.0378644
630,414,5.47144,0.499329,0,0,0,0,0,0,0,-1,1854,610,5.47142,-0.499303
637,414,8.36707,4.16278,0,0,0,0,0,0,0,-1,1861,610,8.36709,-4.16278
644,414,5.87073,1.51422,0,0,0,0,0,0,0,-1,1868,610,5.87076,-1.51424
651,414,3.6377,0.820557,0,0,0,0,0,0,0,-1,1875,610,3.6377,-0.820543
658,414,2.29761,3.87323,0,0,0,0,0,0,0,-1,1882,610,2.29758,-3.87325
665,414,0,0,0,0,0,0,0,0,0,-1,1889,610,0,0
672,414,0,0,0,0,0,0,0,0,0,-1,1896,610,0,0
679,414,0,0,0,0,0,0,0,0,0,-1,1903,610,0,0
686,414,0,0,0,0,0,0,0,0,0,-1,1910,610,0,0
693,414,0,0,0,0,0,0,0,0,0,-1,1917,610,0,0
700,414,0,0,0,0,0,0,0,0,0,-1,1924,610,0,0
707,414,0,0,0,0,0,0,0,0,0,-1,1931,610,0,0
714,414,0,0,0,0,0,0,0,0,0,-1,1938,610,0,0
721,414,0,0,0,0,0,0,0,0,0,-1,1945,610,0,0
728,414,0,0,0,0,0,0,0,0,0,-1,1952,610,0,0
735,414,0,0,0,0,0,0,0,0,0,-1,1959,610,0,0
742,414,0,0,0,0,0,0,0,0,0,-1,1966,610,0,0
749,414,0,0,0,0,0,0,0,0,0,-1,1973,610,0,0
756,414,0,0,0,0,0,0,0,0,0,-1,1980,610,0,0
763,414,0,0,0,0,0,0,0,0,0,-1,1987,610,0,0
770,414,0,0,0,0,0,0,0,0,0,-1,1994,610,0,0
777,414,0,0,0,0,0,0,0,0,0,-1,2001,610,0,0
784,414,0,0,0,0,0,0,0,0,0,-1,2008,610,0,0
791,414,0,0,0,0,0,0,0,0,0,-1,2015,610,0,0
798,414,0,0,0,0,0,0,0,0,0,-1,2022,610,0,0
805,414,0,0,0,0,0,0,0,0,0,-1,2029,610,0,0
812,414,0,0,0,0,0,0,0,0,0,-1,2036,610,0,0
-700,407,0,0,0,0,0,0,0,0,0,-1,524,617,0,0
-693,407,0,0,0,0,0,0,0,0,0,-1,531,617,0,0
-686,407,0,0,0,0,0,0,0,0,0,-1,538,617,0,0
-679,407,0,0,0,0,0,0,0,0,0,-1,545,617,0,0
-672,407,0,0,0,0,0,0,0,0,0,-1,552,617,0,0
-665,407,0,0,0,0,0,0,0,0,0,-1,559,617,0,0
-658,407,0,0,0,0,0,0,0,0,0,-1,566,617,0,0
-651,407,0,0,0,0,0,0,0,0,0,-1,573,617,0,0
-644,407,0,0,0,0,0,0,0,0,0,-1,580,617,0,0
-637,407,0,0,0,0,0,0,0,0,0,-1,587,617,0,0
-630,407,0,0,0,0,0,0,0,0,0,-1,594,617,0,0
-623,407,0,0,0,0,0,0,0,0,0,-1,601,617,0,0
-616,407,0,0,0,0,0,0,0,0,0,-1,608,617,0,0
-609,407,0,0,0,0,0,0,0,0,0,-1,615,617,0,0
-602,407,0,0,0,0,0,0,0,0,0,-1,622,617,0,0
-595,407,0,0,0,0,0,0,0,0,0,-1,629,617,0,0
-588,407,0,0,0,0,0,0,0,0,0,-1,636,617,0,0
-581,407,0,0,0,0,0,0,0,0,0,-1,643,617,0,0
-574,407,0,0,0,0,0,0,0,0,0,-1,650,617,0,0
-567,407,0,0,0,0,0,0,0,0,0,-1,657,617,0,0
-560,407,0,0,0,0,0,0,0,0,0,-1,664,617,0,0
-553,407,0,0,0,0,0,0,0,0,0,-1,671,617,0,0
-546,407,-8.54517,-0.658142,0,0,0,0,0,0,0,-1,678,617,-8.54515,0.658112
-539,407,-6.09442,-1.01154,0,0,0,0,0,0,0,-1,685,617,-6.09441,1.01155
-532,407,-7.75665,1.62152,0,0,0,0,0,0,0,-1,692,617,-7.75667,-1.62154
-525,407,-3.78247,-2.67639,0,0,0,0,0,0,0,-1,699,617,-3.78246,2.67638
-518,407,-5.013,-5.87323,0,0,0,0,0,0,0,-1,706,617,-5.013,5.87324
-511,407,-9.42743,-4.94189,0,0,0,0,0,0,0,-1,713,617,-9.42745,4.94191
-504,407,-10.8291,-8.05927,0,0,0,0,0,0,0,-1,720,617,-10.8291,8.05927
-497,407,-9.84467,-6.81641,0,0,0,0,0,0,0,-1,727,617,-9.84468,6.8164
-490,407,-15.1395,-11.5189,0,0,0,0,0,0,0,-1,734,617,-15.1395,11.5189
-483,407,-14.8308,-12.3587,0,0,0,0,0,0,0,-1,741,617,-14.8308,12.3587
-476,407,-14.9077,-13.2645,-0.00173185,0.00186027,0.000539516,0.00193955,-0.00181113,1.42489,0.00216588,0.0170555,748,617,-14.9077,13.2645
-469,407,-14.9835,-14.1295,-0.00129179,0.00144851,0.0003007,0.00148112,-0.0013244,1.46278,0.00162061,0.0136267,755,617,-14.9835,14.1295
-462,407,-15.0286,-15.0228,-0.000683438,0.00106557,5.1377e-05,0.00106708,-0.000684945,1.54146,0.00101952,0.0217636,762,617,-15.0286,15.0228
-455,407,-15.0888,-15.9498,-2.01825e-05,0.00082085,-0.000242318,0.000885671,-8.5003e-05,-1.30941,0.000620725,0.0232553,769,617,-15.0888,15.9499
-448,407,-15.1152,-16.8589,0.000759369,0.000759386,-0.000592179,0.00135156,0.000167198,-0.785405,0.000850799,0.0196203,776,617,-15.1152,16.8589
-441,407,-15.1646,-17.7036,0.00160111,0.000843338,-0.000975551,0.00226877,0.00017568,-0.600173,0.00145749,0.0150657,783,617,-15.1646,17.7036
-434,407,-15.2513,-18.5263,0.00245979,0.00110825,-0.00140848,0.00334623,0.000221809,-0.561725,0.00216068,0.0119304,790,617,-15.2513,18.5263
-427,407,-15.3015,-19.4073,0.00338464,0.00164758,-0.00198459,0.00468243,0.000349787,-0.579136,0.0030118,0.0121576,797,617,-15.3014,19.4074
-420,407,-15.3062,-20.2892,0.00426119,0.00242164,-0.00256314,0.00606459,0.000618241,-0.613132,0.00385355,0.0114807,804,617,-15.3062,20.2892
-413,407,-15.3215,-21.1412,0.00514425,0.0035578,-0.00322194,0.00766917,0.00103288,-0.664701,0.00480563,0.0194232,811,617,-15.3216,21.1413
-406,407,-15.2808,-22.0114,0,0,0,0,0,0,0,-1,818,617,-15.2808,22.0113
-399,407,-15.5616,-21.8654,0,0,0,0,0,0,0,-1,825,617,-15.5616,21.8654
-392,407,-8.33612,-12.195,0,0,0,0,0,0,0,-1,832,617,-8.33611,12.195
-385,407,-7.65765,-10.7744,0,0,0,0,0,0,0,-1,839,617,-7.65767,10.7744
-378,407,-6.08655,-7.42291,0,0,0,0,0,0,0,-1,846,617,-6.08652,7.42292
-371,407,-7.4007,-5.79449,0,0,0,0,0,0,0,-1,853,617,-7.40072,5.79447
-364,407,-10.0638,-6.6228,0,0,0,0,0,0,0,-1,860,617,-10.0639,6.62279
-357,407,-6.64447,-1.83337,0,0,0,0,0,0,0,-1,867,617,-6.64446,1.8334
-350,407,-7.03351,-1.77551,0,0,0,0,0,0,0,-1,874,617,-7.03349,1.77551
-343,407,-7.40967,-1.95026,0,0,0,0,0,0,0,-1,881,617,-7.40969,1.95026
-336,407,-8.10229,-2.40662,0,0,0,0,0,0,0,-1,888,617,-8.10229,2.40664
-329,407,-8.81232,-2.76331,0,0,0,0,0,0,0,-1,895,617,-8.81235,2.76331
-322,407,0,0,0,0,0,0,0,0,0,-1,902,617,0,0
-315,407,0,0,0,0,0,0,0,0,0,-1,909,617,0,0
-308,407,0,0,0,0,0,0,0,0,0,-1,916,617,0,0
-301,407,0,0,0,0,0,0,0,0,0,-1,923,617,0,0
-294,407,0,0,0,0,0,0,0,0,0,-1,930,617,0,0
-287,407,0,0,0,0,0,0,0,0,0,-1,937,617,0,0
-280,407,0,0,0,0,0,0,0,0,0,-1,944,617,0,0
-273,407,0,0,0,0,0,0,0,0,0,-1,951,617,0,0
-266,407,0,0,0,0,0,0,0,0,0,-1,958,617,0,0
-259,407,0,0,0,0,0,0,0,0,0,-1,965,617,0,0
-252,407,0,0,0,0,0,0,0,0,0,-1,972,617,0,0
-245,407,0,0,0,0,0,0,0,0,0,-1,979,617,0,0
-238,407,0,0,0,0,0,0,0,0,0,-1,986,617,0,0
-231,407,0,0,0,0,0,0,0,0,0,-1,993,617,0,0
-224,407,0,0,0,0,0,0,0,0,0,-1,1000,617,0,0
-217,407,0,0,0,0,0,0,0,0,0,-1,1007,617,0,0
-210,407,0,0,0,0,0,0,0,0,0,-1,1014,617,0,0
-203,407,0,0,0,0,0,0,0,0,0,-1,1021,617,0,0
-196,407,0,0,0,0,0,0,0,0,0,-1,1028,617,0,0
-189,407,0,0,0,0,0,0,0,0,0,-1,1035,617,0,0
-182,407,0,0,0,0,0,0,0,0,0,-1,1042,617,0,0
-175,407,0,0,0,0,0,0,0,0,0,-1,1049,617,0,0
-168,407,0,0,0,0,0,0,0,0,0,-1,1056,617,0,0
-161,407,0,0,0,0,0,0,0,0,0,-1,1063,617,0,0
-154,407,0,0,0,0,0,0,0,0,0,-1,1070,617,0,0
-147,407,0,0,0,0,0,0,0,0,0,-1,1077,617,0,0
-140,407,0,0,0,0,0,0,0,0,0,-1,1084,617,0,0
-133,407,0,0,0,0,0,0,0,0,0,-1,1091,617,0,0
-126,407,0,0,0,0,0,0,0,0,0,-1,1098,617,0,0
-119,407,0,0,0,0,0,0,0,0,0,-1,1105,617,0,0
-112,407,0,0,0,0,0,0,0,0,0,-1,1112,617,0,0
-105,407,0,0,0,0,0,0,0,0,0,-1,1119,617,0,0
-98,407,0,0,0,0,0,0,0,0,0,-1,1126,617,0,0
-91,407,0,0,0,0,0,0,0,0,0,-1,1133,617,0,0
-84,407,0,0,0,0,0,0,0,0,0,-1,1140,617,0,0
-77,407,0,0,0,0,0,0,0,0,0,-1,1147,617,0,0
-70,407,0,0,0,0,0,0,0,0,0,-1,1154,617,0,0
-63,407,0,0,0,0,0,0,0,0,0,-1,1161,617,0,0
-56,407,0,0,0,0,0,0,0,0,0,-1,1168,617,0,0
-49,407,0,0,0,0,0,0,0,0,0,-1,1175,617,0,0
-42,407,0,0,0,0,0,0,0,0,0,-1,1182,617,0,0
-35,407,0,0,0,0,0,0,0,0,0,-1,1189,617,0,0
-28,407,0,0,0,0,0,0,0,0,0,-1,1196,617,0,0
-21,407,0,0,0,0,0,0,0,0,0,-1,1203,617,0,0
-14,407,0,0,0,0,0,0,0,0,0,-1,1210,617,0,0
-7,407,0,0,0,0,0,0,0,0,0,-1,1217,617,0,0
0,407,0,0,0,0,0,0,0,0,0,-1,1224,617,0,0
7,407,0,0,0,0,0,0,0,0,0,-1,1231,617,0,0
14,407,0,0,0,0,0,0,0,0,0,-1,1238,617,0,0
21,407,0,0,0,0,0,0,0,0,0,-1,1245,617,0,0
28,407,0,0,0,0,0,0,0,0,0,-1,1252,617,0,0
35,407,0,0,0,0,0,0,0,0,0,-1,1259,617,0,0
42,407,0,0,0,0,0,0,0,0,0,-1,1266,617,0,0
49,407,0,0,0,0,0,0,0,0,0,-1,1273,617,0,0
56,407,0,0,0,0,0,0,0,0,0,-1,1280,617,0,0
63,407,0,0,0,0,0,0,0,0,0,-1,1287,617,0,0
70,407,0,0,0,0,0,0,0,0,0,-1,1294,617,0,0
77,407,0,0,0,0,0,0,0,0,0,-1,1301,617,0,0
84,407,0,0,0,0,0,0,0,0,0,-1,1308,617,0,0
91,407,0,0,0,0,0,0,0,0,0,-1,1315,617,0,0
98,407,0,0,0,0,0,0,0,0,0,-1,1322,617,0,0
105,407,0,0,0,0,0,0,0,0,0,-1,1329,617,0,0
112,407,0,0,0,0,0,0,0,0,0,-1,1336,617,0,0
119,407,0,0,0,0,0,0,0,0,0,-1,1343,617,0,0
126,407,0,0,0,0,0,0,0,0,0,-1,1350,617,0,0
133,407,0,0,0,0,0,0,0,0,0,-1,1357,617,0,0
140,407,0,0,0,0,0,0,0,0,0,-1,1364,617,0,0
147,407,0,0,0,0,0,0,0,0,0,-1,1371,617,0,0
154,407,0,0,0,0,0,0,0,0,0,-1,1378,617,0,0
161,407,0,0,0,0,0,0,0,0,0,-1,1385,617,0,0
168,407,0,0,0,0,0,0,0,0,0,-1,1392,617,0,0
175,407,0,0,0,0,0,0,0,0,0,-1,1399,617,0,0
182,407,0,0,0,0,0,0,0,0,0,-1,1406,617,0,0
189,407,0,0,0,0,0,0,0,0,0,-1,1413,617,0,0
196,407,0,0,0,0,0,0,0,0,0,-1,1420,617,0,0
203,407,0,0,0,0,0,0,0,0,0,-1,1427,617,0,0
210,407,0,0,0,0,0,0,0,0,0,-1,1434,617,0,0
217,407,0,0,0,0,0,0,0,0,0,-1,1441,617,0,0
224,407,0,0,0,0,0,0,0,0,0,-1,1448,617,0,0
231,407,0,0,0,0,0,0,0,0,0,-1,1455,617,0,0
238,407,0,0,0,0,0,0,0,0,0,-1,1462,617,0,0
245,407,0,0,0,0,0,0,0,0,0,-1,1469,617,0,0
252,407,0,0,0,0,0,0,0,0,0,-1,1476,617,0,0
259,407,0,0,0,0,0,0,0,0,0,-1,1483,617,0,0
266,407,0,0,0,0,0,0,0,0,0,-1,1490,617,0,0
273,407,0,0,0,0,0,0,0,0,0,-1,1497,617,0,0
280,407,0,0,0,0,0,0,0,0,0,-1,1504,617,0,0
287,407,0,0,0,0,0,0,0,0,0,-1,1511,617,0,0
294,407,0,0,0,0,0,0,0,0,0,-1,1518,617,0,0
301,407,0,0,0,0,0,0,0,0,0,-1,1525,617,0,0
308,407,0,0,0,0,0,0,0,0,0,-1,1532,617,0,0
315,407,0,0,0,0,0,0,0,0,0,-1,1539,617,0,0
322,407,0,0,0,0,0,0,0,0,0,-1,1546,617,0,0
329,407,0,0,0,0,0,0,0,0,0,-1,1553,617,0,0
336,407,0,0,0,0,0,0,0,0,0,-1,1560,617,0,0
343,407,0,0,0,0,0,0,0,0,0,-1,1567,617,0,0
350,407,0,0,0,0,0,0,0,0,0,-1,1574,617,0,0
357,407,0,0,0,0,0,0,0,0,0,-1,1581,617,0,0
364,407,0,0,0,0,0,0,0,0,0,-1,1588,617,0,0
371,407,0,0,0,0,0,0,0,0,0,-1,1595,617,0,0
378,407,0,0,0,0,0,0,0,0,0,-1,1602,617,0,0
385,407,0,0,0,0,0,0,0,0,0,-1,1609,617,0,0
392,407,0,0,0,0,0,0,0,0,0,-1,1616,617,0,0
399,407,0,0,0,0,0,0,0,0,0,-1,1623,617,0,0
406,407,0,0,0,0,0,0,0,0,0,-1,1630,617,0,0
413,407,0,0,0,0,0,0,0,0,0,-1,1637,617,0,0
420,407,0,0,0,0,0,0,0,0,0,-1,1644,617,0,0
427,407,0,0,0,0,0,0,0,0,0,-1,1651,617,0,0
434,407,0,0,0,0,0,0,0,0,0,-1,1658,617,0,0
441,407,0,0,0,0,0,0,0,0,0,-1,1665,617,0,0
448,407,7.02893,2.13843,0,0,0,0,0,0,0,-1,1672,617,7.02899,-2.13844
455,407,7.55237,2.29242,0,0,0,0,0,0,0,-1,1679,617,7.55236,-2.29244
462,407,8.2926,2.46173,0,0,0,0,0,0,0,-1,1686,617,8.29261,-2.46174
469,407,8.71509,2.22681,0,0,0,0,0,0,0,-1,1693,617,8.71511,-2.22681
476,407,8.89917,1.47766,0,0,0,0,0,0,0,-1,1700,617,8.89914,-1.47768
483,407,9.02612,0.682983,0,0,0,0,0,0,0,-1,1707,617,9.02608,-0.683004
490,407,9.12659,0.000671387,0,0,0,0,0,0,0,-1,1714,617,9.12653,-0.000675931
497,407,7.76819,0.855835,0,0,0,0,0,0,0,-1,1721,617,7.7682,-0.855865
504,407,4.69336,0.160706,0,0,0,0,0,0,0,-1,1728,617,4.69337,-0.1607
511,407,4.07104,-0.00140381,0,0,0,0,0,0,0,-1,1735,617,4.07109,0.00141425
518,407,6.09534,1.9411,0,0,0,0,0,0,0,-1,1742,617,6.09532,-1.94113
525,407,5.72534,-1.35986,0,0,0,0,0,0,0,-1,1749,617,5.72529,1.35988
532,407,18.5767,-10.6388,0,0,0,0,0,0,0,-1,1756,617,18.5766,10.6388
539,407,30.1277,-20.6565,0,0,0,0,0,0,0,-1,1763,617,30.1277,20.6565
546,407,30.2273,-19.6202,0.00440679,0.00153337,0.00169133,0.00518925,0.000750899,0.43331,0.00323835,0.0308979,1770,617,30.2273,19.6202
553,407,30.167,-18.7831,0.00349457,0.00131256,0.0012382,0.00405385,0.000753281,0.424254,0.00248975,0.0186663,1777,617,30.1669,18.7831
560,407,30.1505,-17.8882,0.00271922,0.00115211,0.000934399,0.00315512,0.000716218,0.43649,0.00190997,0.0201881,1784,617,30.1505,17.8882
567,407,30.11,-16.9788,0.0021658,0.00112599,0.000829733,0.00262505,0.000666732,0.505527,0.00157554,0.0332684,1791,617,30.11,16.9788
574,407,30.0438,-16.1417,0.00190682,0.00133962,0.000944189,0.00260908,0.000637363,0.639504,0.00157065,0.0271652,1798,617,30.0438,16.1417
581,407,29.9766,-15.2179,0.00186732,0.00168156,0.00124049,0.0030184,0.000530476,0.748032,0.00186082,0.0185422,1805,617,29.9766,15.2179
588,407,29.9015,-14.3412,0.00209743,0.00229492,0.00175046,0.00394942,0.00044293,0.813573,0.00249843,0.0137548,1812,617,29.9015,14.3412
595,407,29.9182,-13.4907,0.0026446,0.0030966,0.0024688,0.00534972,0.000391479,0.831042,0.00344341,0.0265217,1819,617,29.9183,13.4908
602,407,29.8906,-12.5415,0.00348181,0.00415027,0.00337173,0.00720429,0.000427787,0.834801,0.00466681,0.0216274,1826,617,29.8906,12.5415
609,407,29.7279,-11.6015,0.00474575,0.00550924,0.00457198,0.00971538,0.000539612,0.82705,0.00630475,0.0214218,1833,617,29.7278,11.6015
616,407,29.7955,-10.5469,0.00646354,0.00719736,0.0060055,0.0128471,0.000813751,0.815908,0.00830681,0.0389403,1840,617,29.7955,10.5469
623,407,30.1084,-9.34937,0,0,0,0,0,0,0,-1,1847,617,30.1084,9.34934
630,407,7.06177,0.814575,0,0,0,0,0,0,0,-1,1854,617,7.06178,-0.814579
637,407,11.1063,0.391846,0,0,0,0,0,0,0,-1,1861,617,11.1063,-0.391862
644,407,5.09766,2.27747,0,0,0,0,0,0,0,-1,1868,617,5.09764,-2.27746
651,407,7.37524,0.0513916,0,0,0,0,0,0,0,-1,1875,617,7.3752,-0.0513923
658,407,3.76685,0.594177,0,0,0,0,0,0,0,-1,1882,617,3.76683,-0.594184
665,407,5.76123,0.375061,0,0,0,0,0,0,0,-1,1889,617,5.76118,-0.37509
672,407,0,0,0,0,0,0,0,0,0,-1,1896,617,0,0
679,407,0,0,0,0,0,0,0,0,0,-1,1903,617,0,0
686,407,0,0,0,0,0,0,0,0,0,-1,1910,617,0,0
693,407,0,0,0,0,0,0,0,0,0,-1,1917,617,0,0
700,407,0,0,0,0,0,0,0,0,0,-1,1924,617,0,0
707,407,0,0,0,0,0,0,0,0,0,-1,1931,617,0,0
714,407,0,0,0,0,0,0,0,0,0,-1,1938,617,0,0
721,407,0,0,0,0,0,0,0,0,0,-1,1945,617,0,0
728,407,0,0,0,0,0,0,0,0,0,-1,1952,617,0,0
735,407,0,0,0,0,0,0,0,0,0,-1,1959,617,0,0
742,407,0,0,0,0,0,0,0,0,0,-1,1966,617,0,0
749,407,0,0,0,0,0,0,0,0,0,-1,1973,617,0,0
756,407,0,0,0,0,0,0,0,0,0,-1,1980,617,0,0
763,407,0,0,0,0,0,0,0,0,0,-1,1987,617,0,0
770,407,0,0,0,0,0,0,0,0,0,-1,1994,617,0,0
777,407,0,0,0,0,0,0,0,0,0,-1,2001,617,0,0
784,407,0,0,0,0,0,0,0,0,0,-1,2008,617,0,0
791,407,0,0,0,0,0,0,0,0,0,-1,2015,617,0,0
798,407,0,0,0,0,0,0,0,0,0,-1,2022,617,0,0
805,407,0,0,0,0,0,0,0,0,0,-1,2029,617,0,0
812,407,0,0,0,0,0,0,0,0,0,-1,2036,617,0,0
-700,400,0,0,0,0,0,0,0,0,0,-1,524,624,0,0
-693,400,0,0,0,0,0,0,0,0,0,-1,531,624,0,0
-686,400,0,0,0,0,0,0,0,0,0,-1,538,624,0,0
-679,400,0,0,0,0,0,0,0,0,0,-1,545,624,0,0
-672,400,0,0,0,0,0,0,0,0,0,-1,552,624,0,0
-665,400,0,0,0,0,0,0,0,0,0,-1,559,624,0,0
-658,400,0,0,0,0,0,0,0,0,0,-1,566,624,0,0
-651,400,0,0,0,0,0,0,0,0,0,-1,573,624,0,0
-644,400,0,0,0,0,0,0,0,0,0,-1,580,624,0,0
-637,400,0,0,0,0,0,0,0,0,0,-1,587,624,0,0
-630,400,0,0,0,0,0,0,0,0,0,-1,594,624,0,0
-623,400,0,0,0,0,0,0,0,0,0,-1,601,624,0,0
-616,400,0,0,0,0,0,0,0,0,0,-1,608,624,0,0
-609,400,0,0,0,0,0,0,0,0,0,-1,615,624,0,0
-602,400,0,0,0,0,0,0,0,0,0,-1,622,624,0,0
-595,400,0,0,0,0,0,0,0,0,0,-1,629,624,0,0
-588,400,0,0,0,0,0,0,0,0,0,-1,636,624,0,0
-581,400,0,0,0,0,0,0,0,0,0,-1,643,624,0,0
-574,400,0,0,0,0,0,0,0,0,0,-1,650,624,0,0
-567,400,0,0,0,0,0,0,0,0,0,-1,657,624,0,0
-560,400,0,0,0,0,0,0,0,0,0,-1,664,624,0,0
-553,400,0,0,0,0,0,0,0,0,0,-1,671,624,0,0
-546,400,-8.41174,-1.4599,0,0,0,0,0,0,0,-1,678,624,-8.41173,1.45989
-539,400,-5.69104,-1.7337,0,0,0,0,0,0,0,-1,685,624,-5.69103,1.7337
-532,400,-3.03632,-2.03912,0,0,0,0,0,0,0,-1,692,624,-3.03632,2.03909
-525,400,-6.20813,-7.04071,0,0,0,0,0,0,0,-1,699,624,-6.20814,7.04071
-518,400,-5.26544,-1.58661,0,0,0,0,0,0,0,-1,706,624,-5.26544,1.58658
-511,400,-10.6307,-6.7121,0,0,0,0,0,0,0,-1,713,624,-10.6307,6.71209
-504,400,-10.2663,-6.55109,0,0,0,0,0,0,0,-1,720,624,-10.2663,6.55106
-497,400,-15.9565,-10.2552,0,0,0,0,0,0,0,-1,727,624,-15.9565,10.2552
-490,400,-15.7177,-11.315,-0.000700198,0.00202767,0.000307963,0.002062,-0.000734533,1.45976,0.00167412,0.0456809,734,624,-15.7177,11.315
-483,400,-15.7337,-12.3293,-0.000847326,0.00162595,0.000246037,0.00165019,-0.000871564,1.4726,0.00147889,0.0180621,741,624,-15.7337,12.3293
-476,400,-15.7816,-13.1867,-0.000800113,0.0013119,0.000147694,0.00132217,-0.000810391,1.50132,0.001243,0.0146056,748,624,-15.7816,13.1867
-469,400,-15.8625,-14.0724,-0.000497962,0.000988227,-1.13652e-05,0.000988314,-0.000498048,-1.56315,0.000873574,0.0154889,755,624,-15.8625,14.0724
-462,400,-15.9029,-14.9935,-2.56533e-05,0.000676794,-0.000206027,0.000732762,-8.16215e-05,-1.30554,0.000517864,0.0213471,762,624,-15.9029,14.9935
-455,400,-15.9277,-15.893,0.000556146,0.000538551,-0.000494165,0.00104159,5.31048e-05,-0.776498,0.000677388,0.0224182,769,624,-15.9277,15.893
-448,400,-15.9803,-16.8005,0.00130289,0.000560885,-0.000852139,0.00186129,2.48686e-06,-0.580085,0.00124003,0.0164197,776,624,-15.9803,16.8005
-441,400,-16.0454,-17.6132,0.00214702,0.000718531,-0.00126231,0.00288315,-1.75945e-05,-0.527943,0.00192799,0.0153062,783,624,-16.0454,17.6132
-434,400,-16.1155,-18.4474,0.00309283,0.00109731,-0.00177474,0.00413105,5.90882e-05,-0.529316,0.00273455,0.0127711,790,624,-16.1156,18.4474
-427,400,-16.1714,-19.3174,0.00412991,0.0017459,-0.00243881,0.00565243,0.000223382,-0.558089,0.00369608,0.0111908,797,624,-16.1714,19.3174
-420,400,-16.1398,-20.2441,0.00509258,0.00265485,-0.00308388,0.00718973,0.0005577,-0.597202,0.00461849,0.0234518,804,624,-16.1398,20.2441
-413,400,-16.0669,-21.0312,0,0,0,0,0,0,0,-1,811,624,-16.0669,21.0312
-406,400,-14.392,-18.9125,0,0,0,0,0,0,0,-1,818,624,-14.392,18.9125
-399,400,-11.0176,-13.2944,0,0,0,0,0,0,0,-1,825,624,-11.0176,13.2944
-392,400,-4.92285,-6.63354,0,0,0,0,0,0,0,-1,832,624,-4.92285,6.63354
-385,400,-3.68738,-5.04205,0,0,0,0,0,0,0,-1,839,624,-3.68736,5.04207
-378,400,-6.84064,-1.28662,0,0,0,0,0,0,0,-1,846,624,-6.84062,1.28662
-371,400,-6.98865,-1.2572,0,0,0,0,0,0,0,-1,853,624,-6.98865,1.25721
-364,400,-6.97247,-1.24133,0,0,0,0,0,0,0,-1,860,624,-6.97249,1.24135
-357,400,-7.18329,-1.23218,0,0,0,0,0,0,0,-1,867,624,-7.18327,1.2322
-350,400,-7.40186,-1.19409,0,0,0,0,0,0,0,-1,874,624,-7.40187,1.19407
-343,400,-8.09357,-1.51147,0,0,0,0,0,0,0,-1,881,624,-8.09355,1.51148
-336,400,0,0,0,0,0,0,0,0,0,-1,888,624,0,0
-329,400,0,0,0,0,0,0,0,0,0,-1,895,624,0,0
-322,400,0,0,0,0,0,0,0,0,0,-1,902,624,0,0
-315,400,0,0,0,0,0,0,0,0,0,-1,909,624,0,0
-308,400,0,0,0,0,0,0,0,0,0,-1,916,624,0,0
-301,400,0,0,0,0,0,0,0,0,0,-1,923,624,0,0
-294,400,0,0,0,0,0,0,0,0,0,-1,930,624,0,0
-287,400,0,0,0,0,0,0,0,0,0,-1,937,624,0,0
-280,400,0,0,0,0,0,0,0,0,0,-1,944,624,0,0
-273,400,0,0,0,0,0,0,0,0,0,-1,951,624,0,0
-266,400,0,0,0,0,0,0,0,0,0,-1,958,624,0,0
-259,400,0,0,0,0,0,0,0,0,0,-1,965,624,0,0
-252,400,0,0,0,0,0,0,0,0,0,-1,972,624,0,0
-245,400,0,0,0,0,0,0,0,0,0,-1,979,624,0,0
-238,400,0,0,0,0,0,0,0,0,0,-1,986,624,0,0
-231,400,0,0,0,0,0,0,0,0,0,-1,993,624,0,0
-224,400,0,0,0,0,0,0,0,0,0,-1,1000,624,0,0
-217,400,0,0,0,0,0,0,0,0,0,-1,1007,624,0,0
-210,400,0,0,0,0,0,0,0,0,0,-1,1014,624,0,0
-203,400,0,0,0,0,0,0,0,0,0,-1,1021,624,0,0
-196,400,0,0,0,0,0,0,0,0,0,-1,1028,624,0,0
-189,400,0,0,0,0,0,0,0,0,0,-1,1035,624,0,0
-182,400,0,0,0,0,0,0,0,0,0,-1,1042,624,0,0
-175,400,0,0,0,0,0,0,0,0,0,-1,1049,624,0,0
-168,400,0,0,0,0,0,0,0,0,0,-1,1056,624,0,0
-161,400,0,0,0,0,0,0,0,0,0,-1,1063,624,0,0
-154,400,0,0,0,0,0,0,0,0,0,-1,1070,624,0,0
-147,400,0,0,0,0,0,0,0,0,0,-1,1077,624,0,0
-140,400,0,0,0,0,0,0,0,0,0,-1,1084,624,0,0
-133,400,0,0,0,0,0,0,0,0,0,-1,1091,624,0,0
-126,400,0,0,0,0,0,0,0,0,0,-1,1098,624,0,0
-119,400,0,0,0,0,0,0,0,0,0,-1,1105,624,0,0
-112,400,0,0,0,0,0,0,0,0,0,-1,1112,624,0,0
-105,400,0,0,0,0,0,0,0,0,0,-1,1119,624,0,0
-98,400,0,0,0,0,0,0,0,0,0,-1,1126,624,0,0
-91,400,0,0,0,0,0,0,0,0,0,-1,1133,624,0,0
-84,400,0,0,0,0,0,0,0,0,0,-1,1140,624,0,0
-77,400,0,0,0,0,0,0,0,0,0,-1,1147,624,0,0
-70,400,0,0,0,0,0,0,0,0,0,-1,1154,624,0,0
-63,400,0,0,0,0,0,0,0,0,0,-1,1161,624,0,0
-56,400,0,0,0,0,0,0,0,0,0,-1,1168,624,0,0
-49,400,0,0,0,0,0,0,0,0,0,-1,1175,624,0,0
-42,400,0,0,0,0,0,0,0,0,0,-1,1182,624,0,0
-35,400,0,0,0,0,0,0,0,0,0,-1,1189,624,0,0
-28,400,0,0,0,0,0,0,0,0,0,-1,1196,624,0,0
-21,400,0,0,0,0,0,0,0,0,0,-1,1203,624,0,0
-14,400,0,0,0,0,0,0,0,0,0,-1,1210,624,0,0
-7,400,0,0,0,0,0,0,0,0,0,-1,1217,624,0,0
0,400,0,0,0,0,0,0,0,0,0,-1,1224,624,0,0
7,400,0,0,0,0,0,0,0,0,0,-1,1231,624,0,0
14,400,0,0,0,0,0,0,0,0,0,-1,1238,624,0,0
21,400,0,0,0,0,0,0,0,0,0,-1,1245,624,0,0
28,400,0,0,0,0,0,0,0,0,0,-1,1252,624,0,0
35,400,0,0,0,0,0,0,0,0,0,-1,1259,624,0,0
42,400,0,0,0,0,0,0,0,0,0,-1,1266,624,0,0
49,400,0,0,0,0,0,0,0,0,0,-1,1273,624,0,0
56,400,0,0,0,0,0,0,0,0,0,-1,1280,624,0,0
63,400,0,0,0,0,0,0,0,0,0,-1,1287,624,0,0
70,400,0,0,0,0,0,0,0,0,0,-1,1294,624,0,0
77,400,0,0,0,0,0,0,0,0,0,-1,1301,624,0,0
84,400,0,0,0,0,0,0,0,0,0,-1,1308,624,0,0
91,400,0,0,0,0,0,0,0,0,0,-1,1315,624,0,0
98,400,0,0,0,0,0,0,0,0,0,-1,1322,624,0,0
105,400,0,0,0,0,0,0,0,0,0,-1,1329,624,0,0
112,400,0,0,0,0,0,0,0,0,0,-1,1336,624,0,0
119,400,0,0,0,0,0,0,0,0,0,-1,1343,624,0,0
126,400,0,0,0,0,0,0,0,0,0,-1,1350,624,0,0
133,400,0,0,0,0,0,0,0,0,0,-1,1357,624,0,0
140,400,0,0,0,0,0,0,0,0,0,-1,1364,624,0,0
147,400,0,0,0,0,0,0,0,0,0,-1,1371,624,0,0
154,400,0,0,0,0,0,0,0,0,0,-1,1378,624,0,0
161,400,0,0,0,0,0,0,0,0,0,-1,1385,624,0,0
168,400,0,0,0,0,0,0,0,0,0,-1,1392,624,0,0
175,400,0,0,0,0,0,0,0,0,0,-1,1399,624,0,0
182,400,0,0,0,0,0,0,0,0,0,-1,1406,624,0,0
189,400,0,0,0,0,0,0,0,0,0,-1,1413,624,0,0
196,400,0,0,0,0,0,0,0,0,0,-1,1420,624,0,0
203,400,0,0,0,0,0,0,0,0,0,-1,1427,624,0,0
210,400,0,0,0,0,0,0,0,0,0,-1,1434,624,0,0
217,400,0,0,0,0,0,0,0,0,0,-1,1441,624,0,0
224,400,0,0,0,0,0,0,0,0,0,-1,1448,624,0,0
231,400,0,0,0,0,0,0,0,0,0,-1,1455,624,0,0
238,400,0,0,0,0,0,0,0,0,0,-1,1462,624,0,0
245,400,0,0,0,0,0,0,0,0,0,-1,1469,624,0,0
252,400,0,0,0,0,0,0,0,0,0,-1,1476,624,0,0
259,400,0,0,0,0,0,0,0,0,0,-1,1483,624,0,0
266,400,0,0,0,0,0,0,0,0,0,-1,1490,624,0,0
273,400,0,0,0,0,0,0,0,0,0,-1,1497,624,0,0
280,400,0,0,0,0,0,0,0,0,0,-1,1504,624,0,0
287,400,0,0,0,0,0,0,0,0,0,-1,1511,624,0,0
294,400,0,0,0,0,0,0,0,0,0,-1,1518,624,0,0
301,400,0,0,0,0,0,0,0,0,0,-1,1525,624,0,0
308,400,0,0,0,0,0,0,0,0,0,-1,1532,624,0,0
315,400,0,0,0,0,0,0,0,0,0,-1,1539,624,0,0
322,400,0,0,0,0,0,0,0,0,0,-1,1546,624,0,0
329,400,0,0,0,0,0,0,0,0,0,-1,1553,624,0,0
336,400,0,0,0,0,0,0,0,0,0,-1,1560,624,0,0
343,400,0,0,0,0,0,0,0,0,0,-1,1567,624,0,0
350,400,0,0,0,0,0,0,0,0,0,-1,1574,624,0,0
357,400,0,0,0,0,0,0,0,0,0,-1,1581,624,0,0
364,400,0,0,0,0,0,0,0,0,0,-1,1588,624,0,0
371,400,0,0,0,0,0,0,0,0,0,-1,1595,624,0,0
378,400,0,0,0,0,0,0,0,0,0,-1,1602,624,0,0
385,400,0,0,0,0,0,0,0,0,0,-1,1609,624,0,0
392,400,0,0,0,0,0,0,0,0,0,-1,1616,624,0,0
399,400,0,0,0,0,0,0,0,0,0,-1,1623,624,0,0
406,400,0,0,0,0,0,0,0,0,0,-1,1630,624,0,0
413,400,0,0,0,0,0,0,0,0,0,-1,1637,624,0,0
420,400,0,0,0,0,0,0,0,0,0,-1,1644,624,0,0
427,400,0,0,0,0,0,0,0,0,0,-1,1651,624,0,0
434,400,0,0,0,0,0,0,0,0,0,-1,1658,624,0,0
441,400,0,0,0,0,0,0,0,0,0,-1,1665,624,0,0
448,400,0,0,0,0,0,0,0,0,0,-1,1672,624,0,0
455,400,8.91309,2.75885,0,0,0,0,0,0,0,-1,1679,624,8.91312,-2.75885
462,400,8.90356,2.37878,0,0,0,0,0,0,0,-1,1686,624,8.90353,-2.37878
469,400,9.14429,1.76849,0,0,0,0,0,0,0,-1,1693,624,9.14432,-1.76847
476,400,9.23254,1.25995,0,0,0,0,0,0,0,-1,1700,624,9.23252,-1.25994
483,400,9.59766,0.562439,0,0,0,0,0,0,0,-1,1707,624,9.59771,-0.56242
490,400,9.92578,-0.213745,0,0,0,0,0,0,0,-1,1714,624,9.92579,0.21376
497,400,9.19141,0.175232,0,0,0,0,0,0,0,-1,1721,624,9.19138,-0.175209
504,400,9.23438,0.00823975,0,0,0,0,0,0,0,-1,1728,624,9.23436,-0.00823766
511,400,6.16687,3.3501,0,0,0,0,0,0,0,-1,1735,624,6.16682,-3.35007
518,400,6.55237,1.74994,0,0,0,0,0,0,0,-1,1742,624,6.55236,-1.74993
525,400,6.99731,1.08783,0,0,0,0,0,0,0,-1,1749,624,6.99736,-1.08785
532,400,6.96582,-1.74982,0,0,0,0,0,0,0,-1,1756,624,6.96585,1.74983
539,400,21.2305,-10.5841,0,0,0,0,0,0,0,-1,1763,624,21.2304,10.5841
546,400,30.7642,-19.8383,0,0,0,0,0,0,0,-1,1770,624,30.7641,19.8383
553,400,30.933,-18.7534,0.00395807,0.00152524,0.00130108,0.0045228,0.000960506,0.409508,0.0027515,0.0450576,1777,624,30.933,18.7533
560,400,31.0052,-17.8277,0.0030282,0.00128239,0.000911535,0.00341738,0.00089321,0.403522,0.00204655,0.0177043,1784,624,31.0052,17.8277
567,400,30.9985,-16.9471,0.00227853,0.00111286,0.000694565,0.0026024,0.000788989,0.436321,0.00154081,0.019868,1791,624,30.9986,16.9472
574,400,30.9348,-16.0765,0.00188816,0.00123848,0.00074763,0.00237847,0.000748171,0.580458,0.00140434,0.0218662,1798,624,30.9349,16.0765
581,400,30.8257,-15.1691,0.00173387,0.00149048,0.000980471,0.00260017,0.000624181,0.723655,0.00156738,0.0224155,1805,624,30.8256,15.1691
588,400,30.7472,-14.2155,0.00186561,0.00197961,0.00141854,0.00334229,0.000502928,0.80548,0.00208091,0.0191042,1812,624,30.7472,14.2155
595,400,30.7687,-13.3657,0.00233038,0.00262806,0.00205463,0.00453924,0.000419205,0.821556,0.00289655,0.0176052,1819,624,30.7687,13.3657
602,400,30.7294,-12.4991,0.00306519,0.00347461,0.00285002,0.00612726,0.000412537,0.82125,0.00395451,0.016567,1826,624,30.7294,12.4991
609,400,30.5864,-11.5865,0.00410683,0.00453331,0.00383856,0.00816455,0.000475585,0.813145,0.00529163,0.0155231,1833,624,30.5865,11.5865
616,400,30.5586,-10.6858,0.00552677,0.00584448,0.00501668,0.0107048,0.000666429,0.801225,0.0069251,0.0193926,1840,624,30.5586,10.6858
623,400,30.6165,-9.75958,0,0,0,0,0,0,0,-1,1847,624,30.6165,9.75958
630,400,11.9432,0.09021,0,0,0,0,0,0,0,-1,1854,624,11.9432,-0.0902007
637,400,6.92896,1.01917,0,0,0,0,0,0,0,-1,1861,624,6.92899,-1.01918
644,400,8.65381,1.4599,0,0,0,0,0,0,0,-1,1868,624,8.65379,-1.45991
651,400,7.90601,0.424072,0,0,0,0,0,0,0,-1,1875,624,7.90598,-0.424097
658,400,8.69031,1.0484,0,0,0,0,0,0,0,-1,1882,624,8.6903,-1.0484
665,400,5.98438,0.522522,0,0,0,0,0,0,0,-1,1889,624,5.98442,-0.522552
672,400,0,0,0,0,0,0,0,0,0,-1,1896,624,0,0
679,400,0,0,0,0,0,0,0,0,0,-1,1903,624,0,0
686,400,0,0,0,0,0,0,0,0,0,-1,1910,624,0,0
693,400,0,0,0,0,0,0,0,0,0,-1,1917,624,0,0
700,400,0,0,0,0,0,0,0,0,0,-1,1924,624,0,0
707,400,0,0,0,0,0,0,0,0,0,-1,1931,624,0,0
714,400,0,0,0,0,0,0,0,0,0,-1,1938,624,0,0
721,400,0,0,0,0,0,0,0,0,0,-1,1945,624,0,0
728,400,0,0,0,0,0,0,0,0,0,-1,1952,624,0,0
735,400,0,0,0,0,0,0,0,0,0,-1,1959,624,0,0
742,400,0,0,0,0,0,0,0,0,0,-1,1966,624,0,0
749,400,0,0,0,0,0,0,0,0,0,-1,1973,624,0,0
756,400,0,0,0,0,0,0,0,0,0,-1,1980,624,0,0
763,400,0,0,0,0,0,0,0,0,0,-1,1987,624,0,0
770,400,0,0,0,0,0,0,0,0,0,-1,1994,624,0,0
777,400,0,0,0,0,0,0,0,0,0,-1,2001,624,0,0
784,400,0,0,0,0,0,0,0,0,0,-1,2008,624,0,0
791,400,0,0,0,0,0,0,0,0,0,-1,2015,624,0,0
798,400,0,0,0,0,0,0,0,0,0,-1,2022,624,0,0
805,400,0,0,0,0,0,0,0,0,0,-1,2029,624,0,0
812,400,0,0,0,0,0,0,0,0,0,-1,2036,624,0,0
-700,393,0,0,0,0,0,0,0,0,0,-1,524,631,0,0
-693,393,0,0,0,0,0,0,0,0,0,-1,531,631,0,0
-686,393,0,0,0,0,0,0,0,0,0,-1,538,631,0,0
-679,393,0,0,0,0,0,0,0,0,0,-1,545,631,0,0
-672,393,0,0,0,0,0,0,0,0,0,-1,552,631,0,0
-665,393,0,0,0,0,0,0,0,0,0,-1,559,631,0,0
-658,393,0,0,0,0,0,0,0,0,0,-1,566,631,0,0
-651,393,0,0,0,0,0,0,0,0,0,-1,573,631,0,0
-644,393,0,0,0,0,0,0,0,0,0,-1,580,631,0,0
-637,393,0,0,0,0,0,0,0,0,0,-1,587,631,0,0
-630,393,0,0,0,0,0,0,0,0,0,-1,594,631,0,0
-623,393,0,0,0,0,0,0,0,0,0,-1,601,631,0,0
-616,393,0,0,0,0,0,0,0,0,0,-1,608,631,0,0
-609,393,0,0,0,0,0,0,0,0,0,-1,615,631,0,0
-602,393,0,0,0,0,0,0,0,0,0,-1,622,631,0,0
-595,393,0,0,0,0,0,0,0,0,0,-1,629,631,0,0
-588,393,0,0,0,0,0,0,0,0,0,-1,636,631,0,0
-581,393,0,0,0,0,0,0,0,0,0,-1,643,631,0,0
-574,393,0,0,0,0,0,0,0,0,0,-1,650,631,0,0
-567,393,0,0,0,0,0,0,0,0,0,-1,657,631,0,0
-560,393,0,0,0,0,0,0,0,0,0,-1,664,631,0,0
-553,393,-2.35107,3.92633,0,0,0,0,0,0,0,-1,671,631,-2.35108,-3.92634
-546,393,-1.78778,2.4856,0,0,0,0,0,0,0,-1,678,631,-1.78778,-2.48557
-539,393,-5.2113,-2.20245,0,0,0,0,0,0,0,-1,685,631,-5.21128,2.20247
-532,393,-2.83643,-2.01624,0,0,0,0,0,0,0,-1,692,631,-2.83642,2.01626
-525,393,-5.9505,-0.952698,0,0,0,0,0,0,0,-1,699,631,-5.95053,0.95268
-518,393,-5.80219,-1.57739,0,0,0,0,0,0,0,-1,706,631,-5.80219,1.57738
-511,393,-6.15527,-2.09906,0,0,0,0,0,0,0,-1,713,631,-6.15526,2.09903
-504,393,-13.6063,-6.95947,0,0,0,0,0,0,0,-1,720,631,-13.6063,6.95946
-497,393,-16.6665,-10.3407,0,0,0,0,0,0,0,-1,727,631,-16.6665,10.3407
-490,393,-16.5975,-11.3253,0.00012601,0.00129937,-0.000107542,0.00130915,0.000116235,-1.48015,0.000836717,0.0273676,734,631,-16.5975,11.3253
-483,393,-16.593,-12.2949,-7.78851e-05,0.00107464,-0.000114117,0.00108583,-8.90756e-05,-1.47305,0.000755332,0.0198467,741,631,-16.593,12.2949
-476,393,-16.6506,-13.1395,-8.56471e-05,0.000877706,-0.000172311,0.000907599,-0.00011554,-1.39902,0.000647027,0.0170234,748,631,-16.6506,13.1395
-469,393,-16.7105,-14.0033,0.00014378,0.000655068,-0.000292539,0.000787925,1.09235e-05,-1.1445,0.000521681,0.0133906,755,631,-16.7105,14.0033
-462,393,-16.7711,-14.9443,0.00053159,0.00041794,-0.00045638,0.000934669,1.4861e-05,-0.723461,0.000618219,0.0160694,762,631,-16.7711,14.9443
-455,393,-16.8286,-15.851,0.00105827,0.000359231,-0.000739883,0.00152703,-0.000109534,-0.564737,0.00105643,0.0157776,769,631,-16.8285,15.851
-448,393,-16.8926,-16.7239,0.00177474,0.000429944,-0.00109817,0.00239001,-0.000185331,-0.510696,0.00165857,0.0144956,776,631,-16.8926,16.7239
-441,393,-16.9424,-17.5659,0.00261075,0.000627792,-0.00152646,0.00343946,-0.000200919,-0.497376,0.0023628,0.0134094,783,631,-16.9424,17.5659
-434,393,-16.9922,-18.4053,0.00363833,0.00109494,-0.00211913,0.00483805,-0.000104788,-0.515151,0.00326086,0.0128964,790,631,-16.9922,18.4054
-427,393,-16.9738,-19.3033,0.00477062,0.00180899,-0.0028587,0.00650928,7.03319e-05,-0.546425,0.00431627,0.0253054,797,631,-16.9738,19.3033
-420,393,-16.8938,-20.2871,0,0,0,0,0,0,0,-1,804,631,-16.8938,20.2871
-413,393,-15.0913,-18.3777,0,0,0,0,0,0,0,-1,811,631,-15.0913,18.3777
-406,393,-11.826,-12.7987,0,0,0,0,0,0,0,-1,818,631,-11.8261,12.7987
-399,393,-5.07343,-5.92365,0,0,0,0,0,0,0,-1,825,631,-5.07344,5.92364
-392,393,-2.08063,-3.02386,0,0,0,0,0,0,0,-1,832,631,-2.08063,3.02384
-385,393,-3.16931,-0.624756,0,0,0,0,0,0,0,-1,839,631,-3.16928,0.624764
-378,393,-7.33081,-0.872314,0,0,0,0,0,0,0,-1,846,631,-7.33081,0.872325
-371,393,-7.47858,-0.811096,0,0,0,0,0,0,0,-1,853,631,-7.47859,0.811075
-364,393,-7.64917,-0.662415,0,0,0,0,0,0,0,-1,860,631,-7.64917,0.662406
-357,393,-8.09686,-0.726013,0,0,0,0,0,0,0,-1,867,631,-8.09689,0.726029
-350,393,-8.38788,-0.511841,0,0,0,0,0,0,0,-1,874,631,-8.38785,0.511811
-343,393,0,0,0,0,0,0,0,0,0,-1,881,631,0,0
-336,393,0,0,0,0,0,0,0,0,0,-1,888,631,0,0
-329,393,0,0,0,0,0,0,0,0,0,-1,895,631,0,0
-322,393,0,0,0,0,0,0,0,0,0,-1,902,631,0,0
-315,393,0,0,0,0,0,0,0,0,0,-1,909,631,0,0
-308,393,0,0,0,0,0,0,0,0,0,-1,916,631,0,0
-301,393,0,0,0,0,0,0,0,0,0,-1,923,631,0,0
-294,393,0,0,0,0,0,0,0,0,0,-1,930,631,0,0
-287,393,0,0,0,0,0,0,0,0,0,-1,937,631,0,0
-280,393,0,0,0,0,0,0,0,0,0,-1,944,631,0,0
-273,393,0,0,0,0,0,0,0,0,0,-1,951,631,0,0
-266,393,0,0,0,0,0,0,0,0,0,-1,958,631,0,0
-259,393,0,0,0,0,0,0,0,0,0,-1,965,631,0,0
-252,393,0,0,0,0,0,0,0,0,0,-1,972,631,0,0
-245,393,0,0,0,0,0,0,0,0,0,-1,979,631,0,0
-238,393,0,0,0,0,0,0,0,0,0,-1,986,631,0,0
-231,393,0,0,0,0,0,0,0,0,0,-1,993,631,0,0
-224,393,0,0,0,0,0,0,0,0,0,-1,1000,631,0,0
-217,393,0,0,0,0,0,0,0,0,0,-1,1007,631,0,0
-210,393,0,0,0,0,0,0,0,0,0,-1,1014,631,0,0
-203,393,0,0,0,0,0,0,0,0,0,-1,1021,631,0,0
-196,393,0,0,0,0,0,0,0,0,0,-1,1028,631,0,0
-189,393,0,0,0,0,0,0,0,0,0,-1,1035,631,0,0
-182,393,0,0,0,0,0,0,0,0,0,-1,1042,631,0,0
-175,393,0,0,0,0,0,0,0,0,0,-1,1049,631,0,0
-168,393,0,0,0,0,0,0,0,0,0,-1,1056,631,0,0
-161,393,0,0,0,0,0,0,0,0,0,-1,1063,631,0,0
-154,393,0,0,0,0,0,0,0,0,0,-1,1070,631,0,0
-147,393,0,0,0,0,0,0,0,0,0,-1,1077,631,0,0
-140,393,0,0,0,0,0,0,0,0,0,-1,1084,631,0,0
-133,393,0,0,0,0,0,0,0,0,0,-1,1091,631,0,0
-126,393,0,0,0,0,0,0,0,0,0,-1,1098,631,0,0
-119,393,0,0,0,0,0,0,0,0,0,-1,1105,631,0,0
-112,393,0,0,0,0,0,0,0,0,0,-1,1112,631,0,0
-105,393,0,0,0,0,0,0,0,0,0,-1,1119,631,0,0
-98,393,0,0,0,0,0,0,0,0,0,-1,1126,631,0,0
-91,393,0,0,0,0,0,0,0,0,0,-1,1133,631,0,0
-84,393,0,0,0,0,0,0,0,0,0,-1,1140,631,0,0
-77,393,0,0,0,0,0,0,0,0,0,-1,1147,631,0,0
-70,393,0,0,0,0,0,0,0,0,0,-1,1154,631,0,0
-63,393,0,0,0,0,0,0,0,0,0,-1,1161,631,0,0
-56,393,0,0,0,0,0,0,0,0,0,-1,1168,631,0,0
-49,393,0,0,0,0,0,0,0,0,0,-1,1175,631,0,0
-42,393,0,0,0,0,0,0,0,0,0,-1,1182,631,0,0
-35,393,0,0,0,0,0,0,0,0,0,-1,1189,631,0,0
-28,393,0,0,0,0,0,0,0,0,0,-1,1196,631,0,0
-21,393,0,0,0,0,0,0,0,0,0,-1,1203,631,0,0
-14,393,0,0,0,0,0,0,0,0,0,-1,1210,631,0,0
-7,393,0,0,0,0,0,0,0,0,0,-1,1217,631,0,0
0,393,0,0,0,0,0,0,0,0,0,-1,1224,631,0,0
7,393,0,0,0,0,0,0,0,0,0,-1,1231,631,0,0
14,393,0,0,0,0,0,0,0,0,0,-1,1238,631,0,0
21,393,0,0,0,0,0,0,0,0,0,-1,1245,631,0,0
28,393,0,0,0,0,0,0,0,0,0,-1,1252,631,0,0
35,393,0,0,0,0,0,0,0,0,0,-1,1259,631,0,0
42,393,0,0,0,0,0,0,0,0,0,-1,1266,631,0,0
49,393,0,0,0,0,0,0,0,0,0,-1,1273,631,0,0
56,393,0,0,0,0,0,0,0,0,0,-1,1280,631,0,0
63,393,0,0,0,0,0,0,0,0,0,-1,1287,631,0,0
70,393,0,0,0,0,0,0,0,0,0,-1,1294,631,0,0
77,393,0,0,0,0,0,0,0,0,0,-1,1301,631,0,0
84,393,0,0,0,0,0,0,0,0,0,-1,1308,631,0,0
91,393,0,0,0,0,0,0,0,0,0,-1,1315,631,0,0
98,393,0,0,0,0,0,0,0,0,0,-1,1322,631,0,0
105,393,0,0,0,0,0,0,0,0,0,-1,1329,631,0,0
112,393,0,0,0,0,0,0,0,0,0,-1,1336,631,0,0
119,393,0,0,0,0,0,0,0,0,0,-1,1343,631,0,0
126,393,0,0,0,0,0,0,0,0,0,-1,1350,631,0,0
133,393,0,0,0,0,0,0,0,0,0,-1,1357,631,0,0
140,393,0,0,0,0,0,0,0,0,0,-1,1364,631,0,0
147,393,0,0,0,0,0,0,0,0,0,-1,1371,631,0,0
154,393,0,0,0,0,0,0,0,0,0,-1,1378,631,0,0
161,393,0,0,0,0,0,0,0,0,0,-1,1385,631,0,0
168,393,0,0,0,0,0,0,0,0,0,-1,1392,631,0,0
175,393,0,0,0,0,0,0,0,0,0,-1,1399,631,0,0
182,393,0,0,0,0,0,0,0,0,0,-1,1406,631,0,0
189,393,0,0,0,0,0,0,0,0,0,-1,1413,631,0,0
196,393,0,0,0,0,0,0,0,0,0,-1,1420,631,0,0
203,393,0,0,0,0,0,0,0,0,0,-1,1427,631,0,0
210,393,0,0,0,0,0,0,0,0,0,-1,1434,631,0,0
217,393,0,0,0,0,0,0,0,0,0,-1,1441,631,0,0
224,393,0,0,0,0,0,0,0,0,0,-1,1448,631,0,0
231,393,0,0,0,0,0,0,0,0,0,-1,1455,631,0,0
238,393,0,0,0,0,0,0,0,0,0,-1,1462,631,0,0
245,393,0,0,0,0,0,0,0,0,0,-1,1469,631,0,0
252,393,0,0,0,0,0,0,0,0,0,-1,1476,631,0,0
259,393,0,0,0,0,0,0,0,0,0,-1,1483,631,0,0
266,393,0,0,0,0,0,0,0,0,0,-1,1490,631,0,0
273,393,0,0,0,0,0,0,0,0,0,-1,1497,631,0,0
280,393,0,0,0,0,0,0,0,0,0,-1,1504,631,0,0
287,393,0,0,0,0,0,0,0,0,0,-1,1511,631,0,0
294,393,0,0,0,0,0,0,0,0,0,-1,1518,631,0,0
301,393,0,0,0,0,0,0,0,0,0,-1,1525,631,0,0
308,393,0,0,0,0,0,0,0,0,0,-1,1532,631,0,0
315,393,0,0,0,0,0,0,0,0,0,-1,1539,631,0,0
322,393,0,0,0,0,0,0,0,0,0,-1,1546,631,0,0
329,393,0,0,0,0,0,0,0,0,0,-1,1553,631,0,0
336,393,0,0,0,0,0,0,0,0,0,-1,1560,631,0,0
343,393,0,0,0,0,0,0,0,0,0,-1,1567,631,0,0
350,393,0,0,0,0,0,0,0,0,0,-1,1574,631,0,0
357,393,0,0,0,0,0,0,0,0,0,-1,1581,631,0,0
364,393,0,0,0,0,0,0,0,0,0,-1,1588,631,0,0
371,393,0,0,0,0,0,0,0,0,0,-1,1595,631,0,0
378,393,0,0,0,0,0,0,0,0,0,-1,1602,631,0,0
385,393,0,0,0,0,0,0,0,0,0,-1,1609,631,0,0
392,393,0,0,0,0,0,0,0,0,0,-1,1616,631,0,0
399,393,0,0,0,0,0,0,0,0,0,-1,1623,631,0,0
406,393,0,0,0,0,0,0,0,0,0,-1,1630,631,0,0
413,393,0,0,0,0,0,0,0,0,0,-1,1637,631,0,0
420,393,0,0,0,0,0,0,0,0,0,-1,1644,631,0,0
427,393,0,0,0,0,0,0,0,0,0,-1,1651,631,0,0
434,393,0,0,0,0,0,0,0,0,0,-1,1658,631,0,0
441,393,0,0,0,0,0,0,0,0,0,-1,1665,631,0,0
448,393,0,0,0,0,0,0,0,0,0,-1,1672,631,0,0
455,393,0,0,0,0,0,0,0,0,0,-1,1679,631,0,0
462,393,8.51099,1.89502,0,0,0,0,0,0,0,-1,1686,631,8.51103,-1.89504
469,393,9.39465,1.51703,0,0,0,0,0,0,0,-1,1693,631,9.39465,-1.51703
476,393,9.95569,1.185,0,0,0,0,0,0,0,-1,1700,631,9.95575,-1.18497
483,393,10.5267,0.887329,0,0,0,0,0,0,0,-1,1707,631,10.5267,-0.887321
490,393,10.9303,0.761414,0,0,0,0,0,0,0,-1,1714,631,10.9303,-0.761386
497,393,8.32153,1.88104,0,0,0,0,0,0,0,-1,1721,631,8.32148,-1.88103
504,393,9.46985,1.78711,0,0,0,0,0,0,0,-1,1728,631,9.46986,-1.78713
511,393,9.66565,-0.375977,0,0,0,0,0,0,0,-1,1735,631,9.66571,0.375949
518,393,7.01599,1.62482,0,0,0,0,0,0,0,-1,1742,631,7.01597,-1.62483
525,393,7.88245,-1.13422,0,0,0,0,0,0,0,-1,1749,631,7.88246,1.13423
532,393,7.06335,-1.18103,0,0,0,0,0,0,0,-1,1756,631,7.06332,1.18101
539,393,9.91626,-2.46301,0,0,0,0,0,0,0,-1,1763,631,9.91625,2.46302
546,393,16.4094,-8.04651,0,0,0,0,0,0,0,-1,1770,631,16.4094,8.04649
553,393,31.5533,-18.898,0,0,0,0,0,0,0,-1,1777,631,31.5533,18.898
560,393,31.8696,-17.7843,0.00329833,0.00141223,0.000842428,0.00361981,0.00109075,0.36455,0.00214418,0.0445818,1784,631,31.8696,17.7843
567,393,31.8586,-16.87,0.00228816,0.00109001,0.000500289,0.00246958,0.000908581,0.347891,0.0014423,0.0170447,1791,631,31.8586,16.87
574,393,31.8318,-16.0118,0.00173762,0.00113122,0.000494844,0.00201477,0.000854077,0.510542,0.00116771,0.0164937,1798,631,31.8318,16.0118
581,393,31.7211,-15.0884,0.00145859,0.00131451,0.000671322,0.00206173,0.000711376,0.731946,0.00120925,0.0184061,1805,631,31.7211,15.0885
588,393,31.6589,-14.1407,0.0015164,0.00170517,0.00105421,0.00266922,0.000552356,0.830045,0.00162692,0.0214149,1812,631,31.6589,14.1407
595,393,31.6481,-13.3145,0.00193702,0.00224832,0.00162708,0.00372718,0.000458162,0.833084,0.00234702,0.0181827,1819,631,31.648,13.3145
602,393,31.5988,-12.4455,0.00262252,0.00296046,0.0023402,0.00513778,0.000445201,0.821437,0.00328685,0.019352,1826,631,31.5988,12.4455
609,393,31.5094,-11.5574,0.00352945,0.0038411,0.00317186,0.00686097,0.000509591,0.809942,0.00441393,0.017114,1833,631,31.5094,11.5574
616,393,31.4647,-10.6641,0.00468986,0.0049335,0.0041148,0.00892828,0.000695075,0.800197,0.00573455,0.0161548,1840,631,31.4647,10.664
623,393,31.47,-9.63715,0.00603215,0.0061793,0.00516107,0.0112673,0.000944125,0.792526,0.00721745,0.0352363,1847,631,31.47,9.63715
630,393,31.5088,-8.48743,0,0,0,0,0,0,0,-1,1854,631,31.5088,8.48744
637,393,11.4626,0.608887,0,0,0,0,0,0,0,-1,1861,631,11.4627,-0.608904
644,393,8.97583,1.30585,0,0,0,0,0,0,0,-1,1868,631,8.97586,-1.30584
651,393,11.348,0.53302,0,0,0,0,0,0,0,-1,1875,631,11.348,-0.53305
658,393,9.21338,1.50836,0,0,0,0,0,0,0,-1,1882,631,9.21338,-1.50834
665,393,6.1001,2.32129,0,0,0,0,0,0,0,-1,1889,631,6.10012,-2.3213
672,393,7.14575,2.43225,0,0,0,0,0,0,0,-1,1896,631,7.14572,-2.43222
679,393,0,0,0,0,0,0,0,0,0,-1,1903,631,0,0
686,393,0,0,0,0,0,0,0,0,0,-1,1910,631,0,0
693,393,0,0,0,0,0,0,0,0,0,-1,1917,631,0,0
700,393,0,0,0,0,0,0,0,0,0,-1,1924,631,0,0
707,393,0,0,0,0,0,0,0,0,0,-1,1931,631,0,0
714,393,0,0,0,0,0,0,0,0,0,-1,1938,631,0,0
721,393,0,0,0,0,0,0,0,0,0,-1,1945,631,0,0
728,393,0,0,0,0,0,0,0,0,0,-1,1952,631,0,0
735,393,0,0,0,0,0,0,0,0,0,-1,1959,631,0,0
742,393,0,0,0,0,0,0,0,0,0,-1,1966,631,0,0
749,393,0,0,0,0,0,0,0,0,0,-1,1973,631,0,0
756,393,0,0,0,0,0,0,0,0,0,-1,1980,631,0,0
763,393,0,0,0,0,0,0,0,0,0,-1,1987,631,0,0
770,393,0,0,0,0,0,0,0,0,0,-1,1994,631,0,0
777,393,0,0,0,0,0,0,0,0,0,-1,2001,631,0,0
784,393,0,0,0,0,0,0,0,0,0,-1,2008,631,0,0
791,393,0,0,0,0,0,0,0,0,0,-1,2015,631,0,0
798,393,0,0,0,0,0,0,0,0,0,-1,2022,631,0,0
805,393,0,0,0,0,0,0,0,0,0,-1,2029,631,0,0
812,393,0,0,0,0,0,0,0,0,0,-1,2036,631,0,0
-700,386,0,0,0,0,0,0,0,0,0,-1,524,638,0,0
-693,386,0,0,0,0,0,0,0,0,0,-1,531,638,0,0
-686,386,0,0,0,0,0,0,0,0,0,-1,538,638,0,0
-679,386,0,0,0,0,0,0,0,0,0,-1,545,638,0,0
-672,386,0,0,0,0,0,0,0,0,0,-1,552,638,0,0
-665,386,0,0,0,0,0,0,0,0,0,-1,559,638,0,0
-658,386,0,0,0,0,0,0,0,0,0,-1,566,638,0,0
-651,386,0,0,0,0,0,0,0,0,0,-1,573,638,0,0
-644,386,0,0,0,0,0,0,0,0,0,-1,580,638,0,0
-637,386,0,0,0,0,0,0,0,0,0,-1,587,638,0,0
-630,386,0,0,0,0,0,0,0,0,0,-1,594,638,0,0
-623,386,0,0,0,0,0,0,0,0,0,-1,601,638,0,0
-616,386,0,0,0,0,0,0,0,0,0,-1,608,638,0,0
-609,386,0,0,0,0,0,0,0,0,0,-1,615,638,0,0
-602,386,0,0,0,0,0,0,0,0,0,-1,622,638,0,0
-595,386,0,0,0,0,0,0,0,0,0,-1,629,638,0,0
-588,386,0,0,0,0,0,0,0,0,0,-1,636,638,0,0
-581,386,0,0,0,0,0,0,0,0,0,-1,643,638,0,0
-574,386,0,0,0,0,0,0,0,0,0,-1,650,638,0,0
-567,386,0,0,0,0,0,0,0,0,0,-1,657,638,0,0
-560,386,-3.97229,-5.13898,0,0,0,0,0,0,0,-1,664,638,-3.97232,5.13897
-553,386,-4.94244,-5.54309,0,0,0,0,0,0,0,-1,671,638,-4.94242,5.5431
-546,386,-1.78668,1.72827,0,0,0,0,0,0,0,-1,678,638,-1.78668,-1.72829
-539,386,-0.879456,-2.90009,0,0,0,0,0,0,0,-1,685,638,-0.879442,2.90008
-532,386,-5.4884,1.73328,0,0,0,0,0,0,0,-1,692,638,-5.4884,-1.73325
-525,386,-6.64148,-1.50604,0,0,0,0,0,0,0,-1,699,638,-6.64149,1.50603
-518,386,-11.1217,-4.10382,0,0,0,0,0,0,0,-1,706,638,-11.1217,4.1038
-511,386,-13.0612,-5.05151,0,0,0,0,0,0,0,-1,713,638,-13.0612,5.05149
-504,386,-17.4875,-9.336,0,0,0,0,0,0,0,-1,720,638,-17.4876,9.336
-497,386,-17.4199,-10.4771,0,0,0,0,0,0,0,-1,727,638,-17.4199,10.477
-490,386,-17.4516,-11.3564,0.000695611,0.000756554,-0.000344146,0.00107157,0.00038059,-0.829555,0.000627266,0.0143732,734,638,-17.4516,11.3565
-483,386,-17.4743,-12.2584,0.000452175,0.000648977,-0.000320599,0.000885937,0.000215216,-0.934299,0.000533556,0.0166645,741,638,-17.4743,12.2584
-476,386,-17.5436,-13.1416,0.000404901,0.000535221,-0.000361273,0.000837162,0.000102959,-0.87462,0.000527151,0.0159846,748,638,-17.5436,13.1416
-469,386,-17.6008,-13.9915,0.000572092,0.000387545,-0.000464519,0.000953414,6.22353e-06,-0.687353,0.000633545,0.0124579,755,638,-17.6008,13.9915
-462,386,-17.6478,-14.9015,0.000897634,0.000220832,-0.000623362,0.00126853,-0.00015006,-0.536724,0.000899884,0.0116406,762,638,-17.6478,14.9015
-455,386,-17.7018,-15.7995,0.001394,0.000225366,-0.00091973,0.00189933,-0.000279964,-0.502407,0.00136912,0.0135099,769,638,-17.7018,15.7995
-448,386,-17.7617,-16.6615,0.0021042,0.000338073,-0.00130484,0.0027967,-0.000354433,-0.48792,0.00199314,0.0139964,776,638,-17.7617,16.6615
-441,386,-17.8273,-17.5211,0.00296561,0.00058292,-0.00179709,0.00393038,-0.00038185,-0.492693,0.00275636,0.0144613,783,638,-17.8273,17.521
-434,386,-17.8381,-18.4369,0.00413417,0.00116271,-0.00254057,0.00559155,-0.000294671,-0.520813,0.00382971,0.0326881,790,638,-17.8381,18.4369
-427,386,-17.7777,-19.433,0,0,0,0,0,0,0,-1,797,638,-17.7777,19.4331
-420,386,-14.5338,-16.0451,0,0,0,0,0,0,0,-1,804,638,-14.5338,16.0451
-413,386,-5.45691,-5.35785,0,0,0,0,0,0,0,-1,811,638,-5.45691,5.35783
-406,386,-4.51135,-4.10999,0,0,0,0,0,0,0,-1,818,638,-4.51135,4.10996
-399,386,-3.57117,-3.42126,0,0,0,0,0,0,0,-1,825,638,-3.57116,3.42129
-392,386,-4.00977,0.403625,0,0,0,0,0,0,0,-1,832,638,-4.0098,-0.403616
-385,386,-3.2406,-0.118469,0,0,0,0,0,0,0,-1,839,638,-3.24058,0.118485
-378,386,-2.55243,-1.22748,0,0,0,0,0,0,0,-1,846,638,-2.55243,1.22748
-371,386,-7.95807,-0.330261,0,0,0,0,0,0,0,-1,853,638,-7.95806,0.330284
-364,386,-8.90637,-0.665955,0,0,0,0,0,0,0,-1,860,638,-8.90635,0.665951
-357,386,-9.10364,-0.388733,0,0,0,0,0,0,0,-1,867,638,-9.10364,0.388744
-350,386,0,0,0,0,0,0,0,0,0,-1,874,638,0,0
-343,386,0,0,0,0,0,0,0,0,0,-1,881,638,0,0
-336,386,0,0,0,0,0,0,0,0,0,-1,888,638,0,0
-329,386,0,0,0,0,0,0,0,0,0,-1,895,638,0,0
-322,386,0,0,0,0,0,0,0,0,0,-1,902,638,0,0
-315,386,0,0,0,0,0,0,0,0,0,-1,909,638,0,0
-308,386,0,0,0,0,0,0,0,0,0,-1,916,638,0,0
-301,386,0,0,0,0,0,0,0,0,0,-1,923,638,0,0
-294,386,0,0,0,0,0,0,0,0,0,-1,930,638,0,0
-287,386,0,0,0,0,0,0,0,0,0,-1,937,638,0,0
-280,386,0,0,0,0,0,0,0,0,0,-1,944,638,0,0
-273,386,0,0,0,0,0,0,0,0,0,-1,951,638,0,0
-266,386,0,0,0,0,0,0,0,0,0,-1,958,638,0,0
-259,386,0,0,0,0,0,0,0,0,0,-1,965,638,0,0
-252,386,0,0,0,0,0,0,0,0,0,-1,972,638,0,0
-245,386,0,0,0,0,0,0,0,0,0,-1,979,638,0,0
-238,386,0,0,0,0,0,0,0,0,0,-1,986,638,0,0
-231,386,0,0,0,0,0,0,0,0,0,-1,993,638,0,0
-224,386,0,0,0,0,0,0,0,0,0,-1,1000,638,0,0
-217,386,0,0,0,0,0,0,0,0,0,-1,1007,638,0,0
-210,386,0,0,0,0,0,0,0,0,0,-1,1014,638,0,0
-203,386,0,0,0,0,0,0,0,0,0,-1,1021,638,0,0
-196,386,0,0,0,0,0,0,0,0,0,-1,1028,638,0,0
-189,386,0,0,0,0,0,0,0,0,0,-1,1035,638,0,0
-182,386,0,0,0,0,0,0,0,0,0,-1,1042,638,0,0
-175,386,0,0,0,0,0,0,0,0,0,-1,1049,638,0,0
-168,386,0,0,0,0,0,0,0,0,0,-1,1056,638,0,0
-161,386,0,0,0,0,0,0,0,0,0,-1,1063,638,0,0
-154,386,0,0,0,0,0,0,0,0,0,-1,1070,638,0,0
-147,386,0,0,0,0,0,0,0,0,0,-1,1077,638,0,0
-140,386,0,0,0,0,0,0,0,0,0,-1,1084,638,0,0
-133,386,0,0,0,0,0,0,0,0,0,-1,1091,638,0,0
-126,386,0,0,0,0,0,0,0,0,0,-1,1098,638,0,0
-119,386,0,0,0,0,0,0,0,0,0,-1,1105,638,0,0
-112,386,0,0,0,0,0,0,0,0,0,-1,1112,638,0,0
-105,386,0,0,0,0,0,0,0,0,0,-1,1119,638,0,0
-98,386,0,0,0,0,0,0,0,0,0,-1,1126,638,0,0
-91,386,0,0,0,0,0,0,0,0,0,-1,1133,638,0,0
-84,386,0,0,0,0,0,0,0,0,0,-1,1140,638,0,0
-77,386,0,0,0,0,0,0,0,0,0,-1,1147,638,0,0
-70,386,0,0,0,0,0,0,0,0,0,-1,1154,638,0,0
-63,386,0,0,0,0,0,0,0,0,0,-1,1161,638,0,0
-56,386,0,0,0,0,0,0,0,0,0,-1,1168,638,0,0
-49,386,0,0,0,0,0,0,0,0,0,-1,1175,638,0,0
-42,386,0,0,0,0,0,0,0,0,0,-1,1182,638,0,0
-35,386,0,0,0,0,0,0,0,0,0,-1,1189,638,0,0
-28,386,0,0,0,0,0,0,0,0,0,-1,1196,638,0,0
-21,386,0,0,0,0,0,0,0,0,0,-1,1203,638,0,0
-14,386,0,0,0,0,0,0,0,0,0,-1,1210,638,0,0
-7,386,0,0,0,0,0,0,0,0,0,-1,1217,638,0,0
0,386,0,0,0,0,0,0,0,0,0,-1,1224,638,0,0
7,386,0,0,0,0,0,0,0,0,0,-1,1231,638,0,0
14,386,0,0,0,0,0,0,0,0,0,-1,1238,638,0,0
21,386,0,0,0,0,0,0,0,0,0,-1,1245,638,0,0
28,386,0,0,0,0,0,0,0,0,0,-1,1252,638,0,0
35,386,0,0,0,0,0,0,0,0,0,-1,1259,638,0,0
42,386,0,0,0,0,0,0,0,0,0,-1,1266,638,0,0
49,386,0,0,0,0,0,0,0,0,0,-1,1273,638,0,0
56,386,0,0,0,0,0,0,0,0,0,-1,1280,638,0,0
63,386,0,0,0,0,0,0,0,0,0,-1,1287,638,0,0
70,386,0,0,0,0,0,0,0,0,0,-1,1294,638,0,0
77,386,0,0,0,0,0,0,0,0,0,-1,1301,638,0,0
84,386,0,0,0,0,0,0,0,0,0,-1,1308,638,0,0
91,386,0,0,0,0,0,0,0,0,0,-1,1315,638,0,0
98,386,0,0,0,0,0,0,0,0,0,-1,1322,638,0,0
105,386,0,0,0,0,0,0,0,0,0,-1,1329,638,0,0
112,386,0,0,0,0,0,0,0,0,0,-1,1336,638,0,0
119,386,0,0,0,0,0,0,0,0,0,-1,1343,638,0,0
126,386,0,0,0,0,0,0,0,0,0,-1,1350,638,0,0
133,386,0,0,0,0,0,0,0,0,0,-1,1357,638,0,0
140,386,0,0,0,0,0,0,0,0,0,-1,1364,638,0,0
147,386,0,0,0,0,0,0,0,0,0,-1,1371,638,0,0
154,386,0,0,0,0,0,0,0,0,0,-1,1378,638,0,0
161,386,0,0,0,0,0,0,0,0,0,-1,1385,638,0,0
168,386,0,0,0,0,0,0,0,0,0,-1,1392,638,0,0
175,386,0,0,0,0,0,0,0,0,0,-1,1399,638,0,0
182,386,0,0,0,0,0,0,0,0,0,-1,1406,638,0,0
189,386,0,0,0,0,0,0,0,0,0,-1,1413,638,0,0
196,386,0,0,0,0,0,0,0,0,0,-1,1420,638,0,0
203,386,0,0,0,0,0,0,0,0,0,-1,1427,638,0,0
210,386,0,0,0,0,0,0,0,0,0,-1,1434,638,0,0
217,386,0,0,0,0,0,0,0,0,0,-1,1441,638,0,0
224,386,0,0,0,0,0,0,0,0,0,-1,1448,638,0,0
231,386,0,0,0,0,0,0,0,0,0,-1,1455,638,0,0
238,386,0,0,0,0,0,0,0,0,0,-1,1462,638,0,0
245,386,0,0,0,0,0,0,0,0,0,-1,1469,638,0,0
252,386,0,0,0,0,0,0,0,0,0,-1,1476,638,0,0
259,386,0,0,0,0,0,0,0,0,0,-1,1483,638,0,0
266,386,0,0,0,0,0,0,0,0,0,-1,1490,638,0,0
273,386,0,0,0,0,0,0,0,0,0,-1,1497,638,0,0
280,386,0,0,0,0,0,0,0,0,0,-1,1504,638,0,0
287,386,0,0,0,0,0,0,0,0,0,-1,1511,638,0,0
294,386,0,0,0,0,0,0,0,0,0,-1,1518,638,0,0
301,386,0,0,0,0,0,0,0,0,0,-1,1525,638,0,0
308,386,0,0,0,0,0,0,0,0,0,-1,1532,638,0,0
315,386,0,0,0,0,0,0,0,0,0,-1,1539,638,0,0
322,386,0,0,0,0,0,0,0,0,0,-1,1546,638,0,0
329,386,0,0,0,0,0,0,0,0,0,-1,1553,638,0,0
336,386,0,0,0,0,0,0,0,0,0,-1,1560,638,0,0
343,386,0,0,0,0,0,0,0,0,0,-1,1567,638,0,0
350,386,0,0,0,0,0,0,0,0,0,-1,1574,638,0,0
357,386,0,0,0,0,0,0,0,0,0,-1,1581,638,0,0
364,386,0,0,0,0,0,0,0,0,0,-1,1588,638,0,0
371,386,0,0,0,0,0,0,0,0,0,-1,1595,638,0,0
378,386,0,0,0,0,0,0,0,0,0,-1,1602,638,0,0
385,386,0,0,0,0,0,0,0,0,0,-1,1609,638,0,0
392,386,0,0,0,0,0,0,0,0,0,-1,1616,638,0,0
399,386,0,0,0,0,0,0,0,0,0,-1,1623,638,0,0
406,386,0,0,0,0,0,0,0,0,0,-1,1630,638,0,0
413,386,0,0,0,0,0,0,0,0,0,-1,1637,638,0,0
420,386,0,0,0,0,0,0,0,0,0,-1,1644,638,0,0
427,386,0,0,0,0,0,0,0,0,0,-1,1651,638,0,0
434,386,0,0,0,0,0,0,0,0,0,-1,1658,638,0,0
441,386,0,0,0,0,0,0,0,0,0,-1,1665,638,0,0
448,386,0,0,0,0,0,0,0,0,0,-1,1672,638,0,0
455,386,0,0,0,0,0,0,0,0,0,-1,1679,638,0,0
462,386,0,0,0,0,0,0,0,0,0,-1,1686,638,0,0
469,386,9.84692,1.55804,0,0,0,0,0,0,0,-1,1693,638,9.84691,-1.55807
476,386,10.6145,0.986511,0,0,0,0,0,0,0,-1,1700,638,10.6145,-0.986529
483,386,11.4113,0.732971,0,0,0,0,0,0,0,-1,1707,638,11.4112,-0.732958
490,386,7.79785,1.79572,0,0,0,0,0,0,0,-1,1714,638,7.79788,-1.7957
497,386,8.96362,1.77081,0,0,0,0,0,0,0,-1,1721,638,8.96357,-1.77081
504,386,10.0555,1.69427,0,0,0,0,0,0,0,-1,1728,638,10.0555,-1.69426
511,386,11.2172,1.534,0,0,0,0,0,0,0,-1,1735,638,11.2172,-1.53398
518,386,7.41553,1.75238,0,0,0,0,0,0,0,-1,1742,638,7.41547,-1.75238
525,386,8.82422,-1.1449,0,0,0,0,0,0,0,-1,1749,638,8.82426,1.14492
532,386,10.6432,0.617371,0,0,0,0,0,0,0,-1,1756,638,10.6432,-0.617359
539,386,9.62061,-0.393616,0,0,0,0,0,0,0,-1,1763,638,9.62059,0.393634
546,386,10.7963,-2.854,0,0,0,0,0,0,0,-1,1770,638,10.7962,2.854
553,386,16.9939,-7.27942,0,0,0,0,0,0,0,-1,1777,638,16.9939,7.27944
560,386,32.6755,-17.8586,0,0,0,0,0,0,0,-1,1784,638,32.6755,17.8586
567,386,32.6842,-16.8261,0,0,0,0,0,0,0,-1,1791,638,32.6842,16.8261
574,386,32.6957,-15.9211,0.00156904,0.00115867,0.000358663,0.00177706,0.000950648,0.525581,0.00102682,0.015697,1798,638,32.6957,15.9211
581,386,32.6147,-15.0898,0.00114677,0.00125228,0.000450933,0.00165353,0.000745518,0.843625,0.000956203,0.0161295,1805,638,32.6147,15.0898
588,386,32.5935,-14.1896,0.00112365,0.00151612,0.000755094,0.00210006,0.000539711,0.912528,0.0012593,0.0144529,1812,638,32.5936,14.1897
595,386,32.5267,-13.2922,0.00148562,0.00194198,0.00123829,0.00297293,0.000454662,0.876511,0.00184913,0.0164407,1819,638,32.5267,13.2922
602,386,32.452,-12.4124,0.0021002,0.00251166,0.00183834,0.00415575,0.000456108,0.841122,0.00263167,0.0177689,1826,638,32.4521,12.4124
609,386,32.4323,-11.5287,0.00287937,0.00321492,0.00250112,0.00555388,0.000540411,0.818888,0.00353624,0.0160079,1833,638,32.4322,11.5287
616,386,32.3949,-10.6028,0.00385365,0.00408778,0.00322362,0.00719646,0.000744976,0.803548,0.0045696,0.0130971,1840,638,32.3949,10.6028
623,386,32.324,-9.6933,0.00498781,0.00505003,0.00401349,0.00903252,0.00100531,0.789274,0.00571612,0.0106785,1847,638,32.324,9.69332
630,386,32.4001,-8.72351,0.00614177,0.00606175,0.00471939,0.0108213,0.0013822,0.781159,0.00680046,0.0378877,1854,638,32.4002,8.72352
637,386,32.5715,-7.74274,0,0,0,0,0,0,0,-1,1861,638,32.5715,7.74274
644,386,11.6521,0.723328,0,0,0,0,0,0,0,-1,1868,638,11.6521,-0.723355
651,386,9.3866,1.31097,0,0,0,0,0,0,0,-1,1875,638,9.3866,-1.31095
658,386,12.0731,-0.00415039,0,0,0,0,0,0,0,-1,1882,638,12.0731,0.00412803
665,386,6.33167,1.78601,0,0,0,0,0,0,0,-1,1889,638,6.33171,-1.78601
672,386,7.23352,2.14435,0,0,0,0,0,0,0,-1,1896,638,7.23353,-2.14433
679,386,8.07764,2.57104,0,0,0,0,0,0,0,-1,1903,638,8.07758,-2.57103
686,386,0,0,0,0,0,0,0,0,0,-1,1910,638,0,0
693,386,0,0,0,0,0,0,0,0,0,-1,1917,638,0,0
700,386,0,0,0,0,0,0,0,0,0,-1,1924,638,0,0
707,386,0,0,0,0,0,0,0,0,0,-1,1931,638,0,0
714,386,0,0,0,0,0,0,0,0,0,-1,1938,638,0,0
721,386,0,0,0,0,0,0,0,0,0,-1,1945,638,0,0
728,386,0,0,0,0,0,0,0,0,0,-1,1952,638,0,0
735,386,0,0,0,0,0,0,0,0,0,-1,1959,638,0,0
742,386,0,0,0,0,0,0,0,0,0,-1,1966,638,0,0
749,386,0,0,0,0,0,0,0,0,0,-1,1973,638,0,0
756,386,0,0,0,0,0,0,0,0,0,-1,1980,638,0,0
763,386,0,0,0,0,0,0,0,0,0,-1,1987,638,0,0
770,386,0,0,0,0,0,0,0,0,0,-1,1994,638,0,0
777,386,0,0,0,0,0,0,0,0,0,-1,2001,638,0,0
784,386,0,0,0,0,0,0,0,0,0,-1,2008,638,0,0
791,386,0,0,0,0,0,0,0,0,0,-1,2015,638,0,0
798,386,0,0,0,0,0,0,0,0,0,-1,2022,638,0,0
805,386,0,0,0,0,0,0,0,0,0,-1,2029,638,0,0
812,386,0,0,0,0,0,0,0,0,0,-1,2036,638,0,0
-700,379,0,0,0,0,0,0,0,0,0,-1,524,645,0,0
-693,379,0,0,0,0,0,0,0,0,0,-1,531,645,0,0
-686,379,0,0,0,0,0,0,0,0,0,-1,538,645,0,0
-679,379,0,0,0,0,0,0,0,0,0,-1,545,645,0,0
-672,379,0,0,0,0,0,0,0,0,0,-1,552,645,0,0
-665,379,0,0,0,0,0,0,0,0,0,-1,559,645,0,0
-658,379,0,0,0,0,0,0,0,0,0,-1,566,645,0,0
-651,379,0,0,0,0,0,0,0,0,0,-1,573,645,0,0
-644,379,0,0,0,0,0,0,0,0,0,-1,580,645,0,0
-637,379,0,0,0,0,0,0,0,0,0,-1,587,645,0,0
-630,379,0,0,0,0,0,0,0,0,0,-1,594,645,0,0
-623,379,0,0,0,0,0,0,0,0,0,-1,601,645,0,0
-616,379,0,0,0,0,0,0,0,0,0,-1,608,645,0,0
-609,379,0,0,0,0,0,0,0,0,0,-1,615,645,0,0
-602,379,0,0,0,0,0,0,0,0,0,-1,622,645,0,0
-595,379,0,0,0,0,0,0,0,0,0,-1,629,645,0,0
-588,379,0,0,0,0,0,0,0,0,0,-1,636,645,0,0
-581,379,0,0,0,0,0,0,0,0,0,-1,643,645,0,0
-574,379,0,0,0,0,0,0,0,0,0,-1,650,645,0,0
-567,379,-8.78058,0.59668,0,0,0,0,0,0,0,-1,657,645,-8.7806,-0.596692
-560,379,-9.53485,-0.211304,0,0,0,0,0,0,0,-1,664,645,-9.53487,0.211282
-553,379,-5.17108,-4.53119,0,0,0,0,0,0,0,-1,671,645,-5.17106,4.53117
-546,379,-6.23053,-4.92102,0,0,0,0,0,0,0,-1,678,645,-6.23054,4.92105
-539,379,-0.71698,-2.19427,0,0,0,0,0,0,0,-1,685,645,-0.716959,2.19427
-532,379,-7.69611,0.217224,0,0,0,0,0,0,0,-1,692,645,-7.69614,-0.217204
-525,379,-7.09833,-1.13043,0,0,0,0,0,0,0,-1,699,645,-7.0983,1.13041
-518,379,-13.126,-5.33893,0,0,0,0,0,0,0,-1,706,645,-13.126,5.33895
-511,379,-18.1384,-8.70789,0,0,0,0,0,0,0,-1,713,645,-18.1384,8.70786
-504,379,-18.1968,-9.54279,0.00199774,0.000170536,-0.000763912,0.00227503,-0.000106757,-0.3482,0.0015535,0.0361189,720,645,-18.1968,9.54277
-497,379,-18.2891,-10.4103,0.00142458,0.000379127,-0.000602952,0.00169985,0.00010386,-0.428273,0.00110025,0.0158409,727,645,-18.2891,10.4103
-490,379,-18.32,-11.3068,0.00102536,0.000399247,-0.000475812,0.00128187,0.000142741,-0.494429,0.000811195,0.0110018,734,645,-18.32,11.3068
-483,379,-18.3862,-12.2006,0.000767773,0.000349897,-0.000433563,0.00104012,7.75542e-05,-0.560863,0.00066906,0.0124318,741,645,-18.3862,12.2006
-476,379,-18.423,-13.0685,0.00069476,0.000281583,-0.000464765,0.000996783,-2.04397e-05,-0.576262,0.000671439,0.0133255,748,645,-18.423,13.0685
-469,379,-18.4799,-13.9283,0.000832316,0.000186763,-0.000577252,0.00117091,-0.000151827,-0.530474,0.000835821,0.0134101,755,645,-18.4798,13.9284
-462,379,-18.5482,-14.8109,0.00113534,7.90266e-05,-0.000758412,0.00153138,-0.000317013,-0.481246,0.00114136,0.00990231,762,645,-18.5482,14.8109
-455,379,-18.5903,-15.6851,0.00164334,0.000124012,-0.00108768,0.00221037,-0.000443022,-0.480563,0.00164131,0.0103703,769,645,-18.5902,15.6851
-448,379,-18.618,-16.5479,0.00239515,0.000268502,-0.00152556,0.00319139,-0.000527742,-0.481041,0.00232357,0.0132186,776,645,-18.618,16.5479
-441,379,-18.649,-17.4813,0.00333831,0.000556249,-0.00211472,0.00447849,-0.00058393,-0.494484,0.00319812,0.0241143,783,645,-18.649,17.4813
-434,379,-18.6054,-18.5849,0,0,0,0,0,0,0,-1,790,645,-18.6054,18.5849
-427,379,-4.16113,-4.13452,0,0,0,0,0,0,0,-1,797,645,-4.16116,4.1345
-420,379,-4.63953,-3.46869,0,0,0,0,0,0,0,-1,804,645,-4.63953,3.46872
-413,379,-4.62543,-3.7912,0,0,0,0,0,0,0,-1,811,645,-4.62541,3.79123
-406,379,-4.64063,-4.38489,0,0,0,0,0,0,0,-1,818,645,-4.64065,4.3849
-399,379,-2.93536,-1.40118,0,0,0,0,0,0,0,-1,825,645,-2.93534,1.40119
-392,379,-4.16711,-0.466003,0,0,0,0,0,0,0,-1,832,645,-4.16714,0.465992
-385,379,-3.51862,0.441101,0,0,0,0,0,0,0,-1,839,645,-3.51859,-0.441072
-378,379,-5.3504,0.212219,0,0,0,0,0,0,0,-1,846,645,-5.35038,-0.212241
-371,379,-4.32092,-0.186707,0,0,0,0,0,0,0,-1,853,645,-4.3209,0.186707
-364,379,-3.40887,-0.549805,0,0,0,0,0,0,0,-1,860,645,-3.4089,0.549802
-357,379,0,0,0,0,0,0,0,0,0,-1,867,645,0,0
-350,379,0,0,0,0,0,0,0,0,0,-1,874,645,0,0
-343,379,0,0,0,0,0,0,0,0,0,-1,881,645,0,0
-336,379,0,0,0,0,0,0,0,0,0,-1,888,645,0,0
-329,379,0,0,0,0,0,0,0,0,0,-1,895,645,0,0
-322,379,0,0,0,0,0,0,0,0,0,-1,902,645,0,0
-315,379,0,0,0,0,0,0,0,0,0,-1,909,645,0,0
-308,379,0,0,0,0,0,0,0,0,0,-1,916,645,0,0
-301,379,0,0,0,0,0,0,0,0,0,-1,923,645,0,0
-294,379,0,0,0,0,0,0,0,0,0,-1,930,645,0,0
-287,379,0,0,0,0,0,0,0,0,0,-1,937,645,0,0
-280,379,0,0,0,0,0,0,0,0,0,-1,944,645,0,0
-273,379,0,0,0,0,0,0,0,0,0,-1,951,645,0,0
-266,379,0,0,0,0,0,0,0,0,0,-1,958,645,0,0
-259,379,0,0,0,0,0,0,0,0,0,-1,965,645,0,0
-252,379,0,0,0,0,0,0,0,0,0,-1,972,645,0,0
-245,379,0,0,0,0,0,0,0,0,0,-1,979,645,0,0
-238,379,0,0,0,0,0,0,0,0,0,-1,986,645,0,0
-231,379,0,0,0,0,0,0,0,0,0,-1,993,645,0,0
-224,379,0,0,0,0,0,0,0,0,0,-1,1000,645,0,0
-217,379,0,0,0,0,0,0,0,0,0,-1,1007,645,0,0
-210,379,0,0,0,0,0,0,0,0,0,-1,1014,645,0,0
-203,379,0,0,0,0,0,0,0,0,0,-1,1021,645,0,0
-196,379,0,0,0,0,0,0,0,0,0,-1,1028,645,0,0
-189,379,0,0,0,0,0,0,0,0,0,-1,1035,645,0,0
-182,379,0,0,0,0,0,0,0,0,0,-1,1042,645,0,0
-175,379,0,0,0,0,0,0,0,0,0,-1,1049,645,0,0
-168,379,0,0,0,0,0,0,0,0,0,-1,1056,645,0,0
-161,379,0,0,0,0,0,0,0,0,0,-1,1063,645,0,0
-154,379,0,0,0,0,0,0,0,0,0,-1,1070,645,0,0
-147,379,0,0,0,0,0,0,0,0,0,-1,1077,645,0,0
-140,379,0,0,0,0,0,0,0,0,0,-1,1084,645,0,0
-133,379,0,0,0,0,0,0,0,0,0,-1,1091,645,0,0
-126,379,0,0,0,0,0,0,0,0,0,-1,1098,645,0,0
-119,379,0,0,0,0,0,0,0,0,0,-1,1105,645,0,0
-112,379,0,0,0,0,0,0,0,0,0,-1,1112,645,0,0
-105,379,0,0,0,0,0,0,0,0,0,-1,1119,645,0,0
-98,379,0,0,0,0,0,0,0,0,0,-1,1126,645,0,0
-91,379,0,0,0,0,0,0,0,0,0,-1,1133,645,0,0
-84,379,0,0,0,0,0,0,0,0,0,-1,1140,645,0,0
-77,379,0,0,0,0,0,0,0,0,0,-1,1147,645,0,0
-70,379,0,0,0,0,0,0,0,0,0,-1,1154,645,0,0
-63,379,0,0,0,0,0,0,0,0,0,-1,1161,645,0,0
-56,379,0,0,0,0,0,0,0,0,0,-1,1168,645,0,0
-49,379,0,0,0,0,0,0,0,0,0,-1,1175,645,0,0
-42,379,0,0,0,0,0,0,0,0,0,-1,1182,645,0,0
-35,379,0,0,0,0,0,0,0,0,0,-1,1189,645,0,0
-28,379,0,0,0,0,0,0,0,0,0,-1,1196,645,0,0
-21,379,0,0,0,0,0,0,0,0,0,-1,1203,645,0,0
-14,379,0,0,0,0,0,0,0,0,0,-1,1210,645,0,0
-7,379,0,0,0,0,0,0,0,0,0,-1,1217,645,0,0
0,379,0,0,0,0,0,0,0,0,0,-1,1224,645,0,0
7,379,0,0,0,0,0,0,0,0,0,-1,1231,645,0,0
14,379,0,0,0,0,0,0,0,0,0,-1,1238,645,0,0
21,379,0,0,0,0,0,0,0,0,0,-1,1245,645,0,0
28,379,0,0,0,0,0,0,0,0,0,-1,1252,645,0,0
35,379,0,0,0,0,0,0,0,0,0,-1,1259,645,0,0
42,379,0,0,0,0,0,0,0,0,0,-1,1266,645,0,0
49,379,0,0,0,0,0,0,0,0,0,-1,1273,645,0,0
56,379,0,0,0,0,0,0,0,0,0,-1,1280,645,0,0
63,379,0,0,0,0,0,0,0,0,0,-1,1287,645,0,0
70,379,0,0,0,0,0,0,0,0,0,-1,1294,645,0,0
77,379,0,0,0,0,0,0,0,0,0,-1,1301,645,0,0
84,379,0,0,0,0,0,0,0,0,0,-1,1308,645,0,0
91,379,0,0,0,0,0,0,0,0,0,-1,1315,645,0,0
98,379,0,0,0,0,0,0,0,0,0,-1,1322,645,0,0
105,379,0,0,0,0,0,0,0,0,0,-1,1329,645,0,0
112,379,0,0,0,0,0,0,0,0,0,-1,1336,645,0,0
119,379,0,0,0,0,0,0,0,0,0,-1,1343,645,0,0
126,379,0,0,0,0,0,0,0,0,0,-1,1350,645,0,0
133,379,0,0,0,0,0,0,0,0,0,-1,1357,645,0,0
140,379,0,0,0,0,0,0,0,0,0,-1,1364,645,0,0
147,379,0,0,0,0,0,0,0,0,0,-1,1371,645,0,0
154,379,0,0,0,0,0,0,0,0,0,-1,1378,645,0,0
161,379,0,0,0,0,0,0,0,0,0,-1,1385,645,0,0
168,379,0,0,0,0,0,0,0,0,0,-1,1392,645,0,0
175,379,0,0,0,0,0,0,0,0,0,-1,1399,645,0,0
182,379,0,0,0,0,0,0,0,0,0,-1,1406,645,0,0
189,379,0,0,0,0,0,0,0,0,0,-1,1413,645,0,0
196,379,0,0,0,0,0,0,0,0,0,-1,1420,645,0,0
203,379,0,0,0,0,0,0,0,0,0,-1,1427,645,0,0
210,379,0,0,0,0,0,0,0,0,0,-1,1434,645,0,0
217,379,0,0,0,0,0,0,0,0,0,-1,1441,645,0,0
224,379,0,0,0,0,0,0,0,0,0,-1,1448,645,0,0
231,379,0,0,0,0,0,0,0,0,0,-1,1455,645,0,0
238,379,0,0,0,0,0,0,0,0,0,-1,1462,645,0,0
245,379,0,0,0,0,0,0,0,0,0,-1,1469,645,0,0
252,379,0,0,0,0,0,0,0,0,0,-1,1476,645,0,0
259,379,0,0,0,0,0,0,0,0,0,-1,1483,645,0,0
266,379,0,0,0,0,0,0,0,0,0,-1,1490,645,0,0
273,379,0,0,0,0,0,0,0,0,0,-1,1497,645,0,0
280,379,0,0,0,0,0,0,0,0,0,-1,1504,645,0,0
287,379,0,0,0,0,0,0,0,0,0,-1,1511,645,0,0
294,379,0,0,0,0,0,0,0,0,0,-1,1518,645,0,0
301,379,0,0,0,0,0,0,0,0,0,-1,1525,645,0,0
308,379,0,0,0,0,0,0,0,0,0,-1,1532,645,0,0
315,379,0,0,0,0,0,0,0,0,0,-1,1539,645,0,0
322,379,0,0,0,0,0,0,0,0,0,-1,1546,645,0,0
329,379,0,0,0,0,0,0,0,0,0,-1,1553,645,0,0
336,379,0,0,0,0,0,0,0,0,0,-1,1560,645,0,0
343,379,0,0,0,0,0,0,0,0,0,-1,1567,645,0,0
350,379,0,0,0,0,0,0,0,0,0,-1,1574,645,0,0
357,379,0,0,0,0,0,0,0,0,0,-1,1581,645,0,0
364,379,0,0,0,0,0,0,0,0,0,-1,1588,645,0,0
371,379,0,0,0,0,0,0,0,0,0,-1,1595,645,0,0
378,379,0,0,0,0,0,0,0,0,0,-1,1602,645,0,0
385,379,0,0,0,0,0,0,0,0,0,-1,1609,645,0,0
392,379,0,0,0,0,0,0,0,0,0,-1,1616,645,0,0
399,379,0,0,0,0,0,0,0,0,0,-1,1623,645,0,0
406,379,0,0,0,0,0,0,0,0,0,-1,1630,645,0,0
413,379,0,0,0,0,0,0,0,0,0,-1,1637,645,0,0
420,379,0,0,0,0,0,0,0,0,0,-1,1644,645,0,0
427,379,0,0,0,0,0,0,0,0,0,-1,1651,645,0,0
434,379,0,0,0,0,0,0,0,0,0,-1,1658,645,0,0
441,379,0,0,0,0,0,0,0,0,0,-1,1665,645,0,0
448,379,0,0,0,0,0,0,0,0,0,-1,1672,645,0,0
455,379,0,0,0,0,0,0,0,0,0,-1,1679,645,0,0
462,379,0,0,0,0,0,0,0,0,0,-1,1686,645,0,0
469,379,0,0,0,0,0,0,0,0,0,-1,1693,645,0,0
476,379,11.1787,0.830383,0,0,0,0,0,0,0,-1,1700,645,11.1787,-0.830365
483,379,7.4231,1.54321,0,0,0,0,0,0,0,-1,1707,645,7.42314,-1.54324
490,379,8.52881,1.56677,0,0,0,0,0,0,0,-1,1714,645,8.52878,-1.56677
497,379,9.63599,1.49573,0,0,0,0,0,0,0,-1,1721,645,9.63604,-1.4957
504,379,10.0833,1.35229,0,0,0,0,0,0,0,-1,1728,645,10.0832,-1.35227
511,379,8.14343,1.59912,0,0,0,0,0,0,0,-1,1735,645,8.14347,-1.59912
518,379,12.7955,-0.324097,0,0,0,0,0,0,0,-1,1742,645,12.7955,0.324101
525,379,6.03711,1.10352,0,0,0,0,0,0,0,-1,1749,645,6.03711,-1.10351
532,379,8.70947,0.887817,0,0,0,0,0,0,0,-1,1756,645,8.70953,-0.887808
539,379,9.87097,0.111389,0,0,0,0,0,0,0,-1,1763,645,9.87095,-0.111395
546,379,8.42383,-0.730652,0,0,0,0,0,0,0,-1,1770,645,8.42378,0.730638
553,379,19.2905,-7.67834,0,0,0,0,0,0,0,-1,1777,645,19.2905,7.67837
560,379,22.5734,-10.4749,0,0,0,0,0,0,0,-1,1784,645,22.5734,10.4749
567,379,33.6021,-16.8182,0,0,0,0,0,0,0,-1,1791,645,33.6021,16.8182
574,379,33.5782,-15.8882,0.00138791,0.00118225,0.000195018,0.00150555,0.00106462,0.542787,0.000893743,0.0187158,1798,645,33.5783,15.8882
581,379,33.5419,-15.0388,0.000866561,0.00124103,0.000269614,0.00138205,0.000725545,1.0889,0.000798258,0.0171388,1805,645,33.5419,15.0388
588,379,33.4886,-14.1379,0.000793276,0.00139756,0.00054296,0.00171678,0.000474053,1.0393,0.00102377,0.0183707,1812,645,33.4887,14.1379
595,379,33.4244,-13.2463,0.00110864,0.00173588,0.000966329,0.00243821,0.000406312,0.942311,0.00150839,0.0155086,1819,645,33.4245,13.2463
602,379,33.3671,-12.3676,0.0016547,0.00218252,0.00147115,0.00341324,0.000423981,0.874148,0.00214816,0.0173435,1826,645,33.367,12.3676
609,379,33.3052,-11.4999,0.00230652,0.0027261,0.00199379,0.00452111,0.000511521,0.837816,0.00285886,0.0193596,1833,645,33.3052,11.4999
616,379,33.252,-10.5903,0.00309775,0.0034006,0.00254161,0.0057953,0.000703056,0.815152,0.00365181,0.0150704,1840,645,33.252,10.5903
623,379,33.2228,-9.63812,0.00404455,0.00412054,0.00313555,0.00721832,0.000946768,0.791456,0.00452973,0.0119077,1847,645,33.2228,9.63815
630,379,33.1677,-8.73822,0.00495089,0.00489282,0.00364983,0.0085718,0.00127191,0.781421,0.00534128,0.0134353,1854,645,33.1678,8.73822
637,379,33.1752,-7.72803,0.00573099,0.00584057,0.00410562,0.00989177,0.00167979,0.79207,0.00611202,0.0479368,1861,645,33.1752,7.728
644,379,33.4896,-6.55951,0,0,0,0,0,0,0,-1,1868,645,33.4896,6.55948
651,379,12.9515,0.220825,0,0,0,0,0,0,0,-1,1875,645,12.9515,-0.220814
658,379,13.7498,0.37439,0,0,0,0,0,0,0,-1,1882,645,13.7498,-0.374371
665,379,11.9719,0.353333,0,0,0,0,0,0,0,-1,1889,645,11.9719,-0.353321
672,379,7.57605,2.15326,0,0,0,0,0,0,0,-1,1896,645,7.57599,-2.15326
679,379,8.55078,2.50409,0,0,0,0,0,0,0,-1,1903,645,8.55073,-2.50406
686,379,0,0,0,0,0,0,0,0,0,-1,1910,645,0,0
693,379,0,0,0,0,0,0,0,0,0,-1,1917,645,0,0
700,379,0,0,0,0,0,0,0,0,0,-1,1924,645,0,0
707,379,0,0,0,0,0,0,0,0,0,-1,1931,645,0,0
714,379,0,0,0,0,0,0,0,0,0,-1,1938,645,0,0
721,379,0,0,0,0,0,0,0,0,0,-1,1945,645,0,0
728,379,0,0,0,0,0,0,0,0,0,-1,1952,645,0,0
735,379,0,0,0,0,0,0,0,0,0,-1,1959,645,0,0
742,379,0,0,0,0,0,0,0,0,0,-1,1966,645,0,0
749,379,0,0,0,0,0,0,0,0,0,-1,1973,645,0,0
756,379,0,0,0,0,0,0,0,0,0,-1,1980,645,0,0
763,379,0,0,0,0,0,0,0,0,0,-1,1987,645,0,0
770,379,0,0,0,0,0,0,0,0,0,-1,1994,645,0,0
777,379,0,0,0,0,0,0,0,0,0,-1,2001,645,0,0
784,379,0,0,0,0,0,0,0,0,0,-1,2008,645,0,0
791,379,0,0,0,0,0,0,0,0,0,-1,2015,645,0,0
798,379,0,0,0,0,0,0,0,0,0,-1,2022,645,0,0
805,379,0,0,0,0,0,0,0,0,0,-1,2029,645,0,0
812,379,0,0,0,0,0,0,0,0,0,-1,2036,645,0,0
-700,372,0,0,0,0,0,0,0,0,0,-1,524,652,0,0
-693,372,0,0,0,0,0,0,0,0,0,-1,531,652,0,0
-686,372,0,0,0,0,0,0,0,0,0,-1,538,652,0,0
-679,372,0,0,0,0,0,0,0,0,0,-1,545,652,0,0
-672,372,0,0,0,0,0,0,0,0,0,-1,552,652,0,0
-665,372,0,0,0,0,0,0,0,0,0,-1,559,652,0,0
-658,372,0,0,0,0,0,0,0,0,0,-1,566,652,0,0
-651,372,0,0,0,0,0,0,0,0,0,-1,573,652,0,0
-644,372,0,0,0,0,0,0,0,0,0,-1,580,652,0,0
-637,372,0,0,0,0,0,0,0,0,0,-1,587,652,0,0
-630,372,0,0,0,0,0,0,0,0,0,-1,594,652,0,0
-623,372,0,0,0,0,0,0,0,0,0,-1,601,652,0,0
-616,372,0,0,0,0,0,0,0,0,0,-1,608,652,0,0
-609,372,0,0,0,0,0,0,0,0,0,-1,615,652,0,0
-602,372,0,0,0,0,0,0,0,0,0,-1,622,652,0,0
-595,372,0,0,0,0,0,0,0,0,0,-1,629,652,0,0
-588,372,0,0,0,0,0,0,0,0,0,-1,636,652,0,0
-581,372,0,0,0,0,0,0,0,0,0,-1,643,652,0,0
-574,372,0,0,0,0,0,0,0,0,0,-1,650,652,0,0
-567,372,-7.93744,0.73407,0,0,0,0,0,0,0,-1,657,652,-7.93741,-0.734076
-560,372,-8.78552,-0.158203,0,0,0,0,0,0,0,-1,664,652,-8.78552,0.158216
-553,372,-7.95551,1.61694,0,0,0,0,0,0,0,-1,671,652,-7.95552,-1.61697
-546,372,-4.2403,-3.75372,0,0,0,0,0,0,0,-1,678,652,-4.24028,3.75369
-539,372,-7.92285,-0.0650024,0,0,0,0,0,0,0,-1,685,652,-7.92287,0.0649772
-532,372,-8.59589,-0.419556,0,0,0,0,0,0,0,-1,692,652,-8.59591,0.419539
-525,372,-8.03674,-1.36804,0,0,0,0,0,0,0,-1,699,652,-8.03676,1.36806
-518,372,-19.0846,-7.60248,0,0,0,0,0,0,0,-1,706,652,-19.0846,7.60248
-511,372,-19.0685,-8.6178,0.002693,-4.20874e-05,-0.0012911,0.00320618,-0.000555266,-0.378327,0.00234456,0.0412263,713,652,-19.0685,8.61778
-504,372,-19.1239,-9.44836,0.00212352,7.32319e-05,-0.000988098,0.00252219,-0.000325443,-0.3835,0.00179978,0.0193087,720,652,-19.1239,9.44834
-497,372,-19.1318,-10.3774,0.00166215,0.000150909,-0.000766398,0.00198279,-0.000169727,-0.396239,0.00138191,0.0120124,727,652,-19.1318,10.3774
-490,372,-19.2001,-11.2561,0.001309,0.000140711,-0.000609017,0.00156873,-0.00011902,-0.40312,0.00108767,0.0124321,734,652,-19.2001,11.2561
-483,372,-19.2724,-12.1251,0.00106788,0.00010736,-0.000539497,0.00130991,-0.000134673,-0.421711,0.000921453,0.0118301,741,652,-19.2724,12.125
-476,372,-19.3052,-12.9734,0.000965785,8.57034e-05,-0.000556986,0.00123558,-0.000184093,-0.451079,0.000891445,0.0135454,748,652,-19.3052,12.9734
-469,372,-19.3704,-13.8293,0.00103681,5.93097e-05,-0.000670797,0.00137803,-0.000281907,-0.470562,0.00102565,0.0121601,755,652,-19.3704,13.8293
-462,372,-19.4271,-14.7213,0.00126104,3.55183e-05,-0.000864822,0.00170818,-0.000411624,-0.477181,0.00129794,0.010519,762,652,-19.4271,14.7213
-455,372,-19.4808,-15.6064,0.00171143,0.000136229,-0.00121102,0.00236844,-0.000520777,-0.497084,0.00177815,0.0112094,769,652,-19.4808,15.6064
-448,372,-19.4913,-16.484,0.00240892,0.000329906,-0.0016785,0.00334373,-0.000604902,-0.50815,0.00245575,0.0159989,776,652,-19.4913,16.484
-441,372,-19.4567,-17.4768,0,0,0,0,0,0,0,-1,783,652,-19.4566,17.4768
-434,372,-9.86865,-9.68494,0,0,0,0,0,0,0,-1,790,652,-9.86863,9.68492
-427,372,-4.54248,-3.56268,0,0,0,0,0,0,0,-1,797,652,-4.54247,3.56266
-420,372,-4.66168,-2.93597,0,0,0,0,0,0,0,-1,804,652,-4.66166,2.93599
-413,372,-4.74762,-3.29541,0,0,0,0,0,0,0,-1,811,652,-4.74763,3.29542
-406,372,-0.885437,-0.583923,0,0,0,0,0,0,0,-1,818,652,-0.885437,0.5839
-399,372,-3.97357,-0.825012,0,0,0,0,0,0,0,-1,825,652,-3.97359,0.825037
-392,372,-7.64337,0.173035,0,0,0,0,0,0,0,-1,832,652,-7.64337,-0.173019
-385,372,-6.48871,-0.0271606,0,0,0,0,0,0,0,-1,839,652,-6.48874,0.0271353
-378,372,-5.33044,-0.242432,0,0,0,0,0,0,0,-1,846,652,-5.33042,0.242457
-371,372,-4.40802,-0.495667,0,0,0,0,0,0,0,-1,853,652,-4.40802,0.495661
-364,372,0,0,0,0,0,0,0,0,0,-1,860,652,0,0
-357,372,0,0,0,0,0,0,0,0,0,-1,867,652,0,0
-350,372,0,0,0,0,0,0,0,0,0,-1,874,652,0,0
-343,372,0,0,0,0,0,0,0,0,0,-1,881,652,0,0
-336,372,0,0,0,0,0,0,0,0,0,-1,888,652,0,0
-329,372,0,0,0,0,0,0,0,0,0,-1,895,652,0,0
-322,372,0,0,0,0,0,0,0,0,0,-1,902,652,0,0
-315,372,0,0,0,0,0,0,0,0,0,-1,909,652,0,0
-308,372,0,0,0,0,0,0,0,0,0,-1,916,652,0,0
-301,372,0,0,0,0,0,0,0,0,0,-1,923,652,0,0
-294,372,0,0,0,0,0,0,0,0,0,-1,930,652,0,0
-287,372,0,0,0,0,0,0,0,0,0,-1,937,652,0,0
-280,372,0,0,0,0,0,0,0,0,0,-1,944,652,0,0
-273,372,0,0,0,0,0,0,0,0,0,-1,951,652,0,0
-266,372,0,0,0,0,0,0,0,0,0,-1,958,652,0,0
-259,372,0,0,0,0,0,0,0,0,0,-1,965,652,0,0
-252,372,0,0,0,0,0,0,0,0,0,-1,972,652,0,0
-245,372,0,0,0,0,0,0,0,0,0,-1,979,652,0,0
-238,372,0,0,0,0,0,0,0,0,0,-1,986,652,0,0
-231,372,0,0,0,0,0,0,0,0,0,-1,993,652,0,0
-224,372,0,0,0,0,0,0,0,0,0,-1,1000,652,0,0
-217,372,0,0,0,0,0,0,0,0,0,-1,1007,652,0,0
-210,372,0,0,0,0,0,0,0,0,0,-1,1014,652,0,0
-203,372,0,0,0,0,0,0,0,0,0,-1,1021,652,0,0
-196,372,0,0,0,0,0,0,0,0,0,-1,1028,652,0,0
-189,372,0,0,0,0,0,0,0,0,0,-1,1035,652,0,0
-182,372,0,0,0,0,0,0,0,0,0,-1,1042,652,0,0
-175,372,0,0,0,0,0,0,0,0,0,-1,1049,652,0,0
-168,372,0,0,0,0,0,0,0,0,0,-1,1056,652,0,0
-161,372,0,0,0,0,0,0,0,0,0,-1,1063,652,0,0
-154,372,0,0,0,0,0,0,0,0,0,-1,1070,652,0,0
-147,372,0,0,0,0,0,0,0,0,0,-1,1077,652,0,0
-140,372,0,0,0,0,0,0,0,0,0,-1,1084,652,0,0
-133,372,0,0,0,0,0,0,0,0,0,-1,1091,652,0,0
-126,372,0,0,0,0,0,0,0,0,0,-1,1098,652,0,0
-119,372,0,0,0,0,0,0,0,0,0,-1,1105,652,0,0
-112,372,0,0,0,0,0,0,0,0,0,-1,1112,652,0,0
-105,372,0,0,0,0,0,0,0,0,0,-1,1119,652,0,0
-98,372,0,0,0,0,0,0,0,0,0,-1,1126,652,0,0
-91,372,0,0,0,0,0,0,0,0,0,-1,1133,652,0,0
-84,372,0,0,0,0,0,0,0,0,0,-1,1140,652,0,0
-77,372,0,0,0,0,0,0,0,0,0,-1,1147,652,0,0
-70,372,0,0,0,0,0,0,0,0,0,-1,1154,652,0,0
-63,372,0,0,0,0,0,0,0,0,0,-1,1161,652,0,0
-56,372,0,0,0,0,0,0,0,0,0,-1,1168,652,0,0
-49,372,0,0,0,0,0,0,0,0,0,-1,1175,652,0,0
-42,372,0,0,0,0,0,0,0,0,0,-1,1182,652,0,0
-35,372,0,0,0,0,0,0,0,0,0,-1,1189,652,0,0
-28,372,0,0,0,0,0,0,0,0,0,-1,1196,652,0,0
-21,372,0,0,0,0,0,0,0,0,0,-1,1203,652,0,0
-14,372,0,0,0,0,0,0,0,0,0,-1,1210,652,0,0
-7,372,0,0,0,0,0,0,0,0,0,-1,1217,652,0,0
0,372,0,0,0,0,0,0,0,0,0,-1,1224,652,0,0
7,372,0,0,0,0,0,0,0,0,0,-1,1231,652,0,0
14,372,0,0,0,0,0,0,0,0,0,-1,1238,652,0,0
21,372,0,0,0,0,0,0,0,0,0,-1,1245,652,0,0
28,372,0,0,0,0,0,0,0,0,0,-1,1252,652,0,0
35,372,0,0,0,0,0,0,0,0,0,-1,1259,652,0,0
42,372,0,0,0,0,0,0,0,0,0,-1,1266,652,0,0
49,372,0,0,0,0,0,0,0,0,0,-1,1273,652,0,0
56,372,0,0,0,0,0,0,0,0,0,-1,1280,652,0,0
63,372,0,0,0,0,0,0,0,0,0,-1,1287,652,0,0
70,372,0,0,0,0,0,0,0,0,0,-1,1294,652,0,0
77,372,0,0,0,0,0,0,0,0,0,-1,1301,652,0,0
84,372,0,0,0,0,0,0,0,0,0,-1,1308,652,0,0
91,372,0,0,0,0,0,0,0,0,0,-1,1315,652,0,0
98,372,0,0,0,0,0,0,0,0,0,-1,1322,652,0,0
105,372,0,0,0,0,0,0,0,0,0,-1,1329,652,0,0
112,372,0,0,0,0,0,0,0,0,0,-1,1336,652,0,0
119,372,0,0,0,0,0,0,0,0,0,-1,1343,652,0,0
126,372,0,0,0,0,0,0,0,0,0,-1,1350,652,0,0
133,372,0,0,0,0,0,0,0,0,0,-1,1357,652,0,0
140,372,0,0,0,0,0,0,0,0,0,-1,1364,652,0,0
147,372,0,0,0,0,0,0,0,0,0,-1,1371,652,0,0
154,372,0,0,0,0,0,0,0,0,0,-1,1378,652,0,0
161,372,0,0,0,0,0,0,0,0,0,-1,1385,652,0,0
168,372,0,0,0,0,0,0,0,0,0,-1,1392,652,0,0
175,372,0,0,0,0,0,0,0,0,0,-1,1399,652,0,0
182,372,0,0,0,0,0,0,0,0,0,-1,1406,652,0,0
189,372,0,0,0,0,0,0,0,0,0,-1,1413,652,0,0
196,372,0,0,0,0,0,0,0,0,0,-1,1420,652,0,0
203,372,0,0,0,0,0,0,0,0,0,-1,1427,652,0,0
210,372,0,0,0,0,0,0,0,0,0,-1,1434,652,0,0
217,372,0,0,0,0,0,0,0,0,0,-1,1441,652,0,0
224,372,0,0,0,0,0,0,0,0,0,-1,1448,652,0,0
231,372,0,0,0,0,0,0,0,0,0,-1,1455,652,0,0
238,372,0,0,0,0,0,0,0,0,0,-1,1462,652,0,0
245,372,0,0,0,0,0,0,0,0,0,-1,1469,652,0,0
252,372,0,0,0,0,0,0,0,0,0,-1,1476,652,0,0
259,372,0,0,0,0,0,0,0,0,0,-1,1483,652,0,0
266,372,0,0,0,0,0,0,0,0,0,-1,1490,652,0,0
273,372,0,0,0,0,0,0,0,0,0,-1,1497,652,0,0
280,372,0,0,0,0,0,0,0,0,0,-1,1504,652,0,0
287,372,0,0,0,0,0,0,0,0,0,-1,1511,652,0,0
294,372,0,0,0,0,0,0,0,0,0,-1,1518,652,0,0
301,372,0,0,0,0,0,0,0,0,0,-1,1525,652,0,0
308,372,0,0,0,0,0,0,0,0,0,-1,1532,652,0,0
315,372,0,0,0,0,0,0,0,0,0,-1,1539,652,0,0
322,372,0,0,0,0,0,0,0,0,0,-1,1546,652,0,0
329,372,0,0,0,0,0,0,0,0,0,-1,1553,652,0,0
336,372,0,0,0,0,0,0,0,0,0,-1,1560,652,0,0
343,372,0,0,0,0,0,0,0,0,0,-1,1567,652,0,0
350,372,0,0,0,0,0,0,0,0,0,-1,1574,652,0,0
357,372,0,0,0,0,0,0,0,0,0,-1,1581,652,0,0
364,372,0,0,0,0,0,0,0,0,0,-1,1588,652,0,0
371,372,0,0,0,0,0,0,0,0,0,-1,1595,652,0,0
378,372,0,0,0,0,0,0,0,0,0,-1,1602,652,0,0
385,372,0,0,0,0,0,0,0,0,0,-1,1609,652,0,0
392,372,0,0,0,0,0,0,0,0,0,-1,1616,652,0,0
399,372,0,0,0,0,0,0,0,0,0,-1,1623,652,0,0
406,372,0,0,0,0,0,0,0,0,0,-1,1630,652,0,0
413,372,0,0,0,0,0,0,0,0,0,-1,1637,652,0,0
420,372,0,0,0,0,0,0,0,0,0,-1,1644,652,0,0
427,372,0,0,0,0,0,0,0,0,0,-1,1651,652,0,0
434,372,0,0,0,0,0,0,0,0,0,-1,1658,652,0,0
441,372,0,0,0,0,0,0,0,0,0,-1,1665,652,0,0
448,372,0,0,0,0,0,0,0,0,0,-1,1672,652,0,0
455,372,0,0,0,0,0,0,0,0,0,-1,1679,652,0,0
462,372,0,0,0,0,0,0,0,0,0,-1,1686,652,0,0
469,372,0,0,0,0,0,0,0,0,0,-1,1693,652,0,0
476,372,0,0,0,0,0,0,0,0,0,-1,1700,652,0,0
483,372,8.74182,1.53125,0,0,0,0,0,0,0,-1,1707,652,8.74186,-1.53126
490,372,9.78455,1.67096,0,0,0,0,0,0,0,-1,1714,652,9.7846,-1.67093
497,372,9.97644,1.46069,0,0,0,0,0,0,0,-1,1721,652,9.97647,-1.46071
504,372,10.1216,1.28375,0,0,0,0,0,0,0,-1,1728,652,10.1216,-1.28376
511,372,11.7367,-0.0272217,0,0,0,0,0,0,0,-1,1735,652,11.7367,0.0272326
518,372,12.0657,-0.0995483,0,0,0,0,0,0,0,-1,1742,652,12.0657,0.0995285
525,372,12.3947,-0.171814,0,0,0,0,0,0,0,-1,1749,652,12.3946,0.171824
532,372,9.36597,1.72034,0,0,0,0,0,0,0,-1,1756,652,9.36597,-1.72036
539,372,7.82886,-0.0865479,0,0,0,0,0,0,0,-1,1763,652,7.82882,0.0865771
546,372,10.953,-0.187195,0,0,0,0,0,0,0,-1,1770,652,10.953,0.187181
553,372,14.1201,-4.83234,0,0,0,0,0,0,0,-1,1777,652,14.1201,4.83235
560,372,20.1057,-8.06934,0,0,0,0,0,0,0,-1,1784,652,20.1058,8.06936
567,372,34.5447,-16.9172,0,0,0,0,0,0,0,-1,1791,652,34.5447,16.9172
574,372,34.4958,-15.7524,0.00128426,0.00122454,9.32889e-05,0.00135235,0.00115645,0.630509,0.000843879,0.0458111,1798,652,34.4958,15.7524
581,372,34.4601,-14.9723,0.000742645,0.00125237,0.000185322,0.00131263,0.00068239,1.25644,0.000758046,0.0228583,1805,652,34.4601,14.9723
588,372,34.384,-14.1046,0.000646114,0.00127453,0.000430373,0.00149319,0.000427454,1.10071,0.000887958,0.0171508,1812,652,34.384,14.1045
595,372,34.3245,-13.2077,0.000916355,0.00151206,0.000781654,0.00205069,0.000377727,0.967432,0.00126023,0.0144996,1819,652,34.3244,13.2077
602,372,34.309,-12.3204,0.00138236,0.0018271,0.00118223,0.00280769,0.000401765,0.878357,0.00175329,0.0179133,1826,652,34.3089,12.3204
609,372,34.1748,-11.4446,0.00189679,0.00221874,0.00157732,0.00364328,0.000472257,0.83625,0.00228774,0.0200516,1833,652,34.1748,11.4446
616,372,34.1136,-10.5322,0.00248596,0.00272413,0.00197618,0.00458481,0.000625286,0.815492,0.0028709,0.0187526,1840,652,34.1136,10.5322
623,372,34.099,-9.58691,0.00320319,0.00326453,0.00241205,0.00564611,0.000821612,0.791755,0.00352229,0.0127858,1847,652,34.0989,9.58693
630,372,34.0643,-8.68134,0.00383216,0.00387176,0.00278826,0.00664029,0.00106363,0.788948,0.00411836,0.0162959,1854,652,34.0643,8.68134
637,372,34.0583,-7.81384,0.00433001,0.00457433,0.00309521,0.00754979,0.00135455,0.805121,0.00464794,0.0288098,1861,652,34.0583,7.81386
644,372,34.004,-6.90283,0,0,0,0,0,0,0,-1,1868,652,34.0041,6.90281
651,372,21.3998,-0.888,0,0,0,0,0,0,0,-1,1875,652,21.3998,0.887992
658,372,14.157,0.280273,0,0,0,0,0,0,0,-1,1882,652,14.157,-0.280264
665,372,15.2286,0.463867,0,0,0,0,0,0,0,-1,1889,652,15.2287,-0.463854
672,372,9.34106,1.48444,0,0,0,0,0,0,0,-1,1896,652,9.34109,-1.48444
679,372,10.7308,2.32391,0,0,0,0,0,0,0,-1,1903,652,10.7309,-2.3239
686,372,11.6295,2.52997,0,0,0,0,0,0,0,-1,1910,652,11.6296,-2.52996
693,372,0,0,0,0,0,0,0,0,0,-1,1917,652,0,0
700,372,0,0,0,0,0,0,0,0,0,-1,1924,652,0,0
707,372,0,0,0,0,0,0,0,0,0,-1,1931,652,0,0
714,372,0,0,0,0,0,0,0,0,0,-1,1938,652,0,0
721,372,0,0,0,0,0,0,0,0,0,-1,1945,652,0,0
728,372,0,0,0,0,0,0,0,0,0,-1,1952,652,0,0
735,372,0,0,0,0,0,0,0,0,0,-1,1959,652,0,0
742,372,0,0,0,0,0,0,0,0,0,-1,1966,652,0,0
749,372,0,0,0,0,0,0,0,0,0,-1,1973,652,0,0
756,372,0,0,0,0,0,0,0,0,0,-1,1980,652,0,0
763,372,0,0,0,0,0,0,0,0,0,-1,1987,652,0,0
770,372,0,0,0,0,0,0,0,0,0,-1,1994,652,0,0
777,372,0,0,0,0,0,0,0,0,0,-1,2001,652,0,0
784,372,0,0,0,0,0,0,0,0,0,-1,2008,652,0,0
791,372,0,0,0,0,0,0,0,0,0,-1,2015,652,0,0
798,372,0,0,0,0,0,0,0,0,0,-1,2022,652,0,0
805,372,0,0,0,0,0,0,0,0,0,-1,2029,652,0,0
812,372,0,0,0,0,0,0,0,0,0,-1,2036,652,0,0
-700,365,0,0,0,0,0,0,0,0,0,-1,524,659,0,0
-693,365,0,0,0,0,0,0,0,0,0,-1,531,659,0,0
-686,365,0,0,0,0,0,0,0,0,0,-1,538,659,0,0
-679,365,0,0,0,0,0,0,0,0,0,-1,545,659,0,0
-672,365,0,0,0,0,0,0,0,0,0,-1,552,659,0,0
-665,365,0,0,0,0,0,0,0,0,0,-1,559,659,0,0
-658,365,0,0,0,0,0,0,0,0,0,-1,566,659,0,0
-651,365,0,0,0,0,0,0,0,0,0,-1,573,659,0,0
-644,365,0,0,0,0,0,0,0,0,0,-1,580,659,0,0
-637,365,0,0,0,0,0,0,0,0,0,-1,587,659,0,0
-630,365,0,0,0,0,0,0,0,0,0,-1,594,659,0,0
-623,365,0,0,0,0,0,0,0,0,0,-1,601,659,0,0
-616,365,0,0,0,0,0,0,0,0,0,-1,608,659,0,0
-609,365,0,0,0,0,0,0,0,0,0,-1,615,659,0,0
-602,365,0,0,0,0,0,0,0,0,0,-1,622,659,0,0
-595,365,0,0,0,0,0,0,0,0,0,-1,629,659,0,0
-588,365,0,0,0,0,0,0,0,0,0,-1,636,659,0,0
-581,365,0,0,0,0,0,0,0,0,0,-1,643,659,0,0
-574,365,-7.69281,1.59015,0,0,0,0,0,0,0,-1,650,659,-7.69282,-1.59018
-567,365,-8.2583,1.72638,0,0,0,0,0,0,0,-1,657,659,-8.25827,-1.72637
-560,365,-7.17767,0.275757,0,0,0,0,0,0,0,-1,664,659,-7.17768,-0.27577
-553,365,-10.0349,-0.169617,0,0,0,0,0,0,0,-1,671,659,-10.0349,0.169593
-546,365,-10.6303,-1.51642,0,0,0,0,0,0,0,-1,678,659,-10.6303,1.5164
-539,365,-8.38599,1.52936,0,0,0,0,0,0,0,-1,685,659,-8.38598,-1.52935
-532,365,-8.52863,0.166504,0,0,0,0,0,0,0,-1,692,659,-8.52863,-0.166501
-525,365,-9.28229,-2.62726,0,0,0,0,0,0,0,-1,699,659,-9.28227,2.62724
-518,365,-19.9312,-7.50165,0,0,0,0,0,0,0,-1,706,659,-19.9312,7.50166
-511,365,-19.9661,-8.4848,0.00265937,7.82181e-05,-0.00140908,0.00327958,-0.000541992,-0.414633,0.00238765,0.0387614,713,659,-19.9661,8.48481
-504,365,-19.9622,-9.39386,0.00219789,4.14918e-05,-0.00109309,0.00265506,-0.000415682,-0.396129,0.00192363,0.0139976,720,659,-19.9621,9.39388
-497,365,-19.9929,-10.3182,0.00179841,2.82843e-05,-0.000857779,0.00214588,-0.000319178,-0.384872,0.00154798,0.0133958,727,659,-19.9929,10.3183
-490,365,-20.0771,-11.2067,0.00146297,1.73257e-06,-0.000695743,0.00174124,-0.00027654,-0.380476,0.00126314,0.0141342,734,659,-20.0771,11.2067
-483,365,-20.1484,-12.0546,0.00121495,-4.97194e-06,-0.000616697,0.00147238,-0.000262402,-0.395445,0.00107974,0.012626,741,659,-20.1484,12.0547
-476,365,-20.132,-12.9223,0.00106523,2.98242e-05,-0.000625856,0.00135975,-0.0002647,-0.439848,0.0010064,0.0182126,748,659,-20.132,12.9223
-469,365,-20.2104,-13.8012,0.00105839,8.40872e-05,-0.000734728,0.00145279,-0.000310318,-0.492656,0.00108684,0.018452,755,659,-20.2105,13.8012
-462,365,-20.326,-14.6647,0.00120126,0.000159711,-0.000933898,0.00174977,-0.000388798,-0.531054,0.00131541,0.0155725,762,659,-20.326,14.6647
-455,365,-20.3612,-15.5538,0.00157978,0.000299238,-0.00126493,0.00235726,-0.000478235,-0.551112,0.0017528,0.0189714,769,659,-20.3612,15.5538
-448,365,-20.3655,-16.5207,0,0,0,0,0,0,0,-1,776,659,-20.3655,16.5207
-441,365,-16.9571,-15.1896,0,0,0,0,0,0,0,-1,783,659,-16.9571,15.1896
-434,365,-5.45056,-3.98041,0,0,0,0,0,0,0,-1,790,659,-5.45055,3.98042
-427,365,-5.05377,-4.74689,0,0,0,0,0,0,0,-1,797,659,-5.05376,4.7469
-420,365,-4.58813,-3.16376,0,0,0,0,0,0,0,-1,804,659,-4.58816,3.16374
-413,365,0.141357,0.672729,0,0,0,0,0,0,0,-1,811,659,0.141365,-0.672714
-406,365,-1.75067,-0.934448,0,0,0,0,0,0,0,-1,818,659,-1.7507,0.934424
-399,365,-4.10242,-1.25439,0,0,0,0,0,0,0,-1,825,659,-4.10244,1.25438
-392,365,-7.46545,-0.779724,0,0,0,0,0,0,0,-1,832,659,-7.46543,0.779744
-385,365,-6.27875,-0.887573,0,0,0,0,0,0,0,-1,839,659,-6.27874,0.887545
-378,365,-5.34503,-0.263306,0,0,0,0,0,0,0,-1,846,659,-5.34504,0.263275
-371,365,0,0,0,0,0,0,0,0,0,-1,853,659,0,0
-364,365,0,0,0,0,0,0,0,0,0,-1,860,659,0,0
-357,365,0,0,0,0,0,0,0,0,0,-1,867,659,0,0
-350,365,0,0,0,0,0,0,0,0,0,-1,874,659,0,0
-343,365,0,0,0,0,0,0,0,0,0,-1,881,659,0,0
-336,365,0,0,0,0,0,0,0,0,0,-1,888,659,0,0
-329,365,0,0,0,0,0,0,0,0,0,-1,895,659,0,0
-322,365,0,0,0,0,0,0,0,0,0,-1,902,659,0,0
-315,365,0,0,0,0,0,0,0,0,0,-1,909,659,0,0
-308,365,0,0,0,0,0,0,0,0,0,-1,916,659,0,0
-301,365,0,0,0,0,0,0,0,0,0,-1,923,659,0,0
-294,365,0,0,0,0,0,0,0,0,0,-1,930,659,0,0
-287,365,0,0,0,0,0,0,0,0,0,-1,937,659,0,0
-280,365,0,0,0,0,0,0,0,0,0,-1,944,659,0,0
-273,365,0,0,0,0,0,0,0,0,0,-1,951,659,0,0
-266,365,0,0,0,0,0,0,0,0,0,-1,958,659,0,0
-259,365,0,0,0,0,0,0,0,0,0,-1,965,659,0,0
-252,365,0,0,0,0,0,0,0,0,0,-1,972,659,0,0
-245,365,0,0,0,0,0,0,0,0,0,-1,979,659,0,0
-238,365,0,0,0,0,0,0,0,0,0,-1,986,659,0,0
-231,365,0,0,0,0,0,0,0,0,0,-1,993,659,0,0
-224,365,0,0,0,0,0,0,0,0,0,-1,1000,659,0,0
-217,365,0,0,0,0,0,0,0,0,0,-1,1007,659,0,0
-210,365,0,0,0,0,0,0,0,0,0,-1,1014,659,0,0
-203,365,0,0,0,0,0,0,0,0,0,-1,1021,659,0,0
-196,365,0,0,0,0,0,0,0,0,0,-1,1028,659,0,0
-189,365,0,0,0,0,0,0,0,0,0,-1,1035,659,0,0
-182,365,0,0,0,0,0,0,0,0,0,-1,1042,659,0,0
-175,365,0,0,0,0,0,0,0,0,0,-1,1049,659,0,0
-168,365,0,0,0,0,0,0,0,0,0,-1,1056,659,0,0
-161,365,0,0,0,0,0,0,0,0,0,-1,1063,659,0,0
-154,365,0,0,0,0,0,0,0,0,0,-1,1070,659,0,0
-147,365,0,0,0,0,0,0,0,0,0,-1,1077,659,0,0
-140,365,0,0,0,0,0,0,0,0,0,-1,1084,659,0,0
-133,365,0,0,0,0,0,0,0,0,0,-1,1091,659,0,0
-126,365,0,0,0,0,0,0,0,0,0,-1,1098,659,0,0
-119,365,0,0,0,0,0,0,0,0,0,-1,1105,659,0,0
-112,365,0,0,0,0,0,0,0,0,0,-1,1112,659,0,0
-105,365,0,0,0,0,0,0,0,0,0,-1,1119,659,0,0
-98,365,0,0,0,0,0,0,0,0,0,-1,1126,659,0,0
-91,365,0,0,0,0,0,0,0,0,0,-1,1133,659,0,0
-84,365,0,0,0,0,0,0,0,0,0,-1,1140,659,0,0
-77,365,0,0,0,0,0,0,0,0,0,-1,1147,659,0,0
-70,365,0,0,0,0,0,0,0,0,0,-1,1154,659,0,0
-63,365,0,0,0,0,0,0,0,0,0,-1,1161,659,0,0
-56,365,0,0,0,0,0,0,0,0,0,-1,1168,659,0,0
-49,365,0,0,0,0,0,0,0,0,0,-1,1175,659,0,0
-42,365,0,0,0,0,0,0,0,0,0,-1,1182,659,0,0
-35,365,0,0,0,0,0,0,0,0,0,-1,1189,659,0,0
-28,365,0,0,0,0,0,0,0,0,0,-1,1196,659,0,0
-21,365,0,0,0,0,0,0,0,0,0,-1,1203,659,0,0
-14,365,0,0,0,0,0,0,0,0,0,-1,1210,659,0,0
-7,365,0,0,0,0,0,0,0,0,0,-1,1217,659,0,0
0,365,0,0,0,0,0,0,0,0,0,-1,1224,659,0,0
7,365,0,0,0,0,0,0,0,0,0,-1,1231,659,0,0
14,365,0,0,0,0,0,0,0,0,0,-1,1238,659,0,0
21,365,0,0,0,0,0,0,0,0,0,-1,1245,659,0,0
28,365,0,0,0,0,0,0,0,0,0,-1,1252,659,0,0
35,365,0,0,0,0,0,0,0,0,0,-1,1259,659,0,0
42,365,0,0,0,0,0,0,0,0,0,-1,1266,659,0,0
49,365,0,0,0,0,0,0,0,0,0,-1,1273,659,0,0
56,365,0,0,0,0,0,0,0,0,0,-1,1280,659,0,0
63,365,0,0,0,0,0,0,0,0,0,-1,1287,659,0,0
70,365,0,0,0,0,0,0,0,0,0,-1,1294,659,0,0
77,365,0,0,0,0,0,0,0,0,0,-1,1301,659,0,0
84,365,0,0,0,0,0,0,0,0,0,-1,1308,659,0,0
91,365,0,0,0,0,0,0,0,0,0,-1,1315,659,0,0
98,365,0,0,0,0,0,0,0,0,0,-1,1322,659,0,0
105,365,0,0,0,0,0,0,0,0,0,-1,1329,659,0,0
112,365,0,0,0,0,0,0,0,0,0,-1,1336,659,0,0
119,365,0,0,0,0,0,0,0,0,0,-1,1343,659,0,0
126,365,0,0,0,0,0,0,0,0,0,-1,1350,659,0,0
133,365,0,0,0,0,0,0,0,0,0,-1,1357,659,0,0
140,365,0,0,0,0,0,0,0,0,0,-1,1364,659,0,0
147,365,0,0,0,0,0,0,0,0,0,-1,1371,659,0,0
154,365,0,0,0,0,0,0,0,0,0,-1,1378,659,0,0
161,365,0,0,0,0,0,0,0,0,0,-1,1385,659,0,0
168,365,0,0,0,0,0,0,0,0,0,-1,1392,659,0,0
175,365,0,0,0,0,0,0,0,0,0,-1,1399,659,0,0
182,365,0,0,0,0,0,0,0,0,0,-1,1406,659,0,0
189,365,0,0,0,0,0,0,0,0,0,-1,1413,659,0,0
196,365,0,0,0,0,0,0,0,0,0,-1,1420,659,0,0
203,365,0,0,0,0,0,0,0,0,0,-1,1427,659,0,0
210,365,0,0,0,0,0,0,0,0,0,-1,1434,659,0,0
217,365,0,0,0,0,0,0,0,0,0,-1,1441,659,0,0
224,365,0,0,0,0,0,0,0,0,0,-1,1448,659,0,0
231,365,0,0,0,0,0,0,0,0,0,-1,1455,659,0,0
238,365,0,0,0,0,0,0,0,0,0,-1,1462,659,0,0
245,365,0,0,0,0,0,0,0,0,0,-1,1469,659,0,0
252,365,0,0,0,0,0,0,0,0,0,-1,1476,659,0,0
259,365,0,0,0,0,0,0,0,0,0,-1,1483,659,0,0
266,365,0,0,0,0,0,0,0,0,0,-1,1490,659,0,0
273,365,0,0,0,0,0,0,0,0,0,-1,1497,659,0,0
280,365,0,0,0,0,0,0,0,0,0,-1,1504,659,0,0
287,365,0,0,0,0,0,0,0,0,0,-1,1511,659,0,0
294,365,0,0,0,0,0,0,0,0,0,-1,1518,659,0,0
301,365,0,0,0,0,0,0,0,0,0,-1,1525,659,0,0
308,365,0,0,0,0,0,0,0,0,0,-1,1532,659,0,0
315,365,0,0,0,0,0,0,0,0,0,-1,1539,659,0,0
322,365,0,0,0,0,0,0,0,0,0,-1,1546,659,0,0
329,365,0,0,0,0,0,0,0,0,0,-1,1553,659,0,0
336,365,0,0,0,0,0,0,0,0,0,-1,1560,659,0,0
343,365,0,0,0,0,0,0,0,0,0,-1,1567,659,0,0
350,365,0,0,0,0,0,0,0,0,0,-1,1574,659,0,0
357,365,0,0,0,0,0,0,0,0,0,-1,1581,659,0,0
364,365,0,0,0,0,0,0,0,0,0,-1,1588,659,0,0
371,365,0,0,0,0,0,0,0,0,0,-1,1595,659,0,0
378,365,0,0,0,0,0,0,0,0,0,-1,1602,659,0,0
385,365,0,0,0,0,0,0,0,0,0,-1,1609,659,0,0
392,365,0,0,0,0,0,0,0,0,0,-1,1616,659,0,0
399,365,0,0,0,0,0,0,0,0,0,-1,1623,659,0,0
406,365,0,0,0,0,0,0,0,0,0,-1,1630,659,0,0
413,365,0,0,0,0,0,0,0,0,0,-1,1637,659,0,0
420,365,0,0,0,0,0,0,0,0,0,-1,1644,659,0,0
427,365,0,0,0,0,0,0,0,0,0,-1,1651,659,0,0
434,365,0,0,0,0,0,0,0,0,0,-1,1658,659,0,0
441,365,0,0,0,0,0,0,0,0,0,-1,1665,659,0,0
448,365,0,0,0,0,0,0,0,0,0,-1,1672,659,0,0
455,365,0,0,0,0,0,0,0,0,0,-1,1679,659,0,0
462,365,0,0,0,0,0,0,0,0,0,-1,1686,659,0,0
469,365,0,0,0,0,0,0,0,0,0,-1,1693,659,0,0
476,365,0,0,0,0,0,0,0,0,0,-1,1700,659,0,0
483,365,0,0,0,0,0,0,0,0,0,-1,1707,659,0,0
490,365,8.39551,0.471252,0,0,0,0,0,0,0,-1,1714,659,8.39551,-0.471241
497,365,9.89233,1.35394,0,0,0,0,0,0,0,-1,1721,659,9.89237,-1.35396
504,365,10.1414,1.18005,0,0,0,0,0,0,0,-1,1728,659,10.1413,-1.18004
511,365,10.5151,0.993896,0,0,0,0,0,0,0,-1,1735,659,10.5152,-0.993894
518,365,11.2029,0.398132,0,0,0,0,0,0,0,-1,1742,659,11.2029,-0.398136
525,365,15.5748,3.85303,0,0,0,0,0,0,0,-1,1749,659,15.5748,-3.85303
532,365,11.2446,1.00629,0,0,0,0,0,0,0,-1,1756,659,11.2446,-1.00631
539,365,12.6301,1.03204,0,0,0,0,0,0,0,-1,1763,659,12.6302,-1.03204
546,365,11.647,0.84198,0,0,0,0,0,0,0,-1,1770,659,11.6469,-0.841955
553,365,12.028,-0.558899,0,0,0,0,0,0,0,-1,1777,659,12.028,0.558873
560,365,14.5372,-4.55548,0,0,0,0,0,0,0,-1,1784,659,14.5373,4.55547
567,365,20.5676,-7.53888,0,0,0,0,0,0,0,-1,1791,659,20.5676,7.53887
574,365,35.6549,-15.6227,0,0,0,0,0,0,0,-1,1798,659,35.6549,15.6228
581,365,35.3533,-14.8417,0,0,0,0,0,0,0,-1,1805,659,35.3532,14.8418
588,365,35.2607,-14.2066,0.000421744,0.00124411,0.000337086,0.00136462,0.000301233,1.22745,0.00082781,0.025936,1812,659,35.2608,14.2066
595,365,35.2061,-13.1606,0.000655379,0.00139937,0.000635528,0.00176377,0.00029098,1.05018,0.00109185,0.0138178,1819,659,35.206,13.1606
602,365,35.1449,-12.2307,0.00106245,0.00158451,0.000950014,0.0023087,0.000338254,0.919472,0.00143969,0.017775,1826,659,35.1448,12.2307
609,365,35.0112,-11.3144,0.00149366,0.00182765,0.00124931,0.00292107,0.000400237,0.85184,0.00182863,0.0201845,1833,659,35.0112,11.3144
616,365,34.9866,-10.4115,0.00195893,0.00217208,0.0015394,0.00360859,0.000522422,0.81996,0.00225187,0.0213698,1840,659,34.9866,10.4115
623,365,34.9926,-9.53912,0.00253804,0.00254881,0.00185299,0.00439642,0.000690431,0.786852,0.00273006,0.0124167,1847,659,34.9926,9.53913
630,365,34.96,-8.64258,0.00301557,0.00300331,0.00213286,0.00514231,0.000876568,0.783961,0.00317659,0.015791,1854,659,34.9599,8.64257
637,365,34.9236,-7.77228,0.00337639,0.00350235,0.00233488,0.00577509,0.00110364,0.798882,0.00354,0.0214352,1861,659,34.9236,7.77228
644,365,34.8944,-6.89313,0.00360691,0.00422289,0.00256281,0.00649615,0.00133366,0.8452,0.00396176,0.0264542,1868,659,34.8944,6.89311
651,365,34.9253,-5.96234,0,0,0,0,0,0,0,-1,1875,659,34.9253,5.96237
658,365,24.745,-2.13275,0,0,0,0,0,0,0,-1,1882,659,24.745,2.13277
665,365,14.0961,0.769043,0,0,0,0,0,0,0,-1,1889,659,14.0961,-0.769063
672,365,10.0579,2.15088,0,0,0,0,0,0,0,-1,1896,659,10.0579,-2.15088
679,365,10.9718,2.19208,0,0,0,0,0,0,0,-1,1903,659,10.9718,-2.19211
686,365,12.2134,2.17108,0,0,0,0,0,0,0,-1,1910,659,12.2134,-2.17109
693,365,13.7141,1.98279,0,0,0,0,0,0,0,-1,1917,659,13.7141,-1.98278
700,365,0,0,0,0,0,0,0,0,0,-1,1924,659,0,0
707,365,0,0,0,0,0,0,0,0,0,-1,1931,659,0,0
714,365,0,0,0,0,0,0,0,0,0,-1,1938,659,0,0
721,365,0,0,0,0,0,0,0,0,0,-1,1945,659,0,0
728,365,0,0,0,0,0,0,0,0,0,-1,1952,659,0,0
735,365,0,0,0,0,0,0,0,0,0,-1,1959,659,0,0
742,365,0,0,0,0,0,0,0,0,0,-1,1966,659,0,0
749,365,0,0,0,0,0,0,0,0,0,-1,1973,659,0,0
756,365,0,0,0,0,0,0,0,0,0,-1,1980,659,0,0
763,365,0,0,0,0,0,0,0,0,0,-1,1987,659,0,0
770,365,0,0,0,0,0,0,0,0,0,-1,1994,659,0,0
777,365,0,0,0,0,0,0,0,0,0,-1,2001,659,0,0
784,365,0,0,0,0,0,0,0,0,0,-1,2008,659,0,0
791,365,0,0,0,0,0,0,0,0,0,-1,2015,659,0,0
798,365,0,0,0,0,0,0,0,0,0,-1,2022,659,0,0
805,365,0,0,0,0,0,0,0,0,0,-1,2029,659,0,0
812,365,0,0,0,0,0,0,0,0,0,-1,2036,659,0,0
-700,358,0,0,0,0,0,0,0,0,0,-1,524,666,0,0
-693,358,0,0,0,0,0,0,0,0,0,-1,531,666,0,0
-686,358,0,0,0,0,0,0,0,0,0,-1,538,666,0,0
-679,358,0,0,0,0,0,0,0,0,0,-1,545,666,0,0
-672,358,0,0,0,0,0,0,0,0,0,-1,552,666,0,0
-665,358,0,0,0,0,0,0,0,0,0,-1,559,666,0,0
-658,358,0,0,0,0,0,0,0,0,0,-1,566,666,0,0
-651,358,0,0,0,0,0,0,0,0,0,-1,573,666,0,0
-644,358,0,0,0,0,0,0,0,0,0,-1,580,666,0,0
-637,358,0,0,0,0,0,0,0,0,0,-1,587,666,0,0
-630,358,0,0,0,0,0,0,0,0,0,-1,594,666,0,0
-623,358,0,0,0,0,0,0,0,0,0,-1,601,666,0,0
-616,358,0,0,0,0,0,0,0,0,0,-1,608,666,0,0
-609,358,0,0,0,0,0,0,0,0,0,-1,615,666,0,0
-602,358,0,0,0,0,0,0,0,0,0,-1,622,666,0,0
-595,358,0,0,0,0,0,0,0,0,0,-1,629,666,0,0
-588,358,0,0,0,0,0,0,0,0,0,-1,636,666,0,0
-581,358,-8.31616,1.61993,0,0,0,0,0,0,0,-1,643,666,-8.31614,-1.61993
-574,358,-8.22406,1.75385,0,0,0,0,0,0,0,-1,650,666,-8.22408,-1.75383
-567,358,-8.14215,1.91577,0,0,0,0,0,0,0,-1,657,666,-8.14214,-1.91579
-560,358,-10.6086,2.18872,0,0,0,0,0,0,0,-1,664,666,-10.6086,-2.18873
-553,358,-13.4767,1.09552,0,0,0,0,0,0,0,-1,671,666,-13.4767,-1.09551
-546,358,-13.3743,-0.185059,0,0,0,0,0,0,0,-1,678,666,-13.3743,0.185037
-539,358,-9.43884,-2.04785,0,0,0,0,0,0,0,-1,685,666,-9.43884,2.04785
-532,358,-12.4141,-2.36572,0,0,0,0,0,0,0,-1,692,666,-12.4141,2.3657
-525,358,-12.731,-3.88031,0,0,0,0,0,0,0,-1,699,666,-12.731,3.88029
-518,358,-20.7864,-7.5481,0,0,0,0,0,0,0,-1,706,666,-20.7864,7.54807
-511,358,-20.8167,-8.42865,0.00259061,0.000259776,-0.0014069,0.00325209,-0.000401704,-0.4395,0.00231362,0.0181757,713,666,-20.8167,8.42866
-504,358,-20.8544,-9.32471,0.00212832,0.00011975,-0.00103837,0.00256862,-0.000320544,-0.401042,0.00182865,0.0129063,720,666,-20.8544,9.32471
-497,358,-20.8838,-10.2499,0.00174478,4.11167e-05,-0.000775156,0.00204468,-0.000258782,-0.369153,0.00145706,0.0120942,727,666,-20.8838,10.2499
-490,358,-20.9433,-11.1328,0.00141342,1.83524e-06,-0.000605627,0.00163764,-0.000222386,-0.354583,0.00117294,0.0113185,734,666,-20.9433,11.1327
-483,358,-21.0224,-11.9857,0.00119029,2.90485e-05,-0.000548798,0.00140861,-0.000189267,-0.378614,0.0010081,0.00998797,741,666,-21.0224,11.9857
-476,358,-21.0106,-12.8482,0.0010591,0.000117938,-0.000597042,0.00134872,-0.000171682,-0.451649,0.000961498,0.0142847,748,666,-21.0106,12.8482
-469,358,-21.0933,-13.7221,0.0010587,0.000246934,-0.000755941,0.00151083,-0.000205198,-0.539024,0.00108212,0.01854,755,666,-21.0933,13.7221
-462,358,-21.2333,-14.6263,0.00119781,0.00042505,-0.00102003,0.00190218,-0.000279322,-0.604351,0.00137075,0.0187606,762,666,-21.2333,14.6264
-455,358,-21.2273,-15.5184,0,0,0,0,0,0,0,-1,769,666,-21.2273,15.5184
-448,358,-17.7847,-14.434,0,0,0,0,0,0,0,-1,776,666,-17.7847,14.434
-441,358,-5.56293,-3.98041,0,0,0,0,0,0,0,-1,783,666,-5.56291,3.98043
-434,358,-5.21558,-4.43127,0,0,0,0,0,0,0,-1,790,666,-5.21559,4.43125
-427,358,-3.56189,-3.15729,0,0,0,0,0,0,0,-1,797,666,-3.56192,3.15729
-420,358,0.200195,1.08234,0,0,0,0,0,0,0,-1,804,666,0.200174,-1.08231
-413,358,0.0325317,0.161072,0,0,0,0,0,0,0,-1,811,666,0.0325501,-0.161098
-406,358,-3.85846,0.753113,0,0,0,0,0,0,0,-1,818,666,-3.85846,-0.753129
-399,358,-1.31213,0.190735,0,0,0,0,0,0,0,-1,825,666,-1.31215,-0.190763
-392,358,-3.73914,-0.832214,0,0,0,0,0,0,0,-1,832,666,-3.73915,0.832202
-385,358,-5.95178,-1.69141,0,0,0,0,0,0,0,-1,839,666,-5.9518,1.69143
-378,358,0,0,0,0,0,0,0,0,0,-1,846,666,0,0
-371,358,0,0,0,0,0,0,0,0,0,-1,853,666,0,0
-364,358,0,0,0,0,0,0,0,0,0,-1,860,666,0,0
-357,358,0,0,0,0,0,0,0,0,0,-1,867,666,0,0
-350,358,0,0,0,0,0,0,0,0,0,-1,874,666,0,0
-343,358,0,0,0,0,0,0,0,0,0,-1,881,666,0,0
-336,358,0,0,0,0,0,0,0,0,0,-1,888,666,0,0
-329,358,0,0,0,0,0,0,0,0,0,-1,895,666,0,0
-322,358,0,0,0,0,0,0,0,0,0,-1,902,666,0,0
-315,358,0,0,0,0,0,0,0,0,0,-1,909,666,0,0
-308,358,0,0,0,0,0,0,0,0,0,-1,916,666,0,0
-301,358,0,0,0,0,0,0,0,0,0,-1,923,666,0,0
-294,358,0,0,0,0,0,0,0,0,0,-1,930,666,0,0
-287,358,0,0,0,0,0,0,0,0,0,-1,937,666,0,0
-280,358,0,0,0,0,0,0,0,0,0,-1,944,666,0,0
-273,358,0,0,0,0,0,0,0,0,0,-1,951,666,0,0
-266,358,0,0,0,0,0,0,0,0,0,-1,958,666,0,0
-259,358,0,0,0,0,0,0,0,0,0,-1,965,666,0,0
-252,358,0,0,0,0,0,0,0,0,0,-1,972,666,0,0
-245,358,0,0,0,0,0,0,0,0,0,-1,979,666,0,0
-238,358,0,0,0,0,0,0,0,0,0,-1,986,666,0,0
-231,358,0,0,0,0,0,0,0,0,0,-1,993,666,0,0
-224,358,0,0,0,0,0,0,0,0,0,-1,1000,666,0,0
-217,358,0,0,0,0,0,0,0,0,0,-1,1007,666,0,0
-210,358,0,0,0,0,0,0,0,0,0,-1,1014,666,0,0
-203,358,0,0,0,0,0,0,0,0,0,-1,1021,666,0,0
-196,358,0,0,0,0,0,0,0,0,0,-1,1028,666,0,0
-189,358,0,0,0,0,0,0,0,0,0,-1,1035,666,0,0
-182,358,0,0,0,0,0,0,0,0,0,-1,1042,666,0,0
-175,358,0,0,0,0,0,0,0,0,0,-1,1049,666,0,0
-168,358,0,0,0,0,0,0,0,0,0,-1,1056,666,0,0
-161,358,0,0,0,0,0,0,0,0,0,-1,1063,666,0,0
-154,358,0,0,0,0,0,0,0,0,0,-1,1070,666,0,0
-147,358,0,0,0,0,0,0,0,0,0,-1,1077,666,0,0
-140,358,0,0,0,0,0,0,0,0,0,-1,1084,666,0,0
-133,358,0,0,0,0,0,0,0,0,0,-1,1091,666,0,0
-126,358,0,0,0,0,0,0,0,0,0,-1,1098,666,0,0
-119,358,0,0,0,0,0,0,0,0,0,-1,1105,666,0,0
-112,358,0,0,0,0,0,0,0,0,0,-1,1112,666,0,0
-105,358,0,0,0,0,0,0,0,0,0,-1,1119,666,0,0
-98,358,0,0,0,0,0,0,0,0,0,-1,1126,666,0,0
-91,358,0,0,0,0,0,0,0,0,0,-1,1133,666,0,0
-84,358,0,0,0,0,0,0,0,0,0,-1,1140,666,0,0
-77,358,0,0,0,0,0,0,0,0,0,-1,1147,666,0,0
-70,358,0,0,0,0,0,0,0,0,0,-1,1154,666,0,0
-63,358,0,0,0,0,0,0,0,0,0,-1,1161,666,0,0
-56,358,0,0,0,0,0,0,0,0,0,-1,1168,666,0,0
-49,358,0,0,0,0,0,0,0,0,0,-1,1175,666,0,0
-42,358,0,0,0,0,0,0,0,0,0,-1,1182,666,0,0
-35,358,0,0,0,0,0,0,0,0,0,-1,1189,666,0,0
-28,358,0,0,0,0,0,0,0,0,0,-1,1196,666,0,0
-21,358,0,0,0,0,0,0,0,0,0,-1,1203,666,0,0
-14,358,0,0,0,0,0,0,0,0,0,-1,1210,666,0,0
-7,358,0,0,0,0,0,0,0,0,0,-1,1217,666,0,0
0,358,0,0,0,0,0,0,0,0,0,-1,1224,666,0,0
7,358,0,0,0,0,0,0,0,0,0,-1,1231,666,0,0
14,358,0,0,0,0,0,0,0,0,0,-1,1238,666,0,0
21,358,0,0,0,0,0,0,0,0,0,-1,1245,666,0,0
28,358,0,0,0,0,0,0,0,0,0,-1,1252,666,0,0
35,358,0,0,0,0,0,0,0,0,0,-1,1259,666,0,0
42,358,0,0,0,0,0,0,0,0,0,-1,1266,666,0,0
49,358,0,0,0,0,0,0,0,0,0,-1,1273,666,0,0
56,358,0,0,0,0,0,0,0,0,0,-1,1280,666,0,0
63,358,0,0,0,0,0,0,0,0,0,-1,1287,666,0,0
70,358,0,0,0,0,0,0,0,0,0,-1,1294,666,0,0
77,358,0,0,0,0,0,0,0,0,0,-1,1301,666,0,0
84,358,0,0,0,0,0,0,0,0,0,-1,1308,666,0,0
91,358,0,0,0,0,0,0,0,0,0,-1,1315,666,0,0
98,358,0,0,0,0,0,0,0,0,0,-1,1322,666,0,0
105,358,0,0,0,0,0,0,0,0,0,-1,1329,666,0,0
112,358,0,0,0,0,0,0,0,0,0,-1,1336,666,0,0
119,358,0,0,0,0,0,0,0,0,0,-1,1343,666,0,0
126,358,0,0,0,0,0,0,0,0,0,-1,1350,666,0,0
133,358,0,0,0,0,0,0,0,0,0,-1,1357,666,0,0
140,358,0,0,0,0,0,0,0,0,0,-1,1364,666,0,0
147,358,0,0,0,0,0,0,0,0,0,-1,1371,666,0,0
154,358,0,0,0,0,0,0,0,0,0,-1,1378,666,0,0
161,358,0,0,0,0,0,0,0,0,0,-1,1385,666,0,0
168,358,0,0,0,0,0,0,0,0,0,-1,1392,666,0,0
175,358,0,0,0,0,0,0,0,0,0,-1,1399,666,0,0
182,358,0,0,0,0,0,0,0,0,0,-1,1406,666,0,0
189,358,0,0,0,0,0,0,0,0,0,-1,1413,666,0,0
196,358,0,0,0,0,0,0,0,0,0,-1,1420,666,0,0
203,358,0,0,0,0,0,0,0,0,0,-1,1427,666,0,0
210,358,0,0,0,0,0,0,0,0,0,-1,1434,666,0,0
217,358,0,0,0,0,0,0,0,0,0,-1,1441,666,0,0
224,358,0,0,0,0,0,0,0,0,0,-1,1448,666,0,0
231,358,0,0,0,0,0,0,0,0,0,-1,1455,666,0,0
238,358,0,0,0,0,0,0,0,0,0,-1,1462,666,0,0
245,358,0,0,0,0,0,0,0,0,0,-1,1469,666,0,0
252,358,0,0,0,0,0,0,0,0,0,-1,1476,666,0,0
259,358,0,0,0,0,0,0,0,0,0,-1,1483,666,0,0
266,358,0,0,0,0,0,0,0,0,0,-1,1490,666,0,0
273,358,0,0,0,0,0,0,0,0,0,-1,1497,666,0,0
280,358,0,0,0,0,0,0,0,0,0,-1,1504,666,0,0
287,358,0,0,0,0,0,0,0,0,0,-1,1511,666,0,0
294,358,0,0,0,0,0,0,0,0,0,-1,1518,666,0,0
301,358,0,0,0,0,0,0,0,0,0,-1,1525,666,0,0
308,358,0,0,0,0,0,0,0,0,0,-1,1532,666,0,0
315,358,0,0,0,0,0,0,0,0,0,-1,1539,666,0,0
322,358,0,0,0,0,0,0,0,0,0,-1,1546,666,0,0
329,358,0,0,0,0,0,0,0,0,0,-1,1553,666,0,0
336,358,0,0,0,0,0,0,0,0,0,-1,1560,666,0,0
343,358,0,0,0,0,0,0,0,0,0,-1,1567,666,0,0
350,358,0,0,0,0,0,0,0,0,0,-1,1574,666,0,0
357,358,0,0,0,0,0,0,0,0,0,-1,1581,666,0,0
364,358,0,0,0,0,0,0,0,0,0,-1,1588,666,0,0
371,358,0,0,0,0,0,0,0,0,0,-1,1595,666,0,0
378,358,0,0,0,0,0,0,0,0,0,-1,1602,666,0,0
385,358,0,0,0,0,0,0,0,0,0,-1,1609,666,0,0
392,358,0,0,0,0,0,0,0,0,0,-1,1616,666,0,0
399,358,0,0,0,0,0,0,0,0,0,-1,1623,666,0,0
406,358,0,0,0,0,0,0,0,0,0,-1,1630,666,0,0
413,358,0,0,0,0,0,0,0,0,0,-1,1637,666,0,0
420,358,0,0,0,0,0,0,0,0,0,-1,1644,666,0,0
427,358,0,0,0,0,0,0,0,0,0,-1,1651,666,0,0
434,358,0,0,0,0,0,0,0,0,0,-1,1658,666,0,0
441,358,0,0,0,0,0,0,0,0,0,-1,1665,666,0,0
448,358,0,0,0,0,0,0,0,0,0,-1,1672,666,0,0
455,358,0,0,0,0,0,0,0,0,0,-1,1679,666,0,0
462,358,0,0,0,0,0,0,0,0,0,-1,1686,666,0,0
469,358,0,0,0,0,0,0,0,0,0,-1,1693,666,0,0
476,358,0,0,0,0,0,0,0,0,0,-1,1700,666,0,0
483,358,0,0,0,0,0,0,0,0,0,-1,1707,666,0,0
490,358,0,0,0,0,0,0,0,0,0,-1,1714,666,0,0
497,358,8.57239,1.1322,0,0,0,0,0,0,0,-1,1721,666,8.57234,-1.13219
504,358,10.5972,0.832947,0,0,0,0,0,0,0,-1,1728,666,10.5972,-0.832968
511,358,10.6873,0.868469,0,0,0,0,0,0,0,-1,1735,666,10.6872,-0.868484
518,358,16.5884,2.34894,0,0,0,0,0,0,0,-1,1742,666,16.5884,-2.34894
525,358,15.7626,3.65344,0,0,0,0,0,0,0,-1,1749,666,15.7626,-3.65342
532,358,14.9368,4.95789,0,0,0,0,0,0,0,-1,1756,666,14.9367,-4.9579
539,358,15.1597,3.42694,0,0,0,0,0,0,0,-1,1763,666,15.1597,-3.42692
546,358,12.3792,1.53558,0,0,0,0,0,0,0,-1,1770,666,12.3792,-1.5356
553,358,11.6584,1.26172,0,0,0,0,0,0,0,-1,1777,666,11.6585,-1.26175
560,358,10.8234,1.43042,0,0,0,0,0,0,0,-1,1784,666,10.8233,-1.43041
567,358,10.1333,-0.955139,0,0,0,0,0,0,0,-1,1791,666,10.1333,0.955132
574,358,14.7886,-2.69293,0,0,0,0,0,0,0,-1,1798,666,14.7885,2.6929
581,358,20.1738,-6.76135,0,0,0,0,0,0,0,-1,1805,666,20.1738,6.76137
588,358,35.9441,-14.2122,0,0,0,0,0,0,0,-1,1812,666,35.9441,14.2122
595,358,36.0629,-13.1077,0.0004571,0.00135424,0.000598181,0.00165336,0.000157984,1.10711,0.00105353,0.0176092,1819,666,36.0629,13.1077
602,358,35.9836,-12.1427,0.000842795,0.00143025,0.000819936,0.00200748,0.000265562,0.957393,0.00125917,0.0144549,1826,666,35.9836,12.1427
609,358,35.8805,-11.232,0.00123436,0.00154764,0.00103093,0.00243376,0.000348238,0.860791,0.00151978,0.0191389,1833,666,35.8805,11.232
616,358,35.8555,-10.3593,0.00160842,0.00175574,0.00123002,0.0029143,0.000449859,0.815305,0.00181163,0.0180825,1840,666,35.8555,10.3593
623,358,35.8988,-9.50818,0.00206456,0.00199663,0.00143944,0.00347043,0.000590753,0.773602,0.00214401,0.0154558,1847,666,35.8988,9.50816
630,358,35.8501,-8.62134,0.0024317,0.00233467,0.00164862,0.00403252,0.00073385,0.770688,0.00248019,0.0189051,1854,666,35.8501,8.62136
637,358,35.7756,-7.75409,0.00270387,0.0026821,0.00178089,0.0044739,0.000912064,0.782342,0.00272985,0.0262808,1861,666,35.7756,7.75411
644,358,35.7527,-6.86591,0.00287656,0.00315378,0.00190758,0.00492778,0.00110256,0.821666,0.0029863,0.0208168,1868,666,35.7527,6.86589
651,358,35.7798,-5.94244,0,0,0,0,0,0,0,-1,1875,666,35.7797,5.94243
658,358,35.5319,-4.67999,0,0,0,0,0,0,0,-1,1882,666,35.5319,4.67999
665,358,28.0272,-2.07764,0,0,0,0,0,0,0,-1,1889,666,28.0272,2.07764
672,358,12.4299,1.47272,0,0,0,0,0,0,0,-1,1896,666,12.4299,-1.4727
679,358,12.1294,2.19702,0,0,0,0,0,0,0,-1,1903,666,12.1294,-2.19703
686,358,11.9557,2.2002,0,0,0,0,0,0,0,-1,1910,666,11.9557,-2.20021
693,358,13.188,2.52203,0,0,0,0,0,0,0,-1,1917,666,13.188,-2.52202
700,358,0,0,0,0,0,0,0,0,0,-1,1924,666,0,0
707,358,0,0,0,0,0,0,0,0,0,-1,1931,666,0,0
714,358,0,0,0,0,0,0,0,0,0,-1,1938,666,0,0
721,358,0,0,0,0,0,0,0,0,0,-1,1945,666,0,0
728,358,0,0,0,0,0,0,0,0,0,-1,1952,666,0,0
735,358,0,0,0,0,0,0,0,0,0,-1,1959,666,0,0
742,358,0,0,0,0,0,0,0,0,0,-1,1966,666,0,0
749,358,0,0,0,0,0,0,0,0,0,-1,1973,666,0,0
756,358,0,0,0,0,0,0,0,0,0,-1,1980,666,0,0
763,358,0,0,0,0,0,0,0,0,0,-1,1987,666,0,0
770,358,0,0,0,0,0,0,0,0,0,-1,1994,666,0,0
777,358,0,0,0,0,0,0,0,0,0,-1,2001,666,0,0
784,358,0,0,0,0,0,0,0,0,0,-1,2008,666,0,0
791,358,0,0,0,0,0,0,0,0,0,-1,2015,666,0,0
798,358,0,0,0,0,0,0,0,0,0,-1,2022,666,0,0
805,358,0,0,0,0,0,0,0,0,0,-1,2029,666,0,0
812,358,0,0,0,0,0,0,0,0,0,-1,2036,666,0,0
-700,351,0,0,0,0,0,0,0,0,0,-1,524,673,0,0
-693,351,0,0,0,0,0,0,0,0,0,-1,531,673,0,0
-686,351,0,0,0,0,0,0,0,0,0,-1,538,673,0,0
-679,351,0,0,0,0,0,0,0,0,0,-1,545,673,0,0
-672,351,0,0,0,0,0,0,0,0,0,-1,552,673,0,0
-665,351,0,0,0,0,0,0,0,0,0,-1,559,673,0,0
-658,351,0,0,0,0,0,0,0,0,0,-1,566,673,0,0
-651,351,0,0,0,0,0,0,0,0,0,-1,573,673,0,0
-644,351,0,0,0,0,0,0,0,0,0,-1,580,673,0,0
-637,351,0,0,0,0,0,0,0,0,0,-1,587,673,0,0
-630,351,0,0,0,0,0,0,0,0,0,-1,594,673,0,0
-623,351,0,0,0,0,0,0,0,0,0,-1,601,673,0,0
-616,351,0,0,0,0,0,0,0,0,0,-1,608,673,0,0
-609,351,0,0,0,0,0,0,0,0,0,-1,615,673,0,0
-602,351,0,0,0,0,0,0,0,0,0,-1,622,673,0,0
-595,351,0,0,0,0,0,0,0,0,0,-1,629,673,0,0
-588,351,0,0,0,0,0,0,0,0,0,-1,636,673,0,0
-581,351,-9.0647,1.71906,0,0,0,0,0,0,0,-1,643,673,-9.06472,-1.71908
-574,351,-8.23584,2.64764,0,0,0,0,0,0,0,-1,650,673,-8.23584,-2.64764
-567,351,-10.8027,4.56836,0,0,0,0,0,0,0,-1,657,673,-10.8027,-4.56839
-560,351,-14.2001,2.17084,0,0,0,0,0,0,0,-1,664,673,-14.2002,-2.17086
-553,351,-13.4979,0.779541,0,0,0,0,0,0,0,-1,671,673,-13.4978,-0.779519
-546,351,-14.0065,0.73645,0,0,0,0,0,0,0,-1,678,673,-14.0065,-0.736473
-539,351,-12.8123,-1.46393,0,0,0,0,0,0,0,-1,685,673,-12.8123,1.46395
-532,351,-16.0198,-4.03937,0,0,0,0,0,0,0,-1,692,673,-16.0198,4.03936
-525,351,-21.6901,-6.55768,0,0,0,0,0,0,0,-1,699,673,-21.6901,6.55768
-518,351,-21.6519,-7.44904,0.00295828,0.00105896,-0.0020579,0.00427508,-0.000257837,-0.569222,0.00293977,0.0232548,706,673,-21.6518,7.44905
-511,351,-21.6755,-8.3844,0.00248083,0.000547025,-0.00135808,0.00318104,-0.000153194,-0.476044,0.00217356,0.012321,713,673,-21.6755,8.38438
-504,351,-21.7417,-9.2663,0.00202222,0.000261409,-0.000932847,0.00242451,-0.000140885,-0.407156,0.00166529,0.011984,720,673,-21.7417,9.26632
-497,351,-21.794,-10.1597,0.00164596,7.12401e-05,-0.000627419,0.00186537,-0.000148172,-0.336413,0.0012958,0.0115697,727,673,-21.794,10.1597
-490,351,-21.8354,-11.0389,0.00133757,6.86245e-06,-0.000466718,0.00148494,-0.000140509,-0.305853,0.00103996,0.0109994,734,673,-21.8354,11.0389
-483,351,-21.8877,-11.9046,0.00114068,5.84113e-05,-0.000445863,0.0013007,-0.000101611,-0.344586,0.00090291,0.0129087,741,673,-21.8877,11.9046
-476,351,-21.9559,-12.7747,0.00102544,0.00019504,-0.000555889,0.00130407,-8.3592e-05,-0.464637,0.000898544,0.0122374,748,673,-21.956,12.7746
-469,351,-21.9871,-13.6331,0.00103192,0.000401447,-0.000792983,0.00157003,-0.000136661,-0.59621,0.00109508,0.0142325,755,673,-21.9871,13.633
-462,351,-22.0446,-14.5988,0.00116498,0.000708279,-0.00118104,0.00213954,-0.000266279,-0.689903,0.0015229,0.0387422,762,673,-22.0446,14.5988
-455,351,-22.0259,-15.5771,0,0,0,0,0,0,0,-1,769,673,-22.0259,15.5771
-448,351,-6.61456,-4.38654,0,0,0,0,0,0,0,-1,776,673,-6.61456,4.38654
-441,351,-4.31567,-2.3009,0,0,0,0,0,0,0,-1,783,673,-4.31565,2.30089
-434,351,-3.81708,-2.28003,0,0,0,0,0,0,0,-1,790,673,-3.81706,2.28006
-427,351,-2.05157,-2.7785,0,0,0,0,0,0,0,-1,797,673,-2.05157,2.77848
-420,351,-1.06989,-2.43665,0,0,0,0,0,0,0,-1,804,673,-1.06991,2.43663
-413,351,-0.392334,-2.06671,0,0,0,0,0,0,0,-1,811,673,-0.392363,2.06672
-406,351,-1.86316,-2.58105,0,0,0,0,0,0,0,-1,818,673,-1.86313,2.58106
-399,351,1.00952,-1.53455,0,0,0,0,0,0,0,-1,825,673,1.00954,1.53457
-392,351,-1.02197,0.877136,0,0,0,0,0,0,0,-1,832,673,-1.02195,-0.877143
-385,351,-1.47205,1.04437,0,0,0,0,0,0,0,-1,839,673,-1.47207,-1.04435
-378,351,0,0,0,0,0,0,0,0,0,-1,846,673,0,0
-371,351,0,0,0,0,0,0,0,0,0,-1,853,673,0,0
-364,351,0,0,0,0,0,0,0,0,0,-1,860,673,0,0
-357,351,0,0,0,0,0,0,0,0,0,-1,867,673,0,0
-350,351,0,0,0,0,0,0,0,0,0,-1,874,673,0,0
-343,351,0,0,0,0,0,0,0,0,0,-1,881,673,0,0
-336,351,0,0,0,0,0,0,0,0,0,-1,888,673,0,0
-329,351,0,0,0,0,0,0,0,0,0,-1,895,673,0,0
-322,351,0,0,0,0,0,0,0,0,0,-1,902,673,0,0
-315,351,0,0,0,0,0,0,0,0,0,-1,909,673,0,0
-308,351,0,0,0,0,0,0,0,0,0,-1,916,673,0,0
-301,351,0,0,0,0,0,0,0,0,0,-1,923,673,0,0
-294,351,0,0,0,0,0,0,0,0,0,-1,930,673,0,0
-287,351,0,0,0,0,0,0,0,0,0,-1,937,673,0,0
-280,351,0,0,0,0,0,0,0,0,0,-1,944,673,0,0
-273,351,0,0,0,0,0,0,0,0,0,-1,951,673,0,0
-266,351,0,0,0,0,0,0,0,0,0,-1,958,673,0,0
-259,351,0,0,0,0,0,0,0,0,0,-1,965,673,0,0
-252,351,0,0,0,0,0,0,0,0,0,-1,972,673,0,0
-245,351,0,0,0,0,0,0,0,0,0,-1,979,673,0,0
-238,351,0,0,0,0,0,0,0,0,0,-1,986,673,0,0
-231,351,0,0,0,0,0,0,0,0,0,-1,993,673,0,0
-224,351,0,0,0,0,0,0,0,0,0,-1,1000,673,0,0
-217,351,0,0,0,0,0,0,0,0,0,-1,1007,673,0,0
-210,351,0,0,0,0,0,0,0,0,0,-1,1014,673,0,0
-203,351,0,0,0,0,0,0,0,0,0,-1,1021,673,0,0
-196,351,0,0,0,0,0,0,0,0,0,-1,1028,673,0,0
-189,351,0,0,0,0,0,0,0,0,0,-1,1035,673,0,0
-182,351,0,0,0,0,0,0,0,0,0,-1,1042,673,0,0
-175,351,0,0,0,0,0,0,0,0,0,-1,1049,673,0,0
-168,351,0,0,0,0,0,0,0,0,0,-1,1056,673,0,0
-161,351,0,0,0,0,0,0,0,0,0,-1,1063,673,0,0
-154,351,0,0,0,0,0,0,0,0,0,-1,1070,673,0,0
-147,351,0,0,0,0,0,0,0,0,0,-1,1077,673,0,0
-140,351,0,0,0,0,0,0,0,0,0,-1,1084,673,0,0
-133,351,0,0,0,0,0,0,0,0,0,-1,1091,673,0,0
-126,351,0,0,0,0,0,0,0,0,0,-1,1098,673,0,0
-119,351,0,0,0,0,0,0,0,0,0,-1,1105,673,0,0
-112,351,0,0,0,0,0,0,0,0,0,-1,1112,673,0,0
-105,351,0,0,0,0,0,0,0,0,0,-1,1119,673,0,0
-98,351,0,0,0,0,0,0,0,0,0,-1,1126,673,0,0
-91,351,0,0,0,0,0,0,0,0,0,-1,1133,673,0,0
-84,351,0,0,0,0,0,0,0,0,0,-1,1140,673,0,0
-77,351,0,0,0,0,0,0,0,0,0,-1,1147,673,0,0
-70,351,0,0,0,0,0,0,0,0,0,-1,1154,673,0,0
-63,351,0,0,0,0,0,0,0,0,0,-1,1161,673,0,0
-56,351,0,0,0,0,0,0,0,0,0,-1,1168,673,0,0
-49,351,0,0,0,0,0,0,0,0,0,-1,1175,673,0,0
-42,351,0,0,0,0,0,0,0,0,0,-1,1182,673,0,0
-35,351,0,0,0,0,0,0,0,0,0,-1,1189,673,0,0
-28,351,0,0,0,0,0,0,0,0,0,-1,1196,673,0,0
-21,351,0,0,0,0,0,0,0,0,0,-1,1203,673,0,0
-14,351,0,0,0,0,0,0,0,0,0,-1,1210,673,0,0
-7,351,0,0,0,0,0,0,0,0,0,-1,1217,673,0,0
0,351,0,0,0,0,0,0,0,0,0,-1,1224,673,0,0
7,351,0,0,0,0,0,0,0,0,0,-1,1231,673,0,0
14,351,0,0,0,0,0,0,0,0,0,-1,1238,673,0,0
21,351,0,0,0,0,0,0,0,0,0,-1,1245,673,0,0
28,351,0,0,0,0,0,0,0,0,0,-1,1252,673,0,0
35,351,0,0,0,0,0,0,0,0,0,-1,1259,673,0,0
42,351,0,0,0,0,0,0,0,0,0,-1,1266,673,0,0
49,351,0,0,0,0,0,0,0,0,0,-1,1273,673,0,0
56,351,0,0,0,0,0,0,0,0,0,-1,1280,673,0,0
63,351,0,0,0,0,0,0,0,0,0,-1,1287,673,0,0
70,351,0,0,0,0,0,0,0,0,0,-1,1294,673,0,0
77,351,0,0,0,0,0,0,0,0,0,-1,1301,673,0,0
84,351,0,0,0,0,0,0,0,0,0,-1,1308,673,0,0
91,351,0,0,0,0,0,0,0,0,0,-1,1315,673,0,0
98,351,0,0,0,0,0,0,0,0,0,-1,1322,673,0,0
105,351,0,0,0,0,0,0,0,0,0,-1,1329,673,0,0
112,351,0,0,0,0,0,0,0,0,0,-1,1336,673,0,0
119,351,0,0,0,0,0,0,0,0,0,-1,1343,673,0,0
126,351,0,0,0,0,0,0,0,0,0,-1,1350,673,0,0
133,351,0,0,0,0,0,0,0,0,0,-1,1357,673,0,0
140,351,0,0,0,0,0,0,0,0,0,-1,1364,673,0,0
147,351,0,0,0,0,0,0,0,0,0,-1,1371,673,0,0
154,351,0,0,0,0,0,0,0,0,0,-1,1378,673,0,0
161,351,0,0,0,0,0,0,0,0,0,-1,1385,673,0,0
168,351,0,0,0,0,0,0,0,0,0,-1,1392,673,0,0
175,351,0,0,0,0,0,0,0,0,0,-1,1399,673,0,0
182,351,0,0,0,0,0,0,0,0,0,-1,1406,673,0,0
189,351,0,0,0,0,0,0,0,0,0,-1,1413,673,0,0
196,351,0,0,0,0,0,0,0,0,0,-1,1420,673,0,0
203,351,0,0,0,0,0,0,0,0,0,-1,1427,673,0,0
210,351,0,0,0,0,0,0,0,0,0,-1,1434,673,0,0
217,351,0,0,0,0,0,0,0,0,0,-1,1441,673,0,0
224,351,0,0,0,0,0,0,0,0,0,-1,1448,673,0,0
231,351,0,0,0,0,0,0,0,0,0,-1,1455,673,0,0
238,351,0,0,0,0,0,0,0,0,0,-1,1462,673,0,0
245,351,0,0,0,0,0,0,0,0,0,-1,1469,673,0,0
252,351,0,0,0,0,0,0,0,0,0,-1,1476,673,0,0
259,351,0,0,0,0,0,0,0,0,0,-1,1483,673,0,0
266,351,0,0,0,0,0,0,0,0,0,-1,1490,673,0,0
273,351,0,0,0,0,0,0,0,0,0,-1,1497,673,0,0
280,351,0,0,0,0,0,0,0,0,0,-1,1504,673,0,0
287,351,0,0,0,0,0,0,0,0,0,-1,1511,673,0,0
294,351,0,0,0,0,0,0,0,0,0,-1,1518,673,0,0
301,351,0,0,0,0,0,0,0,0,0,-1,1525,673,0,0
308,351,0,0,0,0,0,0,0,0,0,-1,1532,673,0,0
315,351,0,0,0,0,0,0,0,0,0,-1,1539,673,0,0
322,351,0,0,0,0,0,0,0,0,0,-1,1546,673,0,0
329,351,0,0,0,0,0,0,0,0,0,-1,1553,673,0,0
336,351,0,0,0,0,0,0,0,0,0,-1,1560,673,0,0
343,351,0,0,0,0,0,0,0,0,0,-1,1567,673,0,0
350,351,0,0,0,0,0,0,0,0,0,-1,1574,673,0,0
357,351,0,0,0,0,0,0,0,0,0,-1,1581,673,0,0
364,351,0,0,0,0,0,0,0,0,0,-1,1588,673,0,0
371,351,0,0,0,0,0,0,0,0,0,-1,1595,673,0,0
378,351,0,0,0,0,0,0,0,0,0,-1,1602,673,0,0
385,351,0,0,0,0,0,0,0,0,0,-1,1609,673,0,0
392,351,0,0,0,0,0,0,0,0,0,-1,1616,673,0,0
399,351,0,0,0,0,0,0,0,0,0,-1,1623,673,0,0
406,351,0,0,0,0,0,0,0,0,0,-1,1630,673,0,0
413,351,0,0,0,0,0,0,0,0,0,-1,1637,673,0,0
420,351,0,0,0,0,0,0,0,0,0,-1,1644,673,0,0
427,351,0,0,0,0,0,0,0,0,0,-1,1651,673,0,0
434,351,0,0,0,0,0,0,0,0,0,-1,1658,673,0,0
441,351,0,0,0,0,0,0,0,0,0,-1,1665,673,0,0
448,351,0,0,0,0,0,0,0,0,0,-1,1672,673,0,0
455,351,0,0,0,0,0,0,0,0,0,-1,1679,673,0,0
462,351,0,0,0,0,0,0,0,0,0,-1,1686,673,0,0
469,351,0,0,0,0,0,0,0,0,0,-1,1693,673,0,0
476,351,0,0,0,0,0,0,0,0,0,-1,1700,673,0,0
483,351,0,0,0,0,0,0,0,0,0,-1,1707,673,0,0
490,351,0,0,0,0,0,0,0,0,0,-1,1714,673,0,0
497,351,0,0,0,0,0,0,0,0,0,-1,1721,673,0,0
504,351,10.8842,1.61615,0,0,0,0,0,0,0,-1,1728,673,10.8842,-1.61618
511,351,15.4548,0.0236816,0,0,0,0,0,0,0,-1,1735,673,15.4549,-0.0236664
518,351,16.7448,2.49268,0,0,0,0,0,0,0,-1,1742,673,16.7448,-2.49269
525,351,16.0701,3.43225,0,0,0,0,0,0,0,-1,1749,673,16.07,-3.43227
532,351,32.3822,3.03021,0,0,0,0,0,0,0,-1,1756,673,32.3822,-3.03019
539,351,15.3387,3.54486,0,0,0,0,0,0,0,-1,1763,673,15.3387,-3.54485
546,351,13.9387,4.59357,0,0,0,0,0,0,0,-1,1770,673,13.9388,-4.59359
553,351,12.0682,2.02832,0,0,0,0,0,0,0,-1,1777,673,12.0683,-2.02831
560,351,12.0173,0.55304,0,0,0,0,0,0,0,-1,1784,673,12.0174,-0.553028
567,351,10.7827,0.130188,0,0,0,0,0,0,0,-1,1791,673,10.7827,-0.130183
574,351,13.405,-1.09204,0,0,0,0,0,0,0,-1,1798,673,13.405,1.09207
581,351,15.2351,-3.06049,0,0,0,0,0,0,0,-1,1805,673,15.2351,3.06046
588,351,36.6848,-14.133,0,0,0,0,0,0,0,-1,1812,673,36.6848,14.133
595,351,36.9611,-13.1938,0.000382332,0.00144015,0.000774406,0.00184903,-2.65474e-05,1.08501,0.00124163,0.0479674,1819,673,36.9611,13.1939
602,351,36.9073,-12.1245,0.000713481,0.00134072,0.000801179,0.00188747,0.000166724,0.971953,0.00120659,0.0195256,1826,673,36.9073,12.1244
609,351,36.8783,-11.2552,0.00106092,0.00128462,0.000868085,0.00204803,0.000297511,0.849468,0.00127778,0.0191313,1833,673,36.8783,11.2552
616,351,36.7974,-10.3616,0.00134306,0.00133595,0.00095414,0.00229365,0.000385354,0.783535,0.00141821,0.0163971,1840,673,36.7974,10.3616
623,351,36.8097,-9.47913,0.00167106,0.00145695,0.00105095,0.00262039,0.000507613,0.734642,0.00160471,0.0171276,1847,673,36.8096,9.47912
630,351,36.6949,-8.60266,0.00194602,0.00169676,0.00118916,0.00301706,0.000625713,0.733187,0.00183864,0.027493,1854,673,36.695,8.60265
637,351,36.6177,-7.71014,0.00216843,0.00195616,0.00128211,0.00334879,0.000775805,0.744102,0.00202411,0.0319714,1861,673,36.6177,7.71016
644,351,36.6134,-6.79102,0.00233303,0.00228809,0.00136328,0.00367403,0.000947095,0.777158,0.00220261,0.0225912,1868,673,36.6135,6.79102
651,351,36.5951,-5.83508,0.00248242,0.00277927,0.00149524,0.00413343,0.00112825,0.834869,0.00246709,0.0182954,1875,673,36.5951,5.83508
658,351,36.4691,-4.87439,0.00253449,0.00320117,0.00153231,0.00443598,0.00129969,0.892499,0.00263326,0.0450179,1882,673,36.4691,4.87442
665,351,36.0784,-3.83679,0,0,0,0,0,0,0,-1,1889,673,36.0783,3.83679
672,351,34.9646,-3.1748,0,0,0,0,0,0,0,-1,1896,673,34.9646,3.17482
679,351,14.1252,1.85681,0,0,0,0,0,0,0,-1,1903,673,14.1253,-1.85682
686,351,13.0294,2.1189,0,0,0,0,0,0,0,-1,1910,673,13.0294,-2.11892
693,351,13.5187,2.34595,0,0,0,0,0,0,0,-1,1917,673,13.5187,-2.34596
700,351,14.5629,-2.40173,0,0,0,0,0,0,0,-1,1924,673,14.5629,2.40172
707,351,0,0,0,0,0,0,0,0,0,-1,1931,673,0,0
714,351,0,0,0,0,0,0,0,0,0,-1,1938,673,0,0
721,351,0,0,0,0,0,0,0,0,0,-1,1945,673,0,0
728,351,0,0,0,0,0,0,0,0,0,-1,1952,673,0,0
735,351,0,0,0,0,0,0,0,0,0,-1,1959,673,0,0
742,351,0,0,0,0,0,0,0,0,0,-1,1966,673,0,0
749,351,0,0,0,0,0,0,0,0,0,-1,1973,673,0,0
756,351,0,0,0,0,0,0,0,0,0,-1,1980,673,0,0
763,351,0,0,0,0,0,0,0,0,0,-1,1987,673,0,0
770,351,0,0,0,0,0,0,0,0,0,-1,1994,673,0,0
777,351,0,0,0,0,0,0,0,0,0,-1,2001,673,0,0
784,351,0,0,0,0,0,0,0,0,0,-1,2008,673,0,0
791,351,0,0,0,0,0,0,0,0,0,-1,2015,673,0,0
798,351,0,0,0,0,0,0,0,0,0,-1,2022,673,0,0
805,351,0,0,0,0,0,0,0,0,0,-1,2029,673,0,0
812,351,0,0,0,0,0,0,0,0,0,-1,2036,673,0,0
-700,344,0,0,0,0,0,0,0,0,0,-1,524,680,0,0
-693,344,0,0,0,0,0,0,0,0,0,-1,531,680,0,0
-686,344,0,0,0,0,0,0,0,0,0,-1,538,680,0,0
-679,344,0,0,0,0,0,0,0,0,0,-1,545,680,0,0
-672,344,0,0,0,0,0,0,0,0,0,-1,552,680,0,0
-665,344,0,0,0,0,0,0,0,0,0,-1,559,680,0,0
-658,344,0,0,0,0,0,0,0,0,0,-1,566,680,0,0
-651,344,0,0,0,0,0,0,0,0,0,-1,573,680,0,0
-644,344,0,0,0,0,0,0,0,0,0,-1,580,680,0,0
-637,344,0,0,0,0,0,0,0,0,0,-1,587,680,0,0
-630,344,0,0,0,0,0,0,0,0,0,-1,594,680,0,0
-623,344,0,0,0,0,0,0,0,0,0,-1,601,680,0,0
-616,344,0,0,0,0,0,0,0,0,0,-1,608,680,0,0
-609,344,0,0,0,0,0,0,0,0,0,-1,615,680,0,0
-602,344,0,0,0,0,0,0,0,0,0,-1,622,680,0,0
-595,344,0,0,0,0,0,0,0,0,0,-1,629,680,0,0
-588,344,-9.27826,1.47302,0,0,0,0,0,0,0,-1,636,680,-9.27829,-1.473
-581,344,-10.0098,1.71753,0,0,0,0,0,0,0,-1,643,680,-10.0098,-1.7175
-574,344,-10.2208,3.04871,0,0,0,0,0,0,0,-1,650,680,-10.2208,-3.04869
-567,344,-14.3779,2.29016,0,0,0,0,0,0,0,-1,657,680,-14.3779,-2.29014
-560,344,-14.1238,1.8374,0,0,0,0,0,0,0,-1,664,680,-14.1238,-1.83743
-553,344,-14.7884,2.00116,0,0,0,0,0,0,0,-1,671,680,-14.7884,-2.00115
-546,344,-17.4192,0.157654,0,0,0,0,0,0,0,-1,678,680,-17.4192,-0.157635
-539,344,-17.2671,-2.75714,0,0,0,0,0,0,0,-1,685,680,-17.2671,2.75712
-532,344,-18.4417,-4.38605,0,0,0,0,0,0,0,-1,692,680,-18.4417,4.38603
-525,344,-22.4923,-6.49976,0,0,0,0,0,0,0,-1,699,680,-22.4923,6.49973
-518,344,-22.5217,-7.40442,0.00277518,0.00136761,-0.00187129,0.00407066,7.21291e-05,-0.605533,0.00269005,0.0206242,706,680,-22.5217,7.40442
-511,344,-22.5809,-8.33563,0.00226241,0.000678941,-0.0011789,0.00289076,5.05864e-05,-0.489698,0.00191054,0.017993,713,680,-22.5809,8.33564
-504,344,-22.6371,-9.23907,0.00181285,0.000223562,-0.00071776,0.00208902,-5.26067e-05,-0.367304,0.00141054,0.0186517,720,680,-22.6371,9.23908
-497,344,-22.6747,-10.1231,0.00145601,-6.39865e-05,-0.000398081,0.00155396,-0.000161931,-0.24125,0.00109395,0.0165797,727,680,-22.6747,10.1231
-490,344,-22.7173,-11.0079,0.00117628,-0.000163715,-0.000265149,0.00122684,-0.000214273,-0.188417,0.000897879,0.0149946,734,680,-22.7173,11.0079
-483,344,-22.7343,-11.864,0.00100212,-8.98376e-05,-0.00029701,0.00107768,-0.000165395,-0.249111,0.000779454,0.0152653,741,680,-22.7343,11.864
-476,344,-22.7984,-12.732,0.000915506,0.000100927,-0.000497649,0.00115129,-0.000134854,-0.44246,0.000816198,0.0156554,748,680,-22.7984,12.732
-469,344,-22.8315,-13.6507,0.000938018,0.000422451,-0.000840714,0.00155958,-0.000199112,-0.636636,0.00111205,0.0232004,755,680,-22.8315,13.6507
-462,344,-22.7885,-14.6118,0,0,0,0,0,0,0,-1,762,680,-22.7885,14.6118
-455,344,-12.1653,-7.99176,0,0,0,0,0,0,0,-1,769,680,-12.1653,7.99174
-448,344,-5.67657,-2.72864,0,0,0,0,0,0,0,-1,776,680,-5.6766,2.72863
-441,344,-5.09229,-2.34167,0,0,0,0,0,0,0,-1,783,680,-5.09229,2.34168
-434,344,-4.28778,-2.08807,0,0,0,0,0,0,0,-1,790,680,-4.28778,2.08809
-427,344,-3.06506,-1.45404,0,0,0,0,0,0,0,-1,797,680,-3.06505,1.45402
-420,344,-1.96582,-1.57574,0,0,0,0,0,0,0,-1,804,680,-1.96579,1.57574
-413,344,-0.817993,-1.4751,0,0,0,0,0,0,0,-1,811,680,-0.818017,1.47511
-406,344,-0.00714111,-1.25189,0,0,0,0,0,0,0,-1,818,680,-0.00714956,1.25191
-399,344,0.240051,-1.75769,0,0,0,0,0,0,0,-1,825,680,0.240079,1.75767
-392,344,1.11353,-2.05615,0,0,0,0,0,0,0,-1,832,680,1.11351,2.05616
-385,344,0,0,0,0,0,0,0,0,0,-1,839,680,0,0
-378,344,0,0,0,0,0,0,0,0,0,-1,846,680,0,0
-371,344,0,0,0,0,0,0,0,0,0,-1,853,680,0,0
-364,344,0,0,0,0,0,0,0,0,0,-1,860,680,0,0
-357,344,0,0,0,0,0,0,0,0,0,-1,867,680,0,0
-350,344,0,0,0,0,0,0,0,0,0,-1,874,680,0,0
-343,344,0,0,0,0,0,0,0,0,0,-1,881,680,0,0
-336,344,0,0,0,0,0,0,0,0,0,-1,888,680,0,0
-329,344,0,0,0,0,0,0,0,0,0,-1,895,680,0,0
-322,344,0,0,0,0,0,0,0,0,0,-1,902,680,0,0
-315,344,0,0,0,0,0,0,0,0,0,-1,909,680,0,0
-308,344,0,0,0,0,0,0,0,0,0,-1,916,680,0,0
-301,344,0,0,0,0,0,0,0,0,0,-1,923,680,0,0
-294,344,0,0,0,0,0,0,0,0,0,-1,930,680,0,0
-287,344,0,0,0,0,0,0,0,0,0,-1,937,680,0,0
-280,344,0,0,0,0,0,0,0,0,0,-1,944,680,0,0
-273,344,0,0,0,0,0,0,0,0,0,-1,951,680,0,0
-266,344,0,0,0,0,0,0,0,0,0,-1,958,680,0,0
-259,344,0,0,0,0,0,0,0,0,0,-1,965,680,0,0
-252,344,0,0,0,0,0,0,0,0,0,-1,972,680,0,0
-245,344,0,0,0,0,0,0,0,0,0,-1,979,680,0,0
-238,344,0,0,0,0,0,0,0,0,0,-1,986,680,0,0
-231,344,0,0,0,0,0,0,0,0,0,-1,993,680,0,0
-224,344,0,0,0,0,0,0,0,0,0,-1,1000,680,0,0
-217,344,0,0,0,0,0,0,0,0,0,-1,1007,680,0,0
-210,344,0,0,0,0,0,0,0,0,0,-1,1014,680,0,0
-203,344,0,0,0,0,0,0,0,0,0,-1,1021,680,0,0
-196,344,0,0,0,0,0,0,0,0,0,-1,1028,680,0,0
-189,344,0,0,0,0,0,0,0,0,0,-1,1035,680,0,0
-182,344,0,0,0,0,0,0,0,0,0,-1,1042,680,0,0
-175,344,0,0,0,0,0,0,0,0,0,-1,1049,680,0,0
-168,344,0,0,0,0,0,0,0,0,0,-1,1056,680,0,0
-161,344,0,0,0,0,0,0,0,0,0,-1,1063,680,0,0
-154,344,0,0,0,0,0,0,0,0,0,-1,1070,680,0,0
-147,344,0,0,0,0,0,0,0,0,0,-1,1077,680,0,0
-140,344,0,0,0,0,0,0,0,0,0,-1,1084,680,0,0
-133,344,0,0,0,0,0,0,0,0,0,-1,1091,680,0,0
-126,344,0,0,0,0,0,0,0,0,0,-1,1098,680,0,0
-119,344,0,0,0,0,0,0,0,0,0,-1,1105,680,0,0
-112,344,0,0,0,0,0,0,0,0,0,-1,1112,680,0,0
-105,344,0,0,0,0,0,0,0,0,0,-1,1119,680,0,0
-98,344,0,0,0,0,0,0,0,0,0,-1,1126,680,0,0
-91,344,0,0,0,0,0,0,0,0,0,-1,1133,680,0,0
-84,344,0,0,0,0,0,0,0,0,0,-1,1140,680,0,0
-77,344,0,0,0,0,0,0,0,0,0,-1,1147,680,0,0
-70,344,0,0,0,0,0,0,0,0,0,-1,1154,680,0,0
-63,344,0,0,0,0,0,0,0,0,0,-1,1161,680,0,0
-56,344,0,0,0,0,0,0,0,0,0,-1,1168,680,0,0
-49,344,0,0,0,0,0,0,0,0,0,-1,1175,680,0,0
-42,344,0,0,0,0,0,0,0,0,0,-1,1182,680,0,0
-35,344,0,0,0,0,0,0,0,0,0,-1,1189,680,0,0
-28,344,0,0,0,0,0,0,0,0,0,-1,1196,680,0,0
-21,344,0,0,0,0,0,0,0,0,0,-1,1203,680,0,0
-14,344,0,0,0,0,0,0,0,0,0,-1,1210,680,0,0
-7,344,0,0,0,0,0,0,0,0,0,-1,1217,680,0,0
0,344,0,0,0,0,0,0,0,0,0,-1,1224,680,0,0
7,344,0,0,0,0,0,0,0,0,0,-1,1231,680,0,0
14,344,0,0,0,0,0,0,0,0,0,-1,1238,680,0,0
21,344,0,0,0,0,0,0,0,0,0,-1,1245,680,0,0
28,344,0,0,0,0,0,0,0,0,0,-1,1252,680,0,0
35,344,0,0,0,0,0,0,0,0,0,-1,1259,680,0,0
42,344,0,0,0,0,0,0,0,0,0,-1,1266,680,0,0
49,344,0,0,0,0,0,0,0,0,0,-1,1273,680,0,0
56,344,0,0,0,0,0,0,0,0,0,-1,1280,680,0,0
63,344,0,0,0,0,0,0,0,0,0,-1,1287,680,0,0
70,344,0,0,0,0,0,0,0,0,0,-1,1294,680,0,0
77,344,0,0,0,0,0,0,0,0,0,-1,1301,680,0,0
84,344,0,0,0,0,0,0,0,0,0,-1,1308,680,0,0
91,344,0,0,0,0,0,0,0,0,0,-1,1315,680,0,0
98,344,0,0,0,0,0,0,0,0,0,-1,1322,680,0,0
105,344,0,0,0,0,0,0,0,0,0,-1,1329,680,0,0
112,344,0,0,0,0,0,0,0,0,0,-1,1336,680,0,0
119,344,0,0,0,0,0,0,0,0,0,-1,1343,680,0,0
126,344,0,0,0,0,0,0,0,0,0,-1,1350,680,0,0
133,344,0,0,0,0,0,0,0,0,0,-1,1357,680,0,0
140,344,0,0,0,0,0,0,0,0,0,-1,1364,680,0,0
147,344,0,0,0,0,0,0,0,0,0,-1,1371,680,0,0
154,344,0,0,0,0,0,0,0,0,0,-1,1378,680,0,0
161,344,0,0,0,0,0,0,0,0,0,-1,1385,680,0,0
168,344,0,0,0,0,0,0,0,0,0,-1,1392,680,0,0
175,344,0,0,0,0,0,0,0,0,0,-1,1399,680,0,0
182,344,0,0,0,0,0,0,0,0,0,-1,1406,680,0,0
189,344,0,0,0,0,0,0,0,0,0,-1,1413,680,0,0
196,344,0,0,0,0,0,0,0,0,0,-1,1420,680,0,0
203,344,0,0,0,0,0,0,0,0,0,-1,1427,680,0,0
210,344,0,0,0,0,0,0,0,0,0,-1,1434,680,0,0
217,344,0,0,0,0,0,0,0,0,0,-1,1441,680,0,0
224,344,0,0,0,0,0,0,0,0,0,-1,1448,680,0,0
231,344,0,0,0,0,0,0,0,0,0,-1,1455,680,0,0
238,344,0,0,0,0,0,0,0,0,0,-1,1462,680,0,0
245,344,0,0,0,0,0,0,0,0,0,-1,1469,680,0,0
252,344,0,0,0,0,0,0,0,0,0,-1,1476,680,0,0
259,344,0,0,0,0,0,0,0,0,0,-1,1483,680,0,0
266,344,0,0,0,0,0,0,0,0,0,-1,1490,680,0,0
273,344,0,0,0,0,0,0,0,0,0,-1,1497,680,0,0
280,344,0,0,0,0,0,0,0,0,0,-1,1504,680,0,0
287,344,0,0,0,0,0,0,0,0,0,-1,1511,680,0,0
294,344,0,0,0,0,0,0,0,0,0,-1,1518,680,0,0
301,344,0,0,0,0,0,0,0,0,0,-1,1525,680,0,0
308,344,0,0,0,0,0,0,0,0,0,-1,1532,680,0,0
315,344,0,0,0,0,0,0,0,0,0,-1,1539,680,0,0
322,344,0,0,0,0,0,0,0,0,0,-1,1546,680,0,0
329,344,0,0,0,0,0,0,0,0,0,-1,1553,680,0,0
336,344,0,0,0,0,0,0,0,0,0,-1,1560,680,0,0
343,344,0,0,0,0,0,0,0,0,0,-1,1567,680,0,0
350,344,0,0,0,0,0,0,0,0,0,-1,1574,680,0,0
357,344,0,0,0,0,0,0,0,0,0,-1,1581,680,0,0
364,344,0,0,0,0,0,0,0,0,0,-1,1588,680,0,0
371,344,0,0,0,0,0,0,0,0,0,-1,1595,680,0,0
378,344,0,0,0,0,0,0,0,0,0,-1,1602,680,0,0
385,344,0,0,0,0,0,0,0,0,0,-1,1609,680,0,0
392,344,0,0,0,0,0,0,0,0,0,-1,1616,680,0,0
399,344,0,0,0,0,0,0,0,0,0,-1,1623,680,0,0
406,344,0,0,0,0,0,0,0,0,0,-1,1630,680,0,0
413,344,0,0,0,0,0,0,0,0,0,-1,1637,680,0,0
420,344,0,0,0,0,0,0,0,0,0,-1,1644,680,0,0
427,344,0,0,0,0,0,0,0,0,0,-1,1651,680,0,0
434,344,0,0,0,0,0,0,0,0,0,-1,1658,680,0,0
441,344,0,0,0,0,0,0,0,0,0,-1,1665,680,0,0
448,344,0,0,0,0,0,0,0,0,0,-1,1672,680,0,0
455,344,0,0,0,0,0,0,0,0,0,-1,1679,680,0,0
462,344,0,0,0,0,0,0,0,0,0,-1,1686,680,0,0
469,344,0,0,0,0,0,0,0,0,0,-1,1693,680,0,0
476,344,0,0,0,0,0,0,0,0,0,-1,1700,680,0,0
483,344,0,0,0,0,0,0,0,0,0,-1,1707,680,0,0
490,344,0,0,0,0,0,0,0,0,0,-1,1714,680,0,0
497,344,0,0,0,0,0,0,0,0,0,-1,1721,680,0,0
504,344,0,0,0,0,0,0,0,0,0,-1,1728,680,0,0
511,344,15.4819,0.452637,0,0,0,0,0,0,0,-1,1735,680,15.4819,-0.452656
518,344,17.1357,2.31207,0,0,0,0,0,0,0,-1,1742,680,17.1358,-2.31207
525,344,31.5201,2.6217,0,0,0,0,0,0,0,-1,1749,680,31.5201,-2.62168
532,344,31.9766,2.61047,0,0,0,0,0,0,0,-1,1756,680,31.9765,-2.6105
539,344,32.4379,2.65314,0,0,0,0,0,0,0,-1,1763,680,32.4378,-2.65316
546,344,14.6722,4.30243,0,0,0,0,0,0,0,-1,1770,680,14.6722,-4.30241
553,344,14.8136,4.35681,0,0,0,0,0,0,0,-1,1777,680,14.8136,-4.35679
560,344,11.9363,2.14185,0,0,0,0,0,0,0,-1,1784,680,11.9362,-2.14182
567,344,11.397,0.925842,0,0,0,0,0,0,0,-1,1791,680,11.397,-0.92583
574,344,10.0004,0.504639,0,0,0,0,0,0,0,-1,1798,680,10.0004,-0.504645
581,344,13.6709,-0.969604,0,0,0,0,0,0,0,-1,1805,680,13.6709,0.969629
588,344,16.1447,-3.15948,0,0,0,0,0,0,0,-1,1812,680,16.1447,3.15946
595,344,37.7836,-13.0814,0,0,0,0,0,0,0,-1,1819,680,37.7835,13.0814
602,344,37.9138,-12.037,0.00062166,0.00135951,0.000879338,0.00194418,3.69922e-05,0.984021,0.00128397,0.0355556,1826,680,37.9138,12.037
609,344,37.7991,-11.1937,0.00103905,0.00111928,0.000867785,0.00194787,0.00021045,0.808495,0.00123443,0.0171238,1833,680,37.799,11.1937
616,344,37.7079,-10.3142,0.00127276,0.00102398,0.000885895,0.00204296,0.000253787,0.71565,0.00128575,0.0244359,1840,680,37.7079,10.3142
623,344,37.7097,-9.40356,0.00148322,0.00105014,0.000897113,0.00218956,0.000343804,0.666976,0.00135967,0.0224039,1847,680,37.7097,9.40355
630,344,37.5734,-8.54846,0.00168131,0.0012063,0.000971721,0.00244413,0.000443478,0.66554,0.00150355,0.0273852,1854,680,37.5734,8.54849
637,344,37.5146,-7.64252,0.0018603,0.00140292,0.0010244,0.00268123,0.000581995,0.675576,0.00162853,0.0254291,1861,680,37.5147,7.64252
644,344,37.5414,-6.70404,0.0020174,0.00165161,0.00106313,0.00291325,0.000755751,0.700215,0.00174566,0.017608,1868,680,37.5414,6.70404
651,344,37.4667,-5.79724,0.00219854,0.00205053,0.00114492,0.00327185,0.000977225,0.753124,0.00193937,0.0121099,1875,680,37.4667,5.79723
658,344,37.4259,-4.82507,0.00237204,0.00247046,0.00120423,0.00362648,0.00121601,0.805819,0.00213127,0.027457,1882,680,37.426,4.82508
665,344,37.2225,-3.98053,0.0028737,0.00286177,0.00129853,0.00416628,0.00156919,0.783101,0.00242969,0.0447869,1889,680,37.2225,3.98056
672,344,37.4324,-3.50476,0,0,0,0,0,0,0,-1,1896,680,37.4324,3.50477
679,344,36.7468,-2.59857,0,0,0,0,0,0,0,-1,1903,680,36.7468,2.59857
686,344,15.024,1.82709,0,0,0,0,0,0,0,-1,1910,680,15.024,-1.82706
693,344,12.4362,-1.42346,0,0,0,0,0,0,0,-1,1917,680,12.4361,1.42348
700,344,17.5396,2.61206,0,0,0,0,0,0,0,-1,1924,680,17.5396,-2.61204
707,344,18.5829,3.29352,0,0,0,0,0,0,0,-1,1931,680,18.5828,-3.2935
714,344,0,0,0,0,0,0,0,0,0,-1,1938,680,0,0
721,344,0,0,0,0,0,0,0,0,0,-1,1945,680,0,0
728,344,0,0,0,0,0,0,0,0,0,-1,1952,680,0,0
735,344,0,0,0,0,0,0,0,0,0,-1,1959,680,0,0
742,344,0,0,0,0,0,0,0,0,0,-1,1966,680,0,0
749,344,0,0,0,0,0,0,0,0,0,-1,1973,680,0,0
756,344,0,0,0,0,0,0,0,0,0,-1,1980,680,0,0
763,344,0,0,0,0,0,0,0,0,0,-1,1987,680,0,0
770,344,0,0,0,0,0,0,0,0,0,-1,1994,680,0,0
777,344,0,0,0,0,0,0,0,0,0,-1,2001,680,0,0
784,344,0,0,0,0,0,0,0,0,0,-1,2008,680,0,0
791,344,0,0,0,0,0,0,0,0,0,-1,2015,680,0,0
798,344,0,0,0,0,0,0,0,0,0,-1,2022,680,0,0
805,344,0,0,0,0,0,0,0,0,0,-1,2029,680,0,0
812,344,0,0,0,0,0,0,0,0,0,-1,2036,680,0,0
-700,337,0,0,0,0,0,0,0,0,0,-1,524,687,0,0
-693,337,0,0,0,0,0,0,0,0,0,-1,531,687,0,0
-686,337,0,0,0,0,0,0,0,0,0,-1,538,687,0,0
-679,337,0,0,0,0,0,0,0,0,0,-1,545,687,0,0
-672,337,0,0,0,0,0,0,0,0,0,-1,552,687,0,0
-665,337,0,0,0,0,0,0,0,0,0,-1,559,687,0,0
-658,337,0,0,0,0,0,0,0,0,0,-1,566,687,0,0
-651,337,0,0,0,0,0,0,0,0,0,-1,573,687,0,0
-644,337,0,0,0,0,0,0,0,0,0,-1,580,687,0,0
-637,337,0,0,0,0,0,0,0,0,0,-1,587,687,0,0
-630,337,0,0,0,0,0,0,0,0,0,-1,594,687,0,0
-623,337,0,0,0,0,0,0,0,0,0,-1,601,687,0,0
-616,337,0,0,0,0,0,0,0,0,0,-1,608,687,0,0
-609,337,0,0,0,0,0,0,0,0,0,-1,615,687,0,0
-602,337,0,0,0,0,0,0,0,0,0,-1,622,687,0,0
-595,337,0,0,0,0,0,0,0,0,0,-1,629,687,0,0
-588,337,-10.8413,1.27863,0,0,0,0,0,0,0,-1,636,687,-10.8413,-1.27861
-581,337,-11.2157,1.31567,0,0,0,0,0,0,0,-1,643,687,-11.2157,-1.3157
-574,337,-6.03339,2.0321,0,0,0,0,0,0,0,-1,650,687,-6.03337,-2.03213
-567,337,-13.8102,1.56787,0,0,0,0,0,0,0,-1,657,687,-13.8102,-1.56789
-560,337,-15.5435,2.34247,0,0,0,0,0,0,0,-1,664,687,-15.5435,-2.34247
-553,337,-18.0128,1.12927,0,0,0,0,0,0,0,-1,671,687,-18.0128,-1.12926
-546,337,-18.0244,-2.03845,0,0,0,0,0,0,0,-1,678,687,-18.0244,2.03846
-539,337,-19.2426,-3.53815,0,0,0,0,0,0,0,-1,685,687,-19.2426,3.53813
-532,337,-23.4086,-5.62012,0,0,0,0,0,0,0,-1,692,687,-23.4085,5.62012
-525,337,-23.4203,-6.50299,0.00284175,0.0024947,-0.00254807,0.00522219,0.000114255,-0.7514,0.00344401,0.0212942,699,687,-23.4203,6.50298
-518,337,-23.4174,-7.38208,0.00236327,0.00139433,-0.00164213,0.00359091,0.000166698,-0.641955,0.00234035,0.0238736,706,687,-23.4174,7.3821
-511,337,-23.4814,-8.28174,0.00197957,0.000594391,-0.000952957,0.00246504,0.000108929,-0.471161,0.00160828,0.0243454,713,687,-23.4815,8.28176
-504,337,-23.5273,-9.19214,0.00158503,2.41806e-05,-0.00042936,0.00169534,-8.61321e-05,-0.251484,0.00116,0.0241116,720,687,-23.5274,9.19214
-497,337,-23.56,-10.0851,0.00126071,-0.000346402,-6.04588e-05,0.00126298,-0.000348674,-0.0375488,0.000979129,0.018077,727,687,-23.56,10.0851
-490,337,-23.5956,-10.9798,0.00102839,-0.000500592,9.87959e-05,0.00103475,-0.000506949,0.0642593,0.00090732,0.0156911,734,687,-23.5956,10.9798
-483,337,-23.6208,-11.8524,0.000871834,-0.000436645,7.19649e-05,0.00087578,-0.000440591,0.0547787,0.000773727,0.0156008,741,687,-23.6208,11.8524
-476,337,-23.6682,-12.7527,0.000803535,-0.000237578,-0.000176816,0.000832745,-0.000266788,-0.16372,0.000662254,0.0189242,748,687,-23.6681,12.7527
-469,337,-23.7291,-13.6608,0,0,0,0,0,0,0,-1,755,687,-23.7291,13.6608
-462,337,-14.186,-8.89264,0,0,0,0,0,0,0,-1,762,687,-14.186,8.89266
-455,337,-6.00574,-3.12933,0,0,0,0,0,0,0,-1,769,687,-6.00576,3.12934
-448,337,-5.30627,-2.07202,0,0,0,0,0,0,0,-1,776,687,-5.30628,2.07205
-441,337,-4.24762,-1.49597,0,0,0,0,0,0,0,-1,783,687,-4.24762,1.49598
-434,337,-6.86908,1.37531,0,0,0,0,0,0,0,-1,790,687,-6.86908,-1.3753
-427,337,-9.92004,2.487,0,0,0,0,0,0,0,-1,797,687,-9.92002,-2.48701
-420,337,-2.95996,-1.76697,0,0,0,0,0,0,0,-1,804,687,-2.95998,1.76696
-413,337,-1.29169,-1.99487,0,0,0,0,0,0,0,-1,811,687,-1.29171,1.9949
-406,337,-1.02356,-1.89563,0,0,0,0,0,0,0,-1,818,687,-1.02357,1.89564
-399,337,-0.472839,-2.21338,0,0,0,0,0,0,0,-1,825,687,-0.472837,2.2134
-392,337,0,0,0,0,0,0,0,0,0,-1,832,687,0,0
-385,337,0,0,0,0,0,0,0,0,0,-1,839,687,0,0
-378,337,0,0,0,0,0,0,0,0,0,-1,846,687,0,0
-371,337,0,0,0,0,0,0,0,0,0,-1,853,687,0,0
-364,337,0,0,0,0,0,0,0,0,0,-1,860,687,0,0
-357,337,0,0,0,0,0,0,0,0,0,-1,867,687,0,0
-350,337,0,0,0,0,0,0,0,0,0,-1,874,687,0,0
-343,337,0,0,0,0,0,0,0,0,0,-1,881,687,0,0
-336,337,0,0,0,0,0,0,0,0,0,-1,888,687,0,0
-329,337,0,0,0,0,0,0,0,0,0,-1,895,687,0,0
-322,337,0,0,0,0,0,0,0,0,0,-1,902,687,0,0
-315,337,0,0,0,0,0,0,0,0,0,-1,909,687,0,0
-308,337,0,0,0,0,0,0,0,0,0,-1,916,687,0,0
-301,337,0,0,0,0,0,0,0,0,0,-1,923,687,0,0
-294,337,0,0,0,0,0,0,0,0,0,-1,930,687,0,0
-287,337,0,0,0,0,0,0,0,0,0,-1,937,687,0,0
-280,337,0,0,0,0,0,0,0,0,0,-1,944,687,0,0
-273,337,0,0,0,0,0,0,0,0,0,-1,951,687,0,0
-266,337,0,0,0,0,0,0,0,0,0,-1,958,687,0,0
-259,337,0,0,0,0,0,0,0,0,0,-1,965,687,0,0
-252,337,0,0,0,0,0,0,0,0,0,-1,972,687,0,0
-245,337,0,0,0,0,0,0,0,0,0,-1,979,687,0,0
-238,337,0,0,0,0,0,0,0,0,0,-1,986,687,0,0
-231,337,0,0,0,0,0,0,0,0,0,-1,993,687,0,0
-224,337,0,0,0,0,0,0,0,0,0,-1,1000,687,0,0
-217,337,0,0,0,0,0,0,0,0,0,-1,1007,687,0,0
-210,337,0,0,0,0,0,0,0,0,0,-1,1014,687,0,0
-203,337,0,0,0,0,0,0,0,0,0,-1,1021,687,0,0
-196,337,0,0,0,0,0,0,0,0,0,-1,1028,687,0,0
-189,337,0,0,0,0,0,0,0,0,0,-1,1035,687,0,0
-182,337,0,0,0,0,0,0,0,0,0,-1,1042,687,0,0
-175,337,0,0,0,0,0,0,0,0,0,-1,1049,687,0,0
-168,337,0,0,0,0,0,0,0,0,0,-1,1056,687,0,0
-161,337,0,0,0,0,0,0,0,0,0,-1,1063,687,0,0
-154,337,0,0,0,0,0,0,0,0,0,-1,1070,687,0,0
-147,337,0,0,0,0,0,0,0,0,0,-1,1077,687,0,0
-140,337,0,0,0,0,0,0,0,0,0,-1,1084,687,0,0
-133,337,0,0,0,0,0,0,0,0,0,-1,1091,687,0,0
-126,337,0,0,0,0,0,0,0,0,0,-1,1098,687,0,0
-119,337,0,0,0,0,0,0,0,0,0,-1,1105,687,0,0
-112,337,0,0,0,0,0,0,0,0,0,-1,1112,687,0,0
-105,337,0,0,0,0,0,0,0,0,0,-1,1119,687,0,0
-98,337,0,0,0,0,0,0,0,0,0,-1,1126,687,0,0
-91,337,0,0,0,0,0,0,0,0,0,-1,1133,687,0,0
-84,337,0,0,0,0,0,0,0,0,0,-1,1140,687,0,0
-77,337,0,0,0,0,0,0,0,0,0,-1,1147,687,0,0
-70,337,0,0,0,0,0,0,0,0,0,-1,1154,687,0,0
-63,337,0,0,0,0,0,0,0,0,0,-1,1161,687,0,0
-56,337,0,0,0,0,0,0,0,0,0,-1,1168,687,0,0
-49,337,0,0,0,0,0,0,0,0,0,-1,1175,687,0,0
-42,337,0,0,0,0,0,0,0,0,0,-1,1182,687,0,0
-35,337,0,0,0,0,0,0,0,0,0,-1,1189,687,0,0
-28,337,0,0,0,0,0,0,0,0,0,-1,1196,687,0,0
-21,337,0,0,0,0,0,0,0,0,0,-1,1203,687,0,0
-14,337,0,0,0,0,0,0,0,0,0,-1,1210,687,0,0
-7,337,0,0,0,0,0,0,0,0,0,-1,1217,687,0,0
0,337,0,0,0,0,0,0,0,0,0,-1,1224,687,0,0
7,337,0,0,0,0,0,0,0,0,0,-1,1231,687,0,0
14,337,0,0,0,0,0,0,0,0,0,-1,1238,687,0,0
21,337,0,0,0,0,0,0,0,0,0,-1,1245,687,0,0
28,337,0,0,0,0,0,0,0,0,0,-1,1252,687,0,0
35,337,0,0,0,0,0,0,0,0,0,-1,1259,687,0,0
42,337,0,0,0,0,0,0,0,0,0,-1,1266,687,0,0
49,337,0,0,0,0,0,0,0,0,0,-1,1273,687,0,0
56,337,0,0,0,0,0,0,0,0,0,-1,1280,687,0,0
63,337,0,0,0,0,0,0,0,0,0,-1,1287,687,0,0
70,337,0,0,0,0,0,0,0,0,0,-1,1294,687,0,0
77,337,0,0,0,0,0,0,0,0,0,-1,1301,687,0,0
84,337,0,0,0,0,0,0,0,0,0,-1,1308,687,0,0
91,337,0,0,0,0,0,0,0,0,0,-1,1315,687,0,0
98,337,0,0,0,0,0,0,0,0,0,-1,1322,687,0,0
105,337,0,0,0,0,0,0,0,0,0,-1,1329,687,0,0
112,337,0,0,0,0,0,0,0,0,0,-1,1336,687,0,0
119,337,0,0,0,0,0,0,0,0,0,-1,1343,687,0,0
126,337,0,0,0,0,0,0,0,0,0,-1,1350,687,0,0
133,337,0,0,0,0,0,0,0,0,0,-1,1357,687,0,0
140,337,0,0,0,0,0,0,0,0,0,-1,1364,687,0,0
147,337,0,0,0,0,0,0,0,0,0,-1,1371,687,0,0
154,337,0,0,0,0,0,0,0,0,0,-1,1378,687,0,0
161,337,0,0,0,0,0,0,0,0,0,-1,1385,687,0,0
168,337,0,0,0,0,0,0,0,0,0,-1,1392,687,0,0
175,337,0,0,0,0,0,0,0,0,0,-1,1399,687,0,0
182,337,0,0,0,0,0,0,0,0,0,-1,1406,687,0,0
189,337,0,0,0,0,0,0,0,0,0,-1,1413,687,0,0
196,337,0,0,0,0,0,0,0,0,0,-1,1420,687,0,0
203,337,0,0,0,0,0,0,0,0,0,-1,1427,687,0,0
210,337,0,0,0,0,0,0,0,0,0,-1,1434,687,0,0
217,337,0,0,0,0,0,0,0,0,0,-1,1441,687,0,0
224,337,0,0,0,0,0,0,0,0,0,-1,1448,687,0,0
231,337,0,0,0,0,0,0,0,0,0,-1,1455,687,0,0
238,337,0,0,0,0,0,0,0,0,0,-1,1462,687,0,0
245,337,0,0,0,0,0,0,0,0,0,-1,1469,687,0,0
252,337,0,0,0,0,0,0,0,0,0,-1,1476,687,0,0
259,337,0,0,0,0,0,0,0,0,0,-1,1483,687,0,0
266,337,0,0,0,0,0,0,0,0,0,-1,1490,687,0,0
273,337,0,0,0,0,0,0,0,0,0,-1,1497,687,0,0
280,337,0,0,0,0,0,0,0,0,0,-1,1504,687,0,0
287,337,0,0,0,0,0,0,0,0,0,-1,1511,687,0,0
294,337,0,0,0,0,0,0,0,0,0,-1,1518,687,0,0
301,337,0,0,0,0,0,0,0,0,0,-1,1525,687,0,0
308,337,0,0,0,0,0,0,0,0,0,-1,1532,687,0,0
315,337,0,0,0,0,0,0,0,0,0,-1,1539,687,0,0
322,337,0,0,0,0,0,0,0,0,0,-1,1546,687,0,0
329,337,0,0,0,0,0,0,0,0,0,-1,1553,687,0,0
336,337,0,0,0,0,0,0,0,0,0,-1,1560,687,0,0
343,337,0,0,0,0,0,0,0,0,0,-1,1567,687,0,0
350,337,0,0,0,0,0,0,0,0,0,-1,1574,687,0,0
357,337,0,0,0,0,0,0,0,0,0,-1,1581,687,0,0
364,337,0,0,0,0,0,0,0,0,0,-1,1588,687,0,0
371,337,0,0,0,0,0,0,0,0,0,-1,1595,687,0,0
378,337,0,0,0,0,0,0,0,0,0,-1,1602,687,0,0
385,337,0,0,0,0,0,0,0,0,0,-1,1609,687,0,0
392,337,0,0,0,0,0,0,0,0,0,-1,1616,687,0,0
399,337,0,0,0,0,0,0,0,0,0,-1,1623,687,0,0
406,337,0,0,0,0,0,0,0,0,0,-1,1630,687,0,0
413,337,0,0,0,0,0,0,0,0,0,-1,1637,687,0,0
420,337,0,0,0,0,0,0,0,0,0,-1,1644,687,0,0
427,337,0,0,0,0,0,0,0,0,0,-1,1651,687,0,0
434,337,0,0,0,0,0,0,0,0,0,-1,1658,687,0,0
441,337,0,0,0,0,0,0,0,0,0,-1,1665,687,0,0
448,337,0,0,0,0,0,0,0,0,0,-1,1672,687,0,0
455,337,0,0,0,0,0,0,0,0,0,-1,1679,687,0,0
462,337,0,0,0,0,0,0,0,0,0,-1,1686,687,0,0
469,337,0,0,0,0,0,0,0,0,0,-1,1693,687,0,0
476,337,0,0,0,0,0,0,0,0,0,-1,1700,687,0,0
483,337,0,0,0,0,0,0,0,0,0,-1,1707,687,0,0
490,337,0,0,0,0,0,0,0,0,0,-1,1714,687,0,0
497,337,0,0,0,0,0,0,0,0,0,-1,1721,687,0,0
504,337,0,0,0,0,0,0,0,0,0,-1,1728,687,0,0
511,337,0,0,0,0,0,0,0,0,0,-1,1735,687,0,0
518,337,18.0369,1.64581,0,0,0,0,0,0,0,-1,1742,687,18.0368,-1.64581
525,337,31.0717,2.13745,0,0,0,0,0,0,0,-1,1749,687,31.0717,-2.13747
532,337,31.5126,2.13904,0,0,0,0,0,0,0,-1,1756,687,31.5125,-2.13905
539,337,31.9684,2.15594,0,0,0,0,0,0,0,-1,1763,687,31.9684,-2.15596
546,337,32.3584,1.43719,0,0,0,0,0,0,0,-1,1770,687,32.3585,-1.43722
553,337,32.1809,1.36395,0,0,0,0,0,0,0,-1,1777,687,32.181,-1.36396
560,337,18.4053,3.62793,0,0,0,0,0,0,0,-1,1784,687,18.4052,-3.6279
567,337,11.9288,1.38776,0,0,0,0,0,0,0,-1,1791,687,11.9288,-1.38777
574,337,10.704,1.19476,0,0,0,0,0,0,0,-1,1798,687,10.704,-1.19478
581,337,8.50427,0.561768,0,0,0,0,0,0,0,-1,1805,687,8.5043,-0.561754
588,337,8.5885,-0.0536499,0,0,0,0,0,0,0,-1,1812,687,8.58844,0.0536788
595,337,38.5637,-13.177,0,0,0,0,0,0,0,-1,1819,687,38.5637,13.177
602,337,38.7488,-11.9917,0.000832214,0.00135842,0.00108721,0.00221391,-2.32774e-05,0.904114,0.00148376,0.0467603,1826,687,38.7487,11.9917
609,337,38.6794,-11.099,0.00121623,0.000933823,0.000953334,0.00203876,0.000111292,0.711875,0.00132364,0.0229369,1833,687,38.6794,11.099
616,337,38.6039,-10.2194,0.00134591,0.000716486,0.000903035,0.0019875,7.48956e-05,0.617727,0.00130076,0.0190277,1840,687,38.6039,10.2194
623,337,38.578,-9.34521,0.00139885,0.000682174,0.000828449,0.00194314,0.000137886,0.581277,0.001252,0.0173207,1847,687,38.578,9.34522
630,337,38.4895,-8.44312,0.00150171,0.00078547,0.000838964,0.00205579,0.000231388,0.583677,0.00130028,0.0206655,1854,687,38.4895,8.44312
637,337,38.4707,-7.55682,0.00162069,0.000958,0.000856824,0.00220801,0.000370686,0.600897,0.00136532,0.0172563,1861,687,38.4708,7.55684
644,337,38.4475,-6.6272,0.00176392,0.00119864,0.000883695,0.00240907,0.000553484,0.63062,0.00145703,0.0116436,1868,687,38.4475,6.6272
651,337,38.3447,-5.73578,0.00196076,0.00156761,0.000952201,0.00273646,0.000791904,0.683607,0.00162595,0.0106606,1875,687,38.3448,5.73578
658,337,38.2986,-4.85687,0.0022201,0.00202063,0.00105813,0.00318319,0.00105755,0.738408,0.00187198,0.0126164,1882,687,38.2985,4.85689
665,337,38.2826,-3.97455,0.00278897,0.00250059,0.00123896,0.0038921,0.00139746,0.727469,0.00227667,0.0172105,1889,687,38.2826,3.97452
672,337,38.2788,-3.07806,0.00368563,0.0031549,0.00130498,0.00475195,0.00208858,0.685093,0.00275022,0.0422983,1896,687,38.2788,3.07805
679,337,38.7533,-2.16504,0,0,0,0,0,0,0,-1,1903,687,38.7533,2.16503
686,337,18.5614,1.68597,0,0,0,0,0,0,0,-1,1910,687,18.5614,-1.68598
693,337,16.5415,2.21411,0,0,0,0,0,0,0,-1,1917,687,16.5415,-2.2141
700,337,17.2661,2.44379,0,0,0,0,0,0,0,-1,1924,687,17.2661,-2.44378
707,337,17.3544,5.61853,0,0,0,0,0,0,0,-1,1931,687,17.3543,-5.61851
714,337,0,0,0,0,0,0,0,0,0,-1,1938,687,0,0
721,337,0,0,0,0,0,0,0,0,0,-1,1945,687,0,0
728,337,0,0,0,0,0,0,0,0,0,-1,1952,687,0,0
735,337,0,0,0,0,0,0,0,0,0,-1,1959,687,0,0
742,337,0,0,0,0,0,0,0,0,0,-1,1966,687,0,0
749,337,0,0,0,0,0,0,0,0,0,-1,1973,687,0,0
756,337,0,0,0,0,0,0,0,0,0,-1,1980,687,0,0
763,337,0,0,0,0,0,0,0,0,0,-1,1987,687,0,0
770,337,0,0,0,0,0,0,0,0,0,-1,1994,687,0,0
777,337,0,0,0,0,0,0,0,0,0,-1,2001,687,0,0
784,337,0,0,0,0,0,0,0,0,0,-1,2008,687,0,0
791,337,0,0,0,0,0,0,0,0,0,-1,2015,687,0,0
798,337,0,0,0,0,0,0,0,0,0,-1,2022,687,0,0
805,337,0,0,0,0,0,0,0,0,0,-1,2029,687,0,0
812,337,0,0,0,0,0,0,0,0,0,-1,2036,687,0,0
-700,330,0,0,0,0,0,0,0,0,0,-1,524,694,0,0
-693,330,0,0,0,0,0,0,0,0,0,-1,531,694,0,0
-686,330,0,0,0,0,0,0,0,0,0,-1,538,694,0,0
-679,330,0,0,0,0,0,0,0,0,0,-1,545,694,0,0
-672,330,0,0,0,0,0,0,0,0,0,-1,552,694,0,0
-665,330,0,0,0,0,0,0,0,0,0,-1,559,694,0,0
-658,330,0,0,0,0,0,0,0,0,0,-1,566,694,0,0
-651,330,0,0,0,0,0,0,0,0,0,-1,573,694,0,0
-644,330,0,0,0,0,0,0,0,0,0,-1,580,694,0,0
-637,330,0,0,0,0,0,0,0,0,0,-1,587,694,0,0
-630,330,0,0,0,0,0,0,0,0,0,-1,594,694,0,0
-623,330,0,0,0,0,0,0,0,0,0,-1,601,694,0,0
-616,330,0,0,0,0,0,0,0,0,0,-1,608,694,0,0
-609,330,0,0,0,0,0,0,0,0,0,-1,615,694,0,0
-602,330,0,0,0,0,0,0,0,0,0,-1,622,694,0,0
-595,330,-4.67883,1.65515,0,0,0,0,0,0,0,-1,629,694,-4.67881,-1.65515
-588,330,-8.5047,2.67346,0,0,0,0,0,0,0,-1,636,694,-8.50469,-2.67348
-581,330,-12.4227,0.947083,0,0,0,0,0,0,0,-1,643,694,-12.4227,-0.947109
-574,330,-9.02118,1.87952,0,0,0,0,0,0,0,-1,650,694,-9.02115,-1.87953
-567,330,-8.35577,0.909973,0,0,0,0,0,0,0,-1,657,694,-8.35575,-0.909945
-560,330,-13.1036,-0.584656,0,0,0,0,0,0,0,-1,664,694,-13.1035,0.584658
-553,330,-17.5484,-1.21545,0,0,0,0,0,0,0,-1,671,694,-17.5484,1.21547
-546,330,-23.9397,-3.51813,0,0,0,0,0,0,0,-1,678,694,-23.9397,3.51815
-539,330,-24.3387,-4.57996,0,0,0,0,0,0,0,-1,685,694,-24.3387,4.57996
-532,330,-24.2888,-5.55109,0.00276805,0.00362128,-0.00303033,0.00625488,0.000134451,-0.855329,0.00412583,0.0261891,692,694,-24.2888,5.55109
-525,330,-24.2616,-6.50714,0.00241487,0.00226357,-0.0020885,0.00442909,0.000249349,-0.767294,0.00287322,0.0116766,699,694,-24.2616,6.50712
-518,330,-24.2979,-7.34229,0.00205203,0.00120747,-0.00127292,0.00297088,0.000288618,-0.62524,0.00189173,0.0154036,706,694,-24.2979,7.3423
-511,330,-24.3646,-8.21228,0.00169937,0.000409154,-0.000638564,0.00196197,0.000146557,-0.39015,0.00126197,0.02002,713,694,-24.3646,8.21231
-504,330,-24.4172,-9.11353,0.00130523,-0.000173304,-0.000104042,0.00131252,-0.000180589,-0.0699091,0.000941004,0.0184316,720,694,-24.4173,9.11353
-497,330,-24.478,-9.98798,0.000982247,-0.000557582,0.000278528,0.00103108,-0.000606414,0.173558,0.000955946,0.0144636,727,694,-24.478,9.988
-490,330,-24.4936,-10.9011,0.000770498,-0.000726631,0.000454662,0.000897757,-0.000853889,0.272913,0.00101142,0.0151479,734,694,-24.4936,10.9011
-483,330,-24.5108,-11.8027,0.000591793,-0.00065535,0.000458509,0.000742219,-0.000805775,0.317011,0.000893986,0.0148882,741,694,-24.5108,11.8027
-476,330,-24.5433,-12.7502,0,0,0,0,0,0,0,-1,748,694,-24.5434,12.7502
-469,330,-16.1478,-9.23303,0,0,0,0,0,0,0,-1,755,694,-16.1478,9.23301
-462,330,-7.26733,-3.84833,0,0,0,0,0,0,0,-1,762,694,-7.26731,3.84832
-455,330,-5.04254,-1.79303,0,0,0,0,0,0,0,-1,769,694,-5.04252,1.79305
-448,330,-4.89886,-1.66156,0,0,0,0,0,0,0,-1,776,694,-4.89886,1.66157
-441,330,-5.30676,-2.34045,0,0,0,0,0,0,0,-1,783,694,-5.30679,2.34048
-434,330,-7.20428,1.00024,0,0,0,0,0,0,0,-1,790,694,-7.20431,-1.00027
-427,330,-16.0428,2.89258,0,0,0,0,0,0,0,-1,797,694,-16.0428,-2.89259
-420,330,-29.0331,0.271606,0,0,0,0,0,0,0,-1,804,694,-29.0331,-0.27158
-413,330,-29.0896,0.56366,0,0,0,0,0,0,0,-1,811,694,-29.0896,-0.563671
-406,330,-1.65375,-1.74371,0,0,0,0,0,0,0,-1,818,694,-1.65375,1.74371
-399,330,0,0,0,0,0,0,0,0,0,-1,825,694,0,0
-392,330,0,0,0,0,0,0,0,0,0,-1,832,694,0,0
-385,330,0,0,0,0,0,0,0,0,0,-1,839,694,0,0
-378,330,0,0,0,0,0,0,0,0,0,-1,846,694,0,0
-371,330,0,0,0,0,0,0,0,0,0,-1,853,694,0,0
-364,330,0,0,0,0,0,0,0,0,0,-1,860,694,0,0
-357,330,0,0,0,0,0,0,0,0,0,-1,867,694,0,0
-350,330,0,0,0,0,0,0,0,0,0,-1,874,694,0,0
-343,330,0,0,0,0,0,0,0,0,0,-1,881,694,0,0
-336,330,0,0,0,0,0,0,0,0,0,-1,888,694,0,0
-329,330,0,0,0,0,0,0,0,0,0,-1,895,694,0,0
-322,330,0,0,0,0,0,0,0,0,0,-1,902,694,0,0
-315,330,0,0,0,0,0,0,0,0,0,-1,909,694,0,0
-308,330,0,0,0,0,0,0,0,0,0,-1,916,694,0,0
-301,330,0,0,0,0,0,0,0,0,0,-1,923,694,0,0
-294,330,0,0,0,0,0,0,0,0,0,-1,930,694,0,0
-287,330,0,0,0,0,0,0,0,0,0,-1,937,694,0,0
-280,330,0,0,0,0,0,0,0,0,0,-1,944,694,0,0
-273,330,0,0,0,0,0,0,0,0,0,-1,951,694,0,0
-266,330,0,0,0,0,0,0,0,0,0,-1,958,694,0,0
-259,330,0,0,0,0,0,0,0,0,0,-1,965,694,0,0
-252,330,0,0,0,0,0,0,0,0,0,-1,972,694,0,0
-245,330,0,0,0,0,0,0,0,0,0,-1,979,694,0,0
-238,330,0,0,0,0,0,0,0,0,0,-1,986,694,0,0
-231,330,0,0,0,0,0,0,0,0,0,-1,993,694,0,0
-224,330,0,0,0,0,0,0,0,0,0,-1,1000,694,0,0
-217,330,0,0,0,0,0,0,0,0,0,-1,1007,694,0,0
-210,330,0,0,0,0,0,0,0,0,0,-1,1014,694,0,0
-203,330,0,0,0,0,0,0,0,0,0,-1,1021,694,0,0
-196,330,0,0,0,0,0,0,0,0,0,-1,1028,694,0,0
-189,330,0,0,0,0,0,0,0,0,0,-1,1035,694,0,0
-182,330,0,0,0,0,0,0,0,0,0,-1,1042,694,0,0
-175,330,0,0,0,0,0,0,0,0,0,-1,1049,694,0,0
-168,330,0,0,0,0,0,0,0,0,0,-1,1056,694,0,0
-161,330,0,0,0,0,0,0,0,0,0,-1,1063,694,0,0
-154,330,0,0,0,0,0,0,0,0,0,-1,1070,694,0,0
-147,330,0,0,0,0,0,0,0,0,0,-1,1077,694,0,0
-140,330,0,0,0,0,0,0,0,0,0,-1,1084,694,0,0
-133,330,0,0,0,0,0,0,0,0,0,-1,1091,694,0,0
-126,330,0,0,0,0,0,0,0,0,0,-1,1098,694,0,0
-119,330,0,0,0,0,0,0,0,0,0,-1,1105,694,0,0
-112,330,0,0,0,0,0,0,0,0,0,-1,1112,694,0,0
-105,330,0,0,0,0,0,0,0,0,0,-1,1119,694,0,0
-98,330,0,0,0,0,0,0,0,0,0,-1,1126,694,0,0
-91,330,0,0,0,0,0,0,0,0,0,-1,1133,694,0,0
-84,330,0,0,0,0,0,0,0,0,0,-1,1140,694,0,0
-77,330,0,0,0,0,0,0,0,0,0,-1,1147,694,0,0
-70,330,0,0,0,0,0,0,0,0,0,-1,1154,694,0,0
-63,330,0,0,0,0,0,0,0,0,0,-1,1161,694,0,0
-56,330,0,0,0,0,0,0,0,0,0,-1,1168,694,0,0
-49,330,0,0,0,0,0,0,0,0,0,-1,1175,694,0,0
-42,330,0,0,0,0,0,0,0,0,0,-1,1182,694,0,0
-35,330,0,0,0,0,0,0,0,0,0,-1,1189,694,0,0
-28,330,0,0,0,0,0,0,0,0,0,-1,1196,694,0,0
-21,330,0,0,0,0,0,0,0,0,0,-1,1203,694,0,0
-14,330,0,0,0,0,0,0,0,0,0,-1,1210,694,0,0
-7,330,0,0,0,0,0,0,0,0,0,-1,1217,694,0,0
0,330,0,0,0,0,0,0,0,0,0,-1,1224,694,0,0
7,330,0,0,0,0,0,0,0,0,0,-1,1231,694,0,0
14,330,0,0,0,0,0,0,0,0,0,-1,1238,694,0,0
21,330,0,0,0,0,0,0,0,0,0,-1,1245,694,0,0
28,330,0,0,0,0,0,0,0,0,0,-1,1252,694,0,0
35,330,0,0,0,0,0,0,0,0,0,-1,1259,694,0,0
42,330,0,0,0,0,0,0,0,0,0,-1,1266,694,0,0
49,330,0,0,0,0,0,0,0,0,0,-1,1273,694,0,0
56,330,0,0,0,0,0,0,0,0,0,-1,1280,694,0,0
63,330,0,0,0,0,0,0,0,0,0,-1,1287,694,0,0
70,330,0,0,0,0,0,0,0,0,0,-1,1294,694,0,0
77,330,0,0,0,0,0,0,0,0,0,-1,1301,694,0,0
84,330,0,0,0,0,0,0,0,0,0,-1,1308,694,0,0
91,330,0,0,0,0,0,0,0,0,0,-1,1315,694,0,0
98,330,0,0,0,0,0,0,0,0,0,-1,1322,694,0,0
105,330,0,0,0,0,0,0,0,0,0,-1,1329,694,0,0
112,330,0,0,0,0,0,0,0,0,0,-1,1336,694,0,0
119,330,0,0,0,0,0,0,0,0,0,-1,1343,694,0,0
126,330,0,0,0,0,0,0,0,0,0,-1,1350,694,0,0
133,330,0,0,0,0,0,0,0,0,0,-1,1357,694,0,0
140,330,0,0,0,0,0,0,0,0,0,-1,1364,694,0,0
147,330,0,0,0,0,0,0,0,0,0,-1,1371,694,0,0
154,330,0,0,0,0,0,0,0,0,0,-1,1378,694,0,0
161,330,0,0,0,0,0,0,0,0,0,-1,1385,694,0,0
168,330,0,0,0,0,0,0,0,0,0,-1,1392,694,0,0
175,330,0,0,0,0,0,0,0,0,0,-1,1399,694,0,0
182,330,0,0,0,0,0,0,0,0,0,-1,1406,694,0,0
189,330,0,0,0,0,0,0,0,0,0,-1,1413,694,0,0
196,330,0,0,0,0,0,0,0,0,0,-1,1420,694,0,0
203,330,0,0,0,0,0,0,0,0,0,-1,1427,694,0,0
210,330,0,0,0,0,0,0,0,0,0,-1,1434,694,0,0
217,330,0,0,0,0,0,0,0,0,0,-1,1441,694,0,0
224,330,0,0,0,0,0,0,0,0,0,-1,1448,694,0,0
231,330,0,0,0,0,0,0,0,0,0,-1,1455,694,0,0
238,330,0,0,0,0,0,0,0,0,0,-1,1462,694,0,0
245,330,0,0,0,0,0,0,0,0,0,-1,1469,694,0,0
252,330,0,0,0,0,0,0,0,0,0,-1,1476,694,0,0
259,330,0,0,0,0,0,0,0,0,0,-1,1483,694,0,0
266,330,0,0,0,0,0,0,0,0,0,-1,1490,694,0,0
273,330,0,0,0,0,0,0,0,0,0,-1,1497,694,0,0
280,330,0,0,0,0,0,0,0,0,0,-1,1504,694,0,0
287,330,0,0,0,0,0,0,0,0,0,-1,1511,694,0,0
294,330,0,0,0,0,0,0,0,0,0,-1,1518,694,0,0
301,330,0,0,0,0,0,0,0,0,0,-1,1525,694,0,0
308,330,0,0,0,0,0,0,0,0,0,-1,1532,694,0,0
315,330,0,0,0,0,0,0,0,0,0,-1,1539,694,0,0
322,330,0,0,0,0,0,0,0,0,0,-1,1546,694,0,0
329,330,0,0,0,0,0,0,0,0,0,-1,1553,694,0,0
336,330,0,0,0,0,0,0,0,0,0,-1,1560,694,0,0
343,330,0,0,0,0,0,0,0,0,0,-1,1567,694,0,0
350,330,0,0,0,0,0,0,0,0,0,-1,1574,694,0,0
357,330,0,0,0,0,0,0,0,0,0,-1,1581,694,0,0
364,330,0,0,0,0,0,0,0,0,0,-1,1588,694,0,0
371,330,0,0,0,0,0,0,0,0,0,-1,1595,694,0,0
378,330,0,0,0,0,0,0,0,0,0,-1,1602,694,0,0
385,330,0,0,0,0,0,0,0,0,0,-1,1609,694,0,0
392,330,0,0,0,0,0,0,0,0,0,-1,1616,694,0,0
399,330,0,0,0,0,0,0,0,0,0,-1,1623,694,0,0
406,330,0,0,0,0,0,0,0,0,0,-1,1630,694,0,0
413,330,0,0,0,0,0,0,0,0,0,-1,1637,694,0,0
420,330,0,0,0,0,0,0,0,0,0,-1,1644,694,0,0
427,330,0,0,0,0,0,0,0,0,0,-1,1651,694,0,0
434,330,0,0,0,0,0,0,0,0,0,-1,1658,694,0,0
441,330,0,0,0,0,0,0,0,0,0,-1,1665,694,0,0
448,330,0,0,0,0,0,0,0,0,0,-1,1672,694,0,0
455,330,0,0,0,0,0,0,0,0,0,-1,1679,694,0,0
462,330,0,0,0,0,0,0,0,0,0,-1,1686,694,0,0
469,330,0,0,0,0,0,0,0,0,0,-1,1693,694,0,0
476,330,0,0,0,0,0,0,0,0,0,-1,1700,694,0,0
483,330,0,0,0,0,0,0,0,0,0,-1,1707,694,0,0
490,330,0,0,0,0,0,0,0,0,0,-1,1714,694,0,0
497,330,0,0,0,0,0,0,0,0,0,-1,1721,694,0,0
504,330,0,0,0,0,0,0,0,0,0,-1,1728,694,0,0
511,330,0,0,0,0,0,0,0,0,0,-1,1735,694,0,0
518,330,0,0,0,0,0,0,0,0,0,-1,1742,694,0,0
525,330,30.6694,0.69519,0,0,0,0,0,0,0,-1,1749,694,30.6694,-0.695206
532,330,30.9469,1.32501,0,0,0,0,0,0,0,-1,1756,694,30.9469,-1.32501
539,330,31.5155,1.62506,0,0,0,0,0,0,0,-1,1763,694,31.5155,-1.62507
546,330,31.4187,1.85651,0,0,0,0,0,0,0,-1,1770,694,31.4187,-1.85651
553,330,31.8452,1.81476,0,0,0,0,0,0,0,-1,1777,694,31.8452,-1.81475
560,330,32.2401,2.43225,0,0,0,0,0,0,0,-1,1784,694,32.2401,-2.43227
567,330,18.0321,3.98578,0,0,0,0,0,0,0,-1,1791,694,18.0321,-3.98576
574,330,12.0454,2.1662,0,0,0,0,0,0,0,-1,1798,694,12.0455,-2.16618
581,330,11.4215,4.50836,0,0,0,0,0,0,0,-1,1805,694,11.4215,-4.50837
588,330,6.45667,-0.0630493,0,0,0,0,0,0,0,-1,1812,694,6.45661,0.0630695
595,330,8.23193,-0.258484,0,0,0,0,0,0,0,-1,1819,694,8.23188,0.258459
602,330,39.3618,-12.2222,0,0,0,0,0,0,0,-1,1826,694,39.3618,12.2222
609,330,39.4973,-11.0862,0.00162235,0.000821514,0.00114871,0.00243843,5.43846e-06,0.617692,0.00162381,0.0277526,1833,694,39.4973,11.0862
616,330,39.5117,-10.1852,0.0015728,0.000519598,0.00100979,0.00218505,-9.26558e-05,0.545051,0.00148855,0.0123791,1840,694,39.5118,10.1852
623,330,39.4463,-9.28754,0.00142272,0.000452058,0.00084217,0.0019094,-3.46164e-05,0.523997,0.00128463,0.0137683,1847,694,39.4463,9.28754
630,330,39.4014,-8.36768,0.00141497,0.00050677,0.000782841,0.00186588,5.58565e-05,0.522583,0.00122572,0.0142974,1854,694,39.4013,8.36769
637,330,39.3713,-7.47357,0.00146039,0.000654371,0.000761203,0.00191869,0.000196076,0.541937,0.00121903,0.0135261,1861,694,39.3713,7.47359
644,330,39.3214,-6.59515,0.00156295,0.0008821,0.000776453,0.00207033,0.000374722,0.5788,0.00127382,0.00898736,1868,694,39.3214,6.59514
651,330,39.2639,-5.68066,0.00173741,0.00121911,0.00083829,0.00235569,0.000600829,0.635489,0.00141341,0.0123253,1875,694,39.2639,5.68065
658,330,39.1859,-4.79266,0.00201532,0.00167233,0.000969265,0.00282814,0.000859504,0.697837,0.00167416,0.0126073,1882,694,39.1859,4.79264
665,330,39.1187,-3.90228,0.00255228,0.00218306,0.00119372,0.00357558,0.00115976,0.708681,0.00210639,0.0120365,1889,694,39.1186,3.90231
672,330,39.1993,-2.96161,0.00335699,0.00287413,0.00139561,0.0045319,0.00169922,0.699751,0.00264363,0.0380298,1896,694,39.1993,2.96161
679,330,39.39,-1.94202,0,0,0,0,0,0,0,-1,1903,694,39.3901,1.94201
686,330,30.6691,0.582825,0,0,0,0,0,0,0,-1,1910,694,30.6691,-0.582798
693,330,17.3999,2.5976,0,0,0,0,0,0,0,-1,1917,694,17.4,-2.59759
700,330,17.1072,4.13,0,0,0,0,0,0,0,-1,1924,694,17.1071,-4.13002
707,330,16.663,4.88672,0,0,0,0,0,0,0,-1,1931,694,16.6629,-4.88673
714,330,16.5454,5.80896,0,0,0,0,0,0,0,-1,1938,694,16.5454,-5.80899
721,330,0,0,0,0,0,0,0,0,0,-1,1945,694,0,0
728,330,0,0,0,0,0,0,0,0,0,-1,1952,694,0,0
735,330,0,0,0,0,0,0,0,0,0,-1,1959,694,0,0
742,330,0,0,0,0,0,0,0,0,0,-1,1966,694,0,0
749,330,0,0,0,0,0,0,0,0,0,-1,1973,694,0,0
756,330,0,0,0,0,0,0,0,0,0,-1,1980,694,0,0
763,330,0,0,0,0,0,0,0,0,0,-1,1987,694,0,0
770,330,0,0,0,0,0,0,0,0,0,-1,1994,694,0,0
777,330,0,0,0,0,0,0,0,0,0,-1,2001,694,0,0
784,330,0,0,0,0,0,0,0,0,0,-1,2008,694,0,0
791,330,0,0,0,0,0,0,0,0,0,-1,2015,694,0,0
798,330,0,0,0,0,0,0,0,0,0,-1,2022,694,0,0
805,330,0,0,0,0,0,0,0,0,0,-1,2029,694,0,0
812,330,0,0,0,0,0,0,0,0,0,-1,2036,694,0,0
-700,323,0,0,0,0,0,0,0,0,0,-1,524,701,0,0
-693,323,0,0,0,0,0,0,0,0,0,-1,531,701,0,0
-686,323,0,0,0,0,0,0,0,0,0,-1,538,701,0,0
-679,323,0,0,0,0,0,0,0,0,0,-1,545,701,0,0
-672,323,0,0,0,0,0,0,0,0,0,-1,552,701,0,0
-665,323,0,0,0,0,0,0,0,0,0,-1,559,701,0,0
-658,323,0,0,0,0,0,0,0,0,0,-1,566,701,0,0
-651,323,0,0,0,0,0,0,0,0,0,-1,573,701,0,0
-644,323,0,0,0,0,0,0,0,0,0,-1,580,701,0,0
-637,323,0,0,0,0,0,0,0,0,0,-1,587,701,0,0
-630,323,0,0,0,0,0,0,0,0,0,-1,594,701,0,0
-623,323,0,0,0,0,0,0,0,0,0,-1,601,701,0,0
-616,323,0,0,0,0,0,0,0,0,0,-1,608,701,0,0
-609,323,0,0,0,0,0,0,0,0,0,-1,615,701,0,0
-602,323,-4.15833,2.12256,0,0,0,0,0,0,0,-1,622,701,-4.1583,-2.12257
-595,323,-4.052,1.79156,0,0,0,0,0,0,0,-1,629,701,-4.05198,-1.79158
-588,323,-4.07019,1.94543,0,0,0,0,0,0,0,-1,636,701,-4.07019,-1.94542
-581,323,-6.63727,0.562805,0,0,0,0,0,0,0,-1,643,701,-6.63728,-0.56279
-574,323,-6.15887,0.426697,0,0,0,0,0,0,0,-1,650,701,-6.15887,-0.426727
-567,323,-10.0015,0.0371094,0,0,0,0,0,0,0,-1,657,701,-10.0015,-0.037126
-560,323,-16.3503,-1.16956,0,0,0,0,0,0,0,-1,664,701,-16.3503,1.16957
-553,323,-25.0799,-3.02789,0,0,0,0,0,0,0,-1,671,701,-25.0799,3.02789
-546,323,-25.0081,-3.77747,0,0,0,0,0,0,0,-1,678,701,-25.0081,3.77746
-539,323,-24.999,-4.55542,0.00228454,0.00445316,-0.00317861,0.00672732,1.03831e-05,-0.949772,0.00448142,0.0304191,685,701,-24.9989,4.55539
-532,323,-25.0998,-5.51422,0.00220438,0.00308001,-0.00235939,0.00504187,0.000242524,-0.877136,0.00328339,0.0127788,692,701,-25.0998,5.51424
-525,323,-25.1627,-6.44501,0.00198958,0.00191083,-0.00158237,0.00353307,0.000367353,-0.772959,0.00224298,0.00906426,699,701,-25.1627,6.44498
-518,323,-25.1882,-7.28595,0.00172481,0.000963347,-0.000891098,0.0023131,0.000375051,-0.583507,0.0014335,0.0110107,706,701,-25.1882,7.28594
-511,323,-25.2372,-8.15924,0.00136508,0.000208965,-0.000328006,0.00145165,0.000122388,-0.258064,0.000929662,0.0138915,713,701,-25.2372,8.15922
-504,323,-25.3115,-9.03644,0.000917314,-0.000359242,0.000187261,0.000944217,-0.000386145,0.142689,0.00079029,0.0147909,720,701,-25.3115,9.03644
-497,323,-25.3704,-9.91626,0.000533617,-0.000739218,0.000567324,0.000749774,-0.000955375,0.364031,0.000986851,0.0125316,727,701,-25.3704,9.91627
-490,323,-25.421,-10.8179,0.000276777,-0.000929435,0.000767621,0.000649877,-0.00130254,0.452423,0.00114803,0.014706,734,701,-25.421,10.8179
-483,323,-25.4373,-11.697,1.22787e-05,-0.000823276,0.000819911,0.000514714,-0.00132571,0.549773,0.00109642,0.0330604,741,701,-25.4373,11.697
-476,323,-25.4094,-12.5952,0,0,0,0,0,0,0,-1,748,701,-25.4093,12.5952
-469,323,-8.33301,-3.64001,0,0,0,0,0,0,0,-1,755,701,-8.33298,3.64
-462,323,-5.29431,-1.45697,0,0,0,0,0,0,0,-1,762,701,-5.29431,1.45699
-455,323,-5.0658,-1.36639,0,0,0,0,0,0,0,-1,769,701,-5.06578,1.3664
-448,323,-4.91608,-1.59601,0,0,0,0,0,0,0,-1,776,701,-4.91606,1.59604
-441,323,-14.4006,0.535217,0,0,0,0,0,0,0,-1,783,701,-14.4006,-0.535203
-434,323,-15.3158,2.479,0,0,0,0,0,0,0,-1,790,701,-15.3158,-2.47898
-427,323,-28.3923,1.16797,0,0,0,0,0,0,0,-1,797,701,-28.3923,-1.16796
-420,323,-28.7292,1.09302,0,0,0,0,0,0,0,-1,804,701,-28.7292,-1.09304
-413,323,-28.7955,1.22418,0,0,0,0,0,0,0,-1,811,701,-28.7956,-1.22419
-406,323,0,0,0,0,0,0,0,0,0,-1,818,701,0,0
-399,323,0,0,0,0,0,0,0,0,0,-1,825,701,0,0
-392,323,0,0,0,0,0,0,0,0,0,-1,832,701,0,0
-385,323,0,0,0,0,0,0,0,0,0,-1,839,701,0,0
-378,323,0,0,0,0,0,0,0,0,0,-1,846,701,0,0
-371,323,0,0,0,0,0,0,0,0,0,-1,853,701,0,0
-364,323,0,0,0,0,0,0,0,0,0,-1,860,701,0,0
-357,323,0,0,0,0,0,0,0,0,0,-1,867,701,0,0
-350,323,0,0,0,0,0,0,0,0,0,-1,874,701,0,0
-343,323,0,0,0,0,0,0,0,0,0,-1,881,701,0,0
-336,323,0,0,0,0,0,0,0,0,0,-1,888,701,0,0
-329,323,0,0,0,0,0,0,0,0,0,-1,895,701,0,0
-322,323,0,0,0,0,0,0,0,0,0,-1,902,701,0,0
-315,323,0,0,0,0,0,0,0,0,0,-1,909,701,0,0
-308,323,0,0,0,0,0,0,0,0,0,-1,916,701,0,0
-301,323,0,0,0,0,0,0,0,0,0,-1,923,701,0,0
-294,323,0,0,0,0,0,0,0,0,0,-1,930,701,0,0
-287,323,0,0,0,0,0,0,0,0,0,-1,937,701,0,0
-280,323,0,0,0,0,0,0,0,0,0,-1,944,701,0,0
-273,323,0,0,0,0,0,0,0,0,0,-1,951,701,0,0
-266,323,0,0,0,0,0,0,0,0,0,-1,958,701,0,0
-259,323,0,0,0,0,0,0,0,0,0,-1,965,701,0,0
-252,323,0,0,0,0,0,0,0,0,0,-1,972,701,0,0
-245,323,0,0,0,0,0,0,0,0,0,-1,979,701,0,0
-238,323,0,0,0,0,0,0,0,0,0,-1,986,701,0,0
-231,323,0,0,0,0,0,0,0,0,0,-1,993,701,0,0
-224,323,0,0,0,0,0,0,0,0,0,-1,1000,701,0,0
-217,323,0,0,0,0,0,0,0,0,0,-1,1007,701,0,0
-210,323,0,0,0,0,0,0,0,0,0,-1,1014,701,0,0
-203,323,0,0,0,0,0,0,0,0,0,-1,1021,701,0,0
-196,323,0,0,0,0,0,0,0,0,0,-1,1028,701,0,0
-189,323,0,0,0,0,0,0,0,0,0,-1,1035,701,0,0
-182,323,0,0,0,0,0,0,0,0,0,-1,1042,701,0,0
-175,323,0,0,0,0,0,0,0,0,0,-1,1049,701,0,0
-168,323,0,0,0,0,0,0,0,0,0,-1,1056,701,0,0
-161,323,0,0,0,0,0,0,0,0,0,-1,1063,701,0,0
-154,323,0,0,0,0,0,0,0,0,0,-1,1070,701,0,0
-147,323,0,0,0,0,0,0,0,0,0,-1,1077,701,0,0
-140,323,0,0,0,0,0,0,0,0,0,-1,1084,701,0,0
-133,323,0,0,0,0,0,0,0,0,0,-1,1091,701,0,0
-126,323,0,0,0,0,0,0,0,0,0,-1,1098,701,0,0
-119,323,0,0,0,0,0,0,0,0,0,-1,1105,701,0,0
-112,323,0,0,0,0,0,0,0,0,0,-1,1112,701,0,0
-105,323,0,0,0,0,0,0,0,0,0,-1,1119,701,0,0
-98,323,0,0,0,0,0,0,0,0,0,-1,1126,701,0,0
-91,323,0,0,0,0,0,0,0,0,0,-1,1133,701,0,0
-84,323,0,0,0,0,0,0,0,0,0,-1,1140,701,0,0
-77,323,0,0,0,0,0,0,0,0,0,-1,1147,701,0,0
-70,323,0,0,0,0,0,0,0,0,0,-1,1154,701,0,0
-63,323,0,0,0,0,0,0,0,0,0,-1,1161,701,0,0
-56,323,0,0,0,0,0,0,0,0,0,-1,1168,701,0,0
-49,323,0,0,0,0,0,0,0,0,0,-1,1175,701,0,0
-42,323,0,0,0,0,0,0,0,0,0,-1,1182,701,0,0
-35,323,0,0,0,0,0,0,0,0,0,-1,1189,701,0,0
-28,323,0,0,0,0,0,0,0,0,0,-1,1196,701,0,0
-21,323,0,0,0,0,0,0,0,0,0,-1,1203,701,0,0
-14,323,0,0,0,0,0,0,0,0,0,-1,1210,701,0,0
-7,323,0,0,0,0,0,0,0,0,0,-1,1217,701,0,0
0,323,0,0,0,0,0,0,0,0,0,-1,1224,701,0,0
7,323,0,0,0,0,0,0,0,0,0,-1,1231,701,0,0
14,323,0,0,0,0,0,0,0,0,0,-1,1238,701,0,0
21,323,0,0,0,0,0,0,0,0,0,-1,1245,701,0,0
28,323,0,0,0,0,0,0,0,0,0,-1,1252,701,0,0
35,323,0,0,0,0,0,0,0,0,0,-1,1259,701,0,0
42,323,0,0,0,0,0,0,0,0,0,-1,1266,701,0,0
49,323,0,0,0,0,0,0,0,0,0,-1,1273,701,0,0
56,323,0,0,0,0,0,0,0,0,0,-1,1280,701,0,0
63,323,0,0,0,0,0,0,0,0,0,-1,1287,701,0,0
70,323,0,0,0,0,0,0,0,0,0,-1,1294,701,0,0
77,323,0,0,0,0,0,0,0,0,0,-1,1301,701,0,0
84,323,0,0,0,0,0,0,0,0,0,-1,1308,701,0,0
91,323,0,0,0,0,0,0,0,0,0,-1,1315,701,0,0
98,323,0,0,0,0,0,0,0,0,0,-1,1322,701,0,0
105,323,0,0,0,0,0,0,0,0,0,-1,1329,701,0,0
112,323,0,0,0,0,0,0,0,0,0,-1,1336,701,0,0
119,323,0,0,0,0,0,0,0,0,0,-1,1343,701,0,0
126,323,0,0,0,0,0,0,0,0,0,-1,1350,701,0,0
133,323,0,0,0,0,0,0,0,0,0,-1,1357,701,0,0
140,323,0,0,0,0,0,0,0,0,0,-1,1364,701,0,0
147,323,0,0,0,0,0,0,0,0,0,-1,1371,701,0,0
154,323,0,0,0,0,0,0,0,0,0,-1,1378,701,0,0
161,323,0,0,0,0,0,0,0,0,0,-1,1385,701,0,0
168,323,0,0,0,0,0,0,0,0,0,-1,1392,701,0,0
175,323,0,0,0,0,0,0,0,0,0,-1,1399,701,0,0
182,323,0,0,0,0,0,0,0,0,0,-1,1406,701,0,0
189,323,0,0,0,0,0,0,0,0,0,-1,1413,701,0,0
196,323,0,0,0,0,0,0,0,0,0,-1,1420,701,0,0
203,323,0,0,0,0,0,0,0,0,0,-1,1427,701,0,0
210,323,0,0,0,0,0,0,0,0,0,-1,1434,701,0,0
217,323,0,0,0,0,0,0,0,0,0,-1,1441,701,0,0
224,323,0,0,0,0,0,0,0,0,0,-1,1448,701,0,0
231,323,0,0,0,0,0,0,0,0,0,-1,1455,701,0,0
238,323,0,0,0,0,0,0,0,0,0,-1,1462,701,0,0
245,323,0,0,0,0,0,0,0,0,0,-1,1469,701,0,0
252,323,0,0,0,0,0,0,0,0,0,-1,1476,701,0,0
259,323,0,0,0,0,0,0,0,0,0,-1,1483,701,0,0
266,323,0,0,0,0,0,0,0,0,0,-1,1490,701,0,0
273,323,0,0,0,0,0,0,0,0,0,-1,1497,701,0,0
280,323,0,0,0,0,0,0,0,0,0,-1,1504,701,0,0
287,323,0,0,0,0,0,0,0,0,0,-1,1511,701,0,0
294,323,0,0,0,0,0,0,0,0,0,-1,1518,701,0,0
301,323,0,0,0,0,0,0,0,0,0,-1,1525,701,0,0
308,323,0,0,0,0,0,0,0,0,0,-1,1532,701,0,0
315,323,0,0,0,0,0,0,0,0,0,-1,1539,701,0,0
322,323,0,0,0,0,0,0,0,0,0,-1,1546,701,0,0
329,323,0,0,0,0,0,0,0,0,0,-1,1553,701,0,0
336,323,0,0,0,0,0,0,0,0,0,-1,1560,701,0,0
343,323,0,0,0,0,0,0,0,0,0,-1,1567,701,0,0
350,323,0,0,0,0,0,0,0,0,0,-1,1574,701,0,0
357,323,0,0,0,0,0,0,0,0,0,-1,1581,701,0,0
364,323,0,0,0,0,0,0,0,0,0,-1,1588,701,0,0
371,323,0,0,0,0,0,0,0,0,0,-1,1595,701,0,0
378,323,0,0,0,0,0,0,0,0,0,-1,1602,701,0,0
385,323,0,0,0,0,0,0,0,0,0,-1,1609,701,0,0
392,323,0,0,0,0,0,0,0,0,0,-1,1616,701,0,0
399,323,0,0,0,0,0,0,0,0,0,-1,1623,701,0,0
406,323,0,0,0,0,0,0,0,0,0,-1,1630,701,0,0
413,323,0,0,0,0,0,0,0,0,0,-1,1637,701,0,0
420,323,0,0,0,0,0,0,0,0,0,-1,1644,701,0,0
427,323,0,0,0,0,0,0,0,0,0,-1,1651,701,0,0
434,323,0,0,0,0,0,0,0,0,0,-1,1658,701,0,0
441,323,0,0,0,0,0,0,0,0,0,-1,1665,701,0,0
448,323,0,0,0,0,0,0,0,0,0,-1,1672,701,0,0
455,323,0,0,0,0,0,0,0,0,0,-1,1679,701,0,0
462,323,0,0,0,0,0,0,0,0,0,-1,1686,701,0,0
469,323,0,0,0,0,0,0,0,0,0,-1,1693,701,0,0
476,323,0,0,0,0,0,0,0,0,0,-1,1700,701,0,0
483,323,0,0,0,0,0,0,0,0,0,-1,1707,701,0,0
490,323,0,0,0,0,0,0,0,0,0,-1,1714,701,0,0
497,323,0,0,0,0,0,0,0,0,0,-1,1721,701,0,0
504,323,0,0,0,0,0,0,0,0,0,-1,1728,701,0,0
511,323,0,0,0,0,0,0,0,0,0,-1,1735,701,0,0
518,323,0,0,0,0,0,0,0,0,0,-1,1742,701,0,0
525,323,0,0,0,0,0,0,0,0,0,-1,1749,701,0,0
532,323,33.6193,1.69446,0,0,0,0,0,0,0,-1,1756,701,33.6193,-1.69444
539,323,32.2698,2.44037,0,0,0,0,0,0,0,-1,1763,701,32.2697,-2.44036
546,323,31.1644,3.9444,0,0,0,0,0,0,0,-1,1770,701,31.1644,-3.94438
553,323,30.2488,5.8775,0,0,0,0,0,0,0,-1,1777,701,30.2487,-5.87752
560,323,40.6711,1.25153,0,0,0,0,0,0,0,-1,1784,701,40.6711,-1.25154
567,323,42.1637,2.01208,0,0,0,0,0,0,0,-1,1791,701,42.1637,-2.01207
574,323,12.514,5.89685,0,0,0,0,0,0,0,-1,1798,701,12.5141,-5.89683
581,323,11.821,5.3476,0,0,0,0,0,0,0,-1,1805,701,11.821,-5.34762
588,323,11.7933,7.00818,0,0,0,0,0,0,0,-1,1812,701,11.7933,-7.00819
595,323,6.67847,0.06604,0,0,0,0,0,0,0,-1,1819,701,6.67841,-0.0660418
602,323,40.0222,-11.9467,0,0,0,0,0,0,0,-1,1826,701,40.0223,11.9466
609,323,40.2789,-11.0005,0.00217758,0.00102895,0.00154017,0.00324702,-4.04969e-05,0.606938,0.00217831,0.0395694,1833,701,40.2789,11.0005
616,323,40.3918,-10.0907,0.00196871,0.000587784,0.00129305,0.0027441,-0.000187606,0.540168,0.00189504,0.0132233,1840,701,40.3918,10.0907
623,323,40.3264,-9.20837,0.00162357,0.000444278,0.00101365,0.0022066,-0.000138756,0.52197,0.00151943,0.012688,1847,701,40.3264,9.20834
630,323,40.2858,-8.30603,0.00152357,0.000408789,0.000866679,0.00199663,-6.42643e-05,0.499631,0.00135302,0.013871,1854,701,40.2858,8.30606
637,323,40.2638,-7.41547,0.00149021,0.00049104,0.000785494,0.00192153,5.97186e-05,0.502158,0.00126159,0.0117392,1861,701,40.2637,7.41545
644,323,40.2108,-6.55005,0.00153126,0.000670307,0.000763385,0.00197718,0.00022439,0.52867,0.00125005,0.00904174,1868,701,40.2109,6.55003
651,323,40.1846,-5.63037,0.00164083,0.000954003,0.000789879,0.00215872,0.000436114,0.580341,0.00131805,0.0121185,1875,701,40.1846,5.63035
658,323,40.0597,-4.70825,0.00183264,0.00139219,0.000881363,0.00252087,0.000703953,0.66297,0.00150197,0.0206139,1882,701,40.0597,4.70824
665,323,39.9644,-3.83472,0.00221462,0.00190925,0.00106873,0.00314151,0.000982357,0.714444,0.00185569,0.0172147,1889,701,39.9644,3.83471
672,323,40.0038,-2.88867,0.00276744,0.00261548,0.00127358,0.0039673,0.00141562,0.755603,0.00232162,0.0219095,1896,701,40.0038,2.88868
679,323,40.0693,-1.81781,0,0,0,0,0,0,0,-1,1903,701,40.0693,1.81781
686,323,30.4916,0.378235,0,0,0,0,0,0,0,-1,1910,701,30.4916,-0.37825
693,323,23.8806,1.08844,0,0,0,0,0,0,0,-1,1917,701,23.8806,-1.08845
700,323,10.7705,0.828613,0,0,0,0,0,0,0,-1,1924,701,10.7705,-0.828591
707,323,16.9005,4.79193,0,0,0,0,0,0,0,-1,1931,701,16.9005,-4.7919
714,323,16.2346,6.25958,0,0,0,0,0,0,0,-1,1938,701,16.2346,-6.25956
721,323,0,0,0,0,0,0,0,0,0,-1,1945,701,0,0
728,323,0,0,0,0,0,0,0,0,0,-1,1952,701,0,0
735,323,0,0,0,0,0,0,0,0,0,-1,1959,701,0,0
742,323,0,0,0,0,0,0,0,0,0,-1,1966,701,0,0
749,323,0,0,0,0,0,0,0,0,0,-1,1973,701,0,0
756,323,0,0,0,0,0,0,0,0,0,-1,1980,701,0,0
763,323,0,0,0,0,0,0,0,0,0,-1,1987,701,0,0
770,323,0,0,0,0,0,0,0,0,0,-1,1994,701,0,0
777,323,0,0,0,0,0,0,0,0,0,-1,2001,701,0,0
784,323,0,0,0,0,0,0,0,0,0,-1,2008,701,0,0
791,323,0,0,0,0,0,0,0,0,0,-1,2015,701,0,0
798,323,0,0,0,0,0,0,0,0,0,-1,2022,701,0,0
805,323,0,0,0,0,0,0,0,0,0,-1,2029,701,0,0
812,323,0,0,0,0,0,0,0,0,0,-1,2036,701,0,0
-700,316,0,0,0,0,0,0,0,0,0,-1,524,708,0,0
-693,316,0,0,0,0,0,0,0,0,0,-1,531,708,0,0
-686,316,0,0,0,0,0,0,0,0,0,-1,538,708,0,0
-679,316,0,0,0,0,0,0,0,0,0,-1,545,708,0,0
-672,316,0,0,0,0,0,0,0,0,0,-1,552,708,0,0
-665,316,0,0,0,0,0,0,0,0,0,-1,559,708,0,0
-658,316,0,0,0,0,0,0,0,0,0,-1,566,708,0,0
-651,316,0,0,0,0,0,0,0,0,0,-1,573,708,0,0
-644,316,0,0,0,0,0,0,0,0,0,-1,580,708,0,0
-637,316,0,0,0,0,0,0,0,0,0,-1,587,708,0,0
-630,316,0,0,0,0,0,0,0,0,0,-1,594,708,0,0
-623,316,0,0,0,0,0,0,0,0,0,-1,601,708,0,0
-616,316,0,0,0,0,0,0,0,0,0,-1,608,708,0,0
-609,316,0,0,0,0,0,0,0,0,0,-1,615,708,0,0
-602,316,-0.451782,-0.0494995,0,0,0,0,0,0,0,-1,622,708,-0.451768,0.0495022
-595,316,-3.3761,2.17188,0,0,0,0,0,0,0,-1,629,708,-3.37609,-2.17189
-588,316,-5.00177,2.60675,0,0,0,0,0,0,0,-1,636,708,-5.00175,-2.60676
-581,316,-3.94653,0.393433,0,0,0,0,0,0,0,-1,643,708,-3.94655,-0.39342
-574,316,-9.67395,1.06067,0,0,0,0,0,0,0,-1,650,708,-9.67396,-1.06065
-567,316,-10.1962,0.448425,0,0,0,0,0,0,0,-1,657,708,-10.1962,-0.448411
-560,316,-18.9941,-1.75067,0,0,0,0,0,0,0,-1,664,708,-18.9941,1.75068
-553,316,-25.6896,-2.78827,0,0,0,0,0,0,0,-1,671,708,-25.6896,2.78827
-546,316,-26.0766,-4.0368,0,0,0,0,0,0,0,-1,678,708,-26.0766,4.03678
-539,316,-25.8901,-4.59906,0.00145044,0.00407208,-0.00253478,0.00561491,-9.23995e-05,-1.02403,0.00377445,0.0144569,685,708,-25.8901,4.59909
-532,316,-25.9705,-5.47583,0.00157037,0.00272484,-0.00183062,0.00406707,0.000228136,-0.938125,0.00263863,0.0114295,692,708,-25.9705,5.47584
-525,316,-26.0193,-6.33673,0.00148493,0.00154122,-0.00114027,0.00265368,0.000372458,-0.797737,0.00165897,0.0103514,699,708,-26.0193,6.33673
-518,316,-26.0502,-7.23285,0.0013203,0.000617745,-0.000501214,0.00158108,0.000356968,-0.479747,0.000957508,0.0101558,706,708,-26.0502,7.23286
-511,316,-26.1088,-8.12567,0.000996291,-0.000158205,5.30759e-05,0.000998726,-0.00016064,0.0458444,0.000725318,0.0112505,713,708,-26.1088,8.12565
-504,316,-26.1832,-8.99438,0.000544697,-0.000783236,0.000595989,0.000772949,-0.00101149,0.365749,0.00103331,0.0151997,720,708,-26.1832,8.99441
-497,316,-26.2415,-9.85834,0.000143196,-0.00123136,0.00101244,0.000679597,-0.00176776,0.48721,0.00145879,0.0139629,727,708,-26.2415,9.85834
-490,316,-26.2826,-10.738,-0.000107228,-0.00152003,0.00125557,0.000627017,-0.00225427,0.529161,0.00174971,0.01988,734,708,-26.2826,10.738
-483,316,-26.3116,-11.6476,0,0,0,0,0,0,0,-1,741,708,-26.3116,11.6476
-476,316,-8.90894,-3.31207,0,0,0,0,0,0,0,-1,748,708,-8.90896,3.31206
-469,316,-6.24194,-1.42725,0,0,0,0,0,0,0,-1,755,708,-6.24192,1.42725
-462,316,-5.74237,-1.40039,0,0,0,0,0,0,0,-1,762,708,-5.74238,1.40039
-455,316,-5.44745,-1.21899,0,0,0,0,0,0,0,-1,769,708,-5.44746,1.21898
-448,316,-14.8945,0.655396,0,0,0,0,0,0,0,-1,776,708,-14.8946,-0.655396
-441,316,-14.9626,0.576111,0,0,0,0,0,0,0,-1,783,708,-14.9626,-0.576115
-434,316,-27.7723,1.15576,0,0,0,0,0,0,0,-1,790,708,-27.7723,-1.15579
-427,316,-28.0504,1.31427,0,0,0,0,0,0,0,-1,797,708,-28.0504,-1.31427
-420,316,-28.198,1.62891,0,0,0,0,0,0,0,-1,804,708,-28.198,-1.62889
-413,316,0,0,0,0,0,0,0,0,0,-1,811,708,0,0
-406,316,0,0,0,0,0,0,0,0,0,-1,818,708,0,0
-399,316,0,0,0,0,0,0,0,0,0,-1,825,708,0,0
-392,316,0,0,0,0,0,0,0,0,0,-1,832,708,0,0
-385,316,0,0,0,0,0,0,0,0,0,-1,839,708,0,0
-378,316,0,0,0,0,0,0,0,0,0,-1,846,708,0,0
-371,316,0,0,0,0,0,0,0,0,0,-1,853,708,0,0
-364,316,0,0,0,0,0,0,0,0,0,-1,860,708,0,0
-357,316,0,0,0,0,0,0,0,0,0,-1,867,708,0,0
-350,316,0,0,0,0,0,0,0,0,0,-1,874,708,0,0
-343,316,0,0,0,0,0,0,0,0,0,-1,881,708,0,0
-336,316,0,0,0,0,0,0,0,0,0,-1,888,708,0,0
-329,316,0,0,0,0,0,0,0,0,0,-1,895,708,0,0
-322,316,0,0,0,0,0,0,0,0,0,-1,902,708,0,0
-315,316,0,0,0,0,0,0,0,0,0,-1,909,708,0,0
-308,316,0,0,0,0,0,0,0,0,0,-1,916,708,0,0
-301,316,0,0,0,0,0,0,0,0,0,-1,923,708,0,0
-294,316,0,0,0,0,0,0,0,0,0,-1,930,708,0,0
-287,316,0,0,0,0,0,0,0,0,0,-1,937,708,0,0
-280,316,0,0,0,0,0,0,0,0,0,-1,944,708,0,0
-273,316,0,0,0,0,0,0,0,0,0,-1,951,708,0,0
-266,316,0,0,0,0,0,0,0,0,0,-1,958,708,0,0
-259,316,0,0,0,0,0,0,0,0,0,-1,965,708,0,0
-252,316,0,0,0,0,0,0,0,0,0,-1,972,708,0,0
-245,316,0,0,0,0,0,0,0,0,0,-1,979,708,0,0
-238,316,0,0,0,0,0,0,0,0,0,-1,986,708,0,0
-231,316,0,0,0,0,0,0,0,0,0,-1,993,708,0,0
-224,316,0,0,0,0,0,0,0,0,0,-1,1000,708,0,0
-217,316,0,0,0,0,0,0,0,0,0,-1,1007,708,0,0
-210,316,0,0,0,0,0,0,0,0,0,-1,1014,708,0,0
-203,316,0,0,0,0,0,0,0,0,0,-1,1021,708,0,0
-196,316,0,0,0,0,0,0,0,0,0,-1,1028,708,0,0
-189,316,0,0,0,0,0,0,0,0,0,-1,1035,708,0,0
-182,316,0,0,0,0,0,0,0,0,0,-1,1042,708,0,0
-175,316,0,0,0,0,0,0,0,0,0,-1,1049,708,0,0
-168,316,0,0,0,0,0,0,0,0,0,-1,1056,708,0,0
-161,316,0,0,0,0,0,0,0,0,0,-1,1063,708,0,0
-154,316,0,0,0,0,0,0,0,0,0,-1,1070,708,0,0
-147,316,0,0,0,0,0,0,0,0,0,-1,1077,708,0,0
-140,316,0,0,0,0,0,0,0,0,0,-1,1084,708,0,0
-133,316,0,0,0,0,0,0,0,0,0,-1,1091,708,0,0
-126,316,0,0,0,0,0,0,0,0,0,-1,1098,708,0,0
-119,316,0,0,0,0,0,0,0,0,0,-1,1105,708,0,0
-112,316,0,0,0,0,0,0,0,0,0,-1,1112,708,0,0
-105,316,0,0,0,0,0,0,0,0,0,-1,1119,708,0,0
-98,316,0,0,0,0,0,0,0,0,0,-1,1126,708,0,0
-91,316,0,0,0,0,0,0,0,0,0,-1,1133,708,0,0
-84,316,0,0,0,0,0,0,0,0,0,-1,1140,708,0,0
-77,316,0,0,0,0,0,0,0,0,0,-1,1147,708,0,0
-70,316,0,0,0,0,0,0,0,0,0,-1,1154,708,0,0
-63,316,0,0,0,0,0,0,0,0,0,-1,1161,708,0,0
-56,316,0,0,0,0,0,0,0,0,0,-1,1168,708,0,0
-49,316,0,0,0,0,0,0,0,0,0,-1,1175,708,0,0
-42,316,0,0,0,0,0,0,0,0,0,-1,1182,708,0,0
-35,316,0,0,0,0,0,0,0,0,0,-1,1189,708,0,0
-28,316,0,0,0,0,0,0,0,0,0,-1,1196,708,0,0
-21,316,0,0,0,0,0,0,0,0,0,-1,1203,708,0,0
-14,316,0,0,0,0,0,0,0,0,0,-1,1210,708,0,0
-7,316,0,0,0,0,0,0,0,0,0,-1,1217,708,0,0
0,316,0,0,0,0,0,0,0,0,0,-1,1224,708,0,0
7,316,0,0,0,0,0,0,0,0,0,-1,1231,708,0,0
14,316,0,0,0,0,0,0,0,0,0,-1,1238,708,0,0
21,316,0,0,0,0,0,0,0,0,0,-1,1245,708,0,0
28,316,0,0,0,0,0,0,0,0,0,-1,1252,708,0,0
35,316,0,0,0,0,0,0,0,0,0,-1,1259,708,0,0
42,316,0,0,0,0,0,0,0,0,0,-1,1266,708,0,0
49,316,0,0,0,0,0,0,0,0,0,-1,1273,708,0,0
56,316,0,0,0,0,0,0,0,0,0,-1,1280,708,0,0
63,316,0,0,0,0,0,0,0,0,0,-1,1287,708,0,0
70,316,0,0,0,0,0,0,0,0,0,-1,1294,708,0,0
77,316,0,0,0,0,0,0,0,0,0,-1,1301,708,0,0
84,316,0,0,0,0,0,0,0,0,0,-1,1308,708,0,0
91,316,0,0,0,0,0,0,0,0,0,-1,1315,708,0,0
98,316,0,0,0,0,0,0,0,0,0,-1,1322,708,0,0
105,316,0,0,0,0,0,0,0,0,0,-1,1329,708,0,0
112,316,0,0,0,0,0,0,0,0,0,-1,1336,708,0,0
119,316,0,0,0,0,0,0,0,0,0,-1,1343,708,0,0
126,316,0,0,0,0,0,0,0,0,0,-1,1350,708,0,0
133,316,0,0,0,0,0,0,0,0,0,-1,1357,708,0,0
140,316,0,0,0,0,0,0,0,0,0,-1,1364,708,0,0
147,316,0,0,0,0,0,0,0,0,0,-1,1371,708,0,0
154,316,0,0,0,0,0,0,0,0,0,-1,1378,708,0,0
161,316,0,0,0,0,0,0,0,0,0,-1,1385,708,0,0
168,316,0,0,0,0,0,0,0,0,0,-1,1392,708,0,0
175,316,0,0,0,0,0,0,0,0,0,-1,1399,708,0,0
182,316,0,0,0,0,0,0,0,0,0,-1,1406,708,0,0
189,316,0,0,0,0,0,0,0,0,0,-1,1413,708,0,0
196,316,0,0,0,0,0,0,0,0,0,-1,1420,708,0,0
203,316,0,0,0,0,0,0,0,0,0,-1,1427,708,0,0
210,316,0,0,0,0,0,0,0,0,0,-1,1434,708,0,0
217,316,0,0,0,0,0,0,0,0,0,-1,1441,708,0,0
224,316,0,0,0,0,0,0,0,0,0,-1,1448,708,0,0
231,316,0,0,0,0,0,0,0,0,0,-1,1455,708,0,0
238,316,0,0,0,0,0,0,0,0,0,-1,1462,708,0,0
245,316,0,0,0,0,0,0,0,0,0,-1,1469,708,0,0
252,316,0,0,0,0,0,0,0,0,0,-1,1476,708,0,0
259,316,0,0,0,0,0,0,0,0,0,-1,1483,708,0,0
266,316,0,0,0,0,0,0,0,0,0,-1,1490,708,0,0
273,316,0,0,0,0,0,0,0,0,0,-1,1497,708,0,0
280,316,0,0,0,0,0,0,0,0,0,-1,1504,708,0,0
287,316,0,0,0,0,0,0,0,0,0,-1,1511,708,0,0
294,316,0,0,0,0,0,0,0,0,0,-1,1518,708,0,0
301,316,0,0,0,0,0,0,0,0,0,-1,1525,708,0,0
308,316,0,0,0,0,0,0,0,0,0,-1,1532,708,0,0
315,316,0,0,0,0,0,0,0,0,0,-1,1539,708,0,0
322,316,0,0,0,0,0,0,0,0,0,-1,1546,708,0,0
329,316,0,0,0,0,0,0,0,0,0,-1,1553,708,0,0
336,316,0,0,0,0,0,0,0,0,0,-1,1560,708,0,0
343,316,0,0,0,0,0,0,0,0,0,-1,1567,708,0,0
350,316,0,0,0,0,0,0,0,0,0,-1,1574,708,0,0
357,316,0,0,0,0,0,0,0,0,0,-1,1581,708,0,0
364,316,0,0,0,0,0,0,0,0,0,-1,1588,708,0,0
371,316,0,0,0,0,0,0,0,0,0,-1,1595,708,0,0
378,316,0,0,0,0,0,0,0,0,0,-1,1602,708,0,0
385,316,0,0,0,0,0,0,0,0,0,-1,1609,708,0,0
392,316,0,0,0,0,0,0,0,0,0,-1,1616,708,0,0
399,316,0,0,0,0,0,0,0,0,0,-1,1623,708,0,0
406,316,0,0,0,0,0,0,0,0,0,-1,1630,708,0,0
413,316,0,0,0,0,0,0,0,0,0,-1,1637,708,0,0
420,316,0,0,0,0,0,0,0,0,0,-1,1644,708,0,0
427,316,0,0,0,0,0,0,0,0,0,-1,1651,708,0,0
434,316,0,0,0,0,0,0,0,0,0,-1,1658,708,0,0
441,316,0,0,0,0,0,0,0,0,0,-1,1665,708,0,0
448,316,0,0,0,0,0,0,0,0,0,-1,1672,708,0,0
455,316,0,0,0,0,0,0,0,0,0,-1,1679,708,0,0
462,316,0,0,0,0,0,0,0,0,0,-1,1686,708,0,0
469,316,0,0,0,0,0,0,0,0,0,-1,1693,708,0,0
476,316,0,0,0,0,0,0,0,0,0,-1,1700,708,0,0
483,316,0,0,0,0,0,0,0,0,0,-1,1707,708,0,0
490,316,0,0,0,0,0,0,0,0,0,-1,1714,708,0,0
497,316,0,0,0,0,0,0,0,0,0,-1,1721,708,0,0
504,316,0,0,0,0,0,0,0,0,0,-1,1728,708,0,0
511,316,0,0,0,0,0,0,0,0,0,-1,1735,708,0,0
518,316,0,0,0,0,0,0,0,0,0,-1,1742,708,0,0
525,316,0,0,0,0,0,0,0,0,0,-1,1749,708,0,0
532,316,33.8604,0.531128,0,0,0,0,0,0,0,-1,1756,708,33.8604,-0.531151
539,316,44.4543,2.73468,0,0,0,0,0,0,0,-1,1763,708,44.4543,-2.7347
546,316,44.713,3.35498,0,0,0,0,0,0,0,-1,1770,708,44.7131,-3.35501
553,316,39.9031,6.57275,0,0,0,0,0,0,0,-1,1777,708,39.9031,-6.57274
560,316,39.1196,1.10046,0,0,0,0,0,0,0,-1,1784,708,39.1197,-1.10048
567,316,47.3683,6.04919,0,0,0,0,0,0,0,-1,1791,708,47.3683,-6.04918
574,316,45.9872,6.7655,0,0,0,0,0,0,0,-1,1798,708,45.9871,-6.76552
581,316,24.6815,7.77496,0,0,0,0,0,0,0,-1,1805,708,24.6815,-7.77499
588,316,19.7659,2.90198,0,0,0,0,0,0,0,-1,1812,708,19.7659,-2.902
595,316,12.5363,1.50702,0,0,0,0,0,0,0,-1,1819,708,12.5363,-1.50701
602,316,7.79919,0.0422363,0,0,0,0,0,0,0,-1,1826,708,7.79923,-0.0422066
609,316,41.3164,-10.8932,0,0,0,0,0,0,0,-1,1833,708,41.3164,10.8932
616,316,41.2775,-10.0041,0.00235978,0.000683113,0.00157049,0.00330169,-0.000258791,0.540236,0.00229226,0.0151833,1840,708,41.2774,10.0041
623,316,41.2332,-9.13977,0.00182139,0.000494628,0.00120135,0.00253035,-0.000214332,0.533135,0.00176269,0.0113185,1847,708,41.2331,9.13974
630,316,41.171,-8.29785,0.00164819,0.000388301,0.000985776,0.00218811,-0.00015162,0.501085,0.00151182,0.0129795,1854,708,41.1711,8.29788
637,316,41.1234,-7.37836,0.00155223,0.000430122,0.00087,0.00202639,-4.4045e-05,0.499011,0.00136585,0.0123248,1861,708,41.1234,7.37834
644,316,41.1071,-6.46869,0.00154688,0.000589839,0.000831275,0.00202753,0.000109194,0.524238,0.0013168,0.0124123,1868,708,41.107,6.46866
651,316,41.053,-5.57788,0.00161559,0.000845272,0.000843291,0.00215752,0.000303348,0.571177,0.00134865,0.0168841,1875,708,41.053,5.57791
658,316,40.9261,-4.66071,0.00176818,0.0012728,0.000911744,0.00246528,0.000575701,0.652766,0.00148919,0.0352616,1882,708,40.9261,4.66069
665,316,40.812,-3.76263,0.00208505,0.00181043,0.00109312,0.00304945,0.000846031,0.72292,0.00181781,0.025131,1889,708,40.812,3.76262
672,316,40.8557,-2.88916,0.00254138,0.00253332,0.00132202,0.00385938,0.00121532,0.783874,0.00227854,0.0137308,1896,708,40.8557,2.88915
679,316,40.8635,-1.97467,0,0,0,0,0,0,0,-1,1903,708,40.8635,1.97467
686,316,34.0828,0.223206,0,0,0,0,0,0,0,-1,1910,708,34.0828,-0.223183
693,316,26.4315,1.80652,0,0,0,0,0,0,0,-1,1917,708,26.4315,-1.80651
700,316,12.8749,2.89136,0,0,0,0,0,0,0,-1,1924,708,12.8748,-2.89137
707,316,15.7089,5.41486,0,0,0,0,0,0,0,-1,1931,708,15.7088,-5.41487
714,316,16.1727,5.52045,0,0,0,0,0,0,0,-1,1938,708,16.1728,-5.52042
721,316,16.7094,6.53351,0,0,0,0,0,0,0,-1,1945,708,16.7094,-6.5335
728,316,0,0,0,0,0,0,0,0,0,-1,1952,708,0,0
735,316,0,0,0,0,0,0,0,0,0,-1,1959,708,0,0
742,316,0,0,0,0,0,0,0,0,0,-1,1966,708,0,0
749,316,0,0,0,0,0,0,0,0,0,-1,1973,708,0,0
756,316,0,0,0,0,0,0,0,0,0,-1,1980,708,0,0
763,316,0,0,0,0,0,0,0,0,0,-1,1987,708,0,0
770,316,0,0,0,0,0,0,0,0,0,-1,1994,708,0,0
777,316,0,0,0,0,0,0,0,0,0,-1,2001,708,0,0
784,316,0,0,0,0,0,0,0,0,0,-1,2008,708,0,0
791,316,0,0,0,0,0,0,0,0,0,-1,2015,708,0,0
798,316,0,0,0,0,0,0,0,0,0,-1,2022,708,0,0
805,316,0,0,0,0,0,0,0,0,0,-1,2029,708,0,0
812,316,0,0,0,0,0,0,0,0,0,-1,2036,708,0,0
-700,309,0,0,0,0,0,0,0,0,0,-1,524,715,0,0
-693,309,0,0,0,0,0,0,0,0,0,-1,531,715,0,0
-686,309,0,0,0,0,0,0,0,0,0,-1,538,715,0,0
-679,309,0,0,0,0,0,0,0,0,0,-1,545,715,0,0
-672,309,0,0,0,0,0,0,0,0,0,-1,552,715,0,0
-665,309,0,0,0,0,0,0,0,0,0,-1,559,715,0,0
-658,309,0,0,0,0,0,0,0,0,0,-1,566,715,0,0
-651,309,0,0,0,0,0,0,0,0,0,-1,573,715,0,0
-644,309,0,0,0,0,0,0,0,0,0,-1,580,715,0,0
-637,309,0,0,0,0,0,0,0,0,0,-1,587,715,0,0
-630,309,0,0,0,0,0,0,0,0,0,-1,594,715,0,0
-623,309,0,0,0,0,0,0,0,0,0,-1,601,715,0,0
-616,309,0,0,0,0,0,0,0,0,0,-1,608,715,0,0
-609,309,-5.95392,-3.93689,0,0,0,0,0,0,0,-1,615,715,-5.95392,3.93686
-602,309,-4.99786,-3.31287,0,0,0,0,0,0,0,-1,622,715,-4.99786,3.31284
-595,309,-6.80847,2.4046,0,0,0,0,0,0,0,-1,629,715,-6.80845,-2.40458
-588,309,-6.08795,2.19324,0,0,0,0,0,0,0,-1,636,715,-6.08793,-2.19325
-581,309,-5.97552,1.3277,0,0,0,0,0,0,0,-1,643,715,-5.97552,-1.32769
-574,309,-8.73602,0.208435,0,0,0,0,0,0,0,-1,650,715,-8.73604,-0.208437
-567,309,-10.3909,0.85968,0,0,0,0,0,0,0,-1,657,715,-10.3909,-0.859696
-560,309,-18.6088,-1.73389,0,0,0,0,0,0,0,-1,664,715,-18.6088,1.73389
-553,309,-27.016,-2.6795,0,0,0,0,0,0,0,-1,671,715,-27.016,2.67949
-546,309,-26.8773,-3.61749,0.000687618,0.00495817,-0.00263092,0.00621127,-0.000565487,-1.12629,0.00434164,0.0386397,678,715,-26.8773,3.61752
-539,309,-26.7901,-4.56012,0.00101988,0.00347541,-0.00194272,0.00454581,-5.05194e-05,-1.0672,0.00304752,0.0153666,685,715,-26.7901,4.56011
-532,309,-26.8359,-5.42401,0.00105023,0.00222318,-0.00123053,0.00299985,0.000273565,-1.00778,0.00191524,0.012272,692,715,-26.8359,5.424
-525,309,-26.8869,-6.30804,0.000954699,0.00106907,-0.000609286,0.00162385,0.000399921,-0.83219,0.000976936,0.0162635,699,715,-26.8869,6.30802
-518,309,-26.9528,-7.18243,0.000808552,0.000179375,-5.42478e-06,0.000808599,0.000179329,-0.00862117,0.000490345,0.0165521,706,715,-26.9528,7.18243
-511,309,-27.0233,-8.05853,0.000461266,-0.00059849,0.000560916,0.000703008,-0.000840232,0.406923,0.000892163,0.012866,713,715,-27.0233,8.0585
-504,309,-27.0731,-8.94373,-2.30311e-05,-0.00125881,0.00114199,0.000657512,-0.00193935,0.53742,0.00155899,0.0104231,720,715,-27.0731,8.9437
-497,309,-27.1078,-9.7926,-0.000433432,-0.00176031,0.00159385,0.000629549,-0.00282329,0.588181,0.00212338,0.0151411,727,715,-27.1078,9.79261
-490,309,-27.1412,-10.6484,0,0,0,0,0,0,0,-1,734,715,-27.1412,10.6485
-483,309,-17.7261,-7.75836,0,0,0,0,0,0,0,-1,741,715,-17.7261,7.75839
-476,309,-5.29486,-1.2262,0,0,0,0,0,0,0,-1,748,715,-5.29484,1.22622
-469,309,-4.22717,-0.592896,0,0,0,0,0,0,0,-1,755,715,-4.2272,0.592905
-462,309,-10.428,2.46948,0,0,0,0,0,0,0,-1,762,715,-10.428,-2.46947
-455,309,-15.8216,0.00915527,0,0,0,0,0,0,0,-1,769,715,-15.8216,-0.00913359
-448,309,-37.3543,-1.02441,0,0,0,0,0,0,0,-1,776,715,-37.3543,1.02444
-441,309,-19.8181,1.4425,0,0,0,0,0,0,0,-1,783,715,-19.8181,-1.44249
-434,309,-46.7953,1.72064,0,0,0,0,0,0,0,-1,790,715,-46.7953,-1.72067
-427,309,-27.8553,1.40332,0,0,0,0,0,0,0,-1,797,715,-27.8553,-1.40334
-420,309,-27.3148,1.90747,0,0,0,0,0,0,0,-1,804,715,-27.3148,-1.90745
-413,309,0,0,0,0,0,0,0,0,0,-1,811,715,0,0
-406,309,0,0,0,0,0,0,0,0,0,-1,818,715,0,0
-399,309,0,0,0,0,0,0,0,0,0,-1,825,715,0,0
-392,309,0,0,0,0,0,0,0,0,0,-1,832,715,0,0
-385,309,0,0,0,0,0,0,0,0,0,-1,839,715,0,0
-378,309,0,0,0,0,0,0,0,0,0,-1,846,715,0,0
-371,309,0,0,0,0,0,0,0,0,0,-1,853,715,0,0
-364,309,0,0,0,0,0,0,0,0,0,-1,860,715,0,0
-357,309,0,0,0,0,0,0,0,0,0,-1,867,715,0,0
-350,309,0,0,0,0,0,0,0,0,0,-1,874,715,0,0
-343,309,0,0,0,0,0,0,0,0,0,-1,881,715,0,0
-336,309,0,0,0,0,0,0,0,0,0,-1,888,715,0,0
-329,309,0,0,0,0,0,0,0,0,0,-1,895,715,0,0
-322,309,0,0,0,0,0,0,0,0,0,-1,902,715,0,0
-315,309,0,0,0,0,0,0,0,0,0,-1,909,715,0,0
-308,309,0,0,0,0,0,0,0,0,0,-1,916,715,0,0
-301,309,0,0,0,0,0,0,0,0,0,-1,923,715,0,0
-294,309,0,0,0,0,0,0,0,0,0,-1,930,715,0,0
-287,309,0,0,0,0,0,0,0,0,0,-1,937,715,0,0
-280,309,0,0,0,0,0,0,0,0,0,-1,944,715,0,0
-273,309,0,0,0,0,0,0,0,0,0,-1,951,715,0,0
-266,309,0,0,0,0,0,0,0,0,0,-1,958,715,0,0
-259,309,0,0,0,0,0,0,0,0,0,-1,965,715,0,0
-252,309,0,0,0,0,0,0,0,0,0,-1,972,715,0,0
-245,309,0,0,0,0,0,0,0,0,0,-1,979,715,0,0
-238,309,0,0,0,0,0,0,0,0,0,-1,986,715,0,0
-231,309,0,0,0,0,0,0,0,0,0,-1,993,715,0,0
-224,309,0,0,0,0,0,0,0,0,0,-1,1000,715,0,0
-217,309,0,0,0,0,0,0,0,0,0,-1,1007,715,0,0
-210,309,0,0,0,0,0,0,0,0,0,-1,1014,715,0,0
-203,309,0,0,0,0,0,0,0,0,0,-1,1021,715,0,0
-196,309,0,0,0,0,0,0,0,0,0,-1,1028,715,0,0
-189,309,0,0,0,0,0,0,0,0,0,-1,1035,715,0,0
-182,309,0,0,0,0,0,0,0,0,0,-1,1042,715,0,0
-175,309,0,0,0,0,0,0,0,0,0,-1,1049,715,0,0
-168,309,0,0,0,0,0,0,0,0,0,-1,1056,715,0,0
-161,309,0,0,0,0,0,0,0,0,0,-1,1063,715,0,0
-154,309,0,0,0,0,0,0,0,0,0,-1,1070,715,0,0
-147,309,0,0,0,0,0,0,0,0,0,-1,1077,715,0,0
-140,309,0,0,0,0,0,0,0,0,0,-1,1084,715,0,0
-133,309,0,0,0,0,0,0,0,0,0,-1,1091,715,0,0
-126,309,0,0,0,0,0,0,0,0,0,-1,1098,715,0,0
-119,309,0,0,0,0,0,0,0,0,0,-1,1105,715,0,0
-112,309,0,0,0,0,0,0,0,0,0,-1,1112,715,0,0
-105,309,0,0,0,0,0,0,0,0,0,-1,1119,715,0,0
-98,309,0,0,0,0,0,0,0,0,0,-1,1126,715,0,0
-91,309,0,0,0,0,0,0,0,0,0,-1,1133,715,0,0
-84,309,0,0,0,0,0,0,0,0,0,-1,1140,715,0,0
-77,309,0,0,0,0,0,0,0,0,0,-1,1147,715,0,0
-70,309,0,0,0,0,0,0,0,0,0,-1,1154,715,0,0
-63,309,0,0,0,0,0,0,0,0,0,-1,1161,715,0,0
-56,309,0,0,0,0,0,0,0,0,0,-1,1168,715,0,0
-49,309,0,0,0,0,0,0,0,0,0,-1,1175,715,0,0
-42,309,0,0,0,0,0,0,0,0,0,-1,1182,715,0,0
-35,309,0,0,0,0,0,0,0,0,0,-1,1189,715,0,0
-28,309,0,0,0,0,0,0,0,0,0,-1,1196,715,0,0
-21,309,0,0,0,0,0,0,0,0,0,-1,1203,715,0,0
-14,309,0,0,0,0,0,0,0,0,0,-1,1210,715,0,0
-7,309,0,0,0,0,0,0,0,0,0,-1,1217,715,0,0
0,309,0,0,0,0,0,0,0,0,0,-1,1224,715,0,0
7,309,0,0,0,0,0,0,0,0,0,-1,1231,715,0,0
14,309,0,0,0,0,0,0,0,0,0,-1,1238,715,0,0
21,309,0,0,0,0,0,0,0,0,0,-1,1245,715,0,0
28,309,0,0,0,0,0,0,0,0,0,-1,1252,715,0,0
35,309,0,0,0,0,0,0,0,0,0,-1,1259,715,0,0
42,309,0,0,0,0,0,0,0,0,0,-1,1266,715,0,0
49,309,0,0,0,0,0,0,0,0,0,-1,1273,715,0,0
56,309,0,0,0,0,0,0,0,0,0,-1,1280,715,0,0
63,309,0,0,0,0,0,0,0,0,0,-1,1287,715,0,0
70,309,0,0,0,0,0,0,0,0,0,-1,1294,715,0,0
77,309,0,0,0,0,0,0,0,0,0,-1,1301,715,0,0
84,309,0,0,0,0,0,0,0,0,0,-1,1308,715,0,0
91,309,0,0,0,0,0,0,0,0,0,-1,1315,715,0,0
98,309,0,0,0,0,0,0,0,0,0,-1,1322,715,0,0
105,309,0,0,0,0,0,0,0,0,0,-1,1329,715,0,0
112,309,0,0,0,0,0,0,0,0,0,-1,1336,715,0,0
119,309,0,0,0,0,0,0,0,0,0,-1,1343,715,0,0
126,309,0,0,0,0,0,0,0,0,0,-1,1350,715,0,0
133,309,0,0,0,0,0,0,0,0,0,-1,1357,715,0,0
140,309,0,0,0,0,0,0,0,0,0,-1,1364,715,0,0
147,309,0,0,0,0,0,0,0,0,0,-1,1371,715,0,0
154,309,0,0,0,0,0,0,0,0,0,-1,1378,715,0,0
161,309,0,0,0,0,0,0,0,0,0,-1,1385,715,0,0
168,309,0,0,0,0,0,0,0,0,0,-1,1392,715,0,0
175,309,0,0,0,0,0,0,0,0,0,-1,1399,715,0,0
182,309,0,0,0,0,0,0,0,0,0,-1,1406,715,0,0
189,309,0,0,0,0,0,0,0,0,0,-1,1413,715,0,0
196,309,0,0,0,0,0,0,0,0,0,-1,1420,715,0,0
203,309,0,0,0,0,0,0,0,0,0,-1,1427,715,0,0
210,309,0,0,0,0,0,0,0,0,0,-1,1434,715,0,0
217,309,0,0,0,0,0,0,0,0,0,-1,1441,715,0,0
224,309,0,0,0,0,0,0,0,0,0,-1,1448,715,0,0
231,309,0,0,0,0,0,0,0,0,0,-1,1455,715,0,0
238,309,0,0,0,0,0,0,0,0,0,-1,1462,715,0,0
245,309,0,0,0,0,0,0,0,0,0,-1,1469,715,0,0
252,309,0,0,0,0,0,0,0,0,0,-1,1476,715,0,0
259,309,0,0,0,0,0,0,0,0,0,-1,1483,715,0,0
266,309,0,0,0,0,0,0,0,0,0,-1,1490,715,0,0
273,309,0,0,0,0,0,0,0,0,0,-1,1497,715,0,0
280,309,0,0,0,0,0,0,0,0,0,-1,1504,715,0,0
287,309,0,0,0,0,0,0,0,0,0,-1,1511,715,0,0
294,309,0,0,0,0,0,0,0,0,0,-1,1518,715,0,0
301,309,0,0,0,0,0,0,0,0,0,-1,1525,715,0,0
308,309,0,0,0,0,0,0,0,0,0,-1,1532,715,0,0
315,309,0,0,0,0,0,0,0,0,0,-1,1539,715,0,0
322,309,0,0,0,0,0,0,0,0,0,-1,1546,715,0,0
329,309,0,0,0,0,0,0,0,0,0,-1,1553,715,0,0
336,309,0,0,0,0,0,0,0,0,0,-1,1560,715,0,0
343,309,0,0,0,0,0,0,0,0,0,-1,1567,715,0,0
350,309,0,0,0,0,0,0,0,0,0,-1,1574,715,0,0
357,309,0,0,0,0,0,0,0,0,0,-1,1581,715,0,0
364,309,0,0,0,0,0,0,0,0,0,-1,1588,715,0,0
371,309,0,0,0,0,0,0,0,0,0,-1,1595,715,0,0
378,309,0,0,0,0,0,0,0,0,0,-1,1602,715,0,0
385,309,0,0,0,0,0,0,0,0,0,-1,1609,715,0,0
392,309,0,0,0,0,0,0,0,0,0,-1,1616,715,0,0
399,309,0,0,0,0,0,0,0,0,0,-1,1623,715,0,0
406,309,0,0,0,0,0,0,0,0,0,-1,1630,715,0,0
413,309,0,0,0,0,0,0,0,0,0,-1,1637,715,0,0
420,309,0,0,0,0,0,0,0,0,0,-1,1644,715,0,0
427,309,0,0,0,0,0,0,0,0,0,-1,1651,715,0,0
434,309,0,0,0,0,0,0,0,0,0,-1,1658,715,0,0
441,309,0,0,0,0,0,0,0,0,0,-1,1665,715,0,0
448,309,0,0,0,0,0,0,0,0,0,-1,1672,715,0,0
455,309,0,0,0,0,0,0,0,0,0,-1,1679,715,0,0
462,309,0,0,0,0,0,0,0,0,0,-1,1686,715,0,0
469,309,0,0,0,0,0,0,0,0,0,-1,1693,715,0,0
476,309,0,0,0,0,0,0,0,0,0,-1,1700,715,0,0
483,309,0,0,0,0,0,0,0,0,0,-1,1707,715,0,0
490,309,0,0,0,0,0,0,0,0,0,-1,1714,715,0,0
497,309,0,0,0,0,0,0,0,0,0,-1,1721,715,0,0
504,309,0,0,0,0,0,0,0,0,0,-1,1728,715,0,0
511,309,0,0,0,0,0,0,0,0,0,-1,1735,715,0,0
518,309,0,0,0,0,0,0,0,0,0,-1,1742,715,0,0
525,309,0,0,0,0,0,0,0,0,0,-1,1749,715,0,0
532,309,0,0,0,0,0,0,0,0,0,-1,1756,715,0,0
539,309,44.2073,2.66235,0,0,0,0,0,0,0,-1,1763,715,44.2073,-2.66238
546,309,44.4976,3.25531,0,0,0,0,0,0,0,-1,1770,715,44.4976,-3.25533
553,309,47.9611,4.06433,0,0,0,0,0,0,0,-1,1777,715,47.9611,-4.06434
560,309,47.9784,4.64801,0,0,0,0,0,0,0,-1,1784,715,47.9784,-4.64799
567,309,47.0073,5.43121,0,0,0,0,0,0,0,-1,1791,715,47.0073,-5.43121
574,309,45.8746,6.53271,0,0,0,0,0,0,0,-1,1798,715,45.8747,-6.53269
581,309,45.0629,7.73468,0,0,0,0,0,0,0,-1,1805,715,45.0629,-7.73471
588,309,26.2064,7.76422,0,0,0,0,0,0,0,-1,1812,715,26.2064,-7.7642
595,309,19.585,3.71558,0,0,0,0,0,0,0,-1,1819,715,19.5849,-3.71555
602,309,11.0811,3.47772,0,0,0,0,0,0,0,-1,1826,715,11.0811,-3.47772
609,309,42.2452,-10.9521,0,0,0,0,0,0,0,-1,1833,715,42.2452,10.9521
616,309,42.1989,-9.99811,0.00260044,0.000763441,0.00158442,0.00351334,-0.000149457,0.522715,0.0023936,0.0314473,1840,715,42.1989,9.99809
623,309,42.1448,-9.07745,0.00187754,0.000569534,0.00123611,0.00262199,-0.000174919,0.542077,0.00180912,0.0126686,1847,715,42.1448,9.07747
630,309,42.0551,-8.2323,0.00163917,0.000418558,0.00102086,0.00221824,-0.000160516,0.515985,0.00153513,0.0120664,1854,715,42.0551,8.2323
637,309,41.9996,-7.33368,0.00148717,0.000417318,0.000899281,0.0019986,-9.41074e-05,0.51709,0.00136485,0.0143513,1861,715,41.9997,7.33366
644,309,41.9293,-6.41913,0.0014451,0.000555385,0.000859021,0.00196762,3.28677e-05,0.546479,0.00130093,0.014653,1868,715,41.9293,6.41914
651,309,41.8749,-5.52667,0.00148777,0.000779046,0.000867708,0.00207069,0.00019613,0.59154,0.00131995,0.0157681,1875,715,41.8749,5.52664
658,309,41.8438,-4.62054,0.0016184,0.00118045,0.000926956,0.0023519,0.000446958,0.669409,0.00144222,0.0236549,1882,715,41.8438,4.62053
665,309,41.8184,-3.729,0.00189187,0.00171222,0.00110362,0.00290931,0.000694778,0.744792,0.00175442,0.0183473,1889,715,41.8184,3.72898
672,309,41.7568,-2.84528,0.00229634,0.00241523,0.00135011,0.0037072,0.00100437,0.807398,0.00221397,0.0155705,1896,715,41.7568,2.84526
679,309,41.7234,-1.88562,0.00275638,0.00337098,0.00169954,0.00479077,0.00133658,0.874838,0.0028546,0.0298527,1903,715,41.7234,1.88559
686,309,41.7329,-0.835754,0,0,0,0,0,0,0,-1,1910,715,41.7329,0.83573
693,309,32.7026,1.51727,0,0,0,0,0,0,0,-1,1917,715,32.7026,-1.51727
700,309,23.0179,3.08337,0,0,0,0,0,0,0,-1,1924,715,23.018,-3.08336
707,309,15.6318,4.58655,0,0,0,0,0,0,0,-1,1931,715,15.6318,-4.58657
714,309,16.7573,6.68286,0,0,0,0,0,0,0,-1,1938,715,16.7574,-6.68284
721,309,16.8337,5.4458,0,0,0,0,0,0,0,-1,1945,715,16.8338,-5.44582
728,309,0,0,0,0,0,0,0,0,0,-1,1952,715,0,0
735,309,0,0,0,0,0,0,0,0,0,-1,1959,715,0,0
742,309,0,0,0,0,0,0,0,0,0,-1,1966,715,0,0
749,309,0,0,0,0,0,0,0,0,0,-1,1973,715,0,0
756,309,0,0,0,0,0,0,0,0,0,-1,1980,715,0,0
763,309,0,0,0,0,0,0,0,0,0,-1,1987,715,0,0
770,309,0,0,0,0,0,0,0,0,0,-1,1994,715,0,0
777,309,0,0,0,0,0,0,0,0,0,-1,2001,715,0,0
784,309,0,0,0,0,0,0,0,0,0,-1,2008,715,0,0
791,309,0,0,0,0,0,0,0,0,0,-1,2015,715,0,0
798,309,0,0,0,0,0,0,0,0,0,-1,2022,715,0,0
805,309,0,0,0,0,0,0,0,0,0,-1,2029,715,0,0
812,309,0,0,0,0,0,0,0,0,0,-1,2036,715,0,0
-700,302,0,0,0,0,0,0,0,0,0,-1,524,722,0,0
-693,302,0,0,0,0,0,0,0,0,0,-1,531,722,0,0
-686,302,0,0,0,0,0,0,0,0,0,-1,538,722,0,0
-679,302,0,0,0,0,0,0,0,0,0,-1,545,722,0,0
-672,302,0,0,0,0,0,0,0,0,0,-1,552,722,0,0
-665,302,0,0,0,0,0,0,0,0,0,-1,559,722,0,0
-658,302,0,0,0,0,0,0,0,0,0,-1,566,722,0,0
-651,302,0,0,0,0,0,0,0,0,0,-1,573,722,0,0
-644,302,0,0,0,0,0,0,0,0,0,-1,580,722,0,0
-637,302,0,0,0,0,0,0,0,0,0,-1,587,722,0,0
-630,302,0,0,0,0,0,0,0,0,0,-1,594,722,0,0
-623,302,0,0,0,0,0,0,0,0,0,-1,601,722,0,0
-616,302,0,0,0,0,0,0,0,0,0,-1,608,722,0,0
-609,302,-7.79266,-3.71649,0,0,0,0,0,0,0,-1,615,722,-7.79267,3.7165
-602,302,0.92865,-1.99158,0,0,0,0,0,0,0,-1,622,722,0.928637,1.99157
-595,302,-7.89941,2.13641,0,0,0,0,0,0,0,-1,629,722,-7.89939,-2.13639
-588,302,-7.10895,1.79163,0,0,0,0,0,0,0,-1,636,722,-7.10896,-1.79163
-581,302,-9.17566,1.09448,0,0,0,0,0,0,0,-1,643,722,-9.17569,-1.09445
-574,302,-11.5183,-0.344543,0,0,0,0,0,0,0,-1,650,722,-11.5183,0.344557
-567,302,-12.1534,-0.672241,0,0,0,0,0,0,0,-1,657,722,-12.1535,0.672246
-560,302,-27.7902,-1.73529,0,0,0,0,0,0,0,-1,664,722,-27.7902,1.73527
-553,302,-27.6648,-2.6485,-0.000621338,0.0050602,-0.00271798,0.00615102,-0.00171216,-1.18914,0.00477484,0.0407169,671,722,-27.6648,2.64848
-546,302,-27.6437,-3.61176,0.000106321,0.00384133,-0.00205498,0.00475061,-0.000802957,-1.15422,0.00346587,0.019876,678,722,-27.6438,3.61177
-539,302,-27.6978,-4.47168,0.000489108,0.00271399,-0.00136479,0.00336229,-0.000159184,-1.12734,0.00229642,0.0153754,685,722,-27.6978,4.47165
-532,302,-27.7449,-5.35162,0.000530193,0.00163918,-0.000680755,0.00196269,0.000206682,-1.12717,0.0012453,0.0140004,692,722,-27.7449,5.35164
-525,302,-27.7505,-6.28271,0.000416799,0.000614559,-0.000144435,0.000690718,0.00034064,-1.08556,0.000398799,0.02078,699,722,-27.7505,6.28271
-518,302,-27.83,-7.1225,0.000230172,-0.000172095,0.000398126,0.000475087,-0.00041701,0.551499,0.000515416,0.0236788,706,722,-27.83,7.12248
-511,302,-27.8851,-7.99762,-0.000197819,-0.000883723,0.00095699,0.000475814,-0.00155736,0.613344,0.00122796,0.0119982,713,722,-27.8851,7.99764
-504,302,-27.9441,-8.88354,-0.000755728,-0.00151005,0.00154828,0.000460669,-0.00272645,0.665925,0.00198905,0.00975387,720,722,-27.9441,8.88357
-497,302,-28.0143,-9.73218,-0.00119975,-0.00200801,0.0020236,0.000459681,-0.00366744,0.686841,0.00261171,0.0159295,727,722,-28.0144,9.73218
-490,302,-28.0826,-10.5801,0,0,0,0,0,0,0,-1,734,722,-28.0826,10.5801
-483,302,-9.53412,-3.1673,0,0,0,0,0,0,0,-1,741,722,-9.53411,3.1673
-476,302,-4.29749,-0.203491,0,0,0,0,0,0,0,-1,748,722,-4.29751,0.203464
-469,302,-12.369,1.42859,0,0,0,0,0,0,0,-1,755,722,-12.3689,-1.42857
-462,302,-17.4766,0.310791,0,0,0,0,0,0,0,-1,762,722,-17.4766,-0.310788
-455,302,-36.7368,-2.97418,0,0,0,0,0,0,0,-1,769,722,-36.7368,2.97416
-448,302,-42.1174,-1.44232,0,0,0,0,0,0,0,-1,776,722,-42.1174,1.44229
-441,302,-46.7637,0.580078,0,0,0,0,0,0,0,-1,783,722,-46.7636,-0.58007
-434,302,-46.574,1.30511,0,0,0,0,0,0,0,-1,790,722,-46.574,-1.30509
-427,302,-46.7514,1.51532,0,0,0,0,0,0,0,-1,797,722,-46.7514,-1.51532
-420,302,0,0,0,0,0,0,0,0,0,-1,804,722,0,0
-413,302,0,0,0,0,0,0,0,0,0,-1,811,722,0,0
-406,302,0,0,0,0,0,0,0,0,0,-1,818,722,0,0
-399,302,0,0,0,0,0,0,0,0,0,-1,825,722,0,0
-392,302,0,0,0,0,0,0,0,0,0,-1,832,722,0,0
-385,302,0,0,0,0,0,0,0,0,0,-1,839,722,0,0
-378,302,0,0,0,0,0,0,0,0,0,-1,846,722,0,0
-371,302,0,0,0,0,0,0,0,0,0,-1,853,722,0,0
-364,302,0,0,0,0,0,0,0,0,0,-1,860,722,0,0
-357,302,0,0,0,0,0,0,0,0,0,-1,867,722,0,0
-350,302,0,0,0,0,0,0,0,0,0,-1,874,722,0,0
-343,302,0,0,0,0,0,0,0,0,0,-1,881,722,0,0
-336,302,0,0,0,0,0,0,0,0,0,-1,888,722,0,0
-329,302,0,0,0,0,0,0,0,0,0,-1,895,722,0,0
-322,302,0,0,0,0,0,0,0,0,0,-1,902,722,0,0
-315,302,0,0,0,0,0,0,0,0,0,-1,909,722,0,0
-308,302,0,0,0,0,0,0,0,0,0,-1,916,722,0,0
-301,302,0,0,0,0,0,0,0,0,0,-1,923,722,0,0
-294,302,0,0,0,0,0,0,0,0,0,-1,930,722,0,0
-287,302,0,0,0,0,0,0,0,0,0,-1,937,722,0,0
-280,302,0,0,0,0,0,0,0,0,0,-1,944,722,0,0
-273,302,0,0,0,0,0,0,0,0,0,-1,951,722,0,0
-266,302,0,0,0,0,0,0,0,0,0,-1,958,722,0,0
-259,302,0,0,0,0,0,0,0,0,0,-1,965,722,0,0
-252,302,0,0,0,0,0,0,0,0,0,-1,972,722,0,0
-245,302,0,0,0,0,0,0,0,0,0,-1,979,722,0,0
-238,302,0,0,0,0,0,0,0,0,0,-1,986,722,0,0
-231,302,0,0,0,0,0,0,0,0,0,-1,993,722,0,0
-224,302,0,0,0,0,0,0,0,0,0,-1,1000,722,0,0
-217,302,0,0,0,0,0,0,0,0,0,-1,1007,722,0,0
-210,302,0,0,0,0,0,0,0,0,0,-1,1014,722,0,0
-203,302,0,0,0,0,0,0,0,0,0,-1,1021,722,0,0
-196,302,0,0,0,0,0,0,0,0,0,-1,1028,722,0,0
-189,302,0,0,0,0,0,0,0,0,0,-1,1035,722,0,0
-182,302,0,0,0,0,0,0,0,0,0,-1,1042,722,0,0
-175,302,0,0,0,0,0,0,0,0,0,-1,1049,722,0,0
-168,302,0,0,0,0,0,0,0,0,0,-1,1056,722,0,0
-161,302,0,0,0,0,0,0,0,0,0,-1,1063,722,0,0
-154,302,0,0,0,0,0,0,0,0,0,-1,1070,722,0,0
-147,302,0,0,0,0,0,0,0,0,0,-1,1077,722,0,0
-140,302,0,0,0,0,0,0,0,0,0,-1,1084,722,0,0
-133,302,0,0,0,0,0,0,0,0,0,-1,1091,722,0,0
-126,302,0,0,0,0,0,0,0,0,0,-1,1098,722,0,0
-119,302,0,0,0,0,0,0,0,0,0,-1,1105,722,0,0
-112,302,0,0,0,0,0,0,0,0,0,-1,1112,722,0,0
-105,302,0,0,0,0,0,0,0,0,0,-1,1119,722,0,0
-98,302,0,0,0,0,0,0,0,0,0,-1,1126,722,0,0
-91,302,0,0,0,0,0,0,0,0,0,-1,1133,722,0,0
-84,302,0,0,0,0,0,0,0,0,0,-1,1140,722,0,0
-77,302,0,0,0,0,0,0,0,0,0,-1,1147,722,0,0
-70,302,0,0,0,0,0,0,0,0,0,-1,1154,722,0,0
-63,302,0,0,0,0,0,0,0,0,0,-1,1161,722,0,0
-56,302,0,0,0,0,0,0,0,0,0,-1,1168,722,0,0
-49,302,0,0,0,0,0,0,0,0,0,-1,1175,722,0,0
-42,302,0,0,0,0,0,0,0,0,0,-1,1182,722,0,0
-35,302,0,0,0,0,0,0,0,0,0,-1,1189,722,0,0
-28,302,0,0,0,0,0,0,0,0,0,-1,1196,722,0,0
-21,302,0,0,0,0,0,0,0,0,0,-1,1203,722,0,0
-14,302,0,0,0,0,0,0,0,0,0,-1,1210,722,0,0
-7,302,0,0,0,0,0,0,0,0,0,-1,1217,722,0,0
0,302,0,0,0,0,0,0,0,0,0,-1,1224,722,0,0
7,302,0,0,0,0,0,0,0,0,0,-1,1231,722,0,0
14,302,0,0,0,0,0,0,0,0,0,-1,1238,722,0,0
21,302,0,0,0,0,0,0,0,0,0,-1,1245,722,0,0
28,302,0,0,0,0,0,0,0,0,0,-1,1252,722,0,0
35,302,0,0,0,0,0,0,0,0,0,-1,1259,722,0,0
42,302,0,0,0,0,0,0,0,0,0,-1,1266,722,0,0
49,302,0,0,0,0,0,0,0,0,0,-1,1273,722,0,0
56,302,0,0,0,0,0,0,0,0,0,-1,1280,722,0,0
63,302,0,0,0,0,0,0,0,0,0,-1,1287,722,0,0
70,302,0,0,0,0,0,0,0,0,0,-1,1294,722,0,0
77,302,0,0,0,0,0,0,0,0,0,-1,1301,722,0,0
84,302,0,0,0,0,0,0,0,0,0,-1,1308,722,0,0
91,302,0,0,0,0,0,0,0,0,0,-1,1315,722,0,0
98,302,0,0,0,0,0,0,0,0,0,-1,1322,722,0,0
105,302,0,0,0,0,0,0,0,0,0,-1,1329,722,0,0
112,302,0,0,0,0,0,0,0,0,0,-1,1336,722,0,0
119,302,0,0,0,0,0,0,0,0,0,-1,1343,722,0,0
126,302,0,0,0,0,0,0,0,0,0,-1,1350,722,0,0
133,302,0,0,0,0,0,0,0,0,0,-1,1357,722,0,0
140,302,0,0,0,0,0,0,0,0,0,-1,1364,722,0,0
147,302,0,0,0,0,0,0,0,0,0,-1,1371,722,0,0
154,302,0,0,0,0,0,0,0,0,0,-1,1378,722,0,0
161,302,0,0,0,0,0,0,0,0,0,-1,1385,722,0,0
168,302,0,0,0,0,0,0,0,0,0,-1,1392,722,0,0
175,302,0,0,0,0,0,0,0,0,0,-1,1399,722,0,0
182,302,0,0,0,0,0,0,0,0,0,-1,1406,722,0,0
189,302,0,0,0,0,0,0,0,0,0,-1,1413,722,0,0
196,302,0,0,0,0,0,0,0,0,0,-1,1420,722,0,0
203,302,0,0,0,0,0,0,0,0,0,-1,1427,722,0,0
210,302,0,0,0,0,0,0,0,0,0,-1,1434,722,0,0
217,302,0,0,0,0,0,0,0,0,0,-1,1441,722,0,0
224,302,0,0,0,0,0,0,0,0,0,-1,1448,722,0,0
231,302,0,0,0,0,0,0,0,0,0,-1,1455,722,0,0
238,302,0,0,0,0,0,0,0,0,0,-1,1462,722,0,0
245,302,0,0,0,0,0,0,0,0,0,-1,1469,722,0,0
252,302,0,0,0,0,0,0,0,0,0,-1,1476,722,0,0
259,302,0,0,0,0,0,0,0,0,0,-1,1483,722,0,0
266,302,0,0,0,0,0,0,0,0,0,-1,1490,722,0,0
273,302,0,0,0,0,0,0,0,0,0,-1,1497,722,0,0
280,302,0,0,0,0,0,0,0,0,0,-1,1504,722,0,0
287,302,0,0,0,0,0,0,0,0,0,-1,1511,722,0,0
294,302,0,0,0,0,0,0,0,0,0,-1,1518,722,0,0
301,302,0,0,0,0,0,0,0,0,0,-1,1525,722,0,0
308,302,0,0,0,0,0,0,0,0,0,-1,1532,722,0,0
315,302,0,0,0,0,0,0,0,0,0,-1,1539,722,0,0
322,302,0,0,0,0,0,0,0,0,0,-1,1546,722,0,0
329,302,0,0,0,0,0,0,0,0,0,-1,1553,722,0,0
336,302,0,0,0,0,0,0,0,0,0,-1,1560,722,0,0
343,302,0,0,0,0,0,0,0,0,0,-1,1567,722,0,0
350,302,0,0,0,0,0,0,0,0,0,-1,1574,722,0,0
357,302,0,0,0,0,0,0,0,0,0,-1,1581,722,0,0
364,302,0,0,0,0,0,0,0,0,0,-1,1588,722,0,0
371,302,0,0,0,0,0,0,0,0,0,-1,1595,722,0,0
378,302,0,0,0,0,0,0,0,0,0,-1,1602,722,0,0
385,302,0,0,0,0,0,0,0,0,0,-1,1609,722,0,0
392,302,0,0,0,0,0,0,0,0,0,-1,1616,722,0,0
399,302,0,0,0,0,0,0,0,0,0,-1,1623,722,0,0
406,302,0,0,0,0,0,0,0,0,0,-1,1630,722,0,0
413,302,0,0,0,0,0,0,0,0,0,-1,1637,722,0,0
420,302,0,0,0,0,0,0,0,0,0,-1,1644,722,0,0
427,302,0,0,0,0,0,0,0,0,0,-1,1651,722,0,0
434,302,0,0,0,0,0,0,0,0,0,-1,1658,722,0,0
441,302,0,0,0,0,0,0,0,0,0,-1,1665,722,0,0
448,302,0,0,0,0,0,0,0,0,0,-1,1672,722,0,0
455,302,0,0,0,0,0,0,0,0,0,-1,1679,722,0,0
462,302,0,0,0,0,0,0,0,0,0,-1,1686,722,0,0
469,302,0,0,0,0,0,0,0,0,0,-1,1693,722,0,0
476,302,0,0,0,0,0,0,0,0,0,-1,1700,722,0,0
483,302,0,0,0,0,0,0,0,0,0,-1,1707,722,0,0
490,302,0,0,0,0,0,0,0,0,0,-1,1714,722,0,0
497,302,0,0,0,0,0,0,0,0,0,-1,1721,722,0,0
504,302,0,0,0,0,0,0,0,0,0,-1,1728,722,0,0
511,302,0,0,0,0,0,0,0,0,0,-1,1735,722,0,0
518,302,0,0,0,0,0,0,0,0,0,-1,1742,722,0,0
525,302,0,0,0,0,0,0,0,0,0,-1,1749,722,0,0
532,302,0,0,0,0,0,0,0,0,0,-1,1756,722,0,0
539,302,0,0,0,0,0,0,0,0,0,-1,1763,722,0,0
546,302,48.9873,1.50562,0,0,0,0,0,0,0,-1,1770,722,48.9873,-1.50562
553,302,56.7844,3.46533,0,0,0,0,0,0,0,-1,1777,722,56.7844,-3.4653
560,302,56.7115,3.84808,0,0,0,0,0,0,0,-1,1784,722,56.7116,-3.84806
567,302,55.9475,4.24542,0,0,0,0,0,0,0,-1,1791,722,55.9475,-4.24542
574,302,45.9537,6.00867,0,0,0,0,0,0,0,-1,1798,722,45.9537,-6.00864
581,302,45.137,7.38043,0,0,0,0,0,0,0,-1,1805,722,45.1369,-7.38044
588,302,26.9731,7.19983,0,0,0,0,0,0,0,-1,1812,722,26.9732,-7.19981
595,302,27.3826,8.13104,0,0,0,0,0,0,0,-1,1819,722,27.3825,-8.13102
602,302,14.7349,5.21246,0,0,0,0,0,0,0,-1,1826,722,14.7349,-5.21247
609,302,31.1039,-6.34253,0,0,0,0,0,0,0,-1,1833,722,31.1039,6.34254
616,302,43.1266,-9.87921,0,0,0,0,0,0,0,-1,1840,722,43.1265,9.8792
623,302,43.0487,-9.01624,0.00200976,0.000707982,0.00147446,0.00297061,-0.00025286,0.57754,0.00206985,0.0175159,1847,722,43.0487,9.01624
630,302,42.9468,-8.15509,0.00170748,0.000485979,0.00119946,0.00244273,-0.000249274,0.549913,0.00171762,0.0121702,1854,722,42.9467,8.1551
637,302,42.8682,-7.27203,0.00148832,0.000427881,0.00102081,0.0021084,-0.000192198,0.54587,0.00147385,0.0156163,1861,722,42.8681,7.27204
644,302,42.809,-6.37732,0.00138924,0.00051983,0.000922721,0.00197453,-6.54565e-05,0.565262,0.0013387,0.0159575,1868,722,42.809,6.37731
651,302,42.7561,-5.47015,0.00138274,0.000722046,0.000892381,0.00200396,0.000100831,0.608125,0.00130366,0.016076,1875,722,42.7561,5.47017
658,302,42.7531,-4.61603,0.00146264,0.00109368,0.000910447,0.00220711,0.000349213,0.685439,0.00136992,0.0173424,1882,722,42.7531,4.61605
665,302,42.7153,-3.71552,0.00165691,0.00160187,0.00104656,0.00267631,0.000582473,0.772253,0.00162522,0.0154155,1889,722,42.7153,3.71551
672,302,42.6309,-2.80536,0.00194917,0.00226022,0.00126467,0.00337889,0.000830499,0.84658,0.00203311,0.0123872,1896,722,42.6309,2.80536
679,302,42.5585,-1.90247,0.00231857,0.00314673,0.00158204,0.00436798,0.00109732,0.913395,0.00262385,0.0105742,1903,722,42.5585,1.90246
686,302,42.552,-0.969299,0.00280381,0.00419431,0.00204644,0.00566037,0.00133774,0.94915,0.00341612,0.0258888,1910,722,42.5519,0.969276
693,302,42.5077,-0.0389404,0,0,0,0,0,0,0,-1,1917,722,42.5077,0.0389328
700,302,25.4069,1.97308,0,0,0,0,0,0,0,-1,1924,722,25.4068,-1.97311
707,302,16.7321,4.76685,0,0,0,0,0,0,0,-1,1931,722,16.7321,-4.76687
714,302,17.2,5.77594,0,0,0,0,0,0,0,-1,1938,722,17.2,-5.77595
721,302,17.7914,6.60394,0,0,0,0,0,0,0,-1,1945,722,17.7914,-6.60395
728,302,17.2798,4.81702,0,0,0,0,0,0,0,-1,1952,722,17.2798,-4.81703
735,302,0,0,0,0,0,0,0,0,0,-1,1959,722,0,0
742,302,0,0,0,0,0,0,0,0,0,-1,1966,722,0,0
749,302,0,0,0,0,0,0,0,0,0,-1,1973,722,0,0
756,302,0,0,0,0,0,0,0,0,0,-1,1980,722,0,0
763,302,0,0,0,0,0,0,0,0,0,-1,1987,722,0,0
770,302,0,0,0,0,0,0,0,0,0,-1,1994,722,0,0
777,302,0,0,0,0,0,0,0,0,0,-1,2001,722,0,0
784,302,0,0,0,0,0,0,0,0,0,-1,2008,722,0,0
791,302,0,0,0,0,0,0,0,0,0,-1,2015,722,0,0
798,302,0,0,0,0,0,0,0,0,0,-1,2022,722,0,0
805,302,0,0,0,0,0,0,0,0,0,-1,2029,722,0,0
812,302,0,0,0,0,0,0,0,0,0,-1,2036,722,0,0
-700,295,0,0,0,0,0,0,0,0,0,-1,524,729,0,0
-693,295,0,0,0,0,0,0,0,0,0,-1,531,729,0,0
-686,295,0,0,0,0,0,0,0,0,0,-1,538,729,0,0
-679,295,0,0,0,0,0,0,0,0,0,-1,545,729,0,0
-672,295,0,0,0,0,0,0,0,0,0,-1,552,729,0,0
-665,295,0,0,0,0,0,0,0,0,0,-1,559,729,0,0
-658,295,0,0,0,0,0,0,0,0,0,-1,566,729,0,0
-651,295,0,0,0,0,0,0,0,0,0,-1,573,729,0,0
-644,295,0,0,0,0,0,0,0,0,0,-1,580,729,0,0
-637,295,0,0,0,0,0,0,0,0,0,-1,587,729,0,0
-630,295,0,0,0,0,0,0,0,0,0,-1,594,729,0,0
-623,295,0,0,0,0,0,0,0,0,0,-1,601,729,0,0
-616,295,-13.4911,1.31738,0,0,0,0,0,0,0,-1,608,729,-13.4911,-1.3174
-609,295,-10.2864,0.832031,0,0,0,0,0,0,0,-1,615,729,-10.2863,-0.832034
-602,295,-8.19006,3.01587,0,0,0,0,0,0,0,-1,622,729,-8.19005,-3.01588
-595,295,-0.615479,-1.95447,0,0,0,0,0,0,0,-1,629,729,-0.615481,1.95445
-588,295,-7.98999,1.56903,0,0,0,0,0,0,0,-1,636,729,-7.98997,-1.56905
-581,295,-12.0404,0.150574,0,0,0,0,0,0,0,-1,643,729,-12.0404,-0.150604
-574,295,-12.1605,-0.0739746,0,0,0,0,0,0,0,-1,650,729,-12.1605,0.0739856
-567,295,-28.1093,-0.677612,0,0,0,0,0,0,0,-1,657,729,-28.1093,0.677622
-560,295,-28.3854,-1.77478,-0.00254634,0.00554261,-0.00337893,0.00676834,-0.00377206,-1.2228,0.00616691,0.0394591,664,729,-28.3854,1.77481
-553,295,-28.4216,-2.7511,-0.00126923,0.00401847,-0.00237798,0.00493056,-0.00218133,-1.20454,0.00420707,0.0209143,671,729,-28.4216,2.75108
-546,295,-28.5428,-3.60431,-0.000519502,0.00296354,-0.00162578,0.00360447,-0.00116043,-1.19528,0.00286911,0.0220347,678,729,-28.5429,3.6043
-539,295,-28.5999,-4.41711,-5.14002e-05,0.00204014,-0.000874428,0.00235755,-0.00036881,-1.22259,0.00170796,0.0192029,685,729,-28.5999,4.41711
-532,295,-28.6415,-5.2865,2.976e-05,0.00108817,-0.000193348,0.00112238,-4.45411e-06,-1.39565,0.000749746,0.0160372,692,729,-28.6415,5.2865
-525,295,-28.657,-6.20483,-7.90397e-05,0.000162297,0.000296723,0.00036195,-0.000278692,0.97852,0.000370915,0.0162648,699,729,-28.657,6.20481
-518,295,-28.6689,-7.06946,-0.00033187,-0.000539561,0.00080701,0.000377948,-0.00124938,0.72141,0.000983417,0.0125061,706,729,-28.6689,7.06948
-511,295,-28.7366,-7.91772,-0.000916249,-0.00115934,0.00136329,0.000330899,-0.00240649,0.740937,0.00172524,0.0101121,713,729,-28.7366,7.91775
-504,295,-28.8118,-8.77905,-0.00165017,-0.00171799,0.00195477,0.000270981,-0.00363914,0.776726,0.00252128,0.0111079,720,729,-28.8118,8.77904
-497,295,-28.9163,-9.58508,-0.00233708,-0.00215739,0.00243804,0.000192461,-0.00468694,0.803816,0.00319071,0.0246581,727,729,-28.9163,9.58506
-490,295,-29.0189,-10.3594,0,0,0,0,0,0,0,-1,734,729,-29.0189,10.3595
-483,295,-6.84503,-0.454651,0,0,0,0,0,0,0,-1,741,729,-6.84505,0.454639
-476,295,-13.1738,-0.836243,0,0,0,0,0,0,0,-1,748,729,-13.1738,0.836223
-469,295,-26.5608,-0.466187,0,0,0,0,0,0,0,-1,755,729,-26.5608,0.466162
-462,295,-29.7701,-0.792664,0,0,0,0,0,0,0,-1,762,729,-29.7701,0.792642
-455,295,-45.11,-2.79272,0,0,0,0,0,0,0,-1,769,729,-45.11,2.79272
-448,295,-48.0288,1.41229,0,0,0,0,0,0,0,-1,776,729,-48.0288,-1.41227
-441,295,-47.1089,1.03058,0,0,0,0,0,0,0,-1,783,729,-47.109,-1.0306
-434,295,-46.2319,1.10614,0,0,0,0,0,0,0,-1,790,729,-46.2319,-1.10612
-427,295,0,0,0,0,0,0,0,0,0,-1,797,729,0,0
-420,295,0,0,0,0,0,0,0,0,0,-1,804,729,0,0
-413,295,0,0,0,0,0,0,0,0,0,-1,811,729,0,0
-406,295,0,0,0,0,0,0,0,0,0,-1,818,729,0,0
-399,295,0,0,0,0,0,0,0,0,0,-1,825,729,0,0
-392,295,0,0,0,0,0,0,0,0,0,-1,832,729,0,0
-385,295,0,0,0,0,0,0,0,0,0,-1,839,729,0,0
-378,295,0,0,0,0,0,0,0,0,0,-1,846,729,0,0
-371,295,0,0,0,0,0,0,0,0,0,-1,853,729,0,0
-364,295,0,0,0,0,0,0,0,0,0,-1,860,729,0,0
-357,295,0,0,0,0,0,0,0,0,0,-1,867,729,0,0
-350,295,0,0,0,0,0,0,0,0,0,-1,874,729,0,0
-343,295,0,0,0,0,0,0,0,0,0,-1,881,729,0,0
-336,295,0,0,0,0,0,0,0,0,0,-1,888,729,0,0
-329,295,0,0,0,0,0,0,0,0,0,-1,895,729,0,0
-322,295,0,0,0,0,0,0,0,0,0,-1,902,729,0,0
-315,295,0,0,0,0,0,0,0,0,0,-1,909,729,0,0
-308,295,0,0,0,0,0,0,0,0,0,-1,916,729,0,0
-301,295,0,0,0,0,0,0,0,0,0,-1,923,729,0,0
-294,295,0,0,0,0,0,0,0,0,0,-1,930,729,0,0
-287,295,0,0,0,0,0,0,0,0,0,-1,937,729,0,0
-280,295,0,0,0,0,0,0,0,0,0,-1,944,729,0,0
-273,295,0,0,0,0,0,0,0,0,0,-1,951,729,0,0
-266,295,0,0,0,0,0,0,0,0,0,-1,958,729,0,0
-259,295,0,0,0,0,0,0,0,0,0,-1,965,729,0,0
-252,295,0,0,0,0,0,0,0,0,0,-1,972,729,0,0
-245,295,0,0,0,0,0,0,0,0,0,-1,979,729,0,0
-238,295,0,0,0,0,0,0,0,0,0,-1,986,729,0,0
-231,295,0,0,0,0,0,0,0,0,0,-1,993,729,0,0
-224,295,0,0,0,0,0,0,0,0,0,-1,1000,729,0,0
-217,295,0,0,0,0,0,0,0,0,0,-1,1007,729,0,0
-210,295,0,0,0,0,0,0,0,0,0,-1,1014,729,0,0
-203,295,0,0,0,0,0,0,0,0,0,-1,1021,729,0,0
-196,295,0,0,0,0,0,0,0,0,0,-1,1028,729,0,0
-189,295,0,0,0,0,0,0,0,0,0,-1,1035,729,0,0
-182,295,0,0,0,0,0,0,0,0,0,-1,1042,729,0,0
-175,295,0,0,0,0,0,0,0,0,0,-1,1049,729,0,0
-168,295,0,0,0,0,0,0,0,0,0,-1,1056,729,0,0
-161,295,0,0,0,0,0,0,0,0,0,-1,1063,729,0,0
-154,295,0,0,0,0,0,0,0,0,0,-1,1070,729,0,0
-147,295,0,0,0,0,0,0,0,0,0,-1,1077,729,0,0
-140,295,0,0,0,0,0,0,0,0,0,-1,1084,729,0,0
-133,295,0,0,0,0,0,0,0,0,0,-1,1091,729,0,0
-126,295,0,0,0,0,0,0,0,0,0,-1,1098,729,0,0
-119,295,0,0,0,0,0,0,0,0,0,-1,1105,729,0,0
-112,295,0,0,0,0,0,0,0,0,0,-1,1112,729,0,0
-105,295,0,0,0,0,0,0,0,0,0,-1,1119,729,0,0
-98,295,0,0,0,0,0,0,0,0,0,-1,1126,729,0,0
-91,295,0,0,0,0,0,0,0,0,0,-1,1133,729,0,0
-84,295,0,0,0,0,0,0,0,0,0,-1,1140,729,0,0
-77,295,0,0,0,0,0,0,0,0,0,-1,1147,729,0,0
-70,295,0,0,0,0,0,0,0,0,0,-1,1154,729,0,0
-63,295,0,0,0,0,0,0,0,0,0,-1,1161,729,0,0
-56,295,0,0,0,0,0,0,0,0,0,-1,1168,729,0,0
-49,295,0,0,0,0,0,0,0,0,0,-1,1175,729,0,0
-42,295,0,0,0,0,0,0,0,0,0,-1,1182,729,0,0
-35,295,0,0,0,0,0,0,0,0,0,-1,1189,729,0,0
-28,295,0,0,0,0,0,0,0,0,0,-1,1196,729,0,0
-21,295,0,0,0,0,0,0,0,0,0,-1,1203,729,0,0
-14,295,0,0,0,0,0,0,0,0,0,-1,1210,729,0,0
-7,295,0,0,0,0,0,0,0,0,0,-1,1217,729,0,0
0,295,0,0,0,0,0,0,0,0,0,-1,1224,729,0,0
7,295,0,0,0,0,0,0,0,0,0,-1,1231,729,0,0
14,295,0,0,0,0,0,0,0,0,0,-1,1238,729,0,0
21,295,0,0,0,0,0,0,0,0,0,-1,1245,729,0,0
28,295,0,0,0,0,0,0,0,0,0,-1,1252,729,0,0
35,295,0,0,0,0,0,0,0,0,0,-1,1259,729,0,0
42,295,0,0,0,0,0,0,0,0,0,-1,1266,729,0,0
49,295,0,0,0,0,0,0,0,0,0,-1,1273,729,0,0
56,295,0,0,0,0,0,0,0,0,0,-1,1280,729,0,0
63,295,0,0,0,0,0,0,0,0,0,-1,1287,729,0,0
70,295,0,0,0,0,0,0,0,0,0,-1,1294,729,0,0
77,295,0,0,0,0,0,0,0,0,0,-1,1301,729,0,0
84,295,0,0,0,0,0,0,0,0,0,-1,1308,729,0,0
91,295,0,0,0,0,0,0,0,0,0,-1,1315,729,0,0
98,295,0,0,0,0,0,0,0,0,0,-1,1322,729,0,0
105,295,0,0,0,0,0,0,0,0,0,-1,1329,729,0,0
112,295,0,0,0,0,0,0,0,0,0,-1,1336,729,0,0
119,295,0,0,0,0,0,0,0,0,0,-1,1343,729,0,0
126,295,0,0,0,0,0,0,0,0,0,-1,1350,729,0,0
133,295,0,0,0,0,0,0,0,0,0,-1,1357,729,0,0
140,295,0,0,0,0,0,0,0,0,0,-1,1364,729,0,0
147,295,0,0,0,0,0,0,0,0,0,-1,1371,729,0,0
154,295,0,0,0,0,0,0,0,0,0,-1,1378,729,0,0
161,295,0,0,0,0,0,0,0,0,0,-1,1385,729,0,0
168,295,0,0,0,0,0,0,0,0,0,-1,1392,729,0,0
175,295,0,0,0,0,0,0,0,0,0,-1,1399,729,0,0
182,295,0,0,0,0,0,0,0,0,0,-1,1406,729,0,0
189,295,0,0,0,0,0,0,0,0,0,-1,1413,729,0,0
196,295,0,0,0,0,0,0,0,0,0,-1,1420,729,0,0
203,295,0,0,0,0,0,0,0,0,0,-1,1427,729,0,0
210,295,0,0,0,0,0,0,0,0,0,-1,1434,729,0,0
217,295,0,0,0,0,0,0,0,0,0,-1,1441,729,0,0
224,295,0,0,0,0,0,0,0,0,0,-1,1448,729,0,0
231,295,0,0,0,0,0,0,0,0,0,-1,1455,729,0,0
238,295,0,0,0,0,0,0,0,0,0,-1,1462,729,0,0
245,295,0,0,0,0,0,0,0,0,0,-1,1469,729,0,0
252,295,0,0,0,0,0,0,0,0,0,-1,1476,729,0,0
259,295,0,0,0,0,0,0,0,0,0,-1,1483,729,0,0
266,295,0,0,0,0,0,0,0,0,0,-1,1490,729,0,0
273,295,0,0,0,0,0,0,0,0,0,-1,1497,729,0,0
280,295,0,0,0,0,0,0,0,0,0,-1,1504,729,0,0
287,295,0,0,0,0,0,0,0,0,0,-1,1511,729,0,0
294,295,0,0,0,0,0,0,0,0,0,-1,1518,729,0,0
301,295,0,0,0,0,0,0,0,0,0,-1,1525,729,0,0
308,295,0,0,0,0,0,0,0,0,0,-1,1532,729,0,0
315,295,0,0,0,0,0,0,0,0,0,-1,1539,729,0,0
322,295,0,0,0,0,0,0,0,0,0,-1,1546,729,0,0
329,295,0,0,0,0,0,0,0,0,0,-1,1553,729,0,0
336,295,0,0,0,0,0,0,0,0,0,-1,1560,729,0,0
343,295,0,0,0,0,0,0,0,0,0,-1,1567,729,0,0
350,295,0,0,0,0,0,0,0,0,0,-1,1574,729,0,0
357,295,0,0,0,0,0,0,0,0,0,-1,1581,729,0,0
364,295,0,0,0,0,0,0,0,0,0,-1,1588,729,0,0
371,295,0,0,0,0,0,0,0,0,0,-1,1595,729,0,0
378,295,0,0,0,0,0,0,0,0,0,-1,1602,729,0,0
385,295,0,0,0,0,0,0,0,0,0,-1,1609,729,0,0
392,295,0,0,0,0,0,0,0,0,0,-1,1616,729,0,0
399,295,0,0,0,0,0,0,0,0,0,-1,1623,729,0,0
406,295,0,0,0,0,0,0,0,0,0,-1,1630,729,0,0
413,295,0,0,0,0,0,0,0,0,0,-1,1637,729,0,0
420,295,0,0,0,0,0,0,0,0,0,-1,1644,729,0,0
427,295,0,0,0,0,0,0,0,0,0,-1,1651,729,0,0
434,295,0,0,0,0,0,0,0,0,0,-1,1658,729,0,0
441,295,0,0,0,0,0,0,0,0,0,-1,1665,729,0,0
448,295,0,0,0,0,0,0,0,0,0,-1,1672,729,0,0
455,295,0,0,0,0,0,0,0,0,0,-1,1679,729,0,0
462,295,0,0,0,0,0,0,0,0,0,-1,1686,729,0,0
469,295,0,0,0,0,0,0,0,0,0,-1,1693,729,0,0
476,295,0,0,0,0,0,0,0,0,0,-1,1700,729,0,0
483,295,0,0,0,0,0,0,0,0,0,-1,1707,729,0,0
490,295,0,0,0,0,0,0,0,0,0,-1,1714,729,0,0
497,295,0,0,0,0,0,0,0,0,0,-1,1721,729,0,0
504,295,0,0,0,0,0,0,0,0,0,-1,1728,729,0,0
511,295,0,0,0,0,0,0,0,0,0,-1,1735,729,0,0
518,295,0,0,0,0,0,0,0,0,0,-1,1742,729,0,0
525,295,0,0,0,0,0,0,0,0,0,-1,1749,729,0,0
532,295,0,0,0,0,0,0,0,0,0,-1,1756,729,0,0
539,295,0,0,0,0,0,0,0,0,0,-1,1763,729,0,0
546,295,57.4674,2.36884,0,0,0,0,0,0,0,-1,1770,729,57.4674,-2.36883
553,295,57.1969,2.73846,0,0,0,0,0,0,0,-1,1777,729,57.197,-2.73843
560,295,57.0291,3.27454,0,0,0,0,0,0,0,-1,1784,729,57.029,-3.27454
567,295,56.6243,3.88239,0,0,0,0,0,0,0,-1,1791,729,56.6242,-3.8824
574,295,56.5275,4.755,0,0,0,0,0,0,0,-1,1798,729,56.5274,-4.75501
581,295,37.8191,2.19592,0,0,0,0,0,0,0,-1,1805,729,37.8191,-2.19594
588,295,39.0542,2.45679,0,0,0,0,0,0,0,-1,1812,729,39.0542,-2.45676
595,295,27.2102,6.99121,0,0,0,0,0,0,0,-1,1819,729,27.2103,-6.99121
602,295,26.9065,7.82141,0,0,0,0,0,0,0,-1,1826,729,26.9064,-7.8214
609,295,11.7737,2.19989,0,0,0,0,0,0,0,-1,1833,729,11.7736,-2.19988
616,295,43.9945,-9.90875,0,0,0,0,0,0,0,-1,1840,729,43.9945,9.90874
623,295,43.9052,-9.00513,0.0029604,0.000451959,0.0016482,0.00377732,-0.00036496,0.460157,0.00264826,0.0461259,1847,729,43.9052,9.00514
630,295,43.8257,-8.0849,0.00230401,0.000413475,0.00139571,0.00304443,-0.00032694,0.487745,0.00214691,0.0139055,1854,729,43.8257,8.08493
637,295,43.7594,-7.18091,0.00181957,0.000412109,0.00121357,0.00251869,-0.000287012,0.52265,0.00178252,0.0154992,1861,729,43.7594,7.18092
644,295,43.7269,-6.28345,0.00151423,0.000509031,0.00102406,0.00215238,-0.000129115,0.557271,0.00147984,0.0141809,1868,729,43.7269,6.28343
651,295,43.6886,-5.3894,0.00137624,0.000670996,0.000908485,0.00199814,4.91004e-05,0.600275,0.00131603,0.0147574,1875,729,43.6887,5.38938
658,295,43.6324,-4.5191,0.00139916,0.000985559,0.000868058,0.00208471,0.000300006,0.668462,0.00130138,0.0141418,1882,729,43.6324,4.51911
665,295,43.5701,-3.65234,0.00150306,0.00145132,0.00094786,0.0024254,0.000528978,0.771757,0.00147263,0.0125505,1889,729,43.57,3.65233
672,295,43.5181,-2.78625,0.00169613,0.00205913,0.00112065,0.00301289,0.000742375,0.86568,0.00181254,0.0146649,1896,729,43.5181,2.78625
679,295,43.4515,-1.8905,0.00202339,0.00288032,0.00142851,0.00394324,0.000960475,0.931098,0.00237433,0.0118072,1903,729,43.4515,1.89052
686,295,43.4359,-0.981934,0.00242442,0.00387462,0.00186293,0.00514859,0.00115045,0.970991,0.00312042,0.0127119,1910,729,43.436,0.981921
693,295,43.4408,-0.0789185,0,0,0,0,0,0,0,-1,1917,729,43.4408,0.0789028
700,295,31.3757,2.06982,0,0,0,0,0,0,0,-1,1924,729,31.3758,-2.0698
707,295,22.2661,3.05206,0,0,0,0,0,0,0,-1,1931,729,22.2662,-3.05207
714,295,17.4906,4.63068,0,0,0,0,0,0,0,-1,1938,729,17.4906,-4.63066
721,295,18.3792,5.32281,0,0,0,0,0,0,0,-1,1945,729,18.3791,-5.32283
728,295,17.379,3.74866,0,0,0,0,0,0,0,-1,1952,729,17.379,-3.74863
735,295,0,0,0,0,0,0,0,0,0,-1,1959,729,0,0
742,295,0,0,0,0,0,0,0,0,0,-1,1966,729,0,0
749,295,0,0,0,0,0,0,0,0,0,-1,1973,729,0,0
756,295,0,0,0,0,0,0,0,0,0,-1,1980,729,0,0
763,295,0,0,0,0,0,0,0,0,0,-1,1987,729,0,0
770,295,0,0,0,0,0,0,0,0,0,-1,1994,729,0,0
777,295,0,0,0,0,0,0,0,0,0,-1,2001,729,0,0
784,295,0,0,0,0,0,0,0,0,0,-1,2008,729,0,0
791,295,0,0,0,0,0,0,0,0,0,-1,2015,729,0,0
798,295,0,0,0,0,0,0,0,0,0,-1,2022,729,0,0
805,295,0,0,0,0,0,0,0,0,0,-1,2029,729,0,0
812,295,0,0,0,0,0,0,0,0,0,-1,2036,729,0,0
-700,288,0,0,0,0,0,0,0,0,0,-1,524,736,0,0
-693,288,0,0,0,0,0,0,0,0,0,-1,531,736,0,0
-686,288,0,0,0,0,0,0,0,0,0,-1,538,736,0,0
-679,288,0,0,0,0,0,0,0,0,0,-1,545,736,0,0
-672,288,0,0,0,0,0,0,0,0,0,-1,552,736,0,0
-665,288,0,0,0,0,0,0,0,0,0,-1,559,736,0,0
-658,288,0,0,0,0,0,0,0,0,0,-1,566,736,0,0
-651,288,0,0,0,0,0,0,0,0,0,-1,573,736,0,0
-644,288,0,0,0,0,0,0,0,0,0,-1,580,736,0,0
-637,288,0,0,0,0,0,0,0,0,0,-1,587,736,0,0
-630,288,0,0,0,0,0,0,0,0,0,-1,594,736,0,0
-623,288,0,0,0,0,0,0,0,0,0,-1,601,736,0,0
-616,288,-11.7584,2.4425,0,0,0,0,0,0,0,-1,608,736,-11.7584,-2.44251
-609,288,-10.3007,2.32178,0,0,0,0,0,0,0,-1,615,736,-10.3007,-2.32178
-602,288,-10.1458,-1.85559,0,0,0,0,0,0,0,-1,622,736,-10.1458,1.85556
-595,288,-7.63208,1.81769,0,0,0,0,0,0,0,-1,629,736,-7.63205,-1.81766
-588,288,-8.19269,1.50598,0,0,0,0,0,0,0,-1,636,736,-8.19268,-1.50601
-581,288,-13.1915,0.659241,0,0,0,0,0,0,0,-1,643,736,-13.1915,-0.659228
-574,288,-28.7786,0.117371,0,0,0,0,0,0,0,-1,650,736,-28.7786,-0.117346
-567,288,-28.9879,-0.846802,-0.00419396,0.00561502,-0.00486503,0.00761868,-0.00619762,-1.18012,0.0079909,0.0387315,657,736,-28.9879,0.8468
-560,288,-29.3003,-1.83069,-0.00275782,0.00444069,-0.00328578,0.00571494,-0.00403206,-1.20085,0.00565532,0.0180188,664,736,-29.3003,1.83071
-553,288,-29.3035,-2.64227,-0.00165768,0.00320959,-0.00212149,0.00400447,-0.00245256,-1.21231,0.00376369,0.0190023,671,736,-29.3035,2.64229
-546,288,-29.4043,-3.51959,-0.000990464,0.00223636,-0.0012329,0.0026535,-0.0014076,-1.24455,0.00238118,0.0201763,678,736,-29.4043,3.51957
-539,288,-29.4703,-4.36865,-0.000535707,0.00142241,-0.000381511,0.00149412,-0.000607413,-1.38501,0.0012488,0.017722,685,736,-29.4703,4.36867
-532,288,-29.4693,-5.25079,-0.000487492,0.000549704,0.000341425,0.000652004,-0.000589792,1.27968,0.000717251,0.0156947,692,736,-29.4693,5.2508
-525,288,-29.5097,-6.12891,-0.000626454,-0.000271476,0.000818276,0.000388339,-0.00128627,0.892197,0.00101211,0.0142884,699,736,-29.5097,6.12889
-518,288,-29.5754,-6.99524,-0.000946869,-0.000870952,0.00128644,0.000378087,-0.00219591,0.800147,0.00160488,0.0125085,706,736,-29.5753,6.99526
-511,288,-29.6423,-7.83862,-0.00159318,-0.00134125,0.00174529,0.000282607,-0.00321704,0.821423,0.00224484,0.00940704,713,736,-29.6423,7.83864
-504,288,-29.7107,-8.70789,-0.00230962,-0.00176909,0.00220208,0.000179249,-0.00425795,0.846459,0.00290023,0.0115061,720,736,-29.7107,8.70786
-497,288,-29.738,-9.38129,-0.00292059,-0.00209053,0.00250179,3.04261e-05,-0.00504154,0.867597,0.00337122,0.0365879,727,736,-29.738,9.38126
-490,288,-29.6403,-9.97809,0,0,0,0,0,0,0,-1,734,736,-29.6403,9.97811
-483,288,-17.3287,0.564758,0,0,0,0,0,0,0,-1,741,736,-17.3287,-0.56477
-476,288,-26.136,0.452148,0,0,0,0,0,0,0,-1,748,736,-26.136,-0.452177
-469,288,-27.7904,0.649841,0,0,0,0,0,0,0,-1,755,736,-27.7904,-0.649854
-462,288,-44.999,-2.65112,0,0,0,0,0,0,0,-1,762,736,-44.999,2.65111
-455,288,-49.1631,1.86432,0,0,0,0,0,0,0,-1,769,736,-49.1632,-1.8643
-448,288,-51.4573,1.70825,0,0,0,0,0,0,0,-1,776,736,-51.4573,-1.70824
-441,288,-47.7353,1.50165,0,0,0,0,0,0,0,-1,783,736,-47.7353,-1.50164
-434,288,-46.7119,1.66388,0,0,0,0,0,0,0,-1,790,736,-46.7119,-1.66385
-427,288,0,0,0,0,0,0,0,0,0,-1,797,736,0,0
-420,288,0,0,0,0,0,0,0,0,0,-1,804,736,0,0
-413,288,0,0,0,0,0,0,0,0,0,-1,811,736,0,0
-406,288,0,0,0,0,0,0,0,0,0,-1,818,736,0,0
-399,288,0,0,0,0,0,0,0,0,0,-1,825,736,0,0
-392,288,0,0,0,0,0,0,0,0,0,-1,832,736,0,0
-385,288,0,0,0,0,0,0,0,0,0,-1,839,736,0,0
-378,288,0,0,0,0,0,0,0,0,0,-1,846,736,0,0
-371,288,0,0,0,0,0,0,0,0,0,-1,853,736,0,0
-364,288,0,0,0,0,0,0,0,0,0,-1,860,736,0,0
-357,288,0,0,0,0,0,0,0,0,0,-1,867,736,0,0
-350,288,0,0,0,0,0,0,0,0,0,-1,874,736,0,0
-343,288,0,0,0,0,0,0,0,0,0,-1,881,736,0,0
-336,288,0,0,0,0,0,0,0,0,0,-1,888,736,0,0
-329,288,0,0,0,0,0,0,0,0,0,-1,895,736,0,0
-322,288,0,0,0,0,0,0,0,0,0,-1,902,736,0,0
-315,288,0,0,0,0,0,0,0,0,0,-1,909,736,0,0
-308,288,0,0,0,0,0,0,0,0,0,-1,916,736,0,0
-301,288,0,0,0,0,0,0,0,0,0,-1,923,736,0,0
-294,288,0,0,0,0,0,0,0,0,0,-1,930,736,0,0
-287,288,0,0,0,0,0,0,0,0,0,-1,937,736,0,0
-280,288,0,0,0,0,0,0,0,0,0,-1,944,736,0,0
-273,288,0,0,0,0,0,0,0,0,0,-1,951,736,0,0
-266,288,0,0,0,0,0,0,0,0,0,-1,958,736,0,0
-259,288,0,0,0,0,0,0,0,0,0,-1,965,736,0,0
-252,288,0,0,0,0,0,0,0,0,0,-1,972,736,0,0
-245,288,0,0,0,0,0,0,0,0,0,-1,979,736,0,0
-238,288,0,0,0,0,0,0,0,0,0,-1,986,736,0,0
-231,288,0,0,0,0,0,0,0,0,0,-1,993,736,0,0
-224,288,0,0,0,0,0,0,0,0,0,-1,1000,736,0,0
-217,288,0,0,0,0,0,0,0,0,0,-1,1007,736,0,0
-210,288,0,0,0,0,0,0,0,0,0,-1,1014,736,0,0
-203,288,0,0,0,0,0,0,0,0,0,-1,1021,736,0,0
-196,288,0,0,0,0,0,0,0,0,0,-1,1028,736,0,0
-189,288,0,0,0,0,0,0,0,0,0,-1,1035,736,0,0
-182,288,0,0,0,0,0,0,0,0,0,-1,1042,736,0,0
-175,288,0,0,0,0,0,0,0,0,0,-1,1049,736,0,0
-168,288,0,0,0,0,0,0,0,0,0,-1,1056,736,0,0
-161,288,0,0,0,0,0,0,0,0,0,-1,1063,736,0,0
-154,288,0,0,0,0,0,0,0,0,0,-1,1070,736,0,0
-147,288,0,0,0,0,0,0,0,0,0,-1,1077,736,0,0
-140,288,0,0,0,0,0,0,0,0,0,-1,1084,736,0,0
-133,288,0,0,0,0,0,0,0,0,0,-1,1091,736,0,0
-126,288,0,0,0,0,0,0,0,0,0,-1,1098,736,0,0
-119,288,0,0,0,0,0,0,0,0,0,-1,1105,736,0,0
-112,288,0,0,0,0,0,0,0,0,0,-1,1112,736,0,0
-105,288,0,0,0,0,0,0,0,0,0,-1,1119,736,0,0
-98,288,0,0,0,0,0,0,0,0,0,-1,1126,736,0,0
-91,288,0,0,0,0,0,0,0,0,0,-1,1133,736,0,0
-84,288,0,0,0,0,0,0,0,0,0,-1,1140,736,0,0
-77,288,0,0,0,0,0,0,0,0,0,-1,1147,736,0,0
-70,288,0,0,0,0,0,0,0,0,0,-1,1154,736,0,0
-63,288,0,0,0,0,0,0,0,0,0,-1,1161,736,0,0
-56,288,0,0,0,0,0,0,0,0,0,-1,1168,736,0,0
-49,288,0,0,0,0,0,0,0,0,0,-1,1175,736,0,0
-42,288,0,0,0,0,0,0,0,0,0,-1,1182,736,0,0
-35,288,0,0,0,0,0,0,0,0,0,-1,1189,736,0,0
-28,288,0,0,0,0,0,0,0,0,0,-1,1196,736,0,0
-21,288,0,0,0,0,0,0,0,0,0,-1,1203,736,0,0
-14,288,0,0,0,0,0,0,0,0,0,-1,1210,736,0,0
-7,288,0,0,0,0,0,0,0,0,0,-1,1217,736,0,0
0,288,0,0,0,0,0,0,0,0,0,-1,1224,736,0,0
7,288,0,0,0,0,0,0,0,0,0,-1,1231,736,0,0
14,288,0,0,0,0,0,0,0,0,0,-1,1238,736,0,0
21,288,0,0,0,0,0,0,0,0,0,-1,1245,736,0,0
28,288,0,0,0,0,0,0,0,0,0,-1,1252,736,0,0
35,288,0,0,0,0,0,0,0,0,0,-1,1259,736,0,0
42,288,0,0,0,0,0,0,0,0,0,-1,1266,736,0,0
49,288,0,0,0,0,0,0,0,0,0,-1,1273,736,0,0
56,288,0,0,0,0,0,0,0,0,0,-1,1280,736,0,0
63,288,0,0,0,0,0,0,0,0,0,-1,1287,736,0,0
70,288,0,0,0,0,0,0,0,0,0,-1,1294,736,0,0
77,288,0,0,0,0,0,0,0,0,0,-1,1301,736,0,0
84,288,0,0,0,0,0,0,0,0,0,-1,1308,736,0,0
91,288,0,0,0,0,0,0,0,0,0,-1,1315,736,0,0
98,288,0,0,0,0,0,0,0,0,0,-1,1322,736,0,0
105,288,0,0,0,0,0,0,0,0,0,-1,1329,736,0,0
112,288,0,0,0,0,0,0,0,0,0,-1,1336,736,0,0
119,288,0,0,0,0,0,0,0,0,0,-1,1343,736,0,0
126,288,0,0,0,0,0,0,0,0,0,-1,1350,736,0,0
133,288,0,0,0,0,0,0,0,0,0,-1,1357,736,0,0
140,288,0,0,0,0,0,0,0,0,0,-1,1364,736,0,0
147,288,0,0,0,0,0,0,0,0,0,-1,1371,736,0,0
154,288,0,0,0,0,0,0,0,0,0,-1,1378,736,0,0
161,288,0,0,0,0,0,0,0,0,0,-1,1385,736,0,0
168,288,0,0,0,0,0,0,0,0,0,-1,1392,736,0,0
175,288,0,0,0,0,0,0,0,0,0,-1,1399,736,0,0
182,288,0,0,0,0,0,0,0,0,0,-1,1406,736,0,0
189,288,0,0,0,0,0,0,0,0,0,-1,1413,736,0,0
196,288,0,0,0,0,0,0,0,0,0,-1,1420,736,0,0
203,288,0,0,0,0,0,0,0,0,0,-1,1427,736,0,0
210,288,0,0,0,0,0,0,0,0,0,-1,1434,736,0,0
217,288,0,0,0,0,0,0,0,0,0,-1,1441,736,0,0
224,288,0,0,0,0,0,0,0,0,0,-1,1448,736,0,0
231,288,0,0,0,0,0,0,0,0,0,-1,1455,736,0,0
238,288,0,0,0,0,0,0,0,0,0,-1,1462,736,0,0
245,288,0,0,0,0,0,0,0,0,0,-1,1469,736,0,0
252,288,0,0,0,0,0,0,0,0,0,-1,1476,736,0,0
259,288,0,0,0,0,0,0,0,0,0,-1,1483,736,0,0
266,288,0,0,0,0,0,0,0,0,0,-1,1490,736,0,0
273,288,0,0,0,0,0,0,0,0,0,-1,1497,736,0,0
280,288,0,0,0,0,0,0,0,0,0,-1,1504,736,0,0
287,288,0,0,0,0,0,0,0,0,0,-1,1511,736,0,0
294,288,0,0,0,0,0,0,0,0,0,-1,1518,736,0,0
301,288,0,0,0,0,0,0,0,0,0,-1,1525,736,0,0
308,288,0,0,0,0,0,0,0,0,0,-1,1532,736,0,0
315,288,0,0,0,0,0,0,0,0,0,-1,1539,736,0,0
322,288,0,0,0,0,0,0,0,0,0,-1,1546,736,0,0
329,288,0,0,0,0,0,0,0,0,0,-1,1553,736,0,0
336,288,0,0,0,0,0,0,0,0,0,-1,1560,736,0,0
343,288,0,0,0,0,0,0,0,0,0,-1,1567,736,0,0
350,288,0,0,0,0,0,0,0,0,0,-1,1574,736,0,0
357,288,0,0,0,0,0,0,0,0,0,-1,1581,736,0,0
364,288,0,0,0,0,0,0,0,0,0,-1,1588,736,0,0
371,288,0,0,0,0,0,0,0,0,0,-1,1595,736,0,0
378,288,0,0,0,0,0,0,0,0,0,-1,1602,736,0,0
385,288,0,0,0,0,0,0,0,0,0,-1,1609,736,0,0
392,288,0,0,0,0,0,0,0,0,0,-1,1616,736,0,0
399,288,0,0,0,0,0,0,0,0,0,-1,1623,736,0,0
406,288,0,0,0,0,0,0,0,0,0,-1,1630,736,0,0
413,288,0,0,0,0,0,0,0,0,0,-1,1637,736,0,0
420,288,0,0,0,0,0,0,0,0,0,-1,1644,736,0,0
427,288,0,0,0,0,0,0,0,0,0,-1,1651,736,0,0
434,288,0,0,0,0,0,0,0,0,0,-1,1658,736,0,0
441,288,0,0,0,0,0,0,0,0,0,-1,1665,736,0,0
448,288,0,0,0,0,0,0,0,0,0,-1,1672,736,0,0
455,288,0,0,0,0,0,0,0,0,0,-1,1679,736,0,0
462,288,0,0,0,0,0,0,0,0,0,-1,1686,736,0,0
469,288,0,0,0,0,0,0,0,0,0,-1,1693,736,0,0
476,288,0,0,0,0,0,0,0,0,0,-1,1700,736,0,0
483,288,0,0,0,0,0,0,0,0,0,-1,1707,736,0,0
490,288,0,0,0,0,0,0,0,0,0,-1,1714,736,0,0
497,288,0,0,0,0,0,0,0,0,0,-1,1721,736,0,0
504,288,0,0,0,0,0,0,0,0,0,-1,1728,736,0,0
511,288,0,0,0,0,0,0,0,0,0,-1,1735,736,0,0
518,288,0,0,0,0,0,0,0,0,0,-1,1742,736,0,0
525,288,0,0,0,0,0,0,0,0,0,-1,1749,736,0,0
532,288,0,0,0,0,0,0,0,0,0,-1,1756,736,0,0
539,288,0,0,0,0,0,0,0,0,0,-1,1763,736,0,0
546,288,0,0,0,0,0,0,0,0,0,-1,1770,736,0,0
553,288,57.4934,2.28064,0,0,0,0,0,0,0,-1,1777,736,57.4934,-2.28064
560,288,57.3807,3.02881,0,0,0,0,0,0,0,-1,1784,736,57.3808,-3.0288
567,288,57.2081,3.74274,0,0,0,0,0,0,0,-1,1791,736,57.2081,-3.74273
574,288,56.9817,4.36981,0,0,0,0,0,0,0,-1,1798,736,56.9816,-4.36984
581,288,53.4904,5.33215,0,0,0,0,0,0,0,-1,1805,736,53.4904,-5.33218
588,288,54.9313,3.29852,0,0,0,0,0,0,0,-1,1812,736,54.9313,-3.29849
595,288,47.035,3.35156,0,0,0,0,0,0,0,-1,1819,736,47.035,-3.35157
602,288,26.7634,7.61279,0,0,0,0,0,0,0,-1,1826,736,26.7635,-7.61279
609,288,17.5223,4.86414,0,0,0,0,0,0,0,-1,1833,736,17.5223,-4.86412
616,288,13.4886,0.801331,0,0,0,0,0,0,0,-1,1840,736,13.4886,-0.80132
623,288,44.7632,-9.00824,0,0,0,0,0,0,0,-1,1847,736,44.7632,9.00823
630,288,44.6735,-8.00653,0.00282273,0.000803701,0.00152126,0.00363896,-1.25307e-05,0.492458,0.00243016,0.03364,1854,736,44.6735,8.00651
637,288,44.6553,-7.10181,0.00219506,0.000712772,0.00141483,0.00305111,-0.000143277,0.544129,0.00208348,0.0126849,1861,736,44.6553,7.10178
644,288,44.6213,-6.22406,0.00169239,0.000657103,0.00119512,0.00247715,-0.000127661,0.58103,0.00169559,0.0108615,1868,736,44.6214,6.22408
651,288,44.5646,-5.34436,0.00141524,0.000660293,0.000986768,0.00209427,-1.8735e-05,0.602717,0.00140247,0.0119804,1875,736,44.5646,5.34436
658,288,44.5173,-4.44757,0.0013887,0.000837925,0.000893162,0.00204797,0.00017866,0.635858,0.00130983,0.0170924,1882,736,44.5173,4.44756
665,288,44.4647,-3.58185,0.00142731,0.00122623,0.000925032,0.00225725,0.000396291,0.731267,0.00139167,0.017757,1889,736,44.4648,3.58182
672,288,44.4209,-2.73535,0.00153713,0.00176724,0.00105162,0.00271007,0.000594289,0.839885,0.0016448,0.0175888,1896,736,44.4209,2.73534
679,288,44.3657,-1.83105,0.00177615,0.00251908,0.00133856,0.00353677,0.000758468,0.920748,0.00215009,0.0152207,1903,736,44.3657,1.83103
686,288,44.2883,-0.954773,0.0020475,0.00346037,0.00171963,0.00461301,0.000894854,0.980293,0.00282471,0.0118969,1910,736,44.2884,0.95479
693,288,44.2869,0.0109863,0.00255072,0.00479278,0.00235574,0.00628062,0.00106288,1.00748,0.0038816,0.0275165,1917,736,44.2869,-0.0109941
700,288,44.2892,1.03619,0,0,0,0,0,0,0,-1,1924,736,44.2892,-1.0362
707,288,30.9496,3.07977,0,0,0,0,0,0,0,-1,1931,736,30.9496,-3.07975
714,288,23.0149,3.82544,0,0,0,0,0,0,0,-1,1938,736,23.0149,-3.82541
721,288,18.0732,3.69385,0,0,0,0,0,0,0,-1,1945,736,18.0732,-3.69387
728,288,19.3208,3.91455,0,0,0,0,0,0,0,-1,1952,736,19.3209,-3.91455
735,288,18.7712,3.51312,0,0,0,0,0,0,0,-1,1959,736,18.7713,-3.51309
742,288,0,0,0,0,0,0,0,0,0,-1,1966,736,0,0
749,288,0,0,0,0,0,0,0,0,0,-1,1973,736,0,0
756,288,0,0,0,0,0,0,0,0,0,-1,1980,736,0,0
763,288,0,0,0,0,0,0,0,0,0,-1,1987,736,0,0
770,288,0,0,0,0,0,0,0,0,0,-1,1994,736,0,0
777,288,0,0,0,0,0,0,0,0,0,-1,2001,736,0,0
784,288,0,0,0,0,0,0,0,0,0,-1,2008,736,0,0
791,288,0,0,0,0,0,0,0,0,0,-1,2015,736,0,0
798,288,0,0,0,0,0,0,0,0,0,-1,2022,736,0,0
805,288,0,0,0,0,0,0,0,0,0,-1,2029,736,0,0
812,288,0,0,0,0,0,0,0,0,0,-1,2036,736,0,0
-700,281,0,0,0,0,0,0,0,0,0,-1,524,743,0,0
-693,281,0,0,0,0,0,0,0,0,0,-1,531,743,0,0
-686,281,0,0,0,0,0,0,0,0,0,-1,538,743,0,0
-679,281,0,0,0,0,0,0,0,0,0,-1,545,743,0,0
-672,281,0,0,0,0,0,0,0,0,0,-1,552,743,0,0
-665,281,0,0,0,0,0,0,0,0,0,-1,559,743,0,0
-658,281,0,0,0,0,0,0,0,0,0,-1,566,743,0,0
-651,281,0,0,0,0,0,0,0,0,0,-1,573,743,0,0
-644,281,0,0,0,0,0,0,0,0,0,-1,580,743,0,0
-637,281,0,0,0,0,0,0,0,0,0,-1,587,743,0,0
-630,281,0,0,0,0,0,0,0,0,0,-1,594,743,0,0
-623,281,-19.1697,5.67017,0,0,0,0,0,0,0,-1,601,743,-19.1697,-5.67019
-616,281,-11.5906,2.6853,0,0,0,0,0,0,0,-1,608,743,-11.5906,-2.68529
-609,281,-16.1972,4.14838,0,0,0,0,0,0,0,-1,615,743,-16.1972,-4.14837
-602,281,-21.9772,6.77417,0,0,0,0,0,0,0,-1,622,743,-21.9771,-6.77415
-595,281,-10.4797,-1.07404,0,0,0,0,0,0,0,-1,629,743,-10.4798,1.07402
-588,281,-13.277,1.49817,0,0,0,0,0,0,0,-1,636,743,-13.2771,-1.49817
-581,281,-30.0189,0.927979,0,0,0,0,0,0,0,-1,643,743,-30.0189,-0.927998
-574,281,-29.9014,0.0249634,-0.00604519,0.00569854,-0.00726418,0.00916729,-0.00951394,-1.1253,0.0107862,0.0480452,650,743,-29.9014,-0.0249692
-567,281,-30.0975,-0.84198,-0.00418855,0.00455289,-0.00478867,0.00666558,-0.00630124,-1.1553,0.00748738,0.0228711,657,743,-30.0975,0.841993
-560,281,-30.1983,-1.73724,-0.00291195,0.00355149,-0.00308058,0.00478452,-0.00414498,-1.19007,0.00515985,0.00919576,664,743,-30.1983,1.73723
-553,281,-30.214,-2.5929,-0.00195693,0.00252145,-0.0018177,0.00316636,-0.00260183,-1.22986,0.00333558,0.0143163,671,743,-30.214,2.59291
-546,281,-30.2747,-3.41724,-0.00136581,0.00161176,-0.000845201,0.00183495,-0.00158899,-1.31263,0.00197851,0.0159455,678,743,-30.2747,3.41721
-539,281,-30.3329,-4.3125,-0.000948823,0.000869867,6.75276e-05,0.000872371,-0.000951327,1.53373,0.00105324,0.0147738,685,743,-30.3329,4.3125
-532,281,-30.3574,-5.15967,-0.00093318,0.000120647,0.000778624,0.000533889,-0.00134642,1.08286,0.00111887,0.015766,692,743,-30.3573,5.15964
-525,281,-30.4222,-6.04974,-0.00107322,-0.000495951,0.00118216,0.0004323,-0.00200148,0.905136,0.00149934,0.0176383,699,743,-30.4223,6.04972
-518,281,-30.4781,-6.94482,-0.0013977,-0.000881805,0.00154779,0.000429385,-0.00270889,0.867968,0.00196476,0.0128141,706,743,-30.4781,6.94483
-511,281,-30.533,-7.82379,-0.00200403,-0.00111421,0.00186375,0.000356998,-0.00347524,0.902563,0.00244453,0.0128765,713,743,-30.533,7.82381
-504,281,-30.6352,-8.71027,-0.0025627,-0.00130827,0.00215036,0.000304477,-0.00417545,0.927301,0.00289048,0.0178872,720,743,-30.6352,8.71026
-497,281,-30.73,-9.57983,0,0,0,0,0,0,0,-1,727,743,-30.73,9.57981
-490,281,-27.6985,-9.63165,0,0,0,0,0,0,0,-1,734,743,-27.6986,9.63165
-483,281,-22.1078,-2.34973,0,0,0,0,0,0,0,-1,741,743,-22.1078,2.3497
-476,281,-28.0016,2.17786,0,0,0,0,0,0,0,-1,748,743,-28.0016,-2.17786
-469,281,-34.6448,0.171692,0,0,0,0,0,0,0,-1,755,743,-34.6448,-0.171685
-462,281,-46.6214,0.0193481,0,0,0,0,0,0,0,-1,762,743,-46.6214,-0.0193665
-455,281,-52.2403,1.03314,0,0,0,0,0,0,0,-1,769,743,-52.2403,-1.03317
-448,281,-51.8248,1.71381,0,0,0,0,0,0,0,-1,776,743,-51.8247,-1.71382
-441,281,-51.6853,2.25977,0,0,0,0,0,0,0,-1,783,743,-51.6853,-2.25976
-434,281,0,0,0,0,0,0,0,0,0,-1,790,743,0,0
-427,281,0,0,0,0,0,0,0,0,0,-1,797,743,0,0
-420,281,0,0,0,0,0,0,0,0,0,-1,804,743,0,0
-413,281,0,0,0,0,0,0,0,0,0,-1,811,743,0,0
-406,281,0,0,0,0,0,0,0,0,0,-1,818,743,0,0
-399,281,0,0,0,0,0,0,0,0,0,-1,825,743,0,0
-392,281,0,0,0,0,0,0,0,0,0,-1,832,743,0,0
-385,281,0,0,0,0,0,0,0,0,0,-1,839,743,0,0
-378,281,0,0,0,0,0,0,0,0,0,-1,846,743,0,0
-371,281,0,0,0,0,0,0,0,0,0,-1,853,743,0,0
-364,281,0,0,0,0,0,0,0,0,0,-1,860,743,0,0
-357,281,0,0,0,0,0,0,0,0,0,-1,867,743,0,0
-350,281,0,0,0,0,0,0,0,0,0,-1,874,743,0,0
-343,281,0,0,0,0,0,0,0,0,0,-1,881,743,0,0
-336,281,0,0,0,0,0,0,0,0,0,-1,888,743,0,0
-329,281,0,0,0,0,0,0,0,0,0,-1,895,743,0,0
-322,281,0,0,0,0,0,0,0,0,0,-1,902,743,0,0
-315,281,0,0,0,0,0,0,0,0,0,-1,909,743,0,0
-308,281,0,0,0,0,0,0,0,0,0,-1,916,743,0,0
-301,281,0,0,0,0,0,0,0,0,0,-1,923,743,0,0
-294,281,0,0,0,0,0,0,0,0,0,-1,930,743,0,0
-287,281,0,0,0,0,0,0,0,0,0,-1,937,743,0,0
-280,281,0,0,0,0,0,0,0,0,0,-1,944,743,0,0
-273,281,0,0,0,0,0,0,0,0,0,-1,951,743,0,0
-266,281,0,0,0,0,0,0,0,0,0,-1,958,743,0,0
-259,281,0,0,0,0,0,0,0,0,0,-1,965,743,0,0
-252,281,0,0,0,0,0,0,0,0,0,-1,972,743,0,0
-245,281,0,0,0,0,0,0,0,0,0,-1,979,743,0,0
-238,281,0,0,0,0,0,0,0,0,0,-1,986,743,0,0
-231,281,0,0,0,0,0,0,0,0,0,-1,993,743,0,0
-224,281,0,0,0,0,0,0,0,0,0,-1,1000,743,0,0
-217,281,0,0,0,0,0,0,0,0,0,-1,1007,743,0,0
-210,281,0,0,0,0,0,0,0,0,0,-1,1014,743,0,0
-203,281,0,0,0,0,0,0,0,0,0,-1,1021,743,0,0
-196,281,0,0,0,0,0,0,0,0,0,-1,1028,743,0,0
-189,281,0,0,0,0,0,0,0,0,0,-1,1035,743,0,0
-182,281,0,0,0,0,0,0,0,0,0,-1,1042,743,0,0
-175,281,0,0,0,0,0,0,0,0,0,-1,1049,743,0,0
-168,281,0,0,0,0,0,0,0,0,0,-1,1056,743,0,0
-161,281,0,0,0,0,0,0,0,0,0,-1,1063,743,0,0
-154,281,0,0,0,0,0,0,0,0,0,-1,1070,743,0,0
-147,281,0,0,0,0,0,0,0,0,0,-1,1077,743,0,0
-140,281,0,0,0,0,0,0,0,0,0,-1,1084,743,0,0
-133,281,0,0,0,0,0,0,0,0,0,-1,1091,743,0,0
-126,281,0,0,0,0,0,0,0,0,0,-1,1098,743,0,0
-119,281,0,0,0,0,0,0,0,0,0,-1,1105,743,0,0
-112,281,0,0,0,0,0,0,0,0,0,-1,1112,743,0,0
-105,281,0,0,0,0,0,0,0,0,0,-1,1119,743,0,0
-98,281,0,0,0,0,0,0,0,0,0,-1,1126,743,0,0
-91,281,0,0,0,0,0,0,0,0,0,-1,1133,743,0,0
-84,281,0,0,0,0,0,0,0,0,0,-1,1140,743,0,0
-77,281,0,0,0,0,0,0,0,0,0,-1,1147,743,0,0
-70,281,0,0,0,0,0,0,0,0,0,-1,1154,743,0,0
-63,281,0,0,0,0,0,0,0,0,0,-1,1161,743,0,0
-56,281,0,0,0,0,0,0,0,0,0,-1,1168,743,0,0
-49,281,0,0,0,0,0,0,0,0,0,-1,1175,743,0,0
-42,281,0,0,0,0,0,0,0,0,0,-1,1182,743,0,0
-35,281,0,0,0,0,0,0,0,0,0,-1,1189,743,0,0
-28,281,0,0,0,0,0,0,0,0,0,-1,1196,743,0,0
-21,281,0,0,0,0,0,0,0,0,0,-1,1203,743,0,0
-14,281,0,0,0,0,0,0,0,0,0,-1,1210,743,0,0
-7,281,0,0,0,0,0,0,0,0,0,-1,1217,743,0,0
0,281,0,0,0,0,0,0,0,0,0,-1,1224,743,0,0
7,281,0,0,0,0,0,0,0,0,0,-1,1231,743,0,0
14,281,0,0,0,0,0,0,0,0,0,-1,1238,743,0,0
21,281,0,0,0,0,0,0,0,0,0,-1,1245,743,0,0
28,281,0,0,0,0,0,0,0,0,0,-1,1252,743,0,0
35,281,0,0,0,0,0,0,0,0,0,-1,1259,743,0,0
42,281,0,0,0,0,0,0,0,0,0,-1,1266,743,0,0
49,281,0,0,0,0,0,0,0,0,0,-1,1273,743,0,0
56,281,0,0,0,0,0,0,0,0,0,-1,1280,743,0,0
63,281,0,0,0,0,0,0,0,0,0,-1,1287,743,0,0
70,281,0,0,0,0,0,0,0,0,0,-1,1294,743,0,0
77,281,0,0,0,0,0,0,0,0,0,-1,1301,743,0,0
84,281,0,0,0,0,0,0,0,0,0,-1,1308,743,0,0
91,281,0,0,0,0,0,0,0,0,0,-1,1315,743,0,0
98,281,0,0,0,0,0,0,0,0,0,-1,1322,743,0,0
105,281,0,0,0,0,0,0,0,0,0,-1,1329,743,0,0
112,281,0,0,0,0,0,0,0,0,0,-1,1336,743,0,0
119,281,0,0,0,0,0,0,0,0,0,-1,1343,743,0,0
126,281,0,0,0,0,0,0,0,0,0,-1,1350,743,0,0
133,281,0,0,0,0,0,0,0,0,0,-1,1357,743,0,0
140,281,0,0,0,0,0,0,0,0,0,-1,1364,743,0,0
147,281,0,0,0,0,0,0,0,0,0,-1,1371,743,0,0
154,281,0,0,0,0,0,0,0,0,0,-1,1378,743,0,0
161,281,0,0,0,0,0,0,0,0,0,-1,1385,743,0,0
168,281,0,0,0,0,0,0,0,0,0,-1,1392,743,0,0
175,281,0,0,0,0,0,0,0,0,0,-1,1399,743,0,0
182,281,0,0,0,0,0,0,0,0,0,-1,1406,743,0,0
189,281,0,0,0,0,0,0,0,0,0,-1,1413,743,0,0
196,281,0,0,0,0,0,0,0,0,0,-1,1420,743,0,0
203,281,0,0,0,0,0,0,0,0,0,-1,1427,743,0,0
210,281,0,0,0,0,0,0,0,0,0,-1,1434,743,0,0
217,281,0,0,0,0,0,0,0,0,0,-1,1441,743,0,0
224,281,0,0,0,0,0,0,0,0,0,-1,1448,743,0,0
231,281,0,0,0,0,0,0,0,0,0,-1,1455,743,0,0
238,281,0,0,0,0,0,0,0,0,0,-1,1462,743,0,0
245,281,0,0,0,0,0,0,0,0,0,-1,1469,743,0,0
252,281,0,0,0,0,0,0,0,0,0,-1,1476,743,0,0
259,281,0,0,0,0,0,0,0,0,0,-1,1483,743,0,0
266,281,0,0,0,0,0,0,0,0,0,-1,1490,743,0,0
273,281,0,0,0,0,0,0,0,0,0,-1,1497,743,0,0
280,281,0,0,0,0,0,0,0,0,0,-1,1504,743,0,0
287,281,0,0,0,0,0,0,0,0,0,-1,1511,743,0,0
294,281,0,0,0,0,0,0,0,0,0,-1,1518,743,0,0
301,281,0,0,0,0,0,0,0,0,0,-1,1525,743,0,0
308,281,0,0,0,0,0,0,0,0,0,-1,1532,743,0,0
315,281,0,0,0,0,0,0,0,0,0,-1,1539,743,0,0
322,281,0,0,0,0,0,0,0,0,0,-1,1546,743,0,0
329,281,0,0,0,0,0,0,0,0,0,-1,1553,743,0,0
336,281,0,0,0,0,0,0,0,0,0,-1,1560,743,0,0
343,281,0,0,0,0,0,0,0,0,0,-1,1567,743,0,0
350,281,0,0,0,0,0,0,0,0,0,-1,1574,743,0,0
357,281,0,0,0,0,0,0,0,0,0,-1,1581,743,0,0
364,281,0,0,0,0,0,0,0,0,0,-1,1588,743,0,0
371,281,0,0,0,0,0,0,0,0,0,-1,1595,743,0,0
378,281,0,0,0,0,0,0,0,0,0,-1,1602,743,0,0
385,281,0,0,0,0,0,0,0,0,0,-1,1609,743,0,0
392,281,0,0,0,0,0,0,0,0,0,-1,1616,743,0,0
399,281,0,0,0,0,0,0,0,0,0,-1,1623,743,0,0
406,281,0,0,0,0,0,0,0,0,0,-1,1630,743,0,0
413,281,0,0,0,0,0,0,0,0,0,-1,1637,743,0,0
420,281,0,0,0,0,0,0,0,0,0,-1,1644,743,0,0
427,281,0,0,0,0,0,0,0,0,0,-1,1651,743,0,0
434,281,0,0,0,0,0,0,0,0,0,-1,1658,743,0,0
441,281,0,0,0,0,0,0,0,0,0,-1,1665,743,0,0
448,281,0,0,0,0,0,0,0,0,0,-1,1672,743,0,0
455,281,0,0,0,0,0,0,0,0,0,-1,1679,743,0,0
462,281,0,0,0,0,0,0,0,0,0,-1,1686,743,0,0
469,281,0,0,0,0,0,0,0,0,0,-1,1693,743,0,0
476,281,0,0,0,0,0,0,0,0,0,-1,1700,743,0,0
483,281,0,0,0,0,0,0,0,0,0,-1,1707,743,0,0
490,281,0,0,0,0,0,0,0,0,0,-1,1714,743,0,0
497,281,0,0,0,0,0,0,0,0,0,-1,1721,743,0,0
504,281,0,0,0,0,0,0,0,0,0,-1,1728,743,0,0
511,281,0,0,0,0,0,0,0,0,0,-1,1735,743,0,0
518,281,0,0,0,0,0,0,0,0,0,-1,1742,743,0,0
525,281,0,0,0,0,0,0,0,0,0,-1,1749,743,0,0
532,281,0,0,0,0,0,0,0,0,0,-1,1756,743,0,0
539,281,0,0,0,0,0,0,0,0,0,-1,1763,743,0,0
546,281,0,0,0,0,0,0,0,0,0,-1,1770,743,0,0
553,281,0,0,0,0,0,0,0,0,0,-1,1777,743,0,0
560,281,57.8354,3.06482,0,0,0,0,0,0,0,-1,1784,743,57.8354,-3.06479
567,281,57.6156,3.64508,0,0,0,0,0,0,0,-1,1791,743,57.6156,-3.64511
574,281,57.3431,4.17767,0,0,0,0,0,0,0,-1,1798,743,57.3431,-4.17769
581,281,57.0648,4.53906,0,0,0,0,0,0,0,-1,1805,743,57.0648,-4.53908
588,281,53.5422,6.00092,0,0,0,0,0,0,0,-1,1812,743,53.5422,-6.00092
595,281,54.8569,3.32269,0,0,0,0,0,0,0,-1,1819,743,54.857,-3.32269
602,281,45.9985,3.98254,0,0,0,0,0,0,0,-1,1826,743,45.9985,-3.98254
609,281,32.7925,1.28723,0,0,0,0,0,0,0,-1,1833,743,32.7925,-1.28722
616,281,21.3191,-0.253906,0,0,0,0,0,0,0,-1,1840,743,21.3191,0.253931
623,281,31.8741,-4.74182,0,0,0,0,0,0,0,-1,1847,743,31.8741,4.74184
630,281,45.4532,-7.93524,0,0,0,0,0,0,0,-1,1854,743,45.4533,7.93525
637,281,45.4598,-7.06366,0.00265108,0.000791785,0.0014797,0.00346893,-2.60702e-05,0.504926,0.00232136,0.0232945,1861,743,45.4599,7.06364
644,281,45.4691,-6.18512,0.00196575,0.000682628,0.00129988,0.00277377,-0.000125391,0.556159,0.00189236,0.010981,1868,743,45.4691,6.18514
651,281,45.441,-5.30579,0.00148477,0.000605488,0.00101039,0.00214703,-5.67677e-05,0.580193,0.00145065,0.0118729,1875,743,45.4411,5.30578
658,281,45.4037,-4.41144,0.00134818,0.000684045,0.000869003,0.0019464,8.58244e-05,0.602898,0.00126996,0.0205978,1882,743,45.4037,4.41146
665,281,45.3431,-3.55371,0.00126426,0.00103001,0.000846979,0.00200218,0.000292098,0.716691,0.00124886,0.0216929,1889,743,45.3431,3.55371
672,281,45.2802,-2.65387,0.00125924,0.00151655,0.000919803,0.00231665,0.000459141,0.854884,0.00141642,0.0145703,1896,743,45.2802,2.65385
679,281,45.239,-1.79712,0.00139394,0.00220576,0.00116309,0.00303173,0.000567965,0.953288,0.00186095,0.0229696,1903,743,45.2391,1.79715
686,281,45.1344,-0.948059,0.00154267,0.00308519,0.00148152,0.00398418,0.000643678,1.02539,0.00246968,0.0177581,1910,743,45.1344,0.948073
693,281,45.0935,-0.0526123,0.00185104,0.00426512,0.00200591,0.00539915,0.00071701,1.05625,0.00338583,0.0134825,1917,743,45.0936,0.0526135
700,281,45.0345,0.895203,0.00231978,0.00569434,0.00275635,0.00723883,0.000775287,1.06005,0.00458934,0.0466098,1924,743,45.0345,-0.895223
707,281,44.7411,1.90167,0,0,0,0,0,0,0,-1,1931,743,44.7411,-1.90169
714,281,25.0125,2.5105,0,0,0,0,0,0,0,-1,1938,743,25.0124,-2.51053
721,281,16.9656,3.22174,0,0,0,0,0,0,0,-1,1945,743,16.9656,-3.22172
728,281,19.0251,3.63934,0,0,0,0,0,0,0,-1,1952,743,19.0252,-3.63932
735,281,19.0869,2.50311,0,0,0,0,0,0,0,-1,1959,743,19.0869,-2.5031
742,281,0,0,0,0,0,0,0,0,0,-1,1966,743,0,0
749,281,0,0,0,0,0,0,0,0,0,-1,1973,743,0,0
756,281,0,0,0,0,0,0,0,0,0,-1,1980,743,0,0
763,281,0,0,0,0,0,0,0,0,0,-1,1987,743,0,0
770,281,0,0,0,0,0,0,0,0,0,-1,1994,743,0,0
777,281,0,0,0,0,0,0,0,0,0,-1,2001,743,0,0
784,281,0,0,0,0,0,0,0,0,0,-1,2008,743,0,0
791,281,0,0,0,0,0,0,0,0,0,-1,2015,743,0,0
798,281,0,0,0,0,0,0,0,0,0,-1,2022,743,0,0
805,281,0,0,0,0,0,0,0,0,0,-1,2029,743,0,0
812,281,0,0,0,0,0,0,0,0,0,-1,2036,743,0,0
-700,274,0,0,0,0,0,0,0,0,0,-1,524,750,0,0
-693,274,0,0,0,0,0,0,0,0,0,-1,531,750,0,0
-686,274,0,0,0,0,0,0,0,0,0,-1,538,750,0,0
-679,274,0,0,0,0,0,0,0,0,0,-1,545,750,0,0
-672,274,0,0,0,0,0,0,0,0,0,-1,552,750,0,0
-665,274,0,0,0,0,0,0,0,0,0,-1,559,750,0,0
-658,274,0,0,0,0,0,0,0,0,0,-1,566,750,0,0
-651,274,0,0,0,0,0,0,0,0,0,-1,573,750,0,0
-644,274,0,0,0,0,0,0,0,0,0,-1,580,750,0,0
-637,274,0,0,0,0,0,0,0,0,0,-1,587,750,0,0
-630,274,0,0,0,0,0,0,0,0,0,-1,594,750,0,0
-623,274,-19.6909,5.12701,0,0,0,0,0,0,0,-1,601,750,-19.6908,-5.12703
-616,274,-17.9133,3.9024,0,0,0,0,0,0,0,-1,608,750,-17.9133,-3.90239
-609,274,-26.0861,5.57306,0,0,0,0,0,0,0,-1,615,750,-26.0861,-5.57307
-602,274,-25.7372,3.73846,0,0,0,0,0,0,0,-1,622,750,-25.7372,-3.73849
-595,274,-25.258,2.53473,0,0,0,0,0,0,0,-1,629,750,-25.258,-2.53474
-588,274,-24.9805,2.2334,0,0,0,0,0,0,0,-1,636,750,-24.9805,-2.23341
-581,274,-30.8247,0.83136,0,0,0,0,0,0,0,-1,643,750,-30.8247,-0.831375
-574,274,-30.7302,-0.0192871,-0.0056618,0.00451613,-0.00720418,0.00824747,-0.00939314,-1.0929,0.010192,0.031474,650,750,-30.7302,0.0193144
-567,274,-30.9968,-0.856079,-0.00403734,0.00363578,-0.00462418,0.00580773,-0.0062093,-1.13169,0.00693932,0.030129,657,750,-30.9968,0.856075
-560,274,-31.0499,-1.65625,-0.00290616,0.00281429,-0.00280961,0.0039634,-0.00405528,-1.18256,0.00462969,0.0138989,664,750,-31.0499,1.65624
-553,274,-31.0994,-2.53015,-0.00208475,0.00199095,-0.00146293,0.00246168,-0.00255549,-1.25948,0.00289683,0.00916692,671,750,-31.0994,2.53017
-546,274,-31.1681,-3.39911,-0.00157189,0.00118201,-0.000415601,0.00124337,-0.00163325,-1.42423,0.00166589,0.0117295,678,750,-31.1681,3.39914
-539,274,-31.2145,-4.284,-0.00123698,0.000523599,0.000541058,0.000676582,-0.00138996,1.29524,0.00121658,0.0125468,685,750,-31.2145,4.28402
-532,274,-31.2587,-5.12903,-0.00128774,-4.16779e-05,0.00121691,0.000702422,-0.00203184,1.02199,0.00163965,0.0141015,692,750,-31.2587,5.12901
-525,274,-31.3101,-5.9856,-0.00145172,-0.000422328,0.0015487,0.000694962,-0.00256901,0.945827,0.0019853,0.0143632,699,750,-31.3101,5.9856
-518,274,-31.3555,-6.89368,-0.00179632,-0.000634693,0.00184108,0.000715018,-0.00314604,0.938195,0.0023719,0.0133859,706,750,-31.3555,6.89368
-511,274,-31.4008,-7.80414,-0.00236745,-0.00071819,0.00204944,0.000666304,-0.00375194,0.976671,0.00275043,0.0199017,713,750,-31.4008,7.80417
-504,274,-31.564,-8.77692,-0.00282207,-0.000797927,0.00224192,0.000649778,-0.00426977,0.997419,0.003086,0.0376445,720,750,-31.564,8.77689
-497,274,-31.8101,-9.78882,0,0,0,0,0,0,0,-1,727,750,-31.8101,9.7888
-490,274,-13.6545,-3.58826,0,0,0,0,0,0,0,-1,734,750,-13.6546,3.58825
-483,274,-27.8608,1.30981,0,0,0,0,0,0,0,-1,741,750,-27.8608,-1.30979
-476,274,-33.7561,-0.508606,0,0,0,0,0,0,0,-1,748,750,-33.7561,0.508636
-469,274,-41.1387,0.907715,0,0,0,0,0,0,0,-1,755,750,-41.1387,-0.907744
-462,274,-52.6144,0.482544,0,0,0,0,0,0,0,-1,762,750,-52.6144,-0.482558
-455,274,-54.602,0.496216,0,0,0,0,0,0,0,-1,769,750,-54.602,-0.496205
-448,274,-52.0339,1.55475,0,0,0,0,0,0,0,-1,776,750,-52.0339,-1.55472
-441,274,0,0,0,0,0,0,0,0,0,-1,783,750,0,0
-434,274,0,0,0,0,0,0,0,0,0,-1,790,750,0,0
-427,274,0,0,0,0,0,0,0,0,0,-1,797,750,0,0
-420,274,0,0,0,0,0,0,0,0,0,-1,804,750,0,0
-413,274,0,0,0,0,0,0,0,0,0,-1,811,750,0,0
-406,274,0,0,0,0,0,0,0,0,0,-1,818,750,0,0
-399,274,0,0,0,0,0,0,0,0,0,-1,825,750,0,0
-392,274,0,0,0,0,0,0,0,0,0,-1,832,750,0,0
-385,274,0,0,0,0,0,0,0,0,0,-1,839,750,0,0
-378,274,0,0,0,0,0,0,0,0,0,-1,846,750,0,0
-371,274,0,0,0,0,0,0,0,0,0,-1,853,750,0,0
-364,274,0,0,0,0,0,0,0,0,0,-1,860,750,0,0
-357,274,0,0,0,0,0,0,0,0,0,-1,867,750,0,0
-350,274,0,0,0,0,0,0,0,0,0,-1,874,750,0,0
-343,274,0,0,0,0,0,0,0,0,0,-1,881,750,0,0
-336,274,0,0,0,0,0,0,0,0,0,-1,888,750,0,0
-329,274,0,0,0,0,0,0,0,0,0,-1,895,750,0,0
-322,274,0,0,0,0,0,0,0,0,0,-1,902,750,0,0
-315,274,0,0,0,0,0,0,0,0,0,-1,909,750,0,0
-308,274,0,0,0,0,0,0,0,0,0,-1,916,750,0,0
-301,274,0,0,0,0,0,0,0,0,0,-1,923,750,0,0
-294,274,0,0,0,0,0,0,0,0,0,-1,930,750,0,0
-287,274,0,0,0,0,0,0,0,0,0,-1,937,750,0,0
-280,274,0,0,0,0,0,0,0,0,0,-1,944,750,0,0
-273,274,0,0,0,0,0,0,0,0,0,-1,951,750,0,0
-266,274,0,0,0,0,0,0,0,0,0,-1,958,750,0,0
-259,274,0,0,0,0,0,0,0,0,0,-1,965,750,0,0
-252,274,0,0,0,0,0,0,0,0,0,-1,972,750,0,0
-245,274,0,0,0,0,0,0,0,0,0,-1,979,750,0,0
-238,274,0,0,0,0,0,0,0,0,0,-1,986,750,0,0
-231,274,0,0,0,0,0,0,0,0,0,-1,993,750,0,0
-224,274,0,0,0,0,0,0,0,0,0,-1,1000,750,0,0
-217,274,0,0,0,0,0,0,0,0,0,-1,1007,750,0,0
-210,274,0,0,0,0,0,0,0,0,0,-1,1014,750,0,0
-203,274,0,0,0,0,0,0,0,0,0,-1,1021,750,0,0
-196,274,0,0,0,0,0,0,0,0,0,-1,1028,750,0,0
-189,274,0,0,0,0,0,0,0,0,0,-1,1035,750,0,0
-182,274,0,0,0,0,0,0,0,0,0,-1,1042,750,0,0
-175,274,0,0,0,0,0,0,0,0,0,-1,1049,750,0,0
-168,274,0,0,0,0,0,0,0,0,0,-1,1056,750,0,0
-161,274,0,0,0,0,0,0,0,0,0,-1,1063,750,0,0
-154,274,0,0,0,0,0,0,0,0,0,-1,1070,750,0,0
-147,274,0,0,0,0,0,0,0,0,0,-1,1077,750,0,0
-140,274,0,0,0,0,0,0,0,0,0,-1,1084,750,0,0
-133,274,0,0,0,0,0,0,0,0,0,-1,1091,750,0,0
-126,274,0,0,0,0,0,0,0,0,0,-1,1098,750,0,0
-119,274,0,0,0,0,0,0,0,0,0,-1,1105,750,0,0
-112,274,0,0,0,0,0,0,0,0,0,-1,1112,750,0,0
-105,274,0,0,0,0,0,0,0,0,0,-1,1119,750,0,0
-98,274,0,0,0,0,0,0,0,0,0,-1,1126,750,0,0
-91,274,0,0,0,0,0,0,0,0,0,-1,1133,750,0,0
-84,274,0,0,0,0,0,0,0,0,0,-1,1140,750,0,0
-77,274,0,0,0,0,0,0,0,0,0,-1,1147,750,0,0
-70,274,0,0,0,0,0,0,0,0,0,-1,1154,750,0,0
-63,274,0,0,0,0,0,0,0,0,0,-1,1161,750,0,0
-56,274,0,0,0,0,0,0,0,0,0,-1,1168,750,0,0
-49,274,0,0,0,0,0,0,0,0,0,-1,1175,750,0,0
-42,274,0,0,0,0,0,0,0,0,0,-1,1182,750,0,0
-35,274,0,0,0,0,0,0,0,0,0,-1,1189,750,0,0
-28,274,0,0,0,0,0,0,0,0,0,-1,1196,750,0,0
-21,274,0,0,0,0,0,0,0,0,0,-1,1203,750,0,0
-14,274,0,0,0,0,0,0,0,0,0,-1,1210,750,0,0
-7,274,0,0,0,0,0,0,0,0,0,-1,1217,750,0,0
0,274,0,0,0,0,0,0,0,0,0,-1,1224,750,0,0
7,274,0,0,0,0,0,0,0,0,0,-1,1231,750,0,0
14,274,0,0,0,0,0,0,0,0,0,-1,1238,750,0,0
21,274,0,0,0,0,0,0,0,0,0,-1,1245,750,0,0
28,274,0,0,0,0,0,0,0,0,0,-1,1252,750,0,0
35,274,0,0,0,0,0,0,0,0,0,-1,1259,750,0,0
42,274,0,0,0,0,0,0,0,0,0,-1,1266,750,0,0
49,274,0,0,0,0,0,0,0,0,0,-1,1273,750,0,0
56,274,0,0,0,0,0,0,0,0,0,-1,1280,750,0,0
63,274,0,0,0,0,0,0,0,0,0,-1,1287,750,0,0
70,274,0,0,0,0,0,0,0,0,0,-1,1294,750,0,0
77,274,0,0,0,0,0,0,0,0,0,-1,1301,750,0,0
84,274,0,0,0,0,0,0,0,0,0,-1,1308,750,0,0
91,274,0,0,0,0,0,0,0,0,0,-1,1315,750,0,0
98,274,0,0,0,0,0,0,0,0,0,-1,1322,750,0,0
105,274,0,0,0,0,0,0,0,0,0,-1,1329,750,0,0
112,274,0,0,0,0,0,0,0,0,0,-1,1336,750,0,0
119,274,0,0,0,0,0,0,0,0,0,-1,1343,750,0,0
126,274,0,0,0,0,0,0,0,0,0,-1,1350,750,0,0
133,274,0,0,0,0,0,0,0,0,0,-1,1357,750,0,0
140,274,0,0,0,0,0,0,0,0,0,-1,1364,750,0,0
147,274,0,0,0,0,0,0,0,0,0,-1,1371,750,0,0
154,274,0,0,0,0,0,0,0,0,0,-1,1378,750,0,0
161,274,0,0,0,0,0,0,0,0,0,-1,1385,750,0,0
168,274,0,0,0,0,0,0,0,0,0,-1,1392,750,0,0
175,274,0,0,0,0,0,0,0,0,0,-1,1399,750,0,0
182,274,0,0,0,0,0,0,0,0,0,-1,1406,750,0,0
189,274,0,0,0,0,0,0,0,0,0,-1,1413,750,0,0
196,274,0,0,0,0,0,0,0,0,0,-1,1420,750,0,0
203,274,0,0,0,0,0,0,0,0,0,-1,1427,750,0,0
210,274,0,0,0,0,0,0,0,0,0,-1,1434,750,0,0
217,274,0,0,0,0,0,0,0,0,0,-1,1441,750,0,0
224,274,0,0,0,0,0,0,0,0,0,-1,1448,750,0,0
231,274,0,0,0,0,0,0,0,0,0,-1,1455,750,0,0
238,274,0,0,0,0,0,0,0,0,0,-1,1462,750,0,0
245,274,0,0,0,0,0,0,0,0,0,-1,1469,750,0,0
252,274,0,0,0,0,0,0,0,0,0,-1,1476,750,0,0
259,274,0,0,0,0,0,0,0,0,0,-1,1483,750,0,0
266,274,0,0,0,0,0,0,0,0,0,-1,1490,750,0,0
273,274,0,0,0,0,0,0,0,0,0,-1,1497,750,0,0
280,274,0,0,0,0,0,0,0,0,0,-1,1504,750,0,0
287,274,0,0,0,0,0,0,0,0,0,-1,1511,750,0,0
294,274,0,0,0,0,0,0,0,0,0,-1,1518,750,0,0
301,274,0,0,0,0,0,0,0,0,0,-1,1525,750,0,0
308,274,0,0,0,0,0,0,0,0,0,-1,1532,750,0,0
315,274,0,0,0,0,0,0,0,0,0,-1,1539,750,0,0
322,274,0,0,0,0,0,0,0,0,0,-1,1546,750,0,0
329,274,0,0,0,0,0,0,0,0,0,-1,1553,750,0,0
336,274,0,0,0,0,0,0,0,0,0,-1,1560,750,0,0
343,274,0,0,0,0,0,0,0,0,0,-1,1567,750,0,0
350,274,0,0,0,0,0,0,0,0,0,-1,1574,750,0,0
357,274,0,0,0,0,0,0,0,0,0,-1,1581,750,0,0
364,274,0,0,0,0,0,0,0,0,0,-1,1588,750,0,0
371,274,0,0,0,0,0,0,0,0,0,-1,1595,750,0,0
378,274,0,0,0,0,0,0,0,0,0,-1,1602,750,0,0
385,274,0,0,0,0,0,0,0,0,0,-1,1609,750,0,0
392,274,0,0,0,0,0,0,0,0,0,-1,1616,750,0,0
399,274,0,0,0,0,0,0,0,0,0,-1,1623,750,0,0
406,274,0,0,0,0,0,0,0,0,0,-1,1630,750,0,0
413,274,0,0,0,0,0,0,0,0,0,-1,1637,750,0,0
420,274,0,0,0,0,0,0,0,0,0,-1,1644,750,0,0
427,274,0,0,0,0,0,0,0,0,0,-1,1651,750,0,0
434,274,0,0,0,0,0,0,0,0,0,-1,1658,750,0,0
441,274,0,0,0,0,0,0,0,0,0,-1,1665,750,0,0
448,274,0,0,0,0,0,0,0,0,0,-1,1672,750,0,0
455,274,0,0,0,0,0,0,0,0,0,-1,1679,750,0,0
462,274,0,0,0,0,0,0,0,0,0,-1,1686,750,0,0
469,274,0,0,0,0,0,0,0,0,0,-1,1693,750,0,0
476,274,0,0,0,0,0,0,0,0,0,-1,1700,750,0,0
483,274,0,0,0,0,0,0,0,0,0,-1,1707,750,0,0
490,274,0,0,0,0,0,0,0,0,0,-1,1714,750,0,0
497,274,0,0,0,0,0,0,0,0,0,-1,1721,750,0,0
504,274,0,0,0,0,0,0,0,0,0,-1,1728,750,0,0
511,274,0,0,0,0,0,0,0,0,0,-1,1735,750,0,0
518,274,0,0,0,0,0,0,0,0,0,-1,1742,750,0,0
525,274,0,0,0,0,0,0,0,0,0,-1,1749,750,0,0
532,274,0,0,0,0,0,0,0,0,0,-1,1756,750,0,0
539,274,0,0,0,0,0,0,0,0,0,-1,1763,750,0,0
546,274,0,0,0,0,0,0,0,0,0,-1,1770,750,0,0
553,274,0,0,0,0,0,0,0,0,0,-1,1777,750,0,0
560,274,57.9182,3.24518,0,0,0,0,0,0,0,-1,1784,750,57.9182,-3.24516
567,274,57.8315,3.4137,0,0,0,0,0,0,0,-1,1791,750,57.8315,-3.41368
574,274,58.2571,3.11115,0,0,0,0,0,0,0,-1,1798,750,58.2571,-3.11114
581,274,54.4941,4.68127,0,0,0,0,0,0,0,-1,1805,750,54.4941,-4.68125
588,274,53.9908,5.6676,0,0,0,0,0,0,0,-1,1812,750,53.9908,-5.66763
595,274,66.2316,2.66986,0,0,0,0,0,0,0,-1,1819,750,66.2315,-2.66988
602,274,55.6321,2.56519,0,0,0,0,0,0,0,-1,1826,750,55.6321,-2.56521
609,274,44.6676,3.10461,0,0,0,0,0,0,0,-1,1833,750,44.6676,-3.1046
616,274,32.7869,1.78436,0,0,0,0,0,0,0,-1,1840,750,32.7868,-1.78437
623,274,24.8231,-1.80353,0,0,0,0,0,0,0,-1,1847,750,24.8232,1.80351
630,274,46.4111,-8.08398,0,0,0,0,0,0,0,-1,1854,750,46.4111,8.08397
637,274,46.2832,-7.14246,0.00255539,0.000596921,0.00168226,0.00352266,-0.000370355,0.521824,0.00248113,0.0303536,1861,750,46.2832,7.14247
644,274,46.3158,-6.15405,0.00197733,0.000586243,0.00155145,0.00298202,-0.000418444,0.574671,0.00214117,0.0150106,1868,750,46.3159,6.15403
651,274,46.3011,-5.24048,0.00149533,0.000545933,0.0011494,0.0022642,-0.000222935,0.589568,0.001589,0.0142511,1875,750,46.3011,5.24048
658,274,46.2592,-4.36243,0.0013456,0.000547758,0.000894588,0.00192618,-3.2825e-05,0.575669,0.0012952,0.0167331,1882,750,46.2592,4.36245
665,274,46.2115,-3.46204,0.00118384,0.000842754,0.000760532,0.00179272,0.000233881,0.6751,0.00112532,0.0166241,1889,750,46.2115,3.46201
672,274,46.1655,-2.59912,0.00109836,0.00124612,0.000731778,0.00190774,0.000436742,0.83571,0.00115413,0.014312,1896,750,46.1655,2.59914
679,274,46.11,-1.73468,0.00113423,0.00183903,0.000903002,0.00245596,0.000517301,0.971437,0.00149501,0.016177,1903,750,46.11,1.73466
686,274,46.0387,-0.865051,0.00117448,0.00263786,0.00115128,0.00327029,0.000542051,1.06847,0.00202385,0.0187303,1910,750,46.0387,0.865029
693,274,45.9614,0.0205078,0.00132508,0.0036472,0.00156789,0.00443713,0.000535155,1.1041,0.00279682,0.0135684,1917,750,45.9615,-0.0204953
700,274,45.9261,0.930359,0.00161997,0.00487312,0.0021992,0.00598191,0.000511182,1.10381,0.00382894,0.0202765,1924,750,45.9262,-0.930342
707,274,45.7568,1.84357,0.00189182,0.00618928,0.00288366,0.00763674,0.000444362,1.10559,0.00494969,0.0458956,1931,750,45.7569,-1.84355
714,274,45.5188,2.79626,0,0,0,0,0,0,0,-1,1938,750,45.5188,-2.79624
721,274,25.6215,3.91144,0,0,0,0,0,0,0,-1,1945,750,25.6214,-3.91141
728,274,19.2209,3.95154,0,0,0,0,0,0,0,-1,1952,750,19.221,-3.95151
735,274,20.6608,4.10931,0,0,0,0,0,0,0,-1,1959,750,20.6607,-4.10932
742,274,11.7815,-0.740234,0,0,0,0,0,0,0,-1,1966,750,11.7815,0.740253
749,274,0,0,0,0,0,0,0,0,0,-1,1973,750,0,0
756,274,0,0,0,0,0,0,0,0,0,-1,1980,750,0,0
763,274,0,0,0,0,0,0,0,0,0,-1,1987,750,0,0
770,274,0,0,0,0,0,0,0,0,0,-1,1994,750,0,0
777,274,0,0,0,0,0,0,0,0,0,-1,2001,750,0,0
784,274,0,0,0,0,0,0,0,0,0,-1,2008,750,0,0
791,274,0,0,0,0,0,0,0,0,0,-1,2015,750,0,0
798,274,0,0,0,0,0,0,0,0,0,-1,2022,750,0,0
805,274,0,0,0,0,0,0,0,0,0,-1,2029,750,0,0
812,274,0,0,0,0,0,0,0,0,0,-1,2036,750,0,0
-700,267,0,0,0,0,0,0,0,0,0,-1,524,757,0,0
-693,267,0,0,0,0,0,0,0,0,0,-1,531,757,0,0
-686,267,0,0,0,0,0,0,0,0,0,-1,538,757,0,0
-679,267,0,0,0,0,0,0,0,0,0,-1,545,757,0,0
-672,267,0,0,0,0,0,0,0,0,0,-1,552,757,0,0
-665,267,0,0,0,0,0,0,0,0,0,-1,559,757,0,0
-658,267,0,0,0,0,0,0,0,0,0,-1,566,757,0,0
-651,267,0,0,0,0,0,0,0,0,0,-1,573,757,0,0
-644,267,0,0,0,0,0,0,0,0,0,-1,580,757,0,0
-637,267,0,0,0,0,0,0,0,0,0,-1,587,757,0,0
-630,267,-21.3979,5.17529,0,0,0,0,0,0,0,-1,594,757,-21.3979,-5.17529
-623,267,-20.043,4.43115,0,0,0,0,0,0,0,-1,601,757,-20.043,-4.43116
-616,267,-27.1628,5.9325,0,0,0,0,0,0,0,-1,608,757,-27.1629,-5.93249
-609,267,-26.9868,4.99658,0,0,0,0,0,0,0,-1,615,757,-26.9868,-4.99656
-602,267,-26.6637,3.74072,0,0,0,0,0,0,0,-1,622,757,-26.6637,-3.74075
-595,267,-29.6408,3.87256,0,0,0,0,0,0,0,-1,629,757,-29.6408,-3.87258
-588,267,-31.5334,2.34442,0,0,0,0,0,0,0,-1,636,757,-31.5334,-2.34439
-581,267,-31.6165,1.22064,-0.00678089,0.00370819,-0.0103229,0.0100424,-0.0131151,-1.02043,0.0134092,0.0475727,643,757,-31.6165,-1.22065
-574,267,-31.687,0.137146,-0.00501789,0.00340384,-0.00689669,0.00727356,-0.00888761,-1.05947,0.00934615,0.0273706,650,757,-31.687,-0.137132
-567,267,-31.8486,-0.751587,-0.00365284,0.00282812,-0.00434137,0.00500504,-0.00582976,-1.106,0.00626151,0.0310902,657,757,-31.8486,0.751594
-560,267,-31.9293,-1.54401,-0.00270338,0.00223811,-0.00249372,0.00327781,-0.00374308,-1.17578,0.00405648,0.0213189,664,757,-31.9293,1.54403
-553,267,-32.0065,-2.41522,-0.00205787,0.00166439,-0.00110571,0.00196807,-0.00236155,-1.30276,0.00250315,0.0169605,671,757,-32.0065,2.41521
-546,267,-32.0428,-3.33636,-0.00168072,0.00102649,-8.80547e-06,0.00102652,-0.00168075,-1.56754,0.00157818,0.0122626,678,757,-32.0428,3.33636
-539,267,-32.0698,-4.23389,-0.00150575,0.000486097,0.000963164,0.000875652,-0.0018953,1.18646,0.00163552,0.0123209,685,757,-32.0698,4.23388
-532,267,-32.0829,-5.09534,-0.00164883,9.50422e-05,0.00158013,0.00102785,-0.00258163,1.03751,0.00214733,0.0132151,692,757,-32.0829,5.09532
-525,267,-32.1769,-5.9184,-0.00178783,-0.00013374,0.00185642,0.00107153,-0.0029931,0.994954,0.00243256,0.0124143,699,757,-32.1769,5.91838
-518,267,-32.2446,-6.80511,-0.00209101,-0.000335884,0.00211356,0.00107506,-0.00350196,0.982171,0.00276359,0.0153703,706,757,-32.2446,6.80513
-511,267,-32.2351,-7.71643,-0.00254182,-0.000447658,0.00225486,0.000991381,-0.00398086,1.00277,0.00303876,0.0332629,713,757,-32.2351,7.71644
-504,267,-32.4365,-8.71417,0,0,0,0,0,0,0,-1,720,757,-32.4365,8.71417
-497,267,-31.5913,-8.72119,0,0,0,0,0,0,0,-1,727,757,-31.5913,8.72117
-490,267,-23.4949,-0.494995,0,0,0,0,0,0,0,-1,734,757,-23.4949,0.494981
-483,267,-33.2785,-0.448425,0,0,0,0,0,0,0,-1,741,757,-33.2785,0.448407
-476,267,-40.2954,0.52002,0,0,0,0,0,0,0,-1,748,757,-40.2954,-0.520037
-469,267,-52.9857,0.187744,0,0,0,0,0,0,0,-1,755,757,-52.9857,-0.187726
-462,267,-54.3212,0.768005,0,0,0,0,0,0,0,-1,762,757,-54.3211,-0.768018
-455,267,-54.66,0.603699,0,0,0,0,0,0,0,-1,769,757,-54.66,-0.603723
-448,267,-54.7286,0.468689,0,0,0,0,0,0,0,-1,776,757,-54.7286,-0.468668
-441,267,0,0,0,0,0,0,0,0,0,-1,783,757,0,0
-434,267,0,0,0,0,0,0,0,0,0,-1,790,757,0,0
-427,267,0,0,0,0,0,0,0,0,0,-1,797,757,0,0
-420,267,0,0,0,0,0,0,0,0,0,-1,804,757,0,0
-413,267,0,0,0,0,0,0,0,0,0,-1,811,757,0,0
-406,267,0,0,0,0,0,0,0,0,0,-1,818,757,0,0
-399,267,0,0,0,0,0,0,0,0,0,-1,825,757,0,0
-392,267,0,0,0,0,0,0,0,0,0,-1,832,757,0,0
-385,267,0,0,0,0,0,0,0,0,0,-1,839,757,0,0
-378,267,0,0,0,0,0,0,0,0,0,-1,846,757,0,0
-371,267,0,0,0,0,0,0,0,0,0,-1,853,757,0,0
-364,267,0,0,0,0,0,0,0,0,0,-1,860,757,0,0
-357,267,0,0,0,0,0,0,0,0,0,-1,867,757,0,0
-350,267,0,0,0,0,0,0,0,0,0,-1,874,757,0,0
-343,267,0,0,0,0,0,0,0,0,0,-1,881,757,0,0
-336,267,0,0,0,0,0,0,0,0,0,-1,888,757,0,0
-329,267,0,0,0,0,0,0,0,0,0,-1,895,757,0,0
-322,267,0,0,0,0,0,0,0,0,0,-1,902,757,0,0
-315,267,0,0,0,0,0,0,0,0,0,-1,909,757,0,0
-308,267,0,0,0,0,0,0,0,0,0,-1,916,757,0,0
-301,267,0,0,0,0,0,0,0,0,0,-1,923,757,0,0
-294,267,0,0,0,0,0,0,0,0,0,-1,930,757,0,0
-287,267,0,0,0,0,0,0,0,0,0,-1,937,757,0,0
-280,267,0,0,0,0,0,0,0,0,0,-1,944,757,0,0
-273,267,0,0,0,0,0,0,0,0,0,-1,951,757,0,0
-266,267,0,0,0,0,0,0,0,0,0,-1,958,757,0,0
-259,267,0,0,0,0,0,0,0,0,0,-1,965,757,0,0
-252,267,0,0,0,0,0,0,0,0,0,-1,972,757,0,0
-245,267,0,0,0,0,0,0,0,0,0,-1,979,757,0,0
-238,267,0,0,0,0,0,0,0,0,0,-1,986,757,0,0
-231,267,0,0,0,0,0,0,0,0,0,-1,993,757,0,0
-224,267,0,0,0,0,0,0,0,0,0,-1,1000,757,0,0
-217,267,0,0,0,0,0,0,0,0,0,-1,1007,757,0,0
-210,267,0,0,0,0,0,0,0,0,0,-1,1014,757,0,0
-203,267,0,0,0,0,0,0,0,0,0,-1,1021,757,0,0
-196,267,0,0,0,0,0,0,0,0,0,-1,1028,757,0,0
-189,267,0,0,0,0,0,0,0,0,0,-1,1035,757,0,0
-182,267,0,0,0,0,0,0,0,0,0,-1,1042,757,0,0
-175,267,0,0,0,0,0,0,0,0,0,-1,1049,757,0,0
-168,267,0,0,0,0,0,0,0,0,0,-1,1056,757,0,0
-161,267,0,0,0,0,0,0,0,0,0,-1,1063,757,0,0
-154,267,0,0,0,0,0,0,0,0,0,-1,1070,757,0,0
-147,267,0,0,0,0,0,0,0,0,0,-1,1077,757,0,0
-140,267,0,0,0,0,0,0,0,0,0,-1,1084,757,0,0
-133,267,0,0,0,0,0,0,0,0,0,-1,1091,757,0,0
-126,267,0,0,0,0,0,0,0,0,0,-1,1098,757,0,0
-119,267,0,0,0,0,0,0,0,0,0,-1,1105,757,0,0
-112,267,0,0,0,0,0,0,0,0,0,-1,1112,757,0,0
-105,267,0,0,0,0,0,0,0,0,0,-1,1119,757,0,0
-98,267,0,0,0,0,0,0,0,0,0,-1,1126,757,0,0
-91,267,0,0,0,0,0,0,0,0,0,-1,1133,757,0,0
-84,267,0,0,0,0,0,0,0,0,0,-1,1140,757,0,0
-77,267,0,0,0,0,0,0,0,0,0,-1,1147,757,0,0
-70,267,0,0,0,0,0,0,0,0,0,-1,1154,757,0,0
-63,267,0,0,0,0,0,0,0,0,0,-1,1161,757,0,0
-56,267,0,0,0,0,0,0,0,0,0,-1,1168,757,0,0
-49,267,0,0,0,0,0,0,0,0,0,-1,1175,757,0,0
-42,267,0,0,0,0,0,0,0,0,0,-1,1182,757,0,0
-35,267,0,0,0,0,0,0,0,0,0,-1,1189,757,0,0
-28,267,0,0,0,0,0,0,0,0,0,-1,1196,757,0,0
-21,267,0,0,0,0,0,0,0,0,0,-1,1203,757,0,0
-14,267,0,0,0,0,0,0,0,0,0,-1,1210,757,0,0
-7,267,0,0,0,0,0,0,0,0,0,-1,1217,757,0,0
0,267,0,0,0,0,0,0,0,0,0,-1,1224,757,0,0
7,267,0,0,0,0,0,0,0,0,0,-1,1231,757,0,0
14,267,0,0,0,0,0,0,0,0,0,-1,1238,757,0,0
21,267,0,0,0,0,0,0,0,0,0,-1,1245,757,0,0
28,267,0,0,0,0,0,0,0,0,0,-1,1252,757,0,0
35,267,0,0,0,0,0,0,0,0,0,-1,1259,757,0,0
42,267,0,0,0,0,0,0,0,0,0,-1,1266,757,0,0
49,267,0,0,0,0,0,0,0,0,0,-1,1273,757,0,0
56,267,0,0,0,0,0,0,0,0,0,-1,1280,757,0,0
63,267,0,0,0,0,0,0,0,0,0,-1,1287,757,0,0
70,267,0,0,0,0,0,0,0,0,0,-1,1294,757,0,0
77,267,0,0,0,0,0,0,0,0,0,-1,1301,757,0,0
84,267,0,0,0,0,0,0,0,0,0,-1,1308,757,0,0
91,267,0,0,0,0,0,0,0,0,0,-1,1315,757,0,0
98,267,0,0,0,0,0,0,0,0,0,-1,1322,757,0,0
105,267,0,0,0,0,0,0,0,0,0,-1,1329,757,0,0
112,267,0,0,0,0,0,0,0,0,0,-1,1336,757,0,0
119,267,0,0,0,0,0,0,0,0,0,-1,1343,757,0,0
126,267,0,0,0,0,0,0,0,0,0,-1,1350,757,0,0
133,267,0,0,0,0,0,0,0,0,0,-1,1357,757,0,0
140,267,0,0,0,0,0,0,0,0,0,-1,1364,757,0,0
147,267,0,0,0,0,0,0,0,0,0,-1,1371,757,0,0
154,267,0,0,0,0,0,0,0,0,0,-1,1378,757,0,0
161,267,0,0,0,0,0,0,0,0,0,-1,1385,757,0,0
168,267,0,0,0,0,0,0,0,0,0,-1,1392,757,0,0
175,267,0,0,0,0,0,0,0,0,0,-1,1399,757,0,0
182,267,0,0,0,0,0,0,0,0,0,-1,1406,757,0,0
189,267,0,0,0,0,0,0,0,0,0,-1,1413,757,0,0
196,267,0,0,0,0,0,0,0,0,0,-1,1420,757,0,0
203,267,0,0,0,0,0,0,0,0,0,-1,1427,757,0,0
210,267,0,0,0,0,0,0,0,0,0,-1,1434,757,0,0
217,267,0,0,0,0,0,0,0,0,0,-1,1441,757,0,0
224,267,0,0,0,0,0,0,0,0,0,-1,1448,757,0,0
231,267,0,0,0,0,0,0,0,0,0,-1,1455,757,0,0
238,267,0,0,0,0,0,0,0,0,0,-1,1462,757,0,0
245,267,0,0,0,0,0,0,0,0,0,-1,1469,757,0,0
252,267,0,0,0,0,0,0,0,0,0,-1,1476,757,0,0
259,267,0,0,0,0,0,0,0,0,0,-1,1483,757,0,0
266,267,0,0,0,0,0,0,0,0,0,-1,1490,757,0,0
273,267,0,0,0,0,0,0,0,0,0,-1,1497,757,0,0
280,267,0,0,0,0,0,0,0,0,0,-1,1504,757,0,0
287,267,0,0,0,0,0,0,0,0,0,-1,1511,757,0,0
294,267,0,0,0,0,0,0,0,0,0,-1,1518,757,0,0
301,267,0,0,0,0,0,0,0,0,0,-1,1525,757,0,0
308,267,0,0,0,0,0,0,0,0,0,-1,1532,757,0,0
315,267,0,0,0,0,0,0,0,0,0,-1,1539,757,0,0
322,267,0,0,0,0,0,0,0,0,0,-1,1546,757,0,0
329,267,0,0,0,0,0,0,0,0,0,-1,1553,757,0,0
336,267,0,0,0,0,0,0,0,0,0,-1,1560,757,0,0
343,267,0,0,0,0,0,0,0,0,0,-1,1567,757,0,0
350,267,0,0,0,0,0,0,0,0,0,-1,1574,757,0,0
357,267,0,0,0,0,0,0,0,0,0,-1,1581,757,0,0
364,267,0,0,0,0,0,0,0,0,0,-1,1588,757,0,0
371,267,0,0,0,0,0,0,0,0,0,-1,1595,757,0,0
378,267,0,0,0,0,0,0,0,0,0,-1,1602,757,0,0
385,267,0,0,0,0,0,0,0,0,0,-1,1609,757,0,0
392,267,0,0,0,0,0,0,0,0,0,-1,1616,757,0,0
399,267,0,0,0,0,0,0,0,0,0,-1,1623,757,0,0
406,267,0,0,0,0,0,0,0,0,0,-1,1630,757,0,0
413,267,0,0,0,0,0,0,0,0,0,-1,1637,757,0,0
420,267,0,0,0,0,0,0,0,0,0,-1,1644,757,0,0
427,267,0,0,0,0,0,0,0,0,0,-1,1651,757,0,0
434,267,0,0,0,0,0,0,0,0,0,-1,1658,757,0,0
441,267,0,0,0,0,0,0,0,0,0,-1,1665,757,0,0
448,267,0,0,0,0,0,0,0,0,0,-1,1672,757,0,0
455,267,0,0,0,0,0,0,0,0,0,-1,1679,757,0,0
462,267,0,0,0,0,0,0,0,0,0,-1,1686,757,0,0
469,267,0,0,0,0,0,0,0,0,0,-1,1693,757,0,0
476,267,0,0,0,0,0,0,0,0,0,-1,1700,757,0,0
483,267,0,0,0,0,0,0,0,0,0,-1,1707,757,0,0
490,267,0,0,0,0,0,0,0,0,0,-1,1714,757,0,0
497,267,0,0,0,0,0,0,0,0,0,-1,1721,757,0,0
504,267,0,0,0,0,0,0,0,0,0,-1,1728,757,0,0
511,267,0,0,0,0,0,0,0,0,0,-1,1735,757,0,0
518,267,0,0,0,0,0,0,0,0,0,-1,1742,757,0,0
525,267,0,0,0,0,0,0,0,0,0,-1,1749,757,0,0
532,267,0,0,0,0,0,0,0,0,0,-1,1756,757,0,0
539,267,0,0,0,0,0,0,0,0,0,-1,1763,757,0,0
546,267,0,0,0,0,0,0,0,0,0,-1,1770,757,0,0
553,267,0,0,0,0,0,0,0,0,0,-1,1777,757,0,0
560,267,0,0,0,0,0,0,0,0,0,-1,1784,757,0,0
567,267,58.0104,3.24304,0,0,0,0,0,0,0,-1,1791,757,58.0104,-3.24306
574,267,64.5414,2.91858,0,0,0,0,0,0,0,-1,1798,757,64.5414,-2.91855
581,267,58.374,2.95636,0,0,0,0,0,0,0,-1,1805,757,58.3741,-2.95639
588,267,65.9681,2.6438,0,0,0,0,0,0,0,-1,1812,757,65.9682,-2.64382
595,267,66.191,2.60791,0,0,0,0,0,0,0,-1,1819,757,66.191,-2.60792
602,267,66.4139,2.57202,0,0,0,0,0,0,0,-1,1826,757,66.4139,-2.57203
609,267,54.5498,3.24054,0,0,0,0,0,0,0,-1,1833,757,54.5498,-3.24052
616,267,44.2543,3.28918,0,0,0,0,0,0,0,-1,1840,757,44.2542,-3.28918
623,267,24.1475,-1.1391,0,0,0,0,0,0,0,-1,1847,757,24.1475,1.13913
630,267,40.7198,-5.42108,0,0,0,0,0,0,0,-1,1854,757,40.7198,5.4211
637,267,47.2218,-7.09863,0,0,0,0,0,0,0,-1,1861,757,47.2218,7.09864
644,267,47.2052,-6.14478,0.00233109,0.000550992,0.00140667,0.00310565,-0.000223566,0.503327,0.00214884,0.021231,1868,757,47.2053,6.14479
651,267,47.1545,-5.15601,0.00186325,0.000535152,0.00105791,0.00244826,-4.98531e-05,0.505129,0.00164904,0.0159174,1875,757,47.1546,5.156
658,267,47.1355,-4.30005,0.00166851,0.000450024,0.000826444,0.002086,3.25313e-05,0.467773,0.00137995,0.0147957,1882,757,47.1355,4.30007
665,267,47.0895,-3.40503,0.00140282,0.000675787,0.000653608,0.0017872,0.000291408,0.531614,0.00110719,0.0151117,1889,757,47.0895,3.40503
672,267,47.0515,-2.54028,0.00120873,0.000977624,0.00056105,0.001666,0.000520351,0.683839,0.000984192,0.0139414,1896,757,47.0515,2.54028
679,267,47.0052,-1.66882,0.00111899,0.00143704,0.000662716,0.00195954,0.000596483,0.903151,0.00115984,0.0135169,1903,757,47.0053,1.66882
686,267,46.9341,-0.776978,0.00105776,0.00215239,0.000844842,0.00261171,0.000598445,1.07282,0.0015799,0.0173546,1910,757,46.9341,0.776951
693,267,46.8433,0.0527954,0.00108457,0.00302193,0.0011733,0.00357475,0.000531751,1.13048,0.00222718,0.0165048,1917,757,46.8432,-0.0528082
700,267,46.8163,0.938232,0.00124266,0.00408974,0.00171081,0.00489181,0.000440591,1.1324,0.00312471,0.0154266,1924,757,46.8162,-0.938247
707,267,46.8053,1.81964,0.00140279,0.00524974,0.00234979,0.00636292,0.000289609,1.12838,0.00414878,0.021685,1931,757,46.8054,-1.81964
714,267,46.8604,2.75592,0.00153518,0.00644976,0.00328504,0.00809487,-0.000109933,1.10652,0.0054336,0.0498913,1938,757,46.8603,-2.75594
721,267,47.0829,3.73804,0,0,0,0,0,0,0,-1,1945,757,47.0828,-3.73803
728,267,26.7886,3.90027,0,0,0,0,0,0,0,-1,1952,757,26.7886,-3.90028
735,267,24.6713,2.82483,0,0,0,0,0,0,0,-1,1959,757,24.6713,-2.82483
742,267,18.1177,3.56561,0,0,0,0,0,0,0,-1,1966,757,18.1176,-3.56564
749,267,0,0,0,0,0,0,0,0,0,-1,1973,757,0,0
756,267,0,0,0,0,0,0,0,0,0,-1,1980,757,0,0
763,267,0,0,0,0,0,0,0,0,0,-1,1987,757,0,0
770,267,0,0,0,0,0,0,0,0,0,-1,1994,757,0,0
777,267,0,0,0,0,0,0,0,0,0,-1,2001,757,0,0
784,267,0,0,0,0,0,0,0,0,0,-1,2008,757,0,0
791,267,0,0,0,0,0,0,0,0,0,-1,2015,757,0,0
798,267,0,0,0,0,0,0,0,0,0,-1,2022,757,0,0
805,267,0,0,0,0,0,0,0,0,0,-1,2029,757,0,0
812,267,0,0,0,0,0,0,0,0,0,-1,2036,757,0,0
-700,260,0,0,0,0,0,0,0,0,0,-1,524,764,0,0
-693,260,0,0,0,0,0,0,0,0,0,-1,531,764,0,0
-686,260,0,0,0,0,0,0,0,0,0,-1,538,764,0,0
-679,260,0,0,0,0,0,0,0,0,0,-1,545,764,0,0
-672,260,0,0,0,0,0,0,0,0,0,-1,552,764,0,0
-665,260,0,0,0,0,0,0,0,0,0,-1,559,764,0,0
-658,260,0,0,0,0,0,0,0,0,0,-1,566,764,0,0
-651,260,0,0,0,0,0,0,0,0,0,-1,573,764,0,0
-644,260,0,0,0,0,0,0,0,0,0,-1,580,764,0,0
-637,260,0,0,0,0,0,0,0,0,0,-1,587,764,0,0
-630,260,-21.8905,4.49341,0,0,0,0,0,0,0,-1,594,764,-21.8905,-4.49342
-623,260,-20.3127,3.53546,0,0,0,0,0,0,0,-1,601,764,-20.3127,-3.53544
-616,260,-23.4346,3.65009,0,0,0,0,0,0,0,-1,608,764,-23.4345,-3.65008
-609,260,-27.8874,4.42004,0,0,0,0,0,0,0,-1,615,764,-27.8874,-4.42005
-602,260,-31.7818,4.59277,0,0,0,0,0,0,0,-1,622,764,-31.7818,-4.59277
-595,260,-32.3346,2.71472,0,0,0,0,0,0,0,-1,629,764,-32.3346,-2.71475
-588,260,-32.9471,1.98071,-0.00791645,0.00306227,-0.0134782,0.0121261,-0.0169803,-0.97878,0.0168823,0.0488788,636,764,-32.9471,-1.9807
-581,260,-32.6974,0.988281,-0.00609749,0.0031914,-0.00962254,0.00923172,-0.0121378,-1.01024,0.0123757,0.0332744,643,764,-32.6975,-0.988261
-574,260,-32.6901,0.146973,-0.00452541,0.00292787,-0.00641921,0.00662377,-0.00822131,-1.04839,0.00858734,0.020956,650,764,-32.6901,-0.146959
-567,260,-32.7184,-0.646362,-0.00334324,0.00247538,-0.00395928,0.00447931,-0.00534718,-1.10225,0.0056807,0.0190271,657,764,-32.7184,0.646352
-560,260,-32.7947,-1.50085,-0.00252313,0.0019803,-0.00211591,0.00281845,-0.00336129,-1.19364,0.00357246,0.0206938,664,764,-32.7947,1.50088
-553,260,-32.8807,-2.38019,-0.00201401,0.00153508,-0.000716096,0.00167412,-0.00215305,-1.37902,0.00221538,0.016999,671,764,-32.8807,2.38019
-546,260,-32.9028,-3.28058,-0.00179434,0.00102064,0.000421278,0.00108234,-0.00185604,1.42538,0.00171596,0.0118276,678,764,-32.9028,3.28056
-539,260,-32.9182,-4.15277,-0.00186465,0.000529437,0.00136479,0.00114776,-0.00248297,1.1454,0.00214293,0.0139668,685,764,-32.9182,4.15277
-532,260,-32.9253,-4.96307,-0.00212155,0.000301198,0.00187421,0.00132144,-0.00314178,1.0723,0.00264732,0.0184349,692,764,-32.9253,4.96308
-525,260,-33.032,-5.82312,-0.00219952,0.000198645,0.00204028,0.0013661,-0.00336698,1.05106,0.00281286,0.0170988,699,764,-33.032,5.82314
-518,260,-33.2278,-6.69476,-0.0024542,-7.33158e-06,0.00223349,0.00131586,-0.00377739,1.03596,0.00305291,0.027729,706,764,-33.2278,6.69473
-511,260,-33.2821,-7.55347,-0.00278058,-0.000139717,0.0022862,0.00117997,-0.00410027,1.04728,0.00320019,0.0492776,713,764,-33.2821,7.55345
-504,260,-33.4924,-8.36487,0,0,0,0,0,0,0,-1,720,764,-33.4924,8.36488
-497,260,-16.6542,-3.67334,0,0,0,0,0,0,0,-1,727,764,-16.6542,3.67331
-490,260,-29.4557,0.921387,0,0,0,0,0,0,0,-1,734,764,-29.4557,-0.921369
-483,260,-40.8972,1.04193,0,0,0,0,0,0,0,-1,741,764,-40.8972,-1.04193
-476,260,-53.8282,0.00378418,0,0,0,0,0,0,0,-1,748,764,-53.8283,-0.00378825
-469,260,-55.3551,0.487549,0,0,0,0,0,0,0,-1,755,764,-55.3551,-0.487551
-462,260,-54.4383,0.764282,0,0,0,0,0,0,0,-1,762,764,-54.4383,-0.764252
-455,260,-54.639,0.692444,0,0,0,0,0,0,0,-1,769,764,-54.639,-0.692433
-448,260,0,0,0,0,0,0,0,0,0,-1,776,764,0,0
-441,260,0,0,0,0,0,0,0,0,0,-1,783,764,0,0
-434,260,0,0,0,0,0,0,0,0,0,-1,790,764,0,0
-427,260,0,0,0,0,0,0,0,0,0,-1,797,764,0,0
-420,260,0,0,0,0,0,0,0,0,0,-1,804,764,0,0
-413,260,0,0,0,0,0,0,0,0,0,-1,811,764,0,0
-406,260,0,0,0,0,0,0,0,0,0,-1,818,764,0,0
-399,260,0,0,0,0,0,0,0,0,0,-1,825,764,0,0
-392,260,0,0,0,0,0,0,0,0,0,-1,832,764,0,0
-385,260,0,0,0,0,0,0,0,0,0,-1,839,764,0,0
-378,260,0,0,0,0,0,0,0,0,0,-1,846,764,0,0
-371,260,0,0,0,0,0,0,0,0,0,-1,853,764,0,0
-364,260,0,0,0,0,0,0,0,0,0,-1,860,764,0,0
-357,260,0,0,0,0,0,0,0,0,0,-1,867,764,0,0
-350,260,0,0,0,0,0,0,0,0,0,-1,874,764,0,0
-343,260,0,0,0,0,0,0,0,0,0,-1,881,764,0,0
-336,260,0,0,0,0,0,0,0,0,0,-1,888,764,0,0
-329,260,0,0,0,0,0,0,0,0,0,-1,895,764,0,0
-322,260,0,0,0,0,0,0,0,0,0,-1,902,764,0,0
-315,260,0,0,0,0,0,0,0,0,0,-1,909,764,0,0
-308,260,0,0,0,0,0,0,0,0,0,-1,916,764,0,0
-301,260,0,0,0,0,0,0,0,0,0,-1,923,764,0,0
-294,260,0,0,0,0,0,0,0,0,0,-1,930,764,0,0
-287,260,0,0,0,0,0,0,0,0,0,-1,937,764,0,0
-280,260,0,0,0,0,0,0,0,0,0,-1,944,764,0,0
-273,260,0,0,0,0,0,0,0,0,0,-1,951,764,0,0
-266,260,0,0,0,0,0,0,0,0,0,-1,958,764,0,0
-259,260,0,0,0,0,0,0,0,0,0,-1,965,764,0,0
-252,260,0,0,0,0,0,0,0,0,0,-1,972,764,0,0
-245,260,0,0,0,0,0,0,0,0,0,-1,979,764,0,0
-238,260,0,0,0,0,0,0,0,0,0,-1,986,764,0,0
-231,260,0,0,0,0,0,0,0,0,0,-1,993,764,0,0
-224,260,0,0,0,0,0,0,0,0,0,-1,1000,764,0,0
-217,260,0,0,0,0,0,0,0,0,0,-1,1007,764,0,0
-210,260,0,0,0,0,0,0,0,0,0,-1,1014,764,0,0
-203,260,0,0,0,0,0,0,0,0,0,-1,1021,764,0,0
-196,260,0,0,0,0,0,0,0,0,0,-1,1028,764,0,0
-189,260,0,0,0,0,0,0,0,0,0,-1,1035,764,0,0
-182,260,0,0,0,0,0,0,0,0,0,-1,1042,764,0,0
-175,260,0,0,0,0,0,0,0,0,0,-1,1049,764,0,0
-168,260,0,0,0,0,0,0,0,0,0,-1,1056,764,0,0
-161,260,0,0,0,0,0,0,0,0,0,-1,1063,764,0,0
-154,260,0,0,0,0,0,0,0,0,0,-1,1070,764,0,0
-147,260,0,0,0,0,0,0,0,0,0,-1,1077,764,0,0
-140,260,0,0,0,0,0,0,0,0,0,-1,1084,764,0,0
-133,260,0,0,0,0,0,0,0,0,0,-1,1091,764,0,0
-126,260,0,0,0,0,0,0,0,0,0,-1,1098,764,0,0
-119,260,0,0,0,0,0,0,0,0,0,-1,1105,764,0,0
-112,260,0,0,0,0,0,0,0,0,0,-1,1112,764,0,0
-105,260,0,0,0,0,0,0,0,0,0,-1,1119,764,0,0
-98,260,0,0,0,0,0,0,0,0,0,-1,1126,764,0,0
-91,260,0,0,0,0,0,0,0,0,0,-1,1133,764,0,0
-84,260,0,0,0,0,0,0,0,0,0,-1,1140,764,0,0
-77,260,0,0,0,0,0,0,0,0,0,-1,1147,764,0,0
-70,260,0,0,0,0,0,0,0,0,0,-1,1154,764,0,0
-63,260,0,0,0,0,0,0,0,0,0,-1,1161,764,0,0
-56,260,0,0,0,0,0,0,0,0,0,-1,1168,764,0,0
-49,260,0,0,0,0,0,0,0,0,0,-1,1175,764,0,0
-42,260,0,0,0,0,0,0,0,0,0,-1,1182,764,0,0
-35,260,0,0,0,0,0,0,0,0,0,-1,1189,764,0,0
-28,260,0,0,0,0,0,0,0,0,0,-1,1196,764,0,0
-21,260,0,0,0,0,0,0,0,0,0,-1,1203,764,0,0
-14,260,0,0,0,0,0,0,0,0,0,-1,1210,764,0,0
-7,260,0,0,0,0,0,0,0,0,0,-1,1217,764,0,0
0,260,0,0,0,0,0,0,0,0,0,-1,1224,764,0,0
7,260,0,0,0,0,0,0,0,0,0,-1,1231,764,0,0
14,260,0,0,0,0,0,0,0,0,0,-1,1238,764,0,0
21,260,0,0,0,0,0,0,0,0,0,-1,1245,764,0,0
28,260,0,0,0,0,0,0,0,0,0,-1,1252,764,0,0
35,260,0,0,0,0,0,0,0,0,0,-1,1259,764,0,0
42,260,0,0,0,0,0,0,0,0,0,-1,1266,764,0,0
49,260,0,0,0,0,0,0,0,0,0,-1,1273,764,0,0
56,260,0,0,0,0,0,0,0,0,0,-1,1280,764,0,0
63,260,0,0,0,0,0,0,0,0,0,-1,1287,764,0,0
70,260,0,0,0,0,0,0,0,0,0,-1,1294,764,0,0
77,260,0,0,0,0,0,0,0,0,0,-1,1301,764,0,0
84,260,0,0,0,0,0,0,0,0,0,-1,1308,764,0,0
91,260,0,0,0,0,0,0,0,0,0,-1,1315,764,0,0
98,260,0,0,0,0,0,0,0,0,0,-1,1322,764,0,0
105,260,0,0,0,0,0,0,0,0,0,-1,1329,764,0,0
112,260,0,0,0,0,0,0,0,0,0,-1,1336,764,0,0
119,260,0,0,0,0,0,0,0,0,0,-1,1343,764,0,0
126,260,0,0,0,0,0,0,0,0,0,-1,1350,764,0,0
133,260,0,0,0,0,0,0,0,0,0,-1,1357,764,0,0
140,260,0,0,0,0,0,0,0,0,0,-1,1364,764,0,0
147,260,0,0,0,0,0,0,0,0,0,-1,1371,764,0,0
154,260,0,0,0,0,0,0,0,0,0,-1,1378,764,0,0
161,260,0,0,0,0,0,0,0,0,0,-1,1385,764,0,0
168,260,0,0,0,0,0,0,0,0,0,-1,1392,764,0,0
175,260,0,0,0,0,0,0,0,0,0,-1,1399,764,0,0
182,260,0,0,0,0,0,0,0,0,0,-1,1406,764,0,0
189,260,0,0,0,0,0,0,0,0,0,-1,1413,764,0,0
196,260,0,0,0,0,0,0,0,0,0,-1,1420,764,0,0
203,260,0,0,0,0,0,0,0,0,0,-1,1427,764,0,0
210,260,0,0,0,0,0,0,0,0,0,-1,1434,764,0,0
217,260,0,0,0,0,0,0,0,0,0,-1,1441,764,0,0
224,260,0,0,0,0,0,0,0,0,0,-1,1448,764,0,0
231,260,0,0,0,0,0,0,0,0,0,-1,1455,764,0,0
238,260,0,0,0,0,0,0,0,0,0,-1,1462,764,0,0
245,260,0,0,0,0,0,0,0,0,0,-1,1469,764,0,0
252,260,0,0,0,0,0,0,0,0,0,-1,1476,764,0,0
259,260,0,0,0,0,0,0,0,0,0,-1,1483,764,0,0
266,260,0,0,0,0,0,0,0,0,0,-1,1490,764,0,0
273,260,0,0,0,0,0,0,0,0,0,-1,1497,764,0,0
280,260,0,0,0,0,0,0,0,0,0,-1,1504,764,0,0
287,260,0,0,0,0,0,0,0,0,0,-1,1511,764,0,0
294,260,0,0,0,0,0,0,0,0,0,-1,1518,764,0,0
301,260,0,0,0,0,0,0,0,0,0,-1,1525,764,0,0
308,260,0,0,0,0,0,0,0,0,0,-1,1532,764,0,0
315,260,0,0,0,0,0,0,0,0,0,-1,1539,764,0,0
322,260,0,0,0,0,0,0,0,0,0,-1,1546,764,0,0
329,260,0,0,0,0,0,0,0,0,0,-1,1553,764,0,0
336,260,0,0,0,0,0,0,0,0,0,-1,1560,764,0,0
343,260,0,0,0,0,0,0,0,0,0,-1,1567,764,0,0
350,260,0,0,0,0,0,0,0,0,0,-1,1574,764,0,0
357,260,0,0,0,0,0,0,0,0,0,-1,1581,764,0,0
364,260,0,0,0,0,0,0,0,0,0,-1,1588,764,0,0
371,260,0,0,0,0,0,0,0,0,0,-1,1595,764,0,0
378,260,0,0,0,0,0,0,0,0,0,-1,1602,764,0,0
385,260,0,0,0,0,0,0,0,0,0,-1,1609,764,0,0
392,260,0,0,0,0,0,0,0,0,0,-1,1616,764,0,0
399,260,0,0,0,0,0,0,0,0,0,-1,1623,764,0,0
406,260,0,0,0,0,0,0,0,0,0,-1,1630,764,0,0
413,260,0,0,0,0,0,0,0,0,0,-1,1637,764,0,0
420,260,0,0,0,0,0,0,0,0,0,-1,1644,764,0,0
427,260,0,0,0,0,0,0,0,0,0,-1,1651,764,0,0
434,260,0,0,0,0,0,0,0,0,0,-1,1658,764,0,0
441,260,0,0,0,0,0,0,0,0,0,-1,1665,764,0,0
448,260,0,0,0,0,0,0,0,0,0,-1,1672,764,0,0
455,260,0,0,0,0,0,0,0,0,0,-1,1679,764,0,0
462,260,0,0,0,0,0,0,0,0,0,-1,1686,764,0,0
469,260,0,0,0,0,0,0,0,0,0,-1,1693,764,0,0
476,260,0,0,0,0,0,0,0,0,0,-1,1700,764,0,0
483,260,0,0,0,0,0,0,0,0,0,-1,1707,764,0,0
490,260,0,0,0,0,0,0,0,0,0,-1,1714,764,0,0
497,260,0,0,0,0,0,0,0,0,0,-1,1721,764,0,0
504,260,0,0,0,0,0,0,0,0,0,-1,1728,764,0,0
511,260,0,0,0,0,0,0,0,0,0,-1,1735,764,0,0
518,260,0,0,0,0,0,0,0,0,0,-1,1742,764,0,0
525,260,0,0,0,0,0,0,0,0,0,-1,1749,764,0,0
532,260,0,0,0,0,0,0,0,0,0,-1,1756,764,0,0
539,260,0,0,0,0,0,0,0,0,0,-1,1763,764,0,0
546,260,0,0,0,0,0,0,0,0,0,-1,1770,764,0,0
553,260,0,0,0,0,0,0,0,0,0,-1,1777,764,0,0
560,260,0,0,0,0,0,0,0,0,0,-1,1784,764,0,0
567,260,0,0,0,0,0,0,0,0,0,-1,1791,764,0,0
574,260,71.814,2.39618,0,0,0,0,0,0,0,-1,1798,764,71.814,-2.39615
581,260,71.7501,2.54248,0,0,0,0,0,0,0,-1,1805,764,71.7501,-2.54249
588,260,70.8303,2.6853,0,0,0,0,0,0,0,-1,1812,764,70.8304,-2.6853
595,260,66.1678,2.56989,0,0,0,0,0,0,0,-1,1819,764,66.1678,-2.56989
602,260,65.9274,2.69824,0,0,0,0,0,0,0,-1,1826,764,65.9274,-2.69825
609,260,65.4674,3.08105,0,0,0,0,0,0,0,-1,1833,764,65.4673,-3.08107
616,260,46.0709,2.74542,0,0,0,0,0,0,0,-1,1840,764,46.0709,-2.74545
623,260,32.2268,3.25836,0,0,0,0,0,0,0,-1,1847,764,32.2268,-3.25833
630,260,24.3739,-0.536316,0,0,0,0,0,0,0,-1,1854,764,24.3739,0.536343
637,260,42.7155,-5.35486,0,0,0,0,0,0,0,-1,1861,764,42.7154,5.35488
644,260,48.3579,-6.08118,0,0,0,0,0,0,0,-1,1868,764,48.3579,6.08116
651,260,48.2063,-5.07623,0.00209242,0.000421244,0.00085359,0.00245133,6.2335e-05,0.398028,0.00161384,0.0249135,1875,764,48.2063,5.07625
658,260,48.031,-4.21021,0.00193837,0.000277314,0.000685833,0.00218494,3.07423e-05,0.345132,0.00144649,0.0161323,1882,764,48.031,4.21019
665,260,47.9353,-3.35754,0.00165416,0.000486337,0.000517157,0.00185025,0.000290247,0.362422,0.00114904,0.0157644,1889,764,47.9353,3.35754
672,260,47.9264,-2.47009,0.00141714,0.000713611,0.000405782,0.0016024,0.000528349,0.428293,0.000942859,0.01443,1896,764,47.9263,2.47011
679,260,47.8693,-1.58978,0.00124131,0.0010303,0.000472424,0.00161987,0.000651743,0.675533,0.000941158,0.0132594,1903,764,47.8693,1.58978
686,260,47.7753,-0.713379,0.00110448,0.0016645,0.000638542,0.00208173,0.000687252,0.992028,0.00122479,0.0215387,1910,764,47.7752,0.713408
693,260,47.689,0.10321,0.00106456,0.00242043,0.000925022,0.00288934,0.000595644,1.10163,0.00176157,0.0209552,1917,764,47.689,-0.103181
700,260,47.6395,0.955322,0.00115655,0.00336901,0.00141884,0.0040619,0.000463658,1.11651,0.00256738,0.0157712,1924,764,47.6395,-0.955337
707,260,47.6519,1.84619,0.0012898,0.00442775,0.00206248,0.00545021,0.000267345,1.11056,0.00354772,0.0171304,1931,764,47.6518,-1.84618
714,260,47.63,2.7193,0.00142217,0.00554206,0.00298264,0.00710696,-0.000142731,1.08761,0.00478626,0.0366886,1938,764,47.6301,-2.71929
721,260,47.469,3.62512,0,0,0,0,0,0,0,-1,1945,764,47.469,-3.62513
728,260,33.4344,5.75409,0,0,0,0,0,0,0,-1,1952,764,33.4345,-5.75408
735,260,26.9788,4.85681,0,0,0,0,0,0,0,-1,1959,764,26.9787,-4.85678
742,260,32.1443,1.73688,0,0,0,0,0,0,0,-1,1966,764,32.1442,-1.73688
749,260,33.6013,2.94733,0,0,0,0,0,0,0,-1,1973,764,33.6013,-2.9473
756,260,0,0,0,0,0,0,0,0,0,-1,1980,764,0,0
763,260,0,0,0,0,0,0,0,0,0,-1,1987,764,0,0
770,260,0,0,0,0,0,0,0,0,0,-1,1994,764,0,0
777,260,0,0,0,0,0,0,0,0,0,-1,2001,764,0,0
784,260,0,0,0,0,0,0,0,0,0,-1,2008,764,0,0
791,260,0,0,0,0,0,0,0,0,0,-1,2015,764,0,0
798,260,0,0,0,0,0,0,0,0,0,-1,2022,764,0,0
805,260,0,0,0,0,0,0,0,0,0,-1,2029,764,0,0
812,260,0,0,0,0,0,0,0,0,0,-1,2036,764,0,0
-700,253,0,0,0,0,0,0,0,0,0,-1,524,771,0,0
-693,253,0,0,0,0,0,0,0,0,0,-1,531,771,0,0
-686,253,0,0,0,0,0,0,0,0,0,-1,538,771,0,0
-679,253,0,0,0,0,0,0,0,0,0,-1,545,771,0,0
-672,253,0,0,0,0,0,0,0,0,0,-1,552,771,0,0
-665,253,0,0,0,0,0,0,0,0,0,-1,559,771,0,0
-658,253,0,0,0,0,0,0,0,0,0,-1,566,771,0,0
-651,253,0,0,0,0,0,0,0,0,0,-1,573,771,0,0
-644,253,0,0,0,0,0,0,0,0,0,-1,580,771,0,0
-637,253,-24.7979,-0.491394,0,0,0,0,0,0,0,-1,587,771,-24.7978,0.491371
-630,253,-25.156,0.540405,0,0,0,0,0,0,0,-1,594,771,-25.156,-0.540421
-623,253,-20.808,2.84314,0,0,0,0,0,0,0,-1,601,771,-20.8081,-2.84312
-616,253,-25.0877,2.96875,0,0,0,0,0,0,0,-1,608,771,-25.0877,-2.96876
-609,253,-24.28,2.08228,0,0,0,0,0,0,0,-1,615,771,-24.2801,-2.08227
-602,253,-32.8969,4.34338,0,0,0,0,0,0,0,-1,622,771,-32.8968,-4.34336
-595,253,-33.0958,3.12061,-0.00904126,0.00271481,-0.0165843,0.0144319,-0.0207584,-0.955708,0.0204263,0.0456231,629,771,-33.0959,-3.12063
-588,253,-33.3237,2.02863,-0.00685274,0.00306408,-0.0121113,0.0111927,-0.0149813,-0.979691,0.0151643,0.0419086,636,771,-33.3237,-2.02865
-581,253,-33.528,0.992554,-0.00528104,0.00305827,-0.00867002,0.00850918,-0.0107319,-1.00954,0.0111335,0.0290349,643,771,-33.5279,-0.992581
-574,253,-33.5358,0.175415,-0.00395399,0.00276916,-0.00572714,0.00604839,-0.00723322,-1.05078,0.0076783,0.023252,650,771,-33.5358,-0.17542
-567,253,-33.6039,-0.703125,-0.0029811,0.00238057,-0.00340572,0.00403399,-0.00463452,-1.11883,0.00500877,0.0178954,657,771,-33.6039,0.703131
-560,253,-33.6255,-1.48932,-0.00230308,0.00194519,-0.00160178,0.00248144,-0.00283934,-1.24774,0.00307427,0.0141126,664,771,-33.6255,1.48932
-553,253,-33.698,-2.35004,-0.00197613,0.00164744,-0.00020147,0.0016586,-0.00198729,-1.51542,0.00210781,0.0118923,671,771,-33.698,2.35006
-546,253,-33.7684,-3.20691,-0.00199603,0.00135563,0.000963167,0.0016127,-0.0022531,1.30998,0.00224211,0.0106241,678,771,-33.7684,3.20691
-539,253,-33.8388,-4.091,-0.00236616,0.00100691,0.00183264,0.00181095,-0.0031702,1.15735,0.00291134,0.0135768,685,771,-33.8388,4.09098
-532,253,-33.8443,-4.95221,-0.00271943,0.00103042,0.00219646,0.00204336,-0.00373237,1.13869,0.00338182,0.0195119,692,771,-33.8443,4.95221
-525,253,-33.913,-5.77551,-0.00277981,0.00104252,0.00230131,0.00212278,-0.00386006,1.13192,0.0035024,0.0267017,699,771,-33.913,5.77549
-518,253,-34.1358,-6.72754,-0.00300945,0.000839741,0.00246052,0.00203896,-0.00420867,1.11729,0.00367887,0.0460658,706,771,-34.1358,6.72756
-511,253,-34.5559,-7.58435,0,0,0,0,0,0,0,-1,713,771,-34.5559,7.58436
-504,253,-19.317,-4.1723,0,0,0,0,0,0,0,-1,720,771,-19.317,4.1723
-497,253,-21.7737,-1.76837,0,0,0,0,0,0,0,-1,727,771,-21.7738,1.7684
-490,253,-29.7674,0.438354,0,0,0,0,0,0,0,-1,734,771,-29.7674,-0.438339
-483,253,-45.4489,1.59302,0,0,0,0,0,0,0,-1,741,771,-45.4489,-1.59303
-476,253,-55.6851,0.286194,0,0,0,0,0,0,0,-1,748,771,-55.6851,-0.286204
-469,253,-55.5429,0.657227,0,0,0,0,0,0,0,-1,755,771,-55.5429,-0.657234
-462,253,-55.4007,1.02826,0,0,0,0,0,0,0,-1,762,771,-55.4007,-1.02826
-455,253,-54.6697,0.788147,0,0,0,0,0,0,0,-1,769,771,-54.6697,-0.788145
-448,253,0,0,0,0,0,0,0,0,0,-1,776,771,0,0
-441,253,0,0,0,0,0,0,0,0,0,-1,783,771,0,0
-434,253,0,0,0,0,0,0,0,0,0,-1,790,771,0,0
-427,253,0,0,0,0,0,0,0,0,0,-1,797,771,0,0
-420,253,0,0,0,0,0,0,0,0,0,-1,804,771,0,0
-413,253,0,0,0,0,0,0,0,0,0,-1,811,771,0,0
-406,253,0,0,0,0,0,0,0,0,0,-1,818,771,0,0
-399,253,0,0,0,0,0,0,0,0,0,-1,825,771,0,0
-392,253,0,0,0,0,0,0,0,0,0,-1,832,771,0,0
-385,253,0,0,0,0,0,0,0,0,0,-1,839,771,0,0
-378,253,0,0,0,0,0,0,0,0,0,-1,846,771,0,0
-371,253,0,0,0,0,0,0,0,0,0,-1,853,771,0,0
-364,253,0,0,0,0,0,0,0,0,0,-1,860,771,0,0
-357,253,0,0,0,0,0,0,0,0,0,-1,867,771,0,0
-350,253,0,0,0,0,0,0,0,0,0,-1,874,771,0,0
-343,253,0,0,0,0,0,0,0,0,0,-1,881,771,0,0
-336,253,0,0,0,0,0,0,0,0,0,-1,888,771,0,0
-329,253,0,0,0,0,0,0,0,0,0,-1,895,771,0,0
-322,253,0,0,0,0,0,0,0,0,0,-1,902,771,0,0
-315,253,0,0,0,0,0,0,0,0,0,-1,909,771,0,0
-308,253,0,0,0,0,0,0,0,0,0,-1,916,771,0,0
-301,253,0,0,0,0,0,0,0,0,0,-1,923,771,0,0
-294,253,0,0,0,0,0,0,0,0,0,-1,930,771,0,0
-287,253,0,0,0,0,0,0,0,0,0,-1,937,771,0,0
-280,253,0,0,0,0,0,0,0,0,0,-1,944,771,0,0
-273,253,0,0,0,0,0,0,0,0,0,-1,951,771,0,0
-266,253,0,0,0,0,0,0,0,0,0,-1,958,771,0,0
-259,253,0,0,0,0,0,0,0,0,0,-1,965,771,0,0
-252,253,0,0,0,0,0,0,0,0,0,-1,972,771,0,0
-245,253,0,0,0,0,0,0,0,0,0,-1,979,771,0,0
-238,253,0,0,0,0,0,0,0,0,0,-1,986,771,0,0
-231,253,0,0,0,0,0,0,0,0,0,-1,993,771,0,0
-224,253,0,0,0,0,0,0,0,0,0,-1,1000,771,0,0
-217,253,0,0,0,0,0,0,0,0,0,-1,1007,771,0,0
-210,253,0,0,0,0,0,0,0,0,0,-1,1014,771,0,0
-203,253,0,0,0,0,0,0,0,0,0,-1,1021,771,0,0
-196,253,0,0,0,0,0,0,0,0,0,-1,1028,771,0,0
-189,253,0,0,0,0,0,0,0,0,0,-1,1035,771,0,0
-182,253,0,0,0,0,0,0,0,0,0,-1,1042,771,0,0
-175,253,0,0,0,0,0,0,0,0,0,-1,1049,771,0,0
-168,253,0,0,0,0,0,0,0,0,0,-1,1056,771,0,0
-161,253,0,0,0,0,0,0,0,0,0,-1,1063,771,0,0
-154,253,0,0,0,0,0,0,0,0,0,-1,1070,771,0,0
-147,253,0,0,0,0,0,0,0,0,0,-1,1077,771,0,0
-140,253,0,0,0,0,0,0,0,0,0,-1,1084,771,0,0
-133,253,0,0,0,0,0,0,0,0,0,-1,1091,771,0,0
-126,253,0,0,0,0,0,0,0,0,0,-1,1098,771,0,0
-119,253,0,0,0,0,0,0,0,0,0,-1,1105,771,0,0
-112,253,0,0,0,0,0,0,0,0,0,-1,1112,771,0,0
-105,253,0,0,0,0,0,0,0,0,0,-1,1119,771,0,0
-98,253,0,0,0,0,0,0,0,0,0,-1,1126,771,0,0
-91,253,0,0,0,0,0,0,0,0,0,-1,1133,771,0,0
-84,253,0,0,0,0,0,0,0,0,0,-1,1140,771,0,0
-77,253,0,0,0,0,0,0,0,0,0,-1,1147,771,0,0
-70,253,0,0,0,0,0,0,0,0,0,-1,1154,771,0,0
-63,253,0,0,0,0,0,0,0,0,0,-1,1161,771,0,0
-56,253,0,0,0,0,0,0,0,0,0,-1,1168,771,0,0
-49,253,0,0,0,0,0,0,0,0,0,-1,1175,771,0,0
-42,253,0,0,0,0,0,0,0,0,0,-1,1182,771,0,0
-35,253,0,0,0,0,0,0,0,0,0,-1,1189,771,0,0
-28,253,0,0,0,0,0,0,0,0,0,-1,1196,771,0,0
-21,253,0,0,0,0,0,0,0,0,0,-1,1203,771,0,0
-14,253,0,0,0,0,0,0,0,0,0,-1,1210,771,0,0
-7,253,0,0,0,0,0,0,0,0,0,-1,1217,771,0,0
0,253,0,0,0,0,0,0,0,0,0,-1,1224,771,0,0
7,253,0,0,0,0,0,0,0,0,0,-1,1231,771,0,0
14,253,0,0,0,0,0,0,0,0,0,-1,1238,771,0,0
21,253,0,0,0,0,0,0,0,0,0,-1,1245,771,0,0
28,253,0,0,0,0,0,0,0,0,0,-1,1252,771,0,0
35,253,0,0,0,0,0,0,0,0,0,-1,1259,771,0,0
42,253,0,0,0,0,0,0,0,0,0,-1,1266,771,0,0
49,253,0,0,0,0,0,0,0,0,0,-1,1273,771,0,0
56,253,0,0,0,0,0,0,0,0,0,-1,1280,771,0,0
63,253,0,0,0,0,0,0,0,0,0,-1,1287,771,0,0
70,253,0,0,0,0,0,0,0,0,0,-1,1294,771,0,0
77,253,0,0,0,0,0,0,0,0,0,-1,1301,771,0,0
84,253,0,0,0,0,0,0,0,0,0,-1,1308,771,0,0
91,253,0,0,0,0,0,0,0,0,0,-1,1315,771,0,0
98,253,0,0,0,0,0,0,0,0,0,-1,1322,771,0,0
105,253,0,0,0,0,0,0,0,0,0,-1,1329,771,0,0
112,253,0,0,0,0,0,0,0,0,0,-1,1336,771,0,0
119,253,0,0,0,0,0,0,0,0,0,-1,1343,771,0,0
126,253,0,0,0,0,0,0,0,0,0,-1,1350,771,0,0
133,253,0,0,0,0,0,0,0,0,0,-1,1357,771,0,0
140,253,0,0,0,0,0,0,0,0,0,-1,1364,771,0,0
147,253,0,0,0,0,0,0,0,0,0,-1,1371,771,0,0
154,253,0,0,0,0,0,0,0,0,0,-1,1378,771,0,0
161,253,0,0,0,0,0,0,0,0,0,-1,1385,771,0,0
168,253,0,0,0,0,0,0,0,0,0,-1,1392,771,0,0
175,253,0,0,0,0,0,0,0,0,0,-1,1399,771,0,0
182,253,0,0,0,0,0,0,0,0,0,-1,1406,771,0,0
189,253,0,0,0,0,0,0,0,0,0,-1,1413,771,0,0
196,253,0,0,0,0,0,0,0,0,0,-1,1420,771,0,0
203,253,0,0,0,0,0,0,0,0,0,-1,1427,771,0,0
210,253,0,0,0,0,0,0,0,0,0,-1,1434,771,0,0
217,253,0,0,0,0,0,0,0,0,0,-1,1441,771,0,0
224,253,0,0,0,0,0,0,0,0,0,-1,1448,771,0,0
231,253,0,0,0,0,0,0,0,0,0,-1,1455,771,0,0
238,253,0,0,0,0,0,0,0,0,0,-1,1462,771,0,0
245,253,0,0,0,0,0,0,0,0,0,-1,1469,771,0,0
252,253,0,0,0,0,0,0,0,0,0,-1,1476,771,0,0
259,253,0,0,0,0,0,0,0,0,0,-1,1483,771,0,0
266,253,0,0,0,0,0,0,0,0,0,-1,1490,771,0,0
273,253,0,0,0,0,0,0,0,0,0,-1,1497,771,0,0
280,253,0,0,0,0,0,0,0,0,0,-1,1504,771,0,0
287,253,0,0,0,0,0,0,0,0,0,-1,1511,771,0,0
294,253,0,0,0,0,0,0,0,0,0,-1,1518,771,0,0
301,253,0,0,0,0,0,0,0,0,0,-1,1525,771,0,0
308,253,0,0,0,0,0,0,0,0,0,-1,1532,771,0,0
315,253,0,0,0,0,0,0,0,0,0,-1,1539,771,0,0
322,253,0,0,0,0,0,0,0,0,0,-1,1546,771,0,0
329,253,0,0,0,0,0,0,0,0,0,-1,1553,771,0,0
336,253,0,0,0,0,0,0,0,0,0,-1,1560,771,0,0
343,253,0,0,0,0,0,0,0,0,0,-1,1567,771,0,0
350,253,0,0,0,0,0,0,0,0,0,-1,1574,771,0,0
357,253,0,0,0,0,0,0,0,0,0,-1,1581,771,0,0
364,253,0,0,0,0,0,0,0,0,0,-1,1588,771,0,0
371,253,0,0,0,0,0,0,0,0,0,-1,1595,771,0,0
378,253,0,0,0,0,0,0,0,0,0,-1,1602,771,0,0
385,253,0,0,0,0,0,0,0,0,0,-1,1609,771,0,0
392,253,0,0,0,0,0,0,0,0,0,-1,1616,771,0,0
399,253,0,0,0,0,0,0,0,0,0,-1,1623,771,0,0
406,253,0,0,0,0,0,0,0,0,0,-1,1630,771,0,0
413,253,0,0,0,0,0,0,0,0,0,-1,1637,771,0,0
420,253,0,0,0,0,0,0,0,0,0,-1,1644,771,0,0
427,253,0,0,0,0,0,0,0,0,0,-1,1651,771,0,0
434,253,0,0,0,0,0,0,0,0,0,-1,1658,771,0,0
441,253,0,0,0,0,0,0,0,0,0,-1,1665,771,0,0
448,253,0,0,0,0,0,0,0,0,0,-1,1672,771,0,0
455,253,0,0,0,0,0,0,0,0,0,-1,1679,771,0,0
462,253,0,0,0,0,0,0,0,0,0,-1,1686,771,0,0
469,253,0,0,0,0,0,0,0,0,0,-1,1693,771,0,0
476,253,0,0,0,0,0,0,0,0,0,-1,1700,771,0,0
483,253,0,0,0,0,0,0,0,0,0,-1,1707,771,0,0
490,253,0,0,0,0,0,0,0,0,0,-1,1714,771,0,0
497,253,0,0,0,0,0,0,0,0,0,-1,1721,771,0,0
504,253,0,0,0,0,0,0,0,0,0,-1,1728,771,0,0
511,253,0,0,0,0,0,0,0,0,0,-1,1735,771,0,0
518,253,0,0,0,0,0,0,0,0,0,-1,1742,771,0,0
525,253,0,0,0,0,0,0,0,0,0,-1,1749,771,0,0
532,253,0,0,0,0,0,0,0,0,0,-1,1756,771,0,0
539,253,0,0,0,0,0,0,0,0,0,-1,1763,771,0,0
546,253,0,0,0,0,0,0,0,0,0,-1,1770,771,0,0
553,253,0,0,0,0,0,0,0,0,0,-1,1777,771,0,0
560,253,0,0,0,0,0,0,0,0,0,-1,1784,771,0,0
567,253,0,0,0,0,0,0,0,0,0,-1,1791,771,0,0
574,253,71.7411,2.40454,0,0,0,0,0,0,0,-1,1798,771,71.7411,-2.40452
581,253,71.7079,2.50726,0,0,0,0,0,0,0,-1,1805,771,71.7079,-2.50729
588,253,71.7681,2.56232,0,0,0,0,0,0,0,-1,1812,771,71.7681,-2.56232
595,253,72.2554,2.35626,0,0,0,0,0,0,0,-1,1819,771,72.2553,-2.35626
602,253,66.4502,2.6098,0,0,0,0,0,0,0,-1,1826,771,66.4502,-2.60979
609,253,65.2542,3.18195,0,0,0,0,0,0,0,-1,1833,771,65.2541,-3.18193
616,253,58.416,2.69031,0,0,0,0,0,0,0,-1,1840,771,58.4161,-2.69031
623,253,48.8328,3.01001,0,0,0,0,0,0,0,-1,1847,771,48.8328,-3.01002
630,253,33.561,2.96838,0,0,0,0,0,0,0,-1,1854,771,33.561,-2.96836
637,253,22.3192,-0.604004,0,0,0,0,0,0,0,-1,1861,771,22.3192,0.603986
644,253,48.2843,-5.22784,0,0,0,0,0,0,0,-1,1868,771,48.2843,5.22783
651,253,49.2942,-4.98163,0,0,0,0,0,0,0,-1,1875,771,49.2942,4.98164
658,253,48.8599,-4.13599,0.00178202,0.000372821,0.000557371,0.00197582,0.00017902,0.334629,0.00126178,0.0236581,1882,771,48.8599,4.13599
665,253,48.7511,-3.33356,0.00158342,0.000468948,0.000384092,0.00170297,0.000349398,0.301747,0.00103863,0.0217054,1889,771,48.751,3.33356
672,253,48.7516,-2.45911,0.00140228,0.000523487,0.00026838,0.00147776,0.000448008,0.274157,0.000874946,0.0173877,1896,771,48.7516,2.45909
679,253,48.7389,-1.55511,0.00120112,0.000619986,0.000298015,0.00132678,0.00049433,0.399025,0.000774262,0.01373,1903,771,48.7389,1.55509
686,253,48.6418,-0.679138,0.00103634,0.00115315,0.000432132,0.0015308,0.000658681,0.852567,0.000886669,0.024516,1910,771,48.6419,0.679167
693,253,48.5519,0.163818,0.000983912,0.00180805,0.000659859,0.00217393,0.000618025,1.06451,0.00129347,0.0231264,1917,771,48.5519,-0.163843
700,253,48.5127,1.00238,0.0010449,0.00257524,0.00104658,0.00310653,0.000513612,1.10105,0.00192282,0.0165089,1924,771,48.5127,-1.00235
707,253,48.5081,1.88879,0.00116156,0.00345649,0.00160208,0.00427964,0.000338411,1.09617,0.00274725,0.0156244,1931,771,48.508,-1.88877
714,253,48.4631,2.76099,0.00125535,0.00430558,0.0023484,0.00558064,-1.971e-05,1.07338,0.00372701,0.026297,1938,771,48.4632,-2.761
721,253,48.3413,3.64362,0.0016567,0.00524127,0.00346804,0.00735277,-0.000454804,1.0239,0.00506027,0.0459571,1945,771,48.3413,-3.64363
728,253,48.2533,4.5401,0,0,0,0,0,0,0,-1,1952,771,48.2534,-4.5401
735,253,34.5735,6.15118,0,0,0,0,0,0,0,-1,1959,771,34.5734,-6.1512
742,253,31.0571,5.7337,0,0,0,0,0,0,0,-1,1966,771,31.0571,-5.73373
749,253,33.7754,3.21533,0,0,0,0,0,0,0,-1,1973,771,33.7754,-3.21533
756,253,0,0,0,0,0,0,0,0,0,-1,1980,771,0,0
763,253,0,0,0,0,0,0,0,0,0,-1,1987,771,0,0
770,253,0,0,0,0,0,0,0,0,0,-1,1994,771,0,0
777,253,0,0,0,0,0,0,0,0,0,-1,2001,771,0,0
784,253,0,0,0,0,0,0,0,0,0,-1,2008,771,0,0
791,253,0,0,0,0,0,0,0,0,0,-1,2015,771,0,0
798,253,0,0,0,0,0,0,0,0,0,-1,2022,771,0,0
805,253,0,0,0,0,0,0,0,0,0,-1,2029,771,0,0
812,253,0,0,0,0,0,0,0,0,0,-1,2036,771,0,0
-700,246,0,0,0,0,0,0,0,0,0,-1,524,778,0,0
-693,246,0,0,0,0,0,0,0,0,0,-1,531,778,0,0
-686,246,0,0,0,0,0,0,0,0,0,-1,538,778,0,0
-679,246,0,0,0,0,0,0,0,0,0,-1,545,778,0,0
-672,246,0,0,0,0,0,0,0,0,0,-1,552,778,0,0
-665,246,0,0,0,0,0,0,0,0,0,-1,559,778,0,0
-658,246,0,0,0,0,0,0,0,0,0,-1,566,778,0,0
-651,246,0,0,0,0,0,0,0,0,0,-1,573,778,0,0
-644,246,0,0,0,0,0,0,0,0,0,-1,580,778,0,0
-637,246,-24.1234,0.130432,0,0,0,0,0,0,0,-1,587,778,-24.1234,-0.130438
-630,246,-24.0781,1.38916,0,0,0,0,0,0,0,-1,594,778,-24.0781,-1.38913
-623,246,-23.9183,2.49573,0,0,0,0,0,0,0,-1,601,778,-23.9183,-2.49575
-616,246,-26.8182,2.0705,0,0,0,0,0,0,0,-1,608,778,-26.8182,-2.07052
-609,246,-26.0615,1.16388,0,0,0,0,0,0,0,-1,615,778,-26.0615,-1.16388
-602,246,-33.3455,4.78809,0,0,0,0,0,0,0,-1,622,778,-33.3455,-4.78806
-595,246,-33.7316,3.52509,-0.00681535,0.00286801,-0.014348,0.0131692,-0.0171166,-0.948122,0.0175349,0.0463996,629,778,-33.7315,-3.5251
-588,246,-34.1312,2.12823,-0.00527346,0.00306455,-0.0105781,0.0102656,-0.0124745,-0.97311,0.0131496,0.0320865,636,778,-34.1312,-2.12825
-581,246,-34.3778,1.14984,-0.00411365,0.00299621,-0.00753772,0.00777523,-0.00889267,-1.00574,0.00963042,0.0190544,643,778,-34.3778,-1.14983
-574,246,-34.3383,0.211304,-0.00310018,0.0027294,-0.0048713,0.00549136,-0.00586215,-1.055,0.00655612,0.0198839,650,778,-34.3383,-0.211289
-567,246,-34.4054,-0.654724,-0.00236095,0.00243282,-0.00271316,0.0036562,-0.00358433,-1.14719,0.00418039,0.025573,657,778,-34.4054,0.654707
-560,246,-34.4941,-1.45935,-0.00187445,0.00210442,-0.000968664,0.00232772,-0.00209774,-1.34424,0.00255619,0.0198514,664,778,-34.4941,1.45934
-553,246,-34.5324,-2.2616,-0.00175314,0.0020541,0.00044218,0.00210479,-0.00180382,1.45668,0.00225886,0.0132701,671,778,-34.5324,2.26158
-546,246,-34.6055,-3.12012,-0.00200643,0.00211519,0.00160511,0.00266653,-0.00255777,1.23993,0.00301647,0.0111252,678,778,-34.6055,3.12012
-539,246,-34.6832,-4.0321,-0.00255499,0.0019425,0.0023301,0.002932,-0.00354449,1.16921,0.00374477,0.0125333,685,778,-34.6832,4.03213
-532,246,-34.7292,-4.94324,-0.00279233,0.00212243,0.00250766,0.00317604,-0.00384594,1.17303,0.00406029,0.027883,692,778,-34.7292,4.94326
-525,246,-34.8446,-5.79144,0,0,0,0,0,0,0,-1,699,778,-34.8446,5.79147
-518,246,-35.077,-6.99377,0,0,0,0,0,0,0,-1,706,778,-35.077,6.99379
-511,246,-28.5886,-5.38635,0,0,0,0,0,0,0,-1,713,778,-28.5886,5.38633
-504,246,-20.0047,-2.88214,0,0,0,0,0,0,0,-1,720,778,-20.0047,2.88216
-497,246,-29.4669,1.82684,0,0,0,0,0,0,0,-1,727,778,-29.4669,-1.82687
-490,246,-40.4299,1.04309,0,0,0,0,0,0,0,-1,734,778,-40.4299,-1.04308
-483,246,-55.5514,-0.0795898,0,0,0,0,0,0,0,-1,741,778,-55.5514,0.0795595
-476,246,-55.9437,0.776428,0,0,0,0,0,0,0,-1,748,778,-55.9437,-0.776435
-469,246,-55.8951,0.679871,-0.00378311,-0.00311491,0.00210988,-0.00131284,-0.00558517,0.863921,0.00337212,0.0404384,755,778,-55.8951,-0.6799
-462,246,-56.0164,0.700439,-0.00504803,-0.00428522,0.00190481,-0.00272401,-0.00660924,0.884209,0.00383543,0.045907,762,778,-56.0164,-0.700454
-455,246,0,0,0,0,0,0,0,0,0,-1,769,778,0,0
-448,246,0,0,0,0,0,0,0,0,0,-1,776,778,0,0
-441,246,0,0,0,0,0,0,0,0,0,-1,783,778,0,0
-434,246,0,0,0,0,0,0,0,0,0,-1,790,778,0,0
-427,246,0,0,0,0,0,0,0,0,0,-1,797,778,0,0
-420,246,0,0,0,0,0,0,0,0,0,-1,804,778,0,0
-413,246,0,0,0,0,0,0,0,0,0,-1,811,778,0,0
-406,246,0,0,0,0,0,0,0,0,0,-1,818,778,0,0
-399,246,0,0,0,0,0,0,0,0,0,-1,825,778,0,0
-392,246,0,0,0,0,0,0,0,0,0,-1,832,778,0,0
-385,246,0,0,0,0,0,0,0,0,0,-1,839,778,0,0
-378,246,0,0,0,0,0,0,0,0,0,-1,846,778,0,0
-371,246,0,0,0,0,0,0,0,0,0,-1,853,778,0,0
-364,246,0,0,0,0,0,0,0,0,0,-1,860,778,0,0
-357,246,0,0,0,0,0,0,0,0,0,-1,867,778,0,0
-350,246,0,0,0,0,0,0,0,0,0,-1,874,778,0,0
-343,246,0,0,0,0,0,0,0,0,0,-1,881,778,0,0
-336,246,0,0,0,0,0,0,0,0,0,-1,888,778,0,0
-329,246,0,0,0,0,0,0,0,0,0,-1,895,778,0,0
-322,246,0,0,0,0,0,0,0,0,0,-1,902,778,0,0
-315,246,0,0,0,0,0,0,0,0,0,-1,909,778,0,0
-308,246,0,0,0,0,0,0,0,0,0,-1,916,778,0,0
-301,246,0,0,0,0,0,0,0,0,0,-1,923,778,0,0
-294,246,0,0,0,0,0,0,0,0,0,-1,930,778,0,0
-287,246,0,0,0,0,0,0,0,0,0,-1,937,778,0,0
-280,246,0,0,0,0,0,0,0,0,0,-1,944,778,0,0
-273,246,0,0,0,0,0,0,0,0,0,-1,951,778,0,0
-266,246,0,0,0,0,0,0,0,0,0,-1,958,778,0,0
-259,246,0,0,0,0,0,0,0,0,0,-1,965,778,0,0
-252,246,0,0,0,0,0,0,0,0,0,-1,972,778,0,0
-245,246,0,0,0,0,0,0,0,0,0,-1,979,778,0,0
-238,246,0,0,0,0,0,0,0,0,0,-1,986,778,0,0
-231,246,0,0,0,0,0,0,0,0,0,-1,993,778,0,0
-224,246,0,0,0,0,0,0,0,0,0,-1,1000,778,0,0
-217,246,0,0,0,0,0,0,0,0,0,-1,1007,778,0,0
-210,246,0,0,0,0,0,0,0,0,0,-1,1014,778,0,0
-203,246,0,0,0,0,0,0,0,0,0,-1,1021,778,0,0
-196,246,0,0,0,0,0,0,0,0,0,-1,1028,778,0,0
-189,246,0,0,0,0,0,0,0,0,0,-1,1035,778,0,0
-182,246,0,0,0,0,0,0,0,0,0,-1,1042,778,0,0
-175,246,0,0,0,0,0,0,0,0,0,-1,1049,778,0,0
-168,246,0,0,0,0,0,0,0,0,0,-1,1056,778,0,0
-161,246,0,0,0,0,0,0,0,0,0,-1,1063,778,0,0
-154,246,0,0,0,0,0,0,0,0,0,-1,1070,778,0,0
-147,246,0,0,0,0,0,0,0,0,0,-1,1077,778,0,0
-140,246,0,0,0,0,0,0,0,0,0,-1,1084,778,0,0
-133,246,0,0,0,0,0,0,0,0,0,-1,1091,778,0,0
-126,246,0,0,0,0,0,0,0,0,0,-1,1098,778,0,0
-119,246,0,0,0,0,0,0,0,0,0,-1,1105,778,0,0
-112,246,0,0,0,0,0,0,0,0,0,-1,1112,778,0,0
-105,246,0,0,0,0,0,0,0,0,0,-1,1119,778,0,0
-98,246,0,0,0,0,0,0,0,0,0,-1,1126,778,0,0
-91,246,0,0,0,0,0,0,0,0,0,-1,1133,778,0,0
-84,246,0,0,0,0,0,0,0,0,0,-1,1140,778,0,0
-77,246,0,0,0,0,0,0,0,0,0,-1,1147,778,0,0
-70,246,0,0,0,0,0,0,0,0,0,-1,1154,778,0,0
-63,246,0,0,0,0,0,0,0,0,0,-1,1161,778,0,0
-56,246,0,0,0,0,0,0,0,0,0,-1,1168,778,0,0
-49,246,0,0,0,0,0,0,0,0,0,-1,1175,778,0,0
-42,246,0,0,0,0,0,0,0,0,0,-1,1182,778,0,0
-35,246,0,0,0,0,0,0,0,0,0,-1,1189,778,0,0
-28,246,0,0,0,0,0,0,0,0,0,-1,1196,778,0,0
-21,246,0,0,0,0,0,0,0,0,0,-1,1203,778,0,0
-14,246,0,0,0,0,0,0,0,0,0,-1,1210,778,0,0
-7,246,0,0,0,0,0,0,0,0,0,-1,1217,778,0,0
0,246,0,0,0,0,0,0,0,0,0,-1,1224,778,0,0
7,246,0,0,0,0,0,0,0,0,0,-1,1231,778,0,0
14,246,0,0,0,0,0,0,0,0,0,-1,1238,778,0,0
21,246,0,0,0,0,0,0,0,0,0,-1,1245,778,0,0
28,246,0,0,0,0,0,0,0,0,0,-1,1252,778,0,0
35,246,0,0,0,0,0,0,0,0,0,-1,1259,778,0,0
42,246,0,0,0,0,0,0,0,0,0,-1,1266,778,0,0
49,246,0,0,0,0,0,0,0,0,0,-1,1273,778,0,0
56,246,0,0,0,0,0,0,0,0,0,-1,1280,778,0,0
63,246,0,0,0,0,0,0,0,0,0,-1,1287,778,0,0
70,246,0,0,0,0,0,0,0,0,0,-1,1294,778,0,0
77,246,0,0,0,0,0,0,0,0,0,-1,1301,778,0,0
84,246,0,0,0,0,0,0,0,0,0,-1,1308,778,0,0
91,246,0,0,0,0,0,0,0,0,0,-1,1315,778,0,0
98,246,0,0,0,0,0,0,0,0,0,-1,1322,778,0,0
105,246,0,0,0,0,0,0,0,0,0,-1,1329,778,0,0
112,246,0,0,0,0,0,0,0,0,0,-1,1336,778,0,0
119,246,0,0,0,0,0,0,0,0,0,-1,1343,778,0,0
126,246,0,0,0,0,0,0,0,0,0,-1,1350,778,0,0
133,246,0,0,0,0,0,0,0,0,0,-1,1357,778,0,0
140,246,0,0,0,0,0,0,0,0,0,-1,1364,778,0,0
147,246,0,0,0,0,0,0,0,0,0,-1,1371,778,0,0
154,246,0,0,0,0,0,0,0,0,0,-1,1378,778,0,0
161,246,0,0,0,0,0,0,0,0,0,-1,1385,778,0,0
168,246,0,0,0,0,0,0,0,0,0,-1,1392,778,0,0
175,246,0,0,0,0,0,0,0,0,0,-1,1399,778,0,0
182,246,0,0,0,0,0,0,0,0,0,-1,1406,778,0,0
189,246,0,0,0,0,0,0,0,0,0,-1,1413,778,0,0
196,246,0,0,0,0,0,0,0,0,0,-1,1420,778,0,0
203,246,0,0,0,0,0,0,0,0,0,-1,1427,778,0,0
210,246,0,0,0,0,0,0,0,0,0,-1,1434,778,0,0
217,246,0,0,0,0,0,0,0,0,0,-1,1441,778,0,0
224,246,0,0,0,0,0,0,0,0,0,-1,1448,778,0,0
231,246,0,0,0,0,0,0,0,0,0,-1,1455,778,0,0
238,246,0,0,0,0,0,0,0,0,0,-1,1462,778,0,0
245,246,0,0,0,0,0,0,0,0,0,-1,1469,778,0,0
252,246,0,0,0,0,0,0,0,0,0,-1,1476,778,0,0
259,246,0,0,0,0,0,0,0,0,0,-1,1483,778,0,0
266,246,0,0,0,0,0,0,0,0,0,-1,1490,778,0,0
273,246,0,0,0,0,0,0,0,0,0,-1,1497,778,0,0
280,246,0,0,0,0,0,0,0,0,0,-1,1504,778,0,0
287,246,0,0,0,0,0,0,0,0,0,-1,1511,778,0,0
294,246,0,0,0,0,0,0,0,0,0,-1,1518,778,0,0
301,246,0,0,0,0,0,0,0,0,0,-1,1525,778,0,0
308,246,0,0,0,0,0,0,0,0,0,-1,1532,778,0,0
315,246,0,0,0,0,0,0,0,0,0,-1,1539,778,0,0
322,246,0,0,0,0,0,0,0,0,0,-1,1546,778,0,0
329,246,0,0,0,0,0,0,0,0,0,-1,1553,778,0,0
336,246,0,0,0,0,0,0,0,0,0,-1,1560,778,0,0
343,246,0,0,0,0,0,0,0,0,0,-1,1567,778,0,0
350,246,0,0,0,0,0,0,0,0,0,-1,1574,778,0,0
357,246,0,0,0,0,0,0,0,0,0,-1,1581,778,0,0
364,246,0,0,0,0,0,0,0,0,0,-1,1588,778,0,0
371,246,0,0,0,0,0,0,0,0,0,-1,1595,778,0,0
378,246,0,0,0,0,0,0,0,0,0,-1,1602,778,0,0
385,246,0,0,0,0,0,0,0,0,0,-1,1609,778,0,0
392,246,0,0,0,0,0,0,0,0,0,-1,1616,778,0,0
399,246,0,0,0,0,0,0,0,0,0,-1,1623,778,0,0
406,246,0,0,0,0,0,0,0,0,0,-1,1630,778,0,0
413,246,0,0,0,0,0,0,0,0,0,-1,1637,778,0,0
420,246,0,0,0,0,0,0,0,0,0,-1,1644,778,0,0
427,246,0,0,0,0,0,0,0,0,0,-1,1651,778,0,0
434,246,0,0,0,0,0,0,0,0,0,-1,1658,778,0,0
441,246,0,0,0,0,0,0,0,0,0,-1,1665,778,0,0
448,246,0,0,0,0,0,0,0,0,0,-1,1672,778,0,0
455,246,0,0,0,0,0,0,0,0,0,-1,1679,778,0,0
462,246,0,0,0,0,0,0,0,0,0,-1,1686,778,0,0
469,246,0,0,0,0,0,0,0,0,0,-1,1693,778,0,0
476,246,0,0,0,0,0,0,0,0,0,-1,1700,778,0,0
483,246,0,0,0,0,0,0,0,0,0,-1,1707,778,0,0
490,246,0,0,0,0,0,0,0,0,0,-1,1714,778,0,0
497,246,0,0,0,0,0,0,0,0,0,-1,1721,778,0,0
504,246,0,0,0,0,0,0,0,0,0,-1,1728,778,0,0
511,246,0,0,0,0,0,0,0,0,0,-1,1735,778,0,0
518,246,0,0,0,0,0,0,0,0,0,-1,1742,778,0,0
525,246,0,0,0,0,0,0,0,0,0,-1,1749,778,0,0
532,246,0,0,0,0,0,0,0,0,0,-1,1756,778,0,0
539,246,0,0,0,0,0,0,0,0,0,-1,1763,778,0,0
546,246,0,0,0,0,0,0,0,0,0,-1,1770,778,0,0
553,246,0,0,0,0,0,0,0,0,0,-1,1777,778,0,0
560,246,0,0,0,0,0,0,0,0,0,-1,1784,778,0,0
567,246,0,0,0,0,0,0,0,0,0,-1,1791,778,0,0
574,246,0,0,0,0,0,0,0,0,0,-1,1798,778,0,0
581,246,71.7732,2.54346,0.0092398,-0.00165395,-0.00189106,0.00955874,-0.00197288,-0.167081,0.0071218,0.0386478,1805,778,71.7731,-2.54343
588,246,71.8208,2.37933,0.00860928,-0.00138243,-0.000529194,0.00863723,-0.00141038,-0.0527665,0.00628128,0.0423884,1812,778,71.8208,-2.37931
595,246,72.0107,2.362,0.00764609,-0.000817876,0.000364376,0.00766175,-0.000833534,0.0429443,0.00540713,0.0464618,1819,778,72.0107,-2.36202
602,246,71.8569,2.57037,0,0,0,0,0,0,0,-1,1826,778,71.8569,-2.57037
609,246,65.04,3.03278,0,0,0,0,0,0,0,-1,1833,778,65.04,-3.03277
616,246,60.4568,3.98492,0,0,0,0,0,0,0,-1,1840,778,60.4568,-3.98491
623,246,55.8947,3.95953,0,0,0,0,0,0,0,-1,1847,778,55.8947,-3.95952
630,246,49.5938,1.99902,0,0,0,0,0,0,0,-1,1854,778,49.5937,-1.999
637,246,29.5785,0.837585,0,0,0,0,0,0,0,-1,1861,778,29.5785,-0.837606
644,246,28.1232,-1.43188,0,0,0,0,0,0,0,-1,1868,778,28.1232,1.43188
651,246,48.5865,-4.32922,0,0,0,0,0,0,0,-1,1875,778,48.5865,4.32921
658,246,49.6473,-4.078,0,0,0,0,0,0,0,-1,1882,778,49.6473,4.07803
665,246,49.6254,-3.30267,0.00139573,0.000418093,0.0002871,0.00147381,0.000340016,0.265527,0.000891091,0.0296177,1889,778,49.6254,3.30267
672,246,49.6399,-2.39447,0.00125533,0.000375257,0.000155059,0.00128185,0.000348737,0.169395,0.000765286,0.0220405,1896,778,49.6399,2.39449
679,246,49.6083,-1.51782,0.00103178,0.00025614,0.000141561,0.00105681,0.000231111,0.174996,0.00064153,0.0214961,1903,778,49.6083,1.5178
686,246,49.5558,-0.617126,0.000852768,0.000676082,0.000230711,0.00101147,0.000517379,0.602552,0.000584025,0.0223632,1910,778,49.5557,0.617142
693,246,49.4895,0.206726,0.000834705,0.00125343,0.000411089,0.0015054,0.000582736,1.02092,0.000876497,0.0174026,1917,778,49.4895,-0.206745
700,246,49.441,1.04211,0.000871194,0.00187716,0.000736631,0.00226615,0.000482203,1.08495,0.00137844,0.0142053,1924,778,49.4411,-1.04214
707,246,49.3944,1.93695,0.000959307,0.00261525,0.00125274,0.00328891,0.000285648,1.07741,0.00210387,0.0132762,1931,778,49.3945,-1.93692
714,246,49.3375,2.8385,0.000991446,0.00324639,0.00191587,0.00434192,-0.000104085,1.05136,0.00292993,0.0144652,1938,778,49.3376,-2.83849
721,246,49.2172,3.67108,0.00117056,0.00376979,0.00284997,0.00560248,-0.000662126,0.999319,0.00397412,0.0192722,1945,778,49.2172,-3.67106
728,246,49.3202,4.60968,0.00139956,0.00378949,0.00396329,0.00673404,-0.00154499,0.931818,0.00508323,0.0424196,1952,778,49.3202,-4.60967
735,246,49.5658,5.60828,0,0,0,0,0,0,0,-1,1959,778,49.5658,-5.60828
742,246,31.7356,6.70013,0,0,0,0,0,0,0,-1,1966,778,31.7356,-6.70011
749,246,32.3883,7.69324,0,0,0,0,0,0,0,-1,1973,778,32.3883,-7.69322
756,246,33.6919,3.45264,0,0,0,0,0,0,0,-1,1980,778,33.6919,-3.45262
763,246,0,0,0,0,0,0,0,0,0,-1,1987,778,0,0
770,246,0,0,0,0,0,0,0,0,0,-1,1994,778,0,0
777,246,0,0,0,0,0,0,0,0,0,-1,2001,778,0,0
784,246,0,0,0,0,0,0,0,0,0,-1,2008,778,0,0
791,246,0,0,0,0,0,0,0,0,0,-1,2015,778,0,0
798,246,0,0,0,0,0,0,0,0,0,-1,2022,778,0,0
805,246,0,0,0,0,0,0,0,0,0,-1,2029,778,0,0
812,246,0,0,0,0,0,0,0,0,0,-1,2036,778,0,0
-700,239,0,0,0,0,0,0,0,0,0,-1,524,785,0,0
-693,239,0,0,0,0,0,0,0,0,0,-1,531,785,0,0
-686,239,0,0,0,0,0,0,0,0,0,-1,538,785,0,0
-679,239,0,0,0,0,0,0,0,0,0,-1,545,785,0,0
-672,239,0,0,0,0,0,0,0,0,0,-1,552,785,0,0
-665,239,0,0,0,0,0,0,0,0,0,-1,559,785,0,0
-658,239,0,0,0,0,0,0,0,0,0,-1,566,785,0,0
-651,239,0,0,0,0,0,0,0,0,0,-1,573,785,0,0
-644,239,0,0,0,0,0,0,0,0,0,-1,580,785,0,0
-637,239,-23.2709,0.465088,0,0,0,0,0,0,0,-1,587,785,-23.271,-0.465116
-630,239,-23.4006,0.956299,0,0,0,0,0,0,0,-1,594,785,-23.4005,-0.956285
-623,239,-30.6328,2.52185,0,0,0,0,0,0,0,-1,601,785,-30.6328,-2.52183
-616,239,-29.1425,1.42139,0,0,0,0,0,0,0,-1,608,785,-29.1425,-1.42139
-609,239,-27.8569,0.322937,0,0,0,0,0,0,0,-1,615,785,-27.857,-0.322963
-602,239,-34.4023,4.75409,0,0,0,0,0,0,0,-1,622,785,-34.4023,-4.75409
-595,239,-34.717,3.48444,-0.00496881,0.0029408,-0.012003,0.0116237,-0.0136517,-0.94454,0.0146084,0.0435149,629,785,-34.717,-3.48445
-588,239,-35.0662,2.18634,-0.00385099,0.003093,-0.00891805,0.00919108,-0.00994907,-0.971032,0.0110535,0.0211877,636,785,-35.0662,-2.18634
-581,239,-35.2333,1.18658,-0.00295326,0.00303557,-0.0063077,0.00702353,-0.00694123,-1.00701,0.0080626,0.0111219,643,785,-35.2333,-1.18661
-574,239,-35.2435,0.275635,-0.00214732,0.00284781,-0.00396132,0.00503318,-0.00433269,-1.06667,0.00541243,0.0122184,650,785,-35.2435,-0.275615
-567,239,-35.2826,-0.593201,-0.00156922,0.00268082,-0.00200826,0.00347963,-0.00236803,-1.19222,0.00339642,0.0185269,657,785,-35.2826,0.593217
-560,239,-35.364,-1.39136,-0.00122088,0.0025016,-0.000355884,0.00253532,-0.0012546,-1.47633,0.00222937,0.0194781,664,785,-35.364,1.39137
-553,239,-35.4139,-2.2243,-0.00130542,0.00274245,0.00104677,0.00299712,-0.00156009,1.33214,0.00267436,0.0153476,671,785,-35.4139,2.22431
-546,239,-35.4741,-3.08392,-0.00175777,0.00313967,0.00216514,0.0039596,-0.0025777,1.20879,0.00380232,0.0159388,678,785,-35.474,3.08392
-539,239,-35.6642,-3.94946,-0.00238151,0.00298809,0.0026878,0.00410229,-0.00349571,1.17782,0.00439137,0.027839,685,785,-35.6643,3.94949
-532,239,-35.8743,-4.7951,-0.00250826,0.00316166,0.00273448,0.00426553,-0.00361213,1.18712,0.00455338,0.0332191,692,785,-35.8743,4.79509
-525,239,-35.7685,-5.3609,0,0,0,0,0,0,0,-1,699,785,-35.7685,5.36088
-518,239,-35.8828,-5.83875,0,0,0,0,0,0,0,-1,706,785,-35.8827,5.83873
-511,239,-20.9849,-2.09235,0,0,0,0,0,0,0,-1,713,785,-20.9848,2.09234
-504,239,-25.5015,2.00421,0,0,0,0,0,0,0,-1,720,785,-25.5015,-2.00422
-497,239,-40.2453,1.4447,0,0,0,0,0,0,0,-1,727,785,-40.2453,-1.4447
-490,239,-55.7633,-0.30426,0,0,0,0,0,0,0,-1,734,785,-55.7633,0.304271
-483,239,-55.9357,0.899353,0,0,0,0,0,0,0,-1,741,785,-55.9357,-0.899377
-476,239,-55.9792,0.724976,-0.0026126,-0.000942969,0.00195857,0.000351275,-0.00390684,0.986858,0.0027292,0.0442368,748,785,-55.9792,-0.724989
-469,239,-55.962,0.698792,-0.00300408,-0.0023315,0.00177706,-0.000859189,-0.00447639,0.878913,0.00274309,0.0430138,755,785,-55.962,-0.698804
-462,239,-56.0127,0.708557,-0.00357141,-0.00390784,0.00138515,-0.00234431,-0.00513495,0.724973,0.0029684,0.0449931,762,785,-56.0127,-0.70856
-455,239,0,0,0,0,0,0,0,0,0,-1,769,785,0,0
-448,239,0,0,0,0,0,0,0,0,0,-1,776,785,0,0
-441,239,0,0,0,0,0,0,0,0,0,-1,783,785,0,0
-434,239,0,0,0,0,0,0,0,0,0,-1,790,785,0,0
-427,239,0,0,0,0,0,0,0,0,0,-1,797,785,0,0
-420,239,0,0,0,0,0,0,0,0,0,-1,804,785,0,0
-413,239,0,0,0,0,0,0,0,0,0,-1,811,785,0,0
-406,239,0,0,0,0,0,0,0,0,0,-1,818,785,0,0
-399,239,0,0,0,0,0,0,0,0,0,-1,825,785,0,0
-392,239,0,0,0,0,0,0,0,0,0,-1,832,785,0,0
-385,239,0,0,0,0,0,0,0,0,0,-1,839,785,0,0
-378,239,0,0,0,0,0,0,0,0,0,-1,846,785,0,0
-371,239,0,0,0,0,0,0,0,0,0,-1,853,785,0,0
-364,239,0,0,0,0,0,0,0,0,0,-1,860,785,0,0
-357,239,0,0,0,0,0,0,0,0,0,-1,867,785,0,0
-350,239,0,0,0,0,0,0,0,0,0,-1,874,785,0,0
-343,239,0,0,0,0,0,0,0,0,0,-1,881,785,0,0
-336,239,0,0,0,0,0,0,0,0,0,-1,888,785,0,0
-329,239,0,0,0,0,0,0,0,0,0,-1,895,785,0,0
-322,239,0,0,0,0,0,0,0,0,0,-1,902,785,0,0
-315,239,0,0,0,0,0,0,0,0,0,-1,909,785,0,0
-308,239,0,0,0,0,0,0,0,0,0,-1,916,785,0,0
-301,239,0,0,0,0,0,0,0,0,0,-1,923,785,0,0
-294,239,0,0,0,0,0,0,0,0,0,-1,930,785,0,0
-287,239,0,0,0,0,0,0,0,0,0,-1,937,785,0,0
-280,239,0,0,0,0,0,0,0,0,0,-1,944,785,0,0
-273,239,0,0,0,0,0,0,0,0,0,-1,951,785,0,0
-266,239,0,0,0,0,0,0,0,0,0,-1,958,785,0,0
-259,239,0,0,0,0,0,0,0,0,0,-1,965,785,0,0
-252,239,0,0,0,0,0,0,0,0,0,-1,972,785,0,0
-245,239,0,0,0,0,0,0,0,0,0,-1,979,785,0,0
-238,239,0,0,0,0,0,0,0,0,0,-1,986,785,0,0
-231,239,0,0,0,0,0,0,0,0,0,-1,993,785,0,0
-224,239,0,0,0,0,0,0,0,0,0,-1,1000,785,0,0
-217,239,0,0,0,0,0,0,0,0,0,-1,1007,785,0,0
-210,239,0,0,0,0,0,0,0,0,0,-1,1014,785,0,0
-203,239,0,0,0,0,0,0,0,0,0,-1,1021,785,0,0
-196,239,0,0,0,0,0,0,0,0,0,-1,1028,785,0,0
-189,239,0,0,0,0,0,0,0,0,0,-1,1035,785,0,0
-182,239,0,0,0,0,0,0,0,0,0,-1,1042,785,0,0
-175,239,0,0,0,0,0,0,0,0,0,-1,1049,785,0,0
-168,239,0,0,0,0,0,0,0,0,0,-1,1056,785,0,0
-161,239,0,0,0,0,0,0,0,0,0,-1,1063,785,0,0
-154,239,0,0,0,0,0,0,0,0,0,-1,1070,785,0,0
-147,239,0,0,0,0,0,0,0,0,0,-1,1077,785,0,0
-140,239,0,0,0,0,0,0,0,0,0,-1,1084,785,0,0
-133,239,0,0,0,0,0,0,0,0,0,-1,1091,785,0,0
-126,239,0,0,0,0,0,0,0,0,0,-1,1098,785,0,0
-119,239,0,0,0,0,0,0,0,0,0,-1,1105,785,0,0
-112,239,0,0,0,0,0,0,0,0,0,-1,1112,785,0,0
-105,239,0,0,0,0,0,0,0,0,0,-1,1119,785,0,0
-98,239,0,0,0,0,0,0,0,0,0,-1,1126,785,0,0
-91,239,0,0,0,0,0,0,0,0,0,-1,1133,785,0,0
-84,239,0,0,0,0,0,0,0,0,0,-1,1140,785,0,0
-77,239,0,0,0,0,0,0,0,0,0,-1,1147,785,0,0
-70,239,0,0,0,0,0,0,0,0,0,-1,1154,785,0,0
-63,239,0,0,0,0,0,0,0,0,0,-1,1161,785,0,0
-56,239,0,0,0,0,0,0,0,0,0,-1,1168,785,0,0
-49,239,0,0,0,0,0,0,0,0,0,-1,1175,785,0,0
-42,239,0,0,0,0,0,0,0,0,0,-1,1182,785,0,0
-35,239,0,0,0,0,0,0,0,0,0,-1,1189,785,0,0
-28,239,0,0,0,0,0,0,0,0,0,-1,1196,785,0,0
-21,239,0,0,0,0,0,0,0,0,0,-1,1203,785,0,0
-14,239,0,0,0,0,0,0,0,0,0,-1,1210,785,0,0
-7,239,0,0,0,0,0,0,0,0,0,-1,1217,785,0,0
0,239,0,0,0,0,0,0,0,0,0,-1,1224,785,0,0
7,239,0,0,0,0,0,0,0,0,0,-1,1231,785,0,0
14,239,0,0,0,0,0,0,0,0,0,-1,1238,785,0,0
21,239,0,0,0,0,0,0,0,0,0,-1,1245,785,0,0
28,239,0,0,0,0,0,0,0,0,0,-1,1252,785,0,0
35,239,0,0,0,0,0,0,0,0,0,-1,1259,785,0,0
42,239,0,0,0,0,0,0,0,0,0,-1,1266,785,0,0
49,239,0,0,0,0,0,0,0,0,0,-1,1273,785,0,0
56,239,0,0,0,0,0,0,0,0,0,-1,1280,785,0,0
63,239,0,0,0,0,0,0,0,0,0,-1,1287,785,0,0
70,239,0,0,0,0,0,0,0,0,0,-1,1294,785,0,0
77,239,0,0,0,0,0,0,0,0,0,-1,1301,785,0,0
84,239,0,0,0,0,0,0,0,0,0,-1,1308,785,0,0
91,239,0,0,0,0,0,0,0,0,0,-1,1315,785,0,0
98,239,0,0,0,0,0,0,0,0,0,-1,1322,785,0,0
105,239,0,0,0,0,0,0,0,0,0,-1,1329,785,0,0
112,239,0,0,0,0,0,0,0,0,0,-1,1336,785,0,0
119,239,0,0,0,0,0,0,0,0,0,-1,1343,785,0,0
126,239,0,0,0,0,0,0,0,0,0,-1,1350,785,0,0
133,239,0,0,0,0,0,0,0,0,0,-1,1357,785,0,0
140,239,0,0,0,0,0,0,0,0,0,-1,1364,785,0,0
147,239,0,0,0,0,0,0,0,0,0,-1,1371,785,0,0
154,239,0,0,0,0,0,0,0,0,0,-1,1378,785,0,0
161,239,0,0,0,0,0,0,0,0,0,-1,1385,785,0,0
168,239,0,0,0,0,0,0,0,0,0,-1,1392,785,0,0
175,239,0,0,0,0,0,0,0,0,0,-1,1399,785,0,0
182,239,0,0,0,0,0,0,0,0,0,-1,1406,785,0,0
189,239,0,0,0,0,0,0,0,0,0,-1,1413,785,0,0
196,239,0,0,0,0,0,0,0,0,0,-1,1420,785,0,0
203,239,0,0,0,0,0,0,0,0,0,-1,1427,785,0,0
210,239,0,0,0,0,0,0,0,0,0,-1,1434,785,0,0
217,239,0,0,0,0,0,0,0,0,0,-1,1441,785,0,0
224,239,0,0,0,0,0,0,0,0,0,-1,1448,785,0,0
231,239,0,0,0,0,0,0,0,0,0,-1,1455,785,0,0
238,239,0,0,0,0,0,0,0,0,0,-1,1462,785,0,0
245,239,0,0,0,0,0,0,0,0,0,-1,1469,785,0,0
252,239,0,0,0,0,0,0,0,0,0,-1,1476,785,0,0
259,239,0,0,0,0,0,0,0,0,0,-1,1483,785,0,0
266,239,0,0,0,0,0,0,0,0,0,-1,1490,785,0,0
273,239,0,0,0,0,0,0,0,0,0,-1,1497,785,0,0
280,239,0,0,0,0,0,0,0,0,0,-1,1504,785,0,0
287,239,0,0,0,0,0,0,0,0,0,-1,1511,785,0,0
294,239,0,0,0,0,0,0,0,0,0,-1,1518,785,0,0
301,239,0,0,0,0,0,0,0,0,0,-1,1525,785,0,0
308,239,0,0,0,0,0,0,0,0,0,-1,1532,785,0,0
315,239,0,0,0,0,0,0,0,0,0,-1,1539,785,0,0
322,239,0,0,0,0,0,0,0,0,0,-1,1546,785,0,0
329,239,0,0,0,0,0,0,0,0,0,-1,1553,785,0,0
336,239,0,0,0,0,0,0,0,0,0,-1,1560,785,0,0
343,239,0,0,0,0,0,0,0,0,0,-1,1567,785,0,0
350,239,0,0,0,0,0,0,0,0,0,-1,1574,785,0,0
357,239,0,0,0,0,0,0,0,0,0,-1,1581,785,0,0
364,239,0,0,0,0,0,0,0,0,0,-1,1588,785,0,0
371,239,0,0,0,0,0,0,0,0,0,-1,1595,785,0,0
378,239,0,0,0,0,0,0,0,0,0,-1,1602,785,0,0
385,239,0,0,0,0,0,0,0,0,0,-1,1609,785,0,0
392,239,0,0,0,0,0,0,0,0,0,-1,1616,785,0,0
399,239,0,0,0,0,0,0,0,0,0,-1,1623,785,0,0
406,239,0,0,0,0,0,0,0,0,0,-1,1630,785,0,0
413,239,0,0,0,0,0,0,0,0,0,-1,1637,785,0,0
420,239,0,0,0,0,0,0,0,0,0,-1,1644,785,0,0
427,239,0,0,0,0,0,0,0,0,0,-1,1651,785,0,0
434,239,0,0,0,0,0,0,0,0,0,-1,1658,785,0,0
441,239,0,0,0,0,0,0,0,0,0,-1,1665,785,0,0
448,239,0,0,0,0,0,0,0,0,0,-1,1672,785,0,0
455,239,0,0,0,0,0,0,0,0,0,-1,1679,785,0,0
462,239,0,0,0,0,0,0,0,0,0,-1,1686,785,0,0
469,239,0,0,0,0,0,0,0,0,0,-1,1693,785,0,0
476,239,0,0,0,0,0,0,0,0,0,-1,1700,785,0,0
483,239,0,0,0,0,0,0,0,0,0,-1,1707,785,0,0
490,239,0,0,0,0,0,0,0,0,0,-1,1714,785,0,0
497,239,0,0,0,0,0,0,0,0,0,-1,1721,785,0,0
504,239,0,0,0,0,0,0,0,0,0,-1,1728,785,0,0
511,239,0,0,0,0,0,0,0,0,0,-1,1735,785,0,0
518,239,0,0,0,0,0,0,0,0,0,-1,1742,785,0,0
525,239,0,0,0,0,0,0,0,0,0,-1,1749,785,0,0
532,239,0,0,0,0,0,0,0,0,0,-1,1756,785,0,0
539,239,0,0,0,0,0,0,0,0,0,-1,1763,785,0,0
546,239,0,0,0,0,0,0,0,0,0,-1,1770,785,0,0
553,239,0,0,0,0,0,0,0,0,0,-1,1777,785,0,0
560,239,0,0,0,0,0,0,0,0,0,-1,1784,785,0,0
567,239,0,0,0,0,0,0,0,0,0,-1,1791,785,0,0
574,239,0,0,0,0,0,0,0,0,0,-1,1798,785,0,0
581,239,71.7294,2.55981,0.00622716,-0.00108686,-0.00187671,0.00668059,-0.00154029,-0.237068,0.00504614,0.0388379,1805,785,71.7293,-2.55983
588,239,71.7484,2.47217,0.00698647,-0.000849603,-0.00058582,0.00703002,-0.000893156,-0.0742097,0.005011,0.0382971,1812,785,71.7484,-2.47216
595,239,71.8619,2.3678,0.00682562,-0.000353466,0.00028856,0.0068372,-0.000365046,0.0401083,0.00468456,0.035208,1819,785,71.8619,-2.36782
602,239,71.8712,2.41187,0.00598476,-0.000132916,0.000701295,0.00606413,-0.000212279,0.112687,0.00411534,0.0460871,1826,785,71.8712,-2.41184
609,239,71.807,2.56268,0,0,0,0,0,0,0,-1,1833,785,71.807,-2.56269
616,239,55.8469,3.72443,0,0,0,0,0,0,0,-1,1840,785,55.8469,-3.72445
623,239,65.0618,2.66516,0,0,0,0,0,0,0,-1,1847,785,65.0617,-2.66519
630,239,54.5767,3.64667,0,0,0,0,0,0,0,-1,1854,785,54.5766,-3.64667
637,239,39.5542,2.54114,0,0,0,0,0,0,0,-1,1861,785,39.5543,-2.54114
644,239,18.3466,0.735413,0,0,0,0,0,0,0,-1,1868,785,18.3465,-0.735414
651,239,34.2471,-2.15778,0,0,0,0,0,0,0,-1,1875,785,34.2471,2.1578
658,239,50.3138,-4.35321,0,0,0,0,0,0,0,-1,1882,785,50.3139,4.35321
665,239,50.5017,-3.26569,0.00117371,0.00017902,0.00021222,0.0012171,0.000135635,0.201657,0.000770178,0.0430561,1889,785,50.5017,3.26567
672,239,50.5071,-2.30945,0.00104237,0.000225681,6.07224e-05,0.00104686,0.000221191,0.0738107,0.000637109,0.023254,1896,785,50.507,2.30944
679,239,50.4481,-1.42029,0.00077527,2.36405e-05,2.5202e-05,0.000776114,2.27964e-05,0.0334797,0.00050998,0.0228285,1903,785,50.4481,1.42026
686,239,50.3971,-0.517578,0.000575191,0.000346495,5.2325e-05,0.000586595,0.000335091,0.214575,0.000339815,0.0232175,1910,785,50.3971,0.517589
693,239,50.3694,0.26001,0.000642503,0.00083132,0.000182365,0.000942264,0.000531559,1.02425,0.000545506,0.0158024,1917,785,50.3694,-0.260015
700,239,50.321,1.11011,0.000695883,0.00135166,0.000477072,0.00160265,0.000444886,1.08647,0.000955319,0.0116092,1924,785,50.321,-1.11011
707,239,50.2719,1.98425,0.00076058,0.00198115,0.000993976,0.00253724,0.000204487,1.06072,0.00162762,0.0108594,1931,785,50.2718,-1.98424
714,239,50.2261,2.84216,0.000755196,0.00246524,0.00163933,0.00345913,-0.00023869,1.02577,0.00238962,0.0101398,1938,785,50.2261,-2.84219
721,239,50.1117,3.68433,0.000792584,0.00274396,0.00250214,0.00445392,-0.000917372,0.971301,0.00331762,0.020877,1945,785,50.1117,-3.68431
728,239,49.9956,4.59717,0.000802922,0.00250564,0.00351337,0.00526933,-0.00196076,0.904267,0.00431752,0.0445814,1952,785,49.9957,-4.59716
735,239,50.1512,5.65552,0,0,0,0,0,0,0,-1,1959,785,50.1513,-5.65554
742,239,32.4141,7.6665,0,0,0,0,0,0,0,-1,1966,785,32.4141,-7.6665
749,239,32.1489,3.4411,0,0,0,0,0,0,0,-1,1973,785,32.149,-3.44109
756,239,32.9064,3.6687,0,0,0,0,0,0,0,-1,1980,785,32.9063,-3.66873
763,239,0,0,0,0,0,0,0,0,0,-1,1987,785,0,0
770,239,0,0,0,0,0,0,0,0,0,-1,1994,785,0,0
777,239,0,0,0,0,0,0,0,0,0,-1,2001,785,0,0
784,239,0,0,0,0,0,0,0,0,0,-1,2008,785,0,0
791,239,0,0,0,0,0,0,0,0,0,-1,2015,785,0,0
798,239,0,0,0,0,0,0,0,0,0,-1,2022,785,0,0
805,239,0,0,0,0,0,0,0,0,0,-1,2029,785,0,0
812,239,0,0,0,0,0,0,0,0,0,-1,2036,785,0,0
-700,232,0,0,0,0,0,0,0,0,0,-1,524,792,0,0
-693,232,0,0,0,0,0,0,0,0,0,-1,531,792,0,0
-686,232,0,0,0,0,0,0,0,0,0,-1,538,792,0,0
-679,232,0,0,0,0,0,0,0,0,0,-1,545,792,0,0
-672,232,0,0,0,0,0,0,0,0,0,-1,552,792,0,0
-665,232,0,0,0,0,0,0,0,0,0,-1,559,792,0,0
-658,232,0,0,0,0,0,0,0,0,0,-1,566,792,0,0
-651,232,0,0,0,0,0,0,0,0,0,-1,573,792,0,0
-644,232,-41.2348,4.28168,0,0,0,0,0,0,0,-1,580,792,-41.2348,-4.28166
-637,232,-42.1427,3.51453,0,0,0,0,0,0,0,-1,587,792,-42.1427,-3.51452
-630,232,-32.2345,1.80212,0,0,0,0,0,0,0,-1,594,792,-32.2345,-1.80211
-623,232,-31.5665,1.05115,0,0,0,0,0,0,0,-1,601,792,-31.5664,-1.05112
-616,232,-30.6812,0.432861,0,0,0,0,0,0,0,-1,608,792,-30.6812,-0.432881
-609,232,-29.7142,-0.478943,0,0,0,0,0,0,0,-1,615,792,-29.7142,0.478965
-602,232,-35.6981,4.81708,0,0,0,0,0,0,0,-1,622,792,-35.6981,-4.81708
-595,232,-35.8353,3.48737,-0.00336201,0.00337122,-0.0102024,0.0107481,-0.0107389,-0.944765,0.0124055,0.0384842,629,792,-35.8353,-3.48739
-588,232,-36.0221,2.16132,-0.00249491,0.00334927,-0.00751167,0.00848719,-0.00763284,-0.970895,0.00931126,0.0134428,636,792,-36.0221,-2.16132
-581,232,-36.079,1.20184,-0.00177738,0.00322456,-0.00516364,0.00646101,-0.00501384,-1.01092,0.00664255,0.00809474,643,792,-36.079,-1.20184
-574,232,-36.1141,0.34668,-0.00114818,0.00306878,-0.00303949,0.00465952,-0.00273892,-1.08864,0.0043192,0.00841294,650,792,-36.1141,-0.346668
-567,232,-36.1849,-0.495728,-0.000731528,0.00300886,-0.00122443,0.00337403,-0.0010967,-1.28096,0.00269049,0.0109498,657,792,-36.1849,0.495753
-560,232,-36.2596,-1.33069,-0.00054894,0.00307352,0.0003809,0.00311314,-0.000588558,1.46716,0.00229689,0.0152603,664,792,-36.2596,1.3307
-553,232,-36.3252,-2.20197,-0.000977805,0.00400793,0.00180989,0.00459566,-0.00156554,1.25681,0.00369779,0.0148607,671,792,-36.3252,2.20198
-546,232,-36.3399,-3.03009,-0.00165741,0.00489636,0.00278324,0.00591883,-0.00267987,1.21874,0.0050805,0.0288123,678,792,-36.3399,3.03007
-539,232,-36.6523,-3.83569,0,0,0,0,0,0,0,-1,685,792,-36.6524,3.83571
-532,232,-37.0167,-4.49591,0,0,0,0,0,0,0,-1,692,792,-37.0166,4.4959
-525,232,-36.7637,-5.54071,0,0,0,0,0,0,0,-1,699,792,-36.7637,5.54069
-518,232,-20.8098,-3.08154,0,0,0,0,0,0,0,-1,706,792,-20.8098,3.08155
-511,232,-21.6708,-0.962708,0,0,0,0,0,0,0,-1,713,792,-21.6708,0.962731
-504,232,-34.2155,0.346985,0,0,0,0,0,0,0,-1,720,792,-34.2155,-0.346955
-497,232,-52.7195,0.518677,0,0,0,0,0,0,0,-1,727,792,-52.7195,-0.518678
-490,232,-55.8505,0.633545,0,0,0,0,0,0,0,-1,734,792,-55.8504,-0.633521
-483,232,-55.9946,0.782715,-0.00177193,0.00105038,0.00209307,0.00216356,-0.00288511,1.082,0.00292476,0.0401188,741,792,-55.9946,-0.78269
-476,232,-55.9725,0.668579,-0.00161129,-0.000526078,0.00170596,0.00072149,-0.00285885,0.939371,0.00218645,0.0338495,748,792,-55.9725,-0.668553
-469,232,-55.9521,0.743591,-0.0012109,-0.00253235,0.00133028,-0.000386296,-0.00335696,0.554903,0.00212096,0.0330491,755,792,-55.9521,-0.743594
-462,232,0,0,0,0,0,0,0,0,0,-1,762,792,0,0
-455,232,0,0,0,0,0,0,0,0,0,-1,769,792,0,0
-448,232,0,0,0,0,0,0,0,0,0,-1,776,792,0,0
-441,232,0,0,0,0,0,0,0,0,0,-1,783,792,0,0
-434,232,0,0,0,0,0,0,0,0,0,-1,790,792,0,0
-427,232,0,0,0,0,0,0,0,0,0,-1,797,792,0,0
-420,232,0,0,0,0,0,0,0,0,0,-1,804,792,0,0
-413,232,0,0,0,0,0,0,0,0,0,-1,811,792,0,0
-406,232,0,0,0,0,0,0,0,0,0,-1,818,792,0,0
-399,232,0,0,0,0,0,0,0,0,0,-1,825,792,0,0
-392,232,0,0,0,0,0,0,0,0,0,-1,832,792,0,0
-385,232,0,0,0,0,0,0,0,0,0,-1,839,792,0,0
-378,232,0,0,0,0,0,0,0,0,0,-1,846,792,0,0
-371,232,0,0,0,0,0,0,0,0,0,-1,853,792,0,0
-364,232,0,0,0,0,0,0,0,0,0,-1,860,792,0,0
-357,232,0,0,0,0,0,0,0,0,0,-1,867,792,0,0
-350,232,0,0,0,0,0,0,0,0,0,-1,874,792,0,0
-343,232,0,0,0,0,0,0,0,0,0,-1,881,792,0,0
-336,232,0,0,0,0,0,0,0,0,0,-1,888,792,0,0
-329,232,0,0,0,0,0,0,0,0,0,-1,895,792,0,0
-322,232,0,0,0,0,0,0,0,0,0,-1,902,792,0,0
-315,232,0,0,0,0,0,0,0,0,0,-1,909,792,0,0
-308,232,0,0,0,0,0,0,0,0,0,-1,916,792,0,0
-301,232,0,0,0,0,0,0,0,0,0,-1,923,792,0,0
-294,232,0,0,0,0,0,0,0,0,0,-1,930,792,0,0
-287,232,0,0,0,0,0,0,0,0,0,-1,937,792,0,0
-280,232,0,0,0,0,0,0,0,0,0,-1,944,792,0,0
-273,232,0,0,0,0,0,0,0,0,0,-1,951,792,0,0
-266,232,0,0,0,0,0,0,0,0,0,-1,958,792,0,0
-259,232,0,0,0,0,0,0,0,0,0,-1,965,792,0,0
-252,232,0,0,0,0,0,0,0,0,0,-1,972,792,0,0
-245,232,0,0,0,0,0,0,0,0,0,-1,979,792,0,0
-238,232,0,0,0,0,0,0,0,0,0,-1,986,792,0,0
-231,232,0,0,0,0,0,0,0,0,0,-1,993,792,0,0
-224,232,0,0,0,0,0,0,0,0,0,-1,1000,792,0,0
-217,232,0,0,0,0,0,0,0,0,0,-1,1007,792,0,0
-210,232,0,0,0,0,0,0,0,0,0,-1,1014,792,0,0
-203,232,0,0,0,0,0,0,0,0,0,-1,1021,792,0,0
-196,232,0,0,0,0,0,0,0,0,0,-1,1028,792,0,0
-189,232,0,0,0,0,0,0,0,0,0,-1,1035,792,0,0
-182,232,0,0,0,0,0,0,0,0,0,-1,1042,792,0,0
-175,232,0,0,0,0,0,0,0,0,0,-1,1049,792,0,0
-168,232,0,0,0,0,0,0,0,0,0,-1,1056,792,0,0
-161,232,0,0,0,0,0,0,0,0,0,-1,1063,792,0,0
-154,232,0,0,0,0,0,0,0,0,0,-1,1070,792,0,0
-147,232,0,0,0,0,0,0,0,0,0,-1,1077,792,0,0
-140,232,0,0,0,0,0,0,0,0,0,-1,1084,792,0,0
-133,232,0,0,0,0,0,0,0,0,0,-1,1091,792,0,0
-126,232,0,0,0,0,0,0,0,0,0,-1,1098,792,0,0
-119,232,0,0,0,0,0,0,0,0,0,-1,1105,792,0,0
-112,232,0,0,0,0,0,0,0,0,0,-1,1112,792,0,0
-105,232,0,0,0,0,0,0,0,0,0,-1,1119,792,0,0
-98,232,0,0,0,0,0,0,0,0,0,-1,1126,792,0,0
-91,232,0,0,0,0,0,0,0,0,0,-1,1133,792,0,0
-84,232,0,0,0,0,0,0,0,0,0,-1,1140,792,0,0
-77,232,0,0,0,0,0,0,0,0,0,-1,1147,792,0,0
-70,232,0,0,0,0,0,0,0,0,0,-1,1154,792,0,0
-63,232,0,0,0,0,0,0,0,0,0,-1,1161,792,0,0
-56,232,0,0,0,0,0,0,0,0,0,-1,1168,792,0,0
-49,232,0,0,0,0,0,0,0,0,0,-1,1175,792,0,0
-42,232,0,0,0,0,0,0,0,0,0,-1,1182,792,0,0
-35,232,0,0,0,0,0,0,0,0,0,-1,1189,792,0,0
-28,232,0,0,0,0,0,0,0,0,0,-1,1196,792,0,0
-21,232,0,0,0,0,0,0,0,0,0,-1,1203,792,0,0
-14,232,0,0,0,0,0,0,0,0,0,-1,1210,792,0,0
-7,232,0,0,0,0,0,0,0,0,0,-1,1217,792,0,0
0,232,0,0,0,0,0,0,0,0,0,-1,1224,792,0,0
7,232,0,0,0,0,0,0,0,0,0,-1,1231,792,0,0
14,232,0,0,0,0,0,0,0,0,0,-1,1238,792,0,0
21,232,0,0,0,0,0,0,0,0,0,-1,1245,792,0,0
28,232,0,0,0,0,0,0,0,0,0,-1,1252,792,0,0
35,232,0,0,0,0,0,0,0,0,0,-1,1259,792,0,0
42,232,0,0,0,0,0,0,0,0,0,-1,1266,792,0,0
49,232,0,0,0,0,0,0,0,0,0,-1,1273,792,0,0
56,232,0,0,0,0,0,0,0,0,0,-1,1280,792,0,0
63,232,0,0,0,0,0,0,0,0,0,-1,1287,792,0,0
70,232,0,0,0,0,0,0,0,0,0,-1,1294,792,0,0
77,232,0,0,0,0,0,0,0,0,0,-1,1301,792,0,0
84,232,0,0,0,0,0,0,0,0,0,-1,1308,792,0,0
91,232,0,0,0,0,0,0,0,0,0,-1,1315,792,0,0
98,232,0,0,0,0,0,0,0,0,0,-1,1322,792,0,0
105,232,0,0,0,0,0,0,0,0,0,-1,1329,792,0,0
112,232,0,0,0,0,0,0,0,0,0,-1,1336,792,0,0
119,232,0,0,0,0,0,0,0,0,0,-1,1343,792,0,0
126,232,0,0,0,0,0,0,0,0,0,-1,1350,792,0,0
133,232,0,0,0,0,0,0,0,0,0,-1,1357,792,0,0
140,232,0,0,0,0,0,0,0,0,0,-1,1364,792,0,0
147,232,0,0,0,0,0,0,0,0,0,-1,1371,792,0,0
154,232,0,0,0,0,0,0,0,0,0,-1,1378,792,0,0
161,232,0,0,0,0,0,0,0,0,0,-1,1385,792,0,0
168,232,0,0,0,0,0,0,0,0,0,-1,1392,792,0,0
175,232,0,0,0,0,0,0,0,0,0,-1,1399,792,0,0
182,232,0,0,0,0,0,0,0,0,0,-1,1406,792,0,0
189,232,0,0,0,0,0,0,0,0,0,-1,1413,792,0,0
196,232,0,0,0,0,0,0,0,0,0,-1,1420,792,0,0
203,232,0,0,0,0,0,0,0,0,0,-1,1427,792,0,0
210,232,0,0,0,0,0,0,0,0,0,-1,1434,792,0,0
217,232,0,0,0,0,0,0,0,0,0,-1,1441,792,0,0
224,232,0,0,0,0,0,0,0,0,0,-1,1448,792,0,0
231,232,0,0,0,0,0,0,0,0,0,-1,1455,792,0,0
238,232,0,0,0,0,0,0,0,0,0,-1,1462,792,0,0
245,232,0,0,0,0,0,0,0,0,0,-1,1469,792,0,0
252,232,0,0,0,0,0,0,0,0,0,-1,1476,792,0,0
259,232,0,0,0,0,0,0,0,0,0,-1,1483,792,0,0
266,232,0,0,0,0,0,0,0,0,0,-1,1490,792,0,0
273,232,0,0,0,0,0,0,0,0,0,-1,1497,792,0,0
280,232,0,0,0,0,0,0,0,0,0,-1,1504,792,0,0
287,232,0,0,0,0,0,0,0,0,0,-1,1511,792,0,0
294,232,0,0,0,0,0,0,0,0,0,-1,1518,792,0,0
301,232,0,0,0,0,0,0,0,0,0,-1,1525,792,0,0
308,232,0,0,0,0,0,0,0,0,0,-1,1532,792,0,0
315,232,0,0,0,0,0,0,0,0,0,-1,1539,792,0,0
322,232,0,0,0,0,0,0,0,0,0,-1,1546,792,0,0
329,232,0,0,0,0,0,0,0,0,0,-1,1553,792,0,0
336,232,0,0,0,0,0,0,0,0,0,-1,1560,792,0,0
343,232,0,0,0,0,0,0,0,0,0,-1,1567,792,0,0
350,232,0,0,0,0,0,0,0,0,0,-1,1574,792,0,0
357,232,0,0,0,0,0,0,0,0,0,-1,1581,792,0,0
364,232,0,0,0,0,0,0,0,0,0,-1,1588,792,0,0
371,232,0,0,0,0,0,0,0,0,0,-1,1595,792,0,0
378,232,0,0,0,0,0,0,0,0,0,-1,1602,792,0,0
385,232,0,0,0,0,0,0,0,0,0,-1,1609,792,0,0
392,232,0,0,0,0,0,0,0,0,0,-1,1616,792,0,0
399,232,0,0,0,0,0,0,0,0,0,-1,1623,792,0,0
406,232,0,0,0,0,0,0,0,0,0,-1,1630,792,0,0
413,232,0,0,0,0,0,0,0,0,0,-1,1637,792,0,0
420,232,0,0,0,0,0,0,0,0,0,-1,1644,792,0,0
427,232,0,0,0,0,0,0,0,0,0,-1,1651,792,0,0
434,232,0,0,0,0,0,0,0,0,0,-1,1658,792,0,0
441,232,0,0,0,0,0,0,0,0,0,-1,1665,792,0,0
448,232,0,0,0,0,0,0,0,0,0,-1,1672,792,0,0
455,232,0,0,0,0,0,0,0,0,0,-1,1679,792,0,0
462,232,0,0,0,0,0,0,0,0,0,-1,1686,792,0,0
469,232,0,0,0,0,0,0,0,0,0,-1,1693,792,0,0
476,232,0,0,0,0,0,0,0,0,0,-1,1700,792,0,0
483,232,0,0,0,0,0,0,0,0,0,-1,1707,792,0,0
490,232,0,0,0,0,0,0,0,0,0,-1,1714,792,0,0
497,232,0,0,0,0,0,0,0,0,0,-1,1721,792,0,0
504,232,0,0,0,0,0,0,0,0,0,-1,1728,792,0,0
511,232,0,0,0,0,0,0,0,0,0,-1,1735,792,0,0
518,232,0,0,0,0,0,0,0,0,0,-1,1742,792,0,0
525,232,0,0,0,0,0,0,0,0,0,-1,1749,792,0,0
532,232,0,0,0,0,0,0,0,0,0,-1,1756,792,0,0
539,232,0,0,0,0,0,0,0,0,0,-1,1763,792,0,0
546,232,0,0,0,0,0,0,0,0,0,-1,1770,792,0,0
553,232,0,0,0,0,0,0,0,0,0,-1,1777,792,0,0
560,232,0,0,0,0,0,0,0,0,0,-1,1784,792,0,0
567,232,0,0,0,0,0,0,0,0,0,-1,1791,792,0,0
574,232,0,0,0,0,0,0,0,0,0,-1,1798,792,0,0
581,232,0,0,0,0,0,0,0,0,0,-1,1805,792,0,0
588,232,71.799,2.31683,0.0044898,-0.00156836,-0.000591347,0.00454699,-0.00162555,-0.0963991,0.00369437,0.0385024,1812,792,71.7989,-2.31686
595,232,71.8407,2.32349,0.00517652,-0.000790779,0.000168115,0.00518125,-0.000795512,0.0281429,0.00374759,0.0365728,1819,792,71.8408,-2.32348
602,232,71.8573,2.34686,0.0049239,-0.00034493,0.000585673,0.00498822,-0.000409247,0.109379,0.00346995,0.0369141,1826,792,71.8573,-2.34684
609,232,71.8994,2.29303,0.00414444,-0.000221073,0.000762795,0.00427389,-0.000350519,0.168098,0.002973,0.0465767,1833,792,71.8995,-2.29303
616,232,71.9771,2.28418,0,0,0,0,0,0,0,-1,1840,792,71.9771,-2.28417
623,232,71.7446,2.55536,0,0,0,0,0,0,0,-1,1847,792,71.7447,-2.55536
630,232,64.9034,2.97992,0,0,0,0,0,0,0,-1,1854,792,64.9035,-2.9799
637,232,47.0471,4.04309,0,0,0,0,0,0,0,-1,1861,792,47.0471,-4.04309
644,232,30.7756,4.24139,0,0,0,0,0,0,0,-1,1868,792,30.7757,-4.24141
651,232,31.6797,-0.564087,0,0,0,0,0,0,0,-1,1875,792,31.6797,0.564059
658,232,46.7423,-3.10736,0,0,0,0,0,0,0,-1,1882,792,46.7423,3.10735
665,232,51.1768,-3.2168,0,0,0,0,0,0,0,-1,1889,792,51.1767,3.21681
672,232,51.2889,-2.23541,0,0,0,0,0,0,0,-1,1896,792,51.289,2.23543
679,232,51.2683,-1.35352,0.000405129,-0.000218493,-0.000128376,0.000430522,-0.000243886,-0.195281,0.000394308,0.0216362,1903,792,51.2683,1.35351
686,232,51.2645,-0.472717,0.000158141,4.69475e-06,-0.000167187,0.000265368,-0.000102533,-0.57028,0.000219233,0.0201046,1910,792,51.2646,0.472742
693,232,51.23,0.306946,0.000351756,0.00037101,-9.98381e-05,0.000461684,0.000261082,-0.833464,0.000267315,0.0117211,1917,792,51.23,-0.306966
700,232,51.1921,1.16876,0.00049956,0.000824433,0.000150287,0.000883293,0.0004407,1.19751,0.00050997,0.0134402,1924,792,51.1921,-1.16877
707,232,51.1533,2.03326,0.00062383,0.00141065,0.000671841,0.00179579,0.00023869,1.05027,0.0011261,0.0130685,1931,792,51.1533,-2.03326
714,232,51.0957,2.86005,0.000701586,0.00186949,0.00131626,0.00272551,-0.000154436,0.994177,0.00187061,0.0136766,1938,792,51.0957,-2.86006
721,232,51.0056,3.6947,0.00078149,0.00209508,0.00212917,0.00366645,-0.000789883,0.935005,0.00274573,0.021859,1945,792,51.0056,-3.69469
728,232,50.8546,4.55957,0,0,0,0,0,0,0,-1,1952,792,50.8547,-4.55957
735,232,50.4587,5.30719,0,0,0,0,0,0,0,-1,1959,792,50.4587,-5.3072
742,232,25.6461,6.00684,0,0,0,0,0,0,0,-1,1966,792,25.6461,-6.00684
749,232,31.2874,3.74713,0,0,0,0,0,0,0,-1,1973,792,31.2874,-3.74713
756,232,34.9586,15.3984,0,0,0,0,0,0,0,-1,1980,792,34.9586,-15.3984
763,232,33.09,17.3107,0,0,0,0,0,0,0,-1,1987,792,33.0899,-17.3106
770,232,0,0,0,0,0,0,0,0,0,-1,1994,792,0,0
777,232,0,0,0,0,0,0,0,0,0,-1,2001,792,0,0
784,232,0,0,0,0,0,0,0,0,0,-1,2008,792,0,0
791,232,0,0,0,0,0,0,0,0,0,-1,2015,792,0,0
798,232,0,0,0,0,0,0,0,0,0,-1,2022,792,0,0
805,232,0,0,0,0,0,0,0,0,0,-1,2029,792,0,0
812,232,0,0,0,0,0,0,0,0,0,-1,2036,792,0,0
-700,225,0,0,0,0,0,0,0,0,0,-1,524,799,0,0
-693,225,0,0,0,0,0,0,0,0,0,-1,531,799,0,0
-686,225,0,0,0,0,0,0,0,0,0,-1,538,799,0,0
-679,225,0,0,0,0,0,0,0,0,0,-1,545,799,0,0
-672,225,0,0,0,0,0,0,0,0,0,-1,552,799,0,0
-665,225,0,0,0,0,0,0,0,0,0,-1,559,799,0,0
-658,225,0,0,0,0,0,0,0,0,0,-1,566,799,0,0
-651,225,0,0,0,0,0,0,0,0,0,-1,573,799,0,0
-644,225,-40.8898,4.14661,0,0,0,0,0,0,0,-1,580,799,-40.8898,-4.14661
-637,225,-41.61,3.36749,0,0,0,0,0,0,0,-1,587,799,-41.61,-3.36751
-630,225,-30.244,4.82196,0,0,0,0,0,0,0,-1,594,799,-30.244,-4.82193
-623,225,-32.8276,-0.00836182,0,0,0,0,0,0,0,-1,601,799,-32.8276,0.00837668
-616,225,-32.0569,-0.549255,0,0,0,0,0,0,0,-1,608,799,-32.0569,0.549265
-609,225,-36.189,5.68158,0,0,0,0,0,0,0,-1,615,799,-36.189,-5.68158
-602,225,-36.8887,3.75708,0,0,0,0,0,0,0,-1,622,799,-36.8887,-3.75708
-595,225,-36.9206,3.08099,-0.00213305,0.00366972,-0.00843748,0.00969073,-0.00815406,-0.950999,0.0103154,0.0313596,629,799,-36.9206,-3.081
-588,225,-36.9041,2.08759,-0.00148035,0.00351583,-0.00607204,0.00758357,-0.00554809,-0.980549,0.00761187,0.0126654,636,799,-36.9041,-2.08759
-581,225,-36.9395,1.2298,-0.000915403,0.00334831,-0.00394947,0.00570456,-0.00327165,-1.03288,0.00524549,0.0105672,643,799,-36.9394,-1.2298
-574,225,-36.9824,0.381165,-0.000430892,0.00323988,-0.00202576,0.00413806,-0.00132907,-1.15346,0.00329239,0.00915477,650,799,-36.9824,-0.381156
-567,225,-37.0539,-0.460205,-0.000175926,0.00333091,-0.000383974,0.00337246,-0.000217476,-1.463,0.00232419,0.0125992,657,799,-37.0539,0.460235
-560,225,-37.1038,-1.27618,-0.00021092,0.00369416,0.00105638,0.00396161,-0.00047837,1.32283,0.00281412,0.0134834,664,799,-37.1038,1.27619
-553,225,-37.1578,-2.15387,-0.00101218,0.00540416,0.00237455,0.00618734,-0.00179535,1.25221,0.00483574,0.0119987,671,799,-37.1578,2.15389
-546,225,-37.1144,-2.90222,-0.00175062,0.00658853,0.0030809,0.00760329,-0.00276538,1.25262,0.00619976,0.0318392,678,799,-37.1144,2.9022
-539,225,-37.0335,-3.47449,0,0,0,0,0,0,0,-1,685,799,-37.0335,3.47447
-532,225,-38.3754,-4.29578,0,0,0,0,0,0,0,-1,692,799,-38.3755,4.29577
-525,225,-29.1705,-3.88239,0,0,0,0,0,0,0,-1,699,799,-29.1705,3.88237
-518,225,-21.963,0.171326,0,0,0,0,0,0,0,-1,706,799,-21.9629,-0.171319
-511,225,-33.0002,0.660217,0,0,0,0,0,0,0,-1,713,799,-33.0002,-0.660239
-504,225,-50.4542,0.524109,0,0,0,0,0,0,0,-1,720,799,-50.4542,-0.524105
-497,225,-55.8801,0.580444,0,0,0,0,0,0,0,-1,727,799,-55.8801,-0.580418
-490,225,-55.9305,0.612,-0.00093671,0.00338385,0.00317515,0.00506394,-0.00261679,1.08411,0.00450887,0.0388553,734,799,-55.9305,-0.61202
-483,225,-56.028,0.645691,-0.000435385,0.00204331,0.0025073,0.00360085,-0.00199292,1.01494,0.00327374,0.032934,741,799,-56.028,-0.645664
-476,225,-56.0112,0.685547,0.000604352,2.90064e-05,0.00188109,0.00221964,-0.00158628,0.709522,0.00220747,0.0302217,748,799,-56.0112,-0.685569
-469,225,-55.9931,0.770752,0.0025566,-0.00268632,0.00110826,0.00278124,-0.00291096,0.199988,0.00328668,0.034356,755,799,-55.9931,-0.770772
-462,225,0,0,0,0,0,0,0,0,0,-1,762,799,0,0
-455,225,0,0,0,0,0,0,0,0,0,-1,769,799,0,0
-448,225,0,0,0,0,0,0,0,0,0,-1,776,799,0,0
-441,225,0,0,0,0,0,0,0,0,0,-1,783,799,0,0
-434,225,0,0,0,0,0,0,0,0,0,-1,790,799,0,0
-427,225,0,0,0,0,0,0,0,0,0,-1,797,799,0,0
-420,225,0,0,0,0,0,0,0,0,0,-1,804,799,0,0
-413,225,0,0,0,0,0,0,0,0,0,-1,811,799,0,0
-406,225,0,0,0,0,0,0,0,0,0,-1,818,799,0,0
-399,225,0,0,0,0,0,0,0,0,0,-1,825,799,0,0
-392,225,0,0,0,0,0,0,0,0,0,-1,832,799,0,0
-385,225,0,0,0,0,0,0,0,0,0,-1,839,799,0,0
-378,225,0,0,0,0,0,0,0,0,0,-1,846,799,0,0
-371,225,0,0,0,0,0,0,0,0,0,-1,853,799,0,0
-364,225,0,0,0,0,0,0,0,0,0,-1,860,799,0,0
-357,225,0,0,0,0,0,0,0,0,0,-1,867,799,0,0
-350,225,0,0,0,0,0,0,0,0,0,-1,874,799,0,0
-343,225,0,0,0,0,0,0,0,0,0,-1,881,799,0,0
-336,225,0,0,0,0,0,0,0,0,0,-1,888,799,0,0
-329,225,0,0,0,0,0,0,0,0,0,-1,895,799,0,0
-322,225,0,0,0,0,0,0,0,0,0,-1,902,799,0,0
-315,225,0,0,0,0,0,0,0,0,0,-1,909,799,0,0
-308,225,0,0,0,0,0,0,0,0,0,-1,916,799,0,0
-301,225,0,0,0,0,0,0,0,0,0,-1,923,799,0,0
-294,225,0,0,0,0,0,0,0,0,0,-1,930,799,0,0
-287,225,0,0,0,0,0,0,0,0,0,-1,937,799,0,0
-280,225,0,0,0,0,0,0,0,0,0,-1,944,799,0,0
-273,225,0,0,0,0,0,0,0,0,0,-1,951,799,0,0
-266,225,0,0,0,0,0,0,0,0,0,-1,958,799,0,0
-259,225,0,0,0,0,0,0,0,0,0,-1,965,799,0,0
-252,225,0,0,0,0,0,0,0,0,0,-1,972,799,0,0
-245,225,0,0,0,0,0,0,0,0,0,-1,979,799,0,0
-238,225,0,0,0,0,0,0,0,0,0,-1,986,799,0,0
-231,225,0,0,0,0,0,0,0,0,0,-1,993,799,0,0
-224,225,0,0,0,0,0,0,0,0,0,-1,1000,799,0,0
-217,225,0,0,0,0,0,0,0,0,0,-1,1007,799,0,0
-210,225,0,0,0,0,0,0,0,0,0,-1,1014,799,0,0
-203,225,0,0,0,0,0,0,0,0,0,-1,1021,799,0,0
-196,225,0,0,0,0,0,0,0,0,0,-1,1028,799,0,0
-189,225,0,0,0,0,0,0,0,0,0,-1,1035,799,0,0
-182,225,0,0,0,0,0,0,0,0,0,-1,1042,799,0,0
-175,225,0,0,0,0,0,0,0,0,0,-1,1049,799,0,0
-168,225,0,0,0,0,0,0,0,0,0,-1,1056,799,0,0
-161,225,0,0,0,0,0,0,0,0,0,-1,1063,799,0,0
-154,225,0,0,0,0,0,0,0,0,0,-1,1070,799,0,0
-147,225,0,0,0,0,0,0,0,0,0,-1,1077,799,0,0
-140,225,0,0,0,0,0,0,0,0,0,-1,1084,799,0,0
-133,225,0,0,0,0,0,0,0,0,0,-1,1091,799,0,0
-126,225,0,0,0,0,0,0,0,0,0,-1,1098,799,0,0
-119,225,0,0,0,0,0,0,0,0,0,-1,1105,799,0,0
-112,225,0,0,0,0,0,0,0,0,0,-1,1112,799,0,0
-105,225,0,0,0,0,0,0,0,0,0,-1,1119,799,0,0
-98,225,0,0,0,0,0,0,0,0,0,-1,1126,799,0,0
-91,225,0,0,0,0,0,0,0,0,0,-1,1133,799,0,0
-84,225,0,0,0,0,0,0,0,0,0,-1,1140,799,0,0
-77,225,0,0,0,0,0,0,0,0,0,-1,1147,799,0,0
-70,225,0,0,0,0,0,0,0,0,0,-1,1154,799,0,0
-63,225,0,0,0,0,0,0,0,0,0,-1,1161,799,0,0
-56,225,0,0,0,0,0,0,0,0,0,-1,1168,799,0,0
-49,225,0,0,0,0,0,0,0,0,0,-1,1175,799,0,0
-42,225,0,0,0,0,0,0,0,0,0,-1,1182,799,0,0
-35,225,0,0,0,0,0,0,0,0,0,-1,1189,799,0,0
-28,225,0,0,0,0,0,0,0,0,0,-1,1196,799,0,0
-21,225,0,0,0,0,0,0,0,0,0,-1,1203,799,0,0
-14,225,0,0,0,0,0,0,0,0,0,-1,1210,799,0,0
-7,225,0,0,0,0,0,0,0,0,0,-1,1217,799,0,0
0,225,0,0,0,0,0,0,0,0,0,-1,1224,799,0,0
7,225,0,0,0,0,0,0,0,0,0,-1,1231,799,0,0
14,225,0,0,0,0,0,0,0,0,0,-1,1238,799,0,0
21,225,0,0,0,0,0,0,0,0,0,-1,1245,799,0,0
28,225,0,0,0,0,0,0,0,0,0,-1,1252,799,0,0
35,225,0,0,0,0,0,0,0,0,0,-1,1259,799,0,0
42,225,0,0,0,0,0,0,0,0,0,-1,1266,799,0,0
49,225,0,0,0,0,0,0,0,0,0,-1,1273,799,0,0
56,225,0,0,0,0,0,0,0,0,0,-1,1280,799,0,0
63,225,0,0,0,0,0,0,0,0,0,-1,1287,799,0,0
70,225,0,0,0,0,0,0,0,0,0,-1,1294,799,0,0
77,225,0,0,0,0,0,0,0,0,0,-1,1301,799,0,0
84,225,0,0,0,0,0,0,0,0,0,-1,1308,799,0,0
91,225,0,0,0,0,0,0,0,0,0,-1,1315,799,0,0
98,225,0,0,0,0,0,0,0,0,0,-1,1322,799,0,0
105,225,0,0,0,0,0,0,0,0,0,-1,1329,799,0,0
112,225,0,0,0,0,0,0,0,0,0,-1,1336,799,0,0
119,225,0,0,0,0,0,0,0,0,0,-1,1343,799,0,0
126,225,0,0,0,0,0,0,0,0,0,-1,1350,799,0,0
133,225,0,0,0,0,0,0,0,0,0,-1,1357,799,0,0
140,225,0,0,0,0,0,0,0,0,0,-1,1364,799,0,0
147,225,0,0,0,0,0,0,0,0,0,-1,1371,799,0,0
154,225,0,0,0,0,0,0,0,0,0,-1,1378,799,0,0
161,225,0,0,0,0,0,0,0,0,0,-1,1385,799,0,0
168,225,0,0,0,0,0,0,0,0,0,-1,1392,799,0,0
175,225,0,0,0,0,0,0,0,0,0,-1,1399,799,0,0
182,225,0,0,0,0,0,0,0,0,0,-1,1406,799,0,0
189,225,0,0,0,0,0,0,0,0,0,-1,1413,799,0,0
196,225,0,0,0,0,0,0,0,0,0,-1,1420,799,0,0
203,225,0,0,0,0,0,0,0,0,0,-1,1427,799,0,0
210,225,0,0,0,0,0,0,0,0,0,-1,1434,799,0,0
217,225,0,0,0,0,0,0,0,0,0,-1,1441,799,0,0
224,225,0,0,0,0,0,0,0,0,0,-1,1448,799,0,0
231,225,0,0,0,0,0,0,0,0,0,-1,1455,799,0,0
238,225,0,0,0,0,0,0,0,0,0,-1,1462,799,0,0
245,225,0,0,0,0,0,0,0,0,0,-1,1469,799,0,0
252,225,0,0,0,0,0,0,0,0,0,-1,1476,799,0,0
259,225,0,0,0,0,0,0,0,0,0,-1,1483,799,0,0
266,225,0,0,0,0,0,0,0,0,0,-1,1490,799,0,0
273,225,0,0,0,0,0,0,0,0,0,-1,1497,799,0,0
280,225,0,0,0,0,0,0,0,0,0,-1,1504,799,0,0
287,225,0,0,0,0,0,0,0,0,0,-1,1511,799,0,0
294,225,0,0,0,0,0,0,0,0,0,-1,1518,799,0,0
301,225,0,0,0,0,0,0,0,0,0,-1,1525,799,0,0
308,225,0,0,0,0,0,0,0,0,0,-1,1532,799,0,0
315,225,0,0,0,0,0,0,0,0,0,-1,1539,799,0,0
322,225,0,0,0,0,0,0,0,0,0,-1,1546,799,0,0
329,225,0,0,0,0,0,0,0,0,0,-1,1553,799,0,0
336,225,0,0,0,0,0,0,0,0,0,-1,1560,799,0,0
343,225,0,0,0,0,0,0,0,0,0,-1,1567,799,0,0
350,225,0,0,0,0,0,0,0,0,0,-1,1574,799,0,0
357,225,0,0,0,0,0,0,0,0,0,-1,1581,799,0,0
364,225,0,0,0,0,0,0,0,0,0,-1,1588,799,0,0
371,225,0,0,0,0,0,0,0,0,0,-1,1595,799,0,0
378,225,0,0,0,0,0,0,0,0,0,-1,1602,799,0,0
385,225,0,0,0,0,0,0,0,0,0,-1,1609,799,0,0
392,225,0,0,0,0,0,0,0,0,0,-1,1616,799,0,0
399,225,0,0,0,0,0,0,0,0,0,-1,1623,799,0,0
406,225,0,0,0,0,0,0,0,0,0,-1,1630,799,0,0
413,225,0,0,0,0,0,0,0,0,0,-1,1637,799,0,0
420,225,0,0,0,0,0,0,0,0,0,-1,1644,799,0,0
427,225,0,0,0,0,0,0,0,0,0,-1,1651,799,0,0
434,225,0,0,0,0,0,0,0,0,0,-1,1658,799,0,0
441,225,0,0,0,0,0,0,0,0,0,-1,1665,799,0,0
448,225,0,0,0,0,0,0,0,0,0,-1,1672,799,0,0
455,225,0,0,0,0,0,0,0,0,0,-1,1679,799,0,0
462,225,0,0,0,0,0,0,0,0,0,-1,1686,799,0,0
469,225,0,0,0,0,0,0,0,0,0,-1,1693,799,0,0
476,225,0,0,0,0,0,0,0,0,0,-1,1700,799,0,0
483,225,0,0,0,0,0,0,0,0,0,-1,1707,799,0,0
490,225,0,0,0,0,0,0,0,0,0,-1,1714,799,0,0
497,225,0,0,0,0,0,0,0,0,0,-1,1721,799,0,0
504,225,0,0,0,0,0,0,0,0,0,-1,1728,799,0,0
511,225,0,0,0,0,0,0,0,0,0,-1,1735,799,0,0
518,225,0,0,0,0,0,0,0,0,0,-1,1742,799,0,0
525,225,0,0,0,0,0,0,0,0,0,-1,1749,799,0,0
532,225,0,0,0,0,0,0,0,0,0,-1,1756,799,0,0
539,225,0,0,0,0,0,0,0,0,0,-1,1763,799,0,0
546,225,0,0,0,0,0,0,0,0,0,-1,1770,799,0,0
553,225,0,0,0,0,0,0,0,0,0,-1,1777,799,0,0
560,225,0,0,0,0,0,0,0,0,0,-1,1784,799,0,0
567,225,0,0,0,0,0,0,0,0,0,-1,1791,799,0,0
574,225,0,0,0,0,0,0,0,0,0,-1,1798,799,0,0
581,225,0,0,0,0,0,0,0,0,0,-1,1805,799,0,0
588,225,71.8654,2.33691,0.00193317,-0.0023234,-0.000400301,0.00197049,-0.00236072,-0.0929571,0.002504,0.0373115,1812,799,71.8653,-2.3369
595,225,71.8448,2.34436,0.00319372,-0.00165333,0.000133085,0.00319737,-0.00165698,0.0274295,0.00284931,0.0357271,1819,799,71.8449,-2.34436
602,225,71.7737,2.38605,0.0036103,-0.00104634,0.000517986,0.00366723,-0.00110326,0.109453,0.0028838,0.0319691,1826,799,71.7737,-2.38602
609,225,71.8386,2.37805,0.00331064,-0.000689875,0.000641644,0.00341103,-0.000790269,0.155206,0.00257814,0.0309402,1833,799,71.8387,-2.37804
616,225,71.848,2.36749,0.00292364,-0.000455924,0.000731207,0.00307506,-0.000607345,0.204197,0.00227962,0.0380802,1840,799,71.848,-2.36746
623,225,71.8052,2.50067,0.00255947,-0.000408792,0.0007561,0.00274097,-0.000590293,0.235592,0.00205257,0.0447202,1847,799,71.8052,-2.50065
630,225,71.8682,2.5351,0,0,0,0,0,0,0,-1,1854,799,71.8682,-2.53508
637,225,55.6359,2.8064,0,0,0,0,0,0,0,-1,1861,799,55.6359,-2.80637
644,225,42.0298,2.46411,0,0,0,0,0,0,0,-1,1868,799,42.0298,-2.4641
651,225,27.9657,0.579529,0,0,0,0,0,0,0,-1,1875,799,27.9657,-0.579541
658,225,47.9047,-1.92926,0,0,0,0,0,0,0,-1,1882,799,47.9047,1.92927
665,225,47.541,-2.27985,0,0,0,0,0,0,0,-1,1889,799,47.5411,2.27983
672,225,52.2367,-2.43622,0,0,0,0,0,0,0,-1,1896,799,52.2367,2.43624
679,225,52.121,-1.30115,5.20791e-05,-0.00053012,-0.00042486,0.000275999,-0.00075404,-0.485048,0.000615672,0.0425396,1903,799,52.121,1.30117
686,225,52.1122,-0.483154,-0.000341766,-0.000433791,-0.000507956,0.000122257,-0.000897814,-0.74023,0.00064318,0.013512,1910,799,52.1122,0.483159
693,225,52.0748,0.357483,-2.84165e-05,-0.000147733,-0.000469414,0.000385115,-0.000561264,-0.722192,0.000549538,0.0112845,1917,799,52.0748,-0.35747
700,225,52.0328,1.21844,0.00027057,0.000302802,-0.000226154,0.000513414,5.99582e-05,-0.820969,0.000324143,0.0124011,1924,799,52.0329,-1.21846
707,225,51.9808,2.08252,0.000513868,0.000889823,0.000325119,0.0010774,0.000326296,1.04751,0.000637948,0.0123687,1931,799,51.9809,-2.08252
714,225,51.9332,2.94,0.000764195,0.00139752,0.00101461,0.00214374,1.79815e-05,0.936661,0.0014232,0.0134545,1938,799,51.9332,-2.94003
721,225,51.9121,3.78345,0.00101278,0.00166179,0.00184529,0.00321089,-0.000536315,0.872436,0.00233994,0.0176934,1945,799,51.9121,-3.78345
728,225,51.8867,4.64429,0,0,0,0,0,0,0,-1,1952,799,51.8867,-4.64432
735,225,51.4402,5.18811,0,0,0,0,0,0,0,-1,1959,799,51.4402,-5.18811
742,225,29.0922,3.2132,0,0,0,0,0,0,0,-1,1966,799,29.0921,-3.21322
749,225,29.9529,4.45538,0,0,0,0,0,0,0,-1,1973,799,29.9529,-4.45537
756,225,39.1752,11.743,0,0,0,0,0,0,0,-1,1980,799,39.1751,-11.743
763,225,37.9585,12.9702,0,0,0,0,0,0,0,-1,1987,799,37.9585,-12.9701
770,225,0,0,0,0,0,0,0,0,0,-1,1994,799,0,0
777,225,0,0,0,0,0,0,0,0,0,-1,2001,799,0,0
784,225,0,0,0,0,0,0,0,0,0,-1,2008,799,0,0
791,225,0,0,0,0,0,0,0,0,0,-1,2015,799,0,0
798,225,0,0,0,0,0,0,0,0,0,-1,2022,799,0,0
805,225,0,0,0,0,0,0,0,0,0,-1,2029,799,0,0
812,225,0,0,0,0,0,0,0,0,0,-1,2036,799,0,0
-700,218,0,0,0,0,0,0,0,0,0,-1,524,806,0,0
-693,218,0,0,0,0,0,0,0,0,0,-1,531,806,0,0
-686,218,0,0,0,0,0,0,0,0,0,-1,538,806,0,0
-679,218,0,0,0,0,0,0,0,0,0,-1,545,806,0,0
-672,218,0,0,0,0,0,0,0,0,0,-1,552,806,0,0
-665,218,0,0,0,0,0,0,0,0,0,-1,559,806,0,0
-658,218,0,0,0,0,0,0,0,0,0,-1,566,806,0,0
-651,218,-40.3778,5.1792,0,0,0,0,0,0,0,-1,573,806,-40.3778,-5.1792
-644,218,-40.7704,4.19714,0,0,0,0,0,0,0,-1,580,806,-40.7704,-4.19714
-637,218,-41.541,3.36328,0,0,0,0,0,0,0,-1,587,806,-41.541,-3.36326
-630,218,-42.1423,2.85565,0,0,0,0,0,0,0,-1,594,806,-42.1423,-2.85567
-623,218,-42.7292,2.59015,0,0,0,0,0,0,0,-1,601,806,-42.7292,-2.59015
-616,218,-20.0258,1.87585,0,0,0,0,0,0,0,-1,608,806,-20.0258,-1.87585
-609,218,-37.5133,4.67322,0,0,0,0,0,0,0,-1,615,806,-37.5133,-4.67319
-602,218,-37.6493,3.79645,-0.00117304,0.00471907,-0.00931144,0.0115394,-0.00799336,-0.938611,0.011339,0.0428392,622,806,-37.6493,-3.79642
-595,218,-37.7564,2.97009,-0.000932824,0.00394821,-0.00685813,0.00878712,-0.00577174,-0.95634,0.00846544,0.0182724,629,806,-37.7564,-2.9701
-588,218,-37.778,2.11676,-0.000552285,0.00369722,-0.00471239,0.00674173,-0.00359679,-0.997194,0.0060603,0.0119043,636,806,-37.778,-2.11678
-581,218,-37.8171,1.28711,-0.000188102,0.00350023,-0.00275389,0.00497041,-0.00165828,-1.08043,0.00398314,0.0115547,643,806,-37.817,-1.28711
-574,218,-37.8616,0.455688,6.55859e-05,0.00347269,-0.00102371,0.00375661,-0.000218341,-1.30025,0.00258027,0.0109252,650,806,-37.8616,-0.455663
-567,218,-37.9099,-0.386169,5.78216e-05,0.00377939,0.000365711,0.00381498,2.22245e-05,1.47377,0.00253595,0.0194445,657,806,-37.9099,0.386195
-560,218,-37.9443,-1.21973,-0.000198488,0.00452742,0.00148169,0.00495355,-0.000624612,1.29076,0.00352904,0.0191976,664,806,-37.9443,1.21973
-553,218,-37.895,-2.28491,-0.00125352,0.00681579,0.0025247,0.0075406,-0.00197834,1.29123,0.00580009,0.0203504,671,806,-37.895,2.28493
-546,218,-38.08,-3.18011,-0.00190505,0.00800205,0.00293621,0.00880689,-0.00270988,1.30326,0.00695287,0.0299365,678,806,-38.08,3.1801
-539,218,-38.2242,-3.89453,-0.00155366,0.00785254,0.00318904,0.0088318,-0.00253292,1.27287,0.00688917,0.0350945,685,806,-38.2242,3.89452
-532,218,-38.1273,-4.4248,0,0,0,0,0,0,0,-1,692,806,-38.1273,4.42478
-525,218,-29.3521,-3.64417,0,0,0,0,0,0,0,-1,699,806,-29.3521,3.64414
-518,218,-23.61,2.54181,0,0,0,0,0,0,0,-1,706,806,-23.61,-2.54183
-511,218,-41.0953,1.06879,0,0,0,0,0,0,0,-1,713,806,-41.0953,-1.06876
-504,218,-55.3393,0.606934,0,0,0,0,0,0,0,-1,720,806,-55.3393,-0.606939
-497,218,-55.7401,0.711304,0,0,0,0,0,0,0,-1,727,806,-55.7401,-0.711276
-490,218,-56.0098,0.593506,-4.57159e-05,0.00475988,0.00348909,0.00659349,-0.00187933,1.08694,0.00513798,0.0357568,734,806,-56.0098,-0.593487
-483,218,-56.026,0.666443,0.00129834,0.00319575,0.00264308,0.00505523,-0.000561134,0.957707,0.00357192,0.0331421,741,806,-56.026,-0.666426
-476,218,-55.9753,0.782654,0.00408542,0.000458117,0.00164466,0.00472008,-0.000176545,0.368286,0.00320719,0.0374693,748,806,-55.9754,-0.782657
-469,218,0,0,0,0,0,0,0,0,0,-1,755,806,0,0
-462,218,0,0,0,0,0,0,0,0,0,-1,762,806,0,0
-455,218,0,0,0,0,0,0,0,0,0,-1,769,806,0,0
-448,218,0,0,0,0,0,0,0,0,0,-1,776,806,0,0
-441,218,0,0,0,0,0,0,0,0,0,-1,783,806,0,0
-434,218,0,0,0,0,0,0,0,0,0,-1,790,806,0,0
-427,218,0,0,0,0,0,0,0,0,0,-1,797,806,0,0
-420,218,0,0,0,0,0,0,0,0,0,-1,804,806,0,0
-413,218,0,0,0,0,0,0,0,0,0,-1,811,806,0,0
-406,218,0,0,0,0,0,0,0,0,0,-1,818,806,0,0
-399,218,0,0,0,0,0,0,0,0,0,-1,825,806,0,0
-392,218,0,0,0,0,0,0,0,0,0,-1,832,806,0,0
-385,218,0,0,0,0,0,0,0,0,0,-1,839,806,0,0
-378,218,0,0,0,0,0,0,0,0,0,-1,846,806,0,0
-371,218,0,0,0,0,0,0,0,0,0,-1,853,806,0,0
-364,218,0,0,0,0,0,0,0,0,0,-1,860,806,0,0
-357,218,0,0,0,0,0,0,0,0,0,-1,867,806,0,0
-350,218,0,0,0,0,0,0,0,0,0,-1,874,806,0,0
-343,218,0,0,0,0,0,0,0,0,0,-1,881,806,0,0
-336,218,0,0,0,0,0,0,0,0,0,-1,888,806,0,0
-329,218,0,0,0,0,0,0,0,0,0,-1,895,806,0,0
-322,218,0,0,0,0,0,0,0,0,0,-1,902,806,0,0
-315,218,0,0,0,0,0,0,0,0,0,-1,909,806,0,0
-308,218,0,0,0,0,0,0,0,0,0,-1,916,806,0,0
-301,218,0,0,0,0,0,0,0,0,0,-1,923,806,0,0
-294,218,0,0,0,0,0,0,0,0,0,-1,930,806,0,0
-287,218,0,0,0,0,0,0,0,0,0,-1,937,806,0,0
-280,218,0,0,0,0,0,0,0,0,0,-1,944,806,0,0
-273,218,0,0,0,0,0,0,0,0,0,-1,951,806,0,0
-266,218,0,0,0,0,0,0,0,0,0,-1,958,806,0,0
-259,218,0,0,0,0,0,0,0,0,0,-1,965,806,0,0
-252,218,0,0,0,0,0,0,0,0,0,-1,972,806,0,0
-245,218,0,0,0,0,0,0,0,0,0,-1,979,806,0,0
-238,218,0,0,0,0,0,0,0,0,0,-1,986,806,0,0
-231,218,0,0,0,0,0,0,0,0,0,-1,993,806,0,0
-224,218,0,0,0,0,0,0,0,0,0,-1,1000,806,0,0
-217,218,0,0,0,0,0,0,0,0,0,-1,1007,806,0,0
-210,218,0,0,0,0,0,0,0,0,0,-1,1014,806,0,0
-203,218,0,0,0,0,0,0,0,0,0,-1,1021,806,0,0
-196,218,0,0,0,0,0,0,0,0,0,-1,1028,806,0,0
-189,218,0,0,0,0,0,0,0,0,0,-1,1035,806,0,0
-182,218,0,0,0,0,0,0,0,0,0,-1,1042,806,0,0
-175,218,0,0,0,0,0,0,0,0,0,-1,1049,806,0,0
-168,218,0,0,0,0,0,0,0,0,0,-1,1056,806,0,0
-161,218,0,0,0,0,0,0,0,0,0,-1,1063,806,0,0
-154,218,0,0,0,0,0,0,0,0,0,-1,1070,806,0,0
-147,218,0,0,0,0,0,0,0,0,0,-1,1077,806,0,0
-140,218,0,0,0,0,0,0,0,0,0,-1,1084,806,0,0
-133,218,0,0,0,0,0,0,0,0,0,-1,1091,806,0,0
-126,218,0,0,0,0,0,0,0,0,0,-1,1098,806,0,0
-119,218,0,0,0,0,0,0,0,0,0,-1,1105,806,0,0
-112,218,0,0,0,0,0,0,0,0,0,-1,1112,806,0,0
-105,218,0,0,0,0,0,0,0,0,0,-1,1119,806,0,0
-98,218,0,0,0,0,0,0,0,0,0,-1,1126,806,0,0
-91,218,0,0,0,0,0,0,0,0,0,-1,1133,806,0,0
-84,218,0,0,0,0,0,0,0,0,0,-1,1140,806,0,0
-77,218,0,0,0,0,0,0,0,0,0,-1,1147,806,0,0
-70,218,0,0,0,0,0,0,0,0,0,-1,1154,806,0,0
-63,218,0,0,0,0,0,0,0,0,0,-1,1161,806,0,0
-56,218,0,0,0,0,0,0,0,0,0,-1,1168,806,0,0
-49,218,0,0,0,0,0,0,0,0,0,-1,1175,806,0,0
-42,218,0,0,0,0,0,0,0,0,0,-1,1182,806,0,0
-35,218,0,0,0,0,0,0,0,0,0,-1,1189,806,0,0
-28,218,0,0,0,0,0,0,0,0,0,-1,1196,806,0,0
-21,218,0,0,0,0,0,0,0,0,0,-1,1203,806,0,0
-14,218,0,0,0,0,0,0,0,0,0,-1,1210,806,0,0
-7,218,0,0,0,0,0,0,0,0,0,-1,1217,806,0,0
0,218,0,0,0,0,0,0,0,0,0,-1,1224,806,0,0
7,218,0,0,0,0,0,0,0,0,0,-1,1231,806,0,0
14,218,0,0,0,0,0,0,0,0,0,-1,1238,806,0,0
21,218,0,0,0,0,0,0,0,0,0,-1,1245,806,0,0
28,218,0,0,0,0,0,0,0,0,0,-1,1252,806,0,0
35,218,0,0,0,0,0,0,0,0,0,-1,1259,806,0,0
42,218,0,0,0,0,0,0,0,0,0,-1,1266,806,0,0
49,218,0,0,0,0,0,0,0,0,0,-1,1273,806,0,0
56,218,0,0,0,0,0,0,0,0,0,-1,1280,806,0,0
63,218,0,0,0,0,0,0,0,0,0,-1,1287,806,0,0
70,218,0,0,0,0,0,0,0,0,0,-1,1294,806,0,0
77,218,0,0,0,0,0,0,0,0,0,-1,1301,806,0,0
84,218,0,0,0,0,0,0,0,0,0,-1,1308,806,0,0
91,218,0,0,0,0,0,0,0,0,0,-1,1315,806,0,0
98,218,0,0,0,0,0,0,0,0,0,-1,1322,806,0,0
105,218,0,0,0,0,0,0,0,0,0,-1,1329,806,0,0
112,218,0,0,0,0,0,0,0,0,0,-1,1336,806,0,0
119,218,0,0,0,0,0,0,0,0,0,-1,1343,806,0,0
126,218,0,0,0,0,0,0,0,0,0,-1,1350,806,0,0
133,218,0,0,0,0,0,0,0,0,0,-1,1357,806,0,0
140,218,0,0,0,0,0,0,0,0,0,-1,1364,806,0,0
147,218,0,0,0,0,0,0,0,0,0,-1,1371,806,0,0
154,218,0,0,0,0,0,0,0,0,0,-1,1378,806,0,0
161,218,0,0,0,0,0,0,0,0,0,-1,1385,806,0,0
168,218,0,0,0,0,0,0,0,0,0,-1,1392,806,0,0
175,218,0,0,0,0,0,0,0,0,0,-1,1399,806,0,0
182,218,0,0,0,0,0,0,0,0,0,-1,1406,806,0,0
189,218,0,0,0,0,0,0,0,0,0,-1,1413,806,0,0
196,218,0,0,0,0,0,0,0,0,0,-1,1420,806,0,0
203,218,0,0,0,0,0,0,0,0,0,-1,1427,806,0,0
210,218,0,0,0,0,0,0,0,0,0,-1,1434,806,0,0
217,218,0,0,0,0,0,0,0,0,0,-1,1441,806,0,0
224,218,0,0,0,0,0,0,0,0,0,-1,1448,806,0,0
231,218,0,0,0,0,0,0,0,0,0,-1,1455,806,0,0
238,218,0,0,0,0,0,0,0,0,0,-1,1462,806,0,0
245,218,0,0,0,0,0,0,0,0,0,-1,1469,806,0,0
252,218,0,0,0,0,0,0,0,0,0,-1,1476,806,0,0
259,218,0,0,0,0,0,0,0,0,0,-1,1483,806,0,0
266,218,0,0,0,0,0,0,0,0,0,-1,1490,806,0,0
273,218,0,0,0,0,0,0,0,0,0,-1,1497,806,0,0
280,218,0,0,0,0,0,0,0,0,0,-1,1504,806,0,0
287,218,0,0,0,0,0,0,0,0,0,-1,1511,806,0,0
294,218,0,0,0,0,0,0,0,0,0,-1,1518,806,0,0
301,218,0,0,0,0,0,0,0,0,0,-1,1525,806,0,0
308,218,0,0,0,0,0,0,0,0,0,-1,1532,806,0,0
315,218,0,0,0,0,0,0,0,0,0,-1,1539,806,0,0
322,218,0,0,0,0,0,0,0,0,0,-1,1546,806,0,0
329,218,0,0,0,0,0,0,0,0,0,-1,1553,806,0,0
336,218,0,0,0,0,0,0,0,0,0,-1,1560,806,0,0
343,218,0,0,0,0,0,0,0,0,0,-1,1567,806,0,0
350,218,0,0,0,0,0,0,0,0,0,-1,1574,806,0,0
357,218,0,0,0,0,0,0,0,0,0,-1,1581,806,0,0
364,218,0,0,0,0,0,0,0,0,0,-1,1588,806,0,0
371,218,0,0,0,0,0,0,0,0,0,-1,1595,806,0,0
378,218,0,0,0,0,0,0,0,0,0,-1,1602,806,0,0
385,218,0,0,0,0,0,0,0,0,0,-1,1609,806,0,0
392,218,0,0,0,0,0,0,0,0,0,-1,1616,806,0,0
399,218,0,0,0,0,0,0,0,0,0,-1,1623,806,0,0
406,218,0,0,0,0,0,0,0,0,0,-1,1630,806,0,0
413,218,0,0,0,0,0,0,0,0,0,-1,1637,806,0,0
420,218,0,0,0,0,0,0,0,0,0,-1,1644,806,0,0
427,218,0,0,0,0,0,0,0,0,0,-1,1651,806,0,0
434,218,0,0,0,0,0,0,0,0,0,-1,1658,806,0,0
441,218,0,0,0,0,0,0,0,0,0,-1,1665,806,0,0
448,218,0,0,0,0,0,0,0,0,0,-1,1672,806,0,0
455,218,0,0,0,0,0,0,0,0,0,-1,1679,806,0,0
462,218,0,0,0,0,0,0,0,0,0,-1,1686,806,0,0
469,218,0,0,0,0,0,0,0,0,0,-1,1693,806,0,0
476,218,0,0,0,0,0,0,0,0,0,-1,1700,806,0,0
483,218,0,0,0,0,0,0,0,0,0,-1,1707,806,0,0
490,218,0,0,0,0,0,0,0,0,0,-1,1714,806,0,0
497,218,0,0,0,0,0,0,0,0,0,-1,1721,806,0,0
504,218,0,0,0,0,0,0,0,0,0,-1,1728,806,0,0
511,218,0,0,0,0,0,0,0,0,0,-1,1735,806,0,0
518,218,0,0,0,0,0,0,0,0,0,-1,1742,806,0,0
525,218,0,0,0,0,0,0,0,0,0,-1,1749,806,0,0
532,218,0,0,0,0,0,0,0,0,0,-1,1756,806,0,0
539,218,0,0,0,0,0,0,0,0,0,-1,1763,806,0,0
546,218,0,0,0,0,0,0,0,0,0,-1,1770,806,0,0
553,218,0,0,0,0,0,0,0,0,0,-1,1777,806,0,0
560,218,0,0,0,0,0,0,0,0,0,-1,1784,806,0,0
567,218,0,0,0,0,0,0,0,0,0,-1,1791,806,0,0
574,218,0,0,0,0,0,0,0,0,0,-1,1798,806,0,0
581,218,0,0,0,0,0,0,0,0,0,-1,1805,806,0,0
588,218,0,0,0,0,0,0,0,0,0,-1,1812,806,0,0
595,218,71.7673,2.48138,0.00136748,-0.00243186,0.000308123,0.0013923,-0.00245668,0.0803991,0.00225036,0.0367824,1819,806,71.7673,-2.48141
602,218,71.7601,2.44171,0.00224147,-0.00176727,0.000538656,0.00231258,-0.00183838,0.131269,0.00240177,0.0323012,1826,806,71.7601,-2.44173
609,218,71.7971,2.47699,0.00244937,-0.00119453,0.000516589,0.0025212,-0.00126635,0.138142,0.00222639,0.028664,1833,806,71.7971,-2.47697
616,218,71.804,2.44739,0.0023246,-0.000784449,0.000501287,0.00240342,-0.000863275,0.155971,0.00195465,0.0307574,1840,806,71.804,-2.44736
623,218,71.8394,2.37878,0.00213043,-0.000588733,0.000490742,0.00221628,-0.000674589,0.173199,0.00174637,0.0358052,1847,806,71.8394,-2.37879
630,218,71.9929,2.29016,0.0019134,-0.00053658,0.000510933,0.00201568,-0.000638863,0.197577,0.00159984,0.0445288,1854,806,71.993,-2.29017
637,218,72.1714,2.09875,0,0,0,0,0,0,0,-1,1861,806,72.1714,-2.09875
644,218,52.4042,2.47949,0,0,0,0,0,0,0,-1,1868,806,52.4041,-2.47949
651,218,41.7338,1.99164,0,0,0,0,0,0,0,-1,1875,806,41.7338,-1.99162
658,218,28.41,0.514954,0,0,0,0,0,0,0,-1,1882,806,28.41,-0.514983
665,218,52.1176,-2.84406,0,0,0,0,0,0,0,-1,1889,806,52.1176,2.84404
672,218,52.8506,-2.1853,0,0,0,0,0,0,0,-1,1896,806,52.8506,2.18533
679,218,52.8779,-1.33398,0,0,0,0,0,0,0,-1,1903,806,52.8779,1.33398
686,218,52.9304,-0.444336,-0.000756809,-0.0006554,-0.000757299,5.28906e-05,-0.0014651,-0.818826,0.000994832,0.0234342,1910,806,52.9304,0.444349
693,218,52.9402,0.405212,-0.000397147,-0.000517395,-0.000773042,0.000318106,-0.00123265,-0.746588,0.000945803,0.0126242,1917,806,52.9402,-0.405217
700,218,52.887,1.24878,-1.87582e-05,-0.000137308,-0.000554354,0.000479481,-0.000635547,-0.732137,0.000645861,0.0101454,1924,806,52.8869,-1.24878
707,218,52.8209,2.10541,0.000288797,0.000387687,4.2139e-06,0.000387866,0.000288618,1.52829,0.000232661,0.00848768,1931,806,52.8209,-2.1054
714,218,52.7903,2.97925,0.000652446,0.000910725,0.000726876,0.00151984,4.33267e-05,0.873313,0.000999101,0.0106027,1938,806,52.7903,-2.97924
721,218,52.7834,3.82037,0.000989586,0.00119549,0.00155924,0.00265518,-0.000470101,0.818364,0.00194584,0.0146088,1945,806,52.7835,-3.82039
728,218,52.7211,4.73792,0.00131633,0.00111549,0.00247539,0.00369334,-0.00126151,0.765126,0.00297331,0.0302572,1952,806,52.7211,-4.73794
735,218,52.8188,5.78906,0,0,0,0,0,0,0,-1,1959,806,52.8188,-5.78907
742,218,47.8733,6.84155,0,0,0,0,0,0,0,-1,1966,806,47.8733,-6.84158
749,218,42.0249,6.64703,0,0,0,0,0,0,0,-1,1973,806,42.0249,-6.64703
756,218,52.2689,6.47815,0,0,0,0,0,0,0,-1,1980,806,52.269,-6.47814
763,218,43.213,9.0448,0,0,0,0,0,0,0,-1,1987,806,43.213,-9.04478
770,218,0,0,0,0,0,0,0,0,0,-1,1994,806,0,0
777,218,0,0,0,0,0,0,0,0,0,-1,2001,806,0,0
784,218,0,0,0,0,0,0,0,0,0,-1,2008,806,0,0
791,218,0,0,0,0,0,0,0,0,0,-1,2015,806,0,0
798,218,0,0,0,0,0,0,0,0,0,-1,2022,806,0,0
805,218,0,0,0,0,0,0,0,0,0,-1,2029,806,0,0
812,218,0,0,0,0,0,0,0,0,0,-1,2036,806,0,0
-700,211,0,0,0,0,0,0,0,0,0,-1,524,813,0,0
-693,211,0,0,0,0,0,0,0,0,0,-1,531,813,0,0
-686,211,0,0,0,0,0,0,0,0,0,-1,538,813,0,0
-679,211,0,0,0,0,0,0,0,0,0,-1,545,813,0,0
-672,211,0,0,0,0,0,0,0,0,0,-1,552,813,0,0
-665,211,0,0,0,0,0,0,0,0,0,-1,559,813,0,0
-658,211,0,0,0,0,0,0,0,0,0,-1,566,813,0,0
-651,211,-40.2495,5.20386,0,0,0,0,0,0,0,-1,573,813,-40.2494,-5.20384
-644,211,-40.6288,4.32092,0,0,0,0,0,0,0,-1,580,813,-40.6288,-4.3209
-637,211,-41.3664,3.51849,0,0,0,0,0,0,0,-1,587,813,-41.3664,-3.51847
-630,211,-41.9262,2.94977,0,0,0,0,0,0,0,-1,594,813,-41.9262,-2.94975
-623,211,-42.5012,2.62903,0,0,0,0,0,0,0,-1,601,813,-42.5011,-2.629
-616,211,-38.489,5.52338,0,0,0,0,0,0,0,-1,608,813,-38.489,-5.5234
-609,211,-38.3497,4.66809,0.000374443,0.00584,-0.0105734,0.0140281,-0.00781364,-0.911859,0.0127793,0.0415856,615,813,-38.3498,-4.66811
-602,211,-38.4156,3.82098,-3.06703e-05,0.0047477,-0.00770069,0.0104213,-0.00570429,-0.935818,0.00944197,0.0225559,622,813,-38.4156,-3.82098
-595,211,-38.5757,3.0141,-8.73731e-05,0.00393138,-0.00541948,0.007702,-0.00385799,-0.962926,0.00679605,0.010994,629,813,-38.5758,-3.01408
-588,211,-38.6389,2.16986,5.93073e-07,0.00358506,-0.00343327,0.00566574,-0.00208008,-1.02595,0.00462902,0.0113392,636,813,-38.6389,-2.16988
-581,211,-38.6831,1.34503,0.000154212,0.00337948,-0.00160842,0.00404448,-0.000510784,-1.17875,0.00288171,0.0118228,643,813,-38.6831,-1.34501
-574,211,-38.7171,0.509583,0.000178665,0.00347463,-0.00011019,0.00347831,0.000174985,-1.53741,0.0022628,0.0134339,650,813,-38.7171,-0.509607
-567,211,-38.7912,-0.354858,-4.28268e-05,0.0040154,0.000885168,0.00420007,-0.000227493,1.36512,0.00287888,0.0212689,657,813,-38.7912,0.354863
-560,211,-38.8495,-1.24945,-0.000389795,0.00513646,0.00157749,0.00555505,-0.000808391,1.31142,0.00400015,0.0376111,664,813,-38.8496,1.24948
-553,211,-38.8955,-2.30884,0,0,0,0,0,0,0,-1,671,813,-38.8955,2.30886
-546,211,-38.8427,-3.42041,0,0,0,0,0,0,0,-1,678,813,-38.8427,3.42039
-539,211,-39.0244,-3.78796,0,0,0,0,0,0,0,-1,685,813,-39.0243,3.78798
-532,211,-38.9215,-4.52527,0,0,0,0,0,0,0,-1,692,813,-38.9215,4.52526
-525,211,-14.3009,2.3233,0,0,0,0,0,0,0,-1,699,813,-14.3009,-2.3233
-518,211,-34.952,1.93011,0,0,0,0,0,0,0,-1,706,813,-34.952,-1.9301
-511,211,-53.0876,0.677734,0,0,0,0,0,0,0,-1,713,813,-53.0876,-0.677737
-504,211,-55.5263,0.973267,0,0,0,0,0,0,0,-1,720,813,-55.5263,-0.97324
-497,211,-55.8043,0.858582,-0.000161511,0.00772476,0.00407639,0.00945307,-0.00188982,1.16979,0.00701733,0.0468518,727,813,-55.8043,-0.858579
-490,211,-56.0169,0.735413,0.00112745,0.00618504,0.00349313,0.00796864,-0.000656148,1.0987,0.0055441,0.0355253,734,813,-56.0169,-0.735403
-483,211,-56.0513,0.735168,0.00398276,0.00388227,0.00230032,0.00623339,0.00163164,0.774479,0.00373254,0.0341802,741,813,-56.0513,-0.735155
-476,211,-55.9095,0.753052,0.00985436,-0.00065489,0.000855552,0.00992355,-0.000724085,0.0807012,0.00686979,0.0394184,748,813,-55.9096,-0.753075
-469,211,0,0,0,0,0,0,0,0,0,-1,755,813,0,0
-462,211,0,0,0,0,0,0,0,0,0,-1,762,813,0,0
-455,211,0,0,0,0,0,0,0,0,0,-1,769,813,0,0
-448,211,0,0,0,0,0,0,0,0,0,-1,776,813,0,0
-441,211,0,0,0,0,0,0,0,0,0,-1,783,813,0,0
-434,211,0,0,0,0,0,0,0,0,0,-1,790,813,0,0
-427,211,0,0,0,0,0,0,0,0,0,-1,797,813,0,0
-420,211,0,0,0,0,0,0,0,0,0,-1,804,813,0,0
-413,211,0,0,0,0,0,0,0,0,0,-1,811,813,0,0
-406,211,0,0,0,0,0,0,0,0,0,-1,818,813,0,0
-399,211,0,0,0,0,0,0,0,0,0,-1,825,813,0,0
-392,211,0,0,0,0,0,0,0,0,0,-1,832,813,0,0
-385,211,0,0,0,0,0,0,0,0,0,-1,839,813,0,0
-378,211,0,0,0,0,0,0,0,0,0,-1,846,813,0,0
-371,211,0,0,0,0,0,0,0,0,0,-1,853,813,0,0
-364,211,0,0,0,0,0,0,0,0,0,-1,860,813,0,0
-357,211,0,0,0,0,0,0,0,0,0,-1,867,813,0,0
-350,211,0,0,0,0,0,0,0,0,0,-1,874,813,0,0
-343,211,0,0,0,0,0,0,0,0,0,-1,881,813,0,0
-336,211,0,0,0,0,0,0,0,0,0,-1,888,813,0,0
-329,211,0,0,0,0,0,0,0,0,0,-1,895,813,0,0
-322,211,0,0,0,0,0,0,0,0,0,-1,902,813,0,0
-315,211,0,0,0,0,0,0,0,0,0,-1,909,813,0,0
-308,211,0,0,0,0,0,0,0,0,0,-1,916,813,0,0
-301,211,0,0,0,0,0,0,0,0,0,-1,923,813,0,0
-294,211,0,0,0,0,0,0,0,0,0,-1,930,813,0,0
-287,211,0,0,0,0,0,0,0,0,0,-1,937,813,0,0
-280,211,0,0,0,0,0,0,0,0,0,-1,944,813,0,0
-273,211,0,0,0,0,0,0,0,0,0,-1,951,813,0,0
-266,211,0,0,0,0,0,0,0,0,0,-1,958,813,0,0
-259,211,0,0,0,0,0,0,0,0,0,-1,965,813,0,0
-252,211,0,0,0,0,0,0,0,0,0,-1,972,813,0,0
-245,211,0,0,0,0,0,0,0,0,0,-1,979,813,0,0
-238,211,0,0,0,0,0,0,0,0,0,-1,986,813,0,0
-231,211,0,0,0,0,0,0,0,0,0,-1,993,813,0,0
-224,211,0,0,0,0,0,0,0,0,0,-1,1000,813,0,0
-217,211,0,0,0,0,0,0,0,0,0,-1,1007,813,0,0
-210,211,0,0,0,0,0,0,0,0,0,-1,1014,813,0,0
-203,211,0,0,0,0,0,0,0,0,0,-1,1021,813,0,0
-196,211,0,0,0,0,0,0,0,0,0,-1,1028,813,0,0
-189,211,0,0,0,0,0,0,0,0,0,-1,1035,813,0,0
-182,211,0,0,0,0,0,0,0,0,0,-1,1042,813,0,0
-175,211,0,0,0,0,0,0,0,0,0,-1,1049,813,0,0
-168,211,0,0,0,0,0,0,0,0,0,-1,1056,813,0,0
-161,211,0,0,0,0,0,0,0,0,0,-1,1063,813,0,0
-154,211,0,0,0,0,0,0,0,0,0,-1,1070,813,0,0
-147,211,0,0,0,0,0,0,0,0,0,-1,1077,813,0,0
-140,211,0,0,0,0,0,0,0,0,0,-1,1084,813,0,0
-133,211,0,0,0,0,0,0,0,0,0,-1,1091,813,0,0
-126,211,0,0,0,0,0,0,0,0,0,-1,1098,813,0,0
-119,211,0,0,0,0,0,0,0,0,0,-1,1105,813,0,0
-112,211,0,0,0,0,0,0,0,0,0,-1,1112,813,0,0
-105,211,0,0,0,0,0,0,0,0,0,-1,1119,813,0,0
-98,211,0,0,0,0,0,0,0,0,0,-1,1126,813,0,0
-91,211,0,0,0,0,0,0,0,0,0,-1,1133,813,0,0
-84,211,0,0,0,0,0,0,0,0,0,-1,1140,813,0,0
-77,211,0,0,0,0,0,0,0,0,0,-1,1147,813,0,0
-70,211,0,0,0,0,0,0,0,0,0,-1,1154,813,0,0
-63,211,0,0,0,0,0,0,0,0,0,-1,1161,813,0,0
-56,211,0,0,0,0,0,0,0,0,0,-1,1168,813,0,0
-49,211,0,0,0,0,0,0,0,0,0,-1,1175,813,0,0
-42,211,0,0,0,0,0,0,0,0,0,-1,1182,813,0,0
-35,211,0,0,0,0,0,0,0,0,0,-1,1189,813,0,0
-28,211,0,0,0,0,0,0,0,0,0,-1,1196,813,0,0
-21,211,0,0,0,0,0,0,0,0,0,-1,1203,813,0,0
-14,211,0,0,0,0,0,0,0,0,0,-1,1210,813,0,0
-7,211,0,0,0,0,0,0,0,0,0,-1,1217,813,0,0
0,211,0,0,0,0,0,0,0,0,0,-1,1224,813,0,0
7,211,0,0,0,0,0,0,0,0,0,-1,1231,813,0,0
14,211,0,0,0,0,0,0,0,0,0,-1,1238,813,0,0
21,211,0,0,0,0,0,0,0,0,0,-1,1245,813,0,0
28,211,0,0,0,0,0,0,0,0,0,-1,1252,813,0,0
35,211,0,0,0,0,0,0,0,0,0,-1,1259,813,0,0
42,211,0,0,0,0,0,0,0,0,0,-1,1266,813,0,0
49,211,0,0,0,0,0,0,0,0,0,-1,1273,813,0,0
56,211,0,0,0,0,0,0,0,0,0,-1,1280,813,0,0
63,211,0,0,0,0,0,0,0,0,0,-1,1287,813,0,0
70,211,0,0,0,0,0,0,0,0,0,-1,1294,813,0,0
77,211,0,0,0,0,0,0,0,0,0,-1,1301,813,0,0
84,211,0,0,0,0,0,0,0,0,0,-1,1308,813,0,0
91,211,0,0,0,0,0,0,0,0,0,-1,1315,813,0,0
98,211,0,0,0,0,0,0,0,0,0,-1,1322,813,0,0
105,211,0,0,0,0,0,0,0,0,0,-1,1329,813,0,0
112,211,0,0,0,0,0,0,0,0,0,-1,1336,813,0,0
119,211,0,0,0,0,0,0,0,0,0,-1,1343,813,0,0
126,211,0,0,0,0,0,0,0,0,0,-1,1350,813,0,0
133,211,0,0,0,0,0,0,0,0,0,-1,1357,813,0,0
140,211,0,0,0,0,0,0,0,0,0,-1,1364,813,0,0
147,211,0,0,0,0,0,0,0,0,0,-1,1371,813,0,0
154,211,0,0,0,0,0,0,0,0,0,-1,1378,813,0,0
161,211,0,0,0,0,0,0,0,0,0,-1,1385,813,0,0
168,211,0,0,0,0,0,0,0,0,0,-1,1392,813,0,0
175,211,0,0,0,0,0,0,0,0,0,-1,1399,813,0,0
182,211,0,0,0,0,0,0,0,0,0,-1,1406,813,0,0
189,211,0,0,0,0,0,0,0,0,0,-1,1413,813,0,0
196,211,0,0,0,0,0,0,0,0,0,-1,1420,813,0,0
203,211,0,0,0,0,0,0,0,0,0,-1,1427,813,0,0
210,211,0,0,0,0,0,0,0,0,0,-1,1434,813,0,0
217,211,0,0,0,0,0,0,0,0,0,-1,1441,813,0,0
224,211,0,0,0,0,0,0,0,0,0,-1,1448,813,0,0
231,211,0,0,0,0,0,0,0,0,0,-1,1455,813,0,0
238,211,0,0,0,0,0,0,0,0,0,-1,1462,813,0,0
245,211,0,0,0,0,0,0,0,0,0,-1,1469,813,0,0
252,211,0,0,0,0,0,0,0,0,0,-1,1476,813,0,0
259,211,0,0,0,0,0,0,0,0,0,-1,1483,813,0,0
266,211,0,0,0,0,0,0,0,0,0,-1,1490,813,0,0
273,211,0,0,0,0,0,0,0,0,0,-1,1497,813,0,0
280,211,0,0,0,0,0,0,0,0,0,-1,1504,813,0,0
287,211,0,0,0,0,0,0,0,0,0,-1,1511,813,0,0
294,211,0,0,0,0,0,0,0,0,0,-1,1518,813,0,0
301,211,0,0,0,0,0,0,0,0,0,-1,1525,813,0,0
308,211,0,0,0,0,0,0,0,0,0,-1,1532,813,0,0
315,211,0,0,0,0,0,0,0,0,0,-1,1539,813,0,0
322,211,0,0,0,0,0,0,0,0,0,-1,1546,813,0,0
329,211,0,0,0,0,0,0,0,0,0,-1,1553,813,0,0
336,211,0,0,0,0,0,0,0,0,0,-1,1560,813,0,0
343,211,0,0,0,0,0,0,0,0,0,-1,1567,813,0,0
350,211,0,0,0,0,0,0,0,0,0,-1,1574,813,0,0
357,211,0,0,0,0,0,0,0,0,0,-1,1581,813,0,0
364,211,0,0,0,0,0,0,0,0,0,-1,1588,813,0,0
371,211,0,0,0,0,0,0,0,0,0,-1,1595,813,0,0
378,211,0,0,0,0,0,0,0,0,0,-1,1602,813,0,0
385,211,0,0,0,0,0,0,0,0,0,-1,1609,813,0,0
392,211,0,0,0,0,0,0,0,0,0,-1,1616,813,0,0
399,211,0,0,0,0,0,0,0,0,0,-1,1623,813,0,0
406,211,0,0,0,0,0,0,0,0,0,-1,1630,813,0,0
413,211,0,0,0,0,0,0,0,0,0,-1,1637,813,0,0
420,211,0,0,0,0,0,0,0,0,0,-1,1644,813,0,0
427,211,0,0,0,0,0,0,0,0,0,-1,1651,813,0,0
434,211,0,0,0,0,0,0,0,0,0,-1,1658,813,0,0
441,211,0,0,0,0,0,0,0,0,0,-1,1665,813,0,0
448,211,0,0,0,0,0,0,0,0,0,-1,1672,813,0,0
455,211,0,0,0,0,0,0,0,0,0,-1,1679,813,0,0
462,211,0,0,0,0,0,0,0,0,0,-1,1686,813,0,0
469,211,0,0,0,0,0,0,0,0,0,-1,1693,813,0,0
476,211,0,0,0,0,0,0,0,0,0,-1,1700,813,0,0
483,211,0,0,0,0,0,0,0,0,0,-1,1707,813,0,0
490,211,0,0,0,0,0,0,0,0,0,-1,1714,813,0,0
497,211,0,0,0,0,0,0,0,0,0,-1,1721,813,0,0
504,211,0,0,0,0,0,0,0,0,0,-1,1728,813,0,0
511,211,0,0,0,0,0,0,0,0,0,-1,1735,813,0,0
518,211,0,0,0,0,0,0,0,0,0,-1,1742,813,0,0
525,211,0,0,0,0,0,0,0,0,0,-1,1749,813,0,0
532,211,0,0,0,0,0,0,0,0,0,-1,1756,813,0,0
539,211,0,0,0,0,0,0,0,0,0,-1,1763,813,0,0
546,211,0,0,0,0,0,0,0,0,0,-1,1770,813,0,0
553,211,0,0,0,0,0,0,0,0,0,-1,1777,813,0,0
560,211,0,0,0,0,0,0,0,0,0,-1,1784,813,0,0
567,211,0,0,0,0,0,0,0,0,0,-1,1791,813,0,0
574,211,0,0,0,0,0,0,0,0,0,-1,1798,813,0,0
581,211,0,0,0,0,0,0,0,0,0,-1,1805,813,0,0
588,211,0,0,0,0,0,0,0,0,0,-1,1812,813,0,0
595,211,71.7909,2.39691,0.000256778,-0.0032415,0.000103074,0.000259812,-0.00324454,0.0294301,0.00225462,0.0374933,1819,813,71.7909,-2.39689
602,211,71.8552,2.36523,0.00124811,-0.00252142,0.00033704,0.00127801,-0.00255132,0.0884767,0.00225123,0.0363702,1826,813,71.8552,-2.36522
609,211,71.8381,2.43134,0.00180068,-0.00170151,0.000387345,0.00184301,-0.00174384,0.108848,0.00207113,0.0358337,1833,813,71.8381,-2.43134
616,211,71.8339,2.48566,0.00191523,-0.00104871,0.000384904,0.0019644,-0.00109788,0.127055,0.00179144,0.0305093,1840,813,71.8339,-2.48564
623,211,71.8639,2.41504,0.00187001,-0.000637612,0.000379322,0.00192613,-0.000693735,0.146891,0.00156737,0.031254,1847,813,71.8639,-2.41505
630,211,71.9065,2.27386,0.00176156,-0.000471336,0.000379199,0.0018242,-0.000533975,0.163711,0.00142781,0.0359681,1854,813,71.9065,-2.27386
637,211,71.7395,2.45532,0,0,0,0,0,0,0,-1,1861,813,71.7395,-2.45534
644,211,66.401,2.3595,0,0,0,0,0,0,0,-1,1868,813,66.401,-2.35952
651,211,48.5043,2.95557,0,0,0,0,0,0,0,-1,1875,813,48.5043,-2.95558
658,211,27.7909,1.52234,0,0,0,0,0,0,0,-1,1882,813,27.7909,-1.52234
665,211,42.2053,-0.745605,0,0,0,0,0,0,0,-1,1889,813,42.2054,0.745605
672,211,53.189,-1.99603,0,0,0,0,0,0,0,-1,1896,813,53.189,1.99603
679,211,54.1849,-0.959167,0,0,0,0,0,0,0,-1,1903,813,54.185,0.959162
686,211,53.8289,-0.401428,-0.00122093,-0.000802291,-0.000957531,-3.14685e-05,-0.00199175,-0.893007,0.00131747,0.0271802,1910,813,53.8289,0.401424
693,211,53.7876,0.434937,-0.000905103,-0.000855771,-0.00109512,0.000214958,-0.00197583,-0.796658,0.00139441,0.0140641,1917,813,53.7876,-0.434941
700,211,53.6877,1.26294,-0.000537393,-0.000579813,-0.000974851,0.000416478,-0.00153368,-0.774521,0.00118592,0.0139067,1924,813,53.6878,-1.26292
707,211,53.6831,2.15607,-0.000244178,-0.000153033,-0.000481268,0.000284815,-0.000682027,-0.832604,0.000573694,0.0221345,1931,813,53.6831,-2.1561
714,211,53.6912,3.02637,0.000174398,0.000360368,0.000230981,0.000516378,1.83885e-05,0.976756,0.000338289,0.0230165,1938,813,53.6912,-3.02634
721,211,53.6318,3.8418,0.000547834,0.000648845,0.00103538,0.00163495,-0.000438273,0.809769,0.00126169,0.0185934,1945,813,53.6318,-3.84177
728,211,53.6069,4.68542,0.000885121,0.000595116,0.00188831,0.00263399,-0.00115375,0.747078,0.00224182,0.0199919,1952,813,53.607,-4.6854
735,211,53.6516,5.64032,0.00117037,4.75378e-05,0.00275212,0.00341776,-0.00219985,0.684782,0.00326863,0.0375036,1959,813,53.6517,-5.64031
742,211,53.8561,6.57733,0,0,0,0,0,0,0,-1,1966,813,53.8561,-6.57733
749,211,53.261,6.45483,0,0,0,0,0,0,0,-1,1973,813,53.261,-6.45486
756,211,53.2128,6.95563,0,0,0,0,0,0,0,-1,1980,813,53.2127,-6.95565
763,211,53.3961,7.48029,0,0,0,0,0,0,0,-1,1987,813,53.3961,-7.48027
770,211,46.2148,12.9099,0,0,0,0,0,0,0,-1,1994,813,46.2148,-12.9099
777,211,0,0,0,0,0,0,0,0,0,-1,2001,813,0,0
784,211,0,0,0,0,0,0,0,0,0,-1,2008,813,0,0
791,211,0,0,0,0,0,0,0,0,0,-1,2015,813,0,0
798,211,0,0,0,0,0,0,0,0,0,-1,2022,813,0,0
805,211,0,0,0,0,0,0,0,0,0,-1,2029,813,0,0
812,211,0,0,0,0,0,0,0,0,0,-1,2036,813,0,0
-700,204,0,0,0,0,0,0,0,0,0,-1,524,820,0,0
-693,204,0,0,0,0,0,0,0,0,0,-1,531,820,0,0
-686,204,0,0,0,0,0,0,0,0,0,-1,538,820,0,0
-679,204,0,0,0,0,0,0,0,0,0,-1,545,820,0,0
-672,204,0,0,0,0,0,0,0,0,0,-1,552,820,0,0
-665,204,0,0,0,0,0,0,0,0,0,-1,559,820,0,0
-658,204,0,0,0,0,0,0,0,0,0,-1,566,820,0,0
-651,204,-40.064,5.25806,0,0,0,0,0,0,0,-1,573,820,-40.064,-5.25806
-644,204,-40.4117,4.54321,0,0,0,0,0,0,0,-1,580,820,-40.4117,-4.54323
-637,204,-40.8671,3.93817,0,0,0,0,0,0,0,-1,587,820,-40.8671,-3.93819
-630,204,-41.7101,3.04382,0,0,0,0,0,0,0,-1,594,820,-41.7101,-3.04383
-623,204,-41.8597,2.11951,0,0,0,0,0,0,0,-1,601,820,-41.8597,-2.11951
-616,204,-39.7637,5.53204,0,0,0,0,0,0,0,-1,608,820,-39.7638,-5.53202
-609,204,-39.4454,4.70142,0.000731075,0.00591896,-0.00908962,0.0127775,-0.00612749,-0.924391,0.0111376,0.034551,615,820,-39.4454,-4.70144
-602,204,-39.3333,3.87561,0.00018758,0.00471239,-0.00631019,0.00915348,-0.00425352,-0.957526,0.00791098,0.018111,622,820,-39.3332,-3.87558
-595,204,-39.4178,3.05701,-6.80556e-05,0.00382093,-0.0040829,0.00639873,-0.00264585,-1.00763,0.00536964,0.0160601,629,820,-39.4178,-3.05701
-588,204,-39.4686,2.22382,-0.000179862,0.00332684,-0.00217714,0.00436887,-0.00122189,-1.12439,0.003394,0.014137,636,820,-39.4686,-2.22382
-581,204,-39.5208,1.38037,-0.000139491,0.00302482,-0.000463992,0.00309146,-0.000206124,-1.42816,0.002133,0.0134338,643,820,-39.5207,-1.38037
-574,204,-39.5477,0.543274,-0.000196481,0.00311868,0.000757734,0.00328366,-0.000361463,1.35641,0.002319,0.014479,650,820,-39.5477,-0.543288
-567,204,-39.5775,-0.276184,-0.00043886,0.00374568,0.00127099,0.00410147,-0.000794651,1.29785,0.00303408,0.0156894,657,820,-39.5775,0.276161
-560,204,-39.605,-1.11407,0,0,0,0,0,0,0,-1,664,820,-39.605,1.11409
-553,204,-38.7455,-1.98621,0,0,0,0,0,0,0,-1,671,820,-38.7455,1.98622
-546,204,-32.433,-2.2323,0,0,0,0,0,0,0,-1,678,820,-32.433,2.23228
-539,204,-39.7833,-3.58197,0,0,0,0,0,0,0,-1,685,820,-39.7833,3.58198
-532,204,-30.0565,-3.29065,0,0,0,0,0,0,0,-1,692,820,-30.0565,3.29063
-525,204,-25.7137,1.52496,0,0,0,0,0,0,0,-1,699,820,-25.7137,-1.52496
-518,204,-43.4591,0.383972,0,0,0,0,0,0,0,-1,706,820,-43.4591,-0.383942
-511,204,-55.7295,0.629883,0,0,0,0,0,0,0,-1,713,820,-55.7295,-0.629855
-504,204,-55.7861,0.799744,-0.000268882,0.00996022,0.00392268,0.0112913,-0.00159995,1.24366,0.0081136,0.0460914,720,820,-55.7862,-0.799757
-497,204,-55.9622,0.782593,0.000722184,0.00884468,0.00389571,0.0104111,-0.000844204,1.1885,0.00723854,0.0383833,727,820,-55.9622,-0.782613
-490,204,-56.0753,0.750793,0.00315776,0.00694519,0.00308973,0.00867536,0.00142758,1.06033,0.00537133,0.0347861,734,820,-56.0753,-0.750807
-483,204,-56.0545,0.656555,0.00843066,0.00312996,0.001372,0.00876473,0.00279589,0.238841,0.00516966,0.0417782,741,820,-56.0545,-0.656534
-476,204,0,0,0,0,0,0,0,0,0,-1,748,820,0,0
-469,204,0,0,0,0,0,0,0,0,0,-1,755,820,0,0
-462,204,0,0,0,0,0,0,0,0,0,-1,762,820,0,0
-455,204,0,0,0,0,0,0,0,0,0,-1,769,820,0,0
-448,204,0,0,0,0,0,0,0,0,0,-1,776,820,0,0
-441,204,0,0,0,0,0,0,0,0,0,-1,783,820,0,0
-434,204,0,0,0,0,0,0,0,0,0,-1,790,820,0,0
-427,204,0,0,0,0,0,0,0,0,0,-1,797,820,0,0
-420,204,0,0,0,0,0,0,0,0,0,-1,804,820,0,0
-413,204,0,0,0,0,0,0,0,0,0,-1,811,820,0,0
-406,204,0,0,0,0,0,0,0,0,0,-1,818,820,0,0
-399,204,0,0,0,0,0,0,0,0,0,-1,825,820,0,0
-392,204,0,0,0,0,0,0,0,0,0,-1,832,820,0,0
-385,204,0,0,0,0,0,0,0,0,0,-1,839,820,0,0
-378,204,0,0,0,0,0,0,0,0,0,-1,846,820,0,0
-371,204,0,0,0,0,0,0,0,0,0,-1,853,820,0,0
-364,204,0,0,0,0,0,0,0,0,0,-1,860,820,0,0
-357,204,0,0,0,0,0,0,0,0,0,-1,867,820,0,0
-350,204,0,0,0,0,0,0,0,0,0,-1,874,820,0,0
-343,204,0,0,0,0,0,0,0,0,0,-1,881,820,0,0
-336,204,0,0,0,0,0,0,0,0,0,-1,888,820,0,0
-329,204,0,0,0,0,0,0,0,0,0,-1,895,820,0,0
-322,204,0,0,0,0,0,0,0,0,0,-1,902,820,0,0
-315,204,0,0,0,0,0,0,0,0,0,-1,909,820,0,0
-308,204,0,0,0,0,0,0,0,0,0,-1,916,820,0,0
-301,204,0,0,0,0,0,0,0,0,0,-1,923,820,0,0
-294,204,0,0,0,0,0,0,0,0,0,-1,930,820,0,0
-287,204,0,0,0,0,0,0,0,0,0,-1,937,820,0,0
-280,204,0,0,0,0,0,0,0,0,0,-1,944,820,0,0
-273,204,0,0,0,0,0,0,0,0,0,-1,951,820,0,0
-266,204,0,0,0,0,0,0,0,0,0,-1,958,820,0,0
-259,204,0,0,0,0,0,0,0,0,0,-1,965,820,0,0
-252,204,0,0,0,0,0,0,0,0,0,-1,972,820,0,0
-245,204,0,0,0,0,0,0,0,0,0,-1,979,820,0,0
-238,204,0,0,0,0,0,0,0,0,0,-1,986,820,0,0
-231,204,0,0,0,0,0,0,0,0,0,-1,993,820,0,0
-224,204,0,0,0,0,0,0,0,0,0,-1,1000,820,0,0
-217,204,0,0,0,0,0,0,0,0,0,-1,1007,820,0,0
-210,204,0,0,0,0,0,0,0,0,0,-1,1014,820,0,0
-203,204,0,0,0,0,0,0,0,0,0,-1,1021,820,0,0
-196,204,0,0,0,0,0,0,0,0,0,-1,1028,820,0,0
-189,204,0,0,0,0,0,0,0,0,0,-1,1035,820,0,0
-182,204,0,0,0,0,0,0,0,0,0,-1,1042,820,0,0
-175,204,0,0,0,0,0,0,0,0,0,-1,1049,820,0,0
-168,204,0,0,0,0,0,0,0,0,0,-1,1056,820,0,0
-161,204,0,0,0,0,0,0,0,0,0,-1,1063,820,0,0
-154,204,0,0,0,0,0,0,0,0,0,-1,1070,820,0,0
-147,204,0,0,0,0,0,0,0,0,0,-1,1077,820,0,0
-140,204,0,0,0,0,0,0,0,0,0,-1,1084,820,0,0
-133,204,0,0,0,0,0,0,0,0,0,-1,1091,820,0,0
-126,204,0,0,0,0,0,0,0,0,0,-1,1098,820,0,0
-119,204,0,0,0,0,0,0,0,0,0,-1,1105,820,0,0
-112,204,0,0,0,0,0,0,0,0,0,-1,1112,820,0,0
-105,204,0,0,0,0,0,0,0,0,0,-1,1119,820,0,0
-98,204,0,0,0,0,0,0,0,0,0,-1,1126,820,0,0
-91,204,0,0,0,0,0,0,0,0,0,-1,1133,820,0,0
-84,204,0,0,0,0,0,0,0,0,0,-1,1140,820,0,0
-77,204,0,0,0,0,0,0,0,0,0,-1,1147,820,0,0
-70,204,0,0,0,0,0,0,0,0,0,-1,1154,820,0,0
-63,204,0,0,0,0,0,0,0,0,0,-1,1161,820,0,0
-56,204,0,0,0,0,0,0,0,0,0,-1,1168,820,0,0
-49,204,0,0,0,0,0,0,0,0,0,-1,1175,820,0,0
-42,204,0,0,0,0,0,0,0,0,0,-1,1182,820,0,0
-35,204,0,0,0,0,0,0,0,0,0,-1,1189,820,0,0
-28,204,0,0,0,0,0,0,0,0,0,-1,1196,820,0,0
-21,204,0,0,0,0,0,0,0,0,0,-1,1203,820,0,0
-14,204,0,0,0,0,0,0,0,0,0,-1,1210,820,0,0
-7,204,0,0,0,0,0,0,0,0,0,-1,1217,820,0,0
0,204,0,0,0,0,0,0,0,0,0,-1,1224,820,0,0
7,204,0,0,0,0,0,0,0,0,0,-1,1231,820,0,0
14,204,0,0,0,0,0,0,0,0,0,-1,1238,820,0,0
21,204,0,0,0,0,0,0,0,0,0,-1,1245,820,0,0
28,204,0,0,0,0,0,0,0,0,0,-1,1252,820,0,0
35,204,0,0,0,0,0,0,0,0,0,-1,1259,820,0,0
42,204,0,0,0,0,0,0,0,0,0,-1,1266,820,0,0
49,204,0,0,0,0,0,0,0,0,0,-1,1273,820,0,0
56,204,0,0,0,0,0,0,0,0,0,-1,1280,820,0,0
63,204,0,0,0,0,0,0,0,0,0,-1,1287,820,0,0
70,204,0,0,0,0,0,0,0,0,0,-1,1294,820,0,0
77,204,0,0,0,0,0,0,0,0,0,-1,1301,820,0,0
84,204,0,0,0,0,0,0,0,0,0,-1,1308,820,0,0
91,204,0,0,0,0,0,0,0,0,0,-1,1315,820,0,0
98,204,0,0,0,0,0,0,0,0,0,-1,1322,820,0,0
105,204,0,0,0,0,0,0,0,0,0,-1,1329,820,0,0
112,204,0,0,0,0,0,0,0,0,0,-1,1336,820,0,0
119,204,0,0,0,0,0,0,0,0,0,-1,1343,820,0,0
126,204,0,0,0,0,0,0,0,0,0,-1,1350,820,0,0
133,204,0,0,0,0,0,0,0,0,0,-1,1357,820,0,0
140,204,0,0,0,0,0,0,0,0,0,-1,1364,820,0,0
147,204,0,0,0,0,0,0,0,0,0,-1,1371,820,0,0
154,204,0,0,0,0,0,0,0,0,0,-1,1378,820,0,0
161,204,0,0,0,0,0,0,0,0,0,-1,1385,820,0,0
168,204,0,0,0,0,0,0,0,0,0,-1,1392,820,0,0
175,204,0,0,0,0,0,0,0,0,0,-1,1399,820,0,0
182,204,0,0,0,0,0,0,0,0,0,-1,1406,820,0,0
189,204,0,0,0,0,0,0,0,0,0,-1,1413,820,0,0
196,204,0,0,0,0,0,0,0,0,0,-1,1420,820,0,0
203,204,0,0,0,0,0,0,0,0,0,-1,1427,820,0,0
210,204,0,0,0,0,0,0,0,0,0,-1,1434,820,0,0
217,204,0,0,0,0,0,0,0,0,0,-1,1441,820,0,0
224,204,0,0,0,0,0,0,0,0,0,-1,1448,820,0,0
231,204,0,0,0,0,0,0,0,0,0,-1,1455,820,0,0
238,204,0,0,0,0,0,0,0,0,0,-1,1462,820,0,0
245,204,0,0,0,0,0,0,0,0,0,-1,1469,820,0,0
252,204,0,0,0,0,0,0,0,0,0,-1,1476,820,0,0
259,204,0,0,0,0,0,0,0,0,0,-1,1483,820,0,0
266,204,0,0,0,0,0,0,0,0,0,-1,1490,820,0,0
273,204,0,0,0,0,0,0,0,0,0,-1,1497,820,0,0
280,204,0,0,0,0,0,0,0,0,0,-1,1504,820,0,0
287,204,0,0,0,0,0,0,0,0,0,-1,1511,820,0,0
294,204,0,0,0,0,0,0,0,0,0,-1,1518,820,0,0
301,204,0,0,0,0,0,0,0,0,0,-1,1525,820,0,0
308,204,0,0,0,0,0,0,0,0,0,-1,1532,820,0,0
315,204,0,0,0,0,0,0,0,0,0,-1,1539,820,0,0
322,204,0,0,0,0,0,0,0,0,0,-1,1546,820,0,0
329,204,0,0,0,0,0,0,0,0,0,-1,1553,820,0,0
336,204,0,0,0,0,0,0,0,0,0,-1,1560,820,0,0
343,204,0,0,0,0,0,0,0,0,0,-1,1567,820,0,0
350,204,0,0,0,0,0,0,0,0,0,-1,1574,820,0,0
357,204,0,0,0,0,0,0,0,0,0,-1,1581,820,0,0
364,204,0,0,0,0,0,0,0,0,0,-1,1588,820,0,0
371,204,0,0,0,0,0,0,0,0,0,-1,1595,820,0,0
378,204,0,0,0,0,0,0,0,0,0,-1,1602,820,0,0
385,204,0,0,0,0,0,0,0,0,0,-1,1609,820,0,0
392,204,0,0,0,0,0,0,0,0,0,-1,1616,820,0,0
399,204,0,0,0,0,0,0,0,0,0,-1,1623,820,0,0
406,204,0,0,0,0,0,0,0,0,0,-1,1630,820,0,0
413,204,0,0,0,0,0,0,0,0,0,-1,1637,820,0,0
420,204,0,0,0,0,0,0,0,0,0,-1,1644,820,0,0
427,204,0,0,0,0,0,0,0,0,0,-1,1651,820,0,0
434,204,0,0,0,0,0,0,0,0,0,-1,1658,820,0,0
441,204,0,0,0,0,0,0,0,0,0,-1,1665,820,0,0
448,204,0,0,0,0,0,0,0,0,0,-1,1672,820,0,0
455,204,0,0,0,0,0,0,0,0,0,-1,1679,820,0,0
462,204,0,0,0,0,0,0,0,0,0,-1,1686,820,0,0
469,204,0,0,0,0,0,0,0,0,0,-1,1693,820,0,0
476,204,0,0,0,0,0,0,0,0,0,-1,1700,820,0,0
483,204,0,0,0,0,0,0,0,0,0,-1,1707,820,0,0
490,204,0,0,0,0,0,0,0,0,0,-1,1714,820,0,0
497,204,0,0,0,0,0,0,0,0,0,-1,1721,820,0,0
504,204,0,0,0,0,0,0,0,0,0,-1,1728,820,0,0
511,204,0,0,0,0,0,0,0,0,0,-1,1735,820,0,0
518,204,0,0,0,0,0,0,0,0,0,-1,1742,820,0,0
525,204,0,0,0,0,0,0,0,0,0,-1,1749,820,0,0
532,204,0,0,0,0,0,0,0,0,0,-1,1756,820,0,0
539,204,0,0,0,0,0,0,0,0,0,-1,1763,820,0,0
546,204,0,0,0,0,0,0,0,0,0,-1,1770,820,0,0
553,204,0,0,0,0,0,0,0,0,0,-1,1777,820,0,0
560,204,0,0,0,0,0,0,0,0,0,-1,1784,820,0,0
567,204,0,0,0,0,0,0,0,0,0,-1,1791,820,0,0
574,204,0,0,0,0,0,0,0,0,0,-1,1798,820,0,0
581,204,0,0,0,0,0,0,0,0,0,-1,1805,820,0,0
588,204,0,0,0,0,0,0,0,0,0,-1,1812,820,0,0
595,204,0,0,0,0,0,0,0,0,0,-1,1819,820,0,0
602,204,71.9872,2.27448,0.000252346,-0.00313254,-0.00033028,0.000284271,-0.00316447,-0.0963637,0.0022105,0.039705,1826,820,71.9871,-2.27449
609,204,71.9019,2.46112,0.0010746,-0.00223349,-9.84707e-05,0.00107753,-0.00223642,-0.0297315,0.00195192,0.0416122,1833,820,71.9019,-2.46111
616,204,71.8224,2.46515,0.00152235,-0.00143427,0.000108939,0.00152636,-0.00143828,0.0367793,0.00171189,0.0366922,1840,820,71.8224,-2.46515
623,204,71.8032,2.44604,0.00173056,-0.000839028,0.000280578,0.00176084,-0.000869308,0.107504,0.00154732,0.0291052,1847,820,71.8032,-2.44602
630,204,71.8193,2.37885,0.0017684,-0.000545916,0.0003607,0.00182331,-0.000600831,0.151084,0.00145769,0.0289665,1854,820,71.8194,-2.37886
637,204,71.7959,2.3905,0.00122745,-0.000650362,9.90624e-05,0.00123266,-0.000655574,0.0525598,0.00110701,0.0350888,1861,820,71.7959,-2.39052
644,204,71.762,2.30951,0,0,0,0,0,0,0,-1,1868,820,71.7619,-2.3095
651,204,53.7611,2.32251,0,0,0,0,0,0,0,-1,1875,820,53.7611,-2.32249
658,204,34.9631,1.64844,0,0,0,0,0,0,0,-1,1882,820,34.9631,-1.64842
665,204,21.8292,1.51099,0,0,0,0,0,0,0,-1,1889,820,21.8292,-1.51099
672,204,54.9011,-1.79126,0,0,0,0,0,0,0,-1,1896,820,54.9011,1.79124
679,204,54.863,-1.08667,0,0,0,0,0,0,0,-1,1903,820,54.863,1.08668
686,204,54.8005,-0.343933,-0.00145408,-0.00116699,-0.00107626,-0.00022475,-0.00239632,-0.851695,0.00152815,0.0244187,1910,820,54.8005,0.343941
693,204,54.5327,0.476135,-0.00119636,-0.00133498,-0.00131656,5.2709e-05,-0.00258405,-0.759102,0.00174054,0.0244021,1917,820,54.5328,-0.476153
700,204,54.5654,1.33691,-0.000892745,-0.00112918,-0.00134745,0.00034166,-0.00236358,-0.741643,0.00170108,0.0177638,1924,820,54.5654,-1.3369
707,204,54.5111,2.21191,-0.000658727,-0.000719033,-0.000968078,0.000279668,-0.00165743,-0.76983,0.001209,0.0160457,1931,820,54.5112,-2.21188
714,204,54.4818,3.12622,-0.000177527,-0.000146655,-0.00026649,0.000104846,-0.000429028,-0.814327,0.000326625,0.0241957,1938,820,54.4819,-3.12621
721,204,54.4484,3.93726,0.000281946,0.000218419,0.000560598,0.00081168,-0.000311314,0.757098,0.00066947,0.023327,1945,820,54.4483,-3.93723
728,204,54.3964,4.7196,0.00068664,0.000251474,0.00143226,0.00191775,-0.000979633,0.710016,0.00170178,0.0148023,1952,820,54.3963,-4.71961
735,204,54.3077,5.57123,0.00101028,-0.000169477,0.00230602,0.00280067,-0.00195987,0.660183,0.00276275,0.0179029,1959,820,54.3078,-5.57122
742,204,54.257,6.32397,0.00103117,-0.00139722,0.00317687,0.00321797,-0.00358403,0.602865,0.00392903,0.0349399,1966,820,54.2569,-6.32395
749,204,54.0255,6.89508,0.000622472,-0.00413614,0.00392674,0.0028345,-0.00634817,0.513016,0.00542945,0.0491932,1973,820,54.0255,-6.89506
756,204,54.1298,7.44757,0,0,0,0,0,0,0,-1,1980,820,54.1298,-7.44754
763,204,54.3488,7.99115,0,0,0,0,0,0,0,-1,1987,820,54.3488,-7.99115
770,204,52.1014,10.515,0,0,0,0,0,0,0,-1,1994,820,52.1014,-10.515
777,204,0,0,0,0,0,0,0,0,0,-1,2001,820,0,0
784,204,0,0,0,0,0,0,0,0,0,-1,2008,820,0,0
791,204,0,0,0,0,0,0,0,0,0,-1,2015,820,0,0
798,204,0,0,0,0,0,0,0,0,0,-1,2022,820,0,0
805,204,0,0,0,0,0,0,0,0,0,-1,2029,820,0,0
812,204,0,0,0,0,0,0,0,0,0,-1,2036,820,0,0
-700,197,0,0,0,0,0,0,0,0,0,-1,524,827,0,0
-693,197,0,0,0,0,0,0,0,0,0,-1,531,827,0,0
-686,197,0,0,0,0,0,0,0,0,0,-1,538,827,0,0
-679,197,0,0,0,0,0,0,0,0,0,-1,545,827,0,0
-672,197,0,0,0,0,0,0,0,0,0,-1,552,827,0,0
-665,197,0,0,0,0,0,0,0,0,0,-1,559,827,0,0
-658,197,-39.9774,5.66638,0,0,0,0,0,0,0,-1,566,827,-39.9774,-5.66637
-651,197,-39.9665,5.23578,0,0,0,0,0,0,0,-1,573,827,-39.9665,-5.23575
-644,197,-38.9225,4.75665,0,0,0,0,0,0,0,-1,580,827,-38.9225,-4.75665
-637,197,-35.9322,6.14551,0,0,0,0,0,0,0,-1,587,827,-35.9322,-6.14552
-630,197,-40.4908,2.45648,0,0,0,0,0,0,0,-1,594,827,-40.4908,-2.45649
-623,197,-40.7372,6.50635,0,0,0,0,0,0,0,-1,601,827,-40.7372,-6.50638
-616,197,-40.5199,5.55414,0.00171177,0.00782871,-0.0111605,0.0163423,-0.00680178,-0.919136,0.0137354,0.0493614,608,827,-40.5199,-5.55414
-609,197,-40.1843,4.68048,0.00105859,0.00630833,-0.00786149,0.0119716,-0.00460466,-0.946524,0.00988032,0.0333519,615,827,-40.1842,-4.68045
-602,197,-40.158,3.86682,0.000527322,0.00497482,-0.00510673,0.00832097,-0.00281883,-0.990744,0.00668796,0.0194032,622,827,-40.158,-3.86683
-595,197,-40.2641,3.09973,0.000145063,0.00395715,-0.00288461,0.00550856,-0.00140635,-1.07735,0.00422001,0.0193642,629,827,-40.2641,-3.09972
-588,197,-40.299,2.26855,-0.000171909,0.00323012,-0.00104594,0.00352597,-0.000467753,-1.29515,0.00252107,0.0217832,636,827,-40.299,-2.26856
-581,197,-40.3523,1.4101,-0.00029508,0.0026785,0.000492262,0.00275787,-0.000374453,1.41093,0.00197526,0.0129568,643,827,-40.3523,-1.41009
-574,197,-40.3842,0.573486,-0.000467803,0.00267765,0.00135521,0.00318099,-0.000971143,1.21517,0.00250786,0.0141362,650,827,-40.3842,-0.573458
-567,197,-40.3185,-0.209106,-0.000691717,0.00331621,0.00144539,0.00378308,-0.00115859,1.25837,0.00298419,0.0202247,657,827,-40.3185,0.209089
-560,197,-40.1921,-0.995728,0,0,0,0,0,0,0,-1,664,827,-40.1921,0.995706
-553,197,-33.1771,-1.4881,0,0,0,0,0,0,0,-1,671,827,-33.1771,1.4881
-546,197,-33.0991,-2.06989,0,0,0,0,0,0,0,-1,678,827,-33.0991,2.06991
-539,197,-32.8993,-2.61737,0,0,0,0,0,0,0,-1,685,827,-32.8993,2.61737
-532,197,-16.0519,0.0410156,0,0,0,0,0,0,0,-1,692,827,-16.0519,-0.0410415
-525,197,-35.3785,2.11829,0,0,0,0,0,0,0,-1,699,827,-35.3785,-2.11826
-518,197,-55.711,0.608826,0,0,0,0,0,0,0,-1,706,827,-55.711,-0.608809
-511,197,-55.9582,0.549438,0,0,0,0,0,0,0,-1,713,827,-55.9582,-0.549416
-504,197,-56.1133,0.544678,0.000356836,0.0104381,0.0039376,0.0117938,-0.000998827,1.23922,0.00821574,0.0388629,720,827,-56.1133,-0.54469
-497,197,-56.1824,0.595215,0.00213069,0.0091261,0.00368551,0.0107094,0.00054736,1.16503,0.00696434,0.0380953,727,827,-56.1824,-0.595218
-490,197,-56.01,0.726929,0.00645245,0.00638079,0.00232066,0.00873756,0.00409569,0.777679,0.00504791,0.0370646,734,827,-56.01,-0.726908
-483,197,-55.8545,0.687988,0.014748,0.000154781,-0.00030245,0.0147543,0.000148515,-0.0207135,0.00978707,0.0416411,741,827,-55.8545,-0.688013
-476,197,0,0,0,0,0,0,0,0,0,-1,748,827,0,0
-469,197,0,0,0,0,0,0,0,0,0,-1,755,827,0,0
-462,197,0,0,0,0,0,0,0,0,0,-1,762,827,0,0
-455,197,0,0,0,0,0,0,0,0,0,-1,769,827,0,0
-448,197,0,0,0,0,0,0,0,0,0,-1,776,827,0,0
-441,197,0,0,0,0,0,0,0,0,0,-1,783,827,0,0
-434,197,0,0,0,0,0,0,0,0,0,-1,790,827,0,0
-427,197,0,0,0,0,0,0,0,0,0,-1,797,827,0,0
-420,197,0,0,0,0,0,0,0,0,0,-1,804,827,0,0
-413,197,0,0,0,0,0,0,0,0,0,-1,811,827,0,0
-406,197,0,0,0,0,0,0,0,0,0,-1,818,827,0,0
-399,197,0,0,0,0,0,0,0,0,0,-1,825,827,0,0
-392,197,0,0,0,0,0,0,0,0,0,-1,832,827,0,0
-385,197,0,0,0,0,0,0,0,0,0,-1,839,827,0,0
-378,197,0,0,0,0,0,0,0,0,0,-1,846,827,0,0
-371,197,0,0,0,0,0,0,0,0,0,-1,853,827,0,0
-364,197,0,0,0,0,0,0,0,0,0,-1,860,827,0,0
-357,197,0,0,0,0,0,0,0,0,0,-1,867,827,0,0
-350,197,0,0,0,0,0,0,0,0,0,-1,874,827,0,0
-343,197,0,0,0,0,0,0,0,0,0,-1,881,827,0,0
-336,197,0,0,0,0,0,0,0,0,0,-1,888,827,0,0
-329,197,0,0,0,0,0,0,0,0,0,-1,895,827,0,0
-322,197,0,0,0,0,0,0,0,0,0,-1,902,827,0,0
-315,197,0,0,0,0,0,0,0,0,0,-1,909,827,0,0
-308,197,0,0,0,0,0,0,0,0,0,-1,916,827,0,0
-301,197,0,0,0,0,0,0,0,0,0,-1,923,827,0,0
-294,197,0,0,0,0,0,0,0,0,0,-1,930,827,0,0
-287,197,0,0,0,0,0,0,0,0,0,-1,937,827,0,0
-280,197,0,0,0,0,0,0,0,0,0,-1,944,827,0,0
-273,197,0,0,0,0,0,0,0,0,0,-1,951,827,0,0
-266,197,0,0,0,0,0,0,0,0,0,-1,958,827,0,0
-259,197,0,0,0,0,0,0,0,0,0,-1,965,827,0,0
-252,197,0,0,0,0,0,0,0,0,0,-1,972,827,0,0
-245,197,0,0,0,0,0,0,0,0,0,-1,979,827,0,0
-238,197,0,0,0,0,0,0,0,0,0,-1,986,827,0,0
-231,197,0,0,0,0,0,0,0,0,0,-1,993,827,0,0
-224,197,0,0,0,0,0,0,0,0,0,-1,1000,827,0,0
-217,197,0,0,0,0,0,0,0,0,0,-1,1007,827,0,0
-210,197,0,0,0,0,0,0,0,0,0,-1,1014,827,0,0
-203,197,0,0,0,0,0,0,0,0,0,-1,1021,827,0,0
-196,197,0,0,0,0,0,0,0,0,0,-1,1028,827,0,0
-189,197,0,0,0,0,0,0,0,0,0,-1,1035,827,0,0
-182,197,0,0,0,0,0,0,0,0,0,-1,1042,827,0,0
-175,197,0,0,0,0,0,0,0,0,0,-1,1049,827,0,0
-168,197,0,0,0,0,0,0,0,0,0,-1,1056,827,0,0
-161,197,0,0,0,0,0,0,0,0,0,-1,1063,827,0,0
-154,197,0,0,0,0,0,0,0,0,0,-1,1070,827,0,0
-147,197,0,0,0,0,0,0,0,0,0,-1,1077,827,0,0
-140,197,0,0,0,0,0,0,0,0,0,-1,1084,827,0,0
-133,197,0,0,0,0,0,0,0,0,0,-1,1091,827,0,0
-126,197,0,0,0,0,0,0,0,0,0,-1,1098,827,0,0
-119,197,0,0,0,0,0,0,0,0,0,-1,1105,827,0,0
-112,197,0,0,0,0,0,0,0,0,0,-1,1112,827,0,0
-105,197,0,0,0,0,0,0,0,0,0,-1,1119,827,0,0
-98,197,0,0,0,0,0,0,0,0,0,-1,1126,827,0,0
-91,197,0,0,0,0,0,0,0,0,0,-1,1133,827,0,0
-84,197,0,0,0,0,0,0,0,0,0,-1,1140,827,0,0
-77,197,0,0,0,0,0,0,0,0,0,-1,1147,827,0,0
-70,197,0,0,0,0,0,0,0,0,0,-1,1154,827,0,0
-63,197,0,0,0,0,0,0,0,0,0,-1,1161,827,0,0
-56,197,0,0,0,0,0,0,0,0,0,-1,1168,827,0,0
-49,197,0,0,0,0,0,0,0,0,0,-1,1175,827,0,0
-42,197,0,0,0,0,0,0,0,0,0,-1,1182,827,0,0
-35,197,0,0,0,0,0,0,0,0,0,-1,1189,827,0,0
-28,197,0,0,0,0,0,0,0,0,0,-1,1196,827,0,0
-21,197,0,0,0,0,0,0,0,0,0,-1,1203,827,0,0
-14,197,0,0,0,0,0,0,0,0,0,-1,1210,827,0,0
-7,197,0,0,0,0,0,0,0,0,0,-1,1217,827,0,0
0,197,0,0,0,0,0,0,0,0,0,-1,1224,827,0,0
7,197,0,0,0,0,0,0,0,0,0,-1,1231,827,0,0
14,197,0,0,0,0,0,0,0,0,0,-1,1238,827,0,0
21,197,0,0,0,0,0,0,0,0,0,-1,1245,827,0,0
28,197,0,0,0,0,0,0,0,0,0,-1,1252,827,0,0
35,197,0,0,0,0,0,0,0,0,0,-1,1259,827,0,0
42,197,0,0,0,0,0,0,0,0,0,-1,1266,827,0,0
49,197,0,0,0,0,0,0,0,0,0,-1,1273,827,0,0
56,197,0,0,0,0,0,0,0,0,0,-1,1280,827,0,0
63,197,0,0,0,0,0,0,0,0,0,-1,1287,827,0,0
70,197,0,0,0,0,0,0,0,0,0,-1,1294,827,0,0
77,197,0,0,0,0,0,0,0,0,0,-1,1301,827,0,0
84,197,0,0,0,0,0,0,0,0,0,-1,1308,827,0,0
91,197,0,0,0,0,0,0,0,0,0,-1,1315,827,0,0
98,197,0,0,0,0,0,0,0,0,0,-1,1322,827,0,0
105,197,0,0,0,0,0,0,0,0,0,-1,1329,827,0,0
112,197,0,0,0,0,0,0,0,0,0,-1,1336,827,0,0
119,197,0,0,0,0,0,0,0,0,0,-1,1343,827,0,0
126,197,0,0,0,0,0,0,0,0,0,-1,1350,827,0,0
133,197,0,0,0,0,0,0,0,0,0,-1,1357,827,0,0
140,197,0,0,0,0,0,0,0,0,0,-1,1364,827,0,0
147,197,0,0,0,0,0,0,0,0,0,-1,1371,827,0,0
154,197,0,0,0,0,0,0,0,0,0,-1,1378,827,0,0
161,197,0,0,0,0,0,0,0,0,0,-1,1385,827,0,0
168,197,0,0,0,0,0,0,0,0,0,-1,1392,827,0,0
175,197,0,0,0,0,0,0,0,0,0,-1,1399,827,0,0
182,197,0,0,0,0,0,0,0,0,0,-1,1406,827,0,0
189,197,0,0,0,0,0,0,0,0,0,-1,1413,827,0,0
196,197,0,0,0,0,0,0,0,0,0,-1,1420,827,0,0
203,197,0,0,0,0,0,0,0,0,0,-1,1427,827,0,0
210,197,0,0,0,0,0,0,0,0,0,-1,1434,827,0,0
217,197,0,0,0,0,0,0,0,0,0,-1,1441,827,0,0
224,197,0,0,0,0,0,0,0,0,0,-1,1448,827,0,0
231,197,0,0,0,0,0,0,0,0,0,-1,1455,827,0,0
238,197,0,0,0,0,0,0,0,0,0,-1,1462,827,0,0
245,197,0,0,0,0,0,0,0,0,0,-1,1469,827,0,0
252,197,0,0,0,0,0,0,0,0,0,-1,1476,827,0,0
259,197,0,0,0,0,0,0,0,0,0,-1,1483,827,0,0
266,197,0,0,0,0,0,0,0,0,0,-1,1490,827,0,0
273,197,0,0,0,0,0,0,0,0,0,-1,1497,827,0,0
280,197,0,0,0,0,0,0,0,0,0,-1,1504,827,0,0
287,197,0,0,0,0,0,0,0,0,0,-1,1511,827,0,0
294,197,0,0,0,0,0,0,0,0,0,-1,1518,827,0,0
301,197,0,0,0,0,0,0,0,0,0,-1,1525,827,0,0
308,197,0,0,0,0,0,0,0,0,0,-1,1532,827,0,0
315,197,0,0,0,0,0,0,0,0,0,-1,1539,827,0,0
322,197,0,0,0,0,0,0,0,0,0,-1,1546,827,0,0
329,197,0,0,0,0,0,0,0,0,0,-1,1553,827,0,0
336,197,0,0,0,0,0,0,0,0,0,-1,1560,827,0,0
343,197,0,0,0,0,0,0,0,0,0,-1,1567,827,0,0
350,197,0,0,0,0,0,0,0,0,0,-1,1574,827,0,0
357,197,0,0,0,0,0,0,0,0,0,-1,1581,827,0,0
364,197,0,0,0,0,0,0,0,0,0,-1,1588,827,0,0
371,197,0,0,0,0,0,0,0,0,0,-1,1595,827,0,0
378,197,0,0,0,0,0,0,0,0,0,-1,1602,827,0,0
385,197,0,0,0,0,0,0,0,0,0,-1,1609,827,0,0
392,197,0,0,0,0,0,0,0,0,0,-1,1616,827,0,0
399,197,0,0,0,0,0,0,0,0,0,-1,1623,827,0,0
406,197,0,0,0,0,0,0,0,0,0,-1,1630,827,0,0
413,197,0,0,0,0,0,0,0,0,0,-1,1637,827,0,0
420,197,0,0,0,0,0,0,0,0,0,-1,1644,827,0,0
427,197,0,0,0,0,0,0,0,0,0,-1,1651,827,0,0
434,197,0,0,0,0,0,0,0,0,0,-1,1658,827,0,0
441,197,0,0,0,0,0,0,0,0,0,-1,1665,827,0,0
448,197,0,0,0,0,0,0,0,0,0,-1,1672,827,0,0
455,197,0,0,0,0,0,0,0,0,0,-1,1679,827,0,0
462,197,0,0,0,0,0,0,0,0,0,-1,1686,827,0,0
469,197,0,0,0,0,0,0,0,0,0,-1,1693,827,0,0
476,197,0,0,0,0,0,0,0,0,0,-1,1700,827,0,0
483,197,0,0,0,0,0,0,0,0,0,-1,1707,827,0,0
490,197,0,0,0,0,0,0,0,0,0,-1,1714,827,0,0
497,197,0,0,0,0,0,0,0,0,0,-1,1721,827,0,0
504,197,0,0,0,0,0,0,0,0,0,-1,1728,827,0,0
511,197,0,0,0,0,0,0,0,0,0,-1,1735,827,0,0
518,197,0,0,0,0,0,0,0,0,0,-1,1742,827,0,0
525,197,0,0,0,0,0,0,0,0,0,-1,1749,827,0,0
532,197,0,0,0,0,0,0,0,0,0,-1,1756,827,0,0
539,197,0,0,0,0,0,0,0,0,0,-1,1763,827,0,0
546,197,0,0,0,0,0,0,0,0,0,-1,1770,827,0,0
553,197,0,0,0,0,0,0,0,0,0,-1,1777,827,0,0
560,197,0,0,0,0,0,0,0,0,0,-1,1784,827,0,0
567,197,0,0,0,0,0,0,0,0,0,-1,1791,827,0,0
574,197,0,0,0,0,0,0,0,0,0,-1,1798,827,0,0
581,197,0,0,0,0,0,0,0,0,0,-1,1805,827,0,0
588,197,0,0,0,0,0,0,0,0,0,-1,1812,827,0,0
595,197,0,0,0,0,0,0,0,0,0,-1,1819,827,0,0
602,197,71.8832,2.29114,-0.000530943,-0.00341963,-0.000993476,-0.000222254,-0.00372832,-0.301259,0.00241487,0.041709,1826,827,71.8832,-2.29114
609,197,71.8208,2.30524,0.000371999,-0.00250024,-0.000738264,0.000550647,-0.00267888,-0.23742,0.00199497,0.0434752,1833,827,71.8208,-2.30524
616,197,71.8236,2.27393,0.000964538,-0.00166913,-0.000414166,0.00102813,-0.00173273,-0.15236,0.00161119,0.0387973,1840,827,71.8236,-2.2739
623,197,71.8087,2.28076,0.00132458,-0.00101295,-7.56172e-05,0.00132702,-0.00101539,-0.0323042,0.00135638,0.0368928,1847,827,71.8088,-2.28077
630,197,71.8881,2.26385,0.00147974,-0.000619322,0.000170146,0.00149344,-0.000633024,0.080359,0.00126077,0.0330533,1854,827,71.8881,-2.26383
637,197,71.8386,2.35413,0.000973632,-0.000713243,-4.92102e-05,0.000975066,-0.000714677,-0.0291394,0.000979427,0.0286814,1861,827,71.8386,-2.35415
644,197,71.7979,2.38861,0.000455541,-0.000979709,-0.000351567,0.000537031,-0.0010612,-0.227769,0.000939135,0.0441946,1868,827,71.7979,-2.38858
651,197,71.7578,2.2713,0,0,0,0,0,0,0,-1,1875,827,71.7578,-2.27133
658,197,40.4694,3.05927,0,0,0,0,0,0,0,-1,1882,827,40.4694,-3.05926
665,197,14.0618,1.80304,0,0,0,0,0,0,0,-1,1889,827,14.0617,-1.80303
672,197,54.272,-2.20929,0,0,0,0,0,0,0,-1,1896,827,54.272,2.20931
679,197,55.541,-1.21417,0,0,0,0,0,0,0,-1,1903,827,55.5411,1.2142
686,197,55.6262,-0.194885,-0.00174131,-0.0014433,-0.00116465,-0.000418159,-0.00276645,-0.849021,0.00172192,0.0285894,1910,827,55.6262,0.194881
693,197,55.4327,0.695251,-0.00153847,-0.00172388,-0.00141796,-0.000210189,-0.00305216,-0.752755,0.00196845,0.0339854,1917,827,55.4327,-0.695255
700,197,55.389,1.38867,-0.00134716,-0.00162631,-0.00154657,6.61184e-05,-0.00303959,-0.740396,0.00204879,0.0305855,1924,827,55.389,-1.38865
707,197,55.3635,2.27704,-0.00122199,-0.00123267,-0.00127973,5.24138e-05,-0.00250707,-0.783312,0.00168912,0.00937554,1931,827,55.3635,-2.27702
714,197,55.3312,3.10095,-0.000708901,-0.000560757,-0.000634837,4.31458e-06,-0.00127397,-0.843475,0.000850757,0.0116842,1938,827,55.3311,-3.10093
721,197,55.285,3.9375,-0.000124757,-4.05307e-05,0.000169959,9.24548e-05,-0.000257743,0.906845,0.000209559,0.0129046,1945,827,55.285,-3.93748
728,197,55.2225,4.76764,0.000451715,0.000168081,0.00102274,0.00134243,-0.000722631,0.716506,0.00121003,0.0115384,1952,827,55.2225,-4.76766
735,197,55.1384,5.60352,0.000939038,-1.6057e-05,0.00186867,0.00239021,-0.00146723,0.660298,0.00224825,0.012284,1959,827,55.1384,-5.6035
742,197,55.0308,6.46814,0.00120724,-0.000836493,0.00270639,0.00307826,-0.00270751,0.604885,0.0033427,0.0235404,1966,827,55.0308,-6.46813
749,197,54.869,7.32123,0.00118443,-0.00285205,0.00346208,0.00317359,-0.00484122,0.521502,0.00466062,0.0464878,1973,827,54.8691,-7.32121
756,197,54.682,8.16522,0,0,0,0,0,0,0,-1,1980,827,54.682,-8.16525
763,197,53.4546,9.42511,0,0,0,0,0,0,0,-1,1987,827,53.4546,-9.42514
770,197,53.4642,10.2698,0,0,0,0,0,0,0,-1,1994,827,53.4643,-10.2698
777,197,0,0,0,0,0,0,0,0,0,-1,2001,827,0,0
784,197,0,0,0,0,0,0,0,0,0,-1,2008,827,0,0
791,197,0,0,0,0,0,0,0,0,0,-1,2015,827,0,0
798,197,0,0,0,0,0,0,0,0,0,-1,2022,827,0,0
805,197,0,0,0,0,0,0,0,0,0,-1,2029,827,0,0
812,197,0,0,0,0,0,0,0,0,0,-1,2036,827,0,0
-700,190,0,0,0,0,0,0,0,0,0,-1,524,834,0,0
-693,190,0,0,0,0,0,0,0,0,0,-1,531,834,0,0
-686,190,0,0,0,0,0,0,0,0,0,-1,538,834,0,0
-679,190,0,0,0,0,0,0,0,0,0,-1,545,834,0,0
-672,190,0,0,0,0,0,0,0,0,0,-1,552,834,0,0
-665,190,0,0,0,0,0,0,0,0,0,-1,559,834,0,0
-658,190,-41.9736,5.50092,0,0,0,0,0,0,0,-1,566,834,-41.9736,-5.50089
-651,190,-40.1895,4.99677,0,0,0,0,0,0,0,-1,573,834,-40.1894,-4.99677
-644,190,-35.4149,8.88776,0,0,0,0,0,0,0,-1,580,834,-35.4149,-8.88774
-637,190,-40.3998,10.5266,0,0,0,0,0,0,0,-1,587,834,-40.3998,-10.5266
-630,190,-40.6496,8.36572,0,0,0,0,0,0,0,-1,594,834,-40.6496,-8.36575
-623,190,-41.158,6.63208,0,0,0,0,0,0,0,-1,601,834,-41.158,-6.6321
-616,190,-41.0915,5.66516,0.00133723,0.0078696,-0.0102378,0.0153496,-0.00614275,-0.939811,0.0127825,0.0477088,608,834,-41.0915,-5.66515
-609,190,-40.9331,4.69684,0.000784702,0.00620687,-0.00689447,0.0109041,-0.00391257,-0.972724,0.00886621,0.0260949,615,834,-40.9331,-4.69683
-602,190,-41.0241,3.92926,0.000187246,0.00476432,-0.00411482,0.00718419,-0.00223263,-1.03918,0.00568182,0.0181039,622,834,-41.0241,-3.92927
-595,190,-41.1149,3.10974,-0.000404525,0.00365187,-0.00185189,0.00437014,-0.0011228,-1.2008,0.00335099,0.0190351,629,834,-41.1149,-3.10973
-588,190,-41.1574,2.28357,-0.000992751,0.00275344,-7.86604e-05,0.00275509,-0.000994402,-1.54981,0.00224291,0.0192772,636,834,-41.1574,-2.2836
-581,190,-41.1736,1.45148,-0.00127281,0.00206977,0.00123277,0.00247524,-0.00167828,1.25303,0.00241271,0.014634,643,834,-41.1736,-1.45149
-574,190,-41.1913,0.639587,-0.0014505,0.00217091,0.00172488,0.00286097,-0.00214057,1.19023,0.00289761,0.0141151,650,834,-41.1913,-0.639561
-567,190,-41.1008,-0.315552,-0.0015057,0.0029315,0.0014992,0.00339055,-0.00196475,1.27367,0.0031282,0.0321388,657,834,-41.1008,0.31555
-560,190,-40.9272,-1.32587,0,0,0,0,0,0,0,-1,664,834,-40.9272,1.32586
-553,190,-33.9625,-1.6355,0,0,0,0,0,0,0,-1,671,834,-33.9625,1.63552
-546,190,-33.7621,-2.04889,0,0,0,0,0,0,0,-1,678,834,-33.7621,2.04886
-539,190,-16.4624,-0.542542,0,0,0,0,0,0,0,-1,685,834,-16.4624,0.542527
-532,190,-21.6292,2.06122,0,0,0,0,0,0,0,-1,692,834,-21.6292,-2.06123
-525,190,-38.9377,1.03369,0,0,0,0,0,0,0,-1,699,834,-38.9377,-1.0337
-518,190,-55.6708,0.963684,0,0,0,0,0,0,0,-1,706,834,-55.6708,-0.96366
-511,190,-55.5735,1.21405,0,0,0,0,0,0,0,-1,713,834,-55.5735,-1.21407
-504,190,-55.4969,1.65558,0,0,0,0,0,0,0,-1,720,834,-55.497,-1.65557
-497,190,-56.0292,0.455078,0.00416101,0.00864321,0.00309065,0.0102198,0.00258443,1.09909,0.00613591,0.0447056,727,834,-56.0293,-0.455081
-490,190,-55.8434,0.69989,0.0106991,0.00453358,0.00145226,0.0110241,0.00420864,0.220125,0.0064238,0.0405432,734,834,-55.8434,-0.699871
-483,190,0,0,0,0,0,0,0,0,0,-1,741,834,0,0
-476,190,0,0,0,0,0,0,0,0,0,-1,748,834,0,0
-469,190,0,0,0,0,0,0,0,0,0,-1,755,834,0,0
-462,190,0,0,0,0,0,0,0,0,0,-1,762,834,0,0
-455,190,0,0,0,0,0,0,0,0,0,-1,769,834,0,0
-448,190,0,0,0,0,0,0,0,0,0,-1,776,834,0,0
-441,190,0,0,0,0,0,0,0,0,0,-1,783,834,0,0
-434,190,0,0,0,0,0,0,0,0,0,-1,790,834,0,0
-427,190,0,0,0,0,0,0,0,0,0,-1,797,834,0,0
-420,190,0,0,0,0,0,0,0,0,0,-1,804,834,0,0
-413,190,0,0,0,0,0,0,0,0,0,-1,811,834,0,0
-406,190,0,0,0,0,0,0,0,0,0,-1,818,834,0,0
-399,190,0,0,0,0,0,0,0,0,0,-1,825,834,0,0
-392,190,0,0,0,0,0,0,0,0,0,-1,832,834,0,0
-385,190,0,0,0,0,0,0,0,0,0,-1,839,834,0,0
-378,190,0,0,0,0,0,0,0,0,0,-1,846,834,0,0
-371,190,0,0,0,0,0,0,0,0,0,-1,853,834,0,0
-364,190,0,0,0,0,0,0,0,0,0,-1,860,834,0,0
-357,190,0,0,0,0,0,0,0,0,0,-1,867,834,0,0
-350,190,0,0,0,0,0,0,0,0,0,-1,874,834,0,0
-343,190,0,0,0,0,0,0,0,0,0,-1,881,834,0,0
-336,190,0,0,0,0,0,0,0,0,0,-1,888,834,0,0
-329,190,0,0,0,0,0,0,0,0,0,-1,895,834,0,0
-322,190,0,0,0,0,0,0,0,0,0,-1,902,834,0,0
-315,190,0,0,0,0,0,0,0,0,0,-1,909,834,0,0
-308,190,0,0,0,0,0,0,0,0,0,-1,916,834,0,0
-301,190,0,0,0,0,0,0,0,0,0,-1,923,834,0,0
-294,190,0,0,0,0,0,0,0,0,0,-1,930,834,0,0
-287,190,0,0,0,0,0,0,0,0,0,-1,937,834,0,0
-280,190,0,0,0,0,0,0,0,0,0,-1,944,834,0,0
-273,190,0,0,0,0,0,0,0,0,0,-1,951,834,0,0
-266,190,0,0,0,0,0,0,0,0,0,-1,958,834,0,0
-259,190,0,0,0,0,0,0,0,0,0,-1,965,834,0,0
-252,190,0,0,0,0,0,0,0,0,0,-1,972,834,0,0
-245,190,0,0,0,0,0,0,0,0,0,-1,979,834,0,0
-238,190,0,0,0,0,0,0,0,0,0,-1,986,834,0,0
-231,190,0,0,0,0,0,0,0,0,0,-1,993,834,0,0
-224,190,0,0,0,0,0,0,0,0,0,-1,1000,834,0,0
-217,190,0,0,0,0,0,0,0,0,0,-1,1007,834,0,0
-210,190,0,0,0,0,0,0,0,0,0,-1,1014,834,0,0
-203,190,0,0,0,0,0,0,0,0,0,-1,1021,834,0,0
-196,190,0,0,0,0,0,0,0,0,0,-1,1028,834,0,0
-189,190,0,0,0,0,0,0,0,0,0,-1,1035,834,0,0
-182,190,0,0,0,0,0,0,0,0,0,-1,1042,834,0,0
-175,190,0,0,0,0,0,0,0,0,0,-1,1049,834,0,0
-168,190,0,0,0,0,0,0,0,0,0,-1,1056,834,0,0
-161,190,0,0,0,0,0,0,0,0,0,-1,1063,834,0,0
-154,190,0,0,0,0,0,0,0,0,0,-1,1070,834,0,0
-147,190,0,0,0,0,0,0,0,0,0,-1,1077,834,0,0
-140,190,0,0,0,0,0,0,0,0,0,-1,1084,834,0,0
-133,190,0,0,0,0,0,0,0,0,0,-1,1091,834,0,0
-126,190,0,0,0,0,0,0,0,0,0,-1,1098,834,0,0
-119,190,0,0,0,0,0,0,0,0,0,-1,1105,834,0,0
-112,190,0,0,0,0,0,0,0,0,0,-1,1112,834,0,0
-105,190,0,0,0,0,0,0,0,0,0,-1,1119,834,0,0
-98,190,0,0,0,0,0,0,0,0,0,-1,1126,834,0,0
-91,190,0,0,0,0,0,0,0,0,0,-1,1133,834,0,0
-84,190,0,0,0,0,0,0,0,0,0,-1,1140,834,0,0
-77,190,0,0,0,0,0,0,0,0,0,-1,1147,834,0,0
-70,190,0,0,0,0,0,0,0,0,0,-1,1154,834,0,0
-63,190,0,0,0,0,0,0,0,0,0,-1,1161,834,0,0
-56,190,0,0,0,0,0,0,0,0,0,-1,1168,834,0,0
-49,190,0,0,0,0,0,0,0,0,0,-1,1175,834,0,0
-42,190,0,0,0,0,0,0,0,0,0,-1,1182,834,0,0
-35,190,0,0,0,0,0,0,0,0,0,-1,1189,834,0,0
-28,190,0,0,0,0,0,0,0,0,0,-1,1196,834,0,0
-21,190,0,0,0,0,0,0,0,0,0,-1,1203,834,0,0
-14,190,0,0,0,0,0,0,0,0,0,-1,1210,834,0,0
-7,190,0,0,0,0,0,0,0,0,0,-1,1217,834,0,0
0,190,0,0,0,0,0,0,0,0,0,-1,1224,834,0,0
7,190,0,0,0,0,0,0,0,0,0,-1,1231,834,0,0
14,190,0,0,0,0,0,0,0,0,0,-1,1238,834,0,0
21,190,0,0,0,0,0,0,0,0,0,-1,1245,834,0,0
28,190,0,0,0,0,0,0,0,0,0,-1,1252,834,0,0
35,190,0,0,0,0,0,0,0,0,0,-1,1259,834,0,0
42,190,0,0,0,0,0,0,0,0,0,-1,1266,834,0,0
49,190,0,0,0,0,0,0,0,0,0,-1,1273,834,0,0
56,190,0,0,0,0,0,0,0,0,0,-1,1280,834,0,0
63,190,0,0,0,0,0,0,0,0,0,-1,1287,834,0,0
70,190,0,0,0,0,0,0,0,0,0,-1,1294,834,0,0
77,190,0,0,0,0,0,0,0,0,0,-1,1301,834,0,0
84,190,0,0,0,0,0,0,0,0,0,-1,1308,834,0,0
91,190,0,0,0,0,0,0,0,0,0,-1,1315,834,0,0
98,190,0,0,0,0,0,0,0,0,0,-1,1322,834,0,0
105,190,0,0,0,0,0,0,0,0,0,-1,1329,834,0,0
112,190,0,0,0,0,0,0,0,0,0,-1,1336,834,0,0
119,190,0,0,0,0,0,0,0,0,0,-1,1343,834,0,0
126,190,0,0,0,0,0,0,0,0,0,-1,1350,834,0,0
133,190,0,0,0,0,0,0,0,0,0,-1,1357,834,0,0
140,190,0,0,0,0,0,0,0,0,0,-1,1364,834,0,0
147,190,0,0,0,0,0,0,0,0,0,-1,1371,834,0,0
154,190,0,0,0,0,0,0,0,0,0,-1,1378,834,0,0
161,190,0,0,0,0,0,0,0,0,0,-1,1385,834,0,0
168,190,0,0,0,0,0,0,0,0,0,-1,1392,834,0,0
175,190,0,0,0,0,0,0,0,0,0,-1,1399,834,0,0
182,190,0,0,0,0,0,0,0,0,0,-1,1406,834,0,0
189,190,0,0,0,0,0,0,0,0,0,-1,1413,834,0,0
196,190,0,0,0,0,0,0,0,0,0,-1,1420,834,0,0
203,190,0,0,0,0,0,0,0,0,0,-1,1427,834,0,0
210,190,0,0,0,0,0,0,0,0,0,-1,1434,834,0,0
217,190,0,0,0,0,0,0,0,0,0,-1,1441,834,0,0
224,190,0,0,0,0,0,0,0,0,0,-1,1448,834,0,0
231,190,0,0,0,0,0,0,0,0,0,-1,1455,834,0,0
238,190,0,0,0,0,0,0,0,0,0,-1,1462,834,0,0
245,190,0,0,0,0,0,0,0,0,0,-1,1469,834,0,0
252,190,0,0,0,0,0,0,0,0,0,-1,1476,834,0,0
259,190,0,0,0,0,0,0,0,0,0,-1,1483,834,0,0
266,190,0,0,0,0,0,0,0,0,0,-1,1490,834,0,0
273,190,0,0,0,0,0,0,0,0,0,-1,1497,834,0,0
280,190,0,0,0,0,0,0,0,0,0,-1,1504,834,0,0
287,190,0,0,0,0,0,0,0,0,0,-1,1511,834,0,0
294,190,0,0,0,0,0,0,0,0,0,-1,1518,834,0,0
301,190,0,0,0,0,0,0,0,0,0,-1,1525,834,0,0
308,190,0,0,0,0,0,0,0,0,0,-1,1532,834,0,0
315,190,0,0,0,0,0,0,0,0,0,-1,1539,834,0,0
322,190,0,0,0,0,0,0,0,0,0,-1,1546,834,0,0
329,190,0,0,0,0,0,0,0,0,0,-1,1553,834,0,0
336,190,0,0,0,0,0,0,0,0,0,-1,1560,834,0,0
343,190,0,0,0,0,0,0,0,0,0,-1,1567,834,0,0
350,190,0,0,0,0,0,0,0,0,0,-1,1574,834,0,0
357,190,0,0,0,0,0,0,0,0,0,-1,1581,834,0,0
364,190,0,0,0,0,0,0,0,0,0,-1,1588,834,0,0
371,190,0,0,0,0,0,0,0,0,0,-1,1595,834,0,0
378,190,0,0,0,0,0,0,0,0,0,-1,1602,834,0,0
385,190,0,0,0,0,0,0,0,0,0,-1,1609,834,0,0
392,190,0,0,0,0,0,0,0,0,0,-1,1616,834,0,0
399,190,0,0,0,0,0,0,0,0,0,-1,1623,834,0,0
406,190,0,0,0,0,0,0,0,0,0,-1,1630,834,0,0
413,190,0,0,0,0,0,0,0,0,0,-1,1637,834,0,0
420,190,0,0,0,0,0,0,0,0,0,-1,1644,834,0,0
427,190,0,0,0,0,0,0,0,0,0,-1,1651,834,0,0
434,190,0,0,0,0,0,0,0,0,0,-1,1658,834,0,0
441,190,0,0,0,0,0,0,0,0,0,-1,1665,834,0,0
448,190,0,0,0,0,0,0,0,0,0,-1,1672,834,0,0
455,190,0,0,0,0,0,0,0,0,0,-1,1679,834,0,0
462,190,0,0,0,0,0,0,0,0,0,-1,1686,834,0,0
469,190,0,0,0,0,0,0,0,0,0,-1,1693,834,0,0
476,190,0,0,0,0,0,0,0,0,0,-1,1700,834,0,0
483,190,0,0,0,0,0,0,0,0,0,-1,1707,834,0,0
490,190,0,0,0,0,0,0,0,0,0,-1,1714,834,0,0
497,190,0,0,0,0,0,0,0,0,0,-1,1721,834,0,0
504,190,0,0,0,0,0,0,0,0,0,-1,1728,834,0,0
511,190,0,0,0,0,0,0,0,0,0,-1,1735,834,0,0
518,190,0,0,0,0,0,0,0,0,0,-1,1742,834,0,0
525,190,0,0,0,0,0,0,0,0,0,-1,1749,834,0,0
532,190,0,0,0,0,0,0,0,0,0,-1,1756,834,0,0
539,190,0,0,0,0,0,0,0,0,0,-1,1763,834,0,0
546,190,0,0,0,0,0,0,0,0,0,-1,1770,834,0,0
553,190,0,0,0,0,0,0,0,0,0,-1,1777,834,0,0
560,190,0,0,0,0,0,0,0,0,0,-1,1784,834,0,0
567,190,0,0,0,0,0,0,0,0,0,-1,1791,834,0,0
574,190,0,0,0,0,0,0,0,0,0,-1,1798,834,0,0
581,190,0,0,0,0,0,0,0,0,0,-1,1805,834,0,0
588,190,0,0,0,0,0,0,0,0,0,-1,1812,834,0,0
595,190,0,0,0,0,0,0,0,0,0,-1,1819,834,0,0
602,190,71.7611,2.57599,-0.00107463,-0.00335583,-0.00196135,5.3667e-05,-0.00448412,-0.522031,0.00300746,0.045043,1826,834,71.7611,-2.57601
609,190,71.7499,2.48529,-5.56391e-05,-0.00246729,-0.00161975,0.000757845,-0.00328078,-0.465428,0.00247872,0.0440403,1833,834,71.7498,-2.48532
616,190,71.7385,2.49493,0.000559353,-0.00170123,-0.00115408,0.00104445,-0.00218632,-0.397906,0.00190372,0.0397563,1840,834,71.7385,-2.49492
623,190,71.79,2.32159,0.000890719,-0.00109605,-0.000625872,0.00107144,-0.00127678,-0.281107,0.00135747,0.0373735,1847,834,71.7901,-2.3216
630,190,71.911,2.30914,0.0010162,-0.000657351,-0.000151906,0.00102987,-0.000671028,-0.0897907,0.000989274,0.0405057,1854,834,71.911,-2.30913
637,190,71.9163,2.34052,0.000586409,-0.000676384,-0.000229869,0.000626951,-0.000716926,-0.174575,0.000776467,0.0338712,1861,834,71.9162,-2.34053
644,190,71.7872,2.44153,8.89083e-05,-0.000984611,-0.000512415,0.000294227,-0.00118993,-0.381099,0.000907404,0.0286747,1868,834,71.7872,-2.44155
651,190,71.778,2.55231,0,0,0,0,0,0,0,-1,1875,834,71.778,-2.55229
658,190,54.0599,3.0943,0,0,0,0,0,0,0,-1,1882,834,54.0599,-3.09428
665,190,25.9916,3.05157,0,0,0,0,0,0,0,-1,1889,834,25.9916,-3.05156
672,190,27.2662,1.70862,0,0,0,0,0,0,0,-1,1896,834,27.2662,-1.70861
679,190,56.4706,-0.91217,0,0,0,0,0,0,0,-1,1903,834,56.4706,0.912147
686,190,56.4557,-0.104126,-0.00214938,-0.0013267,-0.00122024,-0.000450336,-0.00302575,-0.947966,0.00188507,0.0281616,1910,834,56.4557,0.104129
693,190,56.4685,0.737183,-0.00196128,-0.00150294,-0.00145896,-0.000255258,-0.00320896,-0.8633,0.0020595,0.0338491,1917,834,56.4685,-0.737189
700,190,56.2266,1.50391,-0.00184838,-0.00139644,-0.0016565,4.94369e-05,-0.00329425,-0.853187,0.00221283,0.023459,1924,834,56.2266,-1.5039
707,190,56.1971,2.34595,-0.00183102,-0.00107206,-0.00151133,0.000106702,-0.00300978,-0.908402,0.00204302,0.0134377,1931,834,56.1971,-2.34594
714,190,56.1729,3.13873,-0.00131691,-0.000458665,-0.000982816,0.000184629,-0.0019602,-0.991235,0.00137249,0.0129261,1938,834,56.1729,-3.13876
721,190,56.1432,3.95844,-0.000664589,5.5903e-05,-0.00027332,0.000147853,-0.000756539,-1.24627,0.000560186,0.0120389,1945,834,56.1431,-3.95846
728,190,56.078,4.78583,2.04016e-05,0.000298276,0.000482485,0.00066143,-0.000342752,0.925586,0.000589416,0.014347,1952,834,56.078,-4.78585
735,190,56.0177,5.58191,0.000644362,0.000220412,0.00122728,0.00167784,-0.000813068,0.699883,0.00146673,0.0136271,1959,834,56.0177,-5.58194
742,190,55.9174,6.492,0.00109247,-0.000356626,0.00194277,0.00244141,-0.00170556,0.606914,0.00240678,0.0183736,1966,834,55.9173,-6.492
749,190,55.7799,7.73572,0.00133296,-0.00188607,0.00257287,0.00275828,-0.00331139,0.505892,0.00350917,0.0415089,1973,834,55.7799,-7.73574
756,190,55.6204,8.98505,0,0,0,0,0,0,0,-1,1980,834,55.6203,-8.98505
763,190,54.8282,9.30542,0,0,0,0,0,0,0,-1,1987,834,54.8282,-9.3054
770,190,54.7947,10.1494,0,0,0,0,0,0,0,-1,1994,834,54.7947,-10.1494
777,190,51.4365,10.3331,0,0,0,0,0,0,0,-1,2001,834,51.4366,-10.3331
784,190,0,0,0,0,0,0,0,0,0,-1,2008,834,0,0
791,190,0,0,0,0,0,0,0,0,0,-1,2015,834,0,0
798,190,0,0,0,0,0,0,0,0,0,-1,2022,834,0,0
805,190,0,0,0,0,0,0,0,0,0,-1,2029,834,0,0
812,190,0,0,0,0,0,0,0,0,0,-1,2036,834,0,0
-700,183,0,0,0,0,0,0,0,0,0,-1,524,841,0,0
-693,183,0,0,0,0,0,0,0,0,0,-1,531,841,0,0
-686,183,0,0,0,0,0,0,0,0,0,-1,538,841,0,0
-679,183,0,0,0,0,0,0,0,0,0,-1,545,841,0,0
-672,183,0,0,0,0,0,0,0,0,0,-1,552,841,0,0
-665,183,0,0,0,0,0,0,0,0,0,-1,559,841,0,0
-658,183,-56.7401,1.32843,0,0,0,0,0,0,0,-1,566,841,-56.7401,-1.32844
-651,183,-36.1273,9.60504,0,0,0,0,0,0,0,-1,573,841,-36.1273,-9.60503
-644,183,-38.5381,8.53137,0,0,0,0,0,0,0,-1,580,841,-38.5382,-8.53136
-637,183,-40.9904,9.41376,0,0,0,0,0,0,0,-1,587,841,-40.9904,-9.41374
-630,183,-41.2222,8.11749,0,0,0,0,0,0,0,-1,594,841,-41.2222,-8.11747
-623,183,-41.5451,6.9129,0.000456247,0.0101323,-0.0137421,0.0198631,-0.00927457,-0.954652,0.0171889,0.0461465,601,841,-41.5451,-6.91291
-616,183,-41.7534,5.7879,-5.07954e-06,0.00770515,-0.00939937,0.0140093,-0.0063092,-0.980009,0.0120084,0.0384873,608,841,-41.7533,-5.78792
-609,183,-41.8404,4.79364,-0.000420409,0.00587019,-0.0060909,0.00957996,-0.00413018,-1.02374,0.00812133,0.0178035,615,841,-41.8404,-4.79363
-602,183,-41.8918,3.98254,-0.00103447,0.00430595,-0.00331632,0.00589345,-0.00262197,-1.12434,0.00503586,0.0119771,622,841,-41.8918,-3.98253
-595,183,-41.9397,3.13782,-0.00176198,0.00309965,-0.00103646,0.00331139,-0.00197372,-1.36928,0.00308377,0.0124274,629,841,-41.9397,-3.1378
-588,183,-41.9539,2.29938,-0.00240318,0.00209007,0.000599195,0.00216861,-0.00248172,1.44048,0.00268689,0.0146844,636,841,-41.9539,-2.29938
-581,183,-42.0217,1.49823,-0.00249358,0.00139161,0.00158654,0.00195716,-0.00305914,1.22837,0.00291936,0.0159271,643,841,-42.0217,-1.49823
-574,183,-42.0286,0.698242,-0.00235184,0.00162164,0.00172862,0.00226839,-0.00299859,1.21278,0.00305062,0.0212542,650,841,-42.0286,-0.698234
-567,183,-41.9698,-0.103394,0,0,0,0,0,0,0,-1,657,841,-41.9698,0.103422
-560,183,-34.0303,-1.05511,0,0,0,0,0,0,0,-1,664,841,-34.0303,1.05511
-553,183,-32.2224,-1.71942,0,0,0,0,0,0,0,-1,671,841,-32.2224,1.71944
-546,183,-27.8053,-1.91199,0,0,0,0,0,0,0,-1,678,841,-27.8053,1.91201
-539,183,-16.8032,-0.417297,0,0,0,0,0,0,0,-1,685,841,-16.8032,0.41732
-532,183,-29.9686,0.953613,0,0,0,0,0,0,0,-1,692,841,-29.9686,-0.953627
-525,183,-55.6847,0.842468,0,0,0,0,0,0,0,-1,699,841,-55.6847,-0.842446
-518,183,-55.8212,0.79126,0.000132756,0.0105588,0.00207797,0.0109577,-0.000266133,1.38114,0.00739544,0.0472607,706,841,-55.8213,-0.791266
-511,183,-55.8069,0.831604,4.87475e-05,0.0112396,0.00280888,0.011905,-0.000616708,1.33817,0.00815002,0.0401127,713,841,-55.8069,-0.831578
-504,183,-55.7687,1.02966,0.00218649,0.0102357,0.0029141,0.0111799,0.00124225,1.25745,0.00707565,0.040924,720,841,-55.7687,-1.02964
-497,183,-56.0739,0.516113,0.00684158,0.00707055,0.00222704,0.00918605,0.00472608,0.811079,0.00530431,0.0429936,727,841,-56.0739,-0.516107
-490,183,-55.6686,0.716492,0.0151213,0.00155136,0.000708777,0.0151582,0.00151444,0.0520427,0.00964039,0.043335,734,841,-55.6686,-0.716477
-483,183,0,0,0,0,0,0,0,0,0,-1,741,841,0,0
-476,183,0,0,0,0,0,0,0,0,0,-1,748,841,0,0
-469,183,0,0,0,0,0,0,0,0,0,-1,755,841,0,0
-462,183,0,0,0,0,0,0,0,0,0,-1,762,841,0,0
-455,183,0,0,0,0,0,0,0,0,0,-1,769,841,0,0
-448,183,0,0,0,0,0,0,0,0,0,-1,776,841,0,0
-441,183,0,0,0,0,0,0,0,0,0,-1,783,841,0,0
-434,183,0,0,0,0,0,0,0,0,0,-1,790,841,0,0
-427,183,0,0,0,0,0,0,0,0,0,-1,797,841,0,0
-420,183,0,0,0,0,0,0,0,0,0,-1,804,841,0,0
-413,183,0,0,0,0,0,0,0,0,0,-1,811,841,0,0
-406,183,0,0,0,0,0,0,0,0,0,-1,818,841,0,0
-399,183,0,0,0,0,0,0,0,0,0,-1,825,841,0,0
-392,183,0,0,0,0,0,0,0,0,0,-1,832,841,0,0
-385,183,0,0,0,0,0,0,0,0,0,-1,839,841,0,0
-378,183,0,0,0,0,0,0,0,0,0,-1,846,841,0,0
-371,183,0,0,0,0,0,0,0,0,0,-1,853,841,0,0
-364,183,0,0,0,0,0,0,0,0,0,-1,860,841,0,0
-357,183,0,0,0,0,0,0,0,0,0,-1,867,841,0,0
-350,183,0,0,0,0,0,0,0,0,0,-1,874,841,0,0
-343,183,0,0,0,0,0,0,0,0,0,-1,881,841,0,0
-336,183,0,0,0,0,0,0,0,0,0,-1,888,841,0,0
-329,183,0,0,0,0,0,0,0,0,0,-1,895,841,0,0
-322,183,0,0,0,0,0,0,0,0,0,-1,902,841,0,0
-315,183,0,0,0,0,0,0,0,0,0,-1,909,841,0,0
-308,183,0,0,0,0,0,0,0,0,0,-1,916,841,0,0
-301,183,0,0,0,0,0,0,0,0,0,-1,923,841,0,0
-294,183,0,0,0,0,0,0,0,0,0,-1,930,841,0,0
-287,183,0,0,0,0,0,0,0,0,0,-1,937,841,0,0
-280,183,0,0,0,0,0,0,0,0,0,-1,944,841,0,0
-273,183,0,0,0,0,0,0,0,0,0,-1,951,841,0,0
-266,183,0,0,0,0,0,0,0,0,0,-1,958,841,0,0
-259,183,0,0,0,0,0,0,0,0,0,-1,965,841,0,0
-252,183,0,0,0,0,0,0,0,0,0,-1,972,841,0,0
-245,183,0,0,0,0,0,0,0,0,0,-1,979,841,0,0
-238,183,0,0,0,0,0,0,0,0,0,-1,986,841,0,0
-231,183,0,0,0,0,0,0,0,0,0,-1,993,841,0,0
-224,183,0,0,0,0,0,0,0,0,0,-1,1000,841,0,0
-217,183,0,0,0,0,0,0,0,0,0,-1,1007,841,0,0
-210,183,0,0,0,0,0,0,0,0,0,-1,1014,841,0,0
-203,183,0,0,0,0,0,0,0,0,0,-1,1021,841,0,0
-196,183,0,0,0,0,0,0,0,0,0,-1,1028,841,0,0
-189,183,0,0,0,0,0,0,0,0,0,-1,1035,841,0,0
-182,183,0,0,0,0,0,0,0,0,0,-1,1042,841,0,0
-175,183,0,0,0,0,0,0,0,0,0,-1,1049,841,0,0
-168,183,0,0,0,0,0,0,0,0,0,-1,1056,841,0,0
-161,183,0,0,0,0,0,0,0,0,0,-1,1063,841,0,0
-154,183,0,0,0,0,0,0,0,0,0,-1,1070,841,0,0
-147,183,0,0,0,0,0,0,0,0,0,-1,1077,841,0,0
-140,183,0,0,0,0,0,0,0,0,0,-1,1084,841,0,0
-133,183,0,0,0,0,0,0,0,0,0,-1,1091,841,0,0
-126,183,0,0,0,0,0,0,0,0,0,-1,1098,841,0,0
-119,183,0,0,0,0,0,0,0,0,0,-1,1105,841,0,0
-112,183,0,0,0,0,0,0,0,0,0,-1,1112,841,0,0
-105,183,0,0,0,0,0,0,0,0,0,-1,1119,841,0,0
-98,183,0,0,0,0,0,0,0,0,0,-1,1126,841,0,0
-91,183,0,0,0,0,0,0,0,0,0,-1,1133,841,0,0
-84,183,0,0,0,0,0,0,0,0,0,-1,1140,841,0,0
-77,183,0,0,0,0,0,0,0,0,0,-1,1147,841,0,0
-70,183,0,0,0,0,0,0,0,0,0,-1,1154,841,0,0
-63,183,0,0,0,0,0,0,0,0,0,-1,1161,841,0,0
-56,183,0,0,0,0,0,0,0,0,0,-1,1168,841,0,0
-49,183,0,0,0,0,0,0,0,0,0,-1,1175,841,0,0
-42,183,0,0,0,0,0,0,0,0,0,-1,1182,841,0,0
-35,183,0,0,0,0,0,0,0,0,0,-1,1189,841,0,0
-28,183,0,0,0,0,0,0,0,0,0,-1,1196,841,0,0
-21,183,0,0,0,0,0,0,0,0,0,-1,1203,841,0,0
-14,183,0,0,0,0,0,0,0,0,0,-1,1210,841,0,0
-7,183,0,0,0,0,0,0,0,0,0,-1,1217,841,0,0
0,183,0,0,0,0,0,0,0,0,0,-1,1224,841,0,0
7,183,0,0,0,0,0,0,0,0,0,-1,1231,841,0,0
14,183,0,0,0,0,0,0,0,0,0,-1,1238,841,0,0
21,183,0,0,0,0,0,0,0,0,0,-1,1245,841,0,0
28,183,0,0,0,0,0,0,0,0,0,-1,1252,841,0,0
35,183,0,0,0,0,0,0,0,0,0,-1,1259,841,0,0
42,183,0,0,0,0,0,0,0,0,0,-1,1266,841,0,0
49,183,0,0,0,0,0,0,0,0,0,-1,1273,841,0,0
56,183,0,0,0,0,0,0,0,0,0,-1,1280,841,0,0
63,183,0,0,0,0,0,0,0,0,0,-1,1287,841,0,0
70,183,0,0,0,0,0,0,0,0,0,-1,1294,841,0,0
77,183,0,0,0,0,0,0,0,0,0,-1,1301,841,0,0
84,183,0,0,0,0,0,0,0,0,0,-1,1308,841,0,0
91,183,0,0,0,0,0,0,0,0,0,-1,1315,841,0,0
98,183,0,0,0,0,0,0,0,0,0,-1,1322,841,0,0
105,183,0,0,0,0,0,0,0,0,0,-1,1329,841,0,0
112,183,0,0,0,0,0,0,0,0,0,-1,1336,841,0,0
119,183,0,0,0,0,0,0,0,0,0,-1,1343,841,0,0
126,183,0,0,0,0,0,0,0,0,0,-1,1350,841,0,0
133,183,0,0,0,0,0,0,0,0,0,-1,1357,841,0,0
140,183,0,0,0,0,0,0,0,0,0,-1,1364,841,0,0
147,183,0,0,0,0,0,0,0,0,0,-1,1371,841,0,0
154,183,0,0,0,0,0,0,0,0,0,-1,1378,841,0,0
161,183,0,0,0,0,0,0,0,0,0,-1,1385,841,0,0
168,183,0,0,0,0,0,0,0,0,0,-1,1392,841,0,0
175,183,0,0,0,0,0,0,0,0,0,-1,1399,841,0,0
182,183,0,0,0,0,0,0,0,0,0,-1,1406,841,0,0
189,183,0,0,0,0,0,0,0,0,0,-1,1413,841,0,0
196,183,0,0,0,0,0,0,0,0,0,-1,1420,841,0,0
203,183,0,0,0,0,0,0,0,0,0,-1,1427,841,0,0
210,183,0,0,0,0,0,0,0,0,0,-1,1434,841,0,0
217,183,0,0,0,0,0,0,0,0,0,-1,1441,841,0,0
224,183,0,0,0,0,0,0,0,0,0,-1,1448,841,0,0
231,183,0,0,0,0,0,0,0,0,0,-1,1455,841,0,0
238,183,0,0,0,0,0,0,0,0,0,-1,1462,841,0,0
245,183,0,0,0,0,0,0,0,0,0,-1,1469,841,0,0
252,183,0,0,0,0,0,0,0,0,0,-1,1476,841,0,0
259,183,0,0,0,0,0,0,0,0,0,-1,1483,841,0,0
266,183,0,0,0,0,0,0,0,0,0,-1,1490,841,0,0
273,183,0,0,0,0,0,0,0,0,0,-1,1497,841,0,0
280,183,0,0,0,0,0,0,0,0,0,-1,1504,841,0,0
287,183,0,0,0,0,0,0,0,0,0,-1,1511,841,0,0
294,183,0,0,0,0,0,0,0,0,0,-1,1518,841,0,0
301,183,0,0,0,0,0,0,0,0,0,-1,1525,841,0,0
308,183,0,0,0,0,0,0,0,0,0,-1,1532,841,0,0
315,183,0,0,0,0,0,0,0,0,0,-1,1539,841,0,0
322,183,0,0,0,0,0,0,0,0,0,-1,1546,841,0,0
329,183,0,0,0,0,0,0,0,0,0,-1,1553,841,0,0
336,183,0,0,0,0,0,0,0,0,0,-1,1560,841,0,0
343,183,0,0,0,0,0,0,0,0,0,-1,1567,841,0,0
350,183,0,0,0,0,0,0,0,0,0,-1,1574,841,0,0
357,183,0,0,0,0,0,0,0,0,0,-1,1581,841,0,0
364,183,0,0,0,0,0,0,0,0,0,-1,1588,841,0,0
371,183,0,0,0,0,0,0,0,0,0,-1,1595,841,0,0
378,183,0,0,0,0,0,0,0,0,0,-1,1602,841,0,0
385,183,0,0,0,0,0,0,0,0,0,-1,1609,841,0,0
392,183,0,0,0,0,0,0,0,0,0,-1,1616,841,0,0
399,183,0,0,0,0,0,0,0,0,0,-1,1623,841,0,0
406,183,0,0,0,0,0,0,0,0,0,-1,1630,841,0,0
413,183,0,0,0,0,0,0,0,0,0,-1,1637,841,0,0
420,183,0,0,0,0,0,0,0,0,0,-1,1644,841,0,0
427,183,0,0,0,0,0,0,0,0,0,-1,1651,841,0,0
434,183,0,0,0,0,0,0,0,0,0,-1,1658,841,0,0
441,183,0,0,0,0,0,0,0,0,0,-1,1665,841,0,0
448,183,0,0,0,0,0,0,0,0,0,-1,1672,841,0,0
455,183,0,0,0,0,0,0,0,0,0,-1,1679,841,0,0
462,183,0,0,0,0,0,0,0,0,0,-1,1686,841,0,0
469,183,0,0,0,0,0,0,0,0,0,-1,1693,841,0,0
476,183,0,0,0,0,0,0,0,0,0,-1,1700,841,0,0
483,183,0,0,0,0,0,0,0,0,0,-1,1707,841,0,0
490,183,0,0,0,0,0,0,0,0,0,-1,1714,841,0,0
497,183,0,0,0,0,0,0,0,0,0,-1,1721,841,0,0
504,183,0,0,0,0,0,0,0,0,0,-1,1728,841,0,0
511,183,0,0,0,0,0,0,0,0,0,-1,1735,841,0,0
518,183,0,0,0,0,0,0,0,0,0,-1,1742,841,0,0
525,183,0,0,0,0,0,0,0,0,0,-1,1749,841,0,0
532,183,0,0,0,0,0,0,0,0,0,-1,1756,841,0,0
539,183,0,0,0,0,0,0,0,0,0,-1,1763,841,0,0
546,183,0,0,0,0,0,0,0,0,0,-1,1770,841,0,0
553,183,0,0,0,0,0,0,0,0,0,-1,1777,841,0,0
560,183,0,0,0,0,0,0,0,0,0,-1,1784,841,0,0
567,183,0,0,0,0,0,0,0,0,0,-1,1791,841,0,0
574,183,0,0,0,0,0,0,0,0,0,-1,1798,841,0,0
581,183,0,0,0,0,0,0,0,0,0,-1,1805,841,0,0
588,183,0,0,0,0,0,0,0,0,0,-1,1812,841,0,0
595,183,0,0,0,0,0,0,0,0,0,-1,1819,841,0,0
602,183,0,0,0,0,0,0,0,0,0,-1,1826,841,0,0
609,183,71.675,2.69397,-0.000863315,-0.002388,-0.00230865,0.000805602,-0.00405691,-0.625929,0.0030093,0.042938,1833,841,71.6751,-2.69395
616,183,71.5867,2.66656,-3.05047e-05,-0.00170552,-0.00174887,0.00107105,-0.00280707,-0.562091,0.0023126,0.0405205,1840,841,71.5867,-2.66654
623,183,71.7795,2.54169,0.000455798,-0.00118822,-0.00113366,0.0010341,-0.00176653,-0.471713,0.00163527,0.0419537,1847,841,71.7795,-2.54171
630,183,71.9249,2.43433,0.000714387,-0.000762695,-0.000546891,0.00089483,-0.000943139,-0.318697,0.00106127,0.0414533,1854,841,71.925,-2.43432
637,183,71.8846,2.37097,0.000414658,-0.000687583,-0.000443647,0.000571037,-0.000843963,-0.338888,0.000822,0.0355837,1861,841,71.8847,-2.37098
644,183,71.7319,2.34473,-7.10371e-05,-0.000982305,-0.000670754,0.000284201,-0.00133754,-0.487054,0.000999983,0.0287823,1868,841,71.7319,-2.34471
651,183,71.7795,2.44202,-0.00049261,-0.00121275,-0.00096192,0.000174422,-0.00187979,-0.606308,0.00131519,0.0328682,1875,841,71.7796,-2.44203
658,183,71.8521,2.53687,0,0,0,0,0,0,0,-1,1882,841,71.8521,-2.53687
665,183,38.4337,2.66992,0,0,0,0,0,0,0,-1,1889,841,38.4337,-2.6699
672,183,29.168,1.54572,0,0,0,0,0,0,0,-1,1896,841,29.168,-1.54574
679,183,57.3578,-0.763672,0,0,0,0,0,0,0,-1,1903,841,57.3578,0.763678
686,183,57.3201,-0.0113525,-0.00212534,-0.00105124,-0.00123975,-0.000237209,-0.00293937,-0.989792,0.00188549,0.0376436,1910,841,57.3201,0.0113663
693,183,57.2649,0.70929,-0.00186365,-0.00100969,-0.00143382,5.93787e-05,-0.00293271,-0.930113,0.00197523,0.0349465,1917,841,57.2649,-0.709287
700,183,57.1389,1.5744,-0.00175001,-0.00075108,-0.00160452,0.000429915,-0.002931,-0.936287,0.00211194,0.0405133,1924,841,57.1389,-1.57438
707,183,57.0249,2.40656,-0.00182466,-0.000429886,-0.00151354,0.000539209,-0.00279376,-1.00128,0.00206583,0.0140625,1931,841,57.0249,-2.40658
714,183,57.0236,3.1792,-0.00137433,7.35428e-05,-0.00109199,0.000659768,-0.00196056,-1.07811,0.00157376,0.0185007,1938,841,57.0235,-3.17917
721,183,56.9974,3.99408,-0.000777016,0.000478671,-0.000521706,0.000667139,-0.000965484,-1.22413,0.000947827,0.0171542,1945,841,56.9974,-3.99408
728,183,56.9133,4.83173,-0.000137841,0.000648711,7.46912e-05,0.000655741,-0.000144871,1.47695,0.000492604,0.0151872,1952,841,56.9134,-4.83172
735,183,56.8682,5.62653,0.00047643,0.000563879,0.000663785,0.00118538,-0.000145069,0.818286,0.00084278,0.0136627,1959,841,56.8681,-5.62653
742,183,56.8414,6.45276,0.000928418,0.000132651,0.00122267,0.00181632,-0.00075525,0.628092,0.00152624,0.0136393,1966,841,56.8414,-6.45274
749,183,56.9215,7.67151,0.0011732,-0.00101352,0.00169704,0.00209859,-0.00193892,0.499228,0.00233167,0.0367003,1973,841,56.9216,-7.67148
756,183,57.0208,8.94812,0,0,0,0,0,0,0,-1,1980,841,57.0208,-8.94815
763,183,55.9149,9.33643,0,0,0,0,0,0,0,-1,1987,841,55.915,-9.33642
770,183,51.5659,9.50665,0,0,0,0,0,0,0,-1,1994,841,51.5659,-9.50663
777,183,42.1948,7.22906,0,0,0,0,0,0,0,-1,2001,841,42.1948,-7.22905
784,183,0,0,0,0,0,0,0,0,0,-1,2008,841,0,0
791,183,0,0,0,0,0,0,0,0,0,-1,2015,841,0,0
798,183,0,0,0,0,0,0,0,0,0,-1,2022,841,0,0
805,183,0,0,0,0,0,0,0,0,0,-1,2029,841,0,0
812,183,0,0,0,0,0,0,0,0,0,-1,2036,841,0,0
-700,176,0,0,0,0,0,0,0,0,0,-1,524,848,0,0
-693,176,0,0,0,0,0,0,0,0,0,-1,531,848,0,0
-686,176,0,0,0,0,0,0,0,0,0,-1,538,848,0,0
-679,176,0,0,0,0,0,0,0,0,0,-1,545,848,0,0
-672,176,0,0,0,0,0,0,0,0,0,-1,552,848,0,0
-665,176,-59.6962,8.75854,0,0,0,0,0,0,0,-1,559,848,-59.6962,-8.75853
-658,176,-59.6349,7.95142,0,0,0,0,0,0,0,-1,566,848,-59.6349,-7.95144
-651,176,-40.3313,9.35437,0,0,0,0,0,0,0,-1,573,848,-40.3313,-9.35437
-644,176,-43.1446,7.86438,0,0,0,0,0,0,0,-1,580,848,-43.1446,-7.86439
-637,176,-41.3419,8.49255,0,0,0,0,0,0,0,-1,587,848,-41.3419,-8.49257
-630,176,-41.7948,7.8692,0,0,0,0,0,0,0,-1,594,848,-41.7948,-7.8692
-623,176,-42.1936,6.77136,-0.00178469,0.0102616,-0.0125717,0.0181785,-0.00970162,-1.00879,0.0163427,0.0414656,601,848,-42.1936,-6.77139
-616,176,-42.5626,5.68433,-0.0018933,0.00760221,-0.00844705,0.0125443,-0.00683543,-1.04143,0.0113496,0.0283142,608,848,-42.5625,-5.68432
-609,176,-42.6844,4.83313,-0.00212987,0.00556712,-0.00518968,0.00817956,-0.00474231,-1.10444,0.00754792,0.0126534,615,848,-42.6844,-4.83315
-602,176,-42.7378,4.00537,-0.00266722,0.0038444,-0.00240626,0.0046371,-0.00345991,-1.25256,0.00469125,0.0130756,622,848,-42.7378,-4.00535
-595,176,-42.765,3.16919,-0.00335764,0.00250796,-0.000130805,0.00251087,-0.00336056,-1.54851,0.00340168,0.0132632,629,848,-42.765,-3.16917
-588,176,-42.7778,2.36285,-0.0038122,0.00136935,0.00126674,0.00166245,-0.0041053,1.34342,0.00342813,0.0154201,636,848,-42.7778,-2.36285
-581,176,-42.8687,1.60486,-0.00350313,0.000587688,0.00190755,0.00133915,-0.00425458,1.19553,0.00337259,0.0148514,643,848,-42.8687,-1.60485
-574,176,-42.9982,0.80365,-0.00305426,0.000798176,0.00179062,0.00150191,-0.00375799,1.19633,0.00312853,0.0307708,650,848,-42.9982,-0.803646
-567,176,-43.0134,-0.14978,0,0,0,0,0,0,0,-1,657,848,-43.0133,0.149753
-560,176,-31.6935,-0.0994873,0,0,0,0,0,0,0,-1,664,848,-31.6936,0.0994584
-553,176,-29.4605,-1.50214,0,0,0,0,0,0,0,-1,671,848,-29.4605,1.50211
-546,176,-16.657,-0.403198,0,0,0,0,0,0,0,-1,678,848,-16.657,0.403182
-539,176,-22.7061,1.48657,0,0,0,0,0,0,0,-1,685,848,-22.7061,-1.48657
-532,176,-38.8326,1.29749,0,0,0,0,0,0,0,-1,692,848,-38.8326,-1.29747
-525,176,-55.7736,0.706116,0,0,0,0,0,0,0,-1,699,848,-55.7736,-0.706092
-518,176,-55.9258,0.65509,0.000112763,0.00959534,0.00168548,0.00988601,-0.00017791,1.40002,0.00665077,0.0413325,706,848,-55.9258,-0.65509
-511,176,-56.0366,0.57666,0.000574824,0.00997266,0.00234677,0.0105261,2.13957e-05,1.3392,0.00701027,0.0400805,713,848,-56.0366,-0.576685
-504,176,-56.1201,0.483643,0.00386817,0.00819658,0.00225503,0.00915791,0.00290685,1.16782,0.00540355,0.0412495,720,848,-56.1201,-0.483656
-497,176,-56.1042,0.49176,0.00951202,0.00444226,0.00144941,0.00989715,0.00405714,0.259708,0.00574494,0.0419734,727,848,-56.1042,-0.49175
-490,176,-55.8259,0.660767,0.0177229,-0.000983278,0.000254763,0.0177264,-0.000986748,0.0136158,0.0121598,0.0408879,734,848,-55.8258,-0.660776
-483,176,0,0,0,0,0,0,0,0,0,-1,741,848,0,0
-476,176,0,0,0,0,0,0,0,0,0,-1,748,848,0,0
-469,176,0,0,0,0,0,0,0,0,0,-1,755,848,0,0
-462,176,0,0,0,0,0,0,0,0,0,-1,762,848,0,0
-455,176,0,0,0,0,0,0,0,0,0,-1,769,848,0,0
-448,176,0,0,0,0,0,0,0,0,0,-1,776,848,0,0
-441,176,0,0,0,0,0,0,0,0,0,-1,783,848,0,0
-434,176,0,0,0,0,0,0,0,0,0,-1,790,848,0,0
-427,176,0,0,0,0,0,0,0,0,0,-1,797,848,0,0
-420,176,0,0,0,0,0,0,0,0,0,-1,804,848,0,0
-413,176,0,0,0,0,0,0,0,0,0,-1,811,848,0,0
-406,176,0,0,0,0,0,0,0,0,0,-1,818,848,0,0
-399,176,0,0,0,0,0,0,0,0,0,-1,825,848,0,0
-392,176,0,0,0,0,0,0,0,0,0,-1,832,848,0,0
-385,176,0,0,0,0,0,0,0,0,0,-1,839,848,0,0
-378,176,0,0,0,0,0,0,0,0,0,-1,846,848,0,0
-371,176,0,0,0,0,0,0,0,0,0,-1,853,848,0,0
-364,176,0,0,0,0,0,0,0,0,0,-1,860,848,0,0
-357,176,0,0,0,0,0,0,0,0,0,-1,867,848,0,0
-350,176,0,0,0,0,0,0,0,0,0,-1,874,848,0,0
-343,176,0,0,0,0,0,0,0,0,0,-1,881,848,0,0
-336,176,0,0,0,0,0,0,0,0,0,-1,888,848,0,0
-329,176,0,0,0,0,0,0,0,0,0,-1,895,848,0,0
-322,176,0,0,0,0,0,0,0,0,0,-1,902,848,0,0
-315,176,0,0,0,0,0,0,0,0,0,-1,909,848,0,0
-308,176,0,0,0,0,0,0,0,0,0,-1,916,848,0,0
-301,176,0,0,0,0,0,0,0,0,0,-1,923,848,0,0
-294,176,0,0,0,0,0,0,0,0,0,-1,930,848,0,0
-287,176,0,0,0,0,0,0,0,0,0,-1,937,848,0,0
-280,176,0,0,0,0,0,0,0,0,0,-1,944,848,0,0
-273,176,0,0,0,0,0,0,0,0,0,-1,951,848,0,0
-266,176,0,0,0,0,0,0,0,0,0,-1,958,848,0,0
-259,176,0,0,0,0,0,0,0,0,0,-1,965,848,0,0
-252,176,0,0,0,0,0,0,0,0,0,-1,972,848,0,0
-245,176,0,0,0,0,0,0,0,0,0,-1,979,848,0,0
-238,176,0,0,0,0,0,0,0,0,0,-1,986,848,0,0
-231,176,0,0,0,0,0,0,0,0,0,-1,993,848,0,0
-224,176,0,0,0,0,0,0,0,0,0,-1,1000,848,0,0
-217,176,0,0,0,0,0,0,0,0,0,-1,1007,848,0,0
-210,176,0,0,0,0,0,0,0,0,0,-1,1014,848,0,0
-203,176,0,0,0,0,0,0,0,0,0,-1,1021,848,0,0
-196,176,0,0,0,0,0,0,0,0,0,-1,1028,848,0,0
-189,176,0,0,0,0,0,0,0,0,0,-1,1035,848,0,0
-182,176,0,0,0,0,0,0,0,0,0,-1,1042,848,0,0
-175,176,0,0,0,0,0,0,0,0,0,-1,1049,848,0,0
-168,176,0,0,0,0,0,0,0,0,0,-1,1056,848,0,0
-161,176,0,0,0,0,0,0,0,0,0,-1,1063,848,0,0
-154,176,0,0,0,0,0,0,0,0,0,-1,1070,848,0,0
-147,176,0,0,0,0,0,0,0,0,0,-1,1077,848,0,0
-140,176,0,0,0,0,0,0,0,0,0,-1,1084,848,0,0
-133,176,0,0,0,0,0,0,0,0,0,-1,1091,848,0,0
-126,176,0,0,0,0,0,0,0,0,0,-1,1098,848,0,0
-119,176,0,0,0,0,0,0,0,0,0,-1,1105,848,0,0
-112,176,0,0,0,0,0,0,0,0,0,-1,1112,848,0,0
-105,176,0,0,0,0,0,0,0,0,0,-1,1119,848,0,0
-98,176,0,0,0,0,0,0,0,0,0,-1,1126,848,0,0
-91,176,0,0,0,0,0,0,0,0,0,-1,1133,848,0,0
-84,176,0,0,0,0,0,0,0,0,0,-1,1140,848,0,0
-77,176,0,0,0,0,0,0,0,0,0,-1,1147,848,0,0
-70,176,0,0,0,0,0,0,0,0,0,-1,1154,848,0,0
-63,176,0,0,0,0,0,0,0,0,0,-1,1161,848,0,0
-56,176,0,0,0,0,0,0,0,0,0,-1,1168,848,0,0
-49,176,0,0,0,0,0,0,0,0,0,-1,1175,848,0,0
-42,176,0,0,0,0,0,0,0,0,0,-1,1182,848,0,0
-35,176,0,0,0,0,0,0,0,0,0,-1,1189,848,0,0
-28,176,0,0,0,0,0,0,0,0,0,-1,1196,848,0,0
-21,176,0,0,0,0,0,0,0,0,0,-1,1203,848,0,0
-14,176,0,0,0,0,0,0,0,0,0,-1,1210,848,0,0
-7,176,0,0,0,0,0,0,0,0,0,-1,1217,848,0,0
0,176,0,0,0,0,0,0,0,0,0,-1,1224,848,0,0
7,176,0,0,0,0,0,0,0,0,0,-1,1231,848,0,0
14,176,0,0,0,0,0,0,0,0,0,-1,1238,848,0,0
21,176,0,0,0,0,0,0,0,0,0,-1,1245,848,0,0
28,176,0,0,0,0,0,0,0,0,0,-1,1252,848,0,0
35,176,0,0,0,0,0,0,0,0,0,-1,1259,848,0,0
42,176,0,0,0,0,0,0,0,0,0,-1,1266,848,0,0
49,176,0,0,0,0,0,0,0,0,0,-1,1273,848,0,0
56,176,0,0,0,0,0,0,0,0,0,-1,1280,848,0,0
63,176,0,0,0,0,0,0,0,0,0,-1,1287,848,0,0
70,176,0,0,0,0,0,0,0,0,0,-1,1294,848,0,0
77,176,0,0,0,0,0,0,0,0,0,-1,1301,848,0,0
84,176,0,0,0,0,0,0,0,0,0,-1,1308,848,0,0
91,176,0,0,0,0,0,0,0,0,0,-1,1315,848,0,0
98,176,0,0,0,0,0,0,0,0,0,-1,1322,848,0,0
105,176,0,0,0,0,0,0,0,0,0,-1,1329,848,0,0
112,176,0,0,0,0,0,0,0,0,0,-1,1336,848,0,0
119,176,0,0,0,0,0,0,0,0,0,-1,1343,848,0,0
126,176,0,0,0,0,0,0,0,0,0,-1,1350,848,0,0
133,176,0,0,0,0,0,0,0,0,0,-1,1357,848,0,0
140,176,0,0,0,0,0,0,0,0,0,-1,1364,848,0,0
147,176,0,0,0,0,0,0,0,0,0,-1,1371,848,0,0
154,176,0,0,0,0,0,0,0,0,0,-1,1378,848,0,0
161,176,0,0,0,0,0,0,0,0,0,-1,1385,848,0,0
168,176,0,0,0,0,0,0,0,0,0,-1,1392,848,0,0
175,176,0,0,0,0,0,0,0,0,0,-1,1399,848,0,0
182,176,0,0,0,0,0,0,0,0,0,-1,1406,848,0,0
189,176,0,0,0,0,0,0,0,0,0,-1,1413,848,0,0
196,176,0,0,0,0,0,0,0,0,0,-1,1420,848,0,0
203,176,0,0,0,0,0,0,0,0,0,-1,1427,848,0,0
210,176,0,0,0,0,0,0,0,0,0,-1,1434,848,0,0
217,176,0,0,0,0,0,0,0,0,0,-1,1441,848,0,0
224,176,0,0,0,0,0,0,0,0,0,-1,1448,848,0,0
231,176,0,0,0,0,0,0,0,0,0,-1,1455,848,0,0
238,176,0,0,0,0,0,0,0,0,0,-1,1462,848,0,0
245,176,0,0,0,0,0,0,0,0,0,-1,1469,848,0,0
252,176,0,0,0,0,0,0,0,0,0,-1,1476,848,0,0
259,176,0,0,0,0,0,0,0,0,0,-1,1483,848,0,0
266,176,0,0,0,0,0,0,0,0,0,-1,1490,848,0,0
273,176,0,0,0,0,0,0,0,0,0,-1,1497,848,0,0
280,176,0,0,0,0,0,0,0,0,0,-1,1504,848,0,0
287,176,0,0,0,0,0,0,0,0,0,-1,1511,848,0,0
294,176,0,0,0,0,0,0,0,0,0,-1,1518,848,0,0
301,176,0,0,0,0,0,0,0,0,0,-1,1525,848,0,0
308,176,0,0,0,0,0,0,0,0,0,-1,1532,848,0,0
315,176,0,0,0,0,0,0,0,0,0,-1,1539,848,0,0
322,176,0,0,0,0,0,0,0,0,0,-1,1546,848,0,0
329,176,0,0,0,0,0,0,0,0,0,-1,1553,848,0,0
336,176,0,0,0,0,0,0,0,0,0,-1,1560,848,0,0
343,176,0,0,0,0,0,0,0,0,0,-1,1567,848,0,0
350,176,0,0,0,0,0,0,0,0,0,-1,1574,848,0,0
357,176,0,0,0,0,0,0,0,0,0,-1,1581,848,0,0
364,176,0,0,0,0,0,0,0,0,0,-1,1588,848,0,0
371,176,0,0,0,0,0,0,0,0,0,-1,1595,848,0,0
378,176,0,0,0,0,0,0,0,0,0,-1,1602,848,0,0
385,176,0,0,0,0,0,0,0,0,0,-1,1609,848,0,0
392,176,0,0,0,0,0,0,0,0,0,-1,1616,848,0,0
399,176,0,0,0,0,0,0,0,0,0,-1,1623,848,0,0
406,176,0,0,0,0,0,0,0,0,0,-1,1630,848,0,0
413,176,0,0,0,0,0,0,0,0,0,-1,1637,848,0,0
420,176,0,0,0,0,0,0,0,0,0,-1,1644,848,0,0
427,176,0,0,0,0,0,0,0,0,0,-1,1651,848,0,0
434,176,0,0,0,0,0,0,0,0,0,-1,1658,848,0,0
441,176,0,0,0,0,0,0,0,0,0,-1,1665,848,0,0
448,176,0,0,0,0,0,0,0,0,0,-1,1672,848,0,0
455,176,0,0,0,0,0,0,0,0,0,-1,1679,848,0,0
462,176,0,0,0,0,0,0,0,0,0,-1,1686,848,0,0
469,176,0,0,0,0,0,0,0,0,0,-1,1693,848,0,0
476,176,0,0,0,0,0,0,0,0,0,-1,1700,848,0,0
483,176,0,0,0,0,0,0,0,0,0,-1,1707,848,0,0
490,176,0,0,0,0,0,0,0,0,0,-1,1714,848,0,0
497,176,0,0,0,0,0,0,0,0,0,-1,1721,848,0,0
504,176,0,0,0,0,0,0,0,0,0,-1,1728,848,0,0
511,176,0,0,0,0,0,0,0,0,0,-1,1735,848,0,0
518,176,0,0,0,0,0,0,0,0,0,-1,1742,848,0,0
525,176,0,0,0,0,0,0,0,0,0,-1,1749,848,0,0
532,176,0,0,0,0,0,0,0,0,0,-1,1756,848,0,0
539,176,0,0,0,0,0,0,0,0,0,-1,1763,848,0,0
546,176,0,0,0,0,0,0,0,0,0,-1,1770,848,0,0
553,176,0,0,0,0,0,0,0,0,0,-1,1777,848,0,0
560,176,0,0,0,0,0,0,0,0,0,-1,1784,848,0,0
567,176,0,0,0,0,0,0,0,0,0,-1,1791,848,0,0
574,176,0,0,0,0,0,0,0,0,0,-1,1798,848,0,0
581,176,0,0,0,0,0,0,0,0,0,-1,1805,848,0,0
588,176,0,0,0,0,0,0,0,0,0,-1,1812,848,0,0
595,176,0,0,0,0,0,0,0,0,0,-1,1819,848,0,0
602,176,0,0,0,0,0,0,0,0,0,-1,1826,848,0,0
609,176,71.7217,2.5423,-0.00181311,-0.0018162,-0.0033463,0.00153165,-0.00516096,-0.785168,0.00404894,0.0399334,1833,848,71.7217,-2.54227
616,176,71.5706,2.50861,-0.00079647,-0.00116417,-0.00259322,0.00161941,-0.00358005,-0.750009,0.00307223,0.0413409,1840,848,71.5706,-2.50861
623,176,71.5682,2.59412,-0.000145275,-0.000770579,-0.0018178,0.00138657,-0.00230242,-0.700234,0.00215161,0.0456032,1847,848,71.5682,-2.59413
630,176,71.823,2.57599,0.000328966,-0.000515961,-0.00107844,0.00106473,-0.00125173,-0.598717,0.00133886,0.0417816,1854,848,71.823,-2.57597
637,176,71.8542,2.48029,0.000316622,-0.00048406,-0.000719444,0.000739611,-0.00090705,-0.531504,0.000952337,0.0333403,1861,848,71.8542,-2.48029
644,176,71.7405,2.34186,-4.46099e-05,-0.000794944,-0.000806642,0.000469842,-0.0013094,-0.567729,0.00106468,0.0326596,1868,848,71.7405,-2.34183
651,176,71.7794,2.32532,-0.000470585,-0.00106819,-0.00107153,0.000343021,-0.00188179,-0.649425,0.00138312,0.0343543,1875,848,71.7794,-2.32532
658,176,71.8121,2.40613,0,0,0,0,0,0,0,-1,1882,848,71.8121,-2.4061
665,176,54.3333,2.34277,0,0,0,0,0,0,0,-1,1889,848,54.3333,-2.34279
672,176,16.9304,2.80719,0,0,0,0,0,0,0,-1,1896,848,16.9305,-2.80719
679,176,50.9341,0.315979,0,0,0,0,0,0,0,-1,1903,848,50.9341,-0.315984
686,176,58.3031,0.139709,0,0,0,0,0,0,0,-1,1910,848,58.3031,-0.13969
693,176,58.1165,0.893005,-0.00165897,-0.000729929,-0.00139563,0.000276462,-0.00266536,-0.94605,0.00187586,0.0347515,1917,848,58.1165,-0.892994
700,176,57.9957,1.79834,-0.00159847,-0.000441937,-0.00154214,0.000626792,-0.0026672,-0.964773,0.00201974,0.041803,1924,848,57.9958,-1.79834
707,176,57.9839,2.54242,-0.001824,-0.00013819,-0.00149847,0.000738184,-0.00270037,-1.0416,0.00209022,0.0288636,1931,848,57.9839,-2.54243
714,176,57.8424,3.25116,-0.001524,0.00034644,-0.00116994,0.000909016,-0.00208658,-1.12258,0.00177349,0.0146879,1938,848,57.8424,-3.25114
721,176,57.8219,4.03357,-0.00105741,0.000789753,-0.000715436,0.00103444,-0.00130209,-1.24126,0.00135195,0.0150068,1945,848,57.822,-4.03357
728,176,57.7379,4.87622,-0.000528045,0.00104777,-0.000231003,0.00108093,-0.000561211,-1.4282,0.000963789,0.0181439,1952,848,57.7379,-4.87624
735,176,57.6783,5.67169,4.02976e-05,0.0011232,0.000269814,0.0011867,-2.3205e-05,1.33965,0.000798982,0.0160715,1959,848,57.6783,-5.67172
742,176,57.6594,6.47784,0.000463357,0.000990345,0.00074711,0.00151906,-6.5363e-05,0.95493,0.00103519,0.0256346,1966,848,57.6595,-6.47783
749,176,57.9458,7.53229,0.000678063,0.00038206,0.00115075,0.00169029,-0.000630165,0.721443,0.00138554,0.0387235,1973,848,57.9458,-7.53228
756,176,58.3503,8.67944,0,0,0,0,0,0,0,-1,1980,848,58.3503,-8.67942
763,176,44.4343,7.70581,0,0,0,0,0,0,0,-1,1987,848,44.4343,-7.70578
770,176,36.4186,4.25641,0,0,0,0,0,0,0,-1,1994,848,36.4186,-4.25639
777,176,43.8328,7.50177,0,0,0,0,0,0,0,-1,2001,848,43.8328,-7.50178
784,176,0,0,0,0,0,0,0,0,0,-1,2008,848,0,0
791,176,0,0,0,0,0,0,0,0,0,-1,2015,848,0,0
798,176,0,0,0,0,0,0,0,0,0,-1,2022,848,0,0
805,176,0,0,0,0,0,0,0,0,0,-1,2029,848,0,0
812,176,0,0,0,0,0,0,0,0,0,-1,2036,848,0,0
-700,169,0,0,0,0,0,0,0,0,0,-1,524,855,0,0
-693,169,0,0,0,0,0,0,0,0,0,-1,531,855,0,0
-686,169,0,0,0,0,0,0,0,0,0,-1,538,855,0,0
-679,169,0,0,0,0,0,0,0,0,0,-1,545,855,0,0
-672,169,0,0,0,0,0,0,0,0,0,-1,552,855,0,0
-665,169,-50.4697,8.3269,0,0,0,0,0,0,0,-1,559,855,-50.4697,-8.32688
-658,169,-58.8608,8.22839,0,0,0,0,0,0,0,-1,566,855,-58.8608,-8.2284
-651,169,-43.5024,9.3349,0,0,0,0,0,0,0,-1,573,855,-43.5025,-9.33492
-644,169,-43.193,8.37292,0,0,0,0,0,0,0,-1,580,855,-43.193,-8.3729
-637,169,-42.8521,7.51019,0,0,0,0,0,0,0,-1,587,855,-42.8521,-7.51017
-630,169,-43.6321,7.92334,0,0,0,0,0,0,0,-1,594,855,-43.6321,-7.92333
-623,169,-43.1683,6.87061,-0.00390306,0.0103626,-0.0109431,0.0162923,-0.00983273,-1.07422,0.0152362,0.0402828,601,855,-43.1683,-6.8706
-616,169,-43.445,5.66156,-0.00373424,0.00756611,-0.00721631,0.0110811,-0.0072492,-1.11753,0.0106598,0.0233483,608,855,-43.445,-5.66155
-609,169,-43.5132,4.87958,-0.00380047,0.00534958,-0.0041278,0.0069365,-0.00538739,-1.20377,0.00713391,0.0145792,615,855,-43.5132,-4.87956
-602,169,-43.5676,4.05579,-0.0042423,0.00344105,-0.0014007,0.00368844,-0.00448969,-1.39598,0.00472919,0.0145165,622,855,-43.5676,-4.05578
-595,169,-43.5894,3.21368,-0.0047987,0.00188722,0.000759467,0.00197241,-0.00488389,1.4591,0.00407572,0.0134632,629,855,-43.5893,-3.21368
-588,169,-43.5953,2.4314,-0.00494914,0.000560096,0.00177352,0.00108165,-0.0054707,1.28478,0.00405604,0.0119086,636,855,-43.5953,-2.43142
-581,169,-43.6852,1.66785,-0.0043159,-0.000305496,0.00205027,0.000557129,-0.00517852,1.17254,0.00365225,0.0259036,643,855,-43.6852,-1.66783
-574,169,-44.0753,0.825317,-0.0038446,-0.000108029,0.00179256,0.000612851,-0.00456548,1.18844,0.00326715,0.0431603,650,855,-44.0753,-0.825344
-567,169,-43.8731,0.00665283,0,0,0,0,0,0,0,-1,657,855,-43.8731,-0.00664433
-560,169,-43.8988,-0.691162,0,0,0,0,0,0,0,-1,664,855,-43.8988,0.691146
-553,169,-32.1944,-0.787964,0,0,0,0,0,0,0,-1,671,855,-32.1944,0.787959
-546,169,-19.0852,-1.05609,0,0,0,0,0,0,0,-1,678,855,-19.0852,1.05612
-539,169,-33.2307,1.10706,0,0,0,0,0,0,0,-1,685,855,-33.2307,-1.10708
-532,169,-55.7036,0.755859,0,0,0,0,0,0,0,-1,692,855,-55.7036,-0.755857
-525,169,-55.865,0.64447,6.62595e-05,0.00672247,0.00130397,0.00696881,-0.000180075,1.38409,0.00470704,0.0441967,699,855,-55.865,-0.644486
-518,169,-56.0102,0.552551,2.42118e-05,0.00814048,0.00128133,0.00833796,-0.00017327,1.41788,0.00561729,0.0411234,706,855,-56.0102,-0.552539
-511,169,-55.9169,0.501831,0.00146345,0.00801439,0.00180775,0.00848013,0.000997713,1.31864,0.00535194,0.0410697,713,855,-55.9169,-0.501861
-504,169,-55.9294,0.344116,0.00590541,0.00566583,0.00170963,0.00749944,0.0040718,0.75042,0.00433512,0.0414799,720,855,-55.9294,-0.344101
-497,169,-55.951,0.391113,0.0120195,0.00185353,0.00118092,0.0121549,0.00171815,0.114139,0.00759557,0.0418854,727,855,-55.951,-0.391124
-490,169,0,0,0,0,0,0,0,0,0,-1,734,855,0,0
-483,169,0,0,0,0,0,0,0,0,0,-1,741,855,0,0
-476,169,0,0,0,0,0,0,0,0,0,-1,748,855,0,0
-469,169,0,0,0,0,0,0,0,0,0,-1,755,855,0,0
-462,169,0,0,0,0,0,0,0,0,0,-1,762,855,0,0
-455,169,0,0,0,0,0,0,0,0,0,-1,769,855,0,0
-448,169,0,0,0,0,0,0,0,0,0,-1,776,855,0,0
-441,169,0,0,0,0,0,0,0,0,0,-1,783,855,0,0
-434,169,0,0,0,0,0,0,0,0,0,-1,790,855,0,0
-427,169,0,0,0,0,0,0,0,0,0,-1,797,855,0,0
-420,169,0,0,0,0,0,0,0,0,0,-1,804,855,0,0
-413,169,0,0,0,0,0,0,0,0,0,-1,811,855,0,0
-406,169,0,0,0,0,0,0,0,0,0,-1,818,855,0,0
-399,169,0,0,0,0,0,0,0,0,0,-1,825,855,0,0
-392,169,0,0,0,0,0,0,0,0,0,-1,832,855,0,0
-385,169,0,0,0,0,0,0,0,0,0,-1,839,855,0,0
-378,169,0,0,0,0,0,0,0,0,0,-1,846,855,0,0
-371,169,0,0,0,0,0,0,0,0,0,-1,853,855,0,0
-364,169,0,0,0,0,0,0,0,0,0,-1,860,855,0,0
-357,169,0,0,0,0,0,0,0,0,0,-1,867,855,0,0
-350,169,0,0,0,0,0,0,0,0,0,-1,874,855,0,0
-343,169,0,0,0,0,0,0,0,0,0,-1,881,855,0,0
-336,169,0,0,0,0,0,0,0,0,0,-1,888,855,0,0
-329,169,0,0,0,0,0,0,0,0,0,-1,895,855,0,0
-322,169,0,0,0,0,0,0,0,0,0,-1,902,855,0,0
-315,169,0,0,0,0,0,0,0,0,0,-1,909,855,0,0
-308,169,0,0,0,0,0,0,0,0,0,-1,916,855,0,0
-301,169,0,0,0,0,0,0,0,0,0,-1,923,855,0,0
-294,169,0,0,0,0,0,0,0,0,0,-1,930,855,0,0
-287,169,0,0,0,0,0,0,0,0,0,-1,937,855,0,0
-280,169,0,0,0,0,0,0,0,0,0,-1,944,855,0,0
-273,169,0,0,0,0,0,0,0,0,0,-1,951,855,0,0
-266,169,0,0,0,0,0,0,0,0,0,-1,958,855,0,0
-259,169,0,0,0,0,0,0,0,0,0,-1,965,855,0,0
-252,169,0,0,0,0,0,0,0,0,0,-1,972,855,0,0
-245,169,0,0,0,0,0,0,0,0,0,-1,979,855,0,0
-238,169,0,0,0,0,0,0,0,0,0,-1,986,855,0,0
-231,169,0,0,0,0,0,0,0,0,0,-1,993,855,0,0
-224,169,0,0,0,0,0,0,0,0,0,-1,1000,855,0,0
-217,169,0,0,0,0,0,0,0,0,0,-1,1007,855,0,0
-210,169,0,0,0,0,0,0,0,0,0,-1,1014,855,0,0
-203,169,0,0,0,0,0,0,0,0,0,-1,1021,855,0,0
-196,169,0,0,0,0,0,0,0,0,0,-1,1028,855,0,0
-189,169,0,0,0,0,0,0,0,0,0,-1,1035,855,0,0
-182,169,0,0,0,0,0,0,0,0,0,-1,1042,855,0,0
-175,169,0,0,0,0,0,0,0,0,0,-1,1049,855,0,0
-168,169,0,0,0,0,0,0,0,0,0,-1,1056,855,0,0
-161,169,0,0,0,0,0,0,0,0,0,-1,1063,855,0,0
-154,169,0,0,0,0,0,0,0,0,0,-1,1070,855,0,0
-147,169,0,0,0,0,0,0,0,0,0,-1,1077,855,0,0
-140,169,0,0,0,0,0,0,0,0,0,-1,1084,855,0,0
-133,169,0,0,0,0,0,0,0,0,0,-1,1091,855,0,0
-126,169,0,0,0,0,0,0,0,0,0,-1,1098,855,0,0
-119,169,0,0,0,0,0,0,0,0,0,-1,1105,855,0,0
-112,169,0,0,0,0,0,0,0,0,0,-1,1112,855,0,0
-105,169,0,0,0,0,0,0,0,0,0,-1,1119,855,0,0
-98,169,0,0,0,0,0,0,0,0,0,-1,1126,855,0,0
-91,169,0,0,0,0,0,0,0,0,0,-1,1133,855,0,0
-84,169,0,0,0,0,0,0,0,0,0,-1,1140,855,0,0
-77,169,0,0,0,0,0,0,0,0,0,-1,1147,855,0,0
-70,169,0,0,0,0,0,0,0,0,0,-1,1154,855,0,0
-63,169,0,0,0,0,0,0,0,0,0,-1,1161,855,0,0
-56,169,0,0,0,0,0,0,0,0,0,-1,1168,855,0,0
-49,169,0,0,0,0,0,0,0,0,0,-1,1175,855,0,0
-42,169,0,0,0,0,0,0,0,0,0,-1,1182,855,0,0
-35,169,0,0,0,0,0,0,0,0,0,-1,1189,855,0,0
-28,169,0,0,0,0,0,0,0,0,0,-1,1196,855,0,0
-21,169,0,0,0,0,0,0,0,0,0,-1,1203,855,0,0
-14,169,0,0,0,0,0,0,0,0,0,-1,1210,855,0,0
-7,169,0,0,0,0,0,0,0,0,0,-1,1217,855,0,0
0,169,0,0,0,0,0,0,0,0,0,-1,1224,855,0,0
7,169,0,0,0,0,0,0,0,0,0,-1,1231,855,0,0
14,169,0,0,0,0,0,0,0,0,0,-1,1238,855,0,0
21,169,0,0,0,0,0,0,0,0,0,-1,1245,855,0,0
28,169,0,0,0,0,0,0,0,0,0,-1,1252,855,0,0
35,169,0,0,0,0,0,0,0,0,0,-1,1259,855,0,0
42,169,0,0,0,0,0,0,0,0,0,-1,1266,855,0,0
49,169,0,0,0,0,0,0,0,0,0,-1,1273,855,0,0
56,169,0,0,0,0,0,0,0,0,0,-1,1280,855,0,0
63,169,0,0,0,0,0,0,0,0,0,-1,1287,855,0,0
70,169,0,0,0,0,0,0,0,0,0,-1,1294,855,0,0
77,169,0,0,0,0,0,0,0,0,0,-1,1301,855,0,0
84,169,0,0,0,0,0,0,0,0,0,-1,1308,855,0,0
91,169,0,0,0,0,0,0,0,0,0,-1,1315,855,0,0
98,169,0,0,0,0,0,0,0,0,0,-1,1322,855,0,0
105,169,0,0,0,0,0,0,0,0,0,-1,1329,855,0,0
112,169,0,0,0,0,0,0,0,0,0,-1,1336,855,0,0
119,169,0,0,0,0,0,0,0,0,0,-1,1343,855,0,0
126,169,0,0,0,0,0,0,0,0,0,-1,1350,855,0,0
133,169,0,0,0,0,0,0,0,0,0,-1,1357,855,0,0
140,169,0,0,0,0,0,0,0,0,0,-1,1364,855,0,0
147,169,0,0,0,0,0,0,0,0,0,-1,1371,855,0,0
154,169,0,0,0,0,0,0,0,0,0,-1,1378,855,0,0
161,169,0,0,0,0,0,0,0,0,0,-1,1385,855,0,0
168,169,0,0,0,0,0,0,0,0,0,-1,1392,855,0,0
175,169,0,0,0,0,0,0,0,0,0,-1,1399,855,0,0
182,169,0,0,0,0,0,0,0,0,0,-1,1406,855,0,0
189,169,0,0,0,0,0,0,0,0,0,-1,1413,855,0,0
196,169,0,0,0,0,0,0,0,0,0,-1,1420,855,0,0
203,169,0,0,0,0,0,0,0,0,0,-1,1427,855,0,0
210,169,0,0,0,0,0,0,0,0,0,-1,1434,855,0,0
217,169,0,0,0,0,0,0,0,0,0,-1,1441,855,0,0
224,169,0,0,0,0,0,0,0,0,0,-1,1448,855,0,0
231,169,0,0,0,0,0,0,0,0,0,-1,1455,855,0,0
238,169,0,0,0,0,0,0,0,0,0,-1,1462,855,0,0
245,169,0,0,0,0,0,0,0,0,0,-1,1469,855,0,0
252,169,0,0,0,0,0,0,0,0,0,-1,1476,855,0,0
259,169,0,0,0,0,0,0,0,0,0,-1,1483,855,0,0
266,169,0,0,0,0,0,0,0,0,0,-1,1490,855,0,0
273,169,0,0,0,0,0,0,0,0,0,-1,1497,855,0,0
280,169,0,0,0,0,0,0,0,0,0,-1,1504,855,0,0
287,169,0,0,0,0,0,0,0,0,0,-1,1511,855,0,0
294,169,0,0,0,0,0,0,0,0,0,-1,1518,855,0,0
301,169,0,0,0,0,0,0,0,0,0,-1,1525,855,0,0
308,169,0,0,0,0,0,0,0,0,0,-1,1532,855,0,0
315,169,0,0,0,0,0,0,0,0,0,-1,1539,855,0,0
322,169,0,0,0,0,0,0,0,0,0,-1,1546,855,0,0
329,169,0,0,0,0,0,0,0,0,0,-1,1553,855,0,0
336,169,0,0,0,0,0,0,0,0,0,-1,1560,855,0,0
343,169,0,0,0,0,0,0,0,0,0,-1,1567,855,0,0
350,169,0,0,0,0,0,0,0,0,0,-1,1574,855,0,0
357,169,0,0,0,0,0,0,0,0,0,-1,1581,855,0,0
364,169,0,0,0,0,0,0,0,0,0,-1,1588,855,0,0
371,169,0,0,0,0,0,0,0,0,0,-1,1595,855,0,0
378,169,0,0,0,0,0,0,0,0,0,-1,1602,855,0,0
385,169,0,0,0,0,0,0,0,0,0,-1,1609,855,0,0
392,169,0,0,0,0,0,0,0,0,0,-1,1616,855,0,0
399,169,0,0,0,0,0,0,0,0,0,-1,1623,855,0,0
406,169,0,0,0,0,0,0,0,0,0,-1,1630,855,0,0
413,169,0,0,0,0,0,0,0,0,0,-1,1637,855,0,0
420,169,0,0,0,0,0,0,0,0,0,-1,1644,855,0,0
427,169,0,0,0,0,0,0,0,0,0,-1,1651,855,0,0
434,169,0,0,0,0,0,0,0,0,0,-1,1658,855,0,0
441,169,0,0,0,0,0,0,0,0,0,-1,1665,855,0,0
448,169,0,0,0,0,0,0,0,0,0,-1,1672,855,0,0
455,169,0,0,0,0,0,0,0,0,0,-1,1679,855,0,0
462,169,0,0,0,0,0,0,0,0,0,-1,1686,855,0,0
469,169,0,0,0,0,0,0,0,0,0,-1,1693,855,0,0
476,169,0,0,0,0,0,0,0,0,0,-1,1700,855,0,0
483,169,0,0,0,0,0,0,0,0,0,-1,1707,855,0,0
490,169,0,0,0,0,0,0,0,0,0,-1,1714,855,0,0
497,169,0,0,0,0,0,0,0,0,0,-1,1721,855,0,0
504,169,0,0,0,0,0,0,0,0,0,-1,1728,855,0,0
511,169,0,0,0,0,0,0,0,0,0,-1,1735,855,0,0
518,169,0,0,0,0,0,0,0,0,0,-1,1742,855,0,0
525,169,0,0,0,0,0,0,0,0,0,-1,1749,855,0,0
532,169,0,0,0,0,0,0,0,0,0,-1,1756,855,0,0
539,169,0,0,0,0,0,0,0,0,0,-1,1763,855,0,0
546,169,0,0,0,0,0,0,0,0,0,-1,1770,855,0,0
553,169,0,0,0,0,0,0,0,0,0,-1,1777,855,0,0
560,169,0,0,0,0,0,0,0,0,0,-1,1784,855,0,0
567,169,0,0,0,0,0,0,0,0,0,-1,1791,855,0,0
574,169,0,0,0,0,0,0,0,0,0,-1,1798,855,0,0
581,169,0,0,0,0,0,0,0,0,0,-1,1805,855,0,0
588,169,0,0,0,0,0,0,0,0,0,-1,1812,855,0,0
595,169,0,0,0,0,0,0,0,0,0,-1,1819,855,0,0
602,169,0,0,0,0,0,0,0,0,0,-1,1826,855,0,0
609,169,0,0,0,0,0,0,0,0,0,-1,1833,855,0,0
616,169,71.5834,2.42969,-0.00166723,0.000292933,-0.00389797,0.00333215,-0.00470644,-0.908562,0.00466364,0.0415694,1840,855,71.5834,-2.4297
623,169,71.4785,2.45233,-0.0008947,0.000362173,-0.00287748,0.00267904,-0.00321157,-0.892909,0.00340557,0.0455982,1847,855,71.4786,-2.45231
630,169,71.8302,2.33142,-0.000220428,0.000237922,-0.00192289,0.00194524,-0.00192775,-0.84471,0.00223608,0.0420939,1854,855,71.8302,-2.3314
637,169,71.8317,2.5061,9.93058e-05,-6.73716e-07,-0.00124424,0.00129456,-0.00119593,-0.765321,0.00143826,0.0359451,1861,855,71.8317,-2.50608
644,169,71.8317,2.40057,-5.08398e-05,-0.000438512,-0.00110158,0.000873832,-0.00136318,-0.698309,0.0013018,0.0354721,1868,855,71.8317,-2.40058
651,169,71.8264,2.35931,-0.000412377,-0.000802859,-0.00126839,0.000675707,-0.00189094,-0.709033,0.00153622,0.0371124,1875,855,71.8264,-2.35932
658,169,71.8339,2.37787,-0.000908158,-0.000638878,-0.00137274,0.000605808,-0.00215285,-0.834282,0.00167411,0.0469764,1882,855,71.8339,-2.37786
665,169,71.8817,2.22638,0,0,0,0,0,0,0,-1,1889,855,71.8818,-2.22637
672,169,31.2465,2.96387,0,0,0,0,0,0,0,-1,1896,855,31.2464,-2.9639
679,169,38.4297,1.08197,0,0,0,0,0,0,0,-1,1903,855,38.4296,-1.08194
686,169,58.928,0.152161,0,0,0,0,0,0,0,-1,1910,855,58.928,-0.152171
693,169,59.0684,1.01257,-0.00154655,-0.000344615,-0.00130885,0.000494647,-0.00238581,-1.00062,0.0017785,0.0402945,1917,855,59.0684,-1.01255
700,169,59.0658,1.89508,-0.00153413,-3.5526e-05,-0.00140262,0.000805391,-0.00237504,-1.03072,0.00190931,0.0336581,1924,855,59.0658,-1.89505
707,169,58.9375,2.66614,-0.00188739,0.00027372,-0.001376,0.000942732,-0.0025564,-1.11825,0.00209061,0.0360013,1931,855,58.9376,-2.66615
714,169,58.5803,3.03748,0,0,0,0,0,0,0,-1,1938,855,58.5804,-3.03748
721,169,58.639,4.07574,-0.00143039,0.00122219,-0.000813603,0.00145186,-0.00166006,-1.29567,0.001798,0.019474,1945,855,58.639,-4.07575
728,169,58.5786,4.89655,-0.00104523,0.00151406,-0.000495684,0.00160671,-0.00113788,-1.38601,0.00159228,0.0159743,1952,855,58.5787,-4.89654
735,169,58.4946,5.70673,-0.000550009,0.00165689,-0.000153907,0.00166757,-0.00056069,-1.5015,0.00133835,0.0203885,1959,855,58.4946,-5.70673
742,169,58.489,6.53363,-0.000161311,0.00168464,0.000200053,0.00170607,-0.000182743,1.46407,0.00120293,0.0194483,1966,855,58.489,-6.53363
749,169,58.4528,7.24158,2.34779e-05,0.0014063,0.000489827,0.00156223,-0.000132448,1.26261,0.00108832,0.0310223,1973,855,58.4528,-7.24156
756,169,58.6486,7.89832,0,0,0,0,0,0,0,-1,1980,855,58.6486,-7.89829
763,169,45.1978,7.5675,0,0,0,0,0,0,0,-1,1987,855,45.1977,-7.56751
770,169,37.2059,3.97021,0,0,0,0,0,0,0,-1,1994,855,37.2059,-3.97022
777,169,41.7505,8.7085,0,0,0,0,0,0,0,-1,2001,855,41.7505,-8.70852
784,169,40.7385,9.24359,0,0,0,0,0,0,0,-1,2008,855,40.7384,-9.24361
791,169,0,0,0,0,0,0,0,0,0,-1,2015,855,0,0
798,169,0,0,0,0,0,0,0,0,0,-1,2022,855,0,0
805,169,0,0,0,0,0,0,0,0,0,-1,2029,855,0,0
812,169,0,0,0,0,0,0,0,0,0,-1,2036,855,0,0
-700,162,0,0,0,0,0,0,0,0,0,-1,524,862,0,0
-693,162,0,0,0,0,0,0,0,0,0,-1,531,862,0,0
-686,162,0,0,0,0,0,0,0,0,0,-1,538,862,0,0
-679,162,0,0,0,0,0,0,0,0,0,-1,545,862,0,0
-672,162,0,0,0,0,0,0,0,0,0,-1,552,862,0,0
-665,162,-50.6751,7.18884,0,0,0,0,0,0,0,-1,559,862,-50.6751,-7.18885
-658,162,-50.7888,6.02673,0,0,0,0,0,0,0,-1,566,862,-50.7888,-6.02673
-651,162,-43.5444,9.86621,0,0,0,0,0,0,0,-1,573,862,-43.5444,-9.86623
-644,162,-43.2151,8.88611,0,0,0,0,0,0,0,-1,580,862,-43.2151,-8.88608
-637,162,-44.3229,8.45398,0,0,0,0,0,0,0,-1,587,862,-44.323,-8.45396
-630,162,-44.3389,7.62292,0,0,0,0,0,0,0,-1,594,862,-44.3389,-7.62292
-623,162,-44.2143,6.60254,-0.00537751,0.0104548,-0.00909162,0.0145937,-0.00951635,-1.1436,0.0140224,0.0354981,601,862,-44.2143,-6.60252
-616,162,-44.225,5.68945,-0.0050411,0.00765626,-0.00578406,0.009896,-0.00728085,-1.20135,0.0099553,0.0214753,608,862,-44.225,-5.68946
-609,162,-44.3339,4.88239,-0.00503598,0.00532509,-0.00291104,0.00608695,-0.00579784,-1.31482,0.00686237,0.0143041,615,862,-44.3339,-4.88236
-602,162,-44.4105,4.08563,-0.00548367,0.00323553,-0.00027919,0.00324446,-0.0054926,-1.53882,0.0050997,0.0123725,622,862,-44.4104,-4.08563
-595,162,-44.4236,3.2804,-0.00589696,0.00143964,0.0016623,0.00179871,-0.00625602,1.35806,0.00488198,0.0121304,629,862,-44.4236,-3.28041
-588,162,-44.4172,2.48901,-0.00573856,-1.37259e-05,0.00222762,0.00075094,-0.00650322,1.24013,0.00460624,0.0168438,636,862,-44.4172,-2.48904
-581,162,-44.6922,1.70068,-0.00498472,-0.000872208,0.00221768,9.58175e-05,-0.00595274,1.15922,0.00400082,0.0445158,643,862,-44.6922,-1.70069
-574,162,-45.282,0.538025,0,0,0,0,0,0,0,-1,650,862,-45.282,-0.53802
-567,162,-45.183,-0.0852051,0,0,0,0,0,0,0,-1,657,862,-45.1831,0.0852103
-560,162,-36.5075,-0.831665,0,0,0,0,0,0,0,-1,664,862,-36.5075,0.831657
-553,162,-35.9823,-1.60956,0,0,0,0,0,0,0,-1,671,862,-35.9823,1.60954
-546,162,-22.8181,-1.51154,0,0,0,0,0,0,0,-1,678,862,-22.8181,1.51155
-539,162,-53.0229,0.9328,0,0,0,0,0,0,0,-1,685,862,-53.0229,-0.932798
-532,162,-56.0054,0.307129,0,0,0,0,0,0,0,-1,692,862,-56.0054,-0.307113
-525,162,-55.9526,0.463928,-0.000164112,0.00530838,0.00117406,0.00554962,-0.00040536,1.36814,0.003842,0.0394232,699,862,-55.9526,-0.463956
-518,162,-55.9977,0.406433,0.000106069,0.00649512,0.00102483,0.00665548,-5.42912e-05,1.41558,0.00445519,0.0398921,706,862,-55.9977,-0.406426
-511,162,-55.9173,0.327271,0.00253104,0.00583535,0.00141651,0.00635945,0.00200693,1.21642,0.00375396,0.0429287,713,862,-55.9173,-0.327269
-504,162,-55.934,0.423645,0.00747392,0.00337904,0.00146547,0.00794434,0.00290862,0.310611,0.00464115,0.0425946,720,862,-55.934,-0.423629
-497,162,-55.9156,0.492065,0.0134641,-0.000100046,0.00148082,0.0136239,-0.000259827,0.107485,0.00917043,0.0416164,727,862,-55.9156,-0.492071
-490,162,0,0,0,0,0,0,0,0,0,-1,734,862,0,0
-483,162,0,0,0,0,0,0,0,0,0,-1,741,862,0,0
-476,162,0,0,0,0,0,0,0,0,0,-1,748,862,0,0
-469,162,0,0,0,0,0,0,0,0,0,-1,755,862,0,0
-462,162,0,0,0,0,0,0,0,0,0,-1,762,862,0,0
-455,162,0,0,0,0,0,0,0,0,0,-1,769,862,0,0
-448,162,0,0,0,0,0,0,0,0,0,-1,776,862,0,0
-441,162,0,0,0,0,0,0,0,0,0,-1,783,862,0,0
-434,162,0,0,0,0,0,0,0,0,0,-1,790,862,0,0
-427,162,0,0,0,0,0,0,0,0,0,-1,797,862,0,0
-420,162,0,0,0,0,0,0,0,0,0,-1,804,862,0,0
-413,162,0,0,0,0,0,0,0,0,0,-1,811,862,0,0
-406,162,0,0,0,0,0,0,0,0,0,-1,818,862,0,0
-399,162,0,0,0,0,0,0,0,0,0,-1,825,862,0,0
-392,162,0,0,0,0,0,0,0,0,0,-1,832,862,0,0
-385,162,0,0,0,0,0,0,0,0,0,-1,839,862,0,0
-378,162,0,0,0,0,0,0,0,0,0,-1,846,862,0,0
-371,162,0,0,0,0,0,0,0,0,0,-1,853,862,0,0
-364,162,0,0,0,0,0,0,0,0,0,-1,860,862,0,0
-357,162,0,0,0,0,0,0,0,0,0,-1,867,862,0,0
-350,162,0,0,0,0,0,0,0,0,0,-1,874,862,0,0
-343,162,0,0,0,0,0,0,0,0,0,-1,881,862,0,0
-336,162,0,0,0,0,0,0,0,0,0,-1,888,862,0,0
-329,162,0,0,0,0,0,0,0,0,0,-1,895,862,0,0
-322,162,0,0,0,0,0,0,0,0,0,-1,902,862,0,0
-315,162,0,0,0,0,0,0,0,0,0,-1,909,862,0,0
-308,162,0,0,0,0,0,0,0,0,0,-1,916,862,0,0
-301,162,0,0,0,0,0,0,0,0,0,-1,923,862,0,0
-294,162,0,0,0,0,0,0,0,0,0,-1,930,862,0,0
-287,162,0,0,0,0,0,0,0,0,0,-1,937,862,0,0
-280,162,0,0,0,0,0,0,0,0,0,-1,944,862,0,0
-273,162,0,0,0,0,0,0,0,0,0,-1,951,862,0,0
-266,162,0,0,0,0,0,0,0,0,0,-1,958,862,0,0
-259,162,0,0,0,0,0,0,0,0,0,-1,965,862,0,0
-252,162,0,0,0,0,0,0,0,0,0,-1,972,862,0,0
-245,162,0,0,0,0,0,0,0,0,0,-1,979,862,0,0
-238,162,0,0,0,0,0,0,0,0,0,-1,986,862,0,0
-231,162,0,0,0,0,0,0,0,0,0,-1,993,862,0,0
-224,162,0,0,0,0,0,0,0,0,0,-1,1000,862,0,0
-217,162,0,0,0,0,0,0,0,0,0,-1,1007,862,0,0
-210,162,0,0,0,0,0,0,0,0,0,-1,1014,862,0,0
-203,162,0,0,0,0,0,0,0,0,0,-1,1021,862,0,0
-196,162,0,0,0,0,0,0,0,0,0,-1,1028,862,0,0
-189,162,0,0,0,0,0,0,0,0,0,-1,1035,862,0,0
-182,162,0,0,0,0,0,0,0,0,0,-1,1042,862,0,0
-175,162,0,0,0,0,0,0,0,0,0,-1,1049,862,0,0
-168,162,0,0,0,0,0,0,0,0,0,-1,1056,862,0,0
-161,162,0,0,0,0,0,0,0,0,0,-1,1063,862,0,0
-154,162,0,0,0,0,0,0,0,0,0,-1,1070,862,0,0
-147,162,0,0,0,0,0,0,0,0,0,-1,1077,862,0,0
-140,162,0,0,0,0,0,0,0,0,0,-1,1084,862,0,0
-133,162,0,0,0,0,0,0,0,0,0,-1,1091,862,0,0
-126,162,0,0,0,0,0,0,0,0,0,-1,1098,862,0,0
-119,162,0,0,0,0,0,0,0,0,0,-1,1105,862,0,0
-112,162,0,0,0,0,0,0,0,0,0,-1,1112,862,0,0
-105,162,0,0,0,0,0,0,0,0,0,-1,1119,862,0,0
-98,162,0,0,0,0,0,0,0,0,0,-1,1126,862,0,0
-91,162,0,0,0,0,0,0,0,0,0,-1,1133,862,0,0
-84,162,0,0,0,0,0,0,0,0,0,-1,1140,862,0,0
-77,162,0,0,0,0,0,0,0,0,0,-1,1147,862,0,0
-70,162,0,0,0,0,0,0,0,0,0,-1,1154,862,0,0
-63,162,0,0,0,0,0,0,0,0,0,-1,1161,862,0,0
-56,162,0,0,0,0,0,0,0,0,0,-1,1168,862,0,0
-49,162,0,0,0,0,0,0,0,0,0,-1,1175,862,0,0
-42,162,0,0,0,0,0,0,0,0,0,-1,1182,862,0,0
-35,162,0,0,0,0,0,0,0,0,0,-1,1189,862,0,0
-28,162,0,0,0,0,0,0,0,0,0,-1,1196,862,0,0
-21,162,0,0,0,0,0,0,0,0,0,-1,1203,862,0,0
-14,162,0,0,0,0,0,0,0,0,0,-1,1210,862,0,0
-7,162,0,0,0,0,0,0,0,0,0,-1,1217,862,0,0
0,162,0,0,0,0,0,0,0,0,0,-1,1224,862,0,0
7,162,0,0,0,0,0,0,0,0,0,-1,1231,862,0,0
14,162,0,0,0,0,0,0,0,0,0,-1,1238,862,0,0
21,162,0,0,0,0,0,0,0,0,0,-1,1245,862,0,0
28,162,0,0,0,0,0,0,0,0,0,-1,1252,862,0,0
35,162,0,0,0,0,0,0,0,0,0,-1,1259,862,0,0
42,162,0,0,0,0,0,0,0,0,0,-1,1266,862,0,0
49,162,0,0,0,0,0,0,0,0,0,-1,1273,862,0,0
56,162,0,0,0,0,0,0,0,0,0,-1,1280,862,0,0
63,162,0,0,0,0,0,0,0,0,0,-1,1287,862,0,0
70,162,0,0,0,0,0,0,0,0,0,-1,1294,862,0,0
77,162,0,0,0,0,0,0,0,0,0,-1,1301,862,0,0
84,162,0,0,0,0,0,0,0,0,0,-1,1308,862,0,0
91,162,0,0,0,0,0,0,0,0,0,-1,1315,862,0,0
98,162,0,0,0,0,0,0,0,0,0,-1,1322,862,0,0
105,162,0,0,0,0,0,0,0,0,0,-1,1329,862,0,0
112,162,0,0,0,0,0,0,0,0,0,-1,1336,862,0,0
119,162,0,0,0,0,0,0,0,0,0,-1,1343,862,0,0
126,162,0,0,0,0,0,0,0,0,0,-1,1350,862,0,0
133,162,0,0,0,0,0,0,0,0,0,-1,1357,862,0,0
140,162,0,0,0,0,0,0,0,0,0,-1,1364,862,0,0
147,162,0,0,0,0,0,0,0,0,0,-1,1371,862,0,0
154,162,0,0,0,0,0,0,0,0,0,-1,1378,862,0,0
161,162,0,0,0,0,0,0,0,0,0,-1,1385,862,0,0
168,162,0,0,0,0,0,0,0,0,0,-1,1392,862,0,0
175,162,0,0,0,0,0,0,0,0,0,-1,1399,862,0,0
182,162,0,0,0,0,0,0,0,0,0,-1,1406,862,0,0
189,162,0,0,0,0,0,0,0,0,0,-1,1413,862,0,0
196,162,0,0,0,0,0,0,0,0,0,-1,1420,862,0,0
203,162,0,0,0,0,0,0,0,0,0,-1,1427,862,0,0
210,162,0,0,0,0,0,0,0,0,0,-1,1434,862,0,0
217,162,0,0,0,0,0,0,0,0,0,-1,1441,862,0,0
224,162,0,0,0,0,0,0,0,0,0,-1,1448,862,0,0
231,162,0,0,0,0,0,0,0,0,0,-1,1455,862,0,0
238,162,0,0,0,0,0,0,0,0,0,-1,1462,862,0,0
245,162,0,0,0,0,0,0,0,0,0,-1,1469,862,0,0
252,162,0,0,0,0,0,0,0,0,0,-1,1476,862,0,0
259,162,0,0,0,0,0,0,0,0,0,-1,1483,862,0,0
266,162,0,0,0,0,0,0,0,0,0,-1,1490,862,0,0
273,162,0,0,0,0,0,0,0,0,0,-1,1497,862,0,0
280,162,0,0,0,0,0,0,0,0,0,-1,1504,862,0,0
287,162,0,0,0,0,0,0,0,0,0,-1,1511,862,0,0
294,162,0,0,0,0,0,0,0,0,0,-1,1518,862,0,0
301,162,0,0,0,0,0,0,0,0,0,-1,1525,862,0,0
308,162,0,0,0,0,0,0,0,0,0,-1,1532,862,0,0
315,162,0,0,0,0,0,0,0,0,0,-1,1539,862,0,0
322,162,0,0,0,0,0,0,0,0,0,-1,1546,862,0,0
329,162,0,0,0,0,0,0,0,0,0,-1,1553,862,0,0
336,162,0,0,0,0,0,0,0,0,0,-1,1560,862,0,0
343,162,0,0,0,0,0,0,0,0,0,-1,1567,862,0,0
350,162,0,0,0,0,0,0,0,0,0,-1,1574,862,0,0
357,162,0,0,0,0,0,0,0,0,0,-1,1581,862,0,0
364,162,0,0,0,0,0,0,0,0,0,-1,1588,862,0,0
371,162,0,0,0,0,0,0,0,0,0,-1,1595,862,0,0
378,162,0,0,0,0,0,0,0,0,0,-1,1602,862,0,0
385,162,0,0,0,0,0,0,0,0,0,-1,1609,862,0,0
392,162,0,0,0,0,0,0,0,0,0,-1,1616,862,0,0
399,162,0,0,0,0,0,0,0,0,0,-1,1623,862,0,0
406,162,0,0,0,0,0,0,0,0,0,-1,1630,862,0,0
413,162,0,0,0,0,0,0,0,0,0,-1,1637,862,0,0
420,162,0,0,0,0,0,0,0,0,0,-1,1644,862,0,0
427,162,0,0,0,0,0,0,0,0,0,-1,1651,862,0,0
434,162,0,0,0,0,0,0,0,0,0,-1,1658,862,0,0
441,162,0,0,0,0,0,0,0,0,0,-1,1665,862,0,0
448,162,0,0,0,0,0,0,0,0,0,-1,1672,862,0,0
455,162,0,0,0,0,0,0,0,0,0,-1,1679,862,0,0
462,162,0,0,0,0,0,0,0,0,0,-1,1686,862,0,0
469,162,0,0,0,0,0,0,0,0,0,-1,1693,862,0,0
476,162,0,0,0,0,0,0,0,0,0,-1,1700,862,0,0
483,162,0,0,0,0,0,0,0,0,0,-1,1707,862,0,0
490,162,0,0,0,0,0,0,0,0,0,-1,1714,862,0,0
497,162,0,0,0,0,0,0,0,0,0,-1,1721,862,0,0
504,162,0,0,0,0,0,0,0,0,0,-1,1728,862,0,0
511,162,0,0,0,0,0,0,0,0,0,-1,1735,862,0,0
518,162,0,0,0,0,0,0,0,0,0,-1,1742,862,0,0
525,162,0,0,0,0,0,0,0,0,0,-1,1749,862,0,0
532,162,0,0,0,0,0,0,0,0,0,-1,1756,862,0,0
539,162,0,0,0,0,0,0,0,0,0,-1,1763,862,0,0
546,162,0,0,0,0,0,0,0,0,0,-1,1770,862,0,0
553,162,0,0,0,0,0,0,0,0,0,-1,1777,862,0,0
560,162,0,0,0,0,0,0,0,0,0,-1,1784,862,0,0
567,162,0,0,0,0,0,0,0,0,0,-1,1791,862,0,0
574,162,0,0,0,0,0,0,0,0,0,-1,1798,862,0,0
581,162,0,0,0,0,0,0,0,0,0,-1,1805,862,0,0
588,162,0,0,0,0,0,0,0,0,0,-1,1812,862,0,0
595,162,0,0,0,0,0,0,0,0,0,-1,1819,862,0,0
602,162,0,0,0,0,0,0,0,0,0,-1,1826,862,0,0
609,162,0,0,0,0,0,0,0,0,0,-1,1833,862,0,0
616,162,71.6519,2.50934,-0.00251994,0.00130644,-0.00500376,0.0047503,-0.00596379,-0.967998,0.00619899,0.0401281,1840,862,71.6518,-2.50936
623,162,71.7944,2.46191,-0.001772,0.00118743,-0.0037226,0.00371362,-0.00429819,-0.974571,0.00462972,0.0440696,1847,862,71.7945,-2.4619
630,162,71.8569,2.3241,-0.00103271,0.000858512,-0.00259223,0.00267222,-0.00284641,-0.960291,0.00318671,0.0428765,1854,862,71.8569,-2.32407
637,162,71.7992,2.35657,-0.000470036,0.000464552,-0.00168842,0.00174915,-0.00175464,-0.920401,0.00202292,0.0390635,1861,862,71.7992,-2.3566
644,162,71.8289,2.34106,-0.000349288,-6.39944e-05,-0.00131871,0.00111976,-0.00153304,-0.839274,0.00153778,0.036667,1868,862,71.8289,-2.34105
651,162,71.8442,2.3421,-0.000530461,-0.000520202,-0.00135887,0.000833546,-0.00188421,-0.787286,0.00160771,0.0348924,1875,862,71.8443,-2.34212
658,162,71.8207,2.36322,-0.000994992,-0.000322344,-0.00135445,0.000736915,-0.00205425,-0.907092,0.00167024,0.0351547,1882,862,71.8207,-2.36324
665,162,71.9131,2.19727,0,0,0,0,0,0,0,-1,1889,862,71.9131,-2.19725
672,162,56.9712,3.04034,0,0,0,0,0,0,0,-1,1896,862,56.9711,-3.04034
679,162,26.5077,2.54785,0,0,0,0,0,0,0,-1,1903,862,26.5077,-2.54787
686,162,59.3647,0.0274658,0,0,0,0,0,0,0,-1,1910,862,59.3647,-0.027481
693,162,59.9041,1.15533,-0.0014062,0.000106632,-0.00115601,0.000731713,-0.00203128,-1.0751,0.00165298,0.0453664,1917,862,59.9041,-1.15536
700,162,59.8843,1.88727,-0.00138977,0.000471871,-0.00122085,0.00107627,-0.00199417,-1.11111,0.00179893,0.043927,1924,862,59.8843,-1.88725
707,162,59.7186,2.63855,-0.00178584,0.000759612,-0.00119762,0.00123449,-0.00226072,-1.1933,0.00204675,0.0298946,1931,862,59.7186,-2.63853
714,162,59.4974,3.26501,0,0,0,0,0,0,0,-1,1938,862,59.4975,-3.265
721,162,59.333,4.18317,-0.00158641,0.00168539,-0.000815388,0.00187734,-0.00177836,-1.3396,0.00211087,0.0324829,1945,862,59.3331,-4.18315
728,162,59.3164,4.99231,-0.0014023,0.00200292,-0.000662202,0.00212717,-0.00152654,-1.38533,0.00211895,0.0259333,1952,862,59.3164,-4.9923
735,162,59.3137,5.76184,-0.00109201,0.00217002,-0.000488365,0.00224156,-0.00116356,-1.42533,0.00199852,0.0115779,1959,862,59.3137,-5.76181
742,162,59.281,6.53247,-0.00085437,0.00228794,-0.000262363,0.00230969,-0.000876125,-1.48807,0.00190039,0.0143996,1966,862,59.281,-6.53247
749,162,59.2177,7.27502,-0.000834714,0.00224562,-6.39566e-05,0.00224695,-0.000836041,-1.55005,0.00184105,0.0212995,1973,862,59.2177,-7.27501
756,162,58.9509,7.89026,-0.00117109,0.00219283,3.73487e-05,0.00219324,-0.0011715,1.5597,0.00197227,0.0440256,1980,862,58.9509,-7.89023
763,162,58.7526,8.5769,0,0,0,0,0,0,0,-1,1987,862,58.7525,-8.57688
770,162,54.8257,9.36987,0,0,0,0,0,0,0,-1,1994,862,54.8256,-9.36988
777,162,54.9807,10.2266,0,0,0,0,0,0,0,-1,2001,862,54.9806,-10.2265
784,162,55.02,11.0949,0,0,0,0,0,0,0,-1,2008,862,55.0201,-11.0949
791,162,0,0,0,0,0,0,0,0,0,-1,2015,862,0,0
798,162,0,0,0,0,0,0,0,0,0,-1,2022,862,0,0
805,162,0,0,0,0,0,0,0,0,0,-1,2029,862,0,0
812,162,0,0,0,0,0,0,0,0,0,-1,2036,862,0,0
-700,155,0,0,0,0,0,0,0,0,0,-1,524,869,0,0
-693,155,0,0,0,0,0,0,0,0,0,-1,531,869,0,0
-686,155,0,0,0,0,0,0,0,0,0,-1,538,869,0,0
-679,155,0,0,0,0,0,0,0,0,0,-1,545,869,0,0
-672,155,0,0,0,0,0,0,0,0,0,-1,552,869,0,0
-665,155,-50.9639,6.01917,0,0,0,0,0,0,0,-1,559,869,-50.9639,-6.01917
-658,155,-51.2028,4.90723,0,0,0,0,0,0,0,-1,566,869,-51.2028,-4.90722
-651,155,-51.22,3.81226,0,0,0,0,0,0,0,-1,573,869,-51.2201,-3.81228
-644,155,-43.2642,9.34686,0,0,0,0,0,0,0,-1,580,869,-43.2642,-9.34684
-637,155,-43.2825,8.02545,0,0,0,0,0,0,0,-1,587,869,-43.2825,-8.02545
-630,155,-45.0457,7.32251,0,0,0,0,0,0,0,-1,594,869,-45.0457,-7.32251
-623,155,-44.9639,6.57306,-0.00741284,0.0105849,-0.00711404,0.0130572,-0.0098852,-1.23632,0.013288,0.0308239,601,869,-44.9639,-6.57304
-616,155,-45.0263,5.72131,-0.00663504,0.00775563,-0.00427819,0.00893142,-0.00781083,-1.30258,0.00967336,0.0172075,608,869,-45.0263,-5.72133
-609,155,-45.1376,4.89423,-0.00639421,0.00527822,-0.00166523,0.00551114,-0.00662713,-1.43183,0.0070179,0.0147948,615,869,-45.1375,-4.89425
-602,155,-45.2225,4.1123,-0.00669754,0.0030089,0.000780129,0.0030712,-0.00675985,1.49111,0.00580761,0.0140601,622,869,-45.2225,-4.11231
-595,155,-45.2726,3.33527,-0.00680512,0.00119262,0.00229671,0.00180524,-0.00741774,1.31013,0.00564398,0.0134557,629,869,-45.2726,-3.33528
-588,155,-45.2465,2.59918,-0.00639921,-0.000123948,0.00235638,0.000662355,-0.00718551,1.24872,0.0050257,0.0237579,636,869,-45.2464,-2.59916
-581,155,-45.577,1.98096,-0.00572771,-0.000862484,0.00209901,-8.20833e-05,-0.00650811,1.21484,0.00431164,0.046125,643,869,-45.577,-1.98093
-574,155,-45.8604,1.49158,0,0,0,0,0,0,0,-1,650,869,-45.8604,-1.49159
-567,155,-38.0134,0.582214,0,0,0,0,0,0,0,-1,657,869,-38.0134,-0.582192
-560,155,-37.1416,-0.708008,0,0,0,0,0,0,0,-1,664,869,-37.1416,0.70801
-553,155,-36.7729,-1.71521,0,0,0,0,0,0,0,-1,671,869,-36.7729,1.71523
-546,155,-22.7988,0.873657,0,0,0,0,0,0,0,-1,678,869,-22.7988,-0.873645
-539,155,-56.0075,0.221313,0,0,0,0,0,0,0,-1,685,869,-56.0075,-0.221319
-532,155,-55.9312,0.360962,-0.0017454,0.00192844,0.00121329,0.00229296,-0.00210993,1.27894,0.00254274,0.0422974,692,869,-55.9312,-0.360937
-525,155,-55.8657,0.567688,-0.000358403,0.003688,0.000824178,0.00384943,-0.000519833,1.37738,0.00275596,0.037883,699,869,-55.8657,-0.567697
-518,155,-55.8668,0.552002,0.000620537,0.00435431,0.000755389,0.00450134,0.000473503,1.37855,0.00285618,0.042126,706,869,-55.8668,-0.551999
-511,155,-55.918,0.34906,0.00381267,0.00349752,0.00121536,0.00488063,0.00242957,0.720931,0.00281784,0.0445541,713,869,-55.918,-0.349081
-504,155,-55.9113,0.351685,0.00848684,0.00157633,0.00158015,0.00883101,0.00123215,0.214461,0.00552263,0.0424652,720,869,-55.9113,-0.351671
-497,155,0,0,0,0,0,0,0,0,0,-1,727,869,0,0
-490,155,0,0,0,0,0,0,0,0,0,-1,734,869,0,0
-483,155,0,0,0,0,0,0,0,0,0,-1,741,869,0,0
-476,155,0,0,0,0,0,0,0,0,0,-1,748,869,0,0
-469,155,0,0,0,0,0,0,0,0,0,-1,755,869,0,0
-462,155,0,0,0,0,0,0,0,0,0,-1,762,869,0,0
-455,155,0,0,0,0,0,0,0,0,0,-1,769,869,0,0
-448,155,0,0,0,0,0,0,0,0,0,-1,776,869,0,0
-441,155,0,0,0,0,0,0,0,0,0,-1,783,869,0,0
-434,155,0,0,0,0,0,0,0,0,0,-1,790,869,0,0
-427,155,0,0,0,0,0,0,0,0,0,-1,797,869,0,0
-420,155,0,0,0,0,0,0,0,0,0,-1,804,869,0,0
-413,155,0,0,0,0,0,0,0,0,0,-1,811,869,0,0
-406,155,0,0,0,0,0,0,0,0,0,-1,818,869,0,0
-399,155,0,0,0,0,0,0,0,0,0,-1,825,869,0,0
-392,155,0,0,0,0,0,0,0,0,0,-1,832,869,0,0
-385,155,0,0,0,0,0,0,0,0,0,-1,839,869,0,0
-378,155,0,0,0,0,0,0,0,0,0,-1,846,869,0,0
-371,155,0,0,0,0,0,0,0,0,0,-1,853,869,0,0
-364,155,0,0,0,0,0,0,0,0,0,-1,860,869,0,0
-357,155,0,0,0,0,0,0,0,0,0,-1,867,869,0,0
-350,155,0,0,0,0,0,0,0,0,0,-1,874,869,0,0
-343,155,0,0,0,0,0,0,0,0,0,-1,881,869,0,0
-336,155,0,0,0,0,0,0,0,0,0,-1,888,869,0,0
-329,155,0,0,0,0,0,0,0,0,0,-1,895,869,0,0
-322,155,0,0,0,0,0,0,0,0,0,-1,902,869,0,0
-315,155,0,0,0,0,0,0,0,0,0,-1,909,869,0,0
-308,155,0,0,0,0,0,0,0,0,0,-1,916,869,0,0
-301,155,0,0,0,0,0,0,0,0,0,-1,923,869,0,0
-294,155,0,0,0,0,0,0,0,0,0,-1,930,869,0,0
-287,155,0,0,0,0,0,0,0,0,0,-1,937,869,0,0
-280,155,0,0,0,0,0,0,0,0,0,-1,944,869,0,0
-273,155,0,0,0,0,0,0,0,0,0,-1,951,869,0,0
-266,155,0,0,0,0,0,0,0,0,0,-1,958,869,0,0
-259,155,0,0,0,0,0,0,0,0,0,-1,965,869,0,0
-252,155,0,0,0,0,0,0,0,0,0,-1,972,869,0,0
-245,155,0,0,0,0,0,0,0,0,0,-1,979,869,0,0
-238,155,0,0,0,0,0,0,0,0,0,-1,986,869,0,0
-231,155,0,0,0,0,0,0,0,0,0,-1,993,869,0,0
-224,155,0,0,0,0,0,0,0,0,0,-1,1000,869,0,0
-217,155,0,0,0,0,0,0,0,0,0,-1,1007,869,0,0
-210,155,0,0,0,0,0,0,0,0,0,-1,1014,869,0,0
-203,155,0,0,0,0,0,0,0,0,0,-1,1021,869,0,0
-196,155,0,0,0,0,0,0,0,0,0,-1,1028,869,0,0
-189,155,0,0,0,0,0,0,0,0,0,-1,1035,869,0,0
-182,155,0,0,0,0,0,0,0,0,0,-1,1042,869,0,0
-175,155,0,0,0,0,0,0,0,0,0,-1,1049,869,0,0
-168,155,0,0,0,0,0,0,0,0,0,-1,1056,869,0,0
-161,155,0,0,0,0,0,0,0,0,0,-1,1063,869,0,0
-154,155,0,0,0,0,0,0,0,0,0,-1,1070,869,0,0
-147,155,0,0,0,0,0,0,0,0,0,-1,1077,869,0,0
-140,155,0,0,0,0,0,0,0,0,0,-1,1084,869,0,0
-133,155,0,0,0,0,0,0,0,0,0,-1,1091,869,0,0
-126,155,0,0,0,0,0,0,0,0,0,-1,1098,869,0,0
-119,155,0,0,0,0,0,0,0,0,0,-1,1105,869,0,0
-112,155,0,0,0,0,0,0,0,0,0,-1,1112,869,0,0
-105,155,0,0,0,0,0,0,0,0,0,-1,1119,869,0,0
-98,155,0,0,0,0,0,0,0,0,0,-1,1126,869,0,0
-91,155,0,0,0,0,0,0,0,0,0,-1,1133,869,0,0
-84,155,0,0,0,0,0,0,0,0,0,-1,1140,869,0,0
-77,155,0,0,0,0,0,0,0,0,0,-1,1147,869,0,0
-70,155,0,0,0,0,0,0,0,0,0,-1,1154,869,0,0
-63,155,0,0,0,0,0,0,0,0,0,-1,1161,869,0,0
-56,155,0,0,0,0,0,0,0,0,0,-1,1168,869,0,0
-49,155,0,0,0,0,0,0,0,0,0,-1,1175,869,0,0
-42,155,0,0,0,0,0,0,0,0,0,-1,1182,869,0,0
-35,155,0,0,0,0,0,0,0,0,0,-1,1189,869,0,0
-28,155,0,0,0,0,0,0,0,0,0,-1,1196,869,0,0
-21,155,0,0,0,0,0,0,0,0,0,-1,1203,869,0,0
-14,155,0,0,0,0,0,0,0,0,0,-1,1210,869,0,0
-7,155,0,0,0,0,0,0,0,0,0,-1,1217,869,0,0
0,155,0,0,0,0,0,0,0,0,0,-1,1224,869,0,0
7,155,0,0,0,0,0,0,0,0,0,-1,1231,869,0,0
14,155,0,0,0,0,0,0,0,0,0,-1,1238,869,0,0
21,155,0,0,0,0,0,0,0,0,0,-1,1245,869,0,0
28,155,0,0,0,0,0,0,0,0,0,-1,1252,869,0,0
35,155,0,0,0,0,0,0,0,0,0,-1,1259,869,0,0
42,155,0,0,0,0,0,0,0,0,0,-1,1266,869,0,0
49,155,0,0,0,0,0,0,0,0,0,-1,1273,869,0,0
56,155,0,0,0,0,0,0,0,0,0,-1,1280,869,0,0
63,155,0,0,0,0,0,0,0,0,0,-1,1287,869,0,0
70,155,0,0,0,0,0,0,0,0,0,-1,1294,869,0,0
77,155,0,0,0,0,0,0,0,0,0,-1,1301,869,0,0
84,155,0,0,0,0,0,0,0,0,0,-1,1308,869,0,0
91,155,0,0,0,0,0,0,0,0,0,-1,1315,869,0,0
98,155,0,0,0,0,0,0,0,0,0,-1,1322,869,0,0
105,155,0,0,0,0,0,0,0,0,0,-1,1329,869,0,0
112,155,0,0,0,0,0,0,0,0,0,-1,1336,869,0,0
119,155,0,0,0,0,0,0,0,0,0,-1,1343,869,0,0
126,155,0,0,0,0,0,0,0,0,0,-1,1350,869,0,0
133,155,0,0,0,0,0,0,0,0,0,-1,1357,869,0,0
140,155,0,0,0,0,0,0,0,0,0,-1,1364,869,0,0
147,155,0,0,0,0,0,0,0,0,0,-1,1371,869,0,0
154,155,0,0,0,0,0,0,0,0,0,-1,1378,869,0,0
161,155,0,0,0,0,0,0,0,0,0,-1,1385,869,0,0
168,155,0,0,0,0,0,0,0,0,0,-1,1392,869,0,0
175,155,0,0,0,0,0,0,0,0,0,-1,1399,869,0,0
182,155,0,0,0,0,0,0,0,0,0,-1,1406,869,0,0
189,155,0,0,0,0,0,0,0,0,0,-1,1413,869,0,0
196,155,0,0,0,0,0,0,0,0,0,-1,1420,869,0,0
203,155,0,0,0,0,0,0,0,0,0,-1,1427,869,0,0
210,155,0,0,0,0,0,0,0,0,0,-1,1434,869,0,0
217,155,0,0,0,0,0,0,0,0,0,-1,1441,869,0,0
224,155,0,0,0,0,0,0,0,0,0,-1,1448,869,0,0
231,155,0,0,0,0,0,0,0,0,0,-1,1455,869,0,0
238,155,0,0,0,0,0,0,0,0,0,-1,1462,869,0,0
245,155,0,0,0,0,0,0,0,0,0,-1,1469,869,0,0
252,155,0,0,0,0,0,0,0,0,0,-1,1476,869,0,0
259,155,0,0,0,0,0,0,0,0,0,-1,1483,869,0,0
266,155,0,0,0,0,0,0,0,0,0,-1,1490,869,0,0
273,155,0,0,0,0,0,0,0,0,0,-1,1497,869,0,0
280,155,0,0,0,0,0,0,0,0,0,-1,1504,869,0,0
287,155,0,0,0,0,0,0,0,0,0,-1,1511,869,0,0
294,155,0,0,0,0,0,0,0,0,0,-1,1518,869,0,0
301,155,0,0,0,0,0,0,0,0,0,-1,1525,869,0,0
308,155,0,0,0,0,0,0,0,0,0,-1,1532,869,0,0
315,155,0,0,0,0,0,0,0,0,0,-1,1539,869,0,0
322,155,0,0,0,0,0,0,0,0,0,-1,1546,869,0,0
329,155,0,0,0,0,0,0,0,0,0,-1,1553,869,0,0
336,155,0,0,0,0,0,0,0,0,0,-1,1560,869,0,0
343,155,0,0,0,0,0,0,0,0,0,-1,1567,869,0,0
350,155,0,0,0,0,0,0,0,0,0,-1,1574,869,0,0
357,155,0,0,0,0,0,0,0,0,0,-1,1581,869,0,0
364,155,0,0,0,0,0,0,0,0,0,-1,1588,869,0,0
371,155,0,0,0,0,0,0,0,0,0,-1,1595,869,0,0
378,155,0,0,0,0,0,0,0,0,0,-1,1602,869,0,0
385,155,0,0,0,0,0,0,0,0,0,-1,1609,869,0,0
392,155,0,0,0,0,0,0,0,0,0,-1,1616,869,0,0
399,155,0,0,0,0,0,0,0,0,0,-1,1623,869,0,0
406,155,0,0,0,0,0,0,0,0,0,-1,1630,869,0,0
413,155,0,0,0,0,0,0,0,0,0,-1,1637,869,0,0
420,155,0,0,0,0,0,0,0,0,0,-1,1644,869,0,0
427,155,0,0,0,0,0,0,0,0,0,-1,1651,869,0,0
434,155,0,0,0,0,0,0,0,0,0,-1,1658,869,0,0
441,155,0,0,0,0,0,0,0,0,0,-1,1665,869,0,0
448,155,0,0,0,0,0,0,0,0,0,-1,1672,869,0,0
455,155,0,0,0,0,0,0,0,0,0,-1,1679,869,0,0
462,155,0,0,0,0,0,0,0,0,0,-1,1686,869,0,0
469,155,0,0,0,0,0,0,0,0,0,-1,1693,869,0,0
476,155,0,0,0,0,0,0,0,0,0,-1,1700,869,0,0
483,155,0,0,0,0,0,0,0,0,0,-1,1707,869,0,0
490,155,0,0,0,0,0,0,0,0,0,-1,1714,869,0,0
497,155,0,0,0,0,0,0,0,0,0,-1,1721,869,0,0
504,155,0,0,0,0,0,0,0,0,0,-1,1728,869,0,0
511,155,0,0,0,0,0,0,0,0,0,-1,1735,869,0,0
518,155,0,0,0,0,0,0,0,0,0,-1,1742,869,0,0
525,155,0,0,0,0,0,0,0,0,0,-1,1749,869,0,0
532,155,0,0,0,0,0,0,0,0,0,-1,1756,869,0,0
539,155,0,0,0,0,0,0,0,0,0,-1,1763,869,0,0
546,155,0,0,0,0,0,0,0,0,0,-1,1770,869,0,0
553,155,0,0,0,0,0,0,0,0,0,-1,1777,869,0,0
560,155,0,0,0,0,0,0,0,0,0,-1,1784,869,0,0
567,155,0,0,0,0,0,0,0,0,0,-1,1791,869,0,0
574,155,0,0,0,0,0,0,0,0,0,-1,1798,869,0,0
581,155,0,0,0,0,0,0,0,0,0,-1,1805,869,0,0
588,155,0,0,0,0,0,0,0,0,0,-1,1812,869,0,0
595,155,0,0,0,0,0,0,0,0,0,-1,1819,869,0,0
602,155,0,0,0,0,0,0,0,0,0,-1,1826,869,0,0
609,155,0,0,0,0,0,0,0,0,0,-1,1833,869,0,0
616,155,71.9977,2.49078,-0.00355824,0.0012737,-0.00548169,0.00484821,-0.00713275,-0.992959,0.006959,0.0421038,1840,869,71.9977,-2.49079
623,155,72.0146,2.51373,-0.00274017,0.00123761,-0.00408166,0.00378916,-0.00529173,-1.01211,0.00526673,0.0431377,1847,869,72.0147,-2.51375
630,155,71.918,2.38641,-0.0018814,0.000969992,-0.00291774,0.00279173,-0.00370314,-1.01265,0.0037621,0.0454475,1854,869,71.918,-2.38644
637,155,71.775,2.34106,-0.00108334,0.000670345,-0.00197158,0.00195128,-0.00236427,-0.994634,0.00249538,0.0421913,1861,869,71.775,-2.34103
644,155,71.7649,2.3631,-0.000646732,0.000189575,-0.00146832,0.00129813,-0.00175528,-0.924117,0.00176946,0.0369633,1868,869,71.7649,-2.36313
651,155,71.8136,2.3924,-0.000569129,-0.000288023,-0.00138874,0.000967261,-0.00182441,-0.835831,0.0016369,0.0339963,1875,869,71.8136,-2.39241
658,155,71.8359,2.36932,-0.000933155,-5.06814e-05,-0.00126479,0.000847624,-0.00183146,-0.953229,0.00158115,0.0278132,1882,869,71.8359,-2.36935
665,155,71.8086,2.30304,-0.00112519,6.69585e-05,-0.00116437,0.000778963,-0.00183719,-1.02197,0.00155108,0.0366034,1889,869,71.8087,-2.30303
672,155,71.798,2.31348,0,0,0,0,0,0,0,-1,1896,869,71.798,-2.31349
679,155,35.1565,2.78528,0,0,0,0,0,0,0,-1,1903,869,35.1565,-2.7853
686,155,43.6101,1.63361,0,0,0,0,0,0,0,-1,1910,869,43.6101,-1.63362
693,155,60.8497,1.35394,0,0,0,0,0,0,0,-1,1917,869,60.8497,-1.35392
700,155,60.5785,1.85071,0,0,0,0,0,0,0,-1,1924,869,60.5785,-1.85069
707,155,60.6263,2.79175,0,0,0,0,0,0,0,-1,1931,869,60.6263,-2.79175
714,155,59.8955,3.3454,0,0,0,0,0,0,0,-1,1938,869,59.8955,-3.34539
721,155,60.1733,4.21765,-0.00163836,0.00215096,-0.000866825,0.00233984,-0.00182723,-1.35626,0.00241192,0.0462038,1945,869,60.1733,-4.21765
728,155,60.1637,5.03137,-0.00169143,0.00254139,-0.000859877,0.0027094,-0.00185944,-1.37784,0.00265299,0.0196798,1952,869,60.1637,-5.03135
735,155,60.1343,5.82428,-0.0016308,0.00278851,-0.000842059,0.00294352,-0.00178581,-1.38875,0.00275761,0.0164332,1959,869,60.1342,-5.82426
742,155,60.1188,6.61151,-0.00159117,0.00302555,-0.000755695,0.0031461,-0.00171172,-1.41261,0.00284512,0.0196256,1966,869,60.1188,-6.61153
749,155,60.019,7.33276,-0.00171937,0.00318097,-0.000655968,0.00326725,-0.00180566,-1.44,0.00296909,0.018743,1973,869,60.0191,-7.33275
756,155,59.9023,8.14178,-0.00216068,0.00346301,-0.000580413,0.00352229,-0.00221996,-1.46902,0.00334359,0.0298909,1980,869,59.9024,-8.14178
763,155,59.8289,9.0224,-0.00341557,0.00509321,0.000248869,0.00510048,-0.00342284,1.54158,0.00495262,0.0485367,1987,869,59.8289,-9.02242
770,155,59.7249,9.90082,0,0,0,0,0,0,0,-1,1994,869,59.725,-9.90084
777,155,54.6055,10.1432,0,0,0,0,0,0,0,-1,2001,869,54.6055,-10.1433
784,155,54.8704,11.0088,0,0,0,0,0,0,0,-1,2008,869,54.8704,-11.0088
791,155,0,0,0,0,0,0,0,0,0,-1,2015,869,0,0
798,155,0,0,0,0,0,0,0,0,0,-1,2022,869,0,0
805,155,0,0,0,0,0,0,0,0,0,-1,2029,869,0,0
812,155,0,0,0,0,0,0,0,0,0,-1,2036,869,0,0
-700,148,0,0,0,0,0,0,0,0,0,-1,524,876,0,0
-693,148,0,0,0,0,0,0,0,0,0,-1,531,876,0,0
-686,148,0,0,0,0,0,0,0,0,0,-1,538,876,0,0
-679,148,0,0,0,0,0,0,0,0,0,-1,545,876,0,0
-672,148,-48.1407,-0.726746,0,0,0,0,0,0,0,-1,552,876,-48.1407,0.726755
-665,148,-48.2041,-3.97095,0,0,0,0,0,0,0,-1,559,876,-48.2041,3.97096
-658,148,-51.7661,3.82794,0,0,0,0,0,0,0,-1,566,876,-51.7661,-3.82797
-651,148,-52.0392,2.79663,0,0,0,0,0,0,0,-1,573,876,-52.0392,-2.79661
-644,148,-52.2687,1.81482,0,0,0,0,0,0,0,-1,580,876,-52.2687,-1.81482
-637,148,-52.5708,0.881165,0,0,0,0,0,0,0,-1,587,876,-52.5708,-0.88117
-630,148,-45.5354,7.59167,0,0,0,0,0,0,0,-1,594,876,-45.5354,-7.59169
-623,148,-45.6688,6.64172,-0.00940245,0.0106607,-0.00451516,0.01163,-0.0103717,-1.35933,0.0127096,0.0323624,601,876,-45.6687,-6.64173
-616,148,-45.8213,5.73627,-0.00812833,0.00774646,-0.00241007,0.00810428,-0.00848615,-1.4234,0.00957934,0.015426,608,876,-45.8213,-5.73624
-609,148,-45.9448,4.90308,-0.00751554,0.00508044,-0.000365975,0.00509106,-0.00752617,-1.54177,0.00732965,0.0140532,615,876,-45.9448,-4.9031
-602,148,-46.0355,4.12872,-0.00746559,0.00268385,0.00154595,0.0029141,-0.00769585,1.42294,0.00632963,0.0159436,622,876,-46.0355,-4.12872
-595,148,-46.0707,3.36975,-0.00719193,0.0009702,0.00247011,0.00165951,-0.00788124,1.29866,0.00588584,0.0141379,629,876,-46.0707,-3.36974
-588,148,-46.0696,2.52759,-0.0066739,-0.000163659,0.00218981,0.000504368,-0.00734193,1.2747,0.00507111,0.0329998,636,876,-46.0696,-2.52761
-581,148,-46.0979,2.27643,0,0,0,0,0,0,0,-1,643,876,-46.0979,-2.27644
-574,148,-42.5058,1.22711,0,0,0,0,0,0,0,-1,650,876,-42.5058,-1.22714
-567,148,-35.6293,0.615784,0,0,0,0,0,0,0,-1,657,876,-35.6293,-0.615792
-560,148,-37.7973,-0.588135,0,0,0,0,0,0,0,-1,664,876,-37.7973,0.588143
-553,148,-18.3896,-0.00280762,0,0,0,0,0,0,0,-1,671,876,-18.3897,0.00278524
-546,148,-55.923,0.49115,0,0,0,0,0,0,0,-1,678,876,-55.923,-0.491141
-539,148,-55.879,0.376587,-0.00360478,-9.11233e-05,0.00113376,0.000242946,-0.00393885,1.28425,0.00271051,0.0497056,685,876,-55.879,-0.376607
-532,148,-55.8835,0.406067,-0.00202965,0.000516383,0.000852588,0.000775514,-0.00228879,1.27573,0.00183968,0.0365062,692,876,-55.8835,-0.406049
-525,148,-55.7938,0.636169,-0.00038866,0.0018868,0.00038688,0.00195078,-0.000452639,1.40691,0.00147474,0.037732,699,876,-55.7938,-0.636185
-518,148,-55.8566,0.573242,0.00123286,0.00207086,0.000493014,0.00229887,0.00100485,1.13761,0.00133075,0.0433893,706,876,-55.8565,-0.573253
-511,148,-55.9148,0.538025,0.00463052,0.00130587,0.00105919,0.00493929,0.000997105,0.283653,0.00301594,0.0431754,713,876,-55.9148,-0.538046
-504,148,-55.8173,0.499512,0.00904735,-0.000192461,0.0016721,0.00934064,-0.000485749,0.173634,0.00639516,0.0432436,720,876,-55.8173,-0.499519
-497,148,0,0,0,0,0,0,0,0,0,-1,727,876,0,0
-490,148,0,0,0,0,0,0,0,0,0,-1,734,876,0,0
-483,148,0,0,0,0,0,0,0,0,0,-1,741,876,0,0
-476,148,0,0,0,0,0,0,0,0,0,-1,748,876,0,0
-469,148,0,0,0,0,0,0,0,0,0,-1,755,876,0,0
-462,148,0,0,0,0,0,0,0,0,0,-1,762,876,0,0
-455,148,0,0,0,0,0,0,0,0,0,-1,769,876,0,0
-448,148,0,0,0,0,0,0,0,0,0,-1,776,876,0,0
-441,148,0,0,0,0,0,0,0,0,0,-1,783,876,0,0
-434,148,0,0,0,0,0,0,0,0,0,-1,790,876,0,0
-427,148,0,0,0,0,0,0,0,0,0,-1,797,876,0,0
-420,148,0,0,0,0,0,0,0,0,0,-1,804,876,0,0
-413,148,0,0,0,0,0,0,0,0,0,-1,811,876,0,0
-406,148,0,0,0,0,0,0,0,0,0,-1,818,876,0,0
-399,148,0,0,0,0,0,0,0,0,0,-1,825,876,0,0
-392,148,0,0,0,0,0,0,0,0,0,-1,832,876,0,0
-385,148,0,0,0,0,0,0,0,0,0,-1,839,876,0,0
-378,148,0,0,0,0,0,0,0,0,0,-1,846,876,0,0
-371,148,0,0,0,0,0,0,0,0,0,-1,853,876,0,0
-364,148,0,0,0,0,0,0,0,0,0,-1,860,876,0,0
-357,148,0,0,0,0,0,0,0,0,0,-1,867,876,0,0
-350,148,0,0,0,0,0,0,0,0,0,-1,874,876,0,0
-343,148,0,0,0,0,0,0,0,0,0,-1,881,876,0,0
-336,148,0,0,0,0,0,0,0,0,0,-1,888,876,0,0
-329,148,0,0,0,0,0,0,0,0,0,-1,895,876,0,0
-322,148,0,0,0,0,0,0,0,0,0,-1,902,876,0,0
-315,148,0,0,0,0,0,0,0,0,0,-1,909,876,0,0
-308,148,0,0,0,0,0,0,0,0,0,-1,916,876,0,0
-301,148,0,0,0,0,0,0,0,0,0,-1,923,876,0,0
-294,148,0,0,0,0,0,0,0,0,0,-1,930,876,0,0
-287,148,0,0,0,0,0,0,0,0,0,-1,937,876,0,0
-280,148,0,0,0,0,0,0,0,0,0,-1,944,876,0,0
-273,148,0,0,0,0,0,0,0,0,0,-1,951,876,0,0
-266,148,0,0,0,0,0,0,0,0,0,-1,958,876,0,0
-259,148,0,0,0,0,0,0,0,0,0,-1,965,876,0,0
-252,148,0,0,0,0,0,0,0,0,0,-1,972,876,0,0
-245,148,0,0,0,0,0,0,0,0,0,-1,979,876,0,0
-238,148,0,0,0,0,0,0,0,0,0,-1,986,876,0,0
-231,148,0,0,0,0,0,0,0,0,0,-1,993,876,0,0
-224,148,0,0,0,0,0,0,0,0,0,-1,1000,876,0,0
-217,148,0,0,0,0,0,0,0,0,0,-1,1007,876,0,0
-210,148,0,0,0,0,0,0,0,0,0,-1,1014,876,0,0
-203,148,0,0,0,0,0,0,0,0,0,-1,1021,876,0,0
-196,148,0,0,0,0,0,0,0,0,0,-1,1028,876,0,0
-189,148,0,0,0,0,0,0,0,0,0,-1,1035,876,0,0
-182,148,0,0,0,0,0,0,0,0,0,-1,1042,876,0,0
-175,148,0,0,0,0,0,0,0,0,0,-1,1049,876,0,0
-168,148,0,0,0,0,0,0,0,0,0,-1,1056,876,0,0
-161,148,0,0,0,0,0,0,0,0,0,-1,1063,876,0,0
-154,148,0,0,0,0,0,0,0,0,0,-1,1070,876,0,0
-147,148,0,0,0,0,0,0,0,0,0,-1,1077,876,0,0
-140,148,0,0,0,0,0,0,0,0,0,-1,1084,876,0,0
-133,148,0,0,0,0,0,0,0,0,0,-1,1091,876,0,0
-126,148,0,0,0,0,0,0,0,0,0,-1,1098,876,0,0
-119,148,0,0,0,0,0,0,0,0,0,-1,1105,876,0,0
-112,148,0,0,0,0,0,0,0,0,0,-1,1112,876,0,0
-105,148,0,0,0,0,0,0,0,0,0,-1,1119,876,0,0
-98,148,0,0,0,0,0,0,0,0,0,-1,1126,876,0,0
-91,148,0,0,0,0,0,0,0,0,0,-1,1133,876,0,0
-84,148,0,0,0,0,0,0,0,0,0,-1,1140,876,0,0
-77,148,0,0,0,0,0,0,0,0,0,-1,1147,876,0,0
-70,148,0,0,0,0,0,0,0,0,0,-1,1154,876,0,0
-63,148,0,0,0,0,0,0,0,0,0,-1,1161,876,0,0
-56,148,0,0,0,0,0,0,0,0,0,-1,1168,876,0,0
-49,148,0,0,0,0,0,0,0,0,0,-1,1175,876,0,0
-42,148,0,0,0,0,0,0,0,0,0,-1,1182,876,0,0
-35,148,0,0,0,0,0,0,0,0,0,-1,1189,876,0,0
-28,148,0,0,0,0,0,0,0,0,0,-1,1196,876,0,0
-21,148,0,0,0,0,0,0,0,0,0,-1,1203,876,0,0
-14,148,0,0,0,0,0,0,0,0,0,-1,1210,876,0,0
-7,148,0,0,0,0,0,0,0,0,0,-1,1217,876,0,0
0,148,0,0,0,0,0,0,0,0,0,-1,1224,876,0,0
7,148,0,0,0,0,0,0,0,0,0,-1,1231,876,0,0
14,148,0,0,0,0,0,0,0,0,0,-1,1238,876,0,0
21,148,0,0,0,0,0,0,0,0,0,-1,1245,876,0,0
28,148,0,0,0,0,0,0,0,0,0,-1,1252,876,0,0
35,148,0,0,0,0,0,0,0,0,0,-1,1259,876,0,0
42,148,0,0,0,0,0,0,0,0,0,-1,1266,876,0,0
49,148,0,0,0,0,0,0,0,0,0,-1,1273,876,0,0
56,148,0,0,0,0,0,0,0,0,0,-1,1280,876,0,0
63,148,0,0,0,0,0,0,0,0,0,-1,1287,876,0,0
70,148,0,0,0,0,0,0,0,0,0,-1,1294,876,0,0
77,148,0,0,0,0,0,0,0,0,0,-1,1301,876,0,0
84,148,0,0,0,0,0,0,0,0,0,-1,1308,876,0,0
91,148,0,0,0,0,0,0,0,0,0,-1,1315,876,0,0
98,148,0,0,0,0,0,0,0,0,0,-1,1322,876,0,0
105,148,0,0,0,0,0,0,0,0,0,-1,1329,876,0,0
112,148,0,0,0,0,0,0,0,0,0,-1,1336,876,0,0
119,148,0,0,0,0,0,0,0,0,0,-1,1343,876,0,0
126,148,0,0,0,0,0,0,0,0,0,-1,1350,876,0,0
133,148,0,0,0,0,0,0,0,0,0,-1,1357,876,0,0
140,148,0,0,0,0,0,0,0,0,0,-1,1364,876,0,0
147,148,0,0,0,0,0,0,0,0,0,-1,1371,876,0,0
154,148,0,0,0,0,0,0,0,0,0,-1,1378,876,0,0
161,148,0,0,0,0,0,0,0,0,0,-1,1385,876,0,0
168,148,0,0,0,0,0,0,0,0,0,-1,1392,876,0,0
175,148,0,0,0,0,0,0,0,0,0,-1,1399,876,0,0
182,148,0,0,0,0,0,0,0,0,0,-1,1406,876,0,0
189,148,0,0,0,0,0,0,0,0,0,-1,1413,876,0,0
196,148,0,0,0,0,0,0,0,0,0,-1,1420,876,0,0
203,148,0,0,0,0,0,0,0,0,0,-1,1427,876,0,0
210,148,0,0,0,0,0,0,0,0,0,-1,1434,876,0,0
217,148,0,0,0,0,0,0,0,0,0,-1,1441,876,0,0
224,148,0,0,0,0,0,0,0,0,0,-1,1448,876,0,0
231,148,0,0,0,0,0,0,0,0,0,-1,1455,876,0,0
238,148,0,0,0,0,0,0,0,0,0,-1,1462,876,0,0
245,148,0,0,0,0,0,0,0,0,0,-1,1469,876,0,0
252,148,0,0,0,0,0,0,0,0,0,-1,1476,876,0,0
259,148,0,0,0,0,0,0,0,0,0,-1,1483,876,0,0
266,148,0,0,0,0,0,0,0,0,0,-1,1490,876,0,0
273,148,0,0,0,0,0,0,0,0,0,-1,1497,876,0,0
280,148,0,0,0,0,0,0,0,0,0,-1,1504,876,0,0
287,148,0,0,0,0,0,0,0,0,0,-1,1511,876,0,0
294,148,0,0,0,0,0,0,0,0,0,-1,1518,876,0,0
301,148,0,0,0,0,0,0,0,0,0,-1,1525,876,0,0
308,148,0,0,0,0,0,0,0,0,0,-1,1532,876,0,0
315,148,0,0,0,0,0,0,0,0,0,-1,1539,876,0,0
322,148,0,0,0,0,0,0,0,0,0,-1,1546,876,0,0
329,148,0,0,0,0,0,0,0,0,0,-1,1553,876,0,0
336,148,0,0,0,0,0,0,0,0,0,-1,1560,876,0,0
343,148,0,0,0,0,0,0,0,0,0,-1,1567,876,0,0
350,148,0,0,0,0,0,0,0,0,0,-1,1574,876,0,0
357,148,0,0,0,0,0,0,0,0,0,-1,1581,876,0,0
364,148,0,0,0,0,0,0,0,0,0,-1,1588,876,0,0
371,148,0,0,0,0,0,0,0,0,0,-1,1595,876,0,0
378,148,0,0,0,0,0,0,0,0,0,-1,1602,876,0,0
385,148,0,0,0,0,0,0,0,0,0,-1,1609,876,0,0
392,148,0,0,0,0,0,0,0,0,0,-1,1616,876,0,0
399,148,0,0,0,0,0,0,0,0,0,-1,1623,876,0,0
406,148,0,0,0,0,0,0,0,0,0,-1,1630,876,0,0
413,148,0,0,0,0,0,0,0,0,0,-1,1637,876,0,0
420,148,0,0,0,0,0,0,0,0,0,-1,1644,876,0,0
427,148,0,0,0,0,0,0,0,0,0,-1,1651,876,0,0
434,148,0,0,0,0,0,0,0,0,0,-1,1658,876,0,0
441,148,0,0,0,0,0,0,0,0,0,-1,1665,876,0,0
448,148,0,0,0,0,0,0,0,0,0,-1,1672,876,0,0
455,148,0,0,0,0,0,0,0,0,0,-1,1679,876,0,0
462,148,0,0,0,0,0,0,0,0,0,-1,1686,876,0,0
469,148,0,0,0,0,0,0,0,0,0,-1,1693,876,0,0
476,148,0,0,0,0,0,0,0,0,0,-1,1700,876,0,0
483,148,0,0,0,0,0,0,0,0,0,-1,1707,876,0,0
490,148,0,0,0,0,0,0,0,0,0,-1,1714,876,0,0
497,148,0,0,0,0,0,0,0,0,0,-1,1721,876,0,0
504,148,0,0,0,0,0,0,0,0,0,-1,1728,876,0,0
511,148,0,0,0,0,0,0,0,0,0,-1,1735,876,0,0
518,148,0,0,0,0,0,0,0,0,0,-1,1742,876,0,0
525,148,0,0,0,0,0,0,0,0,0,-1,1749,876,0,0
532,148,0,0,0,0,0,0,0,0,0,-1,1756,876,0,0
539,148,0,0,0,0,0,0,0,0,0,-1,1763,876,0,0
546,148,0,0,0,0,0,0,0,0,0,-1,1770,876,0,0
553,148,0,0,0,0,0,0,0,0,0,-1,1777,876,0,0
560,148,0,0,0,0,0,0,0,0,0,-1,1784,876,0,0
567,148,0,0,0,0,0,0,0,0,0,-1,1791,876,0,0
574,148,0,0,0,0,0,0,0,0,0,-1,1798,876,0,0
581,148,0,0,0,0,0,0,0,0,0,-1,1805,876,0,0
588,148,0,0,0,0,0,0,0,0,0,-1,1812,876,0,0
595,148,0,0,0,0,0,0,0,0,0,-1,1819,876,0,0
602,148,0,0,0,0,0,0,0,0,0,-1,1826,876,0,0
609,148,0,0,0,0,0,0,0,0,0,-1,1833,876,0,0
616,148,0,0,0,0,0,0,0,0,0,-1,1840,876,0,0
623,148,71.9821,2.52954,-0.00408977,0.00142942,-0.00438884,0.00385415,-0.00651451,-1.06605,0.00605167,0.0422141,1847,876,71.982,-2.52955
630,148,71.9382,2.36859,-0.00308487,0.00106971,-0.00313845,0.00275606,-0.00477122,-1.07774,0.00439749,0.0437032,1854,876,71.9382,-2.36856
637,148,71.8289,2.28448,-0.00204321,0.000768743,-0.00217464,0.00195233,-0.00322679,-1.07237,0.0030202,0.0386404,1861,876,71.8288,-2.28446
644,148,71.7404,2.36133,-0.00122009,0.00034715,-0.00157495,0.00132266,-0.00219559,-1.01624,0.002052,0.0345691,1868,876,71.7403,-2.3613
651,148,71.7656,2.50226,-0.000778512,-0.000101746,-0.00137691,0.00097775,-0.00185801,-0.905888,0.00166331,0.0356535,1875,876,71.7656,-2.50224
658,148,71.7664,2.54456,-0.000908357,0.00019851,-0.00112192,0.000896073,-0.00160592,-1.01453,0.00146378,0.0326218,1882,876,71.7664,-2.54454
665,148,71.7067,2.43671,-0.000979292,0.000414439,-0.000942207,0.000889484,-0.00145434,-1.10381,0.00136624,0.024271,1889,876,71.7067,-2.4367
672,148,71.8075,2.27435,-0.000978354,0.000481476,-0.000906974,0.000915768,-0.00141265,-1.12422,0.00135448,0.0480498,1896,876,71.8075,-2.27437
679,148,71.6138,2.52759,0,0,0,0,0,0,0,-1,1903,876,71.6138,-2.52758
686,148,21.6195,2.40845,0,0,0,0,0,0,0,-1,1910,876,21.6196,-2.40846
693,148,48.1387,1.97351,0,0,0,0,0,0,0,-1,1917,876,48.1387,-1.97351
700,148,61.4875,2.46539,0,0,0,0,0,0,0,-1,1924,876,61.4875,-2.4654
707,148,61.491,3.01501,-0.00133717,0.00171797,-0.000892332,0.00195951,-0.00157871,-1.30645,0.00204673,0.0439835,1931,876,61.491,-3.015
714,148,61.3646,3.62231,-0.00137319,0.00216412,-0.000797528,0.00233562,-0.00154469,-1.35899,0.00225576,0.0418152,1938,876,61.3646,-3.62233
721,148,61.0084,4.35449,-0.00140639,0.00269335,-0.000805468,0.00284592,-0.00155896,-1.3836,0.00257909,0.0332278,1945,876,61.0084,-4.35448
728,148,61.0076,5.07715,-0.00156886,0.00320759,-0.000903885,0.00337291,-0.00173419,-1.38989,0.00299876,0.0205122,1952,876,61.0076,-5.07715
735,148,60.9917,5.90466,-0.00157833,0.00364706,-0.0010123,0.00383632,-0.00176759,-1.38597,0.00330809,0.0204766,1959,876,60.9917,-5.90469
742,148,60.9104,6.66559,-0.00150051,0.0042026,-0.00103753,0.00438548,-0.00168339,-1.39632,0.00361778,0.0222479,1966,876,60.9104,-6.6656
749,148,60.7731,7.35706,-0.00137478,0.00481706,-0.00100682,0.00497666,-0.00153438,-1.41359,0.00393037,0.0225033,1973,876,60.7731,-7.35707
756,148,60.6724,8.17578,-0.00127376,0.00571925,-0.000961185,0.00584895,-0.00140347,-1.43666,0.00444166,0.026509,1980,876,60.6724,-8.17577
763,148,60.5725,9.14117,-0.00139875,0.00812475,-0.000197759,0.00812886,-0.00140285,-1.55004,0.00594231,0.0445813,1987,876,60.5725,-9.14119
770,148,60.4543,10.0894,0,0,0,0,0,0,0,-1,1994,876,60.4543,-10.0893
777,148,59.1804,10.5937,0,0,0,0,0,0,0,-1,2001,876,59.1804,-10.5937
784,148,53.6711,11.5901,0,0,0,0,0,0,0,-1,2008,876,53.6711,-11.5901
791,148,57.4717,12.5975,0,0,0,0,0,0,0,-1,2015,876,57.4717,-12.5974
798,148,0,0,0,0,0,0,0,0,0,-1,2022,876,0,0
805,148,0,0,0,0,0,0,0,0,0,-1,2029,876,0,0
812,148,0,0,0,0,0,0,0,0,0,-1,2036,876,0,0
-700,141,0,0,0,0,0,0,0,0,0,-1,524,883,0,0
-693,141,0,0,0,0,0,0,0,0,0,-1,531,883,0,0
-686,141,0,0,0,0,0,0,0,0,0,-1,538,883,0,0
-679,141,0,0,0,0,0,0,0,0,0,-1,545,883,0,0
-672,141,-48.7804,-0.600891,0,0,0,0,0,0,0,-1,552,883,-48.7804,0.600898
-665,141,-48.764,-3.67065,0,0,0,0,0,0,0,-1,559,883,-48.764,3.67066
-658,141,-52.3438,3.12531,0,0,0,0,0,0,0,-1,566,883,-52.3438,-3.1253
-651,141,-53.1779,1.50293,0,0,0,0,0,0,0,-1,573,883,-53.1778,-1.50292
-644,141,-52.4205,-0.191956,0,0,0,0,0,0,0,-1,580,883,-52.4205,0.191941
-637,141,-52.859,0.400024,0,0,0,0,0,0,0,-1,587,883,-52.859,-0.400006
-630,141,-46.2216,7.57751,0,0,0,0,0,0,0,-1,594,883,-46.2216,-7.57752
-623,141,-46.4025,6.58105,-0.00779737,0.0115639,-0.0015738,0.011691,-0.00792447,-1.49022,0.0113944,0.0365536,601,883,-46.4025,-6.58108
-616,141,-46.6359,5.70331,-0.00781231,0.00839825,-0.00047551,0.00841218,-0.00782625,-1.5415,0.00937729,0.0150526,608,883,-46.6359,-5.70334
-609,141,-46.7555,4.92914,-0.00794329,0.00521919,0.000839717,0.00527254,-0.00799664,1.50734,0.00771459,0.0153517,615,883,-46.7555,-4.92914
-602,141,-46.8253,4.16858,-0.00827871,0.00249637,0.00210355,0.00289247,-0.00867481,1.38467,0.00695095,0.0161678,622,883,-46.8253,-4.16858
-595,141,-46.7874,3.38208,-0.00808128,0.000815624,0.00253845,0.00148893,-0.00875458,1.31152,0.00639078,0.0189951,629,883,-46.7874,-3.38205
-588,141,-47.2274,2.57715,-0.00762557,-0.000245275,0.00209854,0.000309698,-0.00818055,1.31226,0.00555981,0.038314,636,883,-47.2274,-2.57717
-581,141,-47.6165,1.75055,0,0,0,0,0,0,0,-1,643,883,-47.6165,-1.75054
-574,141,-42.7302,0.864685,0,0,0,0,0,0,0,-1,650,883,-42.7301,-0.864692
-567,141,-30.5335,0.480103,0,0,0,0,0,0,0,-1,657,883,-30.5335,-0.480081
-560,141,-30.5542,0.23175,0,0,0,0,0,0,0,-1,664,883,-30.5542,-0.231742
-553,141,-32.0876,1.39459,0,0,0,0,0,0,0,-1,671,883,-32.0876,-1.3946
-546,141,-55.7763,0.575806,0,0,0,0,0,0,0,-1,678,883,-55.7763,-0.575819
-539,141,-55.8018,0.550842,-0.0045596,-0.00106185,0.000853083,-0.000864881,-0.00475657,1.34388,0.00292568,0.0319211,685,883,-55.8017,-0.550833
-532,141,-55.8736,0.45636,-0.0026242,-0.000628437,0.000549181,-0.000487298,-0.00276534,1.31924,0.0017045,0.029847,692,883,-55.8736,-0.456345
-525,141,-55.8696,0.497986,-0.000630315,0.000395036,9.11751e-05,0.000403081,-0.000638359,1.4828,0.000606369,0.0361382,699,883,-55.8696,-0.498004
-518,141,-55.9539,0.577942,0.0014882,0.000427956,0.000418252,0.00163333,0.000282826,0.333991,0.00100792,0.0388216,706,883,-55.9539,-0.577968
-511,141,-56.0194,0.588013,0.0049155,-4.14107e-05,0.00107991,0.00514056,-0.000266463,0.205458,0.00351922,0.037179,713,883,-56.0194,-0.58801
-504,141,-55.9687,0.575684,0.00918787,-0.0010994,0.00186917,0.00951697,-0.0014285,0.174279,0.00687049,0.0405867,720,883,-55.9687,-0.575708
-497,141,0,0,0,0,0,0,0,0,0,-1,727,883,0,0
-490,141,0,0,0,0,0,0,0,0,0,-1,734,883,0,0
-483,141,0,0,0,0,0,0,0,0,0,-1,741,883,0,0
-476,141,0,0,0,0,0,0,0,0,0,-1,748,883,0,0
-469,141,0,0,0,0,0,0,0,0,0,-1,755,883,0,0
-462,141,0,0,0,0,0,0,0,0,0,-1,762,883,0,0
-455,141,0,0,0,0,0,0,0,0,0,-1,769,883,0,0
-448,141,0,0,0,0,0,0,0,0,0,-1,776,883,0,0
-441,141,0,0,0,0,0,0,0,0,0,-1,783,883,0,0
-434,141,0,0,0,0,0,0,0,0,0,-1,790,883,0,0
-427,141,0,0,0,0,0,0,0,0,0,-1,797,883,0,0
-420,141,0,0,0,0,0,0,0,0,0,-1,804,883,0,0
-413,141,0,0,0,0,0,0,0,0,0,-1,811,883,0,0
-406,141,0,0,0,0,0,0,0,0,0,-1,818,883,0,0
-399,141,0,0,0,0,0,0,0,0,0,-1,825,883,0,0
-392,141,0,0,0,0,0,0,0,0,0,-1,832,883,0,0
-385,141,0,0,0,0,0,0,0,0,0,-1,839,883,0,0
-378,141,0,0,0,0,0,0,0,0,0,-1,846,883,0,0
-371,141,0,0,0,0,0,0,0,0,0,-1,853,883,0,0
-364,141,0,0,0,0,0,0,0,0,0,-1,860,883,0,0
-357,141,0,0,0,0,0,0,0,0,0,-1,867,883,0,0
-350,141,0,0,0,0,0,0,0,0,0,-1,874,883,0,0
-343,141,0,0,0,0,0,0,0,0,0,-1,881,883,0,0
-336,141,0,0,0,0,0,0,0,0,0,-1,888,883,0,0
-329,141,0,0,0,0,0,0,0,0,0,-1,895,883,0,0
-322,141,0,0,0,0,0,0,0,0,0,-1,902,883,0,0
-315,141,0,0,0,0,0,0,0,0,0,-1,909,883,0,0
-308,141,0,0,0,0,0,0,0,0,0,-1,916,883,0,0
-301,141,0,0,0,0,0,0,0,0,0,-1,923,883,0,0
-294,141,0,0,0,0,0,0,0,0,0,-1,930,883,0,0
-287,141,0,0,0,0,0,0,0,0,0,-1,937,883,0,0
-280,141,0,0,0,0,0,0,0,0,0,-1,944,883,0,0
-273,141,0,0,0,0,0,0,0,0,0,-1,951,883,0,0
-266,141,0,0,0,0,0,0,0,0,0,-1,958,883,0,0
-259,141,0,0,0,0,0,0,0,0,0,-1,965,883,0,0
-252,141,0,0,0,0,0,0,0,0,0,-1,972,883,0,0
-245,141,0,0,0,0,0,0,0,0,0,-1,979,883,0,0
-238,141,0,0,0,0,0,0,0,0,0,-1,986,883,0,0
-231,141,0,0,0,0,0,0,0,0,0,-1,993,883,0,0
-224,141,0,0,0,0,0,0,0,0,0,-1,1000,883,0,0
-217,141,0,0,0,0,0,0,0,0,0,-1,1007,883,0,0
-210,141,0,0,0,0,0,0,0,0,0,-1,1014,883,0,0
-203,141,0,0,0,0,0,0,0,0,0,-1,1021,883,0,0
-196,141,0,0,0,0,0,0,0,0,0,-1,1028,883,0,0
-189,141,0,0,0,0,0,0,0,0,0,-1,1035,883,0,0
-182,141,0,0,0,0,0,0,0,0,0,-1,1042,883,0,0
-175,141,0,0,0,0,0,0,0,0,0,-1,1049,883,0,0
-168,141,0,0,0,0,0,0,0,0,0,-1,1056,883,0,0
-161,141,0,0,0,0,0,0,0,0,0,-1,1063,883,0,0
-154,141,0,0,0,0,0,0,0,0,0,-1,1070,883,0,0
-147,141,0,0,0,0,0,0,0,0,0,-1,1077,883,0,0
-140,141,0,0,0,0,0,0,0,0,0,-1,1084,883,0,0
-133,141,0,0,0,0,0,0,0,0,0,-1,1091,883,0,0
-126,141,0,0,0,0,0,0,0,0,0,-1,1098,883,0,0
-119,141,0,0,0,0,0,0,0,0,0,-1,1105,883,0,0
-112,141,0,0,0,0,0,0,0,0,0,-1,1112,883,0,0
-105,141,0,0,0,0,0,0,0,0,0,-1,1119,883,0,0
-98,141,0,0,0,0,0,0,0,0,0,-1,1126,883,0,0
-91,141,0,0,0,0,0,0,0,0,0,-1,1133,883,0,0
-84,141,0,0,0,0,0,0,0,0,0,-1,1140,883,0,0
-77,141,0,0,0,0,0,0,0,0,0,-1,1147,883,0,0
-70,141,0,0,0,0,0,0,0,0,0,-1,1154,883,0,0
-63,141,0,0,0,0,0,0,0,0,0,-1,1161,883,0,0
-56,141,0,0,0,0,0,0,0,0,0,-1,1168,883,0,0
-49,141,0,0,0,0,0,0,0,0,0,-1,1175,883,0,0
-42,141,0,0,0,0,0,0,0,0,0,-1,1182,883,0,0
-35,141,0,0,0,0,0,0,0,0,0,-1,1189,883,0,0
-28,141,0,0,0,0,0,0,0,0,0,-1,1196,883,0,0
-21,141,0,0,0,0,0,0,0,0,0,-1,1203,883,0,0
-14,141,0,0,0,0,0,0,0,0,0,-1,1210,883,0,0
-7,141,0,0,0,0,0,0,0,0,0,-1,1217,883,0,0
0,141,0,0,0,0,0,0,0,0,0,-1,1224,883,0,0
7,141,0,0,0,0,0,0,0,0,0,-1,1231,883,0,0
14,141,0,0,0,0,0,0,0,0,0,-1,1238,883,0,0
21,141,0,0,0,0,0,0,0,0,0,-1,1245,883,0,0
28,141,0,0,0,0,0,0,0,0,0,-1,1252,883,0,0
35,141,0,0,0,0,0,0,0,0,0,-1,1259,883,0,0
42,141,0,0,0,0,0,0,0,0,0,-1,1266,883,0,0
49,141,0,0,0,0,0,0,0,0,0,-1,1273,883,0,0
56,141,0,0,0,0,0,0,0,0,0,-1,1280,883,0,0
63,141,0,0,0,0,0,0,0,0,0,-1,1287,883,0,0
70,141,0,0,0,0,0,0,0,0,0,-1,1294,883,0,0
77,141,0,0,0,0,0,0,0,0,0,-1,1301,883,0,0
84,141,0,0,0,0,0,0,0,0,0,-1,1308,883,0,0
91,141,0,0,0,0,0,0,0,0,0,-1,1315,883,0,0
98,141,0,0,0,0,0,0,0,0,0,-1,1322,883,0,0
105,141,0,0,0,0,0,0,0,0,0,-1,1329,883,0,0
112,141,0,0,0,0,0,0,0,0,0,-1,1336,883,0,0
119,141,0,0,0,0,0,0,0,0,0,-1,1343,883,0,0
126,141,0,0,0,0,0,0,0,0,0,-1,1350,883,0,0
133,141,0,0,0,0,0,0,0,0,0,-1,1357,883,0,0
140,141,0,0,0,0,0,0,0,0,0,-1,1364,883,0,0
147,141,0,0,0,0,0,0,0,0,0,-1,1371,883,0,0
154,141,0,0,0,0,0,0,0,0,0,-1,1378,883,0,0
161,141,0,0,0,0,0,0,0,0,0,-1,1385,883,0,0
168,141,0,0,0,0,0,0,0,0,0,-1,1392,883,0,0
175,141,0,0,0,0,0,0,0,0,0,-1,1399,883,0,0
182,141,0,0,0,0,0,0,0,0,0,-1,1406,883,0,0
189,141,0,0,0,0,0,0,0,0,0,-1,1413,883,0,0
196,141,0,0,0,0,0,0,0,0,0,-1,1420,883,0,0
203,141,0,0,0,0,0,0,0,0,0,-1,1427,883,0,0
210,141,0,0,0,0,0,0,0,0,0,-1,1434,883,0,0
217,141,0,0,0,0,0,0,0,0,0,-1,1441,883,0,0
224,141,0,0,0,0,0,0,0,0,0,-1,1448,883,0,0
231,141,0,0,0,0,0,0,0,0,0,-1,1455,883,0,0
238,141,0,0,0,0,0,0,0,0,0,-1,1462,883,0,0
245,141,0,0,0,0,0,0,0,0,0,-1,1469,883,0,0
252,141,0,0,0,0,0,0,0,0,0,-1,1476,883,0,0
259,141,0,0,0,0,0,0,0,0,0,-1,1483,883,0,0
266,141,0,0,0,0,0,0,0,0,0,-1,1490,883,0,0
273,141,0,0,0,0,0,0,0,0,0,-1,1497,883,0,0
280,141,0,0,0,0,0,0,0,0,0,-1,1504,883,0,0
287,141,0,0,0,0,0,0,0,0,0,-1,1511,883,0,0
294,141,0,0,0,0,0,0,0,0,0,-1,1518,883,0,0
301,141,0,0,0,0,0,0,0,0,0,-1,1525,883,0,0
308,141,0,0,0,0,0,0,0,0,0,-1,1532,883,0,0
315,141,0,0,0,0,0,0,0,0,0,-1,1539,883,0,0
322,141,0,0,0,0,0,0,0,0,0,-1,1546,883,0,0
329,141,0,0,0,0,0,0,0,0,0,-1,1553,883,0,0
336,141,0,0,0,0,0,0,0,0,0,-1,1560,883,0,0
343,141,0,0,0,0,0,0,0,0,0,-1,1567,883,0,0
350,141,0,0,0,0,0,0,0,0,0,-1,1574,883,0,0
357,141,0,0,0,0,0,0,0,0,0,-1,1581,883,0,0
364,141,0,0,0,0,0,0,0,0,0,-1,1588,883,0,0
371,141,0,0,0,0,0,0,0,0,0,-1,1595,883,0,0
378,141,0,0,0,0,0,0,0,0,0,-1,1602,883,0,0
385,141,0,0,0,0,0,0,0,0,0,-1,1609,883,0,0
392,141,0,0,0,0,0,0,0,0,0,-1,1616,883,0,0
399,141,0,0,0,0,0,0,0,0,0,-1,1623,883,0,0
406,141,0,0,0,0,0,0,0,0,0,-1,1630,883,0,0
413,141,0,0,0,0,0,0,0,0,0,-1,1637,883,0,0
420,141,0,0,0,0,0,0,0,0,0,-1,1644,883,0,0
427,141,0,0,0,0,0,0,0,0,0,-1,1651,883,0,0
434,141,0,0,0,0,0,0,0,0,0,-1,1658,883,0,0
441,141,0,0,0,0,0,0,0,0,0,-1,1665,883,0,0
448,141,0,0,0,0,0,0,0,0,0,-1,1672,883,0,0
455,141,0,0,0,0,0,0,0,0,0,-1,1679,883,0,0
462,141,0,0,0,0,0,0,0,0,0,-1,1686,883,0,0
469,141,0,0,0,0,0,0,0,0,0,-1,1693,883,0,0
476,141,0,0,0,0,0,0,0,0,0,-1,1700,883,0,0
483,141,0,0,0,0,0,0,0,0,0,-1,1707,883,0,0
490,141,0,0,0,0,0,0,0,0,0,-1,1714,883,0,0
497,141,0,0,0,0,0,0,0,0,0,-1,1721,883,0,0
504,141,0,0,0,0,0,0,0,0,0,-1,1728,883,0,0
511,141,0,0,0,0,0,0,0,0,0,-1,1735,883,0,0
518,141,0,0,0,0,0,0,0,0,0,-1,1742,883,0,0
525,141,0,0,0,0,0,0,0,0,0,-1,1749,883,0,0
532,141,0,0,0,0,0,0,0,0,0,-1,1756,883,0,0
539,141,0,0,0,0,0,0,0,0,0,-1,1763,883,0,0
546,141,0,0,0,0,0,0,0,0,0,-1,1770,883,0,0
553,141,0,0,0,0,0,0,0,0,0,-1,1777,883,0,0
560,141,0,0,0,0,0,0,0,0,0,-1,1784,883,0,0
567,141,0,0,0,0,0,0,0,0,0,-1,1791,883,0,0
574,141,0,0,0,0,0,0,0,0,0,-1,1798,883,0,0
581,141,0,0,0,0,0,0,0,0,0,-1,1805,883,0,0
588,141,0,0,0,0,0,0,0,0,0,-1,1812,883,0,0
595,141,0,0,0,0,0,0,0,0,0,-1,1819,883,0,0
602,141,0,0,0,0,0,0,0,0,0,-1,1826,883,0,0
609,141,0,0,0,0,0,0,0,0,0,-1,1833,883,0,0
616,141,0,0,0,0,0,0,0,0,0,-1,1840,883,0,0
623,141,71.7811,2.52222,-0.00516867,0.00230466,-0.00458402,0.00448204,-0.00734605,-1.12735,0.00689536,0.0440111,1847,883,71.7811,-2.52223
630,141,71.8553,2.21149,-0.0040359,0.00171886,-0.00329631,0.00321697,-0.00553401,-1.14422,0.00511108,0.0461653,1854,883,71.8554,-2.21149
637,141,71.855,2.1015,-0.00287213,0.00127572,-0.00235724,0.0023415,-0.00393791,-1.14617,0.00366426,0.0443725,1861,883,71.8549,-2.10149
644,141,71.7578,2.22266,-0.00180625,0.000800386,-0.0017148,0.00165094,-0.0026568,-1.11035,0.00250957,0.0380323,1868,883,71.7579,-2.22265
651,141,71.8527,2.44464,-0.0010515,0.000300318,-0.00141068,0.00118866,-0.00193984,-1.00881,0.00182351,0.0362719,1875,883,71.8527,-2.44466
658,141,71.7977,2.47614,-0.000902689,0.000560859,-0.00102637,0.00108961,-0.00143144,-1.09509,0.00145998,0.0360519,1882,883,71.7978,-2.47613
665,141,71.6635,2.44098,-0.000800892,0.0008263,-0.000740142,0.00111259,-0.00108718,-1.20172,0.00127007,0.0287166,1889,883,71.6635,-2.44098
672,141,71.7306,2.33618,-0.000746718,0.00088433,-0.000681504,0.0011316,-0.000993986,-1.22274,0.00122806,0.022205,1896,883,71.7305,-2.33619
679,141,71.7521,2.3186,-0.000820638,0.000923002,-0.000554421,0.00108436,-0.000981994,-1.28758,0.0011935,0.0384629,1903,883,71.7521,-2.31863
686,141,71.7454,2.21814,0,0,0,0,0,0,0,-1,1910,883,71.7453,-2.21814
693,141,51.7202,1.76593,0,0,0,0,0,0,0,-1,1917,883,51.7202,-1.76595
700,141,62.2936,2.11713,0,0,0,0,0,0,0,-1,1924,883,62.2936,-2.1171
707,141,62.0345,3.05627,-0.00121892,0.00198723,-0.000710157,0.00213749,-0.00136917,-1.36229,0.0020407,0.045089,1931,883,62.0346,-3.05628
714,141,61.743,3.67407,-0.001292,0.00241688,-0.000668008,0.00253352,-0.00140864,-1.39792,0.00230669,0.038672,1938,883,61.743,-3.67408
721,141,61.7719,4.32678,-0.00136342,0.00293229,-0.000767728,0.00306537,-0.00149651,-1.39915,0.00268522,0.0219714,1945,883,61.7719,-4.32679
728,141,61.8424,5.05133,-0.00158704,0.00351931,-0.000978965,0.00370056,-0.00176829,-1.38773,0.00322246,0.0176232,1952,883,61.8424,-5.05133
735,141,61.7648,5.92389,-0.00159982,0.00411623,-0.00121863,0.00436519,-0.00184878,-1.36927,0.00368439,0.0199745,1959,883,61.7648,-5.92387
742,141,61.6604,6.66473,-0.00139959,0.0049833,-0.00137952,0.00526869,-0.00168498,-1.3668,0.00418866,0.0205674,1966,883,61.6604,-6.66474
749,141,61.6089,7.3327,-0.000934794,0.00606776,-0.00140797,0.00634025,-0.00120728,-1.37963,0.00468144,0.015717,1973,883,61.6089,-7.3327
756,141,61.5905,8.17273,-0.000231485,0.00752227,-0.00134691,0.00774958,-0.000458793,-1.40361,0.00532591,0.0227946,1980,883,61.5904,-8.1727
763,141,61.5859,8.94995,0.000717967,0.0104437,-0.000589684,0.0104793,0.000682344,-1.51046,0.00677022,0.0464828,1987,883,61.586,-8.94993
770,141,61.5688,9.72223,0,0,0,0,0,0,0,-1,1994,883,61.5688,-9.72223
777,141,57.1121,8.90594,0,0,0,0,0,0,0,-1,2001,883,57.1121,-8.90597
784,141,57.4124,11.4894,0,0,0,0,0,0,0,-1,2008,883,57.4123,-11.4894
791,141,57.7126,14.0729,0,0,0,0,0,0,0,-1,2015,883,57.7125,-14.0729
798,141,0,0,0,0,0,0,0,0,0,-1,2022,883,0,0
805,141,0,0,0,0,0,0,0,0,0,-1,2029,883,0,0
812,141,0,0,0,0,0,0,0,0,0,-1,2036,883,0,0
-700,134,0,0,0,0,0,0,0,0,0,-1,524,890,0,0
-693,134,0,0,0,0,0,0,0,0,0,-1,531,890,0,0
-686,134,0,0,0,0,0,0,0,0,0,-1,538,890,0,0
-679,134,0,0,0,0,0,0,0,0,0,-1,545,890,0,0
-672,134,-49.3306,-0.500671,0,0,0,0,0,0,0,-1,552,890,-49.3306,0.500651
-665,134,-49.3356,-3.00098,0,0,0,0,0,0,0,-1,559,890,-49.3356,3.00096
-658,134,-49.3368,-5.46246,0,0,0,0,0,0,0,-1,566,890,-49.3368,5.46248
-651,134,-53.0905,0.530762,0,0,0,0,0,0,0,-1,573,890,-53.0905,-0.530792
-644,134,-51.8253,-1.26782,0,0,0,0,0,0,0,-1,580,890,-51.8253,1.26783
-637,134,-50.5067,-2.83545,0,0,0,0,0,0,0,-1,587,890,-50.5066,2.83545
-630,134,-47.0254,7.06567,0,0,0,0,0,0,0,-1,594,890,-47.0254,-7.06565
-623,134,-47.1845,6.44391,-0.00290791,0.0119641,0.00200149,0.0122287,-0.00317256,1.43933,0.00939039,0.0323496,601,890,-47.1845,-6.4439
-616,134,-47.4409,5.72034,-0.00684771,0.00875664,0.00105104,0.00882711,-0.00691818,1.50384,0.00911279,0.0137801,608,890,-47.4409,-5.72036
-609,134,-47.579,4.96576,-0.00770824,0.00519662,0.00181827,0.00544792,-0.00795954,1.43346,0.00778594,0.0123096,615,890,-47.579,-4.96574
-602,134,-47.5961,4.19983,-0.00829989,0.00227647,0.00252278,0.00284741,-0.00887083,1.34823,0.00705717,0.0133606,622,890,-47.5961,-4.19985
-595,134,-47.4884,3.47485,-0.00809663,0.000700865,0.00260355,0.00141362,-0.00880939,1.30358,0.00639641,0.0298508,629,890,-47.4884,-3.47484
-588,134,-48.0386,2.7561,-0.00773913,-0.000289451,0.00208879,0.000256246,-0.00828482,1.31526,0.00561058,0.0472615,636,890,-48.0386,-2.75608
-581,134,-48.0867,1.87549,0,0,0,0,0,0,0,-1,643,890,-48.0867,-1.8755
-574,134,-31.1517,0.757751,0,0,0,0,0,0,0,-1,650,890,-31.1517,-0.757758
-567,134,-30.9003,0.296326,0,0,0,0,0,0,0,-1,657,890,-30.9002,-0.296302
-560,134,-22.9123,0.106567,0,0,0,0,0,0,0,-1,664,890,-22.9123,-0.106594
-553,134,-55.8234,0.499329,0,0,0,0,0,0,0,-1,671,890,-55.8234,-0.499318
-546,134,-55.851,0.509583,-0.00561178,-0.00189057,0.000854593,-0.0017037,-0.00579866,1.35551,0.00344144,0.0343097,678,890,-55.851,-0.509572
-539,134,-55.8442,0.523621,-0.00511803,-0.0016581,0.000546548,-0.00157382,-0.00520231,1.41779,0.00308065,0.0193232,685,890,-55.8442,-0.523617
-532,134,-55.8273,0.481323,-0.00294164,-0.0012532,0.000249772,-0.00121703,-0.00297781,1.42697,0.00172877,0.0235557,692,890,-55.8273,-0.481337
-525,134,-55.8853,0.443542,-0.00072765,-0.000316048,-0.000146675,-0.000269129,-0.000774569,-1.2612,0.000454082,0.034112,699,890,-55.8853,-0.443523
-518,134,-55.9545,0.507507,0.0016971,-3.76346e-05,0.000203714,0.00172071,-6.12361e-05,0.115342,0.00116808,0.0395947,706,890,-55.9545,-0.507481
-511,134,-55.8456,0.406067,0.0050277,-0.000132559,0.000762924,0.00513813,-0.000242991,0.14375,0.00350922,0.0397007,713,890,-55.8456,-0.406056
-504,134,0,0,0,0,0,0,0,0,0,-1,720,890,0,0
-497,134,0,0,0,0,0,0,0,0,0,-1,727,890,0,0
-490,134,0,0,0,0,0,0,0,0,0,-1,734,890,0,0
-483,134,0,0,0,0,0,0,0,0,0,-1,741,890,0,0
-476,134,0,0,0,0,0,0,0,0,0,-1,748,890,0,0
-469,134,0,0,0,0,0,0,0,0,0,-1,755,890,0,0
-462,134,0,0,0,0,0,0,0,0,0,-1,762,890,0,0
-455,134,0,0,0,0,0,0,0,0,0,-1,769,890,0,0
-448,134,0,0,0,0,0,0,0,0,0,-1,776,890,0,0
-441,134,0,0,0,0,0,0,0,0,0,-1,783,890,0,0
-434,134,0,0,0,0,0,0,0,0,0,-1,790,890,0,0
-427,134,0,0,0,0,0,0,0,0,0,-1,797,890,0,0
-420,134,0,0,0,0,0,0,0,0,0,-1,804,890,0,0
-413,134,0,0,0,0,0,0,0,0,0,-1,811,890,0,0
-406,134,0,0,0,0,0,0,0,0,0,-1,818,890,0,0
-399,134,0,0,0,0,0,0,0,0,0,-1,825,890,0,0
-392,134,0,0,0,0,0,0,0,0,0,-1,832,890,0,0
-385,134,0,0,0,0,0,0,0,0,0,-1,839,890,0,0
-378,134,0,0,0,0,0,0,0,0,0,-1,846,890,0,0
-371,134,0,0,0,0,0,0,0,0,0,-1,853,890,0,0
-364,134,0,0,0,0,0,0,0,0,0,-1,860,890,0,0
-357,134,0,0,0,0,0,0,0,0,0,-1,867,890,0,0
-350,134,0,0,0,0,0,0,0,0,0,-1,874,890,0,0
-343,134,0,0,0,0,0,0,0,0,0,-1,881,890,0,0
-336,134,0,0,0,0,0,0,0,0,0,-1,888,890,0,0
-329,134,0,0,0,0,0,0,0,0,0,-1,895,890,0,0
-322,134,0,0,0,0,0,0,0,0,0,-1,902,890,0,0
-315,134,0,0,0,0,0,0,0,0,0,-1,909,890,0,0
-308,134,0,0,0,0,0,0,0,0,0,-1,916,890,0,0
-301,134,0,0,0,0,0,0,0,0,0,-1,923,890,0,0
-294,134,0,0,0,0,0,0,0,0,0,-1,930,890,0,0
-287,134,0,0,0,0,0,0,0,0,0,-1,937,890,0,0
-280,134,0,0,0,0,0,0,0,0,0,-1,944,890,0,0
-273,134,0,0,0,0,0,0,0,0,0,-1,951,890,0,0
-266,134,0,0,0,0,0,0,0,0,0,-1,958,890,0,0
-259,134,0,0,0,0,0,0,0,0,0,-1,965,890,0,0
-252,134,0,0,0,0,0,0,0,0,0,-1,972,890,0,0
-245,134,0,0,0,0,0,0,0,0,0,-1,979,890,0,0
-238,134,0,0,0,0,0,0,0,0,0,-1,986,890,0,0
-231,134,0,0,0,0,0,0,0,0,0,-1,993,890,0,0
-224,134,0,0,0,0,0,0,0,0,0,-1,1000,890,0,0
-217,134,0,0,0,0,0,0,0,0,0,-1,1007,890,0,0
-210,134,0,0,0,0,0,0,0,0,0,-1,1014,890,0,0
-203,134,0,0,0,0,0,0,0,0,0,-1,1021,890,0,0
-196,134,0,0,0,0,0,0,0,0,0,-1,1028,890,0,0
-189,134,0,0,0,0,0,0,0,0,0,-1,1035,890,0,0
-182,134,0,0,0,0,0,0,0,0,0,-1,1042,890,0,0
-175,134,0,0,0,0,0,0,0,0,0,-1,1049,890,0,0
-168,134,0,0,0,0,0,0,0,0,0,-1,1056,890,0,0
-161,134,0,0,0,0,0,0,0,0,0,-1,1063,890,0,0
-154,134,0,0,0,0,0,0,0,0,0,-1,1070,890,0,0
-147,134,0,0,0,0,0,0,0,0,0,-1,1077,890,0,0
-140,134,0,0,0,0,0,0,0,0,0,-1,1084,890,0,0
-133,134,0,0,0,0,0,0,0,0,0,-1,1091,890,0,0
-126,134,0,0,0,0,0,0,0,0,0,-1,1098,890,0,0
-119,134,0,0,0,0,0,0,0,0,0,-1,1105,890,0,0
-112,134,0,0,0,0,0,0,0,0,0,-1,1112,890,0,0
-105,134,0,0,0,0,0,0,0,0,0,-1,1119,890,0,0
-98,134,0,0,0,0,0,0,0,0,0,-1,1126,890,0,0
-91,134,0,0,0,0,0,0,0,0,0,-1,1133,890,0,0
-84,134,0,0,0,0,0,0,0,0,0,-1,1140,890,0,0
-77,134,0,0,0,0,0,0,0,0,0,-1,1147,890,0,0
-70,134,0,0,0,0,0,0,0,0,0,-1,1154,890,0,0
-63,134,0,0,0,0,0,0,0,0,0,-1,1161,890,0,0
-56,134,0,0,0,0,0,0,0,0,0,-1,1168,890,0,0
-49,134,0,0,0,0,0,0,0,0,0,-1,1175,890,0,0
-42,134,0,0,0,0,0,0,0,0,0,-1,1182,890,0,0
-35,134,0,0,0,0,0,0,0,0,0,-1,1189,890,0,0
-28,134,0,0,0,0,0,0,0,0,0,-1,1196,890,0,0
-21,134,0,0,0,0,0,0,0,0,0,-1,1203,890,0,0
-14,134,0,0,0,0,0,0,0,0,0,-1,1210,890,0,0
-7,134,0,0,0,0,0,0,0,0,0,-1,1217,890,0,0
0,134,0,0,0,0,0,0,0,0,0,-1,1224,890,0,0
7,134,0,0,0,0,0,0,0,0,0,-1,1231,890,0,0
14,134,0,0,0,0,0,0,0,0,0,-1,1238,890,0,0
21,134,0,0,0,0,0,0,0,0,0,-1,1245,890,0,0
28,134,0,0,0,0,0,0,0,0,0,-1,1252,890,0,0
35,134,0,0,0,0,0,0,0,0,0,-1,1259,890,0,0
42,134,0,0,0,0,0,0,0,0,0,-1,1266,890,0,0
49,134,0,0,0,0,0,0,0,0,0,-1,1273,890,0,0
56,134,0,0,0,0,0,0,0,0,0,-1,1280,890,0,0
63,134,0,0,0,0,0,0,0,0,0,-1,1287,890,0,0
70,134,0,0,0,0,0,0,0,0,0,-1,1294,890,0,0
77,134,0,0,0,0,0,0,0,0,0,-1,1301,890,0,0
84,134,0,0,0,0,0,0,0,0,0,-1,1308,890,0,0
91,134,0,0,0,0,0,0,0,0,0,-1,1315,890,0,0
98,134,0,0,0,0,0,0,0,0,0,-1,1322,890,0,0
105,134,0,0,0,0,0,0,0,0,0,-1,1329,890,0,0
112,134,0,0,0,0,0,0,0,0,0,-1,1336,890,0,0
119,134,0,0,0,0,0,0,0,0,0,-1,1343,890,0,0
126,134,0,0,0,0,0,0,0,0,0,-1,1350,890,0,0
133,134,0,0,0,0,0,0,0,0,0,-1,1357,890,0,0
140,134,0,0,0,0,0,0,0,0,0,-1,1364,890,0,0
147,134,0,0,0,0,0,0,0,0,0,-1,1371,890,0,0
154,134,0,0,0,0,0,0,0,0,0,-1,1378,890,0,0
161,134,0,0,0,0,0,0,0,0,0,-1,1385,890,0,0
168,134,0,0,0,0,0,0,0,0,0,-1,1392,890,0,0
175,134,0,0,0,0,0,0,0,0,0,-1,1399,890,0,0
182,134,0,0,0,0,0,0,0,0,0,-1,1406,890,0,0
189,134,0,0,0,0,0,0,0,0,0,-1,1413,890,0,0
196,134,0,0,0,0,0,0,0,0,0,-1,1420,890,0,0
203,134,0,0,0,0,0,0,0,0,0,-1,1427,890,0,0
210,134,0,0,0,0,0,0,0,0,0,-1,1434,890,0,0
217,134,0,0,0,0,0,0,0,0,0,-1,1441,890,0,0
224,134,0,0,0,0,0,0,0,0,0,-1,1448,890,0,0
231,134,0,0,0,0,0,0,0,0,0,-1,1455,890,0,0
238,134,0,0,0,0,0,0,0,0,0,-1,1462,890,0,0
245,134,0,0,0,0,0,0,0,0,0,-1,1469,890,0,0
252,134,0,0,0,0,0,0,0,0,0,-1,1476,890,0,0
259,134,0,0,0,0,0,0,0,0,0,-1,1483,890,0,0
266,134,0,0,0,0,0,0,0,0,0,-1,1490,890,0,0
273,134,0,0,0,0,0,0,0,0,0,-1,1497,890,0,0
280,134,0,0,0,0,0,0,0,0,0,-1,1504,890,0,0
287,134,0,0,0,0,0,0,0,0,0,-1,1511,890,0,0
294,134,0,0,0,0,0,0,0,0,0,-1,1518,890,0,0
301,134,0,0,0,0,0,0,0,0,0,-1,1525,890,0,0
308,134,0,0,0,0,0,0,0,0,0,-1,1532,890,0,0
315,134,0,0,0,0,0,0,0,0,0,-1,1539,890,0,0
322,134,0,0,0,0,0,0,0,0,0,-1,1546,890,0,0
329,134,0,0,0,0,0,0,0,0,0,-1,1553,890,0,0
336,134,0,0,0,0,0,0,0,0,0,-1,1560,890,0,0
343,134,0,0,0,0,0,0,0,0,0,-1,1567,890,0,0
350,134,0,0,0,0,0,0,0,0,0,-1,1574,890,0,0
357,134,0,0,0,0,0,0,0,0,0,-1,1581,890,0,0
364,134,0,0,0,0,0,0,0,0,0,-1,1588,890,0,0
371,134,0,0,0,0,0,0,0,0,0,-1,1595,890,0,0
378,134,0,0,0,0,0,0,0,0,0,-1,1602,890,0,0
385,134,0,0,0,0,0,0,0,0,0,-1,1609,890,0,0
392,134,0,0,0,0,0,0,0,0,0,-1,1616,890,0,0
399,134,0,0,0,0,0,0,0,0,0,-1,1623,890,0,0
406,134,0,0,0,0,0,0,0,0,0,-1,1630,890,0,0
413,134,0,0,0,0,0,0,0,0,0,-1,1637,890,0,0
420,134,0,0,0,0,0,0,0,0,0,-1,1644,890,0,0
427,134,0,0,0,0,0,0,0,0,0,-1,1651,890,0,0
434,134,0,0,0,0,0,0,0,0,0,-1,1658,890,0,0
441,134,0,0,0,0,0,0,0,0,0,-1,1665,890,0,0
448,134,0,0,0,0,0,0,0,0,0,-1,1672,890,0,0
455,134,0,0,0,0,0,0,0,0,0,-1,1679,890,0,0
462,134,0,0,0,0,0,0,0,0,0,-1,1686,890,0,0
469,134,0,0,0,0,0,0,0,0,0,-1,1693,890,0,0
476,134,0,0,0,0,0,0,0,0,0,-1,1700,890,0,0
483,134,0,0,0,0,0,0,0,0,0,-1,1707,890,0,0
490,134,0,0,0,0,0,0,0,0,0,-1,1714,890,0,0
497,134,0,0,0,0,0,0,0,0,0,-1,1721,890,0,0
504,134,0,0,0,0,0,0,0,0,0,-1,1728,890,0,0
511,134,0,0,0,0,0,0,0,0,0,-1,1735,890,0,0
518,134,0,0,0,0,0,0,0,0,0,-1,1742,890,0,0
525,134,0,0,0,0,0,0,0,0,0,-1,1749,890,0,0
532,134,0,0,0,0,0,0,0,0,0,-1,1756,890,0,0
539,134,0,0,0,0,0,0,0,0,0,-1,1763,890,0,0
546,134,0,0,0,0,0,0,0,0,0,-1,1770,890,0,0
553,134,0,0,0,0,0,0,0,0,0,-1,1777,890,0,0
560,134,0,0,0,0,0,0,0,0,0,-1,1784,890,0,0
567,134,0,0,0,0,0,0,0,0,0,-1,1791,890,0,0
574,134,0,0,0,0,0,0,0,0,0,-1,1798,890,0,0
581,134,0,0,0,0,0,0,0,0,0,-1,1805,890,0,0
588,134,0,0,0,0,0,0,0,0,0,-1,1812,890,0,0
595,134,0,0,0,0,0,0,0,0,0,-1,1819,890,0,0
602,134,0,0,0,0,0,0,0,0,0,-1,1826,890,0,0
609,134,0,0,0,0,0,0,0,0,0,-1,1833,890,0,0
616,134,0,0,0,0,0,0,0,0,0,-1,1840,890,0,0
623,134,71.8876,2.28918,-0.00652552,0.00394506,-0.00440959,0.00555468,-0.00813514,-1.2208,0.00795048,0.0429614,1847,890,71.8876,-2.28917
630,134,71.6482,2.34906,-0.00518488,0.00296475,-0.00315005,0.00404037,-0.0062605,-1.24175,0.00599308,0.0433011,1854,890,71.6482,-2.34907
637,134,71.6696,2.54803,-0.00385081,0.00224051,-0.00229434,0.00300799,-0.0046183,-1.24799,0.00443564,0.0453677,1861,890,71.6695,-2.54806
644,134,71.5852,2.60736,-0.0025943,0.00157724,-0.00168621,0.00217358,-0.00319065,-1.23086,0.00311554,0.0400472,1868,890,71.5852,-2.60734
651,134,71.7692,2.48932,-0.00155843,0.000892561,-0.00133979,0.0014828,-0.00214866,-1.15583,0.00210834,0.039277,1875,890,71.7691,-2.48934
658,134,71.8289,2.37805,-0.00108346,0.000934211,-0.000886971,0.00126868,-0.00141793,-1.21019,0.00155191,0.0384127,1882,890,71.8289,-2.37804
665,134,71.7434,2.2121,-0.000759205,0.00113886,-0.000514706,0.00126945,-0.000889795,-1.32232,0.00125305,0.035402,1889,890,71.7434,-2.21209
672,134,71.7864,2.27197,-0.000649209,0.0011486,-0.00040118,0.00123406,-0.00073467,-1.36091,0.00114877,0.0248734,1896,890,71.7864,-2.27198
679,134,71.804,2.25409,-0.000693678,0.0011232,-0.000266602,0.00116151,-0.00073199,-1.42807,0.00110255,0.0227419,1903,890,71.804,-2.2541
686,134,71.7947,2.21832,0,0,0,0,0,0,0,-1,1910,890,71.7947,-2.21833
693,134,34.5778,2.48096,0,0,0,0,0,0,0,-1,1917,890,34.5777,-2.48099
700,134,62.387,1.71497,0,0,0,0,0,0,0,-1,1924,890,62.3869,-1.715
707,134,62.3293,2.4906,-0.00125947,0.00201094,-0.000541982,0.00209842,-0.00134695,-1.41077,0.0020049,0.0372823,1931,890,62.3294,-2.49059
714,134,62.4636,3.39966,-0.00136912,0.00242926,-0.000565038,0.00251153,-0.00145139,-1.42621,0.00231512,0.0279657,1938,890,62.4636,-3.39966
721,134,62.5951,4.20178,-0.00148746,0.00293537,-0.000749184,0.00305882,-0.00161092,-1.40747,0.00273894,0.0278774,1945,890,62.595,-4.20176
728,134,62.6317,4.98541,-0.0017928,0.0035664,-0.00106587,0.0037706,-0.001997,-1.3815,0.003382,0.0244769,1952,890,62.6317,-4.98538
735,134,62.558,5.90546,-0.00188588,0.00427236,-0.00144472,0.00459445,-0.00220796,-1.35144,0.00400713,0.0289984,1959,890,62.558,-5.90544
742,134,62.4532,6.67407,-0.00167886,0.00535769,-0.00178018,0.00578243,-0.00210359,-1.33659,0.00471524,0.0187022,1966,890,62.4533,-6.67406
749,134,62.4568,7.35632,-0.00106815,0.00680052,-0.0019379,0.00725189,-0.00151952,-1.34196,0.00541267,0.0130313,1973,890,62.4568,-7.35632
756,134,62.4186,8.10345,-3.50826e-05,0.00866879,-0.00193289,0.00907872,-0.000445016,-1.36181,0.00620614,0.0183779,1980,890,62.4186,-8.10346
763,134,62.4287,8.8457,0.00147443,0.0118648,-0.0012972,0.0120243,0.00131493,-1.44845,0.00761584,0.0413423,1987,890,62.4287,-8.84572
770,134,62.4182,9.58478,0,0,0,0,0,0,0,-1,1994,890,62.4182,-9.58477
777,134,60.8262,8.9353,0,0,0,0,0,0,0,-1,2001,890,60.8261,-8.93532
784,134,61.0081,11.2885,0,0,0,0,0,0,0,-1,2008,890,61.008,-11.2885
791,134,61.1899,13.6417,0,0,0,0,0,0,0,-1,2015,890,61.1898,-13.6418
798,134,0,0,0,0,0,0,0,0,0,-1,2022,890,0,0
805,134,0,0,0,0,0,0,0,0,0,-1,2029,890,0,0
812,134,0,0,0,0,0,0,0,0,0,-1,2036,890,0,0
-700,127,0,0,0,0,0,0,0,0,0,-1,524,897,0,0
-693,127,0,0,0,0,0,0,0,0,0,-1,531,897,0,0
-686,127,0,0,0,0,0,0,0,0,0,-1,538,897,0,0
-679,127,-50.9477,0.858459,0,0,0,0,0,0,0,-1,545,897,-50.9477,-0.858453
-672,127,-50.0609,-0.766663,0,0,0,0,0,0,0,-1,552,897,-50.0609,0.766681
-665,127,-49.6271,-2.44153,0,0,0,0,0,0,0,-1,559,897,-49.6271,2.44154
-658,127,-48.965,-4.18744,0,0,0,0,0,0,0,-1,566,897,-48.965,4.18745
-651,127,-52.9149,-0.455505,0,0,0,0,0,0,0,-1,573,897,-52.9149,0.455524
-644,127,-51.6913,-2.33765,0,0,0,0,0,0,0,-1,580,897,-51.6914,2.33763
-637,127,-50.3104,-4.18658,0,0,0,0,0,0,0,-1,587,897,-50.3104,4.18656
-630,127,-48.1392,6.86774,0,0,0,0,0,0,0,-1,594,897,-48.1391,-6.86776
-623,127,-48.2047,6.3446,-0.000912971,0.0118527,0.00401907,0.0130126,-0.00207292,1.28982,0.00944222,0.0207671,601,897,-48.2047,-6.34463
-616,127,-48.2682,5.71448,-0.00592037,0.00859468,0.00238025,0.00897504,-0.00630073,1.41234,0.00886441,0.011695,608,897,-48.2682,-5.71445
-609,127,-48.3558,4.96936,-0.00720019,0.00492692,0.00263428,0.00547443,-0.0077477,1.36587,0.00767132,0.0145813,615,897,-48.3558,-4.96936
-602,127,-48.3625,4.24756,-0.00788814,0.00207909,0.00286269,0.00284277,-0.00865182,1.3101,0.00691313,0.0163483,622,897,-48.3625,-4.24754
-595,127,-48.8162,3.63324,0,0,0,0,0,0,0,-1,629,897,-48.8161,-3.63324
-588,127,-48.2886,2.61725,0,0,0,0,0,0,0,-1,636,897,-48.2885,-2.61725
-581,127,-47.7609,1.60126,0,0,0,0,0,0,0,-1,643,897,-47.761,-1.60125
-574,127,-25.2603,0.511169,0,0,0,0,0,0,0,-1,650,897,-25.2603,-0.51117
-567,127,-24.5417,-0.0447388,0,0,0,0,0,0,0,-1,657,897,-24.5417,0.0447226
-560,127,-18.9678,1.21667,0,0,0,0,0,0,0,-1,664,897,-18.9677,-1.2167
-553,127,-55.8242,0.604309,0,0,0,0,0,0,0,-1,671,897,-55.8241,-0.604311
-546,127,-55.8494,0.579041,-0.00553346,-0.00227478,0.000442469,-0.00221577,-0.00559247,1.43821,0.00325192,0.0232084,678,897,-55.8494,-0.579031
-539,127,-55.8468,0.546265,-0.00497817,-0.00207562,4.00614e-05,-0.00207507,-0.00497872,1.557,0.00288771,0.020836,685,897,-55.8468,-0.54629
-532,127,-55.7896,0.516541,-0.00271687,-0.00163765,-0.000299943,-0.00155989,-0.00279463,-1.31713,0.00161712,0.0175749,692,897,-55.7896,-0.516527
-525,127,-55.7972,0.495544,-0.000611124,-0.000723086,-0.00074836,8.33461e-05,-0.00141756,-0.748065,0.000974009,0.0332007,699,897,-55.7973,-0.495566
-518,127,-55.8676,0.485291,0.00165066,-0.000130988,-0.00064303,0.0018585,-0.000338824,-0.312616,0.00136602,0.0405092,706,897,-55.8676,-0.485277
-511,127,-55.7221,0.354187,0.00472681,0.000225899,-0.000385293,0.00475955,0.000193155,-0.0847813,0.00311065,0.039745,713,897,-55.7221,-0.354161
-504,127,0,0,0,0,0,0,0,0,0,-1,720,897,0,0
-497,127,0,0,0,0,0,0,0,0,0,-1,727,897,0,0
-490,127,0,0,0,0,0,0,0,0,0,-1,734,897,0,0
-483,127,0,0,0,0,0,0,0,0,0,-1,741,897,0,0
-476,127,0,0,0,0,0,0,0,0,0,-1,748,897,0,0
-469,127,0,0,0,0,0,0,0,0,0,-1,755,897,0,0
-462,127,0,0,0,0,0,0,0,0,0,-1,762,897,0,0
-455,127,0,0,0,0,0,0,0,0,0,-1,769,897,0,0
-448,127,0,0,0,0,0,0,0,0,0,-1,776,897,0,0
-441,127,0,0,0,0,0,0,0,0,0,-1,783,897,0,0
-434,127,0,0,0,0,0,0,0,0,0,-1,790,897,0,0
-427,127,0,0,0,0,0,0,0,0,0,-1,797,897,0,0
-420,127,0,0,0,0,0,0,0,0,0,-1,804,897,0,0
-413,127,0,0,0,0,0,0,0,0,0,-1,811,897,0,0
-406,127,0,0,0,0,0,0,0,0,0,-1,818,897,0,0
-399,127,0,0,0,0,0,0,0,0,0,-1,825,897,0,0
-392,127,0,0,0,0,0,0,0,0,0,-1,832,897,0,0
-385,127,0,0,0,0,0,0,0,0,0,-1,839,897,0,0
-378,127,0,0,0,0,0,0,0,0,0,-1,846,897,0,0
-371,127,0,0,0,0,0,0,0,0,0,-1,853,897,0,0
-364,127,0,0,0,0,0,0,0,0,0,-1,860,897,0,0
-357,127,0,0,0,0,0,0,0,0,0,-1,867,897,0,0
-350,127,0,0,0,0,0,0,0,0,0,-1,874,897,0,0
-343,127,0,0,0,0,0,0,0,0,0,-1,881,897,0,0
-336,127,0,0,0,0,0,0,0,0,0,-1,888,897,0,0
-329,127,0,0,0,0,0,0,0,0,0,-1,895,897,0,0
-322,127,0,0,0,0,0,0,0,0,0,-1,902,897,0,0
-315,127,0,0,0,0,0,0,0,0,0,-1,909,897,0,0
-308,127,0,0,0,0,0,0,0,0,0,-1,916,897,0,0
-301,127,0,0,0,0,0,0,0,0,0,-1,923,897,0,0
-294,127,0,0,0,0,0,0,0,0,0,-1,930,897,0,0
-287,127,0,0,0,0,0,0,0,0,0,-1,937,897,0,0
-280,127,0,0,0,0,0,0,0,0,0,-1,944,897,0,0
-273,127,0,0,0,0,0,0,0,0,0,-1,951,897,0,0
-266,127,0,0,0,0,0,0,0,0,0,-1,958,897,0,0
-259,127,0,0,0,0,0,0,0,0,0,-1,965,897,0,0
-252,127,0,0,0,0,0,0,0,0,0,-1,972,897,0,0
-245,127,0,0,0,0,0,0,0,0,0,-1,979,897,0,0
-238,127,0,0,0,0,0,0,0,0,0,-1,986,897,0,0
-231,127,0,0,0,0,0,0,0,0,0,-1,993,897,0,0
-224,127,0,0,0,0,0,0,0,0,0,-1,1000,897,0,0
-217,127,0,0,0,0,0,0,0,0,0,-1,1007,897,0,0
-210,127,0,0,0,0,0,0,0,0,0,-1,1014,897,0,0
-203,127,0,0,0,0,0,0,0,0,0,-1,1021,897,0,0
-196,127,0,0,0,0,0,0,0,0,0,-1,1028,897,0,0
-189,127,0,0,0,0,0,0,0,0,0,-1,1035,897,0,0
-182,127,0,0,0,0,0,0,0,0,0,-1,1042,897,0,0
-175,127,0,0,0,0,0,0,0,0,0,-1,1049,897,0,0
-168,127,0,0,0,0,0,0,0,0,0,-1,1056,897,0,0
-161,127,0,0,0,0,0,0,0,0,0,-1,1063,897,0,0
-154,127,0,0,0,0,0,0,0,0,0,-1,1070,897,0,0
-147,127,0,0,0,0,0,0,0,0,0,-1,1077,897,0,0
-140,127,0,0,0,0,0,0,0,0,0,-1,1084,897,0,0
-133,127,0,0,0,0,0,0,0,0,0,-1,1091,897,0,0
-126,127,0,0,0,0,0,0,0,0,0,-1,1098,897,0,0
-119,127,0,0,0,0,0,0,0,0,0,-1,1105,897,0,0
-112,127,0,0,0,0,0,0,0,0,0,-1,1112,897,0,0
-105,127,0,0,0,0,0,0,0,0,0,-1,1119,897,0,0
-98,127,0,0,0,0,0,0,0,0,0,-1,1126,897,0,0
-91,127,0,0,0,0,0,0,0,0,0,-1,1133,897,0,0
-84,127,0,0,0,0,0,0,0,0,0,-1,1140,897,0,0
-77,127,0,0,0,0,0,0,0,0,0,-1,1147,897,0,0
-70,127,0,0,0,0,0,0,0,0,0,-1,1154,897,0,0
-63,127,0,0,0,0,0,0,0,0,0,-1,1161,897,0,0
-56,127,0,0,0,0,0,0,0,0,0,-1,1168,897,0,0
-49,127,0,0,0,0,0,0,0,0,0,-1,1175,897,0,0
-42,127,0,0,0,0,0,0,0,0,0,-1,1182,897,0,0
-35,127,0,0,0,0,0,0,0,0,0,-1,1189,897,0,0
-28,127,0,0,0,0,0,0,0,0,0,-1,1196,897,0,0
-21,127,0,0,0,0,0,0,0,0,0,-1,1203,897,0,0
-14,127,0,0,0,0,0,0,0,0,0,-1,1210,897,0,0
-7,127,0,0,0,0,0,0,0,0,0,-1,1217,897,0,0
0,127,0,0,0,0,0,0,0,0,0,-1,1224,897,0,0
7,127,0,0,0,0,0,0,0,0,0,-1,1231,897,0,0
14,127,0,0,0,0,0,0,0,0,0,-1,1238,897,0,0
21,127,0,0,0,0,0,0,0,0,0,-1,1245,897,0,0
28,127,0,0,0,0,0,0,0,0,0,-1,1252,897,0,0
35,127,0,0,0,0,0,0,0,0,0,-1,1259,897,0,0
42,127,0,0,0,0,0,0,0,0,0,-1,1266,897,0,0
49,127,0,0,0,0,0,0,0,0,0,-1,1273,897,0,0
56,127,0,0,0,0,0,0,0,0,0,-1,1280,897,0,0
63,127,0,0,0,0,0,0,0,0,0,-1,1287,897,0,0
70,127,0,0,0,0,0,0,0,0,0,-1,1294,897,0,0
77,127,0,0,0,0,0,0,0,0,0,-1,1301,897,0,0
84,127,0,0,0,0,0,0,0,0,0,-1,1308,897,0,0
91,127,0,0,0,0,0,0,0,0,0,-1,1315,897,0,0
98,127,0,0,0,0,0,0,0,0,0,-1,1322,897,0,0
105,127,0,0,0,0,0,0,0,0,0,-1,1329,897,0,0
112,127,0,0,0,0,0,0,0,0,0,-1,1336,897,0,0
119,127,0,0,0,0,0,0,0,0,0,-1,1343,897,0,0
126,127,0,0,0,0,0,0,0,0,0,-1,1350,897,0,0
133,127,0,0,0,0,0,0,0,0,0,-1,1357,897,0,0
140,127,0,0,0,0,0,0,0,0,0,-1,1364,897,0,0
147,127,0,0,0,0,0,0,0,0,0,-1,1371,897,0,0
154,127,0,0,0,0,0,0,0,0,0,-1,1378,897,0,0
161,127,0,0,0,0,0,0,0,0,0,-1,1385,897,0,0
168,127,0,0,0,0,0,0,0,0,0,-1,1392,897,0,0
175,127,0,0,0,0,0,0,0,0,0,-1,1399,897,0,0
182,127,0,0,0,0,0,0,0,0,0,-1,1406,897,0,0
189,127,0,0,0,0,0,0,0,0,0,-1,1413,897,0,0
196,127,0,0,0,0,0,0,0,0,0,-1,1420,897,0,0
203,127,0,0,0,0,0,0,0,0,0,-1,1427,897,0,0
210,127,0,0,0,0,0,0,0,0,0,-1,1434,897,0,0
217,127,0,0,0,0,0,0,0,0,0,-1,1441,897,0,0
224,127,0,0,0,0,0,0,0,0,0,-1,1448,897,0,0
231,127,0,0,0,0,0,0,0,0,0,-1,1455,897,0,0
238,127,0,0,0,0,0,0,0,0,0,-1,1462,897,0,0
245,127,0,0,0,0,0,0,0,0,0,-1,1469,897,0,0
252,127,0,0,0,0,0,0,0,0,0,-1,1476,897,0,0
259,127,0,0,0,0,0,0,0,0,0,-1,1483,897,0,0
266,127,0,0,0,0,0,0,0,0,0,-1,1490,897,0,0
273,127,0,0,0,0,0,0,0,0,0,-1,1497,897,0,0
280,127,0,0,0,0,0,0,0,0,0,-1,1504,897,0,0
287,127,0,0,0,0,0,0,0,0,0,-1,1511,897,0,0
294,127,0,0,0,0,0,0,0,0,0,-1,1518,897,0,0
301,127,0,0,0,0,0,0,0,0,0,-1,1525,897,0,0
308,127,0,0,0,0,0,0,0,0,0,-1,1532,897,0,0
315,127,0,0,0,0,0,0,0,0,0,-1,1539,897,0,0
322,127,0,0,0,0,0,0,0,0,0,-1,1546,897,0,0
329,127,0,0,0,0,0,0,0,0,0,-1,1553,897,0,0
336,127,0,0,0,0,0,0,0,0,0,-1,1560,897,0,0
343,127,0,0,0,0,0,0,0,0,0,-1,1567,897,0,0
350,127,0,0,0,0,0,0,0,0,0,-1,1574,897,0,0
357,127,0,0,0,0,0,0,0,0,0,-1,1581,897,0,0
364,127,0,0,0,0,0,0,0,0,0,-1,1588,897,0,0
371,127,0,0,0,0,0,0,0,0,0,-1,1595,897,0,0
378,127,0,0,0,0,0,0,0,0,0,-1,1602,897,0,0
385,127,0,0,0,0,0,0,0,0,0,-1,1609,897,0,0
392,127,0,0,0,0,0,0,0,0,0,-1,1616,897,0,0
399,127,0,0,0,0,0,0,0,0,0,-1,1623,897,0,0
406,127,0,0,0,0,0,0,0,0,0,-1,1630,897,0,0
413,127,0,0,0,0,0,0,0,0,0,-1,1637,897,0,0
420,127,0,0,0,0,0,0,0,0,0,-1,1644,897,0,0
427,127,0,0,0,0,0,0,0,0,0,-1,1651,897,0,0
434,127,0,0,0,0,0,0,0,0,0,-1,1658,897,0,0
441,127,0,0,0,0,0,0,0,0,0,-1,1665,897,0,0
448,127,0,0,0,0,0,0,0,0,0,-1,1672,897,0,0
455,127,0,0,0,0,0,0,0,0,0,-1,1679,897,0,0
462,127,0,0,0,0,0,0,0,0,0,-1,1686,897,0,0
469,127,0,0,0,0,0,0,0,0,0,-1,1693,897,0,0
476,127,0,0,0,0,0,0,0,0,0,-1,1700,897,0,0
483,127,0,0,0,0,0,0,0,0,0,-1,1707,897,0,0
490,127,0,0,0,0,0,0,0,0,0,-1,1714,897,0,0
497,127,0,0,0,0,0,0,0,0,0,-1,1721,897,0,0
504,127,0,0,0,0,0,0,0,0,0,-1,1728,897,0,0
511,127,0,0,0,0,0,0,0,0,0,-1,1735,897,0,0
518,127,0,0,0,0,0,0,0,0,0,-1,1742,897,0,0
525,127,0,0,0,0,0,0,0,0,0,-1,1749,897,0,0
532,127,0,0,0,0,0,0,0,0,0,-1,1756,897,0,0
539,127,0,0,0,0,0,0,0,0,0,-1,1763,897,0,0
546,127,0,0,0,0,0,0,0,0,0,-1,1770,897,0,0
553,127,0,0,0,0,0,0,0,0,0,-1,1777,897,0,0
560,127,0,0,0,0,0,0,0,0,0,-1,1784,897,0,0
567,127,0,0,0,0,0,0,0,0,0,-1,1791,897,0,0
574,127,0,0,0,0,0,0,0,0,0,-1,1798,897,0,0
581,127,0,0,0,0,0,0,0,0,0,-1,1805,897,0,0
588,127,0,0,0,0,0,0,0,0,0,-1,1812,897,0,0
595,127,0,0,0,0,0,0,0,0,0,-1,1819,897,0,0
602,127,0,0,0,0,0,0,0,0,0,-1,1826,897,0,0
609,127,0,0,0,0,0,0,0,0,0,-1,1833,897,0,0
616,127,0,0,0,0,0,0,0,0,0,-1,1840,897,0,0
623,127,0,0,0,0,0,0,0,0,0,-1,1847,897,0,0
630,127,71.7493,2.47821,-0.0058173,0.00328093,-0.00279625,0.00407161,-0.00660799,-1.29522,0.00622356,0.0384978,1854,897,71.7492,-2.47819
637,127,71.4857,2.56689,-0.00449604,0.002534,-0.00203503,0.0030806,-0.00504263,-1.3084,0.00473533,0.0400506,1861,897,71.4857,-2.56692
644,127,71.4696,2.70667,-0.00323232,0.00186405,-0.00148893,0.00226716,-0.00363544,-1.3064,0.00343825,0.040177,1868,897,71.4696,-2.70664
651,127,71.5985,2.46594,-0.00208099,0.00113977,-0.00115811,0.00151296,-0.00245418,-1.25906,0.00231182,0.0417896,1875,897,71.5986,-2.46594
658,127,71.7253,2.24939,-0.00134295,0.00103011,-0.000713696,0.00122822,-0.00154106,-1.30004,0.00160224,0.0402058,1882,897,71.7254,-2.24941
665,127,71.7913,2.14014,-0.000794463,0.00119041,-0.000307988,0.0012371,-0.000841155,-1.42034,0.00120712,0.03853,1889,897,71.7913,-2.14015
672,127,71.7494,2.24036,-0.00059185,0.00117525,-0.000148683,0.00118767,-0.000604272,-1.48744,0.0010527,0.0354043,1896,897,71.7494,-2.24033
679,127,71.8092,2.2749,-0.000582252,0.00111004,-1.01929e-05,0.0011101,-0.000582314,-1.56477,0.000992827,0.0259823,1903,897,71.8092,-2.2749
686,127,71.7916,2.28192,0,0,0,0,0,0,0,-1,1910,897,71.7917,-2.28192
693,127,59.2523,2.33673,0,0,0,0,0,0,0,-1,1917,897,59.2524,-2.33674
700,127,58.717,1.80957,0,0,0,0,0,0,0,-1,1924,897,58.717,-1.80956
707,127,63.1632,2.47363,0,0,0,0,0,0,0,-1,1931,897,63.1632,-2.47365
714,127,63.4969,3.47095,-0.00147807,0.00230134,-0.000546798,0.00237886,-0.00155559,-1.42996,0.00228807,0.0269606,1938,897,63.4969,-3.47092
721,127,63.5691,4.38611,-0.00164813,0.00281131,-0.000801052,0.00295084,-0.00178765,-1.39835,0.00276311,0.0270953,1945,897,63.5691,-4.38609
728,127,63.4308,5.11816,-0.00204152,0.00350736,-0.00117526,0.00374602,-0.00228018,-1.37045,0.00351337,0.0248365,1952,897,63.4308,-5.11814
735,127,63.3494,5.94342,-0.00225909,0.00432294,-0.00161844,0.00469936,-0.00263551,-1.34227,0.00429031,0.0209263,1959,897,63.3494,-5.94343
742,127,63.2753,6.69019,-0.00213225,0.00560946,-0.00204911,0.00611837,-0.00264117,-1.32736,0.00518844,0.0193595,1966,897,63.2752,-6.69021
749,127,63.2301,7.38116,-0.00148489,0.00739685,-0.00227538,0.00794584,-0.00203388,-1.33405,0.00608948,0.0134811,1973,897,63.2301,-7.38119
756,127,63.1591,8.07739,-0.000248863,0.0096681,-0.00227366,0.0101645,-0.000745292,-1.35583,0.00703795,0.0158833,1980,897,63.159,-8.07737
763,127,63.0427,8.7652,0.00162329,0.0130629,-0.00170396,0.0133113,0.00137488,-1.42603,0.00845324,0.0262902,1987,897,63.0428,-8.76517
770,127,62.9958,9.44678,0,0,0,0,0,0,0,-1,1994,897,62.9958,-9.4468
777,127,42.703,5.33789,0,0,0,0,0,0,0,-1,2001,897,42.7031,-5.33791
784,127,64.5569,10.9753,0,0,0,0,0,0,0,-1,2008,897,64.557,-10.9753
791,127,63.4036,12.2262,0,0,0,0,0,0,0,-1,2015,897,63.4036,-12.2262
798,127,0,0,0,0,0,0,0,0,0,-1,2022,897,0,0
805,127,0,0,0,0,0,0,0,0,0,-1,2029,897,0,0
812,127,0,0,0,0,0,0,0,0,0,-1,2036,897,0,0
-700,120,0,0,0,0,0,0,0,0,0,-1,524,904,0,0
-693,120,0,0,0,0,0,0,0,0,0,-1,531,904,0,0
-686,120,0,0,0,0,0,0,0,0,0,-1,538,904,0,0
-679,120,-52.1831,0.91095,0,0,0,0,0,0,0,-1,545,904,-52.1832,-0.910935
-672,120,-51.1978,-0.831848,0,0,0,0,0,0,0,-1,552,904,-51.1978,0.831856
-665,120,-50.2376,-2.67987,0,0,0,0,0,0,0,-1,559,904,-50.2376,2.67988
-658,120,-54.6443,7.5307,0,0,0,0,0,0,0,-1,566,904,-54.6443,-7.53071
-651,120,-52.9452,-1.22644,0,0,0,0,0,0,0,-1,573,904,-52.9452,1.22647
-644,120,-51.6526,-3.15863,0,0,0,0,0,0,0,-1,580,904,-51.6526,3.15864
-637,120,-48.9117,7.3924,0,0,0,0,0,0,0,-1,587,904,-48.9117,-7.39237
-630,120,-48.903,6.92194,0.0155505,0.0153451,0.0101935,0.0256419,0.00525374,0.780362,0.0156403,0.039356,594,904,-48.9029,-6.92192
-623,120,-49.0126,6.33331,0.000870705,0.0122894,0.00533655,0.0143951,-0.00123502,1.19497,0.0100338,0.0133984,601,904,-49.0126,-6.33331
-616,120,-49.0609,5.68243,-0.00524494,0.0084164,0.00322827,0.00914084,-0.00596939,1.35005,0.00878771,0.0113934,608,904,-49.0609,-5.68245
-609,120,-49.0937,4.97534,-0.0066197,0.00457166,0.00314663,0.00539571,-0.00744375,1.31467,0.00744423,0.0156299,615,904,-49.0937,-4.97536
-602,120,-49.127,4.27435,-0.00722128,0.00176728,0.00310336,0.00273463,-0.00818863,1.26863,0.00656335,0.0185269,622,904,-49.127,-4.27436
-595,120,-49.0532,3.60425,-0.00694491,0.000420829,0.00285847,0.00139997,-0.00792405,1.24078,0.00580589,0.0377231,629,904,-49.0532,-3.60425
-588,120,-48.7416,2.44153,0,0,0,0,0,0,0,-1,636,904,-48.7417,-2.44155
-581,120,-49.1898,2.43109,0,0,0,0,0,0,0,-1,643,904,-49.1898,-2.43111
-574,120,-27.5438,0.505066,0,0,0,0,0,0,0,-1,650,904,-27.5438,-0.505085
-567,120,-25.2822,-0.410645,0,0,0,0,0,0,0,-1,657,904,-25.2821,0.410629
-560,120,-27.3358,1.10327,0,0,0,0,0,0,0,-1,664,904,-27.3358,-1.10324
-553,120,-55.7416,0.668884,0,0,0,0,0,0,0,-1,671,904,-55.7416,-0.668878
-546,120,-55.7734,0.646606,-0.00498178,-0.00243426,0.000213454,-0.00241649,-0.00499954,1.48778,0.00288702,0.0323145,678,904,-55.7734,-0.646581
-539,120,-55.7343,0.608459,-0.00432143,-0.00211621,-0.000250178,-0.00208819,-0.00434946,-1.45924,0.00251182,0.0258151,685,904,-55.7342,-0.608434
-532,120,-55.6912,0.626099,-0.00205201,-0.00145697,-0.000628638,-0.001059,-0.00244998,-1.00642,0.00141882,0.0281249,692,904,-55.6912,-0.626103
-525,120,-55.8888,0.68689,1.18523e-05,-0.000554534,-0.00113225,0.000895783,-0.00143846,-0.662854,0.00135976,0.0355353,699,904,-55.8888,-0.686906
-518,120,-56.2447,0.668579,0.00232005,8.32667e-05,-0.00127726,0.00289937,-0.000496047,-0.425809,0.00211772,0.0387056,706,904,-56.2447,-0.668591
-511,120,-55.9466,0.625427,0.00541218,0.000494339,-0.00130598,0.00573748,0.000169039,-0.244117,0.00376991,0.0370071,713,904,-55.9466,-0.625424
-504,120,0,0,0,0,0,0,0,0,0,-1,720,904,0,0
-497,120,0,0,0,0,0,0,0,0,0,-1,727,904,0,0
-490,120,0,0,0,0,0,0,0,0,0,-1,734,904,0,0
-483,120,0,0,0,0,0,0,0,0,0,-1,741,904,0,0
-476,120,0,0,0,0,0,0,0,0,0,-1,748,904,0,0
-469,120,0,0,0,0,0,0,0,0,0,-1,755,904,0,0
-462,120,0,0,0,0,0,0,0,0,0,-1,762,904,0,0
-455,120,0,0,0,0,0,0,0,0,0,-1,769,904,0,0
-448,120,0,0,0,0,0,0,0,0,0,-1,776,904,0,0
-441,120,0,0,0,0,0,0,0,0,0,-1,783,904,0,0
-434,120,0,0,0,0,0,0,0,0,0,-1,790,904,0,0
-427,120,0,0,0,0,0,0,0,0,0,-1,797,904,0,0
-420,120,0,0,0,0,0,0,0,0,0,-1,804,904,0,0
-413,120,0,0,0,0,0,0,0,0,0,-1,811,904,0,0
-406,120,0,0,0,0,0,0,0,0,0,-1,818,904,0,0
-399,120,0,0,0,0,0,0,0,0,0,-1,825,904,0,0
-392,120,0,0,0,0,0,0,0,0,0,-1,832,904,0,0
-385,120,0,0,0,0,0,0,0,0,0,-1,839,904,0,0
-378,120,0,0,0,0,0,0,0,0,0,-1,846,904,0,0
-371,120,0,0,0,0,0,0,0,0,0,-1,853,904,0,0
-364,120,0,0,0,0,0,0,0,0,0,-1,860,904,0,0
-357,120,0,0,0,0,0,0,0,0,0,-1,867,904,0,0
-350,120,0,0,0,0,0,0,0,0,0,-1,874,904,0,0
-343,120,0,0,0,0,0,0,0,0,0,-1,881,904,0,0
-336,120,0,0,0,0,0,0,0,0,0,-1,888,904,0,0
-329,120,0,0,0,0,0,0,0,0,0,-1,895,904,0,0
-322,120,0,0,0,0,0,0,0,0,0,-1,902,904,0,0
-315,120,0,0,0,0,0,0,0,0,0,-1,909,904,0,0
-308,120,0,0,0,0,0,0,0,0,0,-1,916,904,0,0
-301,120,0,0,0,0,0,0,0,0,0,-1,923,904,0,0
-294,120,0,0,0,0,0,0,0,0,0,-1,930,904,0,0
-287,120,0,0,0,0,0,0,0,0,0,-1,937,904,0,0
-280,120,0,0,0,0,0,0,0,0,0,-1,944,904,0,0
-273,120,0,0,0,0,0,0,0,0,0,-1,951,904,0,0
-266,120,0,0,0,0,0,0,0,0,0,-1,958,904,0,0
-259,120,0,0,0,0,0,0,0,0,0,-1,965,904,0,0
-252,120,0,0,0,0,0,0,0,0,0,-1,972,904,0,0
-245,120,0,0,0,0,0,0,0,0,0,-1,979,904,0,0
-238,120,0,0,0,0,0,0,0,0,0,-1,986,904,0,0
-231,120,0,0,0,0,0,0,0,0,0,-1,993,904,0,0
-224,120,0,0,0,0,0,0,0,0,0,-1,1000,904,0,0
-217,120,0,0,0,0,0,0,0,0,0,-1,1007,904,0,0
-210,120,0,0,0,0,0,0,0,0,0,-1,1014,904,0,0
-203,120,0,0,0,0,0,0,0,0,0,-1,1021,904,0,0
-196,120,0,0,0,0,0,0,0,0,0,-1,1028,904,0,0
-189,120,0,0,0,0,0,0,0,0,0,-1,1035,904,0,0
-182,120,0,0,0,0,0,0,0,0,0,-1,1042,904,0,0
-175,120,0,0,0,0,0,0,0,0,0,-1,1049,904,0,0
-168,120,0,0,0,0,0,0,0,0,0,-1,1056,904,0,0
-161,120,0,0,0,0,0,0,0,0,0,-1,1063,904,0,0
-154,120,0,0,0,0,0,0,0,0,0,-1,1070,904,0,0
-147,120,0,0,0,0,0,0,0,0,0,-1,1077,904,0,0
-140,120,0,0,0,0,0,0,0,0,0,-1,1084,904,0,0
-133,120,0,0,0,0,0,0,0,0,0,-1,1091,904,0,0
-126,120,0,0,0,0,0,0,0,0,0,-1,1098,904,0,0
-119,120,0,0,0,0,0,0,0,0,0,-1,1105,904,0,0
-112,120,0,0,0,0,0,0,0,0,0,-1,1112,904,0,0
-105,120,0,0,0,0,0,0,0,0,0,-1,1119,904,0,0
-98,120,0,0,0,0,0,0,0,0,0,-1,1126,904,0,0
-91,120,0,0,0,0,0,0,0,0,0,-1,1133,904,0,0
-84,120,0,0,0,0,0,0,0,0,0,-1,1140,904,0,0
-77,120,0,0,0,0,0,0,0,0,0,-1,1147,904,0,0
-70,120,0,0,0,0,0,0,0,0,0,-1,1154,904,0,0
-63,120,0,0,0,0,0,0,0,0,0,-1,1161,904,0,0
-56,120,0,0,0,0,0,0,0,0,0,-1,1168,904,0,0
-49,120,0,0,0,0,0,0,0,0,0,-1,1175,904,0,0
-42,120,0,0,0,0,0,0,0,0,0,-1,1182,904,0,0
-35,120,0,0,0,0,0,0,0,0,0,-1,1189,904,0,0
-28,120,0,0,0,0,0,0,0,0,0,-1,1196,904,0,0
-21,120,0,0,0,0,0,0,0,0,0,-1,1203,904,0,0
-14,120,0,0,0,0,0,0,0,0,0,-1,1210,904,0,0
-7,120,0,0,0,0,0,0,0,0,0,-1,1217,904,0,0
0,120,0,0,0,0,0,0,0,0,0,-1,1224,904,0,0
7,120,0,0,0,0,0,0,0,0,0,-1,1231,904,0,0
14,120,0,0,0,0,0,0,0,0,0,-1,1238,904,0,0
21,120,0,0,0,0,0,0,0,0,0,-1,1245,904,0,0
28,120,0,0,0,0,0,0,0,0,0,-1,1252,904,0,0
35,120,0,0,0,0,0,0,0,0,0,-1,1259,904,0,0
42,120,0,0,0,0,0,0,0,0,0,-1,1266,904,0,0
49,120,0,0,0,0,0,0,0,0,0,-1,1273,904,0,0
56,120,0,0,0,0,0,0,0,0,0,-1,1280,904,0,0
63,120,0,0,0,0,0,0,0,0,0,-1,1287,904,0,0
70,120,0,0,0,0,0,0,0,0,0,-1,1294,904,0,0
77,120,0,0,0,0,0,0,0,0,0,-1,1301,904,0,0
84,120,0,0,0,0,0,0,0,0,0,-1,1308,904,0,0
91,120,0,0,0,0,0,0,0,0,0,-1,1315,904,0,0
98,120,0,0,0,0,0,0,0,0,0,-1,1322,904,0,0
105,120,0,0,0,0,0,0,0,0,0,-1,1329,904,0,0
112,120,0,0,0,0,0,0,0,0,0,-1,1336,904,0,0
119,120,0,0,0,0,0,0,0,0,0,-1,1343,904,0,0
126,120,0,0,0,0,0,0,0,0,0,-1,1350,904,0,0
133,120,0,0,0,0,0,0,0,0,0,-1,1357,904,0,0
140,120,0,0,0,0,0,0,0,0,0,-1,1364,904,0,0
147,120,0,0,0,0,0,0,0,0,0,-1,1371,904,0,0
154,120,0,0,0,0,0,0,0,0,0,-1,1378,904,0,0
161,120,0,0,0,0,0,0,0,0,0,-1,1385,904,0,0
168,120,0,0,0,0,0,0,0,0,0,-1,1392,904,0,0
175,120,0,0,0,0,0,0,0,0,0,-1,1399,904,0,0
182,120,0,0,0,0,0,0,0,0,0,-1,1406,904,0,0
189,120,0,0,0,0,0,0,0,0,0,-1,1413,904,0,0
196,120,0,0,0,0,0,0,0,0,0,-1,1420,904,0,0
203,120,0,0,0,0,0,0,0,0,0,-1,1427,904,0,0
210,120,0,0,0,0,0,0,0,0,0,-1,1434,904,0,0
217,120,0,0,0,0,0,0,0,0,0,-1,1441,904,0,0
224,120,0,0,0,0,0,0,0,0,0,-1,1448,904,0,0
231,120,0,0,0,0,0,0,0,0,0,-1,1455,904,0,0
238,120,0,0,0,0,0,0,0,0,0,-1,1462,904,0,0
245,120,0,0,0,0,0,0,0,0,0,-1,1469,904,0,0
252,120,0,0,0,0,0,0,0,0,0,-1,1476,904,0,0
259,120,0,0,0,0,0,0,0,0,0,-1,1483,904,0,0
266,120,0,0,0,0,0,0,0,0,0,-1,1490,904,0,0
273,120,0,0,0,0,0,0,0,0,0,-1,1497,904,0,0
280,120,0,0,0,0,0,0,0,0,0,-1,1504,904,0,0
287,120,0,0,0,0,0,0,0,0,0,-1,1511,904,0,0
294,120,0,0,0,0,0,0,0,0,0,-1,1518,904,0,0
301,120,0,0,0,0,0,0,0,0,0,-1,1525,904,0,0
308,120,0,0,0,0,0,0,0,0,0,-1,1532,904,0,0
315,120,0,0,0,0,0,0,0,0,0,-1,1539,904,0,0
322,120,0,0,0,0,0,0,0,0,0,-1,1546,904,0,0
329,120,0,0,0,0,0,0,0,0,0,-1,1553,904,0,0
336,120,0,0,0,0,0,0,0,0,0,-1,1560,904,0,0
343,120,0,0,0,0,0,0,0,0,0,-1,1567,904,0,0
350,120,0,0,0,0,0,0,0,0,0,-1,1574,904,0,0
357,120,0,0,0,0,0,0,0,0,0,-1,1581,904,0,0
364,120,0,0,0,0,0,0,0,0,0,-1,1588,904,0,0
371,120,0,0,0,0,0,0,0,0,0,-1,1595,904,0,0
378,120,0,0,0,0,0,0,0,0,0,-1,1602,904,0,0
385,120,0,0,0,0,0,0,0,0,0,-1,1609,904,0,0
392,120,0,0,0,0,0,0,0,0,0,-1,1616,904,0,0
399,120,0,0,0,0,0,0,0,0,0,-1,1623,904,0,0
406,120,0,0,0,0,0,0,0,0,0,-1,1630,904,0,0
413,120,0,0,0,0,0,0,0,0,0,-1,1637,904,0,0
420,120,0,0,0,0,0,0,0,0,0,-1,1644,904,0,0
427,120,0,0,0,0,0,0,0,0,0,-1,1651,904,0,0
434,120,0,0,0,0,0,0,0,0,0,-1,1658,904,0,0
441,120,0,0,0,0,0,0,0,0,0,-1,1665,904,0,0
448,120,0,0,0,0,0,0,0,0,0,-1,1672,904,0,0
455,120,0,0,0,0,0,0,0,0,0,-1,1679,904,0,0
462,120,0,0,0,0,0,0,0,0,0,-1,1686,904,0,0
469,120,0,0,0,0,0,0,0,0,0,-1,1693,904,0,0
476,120,0,0,0,0,0,0,0,0,0,-1,1700,904,0,0
483,120,0,0,0,0,0,0,0,0,0,-1,1707,904,0,0
490,120,0,0,0,0,0,0,0,0,0,-1,1714,904,0,0
497,120,0,0,0,0,0,0,0,0,0,-1,1721,904,0,0
504,120,0,0,0,0,0,0,0,0,0,-1,1728,904,0,0
511,120,0,0,0,0,0,0,0,0,0,-1,1735,904,0,0
518,120,0,0,0,0,0,0,0,0,0,-1,1742,904,0,0
525,120,0,0,0,0,0,0,0,0,0,-1,1749,904,0,0
532,120,0,0,0,0,0,0,0,0,0,-1,1756,904,0,0
539,120,0,0,0,0,0,0,0,0,0,-1,1763,904,0,0
546,120,0,0,0,0,0,0,0,0,0,-1,1770,904,0,0
553,120,0,0,0,0,0,0,0,0,0,-1,1777,904,0,0
560,120,0,0,0,0,0,0,0,0,0,-1,1784,904,0,0
567,120,0,0,0,0,0,0,0,0,0,-1,1791,904,0,0
574,120,0,0,0,0,0,0,0,0,0,-1,1798,904,0,0
581,120,0,0,0,0,0,0,0,0,0,-1,1805,904,0,0
588,120,0,0,0,0,0,0,0,0,0,-1,1812,904,0,0
595,120,0,0,0,0,0,0,0,0,0,-1,1819,904,0,0
602,120,0,0,0,0,0,0,0,0,0,-1,1826,904,0,0
609,120,0,0,0,0,0,0,0,0,0,-1,1833,904,0,0
616,120,0,0,0,0,0,0,0,0,0,-1,1840,904,0,0
623,120,0,0,0,0,0,0,0,0,0,-1,1847,904,0,0
630,120,71.8799,2.3562,-0.00635162,0.00259088,-0.00231037,0.00315251,-0.00691325,-1.33233,0.00594513,0.0382458,1854,904,71.8798,-2.35621
637,120,71.7573,2.22467,-0.00504771,0.00208819,-0.00159344,0.00242784,-0.00538735,-1.36079,0.00461869,0.040944,1861,904,71.7574,-2.22466
644,120,71.6345,2.39069,-0.00381513,0.00161326,-0.00111849,0.00183469,-0.00403655,-1.37535,0.00346831,0.0404602,1868,904,71.6345,-2.3907
651,120,71.671,2.34344,-0.0026195,0.00102724,-0.000850696,0.00121593,-0.00280818,-1.35253,0.00238317,0.0426713,1875,904,71.671,-2.34347
658,120,71.7104,2.3255,-0.00168323,0.00087034,-0.000494134,0.000962624,-0.00177552,-1.38617,0.00160392,0.0418158,1882,904,71.7104,-2.32548
665,120,71.7548,2.3512,-0.00091736,0.00102451,-0.000129608,0.00103312,-0.000925973,-1.50444,0.00113165,0.0350863,1889,904,71.7547,-2.35117
672,120,71.7484,2.28058,-0.000654061,0.00099033,4.72667e-05,0.000991687,-0.000655418,1.54208,0.00095754,0.034339,1896,904,71.7484,-2.2806
679,120,71.7585,2.22156,-0.000611663,0.000894523,0.000188939,0.000917862,-0.000635002,1.44789,0.000901491,0.0311199,1903,904,71.7586,-2.22155
686,120,71.7288,2.30872,-0.000665486,0.00098779,0.000163677,0.00100384,-0.000681535,1.47306,0.000978964,0.0324943,1910,904,71.7288,-2.30869
693,120,71.7285,2.39099,0,0,0,0,0,0,0,-1,1917,904,71.7285,-2.39097
700,120,42.2007,3.00946,0,0,0,0,0,0,0,-1,1924,904,42.2007,-3.00944
707,120,63.6337,2.98279,0,0,0,0,0,0,0,-1,1931,904,63.6337,-2.98279
714,120,64.6812,3.59009,0,0,0,0,0,0,0,-1,1938,904,64.6811,-3.59008
721,120,64.3241,4.61597,-0.00199969,0.00253909,-0.000920224,0.00271856,-0.00217917,-1.37818,0.00283342,0.0256198,1945,904,64.3241,-4.61596
728,120,64.1899,5.31653,-0.0024657,0.00331872,-0.00131672,0.00360434,-0.00275133,-1.35718,0.00368045,0.0172979,1952,904,64.1899,-5.3165
735,120,64.1261,5.97369,-0.00278379,0.00425265,-0.00177176,0.00467359,-0.00320473,-1.33754,0.00457483,0.0141274,1959,904,64.1261,-5.97367
742,120,64.0502,6.70874,-0.00270845,0.00575175,-0.00224604,0.00631106,-0.00326776,-1.32674,0.0056226,0.0148151,1966,904,64.0502,-6.70873
749,120,64.0023,7.38745,-0.00200267,0.00791162,-0.00254565,0.00852706,-0.00261811,-1.33359,0.00672937,0.011591,1973,904,64.0023,-7.38745
756,120,63.9071,8.08368,-0.000569058,0.0106263,-0.00258226,0.0111932,-0.00113596,-1.35469,0.00786819,0.0152555,1980,904,63.9071,-8.08368
763,120,63.77,8.77197,0.00159599,0.0142552,-0.00210872,0.0145972,0.00125396,-1.41,0.00934159,0.0341947,1987,904,63.7699,-8.77198
770,120,63.6541,9.47955,0,0,0,0,0,0,0,-1,1994,904,63.6541,-9.47957
777,120,59.313,9.57587,0,0,0,0,0,0,0,-1,2001,904,59.3129,-9.57587
784,120,60.7788,13.7254,0,0,0,0,0,0,0,-1,2008,904,60.7789,-13.7254
791,120,62.675,12.8759,0,0,0,0,0,0,0,-1,2015,904,62.6751,-12.8759
798,120,62.2224,11.3201,0,0,0,0,0,0,0,-1,2022,904,62.2225,-11.3201
805,120,0,0,0,0,0,0,0,0,0,-1,2029,904,0,0
812,120,0,0,0,0,0,0,0,0,0,-1,2036,904,0,0
-700,113,0,0,0,0,0,0,0,0,0,-1,524,911,0,0
-693,113,0,0,0,0,0,0,0,0,0,-1,531,911,0,0
-686,113,0,0,0,0,0,0,0,0,0,-1,538,911,0,0
-679,113,-55.5555,5.93994,0,0,0,0,0,0,0,-1,545,911,-55.5555,-5.93996
-672,113,-52.4814,-0.797363,0,0,0,0,0,0,0,-1,552,911,-52.4813,0.797354
-665,113,-54.9309,7.34125,0,0,0,0,0,0,0,-1,559,911,-54.9309,-7.34123
-658,113,-54.1535,7.58624,0,0,0,0,0,0,0,-1,566,911,-54.1535,-7.58627
-651,113,-53.3762,7.8313,0,0,0,0,0,0,0,-1,573,911,-53.3762,-7.8313
-644,113,-48.5211,7.83691,0,0,0,0,0,0,0,-1,580,911,-48.5211,-7.83694
-637,113,-49.5986,7.65765,0,0,0,0,0,0,0,-1,587,911,-49.5986,-7.65768
-630,113,-49.6683,6.97888,0.0204797,0.0237097,0.0138255,0.0360143,0.00817516,0.843541,0.0218015,0.0250551,594,911,-49.6682,-6.97891
-623,113,-49.7864,6.3244,0.00380038,0.0175172,0.00792142,0.0211367,0.00018088,1.1422,0.0140312,0.0134841,601,911,-49.7864,-6.32442
-616,113,-49.8086,5.66254,-0.00399043,0.0106957,0.00448887,0.0119591,-0.00525379,1.29645,0.0101861,0.0126351,608,911,-49.8086,-5.66253
-609,113,-49.8173,5.00604,-0.00585449,0.00441004,0.00355379,0.00552034,-0.00696479,1.26798,0.00722435,0.0135488,615,911,-49.8172,-5.00603
-602,113,-49.8513,4.26508,-0.00641156,0.00145905,0.00333892,0.00268465,-0.00763717,1.219,0.00618373,0.021937,622,911,-49.8512,-4.26511
-595,113,-49.9136,3.72607,-0.00618845,0.000140452,0.00304819,0.00136977,-0.00741777,1.18745,0.00545936,0.0285356,629,911,-49.9136,-3.72607
-588,113,-49.8436,2.98657,0,0,0,0,0,0,0,-1,636,911,-49.8437,-2.98655
-581,113,-49.8561,2.29883,0,0,0,0,0,0,0,-1,643,911,-49.8561,-2.29885
-574,113,-49.8752,1.40491,0,0,0,0,0,0,0,-1,650,911,-49.8752,-1.40493
-567,113,-21.8396,0.437378,0,0,0,0,0,0,0,-1,657,911,-21.8396,-0.437351
-560,113,-55.6731,0.678833,0,0,0,0,0,0,0,-1,664,911,-55.6731,-0.678834
-553,113,-55.6935,0.560303,-0.00426506,-0.00255102,0.000516045,-0.00240765,-0.00440844,1.2998,0.00254882,0.0487909,671,911,-55.6935,-0.560283
-546,113,-55.7796,0.751831,-0.00423136,-0.00252224,8.24891e-05,-0.00251827,-0.00423533,1.52268,0.00245981,0.03625,678,911,-55.7796,-0.751841
-539,113,-55.6223,0.65979,-0.00341231,-0.00196761,-0.000412434,-0.00185816,-0.00352176,-1.3114,0.00203432,0.0366189,685,911,-55.6223,-0.65981
-532,113,-55.7953,0.51593,-0.001051,-0.000880591,-0.000848319,-0.000113206,-0.00181838,-0.835449,0.00117634,0.0398954,692,911,-55.7953,-0.51593
-525,113,-56.1254,0.508606,0.00127409,0.00029497,-0.00137621,0.00224522,-0.000676159,-0.614512,0.00176589,0.0389055,699,911,-56.1253,-0.50859
-518,113,-56.2632,0.631653,0.00395646,0.0012523,-0.0016821,0.00476252,0.000446231,-0.44687,0.00303722,0.0389724,706,911,-56.2632,-0.631673
-511,113,-56.0892,0.671204,0.00746818,0.00205316,-0.00182213,0.00802423,0.00149712,-0.296184,0.00492686,0.0384132,713,911,-56.0892,-0.671192
-504,113,0,0,0,0,0,0,0,0,0,-1,720,911,0,0
-497,113,0,0,0,0,0,0,0,0,0,-1,727,911,0,0
-490,113,0,0,0,0,0,0,0,0,0,-1,734,911,0,0
-483,113,0,0,0,0,0,0,0,0,0,-1,741,911,0,0
-476,113,0,0,0,0,0,0,0,0,0,-1,748,911,0,0
-469,113,0,0,0,0,0,0,0,0,0,-1,755,911,0,0
-462,113,0,0,0,0,0,0,0,0,0,-1,762,911,0,0
-455,113,0,0,0,0,0,0,0,0,0,-1,769,911,0,0
-448,113,0,0,0,0,0,0,0,0,0,-1,776,911,0,0
-441,113,0,0,0,0,0,0,0,0,0,-1,783,911,0,0
-434,113,0,0,0,0,0,0,0,0,0,-1,790,911,0,0
-427,113,0,0,0,0,0,0,0,0,0,-1,797,911,0,0
-420,113,0,0,0,0,0,0,0,0,0,-1,804,911,0,0
-413,113,0,0,0,0,0,0,0,0,0,-1,811,911,0,0
-406,113,0,0,0,0,0,0,0,0,0,-1,818,911,0,0
-399,113,0,0,0,0,0,0,0,0,0,-1,825,911,0,0
-392,113,0,0,0,0,0,0,0,0,0,-1,832,911,0,0
-385,113,0,0,0,0,0,0,0,0,0,-1,839,911,0,0
-378,113,0,0,0,0,0,0,0,0,0,-1,846,911,0,0
-371,113,0,0,0,0,0,0,0,0,0,-1,853,911,0,0
-364,113,0,0,0,0,0,0,0,0,0,-1,860,911,0,0
-357,113,0,0,0,0,0,0,0,0,0,-1,867,911,0,0
-350,113,0,0,0,0,0,0,0,0,0,-1,874,911,0,0
-343,113,0,0,0,0,0,0,0,0,0,-1,881,911,0,0
-336,113,0,0,0,0,0,0,0,0,0,-1,888,911,0,0
-329,113,0,0,0,0,0,0,0,0,0,-1,895,911,0,0
-322,113,0,0,0,0,0,0,0,0,0,-1,902,911,0,0
-315,113,0,0,0,0,0,0,0,0,0,-1,909,911,0,0
-308,113,0,0,0,0,0,0,0,0,0,-1,916,911,0,0
-301,113,0,0,0,0,0,0,0,0,0,-1,923,911,0,0
-294,113,0,0,0,0,0,0,0,0,0,-1,930,911,0,0
-287,113,0,0,0,0,0,0,0,0,0,-1,937,911,0,0
-280,113,0,0,0,0,0,0,0,0,0,-1,944,911,0,0
-273,113,0,0,0,0,0,0,0,0,0,-1,951,911,0,0
-266,113,0,0,0,0,0,0,0,0,0,-1,958,911,0,0
-259,113,0,0,0,0,0,0,0,0,0,-1,965,911,0,0
-252,113,0,0,0,0,0,0,0,0,0,-1,972,911,0,0
-245,113,0,0,0,0,0,0,0,0,0,-1,979,911,0,0
-238,113,0,0,0,0,0,0,0,0,0,-1,986,911,0,0
-231,113,0,0,0,0,0,0,0,0,0,-1,993,911,0,0
-224,113,0,0,0,0,0,0,0,0,0,-1,1000,911,0,0
-217,113,0,0,0,0,0,0,0,0,0,-1,1007,911,0,0
-210,113,0,0,0,0,0,0,0,0,0,-1,1014,911,0,0
-203,113,0,0,0,0,0,0,0,0,0,-1,1021,911,0,0
-196,113,0,0,0,0,0,0,0,0,0,-1,1028,911,0,0
-189,113,0,0,0,0,0,0,0,0,0,-1,1035,911,0,0
-182,113,0,0,0,0,0,0,0,0,0,-1,1042,911,0,0
-175,113,0,0,0,0,0,0,0,0,0,-1,1049,911,0,0
-168,113,0,0,0,0,0,0,0,0,0,-1,1056,911,0,0
-161,113,0,0,0,0,0,0,0,0,0,-1,1063,911,0,0
-154,113,0,0,0,0,0,0,0,0,0,-1,1070,911,0,0
-147,113,0,0,0,0,0,0,0,0,0,-1,1077,911,0,0
-140,113,0,0,0,0,0,0,0,0,0,-1,1084,911,0,0
-133,113,0,0,0,0,0,0,0,0,0,-1,1091,911,0,0
-126,113,0,0,0,0,0,0,0,0,0,-1,1098,911,0,0
-119,113,0,0,0,0,0,0,0,0,0,-1,1105,911,0,0
-112,113,0,0,0,0,0,0,0,0,0,-1,1112,911,0,0
-105,113,0,0,0,0,0,0,0,0,0,-1,1119,911,0,0
-98,113,0,0,0,0,0,0,0,0,0,-1,1126,911,0,0
-91,113,0,0,0,0,0,0,0,0,0,-1,1133,911,0,0
-84,113,0,0,0,0,0,0,0,0,0,-1,1140,911,0,0
-77,113,0,0,0,0,0,0,0,0,0,-1,1147,911,0,0
-70,113,0,0,0,0,0,0,0,0,0,-1,1154,911,0,0
-63,113,0,0,0,0,0,0,0,0,0,-1,1161,911,0,0
-56,113,0,0,0,0,0,0,0,0,0,-1,1168,911,0,0
-49,113,0,0,0,0,0,0,0,0,0,-1,1175,911,0,0
-42,113,0,0,0,0,0,0,0,0,0,-1,1182,911,0,0
-35,113,0,0,0,0,0,0,0,0,0,-1,1189,911,0,0
-28,113,0,0,0,0,0,0,0,0,0,-1,1196,911,0,0
-21,113,0,0,0,0,0,0,0,0,0,-1,1203,911,0,0
-14,113,0,0,0,0,0,0,0,0,0,-1,1210,911,0,0
-7,113,0,0,0,0,0,0,0,0,0,-1,1217,911,0,0
0,113,0,0,0,0,0,0,0,0,0,-1,1224,911,0,0
7,113,0,0,0,0,0,0,0,0,0,-1,1231,911,0,0
14,113,0,0,0,0,0,0,0,0,0,-1,1238,911,0,0
21,113,0,0,0,0,0,0,0,0,0,-1,1245,911,0,0
28,113,0,0,0,0,0,0,0,0,0,-1,1252,911,0,0
35,113,0,0,0,0,0,0,0,0,0,-1,1259,911,0,0
42,113,0,0,0,0,0,0,0,0,0,-1,1266,911,0,0
49,113,0,0,0,0,0,0,0,0,0,-1,1273,911,0,0
56,113,0,0,0,0,0,0,0,0,0,-1,1280,911,0,0
63,113,0,0,0,0,0,0,0,0,0,-1,1287,911,0,0
70,113,0,0,0,0,0,0,0,0,0,-1,1294,911,0,0
77,113,0,0,0,0,0,0,0,0,0,-1,1301,911,0,0
84,113,0,0,0,0,0,0,0,0,0,-1,1308,911,0,0
91,113,0,0,0,0,0,0,0,0,0,-1,1315,911,0,0
98,113,0,0,0,0,0,0,0,0,0,-1,1322,911,0,0
105,113,0,0,0,0,0,0,0,0,0,-1,1329,911,0,0
112,113,0,0,0,0,0,0,0,0,0,-1,1336,911,0,0
119,113,0,0,0,0,0,0,0,0,0,-1,1343,911,0,0
126,113,0,0,0,0,0,0,0,0,0,-1,1350,911,0,0
133,113,0,0,0,0,0,0,0,0,0,-1,1357,911,0,0
140,113,0,0,0,0,0,0,0,0,0,-1,1364,911,0,0
147,113,0,0,0,0,0,0,0,0,0,-1,1371,911,0,0
154,113,0,0,0,0,0,0,0,0,0,-1,1378,911,0,0
161,113,0,0,0,0,0,0,0,0,0,-1,1385,911,0,0
168,113,0,0,0,0,0,0,0,0,0,-1,1392,911,0,0
175,113,0,0,0,0,0,0,0,0,0,-1,1399,911,0,0
182,113,0,0,0,0,0,0,0,0,0,-1,1406,911,0,0
189,113,0,0,0,0,0,0,0,0,0,-1,1413,911,0,0
196,113,0,0,0,0,0,0,0,0,0,-1,1420,911,0,0
203,113,0,0,0,0,0,0,0,0,0,-1,1427,911,0,0
210,113,0,0,0,0,0,0,0,0,0,-1,1434,911,0,0
217,113,0,0,0,0,0,0,0,0,0,-1,1441,911,0,0
224,113,0,0,0,0,0,0,0,0,0,-1,1448,911,0,0
231,113,0,0,0,0,0,0,0,0,0,-1,1455,911,0,0
238,113,0,0,0,0,0,0,0,0,0,-1,1462,911,0,0
245,113,0,0,0,0,0,0,0,0,0,-1,1469,911,0,0
252,113,0,0,0,0,0,0,0,0,0,-1,1476,911,0,0
259,113,0,0,0,0,0,0,0,0,0,-1,1483,911,0,0
266,113,0,0,0,0,0,0,0,0,0,-1,1490,911,0,0
273,113,0,0,0,0,0,0,0,0,0,-1,1497,911,0,0
280,113,0,0,0,0,0,0,0,0,0,-1,1504,911,0,0
287,113,0,0,0,0,0,0,0,0,0,-1,1511,911,0,0
294,113,0,0,0,0,0,0,0,0,0,-1,1518,911,0,0
301,113,0,0,0,0,0,0,0,0,0,-1,1525,911,0,0
308,113,0,0,0,0,0,0,0,0,0,-1,1532,911,0,0
315,113,0,0,0,0,0,0,0,0,0,-1,1539,911,0,0
322,113,0,0,0,0,0,0,0,0,0,-1,1546,911,0,0
329,113,0,0,0,0,0,0,0,0,0,-1,1553,911,0,0
336,113,0,0,0,0,0,0,0,0,0,-1,1560,911,0,0
343,113,0,0,0,0,0,0,0,0,0,-1,1567,911,0,0
350,113,0,0,0,0,0,0,0,0,0,-1,1574,911,0,0
357,113,0,0,0,0,0,0,0,0,0,-1,1581,911,0,0
364,113,0,0,0,0,0,0,0,0,0,-1,1588,911,0,0
371,113,0,0,0,0,0,0,0,0,0,-1,1595,911,0,0
378,113,0,0,0,0,0,0,0,0,0,-1,1602,911,0,0
385,113,0,0,0,0,0,0,0,0,0,-1,1609,911,0,0
392,113,0,0,0,0,0,0,0,0,0,-1,1616,911,0,0
399,113,0,0,0,0,0,0,0,0,0,-1,1623,911,0,0
406,113,0,0,0,0,0,0,0,0,0,-1,1630,911,0,0
413,113,0,0,0,0,0,0,0,0,0,-1,1637,911,0,0
420,113,0,0,0,0,0,0,0,0,0,-1,1644,911,0,0
427,113,0,0,0,0,0,0,0,0,0,-1,1651,911,0,0
434,113,0,0,0,0,0,0,0,0,0,-1,1658,911,0,0
441,113,0,0,0,0,0,0,0,0,0,-1,1665,911,0,0
448,113,0,0,0,0,0,0,0,0,0,-1,1672,911,0,0
455,113,0,0,0,0,0,0,0,0,0,-1,1679,911,0,0
462,113,0,0,0,0,0,0,0,0,0,-1,1686,911,0,0
469,113,0,0,0,0,0,0,0,0,0,-1,1693,911,0,0
476,113,0,0,0,0,0,0,0,0,0,-1,1700,911,0,0
483,113,0,0,0,0,0,0,0,0,0,-1,1707,911,0,0
490,113,0,0,0,0,0,0,0,0,0,-1,1714,911,0,0
497,113,0,0,0,0,0,0,0,0,0,-1,1721,911,0,0
504,113,0,0,0,0,0,0,0,0,0,-1,1728,911,0,0
511,113,0,0,0,0,0,0,0,0,0,-1,1735,911,0,0
518,113,0,0,0,0,0,0,0,0,0,-1,1742,911,0,0
525,113,0,0,0,0,0,0,0,0,0,-1,1749,911,0,0
532,113,0,0,0,0,0,0,0,0,0,-1,1756,911,0,0
539,113,0,0,0,0,0,0,0,0,0,-1,1763,911,0,0
546,113,0,0,0,0,0,0,0,0,0,-1,1770,911,0,0
553,113,0,0,0,0,0,0,0,0,0,-1,1777,911,0,0
560,113,0,0,0,0,0,0,0,0,0,-1,1784,911,0,0
567,113,0,0,0,0,0,0,0,0,0,-1,1791,911,0,0
574,113,0,0,0,0,0,0,0,0,0,-1,1798,911,0,0
581,113,0,0,0,0,0,0,0,0,0,-1,1805,911,0,0
588,113,0,0,0,0,0,0,0,0,0,-1,1812,911,0,0
595,113,0,0,0,0,0,0,0,0,0,-1,1819,911,0,0
602,113,0,0,0,0,0,0,0,0,0,-1,1826,911,0,0
609,113,0,0,0,0,0,0,0,0,0,-1,1833,911,0,0
616,113,0,0,0,0,0,0,0,0,0,-1,1840,911,0,0
623,113,0,0,0,0,0,0,0,0,0,-1,1847,911,0,0
630,113,72.017,2.20551,-0.00643856,0.0022044,-0.00175266,0.00254628,-0.00678045,-1.37815,0.00556669,0.0400467,1854,911,72.017,-2.20549
637,113,72.115,2.1228,-0.00519639,0.00186306,-0.00111602,0.00203529,-0.00536861,-1.41768,0.00441669,0.0395646,1861,911,72.115,-2.12279
644,113,71.9562,2.2334,-0.0040457,0.00152055,-0.000736507,0.00161636,-0.0041415,-1.44144,0.00342921,0.0384807,1868,911,71.9562,-2.23337
651,113,71.8398,2.31616,-0.00291587,0.00102197,-0.000552269,0.00109796,-0.00299186,-1.43406,0.00244419,0.0416865,1875,911,71.8398,-2.31618
658,113,71.8131,2.29572,-0.00192667,0.000777638,-0.00032485,0.000816113,-0.00196514,-1.45291,0.0016508,0.0420916,1882,911,71.8131,-2.29571
665,113,71.851,2.37848,-0.00105893,0.000838283,-5.63907e-05,0.000839958,-0.0010606,-1.54111,0.00109975,0.0368242,1889,911,71.851,-2.37847
672,113,71.7719,2.35205,-0.000812372,0.000725247,0.000107431,0.000732717,-0.000819842,1.50138,0.00089684,0.0347298,1896,911,71.7718,-2.35205
679,113,71.7174,2.23889,-0.00079191,0.000550765,0.000229211,0.000588816,-0.000829961,1.40629,0.000823065,0.0307543,1903,911,71.7174,-2.23892
686,113,71.7268,2.31628,-0.000839099,0.000587029,0.00016718,0.000606365,-0.000858435,1.45565,0.000849866,0.0298265,1910,911,71.7268,-2.31631
693,113,71.8568,2.11816,0,0,0,0,0,0,0,-1,1917,911,71.8569,-2.11818
700,113,43.897,2.79669,0,0,0,0,0,0,0,-1,1924,911,43.897,-2.79671
707,113,64.8745,3.20245,0,0,0,0,0,0,0,-1,1931,911,64.8745,-3.20243
714,113,64.9216,3.8999,0,0,0,0,0,0,0,-1,1938,911,64.9216,-3.89992
721,113,64.9237,4.58234,-0.00236346,0.00212516,-0.0011314,0.00239421,-0.00263251,-1.33733,0.00290326,0.0277172,1945,911,64.9237,-4.58233
728,113,65.0093,5.32349,-0.0028341,0.0029916,-0.00152688,0.00336753,-0.00321002,-1.32939,0.00379791,0.0278071,1952,911,65.0092,-5.32347
735,113,64.8737,6.0152,-0.00313746,0.00408601,-0.00196164,0.00458434,-0.0036358,-1.32202,0.00475642,0.0231115,1959,911,64.8736,-6.01521
742,113,64.782,6.6817,-0.0029758,0.00585027,-0.00244151,0.00648063,-0.00360616,-1.31813,0.0059019,0.0135582,1966,911,64.782,-6.68172
749,113,64.7758,7.37494,-0.00203082,0.00847284,-0.00281451,0.00917947,-0.00273745,-1.32482,0.00720754,0.0107484,1973,911,64.7758,-7.37496
756,113,64.6808,8.0921,-0.000198388,0.0117521,-0.00293375,0.0124335,-0.000879752,-1.34259,0.00859726,0.0164118,1980,911,64.6807,-8.09213
763,113,64.4924,8.9541,0.00242809,0.015755,-0.00264295,0.0162601,0.00192309,-1.382,0.0102593,0.0391687,1987,911,64.4925,-8.95409
770,113,64.356,9.82452,0,0,0,0,0,0,0,-1,1994,911,64.3559,-9.82451
777,113,58.1719,9.65338,0,0,0,0,0,0,0,-1,2001,911,58.172,-9.6534
784,113,59.4839,11.6239,0,0,0,0,0,0,0,-1,2008,911,59.4839,-11.6239
791,113,63.7207,8.32813,0,0,0,0,0,0,0,-1,2015,911,63.7207,-8.32813
798,113,63.0522,12.1951,0,0,0,0,0,0,0,-1,2022,911,63.0522,-12.1951
805,113,0,0,0,0,0,0,0,0,0,-1,2029,911,0,0
812,113,0,0,0,0,0,0,0,0,0,-1,2036,911,0,0
-700,106,0,0,0,0,0,0,0,0,0,-1,524,918,0,0
-693,106,0,0,0,0,0,0,0,0,0,-1,531,918,0,0
-686,106,0,0,0,0,0,0,0,0,0,-1,538,918,0,0
-679,106,-55.7226,6.12555,0,0,0,0,0,0,0,-1,545,918,-55.7226,-6.12558
-672,106,-55.5291,7.13861,0,0,0,0,0,0,0,-1,552,918,-55.5291,-7.13863
-665,106,-54.6245,7.52954,0,0,0,0,0,0,0,-1,559,918,-54.6245,-7.52954
-658,106,-51.1802,9.13837,0,0,0,0,0,0,0,-1,566,918,-51.1802,-9.13837
-651,106,-52.8008,8.01733,0,0,0,0,0,0,0,-1,573,918,-52.8008,-8.01734
-644,106,-49.4678,8.48206,0,0,0,0,0,0,0,-1,580,918,-49.4678,-8.48208
-637,106,-49.8898,7.71759,0.0443548,0.0365519,0.0204761,0.0612978,0.0196089,0.691257,0.0361475,0.0402898,587,918,-49.8898,-7.71759
-630,106,-50.3331,7.06781,0.0226778,0.0304286,0.0142577,0.0413282,0.0117782,0.918098,0.0245852,0.0194403,594,918,-50.3331,-7.06779
-623,106,-50.5441,6.27563,0.0055436,0.0218605,0.00864247,0.025587,0.00181707,1.1637,0.0164857,0.0200373,601,918,-50.5441,-6.27564
-616,106,-50.6031,5.59338,-0.00279954,0.0126759,0.00510247,0.0142069,-0.00433045,1.27931,0.0111974,0.0197316,608,918,-50.6031,-5.5934
-609,106,-50.5854,4.98505,-0.00484993,0.00440844,0.00394442,0.00586102,-0.0063025,1.21795,0.00702415,0.0139939,615,918,-50.5854,-4.98502
-602,106,-50.5961,4.29626,-0.00538712,0.00145016,0.00362856,0.00301685,-0.00695381,1.16321,0.00590426,0.0225788,622,918,-50.596,-4.29628
-595,106,-50.7713,3.65826,-0.0052881,9.7678e-05,0.00333594,0.001692,-0.00688242,1.12497,0.00524407,0.0265854,629,918,-50.7713,-3.65825
-588,106,-50.9144,2.99664,0,0,0,0,0,0,0,-1,636,918,-50.9144,-2.99664
-581,106,-50.6195,2.21558,0,0,0,0,0,0,0,-1,643,918,-50.6195,-2.21559
-574,106,-50.8803,1.5144,0,0,0,0,0,0,0,-1,650,918,-50.8803,-1.51439
-567,106,-41.3706,0.420776,0,0,0,0,0,0,0,-1,657,918,-41.3706,-0.420794
-560,106,-55.7254,0.481262,0,0,0,0,0,0,0,-1,664,918,-55.7254,-0.481292
-553,106,-55.7747,0.616455,-0.00343611,-0.00236223,0.000386266,-0.00223772,-0.00356061,1.25899,0.00207822,0.0351495,671,918,-55.7747,-0.616471
-546,106,-55.7039,0.628967,-0.0032996,-0.00209229,-0.000140275,-0.0020762,-0.00331568,-1.45663,0.00193452,0.0382963,678,918,-55.7039,-0.628958
-539,106,-55.6389,0.53479,-0.00233197,-0.00125222,-0.000810351,-0.000818374,-0.00276582,-1.07925,0.0016406,0.0418985,685,918,-55.6389,-0.534795
-532,106,-55.9363,0.410278,6.3197e-05,0.000148085,-0.00160399,0.00171019,-0.00149891,-0.798626,0.00185412,0.0406193,692,918,-55.9363,-0.410252
-525,106,-56.3052,0.359558,0.00258252,0.00151902,-0.00246951,0.00457688,-0.00047534,-0.679354,0.00322141,0.0387524,699,918,-56.3053,-0.359567
-518,106,-56.1088,0.571777,0.0055737,0.00280115,-0.00317746,0.00765412,0.000720717,-0.579704,0.00488028,0.0386114,706,918,-56.1087,-0.571755
-511,106,0,0,0,0,0,0,0,0,0,-1,713,918,0,0
-504,106,0,0,0,0,0,0,0,0,0,-1,720,918,0,0
-497,106,0,0,0,0,0,0,0,0,0,-1,727,918,0,0
-490,106,0,0,0,0,0,0,0,0,0,-1,734,918,0,0
-483,106,0,0,0,0,0,0,0,0,0,-1,741,918,0,0
-476,106,0,0,0,0,0,0,0,0,0,-1,748,918,0,0
-469,106,0,0,0,0,0,0,0,0,0,-1,755,918,0,0
-462,106,0,0,0,0,0,0,0,0,0,-1,762,918,0,0
-455,106,0,0,0,0,0,0,0,0,0,-1,769,918,0,0
-448,106,0,0,0,0,0,0,0,0,0,-1,776,918,0,0
-441,106,0,0,0,0,0,0,0,0,0,-1,783,918,0,0
-434,106,0,0,0,0,0,0,0,0,0,-1,790,918,0,0
-427,106,0,0,0,0,0,0,0,0,0,-1,797,918,0,0
-420,106,0,0,0,0,0,0,0,0,0,-1,804,918,0,0
-413,106,0,0,0,0,0,0,0,0,0,-1,811,918,0,0
-406,106,0,0,0,0,0,0,0,0,0,-1,818,918,0,0
-399,106,0,0,0,0,0,0,0,0,0,-1,825,918,0,0
-392,106,0,0,0,0,0,0,0,0,0,-1,832,918,0,0
-385,106,0,0,0,0,0,0,0,0,0,-1,839,918,0,0
-378,106,0,0,0,0,0,0,0,0,0,-1,846,918,0,0
-371,106,0,0,0,0,0,0,0,0,0,-1,853,918,0,0
-364,106,0,0,0,0,0,0,0,0,0,-1,860,918,0,0
-357,106,0,0,0,0,0,0,0,0,0,-1,867,918,0,0
-350,106,0,0,0,0,0,0,0,0,0,-1,874,918,0,0
-343,106,0,0,0,0,0,0,0,0,0,-1,881,918,0,0
-336,106,0,0,0,0,0,0,0,0,0,-1,888,918,0,0
-329,106,0,0,0,0,0,0,0,0,0,-1,895,918,0,0
-322,106,0,0,0,0,0,0,0,0,0,-1,902,918,0,0
-315,106,0,0,0,0,0,0,0,0,0,-1,909,918,0,0
-308,106,0,0,0,0,0,0,0,0,0,-1,916,918,0,0
-301,106,0,0,0,0,0,0,0,0,0,-1,923,918,0,0
-294,106,0,0,0,0,0,0,0,0,0,-1,930,918,0,0
-287,106,0,0,0,0,0,0,0,0,0,-1,937,918,0,0
-280,106,0,0,0,0,0,0,0,0,0,-1,944,918,0,0
-273,106,0,0,0,0,0,0,0,0,0,-1,951,918,0,0
-266,106,0,0,0,0,0,0,0,0,0,-1,958,918,0,0
-259,106,0,0,0,0,0,0,0,0,0,-1,965,918,0,0
-252,106,0,0,0,0,0,0,0,0,0,-1,972,918,0,0
-245,106,0,0,0,0,0,0,0,0,0,-1,979,918,0,0
-238,106,0,0,0,0,0,0,0,0,0,-1,986,918,0,0
-231,106,0,0,0,0,0,0,0,0,0,-1,993,918,0,0
-224,106,0,0,0,0,0,0,0,0,0,-1,1000,918,0,0
-217,106,0,0,0,0,0,0,0,0,0,-1,1007,918,0,0
-210,106,0,0,0,0,0,0,0,0,0,-1,1014,918,0,0
-203,106,0,0,0,0,0,0,0,0,0,-1,1021,918,0,0
-196,106,0,0,0,0,0,0,0,0,0,-1,1028,918,0,0
-189,106,0,0,0,0,0,0,0,0,0,-1,1035,918,0,0
-182,106,0,0,0,0,0,0,0,0,0,-1,1042,918,0,0
-175,106,0,0,0,0,0,0,0,0,0,-1,1049,918,0,0
-168,106,0,0,0,0,0,0,0,0,0,-1,1056,918,0,0
-161,106,0,0,0,0,0,0,0,0,0,-1,1063,918,0,0
-154,106,0,0,0,0,0,0,0,0,0,-1,1070,918,0,0
-147,106,0,0,0,0,0,0,0,0,0,-1,1077,918,0,0
-140,106,0,0,0,0,0,0,0,0,0,-1,1084,918,0,0
-133,106,0,0,0,0,0,0,0,0,0,-1,1091,918,0,0
-126,106,0,0,0,0,0,0,0,0,0,-1,1098,918,0,0
-119,106,0,0,0,0,0,0,0,0,0,-1,1105,918,0,0
-112,106,0,0,0,0,0,0,0,0,0,-1,1112,918,0,0
-105,106,0,0,0,0,0,0,0,0,0,-1,1119,918,0,0
-98,106,0,0,0,0,0,0,0,0,0,-1,1126,918,0,0
-91,106,0,0,0,0,0,0,0,0,0,-1,1133,918,0,0
-84,106,0,0,0,0,0,0,0,0,0,-1,1140,918,0,0
-77,106,0,0,0,0,0,0,0,0,0,-1,1147,918,0,0
-70,106,0,0,0,0,0,0,0,0,0,-1,1154,918,0,0
-63,106,0,0,0,0,0,0,0,0,0,-1,1161,918,0,0
-56,106,0,0,0,0,0,0,0,0,0,-1,1168,918,0,0
-49,106,0,0,0,0,0,0,0,0,0,-1,1175,918,0,0
-42,106,0,0,0,0,0,0,0,0,0,-1,1182,918,0,0
-35,106,0,0,0,0,0,0,0,0,0,-1,1189,918,0,0
-28,106,0,0,0,0,0,0,0,0,0,-1,1196,918,0,0
-21,106,0,0,0,0,0,0,0,0,0,-1,1203,918,0,0
-14,106,0,0,0,0,0,0,0,0,0,-1,1210,918,0,0
-7,106,0,0,0,0,0,0,0,0,0,-1,1217,918,0,0
0,106,0,0,0,0,0,0,0,0,0,-1,1224,918,0,0
7,106,0,0,0,0,0,0,0,0,0,-1,1231,918,0,0
14,106,0,0,0,0,0,0,0,0,0,-1,1238,918,0,0
21,106,0,0,0,0,0,0,0,0,0,-1,1245,918,0,0
28,106,0,0,0,0,0,0,0,0,0,-1,1252,918,0,0
35,106,0,0,0,0,0,0,0,0,0,-1,1259,918,0,0
42,106,0,0,0,0,0,0,0,0,0,-1,1266,918,0,0
49,106,0,0,0,0,0,0,0,0,0,-1,1273,918,0,0
56,106,0,0,0,0,0,0,0,0,0,-1,1280,918,0,0
63,106,0,0,0,0,0,0,0,0,0,-1,1287,918,0,0
70,106,0,0,0,0,0,0,0,0,0,-1,1294,918,0,0
77,106,0,0,0,0,0,0,0,0,0,-1,1301,918,0,0
84,106,0,0,0,0,0,0,0,0,0,-1,1308,918,0,0
91,106,0,0,0,0,0,0,0,0,0,-1,1315,918,0,0
98,106,0,0,0,0,0,0,0,0,0,-1,1322,918,0,0
105,106,0,0,0,0,0,0,0,0,0,-1,1329,918,0,0
112,106,0,0,0,0,0,0,0,0,0,-1,1336,918,0,0
119,106,0,0,0,0,0,0,0,0,0,-1,1343,918,0,0
126,106,0,0,0,0,0,0,0,0,0,-1,1350,918,0,0
133,106,0,0,0,0,0,0,0,0,0,-1,1357,918,0,0
140,106,0,0,0,0,0,0,0,0,0,-1,1364,918,0,0
147,106,0,0,0,0,0,0,0,0,0,-1,1371,918,0,0
154,106,0,0,0,0,0,0,0,0,0,-1,1378,918,0,0
161,106,0,0,0,0,0,0,0,0,0,-1,1385,918,0,0
168,106,0,0,0,0,0,0,0,0,0,-1,1392,918,0,0
175,106,0,0,0,0,0,0,0,0,0,-1,1399,918,0,0
182,106,0,0,0,0,0,0,0,0,0,-1,1406,918,0,0
189,106,0,0,0,0,0,0,0,0,0,-1,1413,918,0,0
196,106,0,0,0,0,0,0,0,0,0,-1,1420,918,0,0
203,106,0,0,0,0,0,0,0,0,0,-1,1427,918,0,0
210,106,0,0,0,0,0,0,0,0,0,-1,1434,918,0,0
217,106,0,0,0,0,0,0,0,0,0,-1,1441,918,0,0
224,106,0,0,0,0,0,0,0,0,0,-1,1448,918,0,0
231,106,0,0,0,0,0,0,0,0,0,-1,1455,918,0,0
238,106,0,0,0,0,0,0,0,0,0,-1,1462,918,0,0
245,106,0,0,0,0,0,0,0,0,0,-1,1469,918,0,0
252,106,0,0,0,0,0,0,0,0,0,-1,1476,918,0,0
259,106,0,0,0,0,0,0,0,0,0,-1,1483,918,0,0
266,106,0,0,0,0,0,0,0,0,0,-1,1490,918,0,0
273,106,0,0,0,0,0,0,0,0,0,-1,1497,918,0,0
280,106,0,0,0,0,0,0,0,0,0,-1,1504,918,0,0
287,106,0,0,0,0,0,0,0,0,0,-1,1511,918,0,0
294,106,0,0,0,0,0,0,0,0,0,-1,1518,918,0,0
301,106,0,0,0,0,0,0,0,0,0,-1,1525,918,0,0
308,106,0,0,0,0,0,0,0,0,0,-1,1532,918,0,0
315,106,0,0,0,0,0,0,0,0,0,-1,1539,918,0,0
322,106,0,0,0,0,0,0,0,0,0,-1,1546,918,0,0
329,106,0,0,0,0,0,0,0,0,0,-1,1553,918,0,0
336,106,0,0,0,0,0,0,0,0,0,-1,1560,918,0,0
343,106,0,0,0,0,0,0,0,0,0,-1,1567,918,0,0
350,106,0,0,0,0,0,0,0,0,0,-1,1574,918,0,0
357,106,0,0,0,0,0,0,0,0,0,-1,1581,918,0,0
364,106,0,0,0,0,0,0,0,0,0,-1,1588,918,0,0
371,106,0,0,0,0,0,0,0,0,0,-1,1595,918,0,0
378,106,0,0,0,0,0,0,0,0,0,-1,1602,918,0,0
385,106,0,0,0,0,0,0,0,0,0,-1,1609,918,0,0
392,106,0,0,0,0,0,0,0,0,0,-1,1616,918,0,0
399,106,0,0,0,0,0,0,0,0,0,-1,1623,918,0,0
406,106,0,0,0,0,0,0,0,0,0,-1,1630,918,0,0
413,106,0,0,0,0,0,0,0,0,0,-1,1637,918,0,0
420,106,0,0,0,0,0,0,0,0,0,-1,1644,918,0,0
427,106,0,0,0,0,0,0,0,0,0,-1,1651,918,0,0
434,106,0,0,0,0,0,0,0,0,0,-1,1658,918,0,0
441,106,0,0,0,0,0,0,0,0,0,-1,1665,918,0,0
448,106,0,0,0,0,0,0,0,0,0,-1,1672,918,0,0
455,106,0,0,0,0,0,0,0,0,0,-1,1679,918,0,0
462,106,0,0,0,0,0,0,0,0,0,-1,1686,918,0,0
469,106,0,0,0,0,0,0,0,0,0,-1,1693,918,0,0
476,106,0,0,0,0,0,0,0,0,0,-1,1700,918,0,0
483,106,0,0,0,0,0,0,0,0,0,-1,1707,918,0,0
490,106,0,0,0,0,0,0,0,0,0,-1,1714,918,0,0
497,106,0,0,0,0,0,0,0,0,0,-1,1721,918,0,0
504,106,0,0,0,0,0,0,0,0,0,-1,1728,918,0,0
511,106,0,0,0,0,0,0,0,0,0,-1,1735,918,0,0
518,106,0,0,0,0,0,0,0,0,0,-1,1742,918,0,0
525,106,0,0,0,0,0,0,0,0,0,-1,1749,918,0,0
532,106,0,0,0,0,0,0,0,0,0,-1,1756,918,0,0
539,106,0,0,0,0,0,0,0,0,0,-1,1763,918,0,0
546,106,0,0,0,0,0,0,0,0,0,-1,1770,918,0,0
553,106,0,0,0,0,0,0,0,0,0,-1,1777,918,0,0
560,106,0,0,0,0,0,0,0,0,0,-1,1784,918,0,0
567,106,0,0,0,0,0,0,0,0,0,-1,1791,918,0,0
574,106,0,0,0,0,0,0,0,0,0,-1,1798,918,0,0
581,106,0,0,0,0,0,0,0,0,0,-1,1805,918,0,0
588,106,0,0,0,0,0,0,0,0,0,-1,1812,918,0,0
595,106,0,0,0,0,0,0,0,0,0,-1,1819,918,0,0
602,106,0,0,0,0,0,0,0,0,0,-1,1826,918,0,0
609,106,0,0,0,0,0,0,0,0,0,-1,1833,918,0,0
616,106,0,0,0,0,0,0,0,0,0,-1,1840,918,0,0
623,106,0,0,0,0,0,0,0,0,0,-1,1847,918,0,0
630,106,71.9573,2.30933,-0.00631632,0.00205537,-0.000987838,0.00217035,-0.0064313,-1.45492,0.00516528,0.0408953,1854,918,71.9572,-2.30935
637,106,72.0079,2.47601,-0.00509676,0.00187161,-0.000496111,0.00190675,-0.0051319,-1.50008,0.00420356,0.0401556,1861,918,72.0079,-2.47599
644,106,71.8479,2.49677,-0.0040155,0.00164859,-0.000266539,0.00166111,-0.00402802,-1.52388,0.00337804,0.039291,1868,918,71.8478,-2.49674
651,106,71.9832,2.12756,-0.00297463,0.00122717,-0.000191412,0.00123587,-0.00298333,-1.52537,0.00250463,0.0427118,1875,918,71.9831,-2.12755
658,106,71.9255,2.21906,-0.00201514,0.000908673,-0.000102941,0.000912293,-0.00201876,-1.53565,0.00173197,0.0419563,1882,918,71.9256,-2.21907
665,106,71.7679,2.30975,-0.00111877,0.000852032,5.30288e-05,0.000853458,-0.00112019,1.54392,0.00114295,0.0398857,1889,918,71.7679,-2.30974
672,106,71.6625,2.40387,-0.000890013,0.00062905,0.000188036,0.00065198,-0.000912943,1.44945,0.000907687,0.0387853,1896,918,71.6625,-2.40385
679,106,71.6849,2.41772,-0.000912786,0.00033009,0.000284235,0.000392008,-0.000974703,1.35631,0.000812625,0.0340029,1903,918,71.6849,-2.41771
686,106,71.7327,2.36023,-0.000974453,0.00026082,0.000176935,0.000285664,-0.000999297,1.4313,0.000779077,0.0338004,1910,918,71.7327,-2.36022
693,106,71.7961,2.17053,-0.00107786,0.000468477,-0.000138431,0.000480772,-0.00109015,-1.48221,0.000929443,0.0408827,1917,918,71.7962,-2.17053
700,106,71.9861,1.9353,0,0,0,0,0,0,0,-1,1924,918,71.9861,-1.93528
707,106,59.4137,3.22595,0,0,0,0,0,0,0,-1,1931,918,59.4136,-3.22598
714,106,65.4348,3.80927,0,0,0,0,0,0,0,-1,1938,918,65.4349,-3.80929
721,106,65.7808,4.68762,-0.00265074,0.00184394,-0.00129683,0.00219127,-0.00299807,-1.30911,0.00300811,0.0351506,1945,918,65.7807,-4.68761
728,106,65.8032,5.41327,-0.00308977,0.00277992,-0.00169451,0.00323398,-0.00354383,-1.30899,0.00391453,0.0337087,1952,918,65.8032,-5.41328
735,106,65.673,6.06213,-0.00334908,0.00398008,-0.00210974,0.00454399,-0.00391299,-1.30961,0.00488717,0.0289219,1959,918,65.6729,-6.06211
742,106,65.5532,6.68243,-0.00307299,0.00591683,-0.00261047,0.00661988,-0.00377603,-1.30772,0.00607648,0.0142362,1966,918,65.5532,-6.68244
749,106,65.5116,7.35657,-0.00187731,0.00885082,-0.00307856,0.00967148,-0.00269796,-1.31028,0.00751028,0.0112071,1973,918,65.5116,-7.35654
756,106,65.4326,8.02026,0.000427628,0.012514,-0.00332222,0.013367,-0.000425363,-1.31947,0.00905643,0.0141784,1980,918,65.4326,-8.02027
763,106,65.3318,8.85175,0.00364132,0.016669,-0.00327089,0.0174441,0.0028662,-1.33811,0.0108015,0.0315764,1987,918,65.3317,-8.85173
770,106,65.2722,9.71332,0,0,0,0,0,0,0,-1,1994,918,65.2721,-9.71333
777,106,66.2061,10.3376,0,0,0,0,0,0,0,-1,2001,918,66.206,-10.3376
784,106,66.3496,10.1647,0,0,0,0,0,0,0,-1,2008,918,66.3496,-10.1647
791,106,63.3948,10.3615,0,0,0,0,0,0,0,-1,2015,918,63.3947,-10.3615
798,106,63.9021,11.3224,0,0,0,0,0,0,0,-1,2022,918,63.9021,-11.3225
805,106,0,0,0,0,0,0,0,0,0,-1,2029,918,0,0
812,106,0,0,0,0,0,0,0,0,0,-1,2036,918,0,0
-700,99,0,0,0,0,0,0,0,0,0,-1,524,925,0,0
-693,99,0,0,0,0,0,0,0,0,0,-1,531,925,0,0
-686,99,0,0,0,0,0,0,0,0,0,-1,538,925,0,0
-679,99,-54.9629,6.44177,0,0,0,0,0,0,0,-1,545,925,-54.9629,-6.44177
-672,99,-52.0348,10.9243,0,0,0,0,0,0,0,-1,552,925,-52.0348,-10.9243
-665,99,-51.8607,10.0289,0,0,0,0,0,0,0,-1,559,925,-51.8607,-10.0289
-658,99,-51.7795,9.26001,0,0,0,0,0,0,0,-1,566,925,-51.7795,-9.26
-651,99,-51.5834,9.13605,0,0,0,0,0,0,0,-1,573,925,-51.5834,-9.13605
-644,99,-50.5828,8.216,0,0,0,0,0,0,0,-1,580,925,-50.5828,-8.21601
-637,99,-50.7826,7.61426,0.0457802,0.040924,0.02004,0.0635387,0.0231655,0.725111,0.0371298,0.0349934,587,925,-50.7826,-7.61424
-630,99,-51.0562,7.01044,0.0242424,0.0334972,0.0144506,0.0440432,0.0136964,0.940349,0.026027,0.0203069,594,925,-51.0562,-7.01043
-623,99,-51.3013,6.28265,0.00692766,0.0237796,0.00910916,0.0277623,0.00294501,1.15863,0.0176088,0.0144922,601,925,-51.3013,-6.28268
-616,99,-51.3422,5.61615,-0.00169919,0.0136088,0.00545994,0.0153567,-0.00344703,1.26098,0.0115594,0.0163493,608,925,-51.3422,-5.61613
-609,99,-51.3254,5.02216,-0.00374504,0.00457871,0.00401563,0.00620013,-0.00536645,1.18704,0.00668375,0.0130783,615,925,-51.3254,-5.02217
-602,99,-51.3019,4.43109,-0.00419079,0.00165073,0.00358138,0.00335135,-0.00589141,1.12747,0.00540306,0.0186156,622,925,-51.3019,-4.43108
-595,99,-51.4351,3.79449,-0.00419849,0.00020692,0.00328112,0.00195614,-0.0059477,1.08101,0.0047533,0.0246626,629,925,-51.4351,-3.79447
-588,99,-51.4413,3.10474,-0.00414613,-0.00051649,0.00274405,0.000958583,-0.0056212,1.07756,0.00410448,0.0291292,636,925,-51.4414,-3.10475
-581,99,-51.5551,2.27576,-0.00387887,-0.00110919,0.0019905,-6.91828e-05,-0.00491888,1.08932,0.00325643,0.0268637,643,925,-51.5551,-2.27576
-574,99,-52.0087,1.50165,0,0,0,0,0,0,0,-1,650,925,-52.0087,-1.50165
-567,99,-50.5977,0.659485,0,0,0,0,0,0,0,-1,657,925,-50.5977,-0.659461
-560,99,-55.7584,0.455688,0,0,0,0,0,0,0,-1,664,925,-55.7583,-0.455669
-553,99,-55.7996,0.586365,-0.00245926,-0.00192457,-9.5132e-05,-0.00190815,-0.00247568,-1.39986,0.00149756,0.0362215,671,925,-55.7996,-0.586393
-546,99,-55.7178,0.547607,-0.00220789,-0.00138851,-0.000738349,-0.000953801,-0.00264259,-1.03869,0.00154525,0.0394952,678,925,-55.7178,-0.547616
-539,99,-55.7227,0.474792,-0.00111242,-0.000281327,-0.00158804,0.000944633,-0.00233838,-0.913366,0.00195156,0.0402133,685,925,-55.7227,-0.47482
-532,99,-55.8593,0.521423,0.00131104,0.00128144,-0.00267131,0.00396759,-0.00137511,-0.782628,0.00320337,0.0415986,692,925,-55.8593,-0.521411
-525,99,-55.9688,0.546448,0.00393339,0.00280696,-0.00385159,0.00726272,-0.000522376,-0.712798,0.005025,0.0404358,699,925,-55.9688,-0.546464
-518,99,-55.9384,0.62677,0.00710015,0.00433418,-0.00490563,0.010814,0.00062032,-0.648005,0.00701172,0.039239,706,925,-55.9384,-0.626742
-511,99,0,0,0,0,0,0,0,0,0,-1,713,925,0,0
-504,99,0,0,0,0,0,0,0,0,0,-1,720,925,0,0
-497,99,0,0,0,0,0,0,0,0,0,-1,727,925,0,0
-490,99,0,0,0,0,0,0,0,0,0,-1,734,925,0,0
-483,99,0,0,0,0,0,0,0,0,0,-1,741,925,0,0
-476,99,0,0,0,0,0,0,0,0,0,-1,748,925,0,0
-469,99,0,0,0,0,0,0,0,0,0,-1,755,925,0,0
-462,99,0,0,0,0,0,0,0,0,0,-1,762,925,0,0
-455,99,0,0,0,0,0,0,0,0,0,-1,769,925,0,0
-448,99,0,0,0,0,0,0,0,0,0,-1,776,925,0,0
-441,99,0,0,0,0,0,0,0,0,0,-1,783,925,0,0
-434,99,0,0,0,0,0,0,0,0,0,-1,790,925,0,0
-427,99,0,0,0,0,0,0,0,0,0,-1,797,925,0,0
-420,99,0,0,0,0,0,0,0,0,0,-1,804,925,0,0
-413,99,0,0,0,0,0,0,0,0,0,-1,811,925,0,0
-406,99,0,0,0,0,0,0,0,0,0,-1,818,925,0,0
-399,99,0,0,0,0,0,0,0,0,0,-1,825,925,0,0
-392,99,0,0,0,0,0,0,0,0,0,-1,832,925,0,0
-385,99,0,0,0,0,0,0,0,0,0,-1,839,925,0,0
-378,99,0,0,0,0,0,0,0,0,0,-1,846,925,0,0
-371,99,0,0,0,0,0,0,0,0,0,-1,853,925,0,0
-364,99,0,0,0,0,0,0,0,0,0,-1,860,925,0,0
-357,99,0,0,0,0,0,0,0,0,0,-1,867,925,0,0
-350,99,0,0,0,0,0,0,0,0,0,-1,874,925,0,0
-343,99,0,0,0,0,0,0,0,0,0,-1,881,925,0,0
-336,99,0,0,0,0,0,0,0,0,0,-1,888,925,0,0
-329,99,0,0,0,0,0,0,0,0,0,-1,895,925,0,0
-322,99,0,0,0,0,0,0,0,0,0,-1,902,925,0,0
-315,99,0,0,0,0,0,0,0,0,0,-1,909,925,0,0
-308,99,0,0,0,0,0,0,0,0,0,-1,916,925,0,0
-301,99,0,0,0,0,0,0,0,0,0,-1,923,925,0,0
-294,99,0,0,0,0,0,0,0,0,0,-1,930,925,0,0
-287,99,0,0,0,0,0,0,0,0,0,-1,937,925,0,0
-280,99,0,0,0,0,0,0,0,0,0,-1,944,925,0,0
-273,99,0,0,0,0,0,0,0,0,0,-1,951,925,0,0
-266,99,0,0,0,0,0,0,0,0,0,-1,958,925,0,0
-259,99,0,0,0,0,0,0,0,0,0,-1,965,925,0,0
-252,99,0,0,0,0,0,0,0,0,0,-1,972,925,0,0
-245,99,0,0,0,0,0,0,0,0,0,-1,979,925,0,0
-238,99,0,0,0,0,0,0,0,0,0,-1,986,925,0,0
-231,99,0,0,0,0,0,0,0,0,0,-1,993,925,0,0
-224,99,0,0,0,0,0,0,0,0,0,-1,1000,925,0,0
-217,99,0,0,0,0,0,0,0,0,0,-1,1007,925,0,0
-210,99,0,0,0,0,0,0,0,0,0,-1,1014,925,0,0
-203,99,0,0,0,0,0,0,0,0,0,-1,1021,925,0,0
-196,99,0,0,0,0,0,0,0,0,0,-1,1028,925,0,0
-189,99,0,0,0,0,0,0,0,0,0,-1,1035,925,0,0
-182,99,0,0,0,0,0,0,0,0,0,-1,1042,925,0,0
-175,99,0,0,0,0,0,0,0,0,0,-1,1049,925,0,0
-168,99,0,0,0,0,0,0,0,0,0,-1,1056,925,0,0
-161,99,0,0,0,0,0,0,0,0,0,-1,1063,925,0,0
-154,99,0,0,0,0,0,0,0,0,0,-1,1070,925,0,0
-147,99,0,0,0,0,0,0,0,0,0,-1,1077,925,0,0
-140,99,0,0,0,0,0,0,0,0,0,-1,1084,925,0,0
-133,99,0,0,0,0,0,0,0,0,0,-1,1091,925,0,0
-126,99,0,0,0,0,0,0,0,0,0,-1,1098,925,0,0
-119,99,0,0,0,0,0,0,0,0,0,-1,1105,925,0,0
-112,99,0,0,0,0,0,0,0,0,0,-1,1112,925,0,0
-105,99,0,0,0,0,0,0,0,0,0,-1,1119,925,0,0
-98,99,0,0,0,0,0,0,0,0,0,-1,1126,925,0,0
-91,99,0,0,0,0,0,0,0,0,0,-1,1133,925,0,0
-84,99,0,0,0,0,0,0,0,0,0,-1,1140,925,0,0
-77,99,0,0,0,0,0,0,0,0,0,-1,1147,925,0,0
-70,99,0,0,0,0,0,0,0,0,0,-1,1154,925,0,0
-63,99,0,0,0,0,0,0,0,0,0,-1,1161,925,0,0
-56,99,0,0,0,0,0,0,0,0,0,-1,1168,925,0,0
-49,99,0,0,0,0,0,0,0,0,0,-1,1175,925,0,0
-42,99,0,0,0,0,0,0,0,0,0,-1,1182,925,0,0
-35,99,0,0,0,0,0,0,0,0,0,-1,1189,925,0,0
-28,99,0,0,0,0,0,0,0,0,0,-1,1196,925,0,0
-21,99,0,0,0,0,0,0,0,0,0,-1,1203,925,0,0
-14,99,0,0,0,0,0,0,0,0,0,-1,1210,925,0,0
-7,99,0,0,0,0,0,0,0,0,0,-1,1217,925,0,0
0,99,0,0,0,0,0,0,0,0,0,-1,1224,925,0,0
7,99,0,0,0,0,0,0,0,0,0,-1,1231,925,0,0
14,99,0,0,0,0,0,0,0,0,0,-1,1238,925,0,0
21,99,0,0,0,0,0,0,0,0,0,-1,1245,925,0,0
28,99,0,0,0,0,0,0,0,0,0,-1,1252,925,0,0
35,99,0,0,0,0,0,0,0,0,0,-1,1259,925,0,0
42,99,0,0,0,0,0,0,0,0,0,-1,1266,925,0,0
49,99,0,0,0,0,0,0,0,0,0,-1,1273,925,0,0
56,99,0,0,0,0,0,0,0,0,0,-1,1280,925,0,0
63,99,0,0,0,0,0,0,0,0,0,-1,1287,925,0,0
70,99,0,0,0,0,0,0,0,0,0,-1,1294,925,0,0
77,99,0,0,0,0,0,0,0,0,0,-1,1301,925,0,0
84,99,0,0,0,0,0,0,0,0,0,-1,1308,925,0,0
91,99,0,0,0,0,0,0,0,0,0,-1,1315,925,0,0
98,99,0,0,0,0,0,0,0,0,0,-1,1322,925,0,0
105,99,0,0,0,0,0,0,0,0,0,-1,1329,925,0,0
112,99,0,0,0,0,0,0,0,0,0,-1,1336,925,0,0
119,99,0,0,0,0,0,0,0,0,0,-1,1343,925,0,0
126,99,0,0,0,0,0,0,0,0,0,-1,1350,925,0,0
133,99,0,0,0,0,0,0,0,0,0,-1,1357,925,0,0
140,99,0,0,0,0,0,0,0,0,0,-1,1364,925,0,0
147,99,0,0,0,0,0,0,0,0,0,-1,1371,925,0,0
154,99,0,0,0,0,0,0,0,0,0,-1,1378,925,0,0
161,99,0,0,0,0,0,0,0,0,0,-1,1385,925,0,0
168,99,0,0,0,0,0,0,0,0,0,-1,1392,925,0,0
175,99,0,0,0,0,0,0,0,0,0,-1,1399,925,0,0
182,99,0,0,0,0,0,0,0,0,0,-1,1406,925,0,0
189,99,0,0,0,0,0,0,0,0,0,-1,1413,925,0,0
196,99,0,0,0,0,0,0,0,0,0,-1,1420,925,0,0
203,99,0,0,0,0,0,0,0,0,0,-1,1427,925,0,0
210,99,0,0,0,0,0,0,0,0,0,-1,1434,925,0,0
217,99,0,0,0,0,0,0,0,0,0,-1,1441,925,0,0
224,99,0,0,0,0,0,0,0,0,0,-1,1448,925,0,0
231,99,0,0,0,0,0,0,0,0,0,-1,1455,925,0,0
238,99,0,0,0,0,0,0,0,0,0,-1,1462,925,0,0
245,99,0,0,0,0,0,0,0,0,0,-1,1469,925,0,0
252,99,0,0,0,0,0,0,0,0,0,-1,1476,925,0,0
259,99,0,0,0,0,0,0,0,0,0,-1,1483,925,0,0
266,99,0,0,0,0,0,0,0,0,0,-1,1490,925,0,0
273,99,0,0,0,0,0,0,0,0,0,-1,1497,925,0,0
280,99,0,0,0,0,0,0,0,0,0,-1,1504,925,0,0
287,99,0,0,0,0,0,0,0,0,0,-1,1511,925,0,0
294,99,0,0,0,0,0,0,0,0,0,-1,1518,925,0,0
301,99,0,0,0,0,0,0,0,0,0,-1,1525,925,0,0
308,99,0,0,0,0,0,0,0,0,0,-1,1532,925,0,0
315,99,0,0,0,0,0,0,0,0,0,-1,1539,925,0,0
322,99,0,0,0,0,0,0,0,0,0,-1,1546,925,0,0
329,99,0,0,0,0,0,0,0,0,0,-1,1553,925,0,0
336,99,0,0,0,0,0,0,0,0,0,-1,1560,925,0,0
343,99,0,0,0,0,0,0,0,0,0,-1,1567,925,0,0
350,99,0,0,0,0,0,0,0,0,0,-1,1574,925,0,0
357,99,0,0,0,0,0,0,0,0,0,-1,1581,925,0,0
364,99,0,0,0,0,0,0,0,0,0,-1,1588,925,0,0
371,99,0,0,0,0,0,0,0,0,0,-1,1595,925,0,0
378,99,0,0,0,0,0,0,0,0,0,-1,1602,925,0,0
385,99,0,0,0,0,0,0,0,0,0,-1,1609,925,0,0
392,99,0,0,0,0,0,0,0,0,0,-1,1616,925,0,0
399,99,0,0,0,0,0,0,0,0,0,-1,1623,925,0,0
406,99,0,0,0,0,0,0,0,0,0,-1,1630,925,0,0
413,99,0,0,0,0,0,0,0,0,0,-1,1637,925,0,0
420,99,0,0,0,0,0,0,0,0,0,-1,1644,925,0,0
427,99,0,0,0,0,0,0,0,0,0,-1,1651,925,0,0
434,99,0,0,0,0,0,0,0,0,0,-1,1658,925,0,0
441,99,0,0,0,0,0,0,0,0,0,-1,1665,925,0,0
448,99,0,0,0,0,0,0,0,0,0,-1,1672,925,0,0
455,99,0,0,0,0,0,0,0,0,0,-1,1679,925,0,0
462,99,0,0,0,0,0,0,0,0,0,-1,1686,925,0,0
469,99,0,0,0,0,0,0,0,0,0,-1,1693,925,0,0
476,99,0,0,0,0,0,0,0,0,0,-1,1700,925,0,0
483,99,0,0,0,0,0,0,0,0,0,-1,1707,925,0,0
490,99,0,0,0,0,0,0,0,0,0,-1,1714,925,0,0
497,99,0,0,0,0,0,0,0,0,0,-1,1721,925,0,0
504,99,0,0,0,0,0,0,0,0,0,-1,1728,925,0,0
511,99,0,0,0,0,0,0,0,0,0,-1,1735,925,0,0
518,99,0,0,0,0,0,0,0,0,0,-1,1742,925,0,0
525,99,0,0,0,0,0,0,0,0,0,-1,1749,925,0,0
532,99,0,0,0,0,0,0,0,0,0,-1,1756,925,0,0
539,99,0,0,0,0,0,0,0,0,0,-1,1763,925,0,0
546,99,0,0,0,0,0,0,0,0,0,-1,1770,925,0,0
553,99,0,0,0,0,0,0,0,0,0,-1,1777,925,0,0
560,99,0,0,0,0,0,0,0,0,0,-1,1784,925,0,0
567,99,0,0,0,0,0,0,0,0,0,-1,1791,925,0,0
574,99,0,0,0,0,0,0,0,0,0,-1,1798,925,0,0
581,99,0,0,0,0,0,0,0,0,0,-1,1805,925,0,0
588,99,0,0,0,0,0,0,0,0,0,-1,1812,925,0,0
595,99,0,0,0,0,0,0,0,0,0,-1,1819,925,0,0
602,99,0,0,0,0,0,0,0,0,0,-1,1826,925,0,0
609,99,0,0,0,0,0,0,0,0,0,-1,1833,925,0,0
616,99,0,0,0,0,0,0,0,0,0,-1,1840,925,0,0
623,99,0,0,0,0,0,0,0,0,0,-1,1847,925,0,0
630,99,0,0,0,0,0,0,0,0,0,-1,1854,925,0,0
637,99,71.8844,2.76099,-0.00455001,0.00184061,0.000112958,0.00184261,-0.004552,1.55313,0.00380079,0.0432788,1861,925,71.8844,-2.76096
644,99,71.7162,2.83533,-0.00365022,0.0018275,0.000227396,0.00183692,-0.00365964,1.52938,0.00323108,0.039341,1868,925,71.7161,-2.8353
651,99,72.0085,2.17719,0,0,0,0,0,0,0,-1,1875,925,72.0086,-2.17716
658,99,71.8779,2.23523,-0.00194848,0.00122035,0.000159136,0.00122832,-0.00195645,1.52075,0.00185468,0.0406823,1882,925,71.878,-2.23522
665,99,71.7318,2.2713,-0.00114431,0.00108296,0.000170441,0.00109593,-0.00115728,1.49486,0.00130105,0.0415052,1889,925,71.7318,-2.27128
672,99,71.6958,2.34705,-0.000993528,0.000758511,0.000236228,0.000789803,-0.00102482,1.4391,0.0010506,0.0396737,1896,925,71.6958,-2.34707
679,99,71.7167,2.37646,-0.00109212,0.000322773,0.00029134,0.000380414,-0.00114977,1.37547,0.000919918,0.0357747,1903,925,71.7167,-2.37646
686,99,71.7075,2.35535,-0.00118407,0.000113654,0.000133138,0.000127173,-0.00119759,1.46961,0.000843982,0.032293,1910,925,71.7075,-2.35535
693,99,71.7443,2.33209,-0.00133999,0.000219407,-0.00019935,0.000244488,-0.00136507,-1.44564,0.00100154,0.0383502,1917,925,71.7442,-2.33212
700,99,71.7627,2.28564,0,0,0,0,0,0,0,-1,1924,925,71.7627,-2.28563
707,99,47.9915,3.27429,0,0,0,0,0,0,0,-1,1931,925,47.9914,-3.27427
714,99,66.261,3.77264,0,0,0,0,0,0,0,-1,1938,925,66.261,-3.77264
721,99,66.4625,4.63489,-0.00311688,0.0016404,-0.00155385,0.00210295,-0.00357943,-1.28147,0.00331743,0.0380452,1945,925,66.4625,-4.6349
728,99,66.4578,5.34515,-0.00352835,0.00266744,-0.00195174,0.003231,-0.00409191,-1.2897,0.00423761,0.031558,1952,925,66.4578,-5.34515
735,99,66.3993,6.03906,-0.00370125,0.00390959,-0.00235448,0.00457908,-0.00437074,-1.29376,0.00516765,0.0247607,1959,925,66.3993,-6.03908
742,99,66.3057,6.7149,-0.00326992,0.00590116,-0.0029095,0.00674631,-0.00411507,-1.2881,0.00633186,0.0162447,1966,925,66.3057,-6.71489
749,99,66.2292,7.34955,-0.00167386,0.0088907,-0.00358526,0.00999251,-0.00277566,-1.27264,0.00775429,0.0136184,1973,925,66.2293,-7.34957
756,99,66.1536,7.94159,0.00162515,0.0126002,-0.00422106,0.0140358,0.000189501,-1.24295,0.00929469,0.0142316,1980,925,66.1536,-7.94157
763,99,66.144,8.59558,0.00618125,0.016634,-0.00474081,0.0184639,0.0043514,-1.20244,0.0111456,0.0181781,1987,925,66.144,-8.59556
770,99,66.3682,9.1983,0.0123802,0.0206993,-0.00532618,0.0232977,0.00978176,-1.11691,0.0135084,0.033626,1994,925,66.3681,-9.19832
777,99,66.6885,9.76318,0.021314,0.0245794,-0.00583658,0.0290074,0.0168861,-0.921783,0.0168225,0.0464529,2001,925,66.6884,-9.76321
784,99,66.9109,10.124,0.0350454,0.0276324,-0.0066702,0.0389697,0.0237081,-0.531802,0.0226747,0.046805,2008,925,66.911,-10.124
791,99,67.5273,10.7114,0,0,0,0,0,0,0,-1,2015,925,67.5273,-10.7114
798,99,66.8894,9.65735,0,0,0,0,0,0,0,-1,2022,925,66.8894,-9.65736
805,99,0,0,0,0,0,0,0,0,0,-1,2029,925,0,0
812,99,0,0,0,0,0,0,0,0,0,-1,2036,925,0,0
-700,92,0,0,0,0,0,0,0,0,0,-1,524,932,0,0
-693,92,0,0,0,0,0,0,0,0,0,-1,531,932,0,0
-686,92,-59.5011,2.79407,0,0,0,0,0,0,0,-1,538,932,-59.5011,-2.79408
-679,92,-53.2216,11.4509,0,0,0,0,0,0,0,-1,545,932,-53.2216,-11.4509
-672,92,-53.0478,10.7817,0.240531,0.0384372,0.0721803,0.263663,0.0153049,0.310138,0.170902,0.0499038,552,932,-53.0478,-10.7817
-665,92,-52.8842,9.97845,0.188713,0.0554194,0.0573335,0.20998,0.0341518,0.355211,0.130106,0.0490501,559,932,-52.8842,-9.97847
-658,92,-52.5752,9.27924,0.143563,0.0623376,0.0450009,0.163568,0.0423329,0.418305,0.0980299,0.045864,566,932,-52.5752,-9.27926
-651,92,-52.2787,8.71655,0.104889,0.0616676,0.034747,0.124197,0.0423591,0.507201,0.0729028,0.045967,573,932,-52.2788,-8.71653
-644,92,-52.0529,8.22388,0.0725218,0.0555121,0.0262795,0.0916384,0.0363955,0.628901,0.0532792,0.0452074,580,932,-52.0529,-8.22385
-637,92,-51.7851,7.55914,0.04649,0.0457954,0.0193923,0.0655381,0.0267473,0.776445,0.0380508,0.0310612,587,932,-51.7851,-7.55915
-630,92,-51.8128,6.88885,0.02541,0.0369055,0.0144988,0.0467543,0.0155612,0.974109,0.0274919,0.0165291,594,932,-51.8128,-6.88887
-623,92,-51.9555,6.2746,0.00820559,0.0259365,0.00949572,0.030062,0.00408009,1.16094,0.0188293,0.0108782,601,932,-51.9555,-6.27462
-616,92,-51.9969,5.67297,-0.000564157,0.014854,0.00577881,0.0167795,-0.00248963,1.24917,0.0121019,0.0102351,608,932,-51.9969,-5.67298
-609,92,-52.0272,5.07471,-0.00262194,0.00488043,0.00402603,0.006632,-0.00437351,1.16043,0.00639848,0.0102916,615,932,-52.0272,-5.07469
-602,92,-51.9954,4.44623,-0.00303108,0.0019086,0.00349531,0.00371863,-0.00484111,1.09297,0.00495611,0.0125207,622,932,-51.9954,-4.44624
-595,92,-51.8973,3.71521,-0.00321166,0.000243633,0.00321067,0.00216196,-0.00512999,1.03223,0.0043247,0.0259695,629,932,-51.8974,-3.71519
-588,92,-51.8996,3.1333,-0.00324772,-0.00056816,0.00269845,0.0011048,-0.00492068,1.01582,0.00370406,0.0350076,636,932,-51.8996,-3.13328
-581,92,-52.5908,2.48761,-0.00290517,-0.0012337,0.00189889,5.23217e-06,-0.0041441,0.992701,0.00276448,0.0438972,643,932,-52.5908,-2.48758
-574,92,-53.4291,1.70386,0,0,0,0,0,0,0,-1,650,932,-53.4291,-1.70387
-567,92,-55.6517,0.640686,0,0,0,0,0,0,0,-1,657,932,-55.6517,-0.640705
-560,92,-55.6676,0.438965,-0.00165907,-0.00183328,5.15261e-05,-0.00164497,-0.00184738,0.267082,0.00116997,0.0416891,664,932,-55.6676,-0.438963
-553,92,-55.7785,0.40448,-0.00150369,-0.00151648,-0.000618479,-0.000891573,-0.0021286,-0.780225,0.00123433,0.0385602,671,932,-55.7785,-0.404468
-546,92,-55.7151,0.492798,-0.0011092,-0.000717833,-0.00141184,0.000511826,-0.00233886,-0.85426,0.0017549,0.0407385,678,932,-55.7152,-0.492795
-539,92,-55.731,0.565735,7.1056e-05,0.000616964,-0.00247009,0.00282914,-0.00214112,-0.840427,0.00287873,0.0395268,685,932,-55.731,-0.565757
-532,92,-55.8076,0.595947,0.00240604,0.00229599,-0.00391435,0.00626575,-0.00156372,-0.77837,0.00478436,0.0414997,692,932,-55.8076,-0.595941
-525,92,-55.8025,0.623535,0.0048729,0.00399342,-0.00549916,0.00994987,-0.00108356,-0.745501,0.00702235,0.0392633,699,932,-55.8025,-0.623553
-518,92,-55.7374,0.654907,0.00796526,0.00574943,-0.00700918,0.0139535,-0.000238859,-0.707013,0.009383,0.0384456,706,932,-55.7374,-0.654933
-511,92,0,0,0,0,0,0,0,0,0,-1,713,932,0,0
-504,92,0,0,0,0,0,0,0,0,0,-1,720,932,0,0
-497,92,0,0,0,0,0,0,0,0,0,-1,727,932,0,0
-490,92,0,0,0,0,0,0,0,0,0,-1,734,932,0,0
-483,92,0,0,0,0,0,0,0,0,0,-1,741,932,0,0
-476,92,0,0,0,0,0,0,0,0,0,-1,748,932,0,0
-469,92,0,0,0,0,0,0,0,0,0,-1,755,932,0,0
-462,92,0,0,0,0,0,0,0,0,0,-1,762,932,0,0
-455,92,0,0,0,0,0,0,0,0,0,-1,769,932,0,0
-448,92,0,0,0,0,0,0,0,0,0,-1,776,932,0,0
-441,92,0,0,0,0,0,0,0,0,0,-1,783,932,0,0
-434,92,0,0,0,0,0,0,0,0,0,-1,790,932,0,0
-427,92,0,0,0,0,0,0,0,0,0,-1,797,932,0,0
-420,92,0,0,0,0,0,0,0,0,0,-1,804,932,0,0
-413,92,0,0,0,0,0,0,0,0,0,-1,811,932,0,0
-406,92,0,0,0,0,0,0,0,0,0,-1,818,932,0,0
-399,92,0,0,0,0,0,0,0,0,0,-1,825,932,0,0
-392,92,0,0,0,0,0,0,0,0,0,-1,832,932,0,0
-385,92,0,0,0,0,0,0,0,0,0,-1,839,932,0,0
-378,92,0,0,0,0,0,0,0,0,0,-1,846,932,0,0
-371,92,0,0,0,0,0,0,0,0,0,-1,853,932,0,0
-364,92,0,0,0,0,0,0,0,0,0,-1,860,932,0,0
-357,92,0,0,0,0,0,0,0,0,0,-1,867,932,0,0
-350,92,0,0,0,0,0,0,0,0,0,-1,874,932,0,0
-343,92,0,0,0,0,0,0,0,0,0,-1,881,932,0,0
-336,92,0,0,0,0,0,0,0,0,0,-1,888,932,0,0
-329,92,0,0,0,0,0,0,0,0,0,-1,895,932,0,0
-322,92,0,0,0,0,0,0,0,0,0,-1,902,932,0,0
-315,92,0,0,0,0,0,0,0,0,0,-1,909,932,0,0
-308,92,0,0,0,0,0,0,0,0,0,-1,916,932,0,0
-301,92,0,0,0,0,0,0,0,0,0,-1,923,932,0,0
-294,92,0,0,0,0,0,0,0,0,0,-1,930,932,0,0
-287,92,0,0,0,0,0,0,0,0,0,-1,937,932,0,0
-280,92,0,0,0,0,0,0,0,0,0,-1,944,932,0,0
-273,92,0,0,0,0,0,0,0,0,0,-1,951,932,0,0
-266,92,0,0,0,0,0,0,0,0,0,-1,958,932,0,0
-259,92,0,0,0,0,0,0,0,0,0,-1,965,932,0,0
-252,92,0,0,0,0,0,0,0,0,0,-1,972,932,0,0
-245,92,0,0,0,0,0,0,0,0,0,-1,979,932,0,0
-238,92,0,0,0,0,0,0,0,0,0,-1,986,932,0,0
-231,92,0,0,0,0,0,0,0,0,0,-1,993,932,0,0
-224,92,0,0,0,0,0,0,0,0,0,-1,1000,932,0,0
-217,92,0,0,0,0,0,0,0,0,0,-1,1007,932,0,0
-210,92,0,0,0,0,0,0,0,0,0,-1,1014,932,0,0
-203,92,0,0,0,0,0,0,0,0,0,-1,1021,932,0,0
-196,92,0,0,0,0,0,0,0,0,0,-1,1028,932,0,0
-189,92,0,0,0,0,0,0,0,0,0,-1,1035,932,0,0
-182,92,0,0,0,0,0,0,0,0,0,-1,1042,932,0,0
-175,92,0,0,0,0,0,0,0,0,0,-1,1049,932,0,0
-168,92,0,0,0,0,0,0,0,0,0,-1,1056,932,0,0
-161,92,0,0,0,0,0,0,0,0,0,-1,1063,932,0,0
-154,92,0,0,0,0,0,0,0,0,0,-1,1070,932,0,0
-147,92,0,0,0,0,0,0,0,0,0,-1,1077,932,0,0
-140,92,0,0,0,0,0,0,0,0,0,-1,1084,932,0,0
-133,92,0,0,0,0,0,0,0,0,0,-1,1091,932,0,0
-126,92,0,0,0,0,0,0,0,0,0,-1,1098,932,0,0
-119,92,0,0,0,0,0,0,0,0,0,-1,1105,932,0,0
-112,92,0,0,0,0,0,0,0,0,0,-1,1112,932,0,0
-105,92,0,0,0,0,0,0,0,0,0,-1,1119,932,0,0
-98,92,0,0,0,0,0,0,0,0,0,-1,1126,932,0,0
-91,92,0,0,0,0,0,0,0,0,0,-1,1133,932,0,0
-84,92,0,0,0,0,0,0,0,0,0,-1,1140,932,0,0
-77,92,0,0,0,0,0,0,0,0,0,-1,1147,932,0,0
-70,92,0,0,0,0,0,0,0,0,0,-1,1154,932,0,0
-63,92,0,0,0,0,0,0,0,0,0,-1,1161,932,0,0
-56,92,0,0,0,0,0,0,0,0,0,-1,1168,932,0,0
-49,92,0,0,0,0,0,0,0,0,0,-1,1175,932,0,0
-42,92,0,0,0,0,0,0,0,0,0,-1,1182,932,0,0
-35,92,0,0,0,0,0,0,0,0,0,-1,1189,932,0,0
-28,92,0,0,0,0,0,0,0,0,0,-1,1196,932,0,0
-21,92,0,0,0,0,0,0,0,0,0,-1,1203,932,0,0
-14,92,0,0,0,0,0,0,0,0,0,-1,1210,932,0,0
-7,92,0,0,0,0,0,0,0,0,0,-1,1217,932,0,0
0,92,0,0,0,0,0,0,0,0,0,-1,1224,932,0,0
7,92,0,0,0,0,0,0,0,0,0,-1,1231,932,0,0
14,92,0,0,0,0,0,0,0,0,0,-1,1238,932,0,0
21,92,0,0,0,0,0,0,0,0,0,-1,1245,932,0,0
28,92,0,0,0,0,0,0,0,0,0,-1,1252,932,0,0
35,92,0,0,0,0,0,0,0,0,0,-1,1259,932,0,0
42,92,0,0,0,0,0,0,0,0,0,-1,1266,932,0,0
49,92,0,0,0,0,0,0,0,0,0,-1,1273,932,0,0
56,92,0,0,0,0,0,0,0,0,0,-1,1280,932,0,0
63,92,0,0,0,0,0,0,0,0,0,-1,1287,932,0,0
70,92,0,0,0,0,0,0,0,0,0,-1,1294,932,0,0
77,92,0,0,0,0,0,0,0,0,0,-1,1301,932,0,0
84,92,0,0,0,0,0,0,0,0,0,-1,1308,932,0,0
91,92,0,0,0,0,0,0,0,0,0,-1,1315,932,0,0
98,92,0,0,0,0,0,0,0,0,0,-1,1322,932,0,0
105,92,0,0,0,0,0,0,0,0,0,-1,1329,932,0,0
112,92,0,0,0,0,0,0,0,0,0,-1,1336,932,0,0
119,92,0,0,0,0,0,0,0,0,0,-1,1343,932,0,0
126,92,0,0,0,0,0,0,0,0,0,-1,1350,932,0,0
133,92,0,0,0,0,0,0,0,0,0,-1,1357,932,0,0
140,92,0,0,0,0,0,0,0,0,0,-1,1364,932,0,0
147,92,0,0,0,0,0,0,0,0,0,-1,1371,932,0,0
154,92,0,0,0,0,0,0,0,0,0,-1,1378,932,0,0
161,92,0,0,0,0,0,0,0,0,0,-1,1385,932,0,0
168,92,0,0,0,0,0,0,0,0,0,-1,1392,932,0,0
175,92,0,0,0,0,0,0,0,0,0,-1,1399,932,0,0
182,92,0,0,0,0,0,0,0,0,0,-1,1406,932,0,0
189,92,0,0,0,0,0,0,0,0,0,-1,1413,932,0,0
196,92,0,0,0,0,0,0,0,0,0,-1,1420,932,0,0
203,92,0,0,0,0,0,0,0,0,0,-1,1427,932,0,0
210,92,0,0,0,0,0,0,0,0,0,-1,1434,932,0,0
217,92,0,0,0,0,0,0,0,0,0,-1,1441,932,0,0
224,92,0,0,0,0,0,0,0,0,0,-1,1448,932,0,0
231,92,0,0,0,0,0,0,0,0,0,-1,1455,932,0,0
238,92,0,0,0,0,0,0,0,0,0,-1,1462,932,0,0
245,92,0,0,0,0,0,0,0,0,0,-1,1469,932,0,0
252,92,0,0,0,0,0,0,0,0,0,-1,1476,932,0,0
259,92,0,0,0,0,0,0,0,0,0,-1,1483,932,0,0
266,92,0,0,0,0,0,0,0,0,0,-1,1490,932,0,0
273,92,0,0,0,0,0,0,0,0,0,-1,1497,932,0,0
280,92,0,0,0,0,0,0,0,0,0,-1,1504,932,0,0
287,92,0,0,0,0,0,0,0,0,0,-1,1511,932,0,0
294,92,0,0,0,0,0,0,0,0,0,-1,1518,932,0,0
301,92,0,0,0,0,0,0,0,0,0,-1,1525,932,0,0
308,92,0,0,0,0,0,0,0,0,0,-1,1532,932,0,0
315,92,0,0,0,0,0,0,0,0,0,-1,1539,932,0,0
322,92,0,0,0,0,0,0,0,0,0,-1,1546,932,0,0
329,92,0,0,0,0,0,0,0,0,0,-1,1553,932,0,0
336,92,0,0,0,0,0,0,0,0,0,-1,1560,932,0,0
343,92,0,0,0,0,0,0,0,0,0,-1,1567,932,0,0
350,92,0,0,0,0,0,0,0,0,0,-1,1574,932,0,0
357,92,0,0,0,0,0,0,0,0,0,-1,1581,932,0,0
364,92,0,0,0,0,0,0,0,0,0,-1,1588,932,0,0
371,92,0,0,0,0,0,0,0,0,0,-1,1595,932,0,0
378,92,0,0,0,0,0,0,0,0,0,-1,1602,932,0,0
385,92,0,0,0,0,0,0,0,0,0,-1,1609,932,0,0
392,92,0,0,0,0,0,0,0,0,0,-1,1616,932,0,0
399,92,0,0,0,0,0,0,0,0,0,-1,1623,932,0,0
406,92,0,0,0,0,0,0,0,0,0,-1,1630,932,0,0
413,92,0,0,0,0,0,0,0,0,0,-1,1637,932,0,0
420,92,0,0,0,0,0,0,0,0,0,-1,1644,932,0,0
427,92,0,0,0,0,0,0,0,0,0,-1,1651,932,0,0
434,92,0,0,0,0,0,0,0,0,0,-1,1658,932,0,0
441,92,0,0,0,0,0,0,0,0,0,-1,1665,932,0,0
448,92,0,0,0,0,0,0,0,0,0,-1,1672,932,0,0
455,92,0,0,0,0,0,0,0,0,0,-1,1679,932,0,0
462,92,0,0,0,0,0,0,0,0,0,-1,1686,932,0,0
469,92,0,0,0,0,0,0,0,0,0,-1,1693,932,0,0
476,92,0,0,0,0,0,0,0,0,0,-1,1700,932,0,0
483,92,0,0,0,0,0,0,0,0,0,-1,1707,932,0,0
490,92,0,0,0,0,0,0,0,0,0,-1,1714,932,0,0
497,92,0,0,0,0,0,0,0,0,0,-1,1721,932,0,0
504,92,0,0,0,0,0,0,0,0,0,-1,1728,932,0,0
511,92,0,0,0,0,0,0,0,0,0,-1,1735,932,0,0
518,92,0,0,0,0,0,0,0,0,0,-1,1742,932,0,0
525,92,0,0,0,0,0,0,0,0,0,-1,1749,932,0,0
532,92,0,0,0,0,0,0,0,0,0,-1,1756,932,0,0
539,92,0,0,0,0,0,0,0,0,0,-1,1763,932,0,0
546,92,0,0,0,0,0,0,0,0,0,-1,1770,932,0,0
553,92,0,0,0,0,0,0,0,0,0,-1,1777,932,0,0
560,92,0,0,0,0,0,0,0,0,0,-1,1784,932,0,0
567,92,0,0,0,0,0,0,0,0,0,-1,1791,932,0,0
574,92,0,0,0,0,0,0,0,0,0,-1,1798,932,0,0
581,92,0,0,0,0,0,0,0,0,0,-1,1805,932,0,0
588,92,0,0,0,0,0,0,0,0,0,-1,1812,932,0,0
595,92,0,0,0,0,0,0,0,0,0,-1,1819,932,0,0
602,92,0,0,0,0,0,0,0,0,0,-1,1826,932,0,0
609,92,0,0,0,0,0,0,0,0,0,-1,1833,932,0,0
616,92,0,0,0,0,0,0,0,0,0,-1,1840,932,0,0
623,92,0,0,0,0,0,0,0,0,0,-1,1847,932,0,0
630,92,0,0,0,0,0,0,0,0,0,-1,1854,932,0,0
637,92,71.6787,2.71564,-0.00358705,0.00147571,0.000442486,0.00151409,-0.00362543,1.48427,0.00304962,0.0479269,1861,932,71.6787,-2.71565
644,92,71.6864,2.59564,-0.00293808,0.00165163,0.000554487,0.00171767,-0.00300412,1.45226,0.00275965,0.0399514,1868,932,71.6864,-2.59567
651,92,71.8104,2.40942,-0.00227338,0.00147915,0.000505134,0.00154596,-0.00234019,1.4393,0.00225923,0.0392985,1875,932,71.8104,-2.4094
658,92,71.8187,2.41254,-0.00165128,0.00123516,0.000400812,0.00128978,-0.00170591,1.43535,0.00173511,0.0427632,1882,932,71.8187,-2.41255
665,92,71.751,2.40509,-0.000980672,0.00109362,0.000297764,0.00113551,-0.00102257,1.43101,0.00124654,0.0422149,1889,932,71.7509,-2.40509
672,92,71.7347,2.3786,-0.000902427,0.000737938,0.000290021,0.000787704,-0.000952194,1.40086,0.00100603,0.0400708,1896,932,71.7347,-2.37862
679,92,71.7797,2.32037,-0.00106563,0.000223122,0.000299335,0.000289254,-0.00113176,1.35336,0.000867157,0.0370021,1903,932,71.7797,-2.32034
686,92,71.7153,2.25739,-0.0011668,-9.3073e-05,8.97528e-05,-8.56223e-05,-0.00117426,1.48797,0.000755914,0.0324513,1910,932,71.7154,-2.25736
693,92,71.7456,2.4057,-0.00135276,-7.08346e-05,-0.000259498,-2.02969e-05,-0.00140329,-1.37845,0.000928838,0.0286928,1917,932,71.7456,-2.4057
700,92,71.7695,2.40002,0,0,0,0,0,0,0,-1,1924,932,71.7695,-2.40002
707,92,32.9893,3.26874,0,0,0,0,0,0,0,-1,1931,932,32.9893,-3.26874
714,92,67.603,4.05951,0,0,0,0,0,0,0,-1,1938,932,67.6031,-4.05948
721,92,67.3448,4.81744,-0.00328753,0.00138543,-0.00176044,0.00197441,-0.0038765,-1.24794,0.00343701,0.036213,1945,932,67.3448,-4.81743
728,92,67.0811,5.47565,-0.00369323,0.00246756,-0.00215926,0.00314898,-0.00437465,-1.26511,0.00436294,0.0299948,1952,932,67.081,-5.47563
735,92,67.0496,6.09741,-0.00384597,0.00371955,-0.00255159,0.00449967,-0.00462609,-1.27408,0.00526893,0.0237194,1959,932,67.0496,-6.09743
742,92,67.0756,6.70697,-0.00333454,0.00571733,-0.00316653,0.00671507,-0.00433228,-1.26555,0.00642745,0.0227895,1966,932,67.0756,-6.70695
749,92,66.9786,7.34454,-0.00152008,0.00869548,-0.00405543,0.0101097,-0.00293426,-1.23527,0.0079016,0.0198676,1973,932,66.9787,-7.34453
756,92,66.844,7.92102,0.002461,0.0123891,-0.00512454,0.0145596,0.000290434,-1.17014,0.00961108,0.0168374,1980,932,66.844,-7.92102
763,92,66.8245,8.51508,0.00803212,0.0163749,-0.00624826,0.0197163,0.00469078,-1.07973,0.011893,0.0184222,1987,932,66.8244,-8.51505
770,92,66.9297,9.00122,0.0155353,0.0202562,-0.00759952,0.0258534,0.0099381,-0.935977,0.0150589,0.0274834,1994,932,66.9296,-9.00121
777,92,67.2046,9.44354,0.026132,0.0237982,-0.00925196,0.0342904,0.0156398,-0.722666,0.019823,0.0473443,2001,932,67.2045,-9.44357
784,92,67.4414,10.0767,0.0421526,0.0264674,-0.0116258,0.0483338,0.0202862,-0.488665,0.0280252,0.0496183,2008,932,67.4415,-10.0766
791,92,68.051,10.7117,0,0,0,0,0,0,0,-1,2015,932,68.0511,-10.7117
798,92,66.6687,9.83569,0,0,0,0,0,0,0,-1,2022,932,66.6687,-9.83568
805,92,0,0,0,0,0,0,0,0,0,-1,2029,932,0,0
812,92,0,0,0,0,0,0,0,0,0,-1,2036,932,0,0
-700,85,0,0,0,0,0,0,0,0,0,-1,524,939,0,0
-693,85,0,0,0,0,0,0,0,0,0,-1,531,939,0,0
-686,85,-59.4008,2.64893,0.343247,0.0213141,0.0840143,0.363853,0.000707984,0.240521,0.242333,0.0463381,538,939,-59.4009,-2.64892
-679,85,-57.6602,3.39703,0.283844,0.054054,0.0727327,0.30493,0.0329678,0.282178,0.193237,0.047569,545,939,-57.6601,-3.39705
-672,85,-54.1345,10.9384,0.228658,0.0715165,0.0602029,0.249071,0.0511037,0.326903,0.151906,0.0457506,552,939,-54.1345,-10.9384
-665,85,-53.9377,9.95465,0.179859,0.0786903,0.0489633,0.199675,0.0588746,0.384557,0.118473,0.0444098,559,939,-53.9377,-9.95464
-658,85,-53.6321,9.2251,0.137351,0.0784054,0.0392447,0.156958,0.0587987,0.463327,0.0915644,0.0464797,566,939,-53.6321,-9.22512
-651,85,-52.8862,8.36774,0.10102,0.0726141,0.0309553,0.120875,0.0527588,0.570318,0.0699747,0.0432303,573,939,-52.8862,-8.36774
-644,85,-52.2818,7.70471,0.0707083,0.0629459,0.0239924,0.0911314,0.0425228,0.705209,0.0526538,0.0384735,580,939,-52.2818,-7.7047
-637,85,-52.4044,7.38452,0.0463235,0.050995,0.0183163,0.0671239,0.0301946,0.848817,0.038819,0.0254444,587,939,-52.4044,-7.38453
-630,85,-52.5191,6.78571,0.0259486,0.0405716,0.0142098,0.0492406,0.0172796,1.023,0.0288472,0.0152234,594,939,-52.5191,-6.78572
-623,85,-52.627,6.20465,0.0091937,0.0282894,0.00969615,0.0323495,0.00513358,1.17424,0.0200751,0.010076,601,939,-52.627,-6.20465
-616,85,-52.6567,5.64404,0.000528137,0.016274,0.00600619,0.0183035,-0.00150133,1.24495,0.0127323,0.0106334,608,939,-52.6567,-5.64405
-609,85,-52.6967,5.07343,-0.00146317,0.00524396,0.00403172,0.00713455,-0.00335376,1.13231,0.00618518,0.0137824,615,939,-52.6967,-5.0734
-602,85,-52.7058,4.47534,-0.00178375,0.00222736,0.00346154,0.00422237,-0.00377875,1.04796,0.00462182,0.0177651,622,939,-52.7058,-4.47536
-595,85,-52.59,3.85596,-0.00207013,0.000320087,0.00318827,0.00252988,-0.00427992,0.964715,0.00397468,0.0219393,629,939,-52.59,-3.85599
-588,85,-52.5562,3.25085,-0.00210342,-0.00061604,0.00269286,0.00143394,-0.0041534,0.920126,0.00335079,0.0274008,636,939,-52.5562,-3.25088
-581,85,-52.5762,2.61633,0,0,0,0,0,0,0,-1,643,939,-52.5762,-2.6163
-574,85,-53.3043,1.55475,0,0,0,0,0,0,0,-1,650,939,-53.3043,-1.55477
-567,85,-55.6929,0.474915,0,0,0,0,0,0,0,-1,657,939,-55.6929,-0.474939
-560,85,-55.6466,0.565186,-0.000472696,-0.00182752,-0.000163702,-0.000453197,-0.00184702,-0.118556,0.00111152,0.035715,664,939,-55.6466,-0.565212
-553,85,-55.6422,0.381042,-0.00027091,-0.00133762,-0.000923864,0.000262503,-0.00187103,-0.523615,0.00134343,0.0412688,671,939,-55.6421,-0.381026
-546,85,-55.5806,0.345947,0.000244471,-0.000372498,-0.00184352,0.00180514,-0.00193317,-0.702499,0.00215874,0.0433711,678,939,-55.5806,-0.34596
-539,85,-55.7437,0.776184,0.00146234,0.00106711,-0.00308466,0.00435571,-0.00182626,-0.75341,0.00366739,0.0405944,685,939,-55.7437,-0.776175
-532,85,-55.7545,0.619385,0.00372907,0.00278867,-0.00485592,0.0081375,-0.00161976,-0.737134,0.00603778,0.0383562,692,939,-55.7544,-0.619376
-525,85,-55.7582,0.49176,0.00603,0.00456238,-0.00679635,0.012132,-0.00153966,-0.731621,0.00864706,0.0358958,699,939,-55.7582,-0.491772
-518,85,-55.7054,0.452637,0.00897176,0.00645022,-0.00876526,0.0165665,-0.00114448,-0.713969,0.0114449,0.036466,706,939,-55.7054,-0.452635
-511,85,0,0,0,0,0,0,0,0,0,-1,713,939,0,0
-504,85,0,0,0,0,0,0,0,0,0,-1,720,939,0,0
-497,85,0,0,0,0,0,0,0,0,0,-1,727,939,0,0
-490,85,0,0,0,0,0,0,0,0,0,-1,734,939,0,0
-483,85,0,0,0,0,0,0,0,0,0,-1,741,939,0,0
-476,85,0,0,0,0,0,0,0,0,0,-1,748,939,0,0
-469,85,0,0,0,0,0,0,0,0,0,-1,755,939,0,0
-462,85,0,0,0,0,0,0,0,0,0,-1,762,939,0,0
-455,85,0,0,0,0,0,0,0,0,0,-1,769,939,0,0
-448,85,0,0,0,0,0,0,0,0,0,-1,776,939,0,0
-441,85,0,0,0,0,0,0,0,0,0,-1,783,939,0,0
-434,85,0,0,0,0,0,0,0,0,0,-1,790,939,0,0
-427,85,0,0,0,0,0,0,0,0,0,-1,797,939,0,0
-420,85,0,0,0,0,0,0,0,0,0,-1,804,939,0,0
-413,85,0,0,0,0,0,0,0,0,0,-1,811,939,0,0
-406,85,0,0,0,0,0,0,0,0,0,-1,818,939,0,0
-399,85,0,0,0,0,0,0,0,0,0,-1,825,939,0,0
-392,85,0,0,0,0,0,0,0,0,0,-1,832,939,0,0
-385,85,0,0,0,0,0,0,0,0,0,-1,839,939,0,0
-378,85,0,0,0,0,0,0,0,0,0,-1,846,939,0,0
-371,85,0,0,0,0,0,0,0,0,0,-1,853,939,0,0
-364,85,0,0,0,0,0,0,0,0,0,-1,860,939,0,0
-357,85,0,0,0,0,0,0,0,0,0,-1,867,939,0,0
-350,85,0,0,0,0,0,0,0,0,0,-1,874,939,0,0
-343,85,0,0,0,0,0,0,0,0,0,-1,881,939,0,0
-336,85,0,0,0,0,0,0,0,0,0,-1,888,939,0,0
-329,85,0,0,0,0,0,0,0,0,0,-1,895,939,0,0
-322,85,0,0,0,0,0,0,0,0,0,-1,902,939,0,0
-315,85,0,0,0,0,0,0,0,0,0,-1,909,939,0,0
-308,85,0,0,0,0,0,0,0,0,0,-1,916,939,0,0
-301,85,0,0,0,0,0,0,0,0,0,-1,923,939,0,0
-294,85,0,0,0,0,0,0,0,0,0,-1,930,939,0,0
-287,85,0,0,0,0,0,0,0,0,0,-1,937,939,0,0
-280,85,0,0,0,0,0,0,0,0,0,-1,944,939,0,0
-273,85,0,0,0,0,0,0,0,0,0,-1,951,939,0,0
-266,85,0,0,0,0,0,0,0,0,0,-1,958,939,0,0
-259,85,0,0,0,0,0,0,0,0,0,-1,965,939,0,0
-252,85,0,0,0,0,0,0,0,0,0,-1,972,939,0,0
-245,85,0,0,0,0,0,0,0,0,0,-1,979,939,0,0
-238,85,0,0,0,0,0,0,0,0,0,-1,986,939,0,0
-231,85,0,0,0,0,0,0,0,0,0,-1,993,939,0,0
-224,85,0,0,0,0,0,0,0,0,0,-1,1000,939,0,0
-217,85,0,0,0,0,0,0,0,0,0,-1,1007,939,0,0
-210,85,0,0,0,0,0,0,0,0,0,-1,1014,939,0,0
-203,85,0,0,0,0,0,0,0,0,0,-1,1021,939,0,0
-196,85,0,0,0,0,0,0,0,0,0,-1,1028,939,0,0
-189,85,0,0,0,0,0,0,0,0,0,-1,1035,939,0,0
-182,85,0,0,0,0,0,0,0,0,0,-1,1042,939,0,0
-175,85,0,0,0,0,0,0,0,0,0,-1,1049,939,0,0
-168,85,0,0,0,0,0,0,0,0,0,-1,1056,939,0,0
-161,85,0,0,0,0,0,0,0,0,0,-1,1063,939,0,0
-154,85,0,0,0,0,0,0,0,0,0,-1,1070,939,0,0
-147,85,0,0,0,0,0,0,0,0,0,-1,1077,939,0,0
-140,85,0,0,0,0,0,0,0,0,0,-1,1084,939,0,0
-133,85,0,0,0,0,0,0,0,0,0,-1,1091,939,0,0
-126,85,0,0,0,0,0,0,0,0,0,-1,1098,939,0,0
-119,85,0,0,0,0,0,0,0,0,0,-1,1105,939,0,0
-112,85,0,0,0,0,0,0,0,0,0,-1,1112,939,0,0
-105,85,0,0,0,0,0,0,0,0,0,-1,1119,939,0,0
-98,85,0,0,0,0,0,0,0,0,0,-1,1126,939,0,0
-91,85,0,0,0,0,0,0,0,0,0,-1,1133,939,0,0
-84,85,0,0,0,0,0,0,0,0,0,-1,1140,939,0,0
-77,85,0,0,0,0,0,0,0,0,0,-1,1147,939,0,0
-70,85,0,0,0,0,0,0,0,0,0,-1,1154,939,0,0
-63,85,0,0,0,0,0,0,0,0,0,-1,1161,939,0,0
-56,85,0,0,0,0,0,0,0,0,0,-1,1168,939,0,0
-49,85,0,0,0,0,0,0,0,0,0,-1,1175,939,0,0
-42,85,0,0,0,0,0,0,0,0,0,-1,1182,939,0,0
-35,85,0,0,0,0,0,0,0,0,0,-1,1189,939,0,0
-28,85,0,0,0,0,0,0,0,0,0,-1,1196,939,0,0
-21,85,0,0,0,0,0,0,0,0,0,-1,1203,939,0,0
-14,85,0,0,0,0,0,0,0,0,0,-1,1210,939,0,0
-7,85,0,0,0,0,0,0,0,0,0,-1,1217,939,0,0
0,85,0,0,0,0,0,0,0,0,0,-1,1224,939,0,0
7,85,0,0,0,0,0,0,0,0,0,-1,1231,939,0,0
14,85,0,0,0,0,0,0,0,0,0,-1,1238,939,0,0
21,85,0,0,0,0,0,0,0,0,0,-1,1245,939,0,0
28,85,0,0,0,0,0,0,0,0,0,-1,1252,939,0,0
35,85,0,0,0,0,0,0,0,0,0,-1,1259,939,0,0
42,85,0,0,0,0,0,0,0,0,0,-1,1266,939,0,0
49,85,0,0,0,0,0,0,0,0,0,-1,1273,939,0,0
56,85,0,0,0,0,0,0,0,0,0,-1,1280,939,0,0
63,85,0,0,0,0,0,0,0,0,0,-1,1287,939,0,0
70,85,0,0,0,0,0,0,0,0,0,-1,1294,939,0,0
77,85,0,0,0,0,0,0,0,0,0,-1,1301,939,0,0
84,85,0,0,0,0,0,0,0,0,0,-1,1308,939,0,0
91,85,0,0,0,0,0,0,0,0,0,-1,1315,939,0,0
98,85,0,0,0,0,0,0,0,0,0,-1,1322,939,0,0
105,85,0,0,0,0,0,0,0,0,0,-1,1329,939,0,0
112,85,0,0,0,0,0,0,0,0,0,-1,1336,939,0,0
119,85,0,0,0,0,0,0,0,0,0,-1,1343,939,0,0
126,85,0,0,0,0,0,0,0,0,0,-1,1350,939,0,0
133,85,0,0,0,0,0,0,0,0,0,-1,1357,939,0,0
140,85,0,0,0,0,0,0,0,0,0,-1,1364,939,0,0
147,85,0,0,0,0,0,0,0,0,0,-1,1371,939,0,0
154,85,0,0,0,0,0,0,0,0,0,-1,1378,939,0,0
161,85,0,0,0,0,0,0,0,0,0,-1,1385,939,0,0
168,85,0,0,0,0,0,0,0,0,0,-1,1392,939,0,0
175,85,0,0,0,0,0,0,0,0,0,-1,1399,939,0,0
182,85,0,0,0,0,0,0,0,0,0,-1,1406,939,0,0
189,85,0,0,0,0,0,0,0,0,0,-1,1413,939,0,0
196,85,0,0,0,0,0,0,0,0,0,-1,1420,939,0,0
203,85,0,0,0,0,0,0,0,0,0,-1,1427,939,0,0
210,85,0,0,0,0,0,0,0,0,0,-1,1434,939,0,0
217,85,0,0,0,0,0,0,0,0,0,-1,1441,939,0,0
224,85,0,0,0,0,0,0,0,0,0,-1,1448,939,0,0
231,85,0,0,0,0,0,0,0,0,0,-1,1455,939,0,0
238,85,0,0,0,0,0,0,0,0,0,-1,1462,939,0,0
245,85,0,0,0,0,0,0,0,0,0,-1,1469,939,0,0
252,85,0,0,0,0,0,0,0,0,0,-1,1476,939,0,0
259,85,0,0,0,0,0,0,0,0,0,-1,1483,939,0,0
266,85,0,0,0,0,0,0,0,0,0,-1,1490,939,0,0
273,85,0,0,0,0,0,0,0,0,0,-1,1497,939,0,0
280,85,0,0,0,0,0,0,0,0,0,-1,1504,939,0,0
287,85,0,0,0,0,0,0,0,0,0,-1,1511,939,0,0
294,85,0,0,0,0,0,0,0,0,0,-1,1518,939,0,0
301,85,0,0,0,0,0,0,0,0,0,-1,1525,939,0,0
308,85,0,0,0,0,0,0,0,0,0,-1,1532,939,0,0
315,85,0,0,0,0,0,0,0,0,0,-1,1539,939,0,0
322,85,0,0,0,0,0,0,0,0,0,-1,1546,939,0,0
329,85,0,0,0,0,0,0,0,0,0,-1,1553,939,0,0
336,85,0,0,0,0,0,0,0,0,0,-1,1560,939,0,0
343,85,0,0,0,0,0,0,0,0,0,-1,1567,939,0,0
350,85,0,0,0,0,0,0,0,0,0,-1,1574,939,0,0
357,85,0,0,0,0,0,0,0,0,0,-1,1581,939,0,0
364,85,0,0,0,0,0,0,0,0,0,-1,1588,939,0,0
371,85,0,0,0,0,0,0,0,0,0,-1,1595,939,0,0
378,85,0,0,0,0,0,0,0,0,0,-1,1602,939,0,0
385,85,0,0,0,0,0,0,0,0,0,-1,1609,939,0,0
392,85,0,0,0,0,0,0,0,0,0,-1,1616,939,0,0
399,85,0,0,0,0,0,0,0,0,0,-1,1623,939,0,0
406,85,0,0,0,0,0,0,0,0,0,-1,1630,939,0,0
413,85,0,0,0,0,0,0,0,0,0,-1,1637,939,0,0
420,85,0,0,0,0,0,0,0,0,0,-1,1644,939,0,0
427,85,0,0,0,0,0,0,0,0,0,-1,1651,939,0,0
434,85,0,0,0,0,0,0,0,0,0,-1,1658,939,0,0
441,85,0,0,0,0,0,0,0,0,0,-1,1665,939,0,0
448,85,0,0,0,0,0,0,0,0,0,-1,1672,939,0,0
455,85,0,0,0,0,0,0,0,0,0,-1,1679,939,0,0
462,85,0,0,0,0,0,0,0,0,0,-1,1686,939,0,0
469,85,0,0,0,0,0,0,0,0,0,-1,1693,939,0,0
476,85,0,0,0,0,0,0,0,0,0,-1,1700,939,0,0
483,85,0,0,0,0,0,0,0,0,0,-1,1707,939,0,0
490,85,0,0,0,0,0,0,0,0,0,-1,1714,939,0,0
497,85,0,0,0,0,0,0,0,0,0,-1,1721,939,0,0
504,85,0,0,0,0,0,0,0,0,0,-1,1728,939,0,0
511,85,0,0,0,0,0,0,0,0,0,-1,1735,939,0,0
518,85,0,0,0,0,0,0,0,0,0,-1,1742,939,0,0
525,85,0,0,0,0,0,0,0,0,0,-1,1749,939,0,0
532,85,0,0,0,0,0,0,0,0,0,-1,1756,939,0,0
539,85,0,0,0,0,0,0,0,0,0,-1,1763,939,0,0
546,85,0,0,0,0,0,0,0,0,0,-1,1770,939,0,0
553,85,0,0,0,0,0,0,0,0,0,-1,1777,939,0,0
560,85,0,0,0,0,0,0,0,0,0,-1,1784,939,0,0
567,85,0,0,0,0,0,0,0,0,0,-1,1791,939,0,0
574,85,0,0,0,0,0,0,0,0,0,-1,1798,939,0,0
581,85,0,0,0,0,0,0,0,0,0,-1,1805,939,0,0
588,85,0,0,0,0,0,0,0,0,0,-1,1812,939,0,0
595,85,0,0,0,0,0,0,0,0,0,-1,1819,939,0,0
602,85,0,0,0,0,0,0,0,0,0,-1,1826,939,0,0
609,85,0,0,0,0,0,0,0,0,0,-1,1833,939,0,0
616,85,0,0,0,0,0,0,0,0,0,-1,1840,939,0,0
623,85,0,0,0,0,0,0,0,0,0,-1,1847,939,0,0
630,85,0,0,0,0,0,0,0,0,0,-1,1854,939,0,0
637,85,71.6302,2.49744,0,0,0,0,0,0,0,-1,1861,939,71.6302,-2.49745
644,85,71.7451,2.27997,-0.00227275,0.00133069,0.00069947,0.00146171,-0.00240376,1.38564,0.00225371,0.0421953,1868,939,71.7451,-2.27995
651,85,71.7479,2.30011,-0.00172549,0.00121783,0.000638975,0.00135056,-0.00185822,1.36598,0.0018603,0.0433345,1875,939,71.748,-2.30012
658,85,71.7384,2.4295,-0.0012478,0.00101653,0.000520578,0.00113048,-0.00136175,1.35531,0.00144095,0.0433725,1882,939,71.7384,-2.42952
665,85,71.688,2.42749,-0.000697169,0.00082973,0.000356944,0.000909053,-0.000776491,1.35212,0.000974152,0.0425188,1889,939,71.688,-2.4275
672,85,71.7076,2.35492,-0.000713506,0.000411411,0.000301727,0.00048723,-0.000789326,1.32461,0.000743867,0.0406412,1896,939,71.7077,-2.35494
679,85,71.7318,2.31805,-0.000950399,-0.000201562,0.000287879,-0.000103684,-0.00104828,1.24306,0.000666982,0.0385748,1903,939,71.7318,-2.31808
686,85,71.6832,2.26611,-0.00107914,-0.000652464,5.77691e-05,-0.000644781,-0.00108682,1.43857,0.000631105,0.0354249,1910,939,71.6833,-2.2661
693,85,71.7175,2.29333,-0.00131931,-0.000749781,-0.000282518,-0.000633413,-0.00143568,-1.18008,0.000830798,0.0307349,1917,939,71.7176,-2.29335
700,85,71.7369,2.31232,-0.00186674,-0.000763144,-0.000591616,-0.000505936,-0.00212395,-1.16069,0.00128106,0.0445848,1924,939,71.7369,-2.3123
707,85,71.8876,2.31824,0,0,0,0,0,0,0,-1,1931,939,71.8875,-2.31826
714,85,68.3751,4.18542,0,0,0,0,0,0,0,-1,1938,939,68.3751,-4.18544
721,85,68.0356,4.92188,-0.00353764,0.000790746,-0.00180818,0.00144671,-0.0041936,-1.22279,0.00338271,0.0351647,1945,939,68.0357,-4.92188
728,85,67.7106,5.71875,-0.00395397,0.00194092,-0.0021784,0.00265857,-0.00467162,-1.25256,0.00428495,0.0373549,1952,939,67.7106,-5.71875
735,85,67.7161,6.18689,-0.00408279,0.00323054,-0.00255758,0.00403621,-0.00488846,-1.26563,0.00516048,0.0349221,1959,939,67.7161,-6.18687
742,85,67.7961,6.74896,-0.00355242,0.00526044,-0.0031921,0.00629516,-0.00458714,-1.25733,0.00630864,0.0233575,1966,939,67.7962,-6.74897
749,85,67.6731,7.34076,-0.00172402,0.00824764,-0.00417819,0.00976687,-0.00324325,-1.22205,0.00781982,0.0168388,1973,939,67.6731,-7.34075
756,85,67.5011,7.87488,0.00247781,0.0119517,-0.00549427,0.0144691,-3.95998e-05,-1.14115,0.00965931,0.0149422,1980,939,67.5011,-7.87487
763,85,67.4314,8.43073,0.00855949,0.0159709,-0.00700475,0.0201897,0.00434061,-1.0287,0.0122716,0.014579,1987,939,67.4314,-8.43073
770,85,67.3584,8.92847,0.0167724,0.0197655,-0.00885744,0.0272519,0.00928597,-0.86909,0.0159977,0.0202674,1994,939,67.3584,-8.92848
777,85,67.6377,9.41437,0,0,0,0,0,0,0,-1,2001,939,67.6378,-9.41438
784,85,67.9541,10.0502,0,0,0,0,0,0,0,-1,2008,939,67.954,-10.0502
791,85,66.7012,10.0032,0,0,0,0,0,0,0,-1,2015,939,66.7011,-10.0033
798,85,66.448,10.014,0,0,0,0,0,0,0,-1,2022,939,66.448,-10.014
805,85,67.4045,8.44751,0,0,0,0,0,0,0,-1,2029,939,67.4046,-8.4475
812,85,0,0,0,0,0,0,0,0,0,-1,2036,939,0,0
-700,78,0,0,0,0,0,0,0,0,0,-1,524,946,0,0
-693,78,0,0,0,0,0,0,0,0,0,-1,531,946,0,0
-686,78,-59.5607,2.92731,0.315429,0.0587064,0.0578436,0.32786,0.0462753,0.211689,0.204897,0.0440514,538,946,-59.5607,-2.92734
-679,78,-57.8782,3.54022,0.262902,0.0853145,0.0531068,0.277572,0.0706449,0.269508,0.16657,0.0465254,545,946,-57.8782,-3.54021
-672,78,-54.7778,10.5694,0,0,0,0,0,0,0,-1,552,946,-54.7778,-10.5694
-665,78,-54.8254,9.828,0,0,0,0,0,0,0,-1,559,946,-54.8254,-9.82801
-658,78,-53.9708,8.88074,0,0,0,0,0,0,0,-1,566,946,-53.9708,-8.88074
-651,78,-53.3887,8.26715,0.0957053,0.0816069,0.0260407,0.115634,0.0616782,0.653216,0.0668109,0.0480116,573,946,-53.3887,-8.26713
-644,78,-52.6674,7.62872,0.0675658,0.069114,0.0207745,0.0891288,0.047551,0.804021,0.051497,0.0342416,580,946,-52.6674,-7.6287
-637,78,-53.0104,7.15277,0.0449341,0.055353,0.0163924,0.0673438,0.0329433,0.939249,0.038884,0.023216,587,946,-53.0105,-7.15278
-630,78,-53.2023,6.66333,0.0255053,0.0435084,0.013196,0.0504806,0.0185331,1.08472,0.029486,0.0192841,594,946,-53.2023,-6.66332
-623,78,-53.2532,6.11298,0.00956442,0.0303119,0.00949077,0.0339984,0.00587797,1.20031,0.0209825,0.0135769,601,946,-53.2532,-6.113
-616,78,-53.2711,5.57373,0.00116968,0.0177557,0.00609142,0.0197525,-0.000827081,1.25404,0.0134525,0.0127991,608,946,-53.271,-5.57373
-609,78,-53.3057,5.08728,-0.000759299,0.00574404,0.00398002,0.00763182,-0.00264708,1.12791,0.00616275,0.0129765,615,946,-53.3057,-5.08725
-602,78,-53.3244,4.52875,-0.000988543,0.00265808,0.00338384,0.00467858,-0.00300904,1.03251,0.0044732,0.0185343,622,946,-53.3244,-4.52873
-595,78,-53.2,3.91241,-0.00132715,0.00049692,0.0031011,0.00281732,-0.00364755,0.928416,0.00374274,0.0179188,629,946,-53.2,-3.91243
-588,78,-53.1994,3.38513,-0.00130919,-0.000576432,0.00259499,0.00167792,-0.00356354,0.855528,0.00309074,0.016064,636,946,-53.1994,-3.38511
-581,78,-53.1739,2.76105,0,0,0,0,0,0,0,-1,643,946,-53.1739,-2.76103
-574,78,-55.7588,0.352417,0,0,0,0,0,0,0,-1,650,946,-55.7588,-0.352389
-567,78,-55.6884,0.462219,0.000192346,-0.00188396,0.000387755,0.000262397,-0.00195401,0.17873,0.00139837,0.0351455,657,946,-55.6884,-0.462213
-560,78,-55.6409,0.55542,0.000441015,-0.00178302,-0.000285202,0.000477005,-0.00181902,-0.12553,0.00139905,0.0327943,664,946,-55.6409,-0.555404
-553,78,-55.626,0.440918,0.000727447,-0.00118372,-0.00108252,0.00121581,-0.00167208,-0.423799,0.00167425,0.0433185,671,946,-55.626,-0.440892
-546,78,-55.5818,0.352356,0.00138401,-0.000124357,-0.00206112,0.00282459,-0.00156494,-0.610009,0.00256884,0.0445028,678,946,-55.5818,-0.352334
-539,78,-55.7009,0.795898,0.00268485,0.00133051,-0.00337307,0.00544805,-0.00143269,-0.686336,0.00419202,0.0392761,685,946,-55.7009,-0.795924
-532,78,-55.5775,0.614014,0.00502773,0.00302646,-0.00529776,0.00941852,-0.00136434,-0.692058,0.00677971,0.0374561,692,946,-55.5775,-0.614026
-525,78,-55.5005,0.377869,0.00732354,0.00478522,-0.00736011,0.0135231,-0.00141436,-0.700019,0.00952194,0.0378948,699,946,-55.5006,-0.377861
-518,78,-55.6456,0.0982666,0.0102247,0.00671502,-0.00954915,0.0181789,-0.00123921,-0.694528,0.0125527,0.0395205,706,946,-55.6456,-0.0982709
-511,78,0,0,0,0,0,0,0,0,0,-1,713,946,0,0
-504,78,0,0,0,0,0,0,0,0,0,-1,720,946,0,0
-497,78,0,0,0,0,0,0,0,0,0,-1,727,946,0,0
-490,78,0,0,0,0,0,0,0,0,0,-1,734,946,0,0
-483,78,0,0,0,0,0,0,0,0,0,-1,741,946,0,0
-476,78,0,0,0,0,0,0,0,0,0,-1,748,946,0,0
-469,78,0,0,0,0,0,0,0,0,0,-1,755,946,0,0
-462,78,0,0,0,0,0,0,0,0,0,-1,762,946,0,0
-455,78,0,0,0,0,0,0,0,0,0,-1,769,946,0,0
-448,78,0,0,0,0,0,0,0,0,0,-1,776,946,0,0
-441,78,0,0,0,0,0,0,0,0,0,-1,783,946,0,0
-434,78,0,0,0,0,0,0,0,0,0,-1,790,946,0,0
-427,78,0,0,0,0,0,0,0,0,0,-1,797,946,0,0
-420,78,0,0,0,0,0,0,0,0,0,-1,804,946,0,0
-413,78,0,0,0,0,0,0,0,0,0,-1,811,946,0,0
-406,78,0,0,0,0,0,0,0,0,0,-1,818,946,0,0
-399,78,0,0,0,0,0,0,0,0,0,-1,825,946,0,0
-392,78,0,0,0,0,0,0,0,0,0,-1,832,946,0,0
-385,78,0,0,0,0,0,0,0,0,0,-1,839,946,0,0
-378,78,0,0,0,0,0,0,0,0,0,-1,846,946,0,0
-371,78,0,0,0,0,0,0,0,0,0,-1,853,946,0,0
-364,78,0,0,0,0,0,0,0,0,0,-1,860,946,0,0
-357,78,0,0,0,0,0,0,0,0,0,-1,867,946,0,0
-350,78,0,0,0,0,0,0,0,0,0,-1,874,946,0,0
-343,78,0,0,0,0,0,0,0,0,0,-1,881,946,0,0
-336,78,0,0,0,0,0,0,0,0,0,-1,888,946,0,0
-329,78,0,0,0,0,0,0,0,0,0,-1,895,946,0,0
-322,78,0,0,0,0,0,0,0,0,0,-1,902,946,0,0
-315,78,0,0,0,0,0,0,0,0,0,-1,909,946,0,0
-308,78,0,0,0,0,0,0,0,0,0,-1,916,946,0,0
-301,78,0,0,0,0,0,0,0,0,0,-1,923,946,0,0
-294,78,0,0,0,0,0,0,0,0,0,-1,930,946,0,0
-287,78,0,0,0,0,0,0,0,0,0,-1,937,946,0,0
-280,78,0,0,0,0,0,0,0,0,0,-1,944,946,0,0
-273,78,0,0,0,0,0,0,0,0,0,-1,951,946,0,0
-266,78,0,0,0,0,0,0,0,0,0,-1,958,946,0,0
-259,78,0,0,0,0,0,0,0,0,0,-1,965,946,0,0
-252,78,0,0,0,0,0,0,0,0,0,-1,972,946,0,0
-245,78,0,0,0,0,0,0,0,0,0,-1,979,946,0,0
-238,78,0,0,0,0,0,0,0,0,0,-1,986,946,0,0
-231,78,0,0,0,0,0,0,0,0,0,-1,993,946,0,0
-224,78,0,0,0,0,0,0,0,0,0,-1,1000,946,0,0
-217,78,0,0,0,0,0,0,0,0,0,-1,1007,946,0,0
-210,78,0,0,0,0,0,0,0,0,0,-1,1014,946,0,0
-203,78,0,0,0,0,0,0,0,0,0,-1,1021,946,0,0
-196,78,0,0,0,0,0,0,0,0,0,-1,1028,946,0,0
-189,78,0,0,0,0,0,0,0,0,0,-1,1035,946,0,0
-182,78,0,0,0,0,0,0,0,0,0,-1,1042,946,0,0
-175,78,0,0,0,0,0,0,0,0,0,-1,1049,946,0,0
-168,78,0,0,0,0,0,0,0,0,0,-1,1056,946,0,0
-161,78,0,0,0,0,0,0,0,0,0,-1,1063,946,0,0
-154,78,0,0,0,0,0,0,0,0,0,-1,1070,946,0,0
-147,78,0,0,0,0,0,0,0,0,0,-1,1077,946,0,0
-140,78,0,0,0,0,0,0,0,0,0,-1,1084,946,0,0
-133,78,0,0,0,0,0,0,0,0,0,-1,1091,946,0,0
-126,78,0,0,0,0,0,0,0,0,0,-1,1098,946,0,0
-119,78,0,0,0,0,0,0,0,0,0,-1,1105,946,0,0
-112,78,0,0,0,0,0,0,0,0,0,-1,1112,946,0,0
-105,78,0,0,0,0,0,0,0,0,0,-1,1119,946,0,0
-98,78,0,0,0,0,0,0,0,0,0,-1,1126,946,0,0
-91,78,0,0,0,0,0,0,0,0,0,-1,1133,946,0,0
-84,78,0,0,0,0,0,0,0,0,0,-1,1140,946,0,0
-77,78,0,0,0,0,0,0,0,0,0,-1,1147,946,0,0
-70,78,0,0,0,0,0,0,0,0,0,-1,1154,946,0,0
-63,78,0,0,0,0,0,0,0,0,0,-1,1161,946,0,0
-56,78,0,0,0,0,0,0,0,0,0,-1,1168,946,0,0
-49,78,0,0,0,0,0,0,0,0,0,-1,1175,946,0,0
-42,78,0,0,0,0,0,0,0,0,0,-1,1182,946,0,0
-35,78,0,0,0,0,0,0,0,0,0,-1,1189,946,0,0
-28,78,0,0,0,0,0,0,0,0,0,-1,1196,946,0,0
-21,78,0,0,0,0,0,0,0,0,0,-1,1203,946,0,0
-14,78,0,0,0,0,0,0,0,0,0,-1,1210,946,0,0
-7,78,0,0,0,0,0,0,0,0,0,-1,1217,946,0,0
0,78,0,0,0,0,0,0,0,0,0,-1,1224,946,0,0
7,78,0,0,0,0,0,0,0,0,0,-1,1231,946,0,0
14,78,0,0,0,0,0,0,0,0,0,-1,1238,946,0,0
21,78,0,0,0,0,0,0,0,0,0,-1,1245,946,0,0
28,78,0,0,0,0,0,0,0,0,0,-1,1252,946,0,0
35,78,0,0,0,0,0,0,0,0,0,-1,1259,946,0,0
42,78,0,0,0,0,0,0,0,0,0,-1,1266,946,0,0
49,78,0,0,0,0,0,0,0,0,0,-1,1273,946,0,0
56,78,0,0,0,0,0,0,0,0,0,-1,1280,946,0,0
63,78,0,0,0,0,0,0,0,0,0,-1,1287,946,0,0
70,78,0,0,0,0,0,0,0,0,0,-1,1294,946,0,0
77,78,0,0,0,0,0,0,0,0,0,-1,1301,946,0,0
84,78,0,0,0,0,0,0,0,0,0,-1,1308,946,0,0
91,78,0,0,0,0,0,0,0,0,0,-1,1315,946,0,0
98,78,0,0,0,0,0,0,0,0,0,-1,1322,946,0,0
105,78,0,0,0,0,0,0,0,0,0,-1,1329,946,0,0
112,78,0,0,0,0,0,0,0,0,0,-1,1336,946,0,0
119,78,0,0,0,0,0,0,0,0,0,-1,1343,946,0,0
126,78,0,0,0,0,0,0,0,0,0,-1,1350,946,0,0
133,78,0,0,0,0,0,0,0,0,0,-1,1357,946,0,0
140,78,0,0,0,0,0,0,0,0,0,-1,1364,946,0,0
147,78,0,0,0,0,0,0,0,0,0,-1,1371,946,0,0
154,78,0,0,0,0,0,0,0,0,0,-1,1378,946,0,0
161,78,0,0,0,0,0,0,0,0,0,-1,1385,946,0,0
168,78,0,0,0,0,0,0,0,0,0,-1,1392,946,0,0
175,78,0,0,0,0,0,0,0,0,0,-1,1399,946,0,0
182,78,0,0,0,0,0,0,0,0,0,-1,1406,946,0,0
189,78,0,0,0,0,0,0,0,0,0,-1,1413,946,0,0
196,78,0,0,0,0,0,0,0,0,0,-1,1420,946,0,0
203,78,0,0,0,0,0,0,0,0,0,-1,1427,946,0,0
210,78,0,0,0,0,0,0,0,0,0,-1,1434,946,0,0
217,78,0,0,0,0,0,0,0,0,0,-1,1441,946,0,0
224,78,0,0,0,0,0,0,0,0,0,-1,1448,946,0,0
231,78,0,0,0,0,0,0,0,0,0,-1,1455,946,0,0
238,78,0,0,0,0,0,0,0,0,0,-1,1462,946,0,0
245,78,0,0,0,0,0,0,0,0,0,-1,1469,946,0,0
252,78,0,0,0,0,0,0,0,0,0,-1,1476,946,0,0
259,78,0,0,0,0,0,0,0,0,0,-1,1483,946,0,0
266,78,0,0,0,0,0,0,0,0,0,-1,1490,946,0,0
273,78,0,0,0,0,0,0,0,0,0,-1,1497,946,0,0
280,78,0,0,0,0,0,0,0,0,0,-1,1504,946,0,0
287,78,0,0,0,0,0,0,0,0,0,-1,1511,946,0,0
294,78,0,0,0,0,0,0,0,0,0,-1,1518,946,0,0
301,78,0,0,0,0,0,0,0,0,0,-1,1525,946,0,0
308,78,0,0,0,0,0,0,0,0,0,-1,1532,946,0,0
315,78,0,0,0,0,0,0,0,0,0,-1,1539,946,0,0
322,78,0,0,0,0,0,0,0,0,0,-1,1546,946,0,0
329,78,0,0,0,0,0,0,0,0,0,-1,1553,946,0,0
336,78,0,0,0,0,0,0,0,0,0,-1,1560,946,0,0
343,78,0,0,0,0,0,0,0,0,0,-1,1567,946,0,0
350,78,0,0,0,0,0,0,0,0,0,-1,1574,946,0,0
357,78,0,0,0,0,0,0,0,0,0,-1,1581,946,0,0
364,78,0,0,0,0,0,0,0,0,0,-1,1588,946,0,0
371,78,0,0,0,0,0,0,0,0,0,-1,1595,946,0,0
378,78,0,0,0,0,0,0,0,0,0,-1,1602,946,0,0
385,78,0,0,0,0,0,0,0,0,0,-1,1609,946,0,0
392,78,0,0,0,0,0,0,0,0,0,-1,1616,946,0,0
399,78,0,0,0,0,0,0,0,0,0,-1,1623,946,0,0
406,78,0,0,0,0,0,0,0,0,0,-1,1630,946,0,0
413,78,0,0,0,0,0,0,0,0,0,-1,1637,946,0,0
420,78,0,0,0,0,0,0,0,0,0,-1,1644,946,0,0
427,78,0,0,0,0,0,0,0,0,0,-1,1651,946,0,0
434,78,0,0,0,0,0,0,0,0,0,-1,1658,946,0,0
441,78,0,0,0,0,0,0,0,0,0,-1,1665,946,0,0
448,78,0,0,0,0,0,0,0,0,0,-1,1672,946,0,0
455,78,0,0,0,0,0,0,0,0,0,-1,1679,946,0,0
462,78,0,0,0,0,0,0,0,0,0,-1,1686,946,0,0
469,78,0,0,0,0,0,0,0,0,0,-1,1693,946,0,0
476,78,0,0,0,0,0,0,0,0,0,-1,1700,946,0,0
483,78,0,0,0,0,0,0,0,0,0,-1,1707,946,0,0
490,78,0,0,0,0,0,0,0,0,0,-1,1714,946,0,0
497,78,0,0,0,0,0,0,0,0,0,-1,1721,946,0,0
504,78,0,0,0,0,0,0,0,0,0,-1,1728,946,0,0
511,78,0,0,0,0,0,0,0,0,0,-1,1735,946,0,0
518,78,0,0,0,0,0,0,0,0,0,-1,1742,946,0,0
525,78,0,0,0,0,0,0,0,0,0,-1,1749,946,0,0
532,78,0,0,0,0,0,0,0,0,0,-1,1756,946,0,0
539,78,0,0,0,0,0,0,0,0,0,-1,1763,946,0,0
546,78,0,0,0,0,0,0,0,0,0,-1,1770,946,0,0
553,78,0,0,0,0,0,0,0,0,0,-1,1777,946,0,0
560,78,0,0,0,0,0,0,0,0,0,-1,1784,946,0,0
567,78,0,0,0,0,0,0,0,0,0,-1,1791,946,0,0
574,78,0,0,0,0,0,0,0,0,0,-1,1798,946,0,0
581,78,0,0,0,0,0,0,0,0,0,-1,1805,946,0,0
588,78,0,0,0,0,0,0,0,0,0,-1,1812,946,0,0
595,78,0,0,0,0,0,0,0,0,0,-1,1819,946,0,0
602,78,0,0,0,0,0,0,0,0,0,-1,1826,946,0,0
609,78,0,0,0,0,0,0,0,0,0,-1,1833,946,0,0
616,78,0,0,0,0,0,0,0,0,0,-1,1840,946,0,0
623,78,0,0,0,0,0,0,0,0,0,-1,1847,946,0,0
630,78,0,0,0,0,0,0,0,0,0,-1,1854,946,0,0
637,78,71.6954,2.18011,-0.0015743,0.000476273,0.000441623,0.000567339,-0.00166537,1.36744,0.00134001,0.0462006,1861,946,71.6954,-2.18013
644,78,71.8191,2.03601,-0.00137105,0.00089824,0.000659805,0.00107614,-0.00154894,1.30744,0.00152376,0.044606,1868,946,71.8191,-2.03598
651,78,71.7715,2.00024,-0.001075,0.000919829,0.000648639,0.00111219,-0.00126736,1.2825,0.00137481,0.0437735,1875,946,71.7714,-2.00025
658,78,71.6188,2.35052,-0.000810292,0.000850423,0.00056513,0.00102449,-0.000984357,1.27201,0.00115988,0.0390953,1882,946,71.6188,-2.35052
665,78,71.6504,2.46283,-0.000490885,0.000698063,0.000362629,0.000799936,-0.000592758,1.29693,0.000807033,0.0396565,1889,946,71.6503,-2.46283
672,78,71.6334,2.48132,-0.000679508,0.000285273,0.000253761,0.000347947,-0.000742182,1.32866,0.000642959,0.0393189,1896,946,71.6335,-2.4813
679,78,71.6873,2.47607,-0.00105563,-0.000386667,0.000208584,-0.000326959,-0.00111534,1.292,0.000662054,0.0371406,1903,946,71.6873,-2.47606
686,78,71.7073,2.34753,-0.00125988,-0.00096886,-3.49912e-05,-0.000964712,-0.00126403,-1.4528,0.000762746,0.0353515,1910,946,71.7073,-2.34751
693,78,71.6797,2.21307,-0.001574,-0.00120081,-0.000360097,-0.000981834,-0.00179298,-1.02444,0.00103674,0.0321878,1917,946,71.6797,-2.21305
700,78,71.6848,2.22339,-0.00217341,-0.00127504,-0.000662311,-0.000923959,-0.00252449,-1.08337,0.00147486,0.0280326,1924,946,71.6848,-2.22341
707,78,71.77,2.37543,0,0,0,0,0,0,0,-1,1931,946,71.77,-2.37544
714,78,68.7261,4.31305,0,0,0,0,0,0,0,-1,1938,946,68.7261,-4.31306
721,78,68.5321,4.98767,-0.00401664,0.000395925,-0.00189183,0.00109596,-0.00471668,-1.21639,0.00356635,0.0331868,1945,946,68.5321,-4.98767
728,78,68.4015,5.8139,-0.00442977,0.0015966,-0.00221776,0.00232477,-0.00515794,-1.25355,0.00442216,0.0463276,1952,946,68.4015,-5.81388
735,78,68.455,6.27509,-0.00449205,0.00288309,-0.00258246,0.00369744,-0.0053064,-1.26533,0.00522596,0.0316464,1959,946,68.4549,-6.27507
742,78,68.4481,6.76465,-0.00389253,0.00492249,-0.00323884,0.00598456,-0.0049546,-1.25393,0.00632505,0.0233609,1966,946,68.4481,-6.76464
749,78,68.2903,7.29333,-0.00203001,0.00789362,-0.00429892,0.00949688,-0.00363328,-1.21383,0.00782862,0.0173089,1973,946,68.2903,-7.29335
756,78,68.1968,7.77527,0.0023427,0.0115808,-0.00582209,0.0143936,-0.0004701,-1.12074,0.0097562,0.0162301,1980,946,68.1967,-7.77529
763,78,68.0774,8.28485,0.00888637,0.0156335,-0.00769539,0.0206623,0.00385755,-0.991975,0.012686,0.0168923,1987,946,68.0774,-8.28488
770,78,67.9385,8.76599,0.0177939,0.0193454,-0.0100661,0.0286656,0.00847367,-0.823854,0.0170048,0.0225379,1994,946,67.9384,-8.76599
777,78,67.8162,9.43542,0.029989,0.0225074,-0.0131381,0.0399085,0.0125879,-0.646703,0.0235587,0.0429249,2001,946,67.8161,-9.4354
784,78,67.7493,10.1458,0,0,0,0,0,0,0,-1,2008,946,67.7493,-10.1457
791,78,66.479,9.45355,0,0,0,0,0,0,0,-1,2015,946,66.4791,-9.45353
798,78,67.9287,7.90448,0,0,0,0,0,0,0,-1,2022,946,67.9287,-7.90446
805,78,68.5852,7.34106,0,0,0,0,0,0,0,-1,2029,946,68.5853,-7.34105
812,78,0,0,0,0,0,0,0,0,0,-1,2036,946,0,0
-700,71,0,0,0,0,0,0,0,0,0,-1,524,953,0,0
-693,71,0,0,0,0,0,0,0,0,0,-1,531,953,0,0
-686,71,-59.4482,2.76678,0.284981,0.08032,0.0299894,0.289285,0.0760161,0.142541,0.173171,0.0458887,538,953,-59.4482,-2.76679
-679,71,-57.8672,3.36908,0.239197,0.103313,0.0315948,0.246184,0.0963262,0.21764,0.14325,0.0487837,545,953,-57.8673,-3.36908
-672,71,-56.4382,3.7821,0.195243,0.110167,0.0300307,0.204775,0.100635,0.307363,0.118233,0.0467491,552,953,-56.4382,-3.7821
-665,71,-55.6451,9.49652,0,0,0,0,0,0,0,-1,559,953,-55.6451,-9.4965
-658,71,-54.2474,9.46417,0,0,0,0,0,0,0,-1,566,953,-54.2474,-9.4642
-651,71,-53.9637,8.23743,0,0,0,0,0,0,0,-1,573,953,-53.9637,-8.23743
-644,71,-53.285,7.65405,0.0629021,0.0731516,0.0170341,0.0858151,0.0502386,0.931518,0.0497859,0.0374159,580,953,-53.285,-7.65407
-637,71,-53.6215,7.09351,0.0420436,0.0583523,0.0140695,0.0664597,0.0339362,1.04803,0.0383734,0.0214522,587,953,-53.6215,-7.09351
-630,71,-53.7854,6.5755,0.0237334,0.0455122,0.0118923,0.0507475,0.0184981,1.1561,0.0296555,0.0193495,594,953,-53.7854,-6.57548
-623,71,-53.831,6.05035,0.0088701,0.0317918,0.00902982,0.0349217,0.00574024,1.23714,0.0216232,0.016105,601,953,-53.831,-6.05033
-616,71,-53.8652,5.51129,0.000882883,0.01911,0.00602812,0.0209233,-0.000930363,1.27861,0.0142691,0.0157848,608,953,-53.8652,-5.5113
-609,71,-53.8718,5.06195,-0.000986998,0.00629302,0.00381531,0.00792617,-0.00262015,1.16634,0.0063406,0.0166016,615,953,-53.8717,-5.06194
-602,71,-53.8488,4.60199,-0.00108595,0.00313627,0.00317347,0.00483668,-0.00278636,1.0789,0.00445392,0.0185313,622,953,-53.8487,-4.60199
-595,71,-53.8088,4.10931,-0.00135882,0.000773694,0.00284029,0.00274127,-0.0033264,0.96496,0.0035086,0.0219787,629,953,-53.8088,-4.10931
-588,71,-53.7872,3.59277,-0.00119517,-0.000421222,0.00229549,0.00151969,-0.00313608,0.868903,0.00274147,0.0285712,636,953,-53.7872,-3.5928
-581,71,-53.5772,2.97729,0,0,0,0,0,0,0,-1,643,953,-53.5772,-2.9773
-574,71,-55.7493,0.37146,0,0,0,0,0,0,0,-1,650,953,-55.7492,-0.37143
-567,71,-55.6838,0.442871,0.000593314,-0.00180861,0.000150654,0.000602727,-0.00181802,0.0623964,0.00145514,0.0194684,657,953,-55.6839,-0.442896
-560,71,-55.6559,0.511169,0.000907782,-0.00158701,-0.000516811,0.0010106,-0.00168984,-0.196391,0.00157545,0.0283562,664,953,-55.656,-0.511141
-553,71,-55.6699,0.536621,0.00134417,-0.000882378,-0.00133014,0.00196544,-0.00150365,-0.43696,0.00200879,0.0431043,671,953,-55.6699,-0.536642
-546,71,-55.6811,0.661804,0.00216582,0.000264404,-0.0023527,0.00375264,-0.00132241,-0.593383,0.00304,0.0438447,678,953,-55.6811,-0.661784
-539,71,-55.6616,0.550598,0.00355374,0.00173729,-0.00374599,0.00650003,-0.00120901,-0.666467,0.00478751,0.0404101,685,953,-55.6616,-0.550619
-532,71,-55.508,0.577576,0.00592433,0.00348552,-0.00591587,0.0107452,-0.00133531,-0.683759,0.00764751,0.0442325,692,953,-55.508,-0.577598
-525,71,-55.2602,0.475464,0.00812712,0.00529821,-0.00820432,0.015038,-0.00161269,-0.700036,0.0106039,0.0466261,699,953,-55.2602,-0.475488
-518,71,0,0,0,0,0,0,0,0,0,-1,706,953,0,0
-511,71,0,0,0,0,0,0,0,0,0,-1,713,953,0,0
-504,71,0,0,0,0,0,0,0,0,0,-1,720,953,0,0
-497,71,0,0,0,0,0,0,0,0,0,-1,727,953,0,0
-490,71,0,0,0,0,0,0,0,0,0,-1,734,953,0,0
-483,71,0,0,0,0,0,0,0,0,0,-1,741,953,0,0
-476,71,0,0,0,0,0,0,0,0,0,-1,748,953,0,0
-469,71,0,0,0,0,0,0,0,0,0,-1,755,953,0,0
-462,71,0,0,0,0,0,0,0,0,0,-1,762,953,0,0
-455,71,0,0,0,0,0,0,0,0,0,-1,769,953,0,0
-448,71,0,0,0,0,0,0,0,0,0,-1,776,953,0,0
-441,71,0,0,0,0,0,0,0,0,0,-1,783,953,0,0
-434,71,0,0,0,0,0,0,0,0,0,-1,790,953,0,0
-427,71,0,0,0,0,0,0,0,0,0,-1,797,953,0,0
-420,71,0,0,0,0,0,0,0,0,0,-1,804,953,0,0
-413,71,0,0,0,0,0,0,0,0,0,-1,811,953,0,0
-406,71,0,0,0,0,0,0,0,0,0,-1,818,953,0,0
-399,71,0,0,0,0,0,0,0,0,0,-1,825,953,0,0
-392,71,0,0,0,0,0,0,0,0,0,-1,832,953,0,0
-385,71,0,0,0,0,0,0,0,0,0,-1,839,953,0,0
-378,71,0,0,0,0,0,0,0,0,0,-1,846,953,0,0
-371,71,0,0,0,0,0,0,0,0,0,-1,853,953,0,0
-364,71,0,0,0,0,0,0,0,0,0,-1,860,953,0,0
-357,71,0,0,0,0,0,0,0,0,0,-1,867,953,0,0
-350,71,0,0,0,0,0,0,0,0,0,-1,874,953,0,0
-343,71,0,0,0,0,0,0,0,0,0,-1,881,953,0,0
-336,71,0,0,0,0,0,0,0,0,0,-1,888,953,0,0
-329,71,0,0,0,0,0,0,0,0,0,-1,895,953,0,0
-322,71,0,0,0,0,0,0,0,0,0,-1,902,953,0,0
-315,71,0,0,0,0,0,0,0,0,0,-1,909,953,0,0
-308,71,0,0,0,0,0,0,0,0,0,-1,916,953,0,0
-301,71,0,0,0,0,0,0,0,0,0,-1,923,953,0,0
-294,71,0,0,0,0,0,0,0,0,0,-1,930,953,0,0
-287,71,0,0,0,0,0,0,0,0,0,-1,937,953,0,0
-280,71,0,0,0,0,0,0,0,0,0,-1,944,953,0,0
-273,71,0,0,0,0,0,0,0,0,0,-1,951,953,0,0
-266,71,0,0,0,0,0,0,0,0,0,-1,958,953,0,0
-259,71,0,0,0,0,0,0,0,0,0,-1,965,953,0,0
-252,71,0,0,0,0,0,0,0,0,0,-1,972,953,0,0
-245,71,0,0,0,0,0,0,0,0,0,-1,979,953,0,0
-238,71,0,0,0,0,0,0,0,0,0,-1,986,953,0,0
-231,71,0,0,0,0,0,0,0,0,0,-1,993,953,0,0
-224,71,0,0,0,0,0,0,0,0,0,-1,1000,953,0,0
-217,71,0,0,0,0,0,0,0,0,0,-1,1007,953,0,0
-210,71,0,0,0,0,0,0,0,0,0,-1,1014,953,0,0
-203,71,0,0,0,0,0,0,0,0,0,-1,1021,953,0,0
-196,71,0,0,0,0,0,0,0,0,0,-1,1028,953,0,0
-189,71,0,0,0,0,0,0,0,0,0,-1,1035,953,0,0
-182,71,0,0,0,0,0,0,0,0,0,-1,1042,953,0,0
-175,71,0,0,0,0,0,0,0,0,0,-1,1049,953,0,0
-168,71,0,0,0,0,0,0,0,0,0,-1,1056,953,0,0
-161,71,0,0,0,0,0,0,0,0,0,-1,1063,953,0,0
-154,71,0,0,0,0,0,0,0,0,0,-1,1070,953,0,0
-147,71,0,0,0,0,0,0,0,0,0,-1,1077,953,0,0
-140,71,0,0,0,0,0,0,0,0,0,-1,1084,953,0,0
-133,71,0,0,0,0,0,0,0,0,0,-1,1091,953,0,0
-126,71,0,0,0,0,0,0,0,0,0,-1,1098,953,0,0
-119,71,0,0,0,0,0,0,0,0,0,-1,1105,953,0,0
-112,71,0,0,0,0,0,0,0,0,0,-1,1112,953,0,0
-105,71,0,0,0,0,0,0,0,0,0,-1,1119,953,0,0
-98,71,0,0,0,0,0,0,0,0,0,-1,1126,953,0,0
-91,71,0,0,0,0,0,0,0,0,0,-1,1133,953,0,0
-84,71,0,0,0,0,0,0,0,0,0,-1,1140,953,0,0
-77,71,0,0,0,0,0,0,0,0,0,-1,1147,953,0,0
-70,71,0,0,0,0,0,0,0,0,0,-1,1154,953,0,0
-63,71,0,0,0,0,0,0,0,0,0,-1,1161,953,0,0
-56,71,0,0,0,0,0,0,0,0,0,-1,1168,953,0,0
-49,71,0,0,0,0,0,0,0,0,0,-1,1175,953,0,0
-42,71,0,0,0,0,0,0,0,0,0,-1,1182,953,0,0
-35,71,0,0,0,0,0,0,0,0,0,-1,1189,953,0,0
-28,71,0,0,0,0,0,0,0,0,0,-1,1196,953,0,0
-21,71,0,0,0,0,0,0,0,0,0,-1,1203,953,0,0
-14,71,0,0,0,0,0,0,0,0,0,-1,1210,953,0,0
-7,71,0,0,0,0,0,0,0,0,0,-1,1217,953,0,0
0,71,0,0,0,0,0,0,0,0,0,-1,1224,953,0,0
7,71,0,0,0,0,0,0,0,0,0,-1,1231,953,0,0
14,71,0,0,0,0,0,0,0,0,0,-1,1238,953,0,0
21,71,0,0,0,0,0,0,0,0,0,-1,1245,953,0,0
28,71,0,0,0,0,0,0,0,0,0,-1,1252,953,0,0
35,71,0,0,0,0,0,0,0,0,0,-1,1259,953,0,0
42,71,0,0,0,0,0,0,0,0,0,-1,1266,953,0,0
49,71,0,0,0,0,0,0,0,0,0,-1,1273,953,0,0
56,71,0,0,0,0,0,0,0,0,0,-1,1280,953,0,0
63,71,0,0,0,0,0,0,0,0,0,-1,1287,953,0,0
70,71,0,0,0,0,0,0,0,0,0,-1,1294,953,0,0
77,71,0,0,0,0,0,0,0,0,0,-1,1301,953,0,0
84,71,0,0,0,0,0,0,0,0,0,-1,1308,953,0,0
91,71,0,0,0,0,0,0,0,0,0,-1,1315,953,0,0
98,71,0,0,0,0,0,0,0,0,0,-1,1322,953,0,0
105,71,0,0,0,0,0,0,0,0,0,-1,1329,953,0,0
112,71,0,0,0,0,0,0,0,0,0,-1,1336,953,0,0
119,71,0,0,0,0,0,0,0,0,0,-1,1343,953,0,0
126,71,0,0,0,0,0,0,0,0,0,-1,1350,953,0,0
133,71,0,0,0,0,0,0,0,0,0,-1,1357,953,0,0
140,71,0,0,0,0,0,0,0,0,0,-1,1364,953,0,0
147,71,0,0,0,0,0,0,0,0,0,-1,1371,953,0,0
154,71,0,0,0,0,0,0,0,0,0,-1,1378,953,0,0
161,71,0,0,0,0,0,0,0,0,0,-1,1385,953,0,0
168,71,0,0,0,0,0,0,0,0,0,-1,1392,953,0,0
175,71,0,0,0,0,0,0,0,0,0,-1,1399,953,0,0
182,71,0,0,0,0,0,0,0,0,0,-1,1406,953,0,0
189,71,0,0,0,0,0,0,0,0,0,-1,1413,953,0,0
196,71,0,0,0,0,0,0,0,0,0,-1,1420,953,0,0
203,71,0,0,0,0,0,0,0,0,0,-1,1427,953,0,0
210,71,0,0,0,0,0,0,0,0,0,-1,1434,953,0,0
217,71,0,0,0,0,0,0,0,0,0,-1,1441,953,0,0
224,71,0,0,0,0,0,0,0,0,0,-1,1448,953,0,0
231,71,0,0,0,0,0,0,0,0,0,-1,1455,953,0,0
238,71,0,0,0,0,0,0,0,0,0,-1,1462,953,0,0
245,71,0,0,0,0,0,0,0,0,0,-1,1469,953,0,0
252,71,0,0,0,0,0,0,0,0,0,-1,1476,953,0,0
259,71,0,0,0,0,0,0,0,0,0,-1,1483,953,0,0
266,71,0,0,0,0,0,0,0,0,0,-1,1490,953,0,0
273,71,0,0,0,0,0,0,0,0,0,-1,1497,953,0,0
280,71,0,0,0,0,0,0,0,0,0,-1,1504,953,0,0
287,71,0,0,0,0,0,0,0,0,0,-1,1511,953,0,0
294,71,0,0,0,0,0,0,0,0,0,-1,1518,953,0,0
301,71,0,0,0,0,0,0,0,0,0,-1,1525,953,0,0
308,71,0,0,0,0,0,0,0,0,0,-1,1532,953,0,0
315,71,0,0,0,0,0,0,0,0,0,-1,1539,953,0,0
322,71,0,0,0,0,0,0,0,0,0,-1,1546,953,0,0
329,71,0,0,0,0,0,0,0,0,0,-1,1553,953,0,0
336,71,0,0,0,0,0,0,0,0,0,-1,1560,953,0,0
343,71,0,0,0,0,0,0,0,0,0,-1,1567,953,0,0
350,71,0,0,0,0,0,0,0,0,0,-1,1574,953,0,0
357,71,0,0,0,0,0,0,0,0,0,-1,1581,953,0,0
364,71,0,0,0,0,0,0,0,0,0,-1,1588,953,0,0
371,71,0,0,0,0,0,0,0,0,0,-1,1595,953,0,0
378,71,0,0,0,0,0,0,0,0,0,-1,1602,953,0,0
385,71,0,0,0,0,0,0,0,0,0,-1,1609,953,0,0
392,71,0,0,0,0,0,0,0,0,0,-1,1616,953,0,0
399,71,0,0,0,0,0,0,0,0,0,-1,1623,953,0,0
406,71,0,0,0,0,0,0,0,0,0,-1,1630,953,0,0
413,71,0,0,0,0,0,0,0,0,0,-1,1637,953,0,0
420,71,0,0,0,0,0,0,0,0,0,-1,1644,953,0,0
427,71,0,0,0,0,0,0,0,0,0,-1,1651,953,0,0
434,71,0,0,0,0,0,0,0,0,0,-1,1658,953,0,0
441,71,0,0,0,0,0,0,0,0,0,-1,1665,953,0,0
448,71,0,0,0,0,0,0,0,0,0,-1,1672,953,0,0
455,71,0,0,0,0,0,0,0,0,0,-1,1679,953,0,0
462,71,0,0,0,0,0,0,0,0,0,-1,1686,953,0,0
469,71,0,0,0,0,0,0,0,0,0,-1,1693,953,0,0
476,71,0,0,0,0,0,0,0,0,0,-1,1700,953,0,0
483,71,0,0,0,0,0,0,0,0,0,-1,1707,953,0,0
490,71,0,0,0,0,0,0,0,0,0,-1,1714,953,0,0
497,71,0,0,0,0,0,0,0,0,0,-1,1721,953,0,0
504,71,0,0,0,0,0,0,0,0,0,-1,1728,953,0,0
511,71,0,0,0,0,0,0,0,0,0,-1,1735,953,0,0
518,71,0,0,0,0,0,0,0,0,0,-1,1742,953,0,0
525,71,0,0,0,0,0,0,0,0,0,-1,1749,953,0,0
532,71,0,0,0,0,0,0,0,0,0,-1,1756,953,0,0
539,71,0,0,0,0,0,0,0,0,0,-1,1763,953,0,0
546,71,0,0,0,0,0,0,0,0,0,-1,1770,953,0,0
553,71,0,0,0,0,0,0,0,0,0,-1,1777,953,0,0
560,71,0,0,0,0,0,0,0,0,0,-1,1784,953,0,0
567,71,0,0,0,0,0,0,0,0,0,-1,1791,953,0,0
574,71,0,0,0,0,0,0,0,0,0,-1,1798,953,0,0
581,71,0,0,0,0,0,0,0,0,0,-1,1805,953,0,0
588,71,0,0,0,0,0,0,0,0,0,-1,1812,953,0,0
595,71,0,0,0,0,0,0,0,0,0,-1,1819,953,0,0
602,71,0,0,0,0,0,0,0,0,0,-1,1826,953,0,0
609,71,0,0,0,0,0,0,0,0,0,-1,1833,953,0,0
616,71,0,0,0,0,0,0,0,0,0,-1,1840,953,0,0
623,71,0,0,0,0,0,0,0,0,0,-1,1847,953,0,0
630,71,0,0,0,0,0,0,0,0,0,-1,1854,953,0,0
637,71,71.7516,2.21118,-0.000241007,-0.000367096,0.00114582,0.000843497,-0.0014516,0.757915,0.00134049,0.0388294,1861,953,71.7515,-2.21117
644,71,71.6532,2.2265,-0.000369111,0.000344758,0.0011816,0.00122216,-0.00124651,0.932079,0.00142531,0.0424336,1868,953,71.6532,-2.22647
651,71,71.6079,2.21466,-0.00033035,0.000637918,0.00101441,0.0012778,-0.000970234,1.00804,0.00130195,0.0406018,1875,953,71.6079,-2.21467
658,71,71.6886,2.25098,-0.00028676,0.000795529,0.000814336,0.00123213,-0.000723358,1.07866,0.00114167,0.0370717,1882,953,71.6886,-2.25097
665,71,71.6165,2.43951,-0.000173474,0.000857408,0.000512459,0.00106881,-0.000384872,1.17955,0.000869693,0.0377526,1889,953,71.6165,-2.43951
672,71,71.5864,2.61664,-0.000479106,0.000649118,0.000322485,0.00073479,-0.000564777,1.31113,0.000752443,0.0374403,1896,953,71.5864,-2.61661
679,71,71.6681,2.60095,-0.000915472,8.44533e-05,0.000254149,0.000145342,-0.000976361,1.33565,0.000704371,0.0365275,1903,953,71.668,-2.60094
686,71,71.7579,2.40735,-0.00115691,-0.000509205,2.22798e-05,-0.00050844,-0.00115767,1.53645,0.000670029,0.0345801,1910,953,71.7579,-2.40735
693,71,71.7441,2.18207,-0.00150673,-0.000812068,-0.000267468,-0.000721018,-0.00159778,-1.24268,0.000923936,0.0324616,1917,953,71.7442,-2.18208
700,71,71.7004,2.17615,-0.00211451,-0.0009212,-0.000560286,-0.00069937,-0.00233634,-1.19381,0.00138462,0.035371,1924,953,71.7005,-2.17613
707,71,71.7415,2.32379,0,0,0,0,0,0,0,-1,1931,953,71.7415,-2.32378
714,71,69.5833,4.46637,0,0,0,0,0,0,0,-1,1938,953,69.5832,-4.46639
721,71,69.2078,5.10382,-0.00409498,0.000723486,-0.0017426,0.00128765,-0.00465914,-1.2577,0.00361263,0.039409,1945,953,69.2078,-5.10383
728,71,68.9415,5.8244,-0.00454434,0.00191754,-0.00203128,0.00250303,-0.00512982,-1.29017,0.00449297,0.0368751,1952,953,68.9415,-5.82439
735,71,68.9669,6.35242,-0.00457755,0.00310647,-0.00240777,0.0037986,-0.00526968,-1.29089,0.00525849,0.0259828,1959,953,68.9669,-6.35243
742,71,68.9935,6.81183,-0.00396126,0.00504016,-0.00313629,0.00602513,-0.00494623,-1.26649,0.00634452,0.0252508,1966,953,68.9936,-6.81181
749,71,68.9204,7.27307,-0.00216288,0.00785323,-0.00429772,0.0094445,-0.00375415,-1.21619,0.00785276,0.0209953,1973,953,68.9204,-7.27305
756,71,68.8352,7.70135,0.00220991,0.0113793,-0.00601727,0.0143595,-0.00077024,-1.11094,0.00983978,0.0189837,1980,953,68.8352,-7.70134
763,71,68.73,8.21033,0.00902249,0.0153355,-0.00824174,0.0210045,0.00335348,-0.968277,0.0130298,0.0217885,1987,953,68.7299,-8.21032
770,71,68.459,8.63214,0.0185418,0.0189314,-0.0111074,0.0298457,0.00762743,-0.794167,0.0179047,0.025825,1994,953,68.459,-8.63217
777,71,68.3677,9.26654,0.0314961,0.0218982,-0.0148148,0.0422699,0.0111245,-0.628767,0.0253006,0.0455,2001,953,68.3677,-9.26653
784,71,68.3489,9.97205,0,0,0,0,0,0,0,-1,2008,953,68.349,-9.97206
791,71,66.5613,9.12219,0,0,0,0,0,0,0,-1,2015,953,66.5614,-9.12219
798,71,65.5405,11.3743,0,0,0,0,0,0,0,-1,2022,953,65.5404,-11.3743
805,71,59.978,6.41992,0,0,0,0,0,0,0,-1,2029,953,59.9781,-6.41992
812,71,0,0,0,0,0,0,0,0,0,-1,2036,953,0,0
-700,64,0,0,0,0,0,0,0,0,0,-1,524,960,0,0
-693,64,0,0,0,0,0,0,0,0,0,-1,531,960,0,0
-686,64,-58.6729,3.23596,0,0,0,0,0,0,0,-1,538,960,-58.6729,-3.23596
-679,64,-57.6436,2.85004,0.213937,0.11049,0.00961105,0.214822,0.109604,0.0918603,0.124036,0.0478844,545,960,-57.6436,-2.85004
-672,64,-56.1872,2.52045,0.175724,0.116063,0.0131872,0.178509,0.113278,0.20812,0.104299,0.0465027,552,960,-56.1872,-2.52045
-665,64,-53.8417,8.55768,0.140547,0.112467,0.0146988,0.146834,0.10618,0.404152,0.0875432,0.0462958,559,960,-53.8417,-8.55769
-658,64,-53.972,8.22864,0,0,0,0,0,0,0,-1,566,960,-53.972,-8.22864
-651,64,-54.2945,8.07916,0.0812247,0.0901851,0.0142566,0.100649,0.0707609,0.937638,0.0596855,0.048003,573,960,-54.2945,-8.07915
-644,64,-54.2393,7.44684,0.0576539,0.0751967,0.0129955,0.082104,0.0507466,1.08226,0.0478413,0.035439,580,960,-54.2393,-7.44684
-637,64,-54.2484,6.85535,0.0384971,0.0599748,0.0115205,0.0649854,0.0334865,1.16055,0.0375252,0.0204051,587,960,-54.2484,-6.85537
-630,64,-54.3212,6.44769,0.0214327,0.0465958,0.0104223,0.050352,0.0176766,1.22489,0.0294975,0.0169478,594,960,-54.3212,-6.44768
-623,64,-54.3571,6.01434,0.00776701,0.0327483,0.00841485,0.0353184,0.00519692,1.27437,0.0220187,0.0156754,601,960,-54.3571,-6.01431
-616,64,-54.3966,5.52777,0.000275303,0.0201483,0.00579612,0.0217152,-0.00129164,1.30677,0.014926,0.0188266,608,960,-54.3966,-5.52775
-609,64,-54.3671,5.11975,-0.00149815,0.00686585,0.00353163,0.00815756,-0.00278986,1.22016,0.00656887,0.0188029,615,960,-54.3671,-5.11974
-602,64,-54.3595,4.67169,-0.00146381,0.00370462,0.00284544,0.00496419,-0.00272338,1.15406,0.00450084,0.0180908,622,960,-54.3595,-4.67168
-595,64,-54.3785,4.27771,-0.00162577,0.00126513,0.00244621,0.00266103,-0.00302168,1.05225,0.00328311,0.0275807,629,960,-54.3785,-4.27774
-588,64,-54.2379,3.88153,-0.00130558,-7.14274e-06,0.00185682,0.00131069,-0.00262341,0.953574,0.00231312,0.0418879,636,960,-54.2378,-3.88152
-581,64,-53.9788,3.35321,0,0,0,0,0,0,0,-1,643,960,-53.9788,-3.35324
-574,64,-55.7126,0.405823,0,0,0,0,0,0,0,-1,650,960,-55.7126,-0.405848
-567,64,-55.6713,0.477295,0.000767555,-0.0015264,-0.000215559,0.000787635,-0.00154648,-0.0928849,0.00137114,0.0253298,657,960,-55.6713,-0.477265
-560,64,-55.6929,0.533691,0.00117569,-0.00122836,-0.000874111,0.00145992,-0.00151258,-0.314374,0.00171626,0.0352171,664,960,-55.6929,-0.53367
-553,64,-55.7017,0.5224,0.0017695,-0.000477697,-0.00168744,0.0026732,-0.0013814,-0.491677,0.0023802,0.0410037,671,960,-55.7017,-0.522384
-546,64,-55.8184,0.642822,0.00274525,0.000684985,-0.00273937,0.00464177,-0.00121154,-0.605554,0.00356761,0.0419486,678,960,-55.8184,-0.642801
-539,64,-56.4301,0.849609,0,0,0,0,0,0,0,-1,685,960,-56.4301,-0.849618
-532,64,-55.8068,0.57251,0.0065506,0.00376754,-0.0066238,0.0119275,-0.00160931,-0.681864,0.00853878,0.0435691,692,960,-55.8068,-0.572486
-525,64,-55.3997,0.45813,0.00860662,0.00549153,-0.00912399,0.0163051,-0.0022069,-0.700859,0.0116754,0.0453886,699,960,-55.3997,-0.458147
-518,64,0,0,0,0,0,0,0,0,0,-1,706,960,0,0
-511,64,0,0,0,0,0,0,0,0,0,-1,713,960,0,0
-504,64,0,0,0,0,0,0,0,0,0,-1,720,960,0,0
-497,64,0,0,0,0,0,0,0,0,0,-1,727,960,0,0
-490,64,0,0,0,0,0,0,0,0,0,-1,734,960,0,0
-483,64,0,0,0,0,0,0,0,0,0,-1,741,960,0,0
-476,64,0,0,0,0,0,0,0,0,0,-1,748,960,0,0
-469,64,0,0,0,0,0,0,0,0,0,-1,755,960,0,0
-462,64,0,0,0,0,0,0,0,0,0,-1,762,960,0,0
-455,64,0,0,0,0,0,0,0,0,0,-1,769,960,0,0
-448,64,0,0,0,0,0,0,0,0,0,-1,776,960,0,0
-441,64,0,0,0,0,0,0,0,0,0,-1,783,960,0,0
-434,64,0,0,0,0,0,0,0,0,0,-1,790,960,0,0
-427,64,0,0,0,0,0,0,0,0,0,-1,797,960,0,0
-420,64,0,0,0,0,0,0,0,0,0,-1,804,960,0,0
-413,64,0,0,0,0,0,0,0,0,0,-1,811,960,0,0
-406,64,0,0,0,0,0,0,0,0,0,-1,818,960,0,0
-399,64,0,0,0,0,0,0,0,0,0,-1,825,960,0,0
-392,64,0,0,0,0,0,0,0,0,0,-1,832,960,0,0
-385,64,0,0,0,0,0,0,0,0,0,-1,839,960,0,0
-378,64,0,0,0,0,0,0,0,0,0,-1,846,960,0,0
-371,64,0,0,0,0,0,0,0,0,0,-1,853,960,0,0
-364,64,0,0,0,0,0,0,0,0,0,-1,860,960,0,0
-357,64,0,0,0,0,0,0,0,0,0,-1,867,960,0,0
-350,64,0,0,0,0,0,0,0,0,0,-1,874,960,0,0
-343,64,0,0,0,0,0,0,0,0,0,-1,881,960,0,0
-336,64,0,0,0,0,0,0,0,0,0,-1,888,960,0,0
-329,64,0,0,0,0,0,0,0,0,0,-1,895,960,0,0
-322,64,0,0,0,0,0,0,0,0,0,-1,902,960,0,0
-315,64,0,0,0,0,0,0,0,0,0,-1,909,960,0,0
-308,64,0,0,0,0,0,0,0,0,0,-1,916,960,0,0
-301,64,0,0,0,0,0,0,0,0,0,-1,923,960,0,0
-294,64,0,0,0,0,0,0,0,0,0,-1,930,960,0,0
-287,64,0,0,0,0,0,0,0,0,0,-1,937,960,0,0
-280,64,0,0,0,0,0,0,0,0,0,-1,944,960,0,0
-273,64,0,0,0,0,0,0,0,0,0,-1,951,960,0,0
-266,64,0,0,0,0,0,0,0,0,0,-1,958,960,0,0
-259,64,0,0,0,0,0,0,0,0,0,-1,965,960,0,0
-252,64,0,0,0,0,0,0,0,0,0,-1,972,960,0,0
-245,64,0,0,0,0,0,0,0,0,0,-1,979,960,0,0
-238,64,0,0,0,0,0,0,0,0,0,-1,986,960,0,0
-231,64,0,0,0,0,0,0,0,0,0,-1,993,960,0,0
-224,64,0,0,0,0,0,0,0,0,0,-1,1000,960,0,0
-217,64,0,0,0,0,0,0,0,0,0,-1,1007,960,0,0
-210,64,0,0,0,0,0,0,0,0,0,-1,1014,960,0,0
-203,64,0,0,0,0,0,0,0,0,0,-1,1021,960,0,0
-196,64,0,0,0,0,0,0,0,0,0,-1,1028,960,0,0
-189,64,0,0,0,0,0,0,0,0,0,-1,1035,960,0,0
-182,64,0,0,0,0,0,0,0,0,0,-1,1042,960,0,0
-175,64,0,0,0,0,0,0,0,0,0,-1,1049,960,0,0
-168,64,0,0,0,0,0,0,0,0,0,-1,1056,960,0,0
-161,64,0,0,0,0,0,0,0,0,0,-1,1063,960,0,0
-154,64,0,0,0,0,0,0,0,0,0,-1,1070,960,0,0
-147,64,0,0,0,0,0,0,0,0,0,-1,1077,960,0,0
-140,64,0,0,0,0,0,0,0,0,0,-1,1084,960,0,0
-133,64,0,0,0,0,0,0,0,0,0,-1,1091,960,0,0
-126,64,0,0,0,0,0,0,0,0,0,-1,1098,960,0,0
-119,64,0,0,0,0,0,0,0,0,0,-1,1105,960,0,0
-112,64,0,0,0,0,0,0,0,0,0,-1,1112,960,0,0
-105,64,0,0,0,0,0,0,0,0,0,-1,1119,960,0,0
-98,64,0,0,0,0,0,0,0,0,0,-1,1126,960,0,0
-91,64,0,0,0,0,0,0,0,0,0,-1,1133,960,0,0
-84,64,0,0,0,0,0,0,0,0,0,-1,1140,960,0,0
-77,64,0,0,0,0,0,0,0,0,0,-1,1147,960,0,0
-70,64,0,0,0,0,0,0,0,0,0,-1,1154,960,0,0
-63,64,0,0,0,0,0,0,0,0,0,-1,1161,960,0,0
-56,64,0,0,0,0,0,0,0,0,0,-1,1168,960,0,0
-49,64,0,0,0,0,0,0,0,0,0,-1,1175,960,0,0
-42,64,0,0,0,0,0,0,0,0,0,-1,1182,960,0,0
-35,64,0,0,0,0,0,0,0,0,0,-1,1189,960,0,0
-28,64,0,0,0,0,0,0,0,0,0,-1,1196,960,0,0
-21,64,0,0,0,0,0,0,0,0,0,-1,1203,960,0,0
-14,64,0,0,0,0,0,0,0,0,0,-1,1210,960,0,0
-7,64,0,0,0,0,0,0,0,0,0,-1,1217,960,0,0
0,64,0,0,0,0,0,0,0,0,0,-1,1224,960,0,0
7,64,0,0,0,0,0,0,0,0,0,-1,1231,960,0,0
14,64,0,0,0,0,0,0,0,0,0,-1,1238,960,0,0
21,64,0,0,0,0,0,0,0,0,0,-1,1245,960,0,0
28,64,0,0,0,0,0,0,0,0,0,-1,1252,960,0,0
35,64,0,0,0,0,0,0,0,0,0,-1,1259,960,0,0
42,64,0,0,0,0,0,0,0,0,0,-1,1266,960,0,0
49,64,0,0,0,0,0,0,0,0,0,-1,1273,960,0,0
56,64,0,0,0,0,0,0,0,0,0,-1,1280,960,0,0
63,64,0,0,0,0,0,0,0,0,0,-1,1287,960,0,0
70,64,0,0,0,0,0,0,0,0,0,-1,1294,960,0,0
77,64,0,0,0,0,0,0,0,0,0,-1,1301,960,0,0
84,64,0,0,0,0,0,0,0,0,0,-1,1308,960,0,0
91,64,0,0,0,0,0,0,0,0,0,-1,1315,960,0,0
98,64,0,0,0,0,0,0,0,0,0,-1,1322,960,0,0
105,64,0,0,0,0,0,0,0,0,0,-1,1329,960,0,0
112,64,0,0,0,0,0,0,0,0,0,-1,1336,960,0,0
119,64,0,0,0,0,0,0,0,0,0,-1,1343,960,0,0
126,64,0,0,0,0,0,0,0,0,0,-1,1350,960,0,0
133,64,0,0,0,0,0,0,0,0,0,-1,1357,960,0,0
140,64,0,0,0,0,0,0,0,0,0,-1,1364,960,0,0
147,64,0,0,0,0,0,0,0,0,0,-1,1371,960,0,0
154,64,0,0,0,0,0,0,0,0,0,-1,1378,960,0,0
161,64,0,0,0,0,0,0,0,0,0,-1,1385,960,0,0
168,64,0,0,0,0,0,0,0,0,0,-1,1392,960,0,0
175,64,0,0,0,0,0,0,0,0,0,-1,1399,960,0,0
182,64,0,0,0,0,0,0,0,0,0,-1,1406,960,0,0
189,64,0,0,0,0,0,0,0,0,0,-1,1413,960,0,0
196,64,0,0,0,0,0,0,0,0,0,-1,1420,960,0,0
203,64,0,0,0,0,0,0,0,0,0,-1,1427,960,0,0
210,64,0,0,0,0,0,0,0,0,0,-1,1434,960,0,0
217,64,0,0,0,0,0,0,0,0,0,-1,1441,960,0,0
224,64,0,0,0,0,0,0,0,0,0,-1,1448,960,0,0
231,64,0,0,0,0,0,0,0,0,0,-1,1455,960,0,0
238,64,0,0,0,0,0,0,0,0,0,-1,1462,960,0,0
245,64,0,0,0,0,0,0,0,0,0,-1,1469,960,0,0
252,64,0,0,0,0,0,0,0,0,0,-1,1476,960,0,0
259,64,0,0,0,0,0,0,0,0,0,-1,1483,960,0,0
266,64,0,0,0,0,0,0,0,0,0,-1,1490,960,0,0
273,64,0,0,0,0,0,0,0,0,0,-1,1497,960,0,0
280,64,0,0,0,0,0,0,0,0,0,-1,1504,960,0,0
287,64,0,0,0,0,0,0,0,0,0,-1,1511,960,0,0
294,64,0,0,0,0,0,0,0,0,0,-1,1518,960,0,0
301,64,0,0,0,0,0,0,0,0,0,-1,1525,960,0,0
308,64,0,0,0,0,0,0,0,0,0,-1,1532,960,0,0
315,64,0,0,0,0,0,0,0,0,0,-1,1539,960,0,0
322,64,0,0,0,0,0,0,0,0,0,-1,1546,960,0,0
329,64,0,0,0,0,0,0,0,0,0,-1,1553,960,0,0
336,64,0,0,0,0,0,0,0,0,0,-1,1560,960,0,0
343,64,0,0,0,0,0,0,0,0,0,-1,1567,960,0,0
350,64,0,0,0,0,0,0,0,0,0,-1,1574,960,0,0
357,64,0,0,0,0,0,0,0,0,0,-1,1581,960,0,0
364,64,0,0,0,0,0,0,0,0,0,-1,1588,960,0,0
371,64,0,0,0,0,0,0,0,0,0,-1,1595,960,0,0
378,64,0,0,0,0,0,0,0,0,0,-1,1602,960,0,0
385,64,0,0,0,0,0,0,0,0,0,-1,1609,960,0,0
392,64,0,0,0,0,0,0,0,0,0,-1,1616,960,0,0
399,64,0,0,0,0,0,0,0,0,0,-1,1623,960,0,0
406,64,0,0,0,0,0,0,0,0,0,-1,1630,960,0,0
413,64,0,0,0,0,0,0,0,0,0,-1,1637,960,0,0
420,64,0,0,0,0,0,0,0,0,0,-1,1644,960,0,0
427,64,0,0,0,0,0,0,0,0,0,-1,1651,960,0,0
434,64,0,0,0,0,0,0,0,0,0,-1,1658,960,0,0
441,64,0,0,0,0,0,0,0,0,0,-1,1665,960,0,0
448,64,0,0,0,0,0,0,0,0,0,-1,1672,960,0,0
455,64,0,0,0,0,0,0,0,0,0,-1,1679,960,0,0
462,64,0,0,0,0,0,0,0,0,0,-1,1686,960,0,0
469,64,0,0,0,0,0,0,0,0,0,-1,1693,960,0,0
476,64,0,0,0,0,0,0,0,0,0,-1,1700,960,0,0
483,64,0,0,0,0,0,0,0,0,0,-1,1707,960,0,0
490,64,0,0,0,0,0,0,0,0,0,-1,1714,960,0,0
497,64,0,0,0,0,0,0,0,0,0,-1,1721,960,0,0
504,64,0,0,0,0,0,0,0,0,0,-1,1728,960,0,0
511,64,0,0,0,0,0,0,0,0,0,-1,1735,960,0,0
518,64,0,0,0,0,0,0,0,0,0,-1,1742,960,0,0
525,64,0,0,0,0,0,0,0,0,0,-1,1749,960,0,0
532,64,0,0,0,0,0,0,0,0,0,-1,1756,960,0,0
539,64,0,0,0,0,0,0,0,0,0,-1,1763,960,0,0
546,64,0,0,0,0,0,0,0,0,0,-1,1770,960,0,0
553,64,0,0,0,0,0,0,0,0,0,-1,1777,960,0,0
560,64,0,0,0,0,0,0,0,0,0,-1,1784,960,0,0
567,64,0,0,0,0,0,0,0,0,0,-1,1791,960,0,0
574,64,0,0,0,0,0,0,0,0,0,-1,1798,960,0,0
581,64,0,0,0,0,0,0,0,0,0,-1,1805,960,0,0
588,64,0,0,0,0,0,0,0,0,0,-1,1812,960,0,0
595,64,0,0,0,0,0,0,0,0,0,-1,1819,960,0,0
602,64,0,0,0,0,0,0,0,0,0,-1,1826,960,0,0
609,64,0,0,0,0,0,0,0,0,0,-1,1833,960,0,0
616,64,0,0,0,0,0,0,0,0,0,-1,1840,960,0,0
623,64,0,0,0,0,0,0,0,0,0,-1,1847,960,0,0
630,64,0,0,0,0,0,0,0,0,0,-1,1854,960,0,0
637,64,0,0,0,0,0,0,0,0,0,-1,1861,960,0,0
644,64,71.5925,2.34253,0.00093778,-0.000134932,0.00188877,0.00236487,-0.00156202,0.647055,0.00228293,0.0418307,1868,960,71.5925,-2.34254
651,64,71.6891,2.28168,0.000699847,0.000429279,0.00147014,0.00204092,-0.000911792,0.739517,0.0017458,0.0383951,1875,960,71.6891,-2.2817
658,64,71.7769,2.19952,0.000499942,0.000785029,0.00111455,0.00176611,-0.000481141,0.849,0.00136633,0.0369326,1882,960,71.7768,-2.19954
665,64,71.6417,2.3772,0.0003865,0.00101667,0.000705111,0.00147389,-7.07229e-05,0.995518,0.001007,0.04032,1889,960,71.6418,-2.37717
672,64,71.5736,2.67224,-4.09135e-05,0.000977498,0.00042433,0.00113112,-0.00019454,1.22343,0.000826596,0.0417281,1896,960,71.5737,-2.67225
679,64,71.6705,2.64435,-0.000532582,0.000504349,0.000323983,0.000597251,-0.000625485,1.29154,0.00070601,0.0390726,1903,960,71.6706,-2.64433
686,64,71.7683,2.43732,-0.000795304,-9.59705e-05,0.000109017,-7.93702e-05,-0.000811904,1.41968,0.000516848,0.0338036,1910,960,71.7683,-2.43732
693,64,71.7677,2.16876,-0.00115932,-0.000489282,-0.000148285,-0.000457932,-0.00119067,-1.36245,0.00069351,0.0311076,1917,960,71.7676,-2.16878
700,64,71.7365,2.22266,-0.00175947,-0.000657434,-0.000431068,-0.000508851,-0.00190805,-1.23886,0.00114089,0.033832,1924,960,71.7364,-2.22263
707,64,71.7897,2.33209,0,0,0,0,0,0,0,-1,1931,960,71.7896,-2.33212
714,64,70.4374,4.70874,0,0,0,0,0,0,0,-1,1938,960,70.4374,-4.70873
721,64,69.7513,5.21265,-0.003892,0.000927715,-0.00152851,0.00137158,-0.00433587,-1.28818,0.00344015,0.0399029,1945,960,69.7514,-5.21267
728,64,69.4271,5.83142,-0.00441369,0.00212271,-0.00179365,0.00258255,-0.00487354,-1.31983,0.00437199,0.0266618,1952,960,69.4271,-5.83141
735,64,69.3673,6.41534,-0.00446911,0.00324411,-0.00218411,0.00381963,-0.00504463,-1.31315,0.00513404,0.0351127,1959,960,69.3673,-6.41532
742,64,69.5065,6.80212,-0.00387791,0.00512914,-0.00298526,0.00602872,-0.00477749,-1.27811,0.00625289,0.0297381,1966,960,69.5065,-6.80214
749,64,69.4602,7.25037,-0.00222906,0.00783312,-0.00423317,0.00937711,-0.00377305,-1.22106,0.00781868,0.0166549,1973,960,69.4602,-7.25036
756,64,69.3762,7.67273,0.00195885,0.0112351,-0.00609096,0.0142529,-0.00105886,-1.1108,0.0098738,0.0170551,1980,960,69.3762,-7.67274
763,64,69.3298,8.1308,0.00874729,0.0151187,-0.00857841,0.0210838,0.00278214,-0.963186,0.0132264,0.0199231,1987,960,69.3299,-8.13083
770,64,69.0417,8.47784,0.0186375,0.0186588,-0.0118585,0.0305067,0.00678962,-0.785846,0.0184948,0.020352,1994,960,69.0418,-8.47785
777,64,68.887,8.94604,0.0321274,0.0214933,-0.0160871,0.0437533,0.00986737,-0.625792,0.0264994,0.0358223,2001,960,68.8868,-8.94602
784,64,69.2798,9.2558,0.0517148,0.023156,-0.0218246,0.0635164,0.0113545,-0.49571,0.0391127,0.0438983,2008,960,69.2798,-9.25577
791,64,69.532,9.52948,0,0,0,0,0,0,0,-1,2015,960,69.532,-9.5295
798,64,68.3506,9.73883,0,0,0,0,0,0,0,-1,2022,960,68.3505,-9.73882
805,64,68.4978,9.61475,0,0,0,0,0,0,0,-1,2029,960,68.4979,-9.61473
812,64,0,0,0,0,0,0,0,0,0,-1,2036,960,0,0
-700,57,0,0,0,0,0,0,0,0,0,-1,524,967,0,0
-693,57,0,0,0,0,0,0,0,0,0,-1,531,967,0,0
-686,57,-57.9103,3.14752,0.221161,0.0853821,-0.0201419,0.224086,0.0824572,-0.144207,0.130871,0.044473,538,967,-57.9103,-3.14752
-679,57,-57.0696,2.43066,0.187032,0.105851,-0.00996504,0.188237,0.104645,-0.12037,0.108905,0.0441415,545,967,-57.0696,-2.43064
-672,57,-56.168,1.7796,0.154343,0.111477,-0.00277758,0.154523,0.111298,-0.0644373,0.0920542,0.0451555,552,967,-56.168,-1.77962
-665,57,-55.249,1.16425,0.124159,0.108493,0.002261,0.124479,0.108173,0.140503,0.07812,0.0460846,559,967,-55.249,-1.16425
-658,57,-53.7252,7.02704,0,0,0,0,0,0,0,-1,566,967,-53.7252,-7.02706
-651,57,-55.2612,6.55243,0.0724064,0.0878889,0.00765544,0.0910349,0.0692604,1.18088,0.0548908,0.0489083,573,967,-55.2612,-6.55243
-644,57,-54.9174,7.01715,0.051296,0.0735774,0.00849824,0.0764487,0.0484247,1.24497,0.0446584,0.036226,580,967,-54.9174,-7.01714
-637,57,-54.7496,6.62006,0.033969,0.0591003,0.00862894,0.0617779,0.0312915,1.26992,0.0356685,0.0217073,587,967,-54.7496,-6.62007
-630,57,-54.8396,6.27667,0.0183881,0.0460746,0.00871665,0.0485903,0.0158724,1.28982,0.0286101,0.0152574,594,967,-54.8396,-6.27669
-623,57,-54.8722,5.93854,0.00611634,0.032634,0.00761945,0.0346674,0.00408293,1.31,0.021878,0.0137054,601,967,-54.8722,-5.93855
-616,57,-54.8643,5.55096,-0.000689041,0.0204767,0.00545441,0.0217996,-0.00201195,1.33285,0.0152481,0.0163436,608,967,-54.8642,-5.55095
-609,57,-54.8643,5.14105,-0.00225557,0.00723424,0.00322246,0.00822505,-0.00324637,1.2725,0.00682778,0.0173117,615,967,-54.8643,-5.14104
-602,57,-54.871,4.69873,-0.00201664,0.00410249,0.00245412,0.00496512,-0.00287928,1.23278,0.00458202,0.0119306,622,967,-54.871,-4.69873
-595,57,-54.8652,4.30432,-0.00198682,0.00167194,0.00195934,0.00252316,-0.00283804,1.16095,0.00309707,0.0196261,629,967,-54.8652,-4.30435
-588,57,-54.6658,4.06152,-0.00146677,0.000336263,0.00131639,0.00103024,-0.00216075,1.08564,0.00188046,0.0332875,636,967,-54.6658,-4.06153
-581,57,-55.4316,2.34357,0,0,0,0,0,0,0,-1,643,967,-55.4316,-2.34358
-574,57,-55.6599,0.513855,0,0,0,0,0,0,0,-1,650,967,-55.6599,-0.513851
-567,57,-55.6871,0.486389,0.000880601,-0.00132461,-0.000675661,0.00107115,-0.00151516,-0.274884,0.00150053,0.0328118,657,967,-55.6871,-0.486366
-560,57,-55.6735,0.649292,0.0014154,-0.00101644,-0.00129559,0.00197628,-0.00157732,-0.408553,0.00205598,0.0414808,664,967,-55.6735,-0.649313
-553,57,-55.6761,0.596008,0.00215737,-0.000283727,-0.00206707,0.00333735,-0.0014637,-0.518706,0.00284138,0.0415088,671,967,-55.6761,-0.595984
-546,57,-55.8942,0.751343,0.00325499,0.000800322,-0.003083,0.00534597,-0.00129066,-0.595965,0.00406311,0.0419544,678,967,-55.8942,-0.75133
-539,57,-56.056,0.865967,0.00472808,0.00196821,-0.00454085,0.00809404,-0.00139776,-0.637886,0.00591723,0.042866,685,967,-56.056,-0.865987
-532,57,-55.8463,0.516907,0.00704518,0.0034721,-0.00701748,0.0125,-0.00198268,-0.660754,0.00906675,0.0407623,692,967,-55.8463,-0.516877
-525,57,-55.6127,0.215393,0.00896252,0.00493123,-0.00958297,0.0167395,-0.00284578,-0.681741,0.0122192,0.0428268,699,967,-55.6127,-0.21537
-518,57,0,0,0,0,0,0,0,0,0,-1,706,967,0,0
-511,57,0,0,0,0,0,0,0,0,0,-1,713,967,0,0
-504,57,0,0,0,0,0,0,0,0,0,-1,720,967,0,0
-497,57,0,0,0,0,0,0,0,0,0,-1,727,967,0,0
-490,57,0,0,0,0,0,0,0,0,0,-1,734,967,0,0
-483,57,0,0,0,0,0,0,0,0,0,-1,741,967,0,0
-476,57,0,0,0,0,0,0,0,0,0,-1,748,967,0,0
-469,57,0,0,0,0,0,0,0,0,0,-1,755,967,0,0
-462,57,0,0,0,0,0,0,0,0,0,-1,762,967,0,0
-455,57,0,0,0,0,0,0,0,0,0,-1,769,967,0,0
-448,57,0,0,0,0,0,0,0,0,0,-1,776,967,0,0
-441,57,0,0,0,0,0,0,0,0,0,-1,783,967,0,0
-434,57,0,0,0,0,0,0,0,0,0,-1,790,967,0,0
-427,57,0,0,0,0,0,0,0,0,0,-1,797,967,0,0
-420,57,0,0,0,0,0,0,0,0,0,-1,804,967,0,0
-413,57,0,0,0,0,0,0,0,0,0,-1,811,967,0,0
-406,57,0,0,0,0,0,0,0,0,0,-1,818,967,0,0
-399,57,0,0,0,0,0,0,0,0,0,-1,825,967,0,0
-392,57,0,0,0,0,0,0,0,0,0,-1,832,967,0,0
-385,57,0,0,0,0,0,0,0,0,0,-1,839,967,0,0
-378,57,0,0,0,0,0,0,0,0,0,-1,846,967,0,0
-371,57,0,0,0,0,0,0,0,0,0,-1,853,967,0,0
-364,57,0,0,0,0,0,0,0,0,0,-1,860,967,0,0
-357,57,0,0,0,0,0,0,0,0,0,-1,867,967,0,0
-350,57,0,0,0,0,0,0,0,0,0,-1,874,967,0,0
-343,57,0,0,0,0,0,0,0,0,0,-1,881,967,0,0
-336,57,0,0,0,0,0,0,0,0,0,-1,888,967,0,0
-329,57,0,0,0,0,0,0,0,0,0,-1,895,967,0,0
-322,57,0,0,0,0,0,0,0,0,0,-1,902,967,0,0
-315,57,0,0,0,0,0,0,0,0,0,-1,909,967,0,0
-308,57,0,0,0,0,0,0,0,0,0,-1,916,967,0,0
-301,57,0,0,0,0,0,0,0,0,0,-1,923,967,0,0
-294,57,0,0,0,0,0,0,0,0,0,-1,930,967,0,0
-287,57,0,0,0,0,0,0,0,0,0,-1,937,967,0,0
-280,57,0,0,0,0,0,0,0,0,0,-1,944,967,0,0
-273,57,0,0,0,0,0,0,0,0,0,-1,951,967,0,0
-266,57,0,0,0,0,0,0,0,0,0,-1,958,967,0,0
-259,57,0,0,0,0,0,0,0,0,0,-1,965,967,0,0
-252,57,0,0,0,0,0,0,0,0,0,-1,972,967,0,0
-245,57,0,0,0,0,0,0,0,0,0,-1,979,967,0,0
-238,57,0,0,0,0,0,0,0,0,0,-1,986,967,0,0
-231,57,0,0,0,0,0,0,0,0,0,-1,993,967,0,0
-224,57,0,0,0,0,0,0,0,0,0,-1,1000,967,0,0
-217,57,0,0,0,0,0,0,0,0,0,-1,1007,967,0,0
-210,57,0,0,0,0,0,0,0,0,0,-1,1014,967,0,0
-203,57,0,0,0,0,0,0,0,0,0,-1,1021,967,0,0
-196,57,0,0,0,0,0,0,0,0,0,-1,1028,967,0,0
-189,57,0,0,0,0,0,0,0,0,0,-1,1035,967,0,0
-182,57,0,0,0,0,0,0,0,0,0,-1,1042,967,0,0
-175,57,0,0,0,0,0,0,0,0,0,-1,1049,967,0,0
-168,57,0,0,0,0,0,0,0,0,0,-1,1056,967,0,0
-161,57,0,0,0,0,0,0,0,0,0,-1,1063,967,0,0
-154,57,0,0,0,0,0,0,0,0,0,-1,1070,967,0,0
-147,57,0,0,0,0,0,0,0,0,0,-1,1077,967,0,0
-140,57,0,0,0,0,0,0,0,0,0,-1,1084,967,0,0
-133,57,0,0,0,0,0,0,0,0,0,-1,1091,967,0,0
-126,57,0,0,0,0,0,0,0,0,0,-1,1098,967,0,0
-119,57,0,0,0,0,0,0,0,0,0,-1,1105,967,0,0
-112,57,0,0,0,0,0,0,0,0,0,-1,1112,967,0,0
-105,57,0,0,0,0,0,0,0,0,0,-1,1119,967,0,0
-98,57,0,0,0,0,0,0,0,0,0,-1,1126,967,0,0
-91,57,0,0,0,0,0,0,0,0,0,-1,1133,967,0,0
-84,57,0,0,0,0,0,0,0,0,0,-1,1140,967,0,0
-77,57,0,0,0,0,0,0,0,0,0,-1,1147,967,0,0
-70,57,0,0,0,0,0,0,0,0,0,-1,1154,967,0,0
-63,57,0,0,0,0,0,0,0,0,0,-1,1161,967,0,0
-56,57,0,0,0,0,0,0,0,0,0,-1,1168,967,0,0
-49,57,0,0,0,0,0,0,0,0,0,-1,1175,967,0,0
-42,57,0,0,0,0,0,0,0,0,0,-1,1182,967,0,0
-35,57,0,0,0,0,0,0,0,0,0,-1,1189,967,0,0
-28,57,0,0,0,0,0,0,0,0,0,-1,1196,967,0,0
-21,57,0,0,0,0,0,0,0,0,0,-1,1203,967,0,0
-14,57,0,0,0,0,0,0,0,0,0,-1,1210,967,0,0
-7,57,0,0,0,0,0,0,0,0,0,-1,1217,967,0,0
0,57,0,0,0,0,0,0,0,0,0,-1,1224,967,0,0
7,57,0,0,0,0,0,0,0,0,0,-1,1231,967,0,0
14,57,0,0,0,0,0,0,0,0,0,-1,1238,967,0,0
21,57,0,0,0,0,0,0,0,0,0,-1,1245,967,0,0
28,57,0,0,0,0,0,0,0,0,0,-1,1252,967,0,0
35,57,0,0,0,0,0,0,0,0,0,-1,1259,967,0,0
42,57,0,0,0,0,0,0,0,0,0,-1,1266,967,0,0
49,57,0,0,0,0,0,0,0,0,0,-1,1273,967,0,0
56,57,0,0,0,0,0,0,0,0,0,-1,1280,967,0,0
63,57,0,0,0,0,0,0,0,0,0,-1,1287,967,0,0
70,57,0,0,0,0,0,0,0,0,0,-1,1294,967,0,0
77,57,0,0,0,0,0,0,0,0,0,-1,1301,967,0,0
84,57,0,0,0,0,0,0,0,0,0,-1,1308,967,0,0
91,57,0,0,0,0,0,0,0,0,0,-1,1315,967,0,0
98,57,0,0,0,0,0,0,0,0,0,-1,1322,967,0,0
105,57,0,0,0,0,0,0,0,0,0,-1,1329,967,0,0
112,57,0,0,0,0,0,0,0,0,0,-1,1336,967,0,0
119,57,0,0,0,0,0,0,0,0,0,-1,1343,967,0,0
126,57,0,0,0,0,0,0,0,0,0,-1,1350,967,0,0
133,57,0,0,0,0,0,0,0,0,0,-1,1357,967,0,0
140,57,0,0,0,0,0,0,0,0,0,-1,1364,967,0,0
147,57,0,0,0,0,0,0,0,0,0,-1,1371,967,0,0
154,57,0,0,0,0,0,0,0,0,0,-1,1378,967,0,0
161,57,0,0,0,0,0,0,0,0,0,-1,1385,967,0,0
168,57,0,0,0,0,0,0,0,0,0,-1,1392,967,0,0
175,57,0,0,0,0,0,0,0,0,0,-1,1399,967,0,0
182,57,0,0,0,0,0,0,0,0,0,-1,1406,967,0,0
189,57,0,0,0,0,0,0,0,0,0,-1,1413,967,0,0
196,57,0,0,0,0,0,0,0,0,0,-1,1420,967,0,0
203,57,0,0,0,0,0,0,0,0,0,-1,1427,967,0,0
210,57,0,0,0,0,0,0,0,0,0,-1,1434,967,0,0
217,57,0,0,0,0,0,0,0,0,0,-1,1441,967,0,0
224,57,0,0,0,0,0,0,0,0,0,-1,1448,967,0,0
231,57,0,0,0,0,0,0,0,0,0,-1,1455,967,0,0
238,57,0,0,0,0,0,0,0,0,0,-1,1462,967,0,0
245,57,0,0,0,0,0,0,0,0,0,-1,1469,967,0,0
252,57,0,0,0,0,0,0,0,0,0,-1,1476,967,0,0
259,57,0,0,0,0,0,0,0,0,0,-1,1483,967,0,0
266,57,0,0,0,0,0,0,0,0,0,-1,1490,967,0,0
273,57,0,0,0,0,0,0,0,0,0,-1,1497,967,0,0
280,57,0,0,0,0,0,0,0,0,0,-1,1504,967,0,0
287,57,0,0,0,0,0,0,0,0,0,-1,1511,967,0,0
294,57,0,0,0,0,0,0,0,0,0,-1,1518,967,0,0
301,57,0,0,0,0,0,0,0,0,0,-1,1525,967,0,0
308,57,0,0,0,0,0,0,0,0,0,-1,1532,967,0,0
315,57,0,0,0,0,0,0,0,0,0,-1,1539,967,0,0
322,57,0,0,0,0,0,0,0,0,0,-1,1546,967,0,0
329,57,0,0,0,0,0,0,0,0,0,-1,1553,967,0,0
336,57,0,0,0,0,0,0,0,0,0,-1,1560,967,0,0
343,57,0,0,0,0,0,0,0,0,0,-1,1567,967,0,0
350,57,0,0,0,0,0,0,0,0,0,-1,1574,967,0,0
357,57,0,0,0,0,0,0,0,0,0,-1,1581,967,0,0
364,57,0,0,0,0,0,0,0,0,0,-1,1588,967,0,0
371,57,0,0,0,0,0,0,0,0,0,-1,1595,967,0,0
378,57,0,0,0,0,0,0,0,0,0,-1,1602,967,0,0
385,57,0,0,0,0,0,0,0,0,0,-1,1609,967,0,0
392,57,0,0,0,0,0,0,0,0,0,-1,1616,967,0,0
399,57,0,0,0,0,0,0,0,0,0,-1,1623,967,0,0
406,57,0,0,0,0,0,0,0,0,0,-1,1630,967,0,0
413,57,0,0,0,0,0,0,0,0,0,-1,1637,967,0,0
420,57,0,0,0,0,0,0,0,0,0,-1,1644,967,0,0
427,57,0,0,0,0,0,0,0,0,0,-1,1651,967,0,0
434,57,0,0,0,0,0,0,0,0,0,-1,1658,967,0,0
441,57,0,0,0,0,0,0,0,0,0,-1,1665,967,0,0
448,57,0,0,0,0,0,0,0,0,0,-1,1672,967,0,0
455,57,0,0,0,0,0,0,0,0,0,-1,1679,967,0,0
462,57,0,0,0,0,0,0,0,0,0,-1,1686,967,0,0
469,57,0,0,0,0,0,0,0,0,0,-1,1693,967,0,0
476,57,0,0,0,0,0,0,0,0,0,-1,1700,967,0,0
483,57,0,0,0,0,0,0,0,0,0,-1,1707,967,0,0
490,57,0,0,0,0,0,0,0,0,0,-1,1714,967,0,0
497,57,0,0,0,0,0,0,0,0,0,-1,1721,967,0,0
504,57,0,0,0,0,0,0,0,0,0,-1,1728,967,0,0
511,57,0,0,0,0,0,0,0,0,0,-1,1735,967,0,0
518,57,0,0,0,0,0,0,0,0,0,-1,1742,967,0,0
525,57,0,0,0,0,0,0,0,0,0,-1,1749,967,0,0
532,57,0,0,0,0,0,0,0,0,0,-1,1756,967,0,0
539,57,0,0,0,0,0,0,0,0,0,-1,1763,967,0,0
546,57,0,0,0,0,0,0,0,0,0,-1,1770,967,0,0
553,57,0,0,0,0,0,0,0,0,0,-1,1777,967,0,0
560,57,0,0,0,0,0,0,0,0,0,-1,1784,967,0,0
567,57,0,0,0,0,0,0,0,0,0,-1,1791,967,0,0
574,57,0,0,0,0,0,0,0,0,0,-1,1798,967,0,0
581,57,0,0,0,0,0,0,0,0,0,-1,1805,967,0,0
588,57,0,0,0,0,0,0,0,0,0,-1,1812,967,0,0
595,57,0,0,0,0,0,0,0,0,0,-1,1819,967,0,0
602,57,0,0,0,0,0,0,0,0,0,-1,1826,967,0,0
609,57,0,0,0,0,0,0,0,0,0,-1,1833,967,0,0
616,57,0,0,0,0,0,0,0,0,0,-1,1840,967,0,0
623,57,0,0,0,0,0,0,0,0,0,-1,1847,967,0,0
630,57,0,0,0,0,0,0,0,0,0,-1,1854,967,0,0
637,57,0,0,0,0,0,0,0,0,0,-1,1861,967,0,0
644,57,71.6438,2.33563,0.00215824,-5.3153e-05,0.00204636,0.00337851,-0.00127343,0.537706,0.00277595,0.0412799,1868,967,71.6438,-2.33565
651,57,71.6954,2.31213,0.0016861,0.000515949,0.001502,0.00271295,-0.000510904,0.599674,0.0020008,0.0343617,1875,967,71.6954,-2.31215
658,57,71.8015,2.25555,0.00127559,0.00087229,0.00109676,0.00218909,-4.12092e-05,0.694485,0.00147332,0.0339362,1882,967,71.8016,-2.25555
665,57,71.7407,2.24677,0.000962218,0.00111653,0.000680209,0.00172394,0.000354803,0.841872,0.00105118,0.0404836,1889,967,71.7407,-2.24677
672,57,71.6987,2.3985,0.000406701,0.0011274,0.000392855,0.00130014,0.00023396,1.15653,0.000800258,0.041212,1896,967,71.6987,-2.3985
679,57,71.6967,2.49518,-0.000154381,0.000686026,0.000305551,0.000785372,-0.000253728,1.25644,0.000625552,0.0398925,1903,967,71.6967,-2.49516
686,57,71.739,2.2876,-0.000446434,6.51653e-05,0.000140422,0.000101174,-0.000482442,1.31978,0.000360122,0.0356451,1910,967,71.7391,-2.28761
693,57,71.75,2.23718,-0.000832671,-0.000419951,-6.1268e-05,-0.000411048,-0.000841574,-1.42649,0.000485926,0.0307953,1917,967,71.75,-2.23719
700,57,71.7045,2.30005,-0.00143241,-0.000650395,-0.000312233,-0.000541026,-0.00154178,-1.23387,0.000903239,0.0260784,1924,967,71.7045,-2.30007
707,57,71.7153,2.39966,0,0,0,0,0,0,0,-1,1931,967,71.7153,-2.39964
714,57,70.9128,2.94287,0,0,0,0,0,0,0,-1,1938,967,70.9128,-2.94286
721,57,70.1584,5.50085,0,0,0,0,0,0,0,-1,1945,967,70.1584,-5.50085
728,57,69.9816,5.98395,-0.00436873,0.00223807,-0.0015293,0.0025749,-0.00470555,-1.35401,0.00426295,0.0259582,1952,967,69.9816,-5.98394
735,57,69.9785,6.48859,-0.00447782,0.00330884,-0.00194313,0.0037668,-0.00493578,-1.33934,0.00503953,0.0326342,1959,967,69.9785,-6.4886
742,57,70.0383,6.79077,-0.00396884,0.00515242,-0.00281939,0.00595353,-0.00476995,-1.29395,0.00620377,0.0240758,1966,967,70.0383,-6.79078
749,57,69.9601,7.23242,-0.00257805,0.00770681,-0.00409967,0.009141,-0.00401223,-1.23427,0.00778408,0.0153065,1973,967,69.9601,-7.23242
756,57,69.8652,7.62732,0.00117558,0.01096,-0.00600794,0.0138157,-0.00168004,-1.1271,0.00981849,0.0127496,1980,967,69.8652,-7.62734
763,57,69.7373,8.00305,0.00744575,0.0147456,-0.00863419,0.0204696,0.00172172,-0.985371,0.0131103,0.0148978,1987,967,69.7373,-8.00308
770,57,69.5713,8.34222,0.0170589,0.0182236,-0.0121581,0.0298133,0.0054692,-0.80933,0.0183266,0.0140091,1994,967,69.5713,-8.34221
777,57,69.4565,8.7334,0.03006,0.021009,-0.0166131,0.042753,0.00831608,-0.652422,0.0261741,0.0279168,2001,967,69.4565,-8.73338
784,57,69.8904,8.84204,0.0484878,0.0227197,-0.0224721,0.0615073,0.00970019,-0.525108,0.0381844,0.0429312,2008,967,69.8905,-8.84203
791,57,70.3728,8.99963,0.0740597,0.0231036,-0.0303912,0.0882397,0.00892364,-0.436557,0.056089,0.0487737,2015,967,70.3728,-8.99962
798,57,71.2188,9.13239,0,0,0,0,0,0,0,-1,2022,967,71.2187,-9.13238
805,57,72.8342,8.42767,0,0,0,0,0,0,0,-1,2029,967,72.8342,-8.42765
812,57,0,0,0,0,0,0,0,0,0,-1,2036,967,0,0
-700,50,0,0,0,0,0,0,0,0,0,-1,524,974,0,0
-693,50,-58.2428,2.91376,0,0,0,0,0,0,0,-1,531,974,-58.2428,-2.91374
-686,50,-57.4111,2.39972,0.189929,0.0744051,-0.0371662,0.200853,0.063481,-0.285874,0.11855,0.0447328,538,974,-57.4111,-2.3997
-679,50,-56.4847,2.00073,0.160435,0.0932299,-0.0257212,0.16915,0.0845157,-0.326658,0.0976586,0.0435561,545,974,-56.4847,-2.00076
-672,50,-55.6359,1.45325,0.132866,0.0992945,-0.0163961,0.139545,0.0926155,-0.386825,0.0819932,0.0461465,552,974,-55.6359,-1.45325
-665,50,-54.8943,0.92572,0,0,0,0,0,0,0,-1,559,974,-54.8943,-0.925724
-658,50,-54.5213,6.40448,0,0,0,0,0,0,0,-1,566,974,-54.5213,-6.4045
-651,50,-54.8159,6.48615,0.0633324,0.081344,0.00119309,0.0814226,0.0632537,1.50494,0.0493531,0.0471176,573,974,-54.8159,-6.48616
-644,50,-54.9967,6.68805,0.0446844,0.0687812,0.00393493,0.0694075,0.0440581,1.41296,0.0405548,0.034172,580,974,-54.9967,-6.68805
-637,50,-55.1863,6.41174,0.0291801,0.0559076,0.00558293,0.057027,0.0280608,1.37293,0.0329259,0.0206085,587,974,-55.1863,-6.41171
-630,50,-55.2858,6.13153,0.0151926,0.0440156,0.00683747,0.0455553,0.0136529,1.3493,0.0269957,0.0128832,594,974,-55.2858,-6.13153
-623,50,-55.3149,5.86774,0.0043582,0.0314529,0.00666096,0.0330019,0.00280923,1.34231,0.0211272,0.013091,601,974,-55.315,-5.86775
-616,50,-55.318,5.55371,-0.00168053,0.0200404,0.00501036,0.0211404,-0.00278056,1.35467,0.015106,0.0140597,608,974,-55.318,-5.55373
-609,50,-55.3192,5.13989,-0.00299054,0.00730555,0.00291649,0.00807429,-0.00375928,1.31308,0.00698188,0.0128631,615,974,-55.3192,-5.13991
-602,50,-55.3422,4.7453,-0.00255834,0.00425141,0.00209779,0.00484577,-0.0031527,1.2947,0.00465228,0.0123442,622,974,-55.3421,-4.74533
-595,50,-55.3645,4.41437,-0.00232713,0.00188178,0.00153389,0.00238147,-0.00282681,1.25587,0.00301067,0.0161628,629,974,-55.3645,-4.41439
-588,50,-55.3417,3.87286,-0.00162309,0.000486648,0.00086287,0.000794605,-0.00193104,1.22799,0.00161861,0.032034,636,974,-55.3417,-3.87288
-581,50,-55.5747,1.73761,0,0,0,0,0,0,0,-1,643,974,-55.5747,-1.73762
-574,50,-55.7153,-0.132568,0,0,0,0,0,0,0,-1,650,974,-55.7153,0.132548
-567,50,-55.6416,0.322144,0,0,0,0,0,0,0,-1,657,974,-55.6416,-0.322149
-560,50,-55.5035,0.385681,0,0,0,0,0,0,0,-1,664,974,-55.5036,-0.385675
-553,50,-55.705,0.728394,0.00226493,-0.000270058,-0.00215651,0.00349886,-0.00150398,-0.519716,0.00296394,0.0422782,671,974,-55.705,-0.728414
-546,50,-55.693,0.762573,0.00339199,0.000719927,-0.0030578,0.00539289,-0.00128097,-0.579434,0.00408968,0.0403793,678,974,-55.693,-0.762559
-539,50,-55.6349,0.735352,0.00477941,0.00166931,-0.00437926,0.00787152,-0.0014228,-0.614796,0.00578061,0.0432827,685,974,-55.6349,-0.735369
-532,50,-55.6721,0.650574,0.00688377,0.00300051,-0.00671709,0.0119342,-0.00204995,-0.644704,0.00872016,0.0429463,692,974,-55.6721,-0.650579
-525,50,-55.6179,0.394104,0.00853418,0.00419217,-0.00912653,0.0157444,-0.00301802,-0.668629,0.0116335,0.0427754,699,974,-55.6179,-0.394133
-518,50,0,0,0,0,0,0,0,0,0,-1,706,974,0,0
-511,50,0,0,0,0,0,0,0,0,0,-1,713,974,0,0
-504,50,0,0,0,0,0,0,0,0,0,-1,720,974,0,0
-497,50,0,0,0,0,0,0,0,0,0,-1,727,974,0,0
-490,50,0,0,0,0,0,0,0,0,0,-1,734,974,0,0
-483,50,0,0,0,0,0,0,0,0,0,-1,741,974,0,0
-476,50,0,0,0,0,0,0,0,0,0,-1,748,974,0,0
-469,50,0,0,0,0,0,0,0,0,0,-1,755,974,0,0
-462,50,0,0,0,0,0,0,0,0,0,-1,762,974,0,0
-455,50,0,0,0,0,0,0,0,0,0,-1,769,974,0,0
-448,50,0,0,0,0,0,0,0,0,0,-1,776,974,0,0
-441,50,0,0,0,0,0,0,0,0,0,-1,783,974,0,0
-434,50,0,0,0,0,0,0,0,0,0,-1,790,974,0,0
-427,50,0,0,0,0,0,0,0,0,0,-1,797,974,0,0
-420,50,0,0,0,0,0,0,0,0,0,-1,804,974,0,0
-413,50,0,0,0,0,0,0,0,0,0,-1,811,974,0,0
-406,50,0,0,0,0,0,0,0,0,0,-1,818,974,0,0
-399,50,0,0,0,0,0,0,0,0,0,-1,825,974,0,0
-392,50,0,0,0,0,0,0,0,0,0,-1,832,974,0,0
-385,50,0,0,0,0,0,0,0,0,0,-1,839,974,0,0
-378,50,0,0,0,0,0,0,0,0,0,-1,846,974,0,0
-371,50,0,0,0,0,0,0,0,0,0,-1,853,974,0,0
-364,50,0,0,0,0,0,0,0,0,0,-1,860,974,0,0
-357,50,0,0,0,0,0,0,0,0,0,-1,867,974,0,0
-350,50,0,0,0,0,0,0,0,0,0,-1,874,974,0,0
-343,50,0,0,0,0,0,0,0,0,0,-1,881,974,0,0
-336,50,0,0,0,0,0,0,0,0,0,-1,888,974,0,0
-329,50,0,0,0,0,0,0,0,0,0,-1,895,974,0,0
-322,50,0,0,0,0,0,0,0,0,0,-1,902,974,0,0
-315,50,0,0,0,0,0,0,0,0,0,-1,909,974,0,0
-308,50,0,0,0,0,0,0,0,0,0,-1,916,974,0,0
-301,50,0,0,0,0,0,0,0,0,0,-1,923,974,0,0
-294,50,0,0,0,0,0,0,0,0,0,-1,930,974,0,0
-287,50,0,0,0,0,0,0,0,0,0,-1,937,974,0,0
-280,50,0,0,0,0,0,0,0,0,0,-1,944,974,0,0
-273,50,0,0,0,0,0,0,0,0,0,-1,951,974,0,0
-266,50,0,0,0,0,0,0,0,0,0,-1,958,974,0,0
-259,50,0,0,0,0,0,0,0,0,0,-1,965,974,0,0
-252,50,0,0,0,0,0,0,0,0,0,-1,972,974,0,0
-245,50,0,0,0,0,0,0,0,0,0,-1,979,974,0,0
-238,50,0,0,0,0,0,0,0,0,0,-1,986,974,0,0
-231,50,0,0,0,0,0,0,0,0,0,-1,993,974,0,0
-224,50,0,0,0,0,0,0,0,0,0,-1,1000,974,0,0
-217,50,0,0,0,0,0,0,0,0,0,-1,1007,974,0,0
-210,50,0,0,0,0,0,0,0,0,0,-1,1014,974,0,0
-203,50,0,0,0,0,0,0,0,0,0,-1,1021,974,0,0
-196,50,0,0,0,0,0,0,0,0,0,-1,1028,974,0,0
-189,50,0,0,0,0,0,0,0,0,0,-1,1035,974,0,0
-182,50,0,0,0,0,0,0,0,0,0,-1,1042,974,0,0
-175,50,0,0,0,0,0,0,0,0,0,-1,1049,974,0,0
-168,50,0,0,0,0,0,0,0,0,0,-1,1056,974,0,0
-161,50,0,0,0,0,0,0,0,0,0,-1,1063,974,0,0
-154,50,0,0,0,0,0,0,0,0,0,-1,1070,974,0,0
-147,50,0,0,0,0,0,0,0,0,0,-1,1077,974,0,0
-140,50,0,0,0,0,0,0,0,0,0,-1,1084,974,0,0
-133,50,0,0,0,0,0,0,0,0,0,-1,1091,974,0,0
-126,50,0,0,0,0,0,0,0,0,0,-1,1098,974,0,0
-119,50,0,0,0,0,0,0,0,0,0,-1,1105,974,0,0
-112,50,0,0,0,0,0,0,0,0,0,-1,1112,974,0,0
-105,50,0,0,0,0,0,0,0,0,0,-1,1119,974,0,0
-98,50,0,0,0,0,0,0,0,0,0,-1,1126,974,0,0
-91,50,0,0,0,0,0,0,0,0,0,-1,1133,974,0,0
-84,50,0,0,0,0,0,0,0,0,0,-1,1140,974,0,0
-77,50,0,0,0,0,0,0,0,0,0,-1,1147,974,0,0
-70,50,0,0,0,0,0,0,0,0,0,-1,1154,974,0,0
-63,50,0,0,0,0,0,0,0,0,0,-1,1161,974,0,0
-56,50,0,0,0,0,0,0,0,0,0,-1,1168,974,0,0
-49,50,0,0,0,0,0,0,0,0,0,-1,1175,974,0,0
-42,50,0,0,0,0,0,0,0,0,0,-1,1182,974,0,0
-35,50,0,0,0,0,0,0,0,0,0,-1,1189,974,0,0
-28,50,0,0,0,0,0,0,0,0,0,-1,1196,974,0,0
-21,50,0,0,0,0,0,0,0,0,0,-1,1203,974,0,0
-14,50,0,0,0,0,0,0,0,0,0,-1,1210,974,0,0
-7,50,0,0,0,0,0,0,0,0,0,-1,1217,974,0,0
0,50,0,0,0,0,0,0,0,0,0,-1,1224,974,0,0
7,50,0,0,0,0,0,0,0,0,0,-1,1231,974,0,0
14,50,0,0,0,0,0,0,0,0,0,-1,1238,974,0,0
21,50,0,0,0,0,0,0,0,0,0,-1,1245,974,0,0
28,50,0,0,0,0,0,0,0,0,0,-1,1252,974,0,0
35,50,0,0,0,0,0,0,0,0,0,-1,1259,974,0,0
42,50,0,0,0,0,0,0,0,0,0,-1,1266,974,0,0
49,50,0,0,0,0,0,0,0,0,0,-1,1273,974,0,0
56,50,0,0,0,0,0,0,0,0,0,-1,1280,974,0,0
63,50,0,0,0,0,0,0,0,0,0,-1,1287,974,0,0
70,50,0,0,0,0,0,0,0,0,0,-1,1294,974,0,0
77,50,0,0,0,0,0,0,0,0,0,-1,1301,974,0,0
84,50,0,0,0,0,0,0,0,0,0,-1,1308,974,0,0
91,50,0,0,0,0,0,0,0,0,0,-1,1315,974,0,0
98,50,0,0,0,0,0,0,0,0,0,-1,1322,974,0,0
105,50,0,0,0,0,0,0,0,0,0,-1,1329,974,0,0
112,50,0,0,0,0,0,0,0,0,0,-1,1336,974,0,0
119,50,0,0,0,0,0,0,0,0,0,-1,1343,974,0,0
126,50,0,0,0,0,0,0,0,0,0,-1,1350,974,0,0
133,50,0,0,0,0,0,0,0,0,0,-1,1357,974,0,0
140,50,0,0,0,0,0,0,0,0,0,-1,1364,974,0,0
147,50,0,0,0,0,0,0,0,0,0,-1,1371,974,0,0
154,50,0,0,0,0,0,0,0,0,0,-1,1378,974,0,0
161,50,0,0,0,0,0,0,0,0,0,-1,1385,974,0,0
168,50,0,0,0,0,0,0,0,0,0,-1,1392,974,0,0
175,50,0,0,0,0,0,0,0,0,0,-1,1399,974,0,0
182,50,0,0,0,0,0,0,0,0,0,-1,1406,974,0,0
189,50,0,0,0,0,0,0,0,0,0,-1,1413,974,0,0
196,50,0,0,0,0,0,0,0,0,0,-1,1420,974,0,0
203,50,0,0,0,0,0,0,0,0,0,-1,1427,974,0,0
210,50,0,0,0,0,0,0,0,0,0,-1,1434,974,0,0
217,50,0,0,0,0,0,0,0,0,0,-1,1441,974,0,0
224,50,0,0,0,0,0,0,0,0,0,-1,1448,974,0,0
231,50,0,0,0,0,0,0,0,0,0,-1,1455,974,0,0
238,50,0,0,0,0,0,0,0,0,0,-1,1462,974,0,0
245,50,0,0,0,0,0,0,0,0,0,-1,1469,974,0,0
252,50,0,0,0,0,0,0,0,0,0,-1,1476,974,0,0
259,50,0,0,0,0,0,0,0,0,0,-1,1483,974,0,0
266,50,0,0,0,0,0,0,0,0,0,-1,1490,974,0,0
273,50,0,0,0,0,0,0,0,0,0,-1,1497,974,0,0
280,50,0,0,0,0,0,0,0,0,0,-1,1504,974,0,0
287,50,0,0,0,0,0,0,0,0,0,-1,1511,974,0,0
294,50,0,0,0,0,0,0,0,0,0,-1,1518,974,0,0
301,50,0,0,0,0,0,0,0,0,0,-1,1525,974,0,0
308,50,0,0,0,0,0,0,0,0,0,-1,1532,974,0,0
315,50,0,0,0,0,0,0,0,0,0,-1,1539,974,0,0
322,50,0,0,0,0,0,0,0,0,0,-1,1546,974,0,0
329,50,0,0,0,0,0,0,0,0,0,-1,1553,974,0,0
336,50,0,0,0,0,0,0,0,0,0,-1,1560,974,0,0
343,50,0,0,0,0,0,0,0,0,0,-1,1567,974,0,0
350,50,0,0,0,0,0,0,0,0,0,-1,1574,974,0,0
357,50,0,0,0,0,0,0,0,0,0,-1,1581,974,0,0
364,50,0,0,0,0,0,0,0,0,0,-1,1588,974,0,0
371,50,0,0,0,0,0,0,0,0,0,-1,1595,974,0,0
378,50,0,0,0,0,0,0,0,0,0,-1,1602,974,0,0
385,50,0,0,0,0,0,0,0,0,0,-1,1609,974,0,0
392,50,0,0,0,0,0,0,0,0,0,-1,1616,974,0,0
399,50,0,0,0,0,0,0,0,0,0,-1,1623,974,0,0
406,50,0,0,0,0,0,0,0,0,0,-1,1630,974,0,0
413,50,0,0,0,0,0,0,0,0,0,-1,1637,974,0,0
420,50,0,0,0,0,0,0,0,0,0,-1,1644,974,0,0
427,50,0,0,0,0,0,0,0,0,0,-1,1651,974,0,0
434,50,0,0,0,0,0,0,0,0,0,-1,1658,974,0,0
441,50,0,0,0,0,0,0,0,0,0,-1,1665,974,0,0
448,50,0,0,0,0,0,0,0,0,0,-1,1672,974,0,0
455,50,0,0,0,0,0,0,0,0,0,-1,1679,974,0,0
462,50,0,0,0,0,0,0,0,0,0,-1,1686,974,0,0
469,50,0,0,0,0,0,0,0,0,0,-1,1693,974,0,0
476,50,0,0,0,0,0,0,0,0,0,-1,1700,974,0,0
483,50,0,0,0,0,0,0,0,0,0,-1,1707,974,0,0
490,50,0,0,0,0,0,0,0,0,0,-1,1714,974,0,0
497,50,0,0,0,0,0,0,0,0,0,-1,1721,974,0,0
504,50,0,0,0,0,0,0,0,0,0,-1,1728,974,0,0
511,50,0,0,0,0,0,0,0,0,0,-1,1735,974,0,0
518,50,0,0,0,0,0,0,0,0,0,-1,1742,974,0,0
525,50,0,0,0,0,0,0,0,0,0,-1,1749,974,0,0
532,50,0,0,0,0,0,0,0,0,0,-1,1756,974,0,0
539,50,0,0,0,0,0,0,0,0,0,-1,1763,974,0,0
546,50,0,0,0,0,0,0,0,0,0,-1,1770,974,0,0
553,50,0,0,0,0,0,0,0,0,0,-1,1777,974,0,0
560,50,0,0,0,0,0,0,0,0,0,-1,1784,974,0,0
567,50,0,0,0,0,0,0,0,0,0,-1,1791,974,0,0
574,50,0,0,0,0,0,0,0,0,0,-1,1798,974,0,0
581,50,0,0,0,0,0,0,0,0,0,-1,1805,974,0,0
588,50,0,0,0,0,0,0,0,0,0,-1,1812,974,0,0
595,50,0,0,0,0,0,0,0,0,0,-1,1819,974,0,0
602,50,0,0,0,0,0,0,0,0,0,-1,1826,974,0,0
609,50,0,0,0,0,0,0,0,0,0,-1,1833,974,0,0
616,50,0,0,0,0,0,0,0,0,0,-1,1840,974,0,0
623,50,0,0,0,0,0,0,0,0,0,-1,1847,974,0,0
630,50,0,0,0,0,0,0,0,0,0,-1,1854,974,0,0
637,50,0,0,0,0,0,0,0,0,0,-1,1861,974,0,0
644,50,71.7516,2.34155,0.00327431,0.000246802,0.00165691,0.00400484,-0.000483728,0.415259,0.00284488,0.0376611,1868,974,71.7516,-2.34157
651,50,71.7228,2.32483,0.002492,0.00068024,0.00109617,0.00300817,0.000164074,0.440081,0.00195305,0.0310257,1875,974,71.7228,-2.3248
658,50,71.6981,2.2995,0.00183948,0.000958542,0.000732592,0.00225383,0.0005442,0.514729,0.001358,0.035663,1882,974,71.6981,-2.2995
665,50,71.6639,2.17877,0.00132158,0.00118084,0.000392771,0.00165023,0.000852183,0.696758,0.000952933,0.0393717,1889,974,71.6639,-2.17877
672,50,71.7552,2.11041,0.00065007,0.00123733,0.000179484,0.00128784,0.000599558,1.29647,0.000744121,0.0404268,1896,974,71.7552,-2.11044
679,50,71.7882,2.30188,4.54465e-05,0.000844133,0.000158492,0.000874435,1.51449e-05,1.38189,0.000577975,0.0402672,1903,974,71.7882,-2.30186
686,50,71.7318,2.27362,-0.000252073,0.000218072,8.96947e-05,0.000234603,-0.000268604,1.38854,0.000290747,0.0389606,1910,974,71.7318,-2.27364
693,50,71.679,2.30878,-0.000617729,-0.000337971,-2.64291e-05,-0.000335497,-0.000620204,-1.47743,0.000358475,0.0380359,1917,974,71.679,-2.30876
700,50,71.6293,2.35693,-0.00116134,-0.000629757,-0.000235847,-0.000540205,-0.00125089,-1.20791,0.000724434,0.0231522,1924,974,71.6292,-2.35696
707,50,71.7059,2.28497,-0.00185176,-0.000442956,-0.000535762,-0.00026236,-0.00203236,-1.24567,0.00127647,0.0382746,1931,974,71.706,-2.28496
714,50,71.6484,2.23474,0,0,0,0,0,0,0,-1,1938,974,71.6484,-2.23471
721,50,70.4463,5.56335,0,0,0,0,0,0,0,-1,1945,974,70.4463,-5.56335
728,50,70.4838,6.0177,-0.0043817,0.00240522,-0.00126221,0.00263236,-0.00460884,-1.39275,0.00423231,0.0221677,1952,974,70.4837,-6.01768
735,50,70.5005,6.45215,-0.00459988,0.0034302,-0.00168443,0.00376923,-0.0049389,-1.37218,0.00504274,0.0238297,1959,974,70.5005,-6.45217
742,50,70.5101,6.84412,-0.00428243,0.00519604,-0.0026327,0.0058782,-0.00496458,-1.31726,0.00626749,0.0180521,1966,974,70.5101,-6.84413
749,50,70.4222,7.19275,-0.00326474,0.007578,-0.00393979,0.00885836,-0.0045451,-1.25658,0.00787092,0.0175489,1973,974,70.4223,-7.19278
756,50,70.3215,7.53503,-0.000133606,0.0107062,-0.00586427,0.0132716,-0.002699,-1.15842,0.00987118,0.0152075,1980,974,70.3214,-7.53506
763,50,70.209,7.89349,0.00529874,0.0144241,-0.00857244,0.0195725,0.000150353,-1.02995,0.0129985,0.0159831,1987,974,70.209,-7.89351
770,50,70.0823,8.22046,0.0142717,0.0179081,-0.0122938,0.0285174,0.00366238,-0.858815,0.017916,0.0154298,1994,974,70.0823,-8.22045
777,50,69.9832,8.61743,0.0264598,0.0207794,-0.0169444,0.0408004,0.00643882,-0.70236,0.0253283,0.026389,2001,974,69.9832,-8.61746
784,50,70.1177,9.44446,0.043359,0.0227398,-0.0228865,0.0581509,0.00794801,-0.573777,0.0364082,0.0398661,2008,974,70.1176,-9.44449
791,50,71.0273,8.90601,0.0664194,0.0236432,-0.0306279,0.0823879,0.00767466,-0.480599,0.0525542,0.0450375,2015,974,71.0274,-8.90602
798,50,72.052,8.63721,0.0955148,0.0235907,-0.0402941,0.113561,0.00554458,-0.421073,0.0739285,0.0472348,2022,974,72.052,-8.63721
805,50,73.2839,8.38666,0.130536,0.0230495,-0.0518707,0.151485,0.00210067,-0.383835,0.100297,0.0471736,2029,974,73.284,-8.38668
812,50,0,0,0,0,0,0,0,0,0,-1,2036,974,0,0
-700,43,0,0,0,0,0,0,0,0,0,-1,524,981,0,0
-693,43,-57.4815,2.01385,0,0,0,0,0,0,0,-1,531,981,-57.4815,-2.01383
-686,43,-56.4139,2.26868,0.161395,0.0582985,-0.0517371,0.182881,0.0368128,-0.393614,0.11169,0.0452247,538,981,-56.4139,-2.26865
-679,43,-55.7138,1.68585,0.136898,0.0761589,-0.0382104,0.155337,0.0577191,-0.449619,0.0906648,0.0450658,545,981,-55.7138,-1.68583
-672,43,-55.0308,1.29285,0.113869,0.0832943,-0.0268848,0.129509,0.0676544,-0.526882,0.0747971,0.048965,552,981,-55.0308,-1.29286
-665,43,-54.0633,-1.06079,0,0,0,0,0,0,0,-1,559,981,-54.0633,1.06078
-658,43,-55.1847,6.3465,0,0,0,0,0,0,0,-1,566,981,-55.1847,-6.34652
-651,43,-55.2595,6.4082,0.0544363,0.0721703,-0.00411464,0.0730785,0.0535281,-1.35356,0.0436856,0.043845,573,981,-55.2594,-6.40819
-644,43,-55.3646,6.50476,0.0379107,0.0617435,-1.0033e-05,0.0617435,0.0379107,-1.57038,0.0359552,0.027427,580,981,-55.3647,-6.50479
-637,43,-55.5909,6.23657,0.0240548,0.0507405,0.0028008,0.0510313,0.0237641,1.46734,0.0294861,0.0207118,587,981,-55.5909,-6.23656
-630,43,-55.6532,6.01038,0.0116858,0.0403225,0.0049248,0.0411458,0.0108625,1.40516,0.0246218,0.0159037,594,981,-55.6532,-6.01037
-623,43,-55.6675,5.77039,0.00236769,0.029056,0.00548576,0.0301396,0.00128409,1.37578,0.019679,0.0136762,601,981,-55.6675,-5.77041
-616,43,-55.6693,5.46698,-0.00275384,0.0188197,0.00436598,0.0196698,-0.00360391,1.3785,0.0144649,0.0129498,608,981,-55.6693,-5.46697
-609,43,-55.6902,5.11737,-0.00376691,0.00731947,0.00253973,0.00787359,-0.00432103,1.35598,0.00713946,0.0145701,615,981,-55.6903,-5.11735
-602,43,-55.68,4.80682,-0.00317827,0.00438653,0.00174507,0.00476968,-0.00356143,1.35466,0.0048268,0.0172017,622,981,-55.68,-4.80682
-595,43,-55.8309,4.5354,-0.00277332,0.00213011,0.00117783,0.00239835,-0.00304156,1.34687,0.00314805,0.0190034,629,981,-55.831,-4.5354
-588,43,-55.8154,3.38654,-0.00192093,0.000731407,0.000539008,0.000836759,-0.00202628,1.37777,0.00169987,0.0467488,636,981,-55.8154,-3.38651
-581,43,-55.5784,1.45892,0,0,0,0,0,0,0,-1,643,981,-55.5784,-1.45891
-574,43,-55.6772,0.486206,-3.96508e-05,-0.00100164,-0.000595921,0.000245173,-0.00128646,-0.445858,0.00094997,0.0319754,650,981,-55.6772,-0.48622
-567,43,-55.5868,0.410217,0.000535877,-0.00105882,-0.000996382,0.00101467,-0.00153761,-0.447953,0.00148384,0.0386801,657,981,-55.5868,-0.410225
-560,43,-55.4859,0.441711,0.00121103,-0.000767489,-0.00140025,0.00193622,-0.00149268,-0.477865,0.00198519,0.0426471,664,981,-55.4859,-0.441718
-553,43,-55.3922,0.423828,0,0,0,0,0,0,0,-1,671,981,-55.3922,-0.423854
-546,43,-55.4233,0.585693,0.00310537,0.000802514,-0.00264615,0.00483976,-0.000931869,-0.580187,0.00357781,0.0416085,678,981,-55.4233,-0.585663
-539,43,-55.4433,0.601746,0.00427203,0.00151654,-0.00371839,0.00685971,-0.00107114,-0.607979,0.00496882,0.0454747,685,981,-55.4433,-0.601735
-532,43,-55.584,0.599426,0.00600004,0.00265292,-0.00570922,0.0102759,-0.00162297,-0.642826,0.00745076,0.0448413,692,981,-55.584,-0.599429
-525,43,-55.676,0.469727,0.00729944,0.00360483,-0.00778848,0.0134567,-0.00255243,-0.668958,0.00993187,0.0448548,699,981,-55.676,-0.469707
-518,43,0,0,0,0,0,0,0,0,0,-1,706,981,0,0
-511,43,0,0,0,0,0,0,0,0,0,-1,713,981,0,0
-504,43,0,0,0,0,0,0,0,0,0,-1,720,981,0,0
-497,43,0,0,0,0,0,0,0,0,0,-1,727,981,0,0
-490,43,0,0,0,0,0,0,0,0,0,-1,734,981,0,0
-483,43,0,0,0,0,0,0,0,0,0,-1,741,981,0,0
-476,43,0,0,0,0,0,0,0,0,0,-1,748,981,0,0
-469,43,0,0,0,0,0,0,0,0,0,-1,755,981,0,0
-462,43,0,0,0,0,0,0,0,0,0,-1,762,981,0,0
-455,43,0,0,0,0,0,0,0,0,0,-1,769,981,0,0
-448,43,0,0,0,0,0,0,0,0,0,-1,776,981,0,0
-441,43,0,0,0,0,0,0,0,0,0,-1,783,981,0,0
-434,43,0,0,0,0,0,0,0,0,0,-1,790,981,0,0
-427,43,0,0,0,0,0,0,0,0,0,-1,797,981,0,0
-420,43,0,0,0,0,0,0,0,0,0,-1,804,981,0,0
-413,43,0,0,0,0,0,0,0,0,0,-1,811,981,0,0
-406,43,0,0,0,0,0,0,0,0,0,-1,818,981,0,0
-399,43,0,0,0,0,0,0,0,0,0,-1,825,981,0,0
-392,43,0,0,0,0,0,0,0,0,0,-1,832,981,0,0
-385,43,0,0,0,0,0,0,0,0,0,-1,839,981,0,0
-378,43,0,0,0,0,0,0,0,0,0,-1,846,981,0,0
-371,43,0,0,0,0,0,0,0,0,0,-1,853,981,0,0
-364,43,0,0,0,0,0,0,0,0,0,-1,860,981,0,0
-357,43,0,0,0,0,0,0,0,0,0,-1,867,981,0,0
-350,43,0,0,0,0,0,0,0,0,0,-1,874,981,0,0
-343,43,0,0,0,0,0,0,0,0,0,-1,881,981,0,0
-336,43,0,0,0,0,0,0,0,0,0,-1,888,981,0,0
-329,43,0,0,0,0,0,0,0,0,0,-1,895,981,0,0
-322,43,0,0,0,0,0,0,0,0,0,-1,902,981,0,0
-315,43,0,0,0,0,0,0,0,0,0,-1,909,981,0,0
-308,43,0,0,0,0,0,0,0,0,0,-1,916,981,0,0
-301,43,0,0,0,0,0,0,0,0,0,-1,923,981,0,0
-294,43,0,0,0,0,0,0,0,0,0,-1,930,981,0,0
-287,43,0,0,0,0,0,0,0,0,0,-1,937,981,0,0
-280,43,0,0,0,0,0,0,0,0,0,-1,944,981,0,0
-273,43,0,0,0,0,0,0,0,0,0,-1,951,981,0,0
-266,43,0,0,0,0,0,0,0,0,0,-1,958,981,0,0
-259,43,0,0,0,0,0,0,0,0,0,-1,965,981,0,0
-252,43,0,0,0,0,0,0,0,0,0,-1,972,981,0,0
-245,43,0,0,0,0,0,0,0,0,0,-1,979,981,0,0
-238,43,0,0,0,0,0,0,0,0,0,-1,986,981,0,0
-231,43,0,0,0,0,0,0,0,0,0,-1,993,981,0,0
-224,43,0,0,0,0,0,0,0,0,0,-1,1000,981,0,0
-217,43,0,0,0,0,0,0,0,0,0,-1,1007,981,0,0
-210,43,0,0,0,0,0,0,0,0,0,-1,1014,981,0,0
-203,43,0,0,0,0,0,0,0,0,0,-1,1021,981,0,0
-196,43,0,0,0,0,0,0,0,0,0,-1,1028,981,0,0
-189,43,0,0,0,0,0,0,0,0,0,-1,1035,981,0,0
-182,43,0,0,0,0,0,0,0,0,0,-1,1042,981,0,0
-175,43,0,0,0,0,0,0,0,0,0,-1,1049,981,0,0
-168,43,0,0,0,0,0,0,0,0,0,-1,1056,981,0,0
-161,43,0,0,0,0,0,0,0,0,0,-1,1063,981,0,0
-154,43,0,0,0,0,0,0,0,0,0,-1,1070,981,0,0
-147,43,0,0,0,0,0,0,0,0,0,-1,1077,981,0,0
-140,43,0,0,0,0,0,0,0,0,0,-1,1084,981,0,0
-133,43,0,0,0,0,0,0,0,0,0,-1,1091,981,0,0
-126,43,0,0,0,0,0,0,0,0,0,-1,1098,981,0,0
-119,43,0,0,0,0,0,0,0,0,0,-1,1105,981,0,0
-112,43,0,0,0,0,0,0,0,0,0,-1,1112,981,0,0
-105,43,0,0,0,0,0,0,0,0,0,-1,1119,981,0,0
-98,43,0,0,0,0,0,0,0,0,0,-1,1126,981,0,0
-91,43,0,0,0,0,0,0,0,0,0,-1,1133,981,0,0
-84,43,0,0,0,0,0,0,0,0,0,-1,1140,981,0,0
-77,43,0,0,0,0,0,0,0,0,0,-1,1147,981,0,0
-70,43,0,0,0,0,0,0,0,0,0,-1,1154,981,0,0
-63,43,0,0,0,0,0,0,0,0,0,-1,1161,981,0,0
-56,43,0,0,0,0,0,0,0,0,0,-1,1168,981,0,0
-49,43,0,0,0,0,0,0,0,0,0,-1,1175,981,0,0
-42,43,0,0,0,0,0,0,0,0,0,-1,1182,981,0,0
-35,43,0,0,0,0,0,0,0,0,0,-1,1189,981,0,0
-28,43,0,0,0,0,0,0,0,0,0,-1,1196,981,0,0
-21,43,0,0,0,0,0,0,0,0,0,-1,1203,981,0,0
-14,43,0,0,0,0,0,0,0,0,0,-1,1210,981,0,0
-7,43,0,0,0,0,0,0,0,0,0,-1,1217,981,0,0
0,43,0,0,0,0,0,0,0,0,0,-1,1224,981,0,0
7,43,0,0,0,0,0,0,0,0,0,-1,1231,981,0,0
14,43,0,0,0,0,0,0,0,0,0,-1,1238,981,0,0
21,43,0,0,0,0,0,0,0,0,0,-1,1245,981,0,0
28,43,0,0,0,0,0,0,0,0,0,-1,1252,981,0,0
35,43,0,0,0,0,0,0,0,0,0,-1,1259,981,0,0
42,43,0,0,0,0,0,0,0,0,0,-1,1266,981,0,0
49,43,0,0,0,0,0,0,0,0,0,-1,1273,981,0,0
56,43,0,0,0,0,0,0,0,0,0,-1,1280,981,0,0
63,43,0,0,0,0,0,0,0,0,0,-1,1287,981,0,0
70,43,0,0,0,0,0,0,0,0,0,-1,1294,981,0,0
77,43,0,0,0,0,0,0,0,0,0,-1,1301,981,0,0
84,43,0,0,0,0,0,0,0,0,0,-1,1308,981,0,0
91,43,0,0,0,0,0,0,0,0,0,-1,1315,981,0,0
98,43,0,0,0,0,0,0,0,0,0,-1,1322,981,0,0
105,43,0,0,0,0,0,0,0,0,0,-1,1329,981,0,0
112,43,0,0,0,0,0,0,0,0,0,-1,1336,981,0,0
119,43,0,0,0,0,0,0,0,0,0,-1,1343,981,0,0
126,43,0,0,0,0,0,0,0,0,0,-1,1350,981,0,0
133,43,0,0,0,0,0,0,0,0,0,-1,1357,981,0,0
140,43,0,0,0,0,0,0,0,0,0,-1,1364,981,0,0
147,43,0,0,0,0,0,0,0,0,0,-1,1371,981,0,0
154,43,0,0,0,0,0,0,0,0,0,-1,1378,981,0,0
161,43,0,0,0,0,0,0,0,0,0,-1,1385,981,0,0
168,43,0,0,0,0,0,0,0,0,0,-1,1392,981,0,0
175,43,0,0,0,0,0,0,0,0,0,-1,1399,981,0,0
182,43,0,0,0,0,0,0,0,0,0,-1,1406,981,0,0
189,43,0,0,0,0,0,0,0,0,0,-1,1413,981,0,0
196,43,0,0,0,0,0,0,0,0,0,-1,1420,981,0,0
203,43,0,0,0,0,0,0,0,0,0,-1,1427,981,0,0
210,43,0,0,0,0,0,0,0,0,0,-1,1434,981,0,0
217,43,0,0,0,0,0,0,0,0,0,-1,1441,981,0,0
224,43,0,0,0,0,0,0,0,0,0,-1,1448,981,0,0
231,43,0,0,0,0,0,0,0,0,0,-1,1455,981,0,0
238,43,0,0,0,0,0,0,0,0,0,-1,1462,981,0,0
245,43,0,0,0,0,0,0,0,0,0,-1,1469,981,0,0
252,43,0,0,0,0,0,0,0,0,0,-1,1476,981,0,0
259,43,0,0,0,0,0,0,0,0,0,-1,1483,981,0,0
266,43,0,0,0,0,0,0,0,0,0,-1,1490,981,0,0
273,43,0,0,0,0,0,0,0,0,0,-1,1497,981,0,0
280,43,0,0,0,0,0,0,0,0,0,-1,1504,981,0,0
287,43,0,0,0,0,0,0,0,0,0,-1,1511,981,0,0
294,43,0,0,0,0,0,0,0,0,0,-1,1518,981,0,0
301,43,0,0,0,0,0,0,0,0,0,-1,1525,981,0,0
308,43,0,0,0,0,0,0,0,0,0,-1,1532,981,0,0
315,43,0,0,0,0,0,0,0,0,0,-1,1539,981,0,0
322,43,0,0,0,0,0,0,0,0,0,-1,1546,981,0,0
329,43,0,0,0,0,0,0,0,0,0,-1,1553,981,0,0
336,43,0,0,0,0,0,0,0,0,0,-1,1560,981,0,0
343,43,0,0,0,0,0,0,0,0,0,-1,1567,981,0,0
350,43,0,0,0,0,0,0,0,0,0,-1,1574,981,0,0
357,43,0,0,0,0,0,0,0,0,0,-1,1581,981,0,0
364,43,0,0,0,0,0,0,0,0,0,-1,1588,981,0,0
371,43,0,0,0,0,0,0,0,0,0,-1,1595,981,0,0
378,43,0,0,0,0,0,0,0,0,0,-1,1602,981,0,0
385,43,0,0,0,0,0,0,0,0,0,-1,1609,981,0,0
392,43,0,0,0,0,0,0,0,0,0,-1,1616,981,0,0
399,43,0,0,0,0,0,0,0,0,0,-1,1623,981,0,0
406,43,0,0,0,0,0,0,0,0,0,-1,1630,981,0,0
413,43,0,0,0,0,0,0,0,0,0,-1,1637,981,0,0
420,43,0,0,0,0,0,0,0,0,0,-1,1644,981,0,0
427,43,0,0,0,0,0,0,0,0,0,-1,1651,981,0,0
434,43,0,0,0,0,0,0,0,0,0,-1,1658,981,0,0
441,43,0,0,0,0,0,0,0,0,0,-1,1665,981,0,0
448,43,0,0,0,0,0,0,0,0,0,-1,1672,981,0,0
455,43,0,0,0,0,0,0,0,0,0,-1,1679,981,0,0
462,43,0,0,0,0,0,0,0,0,0,-1,1686,981,0,0
469,43,0,0,0,0,0,0,0,0,0,-1,1693,981,0,0
476,43,0,0,0,0,0,0,0,0,0,-1,1700,981,0,0
483,43,0,0,0,0,0,0,0,0,0,-1,1707,981,0,0
490,43,0,0,0,0,0,0,0,0,0,-1,1714,981,0,0
497,43,0,0,0,0,0,0,0,0,0,-1,1721,981,0,0
504,43,0,0,0,0,0,0,0,0,0,-1,1728,981,0,0
511,43,0,0,0,0,0,0,0,0,0,-1,1735,981,0,0
518,43,0,0,0,0,0,0,0,0,0,-1,1742,981,0,0
525,43,0,0,0,0,0,0,0,0,0,-1,1749,981,0,0
532,43,0,0,0,0,0,0,0,0,0,-1,1756,981,0,0
539,43,0,0,0,0,0,0,0,0,0,-1,1763,981,0,0
546,43,0,0,0,0,0,0,0,0,0,-1,1770,981,0,0
553,43,0,0,0,0,0,0,0,0,0,-1,1777,981,0,0
560,43,0,0,0,0,0,0,0,0,0,-1,1784,981,0,0
567,43,0,0,0,0,0,0,0,0,0,-1,1791,981,0,0
574,43,0,0,0,0,0,0,0,0,0,-1,1798,981,0,0
581,43,0,0,0,0,0,0,0,0,0,-1,1805,981,0,0
588,43,0,0,0,0,0,0,0,0,0,-1,1812,981,0,0
595,43,0,0,0,0,0,0,0,0,0,-1,1819,981,0,0
602,43,0,0,0,0,0,0,0,0,0,-1,1826,981,0,0
609,43,0,0,0,0,0,0,0,0,0,-1,1833,981,0,0
616,43,0,0,0,0,0,0,0,0,0,-1,1840,981,0,0
623,43,0,0,0,0,0,0,0,0,0,-1,1847,981,0,0
630,43,0,0,0,0,0,0,0,0,0,-1,1854,981,0,0
637,43,0,0,0,0,0,0,0,0,0,-1,1861,981,0,0
644,43,71.5668,2.2998,0.00493045,-0.000148399,0.00126777,0.00522932,-0.000447271,0.231518,0.00364447,0.0375858,1868,981,71.5668,-2.29982
651,43,71.5614,2.25934,0.00360083,0.0003085,0.000655181,0.00372642,0.000182908,0.189392,0.00242561,0.0351854,1875,981,71.5614,-2.25932
658,43,71.6464,2.27869,0.00256149,0.000635057,0.000321664,0.00261379,0.000582767,0.161152,0.0015844,0.0366997,1882,981,71.6463,-2.27872
665,43,71.6395,2.18805,0.00175948,0.000922507,4.21737e-05,0.0017616,0.000920388,0.050219,0.0010174,0.0366944,1889,981,71.6395,-2.18808
672,43,71.6945,2.05402,0.000930054,0.00108916,-0.000113864,0.00114851,0.000870704,-1.09031,0.000691916,0.0402328,1896,981,71.6945,-2.05399
679,43,71.8186,2.10596,0.000259515,0.000808159,-9.15585e-05,0.000823035,0.000244639,-1.40973,0.000488029,0.0422814,1903,981,71.8186,-2.10598
686,43,71.7072,2.22638,-6.15699e-05,0.000238681,-9.59203e-05,0.000266708,-8.95971e-05,-1.28652,0.000214017,0.0400025,1910,981,71.7072,-2.22637
693,43,71.6445,2.28644,-0.00040658,-0.000339327,-0.000145727,-0.000223397,-0.00052251,-0.898789,0.000302726,0.0375146,1917,981,71.6445,-2.28642
700,43,71.6681,2.30219,-0.000888089,-0.000664419,-0.000315339,-0.000441671,-0.00111084,-0.955804,0.00064581,0.0352762,1924,981,71.6681,-2.30219
707,43,71.7413,2.23035,-0.00158479,-0.000443949,-0.000569247,-0.000208503,-0.00182024,-1.17861,0.00115031,0.0335287,1931,981,71.7413,-2.23035
714,43,71.6974,2.18933,0,0,0,0,0,0,0,-1,1938,981,71.6974,-2.18932
721,43,70.8495,5.59741,0,0,0,0,0,0,0,-1,1945,981,70.8494,-5.59739
728,43,70.8966,6.04333,-0.00450092,0.00267494,-0.00112529,0.00284727,-0.00467324,-1.41884,0.00438442,0.0190295,1952,981,70.8966,-6.04335
735,43,70.9247,6.45905,-0.00491213,0.00381711,-0.00149977,0.0040676,-0.00516262,-1.40531,0.00534155,0.0154189,1959,981,70.9247,-6.45906
742,43,70.8678,6.80841,-0.00489218,0.00557018,-0.00242816,0.00610626,-0.00542825,-1.35351,0.00666328,0.0173835,1966,981,70.8678,-6.80843
749,43,70.8015,7.16394,-0.00434863,0.00783747,-0.00368459,0.00886491,-0.00537607,-1.29886,0.00830387,0.0202807,1973,981,70.8015,-7.16392
756,43,70.7769,7.45258,-0.001958,0.0108996,-0.00555295,0.0129658,-0.00402419,-1.21458,0.010252,0.0235568,1980,981,70.7767,-7.45256
763,43,70.7483,7.73022,0.00252742,0.0146077,-0.00822168,0.0187695,-0.00163438,-1.1022,0.0130918,0.0268863,1987,981,70.7482,-7.73023
770,43,70.6226,8.09137,0.0107449,0.0181355,-0.0120804,0.0270731,0.00180723,-0.933825,0.0174775,0.0236986,1994,981,70.6226,-8.0914
777,43,70.5752,8.44012,0.0221871,0.0210655,-0.0169466,0.0385822,0.0046704,-0.768858,0.0243146,0.028408,2001,981,70.5752,-8.4401
784,43,70.7556,9.16248,0,0,0,0,0,0,0,-1,2008,981,70.7555,-9.1625
791,43,71.7273,8.86145,0.0589302,0.0242119,-0.0308721,0.076989,0.00615312,-0.529282,0.0494028,0.0489001,2015,981,71.7274,-8.86143
798,43,72.6506,8.53912,0.0851266,0.0244526,-0.0404084,0.105319,0.0042607,-0.463404,0.0688361,0.0484496,2022,981,72.6507,-8.53911
805,43,73.6533,8.25378,0.116039,0.0244073,-0.0515697,0.139205,0.00124101,-0.422208,0.0923923,0.0484639,2029,981,73.6533,-8.25379
812,43,74.7332,7.92902,0,0,0,0,0,0,0,-1,2036,981,74.7331,-7.92901
-700,36,0,0,0,0,0,0,0,0,0,-1,524,988,0,0
-693,36,-56.1643,3.75714,0.153798,0.00417864,-0.0712909,0.182327,-0.0243504,-0.380659,0.130428,0.0463544,531,988,-56.1643,-3.75713
-686,36,-55.7463,2.76208,0.136294,0.040537,-0.0550503,0.161373,0.0154573,-0.427482,0.102818,0.0461655,538,988,-55.7463,-2.76209
-679,36,-55.3822,1.80029,0.116471,0.058106,-0.0418505,0.138309,0.0362681,-0.480941,0.0828078,0.0458192,545,988,-55.3822,-1.80032
-672,36,-54.6673,0.667908,0,0,0,0,0,0,0,-1,552,988,-54.6673,-0.667935
-665,36,-54.0867,-0.571655,0,0,0,0,0,0,0,-1,559,988,-54.0867,0.571673
-658,36,-55.3483,6.6311,0,0,0,0,0,0,0,-1,566,988,-55.3483,-6.6311
-651,36,-55.5298,6.38867,0.0463699,0.0624123,-0.00729646,0.0652344,0.0435477,-1.20174,0.0383616,0.0441288,573,988,-55.5299,-6.38869
-644,36,-55.7245,6.18823,0.0317021,0.0542212,-0.00263016,0.0545243,0.031399,-1.45606,0.0316002,0.0293771,580,988,-55.7245,-6.18826
-637,36,-55.9285,5.99731,0.0193891,0.0452585,0.000788784,0.0452826,0.0193651,1.54034,0.026235,0.0232716,587,988,-55.9285,-5.99734
-630,36,-55.9834,5.89032,0.00844798,0.0367136,0.00337241,0.0371104,0.00805118,1.45368,0.022541,0.0169284,594,988,-55.9834,-5.8903
-623,36,-56.0264,5.68054,0.000374864,0.0265917,0.00444228,0.0273239,-0.0003574,1.40743,0.0183362,0.0142785,601,988,-56.0264,-5.68053
-616,36,-56.013,5.44226,-0.00388209,0.0174115,0.00373316,0.018047,-0.00451762,1.40218,0.0137862,0.0118252,608,988,-56.013,-5.44229
-609,36,-55.9374,5.21027,-0.0045354,0.0072968,0.00218347,0.00768687,-0.00492547,1.39401,0.00733969,0.0174615,615,988,-55.9374,-5.21028
-602,36,-55.9952,4.8894,-0.00373438,0.00451272,0.00141709,0.00474943,-0.00397108,1.40529,0.00504147,0.0215091,622,988,-55.9952,-4.8894
-595,36,-56.2759,4.58337,-0.0031161,0.00243082,0.00083166,0.00255283,-0.00323811,1.42513,0.0033512,0.0266774,629,988,-56.2759,-4.58336
-588,36,-56.5553,4.41217,0,0,0,0,0,0,0,-1,636,988,-56.5553,-4.41217
-581,36,-55.6245,0.618896,0,0,0,0,0,0,0,-1,643,988,-55.6245,-0.618891
-574,36,-55.6172,0.563354,-0.000158333,-0.00058899,-0.000750666,0.000407277,-0.0011546,-0.645723,0.000935526,0.0309746,650,988,-55.6172,-0.563354
-567,36,-55.6122,0.461426,0.00043886,-0.000643438,-0.00104333,0.00107303,-0.00127761,-0.54616,0.00135886,0.0369026,657,988,-55.6122,-0.461456
-560,36,-55.6212,0.5,0.00111715,-0.000332013,-0.00132365,0.00190156,-0.00111643,-0.534972,0.00176198,0.0392432,664,988,-55.6212,-0.500014
-553,36,-55.6234,0.548279,0.0018801,0.000319878,-0.00169693,0.00296765,-0.000767672,-0.569945,0.00227786,0.0417569,671,988,-55.6234,-0.548264
-546,36,-55.5961,0.548401,0.00275802,0.00105783,-0.00221364,0.00427919,-0.000463337,-0.602068,0.00301911,0.0430058,678,988,-55.5961,-0.54843
-539,36,-55.3936,0.516418,0.00349784,0.00144823,-0.00300157,0.00564473,-0.000698654,-0.620892,0.00401634,0.0444602,685,988,-55.3936,-0.516432
-532,36,-55.2657,0.574402,0.00468123,0.00227312,-0.00461909,0.00825061,-0.00129626,-0.657901,0.00597951,0.0460703,692,988,-55.2658,-0.574376
-525,36,-55.4192,0.69519,0.00565694,0.00282431,-0.00638001,0.0107759,-0.00229469,-0.676173,0.00805851,0.0474943,699,988,-55.4192,-0.695169
-518,36,0,0,0,0,0,0,0,0,0,-1,706,988,0,0
-511,36,0,0,0,0,0,0,0,0,0,-1,713,988,0,0
-504,36,0,0,0,0,0,0,0,0,0,-1,720,988,0,0
-497,36,0,0,0,0,0,0,0,0,0,-1,727,988,0,0
-490,36,0,0,0,0,0,0,0,0,0,-1,734,988,0,0
-483,36,0,0,0,0,0,0,0,0,0,-1,741,988,0,0
-476,36,0,0,0,0,0,0,0,0,0,-1,748,988,0,0
-469,36,0,0,0,0,0,0,0,0,0,-1,755,988,0,0
-462,36,0,0,0,0,0,0,0,0,0,-1,762,988,0,0
-455,36,0,0,0,0,0,0,0,0,0,-1,769,988,0,0
-448,36,0,0,0,0,0,0,0,0,0,-1,776,988,0,0
-441,36,0,0,0,0,0,0,0,0,0,-1,783,988,0,0
-434,36,0,0,0,0,0,0,0,0,0,-1,790,988,0,0
-427,36,0,0,0,0,0,0,0,0,0,-1,797,988,0,0
-420,36,0,0,0,0,0,0,0,0,0,-1,804,988,0,0
-413,36,0,0,0,0,0,0,0,0,0,-1,811,988,0,0
-406,36,0,0,0,0,0,0,0,0,0,-1,818,988,0,0
-399,36,0,0,0,0,0,0,0,0,0,-1,825,988,0,0
-392,36,0,0,0,0,0,0,0,0,0,-1,832,988,0,0
-385,36,0,0,0,0,0,0,0,0,0,-1,839,988,0,0
-378,36,0,0,0,0,0,0,0,0,0,-1,846,988,0,0
-371,36,0,0,0,0,0,0,0,0,0,-1,853,988,0,0
-364,36,0,0,0,0,0,0,0,0,0,-1,860,988,0,0
-357,36,0,0,0,0,0,0,0,0,0,-1,867,988,0,0
-350,36,0,0,0,0,0,0,0,0,0,-1,874,988,0,0
-343,36,0,0,0,0,0,0,0,0,0,-1,881,988,0,0
-336,36,0,0,0,0,0,0,0,0,0,-1,888,988,0,0
-329,36,0,0,0,0,0,0,0,0,0,-1,895,988,0,0
-322,36,0,0,0,0,0,0,0,0,0,-1,902,988,0,0
-315,36,0,0,0,0,0,0,0,0,0,-1,909,988,0,0
-308,36,0,0,0,0,0,0,0,0,0,-1,916,988,0,0
-301,36,0,0,0,0,0,0,0,0,0,-1,923,988,0,0
-294,36,0,0,0,0,0,0,0,0,0,-1,930,988,0,0
-287,36,0,0,0,0,0,0,0,0,0,-1,937,988,0,0
-280,36,0,0,0,0,0,0,0,0,0,-1,944,988,0,0
-273,36,0,0,0,0,0,0,0,0,0,-1,951,988,0,0
-266,36,0,0,0,0,0,0,0,0,0,-1,958,988,0,0
-259,36,0,0,0,0,0,0,0,0,0,-1,965,988,0,0
-252,36,0,0,0,0,0,0,0,0,0,-1,972,988,0,0
-245,36,0,0,0,0,0,0,0,0,0,-1,979,988,0,0
-238,36,0,0,0,0,0,0,0,0,0,-1,986,988,0,0
-231,36,0,0,0,0,0,0,0,0,0,-1,993,988,0,0
-224,36,0,0,0,0,0,0,0,0,0,-1,1000,988,0,0
-217,36,0,0,0,0,0,0,0,0,0,-1,1007,988,0,0
-210,36,0,0,0,0,0,0,0,0,0,-1,1014,988,0,0
-203,36,0,0,0,0,0,0,0,0,0,-1,1021,988,0,0
-196,36,0,0,0,0,0,0,0,0,0,-1,1028,988,0,0
-189,36,0,0,0,0,0,0,0,0,0,-1,1035,988,0,0
-182,36,0,0,0,0,0,0,0,0,0,-1,1042,988,0,0
-175,36,0,0,0,0,0,0,0,0,0,-1,1049,988,0,0
-168,36,0,0,0,0,0,0,0,0,0,-1,1056,988,0,0
-161,36,0,0,0,0,0,0,0,0,0,-1,1063,988,0,0
-154,36,0,0,0,0,0,0,0,0,0,-1,1070,988,0,0
-147,36,0,0,0,0,0,0,0,0,0,-1,1077,988,0,0
-140,36,0,0,0,0,0,0,0,0,0,-1,1084,988,0,0
-133,36,0,0,0,0,0,0,0,0,0,-1,1091,988,0,0
-126,36,0,0,0,0,0,0,0,0,0,-1,1098,988,0,0
-119,36,0,0,0,0,0,0,0,0,0,-1,1105,988,0,0
-112,36,0,0,0,0,0,0,0,0,0,-1,1112,988,0,0
-105,36,0,0,0,0,0,0,0,0,0,-1,1119,988,0,0
-98,36,0,0,0,0,0,0,0,0,0,-1,1126,988,0,0
-91,36,0,0,0,0,0,0,0,0,0,-1,1133,988,0,0
-84,36,0,0,0,0,0,0,0,0,0,-1,1140,988,0,0
-77,36,0,0,0,0,0,0,0,0,0,-1,1147,988,0,0
-70,36,0,0,0,0,0,0,0,0,0,-1,1154,988,0,0
-63,36,0,0,0,0,0,0,0,0,0,-1,1161,988,0,0
-56,36,0,0,0,0,0,0,0,0,0,-1,1168,988,0,0
-49,36,0,0,0,0,0,0,0,0,0,-1,1175,988,0,0
-42,36,0,0,0,0,0,0,0,0,0,-1,1182,988,0,0
-35,36,0,0,0,0,0,0,0,0,0,-1,1189,988,0,0
-28,36,0,0,0,0,0,0,0,0,0,-1,1196,988,0,0
-21,36,0,0,0,0,0,0,0,0,0,-1,1203,988,0,0
-14,36,0,0,0,0,0,0,0,0,0,-1,1210,988,0,0
-7,36,0,0,0,0,0,0,0,0,0,-1,1217,988,0,0
0,36,0,0,0,0,0,0,0,0,0,-1,1224,988,0,0
7,36,0,0,0,0,0,0,0,0,0,-1,1231,988,0,0
14,36,0,0,0,0,0,0,0,0,0,-1,1238,988,0,0
21,36,0,0,0,0,0,0,0,0,0,-1,1245,988,0,0
28,36,0,0,0,0,0,0,0,0,0,-1,1252,988,0,0
35,36,0,0,0,0,0,0,0,0,0,-1,1259,988,0,0
42,36,0,0,0,0,0,0,0,0,0,-1,1266,988,0,0
49,36,0,0,0,0,0,0,0,0,0,-1,1273,988,0,0
56,36,0,0,0,0,0,0,0,0,0,-1,1280,988,0,0
63,36,0,0,0,0,0,0,0,0,0,-1,1287,988,0,0
70,36,0,0,0,0,0,0,0,0,0,-1,1294,988,0,0
77,36,0,0,0,0,0,0,0,0,0,-1,1301,988,0,0
84,36,0,0,0,0,0,0,0,0,0,-1,1308,988,0,0
91,36,0,0,0,0,0,0,0,0,0,-1,1315,988,0,0
98,36,0,0,0,0,0,0,0,0,0,-1,1322,988,0,0
105,36,0,0,0,0,0,0,0,0,0,-1,1329,988,0,0
112,36,0,0,0,0,0,0,0,0,0,-1,1336,988,0,0
119,36,0,0,0,0,0,0,0,0,0,-1,1343,988,0,0
126,36,0,0,0,0,0,0,0,0,0,-1,1350,988,0,0
133,36,0,0,0,0,0,0,0,0,0,-1,1357,988,0,0
140,36,0,0,0,0,0,0,0,0,0,-1,1364,988,0,0
147,36,0,0,0,0,0,0,0,0,0,-1,1371,988,0,0
154,36,0,0,0,0,0,0,0,0,0,-1,1378,988,0,0
161,36,0,0,0,0,0,0,0,0,0,-1,1385,988,0,0
168,36,0,0,0,0,0,0,0,0,0,-1,1392,988,0,0
175,36,0,0,0,0,0,0,0,0,0,-1,1399,988,0,0
182,36,0,0,0,0,0,0,0,0,0,-1,1406,988,0,0
189,36,0,0,0,0,0,0,0,0,0,-1,1413,988,0,0
196,36,0,0,0,0,0,0,0,0,0,-1,1420,988,0,0
203,36,0,0,0,0,0,0,0,0,0,-1,1427,988,0,0
210,36,0,0,0,0,0,0,0,0,0,-1,1434,988,0,0
217,36,0,0,0,0,0,0,0,0,0,-1,1441,988,0,0
224,36,0,0,0,0,0,0,0,0,0,-1,1448,988,0,0
231,36,0,0,0,0,0,0,0,0,0,-1,1455,988,0,0
238,36,0,0,0,0,0,0,0,0,0,-1,1462,988,0,0
245,36,0,0,0,0,0,0,0,0,0,-1,1469,988,0,0
252,36,0,0,0,0,0,0,0,0,0,-1,1476,988,0,0
259,36,0,0,0,0,0,0,0,0,0,-1,1483,988,0,0
266,36,0,0,0,0,0,0,0,0,0,-1,1490,988,0,0
273,36,0,0,0,0,0,0,0,0,0,-1,1497,988,0,0
280,36,0,0,0,0,0,0,0,0,0,-1,1504,988,0,0
287,36,0,0,0,0,0,0,0,0,0,-1,1511,988,0,0
294,36,0,0,0,0,0,0,0,0,0,-1,1518,988,0,0
301,36,0,0,0,0,0,0,0,0,0,-1,1525,988,0,0
308,36,0,0,0,0,0,0,0,0,0,-1,1532,988,0,0
315,36,0,0,0,0,0,0,0,0,0,-1,1539,988,0,0
322,36,0,0,0,0,0,0,0,0,0,-1,1546,988,0,0
329,36,0,0,0,0,0,0,0,0,0,-1,1553,988,0,0
336,36,0,0,0,0,0,0,0,0,0,-1,1560,988,0,0
343,36,0,0,0,0,0,0,0,0,0,-1,1567,988,0,0
350,36,0,0,0,0,0,0,0,0,0,-1,1574,988,0,0
357,36,0,0,0,0,0,0,0,0,0,-1,1581,988,0,0
364,36,0,0,0,0,0,0,0,0,0,-1,1588,988,0,0
371,36,0,0,0,0,0,0,0,0,0,-1,1595,988,0,0
378,36,0,0,0,0,0,0,0,0,0,-1,1602,988,0,0
385,36,0,0,0,0,0,0,0,0,0,-1,1609,988,0,0
392,36,0,0,0,0,0,0,0,0,0,-1,1616,988,0,0
399,36,0,0,0,0,0,0,0,0,0,-1,1623,988,0,0
406,36,0,0,0,0,0,0,0,0,0,-1,1630,988,0,0
413,36,0,0,0,0,0,0,0,0,0,-1,1637,988,0,0
420,36,0,0,0,0,0,0,0,0,0,-1,1644,988,0,0
427,36,0,0,0,0,0,0,0,0,0,-1,1651,988,0,0
434,36,0,0,0,0,0,0,0,0,0,-1,1658,988,0,0
441,36,0,0,0,0,0,0,0,0,0,-1,1665,988,0,0
448,36,0,0,0,0,0,0,0,0,0,-1,1672,988,0,0
455,36,0,0,0,0,0,0,0,0,0,-1,1679,988,0,0
462,36,0,0,0,0,0,0,0,0,0,-1,1686,988,0,0
469,36,0,0,0,0,0,0,0,0,0,-1,1693,988,0,0
476,36,0,0,0,0,0,0,0,0,0,-1,1700,988,0,0
483,36,0,0,0,0,0,0,0,0,0,-1,1707,988,0,0
490,36,0,0,0,0,0,0,0,0,0,-1,1714,988,0,0
497,36,0,0,0,0,0,0,0,0,0,-1,1721,988,0,0
504,36,0,0,0,0,0,0,0,0,0,-1,1728,988,0,0
511,36,0,0,0,0,0,0,0,0,0,-1,1735,988,0,0
518,36,0,0,0,0,0,0,0,0,0,-1,1742,988,0,0
525,36,0,0,0,0,0,0,0,0,0,-1,1749,988,0,0
532,36,0,0,0,0,0,0,0,0,0,-1,1756,988,0,0
539,36,0,0,0,0,0,0,0,0,0,-1,1763,988,0,0
546,36,0,0,0,0,0,0,0,0,0,-1,1770,988,0,0
553,36,0,0,0,0,0,0,0,0,0,-1,1777,988,0,0
560,36,0,0,0,0,0,0,0,0,0,-1,1784,988,0,0
567,36,0,0,0,0,0,0,0,0,0,-1,1791,988,0,0
574,36,0,0,0,0,0,0,0,0,0,-1,1798,988,0,0
581,36,0,0,0,0,0,0,0,0,0,-1,1805,988,0,0
588,36,0,0,0,0,0,0,0,0,0,-1,1812,988,0,0
595,36,0,0,0,0,0,0,0,0,0,-1,1819,988,0,0
602,36,0,0,0,0,0,0,0,0,0,-1,1826,988,0,0
609,36,0,0,0,0,0,0,0,0,0,-1,1833,988,0,0
616,36,0,0,0,0,0,0,0,0,0,-1,1840,988,0,0
623,36,0,0,0,0,0,0,0,0,0,-1,1847,988,0,0
630,36,0,0,0,0,0,0,0,0,0,-1,1854,988,0,0
637,36,0,0,0,0,0,0,0,0,0,-1,1861,988,0,0
644,36,71.5117,2.24738,0.00591515,-0.000771127,0.00144427,0.00621378,-0.00106976,0.203897,0.0045413,0.0412518,1868,988,71.5117,-2.24737
651,36,71.473,2.28754,0.0041601,-0.000183809,0.000597996,0.00424092,-0.000264627,0.134335,0.00291949,0.0401896,1875,988,71.4731,-2.28756
658,36,71.6393,2.41284,0.00285155,0.000276149,0.000161769,0.00286167,0.000266028,0.0624859,0.00182558,0.037581,1882,988,71.6393,-2.41287
665,36,71.7891,2.3349,0.00187059,0.000662599,-0.000145227,0.00188781,0.000645385,-0.117982,0.00110795,0.0375538,1889,988,71.789,-2.33487
672,36,71.7533,2.21991,0.000982335,0.000948808,-0.000300623,0.00126666,0.000664481,-0.757546,0.000731603,0.0423519,1896,988,71.7533,-2.21992
679,36,71.752,2.16046,0.000333223,0.000814305,-0.000264337,0.000931163,0.000216365,-1.15455,0.000562695,0.0440205,1903,988,71.7519,-2.16046
686,36,71.6135,2.3277,5.47908e-05,0.000328206,-0.000227038,0.000456517,-7.3521e-05,-1.05639,0.00033158,0.0364534,1910,988,71.6135,-2.32771
693,36,71.6492,2.36487,-0.000199412,-0.000214087,-0.000208489,1.86898e-06,-0.000415368,-0.767808,0.000277537,0.0369552,1917,988,71.6492,-2.36488
700,36,71.6979,2.36133,-0.00055861,-0.000536368,-0.000328323,-0.000218978,-0.000876,-0.802327,0.000526415,0.0367025,1924,988,71.6979,-2.3613
707,36,71.7396,2.2262,-0.0012198,-0.00028553,-0.00052607,-4.91275e-05,-0.0014562,-1.14846,0.000954848,0.0284675,1931,988,71.7397,-2.2262
714,36,71.7659,2.09552,0,0,0,0,0,0,0,-1,1938,988,71.7659,-2.09554
721,36,71.0902,5.68042,0,0,0,0,0,0,0,-1,1945,988,71.0903,-5.68039
728,36,71.146,6.13544,-0.00438454,0.00306468,-0.000917653,0.00317606,-0.00449592,-1.45001,0.00445121,0.0231509,1952,988,71.146,-6.13545
735,36,71.2076,6.55939,-0.00491797,0.00434551,-0.00127271,0.00451718,-0.00508965,-1.43672,0.00554979,0.0200178,1959,988,71.2076,-6.55938
742,36,71.1254,6.7832,-0.00513494,0.00604331,-0.00216186,0.00644685,-0.00553848,-1.38626,0.00692635,0.0169822,1966,988,71.1253,-6.78323
749,36,71.0963,7.11182,-0.00499027,0.00814398,-0.00336572,0.00895623,-0.00580252,-1.33399,0.00858557,0.0185998,1973,988,71.0963,-7.11179
756,36,71.0864,7.43152,-0.00327599,0.0110379,-0.00520861,0.0127326,-0.00497068,-1.25624,0.0105434,0.0183586,1980,988,71.0865,-7.43151
763,36,70.9817,7.6333,0.000218222,0.0146136,-0.00782643,0.0180489,-0.00321704,-1.15719,0.0132359,0.0215749,1987,988,70.9817,-7.63328
770,36,70.8762,7.89807,0.00738916,0.0180244,-0.0117466,0.0256009,-0.000187377,-0.997944,0.0171301,0.0177817,1994,988,70.8763,-7.8981
777,36,70.8923,8.23663,0.0177496,0.02083,-0.0167311,0.0360916,0.00248796,-0.831297,0.0232761,0.0266946,2001,988,70.8923,-8.23664
784,36,71.0947,8.6637,0,0,0,0,0,0,0,-1,2008,988,71.0946,-8.66372
791,36,72.4192,8.78369,0,0,0,0,0,0,0,-1,2015,988,72.4193,-8.78367
798,36,73.374,8.41656,0,0,0,0,0,0,0,-1,2022,988,73.3739,-8.41656
805,36,74.3835,8.0658,0,0,0,0,0,0,0,-1,2029,988,74.3836,-8.06582
812,36,66.1145,5.13074,0,0,0,0,0,0,0,-1,2036,988,66.1145,-5.13077
-700,29,0,0,0,0,0,0,0,0,0,-1,524,995,0,0
-693,29,-55.179,3.6925,0,0,0,0,0,0,0,-1,531,995,-55.179,-3.69249
-686,29,-53.1355,0.0602417,0,0,0,0,0,0,0,-1,538,995,-53.1355,-0.0602134
-679,29,-54.7807,1.92194,0.092424,0.0458138,-0.0413235,0.116561,0.0216768,-0.528646,0.0715843,0.0443625,545,995,-54.7807,-1.92195
-672,29,-54.2749,0.846741,0.0768828,0.0535038,-0.0319255,0.0991916,0.031195,-0.609905,0.0585674,0.0423615,552,995,-54.2749,-0.846739
-665,29,-53.9874,-0.0181274,0.0621455,0.0568224,-0.0236523,0.0832856,0.0356823,-0.72937,0.0482489,0.0415385,559,995,-53.9874,0.0181578
-658,29,-53.8716,-0.718445,0,0,0,0,0,0,0,-1,566,995,-53.8716,0.718471
-651,29,-55.8376,5.95294,0,0,0,0,0,0,0,-1,573,995,-55.8377,-5.95292
-644,29,-55.9312,5.6828,0.0233176,0.0470228,-0.00534348,0.0481716,0.0221688,-1.35903,0.0278412,0.0459939,580,995,-55.9311,-5.68277
-637,29,-56.1796,5.79413,0.0132587,0.0399665,-0.00147467,0.0400476,0.0131776,-1.5158,0.0235677,0.027066,587,995,-56.1796,-5.79411
-630,29,-56.2131,5.74255,0.00427506,0.0329165,0.00153442,0.0329984,0.00419309,1.51743,0.020743,0.0154216,594,995,-56.2131,-5.74258
-623,29,-56.218,5.62347,-0.00195112,0.0236818,0.00324416,0.024086,-0.00235534,1.44684,0.0168973,0.0140657,601,995,-56.218,-5.62346
-616,29,-56.265,5.41406,-0.00498871,0.0155724,0.00300573,0.0160028,-0.00541909,1.42858,0.0128612,0.0154373,608,995,-56.265,-5.41406
-609,29,-56.2205,5.28247,-0.0053265,0.00706933,0.0017165,0.00730263,-0.0055598,1.43571,0.00744882,0.0254048,615,995,-56.2205,-5.28245
-602,29,-56.3658,5.03534,-0.00441647,0.00450599,0.000978074,0.00461195,-0.00452243,1.46288,0.00527382,0.0263254,622,995,-56.3659,-5.03536
-595,29,-56.6531,4.71564,-0.00366765,0.00265451,0.000380292,0.00267731,-0.00369045,1.51093,0.0036919,0.0279872,629,995,-56.6531,-4.71561
-588,29,-56.904,4.41077,0,0,0,0,0,0,0,-1,636,995,-56.904,-4.41076
-581,29,-55.5632,0.559326,0,0,0,0,0,0,0,-1,643,995,-55.5632,-0.559355
-574,29,-55.5771,0.519653,-0.000655263,-0.00021863,-0.000935585,0.000523773,-0.00139767,-0.900021,0.00114695,0.0326847,650,995,-55.5772,-0.519684
-567,29,-55.6088,0.448425,-3.32238e-05,-0.0002576,-0.00110049,0.000960781,-0.0012516,-0.734602,0.00128099,0.0333288,657,995,-55.6088,-0.448419
-560,29,-55.7049,0.471619,0.000672003,7.15204e-05,-0.001231,0.00163885,-0.000895323,-0.665783,0.00148395,0.0363007,664,995,-55.7049,-0.471614
-553,29,-55.7823,0.605286,0.00141451,0.000657173,-0.00141671,0.00250228,-0.0004306,-0.654807,0.0018287,0.0393608,671,995,-55.7824,-0.605312
-546,29,-55.7886,0.646301,0.00218206,0.00116026,-0.00168408,0.00343104,-8.87095e-05,-0.638125,0.00231749,0.0413599,678,995,-55.7886,-0.646324
-539,29,-55.632,0.542908,0.00261497,0.00111369,-0.00214021,0.00413237,-0.0004037,-0.616736,0.00289886,0.0416234,685,995,-55.632,-0.542928
-532,29,-55.4268,0.593079,0.00331899,0.00145529,-0.00333288,0.00584784,-0.00107356,-0.649082,0.00430131,0.0482712,692,995,-55.4268,-0.593055
-525,29,-55.3819,0.692932,0.00371801,0.00130791,-0.00462118,0.00728867,-0.00226275,-0.657855,0.00576338,0.0492859,699,995,-55.3819,-0.692912
-518,29,0,0,0,0,0,0,0,0,0,-1,706,995,0,0
-511,29,0,0,0,0,0,0,0,0,0,-1,713,995,0,0
-504,29,0,0,0,0,0,0,0,0,0,-1,720,995,0,0
-497,29,0,0,0,0,0,0,0,0,0,-1,727,995,0,0
-490,29,0,0,0,0,0,0,0,0,0,-1,734,995,0,0
-483,29,0,0,0,0,0,0,0,0,0,-1,741,995,0,0
-476,29,0,0,0,0,0,0,0,0,0,-1,748,995,0,0
-469,29,0,0,0,0,0,0,0,0,0,-1,755,995,0,0
-462,29,0,0,0,0,0,0,0,0,0,-1,762,995,0,0
-455,29,0,0,0,0,0,0,0,0,0,-1,769,995,0,0
-448,29,0,0,0,0,0,0,0,0,0,-1,776,995,0,0
-441,29,0,0,0,0,0,0,0,0,0,-1,783,995,0,0
-434,29,0,0,0,0,0,0,0,0,0,-1,790,995,0,0
-427,29,0,0,0,0,0,0,0,0,0,-1,797,995,0,0
-420,29,0,0,0,0,0,0,0,0,0,-1,804,995,0,0
-413,29,0,0,0,0,0,0,0,0,0,-1,811,995,0,0
-406,29,0,0,0,0,0,0,0,0,0,-1,818,995,0,0
-399,29,0,0,0,0,0,0,0,0,0,-1,825,995,0,0
-392,29,0,0,0,0,0,0,0,0,0,-1,832,995,0,0
-385,29,0,0,0,0,0,0,0,0,0,-1,839,995,0,0
-378,29,0,0,0,0,0,0,0,0,0,-1,846,995,0,0
-371,29,0,0,0,0,0,0,0,0,0,-1,853,995,0,0
-364,29,0,0,0,0,0,0,0,0,0,-1,860,995,0,0
-357,29,0,0,0,0,0,0,0,0,0,-1,867,995,0,0
-350,29,0,0,0,0,0,0,0,0,0,-1,874,995,0,0
-343,29,0,0,0,0,0,0,0,0,0,-1,881,995,0,0
-336,29,0,0,0,0,0,0,0,0,0,-1,888,995,0,0
-329,29,0,0,0,0,0,0,0,0,0,-1,895,995,0,0
-322,29,0,0,0,0,0,0,0,0,0,-1,902,995,0,0
-315,29,0,0,0,0,0,0,0,0,0,-1,909,995,0,0
-308,29,0,0,0,0,0,0,0,0,0,-1,916,995,0,0
-301,29,0,0,0,0,0,0,0,0,0,-1,923,995,0,0
-294,29,0,0,0,0,0,0,0,0,0,-1,930,995,0,0
-287,29,0,0,0,0,0,0,0,0,0,-1,937,995,0,0
-280,29,0,0,0,0,0,0,0,0,0,-1,944,995,0,0
-273,29,0,0,0,0,0,0,0,0,0,-1,951,995,0,0
-266,29,0,0,0,0,0,0,0,0,0,-1,958,995,0,0
-259,29,0,0,0,0,0,0,0,0,0,-1,965,995,0,0
-252,29,0,0,0,0,0,0,0,0,0,-1,972,995,0,0
-245,29,0,0,0,0,0,0,0,0,0,-1,979,995,0,0
-238,29,0,0,0,0,0,0,0,0,0,-1,986,995,0,0
-231,29,0,0,0,0,0,0,0,0,0,-1,993,995,0,0
-224,29,0,0,0,0,0,0,0,0,0,-1,1000,995,0,0
-217,29,0,0,0,0,0,0,0,0,0,-1,1007,995,0,0
-210,29,0,0,0,0,0,0,0,0,0,-1,1014,995,0,0
-203,29,0,0,0,0,0,0,0,0,0,-1,1021,995,0,0
-196,29,0,0,0,0,0,0,0,0,0,-1,1028,995,0,0
-189,29,0,0,0,0,0,0,0,0,0,-1,1035,995,0,0
-182,29,0,0,0,0,0,0,0,0,0,-1,1042,995,0,0
-175,29,0,0,0,0,0,0,0,0,0,-1,1049,995,0,0
-168,29,0,0,0,0,0,0,0,0,0,-1,1056,995,0,0
-161,29,0,0,0,0,0,0,0,0,0,-1,1063,995,0,0
-154,29,0,0,0,0,0,0,0,0,0,-1,1070,995,0,0
-147,29,0,0,0,0,0,0,0,0,0,-1,1077,995,0,0
-140,29,0,0,0,0,0,0,0,0,0,-1,1084,995,0,0
-133,29,0,0,0,0,0,0,0,0,0,-1,1091,995,0,0
-126,29,0,0,0,0,0,0,0,0,0,-1,1098,995,0,0
-119,29,0,0,0,0,0,0,0,0,0,-1,1105,995,0,0
-112,29,0,0,0,0,0,0,0,0,0,-1,1112,995,0,0
-105,29,0,0,0,0,0,0,0,0,0,-1,1119,995,0,0
-98,29,0,0,0,0,0,0,0,0,0,-1,1126,995,0,0
-91,29,0,0,0,0,0,0,0,0,0,-1,1133,995,0,0
-84,29,0,0,0,0,0,0,0,0,0,-1,1140,995,0,0
-77,29,0,0,0,0,0,0,0,0,0,-1,1147,995,0,0
-70,29,0,0,0,0,0,0,0,0,0,-1,1154,995,0,0
-63,29,0,0,0,0,0,0,0,0,0,-1,1161,995,0,0
-56,29,0,0,0,0,0,0,0,0,0,-1,1168,995,0,0
-49,29,0,0,0,0,0,0,0,0,0,-1,1175,995,0,0
-42,29,0,0,0,0,0,0,0,0,0,-1,1182,995,0,0
-35,29,0,0,0,0,0,0,0,0,0,-1,1189,995,0,0
-28,29,0,0,0,0,0,0,0,0,0,-1,1196,995,0,0
-21,29,0,0,0,0,0,0,0,0,0,-1,1203,995,0,0
-14,29,0,0,0,0,0,0,0,0,0,-1,1210,995,0,0
-7,29,0,0,0,0,0,0,0,0,0,-1,1217,995,0,0
0,29,0,0,0,0,0,0,0,0,0,-1,1224,995,0,0
7,29,0,0,0,0,0,0,0,0,0,-1,1231,995,0,0
14,29,0,0,0,0,0,0,0,0,0,-1,1238,995,0,0
21,29,0,0,0,0,0,0,0,0,0,-1,1245,995,0,0
28,29,0,0,0,0,0,0,0,0,0,-1,1252,995,0,0
35,29,0,0,0,0,0,0,0,0,0,-1,1259,995,0,0
42,29,0,0,0,0,0,0,0,0,0,-1,1266,995,0,0
49,29,0,0,0,0,0,0,0,0,0,-1,1273,995,0,0
56,29,0,0,0,0,0,0,0,0,0,-1,1280,995,0,0
63,29,0,0,0,0,0,0,0,0,0,-1,1287,995,0,0
70,29,0,0,0,0,0,0,0,0,0,-1,1294,995,0,0
77,29,0,0,0,0,0,0,0,0,0,-1,1301,995,0,0
84,29,0,0,0,0,0,0,0,0,0,-1,1308,995,0,0
91,29,0,0,0,0,0,0,0,0,0,-1,1315,995,0,0
98,29,0,0,0,0,0,0,0,0,0,-1,1322,995,0,0
105,29,0,0,0,0,0,0,0,0,0,-1,1329,995,0,0
112,29,0,0,0,0,0,0,0,0,0,-1,1336,995,0,0
119,29,0,0,0,0,0,0,0,0,0,-1,1343,995,0,0
126,29,0,0,0,0,0,0,0,0,0,-1,1350,995,0,0
133,29,0,0,0,0,0,0,0,0,0,-1,1357,995,0,0
140,29,0,0,0,0,0,0,0,0,0,-1,1364,995,0,0
147,29,0,0,0,0,0,0,0,0,0,-1,1371,995,0,0
154,29,0,0,0,0,0,0,0,0,0,-1,1378,995,0,0
161,29,0,0,0,0,0,0,0,0,0,-1,1385,995,0,0
168,29,0,0,0,0,0,0,0,0,0,-1,1392,995,0,0
175,29,0,0,0,0,0,0,0,0,0,-1,1399,995,0,0
182,29,0,0,0,0,0,0,0,0,0,-1,1406,995,0,0
189,29,0,0,0,0,0,0,0,0,0,-1,1413,995,0,0
196,29,0,0,0,0,0,0,0,0,0,-1,1420,995,0,0
203,29,0,0,0,0,0,0,0,0,0,-1,1427,995,0,0
210,29,0,0,0,0,0,0,0,0,0,-1,1434,995,0,0
217,29,0,0,0,0,0,0,0,0,0,-1,1441,995,0,0
224,29,0,0,0,0,0,0,0,0,0,-1,1448,995,0,0
231,29,0,0,0,0,0,0,0,0,0,-1,1455,995,0,0
238,29,0,0,0,0,0,0,0,0,0,-1,1462,995,0,0
245,29,0,0,0,0,0,0,0,0,0,-1,1469,995,0,0
252,29,0,0,0,0,0,0,0,0,0,-1,1476,995,0,0
259,29,0,0,0,0,0,0,0,0,0,-1,1483,995,0,0
266,29,0,0,0,0,0,0,0,0,0,-1,1490,995,0,0
273,29,0,0,0,0,0,0,0,0,0,-1,1497,995,0,0
280,29,0,0,0,0,0,0,0,0,0,-1,1504,995,0,0
287,29,0,0,0,0,0,0,0,0,0,-1,1511,995,0,0
294,29,0,0,0,0,0,0,0,0,0,-1,1518,995,0,0
301,29,0,0,0,0,0,0,0,0,0,-1,1525,995,0,0
308,29,0,0,0,0,0,0,0,0,0,-1,1532,995,0,0
315,29,0,0,0,0,0,0,0,0,0,-1,1539,995,0,0
322,29,0,0,0,0,0,0,0,0,0,-1,1546,995,0,0
329,29,0,0,0,0,0,0,0,0,0,-1,1553,995,0,0
336,29,0,0,0,0,0,0,0,0,0,-1,1560,995,0,0
343,29,0,0,0,0,0,0,0,0,0,-1,1567,995,0,0
350,29,0,0,0,0,0,0,0,0,0,-1,1574,995,0,0
357,29,0,0,0,0,0,0,0,0,0,-1,1581,995,0,0
364,29,0,0,0,0,0,0,0,0,0,-1,1588,995,0,0
371,29,0,0,0,0,0,0,0,0,0,-1,1595,995,0,0
378,29,0,0,0,0,0,0,0,0,0,-1,1602,995,0,0
385,29,0,0,0,0,0,0,0,0,0,-1,1609,995,0,0
392,29,0,0,0,0,0,0,0,0,0,-1,1616,995,0,0
399,29,0,0,0,0,0,0,0,0,0,-1,1623,995,0,0
406,29,0,0,0,0,0,0,0,0,0,-1,1630,995,0,0
413,29,0,0,0,0,0,0,0,0,0,-1,1637,995,0,0
420,29,0,0,0,0,0,0,0,0,0,-1,1644,995,0,0
427,29,0,0,0,0,0,0,0,0,0,-1,1651,995,0,0
434,29,0,0,0,0,0,0,0,0,0,-1,1658,995,0,0
441,29,0,0,0,0,0,0,0,0,0,-1,1665,995,0,0
448,29,0,0,0,0,0,0,0,0,0,-1,1672,995,0,0
455,29,0,0,0,0,0,0,0,0,0,-1,1679,995,0,0
462,29,0,0,0,0,0,0,0,0,0,-1,1686,995,0,0
469,29,0,0,0,0,0,0,0,0,0,-1,1693,995,0,0
476,29,0,0,0,0,0,0,0,0,0,-1,1700,995,0,0
483,29,0,0,0,0,0,0,0,0,0,-1,1707,995,0,0
490,29,0,0,0,0,0,0,0,0,0,-1,1714,995,0,0
497,29,0,0,0,0,0,0,0,0,0,-1,1721,995,0,0
504,29,0,0,0,0,0,0,0,0,0,-1,1728,995,0,0
511,29,0,0,0,0,0,0,0,0,0,-1,1735,995,0,0
518,29,0,0,0,0,0,0,0,0,0,-1,1742,995,0,0
525,29,0,0,0,0,0,0,0,0,0,-1,1749,995,0,0
532,29,0,0,0,0,0,0,0,0,0,-1,1756,995,0,0
539,29,0,0,0,0,0,0,0,0,0,-1,1763,995,0,0
546,29,0,0,0,0,0,0,0,0,0,-1,1770,995,0,0
553,29,0,0,0,0,0,0,0,0,0,-1,1777,995,0,0
560,29,0,0,0,0,0,0,0,0,0,-1,1784,995,0,0
567,29,0,0,0,0,0,0,0,0,0,-1,1791,995,0,0
574,29,0,0,0,0,0,0,0,0,0,-1,1798,995,0,0
581,29,0,0,0,0,0,0,0,0,0,-1,1805,995,0,0
588,29,0,0,0,0,0,0,0,0,0,-1,1812,995,0,0
595,29,0,0,0,0,0,0,0,0,0,-1,1819,995,0,0
602,29,0,0,0,0,0,0,0,0,0,-1,1826,995,0,0
609,29,0,0,0,0,0,0,0,0,0,-1,1833,995,0,0
616,29,0,0,0,0,0,0,0,0,0,-1,1840,995,0,0
623,29,0,0,0,0,0,0,0,0,0,-1,1847,995,0,0
630,29,0,0,0,0,0,0,0,0,0,-1,1854,995,0,0
637,29,0,0,0,0,0,0,0,0,0,-1,1861,995,0,0
644,29,71.7223,2.27252,0.00709217,-0.000732002,0.00146116,0.00735614,-0.000995967,0.178727,0.00526756,0.0395651,1868,995,71.7222,-2.27253
651,29,71.6781,2.39856,0.00484633,-0.000186483,0.000406618,0.00487897,-0.000219124,0.0801009,0.0033281,0.0409594,1875,995,71.6781,-2.39856
658,29,71.6654,2.61945,0.00320629,0.000263927,-0.00010068,0.00320973,0.000260486,-0.0341642,0.00205849,0.0420463,1882,995,71.6654,-2.61944
665,29,71.863,2.44269,0.00200916,0.000628478,-0.000395812,0.00211458,0.000523056,-0.2603,0.00127174,0.040943,1889,995,71.863,-2.4427
672,29,71.7983,2.26672,0.00102081,0.000919048,-0.00051293,0.00148538,0.000454483,-0.735961,0.000878843,0.042034,1896,995,71.7983,-2.26671
679,29,71.7142,2.22974,0.000353314,0.000850378,-0.000430252,0.00109872,0.00010497,-1.04731,0.000700119,0.0423287,1903,995,71.7143,-2.22974
686,29,71.5275,2.33911,4.43502e-05,0.000400088,-0.000334523,0.00060109,-0.000156652,-1.02974,0.000461885,0.0359449,1910,995,71.5274,-2.3391
693,29,71.6069,2.31897,-0.000179322,-0.000142398,-0.000244846,8.46815e-05,-0.000406401,-0.823027,0.00030313,0.0356172,1917,995,71.6069,-2.319
700,29,71.6506,2.31726,-0.000450939,-0.000488015,-0.000297756,-0.000171144,-0.00076781,-0.754309,0.000465435,0.0340487,1924,995,71.6506,-2.31728
707,29,71.6628,2.26129,-0.00111586,-0.000236935,-0.000434531,-5.83804e-05,-0.00129441,-1.18092,0.000844153,0.0247587,1931,995,71.6628,-2.26128
714,29,71.7535,2.04248,0,0,0,0,0,0,0,-1,1938,995,71.7536,-2.0425
721,29,71.1217,6.0036,0,0,0,0,0,0,0,-1,1945,995,71.1217,-6.0036
728,29,71.4038,6.35229,-0.00449611,0.00330223,-0.000690775,0.00336295,-0.00455683,-1.48313,0.00458977,0.0398346,1952,995,71.4038,-6.35229
735,29,71.4401,6.63629,-0.00511236,0.00469202,-0.000999851,0.00479294,-0.00521329,-1.4702,0.0057788,0.0169766,1959,995,71.44,-6.63631
742,29,71.4027,6.82477,-0.0054997,0.00631756,-0.00180223,0.0065863,-0.00576844,-1.42277,0.00713822,0.0145079,1966,995,71.4027,-6.8248
749,29,71.3628,7.08691,-0.00560669,0.00825088,-0.00292418,0.00884266,-0.00619847,-1.37112,0.00872861,0.0155347,1973,995,71.3628,-7.08691
756,29,71.3372,7.35236,-0.00445891,0.0110336,-0.00465088,0.0123225,-0.00574788,-1.30044,0.0106606,0.0151504,1980,995,71.3372,-7.35237
763,29,71.2788,7.49939,-0.00184945,0.014499,-0.00706166,0.0171269,-0.00447731,-1.21454,0.0131666,0.0134841,1987,995,71.2787,-7.49938
770,29,71.1423,7.62994,0.00418537,0.0178642,-0.0107826,0.0237936,-0.00174404,-1.06803,0.0164745,0.0186933,1994,995,71.1424,-7.62996
777,29,70.9766,7.93341,0.0132988,0.0206764,-0.0156226,0.0330398,0.000935428,-0.901333,0.0217214,0.0323751,2001,995,70.9765,-7.9334
784,29,70.7957,8.22894,0,0,0,0,0,0,0,-1,2008,995,70.7957,-8.22892
791,29,70.6306,8.51532,0,0,0,0,0,0,0,-1,2015,995,70.6305,-8.51535
798,29,69.6287,8.31696,0,0,0,0,0,0,0,-1,2022,995,69.6287,-8.31694
805,29,66.3442,5.29028,0,0,0,0,0,0,0,-1,2029,995,66.3442,-5.29026
812,29,66.1416,4.3512,0,0,0,0,0,0,0,-1,2036,995,66.1415,-4.35118
-700,22,0,0,0,0,0,0,0,0,0,-1,524,1002,0,0
-693,22,-53.7807,1.06287,0,0,0,0,0,0,0,-1,531,1002,-53.7807,-1.06284
-686,22,-53.0878,0.842957,0,0,0,0,0,0,0,-1,538,1002,-53.0878,-0.842965
-679,22,-52.3948,0.623108,0,0,0,0,0,0,0,-1,545,1002,-52.3948,-0.623092
-672,22,-53.8008,0.888672,0.0629129,0.0445904,-0.027599,0.0828315,0.0246718,-0.625149,0.0491083,0.0457825,552,1002,-53.8008,-0.888669
-665,22,-53.4554,0.272156,0.0505144,0.0474049,-0.021004,0.0700211,0.0278981,-0.748454,0.0407038,0.0430143,559,1002,-53.4554,-0.272184
-658,22,-53.1502,-0.580444,0,0,0,0,0,0,0,-1,566,1002,-53.1502,0.58045
-651,22,-55.2646,5.09637,0,0,0,0,0,0,0,-1,573,1002,-55.2646,-5.09639
-644,22,-55.9701,5.36224,0.0179333,0.0402945,-0.00569189,0.04166,0.0165679,-1.33535,0.0242197,0.0435543,580,1002,-55.9701,-5.36221
-637,22,-56.4036,5.58087,0.00944453,0.0348593,-0.00218656,0.0350461,0.00925778,-1.4856,0.0209707,0.0284084,587,1002,-56.4036,-5.58089
-630,22,-56.3879,5.58325,0.00193893,0.0290524,0.000653348,0.0290682,0.00192319,1.54672,0.0187706,0.015995,594,1002,-56.388,-5.58325
-623,22,-56.4123,5.48688,-0.00312597,0.0208249,0.00235739,0.0210547,-0.00335579,1.47361,0.0152784,0.0131945,601,1002,-56.4123,-5.48687
-616,22,-56.4614,5.31378,-0.00549662,0.0137366,0.0022344,0.0139928,-0.00575279,1.45665,0.0117263,0.0203504,608,1002,-56.4614,-5.31378
-609,22,-56.5302,5.25012,-0.00561907,0.00676048,0.00114918,0.00686626,-0.00572484,1.47901,0.00727942,0.0339558,615,1002,-56.5302,-5.25012
-602,22,-56.7256,5.12549,-0.00470816,0.00437962,0.000445472,0.00440141,-0.00472995,1.52193,0.00527313,0.0325359,622,1002,-56.7257,-5.12547
-595,22,-56.9525,4.85614,-0.00391379,0.00269969,-0.000123389,0.00270199,-0.00391609,-1.55215,0.00384232,0.0378475,629,1002,-56.9525,-4.85611
-588,22,-56.993,4.49921,0,0,0,0,0,0,0,-1,636,1002,-56.993,-4.49924
-581,22,-55.6333,0.272644,0,0,0,0,0,0,0,-1,643,1002,-55.6333,-0.272617
-574,22,-55.6241,0.46283,-0.00100508,-2.30588e-05,-0.00114917,0.000735606,-0.00176374,-0.987295,0.00148314,0.0348797,650,1002,-55.6242,-0.462846
-567,22,-55.6093,0.478271,-0.000400191,-2.66315e-05,-0.00116798,0.000969412,-0.00139623,-0.864685,0.0013732,0.0340358,657,1002,-55.6092,-0.478266
-560,22,-55.7421,0.41748,0.000270321,0.000337903,-0.00111373,0.00141835,-0.000810127,-0.800564,0.00130249,0.0384022,664,1002,-55.742,-0.417473
-553,22,-55.7842,0.641418,0.0009299,0.000874074,-0.001043,0.00194536,-0.000141387,-0.77202,0.00134651,0.0389266,671,1002,-55.7842,-0.641428
-546,22,-55.681,0.750793,0.00154378,0.00116343,-0.000944046,0.00231661,0.000390593,-0.686007,0.00143208,0.039166,678,1002,-55.681,-0.750808
-539,22,-55.6414,0.607239,0.00168405,0.000751399,-0.00088989,0.00222239,0.000213053,-0.544057,0.00141593,0.041457,685,1002,-55.6414,-0.607225
-532,22,-55.6838,0.521179,0.00201166,0.000684841,-0.00143223,0.00292666,-0.000230161,-0.568509,0.00203218,0.0453708,692,1002,-55.6839,-0.521161
-525,22,0,0,0,0,0,0,0,0,0,-1,699,1002,0,0
-518,22,0,0,0,0,0,0,0,0,0,-1,706,1002,0,0
-511,22,0,0,0,0,0,0,0,0,0,-1,713,1002,0,0
-504,22,0,0,0,0,0,0,0,0,0,-1,720,1002,0,0
-497,22,0,0,0,0,0,0,0,0,0,-1,727,1002,0,0
-490,22,0,0,0,0,0,0,0,0,0,-1,734,1002,0,0
-483,22,0,0,0,0,0,0,0,0,0,-1,741,1002,0,0
-476,22,0,0,0,0,0,0,0,0,0,-1,748,1002,0,0
-469,22,0,0,0,0,0,0,0,0,0,-1,755,1002,0,0
-462,22,0,0,0,0,0,0,0,0,0,-1,762,1002,0,0
-455,22,0,0,0,0,0,0,0,0,0,-1,769,1002,0,0
-448,22,0,0,0,0,0,0,0,0,0,-1,776,1002,0,0
-441,22,0,0,0,0,0,0,0,0,0,-1,783,1002,0,0
-434,22,0,0,0,0,0,0,0,0,0,-1,790,1002,0,0
-427,22,0,0,0,0,0,0,0,0,0,-1,797,1002,0,0
-420,22,0,0,0,0,0,0,0,0,0,-1,804,1002,0,0
-413,22,0,0,0,0,0,0,0,0,0,-1,811,1002,0,0
-406,22,0,0,0,0,0,0,0,0,0,-1,818,1002,0,0
-399,22,0,0,0,0,0,0,0,0,0,-1,825,1002,0,0
-392,22,0,0,0,0,0,0,0,0,0,-1,832,1002,0,0
-385,22,0,0,0,0,0,0,0,0,0,-1,839,1002,0,0
-378,22,0,0,0,0,0,0,0,0,0,-1,846,1002,0,0
-371,22,0,0,0,0,0,0,0,0,0,-1,853,1002,0,0
-364,22,0,0,0,0,0,0,0,0,0,-1,860,1002,0,0
-357,22,0,0,0,0,0,0,0,0,0,-1,867,1002,0,0
-350,22,0,0,0,0,0,0,0,0,0,-1,874,1002,0,0
-343,22,0,0,0,0,0,0,0,0,0,-1,881,1002,0,0
-336,22,0,0,0,0,0,0,0,0,0,-1,888,1002,0,0
-329,22,0,0,0,0,0,0,0,0,0,-1,895,1002,0,0
-322,22,0,0,0,0,0,0,0,0,0,-1,902,1002,0,0
-315,22,0,0,0,0,0,0,0,0,0,-1,909,1002,0,0
-308,22,0,0,0,0,0,0,0,0,0,-1,916,1002,0,0
-301,22,0,0,0,0,0,0,0,0,0,-1,923,1002,0,0
-294,22,0,0,0,0,0,0,0,0,0,-1,930,1002,0,0
-287,22,0,0,0,0,0,0,0,0,0,-1,937,1002,0,0
-280,22,0,0,0,0,0,0,0,0,0,-1,944,1002,0,0
-273,22,0,0,0,0,0,0,0,0,0,-1,951,1002,0,0
-266,22,0,0,0,0,0,0,0,0,0,-1,958,1002,0,0
-259,22,0,0,0,0,0,0,0,0,0,-1,965,1002,0,0
-252,22,0,0,0,0,0,0,0,0,0,-1,972,1002,0,0
-245,22,0,0,0,0,0,0,0,0,0,-1,979,1002,0,0
-238,22,0,0,0,0,0,0,0,0,0,-1,986,1002,0,0
-231,22,0,0,0,0,0,0,0,0,0,-1,993,1002,0,0
-224,22,0,0,0,0,0,0,0,0,0,-1,1000,1002,0,0
-217,22,0,0,0,0,0,0,0,0,0,-1,1007,1002,0,0
-210,22,0,0,0,0,0,0,0,0,0,-1,1014,1002,0,0
-203,22,0,0,0,0,0,0,0,0,0,-1,1021,1002,0,0
-196,22,0,0,0,0,0,0,0,0,0,-1,1028,1002,0,0
-189,22,0,0,0,0,0,0,0,0,0,-1,1035,1002,0,0
-182,22,0,0,0,0,0,0,0,0,0,-1,1042,1002,0,0
-175,22,0,0,0,0,0,0,0,0,0,-1,1049,1002,0,0
-168,22,0,0,0,0,0,0,0,0,0,-1,1056,1002,0,0
-161,22,0,0,0,0,0,0,0,0,0,-1,1063,1002,0,0
-154,22,0,0,0,0,0,0,0,0,0,-1,1070,1002,0,0
-147,22,0,0,0,0,0,0,0,0,0,-1,1077,1002,0,0
-140,22,0,0,0,0,0,0,0,0,0,-1,1084,1002,0,0
-133,22,0,0,0,0,0,0,0,0,0,-1,1091,1002,0,0
-126,22,0,0,0,0,0,0,0,0,0,-1,1098,1002,0,0
-119,22,0,0,0,0,0,0,0,0,0,-1,1105,1002,0,0
-112,22,0,0,0,0,0,0,0,0,0,-1,1112,1002,0,0
-105,22,0,0,0,0,0,0,0,0,0,-1,1119,1002,0,0
-98,22,0,0,0,0,0,0,0,0,0,-1,1126,1002,0,0
-91,22,0,0,0,0,0,0,0,0,0,-1,1133,1002,0,0
-84,22,0,0,0,0,0,0,0,0,0,-1,1140,1002,0,0
-77,22,0,0,0,0,0,0,0,0,0,-1,1147,1002,0,0
-70,22,0,0,0,0,0,0,0,0,0,-1,1154,1002,0,0
-63,22,0,0,0,0,0,0,0,0,0,-1,1161,1002,0,0
-56,22,0,0,0,0,0,0,0,0,0,-1,1168,1002,0,0
-49,22,0,0,0,0,0,0,0,0,0,-1,1175,1002,0,0
-42,22,0,0,0,0,0,0,0,0,0,-1,1182,1002,0,0
-35,22,0,0,0,0,0,0,0,0,0,-1,1189,1002,0,0
-28,22,0,0,0,0,0,0,0,0,0,-1,1196,1002,0,0
-21,22,0,0,0,0,0,0,0,0,0,-1,1203,1002,0,0
-14,22,0,0,0,0,0,0,0,0,0,-1,1210,1002,0,0
-7,22,0,0,0,0,0,0,0,0,0,-1,1217,1002,0,0
0,22,0,0,0,0,0,0,0,0,0,-1,1224,1002,0,0
7,22,0,0,0,0,0,0,0,0,0,-1,1231,1002,0,0
14,22,0,0,0,0,0,0,0,0,0,-1,1238,1002,0,0
21,22,0,0,0,0,0,0,0,0,0,-1,1245,1002,0,0
28,22,0,0,0,0,0,0,0,0,0,-1,1252,1002,0,0
35,22,0,0,0,0,0,0,0,0,0,-1,1259,1002,0,0
42,22,0,0,0,0,0,0,0,0,0,-1,1266,1002,0,0
49,22,0,0,0,0,0,0,0,0,0,-1,1273,1002,0,0
56,22,0,0,0,0,0,0,0,0,0,-1,1280,1002,0,0
63,22,0,0,0,0,0,0,0,0,0,-1,1287,1002,0,0
70,22,0,0,0,0,0,0,0,0,0,-1,1294,1002,0,0
77,22,0,0,0,0,0,0,0,0,0,-1,1301,1002,0,0
84,22,0,0,0,0,0,0,0,0,0,-1,1308,1002,0,0
91,22,0,0,0,0,0,0,0,0,0,-1,1315,1002,0,0
98,22,0,0,0,0,0,0,0,0,0,-1,1322,1002,0,0
105,22,0,0,0,0,0,0,0,0,0,-1,1329,1002,0,0
112,22,0,0,0,0,0,0,0,0,0,-1,1336,1002,0,0
119,22,0,0,0,0,0,0,0,0,0,-1,1343,1002,0,0
126,22,0,0,0,0,0,0,0,0,0,-1,1350,1002,0,0
133,22,0,0,0,0,0,0,0,0,0,-1,1357,1002,0,0
140,22,0,0,0,0,0,0,0,0,0,-1,1364,1002,0,0
147,22,0,0,0,0,0,0,0,0,0,-1,1371,1002,0,0
154,22,0,0,0,0,0,0,0,0,0,-1,1378,1002,0,0
161,22,0,0,0,0,0,0,0,0,0,-1,1385,1002,0,0
168,22,0,0,0,0,0,0,0,0,0,-1,1392,1002,0,0
175,22,0,0,0,0,0,0,0,0,0,-1,1399,1002,0,0
182,22,0,0,0,0,0,0,0,0,0,-1,1406,1002,0,0
189,22,0,0,0,0,0,0,0,0,0,-1,1413,1002,0,0
196,22,0,0,0,0,0,0,0,0,0,-1,1420,1002,0,0
203,22,0,0,0,0,0,0,0,0,0,-1,1427,1002,0,0
210,22,0,0,0,0,0,0,0,0,0,-1,1434,1002,0,0
217,22,0,0,0,0,0,0,0,0,0,-1,1441,1002,0,0
224,22,0,0,0,0,0,0,0,0,0,-1,1448,1002,0,0
231,22,0,0,0,0,0,0,0,0,0,-1,1455,1002,0,0
238,22,0,0,0,0,0,0,0,0,0,-1,1462,1002,0,0
245,22,0,0,0,0,0,0,0,0,0,-1,1469,1002,0,0
252,22,0,0,0,0,0,0,0,0,0,-1,1476,1002,0,0
259,22,0,0,0,0,0,0,0,0,0,-1,1483,1002,0,0
266,22,0,0,0,0,0,0,0,0,0,-1,1490,1002,0,0
273,22,0,0,0,0,0,0,0,0,0,-1,1497,1002,0,0
280,22,0,0,0,0,0,0,0,0,0,-1,1504,1002,0,0
287,22,0,0,0,0,0,0,0,0,0,-1,1511,1002,0,0
294,22,0,0,0,0,0,0,0,0,0,-1,1518,1002,0,0
301,22,0,0,0,0,0,0,0,0,0,-1,1525,1002,0,0
308,22,0,0,0,0,0,0,0,0,0,-1,1532,1002,0,0
315,22,0,0,0,0,0,0,0,0,0,-1,1539,1002,0,0
322,22,0,0,0,0,0,0,0,0,0,-1,1546,1002,0,0
329,22,0,0,0,0,0,0,0,0,0,-1,1553,1002,0,0
336,22,0,0,0,0,0,0,0,0,0,-1,1560,1002,0,0
343,22,0,0,0,0,0,0,0,0,0,-1,1567,1002,0,0
350,22,0,0,0,0,0,0,0,0,0,-1,1574,1002,0,0
357,22,0,0,0,0,0,0,0,0,0,-1,1581,1002,0,0
364,22,0,0,0,0,0,0,0,0,0,-1,1588,1002,0,0
371,22,0,0,0,0,0,0,0,0,0,-1,1595,1002,0,0
378,22,0,0,0,0,0,0,0,0,0,-1,1602,1002,0,0
385,22,0,0,0,0,0,0,0,0,0,-1,1609,1002,0,0
392,22,0,0,0,0,0,0,0,0,0,-1,1616,1002,0,0
399,22,0,0,0,0,0,0,0,0,0,-1,1623,1002,0,0
406,22,0,0,0,0,0,0,0,0,0,-1,1630,1002,0,0
413,22,0,0,0,0,0,0,0,0,0,-1,1637,1002,0,0
420,22,0,0,0,0,0,0,0,0,0,-1,1644,1002,0,0
427,22,0,0,0,0,0,0,0,0,0,-1,1651,1002,0,0
434,22,0,0,0,0,0,0,0,0,0,-1,1658,1002,0,0
441,22,0,0,0,0,0,0,0,0,0,-1,1665,1002,0,0
448,22,0,0,0,0,0,0,0,0,0,-1,1672,1002,0,0
455,22,0,0,0,0,0,0,0,0,0,-1,1679,1002,0,0
462,22,0,0,0,0,0,0,0,0,0,-1,1686,1002,0,0
469,22,0,0,0,0,0,0,0,0,0,-1,1693,1002,0,0
476,22,0,0,0,0,0,0,0,0,0,-1,1700,1002,0,0
483,22,0,0,0,0,0,0,0,0,0,-1,1707,1002,0,0
490,22,0,0,0,0,0,0,0,0,0,-1,1714,1002,0,0
497,22,0,0,0,0,0,0,0,0,0,-1,1721,1002,0,0
504,22,0,0,0,0,0,0,0,0,0,-1,1728,1002,0,0
511,22,0,0,0,0,0,0,0,0,0,-1,1735,1002,0,0
518,22,0,0,0,0,0,0,0,0,0,-1,1742,1002,0,0
525,22,0,0,0,0,0,0,0,0,0,-1,1749,1002,0,0
532,22,0,0,0,0,0,0,0,0,0,-1,1756,1002,0,0
539,22,0,0,0,0,0,0,0,0,0,-1,1763,1002,0,0
546,22,0,0,0,0,0,0,0,0,0,-1,1770,1002,0,0
553,22,0,0,0,0,0,0,0,0,0,-1,1777,1002,0,0
560,22,0,0,0,0,0,0,0,0,0,-1,1784,1002,0,0
567,22,0,0,0,0,0,0,0,0,0,-1,1791,1002,0,0
574,22,0,0,0,0,0,0,0,0,0,-1,1798,1002,0,0
581,22,0,0,0,0,0,0,0,0,0,-1,1805,1002,0,0
588,22,0,0,0,0,0,0,0,0,0,-1,1812,1002,0,0
595,22,0,0,0,0,0,0,0,0,0,-1,1819,1002,0,0
602,22,0,0,0,0,0,0,0,0,0,-1,1826,1002,0,0
609,22,0,0,0,0,0,0,0,0,0,-1,1833,1002,0,0
616,22,0,0,0,0,0,0,0,0,0,-1,1840,1002,0,0
623,22,0,0,0,0,0,0,0,0,0,-1,1847,1002,0,0
630,22,0,0,0,0,0,0,0,0,0,-1,1854,1002,0,0
637,22,0,0,0,0,0,0,0,0,0,-1,1861,1002,0,0
644,22,71.623,2.35925,0.00790341,0.000105947,0.00159771,0.00821808,-0.000208726,0.194464,0.0055496,0.0369792,1868,1002,71.6231,-2.35927
651,22,71.6193,2.64642,0.00522691,0.000376396,0.000312041,0.0052469,0.000356405,0.06398,0.00338539,0.0399997,1875,1002,71.6192,-2.6464
658,22,71.7244,2.54791,0.00331519,0.000626051,-0.000274404,0.0033429,0.000598336,-0.100659,0.00205835,0.0405685,1882,1002,71.7244,-2.54793
665,22,71.7773,2.3988,0.00196485,0.000821151,-0.000557212,0.00219144,0.000594567,-0.386217,0.0013086,0.038814,1889,1002,71.7773,-2.39878
672,22,71.7487,2.22009,0.000921922,0.000980661,-0.000628636,0.00158061,0.00032197,-0.808741,0.000964502,0.0393503,1896,1002,71.7486,-2.22012
679,22,71.665,2.12341,0.000243585,0.000862047,-0.000494907,0.00113639,-3.07569e-05,-1.06464,0.00076805,0.0413383,1903,1002,71.665,-2.12344
686,22,71.5972,2.25812,-9.70212e-05,0.000373768,-0.000330022,0.000543744,-0.000266997,-1.09519,0.000477085,0.039222,1910,1002,71.5972,-2.25812
693,22,71.6788,2.25159,-0.000290125,-0.000218064,-0.000172863,-7.75166e-05,-0.000430673,-0.888144,0.000265082,0.0362614,1917,1002,71.6789,-2.25161
700,22,71.7115,2.26953,-0.000486071,-0.00062642,-0.000156501,-0.000384731,-0.00072776,-0.574639,0.000420402,0.0327565,1924,1002,71.7116,-2.26954
707,22,71.6411,2.27258,-0.00116389,-0.000393129,-0.000238529,-0.000325283,-0.00123173,-1.29368,0.000737056,0.0339217,1931,1002,71.6411,-2.27255
714,22,71.5934,2.36255,0,0,0,0,0,0,0,-1,1938,1002,71.5934,-2.36258
721,22,70.9277,2.60425,0,0,0,0,0,0,0,-1,1945,1002,70.9277,-2.60424
728,22,71.5785,6.61401,0,0,0,0,0,0,0,-1,1952,1002,71.5785,-6.61399
735,22,71.6007,6.76471,-0.00538649,0.00481977,-0.00064357,0.00486019,-0.00542691,-1.50807,0.00594226,0.0182507,1959,1002,71.6007,-6.76473
742,22,71.6398,6.8941,-0.00590877,0.0064251,-0.00136286,0.0065739,-0.00605756,-1.46205,0.00729481,0.0179745,1966,1002,71.6398,-6.89409
749,22,71.5717,7.07172,-0.00623608,0.00828939,-0.00240196,0.00867628,-0.00662296,-1.4111,0.0088595,0.0137694,1973,1002,71.5717,-7.07172
756,22,71.5574,7.2157,-0.00559418,0.0111127,-0.0039966,0.0120196,-0.00650102,-1.34767,0.0108499,0.0194995,1980,1002,71.5574,-7.21572
763,22,71.4646,7.39648,-0.0038583,0.0147393,-0.00615596,0.0165923,-0.00571134,-1.27841,0.0133781,0.0207481,1987,1002,71.4646,-7.39651
770,22,71.2451,7.50989,0.000886288,0.018384,-0.00957863,0.0226079,-0.00333762,-1.15548,0.0162988,0.0213763,1994,1002,71.2452,-7.50987
777,22,70.8301,7.56293,0.00849597,0.021668,-0.014151,0.0306905,-0.000526568,-1.0032,0.0206381,0.0442913,2001,1002,70.83,-7.56293
784,22,70.4583,7.65955,0,0,0,0,0,0,0,-1,2008,1002,70.4583,-7.65956
791,22,70.0154,4.90894,0,0,0,0,0,0,0,-1,2015,1002,70.0153,-4.90893
798,22,67.1895,5.14026,0,0,0,0,0,0,0,-1,2022,1002,67.1894,-5.14028
805,22,66.6375,4.45691,0,0,0,0,0,0,0,-1,2029,1002,66.6374,-4.45689
812,22,66.3667,3.86255,0,0,0,0,0,0,0,-1,2036,1002,66.3666,-3.86252
-700,15,0,0,0,0,0,0,0,0,0,-1,524,1009,0,0
-693,15,-53.678,2.78265,0,0,0,0,0,0,0,-1,531,1009,-53.678,-2.78265
-686,15,-53.226,1.72668,0,0,0,0,0,0,0,-1,538,1009,-53.226,-1.7267
-679,15,-52.4944,1.46423,0,0,0,0,0,0,0,-1,545,1009,-52.4944,-1.46423
-672,15,-53.0935,0.981506,0,0,0,0,0,0,0,-1,552,1009,-53.0935,-0.981514
-665,15,-52.4992,0.209229,0,0,0,0,0,0,0,-1,559,1009,-52.4992,-0.209226
-658,15,-54.8215,3.72443,0,0,0,0,0,0,0,-1,566,1009,-54.8215,-3.72442
-651,15,-51.4943,3.62128,0,0,0,0,0,0,0,-1,573,1009,-51.4943,-3.62128
-644,15,-56.2444,5.17218,0,0,0,0,0,0,0,-1,580,1009,-56.2444,-5.17221
-637,15,-56.436,5.50439,0.00622879,0.0298097,-0.00255639,0.0300836,0.00595483,-1.46404,0.018395,0.0324375,587,1009,-56.436,-5.50439
-630,15,-56.4761,5.46118,0.000195617,0.0252363,-1.08735e-05,0.0252363,0.000195612,-1.57036,0.0167594,0.0176856,594,1009,-56.4762,-5.46117
-623,15,-56.5349,5.40002,-0.0037971,0.0180822,0.00154924,0.0181914,-0.00390626,1.50046,0.0136177,0.0112197,601,1009,-56.5349,-5.40002
-616,15,-56.5565,5.31329,-0.00550062,0.0120332,0.0014732,0.0121562,-0.00562354,1.48755,0.0104935,0.0180153,608,1009,-56.5565,-5.3133
-609,15,-56.6599,5.27008,-0.00551093,0.00641521,0.000561344,0.00644157,-0.00553729,1.52387,0.00692256,0.0254322,615,1009,-56.6599,-5.27005
-602,15,-56.7851,5.20947,-0.00469604,0.00415352,-7.04288e-05,0.00415408,-0.0046966,-1.56284,0.00511314,0.0263208,622,1009,-56.7851,-5.20946
-595,15,-56.9293,5.08368,0,0,0,0,0,0,0,-1,629,1009,-56.9292,-5.0837
-588,15,-55.5006,0.482239,0,0,0,0,0,0,0,-1,636,1009,-55.5006,-0.482239
-581,15,-55.5696,0.47406,-0.00197445,0.000491554,-0.00118166,0.000966364,-0.00244926,-1.18873,0.00203302,0.0426153,643,1009,-55.5696,-0.47406
-574,15,-55.5881,0.535828,-0.00128819,-3.85769e-06,-0.001336,0.0008363,-0.00212835,-1.00943,0.00176499,0.035626,650,1009,-55.5881,-0.535846
-567,15,-55.6078,0.493896,-0.000759658,4.41775e-05,-0.00125596,0.000960958,-0.00167644,-0.940254,0.00154127,0.0353837,657,1009,-55.6079,-0.493918
-560,15,-55.6768,0.462402,-0.000180039,0.00045881,-0.00107476,0.00126061,-0.000981837,-0.929844,0.00129801,0.0391225,664,1009,-55.6768,-0.462395
-553,15,-55.6776,0.521423,0.000327595,0.00100831,-0.00084093,0.00157515,-0.000239244,-0.977691,0.00113826,0.0389414,671,1009,-55.6776,-0.521423
-546,15,-55.6564,0.600464,0.00071161,0.00123527,-0.000538134,0.00157189,0.00037499,-1.01181,0.000947984,0.0381126,678,1009,-55.6564,-0.600448
-539,15,-55.6484,0.564331,0.000512183,0.00076317,-0.000242044,0.000910319,0.000365034,-1.02456,0.000528996,0.0403088,685,1009,-55.6484,-0.564347
-532,15,-55.7076,0.55365,0.000425406,0.000683195,-0.000462599,0.00103452,7.40805e-05,-0.921268,0.000666361,0.0415817,692,1009,-55.7076,-0.553673
-525,15,0,0,0,0,0,0,0,0,0,-1,699,1009,0,0
-518,15,0,0,0,0,0,0,0,0,0,-1,706,1009,0,0
-511,15,0,0,0,0,0,0,0,0,0,-1,713,1009,0,0
-504,15,0,0,0,0,0,0,0,0,0,-1,720,1009,0,0
-497,15,0,0,0,0,0,0,0,0,0,-1,727,1009,0,0
-490,15,0,0,0,0,0,0,0,0,0,-1,734,1009,0,0
-483,15,0,0,0,0,0,0,0,0,0,-1,741,1009,0,0
-476,15,0,0,0,0,0,0,0,0,0,-1,748,1009,0,0
-469,15,0,0,0,0,0,0,0,0,0,-1,755,1009,0,0
-462,15,0,0,0,0,0,0,0,0,0,-1,762,1009,0,0
-455,15,0,0,0,0,0,0,0,0,0,-1,769,1009,0,0
-448,15,0,0,0,0,0,0,0,0,0,-1,776,1009,0,0
-441,15,0,0,0,0,0,0,0,0,0,-1,783,1009,0,0
-434,15,0,0,0,0,0,0,0,0,0,-1,790,1009,0,0
-427,15,0,0,0,0,0,0,0,0,0,-1,797,1009,0,0
-420,15,0,0,0,0,0,0,0,0,0,-1,804,1009,0,0
-413,15,0,0,0,0,0,0,0,0,0,-1,811,1009,0,0
-406,15,0,0,0,0,0,0,0,0,0,-1,818,1009,0,0
-399,15,0,0,0,0,0,0,0,0,0,-1,825,1009,0,0
-392,15,0,0,0,0,0,0,0,0,0,-1,832,1009,0,0
-385,15,0,0,0,0,0,0,0,0,0,-1,839,1009,0,0
-378,15,0,0,0,0,0,0,0,0,0,-1,846,1009,0,0
-371,15,0,0,0,0,0,0,0,0,0,-1,853,1009,0,0
-364,15,0,0,0,0,0,0,0,0,0,-1,860,1009,0,0
-357,15,0,0,0,0,0,0,0,0,0,-1,867,1009,0,0
-350,15,0,0,0,0,0,0,0,0,0,-1,874,1009,0,0
-343,15,0,0,0,0,0,0,0,0,0,-1,881,1009,0,0
-336,15,0,0,0,0,0,0,0,0,0,-1,888,1009,0,0
-329,15,0,0,0,0,0,0,0,0,0,-1,895,1009,0,0
-322,15,0,0,0,0,0,0,0,0,0,-1,902,1009,0,0
-315,15,0,0,0,0,0,0,0,0,0,-1,909,1009,0,0
-308,15,0,0,0,0,0,0,0,0,0,-1,916,1009,0,0
-301,15,0,0,0,0,0,0,0,0,0,-1,923,1009,0,0
-294,15,0,0,0,0,0,0,0,0,0,-1,930,1009,0,0
-287,15,0,0,0,0,0,0,0,0,0,-1,937,1009,0,0
-280,15,0,0,0,0,0,0,0,0,0,-1,944,1009,0,0
-273,15,0,0,0,0,0,0,0,0,0,-1,951,1009,0,0
-266,15,0,0,0,0,0,0,0,0,0,-1,958,1009,0,0
-259,15,0,0,0,0,0,0,0,0,0,-1,965,1009,0,0
-252,15,0,0,0,0,0,0,0,0,0,-1,972,1009,0,0
-245,15,0,0,0,0,0,0,0,0,0,-1,979,1009,0,0
-238,15,0,0,0,0,0,0,0,0,0,-1,986,1009,0,0
-231,15,0,0,0,0,0,0,0,0,0,-1,993,1009,0,0
-224,15,0,0,0,0,0,0,0,0,0,-1,1000,1009,0,0
-217,15,0,0,0,0,0,0,0,0,0,-1,1007,1009,0,0
-210,15,0,0,0,0,0,0,0,0,0,-1,1014,1009,0,0
-203,15,0,0,0,0,0,0,0,0,0,-1,1021,1009,0,0
-196,15,0,0,0,0,0,0,0,0,0,-1,1028,1009,0,0
-189,15,0,0,0,0,0,0,0,0,0,-1,1035,1009,0,0
-182,15,0,0,0,0,0,0,0,0,0,-1,1042,1009,0,0
-175,15,0,0,0,0,0,0,0,0,0,-1,1049,1009,0,0
-168,15,0,0,0,0,0,0,0,0,0,-1,1056,1009,0,0
-161,15,0,0,0,0,0,0,0,0,0,-1,1063,1009,0,0
-154,15,0,0,0,0,0,0,0,0,0,-1,1070,1009,0,0
-147,15,0,0,0,0,0,0,0,0,0,-1,1077,1009,0,0
-140,15,0,0,0,0,0,0,0,0,0,-1,1084,1009,0,0
-133,15,0,0,0,0,0,0,0,0,0,-1,1091,1009,0,0
-126,15,0,0,0,0,0,0,0,0,0,-1,1098,1009,0,0
-119,15,0,0,0,0,0,0,0,0,0,-1,1105,1009,0,0
-112,15,0,0,0,0,0,0,0,0,0,-1,1112,1009,0,0
-105,15,0,0,0,0,0,0,0,0,0,-1,1119,1009,0,0
-98,15,0,0,0,0,0,0,0,0,0,-1,1126,1009,0,0
-91,15,0,0,0,0,0,0,0,0,0,-1,1133,1009,0,0
-84,15,0,0,0,0,0,0,0,0,0,-1,1140,1009,0,0
-77,15,0,0,0,0,0,0,0,0,0,-1,1147,1009,0,0
-70,15,0,0,0,0,0,0,0,0,0,-1,1154,1009,0,0
-63,15,0,0,0,0,0,0,0,0,0,-1,1161,1009,0,0
-56,15,0,0,0,0,0,0,0,0,0,-1,1168,1009,0,0
-49,15,0,0,0,0,0,0,0,0,0,-1,1175,1009,0,0
-42,15,0,0,0,0,0,0,0,0,0,-1,1182,1009,0,0
-35,15,0,0,0,0,0,0,0,0,0,-1,1189,1009,0,0
-28,15,0,0,0,0,0,0,0,0,0,-1,1196,1009,0,0
-21,15,0,0,0,0,0,0,0,0,0,-1,1203,1009,0,0
-14,15,0,0,0,0,0,0,0,0,0,-1,1210,1009,0,0
-7,15,0,0,0,0,0,0,0,0,0,-1,1217,1009,0,0
0,15,0,0,0,0,0,0,0,0,0,-1,1224,1009,0,0
7,15,0,0,0,0,0,0,0,0,0,-1,1231,1009,0,0
14,15,0,0,0,0,0,0,0,0,0,-1,1238,1009,0,0
21,15,0,0,0,0,0,0,0,0,0,-1,1245,1009,0,0
28,15,0,0,0,0,0,0,0,0,0,-1,1252,1009,0,0
35,15,0,0,0,0,0,0,0,0,0,-1,1259,1009,0,0
42,15,0,0,0,0,0,0,0,0,0,-1,1266,1009,0,0
49,15,0,0,0,0,0,0,0,0,0,-1,1273,1009,0,0
56,15,0,0,0,0,0,0,0,0,0,-1,1280,1009,0,0
63,15,0,0,0,0,0,0,0,0,0,-1,1287,1009,0,0
70,15,0,0,0,0,0,0,0,0,0,-1,1294,1009,0,0
77,15,0,0,0,0,0,0,0,0,0,-1,1301,1009,0,0
84,15,0,0,0,0,0,0,0,0,0,-1,1308,1009,0,0
91,15,0,0,0,0,0,0,0,0,0,-1,1315,1009,0,0
98,15,0,0,0,0,0,0,0,0,0,-1,1322,1009,0,0
105,15,0,0,0,0,0,0,0,0,0,-1,1329,1009,0,0
112,15,0,0,0,0,0,0,0,0,0,-1,1336,1009,0,0
119,15,0,0,0,0,0,0,0,0,0,-1,1343,1009,0,0
126,15,0,0,0,0,0,0,0,0,0,-1,1350,1009,0,0
133,15,0,0,0,0,0,0,0,0,0,-1,1357,1009,0,0
140,15,0,0,0,0,0,0,0,0,0,-1,1364,1009,0,0
147,15,0,0,0,0,0,0,0,0,0,-1,1371,1009,0,0
154,15,0,0,0,0,0,0,0,0,0,-1,1378,1009,0,0
161,15,0,0,0,0,0,0,0,0,0,-1,1385,1009,0,0
168,15,0,0,0,0,0,0,0,0,0,-1,1392,1009,0,0
175,15,0,0,0,0,0,0,0,0,0,-1,1399,1009,0,0
182,15,0,0,0,0,0,0,0,0,0,-1,1406,1009,0,0
189,15,0,0,0,0,0,0,0,0,0,-1,1413,1009,0,0
196,15,0,0,0,0,0,0,0,0,0,-1,1420,1009,0,0
203,15,0,0,0,0,0,0,0,0,0,-1,1427,1009,0,0
210,15,0,0,0,0,0,0,0,0,0,-1,1434,1009,0,0
217,15,0,0,0,0,0,0,0,0,0,-1,1441,1009,0,0
224,15,0,0,0,0,0,0,0,0,0,-1,1448,1009,0,0
231,15,0,0,0,0,0,0,0,0,0,-1,1455,1009,0,0
238,15,0,0,0,0,0,0,0,0,0,-1,1462,1009,0,0
245,15,0,0,0,0,0,0,0,0,0,-1,1469,1009,0,0
252,15,0,0,0,0,0,0,0,0,0,-1,1476,1009,0,0
259,15,0,0,0,0,0,0,0,0,0,-1,1483,1009,0,0
266,15,0,0,0,0,0,0,0,0,0,-1,1490,1009,0,0
273,15,0,0,0,0,0,0,0,0,0,-1,1497,1009,0,0
280,15,0,0,0,0,0,0,0,0,0,-1,1504,1009,0,0
287,15,0,0,0,0,0,0,0,0,0,-1,1511,1009,0,0
294,15,0,0,0,0,0,0,0,0,0,-1,1518,1009,0,0
301,15,0,0,0,0,0,0,0,0,0,-1,1525,1009,0,0
308,15,0,0,0,0,0,0,0,0,0,-1,1532,1009,0,0
315,15,0,0,0,0,0,0,0,0,0,-1,1539,1009,0,0
322,15,0,0,0,0,0,0,0,0,0,-1,1546,1009,0,0
329,15,0,0,0,0,0,0,0,0,0,-1,1553,1009,0,0
336,15,0,0,0,0,0,0,0,0,0,-1,1560,1009,0,0
343,15,0,0,0,0,0,0,0,0,0,-1,1567,1009,0,0
350,15,0,0,0,0,0,0,0,0,0,-1,1574,1009,0,0
357,15,0,0,0,0,0,0,0,0,0,-1,1581,1009,0,0
364,15,0,0,0,0,0,0,0,0,0,-1,1588,1009,0,0
371,15,0,0,0,0,0,0,0,0,0,-1,1595,1009,0,0
378,15,0,0,0,0,0,0,0,0,0,-1,1602,1009,0,0
385,15,0,0,0,0,0,0,0,0,0,-1,1609,1009,0,0
392,15,0,0,0,0,0,0,0,0,0,-1,1616,1009,0,0
399,15,0,0,0,0,0,0,0,0,0,-1,1623,1009,0,0
406,15,0,0,0,0,0,0,0,0,0,-1,1630,1009,0,0
413,15,0,0,0,0,0,0,0,0,0,-1,1637,1009,0,0
420,15,0,0,0,0,0,0,0,0,0,-1,1644,1009,0,0
427,15,0,0,0,0,0,0,0,0,0,-1,1651,1009,0,0
434,15,0,0,0,0,0,0,0,0,0,-1,1658,1009,0,0
441,15,0,0,0,0,0,0,0,0,0,-1,1665,1009,0,0
448,15,0,0,0,0,0,0,0,0,0,-1,1672,1009,0,0
455,15,0,0,0,0,0,0,0,0,0,-1,1679,1009,0,0
462,15,0,0,0,0,0,0,0,0,0,-1,1686,1009,0,0
469,15,0,0,0,0,0,0,0,0,0,-1,1693,1009,0,0
476,15,0,0,0,0,0,0,0,0,0,-1,1700,1009,0,0
483,15,0,0,0,0,0,0,0,0,0,-1,1707,1009,0,0
490,15,0,0,0,0,0,0,0,0,0,-1,1714,1009,0,0
497,15,0,0,0,0,0,0,0,0,0,-1,1721,1009,0,0
504,15,0,0,0,0,0,0,0,0,0,-1,1728,1009,0,0
511,15,0,0,0,0,0,0,0,0,0,-1,1735,1009,0,0
518,15,0,0,0,0,0,0,0,0,0,-1,1742,1009,0,0
525,15,0,0,0,0,0,0,0,0,0,-1,1749,1009,0,0
532,15,0,0,0,0,0,0,0,0,0,-1,1756,1009,0,0
539,15,0,0,0,0,0,0,0,0,0,-1,1763,1009,0,0
546,15,0,0,0,0,0,0,0,0,0,-1,1770,1009,0,0
553,15,0,0,0,0,0,0,0,0,0,-1,1777,1009,0,0
560,15,0,0,0,0,0,0,0,0,0,-1,1784,1009,0,0
567,15,0,0,0,0,0,0,0,0,0,-1,1791,1009,0,0
574,15,0,0,0,0,0,0,0,0,0,-1,1798,1009,0,0
581,15,0,0,0,0,0,0,0,0,0,-1,1805,1009,0,0
588,15,0,0,0,0,0,0,0,0,0,-1,1812,1009,0,0
595,15,0,0,0,0,0,0,0,0,0,-1,1819,1009,0,0
602,15,0,0,0,0,0,0,0,0,0,-1,1826,1009,0,0
609,15,0,0,0,0,0,0,0,0,0,-1,1833,1009,0,0
616,15,0,0,0,0,0,0,0,0,0,-1,1840,1009,0,0
623,15,0,0,0,0,0,0,0,0,0,-1,1847,1009,0,0
630,15,0,0,0,0,0,0,0,0,0,-1,1854,1009,0,0
637,15,0,0,0,0,0,0,0,0,0,-1,1861,1009,0,0
644,15,71.4215,2.22882,0.00876376,0.00116693,0.00164524,0.00910476,0.000825927,0.204372,0.00581412,0.0401833,1868,1009,71.4215,-2.2288
651,15,71.5515,2.38184,0.00555305,0.00112022,0.000224482,0.00556439,0.00110888,0.0504686,0.00340077,0.0378938,1875,1009,71.5515,-2.38186
658,15,71.6825,2.30908,0.00333237,0.001146,-0.000394387,0.00340134,0.00107703,-0.173117,0.00200729,0.0374095,1882,1009,71.6825,-2.30909
665,15,71.791,2.15924,0.00181953,0.00116471,-0.000644282,0.00221482,0.000769421,-0.550316,0.00129843,0.0388655,1889,1009,71.791,-2.15922
672,15,71.7415,2.18884,0.000731768,0.00118263,-0.00065841,0.00165313,0.000261266,-0.950337,0.00102615,0.0386308,1896,1009,71.7415,-2.18883
679,15,71.6884,2.12549,6.48144e-05,0.00100256,-0.000470449,0.00119789,-0.000130515,-1.17726,0.000845461,0.0396944,1903,1009,71.6884,-2.12547
686,15,71.6235,2.12305,-0.000279615,0.000480828,-0.000256391,0.000559196,-0.000357984,-1.27416,0.000533765,0.0443912,1910,1009,71.6235,-2.12305
693,15,71.6067,2.04547,-0.00043238,-0.000128518,-4.19273e-05,-0.000122839,-0.000438059,-1.43617,0.000260917,0.040966,1917,1009,71.6066,-2.04545
700,15,71.6863,2.14258,-0.000541047,-0.000575148,4.03369e-05,-0.000514305,-0.00060189,0.585436,0.000375486,0.0310334,1924,1009,71.6863,-2.14259
707,15,71.6703,2.24561,-0.00121028,-0.000350636,-7.05772e-06,-0.000350578,-0.00121033,-1.56259,0.000719103,0.0305767,1931,1009,71.6703,-2.24559
714,15,71.6461,2.27881,-0.00222774,0.00043931,-6.60308e-05,0.000440943,-0.00222938,-1.54606,0.00165295,0.0398531,1938,1009,71.6461,-2.27879
721,15,71.5826,2.25024,0,0,0,0,0,0,0,-1,1945,1009,71.5826,-2.25026
728,15,71.77,6.6911,0,0,0,0,0,0,0,-1,1952,1009,71.77,-6.69113
735,15,71.6873,6.87006,-0.00562719,0.00509092,-0.000258673,0.00509715,-0.00563343,-1.54668,0.00619788,0.0221968,1959,1009,71.6872,-6.87008
742,15,71.7383,7.03979,-0.00629767,0.00667096,-0.000892467,0.00673209,-0.0063588,-1.50241,0.00755905,0.0470328,1966,1009,71.7383,-7.03978
749,15,71.7327,7.1095,-0.00683324,0.00847019,-0.00184882,0.00869038,-0.00705343,-1.45226,0.00910606,0.0291955,1973,1009,71.7326,-7.10948
756,15,71.728,7.04602,-0.00665407,0.0113643,-0.00332412,0.011958,-0.00724776,-1.39406,0.0111991,0.0209159,1980,1009,71.728,-7.04602
763,15,71.6301,7.21045,-0.00573098,0.0151612,-0.0052548,0.0164085,-0.0069782,-1.33776,0.0138634,0.0160495,1987,1009,71.6301,-7.21044
770,15,71.45,7.24609,-0.00232099,0.0191071,-0.00835624,0.0219804,-0.00519435,-1.2396,0.0166573,0.0219908,1994,1009,71.4499,-7.24607
777,15,70.947,7.35602,0.00369204,0.0229241,-0.0126457,0.0291945,-0.00257843,-1.11047,0.0203769,0.0475516,2001,1009,70.9471,-7.35603
784,15,70.4915,7.54181,0,0,0,0,0,0,0,-1,2008,1009,70.4915,-7.54183
791,15,70.1812,4.86169,0,0,0,0,0,0,0,-1,2015,1009,70.1811,-4.86171
798,15,69.7649,5.05573,0,0,0,0,0,0,0,-1,2022,1009,69.7649,-5.05573
805,15,70.0388,6.08551,0,0,0,0,0,0,0,-1,2029,1009,70.0389,-6.08551
812,15,70.136,6.20636,0,0,0,0,0,0,0,-1,2036,1009,70.1359,-6.20636
-700,8,0,0,0,0,0,0,0,0,0,-1,524,1016,0,0
-693,8,-53.7838,2.84052,0.0648923,0.000910014,-0.0341725,0.0797113,-0.013909,-0.409178,0.0583326,0.0444051,531,1016,-53.7838,-2.84051
-686,8,-53.3113,2.49756,0.0567745,0.0111104,-0.0305253,0.0720619,-0.00417699,-0.464297,0.0494924,0.044976,538,1016,-53.3113,-2.49754
-679,8,-52.8654,2.10419,0,0,0,0,0,0,0,-1,545,1016,-52.8654,-2.1042
-672,8,-52.5314,1.75415,0,0,0,0,0,0,0,-1,552,1016,-52.5314,-1.75414
-665,8,-57.6297,2.7782,0,0,0,0,0,0,0,-1,559,1016,-57.6297,-2.77823
-658,8,-55.1605,4.35193,0,0,0,0,0,0,0,-1,566,1016,-55.1605,-4.35194
-651,8,-53.9449,4.52704,0,0,0,0,0,0,0,-1,573,1016,-53.9449,-4.52702
-644,8,-56.2512,4.95483,0,0,0,0,0,0,0,-1,580,1016,-56.2512,-4.95484
-637,8,-56.293,5.14832,0.00261742,0.0219833,-0.00343358,0.0225741,0.00202667,-1.40041,0.0144214,0.045772,587,1016,-56.293,-5.14832
-630,8,-56.5295,5.33105,-0.00203474,0.0192577,-0.00105205,0.0193096,-0.0020866,-1.52155,0.013622,0.0274803,594,1016,-56.5296,-5.33105
-623,8,-56.5103,5.36639,-0.00475197,0.0140343,0.000450855,0.0140451,-0.00476278,1.54682,0.0112909,0.0175671,601,1016,-56.5103,-5.3664
-616,8,-56.5598,5.32483,-0.00557347,0.00949076,0.000603872,0.00951493,-0.00559764,1.5308,0.00882241,0.0194333,608,1016,-56.5598,-5.32485
-609,8,-56.6722,5.21014,-0.00531169,0.00595043,2.44431e-05,0.00595049,-0.00531175,1.56863,0.00650574,0.0231876,615,1016,-56.6722,-5.21017
-602,8,-56.6307,5.29498,-0.00458813,0.00381534,-0.000591915,0.00385683,-0.00462962,-1.50082,0.00490642,0.0257558,622,1016,-56.6307,-5.29496
-595,8,-56.726,5.22089,0,0,0,0,0,0,0,-1,629,1016,-56.726,-5.2209
-588,8,-55.4515,0.444031,0,0,0,0,0,0,0,-1,636,1016,-55.4515,-0.444016
-581,8,-55.5246,0.529358,-0.00199048,0.000443975,-0.00149628,0.00115561,-0.00270211,-1.12686,0.00228613,0.0337837,643,1016,-55.5246,-0.529357
-574,8,-55.5844,0.366821,-0.00136791,7.61297e-07,-0.00156379,0.0010234,-0.00239055,-0.991651,0.00202304,0.0374263,650,1016,-55.5844,-0.366847
-567,8,-55.5219,0.317749,-0.000914749,9.40236e-05,-0.00140204,0.00107965,-0.00190037,-0.958066,0.00174213,0.0392172,657,1016,-55.5219,-0.317776
-560,8,-55.5056,0.400513,-0.000438949,0.000542088,-0.00111621,0.0012708,-0.00116767,-0.992421,0.00140827,0.0401238,664,1016,-55.5056,-0.400485
-553,8,-55.5185,0.37616,-0.000106682,0.00108113,-0.000742844,0.0014383,-0.00046385,-1.12262,0.00114523,0.0395705,671,1016,-55.5185,-0.376136
-546,8,-55.5076,0.382141,1.58801e-05,0.00120208,-0.000273257,0.001262,-4.40413e-05,-1.35493,0.000856395,0.0385744,678,1016,-55.5076,-0.382149
-539,8,-55.471,0.532898,-0.000550494,0.000576941,0.00019678,0.0006103,-0.000583852,1.40287,0.0006895,0.0397312,685,1016,-55.471,-0.532887
-532,8,-55.4639,0.547974,-0.00109644,0.00029351,0.000227617,0.000329835,-0.00113276,1.41254,0.000885831,0.0412746,692,1016,-55.4639,-0.547988
-525,8,0,0,0,0,0,0,0,0,0,-1,699,1016,0,0
-518,8,0,0,0,0,0,0,0,0,0,-1,706,1016,0,0
-511,8,0,0,0,0,0,0,0,0,0,-1,713,1016,0,0
-504,8,0,0,0,0,0,0,0,0,0,-1,720,1016,0,0
-497,8,0,0,0,0,0,0,0,0,0,-1,727,1016,0,0
-490,8,0,0,0,0,0,0,0,0,0,-1,734,1016,0,0
-483,8,0,0,0,0,0,0,0,0,0,-1,741,1016,0,0
-476,8,0,0,0,0,0,0,0,0,0,-1,748,1016,0,0
-469,8,0,0,0,0,0,0,0,0,0,-1,755,1016,0,0
-462,8,0,0,0,0,0,0,0,0,0,-1,762,1016,0,0
-455,8,0,0,0,0,0,0,0,0,0,-1,769,1016,0,0
-448,8,0,0,0,0,0,0,0,0,0,-1,776,1016,0,0
-441,8,0,0,0,0,0,0,0,0,0,-1,783,1016,0,0
-434,8,0,0,0,0,0,0,0,0,0,-1,790,1016,0,0
-427,8,0,0,0,0,0,0,0,0,0,-1,797,1016,0,0
-420,8,0,0,0,0,0,0,0,0,0,-1,804,1016,0,0
-413,8,0,0,0,0,0,0,0,0,0,-1,811,1016,0,0
-406,8,0,0,0,0,0,0,0,0,0,-1,818,1016,0,0
-399,8,0,0,0,0,0,0,0,0,0,-1,825,1016,0,0
-392,8,0,0,0,0,0,0,0,0,0,-1,832,1016,0,0
-385,8,0,0,0,0,0,0,0,0,0,-1,839,1016,0,0
-378,8,0,0,0,0,0,0,0,0,0,-1,846,1016,0,0
-371,8,0,0,0,0,0,0,0,0,0,-1,853,1016,0,0
-364,8,0,0,0,0,0,0,0,0,0,-1,860,1016,0,0
-357,8,0,0,0,0,0,0,0,0,0,-1,867,1016,0,0
-350,8,0,0,0,0,0,0,0,0,0,-1,874,1016,0,0
-343,8,0,0,0,0,0,0,0,0,0,-1,881,1016,0,0
-336,8,0,0,0,0,0,0,0,0,0,-1,888,1016,0,0
-329,8,0,0,0,0,0,0,0,0,0,-1,895,1016,0,0
-322,8,0,0,0,0,0,0,0,0,0,-1,902,1016,0,0
-315,8,0,0,0,0,0,0,0,0,0,-1,909,1016,0,0
-308,8,0,0,0,0,0,0,0,0,0,-1,916,1016,0,0
-301,8,0,0,0,0,0,0,0,0,0,-1,923,1016,0,0
-294,8,0,0,0,0,0,0,0,0,0,-1,930,1016,0,0
-287,8,0,0,0,0,0,0,0,0,0,-1,937,1016,0,0
-280,8,0,0,0,0,0,0,0,0,0,-1,944,1016,0,0
-273,8,0,0,0,0,0,0,0,0,0,-1,951,1016,0,0
-266,8,0,0,0,0,0,0,0,0,0,-1,958,1016,0,0
-259,8,0,0,0,0,0,0,0,0,0,-1,965,1016,0,0
-252,8,0,0,0,0,0,0,0,0,0,-1,972,1016,0,0
-245,8,0,0,0,0,0,0,0,0,0,-1,979,1016,0,0
-238,8,0,0,0,0,0,0,0,0,0,-1,986,1016,0,0
-231,8,0,0,0,0,0,0,0,0,0,-1,993,1016,0,0
-224,8,0,0,0,0,0,0,0,0,0,-1,1000,1016,0,0
-217,8,0,0,0,0,0,0,0,0,0,-1,1007,1016,0,0
-210,8,0,0,0,0,0,0,0,0,0,-1,1014,1016,0,0
-203,8,0,0,0,0,0,0,0,0,0,-1,1021,1016,0,0
-196,8,0,0,0,0,0,0,0,0,0,-1,1028,1016,0,0
-189,8,0,0,0,0,0,0,0,0,0,-1,1035,1016,0,0
-182,8,0,0,0,0,0,0,0,0,0,-1,1042,1016,0,0
-175,8,0,0,0,0,0,0,0,0,0,-1,1049,1016,0,0
-168,8,0,0,0,0,0,0,0,0,0,-1,1056,1016,0,0
-161,8,0,0,0,0,0,0,0,0,0,-1,1063,1016,0,0
-154,8,0,0,0,0,0,0,0,0,0,-1,1070,1016,0,0
-147,8,0,0,0,0,0,0,0,0,0,-1,1077,1016,0,0
-140,8,0,0,0,0,0,0,0,0,0,-1,1084,1016,0,0
-133,8,0,0,0,0,0,0,0,0,0,-1,1091,1016,0,0
-126,8,0,0,0,0,0,0,0,0,0,-1,1098,1016,0,0
-119,8,0,0,0,0,0,0,0,0,0,-1,1105,1016,0,0
-112,8,0,0,0,0,0,0,0,0,0,-1,1112,1016,0,0
-105,8,0,0,0,0,0,0,0,0,0,-1,1119,1016,0,0
-98,8,0,0,0,0,0,0,0,0,0,-1,1126,1016,0,0
-91,8,0,0,0,0,0,0,0,0,0,-1,1133,1016,0,0
-84,8,0,0,0,0,0,0,0,0,0,-1,1140,1016,0,0
-77,8,0,0,0,0,0,0,0,0,0,-1,1147,1016,0,0
-70,8,0,0,0,0,0,0,0,0,0,-1,1154,1016,0,0
-63,8,0,0,0,0,0,0,0,0,0,-1,1161,1016,0,0
-56,8,0,0,0,0,0,0,0,0,0,-1,1168,1016,0,0
-49,8,0,0,0,0,0,0,0,0,0,-1,1175,1016,0,0
-42,8,0,0,0,0,0,0,0,0,0,-1,1182,1016,0,0
-35,8,0,0,0,0,0,0,0,0,0,-1,1189,1016,0,0
-28,8,0,0,0,0,0,0,0,0,0,-1,1196,1016,0,0
-21,8,0,0,0,0,0,0,0,0,0,-1,1203,1016,0,0
-14,8,0,0,0,0,0,0,0,0,0,-1,1210,1016,0,0
-7,8,0,0,0,0,0,0,0,0,0,-1,1217,1016,0,0
0,8,0,0,0,0,0,0,0,0,0,-1,1224,1016,0,0
7,8,0,0,0,0,0,0,0,0,0,-1,1231,1016,0,0
14,8,0,0,0,0,0,0,0,0,0,-1,1238,1016,0,0
21,8,0,0,0,0,0,0,0,0,0,-1,1245,1016,0,0
28,8,0,0,0,0,0,0,0,0,0,-1,1252,1016,0,0
35,8,0,0,0,0,0,0,0,0,0,-1,1259,1016,0,0
42,8,0,0,0,0,0,0,0,0,0,-1,1266,1016,0,0
49,8,0,0,0,0,0,0,0,0,0,-1,1273,1016,0,0
56,8,0,0,0,0,0,0,0,0,0,-1,1280,1016,0,0
63,8,0,0,0,0,0,0,0,0,0,-1,1287,1016,0,0
70,8,0,0,0,0,0,0,0,0,0,-1,1294,1016,0,0
77,8,0,0,0,0,0,0,0,0,0,-1,1301,1016,0,0
84,8,0,0,0,0,0,0,0,0,0,-1,1308,1016,0,0
91,8,0,0,0,0,0,0,0,0,0,-1,1315,1016,0,0
98,8,0,0,0,0,0,0,0,0,0,-1,1322,1016,0,0
105,8,0,0,0,0,0,0,0,0,0,-1,1329,1016,0,0
112,8,0,0,0,0,0,0,0,0,0,-1,1336,1016,0,0
119,8,0,0,0,0,0,0,0,0,0,-1,1343,1016,0,0
126,8,0,0,0,0,0,0,0,0,0,-1,1350,1016,0,0
133,8,0,0,0,0,0,0,0,0,0,-1,1357,1016,0,0
140,8,0,0,0,0,0,0,0,0,0,-1,1364,1016,0,0
147,8,0,0,0,0,0,0,0,0,0,-1,1371,1016,0,0
154,8,0,0,0,0,0,0,0,0,0,-1,1378,1016,0,0
161,8,0,0,0,0,0,0,0,0,0,-1,1385,1016,0,0
168,8,0,0,0,0,0,0,0,0,0,-1,1392,1016,0,0
175,8,0,0,0,0,0,0,0,0,0,-1,1399,1016,0,0
182,8,0,0,0,0,0,0,0,0,0,-1,1406,1016,0,0
189,8,0,0,0,0,0,0,0,0,0,-1,1413,1016,0,0
196,8,0,0,0,0,0,0,0,0,0,-1,1420,1016,0,0
203,8,0,0,0,0,0,0,0,0,0,-1,1427,1016,0,0
210,8,0,0,0,0,0,0,0,0,0,-1,1434,1016,0,0
217,8,0,0,0,0,0,0,0,0,0,-1,1441,1016,0,0
224,8,0,0,0,0,0,0,0,0,0,-1,1448,1016,0,0
231,8,0,0,0,0,0,0,0,0,0,-1,1455,1016,0,0
238,8,0,0,0,0,0,0,0,0,0,-1,1462,1016,0,0
245,8,0,0,0,0,0,0,0,0,0,-1,1469,1016,0,0
252,8,0,0,0,0,0,0,0,0,0,-1,1476,1016,0,0
259,8,0,0,0,0,0,0,0,0,0,-1,1483,1016,0,0
266,8,0,0,0,0,0,0,0,0,0,-1,1490,1016,0,0
273,8,0,0,0,0,0,0,0,0,0,-1,1497,1016,0,0
280,8,0,0,0,0,0,0,0,0,0,-1,1504,1016,0,0
287,8,0,0,0,0,0,0,0,0,0,-1,1511,1016,0,0
294,8,0,0,0,0,0,0,0,0,0,-1,1518,1016,0,0
301,8,0,0,0,0,0,0,0,0,0,-1,1525,1016,0,0
308,8,0,0,0,0,0,0,0,0,0,-1,1532,1016,0,0
315,8,0,0,0,0,0,0,0,0,0,-1,1539,1016,0,0
322,8,0,0,0,0,0,0,0,0,0,-1,1546,1016,0,0
329,8,0,0,0,0,0,0,0,0,0,-1,1553,1016,0,0
336,8,0,0,0,0,0,0,0,0,0,-1,1560,1016,0,0
343,8,0,0,0,0,0,0,0,0,0,-1,1567,1016,0,0
350,8,0,0,0,0,0,0,0,0,0,-1,1574,1016,0,0
357,8,0,0,0,0,0,0,0,0,0,-1,1581,1016,0,0
364,8,0,0,0,0,0,0,0,0,0,-1,1588,1016,0,0
371,8,0,0,0,0,0,0,0,0,0,-1,1595,1016,0,0
378,8,0,0,0,0,0,0,0,0,0,-1,1602,1016,0,0
385,8,0,0,0,0,0,0,0,0,0,-1,1609,1016,0,0
392,8,0,0,0,0,0,0,0,0,0,-1,1616,1016,0,0
399,8,0,0,0,0,0,0,0,0,0,-1,1623,1016,0,0
406,8,0,0,0,0,0,0,0,0,0,-1,1630,1016,0,0
413,8,0,0,0,0,0,0,0,0,0,-1,1637,1016,0,0
420,8,0,0,0,0,0,0,0,0,0,-1,1644,1016,0,0
427,8,0,0,0,0,0,0,0,0,0,-1,1651,1016,0,0
434,8,0,0,0,0,0,0,0,0,0,-1,1658,1016,0,0
441,8,0,0,0,0,0,0,0,0,0,-1,1665,1016,0,0
448,8,0,0,0,0,0,0,0,0,0,-1,1672,1016,0,0
455,8,0,0,0,0,0,0,0,0,0,-1,1679,1016,0,0
462,8,0,0,0,0,0,0,0,0,0,-1,1686,1016,0,0
469,8,0,0,0,0,0,0,0,0,0,-1,1693,1016,0,0
476,8,0,0,0,0,0,0,0,0,0,-1,1700,1016,0,0
483,8,0,0,0,0,0,0,0,0,0,-1,1707,1016,0,0
490,8,0,0,0,0,0,0,0,0,0,-1,1714,1016,0,0
497,8,0,0,0,0,0,0,0,0,0,-1,1721,1016,0,0
504,8,0,0,0,0,0,0,0,0,0,-1,1728,1016,0,0
511,8,0,0,0,0,0,0,0,0,0,-1,1735,1016,0,0
518,8,0,0,0,0,0,0,0,0,0,-1,1742,1016,0,0
525,8,0,0,0,0,0,0,0,0,0,-1,1749,1016,0,0
532,8,0,0,0,0,0,0,0,0,0,-1,1756,1016,0,0
539,8,0,0,0,0,0,0,0,0,0,-1,1763,1016,0,0
546,8,0,0,0,0,0,0,0,0,0,-1,1770,1016,0,0
553,8,0,0,0,0,0,0,0,0,0,-1,1777,1016,0,0
560,8,0,0,0,0,0,0,0,0,0,-1,1784,1016,0,0
567,8,0,0,0,0,0,0,0,0,0,-1,1791,1016,0,0
574,8,0,0,0,0,0,0,0,0,0,-1,1798,1016,0,0
581,8,0,0,0,0,0,0,0,0,0,-1,1805,1016,0,0
588,8,0,0,0,0,0,0,0,0,0,-1,1812,1016,0,0
595,8,0,0,0,0,0,0,0,0,0,-1,1819,1016,0,0
602,8,0,0,0,0,0,0,0,0,0,-1,1826,1016,0,0
609,8,0,0,0,0,0,0,0,0,0,-1,1833,1016,0,0
616,8,0,0,0,0,0,0,0,0,0,-1,1840,1016,0,0
623,8,0,0,0,0,0,0,0,0,0,-1,1847,1016,0,0
630,8,0,0,0,0,0,0,0,0,0,-1,1854,1016,0,0
637,8,0,0,0,0,0,0,0,0,0,-1,1861,1016,0,0
644,8,71.4865,2.19482,0.00865233,0.00177998,0.00196843,0.00917621,0.00125611,0.26011,0.00574473,0.0430411,1868,1016,71.4864,-2.19483
651,8,71.6448,2.24451,0.00525498,0.00141479,0.000405735,0.00529738,0.00137239,0.104123,0.00317459,0.0402542,1875,1016,71.6448,-2.24452
658,8,71.7341,2.29138,0.00295786,0.0012467,-0.000280609,0.0030027,0.00120186,-0.158461,0.00174507,0.0401127,1882,1016,71.7341,-2.29139
665,8,71.7681,2.22797,0.00143203,0.00114218,-0.000540282,0.00184649,0.000727726,-0.654362,0.00107401,0.0412711,1889,1016,71.7681,-2.22795
672,8,71.696,2.19196,0.000396783,0.00107329,-0.000540698,0.00137282,9.72529e-05,-1.06491,0.000884582,0.0400113,1896,1016,71.696,-2.19198
679,8,71.6324,2.19788,-0.000193022,0.000892925,-0.000334371,0.000987622,-0.00028772,-1.29481,0.000772396,0.0387898,1903,1016,71.6324,-2.19787
686,8,71.5551,2.30579,-0.000513444,0.000400219,-0.000100289,0.000411098,-0.000524323,-1.46274,0.000541382,0.0423646,1910,1016,71.5551,-2.3058
693,8,71.5327,2.17712,-0.000622801,-0.000165621,0.000159665,-0.00011538,-0.000673042,1.26594,0.000415608,0.0399617,1917,1016,71.5327,-2.17714
700,8,71.6448,2.13971,-0.000645674,-0.000588671,0.000304367,-0.000311474,-0.000922872,0.832083,0.000542119,0.0311841,1924,1016,71.6448,-2.13974
707,8,71.6703,2.24017,-0.00130648,-0.00034322,0.000290133,-0.000262583,-0.00138712,1.29971,0.000850835,0.0262104,1931,1016,71.6703,-2.24019
714,8,71.6708,2.2124,-0.00232335,0.000473224,0.000255913,0.000496449,-0.00234658,1.48029,0.00175345,0.0340479,1938,1016,71.6708,-2.21242
721,8,71.6965,2.11249,0,0,0,0,0,0,0,-1,1945,1016,71.6966,-2.11248
728,8,52.1681,5.36774,0,0,0,0,0,0,0,-1,1952,1016,52.168,-5.36773
735,8,71.7751,7.01013,0,0,0,0,0,0,0,-1,1959,1016,71.7752,-7.01015
742,8,71.6696,7.1712,0,0,0,0,0,0,0,-1,1966,1016,71.6695,-7.17122
749,8,71.9325,7.16931,0,0,0,0,0,0,0,-1,1973,1016,71.9324,-7.16931
756,8,71.8208,6.9173,-0.00758331,0.011496,-0.00268371,0.0118663,-0.00795361,-1.43368,0.0115171,0.041873,1980,1016,71.8208,-6.91732
763,8,71.762,7.03741,-0.00732213,0.0154163,-0.0044401,0.0162525,-0.00815839,-1.38463,0.0143496,0.0178835,1987,1016,71.762,-7.03743
770,8,71.626,6.97119,-0.00508888,0.0196299,-0.00726097,0.0216049,-0.00706393,-1.30521,0.0172471,0.0241164,1994,1016,71.6259,-6.97118
777,8,71.2031,7.00903,-0.000580446,0.023992,-0.0112801,0.0283848,-0.00497331,-1.19943,0.0207803,0.0392097,2001,1016,71.2031,-7.00903
784,8,70.7527,7.05652,0,0,0,0,0,0,0,-1,2008,1016,70.7526,-7.05653
791,8,70.5229,4.91272,0.0130258,0.0324792,-0.021856,0.0466751,-0.00117016,-0.994757,0.031514,0.048938,2015,1016,70.5231,-4.91274
798,8,70.3569,5.03516,0.0224585,0.0371053,-0.0286183,0.0593223,0.00024144,-0.91066,0.039468,0.0483988,2022,1016,70.3569,-5.03513
805,8,70.5129,5.6004,0.0333633,0.0426409,-0.0361838,0.074482,0.00152219,-0.849151,0.0491551,0.0475244,2029,1016,70.5129,-5.6004
812,8,70.5388,5.63947,0.0452599,0.0502498,-0.045117,0.0929408,0.00256892,-0.81302,0.0611222,0.0474208,2036,1016,70.5388,-5.63949
-700,1,0,0,0,0,0,0,0,0,0,-1,524,1023,0,0
-693,1,-53.9321,2.90765,0.0532148,0.000458033,-0.0256297,0.0636155,-0.00994263,-0.385501,0.0460834,0.0409396,531,1023,-53.9321,-2.90767
-686,1,-53.5291,2.79144,0.0466132,0.0062171,-0.0227973,0.056873,-0.00404266,-0.422889,0.0393322,0.0455007,538,1023,-53.5291,-2.79142
-679,1,-57.5415,1.05957,0,0,0,0,0,0,0,-1,545,1023,-57.5415,-1.0596
-672,1,-57.104,1.96893,0,0,0,0,0,0,0,-1,552,1023,-57.104,-1.96892
-665,1,-56.9339,2.91333,0,0,0,0,0,0,0,-1,559,1023,-56.9339,-2.9133
-658,1,-56.3905,4.25012,0,0,0,0,0,0,0,-1,566,1023,-56.3905,-4.25013
-651,1,-56.2662,4.99036,0,0,0,0,0,0,0,-1,573,1023,-56.2663,-4.99035
-644,1,-56.0815,5.15503,0,0,0,0,0,0,0,-1,580,1023,-56.0815,-5.15502
-637,1,-56.2714,5.07996,0.000897301,0.0163635,-0.0015815,0.0165236,0.000737241,-1.46993,0.0107784,0.0430373,587,1023,-56.2714,-5.07994
-630,1,-56.595,5.22748,-0.00281713,0.0150259,-0.000232509,0.0150289,-0.00282016,-1.55777,0.0110796,0.0388777,594,1023,-56.595,-5.22747
-623,1,-56.4585,5.3158,-0.00484314,0.0111725,0.000420926,0.0111835,-0.0048542,1.54454,0.00949669,0.0187558,601,1023,-56.4585,-5.3158
-616,1,-56.6066,5.22266,-0.00530087,0.00757177,0.000151871,0.00757357,-0.00530266,1.559,0.00747253,0.025031,608,1023,-56.6067,-5.22266
-609,1,-56.6436,5.31183,-0.00497844,0.00551402,-0.000570649,0.00554497,-0.00500938,-1.51662,0.00609617,0.0276337,615,1023,-56.6435,-5.31182
-602,1,-56.4423,5.44104,-0.00434801,0.00344236,-0.0012003,0.0036231,-0.00452875,-1.42134,0.00471615,0.0171203,622,1023,-56.4423,-5.44106
-595,1,-56.3624,5.49109,0,0,0,0,0,0,0,-1,629,1023,-56.3624,-5.49106
-588,1,-56.2036,5.67505,0,0,0,0,0,0,0,-1,636,1023,-56.2036,-5.67504
-581,1,-55.5303,0.553955,-0.001924,0.000269205,-0.00182234,0.00129944,-0.00295424,-1.05625,0.00251705,0.0311094,643,1023,-55.5303,-0.553961
-574,1,-55.6144,0.542358,-0.00136169,-7.84618e-05,-0.00176136,0.0011545,-0.00259465,-0.960065,0.00221717,0.0369566,650,1023,-55.6144,-0.542344
-567,1,-55.5157,0.441467,-0.000994692,9.98744e-05,-0.00146329,0.00111488,-0.00200969,-0.964349,0.00182846,0.0403831,657,1023,-55.5157,-0.441494
-560,1,-55.4246,0.405823,-0.000644497,0.000621017,-0.000989608,0.00116287,-0.00118635,-1.06984,0.00135634,0.0430072,664,1023,-55.4246,-0.405844
-553,1,-55.3893,0.370239,-0.000483833,0.00119413,-0.000353423,0.00126554,-0.000555235,-1.37145,0.00107756,0.0426945,671,1023,-55.3893,-0.370217
-546,1,-55.349,0.348633,-0.000569013,0.00126,0.000455743,0.00136727,-0.000676282,1.33963,0.00120211,0.0439497,678,1023,-55.349,-0.348616
-539,1,-55.3945,0.587158,-0.00139507,0.000517248,0.00129055,0.00116726,-0.00204508,1.10422,0.00187758,0.043338,685,1023,-55.3945,-0.587148
-532,1,-55.4556,0.492554,-0.0022769,-2.09006e-05,0.00174293,0.000927202,-0.003225,1.07259,0.00251666,0.042894,692,1023,-55.4557,-0.492565
-525,1,0,0,0,0,0,0,0,0,0,-1,699,1023,0,0
-518,1,0,0,0,0,0,0,0,0,0,-1,706,1023,0,0
-511,1,0,0,0,0,0,0,0,0,0,-1,713,1023,0,0
-504,1,0,0,0,0,0,0,0,0,0,-1,720,1023,0,0
-497,1,0,0,0,0,0,0,0,0,0,-1,727,1023,0,0
-490,1,0,0,0,0,0,0,0,0,0,-1,734,1023,0,0
-483,1,0,0,0,0,0,0,0,0,0,-1,741,1023,0,0
-476,1,0,0,0,0,0,0,0,0,0,-1,748,1023,0,0
-469,1,0,0,0,0,0,0,0,0,0,-1,755,1023,0,0
-462,1,0,0,0,0,0,0,0,0,0,-1,762,1023,0,0
-455,1,0,0,0,0,0,0,0,0,0,-1,769,1023,0,0
-448,1,0,0,0,0,0,0,0,0,0,-1,776,1023,0,0
-441,1,0,0,0,0,0,0,0,0,0,-1,783,1023,0,0
-434,1,0,0,0,0,0,0,0,0,0,-1,790,1023,0,0
-427,1,0,0,0,0,0,0,0,0,0,-1,797,1023,0,0
-420,1,0,0,0,0,0,0,0,0,0,-1,804,1023,0,0
-413,1,0,0,0,0,0,0,0,0,0,-1,811,1023,0,0
-406,1,0,0,0,0,0,0,0,0,0,-1,818,1023,0,0
-399,1,0,0,0,0,0,0,0,0,0,-1,825,1023,0,0
-392,1,0,0,0,0,0,0,0,0,0,-1,832,1023,0,0
-385,1,0,0,0,0,0,0,0,0,0,-1,839,1023,0,0
-378,1,0,0,0,0,0,0,0,0,0,-1,846,1023,0,0
-371,1,0,0,0,0,0,0,0,0,0,-1,853,1023,0,0
-364,1,0,0,0,0,0,0,0,0,0,-1,860,1023,0,0
-357,1,0,0,0,0,0,0,0,0,0,-1,867,1023,0,0
-350,1,0,0,0,0,0,0,0,0,0,-1,874,1023,0,0
-343,1,0,0,0,0,0,0,0,0,0,-1,881,1023,0,0
-336,1,0,0,0,0,0,0,0,0,0,-1,888,1023,0,0
-329,1,0,0,0,0,0,0,0,0,0,-1,895,1023,0,0
-322,1,0,0,0,0,0,0,0,0,0,-1,902,1023,0,0
-315,1,0,0,0,0,0,0,0,0,0,-1,909,1023,0,0
-308,1,0,0,0,0,0,0,0,0,0,-1,916,1023,0,0
-301,1,0,0,0,0,0,0,0,0,0,-1,923,1023,0,0
-294,1,0,0,0,0,0,0,0,0,0,-1,930,1023,0,0
-287,1,0,0,0,0,0,0,0,0,0,-1,937,1023,0,0
-280,1,0,0,0,0,0,0,0,0,0,-1,944,1023,0,0
-273,1,0,0,0,0,0,0,0,0,0,-1,951,1023,0,0
-266,1,0,0,0,0,0,0,0,0,0,-1,958,1023,0,0
-259,1,0,0,0,0,0,0,0,0,0,-1,965,1023,0,0
-252,1,0,0,0,0,0,0,0,0,0,-1,972,1023,0,0
-245,1,0,0,0,0,0,0,0,0,0,-1,979,1023,0,0
-238,1,0,0,0,0,0,0,0,0,0,-1,986,1023,0,0
-231,1,0,0,0,0,0,0,0,0,0,-1,993,1023,0,0
-224,1,0,0,0,0,0,0,0,0,0,-1,1000,1023,0,0
-217,1,0,0,0,0,0,0,0,0,0,-1,1007,1023,0,0
-210,1,0,0,0,0,0,0,0,0,0,-1,1014,1023,0,0
-203,1,0,0,0,0,0,0,0,0,0,-1,1021,1023,0,0
-196,1,0,0,0,0,0,0,0,0,0,-1,1028,1023,0,0
-189,1,0,0,0,0,0,0,0,0,0,-1,1035,1023,0,0
-182,1,0,0,0,0,0,0,0,0,0,-1,1042,1023,0,0
-175,1,0,0,0,0,0,0,0,0,0,-1,1049,1023,0,0
-168,1,0,0,0,0,0,0,0,0,0,-1,1056,1023,0,0
-161,1,0,0,0,0,0,0,0,0,0,-1,1063,1023,0,0
-154,1,0,0,0,0,0,0,0,0,0,-1,1070,1023,0,0
-147,1,0,0,0,0,0,0,0,0,0,-1,1077,1023,0,0
-140,1,0,0,0,0,0,0,0,0,0,-1,1084,1023,0,0
-133,1,0,0,0,0,0,0,0,0,0,-1,1091,1023,0,0
-126,1,0,0,0,0,0,0,0,0,0,-1,1098,1023,0,0
-119,1,0,0,0,0,0,0,0,0,0,-1,1105,1023,0,0
-112,1,0,0,0,0,0,0,0,0,0,-1,1112,1023,0,0
-105,1,0,0,0,0,0,0,0,0,0,-1,1119,1023,0,0
-98,1,0,0,0,0,0,0,0,0,0,-1,1126,1023,0,0
-91,1,0,0,0,0,0,0,0,0,0,-1,1133,1023,0,0
-84,1,0,0,0,0,0,0,0,0,0,-1,1140,1023,0,0
-77,1,0,0,0,0,0,0,0,0,0,-1,1147,1023,0,0
-70,1,0,0,0,0,0,0,0,0,0,-1,1154,1023,0,0
-63,1,0,0,0,0,0,0,0,0,0,-1,1161,1023,0,0
-56,1,0,0,0,0,0,0,0,0,0,-1,1168,1023,0,0
-49,1,0,0,0,0,0,0,0,0,0,-1,1175,1023,0,0
-42,1,0,0,0,0,0,0,0,0,0,-1,1182,1023,0,0
-35,1,0,0,0,0,0,0,0,0,0,-1,1189,1023,0,0
-28,1,0,0,0,0,0,0,0,0,0,-1,1196,1023,0,0
-21,1,0,0,0,0,0,0,0,0,0,-1,1203,1023,0,0
-14,1,0,0,0,0,0,0,0,0,0,-1,1210,1023,0,0
-7,1,0,0,0,0,0,0,0,0,0,-1,1217,1023,0,0
0,1,0,0,0,0,0,0,0,0,0,-1,1224,1023,0,0
7,1,0,0,0,0,0,0,0,0,0,-1,1231,1023,0,0
14,1,0,0,0,0,0,0,0,0,0,-1,1238,1023,0,0
21,1,0,0,0,0,0,0,0,0,0,-1,1245,1023,0,0
28,1,0,0,0,0,0,0,0,0,0,-1,1252,1023,0,0
35,1,0,0,0,0,0,0,0,0,0,-1,1259,1023,0,0
42,1,0,0,0,0,0,0,0,0,0,-1,1266,1023,0,0
49,1,0,0,0,0,0,0,0,0,0,-1,1273,1023,0,0
56,1,0,0,0,0,0,0,0,0,0,-1,1280,1023,0,0
63,1,0,0,0,0,0,0,0,0,0,-1,1287,1023,0,0
70,1,0,0,0,0,0,0,0,0,0,-1,1294,1023,0,0
77,1,0,0,0,0,0,0,0,0,0,-1,1301,1023,0,0
84,1,0,0,0,0,0,0,0,0,0,-1,1308,1023,0,0
91,1,0,0,0,0,0,0,0,0,0,-1,1315,1023,0,0
98,1,0,0,0,0,0,0,0,0,0,-1,1322,1023,0,0
105,1,0,0,0,0,0,0,0,0,0,-1,1329,1023,0,0
112,1,0,0,0,0,0,0,0,0,0,-1,1336,1023,0,0
119,1,0,0,0,0,0,0,0,0,0,-1,1343,1023,0,0
126,1,0,0,0,0,0,0,0,0,0,-1,1350,1023,0,0
133,1,0,0,0,0,0,0,0,0,0,-1,1357,1023,0,0
140,1,0,0,0,0,0,0,0,0,0,-1,1364,1023,0,0
147,1,0,0,0,0,0,0,0,0,0,-1,1371,1023,0,0
154,1,0,0,0,0,0,0,0,0,0,-1,1378,1023,0,0
161,1,0,0,0,0,0,0,0,0,0,-1,1385,1023,0,0
168,1,0,0,0,0,0,0,0,0,0,-1,1392,1023,0,0
175,1,0,0,0,0,0,0,0,0,0,-1,1399,1023,0,0
182,1,0,0,0,0,0,0,0,0,0,-1,1406,1023,0,0
189,1,0,0,0,0,0,0,0,0,0,-1,1413,1023,0,0
196,1,0,0,0,0,0,0,0,0,0,-1,1420,1023,0,0
203,1,0,0,0,0,0,0,0,0,0,-1,1427,1023,0,0
210,1,0,0,0,0,0,0,0,0,0,-1,1434,1023,0,0
217,1,0,0,0,0,0,0,0,0,0,-1,1441,1023,0,0
224,1,0,0,0,0,0,0,0,0,0,-1,1448,1023,0,0
231,1,0,0,0,0,0,0,0,0,0,-1,1455,1023,0,0
238,1,0,0,0,0,0,0,0,0,0,-1,1462,1023,0,0
245,1,0,0,0,0,0,0,0,0,0,-1,1469,1023,0,0
252,1,0,0,0,0,0,0,0,0,0,-1,1476,1023,0,0
259,1,0,0,0,0,0,0,0,0,0,-1,1483,1023,0,0
266,1,0,0,0,0,0,0,0,0,0,-1,1490,1023,0,0
273,1,0,0,0,0,0,0,0,0,0,-1,1497,1023,0,0
280,1,0,0,0,0,0,0,0,0,0,-1,1504,1023,0,0
287,1,0,0,0,0,0,0,0,0,0,-1,1511,1023,0,0
294,1,0,0,0,0,0,0,0,0,0,-1,1518,1023,0,0
301,1,0,0,0,0,0,0,0,0,0,-1,1525,1023,0,0
308,1,0,0,0,0,0,0,0,0,0,-1,1532,1023,0,0
315,1,0,0,0,0,0,0,0,0,0,-1,1539,1023,0,0
322,1,0,0,0,0,0,0,0,0,0,-1,1546,1023,0,0
329,1,0,0,0,0,0,0,0,0,0,-1,1553,1023,0,0
336,1,0,0,0,0,0,0,0,0,0,-1,1560,1023,0,0
343,1,0,0,0,0,0,0,0,0,0,-1,1567,1023,0,0
350,1,0,0,0,0,0,0,0,0,0,-1,1574,1023,0,0
357,1,0,0,0,0,0,0,0,0,0,-1,1581,1023,0,0
364,1,0,0,0,0,0,0,0,0,0,-1,1588,1023,0,0
371,1,0,0,0,0,0,0,0,0,0,-1,1595,1023,0,0
378,1,0,0,0,0,0,0,0,0,0,-1,1602,1023,0,0
385,1,0,0,0,0,0,0,0,0,0,-1,1609,1023,0,0
392,1,0,0,0,0,0,0,0,0,0,-1,1616,1023,0,0
399,1,0,0,0,0,0,0,0,0,0,-1,1623,1023,0,0
406,1,0,0,0,0,0,0,0,0,0,-1,1630,1023,0,0
413,1,0,0,0,0,0,0,0,0,0,-1,1637,1023,0,0
420,1,0,0,0,0,0,0,0,0,0,-1,1644,1023,0,0
427,1,0,0,0,0,0,0,0,0,0,-1,1651,1023,0,0
434,1,0,0,0,0,0,0,0,0,0,-1,1658,1023,0,0
441,1,0,0,0,0,0,0,0,0,0,-1,1665,1023,0,0
448,1,0,0,0,0,0,0,0,0,0,-1,1672,1023,0,0
455,1,0,0,0,0,0,0,0,0,0,-1,1679,1023,0,0
462,1,0,0,0,0,0,0,0,0,0,-1,1686,1023,0,0
469,1,0,0,0,0,0,0,0,0,0,-1,1693,1023,0,0
476,1,0,0,0,0,0,0,0,0,0,-1,1700,1023,0,0
483,1,0,0,0,0,0,0,0,0,0,-1,1707,1023,0,0
490,1,0,0,0,0,0,0,0,0,0,-1,1714,1023,0,0
497,1,0,0,0,0,0,0,0,0,0,-1,1721,1023,0,0
504,1,0,0,0,0,0,0,0,0,0,-1,1728,1023,0,0
511,1,0,0,0,0,0,0,0,0,0,-1,1735,1023,0,0
518,1,0,0,0,0,0,0,0,0,0,-1,1742,1023,0,0
525,1,0,0,0,0,0,0,0,0,0,-1,1749,1023,0,0
532,1,0,0,0,0,0,0,0,0,0,-1,1756,1023,0,0
539,1,0,0,0,0,0,0,0,0,0,-1,1763,1023,0,0
546,1,0,0,0,0,0,0,0,0,0,-1,1770,1023,0,0
553,1,0,0,0,0,0,0,0,0,0,-1,1777,1023,0,0
560,1,0,0,0,0,0,0,0,0,0,-1,1784,1023,0,0
567,1,0,0,0,0,0,0,0,0,0,-1,1791,1023,0,0
574,1,0,0,0,0,0,0,0,0,0,-1,1798,1023,0,0
581,1,0,0,0,0,0,0,0,0,0,-1,1805,1023,0,0
588,1,0,0,0,0,0,0,0,0,0,-1,1812,1023,0,0
595,1,0,0,0,0,0,0,0,0,0,-1,1819,1023,0,0
602,1,0,0,0,0,0,0,0,0,0,-1,1826,1023,0,0
609,1,0,0,0,0,0,0,0,0,0,-1,1833,1023,0,0
616,1,0,0,0,0,0,0,0,0,0,-1,1840,1023,0,0
623,1,0,0,0,0,0,0,0,0,0,-1,1847,1023,0,0
630,1,0,0,0,0,0,0,0,0,0,-1,1854,1023,0,0
637,1,0,0,0,0,0,0,0,0,0,-1,1861,1023,0,0
644,1,0,0,0,0,0,0,0,0,0,-1,1868,1023,0,0
651,1,71.7888,2.32935,0.00479232,0.00154094,0.000764429,0.00496308,0.00137019,0.21977,0.00295967,0.0387499,1875,1023,71.7888,-2.32935
658,1,71.912,2.21466,0.00249733,0.0011346,-4.88831e-05,0.00249909,0.00113285,-0.03581,0.00144494,0.0409769,1882,1023,71.912,-2.21464
665,1,71.8296,2.25061,0.00101688,0.000893511,-0.000369244,0.00132956,0.000580835,-0.702634,0.000769657,0.0427734,1889,1023,71.8296,-2.2506
672,1,71.6412,2.2309,6.83565e-05,0.000732587,-0.000397557,0.000918498,-0.000117555,-1.13337,0.000655043,0.0414916,1896,1023,71.6412,-2.2309
679,1,71.5649,2.04828,-0.000452015,0.000542339,-0.00020399,0.00058256,-0.000492237,-1.37612,0.000621264,0.0386149,1903,1023,71.5649,-2.04828
686,1,71.5649,2.24969,0,0,0,0,0,0,0,-1,1910,1023,71.565,-2.24968
693,1,71.6147,2.26379,-0.000910644,-0.000435023,0.000339416,-0.000258398,-0.00108727,1.09098,0.000655905,0.0360134,1917,1023,71.6148,-2.26378
700,1,71.64,2.34003,-0.000905377,-0.000812654,0.000547887,-0.00030917,-0.00140886,0.827607,0.000855023,0.0320349,1924,1023,71.64,-2.34005
707,1,71.6273,2.30566,-0.00157123,-0.000546638,0.00058745,-0.000279482,-0.00183838,1.14398,0.00114387,0.029459,1931,1023,71.6273,-2.30569
714,1,71.6113,2.23077,-0.00257936,0.000276951,0.000594482,0.00039574,-0.00269815,1.37357,0.00194415,0.0320246,1938,1023,71.6113,-2.23075
721,1,71.681,2.23505,0,0,0,0,0,0,0,-1,1945,1023,71.681,-2.23506
728,1,52.4639,5.59277,0,0,0,0,0,0,0,-1,1952,1023,52.4639,-5.59276
735,1,53.3617,6.10699,0,0,0,0,0,0,0,-1,1959,1023,53.3617,-6.10698
742,1,52.4393,5.81525,0,0,0,0,0,0,0,-1,1966,1023,52.4393,-5.81527
749,1,72.0645,6.88477,0,0,0,0,0,0,0,-1,1973,1023,72.0645,-6.88478
756,1,71.9341,7.01892,-0.00847531,0.0115994,-0.00196571,0.0117901,-0.00866598,-1.4741,0.0118562,0.0454263,1980,1023,71.934,-7.01891
763,1,71.7166,6.91785,-0.0087103,0.0157222,-0.003583,0.0162368,-0.00922491,-1.42815,0.014885,0.018713,1987,1023,71.7165,-6.91786
770,1,71.6428,6.81268,-0.00743115,0.0203186,-0.00614351,0.0216178,-0.00873043,-1.36238,0.0180405,0.0208492,1994,1023,71.6427,-6.81266
777,1,71.3018,6.67004,-0.00427775,0.0254235,-0.00987023,0.0284044,-0.00725863,-1.2775,0.0217631,0.0286862,2001,1023,71.3017,-6.67003
784,1,70.9661,6.50787,0,0,0,0,0,0,0,-1,2008,1023,70.9662,-6.50787
791,1,70.9321,5.13922,0.00539127,0.0360021,-0.0196296,0.045588,-0.00419459,-1.11652,0.0318823,0.0483291,2015,1023,70.9321,-5.13919
798,1,70.7253,5.23029,0.0121725,0.0420369,-0.0258616,0.0569675,-0.0027582,-1.04721,0.0389303,0.0479922,2022,1023,70.7253,-5.23031
805,1,71.105,5.13281,0.0201211,0.0492045,-0.032824,0.0705636,-0.00123812,-0.993916,0.0474605,0.0471083,2029,1023,71.105,-5.13282
812,1,71.0742,5.11621,0.0283007,0.0588498,-0.0409205,0.0872536,-0.000103083,-0.964027,0.0582034,0.0468387,2036,1023,71.0743,-5.11623
-700,-6,0,0,0,0,0,0,0,0,0,-1,524,1030,0,0
-693,-6,-54.2821,2.96704,0,0,0,0,0,0,0,-1,531,1030,-54.2821,-2.96706
-686,-6,-57.4855,-0.151367,0,0,0,0,0,0,0,-1,538,1030,-57.4855,0.151391
-679,-6,-57.281,1.06152,0,0,0,0,0,0,0,-1,545,1030,-57.281,-1.06153
-672,-6,-56.7992,2.00378,0,0,0,0,0,0,0,-1,552,1030,-56.7992,-2.00378
-665,-6,-56.3875,3.13745,0.0273893,0.0246275,-0.0102476,0.0363487,0.0156682,-0.718425,0.0210523,0.0442731,559,1030,-56.3874,-3.13741
-658,-6,-56.4235,3.99646,0.0197007,0.024199,-0.00663237,0.0289532,0.0149465,-0.948871,0.0167191,0.0425176,566,1030,-56.4235,-3.99644
-651,-6,-56.2523,4.36975,0.0129058,0.0228973,-0.00366599,0.0240981,0.011705,-1.25426,0.0139149,0.0473947,573,1030,-56.2523,-4.3697
-644,-6,-55.8993,5.37061,0,0,0,0,0,0,0,-1,580,1030,-55.8993,-5.37061
-637,-6,-56.2326,5.22705,0.000529538,0.0173562,0.00101492,0.0174172,0.000468544,1.51077,0.0114585,0.0480614,587,1030,-56.2326,-5.22702
-630,-6,-56.4453,5.11255,-0.00239779,0.0153893,0.00129161,0.0154826,-0.00249109,1.49869,0.0112445,0.0273373,594,1030,-56.4453,-5.11258
-623,-6,-56.3735,5.23279,-0.00397318,0.011033,0.00100588,0.0111001,-0.0040403,1.50416,0.00905257,0.0210351,601,1030,-56.3735,-5.23279
-616,-6,-56.4428,5.23962,-0.00424563,0.00715027,0.000259499,0.00715617,-0.00425154,1.54804,0.00665703,0.0245947,608,1030,-56.4428,-5.23959
-609,-6,-56.4319,5.40051,-0.00399954,0.00502439,-0.000631009,0.0050683,-0.00404345,-1.50132,0.00527175,0.0244586,615,1030,-56.4319,-5.40056
-602,-6,-56.3138,5.53784,-0.00353994,0.00292486,-0.00131383,0.00318166,-0.00379674,-1.37777,0.0040342,0.0153578,622,1030,-56.3139,-5.53783
-595,-6,-56.3486,5.63293,0,0,0,0,0,0,0,-1,629,1030,-56.3486,-5.63293
-588,-6,-55.488,0.495239,0,0,0,0,0,0,0,-1,636,1030,-55.488,-0.49528
-581,-6,-55.5151,0.476807,-0.00161643,-0.000176792,-0.00173265,0.000979609,-0.00277283,-0.982273,0.00224742,0.0272279,643,1030,-55.515,-0.476751
-574,-6,-55.5872,0.595581,-0.00116533,-0.000413952,-0.00155894,0.000813931,-0.00239322,-0.903639,0.00192503,0.0324292,650,1030,-55.5872,-0.595524
-567,-6,-55.6006,0.640259,-0.000963881,-0.000134209,-0.00115572,0.000678867,-0.00177696,-0.957708,0.00146435,0.0403677,657,1030,-55.6006,-0.640248
-560,-6,-55.3488,0.513672,-0.000839113,0.000497309,-0.00055418,0.000697211,-0.00103902,-1.22461,0.00100887,0.04445,664,1030,-55.3488,-0.513656
-553,-6,-55.2915,0.422363,-0.000928659,0.00116694,0.00024264,0.00119467,-0.000956386,1.45702,0.00124445,0.0431457,671,1030,-55.2915,-0.422327
-546,-6,-55.3571,0.32312,-0.00124252,0.00131107,0.00123215,0.00180865,-0.0017401,1.18699,0.002049,0.0442242,678,1030,-55.3571,-0.32314
-539,-6,-55.5056,0.545654,-0.00221558,0.000641319,0.00224524,0.00187399,-0.00344825,1.06871,0.00311728,0.0443129,685,1030,-55.5056,-0.545599
-532,-6,-55.6418,0.695313,-0.00323242,2.61191e-05,0.00306106,0.00186451,-0.0050708,1.02996,0.00414429,0.0435554,692,1030,-55.6418,-0.695299
-525,-6,0,0,0,0,0,0,0,0,0,-1,699,1030,0,0
-518,-6,0,0,0,0,0,0,0,0,0,-1,706,1030,0,0
-511,-6,0,0,0,0,0,0,0,0,0,-1,713,1030,0,0
-504,-6,0,0,0,0,0,0,0,0,0,-1,720,1030,0,0
-497,-6,0,0,0,0,0,0,0,0,0,-1,727,1030,0,0
-490,-6,0,0,0,0,0,0,0,0,0,-1,734,1030,0,0
-483,-6,0,0,0,0,0,0,0,0,0,-1,741,1030,0,0
-476,-6,0,0,0,0,0,0,0,0,0,-1,748,1030,0,0
-469,-6,0,0,0,0,0,0,0,0,0,-1,755,1030,0,0
-462,-6,0,0,0,0,0,0,0,0,0,-1,762,1030,0,0
-455,-6,0,0,0,0,0,0,0,0,0,-1,769,1030,0,0
-448,-6,0,0,0,0,0,0,0,0,0,-1,776,1030,0,0
-441,-6,0,0,0,0,0,0,0,0,0,-1,783,1030,0,0
-434,-6,0,0,0,0,0,0,0,0,0,-1,790,1030,0,0
-427,-6,0,0,0,0,0,0,0,0,0,-1,797,1030,0,0
-420,-6,0,0,0,0,0,0,0,0,0,-1,804,1030,0,0
-413,-6,0,0,0,0,0,0,0,0,0,-1,811,1030,0,0
-406,-6,0,0,0,0,0,0,0,0,0,-1,818,1030,0,0
-399,-6,0,0,0,0,0,0,0,0,0,-1,825,1030,0,0
-392,-6,0,0,0,0,0,0,0,0,0,-1,832,1030,0,0
-385,-6,0,0,0,0,0,0,0,0,0,-1,839,1030,0,0
-378,-6,0,0,0,0,0,0,0,0,0,-1,846,1030,0,0
-371,-6,0,0,0,0,0,0,0,0,0,-1,853,1030,0,0
-364,-6,0,0,0,0,0,0,0,0,0,-1,860,1030,0,0
-357,-6,0,0,0,0,0,0,0,0,0,-1,867,1030,0,0
-350,-6,0,0,0,0,0,0,0,0,0,-1,874,1030,0,0
-343,-6,0,0,0,0,0,0,0,0,0,-1,881,1030,0,0
-336,-6,0,0,0,0,0,0,0,0,0,-1,888,1030,0,0
-329,-6,0,0,0,0,0,0,0,0,0,-1,895,1030,0,0
-322,-6,0,0,0,0,0,0,0,0,0,-1,902,1030,0,0
-315,-6,0,0,0,0,0,0,0,0,0,-1,909,1030,0,0
-308,-6,0,0,0,0,0,0,0,0,0,-1,916,1030,0,0
-301,-6,0,0,0,0,0,0,0,0,0,-1,923,1030,0,0
-294,-6,0,0,0,0,0,0,0,0,0,-1,930,1030,0,0
-287,-6,0,0,0,0,0,0,0,0,0,-1,937,1030,0,0
-280,-6,0,0,0,0,0,0,0,0,0,-1,944,1030,0,0
-273,-6,0,0,0,0,0,0,0,0,0,-1,951,1030,0,0
-266,-6,0,0,0,0,0,0,0,0,0,-1,958,1030,0,0
-259,-6,0,0,0,0,0,0,0,0,0,-1,965,1030,0,0
-252,-6,0,0,0,0,0,0,0,0,0,-1,972,1030,0,0
-245,-6,0,0,0,0,0,0,0,0,0,-1,979,1030,0,0
-238,-6,0,0,0,0,0,0,0,0,0,-1,986,1030,0,0
-231,-6,0,0,0,0,0,0,0,0,0,-1,993,1030,0,0
-224,-6,0,0,0,0,0,0,0,0,0,-1,1000,1030,0,0
-217,-6,0,0,0,0,0,0,0,0,0,-1,1007,1030,0,0
-210,-6,0,0,0,0,0,0,0,0,0,-1,1014,1030,0,0
-203,-6,0,0,0,0,0,0,0,0,0,-1,1021,1030,0,0
-196,-6,0,0,0,0,0,0,0,0,0,-1,1028,1030,0,0
-189,-6,0,0,0,0,0,0,0,0,0,-1,1035,1030,0,0
-182,-6,0,0,0,0,0,0,0,0,0,-1,1042,1030,0,0
-175,-6,0,0,0,0,0,0,0,0,0,-1,1049,1030,0,0
-168,-6,0,0,0,0,0,0,0,0,0,-1,1056,1030,0,0
-161,-6,0,0,0,0,0,0,0,0,0,-1,1063,1030,0,0
-154,-6,0,0,0,0,0,0,0,0,0,-1,1070,1030,0,0
-147,-6,0,0,0,0,0,0,0,0,0,-1,1077,1030,0,0
-140,-6,0,0,0,0,0,0,0,0,0,-1,1084,1030,0,0
-133,-6,0,0,0,0,0,0,0,0,0,-1,1091,1030,0,0
-126,-6,0,0,0,0,0,0,0,0,0,-1,1098,1030,0,0
-119,-6,0,0,0,0,0,0,0,0,0,-1,1105,1030,0,0
-112,-6,0,0,0,0,0,0,0,0,0,-1,1112,1030,0,0
-105,-6,0,0,0,0,0,0,0,0,0,-1,1119,1030,0,0
-98,-6,0,0,0,0,0,0,0,0,0,-1,1126,1030,0,0
-91,-6,0,0,0,0,0,0,0,0,0,-1,1133,1030,0,0
-84,-6,0,0,0,0,0,0,0,0,0,-1,1140,1030,0,0
-77,-6,0,0,0,0,0,0,0,0,0,-1,1147,1030,0,0
-70,-6,0,0,0,0,0,0,0,0,0,-1,1154,1030,0,0
-63,-6,0,0,0,0,0,0,0,0,0,-1,1161,1030,0,0
-56,-6,0,0,0,0,0,0,0,0,0,-1,1168,1030,0,0
-49,-6,0,0,0,0,0,0,0,0,0,-1,1175,1030,0,0
-42,-6,0,0,0,0,0,0,0,0,0,-1,1182,1030,0,0
-35,-6,0,0,0,0,0,0,0,0,0,-1,1189,1030,0,0
-28,-6,0,0,0,0,0,0,0,0,0,-1,1196,1030,0,0
-21,-6,0,0,0,0,0,0,0,0,0,-1,1203,1030,0,0
-14,-6,0,0,0,0,0,0,0,0,0,-1,1210,1030,0,0
-7,-6,0,0,0,0,0,0,0,0,0,-1,1217,1030,0,0
0,-6,0,0,0,0,0,0,0,0,0,-1,1224,1030,0,0
7,-6,0,0,0,0,0,0,0,0,0,-1,1231,1030,0,0
14,-6,0,0,0,0,0,0,0,0,0,-1,1238,1030,0,0
21,-6,0,0,0,0,0,0,0,0,0,-1,1245,1030,0,0
28,-6,0,0,0,0,0,0,0,0,0,-1,1252,1030,0,0
35,-6,0,0,0,0,0,0,0,0,0,-1,1259,1030,0,0
42,-6,0,0,0,0,0,0,0,0,0,-1,1266,1030,0,0
49,-6,0,0,0,0,0,0,0,0,0,-1,1273,1030,0,0
56,-6,0,0,0,0,0,0,0,0,0,-1,1280,1030,0,0
63,-6,0,0,0,0,0,0,0,0,0,-1,1287,1030,0,0
70,-6,0,0,0,0,0,0,0,0,0,-1,1294,1030,0,0
77,-6,0,0,0,0,0,0,0,0,0,-1,1301,1030,0,0
84,-6,0,0,0,0,0,0,0,0,0,-1,1308,1030,0,0
91,-6,0,0,0,0,0,0,0,0,0,-1,1315,1030,0,0
98,-6,0,0,0,0,0,0,0,0,0,-1,1322,1030,0,0
105,-6,0,0,0,0,0,0,0,0,0,-1,1329,1030,0,0
112,-6,0,0,0,0,0,0,0,0,0,-1,1336,1030,0,0
119,-6,0,0,0,0,0,0,0,0,0,-1,1343,1030,0,0
126,-6,0,0,0,0,0,0,0,0,0,-1,1350,1030,0,0
133,-6,0,0,0,0,0,0,0,0,0,-1,1357,1030,0,0
140,-6,0,0,0,0,0,0,0,0,0,-1,1364,1030,0,0
147,-6,0,0,0,0,0,0,0,0,0,-1,1371,1030,0,0
154,-6,0,0,0,0,0,0,0,0,0,-1,1378,1030,0,0
161,-6,0,0,0,0,0,0,0,0,0,-1,1385,1030,0,0
168,-6,0,0,0,0,0,0,0,0,0,-1,1392,1030,0,0
175,-6,0,0,0,0,0,0,0,0,0,-1,1399,1030,0,0
182,-6,0,0,0,0,0,0,0,0,0,-1,1406,1030,0,0
189,-6,0,0,0,0,0,0,0,0,0,-1,1413,1030,0,0
196,-6,0,0,0,0,0,0,0,0,0,-1,1420,1030,0,0
203,-6,0,0,0,0,0,0,0,0,0,-1,1427,1030,0,0
210,-6,0,0,0,0,0,0,0,0,0,-1,1434,1030,0,0
217,-6,0,0,0,0,0,0,0,0,0,-1,1441,1030,0,0
224,-6,0,0,0,0,0,0,0,0,0,-1,1448,1030,0,0
231,-6,0,0,0,0,0,0,0,0,0,-1,1455,1030,0,0
238,-6,0,0,0,0,0,0,0,0,0,-1,1462,1030,0,0
245,-6,0,0,0,0,0,0,0,0,0,-1,1469,1030,0,0
252,-6,0,0,0,0,0,0,0,0,0,-1,1476,1030,0,0
259,-6,0,0,0,0,0,0,0,0,0,-1,1483,1030,0,0
266,-6,0,0,0,0,0,0,0,0,0,-1,1490,1030,0,0
273,-6,0,0,0,0,0,0,0,0,0,-1,1497,1030,0,0
280,-6,0,0,0,0,0,0,0,0,0,-1,1504,1030,0,0
287,-6,0,0,0,0,0,0,0,0,0,-1,1511,1030,0,0
294,-6,0,0,0,0,0,0,0,0,0,-1,1518,1030,0,0
301,-6,0,0,0,0,0,0,0,0,0,-1,1525,1030,0,0
308,-6,0,0,0,0,0,0,0,0,0,-1,1532,1030,0,0
315,-6,0,0,0,0,0,0,0,0,0,-1,1539,1030,0,0
322,-6,0,0,0,0,0,0,0,0,0,-1,1546,1030,0,0
329,-6,0,0,0,0,0,0,0,0,0,-1,1553,1030,0,0
336,-6,0,0,0,0,0,0,0,0,0,-1,1560,1030,0,0
343,-6,0,0,0,0,0,0,0,0,0,-1,1567,1030,0,0
350,-6,0,0,0,0,0,0,0,0,0,-1,1574,1030,0,0
357,-6,0,0,0,0,0,0,0,0,0,-1,1581,1030,0,0
364,-6,0,0,0,0,0,0,0,0,0,-1,1588,1030,0,0
371,-6,0,0,0,0,0,0,0,0,0,-1,1595,1030,0,0
378,-6,0,0,0,0,0,0,0,0,0,-1,1602,1030,0,0
385,-6,0,0,0,0,0,0,0,0,0,-1,1609,1030,0,0
392,-6,0,0,0,0,0,0,0,0,0,-1,1616,1030,0,0
399,-6,0,0,0,0,0,0,0,0,0,-1,1623,1030,0,0
406,-6,0,0,0,0,0,0,0,0,0,-1,1630,1030,0,0
413,-6,0,0,0,0,0,0,0,0,0,-1,1637,1030,0,0
420,-6,0,0,0,0,0,0,0,0,0,-1,1644,1030,0,0
427,-6,0,0,0,0,0,0,0,0,0,-1,1651,1030,0,0
434,-6,0,0,0,0,0,0,0,0,0,-1,1658,1030,0,0
441,-6,0,0,0,0,0,0,0,0,0,-1,1665,1030,0,0
448,-6,0,0,0,0,0,0,0,0,0,-1,1672,1030,0,0
455,-6,0,0,0,0,0,0,0,0,0,-1,1679,1030,0,0
462,-6,0,0,0,0,0,0,0,0,0,-1,1686,1030,0,0
469,-6,0,0,0,0,0,0,0,0,0,-1,1693,1030,0,0
476,-6,0,0,0,0,0,0,0,0,0,-1,1700,1030,0,0
483,-6,0,0,0,0,0,0,0,0,0,-1,1707,1030,0,0
490,-6,0,0,0,0,0,0,0,0,0,-1,1714,1030,0,0
497,-6,0,0,0,0,0,0,0,0,0,-1,1721,1030,0,0
504,-6,0,0,0,0,0,0,0,0,0,-1,1728,1030,0,0
511,-6,0,0,0,0,0,0,0,0,0,-1,1735,1030,0,0
518,-6,0,0,0,0,0,0,0,0,0,-1,1742,1030,0,0
525,-6,0,0,0,0,0,0,0,0,0,-1,1749,1030,0,0
532,-6,0,0,0,0,0,0,0,0,0,-1,1756,1030,0,0
539,-6,0,0,0,0,0,0,0,0,0,-1,1763,1030,0,0
546,-6,0,0,0,0,0,0,0,0,0,-1,1770,1030,0,0
553,-6,0,0,0,0,0,0,0,0,0,-1,1777,1030,0,0
560,-6,0,0,0,0,0,0,0,0,0,-1,1784,1030,0,0
567,-6,0,0,0,0,0,0,0,0,0,-1,1791,1030,0,0
574,-6,0,0,0,0,0,0,0,0,0,-1,1798,1030,0,0
581,-6,0,0,0,0,0,0,0,0,0,-1,1805,1030,0,0
588,-6,0,0,0,0,0,0,0,0,0,-1,1812,1030,0,0
595,-6,0,0,0,0,0,0,0,0,0,-1,1819,1030,0,0
602,-6,0,0,0,0,0,0,0,0,0,-1,1826,1030,0,0
609,-6,0,0,0,0,0,0,0,0,0,-1,1833,1030,0,0
616,-6,0,0,0,0,0,0,0,0,0,-1,1840,1030,0,0
623,-6,0,0,0,0,0,0,0,0,0,-1,1847,1030,0,0
630,-6,0,0,0,0,0,0,0,0,0,-1,1854,1030,0,0
637,-6,0,0,0,0,0,0,0,0,0,-1,1861,1030,0,0
644,-6,0,0,0,0,0,0,0,0,0,-1,1868,1030,0,0
651,-6,71.8092,2.53027,0.0042243,0.00172468,0.00121073,0.00471457,0.0012344,0.384758,0.00282302,0.038669,1875,1030,71.8092,-2.53028
658,-6,71.9994,2.39453,0.00201241,0.00112339,0.000234528,0.00207049,0.00106532,0.242745,0.00119557,0.0400933,1882,1030,71.9994,-2.39457
665,-6,71.8507,2.40198,0.000605948,0.000755269,-0.000178303,0.000873912,0.000487306,-0.983672,0.000505668,0.0433249,1889,1030,71.8508,-2.40193
672,-6,71.7028,2.25659,-0.000244816,0.000495952,-0.000258788,0.000577404,-0.000326267,-1.26587,0.000528408,0.0423605,1896,1030,71.7027,-2.2566
679,-6,71.6259,2.08167,-0.000691592,0.000257883,-0.000101136,0.000268536,-0.000702245,-1.46585,0.000578826,0.0405348,1903,1030,71.6259,-2.08165
686,-6,71.5593,2.36621,-0.00103426,-0.000223463,0.000130694,-0.000202917,-0.00105481,1.41487,0.000646276,0.037917,1910,1030,71.5593,-2.36619
693,-6,71.6073,2.27966,-0.00116206,-0.000710346,0.000440849,-0.000440865,-0.00143154,1.02212,0.000846574,0.0346575,1917,1030,71.6073,-2.27964
700,-6,71.6163,2.31726,-0.00114657,-0.00105937,0.000701914,-0.000399705,-0.00180624,0.816417,0.00109551,0.0312956,1924,1030,71.6163,-2.31731
707,-6,71.6052,2.27295,-0.00181774,-0.000797401,0.000797749,-0.00036064,-0.0022545,1.06988,0.00139838,0.0297161,1931,1030,71.6052,-2.27292
714,-6,71.6282,2.01147,-0.00280514,8.3668e-06,0.000853415,0.000246992,-0.00304377,1.29815,0.00211632,0.0413917,1938,1030,71.6282,-2.01143
721,-6,71.6937,1.81567,0,0,0,0,0,0,0,-1,1945,1030,71.6937,-1.81568
728,-6,53.1713,6.25494,0,0,0,0,0,0,0,-1,1952,1030,53.1713,-6.25495
735,-6,71.5658,7.05945,0,0,0,0,0,0,0,-1,1959,1030,71.5658,-7.05945
742,-6,71.7704,7.32703,0,0,0,0,0,0,0,-1,1966,1030,71.7704,-7.32704
749,-6,71.8901,6.81854,0,0,0,0,0,0,0,-1,1973,1030,71.8901,-6.81853
756,-6,71.8474,6.93176,-0.00940682,0.0115252,-0.00115701,0.011589,-0.00947058,-1.51575,0.0121792,0.037043,1980,1030,71.8474,-6.93177
763,-6,71.655,6.72626,-0.0101952,0.0158499,-0.00259621,0.0161061,-0.0104515,-1.47241,0.0154485,0.0220257,1987,1030,71.6549,-6.72625
770,-6,71.5313,6.59149,-0.00997983,0.0207631,-0.00481675,0.0215001,-0.0107168,-1.41896,0.0189446,0.0192414,1994,1030,71.5312,-6.5915
777,-6,71.3582,6.49969,-0.0084748,0.0265266,-0.00808293,0.0283031,-0.0102512,-1.35446,0.0230583,0.0212335,2001,1030,71.3581,-6.49967
784,-6,71.2385,6.88007,-0.00631136,0.0325243,-0.0119653,0.0359148,-0.00970189,-1.29467,0.0277484,0.046778,2008,1030,71.2386,-6.88006
791,-6,71.165,7.31934,0,0,0,0,0,0,0,-1,2015,1030,71.165,-7.31937
798,-6,71.4048,5.07837,0.000199946,0.0462514,-0.0222257,0.0552283,-0.00877692,-1.18694,0.0400662,0.0474829,2022,1030,71.4047,-5.07832
805,-6,71.5347,4.56421,0.00463942,0.0548523,-0.0284596,0.0676969,-0.00820519,-1.14684,0.0481002,0.0455889,2029,1030,71.5346,-4.56425
812,-6,71.5969,4.17566,0,0,0,0,0,0,0,-1,2036,1030,71.597,-4.17572
-700,-13,0,0,0,0,0,0,0,0,0,-1,524,1037,0,0
-693,-13,-54.4463,2.84131,0.0688088,0.0319976,-0.0254418,0.0818046,0.0190018,-0.472256,0.0494352,0.0458011,531,1037,-54.4463,-2.84136
-686,-13,-54.6051,2.57922,0.0567671,0.0337651,-0.0197218,0.0680964,0.0224359,-0.521425,0.0400704,0.0434085,538,1037,-54.6051,-2.57924
-679,-13,-57.0204,1.06348,0,0,0,0,0,0,0,-1,545,1037,-57.0205,-1.06346
-672,-13,-56.2838,3.02368,0,0,0,0,0,0,0,-1,552,1037,-56.2838,-3.02369
-665,-13,-56.1834,3.41992,0.0278318,0.032262,-0.00680959,0.0372077,0.0228861,-0.942647,0.0216707,0.0466462,559,1037,-56.1834,-3.41992
-658,-13,-56.0646,3.61292,0.0200977,0.03012,-0.00360696,0.0312831,0.0189346,-1.25885,0.0181942,0.0458556,566,1037,-56.0646,-3.61289
-651,-13,-55.9318,3.97559,0.0133319,0.0272412,-0.00114621,0.027335,0.013238,-1.48912,0.0157845,0.0438937,573,1037,-55.9318,-3.9756
-644,-13,-55.9059,4.70325,0.00524405,0.0247358,0.000658857,0.024758,0.0052218,1.53705,0.0150694,0.0372331,580,1037,-55.9059,-4.70329
-637,-13,-56.0333,4.90173,0.000521676,0.0185928,0.00300136,0.0190782,3.62331e-05,1.41044,0.0127067,0.028579,587,1037,-56.0333,-4.90179
-630,-13,-56.2069,4.94751,-0.00180591,0.0157164,0.00236834,0.0160308,-0.00212038,1.43879,0.0114596,0.018022,594,1037,-56.2069,-4.94752
-623,-13,-56.2292,5.12329,-0.00306606,0.0108629,0.00133223,0.0109891,-0.00319234,1.47629,0.00859027,0.0163178,601,1037,-56.2292,-5.12324
-616,-13,-56.2252,5.30823,-0.00324503,0.00674981,0.000240094,0.00675557,-0.00325079,1.54679,0.00589412,0.0145289,608,1037,-56.2252,-5.3082
-609,-13,-56.2239,5.50024,-0.00309192,0.00455158,-0.000771413,0.00462866,-0.003169,-1.47121,0.0045282,0.0187366,615,1037,-56.2239,-5.50026
-602,-13,-56.18,5.61682,-0.00278139,0.00244114,-0.00143367,0.00280882,-0.00314907,-1.31975,0.00344165,0.0137595,622,1037,-56.18,-5.61683
-595,-13,-56.1983,5.70789,0,0,0,0,0,0,0,-1,629,1037,-56.1983,-5.70794
-588,-13,-55.4597,0.598755,0,0,0,0,0,0,0,-1,636,1037,-55.4597,-0.598781
-581,-13,-55.533,0.40918,-0.00130192,-0.000584996,-0.001677,0.00077143,-0.00265834,-0.890689,0.00207767,0.0272614,643,1037,-55.533,-0.409233
-574,-13,-55.5867,0.501709,-0.00095157,-0.00075402,-0.00142687,0.000577493,-0.00228308,-0.819955,0.00174667,0.0357429,650,1037,-55.5867,-0.501675
-567,-13,-55.6651,0.499512,-0.000891615,-0.000423131,-0.000965983,0.000336605,-0.00165135,-0.904348,0.00122857,0.0420348,657,1037,-55.6651,-0.499473
-560,-13,-55.5132,0.433594,-0.000945925,0.000270205,-0.000301976,0.00034106,-0.00101678,-1.34033,0.000815665,0.0441733,664,1037,-55.5133,-0.433638
-553,-13,-55.4422,0.474243,-0.00119397,0.00101082,0.000563517,0.0011465,-0.00132965,1.33452,0.00143091,0.0426679,671,1037,-55.4422,-0.474288
-546,-13,-55.5128,0.453247,-0.0015859,0.00126571,0.00160998,0.00199048,-0.00231067,1.1478,0.00248556,0.0404549,678,1037,-55.5128,-0.453195
-539,-13,-55.6111,0.478271,-0.0024963,0.000728751,0.0026922,0.0022544,-0.00402196,1.05523,0.00367124,0.0420727,685,1037,-55.6111,-0.478224
-532,-13,-55.6047,0.607422,-0.00342882,0.000135144,0.00369973,0.00245968,-0.00575335,1.00983,0.00486724,0.0411566,692,1037,-55.6047,-0.607376
-525,-13,0,0,0,0,0,0,0,0,0,-1,699,1037,0,0
-518,-13,0,0,0,0,0,0,0,0,0,-1,706,1037,0,0
-511,-13,0,0,0,0,0,0,0,0,0,-1,713,1037,0,0
-504,-13,0,0,0,0,0,0,0,0,0,-1,720,1037,0,0
-497,-13,0,0,0,0,0,0,0,0,0,-1,727,1037,0,0
-490,-13,0,0,0,0,0,0,0,0,0,-1,734,1037,0,0
-483,-13,0,0,0,0,0,0,0,0,0,-1,741,1037,0,0
-476,-13,0,0,0,0,0,0,0,0,0,-1,748,1037,0,0
-469,-13,0,0,0,0,0,0,0,0,0,-1,755,1037,0,0
-462,-13,0,0,0,0,0,0,0,0,0,-1,762,1037,0,0
-455,-13,0,0,0,0,0,0,0,0,0,-1,769,1037,0,0
-448,-13,0,0,0,0,0,0,0,0,0,-1,776,1037,0,0
-441,-13,0,0,0,0,0,0,0,0,0,-1,783,1037,0,0
-434,-13,0,0,0,0,0,0,0,0,0,-1,790,1037,0,0
-427,-13,0,0,0,0,0,0,0,0,0,-1,797,1037,0,0
-420,-13,0,0,0,0,0,0,0,0,0,-1,804,1037,0,0
-413,-13,0,0,0,0,0,0,0,0,0,-1,811,1037,0,0
-406,-13,0,0,0,0,0,0,0,0,0,-1,818,1037,0,0
-399,-13,0,0,0,0,0,0,0,0,0,-1,825,1037,0,0
-392,-13,0,0,0,0,0,0,0,0,0,-1,832,1037,0,0
-385,-13,0,0,0,0,0,0,0,0,0,-1,839,1037,0,0
-378,-13,0,0,0,0,0,0,0,0,0,-1,846,1037,0,0
-371,-13,0,0,0,0,0,0,0,0,0,-1,853,1037,0,0
-364,-13,0,0,0,0,0,0,0,0,0,-1,860,1037,0,0
-357,-13,0,0,0,0,0,0,0,0,0,-1,867,1037,0,0
-350,-13,0,0,0,0,0,0,0,0,0,-1,874,1037,0,0
-343,-13,0,0,0,0,0,0,0,0,0,-1,881,1037,0,0
-336,-13,0,0,0,0,0,0,0,0,0,-1,888,1037,0,0
-329,-13,0,0,0,0,0,0,0,0,0,-1,895,1037,0,0
-322,-13,0,0,0,0,0,0,0,0,0,-1,902,1037,0,0
-315,-13,0,0,0,0,0,0,0,0,0,-1,909,1037,0,0
-308,-13,0,0,0,0,0,0,0,0,0,-1,916,1037,0,0
-301,-13,0,0,0,0,0,0,0,0,0,-1,923,1037,0,0
-294,-13,0,0,0,0,0,0,0,0,0,-1,930,1037,0,0
-287,-13,0,0,0,0,0,0,0,0,0,-1,937,1037,0,0
-280,-13,0,0,0,0,0,0,0,0,0,-1,944,1037,0,0
-273,-13,0,0,0,0,0,0,0,0,0,-1,951,1037,0,0
-266,-13,0,0,0,0,0,0,0,0,0,-1,958,1037,0,0
-259,-13,0,0,0,0,0,0,0,0,0,-1,965,1037,0,0
-252,-13,0,0,0,0,0,0,0,0,0,-1,972,1037,0,0
-245,-13,0,0,0,0,0,0,0,0,0,-1,979,1037,0,0
-238,-13,0,0,0,0,0,0,0,0,0,-1,986,1037,0,0
-231,-13,0,0,0,0,0,0,0,0,0,-1,993,1037,0,0
-224,-13,0,0,0,0,0,0,0,0,0,-1,1000,1037,0,0
-217,-13,0,0,0,0,0,0,0,0,0,-1,1007,1037,0,0
-210,-13,0,0,0,0,0,0,0,0,0,-1,1014,1037,0,0
-203,-13,0,0,0,0,0,0,0,0,0,-1,1021,1037,0,0
-196,-13,0,0,0,0,0,0,0,0,0,-1,1028,1037,0,0
-189,-13,0,0,0,0,0,0,0,0,0,-1,1035,1037,0,0
-182,-13,0,0,0,0,0,0,0,0,0,-1,1042,1037,0,0
-175,-13,0,0,0,0,0,0,0,0,0,-1,1049,1037,0,0
-168,-13,0,0,0,0,0,0,0,0,0,-1,1056,1037,0,0
-161,-13,0,0,0,0,0,0,0,0,0,-1,1063,1037,0,0
-154,-13,0,0,0,0,0,0,0,0,0,-1,1070,1037,0,0
-147,-13,0,0,0,0,0,0,0,0,0,-1,1077,1037,0,0
-140,-13,0,0,0,0,0,0,0,0,0,-1,1084,1037,0,0
-133,-13,0,0,0,0,0,0,0,0,0,-1,1091,1037,0,0
-126,-13,0,0,0,0,0,0,0,0,0,-1,1098,1037,0,0
-119,-13,0,0,0,0,0,0,0,0,0,-1,1105,1037,0,0
-112,-13,0,0,0,0,0,0,0,0,0,-1,1112,1037,0,0
-105,-13,0,0,0,0,0,0,0,0,0,-1,1119,1037,0,0
-98,-13,0,0,0,0,0,0,0,0,0,-1,1126,1037,0,0
-91,-13,0,0,0,0,0,0,0,0,0,-1,1133,1037,0,0
-84,-13,0,0,0,0,0,0,0,0,0,-1,1140,1037,0,0
-77,-13,0,0,0,0,0,0,0,0,0,-1,1147,1037,0,0
-70,-13,0,0,0,0,0,0,0,0,0,-1,1154,1037,0,0
-63,-13,0,0,0,0,0,0,0,0,0,-1,1161,1037,0,0
-56,-13,0,0,0,0,0,0,0,0,0,-1,1168,1037,0,0
-49,-13,0,0,0,0,0,0,0,0,0,-1,1175,1037,0,0
-42,-13,0,0,0,0,0,0,0,0,0,-1,1182,1037,0,0
-35,-13,0,0,0,0,0,0,0,0,0,-1,1189,1037,0,0
-28,-13,0,0,0,0,0,0,0,0,0,-1,1196,1037,0,0
-21,-13,0,0,0,0,0,0,0,0,0,-1,1203,1037,0,0
-14,-13,0,0,0,0,0,0,0,0,0,-1,1210,1037,0,0
-7,-13,0,0,0,0,0,0,0,0,0,-1,1217,1037,0,0
0,-13,0,0,0,0,0,0,0,0,0,-1,1224,1037,0,0
7,-13,0,0,0,0,0,0,0,0,0,-1,1231,1037,0,0
14,-13,0,0,0,0,0,0,0,0,0,-1,1238,1037,0,0
21,-13,0,0,0,0,0,0,0,0,0,-1,1245,1037,0,0
28,-13,0,0,0,0,0,0,0,0,0,-1,1252,1037,0,0
35,-13,0,0,0,0,0,0,0,0,0,-1,1259,1037,0,0
42,-13,0,0,0,0,0,0,0,0,0,-1,1266,1037,0,0
49,-13,0,0,0,0,0,0,0,0,0,-1,1273,1037,0,0
56,-13,0,0,0,0,0,0,0,0,0,-1,1280,1037,0,0
63,-13,0,0,0,0,0,0,0,0,0,-1,1287,1037,0,0
70,-13,0,0,0,0,0,0,0,0,0,-1,1294,1037,0,0
77,-13,0,0,0,0,0,0,0,0,0,-1,1301,1037,0,0
84,-13,0,0,0,0,0,0,0,0,0,-1,1308,1037,0,0
91,-13,0,0,0,0,0,0,0,0,0,-1,1315,1037,0,0
98,-13,0,0,0,0,0,0,0,0,0,-1,1322,1037,0,0
105,-13,0,0,0,0,0,0,0,0,0,-1,1329,1037,0,0
112,-13,0,0,0,0,0,0,0,0,0,-1,1336,1037,0,0
119,-13,0,0,0,0,0,0,0,0,0,-1,1343,1037,0,0
126,-13,0,0,0,0,0,0,0,0,0,-1,1350,1037,0,0
133,-13,0,0,0,0,0,0,0,0,0,-1,1357,1037,0,0
140,-13,0,0,0,0,0,0,0,0,0,-1,1364,1037,0,0
147,-13,0,0,0,0,0,0,0,0,0,-1,1371,1037,0,0
154,-13,0,0,0,0,0,0,0,0,0,-1,1378,1037,0,0
161,-13,0,0,0,0,0,0,0,0,0,-1,1385,1037,0,0
168,-13,0,0,0,0,0,0,0,0,0,-1,1392,1037,0,0
175,-13,0,0,0,0,0,0,0,0,0,-1,1399,1037,0,0
182,-13,0,0,0,0,0,0,0,0,0,-1,1406,1037,0,0
189,-13,0,0,0,0,0,0,0,0,0,-1,1413,1037,0,0
196,-13,0,0,0,0,0,0,0,0,0,-1,1420,1037,0,0
203,-13,0,0,0,0,0,0,0,0,0,-1,1427,1037,0,0
210,-13,0,0,0,0,0,0,0,0,0,-1,1434,1037,0,0
217,-13,0,0,0,0,0,0,0,0,0,-1,1441,1037,0,0
224,-13,0,0,0,0,0,0,0,0,0,-1,1448,1037,0,0
231,-13,0,0,0,0,0,0,0,0,0,-1,1455,1037,0,0
238,-13,0,0,0,0,0,0,0,0,0,-1,1462,1037,0,0
245,-13,0,0,0,0,0,0,0,0,0,-1,1469,1037,0,0
252,-13,0,0,0,0,0,0,0,0,0,-1,1476,1037,0,0
259,-13,0,0,0,0,0,0,0,0,0,-1,1483,1037,0,0
266,-13,0,0,0,0,0,0,0,0,0,-1,1490,1037,0,0
273,-13,0,0,0,0,0,0,0,0,0,-1,1497,1037,0,0
280,-13,0,0,0,0,0,0,0,0,0,-1,1504,1037,0,0
287,-13,0,0,0,0,0,0,0,0,0,-1,1511,1037,0,0
294,-13,0,0,0,0,0,0,0,0,0,-1,1518,1037,0,0
301,-13,0,0,0,0,0,0,0,0,0,-1,1525,1037,0,0
308,-13,0,0,0,0,0,0,0,0,0,-1,1532,1037,0,0
315,-13,0,0,0,0,0,0,0,0,0,-1,1539,1037,0,0
322,-13,0,0,0,0,0,0,0,0,0,-1,1546,1037,0,0
329,-13,0,0,0,0,0,0,0,0,0,-1,1553,1037,0,0
336,-13,0,0,0,0,0,0,0,0,0,-1,1560,1037,0,0
343,-13,0,0,0,0,0,0,0,0,0,-1,1567,1037,0,0
350,-13,0,0,0,0,0,0,0,0,0,-1,1574,1037,0,0
357,-13,0,0,0,0,0,0,0,0,0,-1,1581,1037,0,0
364,-13,0,0,0,0,0,0,0,0,0,-1,1588,1037,0,0
371,-13,0,0,0,0,0,0,0,0,0,-1,1595,1037,0,0
378,-13,0,0,0,0,0,0,0,0,0,-1,1602,1037,0,0
385,-13,0,0,0,0,0,0,0,0,0,-1,1609,1037,0,0
392,-13,0,0,0,0,0,0,0,0,0,-1,1616,1037,0,0
399,-13,0,0,0,0,0,0,0,0,0,-1,1623,1037,0,0
406,-13,0,0,0,0,0,0,0,0,0,-1,1630,1037,0,0
413,-13,0,0,0,0,0,0,0,0,0,-1,1637,1037,0,0
420,-13,0,0,0,0,0,0,0,0,0,-1,1644,1037,0,0
427,-13,0,0,0,0,0,0,0,0,0,-1,1651,1037,0,0
434,-13,0,0,0,0,0,0,0,0,0,-1,1658,1037,0,0
441,-13,0,0,0,0,0,0,0,0,0,-1,1665,1037,0,0
448,-13,0,0,0,0,0,0,0,0,0,-1,1672,1037,0,0
455,-13,0,0,0,0,0,0,0,0,0,-1,1679,1037,0,0
462,-13,0,0,0,0,0,0,0,0,0,-1,1686,1037,0,0
469,-13,0,0,0,0,0,0,0,0,0,-1,1693,1037,0,0
476,-13,0,0,0,0,0,0,0,0,0,-1,1700,1037,0,0
483,-13,0,0,0,0,0,0,0,0,0,-1,1707,1037,0,0
490,-13,0,0,0,0,0,0,0,0,0,-1,1714,1037,0,0
497,-13,0,0,0,0,0,0,0,0,0,-1,1721,1037,0,0
504,-13,0,0,0,0,0,0,0,0,0,-1,1728,1037,0,0
511,-13,0,0,0,0,0,0,0,0,0,-1,1735,1037,0,0
518,-13,0,0,0,0,0,0,0,0,0,-1,1742,1037,0,0
525,-13,0,0,0,0,0,0,0,0,0,-1,1749,1037,0,0
532,-13,0,0,0,0,0,0,0,0,0,-1,1756,1037,0,0
539,-13,0,0,0,0,0,0,0,0,0,-1,1763,1037,0,0
546,-13,0,0,0,0,0,0,0,0,0,-1,1770,1037,0,0
553,-13,0,0,0,0,0,0,0,0,0,-1,1777,1037,0,0
560,-13,0,0,0,0,0,0,0,0,0,-1,1784,1037,0,0
567,-13,0,0,0,0,0,0,0,0,0,-1,1791,1037,0,0
574,-13,0,0,0,0,0,0,0,0,0,-1,1798,1037,0,0
581,-13,0,0,0,0,0,0,0,0,0,-1,1805,1037,0,0
588,-13,0,0,0,0,0,0,0,0,0,-1,1812,1037,0,0
595,-13,0,0,0,0,0,0,0,0,0,-1,1819,1037,0,0
602,-13,0,0,0,0,0,0,0,0,0,-1,1826,1037,0,0
609,-13,0,0,0,0,0,0,0,0,0,-1,1833,1037,0,0
616,-13,0,0,0,0,0,0,0,0,0,-1,1840,1037,0,0
623,-13,0,0,0,0,0,0,0,0,0,-1,1847,1037,0,0
630,-13,0,0,0,0,0,0,0,0,0,-1,1854,1037,0,0
637,-13,0,0,0,0,0,0,0,0,0,-1,1861,1037,0,0
644,-13,0,0,0,0,0,0,0,0,0,-1,1868,1037,0,0
651,-13,71.7197,2.52966,0.00330269,0.00200759,0.00198402,0.00474216,0.000568116,0.627657,0.00299011,0.0413332,1875,1037,71.7197,-2.52961
658,-13,71.782,2.59338,0.00132707,0.00131012,0.000825698,0.00214434,0.000492855,0.780265,0.00129688,0.0447231,1882,1037,71.7819,-2.59333
665,-13,71.8983,2.49976,9.65146e-05,0.000870041,0.000277314,0.000959186,7.36909e-06,1.25977,0.000637015,0.0434681,1889,1037,71.8983,-2.49975
672,-13,71.7195,2.29126,-0.000589563,0.000538681,0.000103152,0.000548035,-0.000598916,1.48037,0.000662409,0.0381049,1896,1037,71.7195,-2.29127
679,-13,71.6145,2.19043,-0.000913828,0.000252239,0.000173462,0.000277496,-0.000939085,1.42621,0.000736199,0.0368977,1903,1037,71.6145,-2.19048
686,-13,71.5952,2.33447,-0.00123749,-0.000257704,0.000346338,-0.000147642,-0.00134755,1.2631,0.000853419,0.0376989,1910,1037,71.5952,-2.33452
693,-13,71.6252,2.13416,-0.00137844,-0.000760636,0.000625091,-0.000372285,-0.00176679,1.01488,0.00107546,0.038387,1917,1037,71.6253,-2.13412
700,-13,71.5986,2.16772,-0.00138657,-0.00111448,0.000914339,-0.00032612,-0.00217493,0.859252,0.0013544,0.0381047,1924,1037,71.5986,-2.16772
707,-13,71.6677,2.24854,-0.00206867,-0.000898289,0.00105368,-0.000278201,-0.00268876,1.03888,0.00170734,0.0325129,1931,1037,71.6678,-2.24855
714,-13,71.6489,2.37915,-0.00302962,-0.000152722,0.00114104,0.000244885,-0.00342723,1.23549,0.00237067,0.0368758,1938,1037,71.6489,-2.37916
721,-13,71.4307,2.5188,0,0,0,0,0,0,0,-1,1945,1037,71.4307,-2.51875
728,-13,71.5608,7.19458,0,0,0,0,0,0,0,-1,1952,1037,71.5608,-7.19462
735,-13,71.5079,7.14905,-0.00665666,0.00480129,0.00140188,0.00497032,-0.00682569,1.4508,0.00683845,0.0467619,1959,1037,71.5079,-7.14902
742,-13,71.5385,7.05005,-0.00779319,0.00633226,0.00119408,0.00643249,-0.00789342,1.48705,0.00828539,0.0310424,1966,1037,71.5384,-7.05004
749,-13,71.674,6.8894,-0.00891783,0.00802595,0.000659849,0.0080516,-0.00894349,1.53193,0.00981663,0.0409317,1973,1037,71.6739,-6.88936
756,-13,71.6384,6.7594,-0.00995466,0.0111112,-0.000426356,0.0111198,-0.00996328,-1.55057,0.0121784,0.0213037,1980,1037,71.6384,-6.75946
763,-13,71.5625,6.61719,-0.0109362,0.0155258,-0.00184296,0.0156535,-0.0110639,-1.5016,0.015501,0.0293482,1987,1037,71.5625,-6.61724
770,-13,71.4548,6.49719,-0.0112062,0.0205791,-0.00396136,0.0210654,-0.0116925,-1.44866,0.0191691,0.0248412,1994,1037,71.4547,-6.49714
777,-13,71.2417,6.28894,-0.0104317,0.0267953,-0.0071602,0.0281249,-0.0117614,-1.38718,0.0236656,0.0185621,2001,1037,71.2416,-6.28896
784,-13,71.1914,6.11938,-0.00920477,0.0334319,-0.0109984,0.0361018,-0.0118747,-1.33265,0.0288525,0.0392663,2008,1037,71.1915,-6.11943
791,-13,71.7122,5.61877,-0.00758285,0.0407494,-0.0156631,0.0453814,-0.0122149,-1.28326,0.0350429,0.0485321,2015,1037,71.712,-5.61872
798,-13,71.6963,5.23682,-0.00542862,0.0491783,-0.0212391,0.0564664,-0.0127168,-1.24024,0.0425218,0.0488111,2022,1037,71.6962,-5.23685
805,-13,71.9697,4.81738,-0.00271392,0.0592117,-0.0275742,0.0697101,-0.0132123,-1.20701,0.0514462,0.0443425,2029,1037,71.9697,-4.81739
812,-13,72.5933,6.71997,0,0,0,0,0,0,0,-1,2036,1037,72.5933,-6.71991
-700,-20,-54.9841,2.46655,0.0934638,0.0481941,-0.0324764,0.110415,0.031243,-0.481056,0.0657196,0.0477604,524,1044,-54.9841,-2.46656
-693,-20,-54.4663,2.71411,0.078405,0.0531657,-0.0260916,0.0947686,0.0368021,-0.56015,0.0551676,0.0453596,531,1044,-54.4663,-2.71411
-686,-20,-55.3411,4.27502,0.064398,0.0525782,-0.0191783,0.0785563,0.0384199,-0.635938,0.0453581,0.0444606,538,1044,-55.3411,-4.27501
-679,-20,-54.9493,4.61743,0,0,0,0,0,0,0,-1,545,1044,-54.9493,-4.61746
-672,-20,-56.0623,3.05542,0,0,0,0,0,0,0,-1,552,1044,-56.0623,-3.05539
-665,-20,-56.0008,3.40747,0,0,0,0,0,0,0,-1,559,1044,-56.0008,-3.40746
-658,-20,-55.8222,3.70483,0,0,0,0,0,0,0,-1,566,1044,-55.8222,-3.70481
-651,-20,-55.8181,3.89758,0.0155402,0.0327407,0.000766385,0.0327748,0.0155061,1.52636,0.0189317,0.0446655,573,1044,-55.818,-3.89761
-644,-20,-55.7375,4.29346,0.00624809,0.0286837,0.00248876,0.0289564,0.00597533,1.46164,0.0176529,0.0296045,580,1044,-55.7375,-4.29351
-637,-20,-55.8126,4.51233,0.0013584,0.0200262,0.0048118,0.0211935,0.000191106,1.3328,0.0140657,0.0208838,587,1044,-55.8126,-4.51228
-630,-20,-55.9329,4.81116,-0.000655512,0.0161077,0.00333617,0.0167473,-0.00129507,1.38139,0.0116206,0.0168722,594,1044,-55.9329,-4.81111
-623,-20,-56.0016,5.07629,-0.00181413,0.0108446,0.00153472,0.011028,-0.00199754,1.45185,0.00810038,0.0151659,601,1044,-56.0016,-5.07633
-616,-20,-55.9995,5.29565,-0.00202967,0.00658277,9.73855e-05,0.00658387,-0.00203077,1.55949,0.00520007,0.0149604,608,1044,-55.9995,-5.29564
-609,-20,-56.0342,5.54504,-0.001972,0.00432179,-0.00109228,0.00450596,-0.00215618,-1.40375,0.00392533,0.0165395,615,1044,-56.0342,-5.54508
-602,-20,-56.0045,5.69592,-0.00181549,0.00218832,-0.00179551,0.00287556,-0.00250272,-1.20525,0.00310764,0.0143794,622,1044,-56.0044,-5.69589
-595,-20,-56.0372,5.83936,0,0,0,0,0,0,0,-1,629,1044,-56.0372,-5.83935
-588,-20,-55.5003,0.594482,0,0,0,0,0,0,0,-1,636,1044,-55.5003,-0.594451
-581,-20,-55.5334,0.378906,0,0,0,0,0,0,0,-1,643,1044,-55.5334,-0.378918
-574,-20,-55.7181,0.642944,0,0,0,0,0,0,0,-1,650,1044,-55.7181,-0.64298
-567,-20,-55.6264,0.36792,-0.000666294,-0.00051353,-0.0010856,0.000498375,-0.0016782,-0.82052,0.00131675,0.0461151,657,1044,-55.6264,-0.367875
-560,-20,-55.4597,0.231567,-0.000902939,0.00018687,-0.000359359,0.000294698,-0.00101077,-1.27929,0.000790603,0.0450364,664,1044,-55.4597,-0.231529
-553,-20,-55.4176,0.431152,-0.00131598,0.000950437,0.000564882,0.00108342,-0.00144896,1.33958,0.00146714,0.0407505,671,1044,-55.4176,-0.43111
-546,-20,-55.4837,0.359619,-0.00179697,0.00129094,0.00164306,0.00200164,-0.00250766,1.16255,0.0026089,0.0393915,678,1044,-55.4837,-0.359636
-539,-20,-55.5363,0.361572,-0.0026094,0.000878248,0.00270349,0.00235153,-0.00408268,1.07183,0.00375934,0.0422571,685,1044,-55.5363,-0.361533
-532,-20,-55.5914,0.588989,-0.00340056,0.00045739,0.00369462,0.00269629,-0.00563946,1.02599,0.00491162,0.0410269,692,1044,-55.5914,-0.588963
-525,-20,0,0,0,0,0,0,0,0,0,-1,699,1044,0,0
-518,-20,0,0,0,0,0,0,0,0,0,-1,706,1044,0,0
-511,-20,0,0,0,0,0,0,0,0,0,-1,713,1044,0,0
-504,-20,0,0,0,0,0,0,0,0,0,-1,720,1044,0,0
-497,-20,0,0,0,0,0,0,0,0,0,-1,727,1044,0,0
-490,-20,0,0,0,0,0,0,0,0,0,-1,734,1044,0,0
-483,-20,0,0,0,0,0,0,0,0,0,-1,741,1044,0,0
-476,-20,0,0,0,0,0,0,0,0,0,-1,748,1044,0,0
-469,-20,0,0,0,0,0,0,0,0,0,-1,755,1044,0,0
-462,-20,0,0,0,0,0,0,0,0,0,-1,762,1044,0,0
-455,-20,0,0,0,0,0,0,0,0,0,-1,769,1044,0,0
-448,-20,0,0,0,0,0,0,0,0,0,-1,776,1044,0,0
-441,-20,0,0,0,0,0,0,0,0,0,-1,783,1044,0,0
-434,-20,0,0,0,0,0,0,0,0,0,-1,790,1044,0,0
-427,-20,0,0,0,0,0,0,0,0,0,-1,797,1044,0,0
-420,-20,0,0,0,0,0,0,0,0,0,-1,804,1044,0,0
-413,-20,0,0,0,0,0,0,0,0,0,-1,811,1044,0,0
-406,-20,0,0,0,0,0,0,0,0,0,-1,818,1044,0,0
-399,-20,0,0,0,0,0,0,0,0,0,-1,825,1044,0,0
-392,-20,0,0,0,0,0,0,0,0,0,-1,832,1044,0,0
-385,-20,0,0,0,0,0,0,0,0,0,-1,839,1044,0,0
-378,-20,0,0,0,0,0,0,0,0,0,-1,846,1044,0,0
-371,-20,0,0,0,0,0,0,0,0,0,-1,853,1044,0,0
-364,-20,0,0,0,0,0,0,0,0,0,-1,860,1044,0,0
-357,-20,0,0,0,0,0,0,0,0,0,-1,867,1044,0,0
-350,-20,0,0,0,0,0,0,0,0,0,-1,874,1044,0,0
-343,-20,0,0,0,0,0,0,0,0,0,-1,881,1044,0,0
-336,-20,0,0,0,0,0,0,0,0,0,-1,888,1044,0,0
-329,-20,0,0,0,0,0,0,0,0,0,-1,895,1044,0,0
-322,-20,0,0,0,0,0,0,0,0,0,-1,902,1044,0,0
-315,-20,0,0,0,0,0,0,0,0,0,-1,909,1044,0,0
-308,-20,0,0,0,0,0,0,0,0,0,-1,916,1044,0,0
-301,-20,0,0,0,0,0,0,0,0,0,-1,923,1044,0,0
-294,-20,0,0,0,0,0,0,0,0,0,-1,930,1044,0,0
-287,-20,0,0,0,0,0,0,0,0,0,-1,937,1044,0,0
-280,-20,0,0,0,0,0,0,0,0,0,-1,944,1044,0,0
-273,-20,0,0,0,0,0,0,0,0,0,-1,951,1044,0,0
-266,-20,0,0,0,0,0,0,0,0,0,-1,958,1044,0,0
-259,-20,0,0,0,0,0,0,0,0,0,-1,965,1044,0,0
-252,-20,0,0,0,0,0,0,0,0,0,-1,972,1044,0,0
-245,-20,0,0,0,0,0,0,0,0,0,-1,979,1044,0,0
-238,-20,0,0,0,0,0,0,0,0,0,-1,986,1044,0,0
-231,-20,0,0,0,0,0,0,0,0,0,-1,993,1044,0,0
-224,-20,0,0,0,0,0,0,0,0,0,-1,1000,1044,0,0
-217,-20,0,0,0,0,0,0,0,0,0,-1,1007,1044,0,0
-210,-20,0,0,0,0,0,0,0,0,0,-1,1014,1044,0,0
-203,-20,0,0,0,0,0,0,0,0,0,-1,1021,1044,0,0
-196,-20,0,0,0,0,0,0,0,0,0,-1,1028,1044,0,0
-189,-20,0,0,0,0,0,0,0,0,0,-1,1035,1044,0,0
-182,-20,0,0,0,0,0,0,0,0,0,-1,1042,1044,0,0
-175,-20,0,0,0,0,0,0,0,0,0,-1,1049,1044,0,0
-168,-20,0,0,0,0,0,0,0,0,0,-1,1056,1044,0,0
-161,-20,0,0,0,0,0,0,0,0,0,-1,1063,1044,0,0
-154,-20,0,0,0,0,0,0,0,0,0,-1,1070,1044,0,0
-147,-20,0,0,0,0,0,0,0,0,0,-1,1077,1044,0,0
-140,-20,0,0,0,0,0,0,0,0,0,-1,1084,1044,0,0
-133,-20,0,0,0,0,0,0,0,0,0,-1,1091,1044,0,0
-126,-20,0,0,0,0,0,0,0,0,0,-1,1098,1044,0,0
-119,-20,0,0,0,0,0,0,0,0,0,-1,1105,1044,0,0
-112,-20,0,0,0,0,0,0,0,0,0,-1,1112,1044,0,0
-105,-20,0,0,0,0,0,0,0,0,0,-1,1119,1044,0,0
-98,-20,0,0,0,0,0,0,0,0,0,-1,1126,1044,0,0
-91,-20,0,0,0,0,0,0,0,0,0,-1,1133,1044,0,0
-84,-20,0,0,0,0,0,0,0,0,0,-1,1140,1044,0,0
-77,-20,0,0,0,0,0,0,0,0,0,-1,1147,1044,0,0
-70,-20,0,0,0,0,0,0,0,0,0,-1,1154,1044,0,0
-63,-20,0,0,0,0,0,0,0,0,0,-1,1161,1044,0,0
-56,-20,0,0,0,0,0,0,0,0,0,-1,1168,1044,0,0
-49,-20,0,0,0,0,0,0,0,0,0,-1,1175,1044,0,0
-42,-20,0,0,0,0,0,0,0,0,0,-1,1182,1044,0,0
-35,-20,0,0,0,0,0,0,0,0,0,-1,1189,1044,0,0
-28,-20,0,0,0,0,0,0,0,0,0,-1,1196,1044,0,0
-21,-20,0,0,0,0,0,0,0,0,0,-1,1203,1044,0,0
-14,-20,0,0,0,0,0,0,0,0,0,-1,1210,1044,0,0
-7,-20,0,0,0,0,0,0,0,0,0,-1,1217,1044,0,0
0,-20,0,0,0,0,0,0,0,0,0,-1,1224,1044,0,0
7,-20,0,0,0,0,0,0,0,0,0,-1,1231,1044,0,0
14,-20,0,0,0,0,0,0,0,0,0,-1,1238,1044,0,0
21,-20,0,0,0,0,0,0,0,0,0,-1,1245,1044,0,0
28,-20,0,0,0,0,0,0,0,0,0,-1,1252,1044,0,0
35,-20,0,0,0,0,0,0,0,0,0,-1,1259,1044,0,0
42,-20,0,0,0,0,0,0,0,0,0,-1,1266,1044,0,0
49,-20,0,0,0,0,0,0,0,0,0,-1,1273,1044,0,0
56,-20,0,0,0,0,0,0,0,0,0,-1,1280,1044,0,0
63,-20,0,0,0,0,0,0,0,0,0,-1,1287,1044,0,0
70,-20,0,0,0,0,0,0,0,0,0,-1,1294,1044,0,0
77,-20,0,0,0,0,0,0,0,0,0,-1,1301,1044,0,0
84,-20,0,0,0,0,0,0,0,0,0,-1,1308,1044,0,0
91,-20,0,0,0,0,0,0,0,0,0,-1,1315,1044,0,0
98,-20,0,0,0,0,0,0,0,0,0,-1,1322,1044,0,0
105,-20,0,0,0,0,0,0,0,0,0,-1,1329,1044,0,0
112,-20,0,0,0,0,0,0,0,0,0,-1,1336,1044,0,0
119,-20,0,0,0,0,0,0,0,0,0,-1,1343,1044,0,0
126,-20,0,0,0,0,0,0,0,0,0,-1,1350,1044,0,0
133,-20,0,0,0,0,0,0,0,0,0,-1,1357,1044,0,0
140,-20,0,0,0,0,0,0,0,0,0,-1,1364,1044,0,0
147,-20,0,0,0,0,0,0,0,0,0,-1,1371,1044,0,0
154,-20,0,0,0,0,0,0,0,0,0,-1,1378,1044,0,0
161,-20,0,0,0,0,0,0,0,0,0,-1,1385,1044,0,0
168,-20,0,0,0,0,0,0,0,0,0,-1,1392,1044,0,0
175,-20,0,0,0,0,0,0,0,0,0,-1,1399,1044,0,0
182,-20,0,0,0,0,0,0,0,0,0,-1,1406,1044,0,0
189,-20,0,0,0,0,0,0,0,0,0,-1,1413,1044,0,0
196,-20,0,0,0,0,0,0,0,0,0,-1,1420,1044,0,0
203,-20,0,0,0,0,0,0,0,0,0,-1,1427,1044,0,0
210,-20,0,0,0,0,0,0,0,0,0,-1,1434,1044,0,0
217,-20,0,0,0,0,0,0,0,0,0,-1,1441,1044,0,0
224,-20,0,0,0,0,0,0,0,0,0,-1,1448,1044,0,0
231,-20,0,0,0,0,0,0,0,0,0,-1,1455,1044,0,0
238,-20,0,0,0,0,0,0,0,0,0,-1,1462,1044,0,0
245,-20,0,0,0,0,0,0,0,0,0,-1,1469,1044,0,0
252,-20,0,0,0,0,0,0,0,0,0,-1,1476,1044,0,0
259,-20,0,0,0,0,0,0,0,0,0,-1,1483,1044,0,0
266,-20,0,0,0,0,0,0,0,0,0,-1,1490,1044,0,0
273,-20,0,0,0,0,0,0,0,0,0,-1,1497,1044,0,0
280,-20,0,0,0,0,0,0,0,0,0,-1,1504,1044,0,0
287,-20,0,0,0,0,0,0,0,0,0,-1,1511,1044,0,0
294,-20,0,0,0,0,0,0,0,0,0,-1,1518,1044,0,0
301,-20,0,0,0,0,0,0,0,0,0,-1,1525,1044,0,0
308,-20,0,0,0,0,0,0,0,0,0,-1,1532,1044,0,0
315,-20,0,0,0,0,0,0,0,0,0,-1,1539,1044,0,0
322,-20,0,0,0,0,0,0,0,0,0,-1,1546,1044,0,0
329,-20,0,0,0,0,0,0,0,0,0,-1,1553,1044,0,0
336,-20,0,0,0,0,0,0,0,0,0,-1,1560,1044,0,0
343,-20,0,0,0,0,0,0,0,0,0,-1,1567,1044,0,0
350,-20,0,0,0,0,0,0,0,0,0,-1,1574,1044,0,0
357,-20,0,0,0,0,0,0,0,0,0,-1,1581,1044,0,0
364,-20,0,0,0,0,0,0,0,0,0,-1,1588,1044,0,0
371,-20,0,0,0,0,0,0,0,0,0,-1,1595,1044,0,0
378,-20,0,0,0,0,0,0,0,0,0,-1,1602,1044,0,0
385,-20,0,0,0,0,0,0,0,0,0,-1,1609,1044,0,0
392,-20,0,0,0,0,0,0,0,0,0,-1,1616,1044,0,0
399,-20,0,0,0,0,0,0,0,0,0,-1,1623,1044,0,0
406,-20,0,0,0,0,0,0,0,0,0,-1,1630,1044,0,0
413,-20,0,0,0,0,0,0,0,0,0,-1,1637,1044,0,0
420,-20,0,0,0,0,0,0,0,0,0,-1,1644,1044,0,0
427,-20,0,0,0,0,0,0,0,0,0,-1,1651,1044,0,0
434,-20,0,0,0,0,0,0,0,0,0,-1,1658,1044,0,0
441,-20,0,0,0,0,0,0,0,0,0,-1,1665,1044,0,0
448,-20,0,0,0,0,0,0,0,0,0,-1,1672,1044,0,0
455,-20,0,0,0,0,0,0,0,0,0,-1,1679,1044,0,0
462,-20,0,0,0,0,0,0,0,0,0,-1,1686,1044,0,0
469,-20,0,0,0,0,0,0,0,0,0,-1,1693,1044,0,0
476,-20,0,0,0,0,0,0,0,0,0,-1,1700,1044,0,0
483,-20,0,0,0,0,0,0,0,0,0,-1,1707,1044,0,0
490,-20,0,0,0,0,0,0,0,0,0,-1,1714,1044,0,0
497,-20,0,0,0,0,0,0,0,0,0,-1,1721,1044,0,0
504,-20,0,0,0,0,0,0,0,0,0,-1,1728,1044,0,0
511,-20,0,0,0,0,0,0,0,0,0,-1,1735,1044,0,0
518,-20,0,0,0,0,0,0,0,0,0,-1,1742,1044,0,0
525,-20,0,0,0,0,0,0,0,0,0,-1,1749,1044,0,0
532,-20,0,0,0,0,0,0,0,0,0,-1,1756,1044,0,0
539,-20,0,0,0,0,0,0,0,0,0,-1,1763,1044,0,0
546,-20,0,0,0,0,0,0,0,0,0,-1,1770,1044,0,0
553,-20,0,0,0,0,0,0,0,0,0,-1,1777,1044,0,0
560,-20,0,0,0,0,0,0,0,0,0,-1,1784,1044,0,0
567,-20,0,0,0,0,0,0,0,0,0,-1,1791,1044,0,0
574,-20,0,0,0,0,0,0,0,0,0,-1,1798,1044,0,0
581,-20,0,0,0,0,0,0,0,0,0,-1,1805,1044,0,0
588,-20,0,0,0,0,0,0,0,0,0,-1,1812,1044,0,0
595,-20,0,0,0,0,0,0,0,0,0,-1,1819,1044,0,0
602,-20,0,0,0,0,0,0,0,0,0,-1,1826,1044,0,0
609,-20,0,0,0,0,0,0,0,0,0,-1,1833,1044,0,0
616,-20,0,0,0,0,0,0,0,0,0,-1,1840,1044,0,0
623,-20,0,0,0,0,0,0,0,0,0,-1,1847,1044,0,0
630,-20,0,0,0,0,0,0,0,0,0,-1,1854,1044,0,0
637,-20,0,0,0,0,0,0,0,0,0,-1,1861,1044,0,0
644,-20,0,0,0,0,0,0,0,0,0,-1,1868,1044,0,0
651,-20,71.675,2.35681,0.00221122,0.00235587,0.00284888,0.00513335,-0.000566256,0.798088,0.00362575,0.0430036,1875,1044,71.675,-2.35683
658,-20,71.7363,2.44116,0.000605061,0.00165534,0.00148298,0.00270341,-0.000443013,0.955564,0.00196665,0.0448507,1882,1044,71.7364,-2.4412
665,-20,71.8408,2.40454,-0.000363589,0.00120666,0.000775673,0.00152521,-0.000682135,1.18113,0.00130503,0.0410164,1889,1044,71.8408,-2.40457
672,-20,71.7153,2.27295,-0.000838186,0.000843237,0.000496487,0.000978894,-0.000973843,1.30407,0.00112741,0.0270901,1896,1044,71.7153,-2.27295
679,-20,71.668,2.26648,-0.00101335,0.000536463,0.000467914,0.000666777,-0.00114366,1.29918,0.00105728,0.0294143,1903,1044,71.668,-2.2665
686,-20,71.6865,2.08093,-0.00129833,-7.08577e-06,0.000585851,0.000219101,-0.00152451,1.20235,0.0010967,0.0369306,1910,1044,71.6866,-2.08098
693,-20,71.724,1.82153,-0.00146999,-0.000550109,0.000837653,-5.44303e-05,-0.00196567,1.03647,0.00129269,0.0438139,1917,1044,71.7239,-1.82149
700,-20,71.5776,2.09924,-0.00153274,-0.000943113,0.00114822,-5.24655e-05,-0.00242339,0.911062,0.00159839,0.0431233,1924,1044,71.5776,-2.09919
707,-20,71.6146,2.23718,-0.0022041,-0.000808649,0.00132069,-1.27092e-05,-0.00300004,1.02842,0.00199581,0.0336085,1931,1044,71.6147,-2.23719
714,-20,71.6332,2.44641,-0.00312802,-0.000163306,0.00144235,0.00042261,-0.00371394,1.18494,0.00262818,0.0341304,1938,1044,71.6332,-2.44645
721,-20,71.4583,2.51257,0,0,0,0,0,0,0,-1,1945,1044,71.4583,-2.51256
728,-20,71.9612,7.34387,0,0,0,0,0,0,0,-1,1952,1044,71.9611,-7.34392
735,-20,71.6207,7.21497,-0.00667769,0.00444083,0.00177207,0.00471643,-0.00695329,1.41651,0.00677865,0.0362488,1959,1044,71.6207,-7.21499
742,-20,71.3074,6.90894,-0.0077417,0.00591702,0.00158801,0.00609922,-0.00792389,1.45656,0.00811906,0.0366379,1966,1044,71.3074,-6.9089
749,-20,71.4606,6.82336,-0.00876018,0.00755857,0.00111097,0.00763386,-0.00883546,1.50313,0.009517,0.0363581,1973,1044,71.4606,-6.82336
756,-20,71.4451,6.70471,-0.00970736,0.0106074,5.63091e-05,0.0106076,-0.00970752,1.56802,0.0117328,0.0213382,1980,1044,71.4452,-6.70468
763,-20,71.3347,6.55005,-0.0106221,0.015085,-0.00137367,0.0151582,-0.0106953,-1.51756,0.0150005,0.0305816,1987,1044,71.3347,-6.55009
770,-20,71.2534,6.47119,-0.0109159,0.0202712,-0.0034771,0.0206541,-0.0112988,-1.4611,0.0187098,0.0262433,1994,1044,71.2535,-6.47116
777,-20,71.0793,6.15918,-0.0102656,0.0269155,-0.00666273,0.0280733,-0.0114235,-1.39873,0.0234692,0.018285,2001,1044,71.0793,-6.15919
784,-20,71.0547,5.97961,-0.00930053,0.0341666,-0.0104768,0.03656,-0.0116939,-1.3462,0.0290663,0.0229199,2008,1044,71.0547,-5.97957
791,-20,71.3701,5.62537,-0.00812434,0.042325,-0.0150632,0.0464803,-0.0122797,-1.30163,0.0357893,0.0389425,2015,1044,71.3701,-5.62538
798,-20,71.7383,5.37073,-0.00667452,0.051878,-0.0205633,0.0583781,-0.0131746,-1.26463,0.0439731,0.0467405,2022,1044,71.7384,-5.37076
805,-20,72.1877,6.24023,0,0,0,0,0,0,0,-1,2029,1044,72.1877,-6.24022
812,-20,71.7749,5.70972,0,0,0,0,0,0,0,-1,2036,1044,71.7749,-5.70969
-700,-27,-55.2462,2.51306,0.116267,0.0820865,-0.050105,0.152116,0.0462372,-0.621043,0.0900462,0.0489287,524,1051,-55.2462,-2.51306
-693,-27,-55.1431,3.25476,0.0927244,0.0788273,-0.0370675,0.123489,0.0480627,-0.692745,0.0718775,0.0443341,531,1051,-55.1431,-3.25482
-686,-27,-54.9534,3.43152,0.0735244,0.0721213,-0.025722,0.0985544,0.0470913,-0.771764,0.0569191,0.0436126,538,1051,-54.9534,-3.43146
-679,-27,-55.5866,2.63708,0,0,0,0,0,0,0,-1,545,1051,-55.5866,-2.63713
-672,-27,-55.5813,2.93689,0.0449998,0.0580532,-0.010504,0.063893,0.0391599,-1.06338,0.0372008,0.049546,552,1051,-55.5813,-2.93685
-665,-27,-55.6696,3.24744,0,0,0,0,0,0,0,-1,559,1051,-55.6697,-3.24743
-658,-27,-55.6533,3.47583,0,0,0,0,0,0,0,-1,566,1051,-55.6533,-3.4758
-651,-27,-55.5858,3.79871,0.0164782,0.0367952,0.00154027,0.0369113,0.0163621,1.49556,0.0213564,0.0390705,573,1051,-55.5857,-3.7987
-644,-27,-55.52,4.09058,0.00609917,0.031425,0.00364541,0.0319392,0.00558489,1.43065,0.0196969,0.0200156,580,1051,-55.52,-4.09054
-637,-27,-55.5597,4.33875,0.00113607,0.0205375,0.0064393,0.0224802,-0.000806603,1.27779,0.0152627,0.0168441,587,1051,-55.5597,-4.33875
-630,-27,-55.6783,4.76611,-0.000142346,0.0160448,0.00436174,0.0171453,-0.00124283,1.32365,0.0118662,0.0209969,594,1051,-55.6783,-4.76617
-623,-27,-55.7434,5.07556,-0.000910155,0.0106521,0.00184436,0.0109392,-0.00119723,1.41639,0.00772289,0.0171339,601,1051,-55.7434,-5.07552
-616,-27,-55.723,5.33545,-0.00103551,0.00631491,1.61691e-06,0.00631491,-0.00103551,1.57058,0.00459418,0.0149015,608,1051,-55.723,-5.33544
-609,-27,-55.6824,5.57971,-0.000991606,0.00396577,-0.00139354,0.00433064,-0.00135648,-1.31471,0.00342987,0.0148514,615,1051,-55.6825,-5.57968
-602,-27,-55.635,5.81592,-0.000924571,0.00182064,-0.00213636,0.00298734,-0.00209128,-1.07094,0.00294732,0.0136915,622,1051,-55.635,-5.81592
-595,-27,-55.6754,6.03076,-0.000920193,0.000386796,-0.00248668,0.00230442,-0.00283781,-0.913892,0.00297419,0.0237588,629,1051,-55.6754,-6.03073
-588,-27,-55.904,6.20349,0,0,0,0,0,0,0,-1,636,1051,-55.904,-6.20354
-581,-27,-55.4375,0.440063,-0.000215396,-0.000956847,-0.00218845,0.00163351,-0.00280575,-0.701494,0.00259262,0.0272562,643,1051,-55.4375,-0.440062
-574,-27,-55.4821,0.498779,-9.49961e-05,-0.00104872,-0.00183256,0.00132173,-0.00246544,-0.658113,0.00221951,0.0378919,650,1051,-55.4821,-0.498786
-567,-27,-55.4636,0.25,-0.000302535,-0.000700686,-0.00128816,0.000801846,-0.00180507,-0.708734,0.0015418,0.0469878,657,1051,-55.4636,-0.250042
-560,-27,-55.3378,0.00817871,-0.0007018,-9.62102e-07,-0.000536272,0.000289229,-0.000991991,-1.07479,0.000775918,0.0484029,664,1051,-55.3377,-0.00821237
-553,-27,-55.3345,0.122437,-0.00127365,0.000771448,0.000414609,0.000852306,-0.00135451,1.37819,0.00128505,0.042507,671,1051,-55.3345,-0.12244
-546,-27,-55.4334,0.463745,-0.00186914,0.00117042,0.00148808,0.00177764,-0.00247636,1.18337,0.00246707,0.0418147,678,1051,-55.4334,-0.463765
-539,-27,-55.421,0.640625,-0.00269185,0.000815029,0.00249852,0.00211399,-0.00399081,1.09136,0.0035797,0.0444124,685,1051,-55.421,-0.640569
-532,-27,-55.4606,0.780762,-0.00346313,0.000490601,0.00342109,0.00246492,-0.00543745,1.04738,0.00466878,0.044634,692,1051,-55.4606,-0.780761
-525,-27,0,0,0,0,0,0,0,0,0,-1,699,1051,0,0
-518,-27,0,0,0,0,0,0,0,0,0,-1,706,1051,0,0
-511,-27,0,0,0,0,0,0,0,0,0,-1,713,1051,0,0
-504,-27,0,0,0,0,0,0,0,0,0,-1,720,1051,0,0
-497,-27,0,0,0,0,0,0,0,0,0,-1,727,1051,0,0
-490,-27,0,0,0,0,0,0,0,0,0,-1,734,1051,0,0
-483,-27,0,0,0,0,0,0,0,0,0,-1,741,1051,0,0
-476,-27,0,0,0,0,0,0,0,0,0,-1,748,1051,0,0
-469,-27,0,0,0,0,0,0,0,0,0,-1,755,1051,0,0
-462,-27,0,0,0,0,0,0,0,0,0,-1,762,1051,0,0
-455,-27,0,0,0,0,0,0,0,0,0,-1,769,1051,0,0
-448,-27,0,0,0,0,0,0,0,0,0,-1,776,1051,0,0
-441,-27,0,0,0,0,0,0,0,0,0,-1,783,1051,0,0
-434,-27,0,0,0,0,0,0,0,0,0,-1,790,1051,0,0
-427,-27,0,0,0,0,0,0,0,0,0,-1,797,1051,0,0
-420,-27,0,0,0,0,0,0,0,0,0,-1,804,1051,0,0
-413,-27,0,0,0,0,0,0,0,0,0,-1,811,1051,0,0
-406,-27,0,0,0,0,0,0,0,0,0,-1,818,1051,0,0
-399,-27,0,0,0,0,0,0,0,0,0,-1,825,1051,0,0
-392,-27,0,0,0,0,0,0,0,0,0,-1,832,1051,0,0
-385,-27,0,0,0,0,0,0,0,0,0,-1,839,1051,0,0
-378,-27,0,0,0,0,0,0,0,0,0,-1,846,1051,0,0
-371,-27,0,0,0,0,0,0,0,0,0,-1,853,1051,0,0
-364,-27,0,0,0,0,0,0,0,0,0,-1,860,1051,0,0
-357,-27,0,0,0,0,0,0,0,0,0,-1,867,1051,0,0
-350,-27,0,0,0,0,0,0,0,0,0,-1,874,1051,0,0
-343,-27,0,0,0,0,0,0,0,0,0,-1,881,1051,0,0
-336,-27,0,0,0,0,0,0,0,0,0,-1,888,1051,0,0
-329,-27,0,0,0,0,0,0,0,0,0,-1,895,1051,0,0
-322,-27,0,0,0,0,0,0,0,0,0,-1,902,1051,0,0
-315,-27,0,0,0,0,0,0,0,0,0,-1,909,1051,0,0
-308,-27,0,0,0,0,0,0,0,0,0,-1,916,1051,0,0
-301,-27,0,0,0,0,0,0,0,0,0,-1,923,1051,0,0
-294,-27,0,0,0,0,0,0,0,0,0,-1,930,1051,0,0
-287,-27,0,0,0,0,0,0,0,0,0,-1,937,1051,0,0
-280,-27,0,0,0,0,0,0,0,0,0,-1,944,1051,0,0
-273,-27,0,0,0,0,0,0,0,0,0,-1,951,1051,0,0
-266,-27,0,0,0,0,0,0,0,0,0,-1,958,1051,0,0
-259,-27,0,0,0,0,0,0,0,0,0,-1,965,1051,0,0
-252,-27,0,0,0,0,0,0,0,0,0,-1,972,1051,0,0
-245,-27,0,0,0,0,0,0,0,0,0,-1,979,1051,0,0
-238,-27,0,0,0,0,0,0,0,0,0,-1,986,1051,0,0
-231,-27,0,0,0,0,0,0,0,0,0,-1,993,1051,0,0
-224,-27,0,0,0,0,0,0,0,0,0,-1,1000,1051,0,0
-217,-27,0,0,0,0,0,0,0,0,0,-1,1007,1051,0,0
-210,-27,0,0,0,0,0,0,0,0,0,-1,1014,1051,0,0
-203,-27,0,0,0,0,0,0,0,0,0,-1,1021,1051,0,0
-196,-27,0,0,0,0,0,0,0,0,0,-1,1028,1051,0,0
-189,-27,0,0,0,0,0,0,0,0,0,-1,1035,1051,0,0
-182,-27,0,0,0,0,0,0,0,0,0,-1,1042,1051,0,0
-175,-27,0,0,0,0,0,0,0,0,0,-1,1049,1051,0,0
-168,-27,0,0,0,0,0,0,0,0,0,-1,1056,1051,0,0
-161,-27,0,0,0,0,0,0,0,0,0,-1,1063,1051,0,0
-154,-27,0,0,0,0,0,0,0,0,0,-1,1070,1051,0,0
-147,-27,0,0,0,0,0,0,0,0,0,-1,1077,1051,0,0
-140,-27,0,0,0,0,0,0,0,0,0,-1,1084,1051,0,0
-133,-27,0,0,0,0,0,0,0,0,0,-1,1091,1051,0,0
-126,-27,0,0,0,0,0,0,0,0,0,-1,1098,1051,0,0
-119,-27,0,0,0,0,0,0,0,0,0,-1,1105,1051,0,0
-112,-27,0,0,0,0,0,0,0,0,0,-1,1112,1051,0,0
-105,-27,0,0,0,0,0,0,0,0,0,-1,1119,1051,0,0
-98,-27,0,0,0,0,0,0,0,0,0,-1,1126,1051,0,0
-91,-27,0,0,0,0,0,0,0,0,0,-1,1133,1051,0,0
-84,-27,0,0,0,0,0,0,0,0,0,-1,1140,1051,0,0
-77,-27,0,0,0,0,0,0,0,0,0,-1,1147,1051,0,0
-70,-27,0,0,0,0,0,0,0,0,0,-1,1154,1051,0,0
-63,-27,0,0,0,0,0,0,0,0,0,-1,1161,1051,0,0
-56,-27,0,0,0,0,0,0,0,0,0,-1,1168,1051,0,0
-49,-27,0,0,0,0,0,0,0,0,0,-1,1175,1051,0,0
-42,-27,0,0,0,0,0,0,0,0,0,-1,1182,1051,0,0
-35,-27,0,0,0,0,0,0,0,0,0,-1,1189,1051,0,0
-28,-27,0,0,0,0,0,0,0,0,0,-1,1196,1051,0,0
-21,-27,0,0,0,0,0,0,0,0,0,-1,1203,1051,0,0
-14,-27,0,0,0,0,0,0,0,0,0,-1,1210,1051,0,0
-7,-27,0,0,0,0,0,0,0,0,0,-1,1217,1051,0,0
0,-27,0,0,0,0,0,0,0,0,0,-1,1224,1051,0,0
7,-27,0,0,0,0,0,0,0,0,0,-1,1231,1051,0,0
14,-27,0,0,0,0,0,0,0,0,0,-1,1238,1051,0,0
21,-27,0,0,0,0,0,0,0,0,0,-1,1245,1051,0,0
28,-27,0,0,0,0,0,0,0,0,0,-1,1252,1051,0,0
35,-27,0,0,0,0,0,0,0,0,0,-1,1259,1051,0,0
42,-27,0,0,0,0,0,0,0,0,0,-1,1266,1051,0,0
49,-27,0,0,0,0,0,0,0,0,0,-1,1273,1051,0,0
56,-27,0,0,0,0,0,0,0,0,0,-1,1280,1051,0,0
63,-27,0,0,0,0,0,0,0,0,0,-1,1287,1051,0,0
70,-27,0,0,0,0,0,0,0,0,0,-1,1294,1051,0,0
77,-27,0,0,0,0,0,0,0,0,0,-1,1301,1051,0,0
84,-27,0,0,0,0,0,0,0,0,0,-1,1308,1051,0,0
91,-27,0,0,0,0,0,0,0,0,0,-1,1315,1051,0,0
98,-27,0,0,0,0,0,0,0,0,0,-1,1322,1051,0,0
105,-27,0,0,0,0,0,0,0,0,0,-1,1329,1051,0,0
112,-27,0,0,0,0,0,0,0,0,0,-1,1336,1051,0,0
119,-27,0,0,0,0,0,0,0,0,0,-1,1343,1051,0,0
126,-27,0,0,0,0,0,0,0,0,0,-1,1350,1051,0,0
133,-27,0,0,0,0,0,0,0,0,0,-1,1357,1051,0,0
140,-27,0,0,0,0,0,0,0,0,0,-1,1364,1051,0,0
147,-27,0,0,0,0,0,0,0,0,0,-1,1371,1051,0,0
154,-27,0,0,0,0,0,0,0,0,0,-1,1378,1051,0,0
161,-27,0,0,0,0,0,0,0,0,0,-1,1385,1051,0,0
168,-27,0,0,0,0,0,0,0,0,0,-1,1392,1051,0,0
175,-27,0,0,0,0,0,0,0,0,0,-1,1399,1051,0,0
182,-27,0,0,0,0,0,0,0,0,0,-1,1406,1051,0,0
189,-27,0,0,0,0,0,0,0,0,0,-1,1413,1051,0,0
196,-27,0,0,0,0,0,0,0,0,0,-1,1420,1051,0,0
203,-27,0,0,0,0,0,0,0,0,0,-1,1427,1051,0,0
210,-27,0,0,0,0,0,0,0,0,0,-1,1434,1051,0,0
217,-27,0,0,0,0,0,0,0,0,0,-1,1441,1051,0,0
224,-27,0,0,0,0,0,0,0,0,0,-1,1448,1051,0,0
231,-27,0,0,0,0,0,0,0,0,0,-1,1455,1051,0,0
238,-27,0,0,0,0,0,0,0,0,0,-1,1462,1051,0,0
245,-27,0,0,0,0,0,0,0,0,0,-1,1469,1051,0,0
252,-27,0,0,0,0,0,0,0,0,0,-1,1476,1051,0,0
259,-27,0,0,0,0,0,0,0,0,0,-1,1483,1051,0,0
266,-27,0,0,0,0,0,0,0,0,0,-1,1490,1051,0,0
273,-27,0,0,0,0,0,0,0,0,0,-1,1497,1051,0,0
280,-27,0,0,0,0,0,0,0,0,0,-1,1504,1051,0,0
287,-27,0,0,0,0,0,0,0,0,0,-1,1511,1051,0,0
294,-27,0,0,0,0,0,0,0,0,0,-1,1518,1051,0,0
301,-27,0,0,0,0,0,0,0,0,0,-1,1525,1051,0,0
308,-27,0,0,0,0,0,0,0,0,0,-1,1532,1051,0,0
315,-27,0,0,0,0,0,0,0,0,0,-1,1539,1051,0,0
322,-27,0,0,0,0,0,0,0,0,0,-1,1546,1051,0,0
329,-27,0,0,0,0,0,0,0,0,0,-1,1553,1051,0,0
336,-27,0,0,0,0,0,0,0,0,0,-1,1560,1051,0,0
343,-27,0,0,0,0,0,0,0,0,0,-1,1567,1051,0,0
350,-27,0,0,0,0,0,0,0,0,0,-1,1574,1051,0,0
357,-27,0,0,0,0,0,0,0,0,0,-1,1581,1051,0,0
364,-27,0,0,0,0,0,0,0,0,0,-1,1588,1051,0,0
371,-27,0,0,0,0,0,0,0,0,0,-1,1595,1051,0,0
378,-27,0,0,0,0,0,0,0,0,0,-1,1602,1051,0,0
385,-27,0,0,0,0,0,0,0,0,0,-1,1609,1051,0,0
392,-27,0,0,0,0,0,0,0,0,0,-1,1616,1051,0,0
399,-27,0,0,0,0,0,0,0,0,0,-1,1623,1051,0,0
406,-27,0,0,0,0,0,0,0,0,0,-1,1630,1051,0,0
413,-27,0,0,0,0,0,0,0,0,0,-1,1637,1051,0,0
420,-27,0,0,0,0,0,0,0,0,0,-1,1644,1051,0,0
427,-27,0,0,0,0,0,0,0,0,0,-1,1651,1051,0,0
434,-27,0,0,0,0,0,0,0,0,0,-1,1658,1051,0,0
441,-27,0,0,0,0,0,0,0,0,0,-1,1665,1051,0,0
448,-27,0,0,0,0,0,0,0,0,0,-1,1672,1051,0,0
455,-27,0,0,0,0,0,0,0,0,0,-1,1679,1051,0,0
462,-27,0,0,0,0,0,0,0,0,0,-1,1686,1051,0,0
469,-27,0,0,0,0,0,0,0,0,0,-1,1693,1051,0,0
476,-27,0,0,0,0,0,0,0,0,0,-1,1700,1051,0,0
483,-27,0,0,0,0,0,0,0,0,0,-1,1707,1051,0,0
490,-27,0,0,0,0,0,0,0,0,0,-1,1714,1051,0,0
497,-27,0,0,0,0,0,0,0,0,0,-1,1721,1051,0,0
504,-27,0,0,0,0,0,0,0,0,0,-1,1728,1051,0,0
511,-27,0,0,0,0,0,0,0,0,0,-1,1735,1051,0,0
518,-27,0,0,0,0,0,0,0,0,0,-1,1742,1051,0,0
525,-27,0,0,0,0,0,0,0,0,0,-1,1749,1051,0,0
532,-27,0,0,0,0,0,0,0,0,0,-1,1756,1051,0,0
539,-27,0,0,0,0,0,0,0,0,0,-1,1763,1051,0,0
546,-27,0,0,0,0,0,0,0,0,0,-1,1770,1051,0,0
553,-27,0,0,0,0,0,0,0,0,0,-1,1777,1051,0,0
560,-27,0,0,0,0,0,0,0,0,0,-1,1784,1051,0,0
567,-27,0,0,0,0,0,0,0,0,0,-1,1791,1051,0,0
574,-27,0,0,0,0,0,0,0,0,0,-1,1798,1051,0,0
581,-27,0,0,0,0,0,0,0,0,0,-1,1805,1051,0,0
588,-27,0,0,0,0,0,0,0,0,0,-1,1812,1051,0,0
595,-27,0,0,0,0,0,0,0,0,0,-1,1819,1051,0,0
602,-27,0,0,0,0,0,0,0,0,0,-1,1826,1051,0,0
609,-27,0,0,0,0,0,0,0,0,0,-1,1833,1051,0,0
616,-27,0,0,0,0,0,0,0,0,0,-1,1840,1051,0,0
623,-27,0,0,0,0,0,0,0,0,0,-1,1847,1051,0,0
630,-27,0,0,0,0,0,0,0,0,0,-1,1854,1051,0,0
637,-27,0,0,0,0,0,0,0,0,0,-1,1861,1051,0,0
644,-27,0,0,0,0,0,0,0,0,0,-1,1868,1051,0,0
651,-27,71.7407,2.16345,0.000969657,0.00267629,0.00355564,0.00547958,-0.00183363,0.903166,0.00439371,0.0429981,1875,1051,71.7408,-2.16342
658,-27,71.7024,2.29407,-0.00010775,0.00189787,0.00203111,0.00316025,-0.00137012,1.01471,0.00268281,0.0423558,1882,1051,71.7024,-2.29402
665,-27,71.7421,2.22644,-0.000728224,0.00140012,0.00119195,0.00193383,-0.00126193,1.14981,0.00185862,0.0380575,1889,1051,71.7421,-2.22639
672,-27,71.6263,2.27026,-0.00095742,0.000988234,0.000830203,0.00129432,-0.00126351,1.21757,0.0014768,0.0291432,1896,1051,71.6264,-2.27023
679,-27,71.5726,2.33301,-0.000967361,0.000652326,0.000728801,0.000931976,-0.00124701,1.20441,0.00126241,0.0296995,1903,1051,71.5726,-2.33299
686,-27,71.6152,2.23389,-0.00120429,8.76982e-05,0.000818233,0.000484208,-0.0016008,1.11955,0.00126001,0.0423392,1910,1051,71.6152,-2.23389
693,-27,71.6527,2.09912,-0.00142288,-0.00047265,0.00106726,0.000220474,-0.002116,0.994814,0.00148961,0.0458449,1917,1051,71.6527,-2.09908
700,-27,71.6136,2.1217,-0.00155312,-0.000879411,0.00140829,0.000231747,-0.00266428,0.90279,0.00185826,0.041276,1924,1051,71.6136,-2.12176
707,-27,71.5543,2.22986,-0.00221574,-0.000812423,0.00161482,0.000246593,-0.00327476,0.990348,0.00226984,0.0272306,1931,1051,71.5543,-2.22981
714,-27,71.6348,2.39063,-0.00312079,-0.000245026,0.00177635,0.000602464,-0.00396828,1.12564,0.00286752,0.0275219,1938,1051,71.6348,-2.39067
721,-27,71.5795,2.60706,0,0,0,0,0,0,0,-1,1945,1051,71.5795,-2.60705
728,-27,71.905,7.43213,0,0,0,0,0,0,0,-1,1952,1051,71.905,-7.43211
735,-27,71.3853,7.33679,-0.00654355,0.00398969,0.00219594,0.00442916,-0.00698302,1.37328,0.00664359,0.0323102,1959,1051,71.3853,-7.33678
742,-27,71.1616,7.1499,-0.0075679,0.00543391,0.0020284,0.00574301,-0.00787701,1.41957,0.00789563,0.0230492,1966,1051,71.1617,-7.14985
749,-27,71.2288,6.8623,-0.00849763,0.00704907,0.00162044,0.00721618,-0.00866473,1.46804,0.00918155,0.0175476,1973,1051,71.2287,-6.86227
756,-27,71.188,6.64978,-0.00937941,0.0100565,0.000608999,0.0100755,-0.00939848,1.5395,0.0112456,0.0171986,1980,1051,71.1881,-6.64974
763,-27,71.0852,6.41077,-0.010255,0.0145989,-0.000860496,0.0146286,-0.0102847,-1.53623,0.0144564,0.0176925,1987,1051,71.0851,-6.41081
770,-27,71.0115,6.17017,-0.0106117,0.0199444,-0.00301052,0.0202382,-0.0109055,-1.47352,0.018248,0.0184883,1994,1051,71.0115,-6.17019
777,-27,70.8921,6.07092,-0.0101752,0.0269628,-0.00623729,0.0279823,-0.0111947,-1.40877,0.0233008,0.0223252,2001,1051,70.8921,-6.07089
784,-27,70.7996,5.98853,-0.00954415,0.0347481,-0.0100979,0.0369416,-0.0117377,-1.35689,0.0293338,0.0316885,2008,1051,70.7997,-5.98848
791,-27,70.9666,5.55811,-0.0088439,0.0436273,-0.0147177,0.0474736,-0.0126902,-1.31518,0.0366195,0.0449648,2015,1051,70.9665,-5.55807
798,-27,71.7222,6.06665,0,0,0,0,0,0,0,-1,2022,1051,71.7222,-6.06667
805,-27,71.334,5.39026,-0.00707213,0.0668204,-0.0266563,0.0754328,-0.0156845,-1.25829,0.0562503,0.0458161,2029,1051,71.3341,-5.39024
812,-27,70.9341,4.74829,-0.00691187,0.0830496,-0.0341409,0.0945389,-0.0184012,-1.24617,0.0699709,0.0446415,2036,1051,70.9341,-4.74829
-700,-34,-55.384,2.56152,0.139328,0.106694,-0.0690657,0.193978,0.0520444,-0.669399,0.115932,0.0474078,524,1058,-55.384,-2.56149
-693,-34,-54.7392,2.69092,0.107596,0.0960281,-0.0491408,0.151292,0.0523322,-0.726815,0.0887206,0.0450938,531,1058,-54.7392,-2.69095
-686,-34,-54.6696,2.47095,0.0836489,0.084742,-0.0335498,0.11775,0.0506412,-0.793542,0.0682041,0.0453307,538,1058,-54.6696,-2.47094
-679,-34,-54.9908,1.91638,0,0,0,0,0,0,0,-1,545,1058,-54.9907,-1.91634
-672,-34,-55.2389,1.71875,0,0,0,0,0,0,0,-1,552,1058,-55.2389,-1.71874
-665,-34,-55.4165,3.02905,0,0,0,0,0,0,0,-1,559,1058,-55.4165,-3.02909
-658,-34,-55.4844,3.24683,0,0,0,0,0,0,0,-1,566,1058,-55.4844,-3.24678
-651,-34,-55.2507,3.58398,0.018191,0.0385095,0.0015015,0.0386199,0.0180806,1.49743,0.0223122,0.0323759,573,1058,-55.2507,-3.58394
-644,-34,-55.3002,3.94788,0.00670753,0.0322952,0.00416773,0.032957,0.0060458,1.41334,0.020259,0.0160352,580,1058,-55.3002,-3.9479
-637,-34,-55.3039,4.24451,0.0014929,0.0199574,0.00746613,0.0225985,-0.00114825,1.23078,0.0154627,0.0187329,587,1058,-55.3039,-4.24447
-630,-34,-55.3545,4.66992,0.000638097,0.0152787,0.00496297,0.0168025,-0.000885689,1.2729,0.0115083,0.0209092,594,1058,-55.3545,-4.66997
-623,-34,-55.3593,5.01489,3.85253e-05,0.0101589,0.00209812,0.0105766,-0.000379207,1.37427,0.00718083,0.0150005,601,1058,-55.3593,-5.0149
-616,-34,-55.3336,5.3678,-8.25242e-05,0.00591754,-3.31592e-05,0.00591772,-8.27073e-05,-1.56527,0.003973,0.0209311,608,1058,-55.3336,-5.3678
-609,-34,-55.2971,5.65881,-9.32324e-05,0.00357005,-0.00159498,0.00416717,-0.000690351,-1.21258,0.00303452,0.0201908,615,1058,-55.2971,-5.6588
-602,-34,-55.2773,5.87878,-9.58566e-05,0.00140032,-0.00238252,0.00314944,-0.00184498,-0.937519,0.00291613,0.0161818,622,1058,-55.2773,-5.87881
-595,-34,-55.4196,6.14099,-0.0001732,-8.02551e-07,-0.00274348,0.00265783,-0.00283184,-0.801103,0.00316999,0.0203149,629,1058,-55.4196,-6.14094
-588,-34,-55.7713,6.38818,0,0,0,0,0,0,0,-1,636,1058,-55.7713,-6.38823
-581,-34,-55.4059,0.495361,0.000383557,-0.0012144,-0.00237693,0.0020922,-0.00292304,-0.623262,0.00290877,0.0284252,643,1058,-55.4059,-0.495405
-574,-34,-55.4021,0.493896,0.000422334,-0.0012638,-0.00199556,0.00174561,-0.00258707,-0.585535,0.00251715,0.0374686,650,1058,-55.4021,-0.493881
-567,-34,-55.4945,0.355713,0.00013872,-0.000896313,-0.00143478,0.00114647,-0.00190406,-0.612314,0.00177923,0.0424292,657,1058,-55.4945,-0.355766
-560,-34,-55.4053,0.036499,0,0,0,0,0,0,0,-1,664,1058,-55.4053,-0.0365127
-553,-34,-55.4669,0.330566,-0.00102288,0.000600155,0.000304487,0.000655398,-0.00107813,1.39132,0.00101072,0.045473,671,1058,-55.4669,-0.330626
-546,-34,-55.5768,0.717285,-0.00161993,0.00107136,0.00139213,0.00166189,-0.00221046,1.16961,0.00224317,0.0437421,678,1058,-55.5768,-0.71728
-539,-34,-55.4664,0.695923,-0.00228859,0.000772305,0.00242337,0.00210804,-0.00362432,1.06704,0.00334795,0.0433179,685,1058,-55.4664,-0.695897
-532,-34,-55.3712,0.381714,-0.00285357,0.000530675,0.00335216,0.00259358,-0.00491648,1.01913,0.00440453,0.0436147,692,1058,-55.3712,-0.381714
-525,-34,0,0,0,0,0,0,0,0,0,-1,699,1058,0,0
-518,-34,0,0,0,0,0,0,0,0,0,-1,706,1058,0,0
-511,-34,0,0,0,0,0,0,0,0,0,-1,713,1058,0,0
-504,-34,0,0,0,0,0,0,0,0,0,-1,720,1058,0,0
-497,-34,0,0,0,0,0,0,0,0,0,-1,727,1058,0,0
-490,-34,0,0,0,0,0,0,0,0,0,-1,734,1058,0,0
-483,-34,0,0,0,0,0,0,0,0,0,-1,741,1058,0,0
-476,-34,0,0,0,0,0,0,0,0,0,-1,748,1058,0,0
-469,-34,0,0,0,0,0,0,0,0,0,-1,755,1058,0,0
-462,-34,0,0,0,0,0,0,0,0,0,-1,762,1058,0,0
-455,-34,0,0,0,0,0,0,0,0,0,-1,769,1058,0,0
-448,-34,0,0,0,0,0,0,0,0,0,-1,776,1058,0,0
-441,-34,0,0,0,0,0,0,0,0,0,-1,783,1058,0,0
-434,-34,0,0,0,0,0,0,0,0,0,-1,790,1058,0,0
-427,-34,0,0,0,0,0,0,0,0,0,-1,797,1058,0,0
-420,-34,0,0,0,0,0,0,0,0,0,-1,804,1058,0,0
-413,-34,0,0,0,0,0,0,0,0,0,-1,811,1058,0,0
-406,-34,0,0,0,0,0,0,0,0,0,-1,818,1058,0,0
-399,-34,0,0,0,0,0,0,0,0,0,-1,825,1058,0,0
-392,-34,0,0,0,0,0,0,0,0,0,-1,832,1058,0,0
-385,-34,0,0,0,0,0,0,0,0,0,-1,839,1058,0,0
-378,-34,0,0,0,0,0,0,0,0,0,-1,846,1058,0,0
-371,-34,0,0,0,0,0,0,0,0,0,-1,853,1058,0,0
-364,-34,0,0,0,0,0,0,0,0,0,-1,860,1058,0,0
-357,-34,0,0,0,0,0,0,0,0,0,-1,867,1058,0,0
-350,-34,0,0,0,0,0,0,0,0,0,-1,874,1058,0,0
-343,-34,0,0,0,0,0,0,0,0,0,-1,881,1058,0,0
-336,-34,0,0,0,0,0,0,0,0,0,-1,888,1058,0,0
-329,-34,0,0,0,0,0,0,0,0,0,-1,895,1058,0,0
-322,-34,0,0,0,0,0,0,0,0,0,-1,902,1058,0,0
-315,-34,0,0,0,0,0,0,0,0,0,-1,909,1058,0,0
-308,-34,0,0,0,0,0,0,0,0,0,-1,916,1058,0,0
-301,-34,0,0,0,0,0,0,0,0,0,-1,923,1058,0,0
-294,-34,0,0,0,0,0,0,0,0,0,-1,930,1058,0,0
-287,-34,0,0,0,0,0,0,0,0,0,-1,937,1058,0,0
-280,-34,0,0,0,0,0,0,0,0,0,-1,944,1058,0,0
-273,-34,0,0,0,0,0,0,0,0,0,-1,951,1058,0,0
-266,-34,0,0,0,0,0,0,0,0,0,-1,958,1058,0,0
-259,-34,0,0,0,0,0,0,0,0,0,-1,965,1058,0,0
-252,-34,0,0,0,0,0,0,0,0,0,-1,972,1058,0,0
-245,-34,0,0,0,0,0,0,0,0,0,-1,979,1058,0,0
-238,-34,0,0,0,0,0,0,0,0,0,-1,986,1058,0,0
-231,-34,0,0,0,0,0,0,0,0,0,-1,993,1058,0,0
-224,-34,0,0,0,0,0,0,0,0,0,-1,1000,1058,0,0
-217,-34,0,0,0,0,0,0,0,0,0,-1,1007,1058,0,0
-210,-34,0,0,0,0,0,0,0,0,0,-1,1014,1058,0,0
-203,-34,0,0,0,0,0,0,0,0,0,-1,1021,1058,0,0
-196,-34,0,0,0,0,0,0,0,0,0,-1,1028,1058,0,0
-189,-34,0,0,0,0,0,0,0,0,0,-1,1035,1058,0,0
-182,-34,0,0,0,0,0,0,0,0,0,-1,1042,1058,0,0
-175,-34,0,0,0,0,0,0,0,0,0,-1,1049,1058,0,0
-168,-34,0,0,0,0,0,0,0,0,0,-1,1056,1058,0,0
-161,-34,0,0,0,0,0,0,0,0,0,-1,1063,1058,0,0
-154,-34,0,0,0,0,0,0,0,0,0,-1,1070,1058,0,0
-147,-34,0,0,0,0,0,0,0,0,0,-1,1077,1058,0,0
-140,-34,0,0,0,0,0,0,0,0,0,-1,1084,1058,0,0
-133,-34,0,0,0,0,0,0,0,0,0,-1,1091,1058,0,0
-126,-34,0,0,0,0,0,0,0,0,0,-1,1098,1058,0,0
-119,-34,0,0,0,0,0,0,0,0,0,-1,1105,1058,0,0
-112,-34,0,0,0,0,0,0,0,0,0,-1,1112,1058,0,0
-105,-34,0,0,0,0,0,0,0,0,0,-1,1119,1058,0,0
-98,-34,0,0,0,0,0,0,0,0,0,-1,1126,1058,0,0
-91,-34,0,0,0,0,0,0,0,0,0,-1,1133,1058,0,0
-84,-34,0,0,0,0,0,0,0,0,0,-1,1140,1058,0,0
-77,-34,0,0,0,0,0,0,0,0,0,-1,1147,1058,0,0
-70,-34,0,0,0,0,0,0,0,0,0,-1,1154,1058,0,0
-63,-34,0,0,0,0,0,0,0,0,0,-1,1161,1058,0,0
-56,-34,0,0,0,0,0,0,0,0,0,-1,1168,1058,0,0
-49,-34,0,0,0,0,0,0,0,0,0,-1,1175,1058,0,0
-42,-34,0,0,0,0,0,0,0,0,0,-1,1182,1058,0,0
-35,-34,0,0,0,0,0,0,0,0,0,-1,1189,1058,0,0
-28,-34,0,0,0,0,0,0,0,0,0,-1,1196,1058,0,0
-21,-34,0,0,0,0,0,0,0,0,0,-1,1203,1058,0,0
-14,-34,0,0,0,0,0,0,0,0,0,-1,1210,1058,0,0
-7,-34,0,0,0,0,0,0,0,0,0,-1,1217,1058,0,0
0,-34,0,0,0,0,0,0,0,0,0,-1,1224,1058,0,0
7,-34,0,0,0,0,0,0,0,0,0,-1,1231,1058,0,0
14,-34,0,0,0,0,0,0,0,0,0,-1,1238,1058,0,0
21,-34,0,0,0,0,0,0,0,0,0,-1,1245,1058,0,0
28,-34,0,0,0,0,0,0,0,0,0,-1,1252,1058,0,0
35,-34,0,0,0,0,0,0,0,0,0,-1,1259,1058,0,0
42,-34,0,0,0,0,0,0,0,0,0,-1,1266,1058,0,0
49,-34,0,0,0,0,0,0,0,0,0,-1,1273,1058,0,0
56,-34,0,0,0,0,0,0,0,0,0,-1,1280,1058,0,0
63,-34,0,0,0,0,0,0,0,0,0,-1,1287,1058,0,0
70,-34,0,0,0,0,0,0,0,0,0,-1,1294,1058,0,0
77,-34,0,0,0,0,0,0,0,0,0,-1,1301,1058,0,0
84,-34,0,0,0,0,0,0,0,0,0,-1,1308,1058,0,0
91,-34,0,0,0,0,0,0,0,0,0,-1,1315,1058,0,0
98,-34,0,0,0,0,0,0,0,0,0,-1,1322,1058,0,0
105,-34,0,0,0,0,0,0,0,0,0,-1,1329,1058,0,0
112,-34,0,0,0,0,0,0,0,0,0,-1,1336,1058,0,0
119,-34,0,0,0,0,0,0,0,0,0,-1,1343,1058,0,0
126,-34,0,0,0,0,0,0,0,0,0,-1,1350,1058,0,0
133,-34,0,0,0,0,0,0,0,0,0,-1,1357,1058,0,0
140,-34,0,0,0,0,0,0,0,0,0,-1,1364,1058,0,0
147,-34,0,0,0,0,0,0,0,0,0,-1,1371,1058,0,0
154,-34,0,0,0,0,0,0,0,0,0,-1,1378,1058,0,0
161,-34,0,0,0,0,0,0,0,0,0,-1,1385,1058,0,0
168,-34,0,0,0,0,0,0,0,0,0,-1,1392,1058,0,0
175,-34,0,0,0,0,0,0,0,0,0,-1,1399,1058,0,0
182,-34,0,0,0,0,0,0,0,0,0,-1,1406,1058,0,0
189,-34,0,0,0,0,0,0,0,0,0,-1,1413,1058,0,0
196,-34,0,0,0,0,0,0,0,0,0,-1,1420,1058,0,0
203,-34,0,0,0,0,0,0,0,0,0,-1,1427,1058,0,0
210,-34,0,0,0,0,0,0,0,0,0,-1,1434,1058,0,0
217,-34,0,0,0,0,0,0,0,0,0,-1,1441,1058,0,0
224,-34,0,0,0,0,0,0,0,0,0,-1,1448,1058,0,0
231,-34,0,0,0,0,0,0,0,0,0,-1,1455,1058,0,0
238,-34,0,0,0,0,0,0,0,0,0,-1,1462,1058,0,0
245,-34,0,0,0,0,0,0,0,0,0,-1,1469,1058,0,0
252,-34,0,0,0,0,0,0,0,0,0,-1,1476,1058,0,0
259,-34,0,0,0,0,0,0,0,0,0,-1,1483,1058,0,0
266,-34,0,0,0,0,0,0,0,0,0,-1,1490,1058,0,0
273,-34,0,0,0,0,0,0,0,0,0,-1,1497,1058,0,0
280,-34,0,0,0,0,0,0,0,0,0,-1,1504,1058,0,0
287,-34,0,0,0,0,0,0,0,0,0,-1,1511,1058,0,0
294,-34,0,0,0,0,0,0,0,0,0,-1,1518,1058,0,0
301,-34,0,0,0,0,0,0,0,0,0,-1,1525,1058,0,0
308,-34,0,0,0,0,0,0,0,0,0,-1,1532,1058,0,0
315,-34,0,0,0,0,0,0,0,0,0,-1,1539,1058,0,0
322,-34,0,0,0,0,0,0,0,0,0,-1,1546,1058,0,0
329,-34,0,0,0,0,0,0,0,0,0,-1,1553,1058,0,0
336,-34,0,0,0,0,0,0,0,0,0,-1,1560,1058,0,0
343,-34,0,0,0,0,0,0,0,0,0,-1,1567,1058,0,0
350,-34,0,0,0,0,0,0,0,0,0,-1,1574,1058,0,0
357,-34,0,0,0,0,0,0,0,0,0,-1,1581,1058,0,0
364,-34,0,0,0,0,0,0,0,0,0,-1,1588,1058,0,0
371,-34,0,0,0,0,0,0,0,0,0,-1,1595,1058,0,0
378,-34,0,0,0,0,0,0,0,0,0,-1,1602,1058,0,0
385,-34,0,0,0,0,0,0,0,0,0,-1,1609,1058,0,0
392,-34,0,0,0,0,0,0,0,0,0,-1,1616,1058,0,0
399,-34,0,0,0,0,0,0,0,0,0,-1,1623,1058,0,0
406,-34,0,0,0,0,0,0,0,0,0,-1,1630,1058,0,0
413,-34,0,0,0,0,0,0,0,0,0,-1,1637,1058,0,0
420,-34,0,0,0,0,0,0,0,0,0,-1,1644,1058,0,0
427,-34,0,0,0,0,0,0,0,0,0,-1,1651,1058,0,0
434,-34,0,0,0,0,0,0,0,0,0,-1,1658,1058,0,0
441,-34,0,0,0,0,0,0,0,0,0,-1,1665,1058,0,0
448,-34,0,0,0,0,0,0,0,0,0,-1,1672,1058,0,0
455,-34,0,0,0,0,0,0,0,0,0,-1,1679,1058,0,0
462,-34,0,0,0,0,0,0,0,0,0,-1,1686,1058,0,0
469,-34,0,0,0,0,0,0,0,0,0,-1,1693,1058,0,0
476,-34,0,0,0,0,0,0,0,0,0,-1,1700,1058,0,0
483,-34,0,0,0,0,0,0,0,0,0,-1,1707,1058,0,0
490,-34,0,0,0,0,0,0,0,0,0,-1,1714,1058,0,0
497,-34,0,0,0,0,0,0,0,0,0,-1,1721,1058,0,0
504,-34,0,0,0,0,0,0,0,0,0,-1,1728,1058,0,0
511,-34,0,0,0,0,0,0,0,0,0,-1,1735,1058,0,0
518,-34,0,0,0,0,0,0,0,0,0,-1,1742,1058,0,0
525,-34,0,0,0,0,0,0,0,0,0,-1,1749,1058,0,0
532,-34,0,0,0,0,0,0,0,0,0,-1,1756,1058,0,0
539,-34,0,0,0,0,0,0,0,0,0,-1,1763,1058,0,0
546,-34,0,0,0,0,0,0,0,0,0,-1,1770,1058,0,0
553,-34,0,0,0,0,0,0,0,0,0,-1,1777,1058,0,0
560,-34,0,0,0,0,0,0,0,0,0,-1,1784,1058,0,0
567,-34,0,0,0,0,0,0,0,0,0,-1,1791,1058,0,0
574,-34,0,0,0,0,0,0,0,0,0,-1,1798,1058,0,0
581,-34,0,0,0,0,0,0,0,0,0,-1,1805,1058,0,0
588,-34,0,0,0,0,0,0,0,0,0,-1,1812,1058,0,0
595,-34,0,0,0,0,0,0,0,0,0,-1,1819,1058,0,0
602,-34,0,0,0,0,0,0,0,0,0,-1,1826,1058,0,0
609,-34,0,0,0,0,0,0,0,0,0,-1,1833,1058,0,0
616,-34,0,0,0,0,0,0,0,0,0,-1,1840,1058,0,0
623,-34,0,0,0,0,0,0,0,0,0,-1,1847,1058,0,0
630,-34,0,0,0,0,0,0,0,0,0,-1,1854,1058,0,0
637,-34,0,0,0,0,0,0,0,0,0,-1,1861,1058,0,0
644,-34,0,0,0,0,0,0,0,0,0,-1,1868,1058,0,0
651,-34,71.7758,2.11951,0.000409931,0.00236605,0.00295952,0.00450494,-0.00172896,0.944988,0.00371619,0.041342,1875,1058,71.7757,-2.1195
658,-34,71.6808,2.16418,-0.000314028,0.00153795,0.00173006,0.00257425,-0.00135033,1.03112,0.00230229,0.042292,1882,1058,71.6808,-2.16418
665,-34,71.724,2.25256,-0.000711988,0.00103463,0.00104479,0.00152303,-0.00120039,1.13351,0.00157604,0.0388827,1889,1058,71.7239,-2.25251
672,-34,71.6281,2.23865,-0.000794102,0.000636073,0.000779646,0.000978906,-0.00113694,1.15652,0.00122272,0.0361829,1896,1058,71.628,-2.23862
679,-34,71.6305,2.09778,-0.000713876,0.000321077,0.000733934,0.000701621,-0.00109442,1.09246,0.00104518,0.038646,1903,1058,71.6305,-2.09778
686,-34,71.5363,2.3717,-0.000936629,-0.000217628,0.000880009,0.00037348,-0.00152774,0.979312,0.00116315,0.0452134,1910,1058,71.5362,-2.37168
693,-34,71.6382,2.31372,-0.00119167,-0.00074808,0.00118239,0.00023314,-0.00217289,0.878111,0.00153223,0.0453024,1917,1058,71.6382,-2.31372
700,-34,71.634,2.22839,-0.00137787,-0.00111444,0.00158876,0.000348056,-0.00284036,0.826756,0.00201962,0.0394358,1924,1058,71.6341,-2.22838
707,-34,71.5259,2.26208,-0.00201097,-0.00106804,0.00184098,0.000360893,-0.0034399,0.910752,0.00242254,0.0278431,1931,1058,71.5259,-2.26214
714,-34,71.5687,2.41125,-0.00287342,-0.000551906,0.00203865,0.000633281,-0.0040586,1.0442,0.00293965,0.0265572,1938,1058,71.5688,-2.4113
721,-34,71.5679,2.57861,0,0,0,0,0,0,0,-1,1945,1058,71.5679,-2.5786
728,-34,71.2074,7.64429,0,0,0,0,0,0,0,-1,1952,1058,71.2074,-7.64426
735,-34,70.995,7.42493,-0.00614094,0.00332607,0.00261189,0.00399886,-0.00681373,1.31869,0.00631277,0.0234793,1959,1058,70.9951,-7.42487
742,-34,70.9032,7.13098,-0.00713539,0.00476778,0.00247626,0.00526237,-0.00762998,1.37366,0.00748513,0.0203527,1966,1058,70.9032,-7.13103
749,-34,70.9181,6.88745,-0.00801279,0.00641065,0.00216514,0.00672865,-0.00833079,1.42496,0.00871096,0.0168636,1973,1058,70.9181,-6.88749
756,-34,70.9055,6.6012,-0.00886601,0.00938585,0.00121476,0.00946634,-0.00894651,1.50463,0.0106321,0.012395,1980,1058,70.9056,-6.60123
763,-34,70.8096,6.30945,-0.00974362,0.0140094,-0.000309564,0.0140134,-0.00974766,-1.55777,0.0137919,0.0139422,1987,1058,70.8095,-6.30943
770,-34,70.665,6.04602,-0.0102197,0.0195215,-0.0025327,0.0197356,-0.0104339,-1.48645,0.0176922,0.0198354,1994,1058,70.6651,-6.04598
777,-34,70.4641,5.9043,-0.0100835,0.0267935,-0.00583348,0.0276943,-0.0109842,-1.41759,0.0230153,0.0237952,2001,1058,70.464,-5.90433
784,-34,70.2195,5.72864,-0.00982625,0.0349438,-0.00980126,0.0369955,-0.011878,-1.36444,0.029433,0.0436322,2008,1058,70.2195,-5.72864
791,-34,69.9958,5.53711,0,0,0,0,0,0,0,-1,2015,1058,69.9959,-5.53712
798,-34,70.2642,4.26318,0,0,0,0,0,0,0,-1,2022,1058,70.2642,-4.26322
805,-34,70.457,4.44922,-0.00886047,0.0690426,-0.0271316,0.0775604,-0.0173783,-1.26659,0.0583686,0.0492813,2029,1058,70.457,-4.44922
812,-34,70.031,3.63684,-0.00924314,0.0862093,-0.0351422,0.0977516,-0.0207855,-1.25345,0.0730882,0.0485599,2036,1058,70.0309,-3.63678
-700,-41,-55.5301,2.55298,0,0,0,0,0,0,0,-1,524,1065,-55.5301,-2.55303
-693,-41,-54.6198,2.11414,0.116742,0.102713,-0.0579332,0.168083,0.0513709,-0.725154,0.0994573,0.0414483,531,1065,-54.6198,-2.11416
-686,-41,-54.57,1.50098,0.0895892,0.0886561,-0.039605,0.12873,0.0495149,-0.779508,0.074979,0.0426987,538,1065,-54.57,-1.50093
-679,-41,-54.9672,0.569458,0,0,0,0,0,0,0,-1,545,1065,-54.9672,-0.569414
-672,-41,-55.2093,0.407349,0,0,0,0,0,0,0,-1,552,1065,-55.2093,-0.407319
-665,-41,-55.1896,0.764648,0.0387372,0.0550568,-0.00825502,0.0585042,0.0352898,-1.1752,0.0340164,0.041899,559,1065,-55.1896,-0.76466
-658,-41,-54.7506,1.97559,0.0276195,0.0456819,-0.00253349,0.0460305,0.0272708,-1.43405,0.0267267,0.0409384,566,1065,-54.7506,-1.97555
-651,-41,-54.6779,3.36316,0.0186706,0.0370211,0.00121637,0.0371014,0.0185903,1.5049,0.0214205,0.0329312,573,1065,-54.6779,-3.3632
-644,-41,-54.9045,3.85742,0.00667237,0.0305655,0.00435321,0.0313339,0.00590396,1.39608,0.0192259,0.0172978,580,1065,-54.9045,-3.8574
-637,-41,-54.9621,4.18506,0.00148331,0.017863,0.00796566,0.021098,-0.0017516,1.18504,0.014684,0.0201107,587,1065,-54.9621,-4.18505
-630,-41,-54.9603,4.56409,0.00103887,0.0135484,0.00526408,0.0154688,-0.000881486,1.221,0.0106185,0.0181291,594,1065,-54.9603,-4.56411
-623,-41,-54.9618,4.94617,0.000633258,0.00912658,0.00233917,0.0097282,3.16333e-05,1.31906,0.00647495,0.0131557,601,1065,-54.9618,-4.9462
-616,-41,-54.975,5.35547,0.000515869,0.00527957,0.00011476,0.00528233,0.000513106,1.54672,0.00336359,0.0158682,608,1065,-54.9751,-5.35548
-609,-41,-54.9506,5.69958,0.000478463,0.00301933,-0.00149574,0.00371136,-0.000213563,-1.13746,0.00254841,0.0207754,615,1065,-54.9506,-5.69964
-602,-41,-54.9758,5.95557,0.000466651,0.00086016,-0.0022957,0.00296752,-0.00164071,-0.828147,0.00269707,0.0138889,622,1065,-54.9758,-5.95555
-595,-41,-55.1155,6.20398,0.000362738,-0.000491065,-0.00267336,0.00264307,-0.00277139,-0.706223,0.00312633,0.0252633,629,1065,-55.1155,-6.20395
-588,-41,-55.5254,6.33374,0,0,0,0,0,0,0,-1,636,1065,-55.5254,-6.33373
-581,-41,-55.423,0.479126,0.000838799,-0.00159893,-0.00228175,0.00220682,-0.00296696,-0.54009,0.00299781,0.0388025,643,1065,-55.423,-0.479124
-574,-41,-55.3864,0.568237,0.000805428,-0.00162176,-0.00188275,0.00183182,-0.00264816,-0.499118,0.00260079,0.0386794,650,1065,-55.3864,-0.568221
-567,-41,-55.4091,0.536255,0.00046498,-0.0012404,-0.00131928,0.00118314,-0.00195857,-0.498503,0.00183219,0.0412466,657,1065,-55.409,-0.536204
-560,-41,-55.4064,0.398438,-0.000124741,-0.000509652,-0.000560202,0.000275142,-0.000909536,-0.619941,0.000715918,0.0420987,664,1065,-55.4064,-0.398465
-553,-41,-55.4109,0.542969,-0.000841664,0.000363748,0.000392587,0.000480333,-0.000958248,1.28213,0.000845705,0.044027,671,1065,-55.411,-0.542969
-546,-41,-55.4872,0.722168,-0.00145401,0.00101369,0.00145027,0.00168396,-0.00212428,1.13787,0.00220358,0.0417133,678,1065,-55.4873,-0.722127
-539,-41,-55.4903,0.587769,-0.00200797,0.000919316,0.00247625,0.00233214,-0.0034208,1.05231,0.00334123,0.0406251,685,1065,-55.4903,-0.587788
-532,-41,-55.3806,0.369873,-0.00241266,0.000912286,0.00338724,0.00302304,-0.00452341,1.01353,0.00438556,0.0392809,692,1065,-55.3806,-0.369866
-525,-41,0,0,0,0,0,0,0,0,0,-1,699,1065,0,0
-518,-41,0,0,0,0,0,0,0,0,0,-1,706,1065,0,0
-511,-41,0,0,0,0,0,0,0,0,0,-1,713,1065,0,0
-504,-41,0,0,0,0,0,0,0,0,0,-1,720,1065,0,0
-497,-41,0,0,0,0,0,0,0,0,0,-1,727,1065,0,0
-490,-41,0,0,0,0,0,0,0,0,0,-1,734,1065,0,0
-483,-41,0,0,0,0,0,0,0,0,0,-1,741,1065,0,0
-476,-41,0,0,0,0,0,0,0,0,0,-1,748,1065,0,0
-469,-41,0,0,0,0,0,0,0,0,0,-1,755,1065,0,0
-462,-41,0,0,0,0,0,0,0,0,0,-1,762,1065,0,0
-455,-41,0,0,0,0,0,0,0,0,0,-1,769,1065,0,0
-448,-41,0,0,0,0,0,0,0,0,0,-1,776,1065,0,0
-441,-41,0,0,0,0,0,0,0,0,0,-1,783,1065,0,0
-434,-41,0,0,0,0,0,0,0,0,0,-1,790,1065,0,0
-427,-41,0,0,0,0,0,0,0,0,0,-1,797,1065,0,0
-420,-41,0,0,0,0,0,0,0,0,0,-1,804,1065,0,0
-413,-41,0,0,0,0,0,0,0,0,0,-1,811,1065,0,0
-406,-41,0,0,0,0,0,0,0,0,0,-1,818,1065,0,0
-399,-41,0,0,0,0,0,0,0,0,0,-1,825,1065,0,0
-392,-41,0,0,0,0,0,0,0,0,0,-1,832,1065,0,0
-385,-41,0,0,0,0,0,0,0,0,0,-1,839,1065,0,0
-378,-41,0,0,0,0,0,0,0,0,0,-1,846,1065,0,0
-371,-41,0,0,0,0,0,0,0,0,0,-1,853,1065,0,0
-364,-41,0,0,0,0,0,0,0,0,0,-1,860,1065,0,0
-357,-41,0,0,0,0,0,0,0,0,0,-1,867,1065,0,0
-350,-41,0,0,0,0,0,0,0,0,0,-1,874,1065,0,0
-343,-41,0,0,0,0,0,0,0,0,0,-1,881,1065,0,0
-336,-41,0,0,0,0,0,0,0,0,0,-1,888,1065,0,0
-329,-41,0,0,0,0,0,0,0,0,0,-1,895,1065,0,0
-322,-41,0,0,0,0,0,0,0,0,0,-1,902,1065,0,0
-315,-41,0,0,0,0,0,0,0,0,0,-1,909,1065,0,0
-308,-41,0,0,0,0,0,0,0,0,0,-1,916,1065,0,0
-301,-41,0,0,0,0,0,0,0,0,0,-1,923,1065,0,0
-294,-41,0,0,0,0,0,0,0,0,0,-1,930,1065,0,0
-287,-41,0,0,0,0,0,0,0,0,0,-1,937,1065,0,0
-280,-41,0,0,0,0,0,0,0,0,0,-1,944,1065,0,0
-273,-41,0,0,0,0,0,0,0,0,0,-1,951,1065,0,0
-266,-41,0,0,0,0,0,0,0,0,0,-1,958,1065,0,0
-259,-41,0,0,0,0,0,0,0,0,0,-1,965,1065,0,0
-252,-41,0,0,0,0,0,0,0,0,0,-1,972,1065,0,0
-245,-41,0,0,0,0,0,0,0,0,0,-1,979,1065,0,0
-238,-41,0,0,0,0,0,0,0,0,0,-1,986,1065,0,0
-231,-41,0,0,0,0,0,0,0,0,0,-1,993,1065,0,0
-224,-41,0,0,0,0,0,0,0,0,0,-1,1000,1065,0,0
-217,-41,0,0,0,0,0,0,0,0,0,-1,1007,1065,0,0
-210,-41,0,0,0,0,0,0,0,0,0,-1,1014,1065,0,0
-203,-41,0,0,0,0,0,0,0,0,0,-1,1021,1065,0,0
-196,-41,0,0,0,0,0,0,0,0,0,-1,1028,1065,0,0
-189,-41,0,0,0,0,0,0,0,0,0,-1,1035,1065,0,0
-182,-41,0,0,0,0,0,0,0,0,0,-1,1042,1065,0,0
-175,-41,0,0,0,0,0,0,0,0,0,-1,1049,1065,0,0
-168,-41,0,0,0,0,0,0,0,0,0,-1,1056,1065,0,0
-161,-41,0,0,0,0,0,0,0,0,0,-1,1063,1065,0,0
-154,-41,0,0,0,0,0,0,0,0,0,-1,1070,1065,0,0
-147,-41,0,0,0,0,0,0,0,0,0,-1,1077,1065,0,0
-140,-41,0,0,0,0,0,0,0,0,0,-1,1084,1065,0,0
-133,-41,0,0,0,0,0,0,0,0,0,-1,1091,1065,0,0
-126,-41,0,0,0,0,0,0,0,0,0,-1,1098,1065,0,0
-119,-41,0,0,0,0,0,0,0,0,0,-1,1105,1065,0,0
-112,-41,0,0,0,0,0,0,0,0,0,-1,1112,1065,0,0
-105,-41,0,0,0,0,0,0,0,0,0,-1,1119,1065,0,0
-98,-41,0,0,0,0,0,0,0,0,0,-1,1126,1065,0,0
-91,-41,0,0,0,0,0,0,0,0,0,-1,1133,1065,0,0
-84,-41,0,0,0,0,0,0,0,0,0,-1,1140,1065,0,0
-77,-41,0,0,0,0,0,0,0,0,0,-1,1147,1065,0,0
-70,-41,0,0,0,0,0,0,0,0,0,-1,1154,1065,0,0
-63,-41,0,0,0,0,0,0,0,0,0,-1,1161,1065,0,0
-56,-41,0,0,0,0,0,0,0,0,0,-1,1168,1065,0,0
-49,-41,0,0,0,0,0,0,0,0,0,-1,1175,1065,0,0
-42,-41,0,0,0,0,0,0,0,0,0,-1,1182,1065,0,0
-35,-41,0,0,0,0,0,0,0,0,0,-1,1189,1065,0,0
-28,-41,0,0,0,0,0,0,0,0,0,-1,1196,1065,0,0
-21,-41,0,0,0,0,0,0,0,0,0,-1,1203,1065,0,0
-14,-41,0,0,0,0,0,0,0,0,0,-1,1210,1065,0,0
-7,-41,0,0,0,0,0,0,0,0,0,-1,1217,1065,0,0
0,-41,0,0,0,0,0,0,0,0,0,-1,1224,1065,0,0
7,-41,0,0,0,0,0,0,0,0,0,-1,1231,1065,0,0
14,-41,0,0,0,0,0,0,0,0,0,-1,1238,1065,0,0
21,-41,0,0,0,0,0,0,0,0,0,-1,1245,1065,0,0
28,-41,0,0,0,0,0,0,0,0,0,-1,1252,1065,0,0
35,-41,0,0,0,0,0,0,0,0,0,-1,1259,1065,0,0
42,-41,0,0,0,0,0,0,0,0,0,-1,1266,1065,0,0
49,-41,0,0,0,0,0,0,0,0,0,-1,1273,1065,0,0
56,-41,0,0,0,0,0,0,0,0,0,-1,1280,1065,0,0
63,-41,0,0,0,0,0,0,0,0,0,-1,1287,1065,0,0
70,-41,0,0,0,0,0,0,0,0,0,-1,1294,1065,0,0
77,-41,0,0,0,0,0,0,0,0,0,-1,1301,1065,0,0
84,-41,0,0,0,0,0,0,0,0,0,-1,1308,1065,0,0
91,-41,0,0,0,0,0,0,0,0,0,-1,1315,1065,0,0
98,-41,0,0,0,0,0,0,0,0,0,-1,1322,1065,0,0
105,-41,0,0,0,0,0,0,0,0,0,-1,1329,1065,0,0
112,-41,0,0,0,0,0,0,0,0,0,-1,1336,1065,0,0
119,-41,0,0,0,0,0,0,0,0,0,-1,1343,1065,0,0
126,-41,0,0,0,0,0,0,0,0,0,-1,1350,1065,0,0
133,-41,0,0,0,0,0,0,0,0,0,-1,1357,1065,0,0
140,-41,0,0,0,0,0,0,0,0,0,-1,1364,1065,0,0
147,-41,0,0,0,0,0,0,0,0,0,-1,1371,1065,0,0
154,-41,0,0,0,0,0,0,0,0,0,-1,1378,1065,0,0
161,-41,0,0,0,0,0,0,0,0,0,-1,1385,1065,0,0
168,-41,0,0,0,0,0,0,0,0,0,-1,1392,1065,0,0
175,-41,0,0,0,0,0,0,0,0,0,-1,1399,1065,0,0
182,-41,0,0,0,0,0,0,0,0,0,-1,1406,1065,0,0
189,-41,0,0,0,0,0,0,0,0,0,-1,1413,1065,0,0
196,-41,0,0,0,0,0,0,0,0,0,-1,1420,1065,0,0
203,-41,0,0,0,0,0,0,0,0,0,-1,1427,1065,0,0
210,-41,0,0,0,0,0,0,0,0,0,-1,1434,1065,0,0
217,-41,0,0,0,0,0,0,0,0,0,-1,1441,1065,0,0
224,-41,0,0,0,0,0,0,0,0,0,-1,1448,1065,0,0
231,-41,0,0,0,0,0,0,0,0,0,-1,1455,1065,0,0
238,-41,0,0,0,0,0,0,0,0,0,-1,1462,1065,0,0
245,-41,0,0,0,0,0,0,0,0,0,-1,1469,1065,0,0
252,-41,0,0,0,0,0,0,0,0,0,-1,1476,1065,0,0
259,-41,0,0,0,0,0,0,0,0,0,-1,1483,1065,0,0
266,-41,0,0,0,0,0,0,0,0,0,-1,1490,1065,0,0
273,-41,0,0,0,0,0,0,0,0,0,-1,1497,1065,0,0
280,-41,0,0,0,0,0,0,0,0,0,-1,1504,1065,0,0
287,-41,0,0,0,0,0,0,0,0,0,-1,1511,1065,0,0
294,-41,0,0,0,0,0,0,0,0,0,-1,1518,1065,0,0
301,-41,0,0,0,0,0,0,0,0,0,-1,1525,1065,0,0
308,-41,0,0,0,0,0,0,0,0,0,-1,1532,1065,0,0
315,-41,0,0,0,0,0,0,0,0,0,-1,1539,1065,0,0
322,-41,0,0,0,0,0,0,0,0,0,-1,1546,1065,0,0
329,-41,0,0,0,0,0,0,0,0,0,-1,1553,1065,0,0
336,-41,0,0,0,0,0,0,0,0,0,-1,1560,1065,0,0
343,-41,0,0,0,0,0,0,0,0,0,-1,1567,1065,0,0
350,-41,0,0,0,0,0,0,0,0,0,-1,1574,1065,0,0
357,-41,0,0,0,0,0,0,0,0,0,-1,1581,1065,0,0
364,-41,0,0,0,0,0,0,0,0,0,-1,1588,1065,0,0
371,-41,0,0,0,0,0,0,0,0,0,-1,1595,1065,0,0
378,-41,0,0,0,0,0,0,0,0,0,-1,1602,1065,0,0
385,-41,0,0,0,0,0,0,0,0,0,-1,1609,1065,0,0
392,-41,0,0,0,0,0,0,0,0,0,-1,1616,1065,0,0
399,-41,0,0,0,0,0,0,0,0,0,-1,1623,1065,0,0
406,-41,0,0,0,0,0,0,0,0,0,-1,1630,1065,0,0
413,-41,0,0,0,0,0,0,0,0,0,-1,1637,1065,0,0
420,-41,0,0,0,0,0,0,0,0,0,-1,1644,1065,0,0
427,-41,0,0,0,0,0,0,0,0,0,-1,1651,1065,0,0
434,-41,0,0,0,0,0,0,0,0,0,-1,1658,1065,0,0
441,-41,0,0,0,0,0,0,0,0,0,-1,1665,1065,0,0
448,-41,0,0,0,0,0,0,0,0,0,-1,1672,1065,0,0
455,-41,0,0,0,0,0,0,0,0,0,-1,1679,1065,0,0
462,-41,0,0,0,0,0,0,0,0,0,-1,1686,1065,0,0
469,-41,0,0,0,0,0,0,0,0,0,-1,1693,1065,0,0
476,-41,0,0,0,0,0,0,0,0,0,-1,1700,1065,0,0
483,-41,0,0,0,0,0,0,0,0,0,-1,1707,1065,0,0
490,-41,0,0,0,0,0,0,0,0,0,-1,1714,1065,0,0
497,-41,0,0,0,0,0,0,0,0,0,-1,1721,1065,0,0
504,-41,0,0,0,0,0,0,0,0,0,-1,1728,1065,0,0
511,-41,0,0,0,0,0,0,0,0,0,-1,1735,1065,0,0
518,-41,0,0,0,0,0,0,0,0,0,-1,1742,1065,0,0
525,-41,0,0,0,0,0,0,0,0,0,-1,1749,1065,0,0
532,-41,0,0,0,0,0,0,0,0,0,-1,1756,1065,0,0
539,-41,0,0,0,0,0,0,0,0,0,-1,1763,1065,0,0
546,-41,0,0,0,0,0,0,0,0,0,-1,1770,1065,0,0
553,-41,0,0,0,0,0,0,0,0,0,-1,1777,1065,0,0
560,-41,0,0,0,0,0,0,0,0,0,-1,1784,1065,0,0
567,-41,0,0,0,0,0,0,0,0,0,-1,1791,1065,0,0
574,-41,0,0,0,0,0,0,0,0,0,-1,1798,1065,0,0
581,-41,0,0,0,0,0,0,0,0,0,-1,1805,1065,0,0
588,-41,0,0,0,0,0,0,0,0,0,-1,1812,1065,0,0
595,-41,0,0,0,0,0,0,0,0,0,-1,1819,1065,0,0
602,-41,0,0,0,0,0,0,0,0,0,-1,1826,1065,0,0
609,-41,0,0,0,0,0,0,0,0,0,-1,1833,1065,0,0
616,-41,0,0,0,0,0,0,0,0,0,-1,1840,1065,0,0
623,-41,0,0,0,0,0,0,0,0,0,-1,1847,1065,0,0
630,-41,0,0,0,0,0,0,0,0,0,-1,1854,1065,0,0
637,-41,0,0,0,0,0,0,0,0,0,-1,1861,1065,0,0
644,-41,0,0,0,0,0,0,0,0,0,-1,1868,1065,0,0
651,-41,71.7167,2.14392,-0.000531992,0.00138637,0.00288202,0.00346463,-0.00261026,0.94604,0.00351889,0.0370086,1875,1065,71.7167,-2.14396
658,-41,71.6396,2.23804,-0.000697855,0.00075895,0.00176843,0.00194312,-0.00188202,0.980756,0.00220854,0.0416897,1882,1065,71.6397,-2.23808
665,-41,71.5887,2.34045,-0.000773285,0.000418863,0.0010986,0.00107268,-0.0014271,1.03396,0.00144807,0.0415246,1889,1065,71.5888,-2.34046
672,-41,71.6604,2.03882,-0.000654049,0.000145737,0.00081431,0.000653046,-0.00116136,1.01364,0.00106116,0.039936,1896,1065,71.6604,-2.03879
679,-41,71.6538,2.02075,-0.000459748,-6.39044e-05,0.000725959,0.000490629,-0.00101428,0.918481,0.00088622,0.0406398,1903,1065,71.6538,-2.02081
686,-41,71.6401,2.14807,-0.000625369,-0.000505201,0.000830842,0.000267727,-0.0013983,0.821494,0.00103307,0.0434219,1910,1065,71.6402,-2.14809
693,-41,71.5144,2.1897,-0.000864551,-0.000959234,0.00111008,0.000199199,-0.00202298,0.764088,0.00141972,0.0429905,1917,1065,71.5144,-2.18968
700,-41,71.6179,2.28455,-0.00105478,-0.00125189,0.00153063,0.000380467,-0.00268714,0.75325,0.00193078,0.0376801,1924,1065,71.618,-2.28453
707,-41,71.5636,2.23669,-0.00163362,-0.00118269,0.00180108,0.000406975,-0.00322329,0.847666,0.00229657,0.0313154,1931,1065,71.5636,-2.23667
714,-41,71.5751,2.34998,-0.00244137,-0.000713103,0.0020338,0.000632534,-0.003787,0.986285,0.00275978,0.0300182,1938,1065,71.5751,-2.35004
721,-41,71.6056,2.51404,0,0,0,0,0,0,0,-1,1945,1065,71.6056,-2.51409
728,-41,70.8021,7.71545,0,0,0,0,0,0,0,-1,1952,1065,70.8021,-7.7154
735,-41,70.6544,7.40198,-0.00558438,0.00278238,0.00278207,0.003623,-0.006425,1.27736,0.00587592,0.0238811,1959,1065,70.6545,-7.402
742,-41,70.5724,7.07727,-0.0066082,0.00421428,0.00268414,0.00484341,-0.00723734,1.34056,0.00702032,0.0206189,1966,1065,70.5724,-7.07725
749,-41,70.5566,6.8645,-0.00748715,0.00584617,0.00249989,0.00629947,-0.00794045,1.39142,0.0082396,0.0175965,1973,1065,70.5566,-6.86449
756,-41,70.5706,6.59387,-0.00835497,0.00871952,0.00165657,0.00887876,-0.00851421,1.47497,0.0100426,0.0152845,1980,1065,70.5706,-6.59385
763,-41,70.4482,6.2334,-0.00929414,0.0133224,0.000119503,0.013323,-0.00929477,1.56551,0.0131273,0.0129007,1987,1065,70.4482,-6.23343
770,-41,70.3003,5.95569,-0.00999469,0.0189265,-0.00216546,0.0190878,-0.0101559,-1.49647,0.0171444,0.013686,1994,1065,70.3004,-5.95564
777,-41,70.0828,5.65576,-0.0102551,0.0262323,-0.00552627,0.0270509,-0.0110737,-1.42373,0.0226464,0.0177682,2001,1065,70.0827,-5.65579
784,-41,69.9048,5.25012,-0.0104068,0.0344595,-0.00960987,0.0364312,-0.0123785,-1.36843,0.0292986,0.0308816,2008,1065,69.9047,-5.25013
791,-41,69.8621,4.69934,-0.0105721,0.0439692,-0.0146175,0.0476398,-0.0142427,-1.32477,0.0374221,0.0456805,2015,1065,69.862,-4.69931
798,-41,69.8772,4.16528,0,0,0,0,0,0,0,-1,2022,1065,69.8771,-4.16524
805,-41,69.6968,3.56982,-0.010445,0.0692107,-0.0280614,0.0781035,-0.0193378,-1.2639,0.0595705,0.0439261,2029,1065,69.6967,-3.56978
812,-41,69.3032,2.7478,-0.0108972,0.0866344,-0.0368608,0.0989982,-0.0232609,-1.24717,0.0749652,0.0477594,2036,1065,69.3031,-2.74776
-700,-48,-55.4512,2.64282,0.162576,0.123086,-0.0905416,0.2355,0.050161,-0.67804,0.143238,0.0475937,524,1072,-55.4512,-2.64277
-693,-48,-55.2873,1.62317,0.11994,0.103684,-0.0624061,0.174745,0.0488787,-0.720642,0.104102,0.044585,531,1072,-55.2873,-1.62319
-686,-48,-54.5401,0.411621,0,0,0,0,0,0,0,-1,538,1072,-54.5401,-0.411635
-679,-48,-55.8417,-1.80347,0,0,0,0,0,0,0,-1,545,1072,-55.8417,1.80343
-672,-48,-55.3588,-0.620972,0,0,0,0,0,0,0,-1,552,1072,-55.3588,0.620955
-665,-48,-54.7535,0.51709,0.0374622,0.0522827,-0.00879455,0.0563727,0.0333722,-1.13549,0.0327299,0.046673,559,1072,-54.7535,-0.517062
-658,-48,-54.2513,1.50647,0.0262521,0.0427336,-0.00273884,0.0431768,0.0258089,-1.41036,0.0250864,0.0469485,566,1072,-54.2513,-1.50644
-651,-48,-54.2389,2.85559,0.0174305,0.0341699,0.00119048,0.0342541,0.0173462,1.50015,0.0197772,0.0410297,573,1072,-54.2389,-2.85557
-644,-48,-54.3927,3.80212,0.0054701,0.0278199,0.00454397,0.0287084,0.00458158,1.37769,0.0178093,0.0241855,580,1072,-54.3927,-3.80215
-637,-48,-54.4335,4.06396,0.000668017,0.0153026,0.0081818,0.0189618,-0.00299124,1.15024,0.0137472,0.0260795,587,1072,-54.4335,-4.06395
-630,-48,-54.4587,4.47607,0.000807713,0.0115708,0.00531731,0.0137546,-0.00137612,1.1811,0.00966117,0.0297835,594,1072,-54.4587,-4.47607
-623,-48,-54.5977,4.87012,0.000770488,0.00794462,0.00246153,0.00870797,7.13393e-06,1.27009,0.00580294,0.0134267,601,1072,-54.5977,-4.87017
-616,-48,-54.6041,5.26746,0.000801608,0.00462123,0.00022027,0.00463389,0.000788948,1.51338,0.00286275,0.0110893,608,1072,-54.6041,-5.26743
-609,-48,-54.5438,5.67761,0.000802638,0.00247215,-0.00135908,0.00323236,4.2427e-05,-1.0608,0.00214091,0.0126161,615,1072,-54.5438,-5.67765
-602,-48,-54.5353,6.02905,0.000860709,0.000397399,-0.0021387,0.00278026,-0.00152215,-0.73145,0.00251915,0.0131759,622,1072,-54.5353,-6.02908
-595,-48,-54.5837,6.3396,0.000779771,-0.000841962,-0.00252035,0.00261648,-0.00267868,-0.629764,0.00305723,0.0349587,629,1072,-54.5838,-6.3396
-588,-48,-54.8585,6.59851,0,0,0,0,0,0,0,-1,636,1072,-54.8585,-6.59854
-581,-48,-55.4312,0.392944,0,0,0,0,0,0,0,-1,643,1072,-55.4312,-0.392902
-574,-48,-55.3148,0.58374,0.0011526,-0.0017776,-0.00171633,0.00194411,-0.00256912,-0.432102,0.00261403,0.0397093,650,1072,-55.3148,-0.583792
-567,-48,-55.2872,0.517944,0.000806737,-0.0013696,-0.00118468,0.00132716,-0.00189002,-0.413918,0.0018669,0.0409646,657,1072,-55.2872,-0.51792
-560,-48,-55.3079,0.384399,0.000189172,-0.00059291,-0.000480675,0.000417777,-0.000821515,-0.443931,0.000728052,0.0432046,664,1072,-55.3079,-0.38443
-553,-48,-55.3044,0.472534,-0.000549381,0.000366811,0.000416876,0.0005281,-0.000710669,1.20164,0.000717788,0.0433311,671,1072,-55.3045,-0.472519
-546,-48,-55.4457,0.577515,-0.00116547,0.00119782,0.0014322,0.00187292,-0.00184057,1.13032,0.00214401,0.0396834,678,1072,-55.4458,-0.577508
-539,-48,-55.5775,0.636108,-0.0016169,0.00131904,0.00244794,0.00270542,-0.00300328,1.05549,0.00329742,0.0398895,685,1072,-55.5775,-0.636077
-532,-48,-55.6101,0.670166,-0.00187644,0.00154779,0.00334598,0.00359425,-0.0039229,1.02188,0.00434141,0.0385924,692,1072,-55.6101,-0.670158
-525,-48,0,0,0,0,0,0,0,0,0,-1,699,1072,0,0
-518,-48,0,0,0,0,0,0,0,0,0,-1,706,1072,0,0
-511,-48,0,0,0,0,0,0,0,0,0,-1,713,1072,0,0
-504,-48,0,0,0,0,0,0,0,0,0,-1,720,1072,0,0
-497,-48,0,0,0,0,0,0,0,0,0,-1,727,1072,0,0
-490,-48,0,0,0,0,0,0,0,0,0,-1,734,1072,0,0
-483,-48,0,0,0,0,0,0,0,0,0,-1,741,1072,0,0
-476,-48,0,0,0,0,0,0,0,0,0,-1,748,1072,0,0
-469,-48,0,0,0,0,0,0,0,0,0,-1,755,1072,0,0
-462,-48,0,0,0,0,0,0,0,0,0,-1,762,1072,0,0
-455,-48,0,0,0,0,0,0,0,0,0,-1,769,1072,0,0
-448,-48,0,0,0,0,0,0,0,0,0,-1,776,1072,0,0
-441,-48,0,0,0,0,0,0,0,0,0,-1,783,1072,0,0
-434,-48,0,0,0,0,0,0,0,0,0,-1,790,1072,0,0
-427,-48,0,0,0,0,0,0,0,0,0,-1,797,1072,0,0
-420,-48,0,0,0,0,0,0,0,0,0,-1,804,1072,0,0
-413,-48,0,0,0,0,0,0,0,0,0,-1,811,1072,0,0
-406,-48,0,0,0,0,0,0,0,0,0,-1,818,1072,0,0
-399,-48,0,0,0,0,0,0,0,0,0,-1,825,1072,0,0
-392,-48,0,0,0,0,0,0,0,0,0,-1,832,1072,0,0
-385,-48,0,0,0,0,0,0,0,0,0,-1,839,1072,0,0
-378,-48,0,0,0,0,0,0,0,0,0,-1,846,1072,0,0
-371,-48,0,0,0,0,0,0,0,0,0,-1,853,1072,0,0
-364,-48,0,0,0,0,0,0,0,0,0,-1,860,1072,0,0
-357,-48,0,0,0,0,0,0,0,0,0,-1,867,1072,0,0
-350,-48,0,0,0,0,0,0,0,0,0,-1,874,1072,0,0
-343,-48,0,0,0,0,0,0,0,0,0,-1,881,1072,0,0
-336,-48,0,0,0,0,0,0,0,0,0,-1,888,1072,0,0
-329,-48,0,0,0,0,0,0,0,0,0,-1,895,1072,0,0
-322,-48,0,0,0,0,0,0,0,0,0,-1,902,1072,0,0
-315,-48,0,0,0,0,0,0,0,0,0,-1,909,1072,0,0
-308,-48,0,0,0,0,0,0,0,0,0,-1,916,1072,0,0
-301,-48,0,0,0,0,0,0,0,0,0,-1,923,1072,0,0
-294,-48,0,0,0,0,0,0,0,0,0,-1,930,1072,0,0
-287,-48,0,0,0,0,0,0,0,0,0,-1,937,1072,0,0
-280,-48,0,0,0,0,0,0,0,0,0,-1,944,1072,0,0
-273,-48,0,0,0,0,0,0,0,0,0,-1,951,1072,0,0
-266,-48,0,0,0,0,0,0,0,0,0,-1,958,1072,0,0
-259,-48,0,0,0,0,0,0,0,0,0,-1,965,1072,0,0
-252,-48,0,0,0,0,0,0,0,0,0,-1,972,1072,0,0
-245,-48,0,0,0,0,0,0,0,0,0,-1,979,1072,0,0
-238,-48,0,0,0,0,0,0,0,0,0,-1,986,1072,0,0
-231,-48,0,0,0,0,0,0,0,0,0,-1,993,1072,0,0
-224,-48,0,0,0,0,0,0,0,0,0,-1,1000,1072,0,0
-217,-48,0,0,0,0,0,0,0,0,0,-1,1007,1072,0,0
-210,-48,0,0,0,0,0,0,0,0,0,-1,1014,1072,0,0
-203,-48,0,0,0,0,0,0,0,0,0,-1,1021,1072,0,0
-196,-48,0,0,0,0,0,0,0,0,0,-1,1028,1072,0,0
-189,-48,0,0,0,0,0,0,0,0,0,-1,1035,1072,0,0
-182,-48,0,0,0,0,0,0,0,0,0,-1,1042,1072,0,0
-175,-48,0,0,0,0,0,0,0,0,0,-1,1049,1072,0,0
-168,-48,0,0,0,0,0,0,0,0,0,-1,1056,1072,0,0
-161,-48,0,0,0,0,0,0,0,0,0,-1,1063,1072,0,0
-154,-48,0,0,0,0,0,0,0,0,0,-1,1070,1072,0,0
-147,-48,0,0,0,0,0,0,0,0,0,-1,1077,1072,0,0
-140,-48,0,0,0,0,0,0,0,0,0,-1,1084,1072,0,0
-133,-48,0,0,0,0,0,0,0,0,0,-1,1091,1072,0,0
-126,-48,0,0,0,0,0,0,0,0,0,-1,1098,1072,0,0
-119,-48,0,0,0,0,0,0,0,0,0,-1,1105,1072,0,0
-112,-48,0,0,0,0,0,0,0,0,0,-1,1112,1072,0,0
-105,-48,0,0,0,0,0,0,0,0,0,-1,1119,1072,0,0
-98,-48,0,0,0,0,0,0,0,0,0,-1,1126,1072,0,0
-91,-48,0,0,0,0,0,0,0,0,0,-1,1133,1072,0,0
-84,-48,0,0,0,0,0,0,0,0,0,-1,1140,1072,0,0
-77,-48,0,0,0,0,0,0,0,0,0,-1,1147,1072,0,0
-70,-48,0,0,0,0,0,0,0,0,0,-1,1154,1072,0,0
-63,-48,0,0,0,0,0,0,0,0,0,-1,1161,1072,0,0
-56,-48,0,0,0,0,0,0,0,0,0,-1,1168,1072,0,0
-49,-48,0,0,0,0,0,0,0,0,0,-1,1175,1072,0,0
-42,-48,0,0,0,0,0,0,0,0,0,-1,1182,1072,0,0
-35,-48,0,0,0,0,0,0,0,0,0,-1,1189,1072,0,0
-28,-48,0,0,0,0,0,0,0,0,0,-1,1196,1072,0,0
-21,-48,0,0,0,0,0,0,0,0,0,-1,1203,1072,0,0
-14,-48,0,0,0,0,0,0,0,0,0,-1,1210,1072,0,0
-7,-48,0,0,0,0,0,0,0,0,0,-1,1217,1072,0,0
0,-48,0,0,0,0,0,0,0,0,0,-1,1224,1072,0,0
7,-48,0,0,0,0,0,0,0,0,0,-1,1231,1072,0,0
14,-48,0,0,0,0,0,0,0,0,0,-1,1238,1072,0,0
21,-48,0,0,0,0,0,0,0,0,0,-1,1245,1072,0,0
28,-48,0,0,0,0,0,0,0,0,0,-1,1252,1072,0,0
35,-48,0,0,0,0,0,0,0,0,0,-1,1259,1072,0,0
42,-48,0,0,0,0,0,0,0,0,0,-1,1266,1072,0,0
49,-48,0,0,0,0,0,0,0,0,0,-1,1273,1072,0,0
56,-48,0,0,0,0,0,0,0,0,0,-1,1280,1072,0,0
63,-48,0,0,0,0,0,0,0,0,0,-1,1287,1072,0,0
70,-48,0,0,0,0,0,0,0,0,0,-1,1294,1072,0,0
77,-48,0,0,0,0,0,0,0,0,0,-1,1301,1072,0,0
84,-48,0,0,0,0,0,0,0,0,0,-1,1308,1072,0,0
91,-48,0,0,0,0,0,0,0,0,0,-1,1315,1072,0,0
98,-48,0,0,0,0,0,0,0,0,0,-1,1322,1072,0,0
105,-48,0,0,0,0,0,0,0,0,0,-1,1329,1072,0,0
112,-48,0,0,0,0,0,0,0,0,0,-1,1336,1072,0,0
119,-48,0,0,0,0,0,0,0,0,0,-1,1343,1072,0,0
126,-48,0,0,0,0,0,0,0,0,0,-1,1350,1072,0,0
133,-48,0,0,0,0,0,0,0,0,0,-1,1357,1072,0,0
140,-48,0,0,0,0,0,0,0,0,0,-1,1364,1072,0,0
147,-48,0,0,0,0,0,0,0,0,0,-1,1371,1072,0,0
154,-48,0,0,0,0,0,0,0,0,0,-1,1378,1072,0,0
161,-48,0,0,0,0,0,0,0,0,0,-1,1385,1072,0,0
168,-48,0,0,0,0,0,0,0,0,0,-1,1392,1072,0,0
175,-48,0,0,0,0,0,0,0,0,0,-1,1399,1072,0,0
182,-48,0,0,0,0,0,0,0,0,0,-1,1406,1072,0,0
189,-48,0,0,0,0,0,0,0,0,0,-1,1413,1072,0,0
196,-48,0,0,0,0,0,0,0,0,0,-1,1420,1072,0,0
203,-48,0,0,0,0,0,0,0,0,0,-1,1427,1072,0,0
210,-48,0,0,0,0,0,0,0,0,0,-1,1434,1072,0,0
217,-48,0,0,0,0,0,0,0,0,0,-1,1441,1072,0,0
224,-48,0,0,0,0,0,0,0,0,0,-1,1448,1072,0,0
231,-48,0,0,0,0,0,0,0,0,0,-1,1455,1072,0,0
238,-48,0,0,0,0,0,0,0,0,0,-1,1462,1072,0,0
245,-48,0,0,0,0,0,0,0,0,0,-1,1469,1072,0,0
252,-48,0,0,0,0,0,0,0,0,0,-1,1476,1072,0,0
259,-48,0,0,0,0,0,0,0,0,0,-1,1483,1072,0,0
266,-48,0,0,0,0,0,0,0,0,0,-1,1490,1072,0,0
273,-48,0,0,0,0,0,0,0,0,0,-1,1497,1072,0,0
280,-48,0,0,0,0,0,0,0,0,0,-1,1504,1072,0,0
287,-48,0,0,0,0,0,0,0,0,0,-1,1511,1072,0,0
294,-48,0,0,0,0,0,0,0,0,0,-1,1518,1072,0,0
301,-48,0,0,0,0,0,0,0,0,0,-1,1525,1072,0,0
308,-48,0,0,0,0,0,0,0,0,0,-1,1532,1072,0,0
315,-48,0,0,0,0,0,0,0,0,0,-1,1539,1072,0,0
322,-48,0,0,0,0,0,0,0,0,0,-1,1546,1072,0,0
329,-48,0,0,0,0,0,0,0,0,0,-1,1553,1072,0,0
336,-48,0,0,0,0,0,0,0,0,0,-1,1560,1072,0,0
343,-48,0,0,0,0,0,0,0,0,0,-1,1567,1072,0,0
350,-48,0,0,0,0,0,0,0,0,0,-1,1574,1072,0,0
357,-48,0,0,0,0,0,0,0,0,0,-1,1581,1072,0,0
364,-48,0,0,0,0,0,0,0,0,0,-1,1588,1072,0,0
371,-48,0,0,0,0,0,0,0,0,0,-1,1595,1072,0,0
378,-48,0,0,0,0,0,0,0,0,0,-1,1602,1072,0,0
385,-48,0,0,0,0,0,0,0,0,0,-1,1609,1072,0,0
392,-48,0,0,0,0,0,0,0,0,0,-1,1616,1072,0,0
399,-48,0,0,0,0,0,0,0,0,0,-1,1623,1072,0,0
406,-48,0,0,0,0,0,0,0,0,0,-1,1630,1072,0,0
413,-48,0,0,0,0,0,0,0,0,0,-1,1637,1072,0,0
420,-48,0,0,0,0,0,0,0,0,0,-1,1644,1072,0,0
427,-48,0,0,0,0,0,0,0,0,0,-1,1651,1072,0,0
434,-48,0,0,0,0,0,0,0,0,0,-1,1658,1072,0,0
441,-48,0,0,0,0,0,0,0,0,0,-1,1665,1072,0,0
448,-48,0,0,0,0,0,0,0,0,0,-1,1672,1072,0,0
455,-48,0,0,0,0,0,0,0,0,0,-1,1679,1072,0,0
462,-48,0,0,0,0,0,0,0,0,0,-1,1686,1072,0,0
469,-48,0,0,0,0,0,0,0,0,0,-1,1693,1072,0,0
476,-48,0,0,0,0,0,0,0,0,0,-1,1700,1072,0,0
483,-48,0,0,0,0,0,0,0,0,0,-1,1707,1072,0,0
490,-48,0,0,0,0,0,0,0,0,0,-1,1714,1072,0,0
497,-48,0,0,0,0,0,0,0,0,0,-1,1721,1072,0,0
504,-48,0,0,0,0,0,0,0,0,0,-1,1728,1072,0,0
511,-48,0,0,0,0,0,0,0,0,0,-1,1735,1072,0,0
518,-48,0,0,0,0,0,0,0,0,0,-1,1742,1072,0,0
525,-48,0,0,0,0,0,0,0,0,0,-1,1749,1072,0,0
532,-48,0,0,0,0,0,0,0,0,0,-1,1756,1072,0,0
539,-48,0,0,0,0,0,0,0,0,0,-1,1763,1072,0,0
546,-48,0,0,0,0,0,0,0,0,0,-1,1770,1072,0,0
553,-48,0,0,0,0,0,0,0,0,0,-1,1777,1072,0,0
560,-48,0,0,0,0,0,0,0,0,0,-1,1784,1072,0,0
567,-48,0,0,0,0,0,0,0,0,0,-1,1791,1072,0,0
574,-48,0,0,0,0,0,0,0,0,0,-1,1798,1072,0,0
581,-48,0,0,0,0,0,0,0,0,0,-1,1805,1072,0,0
588,-48,0,0,0,0,0,0,0,0,0,-1,1812,1072,0,0
595,-48,0,0,0,0,0,0,0,0,0,-1,1819,1072,0,0
602,-48,0,0,0,0,0,0,0,0,0,-1,1826,1072,0,0
609,-48,0,0,0,0,0,0,0,0,0,-1,1833,1072,0,0
616,-48,0,0,0,0,0,0,0,0,0,-1,1840,1072,0,0
623,-48,0,0,0,0,0,0,0,0,0,-1,1847,1072,0,0
630,-48,0,0,0,0,0,0,0,0,0,-1,1854,1072,0,0
637,-48,0,0,0,0,0,0,0,0,0,-1,1861,1072,0,0
644,-48,0,0,0,0,0,0,0,0,0,-1,1868,1072,0,0
651,-48,71.6342,2.1781,-0.0013124,0.000154303,0.00304499,0.00255301,-0.00371111,0.903567,0.00363713,0.0336526,1875,1072,71.6341,-2.17816
658,-48,71.647,2.34131,-0.000976138,-0.000126393,0.00191407,0.0014094,-0.00251193,0.894614,0.00229361,0.0392799,1882,1072,71.6469,-2.34133
665,-48,71.6088,2.39087,-0.000775383,-0.000201659,0.00119456,0.000740002,-0.00171704,0.903237,0.00145548,0.0441349,1889,1072,71.6088,-2.39082
672,-48,71.5487,2.25659,-0.000500072,-0.000270296,0.000847327,0.000469896,-0.00124026,0.852782,0.00102021,0.0420258,1896,1072,71.5487,-2.25658
679,-48,71.4836,2.09033,-0.000235802,-0.00028242,0.000681345,0.000422633,-0.000940855,0.7683,0.00080594,0.0406399,1903,1072,71.4836,-2.09034
686,-48,71.4637,2.26721,-0.000360936,-0.000559301,0.000710879,0.000257646,-0.00117788,0.716085,0.000883746,0.0408116,1910,1072,71.4638,-2.26724
693,-48,71.5062,2.35132,-0.000583631,-0.000905439,0.000939633,0.000208776,-0.00169785,0.7006,0.00120752,0.0379031,1917,1072,71.5062,-2.35133
700,-48,71.6068,2.2771,-0.000756087,-0.00112388,0.00132766,0.000400352,-0.00228032,0.71658,0.00166974,0.0326824,1924,1072,71.6069,-2.27705
707,-48,71.6448,2.18933,-0.00125444,-0.00102651,0.0015874,0.000451012,-0.00273196,0.821233,0.00198877,0.030014,1931,1072,71.6448,-2.18933
714,-48,71.5928,2.34753,-0.00199599,-0.000620556,0.00184397,0.00065977,-0.00327632,0.963886,0.00243412,0.0456715,1938,1072,71.5928,-2.3475
721,-48,71.5851,2.56287,0,0,0,0,0,0,0,-1,1945,1072,71.5851,-2.56282
728,-48,70.4165,7.83142,0,0,0,0,0,0,0,-1,1952,1072,70.4165,-7.8314
735,-48,70.2788,7.55347,-0.00497285,0.00242215,0.00273748,0.00332522,-0.00587593,1.25215,0.0053799,0.0254813,1959,1072,70.2788,-7.55352
742,-48,70.1213,7.21643,-0.00605059,0.00381805,0.00269092,0.0045041,-0.00673664,1.32116,0.00653237,0.0201179,1966,1072,70.1213,-7.21638
749,-48,70.135,6.85901,-0.00697566,0.00540789,0.00263697,0.00594602,-0.00751379,1.36949,0.00778858,0.01676,1973,1072,70.135,-6.85896
756,-48,70.1294,6.52942,-0.00788925,0.00812939,0.00191747,0.00835572,-0.00811558,1.45331,0.00951005,0.014782,1980,1072,70.1293,-6.52947
763,-48,70.0425,6.1853,-0.00892818,0.0127041,0.000406219,0.0127117,-0.00893581,1.55203,0.0125614,0.0136528,1987,1072,70.0426,-6.18529
770,-48,69.9717,5.85352,-0.00989326,0.0183783,-0.00186883,0.0185013,-0.0100163,-1.50507,0.0167058,0.0149519,1994,1072,69.9716,-5.85354
777,-48,69.7805,5.47144,-0.0105465,0.0256082,-0.00518583,0.0263373,-0.0112756,-1.43111,0.0222886,0.013848,2001,1072,69.7806,-5.47146
784,-48,69.6279,5.02917,-0.0110646,0.0337483,-0.00929168,0.0355984,-0.0129148,-1.37424,0.0290118,0.0256217,2008,1072,69.628,-5.02913
791,-48,69.6367,4.56726,-0.0115525,0.0431765,-0.0144663,0.046765,-0.015141,-1.32764,0.0372636,0.0428356,2015,1072,69.6368,-4.56722
798,-48,69.6401,4.11438,0,0,0,0,0,0,0,-1,2022,1072,69.6402,-4.11436
805,-48,69.0391,2.69788,-0.0116786,0.0681609,-0.0288831,0.0775141,-0.0210317,-1.25762,0.0599297,0.0462265,2029,1072,69.039,-2.69782
812,-48,68.6265,1.89099,-0.0118846,0.0852066,-0.0385854,0.0986731,-0.0253511,-1.23501,0.0756616,0.046068,2036,1072,68.6265,-1.89098
-700,-55,-55.9483,2.33752,0.169437,0.123998,-0.0976153,0.246942,0.046493,-0.671061,0.151527,0.0483271,524,1079,-55.9483,-2.33757
-693,-55,-51.1941,-3.14453,0.122945,0.102185,-0.0667735,0.18014,0.0449893,-0.708288,0.108259,0.0486203,531,1079,-51.1941,3.14456
-686,-55,-51.4545,-3.03674,0,0,0,0,0,0,0,-1,538,1079,-51.4545,3.03671
-679,-55,-51.6426,-3.02014,0,0,0,0,0,0,0,-1,545,1079,-51.6426,3.02011
-672,-55,-54.8607,-0.917847,0,0,0,0,0,0,0,-1,552,1079,-54.8607,0.917883
-665,-55,-54.2476,0.279663,0,0,0,0,0,0,0,-1,559,1079,-54.2476,-0.279607
-658,-55,-54.0119,0.955566,0.0248561,0.0387133,-0.00301778,0.039342,0.0242274,-1.36541,0.0229163,0.0480803,566,1079,-54.0119,-0.955524
-651,-55,-53.97,2.35889,0.0161146,0.0305838,0.00105344,0.0306601,0.0160383,1.4985,0.0177079,0.0477987,573,1079,-53.97,-2.35888
-644,-55,-53.9899,3.63281,0.00427402,0.024589,0.00455612,0.025564,0.00329899,1.35997,0.0160564,0.0305416,580,1079,-53.9899,-3.63279
-637,-55,-54.0298,3.98071,-0.000228238,0.0126983,0.00811219,0.0166072,-0.00413711,1.12177,0.0126775,0.0240873,587,1079,-54.0298,-3.98073
-630,-55,-54.0717,4.44055,0.000331921,0.00965942,0.00512664,0.0119263,-0.00193491,1.15447,0.00866809,0.025588,594,1079,-54.0717,-4.44053
-623,-55,-54.2556,4.92078,0.000554086,0.00677739,0.0023876,0.00758785,-0.00025638,1.24355,0.00514616,0.0193639,601,1079,-54.2556,-4.92076
-616,-55,-54.2498,5.30396,0.000677856,0.00402206,0.000201345,0.00403414,0.000665777,1.51088,0.00249726,0.0180825,608,1079,-54.2498,-5.30401
-609,-55,-54.1859,5.75513,0.000740103,0.00208874,-0.00131508,0.0028923,-6.34583e-05,-1.0223,0.0019497,0.0195287,615,1079,-54.1859,-5.75518
-602,-55,-54.1096,6.14453,0.000893087,0.000156364,-0.00206191,0.00261928,-0.00156983,-0.697005,0.00244375,0.0158754,622,1079,-54.1096,-6.14449
-595,-55,-53.9388,6.57715,0.000866833,-0.000933744,-0.00245537,0.00258176,-0.00264867,-0.609678,0.00301987,0.0341811,629,1079,-53.9388,-6.57709
-588,-55,-53.9122,7.07813,0,0,0,0,0,0,0,-1,636,1079,-53.9122,-7.07818
-581,-55,-55.4044,0.470093,0,0,0,0,0,0,0,-1,643,1079,-55.4044,-0.47014
-574,-55,-55.2889,0.63916,0,0,0,0,0,0,0,-1,650,1079,-55.289,-0.639172
-567,-55,-55.1306,0.191895,0,0,0,0,0,0,0,-1,657,1079,-55.1306,-0.191937
-560,-55,-55.2723,0.142944,0.000493611,-0.000572012,-0.00052473,0.000708616,-0.000787017,-0.388878,0.0008639,0.0450909,664,1079,-55.2723,-0.142943
-553,-55,-55.2876,0.304199,-0.000192358,0.000375831,0.000355616,0.000546899,-0.000363425,1.12243,0.000529122,0.0436887,671,1079,-55.2876,-0.304256
-546,-55,-55.4445,0.450195,-0.000726495,0.00123265,0.00141348,0.00197281,-0.00146666,1.08841,0.00199293,0.0392676,678,1079,-55.4445,-0.450219
-539,-55,-55.5558,0.597656,-0.000899835,0.00136008,0.00256222,0.00303044,-0.00257019,0.993073,0.00323716,0.0399467,685,1079,-55.5559,-0.59762
-532,-55,-55.7186,0.794189,-0.000835346,0.00156277,0.00361923,0.0041764,-0.00344898,0.945359,0.00440919,0.0394576,692,1079,-55.7186,-0.794177
-525,-55,0,0,0,0,0,0,0,0,0,-1,699,1079,0,0
-518,-55,0,0,0,0,0,0,0,0,0,-1,706,1079,0,0
-511,-55,0,0,0,0,0,0,0,0,0,-1,713,1079,0,0
-504,-55,0,0,0,0,0,0,0,0,0,-1,720,1079,0,0
-497,-55,0,0,0,0,0,0,0,0,0,-1,727,1079,0,0
-490,-55,0,0,0,0,0,0,0,0,0,-1,734,1079,0,0
-483,-55,0,0,0,0,0,0,0,0,0,-1,741,1079,0,0
-476,-55,0,0,0,0,0,0,0,0,0,-1,748,1079,0,0
-469,-55,0,0,0,0,0,0,0,0,0,-1,755,1079,0,0
-462,-55,0,0,0,0,0,0,0,0,0,-1,762,1079,0,0
-455,-55,0,0,0,0,0,0,0,0,0,-1,769,1079,0,0
-448,-55,0,0,0,0,0,0,0,0,0,-1,776,1079,0,0
-441,-55,0,0,0,0,0,0,0,0,0,-1,783,1079,0,0
-434,-55,0,0,0,0,0,0,0,0,0,-1,790,1079,0,0
-427,-55,0,0,0,0,0,0,0,0,0,-1,797,1079,0,0
-420,-55,0,0,0,0,0,0,0,0,0,-1,804,1079,0,0
-413,-55,0,0,0,0,0,0,0,0,0,-1,811,1079,0,0
-406,-55,0,0,0,0,0,0,0,0,0,-1,818,1079,0,0
-399,-55,0,0,0,0,0,0,0,0,0,-1,825,1079,0,0
-392,-55,0,0,0,0,0,0,0,0,0,-1,832,1079,0,0
-385,-55,0,0,0,0,0,0,0,0,0,-1,839,1079,0,0
-378,-55,0,0,0,0,0,0,0,0,0,-1,846,1079,0,0
-371,-55,0,0,0,0,0,0,0,0,0,-1,853,1079,0,0
-364,-55,0,0,0,0,0,0,0,0,0,-1,860,1079,0,0
-357,-55,0,0,0,0,0,0,0,0,0,-1,867,1079,0,0
-350,-55,0,0,0,0,0,0,0,0,0,-1,874,1079,0,0
-343,-55,0,0,0,0,0,0,0,0,0,-1,881,1079,0,0
-336,-55,0,0,0,0,0,0,0,0,0,-1,888,1079,0,0
-329,-55,0,0,0,0,0,0,0,0,0,-1,895,1079,0,0
-322,-55,0,0,0,0,0,0,0,0,0,-1,902,1079,0,0
-315,-55,0,0,0,0,0,0,0,0,0,-1,909,1079,0,0
-308,-55,0,0,0,0,0,0,0,0,0,-1,916,1079,0,0
-301,-55,0,0,0,0,0,0,0,0,0,-1,923,1079,0,0
-294,-55,0,0,0,0,0,0,0,0,0,-1,930,1079,0,0
-287,-55,0,0,0,0,0,0,0,0,0,-1,937,1079,0,0
-280,-55,0,0,0,0,0,0,0,0,0,-1,944,1079,0,0
-273,-55,0,0,0,0,0,0,0,0,0,-1,951,1079,0,0
-266,-55,0,0,0,0,0,0,0,0,0,-1,958,1079,0,0
-259,-55,0,0,0,0,0,0,0,0,0,-1,965,1079,0,0
-252,-55,0,0,0,0,0,0,0,0,0,-1,972,1079,0,0
-245,-55,0,0,0,0,0,0,0,0,0,-1,979,1079,0,0
-238,-55,0,0,0,0,0,0,0,0,0,-1,986,1079,0,0
-231,-55,0,0,0,0,0,0,0,0,0,-1,993,1079,0,0
-224,-55,0,0,0,0,0,0,0,0,0,-1,1000,1079,0,0
-217,-55,0,0,0,0,0,0,0,0,0,-1,1007,1079,0,0
-210,-55,0,0,0,0,0,0,0,0,0,-1,1014,1079,0,0
-203,-55,0,0,0,0,0,0,0,0,0,-1,1021,1079,0,0
-196,-55,0,0,0,0,0,0,0,0,0,-1,1028,1079,0,0
-189,-55,0,0,0,0,0,0,0,0,0,-1,1035,1079,0,0
-182,-55,0,0,0,0,0,0,0,0,0,-1,1042,1079,0,0
-175,-55,0,0,0,0,0,0,0,0,0,-1,1049,1079,0,0
-168,-55,0,0,0,0,0,0,0,0,0,-1,1056,1079,0,0
-161,-55,0,0,0,0,0,0,0,0,0,-1,1063,1079,0,0
-154,-55,0,0,0,0,0,0,0,0,0,-1,1070,1079,0,0
-147,-55,0,0,0,0,0,0,0,0,0,-1,1077,1079,0,0
-140,-55,0,0,0,0,0,0,0,0,0,-1,1084,1079,0,0
-133,-55,0,0,0,0,0,0,0,0,0,-1,1091,1079,0,0
-126,-55,0,0,0,0,0,0,0,0,0,-1,1098,1079,0,0
-119,-55,0,0,0,0,0,0,0,0,0,-1,1105,1079,0,0
-112,-55,0,0,0,0,0,0,0,0,0,-1,1112,1079,0,0
-105,-55,0,0,0,0,0,0,0,0,0,-1,1119,1079,0,0
-98,-55,0,0,0,0,0,0,0,0,0,-1,1126,1079,0,0
-91,-55,0,0,0,0,0,0,0,0,0,-1,1133,1079,0,0
-84,-55,0,0,0,0,0,0,0,0,0,-1,1140,1079,0,0
-77,-55,0,0,0,0,0,0,0,0,0,-1,1147,1079,0,0
-70,-55,0,0,0,0,0,0,0,0,0,-1,1154,1079,0,0
-63,-55,0,0,0,0,0,0,0,0,0,-1,1161,1079,0,0
-56,-55,0,0,0,0,0,0,0,0,0,-1,1168,1079,0,0
-49,-55,0,0,0,0,0,0,0,0,0,-1,1175,1079,0,0
-42,-55,0,0,0,0,0,0,0,0,0,-1,1182,1079,0,0
-35,-55,0,0,0,0,0,0,0,0,0,-1,1189,1079,0,0
-28,-55,0,0,0,0,0,0,0,0,0,-1,1196,1079,0,0
-21,-55,0,0,0,0,0,0,0,0,0,-1,1203,1079,0,0
-14,-55,0,0,0,0,0,0,0,0,0,-1,1210,1079,0,0
-7,-55,0,0,0,0,0,0,0,0,0,-1,1217,1079,0,0
0,-55,0,0,0,0,0,0,0,0,0,-1,1224,1079,0,0
7,-55,0,0,0,0,0,0,0,0,0,-1,1231,1079,0,0
14,-55,0,0,0,0,0,0,0,0,0,-1,1238,1079,0,0
21,-55,0,0,0,0,0,0,0,0,0,-1,1245,1079,0,0
28,-55,0,0,0,0,0,0,0,0,0,-1,1252,1079,0,0
35,-55,0,0,0,0,0,0,0,0,0,-1,1259,1079,0,0
42,-55,0,0,0,0,0,0,0,0,0,-1,1266,1079,0,0
49,-55,0,0,0,0,0,0,0,0,0,-1,1273,1079,0,0
56,-55,0,0,0,0,0,0,0,0,0,-1,1280,1079,0,0
63,-55,0,0,0,0,0,0,0,0,0,-1,1287,1079,0,0
70,-55,0,0,0,0,0,0,0,0,0,-1,1294,1079,0,0
77,-55,0,0,0,0,0,0,0,0,0,-1,1301,1079,0,0
84,-55,0,0,0,0,0,0,0,0,0,-1,1308,1079,0,0
91,-55,0,0,0,0,0,0,0,0,0,-1,1315,1079,0,0
98,-55,0,0,0,0,0,0,0,0,0,-1,1322,1079,0,0
105,-55,0,0,0,0,0,0,0,0,0,-1,1329,1079,0,0
112,-55,0,0,0,0,0,0,0,0,0,-1,1336,1079,0,0
119,-55,0,0,0,0,0,0,0,0,0,-1,1343,1079,0,0
126,-55,0,0,0,0,0,0,0,0,0,-1,1350,1079,0,0
133,-55,0,0,0,0,0,0,0,0,0,-1,1357,1079,0,0
140,-55,0,0,0,0,0,0,0,0,0,-1,1364,1079,0,0
147,-55,0,0,0,0,0,0,0,0,0,-1,1371,1079,0,0
154,-55,0,0,0,0,0,0,0,0,0,-1,1378,1079,0,0
161,-55,0,0,0,0,0,0,0,0,0,-1,1385,1079,0,0
168,-55,0,0,0,0,0,0,0,0,0,-1,1392,1079,0,0
175,-55,0,0,0,0,0,0,0,0,0,-1,1399,1079,0,0
182,-55,0,0,0,0,0,0,0,0,0,-1,1406,1079,0,0
189,-55,0,0,0,0,0,0,0,0,0,-1,1413,1079,0,0
196,-55,0,0,0,0,0,0,0,0,0,-1,1420,1079,0,0
203,-55,0,0,0,0,0,0,0,0,0,-1,1427,1079,0,0
210,-55,0,0,0,0,0,0,0,0,0,-1,1434,1079,0,0
217,-55,0,0,0,0,0,0,0,0,0,-1,1441,1079,0,0
224,-55,0,0,0,0,0,0,0,0,0,-1,1448,1079,0,0
231,-55,0,0,0,0,0,0,0,0,0,-1,1455,1079,0,0
238,-55,0,0,0,0,0,0,0,0,0,-1,1462,1079,0,0
245,-55,0,0,0,0,0,0,0,0,0,-1,1469,1079,0,0
252,-55,0,0,0,0,0,0,0,0,0,-1,1476,1079,0,0
259,-55,0,0,0,0,0,0,0,0,0,-1,1483,1079,0,0
266,-55,0,0,0,0,0,0,0,0,0,-1,1490,1079,0,0
273,-55,0,0,0,0,0,0,0,0,0,-1,1497,1079,0,0
280,-55,0,0,0,0,0,0,0,0,0,-1,1504,1079,0,0
287,-55,0,0,0,0,0,0,0,0,0,-1,1511,1079,0,0
294,-55,0,0,0,0,0,0,0,0,0,-1,1518,1079,0,0
301,-55,0,0,0,0,0,0,0,0,0,-1,1525,1079,0,0
308,-55,0,0,0,0,0,0,0,0,0,-1,1532,1079,0,0
315,-55,0,0,0,0,0,0,0,0,0,-1,1539,1079,0,0
322,-55,0,0,0,0,0,0,0,0,0,-1,1546,1079,0,0
329,-55,0,0,0,0,0,0,0,0,0,-1,1553,1079,0,0
336,-55,0,0,0,0,0,0,0,0,0,-1,1560,1079,0,0
343,-55,0,0,0,0,0,0,0,0,0,-1,1567,1079,0,0
350,-55,0,0,0,0,0,0,0,0,0,-1,1574,1079,0,0
357,-55,0,0,0,0,0,0,0,0,0,-1,1581,1079,0,0
364,-55,0,0,0,0,0,0,0,0,0,-1,1588,1079,0,0
371,-55,0,0,0,0,0,0,0,0,0,-1,1595,1079,0,0
378,-55,0,0,0,0,0,0,0,0,0,-1,1602,1079,0,0
385,-55,0,0,0,0,0,0,0,0,0,-1,1609,1079,0,0
392,-55,0,0,0,0,0,0,0,0,0,-1,1616,1079,0,0
399,-55,0,0,0,0,0,0,0,0,0,-1,1623,1079,0,0
406,-55,0,0,0,0,0,0,0,0,0,-1,1630,1079,0,0
413,-55,0,0,0,0,0,0,0,0,0,-1,1637,1079,0,0
420,-55,0,0,0,0,0,0,0,0,0,-1,1644,1079,0,0
427,-55,0,0,0,0,0,0,0,0,0,-1,1651,1079,0,0
434,-55,0,0,0,0,0,0,0,0,0,-1,1658,1079,0,0
441,-55,0,0,0,0,0,0,0,0,0,-1,1665,1079,0,0
448,-55,0,0,0,0,0,0,0,0,0,-1,1672,1079,0,0
455,-55,0,0,0,0,0,0,0,0,0,-1,1679,1079,0,0
462,-55,0,0,0,0,0,0,0,0,0,-1,1686,1079,0,0
469,-55,0,0,0,0,0,0,0,0,0,-1,1693,1079,0,0
476,-55,0,0,0,0,0,0,0,0,0,-1,1700,1079,0,0
483,-55,0,0,0,0,0,0,0,0,0,-1,1707,1079,0,0
490,-55,0,0,0,0,0,0,0,0,0,-1,1714,1079,0,0
497,-55,0,0,0,0,0,0,0,0,0,-1,1721,1079,0,0
504,-55,0,0,0,0,0,0,0,0,0,-1,1728,1079,0,0
511,-55,0,0,0,0,0,0,0,0,0,-1,1735,1079,0,0
518,-55,0,0,0,0,0,0,0,0,0,-1,1742,1079,0,0
525,-55,0,0,0,0,0,0,0,0,0,-1,1749,1079,0,0
532,-55,0,0,0,0,0,0,0,0,0,-1,1756,1079,0,0
539,-55,0,0,0,0,0,0,0,0,0,-1,1763,1079,0,0
546,-55,0,0,0,0,0,0,0,0,0,-1,1770,1079,0,0
553,-55,0,0,0,0,0,0,0,0,0,-1,1777,1079,0,0
560,-55,0,0,0,0,0,0,0,0,0,-1,1784,1079,0,0
567,-55,0,0,0,0,0,0,0,0,0,-1,1791,1079,0,0
574,-55,0,0,0,0,0,0,0,0,0,-1,1798,1079,0,0
581,-55,0,0,0,0,0,0,0,0,0,-1,1805,1079,0,0
588,-55,0,0,0,0,0,0,0,0,0,-1,1812,1079,0,0
595,-55,0,0,0,0,0,0,0,0,0,-1,1819,1079,0,0
602,-55,0,0,0,0,0,0,0,0,0,-1,1826,1079,0,0
609,-55,0,0,0,0,0,0,0,0,0,-1,1833,1079,0,0
616,-55,0,0,0,0,0,0,0,0,0,-1,1840,1079,0,0
623,-55,0,0,0,0,0,0,0,0,0,-1,1847,1079,0,0
630,-55,0,0,0,0,0,0,0,0,0,-1,1854,1079,0,0
637,-55,0,0,0,0,0,0,0,0,0,-1,1861,1079,0,0
644,-55,0,0,0,0,0,0,0,0,0,-1,1868,1079,0,0
651,-55,71.681,2.2262,-0.00108749,-0.000749502,0.00284652,0.00193303,-0.00377002,0.815047,0.00334911,0.0373639,1875,1079,71.6811,-2.22622
658,-55,71.7065,2.32983,-0.000571432,-0.000801693,0.00180919,0.00112628,-0.00249941,0.753623,0.00214275,0.0361301,1882,1079,71.7065,-2.32983
665,-55,71.6245,2.42346,-0.000299966,-0.000703522,0.00113526,0.000651306,-0.00165479,0.697448,0.0013728,0.0391405,1889,1079,71.6245,-2.4235
672,-55,71.4749,2.32104,-2.04798e-05,-0.000638834,0.000785659,0.000514648,-0.00117396,0.597942,0.000999383,0.0409013,1896,1079,71.4749,-2.32101
679,-55,71.488,2.19751,0.000213254,-0.000523005,0.000600975,0.000549887,-0.000859638,0.510599,0.000820313,0.0392346,1903,1079,71.4881,-2.19755
686,-55,71.6602,2.41492,7.79216e-05,-0.000693183,0.000599388,0.000405052,-0.00102031,0.499593,0.000848106,0.0382581,1910,1079,71.6602,-2.41493
693,-55,71.6868,2.375,-0.000156629,-0.000969306,0.000807359,0.00034088,-0.00146681,0.552259,0.0011091,0.0359262,1917,1079,71.6868,-2.37495
700,-55,71.6664,2.17712,-0.000321407,-0.00112924,0.00116991,0.000512348,-0.00196299,0.619177,0.00150873,0.0319661,1924,1079,71.6664,-2.17715
707,-55,71.6095,2.16223,-0.00073496,-0.000996282,0.00143401,0.000574326,-0.00230557,0.739966,0.00176001,0.0282445,1931,1079,71.6095,-2.16224
714,-55,71.5802,2.26929,0,0,0,0,0,0,0,-1,1938,1079,71.5801,-2.26926
721,-55,71.0253,2.22681,0,0,0,0,0,0,0,-1,1945,1079,71.0252,-2.22676
728,-55,69.8964,8.05383,0,0,0,0,0,0,0,-1,1952,1079,69.8964,-8.05387
735,-55,69.7849,7.66833,-0.00424768,0.00207647,0.00270565,0.00307604,-0.00524724,1.21691,0.00485964,0.0244342,1959,1079,69.785,-7.66833
742,-55,69.795,7.29126,-0.00536224,0.00344665,0.00271364,0.0042155,-0.00613109,1.2947,0.00600764,0.0241694,1966,1079,69.7951,-7.29122
749,-55,69.7959,6.87891,-0.0063477,0.00497607,0.00278428,0.00562363,-0.00699527,1.34228,0.00729986,0.0158467,1973,1079,69.7959,-6.87891
756,-55,69.6853,6.50964,-0.00732662,0.0075174,0.00220434,0.00783782,-0.00764705,1.42645,0.00894042,0.0132419,1980,1079,69.6852,-6.50964
763,-55,69.6262,6.16028,-0.00845688,0.0119761,0.000746042,0.0120033,-0.00848408,1.53435,0.0118864,0.0155035,1987,1079,69.6261,-6.16025
770,-55,69.5491,5.75647,-0.00965116,0.0175915,-0.00147274,0.0176709,-0.00973054,-1.51695,0.0160401,0.0180166,1994,1079,69.5491,-5.75644
777,-55,69.4158,5.36304,-0.0105888,0.0245751,-0.00470878,0.0251948,-0.0112084,-1.43996,0.0215283,0.014535,2001,1079,69.4157,-5.36301
784,-55,69.2859,4.87354,-0.0113348,0.0324325,-0.00880537,0.0341376,-0.0130399,-1.37952,0.0281312,0.0296174,2008,1079,69.2858,-4.87358
791,-55,69.364,4.32568,-0.0119637,0.0415373,-0.0141328,0.0450412,-0.0154675,-1.32777,0.0362989,0.045229,2015,1079,69.364,-4.32567
798,-55,69.4224,3.87854,0,0,0,0,0,0,0,-1,2022,1079,69.4223,-3.87853
805,-55,68.3916,1.92224,-0.0117979,0.0655365,-0.0296323,0.0755851,-0.0218465,-1.24386,0.0590354,0.0481622,2029,1079,68.3915,-1.92222
812,-55,67.9299,1.18188,-0.0112673,0.0817139,-0.0404081,0.0968203,-0.0263737,-1.21304,0.0749022,0.0486706,2036,1079,67.93,-1.18187
-700,-62,-56.3912,2.0249,0,0,0,0,0,0,0,-1,524,1086,-56.3912,-2.02487
-693,-62,-56.3174,1.09448,0,0,0,0,0,0,0,-1,531,1086,-56.3174,-1.09453
-686,-62,-51.076,-2.0647,0,0,0,0,0,0,0,-1,538,1086,-51.076,2.06471
-679,-62,-51.3638,-1.96497,0,0,0,0,0,0,0,-1,545,1086,-51.3638,1.96496
-672,-62,-51.6516,-1.86523,0,0,0,0,0,0,0,-1,552,1086,-51.6517,1.86521
-665,-62,-52.265,0.557129,0,0,0,0,0,0,0,-1,559,1086,-52.265,-0.557151
-658,-62,-53.8405,0.411743,0,0,0,0,0,0,0,-1,566,1086,-53.8405,-0.411761
-651,-62,-53.5599,2.00562,0,0,0,0,0,0,0,-1,573,1086,-53.5599,-2.00562
-644,-62,-53.5439,3.44458,0.00207871,0.0200675,0.0042624,0.0210264,0.00111986,1.34952,0.0136596,0.0401669,580,1086,-53.5439,-3.44464
-637,-62,-53.6432,4.00488,-0.0018595,0.00963324,0.00753139,0.0133601,-0.00558638,1.11128,0.0112415,0.0167983,587,1086,-53.6432,-4.00489
-630,-62,-53.7361,4.43433,-0.000826639,0.00753225,0.0046026,0.00956986,-0.00286424,1.15402,0.00751876,0.0160306,594,1086,-53.7361,-4.4343
-623,-62,-53.8069,4.948,-0.000152898,0.00541617,0.00213498,0.00614045,-0.00087718,1.24374,0.00441517,0.018525,601,1086,-53.8069,-4.94798
-616,-62,-53.7834,5.4375,0.000209931,0.00328385,9.07572e-05,0.00328653,0.000207253,1.54131,0.00212531,0.0197187,608,1086,-53.7835,-5.4375
-609,-62,-53.7276,5.84119,0.000397193,0.00159174,-0.00132604,0.00244881,-0.00045988,-0.996999,0.00180546,0.0206638,615,1086,-53.7276,-5.84115
-602,-62,-53.6174,6.22913,0.000716521,-0.000159995,-0.00202336,0.00234854,-0.00179202,-0.678746,0.00239774,0.0169436,622,1086,-53.6174,-6.22915
-595,-62,-53.5175,6.73059,0.000804776,-0.00110084,-0.00244453,0.00247562,-0.00277168,-0.59957,0.00303114,0.0400503,629,1086,-53.5175,-6.7306
-588,-62,-53.4462,7.24841,0,0,0,0,0,0,0,-1,636,1086,-53.4461,-7.24842
-581,-62,-55.3969,0.52771,0,0,0,0,0,0,0,-1,643,1086,-55.3968,-0.527653
-574,-62,-55.3381,0.519165,0.00149432,-0.00193654,-0.00181165,0.00227384,-0.00271606,-0.406336,0.00288469,0.0351349,650,1086,-55.338,-0.519217
-567,-62,-55.3064,0.525635,0.00133819,-0.00159841,-0.0014091,0.00190495,-0.00216517,-0.382413,0.00235148,0.038921,657,1086,-55.3064,-0.525631
-560,-62,-55.4307,0.560181,0.000893134,-0.000925731,-0.000848779,0.00122768,-0.00126028,-0.375457,0.00143647,0.0416346,664,1086,-55.4307,-0.560125
-553,-62,-55.2337,0.357422,0.000286804,-4.70879e-05,-5.48655e-05,0.000295588,-5.58724e-05,-0.158762,0.000218082,0.0366574,671,1086,-55.2337,-0.357428
-546,-62,-55.3791,0.406982,-0.000112607,0.000785957,0.000975024,0.00141023,-0.000736882,1.00129,0.00125979,0.0324951,678,1086,-55.3791,-0.407035
-539,-62,-55.4717,0.57251,9.28067e-05,0.000905612,0.00218996,0.00272656,-0.00172814,0.877142,0.00259337,0.0405494,685,1086,-55.4717,-0.572456
-532,-62,-55.5107,0.675293,0.000598287,0.00107457,0.00334034,0.00418524,-0.00251239,0.820984,0.00390688,0.0408739,692,1086,-55.5108,-0.67535
-525,-62,0,0,0,0,0,0,0,0,0,-1,699,1086,0,0
-518,-62,0,0,0,0,0,0,0,0,0,-1,706,1086,0,0
-511,-62,0,0,0,0,0,0,0,0,0,-1,713,1086,0,0
-504,-62,0,0,0,0,0,0,0,0,0,-1,720,1086,0,0
-497,-62,0,0,0,0,0,0,0,0,0,-1,727,1086,0,0
-490,-62,0,0,0,0,0,0,0,0,0,-1,734,1086,0,0
-483,-62,0,0,0,0,0,0,0,0,0,-1,741,1086,0,0
-476,-62,0,0,0,0,0,0,0,0,0,-1,748,1086,0,0
-469,-62,0,0,0,0,0,0,0,0,0,-1,755,1086,0,0
-462,-62,0,0,0,0,0,0,0,0,0,-1,762,1086,0,0
-455,-62,0,0,0,0,0,0,0,0,0,-1,769,1086,0,0
-448,-62,0,0,0,0,0,0,0,0,0,-1,776,1086,0,0
-441,-62,0,0,0,0,0,0,0,0,0,-1,783,1086,0,0
-434,-62,0,0,0,0,0,0,0,0,0,-1,790,1086,0,0
-427,-62,0,0,0,0,0,0,0,0,0,-1,797,1086,0,0
-420,-62,0,0,0,0,0,0,0,0,0,-1,804,1086,0,0
-413,-62,0,0,0,0,0,0,0,0,0,-1,811,1086,0,0
-406,-62,0,0,0,0,0,0,0,0,0,-1,818,1086,0,0
-399,-62,0,0,0,0,0,0,0,0,0,-1,825,1086,0,0
-392,-62,0,0,0,0,0,0,0,0,0,-1,832,1086,0,0
-385,-62,0,0,0,0,0,0,0,0,0,-1,839,1086,0,0
-378,-62,0,0,0,0,0,0,0,0,0,-1,846,1086,0,0
-371,-62,0,0,0,0,0,0,0,0,0,-1,853,1086,0,0
-364,-62,0,0,0,0,0,0,0,0,0,-1,860,1086,0,0
-357,-62,0,0,0,0,0,0,0,0,0,-1,867,1086,0,0
-350,-62,0,0,0,0,0,0,0,0,0,-1,874,1086,0,0
-343,-62,0,0,0,0,0,0,0,0,0,-1,881,1086,0,0
-336,-62,0,0,0,0,0,0,0,0,0,-1,888,1086,0,0
-329,-62,0,0,0,0,0,0,0,0,0,-1,895,1086,0,0
-322,-62,0,0,0,0,0,0,0,0,0,-1,902,1086,0,0
-315,-62,0,0,0,0,0,0,0,0,0,-1,909,1086,0,0
-308,-62,0,0,0,0,0,0,0,0,0,-1,916,1086,0,0
-301,-62,0,0,0,0,0,0,0,0,0,-1,923,1086,0,0
-294,-62,0,0,0,0,0,0,0,0,0,-1,930,1086,0,0
-287,-62,0,0,0,0,0,0,0,0,0,-1,937,1086,0,0
-280,-62,0,0,0,0,0,0,0,0,0,-1,944,1086,0,0
-273,-62,0,0,0,0,0,0,0,0,0,-1,951,1086,0,0
-266,-62,0,0,0,0,0,0,0,0,0,-1,958,1086,0,0
-259,-62,0,0,0,0,0,0,0,0,0,-1,965,1086,0,0
-252,-62,0,0,0,0,0,0,0,0,0,-1,972,1086,0,0
-245,-62,0,0,0,0,0,0,0,0,0,-1,979,1086,0,0
-238,-62,0,0,0,0,0,0,0,0,0,-1,986,1086,0,0
-231,-62,0,0,0,0,0,0,0,0,0,-1,993,1086,0,0
-224,-62,0,0,0,0,0,0,0,0,0,-1,1000,1086,0,0
-217,-62,0,0,0,0,0,0,0,0,0,-1,1007,1086,0,0
-210,-62,0,0,0,0,0,0,0,0,0,-1,1014,1086,0,0
-203,-62,0,0,0,0,0,0,0,0,0,-1,1021,1086,0,0
-196,-62,0,0,0,0,0,0,0,0,0,-1,1028,1086,0,0
-189,-62,0,0,0,0,0,0,0,0,0,-1,1035,1086,0,0
-182,-62,0,0,0,0,0,0,0,0,0,-1,1042,1086,0,0
-175,-62,0,0,0,0,0,0,0,0,0,-1,1049,1086,0,0
-168,-62,0,0,0,0,0,0,0,0,0,-1,1056,1086,0,0
-161,-62,0,0,0,0,0,0,0,0,0,-1,1063,1086,0,0
-154,-62,0,0,0,0,0,0,0,0,0,-1,1070,1086,0,0
-147,-62,0,0,0,0,0,0,0,0,0,-1,1077,1086,0,0
-140,-62,0,0,0,0,0,0,0,0,0,-1,1084,1086,0,0
-133,-62,0,0,0,0,0,0,0,0,0,-1,1091,1086,0,0
-126,-62,0,0,0,0,0,0,0,0,0,-1,1098,1086,0,0
-119,-62,0,0,0,0,0,0,0,0,0,-1,1105,1086,0,0
-112,-62,0,0,0,0,0,0,0,0,0,-1,1112,1086,0,0
-105,-62,0,0,0,0,0,0,0,0,0,-1,1119,1086,0,0
-98,-62,0,0,0,0,0,0,0,0,0,-1,1126,1086,0,0
-91,-62,0,0,0,0,0,0,0,0,0,-1,1133,1086,0,0
-84,-62,0,0,0,0,0,0,0,0,0,-1,1140,1086,0,0
-77,-62,0,0,0,0,0,0,0,0,0,-1,1147,1086,0,0
-70,-62,0,0,0,0,0,0,0,0,0,-1,1154,1086,0,0
-63,-62,0,0,0,0,0,0,0,0,0,-1,1161,1086,0,0
-56,-62,0,0,0,0,0,0,0,0,0,-1,1168,1086,0,0
-49,-62,0,0,0,0,0,0,0,0,0,-1,1175,1086,0,0
-42,-62,0,0,0,0,0,0,0,0,0,-1,1182,1086,0,0
-35,-62,0,0,0,0,0,0,0,0,0,-1,1189,1086,0,0
-28,-62,0,0,0,0,0,0,0,0,0,-1,1196,1086,0,0
-21,-62,0,0,0,0,0,0,0,0,0,-1,1203,1086,0,0
-14,-62,0,0,0,0,0,0,0,0,0,-1,1210,1086,0,0
-7,-62,0,0,0,0,0,0,0,0,0,-1,1217,1086,0,0
0,-62,0,0,0,0,0,0,0,0,0,-1,1224,1086,0,0
7,-62,0,0,0,0,0,0,0,0,0,-1,1231,1086,0,0
14,-62,0,0,0,0,0,0,0,0,0,-1,1238,1086,0,0
21,-62,0,0,0,0,0,0,0,0,0,-1,1245,1086,0,0
28,-62,0,0,0,0,0,0,0,0,0,-1,1252,1086,0,0
35,-62,0,0,0,0,0,0,0,0,0,-1,1259,1086,0,0
42,-62,0,0,0,0,0,0,0,0,0,-1,1266,1086,0,0
49,-62,0,0,0,0,0,0,0,0,0,-1,1273,1086,0,0
56,-62,0,0,0,0,0,0,0,0,0,-1,1280,1086,0,0
63,-62,0,0,0,0,0,0,0,0,0,-1,1287,1086,0,0
70,-62,0,0,0,0,0,0,0,0,0,-1,1294,1086,0,0
77,-62,0,0,0,0,0,0,0,0,0,-1,1301,1086,0,0
84,-62,0,0,0,0,0,0,0,0,0,-1,1308,1086,0,0
91,-62,0,0,0,0,0,0,0,0,0,-1,1315,1086,0,0
98,-62,0,0,0,0,0,0,0,0,0,-1,1322,1086,0,0
105,-62,0,0,0,0,0,0,0,0,0,-1,1329,1086,0,0
112,-62,0,0,0,0,0,0,0,0,0,-1,1336,1086,0,0
119,-62,0,0,0,0,0,0,0,0,0,-1,1343,1086,0,0
126,-62,0,0,0,0,0,0,0,0,0,-1,1350,1086,0,0
133,-62,0,0,0,0,0,0,0,0,0,-1,1357,1086,0,0
140,-62,0,0,0,0,0,0,0,0,0,-1,1364,1086,0,0
147,-62,0,0,0,0,0,0,0,0,0,-1,1371,1086,0,0
154,-62,0,0,0,0,0,0,0,0,0,-1,1378,1086,0,0
161,-62,0,0,0,0,0,0,0,0,0,-1,1385,1086,0,0
168,-62,0,0,0,0,0,0,0,0,0,-1,1392,1086,0,0
175,-62,0,0,0,0,0,0,0,0,0,-1,1399,1086,0,0
182,-62,0,0,0,0,0,0,0,0,0,-1,1406,1086,0,0
189,-62,0,0,0,0,0,0,0,0,0,-1,1413,1086,0,0
196,-62,0,0,0,0,0,0,0,0,0,-1,1420,1086,0,0
203,-62,0,0,0,0,0,0,0,0,0,-1,1427,1086,0,0
210,-62,0,0,0,0,0,0,0,0,0,-1,1434,1086,0,0
217,-62,0,0,0,0,0,0,0,0,0,-1,1441,1086,0,0
224,-62,0,0,0,0,0,0,0,0,0,-1,1448,1086,0,0
231,-62,0,0,0,0,0,0,0,0,0,-1,1455,1086,0,0
238,-62,0,0,0,0,0,0,0,0,0,-1,1462,1086,0,0
245,-62,0,0,0,0,0,0,0,0,0,-1,1469,1086,0,0
252,-62,0,0,0,0,0,0,0,0,0,-1,1476,1086,0,0
259,-62,0,0,0,0,0,0,0,0,0,-1,1483,1086,0,0
266,-62,0,0,0,0,0,0,0,0,0,-1,1490,1086,0,0
273,-62,0,0,0,0,0,0,0,0,0,-1,1497,1086,0,0
280,-62,0,0,0,0,0,0,0,0,0,-1,1504,1086,0,0
287,-62,0,0,0,0,0,0,0,0,0,-1,1511,1086,0,0
294,-62,0,0,0,0,0,0,0,0,0,-1,1518,1086,0,0
301,-62,0,0,0,0,0,0,0,0,0,-1,1525,1086,0,0
308,-62,0,0,0,0,0,0,0,0,0,-1,1532,1086,0,0
315,-62,0,0,0,0,0,0,0,0,0,-1,1539,1086,0,0
322,-62,0,0,0,0,0,0,0,0,0,-1,1546,1086,0,0
329,-62,0,0,0,0,0,0,0,0,0,-1,1553,1086,0,0
336,-62,0,0,0,0,0,0,0,0,0,-1,1560,1086,0,0
343,-62,0,0,0,0,0,0,0,0,0,-1,1567,1086,0,0
350,-62,0,0,0,0,0,0,0,0,0,-1,1574,1086,0,0
357,-62,0,0,0,0,0,0,0,0,0,-1,1581,1086,0,0
364,-62,0,0,0,0,0,0,0,0,0,-1,1588,1086,0,0
371,-62,0,0,0,0,0,0,0,0,0,-1,1595,1086,0,0
378,-62,0,0,0,0,0,0,0,0,0,-1,1602,1086,0,0
385,-62,0,0,0,0,0,0,0,0,0,-1,1609,1086,0,0
392,-62,0,0,0,0,0,0,0,0,0,-1,1616,1086,0,0
399,-62,0,0,0,0,0,0,0,0,0,-1,1623,1086,0,0
406,-62,0,0,0,0,0,0,0,0,0,-1,1630,1086,0,0
413,-62,0,0,0,0,0,0,0,0,0,-1,1637,1086,0,0
420,-62,0,0,0,0,0,0,0,0,0,-1,1644,1086,0,0
427,-62,0,0,0,0,0,0,0,0,0,-1,1651,1086,0,0
434,-62,0,0,0,0,0,0,0,0,0,-1,1658,1086,0,0
441,-62,0,0,0,0,0,0,0,0,0,-1,1665,1086,0,0
448,-62,0,0,0,0,0,0,0,0,0,-1,1672,1086,0,0
455,-62,0,0,0,0,0,0,0,0,0,-1,1679,1086,0,0
462,-62,0,0,0,0,0,0,0,0,0,-1,1686,1086,0,0
469,-62,0,0,0,0,0,0,0,0,0,-1,1693,1086,0,0
476,-62,0,0,0,0,0,0,0,0,0,-1,1700,1086,0,0
483,-62,0,0,0,0,0,0,0,0,0,-1,1707,1086,0,0
490,-62,0,0,0,0,0,0,0,0,0,-1,1714,1086,0,0
497,-62,0,0,0,0,0,0,0,0,0,-1,1721,1086,0,0
504,-62,0,0,0,0,0,0,0,0,0,-1,1728,1086,0,0
511,-62,0,0,0,0,0,0,0,0,0,-1,1735,1086,0,0
518,-62,0,0,0,0,0,0,0,0,0,-1,1742,1086,0,0
525,-62,0,0,0,0,0,0,0,0,0,-1,1749,1086,0,0
532,-62,0,0,0,0,0,0,0,0,0,-1,1756,1086,0,0
539,-62,0,0,0,0,0,0,0,0,0,-1,1763,1086,0,0
546,-62,0,0,0,0,0,0,0,0,0,-1,1770,1086,0,0
553,-62,0,0,0,0,0,0,0,0,0,-1,1777,1086,0,0
560,-62,0,0,0,0,0,0,0,0,0,-1,1784,1086,0,0
567,-62,0,0,0,0,0,0,0,0,0,-1,1791,1086,0,0
574,-62,0,0,0,0,0,0,0,0,0,-1,1798,1086,0,0
581,-62,0,0,0,0,0,0,0,0,0,-1,1805,1086,0,0
588,-62,0,0,0,0,0,0,0,0,0,-1,1812,1086,0,0
595,-62,0,0,0,0,0,0,0,0,0,-1,1819,1086,0,0
602,-62,0,0,0,0,0,0,0,0,0,-1,1826,1086,0,0
609,-62,0,0,0,0,0,0,0,0,0,-1,1833,1086,0,0
616,-62,0,0,0,0,0,0,0,0,0,-1,1840,1086,0,0
623,-62,0,0,0,0,0,0,0,0,0,-1,1847,1086,0,0
630,-62,0,0,0,0,0,0,0,0,0,-1,1854,1086,0,0
637,-62,0,0,0,0,0,0,0,0,0,-1,1861,1086,0,0
644,-62,0,0,0,0,0,0,0,0,0,-1,1868,1086,0,0
651,-62,71.6012,2.1698,-0.000439047,-0.00116664,0.00247106,0.00169486,-0.00330054,0.712312,0.00293334,0.0425101,1875,1086,71.6012,-2.16981
658,-62,71.6213,2.34131,7.80119e-05,-0.00113473,0.00157229,0.0011568,-0.00221352,0.601356,0.00197748,0.0414271,1882,1086,71.6213,-2.34131
665,-62,71.5073,2.42883,0.000312404,-0.00099616,0.000980932,0.000837237,-0.00152099,0.491281,0.00138047,0.0381221,1889,1086,71.5073,-2.42879
672,-62,71.4017,2.33142,0.000522193,-0.000885446,0.000666614,0.000787774,-0.00115103,0.379128,0.0011259,0.0375027,1896,1086,71.4017,-2.33136
679,-62,71.5475,2.27539,0.000674933,-0.000728638,0.00050257,0.000836328,-0.000890032,0.310735,0.000996875,0.0368205,1903,1086,71.5475,-2.27535
686,-62,71.6803,2.46582,0.000508511,-0.000858911,0.000500543,0.000672151,-0.00102255,0.315972,0.000985383,0.0383038,1910,1086,71.6803,-2.46579
693,-62,71.7083,2.40259,0.00026486,-0.00110718,0.000700843,0.000559556,-0.00140188,0.398042,0.00116672,0.0373529,1917,1086,71.7083,-2.40255
700,-62,71.6862,2.25232,0.000113057,-0.00123945,0.00103411,0.000672399,-0.00179879,0.495825,0.00147532,0.0309751,1924,1086,71.6861,-2.25229
707,-62,71.5743,2.18945,-0.000234425,-0.00108573,0.00129594,0.000703975,-0.00202413,0.626723,0.00163539,0.025151,1931,1086,71.5744,-2.1895
714,-62,71.5931,2.18579,-0.000880481,-0.000741171,0.0016078,0.000798486,-0.00242014,0.807046,0.0019353,0.0415579,1938,1086,71.5932,-2.18583
721,-62,71.6219,2.20374,0,0,0,0,0,0,0,-1,1945,1086,71.6219,-2.20376
728,-62,69.4591,8.2677,0,0,0,0,0,0,0,-1,1952,1086,69.4591,-8.26765
735,-62,69.3834,7.70068,-0.0035353,0.00161763,0.00259709,0.00269945,-0.00461713,1.1761,0.00427232,0.0322794,1959,1086,69.3835,-7.7007
742,-62,69.325,7.33984,-0.00465799,0.00293735,0.00263596,0.00376252,-0.00548315,1.26742,0.00536871,0.0328805,1966,1086,69.3249,-7.33984
749,-62,69.2992,6.91785,-0.00569819,0.00437667,0.0027802,0.00509295,-0.00641447,1.31864,0.0066584,0.0242434,1973,1086,69.2992,-6.91779
756,-62,69.1897,6.56909,-0.00674366,0.006728,0.00232273,0.00711723,-0.00713289,1.40476,0.00822731,0.0157576,1980,1086,69.1897,-6.56906
763,-62,69.1423,6.12769,-0.00794552,0.0109624,0.000927005,0.0110078,-0.00799086,1.52193,0.0110149,0.0182239,1987,1086,69.1422,-6.12763
770,-62,69.0881,5.67603,-0.00931605,0.0163416,-0.00119732,0.0163973,-0.00937181,-1.52427,0.015061,0.0162019,1994,1086,69.0882,-5.67598
777,-62,68.937,5.22278,-0.010434,0.0229194,-0.00427169,0.0234578,-0.0109724,-1.44542,0.0203092,0.0165212,2001,1086,68.9371,-5.2228
784,-62,68.8345,4.76367,-0.0112815,0.0303382,-0.0082435,0.0319115,-0.0128548,-1.38221,0.026615,0.0286285,2008,1086,68.8344,-4.76366
791,-62,68.0728,4.64758,-0.0118835,0.0389495,-0.013556,0.0423386,-0.0152726,-1.32581,0.0344637,0.0424444,2015,1086,68.0727,-4.64754
798,-62,67.4253,4.4137,0,0,0,0,0,0,0,-1,2022,1086,67.4252,-4.41375
805,-62,66.9827,4.07092,-0.0108604,0.0615915,-0.0297024,0.0722116,-0.0214805,-1.22741,0.0566747,0.0468263,2029,1086,66.9827,-4.07098
812,-62,67.1399,0.65564,-0.00913277,0.0766948,-0.0413484,0.0933737,-0.0258116,-1.18739,0.0724032,0.0483602,2036,1086,67.1399,-0.655672
-700,-69,-56.8384,1.61536,0,0,0,0,0,0,0,-1,524,1093,-56.8384,-1.61534
-693,-69,-43.6682,-3.46033,0,0,0,0,0,0,0,-1,531,1093,-43.6682,3.46031
-686,-69,-49.6094,-0.845581,0,0,0,0,0,0,0,-1,538,1093,-49.6094,0.845531
-679,-69,-51.2531,-1.20007,0,0,0,0,0,0,0,-1,545,1093,-51.2531,1.20003
-672,-69,-51.4138,-1.12695,0,0,0,0,0,0,0,-1,552,1093,-51.4138,1.12697
-665,-69,-51.6999,0.380249,0,0,0,0,0,0,0,-1,559,1093,-51.6999,-0.380297
-658,-69,-52.1047,1.58105,0,0,0,0,0,0,0,-1,566,1093,-52.1047,-1.58107
-651,-69,-51.7712,2.88599,0,0,0,0,0,0,0,-1,573,1093,-51.7712,-2.88598
-644,-69,-53.101,3.44055,0,0,0,0,0,0,0,-1,580,1093,-53.101,-3.44053
-637,-69,-53.0965,3.96863,-0.00384744,0.00645369,0.00667879,0.00973726,-0.00713101,1.11386,0.00977757,0.0188931,587,1093,-53.0965,-3.9686
-630,-69,-53.1355,4.41528,-0.00231373,0.00512879,0.00383241,0.00674936,-0.00393429,1.17074,0.00623918,0.0157134,594,1093,-53.1355,-4.41527
-623,-69,-53.1347,4.90039,-0.00111518,0.0037984,0.0016822,0.00431913,-0.00163591,1.2706,0.00355258,0.0195576,601,1093,-53.1347,-4.90042
-616,-69,-53.154,5.37695,-0.000407693,0.00235293,-0.000127092,0.00235877,-0.000413532,-1.52489,0.00172694,0.0245549,608,1093,-53.154,-5.3769
-609,-69,-53.1625,5.81543,-4.31872e-05,0.000979681,-0.00139075,0.00195005,-0.00101356,-0.961593,0.00173929,0.0217157,615,1093,-53.1625,-5.81548
-602,-69,-53.1093,6.27893,0.000478516,-0.000528067,-0.0019816,0.00201974,-0.00206929,-0.661036,0.00236086,0.0202633,622,1093,-53.1093,-6.27894
-595,-69,-52.9971,6.68982,0.000709597,-0.00130864,-0.00237482,0.0022808,-0.00287984,-0.584495,0.00298618,0.0465411,629,1093,-52.997,-6.68981
-588,-69,-53.0241,7.08704,0,0,0,0,0,0,0,-1,636,1093,-53.0241,-7.08706
-581,-69,-55.3064,0.501343,0,0,0,0,0,0,0,-1,643,1093,-55.3064,-0.501342
-574,-69,-55.4076,0.49707,0.00170741,-0.00218485,-0.00186416,0.00245619,-0.00293362,-0.381944,0.00311588,0.0329698,650,1093,-55.4076,-0.49712
-567,-69,-55.4592,0.511841,0.00169495,-0.00193567,-0.00154989,0.00226659,-0.0025073,-0.353345,0.00275737,0.03957,657,1093,-55.4592,-0.511802
-560,-69,-55.4933,0.623779,0.00138445,-0.00136478,-0.00109444,0.00176693,-0.00174726,-0.336204,0.00202892,0.0412501,664,1093,-55.4934,-0.623757
-553,-69,-55.4598,0.50708,0.00082048,-0.000552714,-0.000424126,0.000940914,-0.000673148,-0.276674,0.000936144,0.0369501,671,1093,-55.4598,-0.507024
-546,-69,-55.4253,0.299438,0.000484317,0.000268266,0.000502243,0.00089002,-0.000137437,0.679469,0.000644066,0.0354124,678,1093,-55.4253,-0.299439
-539,-69,-55.3731,0.428711,0.000932365,0.000441333,0.00164215,0.00234725,-0.000973549,0.711193,0.00197118,0.0390436,685,1093,-55.3731,-0.428689
-532,-69,-55.2462,0.587769,0.00174976,0.000651507,0.00270917,0.00396489,-0.00156363,0.685407,0.00329072,0.0419349,692,1093,-55.2461,-0.58775
-525,-69,0,0,0,0,0,0,0,0,0,-1,699,1093,0,0
-518,-69,0,0,0,0,0,0,0,0,0,-1,706,1093,0,0
-511,-69,0,0,0,0,0,0,0,0,0,-1,713,1093,0,0
-504,-69,0,0,0,0,0,0,0,0,0,-1,720,1093,0,0
-497,-69,0,0,0,0,0,0,0,0,0,-1,727,1093,0,0
-490,-69,0,0,0,0,0,0,0,0,0,-1,734,1093,0,0
-483,-69,0,0,0,0,0,0,0,0,0,-1,741,1093,0,0
-476,-69,0,0,0,0,0,0,0,0,0,-1,748,1093,0,0
-469,-69,0,0,0,0,0,0,0,0,0,-1,755,1093,0,0
-462,-69,0,0,0,0,0,0,0,0,0,-1,762,1093,0,0
-455,-69,0,0,0,0,0,0,0,0,0,-1,769,1093,0,0
-448,-69,0,0,0,0,0,0,0,0,0,-1,776,1093,0,0
-441,-69,0,0,0,0,0,0,0,0,0,-1,783,1093,0,0
-434,-69,0,0,0,0,0,0,0,0,0,-1,790,1093,0,0
-427,-69,0,0,0,0,0,0,0,0,0,-1,797,1093,0,0
-420,-69,0,0,0,0,0,0,0,0,0,-1,804,1093,0,0
-413,-69,0,0,0,0,0,0,0,0,0,-1,811,1093,0,0
-406,-69,0,0,0,0,0,0,0,0,0,-1,818,1093,0,0
-399,-69,0,0,0,0,0,0,0,0,0,-1,825,1093,0,0
-392,-69,0,0,0,0,0,0,0,0,0,-1,832,1093,0,0
-385,-69,0,0,0,0,0,0,0,0,0,-1,839,1093,0,0
-378,-69,0,0,0,0,0,0,0,0,0,-1,846,1093,0,0
-371,-69,0,0,0,0,0,0,0,0,0,-1,853,1093,0,0
-364,-69,0,0,0,0,0,0,0,0,0,-1,860,1093,0,0
-357,-69,0,0,0,0,0,0,0,0,0,-1,867,1093,0,0
-350,-69,0,0,0,0,0,0,0,0,0,-1,874,1093,0,0
-343,-69,0,0,0,0,0,0,0,0,0,-1,881,1093,0,0
-336,-69,0,0,0,0,0,0,0,0,0,-1,888,1093,0,0
-329,-69,0,0,0,0,0,0,0,0,0,-1,895,1093,0,0
-322,-69,0,0,0,0,0,0,0,0,0,-1,902,1093,0,0
-315,-69,0,0,0,0,0,0,0,0,0,-1,909,1093,0,0
-308,-69,0,0,0,0,0,0,0,0,0,-1,916,1093,0,0
-301,-69,0,0,0,0,0,0,0,0,0,-1,923,1093,0,0
-294,-69,0,0,0,0,0,0,0,0,0,-1,930,1093,0,0
-287,-69,0,0,0,0,0,0,0,0,0,-1,937,1093,0,0
-280,-69,0,0,0,0,0,0,0,0,0,-1,944,1093,0,0
-273,-69,0,0,0,0,0,0,0,0,0,-1,951,1093,0,0
-266,-69,0,0,0,0,0,0,0,0,0,-1,958,1093,0,0
-259,-69,0,0,0,0,0,0,0,0,0,-1,965,1093,0,0
-252,-69,0,0,0,0,0,0,0,0,0,-1,972,1093,0,0
-245,-69,0,0,0,0,0,0,0,0,0,-1,979,1093,0,0
-238,-69,0,0,0,0,0,0,0,0,0,-1,986,1093,0,0
-231,-69,0,0,0,0,0,0,0,0,0,-1,993,1093,0,0
-224,-69,0,0,0,0,0,0,0,0,0,-1,1000,1093,0,0
-217,-69,0,0,0,0,0,0,0,0,0,-1,1007,1093,0,0
-210,-69,0,0,0,0,0,0,0,0,0,-1,1014,1093,0,0
-203,-69,0,0,0,0,0,0,0,0,0,-1,1021,1093,0,0
-196,-69,0,0,0,0,0,0,0,0,0,-1,1028,1093,0,0
-189,-69,0,0,0,0,0,0,0,0,0,-1,1035,1093,0,0
-182,-69,0,0,0,0,0,0,0,0,0,-1,1042,1093,0,0
-175,-69,0,0,0,0,0,0,0,0,0,-1,1049,1093,0,0
-168,-69,0,0,0,0,0,0,0,0,0,-1,1056,1093,0,0
-161,-69,0,0,0,0,0,0,0,0,0,-1,1063,1093,0,0
-154,-69,0,0,0,0,0,0,0,0,0,-1,1070,1093,0,0
-147,-69,0,0,0,0,0,0,0,0,0,-1,1077,1093,0,0
-140,-69,0,0,0,0,0,0,0,0,0,-1,1084,1093,0,0
-133,-69,0,0,0,0,0,0,0,0,0,-1,1091,1093,0,0
-126,-69,0,0,0,0,0,0,0,0,0,-1,1098,1093,0,0
-119,-69,0,0,0,0,0,0,0,0,0,-1,1105,1093,0,0
-112,-69,0,0,0,0,0,0,0,0,0,-1,1112,1093,0,0
-105,-69,0,0,0,0,0,0,0,0,0,-1,1119,1093,0,0
-98,-69,0,0,0,0,0,0,0,0,0,-1,1126,1093,0,0
-91,-69,0,0,0,0,0,0,0,0,0,-1,1133,1093,0,0
-84,-69,0,0,0,0,0,0,0,0,0,-1,1140,1093,0,0
-77,-69,0,0,0,0,0,0,0,0,0,-1,1147,1093,0,0
-70,-69,0,0,0,0,0,0,0,0,0,-1,1154,1093,0,0
-63,-69,0,0,0,0,0,0,0,0,0,-1,1161,1093,0,0
-56,-69,0,0,0,0,0,0,0,0,0,-1,1168,1093,0,0
-49,-69,0,0,0,0,0,0,0,0,0,-1,1175,1093,0,0
-42,-69,0,0,0,0,0,0,0,0,0,-1,1182,1093,0,0
-35,-69,0,0,0,0,0,0,0,0,0,-1,1189,1093,0,0
-28,-69,0,0,0,0,0,0,0,0,0,-1,1196,1093,0,0
-21,-69,0,0,0,0,0,0,0,0,0,-1,1203,1093,0,0
-14,-69,0,0,0,0,0,0,0,0,0,-1,1210,1093,0,0
-7,-69,0,0,0,0,0,0,0,0,0,-1,1217,1093,0,0
0,-69,0,0,0,0,0,0,0,0,0,-1,1224,1093,0,0
7,-69,0,0,0,0,0,0,0,0,0,-1,1231,1093,0,0
14,-69,0,0,0,0,0,0,0,0,0,-1,1238,1093,0,0
21,-69,0,0,0,0,0,0,0,0,0,-1,1245,1093,0,0
28,-69,0,0,0,0,0,0,0,0,0,-1,1252,1093,0,0
35,-69,0,0,0,0,0,0,0,0,0,-1,1259,1093,0,0
42,-69,0,0,0,0,0,0,0,0,0,-1,1266,1093,0,0
49,-69,0,0,0,0,0,0,0,0,0,-1,1273,1093,0,0
56,-69,0,0,0,0,0,0,0,0,0,-1,1280,1093,0,0
63,-69,0,0,0,0,0,0,0,0,0,-1,1287,1093,0,0
70,-69,0,0,0,0,0,0,0,0,0,-1,1294,1093,0,0
77,-69,0,0,0,0,0,0,0,0,0,-1,1301,1093,0,0
84,-69,0,0,0,0,0,0,0,0,0,-1,1308,1093,0,0
91,-69,0,0,0,0,0,0,0,0,0,-1,1315,1093,0,0
98,-69,0,0,0,0,0,0,0,0,0,-1,1322,1093,0,0
105,-69,0,0,0,0,0,0,0,0,0,-1,1329,1093,0,0
112,-69,0,0,0,0,0,0,0,0,0,-1,1336,1093,0,0
119,-69,0,0,0,0,0,0,0,0,0,-1,1343,1093,0,0
126,-69,0,0,0,0,0,0,0,0,0,-1,1350,1093,0,0
133,-69,0,0,0,0,0,0,0,0,0,-1,1357,1093,0,0
140,-69,0,0,0,0,0,0,0,0,0,-1,1364,1093,0,0
147,-69,0,0,0,0,0,0,0,0,0,-1,1371,1093,0,0
154,-69,0,0,0,0,0,0,0,0,0,-1,1378,1093,0,0
161,-69,0,0,0,0,0,0,0,0,0,-1,1385,1093,0,0
168,-69,0,0,0,0,0,0,0,0,0,-1,1392,1093,0,0
175,-69,0,0,0,0,0,0,0,0,0,-1,1399,1093,0,0
182,-69,0,0,0,0,0,0,0,0,0,-1,1406,1093,0,0
189,-69,0,0,0,0,0,0,0,0,0,-1,1413,1093,0,0
196,-69,0,0,0,0,0,0,0,0,0,-1,1420,1093,0,0
203,-69,0,0,0,0,0,0,0,0,0,-1,1427,1093,0,0
210,-69,0,0,0,0,0,0,0,0,0,-1,1434,1093,0,0
217,-69,0,0,0,0,0,0,0,0,0,-1,1441,1093,0,0
224,-69,0,0,0,0,0,0,0,0,0,-1,1448,1093,0,0
231,-69,0,0,0,0,0,0,0,0,0,-1,1455,1093,0,0
238,-69,0,0,0,0,0,0,0,0,0,-1,1462,1093,0,0
245,-69,0,0,0,0,0,0,0,0,0,-1,1469,1093,0,0
252,-69,0,0,0,0,0,0,0,0,0,-1,1476,1093,0,0
259,-69,0,0,0,0,0,0,0,0,0,-1,1483,1093,0,0
266,-69,0,0,0,0,0,0,0,0,0,-1,1490,1093,0,0
273,-69,0,0,0,0,0,0,0,0,0,-1,1497,1093,0,0
280,-69,0,0,0,0,0,0,0,0,0,-1,1504,1093,0,0
287,-69,0,0,0,0,0,0,0,0,0,-1,1511,1093,0,0
294,-69,0,0,0,0,0,0,0,0,0,-1,1518,1093,0,0
301,-69,0,0,0,0,0,0,0,0,0,-1,1525,1093,0,0
308,-69,0,0,0,0,0,0,0,0,0,-1,1532,1093,0,0
315,-69,0,0,0,0,0,0,0,0,0,-1,1539,1093,0,0
322,-69,0,0,0,0,0,0,0,0,0,-1,1546,1093,0,0
329,-69,0,0,0,0,0,0,0,0,0,-1,1553,1093,0,0
336,-69,0,0,0,0,0,0,0,0,0,-1,1560,1093,0,0
343,-69,0,0,0,0,0,0,0,0,0,-1,1567,1093,0,0
350,-69,0,0,0,0,0,0,0,0,0,-1,1574,1093,0,0
357,-69,0,0,0,0,0,0,0,0,0,-1,1581,1093,0,0
364,-69,0,0,0,0,0,0,0,0,0,-1,1588,1093,0,0
371,-69,0,0,0,0,0,0,0,0,0,-1,1595,1093,0,0
378,-69,0,0,0,0,0,0,0,0,0,-1,1602,1093,0,0
385,-69,0,0,0,0,0,0,0,0,0,-1,1609,1093,0,0
392,-69,0,0,0,0,0,0,0,0,0,-1,1616,1093,0,0
399,-69,0,0,0,0,0,0,0,0,0,-1,1623,1093,0,0
406,-69,0,0,0,0,0,0,0,0,0,-1,1630,1093,0,0
413,-69,0,0,0,0,0,0,0,0,0,-1,1637,1093,0,0
420,-69,0,0,0,0,0,0,0,0,0,-1,1644,1093,0,0
427,-69,0,0,0,0,0,0,0,0,0,-1,1651,1093,0,0
434,-69,0,0,0,0,0,0,0,0,0,-1,1658,1093,0,0
441,-69,0,0,0,0,0,0,0,0,0,-1,1665,1093,0,0
448,-69,0,0,0,0,0,0,0,0,0,-1,1672,1093,0,0
455,-69,0,0,0,0,0,0,0,0,0,-1,1679,1093,0,0
462,-69,0,0,0,0,0,0,0,0,0,-1,1686,1093,0,0
469,-69,0,0,0,0,0,0,0,0,0,-1,1693,1093,0,0
476,-69,0,0,0,0,0,0,0,0,0,-1,1700,1093,0,0
483,-69,0,0,0,0,0,0,0,0,0,-1,1707,1093,0,0
490,-69,0,0,0,0,0,0,0,0,0,-1,1714,1093,0,0
497,-69,0,0,0,0,0,0,0,0,0,-1,1721,1093,0,0
504,-69,0,0,0,0,0,0,0,0,0,-1,1728,1093,0,0
511,-69,0,0,0,0,0,0,0,0,0,-1,1735,1093,0,0
518,-69,0,0,0,0,0,0,0,0,0,-1,1742,1093,0,0
525,-69,0,0,0,0,0,0,0,0,0,-1,1749,1093,0,0
532,-69,0,0,0,0,0,0,0,0,0,-1,1756,1093,0,0
539,-69,0,0,0,0,0,0,0,0,0,-1,1763,1093,0,0
546,-69,0,0,0,0,0,0,0,0,0,-1,1770,1093,0,0
553,-69,0,0,0,0,0,0,0,0,0,-1,1777,1093,0,0
560,-69,0,0,0,0,0,0,0,0,0,-1,1784,1093,0,0
567,-69,0,0,0,0,0,0,0,0,0,-1,1791,1093,0,0
574,-69,0,0,0,0,0,0,0,0,0,-1,1798,1093,0,0
581,-69,0,0,0,0,0,0,0,0,0,-1,1805,1093,0,0
588,-69,0,0,0,0,0,0,0,0,0,-1,1812,1093,0,0
595,-69,0,0,0,0,0,0,0,0,0,-1,1819,1093,0,0
602,-69,0,0,0,0,0,0,0,0,0,-1,1826,1093,0,0
609,-69,0,0,0,0,0,0,0,0,0,-1,1833,1093,0,0
616,-69,0,0,0,0,0,0,0,0,0,-1,1840,1093,0,0
623,-69,0,0,0,0,0,0,0,0,0,-1,1847,1093,0,0
630,-69,0,0,0,0,0,0,0,0,0,-1,1854,1093,0,0
637,-69,0,0,0,0,0,0,0,0,0,-1,1861,1093,0,0
644,-69,0,0,0,0,0,0,0,0,0,-1,1868,1093,0,0
651,-69,71.5917,2.07593,0,0,0,0,0,0,0,-1,1875,1093,71.5917,-2.07597
658,-69,71.3788,1.64868,0,0,0,0,0,0,0,-1,1882,1093,71.3788,-1.64869
665,-69,71.3948,2.3988,0.000974522,-0.00167361,0.000710874,0.00115328,-0.00185237,0.24636,0.00175089,0.0402566,1889,1093,71.3948,-2.39879
672,-69,71.333,2.3877,0.00106251,-0.00144125,0.000471263,0.00114828,-0.00152702,0.180018,0.00154973,0.0355889,1896,1093,71.333,-2.38772
679,-69,71.4829,2.33203,0.00110639,-0.00117013,0.000346583,0.00115798,-0.00122172,0.147783,0.00137409,0.0354808,1903,1093,71.4829,-2.332
686,-69,71.6563,2.29114,0.000899884,-0.00118493,0.000350976,0.000957384,-0.00124243,0.162387,0.00127361,0.0391955,1910,1093,71.6563,-2.29119
693,-69,71.6404,2.24548,0.000640062,-0.00135746,0.000534223,0.000773961,-0.00149136,0.245582,0.00132957,0.0383091,1917,1093,71.6403,-2.24545
700,-69,71.6019,2.146,0.000488859,-0.00143424,0.000830214,0.000797677,-0.00174306,0.356115,0.00150036,0.0312341,1924,1093,71.602,-2.14601
707,-69,71.5806,2.20398,0.000174212,-0.00123313,0.00108026,0.00075977,-0.00181869,0.496722,0.00152995,0.0258893,1931,1093,71.5806,-2.20396
714,-69,71.5939,2.21973,-0.000446432,-0.000884267,0.00139743,0.00074912,-0.00207982,0.707701,0.00169245,0.0374709,1938,1093,71.5939,-2.21969
721,-69,71.6271,2.25684,0,0,0,0,0,0,0,-1,1945,1093,71.627,-2.25681
728,-69,68.5028,8.43384,0,0,0,0,0,0,0,-1,1952,1093,68.5028,-8.43389
735,-69,68.7946,7.90808,-0.00298665,0.00129067,0.00239293,0.00236136,-0.00405734,1.15007,0.00374871,0.0460247,1959,1093,68.7945,-7.90813
742,-69,68.7863,7.50146,-0.00413147,0.00257911,0.00247034,0.00339042,-0.00494278,1.25347,0.00483893,0.0346131,1966,1093,68.7863,-7.50152
749,-69,68.6074,6.99292,-0.005234,0.00396243,0.00267309,0.00468295,-0.00595453,1.30751,0.00615616,0.0354487,1973,1093,68.6074,-6.99294
756,-69,68.6851,6.53674,-0.00637786,0.00618523,0.00235848,0.0066134,-0.00680603,1.39121,0.00774798,0.0183439,1980,1093,68.685,-6.53668
763,-69,68.6428,6.0708,-0.0076966,0.0102236,0.0011074,0.0102918,-0.00776477,1.50931,0.0104589,0.019874,1987,1093,68.6428,-6.07079
770,-69,68.5317,5.66296,-0.00927095,0.0153811,-0.000845176,0.0154101,-0.00929989,-1.53657,0.014411,0.0212075,1994,1093,68.5317,-5.66299
777,-69,68.384,5.23755,-0.0105707,0.0215786,-0.00371748,0.0220028,-0.010995,-1.45716,0.0194014,0.0256239,2001,1093,68.384,-5.23756
784,-69,68.3423,4.67212,-0.0115157,0.028569,-0.00754008,0.0299404,-0.0128871,-1.39088,0.0253715,0.0344531,2008,1093,68.3422,-4.67214
791,-69,68.3916,4.0813,-0.0120608,0.0366443,-0.01281,0.0398079,-0.0152244,-1.32867,0.0328127,0.0490902,2015,1093,68.3916,-4.08124
798,-69,68.4263,3.50146,0,0,0,0,0,0,0,-1,2022,1093,68.4262,-3.50147
805,-69,66.4321,3.61731,0,0,0,0,0,0,0,-1,2029,1093,66.4321,-3.61729
812,-69,66.3987,0.127319,0,0,0,0,0,0,0,-1,2036,1093,66.3986,-0.127346
-700,-76,0,0,0,0,0,0,0,0,0,-1,524,1100,0,0
-693,-76,-50.641,-1.61731,0,0,0,0,0,0,0,-1,531,1100,-50.641,1.61727
-686,-76,-49.949,-0.435669,0.060851,0.0510144,-0.037624,0.0938768,0.0179885,-0.720405,0.0575335,0.0465391,538,1100,-49.949,0.43564
-679,-76,-51.5727,-0.508789,0.0409914,0.0391102,-0.0237366,0.063806,0.0162955,-0.765595,0.0382797,0.0474366,545,1100,-51.5727,0.508835
-672,-76,-51.393,-0.656006,0.0267157,0.0298681,-0.0137549,0.0421368,0.014447,-0.842445,0.0247249,0.0465662,552,1100,-51.393,0.655988
-665,-76,-50.5992,-0.180786,0,0,0,0,0,0,0,-1,559,1100,-50.5992,0.180763
-658,-76,-51.7432,1.48462,0,0,0,0,0,0,0,-1,566,1100,-51.7432,-1.48463
-651,-76,-51.2521,3.36804,0,0,0,0,0,0,0,-1,573,1100,-51.2521,-3.36805
-644,-76,-52.1705,3.52344,-0.00407078,0.00989386,0.00355853,0.0107484,-0.00492529,1.33513,0.00925502,0.0470317,580,1100,-52.1705,-3.52346
-637,-76,-52.503,3.86804,-0.00603215,0.00352962,0.00550751,0.00604185,-0.00854438,1.14284,0.00846258,0.023579,587,1100,-52.503,-3.86808
-630,-76,-52.5452,4.35864,-0.00399537,0.00319034,0.00288373,0.00420449,-0.00500952,1.23263,0.00532648,0.0156187,594,1100,-52.5452,-4.35864
-623,-76,-52.57,4.84973,-0.00234248,0.00251553,0.00108963,0.00274873,-0.00257569,1.35996,0.0030746,0.0210507,601,1100,-52.57,-4.84973
-616,-76,-52.6442,5.39832,-0.00133096,0.00164014,-0.000448262,0.0017063,-0.00139711,-1.42427,0.00179472,0.021843,608,1100,-52.6441,-5.3983
-609,-76,-52.6578,5.88086,-0.000836143,0.000581518,-0.00148901,0.00152181,-0.00177643,-1.00755,0.00190613,0.0215799,615,1100,-52.6578,-5.88088
-602,-76,-52.5612,6.36401,-0.000168898,-0.000675285,-0.00191195,0.00150655,-0.00235073,-0.719568,0.00224471,0.0204331,622,1100,-52.5611,-6.36396
-595,-76,-52.5604,6.82544,0.000192443,-0.00128501,-0.00223391,0.00180661,-0.00289917,-0.625715,0.00274118,0.0419596,629,1100,-52.5604,-6.82541
-588,-76,-52.7109,7.33032,0,0,0,0,0,0,0,-1,636,1100,-52.7109,-7.33037
-581,-76,-55.3469,0.481079,0,0,0,0,0,0,0,-1,643,1100,-55.3468,-0.481096
-574,-76,-55.4131,0.534668,0.00155058,-0.0021679,-0.001728,0.0022296,-0.00284692,-0.374414,0.00293814,0.0358283,650,1100,-55.4131,-0.534677
-567,-76,-55.1563,0.332031,0.00172287,-0.0019944,-0.00145966,0.00222752,-0.00249906,-0.332868,0.00273039,0.0404415,657,1100,-55.1562,-0.332082
-560,-76,-55.5146,0.642334,0.0016101,-0.00150973,-0.00106671,0.00193995,-0.00183958,-0.299894,0.00218237,0.0412385,664,1100,-55.5146,-0.64237
-553,-76,-55.3991,0.709229,0.00115087,-0.000735406,-0.000483975,0.0012678,-0.000852335,-0.237058,0.00123187,0.0427226,671,1100,-55.3991,-0.709272
-546,-76,-55.4098,0.58252,0.000936489,0.000112776,0.000372301,0.00107982,-3.05553e-05,0.367498,0.000730278,0.0419265,678,1100,-55.4098,-0.582537
-539,-76,-55.3807,0.356323,0.00164311,0.000419874,0.00145566,0.00261042,-0.000547436,0.586513,0.00194856,0.0399558,685,1100,-55.3807,-0.356305
-532,-76,-55.1623,0.453613,0.00276962,0.000764976,0.00246986,0.0044328,-0.0008982,0.592641,0.00329565,0.0416023,692,1100,-55.1623,-0.453648
-525,-76,0,0,0,0,0,0,0,0,0,-1,699,1100,0,0
-518,-76,0,0,0,0,0,0,0,0,0,-1,706,1100,0,0
-511,-76,0,0,0,0,0,0,0,0,0,-1,713,1100,0,0
-504,-76,0,0,0,0,0,0,0,0,0,-1,720,1100,0,0
-497,-76,0,0,0,0,0,0,0,0,0,-1,727,1100,0,0
-490,-76,0,0,0,0,0,0,0,0,0,-1,734,1100,0,0
-483,-76,0,0,0,0,0,0,0,0,0,-1,741,1100,0,0
-476,-76,0,0,0,0,0,0,0,0,0,-1,748,1100,0,0
-469,-76,0,0,0,0,0,0,0,0,0,-1,755,1100,0,0
-462,-76,0,0,0,0,0,0,0,0,0,-1,762,1100,0,0
-455,-76,0,0,0,0,0,0,0,0,0,-1,769,1100,0,0
-448,-76,0,0,0,0,0,0,0,0,0,-1,776,1100,0,0
-441,-76,0,0,0,0,0,0,0,0,0,-1,783,1100,0,0
-434,-76,0,0,0,0,0,0,0,0,0,-1,790,1100,0,0
-427,-76,0,0,0,0,0,0,0,0,0,-1,797,1100,0,0
-420,-76,0,0,0,0,0,0,0,0,0,-1,804,1100,0,0
-413,-76,0,0,0,0,0,0,0,0,0,-1,811,1100,0,0
-406,-76,0,0,0,0,0,0,0,0,0,-1,818,1100,0,0
-399,-76,0,0,0,0,0,0,0,0,0,-1,825,1100,0,0
-392,-76,0,0,0,0,0,0,0,0,0,-1,832,1100,0,0
-385,-76,0,0,0,0,0,0,0,0,0,-1,839,1100,0,0
-378,-76,0,0,0,0,0,0,0,0,0,-1,846,1100,0,0
-371,-76,0,0,0,0,0,0,0,0,0,-1,853,1100,0,0
-364,-76,0,0,0,0,0,0,0,0,0,-1,860,1100,0,0
-357,-76,0,0,0,0,0,0,0,0,0,-1,867,1100,0,0
-350,-76,0,0,0,0,0,0,0,0,0,-1,874,1100,0,0
-343,-76,0,0,0,0,0,0,0,0,0,-1,881,1100,0,0
-336,-76,0,0,0,0,0,0,0,0,0,-1,888,1100,0,0
-329,-76,0,0,0,0,0,0,0,0,0,-1,895,1100,0,0
-322,-76,0,0,0,0,0,0,0,0,0,-1,902,1100,0,0
-315,-76,0,0,0,0,0,0,0,0,0,-1,909,1100,0,0
-308,-76,0,0,0,0,0,0,0,0,0,-1,916,1100,0,0
-301,-76,0,0,0,0,0,0,0,0,0,-1,923,1100,0,0
-294,-76,0,0,0,0,0,0,0,0,0,-1,930,1100,0,0
-287,-76,0,0,0,0,0,0,0,0,0,-1,937,1100,0,0
-280,-76,0,0,0,0,0,0,0,0,0,-1,944,1100,0,0
-273,-76,0,0,0,0,0,0,0,0,0,-1,951,1100,0,0
-266,-76,0,0,0,0,0,0,0,0,0,-1,958,1100,0,0
-259,-76,0,0,0,0,0,0,0,0,0,-1,965,1100,0,0
-252,-76,0,0,0,0,0,0,0,0,0,-1,972,1100,0,0
-245,-76,0,0,0,0,0,0,0,0,0,-1,979,1100,0,0
-238,-76,0,0,0,0,0,0,0,0,0,-1,986,1100,0,0
-231,-76,0,0,0,0,0,0,0,0,0,-1,993,1100,0,0
-224,-76,0,0,0,0,0,0,0,0,0,-1,1000,1100,0,0
-217,-76,0,0,0,0,0,0,0,0,0,-1,1007,1100,0,0
-210,-76,0,0,0,0,0,0,0,0,0,-1,1014,1100,0,0
-203,-76,0,0,0,0,0,0,0,0,0,-1,1021,1100,0,0
-196,-76,0,0,0,0,0,0,0,0,0,-1,1028,1100,0,0
-189,-76,0,0,0,0,0,0,0,0,0,-1,1035,1100,0,0
-182,-76,0,0,0,0,0,0,0,0,0,-1,1042,1100,0,0
-175,-76,0,0,0,0,0,0,0,0,0,-1,1049,1100,0,0
-168,-76,0,0,0,0,0,0,0,0,0,-1,1056,1100,0,0
-161,-76,0,0,0,0,0,0,0,0,0,-1,1063,1100,0,0
-154,-76,0,0,0,0,0,0,0,0,0,-1,1070,1100,0,0
-147,-76,0,0,0,0,0,0,0,0,0,-1,1077,1100,0,0
-140,-76,0,0,0,0,0,0,0,0,0,-1,1084,1100,0,0
-133,-76,0,0,0,0,0,0,0,0,0,-1,1091,1100,0,0
-126,-76,0,0,0,0,0,0,0,0,0,-1,1098,1100,0,0
-119,-76,0,0,0,0,0,0,0,0,0,-1,1105,1100,0,0
-112,-76,0,0,0,0,0,0,0,0,0,-1,1112,1100,0,0
-105,-76,0,0,0,0,0,0,0,0,0,-1,1119,1100,0,0
-98,-76,0,0,0,0,0,0,0,0,0,-1,1126,1100,0,0
-91,-76,0,0,0,0,0,0,0,0,0,-1,1133,1100,0,0
-84,-76,0,0,0,0,0,0,0,0,0,-1,1140,1100,0,0
-77,-76,0,0,0,0,0,0,0,0,0,-1,1147,1100,0,0
-70,-76,0,0,0,0,0,0,0,0,0,-1,1154,1100,0,0
-63,-76,0,0,0,0,0,0,0,0,0,-1,1161,1100,0,0
-56,-76,0,0,0,0,0,0,0,0,0,-1,1168,1100,0,0
-49,-76,0,0,0,0,0,0,0,0,0,-1,1175,1100,0,0
-42,-76,0,0,0,0,0,0,0,0,0,-1,1182,1100,0,0
-35,-76,0,0,0,0,0,0,0,0,0,-1,1189,1100,0,0
-28,-76,0,0,0,0,0,0,0,0,0,-1,1196,1100,0,0
-21,-76,0,0,0,0,0,0,0,0,0,-1,1203,1100,0,0
-14,-76,0,0,0,0,0,0,0,0,0,-1,1210,1100,0,0
-7,-76,0,0,0,0,0,0,0,0,0,-1,1217,1100,0,0
0,-76,0,0,0,0,0,0,0,0,0,-1,1224,1100,0,0
7,-76,0,0,0,0,0,0,0,0,0,-1,1231,1100,0,0
14,-76,0,0,0,0,0,0,0,0,0,-1,1238,1100,0,0
21,-76,0,0,0,0,0,0,0,0,0,-1,1245,1100,0,0
28,-76,0,0,0,0,0,0,0,0,0,-1,1252,1100,0,0
35,-76,0,0,0,0,0,0,0,0,0,-1,1259,1100,0,0
42,-76,0,0,0,0,0,0,0,0,0,-1,1266,1100,0,0
49,-76,0,0,0,0,0,0,0,0,0,-1,1273,1100,0,0
56,-76,0,0,0,0,0,0,0,0,0,-1,1280,1100,0,0
63,-76,0,0,0,0,0,0,0,0,0,-1,1287,1100,0,0
70,-76,0,0,0,0,0,0,0,0,0,-1,1294,1100,0,0
77,-76,0,0,0,0,0,0,0,0,0,-1,1301,1100,0,0
84,-76,0,0,0,0,0,0,0,0,0,-1,1308,1100,0,0
91,-76,0,0,0,0,0,0,0,0,0,-1,1315,1100,0,0
98,-76,0,0,0,0,0,0,0,0,0,-1,1322,1100,0,0
105,-76,0,0,0,0,0,0,0,0,0,-1,1329,1100,0,0
112,-76,0,0,0,0,0,0,0,0,0,-1,1336,1100,0,0
119,-76,0,0,0,0,0,0,0,0,0,-1,1343,1100,0,0
126,-76,0,0,0,0,0,0,0,0,0,-1,1350,1100,0,0
133,-76,0,0,0,0,0,0,0,0,0,-1,1357,1100,0,0
140,-76,0,0,0,0,0,0,0,0,0,-1,1364,1100,0,0
147,-76,0,0,0,0,0,0,0,0,0,-1,1371,1100,0,0
154,-76,0,0,0,0,0,0,0,0,0,-1,1378,1100,0,0
161,-76,0,0,0,0,0,0,0,0,0,-1,1385,1100,0,0
168,-76,0,0,0,0,0,0,0,0,0,-1,1392,1100,0,0
175,-76,0,0,0,0,0,0,0,0,0,-1,1399,1100,0,0
182,-76,0,0,0,0,0,0,0,0,0,-1,1406,1100,0,0
189,-76,0,0,0,0,0,0,0,0,0,-1,1413,1100,0,0
196,-76,0,0,0,0,0,0,0,0,0,-1,1420,1100,0,0
203,-76,0,0,0,0,0,0,0,0,0,-1,1427,1100,0,0
210,-76,0,0,0,0,0,0,0,0,0,-1,1434,1100,0,0
217,-76,0,0,0,0,0,0,0,0,0,-1,1441,1100,0,0
224,-76,0,0,0,0,0,0,0,0,0,-1,1448,1100,0,0
231,-76,0,0,0,0,0,0,0,0,0,-1,1455,1100,0,0
238,-76,0,0,0,0,0,0,0,0,0,-1,1462,1100,0,0
245,-76,0,0,0,0,0,0,0,0,0,-1,1469,1100,0,0
252,-76,0,0,0,0,0,0,0,0,0,-1,1476,1100,0,0
259,-76,0,0,0,0,0,0,0,0,0,-1,1483,1100,0,0
266,-76,0,0,0,0,0,0,0,0,0,-1,1490,1100,0,0
273,-76,0,0,0,0,0,0,0,0,0,-1,1497,1100,0,0
280,-76,0,0,0,0,0,0,0,0,0,-1,1504,1100,0,0
287,-76,0,0,0,0,0,0,0,0,0,-1,1511,1100,0,0
294,-76,0,0,0,0,0,0,0,0,0,-1,1518,1100,0,0
301,-76,0,0,0,0,0,0,0,0,0,-1,1525,1100,0,0
308,-76,0,0,0,0,0,0,0,0,0,-1,1532,1100,0,0
315,-76,0,0,0,0,0,0,0,0,0,-1,1539,1100,0,0
322,-76,0,0,0,0,0,0,0,0,0,-1,1546,1100,0,0
329,-76,0,0,0,0,0,0,0,0,0,-1,1553,1100,0,0
336,-76,0,0,0,0,0,0,0,0,0,-1,1560,1100,0,0
343,-76,0,0,0,0,0,0,0,0,0,-1,1567,1100,0,0
350,-76,0,0,0,0,0,0,0,0,0,-1,1574,1100,0,0
357,-76,0,0,0,0,0,0,0,0,0,-1,1581,1100,0,0
364,-76,0,0,0,0,0,0,0,0,0,-1,1588,1100,0,0
371,-76,0,0,0,0,0,0,0,0,0,-1,1595,1100,0,0
378,-76,0,0,0,0,0,0,0,0,0,-1,1602,1100,0,0
385,-76,0,0,0,0,0,0,0,0,0,-1,1609,1100,0,0
392,-76,0,0,0,0,0,0,0,0,0,-1,1616,1100,0,0
399,-76,0,0,0,0,0,0,0,0,0,-1,1623,1100,0,0
406,-76,0,0,0,0,0,0,0,0,0,-1,1630,1100,0,0
413,-76,0,0,0,0,0,0,0,0,0,-1,1637,1100,0,0
420,-76,0,0,0,0,0,0,0,0,0,-1,1644,1100,0,0
427,-76,0,0,0,0,0,0,0,0,0,-1,1651,1100,0,0
434,-76,0,0,0,0,0,0,0,0,0,-1,1658,1100,0,0
441,-76,0,0,0,0,0,0,0,0,0,-1,1665,1100,0,0
448,-76,0,0,0,0,0,0,0,0,0,-1,1672,1100,0,0
455,-76,0,0,0,0,0,0,0,0,0,-1,1679,1100,0,0
462,-76,0,0,0,0,0,0,0,0,0,-1,1686,1100,0,0
469,-76,0,0,0,0,0,0,0,0,0,-1,1693,1100,0,0
476,-76,0,0,0,0,0,0,0,0,0,-1,1700,1100,0,0
483,-76,0,0,0,0,0,0,0,0,0,-1,1707,1100,0,0
490,-76,0,0,0,0,0,0,0,0,0,-1,1714,1100,0,0
497,-76,0,0,0,0,0,0,0,0,0,-1,1721,1100,0,0
504,-76,0,0,0,0,0,0,0,0,0,-1,1728,1100,0,0
511,-76,0,0,0,0,0,0,0,0,0,-1,1735,1100,0,0
518,-76,0,0,0,0,0,0,0,0,0,-1,1742,1100,0,0
525,-76,0,0,0,0,0,0,0,0,0,-1,1749,1100,0,0
532,-76,0,0,0,0,0,0,0,0,0,-1,1756,1100,0,0
539,-76,0,0,0,0,0,0,0,0,0,-1,1763,1100,0,0
546,-76,0,0,0,0,0,0,0,0,0,-1,1770,1100,0,0
553,-76,0,0,0,0,0,0,0,0,0,-1,1777,1100,0,0
560,-76,0,0,0,0,0,0,0,0,0,-1,1784,1100,0,0
567,-76,0,0,0,0,0,0,0,0,0,-1,1791,1100,0,0
574,-76,0,0,0,0,0,0,0,0,0,-1,1798,1100,0,0
581,-76,0,0,0,0,0,0,0,0,0,-1,1805,1100,0,0
588,-76,0,0,0,0,0,0,0,0,0,-1,1812,1100,0,0
595,-76,0,0,0,0,0,0,0,0,0,-1,1819,1100,0,0
602,-76,0,0,0,0,0,0,0,0,0,-1,1826,1100,0,0
609,-76,0,0,0,0,0,0,0,0,0,-1,1833,1100,0,0
616,-76,0,0,0,0,0,0,0,0,0,-1,1840,1100,0,0
623,-76,0,0,0,0,0,0,0,0,0,-1,1847,1100,0,0
630,-76,0,0,0,0,0,0,0,0,0,-1,1854,1100,0,0
637,-76,0,0,0,0,0,0,0,0,0,-1,1861,1100,0,0
644,-76,0,0,0,0,0,0,0,0,0,-1,1868,1100,0,0
651,-76,71.6838,1.92261,0.00127661,-0.00319391,0.000887061,0.00144619,-0.00336349,0.188894,0.00284946,0.0411521,1875,1100,71.6839,-1.92255
658,-76,71.5455,2.00476,0,0,0,0,0,0,0,-1,1882,1100,71.5456,-2.00482
665,-76,71.3951,2.34351,0.00146516,-0.00250906,0.00028188,0.00148506,-0.00252895,0.070457,0.00234347,0.0358449,1889,1100,71.3952,-2.34351
672,-76,71.3783,2.33301,0.00145099,-0.00216671,0.000153462,0.00145749,-0.0021732,0.0423184,0.00210972,0.032975,1896,1100,71.3783,-2.33305
679,-76,71.49,2.17896,0.00143065,-0.00179072,0.000103493,0.00143397,-0.00179404,0.0320831,0.00186755,0.034945,1903,1100,71.49,-2.17898
686,-76,71.634,2.02405,0.00126555,-0.0016861,0.000139296,0.00127211,-0.00169266,0.0470533,0.00171744,0.0370799,1910,1100,71.6341,-2.02407
693,-76,71.6334,2.0426,0.00106209,-0.00173629,0.000327892,0.0011,-0.0017742,0.115095,0.00167457,0.0391325,1917,1100,71.6335,-2.04262
700,-76,71.5731,2.08728,0.000954699,-0.00172459,0.000601033,0.00108335,-0.00185324,0.210866,0.00171475,0.0338385,1924,1100,71.5731,-2.08727
707,-76,71.5717,2.23584,0.000706045,-0.00144129,0.000842842,0.000997347,-0.0017326,0.332767,0.00159507,0.0269639,1931,1100,71.5717,-2.23586
714,-76,71.6058,2.26453,0,0,0,0,0,0,0,-1,1938,1100,71.6059,-2.26453
721,-76,45.1713,3.04919,0,0,0,0,0,0,0,-1,1945,1100,45.1713,-3.04915
728,-76,60.937,8.08447,0,0,0,0,0,0,0,-1,1952,1100,60.937,-8.08446
735,-76,68.3177,8.11914,0,0,0,0,0,0,0,-1,1959,1100,68.3177,-8.11911
742,-76,68.2175,7.57385,-0.00332841,0.00235744,0.00224768,0.00313864,-0.0041096,1.2363,0.00419727,0.0360824,1966,1100,68.2175,-7.57386
749,-76,68.097,7.02087,-0.00448789,0.00367973,0.00248262,0.00437514,-0.0051833,1.29769,0.00552514,0.0332059,1973,1100,68.097,-7.02091
756,-76,68.1624,6.51636,-0.00573339,0.00575877,0.00227065,0.00619115,-0.00616576,1.38263,0.00713427,0.018508,1980,1100,68.1624,-6.51632
763,-76,68.0854,6.02832,-0.00718848,0.00954404,0.00116702,0.00962504,-0.00726948,1.5015,0.00978561,0.018945,1987,1100,68.0854,-6.02834
770,-76,67.9504,5.60364,-0.00894643,0.0143238,-0.000601866,0.0143394,-0.00896199,-1.54496,0.0135719,0.0197386,1994,1100,67.9505,-5.60365
777,-76,67.8108,5.25537,-0.0104005,0.01992,-0.00323348,0.020261,-0.0107415,-1.46573,0.0181784,0.023244,2001,1100,67.8108,-5.2554
784,-76,67.8093,4.63086,-0.0114132,0.0262299,-0.00683619,0.0274329,-0.0126162,-1.3966,0.023644,0.0335542,2008,1100,67.8092,-4.63081
791,-76,68.0776,3.55432,-0.0118335,0.0334528,-0.0119285,0.0364027,-0.0147834,-1.32837,0.0304182,0.042373,2015,1100,68.0776,-3.55433
798,-76,66.7915,3.42944,0,0,0,0,0,0,0,-1,2022,1100,66.7916,-3.42943
805,-76,65.9702,3.40869,0,0,0,0,0,0,0,-1,2029,1100,65.9702,-3.40872
812,-76,65.1787,3.36487,0,0,0,0,0,0,0,-1,2036,1100,65.1787,-3.36484
-700,-83,0,0,0,0,0,0,0,0,0,-1,524,1107,0,0
-693,-83,-50.8297,-1.04614,0.0705284,0.051942,-0.0495145,0.111614,0.0108561,-0.692634,0.0710677,0.0439549,531,1107,-50.8297,1.04619
-686,-83,-50.5901,-0.245605,0.0437821,0.035873,-0.0308756,0.0709554,0.00869971,-0.721706,0.0446869,0.0451751,538,1107,-50.5901,0.245598
-679,-83,-51.2645,0.163086,0.026381,0.0250569,-0.0185021,0.0442329,0.00720498,-0.767514,0.0274045,0.0454476,545,1107,-51.2645,-0.163082
-672,-83,-51.3167,-0.15271,0.014572,0.0175313,-0.00994911,0.0261102,0.00599312,-0.859216,0.0157928,0.0437138,552,1107,-51.3167,0.152686
-665,-83,-50.8913,0.25647,0.00643069,0.0123568,-0.00412998,0.0144767,0.00431079,-1.09657,0.00858296,0.0475949,559,1107,-50.8913,-0.256429
-658,-83,-51.5033,1.66357,0,0,0,0,0,0,0,-1,566,1107,-51.5033,-1.66357
-651,-83,-51.5873,2.40161,0,0,0,0,0,0,0,-1,573,1107,-51.5873,-2.40158
-644,-83,-51.6865,3.39758,-0.00754588,0.00496419,0.00340824,0.00583247,-0.00841415,1.32134,0.00827019,0.0334678,580,1107,-51.6865,-3.39764
-637,-83,-51.916,3.81226,-0.0081894,0.00107299,0.00445486,0.00286781,-0.00998422,1.1878,0.00779008,0.0160383,587,1107,-51.916,-3.81221
-630,-83,-51.9525,4.354,-0.00565191,0.00174238,0.00197225,0.00223554,-0.00614507,1.32577,0.00501096,0.0177192,594,1107,-51.9524,-4.35397
-623,-83,-51.9908,4.8374,-0.00358597,0.00155018,0.000465916,0.0015921,-0.0036279,1.48106,0.00308922,0.020546,601,1107,-51.9908,-4.83737
-616,-83,-52.1263,5.37927,-0.00227483,0.00108566,-0.000811273,0.00127126,-0.00246043,-1.34589,0.00219066,0.0178546,608,1107,-52.1264,-5.3793
-609,-83,-52.0963,5.87549,-0.0016624,0.00030302,-0.00158518,0.00118539,-0.00254477,-1.06287,0.00220076,0.023148,615,1107,-52.0963,-5.87552
-602,-83,-52.0507,6.46021,-0.000892819,-0.00067122,-0.00183166,0.00105299,-0.00261703,-0.815607,0.00218208,0.0196136,622,1107,-52.0507,-6.46021
-595,-83,-51.9827,7.00574,-0.000455089,-0.00110278,-0.00210007,0.00134596,-0.00290383,-0.708897,0.00250797,0.0315944,629,1107,-51.9827,-7.00578
-588,-83,-52.1044,7.45654,0,0,0,0,0,0,0,-1,636,1107,-52.1044,-7.45658
-581,-83,-55.3977,0.552246,0,0,0,0,0,0,0,-1,643,1107,-55.3977,-0.552228
-574,-83,-55.2883,0.437622,0.00130492,-0.00206686,-0.00160434,0.00194628,-0.00270823,-0.380309,0.00269926,0.0369538,650,1107,-55.2883,-0.437678
-567,-83,-55.1999,0.310791,0.00171818,-0.0019862,-0.00138849,0.00218083,-0.00244885,-0.321637,0.00267444,0.0423914,657,1107,-55.1999,-0.310742
-560,-83,-55.1524,0.22522,0.00187115,-0.00160546,-0.00107035,0.00217425,-0.00190857,-0.275957,0.00235888,0.0422034,664,1107,-55.1524,-0.225185
-553,-83,-55.312,0.662231,0,0,0,0,0,0,0,-1,671,1107,-55.312,-0.662221
-546,-83,-55.3594,0.619873,0.00140985,-6.78684e-05,0.000166602,0.0014284,-8.64188e-05,0.110889,0.000982338,0.0412548,678,1107,-55.3594,-0.619883
-539,-83,-55.3545,0.49939,0.00229438,0.000281602,0.00120145,0.00285525,-0.00027927,0.43676,0.00200309,0.0421002,685,1107,-55.3545,-0.49938
-532,-83,-55.267,0.434937,0.00364648,0.000645366,0.00220173,0.00481037,-0.000518528,0.486286,0.00339299,0.0443806,692,1107,-55.267,-0.434911
-525,-83,0,0,0,0,0,0,0,0,0,-1,699,1107,0,0
-518,-83,0,0,0,0,0,0,0,0,0,-1,706,1107,0,0
-511,-83,0,0,0,0,0,0,0,0,0,-1,713,1107,0,0
-504,-83,0,0,0,0,0,0,0,0,0,-1,720,1107,0,0
-497,-83,0,0,0,0,0,0,0,0,0,-1,727,1107,0,0
-490,-83,0,0,0,0,0,0,0,0,0,-1,734,1107,0,0
-483,-83,0,0,0,0,0,0,0,0,0,-1,741,1107,0,0
-476,-83,0,0,0,0,0,0,0,0,0,-1,748,1107,0,0
-469,-83,0,0,0,0,0,0,0,0,0,-1,755,1107,0,0
-462,-83,0,0,0,0,0,0,0,0,0,-1,762,1107,0,0
-455,-83,0,0,0,0,0,0,0,0,0,-1,769,1107,0,0
-448,-83,0,0,0,0,0,0,0,0,0,-1,776,1107,0,0
-441,-83,0,0,0,0,0,0,0,0,0,-1,783,1107,0,0
-434,-83,0,0,0,0,0,0,0,0,0,-1,790,1107,0,0
-427,-83,0,0,0,0,0,0,0,0,0,-1,797,1107,0,0
-420,-83,0,0,0,0,0,0,0,0,0,-1,804,1107,0,0
-413,-83,0,0,0,0,0,0,0,0,0,-1,811,1107,0,0
-406,-83,0,0,0,0,0,0,0,0,0,-1,818,1107,0,0
-399,-83,0,0,0,0,0,0,0,0,0,-1,825,1107,0,0
-392,-83,0,0,0,0,0,0,0,0,0,-1,832,1107,0,0
-385,-83,0,0,0,0,0,0,0,0,0,-1,839,1107,0,0
-378,-83,0,0,0,0,0,0,0,0,0,-1,846,1107,0,0
-371,-83,0,0,0,0,0,0,0,0,0,-1,853,1107,0,0
-364,-83,0,0,0,0,0,0,0,0,0,-1,860,1107,0,0
-357,-83,0,0,0,0,0,0,0,0,0,-1,867,1107,0,0
-350,-83,0,0,0,0,0,0,0,0,0,-1,874,1107,0,0
-343,-83,0,0,0,0,0,0,0,0,0,-1,881,1107,0,0
-336,-83,0,0,0,0,0,0,0,0,0,-1,888,1107,0,0
-329,-83,0,0,0,0,0,0,0,0,0,-1,895,1107,0,0
-322,-83,0,0,0,0,0,0,0,0,0,-1,902,1107,0,0
-315,-83,0,0,0,0,0,0,0,0,0,-1,909,1107,0,0
-308,-83,0,0,0,0,0,0,0,0,0,-1,916,1107,0,0
-301,-83,0,0,0,0,0,0,0,0,0,-1,923,1107,0,0
-294,-83,0,0,0,0,0,0,0,0,0,-1,930,1107,0,0
-287,-83,0,0,0,0,0,0,0,0,0,-1,937,1107,0,0
-280,-83,0,0,0,0,0,0,0,0,0,-1,944,1107,0,0
-273,-83,0,0,0,0,0,0,0,0,0,-1,951,1107,0,0
-266,-83,0,0,0,0,0,0,0,0,0,-1,958,1107,0,0
-259,-83,0,0,0,0,0,0,0,0,0,-1,965,1107,0,0
-252,-83,0,0,0,0,0,0,0,0,0,-1,972,1107,0,0
-245,-83,0,0,0,0,0,0,0,0,0,-1,979,1107,0,0
-238,-83,0,0,0,0,0,0,0,0,0,-1,986,1107,0,0
-231,-83,0,0,0,0,0,0,0,0,0,-1,993,1107,0,0
-224,-83,0,0,0,0,0,0,0,0,0,-1,1000,1107,0,0
-217,-83,0,0,0,0,0,0,0,0,0,-1,1007,1107,0,0
-210,-83,0,0,0,0,0,0,0,0,0,-1,1014,1107,0,0
-203,-83,0,0,0,0,0,0,0,0,0,-1,1021,1107,0,0
-196,-83,0,0,0,0,0,0,0,0,0,-1,1028,1107,0,0
-189,-83,0,0,0,0,0,0,0,0,0,-1,1035,1107,0,0
-182,-83,0,0,0,0,0,0,0,0,0,-1,1042,1107,0,0
-175,-83,0,0,0,0,0,0,0,0,0,-1,1049,1107,0,0
-168,-83,0,0,0,0,0,0,0,0,0,-1,1056,1107,0,0
-161,-83,0,0,0,0,0,0,0,0,0,-1,1063,1107,0,0
-154,-83,0,0,0,0,0,0,0,0,0,-1,1070,1107,0,0
-147,-83,0,0,0,0,0,0,0,0,0,-1,1077,1107,0,0
-140,-83,0,0,0,0,0,0,0,0,0,-1,1084,1107,0,0
-133,-83,0,0,0,0,0,0,0,0,0,-1,1091,1107,0,0
-126,-83,0,0,0,0,0,0,0,0,0,-1,1098,1107,0,0
-119,-83,0,0,0,0,0,0,0,0,0,-1,1105,1107,0,0
-112,-83,0,0,0,0,0,0,0,0,0,-1,1112,1107,0,0
-105,-83,0,0,0,0,0,0,0,0,0,-1,1119,1107,0,0
-98,-83,0,0,0,0,0,0,0,0,0,-1,1126,1107,0,0
-91,-83,0,0,0,0,0,0,0,0,0,-1,1133,1107,0,0
-84,-83,0,0,0,0,0,0,0,0,0,-1,1140,1107,0,0
-77,-83,0,0,0,0,0,0,0,0,0,-1,1147,1107,0,0
-70,-83,0,0,0,0,0,0,0,0,0,-1,1154,1107,0,0
-63,-83,0,0,0,0,0,0,0,0,0,-1,1161,1107,0,0
-56,-83,0,0,0,0,0,0,0,0,0,-1,1168,1107,0,0
-49,-83,0,0,0,0,0,0,0,0,0,-1,1175,1107,0,0
-42,-83,0,0,0,0,0,0,0,0,0,-1,1182,1107,0,0
-35,-83,0,0,0,0,0,0,0,0,0,-1,1189,1107,0,0
-28,-83,0,0,0,0,0,0,0,0,0,-1,1196,1107,0,0
-21,-83,0,0,0,0,0,0,0,0,0,-1,1203,1107,0,0
-14,-83,0,0,0,0,0,0,0,0,0,-1,1210,1107,0,0
-7,-83,0,0,0,0,0,0,0,0,0,-1,1217,1107,0,0
0,-83,0,0,0,0,0,0,0,0,0,-1,1224,1107,0,0
7,-83,0,0,0,0,0,0,0,0,0,-1,1231,1107,0,0
14,-83,0,0,0,0,0,0,0,0,0,-1,1238,1107,0,0
21,-83,0,0,0,0,0,0,0,0,0,-1,1245,1107,0,0
28,-83,0,0,0,0,0,0,0,0,0,-1,1252,1107,0,0
35,-83,0,0,0,0,0,0,0,0,0,-1,1259,1107,0,0
42,-83,0,0,0,0,0,0,0,0,0,-1,1266,1107,0,0
49,-83,0,0,0,0,0,0,0,0,0,-1,1273,1107,0,0
56,-83,0,0,0,0,0,0,0,0,0,-1,1280,1107,0,0
63,-83,0,0,0,0,0,0,0,0,0,-1,1287,1107,0,0
70,-83,0,0,0,0,0,0,0,0,0,-1,1294,1107,0,0
77,-83,0,0,0,0,0,0,0,0,0,-1,1301,1107,0,0
84,-83,0,0,0,0,0,0,0,0,0,-1,1308,1107,0,0
91,-83,0,0,0,0,0,0,0,0,0,-1,1315,1107,0,0
98,-83,0,0,0,0,0,0,0,0,0,-1,1322,1107,0,0
105,-83,0,0,0,0,0,0,0,0,0,-1,1329,1107,0,0
112,-83,0,0,0,0,0,0,0,0,0,-1,1336,1107,0,0
119,-83,0,0,0,0,0,0,0,0,0,-1,1343,1107,0,0
126,-83,0,0,0,0,0,0,0,0,0,-1,1350,1107,0,0
133,-83,0,0,0,0,0,0,0,0,0,-1,1357,1107,0,0
140,-83,0,0,0,0,0,0,0,0,0,-1,1364,1107,0,0
147,-83,0,0,0,0,0,0,0,0,0,-1,1371,1107,0,0
154,-83,0,0,0,0,0,0,0,0,0,-1,1378,1107,0,0
161,-83,0,0,0,0,0,0,0,0,0,-1,1385,1107,0,0
168,-83,0,0,0,0,0,0,0,0,0,-1,1392,1107,0,0
175,-83,0,0,0,0,0,0,0,0,0,-1,1399,1107,0,0
182,-83,0,0,0,0,0,0,0,0,0,-1,1406,1107,0,0
189,-83,0,0,0,0,0,0,0,0,0,-1,1413,1107,0,0
196,-83,0,0,0,0,0,0,0,0,0,-1,1420,1107,0,0
203,-83,0,0,0,0,0,0,0,0,0,-1,1427,1107,0,0
210,-83,0,0,0,0,0,0,0,0,0,-1,1434,1107,0,0
217,-83,0,0,0,0,0,0,0,0,0,-1,1441,1107,0,0
224,-83,0,0,0,0,0,0,0,0,0,-1,1448,1107,0,0
231,-83,0,0,0,0,0,0,0,0,0,-1,1455,1107,0,0
238,-83,0,0,0,0,0,0,0,0,0,-1,1462,1107,0,0
245,-83,0,0,0,0,0,0,0,0,0,-1,1469,1107,0,0
252,-83,0,0,0,0,0,0,0,0,0,-1,1476,1107,0,0
259,-83,0,0,0,0,0,0,0,0,0,-1,1483,1107,0,0
266,-83,0,0,0,0,0,0,0,0,0,-1,1490,1107,0,0
273,-83,0,0,0,0,0,0,0,0,0,-1,1497,1107,0,0
280,-83,0,0,0,0,0,0,0,0,0,-1,1504,1107,0,0
287,-83,0,0,0,0,0,0,0,0,0,-1,1511,1107,0,0
294,-83,0,0,0,0,0,0,0,0,0,-1,1518,1107,0,0
301,-83,0,0,0,0,0,0,0,0,0,-1,1525,1107,0,0
308,-83,0,0,0,0,0,0,0,0,0,-1,1532,1107,0,0
315,-83,0,0,0,0,0,0,0,0,0,-1,1539,1107,0,0
322,-83,0,0,0,0,0,0,0,0,0,-1,1546,1107,0,0
329,-83,0,0,0,0,0,0,0,0,0,-1,1553,1107,0,0
336,-83,0,0,0,0,0,0,0,0,0,-1,1560,1107,0,0
343,-83,0,0,0,0,0,0,0,0,0,-1,1567,1107,0,0
350,-83,0,0,0,0,0,0,0,0,0,-1,1574,1107,0,0
357,-83,0,0,0,0,0,0,0,0,0,-1,1581,1107,0,0
364,-83,0,0,0,0,0,0,0,0,0,-1,1588,1107,0,0
371,-83,0,0,0,0,0,0,0,0,0,-1,1595,1107,0,0
378,-83,0,0,0,0,0,0,0,0,0,-1,1602,1107,0,0
385,-83,0,0,0,0,0,0,0,0,0,-1,1609,1107,0,0
392,-83,0,0,0,0,0,0,0,0,0,-1,1616,1107,0,0
399,-83,0,0,0,0,0,0,0,0,0,-1,1623,1107,0,0
406,-83,0,0,0,0,0,0,0,0,0,-1,1630,1107,0,0
413,-83,0,0,0,0,0,0,0,0,0,-1,1637,1107,0,0
420,-83,0,0,0,0,0,0,0,0,0,-1,1644,1107,0,0
427,-83,0,0,0,0,0,0,0,0,0,-1,1651,1107,0,0
434,-83,0,0,0,0,0,0,0,0,0,-1,1658,1107,0,0
441,-83,0,0,0,0,0,0,0,0,0,-1,1665,1107,0,0
448,-83,0,0,0,0,0,0,0,0,0,-1,1672,1107,0,0
455,-83,0,0,0,0,0,0,0,0,0,-1,1679,1107,0,0
462,-83,0,0,0,0,0,0,0,0,0,-1,1686,1107,0,0
469,-83,0,0,0,0,0,0,0,0,0,-1,1693,1107,0,0
476,-83,0,0,0,0,0,0,0,0,0,-1,1700,1107,0,0
483,-83,0,0,0,0,0,0,0,0,0,-1,1707,1107,0,0
490,-83,0,0,0,0,0,0,0,0,0,-1,1714,1107,0,0
497,-83,0,0,0,0,0,0,0,0,0,-1,1721,1107,0,0
504,-83,0,0,0,0,0,0,0,0,0,-1,1728,1107,0,0
511,-83,0,0,0,0,0,0,0,0,0,-1,1735,1107,0,0
518,-83,0,0,0,0,0,0,0,0,0,-1,1742,1107,0,0
525,-83,0,0,0,0,0,0,0,0,0,-1,1749,1107,0,0
532,-83,0,0,0,0,0,0,0,0,0,-1,1756,1107,0,0
539,-83,0,0,0,0,0,0,0,0,0,-1,1763,1107,0,0
546,-83,0,0,0,0,0,0,0,0,0,-1,1770,1107,0,0
553,-83,0,0,0,0,0,0,0,0,0,-1,1777,1107,0,0
560,-83,0,0,0,0,0,0,0,0,0,-1,1784,1107,0,0
567,-83,0,0,0,0,0,0,0,0,0,-1,1791,1107,0,0
574,-83,0,0,0,0,0,0,0,0,0,-1,1798,1107,0,0
581,-83,0,0,0,0,0,0,0,0,0,-1,1805,1107,0,0
588,-83,0,0,0,0,0,0,0,0,0,-1,1812,1107,0,0
595,-83,0,0,0,0,0,0,0,0,0,-1,1819,1107,0,0
602,-83,0,0,0,0,0,0,0,0,0,-1,1826,1107,0,0
609,-83,0,0,0,0,0,0,0,0,0,-1,1833,1107,0,0
616,-83,0,0,0,0,0,0,0,0,0,-1,1840,1107,0,0
623,-83,0,0,0,0,0,0,0,0,0,-1,1847,1107,0,0
630,-83,0,0,0,0,0,0,0,0,0,-1,1854,1107,0,0
637,-83,0,0,0,0,0,0,0,0,0,-1,1861,1107,0,0
644,-83,71.5793,2.30164,0.00228095,-0.00376255,0.00037706,0.00230439,-0.00378599,0.0620701,0.00355079,0.0322125,1868,1107,71.5794,-2.30161
651,-83,71.6971,1.91125,0.0021155,-0.00348249,0.000111537,0.00211772,-0.00348471,0.0199139,0.0032665,0.0399549,1875,1107,71.6971,-1.91122
658,-83,71.8997,1.57141,0,0,0,0,0,0,0,-1,1882,1107,71.8997,-1.57136
665,-83,71.4067,2.4115,0.00189139,-0.00279874,-0.000168999,0.00189747,-0.00280483,-0.0359706,0.00273167,0.0393131,1889,1107,71.4068,-2.41153
672,-83,71.443,2.27026,0.00171342,-0.00244466,-0.000212771,0.00172428,-0.00245552,-0.0509928,0.00242549,0.037154,1896,1107,71.4431,-2.2702
679,-83,71.5126,2.04163,0.00158557,-0.00206211,-0.000203082,0.00159684,-0.00207338,-0.055446,0.00212495,0.0385356,1903,1107,71.5125,-2.04164
686,-83,71.6136,1.99561,0.00142328,-0.00192654,-0.00015423,0.00143037,-0.00193363,-0.0459117,0.00194944,0.0354189,1910,1107,71.6137,-1.99559
693,-83,71.6165,2.07947,0.00126087,-0.0019081,3.8721e-05,0.00126134,-0.00190857,0.0122164,0.00184282,0.0351732,1917,1107,71.6164,-2.07952
700,-83,71.6077,2.19934,0.00120623,-0.00184963,0.000295604,0.00123456,-0.00187796,0.0955532,0.00180977,0.0329246,1924,1107,71.6077,-2.19938
707,-83,71.5797,2.23743,0.0010202,-0.00151996,0.000537086,0.0011291,-0.00162886,0.200034,0.00160099,0.0248475,1931,1107,71.5797,-2.23745
714,-83,71.5649,2.17456,0,0,0,0,0,0,0,-1,1938,1107,71.5649,-2.17459
721,-83,49.1162,7.36719,0,0,0,0,0,0,0,-1,1945,1107,49.1162,-7.36721
728,-83,66.6315,8.32141,0,0,0,0,0,0,0,-1,1952,1107,66.6314,-8.32147
735,-83,67.422,8.12903,0,0,0,0,0,0,0,-1,1959,1107,67.422,-8.12906
742,-83,67.5352,7.57361,-0.00259283,0.00213758,0.002,0.00286982,-0.00332508,1.21983,0.00357984,0.0310761,1966,1107,67.5352,-7.57366
749,-83,67.6516,7.03162,-0.00370464,0.00334176,0.00226287,0.00400586,-0.00436875,1.28533,0.0048366,0.020622,1973,1107,67.6516,-7.0316
756,-83,67.6368,6.51282,-0.00499839,0.00521978,0.00213805,0.00564911,-0.00542772,1.37263,0.00639563,0.0183499,1980,1107,67.6368,-6.51277
763,-83,67.5842,5.99841,-0.00649465,0.00856054,0.0012003,0.00865563,-0.00658975,1.49174,0.00882882,0.0134525,1987,1107,67.5843,-5.99847
770,-83,67.478,5.5575,-0.00826663,0.0126673,-0.000331843,0.0126726,-0.00827189,-1.55495,0.0121809,0.0162556,1994,1107,67.478,-5.55746
777,-83,67.321,5.09119,-0.00970557,0.0173251,-0.00265582,0.0175836,-0.00996404,-1.47378,0.0161062,0.017931,2001,1107,67.3212,-5.09117
784,-83,67.1316,4.64111,-0.0106335,0.0225691,-0.00597453,0.0236114,-0.0116758,-1.39807,0.0207579,0.0277029,2008,1107,67.1317,-4.64114
791,-83,66.7454,4.46582,0,0,0,0,0,0,0,-1,2015,1107,66.7454,-4.46577
798,-83,66.2261,2.84644,0,0,0,0,0,0,0,-1,2022,1107,66.2262,-2.84641
805,-83,65.344,2.77173,0,0,0,0,0,0,0,-1,2029,1107,65.344,-2.77178
812,-83,64.4719,2.84497,0,0,0,0,0,0,0,-1,2036,1107,64.472,-2.84498
-700,-90,0,0,0,0,0,0,0,0,0,-1,524,1114,0,0
-693,-90,-50.957,-0.512451,0.0462244,0.0348565,-0.0370059,0.0779803,0.00310053,-0.709196,0.0509848,0.0453287,531,1114,-50.957,0.51243
-686,-90,-51.0978,-0.152832,0.022614,0.0203642,-0.0211592,0.0426782,0.00029999,-0.758841,0.0283527,0.0442566,538,1114,-51.0978,0.152853
-679,-90,-51.2944,0.183594,0.00861255,0.0119369,-0.0113111,0.0217073,-0.00115781,-0.858352,0.0148725,0.0434723,545,1114,-51.2944,-0.183574
-672,-90,-51.3127,0.440308,0.0001636,0.00693951,-0.00497925,0.00957411,-0.002471,-1.08413,0.00734626,0.0429377,552,1114,-51.3128,-0.440269
-665,-90,-51.1764,0.913696,-0.00492129,0.00412659,-0.00100535,0.00423696,-0.00503165,-1.46146,0.00535779,0.0473304,559,1114,-51.1764,-0.913699
-658,-90,-50.9812,1.68982,-0.00773557,0.00270889,0.00129166,0.00286625,-0.00789294,1.44956,0.00643384,0.0499503,566,1114,-50.9812,-1.68984
-651,-90,-51.0995,2.42249,-0.00894474,0.00212228,0.0023198,0.00258887,-0.00941133,1.37231,0.00729201,0.0383121,573,1114,-51.0995,-2.42249
-644,-90,-51.2556,3.12793,-0.0113499,0.00176824,0.00317151,0.00249476,-0.0120764,1.3456,0.00899855,0.0199919,580,1114,-51.2555,-3.12793
-637,-90,-51.3293,3.76709,-0.0105336,-2.02247e-05,0.00330921,0.000934659,-0.0114885,1.28987,0.00798882,0.0156726,587,1114,-51.3293,-3.76706
-630,-90,-51.3743,4.33032,-0.00749116,0.00112279,0.00105374,0.00124982,-0.00761819,1.45082,0.00554257,0.0131065,594,1114,-51.3743,-4.33031
-623,-90,-51.4066,4.8927,-0.00499614,0.00109782,-0.000203382,0.0011046,-0.00500292,-1.53747,0.00375799,0.0134085,601,1114,-51.4066,-4.89267
-616,-90,-51.4726,5.45447,-0.00337425,0.000704351,-0.00123682,0.0010501,-0.00372,-1.29821,0.00289424,0.015185,608,1114,-51.4726,-5.45442
-609,-90,-51.4455,5.99365,-0.00261006,0.000107226,-0.00175221,0.000965822,-0.00346865,-1.11517,0.00269274,0.0239195,615,1114,-51.4455,-5.99363
-602,-90,-51.5515,6.51196,-0.00178777,-0.000590094,-0.00184614,0.000751898,-0.00312976,-0.942231,0.00237712,0.0235866,622,1114,-51.5515,-6.51193
-595,-90,-51.4327,7.17065,-0.00130238,-0.00089222,-0.00204853,0.00096147,-0.00315607,-0.835287,0.00248727,0.0240413,629,1114,-51.4327,-7.17065
-588,-90,-51.5549,7.66663,0,0,0,0,0,0,0,-1,636,1114,-51.5549,-7.66657
-581,-90,-55.3915,0.594849,0,0,0,0,0,0,0,-1,643,1114,-55.3916,-0.594815
-574,-90,-55.3359,0.506836,0.000826271,-0.00198346,-0.00152287,0.00149331,-0.0026505,-0.412841,0.00242332,0.0381303,650,1114,-55.3359,-0.506822
-567,-90,-55.3216,0.42041,0.00151019,-0.00199656,-0.00134653,0.00196758,-0.00245395,-0.32745,0.00255791,0.035999,657,1114,-55.3216,-0.420465
-560,-90,-55.2767,0.31665,0.00198376,-0.0017221,-0.00107368,0.00227236,-0.0020107,-0.262587,0.00247436,0.0383353,664,1114,-55.2767,-0.316614
-553,-90,-55.2175,0.451172,0.00176907,-0.00108536,-0.000680058,0.00192281,-0.0012391,-0.222333,0.0018397,0.0405921,671,1114,-55.2175,-0.451186
-546,-90,-55.2451,0.421875,0.00173873,-0.00034809,9.18252e-05,0.00174276,-0.000352122,0.0438894,0.00129527,0.0427044,678,1114,-55.2451,-0.421852
-539,-90,-55.3193,0.43335,0.00272635,-7.84483e-05,0.00119113,0.00316392,-0.000516025,0.352059,0.00230066,0.0439217,685,1114,-55.3193,-0.43333
-532,-90,-55.3887,0.45459,0.00422893,0.000174792,0.00229365,0.00526288,-0.000859162,0.42351,0.00382726,0.0449644,692,1114,-55.3887,-0.454576
-525,-90,0,0,0,0,0,0,0,0,0,-1,699,1114,0,0
-518,-90,0,0,0,0,0,0,0,0,0,-1,706,1114,0,0
-511,-90,0,0,0,0,0,0,0,0,0,-1,713,1114,0,0
-504,-90,0,0,0,0,0,0,0,0,0,-1,720,1114,0,0
-497,-90,0,0,0,0,0,0,0,0,0,-1,727,1114,0,0
-490,-90,0,0,0,0,0,0,0,0,0,-1,734,1114,0,0
-483,-90,0,0,0,0,0,0,0,0,0,-1,741,1114,0,0
-476,-90,0,0,0,0,0,0,0,0,0,-1,748,1114,0,0
-469,-90,0,0,0,0,0,0,0,0,0,-1,755,1114,0,0
-462,-90,0,0,0,0,0,0,0,0,0,-1,762,1114,0,0
-455,-90,0,0,0,0,0,0,0,0,0,-1,769,1114,0,0
-448,-90,0,0,0,0,0,0,0,0,0,-1,776,1114,0,0
-441,-90,0,0,0,0,0,0,0,0,0,-1,783,1114,0,0
-434,-90,0,0,0,0,0,0,0,0,0,-1,790,1114,0,0
-427,-90,0,0,0,0,0,0,0,0,0,-1,797,1114,0,0
-420,-90,0,0,0,0,0,0,0,0,0,-1,804,1114,0,0
-413,-90,0,0,0,0,0,0,0,0,0,-1,811,1114,0,0
-406,-90,0,0,0,0,0,0,0,0,0,-1,818,1114,0,0
-399,-90,0,0,0,0,0,0,0,0,0,-1,825,1114,0,0
-392,-90,0,0,0,0,0,0,0,0,0,-1,832,1114,0,0
-385,-90,0,0,0,0,0,0,0,0,0,-1,839,1114,0,0
-378,-90,0,0,0,0,0,0,0,0,0,-1,846,1114,0,0
-371,-90,0,0,0,0,0,0,0,0,0,-1,853,1114,0,0
-364,-90,0,0,0,0,0,0,0,0,0,-1,860,1114,0,0
-357,-90,0,0,0,0,0,0,0,0,0,-1,867,1114,0,0
-350,-90,0,0,0,0,0,0,0,0,0,-1,874,1114,0,0
-343,-90,0,0,0,0,0,0,0,0,0,-1,881,1114,0,0
-336,-90,0,0,0,0,0,0,0,0,0,-1,888,1114,0,0
-329,-90,0,0,0,0,0,0,0,0,0,-1,895,1114,0,0
-322,-90,0,0,0,0,0,0,0,0,0,-1,902,1114,0,0
-315,-90,0,0,0,0,0,0,0,0,0,-1,909,1114,0,0
-308,-90,0,0,0,0,0,0,0,0,0,-1,916,1114,0,0
-301,-90,0,0,0,0,0,0,0,0,0,-1,923,1114,0,0
-294,-90,0,0,0,0,0,0,0,0,0,-1,930,1114,0,0
-287,-90,0,0,0,0,0,0,0,0,0,-1,937,1114,0,0
-280,-90,0,0,0,0,0,0,0,0,0,-1,944,1114,0,0
-273,-90,0,0,0,0,0,0,0,0,0,-1,951,1114,0,0
-266,-90,0,0,0,0,0,0,0,0,0,-1,958,1114,0,0
-259,-90,0,0,0,0,0,0,0,0,0,-1,965,1114,0,0
-252,-90,0,0,0,0,0,0,0,0,0,-1,972,1114,0,0
-245,-90,0,0,0,0,0,0,0,0,0,-1,979,1114,0,0
-238,-90,0,0,0,0,0,0,0,0,0,-1,986,1114,0,0
-231,-90,0,0,0,0,0,0,0,0,0,-1,993,1114,0,0
-224,-90,0,0,0,0,0,0,0,0,0,-1,1000,1114,0,0
-217,-90,0,0,0,0,0,0,0,0,0,-1,1007,1114,0,0
-210,-90,0,0,0,0,0,0,0,0,0,-1,1014,1114,0,0
-203,-90,0,0,0,0,0,0,0,0,0,-1,1021,1114,0,0
-196,-90,0,0,0,0,0,0,0,0,0,-1,1028,1114,0,0
-189,-90,0,0,0,0,0,0,0,0,0,-1,1035,1114,0,0
-182,-90,0,0,0,0,0,0,0,0,0,-1,1042,1114,0,0
-175,-90,0,0,0,0,0,0,0,0,0,-1,1049,1114,0,0
-168,-90,0,0,0,0,0,0,0,0,0,-1,1056,1114,0,0
-161,-90,0,0,0,0,0,0,0,0,0,-1,1063,1114,0,0
-154,-90,0,0,0,0,0,0,0,0,0,-1,1070,1114,0,0
-147,-90,0,0,0,0,0,0,0,0,0,-1,1077,1114,0,0
-140,-90,0,0,0,0,0,0,0,0,0,-1,1084,1114,0,0
-133,-90,0,0,0,0,0,0,0,0,0,-1,1091,1114,0,0
-126,-90,0,0,0,0,0,0,0,0,0,-1,1098,1114,0,0
-119,-90,0,0,0,0,0,0,0,0,0,-1,1105,1114,0,0
-112,-90,0,0,0,0,0,0,0,0,0,-1,1112,1114,0,0
-105,-90,0,0,0,0,0,0,0,0,0,-1,1119,1114,0,0
-98,-90,0,0,0,0,0,0,0,0,0,-1,1126,1114,0,0
-91,-90,0,0,0,0,0,0,0,0,0,-1,1133,1114,0,0
-84,-90,0,0,0,0,0,0,0,0,0,-1,1140,1114,0,0
-77,-90,0,0,0,0,0,0,0,0,0,-1,1147,1114,0,0
-70,-90,0,0,0,0,0,0,0,0,0,-1,1154,1114,0,0
-63,-90,0,0,0,0,0,0,0,0,0,-1,1161,1114,0,0
-56,-90,0,0,0,0,0,0,0,0,0,-1,1168,1114,0,0
-49,-90,0,0,0,0,0,0,0,0,0,-1,1175,1114,0,0
-42,-90,0,0,0,0,0,0,0,0,0,-1,1182,1114,0,0
-35,-90,0,0,0,0,0,0,0,0,0,-1,1189,1114,0,0
-28,-90,0,0,0,0,0,0,0,0,0,-1,1196,1114,0,0
-21,-90,0,0,0,0,0,0,0,0,0,-1,1203,1114,0,0
-14,-90,0,0,0,0,0,0,0,0,0,-1,1210,1114,0,0
-7,-90,0,0,0,0,0,0,0,0,0,-1,1217,1114,0,0
0,-90,0,0,0,0,0,0,0,0,0,-1,1224,1114,0,0
7,-90,0,0,0,0,0,0,0,0,0,-1,1231,1114,0,0
14,-90,0,0,0,0,0,0,0,0,0,-1,1238,1114,0,0
21,-90,0,0,0,0,0,0,0,0,0,-1,1245,1114,0,0
28,-90,0,0,0,0,0,0,0,0,0,-1,1252,1114,0,0
35,-90,0,0,0,0,0,0,0,0,0,-1,1259,1114,0,0
42,-90,0,0,0,0,0,0,0,0,0,-1,1266,1114,0,0
49,-90,0,0,0,0,0,0,0,0,0,-1,1273,1114,0,0
56,-90,0,0,0,0,0,0,0,0,0,-1,1280,1114,0,0
63,-90,0,0,0,0,0,0,0,0,0,-1,1287,1114,0,0
70,-90,0,0,0,0,0,0,0,0,0,-1,1294,1114,0,0
77,-90,0,0,0,0,0,0,0,0,0,-1,1301,1114,0,0
84,-90,0,0,0,0,0,0,0,0,0,-1,1308,1114,0,0
91,-90,0,0,0,0,0,0,0,0,0,-1,1315,1114,0,0
98,-90,0,0,0,0,0,0,0,0,0,-1,1322,1114,0,0
105,-90,0,0,0,0,0,0,0,0,0,-1,1329,1114,0,0
112,-90,0,0,0,0,0,0,0,0,0,-1,1336,1114,0,0
119,-90,0,0,0,0,0,0,0,0,0,-1,1343,1114,0,0
126,-90,0,0,0,0,0,0,0,0,0,-1,1350,1114,0,0
133,-90,0,0,0,0,0,0,0,0,0,-1,1357,1114,0,0
140,-90,0,0,0,0,0,0,0,0,0,-1,1364,1114,0,0
147,-90,0,0,0,0,0,0,0,0,0,-1,1371,1114,0,0
154,-90,0,0,0,0,0,0,0,0,0,-1,1378,1114,0,0
161,-90,0,0,0,0,0,0,0,0,0,-1,1385,1114,0,0
168,-90,0,0,0,0,0,0,0,0,0,-1,1392,1114,0,0
175,-90,0,0,0,0,0,0,0,0,0,-1,1399,1114,0,0
182,-90,0,0,0,0,0,0,0,0,0,-1,1406,1114,0,0
189,-90,0,0,0,0,0,0,0,0,0,-1,1413,1114,0,0
196,-90,0,0,0,0,0,0,0,0,0,-1,1420,1114,0,0
203,-90,0,0,0,0,0,0,0,0,0,-1,1427,1114,0,0
210,-90,0,0,0,0,0,0,0,0,0,-1,1434,1114,0,0
217,-90,0,0,0,0,0,0,0,0,0,-1,1441,1114,0,0
224,-90,0,0,0,0,0,0,0,0,0,-1,1448,1114,0,0
231,-90,0,0,0,0,0,0,0,0,0,-1,1455,1114,0,0
238,-90,0,0,0,0,0,0,0,0,0,-1,1462,1114,0,0
245,-90,0,0,0,0,0,0,0,0,0,-1,1469,1114,0,0
252,-90,0,0,0,0,0,0,0,0,0,-1,1476,1114,0,0
259,-90,0,0,0,0,0,0,0,0,0,-1,1483,1114,0,0
266,-90,0,0,0,0,0,0,0,0,0,-1,1490,1114,0,0
273,-90,0,0,0,0,0,0,0,0,0,-1,1497,1114,0,0
280,-90,0,0,0,0,0,0,0,0,0,-1,1504,1114,0,0
287,-90,0,0,0,0,0,0,0,0,0,-1,1511,1114,0,0
294,-90,0,0,0,0,0,0,0,0,0,-1,1518,1114,0,0
301,-90,0,0,0,0,0,0,0,0,0,-1,1525,1114,0,0
308,-90,0,0,0,0,0,0,0,0,0,-1,1532,1114,0,0
315,-90,0,0,0,0,0,0,0,0,0,-1,1539,1114,0,0
322,-90,0,0,0,0,0,0,0,0,0,-1,1546,1114,0,0
329,-90,0,0,0,0,0,0,0,0,0,-1,1553,1114,0,0
336,-90,0,0,0,0,0,0,0,0,0,-1,1560,1114,0,0
343,-90,0,0,0,0,0,0,0,0,0,-1,1567,1114,0,0
350,-90,0,0,0,0,0,0,0,0,0,-1,1574,1114,0,0
357,-90,0,0,0,0,0,0,0,0,0,-1,1581,1114,0,0
364,-90,0,0,0,0,0,0,0,0,0,-1,1588,1114,0,0
371,-90,0,0,0,0,0,0,0,0,0,-1,1595,1114,0,0
378,-90,0,0,0,0,0,0,0,0,0,-1,1602,1114,0,0
385,-90,0,0,0,0,0,0,0,0,0,-1,1609,1114,0,0
392,-90,0,0,0,0,0,0,0,0,0,-1,1616,1114,0,0
399,-90,0,0,0,0,0,0,0,0,0,-1,1623,1114,0,0
406,-90,0,0,0,0,0,0,0,0,0,-1,1630,1114,0,0
413,-90,0,0,0,0,0,0,0,0,0,-1,1637,1114,0,0
420,-90,0,0,0,0,0,0,0,0,0,-1,1644,1114,0,0
427,-90,0,0,0,0,0,0,0,0,0,-1,1651,1114,0,0
434,-90,0,0,0,0,0,0,0,0,0,-1,1658,1114,0,0
441,-90,0,0,0,0,0,0,0,0,0,-1,1665,1114,0,0
448,-90,0,0,0,0,0,0,0,0,0,-1,1672,1114,0,0
455,-90,0,0,0,0,0,0,0,0,0,-1,1679,1114,0,0
462,-90,0,0,0,0,0,0,0,0,0,-1,1686,1114,0,0
469,-90,0,0,0,0,0,0,0,0,0,-1,1693,1114,0,0
476,-90,0,0,0,0,0,0,0,0,0,-1,1700,1114,0,0
483,-90,0,0,0,0,0,0,0,0,0,-1,1707,1114,0,0
490,-90,0,0,0,0,0,0,0,0,0,-1,1714,1114,0,0
497,-90,0,0,0,0,0,0,0,0,0,-1,1721,1114,0,0
504,-90,0,0,0,0,0,0,0,0,0,-1,1728,1114,0,0
511,-90,0,0,0,0,0,0,0,0,0,-1,1735,1114,0,0
518,-90,0,0,0,0,0,0,0,0,0,-1,1742,1114,0,0
525,-90,0,0,0,0,0,0,0,0,0,-1,1749,1114,0,0
532,-90,0,0,0,0,0,0,0,0,0,-1,1756,1114,0,0
539,-90,0,0,0,0,0,0,0,0,0,-1,1763,1114,0,0
546,-90,0,0,0,0,0,0,0,0,0,-1,1770,1114,0,0
553,-90,0,0,0,0,0,0,0,0,0,-1,1777,1114,0,0
560,-90,0,0,0,0,0,0,0,0,0,-1,1784,1114,0,0
567,-90,0,0,0,0,0,0,0,0,0,-1,1791,1114,0,0
574,-90,0,0,0,0,0,0,0,0,0,-1,1798,1114,0,0
581,-90,0,0,0,0,0,0,0,0,0,-1,1805,1114,0,0
588,-90,0,0,0,0,0,0,0,0,0,-1,1812,1114,0,0
595,-90,0,0,0,0,0,0,0,0,0,-1,1819,1114,0,0
602,-90,0,0,0,0,0,0,0,0,0,-1,1826,1114,0,0
609,-90,0,0,0,0,0,0,0,0,0,-1,1833,1114,0,0
616,-90,0,0,0,0,0,0,0,0,0,-1,1840,1114,0,0
623,-90,0,0,0,0,0,0,0,0,0,-1,1847,1114,0,0
630,-90,0,0,0,0,0,0,0,0,0,-1,1854,1114,0,0
637,-90,0,0,0,0,0,0,0,0,0,-1,1861,1114,0,0
644,-90,71.5411,2.203,0.00336069,-0.00369622,-0.000256478,0.00337,-0.00370553,-0.0362805,0.00408659,0.0317259,1868,1114,71.5411,-2.203
651,-90,71.5693,2.02478,0.00279478,-0.00342261,-0.000389595,0.0028191,-0.00344693,-0.0623371,0.00362374,0.0393405,1875,1114,71.5693,-2.02483
658,-90,71.5786,2.29102,0,0,0,0,0,0,0,-1,1882,1114,71.5786,-2.29099
665,-90,71.2402,2.51123,0,0,0,0,0,0,0,-1,1889,1114,71.2402,-2.51126
672,-90,71.4515,2.18079,0.00183343,-0.00244126,-0.000424876,0.00187526,-0.00248308,-0.0981144,0.00252443,0.0442627,1896,1114,71.4516,-2.18077
679,-90,71.4829,2.17322,0.00163881,-0.00209183,-0.000373645,0.00167587,-0.00212888,-0.0988474,0.00220186,0.0407876,1903,1114,71.483,-2.17324
686,-90,71.6644,2.18494,0.00152158,-0.00199584,-0.000327119,0.00155174,-0.00202601,-0.0919489,0.00207165,0.0350756,1910,1114,71.6644,-2.18496
693,-90,71.6317,2.25281,0.00142684,-0.00198005,-0.000157616,0.00143412,-0.00198733,-0.0461325,0.00198396,0.0339632,1917,1114,71.6317,-2.25283
700,-90,71.5966,2.30542,0.00143615,-0.00192398,6.41495e-05,0.00143737,-0.00192521,0.0190821,0.00194818,0.0311369,1924,1114,71.5965,-2.30539
707,-90,71.5519,2.16638,0.00130744,-0.00160006,0.000295211,0.00133711,-0.00162973,0.100172,0.00171568,0.0241675,1931,1114,71.5519,-2.16633
714,-90,71.5272,1.99609,0,0,0,0,0,0,0,-1,1938,1114,71.5272,-1.99604
721,-90,63.521,8.76965,0,0,0,0,0,0,0,-1,1945,1114,63.521,-8.7697
728,-90,67.0562,8.71436,0,0,0,0,0,0,0,-1,1952,1114,67.0561,-8.71433
735,-90,66.7668,8.17041,-0.000825733,0.000658786,0.00153569,0.00162219,-0.00178914,1.01051,0.00197032,0.0414908,1959,1114,66.7668,-8.17047
742,-90,66.8997,7.57153,-0.00173176,0.00173795,0.0017745,0.00248475,-0.00247855,1.17245,0.00286556,0.0366682,1966,1114,66.8997,-7.57149
749,-90,67.2251,6.89685,-0.00276533,0.00283735,0.00206689,0.00351733,-0.0034453,1.25297,0.00401994,0.0229571,1973,1114,67.2251,-6.89682
756,-90,67.1563,6.43054,-0.00406631,0.00454113,0.00205385,0.00500609,-0.00453127,1.34816,0.00550867,0.0193493,1980,1114,67.1563,-6.4306
763,-90,67.0723,5.9491,-0.00553146,0.00744812,0.00137331,0.00759183,-0.00567518,1.46653,0.00768631,0.0130877,1987,1114,67.0723,-5.94914
770,-90,67.001,5.44177,-0.00721158,0.0109044,0.000215421,0.0109069,-0.00721415,1.55891,0.0105344,0.0169864,1994,1114,67.001,-5.44179
777,-90,66.8555,4.98596,-0.0085569,0.014692,-0.00162185,0.0148046,-0.00866949,-1.50148,0.0137062,0.017405,2001,1114,66.8554,-4.98594
784,-90,66.6753,4.63806,-0.00937331,0.0189232,-0.00441159,0.019595,-0.0100451,-1.41967,0.0174063,0.0313597,2008,1114,66.6754,-4.63804
791,-90,66.408,4.40417,-0.00940342,0.023569,-0.00872501,0.0257355,-0.0115698,-1.32742,0.0220497,0.04472,2015,1114,66.4079,-4.40423
798,-90,66.1794,4.11804,-0.00800936,0.0287968,-0.0151198,0.0342114,-0.013424,-1.22691,0.0283618,0.0486297,2022,1114,66.1795,-4.118
805,-90,64.7378,2.16492,0,0,0,0,0,0,0,-1,2029,1114,64.7379,-2.16495
812,-90,64.1826,0.828369,0,0,0,0,0,0,0,-1,2036,1114,64.1827,-0.828362
-700,-97,0,0,0,0,0,0,0,0,0,-1,524,1121,0,0
-693,-97,-51.0701,-0.192505,0.0193105,0.0147876,-0.0221592,0.0393233,-0.00522522,-0.734546,0.0281196,0.0470698,531,1121,-51.0701,0.192491
-686,-97,-51.2321,0.192627,0.000998564,0.00485721,-0.0114541,0.0145434,-0.0086876,-0.868834,0.0135537,0.0487332,538,1121,-51.232,-0.192653
-679,-97,-50.8811,0.379883,-0.00862418,0.000127944,-0.00515274,0.00251211,-0.0110083,-1.13743,0.00830391,0.0462947,545,1121,-50.8811,-0.379848
-672,-97,-51.6467,1.16492,-0.0134363,-0.00191948,-0.00135899,-0.00176129,-0.0135945,-1.45492,0.00853667,0.0458096,552,1121,-51.6467,-1.16491
-665,-97,-50.063,1.19263,0,0,0,0,0,0,0,-1,559,1121,-50.063,-1.19262
-658,-97,-50.3022,1.82214,-0.015899,-0.00203553,0.00190126,-0.00177952,-0.016155,1.43695,0.0102286,0.0489213,566,1121,-50.3022,-1.82212
-651,-97,-50.5477,2.47864,-0.0150744,-0.00120079,0.0021622,-0.000871625,-0.0154036,1.41972,0.00999119,0.0366292,573,1121,-50.5477,-2.47867
-644,-97,-50.7086,3.12927,-0.0151301,-0.000446874,0.00237882,-7.1099e-05,-0.0155059,1.41412,0.0103136,0.0151596,580,1121,-50.7086,-3.12924
-637,-97,-50.7311,3.73999,-0.0129251,-0.000611253,0.00195703,-0.000307708,-0.0132287,1.41692,0.00871837,0.0152271,587,1121,-50.7311,-3.73998
-630,-97,-50.7689,4.31128,-0.00924098,0.000858555,6.19517e-05,0.000858936,-0.00924136,1.56466,0.00646626,0.0113619,594,1121,-50.7689,-4.31126
-623,-97,-50.8262,4.82788,-0.00631054,0.00101843,-0.000907206,0.00112905,-0.00642117,-1.44945,0.00470253,0.0145917,601,1121,-50.8262,-4.82786
-616,-97,-50.9202,5.4353,-0.00449041,0.000545887,-0.00167355,0.00105129,-0.00499581,-1.27751,0.00373067,0.0212858,608,1121,-50.9202,-5.43526
-609,-97,-51.002,6.06287,-0.00359706,-1.55316e-05,-0.00196133,0.000849576,-0.00446217,-1.15538,0.00329469,0.0294777,615,1121,-51.0019,-6.06284
-602,-97,-51.0485,6.5697,-0.00283349,-0.000497353,-0.00190294,0.000567415,-0.00389826,-1.06066,0.00280716,0.0314239,622,1121,-51.0485,-6.56975
-595,-97,-51.0128,7.18958,-0.00237027,-0.000682643,-0.00202166,0.000664233,-0.00371715,-0.983101,0.00272662,0.026946,629,1121,-51.0128,-7.18958
-588,-97,-51.3103,7.72607,0,0,0,0,0,0,0,-1,636,1121,-51.3103,-7.7261
-581,-97,-51.2355,3.23926,0,0,0,0,0,0,0,-1,643,1121,-51.2355,-3.23926
-574,-97,-55.3881,0.631714,0,0,0,0,0,0,0,-1,650,1121,-55.388,-0.631669
-567,-97,-55.3596,0.572632,0.00092348,-0.00196774,-0.00130673,0.00142654,-0.0024708,-0.367491,0.0022769,0.0339976,657,1121,-55.3596,-0.572579
-560,-97,-55.3385,0.494507,0.00176353,-0.00181614,-0.00105377,0.0020507,-0.00210331,-0.266053,0.00239838,0.0370235,664,1121,-55.3385,-0.494483
-553,-97,-55.248,0.337769,0.00174519,-0.00124429,-0.000735539,0.00191637,-0.00141546,-0.228647,0.00193086,0.0439738,671,1121,-55.248,-0.337734
-546,-97,-55.1735,0.188599,0.00191406,-0.000553362,6.11804e-06,0.00191408,-0.000553377,0.0024795,0.00149505,0.0459307,678,1121,-55.1735,-0.188653
-539,-97,-55.215,0.30603,0.00313742,-0.000255966,0.00107228,0.00344786,-0.000566398,0.281802,0.00250877,0.0441947,685,1121,-55.215,-0.306054
-532,-97,-55.1763,0.381104,0,0,0,0,0,0,0,-1,692,1121,-55.1763,-0.381062
-525,-97,0,0,0,0,0,0,0,0,0,-1,699,1121,0,0
-518,-97,0,0,0,0,0,0,0,0,0,-1,706,1121,0,0
-511,-97,0,0,0,0,0,0,0,0,0,-1,713,1121,0,0
-504,-97,0,0,0,0,0,0,0,0,0,-1,720,1121,0,0
-497,-97,0,0,0,0,0,0,0,0,0,-1,727,1121,0,0
-490,-97,0,0,0,0,0,0,0,0,0,-1,734,1121,0,0
-483,-97,0,0,0,0,0,0,0,0,0,-1,741,1121,0,0
-476,-97,0,0,0,0,0,0,0,0,0,-1,748,1121,0,0
-469,-97,0,0,0,0,0,0,0,0,0,-1,755,1121,0,0
-462,-97,0,0,0,0,0,0,0,0,0,-1,762,1121,0,0
-455,-97,0,0,0,0,0,0,0,0,0,-1,769,1121,0,0
-448,-97,0,0,0,0,0,0,0,0,0,-1,776,1121,0,0
-441,-97,0,0,0,0,0,0,0,0,0,-1,783,1121,0,0
-434,-97,0,0,0,0,0,0,0,0,0,-1,790,1121,0,0
-427,-97,0,0,0,0,0,0,0,0,0,-1,797,1121,0,0
-420,-97,0,0,0,0,0,0,0,0,0,-1,804,1121,0,0
-413,-97,0,0,0,0,0,0,0,0,0,-1,811,1121,0,0
-406,-97,0,0,0,0,0,0,0,0,0,-1,818,1121,0,0
-399,-97,0,0,0,0,0,0,0,0,0,-1,825,1121,0,0
-392,-97,0,0,0,0,0,0,0,0,0,-1,832,1121,0,0
-385,-97,0,0,0,0,0,0,0,0,0,-1,839,1121,0,0
-378,-97,0,0,0,0,0,0,0,0,0,-1,846,1121,0,0
-371,-97,0,0,0,0,0,0,0,0,0,-1,853,1121,0,0
-364,-97,0,0,0,0,0,0,0,0,0,-1,860,1121,0,0
-357,-97,0,0,0,0,0,0,0,0,0,-1,867,1121,0,0
-350,-97,0,0,0,0,0,0,0,0,0,-1,874,1121,0,0
-343,-97,0,0,0,0,0,0,0,0,0,-1,881,1121,0,0
-336,-97,0,0,0,0,0,0,0,0,0,-1,888,1121,0,0
-329,-97,0,0,0,0,0,0,0,0,0,-1,895,1121,0,0
-322,-97,0,0,0,0,0,0,0,0,0,-1,902,1121,0,0
-315,-97,0,0,0,0,0,0,0,0,0,-1,909,1121,0,0
-308,-97,0,0,0,0,0,0,0,0,0,-1,916,1121,0,0
-301,-97,0,0,0,0,0,0,0,0,0,-1,923,1121,0,0
-294,-97,0,0,0,0,0,0,0,0,0,-1,930,1121,0,0
-287,-97,0,0,0,0,0,0,0,0,0,-1,937,1121,0,0
-280,-97,0,0,0,0,0,0,0,0,0,-1,944,1121,0,0
-273,-97,0,0,0,0,0,0,0,0,0,-1,951,1121,0,0
-266,-97,0,0,0,0,0,0,0,0,0,-1,958,1121,0,0
-259,-97,0,0,0,0,0,0,0,0,0,-1,965,1121,0,0
-252,-97,0,0,0,0,0,0,0,0,0,-1,972,1121,0,0
-245,-97,0,0,0,0,0,0,0,0,0,-1,979,1121,0,0
-238,-97,0,0,0,0,0,0,0,0,0,-1,986,1121,0,0
-231,-97,0,0,0,0,0,0,0,0,0,-1,993,1121,0,0
-224,-97,0,0,0,0,0,0,0,0,0,-1,1000,1121,0,0
-217,-97,0,0,0,0,0,0,0,0,0,-1,1007,1121,0,0
-210,-97,0,0,0,0,0,0,0,0,0,-1,1014,1121,0,0
-203,-97,0,0,0,0,0,0,0,0,0,-1,1021,1121,0,0
-196,-97,0,0,0,0,0,0,0,0,0,-1,1028,1121,0,0
-189,-97,0,0,0,0,0,0,0,0,0,-1,1035,1121,0,0
-182,-97,0,0,0,0,0,0,0,0,0,-1,1042,1121,0,0
-175,-97,0,0,0,0,0,0,0,0,0,-1,1049,1121,0,0
-168,-97,0,0,0,0,0,0,0,0,0,-1,1056,1121,0,0
-161,-97,0,0,0,0,0,0,0,0,0,-1,1063,1121,0,0
-154,-97,0,0,0,0,0,0,0,0,0,-1,1070,1121,0,0
-147,-97,0,0,0,0,0,0,0,0,0,-1,1077,1121,0,0
-140,-97,0,0,0,0,0,0,0,0,0,-1,1084,1121,0,0
-133,-97,0,0,0,0,0,0,0,0,0,-1,1091,1121,0,0
-126,-97,0,0,0,0,0,0,0,0,0,-1,1098,1121,0,0
-119,-97,0,0,0,0,0,0,0,0,0,-1,1105,1121,0,0
-112,-97,0,0,0,0,0,0,0,0,0,-1,1112,1121,0,0
-105,-97,0,0,0,0,0,0,0,0,0,-1,1119,1121,0,0
-98,-97,0,0,0,0,0,0,0,0,0,-1,1126,1121,0,0
-91,-97,0,0,0,0,0,0,0,0,0,-1,1133,1121,0,0
-84,-97,0,0,0,0,0,0,0,0,0,-1,1140,1121,0,0
-77,-97,0,0,0,0,0,0,0,0,0,-1,1147,1121,0,0
-70,-97,0,0,0,0,0,0,0,0,0,-1,1154,1121,0,0
-63,-97,0,0,0,0,0,0,0,0,0,-1,1161,1121,0,0
-56,-97,0,0,0,0,0,0,0,0,0,-1,1168,1121,0,0
-49,-97,0,0,0,0,0,0,0,0,0,-1,1175,1121,0,0
-42,-97,0,0,0,0,0,0,0,0,0,-1,1182,1121,0,0
-35,-97,0,0,0,0,0,0,0,0,0,-1,1189,1121,0,0
-28,-97,0,0,0,0,0,0,0,0,0,-1,1196,1121,0,0
-21,-97,0,0,0,0,0,0,0,0,0,-1,1203,1121,0,0
-14,-97,0,0,0,0,0,0,0,0,0,-1,1210,1121,0,0
-7,-97,0,0,0,0,0,0,0,0,0,-1,1217,1121,0,0
0,-97,0,0,0,0,0,0,0,0,0,-1,1224,1121,0,0
7,-97,0,0,0,0,0,0,0,0,0,-1,1231,1121,0,0
14,-97,0,0,0,0,0,0,0,0,0,-1,1238,1121,0,0
21,-97,0,0,0,0,0,0,0,0,0,-1,1245,1121,0,0
28,-97,0,0,0,0,0,0,0,0,0,-1,1252,1121,0,0
35,-97,0,0,0,0,0,0,0,0,0,-1,1259,1121,0,0
42,-97,0,0,0,0,0,0,0,0,0,-1,1266,1121,0,0
49,-97,0,0,0,0,0,0,0,0,0,-1,1273,1121,0,0
56,-97,0,0,0,0,0,0,0,0,0,-1,1280,1121,0,0
63,-97,0,0,0,0,0,0,0,0,0,-1,1287,1121,0,0
70,-97,0,0,0,0,0,0,0,0,0,-1,1294,1121,0,0
77,-97,0,0,0,0,0,0,0,0,0,-1,1301,1121,0,0
84,-97,0,0,0,0,0,0,0,0,0,-1,1308,1121,0,0
91,-97,0,0,0,0,0,0,0,0,0,-1,1315,1121,0,0
98,-97,0,0,0,0,0,0,0,0,0,-1,1322,1121,0,0
105,-97,0,0,0,0,0,0,0,0,0,-1,1329,1121,0,0
112,-97,0,0,0,0,0,0,0,0,0,-1,1336,1121,0,0
119,-97,0,0,0,0,0,0,0,0,0,-1,1343,1121,0,0
126,-97,0,0,0,0,0,0,0,0,0,-1,1350,1121,0,0
133,-97,0,0,0,0,0,0,0,0,0,-1,1357,1121,0,0
140,-97,0,0,0,0,0,0,0,0,0,-1,1364,1121,0,0
147,-97,0,0,0,0,0,0,0,0,0,-1,1371,1121,0,0
154,-97,0,0,0,0,0,0,0,0,0,-1,1378,1121,0,0
161,-97,0,0,0,0,0,0,0,0,0,-1,1385,1121,0,0
168,-97,0,0,0,0,0,0,0,0,0,-1,1392,1121,0,0
175,-97,0,0,0,0,0,0,0,0,0,-1,1399,1121,0,0
182,-97,0,0,0,0,0,0,0,0,0,-1,1406,1121,0,0
189,-97,0,0,0,0,0,0,0,0,0,-1,1413,1121,0,0
196,-97,0,0,0,0,0,0,0,0,0,-1,1420,1121,0,0
203,-97,0,0,0,0,0,0,0,0,0,-1,1427,1121,0,0
210,-97,0,0,0,0,0,0,0,0,0,-1,1434,1121,0,0
217,-97,0,0,0,0,0,0,0,0,0,-1,1441,1121,0,0
224,-97,0,0,0,0,0,0,0,0,0,-1,1448,1121,0,0
231,-97,0,0,0,0,0,0,0,0,0,-1,1455,1121,0,0
238,-97,0,0,0,0,0,0,0,0,0,-1,1462,1121,0,0
245,-97,0,0,0,0,0,0,0,0,0,-1,1469,1121,0,0
252,-97,0,0,0,0,0,0,0,0,0,-1,1476,1121,0,0
259,-97,0,0,0,0,0,0,0,0,0,-1,1483,1121,0,0
266,-97,0,0,0,0,0,0,0,0,0,-1,1490,1121,0,0
273,-97,0,0,0,0,0,0,0,0,0,-1,1497,1121,0,0
280,-97,0,0,0,0,0,0,0,0,0,-1,1504,1121,0,0
287,-97,0,0,0,0,0,0,0,0,0,-1,1511,1121,0,0
294,-97,0,0,0,0,0,0,0,0,0,-1,1518,1121,0,0
301,-97,0,0,0,0,0,0,0,0,0,-1,1525,1121,0,0
308,-97,0,0,0,0,0,0,0,0,0,-1,1532,1121,0,0
315,-97,0,0,0,0,0,0,0,0,0,-1,1539,1121,0,0
322,-97,0,0,0,0,0,0,0,0,0,-1,1546,1121,0,0
329,-97,0,0,0,0,0,0,0,0,0,-1,1553,1121,0,0
336,-97,0,0,0,0,0,0,0,0,0,-1,1560,1121,0,0
343,-97,0,0,0,0,0,0,0,0,0,-1,1567,1121,0,0
350,-97,0,0,0,0,0,0,0,0,0,-1,1574,1121,0,0
357,-97,0,0,0,0,0,0,0,0,0,-1,1581,1121,0,0
364,-97,0,0,0,0,0,0,0,0,0,-1,1588,1121,0,0
371,-97,0,0,0,0,0,0,0,0,0,-1,1595,1121,0,0
378,-97,0,0,0,0,0,0,0,0,0,-1,1602,1121,0,0
385,-97,0,0,0,0,0,0,0,0,0,-1,1609,1121,0,0
392,-97,0,0,0,0,0,0,0,0,0,-1,1616,1121,0,0
399,-97,0,0,0,0,0,0,0,0,0,-1,1623,1121,0,0
406,-97,0,0,0,0,0,0,0,0,0,-1,1630,1121,0,0
413,-97,0,0,0,0,0,0,0,0,0,-1,1637,1121,0,0
420,-97,0,0,0,0,0,0,0,0,0,-1,1644,1121,0,0
427,-97,0,0,0,0,0,0,0,0,0,-1,1651,1121,0,0
434,-97,0,0,0,0,0,0,0,0,0,-1,1658,1121,0,0
441,-97,0,0,0,0,0,0,0,0,0,-1,1665,1121,0,0
448,-97,0,0,0,0,0,0,0,0,0,-1,1672,1121,0,0
455,-97,0,0,0,0,0,0,0,0,0,-1,1679,1121,0,0
462,-97,0,0,0,0,0,0,0,0,0,-1,1686,1121,0,0
469,-97,0,0,0,0,0,0,0,0,0,-1,1693,1121,0,0
476,-97,0,0,0,0,0,0,0,0,0,-1,1700,1121,0,0
483,-97,0,0,0,0,0,0,0,0,0,-1,1707,1121,0,0
490,-97,0,0,0,0,0,0,0,0,0,-1,1714,1121,0,0
497,-97,0,0,0,0,0,0,0,0,0,-1,1721,1121,0,0
504,-97,0,0,0,0,0,0,0,0,0,-1,1728,1121,0,0
511,-97,0,0,0,0,0,0,0,0,0,-1,1735,1121,0,0
518,-97,0,0,0,0,0,0,0,0,0,-1,1742,1121,0,0
525,-97,0,0,0,0,0,0,0,0,0,-1,1749,1121,0,0
532,-97,0,0,0,0,0,0,0,0,0,-1,1756,1121,0,0
539,-97,0,0,0,0,0,0,0,0,0,-1,1763,1121,0,0
546,-97,0,0,0,0,0,0,0,0,0,-1,1770,1121,0,0
553,-97,0,0,0,0,0,0,0,0,0,-1,1777,1121,0,0
560,-97,0,0,0,0,0,0,0,0,0,-1,1784,1121,0,0
567,-97,0,0,0,0,0,0,0,0,0,-1,1791,1121,0,0
574,-97,0,0,0,0,0,0,0,0,0,-1,1798,1121,0,0
581,-97,0,0,0,0,0,0,0,0,0,-1,1805,1121,0,0
588,-97,0,0,0,0,0,0,0,0,0,-1,1812,1121,0,0
595,-97,0,0,0,0,0,0,0,0,0,-1,1819,1121,0,0
602,-97,0,0,0,0,0,0,0,0,0,-1,1826,1121,0,0
609,-97,0,0,0,0,0,0,0,0,0,-1,1833,1121,0,0
616,-97,0,0,0,0,0,0,0,0,0,-1,1840,1121,0,0
623,-97,0,0,0,0,0,0,0,0,0,-1,1847,1121,0,0
630,-97,0,0,0,0,0,0,0,0,0,-1,1854,1121,0,0
637,-97,0,0,0,0,0,0,0,0,0,-1,1861,1121,0,0
644,-97,71.5988,2.19299,0.0041766,-0.00404533,-0.000601871,0.00422042,-0.00408916,-0.0726868,0.00479774,0.0357682,1868,1121,71.5987,-2.19297
651,-97,71.5728,2.30872,0.00329026,-0.00356088,-0.000652802,0.00335191,-0.00362252,-0.0941547,0.0040277,0.0369309,1875,1121,71.5728,-2.30876
658,-97,71.5604,2.82813,0,0,0,0,0,0,0,-1,1882,1121,71.5605,-2.82817
665,-97,71.6941,2.09924,0.00228343,-0.00274232,-0.000579652,0.00234942,-0.00280831,-0.113354,0.00298174,0.0429026,1889,1121,71.6941,-2.09922
672,-97,71.6917,2.2489,0.00182744,-0.0023576,-0.000529868,0.00189348,-0.00242365,-0.124004,0.00249875,0.0422974,1896,1121,71.6917,-2.24896
679,-97,71.5393,2.44373,0.00159734,-0.00201987,-0.000459008,0.00165468,-0.00207721,-0.124272,0.00215921,0.0408436,1903,1121,71.5393,-2.44369
686,-97,71.5872,2.3114,0.00153105,-0.00196081,-0.000413852,0.00157943,-0.00200919,-0.116371,0.00207683,0.0354815,1910,1121,71.5872,-2.31136
693,-97,71.6636,2.27612,0.0014684,-0.00194042,-0.000256871,0.00148765,-0.00195967,-0.074792,0.00199652,0.0325111,1917,1121,71.6636,-2.27617
700,-97,71.5635,2.30566,0.00150244,-0.00190397,-6.40056e-05,0.00150364,-0.00190517,-0.0187809,0.00197263,0.0271078,1924,1121,71.5634,-2.30563
707,-97,71.5448,2.21741,0.00140421,-0.00161627,0.000160494,0.00141271,-0.00162477,0.0529367,0.00175512,0.0254452,1931,1121,71.5448,-2.21745
714,-97,71.538,2.07959,0,0,0,0,0,0,0,-1,1938,1121,71.5379,-2.07959
721,-97,66.5326,9.05396,0,0,0,0,0,0,0,-1,1945,1121,66.5326,-9.05398
728,-97,66.5242,8.74097,0.000151132,-0.000253971,0.00104,0.00100812,-0.00111096,0.689222,0.00122393,0.0380032,1952,1121,66.5242,-8.74091
735,-97,66.5078,8.04602,-0.000296372,0.000354652,0.00139946,0.00146596,-0.00140768,0.899665,0.00165921,0.0315789,1959,1121,66.5078,-8.04608
742,-97,66.4557,7.52856,-0.00106561,0.00130681,0.00173549,0.00222275,-0.00198155,1.08518,0.00242868,0.0263768,1966,1121,66.4557,-7.52856
749,-97,66.528,6.97913,-0.00202927,0.00229773,0.00209369,0.00314492,-0.00287646,1.1863,0.00347759,0.025749,1973,1121,66.528,-6.97907
756,-97,66.5885,6.43652,-0.00332524,0.00388318,0.00224724,0.00452637,-0.00396843,1.29204,0.004908,0.0180027,1980,1121,66.5885,-6.43657
763,-97,66.4854,5.95251,-0.00472648,0.00641854,0.00192621,0.00674206,-0.00505,1.40439,0.00683147,0.0143968,1987,1121,66.4854,-5.95246
770,-97,66.4021,5.47351,-0.00626322,0.00931491,0.00127305,0.00941826,-0.00636657,1.48979,0.00916997,0.0137366,1994,1121,66.4021,-5.47353
777,-97,66.3127,4.95471,-0.00746839,0.0123758,6.92235e-05,0.012376,-0.00746863,1.56731,0.0115735,0.018871,2001,1121,66.3128,-4.95467
784,-97,66.2622,4.44336,-0.0081349,0.0157328,-0.00199402,0.0158982,-0.00830034,-1.48802,0.0141987,0.0394169,2008,1121,66.2621,-4.4434
791,-97,66.2385,4.0719,-0.00798114,0.0192285,-0.00547439,0.0202886,-0.00904124,-1.37952,0.0173437,0.0438193,2015,1121,66.2386,-4.07188
798,-97,65.897,4.11194,-0.00638282,0.022967,-0.0109601,0.0266082,-0.0100239,-1.25005,0.0218601,0.0466137,2022,1121,65.897,-4.11189
805,-97,65.7839,3.7998,0,0,0,0,0,0,0,-1,2029,1121,65.7839,-3.79978
812,-97,64.2729,1.12366,0,0,0,0,0,0,0,-1,2036,1121,64.273,-1.12362
-700,-104,0,0,0,0,0,0,0,0,0,-1,524,1128,0,0
-693,-104,-51.0926,-0.115112,0,0,0,0,0,0,0,-1,531,1128,-51.0926,0.115127
-686,-104,-51.3726,0.5354,0,0,0,0,0,0,0,-1,538,1128,-51.3725,-0.535386
-679,-104,-50.4803,0.458374,0,0,0,0,0,0,0,-1,545,1128,-50.4803,-0.45842
-672,-104,-52.013,1.9115,0,0,0,0,0,0,0,-1,552,1128,-52.013,-1.91145
-665,-104,-50.2694,2.36426,0,0,0,0,0,0,0,-1,559,1128,-50.2694,-2.3642
-658,-104,-49.9363,2.04651,0,0,0,0,0,0,0,-1,566,1128,-49.9363,-2.04647
-651,-104,-50.0522,2.49756,-0.0211096,-0.00268995,0.00207201,-0.00245975,-0.0213398,1.46015,0.0134816,0.0475888,573,1128,-50.0522,-2.49755
-644,-104,-50.0778,3.13452,-0.0188932,-0.00102608,0.00169614,-0.00086649,-0.0190528,1.47698,0.0124231,0.0182327,580,1128,-50.0778,-3.13446
-637,-104,-50.0928,3.72437,-0.0153328,8.80491e-05,0.000798943,0.000129331,-0.0153741,1.51917,0.0102928,0.0139499,587,1128,-50.0928,-3.72435
-630,-104,-50.1266,4.24878,-0.0109537,0.00135757,-0.000679807,0.001395,-0.0109911,-1.5158,0.00783392,0.0186638,594,1128,-50.1266,-4.24872
-623,-104,-50.2122,4.8335,-0.00750127,0.00143179,-0.00142409,0.00165332,-0.0077228,-1.41647,0.00577902,0.0208889,601,1128,-50.2122,-4.83348
-616,-104,-50.5809,5.53369,-0.0055262,0.000720259,-0.00202654,0.00132012,-0.00612607,-1.28301,0.00458784,0.0301557,608,1128,-50.5809,-5.53374
-609,-104,-50.7489,6.02283,-0.00453292,8.09106e-06,-0.00213968,0.000857427,-0.00538226,-1.19293,0.00390548,0.0401062,615,1128,-50.7489,-6.0228
-602,-104,-50.8854,6.60327,0,0,0,0,0,0,0,-1,622,1128,-50.8855,-6.60331
-595,-104,-50.3015,7.34961,0,0,0,0,0,0,0,-1,629,1128,-50.3015,-7.34963
-588,-104,-50.4556,8.10864,0,0,0,0,0,0,0,-1,636,1128,-50.4556,-8.10866
-581,-104,-23.9373,2.85864,0,0,0,0,0,0,0,-1,643,1128,-23.9373,-2.85861
-574,-104,-55.3671,0.656616,0,0,0,0,0,0,0,-1,650,1128,-55.3671,-0.656616
-567,-104,-55.3224,0.589478,-6.56227e-06,-0.00189262,-0.00131679,0.000670054,-0.00256923,-0.474655,0.00197444,0.0363364,657,1128,-55.3224,-0.589535
-560,-104,-55.3724,0.454346,0.00117536,-0.00188315,-0.00104495,0.00149828,-0.00220607,-0.299717,0.00215168,0.0415542,664,1128,-55.3724,-0.454325
-553,-104,-55.4235,0.244385,0.00146571,-0.00140688,-0.000823558,0.00168507,-0.00162623,-0.260312,0.00191188,0.0477981,671,1128,-55.4235,-0.244377
-546,-104,-55.4116,0.144531,0.00199762,-0.000763762,-0.000171293,0.00200821,-0.000774347,-0.0617163,0.00165832,0.0466334,678,1128,-55.4115,-0.144522
-539,-104,-55.4778,0.256104,0.00357952,-0.000340671,0.000759749,0.00372162,-0.000482763,0.184889,0.00265666,0.0397934,685,1128,-55.4778,-0.256106
-532,-104,-55.4447,0.383057,0.00580037,0.000107098,0.00171796,0.00627859,-0.000371131,0.271497,0.00431476,0.040315,692,1128,-55.4447,-0.383095
-525,-104,-55.3528,0.520752,0.00852476,0.000660049,0.00264233,0.00933006,-0.000145248,0.295825,0.00626901,0.0376036,699,1128,-55.3529,-0.52073
-518,-104,0,0,0,0,0,0,0,0,0,-1,706,1128,0,0
-511,-104,0,0,0,0,0,0,0,0,0,-1,713,1128,0,0
-504,-104,0,0,0,0,0,0,0,0,0,-1,720,1128,0,0
-497,-104,0,0,0,0,0,0,0,0,0,-1,727,1128,0,0
-490,-104,0,0,0,0,0,0,0,0,0,-1,734,1128,0,0
-483,-104,0,0,0,0,0,0,0,0,0,-1,741,1128,0,0
-476,-104,0,0,0,0,0,0,0,0,0,-1,748,1128,0,0
-469,-104,0,0,0,0,0,0,0,0,0,-1,755,1128,0,0
-462,-104,0,0,0,0,0,0,0,0,0,-1,762,1128,0,0
-455,-104,0,0,0,0,0,0,0,0,0,-1,769,1128,0,0
-448,-104,0,0,0,0,0,0,0,0,0,-1,776,1128,0,0
-441,-104,0,0,0,0,0,0,0,0,0,-1,783,1128,0,0
-434,-104,0,0,0,0,0,0,0,0,0,-1,790,1128,0,0
-427,-104,0,0,0,0,0,0,0,0,0,-1,797,1128,0,0
-420,-104,0,0,0,0,0,0,0,0,0,-1,804,1128,0,0
-413,-104,0,0,0,0,0,0,0,0,0,-1,811,1128,0,0
-406,-104,0,0,0,0,0,0,0,0,0,-1,818,1128,0,0
-399,-104,0,0,0,0,0,0,0,0,0,-1,825,1128,0,0
-392,-104,0,0,0,0,0,0,0,0,0,-1,832,1128,0,0
-385,-104,0,0,0,0,0,0,0,0,0,-1,839,1128,0,0
-378,-104,0,0,0,0,0,0,0,0,0,-1,846,1128,0,0
-371,-104,0,0,0,0,0,0,0,0,0,-1,853,1128,0,0
-364,-104,0,0,0,0,0,0,0,0,0,-1,860,1128,0,0
-357,-104,0,0,0,0,0,0,0,0,0,-1,867,1128,0,0
-350,-104,0,0,0,0,0,0,0,0,0,-1,874,1128,0,0
-343,-104,0,0,0,0,0,0,0,0,0,-1,881,1128,0,0
-336,-104,0,0,0,0,0,0,0,0,0,-1,888,1128,0,0
-329,-104,0,0,0,0,0,0,0,0,0,-1,895,1128,0,0
-322,-104,0,0,0,0,0,0,0,0,0,-1,902,1128,0,0
-315,-104,0,0,0,0,0,0,0,0,0,-1,909,1128,0,0
-308,-104,0,0,0,0,0,0,0,0,0,-1,916,1128,0,0
-301,-104,0,0,0,0,0,0,0,0,0,-1,923,1128,0,0
-294,-104,0,0,0,0,0,0,0,0,0,-1,930,1128,0,0
-287,-104,0,0,0,0,0,0,0,0,0,-1,937,1128,0,0
-280,-104,0,0,0,0,0,0,0,0,0,-1,944,1128,0,0
-273,-104,0,0,0,0,0,0,0,0,0,-1,951,1128,0,0
-266,-104,0,0,0,0,0,0,0,0,0,-1,958,1128,0,0
-259,-104,0,0,0,0,0,0,0,0,0,-1,965,1128,0,0
-252,-104,0,0,0,0,0,0,0,0,0,-1,972,1128,0,0
-245,-104,0,0,0,0,0,0,0,0,0,-1,979,1128,0,0
-238,-104,0,0,0,0,0,0,0,0,0,-1,986,1128,0,0
-231,-104,0,0,0,0,0,0,0,0,0,-1,993,1128,0,0
-224,-104,0,0,0,0,0,0,0,0,0,-1,1000,1128,0,0
-217,-104,0,0,0,0,0,0,0,0,0,-1,1007,1128,0,0
-210,-104,0,0,0,0,0,0,0,0,0,-1,1014,1128,0,0
-203,-104,0,0,0,0,0,0,0,0,0,-1,1021,1128,0,0
-196,-104,0,0,0,0,0,0,0,0,0,-1,1028,1128,0,0
-189,-104,0,0,0,0,0,0,0,0,0,-1,1035,1128,0,0
-182,-104,0,0,0,0,0,0,0,0,0,-1,1042,1128,0,0
-175,-104,0,0,0,0,0,0,0,0,0,-1,1049,1128,0,0
-168,-104,0,0,0,0,0,0,0,0,0,-1,1056,1128,0,0
-161,-104,0,0,0,0,0,0,0,0,0,-1,1063,1128,0,0
-154,-104,0,0,0,0,0,0,0,0,0,-1,1070,1128,0,0
-147,-104,0,0,0,0,0,0,0,0,0,-1,1077,1128,0,0
-140,-104,0,0,0,0,0,0,0,0,0,-1,1084,1128,0,0
-133,-104,0,0,0,0,0,0,0,0,0,-1,1091,1128,0,0
-126,-104,0,0,0,0,0,0,0,0,0,-1,1098,1128,0,0
-119,-104,0,0,0,0,0,0,0,0,0,-1,1105,1128,0,0
-112,-104,0,0,0,0,0,0,0,0,0,-1,1112,1128,0,0
-105,-104,0,0,0,0,0,0,0,0,0,-1,1119,1128,0,0
-98,-104,0,0,0,0,0,0,0,0,0,-1,1126,1128,0,0
-91,-104,0,0,0,0,0,0,0,0,0,-1,1133,1128,0,0
-84,-104,0,0,0,0,0,0,0,0,0,-1,1140,1128,0,0
-77,-104,0,0,0,0,0,0,0,0,0,-1,1147,1128,0,0
-70,-104,0,0,0,0,0,0,0,0,0,-1,1154,1128,0,0
-63,-104,0,0,0,0,0,0,0,0,0,-1,1161,1128,0,0
-56,-104,0,0,0,0,0,0,0,0,0,-1,1168,1128,0,0
-49,-104,0,0,0,0,0,0,0,0,0,-1,1175,1128,0,0
-42,-104,0,0,0,0,0,0,0,0,0,-1,1182,1128,0,0
-35,-104,0,0,0,0,0,0,0,0,0,-1,1189,1128,0,0
-28,-104,0,0,0,0,0,0,0,0,0,-1,1196,1128,0,0
-21,-104,0,0,0,0,0,0,0,0,0,-1,1203,1128,0,0
-14,-104,0,0,0,0,0,0,0,0,0,-1,1210,1128,0,0
-7,-104,0,0,0,0,0,0,0,0,0,-1,1217,1128,0,0
0,-104,0,0,0,0,0,0,0,0,0,-1,1224,1128,0,0
7,-104,0,0,0,0,0,0,0,0,0,-1,1231,1128,0,0
14,-104,0,0,0,0,0,0,0,0,0,-1,1238,1128,0,0
21,-104,0,0,0,0,0,0,0,0,0,-1,1245,1128,0,0
28,-104,0,0,0,0,0,0,0,0,0,-1,1252,1128,0,0
35,-104,0,0,0,0,0,0,0,0,0,-1,1259,1128,0,0
42,-104,0,0,0,0,0,0,0,0,0,-1,1266,1128,0,0
49,-104,0,0,0,0,0,0,0,0,0,-1,1273,1128,0,0
56,-104,0,0,0,0,0,0,0,0,0,-1,1280,1128,0,0
63,-104,0,0,0,0,0,0,0,0,0,-1,1287,1128,0,0
70,-104,0,0,0,0,0,0,0,0,0,-1,1294,1128,0,0
77,-104,0,0,0,0,0,0,0,0,0,-1,1301,1128,0,0
84,-104,0,0,0,0,0,0,0,0,0,-1,1308,1128,0,0
91,-104,0,0,0,0,0,0,0,0,0,-1,1315,1128,0,0
98,-104,0,0,0,0,0,0,0,0,0,-1,1322,1128,0,0
105,-104,0,0,0,0,0,0,0,0,0,-1,1329,1128,0,0
112,-104,0,0,0,0,0,0,0,0,0,-1,1336,1128,0,0
119,-104,0,0,0,0,0,0,0,0,0,-1,1343,1128,0,0
126,-104,0,0,0,0,0,0,0,0,0,-1,1350,1128,0,0
133,-104,0,0,0,0,0,0,0,0,0,-1,1357,1128,0,0
140,-104,0,0,0,0,0,0,0,0,0,-1,1364,1128,0,0
147,-104,0,0,0,0,0,0,0,0,0,-1,1371,1128,0,0
154,-104,0,0,0,0,0,0,0,0,0,-1,1378,1128,0,0
161,-104,0,0,0,0,0,0,0,0,0,-1,1385,1128,0,0
168,-104,0,0,0,0,0,0,0,0,0,-1,1392,1128,0,0
175,-104,0,0,0,0,0,0,0,0,0,-1,1399,1128,0,0
182,-104,0,0,0,0,0,0,0,0,0,-1,1406,1128,0,0
189,-104,0,0,0,0,0,0,0,0,0,-1,1413,1128,0,0
196,-104,0,0,0,0,0,0,0,0,0,-1,1420,1128,0,0
203,-104,0,0,0,0,0,0,0,0,0,-1,1427,1128,0,0
210,-104,0,0,0,0,0,0,0,0,0,-1,1434,1128,0,0
217,-104,0,0,0,0,0,0,0,0,0,-1,1441,1128,0,0
224,-104,0,0,0,0,0,0,0,0,0,-1,1448,1128,0,0
231,-104,0,0,0,0,0,0,0,0,0,-1,1455,1128,0,0
238,-104,0,0,0,0,0,0,0,0,0,-1,1462,1128,0,0
245,-104,0,0,0,0,0,0,0,0,0,-1,1469,1128,0,0
252,-104,0,0,0,0,0,0,0,0,0,-1,1476,1128,0,0
259,-104,0,0,0,0,0,0,0,0,0,-1,1483,1128,0,0
266,-104,0,0,0,0,0,0,0,0,0,-1,1490,1128,0,0
273,-104,0,0,0,0,0,0,0,0,0,-1,1497,1128,0,0
280,-104,0,0,0,0,0,0,0,0,0,-1,1504,1128,0,0
287,-104,0,0,0,0,0,0,0,0,0,-1,1511,1128,0,0
294,-104,0,0,0,0,0,0,0,0,0,-1,1518,1128,0,0
301,-104,0,0,0,0,0,0,0,0,0,-1,1525,1128,0,0
308,-104,0,0,0,0,0,0,0,0,0,-1,1532,1128,0,0
315,-104,0,0,0,0,0,0,0,0,0,-1,1539,1128,0,0
322,-104,0,0,0,0,0,0,0,0,0,-1,1546,1128,0,0
329,-104,0,0,0,0,0,0,0,0,0,-1,1553,1128,0,0
336,-104,0,0,0,0,0,0,0,0,0,-1,1560,1128,0,0
343,-104,0,0,0,0,0,0,0,0,0,-1,1567,1128,0,0
350,-104,0,0,0,0,0,0,0,0,0,-1,1574,1128,0,0
357,-104,0,0,0,0,0,0,0,0,0,-1,1581,1128,0,0
364,-104,0,0,0,0,0,0,0,0,0,-1,1588,1128,0,0
371,-104,0,0,0,0,0,0,0,0,0,-1,1595,1128,0,0
378,-104,0,0,0,0,0,0,0,0,0,-1,1602,1128,0,0
385,-104,0,0,0,0,0,0,0,0,0,-1,1609,1128,0,0
392,-104,0,0,0,0,0,0,0,0,0,-1,1616,1128,0,0
399,-104,0,0,0,0,0,0,0,0,0,-1,1623,1128,0,0
406,-104,0,0,0,0,0,0,0,0,0,-1,1630,1128,0,0
413,-104,0,0,0,0,0,0,0,0,0,-1,1637,1128,0,0
420,-104,0,0,0,0,0,0,0,0,0,-1,1644,1128,0,0
427,-104,0,0,0,0,0,0,0,0,0,-1,1651,1128,0,0
434,-104,0,0,0,0,0,0,0,0,0,-1,1658,1128,0,0
441,-104,0,0,0,0,0,0,0,0,0,-1,1665,1128,0,0
448,-104,0,0,0,0,0,0,0,0,0,-1,1672,1128,0,0
455,-104,0,0,0,0,0,0,0,0,0,-1,1679,1128,0,0
462,-104,0,0,0,0,0,0,0,0,0,-1,1686,1128,0,0
469,-104,0,0,0,0,0,0,0,0,0,-1,1693,1128,0,0
476,-104,0,0,0,0,0,0,0,0,0,-1,1700,1128,0,0
483,-104,0,0,0,0,0,0,0,0,0,-1,1707,1128,0,0
490,-104,0,0,0,0,0,0,0,0,0,-1,1714,1128,0,0
497,-104,0,0,0,0,0,0,0,0,0,-1,1721,1128,0,0
504,-104,0,0,0,0,0,0,0,0,0,-1,1728,1128,0,0
511,-104,0,0,0,0,0,0,0,0,0,-1,1735,1128,0,0
518,-104,0,0,0,0,0,0,0,0,0,-1,1742,1128,0,0
525,-104,0,0,0,0,0,0,0,0,0,-1,1749,1128,0,0
532,-104,0,0,0,0,0,0,0,0,0,-1,1756,1128,0,0
539,-104,0,0,0,0,0,0,0,0,0,-1,1763,1128,0,0
546,-104,0,0,0,0,0,0,0,0,0,-1,1770,1128,0,0
553,-104,0,0,0,0,0,0,0,0,0,-1,1777,1128,0,0
560,-104,0,0,0,0,0,0,0,0,0,-1,1784,1128,0,0
567,-104,0,0,0,0,0,0,0,0,0,-1,1791,1128,0,0
574,-104,0,0,0,0,0,0,0,0,0,-1,1798,1128,0,0
581,-104,0,0,0,0,0,0,0,0,0,-1,1805,1128,0,0
588,-104,0,0,0,0,0,0,0,0,0,-1,1812,1128,0,0
595,-104,0,0,0,0,0,0,0,0,0,-1,1819,1128,0,0
602,-104,0,0,0,0,0,0,0,0,0,-1,1826,1128,0,0
609,-104,0,0,0,0,0,0,0,0,0,-1,1833,1128,0,0
616,-104,0,0,0,0,0,0,0,0,0,-1,1840,1128,0,0
623,-104,0,0,0,0,0,0,0,0,0,-1,1847,1128,0,0
630,-104,0,0,0,0,0,0,0,0,0,-1,1854,1128,0,0
637,-104,0,0,0,0,0,0,0,0,0,-1,1861,1128,0,0
644,-104,71.5604,2.44556,0.00445175,-0.00434089,-0.000934877,0.00455005,-0.00443919,-0.104764,0.00519007,0.034938,1868,1128,71.5604,-2.44557
651,-104,71.5015,2.51819,0.00340221,-0.00363011,-0.000853957,0.00350443,-0.00373233,-0.119127,0.00417883,0.0353787,1875,1128,71.5014,-2.51817
658,-104,71.5787,2.33398,0.00277732,-0.00308982,-0.000712947,0.00286271,-0.00317521,-0.119204,0.00348755,0.0377383,1882,1128,71.5788,-2.33398
665,-104,71.8774,2.12781,0.00216311,-0.00261244,-0.000605948,0.0022388,-0.00268812,-0.124262,0.0028485,0.0420651,1889,1128,71.8775,-2.12785
672,-104,71.8894,2.31091,0.00162186,-0.00218554,-0.000517607,0.00169098,-0.00225466,-0.132739,0.00228575,0.0427949,1896,1128,71.8894,-2.31092
679,-104,71.6045,2.5304,0.00139317,-0.00187531,-0.000421082,0.00144655,-0.00192869,-0.126088,0.00195531,0.0387576,1903,1128,71.6045,-2.53039
686,-104,71.4259,2.29944,0.00140979,-0.00187242,-0.000374502,0.00145198,-0.00191461,-0.112179,0.00194981,0.0372428,1910,1128,71.4259,-2.29948
693,-104,71.5281,2.20728,0.00140223,-0.00184831,-0.000215805,0.0014165,-0.00186258,-0.0660044,0.00189901,0.0345497,1917,1128,71.528,-2.20725
700,-104,71.5785,2.24475,0.0014674,-0.00183159,-3.81991e-05,0.00146785,-0.00183204,-0.0115769,0.00190905,0.0277291,1924,1128,71.5785,-2.24472
707,-104,71.5471,2.33411,0,0,0,0,0,0,0,-1,1931,1128,71.5472,-2.33408
714,-104,45.5221,2.32166,0,0,0,0,0,0,0,-1,1938,1128,45.5221,-2.3216
721,-104,65.8538,9.35083,0,0,0,0,0,0,0,-1,1945,1128,65.8538,-9.35079
728,-104,66.0598,8.54358,0.00043908,-0.000392458,0.000983202,0.00109081,-0.00104419,0.585365,0.00123274,0.0387123,1952,1128,66.0598,-8.54354
735,-104,66.1891,8.0293,0.000170308,9.8259e-05,0.00138443,0.00151919,-0.00125062,0.772391,0.00160165,0.038064,1959,1128,66.189,-8.0293
742,-104,65.952,7.55237,-0.00042703,0.00089656,0.00181003,0.00216198,-0.00169245,0.960662,0.00223086,0.0258489,1966,1128,65.952,-7.55242
749,-104,65.8922,7.03613,-0.00131111,0.00181833,0.00221462,0.00296523,-0.00245801,1.09295,0.00313567,0.023975,1973,1128,65.8922,-7.03609
756,-104,65.9272,6.48999,-0.00260897,0.00335224,0.00251083,0.00426885,-0.00352558,1.22077,0.00450693,0.0176921,1980,1128,65.9273,-6.48999
763,-104,65.8774,5.94678,-0.00393473,0.00558519,0.00254309,0.00622195,-0.00457148,1.32545,0.00625583,0.0194817,1987,1128,65.8775,-5.94676
770,-104,65.7813,5.44519,-0.00530589,0.00802099,0.00236691,0.00842888,-0.00571378,1.40014,0.00821527,0.0177207,1994,1128,65.7812,-5.44523
777,-104,65.6394,4.84436,-0.00634265,0.0104869,0.00177805,0.0106727,-0.00652845,1.46668,0.0100267,0.0261831,2001,1128,65.6394,-4.84435
784,-104,65.6643,4.32715,-0.00682118,0.0130729,0.000495812,0.0130852,-0.00683353,1.54589,0.0116874,0.0422679,2008,1128,65.6642,-4.32713
791,-104,65.7166,3.974,-0.00642212,0.015503,-0.00200826,0.0156854,-0.00660455,-1.4802,0.0132203,0.0445852,2015,1128,65.7166,-3.97404
798,-104,65.6001,4.01611,0,0,0,0,0,0,0,-1,2022,1128,65.6001,-4.01606
805,-104,63.4602,2.33923,0,0,0,0,0,0,0,-1,2029,1128,63.4601,-2.33924
812,-104,64.8694,3.05481,0,0,0,0,0,0,0,-1,2036,1128,64.8693,-3.05481
-700,-111,0,0,0,0,0,0,0,0,0,-1,524,1135,0,0
-693,-111,-51.1601,-0.0498047,0,0,0,0,0,0,0,-1,531,1135,-51.1601,0.0498447
-686,-111,-49.4317,0.505737,0,0,0,0,0,0,0,-1,538,1135,-49.4317,-0.505695
-679,-111,-50.0522,0.531494,-0.0537717,-0.0170418,0.0106449,-0.0141798,-0.0566337,1.30814,0.0340287,0.0474251,545,1135,-50.0522,-0.531549
-672,-111,-50.6764,0.530518,-0.047329,-0.0120939,0.00807824,-0.0103301,-0.0490928,1.35583,0.0298863,0.0489839,552,1135,-50.6764,-0.530499
-665,-111,-51.3126,0.523315,0,0,0,0,0,0,0,-1,559,1135,-51.3126,-0.523275
-658,-111,-48.2744,1.67444,0,0,0,0,0,0,0,-1,566,1135,-48.2744,-1.67447
-651,-111,-49.2476,2.35278,0,0,0,0,0,0,0,-1,573,1135,-49.2476,-2.35281
-644,-111,-49.3424,3.04736,-0.0227996,0.000275479,0.00112971,0.000330655,-0.0228548,1.52199,0.0153479,0.029973,580,1135,-49.3424,-3.04739
-637,-111,-49.4445,3.71826,-0.017585,0.00208441,-0.000386345,0.002092,-0.0175926,-1.55116,0.0124843,0.0137241,587,1135,-49.4444,-3.71821
-630,-111,-49.4824,4.2002,-0.0125331,0.00266606,-0.00147762,0.00280838,-0.0126754,-1.47478,0.00952542,0.0280869,594,1135,-49.4823,-4.20021
-623,-111,-49.5208,4.88538,-0.00858154,0.00222082,-0.00200577,0.00258122,-0.00894194,-1.39301,0.00698259,0.0242809,601,1135,-49.5208,-4.88535
-616,-111,-49.9218,5.49304,-0.00660728,0.00120347,-0.00247039,0.00191922,-0.00732303,-1.28879,0.00563184,0.0289857,608,1135,-49.9218,-5.49308
-609,-111,-50.1573,6.03381,-0.00552217,0.000264489,-0.00243027,0.00114973,-0.00640741,-1.22148,0.00470194,0.0383409,615,1135,-50.1573,-6.03375
-602,-111,-50.0333,6.70349,0,0,0,0,0,0,0,-1,622,1135,-50.0333,-6.70352
-595,-111,-49.6929,7.37366,0,0,0,0,0,0,0,-1,629,1135,-49.6929,-7.37361
-588,-111,-49.3092,8.19861,0,0,0,0,0,0,0,-1,636,1135,-49.3092,-8.19865
-581,-111,-21.0555,3.14551,0,0,0,0,0,0,0,-1,643,1135,-21.0555,-3.14548
-574,-111,-55.3314,0.542603,0,0,0,0,0,0,0,-1,650,1135,-55.3314,-0.542619
-567,-111,-55.2739,0.435425,-0.0012146,-0.00167016,-0.00149875,7.35801e-05,-0.00295834,-0.709986,0.00199721,0.0394303,657,1135,-55.2739,-0.435448
-560,-111,-55.3171,0.356567,0.000205338,-0.00177831,-0.00122428,0.000789132,-0.00236211,-0.444954,0.00189341,0.0407186,664,1135,-55.3172,-0.356568
-553,-111,-55.3865,0.461182,0.000880884,-0.00136307,-0.00112876,0.00135043,-0.00183262,-0.394206,0.00184475,0.0446548,671,1135,-55.3865,-0.461167
-546,-111,-55.3593,0.398926,0.00194957,-0.000748995,-0.000594956,0.00207492,-0.000874343,-0.207648,0.00174915,0.0425924,678,1135,-55.3593,-0.39888
-539,-111,-55.505,0.30957,0.0040339,-0.000174985,0.000132064,0.00403804,-0.000179125,0.0313364,0.00275368,0.0412217,685,1135,-55.505,-0.30959
-532,-111,-55.584,0.49585,0.00680424,0.000504013,0.000890556,0.0069277,0.00038055,0.137758,0.00449699,0.0420772,692,1135,-55.5841,-0.495815
-525,-111,-55.3741,0.64563,0.0100765,0.00137708,0.00160336,0.0103626,0.00109098,0.176579,0.00657501,0.0372619,699,1135,-55.3741,-0.645659
-518,-111,0,0,0,0,0,0,0,0,0,-1,706,1135,0,0
-511,-111,0,0,0,0,0,0,0,0,0,-1,713,1135,0,0
-504,-111,0,0,0,0,0,0,0,0,0,-1,720,1135,0,0
-497,-111,0,0,0,0,0,0,0,0,0,-1,727,1135,0,0
-490,-111,0,0,0,0,0,0,0,0,0,-1,734,1135,0,0
-483,-111,0,0,0,0,0,0,0,0,0,-1,741,1135,0,0
-476,-111,0,0,0,0,0,0,0,0,0,-1,748,1135,0,0
-469,-111,0,0,0,0,0,0,0,0,0,-1,755,1135,0,0
-462,-111,0,0,0,0,0,0,0,0,0,-1,762,1135,0,0
-455,-111,0,0,0,0,0,0,0,0,0,-1,769,1135,0,0
-448,-111,0,0,0,0,0,0,0,0,0,-1,776,1135,0,0
-441,-111,0,0,0,0,0,0,0,0,0,-1,783,1135,0,0
-434,-111,0,0,0,0,0,0,0,0,0,-1,790,1135,0,0
-427,-111,0,0,0,0,0,0,0,0,0,-1,797,1135,0,0
-420,-111,0,0,0,0,0,0,0,0,0,-1,804,1135,0,0
-413,-111,0,0,0,0,0,0,0,0,0,-1,811,1135,0,0
-406,-111,0,0,0,0,0,0,0,0,0,-1,818,1135,0,0
-399,-111,0,0,0,0,0,0,0,0,0,-1,825,1135,0,0
-392,-111,0,0,0,0,0,0,0,0,0,-1,832,1135,0,0
-385,-111,0,0,0,0,0,0,0,0,0,-1,839,1135,0,0
-378,-111,0,0,0,0,0,0,0,0,0,-1,846,1135,0,0
-371,-111,0,0,0,0,0,0,0,0,0,-1,853,1135,0,0
-364,-111,0,0,0,0,0,0,0,0,0,-1,860,1135,0,0
-357,-111,0,0,0,0,0,0,0,0,0,-1,867,1135,0,0
-350,-111,0,0,0,0,0,0,0,0,0,-1,874,1135,0,0
-343,-111,0,0,0,0,0,0,0,0,0,-1,881,1135,0,0
-336,-111,0,0,0,0,0,0,0,0,0,-1,888,1135,0,0
-329,-111,0,0,0,0,0,0,0,0,0,-1,895,1135,0,0
-322,-111,0,0,0,0,0,0,0,0,0,-1,902,1135,0,0
-315,-111,0,0,0,0,0,0,0,0,0,-1,909,1135,0,0
-308,-111,0,0,0,0,0,0,0,0,0,-1,916,1135,0,0
-301,-111,0,0,0,0,0,0,0,0,0,-1,923,1135,0,0
-294,-111,0,0,0,0,0,0,0,0,0,-1,930,1135,0,0
-287,-111,0,0,0,0,0,0,0,0,0,-1,937,1135,0,0
-280,-111,0,0,0,0,0,0,0,0,0,-1,944,1135,0,0
-273,-111,0,0,0,0,0,0,0,0,0,-1,951,1135,0,0
-266,-111,0,0,0,0,0,0,0,0,0,-1,958,1135,0,0
-259,-111,0,0,0,0,0,0,0,0,0,-1,965,1135,0,0
-252,-111,0,0,0,0,0,0,0,0,0,-1,972,1135,0,0
-245,-111,0,0,0,0,0,0,0,0,0,-1,979,1135,0,0
-238,-111,0,0,0,0,0,0,0,0,0,-1,986,1135,0,0
-231,-111,0,0,0,0,0,0,0,0,0,-1,993,1135,0,0
-224,-111,0,0,0,0,0,0,0,0,0,-1,1000,1135,0,0
-217,-111,0,0,0,0,0,0,0,0,0,-1,1007,1135,0,0
-210,-111,0,0,0,0,0,0,0,0,0,-1,1014,1135,0,0
-203,-111,0,0,0,0,0,0,0,0,0,-1,1021,1135,0,0
-196,-111,0,0,0,0,0,0,0,0,0,-1,1028,1135,0,0
-189,-111,0,0,0,0,0,0,0,0,0,-1,1035,1135,0,0
-182,-111,0,0,0,0,0,0,0,0,0,-1,1042,1135,0,0
-175,-111,0,0,0,0,0,0,0,0,0,-1,1049,1135,0,0
-168,-111,0,0,0,0,0,0,0,0,0,-1,1056,1135,0,0
-161,-111,0,0,0,0,0,0,0,0,0,-1,1063,1135,0,0
-154,-111,0,0,0,0,0,0,0,0,0,-1,1070,1135,0,0
-147,-111,0,0,0,0,0,0,0,0,0,-1,1077,1135,0,0
-140,-111,0,0,0,0,0,0,0,0,0,-1,1084,1135,0,0
-133,-111,0,0,0,0,0,0,0,0,0,-1,1091,1135,0,0
-126,-111,0,0,0,0,0,0,0,0,0,-1,1098,1135,0,0
-119,-111,0,0,0,0,0,0,0,0,0,-1,1105,1135,0,0
-112,-111,0,0,0,0,0,0,0,0,0,-1,1112,1135,0,0
-105,-111,0,0,0,0,0,0,0,0,0,-1,1119,1135,0,0
-98,-111,0,0,0,0,0,0,0,0,0,-1,1126,1135,0,0
-91,-111,0,0,0,0,0,0,0,0,0,-1,1133,1135,0,0
-84,-111,0,0,0,0,0,0,0,0,0,-1,1140,1135,0,0
-77,-111,0,0,0,0,0,0,0,0,0,-1,1147,1135,0,0
-70,-111,0,0,0,0,0,0,0,0,0,-1,1154,1135,0,0
-63,-111,0,0,0,0,0,0,0,0,0,-1,1161,1135,0,0
-56,-111,0,0,0,0,0,0,0,0,0,-1,1168,1135,0,0
-49,-111,0,0,0,0,0,0,0,0,0,-1,1175,1135,0,0
-42,-111,0,0,0,0,0,0,0,0,0,-1,1182,1135,0,0
-35,-111,0,0,0,0,0,0,0,0,0,-1,1189,1135,0,0
-28,-111,0,0,0,0,0,0,0,0,0,-1,1196,1135,0,0
-21,-111,0,0,0,0,0,0,0,0,0,-1,1203,1135,0,0
-14,-111,0,0,0,0,0,0,0,0,0,-1,1210,1135,0,0
-7,-111,0,0,0,0,0,0,0,0,0,-1,1217,1135,0,0
0,-111,0,0,0,0,0,0,0,0,0,-1,1224,1135,0,0
7,-111,0,0,0,0,0,0,0,0,0,-1,1231,1135,0,0
14,-111,0,0,0,0,0,0,0,0,0,-1,1238,1135,0,0
21,-111,0,0,0,0,0,0,0,0,0,-1,1245,1135,0,0
28,-111,0,0,0,0,0,0,0,0,0,-1,1252,1135,0,0
35,-111,0,0,0,0,0,0,0,0,0,-1,1259,1135,0,0
42,-111,0,0,0,0,0,0,0,0,0,-1,1266,1135,0,0
49,-111,0,0,0,0,0,0,0,0,0,-1,1273,1135,0,0
56,-111,0,0,0,0,0,0,0,0,0,-1,1280,1135,0,0
63,-111,0,0,0,0,0,0,0,0,0,-1,1287,1135,0,0
70,-111,0,0,0,0,0,0,0,0,0,-1,1294,1135,0,0
77,-111,0,0,0,0,0,0,0,0,0,-1,1301,1135,0,0
84,-111,0,0,0,0,0,0,0,0,0,-1,1308,1135,0,0
91,-111,0,0,0,0,0,0,0,0,0,-1,1315,1135,0,0
98,-111,0,0,0,0,0,0,0,0,0,-1,1322,1135,0,0
105,-111,0,0,0,0,0,0,0,0,0,-1,1329,1135,0,0
112,-111,0,0,0,0,0,0,0,0,0,-1,1336,1135,0,0
119,-111,0,0,0,0,0,0,0,0,0,-1,1343,1135,0,0
126,-111,0,0,0,0,0,0,0,0,0,-1,1350,1135,0,0
133,-111,0,0,0,0,0,0,0,0,0,-1,1357,1135,0,0
140,-111,0,0,0,0,0,0,0,0,0,-1,1364,1135,0,0
147,-111,0,0,0,0,0,0,0,0,0,-1,1371,1135,0,0
154,-111,0,0,0,0,0,0,0,0,0,-1,1378,1135,0,0
161,-111,0,0,0,0,0,0,0,0,0,-1,1385,1135,0,0
168,-111,0,0,0,0,0,0,0,0,0,-1,1392,1135,0,0
175,-111,0,0,0,0,0,0,0,0,0,-1,1399,1135,0,0
182,-111,0,0,0,0,0,0,0,0,0,-1,1406,1135,0,0
189,-111,0,0,0,0,0,0,0,0,0,-1,1413,1135,0,0
196,-111,0,0,0,0,0,0,0,0,0,-1,1420,1135,0,0
203,-111,0,0,0,0,0,0,0,0,0,-1,1427,1135,0,0
210,-111,0,0,0,0,0,0,0,0,0,-1,1434,1135,0,0
217,-111,0,0,0,0,0,0,0,0,0,-1,1441,1135,0,0
224,-111,0,0,0,0,0,0,0,0,0,-1,1448,1135,0,0
231,-111,0,0,0,0,0,0,0,0,0,-1,1455,1135,0,0
238,-111,0,0,0,0,0,0,0,0,0,-1,1462,1135,0,0
245,-111,0,0,0,0,0,0,0,0,0,-1,1469,1135,0,0
252,-111,0,0,0,0,0,0,0,0,0,-1,1476,1135,0,0
259,-111,0,0,0,0,0,0,0,0,0,-1,1483,1135,0,0
266,-111,0,0,0,0,0,0,0,0,0,-1,1490,1135,0,0
273,-111,0,0,0,0,0,0,0,0,0,-1,1497,1135,0,0
280,-111,0,0,0,0,0,0,0,0,0,-1,1504,1135,0,0
287,-111,0,0,0,0,0,0,0,0,0,-1,1511,1135,0,0
294,-111,0,0,0,0,0,0,0,0,0,-1,1518,1135,0,0
301,-111,0,0,0,0,0,0,0,0,0,-1,1525,1135,0,0
308,-111,0,0,0,0,0,0,0,0,0,-1,1532,1135,0,0
315,-111,0,0,0,0,0,0,0,0,0,-1,1539,1135,0,0
322,-111,0,0,0,0,0,0,0,0,0,-1,1546,1135,0,0
329,-111,0,0,0,0,0,0,0,0,0,-1,1553,1135,0,0
336,-111,0,0,0,0,0,0,0,0,0,-1,1560,1135,0,0
343,-111,0,0,0,0,0,0,0,0,0,-1,1567,1135,0,0
350,-111,0,0,0,0,0,0,0,0,0,-1,1574,1135,0,0
357,-111,0,0,0,0,0,0,0,0,0,-1,1581,1135,0,0
364,-111,0,0,0,0,0,0,0,0,0,-1,1588,1135,0,0
371,-111,0,0,0,0,0,0,0,0,0,-1,1595,1135,0,0
378,-111,0,0,0,0,0,0,0,0,0,-1,1602,1135,0,0
385,-111,0,0,0,0,0,0,0,0,0,-1,1609,1135,0,0
392,-111,0,0,0,0,0,0,0,0,0,-1,1616,1135,0,0
399,-111,0,0,0,0,0,0,0,0,0,-1,1623,1135,0,0
406,-111,0,0,0,0,0,0,0,0,0,-1,1630,1135,0,0
413,-111,0,0,0,0,0,0,0,0,0,-1,1637,1135,0,0
420,-111,0,0,0,0,0,0,0,0,0,-1,1644,1135,0,0
427,-111,0,0,0,0,0,0,0,0,0,-1,1651,1135,0,0
434,-111,0,0,0,0,0,0,0,0,0,-1,1658,1135,0,0
441,-111,0,0,0,0,0,0,0,0,0,-1,1665,1135,0,0
448,-111,0,0,0,0,0,0,0,0,0,-1,1672,1135,0,0
455,-111,0,0,0,0,0,0,0,0,0,-1,1679,1135,0,0
462,-111,0,0,0,0,0,0,0,0,0,-1,1686,1135,0,0
469,-111,0,0,0,0,0,0,0,0,0,-1,1693,1135,0,0
476,-111,0,0,0,0,0,0,0,0,0,-1,1700,1135,0,0
483,-111,0,0,0,0,0,0,0,0,0,-1,1707,1135,0,0
490,-111,0,0,0,0,0,0,0,0,0,-1,1714,1135,0,0
497,-111,0,0,0,0,0,0,0,0,0,-1,1721,1135,0,0
504,-111,0,0,0,0,0,0,0,0,0,-1,1728,1135,0,0
511,-111,0,0,0,0,0,0,0,0,0,-1,1735,1135,0,0
518,-111,0,0,0,0,0,0,0,0,0,-1,1742,1135,0,0
525,-111,0,0,0,0,0,0,0,0,0,-1,1749,1135,0,0
532,-111,0,0,0,0,0,0,0,0,0,-1,1756,1135,0,0
539,-111,0,0,0,0,0,0,0,0,0,-1,1763,1135,0,0
546,-111,0,0,0,0,0,0,0,0,0,-1,1770,1135,0,0
553,-111,0,0,0,0,0,0,0,0,0,-1,1777,1135,0,0
560,-111,0,0,0,0,0,0,0,0,0,-1,1784,1135,0,0
567,-111,0,0,0,0,0,0,0,0,0,-1,1791,1135,0,0
574,-111,0,0,0,0,0,0,0,0,0,-1,1798,1135,0,0
581,-111,0,0,0,0,0,0,0,0,0,-1,1805,1135,0,0
588,-111,0,0,0,0,0,0,0,0,0,-1,1812,1135,0,0
595,-111,0,0,0,0,0,0,0,0,0,-1,1819,1135,0,0
602,-111,0,0,0,0,0,0,0,0,0,-1,1826,1135,0,0
609,-111,0,0,0,0,0,0,0,0,0,-1,1833,1135,0,0
616,-111,0,0,0,0,0,0,0,0,0,-1,1840,1135,0,0
623,-111,0,0,0,0,0,0,0,0,0,-1,1847,1135,0,0
630,-111,0,0,0,0,0,0,0,0,0,-1,1854,1135,0,0
637,-111,0,0,0,0,0,0,0,0,0,-1,1861,1135,0,0
644,-111,71.394,2.43042,0.00447221,-0.00405389,-0.00123418,0.00464726,-0.00422895,-0.140901,0.00512658,0.0349935,1868,1135,71.394,-2.43038
651,-111,71.4219,2.51453,0.0033242,-0.0033937,-0.00100173,0.00347039,-0.00353989,-0.144915,0.00404746,0.0358291,1875,1135,71.4219,-2.51452
658,-111,71.6149,2.44592,0.00261708,-0.00288267,-0.000755865,0.00271907,-0.00298466,-0.134124,0.00329424,0.0401769,1882,1135,71.6148,-2.44588
665,-111,71.8268,2.22607,0.00194739,-0.00241856,-0.00058061,0.00202328,-0.00249446,-0.129977,0.00261304,0.0427211,1889,1135,71.8268,-2.2261
672,-111,71.7434,2.16565,0.00137228,-0.00199164,-0.000457258,0.00143332,-0.00205268,-0.132723,0.00202321,0.0435835,1896,1135,71.7435,-2.16565
679,-111,71.5717,2.3949,0.00118151,-0.00172434,-0.000334028,0.00121941,-0.00176224,-0.112987,0.00173094,0.0383675,1903,1135,71.5717,-2.39489
686,-111,71.4161,2.35864,0.00127403,-0.0017883,-0.000274163,0.00129839,-0.00181265,-0.0885888,0.00180432,0.0376338,1910,1135,71.4162,-2.35863
693,-111,71.4594,2.29651,0.00129595,-0.00177979,-0.000100233,0.00129921,-0.00178306,-0.0325421,0.00178684,0.0374364,1917,1135,71.4594,-2.29652
700,-111,71.6111,2.28064,0.0013724,-0.00178511,7.94433e-05,0.0013744,-0.00178711,0.0251389,0.00183047,0.0304426,1924,1135,71.611,-2.28058
707,-111,71.6013,2.33899,0,0,0,0,0,0,0,-1,1931,1135,71.6013,-2.33904
714,-111,45.1654,7.39746,0,0,0,0,0,0,0,-1,1938,1135,45.1654,-7.39745
721,-111,65.4014,9.46033,0,0,0,0,0,0,0,-1,1945,1135,65.4014,-9.46029
728,-111,65.4749,8.72571,0.000603936,-0.000513011,0.00102218,0.00121026,-0.00111933,0.535378,0.00134533,0.0292804,1952,1135,65.4748,-8.72568
735,-111,65.5072,8.18567,0.000499288,-0.000158722,0.00144908,0.00165624,-0.00131568,0.673769,0.00171959,0.0312339,1959,1135,65.5072,-8.18563
742,-111,65.3796,7.66199,6.85518e-05,0.000473092,0.00193438,0.00221574,-0.0016741,0.837492,0.00225305,0.0204114,1966,1135,65.3797,-7.66198
749,-111,65.29,7.08167,-0.000748593,0.00135325,0.00235365,0.00287994,-0.00227529,0.99537,0.00298319,0.0201543,1973,1135,65.29,-7.08161
756,-111,65.282,6.48633,-0.00204401,0.0029445,0.00270986,0.00413327,-0.00323278,1.15739,0.00426337,0.0176055,1980,1135,65.282,-6.48633
763,-111,65.2732,5.93799,-0.00323807,0.00508642,0.00295851,0.00603075,-0.0041824,1.26183,0.00592867,0.0167627,1987,1135,65.2732,-5.93795
770,-111,65.2158,5.38037,-0.00438005,0.00738329,0.00307311,0.00813774,-0.0051345,1.33006,0.00772785,0.0144899,1994,1135,65.2158,-5.38041
777,-111,65.0088,4.77197,-0.0051861,0.00969324,0.00289122,0.0102353,-0.00572815,1.38547,0.00933815,0.029157,2001,1135,65.0088,-4.772
784,-111,65.0654,4.26062,-0.00538644,0.0120969,0.00218846,0.0123667,-0.00565621,1.44814,0.0106432,0.0434674,2008,1135,65.0654,-4.26059
791,-111,65.2439,3.88623,-0.00465478,0.0142813,0.000469194,0.0142929,-0.0046664,1.54604,0.0114068,0.0487313,2015,1135,65.2438,-3.88619
798,-111,65.3228,3.44824,0,0,0,0,0,0,0,-1,2022,1135,65.3228,-3.44823
805,-111,64.1055,3.64001,0,0,0,0,0,0,0,-1,2029,1135,64.1056,-3.64006
812,-111,64.1104,3.2959,0,0,0,0,0,0,0,-1,2036,1135,64.1103,-3.2959
-700,-118,0,0,0,0,0,0,0,0,0,-1,524,1142,0,0
-693,-118,-47.6636,-0.42041,0,0,0,0,0,0,0,-1,531,1142,-47.6636,0.420464
-686,-118,-48.5419,0.436523,0,0,0,0,0,0,0,-1,538,1142,-48.5419,-0.436489
-679,-118,-49.291,0.538086,-0.0607133,-0.00748181,0.00788859,-0.00633738,-0.0618578,1.42673,0.0392968,0.0467555,545,1142,-49.291,-0.538137
-672,-118,-50.037,0.569702,-0.0532706,-0.0035776,0.00553623,-0.00296829,-0.0538799,1.46118,0.0349725,0.049042,552,1142,-50.037,-0.5697
-665,-118,-51.1988,0.215942,0,0,0,0,0,0,0,-1,559,1142,-51.1988,-0.215919
-658,-118,-52.6106,-0.377075,0,0,0,0,0,0,0,-1,566,1142,-52.6106,0.377069
-651,-118,-48.373,2.18152,0,0,0,0,0,0,0,-1,573,1142,-48.373,-2.18147
-644,-118,-48.6177,2.97998,-0.0249478,0.00366842,-0.000219065,0.00367009,-0.0249495,-1.56314,0.0179817,0.037745,580,1142,-48.6177,-2.97993
-637,-118,-48.7983,3.74048,-0.0189233,0.00436539,-0.00142401,0.00445214,-0.0190101,-1.50995,0.0143889,0.0194942,587,1142,-48.7983,-3.74048
-630,-118,-48.8336,4.31775,-0.0132638,0.00389461,-0.0021925,0.00417034,-0.0135396,-1.44569,0.0106911,0.0282888,594,1142,-48.8335,-4.31777
-623,-118,-48.8419,4.94092,-0.00886494,0.00257746,-0.00261775,0.0031479,-0.00943538,-1.35624,0.00756123,0.023208,601,1142,-48.8418,-4.9409
-616,-118,-49.0414,5.51477,-0.00706313,0.00125952,-0.00309056,0.00228165,-0.00808526,-1.25139,0.00629021,0.0350602,608,1142,-49.0414,-5.51477
-609,-118,-49.624,6.00037,0,0,0,0,0,0,0,-1,615,1142,-49.624,-6.00033
-602,-118,-49.4938,6.71802,0,0,0,0,0,0,0,-1,622,1142,-49.4939,-6.71799
-595,-118,-49.2271,7.27686,0,0,0,0,0,0,0,-1,629,1142,-49.2271,-7.27683
-588,-118,-48.5453,8.28833,0,0,0,0,0,0,0,-1,636,1142,-48.5453,-8.28828
-581,-118,-24.6116,3.89648,0,0,0,0,0,0,0,-1,643,1142,-24.6116,-3.89645
-574,-118,-55.2669,0.358276,0,0,0,0,0,0,0,-1,650,1142,-55.2669,-0.358336
-567,-118,-55.2413,0.36853,-0.00245567,-0.00134113,-0.0017867,-2.68091e-05,-0.00376998,-0.936567,0.00250443,0.0410886,657,1142,-55.2413,-0.368491
-560,-118,-55.2203,0.436523,-0.00103018,-0.00149502,-0.00151443,0.000269562,-0.00279477,-0.709257,0.00195922,0.0357691,664,1142,-55.2203,-0.436511
-553,-118,-55.201,0.577515,-0.000128939,-0.00108823,-0.00148131,0.000948447,-0.00216562,-0.628826,0.00184312,0.0403113,671,1142,-55.201,-0.577466
-546,-118,-55.1535,0.661621,0.00135333,-0.000511317,-0.000950295,0.00175228,-0.000910267,-0.397472,0.00156263,0.0435882,678,1142,-55.1535,-0.66157
-539,-118,-55.1837,0.647705,0.00379606,0.000113225,-0.000302228,0.00382069,8.85878e-05,-0.0813387,0.00251812,0.0465561,685,1142,-55.1837,-0.647665
-532,-118,-55.4305,0.713623,0.00694357,0.000876694,0.000377762,0.006967,0.000853263,0.0619473,0.00438799,0.0444387,692,1142,-55.4305,-0.713644
-525,-118,-55.1547,0.5625,0.010576,0.00187551,0.00101083,0.0106919,0.00175961,0.114155,0.00661981,0.0426468,699,1142,-55.1547,-0.562557
-518,-118,0,0,0,0,0,0,0,0,0,-1,706,1142,0,0
-511,-118,0,0,0,0,0,0,0,0,0,-1,713,1142,0,0
-504,-118,0,0,0,0,0,0,0,0,0,-1,720,1142,0,0
-497,-118,0,0,0,0,0,0,0,0,0,-1,727,1142,0,0
-490,-118,0,0,0,0,0,0,0,0,0,-1,734,1142,0,0
-483,-118,0,0,0,0,0,0,0,0,0,-1,741,1142,0,0
-476,-118,0,0,0,0,0,0,0,0,0,-1,748,1142,0,0
-469,-118,0,0,0,0,0,0,0,0,0,-1,755,1142,0,0
-462,-118,0,0,0,0,0,0,0,0,0,-1,762,1142,0,0
-455,-118,0,0,0,0,0,0,0,0,0,-1,769,1142,0,0
-448,-118,0,0,0,0,0,0,0,0,0,-1,776,1142,0,0
-441,-118,0,0,0,0,0,0,0,0,0,-1,783,1142,0,0
-434,-118,0,0,0,0,0,0,0,0,0,-1,790,1142,0,0
-427,-118,0,0,0,0,0,0,0,0,0,-1,797,1142,0,0
-420,-118,0,0,0,0,0,0,0,0,0,-1,804,1142,0,0
-413,-118,0,0,0,0,0,0,0,0,0,-1,811,1142,0,0
-406,-118,0,0,0,0,0,0,0,0,0,-1,818,1142,0,0
-399,-118,0,0,0,0,0,0,0,0,0,-1,825,1142,0,0
-392,-118,0,0,0,0,0,0,0,0,0,-1,832,1142,0,0
-385,-118,0,0,0,0,0,0,0,0,0,-1,839,1142,0,0
-378,-118,0,0,0,0,0,0,0,0,0,-1,846,1142,0,0
-371,-118,0,0,0,0,0,0,0,0,0,-1,853,1142,0,0
-364,-118,0,0,0,0,0,0,0,0,0,-1,860,1142,0,0
-357,-118,0,0,0,0,0,0,0,0,0,-1,867,1142,0,0
-350,-118,0,0,0,0,0,0,0,0,0,-1,874,1142,0,0
-343,-118,0,0,0,0,0,0,0,0,0,-1,881,1142,0,0
-336,-118,0,0,0,0,0,0,0,0,0,-1,888,1142,0,0
-329,-118,0,0,0,0,0,0,0,0,0,-1,895,1142,0,0
-322,-118,0,0,0,0,0,0,0,0,0,-1,902,1142,0,0
-315,-118,0,0,0,0,0,0,0,0,0,-1,909,1142,0,0
-308,-118,0,0,0,0,0,0,0,0,0,-1,916,1142,0,0
-301,-118,0,0,0,0,0,0,0,0,0,-1,923,1142,0,0
-294,-118,0,0,0,0,0,0,0,0,0,-1,930,1142,0,0
-287,-118,0,0,0,0,0,0,0,0,0,-1,937,1142,0,0
-280,-118,0,0,0,0,0,0,0,0,0,-1,944,1142,0,0
-273,-118,0,0,0,0,0,0,0,0,0,-1,951,1142,0,0
-266,-118,0,0,0,0,0,0,0,0,0,-1,958,1142,0,0
-259,-118,0,0,0,0,0,0,0,0,0,-1,965,1142,0,0
-252,-118,0,0,0,0,0,0,0,0,0,-1,972,1142,0,0
-245,-118,0,0,0,0,0,0,0,0,0,-1,979,1142,0,0
-238,-118,0,0,0,0,0,0,0,0,0,-1,986,1142,0,0
-231,-118,0,0,0,0,0,0,0,0,0,-1,993,1142,0,0
-224,-118,0,0,0,0,0,0,0,0,0,-1,1000,1142,0,0
-217,-118,0,0,0,0,0,0,0,0,0,-1,1007,1142,0,0
-210,-118,0,0,0,0,0,0,0,0,0,-1,1014,1142,0,0
-203,-118,0,0,0,0,0,0,0,0,0,-1,1021,1142,0,0
-196,-118,0,0,0,0,0,0,0,0,0,-1,1028,1142,0,0
-189,-118,0,0,0,0,0,0,0,0,0,-1,1035,1142,0,0
-182,-118,0,0,0,0,0,0,0,0,0,-1,1042,1142,0,0
-175,-118,0,0,0,0,0,0,0,0,0,-1,1049,1142,0,0
-168,-118,0,0,0,0,0,0,0,0,0,-1,1056,1142,0,0
-161,-118,0,0,0,0,0,0,0,0,0,-1,1063,1142,0,0
-154,-118,0,0,0,0,0,0,0,0,0,-1,1070,1142,0,0
-147,-118,0,0,0,0,0,0,0,0,0,-1,1077,1142,0,0
-140,-118,0,0,0,0,0,0,0,0,0,-1,1084,1142,0,0
-133,-118,0,0,0,0,0,0,0,0,0,-1,1091,1142,0,0
-126,-118,0,0,0,0,0,0,0,0,0,-1,1098,1142,0,0
-119,-118,0,0,0,0,0,0,0,0,0,-1,1105,1142,0,0
-112,-118,0,0,0,0,0,0,0,0,0,-1,1112,1142,0,0
-105,-118,0,0,0,0,0,0,0,0,0,-1,1119,1142,0,0
-98,-118,0,0,0,0,0,0,0,0,0,-1,1126,1142,0,0
-91,-118,0,0,0,0,0,0,0,0,0,-1,1133,1142,0,0
-84,-118,0,0,0,0,0,0,0,0,0,-1,1140,1142,0,0
-77,-118,0,0,0,0,0,0,0,0,0,-1,1147,1142,0,0
-70,-118,0,0,0,0,0,0,0,0,0,-1,1154,1142,0,0
-63,-118,0,0,0,0,0,0,0,0,0,-1,1161,1142,0,0
-56,-118,0,0,0,0,0,0,0,0,0,-1,1168,1142,0,0
-49,-118,0,0,0,0,0,0,0,0,0,-1,1175,1142,0,0
-42,-118,0,0,0,0,0,0,0,0,0,-1,1182,1142,0,0
-35,-118,0,0,0,0,0,0,0,0,0,-1,1189,1142,0,0
-28,-118,0,0,0,0,0,0,0,0,0,-1,1196,1142,0,0
-21,-118,0,0,0,0,0,0,0,0,0,-1,1203,1142,0,0
-14,-118,0,0,0,0,0,0,0,0,0,-1,1210,1142,0,0
-7,-118,0,0,0,0,0,0,0,0,0,-1,1217,1142,0,0
0,-118,0,0,0,0,0,0,0,0,0,-1,1224,1142,0,0
7,-118,0,0,0,0,0,0,0,0,0,-1,1231,1142,0,0
14,-118,0,0,0,0,0,0,0,0,0,-1,1238,1142,0,0
21,-118,0,0,0,0,0,0,0,0,0,-1,1245,1142,0,0
28,-118,0,0,0,0,0,0,0,0,0,-1,1252,1142,0,0
35,-118,0,0,0,0,0,0,0,0,0,-1,1259,1142,0,0
42,-118,0,0,0,0,0,0,0,0,0,-1,1266,1142,0,0
49,-118,0,0,0,0,0,0,0,0,0,-1,1273,1142,0,0
56,-118,0,0,0,0,0,0,0,0,0,-1,1280,1142,0,0
63,-118,0,0,0,0,0,0,0,0,0,-1,1287,1142,0,0
70,-118,0,0,0,0,0,0,0,0,0,-1,1294,1142,0,0
77,-118,0,0,0,0,0,0,0,0,0,-1,1301,1142,0,0
84,-118,0,0,0,0,0,0,0,0,0,-1,1308,1142,0,0
91,-118,0,0,0,0,0,0,0,0,0,-1,1315,1142,0,0
98,-118,0,0,0,0,0,0,0,0,0,-1,1322,1142,0,0
105,-118,0,0,0,0,0,0,0,0,0,-1,1329,1142,0,0
112,-118,0,0,0,0,0,0,0,0,0,-1,1336,1142,0,0
119,-118,0,0,0,0,0,0,0,0,0,-1,1343,1142,0,0
126,-118,0,0,0,0,0,0,0,0,0,-1,1350,1142,0,0
133,-118,0,0,0,0,0,0,0,0,0,-1,1357,1142,0,0
140,-118,0,0,0,0,0,0,0,0,0,-1,1364,1142,0,0
147,-118,0,0,0,0,0,0,0,0,0,-1,1371,1142,0,0
154,-118,0,0,0,0,0,0,0,0,0,-1,1378,1142,0,0
161,-118,0,0,0,0,0,0,0,0,0,-1,1385,1142,0,0
168,-118,0,0,0,0,0,0,0,0,0,-1,1392,1142,0,0
175,-118,0,0,0,0,0,0,0,0,0,-1,1399,1142,0,0
182,-118,0,0,0,0,0,0,0,0,0,-1,1406,1142,0,0
189,-118,0,0,0,0,0,0,0,0,0,-1,1413,1142,0,0
196,-118,0,0,0,0,0,0,0,0,0,-1,1420,1142,0,0
203,-118,0,0,0,0,0,0,0,0,0,-1,1427,1142,0,0
210,-118,0,0,0,0,0,0,0,0,0,-1,1434,1142,0,0
217,-118,0,0,0,0,0,0,0,0,0,-1,1441,1142,0,0
224,-118,0,0,0,0,0,0,0,0,0,-1,1448,1142,0,0
231,-118,0,0,0,0,0,0,0,0,0,-1,1455,1142,0,0
238,-118,0,0,0,0,0,0,0,0,0,-1,1462,1142,0,0
245,-118,0,0,0,0,0,0,0,0,0,-1,1469,1142,0,0
252,-118,0,0,0,0,0,0,0,0,0,-1,1476,1142,0,0
259,-118,0,0,0,0,0,0,0,0,0,-1,1483,1142,0,0
266,-118,0,0,0,0,0,0,0,0,0,-1,1490,1142,0,0
273,-118,0,0,0,0,0,0,0,0,0,-1,1497,1142,0,0
280,-118,0,0,0,0,0,0,0,0,0,-1,1504,1142,0,0
287,-118,0,0,0,0,0,0,0,0,0,-1,1511,1142,0,0
294,-118,0,0,0,0,0,0,0,0,0,-1,1518,1142,0,0
301,-118,0,0,0,0,0,0,0,0,0,-1,1525,1142,0,0
308,-118,0,0,0,0,0,0,0,0,0,-1,1532,1142,0,0
315,-118,0,0,0,0,0,0,0,0,0,-1,1539,1142,0,0
322,-118,0,0,0,0,0,0,0,0,0,-1,1546,1142,0,0
329,-118,0,0,0,0,0,0,0,0,0,-1,1553,1142,0,0
336,-118,0,0,0,0,0,0,0,0,0,-1,1560,1142,0,0
343,-118,0,0,0,0,0,0,0,0,0,-1,1567,1142,0,0
350,-118,0,0,0,0,0,0,0,0,0,-1,1574,1142,0,0
357,-118,0,0,0,0,0,0,0,0,0,-1,1581,1142,0,0
364,-118,0,0,0,0,0,0,0,0,0,-1,1588,1142,0,0
371,-118,0,0,0,0,0,0,0,0,0,-1,1595,1142,0,0
378,-118,0,0,0,0,0,0,0,0,0,-1,1602,1142,0,0
385,-118,0,0,0,0,0,0,0,0,0,-1,1609,1142,0,0
392,-118,0,0,0,0,0,0,0,0,0,-1,1616,1142,0,0
399,-118,0,0,0,0,0,0,0,0,0,-1,1623,1142,0,0
406,-118,0,0,0,0,0,0,0,0,0,-1,1630,1142,0,0
413,-118,0,0,0,0,0,0,0,0,0,-1,1637,1142,0,0
420,-118,0,0,0,0,0,0,0,0,0,-1,1644,1142,0,0
427,-118,0,0,0,0,0,0,0,0,0,-1,1651,1142,0,0
434,-118,0,0,0,0,0,0,0,0,0,-1,1658,1142,0,0
441,-118,0,0,0,0,0,0,0,0,0,-1,1665,1142,0,0
448,-118,0,0,0,0,0,0,0,0,0,-1,1672,1142,0,0
455,-118,0,0,0,0,0,0,0,0,0,-1,1679,1142,0,0
462,-118,0,0,0,0,0,0,0,0,0,-1,1686,1142,0,0
469,-118,0,0,0,0,0,0,0,0,0,-1,1693,1142,0,0
476,-118,0,0,0,0,0,0,0,0,0,-1,1700,1142,0,0
483,-118,0,0,0,0,0,0,0,0,0,-1,1707,1142,0,0
490,-118,0,0,0,0,0,0,0,0,0,-1,1714,1142,0,0
497,-118,0,0,0,0,0,0,0,0,0,-1,1721,1142,0,0
504,-118,0,0,0,0,0,0,0,0,0,-1,1728,1142,0,0
511,-118,0,0,0,0,0,0,0,0,0,-1,1735,1142,0,0
518,-118,0,0,0,0,0,0,0,0,0,-1,1742,1142,0,0
525,-118,0,0,0,0,0,0,0,0,0,-1,1749,1142,0,0
532,-118,0,0,0,0,0,0,0,0,0,-1,1756,1142,0,0
539,-118,0,0,0,0,0,0,0,0,0,-1,1763,1142,0,0
546,-118,0,0,0,0,0,0,0,0,0,-1,1770,1142,0,0
553,-118,0,0,0,0,0,0,0,0,0,-1,1777,1142,0,0
560,-118,0,0,0,0,0,0,0,0,0,-1,1784,1142,0,0
567,-118,0,0,0,0,0,0,0,0,0,-1,1791,1142,0,0
574,-118,0,0,0,0,0,0,0,0,0,-1,1798,1142,0,0
581,-118,0,0,0,0,0,0,0,0,0,-1,1805,1142,0,0
588,-118,0,0,0,0,0,0,0,0,0,-1,1812,1142,0,0
595,-118,0,0,0,0,0,0,0,0,0,-1,1819,1142,0,0
602,-118,0,0,0,0,0,0,0,0,0,-1,1826,1142,0,0
609,-118,0,0,0,0,0,0,0,0,0,-1,1833,1142,0,0
616,-118,0,0,0,0,0,0,0,0,0,-1,1840,1142,0,0
623,-118,0,0,0,0,0,0,0,0,0,-1,1847,1142,0,0
630,-118,0,0,0,0,0,0,0,0,0,-1,1854,1142,0,0
637,-118,0,0,0,0,0,0,0,0,0,-1,1861,1142,0,0
644,-118,71.3618,2.34094,0.00430208,-0.00312662,-0.00144084,0.00457175,-0.00339629,-0.185021,0.00461701,0.0378157,1868,1142,71.3619,-2.34099
651,-118,71.4756,2.45081,0.0031121,-0.00268537,-0.00111721,0.00331994,-0.00289321,-0.183933,0.00358999,0.0385901,1875,1142,71.4755,-2.45076
658,-118,71.5615,2.52869,0.00235964,-0.00231567,-0.000822743,0.0025002,-0.00245623,-0.169207,0.00286163,0.039929,1882,1142,71.5615,-2.52868
665,-118,71.5933,2.33252,0.00167229,-0.00194693,-0.000627209,0.0017779,-0.00205254,-0.166821,0.0022134,0.0399629,1889,1142,71.5933,-2.33254
672,-118,71.5305,2.24609,0.0011018,-0.00158054,-0.000514116,0.00119697,-0.0016757,-0.183028,0.0016662,0.0436678,1896,1142,71.5305,-2.24614
679,-118,71.5398,2.24023,0.000968452,-0.00138937,-0.000389009,0.00103097,-0.00145189,-0.159362,0.00144033,0.0411457,1903,1142,71.5398,-2.24025
686,-118,71.5034,2.34143,0.00115944,-0.00153133,-0.00031689,0.00119626,-0.00156814,-0.115661,0.00160083,0.0372138,1910,1142,71.5035,-2.34141
693,-118,71.463,2.28174,0.00120421,-0.00156465,-0.000123935,0.00120975,-0.00157019,-0.0446412,0.00160949,0.0389004,1917,1142,71.4631,-2.28172
700,-118,71.5846,2.30298,0.0012744,-0.00161214,6.19864e-05,0.00127573,-0.00161347,0.0214612,0.00167187,0.0278887,1924,1142,71.5846,-2.30302
707,-118,71.6726,2.51514,0,0,0,0,0,0,0,-1,1931,1142,71.6725,-2.5151
714,-118,50.4819,8.53809,0,0,0,0,0,0,0,-1,1938,1142,50.4819,-8.53809
721,-118,64.8435,9.52051,0,0,0,0,0,0,0,-1,1945,1142,64.8436,-9.52051
728,-118,64.8496,8.87488,0.00070535,-0.000593811,0.000986046,0.00123655,-0.00112501,0.494139,0.00136395,0.0237672,1952,1142,64.8496,-8.8749
735,-118,64.8265,8.30957,0.000753807,-0.000407504,0.00145318,0.00173805,-0.00139174,0.595328,0.00181067,0.0246035,1959,1142,64.8265,-8.30952
742,-118,64.7942,7.77588,0.00049697,4.08561e-05,0.00201035,0.00229216,-0.00175433,0.728919,0.00234311,0.0350801,1966,1142,64.7942,-7.77592
749,-118,64.6708,7.14124,-0.000203159,0.000872238,0.0024571,0.00284979,-0.00218071,0.893117,0.00291291,0.0244718,1973,1142,64.6708,-7.1412
756,-118,64.668,6.50305,-0.00144173,0.00247848,0.00292226,0.00403713,-0.00300038,1.08081,0.00407778,0.0202138,1980,1142,64.668,-6.50308
763,-118,64.6858,5.93213,-0.00260753,0.00451065,0.00363302,0.00603742,-0.0041343,1.17296,0.00590681,0.0117982,1987,1142,64.6858,-5.93208
770,-118,64.5847,5.38281,-0.00374974,0.00664328,0.00442236,0.00827033,-0.00537679,1.21825,0.00793798,0.0141768,1994,1142,64.5848,-5.38279
777,-118,64.4124,4.83472,-0.00477482,0.00877654,0.00526916,0.0105842,-0.00658249,1.24031,0.0100006,0.0304748,2001,1142,64.4124,-4.83468
784,-118,64.4622,4.22559,-0.00556279,0.0109706,0.00625947,0.0130731,-0.00766524,1.24675,0.0121082,0.0439378,2008,1142,64.4622,-4.22555
791,-118,64.8879,3.85156,0,0,0,0,0,0,0,-1,2015,1142,64.8879,-3.85152
798,-118,63.7803,3.88281,0,0,0,0,0,0,0,-1,2022,1142,63.7804,-3.88278
805,-118,63.8909,3.87524,0,0,0,0,0,0,0,-1,2029,1142,63.8908,-3.87521
812,-118,63.5508,3.48438,0,0,0,0,0,0,0,-1,2036,1142,63.5508,-3.48443
-700,-125,0,0,0,0,0,0,0,0,0,-1,524,1149,0,0
-693,-125,-47.5518,0.0032959,-0.0785999,-0.0120736,0.0128492,-0.00967806,-0.0809954,1.38648,0.0510774,0.0486817,531,1149,-47.5517,-0.00332557
-686,-125,-48.0152,0.428101,-0.0736836,-0.00404012,0.00789449,-0.00315645,-0.0745672,1.45932,0.0486935,0.0475547,538,1149,-48.0152,-0.428093
-679,-125,-48.6383,0.600098,-0.0660944,0.000690484,0.004768,0.00102917,-0.0664331,1.49988,0.0446357,0.046002,545,1149,-48.6383,-0.60004
-672,-125,-49.4101,0.77832,-0.0575167,0.00355256,0.00264545,0.00366694,-0.0576311,1.52759,0.0396995,0.0490107,552,1149,-49.4101,-0.778376
-665,-125,-50.1868,0.870605,0,0,0,0,0,0,0,-1,559,1149,-50.1868,-0.870563
-658,-125,-47.847,1.84973,0,0,0,0,0,0,0,-1,566,1149,-47.847,-1.84974
-651,-125,-47.8168,2.5426,-0.0331071,0.00639203,-0.000901037,0.00641257,-0.0331276,-1.548,0.0245039,0.0498013,573,1149,-47.8168,-2.54259
-644,-125,-47.9835,3.10779,-0.0257254,0.00615727,-0.0015944,0.00623681,-0.0258049,-1.52095,0.0196155,0.0358251,580,1149,-47.9835,-3.10773
-637,-125,-48.1691,3.72754,-0.0190791,0.00586443,-0.00238793,0.00609098,-0.0193057,-1.47621,0.0153101,0.0159321,587,1149,-48.169,-3.72756
-630,-125,-48.1895,4.34497,-0.013017,0.00446665,-0.00273589,0.00488477,-0.0134351,-1.41914,0.0109543,0.01524,594,1149,-48.1894,-4.34493
-623,-125,-48.2153,4.98816,-0.00835622,0.00237648,-0.00289845,0.0031092,-0.00908894,-1.32318,0.00731924,0.0137954,601,1149,-48.2153,-4.98816
-616,-125,-48.2946,5.54211,-0.00686327,0.000921257,-0.00332253,0.00214651,-0.00808852,-1.2175,0.00623231,0.0349347,608,1149,-48.2945,-5.54207
-609,-125,-48.5677,6.27161,0,0,0,0,0,0,0,-1,615,1149,-48.5678,-6.27163
-602,-125,-48.4177,6.91187,-0.00568069,-0.000111338,-0.00276734,0.00102987,-0.0068219,-1.17966,0.00492723,0.0497636,622,1149,-48.4176,-6.91187
-595,-125,-48.6204,7.41821,0,0,0,0,0,0,0,-1,629,1149,-48.6204,-7.41823
-588,-125,-47.686,8.22888,0,0,0,0,0,0,0,-1,636,1149,-47.686,-8.22891
-581,-125,-26.4055,4.83203,0,0,0,0,0,0,0,-1,643,1149,-26.4055,-4.83204
-574,-125,-37.674,0.655151,0,0,0,0,0,0,0,-1,650,1149,-37.674,-0.655195
-567,-125,-55.2667,0.468018,0,0,0,0,0,0,0,-1,657,1149,-55.2667,-0.468016
-560,-125,-55.2121,0.450317,-0.00208051,-0.00124702,-0.00188091,0.000262759,-0.0035903,-0.89442,0.00248575,0.0372704,664,1149,-55.2121,-0.450358
-553,-125,-55.2709,0.523071,-0.00114302,-0.000796675,-0.00193017,0.000968079,-0.00290778,-0.830138,0.00232926,0.041001,671,1149,-55.2709,-0.52309
-546,-125,-55.3511,0.608032,0.00069153,-0.000145695,-0.00145103,0.00178312,-0.00123729,-0.644964,0.0017533,0.04186,678,1149,-55.3511,-0.607982
-539,-125,-55.2504,0.592773,0.00345263,0.000720876,-0.00100577,0.00378298,0.000390523,-0.317356,0.00240242,0.0433462,685,1149,-55.2503,-0.592832
-532,-125,-55.2629,0.545898,0.00696172,0.00180537,-0.000569999,0.00702398,0.00174311,-0.108793,0.00422328,0.0404189,692,1149,-55.263,-0.545852
-525,-125,-55.0104,0.241577,0,0,0,0,0,0,0,-1,699,1149,-55.0104,-0.241527
-518,-125,0,0,0,0,0,0,0,0,0,-1,706,1149,0,0
-511,-125,0,0,0,0,0,0,0,0,0,-1,713,1149,0,0
-504,-125,0,0,0,0,0,0,0,0,0,-1,720,1149,0,0
-497,-125,0,0,0,0,0,0,0,0,0,-1,727,1149,0,0
-490,-125,0,0,0,0,0,0,0,0,0,-1,734,1149,0,0
-483,-125,0,0,0,0,0,0,0,0,0,-1,741,1149,0,0
-476,-125,0,0,0,0,0,0,0,0,0,-1,748,1149,0,0
-469,-125,0,0,0,0,0,0,0,0,0,-1,755,1149,0,0
-462,-125,0,0,0,0,0,0,0,0,0,-1,762,1149,0,0
-455,-125,0,0,0,0,0,0,0,0,0,-1,769,1149,0,0
-448,-125,0,0,0,0,0,0,0,0,0,-1,776,1149,0,0
-441,-125,0,0,0,0,0,0,0,0,0,-1,783,1149,0,0
-434,-125,0,0,0,0,0,0,0,0,0,-1,790,1149,0,0
-427,-125,0,0,0,0,0,0,0,0,0,-1,797,1149,0,0
-420,-125,0,0,0,0,0,0,0,0,0,-1,804,1149,0,0
-413,-125,0,0,0,0,0,0,0,0,0,-1,811,1149,0,0
-406,-125,0,0,0,0,0,0,0,0,0,-1,818,1149,0,0
-399,-125,0,0,0,0,0,0,0,0,0,-1,825,1149,0,0
-392,-125,0,0,0,0,0,0,0,0,0,-1,832,1149,0,0
-385,-125,0,0,0,0,0,0,0,0,0,-1,839,1149,0,0
-378,-125,0,0,0,0,0,0,0,0,0,-1,846,1149,0,0
-371,-125,0,0,0,0,0,0,0,0,0,-1,853,1149,0,0
-364,-125,0,0,0,0,0,0,0,0,0,-1,860,1149,0,0
-357,-125,0,0,0,0,0,0,0,0,0,-1,867,1149,0,0
-350,-125,0,0,0,0,0,0,0,0,0,-1,874,1149,0,0
-343,-125,0,0,0,0,0,0,0,0,0,-1,881,1149,0,0
-336,-125,0,0,0,0,0,0,0,0,0,-1,888,1149,0,0
-329,-125,0,0,0,0,0,0,0,0,0,-1,895,1149,0,0
-322,-125,0,0,0,0,0,0,0,0,0,-1,902,1149,0,0
-315,-125,0,0,0,0,0,0,0,0,0,-1,909,1149,0,0
-308,-125,0,0,0,0,0,0,0,0,0,-1,916,1149,0,0
-301,-125,0,0,0,0,0,0,0,0,0,-1,923,1149,0,0
-294,-125,0,0,0,0,0,0,0,0,0,-1,930,1149,0,0
-287,-125,0,0,0,0,0,0,0,0,0,-1,937,1149,0,0
-280,-125,0,0,0,0,0,0,0,0,0,-1,944,1149,0,0
-273,-125,0,0,0,0,0,0,0,0,0,-1,951,1149,0,0
-266,-125,0,0,0,0,0,0,0,0,0,-1,958,1149,0,0
-259,-125,0,0,0,0,0,0,0,0,0,-1,965,1149,0,0
-252,-125,0,0,0,0,0,0,0,0,0,-1,972,1149,0,0
-245,-125,0,0,0,0,0,0,0,0,0,-1,979,1149,0,0
-238,-125,0,0,0,0,0,0,0,0,0,-1,986,1149,0,0
-231,-125,0,0,0,0,0,0,0,0,0,-1,993,1149,0,0
-224,-125,0,0,0,0,0,0,0,0,0,-1,1000,1149,0,0
-217,-125,0,0,0,0,0,0,0,0,0,-1,1007,1149,0,0
-210,-125,0,0,0,0,0,0,0,0,0,-1,1014,1149,0,0
-203,-125,0,0,0,0,0,0,0,0,0,-1,1021,1149,0,0
-196,-125,0,0,0,0,0,0,0,0,0,-1,1028,1149,0,0
-189,-125,0,0,0,0,0,0,0,0,0,-1,1035,1149,0,0
-182,-125,0,0,0,0,0,0,0,0,0,-1,1042,1149,0,0
-175,-125,0,0,0,0,0,0,0,0,0,-1,1049,1149,0,0
-168,-125,0,0,0,0,0,0,0,0,0,-1,1056,1149,0,0
-161,-125,0,0,0,0,0,0,0,0,0,-1,1063,1149,0,0
-154,-125,0,0,0,0,0,0,0,0,0,-1,1070,1149,0,0
-147,-125,0,0,0,0,0,0,0,0,0,-1,1077,1149,0,0
-140,-125,0,0,0,0,0,0,0,0,0,-1,1084,1149,0,0
-133,-125,0,0,0,0,0,0,0,0,0,-1,1091,1149,0,0
-126,-125,0,0,0,0,0,0,0,0,0,-1,1098,1149,0,0
-119,-125,0,0,0,0,0,0,0,0,0,-1,1105,1149,0,0
-112,-125,0,0,0,0,0,0,0,0,0,-1,1112,1149,0,0
-105,-125,0,0,0,0,0,0,0,0,0,-1,1119,1149,0,0
-98,-125,0,0,0,0,0,0,0,0,0,-1,1126,1149,0,0
-91,-125,0,0,0,0,0,0,0,0,0,-1,1133,1149,0,0
-84,-125,0,0,0,0,0,0,0,0,0,-1,1140,1149,0,0
-77,-125,0,0,0,0,0,0,0,0,0,-1,1147,1149,0,0
-70,-125,0,0,0,0,0,0,0,0,0,-1,1154,1149,0,0
-63,-125,0,0,0,0,0,0,0,0,0,-1,1161,1149,0,0
-56,-125,0,0,0,0,0,0,0,0,0,-1,1168,1149,0,0
-49,-125,0,0,0,0,0,0,0,0,0,-1,1175,1149,0,0
-42,-125,0,0,0,0,0,0,0,0,0,-1,1182,1149,0,0
-35,-125,0,0,0,0,0,0,0,0,0,-1,1189,1149,0,0
-28,-125,0,0,0,0,0,0,0,0,0,-1,1196,1149,0,0
-21,-125,0,0,0,0,0,0,0,0,0,-1,1203,1149,0,0
-14,-125,0,0,0,0,0,0,0,0,0,-1,1210,1149,0,0
-7,-125,0,0,0,0,0,0,0,0,0,-1,1217,1149,0,0
0,-125,0,0,0,0,0,0,0,0,0,-1,1224,1149,0,0
7,-125,0,0,0,0,0,0,0,0,0,-1,1231,1149,0,0
14,-125,0,0,0,0,0,0,0,0,0,-1,1238,1149,0,0
21,-125,0,0,0,0,0,0,0,0,0,-1,1245,1149,0,0
28,-125,0,0,0,0,0,0,0,0,0,-1,1252,1149,0,0
35,-125,0,0,0,0,0,0,0,0,0,-1,1259,1149,0,0
42,-125,0,0,0,0,0,0,0,0,0,-1,1266,1149,0,0
49,-125,0,0,0,0,0,0,0,0,0,-1,1273,1149,0,0
56,-125,0,0,0,0,0,0,0,0,0,-1,1280,1149,0,0
63,-125,0,0,0,0,0,0,0,0,0,-1,1287,1149,0,0
70,-125,0,0,0,0,0,0,0,0,0,-1,1294,1149,0,0
77,-125,0,0,0,0,0,0,0,0,0,-1,1301,1149,0,0
84,-125,0,0,0,0,0,0,0,0,0,-1,1308,1149,0,0
91,-125,0,0,0,0,0,0,0,0,0,-1,1315,1149,0,0
98,-125,0,0,0,0,0,0,0,0,0,-1,1322,1149,0,0
105,-125,0,0,0,0,0,0,0,0,0,-1,1329,1149,0,0
112,-125,0,0,0,0,0,0,0,0,0,-1,1336,1149,0,0
119,-125,0,0,0,0,0,0,0,0,0,-1,1343,1149,0,0
126,-125,0,0,0,0,0,0,0,0,0,-1,1350,1149,0,0
133,-125,0,0,0,0,0,0,0,0,0,-1,1357,1149,0,0
140,-125,0,0,0,0,0,0,0,0,0,-1,1364,1149,0,0
147,-125,0,0,0,0,0,0,0,0,0,-1,1371,1149,0,0
154,-125,0,0,0,0,0,0,0,0,0,-1,1378,1149,0,0
161,-125,0,0,0,0,0,0,0,0,0,-1,1385,1149,0,0
168,-125,0,0,0,0,0,0,0,0,0,-1,1392,1149,0,0
175,-125,0,0,0,0,0,0,0,0,0,-1,1399,1149,0,0
182,-125,0,0,0,0,0,0,0,0,0,-1,1406,1149,0,0
189,-125,0,0,0,0,0,0,0,0,0,-1,1413,1149,0,0
196,-125,0,0,0,0,0,0,0,0,0,-1,1420,1149,0,0
203,-125,0,0,0,0,0,0,0,0,0,-1,1427,1149,0,0
210,-125,0,0,0,0,0,0,0,0,0,-1,1434,1149,0,0
217,-125,0,0,0,0,0,0,0,0,0,-1,1441,1149,0,0
224,-125,0,0,0,0,0,0,0,0,0,-1,1448,1149,0,0
231,-125,0,0,0,0,0,0,0,0,0,-1,1455,1149,0,0
238,-125,0,0,0,0,0,0,0,0,0,-1,1462,1149,0,0
245,-125,0,0,0,0,0,0,0,0,0,-1,1469,1149,0,0
252,-125,0,0,0,0,0,0,0,0,0,-1,1476,1149,0,0
259,-125,0,0,0,0,0,0,0,0,0,-1,1483,1149,0,0
266,-125,0,0,0,0,0,0,0,0,0,-1,1490,1149,0,0
273,-125,0,0,0,0,0,0,0,0,0,-1,1497,1149,0,0
280,-125,0,0,0,0,0,0,0,0,0,-1,1504,1149,0,0
287,-125,0,0,0,0,0,0,0,0,0,-1,1511,1149,0,0
294,-125,0,0,0,0,0,0,0,0,0,-1,1518,1149,0,0
301,-125,0,0,0,0,0,0,0,0,0,-1,1525,1149,0,0
308,-125,0,0,0,0,0,0,0,0,0,-1,1532,1149,0,0
315,-125,0,0,0,0,0,0,0,0,0,-1,1539,1149,0,0
322,-125,0,0,0,0,0,0,0,0,0,-1,1546,1149,0,0
329,-125,0,0,0,0,0,0,0,0,0,-1,1553,1149,0,0
336,-125,0,0,0,0,0,0,0,0,0,-1,1560,1149,0,0
343,-125,0,0,0,0,0,0,0,0,0,-1,1567,1149,0,0
350,-125,0,0,0,0,0,0,0,0,0,-1,1574,1149,0,0
357,-125,0,0,0,0,0,0,0,0,0,-1,1581,1149,0,0
364,-125,0,0,0,0,0,0,0,0,0,-1,1588,1149,0,0
371,-125,0,0,0,0,0,0,0,0,0,-1,1595,1149,0,0
378,-125,0,0,0,0,0,0,0,0,0,-1,1602,1149,0,0
385,-125,0,0,0,0,0,0,0,0,0,-1,1609,1149,0,0
392,-125,0,0,0,0,0,0,0,0,0,-1,1616,1149,0,0
399,-125,0,0,0,0,0,0,0,0,0,-1,1623,1149,0,0
406,-125,0,0,0,0,0,0,0,0,0,-1,1630,1149,0,0
413,-125,0,0,0,0,0,0,0,0,0,-1,1637,1149,0,0
420,-125,0,0,0,0,0,0,0,0,0,-1,1644,1149,0,0
427,-125,0,0,0,0,0,0,0,0,0,-1,1651,1149,0,0
434,-125,0,0,0,0,0,0,0,0,0,-1,1658,1149,0,0
441,-125,0,0,0,0,0,0,0,0,0,-1,1665,1149,0,0
448,-125,0,0,0,0,0,0,0,0,0,-1,1672,1149,0,0
455,-125,0,0,0,0,0,0,0,0,0,-1,1679,1149,0,0
462,-125,0,0,0,0,0,0,0,0,0,-1,1686,1149,0,0
469,-125,0,0,0,0,0,0,0,0,0,-1,1693,1149,0,0
476,-125,0,0,0,0,0,0,0,0,0,-1,1700,1149,0,0
483,-125,0,0,0,0,0,0,0,0,0,-1,1707,1149,0,0
490,-125,0,0,0,0,0,0,0,0,0,-1,1714,1149,0,0
497,-125,0,0,0,0,0,0,0,0,0,-1,1721,1149,0,0
504,-125,0,0,0,0,0,0,0,0,0,-1,1728,1149,0,0
511,-125,0,0,0,0,0,0,0,0,0,-1,1735,1149,0,0
518,-125,0,0,0,0,0,0,0,0,0,-1,1742,1149,0,0
525,-125,0,0,0,0,0,0,0,0,0,-1,1749,1149,0,0
532,-125,0,0,0,0,0,0,0,0,0,-1,1756,1149,0,0
539,-125,0,0,0,0,0,0,0,0,0,-1,1763,1149,0,0
546,-125,0,0,0,0,0,0,0,0,0,-1,1770,1149,0,0
553,-125,0,0,0,0,0,0,0,0,0,-1,1777,1149,0,0
560,-125,0,0,0,0,0,0,0,0,0,-1,1784,1149,0,0
567,-125,0,0,0,0,0,0,0,0,0,-1,1791,1149,0,0
574,-125,0,0,0,0,0,0,0,0,0,-1,1798,1149,0,0
581,-125,0,0,0,0,0,0,0,0,0,-1,1805,1149,0,0
588,-125,0,0,0,0,0,0,0,0,0,-1,1812,1149,0,0
595,-125,0,0,0,0,0,0,0,0,0,-1,1819,1149,0,0
602,-125,0,0,0,0,0,0,0,0,0,-1,1826,1149,0,0
609,-125,0,0,0,0,0,0,0,0,0,-1,1833,1149,0,0
616,-125,0,0,0,0,0,0,0,0,0,-1,1840,1149,0,0
623,-125,0,0,0,0,0,0,0,0,0,-1,1847,1149,0,0
630,-125,0,0,0,0,0,0,0,0,0,-1,1854,1149,0,0
637,-125,0,0,0,0,0,0,0,0,0,-1,1861,1149,0,0
644,-125,71.4911,2.49451,0.00365495,-0.00265839,-0.00139761,0.00395051,-0.00295395,-0.208403,0.00400011,0.0406546,1868,1149,71.4911,-2.49449
651,-125,71.5913,2.4364,0.00256431,-0.00222718,-0.00100807,0.00276775,-0.00243063,-0.199144,0.00300339,0.0410515,1875,1149,71.5913,-2.43643
658,-125,71.5295,2.35034,0.00186788,-0.00187538,-0.000717803,0.0020008,-0.0020083,-0.183109,0.00231466,0.0409326,1882,1149,71.5296,-2.35038
665,-125,71.4436,2.33215,0.00124647,-0.00152341,-0.000569437,0.00135896,-0.00163591,-0.195047,0.00173155,0.0407158,1889,1149,71.4436,-2.33216
672,-125,71.4019,2.34705,0.000750566,-0.00116194,-0.000541206,0.000893095,-0.00130447,-0.257508,0.00127616,0.0428507,1896,1149,71.4019,-2.34701
679,-125,71.4611,2.33765,0.000712161,-0.000998642,-0.000473271,0.000834357,-0.00112084,-0.252677,0.00113286,0.0396477,1903,1149,71.4611,-2.3376
686,-125,71.5519,2.30579,0.00106044,-0.00115085,-0.000454751,0.00115031,-0.00124071,-0.195105,0.00138079,0.0378065,1910,1149,71.5519,-2.30584
693,-125,71.4335,2.29431,0.0011676,-0.0011795,-0.000244599,0.00119282,-0.00120472,-0.102742,0.00138423,0.0377144,1917,1149,71.4335,-2.29427
700,-125,71.5511,2.33215,0.00123146,-0.00123486,-3.43746e-05,0.00123194,-0.00123534,-0.013934,0.00142448,0.0231822,1924,1149,71.5511,-2.33221
707,-125,71.7593,2.56726,0,0,0,0,0,0,0,-1,1931,1149,71.7593,-2.56724
714,-125,54.8745,9.21375,0,0,0,0,0,0,0,-1,1938,1149,54.8746,-9.21371
721,-125,64.1552,9.51941,0,0,0,0,0,0,0,-1,1945,1149,64.1551,-9.51946
728,-125,64.1704,8.95203,0.000934793,-0.000524527,0.000854995,0.00132915,-0.000918886,0.432163,0.00130509,0.0209824,1952,1149,64.1704,-8.95208
735,-125,64.2078,8.40674,0.00110605,-0.00050573,0.00135335,0.00187528,-0.00127496,0.516853,0.00182977,0.0233617,1959,1149,64.2077,-8.40672
742,-125,64.179,7.80359,0.000978861,-0.000186783,0.00195613,0.00243714,-0.00164507,0.640612,0.00237161,0.0352253,1966,1149,64.179,-7.80356
749,-125,64.0643,7.21228,0.000336521,0.000599803,0.00247346,0.00294513,-0.0020088,0.811984,0.00287713,0.0279068,1973,1149,64.0644,-7.21234
756,-125,64.0438,6.53796,-0.000854603,0.0021283,0.00306591,0.00404628,-0.00277258,1.01178,0.0039597,0.0236164,1980,1149,64.0438,-6.53796
763,-125,64.0515,5.94543,-0.00183701,0.0039362,0.00398613,0.00597115,-0.00387196,1.09878,0.00572584,0.0130784,1987,1149,64.0515,-5.94544
770,-125,63.979,5.3407,-0.00271337,0.0057483,0.00503594,0.00809475,-0.00505982,1.13477,0.00766187,0.0159358,1994,1149,63.9791,-5.34075
777,-125,63.8411,4.84534,-0.00342894,0.00750055,0.00620438,0.0103037,-0.00623207,1.14645,0.00964291,0.0327507,2001,1149,63.8411,-4.8453
784,-125,63.8318,4.18445,-0.00378492,0.00917097,0.00766433,0.0127282,-0.0073422,1.13625,0.0117259,0.0471346,2008,1149,63.8317,-4.18445
791,-125,63.9487,3.53235,0,0,0,0,0,0,0,-1,2015,1149,63.9488,-3.5323
798,-125,63.5381,3.79089,0,0,0,0,0,0,0,-1,2022,1149,63.538,-3.79088
805,-125,60.8354,5.36206,0,0,0,0,0,0,0,-1,2029,1149,60.8355,-5.36204
812,-125,62.6721,-1.46448,0,0,0,0,0,0,0,-1,2036,1149,62.672,1.46452
-700,-132,0,0,0,0,0,0,0,0,0,-1,524,1156,0,0
-693,-132,-47.3599,0.137207,-0.0843365,-0.00292971,0.0107132,-0.00154346,-0.0857228,1.44211,0.056641,0.0491653,531,1156,-47.3599,-0.13718
-686,-132,-47.8383,0.514282,-0.0787338,0.00552655,0.00570253,0.00591073,-0.079118,1.50353,0.0548219,0.048207,538,1156,-47.8383,-0.514338
-679,-132,-48.2346,0.517212,-0.0703909,0.00965858,0.00270135,0.00974963,-0.070482,1.5371,0.0505522,0.0483233,545,1156,-48.2346,-0.517255
-672,-132,-49.0673,0.792236,-0.0610536,0.0115173,0.000789909,0.0115259,-0.0610622,1.55991,0.0450444,0.0438368,552,1156,-49.0673,-0.792179
-665,-132,-49.8377,1.11389,0,0,0,0,0,0,0,-1,559,1156,-49.8377,-1.11393
-658,-132,-47.5346,1.93591,0,0,0,0,0,0,0,-1,566,1156,-47.5346,-1.93596
-651,-132,-47.4203,2.55383,-0.0345536,0.0105939,-0.00195896,0.0106787,-0.0346384,-1.52751,0.0273556,0.0449265,573,1156,-47.4203,-2.55389
-644,-132,-47.3708,3.08752,-0.026528,0.00908385,-0.00237517,0.00924156,-0.0266857,-1.50449,0.0215422,0.0273355,580,1156,-47.3708,-3.08758
-637,-132,-47.5102,3.70142,-0.0193448,0.00762159,-0.00288291,0.00792635,-0.0196496,-1.46547,0.0163935,0.0146213,587,1156,-47.5102,-3.70144
-630,-132,-47.5186,4.34021,-0.0129469,0.00508076,-0.00296424,0.00555565,-0.0134218,-1.41194,0.011266,0.0104396,594,1156,-47.5186,-4.34025
-623,-132,-47.5366,4.99329,-0.00800446,0.00202782,-0.00285308,0.00278244,-0.00875908,-1.31222,0.00695494,0.0151716,601,1156,-47.5365,-4.99333
-616,-132,-47.6679,5.50488,-0.00663564,0.000397621,-0.00312777,0.00158733,-0.00782535,-1.20733,0.00581863,0.0445746,608,1156,-47.6679,-5.50485
-609,-132,-47.6504,6.38904,0,0,0,0,0,0,0,-1,615,1156,-47.6504,-6.38899
-602,-132,-47.619,6.9657,0,0,0,0,0,0,0,-1,622,1156,-47.619,-6.9657
-595,-132,-47.9891,7.65991,0,0,0,0,0,0,0,-1,629,1156,-47.9892,-7.65995
-588,-132,-42.6534,6.92969,0,0,0,0,0,0,0,-1,636,1156,-42.6535,-6.92967
-581,-132,-35.9343,6.42957,0,0,0,0,0,0,0,-1,643,1156,-35.9342,-6.42957
-574,-132,-33.2071,2.86963,0,0,0,0,0,0,0,-1,650,1156,-33.2071,-2.86963
-567,-132,-55.2759,0.589111,0,0,0,0,0,0,0,-1,657,1156,-55.2759,-0.589125
-560,-132,-55.3329,0.48999,-0.00291414,-0.00122243,-0.00221787,0.000305403,-0.00444197,-0.967575,0.00306819,0.0350346,664,1156,-55.3329,-0.490038
-553,-132,-55.3613,0.477783,-0.0021243,-0.000701562,-0.00232301,0.00101656,-0.00384242,-0.933977,0.00295926,0.0378339,671,1156,-55.3613,-0.477744
-546,-132,-55.403,0.598511,-5.44223e-05,0.000152325,-0.00198291,0.00203455,-0.00193665,-0.811441,0.00229301,0.0400759,678,1156,-55.403,-0.598512
-539,-132,-55.3122,0.542969,0.00309178,0.00137228,-0.00185896,0.00428018,0.00018388,-0.568802,0.00279418,0.0421207,685,1156,-55.3122,-0.542943
-532,-132,-55.1559,0.351807,0.00705514,0.00284956,-0.00181477,0.00772996,0.00217474,-0.356005,0.00460295,0.0412164,692,1156,-55.1559,-0.351753
-525,-132,-55.2125,0.528809,0.0115923,0.00464332,-0.00191733,0.0120863,0.00414941,-0.252122,0.00709129,0.0409682,699,1156,-55.2125,-0.528762
-518,-132,0,0,0,0,0,0,0,0,0,-1,706,1156,0,0
-511,-132,0,0,0,0,0,0,0,0,0,-1,713,1156,0,0
-504,-132,0,0,0,0,0,0,0,0,0,-1,720,1156,0,0
-497,-132,0,0,0,0,0,0,0,0,0,-1,727,1156,0,0
-490,-132,0,0,0,0,0,0,0,0,0,-1,734,1156,0,0
-483,-132,0,0,0,0,0,0,0,0,0,-1,741,1156,0,0
-476,-132,0,0,0,0,0,0,0,0,0,-1,748,1156,0,0
-469,-132,0,0,0,0,0,0,0,0,0,-1,755,1156,0,0
-462,-132,0,0,0,0,0,0,0,0,0,-1,762,1156,0,0
-455,-132,0,0,0,0,0,0,0,0,0,-1,769,1156,0,0
-448,-132,0,0,0,0,0,0,0,0,0,-1,776,1156,0,0
-441,-132,0,0,0,0,0,0,0,0,0,-1,783,1156,0,0
-434,-132,0,0,0,0,0,0,0,0,0,-1,790,1156,0,0
-427,-132,0,0,0,0,0,0,0,0,0,-1,797,1156,0,0
-420,-132,0,0,0,0,0,0,0,0,0,-1,804,1156,0,0
-413,-132,0,0,0,0,0,0,0,0,0,-1,811,1156,0,0
-406,-132,0,0,0,0,0,0,0,0,0,-1,818,1156,0,0
-399,-132,0,0,0,0,0,0,0,0,0,-1,825,1156,0,0
-392,-132,0,0,0,0,0,0,0,0,0,-1,832,1156,0,0
-385,-132,0,0,0,0,0,0,0,0,0,-1,839,1156,0,0
-378,-132,0,0,0,0,0,0,0,0,0,-1,846,1156,0,0
-371,-132,0,0,0,0,0,0,0,0,0,-1,853,1156,0,0
-364,-132,0,0,0,0,0,0,0,0,0,-1,860,1156,0,0
-357,-132,0,0,0,0,0,0,0,0,0,-1,867,1156,0,0
-350,-132,0,0,0,0,0,0,0,0,0,-1,874,1156,0,0
-343,-132,0,0,0,0,0,0,0,0,0,-1,881,1156,0,0
-336,-132,0,0,0,0,0,0,0,0,0,-1,888,1156,0,0
-329,-132,0,0,0,0,0,0,0,0,0,-1,895,1156,0,0
-322,-132,0,0,0,0,0,0,0,0,0,-1,902,1156,0,0
-315,-132,0,0,0,0,0,0,0,0,0,-1,909,1156,0,0
-308,-132,0,0,0,0,0,0,0,0,0,-1,916,1156,0,0
-301,-132,0,0,0,0,0,0,0,0,0,-1,923,1156,0,0
-294,-132,0,0,0,0,0,0,0,0,0,-1,930,1156,0,0
-287,-132,0,0,0,0,0,0,0,0,0,-1,937,1156,0,0
-280,-132,0,0,0,0,0,0,0,0,0,-1,944,1156,0,0
-273,-132,0,0,0,0,0,0,0,0,0,-1,951,1156,0,0
-266,-132,0,0,0,0,0,0,0,0,0,-1,958,1156,0,0
-259,-132,0,0,0,0,0,0,0,0,0,-1,965,1156,0,0
-252,-132,0,0,0,0,0,0,0,0,0,-1,972,1156,0,0
-245,-132,0,0,0,0,0,0,0,0,0,-1,979,1156,0,0
-238,-132,0,0,0,0,0,0,0,0,0,-1,986,1156,0,0
-231,-132,0,0,0,0,0,0,0,0,0,-1,993,1156,0,0
-224,-132,0,0,0,0,0,0,0,0,0,-1,1000,1156,0,0
-217,-132,0,0,0,0,0,0,0,0,0,-1,1007,1156,0,0
-210,-132,0,0,0,0,0,0,0,0,0,-1,1014,1156,0,0
-203,-132,0,0,0,0,0,0,0,0,0,-1,1021,1156,0,0
-196,-132,0,0,0,0,0,0,0,0,0,-1,1028,1156,0,0
-189,-132,0,0,0,0,0,0,0,0,0,-1,1035,1156,0,0
-182,-132,0,0,0,0,0,0,0,0,0,-1,1042,1156,0,0
-175,-132,0,0,0,0,0,0,0,0,0,-1,1049,1156,0,0
-168,-132,0,0,0,0,0,0,0,0,0,-1,1056,1156,0,0
-161,-132,0,0,0,0,0,0,0,0,0,-1,1063,1156,0,0
-154,-132,0,0,0,0,0,0,0,0,0,-1,1070,1156,0,0
-147,-132,0,0,0,0,0,0,0,0,0,-1,1077,1156,0,0
-140,-132,0,0,0,0,0,0,0,0,0,-1,1084,1156,0,0
-133,-132,0,0,0,0,0,0,0,0,0,-1,1091,1156,0,0
-126,-132,0,0,0,0,0,0,0,0,0,-1,1098,1156,0,0
-119,-132,0,0,0,0,0,0,0,0,0,-1,1105,1156,0,0
-112,-132,0,0,0,0,0,0,0,0,0,-1,1112,1156,0,0
-105,-132,0,0,0,0,0,0,0,0,0,-1,1119,1156,0,0
-98,-132,0,0,0,0,0,0,0,0,0,-1,1126,1156,0,0
-91,-132,0,0,0,0,0,0,0,0,0,-1,1133,1156,0,0
-84,-132,0,0,0,0,0,0,0,0,0,-1,1140,1156,0,0
-77,-132,0,0,0,0,0,0,0,0,0,-1,1147,1156,0,0
-70,-132,0,0,0,0,0,0,0,0,0,-1,1154,1156,0,0
-63,-132,0,0,0,0,0,0,0,0,0,-1,1161,1156,0,0
-56,-132,0,0,0,0,0,0,0,0,0,-1,1168,1156,0,0
-49,-132,0,0,0,0,0,0,0,0,0,-1,1175,1156,0,0
-42,-132,0,0,0,0,0,0,0,0,0,-1,1182,1156,0,0
-35,-132,0,0,0,0,0,0,0,0,0,-1,1189,1156,0,0
-28,-132,0,0,0,0,0,0,0,0,0,-1,1196,1156,0,0
-21,-132,0,0,0,0,0,0,0,0,0,-1,1203,1156,0,0
-14,-132,0,0,0,0,0,0,0,0,0,-1,1210,1156,0,0
-7,-132,0,0,0,0,0,0,0,0,0,-1,1217,1156,0,0
0,-132,0,0,0,0,0,0,0,0,0,-1,1224,1156,0,0
7,-132,0,0,0,0,0,0,0,0,0,-1,1231,1156,0,0
14,-132,0,0,0,0,0,0,0,0,0,-1,1238,1156,0,0
21,-132,0,0,0,0,0,0,0,0,0,-1,1245,1156,0,0
28,-132,0,0,0,0,0,0,0,0,0,-1,1252,1156,0,0
35,-132,0,0,0,0,0,0,0,0,0,-1,1259,1156,0,0
42,-132,0,0,0,0,0,0,0,0,0,-1,1266,1156,0,0
49,-132,0,0,0,0,0,0,0,0,0,-1,1273,1156,0,0
56,-132,0,0,0,0,0,0,0,0,0,-1,1280,1156,0,0
63,-132,0,0,0,0,0,0,0,0,0,-1,1287,1156,0,0
70,-132,0,0,0,0,0,0,0,0,0,-1,1294,1156,0,0
77,-132,0,0,0,0,0,0,0,0,0,-1,1301,1156,0,0
84,-132,0,0,0,0,0,0,0,0,0,-1,1308,1156,0,0
91,-132,0,0,0,0,0,0,0,0,0,-1,1315,1156,0,0
98,-132,0,0,0,0,0,0,0,0,0,-1,1322,1156,0,0
105,-132,0,0,0,0,0,0,0,0,0,-1,1329,1156,0,0
112,-132,0,0,0,0,0,0,0,0,0,-1,1336,1156,0,0
119,-132,0,0,0,0,0,0,0,0,0,-1,1343,1156,0,0
126,-132,0,0,0,0,0,0,0,0,0,-1,1350,1156,0,0
133,-132,0,0,0,0,0,0,0,0,0,-1,1357,1156,0,0
140,-132,0,0,0,0,0,0,0,0,0,-1,1364,1156,0,0
147,-132,0,0,0,0,0,0,0,0,0,-1,1371,1156,0,0
154,-132,0,0,0,0,0,0,0,0,0,-1,1378,1156,0,0
161,-132,0,0,0,0,0,0,0,0,0,-1,1385,1156,0,0
168,-132,0,0,0,0,0,0,0,0,0,-1,1392,1156,0,0
175,-132,0,0,0,0,0,0,0,0,0,-1,1399,1156,0,0
182,-132,0,0,0,0,0,0,0,0,0,-1,1406,1156,0,0
189,-132,0,0,0,0,0,0,0,0,0,-1,1413,1156,0,0
196,-132,0,0,0,0,0,0,0,0,0,-1,1420,1156,0,0
203,-132,0,0,0,0,0,0,0,0,0,-1,1427,1156,0,0
210,-132,0,0,0,0,0,0,0,0,0,-1,1434,1156,0,0
217,-132,0,0,0,0,0,0,0,0,0,-1,1441,1156,0,0
224,-132,0,0,0,0,0,0,0,0,0,-1,1448,1156,0,0
231,-132,0,0,0,0,0,0,0,0,0,-1,1455,1156,0,0
238,-132,0,0,0,0,0,0,0,0,0,-1,1462,1156,0,0
245,-132,0,0,0,0,0,0,0,0,0,-1,1469,1156,0,0
252,-132,0,0,0,0,0,0,0,0,0,-1,1476,1156,0,0
259,-132,0,0,0,0,0,0,0,0,0,-1,1483,1156,0,0
266,-132,0,0,0,0,0,0,0,0,0,-1,1490,1156,0,0
273,-132,0,0,0,0,0,0,0,0,0,-1,1497,1156,0,0
280,-132,0,0,0,0,0,0,0,0,0,-1,1504,1156,0,0
287,-132,0,0,0,0,0,0,0,0,0,-1,1511,1156,0,0
294,-132,0,0,0,0,0,0,0,0,0,-1,1518,1156,0,0
301,-132,0,0,0,0,0,0,0,0,0,-1,1525,1156,0,0
308,-132,0,0,0,0,0,0,0,0,0,-1,1532,1156,0,0
315,-132,0,0,0,0,0,0,0,0,0,-1,1539,1156,0,0
322,-132,0,0,0,0,0,0,0,0,0,-1,1546,1156,0,0
329,-132,0,0,0,0,0,0,0,0,0,-1,1553,1156,0,0
336,-132,0,0,0,0,0,0,0,0,0,-1,1560,1156,0,0
343,-132,0,0,0,0,0,0,0,0,0,-1,1567,1156,0,0
350,-132,0,0,0,0,0,0,0,0,0,-1,1574,1156,0,0
357,-132,0,0,0,0,0,0,0,0,0,-1,1581,1156,0,0
364,-132,0,0,0,0,0,0,0,0,0,-1,1588,1156,0,0
371,-132,0,0,0,0,0,0,0,0,0,-1,1595,1156,0,0
378,-132,0,0,0,0,0,0,0,0,0,-1,1602,1156,0,0
385,-132,0,0,0,0,0,0,0,0,0,-1,1609,1156,0,0
392,-132,0,0,0,0,0,0,0,0,0,-1,1616,1156,0,0
399,-132,0,0,0,0,0,0,0,0,0,-1,1623,1156,0,0
406,-132,0,0,0,0,0,0,0,0,0,-1,1630,1156,0,0
413,-132,0,0,0,0,0,0,0,0,0,-1,1637,1156,0,0
420,-132,0,0,0,0,0,0,0,0,0,-1,1644,1156,0,0
427,-132,0,0,0,0,0,0,0,0,0,-1,1651,1156,0,0
434,-132,0,0,0,0,0,0,0,0,0,-1,1658,1156,0,0
441,-132,0,0,0,0,0,0,0,0,0,-1,1665,1156,0,0
448,-132,0,0,0,0,0,0,0,0,0,-1,1672,1156,0,0
455,-132,0,0,0,0,0,0,0,0,0,-1,1679,1156,0,0
462,-132,0,0,0,0,0,0,0,0,0,-1,1686,1156,0,0
469,-132,0,0,0,0,0,0,0,0,0,-1,1693,1156,0,0
476,-132,0,0,0,0,0,0,0,0,0,-1,1700,1156,0,0
483,-132,0,0,0,0,0,0,0,0,0,-1,1707,1156,0,0
490,-132,0,0,0,0,0,0,0,0,0,-1,1714,1156,0,0
497,-132,0,0,0,0,0,0,0,0,0,-1,1721,1156,0,0
504,-132,0,0,0,0,0,0,0,0,0,-1,1728,1156,0,0
511,-132,0,0,0,0,0,0,0,0,0,-1,1735,1156,0,0
518,-132,0,0,0,0,0,0,0,0,0,-1,1742,1156,0,0
525,-132,0,0,0,0,0,0,0,0,0,-1,1749,1156,0,0
532,-132,0,0,0,0,0,0,0,0,0,-1,1756,1156,0,0
539,-132,0,0,0,0,0,0,0,0,0,-1,1763,1156,0,0
546,-132,0,0,0,0,0,0,0,0,0,-1,1770,1156,0,0
553,-132,0,0,0,0,0,0,0,0,0,-1,1777,1156,0,0
560,-132,0,0,0,0,0,0,0,0,0,-1,1784,1156,0,0
567,-132,0,0,0,0,0,0,0,0,0,-1,1791,1156,0,0
574,-132,0,0,0,0,0,0,0,0,0,-1,1798,1156,0,0
581,-132,0,0,0,0,0,0,0,0,0,-1,1805,1156,0,0
588,-132,0,0,0,0,0,0,0,0,0,-1,1812,1156,0,0
595,-132,0,0,0,0,0,0,0,0,0,-1,1819,1156,0,0
602,-132,0,0,0,0,0,0,0,0,0,-1,1826,1156,0,0
609,-132,0,0,0,0,0,0,0,0,0,-1,1833,1156,0,0
616,-132,0,0,0,0,0,0,0,0,0,-1,1840,1156,0,0
623,-132,0,0,0,0,0,0,0,0,0,-1,1847,1156,0,0
630,-132,0,0,0,0,0,0,0,0,0,-1,1854,1156,0,0
637,-132,0,0,0,0,0,0,0,0,0,-1,1861,1156,0,0
644,-132,71.608,2.38843,0.00324984,-0.00261651,-0.00134597,0.00354391,-0.00291059,-0.215107,0.00373248,0.04209,1868,1156,71.6081,-2.38846
651,-132,71.5701,2.36462,0.002226,-0.00206025,-0.000929071,0.00241872,-0.00225297,-0.204529,0.00269777,0.0405265,1875,1156,71.5701,-2.36461
658,-132,71.5686,2.25183,0.00154792,-0.00159882,-0.00065765,0.00167983,-0.00173074,-0.197958,0.00196917,0.040916,1882,1156,71.5686,-2.2518
665,-132,71.4019,2.36133,0.000959477,-0.00114931,-0.000562357,0.00110007,-0.0012899,-0.244984,0.0013813,0.0408357,1889,1156,71.4019,-2.36132
672,-132,71.405,2.56592,0.000508261,-0.000688728,-0.000624424,0.000774695,-0.000955162,-0.403299,0.00100054,0.0398284,1896,1156,71.405,-2.56591
679,-132,71.5322,2.7085,0.000527128,-0.000474497,-0.000629588,0.000830799,-0.000778168,-0.449415,0.000929104,0.0392122,1903,1156,71.5323,-2.70844
686,-132,71.6216,2.53943,0.000997505,-0.000633071,-0.000647512,0.00122335,-0.00085892,-0.335601,0.00120832,0.0383533,1910,1156,71.6216,-2.53946
693,-132,71.4492,2.33398,0.00113708,-0.000682475,-0.000386981,0.00121596,-0.000761358,-0.201087,0.00115162,0.0324139,1917,1156,71.4492,-2.33395
700,-132,71.5422,2.39771,0,0,0,0,0,0,0,-1,1924,1156,71.5422,-2.39768
707,-132,57.9275,3.01367,0,0,0,0,0,0,0,-1,1931,1156,57.9275,-3.01369
714,-132,57.8083,9.22156,0,0,0,0,0,0,0,-1,1938,1156,57.8084,-9.22151
721,-132,63.6097,9.49817,0,0,0,0,0,0,0,-1,1945,1156,63.6097,-9.49819
728,-132,63.5089,9.06384,0.00108639,-0.000295974,0.000757464,0.00142063,-0.000630211,0.41556,0.00121301,0.0313669,1952,1156,63.5089,-9.06388
735,-132,63.4956,8.45459,0.00133659,-0.000436705,0.00127036,0.00199913,-0.00109924,0.480723,0.00181382,0.0315803,1959,1156,63.4956,-8.45459
742,-132,63.5277,7.81531,0.00129205,-0.000259897,0.00191116,0.00257877,-0.00154661,0.592554,0.00240651,0.0268132,1966,1156,63.5277,-7.81529
749,-132,63.4697,7.22559,0.000715615,0.000450827,0.00252536,0.00311205,-0.0019456,0.759209,0.00294581,0.0265307,1973,1156,63.4697,-7.22556
756,-132,63.446,6.56482,-0.000344716,0.00190256,0.00325164,0.00421923,-0.00266139,0.951755,0.00400632,0.0242294,1980,1156,63.446,-6.56478
763,-132,63.3901,5.95215,-0.00106312,0.00354464,0.00433225,0.00614752,-0.003666,1.02978,0.0057259,0.0144824,1987,1156,63.39,-5.9522
770,-132,63.3906,5.38464,-0.00159531,0.00512334,0.00557688,0.00827452,-0.00474648,1.05648,0.0076091,0.0148448,1994,1156,63.3906,-5.3847
777,-132,63.3059,4.80554,-0.00190604,0.00659293,0.00699439,0.0105275,-0.00584066,1.05838,0.00957846,0.0273826,2001,1156,63.306,-4.8056
784,-132,63.1772,4.26514,-0.00169744,0.00786345,0.00883472,0.0131281,-0.00696214,1.03339,0.0117798,0.0496272,2008,1156,63.1774,-4.26518
791,-132,63.1445,3.71582,0,0,0,0,0,0,0,-1,2015,1156,63.1444,-3.71581
798,-132,60.063,5.51709,0,0,0,0,0,0,0,-1,2022,1156,60.063,-5.51706
805,-132,61.1895,4.5979,0,0,0,0,0,0,0,-1,2029,1156,61.1895,-4.59794
812,-132,62.0815,3.98352,0,0,0,0,0,0,0,-1,2036,1156,62.0816,-3.98355
-700,-139,0,0,0,0,0,0,0,0,0,-1,524,1163,0,0
-693,-139,-47.2749,0.193604,-0.0922602,0.00657349,0.00783514,0.00719078,-0.0928775,1.49217,0.0644491,0.0453432,531,1163,-47.2749,-0.193583
-686,-139,-47.9627,0.417236,-0.0855365,0.0153849,0.00247413,0.0154455,-0.0855972,1.5463,0.0628491,0.0482347,538,1163,-47.9627,-0.417236
-679,-139,-48.2993,0.0375977,-0.076015,0.0188113,-0.00046388,0.0188136,-0.0760173,-1.5659,0.057976,0.0493826,545,1163,-48.2993,-0.0375691
-672,-139,-48.9748,0.23877,-0.0655313,0.0195831,-0.00212043,0.0196359,-0.0655841,-1.5459,0.0515305,0.0433403,552,1163,-48.9748,-0.238738
-665,-139,-49.6816,0.37854,-0.0552895,0.0188416,-0.00303332,0.0189655,-0.0554134,-1.52997,0.0446282,0.0428155,559,1163,-49.6816,-0.378563
-658,-139,-50.3958,0.502197,0,0,0,0,0,0,0,-1,566,1163,-50.3958,-0.502154
-651,-139,-46.8165,2.51404,0,0,0,0,0,0,0,-1,573,1163,-46.8165,-2.514
-644,-139,-46.7203,3.13184,-0.0273034,0.0120136,-0.00364991,0.0123496,-0.0276393,-1.47901,0.0236435,0.0284832,580,1163,-46.7203,-3.13179
-637,-139,-46.8058,3.71326,-0.0194739,0.00938352,-0.00371098,0.00985309,-0.0199435,-1.44493,0.0175288,0.0165898,587,1163,-46.8058,-3.71325
-630,-139,-46.8336,4.35535,-0.0127053,0.00581051,-0.00339398,0.00641303,-0.0133078,-1.3951,0.0116155,0.0109139,594,1163,-46.8335,-4.35536
-623,-139,-46.8669,4.99365,-0.00746991,0.00186035,-0.00287816,0.00267676,-0.00828632,-1.2944,0.00659995,0.017142,601,1163,-46.8669,-4.99371
-616,-139,-46.9805,5.63611,-0.00599357,-5.48836e-05,-0.00286509,0.001102,-0.00715045,-1.18703,0.00517357,0.0218173,608,1163,-46.9804,-5.63612
-609,-139,-47.166,6.36304,0,0,0,0,0,0,0,-1,615,1163,-47.166,-6.36301
-602,-139,-46.856,7.02075,0,0,0,0,0,0,0,-1,622,1163,-46.856,-7.02076
-595,-139,-47.0617,7.63257,0,0,0,0,0,0,0,-1,629,1163,-47.0617,-7.63253
-588,-139,-47.4136,8.13171,0,0,0,0,0,0,0,-1,636,1163,-47.4136,-8.13168
-581,-139,-34.4892,6.72473,0,0,0,0,0,0,0,-1,643,1163,-34.4892,-6.72476
-574,-139,-23.0725,2.4043,0,0,0,0,0,0,0,-1,650,1163,-23.0725,-2.40433
-567,-139,-55.2674,0.549683,0,0,0,0,0,0,0,-1,657,1163,-55.2674,-0.549697
-560,-139,-55.3069,0.556519,-0.00331252,-0.0012344,-0.00259491,0.000521746,-0.00506867,-0.975833,0.00356578,0.0378143,664,1163,-55.3069,-0.556459
-553,-139,-55.3449,0.552856,-0.00278844,-0.000738375,-0.00280638,0.00122431,-0.00475112,-0.960496,0.00364472,0.0385308,671,1163,-55.3449,-0.552886
-546,-139,-55.3873,0.613403,-0.000749064,2.4513e-05,-0.00256512,0.00223185,-0.0029564,-0.860228,0.00300515,0.0408479,678,1163,-55.3873,-0.613462
-539,-139,-55.3578,0.518555,0.00259214,0.00113162,-0.00251112,0.00447703,-0.000753271,-0.643897,0.00326487,0.0415073,685,1163,-55.3578,-0.518562
-532,-139,-55.2214,0.431152,0.00680632,0.00241078,-0.00252065,0.00795279,0.00126432,-0.426861,0.0049347,0.0405549,692,1163,-55.2214,-0.431104
-525,-139,-55.202,0.461548,0.0117324,0.00391956,-0.00268241,0.0125647,0.00308727,-0.30086,0.00756051,0.0409012,699,1163,-55.202,-0.461507
-518,-139,0,0,0,0,0,0,0,0,0,-1,706,1163,0,0
-511,-139,0,0,0,0,0,0,0,0,0,-1,713,1163,0,0
-504,-139,0,0,0,0,0,0,0,0,0,-1,720,1163,0,0
-497,-139,0,0,0,0,0,0,0,0,0,-1,727,1163,0,0
-490,-139,0,0,0,0,0,0,0,0,0,-1,734,1163,0,0
-483,-139,0,0,0,0,0,0,0,0,0,-1,741,1163,0,0
-476,-139,0,0,0,0,0,0,0,0,0,-1,748,1163,0,0
-469,-139,0,0,0,0,0,0,0,0,0,-1,755,1163,0,0
-462,-139,0,0,0,0,0,0,0,0,0,-1,762,1163,0,0
-455,-139,0,0,0,0,0,0,0,0,0,-1,769,1163,0,0
-448,-139,0,0,0,0,0,0,0,0,0,-1,776,1163,0,0
-441,-139,0,0,0,0,0,0,0,0,0,-1,783,1163,0,0
-434,-139,0,0,0,0,0,0,0,0,0,-1,790,1163,0,0
-427,-139,0,0,0,0,0,0,0,0,0,-1,797,1163,0,0
-420,-139,0,0,0,0,0,0,0,0,0,-1,804,1163,0,0
-413,-139,0,0,0,0,0,0,0,0,0,-1,811,1163,0,0
-406,-139,0,0,0,0,0,0,0,0,0,-1,818,1163,0,0
-399,-139,0,0,0,0,0,0,0,0,0,-1,825,1163,0,0
-392,-139,0,0,0,0,0,0,0,0,0,-1,832,1163,0,0
-385,-139,0,0,0,0,0,0,0,0,0,-1,839,1163,0,0
-378,-139,0,0,0,0,0,0,0,0,0,-1,846,1163,0,0
-371,-139,0,0,0,0,0,0,0,0,0,-1,853,1163,0,0
-364,-139,0,0,0,0,0,0,0,0,0,-1,860,1163,0,0
-357,-139,0,0,0,0,0,0,0,0,0,-1,867,1163,0,0
-350,-139,0,0,0,0,0,0,0,0,0,-1,874,1163,0,0
-343,-139,0,0,0,0,0,0,0,0,0,-1,881,1163,0,0
-336,-139,0,0,0,0,0,0,0,0,0,-1,888,1163,0,0
-329,-139,0,0,0,0,0,0,0,0,0,-1,895,1163,0,0
-322,-139,0,0,0,0,0,0,0,0,0,-1,902,1163,0,0
-315,-139,0,0,0,0,0,0,0,0,0,-1,909,1163,0,0
-308,-139,0,0,0,0,0,0,0,0,0,-1,916,1163,0,0
-301,-139,0,0,0,0,0,0,0,0,0,-1,923,1163,0,0
-294,-139,0,0,0,0,0,0,0,0,0,-1,930,1163,0,0
-287,-139,0,0,0,0,0,0,0,0,0,-1,937,1163,0,0
-280,-139,0,0,0,0,0,0,0,0,0,-1,944,1163,0,0
-273,-139,0,0,0,0,0,0,0,0,0,-1,951,1163,0,0
-266,-139,0,0,0,0,0,0,0,0,0,-1,958,1163,0,0
-259,-139,0,0,0,0,0,0,0,0,0,-1,965,1163,0,0
-252,-139,0,0,0,0,0,0,0,0,0,-1,972,1163,0,0
-245,-139,0,0,0,0,0,0,0,0,0,-1,979,1163,0,0
-238,-139,0,0,0,0,0,0,0,0,0,-1,986,1163,0,0
-231,-139,0,0,0,0,0,0,0,0,0,-1,993,1163,0,0
-224,-139,0,0,0,0,0,0,0,0,0,-1,1000,1163,0,0
-217,-139,0,0,0,0,0,0,0,0,0,-1,1007,1163,0,0
-210,-139,0,0,0,0,0,0,0,0,0,-1,1014,1163,0,0
-203,-139,0,0,0,0,0,0,0,0,0,-1,1021,1163,0,0
-196,-139,0,0,0,0,0,0,0,0,0,-1,1028,1163,0,0
-189,-139,0,0,0,0,0,0,0,0,0,-1,1035,1163,0,0
-182,-139,0,0,0,0,0,0,0,0,0,-1,1042,1163,0,0
-175,-139,0,0,0,0,0,0,0,0,0,-1,1049,1163,0,0
-168,-139,0,0,0,0,0,0,0,0,0,-1,1056,1163,0,0
-161,-139,0,0,0,0,0,0,0,0,0,-1,1063,1163,0,0
-154,-139,0,0,0,0,0,0,0,0,0,-1,1070,1163,0,0
-147,-139,0,0,0,0,0,0,0,0,0,-1,1077,1163,0,0
-140,-139,0,0,0,0,0,0,0,0,0,-1,1084,1163,0,0
-133,-139,0,0,0,0,0,0,0,0,0,-1,1091,1163,0,0
-126,-139,0,0,0,0,0,0,0,0,0,-1,1098,1163,0,0
-119,-139,0,0,0,0,0,0,0,0,0,-1,1105,1163,0,0
-112,-139,0,0,0,0,0,0,0,0,0,-1,1112,1163,0,0
-105,-139,0,0,0,0,0,0,0,0,0,-1,1119,1163,0,0
-98,-139,0,0,0,0,0,0,0,0,0,-1,1126,1163,0,0
-91,-139,0,0,0,0,0,0,0,0,0,-1,1133,1163,0,0
-84,-139,0,0,0,0,0,0,0,0,0,-1,1140,1163,0,0
-77,-139,0,0,0,0,0,0,0,0,0,-1,1147,1163,0,0
-70,-139,0,0,0,0,0,0,0,0,0,-1,1154,1163,0,0
-63,-139,0,0,0,0,0,0,0,0,0,-1,1161,1163,0,0
-56,-139,0,0,0,0,0,0,0,0,0,-1,1168,1163,0,0
-49,-139,0,0,0,0,0,0,0,0,0,-1,1175,1163,0,0
-42,-139,0,0,0,0,0,0,0,0,0,-1,1182,1163,0,0
-35,-139,0,0,0,0,0,0,0,0,0,-1,1189,1163,0,0
-28,-139,0,0,0,0,0,0,0,0,0,-1,1196,1163,0,0
-21,-139,0,0,0,0,0,0,0,0,0,-1,1203,1163,0,0
-14,-139,0,0,0,0,0,0,0,0,0,-1,1210,1163,0,0
-7,-139,0,0,0,0,0,0,0,0,0,-1,1217,1163,0,0
0,-139,0,0,0,0,0,0,0,0,0,-1,1224,1163,0,0
7,-139,0,0,0,0,0,0,0,0,0,-1,1231,1163,0,0
14,-139,0,0,0,0,0,0,0,0,0,-1,1238,1163,0,0
21,-139,0,0,0,0,0,0,0,0,0,-1,1245,1163,0,0
28,-139,0,0,0,0,0,0,0,0,0,-1,1252,1163,0,0
35,-139,0,0,0,0,0,0,0,0,0,-1,1259,1163,0,0
42,-139,0,0,0,0,0,0,0,0,0,-1,1266,1163,0,0
49,-139,0,0,0,0,0,0,0,0,0,-1,1273,1163,0,0
56,-139,0,0,0,0,0,0,0,0,0,-1,1280,1163,0,0
63,-139,0,0,0,0,0,0,0,0,0,-1,1287,1163,0,0
70,-139,0,0,0,0,0,0,0,0,0,-1,1294,1163,0,0
77,-139,0,0,0,0,0,0,0,0,0,-1,1301,1163,0,0
84,-139,0,0,0,0,0,0,0,0,0,-1,1308,1163,0,0
91,-139,0,0,0,0,0,0,0,0,0,-1,1315,1163,0,0
98,-139,0,0,0,0,0,0,0,0,0,-1,1322,1163,0,0
105,-139,0,0,0,0,0,0,0,0,0,-1,1329,1163,0,0
112,-139,0,0,0,0,0,0,0,0,0,-1,1336,1163,0,0
119,-139,0,0,0,0,0,0,0,0,0,-1,1343,1163,0,0
126,-139,0,0,0,0,0,0,0,0,0,-1,1350,1163,0,0
133,-139,0,0,0,0,0,0,0,0,0,-1,1357,1163,0,0
140,-139,0,0,0,0,0,0,0,0,0,-1,1364,1163,0,0
147,-139,0,0,0,0,0,0,0,0,0,-1,1371,1163,0,0
154,-139,0,0,0,0,0,0,0,0,0,-1,1378,1163,0,0
161,-139,0,0,0,0,0,0,0,0,0,-1,1385,1163,0,0
168,-139,0,0,0,0,0,0,0,0,0,-1,1392,1163,0,0
175,-139,0,0,0,0,0,0,0,0,0,-1,1399,1163,0,0
182,-139,0,0,0,0,0,0,0,0,0,-1,1406,1163,0,0
189,-139,0,0,0,0,0,0,0,0,0,-1,1413,1163,0,0
196,-139,0,0,0,0,0,0,0,0,0,-1,1420,1163,0,0
203,-139,0,0,0,0,0,0,0,0,0,-1,1427,1163,0,0
210,-139,0,0,0,0,0,0,0,0,0,-1,1434,1163,0,0
217,-139,0,0,0,0,0,0,0,0,0,-1,1441,1163,0,0
224,-139,0,0,0,0,0,0,0,0,0,-1,1448,1163,0,0
231,-139,0,0,0,0,0,0,0,0,0,-1,1455,1163,0,0
238,-139,0,0,0,0,0,0,0,0,0,-1,1462,1163,0,0
245,-139,0,0,0,0,0,0,0,0,0,-1,1469,1163,0,0
252,-139,0,0,0,0,0,0,0,0,0,-1,1476,1163,0,0
259,-139,0,0,0,0,0,0,0,0,0,-1,1483,1163,0,0
266,-139,0,0,0,0,0,0,0,0,0,-1,1490,1163,0,0
273,-139,0,0,0,0,0,0,0,0,0,-1,1497,1163,0,0
280,-139,0,0,0,0,0,0,0,0,0,-1,1504,1163,0,0
287,-139,0,0,0,0,0,0,0,0,0,-1,1511,1163,0,0
294,-139,0,0,0,0,0,0,0,0,0,-1,1518,1163,0,0
301,-139,0,0,0,0,0,0,0,0,0,-1,1525,1163,0,0
308,-139,0,0,0,0,0,0,0,0,0,-1,1532,1163,0,0
315,-139,0,0,0,0,0,0,0,0,0,-1,1539,1163,0,0
322,-139,0,0,0,0,0,0,0,0,0,-1,1546,1163,0,0
329,-139,0,0,0,0,0,0,0,0,0,-1,1553,1163,0,0
336,-139,0,0,0,0,0,0,0,0,0,-1,1560,1163,0,0
343,-139,0,0,0,0,0,0,0,0,0,-1,1567,1163,0,0
350,-139,0,0,0,0,0,0,0,0,0,-1,1574,1163,0,0
357,-139,0,0,0,0,0,0,0,0,0,-1,1581,1163,0,0
364,-139,0,0,0,0,0,0,0,0,0,-1,1588,1163,0,0
371,-139,0,0,0,0,0,0,0,0,0,-1,1595,1163,0,0
378,-139,0,0,0,0,0,0,0,0,0,-1,1602,1163,0,0
385,-139,0,0,0,0,0,0,0,0,0,-1,1609,1163,0,0
392,-139,0,0,0,0,0,0,0,0,0,-1,1616,1163,0,0
399,-139,0,0,0,0,0,0,0,0,0,-1,1623,1163,0,0
406,-139,0,0,0,0,0,0,0,0,0,-1,1630,1163,0,0
413,-139,0,0,0,0,0,0,0,0,0,-1,1637,1163,0,0
420,-139,0,0,0,0,0,0,0,0,0,-1,1644,1163,0,0
427,-139,0,0,0,0,0,0,0,0,0,-1,1651,1163,0,0
434,-139,0,0,0,0,0,0,0,0,0,-1,1658,1163,0,0
441,-139,0,0,0,0,0,0,0,0,0,-1,1665,1163,0,0
448,-139,0,0,0,0,0,0,0,0,0,-1,1672,1163,0,0
455,-139,0,0,0,0,0,0,0,0,0,-1,1679,1163,0,0
462,-139,0,0,0,0,0,0,0,0,0,-1,1686,1163,0,0
469,-139,0,0,0,0,0,0,0,0,0,-1,1693,1163,0,0
476,-139,0,0,0,0,0,0,0,0,0,-1,1700,1163,0,0
483,-139,0,0,0,0,0,0,0,0,0,-1,1707,1163,0,0
490,-139,0,0,0,0,0,0,0,0,0,-1,1714,1163,0,0
497,-139,0,0,0,0,0,0,0,0,0,-1,1721,1163,0,0
504,-139,0,0,0,0,0,0,0,0,0,-1,1728,1163,0,0
511,-139,0,0,0,0,0,0,0,0,0,-1,1735,1163,0,0
518,-139,0,0,0,0,0,0,0,0,0,-1,1742,1163,0,0
525,-139,0,0,0,0,0,0,0,0,0,-1,1749,1163,0,0
532,-139,0,0,0,0,0,0,0,0,0,-1,1756,1163,0,0
539,-139,0,0,0,0,0,0,0,0,0,-1,1763,1163,0,0
546,-139,0,0,0,0,0,0,0,0,0,-1,1770,1163,0,0
553,-139,0,0,0,0,0,0,0,0,0,-1,1777,1163,0,0
560,-139,0,0,0,0,0,0,0,0,0,-1,1784,1163,0,0
567,-139,0,0,0,0,0,0,0,0,0,-1,1791,1163,0,0
574,-139,0,0,0,0,0,0,0,0,0,-1,1798,1163,0,0
581,-139,0,0,0,0,0,0,0,0,0,-1,1805,1163,0,0
588,-139,0,0,0,0,0,0,0,0,0,-1,1812,1163,0,0
595,-139,0,0,0,0,0,0,0,0,0,-1,1819,1163,0,0
602,-139,0,0,0,0,0,0,0,0,0,-1,1826,1163,0,0
609,-139,0,0,0,0,0,0,0,0,0,-1,1833,1163,0,0
616,-139,0,0,0,0,0,0,0,0,0,-1,1840,1163,0,0
623,-139,0,0,0,0,0,0,0,0,0,-1,1847,1163,0,0
630,-139,0,0,0,0,0,0,0,0,0,-1,1854,1163,0,0
637,-139,0,0,0,0,0,0,0,0,0,-1,1861,1163,0,0
644,-139,71.6963,2.22681,0.00253681,-0.00215417,-0.000796012,0.00266821,-0.00228556,-0.163591,0.0028629,0.0400953,1868,1163,71.6963,-2.22676
651,-139,71.6207,2.22815,0.00164653,-0.00150018,-0.000513792,0.0017283,-0.00158195,-0.15782,0.00191179,0.0382108,1875,1163,71.6207,-2.2282
658,-139,71.6069,2.16223,0.00106225,-0.000923624,-0.000396971,0.00113866,-0.00100004,-0.190165,0.00123564,0.0404846,1882,1163,71.6069,-2.16217
665,-139,71.6128,2.22375,0.000583458,-0.000359232,-0.000469484,0.00077738,-0.000553155,-0.39171,0.000771813,0.0383618,1889,1163,71.6128,-2.22371
672,-139,71.5363,2.53894,0.000249023,0.000218025,-0.000719937,0.000953628,-0.00048658,-0.774636,0.000845953,0.0372694,1896,1163,71.5362,-2.539
679,-139,71.5741,2.52783,0.000398914,0.000437311,-0.000872899,0.00129122,-0.000454998,-0.796393,0.001046,0.0373186,1903,1163,71.5741,-2.52786
686,-139,71.5085,2.42126,0.00102778,0.000197956,-0.000956118,0.00165513,-0.000429397,-0.580684,0.00127096,0.0379092,1910,1163,71.5085,-2.42122
693,-139,71.5026,2.32703,0.0011537,2.52076e-05,-0.000629115,0.00143453,-0.000255625,-0.419851,0.00105197,0.0285737,1917,1163,71.5025,-2.32705
700,-139,71.6226,2.30627,0,0,0,0,0,0,0,-1,1924,1163,71.6225,-2.30623
707,-139,32.116,6.54346,0,0,0,0,0,0,0,-1,1931,1163,32.116,-6.54343
714,-139,62.1425,10.1428,0,0,0,0,0,0,0,-1,1938,1163,62.1424,-10.1428
721,-139,62.1398,9.50867,0,0,0,0,0,0,0,-1,1945,1163,62.1397,-9.50873
728,-139,62.8167,9.23523,0,0,0,0,0,0,0,-1,1952,1163,62.8166,-9.23522
735,-139,62.7709,8.59497,0.00159825,-0.000186244,0.00104988,0.00208381,-0.000671802,0.433193,0.00165911,0.0367064,1959,1163,62.7709,-8.59501
742,-139,62.8744,7.78406,0.00157189,-0.000178652,0.00172676,0.00263254,-0.0012393,0.550827,0.00228314,0.0251782,1966,1163,62.8744,-7.78408
749,-139,62.8573,7.18237,0.0010358,0.000429142,0.00244742,0.00319862,-0.00173368,0.723744,0.00288923,0.0204823,1973,1163,62.8573,-7.18234
756,-139,62.7864,6.56543,0.000167128,0.00182472,0.00329758,0.00439606,-0.00240421,0.908516,0.00398189,0.0114921,1980,1163,62.7863,-6.5654
763,-139,62.7209,5.93604,-0.000243373,0.00337715,0.00449001,0.00640809,-0.00327431,0.977019,0.0056869,0.0117396,1987,1163,62.7209,-5.93609
770,-139,62.7107,5.36047,-0.000410014,0.00484465,0.00586488,0.00864381,-0.00420917,0.995983,0.00756647,0.0137594,1994,1163,62.7107,-5.36051
777,-139,62.7148,4.83521,-0.000319987,0.00619734,0.00744326,0.011064,-0.00518665,0.99173,0.00958468,0.0284413,2001,1163,62.7148,-4.83517
784,-139,62.7063,4.39893,0.00041153,0.00730582,0.00954118,0.0140035,-0.00628612,0.958747,0.0119933,0.0481406,2008,1163,62.7062,-4.39887
791,-139,62.7712,3.93225,0,0,0,0,0,0,0,-1,2015,1163,62.7711,-3.93225
798,-139,63.4678,4.93604,0,0,0,0,0,0,0,-1,2022,1163,63.4679,-4.936
805,-139,61.5491,3.87268,0,0,0,0,0,0,0,-1,2029,1163,61.549,-3.87269
812,-139,0,0,0,0,0,0,0,0,0,-1,2036,1163,0,0
-700,-146,0,0,0,0,0,0,0,0,0,-1,524,1170,0,0
-693,-146,-47.5277,0.472778,-0.095952,0.0163288,0.00607732,0.0166568,-0.09628,1.51688,0.0703989,0.0434971,531,1170,-47.5277,-0.472752
-686,-146,-48.2333,0.553101,-0.0891112,0.0251883,-0.000271451,0.025189,-0.0891118,-1.56842,0.0693463,0.0476358,538,1170,-48.2333,-0.553086
-679,-146,-48.8816,0.696655,-0.0791564,0.0276309,-0.00344004,0.0277416,-0.0792671,-1.53863,0.0641244,0.0476737,545,1170,-48.8816,-0.696648
-672,-146,-48.8008,-0.37439,-0.0681046,0.0271664,-0.00498714,0.0274267,-0.068365,-1.51864,0.056964,0.0457219,552,1170,-48.8008,0.37442
-665,-146,-49.5593,-0.0263672,-0.0572584,0.02516,-0.00561594,0.0255409,-0.0576393,-1.50307,0.0492016,0.0445165,559,1170,-49.5593,0.0263949
-658,-146,-46.3191,1.60144,0,0,0,0,0,0,0,-1,566,1170,-46.3191,-1.60146
-651,-146,-46.1907,2.32739,0,0,0,0,0,0,0,-1,573,1170,-46.1907,-2.3274
-644,-146,-46.0256,3.07129,-0.0279134,0.0147517,-0.00503418,0.0153376,-0.0284993,-1.45492,0.0256867,0.0274156,580,1170,-46.0256,-3.07131
-637,-146,-46.1056,3.71863,-0.0197415,0.0111465,-0.0046806,0.0118401,-0.0204352,-1.42366,0.0188532,0.0132496,587,1170,-46.1056,-3.71859
-630,-146,-46.1425,4.375,-0.0127725,0.00673073,-0.00396456,0.00750583,-0.0135476,-1.37772,0.0123209,0.0106619,594,1170,-46.1425,-4.37496
-623,-146,-46.2048,4.99707,-0.00734519,0.00205798,-0.00302216,0.00294552,-0.00823274,-1.28515,0.00669009,0.013489,601,1170,-46.2049,-4.99708
-616,-146,-46.2949,5.6543,-0.00562983,-0.000278,-0.00260032,0.000777328,-0.00668516,-1.18526,0.00473719,0.0206837,608,1170,-46.2949,-5.6543
-609,-146,-46.3851,6.31104,0,0,0,0,0,0,0,-1,615,1170,-46.3851,-6.31103
-602,-146,-46.1822,7.09619,0,0,0,0,0,0,0,-1,622,1170,-46.1822,-7.09621
-595,-146,-46.3556,7.74939,0,0,0,0,0,0,0,-1,629,1170,-46.3556,-7.74937
-588,-146,-45.0034,7.81934,0,0,0,0,0,0,0,-1,636,1170,-45.0034,-7.81931
-581,-146,-31.7815,6.30347,0,0,0,0,0,0,0,-1,643,1170,-31.7815,-6.3035
-574,-146,-17.9915,3.79114,0,0,0,0,0,0,0,-1,650,1170,-17.9915,-3.79118
-567,-146,-44.4572,0.6604,0,0,0,0,0,0,0,-1,657,1170,-44.4572,-0.660404
-560,-146,-55.3278,0.648438,0,0,0,0,0,0,0,-1,664,1170,-55.3278,-0.648478
-553,-146,-55.3123,0.678345,-0.00346912,-0.000562333,-0.00315727,0.00146,-0.00549146,-1.0011,0.00423243,0.0385972,671,1170,-55.3123,-0.67837
-546,-146,-55.407,0.639893,-0.00153648,-3.55635e-05,-0.00311892,0.00242191,-0.00399395,-0.903462,0.00374108,0.0402391,678,1170,-55.407,-0.639905
-539,-146,-55.4787,0.494629,0.00214554,0.000815004,-0.00319149,0.00474037,-0.00177982,-0.682644,0.00389163,0.0385728,685,1170,-55.4787,-0.49468
-532,-146,-55.3512,0.35437,0.0069062,0.00179935,-0.00328264,0.00851159,0.000193964,-0.454852,0.00561086,0.0385758,692,1170,-55.3512,-0.354331
-525,-146,-55.177,0.216064,0,0,0,0,0,0,0,-1,699,1170,-55.177,-0.216076
-518,-146,0,0,0,0,0,0,0,0,0,-1,706,1170,0,0
-511,-146,0,0,0,0,0,0,0,0,0,-1,713,1170,0,0
-504,-146,0,0,0,0,0,0,0,0,0,-1,720,1170,0,0
-497,-146,0,0,0,0,0,0,0,0,0,-1,727,1170,0,0
-490,-146,0,0,0,0,0,0,0,0,0,-1,734,1170,0,0
-483,-146,0,0,0,0,0,0,0,0,0,-1,741,1170,0,0
-476,-146,0,0,0,0,0,0,0,0,0,-1,748,1170,0,0
-469,-146,0,0,0,0,0,0,0,0,0,-1,755,1170,0,0
-462,-146,0,0,0,0,0,0,0,0,0,-1,762,1170,0,0
-455,-146,0,0,0,0,0,0,0,0,0,-1,769,1170,0,0
-448,-146,0,0,0,0,0,0,0,0,0,-1,776,1170,0,0
-441,-146,0,0,0,0,0,0,0,0,0,-1,783,1170,0,0
-434,-146,0,0,0,0,0,0,0,0,0,-1,790,1170,0,0
-427,-146,0,0,0,0,0,0,0,0,0,-1,797,1170,0,0
-420,-146,0,0,0,0,0,0,0,0,0,-1,804,1170,0,0
-413,-146,0,0,0,0,0,0,0,0,0,-1,811,1170,0,0
-406,-146,0,0,0,0,0,0,0,0,0,-1,818,1170,0,0
-399,-146,0,0,0,0,0,0,0,0,0,-1,825,1170,0,0
-392,-146,0,0,0,0,0,0,0,0,0,-1,832,1170,0,0
-385,-146,0,0,0,0,0,0,0,0,0,-1,839,1170,0,0
-378,-146,0,0,0,0,0,0,0,0,0,-1,846,1170,0,0
-371,-146,0,0,0,0,0,0,0,0,0,-1,853,1170,0,0
-364,-146,0,0,0,0,0,0,0,0,0,-1,860,1170,0,0
-357,-146,0,0,0,0,0,0,0,0,0,-1,867,1170,0,0
-350,-146,0,0,0,0,0,0,0,0,0,-1,874,1170,0,0
-343,-146,0,0,0,0,0,0,0,0,0,-1,881,1170,0,0
-336,-146,0,0,0,0,0,0,0,0,0,-1,888,1170,0,0
-329,-146,0,0,0,0,0,0,0,0,0,-1,895,1170,0,0
-322,-146,0,0,0,0,0,0,0,0,0,-1,902,1170,0,0
-315,-146,0,0,0,0,0,0,0,0,0,-1,909,1170,0,0
-308,-146,0,0,0,0,0,0,0,0,0,-1,916,1170,0,0
-301,-146,0,0,0,0,0,0,0,0,0,-1,923,1170,0,0
-294,-146,0,0,0,0,0,0,0,0,0,-1,930,1170,0,0
-287,-146,0,0,0,0,0,0,0,0,0,-1,937,1170,0,0
-280,-146,0,0,0,0,0,0,0,0,0,-1,944,1170,0,0
-273,-146,0,0,0,0,0,0,0,0,0,-1,951,1170,0,0
-266,-146,0,0,0,0,0,0,0,0,0,-1,958,1170,0,0
-259,-146,0,0,0,0,0,0,0,0,0,-1,965,1170,0,0
-252,-146,0,0,0,0,0,0,0,0,0,-1,972,1170,0,0
-245,-146,0,0,0,0,0,0,0,0,0,-1,979,1170,0,0
-238,-146,0,0,0,0,0,0,0,0,0,-1,986,1170,0,0
-231,-146,0,0,0,0,0,0,0,0,0,-1,993,1170,0,0
-224,-146,0,0,0,0,0,0,0,0,0,-1,1000,1170,0,0
-217,-146,0,0,0,0,0,0,0,0,0,-1,1007,1170,0,0
-210,-146,0,0,0,0,0,0,0,0,0,-1,1014,1170,0,0
-203,-146,0,0,0,0,0,0,0,0,0,-1,1021,1170,0,0
-196,-146,0,0,0,0,0,0,0,0,0,-1,1028,1170,0,0
-189,-146,0,0,0,0,0,0,0,0,0,-1,1035,1170,0,0
-182,-146,0,0,0,0,0,0,0,0,0,-1,1042,1170,0,0
-175,-146,0,0,0,0,0,0,0,0,0,-1,1049,1170,0,0
-168,-146,0,0,0,0,0,0,0,0,0,-1,1056,1170,0,0
-161,-146,0,0,0,0,0,0,0,0,0,-1,1063,1170,0,0
-154,-146,0,0,0,0,0,0,0,0,0,-1,1070,1170,0,0
-147,-146,0,0,0,0,0,0,0,0,0,-1,1077,1170,0,0
-140,-146,0,0,0,0,0,0,0,0,0,-1,1084,1170,0,0
-133,-146,0,0,0,0,0,0,0,0,0,-1,1091,1170,0,0
-126,-146,0,0,0,0,0,0,0,0,0,-1,1098,1170,0,0
-119,-146,0,0,0,0,0,0,0,0,0,-1,1105,1170,0,0
-112,-146,0,0,0,0,0,0,0,0,0,-1,1112,1170,0,0
-105,-146,0,0,0,0,0,0,0,0,0,-1,1119,1170,0,0
-98,-146,0,0,0,0,0,0,0,0,0,-1,1126,1170,0,0
-91,-146,0,0,0,0,0,0,0,0,0,-1,1133,1170,0,0
-84,-146,0,0,0,0,0,0,0,0,0,-1,1140,1170,0,0
-77,-146,0,0,0,0,0,0,0,0,0,-1,1147,1170,0,0
-70,-146,0,0,0,0,0,0,0,0,0,-1,1154,1170,0,0
-63,-146,0,0,0,0,0,0,0,0,0,-1,1161,1170,0,0
-56,-146,0,0,0,0,0,0,0,0,0,-1,1168,1170,0,0
-49,-146,0,0,0,0,0,0,0,0,0,-1,1175,1170,0,0
-42,-146,0,0,0,0,0,0,0,0,0,-1,1182,1170,0,0
-35,-146,0,0,0,0,0,0,0,0,0,-1,1189,1170,0,0
-28,-146,0,0,0,0,0,0,0,0,0,-1,1196,1170,0,0
-21,-146,0,0,0,0,0,0,0,0,0,-1,1203,1170,0,0
-14,-146,0,0,0,0,0,0,0,0,0,-1,1210,1170,0,0
-7,-146,0,0,0,0,0,0,0,0,0,-1,1217,1170,0,0
0,-146,0,0,0,0,0,0,0,0,0,-1,1224,1170,0,0
7,-146,0,0,0,0,0,0,0,0,0,-1,1231,1170,0,0
14,-146,0,0,0,0,0,0,0,0,0,-1,1238,1170,0,0
21,-146,0,0,0,0,0,0,0,0,0,-1,1245,1170,0,0
28,-146,0,0,0,0,0,0,0,0,0,-1,1252,1170,0,0
35,-146,0,0,0,0,0,0,0,0,0,-1,1259,1170,0,0
42,-146,0,0,0,0,0,0,0,0,0,-1,1266,1170,0,0
49,-146,0,0,0,0,0,0,0,0,0,-1,1273,1170,0,0
56,-146,0,0,0,0,0,0,0,0,0,-1,1280,1170,0,0
63,-146,0,0,0,0,0,0,0,0,0,-1,1287,1170,0,0
70,-146,0,0,0,0,0,0,0,0,0,-1,1294,1170,0,0
77,-146,0,0,0,0,0,0,0,0,0,-1,1301,1170,0,0
84,-146,0,0,0,0,0,0,0,0,0,-1,1308,1170,0,0
91,-146,0,0,0,0,0,0,0,0,0,-1,1315,1170,0,0
98,-146,0,0,0,0,0,0,0,0,0,-1,1322,1170,0,0
105,-146,0,0,0,0,0,0,0,0,0,-1,1329,1170,0,0
112,-146,0,0,0,0,0,0,0,0,0,-1,1336,1170,0,0
119,-146,0,0,0,0,0,0,0,0,0,-1,1343,1170,0,0
126,-146,0,0,0,0,0,0,0,0,0,-1,1350,1170,0,0
133,-146,0,0,0,0,0,0,0,0,0,-1,1357,1170,0,0
140,-146,0,0,0,0,0,0,0,0,0,-1,1364,1170,0,0
147,-146,0,0,0,0,0,0,0,0,0,-1,1371,1170,0,0
154,-146,0,0,0,0,0,0,0,0,0,-1,1378,1170,0,0
161,-146,0,0,0,0,0,0,0,0,0,-1,1385,1170,0,0
168,-146,0,0,0,0,0,0,0,0,0,-1,1392,1170,0,0
175,-146,0,0,0,0,0,0,0,0,0,-1,1399,1170,0,0
182,-146,0,0,0,0,0,0,0,0,0,-1,1406,1170,0,0
189,-146,0,0,0,0,0,0,0,0,0,-1,1413,1170,0,0
196,-146,0,0,0,0,0,0,0,0,0,-1,1420,1170,0,0
203,-146,0,0,0,0,0,0,0,0,0,-1,1427,1170,0,0
210,-146,0,0,0,0,0,0,0,0,0,-1,1434,1170,0,0
217,-146,0,0,0,0,0,0,0,0,0,-1,1441,1170,0,0
224,-146,0,0,0,0,0,0,0,0,0,-1,1448,1170,0,0
231,-146,0,0,0,0,0,0,0,0,0,-1,1455,1170,0,0
238,-146,0,0,0,0,0,0,0,0,0,-1,1462,1170,0,0
245,-146,0,0,0,0,0,0,0,0,0,-1,1469,1170,0,0
252,-146,0,0,0,0,0,0,0,0,0,-1,1476,1170,0,0
259,-146,0,0,0,0,0,0,0,0,0,-1,1483,1170,0,0
266,-146,0,0,0,0,0,0,0,0,0,-1,1490,1170,0,0
273,-146,0,0,0,0,0,0,0,0,0,-1,1497,1170,0,0
280,-146,0,0,0,0,0,0,0,0,0,-1,1504,1170,0,0
287,-146,0,0,0,0,0,0,0,0,0,-1,1511,1170,0,0
294,-146,0,0,0,0,0,0,0,0,0,-1,1518,1170,0,0
301,-146,0,0,0,0,0,0,0,0,0,-1,1525,1170,0,0
308,-146,0,0,0,0,0,0,0,0,0,-1,1532,1170,0,0
315,-146,0,0,0,0,0,0,0,0,0,-1,1539,1170,0,0
322,-146,0,0,0,0,0,0,0,0,0,-1,1546,1170,0,0
329,-146,0,0,0,0,0,0,0,0,0,-1,1553,1170,0,0
336,-146,0,0,0,0,0,0,0,0,0,-1,1560,1170,0,0
343,-146,0,0,0,0,0,0,0,0,0,-1,1567,1170,0,0
350,-146,0,0,0,0,0,0,0,0,0,-1,1574,1170,0,0
357,-146,0,0,0,0,0,0,0,0,0,-1,1581,1170,0,0
364,-146,0,0,0,0,0,0,0,0,0,-1,1588,1170,0,0
371,-146,0,0,0,0,0,0,0,0,0,-1,1595,1170,0,0
378,-146,0,0,0,0,0,0,0,0,0,-1,1602,1170,0,0
385,-146,0,0,0,0,0,0,0,0,0,-1,1609,1170,0,0
392,-146,0,0,0,0,0,0,0,0,0,-1,1616,1170,0,0
399,-146,0,0,0,0,0,0,0,0,0,-1,1623,1170,0,0
406,-146,0,0,0,0,0,0,0,0,0,-1,1630,1170,0,0
413,-146,0,0,0,0,0,0,0,0,0,-1,1637,1170,0,0
420,-146,0,0,0,0,0,0,0,0,0,-1,1644,1170,0,0
427,-146,0,0,0,0,0,0,0,0,0,-1,1651,1170,0,0
434,-146,0,0,0,0,0,0,0,0,0,-1,1658,1170,0,0
441,-146,0,0,0,0,0,0,0,0,0,-1,1665,1170,0,0
448,-146,0,0,0,0,0,0,0,0,0,-1,1672,1170,0,0
455,-146,0,0,0,0,0,0,0,0,0,-1,1679,1170,0,0
462,-146,0,0,0,0,0,0,0,0,0,-1,1686,1170,0,0
469,-146,0,0,0,0,0,0,0,0,0,-1,1693,1170,0,0
476,-146,0,0,0,0,0,0,0,0,0,-1,1700,1170,0,0
483,-146,0,0,0,0,0,0,0,0,0,-1,1707,1170,0,0
490,-146,0,0,0,0,0,0,0,0,0,-1,1714,1170,0,0
497,-146,0,0,0,0,0,0,0,0,0,-1,1721,1170,0,0
504,-146,0,0,0,0,0,0,0,0,0,-1,1728,1170,0,0
511,-146,0,0,0,0,0,0,0,0,0,-1,1735,1170,0,0
518,-146,0,0,0,0,0,0,0,0,0,-1,1742,1170,0,0
525,-146,0,0,0,0,0,0,0,0,0,-1,1749,1170,0,0
532,-146,0,0,0,0,0,0,0,0,0,-1,1756,1170,0,0
539,-146,0,0,0,0,0,0,0,0,0,-1,1763,1170,0,0
546,-146,0,0,0,0,0,0,0,0,0,-1,1770,1170,0,0
553,-146,0,0,0,0,0,0,0,0,0,-1,1777,1170,0,0
560,-146,0,0,0,0,0,0,0,0,0,-1,1784,1170,0,0
567,-146,0,0,0,0,0,0,0,0,0,-1,1791,1170,0,0
574,-146,0,0,0,0,0,0,0,0,0,-1,1798,1170,0,0
581,-146,0,0,0,0,0,0,0,0,0,-1,1805,1170,0,0
588,-146,0,0,0,0,0,0,0,0,0,-1,1812,1170,0,0
595,-146,0,0,0,0,0,0,0,0,0,-1,1819,1170,0,0
602,-146,0,0,0,0,0,0,0,0,0,-1,1826,1170,0,0
609,-146,0,0,0,0,0,0,0,0,0,-1,1833,1170,0,0
616,-146,0,0,0,0,0,0,0,0,0,-1,1840,1170,0,0
623,-146,0,0,0,0,0,0,0,0,0,-1,1847,1170,0,0
630,-146,0,0,0,0,0,0,0,0,0,-1,1854,1170,0,0
637,-146,71.5463,2.28687,0.00312778,-0.00214368,-0.00152626,0.00353779,-0.00255369,-0.262442,0.00353218,0.0391095,1861,1170,71.5463,-2.28685
644,-146,71.5554,2.26013,0.00223329,-0.00149286,-0.000891393,0.00243555,-0.00169513,-0.223131,0.00239759,0.0388751,1868,1170,71.5554,-2.26009
651,-146,71.5502,2.28247,0.0014117,-0.000793568,-0.000688392,0.00160894,-0.000990813,-0.279054,0.00151505,0.0358404,1875,1170,71.5502,-2.28251
658,-146,71.6074,2.24939,0.000857629,-0.000162301,-0.000655794,0.0011784,-0.000483077,-0.454923,0.00098686,0.03763,1882,1170,71.6074,-2.24937
665,-146,71.6321,2.30127,0.000424407,0.000458719,-0.000814156,0.0012559,-0.000372773,-0.795933,0.000985317,0.0373554,1889,1170,71.6321,-2.30122
672,-146,71.6167,2.37695,0.000144657,0.0010901,-0.0011587,0.0018688,-0.000634044,-0.979079,0.00150249,0.0358571,1896,1170,71.6167,-2.37695
679,-146,71.5862,2.31799,0.000385501,0.00124619,-0.00139092,0.00227182,-0.000640127,-0.935425,0.001767,0.0307561,1903,1170,71.5862,-2.31795
686,-146,71.4622,2.22144,0.00111495,0.000864337,-0.0014442,0.00243927,-0.000459977,-0.742123,0.00179921,0.0266361,1910,1170,71.4621,-2.22145
693,-146,71.5233,2.21606,0.00120115,0.000571223,-0.0010023,0.0019368,-0.000164435,-0.633164,0.00134936,0.0237221,1917,1170,71.5233,-2.2161
700,-146,71.6261,2.1897,0,0,0,0,0,0,0,-1,1924,1170,71.6262,-2.1897
707,-146,29.9441,6.94653,0,0,0,0,0,0,0,-1,1931,1170,29.9441,-6.94652
714,-146,31.325,6.13245,0,0,0,0,0,0,0,-1,1938,1170,31.325,-6.1325
721,-146,61.3608,9.47766,0,0,0,0,0,0,0,-1,1945,1170,61.3608,-9.47767
728,-146,61.5856,8.51538,0,0,0,0,0,0,0,-1,1952,1170,61.5855,-8.51539
735,-146,62.4187,8.2583,0,0,0,0,0,0,0,-1,1959,1170,62.4187,-8.25832
742,-146,62.3052,7.76123,0.00163956,-6.92488e-05,0.00155987,0.0025637,-0.000993385,0.534845,0.00211934,0.0189949,1966,1170,62.3052,-7.76124
749,-146,62.1831,7.19592,0.00111983,0.000452273,0.00237421,0.00318361,-0.00161151,0.715563,0.00281763,0.0164099,1973,1170,62.1831,-7.19587
756,-146,62.1312,6.56775,0.000520815,0.00178021,0.0033367,0.00454611,-0.00224508,0.878661,0.00399522,0.0126242,1980,1170,62.1313,-6.5677
763,-146,62.072,5.93457,0.000493327,0.00320083,0.00464788,0.00668809,-0.00299393,0.927109,0.00572394,0.01227,1987,1170,62.0721,-5.9346
770,-146,62.0376,5.32458,0.00077326,0.00451055,0.00618965,0.00910747,-0.00382366,0.931997,0.00767073,0.0138747,1994,1170,62.0375,-5.32463
777,-146,62.0762,4.86987,0.00136227,0.00568943,0.00799106,0.0118046,-0.00475293,0.917603,0.00984425,0.0264562,2001,1170,62.0761,-4.86984
784,-146,62.1165,4.58789,0.00274955,0.00657389,0.010435,0.0152704,-0.00594698,0.876016,0.012638,0.0448475,2008,1170,62.1165,-4.58792
791,-146,62.3716,4.76367,0,0,0,0,0,0,0,-1,2015,1170,62.3716,-4.76362
798,-146,62.6838,5.07593,0,0,0,0,0,0,0,-1,2022,1170,62.6837,-5.07591
805,-146,63.0386,5.00293,0,0,0,0,0,0,0,-1,2029,1170,63.0386,-5.00294
812,-146,0,0,0,0,0,0,0,0,0,-1,2036,1170,0,0
-700,-153,0,0,0,0,0,0,0,0,0,-1,524,1177,0,0
-693,-153,0,0,0,0,0,0,0,0,0,-1,531,1177,0,0
-686,-153,-48.3746,0.592651,0,0,0,0,0,0,0,-1,538,1177,-48.3746,-0.592678
-679,-153,-47.7982,-1.26038,0,0,0,0,0,0,0,-1,545,1177,-47.7982,1.26032
-672,-153,-48.61,-0.917358,-0.0680423,0.0338342,-0.00809591,0.0344735,-0.0686816,-1.49199,0.0606384,0.0477273,552,1177,-48.61,0.917368
-665,-153,-49.4508,-0.547974,-0.0568596,0.0305798,-0.00826629,0.0313544,-0.0576342,-1.47736,0.052119,0.0462186,559,1177,-49.4508,0.547954
-658,-153,-50.2084,-0.289185,-0.0464978,0.0265489,-0.00793684,0.0274014,-0.0473502,-1.46381,0.0436671,0.0488204,566,1177,-50.2084,0.289204
-651,-153,-45.1551,2.12537,0,0,0,0,0,0,0,-1,573,1177,-45.1551,-2.12534
-644,-153,-45.3116,3.06653,-0.0273893,0.0171166,-0.00629783,0.0179906,-0.0282633,-1.4329,0.0269234,0.0315015,580,1177,-45.3117,-3.06657
-637,-153,-45.4308,3.72461,-0.0192868,0.0127629,-0.00555083,0.013697,-0.0202209,-1.40407,0.0197029,0.012774,587,1177,-45.4309,-3.72459
-630,-153,-45.4743,4.38745,-0.0124867,0.00775352,-0.00452026,0.00871715,-0.0134504,-1.36076,0.0128953,0.0102212,594,1177,-45.4743,-4.38748
-623,-153,-45.5139,5.04907,-0.00725753,0.00268305,-0.0033328,0.00369702,-0.00827149,-1.27545,0.00707627,0.0117154,601,1177,-45.5139,-5.04905
-616,-153,-45.5637,5.68909,-0.00535181,-0.000169183,-0.00260243,0.000912047,-0.00643304,-1.17703,0.00462279,0.0155709,608,1177,-45.5637,-5.68912
-609,-153,-45.621,6.245,-0.00562837,-0.000847446,-0.00348103,0.000984869,-0.00746069,-1.08627,0.00533248,0.0439581,615,1177,-45.621,-6.24501
-602,-153,-45.6298,6.57922,0,0,0,0,0,0,0,-1,622,1177,-45.6298,-6.57923
-595,-153,-43.9551,7.35718,0,0,0,0,0,0,0,-1,629,1177,-43.9551,-7.35722
-588,-153,-32.348,5.51038,0,0,0,0,0,0,0,-1,636,1177,-32.348,-5.51034
-581,-153,-33.4568,6.41492,0,0,0,0,0,0,0,-1,643,1177,-33.4568,-6.41497
-574,-153,-25.4814,5.16956,0,0,0,0,0,0,0,-1,650,1177,-25.4814,-5.16961
-567,-153,-35.3121,1.09485,0,0,0,0,0,0,0,-1,657,1177,-35.3121,-1.09482
-560,-153,-55.273,0.644043,0,0,0,0,0,0,0,-1,664,1177,-55.273,-0.644087
-553,-153,-55.3059,0.563965,-0.00356131,-0.000339661,-0.00354077,0.00193948,-0.00584044,-0.998874,0.00467617,0.0382231,671,1177,-55.3059,-0.563922
-546,-153,-55.3497,0.329224,-0.00195743,0.000108796,-0.00374067,0.00295639,-0.00480503,-0.920132,0.00452323,0.0398671,678,1177,-55.3497,-0.329274
-539,-153,-55.5453,0.48291,0.00166151,0.000863772,-0.00395933,0.00524201,-0.00271673,-0.735197,0.00467145,0.039103,685,1177,-55.5453,-0.482906
-532,-153,-55.5876,0.5177,0.00670946,0.00174201,-0.00412297,0.00903903,-0.000587557,-0.514302,0.00623111,0.0407643,692,1177,-55.5876,-0.51764
-525,-153,-55.4924,0.709839,0.0132542,0.00279631,-0.00453514,0.0149469,0.0011036,-0.357229,0.00961789,0.0407971,699,1177,-55.4923,-0.709831
-518,-153,0,0,0,0,0,0,0,0,0,-1,706,1177,0,0
-511,-153,0,0,0,0,0,0,0,0,0,-1,713,1177,0,0
-504,-153,0,0,0,0,0,0,0,0,0,-1,720,1177,0,0
-497,-153,0,0,0,0,0,0,0,0,0,-1,727,1177,0,0
-490,-153,0,0,0,0,0,0,0,0,0,-1,734,1177,0,0
-483,-153,0,0,0,0,0,0,0,0,0,-1,741,1177,0,0
-476,-153,0,0,0,0,0,0,0,0,0,-1,748,1177,0,0
-469,-153,0,0,0,0,0,0,0,0,0,-1,755,1177,0,0
-462,-153,0,0,0,0,0,0,0,0,0,-1,762,1177,0,0
-455,-153,0,0,0,0,0,0,0,0,0,-1,769,1177,0,0
-448,-153,0,0,0,0,0,0,0,0,0,-1,776,1177,0,0
-441,-153,0,0,0,0,0,0,0,0,0,-1,783,1177,0,0
-434,-153,0,0,0,0,0,0,0,0,0,-1,790,1177,0,0
-427,-153,0,0,0,0,0,0,0,0,0,-1,797,1177,0,0
-420,-153,0,0,0,0,0,0,0,0,0,-1,804,1177,0,0
-413,-153,0,0,0,0,0,0,0,0,0,-1,811,1177,0,0
-406,-153,0,0,0,0,0,0,0,0,0,-1,818,1177,0,0
-399,-153,0,0,0,0,0,0,0,0,0,-1,825,1177,0,0
-392,-153,0,0,0,0,0,0,0,0,0,-1,832,1177,0,0
-385,-153,0,0,0,0,0,0,0,0,0,-1,839,1177,0,0
-378,-153,0,0,0,0,0,0,0,0,0,-1,846,1177,0,0
-371,-153,0,0,0,0,0,0,0,0,0,-1,853,1177,0,0
-364,-153,0,0,0,0,0,0,0,0,0,-1,860,1177,0,0
-357,-153,0,0,0,0,0,0,0,0,0,-1,867,1177,0,0
-350,-153,0,0,0,0,0,0,0,0,0,-1,874,1177,0,0
-343,-153,0,0,0,0,0,0,0,0,0,-1,881,1177,0,0
-336,-153,0,0,0,0,0,0,0,0,0,-1,888,1177,0,0
-329,-153,0,0,0,0,0,0,0,0,0,-1,895,1177,0,0
-322,-153,0,0,0,0,0,0,0,0,0,-1,902,1177,0,0
-315,-153,0,0,0,0,0,0,0,0,0,-1,909,1177,0,0
-308,-153,0,0,0,0,0,0,0,0,0,-1,916,1177,0,0
-301,-153,0,0,0,0,0,0,0,0,0,-1,923,1177,0,0
-294,-153,0,0,0,0,0,0,0,0,0,-1,930,1177,0,0
-287,-153,0,0,0,0,0,0,0,0,0,-1,937,1177,0,0
-280,-153,0,0,0,0,0,0,0,0,0,-1,944,1177,0,0
-273,-153,0,0,0,0,0,0,0,0,0,-1,951,1177,0,0
-266,-153,0,0,0,0,0,0,0,0,0,-1,958,1177,0,0
-259,-153,0,0,0,0,0,0,0,0,0,-1,965,1177,0,0
-252,-153,0,0,0,0,0,0,0,0,0,-1,972,1177,0,0
-245,-153,0,0,0,0,0,0,0,0,0,-1,979,1177,0,0
-238,-153,0,0,0,0,0,0,0,0,0,-1,986,1177,0,0
-231,-153,0,0,0,0,0,0,0,0,0,-1,993,1177,0,0
-224,-153,0,0,0,0,0,0,0,0,0,-1,1000,1177,0,0
-217,-153,0,0,0,0,0,0,0,0,0,-1,1007,1177,0,0
-210,-153,0,0,0,0,0,0,0,0,0,-1,1014,1177,0,0
-203,-153,0,0,0,0,0,0,0,0,0,-1,1021,1177,0,0
-196,-153,0,0,0,0,0,0,0,0,0,-1,1028,1177,0,0
-189,-153,0,0,0,0,0,0,0,0,0,-1,1035,1177,0,0
-182,-153,0,0,0,0,0,0,0,0,0,-1,1042,1177,0,0
-175,-153,0,0,0,0,0,0,0,0,0,-1,1049,1177,0,0
-168,-153,0,0,0,0,0,0,0,0,0,-1,1056,1177,0,0
-161,-153,0,0,0,0,0,0,0,0,0,-1,1063,1177,0,0
-154,-153,0,0,0,0,0,0,0,0,0,-1,1070,1177,0,0
-147,-153,0,0,0,0,0,0,0,0,0,-1,1077,1177,0,0
-140,-153,0,0,0,0,0,0,0,0,0,-1,1084,1177,0,0
-133,-153,0,0,0,0,0,0,0,0,0,-1,1091,1177,0,0
-126,-153,0,0,0,0,0,0,0,0,0,-1,1098,1177,0,0
-119,-153,0,0,0,0,0,0,0,0,0,-1,1105,1177,0,0
-112,-153,0,0,0,0,0,0,0,0,0,-1,1112,1177,0,0
-105,-153,0,0,0,0,0,0,0,0,0,-1,1119,1177,0,0
-98,-153,0,0,0,0,0,0,0,0,0,-1,1126,1177,0,0
-91,-153,0,0,0,0,0,0,0,0,0,-1,1133,1177,0,0
-84,-153,0,0,0,0,0,0,0,0,0,-1,1140,1177,0,0
-77,-153,0,0,0,0,0,0,0,0,0,-1,1147,1177,0,0
-70,-153,0,0,0,0,0,0,0,0,0,-1,1154,1177,0,0
-63,-153,0,0,0,0,0,0,0,0,0,-1,1161,1177,0,0
-56,-153,0,0,0,0,0,0,0,0,0,-1,1168,1177,0,0
-49,-153,0,0,0,0,0,0,0,0,0,-1,1175,1177,0,0
-42,-153,0,0,0,0,0,0,0,0,0,-1,1182,1177,0,0
-35,-153,0,0,0,0,0,0,0,0,0,-1,1189,1177,0,0
-28,-153,0,0,0,0,0,0,0,0,0,-1,1196,1177,0,0
-21,-153,0,0,0,0,0,0,0,0,0,-1,1203,1177,0,0
-14,-153,0,0,0,0,0,0,0,0,0,-1,1210,1177,0,0
-7,-153,0,0,0,0,0,0,0,0,0,-1,1217,1177,0,0
0,-153,0,0,0,0,0,0,0,0,0,-1,1224,1177,0,0
7,-153,0,0,0,0,0,0,0,0,0,-1,1231,1177,0,0
14,-153,0,0,0,0,0,0,0,0,0,-1,1238,1177,0,0
21,-153,0,0,0,0,0,0,0,0,0,-1,1245,1177,0,0
28,-153,0,0,0,0,0,0,0,0,0,-1,1252,1177,0,0
35,-153,0,0,0,0,0,0,0,0,0,-1,1259,1177,0,0
42,-153,0,0,0,0,0,0,0,0,0,-1,1266,1177,0,0
49,-153,0,0,0,0,0,0,0,0,0,-1,1273,1177,0,0
56,-153,0,0,0,0,0,0,0,0,0,-1,1280,1177,0,0
63,-153,0,0,0,0,0,0,0,0,0,-1,1287,1177,0,0
70,-153,0,0,0,0,0,0,0,0,0,-1,1294,1177,0,0
77,-153,0,0,0,0,0,0,0,0,0,-1,1301,1177,0,0
84,-153,0,0,0,0,0,0,0,0,0,-1,1308,1177,0,0
91,-153,0,0,0,0,0,0,0,0,0,-1,1315,1177,0,0
98,-153,0,0,0,0,0,0,0,0,0,-1,1322,1177,0,0
105,-153,0,0,0,0,0,0,0,0,0,-1,1329,1177,0,0
112,-153,0,0,0,0,0,0,0,0,0,-1,1336,1177,0,0
119,-153,0,0,0,0,0,0,0,0,0,-1,1343,1177,0,0
126,-153,0,0,0,0,0,0,0,0,0,-1,1350,1177,0,0
133,-153,0,0,0,0,0,0,0,0,0,-1,1357,1177,0,0
140,-153,0,0,0,0,0,0,0,0,0,-1,1364,1177,0,0
147,-153,0,0,0,0,0,0,0,0,0,-1,1371,1177,0,0
154,-153,0,0,0,0,0,0,0,0,0,-1,1378,1177,0,0
161,-153,0,0,0,0,0,0,0,0,0,-1,1385,1177,0,0
168,-153,0,0,0,0,0,0,0,0,0,-1,1392,1177,0,0
175,-153,0,0,0,0,0,0,0,0,0,-1,1399,1177,0,0
182,-153,0,0,0,0,0,0,0,0,0,-1,1406,1177,0,0
189,-153,0,0,0,0,0,0,0,0,0,-1,1413,1177,0,0
196,-153,0,0,0,0,0,0,0,0,0,-1,1420,1177,0,0
203,-153,0,0,0,0,0,0,0,0,0,-1,1427,1177,0,0
210,-153,0,0,0,0,0,0,0,0,0,-1,1434,1177,0,0
217,-153,0,0,0,0,0,0,0,0,0,-1,1441,1177,0,0
224,-153,0,0,0,0,0,0,0,0,0,-1,1448,1177,0,0
231,-153,0,0,0,0,0,0,0,0,0,-1,1455,1177,0,0
238,-153,0,0,0,0,0,0,0,0,0,-1,1462,1177,0,0
245,-153,0,0,0,0,0,0,0,0,0,-1,1469,1177,0,0
252,-153,0,0,0,0,0,0,0,0,0,-1,1476,1177,0,0
259,-153,0,0,0,0,0,0,0,0,0,-1,1483,1177,0,0
266,-153,0,0,0,0,0,0,0,0,0,-1,1490,1177,0,0
273,-153,0,0,0,0,0,0,0,0,0,-1,1497,1177,0,0
280,-153,0,0,0,0,0,0,0,0,0,-1,1504,1177,0,0
287,-153,0,0,0,0,0,0,0,0,0,-1,1511,1177,0,0
294,-153,0,0,0,0,0,0,0,0,0,-1,1518,1177,0,0
301,-153,0,0,0,0,0,0,0,0,0,-1,1525,1177,0,0
308,-153,0,0,0,0,0,0,0,0,0,-1,1532,1177,0,0
315,-153,0,0,0,0,0,0,0,0,0,-1,1539,1177,0,0
322,-153,0,0,0,0,0,0,0,0,0,-1,1546,1177,0,0
329,-153,0,0,0,0,0,0,0,0,0,-1,1553,1177,0,0
336,-153,0,0,0,0,0,0,0,0,0,-1,1560,1177,0,0
343,-153,0,0,0,0,0,0,0,0,0,-1,1567,1177,0,0
350,-153,0,0,0,0,0,0,0,0,0,-1,1574,1177,0,0
357,-153,0,0,0,0,0,0,0,0,0,-1,1581,1177,0,0
364,-153,0,0,0,0,0,0,0,0,0,-1,1588,1177,0,0
371,-153,0,0,0,0,0,0,0,0,0,-1,1595,1177,0,0
378,-153,0,0,0,0,0,0,0,0,0,-1,1602,1177,0,0
385,-153,0,0,0,0,0,0,0,0,0,-1,1609,1177,0,0
392,-153,0,0,0,0,0,0,0,0,0,-1,1616,1177,0,0
399,-153,0,0,0,0,0,0,0,0,0,-1,1623,1177,0,0
406,-153,0,0,0,0,0,0,0,0,0,-1,1630,1177,0,0
413,-153,0,0,0,0,0,0,0,0,0,-1,1637,1177,0,0
420,-153,0,0,0,0,0,0,0,0,0,-1,1644,1177,0,0
427,-153,0,0,0,0,0,0,0,0,0,-1,1651,1177,0,0
434,-153,0,0,0,0,0,0,0,0,0,-1,1658,1177,0,0
441,-153,0,0,0,0,0,0,0,0,0,-1,1665,1177,0,0
448,-153,0,0,0,0,0,0,0,0,0,-1,1672,1177,0,0
455,-153,0,0,0,0,0,0,0,0,0,-1,1679,1177,0,0
462,-153,0,0,0,0,0,0,0,0,0,-1,1686,1177,0,0
469,-153,0,0,0,0,0,0,0,0,0,-1,1693,1177,0,0
476,-153,0,0,0,0,0,0,0,0,0,-1,1700,1177,0,0
483,-153,0,0,0,0,0,0,0,0,0,-1,1707,1177,0,0
490,-153,0,0,0,0,0,0,0,0,0,-1,1714,1177,0,0
497,-153,0,0,0,0,0,0,0,0,0,-1,1721,1177,0,0
504,-153,0,0,0,0,0,0,0,0,0,-1,1728,1177,0,0
511,-153,0,0,0,0,0,0,0,0,0,-1,1735,1177,0,0
518,-153,0,0,0,0,0,0,0,0,0,-1,1742,1177,0,0
525,-153,0,0,0,0,0,0,0,0,0,-1,1749,1177,0,0
532,-153,0,0,0,0,0,0,0,0,0,-1,1756,1177,0,0
539,-153,0,0,0,0,0,0,0,0,0,-1,1763,1177,0,0
546,-153,0,0,0,0,0,0,0,0,0,-1,1770,1177,0,0
553,-153,0,0,0,0,0,0,0,0,0,-1,1777,1177,0,0
560,-153,0,0,0,0,0,0,0,0,0,-1,1784,1177,0,0
567,-153,0,0,0,0,0,0,0,0,0,-1,1791,1177,0,0
574,-153,0,0,0,0,0,0,0,0,0,-1,1798,1177,0,0
581,-153,0,0,0,0,0,0,0,0,0,-1,1805,1177,0,0
588,-153,0,0,0,0,0,0,0,0,0,-1,1812,1177,0,0
595,-153,0,0,0,0,0,0,0,0,0,-1,1819,1177,0,0
602,-153,0,0,0,0,0,0,0,0,0,-1,1826,1177,0,0
609,-153,0,0,0,0,0,0,0,0,0,-1,1833,1177,0,0
616,-153,0,0,0,0,0,0,0,0,0,-1,1840,1177,0,0
623,-153,0,0,0,0,0,0,0,0,0,-1,1847,1177,0,0
630,-153,0,0,0,0,0,0,0,0,0,-1,1854,1177,0,0
637,-153,71.5405,2.54028,0.00303386,-0.00110472,-0.00175004,0.00367466,-0.00174552,-0.351003,0.00319473,0.0398019,1861,1177,71.5406,-2.54028
644,-153,71.4999,2.3772,0.00221684,-0.000618212,-0.00120516,0.0026599,-0.00106127,-0.3523,0.00221352,0.0388611,1868,1177,71.4999,-2.37717
651,-153,71.512,2.25745,0.00149787,-6.92059e-05,-0.00103551,0.00201288,-0.000584207,-0.461519,0.00157323,0.0302902,1875,1177,71.512,-2.25747
658,-153,71.6024,2.31982,0.00100329,0.000433582,-0.00103842,0.00179522,-0.000358349,-0.651534,0.00133242,0.0328102,1882,1177,71.6025,-2.3198
665,-153,71.6205,2.34741,0.000606863,0.000909072,-0.00117558,0.00194322,-0.000427286,-0.849316,0.00145892,0.035695,1889,1177,71.6205,-2.34738
672,-153,71.5697,2.29529,0.000352369,0.00141776,-0.00144509,0.00242521,-0.000655084,-0.961983,0.00187374,0.0343704,1896,1177,71.5697,-2.29533
679,-153,71.4889,2.2749,0.000576466,0.00139208,-0.0015677,0.00260414,-0.000635601,-0.912643,0.00198223,0.0271527,1903,1177,71.489,-2.27487
686,-153,71.4857,2.25708,0.00128056,0.00095973,-0.00149324,0.00262198,-0.000381693,-0.73189,0.00188812,0.0201694,1910,1177,71.4857,-2.25702
693,-153,71.5686,2.24622,0,0,0,0,0,0,0,-1,1917,1177,71.5686,-2.24616
700,-153,70.9875,2.08618,0,0,0,0,0,0,0,-1,1924,1177,70.9875,-2.08616
707,-153,29.6483,6.6842,0,0,0,0,0,0,0,-1,1931,1177,29.6483,-6.68415
714,-153,36.0046,6.78418,0,0,0,0,0,0,0,-1,1938,1177,36.0046,-6.78418
721,-153,36.4866,6.47595,0,0,0,0,0,0,0,-1,1945,1177,36.4866,-6.47593
728,-153,47.7305,7.37024,0,0,0,0,0,0,0,-1,1952,1177,47.7304,-7.37022
735,-153,61.4904,8.37817,0,0,0,0,0,0,0,-1,1959,1177,61.4904,-8.3782
742,-153,61.5548,7.83398,0.001692,9.97329e-05,0.00158853,0.00267273,-0.000881003,0.553105,0.00213691,0.0170732,1966,1177,61.5548,-7.83399
749,-153,61.5369,7.24731,0.00129653,0.000638258,0.00238306,0.00337308,-0.00143829,0.716775,0.00285173,0.016281,1973,1177,61.5369,-7.24736
756,-153,61.4941,6.60791,0.00100854,0.00190423,0.00333128,0.00481764,-0.00190486,0.852215,0.00400084,0.0117892,1980,1177,61.4941,-6.60794
763,-153,61.4514,5.97168,0.00129583,0.00318212,0.00464833,0.00698202,-0.00250407,0.88549,0.00567656,0.0118678,1987,1177,61.4514,-5.97173
770,-153,61.4353,5.34546,0.00191368,0.0043334,0.00628247,0.00952145,-0.00327437,0.880522,0.00767554,0.0131578,1994,1177,61.4353,-5.3454
777,-153,61.4226,4.78015,0.00291367,0.00536335,0.0082221,0.0124513,-0.00417433,0.859339,0.00998748,0.0264004,2001,1177,61.4227,-4.78011
784,-153,61.4958,4.55469,0.00485797,0.00593838,0.0109127,0.0163242,-0.00552786,0.810129,0.0131195,0.0460664,2008,1177,61.4959,-4.55464
791,-153,61.6028,4.30579,0,0,0,0,0,0,0,-1,2015,1177,61.6028,-4.30573
798,-153,61.8997,5.21582,0,0,0,0,0,0,0,-1,2022,1177,61.8996,-5.21581
805,-153,62.2534,2.90344,0,0,0,0,0,0,0,-1,2029,1177,62.2533,-2.90339
812,-153,0,0,0,0,0,0,0,0,0,-1,2036,1177,0,0
-700,-160,0,0,0,0,0,0,0,0,0,-1,524,1184,0,0
-693,-160,0,0,0,0,0,0,0,0,0,-1,531,1184,0,0
-686,-160,-46.8045,-2.23267,0,0,0,0,0,0,0,-1,538,1184,-46.8045,2.23267
-679,-160,-47.6193,-1.88416,-0.0764177,0.0421274,-0.0111992,0.0431761,-0.0774664,-1.47743,0.0705846,0.0491913,545,1184,-47.6193,1.88415
-672,-160,-48.4447,-1.51501,-0.0653064,0.0387808,-0.0116993,0.0400796,-0.0666052,-1.46024,0.0622259,0.0446315,552,1184,-48.4447,1.51504
-665,-160,-49.2796,-1.12756,-0.05435,0.0342306,-0.0110663,0.0355922,-0.0557115,-1.44837,0.0531391,0.0454451,559,1184,-49.2796,1.12755
-658,-160,-50.1322,-0.947876,-0.0443904,0.0292781,-0.0100981,0.0306373,-0.0457496,-1.43701,0.0443887,0.0491324,566,1184,-50.1322,0.947874
-651,-160,-44.5431,2.92627,0,0,0,0,0,0,0,-1,573,1184,-44.5431,-2.92623
-644,-160,-44.612,3.33862,-0.0262083,0.0185516,-0.00736774,0.0197332,-0.0273899,-1.41178,0.027326,0.0403025,580,1184,-44.612,-3.33862
-637,-160,-44.725,3.74194,-0.0185102,0.0138373,-0.00623604,0.0149979,-0.0196708,-1.3868,0.0200765,0.0164674,587,1184,-44.725,-3.74191
-630,-160,-44.8013,4.37134,-0.0120522,0.00865004,-0.00492386,0.00976147,-0.0131636,-1.34879,0.0132843,0.00918002,594,1184,-44.8013,-4.37135
-623,-160,-44.8412,5.03406,-0.00697493,0.00350675,-0.00355973,0.00460137,-0.00806955,-1.27247,0.00740634,0.0149421,601,1184,-44.8413,-5.03408
-616,-160,-44.8781,5.70056,-0.00469715,0.000166664,-0.00252274,0.00123881,-0.00576929,-1.16893,0.00431876,0.0135261,608,1184,-44.8781,-5.70053
-609,-160,-45.0144,6.35559,-0.00466018,-0.00122926,-0.00335777,0.000825882,-0.00671532,-1.02156,0.00477604,0.0246656,615,1184,-45.0144,-6.35554
-602,-160,-45.1873,7.02808,0,0,0,0,0,0,0,-1,622,1184,-45.1873,-7.02802
-595,-160,-33.0669,5.93445,0,0,0,0,0,0,0,-1,629,1184,-33.0669,-5.93446
-588,-160,-33.4845,5.66699,0,0,0,0,0,0,0,-1,636,1184,-33.4845,-5.66697
-581,-160,-33.1338,6.41174,0,0,0,0,0,0,0,-1,643,1184,-33.1338,-6.41176
-574,-160,-32.7831,7.15649,0,0,0,0,0,0,0,-1,650,1184,-32.7831,-7.15655
-567,-160,-29.5828,0.643921,0,0,0,0,0,0,0,-1,657,1184,-29.5828,-0.643968
-560,-160,-55.2291,0.512939,0,0,0,0,0,0,0,-1,664,1184,-55.2292,-0.512891
-553,-160,-55.2433,0.527344,-0.00323383,1.6933e-05,-0.00391122,0.00262706,-0.00584396,-0.982326,0.00500692,0.0462802,671,1184,-55.2433,-0.527351
-546,-160,-55.2568,0.559814,-0.00217276,0.000369661,-0.0043085,0.00359057,-0.00539367,-0.928852,0.00522176,0.0374331,678,1184,-55.2568,-0.559815
-539,-160,-55.4252,0.521729,0.00103287,0.00102493,-0.00467774,0.00570664,-0.00364884,-0.784974,0.00544477,0.0398454,685,1184,-55.4253,-0.521762
-532,-160,-55.585,0.608887,0.00607627,0.0018987,-0.00493877,0.0093498,-0.00137483,-0.585337,0.00673839,0.0423813,692,1184,-55.585,-0.608875
-525,-160,-55.3237,0.505737,0.0133339,0.00298019,-0.00553156,0.0157332,0.000580894,-0.409255,0.0103006,0.0417669,699,1184,-55.3237,-0.505731
-518,-160,-55.2082,0.533691,0.0208647,0.00397298,-0.00612593,0.0228524,0.00198526,-0.313759,0.0146182,0.042554,706,1184,-55.2082,-0.533728
-511,-160,0,0,0,0,0,0,0,0,0,-1,713,1184,0,0
-504,-160,0,0,0,0,0,0,0,0,0,-1,720,1184,0,0
-497,-160,0,0,0,0,0,0,0,0,0,-1,727,1184,0,0
-490,-160,0,0,0,0,0,0,0,0,0,-1,734,1184,0,0
-483,-160,0,0,0,0,0,0,0,0,0,-1,741,1184,0,0
-476,-160,0,0,0,0,0,0,0,0,0,-1,748,1184,0,0
-469,-160,0,0,0,0,0,0,0,0,0,-1,755,1184,0,0
-462,-160,0,0,0,0,0,0,0,0,0,-1,762,1184,0,0
-455,-160,0,0,0,0,0,0,0,0,0,-1,769,1184,0,0
-448,-160,0,0,0,0,0,0,0,0,0,-1,776,1184,0,0
-441,-160,0,0,0,0,0,0,0,0,0,-1,783,1184,0,0
-434,-160,0,0,0,0,0,0,0,0,0,-1,790,1184,0,0
-427,-160,0,0,0,0,0,0,0,0,0,-1,797,1184,0,0
-420,-160,0,0,0,0,0,0,0,0,0,-1,804,1184,0,0
-413,-160,0,0,0,0,0,0,0,0,0,-1,811,1184,0,0
-406,-160,0,0,0,0,0,0,0,0,0,-1,818,1184,0,0
-399,-160,0,0,0,0,0,0,0,0,0,-1,825,1184,0,0
-392,-160,0,0,0,0,0,0,0,0,0,-1,832,1184,0,0
-385,-160,0,0,0,0,0,0,0,0,0,-1,839,1184,0,0
-378,-160,0,0,0,0,0,0,0,0,0,-1,846,1184,0,0
-371,-160,0,0,0,0,0,0,0,0,0,-1,853,1184,0,0
-364,-160,0,0,0,0,0,0,0,0,0,-1,860,1184,0,0
-357,-160,0,0,0,0,0,0,0,0,0,-1,867,1184,0,0
-350,-160,0,0,0,0,0,0,0,0,0,-1,874,1184,0,0
-343,-160,0,0,0,0,0,0,0,0,0,-1,881,1184,0,0
-336,-160,0,0,0,0,0,0,0,0,0,-1,888,1184,0,0
-329,-160,0,0,0,0,0,0,0,0,0,-1,895,1184,0,0
-322,-160,0,0,0,0,0,0,0,0,0,-1,902,1184,0,0
-315,-160,0,0,0,0,0,0,0,0,0,-1,909,1184,0,0
-308,-160,0,0,0,0,0,0,0,0,0,-1,916,1184,0,0
-301,-160,0,0,0,0,0,0,0,0,0,-1,923,1184,0,0
-294,-160,0,0,0,0,0,0,0,0,0,-1,930,1184,0,0
-287,-160,0,0,0,0,0,0,0,0,0,-1,937,1184,0,0
-280,-160,0,0,0,0,0,0,0,0,0,-1,944,1184,0,0
-273,-160,0,0,0,0,0,0,0,0,0,-1,951,1184,0,0
-266,-160,0,0,0,0,0,0,0,0,0,-1,958,1184,0,0
-259,-160,0,0,0,0,0,0,0,0,0,-1,965,1184,0,0
-252,-160,0,0,0,0,0,0,0,0,0,-1,972,1184,0,0
-245,-160,0,0,0,0,0,0,0,0,0,-1,979,1184,0,0
-238,-160,0,0,0,0,0,0,0,0,0,-1,986,1184,0,0
-231,-160,0,0,0,0,0,0,0,0,0,-1,993,1184,0,0
-224,-160,0,0,0,0,0,0,0,0,0,-1,1000,1184,0,0
-217,-160,0,0,0,0,0,0,0,0,0,-1,1007,1184,0,0
-210,-160,0,0,0,0,0,0,0,0,0,-1,1014,1184,0,0
-203,-160,0,0,0,0,0,0,0,0,0,-1,1021,1184,0,0
-196,-160,0,0,0,0,0,0,0,0,0,-1,1028,1184,0,0
-189,-160,0,0,0,0,0,0,0,0,0,-1,1035,1184,0,0
-182,-160,0,0,0,0,0,0,0,0,0,-1,1042,1184,0,0
-175,-160,0,0,0,0,0,0,0,0,0,-1,1049,1184,0,0
-168,-160,0,0,0,0,0,0,0,0,0,-1,1056,1184,0,0
-161,-160,0,0,0,0,0,0,0,0,0,-1,1063,1184,0,0
-154,-160,0,0,0,0,0,0,0,0,0,-1,1070,1184,0,0
-147,-160,0,0,0,0,0,0,0,0,0,-1,1077,1184,0,0
-140,-160,0,0,0,0,0,0,0,0,0,-1,1084,1184,0,0
-133,-160,0,0,0,0,0,0,0,0,0,-1,1091,1184,0,0
-126,-160,0,0,0,0,0,0,0,0,0,-1,1098,1184,0,0
-119,-160,0,0,0,0,0,0,0,0,0,-1,1105,1184,0,0
-112,-160,0,0,0,0,0,0,0,0,0,-1,1112,1184,0,0
-105,-160,0,0,0,0,0,0,0,0,0,-1,1119,1184,0,0
-98,-160,0,0,0,0,0,0,0,0,0,-1,1126,1184,0,0
-91,-160,0,0,0,0,0,0,0,0,0,-1,1133,1184,0,0
-84,-160,0,0,0,0,0,0,0,0,0,-1,1140,1184,0,0
-77,-160,0,0,0,0,0,0,0,0,0,-1,1147,1184,0,0
-70,-160,0,0,0,0,0,0,0,0,0,-1,1154,1184,0,0
-63,-160,0,0,0,0,0,0,0,0,0,-1,1161,1184,0,0
-56,-160,0,0,0,0,0,0,0,0,0,-1,1168,1184,0,0
-49,-160,0,0,0,0,0,0,0,0,0,-1,1175,1184,0,0
-42,-160,0,0,0,0,0,0,0,0,0,-1,1182,1184,0,0
-35,-160,0,0,0,0,0,0,0,0,0,-1,1189,1184,0,0
-28,-160,0,0,0,0,0,0,0,0,0,-1,1196,1184,0,0
-21,-160,0,0,0,0,0,0,0,0,0,-1,1203,1184,0,0
-14,-160,0,0,0,0,0,0,0,0,0,-1,1210,1184,0,0
-7,-160,0,0,0,0,0,0,0,0,0,-1,1217,1184,0,0
0,-160,0,0,0,0,0,0,0,0,0,-1,1224,1184,0,0
7,-160,0,0,0,0,0,0,0,0,0,-1,1231,1184,0,0
14,-160,0,0,0,0,0,0,0,0,0,-1,1238,1184,0,0
21,-160,0,0,0,0,0,0,0,0,0,-1,1245,1184,0,0
28,-160,0,0,0,0,0,0,0,0,0,-1,1252,1184,0,0
35,-160,0,0,0,0,0,0,0,0,0,-1,1259,1184,0,0
42,-160,0,0,0,0,0,0,0,0,0,-1,1266,1184,0,0
49,-160,0,0,0,0,0,0,0,0,0,-1,1273,1184,0,0
56,-160,0,0,0,0,0,0,0,0,0,-1,1280,1184,0,0
63,-160,0,0,0,0,0,0,0,0,0,-1,1287,1184,0,0
70,-160,0,0,0,0,0,0,0,0,0,-1,1294,1184,0,0
77,-160,0,0,0,0,0,0,0,0,0,-1,1301,1184,0,0
84,-160,0,0,0,0,0,0,0,0,0,-1,1308,1184,0,0
91,-160,0,0,0,0,0,0,0,0,0,-1,1315,1184,0,0
98,-160,0,0,0,0,0,0,0,0,0,-1,1322,1184,0,0
105,-160,0,0,0,0,0,0,0,0,0,-1,1329,1184,0,0
112,-160,0,0,0,0,0,0,0,0,0,-1,1336,1184,0,0
119,-160,0,0,0,0,0,0,0,0,0,-1,1343,1184,0,0
126,-160,0,0,0,0,0,0,0,0,0,-1,1350,1184,0,0
133,-160,0,0,0,0,0,0,0,0,0,-1,1357,1184,0,0
140,-160,0,0,0,0,0,0,0,0,0,-1,1364,1184,0,0
147,-160,0,0,0,0,0,0,0,0,0,-1,1371,1184,0,0
154,-160,0,0,0,0,0,0,0,0,0,-1,1378,1184,0,0
161,-160,0,0,0,0,0,0,0,0,0,-1,1385,1184,0,0
168,-160,0,0,0,0,0,0,0,0,0,-1,1392,1184,0,0
175,-160,0,0,0,0,0,0,0,0,0,-1,1399,1184,0,0
182,-160,0,0,0,0,0,0,0,0,0,-1,1406,1184,0,0
189,-160,0,0,0,0,0,0,0,0,0,-1,1413,1184,0,0
196,-160,0,0,0,0,0,0,0,0,0,-1,1420,1184,0,0
203,-160,0,0,0,0,0,0,0,0,0,-1,1427,1184,0,0
210,-160,0,0,0,0,0,0,0,0,0,-1,1434,1184,0,0
217,-160,0,0,0,0,0,0,0,0,0,-1,1441,1184,0,0
224,-160,0,0,0,0,0,0,0,0,0,-1,1448,1184,0,0
231,-160,0,0,0,0,0,0,0,0,0,-1,1455,1184,0,0
238,-160,0,0,0,0,0,0,0,0,0,-1,1462,1184,0,0
245,-160,0,0,0,0,0,0,0,0,0,-1,1469,1184,0,0
252,-160,0,0,0,0,0,0,0,0,0,-1,1476,1184,0,0
259,-160,0,0,0,0,0,0,0,0,0,-1,1483,1184,0,0
266,-160,0,0,0,0,0,0,0,0,0,-1,1490,1184,0,0
273,-160,0,0,0,0,0,0,0,0,0,-1,1497,1184,0,0
280,-160,0,0,0,0,0,0,0,0,0,-1,1504,1184,0,0
287,-160,0,0,0,0,0,0,0,0,0,-1,1511,1184,0,0
294,-160,0,0,0,0,0,0,0,0,0,-1,1518,1184,0,0
301,-160,0,0,0,0,0,0,0,0,0,-1,1525,1184,0,0
308,-160,0,0,0,0,0,0,0,0,0,-1,1532,1184,0,0
315,-160,0,0,0,0,0,0,0,0,0,-1,1539,1184,0,0
322,-160,0,0,0,0,0,0,0,0,0,-1,1546,1184,0,0
329,-160,0,0,0,0,0,0,0,0,0,-1,1553,1184,0,0
336,-160,0,0,0,0,0,0,0,0,0,-1,1560,1184,0,0
343,-160,0,0,0,0,0,0,0,0,0,-1,1567,1184,0,0
350,-160,0,0,0,0,0,0,0,0,0,-1,1574,1184,0,0
357,-160,0,0,0,0,0,0,0,0,0,-1,1581,1184,0,0
364,-160,0,0,0,0,0,0,0,0,0,-1,1588,1184,0,0
371,-160,0,0,0,0,0,0,0,0,0,-1,1595,1184,0,0
378,-160,0,0,0,0,0,0,0,0,0,-1,1602,1184,0,0
385,-160,0,0,0,0,0,0,0,0,0,-1,1609,1184,0,0
392,-160,0,0,0,0,0,0,0,0,0,-1,1616,1184,0,0
399,-160,0,0,0,0,0,0,0,0,0,-1,1623,1184,0,0
406,-160,0,0,0,0,0,0,0,0,0,-1,1630,1184,0,0
413,-160,0,0,0,0,0,0,0,0,0,-1,1637,1184,0,0
420,-160,0,0,0,0,0,0,0,0,0,-1,1644,1184,0,0
427,-160,0,0,0,0,0,0,0,0,0,-1,1651,1184,0,0
434,-160,0,0,0,0,0,0,0,0,0,-1,1658,1184,0,0
441,-160,0,0,0,0,0,0,0,0,0,-1,1665,1184,0,0
448,-160,0,0,0,0,0,0,0,0,0,-1,1672,1184,0,0
455,-160,0,0,0,0,0,0,0,0,0,-1,1679,1184,0,0
462,-160,0,0,0,0,0,0,0,0,0,-1,1686,1184,0,0
469,-160,0,0,0,0,0,0,0,0,0,-1,1693,1184,0,0
476,-160,0,0,0,0,0,0,0,0,0,-1,1700,1184,0,0
483,-160,0,0,0,0,0,0,0,0,0,-1,1707,1184,0,0
490,-160,0,0,0,0,0,0,0,0,0,-1,1714,1184,0,0
497,-160,0,0,0,0,0,0,0,0,0,-1,1721,1184,0,0
504,-160,0,0,0,0,0,0,0,0,0,-1,1728,1184,0,0
511,-160,0,0,0,0,0,0,0,0,0,-1,1735,1184,0,0
518,-160,0,0,0,0,0,0,0,0,0,-1,1742,1184,0,0
525,-160,0,0,0,0,0,0,0,0,0,-1,1749,1184,0,0
532,-160,0,0,0,0,0,0,0,0,0,-1,1756,1184,0,0
539,-160,0,0,0,0,0,0,0,0,0,-1,1763,1184,0,0
546,-160,0,0,0,0,0,0,0,0,0,-1,1770,1184,0,0
553,-160,0,0,0,0,0,0,0,0,0,-1,1777,1184,0,0
560,-160,0,0,0,0,0,0,0,0,0,-1,1784,1184,0,0
567,-160,0,0,0,0,0,0,0,0,0,-1,1791,1184,0,0
574,-160,0,0,0,0,0,0,0,0,0,-1,1798,1184,0,0
581,-160,0,0,0,0,0,0,0,0,0,-1,1805,1184,0,0
588,-160,0,0,0,0,0,0,0,0,0,-1,1812,1184,0,0
595,-160,0,0,0,0,0,0,0,0,0,-1,1819,1184,0,0
602,-160,0,0,0,0,0,0,0,0,0,-1,1826,1184,0,0
609,-160,0,0,0,0,0,0,0,0,0,-1,1833,1184,0,0
616,-160,0,0,0,0,0,0,0,0,0,-1,1840,1184,0,0
623,-160,0,0,0,0,0,0,0,0,0,-1,1847,1184,0,0
630,-160,0,0,0,0,0,0,0,0,0,-1,1854,1184,0,0
637,-160,71.431,2.7218,0.00281808,-0.000523028,-0.00144899,0.00335893,-0.00106388,-0.357246,0.00266565,0.0431,1861,1184,71.431,-2.72186
644,-160,71.4449,2.43604,0.00209735,-0.000117438,-0.00115295,0.00258859,-0.000608675,-0.402775,0.00196037,0.0412454,1868,1184,71.445,-2.43598
651,-160,71.4476,2.29565,0.00149834,0.000337579,-0.00113033,0.00218859,-0.000352664,-0.548218,0.0015897,0.0362291,1875,1184,71.4477,-2.29561
658,-160,71.4871,2.48499,0.00108849,0.000762234,-0.00127155,0.00220733,-0.000356609,-0.721601,0.0016037,0.0369862,1882,1184,71.4871,-2.485
665,-160,71.5347,2.38452,0.000782428,0.00114126,-0.0014761,0.00244881,-0.000525123,-0.845874,0.00183283,0.0364941,1889,1184,71.5346,-2.3845
672,-160,71.5129,2.27283,0.00063579,0.00157979,-0.0017433,0.00291386,-0.000698276,-0.917605,0.00221237,0.0326023,1896,1184,71.5129,-2.27286
679,-160,71.4613,2.28003,0.000849708,0.0015205,-0.00184042,0.00305583,-0.000685622,-0.875529,0.00230008,0.0269549,1903,1184,71.4613,-2.28001
686,-160,71.5148,2.26697,0.00148269,0.00118311,-0.00174929,0.0030886,-0.000422796,-0.742688,0.0022135,0.019514,1910,1184,71.5148,-2.26699
693,-160,71.5961,2.29895,0,0,0,0,0,0,0,-1,1917,1184,71.5961,-2.29891
700,-160,42.8784,2.44617,0,0,0,0,0,0,0,-1,1924,1184,42.8785,-2.4462
707,-160,24.5115,6.27405,0,0,0,0,0,0,0,-1,1931,1184,24.5115,-6.27401
714,-160,35.6892,6.8905,0,0,0,0,0,0,0,-1,1938,1184,35.6892,-6.89048
721,-160,36.2388,6.37878,0,0,0,0,0,0,0,-1,1945,1184,36.2388,-6.37876
728,-160,52.2174,8.57385,0,0,0,0,0,0,0,-1,1952,1184,52.2174,-8.57381
735,-160,60.8073,8.45959,0,0,0,0,0,0,0,-1,1959,1184,60.8073,-8.45954
742,-160,60.8708,7.82166,0.0017354,0.000444876,0.0013481,0.00258471,-0.000404428,0.562188,0.00187256,0.0188922,1966,1184,60.8709,-7.8216
749,-160,60.8748,7.23181,0.0014781,0.000964815,0.00220257,0.00343893,-0.000996017,0.7274,0.00268688,0.0180536,1973,1184,60.8748,-7.23176
756,-160,60.848,6.61743,0.00135885,0.00202618,0.0032848,0.00499422,-0.00160919,0.836014,0.00397595,0.0121687,1980,1184,60.848,-6.61747
763,-160,60.7959,6.0199,0.00169154,0.003078,0.00473855,0.00717376,-0.00240422,0.858031,0.00575385,0.0128208,1987,1184,60.796,-6.01994
770,-160,60.6863,5.32593,0.00233154,0.0040288,0.00656884,0.00980361,-0.00344326,0.849637,0.0079365,0.0288684,1994,1184,60.6862,-5.32597
777,-160,60.7178,4.59875,0.00335234,0.00491658,0.00872547,0.0128949,-0.004626,0.830097,0.0104845,0.039182,2001,1184,60.7179,-4.59878
784,-160,60.9519,3.66248,0,0,0,0,0,0,0,-1,2008,1184,60.952,-3.66244
791,-160,62.4133,2.62854,0,0,0,0,0,0,0,-1,2015,1184,62.4133,-2.62855
798,-160,62.3784,1.84106,0,0,0,0,0,0,0,-1,2022,1184,62.3783,-1.8411
805,-160,62.26,1.30823,0,0,0,0,0,0,0,-1,2029,1184,62.2601,-1.30827
812,-160,0,0,0,0,0,0,0,0,0,-1,2036,1184,0,0
-700,-167,0,0,0,0,0,0,0,0,0,-1,524,1191,0,0
-693,-167,0,0,0,0,0,0,0,0,0,-1,531,1191,0,0
-686,-167,-46.3455,-3.13403,0,0,0,0,0,0,0,-1,538,1191,-46.3455,3.13408
-679,-167,-47.1986,-2.80066,-0.0724648,0.0472594,-0.017396,0.0497358,-0.0749413,-1.42939,0.072471,0.0494859,545,1191,-47.1986,2.80062
-672,-167,-48.2462,-2.17419,-0.0618606,0.0424035,-0.0162387,0.044874,-0.0643312,-1.41981,0.0633824,0.0481729,552,1191,-48.2462,2.17419
-665,-167,-48.4053,-2.64832,-0.0512997,0.0368495,-0.0143256,0.0391192,-0.0535694,-1.41367,0.0537301,0.0458289,559,1191,-48.4053,2.64835
-658,-167,-44.7014,2.28052,0,0,0,0,0,0,0,-1,566,1191,-44.7013,-2.28054
-651,-167,-44.0032,2.69885,0,0,0,0,0,0,0,-1,573,1191,-44.0032,-2.6988
-644,-167,-43.9639,3.23206,-0.0246775,0.0196558,-0.00840371,0.0211953,-0.0262171,-1.38961,0.0274247,0.0447414,580,1191,-43.9639,-3.23201
-637,-167,-43.998,3.74792,-0.017426,0.0147129,-0.00683889,0.0161076,-0.0188207,-1.36961,0.0201861,0.0207931,587,1191,-43.9981,-3.7479
-630,-167,-44.099,4.36682,-0.0113744,0.00944158,-0.00521372,0.0106744,-0.0126072,-1.3386,0.0134571,0.00973908,594,1191,-44.099,-4.36683
-623,-167,-44.1213,5.01514,-0.00654538,0.00427315,-0.00371204,0.00542432,-0.00769655,-1.27008,0.00761311,0.0139441,601,1191,-44.1213,-5.01512
-616,-167,-44.15,5.70337,-0.00408662,0.000622324,-0.00247473,0.00168367,-0.00514796,-1.16565,0.00410981,0.0180801,608,1191,-44.15,-5.70341
-609,-167,-44.2145,6.44958,-0.0037056,-0.001357,-0.00314574,0.000826478,-0.00588908,-0.964037,0.00422855,0.0172433,615,1191,-44.2145,-6.44959
-602,-167,-44.3961,7.05908,0,0,0,0,0,0,0,-1,622,1191,-44.3961,-7.05904
-595,-167,-44.2477,7.53552,0,0,0,0,0,0,0,-1,629,1191,-44.2477,-7.53547
-588,-167,-42.7112,7.92004,0,0,0,0,0,0,0,-1,636,1191,-42.7112,-7.92007
-581,-167,-32.8646,6.30542,0,0,0,0,0,0,0,-1,643,1191,-32.8646,-6.30537
-574,-167,-32.4808,7.37524,0,0,0,0,0,0,0,-1,650,1191,-32.4808,-7.37525
-567,-167,-27.3643,2.55859,0,0,0,0,0,0,0,-1,657,1191,-27.3643,-2.55864
-560,-167,-48.2598,0.834839,0,0,0,0,0,0,0,-1,664,1191,-48.2598,-0.834822
-553,-167,-55.1754,0.49353,0,0,0,0,0,0,0,-1,671,1191,-55.1754,-0.493514
-546,-167,-55.2408,0.571655,-0.00216459,0.000626318,-0.00476532,0.0041963,-0.00573457,-0.927833,0.00575648,0.033367,678,1191,-55.2408,-0.571694
-539,-167,-55.3177,0.576294,0.000315468,0.00102757,-0.00509765,0.00578158,-0.00443855,-0.820264,0.00591755,0.0373714,685,1191,-55.3177,-0.576235
-532,-167,-55.3077,0.49353,0.0048455,0.00170071,-0.00519807,0.00870379,-0.00215758,-0.638526,0.00663962,0.0411925,692,1191,-55.3078,-0.493482
-525,-167,-55.2532,0.5177,0,0,0,0,0,0,0,-1,699,1191,-55.2532,-0.517752
-518,-167,-55.135,0.360352,0,0,0,0,0,0,0,-1,706,1191,-55.135,-0.360402
-511,-167,0,0,0,0,0,0,0,0,0,-1,713,1191,0,0
-504,-167,0,0,0,0,0,0,0,0,0,-1,720,1191,0,0
-497,-167,0,0,0,0,0,0,0,0,0,-1,727,1191,0,0
-490,-167,0,0,0,0,0,0,0,0,0,-1,734,1191,0,0
-483,-167,0,0,0,0,0,0,0,0,0,-1,741,1191,0,0
-476,-167,0,0,0,0,0,0,0,0,0,-1,748,1191,0,0
-469,-167,0,0,0,0,0,0,0,0,0,-1,755,1191,0,0
-462,-167,0,0,0,0,0,0,0,0,0,-1,762,1191,0,0
-455,-167,0,0,0,0,0,0,0,0,0,-1,769,1191,0,0
-448,-167,0,0,0,0,0,0,0,0,0,-1,776,1191,0,0
-441,-167,0,0,0,0,0,0,0,0,0,-1,783,1191,0,0
-434,-167,0,0,0,0,0,0,0,0,0,-1,790,1191,0,0
-427,-167,0,0,0,0,0,0,0,0,0,-1,797,1191,0,0
-420,-167,0,0,0,0,0,0,0,0,0,-1,804,1191,0,0
-413,-167,0,0,0,0,0,0,0,0,0,-1,811,1191,0,0
-406,-167,0,0,0,0,0,0,0,0,0,-1,818,1191,0,0
-399,-167,0,0,0,0,0,0,0,0,0,-1,825,1191,0,0
-392,-167,0,0,0,0,0,0,0,0,0,-1,832,1191,0,0
-385,-167,0,0,0,0,0,0,0,0,0,-1,839,1191,0,0
-378,-167,0,0,0,0,0,0,0,0,0,-1,846,1191,0,0
-371,-167,0,0,0,0,0,0,0,0,0,-1,853,1191,0,0
-364,-167,0,0,0,0,0,0,0,0,0,-1,860,1191,0,0
-357,-167,0,0,0,0,0,0,0,0,0,-1,867,1191,0,0
-350,-167,0,0,0,0,0,0,0,0,0,-1,874,1191,0,0
-343,-167,0,0,0,0,0,0,0,0,0,-1,881,1191,0,0
-336,-167,0,0,0,0,0,0,0,0,0,-1,888,1191,0,0
-329,-167,0,0,0,0,0,0,0,0,0,-1,895,1191,0,0
-322,-167,0,0,0,0,0,0,0,0,0,-1,902,1191,0,0
-315,-167,0,0,0,0,0,0,0,0,0,-1,909,1191,0,0
-308,-167,0,0,0,0,0,0,0,0,0,-1,916,1191,0,0
-301,-167,0,0,0,0,0,0,0,0,0,-1,923,1191,0,0
-294,-167,0,0,0,0,0,0,0,0,0,-1,930,1191,0,0
-287,-167,0,0,0,0,0,0,0,0,0,-1,937,1191,0,0
-280,-167,0,0,0,0,0,0,0,0,0,-1,944,1191,0,0
-273,-167,0,0,0,0,0,0,0,0,0,-1,951,1191,0,0
-266,-167,0,0,0,0,0,0,0,0,0,-1,958,1191,0,0
-259,-167,0,0,0,0,0,0,0,0,0,-1,965,1191,0,0
-252,-167,0,0,0,0,0,0,0,0,0,-1,972,1191,0,0
-245,-167,0,0,0,0,0,0,0,0,0,-1,979,1191,0,0
-238,-167,0,0,0,0,0,0,0,0,0,-1,986,1191,0,0
-231,-167,0,0,0,0,0,0,0,0,0,-1,993,1191,0,0
-224,-167,0,0,0,0,0,0,0,0,0,-1,1000,1191,0,0
-217,-167,0,0,0,0,0,0,0,0,0,-1,1007,1191,0,0
-210,-167,0,0,0,0,0,0,0,0,0,-1,1014,1191,0,0
-203,-167,0,0,0,0,0,0,0,0,0,-1,1021,1191,0,0
-196,-167,0,0,0,0,0,0,0,0,0,-1,1028,1191,0,0
-189,-167,0,0,0,0,0,0,0,0,0,-1,1035,1191,0,0
-182,-167,0,0,0,0,0,0,0,0,0,-1,1042,1191,0,0
-175,-167,0,0,0,0,0,0,0,0,0,-1,1049,1191,0,0
-168,-167,0,0,0,0,0,0,0,0,0,-1,1056,1191,0,0
-161,-167,0,0,0,0,0,0,0,0,0,-1,1063,1191,0,0
-154,-167,0,0,0,0,0,0,0,0,0,-1,1070,1191,0,0
-147,-167,0,0,0,0,0,0,0,0,0,-1,1077,1191,0,0
-140,-167,0,0,0,0,0,0,0,0,0,-1,1084,1191,0,0
-133,-167,0,0,0,0,0,0,0,0,0,-1,1091,1191,0,0
-126,-167,0,0,0,0,0,0,0,0,0,-1,1098,1191,0,0
-119,-167,0,0,0,0,0,0,0,0,0,-1,1105,1191,0,0
-112,-167,0,0,0,0,0,0,0,0,0,-1,1112,1191,0,0
-105,-167,0,0,0,0,0,0,0,0,0,-1,1119,1191,0,0
-98,-167,0,0,0,0,0,0,0,0,0,-1,1126,1191,0,0
-91,-167,0,0,0,0,0,0,0,0,0,-1,1133,1191,0,0
-84,-167,0,0,0,0,0,0,0,0,0,-1,1140,1191,0,0
-77,-167,0,0,0,0,0,0,0,0,0,-1,1147,1191,0,0
-70,-167,0,0,0,0,0,0,0,0,0,-1,1154,1191,0,0
-63,-167,0,0,0,0,0,0,0,0,0,-1,1161,1191,0,0
-56,-167,0,0,0,0,0,0,0,0,0,-1,1168,1191,0,0
-49,-167,0,0,0,0,0,0,0,0,0,-1,1175,1191,0,0
-42,-167,0,0,0,0,0,0,0,0,0,-1,1182,1191,0,0
-35,-167,0,0,0,0,0,0,0,0,0,-1,1189,1191,0,0
-28,-167,0,0,0,0,0,0,0,0,0,-1,1196,1191,0,0
-21,-167,0,0,0,0,0,0,0,0,0,-1,1203,1191,0,0
-14,-167,0,0,0,0,0,0,0,0,0,-1,1210,1191,0,0
-7,-167,0,0,0,0,0,0,0,0,0,-1,1217,1191,0,0
0,-167,0,0,0,0,0,0,0,0,0,-1,1224,1191,0,0
7,-167,0,0,0,0,0,0,0,0,0,-1,1231,1191,0,0
14,-167,0,0,0,0,0,0,0,0,0,-1,1238,1191,0,0
21,-167,0,0,0,0,0,0,0,0,0,-1,1245,1191,0,0
28,-167,0,0,0,0,0,0,0,0,0,-1,1252,1191,0,0
35,-167,0,0,0,0,0,0,0,0,0,-1,1259,1191,0,0
42,-167,0,0,0,0,0,0,0,0,0,-1,1266,1191,0,0
49,-167,0,0,0,0,0,0,0,0,0,-1,1273,1191,0,0
56,-167,0,0,0,0,0,0,0,0,0,-1,1280,1191,0,0
63,-167,0,0,0,0,0,0,0,0,0,-1,1287,1191,0,0
70,-167,0,0,0,0,0,0,0,0,0,-1,1294,1191,0,0
77,-167,0,0,0,0,0,0,0,0,0,-1,1301,1191,0,0
84,-167,0,0,0,0,0,0,0,0,0,-1,1308,1191,0,0
91,-167,0,0,0,0,0,0,0,0,0,-1,1315,1191,0,0
98,-167,0,0,0,0,0,0,0,0,0,-1,1322,1191,0,0
105,-167,0,0,0,0,0,0,0,0,0,-1,1329,1191,0,0
112,-167,0,0,0,0,0,0,0,0,0,-1,1336,1191,0,0
119,-167,0,0,0,0,0,0,0,0,0,-1,1343,1191,0,0
126,-167,0,0,0,0,0,0,0,0,0,-1,1350,1191,0,0
133,-167,0,0,0,0,0,0,0,0,0,-1,1357,1191,0,0
140,-167,0,0,0,0,0,0,0,0,0,-1,1364,1191,0,0
147,-167,0,0,0,0,0,0,0,0,0,-1,1371,1191,0,0
154,-167,0,0,0,0,0,0,0,0,0,-1,1378,1191,0,0
161,-167,0,0,0,0,0,0,0,0,0,-1,1385,1191,0,0
168,-167,0,0,0,0,0,0,0,0,0,-1,1392,1191,0,0
175,-167,0,0,0,0,0,0,0,0,0,-1,1399,1191,0,0
182,-167,0,0,0,0,0,0,0,0,0,-1,1406,1191,0,0
189,-167,0,0,0,0,0,0,0,0,0,-1,1413,1191,0,0
196,-167,0,0,0,0,0,0,0,0,0,-1,1420,1191,0,0
203,-167,0,0,0,0,0,0,0,0,0,-1,1427,1191,0,0
210,-167,0,0,0,0,0,0,0,0,0,-1,1434,1191,0,0
217,-167,0,0,0,0,0,0,0,0,0,-1,1441,1191,0,0
224,-167,0,0,0,0,0,0,0,0,0,-1,1448,1191,0,0
231,-167,0,0,0,0,0,0,0,0,0,-1,1455,1191,0,0
238,-167,0,0,0,0,0,0,0,0,0,-1,1462,1191,0,0
245,-167,0,0,0,0,0,0,0,0,0,-1,1469,1191,0,0
252,-167,0,0,0,0,0,0,0,0,0,-1,1476,1191,0,0
259,-167,0,0,0,0,0,0,0,0,0,-1,1483,1191,0,0
266,-167,0,0,0,0,0,0,0,0,0,-1,1490,1191,0,0
273,-167,0,0,0,0,0,0,0,0,0,-1,1497,1191,0,0
280,-167,0,0,0,0,0,0,0,0,0,-1,1504,1191,0,0
287,-167,0,0,0,0,0,0,0,0,0,-1,1511,1191,0,0
294,-167,0,0,0,0,0,0,0,0,0,-1,1518,1191,0,0
301,-167,0,0,0,0,0,0,0,0,0,-1,1525,1191,0,0
308,-167,0,0,0,0,0,0,0,0,0,-1,1532,1191,0,0
315,-167,0,0,0,0,0,0,0,0,0,-1,1539,1191,0,0
322,-167,0,0,0,0,0,0,0,0,0,-1,1546,1191,0,0
329,-167,0,0,0,0,0,0,0,0,0,-1,1553,1191,0,0
336,-167,0,0,0,0,0,0,0,0,0,-1,1560,1191,0,0
343,-167,0,0,0,0,0,0,0,0,0,-1,1567,1191,0,0
350,-167,0,0,0,0,0,0,0,0,0,-1,1574,1191,0,0
357,-167,0,0,0,0,0,0,0,0,0,-1,1581,1191,0,0
364,-167,0,0,0,0,0,0,0,0,0,-1,1588,1191,0,0
371,-167,0,0,0,0,0,0,0,0,0,-1,1595,1191,0,0
378,-167,0,0,0,0,0,0,0,0,0,-1,1602,1191,0,0
385,-167,0,0,0,0,0,0,0,0,0,-1,1609,1191,0,0
392,-167,0,0,0,0,0,0,0,0,0,-1,1616,1191,0,0
399,-167,0,0,0,0,0,0,0,0,0,-1,1623,1191,0,0
406,-167,0,0,0,0,0,0,0,0,0,-1,1630,1191,0,0
413,-167,0,0,0,0,0,0,0,0,0,-1,1637,1191,0,0
420,-167,0,0,0,0,0,0,0,0,0,-1,1644,1191,0,0
427,-167,0,0,0,0,0,0,0,0,0,-1,1651,1191,0,0
434,-167,0,0,0,0,0,0,0,0,0,-1,1658,1191,0,0
441,-167,0,0,0,0,0,0,0,0,0,-1,1665,1191,0,0
448,-167,0,0,0,0,0,0,0,0,0,-1,1672,1191,0,0
455,-167,0,0,0,0,0,0,0,0,0,-1,1679,1191,0,0
462,-167,0,0,0,0,0,0,0,0,0,-1,1686,1191,0,0
469,-167,0,0,0,0,0,0,0,0,0,-1,1693,1191,0,0
476,-167,0,0,0,0,0,0,0,0,0,-1,1700,1191,0,0
483,-167,0,0,0,0,0,0,0,0,0,-1,1707,1191,0,0
490,-167,0,0,0,0,0,0,0,0,0,-1,1714,1191,0,0
497,-167,0,0,0,0,0,0,0,0,0,-1,1721,1191,0,0
504,-167,0,0,0,0,0,0,0,0,0,-1,1728,1191,0,0
511,-167,0,0,0,0,0,0,0,0,0,-1,1735,1191,0,0
518,-167,0,0,0,0,0,0,0,0,0,-1,1742,1191,0,0
525,-167,0,0,0,0,0,0,0,0,0,-1,1749,1191,0,0
532,-167,0,0,0,0,0,0,0,0,0,-1,1756,1191,0,0
539,-167,0,0,0,0,0,0,0,0,0,-1,1763,1191,0,0
546,-167,0,0,0,0,0,0,0,0,0,-1,1770,1191,0,0
553,-167,0,0,0,0,0,0,0,0,0,-1,1777,1191,0,0
560,-167,0,0,0,0,0,0,0,0,0,-1,1784,1191,0,0
567,-167,0,0,0,0,0,0,0,0,0,-1,1791,1191,0,0
574,-167,0,0,0,0,0,0,0,0,0,-1,1798,1191,0,0
581,-167,0,0,0,0,0,0,0,0,0,-1,1805,1191,0,0
588,-167,0,0,0,0,0,0,0,0,0,-1,1812,1191,0,0
595,-167,0,0,0,0,0,0,0,0,0,-1,1819,1191,0,0
602,-167,0,0,0,0,0,0,0,0,0,-1,1826,1191,0,0
609,-167,0,0,0,0,0,0,0,0,0,-1,1833,1191,0,0
616,-167,0,0,0,0,0,0,0,0,0,-1,1840,1191,0,0
623,-167,0,0,0,0,0,0,0,0,0,-1,1847,1191,0,0
630,-167,0,0,0,0,0,0,0,0,0,-1,1854,1191,0,0
637,-167,71.3403,2.35291,0.00287136,-0.000477137,-0.00126796,0.00329731,-0.000903086,-0.324088,0.00255304,0.044157,1861,1191,71.3403,-2.35293
644,-167,71.4299,2.20117,0.00217264,-5.20423e-05,-0.00118684,0.00268692,-0.000566321,-0.408895,0.00200687,0.0436028,1868,1191,71.43,-2.20112
651,-167,71.3934,2.26294,0.001644,0.000401367,-0.00130822,0.00247094,-0.000425579,-0.563701,0.00180595,0.0389593,1875,1191,71.3935,-2.26293
658,-167,71.3938,2.58875,0.00127419,0.000816518,-0.00155496,0.00261707,-0.000526358,-0.71234,0.00194406,0.0400116,1882,1191,71.3938,-2.5888
665,-167,71.48,2.4978,0.00100651,0.00116788,-0.00178809,0.00287711,-0.000702709,-0.807945,0.00219021,0.0367506,1889,1191,71.48,-2.49775
672,-167,71.4896,2.37268,0.000898916,0.00159313,-0.00199645,0.00327243,-0.000780378,-0.871469,0.00248296,0.0277044,1896,1191,71.4897,-2.37269
679,-167,71.5129,2.31763,0.00108627,0.00159041,-0.00203516,0.00338906,-0.00071237,-0.847013,0.00253047,0.0234944,1903,1191,71.513,-2.31763
686,-167,71.5304,2.2594,0.00159404,0.00139156,-0.00193954,0.00343498,-0.000449377,-0.759322,0.00245353,0.0371903,1910,1191,71.5304,-2.2594
693,-167,71.51,2.27527,0,0,0,0,0,0,0,-1,1917,1191,71.51,-2.27529
700,-167,28.0459,2.70508,0,0,0,0,0,0,0,-1,1924,1191,28.0459,-2.70513
707,-167,29.4708,7.10168,0,0,0,0,0,0,0,-1,1931,1191,29.4708,-7.10172
714,-167,35.9202,6.84668,0,0,0,0,0,0,0,-1,1938,1191,35.9202,-6.84664
721,-167,36.2072,6.38892,0,0,0,0,0,0,0,-1,1945,1191,36.2072,-6.38891
728,-167,57.6855,8.99255,0,0,0,0,0,0,0,-1,1952,1191,57.6855,-8.99257
735,-167,60.2964,8.59521,0,0,0,0,0,0,0,-1,1959,1191,60.2964,-8.59518
742,-167,60.226,7.93042,0.00176556,0.0009162,0.00117351,0.00258887,9.2891e-05,0.611785,0.00169579,0.0168914,1966,1191,60.226,-7.93042
749,-167,60.1992,7.26038,0.00162062,0.00132345,0.00209625,0.00357355,-0.000629474,0.750018,0.00261754,0.0142712,1973,1191,60.1992,-7.26041
756,-167,60.1993,6.64917,0.00158658,0.00209057,0.00331068,0.00515883,-0.00148168,0.823383,0.00402507,0.0108863,1980,1191,60.1993,-6.6492
763,-167,60.1389,6.03284,0.00186936,0.0028487,0.00491642,0.00729977,-0.00258172,0.835034,0.00591788,0.0138951,1987,1191,60.1389,-6.03284
770,-167,60.0645,5.43005,0,0,0,0,0,0,0,-1,1994,1191,60.0645,-5.43007
777,-167,60.1262,4.56079,0,0,0,0,0,0,0,-1,2001,1191,60.1262,-4.56075
784,-167,60.0374,3.40417,0,0,0,0,0,0,0,-1,2008,1191,60.0374,-3.4042
791,-167,62.446,0.466675,0,0,0,0,0,0,0,-1,2015,1191,62.4461,-0.466651
798,-167,62.4736,-0.0338135,0,0,0,0,0,0,0,-1,2022,1191,62.4735,0.0337853
805,-167,62.4209,-0.546997,0,0,0,0,0,0,0,-1,2029,1191,62.421,0.546938
812,-167,0,0,0,0,0,0,0,0,0,-1,2036,1191,0,0
-700,-174,0,0,0,0,0,0,0,0,0,-1,524,1198,0,0
-693,-174,0,0,0,0,0,0,0,0,0,-1,531,1198,0,0
-686,-174,-42.7782,-7.73596,0,0,0,0,0,0,0,-1,538,1198,-42.7782,7.73594
-679,-174,-47.0111,-3.46008,0,0,0,0,0,0,0,-1,545,1198,-47.0111,3.46005
-672,-174,-48.0749,-2.81311,0,0,0,0,0,0,0,-1,552,1198,-48.0749,2.81307
-665,-174,-44.4985,0.579834,-0.0474954,0.0382576,-0.0183202,0.0420075,-0.0512453,-1.3689,0.0539276,0.0453599,559,1198,-44.4985,-0.579791
-658,-174,-44.0737,2.03259,-0.0383759,0.0323251,-0.0153009,0.0354944,-0.0415452,-1.36655,0.0445246,0.0451813,566,1198,-44.0737,-2.03264
-651,-174,-43.351,2.32263,0,0,0,0,0,0,0,-1,573,1198,-43.351,-2.32268
-644,-174,-43.2874,3.00891,-0.0226181,0.0204233,-0.00977899,0.0225409,-0.0247357,-1.35754,0.0273049,0.0498949,580,1198,-43.2874,-3.00892
-637,-174,-43.2513,3.72437,-0.0158828,0.0153951,-0.00771134,0.0171929,-0.0176806,-1.34175,0.0201349,0.0286087,587,1198,-43.2513,-3.7244
-630,-174,-43.3869,4.37781,-0.0103307,0.0101485,-0.00570458,0.0116303,-0.0118125,-1.31665,0.0135349,0.0137156,594,1198,-43.3869,-4.37784
-623,-174,-43.4134,5.06628,-0.0058576,0.00501008,-0.00402224,0.00633679,-0.00718431,-1.25219,0.00781152,0.0141856,601,1198,-43.4134,-5.06633
-616,-174,-43.4005,5.78467,-0.00345662,0.00122658,-0.00259582,0.00238089,-0.00461093,-1.15238,0.0041046,0.0198195,608,1198,-43.4004,-5.78466
-609,-174,-43.4825,6.48572,-0.00289783,-0.00108985,-0.0028505,0.000996565,-0.00498425,-0.938949,0.00370003,0.0217357,615,1198,-43.4825,-6.48576
-602,-174,-43.5574,7.18213,0,0,0,0,0,0,0,-1,622,1198,-43.5574,-7.18212
-595,-174,-42.4191,7.34253,0,0,0,0,0,0,0,-1,629,1198,-42.419,-7.34254
-588,-174,-43.9315,8.60083,0,0,0,0,0,0,0,-1,636,1198,-43.9315,-8.60078
-581,-174,-44.1179,9.34424,0,0,0,0,0,0,0,-1,643,1198,-44.1179,-9.34421
-574,-174,-31.7448,7.09595,0,0,0,0,0,0,0,-1,650,1198,-31.7448,-7.09599
-567,-174,-26.6597,3.04041,0,0,0,0,0,0,0,-1,657,1198,-26.6597,-3.04039
-560,-174,-42.6953,1.07178,0,0,0,0,0,0,0,-1,664,1198,-42.6953,-1.07181
-553,-174,-55.1266,0.505005,0,0,0,0,0,0,0,-1,671,1198,-55.1267,-0.504984
-546,-174,-55.1877,0.524658,-0.00199172,0.000508263,-0.00517665,0.0045837,-0.00606715,-0.903864,0.00616912,0.0296413,678,1198,-55.1877,-0.52465
-539,-174,-55.2068,0.44397,-0.000270113,0.000668256,-0.00550271,0.00572175,-0.00532361,-0.827927,0.00637842,0.0327688,685,1198,-55.2068,-0.443949
-532,-174,-55.1319,0.181274,0,0,0,0,0,0,0,-1,692,1198,-55.1319,-0.181294
-525,-174,-55.3253,0.414917,0.0111624,0.00136601,-0.0053513,0.0135188,-0.000990364,-0.414788,0.00936012,0.0440344,699,1198,-55.3253,-0.414929
-518,-174,-55.1169,0.299561,0.0198084,0.00144249,-0.00542501,0.0212911,-4.02639e-05,-0.266802,0.0142075,0.0428822,706,1198,-55.1169,-0.299538
-511,-174,0,0,0,0,0,0,0,0,0,-1,713,1198,0,0
-504,-174,0,0,0,0,0,0,0,0,0,-1,720,1198,0,0
-497,-174,0,0,0,0,0,0,0,0,0,-1,727,1198,0,0
-490,-174,0,0,0,0,0,0,0,0,0,-1,734,1198,0,0
-483,-174,0,0,0,0,0,0,0,0,0,-1,741,1198,0,0
-476,-174,0,0,0,0,0,0,0,0,0,-1,748,1198,0,0
-469,-174,0,0,0,0,0,0,0,0,0,-1,755,1198,0,0
-462,-174,0,0,0,0,0,0,0,0,0,-1,762,1198,0,0
-455,-174,0,0,0,0,0,0,0,0,0,-1,769,1198,0,0
-448,-174,0,0,0,0,0,0,0,0,0,-1,776,1198,0,0
-441,-174,0,0,0,0,0,0,0,0,0,-1,783,1198,0,0
-434,-174,0,0,0,0,0,0,0,0,0,-1,790,1198,0,0
-427,-174,0,0,0,0,0,0,0,0,0,-1,797,1198,0,0
-420,-174,0,0,0,0,0,0,0,0,0,-1,804,1198,0,0
-413,-174,0,0,0,0,0,0,0,0,0,-1,811,1198,0,0
-406,-174,0,0,0,0,0,0,0,0,0,-1,818,1198,0,0
-399,-174,0,0,0,0,0,0,0,0,0,-1,825,1198,0,0
-392,-174,0,0,0,0,0,0,0,0,0,-1,832,1198,0,0
-385,-174,0,0,0,0,0,0,0,0,0,-1,839,1198,0,0
-378,-174,0,0,0,0,0,0,0,0,0,-1,846,1198,0,0
-371,-174,0,0,0,0,0,0,0,0,0,-1,853,1198,0,0
-364,-174,0,0,0,0,0,0,0,0,0,-1,860,1198,0,0
-357,-174,0,0,0,0,0,0,0,0,0,-1,867,1198,0,0
-350,-174,0,0,0,0,0,0,0,0,0,-1,874,1198,0,0
-343,-174,0,0,0,0,0,0,0,0,0,-1,881,1198,0,0
-336,-174,0,0,0,0,0,0,0,0,0,-1,888,1198,0,0
-329,-174,0,0,0,0,0,0,0,0,0,-1,895,1198,0,0
-322,-174,0,0,0,0,0,0,0,0,0,-1,902,1198,0,0
-315,-174,0,0,0,0,0,0,0,0,0,-1,909,1198,0,0
-308,-174,0,0,0,0,0,0,0,0,0,-1,916,1198,0,0
-301,-174,0,0,0,0,0,0,0,0,0,-1,923,1198,0,0
-294,-174,0,0,0,0,0,0,0,0,0,-1,930,1198,0,0
-287,-174,0,0,0,0,0,0,0,0,0,-1,937,1198,0,0
-280,-174,0,0,0,0,0,0,0,0,0,-1,944,1198,0,0
-273,-174,0,0,0,0,0,0,0,0,0,-1,951,1198,0,0
-266,-174,0,0,0,0,0,0,0,0,0,-1,958,1198,0,0
-259,-174,0,0,0,0,0,0,0,0,0,-1,965,1198,0,0
-252,-174,0,0,0,0,0,0,0,0,0,-1,972,1198,0,0
-245,-174,0,0,0,0,0,0,0,0,0,-1,979,1198,0,0
-238,-174,0,0,0,0,0,0,0,0,0,-1,986,1198,0,0
-231,-174,0,0,0,0,0,0,0,0,0,-1,993,1198,0,0
-224,-174,0,0,0,0,0,0,0,0,0,-1,1000,1198,0,0
-217,-174,0,0,0,0,0,0,0,0,0,-1,1007,1198,0,0
-210,-174,0,0,0,0,0,0,0,0,0,-1,1014,1198,0,0
-203,-174,0,0,0,0,0,0,0,0,0,-1,1021,1198,0,0
-196,-174,0,0,0,0,0,0,0,0,0,-1,1028,1198,0,0
-189,-174,0,0,0,0,0,0,0,0,0,-1,1035,1198,0,0
-182,-174,0,0,0,0,0,0,0,0,0,-1,1042,1198,0,0
-175,-174,0,0,0,0,0,0,0,0,0,-1,1049,1198,0,0
-168,-174,0,0,0,0,0,0,0,0,0,-1,1056,1198,0,0
-161,-174,0,0,0,0,0,0,0,0,0,-1,1063,1198,0,0
-154,-174,0,0,0,0,0,0,0,0,0,-1,1070,1198,0,0
-147,-174,0,0,0,0,0,0,0,0,0,-1,1077,1198,0,0
-140,-174,0,0,0,0,0,0,0,0,0,-1,1084,1198,0,0
-133,-174,0,0,0,0,0,0,0,0,0,-1,1091,1198,0,0
-126,-174,0,0,0,0,0,0,0,0,0,-1,1098,1198,0,0
-119,-174,0,0,0,0,0,0,0,0,0,-1,1105,1198,0,0
-112,-174,0,0,0,0,0,0,0,0,0,-1,1112,1198,0,0
-105,-174,0,0,0,0,0,0,0,0,0,-1,1119,1198,0,0
-98,-174,0,0,0,0,0,0,0,0,0,-1,1126,1198,0,0
-91,-174,0,0,0,0,0,0,0,0,0,-1,1133,1198,0,0
-84,-174,0,0,0,0,0,0,0,0,0,-1,1140,1198,0,0
-77,-174,0,0,0,0,0,0,0,0,0,-1,1147,1198,0,0
-70,-174,0,0,0,0,0,0,0,0,0,-1,1154,1198,0,0
-63,-174,0,0,0,0,0,0,0,0,0,-1,1161,1198,0,0
-56,-174,0,0,0,0,0,0,0,0,0,-1,1168,1198,0,0
-49,-174,0,0,0,0,0,0,0,0,0,-1,1175,1198,0,0
-42,-174,0,0,0,0,0,0,0,0,0,-1,1182,1198,0,0
-35,-174,0,0,0,0,0,0,0,0,0,-1,1189,1198,0,0
-28,-174,0,0,0,0,0,0,0,0,0,-1,1196,1198,0,0
-21,-174,0,0,0,0,0,0,0,0,0,-1,1203,1198,0,0
-14,-174,0,0,0,0,0,0,0,0,0,-1,1210,1198,0,0
-7,-174,0,0,0,0,0,0,0,0,0,-1,1217,1198,0,0
0,-174,0,0,0,0,0,0,0,0,0,-1,1224,1198,0,0
7,-174,0,0,0,0,0,0,0,0,0,-1,1231,1198,0,0
14,-174,0,0,0,0,0,0,0,0,0,-1,1238,1198,0,0
21,-174,0,0,0,0,0,0,0,0,0,-1,1245,1198,0,0
28,-174,0,0,0,0,0,0,0,0,0,-1,1252,1198,0,0
35,-174,0,0,0,0,0,0,0,0,0,-1,1259,1198,0,0
42,-174,0,0,0,0,0,0,0,0,0,-1,1266,1198,0,0
49,-174,0,0,0,0,0,0,0,0,0,-1,1273,1198,0,0
56,-174,0,0,0,0,0,0,0,0,0,-1,1280,1198,0,0
63,-174,0,0,0,0,0,0,0,0,0,-1,1287,1198,0,0
70,-174,0,0,0,0,0,0,0,0,0,-1,1294,1198,0,0
77,-174,0,0,0,0,0,0,0,0,0,-1,1301,1198,0,0
84,-174,0,0,0,0,0,0,0,0,0,-1,1308,1198,0,0
91,-174,0,0,0,0,0,0,0,0,0,-1,1315,1198,0,0
98,-174,0,0,0,0,0,0,0,0,0,-1,1322,1198,0,0
105,-174,0,0,0,0,0,0,0,0,0,-1,1329,1198,0,0
112,-174,0,0,0,0,0,0,0,0,0,-1,1336,1198,0,0
119,-174,0,0,0,0,0,0,0,0,0,-1,1343,1198,0,0
126,-174,0,0,0,0,0,0,0,0,0,-1,1350,1198,0,0
133,-174,0,0,0,0,0,0,0,0,0,-1,1357,1198,0,0
140,-174,0,0,0,0,0,0,0,0,0,-1,1364,1198,0,0
147,-174,0,0,0,0,0,0,0,0,0,-1,1371,1198,0,0
154,-174,0,0,0,0,0,0,0,0,0,-1,1378,1198,0,0
161,-174,0,0,0,0,0,0,0,0,0,-1,1385,1198,0,0
168,-174,0,0,0,0,0,0,0,0,0,-1,1392,1198,0,0
175,-174,0,0,0,0,0,0,0,0,0,-1,1399,1198,0,0
182,-174,0,0,0,0,0,0,0,0,0,-1,1406,1198,0,0
189,-174,0,0,0,0,0,0,0,0,0,-1,1413,1198,0,0
196,-174,0,0,0,0,0,0,0,0,0,-1,1420,1198,0,0
203,-174,0,0,0,0,0,0,0,0,0,-1,1427,1198,0,0
210,-174,0,0,0,0,0,0,0,0,0,-1,1434,1198,0,0
217,-174,0,0,0,0,0,0,0,0,0,-1,1441,1198,0,0
224,-174,0,0,0,0,0,0,0,0,0,-1,1448,1198,0,0
231,-174,0,0,0,0,0,0,0,0,0,-1,1455,1198,0,0
238,-174,0,0,0,0,0,0,0,0,0,-1,1462,1198,0,0
245,-174,0,0,0,0,0,0,0,0,0,-1,1469,1198,0,0
252,-174,0,0,0,0,0,0,0,0,0,-1,1476,1198,0,0
259,-174,0,0,0,0,0,0,0,0,0,-1,1483,1198,0,0
266,-174,0,0,0,0,0,0,0,0,0,-1,1490,1198,0,0
273,-174,0,0,0,0,0,0,0,0,0,-1,1497,1198,0,0
280,-174,0,0,0,0,0,0,0,0,0,-1,1504,1198,0,0
287,-174,0,0,0,0,0,0,0,0,0,-1,1511,1198,0,0
294,-174,0,0,0,0,0,0,0,0,0,-1,1518,1198,0,0
301,-174,0,0,0,0,0,0,0,0,0,-1,1525,1198,0,0
308,-174,0,0,0,0,0,0,0,0,0,-1,1532,1198,0,0
315,-174,0,0,0,0,0,0,0,0,0,-1,1539,1198,0,0
322,-174,0,0,0,0,0,0,0,0,0,-1,1546,1198,0,0
329,-174,0,0,0,0,0,0,0,0,0,-1,1553,1198,0,0
336,-174,0,0,0,0,0,0,0,0,0,-1,1560,1198,0,0
343,-174,0,0,0,0,0,0,0,0,0,-1,1567,1198,0,0
350,-174,0,0,0,0,0,0,0,0,0,-1,1574,1198,0,0
357,-174,0,0,0,0,0,0,0,0,0,-1,1581,1198,0,0
364,-174,0,0,0,0,0,0,0,0,0,-1,1588,1198,0,0
371,-174,0,0,0,0,0,0,0,0,0,-1,1595,1198,0,0
378,-174,0,0,0,0,0,0,0,0,0,-1,1602,1198,0,0
385,-174,0,0,0,0,0,0,0,0,0,-1,1609,1198,0,0
392,-174,0,0,0,0,0,0,0,0,0,-1,1616,1198,0,0
399,-174,0,0,0,0,0,0,0,0,0,-1,1623,1198,0,0
406,-174,0,0,0,0,0,0,0,0,0,-1,1630,1198,0,0
413,-174,0,0,0,0,0,0,0,0,0,-1,1637,1198,0,0
420,-174,0,0,0,0,0,0,0,0,0,-1,1644,1198,0,0
427,-174,0,0,0,0,0,0,0,0,0,-1,1651,1198,0,0
434,-174,0,0,0,0,0,0,0,0,0,-1,1658,1198,0,0
441,-174,0,0,0,0,0,0,0,0,0,-1,1665,1198,0,0
448,-174,0,0,0,0,0,0,0,0,0,-1,1672,1198,0,0
455,-174,0,0,0,0,0,0,0,0,0,-1,1679,1198,0,0
462,-174,0,0,0,0,0,0,0,0,0,-1,1686,1198,0,0
469,-174,0,0,0,0,0,0,0,0,0,-1,1693,1198,0,0
476,-174,0,0,0,0,0,0,0,0,0,-1,1700,1198,0,0
483,-174,0,0,0,0,0,0,0,0,0,-1,1707,1198,0,0
490,-174,0,0,0,0,0,0,0,0,0,-1,1714,1198,0,0
497,-174,0,0,0,0,0,0,0,0,0,-1,1721,1198,0,0
504,-174,0,0,0,0,0,0,0,0,0,-1,1728,1198,0,0
511,-174,0,0,0,0,0,0,0,0,0,-1,1735,1198,0,0
518,-174,0,0,0,0,0,0,0,0,0,-1,1742,1198,0,0
525,-174,0,0,0,0,0,0,0,0,0,-1,1749,1198,0,0
532,-174,0,0,0,0,0,0,0,0,0,-1,1756,1198,0,0
539,-174,0,0,0,0,0,0,0,0,0,-1,1763,1198,0,0
546,-174,0,0,0,0,0,0,0,0,0,-1,1770,1198,0,0
553,-174,0,0,0,0,0,0,0,0,0,-1,1777,1198,0,0
560,-174,0,0,0,0,0,0,0,0,0,-1,1784,1198,0,0
567,-174,0,0,0,0,0,0,0,0,0,-1,1791,1198,0,0
574,-174,0,0,0,0,0,0,0,0,0,-1,1798,1198,0,0
581,-174,0,0,0,0,0,0,0,0,0,-1,1805,1198,0,0
588,-174,0,0,0,0,0,0,0,0,0,-1,1812,1198,0,0
595,-174,0,0,0,0,0,0,0,0,0,-1,1819,1198,0,0
602,-174,0,0,0,0,0,0,0,0,0,-1,1826,1198,0,0
609,-174,0,0,0,0,0,0,0,0,0,-1,1833,1198,0,0
616,-174,0,0,0,0,0,0,0,0,0,-1,1840,1198,0,0
623,-174,0,0,0,0,0,0,0,0,0,-1,1847,1198,0,0
630,-174,0,0,0,0,0,0,0,0,0,-1,1854,1198,0,0
637,-174,71.4814,2.14185,0.00283869,-0.000262522,-0.00134975,0.00334386,-0.000767691,-0.358129,0.00252435,0.0433412,1861,1198,71.4815,-2.14185
644,-174,71.4617,2.02051,0.00223572,0.000183149,-0.00136232,0.00291507,-0.000496197,-0.462581,0.00212815,0.0446866,1868,1198,71.4617,-2.02051
651,-174,71.4337,2.16248,0.00181237,0.000627548,-0.00157059,0.00289856,-0.000458643,-0.605053,0.002102,0.0400002,1875,1198,71.4337,-2.16245
658,-174,71.4498,2.47742,0.00150297,0.000994143,-0.00186598,0.00313181,-0.000634691,-0.717644,0.00232845,0.0369772,1882,1198,71.4499,-2.47746
665,-174,71.4746,2.43616,0.00124938,0.00125115,-0.00206319,0.00331346,-0.000812927,-0.785613,0.00252397,0.033968,1889,1198,71.4746,-2.43618
672,-174,71.4849,2.30469,0.00112041,0.00160894,-0.0021653,0.00354371,-0.000814364,-0.841565,0.00267556,0.0263005,1896,1198,71.4849,-2.30474
679,-174,71.5137,2.24792,0.00122729,0.00159758,-0.00213158,0.00355204,-0.000727167,-0.828719,0.00264396,0.0245473,1903,1198,71.5137,-2.24787
686,-174,71.5295,2.17053,0,0,0,0,0,0,0,-1,1910,1198,71.5295,-2.17055
693,-174,51.1324,2.57349,0,0,0,0,0,0,0,-1,1917,1198,51.1325,-2.57343
700,-174,25.4004,6.11792,0,0,0,0,0,0,0,-1,1924,1198,25.4004,-6.11797
707,-174,34.7908,7.34473,0,0,0,0,0,0,0,-1,1931,1198,34.7908,-7.34475
714,-174,40.1135,7.79871,0,0,0,0,0,0,0,-1,1938,1198,40.1135,-7.79875
721,-174,40.8693,7.59863,0,0,0,0,0,0,0,-1,1945,1198,40.8693,-7.59859
728,-174,59.3602,9.30579,0,0,0,0,0,0,0,-1,1952,1198,59.3602,-9.30577
735,-174,59.4871,8.67297,0.00175157,0.00124013,0.00047379,0.00203425,0.000957454,0.537932,0.00117515,0.0236888,1959,1198,59.4871,-8.67294
742,-174,59.5693,7.94434,0.00174891,0.00127318,0.00113542,0.00267111,0.000350981,0.682145,0.00167604,0.0212866,1966,1198,59.5694,-7.94438
749,-174,59.546,7.29797,0.00168904,0.00157187,0.00212633,0.0037576,-0.000496683,0.771626,0.00268598,0.0180706,1973,1198,59.546,-7.29796
756,-174,59.5203,6.66724,0.00172603,0.00209614,0.00342691,0.00534299,-0.00152082,0.812372,0.00416259,0.0109481,1980,1198,59.5203,-6.66719
763,-174,59.4938,6.04822,0.00199318,0.00262115,0.00514484,0.00746158,-0.00284724,0.815875,0.00614733,0.0178764,1987,1198,59.4937,-6.04823
770,-174,59.7478,5.34021,0,0,0,0,0,0,0,-1,1994,1198,59.7479,-5.34016
777,-174,60.3013,4.48218,0,0,0,0,0,0,0,-1,2001,1198,60.3014,-4.48222
784,-174,67.8457,-0.896606,0,0,0,0,0,0,0,-1,2008,1198,67.8456,0.896657
791,-174,59.8242,2.32861,0,0,0,0,0,0,0,-1,2015,1198,59.8243,-2.32855
798,-174,61.8975,4.00464,0,0,0,0,0,0,0,-1,2022,1198,61.8976,-4.00459
805,-174,62.6123,-2.31116,0,0,0,0,0,0,0,-1,2029,1198,62.6123,2.31121
812,-174,0,0,0,0,0,0,0,0,0,-1,2036,1198,0,0
-700,-181,0,0,0,0,0,0,0,0,0,-1,524,1205,0,0
-693,-181,0,0,0,0,0,0,0,0,0,-1,531,1205,0,0
-686,-181,-40.1406,-8.64819,0,0,0,0,0,0,0,-1,538,1205,-40.1406,8.64822
-679,-181,-39.9404,-6.75781,0,0,0,0,0,0,0,-1,545,1205,-39.9404,6.75782
-672,-181,-38.7238,-5.61853,0,0,0,0,0,0,0,-1,552,1205,-38.7237,5.61851
-665,-181,-42.8715,0.831177,0,0,0,0,0,0,0,-1,559,1205,-42.8715,-0.831164
-658,-181,-43.108,1.86487,-0.0345652,0.033118,-0.0184722,0.0378313,-0.0392784,-1.32097,0.0445219,0.0488339,566,1205,-43.108,-1.86487
-651,-181,-43.3795,2.88513,-0.027085,0.0271257,-0.0148531,0.0309285,-0.0308878,-1.32015,0.0356897,0.0473093,573,1205,-43.3794,-2.88511
-644,-181,-42.6242,2.92603,0,0,0,0,0,0,0,-1,580,1205,-42.6242,-2.92608
-637,-181,-42.5609,3.74829,-0.013953,0.0159603,-0.00882103,0.0183677,-0.0163605,-1.30436,0.0200615,0.0290635,587,1205,-42.5608,-3.74823
-630,-181,-42.7128,4.40027,-0.00896628,0.0107281,-0.00631216,0.0125775,-0.0108157,-1.28578,0.0135188,0.0145437,594,1205,-42.7128,-4.40021
-623,-181,-42.7487,5.09241,-0.00491231,0.00565302,-0.00437121,0.00722703,-0.00648632,-1.22516,0.00792126,0.0154698,601,1205,-42.7487,-5.09237
-616,-181,-42.7458,5.82043,-0.00271915,0.00192841,-0.00271316,0.00317691,-0.00396766,-1.13952,0.00413333,0.0147978,608,1205,-42.7459,-5.8204
-609,-181,-42.7738,6.54407,-0.00209325,-0.000406351,-0.00233953,0.00123712,-0.00373672,-0.958407,0.00299008,0.0143068,615,1205,-42.7738,-6.54409
-602,-181,-42.7556,7.26367,-0.00221917,-0.000808742,-0.00251138,0.00109456,-0.00412247,-0.922277,0.00317666,0.0268325,622,1205,-42.7556,-7.26365
-595,-181,-42.5277,7.98083,0,0,0,0,0,0,0,-1,629,1205,-42.5277,-7.98088
-588,-181,-43.1966,8.59851,-0.00330108,-0.00026488,-0.00315909,0.00172195,-0.0052879,-1.00938,0.00421808,0.0392119,636,1205,-43.1966,-8.59847
-581,-181,-43.3116,9.27917,-0.00319894,0.000163775,-0.00335486,0.00223503,-0.00527019,-1.01769,0.00444968,0.0448194,643,1205,-43.3117,-9.27918
-574,-181,-42.696,9.9187,0,0,0,0,0,0,0,-1,650,1205,-42.696,-9.91865
-567,-181,-25.8839,3.34485,0,0,0,0,0,0,0,-1,657,1205,-25.8839,-3.3449
-560,-181,-31.7396,1.63306,0,0,0,0,0,0,0,-1,664,1205,-31.7396,-1.63303
-553,-181,-55.0922,0.695435,0,0,0,0,0,0,0,-1,671,1205,-55.0921,-0.695482
-546,-181,-55.1591,0.554932,-0.0015899,0.00048281,-0.00524302,0.00479092,-0.00589801,-0.882972,0.00618228,0.0418472,678,1205,-55.159,-0.554877
-539,-181,-55.2367,0.597656,-0.000602093,0.0004349,-0.00563467,0.00557488,-0.00574207,-0.831278,0.00653408,0.0366386,685,1205,-55.2367,-0.597676
-532,-181,-55.3005,0.590576,0.00162348,0.000544681,-0.00553208,0.00664239,-0.00447423,-0.7368,0.00645875,0.0434032,692,1205,-55.3005,-0.590591
-525,-181,-55.1782,0.469238,0.00906752,8.84086e-05,-0.00531837,0.0115379,-0.00238201,-0.434851,0.00859667,0.0429995,699,1205,-55.1782,-0.469288
-518,-181,-54.952,0.050293,0.0182834,-0.000586899,-0.00521628,0.0196293,-0.00193283,-0.252517,0.0137758,0.0410011,706,1205,-54.9521,-0.0502968
-511,-181,0,0,0,0,0,0,0,0,0,-1,713,1205,0,0
-504,-181,0,0,0,0,0,0,0,0,0,-1,720,1205,0,0
-497,-181,0,0,0,0,0,0,0,0,0,-1,727,1205,0,0
-490,-181,0,0,0,0,0,0,0,0,0,-1,734,1205,0,0
-483,-181,0,0,0,0,0,0,0,0,0,-1,741,1205,0,0
-476,-181,0,0,0,0,0,0,0,0,0,-1,748,1205,0,0
-469,-181,0,0,0,0,0,0,0,0,0,-1,755,1205,0,0
-462,-181,0,0,0,0,0,0,0,0,0,-1,762,1205,0,0
-455,-181,0,0,0,0,0,0,0,0,0,-1,769,1205,0,0
-448,-181,0,0,0,0,0,0,0,0,0,-1,776,1205,0,0
-441,-181,0,0,0,0,0,0,0,0,0,-1,783,1205,0,0
-434,-181,0,0,0,0,0,0,0,0,0,-1,790,1205,0,0
-427,-181,0,0,0,0,0,0,0,0,0,-1,797,1205,0,0
-420,-181,0,0,0,0,0,0,0,0,0,-1,804,1205,0,0
-413,-181,0,0,0,0,0,0,0,0,0,-1,811,1205,0,0
-406,-181,0,0,0,0,0,0,0,0,0,-1,818,1205,0,0
-399,-181,0,0,0,0,0,0,0,0,0,-1,825,1205,0,0
-392,-181,0,0,0,0,0,0,0,0,0,-1,832,1205,0,0
-385,-181,0,0,0,0,0,0,0,0,0,-1,839,1205,0,0
-378,-181,0,0,0,0,0,0,0,0,0,-1,846,1205,0,0
-371,-181,0,0,0,0,0,0,0,0,0,-1,853,1205,0,0
-364,-181,0,0,0,0,0,0,0,0,0,-1,860,1205,0,0
-357,-181,0,0,0,0,0,0,0,0,0,-1,867,1205,0,0
-350,-181,0,0,0,0,0,0,0,0,0,-1,874,1205,0,0
-343,-181,0,0,0,0,0,0,0,0,0,-1,881,1205,0,0
-336,-181,0,0,0,0,0,0,0,0,0,-1,888,1205,0,0
-329,-181,0,0,0,0,0,0,0,0,0,-1,895,1205,0,0
-322,-181,0,0,0,0,0,0,0,0,0,-1,902,1205,0,0
-315,-181,0,0,0,0,0,0,0,0,0,-1,909,1205,0,0
-308,-181,0,0,0,0,0,0,0,0,0,-1,916,1205,0,0
-301,-181,0,0,0,0,0,0,0,0,0,-1,923,1205,0,0
-294,-181,0,0,0,0,0,0,0,0,0,-1,930,1205,0,0
-287,-181,0,0,0,0,0,0,0,0,0,-1,937,1205,0,0
-280,-181,0,0,0,0,0,0,0,0,0,-1,944,1205,0,0
-273,-181,0,0,0,0,0,0,0,0,0,-1,951,1205,0,0
-266,-181,0,0,0,0,0,0,0,0,0,-1,958,1205,0,0
-259,-181,0,0,0,0,0,0,0,0,0,-1,965,1205,0,0
-252,-181,0,0,0,0,0,0,0,0,0,-1,972,1205,0,0
-245,-181,0,0,0,0,0,0,0,0,0,-1,979,1205,0,0
-238,-181,0,0,0,0,0,0,0,0,0,-1,986,1205,0,0
-231,-181,0,0,0,0,0,0,0,0,0,-1,993,1205,0,0
-224,-181,0,0,0,0,0,0,0,0,0,-1,1000,1205,0,0
-217,-181,0,0,0,0,0,0,0,0,0,-1,1007,1205,0,0
-210,-181,0,0,0,0,0,0,0,0,0,-1,1014,1205,0,0
-203,-181,0,0,0,0,0,0,0,0,0,-1,1021,1205,0,0
-196,-181,0,0,0,0,0,0,0,0,0,-1,1028,1205,0,0
-189,-181,0,0,0,0,0,0,0,0,0,-1,1035,1205,0,0
-182,-181,0,0,0,0,0,0,0,0,0,-1,1042,1205,0,0
-175,-181,0,0,0,0,0,0,0,0,0,-1,1049,1205,0,0
-168,-181,0,0,0,0,0,0,0,0,0,-1,1056,1205,0,0
-161,-181,0,0,0,0,0,0,0,0,0,-1,1063,1205,0,0
-154,-181,0,0,0,0,0,0,0,0,0,-1,1070,1205,0,0
-147,-181,0,0,0,0,0,0,0,0,0,-1,1077,1205,0,0
-140,-181,0,0,0,0,0,0,0,0,0,-1,1084,1205,0,0
-133,-181,0,0,0,0,0,0,0,0,0,-1,1091,1205,0,0
-126,-181,0,0,0,0,0,0,0,0,0,-1,1098,1205,0,0
-119,-181,0,0,0,0,0,0,0,0,0,-1,1105,1205,0,0
-112,-181,0,0,0,0,0,0,0,0,0,-1,1112,1205,0,0
-105,-181,0,0,0,0,0,0,0,0,0,-1,1119,1205,0,0
-98,-181,0,0,0,0,0,0,0,0,0,-1,1126,1205,0,0
-91,-181,0,0,0,0,0,0,0,0,0,-1,1133,1205,0,0
-84,-181,0,0,0,0,0,0,0,0,0,-1,1140,1205,0,0
-77,-181,0,0,0,0,0,0,0,0,0,-1,1147,1205,0,0
-70,-181,0,0,0,0,0,0,0,0,0,-1,1154,1205,0,0
-63,-181,0,0,0,0,0,0,0,0,0,-1,1161,1205,0,0
-56,-181,0,0,0,0,0,0,0,0,0,-1,1168,1205,0,0
-49,-181,0,0,0,0,0,0,0,0,0,-1,1175,1205,0,0
-42,-181,0,0,0,0,0,0,0,0,0,-1,1182,1205,0,0
-35,-181,0,0,0,0,0,0,0,0,0,-1,1189,1205,0,0
-28,-181,0,0,0,0,0,0,0,0,0,-1,1196,1205,0,0
-21,-181,0,0,0,0,0,0,0,0,0,-1,1203,1205,0,0
-14,-181,0,0,0,0,0,0,0,0,0,-1,1210,1205,0,0
-7,-181,0,0,0,0,0,0,0,0,0,-1,1217,1205,0,0
0,-181,0,0,0,0,0,0,0,0,0,-1,1224,1205,0,0
7,-181,0,0,0,0,0,0,0,0,0,-1,1231,1205,0,0
14,-181,0,0,0,0,0,0,0,0,0,-1,1238,1205,0,0
21,-181,0,0,0,0,0,0,0,0,0,-1,1245,1205,0,0
28,-181,0,0,0,0,0,0,0,0,0,-1,1252,1205,0,0
35,-181,0,0,0,0,0,0,0,0,0,-1,1259,1205,0,0
42,-181,0,0,0,0,0,0,0,0,0,-1,1266,1205,0,0
49,-181,0,0,0,0,0,0,0,0,0,-1,1273,1205,0,0
56,-181,0,0,0,0,0,0,0,0,0,-1,1280,1205,0,0
63,-181,0,0,0,0,0,0,0,0,0,-1,1287,1205,0,0
70,-181,0,0,0,0,0,0,0,0,0,-1,1294,1205,0,0
77,-181,0,0,0,0,0,0,0,0,0,-1,1301,1205,0,0
84,-181,0,0,0,0,0,0,0,0,0,-1,1308,1205,0,0
91,-181,0,0,0,0,0,0,0,0,0,-1,1315,1205,0,0
98,-181,0,0,0,0,0,0,0,0,0,-1,1322,1205,0,0
105,-181,0,0,0,0,0,0,0,0,0,-1,1329,1205,0,0
112,-181,0,0,0,0,0,0,0,0,0,-1,1336,1205,0,0
119,-181,0,0,0,0,0,0,0,0,0,-1,1343,1205,0,0
126,-181,0,0,0,0,0,0,0,0,0,-1,1350,1205,0,0
133,-181,0,0,0,0,0,0,0,0,0,-1,1357,1205,0,0
140,-181,0,0,0,0,0,0,0,0,0,-1,1364,1205,0,0
147,-181,0,0,0,0,0,0,0,0,0,-1,1371,1205,0,0
154,-181,0,0,0,0,0,0,0,0,0,-1,1378,1205,0,0
161,-181,0,0,0,0,0,0,0,0,0,-1,1385,1205,0,0
168,-181,0,0,0,0,0,0,0,0,0,-1,1392,1205,0,0
175,-181,0,0,0,0,0,0,0,0,0,-1,1399,1205,0,0
182,-181,0,0,0,0,0,0,0,0,0,-1,1406,1205,0,0
189,-181,0,0,0,0,0,0,0,0,0,-1,1413,1205,0,0
196,-181,0,0,0,0,0,0,0,0,0,-1,1420,1205,0,0
203,-181,0,0,0,0,0,0,0,0,0,-1,1427,1205,0,0
210,-181,0,0,0,0,0,0,0,0,0,-1,1434,1205,0,0
217,-181,0,0,0,0,0,0,0,0,0,-1,1441,1205,0,0
224,-181,0,0,0,0,0,0,0,0,0,-1,1448,1205,0,0
231,-181,0,0,0,0,0,0,0,0,0,-1,1455,1205,0,0
238,-181,0,0,0,0,0,0,0,0,0,-1,1462,1205,0,0
245,-181,0,0,0,0,0,0,0,0,0,-1,1469,1205,0,0
252,-181,0,0,0,0,0,0,0,0,0,-1,1476,1205,0,0
259,-181,0,0,0,0,0,0,0,0,0,-1,1483,1205,0,0
266,-181,0,0,0,0,0,0,0,0,0,-1,1490,1205,0,0
273,-181,0,0,0,0,0,0,0,0,0,-1,1497,1205,0,0
280,-181,0,0,0,0,0,0,0,0,0,-1,1504,1205,0,0
287,-181,0,0,0,0,0,0,0,0,0,-1,1511,1205,0,0
294,-181,0,0,0,0,0,0,0,0,0,-1,1518,1205,0,0
301,-181,0,0,0,0,0,0,0,0,0,-1,1525,1205,0,0
308,-181,0,0,0,0,0,0,0,0,0,-1,1532,1205,0,0
315,-181,0,0,0,0,0,0,0,0,0,-1,1539,1205,0,0
322,-181,0,0,0,0,0,0,0,0,0,-1,1546,1205,0,0
329,-181,0,0,0,0,0,0,0,0,0,-1,1553,1205,0,0
336,-181,0,0,0,0,0,0,0,0,0,-1,1560,1205,0,0
343,-181,0,0,0,0,0,0,0,0,0,-1,1567,1205,0,0
350,-181,0,0,0,0,0,0,0,0,0,-1,1574,1205,0,0
357,-181,0,0,0,0,0,0,0,0,0,-1,1581,1205,0,0
364,-181,0,0,0,0,0,0,0,0,0,-1,1588,1205,0,0
371,-181,0,0,0,0,0,0,0,0,0,-1,1595,1205,0,0
378,-181,0,0,0,0,0,0,0,0,0,-1,1602,1205,0,0
385,-181,0,0,0,0,0,0,0,0,0,-1,1609,1205,0,0
392,-181,0,0,0,0,0,0,0,0,0,-1,1616,1205,0,0
399,-181,0,0,0,0,0,0,0,0,0,-1,1623,1205,0,0
406,-181,0,0,0,0,0,0,0,0,0,-1,1630,1205,0,0
413,-181,0,0,0,0,0,0,0,0,0,-1,1637,1205,0,0
420,-181,0,0,0,0,0,0,0,0,0,-1,1644,1205,0,0
427,-181,0,0,0,0,0,0,0,0,0,-1,1651,1205,0,0
434,-181,0,0,0,0,0,0,0,0,0,-1,1658,1205,0,0
441,-181,0,0,0,0,0,0,0,0,0,-1,1665,1205,0,0
448,-181,0,0,0,0,0,0,0,0,0,-1,1672,1205,0,0
455,-181,0,0,0,0,0,0,0,0,0,-1,1679,1205,0,0
462,-181,0,0,0,0,0,0,0,0,0,-1,1686,1205,0,0
469,-181,0,0,0,0,0,0,0,0,0,-1,1693,1205,0,0
476,-181,0,0,0,0,0,0,0,0,0,-1,1700,1205,0,0
483,-181,0,0,0,0,0,0,0,0,0,-1,1707,1205,0,0
490,-181,0,0,0,0,0,0,0,0,0,-1,1714,1205,0,0
497,-181,0,0,0,0,0,0,0,0,0,-1,1721,1205,0,0
504,-181,0,0,0,0,0,0,0,0,0,-1,1728,1205,0,0
511,-181,0,0,0,0,0,0,0,0,0,-1,1735,1205,0,0
518,-181,0,0,0,0,0,0,0,0,0,-1,1742,1205,0,0
525,-181,0,0,0,0,0,0,0,0,0,-1,1749,1205,0,0
532,-181,0,0,0,0,0,0,0,0,0,-1,1756,1205,0,0
539,-181,0,0,0,0,0,0,0,0,0,-1,1763,1205,0,0
546,-181,0,0,0,0,0,0,0,0,0,-1,1770,1205,0,0
553,-181,0,0,0,0,0,0,0,0,0,-1,1777,1205,0,0
560,-181,0,0,0,0,0,0,0,0,0,-1,1784,1205,0,0
567,-181,0,0,0,0,0,0,0,0,0,-1,1791,1205,0,0
574,-181,0,0,0,0,0,0,0,0,0,-1,1798,1205,0,0
581,-181,0,0,0,0,0,0,0,0,0,-1,1805,1205,0,0
588,-181,0,0,0,0,0,0,0,0,0,-1,1812,1205,0,0
595,-181,0,0,0,0,0,0,0,0,0,-1,1819,1205,0,0
602,-181,0,0,0,0,0,0,0,0,0,-1,1826,1205,0,0
609,-181,0,0,0,0,0,0,0,0,0,-1,1833,1205,0,0
616,-181,0,0,0,0,0,0,0,0,0,-1,1840,1205,0,0
623,-181,0,0,0,0,0,0,0,0,0,-1,1847,1205,0,0
630,-181,71.5281,2.43237,0.00383329,-0.000357272,-0.00112168,0.00411464,-0.000638621,-0.245758,0.00297887,0.036961,1854,1205,71.5281,-2.43242
637,-181,71.5426,2.58643,0.00291499,0.000193942,-0.00113844,0.00332846,-0.00021953,-0.34838,0.00229565,0.0391024,1861,1205,71.5426,-2.58646
644,-181,71.6,2.36194,0.00230201,0.000670219,-0.00131807,0.00303627,-6.40472e-05,-0.50826,0.00204586,0.0410955,1868,1205,71.6,-2.36188
651,-181,71.5785,2.27002,0.00189736,0.00113299,-0.00169407,0.00325182,-0.000221466,-0.674454,0.00224534,0.0387352,1875,1205,71.5785,-2.26998
658,-181,71.5729,2.32654,0.00156829,0.0014187,-0.00203629,0.00353116,-0.000544173,-0.767042,0.00255489,0.0340349,1882,1205,71.5728,-2.32658
665,-181,71.5219,2.40186,0.00128021,0.00152798,-0.00215221,0.00355987,-0.000751675,-0.814147,0.00265945,0.0327781,1889,1205,71.5219,-2.40189
672,-181,71.4836,2.27295,0.00112375,0.00177148,-0.00211366,0.00358595,-0.000690717,-0.861419,0.00265103,0.0257443,1896,1205,71.4837,-2.27293
679,-181,71.5356,2.25171,0.00116129,0.0017279,-0.00201125,0.00347569,-0.000586508,-0.855368,0.00253535,0.0366051,1903,1205,71.5357,-2.25165
686,-181,71.5636,2.23218,0,0,0,0,0,0,0,-1,1910,1205,71.5636,-2.23212
693,-181,36.1301,2.91016,0,0,0,0,0,0,0,-1,1917,1205,36.1302,-2.9102
700,-181,29.5845,6.58398,0,0,0,0,0,0,0,-1,1924,1205,29.5844,-6.58395
707,-181,55.4949,10.6722,0,0,0,0,0,0,0,-1,1931,1205,55.4949,-10.6722
714,-181,55.6268,10.3521,0,0,0,0,0,0,0,-1,1938,1205,55.6268,-10.3521
721,-181,51.2217,9.59631,0,0,0,0,0,0,0,-1,1945,1205,51.2217,-9.59637
728,-181,58.7892,9.26758,0,0,0,0,0,0,0,-1,1952,1205,58.7892,-9.26759
735,-181,58.9364,8.6239,0.0016049,0.00143974,0.000497015,0.00202615,0.00101849,0.703074,0.0011698,0.0164032,1959,1205,58.9364,-8.62386
742,-181,58.9203,8.00269,0.00165431,0.00145602,0.00117448,0.00273382,0.000376509,0.743288,0.00171091,0.018375,1966,1205,58.9203,-8.00268
749,-181,58.8894,7.32324,0.00167681,0.0016859,0.00220178,0.00388314,-0.000520426,0.786431,0.00277853,0.0167593,1973,1205,58.8894,-7.32319
756,-181,58.8507,6.66846,0.00178342,0.00208801,0.00351708,0.00545609,-0.00158466,0.807035,0.0042649,0.0122442,1980,1205,58.8507,-6.66844
763,-181,58.849,6.03503,0.00203232,0.00248412,0.00531125,0.00757427,-0.00305783,0.806652,0.00632036,0.0180667,1987,1205,58.849,-6.03501
770,-181,58.9316,5.39197,0,0,0,0,0,0,0,-1,1994,1205,58.9316,-5.39201
777,-181,68.1692,-1.57874,0,0,0,0,0,0,0,-1,2001,1205,68.1692,1.57871
784,-181,67.5371,-0.476318,0,0,0,0,0,0,0,-1,2008,1205,67.537,0.476299
791,-181,66.29,1.57324,0,0,0,0,0,0,0,-1,2015,1205,66.29,-1.5732
798,-181,61.2429,4.45374,0,0,0,0,0,0,0,-1,2022,1205,61.243,-4.45375
805,-181,0,0,0,0,0,0,0,0,0,-1,2029,1205,0,0
812,-181,0,0,0,0,0,0,0,0,0,-1,2036,1205,0,0
-700,-188,0,0,0,0,0,0,0,0,0,-1,524,1212,0,0
-693,-188,0,0,0,0,0,0,0,0,0,-1,531,1212,0,0
-686,-188,0,0,0,0,0,0,0,0,0,-1,538,1212,0,0
-679,-188,-38.2949,-7.01208,0,0,0,0,0,0,0,-1,545,1212,-38.2949,7.01206
-672,-188,-42.6551,-0.922974,0,0,0,0,0,0,0,-1,552,1212,-42.6551,0.923003
-665,-188,-41.9689,0.0760498,0,0,0,0,0,0,0,-1,559,1212,-41.9689,-0.0760043
-658,-188,-42.4537,2.05322,0,0,0,0,0,0,0,-1,566,1212,-42.4537,-2.05317
-651,-188,-42.3757,2.67334,-0.0239103,0.0271606,-0.0170947,0.0323544,-0.0291041,-1.27583,0.0354996,0.0491822,573,1212,-42.3757,-2.67336
-644,-188,-42.1883,3.22876,0,0,0,0,0,0,0,-1,580,1212,-42.1883,-3.22875
-637,-188,-42.0051,3.79883,-0.0119556,0.0158879,-0.00975593,0.018966,-0.0150336,-1.26518,0.0196734,0.0256159,587,1212,-42.0051,-3.79879
-630,-188,-42.0158,4.44714,-0.00757495,0.0108099,-0.00679531,0.0130489,-0.00981393,-1.25251,0.0132438,0.0117308,594,1212,-42.0158,-4.44716
-623,-188,-42.0348,5.14685,-0.0039858,0.00597856,-0.00468854,0.00783776,-0.00584501,-1.19327,0.00792763,0.0117439,601,1212,-42.0348,-5.14688
-616,-188,-42.0406,5.85767,-0.00205207,0.0024793,-0.00293726,0.00392318,-0.00349594,-1.11391,0.0042858,0.0108921,608,1212,-42.0406,-5.85764
-609,-188,-42.0403,6.5863,-0.00145282,0.000352928,-0.00203648,0.00167771,-0.0027776,-0.994054,0.00259827,0.0135875,615,1212,-42.0403,-6.58631
-602,-188,-42.0063,7.35315,-0.0014928,-0.000439265,-0.00227947,0.00137351,-0.00330557,-0.898951,0.00277718,0.0256335,622,1212,-42.0064,-7.35318
-595,-188,-41.9793,8.2384,0,0,0,0,0,0,0,-1,629,1212,-41.9793,-8.23845
-588,-188,-42.4454,8.68506,-0.00281079,-1.5185e-05,-0.0031017,0.00198913,-0.00481511,-0.997098,0.00403979,0.0291684,636,1212,-42.4454,-8.68509
-581,-188,-42.4677,9.3396,-0.00298558,0.000489249,-0.00338807,0.00255941,-0.00505574,-1.02232,0.00447465,0.0311344,643,1212,-42.4677,-9.33961
-574,-188,-42.5733,9.92139,0,0,0,0,0,0,0,-1,650,1212,-42.5733,-9.92139
-567,-188,-19.5786,4.10388,0,0,0,0,0,0,0,-1,657,1212,-19.5785,-4.10383
-560,-188,-23.9507,0.416626,0,0,0,0,0,0,0,-1,664,1212,-23.9508,-0.416602
-553,-188,-49.2368,1.03101,0,0,0,0,0,0,0,-1,671,1212,-49.2367,-1.03099
-546,-188,-55.0927,0.610352,0,0,0,0,0,0,0,-1,678,1212,-55.0927,-0.610376
-539,-188,-55.197,0.586182,-0.000540564,0.000361863,-0.0054675,0.00539673,-0.00557543,-0.826568,0.00633506,0.0359643,685,1212,-55.197,-0.58619
-532,-188,-55.264,0.403687,0.000206917,0.000450222,-0.00536161,0.00569156,-0.00503442,-0.796741,0.00619652,0.0417703,692,1212,-55.264,-0.403737
-525,-188,-55.0945,0.43811,0.00631835,-0.000593062,-0.00510272,0.00902541,-0.00330012,-0.487759,0.00736761,0.0436107,699,1212,-55.0945,-0.438153
-518,-188,-55.0659,0.385376,0.0163138,-0.0020093,-0.00502231,0.0176001,-0.0032956,-0.250728,0.0129722,0.041833,706,1212,-55.0659,-0.385394
-511,-188,-55.0966,0.408691,0.0265393,-0.00380124,-0.00493029,0.0273203,-0.00458229,-0.157115,0.0199175,0.0382168,713,1212,-55.0966,-0.408697
-504,-188,0,0,0,0,0,0,0,0,0,-1,720,1212,0,0
-497,-188,0,0,0,0,0,0,0,0,0,-1,727,1212,0,0
-490,-188,0,0,0,0,0,0,0,0,0,-1,734,1212,0,0
-483,-188,0,0,0,0,0,0,0,0,0,-1,741,1212,0,0
-476,-188,0,0,0,0,0,0,0,0,0,-1,748,1212,0,0
-469,-188,0,0,0,0,0,0,0,0,0,-1,755,1212,0,0
-462,-188,0,0,0,0,0,0,0,0,0,-1,762,1212,0,0
-455,-188,0,0,0,0,0,0,0,0,0,-1,769,1212,0,0
-448,-188,0,0,0,0,0,0,0,0,0,-1,776,1212,0,0
-441,-188,0,0,0,0,0,0,0,0,0,-1,783,1212,0,0
-434,-188,0,0,0,0,0,0,0,0,0,-1,790,1212,0,0
-427,-188,0,0,0,0,0,0,0,0,0,-1,797,1212,0,0
-420,-188,0,0,0,0,0,0,0,0,0,-1,804,1212,0,0
-413,-188,0,0,0,0,0,0,0,0,0,-1,811,1212,0,0
-406,-188,0,0,0,0,0,0,0,0,0,-1,818,1212,0,0
-399,-188,0,0,0,0,0,0,0,0,0,-1,825,1212,0,0
-392,-188,0,0,0,0,0,0,0,0,0,-1,832,1212,0,0
-385,-188,0,0,0,0,0,0,0,0,0,-1,839,1212,0,0
-378,-188,0,0,0,0,0,0,0,0,0,-1,846,1212,0,0
-371,-188,0,0,0,0,0,0,0,0,0,-1,853,1212,0,0
-364,-188,0,0,0,0,0,0,0,0,0,-1,860,1212,0,0
-357,-188,0,0,0,0,0,0,0,0,0,-1,867,1212,0,0
-350,-188,0,0,0,0,0,0,0,0,0,-1,874,1212,0,0
-343,-188,0,0,0,0,0,0,0,0,0,-1,881,1212,0,0
-336,-188,0,0,0,0,0,0,0,0,0,-1,888,1212,0,0
-329,-188,0,0,0,0,0,0,0,0,0,-1,895,1212,0,0
-322,-188,0,0,0,0,0,0,0,0,0,-1,902,1212,0,0
-315,-188,0,0,0,0,0,0,0,0,0,-1,909,1212,0,0
-308,-188,0,0,0,0,0,0,0,0,0,-1,916,1212,0,0
-301,-188,0,0,0,0,0,0,0,0,0,-1,923,1212,0,0
-294,-188,0,0,0,0,0,0,0,0,0,-1,930,1212,0,0
-287,-188,0,0,0,0,0,0,0,0,0,-1,937,1212,0,0
-280,-188,0,0,0,0,0,0,0,0,0,-1,944,1212,0,0
-273,-188,0,0,0,0,0,0,0,0,0,-1,951,1212,0,0
-266,-188,0,0,0,0,0,0,0,0,0,-1,958,1212,0,0
-259,-188,0,0,0,0,0,0,0,0,0,-1,965,1212,0,0
-252,-188,0,0,0,0,0,0,0,0,0,-1,972,1212,0,0
-245,-188,0,0,0,0,0,0,0,0,0,-1,979,1212,0,0
-238,-188,0,0,0,0,0,0,0,0,0,-1,986,1212,0,0
-231,-188,0,0,0,0,0,0,0,0,0,-1,993,1212,0,0
-224,-188,0,0,0,0,0,0,0,0,0,-1,1000,1212,0,0
-217,-188,0,0,0,0,0,0,0,0,0,-1,1007,1212,0,0
-210,-188,0,0,0,0,0,0,0,0,0,-1,1014,1212,0,0
-203,-188,0,0,0,0,0,0,0,0,0,-1,1021,1212,0,0
-196,-188,0,0,0,0,0,0,0,0,0,-1,1028,1212,0,0
-189,-188,0,0,0,0,0,0,0,0,0,-1,1035,1212,0,0
-182,-188,0,0,0,0,0,0,0,0,0,-1,1042,1212,0,0
-175,-188,0,0,0,0,0,0,0,0,0,-1,1049,1212,0,0
-168,-188,0,0,0,0,0,0,0,0,0,-1,1056,1212,0,0
-161,-188,0,0,0,0,0,0,0,0,0,-1,1063,1212,0,0
-154,-188,0,0,0,0,0,0,0,0,0,-1,1070,1212,0,0
-147,-188,0,0,0,0,0,0,0,0,0,-1,1077,1212,0,0
-140,-188,0,0,0,0,0,0,0,0,0,-1,1084,1212,0,0
-133,-188,0,0,0,0,0,0,0,0,0,-1,1091,1212,0,0
-126,-188,0,0,0,0,0,0,0,0,0,-1,1098,1212,0,0
-119,-188,0,0,0,0,0,0,0,0,0,-1,1105,1212,0,0
-112,-188,0,0,0,0,0,0,0,0,0,-1,1112,1212,0,0
-105,-188,0,0,0,0,0,0,0,0,0,-1,1119,1212,0,0
-98,-188,0,0,0,0,0,0,0,0,0,-1,1126,1212,0,0
-91,-188,0,0,0,0,0,0,0,0,0,-1,1133,1212,0,0
-84,-188,0,0,0,0,0,0,0,0,0,-1,1140,1212,0,0
-77,-188,0,0,0,0,0,0,0,0,0,-1,1147,1212,0,0
-70,-188,0,0,0,0,0,0,0,0,0,-1,1154,1212,0,0
-63,-188,0,0,0,0,0,0,0,0,0,-1,1161,1212,0,0
-56,-188,0,0,0,0,0,0,0,0,0,-1,1168,1212,0,0
-49,-188,0,0,0,0,0,0,0,0,0,-1,1175,1212,0,0
-42,-188,0,0,0,0,0,0,0,0,0,-1,1182,1212,0,0
-35,-188,0,0,0,0,0,0,0,0,0,-1,1189,1212,0,0
-28,-188,0,0,0,0,0,0,0,0,0,-1,1196,1212,0,0
-21,-188,0,0,0,0,0,0,0,0,0,-1,1203,1212,0,0
-14,-188,0,0,0,0,0,0,0,0,0,-1,1210,1212,0,0
-7,-188,0,0,0,0,0,0,0,0,0,-1,1217,1212,0,0
0,-188,0,0,0,0,0,0,0,0,0,-1,1224,1212,0,0
7,-188,0,0,0,0,0,0,0,0,0,-1,1231,1212,0,0
14,-188,0,0,0,0,0,0,0,0,0,-1,1238,1212,0,0
21,-188,0,0,0,0,0,0,0,0,0,-1,1245,1212,0,0
28,-188,0,0,0,0,0,0,0,0,0,-1,1252,1212,0,0
35,-188,0,0,0,0,0,0,0,0,0,-1,1259,1212,0,0
42,-188,0,0,0,0,0,0,0,0,0,-1,1266,1212,0,0
49,-188,0,0,0,0,0,0,0,0,0,-1,1273,1212,0,0
56,-188,0,0,0,0,0,0,0,0,0,-1,1280,1212,0,0
63,-188,0,0,0,0,0,0,0,0,0,-1,1287,1212,0,0
70,-188,0,0,0,0,0,0,0,0,0,-1,1294,1212,0,0
77,-188,0,0,0,0,0,0,0,0,0,-1,1301,1212,0,0
84,-188,0,0,0,0,0,0,0,0,0,-1,1308,1212,0,0
91,-188,0,0,0,0,0,0,0,0,0,-1,1315,1212,0,0
98,-188,0,0,0,0,0,0,0,0,0,-1,1322,1212,0,0
105,-188,0,0,0,0,0,0,0,0,0,-1,1329,1212,0,0
112,-188,0,0,0,0,0,0,0,0,0,-1,1336,1212,0,0
119,-188,0,0,0,0,0,0,0,0,0,-1,1343,1212,0,0
126,-188,0,0,0,0,0,0,0,0,0,-1,1350,1212,0,0
133,-188,0,0,0,0,0,0,0,0,0,-1,1357,1212,0,0
140,-188,0,0,0,0,0,0,0,0,0,-1,1364,1212,0,0
147,-188,0,0,0,0,0,0,0,0,0,-1,1371,1212,0,0
154,-188,0,0,0,0,0,0,0,0,0,-1,1378,1212,0,0
161,-188,0,0,0,0,0,0,0,0,0,-1,1385,1212,0,0
168,-188,0,0,0,0,0,0,0,0,0,-1,1392,1212,0,0
175,-188,0,0,0,0,0,0,0,0,0,-1,1399,1212,0,0
182,-188,0,0,0,0,0,0,0,0,0,-1,1406,1212,0,0
189,-188,0,0,0,0,0,0,0,0,0,-1,1413,1212,0,0
196,-188,0,0,0,0,0,0,0,0,0,-1,1420,1212,0,0
203,-188,0,0,0,0,0,0,0,0,0,-1,1427,1212,0,0
210,-188,0,0,0,0,0,0,0,0,0,-1,1434,1212,0,0
217,-188,0,0,0,0,0,0,0,0,0,-1,1441,1212,0,0
224,-188,0,0,0,0,0,0,0,0,0,-1,1448,1212,0,0
231,-188,0,0,0,0,0,0,0,0,0,-1,1455,1212,0,0
238,-188,0,0,0,0,0,0,0,0,0,-1,1462,1212,0,0
245,-188,0,0,0,0,0,0,0,0,0,-1,1469,1212,0,0
252,-188,0,0,0,0,0,0,0,0,0,-1,1476,1212,0,0
259,-188,0,0,0,0,0,0,0,0,0,-1,1483,1212,0,0
266,-188,0,0,0,0,0,0,0,0,0,-1,1490,1212,0,0
273,-188,0,0,0,0,0,0,0,0,0,-1,1497,1212,0,0
280,-188,0,0,0,0,0,0,0,0,0,-1,1504,1212,0,0
287,-188,0,0,0,0,0,0,0,0,0,-1,1511,1212,0,0
294,-188,0,0,0,0,0,0,0,0,0,-1,1518,1212,0,0
301,-188,0,0,0,0,0,0,0,0,0,-1,1525,1212,0,0
308,-188,0,0,0,0,0,0,0,0,0,-1,1532,1212,0,0
315,-188,0,0,0,0,0,0,0,0,0,-1,1539,1212,0,0
322,-188,0,0,0,0,0,0,0,0,0,-1,1546,1212,0,0
329,-188,0,0,0,0,0,0,0,0,0,-1,1553,1212,0,0
336,-188,0,0,0,0,0,0,0,0,0,-1,1560,1212,0,0
343,-188,0,0,0,0,0,0,0,0,0,-1,1567,1212,0,0
350,-188,0,0,0,0,0,0,0,0,0,-1,1574,1212,0,0
357,-188,0,0,0,0,0,0,0,0,0,-1,1581,1212,0,0
364,-188,0,0,0,0,0,0,0,0,0,-1,1588,1212,0,0
371,-188,0,0,0,0,0,0,0,0,0,-1,1595,1212,0,0
378,-188,0,0,0,0,0,0,0,0,0,-1,1602,1212,0,0
385,-188,0,0,0,0,0,0,0,0,0,-1,1609,1212,0,0
392,-188,0,0,0,0,0,0,0,0,0,-1,1616,1212,0,0
399,-188,0,0,0,0,0,0,0,0,0,-1,1623,1212,0,0
406,-188,0,0,0,0,0,0,0,0,0,-1,1630,1212,0,0
413,-188,0,0,0,0,0,0,0,0,0,-1,1637,1212,0,0
420,-188,0,0,0,0,0,0,0,0,0,-1,1644,1212,0,0
427,-188,0,0,0,0,0,0,0,0,0,-1,1651,1212,0,0
434,-188,0,0,0,0,0,0,0,0,0,-1,1658,1212,0,0
441,-188,0,0,0,0,0,0,0,0,0,-1,1665,1212,0,0
448,-188,0,0,0,0,0,0,0,0,0,-1,1672,1212,0,0
455,-188,0,0,0,0,0,0,0,0,0,-1,1679,1212,0,0
462,-188,0,0,0,0,0,0,0,0,0,-1,1686,1212,0,0
469,-188,0,0,0,0,0,0,0,0,0,-1,1693,1212,0,0
476,-188,0,0,0,0,0,0,0,0,0,-1,1700,1212,0,0
483,-188,0,0,0,0,0,0,0,0,0,-1,1707,1212,0,0
490,-188,0,0,0,0,0,0,0,0,0,-1,1714,1212,0,0
497,-188,0,0,0,0,0,0,0,0,0,-1,1721,1212,0,0
504,-188,0,0,0,0,0,0,0,0,0,-1,1728,1212,0,0
511,-188,0,0,0,0,0,0,0,0,0,-1,1735,1212,0,0
518,-188,0,0,0,0,0,0,0,0,0,-1,1742,1212,0,0
525,-188,0,0,0,0,0,0,0,0,0,-1,1749,1212,0,0
532,-188,0,0,0,0,0,0,0,0,0,-1,1756,1212,0,0
539,-188,0,0,0,0,0,0,0,0,0,-1,1763,1212,0,0
546,-188,0,0,0,0,0,0,0,0,0,-1,1770,1212,0,0
553,-188,0,0,0,0,0,0,0,0,0,-1,1777,1212,0,0
560,-188,0,0,0,0,0,0,0,0,0,-1,1784,1212,0,0
567,-188,0,0,0,0,0,0,0,0,0,-1,1791,1212,0,0
574,-188,0,0,0,0,0,0,0,0,0,-1,1798,1212,0,0
581,-188,0,0,0,0,0,0,0,0,0,-1,1805,1212,0,0
588,-188,0,0,0,0,0,0,0,0,0,-1,1812,1212,0,0
595,-188,0,0,0,0,0,0,0,0,0,-1,1819,1212,0,0
602,-188,0,0,0,0,0,0,0,0,0,-1,1826,1212,0,0
609,-188,0,0,0,0,0,0,0,0,0,-1,1833,1212,0,0
616,-188,0,0,0,0,0,0,0,0,0,-1,1840,1212,0,0
623,-188,0,0,0,0,0,0,0,0,0,-1,1847,1212,0,0
630,-188,71.4651,2.4032,0.00378165,-6.06315e-07,-0.000660807,0.00389378,-0.000112734,-0.168081,0.00263423,0.0414241,1854,1212,71.465,-2.40324
637,-188,71.5778,2.55115,0.00277752,0.000631269,-0.000914764,0.00311449,0.00029429,-0.352952,0.00198552,0.041609,1861,1212,71.5778,-2.55112
644,-188,71.5551,2.49695,0.00210001,0.00118173,-0.00128197,0.00300258,0.000279164,-0.613439,0.00191546,0.036177,1868,1212,71.5551,-2.49698
651,-188,71.4741,2.203,0.00169408,0.00166177,-0.00180753,0.00348553,-0.00012968,-0.78093,0.0023681,0.031632,1875,1212,71.4741,-2.20305
658,-188,71.4999,2.27954,0.00135527,0.00175753,-0.00206914,0.00363529,-0.000522486,-0.833848,0.00261514,0.0317664,1882,1212,71.4998,-2.27958
665,-188,71.4496,2.39233,0.00111933,0.00161306,-0.0020215,0.00340271,-0.000670319,-0.846157,0.00252179,0.0319546,1889,1212,71.4496,-2.39232
672,-188,71.4298,2.23853,0.00106162,0.00164357,-0.00182899,0.00320459,-0.000499395,-0.864282,0.00232084,0.0280048,1896,1212,71.4298,-2.23847
679,-188,71.4203,2.08667,0,0,0,0,0,0,0,-1,1903,1212,71.4202,-2.08661
686,-188,60.1007,2.41321,0,0,0,0,0,0,0,-1,1910,1212,60.1007,-2.41325
693,-188,35.9054,2.18042,0,0,0,0,0,0,0,-1,1917,1212,35.9054,-2.18038
700,-188,54.452,11.2678,0,0,0,0,0,0,0,-1,1924,1212,54.452,-11.2678
707,-188,58.6212,11.5363,0,0,0,0,0,0,0,-1,1931,1212,58.6212,-11.5363
714,-188,54.7506,10.1539,0,0,0,0,0,0,0,-1,1938,1212,54.7507,-10.1539
721,-188,57.8984,10.2744,0,0,0,0,0,0,0,-1,1945,1212,57.8984,-10.2744
728,-188,58.2347,9.38477,0.00149045,0.00160549,0.000337026,0.00188987,0.00120607,0.86992,0.00110492,0.0312962,1952,1212,58.2347,-9.38472
735,-188,58.2618,8.66736,0.00159521,0.00141197,0.000747787,0.00225697,0.000750212,0.724441,0.00132724,0.0136537,1959,1212,58.2618,-8.66742
742,-188,58.2278,8.00305,0.0016444,0.00144763,0.00134832,0.00289791,0.000194112,0.748979,0.0018706,0.0156396,1966,1212,58.2278,-8.003
749,-188,58.2222,7.33655,0.00174676,0.00166272,0.00225818,0.00396331,-0.000553825,0.776096,0.00284484,0.0153937,1973,1212,58.2221,-7.33659
756,-188,58.1709,6.66699,0.00202247,0.00203085,0.00345621,0.00548288,-0.00142956,0.786004,0.0042134,0.0141392,1980,1212,58.1709,-6.66695
763,-188,58.158,6.01611,0.00242341,0.00238784,0.00520761,0.00761327,-0.00280202,0.783691,0.00622345,0.0195642,1987,1212,58.158,-6.01606
770,-188,58.197,5.30713,0.00313969,0.00288643,0.0075138,0.0105279,-0.00450181,0.776973,0.00890689,0.0459387,1994,1212,58.197,-5.30708
777,-188,58.4138,4.62878,0,0,0,0,0,0,0,-1,2001,1212,58.4138,-4.62877
784,-188,67.2061,-0.0683594,0,0,0,0,0,0,0,-1,2008,1212,67.2062,0.0683892
791,-188,66.3975,1.17078,0,0,0,0,0,0,0,-1,2015,1212,66.3974,-1.17072
798,-188,65.8904,2.49292,0,0,0,0,0,0,0,-1,2022,1212,65.8905,-2.49295
805,-188,0,0,0,0,0,0,0,0,0,-1,2029,1212,0,0
812,-188,0,0,0,0,0,0,0,0,0,-1,2036,1212,0,0
-700,-195,0,0,0,0,0,0,0,0,0,-1,524,1219,0,0
-693,-195,0,0,0,0,0,0,0,0,0,-1,531,1219,0,0
-686,-195,0,0,0,0,0,0,0,0,0,-1,538,1219,0,0
-679,-195,-41.5242,-0.627319,0,0,0,0,0,0,0,-1,545,1219,-41.5242,0.627289
-672,-195,-42.2682,0.151001,0,0,0,0,0,0,0,-1,552,1219,-42.2682,-0.151019
-665,-195,-40.5304,0.259155,0,0,0,0,0,0,0,-1,559,1219,-40.5304,-0.259131
-658,-195,-39.795,1.255,0,0,0,0,0,0,0,-1,566,1219,-39.795,-1.25499
-651,-195,-41.585,2.67773,0,0,0,0,0,0,0,-1,573,1219,-41.585,-2.67777
-644,-195,-41.3918,3.25952,0,0,0,0,0,0,0,-1,580,1219,-41.3918,-3.25952
-637,-195,-41.196,3.84082,-0.00932745,0.0151402,-0.0103404,0.0189248,-0.0131121,-1.21994,0.0185977,0.0260243,587,1219,-41.196,-3.84077
-630,-195,-41.2728,4.47253,-0.00567061,0.0102575,-0.00698706,0.0128881,-0.00830112,-1.21072,0.0123288,0.00947694,594,1219,-41.2728,-4.47251
-623,-195,-41.312,5.17322,-0.00267926,0.00576819,-0.00476474,0.00791178,-0.00482285,-1.14804,0.00742409,0.00880007,601,1219,-41.312,-5.17317
-616,-195,-41.3181,5.90845,-0.00119652,0.00269594,-0.00301536,0.00433861,-0.00283919,-1.07198,0.00417413,0.0104191,608,1219,-41.3181,-5.90848
-609,-195,-41.3237,6.64502,-0.000848365,0.000867212,-0.00178353,0.00198851,-0.00196966,-1.00954,0.00228526,0.0187622,615,1219,-41.3237,-6.64497
-602,-195,-41.3788,7.29614,-0.000903188,-0.000221457,-0.00203763,0.00150362,-0.00262826,-0.868274,0.00241482,0.0241828,622,1219,-41.3788,-7.29609
-595,-195,-41.4207,8.05408,-0.00143842,-0.000353632,-0.00242222,0.00158618,-0.00337823,-0.895543,0.00292779,0.0389715,629,1219,-41.4207,-8.05408
-588,-195,-41.54,8.87952,0,0,0,0,0,0,0,-1,636,1219,-41.54,-8.87952
-581,-195,-41.5604,9.35876,0,0,0,0,0,0,0,-1,643,1219,-41.5604,-9.35874
-574,-195,-41.9058,9.79236,0,0,0,0,0,0,0,-1,650,1219,-41.9058,-9.7924
-567,-195,-20.6388,3.78369,0,0,0,0,0,0,0,-1,657,1219,-20.6388,-3.78369
-560,-195,-20.878,2.10388,0,0,0,0,0,0,0,-1,664,1219,-20.878,-2.10385
-553,-195,-41.595,0.613281,0,0,0,0,0,0,0,-1,671,1219,-41.595,-0.61334
-546,-195,-54.9608,0.519653,0,0,0,0,0,0,0,-1,678,1219,-54.9608,-0.519596
-539,-195,-55.0643,0.518188,-4.92138e-05,-0.000346241,-0.00507304,0.00487749,-0.00527294,-0.770765,0.00586184,0.0407045,685,1219,-55.0643,-0.518229
-532,-195,-55.2134,0.583618,6.4099e-05,-0.000228927,-0.00493054,0.0048503,-0.00501513,-0.770545,0.00569607,0.0364126,692,1219,-55.2134,-0.583566
-525,-195,-55.3352,0.793091,0.00394855,-0.00107925,-0.00453974,0.00662396,-0.00375466,-0.532538,0.00606795,0.039873,699,1219,-55.3352,-0.793041
-518,-195,-55.2991,0.788086,0.0123803,-0.00225824,-0.00425169,0.0135256,-0.00340352,-0.263125,0.01034,0.0397443,706,1219,-55.2991,-0.788027
-511,-195,-55.0197,0.689819,0.0229086,-0.00440134,-0.00402246,0.0234888,-0.00498148,-0.143237,0.0175569,0.0407877,713,1219,-55.0197,-0.689832
-504,-195,0,0,0,0,0,0,0,0,0,-1,720,1219,0,0
-497,-195,0,0,0,0,0,0,0,0,0,-1,727,1219,0,0
-490,-195,0,0,0,0,0,0,0,0,0,-1,734,1219,0,0
-483,-195,0,0,0,0,0,0,0,0,0,-1,741,1219,0,0
-476,-195,0,0,0,0,0,0,0,0,0,-1,748,1219,0,0
-469,-195,0,0,0,0,0,0,0,0,0,-1,755,1219,0,0
-462,-195,0,0,0,0,0,0,0,0,0,-1,762,1219,0,0
-455,-195,0,0,0,0,0,0,0,0,0,-1,769,1219,0,0
-448,-195,0,0,0,0,0,0,0,0,0,-1,776,1219,0,0
-441,-195,0,0,0,0,0,0,0,0,0,-1,783,1219,0,0
-434,-195,0,0,0,0,0,0,0,0,0,-1,790,1219,0,0
-427,-195,0,0,0,0,0,0,0,0,0,-1,797,1219,0,0
-420,-195,0,0,0,0,0,0,0,0,0,-1,804,1219,0,0
-413,-195,0,0,0,0,0,0,0,0,0,-1,811,1219,0,0
-406,-195,0,0,0,0,0,0,0,0,0,-1,818,1219,0,0
-399,-195,0,0,0,0,0,0,0,0,0,-1,825,1219,0,0
-392,-195,0,0,0,0,0,0,0,0,0,-1,832,1219,0,0
-385,-195,0,0,0,0,0,0,0,0,0,-1,839,1219,0,0
-378,-195,0,0,0,0,0,0,0,0,0,-1,846,1219,0,0
-371,-195,0,0,0,0,0,0,0,0,0,-1,853,1219,0,0
-364,-195,0,0,0,0,0,0,0,0,0,-1,860,1219,0,0
-357,-195,0,0,0,0,0,0,0,0,0,-1,867,1219,0,0
-350,-195,0,0,0,0,0,0,0,0,0,-1,874,1219,0,0
-343,-195,0,0,0,0,0,0,0,0,0,-1,881,1219,0,0
-336,-195,0,0,0,0,0,0,0,0,0,-1,888,1219,0,0
-329,-195,0,0,0,0,0,0,0,0,0,-1,895,1219,0,0
-322,-195,0,0,0,0,0,0,0,0,0,-1,902,1219,0,0
-315,-195,0,0,0,0,0,0,0,0,0,-1,909,1219,0,0
-308,-195,0,0,0,0,0,0,0,0,0,-1,916,1219,0,0
-301,-195,0,0,0,0,0,0,0,0,0,-1,923,1219,0,0
-294,-195,0,0,0,0,0,0,0,0,0,-1,930,1219,0,0
-287,-195,0,0,0,0,0,0,0,0,0,-1,937,1219,0,0
-280,-195,0,0,0,0,0,0,0,0,0,-1,944,1219,0,0
-273,-195,0,0,0,0,0,0,0,0,0,-1,951,1219,0,0
-266,-195,0,0,0,0,0,0,0,0,0,-1,958,1219,0,0
-259,-195,0,0,0,0,0,0,0,0,0,-1,965,1219,0,0
-252,-195,0,0,0,0,0,0,0,0,0,-1,972,1219,0,0
-245,-195,0,0,0,0,0,0,0,0,0,-1,979,1219,0,0
-238,-195,0,0,0,0,0,0,0,0,0,-1,986,1219,0,0
-231,-195,0,0,0,0,0,0,0,0,0,-1,993,1219,0,0
-224,-195,0,0,0,0,0,0,0,0,0,-1,1000,1219,0,0
-217,-195,0,0,0,0,0,0,0,0,0,-1,1007,1219,0,0
-210,-195,0,0,0,0,0,0,0,0,0,-1,1014,1219,0,0
-203,-195,0,0,0,0,0,0,0,0,0,-1,1021,1219,0,0
-196,-195,0,0,0,0,0,0,0,0,0,-1,1028,1219,0,0
-189,-195,0,0,0,0,0,0,0,0,0,-1,1035,1219,0,0
-182,-195,0,0,0,0,0,0,0,0,0,-1,1042,1219,0,0
-175,-195,0,0,0,0,0,0,0,0,0,-1,1049,1219,0,0
-168,-195,0,0,0,0,0,0,0,0,0,-1,1056,1219,0,0
-161,-195,0,0,0,0,0,0,0,0,0,-1,1063,1219,0,0
-154,-195,0,0,0,0,0,0,0,0,0,-1,1070,1219,0,0
-147,-195,0,0,0,0,0,0,0,0,0,-1,1077,1219,0,0
-140,-195,0,0,0,0,0,0,0,0,0,-1,1084,1219,0,0
-133,-195,0,0,0,0,0,0,0,0,0,-1,1091,1219,0,0
-126,-195,0,0,0,0,0,0,0,0,0,-1,1098,1219,0,0
-119,-195,0,0,0,0,0,0,0,0,0,-1,1105,1219,0,0
-112,-195,0,0,0,0,0,0,0,0,0,-1,1112,1219,0,0
-105,-195,0,0,0,0,0,0,0,0,0,-1,1119,1219,0,0
-98,-195,0,0,0,0,0,0,0,0,0,-1,1126,1219,0,0
-91,-195,0,0,0,0,0,0,0,0,0,-1,1133,1219,0,0
-84,-195,0,0,0,0,0,0,0,0,0,-1,1140,1219,0,0
-77,-195,0,0,0,0,0,0,0,0,0,-1,1147,1219,0,0
-70,-195,0,0,0,0,0,0,0,0,0,-1,1154,1219,0,0
-63,-195,0,0,0,0,0,0,0,0,0,-1,1161,1219,0,0
-56,-195,0,0,0,0,0,0,0,0,0,-1,1168,1219,0,0
-49,-195,0,0,0,0,0,0,0,0,0,-1,1175,1219,0,0
-42,-195,0,0,0,0,0,0,0,0,0,-1,1182,1219,0,0
-35,-195,0,0,0,0,0,0,0,0,0,-1,1189,1219,0,0
-28,-195,0,0,0,0,0,0,0,0,0,-1,1196,1219,0,0
-21,-195,0,0,0,0,0,0,0,0,0,-1,1203,1219,0,0
-14,-195,0,0,0,0,0,0,0,0,0,-1,1210,1219,0,0
-7,-195,0,0,0,0,0,0,0,0,0,-1,1217,1219,0,0
0,-195,0,0,0,0,0,0,0,0,0,-1,1224,1219,0,0
7,-195,0,0,0,0,0,0,0,0,0,-1,1231,1219,0,0
14,-195,0,0,0,0,0,0,0,0,0,-1,1238,1219,0,0
21,-195,0,0,0,0,0,0,0,0,0,-1,1245,1219,0,0
28,-195,0,0,0,0,0,0,0,0,0,-1,1252,1219,0,0
35,-195,0,0,0,0,0,0,0,0,0,-1,1259,1219,0,0
42,-195,0,0,0,0,0,0,0,0,0,-1,1266,1219,0,0
49,-195,0,0,0,0,0,0,0,0,0,-1,1273,1219,0,0
56,-195,0,0,0,0,0,0,0,0,0,-1,1280,1219,0,0
63,-195,0,0,0,0,0,0,0,0,0,-1,1287,1219,0,0
70,-195,0,0,0,0,0,0,0,0,0,-1,1294,1219,0,0
77,-195,0,0,0,0,0,0,0,0,0,-1,1301,1219,0,0
84,-195,0,0,0,0,0,0,0,0,0,-1,1308,1219,0,0
91,-195,0,0,0,0,0,0,0,0,0,-1,1315,1219,0,0
98,-195,0,0,0,0,0,0,0,0,0,-1,1322,1219,0,0
105,-195,0,0,0,0,0,0,0,0,0,-1,1329,1219,0,0
112,-195,0,0,0,0,0,0,0,0,0,-1,1336,1219,0,0
119,-195,0,0,0,0,0,0,0,0,0,-1,1343,1219,0,0
126,-195,0,0,0,0,0,0,0,0,0,-1,1350,1219,0,0
133,-195,0,0,0,0,0,0,0,0,0,-1,1357,1219,0,0
140,-195,0,0,0,0,0,0,0,0,0,-1,1364,1219,0,0
147,-195,0,0,0,0,0,0,0,0,0,-1,1371,1219,0,0
154,-195,0,0,0,0,0,0,0,0,0,-1,1378,1219,0,0
161,-195,0,0,0,0,0,0,0,0,0,-1,1385,1219,0,0
168,-195,0,0,0,0,0,0,0,0,0,-1,1392,1219,0,0
175,-195,0,0,0,0,0,0,0,0,0,-1,1399,1219,0,0
182,-195,0,0,0,0,0,0,0,0,0,-1,1406,1219,0,0
189,-195,0,0,0,0,0,0,0,0,0,-1,1413,1219,0,0
196,-195,0,0,0,0,0,0,0,0,0,-1,1420,1219,0,0
203,-195,0,0,0,0,0,0,0,0,0,-1,1427,1219,0,0
210,-195,0,0,0,0,0,0,0,0,0,-1,1434,1219,0,0
217,-195,0,0,0,0,0,0,0,0,0,-1,1441,1219,0,0
224,-195,0,0,0,0,0,0,0,0,0,-1,1448,1219,0,0
231,-195,0,0,0,0,0,0,0,0,0,-1,1455,1219,0,0
238,-195,0,0,0,0,0,0,0,0,0,-1,1462,1219,0,0
245,-195,0,0,0,0,0,0,0,0,0,-1,1469,1219,0,0
252,-195,0,0,0,0,0,0,0,0,0,-1,1476,1219,0,0
259,-195,0,0,0,0,0,0,0,0,0,-1,1483,1219,0,0
266,-195,0,0,0,0,0,0,0,0,0,-1,1490,1219,0,0
273,-195,0,0,0,0,0,0,0,0,0,-1,1497,1219,0,0
280,-195,0,0,0,0,0,0,0,0,0,-1,1504,1219,0,0
287,-195,0,0,0,0,0,0,0,0,0,-1,1511,1219,0,0
294,-195,0,0,0,0,0,0,0,0,0,-1,1518,1219,0,0
301,-195,0,0,0,0,0,0,0,0,0,-1,1525,1219,0,0
308,-195,0,0,0,0,0,0,0,0,0,-1,1532,1219,0,0
315,-195,0,0,0,0,0,0,0,0,0,-1,1539,1219,0,0
322,-195,0,0,0,0,0,0,0,0,0,-1,1546,1219,0,0
329,-195,0,0,0,0,0,0,0,0,0,-1,1553,1219,0,0
336,-195,0,0,0,0,0,0,0,0,0,-1,1560,1219,0,0
343,-195,0,0,0,0,0,0,0,0,0,-1,1567,1219,0,0
350,-195,0,0,0,0,0,0,0,0,0,-1,1574,1219,0,0
357,-195,0,0,0,0,0,0,0,0,0,-1,1581,1219,0,0
364,-195,0,0,0,0,0,0,0,0,0,-1,1588,1219,0,0
371,-195,0,0,0,0,0,0,0,0,0,-1,1595,1219,0,0
378,-195,0,0,0,0,0,0,0,0,0,-1,1602,1219,0,0
385,-195,0,0,0,0,0,0,0,0,0,-1,1609,1219,0,0
392,-195,0,0,0,0,0,0,0,0,0,-1,1616,1219,0,0
399,-195,0,0,0,0,0,0,0,0,0,-1,1623,1219,0,0
406,-195,0,0,0,0,0,0,0,0,0,-1,1630,1219,0,0
413,-195,0,0,0,0,0,0,0,0,0,-1,1637,1219,0,0
420,-195,0,0,0,0,0,0,0,0,0,-1,1644,1219,0,0
427,-195,0,0,0,0,0,0,0,0,0,-1,1651,1219,0,0
434,-195,0,0,0,0,0,0,0,0,0,-1,1658,1219,0,0
441,-195,0,0,0,0,0,0,0,0,0,-1,1665,1219,0,0
448,-195,0,0,0,0,0,0,0,0,0,-1,1672,1219,0,0
455,-195,0,0,0,0,0,0,0,0,0,-1,1679,1219,0,0
462,-195,0,0,0,0,0,0,0,0,0,-1,1686,1219,0,0
469,-195,0,0,0,0,0,0,0,0,0,-1,1693,1219,0,0
476,-195,0,0,0,0,0,0,0,0,0,-1,1700,1219,0,0
483,-195,0,0,0,0,0,0,0,0,0,-1,1707,1219,0,0
490,-195,0,0,0,0,0,0,0,0,0,-1,1714,1219,0,0
497,-195,0,0,0,0,0,0,0,0,0,-1,1721,1219,0,0
504,-195,0,0,0,0,0,0,0,0,0,-1,1728,1219,0,0
511,-195,0,0,0,0,0,0,0,0,0,-1,1735,1219,0,0
518,-195,0,0,0,0,0,0,0,0,0,-1,1742,1219,0,0
525,-195,0,0,0,0,0,0,0,0,0,-1,1749,1219,0,0
532,-195,0,0,0,0,0,0,0,0,0,-1,1756,1219,0,0
539,-195,0,0,0,0,0,0,0,0,0,-1,1763,1219,0,0
546,-195,0,0,0,0,0,0,0,0,0,-1,1770,1219,0,0
553,-195,0,0,0,0,0,0,0,0,0,-1,1777,1219,0,0
560,-195,0,0,0,0,0,0,0,0,0,-1,1784,1219,0,0
567,-195,0,0,0,0,0,0,0,0,0,-1,1791,1219,0,0
574,-195,0,0,0,0,0,0,0,0,0,-1,1798,1219,0,0
581,-195,0,0,0,0,0,0,0,0,0,-1,1805,1219,0,0
588,-195,0,0,0,0,0,0,0,0,0,-1,1812,1219,0,0
595,-195,0,0,0,0,0,0,0,0,0,-1,1819,1219,0,0
602,-195,0,0,0,0,0,0,0,0,0,-1,1826,1219,0,0
609,-195,0,0,0,0,0,0,0,0,0,-1,1833,1219,0,0
616,-195,0,0,0,0,0,0,0,0,0,-1,1840,1219,0,0
623,-195,0,0,0,0,0,0,0,0,0,-1,1847,1219,0,0
630,-195,71.4757,2.38281,0.00354039,0.00053691,-0.000357372,0.00358233,0.000494974,-0.116813,0.00224152,0.0421636,1854,1219,71.4757,-2.38281
637,-195,71.5626,2.32629,0.00250563,0.00121821,-0.000763297,0.00286041,0.00086343,-0.435094,0.00169413,0.0409967,1861,1219,71.5627,-2.32635
644,-195,71.4889,2.29675,0.0018175,0.0017513,-0.0012611,0.00304593,0.000522868,-0.772277,0.00188072,0.0355944,1868,1219,71.4889,-2.29681
651,-195,71.5155,2.22607,0.00151541,0.0020769,-0.00188636,0.0037033,-0.000110987,-0.859269,0.00250668,0.0278681,1875,1219,71.5155,-2.22603
658,-195,71.493,2.29126,0.00129421,0.00182716,-0.00202693,0.00360506,-0.000483692,-0.850757,0.00257976,0.0253274,1882,1219,71.493,-2.29123
665,-195,71.4656,2.31238,0.001196,0.00139489,-0.00188037,0.00317844,-0.000587551,-0.811817,0.00233954,0.0236056,1889,1219,71.4655,-2.31238
672,-195,71.4583,2.05725,0.0012342,0.00121183,-0.00165569,0.00287875,-0.000432716,-0.782021,0.00207847,0.0377443,1896,1219,71.4582,-2.0573
679,-195,71.3866,1.78088,0,0,0,0,0,0,0,-1,1903,1219,71.3866,-1.78088
686,-195,51.2117,1.94312,0,0,0,0,0,0,0,-1,1910,1219,51.2117,-1.9431
693,-195,24.4368,5.68298,0,0,0,0,0,0,0,-1,1917,1219,24.4368,-5.68293
700,-195,57.8602,12.1241,0,0,0,0,0,0,0,-1,1924,1219,57.8603,-12.1241
707,-195,57.8137,11.4182,0,0,0,0,0,0,0,-1,1931,1219,57.8138,-11.4183
714,-195,57.8417,11.0167,0,0,0,0,0,0,0,-1,1938,1219,57.8417,-11.0167
721,-195,57.4967,10.2338,0,0,0,0,0,0,0,-1,1945,1219,57.4967,-10.2337
728,-195,57.5786,9.43201,0.00130643,0.00110304,0.000595078,0.00180844,0.000601031,0.700767,0.00106349,0.0119396,1952,1219,57.5787,-9.43204
735,-195,57.5935,8.66418,0.00132506,0.00111174,0.00100576,0.0022298,0.000206993,0.73257,0.00142257,0.0121857,1959,1219,57.5936,-8.66417
742,-195,57.5725,8.01331,0.00128843,0.00120544,0.00163432,0.00288178,-0.000387912,0.772707,0.00206268,0.0146574,1966,1219,57.5725,-8.01335
749,-195,57.5366,7.36133,0.00132201,0.00134818,0.00253809,0.00387322,-0.00120303,0.787976,0.00306295,0.015222,1973,1219,57.5366,-7.3613
756,-195,57.4854,6.70654,0.00154804,0.00161748,0.00368908,0.005272,-0.00210649,0.790103,0.00438871,0.0152754,1980,1219,57.4854,-6.70652
763,-195,57.4817,6.01953,0.00188532,0.00186676,0.00543072,0.00730677,-0.00355469,0.784544,0.00639438,0.0227117,1987,1219,57.4817,-6.01954
770,-195,57.4087,5.42175,0.00258665,0.00235475,0.00770039,0.010172,-0.00523057,0.77787,0.00904391,0.0472156,1994,1219,57.4087,-5.42176
777,-195,57.4258,4.97034,0,0,0,0,0,0,0,-1,2001,1219,57.4258,-4.97032
784,-195,66.8708,0.396484,0,0,0,0,0,0,0,-1,2008,1219,66.8709,-0.396515
791,-195,66.4263,1.44348,0,0,0,0,0,0,0,-1,2015,1219,66.4263,-1.44344
798,-195,66.05,2.49902,0,0,0,0,0,0,0,-1,2022,1219,66.0501,-2.499
805,-195,0,0,0,0,0,0,0,0,0,-1,2029,1219,0,0
812,-195,0,0,0,0,0,0,0,0,0,-1,2036,1219,0,0
-700,-202,0,0,0,0,0,0,0,0,0,-1,524,1226,0,0
-693,-202,0,0,0,0,0,0,0,0,0,-1,531,1226,0,0
-686,-202,0,0,0,0,0,0,0,0,0,-1,538,1226,0,0
-679,-202,-40.609,-0.679077,0,0,0,0,0,0,0,-1,545,1226,-40.609,0.67909
-672,-202,-41.1191,0.0892334,0,0,0,0,0,0,0,-1,552,1226,-41.1191,-0.0892198
-665,-202,-40.3919,0.584717,0,0,0,0,0,0,0,-1,559,1226,-40.3919,-0.584675
-658,-202,-38.7341,3.04883,0,0,0,0,0,0,0,-1,566,1226,-38.7341,-3.04878
-651,-202,-38.6968,2.58691,0,0,0,0,0,0,0,-1,573,1226,-38.6969,-2.58695
-644,-202,-40.3397,2.93994,0,0,0,0,0,0,0,-1,580,1226,-40.3397,-2.94
-637,-202,-40.4414,3.86365,0,0,0,0,0,0,0,-1,587,1226,-40.4414,-3.8636
-630,-202,-40.5502,4.45154,-0.00343856,0.00964965,-0.00680004,0.012543,-0.00633192,-1.16851,0.0110924,0.0223385,594,1226,-40.5502,-4.45154
-623,-202,-40.5834,5.18396,-0.00109488,0.00540738,-0.00457043,0.00776505,-0.00345256,-1.09455,0.0066341,0.00948897,601,1226,-40.5834,-5.18401
-616,-202,-40.6003,5.91309,-0.000130943,0.00279489,-0.00293025,0.0046071,-0.00194316,-1.01692,0.00388465,0.00941721,608,1226,-40.6003,-5.91303
-609,-202,-40.568,6.64014,-0.000151521,0.00124765,-0.00151716,0.00221875,-0.00112262,-1.00143,0.00196344,0.0237785,615,1226,-40.568,-6.64017
-602,-202,-40.6428,7.29688,-0.000319568,-7.85388e-05,-0.00171006,0.00151525,-0.00191336,-0.820577,0.00198395,0.0242492,622,1226,-40.6428,-7.29687
-595,-202,-40.831,8.09485,-0.000796059,-0.000650115,-0.00199172,0.00126997,-0.00271614,-0.803709,0.00235132,0.0258657,629,1226,-40.831,-8.09486
-588,-202,-40.8613,8.74329,-0.00166891,-0.000704389,-0.00250502,0.00136437,-0.00373767,-0.880494,0.00305005,0.024635,636,1226,-40.8613,-8.74328
-581,-202,-40.747,9.35669,0,0,0,0,0,0,0,-1,643,1226,-40.747,-9.35673
-574,-202,-40.8848,9.99609,0,0,0,0,0,0,0,-1,650,1226,-40.8848,-9.9961
-567,-202,-22.1768,4.56995,0,0,0,0,0,0,0,-1,657,1226,-22.1768,-4.56991
-560,-202,-10.929,2.73096,0,0,0,0,0,0,0,-1,664,1226,-10.929,-2.73092
-553,-202,-30.2701,1.474,0,0,0,0,0,0,0,-1,671,1226,-30.2701,-1.47395
-546,-202,-53.2803,0.580933,0,0,0,0,0,0,0,-1,678,1226,-53.2803,-0.580945
-539,-202,-54.9962,0.553833,0,0,0,0,0,0,0,-1,685,1226,-54.9962,-0.55388
-532,-202,-55.1266,0.568359,0.000536749,-0.00129195,-0.00404887,0.00377323,-0.00452843,-0.674347,0.00479957,0.0296729,692,1226,-55.1266,-0.568336
-525,-202,-55.2613,0.645996,0.00274917,-0.00192216,-0.00358291,0.00469049,-0.00386348,-0.496547,0.00494632,0.0329107,699,1226,-55.2613,-0.645987
-518,-202,-55.2566,0.716064,0.00853031,-0.00234369,-0.00308632,0.00934522,-0.0031586,-0.258147,0.00750785,0.038652,706,1226,-55.2566,-0.716037
-511,-202,-54.8632,0.681519,0.0177543,-0.00399099,-0.00259964,0.0180607,-0.00429746,-0.117346,0.0136995,0.0405012,713,1226,-54.8632,-0.681518
-504,-202,0,0,0,0,0,0,0,0,0,-1,720,1226,0,0
-497,-202,0,0,0,0,0,0,0,0,0,-1,727,1226,0,0
-490,-202,0,0,0,0,0,0,0,0,0,-1,734,1226,0,0
-483,-202,0,0,0,0,0,0,0,0,0,-1,741,1226,0,0
-476,-202,0,0,0,0,0,0,0,0,0,-1,748,1226,0,0
-469,-202,0,0,0,0,0,0,0,0,0,-1,755,1226,0,0
-462,-202,0,0,0,0,0,0,0,0,0,-1,762,1226,0,0
-455,-202,0,0,0,0,0,0,0,0,0,-1,769,1226,0,0
-448,-202,0,0,0,0,0,0,0,0,0,-1,776,1226,0,0
-441,-202,0,0,0,0,0,0,0,0,0,-1,783,1226,0,0
-434,-202,0,0,0,0,0,0,0,0,0,-1,790,1226,0,0
-427,-202,0,0,0,0,0,0,0,0,0,-1,797,1226,0,0
-420,-202,0,0,0,0,0,0,0,0,0,-1,804,1226,0,0
-413,-202,0,0,0,0,0,0,0,0,0,-1,811,1226,0,0
-406,-202,0,0,0,0,0,0,0,0,0,-1,818,1226,0,0
-399,-202,0,0,0,0,0,0,0,0,0,-1,825,1226,0,0
-392,-202,0,0,0,0,0,0,0,0,0,-1,832,1226,0,0
-385,-202,0,0,0,0,0,0,0,0,0,-1,839,1226,0,0
-378,-202,0,0,0,0,0,0,0,0,0,-1,846,1226,0,0
-371,-202,0,0,0,0,0,0,0,0,0,-1,853,1226,0,0
-364,-202,0,0,0,0,0,0,0,0,0,-1,860,1226,0,0
-357,-202,0,0,0,0,0,0,0,0,0,-1,867,1226,0,0
-350,-202,0,0,0,0,0,0,0,0,0,-1,874,1226,0,0
-343,-202,0,0,0,0,0,0,0,0,0,-1,881,1226,0,0
-336,-202,0,0,0,0,0,0,0,0,0,-1,888,1226,0,0
-329,-202,0,0,0,0,0,0,0,0,0,-1,895,1226,0,0
-322,-202,0,0,0,0,0,0,0,0,0,-1,902,1226,0,0
-315,-202,0,0,0,0,0,0,0,0,0,-1,909,1226,0,0
-308,-202,0,0,0,0,0,0,0,0,0,-1,916,1226,0,0
-301,-202,0,0,0,0,0,0,0,0,0,-1,923,1226,0,0
-294,-202,0,0,0,0,0,0,0,0,0,-1,930,1226,0,0
-287,-202,0,0,0,0,0,0,0,0,0,-1,937,1226,0,0
-280,-202,0,0,0,0,0,0,0,0,0,-1,944,1226,0,0
-273,-202,0,0,0,0,0,0,0,0,0,-1,951,1226,0,0
-266,-202,0,0,0,0,0,0,0,0,0,-1,958,1226,0,0
-259,-202,0,0,0,0,0,0,0,0,0,-1,965,1226,0,0
-252,-202,0,0,0,0,0,0,0,0,0,-1,972,1226,0,0
-245,-202,0,0,0,0,0,0,0,0,0,-1,979,1226,0,0
-238,-202,0,0,0,0,0,0,0,0,0,-1,986,1226,0,0
-231,-202,0,0,0,0,0,0,0,0,0,-1,993,1226,0,0
-224,-202,0,0,0,0,0,0,0,0,0,-1,1000,1226,0,0
-217,-202,0,0,0,0,0,0,0,0,0,-1,1007,1226,0,0
-210,-202,0,0,0,0,0,0,0,0,0,-1,1014,1226,0,0
-203,-202,0,0,0,0,0,0,0,0,0,-1,1021,1226,0,0
-196,-202,0,0,0,0,0,0,0,0,0,-1,1028,1226,0,0
-189,-202,0,0,0,0,0,0,0,0,0,-1,1035,1226,0,0
-182,-202,0,0,0,0,0,0,0,0,0,-1,1042,1226,0,0
-175,-202,0,0,0,0,0,0,0,0,0,-1,1049,1226,0,0
-168,-202,0,0,0,0,0,0,0,0,0,-1,1056,1226,0,0
-161,-202,0,0,0,0,0,0,0,0,0,-1,1063,1226,0,0
-154,-202,0,0,0,0,0,0,0,0,0,-1,1070,1226,0,0
-147,-202,0,0,0,0,0,0,0,0,0,-1,1077,1226,0,0
-140,-202,0,0,0,0,0,0,0,0,0,-1,1084,1226,0,0
-133,-202,0,0,0,0,0,0,0,0,0,-1,1091,1226,0,0
-126,-202,0,0,0,0,0,0,0,0,0,-1,1098,1226,0,0
-119,-202,0,0,0,0,0,0,0,0,0,-1,1105,1226,0,0
-112,-202,0,0,0,0,0,0,0,0,0,-1,1112,1226,0,0
-105,-202,0,0,0,0,0,0,0,0,0,-1,1119,1226,0,0
-98,-202,0,0,0,0,0,0,0,0,0,-1,1126,1226,0,0
-91,-202,0,0,0,0,0,0,0,0,0,-1,1133,1226,0,0
-84,-202,0,0,0,0,0,0,0,0,0,-1,1140,1226,0,0
-77,-202,0,0,0,0,0,0,0,0,0,-1,1147,1226,0,0
-70,-202,0,0,0,0,0,0,0,0,0,-1,1154,1226,0,0
-63,-202,0,0,0,0,0,0,0,0,0,-1,1161,1226,0,0
-56,-202,0,0,0,0,0,0,0,0,0,-1,1168,1226,0,0
-49,-202,0,0,0,0,0,0,0,0,0,-1,1175,1226,0,0
-42,-202,0,0,0,0,0,0,0,0,0,-1,1182,1226,0,0
-35,-202,0,0,0,0,0,0,0,0,0,-1,1189,1226,0,0
-28,-202,0,0,0,0,0,0,0,0,0,-1,1196,1226,0,0
-21,-202,0,0,0,0,0,0,0,0,0,-1,1203,1226,0,0
-14,-202,0,0,0,0,0,0,0,0,0,-1,1210,1226,0,0
-7,-202,0,0,0,0,0,0,0,0,0,-1,1217,1226,0,0
0,-202,0,0,0,0,0,0,0,0,0,-1,1224,1226,0,0
7,-202,0,0,0,0,0,0,0,0,0,-1,1231,1226,0,0
14,-202,0,0,0,0,0,0,0,0,0,-1,1238,1226,0,0
21,-202,0,0,0,0,0,0,0,0,0,-1,1245,1226,0,0
28,-202,0,0,0,0,0,0,0,0,0,-1,1252,1226,0,0
35,-202,0,0,0,0,0,0,0,0,0,-1,1259,1226,0,0
42,-202,0,0,0,0,0,0,0,0,0,-1,1266,1226,0,0
49,-202,0,0,0,0,0,0,0,0,0,-1,1273,1226,0,0
56,-202,0,0,0,0,0,0,0,0,0,-1,1280,1226,0,0
63,-202,0,0,0,0,0,0,0,0,0,-1,1287,1226,0,0
70,-202,0,0,0,0,0,0,0,0,0,-1,1294,1226,0,0
77,-202,0,0,0,0,0,0,0,0,0,-1,1301,1226,0,0
84,-202,0,0,0,0,0,0,0,0,0,-1,1308,1226,0,0
91,-202,0,0,0,0,0,0,0,0,0,-1,1315,1226,0,0
98,-202,0,0,0,0,0,0,0,0,0,-1,1322,1226,0,0
105,-202,0,0,0,0,0,0,0,0,0,-1,1329,1226,0,0
112,-202,0,0,0,0,0,0,0,0,0,-1,1336,1226,0,0
119,-202,0,0,0,0,0,0,0,0,0,-1,1343,1226,0,0
126,-202,0,0,0,0,0,0,0,0,0,-1,1350,1226,0,0
133,-202,0,0,0,0,0,0,0,0,0,-1,1357,1226,0,0
140,-202,0,0,0,0,0,0,0,0,0,-1,1364,1226,0,0
147,-202,0,0,0,0,0,0,0,0,0,-1,1371,1226,0,0
154,-202,0,0,0,0,0,0,0,0,0,-1,1378,1226,0,0
161,-202,0,0,0,0,0,0,0,0,0,-1,1385,1226,0,0
168,-202,0,0,0,0,0,0,0,0,0,-1,1392,1226,0,0
175,-202,0,0,0,0,0,0,0,0,0,-1,1399,1226,0,0
182,-202,0,0,0,0,0,0,0,0,0,-1,1406,1226,0,0
189,-202,0,0,0,0,0,0,0,0,0,-1,1413,1226,0,0
196,-202,0,0,0,0,0,0,0,0,0,-1,1420,1226,0,0
203,-202,0,0,0,0,0,0,0,0,0,-1,1427,1226,0,0
210,-202,0,0,0,0,0,0,0,0,0,-1,1434,1226,0,0
217,-202,0,0,0,0,0,0,0,0,0,-1,1441,1226,0,0
224,-202,0,0,0,0,0,0,0,0,0,-1,1448,1226,0,0
231,-202,0,0,0,0,0,0,0,0,0,-1,1455,1226,0,0
238,-202,0,0,0,0,0,0,0,0,0,-1,1462,1226,0,0
245,-202,0,0,0,0,0,0,0,0,0,-1,1469,1226,0,0
252,-202,0,0,0,0,0,0,0,0,0,-1,1476,1226,0,0
259,-202,0,0,0,0,0,0,0,0,0,-1,1483,1226,0,0
266,-202,0,0,0,0,0,0,0,0,0,-1,1490,1226,0,0
273,-202,0,0,0,0,0,0,0,0,0,-1,1497,1226,0,0
280,-202,0,0,0,0,0,0,0,0,0,-1,1504,1226,0,0
287,-202,0,0,0,0,0,0,0,0,0,-1,1511,1226,0,0
294,-202,0,0,0,0,0,0,0,0,0,-1,1518,1226,0,0
301,-202,0,0,0,0,0,0,0,0,0,-1,1525,1226,0,0
308,-202,0,0,0,0,0,0,0,0,0,-1,1532,1226,0,0
315,-202,0,0,0,0,0,0,0,0,0,-1,1539,1226,0,0
322,-202,0,0,0,0,0,0,0,0,0,-1,1546,1226,0,0
329,-202,0,0,0,0,0,0,0,0,0,-1,1553,1226,0,0
336,-202,0,0,0,0,0,0,0,0,0,-1,1560,1226,0,0
343,-202,0,0,0,0,0,0,0,0,0,-1,1567,1226,0,0
350,-202,0,0,0,0,0,0,0,0,0,-1,1574,1226,0,0
357,-202,0,0,0,0,0,0,0,0,0,-1,1581,1226,0,0
364,-202,0,0,0,0,0,0,0,0,0,-1,1588,1226,0,0
371,-202,0,0,0,0,0,0,0,0,0,-1,1595,1226,0,0
378,-202,0,0,0,0,0,0,0,0,0,-1,1602,1226,0,0
385,-202,0,0,0,0,0,0,0,0,0,-1,1609,1226,0,0
392,-202,0,0,0,0,0,0,0,0,0,-1,1616,1226,0,0
399,-202,0,0,0,0,0,0,0,0,0,-1,1623,1226,0,0
406,-202,0,0,0,0,0,0,0,0,0,-1,1630,1226,0,0
413,-202,0,0,0,0,0,0,0,0,0,-1,1637,1226,0,0
420,-202,0,0,0,0,0,0,0,0,0,-1,1644,1226,0,0
427,-202,0,0,0,0,0,0,0,0,0,-1,1651,1226,0,0
434,-202,0,0,0,0,0,0,0,0,0,-1,1658,1226,0,0
441,-202,0,0,0,0,0,0,0,0,0,-1,1665,1226,0,0
448,-202,0,0,0,0,0,0,0,0,0,-1,1672,1226,0,0
455,-202,0,0,0,0,0,0,0,0,0,-1,1679,1226,0,0
462,-202,0,0,0,0,0,0,0,0,0,-1,1686,1226,0,0
469,-202,0,0,0,0,0,0,0,0,0,-1,1693,1226,0,0
476,-202,0,0,0,0,0,0,0,0,0,-1,1700,1226,0,0
483,-202,0,0,0,0,0,0,0,0,0,-1,1707,1226,0,0
490,-202,0,0,0,0,0,0,0,0,0,-1,1714,1226,0,0
497,-202,0,0,0,0,0,0,0,0,0,-1,1721,1226,0,0
504,-202,0,0,0,0,0,0,0,0,0,-1,1728,1226,0,0
511,-202,0,0,0,0,0,0,0,0,0,-1,1735,1226,0,0
518,-202,0,0,0,0,0,0,0,0,0,-1,1742,1226,0,0
525,-202,0,0,0,0,0,0,0,0,0,-1,1749,1226,0,0
532,-202,0,0,0,0,0,0,0,0,0,-1,1756,1226,0,0
539,-202,0,0,0,0,0,0,0,0,0,-1,1763,1226,0,0
546,-202,0,0,0,0,0,0,0,0,0,-1,1770,1226,0,0
553,-202,0,0,0,0,0,0,0,0,0,-1,1777,1226,0,0
560,-202,0,0,0,0,0,0,0,0,0,-1,1784,1226,0,0
567,-202,0,0,0,0,0,0,0,0,0,-1,1791,1226,0,0
574,-202,0,0,0,0,0,0,0,0,0,-1,1798,1226,0,0
581,-202,0,0,0,0,0,0,0,0,0,-1,1805,1226,0,0
588,-202,0,0,0,0,0,0,0,0,0,-1,1812,1226,0,0
595,-202,0,0,0,0,0,0,0,0,0,-1,1819,1226,0,0
602,-202,0,0,0,0,0,0,0,0,0,-1,1826,1226,0,0
609,-202,0,0,0,0,0,0,0,0,0,-1,1833,1226,0,0
616,-202,0,0,0,0,0,0,0,0,0,-1,1840,1226,0,0
623,-202,0,0,0,0,0,0,0,0,0,-1,1847,1226,0,0
630,-202,71.4314,2.4707,0.00295947,0.00159935,-0.000225878,0.002996,0.00156282,-0.16034,0.00173028,0.0377316,1854,1226,71.4314,-2.47067
637,-202,71.5142,2.38513,0.00187261,0.00231491,-0.000666582,0.00279607,0.00139145,-0.945569,0.00161432,0.0354124,1861,1226,71.5141,-2.38515
644,-202,71.5347,2.33044,0.00121579,0.0027633,-0.00121138,0.00342695,0.000552142,-1.06961,0.00212464,0.0319272,1868,1226,71.5347,-2.3305
651,-202,71.562,2.29834,0.00107471,0.00280771,-0.00184647,0.00398088,-9.84641e-05,-1.00478,0.00268734,0.0271803,1875,1226,71.562,-2.29834
658,-202,71.5305,2.27441,0.0010068,0.00216655,-0.00183555,0.00351165,-0.000338296,-0.938393,0.00246162,0.023081,1882,1226,71.5305,-2.27444
665,-202,71.5385,2.24951,0.00102324,0.00151363,-0.00163696,0.00292365,-0.000386787,-0.859739,0.00208999,0.0216053,1889,1226,71.5384,-2.24956
672,-202,71.7067,2.29138,0.00111646,0.0011858,-0.00143699,0.00258854,-0.000286271,-0.79746,0.0018286,0.0493972,1896,1226,71.7066,-2.29142
679,-202,71.8802,2.32068,0,0,0,0,0,0,0,-1,1903,1226,71.8803,-2.32066
686,-202,49.1708,2.15198,0,0,0,0,0,0,0,-1,1910,1226,49.1708,-2.15195
693,-202,52.1176,12.0886,0,0,0,0,0,0,0,-1,1917,1226,52.1176,-12.0886
700,-202,57.0344,12.217,0,0,0,0,0,0,0,-1,1924,1226,57.0345,-12.217
707,-202,57.0624,11.318,0.00113684,0.000157706,-0.000577427,0.00140431,-0.000109759,-0.433777,0.000974854,0.0323158,1931,1226,57.0624,-11.318
714,-202,56.9398,10.7738,0.00123433,0.000331644,-0.000584684,0.00152161,4.43619e-05,-0.456701,0.000999946,0.0377994,1938,1226,56.9398,-10.7738
721,-202,56.9379,10.2208,0.00124964,0.000322241,-4.9357e-05,0.00125226,0.000319622,-0.0530211,0.000751316,0.0265067,1945,1226,56.9378,-10.2208
728,-202,56.9467,9.42151,0.00118357,0.00066313,0.000766746,0.00173305,0.000113648,0.621807,0.00111941,0.0111504,1952,1226,56.9467,-9.42151
735,-202,56.9218,8.71765,0.00105728,0.000784711,0.00118735,0.00211614,-0.000274155,0.728259,0.00151046,0.0110322,1959,1226,56.9217,-8.71768
742,-202,56.8802,8.03552,0.000865839,0.000915088,0.00182663,0.00271726,-0.000936335,0.792138,0.00219135,0.012949,1966,1226,56.8802,-8.03553
749,-202,56.8141,7.37854,0.00073959,0.00106031,0.00267766,0.00358241,-0.00178251,0.815306,0.00315501,0.0139579,1973,1226,56.8141,-7.37857
756,-202,56.8049,6.72754,0.000796993,0.00130492,0.00369014,0.00474982,-0.00264791,0.819755,0.00432817,0.0133304,1980,1226,56.805,-6.72751
763,-202,56.8778,6.07214,0.000932653,0.00149195,0.00525918,0.00647891,-0.00405431,0.81196,0.00613483,0.026301,1987,1226,56.8778,-6.07219
770,-202,56.9211,5.47229,0,0,0,0,0,0,0,-1,1994,1226,56.9211,-5.47231
777,-202,67.5615,-0.236572,0,0,0,0,0,0,0,-1,2001,1226,67.5615,0.236573
784,-202,66.7117,0.754517,0,0,0,0,0,0,0,-1,2008,1226,66.7118,-0.754543
791,-202,66.512,1.74207,0,0,0,0,0,0,0,-1,2015,1226,66.512,-1.74201
798,-202,51.8999,3.58789,0,0,0,0,0,0,0,-1,2022,1226,51.9,-3.58791
805,-202,0,0,0,0,0,0,0,0,0,-1,2029,1226,0,0
812,-202,0,0,0,0,0,0,0,0,0,-1,2036,1226,0,0
-700,-209,0,0,0,0,0,0,0,0,0,-1,524,1233,0,0
-693,-209,0,0,0,0,0,0,0,0,0,-1,531,1233,0,0
-686,-209,0,0,0,0,0,0,0,0,0,-1,538,1233,0,0
-679,-209,-36.337,1.48828,0,0,0,0,0,0,0,-1,545,1233,-36.337,-1.48828
-672,-209,-40.1313,-0.0955811,0,0,0,0,0,0,0,-1,552,1233,-40.1313,0.0955687
-665,-209,-38.1835,2.77393,0,0,0,0,0,0,0,-1,559,1233,-38.1835,-2.7739
-658,-209,-40.528,2.2196,0,0,0,0,0,0,0,-1,566,1233,-40.528,-2.21965
-651,-209,-37.7562,3.28711,0,0,0,0,0,0,0,-1,573,1233,-37.7562,-3.28708
-644,-209,-43.4648,-7.04663,0,0,0,0,0,0,0,-1,580,1233,-43.4648,7.04659
-637,-209,-39.6328,3.72412,0,0,0,0,0,0,0,-1,587,1233,-39.6328,-3.72409
-630,-209,-39.6851,4.45374,-0.000521742,0.00852489,-0.00664385,0.0120391,-0.00403591,-1.08427,0.00965669,0.0387423,594,1233,-39.6851,-4.45368
-623,-209,-39.8318,5.22607,0.000885628,0.00496488,-0.00436617,0.00774433,-0.00189382,-1.00391,0.00589643,0.0170117,601,1233,-39.8318,-5.22602
-616,-209,-39.8649,5.95532,0.00105426,0.00289144,-0.00273001,0.00485326,-0.000907555,-0.947687,0.00357661,0.0131787,608,1233,-39.8649,-5.95529
-609,-209,-39.8844,6.6615,0.000581396,0.00164946,-0.00127081,0.00249389,-0.000263028,-0.984311,0.00175684,0.0153502,615,1233,-39.8844,-6.6615
-602,-209,-39.925,7.34998,0.000162532,0.000225012,-0.00137179,0.00156592,-0.00117838,-0.796783,0.00158968,0.0172585,622,1233,-39.925,-7.35001
-595,-209,-39.9916,8.09277,-0.00034396,-0.000691479,-0.00153985,0.0010319,-0.00206734,-0.729215,0.00182233,0.0177605,629,1233,-39.9917,-8.09274
-588,-209,-40.1044,8.83423,-0.00115962,-0.00100981,-0.0020314,0.000948065,-0.00311749,-0.803826,0.00245612,0.0367269,636,1233,-40.1044,-8.83426
-581,-209,-39.9882,9.30347,0,0,0,0,0,0,0,-1,643,1233,-39.9882,-9.30347
-574,-209,-33.4955,9.52966,0,0,0,0,0,0,0,-1,650,1233,-33.4955,-9.52972
-567,-209,-26.2951,6.92981,0,0,0,0,0,0,0,-1,657,1233,-26.2951,-6.92986
-560,-209,-13.9294,4.16626,0,0,0,0,0,0,0,-1,664,1233,-13.9294,-4.16621
-553,-209,-22.7542,0.748779,0,0,0,0,0,0,0,-1,671,1233,-22.7541,-0.748796
-546,-209,-44.691,0.142822,0,0,0,0,0,0,0,-1,678,1233,-44.6911,-0.142844
-539,-209,-54.7704,0.332886,0,0,0,0,0,0,0,-1,685,1233,-54.7704,-0.332894
-532,-209,-54.9231,0.505127,0.00085608,-0.00202924,-0.00314871,0.00287689,-0.00405005,-0.570583,0.00401835,0.0349848,692,1233,-54.9231,-0.505142
-525,-209,-55.0997,0.54895,0.00203179,-0.00266633,-0.00253525,0.00313897,-0.00377351,-0.411749,0.00399652,0.0332651,699,1233,-55.0997,-0.548906
-518,-209,-55.122,0.539917,0.00559375,-0.00263535,-0.00177351,0.00595969,-0.0030013,-0.203486,0.00526677,0.0405692,706,1233,-55.122,-0.539872
-511,-209,-54.9213,0.56665,0.0130675,-0.00377779,-0.00106114,0.0131341,-0.00384437,-0.0626632,0.01028,0.0421662,713,1233,-54.9213,-0.566608
-504,-209,0,0,0,0,0,0,0,0,0,-1,720,1233,0,0
-497,-209,0,0,0,0,0,0,0,0,0,-1,727,1233,0,0
-490,-209,0,0,0,0,0,0,0,0,0,-1,734,1233,0,0
-483,-209,0,0,0,0,0,0,0,0,0,-1,741,1233,0,0
-476,-209,0,0,0,0,0,0,0,0,0,-1,748,1233,0,0
-469,-209,0,0,0,0,0,0,0,0,0,-1,755,1233,0,0
-462,-209,0,0,0,0,0,0,0,0,0,-1,762,1233,0,0
-455,-209,0,0,0,0,0,0,0,0,0,-1,769,1233,0,0
-448,-209,0,0,0,0,0,0,0,0,0,-1,776,1233,0,0
-441,-209,0,0,0,0,0,0,0,0,0,-1,783,1233,0,0
-434,-209,0,0,0,0,0,0,0,0,0,-1,790,1233,0,0
-427,-209,0,0,0,0,0,0,0,0,0,-1,797,1233,0,0
-420,-209,0,0,0,0,0,0,0,0,0,-1,804,1233,0,0
-413,-209,0,0,0,0,0,0,0,0,0,-1,811,1233,0,0
-406,-209,0,0,0,0,0,0,0,0,0,-1,818,1233,0,0
-399,-209,0,0,0,0,0,0,0,0,0,-1,825,1233,0,0
-392,-209,0,0,0,0,0,0,0,0,0,-1,832,1233,0,0
-385,-209,0,0,0,0,0,0,0,0,0,-1,839,1233,0,0
-378,-209,0,0,0,0,0,0,0,0,0,-1,846,1233,0,0
-371,-209,0,0,0,0,0,0,0,0,0,-1,853,1233,0,0
-364,-209,0,0,0,0,0,0,0,0,0,-1,860,1233,0,0
-357,-209,0,0,0,0,0,0,0,0,0,-1,867,1233,0,0
-350,-209,0,0,0,0,0,0,0,0,0,-1,874,1233,0,0
-343,-209,0,0,0,0,0,0,0,0,0,-1,881,1233,0,0
-336,-209,0,0,0,0,0,0,0,0,0,-1,888,1233,0,0
-329,-209,0,0,0,0,0,0,0,0,0,-1,895,1233,0,0
-322,-209,0,0,0,0,0,0,0,0,0,-1,902,1233,0,0
-315,-209,0,0,0,0,0,0,0,0,0,-1,909,1233,0,0
-308,-209,0,0,0,0,0,0,0,0,0,-1,916,1233,0,0
-301,-209,0,0,0,0,0,0,0,0,0,-1,923,1233,0,0
-294,-209,0,0,0,0,0,0,0,0,0,-1,930,1233,0,0
-287,-209,0,0,0,0,0,0,0,0,0,-1,937,1233,0,0
-280,-209,0,0,0,0,0,0,0,0,0,-1,944,1233,0,0
-273,-209,0,0,0,0,0,0,0,0,0,-1,951,1233,0,0
-266,-209,0,0,0,0,0,0,0,0,0,-1,958,1233,0,0
-259,-209,0,0,0,0,0,0,0,0,0,-1,965,1233,0,0
-252,-209,0,0,0,0,0,0,0,0,0,-1,972,1233,0,0
-245,-209,0,0,0,0,0,0,0,0,0,-1,979,1233,0,0
-238,-209,0,0,0,0,0,0,0,0,0,-1,986,1233,0,0
-231,-209,0,0,0,0,0,0,0,0,0,-1,993,1233,0,0
-224,-209,0,0,0,0,0,0,0,0,0,-1,1000,1233,0,0
-217,-209,0,0,0,0,0,0,0,0,0,-1,1007,1233,0,0
-210,-209,0,0,0,0,0,0,0,0,0,-1,1014,1233,0,0
-203,-209,0,0,0,0,0,0,0,0,0,-1,1021,1233,0,0
-196,-209,0,0,0,0,0,0,0,0,0,-1,1028,1233,0,0
-189,-209,0,0,0,0,0,0,0,0,0,-1,1035,1233,0,0
-182,-209,0,0,0,0,0,0,0,0,0,-1,1042,1233,0,0
-175,-209,0,0,0,0,0,0,0,0,0,-1,1049,1233,0,0
-168,-209,0,0,0,0,0,0,0,0,0,-1,1056,1233,0,0
-161,-209,0,0,0,0,0,0,0,0,0,-1,1063,1233,0,0
-154,-209,0,0,0,0,0,0,0,0,0,-1,1070,1233,0,0
-147,-209,0,0,0,0,0,0,0,0,0,-1,1077,1233,0,0
-140,-209,0,0,0,0,0,0,0,0,0,-1,1084,1233,0,0
-133,-209,0,0,0,0,0,0,0,0,0,-1,1091,1233,0,0
-126,-209,0,0,0,0,0,0,0,0,0,-1,1098,1233,0,0
-119,-209,0,0,0,0,0,0,0,0,0,-1,1105,1233,0,0
-112,-209,0,0,0,0,0,0,0,0,0,-1,1112,1233,0,0
-105,-209,0,0,0,0,0,0,0,0,0,-1,1119,1233,0,0
-98,-209,0,0,0,0,0,0,0,0,0,-1,1126,1233,0,0
-91,-209,0,0,0,0,0,0,0,0,0,-1,1133,1233,0,0
-84,-209,0,0,0,0,0,0,0,0,0,-1,1140,1233,0,0
-77,-209,0,0,0,0,0,0,0,0,0,-1,1147,1233,0,0
-70,-209,0,0,0,0,0,0,0,0,0,-1,1154,1233,0,0
-63,-209,0,0,0,0,0,0,0,0,0,-1,1161,1233,0,0
-56,-209,0,0,0,0,0,0,0,0,0,-1,1168,1233,0,0
-49,-209,0,0,0,0,0,0,0,0,0,-1,1175,1233,0,0
-42,-209,0,0,0,0,0,0,0,0,0,-1,1182,1233,0,0
-35,-209,0,0,0,0,0,0,0,0,0,-1,1189,1233,0,0
-28,-209,0,0,0,0,0,0,0,0,0,-1,1196,1233,0,0
-21,-209,0,0,0,0,0,0,0,0,0,-1,1203,1233,0,0
-14,-209,0,0,0,0,0,0,0,0,0,-1,1210,1233,0,0
-7,-209,0,0,0,0,0,0,0,0,0,-1,1217,1233,0,0
0,-209,0,0,0,0,0,0,0,0,0,-1,1224,1233,0,0
7,-209,0,0,0,0,0,0,0,0,0,-1,1231,1233,0,0
14,-209,0,0,0,0,0,0,0,0,0,-1,1238,1233,0,0
21,-209,0,0,0,0,0,0,0,0,0,-1,1245,1233,0,0
28,-209,0,0,0,0,0,0,0,0,0,-1,1252,1233,0,0
35,-209,0,0,0,0,0,0,0,0,0,-1,1259,1233,0,0
42,-209,0,0,0,0,0,0,0,0,0,-1,1266,1233,0,0
49,-209,0,0,0,0,0,0,0,0,0,-1,1273,1233,0,0
56,-209,0,0,0,0,0,0,0,0,0,-1,1280,1233,0,0
63,-209,0,0,0,0,0,0,0,0,0,-1,1287,1233,0,0
70,-209,0,0,0,0,0,0,0,0,0,-1,1294,1233,0,0
77,-209,0,0,0,0,0,0,0,0,0,-1,1301,1233,0,0
84,-209,0,0,0,0,0,0,0,0,0,-1,1308,1233,0,0
91,-209,0,0,0,0,0,0,0,0,0,-1,1315,1233,0,0
98,-209,0,0,0,0,0,0,0,0,0,-1,1322,1233,0,0
105,-209,0,0,0,0,0,0,0,0,0,-1,1329,1233,0,0
112,-209,0,0,0,0,0,0,0,0,0,-1,1336,1233,0,0
119,-209,0,0,0,0,0,0,0,0,0,-1,1343,1233,0,0
126,-209,0,0,0,0,0,0,0,0,0,-1,1350,1233,0,0
133,-209,0,0,0,0,0,0,0,0,0,-1,1357,1233,0,0
140,-209,0,0,0,0,0,0,0,0,0,-1,1364,1233,0,0
147,-209,0,0,0,0,0,0,0,0,0,-1,1371,1233,0,0
154,-209,0,0,0,0,0,0,0,0,0,-1,1378,1233,0,0
161,-209,0,0,0,0,0,0,0,0,0,-1,1385,1233,0,0
168,-209,0,0,0,0,0,0,0,0,0,-1,1392,1233,0,0
175,-209,0,0,0,0,0,0,0,0,0,-1,1399,1233,0,0
182,-209,0,0,0,0,0,0,0,0,0,-1,1406,1233,0,0
189,-209,0,0,0,0,0,0,0,0,0,-1,1413,1233,0,0
196,-209,0,0,0,0,0,0,0,0,0,-1,1420,1233,0,0
203,-209,0,0,0,0,0,0,0,0,0,-1,1427,1233,0,0
210,-209,0,0,0,0,0,0,0,0,0,-1,1434,1233,0,0
217,-209,0,0,0,0,0,0,0,0,0,-1,1441,1233,0,0
224,-209,0,0,0,0,0,0,0,0,0,-1,1448,1233,0,0
231,-209,0,0,0,0,0,0,0,0,0,-1,1455,1233,0,0
238,-209,0,0,0,0,0,0,0,0,0,-1,1462,1233,0,0
245,-209,0,0,0,0,0,0,0,0,0,-1,1469,1233,0,0
252,-209,0,0,0,0,0,0,0,0,0,-1,1476,1233,0,0
259,-209,0,0,0,0,0,0,0,0,0,-1,1483,1233,0,0
266,-209,0,0,0,0,0,0,0,0,0,-1,1490,1233,0,0
273,-209,0,0,0,0,0,0,0,0,0,-1,1497,1233,0,0
280,-209,0,0,0,0,0,0,0,0,0,-1,1504,1233,0,0
287,-209,0,0,0,0,0,0,0,0,0,-1,1511,1233,0,0
294,-209,0,0,0,0,0,0,0,0,0,-1,1518,1233,0,0
301,-209,0,0,0,0,0,0,0,0,0,-1,1525,1233,0,0
308,-209,0,0,0,0,0,0,0,0,0,-1,1532,1233,0,0
315,-209,0,0,0,0,0,0,0,0,0,-1,1539,1233,0,0
322,-209,0,0,0,0,0,0,0,0,0,-1,1546,1233,0,0
329,-209,0,0,0,0,0,0,0,0,0,-1,1553,1233,0,0
336,-209,0,0,0,0,0,0,0,0,0,-1,1560,1233,0,0
343,-209,0,0,0,0,0,0,0,0,0,-1,1567,1233,0,0
350,-209,0,0,0,0,0,0,0,0,0,-1,1574,1233,0,0
357,-209,0,0,0,0,0,0,0,0,0,-1,1581,1233,0,0
364,-209,0,0,0,0,0,0,0,0,0,-1,1588,1233,0,0
371,-209,0,0,0,0,0,0,0,0,0,-1,1595,1233,0,0
378,-209,0,0,0,0,0,0,0,0,0,-1,1602,1233,0,0
385,-209,0,0,0,0,0,0,0,0,0,-1,1609,1233,0,0
392,-209,0,0,0,0,0,0,0,0,0,-1,1616,1233,0,0
399,-209,0,0,0,0,0,0,0,0,0,-1,1623,1233,0,0
406,-209,0,0,0,0,0,0,0,0,0,-1,1630,1233,0,0
413,-209,0,0,0,0,0,0,0,0,0,-1,1637,1233,0,0
420,-209,0,0,0,0,0,0,0,0,0,-1,1644,1233,0,0
427,-209,0,0,0,0,0,0,0,0,0,-1,1651,1233,0,0
434,-209,0,0,0,0,0,0,0,0,0,-1,1658,1233,0,0
441,-209,0,0,0,0,0,0,0,0,0,-1,1665,1233,0,0
448,-209,0,0,0,0,0,0,0,0,0,-1,1672,1233,0,0
455,-209,0,0,0,0,0,0,0,0,0,-1,1679,1233,0,0
462,-209,0,0,0,0,0,0,0,0,0,-1,1686,1233,0,0
469,-209,0,0,0,0,0,0,0,0,0,-1,1693,1233,0,0
476,-209,0,0,0,0,0,0,0,0,0,-1,1700,1233,0,0
483,-209,0,0,0,0,0,0,0,0,0,-1,1707,1233,0,0
490,-209,0,0,0,0,0,0,0,0,0,-1,1714,1233,0,0
497,-209,0,0,0,0,0,0,0,0,0,-1,1721,1233,0,0
504,-209,0,0,0,0,0,0,0,0,0,-1,1728,1233,0,0
511,-209,0,0,0,0,0,0,0,0,0,-1,1735,1233,0,0
518,-209,0,0,0,0,0,0,0,0,0,-1,1742,1233,0,0
525,-209,0,0,0,0,0,0,0,0,0,-1,1749,1233,0,0
532,-209,0,0,0,0,0,0,0,0,0,-1,1756,1233,0,0
539,-209,0,0,0,0,0,0,0,0,0,-1,1763,1233,0,0
546,-209,0,0,0,0,0,0,0,0,0,-1,1770,1233,0,0
553,-209,0,0,0,0,0,0,0,0,0,-1,1777,1233,0,0
560,-209,0,0,0,0,0,0,0,0,0,-1,1784,1233,0,0
567,-209,0,0,0,0,0,0,0,0,0,-1,1791,1233,0,0
574,-209,0,0,0,0,0,0,0,0,0,-1,1798,1233,0,0
581,-209,0,0,0,0,0,0,0,0,0,-1,1805,1233,0,0
588,-209,0,0,0,0,0,0,0,0,0,-1,1812,1233,0,0
595,-209,0,0,0,0,0,0,0,0,0,-1,1819,1233,0,0
602,-209,0,0,0,0,0,0,0,0,0,-1,1826,1233,0,0
609,-209,0,0,0,0,0,0,0,0,0,-1,1833,1233,0,0
616,-209,0,0,0,0,0,0,0,0,0,-1,1840,1233,0,0
623,-209,71.4166,2.27734,0.00379421,0.00120415,0.000285575,0.00382532,0.00117304,0.108521,0.00226292,0.0320035,1847,1233,71.4166,-2.27731
630,-209,71.416,2.31934,0.00200759,0.00271011,-0.000128882,0.002733,0.0019847,-1.39496,0.00163083,0.0363562,1854,1233,71.416,-2.3193
637,-209,71.5288,2.29602,0.000758453,0.0037961,-0.000582408,0.00390394,0.000650616,-1.38771,0.00241514,0.0351866,1861,1233,71.5288,-2.29605
644,-209,71.5125,2.28625,0.000117382,0.00436981,-0.00115679,0.00466413,-0.000176931,-1.32166,0.00317004,0.0287881,1868,1233,71.5124,-2.28624
651,-209,71.533,2.29114,0.000193614,0.00416129,-0.00173529,0.00481314,-0.000458236,-1.21146,0.0033719,0.0241455,1875,1233,71.533,-2.29112
658,-209,71.5404,2.29443,0.000355682,0.00313172,-0.00157382,0.00384215,-0.000354748,-1.14677,0.0026875,0.0215348,1882,1233,71.5404,-2.29443
665,-209,71.6074,2.25916,0.000543641,0.00224467,-0.00134837,0.00298836,-0.000200044,-1.06677,0.00206216,0.0369596,1889,1233,71.6075,-2.25911
672,-209,71.8115,2.33887,0,0,0,0,0,0,0,-1,1896,1233,71.8115,-2.33883
679,-209,55.2465,2.78674,0,0,0,0,0,0,0,-1,1903,1233,55.2464,-2.78678
686,-209,33.3711,3.89856,0,0,0,0,0,0,0,-1,1910,1233,33.3711,-3.89855
693,-209,56.2179,13.0433,0,0,0,0,0,0,0,-1,1917,1233,56.2179,-13.0434
700,-209,56.2589,12.1846,0.000964083,0.000138999,-0.000484892,0.00118818,-8.50995e-05,-0.432921,0.000821957,0.0457666,1924,1233,56.2589,-12.1846
707,-209,56.24,11.4235,0.000963492,-7.11257e-05,-0.00045514,0.00113521,-0.000242846,-0.360778,0.000849408,0.0361104,1931,1233,56.24,-11.4235
714,-209,56.2249,10.8202,0.00101335,8.24407e-05,-0.000367565,0.00114098,-4.51913e-05,-0.334211,0.000776158,0.0244219,1938,1233,56.2248,-10.8202
721,-209,56.2911,10.1042,0.000925971,7.18629e-05,0.000222255,0.000980345,1.74894e-05,0.239932,0.000647812,0.0131399,1945,1233,56.2912,-10.1043
728,-209,56.3,9.44836,0.000701381,0.000425094,0.00103096,0.00160341,-0.000476937,0.718797,0.00125842,0.0127215,1952,1233,56.3001,-9.44834
735,-209,56.2534,8.76746,0.000423696,0.000555058,0.00149532,0.00198614,-0.00100739,0.807346,0.00175884,0.0158598,1959,1233,56.2534,-8.76744
742,-209,56.1985,8.06519,0.000129517,0.000692837,0.00213498,0.00256466,-0.0017423,0.850982,0.00250169,0.0169612,1966,1233,56.1985,-8.06515
749,-209,56.131,7.39661,-6.44876e-05,0.000848823,0.00292902,0.00335657,-0.00257224,0.862729,0.00343297,0.0150697,1973,1233,56.131,-7.39658
756,-209,56.1165,6.74768,-5.79399e-05,0.00107135,0.00383083,0.00437893,-0.00336552,0.858568,0.004484,0.0130112,1980,1233,56.1165,-6.74771
763,-209,56.0898,6.15295,4.18428e-05,0.00115032,0.00526861,0.00589377,-0.0047016,0.837804,0.00613013,0.0268699,1987,1233,56.0898,-6.15296
770,-209,56.1692,5.67664,0,0,0,0,0,0,0,-1,1994,1233,56.1691,-5.67667
777,-209,68.0347,-0.36377,0,0,0,0,0,0,0,-1,2001,1233,68.0346,0.363742
784,-209,67.6289,0.771729,0,0,0,0,0,0,0,-1,2008,1233,67.6289,-0.771742
791,-209,67.1841,1.90906,0,0,0,0,0,0,0,-1,2015,1233,67.1841,-1.90909
798,-209,53.6404,3.71179,0,0,0,0,0,0,0,-1,2022,1233,53.6404,-3.71185
805,-209,0,0,0,0,0,0,0,0,0,-1,2029,1233,0,0
812,-209,0,0,0,0,0,0,0,0,0,-1,2036,1233,0,0
-700,-216,0,0,0,0,0,0,0,0,0,-1,524,1240,0,0
-693,-216,0,0,0,0,0,0,0,0,0,-1,531,1240,0,0
-686,-216,0,0,0,0,0,0,0,0,0,-1,538,1240,0,0
-679,-216,-36.7546,1.03992,0,0,0,0,0,0,0,-1,545,1240,-36.7546,-1.03987
-672,-216,-38.5297,1.10828,0,0,0,0,0,0,0,-1,552,1240,-38.5297,-1.1083
-665,-216,-39.902,1.93457,0,0,0,0,0,0,0,-1,559,1240,-39.902,-1.93453
-658,-216,-41.7407,1.98083,0,0,0,0,0,0,0,-1,566,1240,-41.7407,-1.98077
-651,-216,-42.788,-8.0509,0,0,0,0,0,0,0,-1,573,1240,-42.788,8.05092
-644,-216,-45.6099,1.72839,0,0,0,0,0,0,0,-1,580,1240,-45.6099,-1.72843
-637,-216,-38.8004,3.56274,0,0,0,0,0,0,0,-1,587,1240,-38.8003,-3.56278
-630,-216,-38.8713,4.50256,0.00340961,0.00636483,-0.00568773,0.0107637,-0.000989306,-0.912483,0.0075273,0.0461613,594,1240,-38.8713,-4.50253
-623,-216,-39.059,5.36926,0.00321017,0.00427814,-0.00346056,0.00724567,0.000242639,-0.861947,0.00475163,0.0218508,601,1240,-39.059,-5.3693
-616,-216,-39.1519,6.00061,0.00245084,0.00289391,-0.00203205,0.00471646,0.000628284,-0.839694,0.00295721,0.0142189,608,1240,-39.1518,-6.00058
-609,-216,-39.1873,6.71143,0.0014621,0.00200951,-0.000822714,0.00260285,0.000868758,-0.945981,0.00153019,0.0141632,615,1240,-39.1873,-6.71147
-602,-216,-39.2168,7.40503,0.000719903,0.000548211,-0.00101061,0.0016483,-0.000380189,-0.743027,0.0012451,0.0136821,622,1240,-39.2168,-7.40509
-595,-216,-39.2397,8.09033,6.8033e-05,-0.000617271,-0.00121935,0.000991965,-0.0015412,-0.648425,0.00147394,0.019194,629,1240,-39.2397,-8.09038
-588,-216,-39.248,8.76965,-0.000740419,-0.00122253,-0.00168084,0.000716566,-0.00267951,-0.714178,0.00206702,0.0318601,636,1240,-39.248,-8.76968
-581,-216,-39.2993,9.27197,0,0,0,0,0,0,0,-1,643,1240,-39.2992,-9.27201
-574,-216,-39.26,9.85864,0,0,0,0,0,0,0,-1,650,1240,-39.26,-9.85869
-567,-216,-33.4159,9.56567,0,0,0,0,0,0,0,-1,657,1240,-33.4159,-9.56565
-560,-216,-16.5087,5.4574,0,0,0,0,0,0,0,-1,664,1240,-16.5087,-5.45746
-553,-216,-16.2355,1.22351,0,0,0,0,0,0,0,-1,671,1240,-16.2356,-1.22356
-546,-216,-37.1617,-0.25415,0,0,0,0,0,0,0,-1,678,1240,-37.1618,0.254161
-539,-216,-47.7817,1.47327,0,0,0,0,0,0,0,-1,685,1240,-47.7818,-1.4733
-532,-216,-54.759,0.387573,0,0,0,0,0,0,0,-1,692,1240,-54.7591,-0.387629
-525,-216,-54.9272,0.549683,0.00185184,-0.00332662,-0.00142504,0.00221809,-0.00369287,-0.251564,0.00344792,0.0480695,699,1240,-54.9272,-0.549738
-518,-216,-55.0781,0.540527,0.0037093,-0.00303406,-0.00040021,0.00373297,-0.00305773,-0.0590724,0.00392707,0.0407369,706,1240,-55.0781,-0.540559
-511,-216,-55.0941,0.567627,0.00835833,-0.00354022,0.000735933,0.00840367,-0.00358556,0.0615381,0.00710586,0.0413955,713,1240,-55.0941,-0.567677
-504,-216,-55.0098,0.523682,0.0206275,-0.00879105,0.00171629,0.0207273,-0.00889084,0.0580777,0.0175493,0.0452448,720,1240,-55.0098,-0.523739
-497,-216,0,0,0,0,0,0,0,0,0,-1,727,1240,0,0
-490,-216,0,0,0,0,0,0,0,0,0,-1,734,1240,0,0
-483,-216,0,0,0,0,0,0,0,0,0,-1,741,1240,0,0
-476,-216,0,0,0,0,0,0,0,0,0,-1,748,1240,0,0
-469,-216,0,0,0,0,0,0,0,0,0,-1,755,1240,0,0
-462,-216,0,0,0,0,0,0,0,0,0,-1,762,1240,0,0
-455,-216,0,0,0,0,0,0,0,0,0,-1,769,1240,0,0
-448,-216,0,0,0,0,0,0,0,0,0,-1,776,1240,0,0
-441,-216,0,0,0,0,0,0,0,0,0,-1,783,1240,0,0
-434,-216,0,0,0,0,0,0,0,0,0,-1,790,1240,0,0
-427,-216,0,0,0,0,0,0,0,0,0,-1,797,1240,0,0
-420,-216,0,0,0,0,0,0,0,0,0,-1,804,1240,0,0
-413,-216,0,0,0,0,0,0,0,0,0,-1,811,1240,0,0
-406,-216,0,0,0,0,0,0,0,0,0,-1,818,1240,0,0
-399,-216,0,0,0,0,0,0,0,0,0,-1,825,1240,0,0
-392,-216,0,0,0,0,0,0,0,0,0,-1,832,1240,0,0
-385,-216,0,0,0,0,0,0,0,0,0,-1,839,1240,0,0
-378,-216,0,0,0,0,0,0,0,0,0,-1,846,1240,0,0
-371,-216,0,0,0,0,0,0,0,0,0,-1,853,1240,0,0
-364,-216,0,0,0,0,0,0,0,0,0,-1,860,1240,0,0
-357,-216,0,0,0,0,0,0,0,0,0,-1,867,1240,0,0
-350,-216,0,0,0,0,0,0,0,0,0,-1,874,1240,0,0
-343,-216,0,0,0,0,0,0,0,0,0,-1,881,1240,0,0
-336,-216,0,0,0,0,0,0,0,0,0,-1,888,1240,0,0
-329,-216,0,0,0,0,0,0,0,0,0,-1,895,1240,0,0
-322,-216,0,0,0,0,0,0,0,0,0,-1,902,1240,0,0
-315,-216,0,0,0,0,0,0,0,0,0,-1,909,1240,0,0
-308,-216,0,0,0,0,0,0,0,0,0,-1,916,1240,0,0
-301,-216,0,0,0,0,0,0,0,0,0,-1,923,1240,0,0
-294,-216,0,0,0,0,0,0,0,0,0,-1,930,1240,0,0
-287,-216,0,0,0,0,0,0,0,0,0,-1,937,1240,0,0
-280,-216,0,0,0,0,0,0,0,0,0,-1,944,1240,0,0
-273,-216,0,0,0,0,0,0,0,0,0,-1,951,1240,0,0
-266,-216,0,0,0,0,0,0,0,0,0,-1,958,1240,0,0
-259,-216,0,0,0,0,0,0,0,0,0,-1,965,1240,0,0
-252,-216,0,0,0,0,0,0,0,0,0,-1,972,1240,0,0
-245,-216,0,0,0,0,0,0,0,0,0,-1,979,1240,0,0
-238,-216,0,0,0,0,0,0,0,0,0,-1,986,1240,0,0
-231,-216,0,0,0,0,0,0,0,0,0,-1,993,1240,0,0
-224,-216,0,0,0,0,0,0,0,0,0,-1,1000,1240,0,0
-217,-216,0,0,0,0,0,0,0,0,0,-1,1007,1240,0,0
-210,-216,0,0,0,0,0,0,0,0,0,-1,1014,1240,0,0
-203,-216,0,0,0,0,0,0,0,0,0,-1,1021,1240,0,0
-196,-216,0,0,0,0,0,0,0,0,0,-1,1028,1240,0,0
-189,-216,0,0,0,0,0,0,0,0,0,-1,1035,1240,0,0
-182,-216,0,0,0,0,0,0,0,0,0,-1,1042,1240,0,0
-175,-216,0,0,0,0,0,0,0,0,0,-1,1049,1240,0,0
-168,-216,0,0,0,0,0,0,0,0,0,-1,1056,1240,0,0
-161,-216,0,0,0,0,0,0,0,0,0,-1,1063,1240,0,0
-154,-216,0,0,0,0,0,0,0,0,0,-1,1070,1240,0,0
-147,-216,0,0,0,0,0,0,0,0,0,-1,1077,1240,0,0
-140,-216,0,0,0,0,0,0,0,0,0,-1,1084,1240,0,0
-133,-216,0,0,0,0,0,0,0,0,0,-1,1091,1240,0,0
-126,-216,0,0,0,0,0,0,0,0,0,-1,1098,1240,0,0
-119,-216,0,0,0,0,0,0,0,0,0,-1,1105,1240,0,0
-112,-216,0,0,0,0,0,0,0,0,0,-1,1112,1240,0,0
-105,-216,0,0,0,0,0,0,0,0,0,-1,1119,1240,0,0
-98,-216,0,0,0,0,0,0,0,0,0,-1,1126,1240,0,0
-91,-216,0,0,0,0,0,0,0,0,0,-1,1133,1240,0,0
-84,-216,0,0,0,0,0,0,0,0,0,-1,1140,1240,0,0
-77,-216,0,0,0,0,0,0,0,0,0,-1,1147,1240,0,0
-70,-216,0,0,0,0,0,0,0,0,0,-1,1154,1240,0,0
-63,-216,0,0,0,0,0,0,0,0,0,-1,1161,1240,0,0
-56,-216,0,0,0,0,0,0,0,0,0,-1,1168,1240,0,0
-49,-216,0,0,0,0,0,0,0,0,0,-1,1175,1240,0,0
-42,-216,0,0,0,0,0,0,0,0,0,-1,1182,1240,0,0
-35,-216,0,0,0,0,0,0,0,0,0,-1,1189,1240,0,0
-28,-216,0,0,0,0,0,0,0,0,0,-1,1196,1240,0,0
-21,-216,0,0,0,0,0,0,0,0,0,-1,1203,1240,0,0
-14,-216,0,0,0,0,0,0,0,0,0,-1,1210,1240,0,0
-7,-216,0,0,0,0,0,0,0,0,0,-1,1217,1240,0,0
0,-216,0,0,0,0,0,0,0,0,0,-1,1224,1240,0,0
7,-216,0,0,0,0,0,0,0,0,0,-1,1231,1240,0,0
14,-216,0,0,0,0,0,0,0,0,0,-1,1238,1240,0,0
21,-216,0,0,0,0,0,0,0,0,0,-1,1245,1240,0,0
28,-216,0,0,0,0,0,0,0,0,0,-1,1252,1240,0,0
35,-216,0,0,0,0,0,0,0,0,0,-1,1259,1240,0,0
42,-216,0,0,0,0,0,0,0,0,0,-1,1266,1240,0,0
49,-216,0,0,0,0,0,0,0,0,0,-1,1273,1240,0,0
56,-216,0,0,0,0,0,0,0,0,0,-1,1280,1240,0,0
63,-216,0,0,0,0,0,0,0,0,0,-1,1287,1240,0,0
70,-216,0,0,0,0,0,0,0,0,0,-1,1294,1240,0,0
77,-216,0,0,0,0,0,0,0,0,0,-1,1301,1240,0,0
84,-216,0,0,0,0,0,0,0,0,0,-1,1308,1240,0,0
91,-216,0,0,0,0,0,0,0,0,0,-1,1315,1240,0,0
98,-216,0,0,0,0,0,0,0,0,0,-1,1322,1240,0,0
105,-216,0,0,0,0,0,0,0,0,0,-1,1329,1240,0,0
112,-216,0,0,0,0,0,0,0,0,0,-1,1336,1240,0,0
119,-216,0,0,0,0,0,0,0,0,0,-1,1343,1240,0,0
126,-216,0,0,0,0,0,0,0,0,0,-1,1350,1240,0,0
133,-216,0,0,0,0,0,0,0,0,0,-1,1357,1240,0,0
140,-216,0,0,0,0,0,0,0,0,0,-1,1364,1240,0,0
147,-216,0,0,0,0,0,0,0,0,0,-1,1371,1240,0,0
154,-216,0,0,0,0,0,0,0,0,0,-1,1378,1240,0,0
161,-216,0,0,0,0,0,0,0,0,0,-1,1385,1240,0,0
168,-216,0,0,0,0,0,0,0,0,0,-1,1392,1240,0,0
175,-216,0,0,0,0,0,0,0,0,0,-1,1399,1240,0,0
182,-216,0,0,0,0,0,0,0,0,0,-1,1406,1240,0,0
189,-216,0,0,0,0,0,0,0,0,0,-1,1413,1240,0,0
196,-216,0,0,0,0,0,0,0,0,0,-1,1420,1240,0,0
203,-216,0,0,0,0,0,0,0,0,0,-1,1427,1240,0,0
210,-216,0,0,0,0,0,0,0,0,0,-1,1434,1240,0,0
217,-216,0,0,0,0,0,0,0,0,0,-1,1441,1240,0,0
224,-216,0,0,0,0,0,0,0,0,0,-1,1448,1240,0,0
231,-216,0,0,0,0,0,0,0,0,0,-1,1455,1240,0,0
238,-216,0,0,0,0,0,0,0,0,0,-1,1462,1240,0,0
245,-216,0,0,0,0,0,0,0,0,0,-1,1469,1240,0,0
252,-216,0,0,0,0,0,0,0,0,0,-1,1476,1240,0,0
259,-216,0,0,0,0,0,0,0,0,0,-1,1483,1240,0,0
266,-216,0,0,0,0,0,0,0,0,0,-1,1490,1240,0,0
273,-216,0,0,0,0,0,0,0,0,0,-1,1497,1240,0,0
280,-216,0,0,0,0,0,0,0,0,0,-1,1504,1240,0,0
287,-216,0,0,0,0,0,0,0,0,0,-1,1511,1240,0,0
294,-216,0,0,0,0,0,0,0,0,0,-1,1518,1240,0,0
301,-216,0,0,0,0,0,0,0,0,0,-1,1525,1240,0,0
308,-216,0,0,0,0,0,0,0,0,0,-1,1532,1240,0,0
315,-216,0,0,0,0,0,0,0,0,0,-1,1539,1240,0,0
322,-216,0,0,0,0,0,0,0,0,0,-1,1546,1240,0,0
329,-216,0,0,0,0,0,0,0,0,0,-1,1553,1240,0,0
336,-216,0,0,0,0,0,0,0,0,0,-1,1560,1240,0,0
343,-216,0,0,0,0,0,0,0,0,0,-1,1567,1240,0,0
350,-216,0,0,0,0,0,0,0,0,0,-1,1574,1240,0,0
357,-216,0,0,0,0,0,0,0,0,0,-1,1581,1240,0,0
364,-216,0,0,0,0,0,0,0,0,0,-1,1588,1240,0,0
371,-216,0,0,0,0,0,0,0,0,0,-1,1595,1240,0,0
378,-216,0,0,0,0,0,0,0,0,0,-1,1602,1240,0,0
385,-216,0,0,0,0,0,0,0,0,0,-1,1609,1240,0,0
392,-216,0,0,0,0,0,0,0,0,0,-1,1616,1240,0,0
399,-216,0,0,0,0,0,0,0,0,0,-1,1623,1240,0,0
406,-216,0,0,0,0,0,0,0,0,0,-1,1630,1240,0,0
413,-216,0,0,0,0,0,0,0,0,0,-1,1637,1240,0,0
420,-216,0,0,0,0,0,0,0,0,0,-1,1644,1240,0,0
427,-216,0,0,0,0,0,0,0,0,0,-1,1651,1240,0,0
434,-216,0,0,0,0,0,0,0,0,0,-1,1658,1240,0,0
441,-216,0,0,0,0,0,0,0,0,0,-1,1665,1240,0,0
448,-216,0,0,0,0,0,0,0,0,0,-1,1672,1240,0,0
455,-216,0,0,0,0,0,0,0,0,0,-1,1679,1240,0,0
462,-216,0,0,0,0,0,0,0,0,0,-1,1686,1240,0,0
469,-216,0,0,0,0,0,0,0,0,0,-1,1693,1240,0,0
476,-216,0,0,0,0,0,0,0,0,0,-1,1700,1240,0,0
483,-216,0,0,0,0,0,0,0,0,0,-1,1707,1240,0,0
490,-216,0,0,0,0,0,0,0,0,0,-1,1714,1240,0,0
497,-216,0,0,0,0,0,0,0,0,0,-1,1721,1240,0,0
504,-216,0,0,0,0,0,0,0,0,0,-1,1728,1240,0,0
511,-216,0,0,0,0,0,0,0,0,0,-1,1735,1240,0,0
518,-216,0,0,0,0,0,0,0,0,0,-1,1742,1240,0,0
525,-216,0,0,0,0,0,0,0,0,0,-1,1749,1240,0,0
532,-216,0,0,0,0,0,0,0,0,0,-1,1756,1240,0,0
539,-216,0,0,0,0,0,0,0,0,0,-1,1763,1240,0,0
546,-216,0,0,0,0,0,0,0,0,0,-1,1770,1240,0,0
553,-216,0,0,0,0,0,0,0,0,0,-1,1777,1240,0,0
560,-216,0,0,0,0,0,0,0,0,0,-1,1784,1240,0,0
567,-216,0,0,0,0,0,0,0,0,0,-1,1791,1240,0,0
574,-216,0,0,0,0,0,0,0,0,0,-1,1798,1240,0,0
581,-216,0,0,0,0,0,0,0,0,0,-1,1805,1240,0,0
588,-216,0,0,0,0,0,0,0,0,0,-1,1812,1240,0,0
595,-216,0,0,0,0,0,0,0,0,0,-1,1819,1240,0,0
602,-216,0,0,0,0,0,0,0,0,0,-1,1826,1240,0,0
609,-216,0,0,0,0,0,0,0,0,0,-1,1833,1240,0,0
616,-216,0,0,0,0,0,0,0,0,0,-1,1840,1240,0,0
623,-216,71.2819,2.37231,0.00277842,0.00140248,0.000447804,0.00291132,0.00126958,0.288506,0.00168543,0.0384666,1847,1240,71.2818,-2.3723
630,-216,71.4072,2.39355,0.000751778,0.00358196,2.02386e-05,0.0035821,0.000751634,1.56365,0.00218113,0.0377412,1854,1240,71.4072,-2.39358
637,-216,71.4915,2.35059,-0.000692145,0.00527334,-0.000447924,0.00530679,-0.000725591,-1.49627,0.00380287,0.0325001,1861,1240,71.4915,-2.35056
644,-216,71.504,2.30627,-0.00117483,0.00597722,-0.00103728,0.00612462,-0.00132223,-1.42964,0.00458778,0.0259562,1868,1240,71.504,-2.30632
651,-216,71.5253,2.32092,-0.0007778,0.00540864,-0.00149066,0.00574909,-0.00111825,-1.34626,0.00425474,0.0230407,1875,1240,71.5252,-2.32087
658,-216,71.576,2.37256,-0.000383763,0.00402942,-0.00120725,0.00433808,-0.000692427,-1.32048,0.00314835,0.0332807,1882,1240,71.5761,-2.37258
665,-216,71.6914,2.3313,0,0,0,0,0,0,0,-1,1889,1240,71.6914,-2.33136
672,-216,68.6339,1.33826,0,0,0,0,0,0,0,-1,1896,1240,68.6339,-1.33828
679,-216,47.3159,3.82703,0,0,0,0,0,0,0,-1,1903,1240,47.316,-3.82708
686,-216,21.5172,6.19458,0,0,0,0,0,0,0,-1,1910,1240,21.5172,-6.19453
693,-216,56.1224,12.7039,0,0,0,0,0,0,0,-1,1917,1240,56.1224,-12.7038
700,-216,55.7092,12.1403,0,0,0,0,0,0,0,-1,1924,1240,55.7092,-12.1402
707,-216,55.6298,11.3881,0,0,0,0,0,0,0,-1,1931,1240,55.6298,-11.388
714,-216,55.6232,10.7872,0.000656124,-0.000130713,-5.53525e-05,0.000659999,-0.000134587,-0.0698894,0.000491049,0.0238061,1938,1240,55.6232,-10.7872
721,-216,55.6294,10.1711,0.000428918,-0.000139959,0.000586016,0.000795878,-0.000506918,0.559458,0.000758312,0.0136092,1945,1240,55.6294,-10.1712
728,-216,55.6344,9.50635,6.65179e-05,0.00018714,0.00138279,0.00151093,-0.00125727,0.807192,0.00160046,0.0134263,1952,1240,55.6344,-9.50638
735,-216,55.6246,8.81958,-0.000280603,0.00033994,0.00190086,0.00195569,-0.00189635,0.866298,0.00222406,0.0155359,1959,1240,55.6247,-8.81957
742,-216,55.5195,8.13538,-0.000591575,0.000507227,0.00256352,0.00257956,-0.0026639,0.890959,0.00302744,0.0179877,1966,1240,55.5195,-8.13542
749,-216,55.4636,7.43372,-0.000779618,0.000685763,0.00335592,0.00338805,-0.0034819,0.892875,0.00396649,0.013928,1973,1240,55.4636,-7.43366
756,-216,55.4285,6.76563,-0.000755659,0.000906089,0.00426042,0.0044159,-0.00426547,0.8817,0.00501244,0.0115973,1980,1240,55.4284,-6.76568
763,-216,55.389,6.17883,-0.000619416,0.000921884,0.00574481,0.0059475,-0.00564504,0.852074,0.00669371,0.0222237,1987,1240,55.389,-6.17886
770,-216,55.4385,5.58826,0,0,0,0,0,0,0,-1,1994,1240,55.4385,-5.58829
777,-216,55.5715,4.98145,0,0,0,0,0,0,0,-1,2001,1240,55.5714,-4.98139
784,-216,68.2205,0.660034,0,0,0,0,0,0,0,-1,2008,1240,68.2204,-0.660033
791,-216,67.71,1.8468,0,0,0,0,0,0,0,-1,2015,1240,67.7099,-1.84686
798,-216,0,0,0,0,0,0,0,0,0,-1,2022,1240,0,0
805,-216,0,0,0,0,0,0,0,0,0,-1,2029,1240,0,0
812,-216,0,0,0,0,0,0,0,0,0,-1,2036,1240,0,0
-700,-223,0,0,0,0,0,0,0,0,0,-1,524,1247,0,0
-693,-223,0,0,0,0,0,0,0,0,0,-1,531,1247,0,0
-686,-223,0,0,0,0,0,0,0,0,0,-1,538,1247,0,0
-679,-223,0,0,0,0,0,0,0,0,0,-1,545,1247,0,0
-672,-223,-38.277,2.04651,0,0,0,0,0,0,0,-1,552,1247,-38.2771,-2.04651
-665,-223,-40.2462,2.229,0,0,0,0,0,0,0,-1,559,1247,-40.2462,-2.22899
-658,-223,-39.6435,-8.36633,0,0,0,0,0,0,0,-1,566,1247,-39.6435,8.36633
-651,-223,-40.2339,-7.32275,0,0,0,0,0,0,0,-1,573,1247,-40.234,7.32277
-644,-223,-45.9081,3.8446,0,0,0,0,0,0,0,-1,580,1247,-45.9081,-3.84463
-637,-223,-49.2922,0.294189,0,0,0,0,0,0,0,-1,587,1247,-49.2922,-0.294245
-630,-223,-38.1831,4.6217,0,0,0,0,0,0,0,-1,594,1247,-38.1831,-4.62172
-623,-223,-38.4939,5.51978,0.00453877,0.0042314,-0.00172721,0.00611911,0.00265105,-0.741025,0.00354335,0.0387853,601,1247,-38.4939,-5.51983
-616,-223,-38.4341,5.99902,0.00329166,0.00323925,-0.000999826,0.00426562,0.00226529,-0.772296,0.00246434,0.0166992,608,1247,-38.4342,-5.99897
-609,-223,-38.46,6.74023,0.00211768,0.00240082,-0.000433665,0.00271544,0.00180306,-0.943168,0.00159562,0.0123271,615,1247,-38.4599,-6.74019
-602,-223,-38.4892,7.43896,0.00125337,0.000937434,-0.000664369,0.00177829,0.000412511,-0.66868,0.00107475,0.0149801,622,1247,-38.4892,-7.43902
-595,-223,-38.485,8.19067,0.000515886,-0.000418379,-0.000895452,0.00105873,-0.00096122,-0.544981,0.00116667,0.0211229,629,1247,-38.485,-8.19063
-588,-223,-38.4529,8.95264,-0.000295108,-0.00139927,-0.00131581,0.000579752,-0.00227413,-0.586766,0.0017418,0.0297884,636,1247,-38.4529,-8.95264
-581,-223,-38.4356,9.58264,0,0,0,0,0,0,0,-1,643,1247,-38.4356,-9.5826
-574,-223,-38.1083,10.1418,0,0,0,0,0,0,0,-1,650,1247,-38.1084,-10.1418
-567,-223,-38.6479,10.4993,0,0,0,0,0,0,0,-1,657,1247,-38.6479,-10.4993
-560,-223,-31.8748,9.50732,0,0,0,0,0,0,0,-1,664,1247,-31.8748,-9.50735
-553,-223,-11.4025,4.14722,0,0,0,0,0,0,0,-1,671,1247,-11.4025,-4.14719
-546,-223,-26.9034,-0.148682,0,0,0,0,0,0,0,-1,678,1247,-26.9034,0.14867
-539,-223,-36.7405,0.35376,0,0,0,0,0,0,0,-1,685,1247,-36.7405,-0.353807
-532,-223,-47.6184,1.39844,0,0,0,0,0,0,0,-1,692,1247,-47.6184,-1.3984
-525,-223,-54.822,0.488525,0,0,0,0,0,0,0,-1,699,1247,-54.822,-0.488487
-518,-223,-55.0972,0.582764,0,0,0,0,0,0,0,-1,706,1247,-55.0971,-0.582705
-511,-223,-55.1852,0.639404,0.00548554,-0.00341865,0.00208959,0.00595153,-0.00388464,0.219414,0.00572055,0.0381723,713,1247,-55.1852,-0.639455
-504,-223,-55.1418,0.588257,0.012487,-0.00602117,0.00371191,0.0132037,-0.00673786,0.190732,0.0117132,0.0415507,720,1247,-55.1418,-0.588287
-497,-223,0,0,0,0,0,0,0,0,0,-1,727,1247,0,0
-490,-223,0,0,0,0,0,0,0,0,0,-1,734,1247,0,0
-483,-223,0,0,0,0,0,0,0,0,0,-1,741,1247,0,0
-476,-223,0,0,0,0,0,0,0,0,0,-1,748,1247,0,0
-469,-223,0,0,0,0,0,0,0,0,0,-1,755,1247,0,0
-462,-223,0,0,0,0,0,0,0,0,0,-1,762,1247,0,0
-455,-223,0,0,0,0,0,0,0,0,0,-1,769,1247,0,0
-448,-223,0,0,0,0,0,0,0,0,0,-1,776,1247,0,0
-441,-223,0,0,0,0,0,0,0,0,0,-1,783,1247,0,0
-434,-223,0,0,0,0,0,0,0,0,0,-1,790,1247,0,0
-427,-223,0,0,0,0,0,0,0,0,0,-1,797,1247,0,0
-420,-223,0,0,0,0,0,0,0,0,0,-1,804,1247,0,0
-413,-223,0,0,0,0,0,0,0,0,0,-1,811,1247,0,0
-406,-223,0,0,0,0,0,0,0,0,0,-1,818,1247,0,0
-399,-223,0,0,0,0,0,0,0,0,0,-1,825,1247,0,0
-392,-223,0,0,0,0,0,0,0,0,0,-1,832,1247,0,0
-385,-223,0,0,0,0,0,0,0,0,0,-1,839,1247,0,0
-378,-223,0,0,0,0,0,0,0,0,0,-1,846,1247,0,0
-371,-223,0,0,0,0,0,0,0,0,0,-1,853,1247,0,0
-364,-223,0,0,0,0,0,0,0,0,0,-1,860,1247,0,0
-357,-223,0,0,0,0,0,0,0,0,0,-1,867,1247,0,0
-350,-223,0,0,0,0,0,0,0,0,0,-1,874,1247,0,0
-343,-223,0,0,0,0,0,0,0,0,0,-1,881,1247,0,0
-336,-223,0,0,0,0,0,0,0,0,0,-1,888,1247,0,0
-329,-223,0,0,0,0,0,0,0,0,0,-1,895,1247,0,0
-322,-223,0,0,0,0,0,0,0,0,0,-1,902,1247,0,0
-315,-223,0,0,0,0,0,0,0,0,0,-1,909,1247,0,0
-308,-223,0,0,0,0,0,0,0,0,0,-1,916,1247,0,0
-301,-223,0,0,0,0,0,0,0,0,0,-1,923,1247,0,0
-294,-223,0,0,0,0,0,0,0,0,0,-1,930,1247,0,0
-287,-223,0,0,0,0,0,0,0,0,0,-1,937,1247,0,0
-280,-223,0,0,0,0,0,0,0,0,0,-1,944,1247,0,0
-273,-223,0,0,0,0,0,0,0,0,0,-1,951,1247,0,0
-266,-223,0,0,0,0,0,0,0,0,0,-1,958,1247,0,0
-259,-223,0,0,0,0,0,0,0,0,0,-1,965,1247,0,0
-252,-223,0,0,0,0,0,0,0,0,0,-1,972,1247,0,0
-245,-223,0,0,0,0,0,0,0,0,0,-1,979,1247,0,0
-238,-223,0,0,0,0,0,0,0,0,0,-1,986,1247,0,0
-231,-223,0,0,0,0,0,0,0,0,0,-1,993,1247,0,0
-224,-223,0,0,0,0,0,0,0,0,0,-1,1000,1247,0,0
-217,-223,0,0,0,0,0,0,0,0,0,-1,1007,1247,0,0
-210,-223,0,0,0,0,0,0,0,0,0,-1,1014,1247,0,0
-203,-223,0,0,0,0,0,0,0,0,0,-1,1021,1247,0,0
-196,-223,0,0,0,0,0,0,0,0,0,-1,1028,1247,0,0
-189,-223,0,0,0,0,0,0,0,0,0,-1,1035,1247,0,0
-182,-223,0,0,0,0,0,0,0,0,0,-1,1042,1247,0,0
-175,-223,0,0,0,0,0,0,0,0,0,-1,1049,1247,0,0
-168,-223,0,0,0,0,0,0,0,0,0,-1,1056,1247,0,0
-161,-223,0,0,0,0,0,0,0,0,0,-1,1063,1247,0,0
-154,-223,0,0,0,0,0,0,0,0,0,-1,1070,1247,0,0
-147,-223,0,0,0,0,0,0,0,0,0,-1,1077,1247,0,0
-140,-223,0,0,0,0,0,0,0,0,0,-1,1084,1247,0,0
-133,-223,0,0,0,0,0,0,0,0,0,-1,1091,1247,0,0
-126,-223,0,0,0,0,0,0,0,0,0,-1,1098,1247,0,0
-119,-223,0,0,0,0,0,0,0,0,0,-1,1105,1247,0,0
-112,-223,0,0,0,0,0,0,0,0,0,-1,1112,1247,0,0
-105,-223,0,0,0,0,0,0,0,0,0,-1,1119,1247,0,0
-98,-223,0,0,0,0,0,0,0,0,0,-1,1126,1247,0,0
-91,-223,0,0,0,0,0,0,0,0,0,-1,1133,1247,0,0
-84,-223,0,0,0,0,0,0,0,0,0,-1,1140,1247,0,0
-77,-223,0,0,0,0,0,0,0,0,0,-1,1147,1247,0,0
-70,-223,0,0,0,0,0,0,0,0,0,-1,1154,1247,0,0
-63,-223,0,0,0,0,0,0,0,0,0,-1,1161,1247,0,0
-56,-223,0,0,0,0,0,0,0,0,0,-1,1168,1247,0,0
-49,-223,0,0,0,0,0,0,0,0,0,-1,1175,1247,0,0
-42,-223,0,0,0,0,0,0,0,0,0,-1,1182,1247,0,0
-35,-223,0,0,0,0,0,0,0,0,0,-1,1189,1247,0,0
-28,-223,0,0,0,0,0,0,0,0,0,-1,1196,1247,0,0
-21,-223,0,0,0,0,0,0,0,0,0,-1,1203,1247,0,0
-14,-223,0,0,0,0,0,0,0,0,0,-1,1210,1247,0,0
-7,-223,0,0,0,0,0,0,0,0,0,-1,1217,1247,0,0
0,-223,0,0,0,0,0,0,0,0,0,-1,1224,1247,0,0
7,-223,0,0,0,0,0,0,0,0,0,-1,1231,1247,0,0
14,-223,0,0,0,0,0,0,0,0,0,-1,1238,1247,0,0
21,-223,0,0,0,0,0,0,0,0,0,-1,1245,1247,0,0
28,-223,0,0,0,0,0,0,0,0,0,-1,1252,1247,0,0
35,-223,0,0,0,0,0,0,0,0,0,-1,1259,1247,0,0
42,-223,0,0,0,0,0,0,0,0,0,-1,1266,1247,0,0
49,-223,0,0,0,0,0,0,0,0,0,-1,1273,1247,0,0
56,-223,0,0,0,0,0,0,0,0,0,-1,1280,1247,0,0
63,-223,0,0,0,0,0,0,0,0,0,-1,1287,1247,0,0
70,-223,0,0,0,0,0,0,0,0,0,-1,1294,1247,0,0
77,-223,0,0,0,0,0,0,0,0,0,-1,1301,1247,0,0
84,-223,0,0,0,0,0,0,0,0,0,-1,1308,1247,0,0
91,-223,0,0,0,0,0,0,0,0,0,-1,1315,1247,0,0
98,-223,0,0,0,0,0,0,0,0,0,-1,1322,1247,0,0
105,-223,0,0,0,0,0,0,0,0,0,-1,1329,1247,0,0
112,-223,0,0,0,0,0,0,0,0,0,-1,1336,1247,0,0
119,-223,0,0,0,0,0,0,0,0,0,-1,1343,1247,0,0
126,-223,0,0,0,0,0,0,0,0,0,-1,1350,1247,0,0
133,-223,0,0,0,0,0,0,0,0,0,-1,1357,1247,0,0
140,-223,0,0,0,0,0,0,0,0,0,-1,1364,1247,0,0
147,-223,0,0,0,0,0,0,0,0,0,-1,1371,1247,0,0
154,-223,0,0,0,0,0,0,0,0,0,-1,1378,1247,0,0
161,-223,0,0,0,0,0,0,0,0,0,-1,1385,1247,0,0
168,-223,0,0,0,0,0,0,0,0,0,-1,1392,1247,0,0
175,-223,0,0,0,0,0,0,0,0,0,-1,1399,1247,0,0
182,-223,0,0,0,0,0,0,0,0,0,-1,1406,1247,0,0
189,-223,0,0,0,0,0,0,0,0,0,-1,1413,1247,0,0
196,-223,0,0,0,0,0,0,0,0,0,-1,1420,1247,0,0
203,-223,0,0,0,0,0,0,0,0,0,-1,1427,1247,0,0
210,-223,0,0,0,0,0,0,0,0,0,-1,1434,1247,0,0
217,-223,0,0,0,0,0,0,0,0,0,-1,1441,1247,0,0
224,-223,0,0,0,0,0,0,0,0,0,-1,1448,1247,0,0
231,-223,0,0,0,0,0,0,0,0,0,-1,1455,1247,0,0
238,-223,0,0,0,0,0,0,0,0,0,-1,1462,1247,0,0
245,-223,0,0,0,0,0,0,0,0,0,-1,1469,1247,0,0
252,-223,0,0,0,0,0,0,0,0,0,-1,1476,1247,0,0
259,-223,0,0,0,0,0,0,0,0,0,-1,1483,1247,0,0
266,-223,0,0,0,0,0,0,0,0,0,-1,1490,1247,0,0
273,-223,0,0,0,0,0,0,0,0,0,-1,1497,1247,0,0
280,-223,0,0,0,0,0,0,0,0,0,-1,1504,1247,0,0
287,-223,0,0,0,0,0,0,0,0,0,-1,1511,1247,0,0
294,-223,0,0,0,0,0,0,0,0,0,-1,1518,1247,0,0
301,-223,0,0,0,0,0,0,0,0,0,-1,1525,1247,0,0
308,-223,0,0,0,0,0,0,0,0,0,-1,1532,1247,0,0
315,-223,0,0,0,0,0,0,0,0,0,-1,1539,1247,0,0
322,-223,0,0,0,0,0,0,0,0,0,-1,1546,1247,0,0
329,-223,0,0,0,0,0,0,0,0,0,-1,1553,1247,0,0
336,-223,0,0,0,0,0,0,0,0,0,-1,1560,1247,0,0
343,-223,0,0,0,0,0,0,0,0,0,-1,1567,1247,0,0
350,-223,0,0,0,0,0,0,0,0,0,-1,1574,1247,0,0
357,-223,0,0,0,0,0,0,0,0,0,-1,1581,1247,0,0
364,-223,0,0,0,0,0,0,0,0,0,-1,1588,1247,0,0
371,-223,0,0,0,0,0,0,0,0,0,-1,1595,1247,0,0
378,-223,0,0,0,0,0,0,0,0,0,-1,1602,1247,0,0
385,-223,0,0,0,0,0,0,0,0,0,-1,1609,1247,0,0
392,-223,0,0,0,0,0,0,0,0,0,-1,1616,1247,0,0
399,-223,0,0,0,0,0,0,0,0,0,-1,1623,1247,0,0
406,-223,0,0,0,0,0,0,0,0,0,-1,1630,1247,0,0
413,-223,0,0,0,0,0,0,0,0,0,-1,1637,1247,0,0
420,-223,0,0,0,0,0,0,0,0,0,-1,1644,1247,0,0
427,-223,0,0,0,0,0,0,0,0,0,-1,1651,1247,0,0
434,-223,0,0,0,0,0,0,0,0,0,-1,1658,1247,0,0
441,-223,0,0,0,0,0,0,0,0,0,-1,1665,1247,0,0
448,-223,0,0,0,0,0,0,0,0,0,-1,1672,1247,0,0
455,-223,0,0,0,0,0,0,0,0,0,-1,1679,1247,0,0
462,-223,0,0,0,0,0,0,0,0,0,-1,1686,1247,0,0
469,-223,0,0,0,0,0,0,0,0,0,-1,1693,1247,0,0
476,-223,0,0,0,0,0,0,0,0,0,-1,1700,1247,0,0
483,-223,0,0,0,0,0,0,0,0,0,-1,1707,1247,0,0
490,-223,0,0,0,0,0,0,0,0,0,-1,1714,1247,0,0
497,-223,0,0,0,0,0,0,0,0,0,-1,1721,1247,0,0
504,-223,0,0,0,0,0,0,0,0,0,-1,1728,1247,0,0
511,-223,0,0,0,0,0,0,0,0,0,-1,1735,1247,0,0
518,-223,0,0,0,0,0,0,0,0,0,-1,1742,1247,0,0
525,-223,0,0,0,0,0,0,0,0,0,-1,1749,1247,0,0
532,-223,0,0,0,0,0,0,0,0,0,-1,1756,1247,0,0
539,-223,0,0,0,0,0,0,0,0,0,-1,1763,1247,0,0
546,-223,0,0,0,0,0,0,0,0,0,-1,1770,1247,0,0
553,-223,0,0,0,0,0,0,0,0,0,-1,1777,1247,0,0
560,-223,0,0,0,0,0,0,0,0,0,-1,1784,1247,0,0
567,-223,0,0,0,0,0,0,0,0,0,-1,1791,1247,0,0
574,-223,0,0,0,0,0,0,0,0,0,-1,1798,1247,0,0
581,-223,0,0,0,0,0,0,0,0,0,-1,1805,1247,0,0
588,-223,0,0,0,0,0,0,0,0,0,-1,1812,1247,0,0
595,-223,0,0,0,0,0,0,0,0,0,-1,1819,1247,0,0
602,-223,0,0,0,0,0,0,0,0,0,-1,1826,1247,0,0
609,-223,0,0,0,0,0,0,0,0,0,-1,1833,1247,0,0
616,-223,0,0,0,0,0,0,0,0,0,-1,1840,1247,0,0
623,-223,71.4375,2.47681,0.000952428,0.00207802,0.000323025,0.00216414,0.000866314,1.31027,0.00125772,0.041287,1847,1247,71.4375,-2.47685
630,-223,71.4333,2.32593,-0.00123347,0.00516064,-2.42335e-07,0.00516064,-0.00123347,-1.57076,0.00391686,0.0385545,1854,1247,71.4333,-2.3259
637,-223,71.4099,2.29565,-0.00272529,0.00761288,-0.000373051,0.00762633,-0.00273874,-1.53477,0.00620208,0.0304369,1861,1247,71.4099,-2.2956
644,-223,71.4133,2.27136,-0.00259753,0.00795099,-0.000904158,0.00802793,-0.00267446,-1.48591,0.00643155,0.023168,1868,1247,71.4133,-2.27139
651,-223,71.4857,2.27991,-0.00172157,0.00669032,-0.00119602,0.00685707,-0.00188832,-1.43227,0.00531386,0.0310773,1875,1247,71.4858,-2.27996
658,-223,71.6429,2.41541,0,0,0,0,0,0,0,-1,1882,1247,71.6429,-2.41544
665,-223,68.7177,1.6427,0,0,0,0,0,0,0,-1,1889,1247,68.7176,-1.64275
672,-223,56.4625,2.72424,0,0,0,0,0,0,0,-1,1896,1247,56.4626,-2.72418
679,-223,43.2783,2.46973,0,0,0,0,0,0,0,-1,1903,1247,43.2784,-2.46978
686,-223,40.7926,10.0316,0,0,0,0,0,0,0,-1,1910,1247,40.7926,-10.0316
693,-223,55.5261,12.8093,0,0,0,0,0,0,0,-1,1917,1247,55.5261,-12.8093
700,-223,55.0945,12.2452,0,0,0,0,0,0,0,-1,1924,1247,55.0944,-12.2452
707,-223,55.1172,11.4576,0,0,0,0,0,0,0,-1,1931,1247,55.1172,-11.4577
714,-223,55.0211,10.8392,0.000372628,-0.000389105,0.000279334,0.000464082,-0.000480559,0.316402,0.000545417,0.0196793,1938,1247,55.0212,-10.8392
721,-223,54.9397,10.2076,-2.63948e-05,-0.000338979,0.000964404,0.000794299,-0.00115967,0.705066,0.00113468,0.0153487,1945,1247,54.9397,-10.2077
728,-223,54.9042,9.53516,-0.00053808,-3.11504e-06,0.00173562,0.00148552,-0.00202671,0.861853,0.00203579,0.0190611,1952,1247,54.9041,-9.53521
735,-223,54.8658,8.87476,-0.001002,0.000193509,0.00230733,0.00197926,-0.00278775,0.912145,0.00276539,0.0190163,1959,1247,54.8658,-8.8748
742,-223,54.7904,8.22388,-0.00139747,0.000401,0.00300139,0.00263497,-0.00363143,0.930946,0.00363312,0.0178,1966,1247,54.7904,-8.22383
749,-223,54.7629,7.46631,-0.00163465,0.000636286,0.00379457,0.00346163,-0.00445999,0.930776,0.00458564,0.0136925,1973,1247,54.7629,-7.46626
756,-223,54.7002,6.77734,-0.00164878,0.000926887,0.00469686,0.00450927,-0.00523117,0.919205,0.00562879,0.0150807,1980,1247,54.7003,-6.77738
763,-223,54.6576,6.21619,-0.00152559,0.00103824,0.00617629,0.00606424,-0.00655159,0.887723,0.00728557,0.0218785,1987,1247,54.6576,-6.2162
770,-223,54.917,5.60193,0,0,0,0,0,0,0,-1,1994,1247,54.9171,-5.60187
777,-223,53.7227,4.88562,0,0,0,0,0,0,0,-1,2001,1247,53.7227,-4.8856
784,-223,68.8677,0.507813,0,0,0,0,0,0,0,-1,2008,1247,68.8676,-0.507816
791,-223,34.7136,2.92554,0,0,0,0,0,0,0,-1,2015,1247,34.7137,-2.92555
798,-223,0,0,0,0,0,0,0,0,0,-1,2022,1247,0,0
805,-223,0,0,0,0,0,0,0,0,0,-1,2029,1247,0,0
812,-223,0,0,0,0,0,0,0,0,0,-1,2036,1247,0,0
-700,-230,0,0,0,0,0,0,0,0,0,-1,524,1254,0,0
-693,-230,0,0,0,0,0,0,0,0,0,-1,531,1254,0,0
-686,-230,0,0,0,0,0,0,0,0,0,-1,538,1254,0,0
-679,-230,0,0,0,0,0,0,0,0,0,-1,545,1254,0,0
-672,-230,-38.5905,2.07617,0,0,0,0,0,0,0,-1,552,1254,-38.5905,-2.07614
-665,-230,-38.168,-9.9397,0,0,0,0,0,0,0,-1,559,1254,-38.168,9.93971
-658,-230,-38.8468,-8.48303,0,0,0,0,0,0,0,-1,566,1254,-38.8468,8.48304
-651,-230,-39.3627,-7.38525,0,0,0,0,0,0,0,-1,573,1254,-39.3627,7.38529
-644,-230,-48.2715,0.872925,0,0,0,0,0,0,0,-1,580,1254,-48.2715,-0.87288
-637,-230,-49.1636,-0.158325,0,0,0,0,0,0,0,-1,587,1254,-49.1636,0.158288
-630,-230,-38.325,4.63721,0,0,0,0,0,0,0,-1,594,1254,-38.325,-4.63724
-623,-230,-37.8842,5.41895,0.00532853,0.00583338,0.000415691,0.00606729,0.00509462,1.05826,0.00376278,0.0427879,601,1254,-37.8842,-5.41898
-616,-230,-37.6603,6.02234,0.00425474,0.00432436,0.000322916,0.00461434,0.00396477,0.839091,0.00288419,0.018084,608,1254,-37.6604,-6.02234
-609,-230,-37.7076,6.74976,0.00307947,0.002998,0.000115393,0.00316111,0.00291636,0.615729,0.00203075,0.0122456,615,1254,-37.7077,-6.74977
-602,-230,-37.7398,7.46863,0.0020266,0.00149168,-0.000194153,0.00208964,0.00142864,-0.313954,0.00123329,0.0123345,622,1254,-37.7398,-7.46866
-595,-230,-37.7963,8.24329,0.00102456,-6.48465e-05,-0.000532179,0.00124138,-0.000281666,-0.386885,0.000935713,0.0195934,629,1254,-37.7963,-8.24324
-588,-230,-37.8408,9.0614,7.2317e-05,-0.00140833,-0.00097569,0.00055676,-0.00189277,-0.460854,0.0014827,0.0282533,636,1254,-37.8408,-9.06137
-581,-230,-37.8962,9.94189,-0.000969423,-0.00209234,-0.00138741,-3.41741e-05,-0.00302758,-0.593131,0.0020071,0.0348842,643,1254,-37.8963,-9.94192
-574,-230,-38.1107,10.782,0,0,0,0,0,0,0,-1,650,1254,-38.1107,-10.7819
-567,-230,-37.6903,10.7856,0,0,0,0,0,0,0,-1,657,1254,-37.6903,-10.7856
-560,-230,-38.0956,11.1184,0,0,0,0,0,0,0,-1,664,1254,-38.0956,-11.1184
-553,-230,-13.1939,4.9718,0,0,0,0,0,0,0,-1,671,1254,-13.1939,-4.97175
-546,-230,-15.23,0.453979,0,0,0,0,0,0,0,-1,678,1254,-15.23,-0.453996
-539,-230,-25.8232,0.512817,0,0,0,0,0,0,0,-1,685,1254,-25.8232,-0.512878
-532,-230,-21.1644,1.52966,0,0,0,0,0,0,0,-1,692,1254,-21.1644,-1.52969
-525,-230,-29.4775,0.731445,0,0,0,0,0,0,0,-1,699,1254,-29.4775,-0.731432
-518,-230,-54.9223,0.516235,0,0,0,0,0,0,0,-1,706,1254,-54.9223,-0.516209
-511,-230,-55.0959,0.541992,0.00518351,-0.00375205,0.00300225,0.00609853,-0.00466707,0.295835,0.00623381,0.0406045,713,1254,-55.0959,-0.542011
-504,-230,-55.1226,0.658813,0.00795393,-0.00480308,0.00497279,0.00966331,-0.00651246,0.331094,0.00939796,0.0374694,720,1254,-55.1226,-0.658851
-497,-230,0,0,0,0,0,0,0,0,0,-1,727,1254,0,0
-490,-230,0,0,0,0,0,0,0,0,0,-1,734,1254,0,0
-483,-230,0,0,0,0,0,0,0,0,0,-1,741,1254,0,0
-476,-230,0,0,0,0,0,0,0,0,0,-1,748,1254,0,0
-469,-230,0,0,0,0,0,0,0,0,0,-1,755,1254,0,0
-462,-230,0,0,0,0,0,0,0,0,0,-1,762,1254,0,0
-455,-230,0,0,0,0,0,0,0,0,0,-1,769,1254,0,0
-448,-230,0,0,0,0,0,0,0,0,0,-1,776,1254,0,0
-441,-230,0,0,0,0,0,0,0,0,0,-1,783,1254,0,0
-434,-230,0,0,0,0,0,0,0,0,0,-1,790,1254,0,0
-427,-230,0,0,0,0,0,0,0,0,0,-1,797,1254,0,0
-420,-230,0,0,0,0,0,0,0,0,0,-1,804,1254,0,0
-413,-230,0,0,0,0,0,0,0,0,0,-1,811,1254,0,0
-406,-230,0,0,0,0,0,0,0,0,0,-1,818,1254,0,0
-399,-230,0,0,0,0,0,0,0,0,0,-1,825,1254,0,0
-392,-230,0,0,0,0,0,0,0,0,0,-1,832,1254,0,0
-385,-230,0,0,0,0,0,0,0,0,0,-1,839,1254,0,0
-378,-230,0,0,0,0,0,0,0,0,0,-1,846,1254,0,0
-371,-230,0,0,0,0,0,0,0,0,0,-1,853,1254,0,0
-364,-230,0,0,0,0,0,0,0,0,0,-1,860,1254,0,0
-357,-230,0,0,0,0,0,0,0,0,0,-1,867,1254,0,0
-350,-230,0,0,0,0,0,0,0,0,0,-1,874,1254,0,0
-343,-230,0,0,0,0,0,0,0,0,0,-1,881,1254,0,0
-336,-230,0,0,0,0,0,0,0,0,0,-1,888,1254,0,0
-329,-230,0,0,0,0,0,0,0,0,0,-1,895,1254,0,0
-322,-230,0,0,0,0,0,0,0,0,0,-1,902,1254,0,0
-315,-230,0,0,0,0,0,0,0,0,0,-1,909,1254,0,0
-308,-230,0,0,0,0,0,0,0,0,0,-1,916,1254,0,0
-301,-230,0,0,0,0,0,0,0,0,0,-1,923,1254,0,0
-294,-230,0,0,0,0,0,0,0,0,0,-1,930,1254,0,0
-287,-230,0,0,0,0,0,0,0,0,0,-1,937,1254,0,0
-280,-230,0,0,0,0,0,0,0,0,0,-1,944,1254,0,0
-273,-230,0,0,0,0,0,0,0,0,0,-1,951,1254,0,0
-266,-230,0,0,0,0,0,0,0,0,0,-1,958,1254,0,0
-259,-230,0,0,0,0,0,0,0,0,0,-1,965,1254,0,0
-252,-230,0,0,0,0,0,0,0,0,0,-1,972,1254,0,0
-245,-230,0,0,0,0,0,0,0,0,0,-1,979,1254,0,0
-238,-230,0,0,0,0,0,0,0,0,0,-1,986,1254,0,0
-231,-230,0,0,0,0,0,0,0,0,0,-1,993,1254,0,0
-224,-230,0,0,0,0,0,0,0,0,0,-1,1000,1254,0,0
-217,-230,0,0,0,0,0,0,0,0,0,-1,1007,1254,0,0
-210,-230,0,0,0,0,0,0,0,0,0,-1,1014,1254,0,0
-203,-230,0,0,0,0,0,0,0,0,0,-1,1021,1254,0,0
-196,-230,0,0,0,0,0,0,0,0,0,-1,1028,1254,0,0
-189,-230,0,0,0,0,0,0,0,0,0,-1,1035,1254,0,0
-182,-230,0,0,0,0,0,0,0,0,0,-1,1042,1254,0,0
-175,-230,0,0,0,0,0,0,0,0,0,-1,1049,1254,0,0
-168,-230,0,0,0,0,0,0,0,0,0,-1,1056,1254,0,0
-161,-230,0,0,0,0,0,0,0,0,0,-1,1063,1254,0,0
-154,-230,0,0,0,0,0,0,0,0,0,-1,1070,1254,0,0
-147,-230,0,0,0,0,0,0,0,0,0,-1,1077,1254,0,0
-140,-230,0,0,0,0,0,0,0,0,0,-1,1084,1254,0,0
-133,-230,0,0,0,0,0,0,0,0,0,-1,1091,1254,0,0
-126,-230,0,0,0,0,0,0,0,0,0,-1,1098,1254,0,0
-119,-230,0,0,0,0,0,0,0,0,0,-1,1105,1254,0,0
-112,-230,0,0,0,0,0,0,0,0,0,-1,1112,1254,0,0
-105,-230,0,0,0,0,0,0,0,0,0,-1,1119,1254,0,0
-98,-230,0,0,0,0,0,0,0,0,0,-1,1126,1254,0,0
-91,-230,0,0,0,0,0,0,0,0,0,-1,1133,1254,0,0
-84,-230,0,0,0,0,0,0,0,0,0,-1,1140,1254,0,0
-77,-230,0,0,0,0,0,0,0,0,0,-1,1147,1254,0,0
-70,-230,0,0,0,0,0,0,0,0,0,-1,1154,1254,0,0
-63,-230,0,0,0,0,0,0,0,0,0,-1,1161,1254,0,0
-56,-230,0,0,0,0,0,0,0,0,0,-1,1168,1254,0,0
-49,-230,0,0,0,0,0,0,0,0,0,-1,1175,1254,0,0
-42,-230,0,0,0,0,0,0,0,0,0,-1,1182,1254,0,0
-35,-230,0,0,0,0,0,0,0,0,0,-1,1189,1254,0,0
-28,-230,0,0,0,0,0,0,0,0,0,-1,1196,1254,0,0
-21,-230,0,0,0,0,0,0,0,0,0,-1,1203,1254,0,0
-14,-230,0,0,0,0,0,0,0,0,0,-1,1210,1254,0,0
-7,-230,0,0,0,0,0,0,0,0,0,-1,1217,1254,0,0
0,-230,0,0,0,0,0,0,0,0,0,-1,1224,1254,0,0
7,-230,0,0,0,0,0,0,0,0,0,-1,1231,1254,0,0
14,-230,0,0,0,0,0,0,0,0,0,-1,1238,1254,0,0
21,-230,0,0,0,0,0,0,0,0,0,-1,1245,1254,0,0
28,-230,0,0,0,0,0,0,0,0,0,-1,1252,1254,0,0
35,-230,0,0,0,0,0,0,0,0,0,-1,1259,1254,0,0
42,-230,0,0,0,0,0,0,0,0,0,-1,1266,1254,0,0
49,-230,0,0,0,0,0,0,0,0,0,-1,1273,1254,0,0
56,-230,0,0,0,0,0,0,0,0,0,-1,1280,1254,0,0
63,-230,0,0,0,0,0,0,0,0,0,-1,1287,1254,0,0
70,-230,0,0,0,0,0,0,0,0,0,-1,1294,1254,0,0
77,-230,0,0,0,0,0,0,0,0,0,-1,1301,1254,0,0
84,-230,0,0,0,0,0,0,0,0,0,-1,1308,1254,0,0
91,-230,0,0,0,0,0,0,0,0,0,-1,1315,1254,0,0
98,-230,0,0,0,0,0,0,0,0,0,-1,1322,1254,0,0
105,-230,0,0,0,0,0,0,0,0,0,-1,1329,1254,0,0
112,-230,0,0,0,0,0,0,0,0,0,-1,1336,1254,0,0
119,-230,0,0,0,0,0,0,0,0,0,-1,1343,1254,0,0
126,-230,0,0,0,0,0,0,0,0,0,-1,1350,1254,0,0
133,-230,0,0,0,0,0,0,0,0,0,-1,1357,1254,0,0
140,-230,0,0,0,0,0,0,0,0,0,-1,1364,1254,0,0
147,-230,0,0,0,0,0,0,0,0,0,-1,1371,1254,0,0
154,-230,0,0,0,0,0,0,0,0,0,-1,1378,1254,0,0
161,-230,0,0,0,0,0,0,0,0,0,-1,1385,1254,0,0
168,-230,0,0,0,0,0,0,0,0,0,-1,1392,1254,0,0
175,-230,0,0,0,0,0,0,0,0,0,-1,1399,1254,0,0
182,-230,0,0,0,0,0,0,0,0,0,-1,1406,1254,0,0
189,-230,0,0,0,0,0,0,0,0,0,-1,1413,1254,0,0
196,-230,0,0,0,0,0,0,0,0,0,-1,1420,1254,0,0
203,-230,0,0,0,0,0,0,0,0,0,-1,1427,1254,0,0
210,-230,0,0,0,0,0,0,0,0,0,-1,1434,1254,0,0
217,-230,0,0,0,0,0,0,0,0,0,-1,1441,1254,0,0
224,-230,0,0,0,0,0,0,0,0,0,-1,1448,1254,0,0
231,-230,0,0,0,0,0,0,0,0,0,-1,1455,1254,0,0
238,-230,0,0,0,0,0,0,0,0,0,-1,1462,1254,0,0
245,-230,0,0,0,0,0,0,0,0,0,-1,1469,1254,0,0
252,-230,0,0,0,0,0,0,0,0,0,-1,1476,1254,0,0
259,-230,0,0,0,0,0,0,0,0,0,-1,1483,1254,0,0
266,-230,0,0,0,0,0,0,0,0,0,-1,1490,1254,0,0
273,-230,0,0,0,0,0,0,0,0,0,-1,1497,1254,0,0
280,-230,0,0,0,0,0,0,0,0,0,-1,1504,1254,0,0
287,-230,0,0,0,0,0,0,0,0,0,-1,1511,1254,0,0
294,-230,0,0,0,0,0,0,0,0,0,-1,1518,1254,0,0
301,-230,0,0,0,0,0,0,0,0,0,-1,1525,1254,0,0
308,-230,0,0,0,0,0,0,0,0,0,-1,1532,1254,0,0
315,-230,0,0,0,0,0,0,0,0,0,-1,1539,1254,0,0
322,-230,0,0,0,0,0,0,0,0,0,-1,1546,1254,0,0
329,-230,0,0,0,0,0,0,0,0,0,-1,1553,1254,0,0
336,-230,0,0,0,0,0,0,0,0,0,-1,1560,1254,0,0
343,-230,0,0,0,0,0,0,0,0,0,-1,1567,1254,0,0
350,-230,0,0,0,0,0,0,0,0,0,-1,1574,1254,0,0
357,-230,0,0,0,0,0,0,0,0,0,-1,1581,1254,0,0
364,-230,0,0,0,0,0,0,0,0,0,-1,1588,1254,0,0
371,-230,0,0,0,0,0,0,0,0,0,-1,1595,1254,0,0
378,-230,0,0,0,0,0,0,0,0,0,-1,1602,1254,0,0
385,-230,0,0,0,0,0,0,0,0,0,-1,1609,1254,0,0
392,-230,0,0,0,0,0,0,0,0,0,-1,1616,1254,0,0
399,-230,0,0,0,0,0,0,0,0,0,-1,1623,1254,0,0
406,-230,0,0,0,0,0,0,0,0,0,-1,1630,1254,0,0
413,-230,0,0,0,0,0,0,0,0,0,-1,1637,1254,0,0
420,-230,0,0,0,0,0,0,0,0,0,-1,1644,1254,0,0
427,-230,0,0,0,0,0,0,0,0,0,-1,1651,1254,0,0
434,-230,0,0,0,0,0,0,0,0,0,-1,1658,1254,0,0
441,-230,0,0,0,0,0,0,0,0,0,-1,1665,1254,0,0
448,-230,0,0,0,0,0,0,0,0,0,-1,1672,1254,0,0
455,-230,0,0,0,0,0,0,0,0,0,-1,1679,1254,0,0
462,-230,0,0,0,0,0,0,0,0,0,-1,1686,1254,0,0
469,-230,0,0,0,0,0,0,0,0,0,-1,1693,1254,0,0
476,-230,0,0,0,0,0,0,0,0,0,-1,1700,1254,0,0
483,-230,0,0,0,0,0,0,0,0,0,-1,1707,1254,0,0
490,-230,0,0,0,0,0,0,0,0,0,-1,1714,1254,0,0
497,-230,0,0,0,0,0,0,0,0,0,-1,1721,1254,0,0
504,-230,0,0,0,0,0,0,0,0,0,-1,1728,1254,0,0
511,-230,0,0,0,0,0,0,0,0,0,-1,1735,1254,0,0
518,-230,0,0,0,0,0,0,0,0,0,-1,1742,1254,0,0
525,-230,0,0,0,0,0,0,0,0,0,-1,1749,1254,0,0
532,-230,0,0,0,0,0,0,0,0,0,-1,1756,1254,0,0
539,-230,0,0,0,0,0,0,0,0,0,-1,1763,1254,0,0
546,-230,0,0,0,0,0,0,0,0,0,-1,1770,1254,0,0
553,-230,0,0,0,0,0,0,0,0,0,-1,1777,1254,0,0
560,-230,0,0,0,0,0,0,0,0,0,-1,1784,1254,0,0
567,-230,0,0,0,0,0,0,0,0,0,-1,1791,1254,0,0
574,-230,0,0,0,0,0,0,0,0,0,-1,1798,1254,0,0
581,-230,0,0,0,0,0,0,0,0,0,-1,1805,1254,0,0
588,-230,0,0,0,0,0,0,0,0,0,-1,1812,1254,0,0
595,-230,0,0,0,0,0,0,0,0,0,-1,1819,1254,0,0
602,-230,0,0,0,0,0,0,0,0,0,-1,1826,1254,0,0
609,-230,0,0,0,0,0,0,0,0,0,-1,1833,1254,0,0
616,-230,71.5947,2.38843,0.00225649,-0.000102001,0.000452023,0.00234016,-0.000185667,0.18302,0.00162553,0.0373864,1840,1254,71.5948,-2.38848
623,-230,71.6902,2.47107,-0.0010938,0.00478305,0.000541222,0.00483248,-0.00114323,1.47972,0.00366269,0.0389006,1847,1254,71.6902,-2.47111
630,-230,71.6497,2.35352,-0.0035644,0.00855108,0.00031665,0.00855935,-0.00357267,1.54468,0.00719895,0.0333484,1854,1254,71.6496,-2.35346
637,-230,71.415,2.30334,-0.00492095,0.0110864,-1.35764e-05,0.0110864,-0.00492096,-1.56995,0.00946759,0.0279049,1861,1254,71.4151,-2.30332
644,-230,71.3304,2.19348,-0.00392346,0.0101352,-0.000553868,0.010157,-0.00394525,-1.53148,0.00840112,0.0215583,1868,1254,71.3304,-2.19346
651,-230,71.28,2.06128,-0.00263312,0.00805635,-0.000755237,0.00810945,-0.00268622,-1.50061,0.00648974,0.0485772,1875,1254,71.2801,-2.06124
658,-230,71.2349,1.95703,0,0,0,0,0,0,0,-1,1882,1254,71.2348,-1.95703
665,-230,56.2585,2.51587,0,0,0,0,0,0,0,-1,1889,1254,56.2586,-2.51586
672,-230,43.0962,2.78699,0,0,0,0,0,0,0,-1,1896,1254,43.0962,-2.78698
679,-230,27.9967,2.37708,0,0,0,0,0,0,0,-1,1903,1254,27.9967,-2.3771
686,-230,40.8854,10.1788,0,0,0,0,0,0,0,-1,1910,1254,40.8853,-10.1788
693,-230,50.7637,12.0411,0,0,0,0,0,0,0,-1,1917,1254,50.7636,-12.0412
700,-230,54.1611,12.3112,0,0,0,0,0,0,0,-1,1924,1254,54.1612,-12.3111
707,-230,54.3915,11.5643,0.000543148,-0.000901638,0.000107725,0.000551136,-0.000909626,0.074016,0.000851795,0.0308755,1931,1254,54.3915,-11.5643
714,-230,54.2737,10.9247,5.7686e-05,-0.000671912,0.000606183,0.000400372,-0.0010146,0.514528,0.000842199,0.0163904,1938,1254,54.2736,-10.9247
721,-230,54.2391,10.2379,-0.000551136,-0.000526309,0.00132047,0.000781804,-0.00185925,0.790098,0.00156654,0.0143681,1945,1254,54.2392,-10.2379
728,-230,54.1729,9.58386,-0.00121658,-0.000168694,0.00206304,0.0014359,-0.00282117,0.909752,0.00250082,0.0151885,1952,1254,54.1728,-9.58382
735,-230,54.1322,8.91223,-0.00180817,8.21707e-05,0.00267492,0.001974,-0.0037,0.955224,0.00332602,0.0153486,1959,1254,54.1322,-8.91229
742,-230,54.0857,8.2085,-0.0023162,0.000347172,0.00338425,0.00265231,-0.00462135,0.972841,0.00425043,0.0124313,1966,1254,54.0857,-8.20846
749,-230,54.0737,7.47839,-0.00264521,0.000661408,0.00416342,0.00348778,-0.00547158,0.974402,0.00521478,0.0117778,1973,1254,54.0737,-7.47845
756,-230,54.021,6.81494,-0.00274839,0.00104583,0.00505476,0.00454777,-0.00625032,0.96492,0.00626006,0.0164638,1980,1254,54.021,-6.81494
763,-230,53.9757,6.15442,-0.00268459,0.00128544,0.00651035,0.00610666,-0.00750581,0.933372,0.00787299,0.0369591,1987,1254,53.9757,-6.15447
770,-230,54.2793,5.46875,0,0,0,0,0,0,0,-1,1994,1254,54.2794,-5.46875
777,-230,41.8693,3.74707,0,0,0,0,0,0,0,-1,2001,1254,41.8692,-3.74713
784,-230,35.8896,1.80334,0,0,0,0,0,0,0,-1,2008,1254,35.8897,-1.80338
791,-230,35.6028,2.20642,0,0,0,0,0,0,0,-1,2015,1254,35.6027,-2.2064
798,-230,0,0,0,0,0,0,0,0,0,-1,2022,1254,0,0
805,-230,0,0,0,0,0,0,0,0,0,-1,2029,1254,0,0
812,-230,0,0,0,0,0,0,0,0,0,-1,2036,1254,0,0
-700,-237,0,0,0,0,0,0,0,0,0,-1,524,1261,0,0
-693,-237,0,0,0,0,0,0,0,0,0,-1,531,1261,0,0
-686,-237,0,0,0,0,0,0,0,0,0,-1,538,1261,0,0
-679,-237,0,0,0,0,0,0,0,0,0,-1,545,1261,0,0
-672,-237,-36.6405,-12.5112,0,0,0,0,0,0,0,-1,552,1261,-36.6405,12.5113
-665,-237,-37.1436,-10.5648,0,0,0,0,0,0,0,-1,559,1261,-37.1436,10.5649
-658,-237,-37.8344,-8.67175,0,0,0,0,0,0,0,-1,566,1261,-37.8344,8.67179
-651,-237,-46.9487,1.65137,0,0,0,0,0,0,0,-1,573,1261,-46.9487,-1.65142
-644,-237,-47.6604,0.785034,0,0,0,0,0,0,0,-1,580,1261,-47.6604,-0.785034
-637,-237,-33.4961,2.71313,0,0,0,0,0,0,0,-1,587,1261,-33.4961,-2.71312
-630,-237,-37.1131,4.44434,0,0,0,0,0,0,0,-1,594,1261,-37.1131,-4.4443
-623,-237,-36.8865,5.19495,0.00773462,0.00624454,0.00131738,0.00850304,0.00547612,0.528046,0.00497665,0.0386378,601,1261,-36.8865,-5.19495
-616,-237,-36.8502,6.01489,0.00590689,0.00488467,0.0010861,0.00659613,0.00419543,0.565476,0.00385498,0.0155189,608,1261,-36.8502,-6.01491
-609,-237,-36.9347,6.75708,0.00417102,0.0036553,0.000743432,0.00470004,0.00312628,0.618466,0.00276248,0.0166123,615,1261,-36.9347,-6.75705
-602,-237,-36.9864,7.49841,0.00274932,0.00209278,0.000327901,0.00288504,0.00195706,0.392415,0.00170063,0.0127309,622,1261,-36.9864,-7.49836
-595,-237,-37.0696,8.25452,0.00156724,0.000412848,-0.00010691,0.00157705,0.000403031,-0.0915741,0.000946087,0.0153102,629,1261,-37.0696,-8.25447
-588,-237,-37.0916,9.04138,0.000584117,-0.00119686,-0.000617289,0.000777148,-0.00138989,-0.303074,0.0012677,0.0270833,636,1261,-37.0916,-9.04136
-581,-237,-37.0988,9.76196,-0.000434929,-0.00239369,-0.00107225,3.78945e-05,-0.00286652,-0.415316,0.00192377,0.0270089,643,1261,-37.0988,-9.76192
-574,-237,-37.064,10.3597,-0.00136924,-0.00300345,-0.00142978,-0.000539546,-0.00383314,-0.525802,0.00239591,0.0329178,650,1261,-37.064,-10.3597
-567,-237,-37.1177,10.9291,0,0,0,0,0,0,0,-1,657,1261,-37.1176,-10.9291
-560,-237,-37.1683,11.465,0,0,0,0,0,0,0,-1,664,1261,-37.1683,-11.4649
-553,-237,-20.6102,6.92139,0,0,0,0,0,0,0,-1,671,1261,-20.6102,-6.92138
-546,-237,-11.192,1.14014,0,0,0,0,0,0,0,-1,678,1261,-11.192,-1.14011
-539,-237,-16.512,1.53455,0,0,0,0,0,0,0,-1,685,1261,-16.512,-1.53457
-532,-237,-29.7025,1.23621,0,0,0,0,0,0,0,-1,692,1261,-29.7025,-1.23618
-525,-237,-47.2925,0.590942,0,0,0,0,0,0,0,-1,699,1261,-47.2925,-0.590989
-518,-237,-48.2897,0.765869,0,0,0,0,0,0,0,-1,706,1261,-48.2897,-0.765854
-511,-237,-54.987,0.541504,0,0,0,0,0,0,0,-1,713,1261,-54.987,-0.541531
-504,-237,-55.1628,0.762329,0.00718035,-0.00519467,0.00592976,0.00956298,-0.0075773,0.382065,0.00991805,0.0444756,720,1261,-55.1628,-0.762282
-497,-237,-55.163,0.845459,0,0,0,0,0,0,0,-1,727,1261,-55.1631,-0.845437
-490,-237,0,0,0,0,0,0,0,0,0,-1,734,1261,0,0
-483,-237,0,0,0,0,0,0,0,0,0,-1,741,1261,0,0
-476,-237,0,0,0,0,0,0,0,0,0,-1,748,1261,0,0
-469,-237,0,0,0,0,0,0,0,0,0,-1,755,1261,0,0
-462,-237,0,0,0,0,0,0,0,0,0,-1,762,1261,0,0
-455,-237,0,0,0,0,0,0,0,0,0,-1,769,1261,0,0
-448,-237,0,0,0,0,0,0,0,0,0,-1,776,1261,0,0
-441,-237,0,0,0,0,0,0,0,0,0,-1,783,1261,0,0
-434,-237,0,0,0,0,0,0,0,0,0,-1,790,1261,0,0
-427,-237,0,0,0,0,0,0,0,0,0,-1,797,1261,0,0
-420,-237,0,0,0,0,0,0,0,0,0,-1,804,1261,0,0
-413,-237,0,0,0,0,0,0,0,0,0,-1,811,1261,0,0
-406,-237,0,0,0,0,0,0,0,0,0,-1,818,1261,0,0
-399,-237,0,0,0,0,0,0,0,0,0,-1,825,1261,0,0
-392,-237,0,0,0,0,0,0,0,0,0,-1,832,1261,0,0
-385,-237,0,0,0,0,0,0,0,0,0,-1,839,1261,0,0
-378,-237,0,0,0,0,0,0,0,0,0,-1,846,1261,0,0
-371,-237,0,0,0,0,0,0,0,0,0,-1,853,1261,0,0
-364,-237,0,0,0,0,0,0,0,0,0,-1,860,1261,0,0
-357,-237,0,0,0,0,0,0,0,0,0,-1,867,1261,0,0
-350,-237,0,0,0,0,0,0,0,0,0,-1,874,1261,0,0
-343,-237,0,0,0,0,0,0,0,0,0,-1,881,1261,0,0
-336,-237,0,0,0,0,0,0,0,0,0,-1,888,1261,0,0
-329,-237,0,0,0,0,0,0,0,0,0,-1,895,1261,0,0
-322,-237,0,0,0,0,0,0,0,0,0,-1,902,1261,0,0
-315,-237,0,0,0,0,0,0,0,0,0,-1,909,1261,0,0
-308,-237,0,0,0,0,0,0,0,0,0,-1,916,1261,0,0
-301,-237,0,0,0,0,0,0,0,0,0,-1,923,1261,0,0
-294,-237,0,0,0,0,0,0,0,0,0,-1,930,1261,0,0
-287,-237,0,0,0,0,0,0,0,0,0,-1,937,1261,0,0
-280,-237,0,0,0,0,0,0,0,0,0,-1,944,1261,0,0
-273,-237,0,0,0,0,0,0,0,0,0,-1,951,1261,0,0
-266,-237,0,0,0,0,0,0,0,0,0,-1,958,1261,0,0
-259,-237,0,0,0,0,0,0,0,0,0,-1,965,1261,0,0
-252,-237,0,0,0,0,0,0,0,0,0,-1,972,1261,0,0
-245,-237,0,0,0,0,0,0,0,0,0,-1,979,1261,0,0
-238,-237,0,0,0,0,0,0,0,0,0,-1,986,1261,0,0
-231,-237,0,0,0,0,0,0,0,0,0,-1,993,1261,0,0
-224,-237,0,0,0,0,0,0,0,0,0,-1,1000,1261,0,0
-217,-237,0,0,0,0,0,0,0,0,0,-1,1007,1261,0,0
-210,-237,0,0,0,0,0,0,0,0,0,-1,1014,1261,0,0
-203,-237,0,0,0,0,0,0,0,0,0,-1,1021,1261,0,0
-196,-237,0,0,0,0,0,0,0,0,0,-1,1028,1261,0,0
-189,-237,0,0,0,0,0,0,0,0,0,-1,1035,1261,0,0
-182,-237,0,0,0,0,0,0,0,0,0,-1,1042,1261,0,0
-175,-237,0,0,0,0,0,0,0,0,0,-1,1049,1261,0,0
-168,-237,0,0,0,0,0,0,0,0,0,-1,1056,1261,0,0
-161,-237,0,0,0,0,0,0,0,0,0,-1,1063,1261,0,0
-154,-237,0,0,0,0,0,0,0,0,0,-1,1070,1261,0,0
-147,-237,0,0,0,0,0,0,0,0,0,-1,1077,1261,0,0
-140,-237,0,0,0,0,0,0,0,0,0,-1,1084,1261,0,0
-133,-237,0,0,0,0,0,0,0,0,0,-1,1091,1261,0,0
-126,-237,0,0,0,0,0,0,0,0,0,-1,1098,1261,0,0
-119,-237,0,0,0,0,0,0,0,0,0,-1,1105,1261,0,0
-112,-237,0,0,0,0,0,0,0,0,0,-1,1112,1261,0,0
-105,-237,0,0,0,0,0,0,0,0,0,-1,1119,1261,0,0
-98,-237,0,0,0,0,0,0,0,0,0,-1,1126,1261,0,0
-91,-237,0,0,0,0,0,0,0,0,0,-1,1133,1261,0,0
-84,-237,0,0,0,0,0,0,0,0,0,-1,1140,1261,0,0
-77,-237,0,0,0,0,0,0,0,0,0,-1,1147,1261,0,0
-70,-237,0,0,0,0,0,0,0,0,0,-1,1154,1261,0,0
-63,-237,0,0,0,0,0,0,0,0,0,-1,1161,1261,0,0
-56,-237,0,0,0,0,0,0,0,0,0,-1,1168,1261,0,0
-49,-237,0,0,0,0,0,0,0,0,0,-1,1175,1261,0,0
-42,-237,0,0,0,0,0,0,0,0,0,-1,1182,1261,0,0
-35,-237,0,0,0,0,0,0,0,0,0,-1,1189,1261,0,0
-28,-237,0,0,0,0,0,0,0,0,0,-1,1196,1261,0,0
-21,-237,0,0,0,0,0,0,0,0,0,-1,1203,1261,0,0
-14,-237,0,0,0,0,0,0,0,0,0,-1,1210,1261,0,0
-7,-237,0,0,0,0,0,0,0,0,0,-1,1217,1261,0,0
0,-237,0,0,0,0,0,0,0,0,0,-1,1224,1261,0,0
7,-237,0,0,0,0,0,0,0,0,0,-1,1231,1261,0,0
14,-237,0,0,0,0,0,0,0,0,0,-1,1238,1261,0,0
21,-237,0,0,0,0,0,0,0,0,0,-1,1245,1261,0,0
28,-237,0,0,0,0,0,0,0,0,0,-1,1252,1261,0,0
35,-237,0,0,0,0,0,0,0,0,0,-1,1259,1261,0,0
42,-237,0,0,0,0,0,0,0,0,0,-1,1266,1261,0,0
49,-237,0,0,0,0,0,0,0,0,0,-1,1273,1261,0,0
56,-237,0,0,0,0,0,0,0,0,0,-1,1280,1261,0,0
63,-237,0,0,0,0,0,0,0,0,0,-1,1287,1261,0,0
70,-237,0,0,0,0,0,0,0,0,0,-1,1294,1261,0,0
77,-237,0,0,0,0,0,0,0,0,0,-1,1301,1261,0,0
84,-237,0,0,0,0,0,0,0,0,0,-1,1308,1261,0,0
91,-237,0,0,0,0,0,0,0,0,0,-1,1315,1261,0,0
98,-237,0,0,0,0,0,0,0,0,0,-1,1322,1261,0,0
105,-237,0,0,0,0,0,0,0,0,0,-1,1329,1261,0,0
112,-237,0,0,0,0,0,0,0,0,0,-1,1336,1261,0,0
119,-237,0,0,0,0,0,0,0,0,0,-1,1343,1261,0,0
126,-237,0,0,0,0,0,0,0,0,0,-1,1350,1261,0,0
133,-237,0,0,0,0,0,0,0,0,0,-1,1357,1261,0,0
140,-237,0,0,0,0,0,0,0,0,0,-1,1364,1261,0,0
147,-237,0,0,0,0,0,0,0,0,0,-1,1371,1261,0,0
154,-237,0,0,0,0,0,0,0,0,0,-1,1378,1261,0,0
161,-237,0,0,0,0,0,0,0,0,0,-1,1385,1261,0,0
168,-237,0,0,0,0,0,0,0,0,0,-1,1392,1261,0,0
175,-237,0,0,0,0,0,0,0,0,0,-1,1399,1261,0,0
182,-237,0,0,0,0,0,0,0,0,0,-1,1406,1261,0,0
189,-237,0,0,0,0,0,0,0,0,0,-1,1413,1261,0,0
196,-237,0,0,0,0,0,0,0,0,0,-1,1420,1261,0,0
203,-237,0,0,0,0,0,0,0,0,0,-1,1427,1261,0,0
210,-237,0,0,0,0,0,0,0,0,0,-1,1434,1261,0,0
217,-237,0,0,0,0,0,0,0,0,0,-1,1441,1261,0,0
224,-237,0,0,0,0,0,0,0,0,0,-1,1448,1261,0,0
231,-237,0,0,0,0,0,0,0,0,0,-1,1455,1261,0,0
238,-237,0,0,0,0,0,0,0,0,0,-1,1462,1261,0,0
245,-237,0,0,0,0,0,0,0,0,0,-1,1469,1261,0,0
252,-237,0,0,0,0,0,0,0,0,0,-1,1476,1261,0,0
259,-237,0,0,0,0,0,0,0,0,0,-1,1483,1261,0,0
266,-237,0,0,0,0,0,0,0,0,0,-1,1490,1261,0,0
273,-237,0,0,0,0,0,0,0,0,0,-1,1497,1261,0,0
280,-237,0,0,0,0,0,0,0,0,0,-1,1504,1261,0,0
287,-237,0,0,0,0,0,0,0,0,0,-1,1511,1261,0,0
294,-237,0,0,0,0,0,0,0,0,0,-1,1518,1261,0,0
301,-237,0,0,0,0,0,0,0,0,0,-1,1525,1261,0,0
308,-237,0,0,0,0,0,0,0,0,0,-1,1532,1261,0,0
315,-237,0,0,0,0,0,0,0,0,0,-1,1539,1261,0,0
322,-237,0,0,0,0,0,0,0,0,0,-1,1546,1261,0,0
329,-237,0,0,0,0,0,0,0,0,0,-1,1553,1261,0,0
336,-237,0,0,0,0,0,0,0,0,0,-1,1560,1261,0,0
343,-237,0,0,0,0,0,0,0,0,0,-1,1567,1261,0,0
350,-237,0,0,0,0,0,0,0,0,0,-1,1574,1261,0,0
357,-237,0,0,0,0,0,0,0,0,0,-1,1581,1261,0,0
364,-237,0,0,0,0,0,0,0,0,0,-1,1588,1261,0,0
371,-237,0,0,0,0,0,0,0,0,0,-1,1595,1261,0,0
378,-237,0,0,0,0,0,0,0,0,0,-1,1602,1261,0,0
385,-237,0,0,0,0,0,0,0,0,0,-1,1609,1261,0,0
392,-237,0,0,0,0,0,0,0,0,0,-1,1616,1261,0,0
399,-237,0,0,0,0,0,0,0,0,0,-1,1623,1261,0,0
406,-237,0,0,0,0,0,0,0,0,0,-1,1630,1261,0,0
413,-237,0,0,0,0,0,0,0,0,0,-1,1637,1261,0,0
420,-237,0,0,0,0,0,0,0,0,0,-1,1644,1261,0,0
427,-237,0,0,0,0,0,0,0,0,0,-1,1651,1261,0,0
434,-237,0,0,0,0,0,0,0,0,0,-1,1658,1261,0,0
441,-237,0,0,0,0,0,0,0,0,0,-1,1665,1261,0,0
448,-237,0,0,0,0,0,0,0,0,0,-1,1672,1261,0,0
455,-237,0,0,0,0,0,0,0,0,0,-1,1679,1261,0,0
462,-237,0,0,0,0,0,0,0,0,0,-1,1686,1261,0,0
469,-237,0,0,0,0,0,0,0,0,0,-1,1693,1261,0,0
476,-237,0,0,0,0,0,0,0,0,0,-1,1700,1261,0,0
483,-237,0,0,0,0,0,0,0,0,0,-1,1707,1261,0,0
490,-237,0,0,0,0,0,0,0,0,0,-1,1714,1261,0,0
497,-237,0,0,0,0,0,0,0,0,0,-1,1721,1261,0,0
504,-237,0,0,0,0,0,0,0,0,0,-1,1728,1261,0,0
511,-237,0,0,0,0,0,0,0,0,0,-1,1735,1261,0,0
518,-237,0,0,0,0,0,0,0,0,0,-1,1742,1261,0,0
525,-237,0,0,0,0,0,0,0,0,0,-1,1749,1261,0,0
532,-237,0,0,0,0,0,0,0,0,0,-1,1756,1261,0,0
539,-237,0,0,0,0,0,0,0,0,0,-1,1763,1261,0,0
546,-237,0,0,0,0,0,0,0,0,0,-1,1770,1261,0,0
553,-237,0,0,0,0,0,0,0,0,0,-1,1777,1261,0,0
560,-237,0,0,0,0,0,0,0,0,0,-1,1784,1261,0,0
567,-237,0,0,0,0,0,0,0,0,0,-1,1791,1261,0,0
574,-237,0,0,0,0,0,0,0,0,0,-1,1798,1261,0,0
581,-237,0,0,0,0,0,0,0,0,0,-1,1805,1261,0,0
588,-237,0,0,0,0,0,0,0,0,0,-1,1812,1261,0,0
595,-237,0,0,0,0,0,0,0,0,0,-1,1819,1261,0,0
602,-237,0,0,0,0,0,0,0,0,0,-1,1826,1261,0,0
609,-237,0,0,0,0,0,0,0,0,0,-1,1833,1261,0,0
616,-237,71.6372,2.25452,-8.61548e-05,0.00248817,0.000427569,0.00255733,-0.000155312,1.41044,0.00175894,0.0366658,1840,1261,71.6372,-2.25451
623,-237,71.6499,2.37561,-0.0036494,0.00816487,0.000619313,0.00819725,-0.00368177,1.51857,0.00702158,0.03514,1847,1261,71.6499,-2.37556
630,-237,71.5247,2.37756,-0.00643955,0.0127836,0.000593575,0.0128019,-0.00645787,1.53996,0.0113189,0.0276208,1854,1261,71.5247,-2.37762
637,-237,71.2999,2.19507,-0.00708212,0.014605,0.000294647,0.014609,-0.00708612,1.55721,0.0127743,0.0216156,1861,1261,71.2999,-2.19504
644,-237,71.0637,1.91797,-0.00508514,0.0119959,-0.000276027,0.0120004,-0.0050896,-1.55464,0.0101323,0.0424083,1868,1261,71.0638,-1.91794
651,-237,70.8213,1.63135,0,0,0,0,0,0,0,-1,1875,1261,70.8212,-1.63132
658,-237,62.9901,2.01404,0,0,0,0,0,0,0,-1,1882,1261,62.9901,-2.01406
665,-237,57.9302,3.30676,0,0,0,0,0,0,0,-1,1889,1261,57.9302,-3.30671
672,-237,45.3922,1.95618,0,0,0,0,0,0,0,-1,1896,1261,45.3922,-1.95623
679,-237,23.1501,7.37488,0,0,0,0,0,0,0,-1,1903,1261,23.1502,-7.37493
686,-237,36.8348,9.99426,0,0,0,0,0,0,0,-1,1910,1261,36.8349,-9.99424
693,-237,53.8521,12.968,0,0,0,0,0,0,0,-1,1917,1261,53.852,-12.968
700,-237,53.7112,12.3319,0.000924851,-0.000558194,-2.00782e-05,0.000925123,-0.000558466,-0.0135352,0.000865226,0.0320742,1924,1261,53.7111,-12.3319
707,-237,53.6124,11.6799,0.000544477,-0.00104052,0.000174247,0.000563407,-0.00105945,0.108213,0.000951435,0.0190408,1931,1261,53.6124,-11.68
714,-237,53.5607,10.9622,-0.000156041,-0.000756416,0.00078116,0.000380625,-0.00129308,0.601956,0.00101305,0.016811,1938,1261,53.5607,-10.9622
721,-237,53.4958,10.2833,-0.000910523,-0.000531095,0.00150758,0.000798656,-0.00224027,0.847989,0.00181914,0.0187467,1945,1261,53.4959,-10.2834
728,-237,53.4854,9.58704,-0.00165722,-0.000153356,0.00221571,0.00143453,-0.00324511,0.948983,0.00276838,0.0154805,1952,1261,53.4854,-9.58704
735,-237,53.4542,8.89099,-0.00232683,0.000155429,0.00284798,0.00202097,-0.00419237,0.990886,0.00365957,0.0197946,1959,1261,53.4542,-8.89096
742,-237,53.4181,8.23242,-0.00292028,0.000487068,0.0035587,0.00272888,-0.0051621,1.00864,0.00462749,0.0167115,1966,1261,53.4181,-8.23241
749,-237,53.3472,7.55762,-0.00333684,0.000882382,0.00431574,0.00357653,-0.00603098,1.01273,0.00560691,0.0109961,1973,1261,53.3472,-7.55762
756,-237,53.2911,6.85486,-0.00354819,0.00135188,0.00520346,0.00465326,-0.00684956,1.00543,0.00668138,0.0182491,1980,1261,53.2911,-6.85482
763,-237,53.1547,6.00256,-0.00357877,0.00170947,0.00663877,0.0062113,-0.00808061,0.974911,0.00827493,0.0402738,1987,1261,53.1546,-6.00258
770,-237,53.6422,4.81543,0,0,0,0,0,0,0,-1,1994,1261,53.6422,-4.81538
777,-237,54.4275,3.48328,0,0,0,0,0,0,0,-1,2001,1261,54.4275,-3.48324
784,-237,36.3441,1.68591,0,0,0,0,0,0,0,-1,2008,1261,36.3441,-1.68592
791,-237,32.3025,6.03235,0,0,0,0,0,0,0,-1,2015,1261,32.3025,-6.03229
798,-237,0,0,0,0,0,0,0,0,0,-1,2022,1261,0,0
805,-237,0,0,0,0,0,0,0,0,0,-1,2029,1261,0,0
812,-237,0,0,0,0,0,0,0,0,0,-1,2036,1261,0,0
-700,-244,0,0,0,0,0,0,0,0,0,-1,524,1268,0,0
-693,-244,0,0,0,0,0,0,0,0,0,-1,531,1268,0,0
-686,-244,0,0,0,0,0,0,0,0,0,-1,538,1268,0,0
-679,-244,0,0,0,0,0,0,0,0,0,-1,545,1268,0,0
-672,-244,-44.7993,4.39575,0,0,0,0,0,0,0,-1,552,1268,-44.7992,-4.39576
-665,-244,-46.0868,3.64392,0,0,0,0,0,0,0,-1,559,1268,-46.0868,-3.64391
-658,-244,-45.9758,2.05481,0,0,0,0,0,0,0,-1,566,1268,-45.9758,-2.05486
-651,-244,-46.4749,1.28564,0,0,0,0,0,0,0,-1,573,1268,-46.4749,-1.28561
-644,-244,-32.7362,1.51355,0,0,0,0,0,0,0,-1,580,1268,-32.7362,-1.51355
-637,-244,-34.8414,3.00073,0,0,0,0,0,0,0,-1,587,1268,-34.8414,-3.00078
-630,-244,-36.345,4.51685,0,0,0,0,0,0,0,-1,594,1268,-36.345,-4.51689
-623,-244,-36.2347,5.31616,0.00938134,0.00718679,0.00307019,0.0115444,0.00502368,0.613774,0.00668385,0.0409631,601,1268,-36.2347,-5.31613
-616,-244,-36.1345,6.0813,0.00717945,0.00573123,0.00233432,0.0088994,0.00401129,0.635003,0.00514637,0.0173537,608,1268,-36.1345,-6.08133
-609,-244,-36.2084,6.79956,0.00506918,0.00446268,0.0016499,0.00644347,0.0030884,0.694513,0.0037212,0.0152456,615,1268,-36.2085,-6.79954
-602,-244,-36.2598,7.5343,0.00338349,0.00275535,0.00100395,0.00412135,0.00201749,0.633803,0.00237963,0.0153617,622,1268,-36.2598,-7.53436
-595,-244,-36.3124,8.2959,0.00202487,0.000982585,0.000405595,0.0021641,0.000843352,0.330678,0.00125954,0.0152269,629,1268,-36.3125,-8.29593
-588,-244,-36.3394,9.05029,0.000915962,-0.00084456,-0.000133966,0.000926098,-0.000854695,-0.0755153,0.00102842,0.0208299,636,1268,-36.3394,-9.05034
-581,-244,-36.3944,9.75476,-0.000128599,-0.00242351,-0.000589614,1.40221e-05,-0.00256614,-0.237331,0.00171545,0.0195532,643,1268,-36.3944,-9.75479
-574,-244,-36.4204,10.4603,-0.00110939,-0.00339046,-0.00100429,-0.000730247,-0.0037696,-0.36098,0.00230848,0.0231104,650,1268,-36.4204,-10.4604
-567,-244,-36.5035,11.1886,-0.00114096,-0.00374888,-0.00128157,-0.000616601,-0.00427323,-0.388369,0.00266715,0.0340627,657,1268,-36.5036,-11.1886
-560,-244,-36.4949,11.8453,-6.09087e-05,-0.0030846,-0.00115086,0.000327284,-0.00347279,-0.325323,0.00243164,0.0427,664,1268,-36.4949,-11.8453
-553,-244,-36.3795,12.5212,0,0,0,0,0,0,0,-1,671,1268,-36.3794,-12.5212
-546,-244,-11.2686,4.41772,0,0,0,0,0,0,0,-1,678,1268,-11.2686,-4.41767
-539,-244,-12.8706,0.3302,0,0,0,0,0,0,0,-1,685,1268,-12.8706,-0.330156
-532,-244,-18.1502,0.816528,0,0,0,0,0,0,0,-1,692,1268,-18.1502,-0.816514
-525,-244,-33.0835,0.693604,0,0,0,0,0,0,0,-1,699,1268,-33.0835,-0.69365
-518,-244,-47.5015,0.609131,0,0,0,0,0,0,0,-1,706,1268,-47.5015,-0.60919
-511,-244,-48.6138,1.11877,0,0,0,0,0,0,0,-1,713,1268,-48.6138,-1.11872
-504,-244,-55.1368,0.723999,0,0,0,0,0,0,0,-1,720,1268,-55.1369,-0.723974
-497,-244,-55.2105,0.839233,0,0,0,0,0,0,0,-1,727,1268,-55.2105,-0.839206
-490,-244,0,0,0,0,0,0,0,0,0,-1,734,1268,0,0
-483,-244,0,0,0,0,0,0,0,0,0,-1,741,1268,0,0
-476,-244,0,0,0,0,0,0,0,0,0,-1,748,1268,0,0
-469,-244,0,0,0,0,0,0,0,0,0,-1,755,1268,0,0
-462,-244,0,0,0,0,0,0,0,0,0,-1,762,1268,0,0
-455,-244,0,0,0,0,0,0,0,0,0,-1,769,1268,0,0
-448,-244,0,0,0,0,0,0,0,0,0,-1,776,1268,0,0
-441,-244,0,0,0,0,0,0,0,0,0,-1,783,1268,0,0
-434,-244,0,0,0,0,0,0,0,0,0,-1,790,1268,0,0
-427,-244,0,0,0,0,0,0,0,0,0,-1,797,1268,0,0
-420,-244,0,0,0,0,0,0,0,0,0,-1,804,1268,0,0
-413,-244,0,0,0,0,0,0,0,0,0,-1,811,1268,0,0
-406,-244,0,0,0,0,0,0,0,0,0,-1,818,1268,0,0
-399,-244,0,0,0,0,0,0,0,0,0,-1,825,1268,0,0
-392,-244,0,0,0,0,0,0,0,0,0,-1,832,1268,0,0
-385,-244,0,0,0,0,0,0,0,0,0,-1,839,1268,0,0
-378,-244,0,0,0,0,0,0,0,0,0,-1,846,1268,0,0
-371,-244,0,0,0,0,0,0,0,0,0,-1,853,1268,0,0
-364,-244,0,0,0,0,0,0,0,0,0,-1,860,1268,0,0
-357,-244,0,0,0,0,0,0,0,0,0,-1,867,1268,0,0
-350,-244,0,0,0,0,0,0,0,0,0,-1,874,1268,0,0
-343,-244,0,0,0,0,0,0,0,0,0,-1,881,1268,0,0
-336,-244,0,0,0,0,0,0,0,0,0,-1,888,1268,0,0
-329,-244,0,0,0,0,0,0,0,0,0,-1,895,1268,0,0
-322,-244,0,0,0,0,0,0,0,0,0,-1,902,1268,0,0
-315,-244,0,0,0,0,0,0,0,0,0,-1,909,1268,0,0
-308,-244,0,0,0,0,0,0,0,0,0,-1,916,1268,0,0
-301,-244,0,0,0,0,0,0,0,0,0,-1,923,1268,0,0
-294,-244,0,0,0,0,0,0,0,0,0,-1,930,1268,0,0
-287,-244,0,0,0,0,0,0,0,0,0,-1,937,1268,0,0
-280,-244,0,0,0,0,0,0,0,0,0,-1,944,1268,0,0
-273,-244,0,0,0,0,0,0,0,0,0,-1,951,1268,0,0
-266,-244,0,0,0,0,0,0,0,0,0,-1,958,1268,0,0
-259,-244,0,0,0,0,0,0,0,0,0,-1,965,1268,0,0
-252,-244,0,0,0,0,0,0,0,0,0,-1,972,1268,0,0
-245,-244,0,0,0,0,0,0,0,0,0,-1,979,1268,0,0
-238,-244,0,0,0,0,0,0,0,0,0,-1,986,1268,0,0
-231,-244,0,0,0,0,0,0,0,0,0,-1,993,1268,0,0
-224,-244,0,0,0,0,0,0,0,0,0,-1,1000,1268,0,0
-217,-244,0,0,0,0,0,0,0,0,0,-1,1007,1268,0,0
-210,-244,0,0,0,0,0,0,0,0,0,-1,1014,1268,0,0
-203,-244,0,0,0,0,0,0,0,0,0,-1,1021,1268,0,0
-196,-244,0,0,0,0,0,0,0,0,0,-1,1028,1268,0,0
-189,-244,0,0,0,0,0,0,0,0,0,-1,1035,1268,0,0
-182,-244,0,0,0,0,0,0,0,0,0,-1,1042,1268,0,0
-175,-244,0,0,0,0,0,0,0,0,0,-1,1049,1268,0,0
-168,-244,0,0,0,0,0,0,0,0,0,-1,1056,1268,0,0
-161,-244,0,0,0,0,0,0,0,0,0,-1,1063,1268,0,0
-154,-244,0,0,0,0,0,0,0,0,0,-1,1070,1268,0,0
-147,-244,0,0,0,0,0,0,0,0,0,-1,1077,1268,0,0
-140,-244,0,0,0,0,0,0,0,0,0,-1,1084,1268,0,0
-133,-244,0,0,0,0,0,0,0,0,0,-1,1091,1268,0,0
-126,-244,0,0,0,0,0,0,0,0,0,-1,1098,1268,0,0
-119,-244,0,0,0,0,0,0,0,0,0,-1,1105,1268,0,0
-112,-244,0,0,0,0,0,0,0,0,0,-1,1112,1268,0,0
-105,-244,0,0,0,0,0,0,0,0,0,-1,1119,1268,0,0
-98,-244,0,0,0,0,0,0,0,0,0,-1,1126,1268,0,0
-91,-244,0,0,0,0,0,0,0,0,0,-1,1133,1268,0,0
-84,-244,0,0,0,0,0,0,0,0,0,-1,1140,1268,0,0
-77,-244,0,0,0,0,0,0,0,0,0,-1,1147,1268,0,0
-70,-244,0,0,0,0,0,0,0,0,0,-1,1154,1268,0,0
-63,-244,0,0,0,0,0,0,0,0,0,-1,1161,1268,0,0
-56,-244,0,0,0,0,0,0,0,0,0,-1,1168,1268,0,0
-49,-244,0,0,0,0,0,0,0,0,0,-1,1175,1268,0,0
-42,-244,0,0,0,0,0,0,0,0,0,-1,1182,1268,0,0
-35,-244,0,0,0,0,0,0,0,0,0,-1,1189,1268,0,0
-28,-244,0,0,0,0,0,0,0,0,0,-1,1196,1268,0,0
-21,-244,0,0,0,0,0,0,0,0,0,-1,1203,1268,0,0
-14,-244,0,0,0,0,0,0,0,0,0,-1,1210,1268,0,0
-7,-244,0,0,0,0,0,0,0,0,0,-1,1217,1268,0,0
0,-244,0,0,0,0,0,0,0,0,0,-1,1224,1268,0,0
7,-244,0,0,0,0,0,0,0,0,0,-1,1231,1268,0,0
14,-244,0,0,0,0,0,0,0,0,0,-1,1238,1268,0,0
21,-244,0,0,0,0,0,0,0,0,0,-1,1245,1268,0,0
28,-244,0,0,0,0,0,0,0,0,0,-1,1252,1268,0,0
35,-244,0,0,0,0,0,0,0,0,0,-1,1259,1268,0,0
42,-244,0,0,0,0,0,0,0,0,0,-1,1266,1268,0,0
49,-244,0,0,0,0,0,0,0,0,0,-1,1273,1268,0,0
56,-244,0,0,0,0,0,0,0,0,0,-1,1280,1268,0,0
63,-244,0,0,0,0,0,0,0,0,0,-1,1287,1268,0,0
70,-244,0,0,0,0,0,0,0,0,0,-1,1294,1268,0,0
77,-244,0,0,0,0,0,0,0,0,0,-1,1301,1268,0,0
84,-244,0,0,0,0,0,0,0,0,0,-1,1308,1268,0,0
91,-244,0,0,0,0,0,0,0,0,0,-1,1315,1268,0,0
98,-244,0,0,0,0,0,0,0,0,0,-1,1322,1268,0,0
105,-244,0,0,0,0,0,0,0,0,0,-1,1329,1268,0,0
112,-244,0,0,0,0,0,0,0,0,0,-1,1336,1268,0,0
119,-244,0,0,0,0,0,0,0,0,0,-1,1343,1268,0,0
126,-244,0,0,0,0,0,0,0,0,0,-1,1350,1268,0,0
133,-244,0,0,0,0,0,0,0,0,0,-1,1357,1268,0,0
140,-244,0,0,0,0,0,0,0,0,0,-1,1364,1268,0,0
147,-244,0,0,0,0,0,0,0,0,0,-1,1371,1268,0,0
154,-244,0,0,0,0,0,0,0,0,0,-1,1378,1268,0,0
161,-244,0,0,0,0,0,0,0,0,0,-1,1385,1268,0,0
168,-244,0,0,0,0,0,0,0,0,0,-1,1392,1268,0,0
175,-244,0,0,0,0,0,0,0,0,0,-1,1399,1268,0,0
182,-244,0,0,0,0,0,0,0,0,0,-1,1406,1268,0,0
189,-244,0,0,0,0,0,0,0,0,0,-1,1413,1268,0,0
196,-244,0,0,0,0,0,0,0,0,0,-1,1420,1268,0,0
203,-244,0,0,0,0,0,0,0,0,0,-1,1427,1268,0,0
210,-244,0,0,0,0,0,0,0,0,0,-1,1434,1268,0,0
217,-244,0,0,0,0,0,0,0,0,0,-1,1441,1268,0,0
224,-244,0,0,0,0,0,0,0,0,0,-1,1448,1268,0,0
231,-244,0,0,0,0,0,0,0,0,0,-1,1455,1268,0,0
238,-244,0,0,0,0,0,0,0,0,0,-1,1462,1268,0,0
245,-244,0,0,0,0,0,0,0,0,0,-1,1469,1268,0,0
252,-244,0,0,0,0,0,0,0,0,0,-1,1476,1268,0,0
259,-244,0,0,0,0,0,0,0,0,0,-1,1483,1268,0,0
266,-244,0,0,0,0,0,0,0,0,0,-1,1490,1268,0,0
273,-244,0,0,0,0,0,0,0,0,0,-1,1497,1268,0,0
280,-244,0,0,0,0,0,0,0,0,0,-1,1504,1268,0,0
287,-244,0,0,0,0,0,0,0,0,0,-1,1511,1268,0,0
294,-244,0,0,0,0,0,0,0,0,0,-1,1518,1268,0,0
301,-244,0,0,0,0,0,0,0,0,0,-1,1525,1268,0,0
308,-244,0,0,0,0,0,0,0,0,0,-1,1532,1268,0,0
315,-244,0,0,0,0,0,0,0,0,0,-1,1539,1268,0,0
322,-244,0,0,0,0,0,0,0,0,0,-1,1546,1268,0,0
329,-244,0,0,0,0,0,0,0,0,0,-1,1553,1268,0,0
336,-244,0,0,0,0,0,0,0,0,0,-1,1560,1268,0,0
343,-244,0,0,0,0,0,0,0,0,0,-1,1567,1268,0,0
350,-244,0,0,0,0,0,0,0,0,0,-1,1574,1268,0,0
357,-244,0,0,0,0,0,0,0,0,0,-1,1581,1268,0,0
364,-244,0,0,0,0,0,0,0,0,0,-1,1588,1268,0,0
371,-244,0,0,0,0,0,0,0,0,0,-1,1595,1268,0,0
378,-244,0,0,0,0,0,0,0,0,0,-1,1602,1268,0,0
385,-244,0,0,0,0,0,0,0,0,0,-1,1609,1268,0,0
392,-244,0,0,0,0,0,0,0,0,0,-1,1616,1268,0,0
399,-244,0,0,0,0,0,0,0,0,0,-1,1623,1268,0,0
406,-244,0,0,0,0,0,0,0,0,0,-1,1630,1268,0,0
413,-244,0,0,0,0,0,0,0,0,0,-1,1637,1268,0,0
420,-244,0,0,0,0,0,0,0,0,0,-1,1644,1268,0,0
427,-244,0,0,0,0,0,0,0,0,0,-1,1651,1268,0,0
434,-244,0,0,0,0,0,0,0,0,0,-1,1658,1268,0,0
441,-244,0,0,0,0,0,0,0,0,0,-1,1665,1268,0,0
448,-244,0,0,0,0,0,0,0,0,0,-1,1672,1268,0,0
455,-244,0,0,0,0,0,0,0,0,0,-1,1679,1268,0,0
462,-244,0,0,0,0,0,0,0,0,0,-1,1686,1268,0,0
469,-244,0,0,0,0,0,0,0,0,0,-1,1693,1268,0,0
476,-244,0,0,0,0,0,0,0,0,0,-1,1700,1268,0,0
483,-244,0,0,0,0,0,0,0,0,0,-1,1707,1268,0,0
490,-244,0,0,0,0,0,0,0,0,0,-1,1714,1268,0,0
497,-244,0,0,0,0,0,0,0,0,0,-1,1721,1268,0,0
504,-244,0,0,0,0,0,0,0,0,0,-1,1728,1268,0,0
511,-244,0,0,0,0,0,0,0,0,0,-1,1735,1268,0,0
518,-244,0,0,0,0,0,0,0,0,0,-1,1742,1268,0,0
525,-244,0,0,0,0,0,0,0,0,0,-1,1749,1268,0,0
532,-244,0,0,0,0,0,0,0,0,0,-1,1756,1268,0,0
539,-244,0,0,0,0,0,0,0,0,0,-1,1763,1268,0,0
546,-244,0,0,0,0,0,0,0,0,0,-1,1770,1268,0,0
553,-244,0,0,0,0,0,0,0,0,0,-1,1777,1268,0,0
560,-244,0,0,0,0,0,0,0,0,0,-1,1784,1268,0,0
567,-244,0,0,0,0,0,0,0,0,0,-1,1791,1268,0,0
574,-244,0,0,0,0,0,0,0,0,0,-1,1798,1268,0,0
581,-244,0,0,0,0,0,0,0,0,0,-1,1805,1268,0,0
588,-244,0,0,0,0,0,0,0,0,0,-1,1812,1268,0,0
595,-244,0,0,0,0,0,0,0,0,0,-1,1819,1268,0,0
602,-244,0,0,0,0,0,0,0,0,0,-1,1826,1268,0,0
609,-244,0,0,0,0,0,0,0,0,0,-1,1833,1268,0,0
616,-244,71.5447,2.21082,-0.00313256,0.0057922,0.000526913,0.0058232,-0.00316356,1.51203,0.0052637,0.0330535,1840,1268,71.5447,-2.21087
623,-244,71.5216,2.30823,-0.00680146,0.0125659,0.000833666,0.0126017,-0.00683728,1.52786,0.0113864,0.0279653,1847,1268,71.5217,-2.30829
630,-244,71.4227,2.31116,-0.00936267,0.0176535,0.000976571,0.0176888,-0.00939792,1.53471,0.0158808,0.0260157,1854,1268,71.4227,-2.3112
637,-244,70.9921,1.88953,0,0,0,0,0,0,0,-1,1861,1268,70.9921,-1.88953
644,-244,70.7224,1.58777,0,0,0,0,0,0,0,-1,1868,1268,70.7224,-1.58772
651,-244,70.4526,1.28589,0,0,0,0,0,0,0,-1,1875,1268,70.4527,-1.28591
658,-244,69.1154,0.765625,0,0,0,0,0,0,0,-1,1882,1268,69.1154,-0.765637
665,-244,50.7988,1.09888,0,0,0,0,0,0,0,-1,1889,1268,50.7989,-1.09893
672,-244,32.224,3.6123,0,0,0,0,0,0,0,-1,1896,1268,32.224,-3.6123
679,-244,27.2593,7.90649,0,0,0,0,0,0,0,-1,1903,1268,27.2592,-7.9065
686,-244,52.8503,13.8195,0,0,0,0,0,0,0,-1,1910,1268,52.8503,-13.8194
693,-244,52.8333,13.1744,0.000759254,0.000774511,-0.000134681,0.00090178,0.000631985,-0.813689,0.000534457,0.0391623,1917,1268,52.8332,-13.1744
700,-244,52.903,12.4379,0.00107056,-0.000667887,-2.01179e-05,0.00107079,-0.000668119,-0.0115703,0.00101289,0.0126148,1924,1268,52.903,-12.4378
707,-244,52.88,11.7374,0.00050391,-0.00107573,0.000243117,0.00054048,-0.0011123,0.149305,0.000973085,0.0120893,1931,1268,52.8799,-11.7375
714,-244,52.9258,11.0114,-0.000354297,-0.000723576,0.000914781,0.000394292,-0.00147217,0.685816,0.00113592,0.0160031,1938,1268,52.9258,-11.0113
721,-244,52.8201,10.3446,-0.00120922,-0.000389764,0.00161036,0.000862179,-0.00246116,0.909971,0.00199138,0.0219154,1945,1268,52.82,-10.3446
728,-244,52.7715,9.62415,-0.00202072,3.37591e-05,0.002268,0.00149631,-0.00348327,0.998041,0.00295027,0.0274687,1952,1268,52.7715,-9.62415
735,-244,52.7207,8.85278,-0.00276734,0.00040766,0.00290281,0.0021287,-0.00448838,1.03562,0.0039005,0.0274998,1959,1268,52.7207,-8.8528
742,-244,52.6675,8.27991,-0.00345009,0.000817325,0.00360301,0.00287103,-0.00550379,1.05273,0.0049142,0.0183798,1966,1268,52.6675,-8.27994
749,-244,52.4993,7.68652,-0.00397517,0.00130596,0.0043318,0.00373856,-0.00640777,1.05911,0.00592517,0.0251849,1973,1268,52.4993,-7.68652
756,-244,52.3042,7.13428,-0.00433318,0.00187516,0.00522003,0.00484425,-0.00730228,1.05364,0.0070605,0.0364092,1980,1268,52.3042,-7.13425
763,-244,52.553,5.97327,0,0,0,0,0,0,0,-1,1987,1268,52.553,-5.9733
770,-244,53.7257,4.5282,0,0,0,0,0,0,0,-1,1994,1268,53.7257,-4.52815
777,-244,48.7119,2.7002,0,0,0,0,0,0,0,-1,2001,1268,48.712,-2.70019
784,-244,31.7908,5.20081,0,0,0,0,0,0,0,-1,2008,1268,31.7907,-5.20083
791,-244,0,0,0,0,0,0,0,0,0,-1,2015,1268,0,0
798,-244,0,0,0,0,0,0,0,0,0,-1,2022,1268,0,0
805,-244,0,0,0,0,0,0,0,0,0,-1,2029,1268,0,0
812,-244,0,0,0,0,0,0,0,0,0,-1,2036,1268,0,0
-700,-251,0,0,0,0,0,0,0,0,0,-1,524,1275,0,0
-693,-251,0,0,0,0,0,0,0,0,0,-1,531,1275,0,0
-686,-251,0,0,0,0,0,0,0,0,0,-1,538,1275,0,0
-679,-251,0,0,0,0,0,0,0,0,0,-1,545,1275,0,0
-672,-251,0,0,0,0,0,0,0,0,0,-1,552,1275,0,0
-665,-251,-45.2521,2.44568,0,0,0,0,0,0,0,-1,559,1275,-45.2521,-2.44573
-658,-251,-45.5222,1.44397,0,0,0,0,0,0,0,-1,566,1275,-45.5221,-1.44401
-651,-251,-45.8498,0.382935,0,0,0,0,0,0,0,-1,573,1275,-45.8498,-0.382965
-644,-251,-46.2018,-0.658325,0,0,0,0,0,0,0,-1,580,1275,-46.2019,0.658365
-637,-251,-35.2292,3.33899,0,0,0,0,0,0,0,-1,587,1275,-35.2292,-3.33904
-630,-251,-35.7674,4.55005,0,0,0,0,0,0,0,-1,594,1275,-35.7674,-4.55001
-623,-251,-35.6329,5.3418,0.0115402,0.00866209,0.00492109,0.0152284,0.00497398,0.643149,0.00896655,0.0396255,601,1275,-35.6329,-5.34182
-616,-251,-35.4545,6.13269,0.00881392,0.00683316,0.0036972,0.0116511,0.003996,0.654534,0.00683644,0.0190736,608,1275,-35.4545,-6.1327
-609,-251,-35.4866,6.84033,0.00626709,0.0053927,0.00265284,0.00851852,0.00314127,0.703731,0.00497432,0.0196554,615,1275,-35.4866,-6.84038
-602,-251,-35.5221,7.57458,0.00429314,0.00350591,0.00173956,0.00568306,0.00211598,0.674136,0.00331658,0.0148542,622,1275,-35.5221,-7.57454
-595,-251,-35.5466,8.31653,0.00273811,0.00163369,0.000938244,0.00327459,0.00109721,0.519417,0.00192456,0.0133739,629,1275,-35.5465,-8.31648
-588,-251,-35.5816,9.05994,0.00153387,-0.000284606,0.000251387,0.00156798,-0.000318718,0.134871,0.00116617,0.0162322,636,1275,-35.5816,-9.05997
-581,-251,-35.6312,9.82678,0.000547437,-0.00207873,-0.000344117,0.000591779,-0.00212307,-0.128152,0.00164844,0.0154441,643,1275,-35.6312,-9.82681
-574,-251,-35.6626,10.5959,-0.000286901,-0.00342667,-0.000902442,-4.60015e-05,-0.00366757,-0.260859,0.00242986,0.0150573,650,1275,-35.6626,-10.596
-567,-251,-35.7676,11.3248,-0.000437872,-0.00414203,-0.00131325,-1.95249e-05,-0.00456037,-0.308394,0.00303376,0.028658,657,1275,-35.7676,-11.3248
-560,-251,-35.7723,12.217,0.000357655,-0.00344012,-0.00115945,0.000683648,-0.00376611,-0.274086,0.00276692,0.0474325,664,1275,-35.7723,-12.2171
-553,-251,-35.6172,13.0236,0,0,0,0,0,0,0,-1,671,1275,-35.6173,-13.0236
-546,-251,-12.995,4.5675,0,0,0,0,0,0,0,-1,678,1275,-12.995,-4.56745
-539,-251,-10.7916,0.366333,0,0,0,0,0,0,0,-1,685,1275,-10.7916,-0.366282
-532,-251,-10.7391,-0.00769043,0,0,0,0,0,0,0,-1,692,1275,-10.7391,0.00773227
-525,-251,-29.4286,-0.250244,0,0,0,0,0,0,0,-1,699,1275,-29.4286,0.250266
-518,-251,-32.6981,0.678833,0,0,0,0,0,0,0,-1,706,1275,-32.6981,-0.678787
-511,-251,-29.4731,0.637085,0,0,0,0,0,0,0,-1,713,1275,-29.4731,-0.637025
-504,-251,-30.6428,0.792358,0,0,0,0,0,0,0,-1,720,1275,-30.6427,-0.792335
-497,-251,-54.1249,0.753784,0,0,0,0,0,0,0,-1,727,1275,-54.1249,-0.753774
-490,-251,0,0,0,0,0,0,0,0,0,-1,734,1275,0,0
-483,-251,0,0,0,0,0,0,0,0,0,-1,741,1275,0,0
-476,-251,0,0,0,0,0,0,0,0,0,-1,748,1275,0,0
-469,-251,0,0,0,0,0,0,0,0,0,-1,755,1275,0,0
-462,-251,0,0,0,0,0,0,0,0,0,-1,762,1275,0,0
-455,-251,0,0,0,0,0,0,0,0,0,-1,769,1275,0,0
-448,-251,0,0,0,0,0,0,0,0,0,-1,776,1275,0,0
-441,-251,0,0,0,0,0,0,0,0,0,-1,783,1275,0,0
-434,-251,0,0,0,0,0,0,0,0,0,-1,790,1275,0,0
-427,-251,0,0,0,0,0,0,0,0,0,-1,797,1275,0,0
-420,-251,0,0,0,0,0,0,0,0,0,-1,804,1275,0,0
-413,-251,0,0,0,0,0,0,0,0,0,-1,811,1275,0,0
-406,-251,0,0,0,0,0,0,0,0,0,-1,818,1275,0,0
-399,-251,0,0,0,0,0,0,0,0,0,-1,825,1275,0,0
-392,-251,0,0,0,0,0,0,0,0,0,-1,832,1275,0,0
-385,-251,0,0,0,0,0,0,0,0,0,-1,839,1275,0,0
-378,-251,0,0,0,0,0,0,0,0,0,-1,846,1275,0,0
-371,-251,0,0,0,0,0,0,0,0,0,-1,853,1275,0,0
-364,-251,0,0,0,0,0,0,0,0,0,-1,860,1275,0,0
-357,-251,0,0,0,0,0,0,0,0,0,-1,867,1275,0,0
-350,-251,0,0,0,0,0,0,0,0,0,-1,874,1275,0,0
-343,-251,0,0,0,0,0,0,0,0,0,-1,881,1275,0,0
-336,-251,0,0,0,0,0,0,0,0,0,-1,888,1275,0,0
-329,-251,0,0,0,0,0,0,0,0,0,-1,895,1275,0,0
-322,-251,0,0,0,0,0,0,0,0,0,-1,902,1275,0,0
-315,-251,0,0,0,0,0,0,0,0,0,-1,909,1275,0,0
-308,-251,0,0,0,0,0,0,0,0,0,-1,916,1275,0,0
-301,-251,0,0,0,0,0,0,0,0,0,-1,923,1275,0,0
-294,-251,0,0,0,0,0,0,0,0,0,-1,930,1275,0,0
-287,-251,0,0,0,0,0,0,0,0,0,-1,937,1275,0,0
-280,-251,0,0,0,0,0,0,0,0,0,-1,944,1275,0,0
-273,-251,0,0,0,0,0,0,0,0,0,-1,951,1275,0,0
-266,-251,0,0,0,0,0,0,0,0,0,-1,958,1275,0,0
-259,-251,0,0,0,0,0,0,0,0,0,-1,965,1275,0,0
-252,-251,0,0,0,0,0,0,0,0,0,-1,972,1275,0,0
-245,-251,0,0,0,0,0,0,0,0,0,-1,979,1275,0,0
-238,-251,0,0,0,0,0,0,0,0,0,-1,986,1275,0,0
-231,-251,0,0,0,0,0,0,0,0,0,-1,993,1275,0,0
-224,-251,0,0,0,0,0,0,0,0,0,-1,1000,1275,0,0
-217,-251,0,0,0,0,0,0,0,0,0,-1,1007,1275,0,0
-210,-251,0,0,0,0,0,0,0,0,0,-1,1014,1275,0,0
-203,-251,0,0,0,0,0,0,0,0,0,-1,1021,1275,0,0
-196,-251,0,0,0,0,0,0,0,0,0,-1,1028,1275,0,0
-189,-251,0,0,0,0,0,0,0,0,0,-1,1035,1275,0,0
-182,-251,0,0,0,0,0,0,0,0,0,-1,1042,1275,0,0
-175,-251,0,0,0,0,0,0,0,0,0,-1,1049,1275,0,0
-168,-251,0,0,0,0,0,0,0,0,0,-1,1056,1275,0,0
-161,-251,0,0,0,0,0,0,0,0,0,-1,1063,1275,0,0
-154,-251,0,0,0,0,0,0,0,0,0,-1,1070,1275,0,0
-147,-251,0,0,0,0,0,0,0,0,0,-1,1077,1275,0,0
-140,-251,0,0,0,0,0,0,0,0,0,-1,1084,1275,0,0
-133,-251,0,0,0,0,0,0,0,0,0,-1,1091,1275,0,0
-126,-251,0,0,0,0,0,0,0,0,0,-1,1098,1275,0,0
-119,-251,0,0,0,0,0,0,0,0,0,-1,1105,1275,0,0
-112,-251,0,0,0,0,0,0,0,0,0,-1,1112,1275,0,0
-105,-251,0,0,0,0,0,0,0,0,0,-1,1119,1275,0,0
-98,-251,0,0,0,0,0,0,0,0,0,-1,1126,1275,0,0
-91,-251,0,0,0,0,0,0,0,0,0,-1,1133,1275,0,0
-84,-251,0,0,0,0,0,0,0,0,0,-1,1140,1275,0,0
-77,-251,0,0,0,0,0,0,0,0,0,-1,1147,1275,0,0
-70,-251,0,0,0,0,0,0,0,0,0,-1,1154,1275,0,0
-63,-251,0,0,0,0,0,0,0,0,0,-1,1161,1275,0,0
-56,-251,0,0,0,0,0,0,0,0,0,-1,1168,1275,0,0
-49,-251,0,0,0,0,0,0,0,0,0,-1,1175,1275,0,0
-42,-251,0,0,0,0,0,0,0,0,0,-1,1182,1275,0,0
-35,-251,0,0,0,0,0,0,0,0,0,-1,1189,1275,0,0
-28,-251,0,0,0,0,0,0,0,0,0,-1,1196,1275,0,0
-21,-251,0,0,0,0,0,0,0,0,0,-1,1203,1275,0,0
-14,-251,0,0,0,0,0,0,0,0,0,-1,1210,1275,0,0
-7,-251,0,0,0,0,0,0,0,0,0,-1,1217,1275,0,0
0,-251,0,0,0,0,0,0,0,0,0,-1,1224,1275,0,0
7,-251,0,0,0,0,0,0,0,0,0,-1,1231,1275,0,0
14,-251,0,0,0,0,0,0,0,0,0,-1,1238,1275,0,0
21,-251,0,0,0,0,0,0,0,0,0,-1,1245,1275,0,0
28,-251,0,0,0,0,0,0,0,0,0,-1,1252,1275,0,0
35,-251,0,0,0,0,0,0,0,0,0,-1,1259,1275,0,0
42,-251,0,0,0,0,0,0,0,0,0,-1,1266,1275,0,0
49,-251,0,0,0,0,0,0,0,0,0,-1,1273,1275,0,0
56,-251,0,0,0,0,0,0,0,0,0,-1,1280,1275,0,0
63,-251,0,0,0,0,0,0,0,0,0,-1,1287,1275,0,0
70,-251,0,0,0,0,0,0,0,0,0,-1,1294,1275,0,0
77,-251,0,0,0,0,0,0,0,0,0,-1,1301,1275,0,0
84,-251,0,0,0,0,0,0,0,0,0,-1,1308,1275,0,0
91,-251,0,0,0,0,0,0,0,0,0,-1,1315,1275,0,0
98,-251,0,0,0,0,0,0,0,0,0,-1,1322,1275,0,0
105,-251,0,0,0,0,0,0,0,0,0,-1,1329,1275,0,0
112,-251,0,0,0,0,0,0,0,0,0,-1,1336,1275,0,0
119,-251,0,0,0,0,0,0,0,0,0,-1,1343,1275,0,0
126,-251,0,0,0,0,0,0,0,0,0,-1,1350,1275,0,0
133,-251,0,0,0,0,0,0,0,0,0,-1,1357,1275,0,0
140,-251,0,0,0,0,0,0,0,0,0,-1,1364,1275,0,0
147,-251,0,0,0,0,0,0,0,0,0,-1,1371,1275,0,0
154,-251,0,0,0,0,0,0,0,0,0,-1,1378,1275,0,0
161,-251,0,0,0,0,0,0,0,0,0,-1,1385,1275,0,0
168,-251,0,0,0,0,0,0,0,0,0,-1,1392,1275,0,0
175,-251,0,0,0,0,0,0,0,0,0,-1,1399,1275,0,0
182,-251,0,0,0,0,0,0,0,0,0,-1,1406,1275,0,0
189,-251,0,0,0,0,0,0,0,0,0,-1,1413,1275,0,0
196,-251,0,0,0,0,0,0,0,0,0,-1,1420,1275,0,0
203,-251,0,0,0,0,0,0,0,0,0,-1,1427,1275,0,0
210,-251,0,0,0,0,0,0,0,0,0,-1,1434,1275,0,0
217,-251,0,0,0,0,0,0,0,0,0,-1,1441,1275,0,0
224,-251,0,0,0,0,0,0,0,0,0,-1,1448,1275,0,0
231,-251,0,0,0,0,0,0,0,0,0,-1,1455,1275,0,0
238,-251,0,0,0,0,0,0,0,0,0,-1,1462,1275,0,0
245,-251,0,0,0,0,0,0,0,0,0,-1,1469,1275,0,0
252,-251,0,0,0,0,0,0,0,0,0,-1,1476,1275,0,0
259,-251,0,0,0,0,0,0,0,0,0,-1,1483,1275,0,0
266,-251,0,0,0,0,0,0,0,0,0,-1,1490,1275,0,0
273,-251,0,0,0,0,0,0,0,0,0,-1,1497,1275,0,0
280,-251,0,0,0,0,0,0,0,0,0,-1,1504,1275,0,0
287,-251,0,0,0,0,0,0,0,0,0,-1,1511,1275,0,0
294,-251,0,0,0,0,0,0,0,0,0,-1,1518,1275,0,0
301,-251,0,0,0,0,0,0,0,0,0,-1,1525,1275,0,0
308,-251,0,0,0,0,0,0,0,0,0,-1,1532,1275,0,0
315,-251,0,0,0,0,0,0,0,0,0,-1,1539,1275,0,0
322,-251,0,0,0,0,0,0,0,0,0,-1,1546,1275,0,0
329,-251,0,0,0,0,0,0,0,0,0,-1,1553,1275,0,0
336,-251,0,0,0,0,0,0,0,0,0,-1,1560,1275,0,0
343,-251,0,0,0,0,0,0,0,0,0,-1,1567,1275,0,0
350,-251,0,0,0,0,0,0,0,0,0,-1,1574,1275,0,0
357,-251,0,0,0,0,0,0,0,0,0,-1,1581,1275,0,0
364,-251,0,0,0,0,0,0,0,0,0,-1,1588,1275,0,0
371,-251,0,0,0,0,0,0,0,0,0,-1,1595,1275,0,0
378,-251,0,0,0,0,0,0,0,0,0,-1,1602,1275,0,0
385,-251,0,0,0,0,0,0,0,0,0,-1,1609,1275,0,0
392,-251,0,0,0,0,0,0,0,0,0,-1,1616,1275,0,0
399,-251,0,0,0,0,0,0,0,0,0,-1,1623,1275,0,0
406,-251,0,0,0,0,0,0,0,0,0,-1,1630,1275,0,0
413,-251,0,0,0,0,0,0,0,0,0,-1,1637,1275,0,0
420,-251,0,0,0,0,0,0,0,0,0,-1,1644,1275,0,0
427,-251,0,0,0,0,0,0,0,0,0,-1,1651,1275,0,0
434,-251,0,0,0,0,0,0,0,0,0,-1,1658,1275,0,0
441,-251,0,0,0,0,0,0,0,0,0,-1,1665,1275,0,0
448,-251,0,0,0,0,0,0,0,0,0,-1,1672,1275,0,0
455,-251,0,0,0,0,0,0,0,0,0,-1,1679,1275,0,0
462,-251,0,0,0,0,0,0,0,0,0,-1,1686,1275,0,0
469,-251,0,0,0,0,0,0,0,0,0,-1,1693,1275,0,0
476,-251,0,0,0,0,0,0,0,0,0,-1,1700,1275,0,0
483,-251,0,0,0,0,0,0,0,0,0,-1,1707,1275,0,0
490,-251,0,0,0,0,0,0,0,0,0,-1,1714,1275,0,0
497,-251,0,0,0,0,0,0,0,0,0,-1,1721,1275,0,0
504,-251,0,0,0,0,0,0,0,0,0,-1,1728,1275,0,0
511,-251,0,0,0,0,0,0,0,0,0,-1,1735,1275,0,0
518,-251,0,0,0,0,0,0,0,0,0,-1,1742,1275,0,0
525,-251,0,0,0,0,0,0,0,0,0,-1,1749,1275,0,0
532,-251,0,0,0,0,0,0,0,0,0,-1,1756,1275,0,0
539,-251,0,0,0,0,0,0,0,0,0,-1,1763,1275,0,0
546,-251,0,0,0,0,0,0,0,0,0,-1,1770,1275,0,0
553,-251,0,0,0,0,0,0,0,0,0,-1,1777,1275,0,0
560,-251,0,0,0,0,0,0,0,0,0,-1,1784,1275,0,0
567,-251,0,0,0,0,0,0,0,0,0,-1,1791,1275,0,0
574,-251,0,0,0,0,0,0,0,0,0,-1,1798,1275,0,0
581,-251,0,0,0,0,0,0,0,0,0,-1,1805,1275,0,0
588,-251,0,0,0,0,0,0,0,0,0,-1,1812,1275,0,0
595,-251,0,0,0,0,0,0,0,0,0,-1,1819,1275,0,0
602,-251,0,0,0,0,0,0,0,0,0,-1,1826,1275,0,0
609,-251,71.4706,2.28503,-0.00203376,0.00219693,0.000378386,0.0022305,-0.00206734,1.48229,0.00248195,0.0291214,1833,1275,71.4706,-2.28497
616,-251,71.4426,2.27271,-0.00648428,0.0109298,0.000808757,0.0109673,-0.00652176,1.52449,0.0102055,0.025746,1840,1275,71.4427,-2.27268
623,-251,71.4072,2.29932,-0.00994443,0.0182054,0.00113623,0.0182512,-0.00999022,1.53052,0.0165361,0.0239736,1847,1275,71.4072,-2.29926
630,-251,71.3861,2.27795,-0.0110575,0.0212921,0.00122302,0.0213382,-0.0111037,1.53306,0.0190385,0.0362536,1854,1275,71.3862,-2.278
637,-251,70.902,1.69446,0,0,0,0,0,0,0,-1,1861,1275,70.9019,-1.6945
644,-251,70.4222,1.00269,0,0,0,0,0,0,0,-1,1868,1275,70.4222,-1.00264
651,-251,69.9425,0.310791,0,0,0,0,0,0,0,-1,1875,1275,69.9425,-0.310769
658,-251,64.3931,2.57288,0,0,0,0,0,0,0,-1,1882,1275,64.393,-2.57287
665,-251,32.9579,2.60229,0,0,0,0,0,0,0,-1,1889,1275,32.9579,-2.60231
672,-251,26.0721,4.53064,0,0,0,0,0,0,0,-1,1896,1275,26.0721,-4.53063
679,-251,29.1344,8.63782,0,0,0,0,0,0,0,-1,1903,1275,29.1344,-8.63778
686,-251,52.3544,13.8165,0,0,0,0,0,0,0,-1,1910,1275,52.3544,-13.8165
693,-251,52.2313,13.1833,0.000886119,0.000864108,2.52684e-05,0.000902675,0.000847553,0.580018,0.000584277,0.0316451,1917,1275,52.2313,-13.1834
700,-251,52.1952,12.4727,0.00112124,-0.000568237,0.000145101,0.00113361,-0.000580609,0.085055,0.00100673,0.01049,1924,1275,52.1952,-12.4726
707,-251,52.2002,11.7583,0.000425751,-0.000903473,0.000415405,0.000544893,-0.00102262,0.279312,0.000918904,0.0124309,1931,1275,52.2002,-11.7583
714,-251,52.2006,11.0486,-0.000478112,-0.000521965,0.00101437,0.000514567,-0.00151464,0.774592,0.00121807,0.0157231,1938,1275,52.2005,-11.0486
721,-251,52.0753,10.3954,-0.00134281,-0.000130937,0.00160572,0.000979371,-0.00245311,0.965817,0.00204172,0.0236088,1945,1275,52.0754,-10.3954
728,-251,52.0416,9.75049,-0.00216418,0.000302451,0.00218897,0.00158164,-0.00344336,1.04194,0.00296681,0.0282438,1952,1275,52.0416,-9.75043
735,-251,52.0026,8.94165,-0.00295028,0.000739328,0.00279806,0.00224601,-0.00445696,1.07685,0.00393951,0.0225143,1959,1275,52.0026,-8.94164
742,-251,51.9232,8.33301,-0.00368762,0.0012326,0.00345954,0.00301755,-0.00547257,1.09447,0.00496962,0.019625,1966,1275,51.9233,-8.33302
749,-251,51.65,7.86694,-0.00429283,0.00182654,0.00413069,0.00390731,-0.0063736,1.10417,0.00599235,0.0392692,1973,1275,51.65,-7.8669
756,-251,51.3875,7.35413,0,0,0,0,0,0,0,-1,1980,1275,51.3874,-7.35415
763,-251,43.3652,5.7583,0,0,0,0,0,0,0,-1,1987,1275,43.3653,-5.75827
770,-251,49.4386,3.45508,0,0,0,0,0,0,0,-1,1994,1275,49.4386,-3.4551
777,-251,31.5731,4.33252,0,0,0,0,0,0,0,-1,2001,1275,31.5731,-4.33251
784,-251,32.0776,5.78247,0,0,0,0,0,0,0,-1,2008,1275,32.0776,-5.78247
791,-251,0,0,0,0,0,0,0,0,0,-1,2015,1275,0,0
798,-251,0,0,0,0,0,0,0,0,0,-1,2022,1275,0,0
805,-251,0,0,0,0,0,0,0,0,0,-1,2029,1275,0,0
812,-251,0,0,0,0,0,0,0,0,0,-1,2036,1275,0,0
-700,-258,0,0,0,0,0,0,0,0,0,-1,524,1282,0,0
-693,-258,0,0,0,0,0,0,0,0,0,-1,531,1282,0,0
-686,-258,0,0,0,0,0,0,0,0,0,-1,538,1282,0,0
-679,-258,0,0,0,0,0,0,0,0,0,-1,545,1282,0,0
-672,-258,0,0,0,0,0,0,0,0,0,-1,552,1282,0,0
-665,-258,-44.8717,2.03601,0,0,0,0,0,0,0,-1,559,1282,-44.8717,-2.03603
-658,-258,-45.2628,1.20544,0,0,0,0,0,0,0,-1,566,1282,-45.2627,-1.20545
-651,-258,-45.5418,0.0863037,0,0,0,0,0,0,0,-1,573,1282,-45.5418,-0.0863288
-644,-258,-45.1855,0.336792,0,0,0,0,0,0,0,-1,580,1282,-45.1855,-0.336733
-637,-258,-45.329,0.234253,0,0,0,0,0,0,0,-1,587,1282,-45.329,-0.234296
-630,-258,-34.6896,4.45715,0,0,0,0,0,0,0,-1,594,1282,-34.6896,-4.45712
-623,-258,-35.0224,5.39172,0,0,0,0,0,0,0,-1,601,1282,-35.0224,-5.39175
-616,-258,-34.7194,6.04626,0.0102899,0.00799412,0.00502415,0.0142956,0.00398839,0.673089,0.00851809,0.0337044,608,1282,-34.7194,-6.04627
-609,-258,-34.7216,6.8678,0.00735346,0.00637768,0.00365002,0.0105481,0.00318309,0.718958,0.00624742,0.0174794,615,1282,-34.7215,-6.86779
-602,-258,-34.7598,7.61304,0.00512854,0.00432524,0.00250618,0.00726506,0.00218873,0.705942,0.00430351,0.0140814,622,1282,-34.7598,-7.61302
-595,-258,-34.7878,8.35754,0.00340867,0.00236878,0.00153974,0.00451388,0.00126357,0.622568,0.00268892,0.012239,629,1282,-34.7878,-8.35748
-588,-258,-34.8132,9.11011,0.00210194,0.000450804,0.00074817,0.00239051,0.000162226,0.368129,0.00154245,0.0142771,636,1282,-34.8132,-9.11005
-581,-258,-34.8675,9.8573,0.00110687,-0.0014264,8.44235e-05,0.00110968,-0.00142921,0.0332767,0.00146969,0.0157088,643,1282,-34.8675,-9.8573
-574,-258,-34.8785,10.6217,0.000358977,-0.00310772,-0.000500642,0.000429829,-0.00317857,-0.140589,0.00227589,0.0147033,650,1282,-34.8785,-10.6217
-567,-258,-35.0233,11.3452,5.05368e-05,-0.00445025,-0.000935987,0.000237425,-0.00463714,-0.197078,0.00317353,0.0178367,657,1282,-35.0233,-11.3452
-560,-258,-35.2319,11.9774,0,0,0,0,0,0,0,-1,664,1282,-35.2319,-11.9774
-553,-258,-32.5081,11.6642,0,0,0,0,0,0,0,-1,671,1282,-32.5081,-11.6641
-546,-258,-14.2231,5.92029,0,0,0,0,0,0,0,-1,678,1282,-14.2231,-5.92028
-539,-258,-10.2228,4.05823,0,0,0,0,0,0,0,-1,685,1282,-10.2228,-4.05823
-532,-258,-10.2173,-0.353882,0,0,0,0,0,0,0,-1,692,1282,-10.2173,0.353836
-525,-258,-21.8661,-1.5929,0,0,0,0,0,0,0,-1,699,1282,-21.8661,1.59285
-518,-258,-29.2484,0.123169,0,0,0,0,0,0,0,-1,706,1282,-29.2484,-0.123186
-511,-258,-23.5061,1.16833,0,0,0,0,0,0,0,-1,713,1282,-23.5061,-1.16833
-504,-258,-22.9178,0.484131,0,0,0,0,0,0,0,-1,720,1282,-22.9178,-0.484106
-497,-258,-17.8047,0.730469,0,0,0,0,0,0,0,-1,727,1282,-17.8048,-0.730489
-490,-258,-15.4346,0.632935,0,0,0,0,0,0,0,-1,734,1282,-15.4346,-0.632917
-483,-258,0,0,0,0,0,0,0,0,0,-1,741,1282,0,0
-476,-258,0,0,0,0,0,0,0,0,0,-1,748,1282,0,0
-469,-258,0,0,0,0,0,0,0,0,0,-1,755,1282,0,0
-462,-258,0,0,0,0,0,0,0,0,0,-1,762,1282,0,0
-455,-258,0,0,0,0,0,0,0,0,0,-1,769,1282,0,0
-448,-258,0,0,0,0,0,0,0,0,0,-1,776,1282,0,0
-441,-258,0,0,0,0,0,0,0,0,0,-1,783,1282,0,0
-434,-258,0,0,0,0,0,0,0,0,0,-1,790,1282,0,0
-427,-258,0,0,0,0,0,0,0,0,0,-1,797,1282,0,0
-420,-258,0,0,0,0,0,0,0,0,0,-1,804,1282,0,0
-413,-258,0,0,0,0,0,0,0,0,0,-1,811,1282,0,0
-406,-258,0,0,0,0,0,0,0,0,0,-1,818,1282,0,0
-399,-258,0,0,0,0,0,0,0,0,0,-1,825,1282,0,0
-392,-258,0,0,0,0,0,0,0,0,0,-1,832,1282,0,0
-385,-258,0,0,0,0,0,0,0,0,0,-1,839,1282,0,0
-378,-258,0,0,0,0,0,0,0,0,0,-1,846,1282,0,0
-371,-258,0,0,0,0,0,0,0,0,0,-1,853,1282,0,0
-364,-258,0,0,0,0,0,0,0,0,0,-1,860,1282,0,0
-357,-258,0,0,0,0,0,0,0,0,0,-1,867,1282,0,0
-350,-258,0,0,0,0,0,0,0,0,0,-1,874,1282,0,0
-343,-258,0,0,0,0,0,0,0,0,0,-1,881,1282,0,0
-336,-258,0,0,0,0,0,0,0,0,0,-1,888,1282,0,0
-329,-258,0,0,0,0,0,0,0,0,0,-1,895,1282,0,0
-322,-258,0,0,0,0,0,0,0,0,0,-1,902,1282,0,0
-315,-258,0,0,0,0,0,0,0,0,0,-1,909,1282,0,0
-308,-258,0,0,0,0,0,0,0,0,0,-1,916,1282,0,0
-301,-258,0,0,0,0,0,0,0,0,0,-1,923,1282,0,0
-294,-258,0,0,0,0,0,0,0,0,0,-1,930,1282,0,0
-287,-258,0,0,0,0,0,0,0,0,0,-1,937,1282,0,0
-280,-258,0,0,0,0,0,0,0,0,0,-1,944,1282,0,0
-273,-258,0,0,0,0,0,0,0,0,0,-1,951,1282,0,0
-266,-258,0,0,0,0,0,0,0,0,0,-1,958,1282,0,0
-259,-258,0,0,0,0,0,0,0,0,0,-1,965,1282,0,0
-252,-258,0,0,0,0,0,0,0,0,0,-1,972,1282,0,0
-245,-258,0,0,0,0,0,0,0,0,0,-1,979,1282,0,0
-238,-258,0,0,0,0,0,0,0,0,0,-1,986,1282,0,0
-231,-258,0,0,0,0,0,0,0,0,0,-1,993,1282,0,0
-224,-258,0,0,0,0,0,0,0,0,0,-1,1000,1282,0,0
-217,-258,0,0,0,0,0,0,0,0,0,-1,1007,1282,0,0
-210,-258,0,0,0,0,0,0,0,0,0,-1,1014,1282,0,0
-203,-258,0,0,0,0,0,0,0,0,0,-1,1021,1282,0,0
-196,-258,0,0,0,0,0,0,0,0,0,-1,1028,1282,0,0
-189,-258,0,0,0,0,0,0,0,0,0,-1,1035,1282,0,0
-182,-258,0,0,0,0,0,0,0,0,0,-1,1042,1282,0,0
-175,-258,0,0,0,0,0,0,0,0,0,-1,1049,1282,0,0
-168,-258,0,0,0,0,0,0,0,0,0,-1,1056,1282,0,0
-161,-258,0,0,0,0,0,0,0,0,0,-1,1063,1282,0,0
-154,-258,0,0,0,0,0,0,0,0,0,-1,1070,1282,0,0
-147,-258,0,0,0,0,0,0,0,0,0,-1,1077,1282,0,0
-140,-258,0,0,0,0,0,0,0,0,0,-1,1084,1282,0,0
-133,-258,0,0,0,0,0,0,0,0,0,-1,1091,1282,0,0
-126,-258,0,0,0,0,0,0,0,0,0,-1,1098,1282,0,0
-119,-258,0,0,0,0,0,0,0,0,0,-1,1105,1282,0,0
-112,-258,0,0,0,0,0,0,0,0,0,-1,1112,1282,0,0
-105,-258,0,0,0,0,0,0,0,0,0,-1,1119,1282,0,0
-98,-258,0,0,0,0,0,0,0,0,0,-1,1126,1282,0,0
-91,-258,0,0,0,0,0,0,0,0,0,-1,1133,1282,0,0
-84,-258,0,0,0,0,0,0,0,0,0,-1,1140,1282,0,0
-77,-258,0,0,0,0,0,0,0,0,0,-1,1147,1282,0,0
-70,-258,0,0,0,0,0,0,0,0,0,-1,1154,1282,0,0
-63,-258,0,0,0,0,0,0,0,0,0,-1,1161,1282,0,0
-56,-258,0,0,0,0,0,0,0,0,0,-1,1168,1282,0,0
-49,-258,0,0,0,0,0,0,0,0,0,-1,1175,1282,0,0
-42,-258,0,0,0,0,0,0,0,0,0,-1,1182,1282,0,0
-35,-258,0,0,0,0,0,0,0,0,0,-1,1189,1282,0,0
-28,-258,0,0,0,0,0,0,0,0,0,-1,1196,1282,0,0
-21,-258,0,0,0,0,0,0,0,0,0,-1,1203,1282,0,0
-14,-258,0,0,0,0,0,0,0,0,0,-1,1210,1282,0,0
-7,-258,0,0,0,0,0,0,0,0,0,-1,1217,1282,0,0
0,-258,0,0,0,0,0,0,0,0,0,-1,1224,1282,0,0
7,-258,0,0,0,0,0,0,0,0,0,-1,1231,1282,0,0
14,-258,0,0,0,0,0,0,0,0,0,-1,1238,1282,0,0
21,-258,0,0,0,0,0,0,0,0,0,-1,1245,1282,0,0
28,-258,0,0,0,0,0,0,0,0,0,-1,1252,1282,0,0
35,-258,0,0,0,0,0,0,0,0,0,-1,1259,1282,0,0
42,-258,0,0,0,0,0,0,0,0,0,-1,1266,1282,0,0
49,-258,0,0,0,0,0,0,0,0,0,-1,1273,1282,0,0
56,-258,0,0,0,0,0,0,0,0,0,-1,1280,1282,0,0
63,-258,0,0,0,0,0,0,0,0,0,-1,1287,1282,0,0
70,-258,0,0,0,0,0,0,0,0,0,-1,1294,1282,0,0
77,-258,0,0,0,0,0,0,0,0,0,-1,1301,1282,0,0
84,-258,0,0,0,0,0,0,0,0,0,-1,1308,1282,0,0
91,-258,0,0,0,0,0,0,0,0,0,-1,1315,1282,0,0
98,-258,0,0,0,0,0,0,0,0,0,-1,1322,1282,0,0
105,-258,0,0,0,0,0,0,0,0,0,-1,1329,1282,0,0
112,-258,0,0,0,0,0,0,0,0,0,-1,1336,1282,0,0
119,-258,0,0,0,0,0,0,0,0,0,-1,1343,1282,0,0
126,-258,0,0,0,0,0,0,0,0,0,-1,1350,1282,0,0
133,-258,0,0,0,0,0,0,0,0,0,-1,1357,1282,0,0
140,-258,0,0,0,0,0,0,0,0,0,-1,1364,1282,0,0
147,-258,0,0,0,0,0,0,0,0,0,-1,1371,1282,0,0
154,-258,0,0,0,0,0,0,0,0,0,-1,1378,1282,0,0
161,-258,0,0,0,0,0,0,0,0,0,-1,1385,1282,0,0
168,-258,0,0,0,0,0,0,0,0,0,-1,1392,1282,0,0
175,-258,0,0,0,0,0,0,0,0,0,-1,1399,1282,0,0
182,-258,0,0,0,0,0,0,0,0,0,-1,1406,1282,0,0
189,-258,0,0,0,0,0,0,0,0,0,-1,1413,1282,0,0
196,-258,0,0,0,0,0,0,0,0,0,-1,1420,1282,0,0
203,-258,0,0,0,0,0,0,0,0,0,-1,1427,1282,0,0
210,-258,0,0,0,0,0,0,0,0,0,-1,1434,1282,0,0
217,-258,0,0,0,0,0,0,0,0,0,-1,1441,1282,0,0
224,-258,0,0,0,0,0,0,0,0,0,-1,1448,1282,0,0
231,-258,0,0,0,0,0,0,0,0,0,-1,1455,1282,0,0
238,-258,0,0,0,0,0,0,0,0,0,-1,1462,1282,0,0
245,-258,0,0,0,0,0,0,0,0,0,-1,1469,1282,0,0
252,-258,0,0,0,0,0,0,0,0,0,-1,1476,1282,0,0
259,-258,0,0,0,0,0,0,0,0,0,-1,1483,1282,0,0
266,-258,0,0,0,0,0,0,0,0,0,-1,1490,1282,0,0
273,-258,0,0,0,0,0,0,0,0,0,-1,1497,1282,0,0
280,-258,0,0,0,0,0,0,0,0,0,-1,1504,1282,0,0
287,-258,0,0,0,0,0,0,0,0,0,-1,1511,1282,0,0
294,-258,0,0,0,0,0,0,0,0,0,-1,1518,1282,0,0
301,-258,0,0,0,0,0,0,0,0,0,-1,1525,1282,0,0
308,-258,0,0,0,0,0,0,0,0,0,-1,1532,1282,0,0
315,-258,0,0,0,0,0,0,0,0,0,-1,1539,1282,0,0
322,-258,0,0,0,0,0,0,0,0,0,-1,1546,1282,0,0
329,-258,0,0,0,0,0,0,0,0,0,-1,1553,1282,0,0
336,-258,0,0,0,0,0,0,0,0,0,-1,1560,1282,0,0
343,-258,0,0,0,0,0,0,0,0,0,-1,1567,1282,0,0
350,-258,0,0,0,0,0,0,0,0,0,-1,1574,1282,0,0
357,-258,0,0,0,0,0,0,0,0,0,-1,1581,1282,0,0
364,-258,0,0,0,0,0,0,0,0,0,-1,1588,1282,0,0
371,-258,0,0,0,0,0,0,0,0,0,-1,1595,1282,0,0
378,-258,0,0,0,0,0,0,0,0,0,-1,1602,1282,0,0
385,-258,0,0,0,0,0,0,0,0,0,-1,1609,1282,0,0
392,-258,0,0,0,0,0,0,0,0,0,-1,1616,1282,0,0
399,-258,0,0,0,0,0,0,0,0,0,-1,1623,1282,0,0
406,-258,0,0,0,0,0,0,0,0,0,-1,1630,1282,0,0
413,-258,0,0,0,0,0,0,0,0,0,-1,1637,1282,0,0
420,-258,0,0,0,0,0,0,0,0,0,-1,1644,1282,0,0
427,-258,0,0,0,0,0,0,0,0,0,-1,1651,1282,0,0
434,-258,0,0,0,0,0,0,0,0,0,-1,1658,1282,0,0
441,-258,0,0,0,0,0,0,0,0,0,-1,1665,1282,0,0
448,-258,0,0,0,0,0,0,0,0,0,-1,1672,1282,0,0
455,-258,0,0,0,0,0,0,0,0,0,-1,1679,1282,0,0
462,-258,0,0,0,0,0,0,0,0,0,-1,1686,1282,0,0
469,-258,0,0,0,0,0,0,0,0,0,-1,1693,1282,0,0
476,-258,0,0,0,0,0,0,0,0,0,-1,1700,1282,0,0
483,-258,0,0,0,0,0,0,0,0,0,-1,1707,1282,0,0
490,-258,0,0,0,0,0,0,0,0,0,-1,1714,1282,0,0
497,-258,0,0,0,0,0,0,0,0,0,-1,1721,1282,0,0
504,-258,0,0,0,0,0,0,0,0,0,-1,1728,1282,0,0
511,-258,0,0,0,0,0,0,0,0,0,-1,1735,1282,0,0
518,-258,0,0,0,0,0,0,0,0,0,-1,1742,1282,0,0
525,-258,0,0,0,0,0,0,0,0,0,-1,1749,1282,0,0
532,-258,0,0,0,0,0,0,0,0,0,-1,1756,1282,0,0
539,-258,0,0,0,0,0,0,0,0,0,-1,1763,1282,0,0
546,-258,0,0,0,0,0,0,0,0,0,-1,1770,1282,0,0
553,-258,0,0,0,0,0,0,0,0,0,-1,1777,1282,0,0
560,-258,0,0,0,0,0,0,0,0,0,-1,1784,1282,0,0
567,-258,0,0,0,0,0,0,0,0,0,-1,1791,1282,0,0
574,-258,0,0,0,0,0,0,0,0,0,-1,1798,1282,0,0
581,-258,0,0,0,0,0,0,0,0,0,-1,1805,1282,0,0
588,-258,0,0,0,0,0,0,0,0,0,-1,1812,1282,0,0
595,-258,0,0,0,0,0,0,0,0,0,-1,1819,1282,0,0
602,-258,0,0,0,0,0,0,0,0,0,-1,1826,1282,0,0
609,-258,71.4445,2.30774,-0.00560139,0.00795803,0.000487655,0.00797554,-0.00561891,1.53489,0.00788797,0.0242688,1833,1282,71.4445,-2.30779
616,-258,71.4153,2.29321,-0.0100078,0.0177532,0.00101083,0.0177899,-0.0100445,1.53445,0.0162763,0.0244693,1840,1282,71.4153,-2.29327
623,-258,71.3197,2.21716,-0.0123383,0.0235303,0.00130401,0.0235777,-0.0123857,1.53451,0.021096,0.0370377,1847,1282,71.3197,-2.21714
630,-258,71.1077,1.85791,-0.0116653,0.0230244,0.00129791,0.0230729,-0.0117138,1.53345,0.0204379,0.0470097,1854,1282,71.1076,-1.85785
637,-258,71.0133,1.66553,-0.00879652,0.0184574,0.000765626,0.0184789,-0.00881801,1.54273,0.0160855,0.0458429,1861,1282,71.0133,-1.66547
644,-258,69.8544,0.309692,0,0,0,0,0,0,0,-1,1868,1282,69.8543,-0.309745
651,-258,69.574,1.94336,0,0,0,0,0,0,0,-1,1875,1282,69.574,-1.94334
658,-258,45.4424,3.1405,0,0,0,0,0,0,0,-1,1882,1282,45.4423,-3.14046
665,-258,35.4747,1.1864,0,0,0,0,0,0,0,-1,1889,1282,35.4747,-1.18637
672,-258,22.703,2.80957,0,0,0,0,0,0,0,-1,1896,1282,22.703,-2.80962
679,-258,26.8693,8.19543,0,0,0,0,0,0,0,-1,1903,1282,26.8692,-8.19548
686,-258,51.6848,13.995,0,0,0,0,0,0,0,-1,1910,1282,51.6848,-13.995
693,-258,51.5693,13.2526,0.000695783,0.00112086,1.04518e-06,0.00112086,0.00069578,1.56834,0.00065339,0.0234279,1917,1282,51.5694,-13.2525
700,-258,51.4928,12.5156,0.000935556,-0.000308162,8.62508e-05,0.000941509,-0.000314115,0.0689095,0.000754497,0.00961851,1924,1282,51.4928,-12.5156
707,-258,51.4789,11.7841,0.000272049,-0.000610778,0.000371264,0.000407422,-0.000746151,0.349646,0.000675519,0.0110935,1931,1282,51.4789,-11.784
714,-258,51.4613,11.0909,-0.000530024,-0.000255097,0.000924677,0.000542279,-0.0013274,0.859188,0.00111073,0.0119387,1938,1282,51.4614,-11.0909
721,-258,51.391,10.3822,-0.00132963,0.00014181,0.00148103,0.00105979,-0.00224762,1.01593,0.00195015,0.0215318,1945,1282,51.391,-10.3822
728,-258,51.3102,9.72815,-0.00214506,0.00059559,0.00203892,0.00168188,-0.00323135,1.08127,0.0028833,0.0214585,1952,1282,51.3102,-9.72818
735,-258,51.3121,9.00305,-0.00298755,0.00111149,0.00263105,0.00239708,-0.00427313,1.11629,0.00390149,0.0184059,1959,1282,51.3122,-9.00308
742,-258,51.2653,8.33447,-0.0038152,0.00171384,0.00325775,0.00322197,-0.00532332,1.13724,0.0049831,0.0191714,1966,1282,51.2652,-8.33444
749,-258,51.0846,7.84827,-0.00457163,0.00244927,0.00387036,0.00416404,-0.00628641,1.15373,0.0060749,0.0425167,1973,1282,51.0847,-7.84828
756,-258,50.8883,7.25244,0,0,0,0,0,0,0,-1,1980,1282,50.8883,-7.25246
763,-258,39.3638,5.09753,0,0,0,0,0,0,0,-1,1987,1282,39.3638,-5.09751
770,-258,40.3713,4.08325,0,0,0,0,0,0,0,-1,1994,1282,40.3713,-4.08323
777,-258,31.912,4.83093,0,0,0,0,0,0,0,-1,2001,1282,31.912,-4.8309
784,-258,32.6525,6.43091,0,0,0,0,0,0,0,-1,2008,1282,32.6525,-6.43091
791,-258,0,0,0,0,0,0,0,0,0,-1,2015,1282,0,0
798,-258,0,0,0,0,0,0,0,0,0,-1,2022,1282,0,0
805,-258,0,0,0,0,0,0,0,0,0,-1,2029,1282,0,0
812,-258,0,0,0,0,0,0,0,0,0,-1,2036,1282,0,0
-700,-265,0,0,0,0,0,0,0,0,0,-1,524,1289,0,0
-693,-265,0,0,0,0,0,0,0,0,0,-1,531,1289,0,0
-686,-265,0,0,0,0,0,0,0,0,0,-1,538,1289,0,0
-679,-265,0,0,0,0,0,0,0,0,0,-1,545,1289,0,0
-672,-265,0,0,0,0,0,0,0,0,0,-1,552,1289,0,0
-665,-265,-44.553,1.771,0,0,0,0,0,0,0,-1,559,1289,-44.553,-1.77096
-658,-265,-44.9351,1.32117,0,0,0,0,0,0,0,-1,566,1289,-44.9351,-1.32118
-651,-265,-44.821,1.0614,0,0,0,0,0,0,0,-1,573,1289,-44.821,-1.06141
-644,-265,-44.4684,0.304932,0,0,0,0,0,0,0,-1,580,1289,-44.4684,-0.304991
-637,-265,-44.6157,0.250122,0,0,0,0,0,0,0,-1,587,1289,-44.6157,-0.250067
-630,-265,-44.5689,0.900269,0,0,0,0,0,0,0,-1,594,1289,-44.5689,-0.900302
-623,-265,-34.0464,4.73779,0,0,0,0,0,0,0,-1,601,1289,-34.0464,-4.73784
-616,-265,-33.9683,5.77332,0.0119647,0.00942924,0.00644387,0.0172644,0.00412958,0.688272,0.0104098,0.0475131,608,1289,-33.9683,-5.77332
-609,-265,-33.9663,6.86792,0.00859613,0.00754565,0.0047064,0.0128065,0.00333528,0.729827,0.00767152,0.0199894,615,1289,-33.9663,-6.86788
-602,-265,-34.0266,7.65979,0.00608931,0.0052765,0.00331395,0.00902168,0.00234413,0.724386,0.00540525,0.0151607,622,1289,-34.0265,-7.65974
-595,-265,-34.0466,8.42432,0.00418472,0.0031981,0.00216652,0.00591338,0.00146944,0.673458,0.00355515,0.0127075,629,1289,-34.0466,-8.42428
-588,-265,-34.076,9.16309,0.0027647,0.00125114,0.0012523,0.00347112,0.000544718,0.513605,0.00215557,0.0125238,636,1289,-34.076,-9.16304
-581,-265,-34.1241,9.90857,0.00172592,-0.000653212,0.00051292,0.00183179,-0.000759083,0.203548,0.00153798,0.0149647,643,1289,-34.1241,-9.90859
-574,-265,-34.1729,10.6908,0.00102837,-0.00247342,-8.37911e-05,0.00103038,-0.00247543,-0.0239098,0.0020806,0.0155589,650,1289,-34.1729,-10.6908
-567,-265,-34.2668,11.4392,0.000709967,-0.00419398,-0.000505229,0.000761477,-0.00424549,-0.101603,0.00311533,0.02045,657,1289,-34.2668,-11.4392
-560,-265,-34.373,12.1866,0.000934834,-0.00479911,-0.00051842,0.000981329,-0.00484561,-0.0894458,0.00360235,0.028671,664,1289,-34.373,-12.1867
-553,-265,-34.4513,12.9688,0,0,0,0,0,0,0,-1,671,1289,-34.4513,-12.9688
-546,-265,-24.2283,10.2581,0,0,0,0,0,0,0,-1,678,1289,-24.2283,-10.258
-539,-265,-13.7668,6.39917,0,0,0,0,0,0,0,-1,685,1289,-13.7668,-6.39915
-532,-265,-8.53998,3.41467,0,0,0,0,0,0,0,-1,692,1289,-8.53996,-3.41473
-525,-265,-12.1317,0.514648,0,0,0,0,0,0,0,-1,699,1289,-12.1317,-0.514634
-518,-265,-24.1604,0.712402,0,0,0,0,0,0,0,-1,706,1289,-24.1604,-0.712425
-511,-265,-23.233,0.791626,0,0,0,0,0,0,0,-1,713,1289,-23.233,-0.791617
-504,-265,-22.3056,0.87085,0,0,0,0,0,0,0,-1,720,1289,-22.3056,-0.87081
-497,-265,-18.689,-0.278442,0,0,0,0,0,0,0,-1,727,1289,-18.689,0.278423
-490,-265,-15.1696,0.492676,0,0,0,0,0,0,0,-1,734,1289,-15.1696,-0.492688
-483,-265,0,0,0,0,0,0,0,0,0,-1,741,1289,0,0
-476,-265,0,0,0,0,0,0,0,0,0,-1,748,1289,0,0
-469,-265,0,0,0,0,0,0,0,0,0,-1,755,1289,0,0
-462,-265,0,0,0,0,0,0,0,0,0,-1,762,1289,0,0
-455,-265,0,0,0,0,0,0,0,0,0,-1,769,1289,0,0
-448,-265,0,0,0,0,0,0,0,0,0,-1,776,1289,0,0
-441,-265,0,0,0,0,0,0,0,0,0,-1,783,1289,0,0
-434,-265,0,0,0,0,0,0,0,0,0,-1,790,1289,0,0
-427,-265,0,0,0,0,0,0,0,0,0,-1,797,1289,0,0
-420,-265,0,0,0,0,0,0,0,0,0,-1,804,1289,0,0
-413,-265,0,0,0,0,0,0,0,0,0,-1,811,1289,0,0
-406,-265,0,0,0,0,0,0,0,0,0,-1,818,1289,0,0
-399,-265,0,0,0,0,0,0,0,0,0,-1,825,1289,0,0
-392,-265,0,0,0,0,0,0,0,0,0,-1,832,1289,0,0
-385,-265,0,0,0,0,0,0,0,0,0,-1,839,1289,0,0
-378,-265,0,0,0,0,0,0,0,0,0,-1,846,1289,0,0
-371,-265,0,0,0,0,0,0,0,0,0,-1,853,1289,0,0
-364,-265,0,0,0,0,0,0,0,0,0,-1,860,1289,0,0
-357,-265,0,0,0,0,0,0,0,0,0,-1,867,1289,0,0
-350,-265,0,0,0,0,0,0,0,0,0,-1,874,1289,0,0
-343,-265,0,0,0,0,0,0,0,0,0,-1,881,1289,0,0
-336,-265,0,0,0,0,0,0,0,0,0,-1,888,1289,0,0
-329,-265,0,0,0,0,0,0,0,0,0,-1,895,1289,0,0
-322,-265,0,0,0,0,0,0,0,0,0,-1,902,1289,0,0
-315,-265,0,0,0,0,0,0,0,0,0,-1,909,1289,0,0
-308,-265,0,0,0,0,0,0,0,0,0,-1,916,1289,0,0
-301,-265,0,0,0,0,0,0,0,0,0,-1,923,1289,0,0
-294,-265,0,0,0,0,0,0,0,0,0,-1,930,1289,0,0
-287,-265,0,0,0,0,0,0,0,0,0,-1,937,1289,0,0
-280,-265,0,0,0,0,0,0,0,0,0,-1,944,1289,0,0
-273,-265,0,0,0,0,0,0,0,0,0,-1,951,1289,0,0
-266,-265,0,0,0,0,0,0,0,0,0,-1,958,1289,0,0
-259,-265,0,0,0,0,0,0,0,0,0,-1,965,1289,0,0
-252,-265,0,0,0,0,0,0,0,0,0,-1,972,1289,0,0
-245,-265,0,0,0,0,0,0,0,0,0,-1,979,1289,0,0
-238,-265,0,0,0,0,0,0,0,0,0,-1,986,1289,0,0
-231,-265,0,0,0,0,0,0,0,0,0,-1,993,1289,0,0
-224,-265,0,0,0,0,0,0,0,0,0,-1,1000,1289,0,0
-217,-265,0,0,0,0,0,0,0,0,0,-1,1007,1289,0,0
-210,-265,0,0,0,0,0,0,0,0,0,-1,1014,1289,0,0
-203,-265,0,0,0,0,0,0,0,0,0,-1,1021,1289,0,0
-196,-265,0,0,0,0,0,0,0,0,0,-1,1028,1289,0,0
-189,-265,0,0,0,0,0,0,0,0,0,-1,1035,1289,0,0
-182,-265,0,0,0,0,0,0,0,0,0,-1,1042,1289,0,0
-175,-265,0,0,0,0,0,0,0,0,0,-1,1049,1289,0,0
-168,-265,0,0,0,0,0,0,0,0,0,-1,1056,1289,0,0
-161,-265,0,0,0,0,0,0,0,0,0,-1,1063,1289,0,0
-154,-265,0,0,0,0,0,0,0,0,0,-1,1070,1289,0,0
-147,-265,0,0,0,0,0,0,0,0,0,-1,1077,1289,0,0
-140,-265,0,0,0,0,0,0,0,0,0,-1,1084,1289,0,0
-133,-265,0,0,0,0,0,0,0,0,0,-1,1091,1289,0,0
-126,-265,0,0,0,0,0,0,0,0,0,-1,1098,1289,0,0
-119,-265,0,0,0,0,0,0,0,0,0,-1,1105,1289,0,0
-112,-265,0,0,0,0,0,0,0,0,0,-1,1112,1289,0,0
-105,-265,0,0,0,0,0,0,0,0,0,-1,1119,1289,0,0
-98,-265,0,0,0,0,0,0,0,0,0,-1,1126,1289,0,0
-91,-265,0,0,0,0,0,0,0,0,0,-1,1133,1289,0,0
-84,-265,0,0,0,0,0,0,0,0,0,-1,1140,1289,0,0
-77,-265,0,0,0,0,0,0,0,0,0,-1,1147,1289,0,0
-70,-265,0,0,0,0,0,0,0,0,0,-1,1154,1289,0,0
-63,-265,0,0,0,0,0,0,0,0,0,-1,1161,1289,0,0
-56,-265,0,0,0,0,0,0,0,0,0,-1,1168,1289,0,0
-49,-265,0,0,0,0,0,0,0,0,0,-1,1175,1289,0,0
-42,-265,0,0,0,0,0,0,0,0,0,-1,1182,1289,0,0
-35,-265,0,0,0,0,0,0,0,0,0,-1,1189,1289,0,0
-28,-265,0,0,0,0,0,0,0,0,0,-1,1196,1289,0,0
-21,-265,0,0,0,0,0,0,0,0,0,-1,1203,1289,0,0
-14,-265,0,0,0,0,0,0,0,0,0,-1,1210,1289,0,0
-7,-265,0,0,0,0,0,0,0,0,0,-1,1217,1289,0,0
0,-265,0,0,0,0,0,0,0,0,0,-1,1224,1289,0,0
7,-265,0,0,0,0,0,0,0,0,0,-1,1231,1289,0,0
14,-265,0,0,0,0,0,0,0,0,0,-1,1238,1289,0,0
21,-265,0,0,0,0,0,0,0,0,0,-1,1245,1289,0,0
28,-265,0,0,0,0,0,0,0,0,0,-1,1252,1289,0,0
35,-265,0,0,0,0,0,0,0,0,0,-1,1259,1289,0,0
42,-265,0,0,0,0,0,0,0,0,0,-1,1266,1289,0,0
49,-265,0,0,0,0,0,0,0,0,0,-1,1273,1289,0,0
56,-265,0,0,0,0,0,0,0,0,0,-1,1280,1289,0,0
63,-265,0,0,0,0,0,0,0,0,0,-1,1287,1289,0,0
70,-265,0,0,0,0,0,0,0,0,0,-1,1294,1289,0,0
77,-265,0,0,0,0,0,0,0,0,0,-1,1301,1289,0,0
84,-265,0,0,0,0,0,0,0,0,0,-1,1308,1289,0,0
91,-265,0,0,0,0,0,0,0,0,0,-1,1315,1289,0,0
98,-265,0,0,0,0,0,0,0,0,0,-1,1322,1289,0,0
105,-265,0,0,0,0,0,0,0,0,0,-1,1329,1289,0,0
112,-265,0,0,0,0,0,0,0,0,0,-1,1336,1289,0,0
119,-265,0,0,0,0,0,0,0,0,0,-1,1343,1289,0,0
126,-265,0,0,0,0,0,0,0,0,0,-1,1350,1289,0,0
133,-265,0,0,0,0,0,0,0,0,0,-1,1357,1289,0,0
140,-265,0,0,0,0,0,0,0,0,0,-1,1364,1289,0,0
147,-265,0,0,0,0,0,0,0,0,0,-1,1371,1289,0,0
154,-265,0,0,0,0,0,0,0,0,0,-1,1378,1289,0,0
161,-265,0,0,0,0,0,0,0,0,0,-1,1385,1289,0,0
168,-265,0,0,0,0,0,0,0,0,0,-1,1392,1289,0,0
175,-265,0,0,0,0,0,0,0,0,0,-1,1399,1289,0,0
182,-265,0,0,0,0,0,0,0,0,0,-1,1406,1289,0,0
189,-265,0,0,0,0,0,0,0,0,0,-1,1413,1289,0,0
196,-265,0,0,0,0,0,0,0,0,0,-1,1420,1289,0,0
203,-265,0,0,0,0,0,0,0,0,0,-1,1427,1289,0,0
210,-265,0,0,0,0,0,0,0,0,0,-1,1434,1289,0,0
217,-265,0,0,0,0,0,0,0,0,0,-1,1441,1289,0,0
224,-265,0,0,0,0,0,0,0,0,0,-1,1448,1289,0,0
231,-265,0,0,0,0,0,0,0,0,0,-1,1455,1289,0,0
238,-265,0,0,0,0,0,0,0,0,0,-1,1462,1289,0,0
245,-265,0,0,0,0,0,0,0,0,0,-1,1469,1289,0,0
252,-265,0,0,0,0,0,0,0,0,0,-1,1476,1289,0,0
259,-265,0,0,0,0,0,0,0,0,0,-1,1483,1289,0,0
266,-265,0,0,0,0,0,0,0,0,0,-1,1490,1289,0,0
273,-265,0,0,0,0,0,0,0,0,0,-1,1497,1289,0,0
280,-265,0,0,0,0,0,0,0,0,0,-1,1504,1289,0,0
287,-265,0,0,0,0,0,0,0,0,0,-1,1511,1289,0,0
294,-265,0,0,0,0,0,0,0,0,0,-1,1518,1289,0,0
301,-265,0,0,0,0,0,0,0,0,0,-1,1525,1289,0,0
308,-265,0,0,0,0,0,0,0,0,0,-1,1532,1289,0,0
315,-265,0,0,0,0,0,0,0,0,0,-1,1539,1289,0,0
322,-265,0,0,0,0,0,0,0,0,0,-1,1546,1289,0,0
329,-265,0,0,0,0,0,0,0,0,0,-1,1553,1289,0,0
336,-265,0,0,0,0,0,0,0,0,0,-1,1560,1289,0,0
343,-265,0,0,0,0,0,0,0,0,0,-1,1567,1289,0,0
350,-265,0,0,0,0,0,0,0,0,0,-1,1574,1289,0,0
357,-265,0,0,0,0,0,0,0,0,0,-1,1581,1289,0,0
364,-265,0,0,0,0,0,0,0,0,0,-1,1588,1289,0,0
371,-265,0,0,0,0,0,0,0,0,0,-1,1595,1289,0,0
378,-265,0,0,0,0,0,0,0,0,0,-1,1602,1289,0,0
385,-265,0,0,0,0,0,0,0,0,0,-1,1609,1289,0,0
392,-265,0,0,0,0,0,0,0,0,0,-1,1616,1289,0,0
399,-265,0,0,0,0,0,0,0,0,0,-1,1623,1289,0,0
406,-265,0,0,0,0,0,0,0,0,0,-1,1630,1289,0,0
413,-265,0,0,0,0,0,0,0,0,0,-1,1637,1289,0,0
420,-265,0,0,0,0,0,0,0,0,0,-1,1644,1289,0,0
427,-265,0,0,0,0,0,0,0,0,0,-1,1651,1289,0,0
434,-265,0,0,0,0,0,0,0,0,0,-1,1658,1289,0,0
441,-265,0,0,0,0,0,0,0,0,0,-1,1665,1289,0,0
448,-265,0,0,0,0,0,0,0,0,0,-1,1672,1289,0,0
455,-265,0,0,0,0,0,0,0,0,0,-1,1679,1289,0,0
462,-265,0,0,0,0,0,0,0,0,0,-1,1686,1289,0,0
469,-265,0,0,0,0,0,0,0,0,0,-1,1693,1289,0,0
476,-265,0,0,0,0,0,0,0,0,0,-1,1700,1289,0,0
483,-265,0,0,0,0,0,0,0,0,0,-1,1707,1289,0,0
490,-265,0,0,0,0,0,0,0,0,0,-1,1714,1289,0,0
497,-265,0,0,0,0,0,0,0,0,0,-1,1721,1289,0,0
504,-265,0,0,0,0,0,0,0,0,0,-1,1728,1289,0,0
511,-265,0,0,0,0,0,0,0,0,0,-1,1735,1289,0,0
518,-265,0,0,0,0,0,0,0,0,0,-1,1742,1289,0,0
525,-265,0,0,0,0,0,0,0,0,0,-1,1749,1289,0,0
532,-265,0,0,0,0,0,0,0,0,0,-1,1756,1289,0,0
539,-265,0,0,0,0,0,0,0,0,0,-1,1763,1289,0,0
546,-265,0,0,0,0,0,0,0,0,0,-1,1770,1289,0,0
553,-265,0,0,0,0,0,0,0,0,0,-1,1777,1289,0,0
560,-265,0,0,0,0,0,0,0,0,0,-1,1784,1289,0,0
567,-265,0,0,0,0,0,0,0,0,0,-1,1791,1289,0,0
574,-265,0,0,0,0,0,0,0,0,0,-1,1798,1289,0,0
581,-265,0,0,0,0,0,0,0,0,0,-1,1805,1289,0,0
588,-265,0,0,0,0,0,0,0,0,0,-1,1812,1289,0,0
595,-265,0,0,0,0,0,0,0,0,0,-1,1819,1289,0,0
602,-265,71.4095,2.2843,-0.00419627,0.00350606,-0.00033435,0.00352054,-0.00421076,-1.5275,0.00446959,0.0269946,1826,1289,71.4096,-2.28436
609,-265,71.407,2.28101,-0.00911913,0.0154038,0.000523188,0.0154149,-0.00913029,1.54947,0.0143252,0.0285377,1833,1289,71.407,-2.28101
616,-265,71.4303,2.25073,-0.0127689,0.0246383,0.00121241,0.0246776,-0.0128082,1.53843,0.0220011,0.0353516,1840,1289,71.4303,-2.25076
623,-265,71.3208,2.09937,-0.0125778,0.0253512,0.00135674,0.0253997,-0.0126263,1.53509,0.0223633,0.0489475,1847,1289,71.3208,-2.09934
630,-265,71.2308,1.98438,0,0,0,0,0,0,0,-1,1854,1289,71.2308,-1.98436
637,-265,70.718,1.32776,0,0,0,0,0,0,0,-1,1861,1289,70.718,-1.32779
644,-265,70.866,1.47644,0,0,0,0,0,0,0,-1,1868,1289,70.8659,-1.47647
651,-265,53.6781,1.57166,0,0,0,0,0,0,0,-1,1875,1289,53.6781,-1.57167
658,-265,41.7163,3.71619,0,0,0,0,0,0,0,-1,1882,1289,41.7163,-3.71624
665,-265,34.7902,1.43164,0,0,0,0,0,0,0,-1,1889,1289,34.7901,-1.43162
672,-265,20.0045,6.62671,0,0,0,0,0,0,0,-1,1896,1289,20.0045,-6.62668
679,-265,48.9694,14.0298,0,0,0,0,0,0,0,-1,1903,1289,48.9694,-14.0297
686,-265,50.8781,14.0249,0,0,0,0,0,0,0,-1,1910,1289,50.8781,-14.0249
693,-265,50.8345,13.2839,0.000573143,0.000895428,-7.40029e-06,0.000895598,0.000572974,-1.54785,0.000523764,0.0132858,1917,1289,50.8344,-13.2839
700,-265,50.7902,12.5598,0.000710654,-0.000301442,0.000129808,0.000727037,-0.000317826,0.125549,0.000618481,0.0105576,1924,1289,50.7902,-12.5598
707,-265,50.7426,11.8317,0.000104017,-0.000422076,0.000447827,0.000360338,-0.000678397,0.519853,0.000609013,0.0108104,1931,1289,50.7425,-11.8317
714,-265,50.7072,11.1134,-0.000548315,1.05852e-05,0.000919545,0.000692205,-0.00122993,0.932914,0.00112413,0.0136764,1938,1289,50.7072,-11.1134
721,-265,50.6234,10.3877,-0.001234,0.000492321,0.00138746,0.0012632,-0.00200488,1.06366,0.00190296,0.0155524,1945,1289,50.6235,-10.3878
728,-265,50.5698,9.72449,-0.00196104,0.00103386,0.00185938,0.0019238,-0.00285099,1.12439,0.002774,0.0162686,1952,1289,50.5698,-9.72455
735,-265,50.6095,9.06128,-0.00274123,0.00164917,0.00235464,0.00267317,-0.00376523,1.16058,0.003735,0.0164732,1959,1289,50.6096,-9.06132
742,-265,50.5659,8.35974,-0.00353345,0.00238094,0.0028583,0.00353652,-0.00468902,1.1866,0.00476453,0.0200639,1966,1289,50.5659,-8.35971
749,-265,50.5681,7.61646,-0.00430164,0.00327618,0.0033027,0.00451357,-0.00553902,1.21232,0.00581392,0.0476011,1973,1289,50.5681,-7.61651
756,-265,50.7389,6.87488,0,0,0,0,0,0,0,-1,1980,1289,50.7388,-6.87486
763,-265,39.1299,4.9679,0,0,0,0,0,0,0,-1,1987,1289,39.1299,-4.96791
770,-265,35.1674,5.07715,0,0,0,0,0,0,0,-1,1994,1289,35.1673,-5.07718
777,-265,32.1664,5.3457,0,0,0,0,0,0,0,-1,2001,1289,32.1664,-5.34568
784,-265,0,0,0,0,0,0,0,0,0,-1,2008,1289,0,0
791,-265,0,0,0,0,0,0,0,0,0,-1,2015,1289,0,0
798,-265,0,0,0,0,0,0,0,0,0,-1,2022,1289,0,0
805,-265,0,0,0,0,0,0,0,0,0,-1,2029,1289,0,0
812,-265,0,0,0,0,0,0,0,0,0,-1,2036,1289,0,0
-700,-272,0,0,0,0,0,0,0,0,0,-1,524,1296,0,0
-693,-272,0,0,0,0,0,0,0,0,0,-1,531,1296,0,0
-686,-272,0,0,0,0,0,0,0,0,0,-1,538,1296,0,0
-679,-272,0,0,0,0,0,0,0,0,0,-1,545,1296,0,0
-672,-272,0,0,0,0,0,0,0,0,0,-1,552,1296,0,0
-665,-272,0,0,0,0,0,0,0,0,0,-1,559,1296,0,0
-658,-272,-44.6526,1.54443,0,0,0,0,0,0,0,-1,566,1296,-44.6526,-1.5444
-651,-272,-44.3723,1.53772,0,0,0,0,0,0,0,-1,573,1296,-44.3723,-1.53774
-644,-272,-44.1104,1.46021,0,0,0,0,0,0,0,-1,580,1296,-44.1104,-1.46022
-637,-272,-43.9348,1.25171,0,0,0,0,0,0,0,-1,587,1296,-43.9348,-1.25175
-630,-272,-43.5906,0.784912,0,0,0,0,0,0,0,-1,594,1296,-43.5906,-0.784935
-623,-272,-31.4228,4.74304,0,0,0,0,0,0,0,-1,601,1296,-31.4228,-4.74301
-616,-272,-33.075,5.828,0,0,0,0,0,0,0,-1,608,1296,-33.075,-5.82802
-609,-272,-33.1846,7.07861,0.00988898,0.00867096,0.00563618,0.014949,0.00361099,0.73158,0.00900691,0.0274692,615,1296,-33.1847,-7.07856
-602,-272,-33.2495,7.69653,0.00701137,0.00618486,0.00402825,0.0106475,0.00254872,0.734282,0.00641969,0.0151865,622,1296,-33.2494,-7.69647
-595,-272,-33.2919,8.4613,0.00486732,0.00400083,0.0027268,0.00719508,0.00167307,0.706615,0.00434769,0.0119742,629,1296,-33.2918,-8.46129
-588,-272,-33.3303,9.2002,0.00331408,0.00205006,0.00171475,0.00450958,0.000854559,0.608837,0.0027659,0.0118562,636,1296,-33.3303,-9.20014
-581,-272,-33.3877,9.94263,0.00220743,0.000222528,0.000916075,0.00256559,-0.000135633,0.372701,0.00175735,0.011369,643,1296,-33.3877,-9.94262
-574,-272,-33.4243,10.7134,0.00151573,-0.00152013,0.000304367,0.00154594,-0.00155034,0.0989452,0.00178764,0.0166454,650,1296,-33.4242,-10.7133
-567,-272,-33.4775,11.4675,0.00125721,-0.00321783,-0.000126308,0.00126077,-0.0032214,-0.028195,0.00266903,0.0219753,657,1296,-33.4776,-11.4675
-560,-272,-33.5394,12.2279,0.00156263,-0.00420515,-0.000253933,0.00157379,-0.00421631,-0.0439128,0.00345702,0.0213049,664,1296,-33.5394,-12.2279
-553,-272,-33.4848,12.9429,0.00235676,-0.00491997,0.000251514,0.00236544,-0.00492865,0.0345093,0.00429705,0.0319684,671,1296,-33.4848,-12.9429
-546,-272,-33.5623,13.7944,0,0,0,0,0,0,0,-1,678,1296,-33.5623,-13.7944
-539,-272,-24.1416,11.0325,0,0,0,0,0,0,0,-1,685,1296,-24.1416,-11.0324
-532,-272,-10.5572,4.53943,0,0,0,0,0,0,0,-1,692,1296,-10.5572,-4.53943
-525,-272,-11.9599,0.0393066,0,0,0,0,0,0,0,-1,699,1296,-11.9599,-0.0393577
-518,-272,-21.1357,-1.41382,0,0,0,0,0,0,0,-1,706,1296,-21.1357,1.41379
-511,-272,-23.2565,0.226318,0,0,0,0,0,0,0,-1,713,1296,-23.2565,-0.22626
-504,-272,-19.7397,0.114746,0,0,0,0,0,0,0,-1,720,1296,-19.7397,-0.114701
-497,-272,-19.2225,1.71301,0,0,0,0,0,0,0,-1,727,1296,-19.2225,-1.71302
-490,-272,-20.1948,2.4032,0,0,0,0,0,0,0,-1,734,1296,-20.1948,-2.40322
-483,-272,-15.3736,0.792603,0,0,0,0,0,0,0,-1,741,1296,-15.3736,-0.79263
-476,-272,0,0,0,0,0,0,0,0,0,-1,748,1296,0,0
-469,-272,0,0,0,0,0,0,0,0,0,-1,755,1296,0,0
-462,-272,0,0,0,0,0,0,0,0,0,-1,762,1296,0,0
-455,-272,0,0,0,0,0,0,0,0,0,-1,769,1296,0,0
-448,-272,0,0,0,0,0,0,0,0,0,-1,776,1296,0,0
-441,-272,0,0,0,0,0,0,0,0,0,-1,783,1296,0,0
-434,-272,0,0,0,0,0,0,0,0,0,-1,790,1296,0,0
-427,-272,0,0,0,0,0,0,0,0,0,-1,797,1296,0,0
-420,-272,0,0,0,0,0,0,0,0,0,-1,804,1296,0,0
-413,-272,0,0,0,0,0,0,0,0,0,-1,811,1296,0,0
-406,-272,0,0,0,0,0,0,0,0,0,-1,818,1296,0,0
-399,-272,0,0,0,0,0,0,0,0,0,-1,825,1296,0,0
-392,-272,0,0,0,0,0,0,0,0,0,-1,832,1296,0,0
-385,-272,0,0,0,0,0,0,0,0,0,-1,839,1296,0,0
-378,-272,0,0,0,0,0,0,0,0,0,-1,846,1296,0,0
-371,-272,0,0,0,0,0,0,0,0,0,-1,853,1296,0,0
-364,-272,0,0,0,0,0,0,0,0,0,-1,860,1296,0,0
-357,-272,0,0,0,0,0,0,0,0,0,-1,867,1296,0,0
-350,-272,0,0,0,0,0,0,0,0,0,-1,874,1296,0,0
-343,-272,0,0,0,0,0,0,0,0,0,-1,881,1296,0,0
-336,-272,0,0,0,0,0,0,0,0,0,-1,888,1296,0,0
-329,-272,0,0,0,0,0,0,0,0,0,-1,895,1296,0,0
-322,-272,0,0,0,0,0,0,0,0,0,-1,902,1296,0,0
-315,-272,0,0,0,0,0,0,0,0,0,-1,909,1296,0,0
-308,-272,0,0,0,0,0,0,0,0,0,-1,916,1296,0,0
-301,-272,0,0,0,0,0,0,0,0,0,-1,923,1296,0,0
-294,-272,0,0,0,0,0,0,0,0,0,-1,930,1296,0,0
-287,-272,0,0,0,0,0,0,0,0,0,-1,937,1296,0,0
-280,-272,0,0,0,0,0,0,0,0,0,-1,944,1296,0,0
-273,-272,0,0,0,0,0,0,0,0,0,-1,951,1296,0,0
-266,-272,0,0,0,0,0,0,0,0,0,-1,958,1296,0,0
-259,-272,0,0,0,0,0,0,0,0,0,-1,965,1296,0,0
-252,-272,0,0,0,0,0,0,0,0,0,-1,972,1296,0,0
-245,-272,0,0,0,0,0,0,0,0,0,-1,979,1296,0,0
-238,-272,0,0,0,0,0,0,0,0,0,-1,986,1296,0,0
-231,-272,0,0,0,0,0,0,0,0,0,-1,993,1296,0,0
-224,-272,0,0,0,0,0,0,0,0,0,-1,1000,1296,0,0
-217,-272,0,0,0,0,0,0,0,0,0,-1,1007,1296,0,0
-210,-272,0,0,0,0,0,0,0,0,0,-1,1014,1296,0,0
-203,-272,0,0,0,0,0,0,0,0,0,-1,1021,1296,0,0
-196,-272,0,0,0,0,0,0,0,0,0,-1,1028,1296,0,0
-189,-272,0,0,0,0,0,0,0,0,0,-1,1035,1296,0,0
-182,-272,0,0,0,0,0,0,0,0,0,-1,1042,1296,0,0
-175,-272,0,0,0,0,0,0,0,0,0,-1,1049,1296,0,0
-168,-272,0,0,0,0,0,0,0,0,0,-1,1056,1296,0,0
-161,-272,0,0,0,0,0,0,0,0,0,-1,1063,1296,0,0
-154,-272,0,0,0,0,0,0,0,0,0,-1,1070,1296,0,0
-147,-272,0,0,0,0,0,0,0,0,0,-1,1077,1296,0,0
-140,-272,0,0,0,0,0,0,0,0,0,-1,1084,1296,0,0
-133,-272,0,0,0,0,0,0,0,0,0,-1,1091,1296,0,0
-126,-272,0,0,0,0,0,0,0,0,0,-1,1098,1296,0,0
-119,-272,0,0,0,0,0,0,0,0,0,-1,1105,1296,0,0
-112,-272,0,0,0,0,0,0,0,0,0,-1,1112,1296,0,0
-105,-272,0,0,0,0,0,0,0,0,0,-1,1119,1296,0,0
-98,-272,0,0,0,0,0,0,0,0,0,-1,1126,1296,0,0
-91,-272,0,0,0,0,0,0,0,0,0,-1,1133,1296,0,0
-84,-272,0,0,0,0,0,0,0,0,0,-1,1140,1296,0,0
-77,-272,0,0,0,0,0,0,0,0,0,-1,1147,1296,0,0
-70,-272,0,0,0,0,0,0,0,0,0,-1,1154,1296,0,0
-63,-272,0,0,0,0,0,0,0,0,0,-1,1161,1296,0,0
-56,-272,0,0,0,0,0,0,0,0,0,-1,1168,1296,0,0
-49,-272,0,0,0,0,0,0,0,0,0,-1,1175,1296,0,0
-42,-272,0,0,0,0,0,0,0,0,0,-1,1182,1296,0,0
-35,-272,0,0,0,0,0,0,0,0,0,-1,1189,1296,0,0
-28,-272,0,0,0,0,0,0,0,0,0,-1,1196,1296,0,0
-21,-272,0,0,0,0,0,0,0,0,0,-1,1203,1296,0,0
-14,-272,0,0,0,0,0,0,0,0,0,-1,1210,1296,0,0
-7,-272,0,0,0,0,0,0,0,0,0,-1,1217,1296,0,0
0,-272,0,0,0,0,0,0,0,0,0,-1,1224,1296,0,0
7,-272,0,0,0,0,0,0,0,0,0,-1,1231,1296,0,0
14,-272,0,0,0,0,0,0,0,0,0,-1,1238,1296,0,0
21,-272,0,0,0,0,0,0,0,0,0,-1,1245,1296,0,0
28,-272,0,0,0,0,0,0,0,0,0,-1,1252,1296,0,0
35,-272,0,0,0,0,0,0,0,0,0,-1,1259,1296,0,0
42,-272,0,0,0,0,0,0,0,0,0,-1,1266,1296,0,0
49,-272,0,0,0,0,0,0,0,0,0,-1,1273,1296,0,0
56,-272,0,0,0,0,0,0,0,0,0,-1,1280,1296,0,0
63,-272,0,0,0,0,0,0,0,0,0,-1,1287,1296,0,0
70,-272,0,0,0,0,0,0,0,0,0,-1,1294,1296,0,0
77,-272,0,0,0,0,0,0,0,0,0,-1,1301,1296,0,0
84,-272,0,0,0,0,0,0,0,0,0,-1,1308,1296,0,0
91,-272,0,0,0,0,0,0,0,0,0,-1,1315,1296,0,0
98,-272,0,0,0,0,0,0,0,0,0,-1,1322,1296,0,0
105,-272,0,0,0,0,0,0,0,0,0,-1,1329,1296,0,0
112,-272,0,0,0,0,0,0,0,0,0,-1,1336,1296,0,0
119,-272,0,0,0,0,0,0,0,0,0,-1,1343,1296,0,0
126,-272,0,0,0,0,0,0,0,0,0,-1,1350,1296,0,0
133,-272,0,0,0,0,0,0,0,0,0,-1,1357,1296,0,0
140,-272,0,0,0,0,0,0,0,0,0,-1,1364,1296,0,0
147,-272,0,0,0,0,0,0,0,0,0,-1,1371,1296,0,0
154,-272,0,0,0,0,0,0,0,0,0,-1,1378,1296,0,0
161,-272,0,0,0,0,0,0,0,0,0,-1,1385,1296,0,0
168,-272,0,0,0,0,0,0,0,0,0,-1,1392,1296,0,0
175,-272,0,0,0,0,0,0,0,0,0,-1,1399,1296,0,0
182,-272,0,0,0,0,0,0,0,0,0,-1,1406,1296,0,0
189,-272,0,0,0,0,0,0,0,0,0,-1,1413,1296,0,0
196,-272,0,0,0,0,0,0,0,0,0,-1,1420,1296,0,0
203,-272,0,0,0,0,0,0,0,0,0,-1,1427,1296,0,0
210,-272,0,0,0,0,0,0,0,0,0,-1,1434,1296,0,0
217,-272,0,0,0,0,0,0,0,0,0,-1,1441,1296,0,0
224,-272,0,0,0,0,0,0,0,0,0,-1,1448,1296,0,0
231,-272,0,0,0,0,0,0,0,0,0,-1,1455,1296,0,0
238,-272,0,0,0,0,0,0,0,0,0,-1,1462,1296,0,0
245,-272,0,0,0,0,0,0,0,0,0,-1,1469,1296,0,0
252,-272,0,0,0,0,0,0,0,0,0,-1,1476,1296,0,0
259,-272,0,0,0,0,0,0,0,0,0,-1,1483,1296,0,0
266,-272,0,0,0,0,0,0,0,0,0,-1,1490,1296,0,0
273,-272,0,0,0,0,0,0,0,0,0,-1,1497,1296,0,0
280,-272,0,0,0,0,0,0,0,0,0,-1,1504,1296,0,0
287,-272,0,0,0,0,0,0,0,0,0,-1,1511,1296,0,0
294,-272,0,0,0,0,0,0,0,0,0,-1,1518,1296,0,0
301,-272,0,0,0,0,0,0,0,0,0,-1,1525,1296,0,0
308,-272,0,0,0,0,0,0,0,0,0,-1,1532,1296,0,0
315,-272,0,0,0,0,0,0,0,0,0,-1,1539,1296,0,0
322,-272,0,0,0,0,0,0,0,0,0,-1,1546,1296,0,0
329,-272,0,0,0,0,0,0,0,0,0,-1,1553,1296,0,0
336,-272,0,0,0,0,0,0,0,0,0,-1,1560,1296,0,0
343,-272,0,0,0,0,0,0,0,0,0,-1,1567,1296,0,0
350,-272,0,0,0,0,0,0,0,0,0,-1,1574,1296,0,0
357,-272,0,0,0,0,0,0,0,0,0,-1,1581,1296,0,0
364,-272,0,0,0,0,0,0,0,0,0,-1,1588,1296,0,0
371,-272,0,0,0,0,0,0,0,0,0,-1,1595,1296,0,0
378,-272,0,0,0,0,0,0,0,0,0,-1,1602,1296,0,0
385,-272,0,0,0,0,0,0,0,0,0,-1,1609,1296,0,0
392,-272,0,0,0,0,0,0,0,0,0,-1,1616,1296,0,0
399,-272,0,0,0,0,0,0,0,0,0,-1,1623,1296,0,0
406,-272,0,0,0,0,0,0,0,0,0,-1,1630,1296,0,0
413,-272,0,0,0,0,0,0,0,0,0,-1,1637,1296,0,0
420,-272,0,0,0,0,0,0,0,0,0,-1,1644,1296,0,0
427,-272,0,0,0,0,0,0,0,0,0,-1,1651,1296,0,0
434,-272,0,0,0,0,0,0,0,0,0,-1,1658,1296,0,0
441,-272,0,0,0,0,0,0,0,0,0,-1,1665,1296,0,0
448,-272,0,0,0,0,0,0,0,0,0,-1,1672,1296,0,0
455,-272,0,0,0,0,0,0,0,0,0,-1,1679,1296,0,0
462,-272,0,0,0,0,0,0,0,0,0,-1,1686,1296,0,0
469,-272,0,0,0,0,0,0,0,0,0,-1,1693,1296,0,0
476,-272,0,0,0,0,0,0,0,0,0,-1,1700,1296,0,0
483,-272,0,0,0,0,0,0,0,0,0,-1,1707,1296,0,0
490,-272,0,0,0,0,0,0,0,0,0,-1,1714,1296,0,0
497,-272,0,0,0,0,0,0,0,0,0,-1,1721,1296,0,0
504,-272,0,0,0,0,0,0,0,0,0,-1,1728,1296,0,0
511,-272,0,0,0,0,0,0,0,0,0,-1,1735,1296,0,0
518,-272,0,0,0,0,0,0,0,0,0,-1,1742,1296,0,0
525,-272,0,0,0,0,0,0,0,0,0,-1,1749,1296,0,0
532,-272,0,0,0,0,0,0,0,0,0,-1,1756,1296,0,0
539,-272,0,0,0,0,0,0,0,0,0,-1,1763,1296,0,0
546,-272,0,0,0,0,0,0,0,0,0,-1,1770,1296,0,0
553,-272,0,0,0,0,0,0,0,0,0,-1,1777,1296,0,0
560,-272,0,0,0,0,0,0,0,0,0,-1,1784,1296,0,0
567,-272,0,0,0,0,0,0,0,0,0,-1,1791,1296,0,0
574,-272,0,0,0,0,0,0,0,0,0,-1,1798,1296,0,0
581,-272,0,0,0,0,0,0,0,0,0,-1,1805,1296,0,0
588,-272,0,0,0,0,0,0,0,0,0,-1,1812,1296,0,0
595,-272,0,0,0,0,0,0,0,0,0,-1,1819,1296,0,0
602,-272,71.4318,2.28821,-0.0077486,0.0120209,-0.000271715,0.0120247,-0.00775233,-1.55706,0.0115067,0.0314412,1826,1296,71.4317,-2.28822
609,-272,71.3318,2.18738,-0.0123228,0.0247201,0.000785437,0.0247367,-0.0123395,1.54961,0.0218012,0.040198,1833,1296,71.3318,-2.18741
616,-272,71.1597,1.85962,-0.0133774,0.0287744,0.00124084,0.0288109,-0.0134139,1.54139,0.0249128,0.0445227,1840,1296,71.1597,-1.85968
623,-272,71.3099,1.96741,0,0,0,0,0,0,0,-1,1847,1296,71.3099,-1.96738
630,-272,71.1027,2.09473,0,0,0,0,0,0,0,-1,1854,1296,71.1027,-2.09478
637,-272,70.5863,0.99646,0,0,0,0,0,0,0,-1,1861,1296,70.5863,-0.99643
644,-272,53.563,1.44336,0,0,0,0,0,0,0,-1,1868,1296,53.5629,-1.4433
651,-272,41.9225,4.27161,0,0,0,0,0,0,0,-1,1875,1296,41.9225,-4.27157
658,-272,35.1527,2.10571,0,0,0,0,0,0,0,-1,1882,1296,35.1527,-2.10573
665,-272,22.0238,4.14417,0,0,0,0,0,0,0,-1,1889,1296,22.0238,-4.14421
672,-272,22.661,7.21765,0,0,0,0,0,0,0,-1,1896,1296,22.661,-7.21761
679,-272,50.1593,14.9199,0,0,0,0,0,0,0,-1,1903,1296,50.1592,-14.9199
686,-272,50.0649,14.1389,-0.00039981,0.00281649,-0.000355701,0.00285536,-0.000438679,-1.46196,0.00206538,0.0462332,1910,1296,50.0649,-14.1389
693,-272,50.0885,13.3243,0.00059299,0.000683173,-0.000233092,0.000875495,0.000400668,-0.880943,0.000506071,0.0128421,1917,1296,50.0886,-13.3243
700,-272,50.0721,12.6161,0.000642714,-0.000120928,9.96978e-08,0.000642714,-0.000120928,0.000130556,0.000473956,0.0126815,1924,1296,50.0721,-12.6161
707,-272,50.0311,11.8835,0.000130093,-5.31473e-05,0.000366589,0.000416337,-0.000339392,0.662944,0.000437074,0.0118318,1931,1296,50.0311,-11.8835
714,-272,49.9956,11.1432,-0.000400246,0.000424892,0.000785022,0.000899156,-0.00087451,1.02734,0.00102406,0.0146892,1938,1296,49.9956,-11.1432
721,-272,49.9126,10.4706,-0.000994557,0.000968222,0.00118782,0.00152762,-0.00155396,1.13066,0.00177917,0.0185023,1945,1296,49.9127,-10.4706
728,-272,49.891,9.74976,-0.00164376,0.00158667,0.00158327,0.00223324,-0.00229033,1.18309,0.00261175,0.0202828,1952,1296,49.891,-9.74981
735,-272,49.8795,9.08728,-0.00236805,0.00229212,0.00198889,0.00302553,-0.00310146,1.21751,0.00353751,0.0176912,1959,1296,49.8795,-9.08722
742,-272,49.787,8.44238,-0.00312463,0.00315285,0.00236832,0.00394611,-0.00391789,1.24759,0.00454029,0.0256031,1966,1296,49.787,-8.44237
749,-272,49.7344,7.6825,-0.00390558,0.00420278,0.00264175,0.00498753,-0.00469032,1.28204,0.00558839,0.046307,1973,1296,49.7344,-7.68252
756,-272,49.8108,6.96936,0,0,0,0,0,0,0,-1,1980,1296,49.8108,-6.96937
763,-272,34.3995,5.88416,0,0,0,0,0,0,0,-1,1987,1296,34.3996,-5.88419
770,-272,25.9485,3.67749,0,0,0,0,0,0,0,-1,1994,1296,25.9485,-3.67744
777,-272,32.3619,6.13257,0,0,0,0,0,0,0,-1,2001,1296,32.362,-6.1326
784,-272,0,0,0,0,0,0,0,0,0,-1,2008,1296,0,0
791,-272,0,0,0,0,0,0,0,0,0,-1,2015,1296,0,0
798,-272,0,0,0,0,0,0,0,0,0,-1,2022,1296,0,0
805,-272,0,0,0,0,0,0,0,0,0,-1,2029,1296,0,0
812,-272,0,0,0,0,0,0,0,0,0,-1,2036,1296,0,0
-700,-279,0,0,0,0,0,0,0,0,0,-1,524,1303,0,0
-693,-279,0,0,0,0,0,0,0,0,0,-1,531,1303,0,0
-686,-279,0,0,0,0,0,0,0,0,0,-1,538,1303,0,0
-679,-279,0,0,0,0,0,0,0,0,0,-1,545,1303,0,0
-672,-279,0,0,0,0,0,0,0,0,0,-1,552,1303,0,0
-665,-279,0,0,0,0,0,0,0,0,0,-1,559,1303,0,0
-658,-279,-44.3733,1.65881,0,0,0,0,0,0,0,-1,566,1303,-44.3733,-1.65883
-651,-279,-44.1603,1.61462,0,0,0,0,0,0,0,-1,573,1303,-44.1604,-1.61462
-644,-279,-43.8069,1.50903,0,0,0,0,0,0,0,-1,580,1303,-43.8069,-1.50909
-637,-279,-43.2951,1.33704,0,0,0,0,0,0,0,-1,587,1303,-43.2951,-1.33703
-630,-279,-42.6152,1.22852,0,0,0,0,0,0,0,-1,594,1303,-42.6152,-1.22856
-623,-279,-41.8359,0.907715,0,0,0,0,0,0,0,-1,601,1303,-41.8358,-0.907688
-616,-279,-33.1724,5.91333,0,0,0,0,0,0,0,-1,608,1303,-33.1724,-5.91331
-609,-279,-32.7899,6.85999,0.0108904,0.00953286,0.00671785,0.0169637,0.00345959,0.735048,0.0103505,0.0499365,615,1303,-32.7899,-6.85997
-602,-279,-32.4796,7.74805,0.00771238,0.00691258,0.0048105,0.0121396,0.00248538,0.743929,0.00740495,0.0151071,622,1303,-32.4796,-7.74809
-595,-279,-32.5427,8.48242,0.00538017,0.0046815,0.00329089,0.00834021,0.00172146,0.73252,0.00508441,0.0106686,629,1303,-32.5427,-8.48244
-588,-279,-32.5897,9.22034,0.00373363,0.00276653,0.00213727,0.00544138,0.00105879,0.674148,0.00333122,0.0113957,636,1303,-32.5897,-9.22029
-581,-279,-32.6331,9.9552,0.00258951,0.00103821,0.00125677,0.00329072,0.000337001,0.508922,0.00209055,0.0125071,643,1303,-32.6331,-9.95519
-574,-279,-32.6664,10.7158,0.00188633,-0.00054679,0.000600698,0.00202655,-0.000687011,0.229325,0.00162906,0.013639,650,1303,-32.6665,-10.7158
-567,-279,-32.7072,11.4818,0.00159418,-0.0020346,0.00014673,0.00160011,-0.00204053,0.0403472,0.00210704,0.0196289,657,1303,-32.7072,-11.4818
-560,-279,-32.7322,12.2823,0.00181146,-0.00314678,-3.04123e-05,0.00181165,-0.00314697,-0.00613337,0.00289725,0.0184636,664,1303,-32.7323,-12.2823
-553,-279,-32.7484,13.04,0.0025609,-0.00402058,0.000349492,0.00257941,-0.00403909,0.052904,0.00385204,0.0186497,671,1303,-32.7484,-13.0401
-546,-279,-32.7502,13.7715,0.00353042,-0.00476026,0.000764439,0.00360031,-0.00483015,0.0911803,0.00488456,0.0333217,678,1303,-32.7502,-13.7715
-539,-279,-33.129,14.5845,0,0,0,0,0,0,0,-1,685,1303,-33.129,-14.5845
-532,-279,-14.9813,7.89917,0,0,0,0,0,0,0,-1,692,1303,-14.9813,-7.89918
-525,-279,-11.7063,-0.539185,0,0,0,0,0,0,0,-1,699,1303,-11.7063,0.539166
-518,-279,-16.8138,1.11963,0,0,0,0,0,0,0,-1,706,1303,-16.8138,-1.11968
-511,-279,-20.1063,-1.37915,0,0,0,0,0,0,0,-1,713,1303,-20.1062,1.37918
-504,-279,-18.3766,1.04578,0,0,0,0,0,0,0,-1,720,1303,-18.3767,-1.04577
-497,-279,-19.0046,2.08911,0,0,0,0,0,0,0,-1,727,1303,-19.0046,-2.08905
-490,-279,-20.0176,2.55188,0,0,0,0,0,0,0,-1,734,1303,-20.0176,-2.55183
-483,-279,-20.8064,2.99792,0,0,0,0,0,0,0,-1,741,1303,-20.8064,-2.99797
-476,-279,0,0,0,0,0,0,0,0,0,-1,748,1303,0,0
-469,-279,0,0,0,0,0,0,0,0,0,-1,755,1303,0,0
-462,-279,0,0,0,0,0,0,0,0,0,-1,762,1303,0,0
-455,-279,0,0,0,0,0,0,0,0,0,-1,769,1303,0,0
-448,-279,0,0,0,0,0,0,0,0,0,-1,776,1303,0,0
-441,-279,0,0,0,0,0,0,0,0,0,-1,783,1303,0,0
-434,-279,0,0,0,0,0,0,0,0,0,-1,790,1303,0,0
-427,-279,0,0,0,0,0,0,0,0,0,-1,797,1303,0,0
-420,-279,0,0,0,0,0,0,0,0,0,-1,804,1303,0,0
-413,-279,0,0,0,0,0,0,0,0,0,-1,811,1303,0,0
-406,-279,0,0,0,0,0,0,0,0,0,-1,818,1303,0,0
-399,-279,0,0,0,0,0,0,0,0,0,-1,825,1303,0,0
-392,-279,0,0,0,0,0,0,0,0,0,-1,832,1303,0,0
-385,-279,0,0,0,0,0,0,0,0,0,-1,839,1303,0,0
-378,-279,0,0,0,0,0,0,0,0,0,-1,846,1303,0,0
-371,-279,0,0,0,0,0,0,0,0,0,-1,853,1303,0,0
-364,-279,0,0,0,0,0,0,0,0,0,-1,860,1303,0,0
-357,-279,0,0,0,0,0,0,0,0,0,-1,867,1303,0,0
-350,-279,0,0,0,0,0,0,0,0,0,-1,874,1303,0,0
-343,-279,0,0,0,0,0,0,0,0,0,-1,881,1303,0,0
-336,-279,0,0,0,0,0,0,0,0,0,-1,888,1303,0,0
-329,-279,0,0,0,0,0,0,0,0,0,-1,895,1303,0,0
-322,-279,0,0,0,0,0,0,0,0,0,-1,902,1303,0,0
-315,-279,0,0,0,0,0,0,0,0,0,-1,909,1303,0,0
-308,-279,0,0,0,0,0,0,0,0,0,-1,916,1303,0,0
-301,-279,0,0,0,0,0,0,0,0,0,-1,923,1303,0,0
-294,-279,0,0,0,0,0,0,0,0,0,-1,930,1303,0,0
-287,-279,0,0,0,0,0,0,0,0,0,-1,937,1303,0,0
-280,-279,0,0,0,0,0,0,0,0,0,-1,944,1303,0,0
-273,-279,0,0,0,0,0,0,0,0,0,-1,951,1303,0,0
-266,-279,0,0,0,0,0,0,0,0,0,-1,958,1303,0,0
-259,-279,0,0,0,0,0,0,0,0,0,-1,965,1303,0,0
-252,-279,0,0,0,0,0,0,0,0,0,-1,972,1303,0,0
-245,-279,0,0,0,0,0,0,0,0,0,-1,979,1303,0,0
-238,-279,0,0,0,0,0,0,0,0,0,-1,986,1303,0,0
-231,-279,0,0,0,0,0,0,0,0,0,-1,993,1303,0,0
-224,-279,0,0,0,0,0,0,0,0,0,-1,1000,1303,0,0
-217,-279,0,0,0,0,0,0,0,0,0,-1,1007,1303,0,0
-210,-279,0,0,0,0,0,0,0,0,0,-1,1014,1303,0,0
-203,-279,0,0,0,0,0,0,0,0,0,-1,1021,1303,0,0
-196,-279,0,0,0,0,0,0,0,0,0,-1,1028,1303,0,0
-189,-279,0,0,0,0,0,0,0,0,0,-1,1035,1303,0,0
-182,-279,0,0,0,0,0,0,0,0,0,-1,1042,1303,0,0
-175,-279,0,0,0,0,0,0,0,0,0,-1,1049,1303,0,0
-168,-279,0,0,0,0,0,0,0,0,0,-1,1056,1303,0,0
-161,-279,0,0,0,0,0,0,0,0,0,-1,1063,1303,0,0
-154,-279,0,0,0,0,0,0,0,0,0,-1,1070,1303,0,0
-147,-279,0,0,0,0,0,0,0,0,0,-1,1077,1303,0,0
-140,-279,0,0,0,0,0,0,0,0,0,-1,1084,1303,0,0
-133,-279,0,0,0,0,0,0,0,0,0,-1,1091,1303,0,0
-126,-279,0,0,0,0,0,0,0,0,0,-1,1098,1303,0,0
-119,-279,0,0,0,0,0,0,0,0,0,-1,1105,1303,0,0
-112,-279,0,0,0,0,0,0,0,0,0,-1,1112,1303,0,0
-105,-279,0,0,0,0,0,0,0,0,0,-1,1119,1303,0,0
-98,-279,0,0,0,0,0,0,0,0,0,-1,1126,1303,0,0
-91,-279,0,0,0,0,0,0,0,0,0,-1,1133,1303,0,0
-84,-279,0,0,0,0,0,0,0,0,0,-1,1140,1303,0,0
-77,-279,0,0,0,0,0,0,0,0,0,-1,1147,1303,0,0
-70,-279,0,0,0,0,0,0,0,0,0,-1,1154,1303,0,0
-63,-279,0,0,0,0,0,0,0,0,0,-1,1161,1303,0,0
-56,-279,0,0,0,0,0,0,0,0,0,-1,1168,1303,0,0
-49,-279,0,0,0,0,0,0,0,0,0,-1,1175,1303,0,0
-42,-279,0,0,0,0,0,0,0,0,0,-1,1182,1303,0,0
-35,-279,0,0,0,0,0,0,0,0,0,-1,1189,1303,0,0
-28,-279,0,0,0,0,0,0,0,0,0,-1,1196,1303,0,0
-21,-279,0,0,0,0,0,0,0,0,0,-1,1203,1303,0,0
-14,-279,0,0,0,0,0,0,0,0,0,-1,1210,1303,0,0
-7,-279,0,0,0,0,0,0,0,0,0,-1,1217,1303,0,0
0,-279,0,0,0,0,0,0,0,0,0,-1,1224,1303,0,0
7,-279,0,0,0,0,0,0,0,0,0,-1,1231,1303,0,0
14,-279,0,0,0,0,0,0,0,0,0,-1,1238,1303,0,0
21,-279,0,0,0,0,0,0,0,0,0,-1,1245,1303,0,0
28,-279,0,0,0,0,0,0,0,0,0,-1,1252,1303,0,0
35,-279,0,0,0,0,0,0,0,0,0,-1,1259,1303,0,0
42,-279,0,0,0,0,0,0,0,0,0,-1,1266,1303,0,0
49,-279,0,0,0,0,0,0,0,0,0,-1,1273,1303,0,0
56,-279,0,0,0,0,0,0,0,0,0,-1,1280,1303,0,0
63,-279,0,0,0,0,0,0,0,0,0,-1,1287,1303,0,0
70,-279,0,0,0,0,0,0,0,0,0,-1,1294,1303,0,0
77,-279,0,0,0,0,0,0,0,0,0,-1,1301,1303,0,0
84,-279,0,0,0,0,0,0,0,0,0,-1,1308,1303,0,0
91,-279,0,0,0,0,0,0,0,0,0,-1,1315,1303,0,0
98,-279,0,0,0,0,0,0,0,0,0,-1,1322,1303,0,0
105,-279,0,0,0,0,0,0,0,0,0,-1,1329,1303,0,0
112,-279,0,0,0,0,0,0,0,0,0,-1,1336,1303,0,0
119,-279,0,0,0,0,0,0,0,0,0,-1,1343,1303,0,0
126,-279,0,0,0,0,0,0,0,0,0,-1,1350,1303,0,0
133,-279,0,0,0,0,0,0,0,0,0,-1,1357,1303,0,0
140,-279,0,0,0,0,0,0,0,0,0,-1,1364,1303,0,0
147,-279,0,0,0,0,0,0,0,0,0,-1,1371,1303,0,0
154,-279,0,0,0,0,0,0,0,0,0,-1,1378,1303,0,0
161,-279,0,0,0,0,0,0,0,0,0,-1,1385,1303,0,0
168,-279,0,0,0,0,0,0,0,0,0,-1,1392,1303,0,0
175,-279,0,0,0,0,0,0,0,0,0,-1,1399,1303,0,0
182,-279,0,0,0,0,0,0,0,0,0,-1,1406,1303,0,0
189,-279,0,0,0,0,0,0,0,0,0,-1,1413,1303,0,0
196,-279,0,0,0,0,0,0,0,0,0,-1,1420,1303,0,0
203,-279,0,0,0,0,0,0,0,0,0,-1,1427,1303,0,0
210,-279,0,0,0,0,0,0,0,0,0,-1,1434,1303,0,0
217,-279,0,0,0,0,0,0,0,0,0,-1,1441,1303,0,0
224,-279,0,0,0,0,0,0,0,0,0,-1,1448,1303,0,0
231,-279,0,0,0,0,0,0,0,0,0,-1,1455,1303,0,0
238,-279,0,0,0,0,0,0,0,0,0,-1,1462,1303,0,0
245,-279,0,0,0,0,0,0,0,0,0,-1,1469,1303,0,0
252,-279,0,0,0,0,0,0,0,0,0,-1,1476,1303,0,0
259,-279,0,0,0,0,0,0,0,0,0,-1,1483,1303,0,0
266,-279,0,0,0,0,0,0,0,0,0,-1,1490,1303,0,0
273,-279,0,0,0,0,0,0,0,0,0,-1,1497,1303,0,0
280,-279,0,0,0,0,0,0,0,0,0,-1,1504,1303,0,0
287,-279,0,0,0,0,0,0,0,0,0,-1,1511,1303,0,0
294,-279,0,0,0,0,0,0,0,0,0,-1,1518,1303,0,0
301,-279,0,0,0,0,0,0,0,0,0,-1,1525,1303,0,0
308,-279,0,0,0,0,0,0,0,0,0,-1,1532,1303,0,0
315,-279,0,0,0,0,0,0,0,0,0,-1,1539,1303,0,0
322,-279,0,0,0,0,0,0,0,0,0,-1,1546,1303,0,0
329,-279,0,0,0,0,0,0,0,0,0,-1,1553,1303,0,0
336,-279,0,0,0,0,0,0,0,0,0,-1,1560,1303,0,0
343,-279,0,0,0,0,0,0,0,0,0,-1,1567,1303,0,0
350,-279,0,0,0,0,0,0,0,0,0,-1,1574,1303,0,0
357,-279,0,0,0,0,0,0,0,0,0,-1,1581,1303,0,0
364,-279,0,0,0,0,0,0,0,0,0,-1,1588,1303,0,0
371,-279,0,0,0,0,0,0,0,0,0,-1,1595,1303,0,0
378,-279,0,0,0,0,0,0,0,0,0,-1,1602,1303,0,0
385,-279,0,0,0,0,0,0,0,0,0,-1,1609,1303,0,0
392,-279,0,0,0,0,0,0,0,0,0,-1,1616,1303,0,0
399,-279,0,0,0,0,0,0,0,0,0,-1,1623,1303,0,0
406,-279,0,0,0,0,0,0,0,0,0,-1,1630,1303,0,0
413,-279,0,0,0,0,0,0,0,0,0,-1,1637,1303,0,0
420,-279,0,0,0,0,0,0,0,0,0,-1,1644,1303,0,0
427,-279,0,0,0,0,0,0,0,0,0,-1,1651,1303,0,0
434,-279,0,0,0,0,0,0,0,0,0,-1,1658,1303,0,0
441,-279,0,0,0,0,0,0,0,0,0,-1,1665,1303,0,0
448,-279,0,0,0,0,0,0,0,0,0,-1,1672,1303,0,0
455,-279,0,0,0,0,0,0,0,0,0,-1,1679,1303,0,0
462,-279,0,0,0,0,0,0,0,0,0,-1,1686,1303,0,0
469,-279,0,0,0,0,0,0,0,0,0,-1,1693,1303,0,0
476,-279,0,0,0,0,0,0,0,0,0,-1,1700,1303,0,0
483,-279,0,0,0,0,0,0,0,0,0,-1,1707,1303,0,0
490,-279,0,0,0,0,0,0,0,0,0,-1,1714,1303,0,0
497,-279,0,0,0,0,0,0,0,0,0,-1,1721,1303,0,0
504,-279,0,0,0,0,0,0,0,0,0,-1,1728,1303,0,0
511,-279,0,0,0,0,0,0,0,0,0,-1,1735,1303,0,0
518,-279,0,0,0,0,0,0,0,0,0,-1,1742,1303,0,0
525,-279,0,0,0,0,0,0,0,0,0,-1,1749,1303,0,0
532,-279,0,0,0,0,0,0,0,0,0,-1,1756,1303,0,0
539,-279,0,0,0,0,0,0,0,0,0,-1,1763,1303,0,0
546,-279,0,0,0,0,0,0,0,0,0,-1,1770,1303,0,0
553,-279,0,0,0,0,0,0,0,0,0,-1,1777,1303,0,0
560,-279,0,0,0,0,0,0,0,0,0,-1,1784,1303,0,0
567,-279,0,0,0,0,0,0,0,0,0,-1,1791,1303,0,0
574,-279,0,0,0,0,0,0,0,0,0,-1,1798,1303,0,0
581,-279,0,0,0,0,0,0,0,0,0,-1,1805,1303,0,0
588,-279,0,0,0,0,0,0,0,0,0,-1,1812,1303,0,0
595,-279,0,0,0,0,0,0,0,0,0,-1,1819,1303,0,0
602,-279,71.4169,2.25037,0,0,0,0,0,0,0,-1,1826,1303,71.4168,-2.25033
609,-279,71.254,2.11389,0,0,0,0,0,0,0,-1,1833,1303,71.254,-2.11391
616,-279,70.705,1.37244,-0.0124943,0.0293813,0.000426656,0.0293856,-0.0124987,1.56061,0.0248284,0.0498415,1840,1303,70.705,-1.37242
623,-279,70.5404,1.32092,0,0,0,0,0,0,0,-1,1847,1303,70.5405,-1.32094
630,-279,70.4994,1.18628,0,0,0,0,0,0,0,-1,1854,1303,70.4994,-1.18629
637,-279,64.8074,1.49939,0,0,0,0,0,0,0,-1,1861,1303,64.8074,-1.49939
644,-279,33.5021,3.40234,0,0,0,0,0,0,0,-1,1868,1303,33.5021,-3.40237
651,-279,29.8456,2.3562,0,0,0,0,0,0,0,-1,1875,1303,29.8455,-2.35615
658,-279,21.5076,7.65649,0,0,0,0,0,0,0,-1,1882,1303,21.5076,-7.65648
665,-279,18.9794,6.09607,0,0,0,0,0,0,0,-1,1889,1303,18.9793,-6.09601
672,-279,23.5206,8.32507,0,0,0,0,0,0,0,-1,1896,1303,23.5206,-8.32512
679,-279,49.2798,14.8539,0,0,0,0,0,0,0,-1,1903,1303,49.2798,-14.8538
686,-279,49.3488,14.1433,-0.000134798,0.00198777,-0.000643277,0.0021675,-0.000314533,-1.29834,0.00156045,0.0325592,1910,1303,49.3487,-14.1434
693,-279,49.3632,13.3932,0.000688043,0.000360028,-0.000430133,0.000984375,6.36954e-05,-0.603259,0.000636082,0.0174719,1917,1303,49.3632,-13.3932
700,-279,49.3396,12.684,0.00069606,3.51902e-05,-0.000118396,0.00071663,1.46195e-05,-0.172027,0.000472956,0.0131515,1924,1303,49.3396,-12.6839
707,-279,49.2987,11.933,0.000302473,0.000293727,0.000257755,0.000555892,4.03081e-05,0.776916,0.000357916,0.010099,1931,1303,49.2987,-11.933
714,-279,49.2557,11.1936,-0.000117189,0.000809335,0.000609775,0.00111186,-0.00041972,1.11025,0.000913863,0.0111256,1938,1303,49.2557,-11.1936
721,-279,49.2408,10.4935,-0.000611689,0.00140326,0.000941756,0.00177488,-0.000983311,1.19495,0.00161416,0.0158737,1945,1303,49.2408,-10.4935
728,-279,49.2329,9.81567,-0.00117944,0.00209523,0.00125734,0.0025223,-0.00160651,1.24336,0.00240324,0.0187396,1952,1303,49.2329,-9.81571
735,-279,49.1631,9.14551,-0.00184544,0.00289285,0.00156974,0.0033657,-0.00231829,1.27821,0.00330017,0.0180328,1959,1303,49.1631,-9.14548
742,-279,49.0825,8.47021,-0.00256004,0.00390385,0.00181188,0.00437709,-0.00303328,1.31532,0.00430176,0.0285028,1966,1303,49.0825,-8.4702
749,-279,49.0272,7.78564,0,0,0,0,0,0,0,-1,1973,1303,49.0272,-7.78567
756,-279,23.2091,4.43433,0,0,0,0,0,0,0,-1,1980,1303,23.2092,-4.43432
763,-279,27.1613,3.46265,0,0,0,0,0,0,0,-1,1987,1303,27.1613,-3.4627
770,-279,21.5828,3.54199,0,0,0,0,0,0,0,-1,1994,1303,21.5827,-3.54198
777,-279,32.5369,6.99609,0,0,0,0,0,0,0,-1,2001,1303,32.5369,-6.99608
784,-279,0,0,0,0,0,0,0,0,0,-1,2008,1303,0,0
791,-279,0,0,0,0,0,0,0,0,0,-1,2015,1303,0,0
798,-279,0,0,0,0,0,0,0,0,0,-1,2022,1303,0,0
805,-279,0,0,0,0,0,0,0,0,0,-1,2029,1303,0,0
812,-279,0,0,0,0,0,0,0,0,0,-1,2036,1303,0,0
-700,-286,0,0,0,0,0,0,0,0,0,-1,524,1310,0,0
-693,-286,0,0,0,0,0,0,0,0,0,-1,531,1310,0,0
-686,-286,0,0,0,0,0,0,0,0,0,-1,538,1310,0,0
-679,-286,0,0,0,0,0,0,0,0,0,-1,545,1310,0,0
-672,-286,0,0,0,0,0,0,0,0,0,-1,552,1310,0,0
-665,-286,0,0,0,0,0,0,0,0,0,-1,559,1310,0,0
-658,-286,-44.103,1.76782,0,0,0,0,0,0,0,-1,566,1310,-44.103,-1.76778
-651,-286,-43.6417,1.98254,0,0,0,0,0,0,0,-1,573,1310,-43.6416,-1.98254
-644,-286,-43.3175,1.59558,0,0,0,0,0,0,0,-1,580,1310,-43.3175,-1.59556
-637,-286,-42.8448,1.15039,0,0,0,0,0,0,0,-1,587,1310,-42.8448,-1.15043
-630,-286,-42.1176,0.443848,0,0,0,0,0,0,0,-1,594,1310,-42.1176,-0.443802
-623,-286,-41.3121,-0.468384,0,0,0,0,0,0,0,-1,601,1310,-41.3121,0.468376
-616,-286,-22.0634,2.37744,0,0,0,0,0,0,0,-1,608,1310,-22.0633,-2.37746
-609,-286,-32.1595,6.49316,0,0,0,0,0,0,0,-1,615,1310,-32.1595,-6.4932
-602,-286,-31.7505,7.71399,0.00827026,0.00759862,0.00564733,0.0135917,0.00227714,0.755701,0.00840557,0.0232862,622,1310,-31.7505,-7.71402
-595,-286,-31.8037,8.54224,0.00580217,0.00525165,0.0038472,0.00938394,0.00166988,0.749685,0.00578031,0.0129459,629,1310,-31.8037,-8.54219
-588,-286,-31.8453,9.26501,0.00410027,0.00332106,0.00251912,0.00625973,0.0011616,0.708676,0.0038449,0.0133858,636,1310,-31.8453,-9.26503
-581,-286,-31.8459,10.0011,0.00295132,0.00165382,0.0015478,0.00398083,0.00062431,0.586948,0.0024722,0.0148218,643,1310,-31.8459,-10.0011
-574,-286,-31.8967,10.7612,0.00225955,0.000183849,0.000843964,0.00255939,-0.000115989,0.341365,0.0017462,0.0151246,650,1310,-31.8968,-10.7613
-567,-286,-31.9742,11.5364,0.00196475,-0.00113587,0.000365534,0.00200726,-0.00117838,0.115776,0.00185987,0.0160205,657,1310,-31.9742,-11.5363
-560,-286,-31.9849,12.3153,0.00215448,-0.00228768,0.000140364,0.00215891,-0.00229211,0.0315561,0.00257018,0.0157624,664,1310,-31.9848,-12.3153
-553,-286,-31.9921,13.0781,0.00291458,-0.0031997,0.000351613,0.00293473,-0.00321985,0.0572554,0.00355462,0.011513,671,1310,-31.9921,-13.0781
-546,-286,-31.965,13.8741,0.00404706,-0.00406424,0.000689621,0.00410528,-0.00412245,0.0842142,0.00475029,0.0271138,678,1310,-31.9649,-13.8742
-539,-286,-32.0629,14.7621,0,0,0,0,0,0,0,-1,685,1310,-32.0629,-14.7621
-532,-286,-21.6771,10.4924,0,0,0,0,0,0,0,-1,692,1310,-21.6771,-10.4924
-525,-286,-11.4528,-1.11768,0,0,0,0,0,0,0,-1,699,1310,-11.4528,1.11769
-518,-286,-11.0701,1.37329,0,0,0,0,0,0,0,-1,706,1310,-11.0701,-1.37332
-511,-286,-17.7545,-0.0791016,0,0,0,0,0,0,0,-1,713,1310,-17.7544,0.0791606
-504,-286,-18.0455,1.29602,0,0,0,0,0,0,0,-1,720,1310,-18.0455,-1.29601
-497,-286,-18.3367,2.67114,0,0,0,0,0,0,0,-1,727,1310,-18.3366,-2.67118
-490,-286,-19.5795,2.47266,0,0,0,0,0,0,0,-1,734,1310,-19.5795,-2.4727
-483,-286,-19.7277,2.74744,0,0,0,0,0,0,0,-1,741,1310,-19.7277,-2.74747
-476,-286,-20.0391,3.06177,0,0,0,0,0,0,0,-1,748,1310,-20.0391,-3.06178
-469,-286,0,0,0,0,0,0,0,0,0,-1,755,1310,0,0
-462,-286,0,0,0,0,0,0,0,0,0,-1,762,1310,0,0
-455,-286,0,0,0,0,0,0,0,0,0,-1,769,1310,0,0
-448,-286,0,0,0,0,0,0,0,0,0,-1,776,1310,0,0
-441,-286,0,0,0,0,0,0,0,0,0,-1,783,1310,0,0
-434,-286,0,0,0,0,0,0,0,0,0,-1,790,1310,0,0
-427,-286,0,0,0,0,0,0,0,0,0,-1,797,1310,0,0
-420,-286,0,0,0,0,0,0,0,0,0,-1,804,1310,0,0
-413,-286,0,0,0,0,0,0,0,0,0,-1,811,1310,0,0
-406,-286,0,0,0,0,0,0,0,0,0,-1,818,1310,0,0
-399,-286,0,0,0,0,0,0,0,0,0,-1,825,1310,0,0
-392,-286,0,0,0,0,0,0,0,0,0,-1,832,1310,0,0
-385,-286,0,0,0,0,0,0,0,0,0,-1,839,1310,0,0
-378,-286,0,0,0,0,0,0,0,0,0,-1,846,1310,0,0
-371,-286,0,0,0,0,0,0,0,0,0,-1,853,1310,0,0
-364,-286,0,0,0,0,0,0,0,0,0,-1,860,1310,0,0
-357,-286,0,0,0,0,0,0,0,0,0,-1,867,1310,0,0
-350,-286,0,0,0,0,0,0,0,0,0,-1,874,1310,0,0
-343,-286,0,0,0,0,0,0,0,0,0,-1,881,1310,0,0
-336,-286,0,0,0,0,0,0,0,0,0,-1,888,1310,0,0
-329,-286,0,0,0,0,0,0,0,0,0,-1,895,1310,0,0
-322,-286,0,0,0,0,0,0,0,0,0,-1,902,1310,0,0
-315,-286,0,0,0,0,0,0,0,0,0,-1,909,1310,0,0
-308,-286,0,0,0,0,0,0,0,0,0,-1,916,1310,0,0
-301,-286,0,0,0,0,0,0,0,0,0,-1,923,1310,0,0
-294,-286,0,0,0,0,0,0,0,0,0,-1,930,1310,0,0
-287,-286,0,0,0,0,0,0,0,0,0,-1,937,1310,0,0
-280,-286,0,0,0,0,0,0,0,0,0,-1,944,1310,0,0
-273,-286,0,0,0,0,0,0,0,0,0,-1,951,1310,0,0
-266,-286,0,0,0,0,0,0,0,0,0,-1,958,1310,0,0
-259,-286,0,0,0,0,0,0,0,0,0,-1,965,1310,0,0
-252,-286,0,0,0,0,0,0,0,0,0,-1,972,1310,0,0
-245,-286,0,0,0,0,0,0,0,0,0,-1,979,1310,0,0
-238,-286,0,0,0,0,0,0,0,0,0,-1,986,1310,0,0
-231,-286,0,0,0,0,0,0,0,0,0,-1,993,1310,0,0
-224,-286,0,0,0,0,0,0,0,0,0,-1,1000,1310,0,0
-217,-286,0,0,0,0,0,0,0,0,0,-1,1007,1310,0,0
-210,-286,0,0,0,0,0,0,0,0,0,-1,1014,1310,0,0
-203,-286,0,0,0,0,0,0,0,0,0,-1,1021,1310,0,0
-196,-286,0,0,0,0,0,0,0,0,0,-1,1028,1310,0,0
-189,-286,0,0,0,0,0,0,0,0,0,-1,1035,1310,0,0
-182,-286,0,0,0,0,0,0,0,0,0,-1,1042,1310,0,0
-175,-286,0,0,0,0,0,0,0,0,0,-1,1049,1310,0,0
-168,-286,0,0,0,0,0,0,0,0,0,-1,1056,1310,0,0
-161,-286,0,0,0,0,0,0,0,0,0,-1,1063,1310,0,0
-154,-286,0,0,0,0,0,0,0,0,0,-1,1070,1310,0,0
-147,-286,0,0,0,0,0,0,0,0,0,-1,1077,1310,0,0
-140,-286,0,0,0,0,0,0,0,0,0,-1,1084,1310,0,0
-133,-286,0,0,0,0,0,0,0,0,0,-1,1091,1310,0,0
-126,-286,0,0,0,0,0,0,0,0,0,-1,1098,1310,0,0
-119,-286,0,0,0,0,0,0,0,0,0,-1,1105,1310,0,0
-112,-286,0,0,0,0,0,0,0,0,0,-1,1112,1310,0,0
-105,-286,0,0,0,0,0,0,0,0,0,-1,1119,1310,0,0
-98,-286,0,0,0,0,0,0,0,0,0,-1,1126,1310,0,0
-91,-286,0,0,0,0,0,0,0,0,0,-1,1133,1310,0,0
-84,-286,0,0,0,0,0,0,0,0,0,-1,1140,1310,0,0
-77,-286,0,0,0,0,0,0,0,0,0,-1,1147,1310,0,0
-70,-286,0,0,0,0,0,0,0,0,0,-1,1154,1310,0,0
-63,-286,0,0,0,0,0,0,0,0,0,-1,1161,1310,0,0
-56,-286,0,0,0,0,0,0,0,0,0,-1,1168,1310,0,0
-49,-286,0,0,0,0,0,0,0,0,0,-1,1175,1310,0,0
-42,-286,0,0,0,0,0,0,0,0,0,-1,1182,1310,0,0
-35,-286,0,0,0,0,0,0,0,0,0,-1,1189,1310,0,0
-28,-286,0,0,0,0,0,0,0,0,0,-1,1196,1310,0,0
-21,-286,0,0,0,0,0,0,0,0,0,-1,1203,1310,0,0
-14,-286,0,0,0,0,0,0,0,0,0,-1,1210,1310,0,0
-7,-286,0,0,0,0,0,0,0,0,0,-1,1217,1310,0,0
0,-286,0,0,0,0,0,0,0,0,0,-1,1224,1310,0,0
7,-286,0,0,0,0,0,0,0,0,0,-1,1231,1310,0,0
14,-286,0,0,0,0,0,0,0,0,0,-1,1238,1310,0,0
21,-286,0,0,0,0,0,0,0,0,0,-1,1245,1310,0,0
28,-286,0,0,0,0,0,0,0,0,0,-1,1252,1310,0,0
35,-286,0,0,0,0,0,0,0,0,0,-1,1259,1310,0,0
42,-286,0,0,0,0,0,0,0,0,0,-1,1266,1310,0,0
49,-286,0,0,0,0,0,0,0,0,0,-1,1273,1310,0,0
56,-286,0,0,0,0,0,0,0,0,0,-1,1280,1310,0,0
63,-286,0,0,0,0,0,0,0,0,0,-1,1287,1310,0,0
70,-286,0,0,0,0,0,0,0,0,0,-1,1294,1310,0,0
77,-286,0,0,0,0,0,0,0,0,0,-1,1301,1310,0,0
84,-286,0,0,0,0,0,0,0,0,0,-1,1308,1310,0,0
91,-286,0,0,0,0,0,0,0,0,0,-1,1315,1310,0,0
98,-286,0,0,0,0,0,0,0,0,0,-1,1322,1310,0,0
105,-286,0,0,0,0,0,0,0,0,0,-1,1329,1310,0,0
112,-286,0,0,0,0,0,0,0,0,0,-1,1336,1310,0,0
119,-286,0,0,0,0,0,0,0,0,0,-1,1343,1310,0,0
126,-286,0,0,0,0,0,0,0,0,0,-1,1350,1310,0,0
133,-286,0,0,0,0,0,0,0,0,0,-1,1357,1310,0,0
140,-286,0,0,0,0,0,0,0,0,0,-1,1364,1310,0,0
147,-286,0,0,0,0,0,0,0,0,0,-1,1371,1310,0,0
154,-286,0,0,0,0,0,0,0,0,0,-1,1378,1310,0,0
161,-286,0,0,0,0,0,0,0,0,0,-1,1385,1310,0,0
168,-286,0,0,0,0,0,0,0,0,0,-1,1392,1310,0,0
175,-286,0,0,0,0,0,0,0,0,0,-1,1399,1310,0,0
182,-286,0,0,0,0,0,0,0,0,0,-1,1406,1310,0,0
189,-286,0,0,0,0,0,0,0,0,0,-1,1413,1310,0,0
196,-286,0,0,0,0,0,0,0,0,0,-1,1420,1310,0,0
203,-286,0,0,0,0,0,0,0,0,0,-1,1427,1310,0,0
210,-286,0,0,0,0,0,0,0,0,0,-1,1434,1310,0,0
217,-286,0,0,0,0,0,0,0,0,0,-1,1441,1310,0,0
224,-286,0,0,0,0,0,0,0,0,0,-1,1448,1310,0,0
231,-286,0,0,0,0,0,0,0,0,0,-1,1455,1310,0,0
238,-286,0,0,0,0,0,0,0,0,0,-1,1462,1310,0,0
245,-286,0,0,0,0,0,0,0,0,0,-1,1469,1310,0,0
252,-286,0,0,0,0,0,0,0,0,0,-1,1476,1310,0,0
259,-286,0,0,0,0,0,0,0,0,0,-1,1483,1310,0,0
266,-286,0,0,0,0,0,0,0,0,0,-1,1490,1310,0,0
273,-286,0,0,0,0,0,0,0,0,0,-1,1497,1310,0,0
280,-286,0,0,0,0,0,0,0,0,0,-1,1504,1310,0,0
287,-286,0,0,0,0,0,0,0,0,0,-1,1511,1310,0,0
294,-286,0,0,0,0,0,0,0,0,0,-1,1518,1310,0,0
301,-286,0,0,0,0,0,0,0,0,0,-1,1525,1310,0,0
308,-286,0,0,0,0,0,0,0,0,0,-1,1532,1310,0,0
315,-286,0,0,0,0,0,0,0,0,0,-1,1539,1310,0,0
322,-286,0,0,0,0,0,0,0,0,0,-1,1546,1310,0,0
329,-286,0,0,0,0,0,0,0,0,0,-1,1553,1310,0,0
336,-286,0,0,0,0,0,0,0,0,0,-1,1560,1310,0,0
343,-286,0,0,0,0,0,0,0,0,0,-1,1567,1310,0,0
350,-286,0,0,0,0,0,0,0,0,0,-1,1574,1310,0,0
357,-286,0,0,0,0,0,0,0,0,0,-1,1581,1310,0,0
364,-286,0,0,0,0,0,0,0,0,0,-1,1588,1310,0,0
371,-286,0,0,0,0,0,0,0,0,0,-1,1595,1310,0,0
378,-286,0,0,0,0,0,0,0,0,0,-1,1602,1310,0,0
385,-286,0,0,0,0,0,0,0,0,0,-1,1609,1310,0,0
392,-286,0,0,0,0,0,0,0,0,0,-1,1616,1310,0,0
399,-286,0,0,0,0,0,0,0,0,0,-1,1623,1310,0,0
406,-286,0,0,0,0,0,0,0,0,0,-1,1630,1310,0,0
413,-286,0,0,0,0,0,0,0,0,0,-1,1637,1310,0,0
420,-286,0,0,0,0,0,0,0,0,0,-1,1644,1310,0,0
427,-286,0,0,0,0,0,0,0,0,0,-1,1651,1310,0,0
434,-286,0,0,0,0,0,0,0,0,0,-1,1658,1310,0,0
441,-286,0,0,0,0,0,0,0,0,0,-1,1665,1310,0,0
448,-286,0,0,0,0,0,0,0,0,0,-1,1672,1310,0,0
455,-286,0,0,0,0,0,0,0,0,0,-1,1679,1310,0,0
462,-286,0,0,0,0,0,0,0,0,0,-1,1686,1310,0,0
469,-286,0,0,0,0,0,0,0,0,0,-1,1693,1310,0,0
476,-286,0,0,0,0,0,0,0,0,0,-1,1700,1310,0,0
483,-286,0,0,0,0,0,0,0,0,0,-1,1707,1310,0,0
490,-286,0,0,0,0,0,0,0,0,0,-1,1714,1310,0,0
497,-286,0,0,0,0,0,0,0,0,0,-1,1721,1310,0,0
504,-286,0,0,0,0,0,0,0,0,0,-1,1728,1310,0,0
511,-286,0,0,0,0,0,0,0,0,0,-1,1735,1310,0,0
518,-286,0,0,0,0,0,0,0,0,0,-1,1742,1310,0,0
525,-286,0,0,0,0,0,0,0,0,0,-1,1749,1310,0,0
532,-286,0,0,0,0,0,0,0,0,0,-1,1756,1310,0,0
539,-286,0,0,0,0,0,0,0,0,0,-1,1763,1310,0,0
546,-286,0,0,0,0,0,0,0,0,0,-1,1770,1310,0,0
553,-286,0,0,0,0,0,0,0,0,0,-1,1777,1310,0,0
560,-286,0,0,0,0,0,0,0,0,0,-1,1784,1310,0,0
567,-286,0,0,0,0,0,0,0,0,0,-1,1791,1310,0,0
574,-286,0,0,0,0,0,0,0,0,0,-1,1798,1310,0,0
581,-286,0,0,0,0,0,0,0,0,0,-1,1805,1310,0,0
588,-286,0,0,0,0,0,0,0,0,0,-1,1812,1310,0,0
595,-286,69.8951,2.40527,0,0,0,0,0,0,0,-1,1819,1310,69.8951,-2.40522
602,-286,71.4423,2.125,0,0,0,0,0,0,0,-1,1826,1310,71.4423,-2.12498
609,-286,70.4817,1.00903,0,0,0,0,0,0,0,-1,1833,1310,70.4817,-1.00904
616,-286,70.4193,0.830811,0,0,0,0,0,0,0,-1,1840,1310,70.4194,-0.830821
623,-286,70.2986,0.781128,0,0,0,0,0,0,0,-1,1847,1310,70.2986,-0.781142
630,-286,65.3651,1.61572,0,0,0,0,0,0,0,-1,1854,1310,65.3651,-1.61568
637,-286,47.8409,3.69824,0,0,0,0,0,0,0,-1,1861,1310,47.841,-3.69823
644,-286,25.6433,1.33862,0,0,0,0,0,0,0,-1,1868,1310,25.6433,-1.33858
651,-286,25.2507,1.88245,0,0,0,0,0,0,0,-1,1875,1310,25.2508,-1.88245
658,-286,25.9475,9.43689,0,0,0,0,0,0,0,-1,1882,1310,25.9475,-9.43693
665,-286,24.9838,8.03101,0,0,0,0,0,0,0,-1,1889,1310,24.9837,-8.03104
672,-286,40.2175,12.9626,0,0,0,0,0,0,0,-1,1896,1310,40.2175,-12.9627
679,-286,48.6707,14.8879,0,0,0,0,0,0,0,-1,1903,1310,48.6706,-14.8879
686,-286,48.6877,14.1512,0.000574089,0.00107032,-0.000815878,0.00167498,-3.05669e-05,-0.933009,0.00112698,0.0231482,1910,1310,48.6877,-14.1512
693,-286,48.6432,13.4268,0.000973306,0.000121207,-0.000552818,0.0012452,-0.000150687,-0.457093,0.000884651,0.0167004,1917,1310,48.6432,-13.4267
700,-286,48.6058,12.6978,0.000852801,0.000219267,-0.000224026,0.000924014,0.000148053,-0.30778,0.000573069,0.0125584,1924,1310,48.6058,-12.6977
707,-286,48.5597,11.9904,0.000521658,0.000616387,0.000120064,0.000698092,0.000439954,0.973272,0.000407574,0.00963666,1931,1310,48.5597,-11.9903
714,-286,48.5151,11.2644,0.000192344,0.00115744,0.00041207,0.00130944,4.03408e-05,1.21741,0.000859829,0.00992672,1938,1310,48.5152,-11.2644
721,-286,48.5175,10.5581,-0.000208344,0.00180386,0.000677918,0.00201094,-0.000415426,1.27433,0.00149842,0.0130426,1945,1310,48.5175,-10.5581
728,-286,48.5033,9.86206,-0.000693527,0.00257776,0.0009194,0.00281845,-0.000934217,1.31475,0.0022558,0.0173206,1952,1310,48.5033,-9.86212
735,-286,48.4884,9.13135,-0.00129911,0.00347272,0.00114512,0.00373329,-0.00155968,1.34706,0.00314062,0.0215639,1959,1310,48.4884,-9.13134
742,-286,48.4646,8.41125,-0.00196489,0.00465047,0.00124757,0.00487792,-0.00219234,1.39046,0.00417902,0.0392661,1966,1310,48.4645,-8.41129
749,-286,48.5774,7.66919,0,0,0,0,0,0,0,-1,1973,1310,48.5773,-7.66923
756,-286,24.8226,4.43481,0,0,0,0,0,0,0,-1,1980,1310,24.8227,-4.43479
763,-286,20.6671,3.99683,0,0,0,0,0,0,0,-1,1987,1310,20.6671,-3.99683
770,-286,23.9147,4.45679,0,0,0,0,0,0,0,-1,1994,1310,23.9146,-4.45675
777,-286,0,0,0,0,0,0,0,0,0,-1,2001,1310,0,0
784,-286,0,0,0,0,0,0,0,0,0,-1,2008,1310,0,0
791,-286,0,0,0,0,0,0,0,0,0,-1,2015,1310,0,0
798,-286,0,0,0,0,0,0,0,0,0,-1,2022,1310,0,0
805,-286,0,0,0,0,0,0,0,0,0,-1,2029,1310,0,0
812,-286,0,0,0,0,0,0,0,0,0,-1,2036,1310,0,0
-700,-293,0,0,0,0,0,0,0,0,0,-1,524,1317,0,0
-693,-293,0,0,0,0,0,0,0,0,0,-1,531,1317,0,0
-686,-293,0,0,0,0,0,0,0,0,0,-1,538,1317,0,0
-679,-293,0,0,0,0,0,0,0,0,0,-1,545,1317,0,0
-672,-293,0,0,0,0,0,0,0,0,0,-1,552,1317,0,0
-665,-293,0,0,0,0,0,0,0,0,0,-1,559,1317,0,0
-658,-293,0,0,0,0,0,0,0,0,0,-1,566,1317,0,0
-651,-293,-42.6636,2.1897,0,0,0,0,0,0,0,-1,573,1317,-42.6636,-2.18965
-644,-293,-42.6672,1.56262,0,0,0,0,0,0,0,-1,580,1317,-42.6672,-1.5626
-637,-293,-42.7898,0.963745,0,0,0,0,0,0,0,-1,587,1317,-42.7898,-0.963689
-630,-293,-42.7558,0.296021,0,0,0,0,0,0,0,-1,594,1317,-42.7558,-0.295997
-623,-293,-15.6058,0.229614,0,0,0,0,0,0,0,-1,601,1317,-15.6058,-0.229666
-616,-293,-15.5056,2.17737,0,0,0,0,0,0,0,-1,608,1317,-15.5055,-2.17742
-609,-293,-25.3796,5.07373,0,0,0,0,0,0,0,-1,615,1317,-25.3796,-5.07369
-602,-293,-31.0626,7.64331,0,0,0,0,0,0,0,-1,622,1317,-31.0626,-7.64326
-595,-293,-31.0741,8.56799,0.00644254,0.00582536,0.00416178,0.0103072,0.00196075,0.748392,0.00632007,0.0217336,629,1317,-31.0741,-8.56796
-588,-293,-31.0767,9.32715,0.00456361,0.00386369,0.00274896,0.0069848,0.0014425,0.722085,0.00425794,0.0171237,636,1317,-31.0767,-9.32717
-581,-293,-31.0753,10.0573,0.00332786,0.00225589,0.0017717,0.00464288,0.000940871,0.638512,0.00283417,0.018316,643,1317,-31.0753,-10.0572
-574,-293,-31.1478,10.84,0.00258658,0.000887465,0.00108622,0.00311601,0.000358029,0.453526,0.00196888,0.0166426,650,1317,-31.1478,-10.8399
-567,-293,-31.2279,11.6146,0.00226453,-0.000292999,0.000648624,0.00241963,-0.000448093,0.234706,0.00178134,0.0161283,657,1317,-31.2279,-11.6146
-560,-293,-31.2369,12.3792,0.00240229,-0.00133324,0.000449788,0.00245568,-0.00138663,0.118158,0.0022468,0.0169684,664,1317,-31.2369,-12.3792
-553,-293,-31.2433,13.1085,0.00307727,-0.00212811,0.000580424,0.0031412,-0.00219205,0.109709,0.00309537,0.0118484,671,1317,-31.2434,-13.1085
-546,-293,-31.259,13.8909,0.00418953,-0.00284151,0.00090363,0.00430381,-0.00295578,0.125797,0.00421535,0.0186925,678,1317,-31.259,-13.8908
-539,-293,-31.241,14.679,0,0,0,0,0,0,0,-1,685,1317,-31.241,-14.679
-532,-293,-27.4858,13.6715,0,0,0,0,0,0,0,-1,692,1317,-27.4858,-13.6715
-525,-293,-8.20642,3.62256,0,0,0,0,0,0,0,-1,699,1317,-8.20639,-3.6226
-518,-293,-10.1053,0.314209,0,0,0,0,0,0,0,-1,706,1317,-10.1053,-0.314234
-511,-293,-11.6276,0.235352,0,0,0,0,0,0,0,-1,713,1317,-11.6276,-0.235372
-504,-293,-17.9086,1.25427,0,0,0,0,0,0,0,-1,720,1317,-17.9086,-1.25423
-497,-293,-18.8006,1.62122,0,0,0,0,0,0,0,-1,727,1317,-18.8006,-1.62119
-490,-293,-18.8961,1.99255,0,0,0,0,0,0,0,-1,734,1317,-18.8961,-1.99251
-483,-293,-19.0831,2.35498,0,0,0,0,0,0,0,-1,741,1317,-19.0831,-2.35497
-476,-293,-19.5228,2.61243,0,0,0,0,0,0,0,-1,748,1317,-19.5228,-2.61237
-469,-293,0,0,0,0,0,0,0,0,0,-1,755,1317,0,0
-462,-293,0,0,0,0,0,0,0,0,0,-1,762,1317,0,0
-455,-293,0,0,0,0,0,0,0,0,0,-1,769,1317,0,0
-448,-293,0,0,0,0,0,0,0,0,0,-1,776,1317,0,0
-441,-293,0,0,0,0,0,0,0,0,0,-1,783,1317,0,0
-434,-293,0,0,0,0,0,0,0,0,0,-1,790,1317,0,0
-427,-293,0,0,0,0,0,0,0,0,0,-1,797,1317,0,0
-420,-293,0,0,0,0,0,0,0,0,0,-1,804,1317,0,0
-413,-293,0,0,0,0,0,0,0,0,0,-1,811,1317,0,0
-406,-293,0,0,0,0,0,0,0,0,0,-1,818,1317,0,0
-399,-293,0,0,0,0,0,0,0,0,0,-1,825,1317,0,0
-392,-293,0,0,0,0,0,0,0,0,0,-1,832,1317,0,0
-385,-293,0,0,0,0,0,0,0,0,0,-1,839,1317,0,0
-378,-293,0,0,0,0,0,0,0,0,0,-1,846,1317,0,0
-371,-293,0,0,0,0,0,0,0,0,0,-1,853,1317,0,0
-364,-293,0,0,0,0,0,0,0,0,0,-1,860,1317,0,0
-357,-293,0,0,0,0,0,0,0,0,0,-1,867,1317,0,0
-350,-293,0,0,0,0,0,0,0,0,0,-1,874,1317,0,0
-343,-293,0,0,0,0,0,0,0,0,0,-1,881,1317,0,0
-336,-293,0,0,0,0,0,0,0,0,0,-1,888,1317,0,0
-329,-293,0,0,0,0,0,0,0,0,0,-1,895,1317,0,0
-322,-293,0,0,0,0,0,0,0,0,0,-1,902,1317,0,0
-315,-293,0,0,0,0,0,0,0,0,0,-1,909,1317,0,0
-308,-293,0,0,0,0,0,0,0,0,0,-1,916,1317,0,0
-301,-293,0,0,0,0,0,0,0,0,0,-1,923,1317,0,0
-294,-293,0,0,0,0,0,0,0,0,0,-1,930,1317,0,0
-287,-293,0,0,0,0,0,0,0,0,0,-1,937,1317,0,0
-280,-293,0,0,0,0,0,0,0,0,0,-1,944,1317,0,0
-273,-293,0,0,0,0,0,0,0,0,0,-1,951,1317,0,0
-266,-293,0,0,0,0,0,0,0,0,0,-1,958,1317,0,0
-259,-293,0,0,0,0,0,0,0,0,0,-1,965,1317,0,0
-252,-293,0,0,0,0,0,0,0,0,0,-1,972,1317,0,0
-245,-293,0,0,0,0,0,0,0,0,0,-1,979,1317,0,0
-238,-293,0,0,0,0,0,0,0,0,0,-1,986,1317,0,0
-231,-293,0,0,0,0,0,0,0,0,0,-1,993,1317,0,0
-224,-293,0,0,0,0,0,0,0,0,0,-1,1000,1317,0,0
-217,-293,0,0,0,0,0,0,0,0,0,-1,1007,1317,0,0
-210,-293,0,0,0,0,0,0,0,0,0,-1,1014,1317,0,0
-203,-293,0,0,0,0,0,0,0,0,0,-1,1021,1317,0,0
-196,-293,0,0,0,0,0,0,0,0,0,-1,1028,1317,0,0
-189,-293,0,0,0,0,0,0,0,0,0,-1,1035,1317,0,0
-182,-293,0,0,0,0,0,0,0,0,0,-1,1042,1317,0,0
-175,-293,0,0,0,0,0,0,0,0,0,-1,1049,1317,0,0
-168,-293,0,0,0,0,0,0,0,0,0,-1,1056,1317,0,0
-161,-293,0,0,0,0,0,0,0,0,0,-1,1063,1317,0,0
-154,-293,0,0,0,0,0,0,0,0,0,-1,1070,1317,0,0
-147,-293,0,0,0,0,0,0,0,0,0,-1,1077,1317,0,0
-140,-293,0,0,0,0,0,0,0,0,0,-1,1084,1317,0,0
-133,-293,0,0,0,0,0,0,0,0,0,-1,1091,1317,0,0
-126,-293,0,0,0,0,0,0,0,0,0,-1,1098,1317,0,0
-119,-293,0,0,0,0,0,0,0,0,0,-1,1105,1317,0,0
-112,-293,0,0,0,0,0,0,0,0,0,-1,1112,1317,0,0
-105,-293,0,0,0,0,0,0,0,0,0,-1,1119,1317,0,0
-98,-293,0,0,0,0,0,0,0,0,0,-1,1126,1317,0,0
-91,-293,0,0,0,0,0,0,0,0,0,-1,1133,1317,0,0
-84,-293,0,0,0,0,0,0,0,0,0,-1,1140,1317,0,0
-77,-293,0,0,0,0,0,0,0,0,0,-1,1147,1317,0,0
-70,-293,0,0,0,0,0,0,0,0,0,-1,1154,1317,0,0
-63,-293,0,0,0,0,0,0,0,0,0,-1,1161,1317,0,0
-56,-293,0,0,0,0,0,0,0,0,0,-1,1168,1317,0,0
-49,-293,0,0,0,0,0,0,0,0,0,-1,1175,1317,0,0
-42,-293,0,0,0,0,0,0,0,0,0,-1,1182,1317,0,0
-35,-293,0,0,0,0,0,0,0,0,0,-1,1189,1317,0,0
-28,-293,0,0,0,0,0,0,0,0,0,-1,1196,1317,0,0
-21,-293,0,0,0,0,0,0,0,0,0,-1,1203,1317,0,0
-14,-293,0,0,0,0,0,0,0,0,0,-1,1210,1317,0,0
-7,-293,0,0,0,0,0,0,0,0,0,-1,1217,1317,0,0
0,-293,0,0,0,0,0,0,0,0,0,-1,1224,1317,0,0
7,-293,0,0,0,0,0,0,0,0,0,-1,1231,1317,0,0
14,-293,0,0,0,0,0,0,0,0,0,-1,1238,1317,0,0
21,-293,0,0,0,0,0,0,0,0,0,-1,1245,1317,0,0
28,-293,0,0,0,0,0,0,0,0,0,-1,1252,1317,0,0
35,-293,0,0,0,0,0,0,0,0,0,-1,1259,1317,0,0
42,-293,0,0,0,0,0,0,0,0,0,-1,1266,1317,0,0
49,-293,0,0,0,0,0,0,0,0,0,-1,1273,1317,0,0
56,-293,0,0,0,0,0,0,0,0,0,-1,1280,1317,0,0
63,-293,0,0,0,0,0,0,0,0,0,-1,1287,1317,0,0
70,-293,0,0,0,0,0,0,0,0,0,-1,1294,1317,0,0
77,-293,0,0,0,0,0,0,0,0,0,-1,1301,1317,0,0
84,-293,0,0,0,0,0,0,0,0,0,-1,1308,1317,0,0
91,-293,0,0,0,0,0,0,0,0,0,-1,1315,1317,0,0
98,-293,0,0,0,0,0,0,0,0,0,-1,1322,1317,0,0
105,-293,0,0,0,0,0,0,0,0,0,-1,1329,1317,0,0
112,-293,0,0,0,0,0,0,0,0,0,-1,1336,1317,0,0
119,-293,0,0,0,0,0,0,0,0,0,-1,1343,1317,0,0
126,-293,0,0,0,0,0,0,0,0,0,-1,1350,1317,0,0
133,-293,0,0,0,0,0,0,0,0,0,-1,1357,1317,0,0
140,-293,0,0,0,0,0,0,0,0,0,-1,1364,1317,0,0
147,-293,0,0,0,0,0,0,0,0,0,-1,1371,1317,0,0
154,-293,0,0,0,0,0,0,0,0,0,-1,1378,1317,0,0
161,-293,0,0,0,0,0,0,0,0,0,-1,1385,1317,0,0
168,-293,0,0,0,0,0,0,0,0,0,-1,1392,1317,0,0
175,-293,0,0,0,0,0,0,0,0,0,-1,1399,1317,0,0
182,-293,0,0,0,0,0,0,0,0,0,-1,1406,1317,0,0
189,-293,0,0,0,0,0,0,0,0,0,-1,1413,1317,0,0
196,-293,0,0,0,0,0,0,0,0,0,-1,1420,1317,0,0
203,-293,0,0,0,0,0,0,0,0,0,-1,1427,1317,0,0
210,-293,0,0,0,0,0,0,0,0,0,-1,1434,1317,0,0
217,-293,0,0,0,0,0,0,0,0,0,-1,1441,1317,0,0
224,-293,0,0,0,0,0,0,0,0,0,-1,1448,1317,0,0
231,-293,0,0,0,0,0,0,0,0,0,-1,1455,1317,0,0
238,-293,0,0,0,0,0,0,0,0,0,-1,1462,1317,0,0
245,-293,0,0,0,0,0,0,0,0,0,-1,1469,1317,0,0
252,-293,0,0,0,0,0,0,0,0,0,-1,1476,1317,0,0
259,-293,0,0,0,0,0,0,0,0,0,-1,1483,1317,0,0
266,-293,0,0,0,0,0,0,0,0,0,-1,1490,1317,0,0
273,-293,0,0,0,0,0,0,0,0,0,-1,1497,1317,0,0
280,-293,0,0,0,0,0,0,0,0,0,-1,1504,1317,0,0
287,-293,0,0,0,0,0,0,0,0,0,-1,1511,1317,0,0
294,-293,0,0,0,0,0,0,0,0,0,-1,1518,1317,0,0
301,-293,0,0,0,0,0,0,0,0,0,-1,1525,1317,0,0
308,-293,0,0,0,0,0,0,0,0,0,-1,1532,1317,0,0
315,-293,0,0,0,0,0,0,0,0,0,-1,1539,1317,0,0
322,-293,0,0,0,0,0,0,0,0,0,-1,1546,1317,0,0
329,-293,0,0,0,0,0,0,0,0,0,-1,1553,1317,0,0
336,-293,0,0,0,0,0,0,0,0,0,-1,1560,1317,0,0
343,-293,0,0,0,0,0,0,0,0,0,-1,1567,1317,0,0
350,-293,0,0,0,0,0,0,0,0,0,-1,1574,1317,0,0
357,-293,0,0,0,0,0,0,0,0,0,-1,1581,1317,0,0
364,-293,0,0,0,0,0,0,0,0,0,-1,1588,1317,0,0
371,-293,0,0,0,0,0,0,0,0,0,-1,1595,1317,0,0
378,-293,0,0,0,0,0,0,0,0,0,-1,1602,1317,0,0
385,-293,0,0,0,0,0,0,0,0,0,-1,1609,1317,0,0
392,-293,0,0,0,0,0,0,0,0,0,-1,1616,1317,0,0
399,-293,0,0,0,0,0,0,0,0,0,-1,1623,1317,0,0
406,-293,0,0,0,0,0,0,0,0,0,-1,1630,1317,0,0
413,-293,0,0,0,0,0,0,0,0,0,-1,1637,1317,0,0
420,-293,0,0,0,0,0,0,0,0,0,-1,1644,1317,0,0
427,-293,0,0,0,0,0,0,0,0,0,-1,1651,1317,0,0
434,-293,0,0,0,0,0,0,0,0,0,-1,1658,1317,0,0
441,-293,0,0,0,0,0,0,0,0,0,-1,1665,1317,0,0
448,-293,0,0,0,0,0,0,0,0,0,-1,1672,1317,0,0
455,-293,0,0,0,0,0,0,0,0,0,-1,1679,1317,0,0
462,-293,0,0,0,0,0,0,0,0,0,-1,1686,1317,0,0
469,-293,0,0,0,0,0,0,0,0,0,-1,1693,1317,0,0
476,-293,0,0,0,0,0,0,0,0,0,-1,1700,1317,0,0
483,-293,0,0,0,0,0,0,0,0,0,-1,1707,1317,0,0
490,-293,0,0,0,0,0,0,0,0,0,-1,1714,1317,0,0
497,-293,0,0,0,0,0,0,0,0,0,-1,1721,1317,0,0
504,-293,0,0,0,0,0,0,0,0,0,-1,1728,1317,0,0
511,-293,0,0,0,0,0,0,0,0,0,-1,1735,1317,0,0
518,-293,0,0,0,0,0,0,0,0,0,-1,1742,1317,0,0
525,-293,0,0,0,0,0,0,0,0,0,-1,1749,1317,0,0
532,-293,0,0,0,0,0,0,0,0,0,-1,1756,1317,0,0
539,-293,0,0,0,0,0,0,0,0,0,-1,1763,1317,0,0
546,-293,0,0,0,0,0,0,0,0,0,-1,1770,1317,0,0
553,-293,0,0,0,0,0,0,0,0,0,-1,1777,1317,0,0
560,-293,0,0,0,0,0,0,0,0,0,-1,1784,1317,0,0
567,-293,0,0,0,0,0,0,0,0,0,-1,1791,1317,0,0
574,-293,0,0,0,0,0,0,0,0,0,-1,1798,1317,0,0
581,-293,0,0,0,0,0,0,0,0,0,-1,1805,1317,0,0
588,-293,0,0,0,0,0,0,0,0,0,-1,1812,1317,0,0
595,-293,70.0999,2.25085,0,0,0,0,0,0,0,-1,1819,1317,70.0998,-2.25088
602,-293,70.2273,2.05859,0,0,0,0,0,0,0,-1,1826,1317,70.2273,-2.05859
609,-293,68.6733,1.3855,0,0,0,0,0,0,0,-1,1833,1317,68.6734,-1.38547
616,-293,70.3237,0.445435,0,0,0,0,0,0,0,-1,1840,1317,70.3238,-0.445446
623,-293,64.6224,0.448364,0,0,0,0,0,0,0,-1,1847,1317,64.6224,-0.448318
630,-293,46.6716,3.21558,0,0,0,0,0,0,0,-1,1854,1317,46.6716,-3.2156
637,-293,42.7729,4.95544,0,0,0,0,0,0,0,-1,1861,1317,42.773,-4.95546
644,-293,24.4565,0.520752,0,0,0,0,0,0,0,-1,1868,1317,24.4566,-0.520709
651,-293,25.8926,9.51245,0,0,0,0,0,0,0,-1,1875,1317,25.8926,-9.51246
658,-293,25.4904,9.10205,0,0,0,0,0,0,0,-1,1882,1317,25.4904,-9.10209
665,-293,39.7999,13.4221,0,0,0,0,0,0,0,-1,1889,1317,39.8,-13.4221
672,-293,48.0253,15.795,0,0,0,0,0,0,0,-1,1896,1317,48.0252,-15.795
679,-293,48.0028,14.9135,0.00075572,0.00244875,-0.000804347,0.00276995,0.000434519,-1.19087,0.00172019,0.0194303,1903,1317,48.0028,-14.9134
686,-293,47.984,14.1827,0.00119758,0.000572906,-0.000787081,0.00173203,3.84533e-05,-0.596514,0.00114208,0.0170976,1910,1317,47.984,-14.1828
693,-293,47.9366,13.4497,0.00118093,0.00016045,-0.000559781,0.00142812,-8.67397e-05,-0.415832,0.000982271,0.0127957,1917,1317,47.9366,-13.4497
700,-293,47.8826,12.7174,0.000955313,0.000467324,-0.000270048,0.00107527,0.000347369,-0.41802,0.000633632,0.0105789,1924,1317,47.8826,-12.7174
707,-293,47.8361,12.0145,0.000708786,0.000887581,1.0961e-05,0.000888251,0.000708116,1.5098,0.00054219,0.0111686,1931,1317,47.8361,-12.0145
714,-293,47.8029,11.3125,0.00043286,0.00144774,0.000253154,0.00150738,0.000373218,1.33942,0.000906497,0.00851396,1938,1317,47.8028,-11.3125
721,-293,47.7927,10.5826,0.000106303,0.0021569,0.000455054,0.00225335,9.85712e-06,1.36194,0.00149896,0.0106676,1945,1317,47.7928,-10.5826
728,-293,47.7878,9.83813,-0.000328511,0.00304414,0.000630681,0.00315822,-0.000442589,1.39185,0.00226745,0.0140898,1952,1317,47.7879,-9.83818
735,-293,47.7639,9.06287,-0.000933625,0.00408071,0.000786206,0.00420109,-0.00105401,1.41886,0.00321027,0.0262993,1959,1317,47.7639,-9.06293
742,-293,47.8936,8.28589,0,0,0,0,0,0,0,-1,1966,1317,47.8936,-8.28591
749,-293,29.439,5.35339,0,0,0,0,0,0,0,-1,1973,1317,29.4389,-5.35334
756,-293,24.978,3.9718,0,0,0,0,0,0,0,-1,1980,1317,24.978,-3.97186
763,-293,26.6713,4.74097,0,0,0,0,0,0,0,-1,1987,1317,26.6713,-4.74098
770,-293,24.1349,4.69153,0,0,0,0,0,0,0,-1,1994,1317,24.1348,-4.69159
777,-293,0,0,0,0,0,0,0,0,0,-1,2001,1317,0,0
784,-293,0,0,0,0,0,0,0,0,0,-1,2008,1317,0,0
791,-293,0,0,0,0,0,0,0,0,0,-1,2015,1317,0,0
798,-293,0,0,0,0,0,0,0,0,0,-1,2022,1317,0,0
805,-293,0,0,0,0,0,0,0,0,0,-1,2029,1317,0,0
812,-293,0,0,0,0,0,0,0,0,0,-1,2036,1317,0,0
-700,-300,0,0,0,0,0,0,0,0,0,-1,524,1324,0,0
-693,-300,0,0,0,0,0,0,0,0,0,-1,531,1324,0,0
-686,-300,0,0,0,0,0,0,0,0,0,-1,538,1324,0,0
-679,-300,0,0,0,0,0,0,0,0,0,-1,545,1324,0,0
-672,-300,0,0,0,0,0,0,0,0,0,-1,552,1324,0,0
-665,-300,0,0,0,0,0,0,0,0,0,-1,559,1324,0,0
-658,-300,0,0,0,0,0,0,0,0,0,-1,566,1324,0,0
-651,-300,-41.7632,2.33789,0,0,0,0,0,0,0,-1,573,1324,-41.7632,-2.33789
-644,-300,-42.3084,1.3728,0,0,0,0,0,0,0,-1,580,1324,-42.3084,-1.37282
-637,-300,-42.6259,0.807251,0,0,0,0,0,0,0,-1,587,1324,-42.6259,-0.807209
-630,-300,-21.1108,2.26306,0,0,0,0,0,0,0,-1,594,1324,-21.1109,-2.2631
-623,-300,-12.7067,1.48462,0,0,0,0,0,0,0,-1,601,1324,-12.7067,-1.48462
-616,-300,-14.9988,1.68628,0,0,0,0,0,0,0,-1,608,1324,-14.9988,-1.68627
-609,-300,-15.5027,3.29907,0,0,0,0,0,0,0,-1,615,1324,-15.5027,-3.29902
-602,-300,-30.3647,7.60388,0,0,0,0,0,0,0,-1,622,1324,-30.3647,-7.60386
-595,-300,-30.3729,8.54932,0.00680316,0.00628087,0.00443116,0.0109809,0.00210317,0.755965,0.00672997,0.0393585,629,1324,-30.3728,-8.54928
-588,-300,-30.2911,9.35815,0.00478978,0.00431006,0.0029199,0.00747966,0.00162018,0.744417,0.00454371,0.0205571,636,1324,-30.2911,-9.35817
-581,-300,-30.3332,10.1406,0.0035241,0.00280523,0.00193976,0.00513744,0.00119188,0.693788,0.00310488,0.0201919,643,1324,-30.3332,-10.1406
-574,-300,-30.3777,10.8944,0.00278267,0.0015701,0.00127476,0.00358798,0.00076479,0.563426,0.0021822,0.0168755,650,1324,-30.3777,-10.8944
-567,-300,-30.4362,11.6367,0.00247556,0.000549229,0.000881671,0.00281816,0.000206626,0.370626,0.00181383,0.0165021,657,1324,-30.4362,-11.6367
-560,-300,-30.4788,12.4164,0.00258938,-0.000340532,0.00071308,0.00275372,-0.000504863,0.226499,0.00202518,0.0150356,664,1324,-30.4788,-12.4164
-553,-300,-30.4837,13.1582,0.00315834,-0.000996483,0.000836493,0.00332043,-0.00115857,0.191399,0.00268448,0.0108834,671,1324,-30.4837,-13.1582
-546,-300,-30.5234,13.9125,0.00414746,-0.00155438,0.00119195,0.0043866,-0.00179352,0.198003,0.0036713,0.0107264,678,1324,-30.5234,-13.9124
-539,-300,-30.4482,14.7427,0.00563747,-0.00205162,0.00181723,0.00604532,-0.00245947,0.220776,0.00505363,0.0294475,685,1324,-30.4482,-14.7427
-532,-300,-30.3165,15.5553,0,0,0,0,0,0,0,-1,692,1324,-30.3165,-15.5553
-525,-300,-13.5115,6.27783,0,0,0,0,0,0,0,-1,699,1324,-13.5115,-6.2778
-518,-300,-9.8349,-0.537109,0,0,0,0,0,0,0,-1,706,1324,-9.83487,0.537068
-511,-300,-12.8644,0.081665,0,0,0,0,0,0,0,-1,713,1324,-12.8644,-0.0817016
-504,-300,-13.4829,-0.165527,0,0,0,0,0,0,0,-1,720,1324,-13.4829,0.165544
-497,-300,-18.1063,0.956543,0,0,0,0,0,0,0,-1,727,1324,-18.1063,-0.9565
-490,-300,-18.2293,1.53625,0,0,0,0,0,0,0,-1,734,1324,-18.2293,-1.53626
-483,-300,-18.3522,1.61084,0,0,0,0,0,0,0,-1,741,1324,-18.3522,-1.6108
-476,-300,-18.7489,1.96387,0,0,0,0,0,0,0,-1,748,1324,-18.7489,-1.96387
-469,-300,0,0,0,0,0,0,0,0,0,-1,755,1324,0,0
-462,-300,0,0,0,0,0,0,0,0,0,-1,762,1324,0,0
-455,-300,0,0,0,0,0,0,0,0,0,-1,769,1324,0,0
-448,-300,0,0,0,0,0,0,0,0,0,-1,776,1324,0,0
-441,-300,0,0,0,0,0,0,0,0,0,-1,783,1324,0,0
-434,-300,0,0,0,0,0,0,0,0,0,-1,790,1324,0,0
-427,-300,0,0,0,0,0,0,0,0,0,-1,797,1324,0,0
-420,-300,0,0,0,0,0,0,0,0,0,-1,804,1324,0,0
-413,-300,0,0,0,0,0,0,0,0,0,-1,811,1324,0,0
-406,-300,0,0,0,0,0,0,0,0,0,-1,818,1324,0,0
-399,-300,0,0,0,0,0,0,0,0,0,-1,825,1324,0,0
-392,-300,0,0,0,0,0,0,0,0,0,-1,832,1324,0,0
-385,-300,0,0,0,0,0,0,0,0,0,-1,839,1324,0,0
-378,-300,0,0,0,0,0,0,0,0,0,-1,846,1324,0,0
-371,-300,0,0,0,0,0,0,0,0,0,-1,853,1324,0,0
-364,-300,0,0,0,0,0,0,0,0,0,-1,860,1324,0,0
-357,-300,0,0,0,0,0,0,0,0,0,-1,867,1324,0,0
-350,-300,0,0,0,0,0,0,0,0,0,-1,874,1324,0,0
-343,-300,0,0,0,0,0,0,0,0,0,-1,881,1324,0,0
-336,-300,0,0,0,0,0,0,0,0,0,-1,888,1324,0,0
-329,-300,0,0,0,0,0,0,0,0,0,-1,895,1324,0,0
-322,-300,0,0,0,0,0,0,0,0,0,-1,902,1324,0,0
-315,-300,0,0,0,0,0,0,0,0,0,-1,909,1324,0,0
-308,-300,0,0,0,0,0,0,0,0,0,-1,916,1324,0,0
-301,-300,0,0,0,0,0,0,0,0,0,-1,923,1324,0,0
-294,-300,0,0,0,0,0,0,0,0,0,-1,930,1324,0,0
-287,-300,0,0,0,0,0,0,0,0,0,-1,937,1324,0,0
-280,-300,0,0,0,0,0,0,0,0,0,-1,944,1324,0,0
-273,-300,0,0,0,0,0,0,0,0,0,-1,951,1324,0,0
-266,-300,0,0,0,0,0,0,0,0,0,-1,958,1324,0,0
-259,-300,0,0,0,0,0,0,0,0,0,-1,965,1324,0,0
-252,-300,0,0,0,0,0,0,0,0,0,-1,972,1324,0,0
-245,-300,0,0,0,0,0,0,0,0,0,-1,979,1324,0,0
-238,-300,0,0,0,0,0,0,0,0,0,-1,986,1324,0,0
-231,-300,0,0,0,0,0,0,0,0,0,-1,993,1324,0,0
-224,-300,0,0,0,0,0,0,0,0,0,-1,1000,1324,0,0
-217,-300,0,0,0,0,0,0,0,0,0,-1,1007,1324,0,0
-210,-300,0,0,0,0,0,0,0,0,0,-1,1014,1324,0,0
-203,-300,0,0,0,0,0,0,0,0,0,-1,1021,1324,0,0
-196,-300,0,0,0,0,0,0,0,0,0,-1,1028,1324,0,0
-189,-300,0,0,0,0,0,0,0,0,0,-1,1035,1324,0,0
-182,-300,0,0,0,0,0,0,0,0,0,-1,1042,1324,0,0
-175,-300,0,0,0,0,0,0,0,0,0,-1,1049,1324,0,0
-168,-300,0,0,0,0,0,0,0,0,0,-1,1056,1324,0,0
-161,-300,0,0,0,0,0,0,0,0,0,-1,1063,1324,0,0
-154,-300,0,0,0,0,0,0,0,0,0,-1,1070,1324,0,0
-147,-300,0,0,0,0,0,0,0,0,0,-1,1077,1324,0,0
-140,-300,0,0,0,0,0,0,0,0,0,-1,1084,1324,0,0
-133,-300,0,0,0,0,0,0,0,0,0,-1,1091,1324,0,0
-126,-300,0,0,0,0,0,0,0,0,0,-1,1098,1324,0,0
-119,-300,0,0,0,0,0,0,0,0,0,-1,1105,1324,0,0
-112,-300,0,0,0,0,0,0,0,0,0,-1,1112,1324,0,0
-105,-300,0,0,0,0,0,0,0,0,0,-1,1119,1324,0,0
-98,-300,0,0,0,0,0,0,0,0,0,-1,1126,1324,0,0
-91,-300,0,0,0,0,0,0,0,0,0,-1,1133,1324,0,0
-84,-300,0,0,0,0,0,0,0,0,0,-1,1140,1324,0,0
-77,-300,0,0,0,0,0,0,0,0,0,-1,1147,1324,0,0
-70,-300,0,0,0,0,0,0,0,0,0,-1,1154,1324,0,0
-63,-300,0,0,0,0,0,0,0,0,0,-1,1161,1324,0,0
-56,-300,0,0,0,0,0,0,0,0,0,-1,1168,1324,0,0
-49,-300,0,0,0,0,0,0,0,0,0,-1,1175,1324,0,0
-42,-300,0,0,0,0,0,0,0,0,0,-1,1182,1324,0,0
-35,-300,0,0,0,0,0,0,0,0,0,-1,1189,1324,0,0
-28,-300,0,0,0,0,0,0,0,0,0,-1,1196,1324,0,0
-21,-300,0,0,0,0,0,0,0,0,0,-1,1203,1324,0,0
-14,-300,0,0,0,0,0,0,0,0,0,-1,1210,1324,0,0
-7,-300,0,0,0,0,0,0,0,0,0,-1,1217,1324,0,0
0,-300,0,0,0,0,0,0,0,0,0,-1,1224,1324,0,0
7,-300,0,0,0,0,0,0,0,0,0,-1,1231,1324,0,0
14,-300,0,0,0,0,0,0,0,0,0,-1,1238,1324,0,0
21,-300,0,0,0,0,0,0,0,0,0,-1,1245,1324,0,0
28,-300,0,0,0,0,0,0,0,0,0,-1,1252,1324,0,0
35,-300,0,0,0,0,0,0,0,0,0,-1,1259,1324,0,0
42,-300,0,0,0,0,0,0,0,0,0,-1,1266,1324,0,0
49,-300,0,0,0,0,0,0,0,0,0,-1,1273,1324,0,0
56,-300,0,0,0,0,0,0,0,0,0,-1,1280,1324,0,0
63,-300,0,0,0,0,0,0,0,0,0,-1,1287,1324,0,0
70,-300,0,0,0,0,0,0,0,0,0,-1,1294,1324,0,0
77,-300,0,0,0,0,0,0,0,0,0,-1,1301,1324,0,0
84,-300,0,0,0,0,0,0,0,0,0,-1,1308,1324,0,0
91,-300,0,0,0,0,0,0,0,0,0,-1,1315,1324,0,0
98,-300,0,0,0,0,0,0,0,0,0,-1,1322,1324,0,0
105,-300,0,0,0,0,0,0,0,0,0,-1,1329,1324,0,0
112,-300,0,0,0,0,0,0,0,0,0,-1,1336,1324,0,0
119,-300,0,0,0,0,0,0,0,0,0,-1,1343,1324,0,0
126,-300,0,0,0,0,0,0,0,0,0,-1,1350,1324,0,0
133,-300,0,0,0,0,0,0,0,0,0,-1,1357,1324,0,0
140,-300,0,0,0,0,0,0,0,0,0,-1,1364,1324,0,0
147,-300,0,0,0,0,0,0,0,0,0,-1,1371,1324,0,0
154,-300,0,0,0,0,0,0,0,0,0,-1,1378,1324,0,0
161,-300,0,0,0,0,0,0,0,0,0,-1,1385,1324,0,0
168,-300,0,0,0,0,0,0,0,0,0,-1,1392,1324,0,0
175,-300,0,0,0,0,0,0,0,0,0,-1,1399,1324,0,0
182,-300,0,0,0,0,0,0,0,0,0,-1,1406,1324,0,0
189,-300,0,0,0,0,0,0,0,0,0,-1,1413,1324,0,0
196,-300,0,0,0,0,0,0,0,0,0,-1,1420,1324,0,0
203,-300,0,0,0,0,0,0,0,0,0,-1,1427,1324,0,0
210,-300,0,0,0,0,0,0,0,0,0,-1,1434,1324,0,0
217,-300,0,0,0,0,0,0,0,0,0,-1,1441,1324,0,0
224,-300,0,0,0,0,0,0,0,0,0,-1,1448,1324,0,0
231,-300,0,0,0,0,0,0,0,0,0,-1,1455,1324,0,0
238,-300,0,0,0,0,0,0,0,0,0,-1,1462,1324,0,0
245,-300,0,0,0,0,0,0,0,0,0,-1,1469,1324,0,0
252,-300,0,0,0,0,0,0,0,0,0,-1,1476,1324,0,0
259,-300,0,0,0,0,0,0,0,0,0,-1,1483,1324,0,0
266,-300,0,0,0,0,0,0,0,0,0,-1,1490,1324,0,0
273,-300,0,0,0,0,0,0,0,0,0,-1,1497,1324,0,0
280,-300,0,0,0,0,0,0,0,0,0,-1,1504,1324,0,0
287,-300,0,0,0,0,0,0,0,0,0,-1,1511,1324,0,0
294,-300,0,0,0,0,0,0,0,0,0,-1,1518,1324,0,0
301,-300,0,0,0,0,0,0,0,0,0,-1,1525,1324,0,0
308,-300,0,0,0,0,0,0,0,0,0,-1,1532,1324,0,0
315,-300,0,0,0,0,0,0,0,0,0,-1,1539,1324,0,0
322,-300,0,0,0,0,0,0,0,0,0,-1,1546,1324,0,0
329,-300,0,0,0,0,0,0,0,0,0,-1,1553,1324,0,0
336,-300,0,0,0,0,0,0,0,0,0,-1,1560,1324,0,0
343,-300,0,0,0,0,0,0,0,0,0,-1,1567,1324,0,0
350,-300,0,0,0,0,0,0,0,0,0,-1,1574,1324,0,0
357,-300,0,0,0,0,0,0,0,0,0,-1,1581,1324,0,0
364,-300,0,0,0,0,0,0,0,0,0,-1,1588,1324,0,0
371,-300,0,0,0,0,0,0,0,0,0,-1,1595,1324,0,0
378,-300,0,0,0,0,0,0,0,0,0,-1,1602,1324,0,0
385,-300,0,0,0,0,0,0,0,0,0,-1,1609,1324,0,0
392,-300,0,0,0,0,0,0,0,0,0,-1,1616,1324,0,0
399,-300,0,0,0,0,0,0,0,0,0,-1,1623,1324,0,0
406,-300,0,0,0,0,0,0,0,0,0,-1,1630,1324,0,0
413,-300,0,0,0,0,0,0,0,0,0,-1,1637,1324,0,0
420,-300,0,0,0,0,0,0,0,0,0,-1,1644,1324,0,0
427,-300,0,0,0,0,0,0,0,0,0,-1,1651,1324,0,0
434,-300,0,0,0,0,0,0,0,0,0,-1,1658,1324,0,0
441,-300,0,0,0,0,0,0,0,0,0,-1,1665,1324,0,0
448,-300,0,0,0,0,0,0,0,0,0,-1,1672,1324,0,0
455,-300,0,0,0,0,0,0,0,0,0,-1,1679,1324,0,0
462,-300,0,0,0,0,0,0,0,0,0,-1,1686,1324,0,0
469,-300,0,0,0,0,0,0,0,0,0,-1,1693,1324,0,0
476,-300,0,0,0,0,0,0,0,0,0,-1,1700,1324,0,0
483,-300,0,0,0,0,0,0,0,0,0,-1,1707,1324,0,0
490,-300,0,0,0,0,0,0,0,0,0,-1,1714,1324,0,0
497,-300,0,0,0,0,0,0,0,0,0,-1,1721,1324,0,0
504,-300,0,0,0,0,0,0,0,0,0,-1,1728,1324,0,0
511,-300,0,0,0,0,0,0,0,0,0,-1,1735,1324,0,0
518,-300,0,0,0,0,0,0,0,0,0,-1,1742,1324,0,0
525,-300,0,0,0,0,0,0,0,0,0,-1,1749,1324,0,0
532,-300,0,0,0,0,0,0,0,0,0,-1,1756,1324,0,0
539,-300,0,0,0,0,0,0,0,0,0,-1,1763,1324,0,0
546,-300,0,0,0,0,0,0,0,0,0,-1,1770,1324,0,0
553,-300,0,0,0,0,0,0,0,0,0,-1,1777,1324,0,0
560,-300,0,0,0,0,0,0,0,0,0,-1,1784,1324,0,0
567,-300,0,0,0,0,0,0,0,0,0,-1,1791,1324,0,0
574,-300,0,0,0,0,0,0,0,0,0,-1,1798,1324,0,0
581,-300,0,0,0,0,0,0,0,0,0,-1,1805,1324,0,0
588,-300,66.4561,1.99207,0,0,0,0,0,0,0,-1,1812,1324,66.456,-1.99202
595,-300,66.4685,1.95496,0,0,0,0,0,0,0,-1,1819,1324,66.4685,-1.95499
602,-300,66.5259,1.72363,0,0,0,0,0,0,0,-1,1826,1324,66.5259,-1.72367
609,-300,64.2576,2.90149,0,0,0,0,0,0,0,-1,1833,1324,64.2575,-2.90154
616,-300,65.1267,2.84033,0,0,0,0,0,0,0,-1,1840,1324,65.1267,-2.84037
623,-300,47.4474,2.43188,0,0,0,0,0,0,0,-1,1847,1324,47.4474,-2.43194
630,-300,42.4099,3.9165,0,0,0,0,0,0,0,-1,1854,1324,42.4099,-3.91649
637,-300,31.1719,4.6366,0,0,0,0,0,0,0,-1,1861,1324,31.1718,-4.63665
644,-300,22.9836,3.44934,0,0,0,0,0,0,0,-1,1868,1324,22.9836,-3.4493
651,-300,25.5004,9.11853,0,0,0,0,0,0,0,-1,1875,1324,25.5004,-9.11851
658,-300,25.4012,9.20032,0,0,0,0,0,0,0,-1,1882,1324,25.4012,-9.20036
665,-300,47.4728,16.3376,0,0,0,0,0,0,0,-1,1889,1324,47.4728,-16.3377
672,-300,47.3116,15.7104,-0.000152637,0.00344251,-0.000990781,0.00369748,-0.000407602,-1.31892,0.00261148,0.0347345,1896,1324,47.3117,-15.7104
679,-300,47.2843,14.9564,0.000608626,0.00175882,-0.000684243,0.00207755,0.000289896,-1.13487,0.00129922,0.0132562,1903,1324,47.2843,-14.9564
686,-300,47.2439,14.2272,0.000912645,0.000521945,-0.000597035,0.00134548,8.91137e-05,-0.627288,0.000868805,0.0138724,1910,1324,47.2438,-14.2271
693,-300,47.1957,13.4991,0.00100261,0.000326239,-0.00044119,0.00122032,0.00010853,-0.458401,0.000779889,0.0119544,1917,1324,47.1957,-13.4992
700,-300,47.1403,12.7574,0.000975657,0.000652149,-0.000263226,0.00112286,0.000504949,-0.50989,0.000649374,0.0125964,1924,1324,47.1403,-12.7575
707,-300,47.121,12.0182,0.000970216,0.00112751,-0.00012587,0.00119729,0.000900444,-1.06464,0.000719939,0.00910758,1931,1324,47.1209,-12.0182
714,-300,47.1198,11.3221,0.000928787,0.00176913,-2.87517e-05,0.00177011,0.000927804,-1.53664,0.00102237,0.0114483,1938,1324,47.1198,-11.3222
721,-300,47.1007,10.5967,0.000858766,0.00260964,2.49949e-06,0.00260964,0.000858762,1.56937,0.00153574,0.0130169,1945,1324,47.1007,-10.5966
728,-300,47.108,9.8186,0.000705307,0.00371971,-3.0094e-05,0.00372001,0.000705006,-1.56081,0.00228161,0.0179654,1952,1324,47.108,-9.81856
735,-300,47.1613,9.03882,0,0,0,0,0,0,0,-1,1959,1324,47.1613,-9.03887
742,-300,45.1371,8.42065,0,0,0,0,0,0,0,-1,1966,1324,45.1371,-8.42062
749,-300,27.4065,5.9718,0,0,0,0,0,0,0,-1,1973,1324,27.4065,-5.97181
756,-300,22.1423,3.45642,0,0,0,0,0,0,0,-1,1980,1324,22.1423,-3.45638
763,-300,22.6136,5.1571,0,0,0,0,0,0,0,-1,1987,1324,22.6136,-5.15706
770,-300,24.859,4.77979,0,0,0,0,0,0,0,-1,1994,1324,24.859,-4.77972
777,-300,0,0,0,0,0,0,0,0,0,-1,2001,1324,0,0
784,-300,0,0,0,0,0,0,0,0,0,-1,2008,1324,0,0
791,-300,0,0,0,0,0,0,0,0,0,-1,2015,1324,0,0
798,-300,0,0,0,0,0,0,0,0,0,-1,2022,1324,0,0
805,-300,0,0,0,0,0,0,0,0,0,-1,2029,1324,0,0
812,-300,0,0,0,0,0,0,0,0,0,-1,2036,1324,0,0
-700,-307,0,0,0,0,0,0,0,0,0,-1,524,1331,0,0
-693,-307,0,0,0,0,0,0,0,0,0,-1,531,1331,0,0
-686,-307,0,0,0,0,0,0,0,0,0,-1,538,1331,0,0
-679,-307,0,0,0,0,0,0,0,0,0,-1,545,1331,0,0
-672,-307,0,0,0,0,0,0,0,0,0,-1,552,1331,0,0
-665,-307,0,0,0,0,0,0,0,0,0,-1,559,1331,0,0
-658,-307,0,0,0,0,0,0,0,0,0,-1,566,1331,0,0
-651,-307,-40.7436,1.98755,0,0,0,0,0,0,0,-1,573,1331,-40.7436,-1.98753
-644,-307,-41.7838,1.24817,0,0,0,0,0,0,0,-1,580,1331,-41.7838,-1.2482
-637,-307,-41.9006,0.477783,0,0,0,0,0,0,0,-1,587,1331,-41.9006,-0.477844
-630,-307,-12.0005,0.767212,0,0,0,0,0,0,0,-1,594,1331,-12.0005,-0.767266
-623,-307,-12.2128,2.93811,0,0,0,0,0,0,0,-1,601,1331,-12.2128,-2.93813
-616,-307,-12.6612,2.08289,0,0,0,0,0,0,0,-1,608,1331,-12.6612,-2.08293
-609,-307,-12.2767,1.83228,0,0,0,0,0,0,0,-1,615,1331,-12.2768,-1.83224
-602,-307,-27.5659,6.93335,0,0,0,0,0,0,0,-1,622,1331,-27.5658,-6.9333
-595,-307,-29.7228,8.5415,0,0,0,0,0,0,0,-1,629,1331,-29.7228,-8.54156
-588,-307,-29.5471,9.42578,0.00496399,0.00460639,0.00317414,0.00796436,0.00160602,0.757263,0.00486344,0.0228769,636,1331,-29.5471,-9.4258
-581,-307,-29.5406,10.1979,0.0036822,0.00319761,0.00213529,0.00558889,0.00129091,0.728904,0.00337885,0.0165753,643,1331,-29.5406,-10.1979
-574,-307,-29.6014,10.92,0.00293385,0.00205787,0.00143365,0.00399492,0.000996796,0.637147,0.00240101,0.0142128,650,1331,-29.6014,-10.9201
-567,-307,-29.6661,11.6866,0.00263212,0.001146,0.00102159,0.0031523,0.000625819,0.470974,0.0019271,0.0138268,657,1331,-29.6661,-11.6867
-560,-307,-29.7079,12.459,0.00269706,0.000357347,0.000823317,0.00295773,9.66733e-05,0.306628,0.0019404,0.0141729,664,1331,-29.7079,-12.459
-553,-307,-29.7261,13.2013,0.00313967,-0.000228356,0.000882974,0.00335712,-0.000445801,0.24146,0.00240052,0.0110691,671,1331,-29.7261,-13.2013
-546,-307,-29.7774,13.9561,0.00397975,-0.000706535,0.00119115,0.00426513,-0.000991921,0.235156,0.00322531,0.0107535,678,1331,-29.7774,-13.9561
-539,-307,-29.7808,14.7596,0.0052419,-0.00111821,0.00173892,0.00568629,-0.00156259,0.250199,0.0044051,0.02057,685,1331,-29.7808,-14.7597
-532,-307,-29.7389,15.5698,0,0,0,0,0,0,0,-1,692,1331,-29.7389,-15.5698
-525,-307,-13.2009,6.91309,0,0,0,0,0,0,0,-1,699,1331,-13.2009,-6.9131
-518,-307,-9.77777,-1.56653,0,0,0,0,0,0,0,-1,706,1331,-9.77777,1.56651
-511,-307,-12.5226,0.26709,0,0,0,0,0,0,0,-1,713,1331,-12.5226,-0.267038
-504,-307,-12.5913,-0.308105,0,0,0,0,0,0,0,-1,720,1331,-12.5913,0.308124
-497,-307,-13.8586,-0.115845,0,0,0,0,0,0,0,-1,727,1331,-13.8587,0.115861
-490,-307,-17.9429,0.982178,0,0,0,0,0,0,0,-1,734,1331,-17.9429,-0.982198
-483,-307,-18.1066,0.927612,0,0,0,0,0,0,0,-1,741,1331,-18.1066,-0.927609
-476,-307,-18.1288,1.1228,0,0,0,0,0,0,0,-1,748,1331,-18.1289,-1.12286
-469,-307,-18.2028,0.798584,0,0,0,0,0,0,0,-1,755,1331,-18.2027,-0.798546
-462,-307,0,0,0,0,0,0,0,0,0,-1,762,1331,0,0
-455,-307,0,0,0,0,0,0,0,0,0,-1,769,1331,0,0
-448,-307,0,0,0,0,0,0,0,0,0,-1,776,1331,0,0
-441,-307,0,0,0,0,0,0,0,0,0,-1,783,1331,0,0
-434,-307,0,0,0,0,0,0,0,0,0,-1,790,1331,0,0
-427,-307,0,0,0,0,0,0,0,0,0,-1,797,1331,0,0
-420,-307,0,0,0,0,0,0,0,0,0,-1,804,1331,0,0
-413,-307,0,0,0,0,0,0,0,0,0,-1,811,1331,0,0
-406,-307,0,0,0,0,0,0,0,0,0,-1,818,1331,0,0
-399,-307,0,0,0,0,0,0,0,0,0,-1,825,1331,0,0
-392,-307,0,0,0,0,0,0,0,0,0,-1,832,1331,0,0
-385,-307,0,0,0,0,0,0,0,0,0,-1,839,1331,0,0
-378,-307,0,0,0,0,0,0,0,0,0,-1,846,1331,0,0
-371,-307,0,0,0,0,0,0,0,0,0,-1,853,1331,0,0
-364,-307,0,0,0,0,0,0,0,0,0,-1,860,1331,0,0
-357,-307,0,0,0,0,0,0,0,0,0,-1,867,1331,0,0
-350,-307,0,0,0,0,0,0,0,0,0,-1,874,1331,0,0
-343,-307,0,0,0,0,0,0,0,0,0,-1,881,1331,0,0
-336,-307,0,0,0,0,0,0,0,0,0,-1,888,1331,0,0
-329,-307,0,0,0,0,0,0,0,0,0,-1,895,1331,0,0
-322,-307,0,0,0,0,0,0,0,0,0,-1,902,1331,0,0
-315,-307,0,0,0,0,0,0,0,0,0,-1,909,1331,0,0
-308,-307,0,0,0,0,0,0,0,0,0,-1,916,1331,0,0
-301,-307,0,0,0,0,0,0,0,0,0,-1,923,1331,0,0
-294,-307,0,0,0,0,0,0,0,0,0,-1,930,1331,0,0
-287,-307,0,0,0,0,0,0,0,0,0,-1,937,1331,0,0
-280,-307,0,0,0,0,0,0,0,0,0,-1,944,1331,0,0
-273,-307,0,0,0,0,0,0,0,0,0,-1,951,1331,0,0
-266,-307,0,0,0,0,0,0,0,0,0,-1,958,1331,0,0
-259,-307,0,0,0,0,0,0,0,0,0,-1,965,1331,0,0
-252,-307,0,0,0,0,0,0,0,0,0,-1,972,1331,0,0
-245,-307,0,0,0,0,0,0,0,0,0,-1,979,1331,0,0
-238,-307,0,0,0,0,0,0,0,0,0,-1,986,1331,0,0
-231,-307,0,0,0,0,0,0,0,0,0,-1,993,1331,0,0
-224,-307,0,0,0,0,0,0,0,0,0,-1,1000,1331,0,0
-217,-307,0,0,0,0,0,0,0,0,0,-1,1007,1331,0,0
-210,-307,0,0,0,0,0,0,0,0,0,-1,1014,1331,0,0
-203,-307,0,0,0,0,0,0,0,0,0,-1,1021,1331,0,0
-196,-307,0,0,0,0,0,0,0,0,0,-1,1028,1331,0,0
-189,-307,0,0,0,0,0,0,0,0,0,-1,1035,1331,0,0
-182,-307,0,0,0,0,0,0,0,0,0,-1,1042,1331,0,0
-175,-307,0,0,0,0,0,0,0,0,0,-1,1049,1331,0,0
-168,-307,0,0,0,0,0,0,0,0,0,-1,1056,1331,0,0
-161,-307,0,0,0,0,0,0,0,0,0,-1,1063,1331,0,0
-154,-307,0,0,0,0,0,0,0,0,0,-1,1070,1331,0,0
-147,-307,0,0,0,0,0,0,0,0,0,-1,1077,1331,0,0
-140,-307,0,0,0,0,0,0,0,0,0,-1,1084,1331,0,0
-133,-307,0,0,0,0,0,0,0,0,0,-1,1091,1331,0,0
-126,-307,0,0,0,0,0,0,0,0,0,-1,1098,1331,0,0
-119,-307,0,0,0,0,0,0,0,0,0,-1,1105,1331,0,0
-112,-307,0,0,0,0,0,0,0,0,0,-1,1112,1331,0,0
-105,-307,0,0,0,0,0,0,0,0,0,-1,1119,1331,0,0
-98,-307,0,0,0,0,0,0,0,0,0,-1,1126,1331,0,0
-91,-307,0,0,0,0,0,0,0,0,0,-1,1133,1331,0,0
-84,-307,0,0,0,0,0,0,0,0,0,-1,1140,1331,0,0
-77,-307,0,0,0,0,0,0,0,0,0,-1,1147,1331,0,0
-70,-307,0,0,0,0,0,0,0,0,0,-1,1154,1331,0,0
-63,-307,0,0,0,0,0,0,0,0,0,-1,1161,1331,0,0
-56,-307,0,0,0,0,0,0,0,0,0,-1,1168,1331,0,0
-49,-307,0,0,0,0,0,0,0,0,0,-1,1175,1331,0,0
-42,-307,0,0,0,0,0,0,0,0,0,-1,1182,1331,0,0
-35,-307,0,0,0,0,0,0,0,0,0,-1,1189,1331,0,0
-28,-307,0,0,0,0,0,0,0,0,0,-1,1196,1331,0,0
-21,-307,0,0,0,0,0,0,0,0,0,-1,1203,1331,0,0
-14,-307,0,0,0,0,0,0,0,0,0,-1,1210,1331,0,0
-7,-307,0,0,0,0,0,0,0,0,0,-1,1217,1331,0,0
0,-307,0,0,0,0,0,0,0,0,0,-1,1224,1331,0,0
7,-307,0,0,0,0,0,0,0,0,0,-1,1231,1331,0,0
14,-307,0,0,0,0,0,0,0,0,0,-1,1238,1331,0,0
21,-307,0,0,0,0,0,0,0,0,0,-1,1245,1331,0,0
28,-307,0,0,0,0,0,0,0,0,0,-1,1252,1331,0,0
35,-307,0,0,0,0,0,0,0,0,0,-1,1259,1331,0,0
42,-307,0,0,0,0,0,0,0,0,0,-1,1266,1331,0,0
49,-307,0,0,0,0,0,0,0,0,0,-1,1273,1331,0,0
56,-307,0,0,0,0,0,0,0,0,0,-1,1280,1331,0,0
63,-307,0,0,0,0,0,0,0,0,0,-1,1287,1331,0,0
70,-307,0,0,0,0,0,0,0,0,0,-1,1294,1331,0,0
77,-307,0,0,0,0,0,0,0,0,0,-1,1301,1331,0,0
84,-307,0,0,0,0,0,0,0,0,0,-1,1308,1331,0,0
91,-307,0,0,0,0,0,0,0,0,0,-1,1315,1331,0,0
98,-307,0,0,0,0,0,0,0,0,0,-1,1322,1331,0,0
105,-307,0,0,0,0,0,0,0,0,0,-1,1329,1331,0,0
112,-307,0,0,0,0,0,0,0,0,0,-1,1336,1331,0,0
119,-307,0,0,0,0,0,0,0,0,0,-1,1343,1331,0,0
126,-307,0,0,0,0,0,0,0,0,0,-1,1350,1331,0,0
133,-307,0,0,0,0,0,0,0,0,0,-1,1357,1331,0,0
140,-307,0,0,0,0,0,0,0,0,0,-1,1364,1331,0,0
147,-307,0,0,0,0,0,0,0,0,0,-1,1371,1331,0,0
154,-307,0,0,0,0,0,0,0,0,0,-1,1378,1331,0,0
161,-307,0,0,0,0,0,0,0,0,0,-1,1385,1331,0,0
168,-307,0,0,0,0,0,0,0,0,0,-1,1392,1331,0,0
175,-307,0,0,0,0,0,0,0,0,0,-1,1399,1331,0,0
182,-307,0,0,0,0,0,0,0,0,0,-1,1406,1331,0,0
189,-307,0,0,0,0,0,0,0,0,0,-1,1413,1331,0,0
196,-307,0,0,0,0,0,0,0,0,0,-1,1420,1331,0,0
203,-307,0,0,0,0,0,0,0,0,0,-1,1427,1331,0,0
210,-307,0,0,0,0,0,0,0,0,0,-1,1434,1331,0,0
217,-307,0,0,0,0,0,0,0,0,0,-1,1441,1331,0,0
224,-307,0,0,0,0,0,0,0,0,0,-1,1448,1331,0,0
231,-307,0,0,0,0,0,0,0,0,0,-1,1455,1331,0,0
238,-307,0,0,0,0,0,0,0,0,0,-1,1462,1331,0,0
245,-307,0,0,0,0,0,0,0,0,0,-1,1469,1331,0,0
252,-307,0,0,0,0,0,0,0,0,0,-1,1476,1331,0,0
259,-307,0,0,0,0,0,0,0,0,0,-1,1483,1331,0,0
266,-307,0,0,0,0,0,0,0,0,0,-1,1490,1331,0,0
273,-307,0,0,0,0,0,0,0,0,0,-1,1497,1331,0,0
280,-307,0,0,0,0,0,0,0,0,0,-1,1504,1331,0,0
287,-307,0,0,0,0,0,0,0,0,0,-1,1511,1331,0,0
294,-307,0,0,0,0,0,0,0,0,0,-1,1518,1331,0,0
301,-307,0,0,0,0,0,0,0,0,0,-1,1525,1331,0,0
308,-307,0,0,0,0,0,0,0,0,0,-1,1532,1331,0,0
315,-307,0,0,0,0,0,0,0,0,0,-1,1539,1331,0,0
322,-307,0,0,0,0,0,0,0,0,0,-1,1546,1331,0,0
329,-307,0,0,0,0,0,0,0,0,0,-1,1553,1331,0,0
336,-307,0,0,0,0,0,0,0,0,0,-1,1560,1331,0,0
343,-307,0,0,0,0,0,0,0,0,0,-1,1567,1331,0,0
350,-307,0,0,0,0,0,0,0,0,0,-1,1574,1331,0,0
357,-307,0,0,0,0,0,0,0,0,0,-1,1581,1331,0,0
364,-307,0,0,0,0,0,0,0,0,0,-1,1588,1331,0,0
371,-307,0,0,0,0,0,0,0,0,0,-1,1595,1331,0,0
378,-307,0,0,0,0,0,0,0,0,0,-1,1602,1331,0,0
385,-307,0,0,0,0,0,0,0,0,0,-1,1609,1331,0,0
392,-307,0,0,0,0,0,0,0,0,0,-1,1616,1331,0,0
399,-307,0,0,0,0,0,0,0,0,0,-1,1623,1331,0,0
406,-307,0,0,0,0,0,0,0,0,0,-1,1630,1331,0,0
413,-307,0,0,0,0,0,0,0,0,0,-1,1637,1331,0,0
420,-307,0,0,0,0,0,0,0,0,0,-1,1644,1331,0,0
427,-307,0,0,0,0,0,0,0,0,0,-1,1651,1331,0,0
434,-307,0,0,0,0,0,0,0,0,0,-1,1658,1331,0,0
441,-307,0,0,0,0,0,0,0,0,0,-1,1665,1331,0,0
448,-307,0,0,0,0,0,0,0,0,0,-1,1672,1331,0,0
455,-307,0,0,0,0,0,0,0,0,0,-1,1679,1331,0,0
462,-307,0,0,0,0,0,0,0,0,0,-1,1686,1331,0,0
469,-307,0,0,0,0,0,0,0,0,0,-1,1693,1331,0,0
476,-307,0,0,0,0,0,0,0,0,0,-1,1700,1331,0,0
483,-307,0,0,0,0,0,0,0,0,0,-1,1707,1331,0,0
490,-307,0,0,0,0,0,0,0,0,0,-1,1714,1331,0,0
497,-307,0,0,0,0,0,0,0,0,0,-1,1721,1331,0,0
504,-307,0,0,0,0,0,0,0,0,0,-1,1728,1331,0,0
511,-307,0,0,0,0,0,0,0,0,0,-1,1735,1331,0,0
518,-307,0,0,0,0,0,0,0,0,0,-1,1742,1331,0,0
525,-307,0,0,0,0,0,0,0,0,0,-1,1749,1331,0,0
532,-307,0,0,0,0,0,0,0,0,0,-1,1756,1331,0,0
539,-307,0,0,0,0,0,0,0,0,0,-1,1763,1331,0,0
546,-307,0,0,0,0,0,0,0,0,0,-1,1770,1331,0,0
553,-307,0,0,0,0,0,0,0,0,0,-1,1777,1331,0,0
560,-307,0,0,0,0,0,0,0,0,0,-1,1784,1331,0,0
567,-307,0,0,0,0,0,0,0,0,0,-1,1791,1331,0,0
574,-307,0,0,0,0,0,0,0,0,0,-1,1798,1331,0,0
581,-307,0,0,0,0,0,0,0,0,0,-1,1805,1331,0,0
588,-307,66.5917,1.60864,0,0,0,0,0,0,0,-1,1812,1331,66.5917,-1.60867
595,-307,66.708,1.85352,0,0,0,0,0,0,0,-1,1819,1331,66.708,-1.85351
602,-307,66.111,1.49976,0,0,0,0,0,0,0,-1,1826,1331,66.1109,-1.49974
609,-307,63.8848,2.78992,0,0,0,0,0,0,0,-1,1833,1331,63.8848,-2.78989
616,-307,53.2878,0.135498,0,0,0,0,0,0,0,-1,1840,1331,53.2878,-0.135477
623,-307,44.3966,2.84888,0,0,0,0,0,0,0,-1,1847,1331,44.3966,-2.84884
630,-307,29.8116,1.51184,0,0,0,0,0,0,0,-1,1854,1331,29.8116,-1.51188
637,-307,24.6407,4.09106,0,0,0,0,0,0,0,-1,1861,1331,24.6407,-4.09103
644,-307,22.6885,5.80408,0,0,0,0,0,0,0,-1,1868,1331,22.6884,-5.80408
651,-307,17.5013,5.80078,0,0,0,0,0,0,0,-1,1875,1331,17.5014,-5.80072
658,-307,37.4427,13.9775,0,0,0,0,0,0,0,-1,1882,1331,37.4427,-13.9776
665,-307,46.6938,16.3976,0,0,0,0,0,0,0,-1,1889,1331,46.6938,-16.3976
672,-307,46.5948,15.6951,8.67092e-05,0.00214634,-0.000971022,0.00253194,-0.000298892,-1.19279,0.0017959,0.0210755,1896,1331,46.5949,-15.695
679,-307,46.5493,14.9857,0.000670798,0.00101238,-0.000616786,0.00148159,0.000201594,-0.920467,0.000927855,0.0110229,1903,1331,46.5493,-14.9857
686,-307,46.5037,14.2622,0.00093626,0.000413029,-0.000490751,0.00123077,0.000118515,-0.540514,0.000784002,0.0102632,1910,1331,46.5037,-14.2622
693,-307,46.464,13.5258,0.00107846,0.000407652,-0.000392545,0.00125937,0.000226734,-0.431868,0.000775139,0.0121784,1917,1331,46.464,-13.5258
700,-307,46.4298,12.7603,0.00117606,0.000779527,-0.00029902,0.00133657,0.000619014,-0.49265,0.000772369,0.0139614,1924,1331,46.4299,-12.7602
707,-307,46.3993,12.0276,0.00130294,0.00130564,-0.000246827,0.00155112,0.00105746,-0.788134,0.000915045,0.0153946,1931,1331,46.3993,-12.0276
714,-307,46.4004,11.3774,0.00140773,0.00202298,-0.000240943,0.00210611,0.0013246,-1.23858,0.00122936,0.014003,1938,1331,46.4004,-11.3774
721,-307,46.4153,10.6738,0.00151929,0.00296401,-0.000309499,0.00302752,0.00145578,-1.3684,0.00174837,0.0177692,1945,1331,46.4153,-10.6739
728,-307,46.5042,9.73486,0,0,0,0,0,0,0,-1,1952,1331,46.5041,-9.73489
735,-307,45.9594,9.07092,0,0,0,0,0,0,0,-1,1959,1331,45.9593,-9.07093
742,-307,26.677,6.09192,0,0,0,0,0,0,0,-1,1966,1331,26.677,-6.0919
749,-307,26.7727,5.9032,0,0,0,0,0,0,0,-1,1973,1331,26.7727,-5.90323
756,-307,27.1556,5.74756,0,0,0,0,0,0,0,-1,1980,1331,27.1557,-5.7475
763,-307,18.7522,3.55298,0,0,0,0,0,0,0,-1,1987,1331,18.7522,-3.55301
770,-307,0,0,0,0,0,0,0,0,0,-1,1994,1331,0,0
777,-307,0,0,0,0,0,0,0,0,0,-1,2001,1331,0,0
784,-307,0,0,0,0,0,0,0,0,0,-1,2008,1331,0,0
791,-307,0,0,0,0,0,0,0,0,0,-1,2015,1331,0,0
798,-307,0,0,0,0,0,0,0,0,0,-1,2022,1331,0,0
805,-307,0,0,0,0,0,0,0,0,0,-1,2029,1331,0,0
812,-307,0,0,0,0,0,0,0,0,0,-1,2036,1331,0,0
-700,-314,0,0,0,0,0,0,0,0,0,-1,524,1338,0,0
-693,-314,0,0,0,0,0,0,0,0,0,-1,531,1338,0,0
-686,-314,0,0,0,0,0,0,0,0,0,-1,538,1338,0,0
-679,-314,0,0,0,0,0,0,0,0,0,-1,545,1338,0,0
-672,-314,0,0,0,0,0,0,0,0,0,-1,552,1338,0,0
-665,-314,0,0,0,0,0,0,0,0,0,-1,559,1338,0,0
-658,-314,0,0,0,0,0,0,0,0,0,-1,566,1338,0,0
-651,-314,0,0,0,0,0,0,0,0,0,-1,573,1338,0,0
-644,-314,-41.2806,1.17566,0,0,0,0,0,0,0,-1,580,1338,-41.2806,-1.17565
-637,-314,-58.369,7.97375,0,0,0,0,0,0,0,-1,587,1338,-58.369,-7.97376
-630,-314,-59.7463,6.72742,0,0,0,0,0,0,0,-1,594,1338,-59.7463,-6.72739
-623,-314,-13.3542,3.00903,0,0,0,0,0,0,0,-1,601,1338,-13.3542,-3.00907
-616,-314,-9.93311,1.15088,0,0,0,0,0,0,0,-1,608,1338,-9.93308,-1.15093
-609,-314,-9.4361,2.86292,0,0,0,0,0,0,0,-1,615,1338,-9.43612,-2.86286
-602,-314,-11.8027,2.42798,0,0,0,0,0,0,0,-1,622,1338,-11.8027,-2.42802
-595,-314,-29.0537,8.53809,0,0,0,0,0,0,0,-1,629,1338,-29.0537,-8.53804
-588,-314,-28.8374,9.37341,0.00512055,0.0049214,0.00335594,0.00837839,0.00166356,0.770566,0.00512193,0.0357496,636,1338,-28.8374,-9.37342
-581,-314,-28.763,10.1945,0.00379063,0.00357661,0.00228712,0.00597324,0.001394,0.762021,0.00360839,0.0130717,643,1338,-28.763,-10.1944
-574,-314,-28.8495,10.9312,0.00302269,0.00245258,0.00157665,0.00433985,0.00113542,0.695965,0.0025988,0.0133882,650,1338,-28.8495,-10.9311
-567,-314,-28.9116,11.7202,0.0027172,0.00155338,0.00116172,0.0034346,0.000835975,0.553212,0.00206818,0.0149773,657,1338,-28.9116,-11.7202
-560,-314,-28.9199,12.4984,0.00277308,0.000786159,0.000968519,0.00316706,0.000392179,0.386343,0.00199355,0.0152294,664,1338,-28.9198,-12.4985
-553,-314,-28.939,13.2584,0.0031513,0.000175615,0.00099731,0.00345463,-0.000127716,0.295259,0.00234682,0.0172719,671,1338,-28.9389,-13.2584
-546,-314,-29.0234,14.0223,0.00390198,-0.000310638,0.00127077,0.00425563,-0.000664288,0.271427,0.00308247,0.0180977,678,1338,-29.0234,-14.0223
-539,-314,-29.0386,14.8036,0.00501531,-0.000708857,0.00175387,0.00550995,-0.00120349,0.274887,0.00413328,0.0199835,685,1338,-29.0386,-14.8035
-532,-314,-28.9079,15.5347,0,0,0,0,0,0,0,-1,692,1338,-28.9079,-15.5347
-525,-314,-13.3017,7.50671,0,0,0,0,0,0,0,-1,699,1338,-13.3017,-7.50669
-518,-314,-8.52753,4.70032,0,0,0,0,0,0,0,-1,706,1338,-8.52755,-4.70034
-511,-314,-11.8597,0.384888,0,0,0,0,0,0,0,-1,713,1338,-11.8597,-0.384927
-504,-314,-11.4322,-0.187378,0,0,0,0,0,0,0,-1,720,1338,-11.4322,0.187381
-497,-314,-11.0047,-0.759644,0,0,0,0,0,0,0,-1,727,1338,-11.0047,0.759689
-490,-314,-18.5143,0.471069,0,0,0,0,0,0,0,-1,734,1338,-18.5143,-0.47103
-483,-314,-17.8528,0.577271,0,0,0,0,0,0,0,-1,741,1338,-17.8528,-0.577327
-476,-314,-17.714,0.665405,0,0,0,0,0,0,0,-1,748,1338,-17.714,-0.665388
-469,-314,-17.7246,0.794678,0,0,0,0,0,0,0,-1,755,1338,-17.7246,-0.794645
-462,-314,0,0,0,0,0,0,0,0,0,-1,762,1338,0,0
-455,-314,0,0,0,0,0,0,0,0,0,-1,769,1338,0,0
-448,-314,0,0,0,0,0,0,0,0,0,-1,776,1338,0,0
-441,-314,0,0,0,0,0,0,0,0,0,-1,783,1338,0,0
-434,-314,0,0,0,0,0,0,0,0,0,-1,790,1338,0,0
-427,-314,0,0,0,0,0,0,0,0,0,-1,797,1338,0,0
-420,-314,0,0,0,0,0,0,0,0,0,-1,804,1338,0,0
-413,-314,0,0,0,0,0,0,0,0,0,-1,811,1338,0,0
-406,-314,0,0,0,0,0,0,0,0,0,-1,818,1338,0,0
-399,-314,0,0,0,0,0,0,0,0,0,-1,825,1338,0,0
-392,-314,0,0,0,0,0,0,0,0,0,-1,832,1338,0,0
-385,-314,0,0,0,0,0,0,0,0,0,-1,839,1338,0,0
-378,-314,0,0,0,0,0,0,0,0,0,-1,846,1338,0,0
-371,-314,0,0,0,0,0,0,0,0,0,-1,853,1338,0,0
-364,-314,0,0,0,0,0,0,0,0,0,-1,860,1338,0,0
-357,-314,0,0,0,0,0,0,0,0,0,-1,867,1338,0,0
-350,-314,0,0,0,0,0,0,0,0,0,-1,874,1338,0,0
-343,-314,0,0,0,0,0,0,0,0,0,-1,881,1338,0,0
-336,-314,0,0,0,0,0,0,0,0,0,-1,888,1338,0,0
-329,-314,0,0,0,0,0,0,0,0,0,-1,895,1338,0,0
-322,-314,0,0,0,0,0,0,0,0,0,-1,902,1338,0,0
-315,-314,0,0,0,0,0,0,0,0,0,-1,909,1338,0,0
-308,-314,0,0,0,0,0,0,0,0,0,-1,916,1338,0,0
-301,-314,0,0,0,0,0,0,0,0,0,-1,923,1338,0,0
-294,-314,0,0,0,0,0,0,0,0,0,-1,930,1338,0,0
-287,-314,0,0,0,0,0,0,0,0,0,-1,937,1338,0,0
-280,-314,0,0,0,0,0,0,0,0,0,-1,944,1338,0,0
-273,-314,0,0,0,0,0,0,0,0,0,-1,951,1338,0,0
-266,-314,0,0,0,0,0,0,0,0,0,-1,958,1338,0,0
-259,-314,0,0,0,0,0,0,0,0,0,-1,965,1338,0,0
-252,-314,0,0,0,0,0,0,0,0,0,-1,972,1338,0,0
-245,-314,0,0,0,0,0,0,0,0,0,-1,979,1338,0,0
-238,-314,0,0,0,0,0,0,0,0,0,-1,986,1338,0,0
-231,-314,0,0,0,0,0,0,0,0,0,-1,993,1338,0,0
-224,-314,0,0,0,0,0,0,0,0,0,-1,1000,1338,0,0
-217,-314,0,0,0,0,0,0,0,0,0,-1,1007,1338,0,0
-210,-314,0,0,0,0,0,0,0,0,0,-1,1014,1338,0,0
-203,-314,0,0,0,0,0,0,0,0,0,-1,1021,1338,0,0
-196,-314,0,0,0,0,0,0,0,0,0,-1,1028,1338,0,0
-189,-314,0,0,0,0,0,0,0,0,0,-1,1035,1338,0,0
-182,-314,0,0,0,0,0,0,0,0,0,-1,1042,1338,0,0
-175,-314,0,0,0,0,0,0,0,0,0,-1,1049,1338,0,0
-168,-314,0,0,0,0,0,0,0,0,0,-1,1056,1338,0,0
-161,-314,0,0,0,0,0,0,0,0,0,-1,1063,1338,0,0
-154,-314,0,0,0,0,0,0,0,0,0,-1,1070,1338,0,0
-147,-314,0,0,0,0,0,0,0,0,0,-1,1077,1338,0,0
-140,-314,0,0,0,0,0,0,0,0,0,-1,1084,1338,0,0
-133,-314,0,0,0,0,0,0,0,0,0,-1,1091,1338,0,0
-126,-314,0,0,0,0,0,0,0,0,0,-1,1098,1338,0,0
-119,-314,0,0,0,0,0,0,0,0,0,-1,1105,1338,0,0
-112,-314,0,0,0,0,0,0,0,0,0,-1,1112,1338,0,0
-105,-314,0,0,0,0,0,0,0,0,0,-1,1119,1338,0,0
-98,-314,0,0,0,0,0,0,0,0,0,-1,1126,1338,0,0
-91,-314,0,0,0,0,0,0,0,0,0,-1,1133,1338,0,0
-84,-314,0,0,0,0,0,0,0,0,0,-1,1140,1338,0,0
-77,-314,0,0,0,0,0,0,0,0,0,-1,1147,1338,0,0
-70,-314,0,0,0,0,0,0,0,0,0,-1,1154,1338,0,0
-63,-314,0,0,0,0,0,0,0,0,0,-1,1161,1338,0,0
-56,-314,0,0,0,0,0,0,0,0,0,-1,1168,1338,0,0
-49,-314,0,0,0,0,0,0,0,0,0,-1,1175,1338,0,0
-42,-314,0,0,0,0,0,0,0,0,0,-1,1182,1338,0,0
-35,-314,0,0,0,0,0,0,0,0,0,-1,1189,1338,0,0
-28,-314,0,0,0,0,0,0,0,0,0,-1,1196,1338,0,0
-21,-314,0,0,0,0,0,0,0,0,0,-1,1203,1338,0,0
-14,-314,0,0,0,0,0,0,0,0,0,-1,1210,1338,0,0
-7,-314,0,0,0,0,0,0,0,0,0,-1,1217,1338,0,0
0,-314,0,0,0,0,0,0,0,0,0,-1,1224,1338,0,0
7,-314,0,0,0,0,0,0,0,0,0,-1,1231,1338,0,0
14,-314,0,0,0,0,0,0,0,0,0,-1,1238,1338,0,0
21,-314,0,0,0,0,0,0,0,0,0,-1,1245,1338,0,0
28,-314,0,0,0,0,0,0,0,0,0,-1,1252,1338,0,0
35,-314,0,0,0,0,0,0,0,0,0,-1,1259,1338,0,0
42,-314,0,0,0,0,0,0,0,0,0,-1,1266,1338,0,0
49,-314,0,0,0,0,0,0,0,0,0,-1,1273,1338,0,0
56,-314,0,0,0,0,0,0,0,0,0,-1,1280,1338,0,0
63,-314,0,0,0,0,0,0,0,0,0,-1,1287,1338,0,0
70,-314,0,0,0,0,0,0,0,0,0,-1,1294,1338,0,0
77,-314,0,0,0,0,0,0,0,0,0,-1,1301,1338,0,0
84,-314,0,0,0,0,0,0,0,0,0,-1,1308,1338,0,0
91,-314,0,0,0,0,0,0,0,0,0,-1,1315,1338,0,0
98,-314,0,0,0,0,0,0,0,0,0,-1,1322,1338,0,0
105,-314,0,0,0,0,0,0,0,0,0,-1,1329,1338,0,0
112,-314,0,0,0,0,0,0,0,0,0,-1,1336,1338,0,0
119,-314,0,0,0,0,0,0,0,0,0,-1,1343,1338,0,0
126,-314,0,0,0,0,0,0,0,0,0,-1,1350,1338,0,0
133,-314,0,0,0,0,0,0,0,0,0,-1,1357,1338,0,0
140,-314,0,0,0,0,0,0,0,0,0,-1,1364,1338,0,0
147,-314,0,0,0,0,0,0,0,0,0,-1,1371,1338,0,0
154,-314,0,0,0,0,0,0,0,0,0,-1,1378,1338,0,0
161,-314,0,0,0,0,0,0,0,0,0,-1,1385,1338,0,0
168,-314,0,0,0,0,0,0,0,0,0,-1,1392,1338,0,0
175,-314,0,0,0,0,0,0,0,0,0,-1,1399,1338,0,0
182,-314,0,0,0,0,0,0,0,0,0,-1,1406,1338,0,0
189,-314,0,0,0,0,0,0,0,0,0,-1,1413,1338,0,0
196,-314,0,0,0,0,0,0,0,0,0,-1,1420,1338,0,0
203,-314,0,0,0,0,0,0,0,0,0,-1,1427,1338,0,0
210,-314,0,0,0,0,0,0,0,0,0,-1,1434,1338,0,0
217,-314,0,0,0,0,0,0,0,0,0,-1,1441,1338,0,0
224,-314,0,0,0,0,0,0,0,0,0,-1,1448,1338,0,0
231,-314,0,0,0,0,0,0,0,0,0,-1,1455,1338,0,0
238,-314,0,0,0,0,0,0,0,0,0,-1,1462,1338,0,0
245,-314,0,0,0,0,0,0,0,0,0,-1,1469,1338,0,0
252,-314,0,0,0,0,0,0,0,0,0,-1,1476,1338,0,0
259,-314,0,0,0,0,0,0,0,0,0,-1,1483,1338,0,0
266,-314,0,0,0,0,0,0,0,0,0,-1,1490,1338,0,0
273,-314,0,0,0,0,0,0,0,0,0,-1,1497,1338,0,0
280,-314,0,0,0,0,0,0,0,0,0,-1,1504,1338,0,0
287,-314,0,0,0,0,0,0,0,0,0,-1,1511,1338,0,0
294,-314,0,0,0,0,0,0,0,0,0,-1,1518,1338,0,0
301,-314,0,0,0,0,0,0,0,0,0,-1,1525,1338,0,0
308,-314,0,0,0,0,0,0,0,0,0,-1,1532,1338,0,0
315,-314,0,0,0,0,0,0,0,0,0,-1,1539,1338,0,0
322,-314,0,0,0,0,0,0,0,0,0,-1,1546,1338,0,0
329,-314,0,0,0,0,0,0,0,0,0,-1,1553,1338,0,0
336,-314,0,0,0,0,0,0,0,0,0,-1,1560,1338,0,0
343,-314,0,0,0,0,0,0,0,0,0,-1,1567,1338,0,0
350,-314,0,0,0,0,0,0,0,0,0,-1,1574,1338,0,0
357,-314,0,0,0,0,0,0,0,0,0,-1,1581,1338,0,0
364,-314,0,0,0,0,0,0,0,0,0,-1,1588,1338,0,0
371,-314,0,0,0,0,0,0,0,0,0,-1,1595,1338,0,0
378,-314,0,0,0,0,0,0,0,0,0,-1,1602,1338,0,0
385,-314,0,0,0,0,0,0,0,0,0,-1,1609,1338,0,0
392,-314,0,0,0,0,0,0,0,0,0,-1,1616,1338,0,0
399,-314,0,0,0,0,0,0,0,0,0,-1,1623,1338,0,0
406,-314,0,0,0,0,0,0,0,0,0,-1,1630,1338,0,0
413,-314,0,0,0,0,0,0,0,0,0,-1,1637,1338,0,0
420,-314,0,0,0,0,0,0,0,0,0,-1,1644,1338,0,0
427,-314,0,0,0,0,0,0,0,0,0,-1,1651,1338,0,0
434,-314,0,0,0,0,0,0,0,0,0,-1,1658,1338,0,0
441,-314,0,0,0,0,0,0,0,0,0,-1,1665,1338,0,0
448,-314,0,0,0,0,0,0,0,0,0,-1,1672,1338,0,0
455,-314,0,0,0,0,0,0,0,0,0,-1,1679,1338,0,0
462,-314,0,0,0,0,0,0,0,0,0,-1,1686,1338,0,0
469,-314,0,0,0,0,0,0,0,0,0,-1,1693,1338,0,0
476,-314,0,0,0,0,0,0,0,0,0,-1,1700,1338,0,0
483,-314,0,0,0,0,0,0,0,0,0,-1,1707,1338,0,0
490,-314,0,0,0,0,0,0,0,0,0,-1,1714,1338,0,0
497,-314,0,0,0,0,0,0,0,0,0,-1,1721,1338,0,0
504,-314,0,0,0,0,0,0,0,0,0,-1,1728,1338,0,0
511,-314,0,0,0,0,0,0,0,0,0,-1,1735,1338,0,0
518,-314,0,0,0,0,0,0,0,0,0,-1,1742,1338,0,0
525,-314,0,0,0,0,0,0,0,0,0,-1,1749,1338,0,0
532,-314,0,0,0,0,0,0,0,0,0,-1,1756,1338,0,0
539,-314,0,0,0,0,0,0,0,0,0,-1,1763,1338,0,0
546,-314,0,0,0,0,0,0,0,0,0,-1,1770,1338,0,0
553,-314,0,0,0,0,0,0,0,0,0,-1,1777,1338,0,0
560,-314,0,0,0,0,0,0,0,0,0,-1,1784,1338,0,0
567,-314,0,0,0,0,0,0,0,0,0,-1,1791,1338,0,0
574,-314,0,0,0,0,0,0,0,0,0,-1,1798,1338,0,0
581,-314,66.1637,1.86658,0,0,0,0,0,0,0,-1,1805,1338,66.1637,-1.86663
588,-314,66.4303,1.43481,0,0,0,0,0,0,0,-1,1812,1338,66.4303,-1.43487
595,-314,66.7465,0.982788,0,0,0,0,0,0,0,-1,1819,1338,66.7464,-0.982795
602,-314,66.322,1.38416,0,0,0,0,0,0,0,-1,1826,1338,66.322,-1.3842
609,-314,60.2225,1.27014,0,0,0,0,0,0,0,-1,1833,1338,60.2225,-1.27017
616,-314,48.1149,3.005,0,0,0,0,0,0,0,-1,1840,1338,48.1149,-3.00505
623,-314,38.7728,2.71741,0,0,0,0,0,0,0,-1,1847,1338,38.7728,-2.71737
630,-314,29.4308,6.23206,0,0,0,0,0,0,0,-1,1854,1338,29.4308,-6.23202
637,-314,22.1349,5.16418,0,0,0,0,0,0,0,-1,1861,1338,22.1349,-5.16414
644,-314,18.7517,6.2605,0,0,0,0,0,0,0,-1,1868,1338,18.7517,-6.26053
651,-314,23.1317,8.005,0,0,0,0,0,0,0,-1,1875,1338,23.1317,-8.00506
658,-314,45.9196,17.1648,0,0,0,0,0,0,0,-1,1882,1338,45.9195,-17.1647
665,-314,45.8311,16.4955,-0.000504682,0.00363907,-0.000371825,0.00367217,-0.000537782,-1.48201,0.00264566,0.0425825,1889,1338,45.831,-16.4955
672,-314,45.8464,15.7865,0.000586565,0.000425741,-0.000779413,0.0012897,-0.000277397,-0.733995,0.000965641,0.0148863,1896,1338,45.8464,-15.7865
679,-314,45.8168,15.0343,0.000873601,0.000175466,-0.000560127,0.00118453,-0.000135459,-0.506748,0.000838492,0.0114685,1903,1338,45.8168,-15.0343
686,-314,45.7664,14.2961,0.00108952,0.000234488,-0.000480477,0.00130514,1.88643e-05,-0.421831,0.000863874,0.0125037,1910,1338,45.7664,-14.2961
693,-314,45.7147,13.5366,0.00130709,0.000474387,-0.000446066,0.00150092,0.000280555,-0.409921,0.000921442,0.0125011,1917,1338,45.7147,-13.5366
700,-314,45.6865,12.7787,0.00154194,0.000872816,-0.000438245,0.00175873,0.000656024,-0.459384,0.00102626,0.0143568,1924,1338,45.6865,-12.7787
707,-314,45.6841,12.0753,0.00179332,0.00143787,-0.000473837,0.00212167,0.00110953,-0.605977,0.00122538,0.0142806,1931,1338,45.684,-12.0753
714,-314,45.6484,11.4181,0.0020332,0.00221431,-0.000559639,0.00269067,0.00155684,-0.865609,0.00155985,0.0124263,1938,1338,45.6484,-11.4181
721,-314,45.6191,10.7439,0.00230863,0.00321941,-0.000713264,0.00361027,0.00191778,-1.06951,0.00208574,0.0258089,1945,1338,45.6192,-10.7439
728,-314,45.6613,10.0555,0,0,0,0,0,0,0,-1,1952,1338,45.6612,-10.0556
735,-314,26.3665,6.21582,0,0,0,0,0,0,0,-1,1959,1338,26.3664,-6.21581
742,-314,26.2235,6.0166,0,0,0,0,0,0,0,-1,1966,1338,26.2235,-6.01662
749,-314,26.2223,5.47046,0,0,0,0,0,0,0,-1,1973,1338,26.2223,-5.47041
756,-314,24.2521,5.93408,0,0,0,0,0,0,0,-1,1980,1338,24.252,-5.93413
763,-314,19.2207,4.07239,0,0,0,0,0,0,0,-1,1987,1338,19.2206,-4.07239
770,-314,0,0,0,0,0,0,0,0,0,-1,1994,1338,0,0
777,-314,0,0,0,0,0,0,0,0,0,-1,2001,1338,0,0
784,-314,0,0,0,0,0,0,0,0,0,-1,2008,1338,0,0
791,-314,0,0,0,0,0,0,0,0,0,-1,2015,1338,0,0
798,-314,0,0,0,0,0,0,0,0,0,-1,2022,1338,0,0
805,-314,0,0,0,0,0,0,0,0,0,-1,2029,1338,0,0
812,-314,0,0,0,0,0,0,0,0,0,-1,2036,1338,0,0
-700,-321,0,0,0,0,0,0,0,0,0,-1,524,1345,0,0
-693,-321,0,0,0,0,0,0,0,0,0,-1,531,1345,0,0
-686,-321,0,0,0,0,0,0,0,0,0,-1,538,1345,0,0
-679,-321,0,0,0,0,0,0,0,0,0,-1,545,1345,0,0
-672,-321,0,0,0,0,0,0,0,0,0,-1,552,1345,0,0
-665,-321,0,0,0,0,0,0,0,0,0,-1,559,1345,0,0
-658,-321,0,0,0,0,0,0,0,0,0,-1,566,1345,0,0
-651,-321,0,0,0,0,0,0,0,0,0,-1,573,1345,0,0
-644,-321,-58.7329,10.2313,0,0,0,0,0,0,0,-1,580,1345,-58.7329,-10.2313
-637,-321,-59.9981,9.06421,0,0,0,0,0,0,0,-1,587,1345,-59.9981,-9.06417
-630,-321,-61.377,8.07166,0,0,0,0,0,0,0,-1,594,1345,-61.3769,-8.07168
-623,-321,-13.2242,3.14148,0,0,0,0,0,0,0,-1,601,1345,-13.2243,-3.14146
-616,-321,-11.6754,3.13794,0,0,0,0,0,0,0,-1,608,1345,-11.6754,-3.13789
-609,-321,-7.95209,1.14758,0,0,0,0,0,0,0,-1,615,1345,-7.95208,-1.14757
-602,-321,-8.85791,2.50049,0,0,0,0,0,0,0,-1,622,1345,-8.85791,-2.50048
-595,-321,-19.8463,5.36584,0,0,0,0,0,0,0,-1,629,1345,-19.8462,-5.36589
-588,-321,-28.1626,9.39404,0,0,0,0,0,0,0,-1,636,1345,-28.1626,-9.39406
-581,-321,-28.0432,10.2205,0.00399913,0.00400265,0.00237626,0.00637715,0.00162463,0.785768,0.00382663,0.0147161,643,1345,-28.0432,-10.2204
-574,-321,-28.1072,10.9908,0.00318935,0.00286959,0.00170474,0.00474169,0.00131725,0.738642,0.00282629,0.016403,650,1345,-28.1072,-10.9908
-567,-321,-28.1499,11.7496,0.00285326,0.00195963,0.00130043,0.0037815,0.0010314,0.619921,0.00225716,0.0230359,657,1345,-28.1499,-11.7496
-560,-321,-28.1414,12.5765,0.00286972,0.00120521,0.00112347,0.00343562,0.000639318,0.466608,0.00210984,0.0263341,664,1345,-28.1414,-12.5765
-553,-321,-28.1576,13.2788,0.00315375,0.000552866,0.00111141,0.00356398,0.000142639,0.353592,0.0023299,0.0282606,671,1345,-28.1576,-13.2789
-546,-321,-28.2432,14.0291,0.00377125,4.60369e-05,0.00131897,0.00419097,-0.000373678,0.308082,0.0029265,0.0267824,678,1345,-28.2432,-14.029
-539,-321,-28.285,14.8334,0.00469374,-0.000356121,0.00170676,0.00521648,-0.00087886,0.297205,0.00380459,0.0246301,685,1345,-28.285,-14.8334
-532,-321,-28.2269,15.5763,0.00604088,-0.000623959,0.00230671,0.00676135,-0.00134443,0.302737,0.00501613,0.0365339,692,1345,-28.2269,-15.5763
-525,-321,-28.211,16.3125,0,0,0,0,0,0,0,-1,699,1345,-28.211,-16.3125
-518,-321,-10.3564,6.75696,0,0,0,0,0,0,0,-1,706,1345,-10.3564,-6.75694
-511,-321,-9.3302,5.29297,0,0,0,0,0,0,0,-1,713,1345,-9.33023,-5.29294
-504,-321,-10.4713,0.0145264,0,0,0,0,0,0,0,-1,720,1345,-10.4713,-0.0145296
-497,-321,-9.96771,0.313599,0,0,0,0,0,0,0,-1,727,1345,-9.96769,-0.313618
-490,-321,-10.7631,0.973511,0,0,0,0,0,0,0,-1,734,1345,-10.7631,-0.97353
-483,-321,-17.5908,0.2323,0,0,0,0,0,0,0,-1,741,1345,-17.5908,-0.232355
-476,-321,-17.2915,0.297363,0,0,0,0,0,0,0,-1,748,1345,-17.2915,-0.297342
-469,-321,-17.2441,0.478027,0,0,0,0,0,0,0,-1,755,1345,-17.2441,-0.477994
-462,-321,-17.1672,0.526489,0,0,0,0,0,0,0,-1,762,1345,-17.1672,-0.526533
-455,-321,0,0,0,0,0,0,0,0,0,-1,769,1345,0,0
-448,-321,0,0,0,0,0,0,0,0,0,-1,776,1345,0,0
-441,-321,0,0,0,0,0,0,0,0,0,-1,783,1345,0,0
-434,-321,0,0,0,0,0,0,0,0,0,-1,790,1345,0,0
-427,-321,0,0,0,0,0,0,0,0,0,-1,797,1345,0,0
-420,-321,0,0,0,0,0,0,0,0,0,-1,804,1345,0,0
-413,-321,0,0,0,0,0,0,0,0,0,-1,811,1345,0,0
-406,-321,0,0,0,0,0,0,0,0,0,-1,818,1345,0,0
-399,-321,0,0,0,0,0,0,0,0,0,-1,825,1345,0,0
-392,-321,0,0,0,0,0,0,0,0,0,-1,832,1345,0,0
-385,-321,0,0,0,0,0,0,0,0,0,-1,839,1345,0,0
-378,-321,0,0,0,0,0,0,0,0,0,-1,846,1345,0,0
-371,-321,0,0,0,0,0,0,0,0,0,-1,853,1345,0,0
-364,-321,0,0,0,0,0,0,0,0,0,-1,860,1345,0,0
-357,-321,0,0,0,0,0,0,0,0,0,-1,867,1345,0,0
-350,-321,0,0,0,0,0,0,0,0,0,-1,874,1345,0,0
-343,-321,0,0,0,0,0,0,0,0,0,-1,881,1345,0,0
-336,-321,0,0,0,0,0,0,0,0,0,-1,888,1345,0,0
-329,-321,0,0,0,0,0,0,0,0,0,-1,895,1345,0,0
-322,-321,0,0,0,0,0,0,0,0,0,-1,902,1345,0,0
-315,-321,0,0,0,0,0,0,0,0,0,-1,909,1345,0,0
-308,-321,0,0,0,0,0,0,0,0,0,-1,916,1345,0,0
-301,-321,0,0,0,0,0,0,0,0,0,-1,923,1345,0,0
-294,-321,0,0,0,0,0,0,0,0,0,-1,930,1345,0,0
-287,-321,0,0,0,0,0,0,0,0,0,-1,937,1345,0,0
-280,-321,0,0,0,0,0,0,0,0,0,-1,944,1345,0,0
-273,-321,0,0,0,0,0,0,0,0,0,-1,951,1345,0,0
-266,-321,0,0,0,0,0,0,0,0,0,-1,958,1345,0,0
-259,-321,0,0,0,0,0,0,0,0,0,-1,965,1345,0,0
-252,-321,0,0,0,0,0,0,0,0,0,-1,972,1345,0,0
-245,-321,0,0,0,0,0,0,0,0,0,-1,979,1345,0,0
-238,-321,0,0,0,0,0,0,0,0,0,-1,986,1345,0,0
-231,-321,0,0,0,0,0,0,0,0,0,-1,993,1345,0,0
-224,-321,0,0,0,0,0,0,0,0,0,-1,1000,1345,0,0
-217,-321,0,0,0,0,0,0,0,0,0,-1,1007,1345,0,0
-210,-321,0,0,0,0,0,0,0,0,0,-1,1014,1345,0,0
-203,-321,0,0,0,0,0,0,0,0,0,-1,1021,1345,0,0
-196,-321,0,0,0,0,0,0,0,0,0,-1,1028,1345,0,0
-189,-321,0,0,0,0,0,0,0,0,0,-1,1035,1345,0,0
-182,-321,0,0,0,0,0,0,0,0,0,-1,1042,1345,0,0
-175,-321,0,0,0,0,0,0,0,0,0,-1,1049,1345,0,0
-168,-321,0,0,0,0,0,0,0,0,0,-1,1056,1345,0,0
-161,-321,0,0,0,0,0,0,0,0,0,-1,1063,1345,0,0
-154,-321,0,0,0,0,0,0,0,0,0,-1,1070,1345,0,0
-147,-321,0,0,0,0,0,0,0,0,0,-1,1077,1345,0,0
-140,-321,0,0,0,0,0,0,0,0,0,-1,1084,1345,0,0
-133,-321,0,0,0,0,0,0,0,0,0,-1,1091,1345,0,0
-126,-321,0,0,0,0,0,0,0,0,0,-1,1098,1345,0,0
-119,-321,0,0,0,0,0,0,0,0,0,-1,1105,1345,0,0
-112,-321,0,0,0,0,0,0,0,0,0,-1,1112,1345,0,0
-105,-321,0,0,0,0,0,0,0,0,0,-1,1119,1345,0,0
-98,-321,0,0,0,0,0,0,0,0,0,-1,1126,1345,0,0
-91,-321,0,0,0,0,0,0,0,0,0,-1,1133,1345,0,0
-84,-321,0,0,0,0,0,0,0,0,0,-1,1140,1345,0,0
-77,-321,0,0,0,0,0,0,0,0,0,-1,1147,1345,0,0
-70,-321,0,0,0,0,0,0,0,0,0,-1,1154,1345,0,0
-63,-321,0,0,0,0,0,0,0,0,0,-1,1161,1345,0,0
-56,-321,0,0,0,0,0,0,0,0,0,-1,1168,1345,0,0
-49,-321,0,0,0,0,0,0,0,0,0,-1,1175,1345,0,0
-42,-321,0,0,0,0,0,0,0,0,0,-1,1182,1345,0,0
-35,-321,0,0,0,0,0,0,0,0,0,-1,1189,1345,0,0
-28,-321,0,0,0,0,0,0,0,0,0,-1,1196,1345,0,0
-21,-321,0,0,0,0,0,0,0,0,0,-1,1203,1345,0,0
-14,-321,0,0,0,0,0,0,0,0,0,-1,1210,1345,0,0
-7,-321,0,0,0,0,0,0,0,0,0,-1,1217,1345,0,0
0,-321,0,0,0,0,0,0,0,0,0,-1,1224,1345,0,0
7,-321,0,0,0,0,0,0,0,0,0,-1,1231,1345,0,0
14,-321,0,0,0,0,0,0,0,0,0,-1,1238,1345,0,0
21,-321,0,0,0,0,0,0,0,0,0,-1,1245,1345,0,0
28,-321,0,0,0,0,0,0,0,0,0,-1,1252,1345,0,0
35,-321,0,0,0,0,0,0,0,0,0,-1,1259,1345,0,0
42,-321,0,0,0,0,0,0,0,0,0,-1,1266,1345,0,0
49,-321,0,0,0,0,0,0,0,0,0,-1,1273,1345,0,0
56,-321,0,0,0,0,0,0,0,0,0,-1,1280,1345,0,0
63,-321,0,0,0,0,0,0,0,0,0,-1,1287,1345,0,0
70,-321,0,0,0,0,0,0,0,0,0,-1,1294,1345,0,0
77,-321,0,0,0,0,0,0,0,0,0,-1,1301,1345,0,0
84,-321,0,0,0,0,0,0,0,0,0,-1,1308,1345,0,0
91,-321,0,0,0,0,0,0,0,0,0,-1,1315,1345,0,0
98,-321,0,0,0,0,0,0,0,0,0,-1,1322,1345,0,0
105,-321,0,0,0,0,0,0,0,0,0,-1,1329,1345,0,0
112,-321,0,0,0,0,0,0,0,0,0,-1,1336,1345,0,0
119,-321,0,0,0,0,0,0,0,0,0,-1,1343,1345,0,0
126,-321,0,0,0,0,0,0,0,0,0,-1,1350,1345,0,0
133,-321,0,0,0,0,0,0,0,0,0,-1,1357,1345,0,0
140,-321,0,0,0,0,0,0,0,0,0,-1,1364,1345,0,0
147,-321,0,0,0,0,0,0,0,0,0,-1,1371,1345,0,0
154,-321,0,0,0,0,0,0,0,0,0,-1,1378,1345,0,0
161,-321,0,0,0,0,0,0,0,0,0,-1,1385,1345,0,0
168,-321,0,0,0,0,0,0,0,0,0,-1,1392,1345,0,0
175,-321,0,0,0,0,0,0,0,0,0,-1,1399,1345,0,0
182,-321,0,0,0,0,0,0,0,0,0,-1,1406,1345,0,0
189,-321,0,0,0,0,0,0,0,0,0,-1,1413,1345,0,0
196,-321,0,0,0,0,0,0,0,0,0,-1,1420,1345,0,0
203,-321,0,0,0,0,0,0,0,0,0,-1,1427,1345,0,0
210,-321,0,0,0,0,0,0,0,0,0,-1,1434,1345,0,0
217,-321,0,0,0,0,0,0,0,0,0,-1,1441,1345,0,0
224,-321,0,0,0,0,0,0,0,0,0,-1,1448,1345,0,0
231,-321,0,0,0,0,0,0,0,0,0,-1,1455,1345,0,0
238,-321,0,0,0,0,0,0,0,0,0,-1,1462,1345,0,0
245,-321,0,0,0,0,0,0,0,0,0,-1,1469,1345,0,0
252,-321,0,0,0,0,0,0,0,0,0,-1,1476,1345,0,0
259,-321,0,0,0,0,0,0,0,0,0,-1,1483,1345,0,0
266,-321,0,0,0,0,0,0,0,0,0,-1,1490,1345,0,0
273,-321,0,0,0,0,0,0,0,0,0,-1,1497,1345,0,0
280,-321,0,0,0,0,0,0,0,0,0,-1,1504,1345,0,0
287,-321,0,0,0,0,0,0,0,0,0,-1,1511,1345,0,0
294,-321,0,0,0,0,0,0,0,0,0,-1,1518,1345,0,0
301,-321,0,0,0,0,0,0,0,0,0,-1,1525,1345,0,0
308,-321,0,0,0,0,0,0,0,0,0,-1,1532,1345,0,0
315,-321,0,0,0,0,0,0,0,0,0,-1,1539,1345,0,0
322,-321,0,0,0,0,0,0,0,0,0,-1,1546,1345,0,0
329,-321,0,0,0,0,0,0,0,0,0,-1,1553,1345,0,0
336,-321,0,0,0,0,0,0,0,0,0,-1,1560,1345,0,0
343,-321,0,0,0,0,0,0,0,0,0,-1,1567,1345,0,0
350,-321,0,0,0,0,0,0,0,0,0,-1,1574,1345,0,0
357,-321,0,0,0,0,0,0,0,0,0,-1,1581,1345,0,0
364,-321,0,0,0,0,0,0,0,0,0,-1,1588,1345,0,0
371,-321,0,0,0,0,0,0,0,0,0,-1,1595,1345,0,0
378,-321,0,0,0,0,0,0,0,0,0,-1,1602,1345,0,0
385,-321,0,0,0,0,0,0,0,0,0,-1,1609,1345,0,0
392,-321,0,0,0,0,0,0,0,0,0,-1,1616,1345,0,0
399,-321,0,0,0,0,0,0,0,0,0,-1,1623,1345,0,0
406,-321,0,0,0,0,0,0,0,0,0,-1,1630,1345,0,0
413,-321,0,0,0,0,0,0,0,0,0,-1,1637,1345,0,0
420,-321,0,0,0,0,0,0,0,0,0,-1,1644,1345,0,0
427,-321,0,0,0,0,0,0,0,0,0,-1,1651,1345,0,0
434,-321,0,0,0,0,0,0,0,0,0,-1,1658,1345,0,0
441,-321,0,0,0,0,0,0,0,0,0,-1,1665,1345,0,0
448,-321,0,0,0,0,0,0,0,0,0,-1,1672,1345,0,0
455,-321,0,0,0,0,0,0,0,0,0,-1,1679,1345,0,0
462,-321,0,0,0,0,0,0,0,0,0,-1,1686,1345,0,0
469,-321,0,0,0,0,0,0,0,0,0,-1,1693,1345,0,0
476,-321,0,0,0,0,0,0,0,0,0,-1,1700,1345,0,0
483,-321,0,0,0,0,0,0,0,0,0,-1,1707,1345,0,0
490,-321,0,0,0,0,0,0,0,0,0,-1,1714,1345,0,0
497,-321,0,0,0,0,0,0,0,0,0,-1,1721,1345,0,0
504,-321,0,0,0,0,0,0,0,0,0,-1,1728,1345,0,0
511,-321,0,0,0,0,0,0,0,0,0,-1,1735,1345,0,0
518,-321,0,0,0,0,0,0,0,0,0,-1,1742,1345,0,0
525,-321,0,0,0,0,0,0,0,0,0,-1,1749,1345,0,0
532,-321,0,0,0,0,0,0,0,0,0,-1,1756,1345,0,0
539,-321,0,0,0,0,0,0,0,0,0,-1,1763,1345,0,0
546,-321,0,0,0,0,0,0,0,0,0,-1,1770,1345,0,0
553,-321,0,0,0,0,0,0,0,0,0,-1,1777,1345,0,0
560,-321,0,0,0,0,0,0,0,0,0,-1,1784,1345,0,0
567,-321,0,0,0,0,0,0,0,0,0,-1,1791,1345,0,0
574,-321,0,0,0,0,0,0,0,0,0,-1,1798,1345,0,0
581,-321,66.1073,1.6543,0,0,0,0,0,0,0,-1,1805,1345,66.1073,-1.65427
588,-321,66.6576,0.7948,0,0,0,0,0,0,0,-1,1812,1345,66.6575,-0.794774
595,-321,67.2585,-0.216431,0,0,0,0,0,0,0,-1,1819,1345,67.2586,0.216484
602,-321,60.3523,1.24133,0,0,0,0,0,0,0,-1,1826,1345,60.3523,-1.2413
609,-321,48.311,3.39575,0,0,0,0,0,0,0,-1,1833,1345,48.311,-3.39571
616,-321,37.8107,2.58704,0,0,0,0,0,0,0,-1,1840,1345,37.8106,-2.58705
623,-321,37.6854,3.68933,0,0,0,0,0,0,0,-1,1847,1345,37.6854,-3.68931
630,-321,23.6674,4.34106,0,0,0,0,0,0,0,-1,1854,1345,23.6674,-4.34112
637,-321,21.7925,6.79224,0,0,0,0,0,0,0,-1,1861,1345,21.7925,-6.7922
644,-321,16.8844,6.71973,0,0,0,0,0,0,0,-1,1868,1345,16.8844,-6.71971
651,-321,27.4924,10.0319,0,0,0,0,0,0,0,-1,1875,1345,27.4924,-10.0319
658,-321,45.1246,17.2546,0,0,0,0,0,0,0,-1,1882,1345,45.1247,-17.2547
665,-321,45.1349,16.5488,-0.000216441,0.00225899,-0.000301131,0.0022951,-0.000252547,-1.45147,0.00162082,0.0277339,1889,1345,45.1349,-16.5489
672,-321,45.1162,15.8165,0.00059419,0.000272691,-0.000588661,0.00104366,-0.000176775,-0.65211,0.000761565,0.0143221,1896,1345,45.1162,-15.8166
679,-321,45.0762,15.0674,0.000882108,0.000189672,-0.000519569,0.00116025,-8.84648e-05,-0.491504,0.000804608,0.012468,1903,1345,45.0761,-15.0674
686,-321,45.0203,14.3369,0.001185,0.000283506,-0.000511961,0.00141636,5.21409e-05,-0.42445,0.000927351,0.0130545,1910,1345,45.0203,-14.3369
693,-321,44.9833,13.6079,0.00148178,0.000550863,-0.000555252,0.00174086,0.000291784,-0.436571,0.00107658,0.0130028,1917,1345,44.9833,-13.6079
700,-321,44.969,12.8519,0.00178607,0.000961273,-0.000619041,0.00211751,0.000629842,-0.491561,0.00125554,0.0132485,1924,1345,44.969,-12.852
707,-321,44.9614,12.1251,0.00208475,0.00155726,-0.000726667,0.00259405,0.00104795,-0.611316,0.00150685,0.0154154,1931,1345,44.9614,-12.1252
714,-321,44.9099,11.4094,0.00237422,0.00239929,-0.000894408,0.00328125,0.00149226,-0.792407,0.00189701,0.0145987,1938,1345,44.9099,-11.4095
721,-321,44.8418,10.6958,0.00270932,0.00347864,-0.00111357,0.00427211,0.00191585,-0.951696,0.00247087,0.0414171,1945,1345,44.8418,-10.6957
728,-321,44.8483,10.0322,0,0,0,0,0,0,0,-1,1952,1345,44.8482,-10.0322
735,-321,22.0081,5.65479,0,0,0,0,0,0,0,-1,1959,1345,22.008,-5.65481
742,-321,24.5398,5.05725,0,0,0,0,0,0,0,-1,1966,1345,24.5398,-5.05729
749,-321,24.0675,5.4458,0,0,0,0,0,0,0,-1,1973,1345,24.0675,-5.44581
756,-321,19.6251,4.98315,0,0,0,0,0,0,0,-1,1980,1345,19.6251,-4.98311
763,-321,19.6747,4.61438,0,0,0,0,0,0,0,-1,1987,1345,19.6747,-4.61436
770,-321,0,0,0,0,0,0,0,0,0,-1,1994,1345,0,0
777,-321,0,0,0,0,0,0,0,0,0,-1,2001,1345,0,0
784,-321,0,0,0,0,0,0,0,0,0,-1,2008,1345,0,0
791,-321,0,0,0,0,0,0,0,0,0,-1,2015,1345,0,0
798,-321,0,0,0,0,0,0,0,0,0,-1,2022,1345,0,0
805,-321,0,0,0,0,0,0,0,0,0,-1,2029,1345,0,0
812,-321,0,0,0,0,0,0,0,0,0,-1,2036,1345,0,0
-700,-328,0,0,0,0,0,0,0,0,0,-1,524,1352,0,0
-693,-328,0,0,0,0,0,0,0,0,0,-1,531,1352,0,0
-686,-328,0,0,0,0,0,0,0,0,0,-1,538,1352,0,0
-679,-328,0,0,0,0,0,0,0,0,0,-1,545,1352,0,0
-672,-328,0,0,0,0,0,0,0,0,0,-1,552,1352,0,0
-665,-328,0,0,0,0,0,0,0,0,0,-1,559,1352,0,0
-658,-328,0,0,0,0,0,0,0,0,0,-1,566,1352,0,0
-651,-328,0,0,0,0,0,0,0,0,0,-1,573,1352,0,0
-644,-328,0,0,0,0,0,0,0,0,0,-1,580,1352,0,0
-637,-328,-61.3883,10.1125,0,0,0,0,0,0,0,-1,587,1352,-61.3883,-10.1126
-630,-328,-62.8012,9.14563,0,0,0,0,0,0,0,-1,594,1352,-62.8012,-9.14564
-623,-328,-10.7739,4.55042,0,0,0,0,0,0,0,-1,601,1352,-10.7739,-4.55041
-616,-328,-8.22198,-0.25708,0,0,0,0,0,0,0,-1,608,1352,-8.22201,0.257067
-609,-328,-7.87439,0.192871,0,0,0,0,0,0,0,-1,615,1352,-7.87441,-0.192822
-602,-328,-7.63062,1.31665,0,0,0,0,0,0,0,-1,622,1352,-7.63064,-1.3166
-595,-328,-9.42639,2.93494,0,0,0,0,0,0,0,-1,629,1352,-9.42638,-2.93499
-588,-328,-27.399,9.22046,0,0,0,0,0,0,0,-1,636,1352,-27.399,-9.22048
-581,-328,-27.299,10.2101,0.00444496,0.00457146,0.00272534,0.00723428,0.00178213,0.797,0.00435218,0.0284142,643,1352,-27.299,-10.2101
-574,-328,-27.3301,11.0331,0.00343627,0.00332916,0.00198472,0.00536816,0.00139727,0.771909,0.00321585,0.015586,650,1352,-27.3301,-11.0331
-567,-328,-27.3569,11.8159,0.00296411,0.00235525,0.00151816,0.00420806,0.0011113,0.686447,0.00251805,0.0209948,657,1352,-27.357,-11.816
-560,-328,-27.378,12.6333,0.00286295,0.00156122,0.00129887,0.0036649,0.000759264,0.553134,0.00223362,0.029765,664,1352,-27.378,-12.6333
-553,-328,-27.389,13.3066,0.0030116,0.000885001,0.00123966,0.0035815,0.000315094,0.430915,0.00228988,0.0326248,671,1352,-27.389,-13.3067
-546,-328,-27.4487,14.0615,0.00347468,0.000358163,0.00138094,0.00399853,-0.000165688,0.362572,0.0027226,0.0293347,678,1352,-27.4487,-14.0616
-539,-328,-27.5006,14.8903,0.00420346,-5.47541e-05,0.00168557,0.00478991,-0.000641201,0.334823,0.00342706,0.0242035,685,1352,-27.5006,-14.8902
-532,-328,-27.5046,15.6586,0.00526967,-0.000336619,0.00217407,0.00601395,-0.0010809,0.329837,0.00441393,0.0194249,692,1352,-27.5046,-15.6586
-525,-328,-27.5098,16.4762,0.00655121,-0.00048981,0.00286317,0.00756851,-0.00150711,0.341394,0.00561587,0.0346515,699,1352,-27.5098,-16.4762
-518,-328,-27.6394,17.3442,0,0,0,0,0,0,0,-1,706,1352,-27.6394,-17.3442
-511,-328,-9.39868,7.16113,0,0,0,0,0,0,0,-1,713,1352,-9.39869,-7.16113
-504,-328,-8.60626,-0.905762,0,0,0,0,0,0,0,-1,720,1352,-8.60623,0.905787
-497,-328,-9.29102,-0.0517578,0,0,0,0,0,0,0,-1,727,1352,-9.29104,0.0518175
-490,-328,-10.0663,0.882813,0,0,0,0,0,0,0,-1,734,1352,-10.0663,-0.882795
-483,-328,-10.8181,1.72375,0,0,0,0,0,0,0,-1,741,1352,-10.8181,-1.72374
-476,-328,-16.8951,-0.150757,0,0,0,0,0,0,0,-1,748,1352,-16.8951,0.150795
-469,-328,-16.8412,0.00158691,0,0,0,0,0,0,0,-1,755,1352,-16.8412,-0.00161515
-462,-328,-16.3546,-0.203491,0,0,0,0,0,0,0,-1,762,1352,-16.3545,0.203532
-455,-328,0,0,0,0,0,0,0,0,0,-1,769,1352,0,0
-448,-328,0,0,0,0,0,0,0,0,0,-1,776,1352,0,0
-441,-328,0,0,0,0,0,0,0,0,0,-1,783,1352,0,0
-434,-328,0,0,0,0,0,0,0,0,0,-1,790,1352,0,0
-427,-328,0,0,0,0,0,0,0,0,0,-1,797,1352,0,0
-420,-328,0,0,0,0,0,0,0,0,0,-1,804,1352,0,0
-413,-328,0,0,0,0,0,0,0,0,0,-1,811,1352,0,0
-406,-328,0,0,0,0,0,0,0,0,0,-1,818,1352,0,0
-399,-328,0,0,0,0,0,0,0,0,0,-1,825,1352,0,0
-392,-328,0,0,0,0,0,0,0,0,0,-1,832,1352,0,0
-385,-328,0,0,0,0,0,0,0,0,0,-1,839,1352,0,0
-378,-328,0,0,0,0,0,0,0,0,0,-1,846,1352,0,0
-371,-328,0,0,0,0,0,0,0,0,0,-1,853,1352,0,0
-364,-328,0,0,0,0,0,0,0,0,0,-1,860,1352,0,0
-357,-328,0,0,0,0,0,0,0,0,0,-1,867,1352,0,0
-350,-328,0,0,0,0,0,0,0,0,0,-1,874,1352,0,0
-343,-328,0,0,0,0,0,0,0,0,0,-1,881,1352,0,0
-336,-328,0,0,0,0,0,0,0,0,0,-1,888,1352,0,0
-329,-328,0,0,0,0,0,0,0,0,0,-1,895,1352,0,0
-322,-328,0,0,0,0,0,0,0,0,0,-1,902,1352,0,0
-315,-328,0,0,0,0,0,0,0,0,0,-1,909,1352,0,0
-308,-328,0,0,0,0,0,0,0,0,0,-1,916,1352,0,0
-301,-328,0,0,0,0,0,0,0,0,0,-1,923,1352,0,0
-294,-328,0,0,0,0,0,0,0,0,0,-1,930,1352,0,0
-287,-328,0,0,0,0,0,0,0,0,0,-1,937,1352,0,0
-280,-328,0,0,0,0,0,0,0,0,0,-1,944,1352,0,0
-273,-328,0,0,0,0,0,0,0,0,0,-1,951,1352,0,0
-266,-328,0,0,0,0,0,0,0,0,0,-1,958,1352,0,0
-259,-328,0,0,0,0,0,0,0,0,0,-1,965,1352,0,0
-252,-328,0,0,0,0,0,0,0,0,0,-1,972,1352,0,0
-245,-328,0,0,0,0,0,0,0,0,0,-1,979,1352,0,0
-238,-328,0,0,0,0,0,0,0,0,0,-1,986,1352,0,0
-231,-328,0,0,0,0,0,0,0,0,0,-1,993,1352,0,0
-224,-328,0,0,0,0,0,0,0,0,0,-1,1000,1352,0,0
-217,-328,0,0,0,0,0,0,0,0,0,-1,1007,1352,0,0
-210,-328,0,0,0,0,0,0,0,0,0,-1,1014,1352,0,0
-203,-328,0,0,0,0,0,0,0,0,0,-1,1021,1352,0,0
-196,-328,0,0,0,0,0,0,0,0,0,-1,1028,1352,0,0
-189,-328,0,0,0,0,0,0,0,0,0,-1,1035,1352,0,0
-182,-328,0,0,0,0,0,0,0,0,0,-1,1042,1352,0,0
-175,-328,0,0,0,0,0,0,0,0,0,-1,1049,1352,0,0
-168,-328,0,0,0,0,0,0,0,0,0,-1,1056,1352,0,0
-161,-328,0,0,0,0,0,0,0,0,0,-1,1063,1352,0,0
-154,-328,0,0,0,0,0,0,0,0,0,-1,1070,1352,0,0
-147,-328,0,0,0,0,0,0,0,0,0,-1,1077,1352,0,0
-140,-328,0,0,0,0,0,0,0,0,0,-1,1084,1352,0,0
-133,-328,0,0,0,0,0,0,0,0,0,-1,1091,1352,0,0
-126,-328,0,0,0,0,0,0,0,0,0,-1,1098,1352,0,0
-119,-328,0,0,0,0,0,0,0,0,0,-1,1105,1352,0,0
-112,-328,0,0,0,0,0,0,0,0,0,-1,1112,1352,0,0
-105,-328,0,0,0,0,0,0,0,0,0,-1,1119,1352,0,0
-98,-328,0,0,0,0,0,0,0,0,0,-1,1126,1352,0,0
-91,-328,0,0,0,0,0,0,0,0,0,-1,1133,1352,0,0
-84,-328,0,0,0,0,0,0,0,0,0,-1,1140,1352,0,0
-77,-328,0,0,0,0,0,0,0,0,0,-1,1147,1352,0,0
-70,-328,0,0,0,0,0,0,0,0,0,-1,1154,1352,0,0
-63,-328,0,0,0,0,0,0,0,0,0,-1,1161,1352,0,0
-56,-328,0,0,0,0,0,0,0,0,0,-1,1168,1352,0,0
-49,-328,0,0,0,0,0,0,0,0,0,-1,1175,1352,0,0
-42,-328,0,0,0,0,0,0,0,0,0,-1,1182,1352,0,0
-35,-328,0,0,0,0,0,0,0,0,0,-1,1189,1352,0,0
-28,-328,0,0,0,0,0,0,0,0,0,-1,1196,1352,0,0
-21,-328,0,0,0,0,0,0,0,0,0,-1,1203,1352,0,0
-14,-328,0,0,0,0,0,0,0,0,0,-1,1210,1352,0,0
-7,-328,0,0,0,0,0,0,0,0,0,-1,1217,1352,0,0
0,-328,0,0,0,0,0,0,0,0,0,-1,1224,1352,0,0
7,-328,0,0,0,0,0,0,0,0,0,-1,1231,1352,0,0
14,-328,0,0,0,0,0,0,0,0,0,-1,1238,1352,0,0
21,-328,0,0,0,0,0,0,0,0,0,-1,1245,1352,0,0
28,-328,0,0,0,0,0,0,0,0,0,-1,1252,1352,0,0
35,-328,0,0,0,0,0,0,0,0,0,-1,1259,1352,0,0
42,-328,0,0,0,0,0,0,0,0,0,-1,1266,1352,0,0
49,-328,0,0,0,0,0,0,0,0,0,-1,1273,1352,0,0
56,-328,0,0,0,0,0,0,0,0,0,-1,1280,1352,0,0
63,-328,0,0,0,0,0,0,0,0,0,-1,1287,1352,0,0
70,-328,0,0,0,0,0,0,0,0,0,-1,1294,1352,0,0
77,-328,0,0,0,0,0,0,0,0,0,-1,1301,1352,0,0
84,-328,0,0,0,0,0,0,0,0,0,-1,1308,1352,0,0
91,-328,0,0,0,0,0,0,0,0,0,-1,1315,1352,0,0
98,-328,0,0,0,0,0,0,0,0,0,-1,1322,1352,0,0
105,-328,0,0,0,0,0,0,0,0,0,-1,1329,1352,0,0
112,-328,0,0,0,0,0,0,0,0,0,-1,1336,1352,0,0
119,-328,0,0,0,0,0,0,0,0,0,-1,1343,1352,0,0
126,-328,0,0,0,0,0,0,0,0,0,-1,1350,1352,0,0
133,-328,0,0,0,0,0,0,0,0,0,-1,1357,1352,0,0
140,-328,0,0,0,0,0,0,0,0,0,-1,1364,1352,0,0
147,-328,0,0,0,0,0,0,0,0,0,-1,1371,1352,0,0
154,-328,0,0,0,0,0,0,0,0,0,-1,1378,1352,0,0
161,-328,0,0,0,0,0,0,0,0,0,-1,1385,1352,0,0
168,-328,0,0,0,0,0,0,0,0,0,-1,1392,1352,0,0
175,-328,0,0,0,0,0,0,0,0,0,-1,1399,1352,0,0
182,-328,0,0,0,0,0,0,0,0,0,-1,1406,1352,0,0
189,-328,0,0,0,0,0,0,0,0,0,-1,1413,1352,0,0
196,-328,0,0,0,0,0,0,0,0,0,-1,1420,1352,0,0
203,-328,0,0,0,0,0,0,0,0,0,-1,1427,1352,0,0
210,-328,0,0,0,0,0,0,0,0,0,-1,1434,1352,0,0
217,-328,0,0,0,0,0,0,0,0,0,-1,1441,1352,0,0
224,-328,0,0,0,0,0,0,0,0,0,-1,1448,1352,0,0
231,-328,0,0,0,0,0,0,0,0,0,-1,1455,1352,0,0
238,-328,0,0,0,0,0,0,0,0,0,-1,1462,1352,0,0
245,-328,0,0,0,0,0,0,0,0,0,-1,1469,1352,0,0
252,-328,0,0,0,0,0,0,0,0,0,-1,1476,1352,0,0
259,-328,0,0,0,0,0,0,0,0,0,-1,1483,1352,0,0
266,-328,0,0,0,0,0,0,0,0,0,-1,1490,1352,0,0
273,-328,0,0,0,0,0,0,0,0,0,-1,1497,1352,0,0
280,-328,0,0,0,0,0,0,0,0,0,-1,1504,1352,0,0
287,-328,0,0,0,0,0,0,0,0,0,-1,1511,1352,0,0
294,-328,0,0,0,0,0,0,0,0,0,-1,1518,1352,0,0
301,-328,0,0,0,0,0,0,0,0,0,-1,1525,1352,0,0
308,-328,0,0,0,0,0,0,0,0,0,-1,1532,1352,0,0
315,-328,0,0,0,0,0,0,0,0,0,-1,1539,1352,0,0
322,-328,0,0,0,0,0,0,0,0,0,-1,1546,1352,0,0
329,-328,0,0,0,0,0,0,0,0,0,-1,1553,1352,0,0
336,-328,0,0,0,0,0,0,0,0,0,-1,1560,1352,0,0
343,-328,0,0,0,0,0,0,0,0,0,-1,1567,1352,0,0
350,-328,0,0,0,0,0,0,0,0,0,-1,1574,1352,0,0
357,-328,0,0,0,0,0,0,0,0,0,-1,1581,1352,0,0
364,-328,0,0,0,0,0,0,0,0,0,-1,1588,1352,0,0
371,-328,0,0,0,0,0,0,0,0,0,-1,1595,1352,0,0
378,-328,0,0,0,0,0,0,0,0,0,-1,1602,1352,0,0
385,-328,0,0,0,0,0,0,0,0,0,-1,1609,1352,0,0
392,-328,0,0,0,0,0,0,0,0,0,-1,1616,1352,0,0
399,-328,0,0,0,0,0,0,0,0,0,-1,1623,1352,0,0
406,-328,0,0,0,0,0,0,0,0,0,-1,1630,1352,0,0
413,-328,0,0,0,0,0,0,0,0,0,-1,1637,1352,0,0
420,-328,0,0,0,0,0,0,0,0,0,-1,1644,1352,0,0
427,-328,0,0,0,0,0,0,0,0,0,-1,1651,1352,0,0
434,-328,0,0,0,0,0,0,0,0,0,-1,1658,1352,0,0
441,-328,0,0,0,0,0,0,0,0,0,-1,1665,1352,0,0
448,-328,0,0,0,0,0,0,0,0,0,-1,1672,1352,0,0
455,-328,0,0,0,0,0,0,0,0,0,-1,1679,1352,0,0
462,-328,0,0,0,0,0,0,0,0,0,-1,1686,1352,0,0
469,-328,0,0,0,0,0,0,0,0,0,-1,1693,1352,0,0
476,-328,0,0,0,0,0,0,0,0,0,-1,1700,1352,0,0
483,-328,0,0,0,0,0,0,0,0,0,-1,1707,1352,0,0
490,-328,0,0,0,0,0,0,0,0,0,-1,1714,1352,0,0
497,-328,0,0,0,0,0,0,0,0,0,-1,1721,1352,0,0
504,-328,0,0,0,0,0,0,0,0,0,-1,1728,1352,0,0
511,-328,0,0,0,0,0,0,0,0,0,-1,1735,1352,0,0
518,-328,0,0,0,0,0,0,0,0,0,-1,1742,1352,0,0
525,-328,0,0,0,0,0,0,0,0,0,-1,1749,1352,0,0
532,-328,0,0,0,0,0,0,0,0,0,-1,1756,1352,0,0
539,-328,0,0,0,0,0,0,0,0,0,-1,1763,1352,0,0
546,-328,0,0,0,0,0,0,0,0,0,-1,1770,1352,0,0
553,-328,0,0,0,0,0,0,0,0,0,-1,1777,1352,0,0
560,-328,0,0,0,0,0,0,0,0,0,-1,1784,1352,0,0
567,-328,0,0,0,0,0,0,0,0,0,-1,1791,1352,0,0
574,-328,65.0565,3.09021,0,0,0,0,0,0,0,-1,1798,1352,65.0565,-3.09019
581,-328,66.3988,1.74048,0,0,0,0,0,0,0,-1,1805,1352,66.3989,-1.74051
588,-328,67.0304,0.506714,0,0,0,0,0,0,0,-1,1812,1352,67.0304,-0.506669
595,-328,60.5831,1.52856,0,0,0,0,0,0,0,-1,1819,1352,60.5832,-1.52861
602,-328,48.7734,3.66785,0,0,0,0,0,0,0,-1,1826,1352,48.7734,-3.66782
609,-328,37.0468,1.17407,0,0,0,0,0,0,0,-1,1833,1352,37.0468,-1.17407
616,-328,36.999,2.42859,0,0,0,0,0,0,0,-1,1840,1352,36.999,-2.42862
623,-328,34.345,5.14722,0,0,0,0,0,0,0,-1,1847,1352,34.3449,-5.14718
630,-328,22.0211,5.026,0,0,0,0,0,0,0,-1,1854,1352,22.0212,-5.02603
637,-328,21.15,5.53699,0,0,0,0,0,0,0,-1,1861,1352,21.15,-5.53704
644,-328,16.9579,6.3396,0,0,0,0,0,0,0,-1,1868,1352,16.9579,-6.33959
651,-328,36.2629,14.6906,0,0,0,0,0,0,0,-1,1875,1352,36.263,-14.6905
658,-328,44.423,17.319,0,0,0,0,0,0,0,-1,1882,1352,44.423,-17.3189
665,-328,44.4279,16.5886,-0.000244105,0.00115529,-0.000243854,0.00119657,-0.00028538,-1.40312,0.000907915,0.0149025,1889,1352,44.4279,-16.5886
672,-328,44.3805,15.8622,0.00040108,0.000263514,-0.000437533,0.000775204,-0.00011061,-0.707433,0.000557343,0.0125529,1896,1352,44.3805,-15.8622
679,-328,44.3431,15.1139,0.000856861,0.000217636,-0.00045789,0.00109565,-2.11559e-05,-0.480703,0.000737588,0.0149333,1903,1352,44.3431,-15.1139
686,-328,44.2916,14.3698,0.00131906,0.000343575,-0.000546091,0.00156352,9.91237e-05,-0.420888,0.00101092,0.0153587,1910,1352,44.2916,-14.3698
693,-328,44.2637,13.6508,0.00178046,0.000638272,-0.000694442,0.00210848,0.000310257,-0.441279,0.0013145,0.0106486,1917,1352,44.2637,-13.6508
700,-328,44.2474,12.9025,0.0022549,0.00108961,-0.000881398,0.00272882,0.000615687,-0.493348,0.00165267,0.0146976,1924,1352,44.2474,-12.9025
707,-328,44.2334,12.1654,0.00269763,0.00174718,-0.00111273,0.00343237,0.00101245,-0.583581,0.00203646,0.0165783,1931,1352,44.2334,-12.1653
714,-328,44.1866,11.4281,0.00316025,0.00271896,-0.00144129,0.00439768,0.00148152,-0.709444,0.00258364,0.0168656,1938,1352,44.1866,-11.428
721,-328,44.1361,10.5807,0,0,0,0,0,0,0,-1,1945,1352,44.1361,-10.5807
728,-328,29.2787,6.74695,0,0,0,0,0,0,0,-1,1952,1352,29.2787,-6.74693
735,-328,20.8927,5.23523,0,0,0,0,0,0,0,-1,1959,1352,20.8927,-5.23528
742,-328,20.3547,4.11316,0,0,0,0,0,0,0,-1,1966,1352,20.3547,-4.11321
749,-328,20.0669,5.66321,0,0,0,0,0,0,0,-1,1973,1352,20.0669,-5.66319
756,-328,19.9543,5.50464,0,0,0,0,0,0,0,-1,1980,1352,19.9543,-5.50463
763,-328,0,0,0,0,0,0,0,0,0,-1,1987,1352,0,0
770,-328,0,0,0,0,0,0,0,0,0,-1,1994,1352,0,0
777,-328,0,0,0,0,0,0,0,0,0,-1,2001,1352,0,0
784,-328,0,0,0,0,0,0,0,0,0,-1,2008,1352,0,0
791,-328,0,0,0,0,0,0,0,0,0,-1,2015,1352,0,0
798,-328,0,0,0,0,0,0,0,0,0,-1,2022,1352,0,0
805,-328,0,0,0,0,0,0,0,0,0,-1,2029,1352,0,0
812,-328,0,0,0,0,0,0,0,0,0,-1,2036,1352,0,0
-700,-335,0,0,0,0,0,0,0,0,0,-1,524,1359,0,0
-693,-335,0,0,0,0,0,0,0,0,0,-1,531,1359,0,0
-686,-335,0,0,0,0,0,0,0,0,0,-1,538,1359,0,0
-679,-335,0,0,0,0,0,0,0,0,0,-1,545,1359,0,0
-672,-335,0,0,0,0,0,0,0,0,0,-1,552,1359,0,0
-665,-335,0,0,0,0,0,0,0,0,0,-1,559,1359,0,0
-658,-335,0,0,0,0,0,0,0,0,0,-1,566,1359,0,0
-651,-335,0,0,0,0,0,0,0,0,0,-1,573,1359,0,0
-644,-335,0,0,0,0,0,0,0,0,0,-1,580,1359,0,0
-637,-335,-62.7114,11.0491,0,0,0,0,0,0,0,-1,587,1359,-62.7114,-11.0491
-630,-335,-64.2532,9.91284,0,0,0,0,0,0,0,-1,594,1359,-64.2532,-9.91285
-623,-335,-8.43304,1.09509,0,0,0,0,0,0,0,-1,601,1359,-8.43301,-1.09507
-616,-335,-7.80927,-0.485352,0,0,0,0,0,0,0,-1,608,1359,-7.80926,0.485291
-609,-335,-7.12256,-2.03601,0,0,0,0,0,0,0,-1,615,1359,-7.12253,2.03601
-602,-335,-9.39935,2.25146,0,0,0,0,0,0,0,-1,622,1359,-9.39935,-2.25145
-595,-335,-9.54767,3.01917,0,0,0,0,0,0,0,-1,629,1359,-9.54768,-3.01911
-588,-335,-26.1543,8.95166,0,0,0,0,0,0,0,-1,636,1359,-26.1543,-8.95161
-581,-335,-26.5339,10.2297,0,0,0,0,0,0,0,-1,643,1359,-26.5339,-10.2297
-574,-335,-26.5597,11.0402,0.00331704,0.00366719,0.00209451,0.00559393,0.00139031,0.827095,0.00336305,0.0138386,650,1359,-26.5597,-11.0401
-567,-335,-26.5804,11.8488,0.00287591,0.00266799,0.00161546,0.00439075,0.00115315,0.753265,0.0026285,0.0176516,657,1359,-26.5804,-11.8488
-560,-335,-26.5823,12.5856,0.00276475,0.00185153,0.00138298,0.00376454,0.000851729,0.62595,0.00227946,0.0281635,664,1359,-26.5823,-12.5855
-553,-335,-26.6458,13.3448,0.00289117,0.00117733,0.00131568,0.00360438,0.000464117,0.496749,0.00226413,0.0317316,671,1359,-26.6457,-13.3448
-546,-335,-26.7007,14.1503,0.00324982,0.00063043,0.00140172,0.00385849,2.17578e-05,0.409663,0.00256511,0.02743,678,1359,-26.7007,-14.1503
-539,-335,-26.7239,14.9297,0.00383071,0.000207564,0.00164235,0.00446435,-0.000426083,0.368221,0.00312795,0.0211079,685,1359,-26.7239,-14.9297
-532,-335,-26.7761,15.7172,0.00469344,-7.85952e-05,0.00205345,0.0054554,-0.000840551,0.355313,0.00394706,0.0154262,692,1359,-26.7761,-15.7172
-525,-335,-26.738,16.5055,0.00577077,-0.000221483,0.00264763,0.00677299,-0.0012237,0.361864,0.00497366,0.0131045,699,1359,-26.738,-16.5055
-518,-335,-26.8514,17.2423,0,0,0,0,0,0,0,-1,706,1359,-26.8514,-17.2423
-511,-335,-17.3098,11.6718,0,0,0,0,0,0,0,-1,713,1359,-17.3097,-11.6717
-504,-335,-9.35767,5.99695,0,0,0,0,0,0,0,-1,720,1359,-9.35767,-5.99694
-497,-335,-8.75024,-0.650513,0,0,0,0,0,0,0,-1,727,1359,-8.75024,0.650521
-490,-335,-9.51971,0.417603,0,0,0,0,0,0,0,-1,734,1359,-9.51974,-0.41765
-483,-335,-10.2883,1.29224,0,0,0,0,0,0,0,-1,741,1359,-10.2883,-1.2922
-476,-335,-11.9938,-0.173462,0,0,0,0,0,0,0,-1,748,1359,-11.9938,0.173429
-469,-335,-12.8704,-0.204102,0,0,0,0,0,0,0,-1,755,1359,-12.8704,0.204117
-462,-335,-13.486,0.0218506,0,0,0,0,0,0,0,-1,762,1359,-13.4859,-0.0217908
-455,-335,-14.1504,0.549561,0,0,0,0,0,0,0,-1,769,1359,-14.1504,-0.549583
-448,-335,0,0,0,0,0,0,0,0,0,-1,776,1359,0,0
-441,-335,0,0,0,0,0,0,0,0,0,-1,783,1359,0,0
-434,-335,0,0,0,0,0,0,0,0,0,-1,790,1359,0,0
-427,-335,0,0,0,0,0,0,0,0,0,-1,797,1359,0,0
-420,-335,0,0,0,0,0,0,0,0,0,-1,804,1359,0,0
-413,-335,0,0,0,0,0,0,0,0,0,-1,811,1359,0,0
-406,-335,0,0,0,0,0,0,0,0,0,-1,818,1359,0,0
-399,-335,0,0,0,0,0,0,0,0,0,-1,825,1359,0,0
-392,-335,0,0,0,0,0,0,0,0,0,-1,832,1359,0,0
-385,-335,0,0,0,0,0,0,0,0,0,-1,839,1359,0,0
-378,-335,0,0,0,0,0,0,0,0,0,-1,846,1359,0,0
-371,-335,0,0,0,0,0,0,0,0,0,-1,853,1359,0,0
-364,-335,0,0,0,0,0,0,0,0,0,-1,860,1359,0,0
-357,-335,0,0,0,0,0,0,0,0,0,-1,867,1359,0,0
-350,-335,0,0,0,0,0,0,0,0,0,-1,874,1359,0,0
-343,-335,0,0,0,0,0,0,0,0,0,-1,881,1359,0,0
-336,-335,0,0,0,0,0,0,0,0,0,-1,888,1359,0,0
-329,-335,0,0,0,0,0,0,0,0,0,-1,895,1359,0,0
-322,-335,0,0,0,0,0,0,0,0,0,-1,902,1359,0,0
-315,-335,0,0,0,0,0,0,0,0,0,-1,909,1359,0,0
-308,-335,0,0,0,0,0,0,0,0,0,-1,916,1359,0,0
-301,-335,0,0,0,0,0,0,0,0,0,-1,923,1359,0,0
-294,-335,0,0,0,0,0,0,0,0,0,-1,930,1359,0,0
-287,-335,0,0,0,0,0,0,0,0,0,-1,937,1359,0,0
-280,-335,0,0,0,0,0,0,0,0,0,-1,944,1359,0,0
-273,-335,0,0,0,0,0,0,0,0,0,-1,951,1359,0,0
-266,-335,0,0,0,0,0,0,0,0,0,-1,958,1359,0,0
-259,-335,0,0,0,0,0,0,0,0,0,-1,965,1359,0,0
-252,-335,0,0,0,0,0,0,0,0,0,-1,972,1359,0,0
-245,-335,0,0,0,0,0,0,0,0,0,-1,979,1359,0,0
-238,-335,0,0,0,0,0,0,0,0,0,-1,986,1359,0,0
-231,-335,0,0,0,0,0,0,0,0,0,-1,993,1359,0,0
-224,-335,0,0,0,0,0,0,0,0,0,-1,1000,1359,0,0
-217,-335,0,0,0,0,0,0,0,0,0,-1,1007,1359,0,0
-210,-335,0,0,0,0,0,0,0,0,0,-1,1014,1359,0,0
-203,-335,0,0,0,0,0,0,0,0,0,-1,1021,1359,0,0
-196,-335,0,0,0,0,0,0,0,0,0,-1,1028,1359,0,0
-189,-335,0,0,0,0,0,0,0,0,0,-1,1035,1359,0,0
-182,-335,0,0,0,0,0,0,0,0,0,-1,1042,1359,0,0
-175,-335,0,0,0,0,0,0,0,0,0,-1,1049,1359,0,0
-168,-335,0,0,0,0,0,0,0,0,0,-1,1056,1359,0,0
-161,-335,0,0,0,0,0,0,0,0,0,-1,1063,1359,0,0
-154,-335,0,0,0,0,0,0,0,0,0,-1,1070,1359,0,0
-147,-335,0,0,0,0,0,0,0,0,0,-1,1077,1359,0,0
-140,-335,0,0,0,0,0,0,0,0,0,-1,1084,1359,0,0
-133,-335,0,0,0,0,0,0,0,0,0,-1,1091,1359,0,0
-126,-335,0,0,0,0,0,0,0,0,0,-1,1098,1359,0,0
-119,-335,0,0,0,0,0,0,0,0,0,-1,1105,1359,0,0
-112,-335,0,0,0,0,0,0,0,0,0,-1,1112,1359,0,0
-105,-335,0,0,0,0,0,0,0,0,0,-1,1119,1359,0,0
-98,-335,0,0,0,0,0,0,0,0,0,-1,1126,1359,0,0
-91,-335,0,0,0,0,0,0,0,0,0,-1,1133,1359,0,0
-84,-335,0,0,0,0,0,0,0,0,0,-1,1140,1359,0,0
-77,-335,0,0,0,0,0,0,0,0,0,-1,1147,1359,0,0
-70,-335,0,0,0,0,0,0,0,0,0,-1,1154,1359,0,0
-63,-335,0,0,0,0,0,0,0,0,0,-1,1161,1359,0,0
-56,-335,0,0,0,0,0,0,0,0,0,-1,1168,1359,0,0
-49,-335,0,0,0,0,0,0,0,0,0,-1,1175,1359,0,0
-42,-335,0,0,0,0,0,0,0,0,0,-1,1182,1359,0,0
-35,-335,0,0,0,0,0,0,0,0,0,-1,1189,1359,0,0
-28,-335,0,0,0,0,0,0,0,0,0,-1,1196,1359,0,0
-21,-335,0,0,0,0,0,0,0,0,0,-1,1203,1359,0,0
-14,-335,0,0,0,0,0,0,0,0,0,-1,1210,1359,0,0
-7,-335,0,0,0,0,0,0,0,0,0,-1,1217,1359,0,0
0,-335,0,0,0,0,0,0,0,0,0,-1,1224,1359,0,0
7,-335,0,0,0,0,0,0,0,0,0,-1,1231,1359,0,0
14,-335,0,0,0,0,0,0,0,0,0,-1,1238,1359,0,0
21,-335,0,0,0,0,0,0,0,0,0,-1,1245,1359,0,0
28,-335,0,0,0,0,0,0,0,0,0,-1,1252,1359,0,0
35,-335,0,0,0,0,0,0,0,0,0,-1,1259,1359,0,0
42,-335,0,0,0,0,0,0,0,0,0,-1,1266,1359,0,0
49,-335,0,0,0,0,0,0,0,0,0,-1,1273,1359,0,0
56,-335,0,0,0,0,0,0,0,0,0,-1,1280,1359,0,0
63,-335,0,0,0,0,0,0,0,0,0,-1,1287,1359,0,0
70,-335,0,0,0,0,0,0,0,0,0,-1,1294,1359,0,0
77,-335,0,0,0,0,0,0,0,0,0,-1,1301,1359,0,0
84,-335,0,0,0,0,0,0,0,0,0,-1,1308,1359,0,0
91,-335,0,0,0,0,0,0,0,0,0,-1,1315,1359,0,0
98,-335,0,0,0,0,0,0,0,0,0,-1,1322,1359,0,0
105,-335,0,0,0,0,0,0,0,0,0,-1,1329,1359,0,0
112,-335,0,0,0,0,0,0,0,0,0,-1,1336,1359,0,0
119,-335,0,0,0,0,0,0,0,0,0,-1,1343,1359,0,0
126,-335,0,0,0,0,0,0,0,0,0,-1,1350,1359,0,0
133,-335,0,0,0,0,0,0,0,0,0,-1,1357,1359,0,0
140,-335,0,0,0,0,0,0,0,0,0,-1,1364,1359,0,0
147,-335,0,0,0,0,0,0,0,0,0,-1,1371,1359,0,0
154,-335,0,0,0,0,0,0,0,0,0,-1,1378,1359,0,0
161,-335,0,0,0,0,0,0,0,0,0,-1,1385,1359,0,0
168,-335,0,0,0,0,0,0,0,0,0,-1,1392,1359,0,0
175,-335,0,0,0,0,0,0,0,0,0,-1,1399,1359,0,0
182,-335,0,0,0,0,0,0,0,0,0,-1,1406,1359,0,0
189,-335,0,0,0,0,0,0,0,0,0,-1,1413,1359,0,0
196,-335,0,0,0,0,0,0,0,0,0,-1,1420,1359,0,0
203,-335,0,0,0,0,0,0,0,0,0,-1,1427,1359,0,0
210,-335,0,0,0,0,0,0,0,0,0,-1,1434,1359,0,0
217,-335,0,0,0,0,0,0,0,0,0,-1,1441,1359,0,0
224,-335,0,0,0,0,0,0,0,0,0,-1,1448,1359,0,0
231,-335,0,0,0,0,0,0,0,0,0,-1,1455,1359,0,0
238,-335,0,0,0,0,0,0,0,0,0,-1,1462,1359,0,0
245,-335,0,0,0,0,0,0,0,0,0,-1,1469,1359,0,0
252,-335,0,0,0,0,0,0,0,0,0,-1,1476,1359,0,0
259,-335,0,0,0,0,0,0,0,0,0,-1,1483,1359,0,0
266,-335,0,0,0,0,0,0,0,0,0,-1,1490,1359,0,0
273,-335,0,0,0,0,0,0,0,0,0,-1,1497,1359,0,0
280,-335,0,0,0,0,0,0,0,0,0,-1,1504,1359,0,0
287,-335,0,0,0,0,0,0,0,0,0,-1,1511,1359,0,0
294,-335,0,0,0,0,0,0,0,0,0,-1,1518,1359,0,0
301,-335,0,0,0,0,0,0,0,0,0,-1,1525,1359,0,0
308,-335,0,0,0,0,0,0,0,0,0,-1,1532,1359,0,0
315,-335,0,0,0,0,0,0,0,0,0,-1,1539,1359,0,0
322,-335,0,0,0,0,0,0,0,0,0,-1,1546,1359,0,0
329,-335,0,0,0,0,0,0,0,0,0,-1,1553,1359,0,0
336,-335,0,0,0,0,0,0,0,0,0,-1,1560,1359,0,0
343,-335,0,0,0,0,0,0,0,0,0,-1,1567,1359,0,0
350,-335,0,0,0,0,0,0,0,0,0,-1,1574,1359,0,0
357,-335,0,0,0,0,0,0,0,0,0,-1,1581,1359,0,0
364,-335,0,0,0,0,0,0,0,0,0,-1,1588,1359,0,0
371,-335,0,0,0,0,0,0,0,0,0,-1,1595,1359,0,0
378,-335,0,0,0,0,0,0,0,0,0,-1,1602,1359,0,0
385,-335,0,0,0,0,0,0,0,0,0,-1,1609,1359,0,0
392,-335,0,0,0,0,0,0,0,0,0,-1,1616,1359,0,0
399,-335,0,0,0,0,0,0,0,0,0,-1,1623,1359,0,0
406,-335,0,0,0,0,0,0,0,0,0,-1,1630,1359,0,0
413,-335,0,0,0,0,0,0,0,0,0,-1,1637,1359,0,0
420,-335,0,0,0,0,0,0,0,0,0,-1,1644,1359,0,0
427,-335,0,0,0,0,0,0,0,0,0,-1,1651,1359,0,0
434,-335,0,0,0,0,0,0,0,0,0,-1,1658,1359,0,0
441,-335,0,0,0,0,0,0,0,0,0,-1,1665,1359,0,0
448,-335,0,0,0,0,0,0,0,0,0,-1,1672,1359,0,0
455,-335,0,0,0,0,0,0,0,0,0,-1,1679,1359,0,0
462,-335,0,0,0,0,0,0,0,0,0,-1,1686,1359,0,0
469,-335,0,0,0,0,0,0,0,0,0,-1,1693,1359,0,0
476,-335,0,0,0,0,0,0,0,0,0,-1,1700,1359,0,0
483,-335,0,0,0,0,0,0,0,0,0,-1,1707,1359,0,0
490,-335,0,0,0,0,0,0,0,0,0,-1,1714,1359,0,0
497,-335,0,0,0,0,0,0,0,0,0,-1,1721,1359,0,0
504,-335,0,0,0,0,0,0,0,0,0,-1,1728,1359,0,0
511,-335,0,0,0,0,0,0,0,0,0,-1,1735,1359,0,0
518,-335,0,0,0,0,0,0,0,0,0,-1,1742,1359,0,0
525,-335,0,0,0,0,0,0,0,0,0,-1,1749,1359,0,0
532,-335,0,0,0,0,0,0,0,0,0,-1,1756,1359,0,0
539,-335,0,0,0,0,0,0,0,0,0,-1,1763,1359,0,0
546,-335,0,0,0,0,0,0,0,0,0,-1,1770,1359,0,0
553,-335,0,0,0,0,0,0,0,0,0,-1,1777,1359,0,0
560,-335,0,0,0,0,0,0,0,0,0,-1,1784,1359,0,0
567,-335,0,0,0,0,0,0,0,0,0,-1,1791,1359,0,0
574,-335,65.0712,2.80188,0,0,0,0,0,0,0,-1,1798,1359,65.0712,-2.80193
581,-335,66.5206,1.60327,0,0,0,0,0,0,0,-1,1805,1359,66.5206,-1.60333
588,-335,67.826,0.334961,0,0,0,0,0,0,0,-1,1812,1359,67.8261,-0.335018
595,-335,49.984,3.76465,0,0,0,0,0,0,0,-1,1819,1359,49.984,-3.76467
602,-335,36.5643,0.0861816,0,0,0,0,0,0,0,-1,1826,1359,36.5643,-0.0862283
609,-335,36.2933,0.993896,0,0,0,0,0,0,0,-1,1833,1359,36.2934,-0.993911
616,-335,34.6969,4.82666,0,0,0,0,0,0,0,-1,1840,1359,34.6969,-4.82667
623,-335,26.6051,6.54333,0,0,0,0,0,0,0,-1,1847,1359,26.6051,-6.54339
630,-335,19.1707,1.00952,0,0,0,0,0,0,0,-1,1854,1359,19.1707,-1.00953
637,-335,18.2009,6.65454,0,0,0,0,0,0,0,-1,1861,1359,18.2009,-6.6546
644,-335,28.1042,12.067,0,0,0,0,0,0,0,-1,1868,1359,28.1042,-12.067
651,-335,43.5953,18.2913,0,0,0,0,0,0,0,-1,1875,1359,43.5954,-18.2913
658,-335,43.6831,17.4374,-0.000952529,0.00101794,-0.000440436,0.0011119,-0.00104649,-1.3606,0.00124634,0.0407707,1882,1359,43.6831,-17.4374
665,-335,43.7003,16.639,-0.000255515,0.00050201,-0.000333398,0.000627842,-0.000381347,-1.2099,0.00058842,0.0150989,1889,1359,43.7004,-16.639
672,-335,43.6681,15.884,0.000389805,0.000269683,-0.000371245,0.000705816,-4.63284e-05,-0.705202,0.000486722,0.0179536,1896,1359,43.6681,-15.8841
679,-335,43.6281,15.1608,0.00101754,0.000216994,-0.000459915,0.00122697,7.56118e-06,-0.427313,0.000815471,0.0155834,1903,1359,43.628,-15.1608
686,-335,43.6106,14.4109,0.00165682,0.000327092,-0.000625774,0.00190499,7.89179e-05,-0.377561,0.00124452,0.0133632,1910,1359,43.6106,-14.4109
693,-335,43.5707,13.6812,0.0023088,0.000593974,-0.000860621,0.00266623,0.000236552,-0.393632,0.00170411,0.0115245,1917,1359,43.5707,-13.6811
700,-335,43.5249,12.9714,0.00297965,0.00103084,-0.00115156,0.00351374,0.000496753,-0.434268,0.00219572,0.0121054,1924,1359,43.525,-12.9714
707,-335,43.4728,12.2452,0.00359139,0.00169245,-0.00148686,0.00440608,0.000877767,-0.501248,0.00269291,0.015013,1931,1359,43.4728,-12.2453
714,-335,43.46,11.3873,0.00427183,0.00273409,-0.00196255,0.00561075,0.00139518,-0.598702,0.00337303,0.0356988,1938,1359,43.4599,-11.3873
721,-335,43.3496,10.415,0,0,0,0,0,0,0,-1,1945,1359,43.3497,-10.415
728,-335,20.8126,5.21167,0,0,0,0,0,0,0,-1,1952,1359,20.8127,-5.21172
735,-335,20.2725,5.34729,0,0,0,0,0,0,0,-1,1959,1359,20.2724,-5.34734
742,-335,19.8624,4.72229,0,0,0,0,0,0,0,-1,1966,1359,19.8624,-4.72225
749,-335,20.5887,6.05322,0,0,0,0,0,0,0,-1,1973,1359,20.5887,-6.05322
756,-335,20.7832,6.00452,0,0,0,0,0,0,0,-1,1980,1359,20.7832,-6.00447
763,-335,0,0,0,0,0,0,0,0,0,-1,1987,1359,0,0
770,-335,0,0,0,0,0,0,0,0,0,-1,1994,1359,0,0
777,-335,0,0,0,0,0,0,0,0,0,-1,2001,1359,0,0
784,-335,0,0,0,0,0,0,0,0,0,-1,2008,1359,0,0
791,-335,0,0,0,0,0,0,0,0,0,-1,2015,1359,0,0
798,-335,0,0,0,0,0,0,0,0,0,-1,2022,1359,0,0
805,-335,0,0,0,0,0,0,0,0,0,-1,2029,1359,0,0
812,-335,0,0,0,0,0,0,0,0,0,-1,2036,1359,0,0
-700,-342,0,0,0,0,0,0,0,0,0,-1,524,1366,0,0
-693,-342,0,0,0,0,0,0,0,0,0,-1,531,1366,0,0
-686,-342,0,0,0,0,0,0,0,0,0,-1,538,1366,0,0
-679,-342,0,0,0,0,0,0,0,0,0,-1,545,1366,0,0
-672,-342,0,0,0,0,0,0,0,0,0,-1,552,1366,0,0
-665,-342,0,0,0,0,0,0,0,0,0,-1,559,1366,0,0
-658,-342,0,0,0,0,0,0,0,0,0,-1,566,1366,0,0
-651,-342,0,0,0,0,0,0,0,0,0,-1,573,1366,0,0
-644,-342,0,0,0,0,0,0,0,0,0,-1,580,1366,0,0
-637,-342,-63.7546,12.2344,0,0,0,0,0,0,0,-1,587,1366,-63.7546,-12.2343
-630,-342,-8.60132,2.71777,0,0,0,0,0,0,0,-1,594,1366,-8.60135,-2.71779
-623,-342,-8.41168,0.662476,0,0,0,0,0,0,0,-1,601,1366,-8.41168,-0.662442
-616,-342,-6.625,-1.28015,0,0,0,0,0,0,0,-1,608,1366,-6.62499,1.28011
-609,-342,-7.83154,0.674561,0,0,0,0,0,0,0,-1,615,1366,-7.83155,-0.674598
-602,-342,-9.65765,2.25195,0,0,0,0,0,0,0,-1,622,1366,-9.65767,-2.25192
-595,-342,-9.47687,3.00671,0,0,0,0,0,0,0,-1,629,1366,-9.47686,-3.00668
-588,-342,-9.78467,3.57727,0,0,0,0,0,0,0,-1,636,1366,-9.78468,-3.57723
-581,-342,-25.9092,10.3527,0,0,0,0,0,0,0,-1,643,1366,-25.9092,-10.3527
-574,-342,-25.8279,11.0885,0.00384825,0.00420458,0.00251507,0.00654779,0.00150504,0.820758,0.00396003,0.0175975,650,1366,-25.8279,-11.0885
-567,-342,-25.7839,11.8726,0.00319122,0.00306652,0.00189214,0.00502204,0.0012357,0.768928,0.00302156,0.0180334,657,1366,-25.7839,-11.8726
-560,-342,-25.8444,12.5962,0.00291255,0.00215631,0.00155617,0.00413587,0.000932984,0.666218,0.00250486,0.0289195,664,1366,-25.8443,-12.5962
-553,-342,-25.9332,13.3271,0.00287733,0.00142249,0.00139105,0.00371968,0.000580145,0.544487,0.00231081,0.0319505,671,1366,-25.9332,-13.3271
-546,-342,-25.914,14.0859,0.0030614,0.000841435,0.00138192,0.00372392,0.000178913,0.447049,0.00242518,0.0290423,678,1366,-25.914,-14.0859
-539,-342,-25.954,14.9158,0.00345278,0.000395599,0.00151743,0.00407806,-0.000229687,0.390867,0.00279842,0.0235571,685,1366,-25.9541,-14.9157
-532,-342,-26.008,15.7509,0.00408198,9.89661e-05,0.00180867,0.00478071,-0.000599764,0.368661,0.00340472,0.0178363,692,1366,-26.008,-15.7508
-525,-342,-25.9811,16.5498,0.00491431,-3.89493e-05,0.00226363,0.00579294,-0.000917574,0.370248,0.00420135,0.0135264,699,1366,-25.9811,-16.5498
-518,-342,-25.9193,17.3539,0.00602347,0.000127141,0.00291938,0.00722434,-0.00107372,0.390246,0.00521113,0.0438117,706,1366,-25.9193,-17.3538
-511,-342,-25.8897,18.1128,0,0,0,0,0,0,0,-1,713,1366,-25.8897,-18.1128
-504,-342,-8.95709,6.5719,0,0,0,0,0,0,0,-1,720,1366,-8.95707,-6.57192
-497,-342,-8.26587,-0.943604,0,0,0,0,0,0,0,-1,727,1366,-8.26586,0.943543
-490,-342,-9.07153,-0.0227051,0,0,0,0,0,0,0,-1,734,1366,-9.07155,0.0227087
-483,-342,-9.87726,0.898071,0,0,0,0,0,0,0,-1,741,1366,-9.87724,-0.898125
-476,-342,-11.6371,-0.736328,0,0,0,0,0,0,0,-1,748,1366,-11.6371,0.736281
-469,-342,-12.6245,-0.987549,0,0,0,0,0,0,0,-1,755,1366,-12.6245,0.987553
-462,-342,-13.0912,-0.533203,0,0,0,0,0,0,0,-1,762,1366,-13.0912,0.533224
-455,-342,-13.7612,0.122925,0,0,0,0,0,0,0,-1,769,1366,-13.7612,-0.122896
-448,-342,-14.5278,0.826904,0,0,0,0,0,0,0,-1,776,1366,-14.5277,-0.826861
-441,-342,0,0,0,0,0,0,0,0,0,-1,783,1366,0,0
-434,-342,0,0,0,0,0,0,0,0,0,-1,790,1366,0,0
-427,-342,0,0,0,0,0,0,0,0,0,-1,797,1366,0,0
-420,-342,0,0,0,0,0,0,0,0,0,-1,804,1366,0,0
-413,-342,0,0,0,0,0,0,0,0,0,-1,811,1366,0,0
-406,-342,0,0,0,0,0,0,0,0,0,-1,818,1366,0,0
-399,-342,0,0,0,0,0,0,0,0,0,-1,825,1366,0,0
-392,-342,0,0,0,0,0,0,0,0,0,-1,832,1366,0,0
-385,-342,0,0,0,0,0,0,0,0,0,-1,839,1366,0,0
-378,-342,0,0,0,0,0,0,0,0,0,-1,846,1366,0,0
-371,-342,0,0,0,0,0,0,0,0,0,-1,853,1366,0,0
-364,-342,0,0,0,0,0,0,0,0,0,-1,860,1366,0,0
-357,-342,0,0,0,0,0,0,0,0,0,-1,867,1366,0,0
-350,-342,0,0,0,0,0,0,0,0,0,-1,874,1366,0,0
-343,-342,0,0,0,0,0,0,0,0,0,-1,881,1366,0,0
-336,-342,0,0,0,0,0,0,0,0,0,-1,888,1366,0,0
-329,-342,0,0,0,0,0,0,0,0,0,-1,895,1366,0,0
-322,-342,0,0,0,0,0,0,0,0,0,-1,902,1366,0,0
-315,-342,0,0,0,0,0,0,0,0,0,-1,909,1366,0,0
-308,-342,0,0,0,0,0,0,0,0,0,-1,916,1366,0,0
-301,-342,0,0,0,0,0,0,0,0,0,-1,923,1366,0,0
-294,-342,0,0,0,0,0,0,0,0,0,-1,930,1366,0,0
-287,-342,0,0,0,0,0,0,0,0,0,-1,937,1366,0,0
-280,-342,0,0,0,0,0,0,0,0,0,-1,944,1366,0,0
-273,-342,0,0,0,0,0,0,0,0,0,-1,951,1366,0,0
-266,-342,0,0,0,0,0,0,0,0,0,-1,958,1366,0,0
-259,-342,0,0,0,0,0,0,0,0,0,-1,965,1366,0,0
-252,-342,0,0,0,0,0,0,0,0,0,-1,972,1366,0,0
-245,-342,0,0,0,0,0,0,0,0,0,-1,979,1366,0,0
-238,-342,0,0,0,0,0,0,0,0,0,-1,986,1366,0,0
-231,-342,0,0,0,0,0,0,0,0,0,-1,993,1366,0,0
-224,-342,0,0,0,0,0,0,0,0,0,-1,1000,1366,0,0
-217,-342,0,0,0,0,0,0,0,0,0,-1,1007,1366,0,0
-210,-342,0,0,0,0,0,0,0,0,0,-1,1014,1366,0,0
-203,-342,0,0,0,0,0,0,0,0,0,-1,1021,1366,0,0
-196,-342,0,0,0,0,0,0,0,0,0,-1,1028,1366,0,0
-189,-342,0,0,0,0,0,0,0,0,0,-1,1035,1366,0,0
-182,-342,0,0,0,0,0,0,0,0,0,-1,1042,1366,0,0
-175,-342,0,0,0,0,0,0,0,0,0,-1,1049,1366,0,0
-168,-342,0,0,0,0,0,0,0,0,0,-1,1056,1366,0,0
-161,-342,0,0,0,0,0,0,0,0,0,-1,1063,1366,0,0
-154,-342,0,0,0,0,0,0,0,0,0,-1,1070,1366,0,0
-147,-342,0,0,0,0,0,0,0,0,0,-1,1077,1366,0,0
-140,-342,0,0,0,0,0,0,0,0,0,-1,1084,1366,0,0
-133,-342,0,0,0,0,0,0,0,0,0,-1,1091,1366,0,0
-126,-342,0,0,0,0,0,0,0,0,0,-1,1098,1366,0,0
-119,-342,0,0,0,0,0,0,0,0,0,-1,1105,1366,0,0
-112,-342,0,0,0,0,0,0,0,0,0,-1,1112,1366,0,0
-105,-342,0,0,0,0,0,0,0,0,0,-1,1119,1366,0,0
-98,-342,0,0,0,0,0,0,0,0,0,-1,1126,1366,0,0
-91,-342,0,0,0,0,0,0,0,0,0,-1,1133,1366,0,0
-84,-342,0,0,0,0,0,0,0,0,0,-1,1140,1366,0,0
-77,-342,0,0,0,0,0,0,0,0,0,-1,1147,1366,0,0
-70,-342,0,0,0,0,0,0,0,0,0,-1,1154,1366,0,0
-63,-342,0,0,0,0,0,0,0,0,0,-1,1161,1366,0,0
-56,-342,0,0,0,0,0,0,0,0,0,-1,1168,1366,0,0
-49,-342,0,0,0,0,0,0,0,0,0,-1,1175,1366,0,0
-42,-342,0,0,0,0,0,0,0,0,0,-1,1182,1366,0,0
-35,-342,0,0,0,0,0,0,0,0,0,-1,1189,1366,0,0
-28,-342,0,0,0,0,0,0,0,0,0,-1,1196,1366,0,0
-21,-342,0,0,0,0,0,0,0,0,0,-1,1203,1366,0,0
-14,-342,0,0,0,0,0,0,0,0,0,-1,1210,1366,0,0
-7,-342,0,0,0,0,0,0,0,0,0,-1,1217,1366,0,0
0,-342,0,0,0,0,0,0,0,0,0,-1,1224,1366,0,0
7,-342,0,0,0,0,0,0,0,0,0,-1,1231,1366,0,0
14,-342,0,0,0,0,0,0,0,0,0,-1,1238,1366,0,0
21,-342,0,0,0,0,0,0,0,0,0,-1,1245,1366,0,0
28,-342,0,0,0,0,0,0,0,0,0,-1,1252,1366,0,0
35,-342,0,0,0,0,0,0,0,0,0,-1,1259,1366,0,0
42,-342,0,0,0,0,0,0,0,0,0,-1,1266,1366,0,0
49,-342,0,0,0,0,0,0,0,0,0,-1,1273,1366,0,0
56,-342,0,0,0,0,0,0,0,0,0,-1,1280,1366,0,0
63,-342,0,0,0,0,0,0,0,0,0,-1,1287,1366,0,0
70,-342,0,0,0,0,0,0,0,0,0,-1,1294,1366,0,0
77,-342,0,0,0,0,0,0,0,0,0,-1,1301,1366,0,0
84,-342,0,0,0,0,0,0,0,0,0,-1,1308,1366,0,0
91,-342,0,0,0,0,0,0,0,0,0,-1,1315,1366,0,0
98,-342,0,0,0,0,0,0,0,0,0,-1,1322,1366,0,0
105,-342,0,0,0,0,0,0,0,0,0,-1,1329,1366,0,0
112,-342,0,0,0,0,0,0,0,0,0,-1,1336,1366,0,0
119,-342,0,0,0,0,0,0,0,0,0,-1,1343,1366,0,0
126,-342,0,0,0,0,0,0,0,0,0,-1,1350,1366,0,0
133,-342,0,0,0,0,0,0,0,0,0,-1,1357,1366,0,0
140,-342,0,0,0,0,0,0,0,0,0,-1,1364,1366,0,0
147,-342,0,0,0,0,0,0,0,0,0,-1,1371,1366,0,0
154,-342,0,0,0,0,0,0,0,0,0,-1,1378,1366,0,0
161,-342,0,0,0,0,0,0,0,0,0,-1,1385,1366,0,0
168,-342,0,0,0,0,0,0,0,0,0,-1,1392,1366,0,0
175,-342,0,0,0,0,0,0,0,0,0,-1,1399,1366,0,0
182,-342,0,0,0,0,0,0,0,0,0,-1,1406,1366,0,0
189,-342,0,0,0,0,0,0,0,0,0,-1,1413,1366,0,0
196,-342,0,0,0,0,0,0,0,0,0,-1,1420,1366,0,0
203,-342,0,0,0,0,0,0,0,0,0,-1,1427,1366,0,0
210,-342,0,0,0,0,0,0,0,0,0,-1,1434,1366,0,0
217,-342,0,0,0,0,0,0,0,0,0,-1,1441,1366,0,0
224,-342,0,0,0,0,0,0,0,0,0,-1,1448,1366,0,0
231,-342,0,0,0,0,0,0,0,0,0,-1,1455,1366,0,0
238,-342,0,0,0,0,0,0,0,0,0,-1,1462,1366,0,0
245,-342,0,0,0,0,0,0,0,0,0,-1,1469,1366,0,0
252,-342,0,0,0,0,0,0,0,0,0,-1,1476,1366,0,0
259,-342,0,0,0,0,0,0,0,0,0,-1,1483,1366,0,0
266,-342,0,0,0,0,0,0,0,0,0,-1,1490,1366,0,0
273,-342,0,0,0,0,0,0,0,0,0,-1,1497,1366,0,0
280,-342,0,0,0,0,0,0,0,0,0,-1,1504,1366,0,0
287,-342,0,0,0,0,0,0,0,0,0,-1,1511,1366,0,0
294,-342,0,0,0,0,0,0,0,0,0,-1,1518,1366,0,0
301,-342,0,0,0,0,0,0,0,0,0,-1,1525,1366,0,0
308,-342,0,0,0,0,0,0,0,0,0,-1,1532,1366,0,0
315,-342,0,0,0,0,0,0,0,0,0,-1,1539,1366,0,0
322,-342,0,0,0,0,0,0,0,0,0,-1,1546,1366,0,0
329,-342,0,0,0,0,0,0,0,0,0,-1,1553,1366,0,0
336,-342,0,0,0,0,0,0,0,0,0,-1,1560,1366,0,0
343,-342,0,0,0,0,0,0,0,0,0,-1,1567,1366,0,0
350,-342,0,0,0,0,0,0,0,0,0,-1,1574,1366,0,0
357,-342,0,0,0,0,0,0,0,0,0,-1,1581,1366,0,0
364,-342,0,0,0,0,0,0,0,0,0,-1,1588,1366,0,0
371,-342,0,0,0,0,0,0,0,0,0,-1,1595,1366,0,0
378,-342,0,0,0,0,0,0,0,0,0,-1,1602,1366,0,0
385,-342,0,0,0,0,0,0,0,0,0,-1,1609,1366,0,0
392,-342,0,0,0,0,0,0,0,0,0,-1,1616,1366,0,0
399,-342,0,0,0,0,0,0,0,0,0,-1,1623,1366,0,0
406,-342,0,0,0,0,0,0,0,0,0,-1,1630,1366,0,0
413,-342,0,0,0,0,0,0,0,0,0,-1,1637,1366,0,0
420,-342,0,0,0,0,0,0,0,0,0,-1,1644,1366,0,0
427,-342,0,0,0,0,0,0,0,0,0,-1,1651,1366,0,0
434,-342,0,0,0,0,0,0,0,0,0,-1,1658,1366,0,0
441,-342,0,0,0,0,0,0,0,0,0,-1,1665,1366,0,0
448,-342,0,0,0,0,0,0,0,0,0,-1,1672,1366,0,0
455,-342,0,0,0,0,0,0,0,0,0,-1,1679,1366,0,0
462,-342,0,0,0,0,0,0,0,0,0,-1,1686,1366,0,0
469,-342,0,0,0,0,0,0,0,0,0,-1,1693,1366,0,0
476,-342,0,0,0,0,0,0,0,0,0,-1,1700,1366,0,0
483,-342,0,0,0,0,0,0,0,0,0,-1,1707,1366,0,0
490,-342,0,0,0,0,0,0,0,0,0,-1,1714,1366,0,0
497,-342,0,0,0,0,0,0,0,0,0,-1,1721,1366,0,0
504,-342,0,0,0,0,0,0,0,0,0,-1,1728,1366,0,0
511,-342,0,0,0,0,0,0,0,0,0,-1,1735,1366,0,0
518,-342,0,0,0,0,0,0,0,0,0,-1,1742,1366,0,0
525,-342,0,0,0,0,0,0,0,0,0,-1,1749,1366,0,0
532,-342,0,0,0,0,0,0,0,0,0,-1,1756,1366,0,0
539,-342,0,0,0,0,0,0,0,0,0,-1,1763,1366,0,0
546,-342,0,0,0,0,0,0,0,0,0,-1,1770,1366,0,0
553,-342,0,0,0,0,0,0,0,0,0,-1,1777,1366,0,0
560,-342,0,0,0,0,0,0,0,0,0,-1,1784,1366,0,0
567,-342,64.6937,3.24878,0,0,0,0,0,0,0,-1,1791,1366,64.6938,-3.24881
574,-342,65.4669,2.18384,0,0,0,0,0,0,0,-1,1798,1366,65.4669,-2.18381
581,-342,66.542,1.36292,0,0,0,0,0,0,0,-1,1805,1366,66.542,-1.36295
588,-342,43.9108,7.22559,0,0,0,0,0,0,0,-1,1812,1366,43.9107,-7.22554
595,-342,35.7993,0.709961,0,0,0,0,0,0,0,-1,1819,1366,35.7993,-0.709913
602,-342,36.3618,3.28723,0,0,0,0,0,0,0,-1,1826,1366,36.3619,-3.28719
609,-342,35.3777,4.14978,0,0,0,0,0,0,0,-1,1833,1366,35.3777,-4.14976
616,-342,34.199,5.8158,0,0,0,0,0,0,0,-1,1840,1366,34.199,-5.81579
623,-342,26.0299,6.86865,0,0,0,0,0,0,0,-1,1847,1366,26.0299,-6.86863
630,-342,17.3431,0.773071,0,0,0,0,0,0,0,-1,1854,1366,17.3432,-0.773095
637,-342,16.196,6.76172,0,0,0,0,0,0,0,-1,1861,1366,16.1961,-6.76174
644,-342,31.8916,14.0614,0,0,0,0,0,0,0,-1,1868,1366,31.8916,-14.0613
651,-342,42.9841,18.1884,0,0,0,0,0,0,0,-1,1875,1366,42.9842,-18.1883
658,-342,42.9637,17.4316,-0.00101363,0.00094229,-0.000519779,0.00107184,-0.00114318,-1.32653,0.00127906,0.0222169,1882,1366,42.9637,-17.4317
665,-342,42.9586,16.644,-0.000204703,0.000458943,-0.000368643,0.000623109,-0.000368868,-1.15184,0.000578954,0.0176375,1889,1366,42.9587,-16.644
672,-342,42.9172,15.9421,0.000572526,0.000208425,-0.000353094,0.000787739,-6.78745e-06,-0.547379,0.000527436,0.0145052,1896,1366,42.9172,-15.9421
679,-342,42.8823,15.2294,0.00134978,0.000113096,-0.000417218,0.00147737,-1.44963e-05,-0.296785,0.000989781,0.013541,1903,1366,42.8824,-15.2294
686,-342,42.8972,14.4967,0.00214195,0.000162355,-0.000566872,0.00229278,1.15198e-05,-0.260058,0.0015247,0.0123854,1910,1366,42.8972,-14.4967
693,-342,42.8313,13.7539,0.00295145,0.000349902,-0.000789965,0.00317254,0.000128817,-0.272886,0.00207342,0.0127316,1917,1366,42.8313,-13.7539
700,-342,42.7793,13.0377,0.00378502,0.000718262,-0.00109851,0.0041379,0.000365379,-0.310825,0.00264523,0.0142593,1924,1366,42.7793,-13.0377
707,-342,42.7451,12.2545,0.00450713,0.00131784,-0.00145264,0.00506958,0.000755392,-0.369415,0.00315818,0.0143031,1931,1366,42.7451,-12.2545
714,-342,42.8114,11.3093,0,0,0,0,0,0,0,-1,1938,1366,42.8114,-11.3094
721,-342,22.4666,6.08679,0,0,0,0,0,0,0,-1,1945,1366,22.4666,-6.08678
728,-342,19.8912,5.26636,0,0,0,0,0,0,0,-1,1952,1366,19.8913,-5.26636
735,-342,19.481,4.41968,0,0,0,0,0,0,0,-1,1959,1366,19.4809,-4.41962
742,-342,19.309,2.66943,0,0,0,0,0,0,0,-1,1966,1366,19.3089,-2.66948
749,-342,21.0934,6.47729,0,0,0,0,0,0,0,-1,1973,1366,21.0934,-6.4773
756,-342,0,0,0,0,0,0,0,0,0,-1,1980,1366,0,0
763,-342,0,0,0,0,0,0,0,0,0,-1,1987,1366,0,0
770,-342,0,0,0,0,0,0,0,0,0,-1,1994,1366,0,0
777,-342,0,0,0,0,0,0,0,0,0,-1,2001,1366,0,0
784,-342,0,0,0,0,0,0,0,0,0,-1,2008,1366,0,0
791,-342,0,0,0,0,0,0,0,0,0,-1,2015,1366,0,0
798,-342,0,0,0,0,0,0,0,0,0,-1,2022,1366,0,0
805,-342,0,0,0,0,0,0,0,0,0,-1,2029,1366,0,0
812,-342,0,0,0,0,0,0,0,0,0,-1,2036,1366,0,0
-700,-349,0,0,0,0,0,0,0,0,0,-1,524,1373,0,0
-693,-349,0,0,0,0,0,0,0,0,0,-1,531,1373,0,0
-686,-349,0,0,0,0,0,0,0,0,0,-1,538,1373,0,0
-679,-349,0,0,0,0,0,0,0,0,0,-1,545,1373,0,0
-672,-349,0,0,0,0,0,0,0,0,0,-1,552,1373,0,0
-665,-349,0,0,0,0,0,0,0,0,0,-1,559,1373,0,0
-658,-349,0,0,0,0,0,0,0,0,0,-1,566,1373,0,0
-651,-349,0,0,0,0,0,0,0,0,0,-1,573,1373,0,0
-644,-349,0,0,0,0,0,0,0,0,0,-1,580,1373,0,0
-637,-349,0,0,0,0,0,0,0,0,0,-1,587,1373,0,0
-630,-349,-7.64117,-5.06177,0,0,0,0,0,0,0,-1,594,1373,-7.64118,5.0618
-623,-349,-8.63507,0.51123,0,0,0,0,0,0,0,-1,601,1373,-8.63505,-0.511275
-616,-349,-5.2066,-0.188232,0,0,0,0,0,0,0,-1,608,1373,-5.20659,0.188211
-609,-349,-7.12073,1.37048,0,0,0,0,0,0,0,-1,615,1373,-7.12072,-1.37044
-602,-349,-9.00623,3.39587,0,0,0,0,0,0,0,-1,622,1373,-9.0062,-3.39591
-595,-349,-9.50568,2.96912,0,0,0,0,0,0,0,-1,629,1373,-9.50569,-2.96906
-588,-349,-8.60046,3.56042,0,0,0,0,0,0,0,-1,636,1373,-8.60046,-3.56047
-581,-349,-24.911,10.3347,0,0,0,0,0,0,0,-1,643,1373,-24.911,-10.3348
-574,-349,-24.9966,11.0309,0.00449229,0.00480157,0.00312209,0.00777285,0.00152101,0.810143,0.00475666,0.0427713,650,1373,-24.9967,-11.0309
-567,-349,-25.0576,11.9061,0.00364542,0.00348481,0.00231566,0.00588217,0.00124806,0.768066,0.00357872,0.0191023,657,1373,-25.0576,-11.9061
-560,-349,-25.0889,12.698,0.00321371,0.00245983,0.00184923,0.00472403,0.000949512,0.684857,0.0028854,0.022681,664,1373,-25.0889,-12.698
-553,-349,-25.1297,13.407,0.00302484,0.00165976,0.00156576,0.00405035,0.000634243,0.579858,0.00251562,0.0283347,671,1373,-25.1297,-13.407
-546,-349,-25.1202,14.1411,0.00303299,0.00103138,0.00143605,0.00378257,0.000281798,0.481071,0.00243323,0.0300603,678,1373,-25.1202,-14.1411
-539,-349,-25.184,14.9418,0.00323021,0.000555908,0.00144735,0.00386354,-7.74218e-05,0.412477,0.00260189,0.024229,685,1373,-25.184,-14.9418
-532,-349,-25.2474,15.7979,0.00362494,0.000231823,0.00159884,0.00425961,-0.000402844,0.377878,0.0029831,0.0185245,692,1373,-25.2474,-15.7978
-525,-349,-25.2382,16.589,0.00420452,6.6535e-05,0.00189495,0.00494115,-0.000670103,0.37076,0.00353868,0.0148878,699,1373,-25.2382,-16.589
-518,-349,-25.2607,17.4163,0.00498838,0.000161816,0.00234767,0.00594192,-0.000791722,0.385809,0.00424984,0.0268551,706,1373,-25.2607,-17.4163
-511,-349,-25.2169,18.2728,0,0,0,0,0,0,0,-1,713,1373,-25.2168,-18.2728
-504,-349,-9.60516,7.88831,0,0,0,0,0,0,0,-1,720,1373,-9.60519,-7.88825
-497,-349,-7.9339,5.58789,0,0,0,0,0,0,0,-1,727,1373,-7.93388,-5.58785
-490,-349,-8.73969,-0.503784,0,0,0,0,0,0,0,-1,734,1373,-8.73966,0.503752
-483,-349,-5.66974,3.7395,0,0,0,0,0,0,0,-1,741,1373,-5.66975,-3.73949
-476,-349,-10.8496,1.15759,0,0,0,0,0,0,0,-1,748,1373,-10.8496,-1.15756
-469,-349,-12.3314,-1.74878,0,0,0,0,0,0,0,-1,755,1373,-12.3314,1.74882
-462,-349,-12.6559,-0.995361,0,0,0,0,0,0,0,-1,762,1373,-12.656,0.995351
-455,-349,-13.2897,-0.234253,0,0,0,0,0,0,0,-1,769,1373,-13.2897,0.234261
-448,-349,-14.045,0.712891,0,0,0,0,0,0,0,-1,776,1373,-14.045,-0.712838
-441,-349,0,0,0,0,0,0,0,0,0,-1,783,1373,0,0
-434,-349,0,0,0,0,0,0,0,0,0,-1,790,1373,0,0
-427,-349,0,0,0,0,0,0,0,0,0,-1,797,1373,0,0
-420,-349,0,0,0,0,0,0,0,0,0,-1,804,1373,0,0
-413,-349,0,0,0,0,0,0,0,0,0,-1,811,1373,0,0
-406,-349,0,0,0,0,0,0,0,0,0,-1,818,1373,0,0
-399,-349,0,0,0,0,0,0,0,0,0,-1,825,1373,0,0
-392,-349,0,0,0,0,0,0,0,0,0,-1,832,1373,0,0
-385,-349,0,0,0,0,0,0,0,0,0,-1,839,1373,0,0
-378,-349,0,0,0,0,0,0,0,0,0,-1,846,1373,0,0
-371,-349,0,0,0,0,0,0,0,0,0,-1,853,1373,0,0
-364,-349,0,0,0,0,0,0,0,0,0,-1,860,1373,0,0
-357,-349,0,0,0,0,0,0,0,0,0,-1,867,1373,0,0
-350,-349,0,0,0,0,0,0,0,0,0,-1,874,1373,0,0
-343,-349,0,0,0,0,0,0,0,0,0,-1,881,1373,0,0
-336,-349,0,0,0,0,0,0,0,0,0,-1,888,1373,0,0
-329,-349,0,0,0,0,0,0,0,0,0,-1,895,1373,0,0
-322,-349,0,0,0,0,0,0,0,0,0,-1,902,1373,0,0
-315,-349,0,0,0,0,0,0,0,0,0,-1,909,1373,0,0
-308,-349,0,0,0,0,0,0,0,0,0,-1,916,1373,0,0
-301,-349,0,0,0,0,0,0,0,0,0,-1,923,1373,0,0
-294,-349,0,0,0,0,0,0,0,0,0,-1,930,1373,0,0
-287,-349,0,0,0,0,0,0,0,0,0,-1,937,1373,0,0
-280,-349,0,0,0,0,0,0,0,0,0,-1,944,1373,0,0
-273,-349,0,0,0,0,0,0,0,0,0,-1,951,1373,0,0
-266,-349,0,0,0,0,0,0,0,0,0,-1,958,1373,0,0
-259,-349,0,0,0,0,0,0,0,0,0,-1,965,1373,0,0
-252,-349,0,0,0,0,0,0,0,0,0,-1,972,1373,0,0
-245,-349,0,0,0,0,0,0,0,0,0,-1,979,1373,0,0
-238,-349,0,0,0,0,0,0,0,0,0,-1,986,1373,0,0
-231,-349,0,0,0,0,0,0,0,0,0,-1,993,1373,0,0
-224,-349,0,0,0,0,0,0,0,0,0,-1,1000,1373,0,0
-217,-349,0,0,0,0,0,0,0,0,0,-1,1007,1373,0,0
-210,-349,0,0,0,0,0,0,0,0,0,-1,1014,1373,0,0
-203,-349,0,0,0,0,0,0,0,0,0,-1,1021,1373,0,0
-196,-349,0,0,0,0,0,0,0,0,0,-1,1028,1373,0,0
-189,-349,0,0,0,0,0,0,0,0,0,-1,1035,1373,0,0
-182,-349,0,0,0,0,0,0,0,0,0,-1,1042,1373,0,0
-175,-349,0,0,0,0,0,0,0,0,0,-1,1049,1373,0,0
-168,-349,0,0,0,0,0,0,0,0,0,-1,1056,1373,0,0
-161,-349,0,0,0,0,0,0,0,0,0,-1,1063,1373,0,0
-154,-349,0,0,0,0,0,0,0,0,0,-1,1070,1373,0,0
-147,-349,0,0,0,0,0,0,0,0,0,-1,1077,1373,0,0
-140,-349,0,0,0,0,0,0,0,0,0,-1,1084,1373,0,0
-133,-349,0,0,0,0,0,0,0,0,0,-1,1091,1373,0,0
-126,-349,0,0,0,0,0,0,0,0,0,-1,1098,1373,0,0
-119,-349,0,0,0,0,0,0,0,0,0,-1,1105,1373,0,0
-112,-349,0,0,0,0,0,0,0,0,0,-1,1112,1373,0,0
-105,-349,0,0,0,0,0,0,0,0,0,-1,1119,1373,0,0
-98,-349,0,0,0,0,0,0,0,0,0,-1,1126,1373,0,0
-91,-349,0,0,0,0,0,0,0,0,0,-1,1133,1373,0,0
-84,-349,0,0,0,0,0,0,0,0,0,-1,1140,1373,0,0
-77,-349,0,0,0,0,0,0,0,0,0,-1,1147,1373,0,0
-70,-349,0,0,0,0,0,0,0,0,0,-1,1154,1373,0,0
-63,-349,0,0,0,0,0,0,0,0,0,-1,1161,1373,0,0
-56,-349,0,0,0,0,0,0,0,0,0,-1,1168,1373,0,0
-49,-349,0,0,0,0,0,0,0,0,0,-1,1175,1373,0,0
-42,-349,0,0,0,0,0,0,0,0,0,-1,1182,1373,0,0
-35,-349,0,0,0,0,0,0,0,0,0,-1,1189,1373,0,0
-28,-349,0,0,0,0,0,0,0,0,0,-1,1196,1373,0,0
-21,-349,0,0,0,0,0,0,0,0,0,-1,1203,1373,0,0
-14,-349,0,0,0,0,0,0,0,0,0,-1,1210,1373,0,0
-7,-349,0,0,0,0,0,0,0,0,0,-1,1217,1373,0,0
0,-349,0,0,0,0,0,0,0,0,0,-1,1224,1373,0,0
7,-349,0,0,0,0,0,0,0,0,0,-1,1231,1373,0,0
14,-349,0,0,0,0,0,0,0,0,0,-1,1238,1373,0,0
21,-349,0,0,0,0,0,0,0,0,0,-1,1245,1373,0,0
28,-349,0,0,0,0,0,0,0,0,0,-1,1252,1373,0,0
35,-349,0,0,0,0,0,0,0,0,0,-1,1259,1373,0,0
42,-349,0,0,0,0,0,0,0,0,0,-1,1266,1373,0,0
49,-349,0,0,0,0,0,0,0,0,0,-1,1273,1373,0,0
56,-349,0,0,0,0,0,0,0,0,0,-1,1280,1373,0,0
63,-349,0,0,0,0,0,0,0,0,0,-1,1287,1373,0,0
70,-349,0,0,0,0,0,0,0,0,0,-1,1294,1373,0,0
77,-349,0,0,0,0,0,0,0,0,0,-1,1301,1373,0,0
84,-349,0,0,0,0,0,0,0,0,0,-1,1308,1373,0,0
91,-349,0,0,0,0,0,0,0,0,0,-1,1315,1373,0,0
98,-349,0,0,0,0,0,0,0,0,0,-1,1322,1373,0,0
105,-349,0,0,0,0,0,0,0,0,0,-1,1329,1373,0,0
112,-349,0,0,0,0,0,0,0,0,0,-1,1336,1373,0,0
119,-349,0,0,0,0,0,0,0,0,0,-1,1343,1373,0,0
126,-349,0,0,0,0,0,0,0,0,0,-1,1350,1373,0,0
133,-349,0,0,0,0,0,0,0,0,0,-1,1357,1373,0,0
140,-349,0,0,0,0,0,0,0,0,0,-1,1364,1373,0,0
147,-349,0,0,0,0,0,0,0,0,0,-1,1371,1373,0,0
154,-349,0,0,0,0,0,0,0,0,0,-1,1378,1373,0,0
161,-349,0,0,0,0,0,0,0,0,0,-1,1385,1373,0,0
168,-349,0,0,0,0,0,0,0,0,0,-1,1392,1373,0,0
175,-349,0,0,0,0,0,0,0,0,0,-1,1399,1373,0,0
182,-349,0,0,0,0,0,0,0,0,0,-1,1406,1373,0,0
189,-349,0,0,0,0,0,0,0,0,0,-1,1413,1373,0,0
196,-349,0,0,0,0,0,0,0,0,0,-1,1420,1373,0,0
203,-349,0,0,0,0,0,0,0,0,0,-1,1427,1373,0,0
210,-349,0,0,0,0,0,0,0,0,0,-1,1434,1373,0,0
217,-349,0,0,0,0,0,0,0,0,0,-1,1441,1373,0,0
224,-349,0,0,0,0,0,0,0,0,0,-1,1448,1373,0,0
231,-349,0,0,0,0,0,0,0,0,0,-1,1455,1373,0,0
238,-349,0,0,0,0,0,0,0,0,0,-1,1462,1373,0,0
245,-349,0,0,0,0,0,0,0,0,0,-1,1469,1373,0,0
252,-349,0,0,0,0,0,0,0,0,0,-1,1476,1373,0,0
259,-349,0,0,0,0,0,0,0,0,0,-1,1483,1373,0,0
266,-349,0,0,0,0,0,0,0,0,0,-1,1490,1373,0,0
273,-349,0,0,0,0,0,0,0,0,0,-1,1497,1373,0,0
280,-349,0,0,0,0,0,0,0,0,0,-1,1504,1373,0,0
287,-349,0,0,0,0,0,0,0,0,0,-1,1511,1373,0,0
294,-349,0,0,0,0,0,0,0,0,0,-1,1518,1373,0,0
301,-349,0,0,0,0,0,0,0,0,0,-1,1525,1373,0,0
308,-349,0,0,0,0,0,0,0,0,0,-1,1532,1373,0,0
315,-349,0,0,0,0,0,0,0,0,0,-1,1539,1373,0,0
322,-349,0,0,0,0,0,0,0,0,0,-1,1546,1373,0,0
329,-349,0,0,0,0,0,0,0,0,0,-1,1553,1373,0,0
336,-349,0,0,0,0,0,0,0,0,0,-1,1560,1373,0,0
343,-349,0,0,0,0,0,0,0,0,0,-1,1567,1373,0,0
350,-349,0,0,0,0,0,0,0,0,0,-1,1574,1373,0,0
357,-349,0,0,0,0,0,0,0,0,0,-1,1581,1373,0,0
364,-349,0,0,0,0,0,0,0,0,0,-1,1588,1373,0,0
371,-349,0,0,0,0,0,0,0,0,0,-1,1595,1373,0,0
378,-349,0,0,0,0,0,0,0,0,0,-1,1602,1373,0,0
385,-349,0,0,0,0,0,0,0,0,0,-1,1609,1373,0,0
392,-349,0,0,0,0,0,0,0,0,0,-1,1616,1373,0,0
399,-349,0,0,0,0,0,0,0,0,0,-1,1623,1373,0,0
406,-349,0,0,0,0,0,0,0,0,0,-1,1630,1373,0,0
413,-349,0,0,0,0,0,0,0,0,0,-1,1637,1373,0,0
420,-349,0,0,0,0,0,0,0,0,0,-1,1644,1373,0,0
427,-349,0,0,0,0,0,0,0,0,0,-1,1651,1373,0,0
434,-349,0,0,0,0,0,0,0,0,0,-1,1658,1373,0,0
441,-349,0,0,0,0,0,0,0,0,0,-1,1665,1373,0,0
448,-349,0,0,0,0,0,0,0,0,0,-1,1672,1373,0,0
455,-349,0,0,0,0,0,0,0,0,0,-1,1679,1373,0,0
462,-349,0,0,0,0,0,0,0,0,0,-1,1686,1373,0,0
469,-349,0,0,0,0,0,0,0,0,0,-1,1693,1373,0,0
476,-349,0,0,0,0,0,0,0,0,0,-1,1700,1373,0,0
483,-349,0,0,0,0,0,0,0,0,0,-1,1707,1373,0,0
490,-349,0,0,0,0,0,0,0,0,0,-1,1714,1373,0,0
497,-349,0,0,0,0,0,0,0,0,0,-1,1721,1373,0,0
504,-349,0,0,0,0,0,0,0,0,0,-1,1728,1373,0,0
511,-349,0,0,0,0,0,0,0,0,0,-1,1735,1373,0,0
518,-349,0,0,0,0,0,0,0,0,0,-1,1742,1373,0,0
525,-349,0,0,0,0,0,0,0,0,0,-1,1749,1373,0,0
532,-349,0,0,0,0,0,0,0,0,0,-1,1756,1373,0,0
539,-349,0,0,0,0,0,0,0,0,0,-1,1763,1373,0,0
546,-349,0,0,0,0,0,0,0,0,0,-1,1770,1373,0,0
553,-349,0,0,0,0,0,0,0,0,0,-1,1777,1373,0,0
560,-349,63.5519,3.94397,0,0,0,0,0,0,0,-1,1784,1373,63.5519,-3.94394
567,-349,64.7863,2.54688,0,0,0,0,0,0,0,-1,1791,1373,64.7863,-2.5469
574,-349,65.8214,1.63818,0,0,0,0,0,0,0,-1,1798,1373,65.8214,-1.63813
581,-349,42.8947,6.78381,0,0,0,0,0,0,0,-1,1805,1373,42.8946,-6.78376
588,-349,44.8121,5.06213,0,0,0,0,0,0,0,-1,1812,1373,44.8121,-5.06215
595,-349,44.4338,6.14099,0,0,0,0,0,0,0,-1,1819,1373,44.4338,-6.14095
602,-349,35.6641,3.26465,0,0,0,0,0,0,0,-1,1826,1373,35.6641,-3.26468
609,-349,34.7175,4.401,0,0,0,0,0,0,0,-1,1833,1373,34.7175,-4.40096
616,-349,27.1451,6.68274,0,0,0,0,0,0,0,-1,1840,1373,27.1451,-6.6828
623,-349,18.8478,2.75769,0,0,0,0,0,0,0,-1,1847,1373,18.8478,-2.75774
630,-349,15.4948,6.47644,0,0,0,0,0,0,0,-1,1854,1373,15.4947,-6.4765
637,-349,16.5161,6.92639,0,0,0,0,0,0,0,-1,1861,1373,16.5161,-6.92636
644,-349,42.423,18.9421,0,0,0,0,0,0,0,-1,1868,1373,42.423,-18.9421
651,-349,42.423,18.1702,-0.00166716,0.00125807,-0.000961093,0.00154558,-0.00195467,-1.28012,0.00202547,0.0479334,1875,1373,42.423,-18.1702
658,-349,42.2428,17.4114,-0.000904528,0.000821736,-0.000548038,0.000981024,-0.00106382,-1.28794,0.00118091,0.0273356,1882,1373,42.2428,-17.4114
665,-349,42.1666,16.6775,-5.01003e-05,0.000400805,-0.000354463,0.000595439,-0.000244734,-1.06865,0.000498962,0.0221895,1889,1373,42.1666,-16.6775
672,-349,42.1671,15.9723,0.000807854,0.000147269,-0.000265871,0.000901567,5.35558e-05,-0.338878,0.000584012,0.0161302,1896,1373,42.1671,-15.9723
679,-349,42.1499,15.2578,0.00169525,9.8618e-06,-0.000258173,0.00173391,-2.8799e-05,-0.148643,0.00116566,0.0162133,1903,1373,42.1499,-15.2579
686,-349,42.1959,14.5234,0.0026156,-1.60291e-05,-0.00032978,0.00265629,-5.67257e-05,-0.122785,0.00179007,0.0175944,1910,1373,42.1959,-14.5234
693,-349,42.1027,13.7913,0.00356668,8.28001e-05,-0.000475346,0.00363037,1.91075e-05,-0.133199,0.0024139,0.0192201,1917,1373,42.1027,-13.7913
700,-349,42.0449,13.0957,0.00456746,0.00035934,-0.000732043,0.00469116,0.00023563,-0.16741,0.00305193,0.0175507,1924,1373,42.0449,-13.0957
707,-349,42.1211,12.3182,0.00541806,0.000858582,-0.00103159,0.0056406,0.000636044,-0.212467,0.00356734,0.0363367,1931,1373,42.1211,-12.3182
714,-349,42.212,11.3938,0,0,0,0,0,0,0,-1,1938,1373,42.2121,-11.3938
721,-349,19.6688,5.93604,0,0,0,0,0,0,0,-1,1945,1373,19.6688,-5.93606
728,-349,18.6333,3.73218,0,0,0,0,0,0,0,-1,1952,1373,18.6333,-3.73214
735,-349,18.1918,3.39954,0,0,0,0,0,0,0,-1,1959,1373,18.1918,-3.3995
742,-349,20.7345,2.07483,0,0,0,0,0,0,0,-1,1966,1373,20.7345,-2.07485
749,-349,21.9037,1.45789,0,0,0,0,0,0,0,-1,1973,1373,21.9037,-1.45788
756,-349,0,0,0,0,0,0,0,0,0,-1,1980,1373,0,0
763,-349,0,0,0,0,0,0,0,0,0,-1,1987,1373,0,0
770,-349,0,0,0,0,0,0,0,0,0,-1,1994,1373,0,0
777,-349,0,0,0,0,0,0,0,0,0,-1,2001,1373,0,0
784,-349,0,0,0,0,0,0,0,0,0,-1,2008,1373,0,0
791,-349,0,0,0,0,0,0,0,0,0,-1,2015,1373,0,0
798,-349,0,0,0,0,0,0,0,0,0,-1,2022,1373,0,0
805,-349,0,0,0,0,0,0,0,0,0,-1,2029,1373,0,0
812,-349,0,0,0,0,0,0,0,0,0,-1,2036,1373,0,0
-700,-356,0,0,0,0,0,0,0,0,0,-1,524,1380,0,0
-693,-356,0,0,0,0,0,0,0,0,0,-1,531,1380,0,0
-686,-356,0,0,0,0,0,0,0,0,0,-1,538,1380,0,0
-679,-356,0,0,0,0,0,0,0,0,0,-1,545,1380,0,0
-672,-356,0,0,0,0,0,0,0,0,0,-1,552,1380,0,0
-665,-356,0,0,0,0,0,0,0,0,0,-1,559,1380,0,0
-658,-356,0,0,0,0,0,0,0,0,0,-1,566,1380,0,0
-651,-356,0,0,0,0,0,0,0,0,0,-1,573,1380,0,0
-644,-356,0,0,0,0,0,0,0,0,0,-1,580,1380,0,0
-637,-356,0,0,0,0,0,0,0,0,0,-1,587,1380,0,0
-630,-356,-8.23126,-5.01917,0,0,0,0,0,0,0,-1,594,1380,-8.23124,5.0192
-623,-356,-0.263855,-0.675781,0,0,0,0,0,0,0,-1,601,1380,-0.263835,0.675841
-616,-356,-8.26532,-3.43945,0,0,0,0,0,0,0,-1,608,1380,-8.2653,3.43948
-609,-356,-4.88483,0.734497,0,0,0,0,0,0,0,-1,615,1380,-4.88485,-0.734532
-602,-356,-9.06635,2.4021,0,0,0,0,0,0,0,-1,622,1380,-9.06634,-2.40206
-595,-356,-8.45703,3.61853,0,0,0,0,0,0,0,-1,629,1380,-8.45706,-3.61848
-588,-356,-9.31738,4.14258,0,0,0,0,0,0,0,-1,636,1380,-9.31736,-4.14255
-581,-356,-16.5185,7.32312,0,0,0,0,0,0,0,-1,643,1380,-16.5185,-7.32306
-574,-356,-24.3448,11.0468,0,0,0,0,0,0,0,-1,650,1380,-24.3448,-11.0468
-567,-356,-24.3304,11.8844,0.0040931,0.00397378,0.00280292,0.00683699,0.00122989,0.774757,0.00420837,0.0240526,657,1380,-24.3304,-11.8844
-560,-356,-24.2838,12.7445,0.00349207,0.00280591,0.0021834,0.00535918,0.000938796,0.70747,0.00330461,0.0184026,664,1380,-24.2838,-12.7445
-553,-356,-24.3187,13.5131,0.00314869,0.00192737,0.00176983,0.00441025,0.000665817,0.619274,0.00274527,0.0210013,671,1380,-24.3187,-13.513
-546,-356,-24.387,14.2532,0.00298385,0.00123653,0.00151411,0.00385828,0.000362099,0.523725,0.00246038,0.0234999,678,1380,-24.387,-14.2532
-539,-356,-24.4176,15.0338,0.00300884,0.00071572,0.0014056,0.00367619,4.83601e-05,0.443275,0.00243484,0.0169679,685,1380,-24.4176,-15.0339
-532,-356,-24.4877,15.8529,0.00321465,0.00036177,0.00144044,0.00381542,-0.000239001,0.39514,0.00262691,0.0165982,692,1380,-24.4877,-15.8529
-525,-356,-24.4987,16.6302,0.00359994,0.000159916,0.00161286,0.00423783,-0.000477984,0.376629,0.00299728,0.0144372,699,1380,-24.4986,-16.6303
-518,-356,-24.5166,17.3944,0.00416461,0.000181878,0.00193123,0.00494726,-0.000600777,0.385035,0.00351559,0.0149081,706,1380,-24.5166,-17.3944
-511,-356,-24.5174,18.1757,0,0,0,0,0,0,0,-1,713,1380,-24.5174,-18.1756
-504,-356,-14.3925,12.3971,0,0,0,0,0,0,0,-1,720,1380,-14.3925,-12.3971
-497,-356,-5.68604,4.96387,0,0,0,0,0,0,0,-1,727,1380,-5.68605,-4.96385
-490,-356,-7.95288,5.5625,0,0,0,0,0,0,0,-1,734,1380,-7.95285,-5.56246
-483,-356,-7.2627,4.07446,0,0,0,0,0,0,0,-1,741,1380,-7.2627,-4.07441
-476,-356,-5.1936,4.16016,0,0,0,0,0,0,0,-1,748,1380,-5.1936,-4.16012
-469,-356,-10.0883,0.536011,0,0,0,0,0,0,0,-1,755,1380,-10.0883,-0.535989
-462,-356,-12.3481,-0.215698,0,0,0,0,0,0,0,-1,762,1380,-12.3481,0.215641
-455,-356,-13.1367,-0.264648,0,0,0,0,0,0,0,-1,769,1380,-13.1367,0.264647
-448,-356,-13.9116,-0.310181,0,0,0,0,0,0,0,-1,776,1380,-13.9115,0.310207
-441,-356,-13.1602,3.05603,0,0,0,0,0,0,0,-1,783,1380,-13.1602,-3.05609
-434,-356,0,0,0,0,0,0,0,0,0,-1,790,1380,0,0
-427,-356,0,0,0,0,0,0,0,0,0,-1,797,1380,0,0
-420,-356,0,0,0,0,0,0,0,0,0,-1,804,1380,0,0
-413,-356,0,0,0,0,0,0,0,0,0,-1,811,1380,0,0
-406,-356,0,0,0,0,0,0,0,0,0,-1,818,1380,0,0
-399,-356,0,0,0,0,0,0,0,0,0,-1,825,1380,0,0
-392,-356,0,0,0,0,0,0,0,0,0,-1,832,1380,0,0
-385,-356,0,0,0,0,0,0,0,0,0,-1,839,1380,0,0
-378,-356,0,0,0,0,0,0,0,0,0,-1,846,1380,0,0
-371,-356,0,0,0,0,0,0,0,0,0,-1,853,1380,0,0
-364,-356,0,0,0,0,0,0,0,0,0,-1,860,1380,0,0
-357,-356,0,0,0,0,0,0,0,0,0,-1,867,1380,0,0
-350,-356,0,0,0,0,0,0,0,0,0,-1,874,1380,0,0
-343,-356,0,0,0,0,0,0,0,0,0,-1,881,1380,0,0
-336,-356,0,0,0,0,0,0,0,0,0,-1,888,1380,0,0
-329,-356,0,0,0,0,0,0,0,0,0,-1,895,1380,0,0
-322,-356,0,0,0,0,0,0,0,0,0,-1,902,1380,0,0
-315,-356,0,0,0,0,0,0,0,0,0,-1,909,1380,0,0
-308,-356,0,0,0,0,0,0,0,0,0,-1,916,1380,0,0
-301,-356,0,0,0,0,0,0,0,0,0,-1,923,1380,0,0
-294,-356,0,0,0,0,0,0,0,0,0,-1,930,1380,0,0
-287,-356,0,0,0,0,0,0,0,0,0,-1,937,1380,0,0
-280,-356,0,0,0,0,0,0,0,0,0,-1,944,1380,0,0
-273,-356,0,0,0,0,0,0,0,0,0,-1,951,1380,0,0
-266,-356,0,0,0,0,0,0,0,0,0,-1,958,1380,0,0
-259,-356,0,0,0,0,0,0,0,0,0,-1,965,1380,0,0
-252,-356,0,0,0,0,0,0,0,0,0,-1,972,1380,0,0
-245,-356,0,0,0,0,0,0,0,0,0,-1,979,1380,0,0
-238,-356,0,0,0,0,0,0,0,0,0,-1,986,1380,0,0
-231,-356,0,0,0,0,0,0,0,0,0,-1,993,1380,0,0
-224,-356,0,0,0,0,0,0,0,0,0,-1,1000,1380,0,0
-217,-356,0,0,0,0,0,0,0,0,0,-1,1007,1380,0,0
-210,-356,0,0,0,0,0,0,0,0,0,-1,1014,1380,0,0
-203,-356,0,0,0,0,0,0,0,0,0,-1,1021,1380,0,0
-196,-356,0,0,0,0,0,0,0,0,0,-1,1028,1380,0,0
-189,-356,0,0,0,0,0,0,0,0,0,-1,1035,1380,0,0
-182,-356,0,0,0,0,0,0,0,0,0,-1,1042,1380,0,0
-175,-356,0,0,0,0,0,0,0,0,0,-1,1049,1380,0,0
-168,-356,0,0,0,0,0,0,0,0,0,-1,1056,1380,0,0
-161,-356,0,0,0,0,0,0,0,0,0,-1,1063,1380,0,0
-154,-356,0,0,0,0,0,0,0,0,0,-1,1070,1380,0,0
-147,-356,0,0,0,0,0,0,0,0,0,-1,1077,1380,0,0
-140,-356,0,0,0,0,0,0,0,0,0,-1,1084,1380,0,0
-133,-356,0,0,0,0,0,0,0,0,0,-1,1091,1380,0,0
-126,-356,0,0,0,0,0,0,0,0,0,-1,1098,1380,0,0
-119,-356,0,0,0,0,0,0,0,0,0,-1,1105,1380,0,0
-112,-356,0,0,0,0,0,0,0,0,0,-1,1112,1380,0,0
-105,-356,0,0,0,0,0,0,0,0,0,-1,1119,1380,0,0
-98,-356,0,0,0,0,0,0,0,0,0,-1,1126,1380,0,0
-91,-356,0,0,0,0,0,0,0,0,0,-1,1133,1380,0,0
-84,-356,0,0,0,0,0,0,0,0,0,-1,1140,1380,0,0
-77,-356,0,0,0,0,0,0,0,0,0,-1,1147,1380,0,0
-70,-356,0,0,0,0,0,0,0,0,0,-1,1154,1380,0,0
-63,-356,0,0,0,0,0,0,0,0,0,-1,1161,1380,0,0
-56,-356,0,0,0,0,0,0,0,0,0,-1,1168,1380,0,0
-49,-356,0,0,0,0,0,0,0,0,0,-1,1175,1380,0,0
-42,-356,0,0,0,0,0,0,0,0,0,-1,1182,1380,0,0
-35,-356,0,0,0,0,0,0,0,0,0,-1,1189,1380,0,0
-28,-356,0,0,0,0,0,0,0,0,0,-1,1196,1380,0,0
-21,-356,0,0,0,0,0,0,0,0,0,-1,1203,1380,0,0
-14,-356,0,0,0,0,0,0,0,0,0,-1,1210,1380,0,0
-7,-356,0,0,0,0,0,0,0,0,0,-1,1217,1380,0,0
0,-356,0,0,0,0,0,0,0,0,0,-1,1224,1380,0,0
7,-356,0,0,0,0,0,0,0,0,0,-1,1231,1380,0,0
14,-356,0,0,0,0,0,0,0,0,0,-1,1238,1380,0,0
21,-356,0,0,0,0,0,0,0,0,0,-1,1245,1380,0,0
28,-356,0,0,0,0,0,0,0,0,0,-1,1252,1380,0,0
35,-356,0,0,0,0,0,0,0,0,0,-1,1259,1380,0,0
42,-356,0,0,0,0,0,0,0,0,0,-1,1266,1380,0,0
49,-356,0,0,0,0,0,0,0,0,0,-1,1273,1380,0,0
56,-356,0,0,0,0,0,0,0,0,0,-1,1280,1380,0,0
63,-356,0,0,0,0,0,0,0,0,0,-1,1287,1380,0,0
70,-356,0,0,0,0,0,0,0,0,0,-1,1294,1380,0,0
77,-356,0,0,0,0,0,0,0,0,0,-1,1301,1380,0,0
84,-356,0,0,0,0,0,0,0,0,0,-1,1308,1380,0,0
91,-356,0,0,0,0,0,0,0,0,0,-1,1315,1380,0,0
98,-356,0,0,0,0,0,0,0,0,0,-1,1322,1380,0,0
105,-356,0,0,0,0,0,0,0,0,0,-1,1329,1380,0,0
112,-356,0,0,0,0,0,0,0,0,0,-1,1336,1380,0,0
119,-356,0,0,0,0,0,0,0,0,0,-1,1343,1380,0,0
126,-356,0,0,0,0,0,0,0,0,0,-1,1350,1380,0,0
133,-356,0,0,0,0,0,0,0,0,0,-1,1357,1380,0,0
140,-356,0,0,0,0,0,0,0,0,0,-1,1364,1380,0,0
147,-356,0,0,0,0,0,0,0,0,0,-1,1371,1380,0,0
154,-356,0,0,0,0,0,0,0,0,0,-1,1378,1380,0,0
161,-356,0,0,0,0,0,0,0,0,0,-1,1385,1380,0,0
168,-356,0,0,0,0,0,0,0,0,0,-1,1392,1380,0,0
175,-356,0,0,0,0,0,0,0,0,0,-1,1399,1380,0,0
182,-356,0,0,0,0,0,0,0,0,0,-1,1406,1380,0,0
189,-356,0,0,0,0,0,0,0,0,0,-1,1413,1380,0,0
196,-356,0,0,0,0,0,0,0,0,0,-1,1420,1380,0,0
203,-356,0,0,0,0,0,0,0,0,0,-1,1427,1380,0,0
210,-356,0,0,0,0,0,0,0,0,0,-1,1434,1380,0,0
217,-356,0,0,0,0,0,0,0,0,0,-1,1441,1380,0,0
224,-356,0,0,0,0,0,0,0,0,0,-1,1448,1380,0,0
231,-356,0,0,0,0,0,0,0,0,0,-1,1455,1380,0,0
238,-356,0,0,0,0,0,0,0,0,0,-1,1462,1380,0,0
245,-356,0,0,0,0,0,0,0,0,0,-1,1469,1380,0,0
252,-356,0,0,0,0,0,0,0,0,0,-1,1476,1380,0,0
259,-356,0,0,0,0,0,0,0,0,0,-1,1483,1380,0,0
266,-356,0,0,0,0,0,0,0,0,0,-1,1490,1380,0,0
273,-356,0,0,0,0,0,0,0,0,0,-1,1497,1380,0,0
280,-356,0,0,0,0,0,0,0,0,0,-1,1504,1380,0,0
287,-356,0,0,0,0,0,0,0,0,0,-1,1511,1380,0,0
294,-356,0,0,0,0,0,0,0,0,0,-1,1518,1380,0,0
301,-356,0,0,0,0,0,0,0,0,0,-1,1525,1380,0,0
308,-356,0,0,0,0,0,0,0,0,0,-1,1532,1380,0,0
315,-356,0,0,0,0,0,0,0,0,0,-1,1539,1380,0,0
322,-356,0,0,0,0,0,0,0,0,0,-1,1546,1380,0,0
329,-356,0,0,0,0,0,0,0,0,0,-1,1553,1380,0,0
336,-356,0,0,0,0,0,0,0,0,0,-1,1560,1380,0,0
343,-356,0,0,0,0,0,0,0,0,0,-1,1567,1380,0,0
350,-356,0,0,0,0,0,0,0,0,0,-1,1574,1380,0,0
357,-356,0,0,0,0,0,0,0,0,0,-1,1581,1380,0,0
364,-356,0,0,0,0,0,0,0,0,0,-1,1588,1380,0,0
371,-356,0,0,0,0,0,0,0,0,0,-1,1595,1380,0,0
378,-356,0,0,0,0,0,0,0,0,0,-1,1602,1380,0,0
385,-356,0,0,0,0,0,0,0,0,0,-1,1609,1380,0,0
392,-356,0,0,0,0,0,0,0,0,0,-1,1616,1380,0,0
399,-356,0,0,0,0,0,0,0,0,0,-1,1623,1380,0,0
406,-356,0,0,0,0,0,0,0,0,0,-1,1630,1380,0,0
413,-356,0,0,0,0,0,0,0,0,0,-1,1637,1380,0,0
420,-356,0,0,0,0,0,0,0,0,0,-1,1644,1380,0,0
427,-356,0,0,0,0,0,0,0,0,0,-1,1651,1380,0,0
434,-356,0,0,0,0,0,0,0,0,0,-1,1658,1380,0,0
441,-356,0,0,0,0,0,0,0,0,0,-1,1665,1380,0,0
448,-356,0,0,0,0,0,0,0,0,0,-1,1672,1380,0,0
455,-356,0,0,0,0,0,0,0,0,0,-1,1679,1380,0,0
462,-356,0,0,0,0,0,0,0,0,0,-1,1686,1380,0,0
469,-356,0,0,0,0,0,0,0,0,0,-1,1693,1380,0,0
476,-356,0,0,0,0,0,0,0,0,0,-1,1700,1380,0,0
483,-356,0,0,0,0,0,0,0,0,0,-1,1707,1380,0,0
490,-356,0,0,0,0,0,0,0,0,0,-1,1714,1380,0,0
497,-356,0,0,0,0,0,0,0,0,0,-1,1721,1380,0,0
504,-356,0,0,0,0,0,0,0,0,0,-1,1728,1380,0,0
511,-356,0,0,0,0,0,0,0,0,0,-1,1735,1380,0,0
518,-356,0,0,0,0,0,0,0,0,0,-1,1742,1380,0,0
525,-356,0,0,0,0,0,0,0,0,0,-1,1749,1380,0,0
532,-356,0,0,0,0,0,0,0,0,0,-1,1756,1380,0,0
539,-356,0,0,0,0,0,0,0,0,0,-1,1763,1380,0,0
546,-356,0,0,0,0,0,0,0,0,0,-1,1770,1380,0,0
553,-356,0,0,0,0,0,0,0,0,0,-1,1777,1380,0,0
560,-356,63.6171,3.12183,0,0,0,0,0,0,0,-1,1784,1380,63.617,-3.12183
567,-356,65.0425,1.89966,0,0,0,0,0,0,0,-1,1791,1380,65.0424,-1.8996
574,-356,45.5742,3.39575,0,0,0,0,0,0,0,-1,1798,1380,45.5742,-3.39574
581,-356,45.6708,3.64172,0,0,0,0,0,0,0,-1,1805,1380,45.6707,-3.64175
588,-356,44.4739,4.87085,0,0,0,0,0,0,0,-1,1812,1380,44.4739,-4.87086
595,-356,32.0834,5.86084,0,0,0,0,0,0,0,-1,1819,1380,32.0834,-5.86079
602,-356,30.1604,6.07104,0,0,0,0,0,0,0,-1,1826,1380,30.1604,-6.07104
609,-356,28.3435,6.48901,0,0,0,0,0,0,0,-1,1833,1380,28.3435,-6.48899
616,-356,26.9358,6.80872,0,0,0,0,0,0,0,-1,1840,1380,26.9358,-6.80877
623,-356,16.1803,1.07532,0,0,0,0,0,0,0,-1,1847,1380,16.1803,-1.07529
630,-356,16.4138,6.91553,0,0,0,0,0,0,0,-1,1854,1380,16.4138,-6.9155
637,-356,24.8021,12.0151,0,0,0,0,0,0,0,-1,1861,1380,24.8022,-12.0151
644,-356,41.6449,19.0248,0,0,0,0,0,0,0,-1,1868,1380,41.6449,-19.0248
651,-356,41.5944,18.1952,-0.00145221,0.0010433,-0.000849632,0.00130511,-0.00171401,-1.27189,0.00174841,0.0214011,1875,1380,41.5944,-18.1952
658,-356,41.4985,17.4067,-0.000662308,0.000667355,-0.000473366,0.000818658,-0.000813611,-1.26143,0.000942393,0.0152349,1882,1380,41.4985,-17.4067
665,-356,41.4653,16.7272,0.000245027,0.000313458,-0.000270556,0.000551953,6.53183e-06,-0.848296,0.000365811,0.0148793,1889,1380,41.4654,-16.7272
672,-356,41.4437,16.0337,0.00120322,7.12263e-05,-0.00015248,0.0012234,5.1047e-05,-0.131577,0.000799126,0.0159542,1896,1380,41.4438,-16.0337
679,-356,41.446,15.298,0.00222165,-9.56785e-05,-0.000110147,0.00222688,-0.000100902,-0.0473895,0.00151933,0.019157,1903,1380,41.4461,-15.2979
686,-356,41.4053,14.5253,0.00330618,-0.000168065,-0.000149592,0.00331261,-0.000174494,-0.0429515,0.00226881,0.0200018,1910,1380,41.4053,-14.5253
693,-356,41.3535,13.8143,0.00444329,-0.000131899,-0.000263584,0.00445842,-0.000147034,-0.0573587,0.00302249,0.0165998,1917,1380,41.3535,-13.8144
700,-356,41.3636,13.1042,0.00566913,8.38022e-05,-0.00051587,0.00571638,3.65553e-05,-0.091332,0.00379879,0.0231828,1924,1380,41.3637,-13.1042
707,-356,41.4728,12.3879,0,0,0,0,0,0,0,-1,1931,1380,41.4728,-12.388
714,-356,19.6907,5.82129,0,0,0,0,0,0,0,-1,1938,1380,19.6907,-5.82132
721,-356,17.2948,4.1958,0,0,0,0,0,0,0,-1,1945,1380,17.2948,-4.19584
728,-356,19.1846,2.31519,0,0,0,0,0,0,0,-1,1952,1380,19.1846,-2.31514
735,-356,20.0731,2.50842,0,0,0,0,0,0,0,-1,1959,1380,20.0731,-2.50844
742,-356,21.0111,2.43762,0,0,0,0,0,0,0,-1,1966,1380,21.0112,-2.43762
749,-356,22.1411,1.83276,0,0,0,0,0,0,0,-1,1973,1380,22.1411,-1.83275
756,-356,0,0,0,0,0,0,0,0,0,-1,1980,1380,0,0
763,-356,0,0,0,0,0,0,0,0,0,-1,1987,1380,0,0
770,-356,0,0,0,0,0,0,0,0,0,-1,1994,1380,0,0
777,-356,0,0,0,0,0,0,0,0,0,-1,2001,1380,0,0
784,-356,0,0,0,0,0,0,0,0,0,-1,2008,1380,0,0
791,-356,0,0,0,0,0,0,0,0,0,-1,2015,1380,0,0
798,-356,0,0,0,0,0,0,0,0,0,-1,2022,1380,0,0
805,-356,0,0,0,0,0,0,0,0,0,-1,2029,1380,0,0
812,-356,0,0,0,0,0,0,0,0,0,-1,2036,1380,0,0
-700,-363,0,0,0,0,0,0,0,0,0,-1,524,1387,0,0
-693,-363,0,0,0,0,0,0,0,0,0,-1,531,1387,0,0
-686,-363,0,0,0,0,0,0,0,0,0,-1,538,1387,0,0
-679,-363,0,0,0,0,0,0,0,0,0,-1,545,1387,0,0
-672,-363,0,0,0,0,0,0,0,0,0,-1,552,1387,0,0
-665,-363,0,0,0,0,0,0,0,0,0,-1,559,1387,0,0
-658,-363,0,0,0,0,0,0,0,0,0,-1,566,1387,0,0
-651,-363,0,0,0,0,0,0,0,0,0,-1,573,1387,0,0
-644,-363,0,0,0,0,0,0,0,0,0,-1,580,1387,0,0
-637,-363,0,0,0,0,0,0,0,0,0,-1,587,1387,0,0
-630,-363,0,0,0,0,0,0,0,0,0,-1,594,1387,0,0
-623,-363,-9.67566,-5.91846,0,0,0,0,0,0,0,-1,601,1387,-9.67563,5.91847
-616,-363,-9.02985,-2.98083,0,0,0,0,0,0,0,-1,608,1387,-9.02987,2.98079
-609,-363,-4.90265,0.195679,0,0,0,0,0,0,0,-1,615,1387,-4.90263,-0.195721
-602,-363,-9.65009,3.5321,0,0,0,0,0,0,0,-1,622,1387,-9.65007,-3.53211
-595,-363,-8.00256,3.48853,0,0,0,0,0,0,0,-1,629,1387,-8.00256,-3.48855
-588,-363,-10.8846,4.49768,0,0,0,0,0,0,0,-1,636,1387,-10.8846,-4.49773
-581,-363,-11.7469,5.15161,0,0,0,0,0,0,0,-1,643,1387,-11.747,-5.15167
-574,-363,-17.8334,8.33801,0,0,0,0,0,0,0,-1,650,1387,-17.8334,-8.33804
-567,-363,-23.6113,11.9261,0,0,0,0,0,0,0,-1,657,1387,-23.6114,-11.9261
-560,-363,-23.534,12.7357,0.00382408,0.00315508,0.00261362,0.00612452,0.000854644,0.721752,0.00383005,0.0149261,664,1387,-23.534,-12.7357
-553,-363,-23.5499,13.5437,0.00333595,0.00220697,0.00205856,0.00490601,0.000636911,0.65158,0.00308039,0.0137314,671,1387,-23.55,-13.5437
-546,-363,-23.6067,14.3022,0.0030208,0.00145638,0.00167294,0.00408537,0.000391809,0.566715,0.00260283,0.0137195,678,1387,-23.6067,-14.3023
-539,-363,-23.6293,15.092,0.00289789,0.000889332,0.00143999,0.00364921,0.000138009,0.480902,0.00238813,0.016092,685,1387,-23.6293,-15.0921
-532,-363,-23.7042,15.877,0.00295404,0.000499224,0.00135185,0.00355256,-9.9301e-05,0.416804,0.00240216,0.01457,692,1387,-23.7043,-15.8769
-525,-363,-23.7334,16.6426,0.00318207,0.000252326,0.00139392,0.00373929,-0.000304893,0.380292,0.00260045,0.0128525,699,1387,-23.7334,-16.6426
-518,-363,-23.7348,17.4242,0.00356558,0.000192441,0.0015682,0.00418201,-0.000423983,0.374523,0.00293954,0.0116153,706,1387,-23.7348,-17.4242
-511,-363,-23.7078,18.2362,0.00415842,0.000296827,0.00192171,0.00495177,-0.000496515,0.391519,0.00347851,0.0317521,713,1387,-23.7079,-18.2362
-504,-363,-23.6561,19.0765,0,0,0,0,0,0,0,-1,720,1387,-23.6561,-19.0766
-497,-363,-7.18842,7.29944,0,0,0,0,0,0,0,-1,727,1387,-7.18839,-7.29945
-490,-363,-5.42413,4.6958,0,0,0,0,0,0,0,-1,734,1387,-5.42412,-4.69583
-483,-363,-6.28375,4.1394,0,0,0,0,0,0,0,-1,741,1387,-6.28374,-4.13944
-476,-363,-5.83807,4.31018,0,0,0,0,0,0,0,-1,748,1387,-5.8381,-4.31013
-469,-363,-10.7125,0.697754,0,0,0,0,0,0,0,-1,755,1387,-10.7125,-0.697811
-462,-363,-9.55951,-0.0830078,0,0,0,0,0,0,0,-1,762,1387,-9.55949,0.0830163
-455,-363,-13.1008,-0.290894,0,0,0,0,0,0,0,-1,769,1387,-13.1008,0.290921
-448,-363,-11.7324,2.46606,0,0,0,0,0,0,0,-1,776,1387,-11.7324,-2.46605
-441,-363,-12.4464,2.5354,0,0,0,0,0,0,0,-1,783,1387,-12.4463,-2.53537
-434,-363,-13.6918,2.14661,0,0,0,0,0,0,0,-1,790,1387,-13.6918,-2.14662
-427,-363,0,0,0,0,0,0,0,0,0,-1,797,1387,0,0
-420,-363,0,0,0,0,0,0,0,0,0,-1,804,1387,0,0
-413,-363,0,0,0,0,0,0,0,0,0,-1,811,1387,0,0
-406,-363,0,0,0,0,0,0,0,0,0,-1,818,1387,0,0
-399,-363,0,0,0,0,0,0,0,0,0,-1,825,1387,0,0
-392,-363,0,0,0,0,0,0,0,0,0,-1,832,1387,0,0
-385,-363,0,0,0,0,0,0,0,0,0,-1,839,1387,0,0
-378,-363,0,0,0,0,0,0,0,0,0,-1,846,1387,0,0
-371,-363,0,0,0,0,0,0,0,0,0,-1,853,1387,0,0
-364,-363,0,0,0,0,0,0,0,0,0,-1,860,1387,0,0
-357,-363,0,0,0,0,0,0,0,0,0,-1,867,1387,0,0
-350,-363,0,0,0,0,0,0,0,0,0,-1,874,1387,0,0
-343,-363,0,0,0,0,0,0,0,0,0,-1,881,1387,0,0
-336,-363,0,0,0,0,0,0,0,0,0,-1,888,1387,0,0
-329,-363,0,0,0,0,0,0,0,0,0,-1,895,1387,0,0
-322,-363,0,0,0,0,0,0,0,0,0,-1,902,1387,0,0
-315,-363,0,0,0,0,0,0,0,0,0,-1,909,1387,0,0
-308,-363,0,0,0,0,0,0,0,0,0,-1,916,1387,0,0
-301,-363,0,0,0,0,0,0,0,0,0,-1,923,1387,0,0
-294,-363,0,0,0,0,0,0,0,0,0,-1,930,1387,0,0
-287,-363,0,0,0,0,0,0,0,0,0,-1,937,1387,0,0
-280,-363,0,0,0,0,0,0,0,0,0,-1,944,1387,0,0
-273,-363,0,0,0,0,0,0,0,0,0,-1,951,1387,0,0
-266,-363,0,0,0,0,0,0,0,0,0,-1,958,1387,0,0
-259,-363,0,0,0,0,0,0,0,0,0,-1,965,1387,0,0
-252,-363,0,0,0,0,0,0,0,0,0,-1,972,1387,0,0
-245,-363,0,0,0,0,0,0,0,0,0,-1,979,1387,0,0
-238,-363,0,0,0,0,0,0,0,0,0,-1,986,1387,0,0
-231,-363,0,0,0,0,0,0,0,0,0,-1,993,1387,0,0
-224,-363,0,0,0,0,0,0,0,0,0,-1,1000,1387,0,0
-217,-363,0,0,0,0,0,0,0,0,0,-1,1007,1387,0,0
-210,-363,0,0,0,0,0,0,0,0,0,-1,1014,1387,0,0
-203,-363,0,0,0,0,0,0,0,0,0,-1,1021,1387,0,0
-196,-363,0,0,0,0,0,0,0,0,0,-1,1028,1387,0,0
-189,-363,0,0,0,0,0,0,0,0,0,-1,1035,1387,0,0
-182,-363,0,0,0,0,0,0,0,0,0,-1,1042,1387,0,0
-175,-363,0,0,0,0,0,0,0,0,0,-1,1049,1387,0,0
-168,-363,0,0,0,0,0,0,0,0,0,-1,1056,1387,0,0
-161,-363,0,0,0,0,0,0,0,0,0,-1,1063,1387,0,0
-154,-363,0,0,0,0,0,0,0,0,0,-1,1070,1387,0,0
-147,-363,0,0,0,0,0,0,0,0,0,-1,1077,1387,0,0
-140,-363,0,0,0,0,0,0,0,0,0,-1,1084,1387,0,0
-133,-363,0,0,0,0,0,0,0,0,0,-1,1091,1387,0,0
-126,-363,0,0,0,0,0,0,0,0,0,-1,1098,1387,0,0
-119,-363,0,0,0,0,0,0,0,0,0,-1,1105,1387,0,0
-112,-363,0,0,0,0,0,0,0,0,0,-1,1112,1387,0,0
-105,-363,0,0,0,0,0,0,0,0,0,-1,1119,1387,0,0
-98,-363,0,0,0,0,0,0,0,0,0,-1,1126,1387,0,0
-91,-363,0,0,0,0,0,0,0,0,0,-1,1133,1387,0,0
-84,-363,0,0,0,0,0,0,0,0,0,-1,1140,1387,0,0
-77,-363,0,0,0,0,0,0,0,0,0,-1,1147,1387,0,0
-70,-363,0,0,0,0,0,0,0,0,0,-1,1154,1387,0,0
-63,-363,0,0,0,0,0,0,0,0,0,-1,1161,1387,0,0
-56,-363,0,0,0,0,0,0,0,0,0,-1,1168,1387,0,0
-49,-363,0,0,0,0,0,0,0,0,0,-1,1175,1387,0,0
-42,-363,0,0,0,0,0,0,0,0,0,-1,1182,1387,0,0
-35,-363,0,0,0,0,0,0,0,0,0,-1,1189,1387,0,0
-28,-363,0,0,0,0,0,0,0,0,0,-1,1196,1387,0,0
-21,-363,0,0,0,0,0,0,0,0,0,-1,1203,1387,0,0
-14,-363,0,0,0,0,0,0,0,0,0,-1,1210,1387,0,0
-7,-363,0,0,0,0,0,0,0,0,0,-1,1217,1387,0,0
0,-363,0,0,0,0,0,0,0,0,0,-1,1224,1387,0,0
7,-363,0,0,0,0,0,0,0,0,0,-1,1231,1387,0,0
14,-363,0,0,0,0,0,0,0,0,0,-1,1238,1387,0,0
21,-363,0,0,0,0,0,0,0,0,0,-1,1245,1387,0,0
28,-363,0,0,0,0,0,0,0,0,0,-1,1252,1387,0,0
35,-363,0,0,0,0,0,0,0,0,0,-1,1259,1387,0,0
42,-363,0,0,0,0,0,0,0,0,0,-1,1266,1387,0,0
49,-363,0,0,0,0,0,0,0,0,0,-1,1273,1387,0,0
56,-363,0,0,0,0,0,0,0,0,0,-1,1280,1387,0,0
63,-363,0,0,0,0,0,0,0,0,0,-1,1287,1387,0,0
70,-363,0,0,0,0,0,0,0,0,0,-1,1294,1387,0,0
77,-363,0,0,0,0,0,0,0,0,0,-1,1301,1387,0,0
84,-363,0,0,0,0,0,0,0,0,0,-1,1308,1387,0,0
91,-363,0,0,0,0,0,0,0,0,0,-1,1315,1387,0,0
98,-363,0,0,0,0,0,0,0,0,0,-1,1322,1387,0,0
105,-363,0,0,0,0,0,0,0,0,0,-1,1329,1387,0,0
112,-363,0,0,0,0,0,0,0,0,0,-1,1336,1387,0,0
119,-363,0,0,0,0,0,0,0,0,0,-1,1343,1387,0,0
126,-363,0,0,0,0,0,0,0,0,0,-1,1350,1387,0,0
133,-363,0,0,0,0,0,0,0,0,0,-1,1357,1387,0,0
140,-363,0,0,0,0,0,0,0,0,0,-1,1364,1387,0,0
147,-363,0,0,0,0,0,0,0,0,0,-1,1371,1387,0,0
154,-363,0,0,0,0,0,0,0,0,0,-1,1378,1387,0,0
161,-363,0,0,0,0,0,0,0,0,0,-1,1385,1387,0,0
168,-363,0,0,0,0,0,0,0,0,0,-1,1392,1387,0,0
175,-363,0,0,0,0,0,0,0,0,0,-1,1399,1387,0,0
182,-363,0,0,0,0,0,0,0,0,0,-1,1406,1387,0,0
189,-363,0,0,0,0,0,0,0,0,0,-1,1413,1387,0,0
196,-363,0,0,0,0,0,0,0,0,0,-1,1420,1387,0,0
203,-363,0,0,0,0,0,0,0,0,0,-1,1427,1387,0,0
210,-363,0,0,0,0,0,0,0,0,0,-1,1434,1387,0,0
217,-363,0,0,0,0,0,0,0,0,0,-1,1441,1387,0,0
224,-363,0,0,0,0,0,0,0,0,0,-1,1448,1387,0,0
231,-363,0,0,0,0,0,0,0,0,0,-1,1455,1387,0,0
238,-363,0,0,0,0,0,0,0,0,0,-1,1462,1387,0,0
245,-363,0,0,0,0,0,0,0,0,0,-1,1469,1387,0,0
252,-363,0,0,0,0,0,0,0,0,0,-1,1476,1387,0,0
259,-363,0,0,0,0,0,0,0,0,0,-1,1483,1387,0,0
266,-363,0,0,0,0,0,0,0,0,0,-1,1490,1387,0,0
273,-363,0,0,0,0,0,0,0,0,0,-1,1497,1387,0,0
280,-363,0,0,0,0,0,0,0,0,0,-1,1504,1387,0,0
287,-363,0,0,0,0,0,0,0,0,0,-1,1511,1387,0,0
294,-363,0,0,0,0,0,0,0,0,0,-1,1518,1387,0,0
301,-363,0,0,0,0,0,0,0,0,0,-1,1525,1387,0,0
308,-363,0,0,0,0,0,0,0,0,0,-1,1532,1387,0,0
315,-363,0,0,0,0,0,0,0,0,0,-1,1539,1387,0,0
322,-363,0,0,0,0,0,0,0,0,0,-1,1546,1387,0,0
329,-363,0,0,0,0,0,0,0,0,0,-1,1553,1387,0,0
336,-363,0,0,0,0,0,0,0,0,0,-1,1560,1387,0,0
343,-363,0,0,0,0,0,0,0,0,0,-1,1567,1387,0,0
350,-363,0,0,0,0,0,0,0,0,0,-1,1574,1387,0,0
357,-363,0,0,0,0,0,0,0,0,0,-1,1581,1387,0,0
364,-363,0,0,0,0,0,0,0,0,0,-1,1588,1387,0,0
371,-363,0,0,0,0,0,0,0,0,0,-1,1595,1387,0,0
378,-363,0,0,0,0,0,0,0,0,0,-1,1602,1387,0,0
385,-363,0,0,0,0,0,0,0,0,0,-1,1609,1387,0,0
392,-363,0,0,0,0,0,0,0,0,0,-1,1616,1387,0,0
399,-363,0,0,0,0,0,0,0,0,0,-1,1623,1387,0,0
406,-363,0,0,0,0,0,0,0,0,0,-1,1630,1387,0,0
413,-363,0,0,0,0,0,0,0,0,0,-1,1637,1387,0,0
420,-363,0,0,0,0,0,0,0,0,0,-1,1644,1387,0,0
427,-363,0,0,0,0,0,0,0,0,0,-1,1651,1387,0,0
434,-363,0,0,0,0,0,0,0,0,0,-1,1658,1387,0,0
441,-363,0,0,0,0,0,0,0,0,0,-1,1665,1387,0,0
448,-363,0,0,0,0,0,0,0,0,0,-1,1672,1387,0,0
455,-363,0,0,0,0,0,0,0,0,0,-1,1679,1387,0,0
462,-363,0,0,0,0,0,0,0,0,0,-1,1686,1387,0,0
469,-363,0,0,0,0,0,0,0,0,0,-1,1693,1387,0,0
476,-363,0,0,0,0,0,0,0,0,0,-1,1700,1387,0,0
483,-363,0,0,0,0,0,0,0,0,0,-1,1707,1387,0,0
490,-363,0,0,0,0,0,0,0,0,0,-1,1714,1387,0,0
497,-363,0,0,0,0,0,0,0,0,0,-1,1721,1387,0,0
504,-363,0,0,0,0,0,0,0,0,0,-1,1728,1387,0,0
511,-363,0,0,0,0,0,0,0,0,0,-1,1735,1387,0,0
518,-363,0,0,0,0,0,0,0,0,0,-1,1742,1387,0,0
525,-363,0,0,0,0,0,0,0,0,0,-1,1749,1387,0,0
532,-363,0,0,0,0,0,0,0,0,0,-1,1756,1387,0,0
539,-363,0,0,0,0,0,0,0,0,0,-1,1763,1387,0,0
546,-363,0,0,0,0,0,0,0,0,0,-1,1770,1387,0,0
553,-363,62.1395,3.42249,0,0,0,0,0,0,0,-1,1777,1387,62.1395,-3.42245
560,-363,63.2896,2.40808,0,0,0,0,0,0,0,-1,1784,1387,63.2896,-2.40811
567,-363,64.4463,1.38135,0,0,0,0,0,0,0,-1,1791,1387,64.4463,-1.38131
574,-363,45.7261,2.8075,0,0,0,0,0,0,0,-1,1798,1387,45.7261,-2.80754
581,-363,39.2413,1.97632,0,0,0,0,0,0,0,-1,1805,1387,39.2413,-1.97636
588,-363,32.5608,6.72131,0,0,0,0,0,0,0,-1,1812,1387,32.5608,-6.72131
595,-363,31.4688,6.95435,0,0,0,0,0,0,0,-1,1819,1387,31.4688,-6.95431
602,-363,25.7437,5.33667,0,0,0,0,0,0,0,-1,1826,1387,25.7437,-5.33667
609,-363,27.7048,7.06885,0,0,0,0,0,0,0,-1,1833,1387,27.7048,-7.06882
616,-363,16.229,1.08704,0,0,0,0,0,0,0,-1,1840,1387,16.229,-1.08706
623,-363,15.7283,7.16663,0,0,0,0,0,0,0,-1,1847,1387,15.7282,-7.16665
630,-363,18.3192,9.27844,0,0,0,0,0,0,0,-1,1854,1387,18.3192,-9.27843
637,-363,40.8265,19.8716,0,0,0,0,0,0,0,-1,1861,1387,40.8266,-19.8715
644,-363,40.8315,19.0447,-0.00141733,0.00130913,-0.00125035,0.0017957,-0.00190391,-1.19968,0.00213628,0.0196116,1868,1387,40.8315,-19.0446
651,-363,40.8159,18.2468,-0.000988855,0.000788599,-0.000735876,0.00105371,-0.00125397,-1.225,0.00133401,0.012739,1875,1387,40.816,-18.2468
658,-363,40.7908,17.5046,-0.000238002,0.000470128,-0.000397266,0.000648211,-0.000416085,-1.14938,0.000619324,0.012795,1882,1387,40.7908,-17.5047
665,-363,40.7443,16.8104,0.000652051,0.00017281,-0.000173128,0.000708051,0.000116811,-0.312837,0.000438316,0.0120154,1889,1387,40.7443,-16.8104
672,-363,40.7061,16.0994,0.00166884,-6.39663e-05,-1.2483e-05,0.00166893,-6.40562e-05,-0.00720343,0.00113457,0.0142038,1896,1387,40.7061,-16.0993
679,-363,40.6907,15.3672,0.00279237,-0.000260809,8.67602e-05,0.00279483,-0.000263272,0.0283858,0.00195689,0.0158495,1903,1387,40.6906,-15.3672
686,-363,40.6411,14.6041,0.00401907,-0.000389157,0.000111412,0.00402189,-0.000391971,0.0252523,0.00282101,0.0157378,1910,1387,40.6411,-14.6041
693,-363,40.5919,13.8322,0.00533537,-0.000425261,5.94399e-05,0.00533598,-0.000425874,0.0103168,0.00370744,0.0139623,1917,1387,40.5919,-13.8321
700,-363,40.7318,13.0214,0.00681298,-0.000286326,-0.000162637,0.00681671,-0.00029005,-0.0228929,0.00464417,0.0314077,1924,1387,40.7318,-13.0214
707,-363,41.0173,12.2584,0,0,0,0,0,0,0,-1,1931,1387,41.0173,-12.2584
714,-363,16.5782,5.3147,0,0,0,0,0,0,0,-1,1938,1387,16.5783,-5.31472
721,-363,14.4045,4.51685,0,0,0,0,0,0,0,-1,1945,1387,14.4045,-4.51685
728,-363,19.9756,0.853027,0,0,0,0,0,0,0,-1,1952,1387,19.9756,-0.853059
735,-363,21.4297,1.2981,0,0,0,0,0,0,0,-1,1959,1387,21.4297,-1.29811
742,-363,21.3621,2.79663,0,0,0,0,0,0,0,-1,1966,1387,21.362,-2.7966
749,-363,0,0,0,0,0,0,0,0,0,-1,1973,1387,0,0
756,-363,0,0,0,0,0,0,0,0,0,-1,1980,1387,0,0
763,-363,0,0,0,0,0,0,0,0,0,-1,1987,1387,0,0
770,-363,0,0,0,0,0,0,0,0,0,-1,1994,1387,0,0
777,-363,0,0,0,0,0,0,0,0,0,-1,2001,1387,0,0
784,-363,0,0,0,0,0,0,0,0,0,-1,2008,1387,0,0
791,-363,0,0,0,0,0,0,0,0,0,-1,2015,1387,0,0
798,-363,0,0,0,0,0,0,0,0,0,-1,2022,1387,0,0
805,-363,0,0,0,0,0,0,0,0,0,-1,2029,1387,0,0
812,-363,0,0,0,0,0,0,0,0,0,-1,2036,1387,0,0
-700,-370,0,0,0,0,0,0,0,0,0,-1,524,1394,0,0
-693,-370,0,0,0,0,0,0,0,0,0,-1,531,1394,0,0
-686,-370,0,0,0,0,0,0,0,0,0,-1,538,1394,0,0
-679,-370,0,0,0,0,0,0,0,0,0,-1,545,1394,0,0
-672,-370,0,0,0,0,0,0,0,0,0,-1,552,1394,0,0
-665,-370,0,0,0,0,0,0,0,0,0,-1,559,1394,0,0
-658,-370,0,0,0,0,0,0,0,0,0,-1,566,1394,0,0
-651,-370,0,0,0,0,0,0,0,0,0,-1,573,1394,0,0
-644,-370,0,0,0,0,0,0,0,0,0,-1,580,1394,0,0
-637,-370,0,0,0,0,0,0,0,0,0,-1,587,1394,0,0
-630,-370,0,0,0,0,0,0,0,0,0,-1,594,1394,0,0
-623,-370,-10.1758,-7.10486,0,0,0,0,0,0,0,-1,601,1394,-10.1758,7.10483
-616,-370,-8.85925,-1.61475,0,0,0,0,0,0,0,-1,608,1394,-8.85925,1.61476
-609,-370,-5.39325,0.0421143,0,0,0,0,0,0,0,-1,615,1394,-5.39328,-0.0421372
-602,-370,-12.3151,3.44592,0,0,0,0,0,0,0,-1,622,1394,-12.3151,-3.44595
-595,-370,-7.53284,5.44214,0,0,0,0,0,0,0,-1,629,1394,-7.53284,-5.44216
-588,-370,-11.2422,4.50598,0,0,0,0,0,0,0,-1,636,1394,-11.2422,-4.50596
-581,-370,-13.1575,5.84888,0,0,0,0,0,0,0,-1,643,1394,-13.1575,-5.84887
-574,-370,-13.0107,6.69861,0,0,0,0,0,0,0,-1,650,1394,-13.0108,-6.69866
-567,-370,-22.8655,11.8197,0,0,0,0,0,0,0,-1,657,1394,-22.8655,-11.8197
-560,-370,-22.8654,12.7061,0.00419609,0.00349476,0.00300957,0.00687535,0.000815494,0.727402,0.00433737,0.036557,664,1394,-22.8654,-12.7061
-553,-370,-22.7996,13.5688,0.0035864,0.00248352,0.00233323,0.00543247,0.000637448,0.669356,0.00342897,0.0113389,671,1394,-22.7996,-13.5688
-546,-370,-22.8028,14.3641,0.00313026,0.0016727,0.00183593,0.00437677,0.000426193,0.596459,0.00278666,0.0144426,678,1394,-22.8028,-14.3641
-539,-370,-22.8227,15.1719,0.0028628,0.00106095,0.00149859,0.00371042,0.000213321,0.514754,0.00240566,0.0182859,685,1394,-22.8227,-15.1718
-532,-370,-22.915,15.9312,0.00277899,0.000632028,0.00131033,0.00339942,1.15986e-05,0.442216,0.00226242,0.0223133,692,1394,-22.915,-15.9311
-525,-370,-22.9548,16.6753,0.00286151,0.000354084,0.00125734,0.00338338,-0.00016779,0.393422,0.00231355,0.0202436,699,1394,-22.9548,-16.6753
-518,-370,-22.9564,17.4265,0.00308695,0.000234024,0.00132944,0.00361041,-0.000289436,0.375103,0.00250899,0.01466,706,1394,-22.9564,-17.4265
-511,-370,-22.9523,18.23,0.00349497,0.00028528,0.00155781,0.0041267,-0.000346459,0.385264,0.00287359,0.0168747,713,1394,-22.9523,-18.2299
-504,-370,-22.9938,19.0264,0,0,0,0,0,0,0,-1,720,1394,-22.9938,-19.0263
-497,-370,-12.3546,11.7982,0,0,0,0,0,0,0,-1,727,1394,-12.3546,-11.7983
-490,-370,-5.30695,4.5271,0,0,0,0,0,0,0,-1,734,1394,-5.30698,-4.52704
-483,-370,-6.02997,4.59253,0,0,0,0,0,0,0,-1,741,1394,-6.02994,-4.5925
-476,-370,-6.75293,4.65796,0,0,0,0,0,0,0,-1,748,1394,-6.7529,-4.65795
-469,-370,-10.584,1.14294,0,0,0,0,0,0,0,-1,755,1394,-10.584,-1.14293
-462,-370,-9.54462,0.387207,0,0,0,0,0,0,0,-1,762,1394,-9.5446,-0.387176
-455,-370,-8.50525,-0.36853,0,0,0,0,0,0,0,-1,769,1394,-8.50523,0.368582
-448,-370,-10.9543,2.28833,0,0,0,0,0,0,0,-1,776,1394,-10.9543,-2.28835
-441,-370,-11.8699,1.8313,0,0,0,0,0,0,0,-1,783,1394,-11.8699,-1.83127
-434,-370,-12.7855,1.37415,0,0,0,0,0,0,0,-1,790,1394,-12.7855,-1.37419
-427,-370,0,0,0,0,0,0,0,0,0,-1,797,1394,0,0
-420,-370,0,0,0,0,0,0,0,0,0,-1,804,1394,0,0
-413,-370,0,0,0,0,0,0,0,0,0,-1,811,1394,0,0
-406,-370,0,0,0,0,0,0,0,0,0,-1,818,1394,0,0
-399,-370,0,0,0,0,0,0,0,0,0,-1,825,1394,0,0
-392,-370,0,0,0,0,0,0,0,0,0,-1,832,1394,0,0
-385,-370,0,0,0,0,0,0,0,0,0,-1,839,1394,0,0
-378,-370,0,0,0,0,0,0,0,0,0,-1,846,1394,0,0
-371,-370,0,0,0,0,0,0,0,0,0,-1,853,1394,0,0
-364,-370,0,0,0,0,0,0,0,0,0,-1,860,1394,0,0
-357,-370,0,0,0,0,0,0,0,0,0,-1,867,1394,0,0
-350,-370,0,0,0,0,0,0,0,0,0,-1,874,1394,0,0
-343,-370,0,0,0,0,0,0,0,0,0,-1,881,1394,0,0
-336,-370,0,0,0,0,0,0,0,0,0,-1,888,1394,0,0
-329,-370,0,0,0,0,0,0,0,0,0,-1,895,1394,0,0
-322,-370,0,0,0,0,0,0,0,0,0,-1,902,1394,0,0
-315,-370,0,0,0,0,0,0,0,0,0,-1,909,1394,0,0
-308,-370,0,0,0,0,0,0,0,0,0,-1,916,1394,0,0
-301,-370,0,0,0,0,0,0,0,0,0,-1,923,1394,0,0
-294,-370,0,0,0,0,0,0,0,0,0,-1,930,1394,0,0
-287,-370,0,0,0,0,0,0,0,0,0,-1,937,1394,0,0
-280,-370,0,0,0,0,0,0,0,0,0,-1,944,1394,0,0
-273,-370,0,0,0,0,0,0,0,0,0,-1,951,1394,0,0
-266,-370,0,0,0,0,0,0,0,0,0,-1,958,1394,0,0
-259,-370,0,0,0,0,0,0,0,0,0,-1,965,1394,0,0
-252,-370,0,0,0,0,0,0,0,0,0,-1,972,1394,0,0
-245,-370,0,0,0,0,0,0,0,0,0,-1,979,1394,0,0
-238,-370,0,0,0,0,0,0,0,0,0,-1,986,1394,0,0
-231,-370,0,0,0,0,0,0,0,0,0,-1,993,1394,0,0
-224,-370,0,0,0,0,0,0,0,0,0,-1,1000,1394,0,0
-217,-370,0,0,0,0,0,0,0,0,0,-1,1007,1394,0,0
-210,-370,0,0,0,0,0,0,0,0,0,-1,1014,1394,0,0
-203,-370,0,0,0,0,0,0,0,0,0,-1,1021,1394,0,0
-196,-370,0,0,0,0,0,0,0,0,0,-1,1028,1394,0,0
-189,-370,0,0,0,0,0,0,0,0,0,-1,1035,1394,0,0
-182,-370,0,0,0,0,0,0,0,0,0,-1,1042,1394,0,0
-175,-370,0,0,0,0,0,0,0,0,0,-1,1049,1394,0,0
-168,-370,0,0,0,0,0,0,0,0,0,-1,1056,1394,0,0
-161,-370,0,0,0,0,0,0,0,0,0,-1,1063,1394,0,0
-154,-370,0,0,0,0,0,0,0,0,0,-1,1070,1394,0,0
-147,-370,0,0,0,0,0,0,0,0,0,-1,1077,1394,0,0
-140,-370,0,0,0,0,0,0,0,0,0,-1,1084,1394,0,0
-133,-370,0,0,0,0,0,0,0,0,0,-1,1091,1394,0,0
-126,-370,0,0,0,0,0,0,0,0,0,-1,1098,1394,0,0
-119,-370,0,0,0,0,0,0,0,0,0,-1,1105,1394,0,0
-112,-370,0,0,0,0,0,0,0,0,0,-1,1112,1394,0,0
-105,-370,0,0,0,0,0,0,0,0,0,-1,1119,1394,0,0
-98,-370,0,0,0,0,0,0,0,0,0,-1,1126,1394,0,0
-91,-370,0,0,0,0,0,0,0,0,0,-1,1133,1394,0,0
-84,-370,0,0,0,0,0,0,0,0,0,-1,1140,1394,0,0
-77,-370,0,0,0,0,0,0,0,0,0,-1,1147,1394,0,0
-70,-370,0,0,0,0,0,0,0,0,0,-1,1154,1394,0,0
-63,-370,0,0,0,0,0,0,0,0,0,-1,1161,1394,0,0
-56,-370,0,0,0,0,0,0,0,0,0,-1,1168,1394,0,0
-49,-370,0,0,0,0,0,0,0,0,0,-1,1175,1394,0,0
-42,-370,0,0,0,0,0,0,0,0,0,-1,1182,1394,0,0
-35,-370,0,0,0,0,0,0,0,0,0,-1,1189,1394,0,0
-28,-370,0,0,0,0,0,0,0,0,0,-1,1196,1394,0,0
-21,-370,0,0,0,0,0,0,0,0,0,-1,1203,1394,0,0
-14,-370,0,0,0,0,0,0,0,0,0,-1,1210,1394,0,0
-7,-370,0,0,0,0,0,0,0,0,0,-1,1217,1394,0,0
0,-370,0,0,0,0,0,0,0,0,0,-1,1224,1394,0,0
7,-370,0,0,0,0,0,0,0,0,0,-1,1231,1394,0,0
14,-370,0,0,0,0,0,0,0,0,0,-1,1238,1394,0,0
21,-370,0,0,0,0,0,0,0,0,0,-1,1245,1394,0,0
28,-370,0,0,0,0,0,0,0,0,0,-1,1252,1394,0,0
35,-370,0,0,0,0,0,0,0,0,0,-1,1259,1394,0,0
42,-370,0,0,0,0,0,0,0,0,0,-1,1266,1394,0,0
49,-370,0,0,0,0,0,0,0,0,0,-1,1273,1394,0,0
56,-370,0,0,0,0,0,0,0,0,0,-1,1280,1394,0,0
63,-370,0,0,0,0,0,0,0,0,0,-1,1287,1394,0,0
70,-370,0,0,0,0,0,0,0,0,0,-1,1294,1394,0,0
77,-370,0,0,0,0,0,0,0,0,0,-1,1301,1394,0,0
84,-370,0,0,0,0,0,0,0,0,0,-1,1308,1394,0,0
91,-370,0,0,0,0,0,0,0,0,0,-1,1315,1394,0,0
98,-370,0,0,0,0,0,0,0,0,0,-1,1322,1394,0,0
105,-370,0,0,0,0,0,0,0,0,0,-1,1329,1394,0,0
112,-370,0,0,0,0,0,0,0,0,0,-1,1336,1394,0,0
119,-370,0,0,0,0,0,0,0,0,0,-1,1343,1394,0,0
126,-370,0,0,0,0,0,0,0,0,0,-1,1350,1394,0,0
133,-370,0,0,0,0,0,0,0,0,0,-1,1357,1394,0,0
140,-370,0,0,0,0,0,0,0,0,0,-1,1364,1394,0,0
147,-370,0,0,0,0,0,0,0,0,0,-1,1371,1394,0,0
154,-370,0,0,0,0,0,0,0,0,0,-1,1378,1394,0,0
161,-370,0,0,0,0,0,0,0,0,0,-1,1385,1394,0,0
168,-370,0,0,0,0,0,0,0,0,0,-1,1392,1394,0,0
175,-370,0,0,0,0,0,0,0,0,0,-1,1399,1394,0,0
182,-370,0,0,0,0,0,0,0,0,0,-1,1406,1394,0,0
189,-370,0,0,0,0,0,0,0,0,0,-1,1413,1394,0,0
196,-370,0,0,0,0,0,0,0,0,0,-1,1420,1394,0,0
203,-370,0,0,0,0,0,0,0,0,0,-1,1427,1394,0,0
210,-370,0,0,0,0,0,0,0,0,0,-1,1434,1394,0,0
217,-370,0,0,0,0,0,0,0,0,0,-1,1441,1394,0,0
224,-370,0,0,0,0,0,0,0,0,0,-1,1448,1394,0,0
231,-370,0,0,0,0,0,0,0,0,0,-1,1455,1394,0,0
238,-370,0,0,0,0,0,0,0,0,0,-1,1462,1394,0,0
245,-370,0,0,0,0,0,0,0,0,0,-1,1469,1394,0,0
252,-370,0,0,0,0,0,0,0,0,0,-1,1476,1394,0,0
259,-370,0,0,0,0,0,0,0,0,0,-1,1483,1394,0,0
266,-370,0,0,0,0,0,0,0,0,0,-1,1490,1394,0,0
273,-370,0,0,0,0,0,0,0,0,0,-1,1497,1394,0,0
280,-370,0,0,0,0,0,0,0,0,0,-1,1504,1394,0,0
287,-370,0,0,0,0,0,0,0,0,0,-1,1511,1394,0,0
294,-370,0,0,0,0,0,0,0,0,0,-1,1518,1394,0,0
301,-370,0,0,0,0,0,0,0,0,0,-1,1525,1394,0,0
308,-370,0,0,0,0,0,0,0,0,0,-1,1532,1394,0,0
315,-370,0,0,0,0,0,0,0,0,0,-1,1539,1394,0,0
322,-370,0,0,0,0,0,0,0,0,0,-1,1546,1394,0,0
329,-370,0,0,0,0,0,0,0,0,0,-1,1553,1394,0,0
336,-370,0,0,0,0,0,0,0,0,0,-1,1560,1394,0,0
343,-370,0,0,0,0,0,0,0,0,0,-1,1567,1394,0,0
350,-370,0,0,0,0,0,0,0,0,0,-1,1574,1394,0,0
357,-370,0,0,0,0,0,0,0,0,0,-1,1581,1394,0,0
364,-370,0,0,0,0,0,0,0,0,0,-1,1588,1394,0,0
371,-370,0,0,0,0,0,0,0,0,0,-1,1595,1394,0,0
378,-370,0,0,0,0,0,0,0,0,0,-1,1602,1394,0,0
385,-370,0,0,0,0,0,0,0,0,0,-1,1609,1394,0,0
392,-370,0,0,0,0,0,0,0,0,0,-1,1616,1394,0,0
399,-370,0,0,0,0,0,0,0,0,0,-1,1623,1394,0,0
406,-370,0,0,0,0,0,0,0,0,0,-1,1630,1394,0,0
413,-370,0,0,0,0,0,0,0,0,0,-1,1637,1394,0,0
420,-370,0,0,0,0,0,0,0,0,0,-1,1644,1394,0,0
427,-370,0,0,0,0,0,0,0,0,0,-1,1651,1394,0,0
434,-370,0,0,0,0,0,0,0,0,0,-1,1658,1394,0,0
441,-370,0,0,0,0,0,0,0,0,0,-1,1665,1394,0,0
448,-370,0,0,0,0,0,0,0,0,0,-1,1672,1394,0,0
455,-370,0,0,0,0,0,0,0,0,0,-1,1679,1394,0,0
462,-370,0,0,0,0,0,0,0,0,0,-1,1686,1394,0,0
469,-370,0,0,0,0,0,0,0,0,0,-1,1693,1394,0,0
476,-370,0,0,0,0,0,0,0,0,0,-1,1700,1394,0,0
483,-370,0,0,0,0,0,0,0,0,0,-1,1707,1394,0,0
490,-370,0,0,0,0,0,0,0,0,0,-1,1714,1394,0,0
497,-370,0,0,0,0,0,0,0,0,0,-1,1721,1394,0,0
504,-370,0,0,0,0,0,0,0,0,0,-1,1728,1394,0,0
511,-370,0,0,0,0,0,0,0,0,0,-1,1735,1394,0,0
518,-370,0,0,0,0,0,0,0,0,0,-1,1742,1394,0,0
525,-370,0,0,0,0,0,0,0,0,0,-1,1749,1394,0,0
532,-370,0,0,0,0,0,0,0,0,0,-1,1756,1394,0,0
539,-370,0,0,0,0,0,0,0,0,0,-1,1763,1394,0,0
546,-370,60.9257,3.80493,0,0,0,0,0,0,0,-1,1770,1394,60.9256,-3.80494
553,-370,61.9966,2.87524,0,0,0,0,0,0,0,-1,1777,1394,61.9966,-2.8753
560,-370,63.1577,1.82617,0,0,0,0,0,0,0,-1,1784,1394,63.1578,-1.82617
567,-370,46.1089,3.11719,0,0,0,0,0,0,0,-1,1791,1394,46.1089,-3.1172
574,-370,38.8953,1.49353,0,0,0,0,0,0,0,-1,1798,1394,38.8952,-1.49348
581,-370,39.178,2.86145,0,0,0,0,0,0,0,-1,1805,1394,39.1779,-2.86145
588,-370,39.2102,4.27661,0,0,0,0,0,0,0,-1,1812,1394,39.2102,-4.27657
595,-370,25.793,4.5271,0,0,0,0,0,0,0,-1,1819,1394,25.793,-4.52711
602,-370,25.1077,5.34937,0,0,0,0,0,0,0,-1,1826,1394,25.1077,-5.34932
609,-370,16.712,0.993286,0,0,0,0,0,0,0,-1,1833,1394,16.7121,-0.99323
616,-370,16.7764,7.23315,0,0,0,0,0,0,0,-1,1840,1394,16.7764,-7.23313
623,-370,17.6625,8.94263,0,0,0,0,0,0,0,-1,1847,1394,17.6624,-8.94258
630,-370,20.9681,11.1785,0,0,0,0,0,0,0,-1,1854,1394,20.9681,-11.1784
637,-370,40.1598,19.8317,0,0,0,0,0,0,0,-1,1861,1394,40.1598,-19.8316
644,-370,40.142,19.0564,-0.00113096,0.000909199,-0.000928907,0.00126877,-0.00149053,-1.20147,0.0015948,0.0154948,1868,1394,40.142,-19.0564
651,-370,40.1056,18.2892,-0.000634119,0.000565782,-0.000547029,0.000777732,-0.000846069,-1.20115,0.000937778,0.0132575,1875,1394,40.1056,-18.2891
658,-370,40.074,17.566,0.000158297,0.000325583,-0.000270923,0.00052548,-4.16005e-05,-0.935123,0.000364978,0.0124269,1882,1394,40.074,-17.5661
665,-370,40.0187,16.8448,0.00110353,9.10459e-05,-5.17317e-05,0.00110617,8.84096e-05,-0.050917,0.000709814,0.0141377,1889,1394,40.0187,-16.8449
672,-370,39.9448,16.1223,0.00222966,-0.000141157,0.00013703,0.00223755,-0.00014905,0.0575434,0.00154378,0.0155494,1896,1394,39.9448,-16.1223
679,-370,39.946,15.3899,0.00350396,-0.000376596,0.00029584,0.00352638,-0.00039902,0.0756539,0.00249459,0.0143088,1903,1394,39.9461,-15.3899
686,-370,39.9067,14.6484,0.00492678,-0.000595878,0.000403929,0.00495617,-0.000625265,0.0726253,0.00353103,0.0152735,1910,1394,39.9068,-14.6485
693,-370,39.8613,13.8583,0.00648755,-0.000767938,0.000446707,0.00651495,-0.000795337,0.0612598,0.00463123,0.0156204,1917,1394,39.8613,-13.8583
700,-370,40.1429,13.0015,0,0,0,0,0,0,0,-1,1924,1394,40.1429,-13.0014
707,-370,39.2391,11.5549,0,0,0,0,0,0,0,-1,1931,1394,39.2392,-11.555
714,-370,16.9116,5.93018,0,0,0,0,0,0,0,-1,1938,1394,16.9116,-5.93014
721,-370,17.2007,4.69153,0,0,0,0,0,0,0,-1,1945,1394,17.2007,-4.69158
728,-370,20.5315,-0.313354,0,0,0,0,0,0,0,-1,1952,1394,20.5315,0.313332
735,-370,22.3652,0.233398,0,0,0,0,0,0,0,-1,1959,1394,22.3652,-0.233355
742,-370,24.1989,0.780029,0,0,0,0,0,0,0,-1,1966,1394,24.1989,-0.780041
749,-370,0,0,0,0,0,0,0,0,0,-1,1973,1394,0,0
756,-370,0,0,0,0,0,0,0,0,0,-1,1980,1394,0,0
763,-370,0,0,0,0,0,0,0,0,0,-1,1987,1394,0,0
770,-370,0,0,0,0,0,0,0,0,0,-1,1994,1394,0,0
777,-370,0,0,0,0,0,0,0,0,0,-1,2001,1394,0,0
784,-370,0,0,0,0,0,0,0,0,0,-1,2008,1394,0,0
791,-370,0,0,0,0,0,0,0,0,0,-1,2015,1394,0,0
798,-370,0,0,0,0,0,0,0,0,0,-1,2022,1394,0,0
805,-370,0,0,0,0,0,0,0,0,0,-1,2029,1394,0,0
812,-370,0,0,0,0,0,0,0,0,0,-1,2036,1394,0,0
-700,-377,0,0,0,0,0,0,0,0,0,-1,524,1401,0,0
-693,-377,0,0,0,0,0,0,0,0,0,-1,531,1401,0,0
-686,-377,0,0,0,0,0,0,0,0,0,-1,538,1401,0,0
-679,-377,0,0,0,0,0,0,0,0,0,-1,545,1401,0,0
-672,-377,0,0,0,0,0,0,0,0,0,-1,552,1401,0,0
-665,-377,0,0,0,0,0,0,0,0,0,-1,559,1401,0,0
-658,-377,0,0,0,0,0,0,0,0,0,-1,566,1401,0,0
-651,-377,0,0,0,0,0,0,0,0,0,-1,573,1401,0,0
-644,-377,0,0,0,0,0,0,0,0,0,-1,580,1401,0,0
-637,-377,0,0,0,0,0,0,0,0,0,-1,587,1401,0,0
-630,-377,0,0,0,0,0,0,0,0,0,-1,594,1401,0,0
-623,-377,0,0,0,0,0,0,0,0,0,-1,601,1401,0,0
-616,-377,-9.43915,-2.4906,0,0,0,0,0,0,0,-1,608,1401,-9.43915,2.49062
-609,-377,-7.2821,-1.35278,0,0,0,0,0,0,0,-1,615,1401,-7.28208,1.35279
-602,-377,-14.9736,3.98279,0,0,0,0,0,0,0,-1,622,1401,-14.9737,-3.98276
-595,-377,-6.9082,1.18201,0,0,0,0,0,0,0,-1,629,1401,-6.90822,-1.18204
-588,-377,-12.8003,3.44751,0,0,0,0,0,0,0,-1,636,1401,-12.8003,-3.44754
-581,-377,-11.8243,6.21521,0,0,0,0,0,0,0,-1,643,1401,-11.8244,-6.21519
-574,-377,-12.2761,6.60547,0,0,0,0,0,0,0,-1,650,1401,-12.2761,-6.60552
-567,-377,-13.4844,7.41931,0,0,0,0,0,0,0,-1,657,1401,-13.4845,-7.41926
-560,-377,-22.2211,12.6287,0,0,0,0,0,0,0,-1,664,1401,-22.221,-12.6287
-553,-377,-22.0359,13.5728,0.00404188,0.00289982,0.00273142,0.00626132,0.000680382,0.682352,0.00396692,0.018399,671,1401,-22.0359,-13.5728
-546,-377,-22.0543,14.4486,0.00336413,0.0019987,0.00210531,0.00489465,0.000468168,0.628607,0.00311878,0.0173062,678,1401,-22.0543,-14.4486
-539,-377,-22.0523,15.1896,0.00290237,0.00132479,0.00165649,0.00394828,0.000278871,0.563192,0.00254433,0.0224769,685,1401,-22.0523,-15.1895
-532,-377,-22.1404,15.9248,0.00264299,0.000835264,0.00135905,0.0033713,0.000106955,0.49195,0.00221274,0.0222628,692,1401,-22.1404,-15.9248
-525,-377,-22.1103,16.7285,0.00256346,0.000512197,0.00120386,0.00311935,-4.3693e-05,0.432586,0.00209428,0.0252474,699,1401,-22.1103,-16.7285
-518,-377,-22.1768,17.4867,0.00263316,0.000321842,0.0011699,0.00312195,-0.000166947,0.395761,0.00213912,0.0167897,706,1401,-22.1768,-17.4866
-511,-377,-22.2092,18.2562,0.00286655,0.000298084,0.00126968,0.00338823,-0.000223604,0.389851,0.00233693,0.0131613,713,1401,-22.2092,-18.2562
-504,-377,-22.2679,19.0601,0.00332305,0.000464367,0.00156396,0.00401243,-0.000225015,0.415171,0.00275302,0.0163883,720,1401,-22.2679,-19.0601
-497,-377,-22.3131,19.8496,0,0,0,0,0,0,0,-1,727,1401,-22.3131,-19.8496
-490,-377,-8.88409,10.1245,0,0,0,0,0,0,0,-1,734,1401,-8.8841,-10.1245
-483,-377,-5.6524,5.07324,0,0,0,0,0,0,0,-1,741,1401,-5.6524,-5.07325
-476,-377,-6.11682,5.10535,0,0,0,0,0,0,0,-1,748,1401,-6.11681,-5.10537
-469,-377,-10.3211,1.9281,0,0,0,0,0,0,0,-1,755,1401,-10.3211,-1.92808
-462,-377,-9.2204,1.0022,0,0,0,0,0,0,0,-1,762,1401,-9.22039,-1.00218
-455,-377,-8.11969,0.0762939,0,0,0,0,0,0,0,-1,769,1401,-8.11968,-0.0762759
-448,-377,-9.05334,0.877319,0,0,0,0,0,0,0,-1,776,1401,-9.05332,-0.877324
-441,-377,-11.212,0.763428,0,0,0,0,0,0,0,-1,783,1401,-11.212,-0.763415
-434,-377,-11.0984,0.996216,0,0,0,0,0,0,0,-1,790,1401,-11.0984,-0.996265
-427,-377,-11.1733,1.25732,0,0,0,0,0,0,0,-1,797,1401,-11.1733,-1.25732
-420,-377,0,0,0,0,0,0,0,0,0,-1,804,1401,0,0
-413,-377,0,0,0,0,0,0,0,0,0,-1,811,1401,0,0
-406,-377,0,0,0,0,0,0,0,0,0,-1,818,1401,0,0
-399,-377,0,0,0,0,0,0,0,0,0,-1,825,1401,0,0
-392,-377,0,0,0,0,0,0,0,0,0,-1,832,1401,0,0
-385,-377,0,0,0,0,0,0,0,0,0,-1,839,1401,0,0
-378,-377,0,0,0,0,0,0,0,0,0,-1,846,1401,0,0
-371,-377,0,0,0,0,0,0,0,0,0,-1,853,1401,0,0
-364,-377,0,0,0,0,0,0,0,0,0,-1,860,1401,0,0
-357,-377,0,0,0,0,0,0,0,0,0,-1,867,1401,0,0
-350,-377,0,0,0,0,0,0,0,0,0,-1,874,1401,0,0
-343,-377,0,0,0,0,0,0,0,0,0,-1,881,1401,0,0
-336,-377,0,0,0,0,0,0,0,0,0,-1,888,1401,0,0
-329,-377,0,0,0,0,0,0,0,0,0,-1,895,1401,0,0
-322,-377,0,0,0,0,0,0,0,0,0,-1,902,1401,0,0
-315,-377,0,0,0,0,0,0,0,0,0,-1,909,1401,0,0
-308,-377,0,0,0,0,0,0,0,0,0,-1,916,1401,0,0
-301,-377,0,0,0,0,0,0,0,0,0,-1,923,1401,0,0
-294,-377,0,0,0,0,0,0,0,0,0,-1,930,1401,0,0
-287,-377,0,0,0,0,0,0,0,0,0,-1,937,1401,0,0
-280,-377,0,0,0,0,0,0,0,0,0,-1,944,1401,0,0
-273,-377,0,0,0,0,0,0,0,0,0,-1,951,1401,0,0
-266,-377,0,0,0,0,0,0,0,0,0,-1,958,1401,0,0
-259,-377,0,0,0,0,0,0,0,0,0,-1,965,1401,0,0
-252,-377,0,0,0,0,0,0,0,0,0,-1,972,1401,0,0
-245,-377,0,0,0,0,0,0,0,0,0,-1,979,1401,0,0
-238,-377,0,0,0,0,0,0,0,0,0,-1,986,1401,0,0
-231,-377,0,0,0,0,0,0,0,0,0,-1,993,1401,0,0
-224,-377,0,0,0,0,0,0,0,0,0,-1,1000,1401,0,0
-217,-377,0,0,0,0,0,0,0,0,0,-1,1007,1401,0,0
-210,-377,0,0,0,0,0,0,0,0,0,-1,1014,1401,0,0
-203,-377,0,0,0,0,0,0,0,0,0,-1,1021,1401,0,0
-196,-377,0,0,0,0,0,0,0,0,0,-1,1028,1401,0,0
-189,-377,0,0,0,0,0,0,0,0,0,-1,1035,1401,0,0
-182,-377,0,0,0,0,0,0,0,0,0,-1,1042,1401,0,0
-175,-377,0,0,0,0,0,0,0,0,0,-1,1049,1401,0,0
-168,-377,0,0,0,0,0,0,0,0,0,-1,1056,1401,0,0
-161,-377,0,0,0,0,0,0,0,0,0,-1,1063,1401,0,0
-154,-377,0,0,0,0,0,0,0,0,0,-1,1070,1401,0,0
-147,-377,0,0,0,0,0,0,0,0,0,-1,1077,1401,0,0
-140,-377,0,0,0,0,0,0,0,0,0,-1,1084,1401,0,0
-133,-377,0,0,0,0,0,0,0,0,0,-1,1091,1401,0,0
-126,-377,0,0,0,0,0,0,0,0,0,-1,1098,1401,0,0
-119,-377,0,0,0,0,0,0,0,0,0,-1,1105,1401,0,0
-112,-377,0,0,0,0,0,0,0,0,0,-1,1112,1401,0,0
-105,-377,0,0,0,0,0,0,0,0,0,-1,1119,1401,0,0
-98,-377,0,0,0,0,0,0,0,0,0,-1,1126,1401,0,0
-91,-377,0,0,0,0,0,0,0,0,0,-1,1133,1401,0,0
-84,-377,0,0,0,0,0,0,0,0,0,-1,1140,1401,0,0
-77,-377,0,0,0,0,0,0,0,0,0,-1,1147,1401,0,0
-70,-377,0,0,0,0,0,0,0,0,0,-1,1154,1401,0,0
-63,-377,0,0,0,0,0,0,0,0,0,-1,1161,1401,0,0
-56,-377,0,0,0,0,0,0,0,0,0,-1,1168,1401,0,0
-49,-377,0,0,0,0,0,0,0,0,0,-1,1175,1401,0,0
-42,-377,0,0,0,0,0,0,0,0,0,-1,1182,1401,0,0
-35,-377,0,0,0,0,0,0,0,0,0,-1,1189,1401,0,0
-28,-377,0,0,0,0,0,0,0,0,0,-1,1196,1401,0,0
-21,-377,0,0,0,0,0,0,0,0,0,-1,1203,1401,0,0
-14,-377,0,0,0,0,0,0,0,0,0,-1,1210,1401,0,0
-7,-377,0,0,0,0,0,0,0,0,0,-1,1217,1401,0,0
0,-377,0,0,0,0,0,0,0,0,0,-1,1224,1401,0,0
7,-377,0,0,0,0,0,0,0,0,0,-1,1231,1401,0,0
14,-377,0,0,0,0,0,0,0,0,0,-1,1238,1401,0,0
21,-377,0,0,0,0,0,0,0,0,0,-1,1245,1401,0,0
28,-377,0,0,0,0,0,0,0,0,0,-1,1252,1401,0,0
35,-377,0,0,0,0,0,0,0,0,0,-1,1259,1401,0,0
42,-377,0,0,0,0,0,0,0,0,0,-1,1266,1401,0,0
49,-377,0,0,0,0,0,0,0,0,0,-1,1273,1401,0,0
56,-377,0,0,0,0,0,0,0,0,0,-1,1280,1401,0,0
63,-377,0,0,0,0,0,0,0,0,0,-1,1287,1401,0,0
70,-377,0,0,0,0,0,0,0,0,0,-1,1294,1401,0,0
77,-377,0,0,0,0,0,0,0,0,0,-1,1301,1401,0,0
84,-377,0,0,0,0,0,0,0,0,0,-1,1308,1401,0,0
91,-377,0,0,0,0,0,0,0,0,0,-1,1315,1401,0,0
98,-377,0,0,0,0,0,0,0,0,0,-1,1322,1401,0,0
105,-377,0,0,0,0,0,0,0,0,0,-1,1329,1401,0,0
112,-377,0,0,0,0,0,0,0,0,0,-1,1336,1401,0,0
119,-377,0,0,0,0,0,0,0,0,0,-1,1343,1401,0,0
126,-377,0,0,0,0,0,0,0,0,0,-1,1350,1401,0,0
133,-377,0,0,0,0,0,0,0,0,0,-1,1357,1401,0,0
140,-377,0,0,0,0,0,0,0,0,0,-1,1364,1401,0,0
147,-377,0,0,0,0,0,0,0,0,0,-1,1371,1401,0,0
154,-377,0,0,0,0,0,0,0,0,0,-1,1378,1401,0,0
161,-377,0,0,0,0,0,0,0,0,0,-1,1385,1401,0,0
168,-377,0,0,0,0,0,0,0,0,0,-1,1392,1401,0,0
175,-377,0,0,0,0,0,0,0,0,0,-1,1399,1401,0,0
182,-377,0,0,0,0,0,0,0,0,0,-1,1406,1401,0,0
189,-377,0,0,0,0,0,0,0,0,0,-1,1413,1401,0,0
196,-377,0,0,0,0,0,0,0,0,0,-1,1420,1401,0,0
203,-377,0,0,0,0,0,0,0,0,0,-1,1427,1401,0,0
210,-377,0,0,0,0,0,0,0,0,0,-1,1434,1401,0,0
217,-377,0,0,0,0,0,0,0,0,0,-1,1441,1401,0,0
224,-377,0,0,0,0,0,0,0,0,0,-1,1448,1401,0,0
231,-377,0,0,0,0,0,0,0,0,0,-1,1455,1401,0,0
238,-377,0,0,0,0,0,0,0,0,0,-1,1462,1401,0,0
245,-377,0,0,0,0,0,0,0,0,0,-1,1469,1401,0,0
252,-377,0,0,0,0,0,0,0,0,0,-1,1476,1401,0,0
259,-377,0,0,0,0,0,0,0,0,0,-1,1483,1401,0,0
266,-377,0,0,0,0,0,0,0,0,0,-1,1490,1401,0,0
273,-377,0,0,0,0,0,0,0,0,0,-1,1497,1401,0,0
280,-377,0,0,0,0,0,0,0,0,0,-1,1504,1401,0,0
287,-377,0,0,0,0,0,0,0,0,0,-1,1511,1401,0,0
294,-377,0,0,0,0,0,0,0,0,0,-1,1518,1401,0,0
301,-377,0,0,0,0,0,0,0,0,0,-1,1525,1401,0,0
308,-377,0,0,0,0,0,0,0,0,0,-1,1532,1401,0,0
315,-377,0,0,0,0,0,0,0,0,0,-1,1539,1401,0,0
322,-377,0,0,0,0,0,0,0,0,0,-1,1546,1401,0,0
329,-377,0,0,0,0,0,0,0,0,0,-1,1553,1401,0,0
336,-377,0,0,0,0,0,0,0,0,0,-1,1560,1401,0,0
343,-377,0,0,0,0,0,0,0,0,0,-1,1567,1401,0,0
350,-377,0,0,0,0,0,0,0,0,0,-1,1574,1401,0,0
357,-377,0,0,0,0,0,0,0,0,0,-1,1581,1401,0,0
364,-377,0,0,0,0,0,0,0,0,0,-1,1588,1401,0,0
371,-377,0,0,0,0,0,0,0,0,0,-1,1595,1401,0,0
378,-377,0,0,0,0,0,0,0,0,0,-1,1602,1401,0,0
385,-377,0,0,0,0,0,0,0,0,0,-1,1609,1401,0,0
392,-377,0,0,0,0,0,0,0,0,0,-1,1616,1401,0,0
399,-377,0,0,0,0,0,0,0,0,0,-1,1623,1401,0,0
406,-377,0,0,0,0,0,0,0,0,0,-1,1630,1401,0,0
413,-377,0,0,0,0,0,0,0,0,0,-1,1637,1401,0,0
420,-377,0,0,0,0,0,0,0,0,0,-1,1644,1401,0,0
427,-377,0,0,0,0,0,0,0,0,0,-1,1651,1401,0,0
434,-377,0,0,0,0,0,0,0,0,0,-1,1658,1401,0,0
441,-377,0,0,0,0,0,0,0,0,0,-1,1665,1401,0,0
448,-377,0,0,0,0,0,0,0,0,0,-1,1672,1401,0,0
455,-377,0,0,0,0,0,0,0,0,0,-1,1679,1401,0,0
462,-377,0,0,0,0,0,0,0,0,0,-1,1686,1401,0,0
469,-377,0,0,0,0,0,0,0,0,0,-1,1693,1401,0,0
476,-377,0,0,0,0,0,0,0,0,0,-1,1700,1401,0,0
483,-377,0,0,0,0,0,0,0,0,0,-1,1707,1401,0,0
490,-377,0,0,0,0,0,0,0,0,0,-1,1714,1401,0,0
497,-377,0,0,0,0,0,0,0,0,0,-1,1721,1401,0,0
504,-377,0,0,0,0,0,0,0,0,0,-1,1728,1401,0,0
511,-377,0,0,0,0,0,0,0,0,0,-1,1735,1401,0,0
518,-377,0,0,0,0,0,0,0,0,0,-1,1742,1401,0,0
525,-377,0,0,0,0,0,0,0,0,0,-1,1749,1401,0,0
532,-377,0,0,0,0,0,0,0,0,0,-1,1756,1401,0,0
539,-377,0,0,0,0,0,0,0,0,0,-1,1763,1401,0,0
546,-377,27.8485,2.34094,0,0,0,0,0,0,0,-1,1770,1401,27.8486,-2.34091
553,-377,61.8907,2.39148,0,0,0,0,0,0,0,-1,1777,1401,61.8908,-2.39149
560,-377,38.3577,-2.15015,0,0,0,0,0,0,0,-1,1784,1401,38.3576,2.1501
567,-377,38.4889,-0.285645,0,0,0,0,0,0,0,-1,1791,1401,38.4889,0.2857
574,-377,38.6221,1.61694,0,0,0,0,0,0,0,-1,1798,1401,38.6221,-1.61689
581,-377,39.1818,3.76367,0,0,0,0,0,0,0,-1,1805,1401,39.1818,-3.76366
588,-377,25.882,4.35217,0,0,0,0,0,0,0,-1,1812,1401,25.8819,-4.3522
595,-377,25.5392,5.11804,0,0,0,0,0,0,0,-1,1819,1401,25.5392,-5.11808
602,-377,24.816,5.79126,0,0,0,0,0,0,0,-1,1826,1401,24.816,-5.79124
609,-377,15.0223,4.76135,0,0,0,0,0,0,0,-1,1833,1401,15.0224,-4.76129
616,-377,14.1842,5.78992,0,0,0,0,0,0,0,-1,1840,1401,14.1842,-5.78987
623,-377,15.8248,8.76721,0,0,0,0,0,0,0,-1,1847,1401,15.8248,-8.76725
630,-377,37.4343,20.0704,0,0,0,0,0,0,0,-1,1854,1401,37.4344,-20.0704
637,-377,39.3153,19.8733,0,0,0,0,0,0,0,-1,1861,1401,39.3154,-19.8733
644,-377,39.4158,19.0696,-0.000654135,0.000527379,-0.000618699,0.000792064,-0.000918821,-1.16655,0.000988683,0.0138604,1868,1401,39.4158,-19.0696
651,-377,39.3739,18.3104,-0.000114704,0.000374673,-0.000371845,0.000575115,-0.000315146,-1.0764,0.000521246,0.0141127,1875,1401,39.3739,-18.3104
658,-377,39.3217,17.6066,0.000697617,0.000244515,-0.00016507,0.000751376,0.000190756,-0.314839,0.000450986,0.0155734,1882,1401,39.3217,-17.6066
665,-377,39.2773,16.8693,0.00167768,9.01729e-05,4.49306e-05,0.00167895,8.89024e-05,0.0282724,0.00109088,0.0198899,1889,1401,39.2774,-16.8693
672,-377,39.2312,16.1462,0.00288795,-0.000125813,0.000274648,0.00291277,-0.000150637,0.0901421,0.00199396,0.0196017,1896,1401,39.2312,-16.1462
679,-377,39.1813,15.4165,0.0042877,-0.000398235,0.000525646,0.00434594,-0.000456476,0.110348,0.00306082,0.0183298,1903,1401,39.1813,-15.4165
686,-377,39.1487,14.7072,0.00589064,-0.000734161,0.000782448,0.0059818,-0.00082532,0.115983,0.00428952,0.0166902,1910,1401,39.1486,-14.7071
693,-377,39.2173,13.8998,0.00769567,-0.00110145,0.00102214,0.00781287,-0.00121866,0.114165,0.00565871,0.0243361,1917,1401,39.2173,-13.8997
700,-377,39.4122,12.9666,0,0,0,0,0,0,0,-1,1924,1401,39.4123,-12.9666
707,-377,28.6234,9.18152,0,0,0,0,0,0,0,-1,1931,1401,28.6234,-9.18151
714,-377,16.5369,5.45959,0,0,0,0,0,0,0,-1,1938,1401,16.5369,-5.4596
721,-377,17.0913,5.42529,0,0,0,0,0,0,0,-1,1945,1401,17.0914,-5.42529
728,-377,14.5396,2.79724,0,0,0,0,0,0,0,-1,1952,1401,14.5396,-2.7972
735,-377,23.2977,-0.991089,0,0,0,0,0,0,0,-1,1959,1401,23.2978,0.991076
742,-377,0,0,0,0,0,0,0,0,0,-1,1966,1401,0,0
749,-377,0,0,0,0,0,0,0,0,0,-1,1973,1401,0,0
756,-377,0,0,0,0,0,0,0,0,0,-1,1980,1401,0,0
763,-377,0,0,0,0,0,0,0,0,0,-1,1987,1401,0,0
770,-377,0,0,0,0,0,0,0,0,0,-1,1994,1401,0,0
777,-377,0,0,0,0,0,0,0,0,0,-1,2001,1401,0,0
784,-377,0,0,0,0,0,0,0,0,0,-1,2008,1401,0,0
791,-377,0,0,0,0,0,0,0,0,0,-1,2015,1401,0,0
798,-377,0,0,0,0,0,0,0,0,0,-1,2022,1401,0,0
805,-377,0,0,0,0,0,0,0,0,0,-1,2029,1401,0,0
812,-377,0,0,0,0,0,0,0,0,0,-1,2036,1401,0,0
-700,-384,0,0,0,0,0,0,0,0,0,-1,524,1408,0,0
-693,-384,0,0,0,0,0,0,0,0,0,-1,531,1408,0,0
-686,-384,0,0,0,0,0,0,0,0,0,-1,538,1408,0,0
-679,-384,0,0,0,0,0,0,0,0,0,-1,545,1408,0,0
-672,-384,0,0,0,0,0,0,0,0,0,-1,552,1408,0,0
-665,-384,0,0,0,0,0,0,0,0,0,-1,559,1408,0,0
-658,-384,0,0,0,0,0,0,0,0,0,-1,566,1408,0,0
-651,-384,0,0,0,0,0,0,0,0,0,-1,573,1408,0,0
-644,-384,0,0,0,0,0,0,0,0,0,-1,580,1408,0,0
-637,-384,0,0,0,0,0,0,0,0,0,-1,587,1408,0,0
-630,-384,0,0,0,0,0,0,0,0,0,-1,594,1408,0,0
-623,-384,0,0,0,0,0,0,0,0,0,-1,601,1408,0,0
-616,-384,-10.019,-3.36646,0,0,0,0,0,0,0,-1,608,1408,-10.019,3.36648
-609,-384,-7.72357,-2.3418,0,0,0,0,0,0,0,-1,615,1408,-7.72358,2.34182
-602,-384,-11.7632,-2.85156,0,0,0,0,0,0,0,-1,622,1408,-11.7632,2.85157
-595,-384,-10.2217,2.8855,0,0,0,0,0,0,0,-1,629,1408,-10.2218,-2.88548
-588,-384,-12.1653,2.29041,0,0,0,0,0,0,0,-1,636,1408,-12.1654,-2.29038
-581,-384,-11.9297,3.60376,0,0,0,0,0,0,0,-1,643,1408,-11.9298,-3.6038
-574,-384,-11.8677,6.02722,0,0,0,0,0,0,0,-1,650,1408,-11.8677,-6.02722
-567,-384,-12.0743,7.04639,0,0,0,0,0,0,0,-1,657,1408,-12.0743,-7.04641
-560,-384,-19.9478,11.6345,0,0,0,0,0,0,0,-1,664,1408,-19.9478,-11.6345
-553,-384,-21.2097,13.6787,0,0,0,0,0,0,0,-1,671,1408,-21.2097,-13.6787
-546,-384,-21.278,14.4795,0.00354391,0.00238089,0.00240494,0.00543665,0.000488152,0.666776,0.00347317,0.0162481,678,1408,-21.278,-14.4794
-539,-384,-21.3381,15.2361,0.00291737,0.00164545,0.00182985,0.00421862,0.000344203,0.618153,0.00270499,0.018467,685,1408,-21.3381,-15.2361
-532,-384,-21.3356,15.9502,0.00252165,0.00108833,0.00141662,0.00339257,0.000217403,0.551223,0.00219284,0.0240096,692,1408,-21.3356,-15.9502
-525,-384,-21.3359,16.7981,0.00233209,0.000714248,0.00116505,0.00294151,0.000104825,0.481946,0.00192701,0.0224542,699,1408,-21.3359,-16.7981
-518,-384,-21.4124,17.5663,0.00230609,0.000459774,0.00104124,0.00277448,-8.61171e-06,0.422718,0.00185253,0.0137772,706,1408,-21.4123,-17.5663
-511,-384,-21.4763,18.3295,0.00244038,0.000363871,0.00104452,0.00287488,-7.06221e-05,0.394202,0.00194055,0.0112198,713,1408,-21.4763,-18.3294
-504,-384,-21.5095,19.1168,0.00277505,0.000432175,0.00121807,0.00329357,-8.63416e-05,0.402454,0.00222505,0.0127192,720,1408,-21.5095,-19.1168
-497,-384,-21.5067,19.9136,0.00326652,0.000640342,0.00152693,0.00396731,-6.04475e-05,0.430276,0.00266525,0.0413227,727,1408,-21.5067,-19.9136
-490,-384,-21.3722,20.8146,0,0,0,0,0,0,0,-1,734,1408,-21.3722,-20.8146
-483,-384,-6.26471,7.61194,0,0,0,0,0,0,0,-1,741,1408,-6.26469,-7.61191
-476,-384,-6.02734,5.67761,0,0,0,0,0,0,0,-1,748,1408,-6.02736,-5.6776
-469,-384,-10.206,2.63721,0,0,0,0,0,0,0,-1,755,1408,-10.206,-2.6372
-462,-384,-9.04291,1.43542,0,0,0,0,0,0,0,-1,762,1408,-9.04293,-1.43545
-455,-384,-7.87988,0.233765,0,0,0,0,0,0,0,-1,769,1408,-7.87986,-0.233709
-448,-384,-9.35529,7.19226,0,0,0,0,0,0,0,-1,776,1408,-9.35531,-7.19226
-441,-384,-10.4697,1.79004,0,0,0,0,0,0,0,-1,783,1408,-10.4697,-1.79003
-434,-384,-10.6449,0.552246,0,0,0,0,0,0,0,-1,790,1408,-10.6449,-0.552216
-427,-384,-10.968,1.10583,0,0,0,0,0,0,0,-1,797,1408,-10.968,-1.10588
-420,-384,-12.5607,4.54858,0,0,0,0,0,0,0,-1,804,1408,-12.5607,-4.54859
-413,-384,0,0,0,0,0,0,0,0,0,-1,811,1408,0,0
-406,-384,0,0,0,0,0,0,0,0,0,-1,818,1408,0,0
-399,-384,0,0,0,0,0,0,0,0,0,-1,825,1408,0,0
-392,-384,0,0,0,0,0,0,0,0,0,-1,832,1408,0,0
-385,-384,0,0,0,0,0,0,0,0,0,-1,839,1408,0,0
-378,-384,0,0,0,0,0,0,0,0,0,-1,846,1408,0,0
-371,-384,0,0,0,0,0,0,0,0,0,-1,853,1408,0,0
-364,-384,0,0,0,0,0,0,0,0,0,-1,860,1408,0,0
-357,-384,0,0,0,0,0,0,0,0,0,-1,867,1408,0,0
-350,-384,0,0,0,0,0,0,0,0,0,-1,874,1408,0,0
-343,-384,0,0,0,0,0,0,0,0,0,-1,881,1408,0,0
-336,-384,0,0,0,0,0,0,0,0,0,-1,888,1408,0,0
-329,-384,0,0,0,0,0,0,0,0,0,-1,895,1408,0,0
-322,-384,0,0,0,0,0,0,0,0,0,-1,902,1408,0,0
-315,-384,0,0,0,0,0,0,0,0,0,-1,909,1408,0,0
-308,-384,0,0,0,0,0,0,0,0,0,-1,916,1408,0,0
-301,-384,0,0,0,0,0,0,0,0,0,-1,923,1408,0,0
-294,-384,0,0,0,0,0,0,0,0,0,-1,930,1408,0,0
-287,-384,0,0,0,0,0,0,0,0,0,-1,937,1408,0,0
-280,-384,0,0,0,0,0,0,0,0,0,-1,944,1408,0,0
-273,-384,0,0,0,0,0,0,0,0,0,-1,951,1408,0,0
-266,-384,0,0,0,0,0,0,0,0,0,-1,958,1408,0,0
-259,-384,0,0,0,0,0,0,0,0,0,-1,965,1408,0,0
-252,-384,0,0,0,0,0,0,0,0,0,-1,972,1408,0,0
-245,-384,0,0,0,0,0,0,0,0,0,-1,979,1408,0,0
-238,-384,0,0,0,0,0,0,0,0,0,-1,986,1408,0,0
-231,-384,0,0,0,0,0,0,0,0,0,-1,993,1408,0,0
-224,-384,0,0,0,0,0,0,0,0,0,-1,1000,1408,0,0
-217,-384,0,0,0,0,0,0,0,0,0,-1,1007,1408,0,0
-210,-384,0,0,0,0,0,0,0,0,0,-1,1014,1408,0,0
-203,-384,0,0,0,0,0,0,0,0,0,-1,1021,1408,0,0
-196,-384,0,0,0,0,0,0,0,0,0,-1,1028,1408,0,0
-189,-384,0,0,0,0,0,0,0,0,0,-1,1035,1408,0,0
-182,-384,0,0,0,0,0,0,0,0,0,-1,1042,1408,0,0
-175,-384,0,0,0,0,0,0,0,0,0,-1,1049,1408,0,0
-168,-384,0,0,0,0,0,0,0,0,0,-1,1056,1408,0,0
-161,-384,0,0,0,0,0,0,0,0,0,-1,1063,1408,0,0
-154,-384,0,0,0,0,0,0,0,0,0,-1,1070,1408,0,0
-147,-384,0,0,0,0,0,0,0,0,0,-1,1077,1408,0,0
-140,-384,0,0,0,0,0,0,0,0,0,-1,1084,1408,0,0
-133,-384,0,0,0,0,0,0,0,0,0,-1,1091,1408,0,0
-126,-384,0,0,0,0,0,0,0,0,0,-1,1098,1408,0,0
-119,-384,0,0,0,0,0,0,0,0,0,-1,1105,1408,0,0
-112,-384,0,0,0,0,0,0,0,0,0,-1,1112,1408,0,0
-105,-384,0,0,0,0,0,0,0,0,0,-1,1119,1408,0,0
-98,-384,0,0,0,0,0,0,0,0,0,-1,1126,1408,0,0
-91,-384,0,0,0,0,0,0,0,0,0,-1,1133,1408,0,0
-84,-384,0,0,0,0,0,0,0,0,0,-1,1140,1408,0,0
-77,-384,0,0,0,0,0,0,0,0,0,-1,1147,1408,0,0
-70,-384,0,0,0,0,0,0,0,0,0,-1,1154,1408,0,0
-63,-384,0,0,0,0,0,0,0,0,0,-1,1161,1408,0,0
-56,-384,0,0,0,0,0,0,0,0,0,-1,1168,1408,0,0
-49,-384,0,0,0,0,0,0,0,0,0,-1,1175,1408,0,0
-42,-384,0,0,0,0,0,0,0,0,0,-1,1182,1408,0,0
-35,-384,0,0,0,0,0,0,0,0,0,-1,1189,1408,0,0
-28,-384,0,0,0,0,0,0,0,0,0,-1,1196,1408,0,0
-21,-384,0,0,0,0,0,0,0,0,0,-1,1203,1408,0,0
-14,-384,0,0,0,0,0,0,0,0,0,-1,1210,1408,0,0
-7,-384,0,0,0,0,0,0,0,0,0,-1,1217,1408,0,0
0,-384,0,0,0,0,0,0,0,0,0,-1,1224,1408,0,0
7,-384,0,0,0,0,0,0,0,0,0,-1,1231,1408,0,0
14,-384,0,0,0,0,0,0,0,0,0,-1,1238,1408,0,0
21,-384,0,0,0,0,0,0,0,0,0,-1,1245,1408,0,0
28,-384,0,0,0,0,0,0,0,0,0,-1,1252,1408,0,0
35,-384,0,0,0,0,0,0,0,0,0,-1,1259,1408,0,0
42,-384,0,0,0,0,0,0,0,0,0,-1,1266,1408,0,0
49,-384,0,0,0,0,0,0,0,0,0,-1,1273,1408,0,0
56,-384,0,0,0,0,0,0,0,0,0,-1,1280,1408,0,0
63,-384,0,0,0,0,0,0,0,0,0,-1,1287,1408,0,0
70,-384,0,0,0,0,0,0,0,0,0,-1,1294,1408,0,0
77,-384,0,0,0,0,0,0,0,0,0,-1,1301,1408,0,0
84,-384,0,0,0,0,0,0,0,0,0,-1,1308,1408,0,0
91,-384,0,0,0,0,0,0,0,0,0,-1,1315,1408,0,0
98,-384,0,0,0,0,0,0,0,0,0,-1,1322,1408,0,0
105,-384,0,0,0,0,0,0,0,0,0,-1,1329,1408,0,0
112,-384,0,0,0,0,0,0,0,0,0,-1,1336,1408,0,0
119,-384,0,0,0,0,0,0,0,0,0,-1,1343,1408,0,0
126,-384,0,0,0,0,0,0,0,0,0,-1,1350,1408,0,0
133,-384,0,0,0,0,0,0,0,0,0,-1,1357,1408,0,0
140,-384,0,0,0,0,0,0,0,0,0,-1,1364,1408,0,0
147,-384,0,0,0,0,0,0,0,0,0,-1,1371,1408,0,0
154,-384,0,0,0,0,0,0,0,0,0,-1,1378,1408,0,0
161,-384,0,0,0,0,0,0,0,0,0,-1,1385,1408,0,0
168,-384,0,0,0,0,0,0,0,0,0,-1,1392,1408,0,0
175,-384,0,0,0,0,0,0,0,0,0,-1,1399,1408,0,0
182,-384,0,0,0,0,0,0,0,0,0,-1,1406,1408,0,0
189,-384,0,0,0,0,0,0,0,0,0,-1,1413,1408,0,0
196,-384,0,0,0,0,0,0,0,0,0,-1,1420,1408,0,0
203,-384,0,0,0,0,0,0,0,0,0,-1,1427,1408,0,0
210,-384,0,0,0,0,0,0,0,0,0,-1,1434,1408,0,0
217,-384,0,0,0,0,0,0,0,0,0,-1,1441,1408,0,0
224,-384,0,0,0,0,0,0,0,0,0,-1,1448,1408,0,0
231,-384,0,0,0,0,0,0,0,0,0,-1,1455,1408,0,0
238,-384,0,0,0,0,0,0,0,0,0,-1,1462,1408,0,0
245,-384,0,0,0,0,0,0,0,0,0,-1,1469,1408,0,0
252,-384,0,0,0,0,0,0,0,0,0,-1,1476,1408,0,0
259,-384,0,0,0,0,0,0,0,0,0,-1,1483,1408,0,0
266,-384,0,0,0,0,0,0,0,0,0,-1,1490,1408,0,0
273,-384,0,0,0,0,0,0,0,0,0,-1,1497,1408,0,0
280,-384,0,0,0,0,0,0,0,0,0,-1,1504,1408,0,0
287,-384,0,0,0,0,0,0,0,0,0,-1,1511,1408,0,0
294,-384,0,0,0,0,0,0,0,0,0,-1,1518,1408,0,0
301,-384,0,0,0,0,0,0,0,0,0,-1,1525,1408,0,0
308,-384,0,0,0,0,0,0,0,0,0,-1,1532,1408,0,0
315,-384,0,0,0,0,0,0,0,0,0,-1,1539,1408,0,0
322,-384,0,0,0,0,0,0,0,0,0,-1,1546,1408,0,0
329,-384,0,0,0,0,0,0,0,0,0,-1,1553,1408,0,0
336,-384,0,0,0,0,0,0,0,0,0,-1,1560,1408,0,0
343,-384,0,0,0,0,0,0,0,0,0,-1,1567,1408,0,0
350,-384,0,0,0,0,0,0,0,0,0,-1,1574,1408,0,0
357,-384,0,0,0,0,0,0,0,0,0,-1,1581,1408,0,0
364,-384,0,0,0,0,0,0,0,0,0,-1,1588,1408,0,0
371,-384,0,0,0,0,0,0,0,0,0,-1,1595,1408,0,0
378,-384,0,0,0,0,0,0,0,0,0,-1,1602,1408,0,0
385,-384,0,0,0,0,0,0,0,0,0,-1,1609,1408,0,0
392,-384,0,0,0,0,0,0,0,0,0,-1,1616,1408,0,0
399,-384,0,0,0,0,0,0,0,0,0,-1,1623,1408,0,0
406,-384,0,0,0,0,0,0,0,0,0,-1,1630,1408,0,0
413,-384,0,0,0,0,0,0,0,0,0,-1,1637,1408,0,0
420,-384,0,0,0,0,0,0,0,0,0,-1,1644,1408,0,0
427,-384,0,0,0,0,0,0,0,0,0,-1,1651,1408,0,0
434,-384,0,0,0,0,0,0,0,0,0,-1,1658,1408,0,0
441,-384,0,0,0,0,0,0,0,0,0,-1,1665,1408,0,0
448,-384,0,0,0,0,0,0,0,0,0,-1,1672,1408,0,0
455,-384,0,0,0,0,0,0,0,0,0,-1,1679,1408,0,0
462,-384,0,0,0,0,0,0,0,0,0,-1,1686,1408,0,0
469,-384,0,0,0,0,0,0,0,0,0,-1,1693,1408,0,0
476,-384,0,0,0,0,0,0,0,0,0,-1,1700,1408,0,0
483,-384,0,0,0,0,0,0,0,0,0,-1,1707,1408,0,0
490,-384,0,0,0,0,0,0,0,0,0,-1,1714,1408,0,0
497,-384,0,0,0,0,0,0,0,0,0,-1,1721,1408,0,0
504,-384,0,0,0,0,0,0,0,0,0,-1,1728,1408,0,0
511,-384,0,0,0,0,0,0,0,0,0,-1,1735,1408,0,0
518,-384,0,0,0,0,0,0,0,0,0,-1,1742,1408,0,0
525,-384,0,0,0,0,0,0,0,0,0,-1,1749,1408,0,0
532,-384,0,0,0,0,0,0,0,0,0,-1,1756,1408,0,0
539,-384,27.6886,2.85803,0,0,0,0,0,0,0,-1,1763,1408,27.6886,-2.85807
546,-384,27.5044,2.9425,0,0,0,0,0,0,0,-1,1770,1408,27.5044,-2.94255
553,-384,27.3052,2.78394,0,0,0,0,0,0,0,-1,1777,1408,27.3051,-2.78394
560,-384,26.833,3.19812,0,0,0,0,0,0,0,-1,1784,1408,26.833,-3.19816
567,-384,38.2566,0.109985,0,0,0,0,0,0,0,-1,1791,1408,38.2566,-0.110044
574,-384,38.4003,2.05945,0,0,0,0,0,0,0,-1,1798,1408,38.4003,-2.05949
581,-384,25.819,3.91846,0,0,0,0,0,0,0,-1,1805,1408,25.8189,-3.91848
588,-384,23.3721,4.25439,0,0,0,0,0,0,0,-1,1812,1408,23.3721,-4.25442
595,-384,24.981,5.59595,0,0,0,0,0,0,0,-1,1819,1408,24.981,-5.59598
602,-384,20.6605,4.17261,0,0,0,0,0,0,0,-1,1826,1408,20.6606,-4.17265
609,-384,14.158,5.49475,0,0,0,0,0,0,0,-1,1833,1408,14.158,-5.49474
616,-384,14.7997,7.6908,0,0,0,0,0,0,0,-1,1840,1408,14.7996,-7.69079
623,-384,16.4293,9.58899,0,0,0,0,0,0,0,-1,1847,1408,16.4294,-9.58901
630,-384,38.6062,20.6927,0,0,0,0,0,0,0,-1,1854,1408,38.6062,-20.6928
637,-384,38.6567,19.8772,-0.000123876,4.97602e-05,-0.000293867,0.000269365,-0.000343481,-0.929029,0.000354688,0.0247341,1861,1408,38.6567,-19.8772
644,-384,38.6216,19.1371,-6.22218e-05,0.000330967,-0.000427694,0.000605087,-0.000336341,-1.00083,0.000550867,0.0171102,1868,1408,38.6216,-19.1371
651,-384,38.6029,18.3578,0.000460431,0.00027989,-0.000253817,0.000639552,0.000100769,-0.614547,0.000397063,0.0162658,1875,1408,38.6029,-18.3578
658,-384,38.5486,17.6163,0.00124271,0.000201833,-7.08292e-05,0.00124751,0.000197035,-0.067632,0.000774395,0.017013,1882,1408,38.5486,-17.6163
665,-384,38.5286,16.9098,0.0022313,9.0056e-05,0.000154327,0.00224237,7.89905e-05,0.0715802,0.00146929,0.0193773,1889,1408,38.5285,-16.9098
672,-384,38.4956,16.1746,0.0034896,-0.000116045,0.000450203,0.00354496,-0.000171408,0.122358,0.00242247,0.016985,1896,1408,38.4956,-16.1746
679,-384,38.442,15.432,0.00498145,-0.000425512,0.00082571,0.00510474,-0.000548797,0.148213,0.00360006,0.0165182,1903,1408,38.442,-15.432
686,-384,38.4047,14.7244,0.00672631,-0.000874272,0.00128678,0.00693825,-0.00108621,0.163241,0.00502684,0.014047,1910,1408,38.4047,-14.7244
693,-384,38.5258,13.9644,0.00872778,-0.00142468,0.0018176,0.00904337,-0.00174027,0.171919,0.00668494,0.0403623,1917,1408,38.5257,-13.9644
700,-384,38.7094,13.2329,0,0,0,0,0,0,0,-1,1924,1408,38.7094,-13.2329
707,-384,17.0566,6.62842,0,0,0,0,0,0,0,-1,1931,1408,17.0567,-6.62848
714,-384,16.038,5.0282,0,0,0,0,0,0,0,-1,1938,1408,16.038,-5.02819
721,-384,13.8843,2.8717,0,0,0,0,0,0,0,-1,1945,1408,13.8843,-2.87171
728,-384,15.4409,6.25745,0,0,0,0,0,0,0,-1,1952,1408,15.4409,-6.2574
735,-384,16.7598,6.71289,0,0,0,0,0,0,0,-1,1959,1408,16.7598,-6.71287
742,-384,0,0,0,0,0,0,0,0,0,-1,1966,1408,0,0
749,-384,0,0,0,0,0,0,0,0,0,-1,1973,1408,0,0
756,-384,0,0,0,0,0,0,0,0,0,-1,1980,1408,0,0
763,-384,0,0,0,0,0,0,0,0,0,-1,1987,1408,0,0
770,-384,0,0,0,0,0,0,0,0,0,-1,1994,1408,0,0
777,-384,0,0,0,0,0,0,0,0,0,-1,2001,1408,0,0
784,-384,0,0,0,0,0,0,0,0,0,-1,2008,1408,0,0
791,-384,0,0,0,0,0,0,0,0,0,-1,2015,1408,0,0
798,-384,0,0,0,0,0,0,0,0,0,-1,2022,1408,0,0
805,-384,0,0,0,0,0,0,0,0,0,-1,2029,1408,0,0
812,-384,0,0,0,0,0,0,0,0,0,-1,2036,1408,0,0
-700,-391,0,0,0,0,0,0,0,0,0,-1,524,1415,0,0
-693,-391,0,0,0,0,0,0,0,0,0,-1,531,1415,0,0
-686,-391,0,0,0,0,0,0,0,0,0,-1,538,1415,0,0
-679,-391,0,0,0,0,0,0,0,0,0,-1,545,1415,0,0
-672,-391,0,0,0,0,0,0,0,0,0,-1,552,1415,0,0
-665,-391,0,0,0,0,0,0,0,0,0,-1,559,1415,0,0
-658,-391,0,0,0,0,0,0,0,0,0,-1,566,1415,0,0
-651,-391,0,0,0,0,0,0,0,0,0,-1,573,1415,0,0
-644,-391,0,0,0,0,0,0,0,0,0,-1,580,1415,0,0
-637,-391,0,0,0,0,0,0,0,0,0,-1,587,1415,0,0
-630,-391,0,0,0,0,0,0,0,0,0,-1,594,1415,0,0
-623,-391,0,0,0,0,0,0,0,0,0,-1,601,1415,0,0
-616,-391,0,0,0,0,0,0,0,0,0,-1,608,1415,0,0
-609,-391,-7.71753,-3.69763,0,0,0,0,0,0,0,-1,615,1415,-7.71751,3.69759
-602,-391,-13.9493,-4.12805,0,0,0,0,0,0,0,-1,622,1415,-13.9493,4.12803
-595,-391,-10.8315,1.76172,0,0,0,0,0,0,0,-1,629,1415,-10.8315,-1.76171
-588,-391,-10.265,2.16431,0,0,0,0,0,0,0,-1,636,1415,-10.265,-2.16431
-581,-391,-11.3325,2.44836,0,0,0,0,0,0,0,-1,643,1415,-11.3325,-2.44842
-574,-391,-11.1471,6.19983,0,0,0,0,0,0,0,-1,650,1415,-11.1471,-6.19981
-567,-391,-11.5172,6.82458,0,0,0,0,0,0,0,-1,657,1415,-11.5171,-6.82454
-560,-391,-11.2459,7.37195,0,0,0,0,0,0,0,-1,664,1415,-11.2459,-7.37191
-553,-391,-20.591,13.6388,0,0,0,0,0,0,0,-1,671,1415,-20.591,-13.6388
-546,-391,-20.5268,14.4735,0.00384464,0.00296004,0.00285019,0.00628664,0.000518035,0.70842,0.00402953,0.0192269,678,1415,-20.5268,-14.4735
-539,-391,-20.496,15.288,0.00305033,0.00211144,0.00214584,0.00477748,0.00038429,0.67771,0.00306493,0.0155193,685,1415,-20.4959,-15.288
-532,-391,-20.5291,16.0651,0.00250971,0.00143941,0.00160971,0.00367089,0.000278228,0.62492,0.00235999,0.0258888,692,1415,-20.5291,-16.0651
-525,-391,-20.5865,16.8799,0.00220029,0.000977339,0.00125073,0.00298102,0.000196614,0.558035,0.00192516,0.0243379,699,1415,-20.5865,-16.8799
-518,-391,-20.6777,17.624,0.00205957,0.0006441,0.00102403,0.00259664,0.000107033,0.483025,0.00169654,0.0153038,706,1415,-20.6776,-17.624
-511,-391,-20.6954,18.3839,0.00206059,0.000461096,0.000903296,0.0024673,5.43854e-05,0.423063,0.00162704,0.014395,713,1415,-20.6954,-18.3839
-504,-391,-20.7229,19.1676,0.00223148,0.000430256,0.000926617,0.00262304,3.86911e-05,0.399815,0.00173594,0.0133238,720,1415,-20.7229,-19.1676
-497,-391,-20.7673,19.9341,0.00254436,0.00054094,0.00107915,0.00301506,7.02442e-05,0.411297,0.00198704,0.0147309,727,1415,-20.7674,-19.9341
-490,-391,-20.7874,20.7125,0,0,0,0,0,0,0,-1,734,1415,-20.7874,-20.7125
-483,-391,-11.1018,12.9382,0,0,0,0,0,0,0,-1,741,1415,-11.1018,-12.9382
-476,-391,-6.05731,6.85303,0,0,0,0,0,0,0,-1,748,1415,-6.05728,-6.85304
-469,-391,-3.88953,5.0979,0,0,0,0,0,0,0,-1,755,1415,-3.88955,-5.09794
-462,-391,-8.67688,2.03125,0,0,0,0,0,0,0,-1,762,1415,-8.67685,-2.03121
-455,-391,-8.65576,6.46997,0,0,0,0,0,0,0,-1,769,1415,-8.65579,-6.46999
-448,-391,-8.39618,4.38403,0,0,0,0,0,0,0,-1,776,1415,-8.39617,-4.38405
-441,-391,-9.77704,2.5946,0,0,0,0,0,0,0,-1,783,1415,-9.77702,-2.5946
-434,-391,-11.5403,2.12878,0,0,0,0,0,0,0,-1,790,1415,-11.5403,-2.12881
-427,-391,-10.5311,2.50403,0,0,0,0,0,0,0,-1,797,1415,-10.5311,-2.504
-420,-391,-14.7087,1.24365,0,0,0,0,0,0,0,-1,804,1415,-14.7088,-1.24365
-413,-391,0,0,0,0,0,0,0,0,0,-1,811,1415,0,0
-406,-391,0,0,0,0,0,0,0,0,0,-1,818,1415,0,0
-399,-391,0,0,0,0,0,0,0,0,0,-1,825,1415,0,0
-392,-391,0,0,0,0,0,0,0,0,0,-1,832,1415,0,0
-385,-391,0,0,0,0,0,0,0,0,0,-1,839,1415,0,0
-378,-391,0,0,0,0,0,0,0,0,0,-1,846,1415,0,0
-371,-391,0,0,0,0,0,0,0,0,0,-1,853,1415,0,0
-364,-391,0,0,0,0,0,0,0,0,0,-1,860,1415,0,0
-357,-391,0,0,0,0,0,0,0,0,0,-1,867,1415,0,0
-350,-391,0,0,0,0,0,0,0,0,0,-1,874,1415,0,0
-343,-391,0,0,0,0,0,0,0,0,0,-1,881,1415,0,0
-336,-391,0,0,0,0,0,0,0,0,0,-1,888,1415,0,0
-329,-391,0,0,0,0,0,0,0,0,0,-1,895,1415,0,0
-322,-391,0,0,0,0,0,0,0,0,0,-1,902,1415,0,0
-315,-391,0,0,0,0,0,0,0,0,0,-1,909,1415,0,0
-308,-391,0,0,0,0,0,0,0,0,0,-1,916,1415,0,0
-301,-391,0,0,0,0,0,0,0,0,0,-1,923,1415,0,0
-294,-391,0,0,0,0,0,0,0,0,0,-1,930,1415,0,0
-287,-391,0,0,0,0,0,0,0,0,0,-1,937,1415,0,0
-280,-391,0,0,0,0,0,0,0,0,0,-1,944,1415,0,0
-273,-391,0,0,0,0,0,0,0,0,0,-1,951,1415,0,0
-266,-391,0,0,0,0,0,0,0,0,0,-1,958,1415,0,0
-259,-391,0,0,0,0,0,0,0,0,0,-1,965,1415,0,0
-252,-391,0,0,0,0,0,0,0,0,0,-1,972,1415,0,0
-245,-391,0,0,0,0,0,0,0,0,0,-1,979,1415,0,0
-238,-391,0,0,0,0,0,0,0,0,0,-1,986,1415,0,0
-231,-391,0,0,0,0,0,0,0,0,0,-1,993,1415,0,0
-224,-391,0,0,0,0,0,0,0,0,0,-1,1000,1415,0,0
-217,-391,0,0,0,0,0,0,0,0,0,-1,1007,1415,0,0
-210,-391,0,0,0,0,0,0,0,0,0,-1,1014,1415,0,0
-203,-391,0,0,0,0,0,0,0,0,0,-1,1021,1415,0,0
-196,-391,0,0,0,0,0,0,0,0,0,-1,1028,1415,0,0
-189,-391,0,0,0,0,0,0,0,0,0,-1,1035,1415,0,0
-182,-391,0,0,0,0,0,0,0,0,0,-1,1042,1415,0,0
-175,-391,0,0,0,0,0,0,0,0,0,-1,1049,1415,0,0
-168,-391,0,0,0,0,0,0,0,0,0,-1,1056,1415,0,0
-161,-391,0,0,0,0,0,0,0,0,0,-1,1063,1415,0,0
-154,-391,0,0,0,0,0,0,0,0,0,-1,1070,1415,0,0
-147,-391,0,0,0,0,0,0,0,0,0,-1,1077,1415,0,0
-140,-391,0,0,0,0,0,0,0,0,0,-1,1084,1415,0,0
-133,-391,0,0,0,0,0,0,0,0,0,-1,1091,1415,0,0
-126,-391,0,0,0,0,0,0,0,0,0,-1,1098,1415,0,0
-119,-391,0,0,0,0,0,0,0,0,0,-1,1105,1415,0,0
-112,-391,0,0,0,0,0,0,0,0,0,-1,1112,1415,0,0
-105,-391,0,0,0,0,0,0,0,0,0,-1,1119,1415,0,0
-98,-391,0,0,0,0,0,0,0,0,0,-1,1126,1415,0,0
-91,-391,0,0,0,0,0,0,0,0,0,-1,1133,1415,0,0
-84,-391,0,0,0,0,0,0,0,0,0,-1,1140,1415,0,0
-77,-391,0,0,0,0,0,0,0,0,0,-1,1147,1415,0,0
-70,-391,0,0,0,0,0,0,0,0,0,-1,1154,1415,0,0
-63,-391,0,0,0,0,0,0,0,0,0,-1,1161,1415,0,0
-56,-391,0,0,0,0,0,0,0,0,0,-1,1168,1415,0,0
-49,-391,0,0,0,0,0,0,0,0,0,-1,1175,1415,0,0
-42,-391,0,0,0,0,0,0,0,0,0,-1,1182,1415,0,0
-35,-391,0,0,0,0,0,0,0,0,0,-1,1189,1415,0,0
-28,-391,0,0,0,0,0,0,0,0,0,-1,1196,1415,0,0
-21,-391,0,0,0,0,0,0,0,0,0,-1,1203,1415,0,0
-14,-391,0,0,0,0,0,0,0,0,0,-1,1210,1415,0,0
-7,-391,0,0,0,0,0,0,0,0,0,-1,1217,1415,0,0
0,-391,0,0,0,0,0,0,0,0,0,-1,1224,1415,0,0
7,-391,0,0,0,0,0,0,0,0,0,-1,1231,1415,0,0
14,-391,0,0,0,0,0,0,0,0,0,-1,1238,1415,0,0
21,-391,0,0,0,0,0,0,0,0,0,-1,1245,1415,0,0
28,-391,0,0,0,0,0,0,0,0,0,-1,1252,1415,0,0
35,-391,0,0,0,0,0,0,0,0,0,-1,1259,1415,0,0
42,-391,0,0,0,0,0,0,0,0,0,-1,1266,1415,0,0
49,-391,0,0,0,0,0,0,0,0,0,-1,1273,1415,0,0
56,-391,0,0,0,0,0,0,0,0,0,-1,1280,1415,0,0
63,-391,0,0,0,0,0,0,0,0,0,-1,1287,1415,0,0
70,-391,0,0,0,0,0,0,0,0,0,-1,1294,1415,0,0
77,-391,0,0,0,0,0,0,0,0,0,-1,1301,1415,0,0
84,-391,0,0,0,0,0,0,0,0,0,-1,1308,1415,0,0
91,-391,0,0,0,0,0,0,0,0,0,-1,1315,1415,0,0
98,-391,0,0,0,0,0,0,0,0,0,-1,1322,1415,0,0
105,-391,0,0,0,0,0,0,0,0,0,-1,1329,1415,0,0
112,-391,0,0,0,0,0,0,0,0,0,-1,1336,1415,0,0
119,-391,0,0,0,0,0,0,0,0,0,-1,1343,1415,0,0
126,-391,0,0,0,0,0,0,0,0,0,-1,1350,1415,0,0
133,-391,0,0,0,0,0,0,0,0,0,-1,1357,1415,0,0
140,-391,0,0,0,0,0,0,0,0,0,-1,1364,1415,0,0
147,-391,0,0,0,0,0,0,0,0,0,-1,1371,1415,0,0
154,-391,0,0,0,0,0,0,0,0,0,-1,1378,1415,0,0
161,-391,0,0,0,0,0,0,0,0,0,-1,1385,1415,0,0
168,-391,0,0,0,0,0,0,0,0,0,-1,1392,1415,0,0
175,-391,0,0,0,0,0,0,0,0,0,-1,1399,1415,0,0
182,-391,0,0,0,0,0,0,0,0,0,-1,1406,1415,0,0
189,-391,0,0,0,0,0,0,0,0,0,-1,1413,1415,0,0
196,-391,0,0,0,0,0,0,0,0,0,-1,1420,1415,0,0
203,-391,0,0,0,0,0,0,0,0,0,-1,1427,1415,0,0
210,-391,0,0,0,0,0,0,0,0,0,-1,1434,1415,0,0
217,-391,0,0,0,0,0,0,0,0,0,-1,1441,1415,0,0
224,-391,0,0,0,0,0,0,0,0,0,-1,1448,1415,0,0
231,-391,0,0,0,0,0,0,0,0,0,-1,1455,1415,0,0
238,-391,0,0,0,0,0,0,0,0,0,-1,1462,1415,0,0
245,-391,0,0,0,0,0,0,0,0,0,-1,1469,1415,0,0
252,-391,0,0,0,0,0,0,0,0,0,-1,1476,1415,0,0
259,-391,0,0,0,0,0,0,0,0,0,-1,1483,1415,0,0
266,-391,0,0,0,0,0,0,0,0,0,-1,1490,1415,0,0
273,-391,0,0,0,0,0,0,0,0,0,-1,1497,1415,0,0
280,-391,0,0,0,0,0,0,0,0,0,-1,1504,1415,0,0
287,-391,0,0,0,0,0,0,0,0,0,-1,1511,1415,0,0
294,-391,0,0,0,0,0,0,0,0,0,-1,1518,1415,0,0
301,-391,0,0,0,0,0,0,0,0,0,-1,1525,1415,0,0
308,-391,0,0,0,0,0,0,0,0,0,-1,1532,1415,0,0
315,-391,0,0,0,0,0,0,0,0,0,-1,1539,1415,0,0
322,-391,0,0,0,0,0,0,0,0,0,-1,1546,1415,0,0
329,-391,0,0,0,0,0,0,0,0,0,-1,1553,1415,0,0
336,-391,0,0,0,0,0,0,0,0,0,-1,1560,1415,0,0
343,-391,0,0,0,0,0,0,0,0,0,-1,1567,1415,0,0
350,-391,0,0,0,0,0,0,0,0,0,-1,1574,1415,0,0
357,-391,0,0,0,0,0,0,0,0,0,-1,1581,1415,0,0
364,-391,0,0,0,0,0,0,0,0,0,-1,1588,1415,0,0
371,-391,0,0,0,0,0,0,0,0,0,-1,1595,1415,0,0
378,-391,0,0,0,0,0,0,0,0,0,-1,1602,1415,0,0
385,-391,0,0,0,0,0,0,0,0,0,-1,1609,1415,0,0
392,-391,0,0,0,0,0,0,0,0,0,-1,1616,1415,0,0
399,-391,0,0,0,0,0,0,0,0,0,-1,1623,1415,0,0
406,-391,0,0,0,0,0,0,0,0,0,-1,1630,1415,0,0
413,-391,0,0,0,0,0,0,0,0,0,-1,1637,1415,0,0
420,-391,0,0,0,0,0,0,0,0,0,-1,1644,1415,0,0
427,-391,0,0,0,0,0,0,0,0,0,-1,1651,1415,0,0
434,-391,0,0,0,0,0,0,0,0,0,-1,1658,1415,0,0
441,-391,0,0,0,0,0,0,0,0,0,-1,1665,1415,0,0
448,-391,0,0,0,0,0,0,0,0,0,-1,1672,1415,0,0
455,-391,0,0,0,0,0,0,0,0,0,-1,1679,1415,0,0
462,-391,0,0,0,0,0,0,0,0,0,-1,1686,1415,0,0
469,-391,0,0,0,0,0,0,0,0,0,-1,1693,1415,0,0
476,-391,0,0,0,0,0,0,0,0,0,-1,1700,1415,0,0
483,-391,0,0,0,0,0,0,0,0,0,-1,1707,1415,0,0
490,-391,0,0,0,0,0,0,0,0,0,-1,1714,1415,0,0
497,-391,0,0,0,0,0,0,0,0,0,-1,1721,1415,0,0
504,-391,0,0,0,0,0,0,0,0,0,-1,1728,1415,0,0
511,-391,0,0,0,0,0,0,0,0,0,-1,1735,1415,0,0
518,-391,0,0,0,0,0,0,0,0,0,-1,1742,1415,0,0
525,-391,0,0,0,0,0,0,0,0,0,-1,1749,1415,0,0
532,-391,28.5959,3.02356,0,0,0,0,0,0,0,-1,1756,1415,28.596,-3.02358
539,-391,27.5881,3.25012,0,0,0,0,0,0,0,-1,1763,1415,27.5882,-3.25016
546,-391,27.2837,3.28064,0,0,0,0,0,0,0,-1,1770,1415,27.2837,-3.28064
553,-391,32.5952,5.04553,0,0,0,0,0,0,0,-1,1777,1415,32.5952,-5.04551
560,-391,31.2947,5.67017,0,0,0,0,0,0,0,-1,1784,1415,31.2947,-5.67011
567,-391,30.1473,6.17603,0,0,0,0,0,0,0,-1,1791,1415,30.1473,-6.17602
574,-391,27.5656,5.6842,0,0,0,0,0,0,0,-1,1798,1415,27.5655,-5.68422
581,-391,25.8883,5.76123,0,0,0,0,0,0,0,-1,1805,1415,25.8883,-5.76124
588,-391,24.2717,5.47986,0,0,0,0,0,0,0,-1,1812,1415,24.2717,-5.47982
595,-391,22.8827,6.1991,0,0,0,0,0,0,0,-1,1819,1415,22.8827,-6.19909
602,-391,15.1635,5.69849,0,0,0,0,0,0,0,-1,1826,1415,15.1635,-5.69847
609,-391,14.8285,7.50476,0,0,0,0,0,0,0,-1,1833,1415,14.8285,-7.50479
616,-391,20.7952,12.0503,0,0,0,0,0,0,0,-1,1840,1415,20.7952,-12.0503
623,-391,36.6426,20.3677,0,0,0,0,0,0,0,-1,1847,1415,36.6426,-20.3676
630,-391,37.974,20.6056,0,0,0,0,0,0,0,-1,1854,1415,37.974,-20.6056
637,-391,37.9136,19.8934,0.000332881,-1.51093e-05,-0.000182173,0.000410801,-9.30292e-05,-0.404177,0.000309572,0.0176929,1861,1415,37.9135,-19.8935
644,-391,37.868,19.1711,0.000451387,0.000211901,-0.000293173,0.000648328,1.49603e-05,-0.591518,0.000427319,0.0175594,1868,1415,37.868,-19.1711
651,-391,37.8369,18.4375,0.000964462,0.000245617,-0.000176075,0.00100527,0.000204806,-0.22776,0.000613418,0.0172911,1875,1415,37.837,-18.4375
658,-391,37.803,17.6782,0.00177074,0.000243968,-3.77646e-05,0.00177167,0.000243034,-0.0247148,0.00110902,0.0190644,1882,1415,37.8029,-17.6782
665,-391,37.7783,16.9357,0.00282257,0.000190045,0.000187075,0.00283579,0.000176818,0.0705902,0.00183443,0.0160578,1889,1415,37.7783,-16.9356
672,-391,37.7538,16.2151,0.00416766,1.15137e-05,0.000541068,0.00423695,-5.77704e-05,0.127357,0.00284408,0.0135015,1896,1415,37.7537,-16.215
679,-391,37.7087,15.4832,0.00578401,-0.000319637,0.00104847,0.00595909,-0.000494719,0.165461,0.00414748,0.0135684,1903,1415,37.7088,-15.4831
686,-391,37.6797,14.7318,0.0076975,-0.000890741,0.00175783,0.00804336,-0.0012366,0.194274,0.00581841,0.0172262,1910,1415,37.6797,-14.7318
693,-391,37.7665,14.2954,0.0099155,-0.00166618,0.00268506,0.0105077,-0.00225839,0.217083,0.00786674,0.0438382,1917,1415,37.7665,-14.2955
700,-391,38.1307,13.7668,0,0,0,0,0,0,0,-1,1924,1415,38.1307,-13.7668
707,-391,12.9524,5.96851,0,0,0,0,0,0,0,-1,1931,1415,12.9524,-5.96849
714,-391,15.6875,7.67896,0,0,0,0,0,0,0,-1,1938,1415,15.6875,-7.67893
721,-391,14.1808,8.08435,0,0,0,0,0,0,0,-1,1945,1415,14.1808,-8.08439
728,-391,13.8102,7.28174,0,0,0,0,0,0,0,-1,1952,1415,13.8102,-7.28174
735,-391,0,0,0,0,0,0,0,0,0,-1,1959,1415,0,0
742,-391,0,0,0,0,0,0,0,0,0,-1,1966,1415,0,0
749,-391,0,0,0,0,0,0,0,0,0,-1,1973,1415,0,0
756,-391,0,0,0,0,0,0,0,0,0,-1,1980,1415,0,0
763,-391,0,0,0,0,0,0,0,0,0,-1,1987,1415,0,0
770,-391,0,0,0,0,0,0,0,0,0,-1,1994,1415,0,0
777,-391,0,0,0,0,0,0,0,0,0,-1,2001,1415,0,0
784,-391,0,0,0,0,0,0,0,0,0,-1,2008,1415,0,0
791,-391,0,0,0,0,0,0,0,0,0,-1,2015,1415,0,0
798,-391,0,0,0,0,0,0,0,0,0,-1,2022,1415,0,0
805,-391,0,0,0,0,0,0,0,0,0,-1,2029,1415,0,0
812,-391,0,0,0,0,0,0,0,0,0,-1,2036,1415,0,0
-700,-398,0,0,0,0,0,0,0,0,0,-1,524,1422,0,0
-693,-398,0,0,0,0,0,0,0,0,0,-1,531,1422,0,0
-686,-398,0,0,0,0,0,0,0,0,0,-1,538,1422,0,0
-679,-398,0,0,0,0,0,0,0,0,0,-1,545,1422,0,0
-672,-398,0,0,0,0,0,0,0,0,0,-1,552,1422,0,0
-665,-398,0,0,0,0,0,0,0,0,0,-1,559,1422,0,0
-658,-398,0,0,0,0,0,0,0,0,0,-1,566,1422,0,0
-651,-398,0,0,0,0,0,0,0,0,0,-1,573,1422,0,0
-644,-398,0,0,0,0,0,0,0,0,0,-1,580,1422,0,0
-637,-398,0,0,0,0,0,0,0,0,0,-1,587,1422,0,0
-630,-398,0,0,0,0,0,0,0,0,0,-1,594,1422,0,0
-623,-398,0,0,0,0,0,0,0,0,0,-1,601,1422,0,0
-616,-398,0,0,0,0,0,0,0,0,0,-1,608,1422,0,0
-609,-398,-7.47125,-4.05322,0,0,0,0,0,0,0,-1,615,1422,-7.47128,4.05317
-602,-398,-4.58868,-2.77026,0,0,0,0,0,0,0,-1,622,1422,-4.58869,2.77023
-595,-398,-12.2224,-1.82007,0,0,0,0,0,0,0,-1,629,1422,-12.2224,1.82006
-588,-398,-10.6939,1.32336,0,0,0,0,0,0,0,-1,636,1422,-10.6939,-1.32337
-581,-398,-10.433,3.1123,0,0,0,0,0,0,0,-1,643,1422,-10.433,-3.11233
-574,-398,-10.4475,5.89807,0,0,0,0,0,0,0,-1,650,1422,-10.4475,-5.89802
-567,-398,-10.4904,6.80115,0,0,0,0,0,0,0,-1,657,1422,-10.4904,-6.80115
-560,-398,-10.5333,7.70435,0,0,0,0,0,0,0,-1,664,1422,-10.5333,-7.70429
-553,-398,-19.7893,13.5837,0,0,0,0,0,0,0,-1,671,1422,-19.7893,-13.5837
-546,-398,-19.7847,14.5062,0.00421682,0.0037071,0.0035334,0.00750454,0.000419387,0.749396,0.00486925,0.0360334,678,1422,-19.7847,-14.5063
-539,-398,-19.7059,15.3571,0.0032306,0.00272036,0.00264142,0.0056292,0.000321765,0.737255,0.00365027,0.0131791,685,1422,-19.7059,-15.3571
-532,-398,-19.7664,16.144,0.00253017,0.0019058,0.00193453,0.00417755,0.000258434,0.7054,0.00270301,0.0213614,692,1422,-19.7664,-16.144
-525,-398,-19.8488,16.9016,0.00210018,0.0013387,0.00143481,0.0032039,0.000234971,0.655707,0.00206208,0.020473,699,1422,-19.8488,-16.9016
-518,-398,-19.8591,17.6617,0.00186086,0.000925498,0.0010847,0.00257441,0.000211951,0.581859,0.00165017,0.0183367,706,1422,-19.8591,-17.6618
-511,-398,-19.8697,18.4203,0.00175352,0.000654619,0.000842774,0.00221013,0.000198006,0.496524,0.00141206,0.0148795,713,1422,-19.8697,-18.4203
-504,-398,-19.9251,19.2235,0.00178983,0.000531244,0.000732593,0.0021263,0.000194773,0.430551,0.00135728,0.0152969,720,1422,-19.9251,-19.2236
-497,-398,-19.9866,19.9801,0.00196833,0.000555889,0.000753142,0.00229457,0.000229652,0.40877,0.0014592,0.0111851,727,1422,-19.9867,-19.9801
-490,-398,-19.9971,20.7531,0.00239266,0.000715076,0.000913431,0.002794,0.000313736,0.413985,0.00176739,0.0217807,734,1422,-19.9971,-20.753
-483,-398,-19.9706,21.5735,0,0,0,0,0,0,0,-1,741,1422,-19.9706,-21.5734
-476,-398,-8.64392,11.9448,0,0,0,0,0,0,0,-1,748,1422,-8.6439,-11.9448
-469,-398,-8.91699,10.6276,0,0,0,0,0,0,0,-1,755,1422,-8.91697,-10.6275
-462,-398,-9.59753,9.32532,0,0,0,0,0,0,0,-1,762,1422,-9.59753,-9.32531
-455,-398,-8.08331,6.75024,0,0,0,0,0,0,0,-1,769,1422,-8.08333,-6.75022
-448,-398,-7.4505,5.25293,0,0,0,0,0,0,0,-1,776,1422,-7.4505,-5.25291
-441,-398,-7.61639,3.32141,0,0,0,0,0,0,0,-1,783,1422,-7.61637,-3.32145
-434,-398,-10.7618,3.297,0,0,0,0,0,0,0,-1,790,1422,-10.7618,-3.29704
-427,-398,-11.9061,2.24939,0,0,0,0,0,0,0,-1,797,1422,-11.9061,-2.24941
-420,-398,-13.467,2.32788,0,0,0,0,0,0,0,-1,804,1422,-13.467,-2.32787
-413,-398,-14.7983,2.15515,0,0,0,0,0,0,0,-1,811,1422,-14.7983,-2.15516
-406,-398,0,0,0,0,0,0,0,0,0,-1,818,1422,0,0
-399,-398,0,0,0,0,0,0,0,0,0,-1,825,1422,0,0
-392,-398,0,0,0,0,0,0,0,0,0,-1,832,1422,0,0
-385,-398,0,0,0,0,0,0,0,0,0,-1,839,1422,0,0
-378,-398,0,0,0,0,0,0,0,0,0,-1,846,1422,0,0
-371,-398,0,0,0,0,0,0,0,0,0,-1,853,1422,0,0
-364,-398,0,0,0,0,0,0,0,0,0,-1,860,1422,0,0
-357,-398,0,0,0,0,0,0,0,0,0,-1,867,1422,0,0
-350,-398,0,0,0,0,0,0,0,0,0,-1,874,1422,0,0
-343,-398,0,0,0,0,0,0,0,0,0,-1,881,1422,0,0
-336,-398,0,0,0,0,0,0,0,0,0,-1,888,1422,0,0
-329,-398,0,0,0,0,0,0,0,0,0,-1,895,1422,0,0
-322,-398,0,0,0,0,0,0,0,0,0,-1,902,1422,0,0
-315,-398,0,0,0,0,0,0,0,0,0,-1,909,1422,0,0
-308,-398,0,0,0,0,0,0,0,0,0,-1,916,1422,0,0
-301,-398,0,0,0,0,0,0,0,0,0,-1,923,1422,0,0
-294,-398,0,0,0,0,0,0,0,0,0,-1,930,1422,0,0
-287,-398,0,0,0,0,0,0,0,0,0,-1,937,1422,0,0
-280,-398,0,0,0,0,0,0,0,0,0,-1,944,1422,0,0
-273,-398,0,0,0,0,0,0,0,0,0,-1,951,1422,0,0
-266,-398,0,0,0,0,0,0,0,0,0,-1,958,1422,0,0
-259,-398,0,0,0,0,0,0,0,0,0,-1,965,1422,0,0
-252,-398,0,0,0,0,0,0,0,0,0,-1,972,1422,0,0
-245,-398,0,0,0,0,0,0,0,0,0,-1,979,1422,0,0
-238,-398,0,0,0,0,0,0,0,0,0,-1,986,1422,0,0
-231,-398,0,0,0,0,0,0,0,0,0,-1,993,1422,0,0
-224,-398,0,0,0,0,0,0,0,0,0,-1,1000,1422,0,0
-217,-398,0,0,0,0,0,0,0,0,0,-1,1007,1422,0,0
-210,-398,0,0,0,0,0,0,0,0,0,-1,1014,1422,0,0
-203,-398,0,0,0,0,0,0,0,0,0,-1,1021,1422,0,0
-196,-398,0,0,0,0,0,0,0,0,0,-1,1028,1422,0,0
-189,-398,0,0,0,0,0,0,0,0,0,-1,1035,1422,0,0
-182,-398,0,0,0,0,0,0,0,0,0,-1,1042,1422,0,0
-175,-398,0,0,0,0,0,0,0,0,0,-1,1049,1422,0,0
-168,-398,0,0,0,0,0,0,0,0,0,-1,1056,1422,0,0
-161,-398,0,0,0,0,0,0,0,0,0,-1,1063,1422,0,0
-154,-398,0,0,0,0,0,0,0,0,0,-1,1070,1422,0,0
-147,-398,0,0,0,0,0,0,0,0,0,-1,1077,1422,0,0
-140,-398,0,0,0,0,0,0,0,0,0,-1,1084,1422,0,0
-133,-398,0,0,0,0,0,0,0,0,0,-1,1091,1422,0,0
-126,-398,0,0,0,0,0,0,0,0,0,-1,1098,1422,0,0
-119,-398,0,0,0,0,0,0,0,0,0,-1,1105,1422,0,0
-112,-398,0,0,0,0,0,0,0,0,0,-1,1112,1422,0,0
-105,-398,0,0,0,0,0,0,0,0,0,-1,1119,1422,0,0
-98,-398,0,0,0,0,0,0,0,0,0,-1,1126,1422,0,0
-91,-398,0,0,0,0,0,0,0,0,0,-1,1133,1422,0,0
-84,-398,0,0,0,0,0,0,0,0,0,-1,1140,1422,0,0
-77,-398,0,0,0,0,0,0,0,0,0,-1,1147,1422,0,0
-70,-398,0,0,0,0,0,0,0,0,0,-1,1154,1422,0,0
-63,-398,0,0,0,0,0,0,0,0,0,-1,1161,1422,0,0
-56,-398,0,0,0,0,0,0,0,0,0,-1,1168,1422,0,0
-49,-398,0,0,0,0,0,0,0,0,0,-1,1175,1422,0,0
-42,-398,0,0,0,0,0,0,0,0,0,-1,1182,1422,0,0
-35,-398,0,0,0,0,0,0,0,0,0,-1,1189,1422,0,0
-28,-398,0,0,0,0,0,0,0,0,0,-1,1196,1422,0,0
-21,-398,0,0,0,0,0,0,0,0,0,-1,1203,1422,0,0
-14,-398,0,0,0,0,0,0,0,0,0,-1,1210,1422,0,0
-7,-398,0,0,0,0,0,0,0,0,0,-1,1217,1422,0,0
0,-398,0,0,0,0,0,0,0,0,0,-1,1224,1422,0,0
7,-398,0,0,0,0,0,0,0,0,0,-1,1231,1422,0,0
14,-398,0,0,0,0,0,0,0,0,0,-1,1238,1422,0,0
21,-398,0,0,0,0,0,0,0,0,0,-1,1245,1422,0,0
28,-398,0,0,0,0,0,0,0,0,0,-1,1252,1422,0,0
35,-398,0,0,0,0,0,0,0,0,0,-1,1259,1422,0,0
42,-398,0,0,0,0,0,0,0,0,0,-1,1266,1422,0,0
49,-398,0,0,0,0,0,0,0,0,0,-1,1273,1422,0,0
56,-398,0,0,0,0,0,0,0,0,0,-1,1280,1422,0,0
63,-398,0,0,0,0,0,0,0,0,0,-1,1287,1422,0,0
70,-398,0,0,0,0,0,0,0,0,0,-1,1294,1422,0,0
77,-398,0,0,0,0,0,0,0,0,0,-1,1301,1422,0,0
84,-398,0,0,0,0,0,0,0,0,0,-1,1308,1422,0,0
91,-398,0,0,0,0,0,0,0,0,0,-1,1315,1422,0,0
98,-398,0,0,0,0,0,0,0,0,0,-1,1322,1422,0,0
105,-398,0,0,0,0,0,0,0,0,0,-1,1329,1422,0,0
112,-398,0,0,0,0,0,0,0,0,0,-1,1336,1422,0,0
119,-398,0,0,0,0,0,0,0,0,0,-1,1343,1422,0,0
126,-398,0,0,0,0,0,0,0,0,0,-1,1350,1422,0,0
133,-398,0,0,0,0,0,0,0,0,0,-1,1357,1422,0,0
140,-398,0,0,0,0,0,0,0,0,0,-1,1364,1422,0,0
147,-398,0,0,0,0,0,0,0,0,0,-1,1371,1422,0,0
154,-398,0,0,0,0,0,0,0,0,0,-1,1378,1422,0,0
161,-398,0,0,0,0,0,0,0,0,0,-1,1385,1422,0,0
168,-398,0,0,0,0,0,0,0,0,0,-1,1392,1422,0,0
175,-398,0,0,0,0,0,0,0,0,0,-1,1399,1422,0,0
182,-398,0,0,0,0,0,0,0,0,0,-1,1406,1422,0,0
189,-398,0,0,0,0,0,0,0,0,0,-1,1413,1422,0,0
196,-398,0,0,0,0,0,0,0,0,0,-1,1420,1422,0,0
203,-398,0,0,0,0,0,0,0,0,0,-1,1427,1422,0,0
210,-398,0,0,0,0,0,0,0,0,0,-1,1434,1422,0,0
217,-398,0,0,0,0,0,0,0,0,0,-1,1441,1422,0,0
224,-398,0,0,0,0,0,0,0,0,0,-1,1448,1422,0,0
231,-398,0,0,0,0,0,0,0,0,0,-1,1455,1422,0,0
238,-398,0,0,0,0,0,0,0,0,0,-1,1462,1422,0,0
245,-398,0,0,0,0,0,0,0,0,0,-1,1469,1422,0,0
252,-398,0,0,0,0,0,0,0,0,0,-1,1476,1422,0,0
259,-398,0,0,0,0,0,0,0,0,0,-1,1483,1422,0,0
266,-398,0,0,0,0,0,0,0,0,0,-1,1490,1422,0,0
273,-398,0,0,0,0,0,0,0,0,0,-1,1497,1422,0,0
280,-398,0,0,0,0,0,0,0,0,0,-1,1504,1422,0,0
287,-398,0,0,0,0,0,0,0,0,0,-1,1511,1422,0,0
294,-398,0,0,0,0,0,0,0,0,0,-1,1518,1422,0,0
301,-398,0,0,0,0,0,0,0,0,0,-1,1525,1422,0,0
308,-398,0,0,0,0,0,0,0,0,0,-1,1532,1422,0,0
315,-398,0,0,0,0,0,0,0,0,0,-1,1539,1422,0,0
322,-398,0,0,0,0,0,0,0,0,0,-1,1546,1422,0,0
329,-398,0,0,0,0,0,0,0,0,0,-1,1553,1422,0,0
336,-398,0,0,0,0,0,0,0,0,0,-1,1560,1422,0,0
343,-398,0,0,0,0,0,0,0,0,0,-1,1567,1422,0,0
350,-398,0,0,0,0,0,0,0,0,0,-1,1574,1422,0,0
357,-398,0,0,0,0,0,0,0,0,0,-1,1581,1422,0,0
364,-398,0,0,0,0,0,0,0,0,0,-1,1588,1422,0,0
371,-398,0,0,0,0,0,0,0,0,0,-1,1595,1422,0,0
378,-398,0,0,0,0,0,0,0,0,0,-1,1602,1422,0,0
385,-398,0,0,0,0,0,0,0,0,0,-1,1609,1422,0,0
392,-398,0,0,0,0,0,0,0,0,0,-1,1616,1422,0,0
399,-398,0,0,0,0,0,0,0,0,0,-1,1623,1422,0,0
406,-398,0,0,0,0,0,0,0,0,0,-1,1630,1422,0,0
413,-398,0,0,0,0,0,0,0,0,0,-1,1637,1422,0,0
420,-398,0,0,0,0,0,0,0,0,0,-1,1644,1422,0,0
427,-398,0,0,0,0,0,0,0,0,0,-1,1651,1422,0,0
434,-398,0,0,0,0,0,0,0,0,0,-1,1658,1422,0,0
441,-398,0,0,0,0,0,0,0,0,0,-1,1665,1422,0,0
448,-398,0,0,0,0,0,0,0,0,0,-1,1672,1422,0,0
455,-398,0,0,0,0,0,0,0,0,0,-1,1679,1422,0,0
462,-398,0,0,0,0,0,0,0,0,0,-1,1686,1422,0,0
469,-398,0,0,0,0,0,0,0,0,0,-1,1693,1422,0,0
476,-398,0,0,0,0,0,0,0,0,0,-1,1700,1422,0,0
483,-398,0,0,0,0,0,0,0,0,0,-1,1707,1422,0,0
490,-398,0,0,0,0,0,0,0,0,0,-1,1714,1422,0,0
497,-398,0,0,0,0,0,0,0,0,0,-1,1721,1422,0,0
504,-398,0,0,0,0,0,0,0,0,0,-1,1728,1422,0,0
511,-398,0,0,0,0,0,0,0,0,0,-1,1735,1422,0,0
518,-398,0,0,0,0,0,0,0,0,0,-1,1742,1422,0,0
525,-398,0,0,0,0,0,0,0,0,0,-1,1749,1422,0,0
532,-398,28.4558,3.84094,0,0,0,0,0,0,0,-1,1756,1422,28.4558,-3.8409
539,-398,27.0594,3.33887,0,0,0,0,0,0,0,-1,1763,1422,27.0595,-3.3389
546,-398,31.6873,5.58582,0,0,0,0,0,0,0,-1,1770,1422,31.6872,-5.58585
553,-398,30.4392,5.92383,0,0,0,0,0,0,0,-1,1777,1422,30.4392,-5.92386
560,-398,29.1621,6.30469,0,0,0,0,0,0,0,-1,1784,1422,29.1621,-6.30469
567,-398,27.8411,6.55029,0,0,0,0,0,0,0,-1,1791,1422,27.8411,-6.55033
574,-398,26.411,6.8916,0,0,0,0,0,0,0,-1,1798,1422,26.411,-6.8916
581,-398,24.75,7.11145,0,0,0,0,0,0,0,-1,1805,1422,24.7499,-7.11142
588,-398,23.1649,7.67969,0,0,0,0,0,0,0,-1,1812,1422,23.1649,-7.67975
595,-398,21.4253,7.86023,0,0,0,0,0,0,0,-1,1819,1422,21.4253,-7.86029
602,-398,19.6857,8.04077,0,0,0,0,0,0,0,-1,1826,1422,19.6856,-8.04083
609,-398,21.1835,13.2628,0,0,0,0,0,0,0,-1,1833,1422,21.1835,-13.2628
616,-398,35.7712,21.4,0,0,0,0,0,0,0,-1,1840,1422,35.7713,-21.4
623,-398,37.1726,21.54,0,0,0,0,0,0,0,-1,1847,1422,37.1726,-21.54
630,-398,37.2565,20.6415,0.000919248,-4.64138e-05,-0.000198799,0.000958573,-8.57388e-05,-0.195291,0.000669461,0.0155829,1854,1422,37.2565,-20.6415
637,-398,37.2113,19.9196,0.000781805,1.51718e-05,-0.000254053,0.000858353,-6.13752e-05,-0.292652,0.000593752,0.016015,1861,1422,37.2113,-19.9196
644,-398,37.1216,19.1852,0.000968311,0.000175289,-0.000307166,0.00107337,7.02303e-05,-0.329552,0.000693356,0.0231436,1868,1422,37.1215,-19.1852
651,-398,37.153,18.5048,0.00149756,0.000288469,-0.000239796,0.00154339,0.000242647,-0.188809,0.000958336,0.0308932,1875,1422,37.153,-18.5048
658,-398,37.1259,17.7833,0.00233118,0.000376436,-0.000136557,0.00234068,0.000366942,-0.0694097,0.00145366,0.0266493,1882,1422,37.1259,-17.7833
665,-398,37.0464,16.9979,0.00344419,0.000410008,8.06762e-05,0.00344633,0.000407864,0.0265641,0.00217439,0.0175902,1889,1422,37.0464,-16.9979
672,-398,37.0127,16.269,0.00486703,0.000299912,0.000484086,0.00491778,0.000249166,0.104447,0.0031987,0.0136466,1896,1422,37.0126,-16.269
679,-398,36.9906,15.5355,0.00659916,7.00137e-06,0.00110983,0.00678099,-0.00017483,0.162394,0.00458005,0.0142199,1903,1422,36.9906,-15.5355
686,-398,36.9379,14.7787,0.00866693,-0.00061957,0.00206903,0.00910705,-0.00105969,0.209594,0.00645366,0.0249161,1910,1422,36.9379,-14.7786
693,-398,36.9456,14.3926,0.0110702,-0.0015395,0.00342043,0.0119383,-0.00240755,0.248535,0.00887095,0.0459487,1917,1422,36.9456,-14.3925
700,-398,37.2328,14.0179,0,0,0,0,0,0,0,-1,1924,1422,37.2328,-14.0179
707,-398,10.9731,5.479,0,0,0,0,0,0,0,-1,1931,1422,10.9732,-5.47896
714,-398,11.7313,6.17346,0,0,0,0,0,0,0,-1,1938,1422,11.7313,-6.17348
721,-398,13.9371,8.05103,0,0,0,0,0,0,0,-1,1945,1422,13.9372,-8.05102
728,-398,14.786,7.0282,0,0,0,0,0,0,0,-1,1952,1422,14.786,-7.0282
735,-398,0,0,0,0,0,0,0,0,0,-1,1959,1422,0,0
742,-398,0,0,0,0,0,0,0,0,0,-1,1966,1422,0,0
749,-398,0,0,0,0,0,0,0,0,0,-1,1973,1422,0,0
756,-398,0,0,0,0,0,0,0,0,0,-1,1980,1422,0,0
763,-398,0,0,0,0,0,0,0,0,0,-1,1987,1422,0,0
770,-398,0,0,0,0,0,0,0,0,0,-1,1994,1422,0,0
777,-398,0,0,0,0,0,0,0,0,0,-1,2001,1422,0,0
784,-398,0,0,0,0,0,0,0,0,0,-1,2008,1422,0,0
791,-398,0,0,0,0,0,0,0,0,0,-1,2015,1422,0,0
798,-398,0,0,0,0,0,0,0,0,0,-1,2022,1422,0,0
805,-398,0,0,0,0,0,0,0,0,0,-1,2029,1422,0,0
812,-398,0,0,0,0,0,0,0,0,0,-1,2036,1422,0,0
-700,-405,0,0,0,0,0,0,0,0,0,-1,524,1429,0,0
-693,-405,0,0,0,0,0,0,0,0,0,-1,531,1429,0,0
-686,-405,0,0,0,0,0,0,0,0,0,-1,538,1429,0,0
-679,-405,0,0,0,0,0,0,0,0,0,-1,545,1429,0,0
-672,-405,0,0,0,0,0,0,0,0,0,-1,552,1429,0,0
-665,-405,0,0,0,0,0,0,0,0,0,-1,559,1429,0,0
-658,-405,0,0,0,0,0,0,0,0,0,-1,566,1429,0,0
-651,-405,0,0,0,0,0,0,0,0,0,-1,573,1429,0,0
-644,-405,0,0,0,0,0,0,0,0,0,-1,580,1429,0,0
-637,-405,0,0,0,0,0,0,0,0,0,-1,587,1429,0,0
-630,-405,0,0,0,0,0,0,0,0,0,-1,594,1429,0,0
-623,-405,0,0,0,0,0,0,0,0,0,-1,601,1429,0,0
-616,-405,0,0,0,0,0,0,0,0,0,-1,608,1429,0,0
-609,-405,0,0,0,0,0,0,0,0,0,-1,615,1429,0,0
-602,-405,-5.80988,-3.46594,0,0,0,0,0,0,0,-1,622,1429,-5.80987,3.46592
-595,-405,-9.35413,2.01477,0,0,0,0,0,0,0,-1,629,1429,-9.35411,-2.01476
-588,-405,-7.35693,0.507202,0,0,0,0,0,0,0,-1,636,1429,-7.35696,-0.507187
-581,-405,-10.1284,1.62927,0,0,0,0,0,0,0,-1,643,1429,-10.1284,-1.62922
-574,-405,-9.32074,3.05896,0,0,0,0,0,0,0,-1,650,1429,-9.32077,-3.0589
-567,-405,-9.68781,6.92163,0,0,0,0,0,0,0,-1,657,1429,-9.68782,-6.92166
-560,-405,-9.28674,7.20886,0,0,0,0,0,0,0,-1,664,1429,-9.28675,-7.20885
-553,-405,-17.8088,12.9275,0,0,0,0,0,0,0,-1,671,1429,-17.8088,-12.9275
-546,-405,-19.0454,14.3762,0,0,0,0,0,0,0,-1,678,1429,-19.0454,-14.3763
-539,-405,-18.9915,15.3347,0.00339422,0.00352993,0.00322564,0.00668843,0.000235723,0.795915,0.00438249,0.014736,685,1429,-18.9915,-15.3347
-532,-405,-19.0515,16.118,0.00256288,0.00255422,0.0023571,0.00491565,0.00020144,0.78448,0.00321206,0.0174848,692,1429,-19.0514,-16.1181
-525,-405,-19.0876,16.9192,0.00205588,0.0018532,0.00172454,0.00368205,0.000227028,0.756049,0.00238263,0.0150909,699,1429,-19.0876,-16.9191
-518,-405,-19.0858,17.7102,0.00176165,0.00133762,0.00126789,0.00283513,0.000264139,0.702556,0.00180848,0.0154181,706,1429,-19.0858,-17.7102
-511,-405,-19.1064,18.4664,0.00160426,0.00095047,0.000926055,0.00225943,0.000295308,0.615726,0.00141813,0.0164944,713,1429,-19.1064,-18.4665
-504,-405,-19.1505,19.2435,0.00158021,0.000711182,0.000703911,0.00197292,0.000318476,0.508882,0.00122302,0.0183811,720,1429,-19.1504,-19.2436
-497,-405,-19.2043,20.0432,0.00170219,0.000634829,0.000621372,0.0019876,0.000349414,0.430587,0.00122532,0.0153059,727,1429,-19.2043,-20.0433
-490,-405,-19.2492,20.8,0.00199461,0.00070147,0.000667275,0.00227718,0.000418896,0.400578,0.00139954,0.013768,734,1429,-19.2492,-20.8001
-483,-405,-19.2296,21.6224,0.00231227,0.00105997,0.00083484,0.00272968,0.000642559,0.463641,0.0016479,0.0366872,741,1429,-19.2296,-21.6224
-476,-405,-19.1105,22.5868,0,0,0,0,0,0,0,-1,748,1429,-19.1105,-22.5868
-469,-405,-9.65692,12.8171,0,0,0,0,0,0,0,-1,755,1429,-9.65691,-12.8172
-462,-405,-9.14862,11.3597,0,0,0,0,0,0,0,-1,762,1429,-9.14865,-11.3597
-455,-405,-9.021,9.51111,0,0,0,0,0,0,0,-1,769,1429,-9.021,-9.51109
-448,-405,-8.4649,6.82813,0,0,0,0,0,0,0,-1,776,1429,-8.46492,-6.82817
-441,-405,-6.6712,4.23767,0,0,0,0,0,0,0,-1,783,1429,-6.67121,-4.23764
-434,-405,-9.62549,3.94189,0,0,0,0,0,0,0,-1,790,1429,-9.62546,-3.94191
-427,-405,-10.9764,3.73926,0,0,0,0,0,0,0,-1,797,1429,-10.9764,-3.73923
-420,-405,-12.1187,3.68506,0,0,0,0,0,0,0,-1,804,1429,-12.1187,-3.68512
-413,-405,-13.5353,3.75659,0,0,0,0,0,0,0,-1,811,1429,-13.5353,-3.75655
-406,-405,-14.7374,3.99817,0,0,0,0,0,0,0,-1,818,1429,-14.7374,-3.99814
-399,-405,0,0,0,0,0,0,0,0,0,-1,825,1429,0,0
-392,-405,0,0,0,0,0,0,0,0,0,-1,832,1429,0,0
-385,-405,0,0,0,0,0,0,0,0,0,-1,839,1429,0,0
-378,-405,0,0,0,0,0,0,0,0,0,-1,846,1429,0,0
-371,-405,0,0,0,0,0,0,0,0,0,-1,853,1429,0,0
-364,-405,0,0,0,0,0,0,0,0,0,-1,860,1429,0,0
-357,-405,0,0,0,0,0,0,0,0,0,-1,867,1429,0,0
-350,-405,0,0,0,0,0,0,0,0,0,-1,874,1429,0,0
-343,-405,0,0,0,0,0,0,0,0,0,-1,881,1429,0,0
-336,-405,0,0,0,0,0,0,0,0,0,-1,888,1429,0,0
-329,-405,0,0,0,0,0,0,0,0,0,-1,895,1429,0,0
-322,-405,0,0,0,0,0,0,0,0,0,-1,902,1429,0,0
-315,-405,0,0,0,0,0,0,0,0,0,-1,909,1429,0,0
-308,-405,0,0,0,0,0,0,0,0,0,-1,916,1429,0,0
-301,-405,0,0,0,0,0,0,0,0,0,-1,923,1429,0,0
-294,-405,0,0,0,0,0,0,0,0,0,-1,930,1429,0,0
-287,-405,0,0,0,0,0,0,0,0,0,-1,937,1429,0,0
-280,-405,0,0,0,0,0,0,0,0,0,-1,944,1429,0,0
-273,-405,0,0,0,0,0,0,0,0,0,-1,951,1429,0,0
-266,-405,0,0,0,0,0,0,0,0,0,-1,958,1429,0,0
-259,-405,0,0,0,0,0,0,0,0,0,-1,965,1429,0,0
-252,-405,0,0,0,0,0,0,0,0,0,-1,972,1429,0,0
-245,-405,0,0,0,0,0,0,0,0,0,-1,979,1429,0,0
-238,-405,0,0,0,0,0,0,0,0,0,-1,986,1429,0,0
-231,-405,0,0,0,0,0,0,0,0,0,-1,993,1429,0,0
-224,-405,0,0,0,0,0,0,0,0,0,-1,1000,1429,0,0
-217,-405,0,0,0,0,0,0,0,0,0,-1,1007,1429,0,0
-210,-405,0,0,0,0,0,0,0,0,0,-1,1014,1429,0,0
-203,-405,0,0,0,0,0,0,0,0,0,-1,1021,1429,0,0
-196,-405,0,0,0,0,0,0,0,0,0,-1,1028,1429,0,0
-189,-405,0,0,0,0,0,0,0,0,0,-1,1035,1429,0,0
-182,-405,0,0,0,0,0,0,0,0,0,-1,1042,1429,0,0
-175,-405,0,0,0,0,0,0,0,0,0,-1,1049,1429,0,0
-168,-405,0,0,0,0,0,0,0,0,0,-1,1056,1429,0,0
-161,-405,0,0,0,0,0,0,0,0,0,-1,1063,1429,0,0
-154,-405,0,0,0,0,0,0,0,0,0,-1,1070,1429,0,0
-147,-405,0,0,0,0,0,0,0,0,0,-1,1077,1429,0,0
-140,-405,0,0,0,0,0,0,0,0,0,-1,1084,1429,0,0
-133,-405,0,0,0,0,0,0,0,0,0,-1,1091,1429,0,0
-126,-405,0,0,0,0,0,0,0,0,0,-1,1098,1429,0,0
-119,-405,0,0,0,0,0,0,0,0,0,-1,1105,1429,0,0
-112,-405,0,0,0,0,0,0,0,0,0,-1,1112,1429,0,0
-105,-405,0,0,0,0,0,0,0,0,0,-1,1119,1429,0,0
-98,-405,0,0,0,0,0,0,0,0,0,-1,1126,1429,0,0
-91,-405,0,0,0,0,0,0,0,0,0,-1,1133,1429,0,0
-84,-405,0,0,0,0,0,0,0,0,0,-1,1140,1429,0,0
-77,-405,0,0,0,0,0,0,0,0,0,-1,1147,1429,0,0
-70,-405,0,0,0,0,0,0,0,0,0,-1,1154,1429,0,0
-63,-405,0,0,0,0,0,0,0,0,0,-1,1161,1429,0,0
-56,-405,0,0,0,0,0,0,0,0,0,-1,1168,1429,0,0
-49,-405,0,0,0,0,0,0,0,0,0,-1,1175,1429,0,0
-42,-405,0,0,0,0,0,0,0,0,0,-1,1182,1429,0,0
-35,-405,0,0,0,0,0,0,0,0,0,-1,1189,1429,0,0
-28,-405,0,0,0,0,0,0,0,0,0,-1,1196,1429,0,0
-21,-405,0,0,0,0,0,0,0,0,0,-1,1203,1429,0,0
-14,-405,0,0,0,0,0,0,0,0,0,-1,1210,1429,0,0
-7,-405,0,0,0,0,0,0,0,0,0,-1,1217,1429,0,0
0,-405,0,0,0,0,0,0,0,0,0,-1,1224,1429,0,0
7,-405,0,0,0,0,0,0,0,0,0,-1,1231,1429,0,0
14,-405,0,0,0,0,0,0,0,0,0,-1,1238,1429,0,0
21,-405,0,0,0,0,0,0,0,0,0,-1,1245,1429,0,0
28,-405,0,0,0,0,0,0,0,0,0,-1,1252,1429,0,0
35,-405,0,0,0,0,0,0,0,0,0,-1,1259,1429,0,0
42,-405,0,0,0,0,0,0,0,0,0,-1,1266,1429,0,0
49,-405,0,0,0,0,0,0,0,0,0,-1,1273,1429,0,0
56,-405,0,0,0,0,0,0,0,0,0,-1,1280,1429,0,0
63,-405,0,0,0,0,0,0,0,0,0,-1,1287,1429,0,0
70,-405,0,0,0,0,0,0,0,0,0,-1,1294,1429,0,0
77,-405,0,0,0,0,0,0,0,0,0,-1,1301,1429,0,0
84,-405,0,0,0,0,0,0,0,0,0,-1,1308,1429,0,0
91,-405,0,0,0,0,0,0,0,0,0,-1,1315,1429,0,0
98,-405,0,0,0,0,0,0,0,0,0,-1,1322,1429,0,0
105,-405,0,0,0,0,0,0,0,0,0,-1,1329,1429,0,0
112,-405,0,0,0,0,0,0,0,0,0,-1,1336,1429,0,0
119,-405,0,0,0,0,0,0,0,0,0,-1,1343,1429,0,0
126,-405,0,0,0,0,0,0,0,0,0,-1,1350,1429,0,0
133,-405,0,0,0,0,0,0,0,0,0,-1,1357,1429,0,0
140,-405,0,0,0,0,0,0,0,0,0,-1,1364,1429,0,0
147,-405,0,0,0,0,0,0,0,0,0,-1,1371,1429,0,0
154,-405,0,0,0,0,0,0,0,0,0,-1,1378,1429,0,0
161,-405,0,0,0,0,0,0,0,0,0,-1,1385,1429,0,0
168,-405,0,0,0,0,0,0,0,0,0,-1,1392,1429,0,0
175,-405,0,0,0,0,0,0,0,0,0,-1,1399,1429,0,0
182,-405,0,0,0,0,0,0,0,0,0,-1,1406,1429,0,0
189,-405,0,0,0,0,0,0,0,0,0,-1,1413,1429,0,0
196,-405,0,0,0,0,0,0,0,0,0,-1,1420,1429,0,0
203,-405,0,0,0,0,0,0,0,0,0,-1,1427,1429,0,0
210,-405,0,0,0,0,0,0,0,0,0,-1,1434,1429,0,0
217,-405,0,0,0,0,0,0,0,0,0,-1,1441,1429,0,0
224,-405,0,0,0,0,0,0,0,0,0,-1,1448,1429,0,0
231,-405,0,0,0,0,0,0,0,0,0,-1,1455,1429,0,0
238,-405,0,0,0,0,0,0,0,0,0,-1,1462,1429,0,0
245,-405,0,0,0,0,0,0,0,0,0,-1,1469,1429,0,0
252,-405,0,0,0,0,0,0,0,0,0,-1,1476,1429,0,0
259,-405,0,0,0,0,0,0,0,0,0,-1,1483,1429,0,0
266,-405,0,0,0,0,0,0,0,0,0,-1,1490,1429,0,0
273,-405,0,0,0,0,0,0,0,0,0,-1,1497,1429,0,0
280,-405,0,0,0,0,0,0,0,0,0,-1,1504,1429,0,0
287,-405,0,0,0,0,0,0,0,0,0,-1,1511,1429,0,0
294,-405,0,0,0,0,0,0,0,0,0,-1,1518,1429,0,0
301,-405,0,0,0,0,0,0,0,0,0,-1,1525,1429,0,0
308,-405,0,0,0,0,0,0,0,0,0,-1,1532,1429,0,0
315,-405,0,0,0,0,0,0,0,0,0,-1,1539,1429,0,0
322,-405,0,0,0,0,0,0,0,0,0,-1,1546,1429,0,0
329,-405,0,0,0,0,0,0,0,0,0,-1,1553,1429,0,0
336,-405,0,0,0,0,0,0,0,0,0,-1,1560,1429,0,0
343,-405,0,0,0,0,0,0,0,0,0,-1,1567,1429,0,0
350,-405,0,0,0,0,0,0,0,0,0,-1,1574,1429,0,0
357,-405,0,0,0,0,0,0,0,0,0,-1,1581,1429,0,0
364,-405,0,0,0,0,0,0,0,0,0,-1,1588,1429,0,0
371,-405,0,0,0,0,0,0,0,0,0,-1,1595,1429,0,0
378,-405,0,0,0,0,0,0,0,0,0,-1,1602,1429,0,0
385,-405,0,0,0,0,0,0,0,0,0,-1,1609,1429,0,0
392,-405,0,0,0,0,0,0,0,0,0,-1,1616,1429,0,0
399,-405,0,0,0,0,0,0,0,0,0,-1,1623,1429,0,0
406,-405,0,0,0,0,0,0,0,0,0,-1,1630,1429,0,0
413,-405,0,0,0,0,0,0,0,0,0,-1,1637,1429,0,0
420,-405,0,0,0,0,0,0,0,0,0,-1,1644,1429,0,0
427,-405,0,0,0,0,0,0,0,0,0,-1,1651,1429,0,0
434,-405,0,0,0,0,0,0,0,0,0,-1,1658,1429,0,0
441,-405,0,0,0,0,0,0,0,0,0,-1,1665,1429,0,0
448,-405,0,0,0,0,0,0,0,0,0,-1,1672,1429,0,0
455,-405,0,0,0,0,0,0,0,0,0,-1,1679,1429,0,0
462,-405,0,0,0,0,0,0,0,0,0,-1,1686,1429,0,0
469,-405,0,0,0,0,0,0,0,0,0,-1,1693,1429,0,0
476,-405,0,0,0,0,0,0,0,0,0,-1,1700,1429,0,0
483,-405,0,0,0,0,0,0,0,0,0,-1,1707,1429,0,0
490,-405,0,0,0,0,0,0,0,0,0,-1,1714,1429,0,0
497,-405,0,0,0,0,0,0,0,0,0,-1,1721,1429,0,0
504,-405,0,0,0,0,0,0,0,0,0,-1,1728,1429,0,0
511,-405,0,0,0,0,0,0,0,0,0,-1,1735,1429,0,0
518,-405,0,0,0,0,0,0,0,0,0,-1,1742,1429,0,0
525,-405,31.1563,-1.40942,0,0,0,0,0,0,0,-1,1749,1429,31.1563,1.40937
532,-405,28.156,4.8783,0,0,0,0,0,0,0,-1,1756,1429,28.1561,-4.87833
539,-405,26.5133,3.02454,0,0,0,0,0,0,0,-1,1763,1429,26.5133,-3.0246
546,-405,29.5735,6.53052,0,0,0,0,0,0,0,-1,1770,1429,29.5735,-6.53049
553,-405,28.2911,6.70654,0,0,0,0,0,0,0,-1,1777,1429,28.2912,-6.70656
560,-405,26.9299,7.08472,0,0,0,0,0,0,0,-1,1784,1429,26.9299,-7.08469
567,-405,25.804,7.14661,0,0,0,0,0,0,0,-1,1791,1429,25.8039,-7.14665
574,-405,25.1151,8.07971,0,0,0,0,0,0,0,-1,1798,1429,25.1151,-8.07965
581,-405,23.5055,8.505,0,0,0,0,0,0,0,-1,1805,1429,23.5054,-8.50501
588,-405,21.7491,8.98254,0,0,0,0,0,0,0,-1,1812,1429,21.7491,-8.98254
595,-405,21.6327,10.7795,0,0,0,0,0,0,0,-1,1819,1429,21.6327,-10.7796
602,-405,21.6461,13.9199,0,0,0,0,0,0,0,-1,1826,1429,21.6461,-13.92
609,-405,36.4728,23.1095,0,0,0,0,0,0,0,-1,1833,1429,36.4727,-23.1096
616,-405,36.5577,22.193,0,0,0,0,0,0,0,-1,1840,1429,36.5577,-22.193
623,-405,36.4758,21.5159,0.00195038,0.000256159,-0.000580404,0.00213014,7.63972e-05,-0.300348,0.00139532,0.0167523,1847,1429,36.4759,-21.5159
630,-405,36.4845,20.7205,0.00148054,8.43932e-05,-0.000401933,0.00158798,-2.30497e-05,-0.261208,0.00106642,0.0120518,1854,1429,36.4845,-20.7205
637,-405,36.4696,19.969,0.0013473,0.000104174,-0.000425651,0.00147907,-2.76026e-05,-0.300229,0.000995378,0.0128076,1861,1429,36.4696,-19.969
644,-405,36.3873,19.1698,0.00157487,0.000200701,-0.000443554,0.0017056,6.99682e-05,-0.286624,0.00111448,0.0342568,1868,1429,36.3873,-19.1698
651,-405,36.3619,18.4594,0.00208926,0.000375144,-0.000434239,0.00219299,0.000271415,-0.234481,0.00138045,0.0389482,1875,1429,36.362,-18.4593
658,-405,36.3721,17.7885,0.00289799,0.000559032,-0.000376806,0.0029572,0.000499827,-0.155849,0.00182778,0.0267578,1882,1429,36.3721,-17.7885
665,-405,36.2843,17.0295,0.00402377,0.000701983,-0.000186057,0.00403416,0.000691594,-0.0557785,0.00249112,0.0198235,1889,1429,36.2843,-17.0296
672,-405,36.2631,16.2828,0.00545853,0.000700896,0.00024776,0.0054714,0.000688029,0.0518892,0.00344126,0.0228068,1896,1429,36.2631,-16.2828
679,-405,36.364,15.5397,0.00723329,0.00050946,0.000969382,0.00737026,0.000372493,0.140364,0.00479417,0.0326453,1903,1429,36.364,-15.5397
686,-405,36.4357,14.6459,0,0,0,0,0,0,0,-1,1910,1429,36.4356,-14.6459
693,-405,36.1901,14.4231,0,0,0,0,0,0,0,-1,1917,1429,36.1901,-14.4231
700,-405,9.1958,4.02026,0,0,0,0,0,0,0,-1,1924,1429,9.19579,-4.02025
707,-405,7.40308,3.83191,0,0,0,0,0,0,0,-1,1931,1429,7.40311,-3.83194
714,-405,7.33252,3.47388,0,0,0,0,0,0,0,-1,1938,1429,7.33255,-3.47383
721,-405,9.23523,0.993896,0,0,0,0,0,0,0,-1,1945,1429,9.23523,-0.993884
728,-405,0,0,0,0,0,0,0,0,0,-1,1952,1429,0,0
735,-405,0,0,0,0,0,0,0,0,0,-1,1959,1429,0,0
742,-405,0,0,0,0,0,0,0,0,0,-1,1966,1429,0,0
749,-405,0,0,0,0,0,0,0,0,0,-1,1973,1429,0,0
756,-405,0,0,0,0,0,0,0,0,0,-1,1980,1429,0,0
763,-405,0,0,0,0,0,0,0,0,0,-1,1987,1429,0,0
770,-405,0,0,0,0,0,0,0,0,0,-1,1994,1429,0,0
777,-405,0,0,0,0,0,0,0,0,0,-1,2001,1429,0,0
784,-405,0,0,0,0,0,0,0,0,0,-1,2008,1429,0,0
791,-405,0,0,0,0,0,0,0,0,0,-1,2015,1429,0,0
798,-405,0,0,0,0,0,0,0,0,0,-1,2022,1429,0,0
805,-405,0,0,0,0,0,0,0,0,0,-1,2029,1429,0,0
812,-405,0,0,0,0,0,0,0,0,0,-1,2036,1429,0,0
-700,-412,0,0,0,0,0,0,0,0,0,-1,524,1436,0,0
-693,-412,0,0,0,0,0,0,0,0,0,-1,531,1436,0,0
-686,-412,0,0,0,0,0,0,0,0,0,-1,538,1436,0,0
-679,-412,0,0,0,0,0,0,0,0,0,-1,545,1436,0,0
-672,-412,0,0,0,0,0,0,0,0,0,-1,552,1436,0,0
-665,-412,0,0,0,0,0,0,0,0,0,-1,559,1436,0,0
-658,-412,0,0,0,0,0,0,0,0,0,-1,566,1436,0,0
-651,-412,0,0,0,0,0,0,0,0,0,-1,573,1436,0,0
-644,-412,0,0,0,0,0,0,0,0,0,-1,580,1436,0,0
-637,-412,0,0,0,0,0,0,0,0,0,-1,587,1436,0,0
-630,-412,0,0,0,0,0,0,0,0,0,-1,594,1436,0,0
-623,-412,0,0,0,0,0,0,0,0,0,-1,601,1436,0,0
-616,-412,0,0,0,0,0,0,0,0,0,-1,608,1436,0,0
-609,-412,0,0,0,0,0,0,0,0,0,-1,615,1436,0,0
-602,-412,-3.72766,-3.50012,0,0,0,0,0,0,0,-1,622,1436,-3.72764,3.50017
-595,-412,-10.3706,0.65564,0,0,0,0,0,0,0,-1,629,1436,-10.3706,-0.655672
-588,-412,-8.17957,1.94934,0,0,0,0,0,0,0,-1,636,1436,-8.17956,-1.94939
-581,-412,-6.60065,-0.0554199,0,0,0,0,0,0,0,-1,643,1436,-6.60063,0.0554733
-574,-412,-8.34131,5.25012,0,0,0,0,0,0,0,-1,650,1436,-8.34129,-5.25012
-567,-412,-7.50354,3.65454,0,0,0,0,0,0,0,-1,657,1436,-7.50356,-3.65452
-560,-412,-8.52448,7.39014,0,0,0,0,0,0,0,-1,664,1436,-8.52447,-7.39019
-553,-412,-7.36761,6.54651,0,0,0,0,0,0,0,-1,671,1436,-7.36763,-6.54654
-546,-412,-18.2673,14.3922,0,0,0,0,0,0,0,-1,678,1436,-18.2673,-14.3922
-539,-412,-18.1762,15.2938,0.0035904,0.00457812,0.00394394,0.008059,0.000109519,0.847684,0.00533654,0.0308679,685,1436,-18.1762,-15.2938
-532,-412,-18.2474,16.1786,0.00271293,0.00338744,0.00296236,0.00603168,6.86871e-05,0.842077,0.00399842,0.0166588,692,1436,-18.2474,-16.1785
-525,-412,-18.3063,16.9711,0.00216719,0.00251351,0.00222239,0.00456947,0.000111226,0.824278,0.00300992,0.0158417,699,1436,-18.3063,-16.971
-518,-412,-18.3394,17.734,0.00183149,0.00186121,0.00167044,0.00351686,0.000175847,0.789846,0.00228821,0.0158017,706,1436,-18.3393,-17.7341
-511,-412,-18.3632,18.494,0.00161453,0.00134897,0.00122643,0.00271534,0.000248154,0.731475,0.00173344,0.0193375,713,1436,-18.3632,-18.494
-504,-412,-18.3882,19.2783,0.00149057,0.000983904,0.000874685,0.00214787,0.000326604,0.644442,0.00133641,0.0198222,720,1436,-18.3883,-19.2783
-497,-412,-18.4476,20.0945,0.00148629,0.000784512,0.000649232,0.00187338,0.000397413,0.537652,0.00113979,0.0155236,727,1436,-18.4476,-20.0945
-490,-412,-18.4779,20.8621,0.00158256,0.000728939,0.000526044,0.00183316,0.000478335,0.444583,0.00109796,0.0135238,734,1436,-18.4779,-20.8621
-483,-412,-18.5085,21.5968,0.00171595,0.0009084,0.000507314,0.00196056,0.000663791,0.449278,0.00115143,0.0121305,741,1436,-18.5086,-21.5968
-476,-412,-18.5069,22.447,0,0,0,0,0,0,0,-1,748,1436,-18.5069,-22.4471
-469,-412,-12.7646,18.4785,0,0,0,0,0,0,0,-1,755,1436,-12.7647,-18.4785
-462,-412,-8.94659,13.3385,0,0,0,0,0,0,0,-1,762,1436,-8.94657,-13.3385
-455,-412,-8.25006,11.2572,0,0,0,0,0,0,0,-1,769,1436,-8.25007,-11.2572
-448,-412,-7.38086,8.78186,0,0,0,0,0,0,0,-1,776,1436,-7.38088,-8.78183
-441,-412,-8.79523,9.05286,0,0,0,0,0,0,0,-1,783,1436,-8.79521,-9.0529
-434,-412,-10.6305,8.03577,0,0,0,0,0,0,0,-1,790,1436,-10.6305,-8.0358
-427,-412,-10.0004,5.15271,0,0,0,0,0,0,0,-1,797,1436,-10.0004,-5.15266
-420,-412,-10.4468,4.9043,0,0,0,0,0,0,0,-1,804,1436,-10.4468,-4.90429
-413,-412,-11.5704,4.97766,0,0,0,0,0,0,0,-1,811,1436,-11.5704,-4.97771
-406,-412,-13.1968,5.70093,0,0,0,0,0,0,0,-1,818,1436,-13.1968,-5.70096
-399,-412,-10.5506,0.771973,0,0,0,0,0,0,0,-1,825,1436,-10.5506,-0.771954
-392,-412,0,0,0,0,0,0,0,0,0,-1,832,1436,0,0
-385,-412,0,0,0,0,0,0,0,0,0,-1,839,1436,0,0
-378,-412,0,0,0,0,0,0,0,0,0,-1,846,1436,0,0
-371,-412,0,0,0,0,0,0,0,0,0,-1,853,1436,0,0
-364,-412,0,0,0,0,0,0,0,0,0,-1,860,1436,0,0
-357,-412,0,0,0,0,0,0,0,0,0,-1,867,1436,0,0
-350,-412,0,0,0,0,0,0,0,0,0,-1,874,1436,0,0
-343,-412,0,0,0,0,0,0,0,0,0,-1,881,1436,0,0
-336,-412,0,0,0,0,0,0,0,0,0,-1,888,1436,0,0
-329,-412,0,0,0,0,0,0,0,0,0,-1,895,1436,0,0
-322,-412,0,0,0,0,0,0,0,0,0,-1,902,1436,0,0
-315,-412,0,0,0,0,0,0,0,0,0,-1,909,1436,0,0
-308,-412,0,0,0,0,0,0,0,0,0,-1,916,1436,0,0
-301,-412,0,0,0,0,0,0,0,0,0,-1,923,1436,0,0
-294,-412,0,0,0,0,0,0,0,0,0,-1,930,1436,0,0
-287,-412,0,0,0,0,0,0,0,0,0,-1,937,1436,0,0
-280,-412,0,0,0,0,0,0,0,0,0,-1,944,1436,0,0
-273,-412,0,0,0,0,0,0,0,0,0,-1,951,1436,0,0
-266,-412,0,0,0,0,0,0,0,0,0,-1,958,1436,0,0
-259,-412,0,0,0,0,0,0,0,0,0,-1,965,1436,0,0
-252,-412,0,0,0,0,0,0,0,0,0,-1,972,1436,0,0
-245,-412,0,0,0,0,0,0,0,0,0,-1,979,1436,0,0
-238,-412,0,0,0,0,0,0,0,0,0,-1,986,1436,0,0
-231,-412,0,0,0,0,0,0,0,0,0,-1,993,1436,0,0
-224,-412,0,0,0,0,0,0,0,0,0,-1,1000,1436,0,0
-217,-412,0,0,0,0,0,0,0,0,0,-1,1007,1436,0,0
-210,-412,0,0,0,0,0,0,0,0,0,-1,1014,1436,0,0
-203,-412,0,0,0,0,0,0,0,0,0,-1,1021,1436,0,0
-196,-412,0,0,0,0,0,0,0,0,0,-1,1028,1436,0,0
-189,-412,0,0,0,0,0,0,0,0,0,-1,1035,1436,0,0
-182,-412,0,0,0,0,0,0,0,0,0,-1,1042,1436,0,0
-175,-412,0,0,0,0,0,0,0,0,0,-1,1049,1436,0,0
-168,-412,0,0,0,0,0,0,0,0,0,-1,1056,1436,0,0
-161,-412,0,0,0,0,0,0,0,0,0,-1,1063,1436,0,0
-154,-412,0,0,0,0,0,0,0,0,0,-1,1070,1436,0,0
-147,-412,0,0,0,0,0,0,0,0,0,-1,1077,1436,0,0
-140,-412,0,0,0,0,0,0,0,0,0,-1,1084,1436,0,0
-133,-412,0,0,0,0,0,0,0,0,0,-1,1091,1436,0,0
-126,-412,0,0,0,0,0,0,0,0,0,-1,1098,1436,0,0
-119,-412,0,0,0,0,0,0,0,0,0,-1,1105,1436,0,0
-112,-412,0,0,0,0,0,0,0,0,0,-1,1112,1436,0,0
-105,-412,0,0,0,0,0,0,0,0,0,-1,1119,1436,0,0
-98,-412,0,0,0,0,0,0,0,0,0,-1,1126,1436,0,0
-91,-412,0,0,0,0,0,0,0,0,0,-1,1133,1436,0,0
-84,-412,0,0,0,0,0,0,0,0,0,-1,1140,1436,0,0
-77,-412,0,0,0,0,0,0,0,0,0,-1,1147,1436,0,0
-70,-412,0,0,0,0,0,0,0,0,0,-1,1154,1436,0,0
-63,-412,0,0,0,0,0,0,0,0,0,-1,1161,1436,0,0
-56,-412,0,0,0,0,0,0,0,0,0,-1,1168,1436,0,0
-49,-412,0,0,0,0,0,0,0,0,0,-1,1175,1436,0,0
-42,-412,0,0,0,0,0,0,0,0,0,-1,1182,1436,0,0
-35,-412,0,0,0,0,0,0,0,0,0,-1,1189,1436,0,0
-28,-412,0,0,0,0,0,0,0,0,0,-1,1196,1436,0,0
-21,-412,0,0,0,0,0,0,0,0,0,-1,1203,1436,0,0
-14,-412,0,0,0,0,0,0,0,0,0,-1,1210,1436,0,0
-7,-412,0,0,0,0,0,0,0,0,0,-1,1217,1436,0,0
0,-412,0,0,0,0,0,0,0,0,0,-1,1224,1436,0,0
7,-412,0,0,0,0,0,0,0,0,0,-1,1231,1436,0,0
14,-412,0,0,0,0,0,0,0,0,0,-1,1238,1436,0,0
21,-412,0,0,0,0,0,0,0,0,0,-1,1245,1436,0,0
28,-412,0,0,0,0,0,0,0,0,0,-1,1252,1436,0,0
35,-412,0,0,0,0,0,0,0,0,0,-1,1259,1436,0,0
42,-412,0,0,0,0,0,0,0,0,0,-1,1266,1436,0,0
49,-412,0,0,0,0,0,0,0,0,0,-1,1273,1436,0,0
56,-412,0,0,0,0,0,0,0,0,0,-1,1280,1436,0,0
63,-412,0,0,0,0,0,0,0,0,0,-1,1287,1436,0,0
70,-412,0,0,0,0,0,0,0,0,0,-1,1294,1436,0,0
77,-412,0,0,0,0,0,0,0,0,0,-1,1301,1436,0,0
84,-412,0,0,0,0,0,0,0,0,0,-1,1308,1436,0,0
91,-412,0,0,0,0,0,0,0,0,0,-1,1315,1436,0,0
98,-412,0,0,0,0,0,0,0,0,0,-1,1322,1436,0,0
105,-412,0,0,0,0,0,0,0,0,0,-1,1329,1436,0,0
112,-412,0,0,0,0,0,0,0,0,0,-1,1336,1436,0,0
119,-412,0,0,0,0,0,0,0,0,0,-1,1343,1436,0,0
126,-412,0,0,0,0,0,0,0,0,0,-1,1350,1436,0,0
133,-412,0,0,0,0,0,0,0,0,0,-1,1357,1436,0,0
140,-412,0,0,0,0,0,0,0,0,0,-1,1364,1436,0,0
147,-412,0,0,0,0,0,0,0,0,0,-1,1371,1436,0,0
154,-412,0,0,0,0,0,0,0,0,0,-1,1378,1436,0,0
161,-412,0,0,0,0,0,0,0,0,0,-1,1385,1436,0,0
168,-412,0,0,0,0,0,0,0,0,0,-1,1392,1436,0,0
175,-412,0,0,0,0,0,0,0,0,0,-1,1399,1436,0,0
182,-412,0,0,0,0,0,0,0,0,0,-1,1406,1436,0,0
189,-412,0,0,0,0,0,0,0,0,0,-1,1413,1436,0,0
196,-412,0,0,0,0,0,0,0,0,0,-1,1420,1436,0,0
203,-412,0,0,0,0,0,0,0,0,0,-1,1427,1436,0,0
210,-412,0,0,0,0,0,0,0,0,0,-1,1434,1436,0,0
217,-412,0,0,0,0,0,0,0,0,0,-1,1441,1436,0,0
224,-412,0,0,0,0,0,0,0,0,0,-1,1448,1436,0,0
231,-412,0,0,0,0,0,0,0,0,0,-1,1455,1436,0,0
238,-412,0,0,0,0,0,0,0,0,0,-1,1462,1436,0,0
245,-412,0,0,0,0,0,0,0,0,0,-1,1469,1436,0,0
252,-412,0,0,0,0,0,0,0,0,0,-1,1476,1436,0,0
259,-412,0,0,0,0,0,0,0,0,0,-1,1483,1436,0,0
266,-412,0,0,0,0,0,0,0,0,0,-1,1490,1436,0,0
273,-412,0,0,0,0,0,0,0,0,0,-1,1497,1436,0,0
280,-412,0,0,0,0,0,0,0,0,0,-1,1504,1436,0,0
287,-412,0,0,0,0,0,0,0,0,0,-1,1511,1436,0,0
294,-412,0,0,0,0,0,0,0,0,0,-1,1518,1436,0,0
301,-412,0,0,0,0,0,0,0,0,0,-1,1525,1436,0,0
308,-412,0,0,0,0,0,0,0,0,0,-1,1532,1436,0,0
315,-412,0,0,0,0,0,0,0,0,0,-1,1539,1436,0,0
322,-412,0,0,0,0,0,0,0,0,0,-1,1546,1436,0,0
329,-412,0,0,0,0,0,0,0,0,0,-1,1553,1436,0,0
336,-412,0,0,0,0,0,0,0,0,0,-1,1560,1436,0,0
343,-412,0,0,0,0,0,0,0,0,0,-1,1567,1436,0,0
350,-412,0,0,0,0,0,0,0,0,0,-1,1574,1436,0,0
357,-412,0,0,0,0,0,0,0,0,0,-1,1581,1436,0,0
364,-412,0,0,0,0,0,0,0,0,0,-1,1588,1436,0,0
371,-412,0,0,0,0,0,0,0,0,0,-1,1595,1436,0,0
378,-412,0,0,0,0,0,0,0,0,0,-1,1602,1436,0,0
385,-412,0,0,0,0,0,0,0,0,0,-1,1609,1436,0,0
392,-412,0,0,0,0,0,0,0,0,0,-1,1616,1436,0,0
399,-412,0,0,0,0,0,0,0,0,0,-1,1623,1436,0,0
406,-412,0,0,0,0,0,0,0,0,0,-1,1630,1436,0,0
413,-412,0,0,0,0,0,0,0,0,0,-1,1637,1436,0,0
420,-412,0,0,0,0,0,0,0,0,0,-1,1644,1436,0,0
427,-412,0,0,0,0,0,0,0,0,0,-1,1651,1436,0,0
434,-412,0,0,0,0,0,0,0,0,0,-1,1658,1436,0,0
441,-412,0,0,0,0,0,0,0,0,0,-1,1665,1436,0,0
448,-412,0,0,0,0,0,0,0,0,0,-1,1672,1436,0,0
455,-412,0,0,0,0,0,0,0,0,0,-1,1679,1436,0,0
462,-412,0,0,0,0,0,0,0,0,0,-1,1686,1436,0,0
469,-412,0,0,0,0,0,0,0,0,0,-1,1693,1436,0,0
476,-412,0,0,0,0,0,0,0,0,0,-1,1700,1436,0,0
483,-412,0,0,0,0,0,0,0,0,0,-1,1707,1436,0,0
490,-412,0,0,0,0,0,0,0,0,0,-1,1714,1436,0,0
497,-412,0,0,0,0,0,0,0,0,0,-1,1721,1436,0,0
504,-412,0,0,0,0,0,0,0,0,0,-1,1728,1436,0,0
511,-412,0,0,0,0,0,0,0,0,0,-1,1735,1436,0,0
518,-412,30.1038,-2.43384,0,0,0,0,0,0,0,-1,1742,1436,30.1038,2.43383
525,-412,29.5283,-1.42493,0,0,0,0,0,0,0,-1,1749,1436,29.5283,1.42495
532,-412,28.8533,-0.386597,0,0,0,0,0,0,0,-1,1756,1436,28.8533,0.386632
539,-412,25.8654,2.74683,0,0,0,0,0,0,0,-1,1763,1436,25.8654,-2.74685
546,-412,25.4265,2.4342,0,0,0,0,0,0,0,-1,1770,1436,25.4265,-2.4342
553,-412,26.3595,7.49255,0,0,0,0,0,0,0,-1,1777,1436,26.3595,-7.4925
560,-412,24.9116,7.94324,0,0,0,0,0,0,0,-1,1784,1436,24.9116,-7.94327
567,-412,23.668,7.94531,0,0,0,0,0,0,0,-1,1791,1436,23.6679,-7.94534
574,-412,23.0142,9.17236,0,0,0,0,0,0,0,-1,1798,1436,23.0141,-9.17235
581,-412,22.2615,10.0349,0,0,0,0,0,0,0,-1,1805,1436,22.2615,-10.0349
588,-412,21.6893,10.8069,0,0,0,0,0,0,0,-1,1812,1436,21.6893,-10.8069
595,-412,21.5137,14.3157,0,0,0,0,0,0,0,-1,1819,1436,21.5137,-14.3157
602,-412,35.7394,23.8479,0,0,0,0,0,0,0,-1,1826,1436,35.7394,-23.8479
609,-412,35.8025,22.9926,0.00398645,0.00193263,-0.00191343,0.00513112,0.000787961,-0.539116,0.00319069,0.0468729,1833,1436,35.8025,-22.9925
616,-412,35.823,22.2529,0.00287895,0.000889588,-0.00114974,0.00340457,0.000363973,-0.428791,0.00215864,0.0137927,1840,1436,35.823,-22.253
623,-412,35.7499,21.5269,0.00210467,0.000474091,-0.000762196,0.00240546,0.000173299,-0.375876,0.00154911,0.00993922,1847,1436,35.7498,-21.5268
630,-412,35.7292,20.7588,0.0017464,0.000288724,-0.000617358,0.00197272,6.23995e-05,-0.351388,0.00129485,0.0122278,1854,1436,35.7292,-20.7588
637,-412,35.7273,19.9896,0.0016836,0.000299309,-0.000617396,0.00191895,6.39617e-05,-0.36419,0.00125852,0.0149471,1861,1436,35.7273,-19.9897
644,-412,35.6903,19.2595,0.00198038,0.000361199,-0.000610343,0.00218467,0.000156908,-0.322993,0.00140706,0.0170159,1868,1436,35.6903,-19.2595
651,-412,35.6805,18.4852,0.00253015,0.000575176,-0.000658287,0.00273114,0.000374179,-0.296342,0.00170974,0.0290053,1875,1436,35.6805,-18.4853
658,-412,35.5972,17.7997,0.00338556,0.000833543,-0.000676644,0.00355387,0.000665237,-0.243789,0.00218158,0.0191122,1882,1436,35.5972,-17.7997
665,-412,35.5604,17.0636,0.00460117,0.00106533,-0.000560331,0.00468784,0.000978655,-0.153464,0.00285547,0.0226128,1889,1436,35.5605,-17.0636
672,-412,35.5732,16.3036,0.00612421,0.0011544,-0.000165742,0.00612973,0.00114888,-0.0333005,0.00376246,0.0347455,1896,1436,35.5732,-16.3036
679,-412,35.7877,15.4924,0,0,0,0,0,0,0,-1,1903,1436,35.7878,-15.4924
686,-412,35.3159,15.2073,0,0,0,0,0,0,0,-1,1910,1436,35.3159,-15.2072
693,-412,11.9346,6.02344,0,0,0,0,0,0,0,-1,1917,1436,11.9346,-6.02343
700,-412,8.82764,5.8844,0,0,0,0,0,0,0,-1,1924,1436,8.82761,-5.88444
707,-412,6.59998,1.68994,0,0,0,0,0,0,0,-1,1931,1436,6.60002,-1.68995
714,-412,4.77283,-2.39832,0,0,0,0,0,0,0,-1,1938,1436,4.77288,2.39835
721,-412,0,0,0,0,0,0,0,0,0,-1,1945,1436,0,0
728,-412,0,0,0,0,0,0,0,0,0,-1,1952,1436,0,0
735,-412,0,0,0,0,0,0,0,0,0,-1,1959,1436,0,0
742,-412,0,0,0,0,0,0,0,0,0,-1,1966,1436,0,0
749,-412,0,0,0,0,0,0,0,0,0,-1,1973,1436,0,0
756,-412,0,0,0,0,0,0,0,0,0,-1,1980,1436,0,0
763,-412,0,0,0,0,0,0,0,0,0,-1,1987,1436,0,0
770,-412,0,0,0,0,0,0,0,0,0,-1,1994,1436,0,0
777,-412,0,0,0,0,0,0,0,0,0,-1,2001,1436,0,0
784,-412,0,0,0,0,0,0,0,0,0,-1,2008,1436,0,0
791,-412,0,0,0,0,0,0,0,0,0,-1,2015,1436,0,0
798,-412,0,0,0,0,0,0,0,0,0,-1,2022,1436,0,0
805,-412,0,0,0,0,0,0,0,0,0,-1,2029,1436,0,0
812,-412,0,0,0,0,0,0,0,0,0,-1,2036,1436,0,0
-700,-419,0,0,0,0,0,0,0,0,0,-1,524,1443,0,0
-693,-419,0,0,0,0,0,0,0,0,0,-1,531,1443,0,0
-686,-419,0,0,0,0,0,0,0,0,0,-1,538,1443,0,0
-679,-419,0,0,0,0,0,0,0,0,0,-1,545,1443,0,0
-672,-419,0,0,0,0,0,0,0,0,0,-1,552,1443,0,0
-665,-419,0,0,0,0,0,0,0,0,0,-1,559,1443,0,0
-658,-419,0,0,0,0,0,0,0,0,0,-1,566,1443,0,0
-651,-419,0,0,0,0,0,0,0,0,0,-1,573,1443,0,0
-644,-419,0,0,0,0,0,0,0,0,0,-1,580,1443,0,0
-637,-419,0,0,0,0,0,0,0,0,0,-1,587,1443,0,0
-630,-419,0,0,0,0,0,0,0,0,0,-1,594,1443,0,0
-623,-419,0,0,0,0,0,0,0,0,0,-1,601,1443,0,0
-616,-419,0,0,0,0,0,0,0,0,0,-1,608,1443,0,0
-609,-419,0,0,0,0,0,0,0,0,0,-1,615,1443,0,0
-602,-419,0,0,0,0,0,0,0,0,0,-1,622,1443,0,0
-595,-419,-11.4904,-0.622681,0,0,0,0,0,0,0,-1,629,1443,-11.4903,0.622714
-588,-419,-9.09369,0.742432,0,0,0,0,0,0,0,-1,636,1443,-9.09366,-0.742482
-581,-419,-6.39172,2.14673,0,0,0,0,0,0,0,-1,643,1443,-6.39175,-2.14668
-574,-419,-4.09772,3.54773,0,0,0,0,0,0,0,-1,650,1443,-4.09772,-3.54767
-567,-419,-6.14038,3.22498,0,0,0,0,0,0,0,-1,657,1443,-6.14037,-3.22497
-560,-419,-4.52814,5.22253,0,0,0,0,0,0,0,-1,664,1443,-4.52816,-5.22251
-553,-419,-5.08331,6.11829,0,0,0,0,0,0,0,-1,671,1443,-5.08331,-6.1183
-546,-419,-10.3732,9.23279,0,0,0,0,0,0,0,-1,678,1443,-10.3732,-9.23275
-539,-419,-17.4098,15.1847,0,0,0,0,0,0,0,-1,685,1443,-17.4098,-15.1847
-532,-419,-17.4786,16.1908,0.00301275,0.00441375,0.00374288,0.00752112,-9.4617e-05,0.877906,0.00504591,0.0317461,692,1443,-17.4786,-16.1908
-525,-419,-17.4847,17.016,0.00236886,0.00331432,0.00286117,0.00574154,-5.83671e-05,0.867269,0.0038473,0.0139955,699,1443,-17.4848,-17.016
-518,-419,-17.5327,17.7861,0.00196342,0.00249638,0.00219414,0.00444016,1.96351e-05,0.845827,0.00295358,0.0166688,706,1443,-17.5327,-17.7861
-511,-419,-17.5832,18.5668,0.00167479,0.00183673,0.00163298,0.00339075,0.000120778,0.810169,0.00222133,0.0194457,713,1443,-17.5832,-18.5667
-504,-419,-17.6216,19.3453,0.00146209,0.00133158,0.00115282,0.0025515,0.000242167,0.757126,0.0016263,0.0200164,720,1443,-17.6216,-19.3453
-497,-419,-17.6611,20.115,0.00135198,0.00099264,0.000788344,0.00198087,0.00036375,0.673358,0.00121758,0.0142358,727,1443,-17.6611,-20.115
-490,-419,-17.6797,20.8851,0.00131895,0.000798135,0.000520149,0.00164023,0.000476849,0.553319,0.000974249,0.0123673,734,1443,-17.6797,-20.8851
-483,-419,-17.7256,21.6364,0.00139054,0.000849639,0.000396589,0.00160011,0.000640061,0.486148,0.000929964,0.0109464,741,1443,-17.7257,-21.6363
-476,-419,-17.7229,22.4729,0.00148315,0.00101818,0.000368511,0.00168638,0.000814949,0.503991,0.000973816,0.0228666,748,1443,-17.7229,-22.473
-469,-419,-17.7267,23.203,0,0,0,0,0,0,0,-1,755,1443,-17.7268,-23.203
-462,-419,-11.5347,18.1563,0,0,0,0,0,0,0,-1,762,1443,-11.5347,-18.1562
-455,-419,-7.35645,11.9451,0,0,0,0,0,0,0,-1,769,1443,-7.35646,-11.9451
-448,-419,-7.49109,9.92444,0,0,0,0,0,0,0,-1,776,1443,-7.49109,-9.92442
-441,-419,-7.65527,8.75574,0,0,0,0,0,0,0,-1,783,1443,-7.65525,-8.75568
-434,-419,-11.3724,12.3643,0,0,0,0,0,0,0,-1,790,1443,-11.3724,-12.3643
-427,-419,-8.23193,7.89404,0,0,0,0,0,0,0,-1,797,1443,-8.23193,-7.89404
-420,-419,-8.74091,6.36597,0,0,0,0,0,0,0,-1,804,1443,-8.74089,-6.366
-413,-419,-9.88391,6.53955,0,0,0,0,0,0,0,-1,811,1443,-9.8839,-6.53955
-406,-419,-10.3372,2.75195,0,0,0,0,0,0,0,-1,818,1443,-10.3372,-2.75201
-399,-419,-11.5999,1.40002,0,0,0,0,0,0,0,-1,825,1443,-11.5999,-1.39998
-392,-419,0,0,0,0,0,0,0,0,0,-1,832,1443,0,0
-385,-419,0,0,0,0,0,0,0,0,0,-1,839,1443,0,0
-378,-419,0,0,0,0,0,0,0,0,0,-1,846,1443,0,0
-371,-419,0,0,0,0,0,0,0,0,0,-1,853,1443,0,0
-364,-419,0,0,0,0,0,0,0,0,0,-1,860,1443,0,0
-357,-419,0,0,0,0,0,0,0,0,0,-1,867,1443,0,0
-350,-419,0,0,0,0,0,0,0,0,0,-1,874,1443,0,0
-343,-419,0,0,0,0,0,0,0,0,0,-1,881,1443,0,0
-336,-419,0,0,0,0,0,0,0,0,0,-1,888,1443,0,0
-329,-419,0,0,0,0,0,0,0,0,0,-1,895,1443,0,0
-322,-419,0,0,0,0,0,0,0,0,0,-1,902,1443,0,0
-315,-419,0,0,0,0,0,0,0,0,0,-1,909,1443,0,0
-308,-419,0,0,0,0,0,0,0,0,0,-1,916,1443,0,0
-301,-419,0,0,0,0,0,0,0,0,0,-1,923,1443,0,0
-294,-419,0,0,0,0,0,0,0,0,0,-1,930,1443,0,0
-287,-419,0,0,0,0,0,0,0,0,0,-1,937,1443,0,0
-280,-419,0,0,0,0,0,0,0,0,0,-1,944,1443,0,0
-273,-419,0,0,0,0,0,0,0,0,0,-1,951,1443,0,0
-266,-419,0,0,0,0,0,0,0,0,0,-1,958,1443,0,0
-259,-419,0,0,0,0,0,0,0,0,0,-1,965,1443,0,0
-252,-419,0,0,0,0,0,0,0,0,0,-1,972,1443,0,0
-245,-419,0,0,0,0,0,0,0,0,0,-1,979,1443,0,0
-238,-419,0,0,0,0,0,0,0,0,0,-1,986,1443,0,0
-231,-419,0,0,0,0,0,0,0,0,0,-1,993,1443,0,0
-224,-419,0,0,0,0,0,0,0,0,0,-1,1000,1443,0,0
-217,-419,0,0,0,0,0,0,0,0,0,-1,1007,1443,0,0
-210,-419,0,0,0,0,0,0,0,0,0,-1,1014,1443,0,0
-203,-419,0,0,0,0,0,0,0,0,0,-1,1021,1443,0,0
-196,-419,0,0,0,0,0,0,0,0,0,-1,1028,1443,0,0
-189,-419,0,0,0,0,0,0,0,0,0,-1,1035,1443,0,0
-182,-419,0,0,0,0,0,0,0,0,0,-1,1042,1443,0,0
-175,-419,0,0,0,0,0,0,0,0,0,-1,1049,1443,0,0
-168,-419,0,0,0,0,0,0,0,0,0,-1,1056,1443,0,0
-161,-419,0,0,0,0,0,0,0,0,0,-1,1063,1443,0,0
-154,-419,0,0,0,0,0,0,0,0,0,-1,1070,1443,0,0
-147,-419,0,0,0,0,0,0,0,0,0,-1,1077,1443,0,0
-140,-419,0,0,0,0,0,0,0,0,0,-1,1084,1443,0,0
-133,-419,0,0,0,0,0,0,0,0,0,-1,1091,1443,0,0
-126,-419,0,0,0,0,0,0,0,0,0,-1,1098,1443,0,0
-119,-419,0,0,0,0,0,0,0,0,0,-1,1105,1443,0,0
-112,-419,0,0,0,0,0,0,0,0,0,-1,1112,1443,0,0
-105,-419,0,0,0,0,0,0,0,0,0,-1,1119,1443,0,0
-98,-419,0,0,0,0,0,0,0,0,0,-1,1126,1443,0,0
-91,-419,0,0,0,0,0,0,0,0,0,-1,1133,1443,0,0
-84,-419,0,0,0,0,0,0,0,0,0,-1,1140,1443,0,0
-77,-419,0,0,0,0,0,0,0,0,0,-1,1147,1443,0,0
-70,-419,0,0,0,0,0,0,0,0,0,-1,1154,1443,0,0
-63,-419,0,0,0,0,0,0,0,0,0,-1,1161,1443,0,0
-56,-419,0,0,0,0,0,0,0,0,0,-1,1168,1443,0,0
-49,-419,0,0,0,0,0,0,0,0,0,-1,1175,1443,0,0
-42,-419,0,0,0,0,0,0,0,0,0,-1,1182,1443,0,0
-35,-419,0,0,0,0,0,0,0,0,0,-1,1189,1443,0,0
-28,-419,0,0,0,0,0,0,0,0,0,-1,1196,1443,0,0
-21,-419,0,0,0,0,0,0,0,0,0,-1,1203,1443,0,0
-14,-419,0,0,0,0,0,0,0,0,0,-1,1210,1443,0,0
-7,-419,0,0,0,0,0,0,0,0,0,-1,1217,1443,0,0
0,-419,0,0,0,0,0,0,0,0,0,-1,1224,1443,0,0
7,-419,0,0,0,0,0,0,0,0,0,-1,1231,1443,0,0
14,-419,0,0,0,0,0,0,0,0,0,-1,1238,1443,0,0
21,-419,0,0,0,0,0,0,0,0,0,-1,1245,1443,0,0
28,-419,0,0,0,0,0,0,0,0,0,-1,1252,1443,0,0
35,-419,0,0,0,0,0,0,0,0,0,-1,1259,1443,0,0
42,-419,0,0,0,0,0,0,0,0,0,-1,1266,1443,0,0
49,-419,0,0,0,0,0,0,0,0,0,-1,1273,1443,0,0
56,-419,0,0,0,0,0,0,0,0,0,-1,1280,1443,0,0
63,-419,0,0,0,0,0,0,0,0,0,-1,1287,1443,0,0
70,-419,0,0,0,0,0,0,0,0,0,-1,1294,1443,0,0
77,-419,0,0,0,0,0,0,0,0,0,-1,1301,1443,0,0
84,-419,0,0,0,0,0,0,0,0,0,-1,1308,1443,0,0
91,-419,0,0,0,0,0,0,0,0,0,-1,1315,1443,0,0
98,-419,0,0,0,0,0,0,0,0,0,-1,1322,1443,0,0
105,-419,0,0,0,0,0,0,0,0,0,-1,1329,1443,0,0
112,-419,0,0,0,0,0,0,0,0,0,-1,1336,1443,0,0
119,-419,0,0,0,0,0,0,0,0,0,-1,1343,1443,0,0
126,-419,0,0,0,0,0,0,0,0,0,-1,1350,1443,0,0
133,-419,0,0,0,0,0,0,0,0,0,-1,1357,1443,0,0
140,-419,0,0,0,0,0,0,0,0,0,-1,1364,1443,0,0
147,-419,0,0,0,0,0,0,0,0,0,-1,1371,1443,0,0
154,-419,0,0,0,0,0,0,0,0,0,-1,1378,1443,0,0
161,-419,0,0,0,0,0,0,0,0,0,-1,1385,1443,0,0
168,-419,0,0,0,0,0,0,0,0,0,-1,1392,1443,0,0
175,-419,0,0,0,0,0,0,0,0,0,-1,1399,1443,0,0
182,-419,0,0,0,0,0,0,0,0,0,-1,1406,1443,0,0
189,-419,0,0,0,0,0,0,0,0,0,-1,1413,1443,0,0
196,-419,0,0,0,0,0,0,0,0,0,-1,1420,1443,0,0
203,-419,0,0,0,0,0,0,0,0,0,-1,1427,1443,0,0
210,-419,0,0,0,0,0,0,0,0,0,-1,1434,1443,0,0
217,-419,0,0,0,0,0,0,0,0,0,-1,1441,1443,0,0
224,-419,0,0,0,0,0,0,0,0,0,-1,1448,1443,0,0
231,-419,0,0,0,0,0,0,0,0,0,-1,1455,1443,0,0
238,-419,0,0,0,0,0,0,0,0,0,-1,1462,1443,0,0
245,-419,0,0,0,0,0,0,0,0,0,-1,1469,1443,0,0
252,-419,0,0,0,0,0,0,0,0,0,-1,1476,1443,0,0
259,-419,0,0,0,0,0,0,0,0,0,-1,1483,1443,0,0
266,-419,0,0,0,0,0,0,0,0,0,-1,1490,1443,0,0
273,-419,0,0,0,0,0,0,0,0,0,-1,1497,1443,0,0
280,-419,0,0,0,0,0,0,0,0,0,-1,1504,1443,0,0
287,-419,0,0,0,0,0,0,0,0,0,-1,1511,1443,0,0
294,-419,0,0,0,0,0,0,0,0,0,-1,1518,1443,0,0
301,-419,0,0,0,0,0,0,0,0,0,-1,1525,1443,0,0
308,-419,0,0,0,0,0,0,0,0,0,-1,1532,1443,0,0
315,-419,0,0,0,0,0,0,0,0,0,-1,1539,1443,0,0
322,-419,0,0,0,0,0,0,0,0,0,-1,1546,1443,0,0
329,-419,0,0,0,0,0,0,0,0,0,-1,1553,1443,0,0
336,-419,0,0,0,0,0,0,0,0,0,-1,1560,1443,0,0
343,-419,0,0,0,0,0,0,0,0,0,-1,1567,1443,0,0
350,-419,0,0,0,0,0,0,0,0,0,-1,1574,1443,0,0
357,-419,0,0,0,0,0,0,0,0,0,-1,1581,1443,0,0
364,-419,0,0,0,0,0,0,0,0,0,-1,1588,1443,0,0
371,-419,0,0,0,0,0,0,0,0,0,-1,1595,1443,0,0
378,-419,0,0,0,0,0,0,0,0,0,-1,1602,1443,0,0
385,-419,0,0,0,0,0,0,0,0,0,-1,1609,1443,0,0
392,-419,0,0,0,0,0,0,0,0,0,-1,1616,1443,0,0
399,-419,0,0,0,0,0,0,0,0,0,-1,1623,1443,0,0
406,-419,0,0,0,0,0,0,0,0,0,-1,1630,1443,0,0
413,-419,0,0,0,0,0,0,0,0,0,-1,1637,1443,0,0
420,-419,0,0,0,0,0,0,0,0,0,-1,1644,1443,0,0
427,-419,0,0,0,0,0,0,0,0,0,-1,1651,1443,0,0
434,-419,0,0,0,0,0,0,0,0,0,-1,1658,1443,0,0
441,-419,0,0,0,0,0,0,0,0,0,-1,1665,1443,0,0
448,-419,0,0,0,0,0,0,0,0,0,-1,1672,1443,0,0
455,-419,0,0,0,0,0,0,0,0,0,-1,1679,1443,0,0
462,-419,0,0,0,0,0,0,0,0,0,-1,1686,1443,0,0
469,-419,0,0,0,0,0,0,0,0,0,-1,1693,1443,0,0
476,-419,0,0,0,0,0,0,0,0,0,-1,1700,1443,0,0
483,-419,0,0,0,0,0,0,0,0,0,-1,1707,1443,0,0
490,-419,0,0,0,0,0,0,0,0,0,-1,1714,1443,0,0
497,-419,0,0,0,0,0,0,0,0,0,-1,1721,1443,0,0
504,-419,0,0,0,0,0,0,0,0,0,-1,1728,1443,0,0
511,-419,20.3005,3.7959,0,0,0,0,0,0,0,-1,1735,1443,20.3005,-3.79584
518,-419,21.3154,2.03027,0,0,0,0,0,0,0,-1,1742,1443,21.3155,-2.03029
525,-419,28.3439,-1.24475,0,0,0,0,0,0,0,-1,1749,1443,28.3438,1.24471
532,-419,27.5902,-0.272583,0,0,0,0,0,0,0,-1,1756,1443,27.5902,0.272526
539,-419,26.5278,1.60583,0,0,0,0,0,0,0,-1,1763,1443,26.5279,-1.60579
546,-419,24.9509,2.77539,0,0,0,0,0,0,0,-1,1770,1443,24.9509,-2.77537
553,-419,24.118,3.75525,0,0,0,0,0,0,0,-1,1777,1443,24.1181,-3.75526
560,-419,11.8199,8.26343,0,0,0,0,0,0,0,-1,1784,1443,11.82,-8.26341
567,-419,21.5143,8.74719,0,0,0,0,0,0,0,-1,1791,1443,21.5143,-8.74722
574,-419,19.5886,6.46155,0,0,0,0,0,0,0,-1,1798,1443,19.5886,-6.46157
581,-419,20.7926,11.4265,0,0,0,0,0,0,0,-1,1805,1443,20.7926,-11.4265
588,-419,19.4242,12.5363,0,0,0,0,0,0,0,-1,1812,1443,19.4242,-12.5362
595,-419,22.9375,16.0151,0,0,0,0,0,0,0,-1,1819,1443,22.9375,-16.0152
602,-419,35.0886,23.8488,0,0,0,0,0,0,0,-1,1826,1443,35.0886,-23.8487
609,-419,35.0903,23.0305,0.00360425,0.00159667,-0.00178466,0.00464804,0.000552873,-0.52922,0.00293183,0.0263783,1833,1443,35.0903,-23.0305
616,-419,35.0656,22.3052,0.00273007,0.000929976,-0.00123054,0.00335459,0.00030545,-0.469646,0.00214185,0.0121855,1840,1443,35.0655,-22.3052
623,-419,35.0282,21.5785,0.00214179,0.000604015,-0.000897288,0.00255456,0.000191245,-0.431155,0.001643,0.0101831,1847,1443,35.0283,-21.5785
630,-419,35.0088,20.8015,0.00188989,0.000429092,-0.000760267,0.00221376,0.00010522,-0.402716,0.00144205,0.012603,1854,1443,35.0088,-20.8015
637,-419,34.988,20.0696,0.00191029,0.000451518,-0.00073628,0.00221729,0.000144509,-0.395052,0.00143246,0.0145926,1861,1443,34.9881,-20.0695
644,-419,34.9504,19.3464,0.0022784,0.000513252,-0.000709744,0.00252837,0.000263274,-0.338641,0.00160504,0.0134131,1868,1443,34.9505,-19.3465
651,-419,34.8979,18.6282,0.00287721,0.000769272,-0.000805436,0.00314973,0.00049675,-0.326262,0.00195538,0.0127588,1875,1443,34.8979,-18.6282
658,-419,34.8442,17.8522,0.00380475,0.00111179,-0.000903436,0.00407976,0.000836791,-0.295485,0.00248826,0.0140365,1882,1443,34.8443,-17.8522
665,-419,34.8368,17.1237,0.00513852,0.00144748,-0.000881831,0.00533838,0.00124762,-0.222874,0.00322453,0.0229128,1889,1443,34.8368,-17.1237
672,-419,34.9139,16.285,0.00676789,0.00164995,-0.000555628,0.00682752,0.00159032,-0.106905,0.00412506,0.0491761,1896,1443,34.9139,-16.285
679,-419,35.2246,15.4816,0,0,0,0,0,0,0,-1,1903,1443,35.2247,-15.4815
686,-419,17.4127,8.03076,0,0,0,0,0,0,0,-1,1910,1443,17.4127,-8.03071
693,-419,8.76086,5.60535,0,0,0,0,0,0,0,-1,1917,1443,8.76091,-5.6054
700,-419,11.0498,4.85156,0,0,0,0,0,0,0,-1,1924,1443,11.0498,-4.85153
707,-419,9.5752,1.80042,0,0,0,0,0,0,0,-1,1931,1443,9.57523,-1.80037
714,-419,5.77576,-1.25061,0,0,0,0,0,0,0,-1,1938,1443,5.7757,1.25056
721,-419,0,0,0,0,0,0,0,0,0,-1,1945,1443,0,0
728,-419,0,0,0,0,0,0,0,0,0,-1,1952,1443,0,0
735,-419,0,0,0,0,0,0,0,0,0,-1,1959,1443,0,0
742,-419,0,0,0,0,0,0,0,0,0,-1,1966,1443,0,0
749,-419,0,0,0,0,0,0,0,0,0,-1,1973,1443,0,0
756,-419,0,0,0,0,0,0,0,0,0,-1,1980,1443,0,0
763,-419,0,0,0,0,0,0,0,0,0,-1,1987,1443,0,0
770,-419,0,0,0,0,0,0,0,0,0,-1,1994,1443,0,0
777,-419,0,0,0,0,0,0,0,0,0,-1,2001,1443,0,0
784,-419,0,0,0,0,0,0,0,0,0,-1,2008,1443,0,0
791,-419,0,0,0,0,0,0,0,0,0,-1,2015,1443,0,0
798,-419,0,0,0,0,0,0,0,0,0,-1,2022,1443,0,0
805,-419,0,0,0,0,0,0,0,0,0,-1,2029,1443,0,0
812,-419,0,0,0,0,0,0,0,0,0,-1,2036,1443,0,0
-700,-426,0,0,0,0,0,0,0,0,0,-1,524,1450,0,0
-693,-426,0,0,0,0,0,0,0,0,0,-1,531,1450,0,0
-686,-426,0,0,0,0,0,0,0,0,0,-1,538,1450,0,0
-679,-426,0,0,0,0,0,0,0,0,0,-1,545,1450,0,0
-672,-426,0,0,0,0,0,0,0,0,0,-1,552,1450,0,0
-665,-426,0,0,0,0,0,0,0,0,0,-1,559,1450,0,0
-658,-426,0,0,0,0,0,0,0,0,0,-1,566,1450,0,0
-651,-426,0,0,0,0,0,0,0,0,0,-1,573,1450,0,0
-644,-426,0,0,0,0,0,0,0,0,0,-1,580,1450,0,0
-637,-426,0,0,0,0,0,0,0,0,0,-1,587,1450,0,0
-630,-426,0,0,0,0,0,0,0,0,0,-1,594,1450,0,0
-623,-426,0,0,0,0,0,0,0,0,0,-1,601,1450,0,0
-616,-426,0,0,0,0,0,0,0,0,0,-1,608,1450,0,0
-609,-426,0,0,0,0,0,0,0,0,0,-1,615,1450,0,0
-602,-426,0,0,0,0,0,0,0,0,0,-1,622,1450,0,0
-595,-426,0,0,0,0,0,0,0,0,0,-1,629,1450,0,0
-588,-426,-10.184,-0.554321,0,0,0,0,0,0,0,-1,636,1450,-10.184,0.554321
-581,-426,-7.3349,1.48157,0,0,0,0,0,0,0,-1,643,1450,-7.33491,-1.48152
-574,-426,-5.02856,2.89319,0,0,0,0,0,0,0,-1,650,1450,-5.02858,-2.89319
-567,-426,-3.04797,1.72644,0,0,0,0,0,0,0,-1,657,1450,-3.04797,-1.72639
-560,-426,-5.55682,3.44397,0,0,0,0,0,0,0,-1,664,1450,-5.55684,-3.44399
-553,-426,-4.67017,6.66614,0,0,0,0,0,0,0,-1,671,1450,-4.67015,-6.66619
-546,-426,-7.58752,8.28882,0,0,0,0,0,0,0,-1,678,1450,-7.58752,-8.28878
-539,-426,-10.436,10.7441,0,0,0,0,0,0,0,-1,685,1450,-10.436,-10.7441
-532,-426,-16.7655,16.124,0,0,0,0,0,0,0,-1,692,1450,-16.7655,-16.124
-525,-426,-16.7361,16.9845,0.00256949,0.00420357,0.00359455,0.00707276,-0.000299703,0.89715,0.00481818,0.0244057,699,1450,-16.7362,-16.9845
-518,-426,-16.7413,17.8434,0.00215293,0.00321107,0.00281856,0.00554979,-0.00018578,0.878174,0.00376331,0.0165932,706,1450,-16.7413,-17.8434
-511,-426,-16.8019,18.6387,0.00183865,0.00240542,0.00215372,0.00429431,-5.02469e-05,0.850812,0.00287977,0.0164903,713,1450,-16.8019,-18.6387
-504,-426,-16.8427,19.3915,0.00157492,0.00176108,0.00156114,0.00323191,0.000104089,0.815175,0.00212076,0.0162852,720,1450,-16.8427,-19.3915
-497,-426,-16.8651,20.1576,0.00137816,0.00128841,0.00106881,0.00240304,0.000263529,0.764419,0.00152181,0.0135555,727,1450,-16.865,-20.1576
-490,-426,-16.9127,20.9148,0.00123305,0.000964439,0.000669947,0.00178202,0.000415468,0.686473,0.00107659,0.0142261,734,1450,-16.9127,-20.9148
-483,-426,-16.9611,21.6726,0.00122724,0.000888754,0.000443897,0.00153306,0.000582931,0.603272,0.000893537,0.0138787,741,1450,-16.9611,-21.6726
-476,-426,-16.993,22.4464,0.00128708,0.000992065,0.000373246,0.00154091,0.000738236,0.597217,0.000889903,0.0104601,748,1450,-16.993,-22.4464
-469,-426,-17.0273,23.2174,0.00145018,0.00134342,0.000454322,0.00185425,0.000939352,0.72692,0.00107058,0.0141924,755,1450,-17.0273,-23.2174
-462,-426,-16.9651,24.0361,0,0,0,0,0,0,0,-1,762,1450,-16.9651,-24.0361
-455,-426,-10.215,17.7007,0,0,0,0,0,0,0,-1,769,1450,-10.215,-17.7007
-448,-426,-6.46545,10.1322,0,0,0,0,0,0,0,-1,776,1450,-6.46543,-10.1322
-441,-426,-10.9547,11.4747,0,0,0,0,0,0,0,-1,783,1450,-10.9546,-11.4748
-434,-426,-10.4998,13.6189,0,0,0,0,0,0,0,-1,790,1450,-10.4997,-13.6189
-427,-426,-9.36627,13.7396,0,0,0,0,0,0,0,-1,797,1450,-9.36628,-13.7396
-420,-426,-5.33765,7.95044,0,0,0,0,0,0,0,-1,804,1450,-5.33766,-7.95041
-413,-426,-10.1148,5.0415,0,0,0,0,0,0,0,-1,811,1450,-10.1148,-5.04152
-406,-426,-11.4199,3.6438,0,0,0,0,0,0,0,-1,818,1450,-11.4198,-3.64382
-399,-426,-12.7595,2.29004,0,0,0,0,0,0,0,-1,825,1450,-12.7595,-2.29003
-392,-426,-12.4147,0.537354,0,0,0,0,0,0,0,-1,832,1450,-12.4147,-0.53731
-385,-426,0,0,0,0,0,0,0,0,0,-1,839,1450,0,0
-378,-426,0,0,0,0,0,0,0,0,0,-1,846,1450,0,0
-371,-426,0,0,0,0,0,0,0,0,0,-1,853,1450,0,0
-364,-426,0,0,0,0,0,0,0,0,0,-1,860,1450,0,0
-357,-426,0,0,0,0,0,0,0,0,0,-1,867,1450,0,0
-350,-426,0,0,0,0,0,0,0,0,0,-1,874,1450,0,0
-343,-426,0,0,0,0,0,0,0,0,0,-1,881,1450,0,0
-336,-426,0,0,0,0,0,0,0,0,0,-1,888,1450,0,0
-329,-426,0,0,0,0,0,0,0,0,0,-1,895,1450,0,0
-322,-426,0,0,0,0,0,0,0,0,0,-1,902,1450,0,0
-315,-426,0,0,0,0,0,0,0,0,0,-1,909,1450,0,0
-308,-426,0,0,0,0,0,0,0,0,0,-1,916,1450,0,0
-301,-426,0,0,0,0,0,0,0,0,0,-1,923,1450,0,0
-294,-426,0,0,0,0,0,0,0,0,0,-1,930,1450,0,0
-287,-426,0,0,0,0,0,0,0,0,0,-1,937,1450,0,0
-280,-426,0,0,0,0,0,0,0,0,0,-1,944,1450,0,0
-273,-426,0,0,0,0,0,0,0,0,0,-1,951,1450,0,0
-266,-426,0,0,0,0,0,0,0,0,0,-1,958,1450,0,0
-259,-426,0,0,0,0,0,0,0,0,0,-1,965,1450,0,0
-252,-426,0,0,0,0,0,0,0,0,0,-1,972,1450,0,0
-245,-426,0,0,0,0,0,0,0,0,0,-1,979,1450,0,0
-238,-426,0,0,0,0,0,0,0,0,0,-1,986,1450,0,0
-231,-426,0,0,0,0,0,0,0,0,0,-1,993,1450,0,0
-224,-426,0,0,0,0,0,0,0,0,0,-1,1000,1450,0,0
-217,-426,0,0,0,0,0,0,0,0,0,-1,1007,1450,0,0
-210,-426,0,0,0,0,0,0,0,0,0,-1,1014,1450,0,0
-203,-426,0,0,0,0,0,0,0,0,0,-1,1021,1450,0,0
-196,-426,0,0,0,0,0,0,0,0,0,-1,1028,1450,0,0
-189,-426,0,0,0,0,0,0,0,0,0,-1,1035,1450,0,0
-182,-426,0,0,0,0,0,0,0,0,0,-1,1042,1450,0,0
-175,-426,0,0,0,0,0,0,0,0,0,-1,1049,1450,0,0
-168,-426,0,0,0,0,0,0,0,0,0,-1,1056,1450,0,0
-161,-426,0,0,0,0,0,0,0,0,0,-1,1063,1450,0,0
-154,-426,0,0,0,0,0,0,0,0,0,-1,1070,1450,0,0
-147,-426,0,0,0,0,0,0,0,0,0,-1,1077,1450,0,0
-140,-426,0,0,0,0,0,0,0,0,0,-1,1084,1450,0,0
-133,-426,0,0,0,0,0,0,0,0,0,-1,1091,1450,0,0
-126,-426,0,0,0,0,0,0,0,0,0,-1,1098,1450,0,0
-119,-426,0,0,0,0,0,0,0,0,0,-1,1105,1450,0,0
-112,-426,0,0,0,0,0,0,0,0,0,-1,1112,1450,0,0
-105,-426,0,0,0,0,0,0,0,0,0,-1,1119,1450,0,0
-98,-426,0,0,0,0,0,0,0,0,0,-1,1126,1450,0,0
-91,-426,0,0,0,0,0,0,0,0,0,-1,1133,1450,0,0
-84,-426,0,0,0,0,0,0,0,0,0,-1,1140,1450,0,0
-77,-426,0,0,0,0,0,0,0,0,0,-1,1147,1450,0,0
-70,-426,0,0,0,0,0,0,0,0,0,-1,1154,1450,0,0
-63,-426,0,0,0,0,0,0,0,0,0,-1,1161,1450,0,0
-56,-426,0,0,0,0,0,0,0,0,0,-1,1168,1450,0,0
-49,-426,0,0,0,0,0,0,0,0,0,-1,1175,1450,0,0
-42,-426,0,0,0,0,0,0,0,0,0,-1,1182,1450,0,0
-35,-426,0,0,0,0,0,0,0,0,0,-1,1189,1450,0,0
-28,-426,0,0,0,0,0,0,0,0,0,-1,1196,1450,0,0
-21,-426,0,0,0,0,0,0,0,0,0,-1,1203,1450,0,0
-14,-426,0,0,0,0,0,0,0,0,0,-1,1210,1450,0,0
-7,-426,0,0,0,0,0,0,0,0,0,-1,1217,1450,0,0
0,-426,0,0,0,0,0,0,0,0,0,-1,1224,1450,0,0
7,-426,0,0,0,0,0,0,0,0,0,-1,1231,1450,0,0
14,-426,0,0,0,0,0,0,0,0,0,-1,1238,1450,0,0
21,-426,0,0,0,0,0,0,0,0,0,-1,1245,1450,0,0
28,-426,0,0,0,0,0,0,0,0,0,-1,1252,1450,0,0
35,-426,0,0,0,0,0,0,0,0,0,-1,1259,1450,0,0
42,-426,0,0,0,0,0,0,0,0,0,-1,1266,1450,0,0
49,-426,0,0,0,0,0,0,0,0,0,-1,1273,1450,0,0
56,-426,0,0,0,0,0,0,0,0,0,-1,1280,1450,0,0
63,-426,0,0,0,0,0,0,0,0,0,-1,1287,1450,0,0
70,-426,0,0,0,0,0,0,0,0,0,-1,1294,1450,0,0
77,-426,0,0,0,0,0,0,0,0,0,-1,1301,1450,0,0
84,-426,0,0,0,0,0,0,0,0,0,-1,1308,1450,0,0
91,-426,0,0,0,0,0,0,0,0,0,-1,1315,1450,0,0
98,-426,0,0,0,0,0,0,0,0,0,-1,1322,1450,0,0
105,-426,0,0,0,0,0,0,0,0,0,-1,1329,1450,0,0
112,-426,0,0,0,0,0,0,0,0,0,-1,1336,1450,0,0
119,-426,0,0,0,0,0,0,0,0,0,-1,1343,1450,0,0
126,-426,0,0,0,0,0,0,0,0,0,-1,1350,1450,0,0
133,-426,0,0,0,0,0,0,0,0,0,-1,1357,1450,0,0
140,-426,0,0,0,0,0,0,0,0,0,-1,1364,1450,0,0
147,-426,0,0,0,0,0,0,0,0,0,-1,1371,1450,0,0
154,-426,0,0,0,0,0,0,0,0,0,-1,1378,1450,0,0
161,-426,0,0,0,0,0,0,0,0,0,-1,1385,1450,0,0
168,-426,0,0,0,0,0,0,0,0,0,-1,1392,1450,0,0
175,-426,0,0,0,0,0,0,0,0,0,-1,1399,1450,0,0
182,-426,0,0,0,0,0,0,0,0,0,-1,1406,1450,0,0
189,-426,0,0,0,0,0,0,0,0,0,-1,1413,1450,0,0
196,-426,0,0,0,0,0,0,0,0,0,-1,1420,1450,0,0
203,-426,0,0,0,0,0,0,0,0,0,-1,1427,1450,0,0
210,-426,0,0,0,0,0,0,0,0,0,-1,1434,1450,0,0
217,-426,0,0,0,0,0,0,0,0,0,-1,1441,1450,0,0
224,-426,0,0,0,0,0,0,0,0,0,-1,1448,1450,0,0
231,-426,0,0,0,0,0,0,0,0,0,-1,1455,1450,0,0
238,-426,0,0,0,0,0,0,0,0,0,-1,1462,1450,0,0
245,-426,0,0,0,0,0,0,0,0,0,-1,1469,1450,0,0
252,-426,0,0,0,0,0,0,0,0,0,-1,1476,1450,0,0
259,-426,0,0,0,0,0,0,0,0,0,-1,1483,1450,0,0
266,-426,0,0,0,0,0,0,0,0,0,-1,1490,1450,0,0
273,-426,0,0,0,0,0,0,0,0,0,-1,1497,1450,0,0
280,-426,0,0,0,0,0,0,0,0,0,-1,1504,1450,0,0
287,-426,0,0,0,0,0,0,0,0,0,-1,1511,1450,0,0
294,-426,0,0,0,0,0,0,0,0,0,-1,1518,1450,0,0
301,-426,0,0,0,0,0,0,0,0,0,-1,1525,1450,0,0
308,-426,0,0,0,0,0,0,0,0,0,-1,1532,1450,0,0
315,-426,0,0,0,0,0,0,0,0,0,-1,1539,1450,0,0
322,-426,0,0,0,0,0,0,0,0,0,-1,1546,1450,0,0
329,-426,0,0,0,0,0,0,0,0,0,-1,1553,1450,0,0
336,-426,0,0,0,0,0,0,0,0,0,-1,1560,1450,0,0
343,-426,0,0,0,0,0,0,0,0,0,-1,1567,1450,0,0
350,-426,0,0,0,0,0,0,0,0,0,-1,1574,1450,0,0
357,-426,0,0,0,0,0,0,0,0,0,-1,1581,1450,0,0
364,-426,0,0,0,0,0,0,0,0,0,-1,1588,1450,0,0
371,-426,0,0,0,0,0,0,0,0,0,-1,1595,1450,0,0
378,-426,0,0,0,0,0,0,0,0,0,-1,1602,1450,0,0
385,-426,0,0,0,0,0,0,0,0,0,-1,1609,1450,0,0
392,-426,0,0,0,0,0,0,0,0,0,-1,1616,1450,0,0
399,-426,0,0,0,0,0,0,0,0,0,-1,1623,1450,0,0
406,-426,0,0,0,0,0,0,0,0,0,-1,1630,1450,0,0
413,-426,0,0,0,0,0,0,0,0,0,-1,1637,1450,0,0
420,-426,0,0,0,0,0,0,0,0,0,-1,1644,1450,0,0
427,-426,0,0,0,0,0,0,0,0,0,-1,1651,1450,0,0
434,-426,0,0,0,0,0,0,0,0,0,-1,1658,1450,0,0
441,-426,0,0,0,0,0,0,0,0,0,-1,1665,1450,0,0
448,-426,0,0,0,0,0,0,0,0,0,-1,1672,1450,0,0
455,-426,0,0,0,0,0,0,0,0,0,-1,1679,1450,0,0
462,-426,0,0,0,0,0,0,0,0,0,-1,1686,1450,0,0
469,-426,0,0,0,0,0,0,0,0,0,-1,1693,1450,0,0
476,-426,0,0,0,0,0,0,0,0,0,-1,1700,1450,0,0
483,-426,0,0,0,0,0,0,0,0,0,-1,1707,1450,0,0
490,-426,0,0,0,0,0,0,0,0,0,-1,1714,1450,0,0
497,-426,0,0,0,0,0,0,0,0,0,-1,1721,1450,0,0
504,-426,20.6873,3.38367,0,0,0,0,0,0,0,-1,1728,1450,20.6873,-3.38361
511,-426,19.6676,3.53748,0,0,0,0,0,0,0,-1,1735,1450,19.6676,-3.53749
518,-426,18.6853,3.32288,0,0,0,0,0,0,0,-1,1742,1450,18.6853,-3.3229
525,-426,18.9552,2.71033,0,0,0,0,0,0,0,-1,1749,1450,18.9552,-2.71034
532,-426,19.4333,2.70764,0,0,0,0,0,0,0,-1,1756,1450,19.4334,-2.70764
539,-426,25.1482,2.56287,0,0,0,0,0,0,0,-1,1763,1450,25.1482,-2.56286
546,-426,24.1136,3.75659,0,0,0,0,0,0,0,-1,1770,1450,24.1136,-3.7566
553,-426,23.0791,4.95032,0,0,0,0,0,0,0,-1,1777,1450,23.0791,-4.95034
560,-426,12.9688,11.8289,0,0,0,0,0,0,0,-1,1784,1450,12.9688,-11.8288
567,-426,13.6388,11.5623,0,0,0,0,0,0,0,-1,1791,1450,13.6388,-11.5623
574,-426,14.3943,11.0286,0,0,0,0,0,0,0,-1,1798,1450,14.3942,-11.0285
581,-426,16.3879,11.4653,0,0,0,0,0,0,0,-1,1805,1450,16.3879,-11.4653
588,-426,18.1212,12.5547,0,0,0,0,0,0,0,-1,1812,1450,18.1212,-12.5547
595,-426,30.0474,21.0964,0,0,0,0,0,0,0,-1,1819,1450,30.0474,-21.0965
602,-426,34.3639,23.8461,0,0,0,0,0,0,0,-1,1826,1450,34.3639,-23.846
609,-426,34.3538,23.0764,0.00349111,0.0014321,-0.00172452,0.00447005,0.000453155,-0.5163,0.00284106,0.0146399,1833,1450,34.3538,-23.0764
616,-426,34.3309,22.3213,0.00268439,0.000948164,-0.00125835,0.00334502,0.000287528,-0.483448,0.00214062,0.0149812,1840,1450,34.3309,-22.3213
623,-426,34.3031,21.593,0.00220766,0.000649182,-0.000960036,0.0026649,0.000191942,-0.444487,0.0017162,0.0118068,1847,1450,34.3031,-21.5931
630,-426,34.301,20.8553,0.00203005,0.000463385,-0.000833174,0.00239031,0.000103132,-0.40811,0.0015603,0.0128222,1854,1450,34.301,-20.8553
637,-426,34.2645,20.119,0.00209834,0.00047783,-0.000803128,0.00242893,0.00014724,-0.39049,0.00157251,0.014655,1861,1450,34.2645,-20.119
644,-426,34.2021,19.3866,0.00250838,0.000551537,-0.000777601,0.00277975,0.00028017,-0.335765,0.00176719,0.014341,1868,1450,34.2022,-19.3866
651,-426,34.1443,18.6654,0.00317188,0.000870071,-0.000940503,0.00350729,0.000534663,-0.342566,0.00218192,0.0129067,1875,1450,34.1443,-18.6655
658,-426,34.1233,17.8619,0.0041852,0.00133122,-0.00113218,0.00457979,0.00093663,-0.335354,0.00279382,0.0136973,1882,1450,34.1233,-17.862
665,-426,34.1482,16.9467,0.00566641,0.00184022,-0.00123686,0.00603141,0.00147522,-0.286963,0.00363052,0.0422707,1889,1450,34.1482,-16.9466
672,-426,34.3079,15.9972,0,0,0,0,0,0,0,-1,1896,1450,34.3079,-15.9972
679,-426,17.1522,8.15784,0,0,0,0,0,0,0,-1,1903,1450,17.1522,-8.15784
686,-426,13.5326,8.03711,0,0,0,0,0,0,0,-1,1910,1450,13.5326,-8.03717
693,-426,11.8607,6.45215,0,0,0,0,0,0,0,-1,1917,1450,11.8607,-6.45215
700,-426,9.24304,2.95447,0,0,0,0,0,0,0,-1,1924,1450,9.24305,-2.95442
707,-426,8.44519,-1.21448,0,0,0,0,0,0,0,-1,1931,1450,8.44514,1.21454
714,-426,0,0,0,0,0,0,0,0,0,-1,1938,1450,0,0
721,-426,0,0,0,0,0,0,0,0,0,-1,1945,1450,0,0
728,-426,0,0,0,0,0,0,0,0,0,-1,1952,1450,0,0
735,-426,0,0,0,0,0,0,0,0,0,-1,1959,1450,0,0
742,-426,0,0,0,0,0,0,0,0,0,-1,1966,1450,0,0
749,-426,0,0,0,0,0,0,0,0,0,-1,1973,1450,0,0
756,-426,0,0,0,0,0,0,0,0,0,-1,1980,1450,0,0
763,-426,0,0,0,0,0,0,0,0,0,-1,1987,1450,0,0
770,-426,0,0,0,0,0,0,0,0,0,-1,1994,1450,0,0
777,-426,0,0,0,0,0,0,0,0,0,-1,2001,1450,0,0
784,-426,0,0,0,0,0,0,0,0,0,-1,2008,1450,0,0
791,-426,0,0,0,0,0,0,0,0,0,-1,2015,1450,0,0
798,-426,0,0,0,0,0,0,0,0,0,-1,2022,1450,0,0
805,-426,0,0,0,0,0,0,0,0,0,-1,2029,1450,0,0
812,-426,0,0,0,0,0,0,0,0,0,-1,2036,1450,0,0
-700,-433,0,0,0,0,0,0,0,0,0,-1,524,1457,0,0
-693,-433,0,0,0,0,0,0,0,0,0,-1,531,1457,0,0
-686,-433,0,0,0,0,0,0,0,0,0,-1,538,1457,0,0
-679,-433,0,0,0,0,0,0,0,0,0,-1,545,1457,0,0
-672,-433,0,0,0,0,0,0,0,0,0,-1,552,1457,0,0
-665,-433,0,0,0,0,0,0,0,0,0,-1,559,1457,0,0
-658,-433,0,0,0,0,0,0,0,0,0,-1,566,1457,0,0
-651,-433,0,0,0,0,0,0,0,0,0,-1,573,1457,0,0
-644,-433,0,0,0,0,0,0,0,0,0,-1,580,1457,0,0
-637,-433,0,0,0,0,0,0,0,0,0,-1,587,1457,0,0
-630,-433,0,0,0,0,0,0,0,0,0,-1,594,1457,0,0
-623,-433,0,0,0,0,0,0,0,0,0,-1,601,1457,0,0
-616,-433,0,0,0,0,0,0,0,0,0,-1,608,1457,0,0
-609,-433,0,0,0,0,0,0,0,0,0,-1,615,1457,0,0
-602,-433,0,0,0,0,0,0,0,0,0,-1,622,1457,0,0
-595,-433,0,0,0,0,0,0,0,0,0,-1,629,1457,0,0
-588,-433,-10.3756,-0.467041,0,0,0,0,0,0,0,-1,636,1457,-10.3756,0.467081
-581,-433,-8.12201,0.884033,0,0,0,0,0,0,0,-1,643,1457,-8.12204,-0.884056
-574,-433,-5.86847,2.23523,0,0,0,0,0,0,0,-1,650,1457,-5.86844,-2.23519
-567,-433,-5.42255,1.16833,0,0,0,0,0,0,0,-1,657,1457,-5.42254,-1.1683
-560,-433,-6.84027,1.86414,0,0,0,0,0,0,0,-1,664,1457,-6.84026,-1.86412
-553,-433,-5.74017,1.79163,0,0,0,0,0,0,0,-1,671,1457,-5.74015,-1.79166
-546,-433,-8.12451,7.35095,0,0,0,0,0,0,0,-1,678,1457,-8.12451,-7.35097
-539,-433,-7.3136,8.75659,0,0,0,0,0,0,0,-1,685,1457,-7.31362,-8.75659
-532,-433,-14.5645,14.8475,0,0,0,0,0,0,0,-1,692,1457,-14.5645,-14.8475
-525,-433,-15.9984,17.0247,0,0,0,0,0,0,0,-1,699,1457,-15.9984,-17.0246
-518,-433,-15.952,17.9052,0.00247963,0.00406732,0.00364402,0.00700295,-0.00045601,0.892647,0.00482782,0.0189682,706,1457,-15.9519,-17.9052
-511,-433,-16.0244,18.6638,0.00213431,0.00311592,0.00283348,0.00550079,-0.000250559,0.871155,0.0037535,0.0177048,713,1457,-16.0244,-18.6638
-504,-433,-16.0767,19.4058,0.00181166,0.00232227,0.00209001,0.00417252,-3.85807e-05,0.846174,0.00279463,0.0136213,720,1457,-16.0766,-19.4058
-497,-433,-16.1109,20.1801,0.0015375,0.00171583,0.00145735,0.00308674,0.000166591,0.815951,0.00200461,0.0139601,727,1457,-16.1109,-20.18
-490,-433,-16.174,20.9308,0.00130495,0.00126163,0.000927041,0.00221058,0.000355997,0.773718,0.00137056,0.0172415,734,1457,-16.174,-20.9308
-483,-433,-16.2058,21.7167,0.00122651,0.00104353,0.000592097,0.00173415,0.0005359,0.708746,0.00102526,0.0182001,741,1457,-16.2058,-21.7167
-476,-433,-16.2258,22.5068,0.00122486,0.00104393,0.000450649,0.00159404,0.000674759,0.686346,0.000923919,0.0114965,748,1457,-16.2258,-22.5068
-469,-433,-16.2712,23.2728,0.00131624,0.00124861,0.000466771,0.00175042,0.000814427,0.749239,0.00101141,0.011525,755,1457,-16.2712,-23.2728
-462,-433,-16.3259,24.0347,0,0,0,0,0,0,0,-1,762,1457,-16.3259,-24.0347
-455,-433,-13.8576,22.7446,0,0,0,0,0,0,0,-1,769,1457,-13.8576,-22.7446
-448,-433,-6.94812,14.5563,0,0,0,0,0,0,0,-1,776,1457,-6.94809,-14.5562
-441,-433,-9.97485,14.0258,0,0,0,0,0,0,0,-1,783,1457,-9.97488,-14.0257
-434,-433,-9.41205,14.2297,0,0,0,0,0,0,0,-1,790,1457,-9.41205,-14.2297
-427,-433,-8.67419,13.6827,0,0,0,0,0,0,0,-1,797,1457,-8.67422,-13.6827
-420,-433,-5.74658,9.49121,0,0,0,0,0,0,0,-1,804,1457,-5.7466,-9.49119
-413,-433,-3.63074,5.5813,0,0,0,0,0,0,0,-1,811,1457,-3.63072,-5.58129
-406,-433,-12.3472,4.69373,0,0,0,0,0,0,0,-1,818,1457,-12.3472,-4.69374
-399,-433,-12.055,2.83594,0,0,0,0,0,0,0,-1,825,1457,-12.055,-2.83594
-392,-433,-12.9772,1.6228,0,0,0,0,0,0,0,-1,832,1457,-12.9772,-1.62282
-385,-433,-13.7999,0.514771,0,0,0,0,0,0,0,-1,839,1457,-13.7999,-0.514788
-378,-433,0,0,0,0,0,0,0,0,0,-1,846,1457,0,0
-371,-433,0,0,0,0,0,0,0,0,0,-1,853,1457,0,0
-364,-433,0,0,0,0,0,0,0,0,0,-1,860,1457,0,0
-357,-433,0,0,0,0,0,0,0,0,0,-1,867,1457,0,0
-350,-433,0,0,0,0,0,0,0,0,0,-1,874,1457,0,0
-343,-433,0,0,0,0,0,0,0,0,0,-1,881,1457,0,0
-336,-433,0,0,0,0,0,0,0,0,0,-1,888,1457,0,0
-329,-433,0,0,0,0,0,0,0,0,0,-1,895,1457,0,0
-322,-433,0,0,0,0,0,0,0,0,0,-1,902,1457,0,0
-315,-433,0,0,0,0,0,0,0,0,0,-1,909,1457,0,0
-308,-433,0,0,0,0,0,0,0,0,0,-1,916,1457,0,0
-301,-433,0,0,0,0,0,0,0,0,0,-1,923,1457,0,0
-294,-433,0,0,0,0,0,0,0,0,0,-1,930,1457,0,0
-287,-433,0,0,0,0,0,0,0,0,0,-1,937,1457,0,0
-280,-433,0,0,0,0,0,0,0,0,0,-1,944,1457,0,0
-273,-433,0,0,0,0,0,0,0,0,0,-1,951,1457,0,0
-266,-433,0,0,0,0,0,0,0,0,0,-1,958,1457,0,0
-259,-433,0,0,0,0,0,0,0,0,0,-1,965,1457,0,0
-252,-433,0,0,0,0,0,0,0,0,0,-1,972,1457,0,0
-245,-433,0,0,0,0,0,0,0,0,0,-1,979,1457,0,0
-238,-433,0,0,0,0,0,0,0,0,0,-1,986,1457,0,0
-231,-433,0,0,0,0,0,0,0,0,0,-1,993,1457,0,0
-224,-433,0,0,0,0,0,0,0,0,0,-1,1000,1457,0,0
-217,-433,0,0,0,0,0,0,0,0,0,-1,1007,1457,0,0
-210,-433,0,0,0,0,0,0,0,0,0,-1,1014,1457,0,0
-203,-433,0,0,0,0,0,0,0,0,0,-1,1021,1457,0,0
-196,-433,0,0,0,0,0,0,0,0,0,-1,1028,1457,0,0
-189,-433,0,0,0,0,0,0,0,0,0,-1,1035,1457,0,0
-182,-433,0,0,0,0,0,0,0,0,0,-1,1042,1457,0,0
-175,-433,0,0,0,0,0,0,0,0,0,-1,1049,1457,0,0
-168,-433,0,0,0,0,0,0,0,0,0,-1,1056,1457,0,0
-161,-433,0,0,0,0,0,0,0,0,0,-1,1063,1457,0,0
-154,-433,0,0,0,0,0,0,0,0,0,-1,1070,1457,0,0
-147,-433,0,0,0,0,0,0,0,0,0,-1,1077,1457,0,0
-140,-433,0,0,0,0,0,0,0,0,0,-1,1084,1457,0,0
-133,-433,0,0,0,0,0,0,0,0,0,-1,1091,1457,0,0
-126,-433,0,0,0,0,0,0,0,0,0,-1,1098,1457,0,0
-119,-433,0,0,0,0,0,0,0,0,0,-1,1105,1457,0,0
-112,-433,0,0,0,0,0,0,0,0,0,-1,1112,1457,0,0
-105,-433,0,0,0,0,0,0,0,0,0,-1,1119,1457,0,0
-98,-433,0,0,0,0,0,0,0,0,0,-1,1126,1457,0,0
-91,-433,0,0,0,0,0,0,0,0,0,-1,1133,1457,0,0
-84,-433,0,0,0,0,0,0,0,0,0,-1,1140,1457,0,0
-77,-433,0,0,0,0,0,0,0,0,0,-1,1147,1457,0,0
-70,-433,0,0,0,0,0,0,0,0,0,-1,1154,1457,0,0
-63,-433,0,0,0,0,0,0,0,0,0,-1,1161,1457,0,0
-56,-433,0,0,0,0,0,0,0,0,0,-1,1168,1457,0,0
-49,-433,0,0,0,0,0,0,0,0,0,-1,1175,1457,0,0
-42,-433,0,0,0,0,0,0,0,0,0,-1,1182,1457,0,0
-35,-433,0,0,0,0,0,0,0,0,0,-1,1189,1457,0,0
-28,-433,0,0,0,0,0,0,0,0,0,-1,1196,1457,0,0
-21,-433,0,0,0,0,0,0,0,0,0,-1,1203,1457,0,0
-14,-433,0,0,0,0,0,0,0,0,0,-1,1210,1457,0,0
-7,-433,0,0,0,0,0,0,0,0,0,-1,1217,1457,0,0
0,-433,0,0,0,0,0,0,0,0,0,-1,1224,1457,0,0
7,-433,0,0,0,0,0,0,0,0,0,-1,1231,1457,0,0
14,-433,0,0,0,0,0,0,0,0,0,-1,1238,1457,0,0
21,-433,0,0,0,0,0,0,0,0,0,-1,1245,1457,0,0
28,-433,0,0,0,0,0,0,0,0,0,-1,1252,1457,0,0
35,-433,0,0,0,0,0,0,0,0,0,-1,1259,1457,0,0
42,-433,0,0,0,0,0,0,0,0,0,-1,1266,1457,0,0
49,-433,0,0,0,0,0,0,0,0,0,-1,1273,1457,0,0
56,-433,0,0,0,0,0,0,0,0,0,-1,1280,1457,0,0
63,-433,0,0,0,0,0,0,0,0,0,-1,1287,1457,0,0
70,-433,0,0,0,0,0,0,0,0,0,-1,1294,1457,0,0
77,-433,0,0,0,0,0,0,0,0,0,-1,1301,1457,0,0
84,-433,0,0,0,0,0,0,0,0,0,-1,1308,1457,0,0
91,-433,0,0,0,0,0,0,0,0,0,-1,1315,1457,0,0
98,-433,0,0,0,0,0,0,0,0,0,-1,1322,1457,0,0
105,-433,0,0,0,0,0,0,0,0,0,-1,1329,1457,0,0
112,-433,0,0,0,0,0,0,0,0,0,-1,1336,1457,0,0
119,-433,0,0,0,0,0,0,0,0,0,-1,1343,1457,0,0
126,-433,0,0,0,0,0,0,0,0,0,-1,1350,1457,0,0
133,-433,0,0,0,0,0,0,0,0,0,-1,1357,1457,0,0
140,-433,0,0,0,0,0,0,0,0,0,-1,1364,1457,0,0
147,-433,0,0,0,0,0,0,0,0,0,-1,1371,1457,0,0
154,-433,0,0,0,0,0,0,0,0,0,-1,1378,1457,0,0
161,-433,0,0,0,0,0,0,0,0,0,-1,1385,1457,0,0
168,-433,0,0,0,0,0,0,0,0,0,-1,1392,1457,0,0
175,-433,0,0,0,0,0,0,0,0,0,-1,1399,1457,0,0
182,-433,0,0,0,0,0,0,0,0,0,-1,1406,1457,0,0
189,-433,0,0,0,0,0,0,0,0,0,-1,1413,1457,0,0
196,-433,0,0,0,0,0,0,0,0,0,-1,1420,1457,0,0
203,-433,0,0,0,0,0,0,0,0,0,-1,1427,1457,0,0
210,-433,0,0,0,0,0,0,0,0,0,-1,1434,1457,0,0
217,-433,0,0,0,0,0,0,0,0,0,-1,1441,1457,0,0
224,-433,0,0,0,0,0,0,0,0,0,-1,1448,1457,0,0
231,-433,0,0,0,0,0,0,0,0,0,-1,1455,1457,0,0
238,-433,0,0,0,0,0,0,0,0,0,-1,1462,1457,0,0
245,-433,0,0,0,0,0,0,0,0,0,-1,1469,1457,0,0
252,-433,0,0,0,0,0,0,0,0,0,-1,1476,1457,0,0
259,-433,0,0,0,0,0,0,0,0,0,-1,1483,1457,0,0
266,-433,0,0,0,0,0,0,0,0,0,-1,1490,1457,0,0
273,-433,0,0,0,0,0,0,0,0,0,-1,1497,1457,0,0
280,-433,0,0,0,0,0,0,0,0,0,-1,1504,1457,0,0
287,-433,0,0,0,0,0,0,0,0,0,-1,1511,1457,0,0
294,-433,0,0,0,0,0,0,0,0,0,-1,1518,1457,0,0
301,-433,0,0,0,0,0,0,0,0,0,-1,1525,1457,0,0
308,-433,0,0,0,0,0,0,0,0,0,-1,1532,1457,0,0
315,-433,0,0,0,0,0,0,0,0,0,-1,1539,1457,0,0
322,-433,0,0,0,0,0,0,0,0,0,-1,1546,1457,0,0
329,-433,0,0,0,0,0,0,0,0,0,-1,1553,1457,0,0
336,-433,0,0,0,0,0,0,0,0,0,-1,1560,1457,0,0
343,-433,0,0,0,0,0,0,0,0,0,-1,1567,1457,0,0
350,-433,0,0,0,0,0,0,0,0,0,-1,1574,1457,0,0
357,-433,0,0,0,0,0,0,0,0,0,-1,1581,1457,0,0
364,-433,0,0,0,0,0,0,0,0,0,-1,1588,1457,0,0
371,-433,0,0,0,0,0,0,0,0,0,-1,1595,1457,0,0
378,-433,0,0,0,0,0,0,0,0,0,-1,1602,1457,0,0
385,-433,0,0,0,0,0,0,0,0,0,-1,1609,1457,0,0
392,-433,0,0,0,0,0,0,0,0,0,-1,1616,1457,0,0
399,-433,0,0,0,0,0,0,0,0,0,-1,1623,1457,0,0
406,-433,0,0,0,0,0,0,0,0,0,-1,1630,1457,0,0
413,-433,0,0,0,0,0,0,0,0,0,-1,1637,1457,0,0
420,-433,0,0,0,0,0,0,0,0,0,-1,1644,1457,0,0
427,-433,0,0,0,0,0,0,0,0,0,-1,1651,1457,0,0
434,-433,0,0,0,0,0,0,0,0,0,-1,1658,1457,0,0
441,-433,0,0,0,0,0,0,0,0,0,-1,1665,1457,0,0
448,-433,0,0,0,0,0,0,0,0,0,-1,1672,1457,0,0
455,-433,0,0,0,0,0,0,0,0,0,-1,1679,1457,0,0
462,-433,0,0,0,0,0,0,0,0,0,-1,1686,1457,0,0
469,-433,0,0,0,0,0,0,0,0,0,-1,1693,1457,0,0
476,-433,0,0,0,0,0,0,0,0,0,-1,1700,1457,0,0
483,-433,0,0,0,0,0,0,0,0,0,-1,1707,1457,0,0
490,-433,0,0,0,0,0,0,0,0,0,-1,1714,1457,0,0
497,-433,0,0,0,0,0,0,0,0,0,-1,1721,1457,0,0
504,-433,19.9058,3.03662,0,0,0,0,0,0,0,-1,1728,1457,19.9058,-3.03656
511,-433,19.0145,3.07837,0,0,0,0,0,0,0,-1,1735,1457,19.0146,-3.07834
518,-433,18.071,3.06433,0,0,0,0,0,0,0,-1,1742,1457,18.071,-3.06432
525,-433,17.2048,3.37085,0,0,0,0,0,0,0,-1,1749,1457,17.2049,-3.37083
532,-433,16.5637,3.36646,0,0,0,0,0,0,0,-1,1756,1457,16.5637,-3.36643
539,-433,15.9193,3.30396,0,0,0,0,0,0,0,-1,1763,1457,15.9193,-3.30394
546,-433,23.1903,4.81775,0,0,0,0,0,0,0,-1,1770,1457,23.1903,-4.81775
553,-433,13.9674,11.5781,0,0,0,0,0,0,0,-1,1777,1457,13.9674,-11.5781
560,-433,13.9855,11.7341,0,0,0,0,0,0,0,-1,1784,1457,13.9855,-11.7341
567,-433,13.9264,11.3364,0,0,0,0,0,0,0,-1,1791,1457,13.9263,-11.3364
574,-433,15.5305,12.3673,0,0,0,0,0,0,0,-1,1798,1457,15.5305,-12.3673
581,-433,16.6405,12.1898,0,0,0,0,0,0,0,-1,1805,1457,16.6405,-12.1898
588,-433,26.4386,19.7478,0,0,0,0,0,0,0,-1,1812,1457,26.4386,-19.7478
595,-433,33.7028,24.6969,0,0,0,0,0,0,0,-1,1819,1457,33.7027,-24.6969
602,-433,33.6434,23.8806,0.00414953,0.00172762,-0.00210859,0.00537015,0.000507002,-0.524746,0.00342364,0.0293289,1826,1457,33.6434,-23.8806
609,-433,33.6429,23.0857,0.00328348,0.00123846,-0.00159879,0.00415877,0.000363162,-0.500901,0.00265974,0.0174189,1833,1457,33.643,-23.0857
616,-433,33.6168,22.3665,0.00256295,0.000853687,-0.00120039,0.00318187,0.000234773,-0.476044,0.00204748,0.0147752,1840,1457,33.6168,-22.3665
623,-433,33.5707,21.6285,0.00218522,0.000570462,-0.000931451,0.0026105,0.000145176,-0.428316,0.00169402,0.0111844,1847,1457,33.5707,-21.6285
630,-433,33.5459,20.8973,0.00208063,0.000371873,-0.000803881,0.00239936,5.31417e-05,-0.377477,0.00158216,0.0144889,1854,1457,33.5459,-20.8973
637,-433,33.5161,20.1595,0.00219699,0.000371762,-0.000769367,0.00247802,9.07306e-05,-0.350218,0.00162262,0.0167631,1861,1457,33.5161,-20.1595
644,-433,33.4614,19.4403,0.00262684,0.000467144,-0.000751969,0.00286287,0.000231117,-0.304141,0.0018364,0.0171508,1868,1457,33.4614,-19.4403
651,-433,33.4318,18.6849,0.00334937,0.000848686,-0.000974851,0.00368449,0.000513566,-0.33111,0.00230429,0.012823,1875,1457,33.4317,-18.685
658,-433,33.3455,17.8885,0.00443563,0.00143483,-0.00124225,0.00488315,0.000987308,-0.345776,0.00298133,0.043383,1882,1457,33.3454,-17.8885
665,-433,33.6619,16.7745,0,0,0,0,0,0,0,-1,1889,1457,33.6619,-16.7745
672,-433,18.115,8.7207,0,0,0,0,0,0,0,-1,1896,1457,18.115,-8.72074
679,-433,17.2969,9.6355,0,0,0,0,0,0,0,-1,1903,1457,17.2968,-9.63548
686,-433,13.6356,8.61694,0,0,0,0,0,0,0,-1,1910,1457,13.6356,-8.61694
693,-433,13.4081,8.39624,0,0,0,0,0,0,0,-1,1917,1457,13.4081,-8.39624
700,-433,7.16809,-1.5166,0,0,0,0,0,0,0,-1,1924,1457,7.16806,1.51656
707,-433,8.68359,-2.82202,0,0,0,0,0,0,0,-1,1931,1457,8.68359,2.82197
714,-433,0,0,0,0,0,0,0,0,0,-1,1938,1457,0,0
721,-433,0,0,0,0,0,0,0,0,0,-1,1945,1457,0,0
728,-433,0,0,0,0,0,0,0,0,0,-1,1952,1457,0,0
735,-433,0,0,0,0,0,0,0,0,0,-1,1959,1457,0,0
742,-433,0,0,0,0,0,0,0,0,0,-1,1966,1457,0,0
749,-433,0,0,0,0,0,0,0,0,0,-1,1973,1457,0,0
756,-433,0,0,0,0,0,0,0,0,0,-1,1980,1457,0,0
763,-433,0,0,0,0,0,0,0,0,0,-1,1987,1457,0,0
770,-433,0,0,0,0,0,0,0,0,0,-1,1994,1457,0,0
777,-433,0,0,0,0,0,0,0,0,0,-1,2001,1457,0,0
784,-433,0,0,0,0,0,0,0,0,0,-1,2008,1457,0,0
791,-433,0,0,0,0,0,0,0,0,0,-1,2015,1457,0,0
798,-433,0,0,0,0,0,0,0,0,0,-1,2022,1457,0,0
805,-433,0,0,0,0,0,0,0,0,0,-1,2029,1457,0,0
812,-433,0,0,0,0,0,0,0,0,0,-1,2036,1457,0,0
-700,-440,0,0,0,0,0,0,0,0,0,-1,524,1464,0,0
-693,-440,0,0,0,0,0,0,0,0,0,-1,531,1464,0,0
-686,-440,0,0,0,0,0,0,0,0,0,-1,538,1464,0,0
-679,-440,0,0,0,0,0,0,0,0,0,-1,545,1464,0,0
-672,-440,0,0,0,0,0,0,0,0,0,-1,552,1464,0,0
-665,-440,0,0,0,0,0,0,0,0,0,-1,559,1464,0,0
-658,-440,0,0,0,0,0,0,0,0,0,-1,566,1464,0,0
-651,-440,0,0,0,0,0,0,0,0,0,-1,573,1464,0,0
-644,-440,0,0,0,0,0,0,0,0,0,-1,580,1464,0,0
-637,-440,0,0,0,0,0,0,0,0,0,-1,587,1464,0,0
-630,-440,0,0,0,0,0,0,0,0,0,-1,594,1464,0,0
-623,-440,0,0,0,0,0,0,0,0,0,-1,601,1464,0,0
-616,-440,0,0,0,0,0,0,0,0,0,-1,608,1464,0,0
-609,-440,0,0,0,0,0,0,0,0,0,-1,615,1464,0,0
-602,-440,0,0,0,0,0,0,0,0,0,-1,622,1464,0,0
-595,-440,0,0,0,0,0,0,0,0,0,-1,629,1464,0,0
-588,-440,0,0,0,0,0,0,0,0,0,-1,636,1464,0,0
-581,-440,-8.97278,0.254517,0,0,0,0,0,0,0,-1,643,1464,-8.97276,-0.254526
-574,-440,-7.00818,-0.918579,0,0,0,0,0,0,0,-1,650,1464,-7.00817,0.918538
-567,-440,-6.12152,-0.0766602,0,0,0,0,0,0,0,-1,657,1464,-6.12151,0.0767097
-560,-440,-5.46747,0.82251,0,0,0,0,0,0,0,-1,664,1464,-5.46748,-0.822551
-553,-440,-6.84729,0.0831299,0,0,0,0,0,0,0,-1,671,1464,-6.84732,-0.083136
-546,-440,-5.63446,-0.153198,0,0,0,0,0,0,0,-1,678,1464,-5.63447,0.153147
-539,-440,-6.80017,8.58252,0,0,0,0,0,0,0,-1,685,1464,-6.80015,-8.58257
-532,-440,-9.69647,11.3262,0,0,0,0,0,0,0,-1,692,1464,-9.69649,-11.3262
-525,-440,-15.3363,16.9583,0,0,0,0,0,0,0,-1,699,1464,-15.3363,-16.9583
-518,-440,-15.2582,17.833,0.00311164,0.00520805,0.00483908,0.00911115,-0.000791455,0.892056,0.00635437,0.031803,706,1464,-15.2582,-17.833
-511,-440,-15.2479,18.699,0.00267476,0.00407328,0.00382183,0.00725929,-0.000511251,0.87588,0.00501863,0.01748,713,1464,-15.248,-18.699
-504,-440,-15.2939,19.4819,0.00224135,0.00307993,0.00287611,0.00556715,-0.00024588,0.85778,0.00379605,0.019571,720,1464,-15.2939,-19.482
-497,-440,-15.3602,20.2185,0.00184212,0.00228842,0.00205371,0.00413107,-5.32018e-07,0.839514,0.00275422,0.0218192,727,1464,-15.3602,-20.2186
-490,-440,-15.384,20.9137,0.0014878,0.00166723,0.0013582,0.00293867,0.00021636,0.818376,0.00189112,0.0229989,734,1464,-15.384,-20.9137
-483,-440,-15.4152,21.724,0.0012996,0.00127048,0.000873724,0.00215888,0.000411194,0.777069,0.00132366,0.0209407,741,1464,-15.4152,-21.724
-476,-440,-15.4601,22.5239,0.00120458,0.00111297,0.000617226,0.0017777,0.000539855,0.74836,0.0010524,0.0135665,748,1464,-15.4602,-22.524
-469,-440,-15.5001,23.2947,0.00119936,0.00119465,0.000548691,0.0017457,0.000648308,0.783256,0.00101894,0.0129663,755,1464,-15.5001,-23.2947
-462,-440,-15.5824,24.0286,0.00135595,0.00157208,0.000781271,0.00225273,0.000675307,0.854121,0.00133492,0.0187408,762,1464,-15.5824,-24.0286
-455,-440,-15.576,24.895,0,0,0,0,0,0,0,-1,769,1464,-15.576,-24.895
-448,-440,-12.8837,23.5623,0,0,0,0,0,0,0,-1,776,1464,-12.8837,-23.5623
-441,-440,-7.28583,14.7465,0,0,0,0,0,0,0,-1,783,1464,-7.28584,-14.7464
-434,-440,-8.33636,14.5024,0,0,0,0,0,0,0,-1,790,1464,-8.33638,-14.5025
-427,-440,-8.28094,14.2512,0,0,0,0,0,0,0,-1,797,1464,-8.28094,-14.2512
-420,-440,-6.86603,8.09216,0,0,0,0,0,0,0,-1,804,1464,-6.86602,-8.09222
-413,-440,-3.46796,5.72278,0,0,0,0,0,0,0,-1,811,1464,-3.46797,-5.72276
-406,-440,-5.2887,5.20264,0,0,0,0,0,0,0,-1,818,1464,-5.2887,-5.20261
-399,-440,-12.7318,3.94421,0,0,0,0,0,0,0,-1,825,1464,-12.7318,-3.94419
-392,-440,-13.5565,2.51855,0,0,0,0,0,0,0,-1,832,1464,-13.5565,-2.51861
-385,-440,-14.6741,1.39795,0,0,0,0,0,0,0,-1,839,1464,-14.6741,-1.39801
-378,-440,-15.8063,0.293457,0,0,0,0,0,0,0,-1,846,1464,-15.8063,-0.293412
-371,-440,0,0,0,0,0,0,0,0,0,-1,853,1464,0,0
-364,-440,0,0,0,0,0,0,0,0,0,-1,860,1464,0,0
-357,-440,0,0,0,0,0,0,0,0,0,-1,867,1464,0,0
-350,-440,0,0,0,0,0,0,0,0,0,-1,874,1464,0,0
-343,-440,0,0,0,0,0,0,0,0,0,-1,881,1464,0,0
-336,-440,0,0,0,0,0,0,0,0,0,-1,888,1464,0,0
-329,-440,0,0,0,0,0,0,0,0,0,-1,895,1464,0,0
-322,-440,0,0,0,0,0,0,0,0,0,-1,902,1464,0,0
-315,-440,0,0,0,0,0,0,0,0,0,-1,909,1464,0,0
-308,-440,0,0,0,0,0,0,0,0,0,-1,916,1464,0,0
-301,-440,0,0,0,0,0,0,0,0,0,-1,923,1464,0,0
-294,-440,0,0,0,0,0,0,0,0,0,-1,930,1464,0,0
-287,-440,0,0,0,0,0,0,0,0,0,-1,937,1464,0,0
-280,-440,0,0,0,0,0,0,0,0,0,-1,944,1464,0,0
-273,-440,0,0,0,0,0,0,0,0,0,-1,951,1464,0,0
-266,-440,0,0,0,0,0,0,0,0,0,-1,958,1464,0,0
-259,-440,0,0,0,0,0,0,0,0,0,-1,965,1464,0,0
-252,-440,0,0,0,0,0,0,0,0,0,-1,972,1464,0,0
-245,-440,0,0,0,0,0,0,0,0,0,-1,979,1464,0,0
-238,-440,0,0,0,0,0,0,0,0,0,-1,986,1464,0,0
-231,-440,0,0,0,0,0,0,0,0,0,-1,993,1464,0,0
-224,-440,0,0,0,0,0,0,0,0,0,-1,1000,1464,0,0
-217,-440,0,0,0,0,0,0,0,0,0,-1,1007,1464,0,0
-210,-440,0,0,0,0,0,0,0,0,0,-1,1014,1464,0,0
-203,-440,0,0,0,0,0,0,0,0,0,-1,1021,1464,0,0
-196,-440,0,0,0,0,0,0,0,0,0,-1,1028,1464,0,0
-189,-440,0,0,0,0,0,0,0,0,0,-1,1035,1464,0,0
-182,-440,0,0,0,0,0,0,0,0,0,-1,1042,1464,0,0
-175,-440,0,0,0,0,0,0,0,0,0,-1,1049,1464,0,0
-168,-440,0,0,0,0,0,0,0,0,0,-1,1056,1464,0,0
-161,-440,0,0,0,0,0,0,0,0,0,-1,1063,1464,0,0
-154,-440,0,0,0,0,0,0,0,0,0,-1,1070,1464,0,0
-147,-440,0,0,0,0,0,0,0,0,0,-1,1077,1464,0,0
-140,-440,0,0,0,0,0,0,0,0,0,-1,1084,1464,0,0
-133,-440,0,0,0,0,0,0,0,0,0,-1,1091,1464,0,0
-126,-440,0,0,0,0,0,0,0,0,0,-1,1098,1464,0,0
-119,-440,0,0,0,0,0,0,0,0,0,-1,1105,1464,0,0
-112,-440,0,0,0,0,0,0,0,0,0,-1,1112,1464,0,0
-105,-440,0,0,0,0,0,0,0,0,0,-1,1119,1464,0,0
-98,-440,0,0,0,0,0,0,0,0,0,-1,1126,1464,0,0
-91,-440,0,0,0,0,0,0,0,0,0,-1,1133,1464,0,0
-84,-440,0,0,0,0,0,0,0,0,0,-1,1140,1464,0,0
-77,-440,0,0,0,0,0,0,0,0,0,-1,1147,1464,0,0
-70,-440,0,0,0,0,0,0,0,0,0,-1,1154,1464,0,0
-63,-440,0,0,0,0,0,0,0,0,0,-1,1161,1464,0,0
-56,-440,0,0,0,0,0,0,0,0,0,-1,1168,1464,0,0
-49,-440,0,0,0,0,0,0,0,0,0,-1,1175,1464,0,0
-42,-440,0,0,0,0,0,0,0,0,0,-1,1182,1464,0,0
-35,-440,0,0,0,0,0,0,0,0,0,-1,1189,1464,0,0
-28,-440,0,0,0,0,0,0,0,0,0,-1,1196,1464,0,0
-21,-440,0,0,0,0,0,0,0,0,0,-1,1203,1464,0,0
-14,-440,0,0,0,0,0,0,0,0,0,-1,1210,1464,0,0
-7,-440,0,0,0,0,0,0,0,0,0,-1,1217,1464,0,0
0,-440,0,0,0,0,0,0,0,0,0,-1,1224,1464,0,0
7,-440,0,0,0,0,0,0,0,0,0,-1,1231,1464,0,0
14,-440,0,0,0,0,0,0,0,0,0,-1,1238,1464,0,0
21,-440,0,0,0,0,0,0,0,0,0,-1,1245,1464,0,0
28,-440,0,0,0,0,0,0,0,0,0,-1,1252,1464,0,0
35,-440,0,0,0,0,0,0,0,0,0,-1,1259,1464,0,0
42,-440,0,0,0,0,0,0,0,0,0,-1,1266,1464,0,0
49,-440,0,0,0,0,0,0,0,0,0,-1,1273,1464,0,0
56,-440,0,0,0,0,0,0,0,0,0,-1,1280,1464,0,0
63,-440,0,0,0,0,0,0,0,0,0,-1,1287,1464,0,0
70,-440,0,0,0,0,0,0,0,0,0,-1,1294,1464,0,0
77,-440,0,0,0,0,0,0,0,0,0,-1,1301,1464,0,0
84,-440,0,0,0,0,0,0,0,0,0,-1,1308,1464,0,0
91,-440,0,0,0,0,0,0,0,0,0,-1,1315,1464,0,0
98,-440,0,0,0,0,0,0,0,0,0,-1,1322,1464,0,0
105,-440,0,0,0,0,0,0,0,0,0,-1,1329,1464,0,0
112,-440,0,0,0,0,0,0,0,0,0,-1,1336,1464,0,0
119,-440,0,0,0,0,0,0,0,0,0,-1,1343,1464,0,0
126,-440,0,0,0,0,0,0,0,0,0,-1,1350,1464,0,0
133,-440,0,0,0,0,0,0,0,0,0,-1,1357,1464,0,0
140,-440,0,0,0,0,0,0,0,0,0,-1,1364,1464,0,0
147,-440,0,0,0,0,0,0,0,0,0,-1,1371,1464,0,0
154,-440,0,0,0,0,0,0,0,0,0,-1,1378,1464,0,0
161,-440,0,0,0,0,0,0,0,0,0,-1,1385,1464,0,0
168,-440,0,0,0,0,0,0,0,0,0,-1,1392,1464,0,0
175,-440,0,0,0,0,0,0,0,0,0,-1,1399,1464,0,0
182,-440,0,0,0,0,0,0,0,0,0,-1,1406,1464,0,0
189,-440,0,0,0,0,0,0,0,0,0,-1,1413,1464,0,0
196,-440,0,0,0,0,0,0,0,0,0,-1,1420,1464,0,0
203,-440,0,0,0,0,0,0,0,0,0,-1,1427,1464,0,0
210,-440,0,0,0,0,0,0,0,0,0,-1,1434,1464,0,0
217,-440,0,0,0,0,0,0,0,0,0,-1,1441,1464,0,0
224,-440,0,0,0,0,0,0,0,0,0,-1,1448,1464,0,0
231,-440,0,0,0,0,0,0,0,0,0,-1,1455,1464,0,0
238,-440,0,0,0,0,0,0,0,0,0,-1,1462,1464,0,0
245,-440,0,0,0,0,0,0,0,0,0,-1,1469,1464,0,0
252,-440,0,0,0,0,0,0,0,0,0,-1,1476,1464,0,0
259,-440,0,0,0,0,0,0,0,0,0,-1,1483,1464,0,0
266,-440,0,0,0,0,0,0,0,0,0,-1,1490,1464,0,0
273,-440,0,0,0,0,0,0,0,0,0,-1,1497,1464,0,0
280,-440,0,0,0,0,0,0,0,0,0,-1,1504,1464,0,0
287,-440,0,0,0,0,0,0,0,0,0,-1,1511,1464,0,0
294,-440,0,0,0,0,0,0,0,0,0,-1,1518,1464,0,0
301,-440,0,0,0,0,0,0,0,0,0,-1,1525,1464,0,0
308,-440,0,0,0,0,0,0,0,0,0,-1,1532,1464,0,0
315,-440,0,0,0,0,0,0,0,0,0,-1,1539,1464,0,0
322,-440,0,0,0,0,0,0,0,0,0,-1,1546,1464,0,0
329,-440,0,0,0,0,0,0,0,0,0,-1,1553,1464,0,0
336,-440,0,0,0,0,0,0,0,0,0,-1,1560,1464,0,0
343,-440,0,0,0,0,0,0,0,0,0,-1,1567,1464,0,0
350,-440,0,0,0,0,0,0,0,0,0,-1,1574,1464,0,0
357,-440,0,0,0,0,0,0,0,0,0,-1,1581,1464,0,0
364,-440,0,0,0,0,0,0,0,0,0,-1,1588,1464,0,0
371,-440,0,0,0,0,0,0,0,0,0,-1,1595,1464,0,0
378,-440,0,0,0,0,0,0,0,0,0,-1,1602,1464,0,0
385,-440,0,0,0,0,0,0,0,0,0,-1,1609,1464,0,0
392,-440,0,0,0,0,0,0,0,0,0,-1,1616,1464,0,0
399,-440,0,0,0,0,0,0,0,0,0,-1,1623,1464,0,0
406,-440,0,0,0,0,0,0,0,0,0,-1,1630,1464,0,0
413,-440,0,0,0,0,0,0,0,0,0,-1,1637,1464,0,0
420,-440,0,0,0,0,0,0,0,0,0,-1,1644,1464,0,0
427,-440,0,0,0,0,0,0,0,0,0,-1,1651,1464,0,0
434,-440,0,0,0,0,0,0,0,0,0,-1,1658,1464,0,0
441,-440,0,0,0,0,0,0,0,0,0,-1,1665,1464,0,0
448,-440,0,0,0,0,0,0,0,0,0,-1,1672,1464,0,0
455,-440,0,0,0,0,0,0,0,0,0,-1,1679,1464,0,0
462,-440,0,0,0,0,0,0,0,0,0,-1,1686,1464,0,0
469,-440,0,0,0,0,0,0,0,0,0,-1,1693,1464,0,0
476,-440,0,0,0,0,0,0,0,0,0,-1,1700,1464,0,0
483,-440,0,0,0,0,0,0,0,0,0,-1,1707,1464,0,0
490,-440,0,0,0,0,0,0,0,0,0,-1,1714,1464,0,0
497,-440,16.965,-0.528442,0,0,0,0,0,0,0,-1,1721,1464,16.965,0.528492
504,-440,15.8052,0.670166,0,0,0,0,0,0,0,-1,1728,1464,15.8052,-0.670145
511,-440,17.5754,2.77832,0,0,0,0,0,0,0,-1,1735,1464,17.5754,-2.77826
518,-440,16.9017,3.07861,0,0,0,0,0,0,0,-1,1742,1464,16.9018,-3.07859
525,-440,18.4495,12.0867,0,0,0,0,0,0,0,-1,1749,1464,18.4495,-12.0867
532,-440,15.4319,3.64392,0,0,0,0,0,0,0,-1,1756,1464,15.4318,-3.64391
539,-440,14.8214,3.41321,0,0,0,0,0,0,0,-1,1763,1464,14.8214,-3.4132
546,-440,14.8651,10.7683,0,0,0,0,0,0,0,-1,1770,1464,14.8651,-10.7683
553,-440,15.1213,11.4121,0,0,0,0,0,0,0,-1,1777,1464,15.1213,-11.4121
560,-440,17.4325,12.5394,0,0,0,0,0,0,0,-1,1784,1464,17.4325,-12.5394
567,-440,16.9025,12.4249,0,0,0,0,0,0,0,-1,1791,1464,16.9025,-12.425
574,-440,19.2841,14.8679,0,0,0,0,0,0,0,-1,1798,1464,19.2841,-14.868
581,-440,26.4432,21.3477,0,0,0,0,0,0,0,-1,1805,1464,26.4432,-21.3476
588,-440,32.7798,25.5579,0,0,0,0,0,0,0,-1,1812,1464,32.7798,-25.5578
595,-440,32.8296,24.6799,0.00475541,0.00182074,-0.00228238,0.00600144,0.000574716,-0.499716,0.00382381,0.0356801,1819,1464,32.8296,-24.6799
602,-440,32.9388,23.8478,0.00377062,0.00138307,-0.00179857,0.00473554,0.000418152,-0.492412,0.00302728,0.0202684,1826,1464,32.9388,-23.8478
609,-440,32.9124,23.1326,0.00299482,0.000964488,-0.0013615,0.00367795,0.000281352,-0.465051,0.00236377,0.0169724,1833,1464,32.9124,-23.1325
616,-440,32.8735,22.4268,0.00237371,0.000685907,-0.00104497,0.00287299,0.000186628,-0.445724,0.00185625,0.0179537,1840,1464,32.8736,-22.4267
623,-440,32.8275,21.6736,0.0020985,0.000434652,-0.000819653,0.00243445,9.87033e-05,-0.388984,0.00159109,0.0142288,1847,1464,32.8275,-21.6736
630,-440,32.7761,20.9017,0.00207688,0.00023897,-0.000698098,0.00231197,3.87989e-06,-0.32483,0.00154002,0.0121708,1854,1464,32.7762,-20.9017
637,-440,32.7533,20.2015,0.00225555,0.000230326,-0.000670466,0.0024574,2.84801e-05,-0.292422,0.00162885,0.0172458,1861,1464,32.7533,-20.2015
644,-440,32.7411,19.4873,0.00270605,0.000378663,-0.00068703,0.00289372,0.000190989,-0.266661,0.00186874,0.0158677,1868,1464,32.7411,-19.4873
651,-440,32.7446,18.691,0.00349863,0.000838483,-0.00098394,0.00382302,0.000514098,-0.318459,0.00239577,0.0230481,1875,1464,32.7447,-18.691
658,-440,32.8081,17.7939,0,0,0,0,0,0,0,-1,1882,1464,32.8081,-17.794
665,-440,24.2067,12.5813,0,0,0,0,0,0,0,-1,1889,1464,24.2067,-12.5813
672,-440,18.9385,9.6394,0,0,0,0,0,0,0,-1,1896,1464,18.9384,-9.63939
679,-440,16.9508,10.2336,0,0,0,0,0,0,0,-1,1903,1464,16.9508,-10.2337
686,-440,15.2556,8.44177,0,0,0,0,0,0,0,-1,1910,1464,15.2556,-8.44177
693,-440,9.88635,2.89795,0,0,0,0,0,0,0,-1,1917,1464,9.88638,-2.89798
700,-440,7.07825,-2.62061,0,0,0,0,0,0,0,-1,1924,1464,7.07829,2.62057
707,-440,0,0,0,0,0,0,0,0,0,-1,1931,1464,0,0
714,-440,0,0,0,0,0,0,0,0,0,-1,1938,1464,0,0
721,-440,0,0,0,0,0,0,0,0,0,-1,1945,1464,0,0
728,-440,0,0,0,0,0,0,0,0,0,-1,1952,1464,0,0
735,-440,0,0,0,0,0,0,0,0,0,-1,1959,1464,0,0
742,-440,0,0,0,0,0,0,0,0,0,-1,1966,1464,0,0
749,-440,0,0,0,0,0,0,0,0,0,-1,1973,1464,0,0
756,-440,0,0,0,0,0,0,0,0,0,-1,1980,1464,0,0
763,-440,0,0,0,0,0,0,0,0,0,-1,1987,1464,0,0
770,-440,0,0,0,0,0,0,0,0,0,-1,1994,1464,0,0
777,-440,0,0,0,0,0,0,0,0,0,-1,2001,1464,0,0
784,-440,0,0,0,0,0,0,0,0,0,-1,2008,1464,0,0
791,-440,0,0,0,0,0,0,0,0,0,-1,2015,1464,0,0
798,-440,0,0,0,0,0,0,0,0,0,-1,2022,1464,0,0
805,-440,0,0,0,0,0,0,0,0,0,-1,2029,1464,0,0
812,-440,0,0,0,0,0,0,0,0,0,-1,2036,1464,0,0
-700,-447,0,0,0,0,0,0,0,0,0,-1,524,1471,0,0
-693,-447,0,0,0,0,0,0,0,0,0,-1,531,1471,0,0
-686,-447,0,0,0,0,0,0,0,0,0,-1,538,1471,0,0
-679,-447,0,0,0,0,0,0,0,0,0,-1,545,1471,0,0
-672,-447,0,0,0,0,0,0,0,0,0,-1,552,1471,0,0
-665,-447,0,0,0,0,0,0,0,0,0,-1,559,1471,0,0
-658,-447,0,0,0,0,0,0,0,0,0,-1,566,1471,0,0
-651,-447,0,0,0,0,0,0,0,0,0,-1,573,1471,0,0
-644,-447,0,0,0,0,0,0,0,0,0,-1,580,1471,0,0
-637,-447,0,0,0,0,0,0,0,0,0,-1,587,1471,0,0
-630,-447,0,0,0,0,0,0,0,0,0,-1,594,1471,0,0
-623,-447,0,0,0,0,0,0,0,0,0,-1,601,1471,0,0
-616,-447,0,0,0,0,0,0,0,0,0,-1,608,1471,0,0
-609,-447,0,0,0,0,0,0,0,0,0,-1,615,1471,0,0
-602,-447,0,0,0,0,0,0,0,0,0,-1,622,1471,0,0
-595,-447,0,0,0,0,0,0,0,0,0,-1,629,1471,0,0
-588,-447,0,0,0,0,0,0,0,0,0,-1,636,1471,0,0
-581,-447,-7.06482,-1.50476,0,0,0,0,0,0,0,-1,643,1471,-7.0648,1.50474
-574,-447,-6.88092,-0.00585938,0,0,0,0,0,0,0,-1,650,1471,-6.88095,0.00589852
-567,-447,-6.8205,-1.32178,0,0,0,0,0,0,0,-1,657,1471,-6.82047,1.32172
-560,-447,-8.85748,2.80774,0,0,0,0,0,0,0,-1,664,1471,-8.85748,-2.80775
-553,-447,-7.60486,3.26794,0,0,0,0,0,0,0,-1,671,1471,-7.60487,-3.26799
-546,-447,-3.94501,1.8656,0,0,0,0,0,0,0,-1,678,1471,-3.945,-1.86554
-539,-447,-5.35492,4.50024,0,0,0,0,0,0,0,-1,685,1471,-5.35492,-4.50018
-532,-447,-6.12781,8.81091,0,0,0,0,0,0,0,-1,692,1471,-6.12781,-8.81094
-525,-447,-9.44501,12.098,0,0,0,0,0,0,0,-1,699,1471,-9.44502,-12.098
-518,-447,-14.5579,17.6326,0,0,0,0,0,0,0,-1,706,1471,-14.5579,-17.6325
-511,-447,-14.514,18.6697,0.00327972,0.00507555,0.00487928,0.00913885,-0.000783574,0.876393,0.00636984,0.0278514,713,1471,-14.5141,-18.6697
-504,-447,-14.5179,19.5647,0.00276088,0.00382121,0.00373726,0.00706572,-0.000483626,0.855858,0.00487969,0.0208339,720,1471,-14.5179,-19.5647
-497,-447,-14.6454,20.3213,0.00225502,0.00281091,0.00272711,0.0052742,-0.000208271,0.836182,0.00358757,0.02453,727,1471,-14.6454,-20.3213
-490,-447,-14.6099,20.9663,0.00180768,0.00202482,0.00188414,0.00380352,2.8985e-05,0.814179,0.00252607,0.0246815,734,1471,-14.6099,-20.9663
-483,-447,-14.6484,21.7351,0.00151989,0.00147643,0.00126541,0.00276376,0.000232558,0.776813,0.00177008,0.0225905,741,1471,-14.6484,-21.7352
-476,-447,-14.6915,22.5341,0.00134696,0.00121425,0.000912355,0.00219537,0.000365844,0.749097,0.00135816,0.0142711,748,1471,-14.6915,-22.5341
-469,-447,-14.7158,23.3156,0.00128687,0.00124831,0.000768475,0.00203631,0.000498874,0.772858,0.00122557,0.0134569,755,1471,-14.7158,-23.3156
-462,-447,-14.7602,24.0969,0.00143329,0.00159411,0.000924601,0.00244179,0.000585609,0.82877,0.00147201,0.013688,762,1471,-14.7602,-24.0969
-455,-447,-14.8282,24.8699,0.00182064,0.00229564,0.00142554,0.00350333,0.000612959,0.867941,0.00216041,0.0257302,769,1471,-14.8282,-24.8698
-448,-447,-14.8271,25.655,0,0,0,0,0,0,0,-1,776,1471,-14.8272,-25.655
-441,-447,-8.68506,19.0931,0,0,0,0,0,0,0,-1,783,1471,-8.68504,-19.0932
-434,-447,-7.43402,15.6273,0,0,0,0,0,0,0,-1,790,1471,-7.43404,-15.6274
-427,-447,-7.21832,14.691,0,0,0,0,0,0,0,-1,797,1471,-7.21834,-14.6911
-420,-447,-8.0545,12.8055,0,0,0,0,0,0,0,-1,804,1471,-8.05452,-12.8055
-413,-447,-4.27393,6.59705,0,0,0,0,0,0,0,-1,811,1471,-4.27392,-6.59707
-406,-447,-1.04279,6.18591,0,0,0,0,0,0,0,-1,818,1471,-1.04276,-6.18586
-399,-447,0.0134888,0.687622,0,0,0,0,0,0,0,-1,825,1471,0.0134841,-0.68767
-392,-447,-14.0646,3.76147,0,0,0,0,0,0,0,-1,832,1471,-14.0646,-3.7615
-385,-447,-15.1695,2.61865,0,0,0,0,0,0,0,-1,839,1471,-15.1695,-2.61871
-378,-447,-15.9424,1.49316,0,0,0,0,0,0,0,-1,846,1471,-15.9424,-1.49313
-371,-447,-17.3655,0.73291,0,0,0,0,0,0,0,-1,853,1471,-17.3655,-0.732946
-364,-447,0,0,0,0,0,0,0,0,0,-1,860,1471,0,0
-357,-447,0,0,0,0,0,0,0,0,0,-1,867,1471,0,0
-350,-447,0,0,0,0,0,0,0,0,0,-1,874,1471,0,0
-343,-447,0,0,0,0,0,0,0,0,0,-1,881,1471,0,0
-336,-447,0,0,0,0,0,0,0,0,0,-1,888,1471,0,0
-329,-447,0,0,0,0,0,0,0,0,0,-1,895,1471,0,0
-322,-447,0,0,0,0,0,0,0,0,0,-1,902,1471,0,0
-315,-447,0,0,0,0,0,0,0,0,0,-1,909,1471,0,0
-308,-447,0,0,0,0,0,0,0,0,0,-1,916,1471,0,0
-301,-447,0,0,0,0,0,0,0,0,0,-1,923,1471,0,0
-294,-447,0,0,0,0,0,0,0,0,0,-1,930,1471,0,0
-287,-447,0,0,0,0,0,0,0,0,0,-1,937,1471,0,0
-280,-447,0,0,0,0,0,0,0,0,0,-1,944,1471,0,0
-273,-447,0,0,0,0,0,0,0,0,0,-1,951,1471,0,0
-266,-447,0,0,0,0,0,0,0,0,0,-1,958,1471,0,0
-259,-447,0,0,0,0,0,0,0,0,0,-1,965,1471,0,0
-252,-447,0,0,0,0,0,0,0,0,0,-1,972,1471,0,0
-245,-447,0,0,0,0,0,0,0,0,0,-1,979,1471,0,0
-238,-447,0,0,0,0,0,0,0,0,0,-1,986,1471,0,0
-231,-447,0,0,0,0,0,0,0,0,0,-1,993,1471,0,0
-224,-447,0,0,0,0,0,0,0,0,0,-1,1000,1471,0,0
-217,-447,0,0,0,0,0,0,0,0,0,-1,1007,1471,0,0
-210,-447,0,0,0,0,0,0,0,0,0,-1,1014,1471,0,0
-203,-447,0,0,0,0,0,0,0,0,0,-1,1021,1471,0,0
-196,-447,0,0,0,0,0,0,0,0,0,-1,1028,1471,0,0
-189,-447,0,0,0,0,0,0,0,0,0,-1,1035,1471,0,0
-182,-447,0,0,0,0,0,0,0,0,0,-1,1042,1471,0,0
-175,-447,0,0,0,0,0,0,0,0,0,-1,1049,1471,0,0
-168,-447,0,0,0,0,0,0,0,0,0,-1,1056,1471,0,0
-161,-447,0,0,0,0,0,0,0,0,0,-1,1063,1471,0,0
-154,-447,0,0,0,0,0,0,0,0,0,-1,1070,1471,0,0
-147,-447,0,0,0,0,0,0,0,0,0,-1,1077,1471,0,0
-140,-447,0,0,0,0,0,0,0,0,0,-1,1084,1471,0,0
-133,-447,0,0,0,0,0,0,0,0,0,-1,1091,1471,0,0
-126,-447,0,0,0,0,0,0,0,0,0,-1,1098,1471,0,0
-119,-447,0,0,0,0,0,0,0,0,0,-1,1105,1471,0,0
-112,-447,0,0,0,0,0,0,0,0,0,-1,1112,1471,0,0
-105,-447,0,0,0,0,0,0,0,0,0,-1,1119,1471,0,0
-98,-447,0,0,0,0,0,0,0,0,0,-1,1126,1471,0,0
-91,-447,0,0,0,0,0,0,0,0,0,-1,1133,1471,0,0
-84,-447,0,0,0,0,0,0,0,0,0,-1,1140,1471,0,0
-77,-447,0,0,0,0,0,0,0,0,0,-1,1147,1471,0,0
-70,-447,0,0,0,0,0,0,0,0,0,-1,1154,1471,0,0
-63,-447,0,0,0,0,0,0,0,0,0,-1,1161,1471,0,0
-56,-447,0,0,0,0,0,0,0,0,0,-1,1168,1471,0,0
-49,-447,0,0,0,0,0,0,0,0,0,-1,1175,1471,0,0
-42,-447,0,0,0,0,0,0,0,0,0,-1,1182,1471,0,0
-35,-447,0,0,0,0,0,0,0,0,0,-1,1189,1471,0,0
-28,-447,0,0,0,0,0,0,0,0,0,-1,1196,1471,0,0
-21,-447,0,0,0,0,0,0,0,0,0,-1,1203,1471,0,0
-14,-447,0,0,0,0,0,0,0,0,0,-1,1210,1471,0,0
-7,-447,0,0,0,0,0,0,0,0,0,-1,1217,1471,0,0
0,-447,0,0,0,0,0,0,0,0,0,-1,1224,1471,0,0
7,-447,0,0,0,0,0,0,0,0,0,-1,1231,1471,0,0
14,-447,0,0,0,0,0,0,0,0,0,-1,1238,1471,0,0
21,-447,0,0,0,0,0,0,0,0,0,-1,1245,1471,0,0
28,-447,0,0,0,0,0,0,0,0,0,-1,1252,1471,0,0
35,-447,0,0,0,0,0,0,0,0,0,-1,1259,1471,0,0
42,-447,0,0,0,0,0,0,0,0,0,-1,1266,1471,0,0
49,-447,0,0,0,0,0,0,0,0,0,-1,1273,1471,0,0
56,-447,0,0,0,0,0,0,0,0,0,-1,1280,1471,0,0
63,-447,0,0,0,0,0,0,0,0,0,-1,1287,1471,0,0
70,-447,0,0,0,0,0,0,0,0,0,-1,1294,1471,0,0
77,-447,0,0,0,0,0,0,0,0,0,-1,1301,1471,0,0
84,-447,0,0,0,0,0,0,0,0,0,-1,1308,1471,0,0
91,-447,0,0,0,0,0,0,0,0,0,-1,1315,1471,0,0
98,-447,0,0,0,0,0,0,0,0,0,-1,1322,1471,0,0
105,-447,0,0,0,0,0,0,0,0,0,-1,1329,1471,0,0
112,-447,0,0,0,0,0,0,0,0,0,-1,1336,1471,0,0
119,-447,0,0,0,0,0,0,0,0,0,-1,1343,1471,0,0
126,-447,0,0,0,0,0,0,0,0,0,-1,1350,1471,0,0
133,-447,0,0,0,0,0,0,0,0,0,-1,1357,1471,0,0
140,-447,0,0,0,0,0,0,0,0,0,-1,1364,1471,0,0
147,-447,0,0,0,0,0,0,0,0,0,-1,1371,1471,0,0
154,-447,0,0,0,0,0,0,0,0,0,-1,1378,1471,0,0
161,-447,0,0,0,0,0,0,0,0,0,-1,1385,1471,0,0
168,-447,0,0,0,0,0,0,0,0,0,-1,1392,1471,0,0
175,-447,0,0,0,0,0,0,0,0,0,-1,1399,1471,0,0
182,-447,0,0,0,0,0,0,0,0,0,-1,1406,1471,0,0
189,-447,0,0,0,0,0,0,0,0,0,-1,1413,1471,0,0
196,-447,0,0,0,0,0,0,0,0,0,-1,1420,1471,0,0
203,-447,0,0,0,0,0,0,0,0,0,-1,1427,1471,0,0
210,-447,0,0,0,0,0,0,0,0,0,-1,1434,1471,0,0
217,-447,0,0,0,0,0,0,0,0,0,-1,1441,1471,0,0
224,-447,0,0,0,0,0,0,0,0,0,-1,1448,1471,0,0
231,-447,0,0,0,0,0,0,0,0,0,-1,1455,1471,0,0
238,-447,0,0,0,0,0,0,0,0,0,-1,1462,1471,0,0
245,-447,0,0,0,0,0,0,0,0,0,-1,1469,1471,0,0
252,-447,0,0,0,0,0,0,0,0,0,-1,1476,1471,0,0
259,-447,0,0,0,0,0,0,0,0,0,-1,1483,1471,0,0
266,-447,0,0,0,0,0,0,0,0,0,-1,1490,1471,0,0
273,-447,0,0,0,0,0,0,0,0,0,-1,1497,1471,0,0
280,-447,0,0,0,0,0,0,0,0,0,-1,1504,1471,0,0
287,-447,0,0,0,0,0,0,0,0,0,-1,1511,1471,0,0
294,-447,0,0,0,0,0,0,0,0,0,-1,1518,1471,0,0
301,-447,0,0,0,0,0,0,0,0,0,-1,1525,1471,0,0
308,-447,0,0,0,0,0,0,0,0,0,-1,1532,1471,0,0
315,-447,0,0,0,0,0,0,0,0,0,-1,1539,1471,0,0
322,-447,0,0,0,0,0,0,0,0,0,-1,1546,1471,0,0
329,-447,0,0,0,0,0,0,0,0,0,-1,1553,1471,0,0
336,-447,0,0,0,0,0,0,0,0,0,-1,1560,1471,0,0
343,-447,0,0,0,0,0,0,0,0,0,-1,1567,1471,0,0
350,-447,0,0,0,0,0,0,0,0,0,-1,1574,1471,0,0
357,-447,0,0,0,0,0,0,0,0,0,-1,1581,1471,0,0
364,-447,0,0,0,0,0,0,0,0,0,-1,1588,1471,0,0
371,-447,0,0,0,0,0,0,0,0,0,-1,1595,1471,0,0
378,-447,0,0,0,0,0,0,0,0,0,-1,1602,1471,0,0
385,-447,0,0,0,0,0,0,0,0,0,-1,1609,1471,0,0
392,-447,0,0,0,0,0,0,0,0,0,-1,1616,1471,0,0
399,-447,0,0,0,0,0,0,0,0,0,-1,1623,1471,0,0
406,-447,0,0,0,0,0,0,0,0,0,-1,1630,1471,0,0
413,-447,0,0,0,0,0,0,0,0,0,-1,1637,1471,0,0
420,-447,0,0,0,0,0,0,0,0,0,-1,1644,1471,0,0
427,-447,0,0,0,0,0,0,0,0,0,-1,1651,1471,0,0
434,-447,0,0,0,0,0,0,0,0,0,-1,1658,1471,0,0
441,-447,0,0,0,0,0,0,0,0,0,-1,1665,1471,0,0
448,-447,0,0,0,0,0,0,0,0,0,-1,1672,1471,0,0
455,-447,0,0,0,0,0,0,0,0,0,-1,1679,1471,0,0
462,-447,0,0,0,0,0,0,0,0,0,-1,1686,1471,0,0
469,-447,0,0,0,0,0,0,0,0,0,-1,1693,1471,0,0
476,-447,0,0,0,0,0,0,0,0,0,-1,1700,1471,0,0
483,-447,0,0,0,0,0,0,0,0,0,-1,1707,1471,0,0
490,-447,18.2214,-0.810303,0,0,0,0,0,0,0,-1,1714,1471,18.2215,0.810307
497,-447,17.0237,0.352417,0,0,0,0,0,0,0,-1,1721,1471,17.0237,-0.352442
504,-447,15.8998,1.53479,0,0,0,0,0,0,0,-1,1728,1471,15.8997,-1.53478
511,-447,14.7201,2.76111,0,0,0,0,0,0,0,-1,1735,1471,14.7201,-2.76107
518,-447,17.7618,13.2864,0,0,0,0,0,0,0,-1,1742,1471,17.7619,-13.2863
525,-447,17.1191,11.9014,0,0,0,0,0,0,0,-1,1749,1471,17.1191,-11.9013
532,-447,16.3959,10.0455,0,0,0,0,0,0,0,-1,1756,1471,16.3959,-10.0456
539,-447,14.1699,10.0204,0,0,0,0,0,0,0,-1,1763,1471,14.1699,-10.0204
546,-447,16.3715,11.8046,0,0,0,0,0,0,0,-1,1770,1471,16.3714,-11.8046
553,-447,17.5106,13.4012,0,0,0,0,0,0,0,-1,1777,1471,17.5107,-13.4012
560,-447,17.0187,13.168,0,0,0,0,0,0,0,-1,1784,1471,17.0187,-13.168
567,-447,18.9286,15.1703,0,0,0,0,0,0,0,-1,1791,1471,18.9286,-15.1703
574,-447,31.6604,27.1716,0,0,0,0,0,0,0,-1,1798,1471,31.6604,-27.1716
581,-447,32.0122,26.2159,0,0,0,0,0,0,0,-1,1805,1471,32.0122,-26.2159
588,-447,32.2039,25.4124,0.0054057,0.00148875,-0.00200909,0.00625294,0.000641506,-0.399076,0.0039721,0.0373149,1812,1471,32.2039,-25.4124
595,-447,32.2081,24.6361,0.00416971,0.0013684,-0.00176992,0.00502615,0.000511971,-0.450671,0.00319382,0.0140663,1819,1471,32.2082,-24.6361
602,-447,32.1819,23.8894,0.00333502,0.00103375,-0.00142674,0.00401728,0.000351479,-0.446058,0.00256906,0.0120957,1826,1471,32.1819,-23.8894
609,-447,32.1687,23.1642,0.00270624,0.000740701,-0.00110342,0.00320109,0.00024585,-0.421582,0.00205702,0.0131811,1833,1471,32.1687,-23.1642
616,-447,32.1427,22.4292,0.00223631,0.000575477,-0.000884495,0.00261913,0.000192666,-0.40846,0.00168554,0.0148526,1840,1471,32.1427,-22.4292
623,-447,32.0995,21.7119,0.00209277,0.000368052,-0.000710718,0.0023479,0.000112922,-0.344649,0.00152902,0.0161107,1847,1471,32.0995,-21.712
630,-447,32.0292,20.963,0.00217254,0.000185561,-0.000595107,0.00233714,2.09594e-05,-0.269845,0.00155115,0.0099843,1854,1471,32.0291,-20.963
637,-447,32.0229,20.2179,0.00243019,0.000167587,-0.000584721,0.00257237,2.54126e-05,-0.238521,0.0017065,0.0108774,1861,1471,32.0229,-20.2179
644,-447,32.0172,19.4962,0.00291217,0.000361395,-0.000691103,0.00308738,0.000186184,-0.248292,0.00199909,0.0123794,1868,1471,32.0172,-19.4962
651,-447,32.0331,18.6805,0,0,0,0,0,0,0,-1,1875,1471,32.033,-18.6806
658,-447,30.2566,16.5862,0,0,0,0,0,0,0,-1,1882,1471,30.2566,-16.5862
665,-447,18.4946,9.79919,0,0,0,0,0,0,0,-1,1889,1471,18.4946,-9.79922
672,-447,18.9784,9.66077,0,0,0,0,0,0,0,-1,1896,1471,18.9784,-9.66081
679,-447,14.844,7.4248,0,0,0,0,0,0,0,-1,1903,1471,14.844,-7.42477
686,-447,9.81079,4.30859,0,0,0,0,0,0,0,-1,1910,1471,9.8108,-4.30864
693,-447,10.48,2.08643,0,0,0,0,0,0,0,-1,1917,1471,10.48,-2.08642
700,-447,0,0,0,0,0,0,0,0,0,-1,1924,1471,0,0
707,-447,0,0,0,0,0,0,0,0,0,-1,1931,1471,0,0
714,-447,0,0,0,0,0,0,0,0,0,-1,1938,1471,0,0
721,-447,0,0,0,0,0,0,0,0,0,-1,1945,1471,0,0
728,-447,0,0,0,0,0,0,0,0,0,-1,1952,1471,0,0
735,-447,0,0,0,0,0,0,0,0,0,-1,1959,1471,0,0
742,-447,0,0,0,0,0,0,0,0,0,-1,1966,1471,0,0
749,-447,0,0,0,0,0,0,0,0,0,-1,1973,1471,0,0
756,-447,0,0,0,0,0,0,0,0,0,-1,1980,1471,0,0
763,-447,0,0,0,0,0,0,0,0,0,-1,1987,1471,0,0
770,-447,0,0,0,0,0,0,0,0,0,-1,1994,1471,0,0
777,-447,0,0,0,0,0,0,0,0,0,-1,2001,1471,0,0
784,-447,0,0,0,0,0,0,0,0,0,-1,2008,1471,0,0
791,-447,0,0,0,0,0,0,0,0,0,-1,2015,1471,0,0
798,-447,0,0,0,0,0,0,0,0,0,-1,2022,1471,0,0
805,-447,0,0,0,0,0,0,0,0,0,-1,2029,1471,0,0
812,-447,0,0,0,0,0,0,0,0,0,-1,2036,1471,0,0
-700,-454,0,0,0,0,0,0,0,0,0,-1,524,1478,0,0
-693,-454,0,0,0,0,0,0,0,0,0,-1,531,1478,0,0
-686,-454,0,0,0,0,0,0,0,0,0,-1,538,1478,0,0
-679,-454,0,0,0,0,0,0,0,0,0,-1,545,1478,0,0
-672,-454,0,0,0,0,0,0,0,0,0,-1,552,1478,0,0
-665,-454,0,0,0,0,0,0,0,0,0,-1,559,1478,0,0
-658,-454,0,0,0,0,0,0,0,0,0,-1,566,1478,0,0
-651,-454,0,0,0,0,0,0,0,0,0,-1,573,1478,0,0
-644,-454,0,0,0,0,0,0,0,0,0,-1,580,1478,0,0
-637,-454,0,0,0,0,0,0,0,0,0,-1,587,1478,0,0
-630,-454,0,0,0,0,0,0,0,0,0,-1,594,1478,0,0
-623,-454,0,0,0,0,0,0,0,0,0,-1,601,1478,0,0
-616,-454,0,0,0,0,0,0,0,0,0,-1,608,1478,0,0
-609,-454,0,0,0,0,0,0,0,0,0,-1,615,1478,0,0
-602,-454,0,0,0,0,0,0,0,0,0,-1,622,1478,0,0
-595,-454,0,0,0,0,0,0,0,0,0,-1,629,1478,0,0
-588,-454,0,0,0,0,0,0,0,0,0,-1,636,1478,0,0
-581,-454,0,0,0,0,0,0,0,0,0,-1,643,1478,0,0
-574,-454,-8.4881,-0.465942,0,0,0,0,0,0,0,-1,650,1478,-8.4881,0.465885
-567,-454,-8.10046,0.922974,0,0,0,0,0,0,0,-1,657,1478,-8.10047,-0.923034
-560,-454,-10.656,3.51172,0,0,0,0,0,0,0,-1,664,1478,-10.656,-3.51176
-553,-454,-9.01129,3.95251,0,0,0,0,0,0,0,-1,671,1478,-9.0113,-3.95256
-546,-454,-9.61896,6.05237,0,0,0,0,0,0,0,-1,678,1478,-9.61897,-6.05239
-539,-454,-7.72589,4.96533,0,0,0,0,0,0,0,-1,685,1478,-7.72592,-4.96532
-532,-454,-7.03931,7.59985,0,0,0,0,0,0,0,-1,692,1478,-7.03929,-7.59981
-525,-454,-5.78723,9.677,0,0,0,0,0,0,0,-1,699,1478,-5.78722,-9.67703
-518,-454,-9.82098,13.8295,0,0,0,0,0,0,0,-1,706,1478,-9.82098,-13.8295
-511,-454,-13.853,18.6014,0,0,0,0,0,0,0,-1,713,1478,-13.853,-18.6015
-504,-454,-13.7846,19.5228,0.00314081,0.00450083,0.00454669,0.00841808,-0.000776439,0.859629,0.00588795,0.0210427,720,1478,-13.7846,-19.5228
-497,-454,-13.8432,20.3372,0.0025297,0.00325757,0.00332249,0.006236,-0.000448727,0.839949,0.00431469,0.0194878,727,1478,-13.8432,-20.3372
-490,-454,-13.8522,21.087,0.0020111,0.00231697,0.00233494,0.00450398,-0.000175902,0.818101,0.00306297,0.0186715,734,1478,-13.8522,-21.087
-483,-454,-13.8926,21.8475,0.00164291,0.00163527,0.00159214,0.00323123,4.69503e-05,0.784198,0.00213867,0.0170613,741,1478,-13.8926,-21.8475
-476,-454,-13.9648,22.5684,0.00143643,0.00129912,0.00116592,0.00253572,0.000199828,0.755989,0.00162796,0.0136635,748,1478,-13.9649,-22.5684
-469,-454,-13.9717,23.3561,0.00138604,0.00130105,0.000988324,0.00233278,0.00035431,0.763914,0.00145157,0.0102683,755,1478,-13.9717,-23.3561
-462,-454,-14.0176,24.1497,0.00156823,0.00161979,0.00111368,0.00270799,0.000480026,0.796971,0.00166849,0.0107411,762,1478,-14.0176,-24.1497
-455,-454,-14.0538,24.9005,0.00201727,0.0022896,0.00159675,0.00375598,0.000550891,0.827933,0.00234206,0.0118561,769,1478,-14.0538,-24.9005
-448,-454,-14.0492,25.6885,0.00292798,0.00361328,0.00271025,0.00600245,0.000538801,0.848278,0.00383467,0.0273341,776,1478,-14.0492,-25.6885
-441,-454,-13.8936,26.6274,0,0,0,0,0,0,0,-1,783,1478,-13.8936,-26.6275
-434,-454,-7.55743,19.4857,0,0,0,0,0,0,0,-1,790,1478,-7.55746,-19.4858
-427,-454,-6.00183,15.8636,0,0,0,0,0,0,0,-1,797,1478,-6.00184,-15.8637
-420,-454,-6.28088,15.2135,0,0,0,0,0,0,0,-1,804,1478,-6.28087,-15.2135
-413,-454,-5.4408,13.674,0,0,0,0,0,0,0,-1,811,1478,-5.44079,-13.6739
-406,-454,-2.38208,10.0308,0,0,0,0,0,0,0,-1,818,1478,-2.38209,-10.0308
-399,-454,-1.21033,6.95447,0,0,0,0,0,0,0,-1,825,1478,-1.21035,-6.95452
-392,-454,0.0967407,0.985474,0,0,0,0,0,0,0,-1,832,1478,0.0967364,-0.985529
-385,-454,2.38629,3.297,0,0,0,0,0,0,0,-1,839,1478,2.38629,-3.29702
-378,-454,-15.9756,2.83997,0,0,0,0,0,0,0,-1,846,1478,-15.9756,-2.83994
-371,-454,-17.2753,2.01453,0,0,0,0,0,0,0,-1,853,1478,-17.2753,-2.01455
-364,-454,1.08124,0.819458,0,0,0,0,0,0,0,-1,860,1478,1.08124,-0.819513
-357,-454,0,0,0,0,0,0,0,0,0,-1,867,1478,0,0
-350,-454,0,0,0,0,0,0,0,0,0,-1,874,1478,0,0
-343,-454,0,0,0,0,0,0,0,0,0,-1,881,1478,0,0
-336,-454,0,0,0,0,0,0,0,0,0,-1,888,1478,0,0
-329,-454,0,0,0,0,0,0,0,0,0,-1,895,1478,0,0
-322,-454,0,0,0,0,0,0,0,0,0,-1,902,1478,0,0
-315,-454,0,0,0,0,0,0,0,0,0,-1,909,1478,0,0
-308,-454,0,0,0,0,0,0,0,0,0,-1,916,1478,0,0
-301,-454,0,0,0,0,0,0,0,0,0,-1,923,1478,0,0
-294,-454,0,0,0,0,0,0,0,0,0,-1,930,1478,0,0
-287,-454,0,0,0,0,0,0,0,0,0,-1,937,1478,0,0
-280,-454,0,0,0,0,0,0,0,0,0,-1,944,1478,0,0
-273,-454,0,0,0,0,0,0,0,0,0,-1,951,1478,0,0
-266,-454,0,0,0,0,0,0,0,0,0,-1,958,1478,0,0
-259,-454,0,0,0,0,0,0,0,0,0,-1,965,1478,0,0
-252,-454,0,0,0,0,0,0,0,0,0,-1,972,1478,0,0
-245,-454,0,0,0,0,0,0,0,0,0,-1,979,1478,0,0
-238,-454,0,0,0,0,0,0,0,0,0,-1,986,1478,0,0
-231,-454,0,0,0,0,0,0,0,0,0,-1,993,1478,0,0
-224,-454,0,0,0,0,0,0,0,0,0,-1,1000,1478,0,0
-217,-454,0,0,0,0,0,0,0,0,0,-1,1007,1478,0,0
-210,-454,0,0,0,0,0,0,0,0,0,-1,1014,1478,0,0
-203,-454,0,0,0,0,0,0,0,0,0,-1,1021,1478,0,0
-196,-454,0,0,0,0,0,0,0,0,0,-1,1028,1478,0,0
-189,-454,0,0,0,0,0,0,0,0,0,-1,1035,1478,0,0
-182,-454,0,0,0,0,0,0,0,0,0,-1,1042,1478,0,0
-175,-454,0,0,0,0,0,0,0,0,0,-1,1049,1478,0,0
-168,-454,0,0,0,0,0,0,0,0,0,-1,1056,1478,0,0
-161,-454,0,0,0,0,0,0,0,0,0,-1,1063,1478,0,0
-154,-454,0,0,0,0,0,0,0,0,0,-1,1070,1478,0,0
-147,-454,0,0,0,0,0,0,0,0,0,-1,1077,1478,0,0
-140,-454,0,0,0,0,0,0,0,0,0,-1,1084,1478,0,0
-133,-454,0,0,0,0,0,0,0,0,0,-1,1091,1478,0,0
-126,-454,0,0,0,0,0,0,0,0,0,-1,1098,1478,0,0
-119,-454,0,0,0,0,0,0,0,0,0,-1,1105,1478,0,0
-112,-454,0,0,0,0,0,0,0,0,0,-1,1112,1478,0,0
-105,-454,0,0,0,0,0,0,0,0,0,-1,1119,1478,0,0
-98,-454,0,0,0,0,0,0,0,0,0,-1,1126,1478,0,0
-91,-454,0,0,0,0,0,0,0,0,0,-1,1133,1478,0,0
-84,-454,0,0,0,0,0,0,0,0,0,-1,1140,1478,0,0
-77,-454,0,0,0,0,0,0,0,0,0,-1,1147,1478,0,0
-70,-454,0,0,0,0,0,0,0,0,0,-1,1154,1478,0,0
-63,-454,0,0,0,0,0,0,0,0,0,-1,1161,1478,0,0
-56,-454,0,0,0,0,0,0,0,0,0,-1,1168,1478,0,0
-49,-454,0,0,0,0,0,0,0,0,0,-1,1175,1478,0,0
-42,-454,0,0,0,0,0,0,0,0,0,-1,1182,1478,0,0
-35,-454,0,0,0,0,0,0,0,0,0,-1,1189,1478,0,0
-28,-454,0,0,0,0,0,0,0,0,0,-1,1196,1478,0,0
-21,-454,0,0,0,0,0,0,0,0,0,-1,1203,1478,0,0
-14,-454,0,0,0,0,0,0,0,0,0,-1,1210,1478,0,0
-7,-454,0,0,0,0,0,0,0,0,0,-1,1217,1478,0,0
0,-454,0,0,0,0,0,0,0,0,0,-1,1224,1478,0,0
7,-454,0,0,0,0,0,0,0,0,0,-1,1231,1478,0,0
14,-454,0,0,0,0,0,0,0,0,0,-1,1238,1478,0,0
21,-454,0,0,0,0,0,0,0,0,0,-1,1245,1478,0,0
28,-454,0,0,0,0,0,0,0,0,0,-1,1252,1478,0,0
35,-454,0,0,0,0,0,0,0,0,0,-1,1259,1478,0,0
42,-454,0,0,0,0,0,0,0,0,0,-1,1266,1478,0,0
49,-454,0,0,0,0,0,0,0,0,0,-1,1273,1478,0,0
56,-454,0,0,0,0,0,0,0,0,0,-1,1280,1478,0,0
63,-454,0,0,0,0,0,0,0,0,0,-1,1287,1478,0,0
70,-454,0,0,0,0,0,0,0,0,0,-1,1294,1478,0,0
77,-454,0,0,0,0,0,0,0,0,0,-1,1301,1478,0,0
84,-454,0,0,0,0,0,0,0,0,0,-1,1308,1478,0,0
91,-454,0,0,0,0,0,0,0,0,0,-1,1315,1478,0,0
98,-454,0,0,0,0,0,0,0,0,0,-1,1322,1478,0,0
105,-454,0,0,0,0,0,0,0,0,0,-1,1329,1478,0,0
112,-454,0,0,0,0,0,0,0,0,0,-1,1336,1478,0,0
119,-454,0,0,0,0,0,0,0,0,0,-1,1343,1478,0,0
126,-454,0,0,0,0,0,0,0,0,0,-1,1350,1478,0,0
133,-454,0,0,0,0,0,0,0,0,0,-1,1357,1478,0,0
140,-454,0,0,0,0,0,0,0,0,0,-1,1364,1478,0,0
147,-454,0,0,0,0,0,0,0,0,0,-1,1371,1478,0,0
154,-454,0,0,0,0,0,0,0,0,0,-1,1378,1478,0,0
161,-454,0,0,0,0,0,0,0,0,0,-1,1385,1478,0,0
168,-454,0,0,0,0,0,0,0,0,0,-1,1392,1478,0,0
175,-454,0,0,0,0,0,0,0,0,0,-1,1399,1478,0,0
182,-454,0,0,0,0,0,0,0,0,0,-1,1406,1478,0,0
189,-454,0,0,0,0,0,0,0,0,0,-1,1413,1478,0,0
196,-454,0,0,0,0,0,0,0,0,0,-1,1420,1478,0,0
203,-454,0,0,0,0,0,0,0,0,0,-1,1427,1478,0,0
210,-454,0,0,0,0,0,0,0,0,0,-1,1434,1478,0,0
217,-454,0,0,0,0,0,0,0,0,0,-1,1441,1478,0,0
224,-454,0,0,0,0,0,0,0,0,0,-1,1448,1478,0,0
231,-454,0,0,0,0,0,0,0,0,0,-1,1455,1478,0,0
238,-454,0,0,0,0,0,0,0,0,0,-1,1462,1478,0,0
245,-454,0,0,0,0,0,0,0,0,0,-1,1469,1478,0,0
252,-454,0,0,0,0,0,0,0,0,0,-1,1476,1478,0,0
259,-454,0,0,0,0,0,0,0,0,0,-1,1483,1478,0,0
266,-454,0,0,0,0,0,0,0,0,0,-1,1490,1478,0,0
273,-454,0,0,0,0,0,0,0,0,0,-1,1497,1478,0,0
280,-454,0,0,0,0,0,0,0,0,0,-1,1504,1478,0,0
287,-454,0,0,0,0,0,0,0,0,0,-1,1511,1478,0,0
294,-454,0,0,0,0,0,0,0,0,0,-1,1518,1478,0,0
301,-454,0,0,0,0,0,0,0,0,0,-1,1525,1478,0,0
308,-454,0,0,0,0,0,0,0,0,0,-1,1532,1478,0,0
315,-454,0,0,0,0,0,0,0,0,0,-1,1539,1478,0,0
322,-454,0,0,0,0,0,0,0,0,0,-1,1546,1478,0,0
329,-454,0,0,0,0,0,0,0,0,0,-1,1553,1478,0,0
336,-454,0,0,0,0,0,0,0,0,0,-1,1560,1478,0,0
343,-454,0,0,0,0,0,0,0,0,0,-1,1567,1478,0,0
350,-454,0,0,0,0,0,0,0,0,0,-1,1574,1478,0,0
357,-454,0,0,0,0,0,0,0,0,0,-1,1581,1478,0,0
364,-454,0,0,0,0,0,0,0,0,0,-1,1588,1478,0,0
371,-454,0,0,0,0,0,0,0,0,0,-1,1595,1478,0,0
378,-454,0,0,0,0,0,0,0,0,0,-1,1602,1478,0,0
385,-454,0,0,0,0,0,0,0,0,0,-1,1609,1478,0,0
392,-454,0,0,0,0,0,0,0,0,0,-1,1616,1478,0,0
399,-454,0,0,0,0,0,0,0,0,0,-1,1623,1478,0,0
406,-454,0,0,0,0,0,0,0,0,0,-1,1630,1478,0,0
413,-454,0,0,0,0,0,0,0,0,0,-1,1637,1478,0,0
420,-454,0,0,0,0,0,0,0,0,0,-1,1644,1478,0,0
427,-454,0,0,0,0,0,0,0,0,0,-1,1651,1478,0,0
434,-454,0,0,0,0,0,0,0,0,0,-1,1658,1478,0,0
441,-454,0,0,0,0,0,0,0,0,0,-1,1665,1478,0,0
448,-454,0,0,0,0,0,0,0,0,0,-1,1672,1478,0,0
455,-454,0,0,0,0,0,0,0,0,0,-1,1679,1478,0,0
462,-454,0,0,0,0,0,0,0,0,0,-1,1686,1478,0,0
469,-454,0,0,0,0,0,0,0,0,0,-1,1693,1478,0,0
476,-454,0,0,0,0,0,0,0,0,0,-1,1700,1478,0,0
483,-454,14.2399,3.97498,0,0,0,0,0,0,0,-1,1707,1478,14.2399,-3.97502
490,-454,18.1821,-0.175781,0,0,0,0,0,0,0,-1,1714,1478,18.1821,0.175822
497,-454,16.8854,1.01208,0,0,0,0,0,0,0,-1,1721,1478,16.8854,-1.01209
504,-454,15.587,2.05994,0,0,0,0,0,0,0,-1,1728,1478,15.5871,-2.05998
511,-454,17.0273,14.5258,0,0,0,0,0,0,0,-1,1735,1478,17.0273,-14.5258
518,-454,16.4158,13.1039,0,0,0,0,0,0,0,-1,1742,1478,16.4157,-13.1038
525,-454,15.7842,11.6628,0,0,0,0,0,0,0,-1,1749,1478,15.7841,-11.6629
532,-454,15.1094,10.2476,0,0,0,0,0,0,0,-1,1756,1478,15.1094,-10.2475
539,-454,13.7905,10.9373,0,0,0,0,0,0,0,-1,1763,1478,13.7906,-10.9372
546,-454,16.2002,13.2458,0,0,0,0,0,0,0,-1,1770,1478,16.2002,-13.2459
553,-454,15.6747,12.1868,0,0,0,0,0,0,0,-1,1777,1478,15.6747,-12.1868
560,-454,16.3895,14.0527,0,0,0,0,0,0,0,-1,1784,1478,16.3895,-14.0528
567,-454,31.6368,27.6045,0,0,0,0,0,0,0,-1,1791,1478,31.6368,-27.6045
574,-454,31.381,27.1305,0,0,0,0,0,0,0,-1,1798,1478,31.3809,-27.1305
581,-454,31.5044,26.1775,0.00600074,0.00130037,-0.00177601,0.00659633,0.000704777,-0.323566,0.00418247,0.0320694,1805,1478,31.5044,-26.1775
588,-454,31.5575,25.3882,0.0047238,0.00124639,-0.0016342,0.00537124,0.00059895,-0.377211,0.00339882,0.0142806,1812,1478,31.5574,-25.3881
595,-454,31.481,24.6744,0.00370135,0.00110089,-0.00142841,0.00433269,0.000469554,-0.41617,0.00274536,0.0118993,1819,1478,31.4809,-24.6745
602,-454,31.4518,23.9331,0.00298697,0.000824693,-0.00117176,0.00350016,0.000311501,-0.412801,0.00223685,0.00951741,1826,1478,31.4518,-23.9331
609,-454,31.451,23.2144,0.00247909,0.000601784,-0.000920705,0.00285527,0.000225612,-0.387872,0.00183294,0.0120504,1833,1478,31.4511,-23.2143
616,-454,31.4153,22.4857,0.00213077,0.000476732,-0.000744146,0.00241628,0.000191226,-0.36635,0.00155105,0.0149802,1840,1478,31.4153,-22.4857
623,-454,31.3774,21.7625,0.00208627,0.000259853,-0.000572517,0.0022509,9.52283e-05,-0.279992,0.00146988,0.0155353,1847,1478,31.3775,-21.7624
630,-454,31.3661,21.0426,0.00224403,4.59121e-05,-0.00041236,0.00231884,-2.88989e-05,-0.17947,0.00155562,0.0152575,1854,1478,31.3661,-21.0427
637,-454,31.2869,20.2983,0.0025811,-2.70324e-05,-0.000371061,0.00263287,-7.87961e-05,-0.138607,0.00178209,0.013283,1861,1478,31.2868,-20.2983
644,-454,31.3246,19.5371,0.00312149,0.000118393,-0.000530632,0.00321249,2.73907e-05,-0.169846,0.00213259,0.0258275,1868,1478,31.3245,-19.5372
651,-454,31.4011,18.741,0,0,0,0,0,0,0,-1,1875,1478,31.4012,-18.741
658,-454,17.2583,10.0765,0,0,0,0,0,0,0,-1,1882,1478,17.2583,-10.0765
665,-454,17.683,9.67566,0,0,0,0,0,0,0,-1,1889,1478,17.683,-9.67572
672,-454,16.5476,6.41931,0,0,0,0,0,0,0,-1,1896,1478,16.5476,-6.41929
679,-454,14.2161,5.45007,0,0,0,0,0,0,0,-1,1903,1478,14.2161,-5.45013
686,-454,10.3767,2.12842,0,0,0,0,0,0,0,-1,1910,1478,10.3767,-2.12839
693,-454,11.1857,1.48486,0,0,0,0,0,0,0,-1,1917,1478,11.1857,-1.48487
700,-454,0,0,0,0,0,0,0,0,0,-1,1924,1478,0,0
707,-454,0,0,0,0,0,0,0,0,0,-1,1931,1478,0,0
714,-454,0,0,0,0,0,0,0,0,0,-1,1938,1478,0,0
721,-454,0,0,0,0,0,0,0,0,0,-1,1945,1478,0,0
728,-454,0,0,0,0,0,0,0,0,0,-1,1952,1478,0,0
735,-454,0,0,0,0,0,0,0,0,0,-1,1959,1478,0,0
742,-454,0,0,0,0,0,0,0,0,0,-1,1966,1478,0,0
749,-454,0,0,0,0,0,0,0,0,0,-1,1973,1478,0,0
756,-454,0,0,0,0,0,0,0,0,0,-1,1980,1478,0,0
763,-454,0,0,0,0,0,0,0,0,0,-1,1987,1478,0,0
770,-454,0,0,0,0,0,0,0,0,0,-1,1994,1478,0,0
777,-454,0,0,0,0,0,0,0,0,0,-1,2001,1478,0,0
784,-454,0,0,0,0,0,0,0,0,0,-1,2008,1478,0,0
791,-454,0,0,0,0,0,0,0,0,0,-1,2015,1478,0,0
798,-454,0,0,0,0,0,0,0,0,0,-1,2022,1478,0,0
805,-454,0,0,0,0,0,0,0,0,0,-1,2029,1478,0,0
812,-454,0,0,0,0,0,0,0,0,0,-1,2036,1478,0,0
-700,-461,0,0,0,0,0,0,0,0,0,-1,524,1485,0,0
-693,-461,0,0,0,0,0,0,0,0,0,-1,531,1485,0,0
-686,-461,0,0,0,0,0,0,0,0,0,-1,538,1485,0,0
-679,-461,0,0,0,0,0,0,0,0,0,-1,545,1485,0,0
-672,-461,0,0,0,0,0,0,0,0,0,-1,552,1485,0,0
-665,-461,0,0,0,0,0,0,0,0,0,-1,559,1485,0,0
-658,-461,0,0,0,0,0,0,0,0,0,-1,566,1485,0,0
-651,-461,0,0,0,0,0,0,0,0,0,-1,573,1485,0,0
-644,-461,0,0,0,0,0,0,0,0,0,-1,580,1485,0,0
-637,-461,0,0,0,0,0,0,0,0,0,-1,587,1485,0,0
-630,-461,0,0,0,0,0,0,0,0,0,-1,594,1485,0,0
-623,-461,0,0,0,0,0,0,0,0,0,-1,601,1485,0,0
-616,-461,0,0,0,0,0,0,0,0,0,-1,608,1485,0,0
-609,-461,0,0,0,0,0,0,0,0,0,-1,615,1485,0,0
-602,-461,0,0,0,0,0,0,0,0,0,-1,622,1485,0,0
-595,-461,0,0,0,0,0,0,0,0,0,-1,629,1485,0,0
-588,-461,0,0,0,0,0,0,0,0,0,-1,636,1485,0,0
-581,-461,0,0,0,0,0,0,0,0,0,-1,643,1485,0,0
-574,-461,0,0,0,0,0,0,0,0,0,-1,650,1485,0,0
-567,-461,-9.69031,0.513306,0,0,0,0,0,0,0,-1,657,1485,-9.69032,-0.513305
-560,-461,-7.28815,1.54004,0,0,0,0,0,0,0,-1,664,1485,-7.28817,-1.54005
-553,-461,-11.9607,5.27783,0,0,0,0,0,0,0,-1,671,1485,-11.9607,-5.27778
-546,-461,-11.4215,4.44666,0,0,0,0,0,0,0,-1,678,1485,-11.4215,-4.4467
-539,-461,-9.36493,5.23438,0,0,0,0,0,0,0,-1,685,1485,-9.3649,-5.23432
-532,-461,-7.82898,6.78357,0,0,0,0,0,0,0,-1,692,1485,-7.829,-6.78363
-525,-461,-6.37878,8.75659,0,0,0,0,0,0,0,-1,699,1485,-6.3788,-8.75659
-518,-461,-6.49695,10.886,0,0,0,0,0,0,0,-1,706,1485,-6.49696,-10.8859
-511,-461,-13.3764,18.5995,0,0,0,0,0,0,0,-1,713,1485,-13.3764,-18.5994
-504,-461,-13.1321,19.4484,0.0038247,0.00539996,0.00556733,0.0102351,-0.00101044,0.855669,0.00718394,0.0435531,720,1485,-13.1321,-19.4484
-497,-461,-13.0525,20.3837,0.00301452,0.00386511,0.00402746,0.00748967,-0.000610037,0.838002,0.00520838,0.0122346,727,1485,-13.0525,-20.3837
-490,-461,-13.0852,21.1602,0.00233383,0.00273145,0.00283377,0.00537337,-0.000308098,0.820419,0.00368924,0.0136265,734,1485,-13.0852,-21.1602
-483,-461,-13.1349,21.9093,0.00180864,0.00186089,0.00190756,0.0037425,-7.29783e-05,0.792246,0.00251968,0.0128573,741,1485,-13.1349,-21.9093
-476,-461,-13.2083,22.6483,0.00151197,0.00138812,0.00136207,0.00281352,8.65629e-05,0.762681,0.0018475,0.0111283,748,1485,-13.2083,-22.6484
-469,-461,-13.2318,23.4065,0.00141348,0.00128822,0.00112119,0.00247379,0.000227911,0.757497,0.00157871,0.0127513,755,1485,-13.2317,-23.4065
-462,-461,-13.256,24.1696,0.00155469,0.00151146,0.00118945,0.00272272,0.000343432,0.776314,0.00171219,0.0184666,762,1485,-13.256,-24.1695
-455,-461,-13.2966,24.903,0.00194689,0.00207009,0.00160273,0.00361241,0.000404576,0.804605,0.00228538,0.0229964,769,1485,-13.2966,-24.903
-448,-461,-13.3201,25.6866,0.00274746,0.00324854,0.00256965,0.00557984,0.000416163,0.833994,0.00358922,0.0227021,776,1485,-13.3201,-25.6866
-441,-461,-13.3179,26.4825,0,0,0,0,0,0,0,-1,783,1485,-13.3179,-26.4826
-434,-461,-13.0813,27.5065,0,0,0,0,0,0,0,-1,790,1485,-13.0813,-27.5065
-427,-461,-8.26154,21.546,0,0,0,0,0,0,0,-1,797,1485,-8.26153,-21.5461
-420,-461,-5.70355,16.6116,0,0,0,0,0,0,0,-1,804,1485,-5.70353,-16.6115
-413,-461,-5.98798,16.0605,0,0,0,0,0,0,0,-1,811,1485,-5.98796,-16.0605
-406,-461,-5.52667,14.839,0,0,0,0,0,0,0,-1,818,1485,-5.52666,-14.839
-399,-461,-1.93439,9.82849,0,0,0,0,0,0,0,-1,825,1485,-1.9344,-9.82846
-392,-461,-0.357544,5.55225,0,0,0,0,0,0,0,-1,832,1485,-0.357536,-5.55228
-385,-461,1.71509,3.35254,0,0,0,0,0,0,0,-1,839,1485,1.71511,-3.35255
-378,-461,1.95996,3.01111,0,0,0,0,0,0,0,-1,846,1485,1.95993,-3.01111
-371,-461,0.702881,2.33459,0,0,0,0,0,0,0,-1,853,1485,0.702859,-2.33459
-364,-461,-1.93097,2.56458,0,0,0,0,0,0,0,-1,860,1485,-1.93095,-2.56456
-357,-461,-2.41516,3.49487,0,0,0,0,0,0,0,-1,867,1485,-2.41517,-3.49487
-350,-461,0,0,0,0,0,0,0,0,0,-1,874,1485,0,0
-343,-461,0,0,0,0,0,0,0,0,0,-1,881,1485,0,0
-336,-461,0,0,0,0,0,0,0,0,0,-1,888,1485,0,0
-329,-461,0,0,0,0,0,0,0,0,0,-1,895,1485,0,0
-322,-461,0,0,0,0,0,0,0,0,0,-1,902,1485,0,0
-315,-461,0,0,0,0,0,0,0,0,0,-1,909,1485,0,0
-308,-461,0,0,0,0,0,0,0,0,0,-1,916,1485,0,0
-301,-461,0,0,0,0,0,0,0,0,0,-1,923,1485,0,0
-294,-461,0,0,0,0,0,0,0,0,0,-1,930,1485,0,0
-287,-461,0,0,0,0,0,0,0,0,0,-1,937,1485,0,0
-280,-461,0,0,0,0,0,0,0,0,0,-1,944,1485,0,0
-273,-461,0,0,0,0,0,0,0,0,0,-1,951,1485,0,0
-266,-461,0,0,0,0,0,0,0,0,0,-1,958,1485,0,0
-259,-461,0,0,0,0,0,0,0,0,0,-1,965,1485,0,0
-252,-461,0,0,0,0,0,0,0,0,0,-1,972,1485,0,0
-245,-461,0,0,0,0,0,0,0,0,0,-1,979,1485,0,0
-238,-461,0,0,0,0,0,0,0,0,0,-1,986,1485,0,0
-231,-461,0,0,0,0,0,0,0,0,0,-1,993,1485,0,0
-224,-461,0,0,0,0,0,0,0,0,0,-1,1000,1485,0,0
-217,-461,0,0,0,0,0,0,0,0,0,-1,1007,1485,0,0
-210,-461,0,0,0,0,0,0,0,0,0,-1,1014,1485,0,0
-203,-461,0,0,0,0,0,0,0,0,0,-1,1021,1485,0,0
-196,-461,0,0,0,0,0,0,0,0,0,-1,1028,1485,0,0
-189,-461,0,0,0,0,0,0,0,0,0,-1,1035,1485,0,0
-182,-461,0,0,0,0,0,0,0,0,0,-1,1042,1485,0,0
-175,-461,0,0,0,0,0,0,0,0,0,-1,1049,1485,0,0
-168,-461,0,0,0,0,0,0,0,0,0,-1,1056,1485,0,0
-161,-461,0,0,0,0,0,0,0,0,0,-1,1063,1485,0,0
-154,-461,0,0,0,0,0,0,0,0,0,-1,1070,1485,0,0
-147,-461,0,0,0,0,0,0,0,0,0,-1,1077,1485,0,0
-140,-461,0,0,0,0,0,0,0,0,0,-1,1084,1485,0,0
-133,-461,0,0,0,0,0,0,0,0,0,-1,1091,1485,0,0
-126,-461,0,0,0,0,0,0,0,0,0,-1,1098,1485,0,0
-119,-461,0,0,0,0,0,0,0,0,0,-1,1105,1485,0,0
-112,-461,0,0,0,0,0,0,0,0,0,-1,1112,1485,0,0
-105,-461,0,0,0,0,0,0,0,0,0,-1,1119,1485,0,0
-98,-461,0,0,0,0,0,0,0,0,0,-1,1126,1485,0,0
-91,-461,0,0,0,0,0,0,0,0,0,-1,1133,1485,0,0
-84,-461,0,0,0,0,0,0,0,0,0,-1,1140,1485,0,0
-77,-461,0,0,0,0,0,0,0,0,0,-1,1147,1485,0,0
-70,-461,0,0,0,0,0,0,0,0,0,-1,1154,1485,0,0
-63,-461,0,0,0,0,0,0,0,0,0,-1,1161,1485,0,0
-56,-461,0,0,0,0,0,0,0,0,0,-1,1168,1485,0,0
-49,-461,0,0,0,0,0,0,0,0,0,-1,1175,1485,0,0
-42,-461,0,0,0,0,0,0,0,0,0,-1,1182,1485,0,0
-35,-461,0,0,0,0,0,0,0,0,0,-1,1189,1485,0,0
-28,-461,0,0,0,0,0,0,0,0,0,-1,1196,1485,0,0
-21,-461,0,0,0,0,0,0,0,0,0,-1,1203,1485,0,0
-14,-461,0,0,0,0,0,0,0,0,0,-1,1210,1485,0,0
-7,-461,0,0,0,0,0,0,0,0,0,-1,1217,1485,0,0
0,-461,0,0,0,0,0,0,0,0,0,-1,1224,1485,0,0
7,-461,0,0,0,0,0,0,0,0,0,-1,1231,1485,0,0
14,-461,0,0,0,0,0,0,0,0,0,-1,1238,1485,0,0
21,-461,0,0,0,0,0,0,0,0,0,-1,1245,1485,0,0
28,-461,0,0,0,0,0,0,0,0,0,-1,1252,1485,0,0
35,-461,0,0,0,0,0,0,0,0,0,-1,1259,1485,0,0
42,-461,0,0,0,0,0,0,0,0,0,-1,1266,1485,0,0
49,-461,0,0,0,0,0,0,0,0,0,-1,1273,1485,0,0
56,-461,0,0,0,0,0,0,0,0,0,-1,1280,1485,0,0
63,-461,0,0,0,0,0,0,0,0,0,-1,1287,1485,0,0
70,-461,0,0,0,0,0,0,0,0,0,-1,1294,1485,0,0
77,-461,0,0,0,0,0,0,0,0,0,-1,1301,1485,0,0
84,-461,0,0,0,0,0,0,0,0,0,-1,1308,1485,0,0
91,-461,0,0,0,0,0,0,0,0,0,-1,1315,1485,0,0
98,-461,0,0,0,0,0,0,0,0,0,-1,1322,1485,0,0
105,-461,0,0,0,0,0,0,0,0,0,-1,1329,1485,0,0
112,-461,0,0,0,0,0,0,0,0,0,-1,1336,1485,0,0
119,-461,0,0,0,0,0,0,0,0,0,-1,1343,1485,0,0
126,-461,0,0,0,0,0,0,0,0,0,-1,1350,1485,0,0
133,-461,0,0,0,0,0,0,0,0,0,-1,1357,1485,0,0
140,-461,0,0,0,0,0,0,0,0,0,-1,1364,1485,0,0
147,-461,0,0,0,0,0,0,0,0,0,-1,1371,1485,0,0
154,-461,0,0,0,0,0,0,0,0,0,-1,1378,1485,0,0
161,-461,0,0,0,0,0,0,0,0,0,-1,1385,1485,0,0
168,-461,0,0,0,0,0,0,0,0,0,-1,1392,1485,0,0
175,-461,0,0,0,0,0,0,0,0,0,-1,1399,1485,0,0
182,-461,0,0,0,0,0,0,0,0,0,-1,1406,1485,0,0
189,-461,0,0,0,0,0,0,0,0,0,-1,1413,1485,0,0
196,-461,0,0,0,0,0,0,0,0,0,-1,1420,1485,0,0
203,-461,0,0,0,0,0,0,0,0,0,-1,1427,1485,0,0
210,-461,0,0,0,0,0,0,0,0,0,-1,1434,1485,0,0
217,-461,0,0,0,0,0,0,0,0,0,-1,1441,1485,0,0
224,-461,0,0,0,0,0,0,0,0,0,-1,1448,1485,0,0
231,-461,0,0,0,0,0,0,0,0,0,-1,1455,1485,0,0
238,-461,0,0,0,0,0,0,0,0,0,-1,1462,1485,0,0
245,-461,0,0,0,0,0,0,0,0,0,-1,1469,1485,0,0
252,-461,0,0,0,0,0,0,0,0,0,-1,1476,1485,0,0
259,-461,0,0,0,0,0,0,0,0,0,-1,1483,1485,0,0
266,-461,0,0,0,0,0,0,0,0,0,-1,1490,1485,0,0
273,-461,0,0,0,0,0,0,0,0,0,-1,1497,1485,0,0
280,-461,0,0,0,0,0,0,0,0,0,-1,1504,1485,0,0
287,-461,0,0,0,0,0,0,0,0,0,-1,1511,1485,0,0
294,-461,0,0,0,0,0,0,0,0,0,-1,1518,1485,0,0
301,-461,0,0,0,0,0,0,0,0,0,-1,1525,1485,0,0
308,-461,0,0,0,0,0,0,0,0,0,-1,1532,1485,0,0
315,-461,0,0,0,0,0,0,0,0,0,-1,1539,1485,0,0
322,-461,0,0,0,0,0,0,0,0,0,-1,1546,1485,0,0
329,-461,0,0,0,0,0,0,0,0,0,-1,1553,1485,0,0
336,-461,0,0,0,0,0,0,0,0,0,-1,1560,1485,0,0
343,-461,0,0,0,0,0,0,0,0,0,-1,1567,1485,0,0
350,-461,0,0,0,0,0,0,0,0,0,-1,1574,1485,0,0
357,-461,0,0,0,0,0,0,0,0,0,-1,1581,1485,0,0
364,-461,0,0,0,0,0,0,0,0,0,-1,1588,1485,0,0
371,-461,0,0,0,0,0,0,0,0,0,-1,1595,1485,0,0
378,-461,0,0,0,0,0,0,0,0,0,-1,1602,1485,0,0
385,-461,0,0,0,0,0,0,0,0,0,-1,1609,1485,0,0
392,-461,0,0,0,0,0,0,0,0,0,-1,1616,1485,0,0
399,-461,0,0,0,0,0,0,0,0,0,-1,1623,1485,0,0
406,-461,0,0,0,0,0,0,0,0,0,-1,1630,1485,0,0
413,-461,0,0,0,0,0,0,0,0,0,-1,1637,1485,0,0
420,-461,0,0,0,0,0,0,0,0,0,-1,1644,1485,0,0
427,-461,0,0,0,0,0,0,0,0,0,-1,1651,1485,0,0
434,-461,0,0,0,0,0,0,0,0,0,-1,1658,1485,0,0
441,-461,0,0,0,0,0,0,0,0,0,-1,1665,1485,0,0
448,-461,0,0,0,0,0,0,0,0,0,-1,1672,1485,0,0
455,-461,0,0,0,0,0,0,0,0,0,-1,1679,1485,0,0
462,-461,0,0,0,0,0,0,0,0,0,-1,1686,1485,0,0
469,-461,0,0,0,0,0,0,0,0,0,-1,1693,1485,0,0
476,-461,14.1906,0.690552,0,0,0,0,0,0,0,-1,1700,1485,14.1906,-0.690525
483,-461,10.6361,3.09106,0,0,0,0,0,0,0,-1,1707,1485,10.6361,-3.091
490,-461,17.9972,0.665894,0,0,0,0,0,0,0,-1,1714,1485,17.9972,-0.665876
497,-461,16.6829,1.87732,0,0,0,0,0,0,0,-1,1721,1485,16.6828,-1.87736
504,-461,15.3884,3.09216,0,0,0,0,0,0,0,-1,1728,1485,15.3885,-3.09212
511,-461,15.4292,14.3512,0,0,0,0,0,0,0,-1,1735,1485,15.4292,-14.3512
518,-461,14.8081,10.0085,0,0,0,0,0,0,0,-1,1742,1485,14.8081,-10.0086
525,-461,14.0022,10.8033,0,0,0,0,0,0,0,-1,1749,1485,14.0022,-10.8033
532,-461,17.1704,14.077,0,0,0,0,0,0,0,-1,1756,1485,17.1704,-14.077
539,-461,17.0229,14.7386,0,0,0,0,0,0,0,-1,1763,1485,17.0229,-14.7387
546,-461,16.2106,14.1372,0,0,0,0,0,0,0,-1,1770,1485,16.2106,-14.1372
553,-461,25.9354,24.2889,0,0,0,0,0,0,0,-1,1777,1485,25.9354,-24.2889
560,-461,30.8798,28.3273,0,0,0,0,0,0,0,-1,1784,1485,30.8797,-28.3273
567,-461,30.8939,27.5314,0.00808339,0.00164067,-0.0018528,0.00857821,0.00114584,-0.260977,0.00537771,0.0357884,1791,1485,30.8939,-27.5314
574,-461,30.8983,26.8888,0.00639082,0.0013808,-0.00163248,0.0068758,0.000895817,-0.288779,0.00431636,0.0342086,1798,1485,30.8984,-26.8888
581,-461,30.8682,26.1364,0.00509269,0.00123095,-0.00149503,0.00560382,0.000719816,-0.32943,0.00352056,0.0199546,1805,1485,30.8682,-26.1363
588,-461,30.8225,25.425,0.00403963,0.00108502,-0.00134159,0.00455789,0.000566755,-0.368646,0.0028684,0.0112603,1812,1485,30.8225,-25.425
595,-461,30.7635,24.7179,0.00325365,0.000901497,-0.00116611,0.00373376,0.000421385,-0.390571,0.00236128,0.00904534,1819,1485,30.7635,-24.7179
602,-461,30.7394,23.9706,0.0026965,0.000660694,-0.000983604,0.00309408,0.00026311,-0.384132,0.00198085,0.0103886,1826,1485,30.7394,-23.9706
609,-461,30.7194,23.2366,0.00232795,0.000482492,-0.000796178,0.00262396,0.00018648,-0.355954,0.00169058,0.0124884,1833,1485,30.7193,-23.2366
616,-461,30.6759,22.5061,0.00211829,0.000368042,-0.000645368,0.00233052,0.00015581,-0.317714,0.00150443,0.0145625,1840,1485,30.676,-22.5061
623,-461,30.674,21.8115,0.00217305,0.000130184,-0.000462717,0.00227297,3.02643e-05,-0.212676,0.00150532,0.0177986,1847,1485,30.674,-21.8116
630,-461,30.6483,21.1132,0.00237742,-0.000126218,-0.000243684,0.00240092,-0.000149716,-0.0961296,0.00165278,0.017547,1854,1485,30.6483,-21.1132
637,-461,30.5817,20.3534,0.00275528,-0.000279008,-0.00012407,0.00276034,-0.000284072,-0.0407986,0.00194186,0.0161444,1861,1485,30.5816,-20.3534
644,-461,30.6146,19.6714,0.00327015,-0.000267467,-0.000153347,0.00327678,-0.000274102,-0.0432394,0.00228138,0.0335927,1868,1485,30.6147,-19.6714
651,-461,30.6996,18.9359,0,0,0,0,0,0,0,-1,1875,1485,30.6996,-18.936
658,-461,16.8987,10.1084,0,0,0,0,0,0,0,-1,1882,1485,16.8986,-10.1084
665,-461,17.2638,9.81384,0,0,0,0,0,0,0,-1,1889,1485,17.2638,-9.81385
672,-461,14.4877,6.89429,0,0,0,0,0,0,0,-1,1896,1485,14.4876,-6.89431
679,-461,10.0535,2.16321,0,0,0,0,0,0,0,-1,1903,1485,10.0535,-2.16317
686,-461,10.8195,1.84192,0,0,0,0,0,0,0,-1,1910,1485,10.8194,-1.84195
693,-461,0,0,0,0,0,0,0,0,0,-1,1917,1485,0,0
700,-461,0,0,0,0,0,0,0,0,0,-1,1924,1485,0,0
707,-461,0,0,0,0,0,0,0,0,0,-1,1931,1485,0,0
714,-461,0,0,0,0,0,0,0,0,0,-1,1938,1485,0,0
721,-461,0,0,0,0,0,0,0,0,0,-1,1945,1485,0,0
728,-461,0,0,0,0,0,0,0,0,0,-1,1952,1485,0,0
735,-461,0,0,0,0,0,0,0,0,0,-1,1959,1485,0,0
742,-461,0,0,0,0,0,0,0,0,0,-1,1966,1485,0,0
749,-461,0,0,0,0,0,0,0,0,0,-1,1973,1485,0,0
756,-461,0,0,0,0,0,0,0,0,0,-1,1980,1485,0,0
763,-461,0,0,0,0,0,0,0,0,0,-1,1987,1485,0,0
770,-461,0,0,0,0,0,0,0,0,0,-1,1994,1485,0,0
777,-461,0,0,0,0,0,0,0,0,0,-1,2001,1485,0,0
784,-461,0,0,0,0,0,0,0,0,0,-1,2008,1485,0,0
791,-461,0,0,0,0,0,0,0,0,0,-1,2015,1485,0,0
798,-461,0,0,0,0,0,0,0,0,0,-1,2022,1485,0,0
805,-461,0,0,0,0,0,0,0,0,0,-1,2029,1485,0,0
812,-461,0,0,0,0,0,0,0,0,0,-1,2036,1485,0,0
-700,-468,0,0,0,0,0,0,0,0,0,-1,524,1492,0,0
-693,-468,0,0,0,0,0,0,0,0,0,-1,531,1492,0,0
-686,-468,0,0,0,0,0,0,0,0,0,-1,538,1492,0,0
-679,-468,0,0,0,0,0,0,0,0,0,-1,545,1492,0,0
-672,-468,0,0,0,0,0,0,0,0,0,-1,552,1492,0,0
-665,-468,0,0,0,0,0,0,0,0,0,-1,559,1492,0,0
-658,-468,0,0,0,0,0,0,0,0,0,-1,566,1492,0,0
-651,-468,0,0,0,0,0,0,0,0,0,-1,573,1492,0,0
-644,-468,0,0,0,0,0,0,0,0,0,-1,580,1492,0,0
-637,-468,0,0,0,0,0,0,0,0,0,-1,587,1492,0,0
-630,-468,0,0,0,0,0,0,0,0,0,-1,594,1492,0,0
-623,-468,0,0,0,0,0,0,0,0,0,-1,601,1492,0,0
-616,-468,0,0,0,0,0,0,0,0,0,-1,608,1492,0,0
-609,-468,0,0,0,0,0,0,0,0,0,-1,615,1492,0,0
-602,-468,0,0,0,0,0,0,0,0,0,-1,622,1492,0,0
-595,-468,0,0,0,0,0,0,0,0,0,-1,629,1492,0,0
-588,-468,0,0,0,0,0,0,0,0,0,-1,636,1492,0,0
-581,-468,0,0,0,0,0,0,0,0,0,-1,643,1492,0,0
-574,-468,0,0,0,0,0,0,0,0,0,-1,650,1492,0,0
-567,-468,-11.2603,1.8042,0,0,0,0,0,0,0,-1,657,1492,-11.2603,-1.80424
-560,-468,-8.77441,2.23694,0,0,0,0,0,0,0,-1,664,1492,-8.77443,-2.23692
-553,-468,-5.94061,9.26318,0,0,0,0,0,0,0,-1,671,1492,-5.94062,-9.26322
-546,-468,-10.47,5.43237,0,0,0,0,0,0,0,-1,678,1492,-10.47,-5.4324
-539,-468,-10.2468,5.45203,0,0,0,0,0,0,0,-1,685,1492,-10.2468,-5.45197
-532,-468,-8.39795,6.02783,0,0,0,0,0,0,0,-1,692,1492,-8.39793,-6.02789
-525,-468,-6.59332,7.15405,0,0,0,0,0,0,0,-1,699,1492,-6.59331,-7.15411
-518,-468,-6.33588,8.65393,0,0,0,0,0,0,0,-1,706,1492,-6.33588,-8.65397
-511,-468,-8.05835,13.8282,0,0,0,0,0,0,0,-1,713,1492,-8.05835,-13.8283
-504,-468,-12.3594,19.3273,0,0,0,0,0,0,0,-1,720,1492,-12.3594,-19.3273
-497,-468,-12.334,20.3064,0.00314725,0.00411971,0.00472207,0.00838052,-0.00111355,0.836702,0.00599278,0.0311354,727,1492,-12.334,-20.3064
-490,-468,-12.3285,21.203,0.00234015,0.00280291,0.00334144,0.00592097,-0.000777908,0.819966,0.00423052,0.00873991,734,1492,-12.3285,-21.203
-483,-468,-12.3798,21.9512,0.00170487,0.00177142,0.00223767,0.00397606,-0.00049978,0.792833,0.00283204,0.0093363,741,1492,-12.3798,-21.9512
-476,-468,-12.429,22.7024,0.00138109,0.00121281,0.00156843,0.00286764,-0.00027373,0.758601,0.00200923,0.00991409,748,1492,-12.429,-22.7024
-469,-468,-12.4553,23.4722,0.00130413,0.00108444,0.00125586,0.00245494,-6.63766e-05,0.741776,0.0016592,0.013497,755,1492,-12.4552,-23.4721
-462,-468,-12.4393,24.2129,0.0014765,0.00131188,0.00125373,0.00265061,0.000137763,0.75262,0.00172299,0.0238905,762,1492,-12.4393,-24.2129
-455,-468,-12.473,24.9152,0.00189281,0.00186913,0.00157363,0.00345464,0.000307297,0.781635,0.0022078,0.0252144,769,1492,-12.473,-24.9152
-448,-468,-12.547,25.7147,0.00266829,0.00298765,0.00236376,0.00519712,0.000458831,0.819124,0.00332238,0.0147503,776,1492,-12.547,-25.7148
-441,-468,-12.5933,26.4751,0.0037148,0.00445538,0.00345953,0.00756438,0.000605803,0.838713,0.00485361,0.0172425,783,1492,-12.5933,-26.4751
-434,-468,-12.5217,27.3636,0.00509789,0.00629488,0.00493007,0.0106626,0.000730122,0.845801,0.00687798,0.0423602,790,1492,-12.5217,-27.3636
-427,-468,-12.3113,28.0167,0,0,0,0,0,0,0,-1,797,1492,-12.3113,-28.0167
-420,-468,-7.57581,22.0538,0,0,0,0,0,0,0,-1,804,1492,-7.57582,-22.0538
-413,-468,-5.30328,17.3519,0,0,0,0,0,0,0,-1,811,1492,-5.30329,-17.352
-406,-468,-2.2356,9.396,0,0,0,0,0,0,0,-1,818,1492,-2.2356,-9.396
-399,-468,-0.940369,8.1936,0,0,0,0,0,0,0,-1,825,1492,-0.940365,-8.19357
-392,-468,-0.35144,8.14673,0,0,0,0,0,0,0,-1,832,1492,-0.351449,-8.14674
-385,-468,0.465759,5.35864,0,0,0,0,0,0,0,-1,839,1492,0.465732,-5.35864
-378,-468,1.99835,3.25391,0,0,0,0,0,0,0,-1,846,1492,1.99837,-3.2539
-371,-468,-0.31842,3.1532,0,0,0,0,0,0,0,-1,853,1492,-0.318441,-3.15324
-364,-468,-0.966736,2.14563,0,0,0,0,0,0,0,-1,860,1492,-0.966735,-2.14557
-357,-468,-3.06787,3.22742,0,0,0,0,0,0,0,-1,867,1492,-3.06784,-3.2274
-350,-468,-3.18658,4.12659,0,0,0,0,0,0,0,-1,874,1492,-3.18659,-4.12658
-343,-468,0,0,0,0,0,0,0,0,0,-1,881,1492,0,0
-336,-468,0,0,0,0,0,0,0,0,0,-1,888,1492,0,0
-329,-468,0,0,0,0,0,0,0,0,0,-1,895,1492,0,0
-322,-468,0,0,0,0,0,0,0,0,0,-1,902,1492,0,0
-315,-468,0,0,0,0,0,0,0,0,0,-1,909,1492,0,0
-308,-468,0,0,0,0,0,0,0,0,0,-1,916,1492,0,0
-301,-468,0,0,0,0,0,0,0,0,0,-1,923,1492,0,0
-294,-468,0,0,0,0,0,0,0,0,0,-1,930,1492,0,0
-287,-468,0,0,0,0,0,0,0,0,0,-1,937,1492,0,0
-280,-468,0,0,0,0,0,0,0,0,0,-1,944,1492,0,0
-273,-468,0,0,0,0,0,0,0,0,0,-1,951,1492,0,0
-266,-468,0,0,0,0,0,0,0,0,0,-1,958,1492,0,0
-259,-468,0,0,0,0,0,0,0,0,0,-1,965,1492,0,0
-252,-468,0,0,0,0,0,0,0,0,0,-1,972,1492,0,0
-245,-468,0,0,0,0,0,0,0,0,0,-1,979,1492,0,0
-238,-468,0,0,0,0,0,0,0,0,0,-1,986,1492,0,0
-231,-468,0,0,0,0,0,0,0,0,0,-1,993,1492,0,0
-224,-468,0,0,0,0,0,0,0,0,0,-1,1000,1492,0,0
-217,-468,0,0,0,0,0,0,0,0,0,-1,1007,1492,0,0
-210,-468,0,0,0,0,0,0,0,0,0,-1,1014,1492,0,0
-203,-468,0,0,0,0,0,0,0,0,0,-1,1021,1492,0,0
-196,-468,0,0,0,0,0,0,0,0,0,-1,1028,1492,0,0
-189,-468,0,0,0,0,0,0,0,0,0,-1,1035,1492,0,0
-182,-468,0,0,0,0,0,0,0,0,0,-1,1042,1492,0,0
-175,-468,0,0,0,0,0,0,0,0,0,-1,1049,1492,0,0
-168,-468,0,0,0,0,0,0,0,0,0,-1,1056,1492,0,0
-161,-468,0,0,0,0,0,0,0,0,0,-1,1063,1492,0,0
-154,-468,0,0,0,0,0,0,0,0,0,-1,1070,1492,0,0
-147,-468,0,0,0,0,0,0,0,0,0,-1,1077,1492,0,0
-140,-468,0,0,0,0,0,0,0,0,0,-1,1084,1492,0,0
-133,-468,0,0,0,0,0,0,0,0,0,-1,1091,1492,0,0
-126,-468,0,0,0,0,0,0,0,0,0,-1,1098,1492,0,0
-119,-468,0,0,0,0,0,0,0,0,0,-1,1105,1492,0,0
-112,-468,0,0,0,0,0,0,0,0,0,-1,1112,1492,0,0
-105,-468,0,0,0,0,0,0,0,0,0,-1,1119,1492,0,0
-98,-468,0,0,0,0,0,0,0,0,0,-1,1126,1492,0,0
-91,-468,0,0,0,0,0,0,0,0,0,-1,1133,1492,0,0
-84,-468,0,0,0,0,0,0,0,0,0,-1,1140,1492,0,0
-77,-468,0,0,0,0,0,0,0,0,0,-1,1147,1492,0,0
-70,-468,0,0,0,0,0,0,0,0,0,-1,1154,1492,0,0
-63,-468,0,0,0,0,0,0,0,0,0,-1,1161,1492,0,0
-56,-468,0,0,0,0,0,0,0,0,0,-1,1168,1492,0,0
-49,-468,0,0,0,0,0,0,0,0,0,-1,1175,1492,0,0
-42,-468,0,0,0,0,0,0,0,0,0,-1,1182,1492,0,0
-35,-468,0,0,0,0,0,0,0,0,0,-1,1189,1492,0,0
-28,-468,0,0,0,0,0,0,0,0,0,-1,1196,1492,0,0
-21,-468,0,0,0,0,0,0,0,0,0,-1,1203,1492,0,0
-14,-468,0,0,0,0,0,0,0,0,0,-1,1210,1492,0,0
-7,-468,0,0,0,0,0,0,0,0,0,-1,1217,1492,0,0
0,-468,0,0,0,0,0,0,0,0,0,-1,1224,1492,0,0
7,-468,0,0,0,0,0,0,0,0,0,-1,1231,1492,0,0
14,-468,0,0,0,0,0,0,0,0,0,-1,1238,1492,0,0
21,-468,0,0,0,0,0,0,0,0,0,-1,1245,1492,0,0
28,-468,0,0,0,0,0,0,0,0,0,-1,1252,1492,0,0
35,-468,0,0,0,0,0,0,0,0,0,-1,1259,1492,0,0
42,-468,0,0,0,0,0,0,0,0,0,-1,1266,1492,0,0
49,-468,0,0,0,0,0,0,0,0,0,-1,1273,1492,0,0
56,-468,0,0,0,0,0,0,0,0,0,-1,1280,1492,0,0
63,-468,0,0,0,0,0,0,0,0,0,-1,1287,1492,0,0
70,-468,0,0,0,0,0,0,0,0,0,-1,1294,1492,0,0
77,-468,0,0,0,0,0,0,0,0,0,-1,1301,1492,0,0
84,-468,0,0,0,0,0,0,0,0,0,-1,1308,1492,0,0
91,-468,0,0,0,0,0,0,0,0,0,-1,1315,1492,0,0
98,-468,0,0,0,0,0,0,0,0,0,-1,1322,1492,0,0
105,-468,0,0,0,0,0,0,0,0,0,-1,1329,1492,0,0
112,-468,0,0,0,0,0,0,0,0,0,-1,1336,1492,0,0
119,-468,0,0,0,0,0,0,0,0,0,-1,1343,1492,0,0
126,-468,0,0,0,0,0,0,0,0,0,-1,1350,1492,0,0
133,-468,0,0,0,0,0,0,0,0,0,-1,1357,1492,0,0
140,-468,0,0,0,0,0,0,0,0,0,-1,1364,1492,0,0
147,-468,0,0,0,0,0,0,0,0,0,-1,1371,1492,0,0
154,-468,0,0,0,0,0,0,0,0,0,-1,1378,1492,0,0
161,-468,0,0,0,0,0,0,0,0,0,-1,1385,1492,0,0
168,-468,0,0,0,0,0,0,0,0,0,-1,1392,1492,0,0
175,-468,0,0,0,0,0,0,0,0,0,-1,1399,1492,0,0
182,-468,0,0,0,0,0,0,0,0,0,-1,1406,1492,0,0
189,-468,0,0,0,0,0,0,0,0,0,-1,1413,1492,0,0
196,-468,0,0,0,0,0,0,0,0,0,-1,1420,1492,0,0
203,-468,0,0,0,0,0,0,0,0,0,-1,1427,1492,0,0
210,-468,0,0,0,0,0,0,0,0,0,-1,1434,1492,0,0
217,-468,0,0,0,0,0,0,0,0,0,-1,1441,1492,0,0
224,-468,0,0,0,0,0,0,0,0,0,-1,1448,1492,0,0
231,-468,0,0,0,0,0,0,0,0,0,-1,1455,1492,0,0
238,-468,0,0,0,0,0,0,0,0,0,-1,1462,1492,0,0
245,-468,0,0,0,0,0,0,0,0,0,-1,1469,1492,0,0
252,-468,0,0,0,0,0,0,0,0,0,-1,1476,1492,0,0
259,-468,0,0,0,0,0,0,0,0,0,-1,1483,1492,0,0
266,-468,0,0,0,0,0,0,0,0,0,-1,1490,1492,0,0
273,-468,0,0,0,0,0,0,0,0,0,-1,1497,1492,0,0
280,-468,0,0,0,0,0,0,0,0,0,-1,1504,1492,0,0
287,-468,0,0,0,0,0,0,0,0,0,-1,1511,1492,0,0
294,-468,0,0,0,0,0,0,0,0,0,-1,1518,1492,0,0
301,-468,0,0,0,0,0,0,0,0,0,-1,1525,1492,0,0
308,-468,0,0,0,0,0,0,0,0,0,-1,1532,1492,0,0
315,-468,0,0,0,0,0,0,0,0,0,-1,1539,1492,0,0
322,-468,0,0,0,0,0,0,0,0,0,-1,1546,1492,0,0
329,-468,0,0,0,0,0,0,0,0,0,-1,1553,1492,0,0
336,-468,0,0,0,0,0,0,0,0,0,-1,1560,1492,0,0
343,-468,0,0,0,0,0,0,0,0,0,-1,1567,1492,0,0
350,-468,0,0,0,0,0,0,0,0,0,-1,1574,1492,0,0
357,-468,0,0,0,0,0,0,0,0,0,-1,1581,1492,0,0
364,-468,0,0,0,0,0,0,0,0,0,-1,1588,1492,0,0
371,-468,0,0,0,0,0,0,0,0,0,-1,1595,1492,0,0
378,-468,0,0,0,0,0,0,0,0,0,-1,1602,1492,0,0
385,-468,0,0,0,0,0,0,0,0,0,-1,1609,1492,0,0
392,-468,0,0,0,0,0,0,0,0,0,-1,1616,1492,0,0
399,-468,0,0,0,0,0,0,0,0,0,-1,1623,1492,0,0
406,-468,0,0,0,0,0,0,0,0,0,-1,1630,1492,0,0
413,-468,0,0,0,0,0,0,0,0,0,-1,1637,1492,0,0
420,-468,0,0,0,0,0,0,0,0,0,-1,1644,1492,0,0
427,-468,0,0,0,0,0,0,0,0,0,-1,1651,1492,0,0
434,-468,0,0,0,0,0,0,0,0,0,-1,1658,1492,0,0
441,-468,0,0,0,0,0,0,0,0,0,-1,1665,1492,0,0
448,-468,0,0,0,0,0,0,0,0,0,-1,1672,1492,0,0
455,-468,0,0,0,0,0,0,0,0,0,-1,1679,1492,0,0
462,-468,0,0,0,0,0,0,0,0,0,-1,1686,1492,0,0
469,-468,15.6879,1.2677,0,0,0,0,0,0,0,-1,1693,1492,15.6879,-1.26772
476,-468,14.9318,1.61865,0,0,0,0,0,0,0,-1,1700,1492,14.9318,-1.61869
483,-468,11.265,4.64795,0,0,0,0,0,0,0,-1,1707,1492,11.265,-4.64798
490,-468,12.1316,3.51624,0,0,0,0,0,0,0,-1,1714,1492,12.1316,-3.51628
497,-468,16.5355,3.14587,0,0,0,0,0,0,0,-1,1721,1492,16.5356,-3.14583
504,-468,15.0642,4.10437,0,0,0,0,0,0,0,-1,1728,1492,15.0643,-4.10431
511,-468,15.6877,9.4801,0,0,0,0,0,0,0,-1,1735,1492,15.6878,-9.48007
518,-468,13.759,11.0887,0,0,0,0,0,0,0,-1,1742,1492,13.759,-11.0887
525,-468,16.6531,14.2238,0,0,0,0,0,0,0,-1,1749,1492,16.653,-14.2237
532,-468,16.9696,15.9641,0,0,0,0,0,0,0,-1,1756,1492,16.9696,-15.9641
539,-468,21.5308,20.7551,0,0,0,0,0,0,0,-1,1763,1492,21.5308,-20.7551
546,-468,25.5796,25.0283,0,0,0,0,0,0,0,-1,1770,1492,25.5796,-25.0284
553,-468,29.9344,28.9673,0,0,0,0,0,0,0,-1,1777,1492,29.9344,-28.9672
560,-468,30.1388,28.3076,0.00923134,0.00302985,-0.00278766,0.0103002,0.00196098,-0.366139,0.00631545,0.0418904,1784,1492,30.1388,-28.3076
567,-468,30.1438,27.6616,0.0070896,0.00197495,-0.00192325,0.00773209,0.00133247,-0.322408,0.00477297,0.023736,1791,1492,30.1438,-27.6616
574,-468,30.1782,26.8951,0.00559095,0.0015063,-0.00158691,0.006135,0.000962238,-0.330283,0.00380998,0.0174801,1798,1492,30.1782,-26.8952
581,-468,30.173,26.176,0.00441058,0.00121161,-0.0013659,0.00491443,0.000707752,-0.353395,0.00306771,0.0173595,1805,1492,30.173,-26.1761
588,-468,30.1007,25.4635,0.00351679,0.000988855,-0.00120171,0.00399688,0.000508766,-0.380078,0.00251223,0.0130402,1812,1492,30.1007,-25.4635
595,-468,30.0486,24.7524,0.00291833,0.000772189,-0.00104577,0.00334363,0.000346888,-0.386257,0.00212293,0.0112791,1819,1492,30.0486,-24.7525
602,-468,30.0159,24.0134,0.00250345,0.000565825,-0.000913182,0.00286599,0.000203286,-0.377924,0.00184663,0.0103245,1826,1492,30.0159,-24.0135
609,-468,29.9661,23.2699,0.00226794,0.000430112,-0.00077177,0.00254904,0.000149014,-0.349292,0.00165193,0.0107315,1833,1492,29.9661,-23.2699
616,-468,29.9353,22.5416,0.00220282,0.000319922,-0.000626145,0.00239203,0.000130715,-0.293454,0.00155295,0.0105575,1840,1492,29.9353,-22.5416
623,-468,29.926,21.8315,0.00237221,6.33612e-05,-0.000405982,0.00244151,-5.94545e-06,-0.169083,0.00162966,0.0117238,1847,1492,29.9261,-21.8315
630,-468,29.903,21.0957,0.00265956,-0.000225121,-0.000108285,0.00266362,-0.00022918,-0.0374678,0.00185686,0.0123238,1854,1492,29.9029,-21.0957
637,-468,29.8718,20.3395,0.00311,-0.000468042,0.000127115,0.00311451,-0.000472552,0.0354667,0.00225045,0.0160059,1861,1492,29.8718,-20.3395
644,-468,29.8867,19.755,0.0036358,-0.000634864,0.000299037,0.00365664,-0.000655701,0.0695688,0.00268317,0.0353652,1868,1492,29.8867,-19.755
651,-468,30.0366,19.1071,0,0,0,0,0,0,0,-1,1875,1492,30.0366,-19.1071
658,-468,16.4969,10.0774,0,0,0,0,0,0,0,-1,1882,1492,16.497,-10.0774
665,-468,15.4673,8.59546,0,0,0,0,0,0,0,-1,1889,1492,15.4672,-8.59548
672,-468,9.96814,3.61133,0,0,0,0,0,0,0,-1,1896,1492,9.96817,-3.61139
679,-468,11.2191,1.91968,0,0,0,0,0,0,0,-1,1903,1492,11.2191,-1.91965
686,-468,11.9252,1.42285,0,0,0,0,0,0,0,-1,1910,1492,11.9252,-1.42291
693,-468,0,0,0,0,0,0,0,0,0,-1,1917,1492,0,0
700,-468,0,0,0,0,0,0,0,0,0,-1,1924,1492,0,0
707,-468,0,0,0,0,0,0,0,0,0,-1,1931,1492,0,0
714,-468,0,0,0,0,0,0,0,0,0,-1,1938,1492,0,0
721,-468,0,0,0,0,0,0,0,0,0,-1,1945,1492,0,0
728,-468,0,0,0,0,0,0,0,0,0,-1,1952,1492,0,0
735,-468,0,0,0,0,0,0,0,0,0,-1,1959,1492,0,0
742,-468,0,0,0,0,0,0,0,0,0,-1,1966,1492,0,0
749,-468,0,0,0,0,0,0,0,0,0,-1,1973,1492,0,0
756,-468,0,0,0,0,0,0,0,0,0,-1,1980,1492,0,0
763,-468,0,0,0,0,0,0,0,0,0,-1,1987,1492,0,0
770,-468,0,0,0,0,0,0,0,0,0,-1,1994,1492,0,0
777,-468,0,0,0,0,0,0,0,0,0,-1,2001,1492,0,0
784,-468,0,0,0,0,0,0,0,0,0,-1,2008,1492,0,0
791,-468,0,0,0,0,0,0,0,0,0,-1,2015,1492,0,0
798,-468,0,0,0,0,0,0,0,0,0,-1,2022,1492,0,0
805,-468,0,0,0,0,0,0,0,0,0,-1,2029,1492,0,0
812,-468,0,0,0,0,0,0,0,0,0,-1,2036,1492,0,0
-700,-475,0,0,0,0,0,0,0,0,0,-1,524,1499,0,0
-693,-475,0,0,0,0,0,0,0,0,0,-1,531,1499,0,0
-686,-475,0,0,0,0,0,0,0,0,0,-1,538,1499,0,0
-679,-475,0,0,0,0,0,0,0,0,0,-1,545,1499,0,0
-672,-475,0,0,0,0,0,0,0,0,0,-1,552,1499,0,0
-665,-475,0,0,0,0,0,0,0,0,0,-1,559,1499,0,0
-658,-475,0,0,0,0,0,0,0,0,0,-1,566,1499,0,0
-651,-475,0,0,0,0,0,0,0,0,0,-1,573,1499,0,0
-644,-475,0,0,0,0,0,0,0,0,0,-1,580,1499,0,0
-637,-475,0,0,0,0,0,0,0,0,0,-1,587,1499,0,0
-630,-475,0,0,0,0,0,0,0,0,0,-1,594,1499,0,0
-623,-475,0,0,0,0,0,0,0,0,0,-1,601,1499,0,0
-616,-475,0,0,0,0,0,0,0,0,0,-1,608,1499,0,0
-609,-475,0,0,0,0,0,0,0,0,0,-1,615,1499,0,0
-602,-475,0,0,0,0,0,0,0,0,0,-1,622,1499,0,0
-595,-475,0,0,0,0,0,0,0,0,0,-1,629,1499,0,0
-588,-475,0,0,0,0,0,0,0,0,0,-1,636,1499,0,0
-581,-475,0,0,0,0,0,0,0,0,0,-1,643,1499,0,0
-574,-475,0,0,0,0,0,0,0,0,0,-1,650,1499,0,0
-567,-475,0,0,0,0,0,0,0,0,0,-1,657,1499,0,0
-560,-475,-9.42731,9.29517,0,0,0,0,0,0,0,-1,664,1499,-9.42731,-9.29519
-553,-475,-8.15131,8.78369,0,0,0,0,0,0,0,-1,671,1499,-8.15131,-8.78367
-546,-475,-8.41254,8.20654,0,0,0,0,0,0,0,-1,678,1499,-8.41251,-8.20655
-539,-475,-4.7345,4.17419,0,0,0,0,0,0,0,-1,685,1499,-4.73449,-4.17418
-532,-475,-7.07379,4.25024,0,0,0,0,0,0,0,-1,692,1499,-7.07378,-4.2503
-525,-475,-6.13147,5.82166,0,0,0,0,0,0,0,-1,699,1499,-6.1315,-5.8216
-518,-475,-7.28784,9.31506,0,0,0,0,0,0,0,-1,706,1499,-7.28782,-9.315
-511,-475,-6.84851,12.4244,0,0,0,0,0,0,0,-1,713,1499,-6.84851,-12.4244
-504,-475,-8.80957,16.0863,0,0,0,0,0,0,0,-1,720,1499,-8.80954,-16.0862
-497,-475,-11.7319,20.1794,0,0,0,0,0,0,0,-1,727,1499,-11.732,-20.1795
-490,-475,-11.5977,21.1852,0.00317911,0.00227971,0.00381429,0.00657012,-0.0011113,0.726719,0.00479365,0.0186285,734,1499,-11.5977,-21.1852
-483,-475,-11.6091,22.0165,0.00232257,0.00113592,0.00248765,0.00428667,-0.000828185,0.668332,0.00317011,0.00948372,741,1499,-11.6091,-22.0165
-476,-475,-11.6502,22.7583,0.00181463,0.000572845,0.00166682,0.00297244,-0.000584966,0.607109,0.00220266,0.0119752,748,1499,-11.6502,-22.7583
-469,-475,-11.68,23.5227,0.00155491,0.000498136,0.00127725,0.00240875,-0.000355709,0.589272,0.00173659,0.0154254,755,1499,-11.68,-23.5227
-462,-475,-11.6548,24.2574,0.00152076,0.000810464,0.00120648,0.00242327,-9.20516e-05,0.642258,0.00164706,0.02032,762,1499,-11.6548,-24.2575
-455,-475,-11.6971,25.0055,0.00170961,0.00144157,0.00144508,0.00302687,0.000124312,0.739161,0.00197778,0.0163585,769,1499,-11.6971,-25.0055
-448,-475,-11.7983,25.7734,0.00220329,0.00256994,0.00209325,0.00448787,0.000285353,0.829076,0.00290148,0.0139,776,1499,-11.7983,-25.7735
-441,-475,-11.8484,26.5105,0.00290828,0.00398056,0.00300746,0.0064993,0.000389545,0.873607,0.00420903,0.0175492,783,1499,-11.8485,-26.5105
-434,-475,-11.8437,27.2563,0.00388803,0.00570536,0.00423538,0.00912845,0.000464944,0.891067,0.00593673,0.0126464,790,1499,-11.8437,-27.2564
-427,-475,-11.7904,28.1581,0.00525049,0.00801975,0.00589939,0.0126948,0.000575412,0.900665,0.00827808,0.04178,797,1499,-11.7904,-28.1581
-420,-475,-11.6763,29.0338,0,0,0,0,0,0,0,-1,804,1499,-11.6763,-29.0338
-413,-475,-6.46777,20.8481,0,0,0,0,0,0,0,-1,811,1499,-6.46776,-20.8481
-406,-475,-2.56116,12.4956,0,0,0,0,0,0,0,-1,818,1499,-2.56116,-12.4956
-399,-475,-1.39667,6.1615,0,0,0,0,0,0,0,-1,825,1499,-1.39664,-6.16155
-392,-475,0.217163,8.61389,0,0,0,0,0,0,0,-1,832,1499,0.217167,-8.6139
-385,-475,1.18372,2.73999,0,0,0,0,0,0,0,-1,839,1499,1.18372,-2.73995
-378,-475,1.31409,2.90149,0,0,0,0,0,0,0,-1,846,1499,1.31411,-2.90151
-371,-475,2.3476,3.31116,0,0,0,0,0,0,0,-1,853,1499,2.34761,-3.31121
-364,-475,1.04462,9.05823,0,0,0,0,0,0,0,-1,860,1499,1.04461,-9.05825
-357,-475,-0.262756,7.97205,0,0,0,0,0,0,0,-1,867,1499,-0.262784,-7.97205
-350,-475,-5.16473,-1.27881,0,0,0,0,0,0,0,-1,874,1499,-5.16474,1.27884
-343,-475,-5.76923,-0.530518,0,0,0,0,0,0,0,-1,881,1499,-5.76923,0.530526
-336,-475,0,0,0,0,0,0,0,0,0,-1,888,1499,0,0
-329,-475,0,0,0,0,0,0,0,0,0,-1,895,1499,0,0
-322,-475,0,0,0,0,0,0,0,0,0,-1,902,1499,0,0
-315,-475,0,0,0,0,0,0,0,0,0,-1,909,1499,0,0
-308,-475,0,0,0,0,0,0,0,0,0,-1,916,1499,0,0
-301,-475,0,0,0,0,0,0,0,0,0,-1,923,1499,0,0
-294,-475,0,0,0,0,0,0,0,0,0,-1,930,1499,0,0
-287,-475,0,0,0,0,0,0,0,0,0,-1,937,1499,0,0
-280,-475,0,0,0,0,0,0,0,0,0,-1,944,1499,0,0
-273,-475,0,0,0,0,0,0,0,0,0,-1,951,1499,0,0
-266,-475,0,0,0,0,0,0,0,0,0,-1,958,1499,0,0
-259,-475,0,0,0,0,0,0,0,0,0,-1,965,1499,0,0
-252,-475,0,0,0,0,0,0,0,0,0,-1,972,1499,0,0
-245,-475,0,0,0,0,0,0,0,0,0,-1,979,1499,0,0
-238,-475,0,0,0,0,0,0,0,0,0,-1,986,1499,0,0
-231,-475,0,0,0,0,0,0,0,0,0,-1,993,1499,0,0
-224,-475,0,0,0,0,0,0,0,0,0,-1,1000,1499,0,0
-217,-475,0,0,0,0,0,0,0,0,0,-1,1007,1499,0,0
-210,-475,0,0,0,0,0,0,0,0,0,-1,1014,1499,0,0
-203,-475,0,0,0,0,0,0,0,0,0,-1,1021,1499,0,0
-196,-475,0,0,0,0,0,0,0,0,0,-1,1028,1499,0,0
-189,-475,0,0,0,0,0,0,0,0,0,-1,1035,1499,0,0
-182,-475,0,0,0,0,0,0,0,0,0,-1,1042,1499,0,0
-175,-475,0,0,0,0,0,0,0,0,0,-1,1049,1499,0,0
-168,-475,0,0,0,0,0,0,0,0,0,-1,1056,1499,0,0
-161,-475,0,0,0,0,0,0,0,0,0,-1,1063,1499,0,0
-154,-475,0,0,0,0,0,0,0,0,0,-1,1070,1499,0,0
-147,-475,0,0,0,0,0,0,0,0,0,-1,1077,1499,0,0
-140,-475,0,0,0,0,0,0,0,0,0,-1,1084,1499,0,0
-133,-475,0,0,0,0,0,0,0,0,0,-1,1091,1499,0,0
-126,-475,0,0,0,0,0,0,0,0,0,-1,1098,1499,0,0
-119,-475,0,0,0,0,0,0,0,0,0,-1,1105,1499,0,0
-112,-475,0,0,0,0,0,0,0,0,0,-1,1112,1499,0,0
-105,-475,0,0,0,0,0,0,0,0,0,-1,1119,1499,0,0
-98,-475,0,0,0,0,0,0,0,0,0,-1,1126,1499,0,0
-91,-475,0,0,0,0,0,0,0,0,0,-1,1133,1499,0,0
-84,-475,0,0,0,0,0,0,0,0,0,-1,1140,1499,0,0
-77,-475,0,0,0,0,0,0,0,0,0,-1,1147,1499,0,0
-70,-475,0,0,0,0,0,0,0,0,0,-1,1154,1499,0,0
-63,-475,0,0,0,0,0,0,0,0,0,-1,1161,1499,0,0
-56,-475,0,0,0,0,0,0,0,0,0,-1,1168,1499,0,0
-49,-475,0,0,0,0,0,0,0,0,0,-1,1175,1499,0,0
-42,-475,0,0,0,0,0,0,0,0,0,-1,1182,1499,0,0
-35,-475,0,0,0,0,0,0,0,0,0,-1,1189,1499,0,0
-28,-475,0,0,0,0,0,0,0,0,0,-1,1196,1499,0,0
-21,-475,0,0,0,0,0,0,0,0,0,-1,1203,1499,0,0
-14,-475,0,0,0,0,0,0,0,0,0,-1,1210,1499,0,0
-7,-475,0,0,0,0,0,0,0,0,0,-1,1217,1499,0,0
0,-475,0,0,0,0,0,0,0,0,0,-1,1224,1499,0,0
7,-475,0,0,0,0,0,0,0,0,0,-1,1231,1499,0,0
14,-475,0,0,0,0,0,0,0,0,0,-1,1238,1499,0,0
21,-475,0,0,0,0,0,0,0,0,0,-1,1245,1499,0,0
28,-475,0,0,0,0,0,0,0,0,0,-1,1252,1499,0,0
35,-475,0,0,0,0,0,0,0,0,0,-1,1259,1499,0,0
42,-475,0,0,0,0,0,0,0,0,0,-1,1266,1499,0,0
49,-475,0,0,0,0,0,0,0,0,0,-1,1273,1499,0,0
56,-475,0,0,0,0,0,0,0,0,0,-1,1280,1499,0,0
63,-475,0,0,0,0,0,0,0,0,0,-1,1287,1499,0,0
70,-475,0,0,0,0,0,0,0,0,0,-1,1294,1499,0,0
77,-475,0,0,0,0,0,0,0,0,0,-1,1301,1499,0,0
84,-475,0,0,0,0,0,0,0,0,0,-1,1308,1499,0,0
91,-475,0,0,0,0,0,0,0,0,0,-1,1315,1499,0,0
98,-475,0,0,0,0,0,0,0,0,0,-1,1322,1499,0,0
105,-475,0,0,0,0,0,0,0,0,0,-1,1329,1499,0,0
112,-475,0,0,0,0,0,0,0,0,0,-1,1336,1499,0,0
119,-475,0,0,0,0,0,0,0,0,0,-1,1343,1499,0,0
126,-475,0,0,0,0,0,0,0,0,0,-1,1350,1499,0,0
133,-475,0,0,0,0,0,0,0,0,0,-1,1357,1499,0,0
140,-475,0,0,0,0,0,0,0,0,0,-1,1364,1499,0,0
147,-475,0,0,0,0,0,0,0,0,0,-1,1371,1499,0,0
154,-475,0,0,0,0,0,0,0,0,0,-1,1378,1499,0,0
161,-475,0,0,0,0,0,0,0,0,0,-1,1385,1499,0,0
168,-475,0,0,0,0,0,0,0,0,0,-1,1392,1499,0,0
175,-475,0,0,0,0,0,0,0,0,0,-1,1399,1499,0,0
182,-475,0,0,0,0,0,0,0,0,0,-1,1406,1499,0,0
189,-475,0,0,0,0,0,0,0,0,0,-1,1413,1499,0,0
196,-475,0,0,0,0,0,0,0,0,0,-1,1420,1499,0,0
203,-475,0,0,0,0,0,0,0,0,0,-1,1427,1499,0,0
210,-475,0,0,0,0,0,0,0,0,0,-1,1434,1499,0,0
217,-475,0,0,0,0,0,0,0,0,0,-1,1441,1499,0,0
224,-475,0,0,0,0,0,0,0,0,0,-1,1448,1499,0,0
231,-475,0,0,0,0,0,0,0,0,0,-1,1455,1499,0,0
238,-475,0,0,0,0,0,0,0,0,0,-1,1462,1499,0,0
245,-475,0,0,0,0,0,0,0,0,0,-1,1469,1499,0,0
252,-475,0,0,0,0,0,0,0,0,0,-1,1476,1499,0,0
259,-475,0,0,0,0,0,0,0,0,0,-1,1483,1499,0,0
266,-475,0,0,0,0,0,0,0,0,0,-1,1490,1499,0,0
273,-475,0,0,0,0,0,0,0,0,0,-1,1497,1499,0,0
280,-475,0,0,0,0,0,0,0,0,0,-1,1504,1499,0,0
287,-475,0,0,0,0,0,0,0,0,0,-1,1511,1499,0,0
294,-475,0,0,0,0,0,0,0,0,0,-1,1518,1499,0,0
301,-475,0,0,0,0,0,0,0,0,0,-1,1525,1499,0,0
308,-475,0,0,0,0,0,0,0,0,0,-1,1532,1499,0,0
315,-475,0,0,0,0,0,0,0,0,0,-1,1539,1499,0,0
322,-475,0,0,0,0,0,0,0,0,0,-1,1546,1499,0,0
329,-475,0,0,0,0,0,0,0,0,0,-1,1553,1499,0,0
336,-475,0,0,0,0,0,0,0,0,0,-1,1560,1499,0,0
343,-475,0,0,0,0,0,0,0,0,0,-1,1567,1499,0,0
350,-475,0,0,0,0,0,0,0,0,0,-1,1574,1499,0,0
357,-475,0,0,0,0,0,0,0,0,0,-1,1581,1499,0,0
364,-475,0,0,0,0,0,0,0,0,0,-1,1588,1499,0,0
371,-475,0,0,0,0,0,0,0,0,0,-1,1595,1499,0,0
378,-475,0,0,0,0,0,0,0,0,0,-1,1602,1499,0,0
385,-475,0,0,0,0,0,0,0,0,0,-1,1609,1499,0,0
392,-475,0,0,0,0,0,0,0,0,0,-1,1616,1499,0,0
399,-475,0,0,0,0,0,0,0,0,0,-1,1623,1499,0,0
406,-475,0,0,0,0,0,0,0,0,0,-1,1630,1499,0,0
413,-475,0,0,0,0,0,0,0,0,0,-1,1637,1499,0,0
420,-475,0,0,0,0,0,0,0,0,0,-1,1644,1499,0,0
427,-475,0,0,0,0,0,0,0,0,0,-1,1651,1499,0,0
434,-475,0,0,0,0,0,0,0,0,0,-1,1658,1499,0,0
441,-475,0,0,0,0,0,0,0,0,0,-1,1665,1499,0,0
448,-475,0,0,0,0,0,0,0,0,0,-1,1672,1499,0,0
455,-475,0,0,0,0,0,0,0,0,0,-1,1679,1499,0,0
462,-475,12.6372,0.275391,0,0,0,0,0,0,0,-1,1686,1499,12.6372,-0.27536
469,-475,15.6437,2.28296,0,0,0,0,0,0,0,-1,1693,1499,15.6437,-2.28293
476,-475,15.3302,2.71436,0,0,0,0,0,0,0,-1,1700,1499,15.3303,-2.7143
483,-475,10.7461,5.91479,0,0,0,0,0,0,0,-1,1707,1499,10.7461,-5.91476
490,-475,11.9305,4.4364,0,0,0,0,0,0,0,-1,1714,1499,11.9305,-4.43644
497,-475,15.3451,4.3479,0,0,0,0,0,0,0,-1,1721,1499,15.3451,-4.34789
504,-475,16.9646,7.71265,0,0,0,0,0,0,0,-1,1728,1499,16.9646,-7.71265
511,-475,18.941,12.7572,0,0,0,0,0,0,0,-1,1735,1499,18.941,-12.7572
518,-475,17.0021,13.8564,0,0,0,0,0,0,0,-1,1742,1499,17.0021,-13.8564
525,-475,17.5637,15.2103,0,0,0,0,0,0,0,-1,1749,1499,17.5637,-15.2103
532,-475,20.8623,20.8413,0,0,0,0,0,0,0,-1,1756,1499,20.8623,-20.8413
539,-475,20.5494,20.8519,0,0,0,0,0,0,0,-1,1763,1499,20.5494,-20.852
546,-475,20.4524,19.8799,0,0,0,0,0,0,0,-1,1770,1499,20.4524,-19.8798
553,-475,29.183,29.3054,0,0,0,0,0,0,0,-1,1777,1499,29.183,-29.3054
560,-475,29.2932,28.5056,0.0078489,0.0030654,-0.00274338,0.00909675,0.00181756,-0.426884,0.00555859,0.0320814,1784,1499,29.2932,-28.5056
567,-475,29.4624,27.6527,0.00609807,0.00201121,-0.00190746,0.00684999,0.00125929,-0.375498,0.00421015,0.0167557,1791,1499,29.4623,-27.6527
574,-475,29.4178,26.9176,0.0048615,0.0014882,-0.00154404,0.00546151,0.000888185,-0.370642,0.00338402,0.0154183,1798,1499,29.4178,-26.9176
581,-475,29.4075,26.2266,0.00387067,0.00116109,-0.00130037,0.00439376,0.000638009,-0.382452,0.00274136,0.0120767,1805,1499,29.4075,-26.2266
588,-475,29.3705,25.5026,0.00315479,0.000942292,-0.00115513,0.00364795,0.000449134,-0.403504,0.00229694,0.0102248,1812,1499,29.3704,-25.5025
595,-475,29.3326,24.7833,0.00273908,0.000746372,-0.00104216,0.00318454,0.000300914,-0.403933,0.00203017,0.0128922,1819,1499,29.3326,-24.7833
602,-475,29.2877,24.0443,0.00247188,0.000612318,-0.000979289,0.00289247,0.000191729,-0.405662,0.00186769,0.0141958,1826,1499,29.2878,-24.0443
609,-475,29.2406,23.3081,0.00236598,0.000544013,-0.000898872,0.00273478,0.000175206,-0.389353,0.00176768,0.0125577,1833,1499,29.2406,-23.3081
616,-475,29.1967,22.601,0.00245798,0.000431923,-0.000767289,0.00271576,0.000174141,-0.324117,0.00175534,0.0121093,1840,1499,29.1967,-22.601
623,-475,29.198,21.8381,0.00273035,0.000146913,-0.000501719,0.00282437,5.28975e-05,-0.185238,0.00186553,0.0115168,1847,1499,29.1979,-21.8381
630,-475,29.1788,21.0942,0.00305538,-0.000195075,-9.93861e-05,0.00305842,-0.000198111,-0.030538,0.00210809,0.0141336,1854,1499,29.1788,-21.0943
637,-475,29.1202,20.4265,0.0034951,-0.000589007,0.000311233,0.00351868,-0.000612589,0.0756239,0.0025744,0.0256309,1861,1499,29.1202,-20.4265
644,-475,29.0127,19.7163,0,0,0,0,0,0,0,-1,1868,1499,29.0127,-19.7164
651,-475,28.8864,18.8949,0,0,0,0,0,0,0,-1,1875,1499,28.8863,-18.8949
658,-475,14.6708,8.80322,0,0,0,0,0,0,0,-1,1882,1499,14.6708,-8.8032
665,-475,9.33435,5.43335,0,0,0,0,0,0,0,-1,1889,1499,9.33439,-5.43332
672,-475,9.38635,1.10474,0,0,0,0,0,0,0,-1,1896,1499,9.38629,-1.10475
679,-475,12.2594,1.31079,0,0,0,0,0,0,0,-1,1903,1499,12.2594,-1.31077
686,-475,0,0,0,0,0,0,0,0,0,-1,1910,1499,0,0
693,-475,0,0,0,0,0,0,0,0,0,-1,1917,1499,0,0
700,-475,0,0,0,0,0,0,0,0,0,-1,1924,1499,0,0
707,-475,0,0,0,0,0,0,0,0,0,-1,1931,1499,0,0
714,-475,0,0,0,0,0,0,0,0,0,-1,1938,1499,0,0
721,-475,0,0,0,0,0,0,0,0,0,-1,1945,1499,0,0
728,-475,0,0,0,0,0,0,0,0,0,-1,1952,1499,0,0
735,-475,0,0,0,0,0,0,0,0,0,-1,1959,1499,0,0
742,-475,0,0,0,0,0,0,0,0,0,-1,1966,1499,0,0
749,-475,0,0,0,0,0,0,0,0,0,-1,1973,1499,0,0
756,-475,0,0,0,0,0,0,0,0,0,-1,1980,1499,0,0
763,-475,0,0,0,0,0,0,0,0,0,-1,1987,1499,0,0
770,-475,0,0,0,0,0,0,0,0,0,-1,1994,1499,0,0
777,-475,0,0,0,0,0,0,0,0,0,-1,2001,1499,0,0
784,-475,0,0,0,0,0,0,0,0,0,-1,2008,1499,0,0
791,-475,0,0,0,0,0,0,0,0,0,-1,2015,1499,0,0
798,-475,0,0,0,0,0,0,0,0,0,-1,2022,1499,0,0
805,-475,0,0,0,0,0,0,0,0,0,-1,2029,1499,0,0
812,-475,0,0,0,0,0,0,0,0,0,-1,2036,1499,0,0
-700,-482,0,0,0,0,0,0,0,0,0,-1,524,1506,0,0
-693,-482,0,0,0,0,0,0,0,0,0,-1,531,1506,0,0
-686,-482,0,0,0,0,0,0,0,0,0,-1,538,1506,0,0
-679,-482,0,0,0,0,0,0,0,0,0,-1,545,1506,0,0
-672,-482,0,0,0,0,0,0,0,0,0,-1,552,1506,0,0
-665,-482,0,0,0,0,0,0,0,0,0,-1,559,1506,0,0
-658,-482,0,0,0,0,0,0,0,0,0,-1,566,1506,0,0
-651,-482,0,0,0,0,0,0,0,0,0,-1,573,1506,0,0
-644,-482,0,0,0,0,0,0,0,0,0,-1,580,1506,0,0
-637,-482,0,0,0,0,0,0,0,0,0,-1,587,1506,0,0
-630,-482,0,0,0,0,0,0,0,0,0,-1,594,1506,0,0
-623,-482,0,0,0,0,0,0,0,0,0,-1,601,1506,0,0
-616,-482,0,0,0,0,0,0,0,0,0,-1,608,1506,0,0
-609,-482,0,0,0,0,0,0,0,0,0,-1,615,1506,0,0
-602,-482,0,0,0,0,0,0,0,0,0,-1,622,1506,0,0
-595,-482,0,0,0,0,0,0,0,0,0,-1,629,1506,0,0
-588,-482,0,0,0,0,0,0,0,0,0,-1,636,1506,0,0
-581,-482,0,0,0,0,0,0,0,0,0,-1,643,1506,0,0
-574,-482,0,0,0,0,0,0,0,0,0,-1,650,1506,0,0
-567,-482,0,0,0,0,0,0,0,0,0,-1,657,1506,0,0
-560,-482,0,0,0,0,0,0,0,0,0,-1,664,1506,0,0
-553,-482,-9.06055,9.34314,0,0,0,0,0,0,0,-1,671,1506,-9.06056,-9.34312
-546,-482,-4.08624,8.34241,0,0,0,0,0,0,0,-1,678,1506,-4.08624,-8.3424
-539,-482,-4.29877,2.73499,0,0,0,0,0,0,0,-1,685,1506,-4.29879,-2.73494
-532,-482,-3.63611,4.23987,0,0,0,0,0,0,0,-1,692,1506,-3.63609,-4.23983
-525,-482,-6.19116,5.24927,0,0,0,0,0,0,0,-1,699,1506,-6.19117,-5.24927
-518,-482,-5.92957,6.39807,0,0,0,0,0,0,0,-1,706,1506,-5.92958,-6.39806
-511,-482,-7.74634,11.9137,0,0,0,0,0,0,0,-1,713,1506,-7.74633,-11.9137
-504,-482,-6.42358,13.4211,0,0,0,0,0,0,0,-1,720,1506,-6.42356,-13.4212
-497,-482,-8.86163,17.7108,0,0,0,0,0,0,0,-1,727,1506,-8.86163,-17.7109
-490,-482,-10.8685,21.2496,0,0,0,0,0,0,0,-1,734,1506,-10.8685,-21.2496
-483,-482,-10.8596,22.0239,0.0024798,0.000448783,0.00259545,0.00425133,-0.00132275,0.598921,0.003363,0.0121671,741,1506,-10.8596,-22.0239
-476,-482,-10.8869,22.8009,0.00187502,-0.000127226,0.00165051,0.00280429,-0.0010565,0.512786,0.00230391,0.0109639,748,1506,-10.8869,-22.8009
-469,-482,-10.9308,23.5865,0.00154854,-0.00018725,0.00121572,0.00217437,-0.000813084,0.475404,0.0017835,0.0135597,755,1506,-10.9308,-23.5866
-462,-482,-10.9454,24.3118,0.00144447,0.000164426,0.00109879,0.00207605,-0.000467151,0.521679,0.00156319,0.0140925,762,1506,-10.9454,-24.3118
-455,-482,-10.9702,25.0164,0.00156263,0.000819907,0.00127393,0.00251822,-0.000135685,0.643574,0.00172582,0.0132551,769,1506,-10.9702,-25.0164
-448,-482,-11.0284,25.8132,0.00196217,0.00190509,0.00180714,0.00374099,0.000126267,0.777501,0.00245299,0.0133233,776,1506,-11.0285,-25.8133
-441,-482,-11.1001,26.568,0.00254956,0.00321658,0.00257277,0.00547736,0.000288774,0.849854,0.00355922,0.0134691,783,1506,-11.1001,-26.5679
-434,-482,-11.121,27.3281,0.00337476,0.00479303,0.00359451,0.00774769,0.000420103,0.882789,0.00503094,0.0166995,790,1506,-11.121,-27.3282
-427,-482,-11.153,28.1123,0.00450358,0.00673526,0.00490679,0.0106515,0.00058736,0.897201,0.00691353,0.0215674,797,1506,-11.153,-28.1123
-420,-482,-11.2144,29.1084,0,0,0,0,0,0,0,-1,804,1506,-11.2144,-29.1084
-413,-482,-6.56415,22.3163,0,0,0,0,0,0,0,-1,811,1506,-6.56417,-22.3163
-406,-482,-2.51373,12.7556,0,0,0,0,0,0,0,-1,818,1506,-2.51376,-12.7556
-399,-482,-1.3822,9.22595,0,0,0,0,0,0,0,-1,825,1506,-1.38221,-9.22598
-392,-482,-1.06836,9.22729,0,0,0,0,0,0,0,-1,832,1506,-1.06835,-9.2273
-385,-482,0.0647583,8.90649,0,0,0,0,0,0,0,-1,839,1506,0.0647778,-8.90644
-378,-482,0.215698,5.96948,0,0,0,0,0,0,0,-1,846,1506,0.215681,-5.9695
-371,-482,-0.10907,8.10437,0,0,0,0,0,0,0,-1,853,1506,-0.109063,-8.10433
-364,-482,-0.154968,10.5032,0,0,0,0,0,0,0,-1,860,1506,-0.154976,-10.5032
-357,-482,2.14807,4.60144,0,0,0,0,0,0,0,-1,867,1506,2.14807,-4.60144
-350,-482,-7.5813,-1.45935,0,0,0,0,0,0,0,-1,874,1506,-7.58133,1.45937
-343,-482,-5.80902,1.81226,0,0,0,0,0,0,0,-1,881,1506,-5.80903,-1.81221
-336,-482,2.52826,-0.390503,0,0,0,0,0,0,0,-1,888,1506,2.52826,0.390456
-329,-482,0,0,0,0,0,0,0,0,0,-1,895,1506,0,0
-322,-482,0,0,0,0,0,0,0,0,0,-1,902,1506,0,0
-315,-482,0,0,0,0,0,0,0,0,0,-1,909,1506,0,0
-308,-482,0,0,0,0,0,0,0,0,0,-1,916,1506,0,0
-301,-482,0,0,0,0,0,0,0,0,0,-1,923,1506,0,0
-294,-482,0,0,0,0,0,0,0,0,0,-1,930,1506,0,0
-287,-482,0,0,0,0,0,0,0,0,0,-1,937,1506,0,0
-280,-482,0,0,0,0,0,0,0,0,0,-1,944,1506,0,0
-273,-482,0,0,0,0,0,0,0,0,0,-1,951,1506,0,0
-266,-482,0,0,0,0,0,0,0,0,0,-1,958,1506,0,0
-259,-482,0,0,0,0,0,0,0,0,0,-1,965,1506,0,0
-252,-482,0,0,0,0,0,0,0,0,0,-1,972,1506,0,0
-245,-482,0,0,0,0,0,0,0,0,0,-1,979,1506,0,0
-238,-482,0,0,0,0,0,0,0,0,0,-1,986,1506,0,0
-231,-482,0,0,0,0,0,0,0,0,0,-1,993,1506,0,0
-224,-482,0,0,0,0,0,0,0,0,0,-1,1000,1506,0,0
-217,-482,0,0,0,0,0,0,0,0,0,-1,1007,1506,0,0
-210,-482,0,0,0,0,0,0,0,0,0,-1,1014,1506,0,0
-203,-482,0,0,0,0,0,0,0,0,0,-1,1021,1506,0,0
-196,-482,0,0,0,0,0,0,0,0,0,-1,1028,1506,0,0
-189,-482,0,0,0,0,0,0,0,0,0,-1,1035,1506,0,0
-182,-482,0,0,0,0,0,0,0,0,0,-1,1042,1506,0,0
-175,-482,0,0,0,0,0,0,0,0,0,-1,1049,1506,0,0
-168,-482,0,0,0,0,0,0,0,0,0,-1,1056,1506,0,0
-161,-482,0,0,0,0,0,0,0,0,0,-1,1063,1506,0,0
-154,-482,0,0,0,0,0,0,0,0,0,-1,1070,1506,0,0
-147,-482,0,0,0,0,0,0,0,0,0,-1,1077,1506,0,0
-140,-482,0,0,0,0,0,0,0,0,0,-1,1084,1506,0,0
-133,-482,0,0,0,0,0,0,0,0,0,-1,1091,1506,0,0
-126,-482,0,0,0,0,0,0,0,0,0,-1,1098,1506,0,0
-119,-482,0,0,0,0,0,0,0,0,0,-1,1105,1506,0,0
-112,-482,0,0,0,0,0,0,0,0,0,-1,1112,1506,0,0
-105,-482,0,0,0,0,0,0,0,0,0,-1,1119,1506,0,0
-98,-482,0,0,0,0,0,0,0,0,0,-1,1126,1506,0,0
-91,-482,0,0,0,0,0,0,0,0,0,-1,1133,1506,0,0
-84,-482,0,0,0,0,0,0,0,0,0,-1,1140,1506,0,0
-77,-482,0,0,0,0,0,0,0,0,0,-1,1147,1506,0,0
-70,-482,0,0,0,0,0,0,0,0,0,-1,1154,1506,0,0
-63,-482,0,0,0,0,0,0,0,0,0,-1,1161,1506,0,0
-56,-482,0,0,0,0,0,0,0,0,0,-1,1168,1506,0,0
-49,-482,0,0,0,0,0,0,0,0,0,-1,1175,1506,0,0
-42,-482,0,0,0,0,0,0,0,0,0,-1,1182,1506,0,0
-35,-482,0,0,0,0,0,0,0,0,0,-1,1189,1506,0,0
-28,-482,0,0,0,0,0,0,0,0,0,-1,1196,1506,0,0
-21,-482,0,0,0,0,0,0,0,0,0,-1,1203,1506,0,0
-14,-482,0,0,0,0,0,0,0,0,0,-1,1210,1506,0,0
-7,-482,0,0,0,0,0,0,0,0,0,-1,1217,1506,0,0
0,-482,0,0,0,0,0,0,0,0,0,-1,1224,1506,0,0
7,-482,0,0,0,0,0,0,0,0,0,-1,1231,1506,0,0
14,-482,0,0,0,0,0,0,0,0,0,-1,1238,1506,0,0
21,-482,0,0,0,0,0,0,0,0,0,-1,1245,1506,0,0
28,-482,0,0,0,0,0,0,0,0,0,-1,1252,1506,0,0
35,-482,0,0,0,0,0,0,0,0,0,-1,1259,1506,0,0
42,-482,0,0,0,0,0,0,0,0,0,-1,1266,1506,0,0
49,-482,0,0,0,0,0,0,0,0,0,-1,1273,1506,0,0
56,-482,0,0,0,0,0,0,0,0,0,-1,1280,1506,0,0
63,-482,0,0,0,0,0,0,0,0,0,-1,1287,1506,0,0
70,-482,0,0,0,0,0,0,0,0,0,-1,1294,1506,0,0
77,-482,0,0,0,0,0,0,0,0,0,-1,1301,1506,0,0
84,-482,0,0,0,0,0,0,0,0,0,-1,1308,1506,0,0
91,-482,0,0,0,0,0,0,0,0,0,-1,1315,1506,0,0
98,-482,0,0,0,0,0,0,0,0,0,-1,1322,1506,0,0
105,-482,0,0,0,0,0,0,0,0,0,-1,1329,1506,0,0
112,-482,0,0,0,0,0,0,0,0,0,-1,1336,1506,0,0
119,-482,0,0,0,0,0,0,0,0,0,-1,1343,1506,0,0
126,-482,0,0,0,0,0,0,0,0,0,-1,1350,1506,0,0
133,-482,0,0,0,0,0,0,0,0,0,-1,1357,1506,0,0
140,-482,0,0,0,0,0,0,0,0,0,-1,1364,1506,0,0
147,-482,0,0,0,0,0,0,0,0,0,-1,1371,1506,0,0
154,-482,0,0,0,0,0,0,0,0,0,-1,1378,1506,0,0
161,-482,0,0,0,0,0,0,0,0,0,-1,1385,1506,0,0
168,-482,0,0,0,0,0,0,0,0,0,-1,1392,1506,0,0
175,-482,0,0,0,0,0,0,0,0,0,-1,1399,1506,0,0
182,-482,0,0,0,0,0,0,0,0,0,-1,1406,1506,0,0
189,-482,0,0,0,0,0,0,0,0,0,-1,1413,1506,0,0
196,-482,0,0,0,0,0,0,0,0,0,-1,1420,1506,0,0
203,-482,0,0,0,0,0,0,0,0,0,-1,1427,1506,0,0
210,-482,0,0,0,0,0,0,0,0,0,-1,1434,1506,0,0
217,-482,0,0,0,0,0,0,0,0,0,-1,1441,1506,0,0
224,-482,0,0,0,0,0,0,0,0,0,-1,1448,1506,0,0
231,-482,0,0,0,0,0,0,0,0,0,-1,1455,1506,0,0
238,-482,0,0,0,0,0,0,0,0,0,-1,1462,1506,0,0
245,-482,0,0,0,0,0,0,0,0,0,-1,1469,1506,0,0
252,-482,0,0,0,0,0,0,0,0,0,-1,1476,1506,0,0
259,-482,0,0,0,0,0,0,0,0,0,-1,1483,1506,0,0
266,-482,0,0,0,0,0,0,0,0,0,-1,1490,1506,0,0
273,-482,0,0,0,0,0,0,0,0,0,-1,1497,1506,0,0
280,-482,0,0,0,0,0,0,0,0,0,-1,1504,1506,0,0
287,-482,0,0,0,0,0,0,0,0,0,-1,1511,1506,0,0
294,-482,0,0,0,0,0,0,0,0,0,-1,1518,1506,0,0
301,-482,0,0,0,0,0,0,0,0,0,-1,1525,1506,0,0
308,-482,0,0,0,0,0,0,0,0,0,-1,1532,1506,0,0
315,-482,0,0,0,0,0,0,0,0,0,-1,1539,1506,0,0
322,-482,0,0,0,0,0,0,0,0,0,-1,1546,1506,0,0
329,-482,0,0,0,0,0,0,0,0,0,-1,1553,1506,0,0
336,-482,0,0,0,0,0,0,0,0,0,-1,1560,1506,0,0
343,-482,0,0,0,0,0,0,0,0,0,-1,1567,1506,0,0
350,-482,0,0,0,0,0,0,0,0,0,-1,1574,1506,0,0
357,-482,0,0,0,0,0,0,0,0,0,-1,1581,1506,0,0
364,-482,0,0,0,0,0,0,0,0,0,-1,1588,1506,0,0
371,-482,0,0,0,0,0,0,0,0,0,-1,1595,1506,0,0
378,-482,0,0,0,0,0,0,0,0,0,-1,1602,1506,0,0
385,-482,0,0,0,0,0,0,0,0,0,-1,1609,1506,0,0
392,-482,0,0,0,0,0,0,0,0,0,-1,1616,1506,0,0
399,-482,0,0,0,0,0,0,0,0,0,-1,1623,1506,0,0
406,-482,0,0,0,0,0,0,0,0,0,-1,1630,1506,0,0
413,-482,0,0,0,0,0,0,0,0,0,-1,1637,1506,0,0
420,-482,0,0,0,0,0,0,0,0,0,-1,1644,1506,0,0
427,-482,0,0,0,0,0,0,0,0,0,-1,1651,1506,0,0
434,-482,0,0,0,0,0,0,0,0,0,-1,1658,1506,0,0
441,-482,0,0,0,0,0,0,0,0,0,-1,1665,1506,0,0
448,-482,4.24146,1.55383,0,0,0,0,0,0,0,-1,1672,1506,4.24149,-1.55381
455,-482,12.4122,1.09729,0,0,0,0,0,0,0,-1,1679,1506,12.4122,-1.09734
462,-482,15.0673,3.13135,0,0,0,0,0,0,0,-1,1686,1506,15.0672,-3.13134
469,-482,15.3793,3.46301,0,0,0,0,0,0,0,-1,1693,1506,15.3793,-3.46307
476,-482,8.69751,9.18738,0,0,0,0,0,0,0,-1,1700,1506,8.69753,-9.18739
483,-482,10.0902,7.17432,0,0,0,0,0,0,0,-1,1707,1506,10.0902,-7.1743
490,-482,11.6289,5.4928,0,0,0,0,0,0,0,-1,1714,1506,11.6289,-5.49283
497,-482,15.9539,7.40222,0,0,0,0,0,0,0,-1,1721,1506,15.9538,-7.40219
504,-482,20.4233,12.006,0,0,0,0,0,0,0,-1,1728,1506,20.4233,-12.006
511,-482,18.4937,12.9175,0,0,0,0,0,0,0,-1,1735,1506,18.4936,-12.9174
518,-482,16.6002,13.9679,0,0,0,0,0,0,0,-1,1742,1506,16.6003,-13.9679
525,-482,18.495,15.9618,0,0,0,0,0,0,0,-1,1749,1506,18.495,-15.9618
532,-482,19.9375,21.0775,0,0,0,0,0,0,0,-1,1756,1506,19.9375,-21.0775
539,-482,20.2291,20.5577,0,0,0,0,0,0,0,-1,1763,1506,20.2291,-20.5578
546,-482,28.6594,30.2426,0,0,0,0,0,0,0,-1,1770,1506,28.6595,-30.2425
553,-482,28.5803,29.2148,0,0,0,0,0,0,0,-1,1777,1506,28.5803,-29.2149
560,-482,28.6893,28.4113,0.00667632,0.00301027,-0.00265522,0.00806978,0.00161681,-0.483289,0.00493009,0.0172694,1784,1506,28.6894,-28.4112
567,-482,28.7632,27.6523,0.00524747,0.00203181,-0.00188356,0.00611611,0.00116316,-0.432105,0.0037503,0.015792,1791,1506,28.7631,-27.6524
574,-482,28.7224,26.9832,0.00424645,0.00150044,-0.00152549,0.00492582,0.000821066,-0.418979,0.00304729,0.0149308,1798,1506,28.7224,-26.9832
581,-482,28.683,26.2743,0.00344428,0.0011706,-0.00129038,0.00402717,0.000587711,-0.424285,0.0025119,0.0102736,1805,1506,28.6829,-26.2743
588,-482,28.6422,25.5347,0.00290948,0.000974281,-0.00118181,0.00346928,0.000414488,-0.442365,0.00218782,0.0105543,1812,1506,28.6423,-25.5347
595,-482,28.6074,24.7892,0.00267784,0.000825984,-0.00113019,0.00321296,0.00029086,-0.442208,0.00205191,0.018548,1819,1506,28.6075,-24.7892
602,-482,28.5702,24.0555,0.00257285,0.000783706,-0.00115574,0.00313978,0.000216771,-0.456049,0.0020248,0.0232311,1826,1506,28.5702,-24.0556
609,-482,28.5172,23.3396,0.00260643,0.000795356,-0.00115797,0.00317089,0.000230898,-0.453562,0.00204132,0.0177743,1833,1506,28.5172,-23.3396
616,-482,28.4663,22.6346,0.00289943,0.000675429,-0.00105512,0.00332035,0.000254516,-0.379579,0.00213379,0.0125007,1840,1506,28.4663,-22.6346
623,-482,28.4441,21.891,0.00334435,0.000382081,-0.000776633,0.00353561,0.000190817,-0.241469,0.00229612,0.018562,1847,1506,28.4441,-21.891
630,-482,28.3938,21.1838,0.00373513,-1.77441e-06,-0.000284849,0.00375671,-2.33627e-05,-0.0756436,0.0025123,0.040247,1854,1506,28.3938,-21.1839
637,-482,28.4269,20.5118,0,0,0,0,0,0,0,-1,1861,1506,28.4269,-20.5119
644,-482,27.8639,19.6259,0,0,0,0,0,0,0,-1,1868,1506,27.8639,-19.6259
651,-482,4.03845,7.05273,0,0,0,0,0,0,0,-1,1875,1506,4.03843,-7.05279
658,-482,10.0278,5.87903,0,0,0,0,0,0,0,-1,1882,1506,10.0279,-5.87902
665,-482,8.15198,3.22229,0,0,0,0,0,0,0,-1,1889,1506,8.15199,-3.22232
672,-482,9.87415,1.3147,0,0,0,0,0,0,0,-1,1896,1506,9.87416,-1.31473
679,-482,0,0,0,0,0,0,0,0,0,-1,1903,1506,0,0
686,-482,0,0,0,0,0,0,0,0,0,-1,1910,1506,0,0
693,-482,0,0,0,0,0,0,0,0,0,-1,1917,1506,0,0
700,-482,0,0,0,0,0,0,0,0,0,-1,1924,1506,0,0
707,-482,0,0,0,0,0,0,0,0,0,-1,1931,1506,0,0
714,-482,0,0,0,0,0,0,0,0,0,-1,1938,1506,0,0
721,-482,0,0,0,0,0,0,0,0,0,-1,1945,1506,0,0
728,-482,0,0,0,0,0,0,0,0,0,-1,1952,1506,0,0
735,-482,0,0,0,0,0,0,0,0,0,-1,1959,1506,0,0
742,-482,0,0,0,0,0,0,0,0,0,-1,1966,1506,0,0
749,-482,0,0,0,0,0,0,0,0,0,-1,1973,1506,0,0
756,-482,0,0,0,0,0,0,0,0,0,-1,1980,1506,0,0
763,-482,0,0,0,0,0,0,0,0,0,-1,1987,1506,0,0
770,-482,0,0,0,0,0,0,0,0,0,-1,1994,1506,0,0
777,-482,0,0,0,0,0,0,0,0,0,-1,2001,1506,0,0
784,-482,0,0,0,0,0,0,0,0,0,-1,2008,1506,0,0
791,-482,0,0,0,0,0,0,0,0,0,-1,2015,1506,0,0
798,-482,0,0,0,0,0,0,0,0,0,-1,2022,1506,0,0
805,-482,0,0,0,0,0,0,0,0,0,-1,2029,1506,0,0
812,-482,0,0,0,0,0,0,0,0,0,-1,2036,1506,0,0
-700,-489,0,0,0,0,0,0,0,0,0,-1,524,1513,0,0
-693,-489,0,0,0,0,0,0,0,0,0,-1,531,1513,0,0
-686,-489,0,0,0,0,0,0,0,0,0,-1,538,1513,0,0
-679,-489,0,0,0,0,0,0,0,0,0,-1,545,1513,0,0
-672,-489,0,0,0,0,0,0,0,0,0,-1,552,1513,0,0
-665,-489,0,0,0,0,0,0,0,0,0,-1,559,1513,0,0
-658,-489,0,0,0,0,0,0,0,0,0,-1,566,1513,0,0
-651,-489,0,0,0,0,0,0,0,0,0,-1,573,1513,0,0
-644,-489,0,0,0,0,0,0,0,0,0,-1,580,1513,0,0
-637,-489,0,0,0,0,0,0,0,0,0,-1,587,1513,0,0
-630,-489,0,0,0,0,0,0,0,0,0,-1,594,1513,0,0
-623,-489,0,0,0,0,0,0,0,0,0,-1,601,1513,0,0
-616,-489,0,0,0,0,0,0,0,0,0,-1,608,1513,0,0
-609,-489,0,0,0,0,0,0,0,0,0,-1,615,1513,0,0
-602,-489,0,0,0,0,0,0,0,0,0,-1,622,1513,0,0
-595,-489,0,0,0,0,0,0,0,0,0,-1,629,1513,0,0
-588,-489,0,0,0,0,0,0,0,0,0,-1,636,1513,0,0
-581,-489,0,0,0,0,0,0,0,0,0,-1,643,1513,0,0
-574,-489,0,0,0,0,0,0,0,0,0,-1,650,1513,0,0
-567,-489,0,0,0,0,0,0,0,0,0,-1,657,1513,0,0
-560,-489,0,0,0,0,0,0,0,0,0,-1,664,1513,0,0
-553,-489,-9.42206,8.5116,0,0,0,0,0,0,0,-1,671,1513,-9.42205,-8.51158
-546,-489,-7.80951,8.18506,0,0,0,0,0,0,0,-1,678,1513,-7.8095,-8.18503
-539,-489,-3.06879,2.82349,0,0,0,0,0,0,0,-1,685,1513,-3.06881,-2.82354
-532,-489,-3.14215,2.5835,0,0,0,0,0,0,0,-1,692,1513,-3.14213,-2.58353
-525,-489,-2.604,4.06274,0,0,0,0,0,0,0,-1,699,1513,-2.60399,-4.06274
-518,-489,-5.43774,7.48059,0,0,0,0,0,0,0,-1,706,1513,-5.43777,-7.48058
-511,-489,-7.52856,10.951,0,0,0,0,0,0,0,-1,713,1513,-7.52857,-10.951
-504,-489,-7.17352,12.8508,0,0,0,0,0,0,0,-1,720,1513,-7.17352,-12.8508
-497,-489,-5.51678,14.9254,0,0,0,0,0,0,0,-1,727,1513,-5.51681,-14.9254
-490,-489,-10.2339,21.0446,0,0,0,0,0,0,0,-1,734,1513,-10.2339,-21.0446
-483,-489,-10.1511,21.9088,0.00273426,-0.000747462,0.00257274,0.00409978,-0.00211298,0.487955,0.00364756,0.0328762,741,1513,-10.1511,-21.9088
-476,-489,-10.1517,22.8131,0.00199326,-0.00126155,0.00150272,0.00258095,-0.00184923,0.372793,0.00256937,0.010756,748,1513,-10.1517,-22.8132
-469,-489,-10.19,23.5953,0.00156128,-0.00126413,0.00101246,0.00188662,-0.00158947,0.310915,0.00200937,0.0107243,755,1513,-10.19,-23.5954
-462,-489,-10.2085,24.318,0.00135245,-0.000807924,0.000849897,0.00164672,-0.00110219,0.333321,0.00159743,0.0161141,762,1513,-10.2085,-24.318
-455,-489,-10.2232,25.0502,0.00137753,-7.03995e-05,0.000969505,0.00186355,-0.00055642,0.464693,0.00146354,0.0201817,769,1513,-10.2232,-25.0502
-448,-489,-10.2949,25.797,0.00166807,0.00101876,0.00140704,0.00278742,-0.000100598,0.672014,0.00189271,0.0174517,776,1513,-10.2949,-25.797
-441,-489,-10.3431,26.5974,0.00214002,0.00229835,0.00206358,0.00428428,0.00015409,0.80457,0.00280623,0.0148663,783,1513,-10.3431,-26.5974
-434,-489,-10.3994,27.3711,0.00282656,0.00379028,0.00293717,0.00628486,0.000331984,0.866701,0.00408375,0.0184839,790,1513,-10.3993,-27.3711
-427,-489,-10.4543,28.1166,0.00376007,0.00548294,0.00401081,0.00872378,0.00051923,0.89118,0.00565074,0.0206336,797,1513,-10.4543,-28.1165
-420,-489,-10.4945,29.021,0.00488278,0.00727069,0.00524695,0.0114578,0.000695656,0.897269,0.00741754,0.0276504,804,1513,-10.4945,-29.0209
-413,-489,-10.4744,30.0288,0,0,0,0,0,0,0,-1,811,1513,-10.4743,-30.0288
-406,-489,-3.10559,15.8143,0,0,0,0,0,0,0,-1,818,1513,-3.10556,-15.8143
-399,-489,-1.41241,9.10718,0,0,0,0,0,0,0,-1,825,1513,-1.41244,-9.10722
-392,-489,-1.0368,9.30469,0,0,0,0,0,0,0,-1,832,1513,-1.03682,-9.30466
-385,-489,-1.75165,10.6559,0,0,0,0,0,0,0,-1,839,1513,-1.75165,-10.6559
-378,-489,-0.401428,9.87048,0,0,0,0,0,0,0,-1,846,1513,-0.401415,-9.87047
-371,-489,-1.11633,10.6606,0,0,0,0,0,0,0,-1,853,1513,-1.11633,-10.6606
-364,-489,-0.503113,8.98486,0,0,0,0,0,0,0,-1,860,1513,-0.503097,-8.98482
-357,-489,-0.609924,10.9606,0,0,0,0,0,0,0,-1,867,1513,-0.609947,-10.9605
-350,-489,-7.94659,-0.358887,0,0,0,0,0,0,0,-1,874,1513,-7.94657,0.358912
-343,-489,-7.49323,-0.437866,0,0,0,0,0,0,0,-1,881,1513,-7.49322,0.437823
-336,-489,-7.02332,-0.53125,0,0,0,0,0,0,0,-1,888,1513,-7.0233,0.531295
-329,-489,-13.2786,4.96082,0,0,0,0,0,0,0,-1,895,1513,-13.2785,-4.96077
-322,-489,0,0,0,0,0,0,0,0,0,-1,902,1513,0,0
-315,-489,0,0,0,0,0,0,0,0,0,-1,909,1513,0,0
-308,-489,0,0,0,0,0,0,0,0,0,-1,916,1513,0,0
-301,-489,0,0,0,0,0,0,0,0,0,-1,923,1513,0,0
-294,-489,0,0,0,0,0,0,0,0,0,-1,930,1513,0,0
-287,-489,0,0,0,0,0,0,0,0,0,-1,937,1513,0,0
-280,-489,0,0,0,0,0,0,0,0,0,-1,944,1513,0,0
-273,-489,0,0,0,0,0,0,0,0,0,-1,951,1513,0,0
-266,-489,0,0,0,0,0,0,0,0,0,-1,958,1513,0,0
-259,-489,0,0,0,0,0,0,0,0,0,-1,965,1513,0,0
-252,-489,0,0,0,0,0,0,0,0,0,-1,972,1513,0,0
-245,-489,0,0,0,0,0,0,0,0,0,-1,979,1513,0,0
-238,-489,0,0,0,0,0,0,0,0,0,-1,986,1513,0,0
-231,-489,0,0,0,0,0,0,0,0,0,-1,993,1513,0,0
-224,-489,0,0,0,0,0,0,0,0,0,-1,1000,1513,0,0
-217,-489,0,0,0,0,0,0,0,0,0,-1,1007,1513,0,0
-210,-489,0,0,0,0,0,0,0,0,0,-1,1014,1513,0,0
-203,-489,0,0,0,0,0,0,0,0,0,-1,1021,1513,0,0
-196,-489,0,0,0,0,0,0,0,0,0,-1,1028,1513,0,0
-189,-489,0,0,0,0,0,0,0,0,0,-1,1035,1513,0,0
-182,-489,0,0,0,0,0,0,0,0,0,-1,1042,1513,0,0
-175,-489,0,0,0,0,0,0,0,0,0,-1,1049,1513,0,0
-168,-489,0,0,0,0,0,0,0,0,0,-1,1056,1513,0,0
-161,-489,0,0,0,0,0,0,0,0,0,-1,1063,1513,0,0
-154,-489,0,0,0,0,0,0,0,0,0,-1,1070,1513,0,0
-147,-489,0,0,0,0,0,0,0,0,0,-1,1077,1513,0,0
-140,-489,0,0,0,0,0,0,0,0,0,-1,1084,1513,0,0
-133,-489,0,0,0,0,0,0,0,0,0,-1,1091,1513,0,0
-126,-489,0,0,0,0,0,0,0,0,0,-1,1098,1513,0,0
-119,-489,0,0,0,0,0,0,0,0,0,-1,1105,1513,0,0
-112,-489,0,0,0,0,0,0,0,0,0,-1,1112,1513,0,0
-105,-489,0,0,0,0,0,0,0,0,0,-1,1119,1513,0,0
-98,-489,0,0,0,0,0,0,0,0,0,-1,1126,1513,0,0
-91,-489,0,0,0,0,0,0,0,0,0,-1,1133,1513,0,0
-84,-489,0,0,0,0,0,0,0,0,0,-1,1140,1513,0,0
-77,-489,0,0,0,0,0,0,0,0,0,-1,1147,1513,0,0
-70,-489,0,0,0,0,0,0,0,0,0,-1,1154,1513,0,0
-63,-489,0,0,0,0,0,0,0,0,0,-1,1161,1513,0,0
-56,-489,0,0,0,0,0,0,0,0,0,-1,1168,1513,0,0
-49,-489,0,0,0,0,0,0,0,0,0,-1,1175,1513,0,0
-42,-489,0,0,0,0,0,0,0,0,0,-1,1182,1513,0,0
-35,-489,0,0,0,0,0,0,0,0,0,-1,1189,1513,0,0
-28,-489,0,0,0,0,0,0,0,0,0,-1,1196,1513,0,0
-21,-489,0,0,0,0,0,0,0,0,0,-1,1203,1513,0,0
-14,-489,0,0,0,0,0,0,0,0,0,-1,1210,1513,0,0
-7,-489,0,0,0,0,0,0,0,0,0,-1,1217,1513,0,0
0,-489,0,0,0,0,0,0,0,0,0,-1,1224,1513,0,0
7,-489,0,0,0,0,0,0,0,0,0,-1,1231,1513,0,0
14,-489,0,0,0,0,0,0,0,0,0,-1,1238,1513,0,0
21,-489,0,0,0,0,0,0,0,0,0,-1,1245,1513,0,0
28,-489,0,0,0,0,0,0,0,0,0,-1,1252,1513,0,0
35,-489,0,0,0,0,0,0,0,0,0,-1,1259,1513,0,0
42,-489,0,0,0,0,0,0,0,0,0,-1,1266,1513,0,0
49,-489,0,0,0,0,0,0,0,0,0,-1,1273,1513,0,0
56,-489,0,0,0,0,0,0,0,0,0,-1,1280,1513,0,0
63,-489,0,0,0,0,0,0,0,0,0,-1,1287,1513,0,0
70,-489,0,0,0,0,0,0,0,0,0,-1,1294,1513,0,0
77,-489,0,0,0,0,0,0,0,0,0,-1,1301,1513,0,0
84,-489,0,0,0,0,0,0,0,0,0,-1,1308,1513,0,0
91,-489,0,0,0,0,0,0,0,0,0,-1,1315,1513,0,0
98,-489,0,0,0,0,0,0,0,0,0,-1,1322,1513,0,0
105,-489,0,0,0,0,0,0,0,0,0,-1,1329,1513,0,0
112,-489,0,0,0,0,0,0,0,0,0,-1,1336,1513,0,0
119,-489,0,0,0,0,0,0,0,0,0,-1,1343,1513,0,0
126,-489,0,0,0,0,0,0,0,0,0,-1,1350,1513,0,0
133,-489,0,0,0,0,0,0,0,0,0,-1,1357,1513,0,0
140,-489,0,0,0,0,0,0,0,0,0,-1,1364,1513,0,0
147,-489,0,0,0,0,0,0,0,0,0,-1,1371,1513,0,0
154,-489,0,0,0,0,0,0,0,0,0,-1,1378,1513,0,0
161,-489,0,0,0,0,0,0,0,0,0,-1,1385,1513,0,0
168,-489,0,0,0,0,0,0,0,0,0,-1,1392,1513,0,0
175,-489,0,0,0,0,0,0,0,0,0,-1,1399,1513,0,0
182,-489,0,0,0,0,0,0,0,0,0,-1,1406,1513,0,0
189,-489,0,0,0,0,0,0,0,0,0,-1,1413,1513,0,0
196,-489,0,0,0,0,0,0,0,0,0,-1,1420,1513,0,0
203,-489,0,0,0,0,0,0,0,0,0,-1,1427,1513,0,0
210,-489,0,0,0,0,0,0,0,0,0,-1,1434,1513,0,0
217,-489,0,0,0,0,0,0,0,0,0,-1,1441,1513,0,0
224,-489,0,0,0,0,0,0,0,0,0,-1,1448,1513,0,0
231,-489,0,0,0,0,0,0,0,0,0,-1,1455,1513,0,0
238,-489,0,0,0,0,0,0,0,0,0,-1,1462,1513,0,0
245,-489,0,0,0,0,0,0,0,0,0,-1,1469,1513,0,0
252,-489,0,0,0,0,0,0,0,0,0,-1,1476,1513,0,0
259,-489,0,0,0,0,0,0,0,0,0,-1,1483,1513,0,0
266,-489,0,0,0,0,0,0,0,0,0,-1,1490,1513,0,0
273,-489,0,0,0,0,0,0,0,0,0,-1,1497,1513,0,0
280,-489,0,0,0,0,0,0,0,0,0,-1,1504,1513,0,0
287,-489,0,0,0,0,0,0,0,0,0,-1,1511,1513,0,0
294,-489,0,0,0,0,0,0,0,0,0,-1,1518,1513,0,0
301,-489,0,0,0,0,0,0,0,0,0,-1,1525,1513,0,0
308,-489,0,0,0,0,0,0,0,0,0,-1,1532,1513,0,0
315,-489,0,0,0,0,0,0,0,0,0,-1,1539,1513,0,0
322,-489,0,0,0,0,0,0,0,0,0,-1,1546,1513,0,0
329,-489,0,0,0,0,0,0,0,0,0,-1,1553,1513,0,0
336,-489,0,0,0,0,0,0,0,0,0,-1,1560,1513,0,0
343,-489,0,0,0,0,0,0,0,0,0,-1,1567,1513,0,0
350,-489,0,0,0,0,0,0,0,0,0,-1,1574,1513,0,0
357,-489,0,0,0,0,0,0,0,0,0,-1,1581,1513,0,0
364,-489,0,0,0,0,0,0,0,0,0,-1,1588,1513,0,0
371,-489,0,0,0,0,0,0,0,0,0,-1,1595,1513,0,0
378,-489,0,0,0,0,0,0,0,0,0,-1,1602,1513,0,0
385,-489,0,0,0,0,0,0,0,0,0,-1,1609,1513,0,0
392,-489,0,0,0,0,0,0,0,0,0,-1,1616,1513,0,0
399,-489,0,0,0,0,0,0,0,0,0,-1,1623,1513,0,0
406,-489,0,0,0,0,0,0,0,0,0,-1,1630,1513,0,0
413,-489,0,0,0,0,0,0,0,0,0,-1,1637,1513,0,0
420,-489,0,0,0,0,0,0,0,0,0,-1,1644,1513,0,0
427,-489,0,0,0,0,0,0,0,0,0,-1,1651,1513,0,0
434,-489,0,0,0,0,0,0,0,0,0,-1,1658,1513,0,0
441,-489,11.4602,2.56787,0,0,0,0,0,0,0,-1,1665,1513,11.4602,-2.56786
448,-489,12.4425,1.72351,0,0,0,0,0,0,0,-1,1672,1513,12.4425,-1.72349
455,-489,12.5575,1.37463,0,0,0,0,0,0,0,-1,1679,1513,12.5575,-1.37469
462,-489,14.9784,3.84888,0,0,0,0,0,0,0,-1,1686,1513,14.9784,-3.84892
469,-489,15.1367,4.53101,0,0,0,0,0,0,0,-1,1693,1513,15.1368,-4.531
476,-489,15.5536,5.09338,0,0,0,0,0,0,0,-1,1700,1513,15.5536,-5.09339
483,-489,8.96912,8.37805,0,0,0,0,0,0,0,-1,1707,1513,8.96909,-8.37809
490,-489,10.5366,7.49561,0,0,0,0,0,0,0,-1,1714,1513,10.5367,-7.49558
497,-489,14.6051,11.8397,0,0,0,0,0,0,0,-1,1721,1513,14.6051,-11.8397
504,-489,16.7527,14.1735,0,0,0,0,0,0,0,-1,1728,1513,16.7527,-14.1735
511,-489,17.83,17.7993,0,0,0,0,0,0,0,-1,1735,1513,17.83,-17.7993
518,-489,16.4751,14.3682,0,0,0,0,0,0,0,-1,1742,1513,16.4751,-14.3682
525,-489,17.2606,17.4949,0,0,0,0,0,0,0,-1,1749,1513,17.2606,-17.4949
532,-489,19.397,21.0182,0,0,0,0,0,0,0,-1,1756,1513,19.397,-21.0182
539,-489,27.882,31.0701,0,0,0,0,0,0,0,-1,1763,1513,27.882,-31.0701
546,-489,28.0441,30.125,0.009014,0.00595493,-0.00510876,0.0128173,0.00215166,-0.639948,0.0079256,0.0406819,1770,1513,28.0441,-30.125
553,-489,28.0033,29.2346,0.00715719,0.00423878,-0.00361794,0.00959911,0.00179686,-0.593714,0.00589249,0.0238932,1777,1513,28.0032,-29.2346
560,-489,28.0178,28.4307,0.00565073,0.00294658,-0.00251739,0.00715617,0.00144114,-0.538958,0.00437033,0.0134565,1784,1513,28.0179,-28.4306
567,-489,28.0552,27.7224,0.00450924,0.00204133,-0.00182298,0.00547662,0.00107395,-0.487874,0.00335096,0.0155656,1791,1513,28.0552,-27.7224
574,-489,27.9913,27.0658,0.00371865,0.00149831,-0.00147642,0.00445571,0.00076124,-0.463029,0.00275205,0.0160717,1798,1513,27.9914,-27.0658
581,-489,27.976,26.3245,0.00310092,0.00115306,-0.00126048,0.0037199,0.000534078,-0.456474,0.00232247,0.0107484,1805,1513,27.976,-26.3245
588,-489,27.9335,25.584,0.00274984,0.000973899,-0.00120295,0.00335705,0.000366684,-0.467458,0.00212637,0.0131913,1812,1513,27.9335,-25.584
595,-489,27.8733,24.8856,0.00270644,0.000883414,-0.00123051,0.00332627,0.00026358,-0.466618,0.00213508,0.0208867,1819,1513,27.8732,-24.8856
602,-489,27.8336,24.182,0.00279212,0.000955975,-0.00136663,0.00352042,0.000227674,-0.489632,0.00227486,0.0277604,1826,1513,27.8337,-24.182
609,-489,27.7996,23.427,0.00301601,0.00107018,-0.00149547,0.00382719,0.000259003,-0.497009,0.00246965,0.0200583,1833,1513,27.7995,-23.427
616,-489,27.7842,22.6589,0.00360923,0.00102478,-0.00150889,0.00430361,0.000330405,-0.431297,0.00276552,0.0225308,1840,1513,27.7841,-22.659
623,-489,27.8347,21.8831,0,0,0,0,0,0,0,-1,1847,1513,27.8347,-21.883
630,-489,27.7813,21.1006,0,0,0,0,0,0,0,-1,1854,1513,27.7812,-21.1006
637,-489,17.2048,11.8091,0,0,0,0,0,0,0,-1,1861,1513,17.2048,-11.8091
644,-489,9.67578,8.45874,0,0,0,0,0,0,0,-1,1868,1513,9.67576,-8.45879
651,-489,6.13818,6.85095,0,0,0,0,0,0,0,-1,1875,1513,6.13823,-6.85097
658,-489,5.43848,7.75513,0,0,0,0,0,0,0,-1,1882,1513,5.43844,-7.75509
665,-489,5.48438,8.59912,0,0,0,0,0,0,0,-1,1889,1513,5.48434,-8.59907
672,-489,0,0,0,0,0,0,0,0,0,-1,1896,1513,0,0
679,-489,0,0,0,0,0,0,0,0,0,-1,1903,1513,0,0
686,-489,0,0,0,0,0,0,0,0,0,-1,1910,1513,0,0
693,-489,0,0,0,0,0,0,0,0,0,-1,1917,1513,0,0
700,-489,0,0,0,0,0,0,0,0,0,-1,1924,1513,0,0
707,-489,0,0,0,0,0,0,0,0,0,-1,1931,1513,0,0
714,-489,0,0,0,0,0,0,0,0,0,-1,1938,1513,0,0
721,-489,0,0,0,0,0,0,0,0,0,-1,1945,1513,0,0
728,-489,0,0,0,0,0,0,0,0,0,-1,1952,1513,0,0
735,-489,0,0,0,0,0,0,0,0,0,-1,1959,1513,0,0
742,-489,0,0,0,0,0,0,0,0,0,-1,1966,1513,0,0
749,-489,0,0,0,0,0,0,0,0,0,-1,1973,1513,0,0
756,-489,0,0,0,0,0,0,0,0,0,-1,1980,1513,0,0
763,-489,0,0,0,0,0,0,0,0,0,-1,1987,1513,0,0
770,-489,0,0,0,0,0,0,0,0,0,-1,1994,1513,0,0
777,-489,0,0,0,0,0,0,0,0,0,-1,2001,1513,0,0
784,-489,0,0,0,0,0,0,0,0,0,-1,2008,1513,0,0
791,-489,0,0,0,0,0,0,0,0,0,-1,2015,1513,0,0
798,-489,0,0,0,0,0,0,0,0,0,-1,2022,1513,0,0
805,-489,0,0,0,0,0,0,0,0,0,-1,2029,1513,0,0
812,-489,0,0,0,0,0,0,0,0,0,-1,2036,1513,0,0
-700,-496,0,0,0,0,0,0,0,0,0,-1,524,1520,0,0
-693,-496,0,0,0,0,0,0,0,0,0,-1,531,1520,0,0
-686,-496,0,0,0,0,0,0,0,0,0,-1,538,1520,0,0
-679,-496,0,0,0,0,0,0,0,0,0,-1,545,1520,0,0
-672,-496,0,0,0,0,0,0,0,0,0,-1,552,1520,0,0
-665,-496,0,0,0,0,0,0,0,0,0,-1,559,1520,0,0
-658,-496,0,0,0,0,0,0,0,0,0,-1,566,1520,0,0
-651,-496,0,0,0,0,0,0,0,0,0,-1,573,1520,0,0
-644,-496,0,0,0,0,0,0,0,0,0,-1,580,1520,0,0
-637,-496,0,0,0,0,0,0,0,0,0,-1,587,1520,0,0
-630,-496,0,0,0,0,0,0,0,0,0,-1,594,1520,0,0
-623,-496,0,0,0,0,0,0,0,0,0,-1,601,1520,0,0
-616,-496,0,0,0,0,0,0,0,0,0,-1,608,1520,0,0
-609,-496,0,0,0,0,0,0,0,0,0,-1,615,1520,0,0
-602,-496,0,0,0,0,0,0,0,0,0,-1,622,1520,0,0
-595,-496,0,0,0,0,0,0,0,0,0,-1,629,1520,0,0
-588,-496,0,0,0,0,0,0,0,0,0,-1,636,1520,0,0
-581,-496,0,0,0,0,0,0,0,0,0,-1,643,1520,0,0
-574,-496,0,0,0,0,0,0,0,0,0,-1,650,1520,0,0
-567,-496,0,0,0,0,0,0,0,0,0,-1,657,1520,0,0
-560,-496,0,0,0,0,0,0,0,0,0,-1,664,1520,0,0
-553,-496,0,0,0,0,0,0,0,0,0,-1,671,1520,0,0
-546,-496,-8.09711,7.94836,0,0,0,0,0,0,0,-1,678,1520,-8.09712,-7.94842
-539,-496,-3.20129,1.16052,0,0,0,0,0,0,0,-1,685,1520,-3.20131,-1.16054
-532,-496,-2.98279,2.62146,0,0,0,0,0,0,0,-1,692,1520,-2.98278,-2.62151
-525,-496,-2.75201,4.08032,0,0,0,0,0,0,0,-1,699,1520,-2.75201,-4.08031
-518,-496,-2.6333,5.36072,0,0,0,0,0,0,0,-1,706,1520,-2.63328,-5.36077
-511,-496,-7.92126,9.68604,0,0,0,0,0,0,0,-1,713,1520,-7.92127,-9.68598
-504,-496,-7.51044,11.6274,0,0,0,0,0,0,0,-1,720,1520,-7.51042,-11.6275
-497,-496,-5.30933,14.4291,0,0,0,0,0,0,0,-1,727,1520,-5.30932,-14.4291
-490,-496,-8.21246,19.5051,0,0,0,0,0,0,0,-1,734,1520,-8.21243,-19.5051
-483,-496,-9.50787,21.9465,0,0,0,0,0,0,0,-1,741,1520,-9.50788,-21.9465
-476,-496,-9.42322,22.8196,0.00188624,-0.00285193,0.00109078,0.00212529,-0.00309098,0.215744,0.00302877,0.0241825,748,1520,-9.42325,-22.8196
-469,-496,-9.44568,23.6272,0.00135502,-0.00271082,0.000577749,0.00143552,-0.00279133,0.138448,0.00248187,0.01092,755,1520,-9.44568,-23.6272
-462,-496,-9.48761,24.3706,0.00105624,-0.00207119,0.000402925,0.00110732,-0.00212227,0.126093,0.00189505,0.0166863,762,1520,-9.48761,-24.3706
-455,-496,-9.51624,25.1326,0.00100626,-0.00119222,0.000493929,0.00111213,-0.00129809,0.211152,0.00139292,0.0227624,769,1520,-9.51625,-25.1326
-448,-496,-9.56415,25.8955,0.00121949,-6.38972e-05,0.000863166,0.00165335,-0.000497763,0.465761,0.00130031,0.0205365,776,1520,-9.56412,-25.8955
-441,-496,-9.59467,26.6304,0.00164025,0.00122517,0.00145686,0.00290429,-3.88589e-05,0.714646,0.00194927,0.0149946,783,1520,-9.59468,-26.6304
-434,-496,-9.64514,27.4026,0.00227372,0.00266689,0.00224195,0.00472085,0.000219755,0.829128,0.0030766,0.0148402,790,1520,-9.64514,-27.4026
-427,-496,-9.6839,28.1649,0.00311669,0.00418417,0.00317009,0.00686514,0.000435722,0.8688,0.00443865,0.0195855,797,1520,-9.68393,-28.1649
-420,-496,-9.71265,28.9027,0.00414149,0.00577149,0.00424089,0.00927498,0.000637996,0.880329,0.005982,0.0198257,804,1520,-9.71264,-28.9027
-413,-496,-9.6554,29.6987,0.00557019,0.00724231,0.00568325,0.0121507,0.000661837,0.858429,0.00788909,0.0330987,811,1520,-9.65542,-29.6988
-406,-496,-9.51282,30.6808,0,0,0,0,0,0,0,-1,818,1520,-9.5128,-30.6808
-399,-496,-9.17267,31.7867,0,0,0,0,0,0,0,-1,825,1520,-9.17269,-31.7868
-392,-496,-1.49786,12.387,0,0,0,0,0,0,0,-1,832,1520,-1.49788,-12.387
-385,-496,-1.72437,11.4985,0,0,0,0,0,0,0,-1,839,1520,-1.72436,-11.4985
-378,-496,-1.45532,14.0719,0,0,0,0,0,0,0,-1,846,1520,-1.45533,-14.0719
-371,-496,0.0877075,12.5299,0,0,0,0,0,0,0,-1,853,1520,0.0876896,-12.5299
-364,-496,0.0881348,10.6422,0,0,0,0,0,0,0,-1,860,1520,0.0881368,-10.6423
-357,-496,0.323792,7.56812,0,0,0,0,0,0,0,-1,867,1520,0.323782,-7.56806
-350,-496,2.1535,7.18945,0,0,0,0,0,0,0,-1,874,1520,2.15348,-7.1894
-343,-496,-7.56244,0.335327,0,0,0,0,0,0,0,-1,881,1520,-7.56242,-0.335322
-336,-496,-3.99249,6.02222,0,0,0,0,0,0,0,-1,888,1520,-3.99246,-6.0222
-329,-496,-6.93689,-0.100342,0,0,0,0,0,0,0,-1,895,1520,-6.93686,0.1003
-322,-496,-6.17505,0.494385,0,0,0,0,0,0,0,-1,902,1520,-6.17507,-0.49437
-315,-496,-7.539,5.78638,0,0,0,0,0,0,0,-1,909,1520,-7.53898,-5.78633
-308,-496,0,0,0,0,0,0,0,0,0,-1,916,1520,0,0
-301,-496,0,0,0,0,0,0,0,0,0,-1,923,1520,0,0
-294,-496,0,0,0,0,0,0,0,0,0,-1,930,1520,0,0
-287,-496,0,0,0,0,0,0,0,0,0,-1,937,1520,0,0
-280,-496,0,0,0,0,0,0,0,0,0,-1,944,1520,0,0
-273,-496,0,0,0,0,0,0,0,0,0,-1,951,1520,0,0
-266,-496,0,0,0,0,0,0,0,0,0,-1,958,1520,0,0
-259,-496,0,0,0,0,0,0,0,0,0,-1,965,1520,0,0
-252,-496,0,0,0,0,0,0,0,0,0,-1,972,1520,0,0
-245,-496,0,0,0,0,0,0,0,0,0,-1,979,1520,0,0
-238,-496,0,0,0,0,0,0,0,0,0,-1,986,1520,0,0
-231,-496,0,0,0,0,0,0,0,0,0,-1,993,1520,0,0
-224,-496,0,0,0,0,0,0,0,0,0,-1,1000,1520,0,0
-217,-496,0,0,0,0,0,0,0,0,0,-1,1007,1520,0,0
-210,-496,0,0,0,0,0,0,0,0,0,-1,1014,1520,0,0
-203,-496,0,0,0,0,0,0,0,0,0,-1,1021,1520,0,0
-196,-496,0,0,0,0,0,0,0,0,0,-1,1028,1520,0,0
-189,-496,0,0,0,0,0,0,0,0,0,-1,1035,1520,0,0
-182,-496,0,0,0,0,0,0,0,0,0,-1,1042,1520,0,0
-175,-496,0,0,0,0,0,0,0,0,0,-1,1049,1520,0,0
-168,-496,0,0,0,0,0,0,0,0,0,-1,1056,1520,0,0
-161,-496,0,0,0,0,0,0,0,0,0,-1,1063,1520,0,0
-154,-496,0,0,0,0,0,0,0,0,0,-1,1070,1520,0,0
-147,-496,0,0,0,0,0,0,0,0,0,-1,1077,1520,0,0
-140,-496,0,0,0,0,0,0,0,0,0,-1,1084,1520,0,0
-133,-496,0,0,0,0,0,0,0,0,0,-1,1091,1520,0,0
-126,-496,0,0,0,0,0,0,0,0,0,-1,1098,1520,0,0
-119,-496,0,0,0,0,0,0,0,0,0,-1,1105,1520,0,0
-112,-496,0,0,0,0,0,0,0,0,0,-1,1112,1520,0,0
-105,-496,0,0,0,0,0,0,0,0,0,-1,1119,1520,0,0
-98,-496,0,0,0,0,0,0,0,0,0,-1,1126,1520,0,0
-91,-496,0,0,0,0,0,0,0,0,0,-1,1133,1520,0,0
-84,-496,0,0,0,0,0,0,0,0,0,-1,1140,1520,0,0
-77,-496,0,0,0,0,0,0,0,0,0,-1,1147,1520,0,0
-70,-496,0,0,0,0,0,0,0,0,0,-1,1154,1520,0,0
-63,-496,0,0,0,0,0,0,0,0,0,-1,1161,1520,0,0
-56,-496,0,0,0,0,0,0,0,0,0,-1,1168,1520,0,0
-49,-496,0,0,0,0,0,0,0,0,0,-1,1175,1520,0,0
-42,-496,0,0,0,0,0,0,0,0,0,-1,1182,1520,0,0
-35,-496,0,0,0,0,0,0,0,0,0,-1,1189,1520,0,0
-28,-496,0,0,0,0,0,0,0,0,0,-1,1196,1520,0,0
-21,-496,0,0,0,0,0,0,0,0,0,-1,1203,1520,0,0
-14,-496,0,0,0,0,0,0,0,0,0,-1,1210,1520,0,0
-7,-496,0,0,0,0,0,0,0,0,0,-1,1217,1520,0,0
0,-496,0,0,0,0,0,0,0,0,0,-1,1224,1520,0,0
7,-496,0,0,0,0,0,0,0,0,0,-1,1231,1520,0,0
14,-496,0,0,0,0,0,0,0,0,0,-1,1238,1520,0,0
21,-496,0,0,0,0,0,0,0,0,0,-1,1245,1520,0,0
28,-496,0,0,0,0,0,0,0,0,0,-1,1252,1520,0,0
35,-496,0,0,0,0,0,0,0,0,0,-1,1259,1520,0,0
42,-496,0,0,0,0,0,0,0,0,0,-1,1266,1520,0,0
49,-496,0,0,0,0,0,0,0,0,0,-1,1273,1520,0,0
56,-496,0,0,0,0,0,0,0,0,0,-1,1280,1520,0,0
63,-496,0,0,0,0,0,0,0,0,0,-1,1287,1520,0,0
70,-496,0,0,0,0,0,0,0,0,0,-1,1294,1520,0,0
77,-496,0,0,0,0,0,0,0,0,0,-1,1301,1520,0,0
84,-496,0,0,0,0,0,0,0,0,0,-1,1308,1520,0,0
91,-496,0,0,0,0,0,0,0,0,0,-1,1315,1520,0,0
98,-496,0,0,0,0,0,0,0,0,0,-1,1322,1520,0,0
105,-496,0,0,0,0,0,0,0,0,0,-1,1329,1520,0,0
112,-496,0,0,0,0,0,0,0,0,0,-1,1336,1520,0,0
119,-496,0,0,0,0,0,0,0,0,0,-1,1343,1520,0,0
126,-496,0,0,0,0,0,0,0,0,0,-1,1350,1520,0,0
133,-496,0,0,0,0,0,0,0,0,0,-1,1357,1520,0,0
140,-496,0,0,0,0,0,0,0,0,0,-1,1364,1520,0,0
147,-496,0,0,0,0,0,0,0,0,0,-1,1371,1520,0,0
154,-496,0,0,0,0,0,0,0,0,0,-1,1378,1520,0,0
161,-496,0,0,0,0,0,0,0,0,0,-1,1385,1520,0,0
168,-496,0,0,0,0,0,0,0,0,0,-1,1392,1520,0,0
175,-496,0,0,0,0,0,0,0,0,0,-1,1399,1520,0,0
182,-496,0,0,0,0,0,0,0,0,0,-1,1406,1520,0,0
189,-496,0,0,0,0,0,0,0,0,0,-1,1413,1520,0,0
196,-496,0,0,0,0,0,0,0,0,0,-1,1420,1520,0,0
203,-496,0,0,0,0,0,0,0,0,0,-1,1427,1520,0,0
210,-496,0,0,0,0,0,0,0,0,0,-1,1434,1520,0,0
217,-496,0,0,0,0,0,0,0,0,0,-1,1441,1520,0,0
224,-496,0,0,0,0,0,0,0,0,0,-1,1448,1520,0,0
231,-496,0,0,0,0,0,0,0,0,0,-1,1455,1520,0,0
238,-496,0,0,0,0,0,0,0,0,0,-1,1462,1520,0,0
245,-496,0,0,0,0,0,0,0,0,0,-1,1469,1520,0,0
252,-496,0,0,0,0,0,0,0,0,0,-1,1476,1520,0,0
259,-496,0,0,0,0,0,0,0,0,0,-1,1483,1520,0,0
266,-496,0,0,0,0,0,0,0,0,0,-1,1490,1520,0,0
273,-496,0,0,0,0,0,0,0,0,0,-1,1497,1520,0,0
280,-496,0,0,0,0,0,0,0,0,0,-1,1504,1520,0,0
287,-496,0,0,0,0,0,0,0,0,0,-1,1511,1520,0,0
294,-496,0,0,0,0,0,0,0,0,0,-1,1518,1520,0,0
301,-496,0,0,0,0,0,0,0,0,0,-1,1525,1520,0,0
308,-496,0,0,0,0,0,0,0,0,0,-1,1532,1520,0,0
315,-496,0,0,0,0,0,0,0,0,0,-1,1539,1520,0,0
322,-496,0,0,0,0,0,0,0,0,0,-1,1546,1520,0,0
329,-496,0,0,0,0,0,0,0,0,0,-1,1553,1520,0,0
336,-496,0,0,0,0,0,0,0,0,0,-1,1560,1520,0,0
343,-496,0,0,0,0,0,0,0,0,0,-1,1567,1520,0,0
350,-496,0,0,0,0,0,0,0,0,0,-1,1574,1520,0,0
357,-496,0,0,0,0,0,0,0,0,0,-1,1581,1520,0,0
364,-496,0,0,0,0,0,0,0,0,0,-1,1588,1520,0,0
371,-496,0,0,0,0,0,0,0,0,0,-1,1595,1520,0,0
378,-496,0,0,0,0,0,0,0,0,0,-1,1602,1520,0,0
385,-496,0,0,0,0,0,0,0,0,0,-1,1609,1520,0,0
392,-496,0,0,0,0,0,0,0,0,0,-1,1616,1520,0,0
399,-496,0,0,0,0,0,0,0,0,0,-1,1623,1520,0,0
406,-496,0,0,0,0,0,0,0,0,0,-1,1630,1520,0,0
413,-496,0,0,0,0,0,0,0,0,0,-1,1637,1520,0,0
420,-496,0,0,0,0,0,0,0,0,0,-1,1644,1520,0,0
427,-496,0,0,0,0,0,0,0,0,0,-1,1651,1520,0,0
434,-496,11.0457,3.37732,0,0,0,0,0,0,0,-1,1658,1520,11.0456,-3.37736
441,-496,11.788,2.75488,0,0,0,0,0,0,0,-1,1665,1520,11.7879,-2.75485
448,-496,12.2146,2.18494,0,0,0,0,0,0,0,-1,1672,1520,12.2146,-2.18489
455,-496,12.3489,1.65173,0,0,0,0,0,0,0,-1,1679,1520,12.3489,-1.65178
462,-496,12.1912,1.32361,0,0,0,0,0,0,0,-1,1686,1520,12.1911,-1.32357
469,-496,14.8138,5.77954,0,0,0,0,0,0,0,-1,1693,1520,14.8138,-5.77958
476,-496,15.2449,6.27942,0,0,0,0,0,0,0,-1,1700,1520,15.2449,-6.27936
483,-496,9.19812,6.88367,0,0,0,0,0,0,0,-1,1707,1520,9.19812,-6.88361
490,-496,10.2123,7.97144,0,0,0,0,0,0,0,-1,1714,1520,10.2122,-7.97145
497,-496,13.9297,12.2981,0,0,0,0,0,0,0,-1,1721,1520,13.9297,-12.2982
504,-496,16.3271,16.6501,0,0,0,0,0,0,0,-1,1728,1520,16.3272,-16.6502
511,-496,17.6753,18.0685,0,0,0,0,0,0,0,-1,1735,1520,17.6753,-18.0685
518,-496,17.0537,17.3118,0,0,0,0,0,0,0,-1,1742,1520,17.0538,-17.3118
525,-496,18.2721,19.3259,0,0,0,0,0,0,0,-1,1749,1520,18.2721,-19.3259
532,-496,27.4531,30.8927,0,0,0,0,0,0,0,-1,1756,1520,27.4532,-30.8926
539,-496,27.0413,30.9131,0,0,0,0,0,0,0,-1,1763,1520,27.0412,-30.9131
546,-496,27.2622,30.0149,0.0075318,0.0054498,-0.00458969,0.0111971,0.00178454,-0.673879,0.00694669,0.022505,1770,1520,27.2622,-30.0149
553,-496,27.3386,29.1917,0.00594258,0.00389941,-0.0032531,0.00833073,0.00151125,-0.633257,0.00512489,0.0152004,1777,1520,27.3387,-29.1917
560,-496,27.335,28.4829,0.00470091,0.00272463,-0.0022687,0.00618732,0.00123822,-0.580011,0.00378035,0.0147381,1784,1520,27.335,-28.4829
567,-496,27.3092,27.7687,0.00383893,0.00194432,-0.00169985,0.00483762,0.000945635,-0.531188,0.00296064,0.0126548,1791,1520,27.3092,-27.7687
574,-496,27.2845,27.0529,0.00327181,0.00144734,-0.00141361,0.00404197,0.000677175,-0.498859,0.00249969,0.012695,1798,1520,27.2845,-27.0529
581,-496,27.2471,26.3534,0.00287074,0.00114149,-0.00126483,0.00353823,0.000474001,-0.485586,0.00221777,0.013414,1805,1520,27.247,-26.3534
588,-496,27.2246,25.6084,0.00273938,0.00102576,-0.0013024,0.00344153,0.000323602,-0.494455,0.00219446,0.0167293,1812,1520,27.2247,-25.6085
595,-496,27.1517,24.9076,0.00292044,0.00104016,-0.00145161,0.00370976,0.000250844,-0.498037,0.00239394,0.0194017,1819,1520,27.1517,-24.9076
602,-496,27.1028,24.2183,0.00324848,0.00128028,-0.00174011,0.00426349,0.00026527,-0.52805,0.00275816,0.0197332,1826,1520,27.1028,-24.2182
609,-496,27.1036,23.4143,0.00370995,0.0015418,-0.00204462,0.00494011,0.00031164,-0.541638,0.0031946,0.0190023,1833,1520,27.1036,-23.4143
616,-496,27.2002,22.5298,0.00469632,0.00161047,-0.00223443,0.00586878,0.000438009,-0.48323,0.00377499,0.0486294,1840,1520,27.2001,-22.5298
623,-496,27.2076,21.7881,0,0,0,0,0,0,0,-1,1847,1520,27.2076,-21.7881
630,-496,18.5656,13.8966,0,0,0,0,0,0,0,-1,1854,1520,18.5655,-13.8967
637,-496,14.6411,10.1016,0,0,0,0,0,0,0,-1,1861,1520,14.6411,-10.1016
644,-496,12.4537,10.087,0,0,0,0,0,0,0,-1,1868,1520,12.4537,-10.0871
651,-496,8.18506,5.47803,0,0,0,0,0,0,0,-1,1875,1520,8.18505,-5.47806
658,-496,7.79993,4.02563,0,0,0,0,0,0,0,-1,1882,1520,7.79997,-4.02568
665,-496,5.47583,7.90625,0,0,0,0,0,0,0,-1,1889,1520,5.47581,-7.90628
672,-496,0,0,0,0,0,0,0,0,0,-1,1896,1520,0,0
679,-496,0,0,0,0,0,0,0,0,0,-1,1903,1520,0,0
686,-496,0,0,0,0,0,0,0,0,0,-1,1910,1520,0,0
693,-496,0,0,0,0,0,0,0,0,0,-1,1917,1520,0,0
700,-496,0,0,0,0,0,0,0,0,0,-1,1924,1520,0,0
707,-496,0,0,0,0,0,0,0,0,0,-1,1931,1520,0,0
714,-496,0,0,0,0,0,0,0,0,0,-1,1938,1520,0,0
721,-496,0,0,0,0,0,0,0,0,0,-1,1945,1520,0,0
728,-496,0,0,0,0,0,0,0,0,0,-1,1952,1520,0,0
735,-496,0,0,0,0,0,0,0,0,0,-1,1959,1520,0,0
742,-496,0,0,0,0,0,0,0,0,0,-1,1966,1520,0,0
749,-496,0,0,0,0,0,0,0,0,0,-1,1973,1520,0,0
756,-496,0,0,0,0,0,0,0,0,0,-1,1980,1520,0,0
763,-496,0,0,0,0,0,0,0,0,0,-1,1987,1520,0,0
770,-496,0,0,0,0,0,0,0,0,0,-1,1994,1520,0,0
777,-496,0,0,0,0,0,0,0,0,0,-1,2001,1520,0,0
784,-496,0,0,0,0,0,0,0,0,0,-1,2008,1520,0,0
791,-496,0,0,0,0,0,0,0,0,0,-1,2015,1520,0,0
798,-496,0,0,0,0,0,0,0,0,0,-1,2022,1520,0,0
805,-496,0,0,0,0,0,0,0,0,0,-1,2029,1520,0,0
812,-496,0,0,0,0,0,0,0,0,0,-1,2036,1520,0,0
-700,-503,0,0,0,0,0,0,0,0,0,-1,524,1527,0,0
-693,-503,0,0,0,0,0,0,0,0,0,-1,531,1527,0,0
-686,-503,0,0,0,0,0,0,0,0,0,-1,538,1527,0,0
-679,-503,0,0,0,0,0,0,0,0,0,-1,545,1527,0,0
-672,-503,0,0,0,0,0,0,0,0,0,-1,552,1527,0,0
-665,-503,0,0,0,0,0,0,0,0,0,-1,559,1527,0,0
-658,-503,0,0,0,0,0,0,0,0,0,-1,566,1527,0,0
-651,-503,0,0,0,0,0,0,0,0,0,-1,573,1527,0,0
-644,-503,0,0,0,0,0,0,0,0,0,-1,580,1527,0,0
-637,-503,0,0,0,0,0,0,0,0,0,-1,587,1527,0,0
-630,-503,0,0,0,0,0,0,0,0,0,-1,594,1527,0,0
-623,-503,0,0,0,0,0,0,0,0,0,-1,601,1527,0,0
-616,-503,0,0,0,0,0,0,0,0,0,-1,608,1527,0,0
-609,-503,0,0,0,0,0,0,0,0,0,-1,615,1527,0,0
-602,-503,0,0,0,0,0,0,0,0,0,-1,622,1527,0,0
-595,-503,0,0,0,0,0,0,0,0,0,-1,629,1527,0,0
-588,-503,0,0,0,0,0,0,0,0,0,-1,636,1527,0,0
-581,-503,0,0,0,0,0,0,0,0,0,-1,643,1527,0,0
-574,-503,0,0,0,0,0,0,0,0,0,-1,650,1527,0,0
-567,-503,0,0,0,0,0,0,0,0,0,-1,657,1527,0,0
-560,-503,0,0,0,0,0,0,0,0,0,-1,664,1527,0,0
-553,-503,0,0,0,0,0,0,0,0,0,-1,671,1527,0,0
-546,-503,0,0,0,0,0,0,0,0,0,-1,678,1527,0,0
-539,-503,3.50177,4.26428,0,0,0,0,0,0,0,-1,685,1527,3.50177,-4.26424
-532,-503,-3.13196,1.05298,0,0,0,0,0,0,0,-1,692,1527,-3.13194,-1.05299
-525,-503,-2.94293,2.59314,0,0,0,0,0,0,0,-1,699,1527,-2.94296,-2.59314
-518,-503,-2.7395,4.05872,0,0,0,0,0,0,0,-1,706,1527,-2.73948,-4.05871
-511,-503,-1.60022,7.23877,0,0,0,0,0,0,0,-1,713,1527,-1.60023,-7.23872
-504,-503,-8.1402,10.1541,0,0,0,0,0,0,0,-1,720,1527,-8.14017,-10.1541
-497,-503,-4.51758,14.0781,0,0,0,0,0,0,0,-1,727,1527,-4.5176,-14.0782
-490,-503,-4.24194,16.1982,0,0,0,0,0,0,0,-1,734,1527,-4.24196,-16.1982
-483,-503,-8.66241,22.1281,0,0,0,0,0,0,0,-1,741,1527,-8.66244,-22.128
-476,-503,-8.54248,22.9944,0.00202062,-0.00495247,0.000642236,0.00207928,-0.00501113,0.0910811,0.00420868,0.0450782,748,1527,-8.54246,-22.9944
-469,-503,-8.70135,23.6592,0.00132782,-0.00453454,0.000107405,0.00132979,-0.00453651,0.018313,0.00355158,0.0163717,755,1527,-8.70136,-23.6592
-462,-503,-8.73853,24.4435,0.00087597,-0.00362804,-9.23283e-05,0.000877862,-0.00362993,-0.0204877,0.00275952,0.0128865,762,1527,-8.73852,-24.4435
-455,-503,-8.77991,25.2241,0.000699575,-0.00252264,-2.56149e-05,0.000699778,-0.00252285,-0.00794879,0.00195731,0.0199779,769,1527,-8.77991,-25.2241
-448,-503,-8.79193,25.98,0.000777061,-0.00130688,0.000266439,0.000810587,-0.00134041,0.125171,0.00125437,0.0181496,776,1527,-8.79196,-25.98
-441,-503,-8.81036,26.6842,0.00109374,2.81818e-05,0.000787049,0.00151138,-0.00038946,0.48786,0.00115942,0.0138194,783,1527,-8.81035,-26.6843
-434,-503,-8.87421,27.4236,0.00161998,0.00144387,0.00147254,0.00300709,5.67565e-05,0.755534,0.00198608,0.0116246,790,1527,-8.87419,-27.4236
-427,-503,-8.93506,28.1588,0.00232501,0.00283928,0.00225405,0.00485082,0.000313477,0.842192,0.00313461,0.0180295,797,1527,-8.93504,-28.1589
-420,-503,-8.94073,28.8801,0.00321475,0.00428723,0.00316363,0.00695975,0.000542233,0.869351,0.00447006,0.0181803,804,1527,-8.94072,-28.8802
-413,-503,-8.95905,29.6576,0.00441433,0.00560819,0.00431649,0.00936883,0.000653696,0.854108,0.00603979,0.0156347,811,1527,-8.95904,-29.6576
-406,-503,-8.96509,30.3905,0.00590939,0.00718008,0.00545912,0.0120407,0.00104877,0.843329,0.00770138,0.0259705,818,1527,-8.96511,-30.3905
-399,-503,-8.84589,31.3724,0.00735411,0.008943,0.0067418,0.014937,0.00136011,0.844047,0.00953702,0.0451268,825,1527,-8.84591,-31.3724
-392,-503,-8.48499,32.6321,0,0,0,0,0,0,0,-1,832,1527,-8.48501,-32.6321
-385,-503,-2.00403,14.1218,0,0,0,0,0,0,0,-1,839,1527,-2.00403,-14.1218
-378,-503,-2.07043,13.8632,0,0,0,0,0,0,0,-1,846,1527,-2.07043,-13.8631
-371,-503,-1.67285,13.8081,0,0,0,0,0,0,0,-1,853,1527,-1.67285,-13.8081
-364,-503,0.181396,12.3768,0,0,0,0,0,0,0,-1,860,1527,0.18138,-12.3768
-357,-503,0.558533,9.25452,0,0,0,0,0,0,0,-1,867,1527,0.558542,-9.25446
-350,-503,0.219971,6.84827,0,0,0,0,0,0,0,-1,874,1527,0.21996,-6.84831
-343,-503,-3.5802,4.43274,0,0,0,0,0,0,0,-1,881,1527,-3.58018,-4.43276
-336,-503,-3.2384,6.40637,0,0,0,0,0,0,0,-1,888,1527,-3.2384,-6.40643
-329,-503,-1.70691,11.886,0,0,0,0,0,0,0,-1,895,1527,-1.70689,-11.886
-322,-503,-3.31317,8.81519,0,0,0,0,0,0,0,-1,902,1527,-3.31315,-8.81524
-315,-503,-3.90265,7.73853,0,0,0,0,0,0,0,-1,909,1527,-3.90264,-7.73854
-308,-503,-1.70264,7.35413,0,0,0,0,0,0,0,-1,916,1527,-1.70262,-7.35416
-301,-503,0,0,0,0,0,0,0,0,0,-1,923,1527,0,0
-294,-503,0,0,0,0,0,0,0,0,0,-1,930,1527,0,0
-287,-503,0,0,0,0,0,0,0,0,0,-1,937,1527,0,0
-280,-503,0,0,0,0,0,0,0,0,0,-1,944,1527,0,0
-273,-503,0,0,0,0,0,0,0,0,0,-1,951,1527,0,0
-266,-503,0,0,0,0,0,0,0,0,0,-1,958,1527,0,0
-259,-503,0,0,0,0,0,0,0,0,0,-1,965,1527,0,0
-252,-503,0,0,0,0,0,0,0,0,0,-1,972,1527,0,0
-245,-503,0,0,0,0,0,0,0,0,0,-1,979,1527,0,0
-238,-503,0,0,0,0,0,0,0,0,0,-1,986,1527,0,0
-231,-503,0,0,0,0,0,0,0,0,0,-1,993,1527,0,0
-224,-503,0,0,0,0,0,0,0,0,0,-1,1000,1527,0,0
-217,-503,0,0,0,0,0,0,0,0,0,-1,1007,1527,0,0
-210,-503,0,0,0,0,0,0,0,0,0,-1,1014,1527,0,0
-203,-503,0,0,0,0,0,0,0,0,0,-1,1021,1527,0,0
-196,-503,0,0,0,0,0,0,0,0,0,-1,1028,1527,0,0
-189,-503,0,0,0,0,0,0,0,0,0,-1,1035,1527,0,0
-182,-503,0,0,0,0,0,0,0,0,0,-1,1042,1527,0,0
-175,-503,0,0,0,0,0,0,0,0,0,-1,1049,1527,0,0
-168,-503,0,0,0,0,0,0,0,0,0,-1,1056,1527,0,0
-161,-503,0,0,0,0,0,0,0,0,0,-1,1063,1527,0,0
-154,-503,0,0,0,0,0,0,0,0,0,-1,1070,1527,0,0
-147,-503,0,0,0,0,0,0,0,0,0,-1,1077,1527,0,0
-140,-503,0,0,0,0,0,0,0,0,0,-1,1084,1527,0,0
-133,-503,0,0,0,0,0,0,0,0,0,-1,1091,1527,0,0
-126,-503,0,0,0,0,0,0,0,0,0,-1,1098,1527,0,0
-119,-503,0,0,0,0,0,0,0,0,0,-1,1105,1527,0,0
-112,-503,0,0,0,0,0,0,0,0,0,-1,1112,1527,0,0
-105,-503,0,0,0,0,0,0,0,0,0,-1,1119,1527,0,0
-98,-503,0,0,0,0,0,0,0,0,0,-1,1126,1527,0,0
-91,-503,0,0,0,0,0,0,0,0,0,-1,1133,1527,0,0
-84,-503,0,0,0,0,0,0,0,0,0,-1,1140,1527,0,0
-77,-503,0,0,0,0,0,0,0,0,0,-1,1147,1527,0,0
-70,-503,0,0,0,0,0,0,0,0,0,-1,1154,1527,0,0
-63,-503,0,0,0,0,0,0,0,0,0,-1,1161,1527,0,0
-56,-503,0,0,0,0,0,0,0,0,0,-1,1168,1527,0,0
-49,-503,0,0,0,0,0,0,0,0,0,-1,1175,1527,0,0
-42,-503,0,0,0,0,0,0,0,0,0,-1,1182,1527,0,0
-35,-503,0,0,0,0,0,0,0,0,0,-1,1189,1527,0,0
-28,-503,0,0,0,0,0,0,0,0,0,-1,1196,1527,0,0
-21,-503,0,0,0,0,0,0,0,0,0,-1,1203,1527,0,0
-14,-503,0,0,0,0,0,0,0,0,0,-1,1210,1527,0,0
-7,-503,0,0,0,0,0,0,0,0,0,-1,1217,1527,0,0
0,-503,0,0,0,0,0,0,0,0,0,-1,1224,1527,0,0
7,-503,0,0,0,0,0,0,0,0,0,-1,1231,1527,0,0
14,-503,0,0,0,0,0,0,0,0,0,-1,1238,1527,0,0
21,-503,0,0,0,0,0,0,0,0,0,-1,1245,1527,0,0
28,-503,0,0,0,0,0,0,0,0,0,-1,1252,1527,0,0
35,-503,0,0,0,0,0,0,0,0,0,-1,1259,1527,0,0
42,-503,0,0,0,0,0,0,0,0,0,-1,1266,1527,0,0
49,-503,0,0,0,0,0,0,0,0,0,-1,1273,1527,0,0
56,-503,0,0,0,0,0,0,0,0,0,-1,1280,1527,0,0
63,-503,0,0,0,0,0,0,0,0,0,-1,1287,1527,0,0
70,-503,0,0,0,0,0,0,0,0,0,-1,1294,1527,0,0
77,-503,0,0,0,0,0,0,0,0,0,-1,1301,1527,0,0
84,-503,0,0,0,0,0,0,0,0,0,-1,1308,1527,0,0
91,-503,0,0,0,0,0,0,0,0,0,-1,1315,1527,0,0
98,-503,0,0,0,0,0,0,0,0,0,-1,1322,1527,0,0
105,-503,0,0,0,0,0,0,0,0,0,-1,1329,1527,0,0
112,-503,0,0,0,0,0,0,0,0,0,-1,1336,1527,0,0
119,-503,0,0,0,0,0,0,0,0,0,-1,1343,1527,0,0
126,-503,0,0,0,0,0,0,0,0,0,-1,1350,1527,0,0
133,-503,0,0,0,0,0,0,0,0,0,-1,1357,1527,0,0
140,-503,0,0,0,0,0,0,0,0,0,-1,1364,1527,0,0
147,-503,0,0,0,0,0,0,0,0,0,-1,1371,1527,0,0
154,-503,0,0,0,0,0,0,0,0,0,-1,1378,1527,0,0
161,-503,0,0,0,0,0,0,0,0,0,-1,1385,1527,0,0
168,-503,0,0,0,0,0,0,0,0,0,-1,1392,1527,0,0
175,-503,0,0,0,0,0,0,0,0,0,-1,1399,1527,0,0
182,-503,0,0,0,0,0,0,0,0,0,-1,1406,1527,0,0
189,-503,0,0,0,0,0,0,0,0,0,-1,1413,1527,0,0
196,-503,0,0,0,0,0,0,0,0,0,-1,1420,1527,0,0
203,-503,0,0,0,0,0,0,0,0,0,-1,1427,1527,0,0
210,-503,0,0,0,0,0,0,0,0,0,-1,1434,1527,0,0
217,-503,0,0,0,0,0,0,0,0,0,-1,1441,1527,0,0
224,-503,0,0,0,0,0,0,0,0,0,-1,1448,1527,0,0
231,-503,0,0,0,0,0,0,0,0,0,-1,1455,1527,0,0
238,-503,0,0,0,0,0,0,0,0,0,-1,1462,1527,0,0
245,-503,0,0,0,0,0,0,0,0,0,-1,1469,1527,0,0
252,-503,0,0,0,0,0,0,0,0,0,-1,1476,1527,0,0
259,-503,0,0,0,0,0,0,0,0,0,-1,1483,1527,0,0
266,-503,0,0,0,0,0,0,0,0,0,-1,1490,1527,0,0
273,-503,0,0,0,0,0,0,0,0,0,-1,1497,1527,0,0
280,-503,0,0,0,0,0,0,0,0,0,-1,1504,1527,0,0
287,-503,0,0,0,0,0,0,0,0,0,-1,1511,1527,0,0
294,-503,0,0,0,0,0,0,0,0,0,-1,1518,1527,0,0
301,-503,0,0,0,0,0,0,0,0,0,-1,1525,1527,0,0
308,-503,0,0,0,0,0,0,0,0,0,-1,1532,1527,0,0
315,-503,0,0,0,0,0,0,0,0,0,-1,1539,1527,0,0
322,-503,0,0,0,0,0,0,0,0,0,-1,1546,1527,0,0
329,-503,0,0,0,0,0,0,0,0,0,-1,1553,1527,0,0
336,-503,0,0,0,0,0,0,0,0,0,-1,1560,1527,0,0
343,-503,0,0,0,0,0,0,0,0,0,-1,1567,1527,0,0
350,-503,0,0,0,0,0,0,0,0,0,-1,1574,1527,0,0
357,-503,0,0,0,0,0,0,0,0,0,-1,1581,1527,0,0
364,-503,0,0,0,0,0,0,0,0,0,-1,1588,1527,0,0
371,-503,0,0,0,0,0,0,0,0,0,-1,1595,1527,0,0
378,-503,0,0,0,0,0,0,0,0,0,-1,1602,1527,0,0
385,-503,0,0,0,0,0,0,0,0,0,-1,1609,1527,0,0
392,-503,0,0,0,0,0,0,0,0,0,-1,1616,1527,0,0
399,-503,0,0,0,0,0,0,0,0,0,-1,1623,1527,0,0
406,-503,0,0,0,0,0,0,0,0,0,-1,1630,1527,0,0
413,-503,0,0,0,0,0,0,0,0,0,-1,1637,1527,0,0
420,-503,0,0,0,0,0,0,0,0,0,-1,1644,1527,0,0
427,-503,10.5968,4.9856,0,0,0,0,0,0,0,-1,1651,1527,10.5969,-4.98563
434,-503,11.4329,3.97217,0,0,0,0,0,0,0,-1,1658,1527,11.4328,-3.97222
441,-503,12.0957,2.96509,0,0,0,0,0,0,0,-1,1665,1527,12.0957,-2.96512
448,-503,12.3259,2.53894,0,0,0,0,0,0,0,-1,1672,1527,12.326,-2.53895
455,-503,12.1669,2.18762,0,0,0,0,0,0,0,-1,1679,1527,12.1668,-2.18767
462,-503,11.59,2.60791,0,0,0,0,0,0,0,-1,1686,1527,11.5899,-2.60794
469,-503,11.1625,1.61853,0,0,0,0,0,0,0,-1,1693,1527,11.1625,-1.61856
476,-503,9.07703,5.81042,0,0,0,0,0,0,0,-1,1700,1527,9.07699,-5.81047
483,-503,9.74414,6.92432,0,0,0,0,0,0,0,-1,1707,1527,9.74417,-6.9243
490,-503,10.5033,10.1071,0,0,0,0,0,0,0,-1,1714,1527,10.5032,-10.107
497,-503,15.0057,17.9476,0,0,0,0,0,0,0,-1,1721,1527,15.0058,-17.9476
504,-503,16.4764,18.4486,0,0,0,0,0,0,0,-1,1728,1527,16.4764,-18.4486
511,-503,16.8276,18.3271,0,0,0,0,0,0,0,-1,1735,1527,16.8276,-18.3272
518,-503,17.2533,18.2738,0,0,0,0,0,0,0,-1,1742,1527,17.2533,-18.2738
525,-503,21.2887,26.5785,0,0,0,0,0,0,0,-1,1749,1527,21.2887,-26.5785
532,-503,26.5837,31.5327,0,0,0,0,0,0,0,-1,1756,1527,26.5838,-31.5327
539,-503,26.6096,30.7588,0.00803849,0.00641674,-0.00543586,0.0127236,0.00173162,-0.711358,0.00796818,0.0314317,1763,1527,26.6096,-30.7588
546,-503,26.647,29.9264,0.00625948,0.00485074,-0.00399176,0.00960854,0.00150168,-0.698069,0.00596844,0.0133491,1770,1527,26.6469,-29.9263
553,-503,26.6541,29.2213,0.00492116,0.00346797,-0.00283919,0.00712526,0.00126388,-0.660129,0.00438995,0.0135686,1777,1527,26.6541,-29.2214
560,-503,26.5854,28.5278,0.00392578,0.00241214,-0.00198979,0.00529781,0.00104011,-0.603671,0.00324129,0.0138427,1784,1527,26.5855,-28.5278
567,-503,26.5631,27.7941,0.00331703,0.0017606,-0.00155179,0.0042748,0.000802824,-0.552976,0.00262353,0.012849,1791,1527,26.5632,-27.794
574,-503,26.5558,27.0852,0.00296567,0.00132919,-0.00134004,0.00371753,0.000577328,-0.511307,0.00231009,0.0128402,1798,1527,26.5558,-27.0852
581,-503,26.5045,26.3873,0.00278909,0.0010915,-0.00127577,0.00347262,0.000407967,-0.491863,0.00219179,0.0141748,1805,1527,26.5045,-26.3873
588,-503,26.4668,25.6763,0.00288403,0.0010714,-0.00142356,0.0036653,0.000290133,-0.501931,0.00235279,0.0181703,1812,1527,26.4667,-25.6763
595,-503,26.424,24.9395,0.00328786,0.00122658,-0.00171564,0.00425863,0.000255816,-0.514918,0.00275777,0.0146173,1819,1527,26.4239,-24.9395
602,-503,26.4491,24.1547,0.00387369,0.00168519,-0.00218742,0.00522529,0.000333595,-0.553475,0.00337782,0.0246162,1826,1527,26.4491,-24.1546
609,-503,26.4762,23.2285,0,0,0,0,0,0,0,-1,1833,1527,26.4762,-23.2285
616,-503,26.6022,22.5868,0,0,0,0,0,0,0,-1,1840,1527,26.6022,-22.5869
623,-503,18.7351,15.5999,0,0,0,0,0,0,0,-1,1847,1527,18.7351,-15.5999
630,-503,20.6721,13.9077,0,0,0,0,0,0,0,-1,1854,1527,20.6721,-13.9077
637,-503,14.5564,9.20496,0,0,0,0,0,0,0,-1,1861,1527,14.5564,-9.2049
644,-503,11.4802,7.57214,0,0,0,0,0,0,0,-1,1868,1527,11.4802,-7.57215
651,-503,11.5718,6.5448,0,0,0,0,0,0,0,-1,1875,1527,11.5718,-6.54476
658,-503,8.25635,3.10498,0,0,0,0,0,0,0,-1,1882,1527,8.2563,-3.10493
665,-503,0,0,0,0,0,0,0,0,0,-1,1889,1527,0,0
672,-503,0,0,0,0,0,0,0,0,0,-1,1896,1527,0,0
679,-503,0,0,0,0,0,0,0,0,0,-1,1903,1527,0,0
686,-503,0,0,0,0,0,0,0,0,0,-1,1910,1527,0,0
693,-503,0,0,0,0,0,0,0,0,0,-1,1917,1527,0,0
700,-503,0,0,0,0,0,0,0,0,0,-1,1924,1527,0,0
707,-503,0,0,0,0,0,0,0,0,0,-1,1931,1527,0,0
714,-503,0,0,0,0,0,0,0,0,0,-1,1938,1527,0,0
721,-503,0,0,0,0,0,0,0,0,0,-1,1945,1527,0,0
728,-503,0,0,0,0,0,0,0,0,0,-1,1952,1527,0,0
735,-503,0,0,0,0,0,0,0,0,0,-1,1959,1527,0,0
742,-503,0,0,0,0,0,0,0,0,0,-1,1966,1527,0,0
749,-503,0,0,0,0,0,0,0,0,0,-1,1973,1527,0,0
756,-503,0,0,0,0,0,0,0,0,0,-1,1980,1527,0,0
763,-503,0,0,0,0,0,0,0,0,0,-1,1987,1527,0,0
770,-503,0,0,0,0,0,0,0,0,0,-1,1994,1527,0,0
777,-503,0,0,0,0,0,0,0,0,0,-1,2001,1527,0,0
784,-503,0,0,0,0,0,0,0,0,0,-1,2008,1527,0,0
791,-503,0,0,0,0,0,0,0,0,0,-1,2015,1527,0,0
798,-503,0,0,0,0,0,0,0,0,0,-1,2022,1527,0,0
805,-503,0,0,0,0,0,0,0,0,0,-1,2029,1527,0,0
812,-503,0,0,0,0,0,0,0,0,0,-1,2036,1527,0,0
-700,-510,0,0,0,0,0,0,0,0,0,-1,524,1534,0,0
-693,-510,0,0,0,0,0,0,0,0,0,-1,531,1534,0,0
-686,-510,0,0,0,0,0,0,0,0,0,-1,538,1534,0,0
-679,-510,0,0,0,0,0,0,0,0,0,-1,545,1534,0,0
-672,-510,0,0,0,0,0,0,0,0,0,-1,552,1534,0,0
-665,-510,0,0,0,0,0,0,0,0,0,-1,559,1534,0,0
-658,-510,0,0,0,0,0,0,0,0,0,-1,566,1534,0,0
-651,-510,0,0,0,0,0,0,0,0,0,-1,573,1534,0,0
-644,-510,0,0,0,0,0,0,0,0,0,-1,580,1534,0,0
-637,-510,0,0,0,0,0,0,0,0,0,-1,587,1534,0,0
-630,-510,0,0,0,0,0,0,0,0,0,-1,594,1534,0,0
-623,-510,0,0,0,0,0,0,0,0,0,-1,601,1534,0,0
-616,-510,0,0,0,0,0,0,0,0,0,-1,608,1534,0,0
-609,-510,0,0,0,0,0,0,0,0,0,-1,615,1534,0,0
-602,-510,0,0,0,0,0,0,0,0,0,-1,622,1534,0,0
-595,-510,0,0,0,0,0,0,0,0,0,-1,629,1534,0,0
-588,-510,0,0,0,0,0,0,0,0,0,-1,636,1534,0,0
-581,-510,0,0,0,0,0,0,0,0,0,-1,643,1534,0,0
-574,-510,0,0,0,0,0,0,0,0,0,-1,650,1534,0,0
-567,-510,0,0,0,0,0,0,0,0,0,-1,657,1534,0,0
-560,-510,0,0,0,0,0,0,0,0,0,-1,664,1534,0,0
-553,-510,0,0,0,0,0,0,0,0,0,-1,671,1534,0,0
-546,-510,0,0,0,0,0,0,0,0,0,-1,678,1534,0,0
-539,-510,0,0,0,0,0,0,0,0,0,-1,685,1534,0,0
-532,-510,-3.95129,4.52014,0,0,0,0,0,0,0,-1,692,1534,-3.95131,-4.5202
-525,-510,-2.77411,0.316772,0,0,0,0,0,0,0,-1,699,1534,-2.77409,-0.3168
-518,-510,-2.86847,2.71423,0,0,0,0,0,0,0,-1,706,1534,-2.86849,-2.71424
-511,-510,-2.28571,4.48083,0,0,0,0,0,0,0,-1,713,1534,-2.28571,-4.48086
-504,-510,-4.86731,10.8224,0,0,0,0,0,0,0,-1,720,1534,-4.8673,-10.8224
-497,-510,-3.42352,15.5178,0,0,0,0,0,0,0,-1,727,1534,-3.42352,-15.5178
-490,-510,-5.9472,18.5184,0,0,0,0,0,0,0,-1,734,1534,-5.94718,-18.5185
-483,-510,-6.79639,20.8453,0,0,0,0,0,0,0,-1,741,1534,-6.79638,-20.8454
-476,-510,-7.86908,23.0424,0,0,0,0,0,0,0,-1,748,1534,-7.86908,-23.0424
-469,-510,-7.93964,23.7252,0.00143373,-0.0068135,-0.000475409,0.00146104,-0.00684082,-0.0573913,0.00511756,0.0225926,755,1534,-7.93961,-23.7253
-462,-510,-7.97198,24.4602,0.000735244,-0.00550756,-0.000696939,0.000812103,-0.00558442,-0.109837,0.00402107,0.0125247,762,1534,-7.97196,-24.4602
-455,-510,-8.02045,25.2437,0.000367325,-0.00408851,-0.000653091,0.000461076,-0.00418226,-0.142576,0.00295389,0.0156038,769,1534,-8.02044,-25.2437
-448,-510,-8.02539,26.0028,0.000273767,-0.00271848,-0.000421508,0.00033201,-0.00277673,-0.137308,0.00197116,0.0145968,776,1534,-8.02538,-26.0028
-441,-510,-8.05652,26.7365,0.000478315,-0.00128562,5.41594e-05,0.000479976,-0.00128728,0.0306653,0.00105521,0.0144844,783,1534,-8.05653,-26.7364
-434,-510,-8.13477,27.4736,0.000901788,0.000146467,0.000673089,0.00129593,-0.000247673,0.529741,0.00095725,0.0148694,790,1534,-8.13476,-27.4737
-427,-510,-8.19873,28.1674,0.00149114,0.00147479,0.00135232,0.00283532,0.000130617,0.782374,0.00184821,0.0226044,797,1534,-8.19874,-28.1674
-420,-510,-8.21539,28.9075,0.00227383,0.00281823,0.00214567,0.0047089,0.00038316,0.848491,0.00301966,0.0216458,804,1534,-8.2154,-28.9075
-413,-510,-8.21747,29.6835,0.00328566,0.00405068,0.00307899,0.00677083,0.000565516,0.847198,0.00433768,0.0114737,811,1534,-8.21748,-29.6835
-406,-510,-8.27313,30.4117,0.00450514,0.00539092,0.00400248,0.00897494,0.000921121,0.840501,0.00570111,0.0103825,818,1534,-8.27314,-30.4117
-399,-510,-8.30487,31.1396,0.00570589,0.00686497,0.00498209,0.0113011,0.00126975,0.8433,0.00714852,0.0161463,825,1534,-8.3049,-31.1397
-392,-510,-8.22833,31.9932,0,0,0,0,0,0,0,-1,832,1534,-8.22832,-31.9932
-385,-510,-7.23199,31.704,0,0,0,0,0,0,0,-1,839,1534,-7.23198,-31.704
-378,-510,-1.78308,13.8044,0,0,0,0,0,0,0,-1,846,1534,-1.78309,-13.8044
-371,-510,-1.74982,13.8027,0,0,0,0,0,0,0,-1,853,1534,-1.74981,-13.8028
-364,-510,-1.3479,13.7771,0,0,0,0,0,0,0,-1,860,1534,-1.34791,-13.7771
-357,-510,-0.254395,8.89575,0,0,0,0,0,0,0,-1,867,1534,-0.254397,-8.89569
-350,-510,0.471191,6.06458,0,0,0,0,0,0,0,-1,874,1534,0.47118,-6.06453
-343,-510,-6.96869,26.3074,0,0,0,0,0,0,0,-1,881,1534,-6.9687,-26.3074
-336,-510,-5.60437,29.5996,0,0,0,0,0,0,0,-1,888,1534,-5.60435,-29.5996
-329,-510,-4.87781,20.6893,0,0,0,0,0,0,0,-1,895,1534,-4.87782,-20.6894
-322,-510,-0.251526,11.973,0,0,0,0,0,0,0,-1,902,1534,-0.251497,-11.9731
-315,-510,-1.73047,10.9796,0,0,0,0,0,0,0,-1,909,1534,-1.73049,-10.9796
-308,-510,-2.05328,9.72034,0,0,0,0,0,0,0,-1,916,1534,-2.05327,-9.72036
-301,-510,-1.85437,11.5869,0,0,0,0,0,0,0,-1,923,1534,-1.85437,-11.5869
-294,-510,0,0,0,0,0,0,0,0,0,-1,930,1534,0,0
-287,-510,0,0,0,0,0,0,0,0,0,-1,937,1534,0,0
-280,-510,0,0,0,0,0,0,0,0,0,-1,944,1534,0,0
-273,-510,0,0,0,0,0,0,0,0,0,-1,951,1534,0,0
-266,-510,0,0,0,0,0,0,0,0,0,-1,958,1534,0,0
-259,-510,0,0,0,0,0,0,0,0,0,-1,965,1534,0,0
-252,-510,0,0,0,0,0,0,0,0,0,-1,972,1534,0,0
-245,-510,0,0,0,0,0,0,0,0,0,-1,979,1534,0,0
-238,-510,0,0,0,0,0,0,0,0,0,-1,986,1534,0,0
-231,-510,0,0,0,0,0,0,0,0,0,-1,993,1534,0,0
-224,-510,0,0,0,0,0,0,0,0,0,-1,1000,1534,0,0
-217,-510,0,0,0,0,0,0,0,0,0,-1,1007,1534,0,0
-210,-510,0,0,0,0,0,0,0,0,0,-1,1014,1534,0,0
-203,-510,0,0,0,0,0,0,0,0,0,-1,1021,1534,0,0
-196,-510,0,0,0,0,0,0,0,0,0,-1,1028,1534,0,0
-189,-510,0,0,0,0,0,0,0,0,0,-1,1035,1534,0,0
-182,-510,0,0,0,0,0,0,0,0,0,-1,1042,1534,0,0
-175,-510,0,0,0,0,0,0,0,0,0,-1,1049,1534,0,0
-168,-510,0,0,0,0,0,0,0,0,0,-1,1056,1534,0,0
-161,-510,0,0,0,0,0,0,0,0,0,-1,1063,1534,0,0
-154,-510,0,0,0,0,0,0,0,0,0,-1,1070,1534,0,0
-147,-510,0,0,0,0,0,0,0,0,0,-1,1077,1534,0,0
-140,-510,0,0,0,0,0,0,0,0,0,-1,1084,1534,0,0
-133,-510,0,0,0,0,0,0,0,0,0,-1,1091,1534,0,0
-126,-510,0,0,0,0,0,0,0,0,0,-1,1098,1534,0,0
-119,-510,0,0,0,0,0,0,0,0,0,-1,1105,1534,0,0
-112,-510,0,0,0,0,0,0,0,0,0,-1,1112,1534,0,0
-105,-510,0,0,0,0,0,0,0,0,0,-1,1119,1534,0,0
-98,-510,0,0,0,0,0,0,0,0,0,-1,1126,1534,0,0
-91,-510,0,0,0,0,0,0,0,0,0,-1,1133,1534,0,0
-84,-510,0,0,0,0,0,0,0,0,0,-1,1140,1534,0,0
-77,-510,0,0,0,0,0,0,0,0,0,-1,1147,1534,0,0
-70,-510,0,0,0,0,0,0,0,0,0,-1,1154,1534,0,0
-63,-510,0,0,0,0,0,0,0,0,0,-1,1161,1534,0,0
-56,-510,0,0,0,0,0,0,0,0,0,-1,1168,1534,0,0
-49,-510,0,0,0,0,0,0,0,0,0,-1,1175,1534,0,0
-42,-510,0,0,0,0,0,0,0,0,0,-1,1182,1534,0,0
-35,-510,0,0,0,0,0,0,0,0,0,-1,1189,1534,0,0
-28,-510,0,0,0,0,0,0,0,0,0,-1,1196,1534,0,0
-21,-510,0,0,0,0,0,0,0,0,0,-1,1203,1534,0,0
-14,-510,0,0,0,0,0,0,0,0,0,-1,1210,1534,0,0
-7,-510,0,0,0,0,0,0,0,0,0,-1,1217,1534,0,0
0,-510,0,0,0,0,0,0,0,0,0,-1,1224,1534,0,0
7,-510,0,0,0,0,0,0,0,0,0,-1,1231,1534,0,0
14,-510,0,0,0,0,0,0,0,0,0,-1,1238,1534,0,0
21,-510,0,0,0,0,0,0,0,0,0,-1,1245,1534,0,0
28,-510,0,0,0,0,0,0,0,0,0,-1,1252,1534,0,0
35,-510,0,0,0,0,0,0,0,0,0,-1,1259,1534,0,0
42,-510,0,0,0,0,0,0,0,0,0,-1,1266,1534,0,0
49,-510,0,0,0,0,0,0,0,0,0,-1,1273,1534,0,0
56,-510,0,0,0,0,0,0,0,0,0,-1,1280,1534,0,0
63,-510,0,0,0,0,0,0,0,0,0,-1,1287,1534,0,0
70,-510,0,0,0,0,0,0,0,0,0,-1,1294,1534,0,0
77,-510,0,0,0,0,0,0,0,0,0,-1,1301,1534,0,0
84,-510,0,0,0,0,0,0,0,0,0,-1,1308,1534,0,0
91,-510,0,0,0,0,0,0,0,0,0,-1,1315,1534,0,0
98,-510,0,0,0,0,0,0,0,0,0,-1,1322,1534,0,0
105,-510,0,0,0,0,0,0,0,0,0,-1,1329,1534,0,0
112,-510,0,0,0,0,0,0,0,0,0,-1,1336,1534,0,0
119,-510,0,0,0,0,0,0,0,0,0,-1,1343,1534,0,0
126,-510,0,0,0,0,0,0,0,0,0,-1,1350,1534,0,0
133,-510,0,0,0,0,0,0,0,0,0,-1,1357,1534,0,0
140,-510,0,0,0,0,0,0,0,0,0,-1,1364,1534,0,0
147,-510,0,0,0,0,0,0,0,0,0,-1,1371,1534,0,0
154,-510,0,0,0,0,0,0,0,0,0,-1,1378,1534,0,0
161,-510,0,0,0,0,0,0,0,0,0,-1,1385,1534,0,0
168,-510,0,0,0,0,0,0,0,0,0,-1,1392,1534,0,0
175,-510,0,0,0,0,0,0,0,0,0,-1,1399,1534,0,0
182,-510,0,0,0,0,0,0,0,0,0,-1,1406,1534,0,0
189,-510,0,0,0,0,0,0,0,0,0,-1,1413,1534,0,0
196,-510,0,0,0,0,0,0,0,0,0,-1,1420,1534,0,0
203,-510,0,0,0,0,0,0,0,0,0,-1,1427,1534,0,0
210,-510,0,0,0,0,0,0,0,0,0,-1,1434,1534,0,0
217,-510,0,0,0,0,0,0,0,0,0,-1,1441,1534,0,0
224,-510,0,0,0,0,0,0,0,0,0,-1,1448,1534,0,0
231,-510,0,0,0,0,0,0,0,0,0,-1,1455,1534,0,0
238,-510,0,0,0,0,0,0,0,0,0,-1,1462,1534,0,0
245,-510,0,0,0,0,0,0,0,0,0,-1,1469,1534,0,0
252,-510,0,0,0,0,0,0,0,0,0,-1,1476,1534,0,0
259,-510,0,0,0,0,0,0,0,0,0,-1,1483,1534,0,0
266,-510,0,0,0,0,0,0,0,0,0,-1,1490,1534,0,0
273,-510,0,0,0,0,0,0,0,0,0,-1,1497,1534,0,0
280,-510,0,0,0,0,0,0,0,0,0,-1,1504,1534,0,0
287,-510,0,0,0,0,0,0,0,0,0,-1,1511,1534,0,0
294,-510,0,0,0,0,0,0,0,0,0,-1,1518,1534,0,0
301,-510,0,0,0,0,0,0,0,0,0,-1,1525,1534,0,0
308,-510,0,0,0,0,0,0,0,0,0,-1,1532,1534,0,0
315,-510,0,0,0,0,0,0,0,0,0,-1,1539,1534,0,0
322,-510,0,0,0,0,0,0,0,0,0,-1,1546,1534,0,0
329,-510,0,0,0,0,0,0,0,0,0,-1,1553,1534,0,0
336,-510,0,0,0,0,0,0,0,0,0,-1,1560,1534,0,0
343,-510,0,0,0,0,0,0,0,0,0,-1,1567,1534,0,0
350,-510,0,0,0,0,0,0,0,0,0,-1,1574,1534,0,0
357,-510,0,0,0,0,0,0,0,0,0,-1,1581,1534,0,0
364,-510,0,0,0,0,0,0,0,0,0,-1,1588,1534,0,0
371,-510,0,0,0,0,0,0,0,0,0,-1,1595,1534,0,0
378,-510,0,0,0,0,0,0,0,0,0,-1,1602,1534,0,0
385,-510,0,0,0,0,0,0,0,0,0,-1,1609,1534,0,0
392,-510,0,0,0,0,0,0,0,0,0,-1,1616,1534,0,0
399,-510,0,0,0,0,0,0,0,0,0,-1,1623,1534,0,0
406,-510,0,0,0,0,0,0,0,0,0,-1,1630,1534,0,0
413,-510,0,0,0,0,0,0,0,0,0,-1,1637,1534,0,0
420,-510,14.1888,6.71936,0,0,0,0,0,0,0,-1,1644,1534,14.1889,-6.71939
427,-510,10.2134,5.59485,0,0,0,0,0,0,0,-1,1651,1534,10.2134,-5.59485
434,-510,11.8219,4.07898,0,0,0,0,0,0,0,-1,1658,1534,11.8219,-4.07895
441,-510,12.6812,3.02991,0,0,0,0,0,0,0,-1,1665,1534,12.6811,-3.0299
448,-510,13.2379,2.2804,0,0,0,0,0,0,0,-1,1672,1534,13.2379,-2.28037
455,-510,9.76892,2.20642,0,0,0,0,0,0,0,-1,1679,1534,9.76894,-2.20647
462,-510,9.84692,2.49182,0,0,0,0,0,0,0,-1,1686,1534,9.84695,-2.49185
469,-510,16.6072,7.26941,0,0,0,0,0,0,0,-1,1693,1534,16.6072,-7.26945
476,-510,15.9199,7.8645,0,0,0,0,0,0,0,-1,1700,1534,15.9199,-7.86455
483,-510,13.0833,8.10938,0,0,0,0,0,0,0,-1,1707,1534,13.0833,-8.10932
490,-510,13.0841,15.3286,0,0,0,0,0,0,0,-1,1714,1534,13.0841,-15.3286
497,-510,15.5652,18.823,0,0,0,0,0,0,0,-1,1721,1534,15.5652,-18.823
504,-510,15.998,18.7478,0,0,0,0,0,0,0,-1,1728,1534,15.998,-18.7478
511,-510,15.9443,18.0476,0,0,0,0,0,0,0,-1,1735,1534,15.9443,-18.0476
518,-510,21.5343,27.1368,0,0,0,0,0,0,0,-1,1742,1534,21.5342,-27.1368
525,-510,25.6611,32.436,0,0,0,0,0,0,0,-1,1749,1534,25.6611,-32.436
532,-510,25.9559,31.4583,0.00835138,0.00746755,-0.00616526,0.0140905,0.00172839,-0.74962,0.00887385,0.0296333,1756,1534,25.9559,-31.4582
539,-510,26.0187,30.6302,0.00648897,0.00558661,-0.00458483,0.0106448,0.00143082,-0.736353,0.00667092,0.013743,1763,1534,26.0187,-30.6302
546,-510,25.9684,29.9694,0.00508924,0.00416787,-0.0033656,0.00802554,0.00123157,-0.717381,0.00499075,0.013052,1770,1534,25.9684,-29.9693
553,-510,25.9362,29.2617,0.00401831,0.00293307,-0.00236605,0.00590316,0.00104822,-0.672679,0.00363674,0.013021,1777,1534,25.9362,-29.2618
560,-510,25.8599,28.5331,0.00327214,0.00197939,-0.00162903,0.00437834,0.000873182,-0.596533,0.00267576,0.0131861,1784,1534,25.8599,-28.5331
567,-510,25.8153,27.7966,0.0029038,0.00142905,-0.0012923,0.0036543,0.000678556,-0.52614,0.00224447,0.0123837,1791,1534,25.8153,-27.7967
574,-510,25.795,27.1179,0.00276346,0.00105724,-0.00114286,0.00333651,0.000484192,-0.464778,0.0020818,0.0129353,1798,1534,25.7951,-27.1179
581,-510,25.7611,26.4502,0.00282968,0.000894173,-0.00117166,0.00338157,0.000342277,-0.440211,0.00214939,0.0121878,1805,1534,25.7611,-26.4502
588,-510,25.7413,25.7374,0.00317888,0.000989868,-0.00144056,0.00389356,0.00027519,-0.460532,0.00250901,0.0135488,1812,1534,25.7413,-25.7374
595,-510,25.8402,24.8895,0.00381905,0.00132735,-0.00188897,0.00483602,0.00031038,-0.493872,0.0031257,0.0213745,1819,1534,25.8402,-24.8896
602,-510,25.853,23.9946,0,0,0,0,0,0,0,-1,1826,1534,25.8531,-23.9946
609,-510,21.259,19.222,0,0,0,0,0,0,0,-1,1833,1534,21.259,-19.222
616,-510,18.7024,16.2474,0,0,0,0,0,0,0,-1,1840,1534,18.7024,-16.2474
623,-510,19.6013,14.6211,0,0,0,0,0,0,0,-1,1847,1534,19.6013,-14.6211
630,-510,13.7461,9.30334,0,0,0,0,0,0,0,-1,1854,1534,13.7461,-9.30335
637,-510,11.0155,7.38464,0,0,0,0,0,0,0,-1,1861,1534,11.0155,-7.38463
644,-510,11.5809,7.17126,0,0,0,0,0,0,0,-1,1868,1534,11.5809,-7.17123
651,-510,8.70471,3.5061,0,0,0,0,0,0,0,-1,1875,1534,8.70475,-3.50611
658,-510,0,0,0,0,0,0,0,0,0,-1,1882,1534,0,0
665,-510,0,0,0,0,0,0,0,0,0,-1,1889,1534,0,0
672,-510,0,0,0,0,0,0,0,0,0,-1,1896,1534,0,0
679,-510,0,0,0,0,0,0,0,0,0,-1,1903,1534,0,0
686,-510,0,0,0,0,0,0,0,0,0,-1,1910,1534,0,0
693,-510,0,0,0,0,0,0,0,0,0,-1,1917,1534,0,0
700,-510,0,0,0,0,0,0,0,0,0,-1,1924,1534,0,0
707,-510,0,0,0,0,0,0,0,0,0,-1,1931,1534,0,0
714,-510,0,0,0,0,0,0,0,0,0,-1,1938,1534,0,0
721,-510,0,0,0,0,0,0,0,0,0,-1,1945,1534,0,0
728,-510,0,0,0,0,0,0,0,0,0,-1,1952,1534,0,0
735,-510,0,0,0,0,0,0,0,0,0,-1,1959,1534,0,0
742,-510,0,0,0,0,0,0,0,0,0,-1,1966,1534,0,0
749,-510,0,0,0,0,0,0,0,0,0,-1,1973,1534,0,0
756,-510,0,0,0,0,0,0,0,0,0,-1,1980,1534,0,0
763,-510,0,0,0,0,0,0,0,0,0,-1,1987,1534,0,0
770,-510,0,0,0,0,0,0,0,0,0,-1,1994,1534,0,0
777,-510,0,0,0,0,0,0,0,0,0,-1,2001,1534,0,0
784,-510,0,0,0,0,0,0,0,0,0,-1,2008,1534,0,0
791,-510,0,0,0,0,0,0,0,0,0,-1,2015,1534,0,0
798,-510,0,0,0,0,0,0,0,0,0,-1,2022,1534,0,0
805,-510,0,0,0,0,0,0,0,0,0,-1,2029,1534,0,0
812,-510,0,0,0,0,0,0,0,0,0,-1,2036,1534,0,0
-700,-517,0,0,0,0,0,0,0,0,0,-1,524,1541,0,0
-693,-517,0,0,0,0,0,0,0,0,0,-1,531,1541,0,0
-686,-517,0,0,0,0,0,0,0,0,0,-1,538,1541,0,0
-679,-517,0,0,0,0,0,0,0,0,0,-1,545,1541,0,0
-672,-517,0,0,0,0,0,0,0,0,0,-1,552,1541,0,0
-665,-517,0,0,0,0,0,0,0,0,0,-1,559,1541,0,0
-658,-517,0,0,0,0,0,0,0,0,0,-1,566,1541,0,0
-651,-517,0,0,0,0,0,0,0,0,0,-1,573,1541,0,0
-644,-517,0,0,0,0,0,0,0,0,0,-1,580,1541,0,0
-637,-517,0,0,0,0,0,0,0,0,0,-1,587,1541,0,0
-630,-517,0,0,0,0,0,0,0,0,0,-1,594,1541,0,0
-623,-517,0,0,0,0,0,0,0,0,0,-1,601,1541,0,0
-616,-517,0,0,0,0,0,0,0,0,0,-1,608,1541,0,0
-609,-517,0,0,0,0,0,0,0,0,0,-1,615,1541,0,0
-602,-517,0,0,0,0,0,0,0,0,0,-1,622,1541,0,0
-595,-517,0,0,0,0,0,0,0,0,0,-1,629,1541,0,0
-588,-517,0,0,0,0,0,0,0,0,0,-1,636,1541,0,0
-581,-517,0,0,0,0,0,0,0,0,0,-1,643,1541,0,0
-574,-517,0,0,0,0,0,0,0,0,0,-1,650,1541,0,0
-567,-517,0,0,0,0,0,0,0,0,0,-1,657,1541,0,0
-560,-517,0,0,0,0,0,0,0,0,0,-1,664,1541,0,0
-553,-517,0,0,0,0,0,0,0,0,0,-1,671,1541,0,0
-546,-517,0,0,0,0,0,0,0,0,0,-1,678,1541,0,0
-539,-517,0,0,0,0,0,0,0,0,0,-1,685,1541,0,0
-532,-517,0,0,0,0,0,0,0,0,0,-1,692,1541,0,0
-525,-517,-3.62903,4.3606,0,0,0,0,0,0,0,-1,699,1541,-3.62904,-4.36056
-518,-517,-1.664,2.27209,0,0,0,0,0,0,0,-1,706,1541,-1.66399,-2.27207
-511,-517,-0.999146,5.52063,0,0,0,0,0,0,0,-1,713,1541,-0.999126,-5.52059
-504,-517,-1.06946,8.67432,0,0,0,0,0,0,0,-1,720,1541,-1.06947,-8.6743
-497,-517,-5.43036,17.4033,0,0,0,0,0,0,0,-1,727,1541,-5.43033,-17.4034
-490,-517,-6.20526,19.4496,0,0,0,0,0,0,0,-1,734,1541,-6.20526,-19.4495
-483,-517,-6.2254,20.368,0,0,0,0,0,0,0,-1,741,1541,-6.22542,-20.368
-476,-517,-6.88831,22.9315,0,0,0,0,0,0,0,-1,748,1541,-6.88833,-22.9315
-469,-517,-7.05774,23.7714,0.00143683,-0.00959847,-0.00132542,0.00159379,-0.00975543,-0.117874,0.00709481,0.0274968,755,1541,-7.05773,-23.7713
-462,-517,-7.25232,24.4691,0.00051598,-0.00771499,-0.00148195,0.000774669,-0.00797368,-0.172818,0.00559192,0.027625,762,1541,-7.2523,-24.4691
-455,-517,-7.28912,25.2693,-2.7291e-05,-0.00584301,-0.0013953,0.000290143,-0.00616045,-0.223694,0.00420702,0.0179779,769,1541,-7.28914,-25.2693
-448,-517,-7.29816,26.0498,-0.00026307,-0.00423567,-0.00116937,5.55825e-05,-0.00455433,-0.26604,0.00305491,0.0153891,776,1541,-7.29818,-26.0498
-441,-517,-7.34393,26.7726,-0.000145679,-0.00263969,-0.000691747,3.3337e-05,-0.00281871,-0.253232,0.00189035,0.0129779,783,1541,-7.34393,-26.7726
-434,-517,-7.37616,27.5071,0.000198935,-0.00113851,-9.8538e-05,0.000206156,-0.00114573,-0.0731497,0.000841007,0.0153308,790,1541,-7.37614,-27.5071
-427,-517,-7.41876,28.2335,0.000700725,0.000182157,0.000526796,0.00102859,-0.000145707,0.556708,0.000739098,0.0149348,797,1541,-7.41876,-28.2335
-420,-517,-7.47681,28.9805,0.00139491,0.00145853,0.00123917,0.00266629,0.000187145,0.798231,0.00171855,0.0298461,804,1541,-7.47679,-28.9805
-413,-517,-7.50867,29.7041,0.00224002,0.00264481,0.00199408,0.00444674,0.000438089,0.835973,0.00282979,0.0163718,811,1541,-7.50864,-29.7041
-406,-517,-7.53479,30.459,0.00322554,0.00379476,0.00275116,0.00627599,0.00074431,0.83694,0.00395928,0.0115364,818,1541,-7.53476,-30.459
-399,-517,-7.54578,31.1995,0.00422633,0.00500631,0.00350108,0.00813906,0.00109358,0.840865,0.00510074,0.0113805,825,1541,-7.54578,-31.1994
-392,-517,-7.56134,31.9402,0.0051644,0.00626874,0.0041693,0.00992227,0.00151087,0.851234,0.00617317,0.0194438,832,1541,-7.56133,-31.9401
-385,-517,-7.51965,32.7542,0,0,0,0,0,0,0,-1,839,1541,-7.51966,-32.7541
-378,-517,-6.61444,32.6315,0,0,0,0,0,0,0,-1,846,1541,-6.61445,-32.6315
-371,-517,-1.37585,13.2646,0,0,0,0,0,0,0,-1,853,1541,-1.37586,-13.2647
-364,-517,-1.26245,12.6289,0,0,0,0,0,0,0,-1,860,1541,-1.26243,-12.6289
-357,-517,-1.23889,12.979,0,0,0,0,0,0,0,-1,867,1541,-1.23891,-12.979
-350,-517,-5.40198,23.8954,0,0,0,0,0,0,0,-1,874,1541,-5.40196,-23.8954
-343,-517,-5.45844,29.2598,0,0,0,0,0,0,0,-1,881,1541,-5.45842,-29.2598
-336,-517,-4.53223,29.6708,0,0,0,0,0,0,0,-1,888,1541,-4.53221,-29.6708
-329,-517,-3.60602,30.0817,0,0,0,0,0,0,0,-1,895,1541,-3.60601,-30.0817
-322,-517,-4.21246,19.5819,0,0,0,0,0,0,0,-1,902,1541,-4.21244,-19.5819
-315,-517,-0.987976,7.29749,0,0,0,0,0,0,0,-1,909,1541,-0.987993,-7.29743
-308,-517,3.27911,17.621,0,0,0,0,0,0,0,-1,916,1541,3.27913,-17.621
-301,-517,-1.69141,8.87488,0,0,0,0,0,0,0,-1,923,1541,-1.69141,-8.87485
-294,-517,-1.72583,9.92566,0,0,0,0,0,0,0,-1,930,1541,-1.72584,-9.92571
-287,-517,-3.09045,12.1472,0,0,0,0,0,0,0,-1,937,1541,-3.09043,-12.1472
-280,-517,0,0,0,0,0,0,0,0,0,-1,944,1541,0,0
-273,-517,0,0,0,0,0,0,0,0,0,-1,951,1541,0,0
-266,-517,0,0,0,0,0,0,0,0,0,-1,958,1541,0,0
-259,-517,0,0,0,0,0,0,0,0,0,-1,965,1541,0,0
-252,-517,0,0,0,0,0,0,0,0,0,-1,972,1541,0,0
-245,-517,0,0,0,0,0,0,0,0,0,-1,979,1541,0,0
-238,-517,0,0,0,0,0,0,0,0,0,-1,986,1541,0,0
-231,-517,0,0,0,0,0,0,0,0,0,-1,993,1541,0,0
-224,-517,0,0,0,0,0,0,0,0,0,-1,1000,1541,0,0
-217,-517,0,0,0,0,0,0,0,0,0,-1,1007,1541,0,0
-210,-517,0,0,0,0,0,0,0,0,0,-1,1014,1541,0,0
-203,-517,0,0,0,0,0,0,0,0,0,-1,1021,1541,0,0
-196,-517,0,0,0,0,0,0,0,0,0,-1,1028,1541,0,0
-189,-517,0,0,0,0,0,0,0,0,0,-1,1035,1541,0,0
-182,-517,0,0,0,0,0,0,0,0,0,-1,1042,1541,0,0
-175,-517,0,0,0,0,0,0,0,0,0,-1,1049,1541,0,0
-168,-517,0,0,0,0,0,0,0,0,0,-1,1056,1541,0,0
-161,-517,0,0,0,0,0,0,0,0,0,-1,1063,1541,0,0
-154,-517,0,0,0,0,0,0,0,0,0,-1,1070,1541,0,0
-147,-517,0,0,0,0,0,0,0,0,0,-1,1077,1541,0,0
-140,-517,0,0,0,0,0,0,0,0,0,-1,1084,1541,0,0
-133,-517,0,0,0,0,0,0,0,0,0,-1,1091,1541,0,0
-126,-517,0,0,0,0,0,0,0,0,0,-1,1098,1541,0,0
-119,-517,0,0,0,0,0,0,0,0,0,-1,1105,1541,0,0
-112,-517,0,0,0,0,0,0,0,0,0,-1,1112,1541,0,0
-105,-517,0,0,0,0,0,0,0,0,0,-1,1119,1541,0,0
-98,-517,0,0,0,0,0,0,0,0,0,-1,1126,1541,0,0
-91,-517,0,0,0,0,0,0,0,0,0,-1,1133,1541,0,0
-84,-517,0,0,0,0,0,0,0,0,0,-1,1140,1541,0,0
-77,-517,0,0,0,0,0,0,0,0,0,-1,1147,1541,0,0
-70,-517,0,0,0,0,0,0,0,0,0,-1,1154,1541,0,0
-63,-517,0,0,0,0,0,0,0,0,0,-1,1161,1541,0,0
-56,-517,0,0,0,0,0,0,0,0,0,-1,1168,1541,0,0
-49,-517,0,0,0,0,0,0,0,0,0,-1,1175,1541,0,0
-42,-517,0,0,0,0,0,0,0,0,0,-1,1182,1541,0,0
-35,-517,0,0,0,0,0,0,0,0,0,-1,1189,1541,0,0
-28,-517,0,0,0,0,0,0,0,0,0,-1,1196,1541,0,0
-21,-517,0,0,0,0,0,0,0,0,0,-1,1203,1541,0,0
-14,-517,0,0,0,0,0,0,0,0,0,-1,1210,1541,0,0
-7,-517,0,0,0,0,0,0,0,0,0,-1,1217,1541,0,0
0,-517,0,0,0,0,0,0,0,0,0,-1,1224,1541,0,0
7,-517,0,0,0,0,0,0,0,0,0,-1,1231,1541,0,0
14,-517,0,0,0,0,0,0,0,0,0,-1,1238,1541,0,0
21,-517,0,0,0,0,0,0,0,0,0,-1,1245,1541,0,0
28,-517,0,0,0,0,0,0,0,0,0,-1,1252,1541,0,0
35,-517,0,0,0,0,0,0,0,0,0,-1,1259,1541,0,0
42,-517,0,0,0,0,0,0,0,0,0,-1,1266,1541,0,0
49,-517,0,0,0,0,0,0,0,0,0,-1,1273,1541,0,0
56,-517,0,0,0,0,0,0,0,0,0,-1,1280,1541,0,0
63,-517,0,0,0,0,0,0,0,0,0,-1,1287,1541,0,0
70,-517,0,0,0,0,0,0,0,0,0,-1,1294,1541,0,0
77,-517,0,0,0,0,0,0,0,0,0,-1,1301,1541,0,0
84,-517,0,0,0,0,0,0,0,0,0,-1,1308,1541,0,0
91,-517,0,0,0,0,0,0,0,0,0,-1,1315,1541,0,0
98,-517,0,0,0,0,0,0,0,0,0,-1,1322,1541,0,0
105,-517,0,0,0,0,0,0,0,0,0,-1,1329,1541,0,0
112,-517,0,0,0,0,0,0,0,0,0,-1,1336,1541,0,0
119,-517,0,0,0,0,0,0,0,0,0,-1,1343,1541,0,0
126,-517,0,0,0,0,0,0,0,0,0,-1,1350,1541,0,0
133,-517,0,0,0,0,0,0,0,0,0,-1,1357,1541,0,0
140,-517,0,0,0,0,0,0,0,0,0,-1,1364,1541,0,0
147,-517,0,0,0,0,0,0,0,0,0,-1,1371,1541,0,0
154,-517,0,0,0,0,0,0,0,0,0,-1,1378,1541,0,0
161,-517,0,0,0,0,0,0,0,0,0,-1,1385,1541,0,0
168,-517,0,0,0,0,0,0,0,0,0,-1,1392,1541,0,0
175,-517,0,0,0,0,0,0,0,0,0,-1,1399,1541,0,0
182,-517,0,0,0,0,0,0,0,0,0,-1,1406,1541,0,0
189,-517,0,0,0,0,0,0,0,0,0,-1,1413,1541,0,0
196,-517,0,0,0,0,0,0,0,0,0,-1,1420,1541,0,0
203,-517,0,0,0,0,0,0,0,0,0,-1,1427,1541,0,0
210,-517,0,0,0,0,0,0,0,0,0,-1,1434,1541,0,0
217,-517,0,0,0,0,0,0,0,0,0,-1,1441,1541,0,0
224,-517,0,0,0,0,0,0,0,0,0,-1,1448,1541,0,0
231,-517,0,0,0,0,0,0,0,0,0,-1,1455,1541,0,0
238,-517,0,0,0,0,0,0,0,0,0,-1,1462,1541,0,0
245,-517,0,0,0,0,0,0,0,0,0,-1,1469,1541,0,0
252,-517,0,0,0,0,0,0,0,0,0,-1,1476,1541,0,0
259,-517,0,0,0,0,0,0,0,0,0,-1,1483,1541,0,0
266,-517,0,0,0,0,0,0,0,0,0,-1,1490,1541,0,0
273,-517,0,0,0,0,0,0,0,0,0,-1,1497,1541,0,0
280,-517,0,0,0,0,0,0,0,0,0,-1,1504,1541,0,0
287,-517,0,0,0,0,0,0,0,0,0,-1,1511,1541,0,0
294,-517,0,0,0,0,0,0,0,0,0,-1,1518,1541,0,0
301,-517,0,0,0,0,0,0,0,0,0,-1,1525,1541,0,0
308,-517,0,0,0,0,0,0,0,0,0,-1,1532,1541,0,0
315,-517,0,0,0,0,0,0,0,0,0,-1,1539,1541,0,0
322,-517,0,0,0,0,0,0,0,0,0,-1,1546,1541,0,0
329,-517,0,0,0,0,0,0,0,0,0,-1,1553,1541,0,0
336,-517,0,0,0,0,0,0,0,0,0,-1,1560,1541,0,0
343,-517,0,0,0,0,0,0,0,0,0,-1,1567,1541,0,0
350,-517,0,0,0,0,0,0,0,0,0,-1,1574,1541,0,0
357,-517,0,0,0,0,0,0,0,0,0,-1,1581,1541,0,0
364,-517,0,0,0,0,0,0,0,0,0,-1,1588,1541,0,0
371,-517,0,0,0,0,0,0,0,0,0,-1,1595,1541,0,0
378,-517,0,0,0,0,0,0,0,0,0,-1,1602,1541,0,0
385,-517,0,0,0,0,0,0,0,0,0,-1,1609,1541,0,0
392,-517,0,0,0,0,0,0,0,0,0,-1,1616,1541,0,0
399,-517,0,0,0,0,0,0,0,0,0,-1,1623,1541,0,0
406,-517,13.1395,7.01978,0,0,0,0,0,0,0,-1,1630,1541,13.1396,-7.01981
413,-517,12.8859,6.31592,0,0,0,0,0,0,0,-1,1637,1541,12.8858,-6.31588
420,-517,12.4789,6.20337,0,0,0,0,0,0,0,-1,1644,1541,12.4789,-6.20333
427,-517,11.647,4.66516,0,0,0,0,0,0,0,-1,1651,1541,11.647,-4.66519
434,-517,12.3719,3.92773,0,0,0,0,0,0,0,-1,1658,1541,12.3719,-3.92776
441,-517,13.146,3.14124,0,0,0,0,0,0,0,-1,1665,1541,13.146,-3.14121
448,-517,13.8861,2.36682,0,0,0,0,0,0,0,-1,1672,1541,13.8861,-2.36684
455,-517,13.6012,4.06335,0,0,0,0,0,0,0,-1,1679,1541,13.6012,-4.06335
462,-517,14.8956,7.0752,0,0,0,0,0,0,0,-1,1686,1541,14.8956,-7.07525
469,-517,13.6292,6.87744,0,0,0,0,0,0,0,-1,1693,1541,13.6292,-6.87739
476,-517,17.1632,14.1487,0,0,0,0,0,0,0,-1,1700,1541,17.1632,-14.1487
483,-517,16.5157,15.0776,0,0,0,0,0,0,0,-1,1707,1541,16.5157,-15.0777
490,-517,15.5439,18.0258,0,0,0,0,0,0,0,-1,1714,1541,15.5439,-18.0258
497,-517,16.0292,18.7786,0,0,0,0,0,0,0,-1,1721,1541,16.0291,-18.7786
504,-517,17.3815,22.3873,0,0,0,0,0,0,0,-1,1728,1541,17.3814,-22.3873
511,-517,16.9674,21.8491,0,0,0,0,0,0,0,-1,1735,1541,16.9674,-21.8491
518,-517,24.9584,32.957,0,0,0,0,0,0,0,-1,1742,1541,24.9583,-32.957
525,-517,25.1763,32.1836,0.00849844,0.00803057,-0.00664222,0.0149108,0.00161817,-0.767796,0.00944748,0.0272164,1749,1541,25.1762,-32.1836
532,-517,25.3489,31.3318,0.00666316,0.00625866,-0.00510616,0.0115711,0.00135075,-0.765604,0.00730555,0.0124713,1756,1541,25.3489,-31.3318
539,-517,25.3396,30.6321,0.00523603,0.00473744,-0.00382331,0.00881816,0.00115531,-0.752842,0.00553402,0.0136713,1763,1541,25.3396,-30.6321
546,-517,25.2875,29.991,0.00415317,0.0034787,-0.00278201,0.00661831,0.00101355,-0.725082,0.00411616,0.0146814,1770,1541,25.2875,-29.9909
553,-517,25.2327,29.3018,0.00331709,0.00238982,-0.00189716,0.00480644,0.000900468,-0.665555,0.0029503,0.0177605,1777,1541,25.2327,-29.3018
560,-517,25.2046,28.599,0.002788,0.00153181,-0.00123706,0.00354729,0.000772526,-0.550492,0.00215403,0.0162614,1784,1541,25.2046,-28.5991
567,-517,25.1586,27.8806,0.00261184,0.00104456,-0.000947616,0.00305786,0.00059854,-0.439917,0.00187124,0.0126434,1791,1541,25.1586,-27.8806
574,-517,25.1212,27.1605,0.00264155,0.000699462,-0.000813326,0.00293716,0.000403846,-0.348619,0.00183834,0.0137855,1798,1541,25.1212,-27.1605
581,-517,25.0667,26.4651,0.00292956,0.000574894,-0.000900632,0.00323454,0.000269915,-0.326508,0.00207226,0.0158768,1805,1541,25.0666,-26.465
588,-517,25.0573,25.748,0.00352165,0.000742011,-0.00125503,0.00400445,0.000259215,-0.367239,0.00258756,0.0179206,1812,1541,25.0573,-25.7481
595,-517,25.0823,25.0575,0.00437015,0.00123769,-0.00184385,0.00522319,0.000384653,-0.433315,0.00336125,0.0443076,1819,1541,25.0823,-25.0574
602,-517,25.3158,24.1104,0,0,0,0,0,0,0,-1,1826,1541,25.3157,-24.1104
609,-517,12.6417,10.8751,0,0,0,0,0,0,0,-1,1833,1541,12.6417,-10.8751
616,-517,14.205,10.3193,0,0,0,0,0,0,0,-1,1840,1541,14.205,-10.3194
623,-517,12.578,10.0779,0,0,0,0,0,0,0,-1,1847,1541,12.578,-10.0779
630,-517,11.7035,7.47815,0,0,0,0,0,0,0,-1,1854,1541,11.7035,-7.47812
637,-517,11.5172,5.79822,0,0,0,0,0,0,0,-1,1861,1541,11.5173,-5.79825
644,-517,11.4232,3.30579,0,0,0,0,0,0,0,-1,1868,1541,11.4232,-3.30574
651,-517,0,0,0,0,0,0,0,0,0,-1,1875,1541,0,0
658,-517,0,0,0,0,0,0,0,0,0,-1,1882,1541,0,0
665,-517,0,0,0,0,0,0,0,0,0,-1,1889,1541,0,0
672,-517,0,0,0,0,0,0,0,0,0,-1,1896,1541,0,0
679,-517,0,0,0,0,0,0,0,0,0,-1,1903,1541,0,0
686,-517,0,0,0,0,0,0,0,0,0,-1,1910,1541,0,0
693,-517,0,0,0,0,0,0,0,0,0,-1,1917,1541,0,0
700,-517,0,0,0,0,0,0,0,0,0,-1,1924,1541,0,0
707,-517,0,0,0,0,0,0,0,0,0,-1,1931,1541,0,0
714,-517,0,0,0,0,0,0,0,0,0,-1,1938,1541,0,0
721,-517,0,0,0,0,0,0,0,0,0,-1,1945,1541,0,0
728,-517,0,0,0,0,0,0,0,0,0,-1,1952,1541,0,0
735,-517,0,0,0,0,0,0,0,0,0,-1,1959,1541,0,0
742,-517,0,0,0,0,0,0,0,0,0,-1,1966,1541,0,0
749,-517,0,0,0,0,0,0,0,0,0,-1,1973,1541,0,0
756,-517,0,0,0,0,0,0,0,0,0,-1,1980,1541,0,0
763,-517,0,0,0,0,0,0,0,0,0,-1,1987,1541,0,0
770,-517,0,0,0,0,0,0,0,0,0,-1,1994,1541,0,0
777,-517,0,0,0,0,0,0,0,0,0,-1,2001,1541,0,0
784,-517,0,0,0,0,0,0,0,0,0,-1,2008,1541,0,0
791,-517,0,0,0,0,0,0,0,0,0,-1,2015,1541,0,0
798,-517,0,0,0,0,0,0,0,0,0,-1,2022,1541,0,0
805,-517,0,0,0,0,0,0,0,0,0,-1,2029,1541,0,0
812,-517,0,0,0,0,0,0,0,0,0,-1,2036,1541,0,0
-700,-524,0,0,0,0,0,0,0,0,0,-1,524,1548,0,0
-693,-524,0,0,0,0,0,0,0,0,0,-1,531,1548,0,0
-686,-524,0,0,0,0,0,0,0,0,0,-1,538,1548,0,0
-679,-524,0,0,0,0,0,0,0,0,0,-1,545,1548,0,0
-672,-524,0,0,0,0,0,0,0,0,0,-1,552,1548,0,0
-665,-524,0,0,0,0,0,0,0,0,0,-1,559,1548,0,0
-658,-524,0,0,0,0,0,0,0,0,0,-1,566,1548,0,0
-651,-524,0,0,0,0,0,0,0,0,0,-1,573,1548,0,0
-644,-524,0,0,0,0,0,0,0,0,0,-1,580,1548,0,0
-637,-524,0,0,0,0,0,0,0,0,0,-1,587,1548,0,0
-630,-524,0,0,0,0,0,0,0,0,0,-1,594,1548,0,0
-623,-524,0,0,0,0,0,0,0,0,0,-1,601,1548,0,0
-616,-524,0,0,0,0,0,0,0,0,0,-1,608,1548,0,0
-609,-524,0,0,0,0,0,0,0,0,0,-1,615,1548,0,0
-602,-524,0,0,0,0,0,0,0,0,0,-1,622,1548,0,0
-595,-524,0,0,0,0,0,0,0,0,0,-1,629,1548,0,0
-588,-524,0,0,0,0,0,0,0,0,0,-1,636,1548,0,0
-581,-524,0,0,0,0,0,0,0,0,0,-1,643,1548,0,0
-574,-524,0,0,0,0,0,0,0,0,0,-1,650,1548,0,0
-567,-524,0,0,0,0,0,0,0,0,0,-1,657,1548,0,0
-560,-524,0,0,0,0,0,0,0,0,0,-1,664,1548,0,0
-553,-524,0,0,0,0,0,0,0,0,0,-1,671,1548,0,0
-546,-524,0,0,0,0,0,0,0,0,0,-1,678,1548,0,0
-539,-524,0,0,0,0,0,0,0,0,0,-1,685,1548,0,0
-532,-524,0,0,0,0,0,0,0,0,0,-1,692,1548,0,0
-525,-524,-0.215515,3.97131,0,0,0,0,0,0,0,-1,699,1548,-0.215501,-3.97136
-518,-524,-0.806274,4.35632,0,0,0,0,0,0,0,-1,706,1548,-0.806259,-4.35633
-511,-524,-1.08301,4.29004,0,0,0,0,0,0,0,-1,713,1548,-1.08301,-4.29006
-504,-524,-1.28821,3.98145,0,0,0,0,0,0,0,-1,720,1548,-1.28822,-3.98151
-497,-524,-0.328491,8.63416,0,0,0,0,0,0,0,-1,727,1548,-0.328487,-8.63411
-490,-524,-6.65582,19.3033,0,0,0,0,0,0,0,-1,734,1548,-6.65583,-19.3034
-483,-524,-7.23517,21.8695,0,0,0,0,0,0,0,-1,741,1548,-7.23515,-21.8695
-476,-524,-6.75134,23.5477,0,0,0,0,0,0,0,-1,748,1548,-6.75134,-23.5477
-469,-524,-6.69604,24.1683,0.00172335,-0.0128941,-0.00224717,0.00206101,-0.0132318,-0.149145,0.00958236,0.0445772,755,1548,-6.69602,-24.1684
-462,-524,-6.43195,24.7827,0.000384865,-0.0102257,-0.00235158,0.000882682,-0.0107235,-0.208615,0.00746063,0.0414763,762,1548,-6.43195,-24.7827
-455,-524,-6.80334,25.5577,0,0,0,0,0,0,0,-1,769,1548,-6.80332,-25.5577
-448,-524,-6.58759,26.0889,-0.00087332,-0.00578402,-0.00194124,-0.000198632,-0.00645871,-0.334496,0.00424115,0.0168089,776,1548,-6.58758,-26.0888
-441,-524,-6.60565,26.8157,-0.000842283,-0.00394808,-0.00141363,-0.00029522,-0.00449514,-0.369243,0.00290336,0.0117235,783,1548,-6.60564,-26.8157
-434,-524,-6.61328,27.5483,-0.00055514,-0.00232468,-0.000804098,-0.000244339,-0.00263548,-0.368833,0.00168147,0.013897,790,1548,-6.61326,-27.5483
-427,-524,-6.64191,28.2863,-0.000102749,-0.000962146,-0.000190022,-6.2608e-05,-0.00100229,-0.208183,0.00064833,0.0170372,797,1548,-6.64193,-28.2862
-420,-524,-6.70123,29.0222,0.000542075,0.000285675,0.000473403,0.00090433,-7.65791e-05,0.653167,0.000629966,0.0406847,804,1548,-6.70122,-29.0222
-413,-524,-6.79126,29.7545,0.00126832,0.00146518,0.00109038,0.00246157,0.000271931,0.830412,0.00155833,0.0376028,811,1548,-6.79123,-29.7546
-406,-524,-6.78387,30.4989,0.00209792,0.00246979,0.00172941,0.00402323,0.000544482,0.83895,0.00252034,0.0134923,818,1548,-6.78389,-30.4989
-399,-524,-6.80841,31.2246,0.0029814,0.00347499,0.00230886,0.00555021,0.000906189,0.838641,0.00343812,0.0100096,825,1548,-6.8084,-31.2246
-392,-524,-6.85626,31.9182,0.00377293,0.00447703,0.0027997,0.00694673,0.00130323,0.847943,0.00426366,0.0105102,832,1548,-6.85628,-31.9182
-385,-524,-6.89807,32.6787,0.00434635,0.00541397,0.00309334,0.00801922,0.0017411,0.870841,0.00487064,0.0172365,839,1548,-6.89806,-32.6787
-378,-524,-6.89331,33.504,0,0,0,0,0,0,0,-1,846,1548,-6.89329,-33.504
-371,-524,-4.20789,29.1592,0,0,0,0,0,0,0,-1,853,1548,-4.2079,-29.1592
-364,-524,-0.712097,14.9871,0,0,0,0,0,0,0,-1,860,1548,-0.712116,-14.9871
-357,-524,-1.34052,14.7448,0,0,0,0,0,0,0,-1,867,1548,-1.34054,-14.7447
-350,-524,-4.31909,25.032,0,0,0,0,0,0,0,-1,874,1548,-4.31906,-25.0319
-343,-524,-3.69696,28.6923,0,0,0,0,0,0,0,-1,881,1548,-3.69694,-28.6922
-336,-524,-3.4873,29.655,0,0,0,0,0,0,0,-1,888,1548,-3.48728,-29.6551
-329,-524,-3.21936,30.5509,0,0,0,0,0,0,0,-1,895,1548,-3.21933,-30.5509
-322,-524,-4.31378,25.6389,0,0,0,0,0,0,0,-1,902,1548,-4.31379,-25.639
-315,-524,-1.90839,19.4824,0,0,0,0,0,0,0,-1,909,1548,-1.90838,-19.4824
-308,-524,-2.36938,19.3059,0,0,0,0,0,0,0,-1,916,1548,-2.3694,-19.3058
-301,-524,2.72394,17.7618,0,0,0,0,0,0,0,-1,923,1548,2.72396,-17.7619
-294,-524,-1.52515,9.05408,0,0,0,0,0,0,0,-1,930,1548,-1.52512,-9.05411
-287,-524,-0.962219,10.3199,0,0,0,0,0,0,0,-1,937,1548,-0.962241,-10.32
-280,-524,-1.36255,10.3859,0,0,0,0,0,0,0,-1,944,1548,-1.36253,-10.3859
-273,-524,0,0,0,0,0,0,0,0,0,-1,951,1548,0,0
-266,-524,0,0,0,0,0,0,0,0,0,-1,958,1548,0,0
-259,-524,0,0,0,0,0,0,0,0,0,-1,965,1548,0,0
-252,-524,0,0,0,0,0,0,0,0,0,-1,972,1548,0,0
-245,-524,0,0,0,0,0,0,0,0,0,-1,979,1548,0,0
-238,-524,0,0,0,0,0,0,0,0,0,-1,986,1548,0,0
-231,-524,0,0,0,0,0,0,0,0,0,-1,993,1548,0,0
-224,-524,0,0,0,0,0,0,0,0,0,-1,1000,1548,0,0
-217,-524,0,0,0,0,0,0,0,0,0,-1,1007,1548,0,0
-210,-524,0,0,0,0,0,0,0,0,0,-1,1014,1548,0,0
-203,-524,0,0,0,0,0,0,0,0,0,-1,1021,1548,0,0
-196,-524,0,0,0,0,0,0,0,0,0,-1,1028,1548,0,0
-189,-524,0,0,0,0,0,0,0,0,0,-1,1035,1548,0,0
-182,-524,0,0,0,0,0,0,0,0,0,-1,1042,1548,0,0
-175,-524,0,0,0,0,0,0,0,0,0,-1,1049,1548,0,0
-168,-524,0,0,0,0,0,0,0,0,0,-1,1056,1548,0,0
-161,-524,0,0,0,0,0,0,0,0,0,-1,1063,1548,0,0
-154,-524,0,0,0,0,0,0,0,0,0,-1,1070,1548,0,0
-147,-524,0,0,0,0,0,0,0,0,0,-1,1077,1548,0,0
-140,-524,0,0,0,0,0,0,0,0,0,-1,1084,1548,0,0
-133,-524,0,0,0,0,0,0,0,0,0,-1,1091,1548,0,0
-126,-524,0,0,0,0,0,0,0,0,0,-1,1098,1548,0,0
-119,-524,0,0,0,0,0,0,0,0,0,-1,1105,1548,0,0
-112,-524,0,0,0,0,0,0,0,0,0,-1,1112,1548,0,0
-105,-524,0,0,0,0,0,0,0,0,0,-1,1119,1548,0,0
-98,-524,0,0,0,0,0,0,0,0,0,-1,1126,1548,0,0
-91,-524,0,0,0,0,0,0,0,0,0,-1,1133,1548,0,0
-84,-524,0,0,0,0,0,0,0,0,0,-1,1140,1548,0,0
-77,-524,0,0,0,0,0,0,0,0,0,-1,1147,1548,0,0
-70,-524,0,0,0,0,0,0,0,0,0,-1,1154,1548,0,0
-63,-524,0,0,0,0,0,0,0,0,0,-1,1161,1548,0,0
-56,-524,0,0,0,0,0,0,0,0,0,-1,1168,1548,0,0
-49,-524,0,0,0,0,0,0,0,0,0,-1,1175,1548,0,0
-42,-524,0,0,0,0,0,0,0,0,0,-1,1182,1548,0,0
-35,-524,0,0,0,0,0,0,0,0,0,-1,1189,1548,0,0
-28,-524,0,0,0,0,0,0,0,0,0,-1,1196,1548,0,0
-21,-524,0,0,0,0,0,0,0,0,0,-1,1203,1548,0,0
-14,-524,0,0,0,0,0,0,0,0,0,-1,1210,1548,0,0
-7,-524,0,0,0,0,0,0,0,0,0,-1,1217,1548,0,0
0,-524,0,0,0,0,0,0,0,0,0,-1,1224,1548,0,0
7,-524,0,0,0,0,0,0,0,0,0,-1,1231,1548,0,0
14,-524,0,0,0,0,0,0,0,0,0,-1,1238,1548,0,0
21,-524,0,0,0,0,0,0,0,0,0,-1,1245,1548,0,0
28,-524,0,0,0,0,0,0,0,0,0,-1,1252,1548,0,0
35,-524,0,0,0,0,0,0,0,0,0,-1,1259,1548,0,0
42,-524,0,0,0,0,0,0,0,0,0,-1,1266,1548,0,0
49,-524,0,0,0,0,0,0,0,0,0,-1,1273,1548,0,0
56,-524,0,0,0,0,0,0,0,0,0,-1,1280,1548,0,0
63,-524,0,0,0,0,0,0,0,0,0,-1,1287,1548,0,0
70,-524,0,0,0,0,0,0,0,0,0,-1,1294,1548,0,0
77,-524,0,0,0,0,0,0,0,0,0,-1,1301,1548,0,0
84,-524,0,0,0,0,0,0,0,0,0,-1,1308,1548,0,0
91,-524,0,0,0,0,0,0,0,0,0,-1,1315,1548,0,0
98,-524,0,0,0,0,0,0,0,0,0,-1,1322,1548,0,0
105,-524,0,0,0,0,0,0,0,0,0,-1,1329,1548,0,0
112,-524,0,0,0,0,0,0,0,0,0,-1,1336,1548,0,0
119,-524,0,0,0,0,0,0,0,0,0,-1,1343,1548,0,0
126,-524,0,0,0,0,0,0,0,0,0,-1,1350,1548,0,0
133,-524,0,0,0,0,0,0,0,0,0,-1,1357,1548,0,0
140,-524,0,0,0,0,0,0,0,0,0,-1,1364,1548,0,0
147,-524,0,0,0,0,0,0,0,0,0,-1,1371,1548,0,0
154,-524,0,0,0,0,0,0,0,0,0,-1,1378,1548,0,0
161,-524,0,0,0,0,0,0,0,0,0,-1,1385,1548,0,0
168,-524,0,0,0,0,0,0,0,0,0,-1,1392,1548,0,0
175,-524,0,0,0,0,0,0,0,0,0,-1,1399,1548,0,0
182,-524,0,0,0,0,0,0,0,0,0,-1,1406,1548,0,0
189,-524,0,0,0,0,0,0,0,0,0,-1,1413,1548,0,0
196,-524,0,0,0,0,0,0,0,0,0,-1,1420,1548,0,0
203,-524,0,0,0,0,0,0,0,0,0,-1,1427,1548,0,0
210,-524,0,0,0,0,0,0,0,0,0,-1,1434,1548,0,0
217,-524,0,0,0,0,0,0,0,0,0,-1,1441,1548,0,0
224,-524,0,0,0,0,0,0,0,0,0,-1,1448,1548,0,0
231,-524,0,0,0,0,0,0,0,0,0,-1,1455,1548,0,0
238,-524,0,0,0,0,0,0,0,0,0,-1,1462,1548,0,0
245,-524,0,0,0,0,0,0,0,0,0,-1,1469,1548,0,0
252,-524,0,0,0,0,0,0,0,0,0,-1,1476,1548,0,0
259,-524,0,0,0,0,0,0,0,0,0,-1,1483,1548,0,0
266,-524,0,0,0,0,0,0,0,0,0,-1,1490,1548,0,0
273,-524,0,0,0,0,0,0,0,0,0,-1,1497,1548,0,0
280,-524,0,0,0,0,0,0,0,0,0,-1,1504,1548,0,0
287,-524,0,0,0,0,0,0,0,0,0,-1,1511,1548,0,0
294,-524,0,0,0,0,0,0,0,0,0,-1,1518,1548,0,0
301,-524,0,0,0,0,0,0,0,0,0,-1,1525,1548,0,0
308,-524,0,0,0,0,0,0,0,0,0,-1,1532,1548,0,0
315,-524,0,0,0,0,0,0,0,0,0,-1,1539,1548,0,0
322,-524,0,0,0,0,0,0,0,0,0,-1,1546,1548,0,0
329,-524,0,0,0,0,0,0,0,0,0,-1,1553,1548,0,0
336,-524,0,0,0,0,0,0,0,0,0,-1,1560,1548,0,0
343,-524,0,0,0,0,0,0,0,0,0,-1,1567,1548,0,0
350,-524,0,0,0,0,0,0,0,0,0,-1,1574,1548,0,0
357,-524,0,0,0,0,0,0,0,0,0,-1,1581,1548,0,0
364,-524,0,0,0,0,0,0,0,0,0,-1,1588,1548,0,0
371,-524,0,0,0,0,0,0,0,0,0,-1,1595,1548,0,0
378,-524,0,0,0,0,0,0,0,0,0,-1,1602,1548,0,0
385,-524,0,0,0,0,0,0,0,0,0,-1,1609,1548,0,0
392,-524,0,0,0,0,0,0,0,0,0,-1,1616,1548,0,0
399,-524,8.81848,5.05774,0,0,0,0,0,0,0,-1,1623,1548,8.81843,-5.05769
406,-524,8.64294,6.06799,0,0,0,0,0,0,0,-1,1630,1548,8.6429,-6.06805
413,-524,11.677,6.41858,0,0,0,0,0,0,0,-1,1637,1548,11.677,-6.41864
420,-524,11.4913,6.36401,0,0,0,0,0,0,0,-1,1644,1548,11.4913,-6.36402
427,-524,7.68335,6.17249,0,0,0,0,0,0,0,-1,1651,1548,7.68341,-6.17245
434,-524,10.432,11.6801,0,0,0,0,0,0,0,-1,1658,1548,10.432,-11.68
441,-524,8.78552,4.12305,0,0,0,0,0,0,0,-1,1665,1548,8.78553,-4.12301
448,-524,14.1854,4.78674,0,0,0,0,0,0,0,-1,1672,1548,14.1854,-4.78674
455,-524,12.4784,3.65576,0,0,0,0,0,0,0,-1,1679,1548,12.4784,-3.65572
462,-524,14.7551,9.29395,0,0,0,0,0,0,0,-1,1686,1548,14.7552,-9.29397
469,-524,16.3314,14.3779,0,0,0,0,0,0,0,-1,1693,1548,16.3314,-14.3779
476,-524,15.9106,15.1875,0,0,0,0,0,0,0,-1,1700,1548,15.9107,-15.1876
483,-524,15.2776,16.2268,0,0,0,0,0,0,0,-1,1707,1548,15.2776,-16.2269
490,-524,15.2563,18.5848,0,0,0,0,0,0,0,-1,1714,1548,15.2564,-18.5848
497,-524,17.5173,22.6123,0,0,0,0,0,0,0,-1,1721,1548,17.5174,-22.6123
504,-524,24.2477,34.6755,0,0,0,0,0,0,0,-1,1728,1548,24.2477,-34.6755
511,-524,24.6716,33.5194,0,0,0,0,0,0,0,-1,1735,1548,24.6717,-33.5195
518,-524,24.6775,32.8044,0.00857377,0.00837936,-0.00683478,0.015312,0.0016411,-0.778288,0.00970734,0.0277778,1742,1548,24.6775,-32.8045
525,-524,24.6714,32.1257,0.00678729,0.00664743,-0.00535951,0.0120773,0.00135739,-0.778875,0.00763939,0.0142402,1749,1548,24.6714,-32.1257
532,-524,24.6534,31.3868,0.0052758,0.00514438,-0.00410434,0.00931495,0.00110522,-0.777394,0.00587631,0.010892,1756,1548,24.6534,-31.3868
539,-524,24.6038,30.6666,0.00413196,0.00388545,-0.00305357,0.00706477,0.000952648,-0.765227,0.0044266,0.0125604,1763,1548,24.6038,-30.6666
546,-524,24.5382,30.0358,0.00327392,0.00274834,-0.00215912,0.00518618,0.000836076,-0.72484,0.0032152,0.015923,1770,1548,24.5382,-30.0357
553,-524,24.5309,29.3264,0.00263442,0.00177456,-0.00137944,0.00364937,0.000759607,-0.634333,0.00222339,0.0255009,1777,1548,24.5309,-29.3264
560,-524,24.5645,28.6437,0.00230944,0.000996358,-0.000792496,0.00268203,0.000623776,-0.439474,0.00162061,0.0325894,1784,1548,24.5644,-28.6436
567,-524,24.4598,27.9532,0.00232212,0.000541069,-0.00052537,0.00246555,0.000397646,-0.2665,0.00152849,0.0181825,1791,1548,24.4598,-27.9532
574,-524,24.4243,27.2045,0.00253805,0.000194488,-0.000378464,0.00259766,0.000134885,-0.156202,0.00168861,0.0136015,1798,1548,24.4243,-27.2045
581,-524,24.4038,26.4592,0.00309021,7.86588e-05,-0.000499119,0.00317078,-1.90723e-06,-0.160036,0.00211449,0.0161001,1805,1548,24.4038,-26.4593
588,-524,24.4409,25.7471,0.0039977,0.000293934,-0.00092001,0.00421364,7.79945e-05,-0.230541,0.00278346,0.0301964,1812,1548,24.4409,-25.7471
595,-524,24.4662,24.8417,0,0,0,0,0,0,0,-1,1819,1548,24.4662,-24.8416
602,-524,13.837,12.0682,0,0,0,0,0,0,0,-1,1826,1548,13.837,-12.0683
609,-524,13.0056,10.5138,0,0,0,0,0,0,0,-1,1833,1548,13.0056,-10.5138
616,-524,11.6941,8.65515,0,0,0,0,0,0,0,-1,1840,1548,11.6941,-8.65514
623,-524,9.38452,5.15356,0,0,0,0,0,0,0,-1,1847,1548,9.38456,-5.15359
630,-524,11.0541,3.57434,0,0,0,0,0,0,0,-1,1854,1548,11.0541,-3.57438
637,-524,11.6067,3.20728,0,0,0,0,0,0,0,-1,1861,1548,11.6067,-3.20724
644,-524,12.2134,0.727173,0,0,0,0,0,0,0,-1,1868,1548,12.2134,-0.727222
651,-524,0,0,0,0,0,0,0,0,0,-1,1875,1548,0,0
658,-524,0,0,0,0,0,0,0,0,0,-1,1882,1548,0,0
665,-524,0,0,0,0,0,0,0,0,0,-1,1889,1548,0,0
672,-524,0,0,0,0,0,0,0,0,0,-1,1896,1548,0,0
679,-524,0,0,0,0,0,0,0,0,0,-1,1903,1548,0,0
686,-524,0,0,0,0,0,0,0,0,0,-1,1910,1548,0,0
693,-524,0,0,0,0,0,0,0,0,0,-1,1917,1548,0,0
700,-524,0,0,0,0,0,0,0,0,0,-1,1924,1548,0,0
707,-524,0,0,0,0,0,0,0,0,0,-1,1931,1548,0,0
714,-524,0,0,0,0,0,0,0,0,0,-1,1938,1548,0,0
721,-524,0,0,0,0,0,0,0,0,0,-1,1945,1548,0,0
728,-524,0,0,0,0,0,0,0,0,0,-1,1952,1548,0,0
735,-524,0,0,0,0,0,0,0,0,0,-1,1959,1548,0,0
742,-524,0,0,0,0,0,0,0,0,0,-1,1966,1548,0,0
749,-524,0,0,0,0,0,0,0,0,0,-1,1973,1548,0,0
756,-524,0,0,0,0,0,0,0,0,0,-1,1980,1548,0,0
763,-524,0,0,0,0,0,0,0,0,0,-1,1987,1548,0,0
770,-524,0,0,0,0,0,0,0,0,0,-1,1994,1548,0,0
777,-524,0,0,0,0,0,0,0,0,0,-1,2001,1548,0,0
784,-524,0,0,0,0,0,0,0,0,0,-1,2008,1548,0,0
791,-524,0,0,0,0,0,0,0,0,0,-1,2015,1548,0,0
798,-524,0,0,0,0,0,0,0,0,0,-1,2022,1548,0,0
805,-524,0,0,0,0,0,0,0,0,0,-1,2029,1548,0,0
812,-524,0,0,0,0,0,0,0,0,0,-1,2036,1548,0,0
-700,-531,0,0,0,0,0,0,0,0,0,-1,524,1555,0,0
-693,-531,0,0,0,0,0,0,0,0,0,-1,531,1555,0,0
-686,-531,0,0,0,0,0,0,0,0,0,-1,538,1555,0,0
-679,-531,0,0,0,0,0,0,0,0,0,-1,545,1555,0,0
-672,-531,0,0,0,0,0,0,0,0,0,-1,552,1555,0,0
-665,-531,0,0,0,0,0,0,0,0,0,-1,559,1555,0,0
-658,-531,0,0,0,0,0,0,0,0,0,-1,566,1555,0,0
-651,-531,0,0,0,0,0,0,0,0,0,-1,573,1555,0,0
-644,-531,0,0,0,0,0,0,0,0,0,-1,580,1555,0,0
-637,-531,0,0,0,0,0,0,0,0,0,-1,587,1555,0,0
-630,-531,0,0,0,0,0,0,0,0,0,-1,594,1555,0,0
-623,-531,0,0,0,0,0,0,0,0,0,-1,601,1555,0,0
-616,-531,0,0,0,0,0,0,0,0,0,-1,608,1555,0,0
-609,-531,0,0,0,0,0,0,0,0,0,-1,615,1555,0,0
-602,-531,0,0,0,0,0,0,0,0,0,-1,622,1555,0,0
-595,-531,0,0,0,0,0,0,0,0,0,-1,629,1555,0,0
-588,-531,0,0,0,0,0,0,0,0,0,-1,636,1555,0,0
-581,-531,0,0,0,0,0,0,0,0,0,-1,643,1555,0,0
-574,-531,0,0,0,0,0,0,0,0,0,-1,650,1555,0,0
-567,-531,0,0,0,0,0,0,0,0,0,-1,657,1555,0,0
-560,-531,0,0,0,0,0,0,0,0,0,-1,664,1555,0,0
-553,-531,0,0,0,0,0,0,0,0,0,-1,671,1555,0,0
-546,-531,0,0,0,0,0,0,0,0,0,-1,678,1555,0,0
-539,-531,0,0,0,0,0,0,0,0,0,-1,685,1555,0,0
-532,-531,0,0,0,0,0,0,0,0,0,-1,692,1555,0,0
-525,-531,0,0,0,0,0,0,0,0,0,-1,699,1555,0,0
-518,-531,-1.63983,4.03821,0,0,0,0,0,0,0,-1,706,1555,-1.63982,-4.03821
-511,-531,-2.9682,8.07483,0,0,0,0,0,0,0,-1,713,1555,-2.9682,-8.07479
-504,-531,-2.95978,0.557861,0,0,0,0,0,0,0,-1,720,1555,-2.95978,-0.557917
-497,-531,-2.46039,8.07422,0,0,0,0,0,0,0,-1,727,1555,-2.46039,-8.07423
-490,-531,-0.423462,7.92065,0,0,0,0,0,0,0,-1,734,1555,-0.42344,-7.92066
-483,-531,-7.50745,20.1915,0,0,0,0,0,0,0,-1,741,1555,-7.50744,-20.1915
-476,-531,-7.40863,23.1532,0,0,0,0,0,0,0,-1,748,1555,-7.40864,-23.1532
-469,-531,-6.46228,24.4647,0,0,0,0,0,0,0,-1,755,1555,-6.4623,-24.4647
-462,-531,-5.71387,24.6884,0,0,0,0,0,0,0,-1,762,1555,-5.71386,-24.6883
-455,-531,-5.93427,25.3372,0,0,0,0,0,0,0,-1,769,1555,-5.93426,-25.3372
-448,-531,-5.76611,26.1069,-0.00159721,-0.00738618,-0.00273573,-0.00050895,-0.00847444,-0.378605,0.00548785,0.0263052,776,1555,-5.76614,-26.107
-441,-531,-5.88422,26.8281,-0.00160975,-0.0052602,-0.00213241,-0.000628084,-0.00624186,-0.431431,0.00396848,0.0129411,783,1555,-5.88423,-26.8281
-434,-531,-5.92035,27.5966,-0.00132397,-0.00343792,-0.00145976,-0.000578695,-0.00418319,-0.472048,0.00261731,0.0126877,790,1555,-5.92035,-27.5965
-427,-531,-5.94293,28.3427,-0.000865988,-0.00196727,-0.000806673,-0.000439937,-0.00239332,-0.48592,0.001471,0.0161584,797,1555,-5.94292,-28.3427
-420,-531,-6.04877,29.043,-0.000233401,-0.000692787,-0.000151176,-0.000188116,-0.000738073,-0.291047,0.000442867,0.0358133,804,1555,-6.04875,-29.043
-413,-531,-6.06244,29.8201,0.000409859,0.000522151,0.000380748,0.000850871,8.11392e-05,0.858602,0.000542228,0.0334779,811,1555,-6.06244,-29.8201
-406,-531,-6.06586,30.5427,0.00113899,0.00143723,0.000967051,0.00226659,0.00030963,0.861897,0.00141916,0.0135261,818,1555,-6.06584,-30.5428
-399,-531,-6.08948,31.2491,0.00195821,0.00231196,0.00145558,0.00360137,0.000668802,0.84586,0.00221194,0.014095,825,1555,-6.08948,-31.2492
-392,-531,-6.1098,31.9718,0.00267863,0.00316092,0.00185493,0.00479032,0.00104923,0.850036,0.0029076,0.0172305,832,1555,-6.10982,-31.9718
-385,-531,-6.16583,32.6987,0.00327448,0.00398974,0.00208556,0.00574812,0.0015161,0.870313,0.00343994,0.0141015,839,1555,-6.16583,-32.6987
-378,-531,-6.21844,33.3567,0.00399488,0.00480748,0.00237582,0.0068115,0.00199087,0.870086,0.00404416,0.0197956,846,1555,-6.21845,-33.3567
-371,-531,-6.18939,34.1666,0,0,0,0,0,0,0,-1,853,1555,-6.1894,-34.1667
-364,-531,-5.99384,35.1437,0,0,0,0,0,0,0,-1,860,1555,-5.99384,-35.1436
-357,-531,-4.29193,31.5354,0,0,0,0,0,0,0,-1,867,1555,-4.29191,-31.5354
-350,-531,-3.16101,27.5791,0,0,0,0,0,0,0,-1,874,1555,-3.16099,-27.5791
-343,-531,-2.90552,28.561,0,0,0,0,0,0,0,-1,881,1555,-2.90549,-28.5611
-336,-531,-2.6698,29.5398,0,0,0,0,0,0,0,-1,888,1555,-2.66983,-29.5398
-329,-531,-2.45148,30.4781,0,0,0,0,0,0,0,-1,895,1555,-2.45148,-30.4781
-322,-531,-3.25092,28.4921,0,0,0,0,0,0,0,-1,902,1555,-3.25092,-28.4921
-315,-531,-5.51929,31.7814,0,0,0,0,0,0,0,-1,909,1555,-5.51928,-31.7813
-308,-531,-1.66455,19.0624,0,0,0,0,0,0,0,-1,916,1555,-1.66455,-19.0623
-301,-531,-2.02405,18.8912,0,0,0,0,0,0,0,-1,923,1555,-2.02407,-18.8913
-294,-531,-1.3244,8.1825,0,0,0,0,0,0,0,-1,930,1555,-1.3244,-8.18251
-287,-531,-1.78192,10.1661,0,0,0,0,0,0,0,-1,937,1555,-1.78192,-10.1661
-280,-531,-2.14508,10.3945,0,0,0,0,0,0,0,-1,944,1555,-2.14506,-10.3945
-273,-531,-2.50818,10.6229,0,0,0,0,0,0,0,-1,951,1555,-2.5082,-10.6229
-266,-531,-4.97742,17.9215,0,0,0,0,0,0,0,-1,958,1555,-4.97744,-17.9215
-259,-531,0,0,0,0,0,0,0,0,0,-1,965,1555,0,0
-252,-531,0,0,0,0,0,0,0,0,0,-1,972,1555,0,0
-245,-531,0,0,0,0,0,0,0,0,0,-1,979,1555,0,0
-238,-531,0,0,0,0,0,0,0,0,0,-1,986,1555,0,0
-231,-531,0,0,0,0,0,0,0,0,0,-1,993,1555,0,0
-224,-531,0,0,0,0,0,0,0,0,0,-1,1000,1555,0,0
-217,-531,0,0,0,0,0,0,0,0,0,-1,1007,1555,0,0
-210,-531,0,0,0,0,0,0,0,0,0,-1,1014,1555,0,0
-203,-531,0,0,0,0,0,0,0,0,0,-1,1021,1555,0,0
-196,-531,0,0,0,0,0,0,0,0,0,-1,1028,1555,0,0
-189,-531,0,0,0,0,0,0,0,0,0,-1,1035,1555,0,0
-182,-531,0,0,0,0,0,0,0,0,0,-1,1042,1555,0,0
-175,-531,0,0,0,0,0,0,0,0,0,-1,1049,1555,0,0
-168,-531,0,0,0,0,0,0,0,0,0,-1,1056,1555,0,0
-161,-531,0,0,0,0,0,0,0,0,0,-1,1063,1555,0,0
-154,-531,0,0,0,0,0,0,0,0,0,-1,1070,1555,0,0
-147,-531,0,0,0,0,0,0,0,0,0,-1,1077,1555,0,0
-140,-531,0,0,0,0,0,0,0,0,0,-1,1084,1555,0,0
-133,-531,0,0,0,0,0,0,0,0,0,-1,1091,1555,0,0
-126,-531,0,0,0,0,0,0,0,0,0,-1,1098,1555,0,0
-119,-531,0,0,0,0,0,0,0,0,0,-1,1105,1555,0,0
-112,-531,0,0,0,0,0,0,0,0,0,-1,1112,1555,0,0
-105,-531,0,0,0,0,0,0,0,0,0,-1,1119,1555,0,0
-98,-531,0,0,0,0,0,0,0,0,0,-1,1126,1555,0,0
-91,-531,0,0,0,0,0,0,0,0,0,-1,1133,1555,0,0
-84,-531,0,0,0,0,0,0,0,0,0,-1,1140,1555,0,0
-77,-531,0,0,0,0,0,0,0,0,0,-1,1147,1555,0,0
-70,-531,0,0,0,0,0,0,0,0,0,-1,1154,1555,0,0
-63,-531,0,0,0,0,0,0,0,0,0,-1,1161,1555,0,0
-56,-531,0,0,0,0,0,0,0,0,0,-1,1168,1555,0,0
-49,-531,0,0,0,0,0,0,0,0,0,-1,1175,1555,0,0
-42,-531,0,0,0,0,0,0,0,0,0,-1,1182,1555,0,0
-35,-531,0,0,0,0,0,0,0,0,0,-1,1189,1555,0,0
-28,-531,0,0,0,0,0,0,0,0,0,-1,1196,1555,0,0
-21,-531,0,0,0,0,0,0,0,0,0,-1,1203,1555,0,0
-14,-531,0,0,0,0,0,0,0,0,0,-1,1210,1555,0,0
-7,-531,0,0,0,0,0,0,0,0,0,-1,1217,1555,0,0
0,-531,0,0,0,0,0,0,0,0,0,-1,1224,1555,0,0
7,-531,0,0,0,0,0,0,0,0,0,-1,1231,1555,0,0
14,-531,0,0,0,0,0,0,0,0,0,-1,1238,1555,0,0
21,-531,0,0,0,0,0,0,0,0,0,-1,1245,1555,0,0
28,-531,0,0,0,0,0,0,0,0,0,-1,1252,1555,0,0
35,-531,0,0,0,0,0,0,0,0,0,-1,1259,1555,0,0
42,-531,0,0,0,0,0,0,0,0,0,-1,1266,1555,0,0
49,-531,0,0,0,0,0,0,0,0,0,-1,1273,1555,0,0
56,-531,0,0,0,0,0,0,0,0,0,-1,1280,1555,0,0
63,-531,0,0,0,0,0,0,0,0,0,-1,1287,1555,0,0
70,-531,0,0,0,0,0,0,0,0,0,-1,1294,1555,0,0
77,-531,0,0,0,0,0,0,0,0,0,-1,1301,1555,0,0
84,-531,0,0,0,0,0,0,0,0,0,-1,1308,1555,0,0
91,-531,0,0,0,0,0,0,0,0,0,-1,1315,1555,0,0
98,-531,0,0,0,0,0,0,0,0,0,-1,1322,1555,0,0
105,-531,0,0,0,0,0,0,0,0,0,-1,1329,1555,0,0
112,-531,0,0,0,0,0,0,0,0,0,-1,1336,1555,0,0
119,-531,0,0,0,0,0,0,0,0,0,-1,1343,1555,0,0
126,-531,0,0,0,0,0,0,0,0,0,-1,1350,1555,0,0
133,-531,0,0,0,0,0,0,0,0,0,-1,1357,1555,0,0
140,-531,0,0,0,0,0,0,0,0,0,-1,1364,1555,0,0
147,-531,0,0,0,0,0,0,0,0,0,-1,1371,1555,0,0
154,-531,0,0,0,0,0,0,0,0,0,-1,1378,1555,0,0
161,-531,0,0,0,0,0,0,0,0,0,-1,1385,1555,0,0
168,-531,0,0,0,0,0,0,0,0,0,-1,1392,1555,0,0
175,-531,0,0,0,0,0,0,0,0,0,-1,1399,1555,0,0
182,-531,0,0,0,0,0,0,0,0,0,-1,1406,1555,0,0
189,-531,0,0,0,0,0,0,0,0,0,-1,1413,1555,0,0
196,-531,0,0,0,0,0,0,0,0,0,-1,1420,1555,0,0
203,-531,0,0,0,0,0,0,0,0,0,-1,1427,1555,0,0
210,-531,0,0,0,0,0,0,0,0,0,-1,1434,1555,0,0
217,-531,0,0,0,0,0,0,0,0,0,-1,1441,1555,0,0
224,-531,0,0,0,0,0,0,0,0,0,-1,1448,1555,0,0
231,-531,0,0,0,0,0,0,0,0,0,-1,1455,1555,0,0
238,-531,0,0,0,0,0,0,0,0,0,-1,1462,1555,0,0
245,-531,0,0,0,0,0,0,0,0,0,-1,1469,1555,0,0
252,-531,0,0,0,0,0,0,0,0,0,-1,1476,1555,0,0
259,-531,0,0,0,0,0,0,0,0,0,-1,1483,1555,0,0
266,-531,0,0,0,0,0,0,0,0,0,-1,1490,1555,0,0
273,-531,0,0,0,0,0,0,0,0,0,-1,1497,1555,0,0
280,-531,0,0,0,0,0,0,0,0,0,-1,1504,1555,0,0
287,-531,0,0,0,0,0,0,0,0,0,-1,1511,1555,0,0
294,-531,0,0,0,0,0,0,0,0,0,-1,1518,1555,0,0
301,-531,0,0,0,0,0,0,0,0,0,-1,1525,1555,0,0
308,-531,0,0,0,0,0,0,0,0,0,-1,1532,1555,0,0
315,-531,0,0,0,0,0,0,0,0,0,-1,1539,1555,0,0
322,-531,0,0,0,0,0,0,0,0,0,-1,1546,1555,0,0
329,-531,0,0,0,0,0,0,0,0,0,-1,1553,1555,0,0
336,-531,0,0,0,0,0,0,0,0,0,-1,1560,1555,0,0
343,-531,0,0,0,0,0,0,0,0,0,-1,1567,1555,0,0
350,-531,0,0,0,0,0,0,0,0,0,-1,1574,1555,0,0
357,-531,0,0,0,0,0,0,0,0,0,-1,1581,1555,0,0
364,-531,0,0,0,0,0,0,0,0,0,-1,1588,1555,0,0
371,-531,0,0,0,0,0,0,0,0,0,-1,1595,1555,0,0
378,-531,0,0,0,0,0,0,0,0,0,-1,1602,1555,0,0
385,-531,3.48169,1.78625,0,0,0,0,0,0,0,-1,1609,1555,3.48165,-1.78624
392,-531,10.8781,9.09204,0,0,0,0,0,0,0,-1,1616,1555,10.8781,-9.09205
399,-531,8.26306,5.29602,0,0,0,0,0,0,0,-1,1623,1555,8.26302,-5.29607
406,-531,8.26147,5.42712,0,0,0,0,0,0,0,-1,1630,1555,8.26145,-5.42716
413,-531,8.20618,5.75012,0,0,0,0,0,0,0,-1,1637,1555,8.20619,-5.75017
420,-531,7.64868,7.09558,0,0,0,0,0,0,0,-1,1644,1555,7.64867,-7.09564
427,-531,9.93054,11.8412,0,0,0,0,0,0,0,-1,1651,1555,9.93059,-11.8412
434,-531,10.244,11.7072,0,0,0,0,0,0,0,-1,1658,1555,10.244,-11.7071
441,-531,11.4528,12.9397,0,0,0,0,0,0,0,-1,1665,1555,11.4528,-12.9397
448,-531,11.928,18.8029,0,0,0,0,0,0,0,-1,1672,1555,11.928,-18.8028
455,-531,14.4877,9.67065,0,0,0,0,0,0,0,-1,1679,1555,14.4876,-9.67066
462,-531,13.5253,12.2002,0,0,0,0,0,0,0,-1,1686,1555,13.5252,-12.2002
469,-531,15.5087,15.7894,0,0,0,0,0,0,0,-1,1693,1555,15.5086,-15.7895
476,-531,14.6582,16.2264,0,0,0,0,0,0,0,-1,1700,1555,14.6582,-16.2264
483,-531,14.755,18.5994,0,0,0,0,0,0,0,-1,1707,1555,14.7551,-18.5994
490,-531,16.9362,25.4943,0,0,0,0,0,0,0,-1,1714,1555,16.9362,-25.4942
497,-531,23.7084,35.4148,0,0,0,0,0,0,0,-1,1721,1555,23.7084,-35.4148
504,-531,23.8508,34.3859,0.0107223,0.0113213,-0.00871589,0.0197428,0.00230077,-0.802574,0.0124659,0.0414692,1728,1555,23.8509,-34.3858
511,-531,23.9598,33.5497,0.00848165,0.00884064,-0.00693258,0.0155961,0.00172623,-0.798341,0.00987239,0.0170391,1735,1555,23.9598,-33.5497
518,-531,23.975,32.8202,0.00667629,0.00670334,-0.00528464,0.0119745,0.00140516,-0.786678,0.00755826,0.0150396,1742,1555,23.975,-32.8202
525,-531,23.9691,32.163,0.00517012,0.00519901,-0.00405682,0.00924142,0.00112772,-0.787178,0.00582156,0.0146253,1749,1555,23.9691,-32.163
532,-531,23.9509,31.4487,0.00393782,0.00388127,-0.00301691,0.00692658,0.000892502,-0.780712,0.00435084,0.0120673,1756,1555,23.9509,-31.4488
539,-531,23.8956,30.7448,0.00304434,0.0028236,-0.00215341,0.00509021,0.000777729,-0.759794,0.00316623,0.0137236,1763,1555,23.8956,-30.7448
546,-531,23.7971,30.0481,0.00240456,0.00179827,-0.00138734,0.00352149,0.000681337,-0.677835,0.00215673,0.0163946,1770,1555,23.7971,-30.0481
553,-531,23.8412,29.3768,0.00198607,0.00094633,-0.000718076,0.00235271,0.000579691,-0.47208,0.00141538,0.0303401,1777,1555,23.8412,-29.3769
560,-531,23.8629,28.6827,0.00189974,0.000275577,-0.000226523,0.00193074,0.000244575,-0.136013,0.00121387,0.0347382,1784,1555,23.8629,-28.6828
567,-531,23.7311,27.9508,0.00213634,-0.000127162,3.212e-06,0.00213634,-0.000127166,0.00141904,0.00146845,0.0198997,1791,1555,23.7311,-27.9508
574,-531,23.6818,27.2317,0.00258843,-0.000440742,0.000145431,0.0025954,-0.000447708,0.0478633,0.00189719,0.0154712,1798,1555,23.6817,-27.2316
581,-531,23.7058,26.4581,0.00350056,-0.000482726,-5.05497e-05,0.0035012,-0.000483368,-0.0126877,0.00251081,0.0270419,1805,1555,23.7059,-26.4581
588,-531,23.702,25.6793,0.00488684,-0.000128849,-0.000599663,0.00495753,-0.000199547,-0.117354,0.00337351,0.0456195,1812,1555,23.702,-25.6793
595,-531,23.5784,24.8817,0,0,0,0,0,0,0,-1,1819,1555,23.5783,-24.8817
602,-531,13.701,11.8346,0,0,0,0,0,0,0,-1,1826,1555,13.701,-11.8347
609,-531,10.9072,8.50903,0,0,0,0,0,0,0,-1,1833,1555,10.9073,-8.50902
616,-531,10.5723,7.17859,0,0,0,0,0,0,0,-1,1840,1555,10.5723,-7.17855
623,-531,10.0674,5.08984,0,0,0,0,0,0,0,-1,1847,1555,10.0674,-5.08981
630,-531,11.672,3.18909,0,0,0,0,0,0,0,-1,1854,1555,11.672,-3.18904
637,-531,13.2546,1.38965,0,0,0,0,0,0,0,-1,1861,1555,13.2547,-1.3896
644,-531,0,0,0,0,0,0,0,0,0,-1,1868,1555,0,0
651,-531,0,0,0,0,0,0,0,0,0,-1,1875,1555,0,0
658,-531,0,0,0,0,0,0,0,0,0,-1,1882,1555,0,0
665,-531,0,0,0,0,0,0,0,0,0,-1,1889,1555,0,0
672,-531,0,0,0,0,0,0,0,0,0,-1,1896,1555,0,0
679,-531,0,0,0,0,0,0,0,0,0,-1,1903,1555,0,0
686,-531,0,0,0,0,0,0,0,0,0,-1,1910,1555,0,0
693,-531,0,0,0,0,0,0,0,0,0,-1,1917,1555,0,0
700,-531,0,0,0,0,0,0,0,0,0,-1,1924,1555,0,0
707,-531,0,0,0,0,0,0,0,0,0,-1,1931,1555,0,0
714,-531,0,0,0,0,0,0,0,0,0,-1,1938,1555,0,0
721,-531,0,0,0,0,0,0,0,0,0,-1,1945,1555,0,0
728,-531,0,0,0,0,0,0,0,0,0,-1,1952,1555,0,0
735,-531,0,0,0,0,0,0,0,0,0,-1,1959,1555,0,0
742,-531,0,0,0,0,0,0,0,0,0,-1,1966,1555,0,0
749,-531,0,0,0,0,0,0,0,0,0,-1,1973,1555,0,0
756,-531,0,0,0,0,0,0,0,0,0,-1,1980,1555,0,0
763,-531,0,0,0,0,0,0,0,0,0,-1,1987,1555,0,0
770,-531,0,0,0,0,0,0,0,0,0,-1,1994,1555,0,0
777,-531,0,0,0,0,0,0,0,0,0,-1,2001,1555,0,0
784,-531,0,0,0,0,0,0,0,0,0,-1,2008,1555,0,0
791,-531,0,0,0,0,0,0,0,0,0,-1,2015,1555,0,0
798,-531,0,0,0,0,0,0,0,0,0,-1,2022,1555,0,0
805,-531,0,0,0,0,0,0,0,0,0,-1,2029,1555,0,0
812,-531,0,0,0,0,0,0,0,0,0,-1,2036,1555,0,0
-700,-538,0,0,0,0,0,0,0,0,0,-1,524,1562,0,0
-693,-538,0,0,0,0,0,0,0,0,0,-1,531,1562,0,0
-686,-538,0,0,0,0,0,0,0,0,0,-1,538,1562,0,0
-679,-538,0,0,0,0,0,0,0,0,0,-1,545,1562,0,0
-672,-538,0,0,0,0,0,0,0,0,0,-1,552,1562,0,0
-665,-538,0,0,0,0,0,0,0,0,0,-1,559,1562,0,0
-658,-538,0,0,0,0,0,0,0,0,0,-1,566,1562,0,0
-651,-538,0,0,0,0,0,0,0,0,0,-1,573,1562,0,0
-644,-538,0,0,0,0,0,0,0,0,0,-1,580,1562,0,0
-637,-538,0,0,0,0,0,0,0,0,0,-1,587,1562,0,0
-630,-538,0,0,0,0,0,0,0,0,0,-1,594,1562,0,0
-623,-538,0,0,0,0,0,0,0,0,0,-1,601,1562,0,0
-616,-538,0,0,0,0,0,0,0,0,0,-1,608,1562,0,0
-609,-538,0,0,0,0,0,0,0,0,0,-1,615,1562,0,0
-602,-538,0,0,0,0,0,0,0,0,0,-1,622,1562,0,0
-595,-538,0,0,0,0,0,0,0,0,0,-1,629,1562,0,0
-588,-538,0,0,0,0,0,0,0,0,0,-1,636,1562,0,0
-581,-538,0,0,0,0,0,0,0,0,0,-1,643,1562,0,0
-574,-538,0,0,0,0,0,0,0,0,0,-1,650,1562,0,0
-567,-538,0,0,0,0,0,0,0,0,0,-1,657,1562,0,0
-560,-538,0,0,0,0,0,0,0,0,0,-1,664,1562,0,0
-553,-538,0,0,0,0,0,0,0,0,0,-1,671,1562,0,0
-546,-538,0,0,0,0,0,0,0,0,0,-1,678,1562,0,0
-539,-538,0,0,0,0,0,0,0,0,0,-1,685,1562,0,0
-532,-538,0,0,0,0,0,0,0,0,0,-1,692,1562,0,0
-525,-538,0,0,0,0,0,0,0,0,0,-1,699,1562,0,0
-518,-538,0,0,0,0,0,0,0,0,0,-1,706,1562,0,0
-511,-538,-2.6582,-1.54321,0,0,0,0,0,0,0,-1,713,1562,-2.65821,1.54327
-504,-538,-2.66455,-0.71167,0,0,0,0,0,0,0,-1,720,1562,-2.66456,0.711667
-497,-538,-0.763855,6.77747,0,0,0,0,0,0,0,-1,727,1562,-0.76385,-6.77743
-490,-538,-2.70453,8.01465,0,0,0,0,0,0,0,-1,734,1562,-2.70451,-8.0147
-483,-538,-0.933533,7.84644,0,0,0,0,0,0,0,-1,741,1562,-0.933548,-7.84638
-476,-538,-3.29962,15.8307,0,0,0,0,0,0,0,-1,748,1562,-3.29962,-15.8306
-469,-538,-6.44983,24.5707,0,0,0,0,0,0,0,-1,755,1562,-6.4498,-24.5707
-462,-538,-4.92401,24.6698,0,0,0,0,0,0,0,-1,762,1562,-4.92403,-24.6697
-455,-538,-5.2746,25.5011,0,0,0,0,0,0,0,-1,769,1562,-5.27459,-25.501
-448,-538,-5.14258,26.1693,0,0,0,0,0,0,0,-1,776,1562,-5.14255,-26.1693
-441,-538,-5.11829,27.0135,-0.00258358,-0.00649591,-0.00286459,-0.00107096,-0.00800852,-0.485827,0.00502025,0.0294289,783,1562,-5.1183,-27.0135
-434,-538,-5.22583,27.6208,-0.00217757,-0.0044732,-0.00205407,-0.000972371,-0.00567841,-0.530611,0.00350671,0.0143019,790,1562,-5.22582,-27.6208
-427,-538,-5.26971,28.3877,-0.00160885,-0.00283279,-0.00127591,-0.000805735,-0.00363591,-0.561787,0.00220499,0.0135461,797,1562,-5.26973,-28.3876
-420,-538,-5.29266,29.1117,-0.000913289,-0.00149155,-0.00056939,-0.000563825,-0.00184101,-0.550469,0.00108918,0.0184142,804,1562,-5.29267,-29.1117
-413,-538,-5.31683,29.8306,-0.000298386,-0.000229656,-7.39185e-05,-0.000182505,-0.000345537,-1.00299,0.000199601,0.0198898,811,1562,-5.31681,-29.8306
-406,-538,-5.34869,30.5742,0.000387657,0.000613616,0.000494601,0.00100798,-6.70389e-06,0.897685,0.000674231,0.0155847,818,1562,-5.3487,-30.5742
-399,-538,-5.38446,31.297,0.00118423,0.00138846,0.000927596,0.00221955,0.000353147,0.840221,0.00137716,0.0131576,825,1562,-5.38446,-31.297
-392,-538,-5.39417,32.0198,0.00186806,0.00213464,0.00126745,0.00327579,0.000726907,0.837788,0.0019864,0.0145246,832,1562,-5.39417,-32.0197
-385,-538,-5.45062,32.7426,0.00248735,0.00290081,0.00146603,0.00417462,0.00121354,0.855443,0.00247961,0.0127652,839,1562,-5.45063,-32.7426
-378,-538,-5.47882,33.442,0.00313062,0.00361766,0.00166101,0.00505291,0.00169537,0.858184,0.00296944,0.0104462,846,1562,-5.47882,-33.4421
-371,-538,-5.53345,34.1071,0.00396702,0.00454878,0.00208119,0.00635932,0.00215648,0.854831,0.00373438,0.0143088,853,1562,-5.53343,-34.107
-364,-538,-5.46442,34.9417,0.0049716,0.00581445,0.00267924,0.00810521,0.00268085,0.863405,0.00476806,0.0215477,860,1562,-5.46439,-34.9416
-357,-538,-5.41156,35.9349,0,0,0,0,0,0,0,-1,867,1562,-5.41154,-35.9349
-350,-538,-5.26868,36.7911,0,0,0,0,0,0,0,-1,874,1562,-5.26869,-36.7912
-343,-538,-2.47339,28.3082,0,0,0,0,0,0,0,-1,881,1562,-2.47341,-28.3083
-336,-538,-2.40161,28.5409,0,0,0,0,0,0,0,-1,888,1562,-2.40163,-28.541
-329,-538,-2.57159,28.4905,0,0,0,0,0,0,0,-1,895,1562,-2.57161,-28.4905
-322,-538,-2.83783,28.2308,0,0,0,0,0,0,0,-1,902,1562,-2.83783,-28.2308
-315,-538,-2.91827,27.7609,0,0,0,0,0,0,0,-1,909,1562,-2.91829,-27.7608
-308,-538,-4.37433,31.7996,0,0,0,0,0,0,0,-1,916,1562,-4.3743,-31.7995
-301,-538,-0.452393,18.5101,0,0,0,0,0,0,0,-1,923,1562,-0.452367,-18.5102
-294,-538,1.23138,14.0757,0,0,0,0,0,0,0,-1,930,1562,1.23137,-14.0757
-287,-538,-2.60419,10.2361,0,0,0,0,0,0,0,-1,937,1562,-2.6042,-10.2361
-280,-538,-2.93475,10.5106,0,0,0,0,0,0,0,-1,944,1562,-2.93475,-10.5106
-273,-538,-3.26532,10.785,0,0,0,0,0,0,0,-1,951,1562,-3.26531,-10.785
-266,-538,-5.03412,15.9951,0,0,0,0,0,0,0,-1,958,1562,-5.03409,-15.9951
-259,-538,-5.89642,16.5184,0,0,0,0,0,0,0,-1,965,1562,-5.89644,-16.5184
-252,-538,0,0,0,0,0,0,0,0,0,-1,972,1562,0,0
-245,-538,0,0,0,0,0,0,0,0,0,-1,979,1562,0,0
-238,-538,0,0,0,0,0,0,0,0,0,-1,986,1562,0,0
-231,-538,0,0,0,0,0,0,0,0,0,-1,993,1562,0,0
-224,-538,0,0,0,0,0,0,0,0,0,-1,1000,1562,0,0
-217,-538,0,0,0,0,0,0,0,0,0,-1,1007,1562,0,0
-210,-538,0,0,0,0,0,0,0,0,0,-1,1014,1562,0,0
-203,-538,0,0,0,0,0,0,0,0,0,-1,1021,1562,0,0
-196,-538,0,0,0,0,0,0,0,0,0,-1,1028,1562,0,0
-189,-538,0,0,0,0,0,0,0,0,0,-1,1035,1562,0,0
-182,-538,0,0,0,0,0,0,0,0,0,-1,1042,1562,0,0
-175,-538,0,0,0,0,0,0,0,0,0,-1,1049,1562,0,0
-168,-538,0,0,0,0,0,0,0,0,0,-1,1056,1562,0,0
-161,-538,0,0,0,0,0,0,0,0,0,-1,1063,1562,0,0
-154,-538,0,0,0,0,0,0,0,0,0,-1,1070,1562,0,0
-147,-538,0,0,0,0,0,0,0,0,0,-1,1077,1562,0,0
-140,-538,0,0,0,0,0,0,0,0,0,-1,1084,1562,0,0
-133,-538,0,0,0,0,0,0,0,0,0,-1,1091,1562,0,0
-126,-538,0,0,0,0,0,0,0,0,0,-1,1098,1562,0,0
-119,-538,0,0,0,0,0,0,0,0,0,-1,1105,1562,0,0
-112,-538,0,0,0,0,0,0,0,0,0,-1,1112,1562,0,0
-105,-538,0,0,0,0,0,0,0,0,0,-1,1119,1562,0,0
-98,-538,0,0,0,0,0,0,0,0,0,-1,1126,1562,0,0
-91,-538,0,0,0,0,0,0,0,0,0,-1,1133,1562,0,0
-84,-538,0,0,0,0,0,0,0,0,0,-1,1140,1562,0,0
-77,-538,0,0,0,0,0,0,0,0,0,-1,1147,1562,0,0
-70,-538,0,0,0,0,0,0,0,0,0,-1,1154,1562,0,0
-63,-538,0,0,0,0,0,0,0,0,0,-1,1161,1562,0,0
-56,-538,0,0,0,0,0,0,0,0,0,-1,1168,1562,0,0
-49,-538,0,0,0,0,0,0,0,0,0,-1,1175,1562,0,0
-42,-538,0,0,0,0,0,0,0,0,0,-1,1182,1562,0,0
-35,-538,0,0,0,0,0,0,0,0,0,-1,1189,1562,0,0
-28,-538,0,0,0,0,0,0,0,0,0,-1,1196,1562,0,0
-21,-538,0,0,0,0,0,0,0,0,0,-1,1203,1562,0,0
-14,-538,0,0,0,0,0,0,0,0,0,-1,1210,1562,0,0
-7,-538,0,0,0,0,0,0,0,0,0,-1,1217,1562,0,0
0,-538,0,0,0,0,0,0,0,0,0,-1,1224,1562,0,0
7,-538,0,0,0,0,0,0,0,0,0,-1,1231,1562,0,0
14,-538,0,0,0,0,0,0,0,0,0,-1,1238,1562,0,0
21,-538,0,0,0,0,0,0,0,0,0,-1,1245,1562,0,0
28,-538,0,0,0,0,0,0,0,0,0,-1,1252,1562,0,0
35,-538,0,0,0,0,0,0,0,0,0,-1,1259,1562,0,0
42,-538,0,0,0,0,0,0,0,0,0,-1,1266,1562,0,0
49,-538,0,0,0,0,0,0,0,0,0,-1,1273,1562,0,0
56,-538,0,0,0,0,0,0,0,0,0,-1,1280,1562,0,0
63,-538,0,0,0,0,0,0,0,0,0,-1,1287,1562,0,0
70,-538,0,0,0,0,0,0,0,0,0,-1,1294,1562,0,0
77,-538,0,0,0,0,0,0,0,0,0,-1,1301,1562,0,0
84,-538,0,0,0,0,0,0,0,0,0,-1,1308,1562,0,0
91,-538,0,0,0,0,0,0,0,0,0,-1,1315,1562,0,0
98,-538,0,0,0,0,0,0,0,0,0,-1,1322,1562,0,0
105,-538,0,0,0,0,0,0,0,0,0,-1,1329,1562,0,0
112,-538,0,0,0,0,0,0,0,0,0,-1,1336,1562,0,0
119,-538,0,0,0,0,0,0,0,0,0,-1,1343,1562,0,0
126,-538,0,0,0,0,0,0,0,0,0,-1,1350,1562,0,0
133,-538,0,0,0,0,0,0,0,0,0,-1,1357,1562,0,0
140,-538,0,0,0,0,0,0,0,0,0,-1,1364,1562,0,0
147,-538,0,0,0,0,0,0,0,0,0,-1,1371,1562,0,0
154,-538,0,0,0,0,0,0,0,0,0,-1,1378,1562,0,0
161,-538,0,0,0,0,0,0,0,0,0,-1,1385,1562,0,0
168,-538,0,0,0,0,0,0,0,0,0,-1,1392,1562,0,0
175,-538,0,0,0,0,0,0,0,0,0,-1,1399,1562,0,0
182,-538,0,0,0,0,0,0,0,0,0,-1,1406,1562,0,0
189,-538,0,0,0,0,0,0,0,0,0,-1,1413,1562,0,0
196,-538,0,0,0,0,0,0,0,0,0,-1,1420,1562,0,0
203,-538,0,0,0,0,0,0,0,0,0,-1,1427,1562,0,0
210,-538,0,0,0,0,0,0,0,0,0,-1,1434,1562,0,0
217,-538,0,0,0,0,0,0,0,0,0,-1,1441,1562,0,0
224,-538,0,0,0,0,0,0,0,0,0,-1,1448,1562,0,0
231,-538,0,0,0,0,0,0,0,0,0,-1,1455,1562,0,0
238,-538,0,0,0,0,0,0,0,0,0,-1,1462,1562,0,0
245,-538,0,0,0,0,0,0,0,0,0,-1,1469,1562,0,0
252,-538,0,0,0,0,0,0,0,0,0,-1,1476,1562,0,0
259,-538,0,0,0,0,0,0,0,0,0,-1,1483,1562,0,0
266,-538,0,0,0,0,0,0,0,0,0,-1,1490,1562,0,0
273,-538,0,0,0,0,0,0,0,0,0,-1,1497,1562,0,0
280,-538,0,0,0,0,0,0,0,0,0,-1,1504,1562,0,0
287,-538,0,0,0,0,0,0,0,0,0,-1,1511,1562,0,0
294,-538,0,0,0,0,0,0,0,0,0,-1,1518,1562,0,0
301,-538,0,0,0,0,0,0,0,0,0,-1,1525,1562,0,0
308,-538,0,0,0,0,0,0,0,0,0,-1,1532,1562,0,0
315,-538,0,0,0,0,0,0,0,0,0,-1,1539,1562,0,0
322,-538,0,0,0,0,0,0,0,0,0,-1,1546,1562,0,0
329,-538,0,0,0,0,0,0,0,0,0,-1,1553,1562,0,0
336,-538,0,0,0,0,0,0,0,0,0,-1,1560,1562,0,0
343,-538,0,0,0,0,0,0,0,0,0,-1,1567,1562,0,0
350,-538,0,0,0,0,0,0,0,0,0,-1,1574,1562,0,0
357,-538,0,0,0,0,0,0,0,0,0,-1,1581,1562,0,0
364,-538,0,0,0,0,0,0,0,0,0,-1,1588,1562,0,0
371,-538,0,0,0,0,0,0,0,0,0,-1,1595,1562,0,0
378,-538,9.65479,5.82434,0,0,0,0,0,0,0,-1,1602,1562,9.6548,-5.82439
385,-538,10.5449,7.9502,0,0,0,0,0,0,0,-1,1609,1562,10.5449,-7.95014
392,-538,8.20361,7.07214,0,0,0,0,0,0,0,-1,1616,1562,8.20362,-7.07211
399,-538,7.85425,4.70508,0,0,0,0,0,0,0,-1,1623,1562,7.85425,-4.70512
406,-538,7.77734,4.96094,0,0,0,0,0,0,0,-1,1630,1562,7.77729,-4.96097
413,-538,13.0446,13.1765,0,0,0,0,0,0,0,-1,1637,1562,13.0446,-13.1765
420,-538,9.96216,12.7653,0,0,0,0,0,0,0,-1,1644,1562,9.96221,-12.7653
427,-538,10.1732,14.5863,0,0,0,0,0,0,0,-1,1651,1562,10.1732,-14.5863
434,-538,9.64331,14.7745,0,0,0,0,0,0,0,-1,1658,1562,9.64326,-14.7746
441,-538,11.5039,20.5195,0,0,0,0,0,0,0,-1,1665,1562,11.5039,-20.5195
448,-538,12.8766,22.4932,0,0,0,0,0,0,0,-1,1672,1562,12.8766,-22.4932
455,-538,12.5693,17.4128,0,0,0,0,0,0,0,-1,1679,1562,12.5694,-17.4128
462,-538,12.1389,17.017,0,0,0,0,0,0,0,-1,1686,1562,12.1389,-17.017
469,-538,14.3802,16.6945,0,0,0,0,0,0,0,-1,1693,1562,14.3803,-16.6945
476,-538,13.724,19.0608,0,0,0,0,0,0,0,-1,1700,1562,13.724,-19.0608
483,-538,17.088,25.2936,0,0,0,0,0,0,0,-1,1707,1562,17.088,-25.2936
490,-538,22.964,36.2242,0,0,0,0,0,0,0,-1,1714,1562,22.964,-36.2243
497,-538,23.218,35.1096,0.0106571,0.011929,-0.0089355,0.0202511,0.00233492,-0.820925,0.0127937,0.0427659,1721,1562,23.218,-35.1097
504,-538,23.3292,34.2278,0.00841851,0.00907803,-0.00690205,0.0156582,0.00183834,-0.809269,0.00988317,0.0174622,1728,1562,23.3293,-34.2278
511,-538,23.2847,33.5419,0.00660475,0.00698733,-0.00538879,0.0121882,0.00140386,-0.80314,0.0077003,0.0110017,1735,1562,23.2847,-33.5418
518,-538,23.2699,32.8451,0.00507428,0.0051081,-0.00397166,0.00906288,0.00111949,-0.787527,0.00570548,0.0116946,1742,1562,23.2699,-32.8451
525,-538,23.2361,32.1599,0.00386153,0.00382834,-0.0029309,0.00677588,0.000913987,-0.782566,0.00424552,0.0128957,1749,1562,23.2361,-32.1599
532,-538,23.2264,31.4849,0.00291201,0.00268579,-0.00204742,0.00484944,0.000748361,-0.757803,0.00301463,0.0147768,1756,1562,23.2265,-31.4848
539,-538,23.1807,30.7908,0.00225599,0.0018012,-0.00131581,0.00336391,0.000693286,-0.699834,0.00205095,0.0177779,1763,1562,23.1807,-30.7907
546,-538,23.0969,30.0692,0.00181563,0.000886707,-0.000639634,0.00214164,0.00056069,-0.471373,0.0012824,0.0184523,1770,1562,23.097,-30.0692
553,-538,23.1318,29.355,0.00159872,0.000150638,-5.40327e-05,0.00160073,0.000148624,-0.0372442,0.00102123,0.0289339,1777,1562,23.1318,-29.355
560,-538,23.0795,28.6935,0.00171307,-0.000421871,0.00036847,0.00177487,-0.000483676,0.166187,0.00137317,0.0316212,1784,1562,23.0794,-28.6935
567,-538,23.0106,28.0095,0.00211025,-0.000806019,0.000605621,0.00223102,-0.000926787,0.19683,0.00187428,0.0235232,1791,1562,23.0106,-28.0095
574,-538,22.9031,27.286,0.00272728,-0.00111683,0.000781919,0.00288024,-0.0012698,0.193183,0.00245542,0.0323847,1798,1562,22.9031,-27.286
581,-538,22.9216,26.5679,0.00393691,-0.00109604,0.000527759,0.00399166,-0.00115078,0.103363,0.00311635,0.0484387,1805,1562,22.9217,-26.5679
588,-538,22.9203,25.6969,0,0,0,0,0,0,0,-1,1812,1562,22.9203,-25.6969
595,-538,15.9808,16.0894,0,0,0,0,0,0,0,-1,1819,1562,15.9808,-16.0893
602,-538,10.314,8.94238,0,0,0,0,0,0,0,-1,1826,1562,10.314,-8.94238
609,-538,10.1046,7.05713,0,0,0,0,0,0,0,-1,1833,1562,10.1046,-7.05719
616,-538,9.92249,5.43506,0,0,0,0,0,0,0,-1,1840,1562,9.92254,-5.43507
623,-538,11.1711,4.31604,0,0,0,0,0,0,0,-1,1847,1562,11.1711,-4.316
630,-538,12.6112,2.61633,0,0,0,0,0,0,0,-1,1854,1562,12.6112,-2.61637
637,-538,0,0,0,0,0,0,0,0,0,-1,1861,1562,0,0
644,-538,0,0,0,0,0,0,0,0,0,-1,1868,1562,0,0
651,-538,0,0,0,0,0,0,0,0,0,-1,1875,1562,0,0
658,-538,0,0,0,0,0,0,0,0,0,-1,1882,1562,0,0
665,-538,0,0,0,0,0,0,0,0,0,-1,1889,1562,0,0
672,-538,0,0,0,0,0,0,0,0,0,-1,1896,1562,0,0
679,-538,0,0,0,0,0,0,0,0,0,-1,1903,1562,0,0
686,-538,0,0,0,0,0,0,0,0,0,-1,1910,1562,0,0
693,-538,0,0,0,0,0,0,0,0,0,-1,1917,1562,0,0
700,-538,0,0,0,0,0,0,0,0,0,-1,1924,1562,0,0
707,-538,0,0,0,0,0,0,0,0,0,-1,1931,1562,0,0
714,-538,0,0,0,0,0,0,0,0,0,-1,1938,1562,0,0
721,-538,0,0,0,0,0,0,0,0,0,-1,1945,1562,0,0
728,-538,0,0,0,0,0,0,0,0,0,-1,1952,1562,0,0
735,-538,0,0,0,0,0,0,0,0,0,-1,1959,1562,0,0
742,-538,0,0,0,0,0,0,0,0,0,-1,1966,1562,0,0
749,-538,0,0,0,0,0,0,0,0,0,-1,1973,1562,0,0
756,-538,0,0,0,0,0,0,0,0,0,-1,1980,1562,0,0
763,-538,0,0,0,0,0,0,0,0,0,-1,1987,1562,0,0
770,-538,0,0,0,0,0,0,0,0,0,-1,1994,1562,0,0
777,-538,0,0,0,0,0,0,0,0,0,-1,2001,1562,0,0
784,-538,0,0,0,0,0,0,0,0,0,-1,2008,1562,0,0
791,-538,0,0,0,0,0,0,0,0,0,-1,2015,1562,0,0
798,-538,0,0,0,0,0,0,0,0,0,-1,2022,1562,0,0
805,-538,0,0,0,0,0,0,0,0,0,-1,2029,1562,0,0
812,-538,0,0,0,0,0,0,0,0,0,-1,2036,1562,0,0
-700,-545,0,0,0,0,0,0,0,0,0,-1,524,1569,0,0
-693,-545,0,0,0,0,0,0,0,0,0,-1,531,1569,0,0
-686,-545,0,0,0,0,0,0,0,0,0,-1,538,1569,0,0
-679,-545,0,0,0,0,0,0,0,0,0,-1,545,1569,0,0
-672,-545,0,0,0,0,0,0,0,0,0,-1,552,1569,0,0
-665,-545,0,0,0,0,0,0,0,0,0,-1,559,1569,0,0
-658,-545,0,0,0,0,0,0,0,0,0,-1,566,1569,0,0
-651,-545,0,0,0,0,0,0,0,0,0,-1,573,1569,0,0
-644,-545,0,0,0,0,0,0,0,0,0,-1,580,1569,0,0
-637,-545,0,0,0,0,0,0,0,0,0,-1,587,1569,0,0
-630,-545,0,0,0,0,0,0,0,0,0,-1,594,1569,0,0
-623,-545,0,0,0,0,0,0,0,0,0,-1,601,1569,0,0
-616,-545,0,0,0,0,0,0,0,0,0,-1,608,1569,0,0
-609,-545,0,0,0,0,0,0,0,0,0,-1,615,1569,0,0
-602,-545,0,0,0,0,0,0,0,0,0,-1,622,1569,0,0
-595,-545,0,0,0,0,0,0,0,0,0,-1,629,1569,0,0
-588,-545,0,0,0,0,0,0,0,0,0,-1,636,1569,0,0
-581,-545,0,0,0,0,0,0,0,0,0,-1,643,1569,0,0
-574,-545,0,0,0,0,0,0,0,0,0,-1,650,1569,0,0
-567,-545,0,0,0,0,0,0,0,0,0,-1,657,1569,0,0
-560,-545,0,0,0,0,0,0,0,0,0,-1,664,1569,0,0
-553,-545,0,0,0,0,0,0,0,0,0,-1,671,1569,0,0
-546,-545,0,0,0,0,0,0,0,0,0,-1,678,1569,0,0
-539,-545,0,0,0,0,0,0,0,0,0,-1,685,1569,0,0
-532,-545,0,0,0,0,0,0,0,0,0,-1,692,1569,0,0
-525,-545,0,0,0,0,0,0,0,0,0,-1,699,1569,0,0
-518,-545,0,0,0,0,0,0,0,0,0,-1,706,1569,0,0
-511,-545,0,0,0,0,0,0,0,0,0,-1,713,1569,0,0
-504,-545,-3.55237,-2.5354,0,0,0,0,0,0,0,-1,720,1569,-3.55236,2.53545
-497,-545,2.26575,5.69214,0,0,0,0,0,0,0,-1,727,1569,2.26573,-5.6922
-490,-545,-2.17334,7.81396,0,0,0,0,0,0,0,-1,734,1569,-2.17334,-7.81399
-483,-545,-1.88336,5.8446,0,0,0,0,0,0,0,-1,741,1569,-1.88334,-5.84466
-476,-545,-1.13147,6.5741,0,0,0,0,0,0,0,-1,748,1569,-1.13149,-6.57405
-469,-545,-1.03412,15.8353,0,0,0,0,0,0,0,-1,755,1569,-1.03414,-15.8353
-462,-545,-4.09772,21.0458,0,0,0,0,0,0,0,-1,762,1569,-4.0977,-21.0458
-455,-545,-4.21954,25.0928,0,0,0,0,0,0,0,-1,769,1569,-4.21955,-25.0927
-448,-545,-4.20654,26.1229,0,0,0,0,0,0,0,-1,776,1569,-4.20657,-26.1229
-441,-545,-4.22095,27.1368,-0.00377222,-0.00743855,-0.00350795,-0.00164732,-0.00956345,-0.544626,0.00590364,0.0354156,783,1569,-4.22094,-27.1369
-434,-545,-4.56653,27.7249,-0.00318792,-0.00532995,-0.00259396,-0.00145256,-0.00706531,-0.589615,0.00430842,0.0311472,790,1569,-4.56654,-27.7248
-427,-545,-4.54285,28.4146,-0.0024318,-0.00353868,-0.00166658,-0.00122917,-0.00474131,-0.625088,0.00284121,0.0216193,797,1569,-4.54283,-28.4145
-420,-545,-4.52386,29.13,-0.00161845,-0.0021383,-0.000896531,-0.000944927,-0.00281183,-0.644305,0.00165224,0.0230372,804,1569,-4.52388,-29.13
-413,-545,-4.5639,29.8506,-0.000997022,-0.000872931,-0.000427925,-0.000502577,-0.00136738,-0.857392,0.000798635,0.024397,811,1569,-4.5639,-29.8506
-406,-545,-4.62109,30.6112,-0.000311947,-0.000127845,0.000131819,-5.91179e-05,-0.000380674,1.09019,0.000236552,0.018466,818,1569,-4.62111,-30.6113
-399,-545,-4.65912,31.3298,0.000492848,0.000545448,0.000534221,0.00105402,-1.57197e-05,0.809994,0.000707975,0.0111357,825,1569,-4.6591,-31.3298
-392,-545,-4.69971,32.03,0.00118269,0.00121151,0.000854644,0.00205187,0.000342337,0.793829,0.00126928,0.0114594,832,1569,-4.69972,-32.0301
-385,-545,-4.72607,32.7714,0.00185867,0.00194483,0.00107605,0.00297866,0.000824841,0.805407,0.00177587,0.0104486,839,1569,-4.72608,-32.7713
-378,-545,-4.76093,33.4819,0.00247726,0.00260781,0.0012482,0.00379244,0.00129263,0.811522,0.00222624,0.0125045,846,1569,-4.76095,-33.4819
-371,-545,-4.79596,34.2098,0.00323051,0.00343506,0.00160551,0.00494155,0.00172402,0.817208,0.00289611,0.0158145,853,1569,-4.79599,-34.2098
-364,-545,-4.82819,34.8816,0.00415912,0.00464334,0.0021431,0.00655797,0.0022445,0.841646,0.00384854,0.0111639,860,1569,-4.82818,-34.8815
-357,-545,-4.76221,35.7368,0.00520134,0.00608595,0.00278089,0.00845949,0.00282781,0.864264,0.00497271,0.0233573,867,1569,-4.76223,-35.7368
-350,-545,-4.72198,36.4397,0.00639318,0.00798637,0.00365652,0.0109321,0.00344749,0.892651,0.00645349,0.0426375,874,1569,-4.72197,-36.4398
-343,-545,-4.76208,37.3569,0,0,0,0,0,0,0,-1,881,1569,-4.76209,-37.357
-336,-545,-4.2146,36.9165,0,0,0,0,0,0,0,-1,888,1569,-4.21457,-36.9165
-329,-545,-2.03595,27.8694,0,0,0,0,0,0,0,-1,895,1569,-2.03592,-27.8694
-322,-545,-2.42474,27.9695,0,0,0,0,0,0,0,-1,902,1569,-2.42474,-27.9695
-315,-545,-2.52954,30.1711,0,0,0,0,0,0,0,-1,909,1569,-2.52951,-30.1712
-308,-545,-1.54358,21.4457,0,0,0,0,0,0,0,-1,916,1569,-1.54357,-21.4457
-301,-545,1.52191,17.5009,0,0,0,0,0,0,0,-1,923,1569,1.52192,-17.5008
-294,-545,-2.69287,8.42102,0,0,0,0,0,0,0,-1,930,1569,-2.69287,-8.42097
-287,-545,-3.47784,9.96021,0,0,0,0,0,0,0,-1,937,1569,-3.47785,-9.96021
-280,-545,-3.7879,10.5448,0,0,0,0,0,0,0,-1,944,1569,-3.78793,-10.5448
-273,-545,-5.10333,12.864,0,0,0,0,0,0,0,-1,951,1569,-5.10331,-12.864
-266,-545,-5.78955,13.3704,0,0,0,0,0,0,0,-1,958,1569,-5.78952,-13.3703
-259,-545,-6.32184,13.8101,0,0,0,0,0,0,0,-1,965,1569,-6.32182,-13.81
-252,-545,0.369263,7.54053,0,0,0,0,0,0,0,-1,972,1569,0.369276,-7.54056
-245,-545,-0.236633,6.65564,0,0,0,0,0,0,0,-1,979,1569,-0.236605,-6.65566
-238,-545,0,0,0,0,0,0,0,0,0,-1,986,1569,0,0
-231,-545,0,0,0,0,0,0,0,0,0,-1,993,1569,0,0
-224,-545,0,0,0,0,0,0,0,0,0,-1,1000,1569,0,0
-217,-545,0,0,0,0,0,0,0,0,0,-1,1007,1569,0,0
-210,-545,0,0,0,0,0,0,0,0,0,-1,1014,1569,0,0
-203,-545,0,0,0,0,0,0,0,0,0,-1,1021,1569,0,0
-196,-545,0,0,0,0,0,0,0,0,0,-1,1028,1569,0,0
-189,-545,0,0,0,0,0,0,0,0,0,-1,1035,1569,0,0
-182,-545,0,0,0,0,0,0,0,0,0,-1,1042,1569,0,0
-175,-545,0,0,0,0,0,0,0,0,0,-1,1049,1569,0,0
-168,-545,0,0,0,0,0,0,0,0,0,-1,1056,1569,0,0
-161,-545,0,0,0,0,0,0,0,0,0,-1,1063,1569,0,0
-154,-545,0,0,0,0,0,0,0,0,0,-1,1070,1569,0,0
-147,-545,0,0,0,0,0,0,0,0,0,-1,1077,1569,0,0
-140,-545,0,0,0,0,0,0,0,0,0,-1,1084,1569,0,0
-133,-545,0,0,0,0,0,0,0,0,0,-1,1091,1569,0,0
-126,-545,0,0,0,0,0,0,0,0,0,-1,1098,1569,0,0
-119,-545,0,0,0,0,0,0,0,0,0,-1,1105,1569,0,0
-112,-545,0,0,0,0,0,0,0,0,0,-1,1112,1569,0,0
-105,-545,0,0,0,0,0,0,0,0,0,-1,1119,1569,0,0
-98,-545,0,0,0,0,0,0,0,0,0,-1,1126,1569,0,0
-91,-545,0,0,0,0,0,0,0,0,0,-1,1133,1569,0,0
-84,-545,0,0,0,0,0,0,0,0,0,-1,1140,1569,0,0
-77,-545,0,0,0,0,0,0,0,0,0,-1,1147,1569,0,0
-70,-545,0,0,0,0,0,0,0,0,0,-1,1154,1569,0,0
-63,-545,0,0,0,0,0,0,0,0,0,-1,1161,1569,0,0
-56,-545,0,0,0,0,0,0,0,0,0,-1,1168,1569,0,0
-49,-545,0,0,0,0,0,0,0,0,0,-1,1175,1569,0,0
-42,-545,0,0,0,0,0,0,0,0,0,-1,1182,1569,0,0
-35,-545,0,0,0,0,0,0,0,0,0,-1,1189,1569,0,0
-28,-545,0,0,0,0,0,0,0,0,0,-1,1196,1569,0,0
-21,-545,0,0,0,0,0,0,0,0,0,-1,1203,1569,0,0
-14,-545,0,0,0,0,0,0,0,0,0,-1,1210,1569,0,0
-7,-545,0,0,0,0,0,0,0,0,0,-1,1217,1569,0,0
0,-545,0,0,0,0,0,0,0,0,0,-1,1224,1569,0,0
7,-545,0,0,0,0,0,0,0,0,0,-1,1231,1569,0,0
14,-545,0,0,0,0,0,0,0,0,0,-1,1238,1569,0,0
21,-545,0,0,0,0,0,0,0,0,0,-1,1245,1569,0,0
28,-545,0,0,0,0,0,0,0,0,0,-1,1252,1569,0,0
35,-545,0,0,0,0,0,0,0,0,0,-1,1259,1569,0,0
42,-545,0,0,0,0,0,0,0,0,0,-1,1266,1569,0,0
49,-545,0,0,0,0,0,0,0,0,0,-1,1273,1569,0,0
56,-545,0,0,0,0,0,0,0,0,0,-1,1280,1569,0,0
63,-545,0,0,0,0,0,0,0,0,0,-1,1287,1569,0,0
70,-545,0,0,0,0,0,0,0,0,0,-1,1294,1569,0,0
77,-545,0,0,0,0,0,0,0,0,0,-1,1301,1569,0,0
84,-545,0,0,0,0,0,0,0,0,0,-1,1308,1569,0,0
91,-545,0,0,0,0,0,0,0,0,0,-1,1315,1569,0,0
98,-545,0,0,0,0,0,0,0,0,0,-1,1322,1569,0,0
105,-545,0,0,0,0,0,0,0,0,0,-1,1329,1569,0,0
112,-545,0,0,0,0,0,0,0,0,0,-1,1336,1569,0,0
119,-545,0,0,0,0,0,0,0,0,0,-1,1343,1569,0,0
126,-545,0,0,0,0,0,0,0,0,0,-1,1350,1569,0,0
133,-545,0,0,0,0,0,0,0,0,0,-1,1357,1569,0,0
140,-545,0,0,0,0,0,0,0,0,0,-1,1364,1569,0,0
147,-545,0,0,0,0,0,0,0,0,0,-1,1371,1569,0,0
154,-545,0,0,0,0,0,0,0,0,0,-1,1378,1569,0,0
161,-545,0,0,0,0,0,0,0,0,0,-1,1385,1569,0,0
168,-545,0,0,0,0,0,0,0,0,0,-1,1392,1569,0,0
175,-545,0,0,0,0,0,0,0,0,0,-1,1399,1569,0,0
182,-545,0,0,0,0,0,0,0,0,0,-1,1406,1569,0,0
189,-545,0,0,0,0,0,0,0,0,0,-1,1413,1569,0,0
196,-545,0,0,0,0,0,0,0,0,0,-1,1420,1569,0,0
203,-545,0,0,0,0,0,0,0,0,0,-1,1427,1569,0,0
210,-545,0,0,0,0,0,0,0,0,0,-1,1434,1569,0,0
217,-545,0,0,0,0,0,0,0,0,0,-1,1441,1569,0,0
224,-545,0,0,0,0,0,0,0,0,0,-1,1448,1569,0,0
231,-545,0,0,0,0,0,0,0,0,0,-1,1455,1569,0,0
238,-545,0,0,0,0,0,0,0,0,0,-1,1462,1569,0,0
245,-545,0,0,0,0,0,0,0,0,0,-1,1469,1569,0,0
252,-545,0,0,0,0,0,0,0,0,0,-1,1476,1569,0,0
259,-545,0,0,0,0,0,0,0,0,0,-1,1483,1569,0,0
266,-545,0,0,0,0,0,0,0,0,0,-1,1490,1569,0,0
273,-545,0,0,0,0,0,0,0,0,0,-1,1497,1569,0,0
280,-545,0,0,0,0,0,0,0,0,0,-1,1504,1569,0,0
287,-545,0,0,0,0,0,0,0,0,0,-1,1511,1569,0,0
294,-545,0,0,0,0,0,0,0,0,0,-1,1518,1569,0,0
301,-545,0,0,0,0,0,0,0,0,0,-1,1525,1569,0,0
308,-545,0,0,0,0,0,0,0,0,0,-1,1532,1569,0,0
315,-545,0,0,0,0,0,0,0,0,0,-1,1539,1569,0,0
322,-545,0,0,0,0,0,0,0,0,0,-1,1546,1569,0,0
329,-545,0,0,0,0,0,0,0,0,0,-1,1553,1569,0,0
336,-545,0,0,0,0,0,0,0,0,0,-1,1560,1569,0,0
343,-545,0,0,0,0,0,0,0,0,0,-1,1567,1569,0,0
350,-545,0,0,0,0,0,0,0,0,0,-1,1574,1569,0,0
357,-545,0,0,0,0,0,0,0,0,0,-1,1581,1569,0,0
364,-545,7.19495,4.88098,0,0,0,0,0,0,0,-1,1588,1569,7.19497,-4.88095
371,-545,7.82324,3.84302,0,0,0,0,0,0,0,-1,1595,1569,7.82324,-3.84307
378,-545,7.65674,5.52673,0,0,0,0,0,0,0,-1,1602,1569,7.6567,-5.52667
385,-545,8.58447,1.16125,0,0,0,0,0,0,0,-1,1609,1569,8.5845,-1.1612
392,-545,12.5654,3.89526,0,0,0,0,0,0,0,-1,1616,1569,12.5655,-3.89532
399,-545,11.5869,5.6333,0,0,0,0,0,0,0,-1,1623,1569,11.5869,-5.63326
406,-545,11.234,6.36414,0,0,0,0,0,0,0,-1,1630,1569,11.234,-6.3641
413,-545,12.1521,13.4817,0,0,0,0,0,0,0,-1,1637,1569,12.1521,-13.4817
420,-545,11.1954,13.6047,0,0,0,0,0,0,0,-1,1644,1569,11.1954,-13.6047
427,-545,9.61072,14.9135,0,0,0,0,0,0,0,-1,1651,1569,9.61076,-14.9134
434,-545,13.1598,23.9921,0,0,0,0,0,0,0,-1,1658,1569,13.1598,-23.992
441,-545,12.2833,22.2238,0,0,0,0,0,0,0,-1,1665,1569,12.2833,-22.2237
448,-545,13.0082,21.941,0,0,0,0,0,0,0,-1,1672,1569,13.0082,-21.941
455,-545,13.733,21.6583,0,0,0,0,0,0,0,-1,1679,1569,13.733,-21.6583
462,-545,12.449,20.7413,0,0,0,0,0,0,0,-1,1686,1569,12.4489,-20.7413
469,-545,12.7837,17.7919,0,0,0,0,0,0,0,-1,1693,1569,12.7837,-17.7919
476,-545,15.7562,24.8708,0,0,0,0,0,0,0,-1,1700,1569,15.7563,-24.8709
483,-545,22.5649,36.4722,0,0,0,0,0,0,0,-1,1707,1569,22.565,-36.4722
490,-545,22.6005,35.6931,0.0103275,0.0125629,-0.00914365,0.0206569,0.00223352,-0.846215,0.0130905,0.0295987,1714,1569,22.6005,-35.6931
497,-545,22.629,34.9775,0.00839897,0.00954388,-0.00699616,0.015991,0.00195188,-0.826219,0.0100733,0.0230841,1721,1569,22.629,-34.9776
504,-545,22.6812,34.261,0.00663095,0.0070668,-0.00531957,0.0121729,0.00152484,-0.80587,0.00765777,0.016543,1728,1569,22.6811,-34.261
511,-545,22.6259,33.5762,0.00512272,0.00531037,-0.00404134,0.00925897,0.00117412,-0.797005,0.00582088,0.0126553,1735,1569,22.6259,-33.5762
518,-545,22.5931,32.8839,0.00379123,0.00367775,-0.00283165,0.00656671,0.000902276,-0.77538,0.00411019,0.0142195,1742,1569,22.5931,-32.8839
525,-545,22.5363,32.1729,0.0027813,0.00259337,-0.00194384,0.00463345,0.000741226,-0.761247,0.00287393,0.015094,1749,1569,22.5363,-32.1728
532,-545,22.4956,31.5054,0.00203215,0.00160929,-0.00117952,0.00301904,0.000622398,-0.696715,0.00184065,0.0152967,1756,1569,22.4956,-31.5054
539,-545,22.4653,30.8215,0.00154767,0.000868981,-0.00053872,0.00184501,0.000571635,-0.504338,0.0010906,0.0183527,1763,1569,22.4653,-30.8215
546,-545,22.3907,30.0975,0.00126604,6.597e-05,7.76238e-05,0.00127104,6.09699e-05,0.0643255,0.000827784,0.0202326,1770,1569,22.3908,-30.0976
553,-545,22.4124,29.3885,0.00122868,-0.000556217,0.000603002,0.0014133,-0.000740837,0.297106,0.00126373,0.028555,1777,1569,22.4124,-29.3885
560,-545,22.4313,28.6552,0.00152069,-0.00104301,0.000984455,0.0018551,-0.00137742,0.32746,0.00187307,0.0310282,1784,1569,22.4313,-28.6551
567,-545,22.4113,27.9453,0,0,0,0,0,0,0,-1,1791,1569,22.4112,-27.9453
574,-545,22.3599,27.139,0,0,0,0,0,0,0,-1,1798,1569,22.3598,-27.139
581,-545,22.2791,26.5109,0,0,0,0,0,0,0,-1,1805,1569,22.279,-26.5108
588,-545,15.4786,16.7035,0,0,0,0,0,0,0,-1,1812,1569,15.4786,-16.7035
595,-545,10.2859,9.11218,0,0,0,0,0,0,0,-1,1819,1569,10.2858,-9.11215
602,-545,8.82117,6.32214,0,0,0,0,0,0,0,-1,1826,1569,8.82121,-6.32217
609,-545,10.2406,5.22351,0,0,0,0,0,0,0,-1,1833,1569,10.2406,-5.22353
616,-545,11.701,3.93188,0,0,0,0,0,0,0,-1,1840,1569,11.701,-3.93191
623,-545,13.2139,2.32043,0,0,0,0,0,0,0,-1,1847,1569,13.2139,-2.32042
630,-545,0,0,0,0,0,0,0,0,0,-1,1854,1569,0,0
637,-545,0,0,0,0,0,0,0,0,0,-1,1861,1569,0,0
644,-545,0,0,0,0,0,0,0,0,0,-1,1868,1569,0,0
651,-545,0,0,0,0,0,0,0,0,0,-1,1875,1569,0,0
658,-545,0,0,0,0,0,0,0,0,0,-1,1882,1569,0,0
665,-545,0,0,0,0,0,0,0,0,0,-1,1889,1569,0,0
672,-545,0,0,0,0,0,0,0,0,0,-1,1896,1569,0,0
679,-545,0,0,0,0,0,0,0,0,0,-1,1903,1569,0,0
686,-545,0,0,0,0,0,0,0,0,0,-1,1910,1569,0,0
693,-545,0,0,0,0,0,0,0,0,0,-1,1917,1569,0,0
700,-545,0,0,0,0,0,0,0,0,0,-1,1924,1569,0,0
707,-545,0,0,0,0,0,0,0,0,0,-1,1931,1569,0,0
714,-545,0,0,0,0,0,0,0,0,0,-1,1938,1569,0,0
721,-545,0,0,0,0,0,0,0,0,0,-1,1945,1569,0,0
728,-545,0,0,0,0,0,0,0,0,0,-1,1952,1569,0,0
735,-545,0,0,0,0,0,0,0,0,0,-1,1959,1569,0,0
742,-545,0,0,0,0,0,0,0,0,0,-1,1966,1569,0,0
749,-545,0,0,0,0,0,0,0,0,0,-1,1973,1569,0,0
756,-545,0,0,0,0,0,0,0,0,0,-1,1980,1569,0,0
763,-545,0,0,0,0,0,0,0,0,0,-1,1987,1569,0,0
770,-545,0,0,0,0,0,0,0,0,0,-1,1994,1569,0,0
777,-545,0,0,0,0,0,0,0,0,0,-1,2001,1569,0,0
784,-545,0,0,0,0,0,0,0,0,0,-1,2008,1569,0,0
791,-545,0,0,0,0,0,0,0,0,0,-1,2015,1569,0,0
798,-545,0,0,0,0,0,0,0,0,0,-1,2022,1569,0,0
805,-545,0,0,0,0,0,0,0,0,0,-1,2029,1569,0,0
812,-545,0,0,0,0,0,0,0,0,0,-1,2036,1569,0,0
-700,-552,0,0,0,0,0,0,0,0,0,-1,524,1576,0,0
-693,-552,0,0,0,0,0,0,0,0,0,-1,531,1576,0,0
-686,-552,0,0,0,0,0,0,0,0,0,-1,538,1576,0,0
-679,-552,0,0,0,0,0,0,0,0,0,-1,545,1576,0,0
-672,-552,0,0,0,0,0,0,0,0,0,-1,552,1576,0,0
-665,-552,0,0,0,0,0,0,0,0,0,-1,559,1576,0,0
-658,-552,0,0,0,0,0,0,0,0,0,-1,566,1576,0,0
-651,-552,0,0,0,0,0,0,0,0,0,-1,573,1576,0,0
-644,-552,0,0,0,0,0,0,0,0,0,-1,580,1576,0,0
-637,-552,0,0,0,0,0,0,0,0,0,-1,587,1576,0,0
-630,-552,0,0,0,0,0,0,0,0,0,-1,594,1576,0,0
-623,-552,0,0,0,0,0,0,0,0,0,-1,601,1576,0,0
-616,-552,0,0,0,0,0,0,0,0,0,-1,608,1576,0,0
-609,-552,0,0,0,0,0,0,0,0,0,-1,615,1576,0,0
-602,-552,0,0,0,0,0,0,0,0,0,-1,622,1576,0,0
-595,-552,0,0,0,0,0,0,0,0,0,-1,629,1576,0,0
-588,-552,0,0,0,0,0,0,0,0,0,-1,636,1576,0,0
-581,-552,0,0,0,0,0,0,0,0,0,-1,643,1576,0,0
-574,-552,0,0,0,0,0,0,0,0,0,-1,650,1576,0,0
-567,-552,0,0,0,0,0,0,0,0,0,-1,657,1576,0,0
-560,-552,0,0,0,0,0,0,0,0,0,-1,664,1576,0,0
-553,-552,0,0,0,0,0,0,0,0,0,-1,671,1576,0,0
-546,-552,0,0,0,0,0,0,0,0,0,-1,678,1576,0,0
-539,-552,0,0,0,0,0,0,0,0,0,-1,685,1576,0,0
-532,-552,0,0,0,0,0,0,0,0,0,-1,692,1576,0,0
-525,-552,0,0,0,0,0,0,0,0,0,-1,699,1576,0,0
-518,-552,0,0,0,0,0,0,0,0,0,-1,706,1576,0,0
-511,-552,0,0,0,0,0,0,0,0,0,-1,713,1576,0,0
-504,-552,0,0,0,0,0,0,0,0,0,-1,720,1576,0,0
-497,-552,1.51282,3.96924,0,0,0,0,0,0,0,-1,727,1576,1.5128,-3.96924
-490,-552,-3.82312,6.32104,0,0,0,0,0,0,0,-1,734,1576,-3.82314,-6.3211
-483,-552,-3.50586,6.47986,0,0,0,0,0,0,0,-1,741,1576,-3.50587,-6.47983
-476,-552,-1.95129,4.43054,0,0,0,0,0,0,0,-1,748,1576,-1.95128,-4.43054
-469,-552,-1.40491,7.9895,0,0,0,0,0,0,0,-1,755,1576,-1.40491,-7.98947
-462,-552,0.0459595,16.3469,0,0,0,0,0,0,0,-1,762,1576,0.0459611,-16.3469
-455,-552,-3.21484,22.3766,0,0,0,0,0,0,0,-1,769,1576,-3.21487,-22.3766
-448,-552,-3.49182,25.811,0,0,0,0,0,0,0,-1,776,1576,-3.49182,-25.8111
-441,-552,-3.40332,27.0844,0,0,0,0,0,0,0,-1,783,1576,-3.40332,-27.0843
-434,-552,-3.53876,27.9221,0,0,0,0,0,0,0,-1,790,1576,-3.53877,-27.9221
-427,-552,-4.2077,28.4072,0,0,0,0,0,0,0,-1,797,1576,-4.2077,-28.4072
-420,-552,-3.81104,29.1868,-0.00211705,-0.00247161,-0.00106466,-0.00121501,-0.00337365,-0.7029,0.00197301,0.0236745,804,1576,-3.81106,-29.1868
-413,-552,-3.85358,29.9219,-0.00151014,-0.00123339,-0.000590674,-0.000765098,-0.00197843,-0.90046,0.00115198,0.0188144,811,1576,-3.85357,-29.9219
-406,-552,-3.90344,30.65,-0.000835771,-0.000617451,-3.28117e-05,-0.000612627,-0.000840596,-1.4248,0.00050197,0.0147379,818,1576,-3.90341,-30.65
-399,-552,-3.95557,31.3468,-4.36835e-05,-6.41962e-05,0.000334332,0.00028055,-0.00038843,0.770064,0.000387906,0.0139947,825,1576,-3.95556,-31.3468
-392,-552,-4.00629,32.0537,0.000626763,0.000506167,0.000620097,0.00118949,-5.65568e-05,0.736931,0.0008125,0.0154035,832,1576,-4.00627,-32.0537
-385,-552,-4.02997,32.7999,0.00131197,0.00116811,0.000839531,0.00208265,0.000397433,0.742665,0.00127674,0.0147805,839,1576,-4.02997,-32.8
-378,-552,-4.06403,33.4918,0.00187059,0.00173385,0.000970616,0.00277524,0.000829196,0.750236,0.00164496,0.0167531,846,1576,-4.06401,-33.4919
-371,-552,-4.09106,34.1971,0.00251267,0.00239903,0.00124002,0.00369718,0.00121453,0.762502,0.00217602,0.0199796,853,1576,-4.09108,-34.1971
-364,-552,-4.10669,34.9044,0.0033303,0.00341468,0.00168283,0.00505585,0.00168913,0.79793,0.00297208,0.0148072,860,1576,-4.10668,-34.9044
-357,-552,-4.11548,35.5875,0.00423634,0.00458128,0.00220538,0.00662093,0.0021967,0.824421,0.00389404,0.0103506,867,1576,-4.11549,-35.5875
-350,-552,-4.11011,36.3407,0.00526171,0.00601184,0.00290487,0.00856576,0.00270779,0.849601,0.00505569,0.015998,874,1576,-4.11008,-36.3407
-343,-552,-4.13416,37.036,0.00627477,0.00718572,0.00359172,0.0103507,0.00310976,0.848468,0.00613261,0.0273108,881,1576,-4.13418,-37.0361
-336,-552,-4.21088,37.6469,0,0,0,0,0,0,0,-1,888,1576,-4.21087,-37.6469
-329,-552,-3.68982,37.6417,0,0,0,0,0,0,0,-1,895,1576,-3.68984,-37.6417
-322,-552,-1.23962,28.5371,0,0,0,0,0,0,0,-1,902,1576,-1.23964,-28.5371
-315,-552,-0.605347,28.994,0,0,0,0,0,0,0,-1,909,1576,-0.605331,-28.9941
-308,-552,-1.01624,30.3169,0,0,0,0,0,0,0,-1,916,1576,-1.01624,-30.3169
-301,-552,1.39453,18.4995,0,0,0,0,0,0,0,-1,923,1576,1.3945,-18.4995
-294,-552,0.842163,13.7863,0,0,0,0,0,0,0,-1,930,1576,0.842149,-13.7863
-287,-552,-0.663757,13.3474,0,0,0,0,0,0,0,-1,937,1576,-0.663744,-13.3474
-280,-552,-5.47241,8.96765,0,0,0,0,0,0,0,-1,944,1576,-5.47239,-8.96766
-273,-552,1.64587,10.6685,0,0,0,0,0,0,0,-1,951,1576,1.6459,-10.6685
-266,-552,-1.32678,8.05688,0,0,0,0,0,0,0,-1,958,1576,-1.32677,-8.05683
-259,-552,-5.54321,8.31213,0,0,0,0,0,0,0,-1,965,1576,-5.54324,-8.31214
-252,-552,-1.93445,7.81543,0,0,0,0,0,0,0,-1,972,1576,-1.93445,-7.81546
-245,-552,-2.53613,6.92212,0,0,0,0,0,0,0,-1,979,1576,-2.53614,-6.92216
-238,-552,-6.5365,2.81885,0,0,0,0,0,0,0,-1,986,1576,-6.53649,-2.8188
-231,-552,-4.32239,4.34583,0,0,0,0,0,0,0,-1,993,1576,-4.32239,-4.34587
-224,-552,0,0,0,0,0,0,0,0,0,-1,1000,1576,0,0
-217,-552,0,0,0,0,0,0,0,0,0,-1,1007,1576,0,0
-210,-552,0,0,0,0,0,0,0,0,0,-1,1014,1576,0,0
-203,-552,0,0,0,0,0,0,0,0,0,-1,1021,1576,0,0
-196,-552,0,0,0,0,0,0,0,0,0,-1,1028,1576,0,0
-189,-552,0,0,0,0,0,0,0,0,0,-1,1035,1576,0,0
-182,-552,0,0,0,0,0,0,0,0,0,-1,1042,1576,0,0
-175,-552,0,0,0,0,0,0,0,0,0,-1,1049,1576,0,0
-168,-552,0,0,0,0,0,0,0,0,0,-1,1056,1576,0,0
-161,-552,0,0,0,0,0,0,0,0,0,-1,1063,1576,0,0
-154,-552,0,0,0,0,0,0,0,0,0,-1,1070,1576,0,0
-147,-552,0,0,0,0,0,0,0,0,0,-1,1077,1576,0,0
-140,-552,0,0,0,0,0,0,0,0,0,-1,1084,1576,0,0
-133,-552,0,0,0,0,0,0,0,0,0,-1,1091,1576,0,0
-126,-552,0,0,0,0,0,0,0,0,0,-1,1098,1576,0,0
-119,-552,0,0,0,0,0,0,0,0,0,-1,1105,1576,0,0
-112,-552,0,0,0,0,0,0,0,0,0,-1,1112,1576,0,0
-105,-552,0,0,0,0,0,0,0,0,0,-1,1119,1576,0,0
-98,-552,0,0,0,0,0,0,0,0,0,-1,1126,1576,0,0
-91,-552,0,0,0,0,0,0,0,0,0,-1,1133,1576,0,0
-84,-552,0,0,0,0,0,0,0,0,0,-1,1140,1576,0,0
-77,-552,0,0,0,0,0,0,0,0,0,-1,1147,1576,0,0
-70,-552,0,0,0,0,0,0,0,0,0,-1,1154,1576,0,0
-63,-552,0,0,0,0,0,0,0,0,0,-1,1161,1576,0,0
-56,-552,0,0,0,0,0,0,0,0,0,-1,1168,1576,0,0
-49,-552,0,0,0,0,0,0,0,0,0,-1,1175,1576,0,0
-42,-552,0,0,0,0,0,0,0,0,0,-1,1182,1576,0,0
-35,-552,0,0,0,0,0,0,0,0,0,-1,1189,1576,0,0
-28,-552,0,0,0,0,0,0,0,0,0,-1,1196,1576,0,0
-21,-552,0,0,0,0,0,0,0,0,0,-1,1203,1576,0,0
-14,-552,0,0,0,0,0,0,0,0,0,-1,1210,1576,0,0
-7,-552,0,0,0,0,0,0,0,0,0,-1,1217,1576,0,0
0,-552,0,0,0,0,0,0,0,0,0,-1,1224,1576,0,0
7,-552,0,0,0,0,0,0,0,0,0,-1,1231,1576,0,0
14,-552,0,0,0,0,0,0,0,0,0,-1,1238,1576,0,0
21,-552,0,0,0,0,0,0,0,0,0,-1,1245,1576,0,0
28,-552,0,0,0,0,0,0,0,0,0,-1,1252,1576,0,0
35,-552,0,0,0,0,0,0,0,0,0,-1,1259,1576,0,0
42,-552,0,0,0,0,0,0,0,0,0,-1,1266,1576,0,0
49,-552,0,0,0,0,0,0,0,0,0,-1,1273,1576,0,0
56,-552,0,0,0,0,0,0,0,0,0,-1,1280,1576,0,0
63,-552,0,0,0,0,0,0,0,0,0,-1,1287,1576,0,0
70,-552,0,0,0,0,0,0,0,0,0,-1,1294,1576,0,0
77,-552,0,0,0,0,0,0,0,0,0,-1,1301,1576,0,0
84,-552,0,0,0,0,0,0,0,0,0,-1,1308,1576,0,0
91,-552,0,0,0,0,0,0,0,0,0,-1,1315,1576,0,0
98,-552,0,0,0,0,0,0,0,0,0,-1,1322,1576,0,0
105,-552,0,0,0,0,0,0,0,0,0,-1,1329,1576,0,0
112,-552,0,0,0,0,0,0,0,0,0,-1,1336,1576,0,0
119,-552,0,0,0,0,0,0,0,0,0,-1,1343,1576,0,0
126,-552,0,0,0,0,0,0,0,0,0,-1,1350,1576,0,0
133,-552,0,0,0,0,0,0,0,0,0,-1,1357,1576,0,0
140,-552,0,0,0,0,0,0,0,0,0,-1,1364,1576,0,0
147,-552,0,0,0,0,0,0,0,0,0,-1,1371,1576,0,0
154,-552,0,0,0,0,0,0,0,0,0,-1,1378,1576,0,0
161,-552,0,0,0,0,0,0,0,0,0,-1,1385,1576,0,0
168,-552,0,0,0,0,0,0,0,0,0,-1,1392,1576,0,0
175,-552,0,0,0,0,0,0,0,0,0,-1,1399,1576,0,0
182,-552,0,0,0,0,0,0,0,0,0,-1,1406,1576,0,0
189,-552,0,0,0,0,0,0,0,0,0,-1,1413,1576,0,0
196,-552,0,0,0,0,0,0,0,0,0,-1,1420,1576,0,0
203,-552,0,0,0,0,0,0,0,0,0,-1,1427,1576,0,0
210,-552,0,0,0,0,0,0,0,0,0,-1,1434,1576,0,0
217,-552,0,0,0,0,0,0,0,0,0,-1,1441,1576,0,0
224,-552,0,0,0,0,0,0,0,0,0,-1,1448,1576,0,0
231,-552,0,0,0,0,0,0,0,0,0,-1,1455,1576,0,0
238,-552,0,0,0,0,0,0,0,0,0,-1,1462,1576,0,0
245,-552,0,0,0,0,0,0,0,0,0,-1,1469,1576,0,0
252,-552,0,0,0,0,0,0,0,0,0,-1,1476,1576,0,0
259,-552,0,0,0,0,0,0,0,0,0,-1,1483,1576,0,0
266,-552,0,0,0,0,0,0,0,0,0,-1,1490,1576,0,0
273,-552,0,0,0,0,0,0,0,0,0,-1,1497,1576,0,0
280,-552,0,0,0,0,0,0,0,0,0,-1,1504,1576,0,0
287,-552,0,0,0,0,0,0,0,0,0,-1,1511,1576,0,0
294,-552,0,0,0,0,0,0,0,0,0,-1,1518,1576,0,0
301,-552,0,0,0,0,0,0,0,0,0,-1,1525,1576,0,0
308,-552,0,0,0,0,0,0,0,0,0,-1,1532,1576,0,0
315,-552,0,0,0,0,0,0,0,0,0,-1,1539,1576,0,0
322,-552,0,0,0,0,0,0,0,0,0,-1,1546,1576,0,0
329,-552,0,0,0,0,0,0,0,0,0,-1,1553,1576,0,0
336,-552,0,0,0,0,0,0,0,0,0,-1,1560,1576,0,0
343,-552,0,0,0,0,0,0,0,0,0,-1,1567,1576,0,0
350,-552,4.97876,4.09888,0,0,0,0,0,0,0,-1,1574,1576,4.97875,-4.09883
357,-552,5.18469,4.10706,0,0,0,0,0,0,0,-1,1581,1576,5.1847,-4.10702
364,-552,5.80872,5.07031,0,0,0,0,0,0,0,-1,1588,1576,5.80874,-5.07037
371,-552,7.10657,5.64783,0,0,0,0,0,0,0,-1,1595,1576,7.10651,-5.64786
378,-552,6.44446,4.91492,0,0,0,0,0,0,0,-1,1602,1576,6.44448,-4.91496
385,-552,12.8276,3.16504,0,0,0,0,0,0,0,-1,1609,1576,12.8276,-3.16503
392,-552,12.1301,4.3363,0,0,0,0,0,0,0,-1,1616,1576,12.1302,-4.33631
399,-552,11.3486,5.6012,0,0,0,0,0,0,0,-1,1623,1576,11.3486,-5.60115
406,-552,10.7863,6.42542,0,0,0,0,0,0,0,-1,1630,1576,10.7863,-6.42536
413,-552,8.39307,10.365,0,0,0,0,0,0,0,-1,1637,1576,8.3931,-10.365
420,-552,10.2306,12.7225,0,0,0,0,0,0,0,-1,1644,1576,10.2305,-12.7226
427,-552,9.73267,14.783,0,0,0,0,0,0,0,-1,1651,1576,9.73269,-14.783
434,-552,12.0377,20.1364,0,0,0,0,0,0,0,-1,1658,1576,12.0377,-20.1364
441,-552,12.4963,21.5277,0,0,0,0,0,0,0,-1,1665,1576,12.4964,-21.5277
448,-552,12.9141,21.5482,0,0,0,0,0,0,0,-1,1672,1576,12.9141,-21.5482
455,-552,13.3318,21.5687,0,0,0,0,0,0,0,-1,1679,1576,13.3317,-21.5687
462,-552,12.745,20.5947,0,0,0,0,0,0,0,-1,1686,1576,12.745,-20.5947
469,-552,17.7067,29.6902,0,0,0,0,0,0,0,-1,1693,1576,17.7067,-29.6902
476,-552,21.8641,37.2443,0,0,0,0,0,0,0,-1,1700,1576,21.8641,-37.2443
483,-552,22.0215,36.2732,0,0,0,0,0,0,0,-1,1707,1576,22.0215,-36.2732
490,-552,22.0027,35.6046,0.00805496,0.0102096,-0.00705428,0.0162684,0.00199621,-0.861172,0.0102452,0.0163508,1714,1576,22.0027,-35.6046
497,-552,22.0654,34.9294,0.00647387,0.0076387,-0.00535475,0.0124426,0.00166996,-0.839568,0.00779825,0.0233872,1721,1576,22.0655,-34.9294
504,-552,22.0195,34.2816,0.00503136,0.00542346,-0.00399018,0.00922241,0.00123242,-0.809945,0.00578142,0.0247438,1728,1576,22.0196,-34.2816
511,-552,21.9528,33.594,0.00376531,0.00387635,-0.00291722,0.00673858,0.000903079,-0.794913,0.00422367,0.0176546,1735,1576,21.9527,-33.594
518,-552,21.9225,32.8949,0.00260968,0.00241648,-0.00190159,0.00441713,0.000609036,-0.76002,0.0027642,0.0155868,1742,1576,21.9225,-32.8949
525,-552,21.8644,32.2023,0.00176928,0.00144638,-0.00115118,0.00277027,0.000445379,-0.715729,0.00171774,0.0160757,1749,1576,21.8643,-32.2023
532,-552,21.8333,31.5245,0.00119585,0.000557252,-0.000485167,0.00145736,0.000295743,-0.494365,0.000889535,0.0154664,1756,1576,21.8332,-31.5245
539,-552,21.8005,30.8574,0.000867964,-0.000107155,9.91659e-05,0.000877946,-0.000117138,0.100328,0.000627996,0.0183952,1763,1576,21.8006,-30.8574
546,-552,21.7338,30.1584,0.000754101,-0.000838947,0.000695372,0.00101493,-0.00109977,0.358851,0.00122125,0.0232394,1770,1576,21.7337,-30.1584
553,-552,21.7373,29.4229,0.000916955,-0.00139331,0.00121639,0.0014393,-0.00191566,0.40561,0.00194348,0.0274255,1777,1576,21.7373,-29.4229
560,-552,21.8162,28.4913,0,0,0,0,0,0,0,-1,1784,1576,21.8162,-28.4913
567,-552,20.6783,26.0908,0,0,0,0,0,0,0,-1,1791,1576,20.6784,-26.0908
574,-552,12.8835,14.8463,0,0,0,0,0,0,0,-1,1798,1576,12.8836,-14.8463
581,-552,9.74841,9.98645,0,0,0,0,0,0,0,-1,1805,1576,9.74847,-9.9864
588,-552,10.5619,9.34924,0,0,0,0,0,0,0,-1,1812,1576,10.5619,-9.34921
595,-552,5.36194,6.62744,0,0,0,0,0,0,0,-1,1819,1576,5.36193,-6.62742
602,-552,10.6863,4.31616,0,0,0,0,0,0,0,-1,1826,1576,10.6862,-4.31619
609,-552,12.146,3.18286,0,0,0,0,0,0,0,-1,1833,1576,12.1459,-3.18281
616,-552,13.8762,2.08167,0,0,0,0,0,0,0,-1,1840,1576,13.8763,-2.08167
623,-552,0,0,0,0,0,0,0,0,0,-1,1847,1576,0,0
630,-552,0,0,0,0,0,0,0,0,0,-1,1854,1576,0,0
637,-552,0,0,0,0,0,0,0,0,0,-1,1861,1576,0,0
644,-552,0,0,0,0,0,0,0,0,0,-1,1868,1576,0,0
651,-552,0,0,0,0,0,0,0,0,0,-1,1875,1576,0,0
658,-552,0,0,0,0,0,0,0,0,0,-1,1882,1576,0,0
665,-552,0,0,0,0,0,0,0,0,0,-1,1889,1576,0,0
672,-552,0,0,0,0,0,0,0,0,0,-1,1896,1576,0,0
679,-552,0,0,0,0,0,0,0,0,0,-1,1903,1576,0,0
686,-552,0,0,0,0,0,0,0,0,0,-1,1910,1576,0,0
693,-552,0,0,0,0,0,0,0,0,0,-1,1917,1576,0,0
700,-552,0,0,0,0,0,0,0,0,0,-1,1924,1576,0,0
707,-552,0,0,0,0,0,0,0,0,0,-1,1931,1576,0,0
714,-552,0,0,0,0,0,0,0,0,0,-1,1938,1576,0,0
721,-552,0,0,0,0,0,0,0,0,0,-1,1945,1576,0,0
728,-552,0,0,0,0,0,0,0,0,0,-1,1952,1576,0,0
735,-552,0,0,0,0,0,0,0,0,0,-1,1959,1576,0,0
742,-552,0,0,0,0,0,0,0,0,0,-1,1966,1576,0,0
749,-552,0,0,0,0,0,0,0,0,0,-1,1973,1576,0,0
756,-552,0,0,0,0,0,0,0,0,0,-1,1980,1576,0,0
763,-552,0,0,0,0,0,0,0,0,0,-1,1987,1576,0,0
770,-552,0,0,0,0,0,0,0,0,0,-1,1994,1576,0,0
777,-552,0,0,0,0,0,0,0,0,0,-1,2001,1576,0,0
784,-552,0,0,0,0,0,0,0,0,0,-1,2008,1576,0,0
791,-552,0,0,0,0,0,0,0,0,0,-1,2015,1576,0,0
798,-552,0,0,0,0,0,0,0,0,0,-1,2022,1576,0,0
805,-552,0,0,0,0,0,0,0,0,0,-1,2029,1576,0,0
812,-552,0,0,0,0,0,0,0,0,0,-1,2036,1576,0,0
-700,-559,0,0,0,0,0,0,0,0,0,-1,524,1583,0,0
-693,-559,0,0,0,0,0,0,0,0,0,-1,531,1583,0,0
-686,-559,0,0,0,0,0,0,0,0,0,-1,538,1583,0,0
-679,-559,0,0,0,0,0,0,0,0,0,-1,545,1583,0,0
-672,-559,0,0,0,0,0,0,0,0,0,-1,552,1583,0,0
-665,-559,0,0,0,0,0,0,0,0,0,-1,559,1583,0,0
-658,-559,0,0,0,0,0,0,0,0,0,-1,566,1583,0,0
-651,-559,0,0,0,0,0,0,0,0,0,-1,573,1583,0,0
-644,-559,0,0,0,0,0,0,0,0,0,-1,580,1583,0,0
-637,-559,0,0,0,0,0,0,0,0,0,-1,587,1583,0,0
-630,-559,0,0,0,0,0,0,0,0,0,-1,594,1583,0,0
-623,-559,0,0,0,0,0,0,0,0,0,-1,601,1583,0,0
-616,-559,0,0,0,0,0,0,0,0,0,-1,608,1583,0,0
-609,-559,0,0,0,0,0,0,0,0,0,-1,615,1583,0,0
-602,-559,0,0,0,0,0,0,0,0,0,-1,622,1583,0,0
-595,-559,0,0,0,0,0,0,0,0,0,-1,629,1583,0,0
-588,-559,0,0,0,0,0,0,0,0,0,-1,636,1583,0,0
-581,-559,0,0,0,0,0,0,0,0,0,-1,643,1583,0,0
-574,-559,0,0,0,0,0,0,0,0,0,-1,650,1583,0,0
-567,-559,0,0,0,0,0,0,0,0,0,-1,657,1583,0,0
-560,-559,0,0,0,0,0,0,0,0,0,-1,664,1583,0,0
-553,-559,0,0,0,0,0,0,0,0,0,-1,671,1583,0,0
-546,-559,0,0,0,0,0,0,0,0,0,-1,678,1583,0,0
-539,-559,0,0,0,0,0,0,0,0,0,-1,685,1583,0,0
-532,-559,0,0,0,0,0,0,0,0,0,-1,692,1583,0,0
-525,-559,0,0,0,0,0,0,0,0,0,-1,699,1583,0,0
-518,-559,0,0,0,0,0,0,0,0,0,-1,706,1583,0,0
-511,-559,0,0,0,0,0,0,0,0,0,-1,713,1583,0,0
-504,-559,0,0,0,0,0,0,0,0,0,-1,720,1583,0,0
-497,-559,0,0,0,0,0,0,0,0,0,-1,727,1583,0,0
-490,-559,-5.49835,4.47424,0,0,0,0,0,0,0,-1,734,1583,-5.49833,-4.4743
-483,-559,-5.24078,4.74561,0,0,0,0,0,0,0,-1,741,1583,-5.24079,-4.74563
-476,-559,-4.98022,4.99316,0,0,0,0,0,0,0,-1,748,1583,-4.98024,-4.99321
-469,-559,-4.6424,5.38062,0,0,0,0,0,0,0,-1,755,1583,-4.64237,-5.38058
-462,-559,-0.161865,6.49438,0,0,0,0,0,0,0,-1,762,1583,-0.161835,-6.49444
-455,-559,1.08826,7.02527,0,0,0,0,0,0,0,-1,769,1583,1.08823,-7.02529
-448,-559,-2.86023,20.0852,0,0,0,0,0,0,0,-1,776,1583,-2.86025,-20.0852
-441,-559,-1.60327,27.2687,0,0,0,0,0,0,0,-1,783,1583,-1.60325,-27.2686
-434,-559,-2.37921,27.8796,0,0,0,0,0,0,0,-1,790,1583,-2.37924,-27.8797
-427,-559,-2.95026,28.6859,0,0,0,0,0,0,0,-1,797,1583,-2.95028,-28.6859
-420,-559,-3.08496,29.1042,0,0,0,0,0,0,0,-1,804,1583,-3.08493,-29.1043
-413,-559,-3.16547,29.9536,-0.00183276,-0.00135874,-0.000398698,-0.00113193,-0.00205958,-1.05357,0.00119105,0.0194399,811,1583,-3.16549,-29.9537
-406,-559,-3.19733,30.6887,-0.00123106,-0.000947339,6.60051e-05,-0.000932736,-0.00124567,1.35305,0.000748273,0.0111284,818,1583,-3.19731,-30.6887
-399,-559,-3.22253,31.4043,-0.000505043,-0.000573822,0.000317387,-0.000220188,-0.000858677,0.731432,0.000514992,0.0133761,825,1583,-3.22255,-31.4043
-392,-559,-3.28851,32.1021,0.000111989,-0.000121492,0.000511928,0.000520319,-0.000529822,0.673295,0.000606307,0.0161422,832,1583,-3.2885,-32.1021
-385,-559,-3.32233,32.8148,0.000771918,0.000452715,0.00068589,0.00131653,-9.18977e-05,0.671086,0.000909868,0.0169045,839,1583,-3.3223,-32.8148
-378,-559,-3.3573,33.5183,0.00127112,0.000939749,0.000749782,0.0018733,0.000337563,0.676657,0.00115294,0.0158323,846,1583,-3.3573,-33.5183
-371,-559,-3.39166,34.243,0.00183881,0.00148797,0.000915871,0.00259591,0.00073087,0.690775,0.0015457,0.0224967,853,1583,-3.39166,-34.2431
-364,-559,-3.39288,34.9142,0.00258863,0.0023426,0.00125234,0.00372398,0.00120725,0.73644,0.0021939,0.020046,860,1583,-3.39289,-34.9142
-357,-559,-3.41388,35.5935,0.00341369,0.00331439,0.00165214,0.00501693,0.00171115,0.770377,0.00294489,0.0126785,867,1583,-3.41385,-35.5935
-350,-559,-3.43634,36.2834,0.00437899,0.00443119,0.00219966,0.0066049,0.00220528,0.791331,0.00388286,0.0109954,874,1583,-3.43633,-36.2835
-343,-559,-3.46594,36.9894,0.00535269,0.00543358,0.00279994,0.00819337,0.0025929,0.79262,0.00483551,0.011494,881,1583,-3.46592,-36.9894
-336,-559,-3.52539,37.6877,0,0,0,0,0,0,0,-1,888,1583,-3.52541,-37.6877
-329,-559,-3.47687,38.5331,0,0,0,0,0,0,0,-1,895,1583,-3.47689,-38.5331
-322,-559,-3.31024,39.7574,0,0,0,0,0,0,0,-1,902,1583,-3.31026,-39.7574
-315,-559,-0.659607,29.1698,0,0,0,0,0,0,0,-1,909,1583,-0.659577,-29.1698
-308,-559,-0.755493,30.4624,0,0,0,0,0,0,0,-1,916,1583,-0.755509,-30.4625
-301,-559,-1.22174,31.0372,0,0,0,0,0,0,0,-1,923,1583,-1.22176,-31.0372
-294,-559,0.945129,18.5165,0,0,0,0,0,0,0,-1,930,1583,0.945117,-18.5165
-287,-559,-0.11792,15.4912,0,0,0,0,0,0,0,-1,937,1583,-0.117939,-15.4912
-280,-559,0.191467,13.5093,0,0,0,0,0,0,0,-1,944,1583,0.191441,-13.5093
-273,-559,2.12836,10.3059,0,0,0,0,0,0,0,-1,951,1583,2.12839,-10.3059
-266,-559,-0.597046,6.68933,0,0,0,0,0,0,0,-1,958,1583,-0.597031,-6.68937
-259,-559,-7.00311,8.62756,0,0,0,0,0,0,0,-1,965,1583,-7.00312,-8.6275
-252,-559,-9.4483,2.87805,0,0,0,0,0,0,0,-1,972,1583,-9.44829,-2.87805
-245,-559,-4.80804,7.1803,0,0,0,0,0,0,0,-1,979,1583,-4.80804,-7.18027
-238,-559,-8.45764,2.54858,0,0,0,0,0,0,0,-1,986,1583,-8.45763,-2.54862
-231,-559,-5.86914,4.34021,0,0,0,0,0,0,0,-1,993,1583,-5.86914,-4.34019
-224,-559,-3.30505,6.22864,0,0,0,0,0,0,0,-1,1000,1583,-3.30505,-6.22859
-217,-559,0,0,0,0,0,0,0,0,0,-1,1007,1583,0,0
-210,-559,0,0,0,0,0,0,0,0,0,-1,1014,1583,0,0
-203,-559,0,0,0,0,0,0,0,0,0,-1,1021,1583,0,0
-196,-559,0,0,0,0,0,0,0,0,0,-1,1028,1583,0,0
-189,-559,0,0,0,0,0,0,0,0,0,-1,1035,1583,0,0
-182,-559,0,0,0,0,0,0,0,0,0,-1,1042,1583,0,0
-175,-559,0,0,0,0,0,0,0,0,0,-1,1049,1583,0,0
-168,-559,0,0,0,0,0,0,0,0,0,-1,1056,1583,0,0
-161,-559,0,0,0,0,0,0,0,0,0,-1,1063,1583,0,0
-154,-559,0,0,0,0,0,0,0,0,0,-1,1070,1583,0,0
-147,-559,0,0,0,0,0,0,0,0,0,-1,1077,1583,0,0
-140,-559,0,0,0,0,0,0,0,0,0,-1,1084,1583,0,0
-133,-559,0,0,0,0,0,0,0,0,0,-1,1091,1583,0,0
-126,-559,0,0,0,0,0,0,0,0,0,-1,1098,1583,0,0
-119,-559,0,0,0,0,0,0,0,0,0,-1,1105,1583,0,0
-112,-559,0,0,0,0,0,0,0,0,0,-1,1112,1583,0,0
-105,-559,0,0,0,0,0,0,0,0,0,-1,1119,1583,0,0
-98,-559,0,0,0,0,0,0,0,0,0,-1,1126,1583,0,0
-91,-559,0,0,0,0,0,0,0,0,0,-1,1133,1583,0,0
-84,-559,0,0,0,0,0,0,0,0,0,-1,1140,1583,0,0
-77,-559,0,0,0,0,0,0,0,0,0,-1,1147,1583,0,0
-70,-559,0,0,0,0,0,0,0,0,0,-1,1154,1583,0,0
-63,-559,0,0,0,0,0,0,0,0,0,-1,1161,1583,0,0
-56,-559,0,0,0,0,0,0,0,0,0,-1,1168,1583,0,0
-49,-559,0,0,0,0,0,0,0,0,0,-1,1175,1583,0,0
-42,-559,0,0,0,0,0,0,0,0,0,-1,1182,1583,0,0
-35,-559,0,0,0,0,0,0,0,0,0,-1,1189,1583,0,0
-28,-559,0,0,0,0,0,0,0,0,0,-1,1196,1583,0,0
-21,-559,0,0,0,0,0,0,0,0,0,-1,1203,1583,0,0
-14,-559,0,0,0,0,0,0,0,0,0,-1,1210,1583,0,0
-7,-559,0,0,0,0,0,0,0,0,0,-1,1217,1583,0,0
0,-559,0,0,0,0,0,0,0,0,0,-1,1224,1583,0,0
7,-559,0,0,0,0,0,0,0,0,0,-1,1231,1583,0,0
14,-559,0,0,0,0,0,0,0,0,0,-1,1238,1583,0,0
21,-559,0,0,0,0,0,0,0,0,0,-1,1245,1583,0,0
28,-559,0,0,0,0,0,0,0,0,0,-1,1252,1583,0,0
35,-559,0,0,0,0,0,0,0,0,0,-1,1259,1583,0,0
42,-559,0,0,0,0,0,0,0,0,0,-1,1266,1583,0,0
49,-559,0,0,0,0,0,0,0,0,0,-1,1273,1583,0,0
56,-559,0,0,0,0,0,0,0,0,0,-1,1280,1583,0,0
63,-559,0,0,0,0,0,0,0,0,0,-1,1287,1583,0,0
70,-559,0,0,0,0,0,0,0,0,0,-1,1294,1583,0,0
77,-559,0,0,0,0,0,0,0,0,0,-1,1301,1583,0,0
84,-559,0,0,0,0,0,0,0,0,0,-1,1308,1583,0,0
91,-559,0,0,0,0,0,0,0,0,0,-1,1315,1583,0,0
98,-559,0,0,0,0,0,0,0,0,0,-1,1322,1583,0,0
105,-559,0,0,0,0,0,0,0,0,0,-1,1329,1583,0,0
112,-559,0,0,0,0,0,0,0,0,0,-1,1336,1583,0,0
119,-559,0,0,0,0,0,0,0,0,0,-1,1343,1583,0,0
126,-559,0,0,0,0,0,0,0,0,0,-1,1350,1583,0,0
133,-559,0,0,0,0,0,0,0,0,0,-1,1357,1583,0,0
140,-559,0,0,0,0,0,0,0,0,0,-1,1364,1583,0,0
147,-559,0,0,0,0,0,0,0,0,0,-1,1371,1583,0,0
154,-559,0,0,0,0,0,0,0,0,0,-1,1378,1583,0,0
161,-559,0,0,0,0,0,0,0,0,0,-1,1385,1583,0,0
168,-559,0,0,0,0,0,0,0,0,0,-1,1392,1583,0,0
175,-559,0,0,0,0,0,0,0,0,0,-1,1399,1583,0,0
182,-559,0,0,0,0,0,0,0,0,0,-1,1406,1583,0,0
189,-559,0,0,0,0,0,0,0,0,0,-1,1413,1583,0,0
196,-559,0,0,0,0,0,0,0,0,0,-1,1420,1583,0,0
203,-559,0,0,0,0,0,0,0,0,0,-1,1427,1583,0,0
210,-559,0,0,0,0,0,0,0,0,0,-1,1434,1583,0,0
217,-559,0,0,0,0,0,0,0,0,0,-1,1441,1583,0,0
224,-559,0,0,0,0,0,0,0,0,0,-1,1448,1583,0,0
231,-559,0,0,0,0,0,0,0,0,0,-1,1455,1583,0,0
238,-559,0,0,0,0,0,0,0,0,0,-1,1462,1583,0,0
245,-559,0,0,0,0,0,0,0,0,0,-1,1469,1583,0,0
252,-559,0,0,0,0,0,0,0,0,0,-1,1476,1583,0,0
259,-559,0,0,0,0,0,0,0,0,0,-1,1483,1583,0,0
266,-559,0,0,0,0,0,0,0,0,0,-1,1490,1583,0,0
273,-559,0,0,0,0,0,0,0,0,0,-1,1497,1583,0,0
280,-559,0,0,0,0,0,0,0,0,0,-1,1504,1583,0,0
287,-559,0,0,0,0,0,0,0,0,0,-1,1511,1583,0,0
294,-559,0,0,0,0,0,0,0,0,0,-1,1518,1583,0,0
301,-559,0,0,0,0,0,0,0,0,0,-1,1525,1583,0,0
308,-559,0,0,0,0,0,0,0,0,0,-1,1532,1583,0,0
315,-559,0,0,0,0,0,0,0,0,0,-1,1539,1583,0,0
322,-559,0,0,0,0,0,0,0,0,0,-1,1546,1583,0,0
329,-559,0,0,0,0,0,0,0,0,0,-1,1553,1583,0,0
336,-559,5.97668,3.09827,0,0,0,0,0,0,0,-1,1560,1583,5.97667,-3.09824
343,-559,5.44824,2.88696,0,0,0,0,0,0,0,-1,1567,1583,5.44819,-2.88693
350,-559,4.69775,3.27051,0,0,0,0,0,0,0,-1,1574,1583,4.69771,-3.27048
357,-559,3.88025,3.60999,0,0,0,0,0,0,0,-1,1581,1583,3.88027,-3.60998
364,-559,5.00928,5.32605,0,0,0,0,0,0,0,-1,1588,1583,5.00928,-5.32607
371,-559,1.84436,2.52441,0,0,0,0,0,0,0,-1,1595,1583,1.84441,-2.52447
378,-559,6.34753,1.53137,0,0,0,0,0,0,0,-1,1602,1583,6.34752,-1.53139
385,-559,6.95911,1.48181,0,0,0,0,0,0,0,-1,1609,1583,6.95916,-1.48175
392,-559,11.6949,4.77734,0,0,0,0,0,0,0,-1,1616,1583,11.6949,-4.77731
399,-559,11.1104,5.56909,0,0,0,0,0,0,0,-1,1623,1583,11.1103,-5.56905
406,-559,10.3385,6.48657,0,0,0,0,0,0,0,-1,1630,1583,10.3385,-6.48661
413,-559,9.76147,6.97571,0,0,0,0,0,0,0,-1,1637,1583,9.76143,-6.97574
420,-559,7.77124,10.5851,0,0,0,0,0,0,0,-1,1644,1583,7.77128,-10.585
427,-559,10.1022,12.5565,0,0,0,0,0,0,0,-1,1651,1583,10.1021,-12.5565
434,-559,9.62769,14.6309,0,0,0,0,0,0,0,-1,1658,1583,9.62771,-14.6309
441,-559,12.6149,21.3678,0,0,0,0,0,0,0,-1,1665,1583,12.6149,-21.3678
448,-559,13.7046,22.6677,0,0,0,0,0,0,0,-1,1672,1583,13.7046,-22.6677
455,-559,13.9427,23.0509,0,0,0,0,0,0,0,-1,1679,1583,13.9427,-23.0509
462,-559,20.922,39.0968,0,0,0,0,0,0,0,-1,1686,1583,20.9221,-39.0968
469,-559,20.9969,38.0903,0,0,0,0,0,0,0,-1,1693,1583,20.9969,-38.0904
476,-559,21.3052,37.0778,0.00846499,0.0141974,-0.00880711,0.020593,0.00206944,-0.942715,0.0130935,0.0272934,1700,1583,21.3051,-37.0778
483,-559,21.3744,36.2836,0.00728815,0.0109826,-0.00700897,0.0163837,0.00188706,-0.914244,0.0103509,0.0143894,1707,1583,21.3744,-36.2835
490,-559,21.3512,35.6056,0.00613264,0.00797261,-0.0054097,0.01254,0.00156525,-0.869623,0.00789017,0.0165792,1714,1583,21.3511,-35.6056
497,-559,21.3495,34.9486,0.00483423,0.00583845,-0.00404248,0.00940988,0.0012628,-0.847186,0.00589756,0.019342,1721,1583,21.3495,-34.9486
504,-559,21.3014,34.3153,0.00365758,0.00391051,-0.0029157,0.00670249,0.0008656,-0.807071,0.00420956,0.0243859,1728,1583,21.3014,-34.3153
511,-559,21.2692,33.6327,0.00260723,0.00257411,-0.00198898,0.00457972,0.000601625,-0.781235,0.00287367,0.0207911,1735,1583,21.2692,-33.6327
518,-559,21.2577,32.9264,0.0016323,0.00131485,-0.00113097,0.00261562,0.000331523,-0.715682,0.00164442,0.0143293,1742,1583,21.2577,-32.9264
525,-559,21.2153,32.2401,0.000950481,0.00045947,-0.000482998,0.00124679,0.000163163,-0.550267,0.000782495,0.0139273,1749,1583,21.2154,-32.2401
532,-559,21.1714,31.5725,0.000531616,-0.0003368,0.000115793,0.00054679,-0.000351974,0.130306,0.00052295,0.0146121,1756,1583,21.1714,-31.5725
539,-559,21.1295,30.8907,0.00032813,-0.000954599,0.000678806,0.000620643,-0.00124711,0.406876,0.00109838,0.0184834,1763,1583,21.1295,-30.8907
546,-559,21.0583,30.1912,0.000344109,-0.0016376,0.00129347,0.000982627,-0.00227612,0.458553,0.00193021,0.017494,1770,1583,21.0584,-30.1912
553,-559,21.1404,29.4651,0.000658827,-0.00215895,0.00186066,0.00158382,-0.00308395,0.461352,0.00274094,0.023406,1777,1583,21.1403,-29.4651
560,-559,21.1443,28.972,0.00130162,-0.00259854,0.00233974,0.00239739,-0.00369431,0.437992,0.00354352,0.0487189,1784,1583,21.1443,-28.972
567,-559,21.1309,28.1605,0,0,0,0,0,0,0,-1,1791,1583,21.1309,-28.1605
574,-559,10.5109,10.7317,0,0,0,0,0,0,0,-1,1798,1583,10.5108,-10.7317
581,-559,5.97095,5.96179,0,0,0,0,0,0,0,-1,1805,1583,5.97093,-5.96181
588,-559,5.79102,5.89954,0,0,0,0,0,0,0,-1,1812,1583,5.79098,-5.89949
595,-559,5.79089,6.24231,0,0,0,0,0,0,0,-1,1819,1583,5.7909,-6.24227
602,-559,12.478,2.35669,0,0,0,0,0,0,0,-1,1826,1583,12.4781,-2.35675
609,-559,14.0479,1.22681,0,0,0,0,0,0,0,-1,1833,1583,14.0479,-1.22681
616,-559,0,0,0,0,0,0,0,0,0,-1,1840,1583,0,0
623,-559,0,0,0,0,0,0,0,0,0,-1,1847,1583,0,0
630,-559,0,0,0,0,0,0,0,0,0,-1,1854,1583,0,0
637,-559,0,0,0,0,0,0,0,0,0,-1,1861,1583,0,0
644,-559,0,0,0,0,0,0,0,0,0,-1,1868,1583,0,0
651,-559,0,0,0,0,0,0,0,0,0,-1,1875,1583,0,0
658,-559,0,0,0,0,0,0,0,0,0,-1,1882,1583,0,0
665,-559,0,0,0,0,0,0,0,0,0,-1,1889,1583,0,0
672,-559,0,0,0,0,0,0,0,0,0,-1,1896,1583,0,0
679,-559,0,0,0,0,0,0,0,0,0,-1,1903,1583,0,0
686,-559,0,0,0,0,0,0,0,0,0,-1,1910,1583,0,0
693,-559,0,0,0,0,0,0,0,0,0,-1,1917,1583,0,0
700,-559,0,0,0,0,0,0,0,0,0,-1,1924,1583,0,0
707,-559,0,0,0,0,0,0,0,0,0,-1,1931,1583,0,0
714,-559,0,0,0,0,0,0,0,0,0,-1,1938,1583,0,0
721,-559,0,0,0,0,0,0,0,0,0,-1,1945,1583,0,0
728,-559,0,0,0,0,0,0,0,0,0,-1,1952,1583,0,0
735,-559,0,0,0,0,0,0,0,0,0,-1,1959,1583,0,0
742,-559,0,0,0,0,0,0,0,0,0,-1,1966,1583,0,0
749,-559,0,0,0,0,0,0,0,0,0,-1,1973,1583,0,0
756,-559,0,0,0,0,0,0,0,0,0,-1,1980,1583,0,0
763,-559,0,0,0,0,0,0,0,0,0,-1,1987,1583,0,0
770,-559,0,0,0,0,0,0,0,0,0,-1,1994,1583,0,0
777,-559,0,0,0,0,0,0,0,0,0,-1,2001,1583,0,0
784,-559,0,0,0,0,0,0,0,0,0,-1,2008,1583,0,0
791,-559,0,0,0,0,0,0,0,0,0,-1,2015,1583,0,0
798,-559,0,0,0,0,0,0,0,0,0,-1,2022,1583,0,0
805,-559,0,0,0,0,0,0,0,0,0,-1,2029,1583,0,0
812,-559,0,0,0,0,0,0,0,0,0,-1,2036,1583,0,0
-700,-566,0,0,0,0,0,0,0,0,0,-1,524,1590,0,0
-693,-566,0,0,0,0,0,0,0,0,0,-1,531,1590,0,0
-686,-566,0,0,0,0,0,0,0,0,0,-1,538,1590,0,0
-679,-566,0,0,0,0,0,0,0,0,0,-1,545,1590,0,0
-672,-566,0,0,0,0,0,0,0,0,0,-1,552,1590,0,0
-665,-566,0,0,0,0,0,0,0,0,0,-1,559,1590,0,0
-658,-566,0,0,0,0,0,0,0,0,0,-1,566,1590,0,0
-651,-566,0,0,0,0,0,0,0,0,0,-1,573,1590,0,0
-644,-566,0,0,0,0,0,0,0,0,0,-1,580,1590,0,0
-637,-566,0,0,0,0,0,0,0,0,0,-1,587,1590,0,0
-630,-566,0,0,0,0,0,0,0,0,0,-1,594,1590,0,0
-623,-566,0,0,0,0,0,0,0,0,0,-1,601,1590,0,0
-616,-566,0,0,0,0,0,0,0,0,0,-1,608,1590,0,0
-609,-566,0,0,0,0,0,0,0,0,0,-1,615,1590,0,0
-602,-566,0,0,0,0,0,0,0,0,0,-1,622,1590,0,0
-595,-566,0,0,0,0,0,0,0,0,0,-1,629,1590,0,0
-588,-566,0,0,0,0,0,0,0,0,0,-1,636,1590,0,0
-581,-566,0,0,0,0,0,0,0,0,0,-1,643,1590,0,0
-574,-566,0,0,0,0,0,0,0,0,0,-1,650,1590,0,0
-567,-566,0,0,0,0,0,0,0,0,0,-1,657,1590,0,0
-560,-566,0,0,0,0,0,0,0,0,0,-1,664,1590,0,0
-553,-566,0,0,0,0,0,0,0,0,0,-1,671,1590,0,0
-546,-566,0,0,0,0,0,0,0,0,0,-1,678,1590,0,0
-539,-566,0,0,0,0,0,0,0,0,0,-1,685,1590,0,0
-532,-566,0,0,0,0,0,0,0,0,0,-1,692,1590,0,0
-525,-566,0,0,0,0,0,0,0,0,0,-1,699,1590,0,0
-518,-566,0,0,0,0,0,0,0,0,0,-1,706,1590,0,0
-511,-566,0,0,0,0,0,0,0,0,0,-1,713,1590,0,0
-504,-566,0,0,0,0,0,0,0,0,0,-1,720,1590,0,0
-497,-566,0,0,0,0,0,0,0,0,0,-1,727,1590,0,0
-490,-566,0,0,0,0,0,0,0,0,0,-1,734,1590,0,0
-483,-566,-7.17084,2.78613,0,0,0,0,0,0,0,-1,741,1590,-7.17083,-2.78618
-476,-566,-7.13971,2.87183,0,0,0,0,0,0,0,-1,748,1590,-7.13971,-2.87184
-469,-566,-6.43829,3.2998,0,0,0,0,0,0,0,-1,755,1590,-6.43829,-3.2998
-462,-566,-0.459106,3.89343,0,0,0,0,0,0,0,-1,762,1590,-0.459095,-3.89341
-455,-566,0.280212,4.74023,0,0,0,0,0,0,0,-1,769,1590,0.280207,-4.74023
-448,-566,0.436951,5.51306,0,0,0,0,0,0,0,-1,776,1590,0.436971,-5.51301
-441,-566,-0.440735,12.4063,0,0,0,0,0,0,0,-1,783,1590,-0.440753,-12.4062
-434,-566,-1.62482,27.9781,0,0,0,0,0,0,0,-1,790,1590,-1.62481,-27.9781
-427,-566,-2.3598,29.5034,0,0,0,0,0,0,0,-1,797,1590,-2.35979,-29.5034
-420,-566,-2.62134,29.1652,0,0,0,0,0,0,0,-1,804,1590,-2.62134,-29.1652
-413,-566,-2.48169,29.9832,-0.00222323,-0.00152412,-0.000241287,-0.00144893,-0.00229842,-1.26871,0.00134195,0.0347262,811,1590,-2.48171,-29.9832
-406,-566,-2.4682,30.7124,-0.00158009,-0.0012669,0.000198715,-0.00117049,-0.0016765,1.1191,0.000992945,0.0147708,818,1590,-2.46821,-30.7124
-399,-566,-2.51495,31.4341,-0.000848709,-0.00103721,0.000376021,-0.000555307,-0.00133061,0.662602,0.000771721,0.0107887,825,1590,-2.51496,-31.434
-392,-566,-2.56573,32.1421,-0.000233537,-0.000672682,0.000528804,0.000119469,-0.00102569,0.588617,0.000726894,0.0132031,832,1590,-2.56573,-32.1421
-385,-566,-2.59576,32.8585,0.000414937,-0.00016216,0.00069356,0.000877578,-0.000624801,0.58827,0.000871482,0.0154344,839,1590,-2.59577,-32.8585
-378,-566,-2.64185,33.5703,0.000856905,0.000277254,0.000717131,0.00134056,-0.000206403,0.59336,0.000969858,0.0160754,846,1590,-2.64186,-33.5703
-371,-566,-2.70953,34.2909,0.0013393,0.00073653,0.000801633,0.00189433,0.0001815,0.605589,0.00120695,0.0228974,853,1590,-2.70954,-34.2909
-364,-566,-2.69885,34.984,0.00198855,0.00145367,0.0010523,0.00280686,0.000635355,0.660959,0.00169952,0.0235812,860,1590,-2.69884,-34.9841
-357,-566,-2.70093,35.6296,0.00269807,0.00228523,0.00136043,0.00386765,0.00111564,0.710107,0.00229865,0.0193407,867,1590,-2.70095,-35.6297
-350,-566,-2.76147,36.3284,0.00353851,0.00320176,0.00178301,0.00516108,0.00157919,0.738322,0.00305361,0.0223397,874,1590,-2.7615,-36.3284
-343,-566,-2.75824,37.0436,0.00437474,0.00407371,0.00226647,0.00649568,0.00195276,0.752242,0.00384839,0.0264087,881,1590,-2.75822,-37.0436
-336,-566,-2.87628,37.6936,0.0054453,0.00536546,0.00309196,0.00849759,0.00231316,0.778943,0.00507296,0.0292357,888,1590,-2.87628,-37.6936
-329,-566,-2.79596,38.3108,0.00681868,0.00754315,0.00439829,0.0115941,0.00276773,0.826484,0.00699187,0.0286764,895,1590,-2.79598,-38.3108
-322,-566,-2.7395,39.158,0.0086295,0.0113213,0.00643145,0.0165462,0.00340463,0.888544,0.0100892,0.0388944,902,1590,-2.73949,-39.1579
-315,-566,-2.67181,40.2028,0,0,0,0,0,0,0,-1,909,1590,-2.6718,-40.2027
-308,-566,-0.127258,29.7607,0,0,0,0,0,0,0,-1,916,1590,-0.12725,-29.7608
-301,-566,0.424011,30.6545,0,0,0,0,0,0,0,-1,923,1590,0.424036,-30.6546
-294,-566,-2.16882,42.6472,0,0,0,0,0,0,0,-1,930,1590,-2.16885,-42.6472
-287,-566,1.25391,23.4589,0,0,0,0,0,0,0,-1,937,1590,1.2539,-23.4589
-280,-566,1.59406,17.8762,0,0,0,0,0,0,0,-1,944,1590,1.59405,-17.8762
-273,-566,0.49762,11.2427,0,0,0,0,0,0,0,-1,951,1590,0.497591,-11.2426
-266,-566,0.392151,6.90295,0,0,0,0,0,0,0,-1,958,1590,0.392151,-6.90294
-259,-566,0.343628,6.47437,0,0,0,0,0,0,0,-1,965,1590,0.34363,-6.47438
-252,-566,-7.68311,1.01343,0,0,0,0,0,0,0,-1,972,1590,-7.68308,-1.01348
-245,-566,-11.1835,1.97522,0,0,0,0,0,0,0,-1,979,1590,-11.1835,-1.97527
-238,-566,-10.4883,2.40491,0,0,0,0,0,0,0,-1,986,1590,-10.4883,-2.40487
-231,-566,-7.41827,4.22803,0,0,0,0,0,0,0,-1,993,1590,-7.41827,-4.22803
-224,-566,-4.67188,6.30859,0,0,0,0,0,0,0,-1,1000,1590,-4.67185,-6.30853
-217,-566,-2.82867,7.52527,0,0,0,0,0,0,0,-1,1007,1590,-2.82869,-7.52531
-210,-566,-1.03436,8.67737,0,0,0,0,0,0,0,-1,1014,1590,-1.03439,-8.67733
-203,-566,0,0,0,0,0,0,0,0,0,-1,1021,1590,0,0
-196,-566,0,0,0,0,0,0,0,0,0,-1,1028,1590,0,0
-189,-566,0,0,0,0,0,0,0,0,0,-1,1035,1590,0,0
-182,-566,0,0,0,0,0,0,0,0,0,-1,1042,1590,0,0
-175,-566,0,0,0,0,0,0,0,0,0,-1,1049,1590,0,0
-168,-566,0,0,0,0,0,0,0,0,0,-1,1056,1590,0,0
-161,-566,0,0,0,0,0,0,0,0,0,-1,1063,1590,0,0
-154,-566,0,0,0,0,0,0,0,0,0,-1,1070,1590,0,0
-147,-566,0,0,0,0,0,0,0,0,0,-1,1077,1590,0,0
-140,-566,0,0,0,0,0,0,0,0,0,-1,1084,1590,0,0
-133,-566,0,0,0,0,0,0,0,0,0,-1,1091,1590,0,0
-126,-566,0,0,0,0,0,0,0,0,0,-1,1098,1590,0,0
-119,-566,0,0,0,0,0,0,0,0,0,-1,1105,1590,0,0
-112,-566,0,0,0,0,0,0,0,0,0,-1,1112,1590,0,0
-105,-566,0,0,0,0,0,0,0,0,0,-1,1119,1590,0,0
-98,-566,0,0,0,0,0,0,0,0,0,-1,1126,1590,0,0
-91,-566,0,0,0,0,0,0,0,0,0,-1,1133,1590,0,0
-84,-566,0,0,0,0,0,0,0,0,0,-1,1140,1590,0,0
-77,-566,0,0,0,0,0,0,0,0,0,-1,1147,1590,0,0
-70,-566,0,0,0,0,0,0,0,0,0,-1,1154,1590,0,0
-63,-566,0,0,0,0,0,0,0,0,0,-1,1161,1590,0,0
-56,-566,0,0,0,0,0,0,0,0,0,-1,1168,1590,0,0
-49,-566,0,0,0,0,0,0,0,0,0,-1,1175,1590,0,0
-42,-566,0,0,0,0,0,0,0,0,0,-1,1182,1590,0,0
-35,-566,0,0,0,0,0,0,0,0,0,-1,1189,1590,0,0
-28,-566,0,0,0,0,0,0,0,0,0,-1,1196,1590,0,0
-21,-566,0,0,0,0,0,0,0,0,0,-1,1203,1590,0,0
-14,-566,0,0,0,0,0,0,0,0,0,-1,1210,1590,0,0
-7,-566,0,0,0,0,0,0,0,0,0,-1,1217,1590,0,0
0,-566,0,0,0,0,0,0,0,0,0,-1,1224,1590,0,0
7,-566,0,0,0,0,0,0,0,0,0,-1,1231,1590,0,0
14,-566,0,0,0,0,0,0,0,0,0,-1,1238,1590,0,0
21,-566,0,0,0,0,0,0,0,0,0,-1,1245,1590,0,0
28,-566,0,0,0,0,0,0,0,0,0,-1,1252,1590,0,0
35,-566,0,0,0,0,0,0,0,0,0,-1,1259,1590,0,0
42,-566,0,0,0,0,0,0,0,0,0,-1,1266,1590,0,0
49,-566,0,0,0,0,0,0,0,0,0,-1,1273,1590,0,0
56,-566,0,0,0,0,0,0,0,0,0,-1,1280,1590,0,0
63,-566,0,0,0,0,0,0,0,0,0,-1,1287,1590,0,0
70,-566,0,0,0,0,0,0,0,0,0,-1,1294,1590,0,0
77,-566,0,0,0,0,0,0,0,0,0,-1,1301,1590,0,0
84,-566,0,0,0,0,0,0,0,0,0,-1,1308,1590,0,0
91,-566,0,0,0,0,0,0,0,0,0,-1,1315,1590,0,0
98,-566,0,0,0,0,0,0,0,0,0,-1,1322,1590,0,0
105,-566,0,0,0,0,0,0,0,0,0,-1,1329,1590,0,0
112,-566,0,0,0,0,0,0,0,0,0,-1,1336,1590,0,0
119,-566,0,0,0,0,0,0,0,0,0,-1,1343,1590,0,0
126,-566,0,0,0,0,0,0,0,0,0,-1,1350,1590,0,0
133,-566,0,0,0,0,0,0,0,0,0,-1,1357,1590,0,0
140,-566,0,0,0,0,0,0,0,0,0,-1,1364,1590,0,0
147,-566,0,0,0,0,0,0,0,0,0,-1,1371,1590,0,0
154,-566,0,0,0,0,0,0,0,0,0,-1,1378,1590,0,0
161,-566,0,0,0,0,0,0,0,0,0,-1,1385,1590,0,0
168,-566,0,0,0,0,0,0,0,0,0,-1,1392,1590,0,0
175,-566,0,0,0,0,0,0,0,0,0,-1,1399,1590,0,0
182,-566,0,0,0,0,0,0,0,0,0,-1,1406,1590,0,0
189,-566,0,0,0,0,0,0,0,0,0,-1,1413,1590,0,0
196,-566,0,0,0,0,0,0,0,0,0,-1,1420,1590,0,0
203,-566,0,0,0,0,0,0,0,0,0,-1,1427,1590,0,0
210,-566,0,0,0,0,0,0,0,0,0,-1,1434,1590,0,0
217,-566,0,0,0,0,0,0,0,0,0,-1,1441,1590,0,0
224,-566,0,0,0,0,0,0,0,0,0,-1,1448,1590,0,0
231,-566,0,0,0,0,0,0,0,0,0,-1,1455,1590,0,0
238,-566,0,0,0,0,0,0,0,0,0,-1,1462,1590,0,0
245,-566,0,0,0,0,0,0,0,0,0,-1,1469,1590,0,0
252,-566,0,0,0,0,0,0,0,0,0,-1,1476,1590,0,0
259,-566,0,0,0,0,0,0,0,0,0,-1,1483,1590,0,0
266,-566,0,0,0,0,0,0,0,0,0,-1,1490,1590,0,0
273,-566,0,0,0,0,0,0,0,0,0,-1,1497,1590,0,0
280,-566,0,0,0,0,0,0,0,0,0,-1,1504,1590,0,0
287,-566,0,0,0,0,0,0,0,0,0,-1,1511,1590,0,0
294,-566,0,0,0,0,0,0,0,0,0,-1,1518,1590,0,0
301,-566,0,0,0,0,0,0,0,0,0,-1,1525,1590,0,0
308,-566,0,0,0,0,0,0,0,0,0,-1,1532,1590,0,0
315,-566,0,0,0,0,0,0,0,0,0,-1,1539,1590,0,0
322,-566,6.07983,4.44873,0,0,0,0,0,0,0,-1,1546,1590,6.07983,-4.44873
329,-566,5.77026,3.47534,0,0,0,0,0,0,0,-1,1553,1590,5.77026,-3.47535
336,-566,5.41138,2.62915,0,0,0,0,0,0,0,-1,1560,1590,5.41138,-2.62909
343,-566,4.81873,1.79089,0,0,0,0,0,0,0,-1,1567,1590,4.81878,-1.79095
350,-566,4.41663,2.44214,0,0,0,0,0,0,0,-1,1574,1590,4.41666,-2.44214
357,-566,6.34058,5.18579,0,0,0,0,0,0,0,-1,1581,1590,6.34059,-5.1858
364,-566,6.06262,4.20251,0,0,0,0,0,0,0,-1,1588,1590,6.06259,-4.20246
371,-566,5.78455,3.21912,0,0,0,0,0,0,0,-1,1595,1590,5.7846,-3.21912
378,-566,5.7439,0.695557,0,0,0,0,0,0,0,-1,1602,1590,5.74392,-0.695531
385,-566,5.67615,-0.573975,0,0,0,0,0,0,0,-1,1609,1590,5.67612,0.573956
392,-566,5.78638,1.82434,0,0,0,0,0,0,0,-1,1616,1590,5.78637,-1.82439
399,-566,18.6853,38.6455,0,0,0,0,0,0,0,-1,1623,1590,18.6853,-38.6456
406,-566,4.30359,5.26868,0,0,0,0,0,0,0,-1,1630,1590,4.30364,-5.26867
413,-566,4.27124,5.79492,0,0,0,0,0,0,0,-1,1637,1590,4.27123,-5.7949
420,-566,18.0121,32.5314,0,0,0,0,0,0,0,-1,1644,1590,18.0121,-32.5313
427,-566,19.4491,36.9315,0,0,0,0,0,0,0,-1,1651,1590,19.4491,-36.9315
434,-566,19.338,36.7385,0,0,0,0,0,0,0,-1,1658,1590,19.338,-36.7386
441,-566,15.5841,27.5869,0,0,0,0,0,0,0,-1,1665,1590,15.5842,-27.587
448,-566,20.701,40.5685,0,0,0,0,0,0,0,-1,1672,1590,20.701,-40.5685
455,-566,20.3076,39.6196,0,0,0,0,0,0,0,-1,1679,1590,20.3076,-39.6197
462,-566,20.4784,38.7141,0.00777148,0.0177974,-0.0102032,0.0241526,0.00141629,-1.01373,0.015651,0.047543,1686,1590,20.4783,-38.7141
469,-566,20.6179,37.7224,0.0073881,0.0141747,-0.0082871,0.0197363,0.00182647,-0.979718,0.0125929,0.0213552,1693,1590,20.618,-37.7224
476,-566,20.6803,36.9758,0.00649468,0.0111631,-0.00678492,0.0160041,0.00165369,-0.951072,0.0101631,0.0111262,1700,1590,20.6803,-36.9759
483,-566,20.6709,36.2997,0.00550227,0.00850968,-0.00537198,0.0125844,0.00142751,-0.921864,0.00795659,0.0109563,1707,1590,20.6709,-36.2997
490,-566,20.6606,35.6332,0.00453117,0.00599368,-0.00410032,0.00942744,0.00109741,-0.873641,0.00595297,0.0126571,1714,1590,20.6606,-35.6332
497,-566,20.6757,34.989,0.00344625,0.0042449,-0.0030149,0.00688681,0.000804343,-0.85124,0.00434796,0.015968,1721,1590,20.6757,-34.989
504,-566,20.6318,34.3455,0.00246481,0.00259078,-0.00208473,0.00461347,0.000442115,-0.8005,0.00293938,0.0201565,1728,1590,20.6318,-34.3455
511,-566,20.5815,33.6676,0.00158486,0.00144077,-0.00127113,0.00278598,0.000239646,-0.757088,0.00178282,0.019283,1735,1590,20.5815,-33.6676
518,-566,20.5579,32.984,0.000775412,0.000388916,-0.000547246,0.00116253,1.79955e-06,-0.615669,0.00077442,0.0125196,1742,1590,20.5579,-32.984
525,-566,20.5146,32.29,0.0002264,-0.000367752,3.13378e-05,0.000228049,-0.000369401,0.0525494,0.000348141,0.012914,1749,1590,20.5147,-32.29
532,-566,20.4772,31.5907,-7.31409e-05,-0.00108265,0.000606378,0.000211073,-0.00136687,0.438301,0.000989137,0.0148018,1756,1590,20.4771,-31.5908
539,-566,20.4459,30.8738,-0.000197288,-0.00170348,0.00120536,0.000470897,-0.00237167,0.506173,0.00175921,0.0195711,1763,1590,20.4459,-30.8738
546,-566,20.4949,30.0972,-9.76272e-05,-0.00236447,0.00189242,0.000974831,-0.00343693,0.515584,0.00267608,0.0251443,1770,1590,20.4948,-30.0972
553,-566,20.5032,29.6377,0.000330203,-0.00283515,0.00253924,0.00173962,-0.00424456,0.506714,0.00355443,0.0375494,1777,1590,20.5032,-29.6377
560,-566,20.4628,29.1235,0.00104616,-0.00327357,0.00314396,0.00270068,-0.00492809,0.484429,0.00446661,0.0427252,1784,1590,20.4628,-29.1236
567,-566,20.5535,28.4333,0,0,0,0,0,0,0,-1,1791,1590,20.5535,-28.4334
574,-566,7.99548,3.14514,0,0,0,0,0,0,0,-1,1798,1590,7.99543,-3.14511
581,-566,2.54102,5.1311,0,0,0,0,0,0,0,-1,1805,1590,2.54099,-5.13111
588,-566,-1.91321,8.39197,0,0,0,0,0,0,0,-1,1812,1590,-1.91316,-8.39199
595,-566,9.0271,4.66467,0,0,0,0,0,0,0,-1,1819,1590,9.02705,-4.66468
602,-566,9.953,3.54895,0,0,0,0,0,0,0,-1,1826,1590,9.953,-3.54898
609,-566,0,0,0,0,0,0,0,0,0,-1,1833,1590,0,0
616,-566,0,0,0,0,0,0,0,0,0,-1,1840,1590,0,0
623,-566,0,0,0,0,0,0,0,0,0,-1,1847,1590,0,0
630,-566,0,0,0,0,0,0,0,0,0,-1,1854,1590,0,0
637,-566,0,0,0,0,0,0,0,0,0,-1,1861,1590,0,0
644,-566,0,0,0,0,0,0,0,0,0,-1,1868,1590,0,0
651,-566,0,0,0,0,0,0,0,0,0,-1,1875,1590,0,0
658,-566,0,0,0,0,0,0,0,0,0,-1,1882,1590,0,0
665,-566,0,0,0,0,0,0,0,0,0,-1,1889,1590,0,0
672,-566,0,0,0,0,0,0,0,0,0,-1,1896,1590,0,0
679,-566,0,0,0,0,0,0,0,0,0,-1,1903,1590,0,0
686,-566,0,0,0,0,0,0,0,0,0,-1,1910,1590,0,0
693,-566,0,0,0,0,0,0,0,0,0,-1,1917,1590,0,0
700,-566,0,0,0,0,0,0,0,0,0,-1,1924,1590,0,0
707,-566,0,0,0,0,0,0,0,0,0,-1,1931,1590,0,0
714,-566,0,0,0,0,0,0,0,0,0,-1,1938,1590,0,0
721,-566,0,0,0,0,0,0,0,0,0,-1,1945,1590,0,0
728,-566,0,0,0,0,0,0,0,0,0,-1,1952,1590,0,0
735,-566,0,0,0,0,0,0,0,0,0,-1,1959,1590,0,0
742,-566,0,0,0,0,0,0,0,0,0,-1,1966,1590,0,0
749,-566,0,0,0,0,0,0,0,0,0,-1,1973,1590,0,0
756,-566,0,0,0,0,0,0,0,0,0,-1,1980,1590,0,0
763,-566,0,0,0,0,0,0,0,0,0,-1,1987,1590,0,0
770,-566,0,0,0,0,0,0,0,0,0,-1,1994,1590,0,0
777,-566,0,0,0,0,0,0,0,0,0,-1,2001,1590,0,0
784,-566,0,0,0,0,0,0,0,0,0,-1,2008,1590,0,0
791,-566,0,0,0,0,0,0,0,0,0,-1,2015,1590,0,0
798,-566,0,0,0,0,0,0,0,0,0,-1,2022,1590,0,0
805,-566,0,0,0,0,0,0,0,0,0,-1,2029,1590,0,0
812,-566,0,0,0,0,0,0,0,0,0,-1,2036,1590,0,0
-700,-573,0,0,0,0,0,0,0,0,0,-1,524,1597,0,0
-693,-573,0,0,0,0,0,0,0,0,0,-1,531,1597,0,0
-686,-573,0,0,0,0,0,0,0,0,0,-1,538,1597,0,0
-679,-573,0,0,0,0,0,0,0,0,0,-1,545,1597,0,0
-672,-573,0,0,0,0,0,0,0,0,0,-1,552,1597,0,0
-665,-573,0,0,0,0,0,0,0,0,0,-1,559,1597,0,0
-658,-573,0,0,0,0,0,0,0,0,0,-1,566,1597,0,0
-651,-573,0,0,0,0,0,0,0,0,0,-1,573,1597,0,0
-644,-573,0,0,0,0,0,0,0,0,0,-1,580,1597,0,0
-637,-573,0,0,0,0,0,0,0,0,0,-1,587,1597,0,0
-630,-573,0,0,0,0,0,0,0,0,0,-1,594,1597,0,0
-623,-573,0,0,0,0,0,0,0,0,0,-1,601,1597,0,0
-616,-573,0,0,0,0,0,0,0,0,0,-1,608,1597,0,0
-609,-573,0,0,0,0,0,0,0,0,0,-1,615,1597,0,0
-602,-573,0,0,0,0,0,0,0,0,0,-1,622,1597,0,0
-595,-573,0,0,0,0,0,0,0,0,0,-1,629,1597,0,0
-588,-573,0,0,0,0,0,0,0,0,0,-1,636,1597,0,0
-581,-573,0,0,0,0,0,0,0,0,0,-1,643,1597,0,0
-574,-573,0,0,0,0,0,0,0,0,0,-1,650,1597,0,0
-567,-573,0,0,0,0,0,0,0,0,0,-1,657,1597,0,0
-560,-573,0,0,0,0,0,0,0,0,0,-1,664,1597,0,0
-553,-573,0,0,0,0,0,0,0,0,0,-1,671,1597,0,0
-546,-573,0,0,0,0,0,0,0,0,0,-1,678,1597,0,0
-539,-573,0,0,0,0,0,0,0,0,0,-1,685,1597,0,0
-532,-573,0,0,0,0,0,0,0,0,0,-1,692,1597,0,0
-525,-573,0,0,0,0,0,0,0,0,0,-1,699,1597,0,0
-518,-573,0,0,0,0,0,0,0,0,0,-1,706,1597,0,0
-511,-573,0,0,0,0,0,0,0,0,0,-1,713,1597,0,0
-504,-573,0,0,0,0,0,0,0,0,0,-1,720,1597,0,0
-497,-573,0,0,0,0,0,0,0,0,0,-1,727,1597,0,0
-490,-573,0,0,0,0,0,0,0,0,0,-1,734,1597,0,0
-483,-573,0,0,0,0,0,0,0,0,0,-1,741,1597,0,0
-476,-573,-9.3327,0.972778,0,0,0,0,0,0,0,-1,748,1597,-9.33268,-0.972776
-469,-573,-1.41681,1.13379,0,0,0,0,0,0,0,-1,755,1597,-1.41681,-1.13382
-462,-573,-0.748535,2.02588,0,0,0,0,0,0,0,-1,762,1597,-0.748533,-2.02584
-455,-573,-0.112976,2.70703,0,0,0,0,0,0,0,-1,769,1597,-0.112988,-2.70697
-448,-573,-1.26172,3.33252,0,0,0,0,0,0,0,-1,776,1597,-1.26173,-3.33248
-441,-573,0.108582,5.06726,0,0,0,0,0,0,0,-1,783,1597,0.108584,-5.06721
-434,-573,1.61768,7.05444,0,0,0,0,0,0,0,-1,790,1597,1.61767,-7.05446
-427,-573,-1.37927,24.4124,0,0,0,0,0,0,0,-1,797,1597,-1.37928,-24.4124
-420,-573,-1.15186,28.0936,0,0,0,0,0,0,0,-1,804,1597,-1.15185,-28.0936
-413,-573,-1.8985,29.6992,0,0,0,0,0,0,0,-1,811,1597,-1.89852,-29.6993
-406,-573,-1.79327,30.6342,-0.00188414,-0.0016848,0.000331272,-0.00143853,-0.00213041,0.931528,0.00125492,0.0419844,818,1597,-1.79326,-30.6341
-399,-573,-1.83264,31.447,-0.00120495,-0.0015625,0.00044066,-0.00090818,-0.00185927,0.59269,0.00107355,0.017099,825,1597,-1.83265,-31.447
-392,-573,-1.8515,32.1931,-0.000612317,-0.00124878,0.000565091,-0.000282012,-0.00157908,0.528957,0.000972446,0.0127947,832,1597,-1.85152,-32.1932
-385,-573,-1.90826,32.9087,1.3025e-05,-0.000771875,0.000729373,0.000448827,-0.00120768,0.538581,0.000989269,0.014991,839,1597,-1.90825,-32.9087
-378,-573,-1.95715,33.6022,0.00039678,-0.000343157,0.000723346,0.000839281,-0.000785658,0.549008,0.000938329,0.0162664,846,1597,-1.95715,-33.6021
-371,-573,-1.96185,34.3246,0.0008008,5.59697e-05,0.000736528,0.00125371,-0.000396943,0.551325,0.000994878,0.0175055,853,1597,-1.96183,-34.3246
-364,-573,-1.96448,35.0033,0.00135722,0.000651307,0.00090277,0.00197358,3.49469e-05,0.59905,0.00130423,0.0203829,860,1597,-1.9645,-35.0033
-357,-573,-1.97388,35.6536,0.001977,0.00136486,0.00112943,0.0028411,0.000500757,0.653077,0.00175118,0.0229991,867,1597,-1.97389,-35.6536
-350,-573,-2.05872,36.3943,0.00272466,0.00212392,0.0014436,0.00389881,0.000949768,0.682827,0.00234755,0.0181675,874,1597,-2.0587,-36.3943
-343,-573,-2.02295,37.0967,0.00346322,0.00288179,0.00181884,0.00501443,0.00133058,0.706151,0.00299947,0.0211417,881,1597,-2.02292,-37.0967
-336,-573,-2.08691,37.7762,0.00439155,0.00401612,0.00249221,0.00670311,0.00170457,0.747808,0.00402278,0.0170064,888,1597,-2.08691,-37.7762
-329,-573,-2.10541,38.4204,0.00557846,0.00595142,0.00357414,0.00934394,0.00218594,0.811462,0.00564357,0.0183564,895,1597,-2.1054,-38.4204
-322,-573,-2.13928,39.141,0.00708545,0.00917306,0.00522452,0.013457,0.00280149,0.883995,0.00819865,0.0177085,902,1597,-2.13928,-39.141
-315,-573,-2.00671,40.0525,0.00884361,0.0127764,0.00721903,0.018292,0.00332795,0.918367,0.0112507,0.0403858,909,1597,-2.00672,-40.0524
-308,-573,-2.10699,41.1072,0,0,0,0,0,0,0,-1,916,1597,-2.10701,-41.1071
-301,-573,-1.86328,41.536,0,0,0,0,0,0,0,-1,923,1597,-1.86328,-41.5361
-294,-573,-1.78394,42.0081,0,0,0,0,0,0,0,-1,930,1597,-1.78391,-42.008
-287,-573,-1.63397,42.932,0,0,0,0,0,0,0,-1,937,1597,-1.63397,-42.932
-280,-573,1.19684,26.4906,0,0,0,0,0,0,0,-1,944,1597,1.19685,-26.4906
-273,-573,2.24805,25.4375,0,0,0,0,0,0,0,-1,951,1597,2.24803,-25.4374
-266,-573,1.31116,7.1814,0,0,0,0,0,0,0,-1,958,1597,1.31118,-7.18142
-259,-573,1.2514,6.70959,0,0,0,0,0,0,0,-1,965,1597,1.25137,-6.70965
-252,-573,2.07874,5.27161,0,0,0,0,0,0,0,-1,972,1597,2.07875,-5.27157
-245,-573,-10.2592,1.09827,0,0,0,0,0,0,0,-1,979,1597,-10.2592,-1.09823
-238,-573,-11.5463,4.44141,0,0,0,0,0,0,0,-1,986,1597,-11.5463,-4.44146
-231,-573,-9.23431,4.14539,0,0,0,0,0,0,0,-1,993,1597,-9.23431,-4.14534
-224,-573,-6.70044,7.40857,0,0,0,0,0,0,0,-1,1000,1597,-6.70045,-7.40851
-217,-573,-4.25824,8.59119,0,0,0,0,0,0,0,-1,1007,1597,-4.25824,-8.59122
-210,-573,-2.39661,9.73914,0,0,0,0,0,0,0,-1,1014,1597,-2.39658,-9.73915
-203,-573,-0.557373,10.9005,0,0,0,0,0,0,0,-1,1021,1597,-0.557387,-10.9006
-196,-573,-1.65344,9.02246,0,0,0,0,0,0,0,-1,1028,1597,-1.65349,-9.02241
-189,-573,-6.12915,6.66882,0,0,0,0,0,0,0,-1,1035,1597,-6.12913,-6.66884
-182,-573,0,0,0,0,0,0,0,0,0,-1,1042,1597,0,0
-175,-573,0,0,0,0,0,0,0,0,0,-1,1049,1597,0,0
-168,-573,0,0,0,0,0,0,0,0,0,-1,1056,1597,0,0
-161,-573,0,0,0,0,0,0,0,0,0,-1,1063,1597,0,0
-154,-573,0,0,0,0,0,0,0,0,0,-1,1070,1597,0,0
-147,-573,0,0,0,0,0,0,0,0,0,-1,1077,1597,0,0
-140,-573,0,0,0,0,0,0,0,0,0,-1,1084,1597,0,0
-133,-573,0,0,0,0,0,0,0,0,0,-1,1091,1597,0,0
-126,-573,0,0,0,0,0,0,0,0,0,-1,1098,1597,0,0
-119,-573,0,0,0,0,0,0,0,0,0,-1,1105,1597,0,0
-112,-573,0,0,0,0,0,0,0,0,0,-1,1112,1597,0,0
-105,-573,0,0,0,0,0,0,0,0,0,-1,1119,1597,0,0
-98,-573,0,0,0,0,0,0,0,0,0,-1,1126,1597,0,0
-91,-573,0,0,0,0,0,0,0,0,0,-1,1133,1597,0,0
-84,-573,0,0,0,0,0,0,0,0,0,-1,1140,1597,0,0
-77,-573,0,0,0,0,0,0,0,0,0,-1,1147,1597,0,0
-70,-573,0,0,0,0,0,0,0,0,0,-1,1154,1597,0,0
-63,-573,0,0,0,0,0,0,0,0,0,-1,1161,1597,0,0
-56,-573,0,0,0,0,0,0,0,0,0,-1,1168,1597,0,0
-49,-573,0,0,0,0,0,0,0,0,0,-1,1175,1597,0,0
-42,-573,0,0,0,0,0,0,0,0,0,-1,1182,1597,0,0
-35,-573,0,0,0,0,0,0,0,0,0,-1,1189,1597,0,0
-28,-573,0,0,0,0,0,0,0,0,0,-1,1196,1597,0,0
-21,-573,0,0,0,0,0,0,0,0,0,-1,1203,1597,0,0
-14,-573,0,0,0,0,0,0,0,0,0,-1,1210,1597,0,0
-7,-573,0,0,0,0,0,0,0,0,0,-1,1217,1597,0,0
0,-573,0,0,0,0,0,0,0,0,0,-1,1224,1597,0,0
7,-573,0,0,0,0,0,0,0,0,0,-1,1231,1597,0,0
14,-573,0,0,0,0,0,0,0,0,0,-1,1238,1597,0,0
21,-573,0,0,0,0,0,0,0,0,0,-1,1245,1597,0,0
28,-573,0,0,0,0,0,0,0,0,0,-1,1252,1597,0,0
35,-573,0,0,0,0,0,0,0,0,0,-1,1259,1597,0,0
42,-573,0,0,0,0,0,0,0,0,0,-1,1266,1597,0,0
49,-573,0,0,0,0,0,0,0,0,0,-1,1273,1597,0,0
56,-573,0,0,0,0,0,0,0,0,0,-1,1280,1597,0,0
63,-573,0,0,0,0,0,0,0,0,0,-1,1287,1597,0,0
70,-573,0,0,0,0,0,0,0,0,0,-1,1294,1597,0,0
77,-573,0,0,0,0,0,0,0,0,0,-1,1301,1597,0,0
84,-573,0,0,0,0,0,0,0,0,0,-1,1308,1597,0,0
91,-573,0,0,0,0,0,0,0,0,0,-1,1315,1597,0,0
98,-573,0,0,0,0,0,0,0,0,0,-1,1322,1597,0,0
105,-573,0,0,0,0,0,0,0,0,0,-1,1329,1597,0,0
112,-573,0,0,0,0,0,0,0,0,0,-1,1336,1597,0,0
119,-573,0,0,0,0,0,0,0,0,0,-1,1343,1597,0,0
126,-573,0,0,0,0,0,0,0,0,0,-1,1350,1597,0,0
133,-573,0,0,0,0,0,0,0,0,0,-1,1357,1597,0,0
140,-573,0,0,0,0,0,0,0,0,0,-1,1364,1597,0,0
147,-573,0,0,0,0,0,0,0,0,0,-1,1371,1597,0,0
154,-573,0,0,0,0,0,0,0,0,0,-1,1378,1597,0,0
161,-573,0,0,0,0,0,0,0,0,0,-1,1385,1597,0,0
168,-573,0,0,0,0,0,0,0,0,0,-1,1392,1597,0,0
175,-573,0,0,0,0,0,0,0,0,0,-1,1399,1597,0,0
182,-573,0,0,0,0,0,0,0,0,0,-1,1406,1597,0,0
189,-573,0,0,0,0,0,0,0,0,0,-1,1413,1597,0,0
196,-573,0,0,0,0,0,0,0,0,0,-1,1420,1597,0,0
203,-573,0,0,0,0,0,0,0,0,0,-1,1427,1597,0,0
210,-573,0,0,0,0,0,0,0,0,0,-1,1434,1597,0,0
217,-573,0,0,0,0,0,0,0,0,0,-1,1441,1597,0,0
224,-573,0,0,0,0,0,0,0,0,0,-1,1448,1597,0,0
231,-573,0,0,0,0,0,0,0,0,0,-1,1455,1597,0,0
238,-573,0,0,0,0,0,0,0,0,0,-1,1462,1597,0,0
245,-573,0,0,0,0,0,0,0,0,0,-1,1469,1597,0,0
252,-573,0,0,0,0,0,0,0,0,0,-1,1476,1597,0,0
259,-573,0,0,0,0,0,0,0,0,0,-1,1483,1597,0,0
266,-573,0,0,0,0,0,0,0,0,0,-1,1490,1597,0,0
273,-573,0,0,0,0,0,0,0,0,0,-1,1497,1597,0,0
280,-573,0,0,0,0,0,0,0,0,0,-1,1504,1597,0,0
287,-573,0,0,0,0,0,0,0,0,0,-1,1511,1597,0,0
294,-573,0,0,0,0,0,0,0,0,0,-1,1518,1597,0,0
301,-573,0,0,0,0,0,0,0,0,0,-1,1525,1597,0,0
308,-573,5.93042,9.71143,0,0,0,0,0,0,0,-1,1532,1597,5.93046,-9.71144
315,-573,4.34204,11.719,0,0,0,0,0,0,0,-1,1539,1597,4.34205,-11.719
322,-573,10.3269,7.77563,0,0,0,0,0,0,0,-1,1546,1597,10.327,-7.77565
329,-573,4.99573,3.80273,0,0,0,0,0,0,0,-1,1553,1597,4.9957,-3.80273
336,-573,4.85693,2.53455,0,0,0,0,0,0,0,-1,1560,1597,4.8569,-2.53459
343,-573,5.5946,2.15894,0,0,0,0,0,0,0,-1,1567,1597,5.59456,-2.1589
350,-573,2.53748,1.56433,0,0,0,0,0,0,0,-1,1574,1597,2.53753,-1.5643
357,-573,7.40247,4.03613,0,0,0,0,0,0,0,-1,1581,1597,7.40244,-4.03614
364,-573,7.14551,3.02087,0,0,0,0,0,0,0,-1,1588,1597,7.14556,-3.02084
371,-573,6.88867,2.00549,0,0,0,0,0,0,0,-1,1595,1597,6.88868,-2.00553
378,-573,8.62012,6.09106,0,0,0,0,0,0,0,-1,1602,1597,8.62012,-6.09103
385,-573,6.54346,-0.951904,0,0,0,0,0,0,0,-1,1609,1597,6.54349,0.951901
392,-573,17.5164,38.3645,0,0,0,0,0,0,0,-1,1616,1597,17.5164,-38.3645
399,-573,20.5255,42.9893,0,0,0,0,0,0,0,-1,1623,1597,20.5255,-42.9893
406,-573,20.4028,44.3046,0,0,0,0,0,0,0,-1,1630,1597,20.4028,-44.3046
413,-573,18.702,40.8951,0,0,0,0,0,0,0,-1,1637,1597,18.702,-40.8951
420,-573,18.8063,37.0011,0,0,0,0,0,0,0,-1,1644,1597,18.8063,-37.0011
427,-573,20.4286,42.2079,0,0,0,0,0,0,0,-1,1651,1597,20.4285,-42.2079
434,-573,20.2058,42.0417,0,0,0,0,0,0,0,-1,1658,1597,20.2058,-42.0417
441,-573,19.9364,40.8884,0,0,0,0,0,0,0,-1,1665,1597,19.9364,-40.8884
448,-573,19.9718,40.0111,0.00430386,0.0211268,-0.00988722,0.0256965,-0.000265806,-1.13786,0.0172203,0.0448047,1672,1597,19.9718,-40.0111
455,-573,19.9969,39.1284,0.00502645,0.017513,-0.00894147,0.0221752,0.000364305,-1.09017,0.0146635,0.0333943,1679,1597,19.9969,-39.1284
462,-573,20.1162,38.2684,0.00570332,0.0138772,-0.00778911,0.0185865,0.000994068,-1.027,0.0120733,0.0247862,1686,1597,20.1162,-38.2684
469,-573,20.082,37.6239,0.00552696,0.0110016,-0.00638068,0.0152074,0.00132123,-0.988026,0.00972778,0.0163502,1693,1597,20.082,-37.6238
476,-573,20.051,36.98,0.00482974,0.00858007,-0.00520281,0.0122353,0.00117449,-0.958359,0.00779493,0.0143426,1700,1597,20.0511,-36.98
483,-573,20.0416,36.3417,0.00400434,0.0063662,-0.00408429,0.00943685,0.000933683,-0.92613,0.00600426,0.0125412,1707,1597,20.0416,-36.3416
490,-573,20.0059,35.687,0.00318701,0.00426451,-0.00307008,0.00684275,0.000608761,-0.872256,0.00437306,0.0136743,1714,1597,20.0058,-35.687
497,-573,20.0122,35.0193,0.00227465,0.00281865,-0.00220964,0.00477296,0.000320333,-0.84664,0.00308075,0.0217971,1721,1597,20.0122,-35.0192
504,-573,19.9678,34.355,0.00144787,0.00141111,-0.00144604,0.00287565,-1.66676e-05,-0.779042,0.00192268,0.018701,1728,1597,19.9678,-34.355
511,-573,19.9091,33.6661,0.000707896,0.000416035,-0.000731018,0.00130741,-0.000183476,-0.68688,0.000938759,0.0174658,1735,1597,19.9091,-33.6661
518,-573,19.8602,33.0076,5.68403e-05,-0.000427017,-0.00013419,9.15639e-05,-0.00046174,-0.25321,0.000342453,0.0141843,1742,1597,19.8602,-33.0076
525,-573,19.8594,32.3461,-0.000375691,-0.00110407,0.000394406,-0.000203047,-0.00127671,0.412606,0.000792181,0.0181533,1749,1597,19.8593,-32.3461
532,-573,19.83,31.6104,-0.00057831,-0.00175705,0.00098203,-2.23685e-05,-0.00231299,0.515131,0.00153459,0.0180521,1756,1597,19.83,-31.6103
539,-573,19.725,30.9126,-0.000592489,-0.0024324,0.00165043,0.000377064,-0.00340195,0.531144,0.00240353,0.0400439,1763,1597,19.725,-30.9126
546,-573,19.9119,30.0538,0,0,0,0,0,0,0,-1,1770,1597,19.9119,-30.0539
553,-573,19.671,29.7826,0,0,0,0,0,0,0,-1,1777,1597,19.671,-29.7826
560,-573,19.787,29.0911,0,0,0,0,0,0,0,-1,1784,1597,19.7869,-29.091
567,-573,19.8645,28.3368,0,0,0,0,0,0,0,-1,1791,1597,19.8645,-28.3368
574,-573,0.83374,5.7041,0,0,0,0,0,0,0,-1,1798,1597,0.833718,-5.70405
581,-573,-0.224854,7.41602,0,0,0,0,0,0,0,-1,1805,1597,-0.224904,-7.41596
588,-573,-0.134033,7.67065,0,0,0,0,0,0,0,-1,1812,1597,-0.134037,-7.67063
595,-573,-0.0825195,8.35083,0,0,0,0,0,0,0,-1,1819,1597,-0.0824684,-8.35088
602,-573,0,0,0,0,0,0,0,0,0,-1,1826,1597,0,0
609,-573,0,0,0,0,0,0,0,0,0,-1,1833,1597,0,0
616,-573,0,0,0,0,0,0,0,0,0,-1,1840,1597,0,0
623,-573,0,0,0,0,0,0,0,0,0,-1,1847,1597,0,0
630,-573,0,0,0,0,0,0,0,0,0,-1,1854,1597,0,0
637,-573,0,0,0,0,0,0,0,0,0,-1,1861,1597,0,0
644,-573,0,0,0,0,0,0,0,0,0,-1,1868,1597,0,0
651,-573,0,0,0,0,0,0,0,0,0,-1,1875,1597,0,0
658,-573,0,0,0,0,0,0,0,0,0,-1,1882,1597,0,0
665,-573,0,0,0,0,0,0,0,0,0,-1,1889,1597,0,0
672,-573,0,0,0,0,0,0,0,0,0,-1,1896,1597,0,0
679,-573,0,0,0,0,0,0,0,0,0,-1,1903,1597,0,0
686,-573,0,0,0,0,0,0,0,0,0,-1,1910,1597,0,0
693,-573,0,0,0,0,0,0,0,0,0,-1,1917,1597,0,0
700,-573,0,0,0,0,0,0,0,0,0,-1,1924,1597,0,0
707,-573,0,0,0,0,0,0,0,0,0,-1,1931,1597,0,0
714,-573,0,0,0,0,0,0,0,0,0,-1,1938,1597,0,0
721,-573,0,0,0,0,0,0,0,0,0,-1,1945,1597,0,0
728,-573,0,0,0,0,0,0,0,0,0,-1,1952,1597,0,0
735,-573,0,0,0,0,0,0,0,0,0,-1,1959,1597,0,0
742,-573,0,0,0,0,0,0,0,0,0,-1,1966,1597,0,0
749,-573,0,0,0,0,0,0,0,0,0,-1,1973,1597,0,0
756,-573,0,0,0,0,0,0,0,0,0,-1,1980,1597,0,0
763,-573,0,0,0,0,0,0,0,0,0,-1,1987,1597,0,0
770,-573,0,0,0,0,0,0,0,0,0,-1,1994,1597,0,0
777,-573,0,0,0,0,0,0,0,0,0,-1,2001,1597,0,0
784,-573,0,0,0,0,0,0,0,0,0,-1,2008,1597,0,0
791,-573,0,0,0,0,0,0,0,0,0,-1,2015,1597,0,0
798,-573,0,0,0,0,0,0,0,0,0,-1,2022,1597,0,0
805,-573,0,0,0,0,0,0,0,0,0,-1,2029,1597,0,0
812,-573,0,0,0,0,0,0,0,0,0,-1,2036,1597,0,0
-700,-580,0,0,0,0,0,0,0,0,0,-1,524,1604,0,0
-693,-580,0,0,0,0,0,0,0,0,0,-1,531,1604,0,0
-686,-580,0,0,0,0,0,0,0,0,0,-1,538,1604,0,0
-679,-580,0,0,0,0,0,0,0,0,0,-1,545,1604,0,0
-672,-580,0,0,0,0,0,0,0,0,0,-1,552,1604,0,0
-665,-580,0,0,0,0,0,0,0,0,0,-1,559,1604,0,0
-658,-580,0,0,0,0,0,0,0,0,0,-1,566,1604,0,0
-651,-580,0,0,0,0,0,0,0,0,0,-1,573,1604,0,0
-644,-580,0,0,0,0,0,0,0,0,0,-1,580,1604,0,0
-637,-580,0,0,0,0,0,0,0,0,0,-1,587,1604,0,0
-630,-580,0,0,0,0,0,0,0,0,0,-1,594,1604,0,0
-623,-580,0,0,0,0,0,0,0,0,0,-1,601,1604,0,0
-616,-580,0,0,0,0,0,0,0,0,0,-1,608,1604,0,0
-609,-580,0,0,0,0,0,0,0,0,0,-1,615,1604,0,0
-602,-580,0,0,0,0,0,0,0,0,0,-1,622,1604,0,0
-595,-580,0,0,0,0,0,0,0,0,0,-1,629,1604,0,0
-588,-580,0,0,0,0,0,0,0,0,0,-1,636,1604,0,0
-581,-580,0,0,0,0,0,0,0,0,0,-1,643,1604,0,0
-574,-580,0,0,0,0,0,0,0,0,0,-1,650,1604,0,0
-567,-580,0,0,0,0,0,0,0,0,0,-1,657,1604,0,0
-560,-580,0,0,0,0,0,0,0,0,0,-1,664,1604,0,0
-553,-580,0,0,0,0,0,0,0,0,0,-1,671,1604,0,0
-546,-580,0,0,0,0,0,0,0,0,0,-1,678,1604,0,0
-539,-580,0,0,0,0,0,0,0,0,0,-1,685,1604,0,0
-532,-580,0,0,0,0,0,0,0,0,0,-1,692,1604,0,0
-525,-580,0,0,0,0,0,0,0,0,0,-1,699,1604,0,0
-518,-580,0,0,0,0,0,0,0,0,0,-1,706,1604,0,0
-511,-580,0,0,0,0,0,0,0,0,0,-1,713,1604,0,0
-504,-580,0,0,0,0,0,0,0,0,0,-1,720,1604,0,0
-497,-580,0,0,0,0,0,0,0,0,0,-1,727,1604,0,0
-490,-580,0,0,0,0,0,0,0,0,0,-1,734,1604,0,0
-483,-580,0,0,0,0,0,0,0,0,0,-1,741,1604,0,0
-476,-580,0,0,0,0,0,0,0,0,0,-1,748,1604,0,0
-469,-580,-1.69189,-0.38916,0,0,0,0,0,0,0,-1,755,1604,-1.69192,0.389188
-462,-580,-0.859863,0.675293,0,0,0,0,0,0,0,-1,762,1604,-0.859834,-0.675245
-455,-580,-0.730164,0.651978,0,0,0,0,0,0,0,-1,769,1604,-0.730153,-0.651957
-448,-580,-3.31891,2.07544,0,0,0,0,0,0,0,-1,776,1604,-3.3189,-2.07539
-441,-580,-1.63843,3.9469,0,0,0,0,0,0,0,-1,783,1604,-1.63842,-3.94695
-434,-580,0.23291,5.97876,0,0,0,0,0,0,0,-1,790,1604,0.232901,-5.97878
-427,-580,1.62756,8.05493,0,0,0,0,0,0,0,-1,797,1604,1.62758,-8.05488
-420,-580,0.986572,11.2383,0,0,0,0,0,0,0,-1,804,1604,0.986544,-11.2382
-413,-580,0.922913,21.5701,0,0,0,0,0,0,0,-1,811,1604,0.922905,-21.5701
-406,-580,-1.14929,30.6049,0,0,0,0,0,0,0,-1,818,1604,-1.14926,-30.6049
-399,-580,-1.12097,31.5026,-0.00161679,-0.00220926,0.000466575,-0.00136035,-0.0024657,0.502551,0.00142611,0.0435677,825,1604,-1.12098,-31.5026
-392,-580,-1.15625,32.2311,-0.000975286,-0.00187111,0.000571143,-0.000697367,-0.00214903,0.452871,0.00126596,0.020487,832,1604,-1.15623,-32.2311
-385,-580,-1.2113,32.9423,-0.00033665,-0.00137681,0.00076643,6.94969e-05,-0.00178296,0.487297,0.00121247,0.013019,839,1604,-1.21129,-32.9423
-378,-580,-1.25641,33.6592,1.21242e-05,-0.000906947,0.000752382,0.000434207,-0.00132903,0.511246,0.0010608,0.0156349,846,1604,-1.25642,-33.6592
-371,-580,-1.28259,34.3733,0.000351286,-0.000523902,0.000714633,0.00075166,-0.000924275,0.510678,0.000969311,0.0144127,853,1604,-1.28262,-34.3733
-364,-580,-1.29303,35.0259,0.000815726,-2.89939e-05,0.000807866,0.00130498,-0.000518245,0.544534,0.00108481,0.0202194,860,1604,-1.29301,-35.0258
-357,-580,-1.30774,35.686,0.00134639,0.000580635,0.00096665,0.00200323,-7.62025e-05,0.596834,0.0013616,0.0141601,867,1604,-1.30773,-35.686
-350,-580,-1.37695,36.4211,0.00199388,0.00120953,0.00119042,0.00285506,0.000348343,0.626276,0.00179854,0.0111926,874,1604,-1.37693,-36.4211
-343,-580,-1.37067,37.1118,0.00262612,0.00187607,0.00147508,0.0037731,0.000729095,0.660915,0.00231103,0.011828,881,1604,-1.37066,-37.1118
-336,-580,-1.37415,37.7334,0.0034015,0.00285154,0.00200124,0.00514656,0.00110648,0.717124,0.00312814,0.0200979,888,1604,-1.37415,-37.7334
-329,-580,-1.42108,38.4509,0.00439315,0.00454033,0.00287213,0.00733981,0.00159367,0.798206,0.00445797,0.0188604,895,1604,-1.42106,-38.451
-322,-580,-1.46423,39.161,0.00561867,0.00725225,0.00418354,0.010698,0.00217293,0.881805,0.00652934,0.0208037,902,1604,-1.46426,-39.1611
-315,-580,-1.44812,39.823,0.0070581,0.0102413,0.00578216,0.0146469,0.00265249,0.919702,0.00901152,0.0231183,909,1604,-1.44811,-39.823
-308,-580,-1.38171,40.6508,0.00852277,0.0134507,0.0075219,0.0189019,0.00307156,0.943677,0.0117125,0.0338731,916,1604,-1.38168,-40.6508
-301,-580,-1.3045,41.2129,0.0103349,0.0174058,0.00983051,0.0243173,0.00342342,0.958017,0.0151994,0.0323005,923,1604,-1.3045,-41.2128
-294,-580,-1.36737,41.7482,0.0124758,0.022643,0.012716,0.0312539,0.00386494,0.975557,0.0196746,0.032461,930,1604,-1.36738,-41.7481
-287,-580,-1.22095,42.598,0,0,0,0,0,0,0,-1,937,1604,-1.22098,-42.5981
-280,-580,-1.01587,44.2509,0,0,0,0,0,0,0,-1,944,1604,-1.0159,-44.2508
-273,-580,-0.914917,45.2114,0,0,0,0,0,0,0,-1,951,1604,-0.914945,-45.2115
-266,-580,1.71777,25.6515,0,0,0,0,0,0,0,-1,958,1604,1.71775,-25.6515
-259,-580,1.31091,9.11536,0,0,0,0,0,0,0,-1,965,1604,1.31092,-9.11539
-252,-580,1.07629,7.74097,0,0,0,0,0,0,0,-1,972,1604,1.07627,-7.74101
-245,-580,3.80304,9.16028,0,0,0,0,0,0,0,-1,979,1604,3.80306,-9.16034
-238,-580,-10.3588,1.57556,0,0,0,0,0,0,0,-1,986,1604,-10.3588,-1.5755
-231,-580,-10.576,6.43787,0,0,0,0,0,0,0,-1,993,1604,-10.576,-6.43783
-224,-580,-8.27435,7.58972,0,0,0,0,0,0,0,-1,1000,1604,-8.27435,-7.5897
-217,-580,-5.85632,9.51221,0,0,0,0,0,0,0,-1,1007,1604,-5.85632,-9.5122
-210,-580,-3.6684,11.1569,0,0,0,0,0,0,0,-1,1014,1604,-3.66839,-11.1569
-203,-580,-1.92474,12.7845,0,0,0,0,0,0,0,-1,1021,1604,-1.92477,-12.7845
-196,-580,-2.28552,10.3289,0,0,0,0,0,0,0,-1,1028,1604,-2.28552,-10.3288
-189,-580,-4.58252,7.59058,0,0,0,0,0,0,0,-1,1035,1604,-4.58256,-7.59057
-182,-580,-5.45874,7.65942,0,0,0,0,0,0,0,-1,1042,1604,-5.45876,-7.65939
-175,-580,-6.38977,7.55005,0,0,0,0,0,0,0,-1,1049,1604,-6.38981,-7.5501
-168,-580,0,0,0,0,0,0,0,0,0,-1,1056,1604,0,0
-161,-580,0,0,0,0,0,0,0,0,0,-1,1063,1604,0,0
-154,-580,0,0,0,0,0,0,0,0,0,-1,1070,1604,0,0
-147,-580,0,0,0,0,0,0,0,0,0,-1,1077,1604,0,0
-140,-580,0,0,0,0,0,0,0,0,0,-1,1084,1604,0,0
-133,-580,0,0,0,0,0,0,0,0,0,-1,1091,1604,0,0
-126,-580,0,0,0,0,0,0,0,0,0,-1,1098,1604,0,0
-119,-580,0,0,0,0,0,0,0,0,0,-1,1105,1604,0,0
-112,-580,0,0,0,0,0,0,0,0,0,-1,1112,1604,0,0
-105,-580,0,0,0,0,0,0,0,0,0,-1,1119,1604,0,0
-98,-580,0,0,0,0,0,0,0,0,0,-1,1126,1604,0,0
-91,-580,0,0,0,0,0,0,0,0,0,-1,1133,1604,0,0
-84,-580,0,0,0,0,0,0,0,0,0,-1,1140,1604,0,0
-77,-580,0,0,0,0,0,0,0,0,0,-1,1147,1604,0,0
-70,-580,0,0,0,0,0,0,0,0,0,-1,1154,1604,0,0
-63,-580,0,0,0,0,0,0,0,0,0,-1,1161,1604,0,0
-56,-580,0,0,0,0,0,0,0,0,0,-1,1168,1604,0,0
-49,-580,0,0,0,0,0,0,0,0,0,-1,1175,1604,0,0
-42,-580,0,0,0,0,0,0,0,0,0,-1,1182,1604,0,0
-35,-580,0,0,0,0,0,0,0,0,0,-1,1189,1604,0,0
-28,-580,0,0,0,0,0,0,0,0,0,-1,1196,1604,0,0
-21,-580,0,0,0,0,0,0,0,0,0,-1,1203,1604,0,0
-14,-580,0,0,0,0,0,0,0,0,0,-1,1210,1604,0,0
-7,-580,0,0,0,0,0,0,0,0,0,-1,1217,1604,0,0
0,-580,0,0,0,0,0,0,0,0,0,-1,1224,1604,0,0
7,-580,0,0,0,0,0,0,0,0,0,-1,1231,1604,0,0
14,-580,0,0,0,0,0,0,0,0,0,-1,1238,1604,0,0
21,-580,0,0,0,0,0,0,0,0,0,-1,1245,1604,0,0
28,-580,0,0,0,0,0,0,0,0,0,-1,1252,1604,0,0
35,-580,0,0,0,0,0,0,0,0,0,-1,1259,1604,0,0
42,-580,0,0,0,0,0,0,0,0,0,-1,1266,1604,0,0
49,-580,0,0,0,0,0,0,0,0,0,-1,1273,1604,0,0
56,-580,0,0,0,0,0,0,0,0,0,-1,1280,1604,0,0
63,-580,0,0,0,0,0,0,0,0,0,-1,1287,1604,0,0
70,-580,0,0,0,0,0,0,0,0,0,-1,1294,1604,0,0
77,-580,0,0,0,0,0,0,0,0,0,-1,1301,1604,0,0
84,-580,0,0,0,0,0,0,0,0,0,-1,1308,1604,0,0
91,-580,0,0,0,0,0,0,0,0,0,-1,1315,1604,0,0
98,-580,0,0,0,0,0,0,0,0,0,-1,1322,1604,0,0
105,-580,0,0,0,0,0,0,0,0,0,-1,1329,1604,0,0
112,-580,0,0,0,0,0,0,0,0,0,-1,1336,1604,0,0
119,-580,0,0,0,0,0,0,0,0,0,-1,1343,1604,0,0
126,-580,0,0,0,0,0,0,0,0,0,-1,1350,1604,0,0
133,-580,0,0,0,0,0,0,0,0,0,-1,1357,1604,0,0
140,-580,0,0,0,0,0,0,0,0,0,-1,1364,1604,0,0
147,-580,0,0,0,0,0,0,0,0,0,-1,1371,1604,0,0
154,-580,0,0,0,0,0,0,0,0,0,-1,1378,1604,0,0
161,-580,0,0,0,0,0,0,0,0,0,-1,1385,1604,0,0
168,-580,0,0,0,0,0,0,0,0,0,-1,1392,1604,0,0
175,-580,0,0,0,0,0,0,0,0,0,-1,1399,1604,0,0
182,-580,0,0,0,0,0,0,0,0,0,-1,1406,1604,0,0
189,-580,0,0,0,0,0,0,0,0,0,-1,1413,1604,0,0
196,-580,0,0,0,0,0,0,0,0,0,-1,1420,1604,0,0
203,-580,0,0,0,0,0,0,0,0,0,-1,1427,1604,0,0
210,-580,0,0,0,0,0,0,0,0,0,-1,1434,1604,0,0
217,-580,0,0,0,0,0,0,0,0,0,-1,1441,1604,0,0
224,-580,0,0,0,0,0,0,0,0,0,-1,1448,1604,0,0
231,-580,0,0,0,0,0,0,0,0,0,-1,1455,1604,0,0
238,-580,0,0,0,0,0,0,0,0,0,-1,1462,1604,0,0
245,-580,0,0,0,0,0,0,0,0,0,-1,1469,1604,0,0
252,-580,0,0,0,0,0,0,0,0,0,-1,1476,1604,0,0
259,-580,0,0,0,0,0,0,0,0,0,-1,1483,1604,0,0
266,-580,0,0,0,0,0,0,0,0,0,-1,1490,1604,0,0
273,-580,0,0,0,0,0,0,0,0,0,-1,1497,1604,0,0
280,-580,0,0,0,0,0,0,0,0,0,-1,1504,1604,0,0
287,-580,0,0,0,0,0,0,0,0,0,-1,1511,1604,0,0
294,-580,4.0437,0.177368,0,0,0,0,0,0,0,-1,1518,1604,4.04369,-0.177371
301,-580,7.55164,8.05798,0,0,0,0,0,0,0,-1,1525,1604,7.55158,-8.05802
308,-580,5.9126,9.99341,0,0,0,0,0,0,0,-1,1532,1604,5.91255,-9.99337
315,-580,4.27356,11.9287,0,0,0,0,0,0,0,-1,1539,1604,4.27352,-11.9287
322,-580,10.2366,7.50281,0,0,0,0,0,0,0,-1,1546,1604,10.2366,-7.50282
329,-580,10.5962,8.69641,0,0,0,0,0,0,0,-1,1553,1604,10.5962,-8.69642
336,-580,3.66431,1.58862,0,0,0,0,0,0,0,-1,1560,1604,3.6643,-1.58864
343,-580,3.32227,1.39636,0,0,0,0,0,0,0,-1,1567,1604,3.32222,-1.39633
350,-580,8.71277,4.0564,0,0,0,0,0,0,0,-1,1574,1604,8.71271,-4.05638
357,-580,8.52332,3.08154,0,0,0,0,0,0,0,-1,1581,1604,8.52332,-3.08157
364,-580,8.25818,2.07605,0,0,0,0,0,0,0,-1,1588,1604,8.25812,-2.07608
371,-580,7.42114,7.14282,0,0,0,0,0,0,0,-1,1595,1604,7.42119,-7.14281
378,-580,7.9718,6.6731,0,0,0,0,0,0,0,-1,1602,1604,7.9718,-6.67307
385,-580,8.52246,6.20337,0,0,0,0,0,0,0,-1,1609,1604,8.52241,-6.20334
392,-580,19.1649,43.3333,0,0,0,0,0,0,0,-1,1616,1604,19.1649,-43.3333
399,-580,19.3013,43.4558,0,0,0,0,0,0,0,-1,1623,1604,19.3013,-43.4558
406,-580,19.9391,44.1954,0,0,0,0,0,0,0,-1,1630,1604,19.9391,-44.1954
413,-580,19.3304,43.1962,0,0,0,0,0,0,0,-1,1637,1604,19.3304,-43.1961
420,-580,19.2532,42.3873,0,0,0,0,0,0,0,-1,1644,1604,19.2532,-42.3874
427,-580,19.7946,42.1948,0,0,0,0,0,0,0,-1,1651,1604,19.7946,-42.1948
434,-580,19.569,41.2773,0.000699268,0.0224172,-0.00866496,0.0254507,-0.00233416,-1.23405,0.0177963,0.0478711,1658,1604,19.569,-41.2773
441,-580,19.3531,40.364,0.00222503,0.0190169,-0.00804187,0.022247,-0.00100501,-1.18887,0.0151774,0.0271468,1665,1604,19.3531,-40.3641
448,-580,19.4274,39.6069,0.00311914,0.016062,-0.00727946,0.0193307,-0.000149556,-1.14875,0.0129373,0.017589,1672,1604,19.4273,-39.6069
455,-580,19.4316,38.9836,0.00370091,0.0133096,-0.00670552,0.0167543,0.000256279,-1.09625,0.0110851,0.0215719,1679,1604,19.4317,-38.9836
462,-580,19.4298,38.3124,0.0042577,0.0104418,-0.00592008,0.0140287,0.000670815,-1.02606,0.00913706,0.0254577,1686,1604,19.4298,-38.3124
469,-580,19.4414,37.644,0.00414509,0.00818869,-0.00490595,0.0114731,0.000860667,-0.98085,0.0073786,0.021507,1693,1604,19.4415,-37.644
476,-580,19.401,37.0056,0.00358795,0.00627606,-0.00400781,0.00915918,0.000704832,-0.947184,0.00588526,0.0153469,1700,1604,19.4011,-37.0056
483,-580,19.3555,36.3833,0.00287992,0.00446763,-0.00313958,0.00691217,0.000435385,-0.909229,0.00447006,0.013572,1707,1604,19.3555,-36.3833
490,-580,19.3163,35.76,0.00215807,0.00276239,-0.00234077,0.00482042,0.00010004,-0.849587,0.00318079,0.0181073,1714,1604,19.3162,-35.7599
497,-580,19.3015,35.0682,0.00136587,0.00158408,-0.00166769,0.00314623,-0.000196279,-0.818063,0.00216588,0.0152706,1721,1604,19.3015,-35.0682
504,-580,19.2549,34.3809,0.000640963,0.000418408,-0.00104157,0.00157719,-0.000517815,-0.732182,0.00126004,0.0183184,1728,1604,19.2549,-34.3808
511,-580,19.2266,33.7168,-1.40736e-05,-0.00045211,-0.000401603,0.000224351,-0.000690535,-0.535761,0.000550593,0.0178511,1735,1604,19.2266,-33.7168
518,-580,19.2017,33.0439,-0.000562758,-0.00111444,9.7048e-05,-0.000546184,-0.00113102,0.169149,0.000653121,0.0165438,1742,1604,19.2016,-33.0439
525,-580,19.1976,32.3688,-0.00096733,-0.00177127,0.000642129,-0.000611733,-0.00212687,0.505739,0.00126433,0.0215969,1749,1604,19.1976,-32.3687
532,-580,19.097,31.7135,-0.00119124,-0.00242478,0.00132609,-0.000345513,-0.00327051,0.567726,0.00207478,0.0402805,1756,1604,19.097,-31.7135
539,-580,19.2512,30.8331,0,0,0,0,0,0,0,-1,1763,1604,19.2512,-30.8332
546,-580,19.3851,29.3604,0,0,0,0,0,0,0,-1,1770,1604,19.3851,-29.3604
553,-580,17.1749,26.6359,0,0,0,0,0,0,0,-1,1777,1604,17.1749,-26.6358
560,-580,18.9662,29.0388,0,0,0,0,0,0,0,-1,1784,1604,18.9661,-29.0389
567,-580,3.87708,4.0647,0,0,0,0,0,0,0,-1,1791,1604,3.87711,-4.06471
574,-580,2.31653,5.62952,0,0,0,0,0,0,0,-1,1798,1604,2.31654,-5.62947
581,-580,1.60876,6.67664,0,0,0,0,0,0,0,-1,1805,1604,1.60873,-6.67667
588,-580,1.38684,7.14441,0,0,0,0,0,0,0,-1,1812,1604,1.38689,-7.14443
595,-580,0,0,0,0,0,0,0,0,0,-1,1819,1604,0,0
602,-580,0,0,0,0,0,0,0,0,0,-1,1826,1604,0,0
609,-580,0,0,0,0,0,0,0,0,0,-1,1833,1604,0,0
616,-580,0,0,0,0,0,0,0,0,0,-1,1840,1604,0,0
623,-580,0,0,0,0,0,0,0,0,0,-1,1847,1604,0,0
630,-580,0,0,0,0,0,0,0,0,0,-1,1854,1604,0,0
637,-580,0,0,0,0,0,0,0,0,0,-1,1861,1604,0,0
644,-580,0,0,0,0,0,0,0,0,0,-1,1868,1604,0,0
651,-580,0,0,0,0,0,0,0,0,0,-1,1875,1604,0,0
658,-580,0,0,0,0,0,0,0,0,0,-1,1882,1604,0,0
665,-580,0,0,0,0,0,0,0,0,0,-1,1889,1604,0,0
672,-580,0,0,0,0,0,0,0,0,0,-1,1896,1604,0,0
679,-580,0,0,0,0,0,0,0,0,0,-1,1903,1604,0,0
686,-580,0,0,0,0,0,0,0,0,0,-1,1910,1604,0,0
693,-580,0,0,0,0,0,0,0,0,0,-1,1917,1604,0,0
700,-580,0,0,0,0,0,0,0,0,0,-1,1924,1604,0,0
707,-580,0,0,0,0,0,0,0,0,0,-1,1931,1604,0,0
714,-580,0,0,0,0,0,0,0,0,0,-1,1938,1604,0,0
721,-580,0,0,0,0,0,0,0,0,0,-1,1945,1604,0,0
728,-580,0,0,0,0,0,0,0,0,0,-1,1952,1604,0,0
735,-580,0,0,0,0,0,0,0,0,0,-1,1959,1604,0,0
742,-580,0,0,0,0,0,0,0,0,0,-1,1966,1604,0,0
749,-580,0,0,0,0,0,0,0,0,0,-1,1973,1604,0,0
756,-580,0,0,0,0,0,0,0,0,0,-1,1980,1604,0,0
763,-580,0,0,0,0,0,0,0,0,0,-1,1987,1604,0,0
770,-580,0,0,0,0,0,0,0,0,0,-1,1994,1604,0,0
777,-580,0,0,0,0,0,0,0,0,0,-1,2001,1604,0,0
784,-580,0,0,0,0,0,0,0,0,0,-1,2008,1604,0,0
791,-580,0,0,0,0,0,0,0,0,0,-1,2015,1604,0,0
798,-580,0,0,0,0,0,0,0,0,0,-1,2022,1604,0,0
805,-580,0,0,0,0,0,0,0,0,0,-1,2029,1604,0,0
812,-580,0,0,0,0,0,0,0,0,0,-1,2036,1604,0,0
-700,-587,0,0,0,0,0,0,0,0,0,-1,524,1611,0,0
-693,-587,0,0,0,0,0,0,0,0,0,-1,531,1611,0,0
-686,-587,0,0,0,0,0,0,0,0,0,-1,538,1611,0,0
-679,-587,0,0,0,0,0,0,0,0,0,-1,545,1611,0,0
-672,-587,0,0,0,0,0,0,0,0,0,-1,552,1611,0,0
-665,-587,0,0,0,0,0,0,0,0,0,-1,559,1611,0,0
-658,-587,0,0,0,0,0,0,0,0,0,-1,566,1611,0,0
-651,-587,0,0,0,0,0,0,0,0,0,-1,573,1611,0,0
-644,-587,0,0,0,0,0,0,0,0,0,-1,580,1611,0,0
-637,-587,0,0,0,0,0,0,0,0,0,-1,587,1611,0,0
-630,-587,0,0,0,0,0,0,0,0,0,-1,594,1611,0,0
-623,-587,0,0,0,0,0,0,0,0,0,-1,601,1611,0,0
-616,-587,0,0,0,0,0,0,0,0,0,-1,608,1611,0,0
-609,-587,0,0,0,0,0,0,0,0,0,-1,615,1611,0,0
-602,-587,0,0,0,0,0,0,0,0,0,-1,622,1611,0,0
-595,-587,0,0,0,0,0,0,0,0,0,-1,629,1611,0,0
-588,-587,0,0,0,0,0,0,0,0,0,-1,636,1611,0,0
-581,-587,0,0,0,0,0,0,0,0,0,-1,643,1611,0,0
-574,-587,0,0,0,0,0,0,0,0,0,-1,650,1611,0,0
-567,-587,0,0,0,0,0,0,0,0,0,-1,657,1611,0,0
-560,-587,0,0,0,0,0,0,0,0,0,-1,664,1611,0,0
-553,-587,0,0,0,0,0,0,0,0,0,-1,671,1611,0,0
-546,-587,0,0,0,0,0,0,0,0,0,-1,678,1611,0,0
-539,-587,0,0,0,0,0,0,0,0,0,-1,685,1611,0,0
-532,-587,0,0,0,0,0,0,0,0,0,-1,692,1611,0,0
-525,-587,0,0,0,0,0,0,0,0,0,-1,699,1611,0,0
-518,-587,0,0,0,0,0,0,0,0,0,-1,706,1611,0,0
-511,-587,0,0,0,0,0,0,0,0,0,-1,713,1611,0,0
-504,-587,0,0,0,0,0,0,0,0,0,-1,720,1611,0,0
-497,-587,0,0,0,0,0,0,0,0,0,-1,727,1611,0,0
-490,-587,0,0,0,0,0,0,0,0,0,-1,734,1611,0,0
-483,-587,0,0,0,0,0,0,0,0,0,-1,741,1611,0,0
-476,-587,0,0,0,0,0,0,0,0,0,-1,748,1611,0,0
-469,-587,0,0,0,0,0,0,0,0,0,-1,755,1611,0,0
-462,-587,-0.714355,-0.418457,0,0,0,0,0,0,0,-1,762,1611,-0.714359,0.418483
-455,-587,-0.619812,-0.522461,0,0,0,0,0,0,0,-1,769,1611,-0.619802,0.522515
-448,-587,-0.461731,-0.686523,0,0,0,0,0,0,0,-1,776,1611,-0.461739,0.686559
-441,-587,-3.56555,2.72253,0,0,0,0,0,0,0,-1,783,1611,-3.56555,-2.72259
-434,-587,-1.77319,4.76318,0,0,0,0,0,0,0,-1,790,1611,-1.77318,-4.76323
-427,-587,0.0346069,6.92944,0,0,0,0,0,0,0,-1,797,1611,0.034587,-6.92941
-420,-587,-0.647156,10.1157,0,0,0,0,0,0,0,-1,804,1611,-0.647128,-10.1158
-413,-587,2.13971,10.3901,0,0,0,0,0,0,0,-1,811,1611,2.13971,-10.3902
-406,-587,2.2525,19.7814,0,0,0,0,0,0,0,-1,818,1611,2.25253,-19.7814
-399,-587,-0.513489,31.4564,0,0,0,0,0,0,0,-1,825,1611,-0.513469,-31.4565
-392,-587,-0.552673,32.1312,0,0,0,0,0,0,0,-1,832,1611,-0.552646,-32.1313
-385,-587,-0.566772,32.9038,-0.000702583,-0.00207634,0.000774039,-0.000354599,-0.00242432,0.422495,0.00151194,0.0282842,839,1611,-0.566761,-32.9038
-378,-587,-0.584351,33.7023,-0.000337747,-0.00148058,0.000836558,0.000103923,-0.00192225,0.485765,0.00131751,0.0142147,846,1611,-0.584321,-33.7022
-371,-587,-0.617859,34.431,-3.34361e-05,-0.00105604,0.00080156,0.000406013,-0.00149549,0.501493,0.00115634,0.0146201,853,1611,-0.617828,-34.431
-364,-587,-0.622986,35.0845,0.000369053,-0.000632245,0.000856734,0.000860696,-0.00112389,0.520975,0.00114915,0.0186416,860,1611,-0.623001,-35.0844
-357,-587,-0.666748,35.7039,0.000841109,-9.82754e-05,0.000973689,0.00145247,-0.000709639,0.56067,0.00127262,0.0184688,867,1611,-0.666752,-35.7038
-350,-587,-0.698242,36.449,0.00140722,0.000440589,0.00112673,0.00214992,-0.000302112,0.582791,0.00154387,0.0109318,874,1611,-0.698232,-36.449
-343,-587,-0.723083,37.1411,0.00195679,0.00105071,0.00132985,0.00290865,9.88522e-05,0.621227,0.001907,0.0136691,881,1611,-0.72308,-37.1411
-336,-587,-0.750366,37.7916,0.00259833,0.00189058,0.0016997,0.0039806,0.000508311,0.682765,0.00250157,0.013633,888,1611,-0.750369,-37.7916
-329,-587,-0.781067,38.4701,0.00341285,0.00334406,0.00234637,0.00572508,0.00103183,0.778069,0.0035235,0.0159502,895,1611,-0.781095,-38.4701
-322,-587,-0.797607,39.1584,0.00437856,0.00557922,0.00332252,0.00835521,0.00160258,0.874776,0.00512024,0.0184487,902,1611,-0.797629,-39.1584
-315,-587,-0.81842,39.8148,0.00553441,0.00803343,0.00454461,0.0114972,0.00207067,0.919554,0.00707628,0.0145933,909,1611,-0.818417,-39.8148
-308,-587,-0.836365,40.4768,0.0067522,0.0106458,0.00586456,0.0148782,0.00251976,0.945655,0.00919473,0.014913,916,1611,-0.836382,-40.4768
-301,-587,-0.77417,41.1458,0.00824271,0.0138448,0.00763238,0.0191739,0.0029136,0.961264,0.0119306,0.0155876,923,1611,-0.774141,-41.1458
-294,-587,-0.692871,41.8546,0.00994482,0.0180101,0.00983004,0.0246025,0.00335239,0.980047,0.0154063,0.0241979,930,1611,-0.692877,-41.8546
-287,-587,-0.719116,42.6155,0.0120727,0.0229547,0.0124346,0.0310867,0.00394078,0.991632,0.0195437,0.0363155,937,1611,-0.719088,-42.6155
-280,-587,-0.568481,43.6492,0.0146436,0.0282994,0.0155468,0.0384516,0.00449138,0.992308,0.0242762,0.0449506,944,1611,-0.568477,-43.6492
-273,-587,-0.461609,44.5674,0.0173009,0.0341116,0.0187828,0.0462839,0.0051285,0.995786,0.0292965,0.0427538,951,1611,-0.461609,-44.5674
-266,-587,-0.321899,45.2195,0,0,0,0,0,0,0,-1,958,1611,-0.32191,-45.2195
-259,-587,0.069519,44.2048,0,0,0,0,0,0,0,-1,965,1611,0.069495,-44.2048
-252,-587,1.30188,10.3103,0,0,0,0,0,0,0,-1,972,1611,1.30188,-10.3104
-245,-587,1.52075,27.4791,0,0,0,0,0,0,0,-1,979,1611,1.52076,-27.4791
-238,-587,2.87799,9.53821,0,0,0,0,0,0,0,-1,986,1611,2.87797,-9.53823
-231,-587,2.49548,9.14465,0,0,0,0,0,0,0,-1,993,1611,2.49551,-9.14468
-224,-587,-9.72528,9.21069,0,0,0,0,0,0,0,-1,1000,1611,-9.72529,-9.21072
-217,-587,-7.07495,10.7847,0,0,0,0,0,0,0,-1,1007,1611,-7.07495,-10.7847
-210,-587,-4.72308,12.5889,0,0,0,0,0,0,0,-1,1014,1611,-4.72307,-12.5888
-203,-587,-3.2583,13.7289,0,0,0,0,0,0,0,-1,1021,1611,-3.25828,-13.7289
-196,-587,-1.953,14.8145,0,0,0,0,0,0,0,-1,1028,1611,-1.95302,-14.8144
-189,-587,-3.04138,8.66638,0,0,0,0,0,0,0,-1,1035,1611,-3.04136,-8.66635
-182,-587,-3.97095,9.7146,0,0,0,0,0,0,0,-1,1042,1611,-3.97093,-9.71461
-175,-587,-4.80969,8.37878,0,0,0,0,0,0,0,-1,1049,1611,-4.80964,-8.37883
-168,-587,-5.91394,8.72546,0,0,0,0,0,0,0,-1,1056,1611,-5.91398,-8.72542
-161,-587,-7.06946,8.88501,0,0,0,0,0,0,0,-1,1063,1611,-7.06947,-8.885
-154,-587,-2.24731,6.56519,0,0,0,0,0,0,0,-1,1070,1611,-2.24728,-6.56517
-147,-587,0,0,0,0,0,0,0,0,0,-1,1077,1611,0,0
-140,-587,0,0,0,0,0,0,0,0,0,-1,1084,1611,0,0
-133,-587,0,0,0,0,0,0,0,0,0,-1,1091,1611,0,0
-126,-587,0,0,0,0,0,0,0,0,0,-1,1098,1611,0,0
-119,-587,0,0,0,0,0,0,0,0,0,-1,1105,1611,0,0
-112,-587,0,0,0,0,0,0,0,0,0,-1,1112,1611,0,0
-105,-587,0,0,0,0,0,0,0,0,0,-1,1119,1611,0,0
-98,-587,0,0,0,0,0,0,0,0,0,-1,1126,1611,0,0
-91,-587,0,0,0,0,0,0,0,0,0,-1,1133,1611,0,0
-84,-587,0,0,0,0,0,0,0,0,0,-1,1140,1611,0,0
-77,-587,0,0,0,0,0,0,0,0,0,-1,1147,1611,0,0
-70,-587,0,0,0,0,0,0,0,0,0,-1,1154,1611,0,0
-63,-587,0,0,0,0,0,0,0,0,0,-1,1161,1611,0,0
-56,-587,0,0,0,0,0,0,0,0,0,-1,1168,1611,0,0
-49,-587,0,0,0,0,0,0,0,0,0,-1,1175,1611,0,0
-42,-587,0,0,0,0,0,0,0,0,0,-1,1182,1611,0,0
-35,-587,0,0,0,0,0,0,0,0,0,-1,1189,1611,0,0
-28,-587,0,0,0,0,0,0,0,0,0,-1,1196,1611,0,0
-21,-587,0,0,0,0,0,0,0,0,0,-1,1203,1611,0,0
-14,-587,0,0,0,0,0,0,0,0,0,-1,1210,1611,0,0
-7,-587,0,0,0,0,0,0,0,0,0,-1,1217,1611,0,0
0,-587,0,0,0,0,0,0,0,0,0,-1,1224,1611,0,0
7,-587,0,0,0,0,0,0,0,0,0,-1,1231,1611,0,0
14,-587,0,0,0,0,0,0,0,0,0,-1,1238,1611,0,0
21,-587,0,0,0,0,0,0,0,0,0,-1,1245,1611,0,0
28,-587,0,0,0,0,0,0,0,0,0,-1,1252,1611,0,0
35,-587,0,0,0,0,0,0,0,0,0,-1,1259,1611,0,0
42,-587,0,0,0,0,0,0,0,0,0,-1,1266,1611,0,0
49,-587,0,0,0,0,0,0,0,0,0,-1,1273,1611,0,0
56,-587,0,0,0,0,0,0,0,0,0,-1,1280,1611,0,0
63,-587,0,0,0,0,0,0,0,0,0,-1,1287,1611,0,0
70,-587,0,0,0,0,0,0,0,0,0,-1,1294,1611,0,0
77,-587,0,0,0,0,0,0,0,0,0,-1,1301,1611,0,0
84,-587,0,0,0,0,0,0,0,0,0,-1,1308,1611,0,0
91,-587,0,0,0,0,0,0,0,0,0,-1,1315,1611,0,0
98,-587,0,0,0,0,0,0,0,0,0,-1,1322,1611,0,0
105,-587,0,0,0,0,0,0,0,0,0,-1,1329,1611,0,0
112,-587,0,0,0,0,0,0,0,0,0,-1,1336,1611,0,0
119,-587,0,0,0,0,0,0,0,0,0,-1,1343,1611,0,0
126,-587,0,0,0,0,0,0,0,0,0,-1,1350,1611,0,0
133,-587,0,0,0,0,0,0,0,0,0,-1,1357,1611,0,0
140,-587,0,0,0,0,0,0,0,0,0,-1,1364,1611,0,0
147,-587,0,0,0,0,0,0,0,0,0,-1,1371,1611,0,0
154,-587,0,0,0,0,0,0,0,0,0,-1,1378,1611,0,0
161,-587,0,0,0,0,0,0,0,0,0,-1,1385,1611,0,0
168,-587,0,0,0,0,0,0,0,0,0,-1,1392,1611,0,0
175,-587,0,0,0,0,0,0,0,0,0,-1,1399,1611,0,0
182,-587,0,0,0,0,0,0,0,0,0,-1,1406,1611,0,0
189,-587,0,0,0,0,0,0,0,0,0,-1,1413,1611,0,0
196,-587,0,0,0,0,0,0,0,0,0,-1,1420,1611,0,0
203,-587,0,0,0,0,0,0,0,0,0,-1,1427,1611,0,0
210,-587,0,0,0,0,0,0,0,0,0,-1,1434,1611,0,0
217,-587,0,0,0,0,0,0,0,0,0,-1,1441,1611,0,0
224,-587,0,0,0,0,0,0,0,0,0,-1,1448,1611,0,0
231,-587,0,0,0,0,0,0,0,0,0,-1,1455,1611,0,0
238,-587,0,0,0,0,0,0,0,0,0,-1,1462,1611,0,0
245,-587,0,0,0,0,0,0,0,0,0,-1,1469,1611,0,0
252,-587,0,0,0,0,0,0,0,0,0,-1,1476,1611,0,0
259,-587,0,0,0,0,0,0,0,0,0,-1,1483,1611,0,0
266,-587,0,0,0,0,0,0,0,0,0,-1,1490,1611,0,0
273,-587,10.2936,6.35083,0,0,0,0,0,0,0,-1,1497,1611,10.2936,-6.35087
280,-587,2.09204,1.1217,0,0,0,0,0,0,0,-1,1504,1611,2.092,-1.12176
287,-587,3.2865,0.671509,0,0,0,0,0,0,0,-1,1511,1611,3.28656,-0.671538
294,-587,4.24646,1.58765,0,0,0,0,0,0,0,-1,1518,1611,4.24648,-1.58761
301,-587,7.60474,8.37085,0,0,0,0,0,0,0,-1,1525,1611,7.60478,-8.37084
308,-587,5.99316,10.2291,0,0,0,0,0,0,0,-1,1532,1611,5.99315,-10.2291
315,-587,4.34558,12.3289,0,0,0,0,0,0,0,-1,1539,1611,4.34556,-12.3288
322,-587,10.4526,6.38245,0,0,0,0,0,0,0,-1,1546,1611,10.4526,-6.38245
329,-587,10.7738,8.42444,0,0,0,0,0,0,0,-1,1553,1611,10.7738,-8.42438
336,-587,7.5531,5.96619,0,0,0,0,0,0,0,-1,1560,1611,7.55311,-5.96617
343,-587,9.57495,4.38391,0,0,0,0,0,0,0,-1,1567,1611,9.57494,-4.38397
350,-587,9.50378,3.45093,0,0,0,0,0,0,0,-1,1574,1611,9.50376,-3.4509
357,-587,9.40027,2.50806,0,0,0,0,0,0,0,-1,1581,1611,9.40022,-2.50803
364,-587,9.26477,1.34131,0,0,0,0,0,0,0,-1,1588,1611,9.26479,-1.34126
371,-587,6.98926,7.87561,0,0,0,0,0,0,0,-1,1595,1611,6.98928,-7.87564
378,-587,9.25146,13.8358,0,0,0,0,0,0,0,-1,1602,1611,9.2515,-13.8359
385,-587,16.5306,40.6755,0,0,0,0,0,0,0,-1,1609,1611,16.5307,-40.6755
392,-587,18.2039,43.595,0,0,0,0,0,0,0,-1,1616,1611,18.2039,-43.595
399,-587,19.4683,44.2947,0,0,0,0,0,0,0,-1,1623,1611,19.4682,-44.2947
406,-587,19.2332,43.9009,-0.00466744,0.0279813,-0.00641101,0.0291951,-0.0058812,-1.38369,0.0216912,0.0419749,1630,1611,19.2332,-43.9009
413,-587,18.7981,43.0557,-0.00304301,0.024998,-0.00655727,0.0264556,-0.00450063,-1.35206,0.0193129,0.0339995,1637,1611,18.7981,-43.0556
420,-587,18.7814,42.2561,-0.00165901,0.0219677,-0.00652408,0.0236495,-0.0033408,-1.31851,0.0169898,0.0337869,1644,1611,18.7813,-42.256
427,-587,18.7899,41.6696,-0.000583966,0.0191476,-0.0062065,0.0209375,-0.00237384,-1.29003,0.0148131,0.0286999,1651,1611,18.7899,-41.6696
434,-587,18.835,40.8849,0.000533077,0.0166568,-0.00603203,0.0186637,-0.00147377,-1.24962,0.0129617,0.0216942,1658,1611,18.8349,-40.8848
441,-587,18.8256,40.2102,0.00164572,0.0141237,-0.00574587,0.0163664,-0.000597049,-1.19866,0.0111153,0.0246372,1665,1611,18.8255,-40.2103
448,-587,18.8237,39.6543,0.00231613,0.0118997,-0.00530523,0.0142568,-4.09782e-05,-1.15269,0.00951823,0.0156089,1672,1611,18.8237,-39.6543
455,-587,18.7701,39.0148,0.0027513,0.00979114,-0.00498068,0.0123702,0.000172283,-1.09301,0.00818995,0.0145118,1679,1611,18.7701,-39.0148
462,-587,18.78,38.3586,0.00316753,0.00754858,-0.00447078,0.0103366,0.000379479,-1.01319,0.00676814,0.0200699,1686,1611,18.7801,-38.3587
469,-587,18.7809,37.7211,0.00307518,0.00577648,-0.00376158,0.00842255,0.000429118,-0.957762,0.0054776,0.0180035,1693,1611,18.7809,-37.7211
476,-587,18.7413,37.0825,0.00263029,0.00427658,-0.00309786,0.00665879,0.000248076,-0.915254,0.00435886,0.011014,1700,1611,18.7414,-37.0826
483,-587,18.6648,36.4257,0.00202561,0.00280873,-0.00244909,0.00489736,-6.30252e-05,-0.864667,0.00328612,0.013704,1707,1611,18.6648,-36.4257
490,-587,18.6324,35.7594,0.00138116,0.001466,-0.00184593,0.00327,-0.000422836,-0.796885,0.00233375,0.0165256,1714,1611,18.6324,-35.7594
497,-587,18.613,35.0905,0.000690122,0.000520858,-0.00134787,0.00195602,-0.000745039,-0.754045,0.00161085,0.0136016,1721,1611,18.613,-35.0905
504,-587,18.5742,34.4458,5.65044e-05,-0.000397164,-0.000863942,0.000722894,-0.00106355,-0.657017,0.00103764,0.0129749,1728,1611,18.5742,-34.4459
511,-587,18.532,33.798,-0.000512493,-0.00113571,-0.000317626,-0.000379145,-0.00126906,-0.397481,0.000752211,0.0151101,1735,1611,18.5319,-33.798
518,-587,18.5486,33.1064,-0.000959806,-0.00159741,6.90531e-05,-0.000952413,-0.0016048,0.106653,0.000931916,0.015486,1742,1611,18.5486,-33.1065
525,-587,18.5885,32.4962,-0.00138257,-0.0022405,0.000638899,-0.00104199,-0.00258109,0.489758,0.00149937,0.0274908,1749,1611,18.5885,-32.4962
532,-587,18.5568,31.7389,0,0,0,0,0,0,0,-1,1756,1611,18.5568,-31.7389
539,-587,19.714,31.2593,0,0,0,0,0,0,0,-1,1763,1611,19.7139,-31.2593
546,-587,17.6716,25.2673,0,0,0,0,0,0,0,-1,1770,1611,17.6716,-25.2674
553,-587,7.5813,8.45068,0,0,0,0,0,0,0,-1,1777,1611,7.58125,-8.45068
560,-587,4.21179,5.23547,0,0,0,0,0,0,0,-1,1784,1611,4.21185,-5.23553
567,-587,4.03711,5.46387,0,0,0,0,0,0,0,-1,1791,1611,4.03715,-5.46382
574,-587,3.83142,5.68884,0,0,0,0,0,0,0,-1,1798,1611,3.83141,-5.68881
581,-587,3.47168,6.00977,0,0,0,0,0,0,0,-1,1805,1611,3.47167,-6.00983
588,-587,0,0,0,0,0,0,0,0,0,-1,1812,1611,0,0
595,-587,0,0,0,0,0,0,0,0,0,-1,1819,1611,0,0
602,-587,0,0,0,0,0,0,0,0,0,-1,1826,1611,0,0
609,-587,0,0,0,0,0,0,0,0,0,-1,1833,1611,0,0
616,-587,0,0,0,0,0,0,0,0,0,-1,1840,1611,0,0
623,-587,0,0,0,0,0,0,0,0,0,-1,1847,1611,0,0
630,-587,0,0,0,0,0,0,0,0,0,-1,1854,1611,0,0
637,-587,0,0,0,0,0,0,0,0,0,-1,1861,1611,0,0
644,-587,0,0,0,0,0,0,0,0,0,-1,1868,1611,0,0
651,-587,0,0,0,0,0,0,0,0,0,-1,1875,1611,0,0
658,-587,0,0,0,0,0,0,0,0,0,-1,1882,1611,0,0
665,-587,0,0,0,0,0,0,0,0,0,-1,1889,1611,0,0
672,-587,0,0,0,0,0,0,0,0,0,-1,1896,1611,0,0
679,-587,0,0,0,0,0,0,0,0,0,-1,1903,1611,0,0
686,-587,0,0,0,0,0,0,0,0,0,-1,1910,1611,0,0
693,-587,0,0,0,0,0,0,0,0,0,-1,1917,1611,0,0
700,-587,0,0,0,0,0,0,0,0,0,-1,1924,1611,0,0
707,-587,0,0,0,0,0,0,0,0,0,-1,1931,1611,0,0
714,-587,0,0,0,0,0,0,0,0,0,-1,1938,1611,0,0
721,-587,0,0,0,0,0,0,0,0,0,-1,1945,1611,0,0
728,-587,0,0,0,0,0,0,0,0,0,-1,1952,1611,0,0
735,-587,0,0,0,0,0,0,0,0,0,-1,1959,1611,0,0
742,-587,0,0,0,0,0,0,0,0,0,-1,1966,1611,0,0
749,-587,0,0,0,0,0,0,0,0,0,-1,1973,1611,0,0
756,-587,0,0,0,0,0,0,0,0,0,-1,1980,1611,0,0
763,-587,0,0,0,0,0,0,0,0,0,-1,1987,1611,0,0
770,-587,0,0,0,0,0,0,0,0,0,-1,1994,1611,0,0
777,-587,0,0,0,0,0,0,0,0,0,-1,2001,1611,0,0
784,-587,0,0,0,0,0,0,0,0,0,-1,2008,1611,0,0
791,-587,0,0,0,0,0,0,0,0,0,-1,2015,1611,0,0
798,-587,0,0,0,0,0,0,0,0,0,-1,2022,1611,0,0
805,-587,0,0,0,0,0,0,0,0,0,-1,2029,1611,0,0
812,-587,0,0,0,0,0,0,0,0,0,-1,2036,1611,0,0
-700,-594,0,0,0,0,0,0,0,0,0,-1,524,1618,0,0
-693,-594,0,0,0,0,0,0,0,0,0,-1,531,1618,0,0
-686,-594,0,0,0,0,0,0,0,0,0,-1,538,1618,0,0
-679,-594,0,0,0,0,0,0,0,0,0,-1,545,1618,0,0
-672,-594,0,0,0,0,0,0,0,0,0,-1,552,1618,0,0
-665,-594,0,0,0,0,0,0,0,0,0,-1,559,1618,0,0
-658,-594,0,0,0,0,0,0,0,0,0,-1,566,1618,0,0
-651,-594,0,0,0,0,0,0,0,0,0,-1,573,1618,0,0
-644,-594,0,0,0,0,0,0,0,0,0,-1,580,1618,0,0
-637,-594,0,0,0,0,0,0,0,0,0,-1,587,1618,0,0
-630,-594,0,0,0,0,0,0,0,0,0,-1,594,1618,0,0
-623,-594,0,0,0,0,0,0,0,0,0,-1,601,1618,0,0
-616,-594,0,0,0,0,0,0,0,0,0,-1,608,1618,0,0
-609,-594,0,0,0,0,0,0,0,0,0,-1,615,1618,0,0
-602,-594,0,0,0,0,0,0,0,0,0,-1,622,1618,0,0
-595,-594,0,0,0,0,0,0,0,0,0,-1,629,1618,0,0
-588,-594,0,0,0,0,0,0,0,0,0,-1,636,1618,0,0
-581,-594,0,0,0,0,0,0,0,0,0,-1,643,1618,0,0
-574,-594,0,0,0,0,0,0,0,0,0,-1,650,1618,0,0
-567,-594,0,0,0,0,0,0,0,0,0,-1,657,1618,0,0
-560,-594,0,0,0,0,0,0,0,0,0,-1,664,1618,0,0
-553,-594,0,0,0,0,0,0,0,0,0,-1,671,1618,0,0
-546,-594,0,0,0,0,0,0,0,0,0,-1,678,1618,0,0
-539,-594,0,0,0,0,0,0,0,0,0,-1,685,1618,0,0
-532,-594,0,0,0,0,0,0,0,0,0,-1,692,1618,0,0
-525,-594,0,0,0,0,0,0,0,0,0,-1,699,1618,0,0
-518,-594,0,0,0,0,0,0,0,0,0,-1,706,1618,0,0
-511,-594,0,0,0,0,0,0,0,0,0,-1,713,1618,0,0
-504,-594,0,0,0,0,0,0,0,0,0,-1,720,1618,0,0
-497,-594,0,0,0,0,0,0,0,0,0,-1,727,1618,0,0
-490,-594,0,0,0,0,0,0,0,0,0,-1,734,1618,0,0
-483,-594,0,0,0,0,0,0,0,0,0,-1,741,1618,0,0
-476,-594,0,0,0,0,0,0,0,0,0,-1,748,1618,0,0
-469,-594,0,0,0,0,0,0,0,0,0,-1,755,1618,0,0
-462,-594,0,0,0,0,0,0,0,0,0,-1,762,1618,0,0
-455,-594,-0.509216,-1.58411,0,0,0,0,0,0,0,-1,769,1618,-0.509245,1.58415
-448,-594,-7.71887,-0.0559082,0,0,0,0,0,0,0,-1,776,1618,-7.71885,0.055939
-441,-594,-5.78473,1.18298,0,0,0,0,0,0,0,-1,783,1618,-5.78474,-1.18295
-434,-594,-3.93628,3.06213,0,0,0,0,0,0,0,-1,790,1618,-3.93631,-3.06208
-427,-594,-3.97693,6.77759,0,0,0,0,0,0,0,-1,797,1618,-3.97695,-6.77764
-420,-594,-2.53046,7.71606,0,0,0,0,0,0,0,-1,804,1618,-2.53047,-7.71609
-413,-594,-0.860413,8.00391,0,0,0,0,0,0,0,-1,811,1618,-0.860423,-8.00389
-406,-594,2.45746,13.6218,0,0,0,0,0,0,0,-1,818,1618,2.45747,-13.6218
-399,-594,1.30414,24.9963,0,0,0,0,0,0,0,-1,825,1618,1.30415,-24.9963
-392,-594,0.281982,32.6375,0,0,0,0,0,0,0,-1,832,1618,0.281964,-32.6374
-385,-594,0.190308,33.1732,-0.000917186,-0.0028662,0.000918186,-0.000552764,-0.00323062,0.377825,0.00199518,0.0464518,839,1618,0.190278,-33.1732
-378,-594,0.0498657,33.6747,-0.000508251,-0.00207896,0.00110947,6.57005e-05,-0.00265291,0.477407,0.00179091,0.0195551,846,1618,0.0498765,-33.6747
-371,-594,0.0700684,34.4495,-0.000206976,-0.00158266,0.00108814,0.000392492,-0.00218213,0.503543,0.0016017,0.0138304,853,1618,0.070051,-34.4494
-364,-594,0.06073,35.1339,0.000140707,-0.00121125,0.00110308,0.000758455,-0.001829,0.510505,0.0015359,0.0119627,860,1618,0.0607596,-35.1339
-357,-594,0.0284424,35.8055,0.000565316,-0.000727309,0.00118137,0.00126561,-0.0014276,0.535095,0.00155586,0.0121044,867,1618,0.0284718,-35.8055
-350,-594,-0.0131226,36.5331,0.00106014,-0.000246604,0.00127262,0.00183731,-0.00102378,0.548241,0.00167396,0.0169898,874,1618,-0.0131272,-36.5331
-343,-594,-0.0562744,37.2212,0.00154402,0.000336073,0.00140073,0.00246544,-0.000585353,0.581851,0.00186955,0.0186808,881,1618,-0.0562907,-37.2212
-336,-594,-0.110962,37.8511,0.00206504,0.00106563,0.00162179,0.00326236,-0.000131688,0.635953,0.00222011,0.0163826,888,1618,-0.110952,-37.8511
-329,-594,-0.12793,38.5245,0.00271182,0.00229552,0.00205862,0.00457279,0.000434551,0.735013,0.00291449,0.0161032,895,1618,-0.127924,-38.5245
-322,-594,-0.115967,39.2087,0.00343598,0.00410061,0.00273746,0.00652586,0.00101074,0.8458,0.00405586,0.017217,902,1618,-0.11597,-39.2088
-315,-594,-0.113037,39.8417,0.00431558,0.00607446,0.00361883,0.00891918,0.00147087,0.904596,0.00552152,0.017077,909,1618,-0.11306,-39.8416
-308,-594,-0.144592,40.4916,0.00528771,0.00817578,0.00457904,0.0115331,0.00193041,0.938141,0.00713286,0.0154212,916,1618,-0.14459,-40.4916
-301,-594,-0.181396,41.1121,0.00645894,0.0107102,0.00588583,0.0148425,0.00232668,0.958683,0.00921784,0.0121427,923,1618,-0.181403,-41.112
-294,-594,-0.154419,41.7561,0.00778105,0.0139808,0.00752863,0.0190228,0.00273908,0.980693,0.0118746,0.0134732,930,1618,-0.154391,-41.7562
-287,-594,-0.213196,42.4001,0.00941589,0.0177058,0.0094149,0.0238478,0.00327391,0.992759,0.0149274,0.019618,937,1618,-0.213187,-42.4001
-280,-594,-0.135071,43.1096,0.0114814,0.0216576,0.0117217,0.0293478,0.00379113,0.990166,0.0184319,0.0224474,944,1618,-0.135098,-43.1096
-273,-594,-0.0614624,43.8732,0.0136616,0.0258357,0.0141303,0.0351343,0.00436297,0.988775,0.0221125,0.02984,951,1618,-0.0614917,-43.8732
-266,-594,0.150452,44.7296,0.0159373,0.030035,0.0164876,0.0409173,0.00505495,0.987402,0.0257591,0.0382748,958,1618,0.150479,-44.7296
-259,-594,0.0220947,44.8743,0,0,0,0,0,0,0,-1,965,1618,0.022076,-44.8743
-252,-594,0.953491,44.1974,0,0,0,0,0,0,0,-1,972,1618,0.953496,-44.1973
-245,-594,2.27759,35.1766,0,0,0,0,0,0,0,-1,979,1618,2.27756,-35.1766
-238,-594,2.09015,28.0121,0,0,0,0,0,0,0,-1,986,1618,2.09012,-28.0121
-231,-594,1.93774,9.35388,0,0,0,0,0,0,0,-1,993,1618,1.93776,-9.35393
-224,-594,1.81824,8.62744,0,0,0,0,0,0,0,-1,1000,1618,1.81822,-8.62745
-217,-594,-8.24066,12.0752,0,0,0,0,0,0,0,-1,1007,1618,-8.24068,-12.0751
-210,-594,-5.61438,14.2119,0,0,0,0,0,0,0,-1,1014,1618,-5.6144,-14.212
-203,-594,-3.94507,15.5768,0,0,0,0,0,0,0,-1,1021,1618,-3.94506,-15.5768
-196,-594,2.78613,10.5815,0,0,0,0,0,0,0,-1,1028,1618,2.78612,-10.5815
-189,-594,2.60913,9.48865,0,0,0,0,0,0,0,-1,1035,1618,2.6091,-9.48871
-182,-594,1.2395,9.38806,0,0,0,0,0,0,0,-1,1042,1618,1.23951,-9.38804
-175,-594,0.234863,8.73792,0,0,0,0,0,0,0,-1,1049,1618,0.234812,-8.73786
-168,-594,-0.495483,8.46289,0,0,0,0,0,0,0,-1,1056,1618,-0.495513,-8.46285
-161,-594,-1.39734,8.28699,0,0,0,0,0,0,0,-1,1063,1618,-1.39729,-8.28699
-154,-594,-0.000854492,7.68445,0,0,0,0,0,0,0,-1,1070,1618,-0.000805755,-7.6845
-147,-594,0.348267,9.3385,0,0,0,0,0,0,0,-1,1077,1618,0.348237,-9.33849
-140,-594,0.675171,11.5884,0,0,0,0,0,0,0,-1,1084,1618,0.675204,-11.5884
-133,-594,0,0,0,0,0,0,0,0,0,-1,1091,1618,0,0
-126,-594,0,0,0,0,0,0,0,0,0,-1,1098,1618,0,0
-119,-594,0,0,0,0,0,0,0,0,0,-1,1105,1618,0,0
-112,-594,0,0,0,0,0,0,0,0,0,-1,1112,1618,0,0
-105,-594,0,0,0,0,0,0,0,0,0,-1,1119,1618,0,0
-98,-594,0,0,0,0,0,0,0,0,0,-1,1126,1618,0,0
-91,-594,0,0,0,0,0,0,0,0,0,-1,1133,1618,0,0
-84,-594,0,0,0,0,0,0,0,0,0,-1,1140,1618,0,0
-77,-594,0,0,0,0,0,0,0,0,0,-1,1147,1618,0,0
-70,-594,0,0,0,0,0,0,0,0,0,-1,1154,1618,0,0
-63,-594,0,0,0,0,0,0,0,0,0,-1,1161,1618,0,0
-56,-594,0,0,0,0,0,0,0,0,0,-1,1168,1618,0,0
-49,-594,0,0,0,0,0,0,0,0,0,-1,1175,1618,0,0
-42,-594,0,0,0,0,0,0,0,0,0,-1,1182,1618,0,0
-35,-594,0,0,0,0,0,0,0,0,0,-1,1189,1618,0,0
-28,-594,0,0,0,0,0,0,0,0,0,-1,1196,1618,0,0
-21,-594,0,0,0,0,0,0,0,0,0,-1,1203,1618,0,0
-14,-594,0,0,0,0,0,0,0,0,0,-1,1210,1618,0,0
-7,-594,0,0,0,0,0,0,0,0,0,-1,1217,1618,0,0
0,-594,0,0,0,0,0,0,0,0,0,-1,1224,1618,0,0
7,-594,0,0,0,0,0,0,0,0,0,-1,1231,1618,0,0
14,-594,0,0,0,0,0,0,0,0,0,-1,1238,1618,0,0
21,-594,0,0,0,0,0,0,0,0,0,-1,1245,1618,0,0
28,-594,0,0,0,0,0,0,0,0,0,-1,1252,1618,0,0
35,-594,0,0,0,0,0,0,0,0,0,-1,1259,1618,0,0
42,-594,0,0,0,0,0,0,0,0,0,-1,1266,1618,0,0
49,-594,0,0,0,0,0,0,0,0,0,-1,1273,1618,0,0
56,-594,0,0,0,0,0,0,0,0,0,-1,1280,1618,0,0
63,-594,0,0,0,0,0,0,0,0,0,-1,1287,1618,0,0
70,-594,0,0,0,0,0,0,0,0,0,-1,1294,1618,0,0
77,-594,0,0,0,0,0,0,0,0,0,-1,1301,1618,0,0
84,-594,0,0,0,0,0,0,0,0,0,-1,1308,1618,0,0
91,-594,0,0,0,0,0,0,0,0,0,-1,1315,1618,0,0
98,-594,0,0,0,0,0,0,0,0,0,-1,1322,1618,0,0
105,-594,0,0,0,0,0,0,0,0,0,-1,1329,1618,0,0
112,-594,0,0,0,0,0,0,0,0,0,-1,1336,1618,0,0
119,-594,0,0,0,0,0,0,0,0,0,-1,1343,1618,0,0
126,-594,0,0,0,0,0,0,0,0,0,-1,1350,1618,0,0
133,-594,0,0,0,0,0,0,0,0,0,-1,1357,1618,0,0
140,-594,0,0,0,0,0,0,0,0,0,-1,1364,1618,0,0
147,-594,0,0,0,0,0,0,0,0,0,-1,1371,1618,0,0
154,-594,0,0,0,0,0,0,0,0,0,-1,1378,1618,0,0
161,-594,0,0,0,0,0,0,0,0,0,-1,1385,1618,0,0
168,-594,0,0,0,0,0,0,0,0,0,-1,1392,1618,0,0
175,-594,0,0,0,0,0,0,0,0,0,-1,1399,1618,0,0
182,-594,0,0,0,0,0,0,0,0,0,-1,1406,1618,0,0
189,-594,0,0,0,0,0,0,0,0,0,-1,1413,1618,0,0
196,-594,0,0,0,0,0,0,0,0,0,-1,1420,1618,0,0
203,-594,0,0,0,0,0,0,0,0,0,-1,1427,1618,0,0
210,-594,0,0,0,0,0,0,0,0,0,-1,1434,1618,0,0
217,-594,0,0,0,0,0,0,0,0,0,-1,1441,1618,0,0
224,-594,0,0,0,0,0,0,0,0,0,-1,1448,1618,0,0
231,-594,0,0,0,0,0,0,0,0,0,-1,1455,1618,0,0
238,-594,0,0,0,0,0,0,0,0,0,-1,1462,1618,0,0
245,-594,0,0,0,0,0,0,0,0,0,-1,1469,1618,0,0
252,-594,3.03674,1.20996,0,0,0,0,0,0,0,-1,1476,1618,3.0368,-1.20999
259,-594,4.79834,1.53113,0,0,0,0,0,0,0,-1,1483,1618,4.79837,-1.53118
266,-594,3.71606,2.68152,0,0,0,0,0,0,0,-1,1490,1618,3.71609,-2.68149
273,-594,9.7655,6.33557,0,0,0,0,0,0,0,-1,1497,1618,9.76555,-6.33554
280,-594,3.13281,0.911255,0,0,0,0,0,0,0,-1,1504,1618,3.13277,-0.911207
287,-594,4.42749,1.51563,0,0,0,0,0,0,0,-1,1511,1618,4.42747,-1.51564
294,-594,5.36475,3.34937,0,0,0,0,0,0,0,-1,1518,1618,5.36475,-3.3494
301,-594,7.97144,9.04333,0,0,0,0,0,0,0,-1,1525,1618,7.9714,-9.04328
308,-594,6.30347,10.4633,0,0,0,0,0,0,0,-1,1532,1618,6.30351,-10.4633
315,-594,4.62012,11.934,0,0,0,0,0,0,0,-1,1539,1618,4.62006,-11.934
322,-594,2.91528,13.3134,0,0,0,0,0,0,0,-1,1546,1618,2.91523,-13.3133
329,-594,4.19861,9.77258,0,0,0,0,0,0,0,-1,1553,1618,4.19865,-9.77264
336,-594,10.1353,4.66528,0,0,0,0,0,0,0,-1,1560,1618,10.1353,-4.66533
343,-594,10.5729,3.71228,0,0,0,0,0,0,0,-1,1567,1618,10.5729,-3.71232
350,-594,10.219,2.98792,0,0,0,0,0,0,0,-1,1574,1618,10.219,-2.98797
357,-594,9.83154,1.96326,0,0,0,0,0,0,0,-1,1581,1618,9.8315,-1.96321
364,-594,9.74939,0.700562,0,0,0,0,0,0,0,-1,1588,1618,9.74939,-0.700615
371,-594,8.54297,14.3988,0,0,0,0,0,0,0,-1,1595,1618,8.54296,-14.3989
378,-594,17.1241,45.8274,0,0,0,0,0,0,0,-1,1602,1618,17.1241,-45.8274
385,-594,17.4525,45.205,0,0,0,0,0,0,0,-1,1609,1618,17.4525,-45.2049
392,-594,18.5007,44.7728,0,0,0,0,0,0,0,-1,1616,1618,18.5007,-44.7729
399,-594,18.5281,44.175,-0.00237196,0.0248466,-0.00543304,0.025891,-0.00341637,-1.38088,0.0185049,0.0416565,1623,1618,18.528,-44.1751
406,-594,18.3578,43.5385,-0.00210948,0.0215282,-0.00485553,0.0224867,-0.00306801,-1.37589,0.0161115,0.0256577,1630,1618,18.3577,-43.5385
413,-594,18.243,42.9086,-0.00135728,0.0188678,-0.00470026,0.0199067,-0.00239624,-1.35325,0.0141377,0.0182751,1637,1618,18.2431,-42.9086
420,-594,18.2198,42.2749,-0.000636165,0.0164315,-0.0045784,0.0175821,-0.00178676,-1.32459,0.0123601,0.0160774,1644,1618,18.2199,-42.2749
427,-594,18.2294,41.6323,-0.000105061,0.0141281,-0.00429568,0.0153241,-0.00130103,-1.29926,0.0106762,0.0132082,1651,1618,18.2293,-41.6323
434,-594,18.1838,40.9873,0.000591403,0.012231,-0.00424034,0.0136119,-0.000789532,-1.25596,0.00934892,0.0178187,1658,1618,18.1838,-40.9873
441,-594,18.1587,40.3295,0.00139332,0.0103099,-0.00414987,0.0119424,-0.000239183,-1.196,0.00804251,0.016011,1665,1618,18.1586,-40.3295
448,-594,18.1772,39.6948,0.00187716,0.00861197,-0.00391215,0.0104064,8.27527e-05,-1.14075,0.00691017,0.0157263,1672,1618,18.1772,-39.6948
455,-594,18.1245,39.0383,0.00220694,0.00699386,-0.00376429,0.00906118,0.000139624,-1.06857,0.00599479,0.0119934,1679,1618,18.1245,-39.0383
462,-594,18.1193,38.3855,0.00249461,0.00524295,-0.00345663,0.00758854,0.000149017,-0.974592,0.0050101,0.0138517,1686,1618,18.1193,-38.3855
469,-594,18.1199,37.7585,0.00239421,0.00384065,-0.00299007,0.00619372,4.1134e-05,-0.904056,0.00411551,0.0124642,1693,1618,18.1198,-37.7586
476,-594,18.0747,37.1169,0.00203404,0.00266263,-0.00251888,0.00488675,-0.000190081,-0.847466,0.00332301,0.0126032,1700,1618,18.0747,-37.1169
483,-594,18.035,36.455,0.00151368,0.00147632,-0.00206684,0.00356193,-0.000571927,-0.780879,0.00258643,0.0162222,1707,1618,18.035,-36.455
490,-594,17.9883,35.79,0.000921771,0.000461489,-0.00165057,0.00235817,-0.000974909,-0.716129,0.00197882,0.0140368,1714,1618,17.9882,-35.7901
497,-594,17.965,35.1138,0.000304478,-0.000290093,-0.00132309,0.00136327,-0.00134889,-0.674888,0.00156587,0.010776,1721,1618,17.9649,-35.1137
504,-594,17.944,34.4474,-0.000255342,-0.00096552,-0.000997651,0.000448529,-0.00166939,-0.614427,0.00128872,0.0111206,1728,1618,17.9439,-34.4474
511,-594,17.9163,33.7644,-0.000782519,-0.00159021,-0.000561733,-0.00049453,-0.0018782,-0.47374,0.00112415,0.0167524,1735,1618,17.9163,-33.7644
518,-594,17.8492,33.0802,-0.00121113,-0.00182422,-0.000281887,-0.00110123,-0.00193412,-0.371762,0.00112024,0.0245094,1742,1618,17.8492,-33.0802
525,-594,17.7693,32.4429,-0.00171481,-0.00244362,0.000320086,-0.00159419,-0.00256423,0.36037,0.00149501,0.0424508,1749,1618,17.7693,-32.4429
532,-594,17.8037,31.8126,0,0,0,0,0,0,0,-1,1756,1618,17.8038,-31.8126
539,-594,21.0237,24.9617,0,0,0,0,0,0,0,-1,1763,1618,21.0237,-24.9616
546,-594,7.48645,8.54785,0,0,0,0,0,0,0,-1,1770,1618,7.48639,-8.54789
553,-594,3.69714,5.68762,0,0,0,0,0,0,0,-1,1777,1618,3.69715,-5.68764
560,-594,6.06616,4.44482,0,0,0,0,0,0,0,-1,1784,1618,6.06621,-4.44477
567,-594,5.97266,4.73303,0,0,0,0,0,0,0,-1,1791,1618,5.97271,-4.73309
574,-594,5.9906,4.96326,0,0,0,0,0,0,0,-1,1798,1618,5.99065,-4.96326
581,-594,0,0,0,0,0,0,0,0,0,-1,1805,1618,0,0
588,-594,0,0,0,0,0,0,0,0,0,-1,1812,1618,0,0
595,-594,0,0,0,0,0,0,0,0,0,-1,1819,1618,0,0
602,-594,0,0,0,0,0,0,0,0,0,-1,1826,1618,0,0
609,-594,0,0,0,0,0,0,0,0,0,-1,1833,1618,0,0
616,-594,0,0,0,0,0,0,0,0,0,-1,1840,1618,0,0
623,-594,0,0,0,0,0,0,0,0,0,-1,1847,1618,0,0
630,-594,0,0,0,0,0,0,0,0,0,-1,1854,1618,0,0
637,-594,0,0,0,0,0,0,0,0,0,-1,1861,1618,0,0
644,-594,0,0,0,0,0,0,0,0,0,-1,1868,1618,0,0
651,-594,0,0,0,0,0,0,0,0,0,-1,1875,1618,0,0
658,-594,0,0,0,0,0,0,0,0,0,-1,1882,1618,0,0
665,-594,0,0,0,0,0,0,0,0,0,-1,1889,1618,0,0
672,-594,0,0,0,0,0,0,0,0,0,-1,1896,1618,0,0
679,-594,0,0,0,0,0,0,0,0,0,-1,1903,1618,0,0
686,-594,0,0,0,0,0,0,0,0,0,-1,1910,1618,0,0
693,-594,0,0,0,0,0,0,0,0,0,-1,1917,1618,0,0
700,-594,0,0,0,0,0,0,0,0,0,-1,1924,1618,0,0
707,-594,0,0,0,0,0,0,0,0,0,-1,1931,1618,0,0
714,-594,0,0,0,0,0,0,0,0,0,-1,1938,1618,0,0
721,-594,0,0,0,0,0,0,0,0,0,-1,1945,1618,0,0
728,-594,0,0,0,0,0,0,0,0,0,-1,1952,1618,0,0
735,-594,0,0,0,0,0,0,0,0,0,-1,1959,1618,0,0
742,-594,0,0,0,0,0,0,0,0,0,-1,1966,1618,0,0
749,-594,0,0,0,0,0,0,0,0,0,-1,1973,1618,0,0
756,-594,0,0,0,0,0,0,0,0,0,-1,1980,1618,0,0
763,-594,0,0,0,0,0,0,0,0,0,-1,1987,1618,0,0
770,-594,0,0,0,0,0,0,0,0,0,-1,1994,1618,0,0
777,-594,0,0,0,0,0,0,0,0,0,-1,2001,1618,0,0
784,-594,0,0,0,0,0,0,0,0,0,-1,2008,1618,0,0
791,-594,0,0,0,0,0,0,0,0,0,-1,2015,1618,0,0
798,-594,0,0,0,0,0,0,0,0,0,-1,2022,1618,0,0
805,-594,0,0,0,0,0,0,0,0,0,-1,2029,1618,0,0
812,-594,0,0,0,0,0,0,0,0,0,-1,2036,1618,0,0
-700,-601,0,0,0,0,0,0,0,0,0,-1,524,1625,0,0
-693,-601,0,0,0,0,0,0,0,0,0,-1,531,1625,0,0
-686,-601,0,0,0,0,0,0,0,0,0,-1,538,1625,0,0
-679,-601,0,0,0,0,0,0,0,0,0,-1,545,1625,0,0
-672,-601,0,0,0,0,0,0,0,0,0,-1,552,1625,0,0
-665,-601,0,0,0,0,0,0,0,0,0,-1,559,1625,0,0
-658,-601,0,0,0,0,0,0,0,0,0,-1,566,1625,0,0
-651,-601,0,0,0,0,0,0,0,0,0,-1,573,1625,0,0
-644,-601,0,0,0,0,0,0,0,0,0,-1,580,1625,0,0
-637,-601,0,0,0,0,0,0,0,0,0,-1,587,1625,0,0
-630,-601,0,0,0,0,0,0,0,0,0,-1,594,1625,0,0
-623,-601,0,0,0,0,0,0,0,0,0,-1,601,1625,0,0
-616,-601,0,0,0,0,0,0,0,0,0,-1,608,1625,0,0
-609,-601,0,0,0,0,0,0,0,0,0,-1,615,1625,0,0
-602,-601,0,0,0,0,0,0,0,0,0,-1,622,1625,0,0
-595,-601,0,0,0,0,0,0,0,0,0,-1,629,1625,0,0
-588,-601,0,0,0,0,0,0,0,0,0,-1,636,1625,0,0
-581,-601,0,0,0,0,0,0,0,0,0,-1,643,1625,0,0
-574,-601,0,0,0,0,0,0,0,0,0,-1,650,1625,0,0
-567,-601,0,0,0,0,0,0,0,0,0,-1,657,1625,0,0
-560,-601,0,0,0,0,0,0,0,0,0,-1,664,1625,0,0
-553,-601,0,0,0,0,0,0,0,0,0,-1,671,1625,0,0
-546,-601,0,0,0,0,0,0,0,0,0,-1,678,1625,0,0
-539,-601,0,0,0,0,0,0,0,0,0,-1,685,1625,0,0
-532,-601,0,0,0,0,0,0,0,0,0,-1,692,1625,0,0
-525,-601,0,0,0,0,0,0,0,0,0,-1,699,1625,0,0
-518,-601,0,0,0,0,0,0,0,0,0,-1,706,1625,0,0
-511,-601,0,0,0,0,0,0,0,0,0,-1,713,1625,0,0
-504,-601,0,0,0,0,0,0,0,0,0,-1,720,1625,0,0
-497,-601,0,0,0,0,0,0,0,0,0,-1,727,1625,0,0
-490,-601,0,0,0,0,0,0,0,0,0,-1,734,1625,0,0
-483,-601,0,0,0,0,0,0,0,0,0,-1,741,1625,0,0
-476,-601,0,0,0,0,0,0,0,0,0,-1,748,1625,0,0
-469,-601,0,0,0,0,0,0,0,0,0,-1,755,1625,0,0
-462,-601,0,0,0,0,0,0,0,0,0,-1,762,1625,0,0
-455,-601,0,0,0,0,0,0,0,0,0,-1,769,1625,0,0
-448,-601,-7.07623,2.7616,0,0,0,0,0,0,0,-1,776,1625,-7.07626,-2.76161
-441,-601,-6.06689,3.33447,0,0,0,0,0,0,0,-1,783,1625,-6.06691,-3.33448
-434,-601,-5.02655,3.8468,0,0,0,0,0,0,0,-1,790,1625,-5.02657,-3.84674
-427,-601,-5.78601,4.2406,0,0,0,0,0,0,0,-1,797,1625,-5.786,-4.24058
-420,-601,-5.5191,5.60364,0,0,0,0,0,0,0,-1,804,1625,-5.51907,-5.60368
-413,-601,-4.30756,5.86047,0,0,0,0,0,0,0,-1,811,1625,-4.30757,-5.86046
-406,-601,-1.67493,7.20422,0,0,0,0,0,0,0,-1,818,1625,-1.67493,-7.20428
-399,-601,1.40094,15.3108,0,0,0,0,0,0,0,-1,825,1625,1.40096,-15.3107
-392,-601,0.678833,30.98,0,0,0,0,0,0,0,-1,832,1625,0.678827,-30.98
-385,-601,0.931702,33.5482,0,0,0,0,0,0,0,-1,839,1625,0.931681,-33.5482
-378,-601,0.727661,33.8069,-0.000522666,-0.00231024,0.00151872,0.000345756,-0.00317866,0.519433,0.00224326,0.047861,846,1625,0.727648,-33.8068
-371,-601,0.74823,34.3793,-0.00021685,-0.00184416,0.00147326,0.000652509,-0.00271352,0.533102,0.00206123,0.0250921,853,1625,0.748231,-34.3793
-364,-601,0.736572,35.1313,7.29375e-05,-0.00158107,0.00141067,0.000881151,-0.00238929,0.520275,0.00195396,0.0137322,860,1625,0.736555,-35.1313
-357,-601,0.68042,35.8431,0.000447083,-0.00118346,0.00144118,0.00128761,-0.00202398,0.52799,0.00192764,0.0112262,867,1625,0.68043,-35.8431
-350,-601,0.683777,36.6086,0.000869733,-0.0007823,0.00147409,0.00173347,-0.00164603,0.530019,0.00195137,0.0220154,874,1625,0.683801,-36.6086
-343,-601,0.614624,37.2985,0.00129794,-0.00024111,0.00153612,0.00224651,-0.00118968,0.553193,0.00201492,0.0248168,881,1625,0.614605,-37.2984
-336,-601,0.524353,37.9214,0.00172069,0.000374335,0.00163442,0.00281513,-0.000720109,0.590047,0.00215724,0.022648,888,1625,0.524355,-37.9214
-329,-601,0.53009,38.5989,0.00223135,0.0013828,0.00190354,0.00375733,-0.000143176,0.675748,0.00255395,0.0193866,895,1625,0.530068,-38.5989
-322,-601,0.552368,39.2559,0.00276468,0.00280117,0.00235148,0.00513447,0.000431379,0.789277,0.00328863,0.0145387,902,1625,0.552381,-39.2559
-315,-601,0.542847,39.8485,0.00342129,0.00437545,0.00296832,0.00690478,0.000891958,0.865079,0.00433655,0.0144257,909,1625,0.542854,-39.8485
-308,-601,0.493713,40.4978,0.00418963,0.00605759,0.00364931,0.00889054,0.00135668,0.910675,0.00553055,0.0132557,916,1625,0.493735,-40.4977
-301,-601,0.484985,41.1637,0.0051095,0.00806204,0.00460637,0.0114229,0.00174862,0.940469,0.0071045,0.0106511,923,1625,0.484955,-41.1637
-294,-601,0.468811,41.801,0.00614237,0.0106265,0.00582477,0.0146258,0.00214307,0.969118,0.00912051,0.0104136,930,1625,0.468817,-41.8011
-287,-601,0.412415,42.4524,0.00739792,0.0134346,0.00717366,0.0181991,0.00263349,0.984533,0.0113571,0.0107992,937,1625,0.412405,-42.4524
-280,-601,0.41864,43.0782,0.00901716,0.016334,0.00881217,0.022217,0.00313419,0.98215,0.013885,0.0125751,944,1625,0.418612,-43.0782
-273,-601,0.42511,43.7275,0.0107226,0.0192793,0.010495,0.0263344,0.00366741,0.978943,0.0164705,0.013511,951,1625,0.425114,-43.7276
-266,-601,0.487,44.3939,0.0125145,0.02223,0.0121505,0.0304578,0.00428666,0.975564,0.0190379,0.0165873,958,1625,0.487,-44.3939
-259,-601,0.559875,44.954,0.0144034,0.0249494,0.0137437,0.0343969,0.00495594,0.968572,0.0214708,0.0303738,965,1625,0.559872,-44.954
-252,-601,0.801086,45.6594,0,0,0,0,0,0,0,-1,972,1625,0.801076,-45.6594
-245,-601,0.608948,46.924,0,0,0,0,0,0,0,-1,979,1625,0.608938,-46.9239
-238,-601,2.75482,35.777,0,0,0,0,0,0,0,-1,986,1625,2.75481,-35.777
-231,-601,2.66772,13.7051,0,0,0,0,0,0,0,-1,993,1625,2.6677,-13.7051
-224,-601,-0.0305176,9.13684,0,0,0,0,0,0,0,-1,1000,1625,-0.030498,-9.13681
-217,-601,3.39429,10.3898,0,0,0,0,0,0,0,-1,1007,1625,3.39431,-10.3898
-210,-601,-6.53699,15.7931,0,0,0,0,0,0,0,-1,1014,1625,-6.53697,-15.7931
-203,-601,2.69348,15.9099,0,0,0,0,0,0,0,-1,1021,1625,2.69351,-15.91
-196,-601,2.66992,16.1815,0,0,0,0,0,0,0,-1,1028,1625,2.66995,-16.1815
-189,-601,2.849,16.6105,0,0,0,0,0,0,0,-1,1035,1625,2.84902,-16.6104
-182,-601,1.82153,13.9752,0,0,0,0,0,0,0,-1,1042,1625,1.82155,-13.9752
-175,-601,0.544922,9.28687,0,0,0,0,0,0,0,-1,1049,1625,0.544879,-9.28685
-168,-601,-0.247559,8.97461,0,0,0,0,0,0,0,-1,1056,1625,-0.247598,-8.97466
-161,-601,-1.16833,8.80078,0,0,0,0,0,0,0,-1,1063,1625,-1.16837,-8.80081
-154,-601,1.12756,7.94861,0,0,0,0,0,0,0,-1,1070,1625,1.12762,-7.94855
-147,-601,1.35352,9.55432,0,0,0,0,0,0,0,-1,1077,1625,1.35351,-9.55429
-140,-601,1.72437,11.1498,0,0,0,0,0,0,0,-1,1084,1625,1.72432,-11.1498
-133,-601,2.13281,12.8347,0,0,0,0,0,0,0,-1,1091,1625,2.13287,-12.8348
-126,-601,3.09534,15.427,0,0,0,0,0,0,0,-1,1098,1625,3.0953,-15.4271
-119,-601,1.22485,9.43457,0,0,0,0,0,0,0,-1,1105,1625,1.22489,-9.43456
-112,-601,0,0,0,0,0,0,0,0,0,-1,1112,1625,0,0
-105,-601,0,0,0,0,0,0,0,0,0,-1,1119,1625,0,0
-98,-601,0,0,0,0,0,0,0,0,0,-1,1126,1625,0,0
-91,-601,0,0,0,0,0,0,0,0,0,-1,1133,1625,0,0
-84,-601,0,0,0,0,0,0,0,0,0,-1,1140,1625,0,0
-77,-601,0,0,0,0,0,0,0,0,0,-1,1147,1625,0,0
-70,-601,0,0,0,0,0,0,0,0,0,-1,1154,1625,0,0
-63,-601,0,0,0,0,0,0,0,0,0,-1,1161,1625,0,0
-56,-601,0,0,0,0,0,0,0,0,0,-1,1168,1625,0,0
-49,-601,0,0,0,0,0,0,0,0,0,-1,1175,1625,0,0
-42,-601,0,0,0,0,0,0,0,0,0,-1,1182,1625,0,0
-35,-601,0,0,0,0,0,0,0,0,0,-1,1189,1625,0,0
-28,-601,0,0,0,0,0,0,0,0,0,-1,1196,1625,0,0
-21,-601,0,0,0,0,0,0,0,0,0,-1,1203,1625,0,0
-14,-601,0,0,0,0,0,0,0,0,0,-1,1210,1625,0,0
-7,-601,0,0,0,0,0,0,0,0,0,-1,1217,1625,0,0
0,-601,0,0,0,0,0,0,0,0,0,-1,1224,1625,0,0
7,-601,0,0,0,0,0,0,0,0,0,-1,1231,1625,0,0
14,-601,0,0,0,0,0,0,0,0,0,-1,1238,1625,0,0
21,-601,0,0,0,0,0,0,0,0,0,-1,1245,1625,0,0
28,-601,0,0,0,0,0,0,0,0,0,-1,1252,1625,0,0
35,-601,0,0,0,0,0,0,0,0,0,-1,1259,1625,0,0
42,-601,0,0,0,0,0,0,0,0,0,-1,1266,1625,0,0
49,-601,0,0,0,0,0,0,0,0,0,-1,1273,1625,0,0
56,-601,0,0,0,0,0,0,0,0,0,-1,1280,1625,0,0
63,-601,0,0,0,0,0,0,0,0,0,-1,1287,1625,0,0
70,-601,0,0,0,0,0,0,0,0,0,-1,1294,1625,0,0
77,-601,0,0,0,0,0,0,0,0,0,-1,1301,1625,0,0
84,-601,0,0,0,0,0,0,0,0,0,-1,1308,1625,0,0
91,-601,0,0,0,0,0,0,0,0,0,-1,1315,1625,0,0
98,-601,0,0,0,0,0,0,0,0,0,-1,1322,1625,0,0
105,-601,0,0,0,0,0,0,0,0,0,-1,1329,1625,0,0
112,-601,0,0,0,0,0,0,0,0,0,-1,1336,1625,0,0
119,-601,0,0,0,0,0,0,0,0,0,-1,1343,1625,0,0
126,-601,0,0,0,0,0,0,0,0,0,-1,1350,1625,0,0
133,-601,0,0,0,0,0,0,0,0,0,-1,1357,1625,0,0
140,-601,0,0,0,0,0,0,0,0,0,-1,1364,1625,0,0
147,-601,0,0,0,0,0,0,0,0,0,-1,1371,1625,0,0
154,-601,0,0,0,0,0,0,0,0,0,-1,1378,1625,0,0
161,-601,0,0,0,0,0,0,0,0,0,-1,1385,1625,0,0
168,-601,0,0,0,0,0,0,0,0,0,-1,1392,1625,0,0
175,-601,0,0,0,0,0,0,0,0,0,-1,1399,1625,0,0
182,-601,0,0,0,0,0,0,0,0,0,-1,1406,1625,0,0
189,-601,0,0,0,0,0,0,0,0,0,-1,1413,1625,0,0
196,-601,0,0,0,0,0,0,0,0,0,-1,1420,1625,0,0
203,-601,0,0,0,0,0,0,0,0,0,-1,1427,1625,0,0
210,-601,0,0,0,0,0,0,0,0,0,-1,1434,1625,0,0
217,-601,0,0,0,0,0,0,0,0,0,-1,1441,1625,0,0
224,-601,0,0,0,0,0,0,0,0,0,-1,1448,1625,0,0
231,-601,-0.0371094,0.525879,0,0,0,0,0,0,0,-1,1455,1625,-0.0371518,-0.525824
238,-601,2.03369,-1.32861,0,0,0,0,0,0,0,-1,1462,1625,2.03364,1.32858
245,-601,2.71375,2.44983,0,0,0,0,0,0,0,-1,1469,1625,2.71371,-2.44979
252,-601,4.66943,2.28381,0,0,0,0,0,0,0,-1,1476,1625,4.66947,-2.28376
259,-601,6.42712,2.61987,0,0,0,0,0,0,0,-1,1483,1625,6.42711,-2.61985
266,-601,6.75317,1.68701,0,0,0,0,0,0,0,-1,1490,1625,6.75323,-1.687
273,-601,5.4314,2.92053,0,0,0,0,0,0,0,-1,1497,1625,5.43144,-2.92051
280,-601,4.64722,1.17786,0,0,0,0,0,0,0,-1,1504,1625,4.64722,-1.1779
287,-601,5.32532,2.6217,0,0,0,0,0,0,0,-1,1511,1625,5.32535,-2.62171
294,-601,5.97693,4.22693,0,0,0,0,0,0,0,-1,1518,1625,5.97697,-4.22694
301,-601,7.28162,9.50024,0,0,0,0,0,0,0,-1,1525,1625,7.28162,-9.50025
308,-601,6.53528,10.3927,0,0,0,0,0,0,0,-1,1532,1625,6.53529,-10.3927
315,-601,4.88013,11.7184,0,0,0,0,0,0,0,-1,1539,1625,4.88015,-11.7184
322,-601,3.38098,12.7864,0,0,0,0,0,0,0,-1,1546,1625,3.38104,-12.7864
329,-601,1.8772,13.8768,0,0,0,0,0,0,0,-1,1553,1625,1.87716,-13.8768
336,-601,4.67847,9.53308,0,0,0,0,0,0,0,-1,1560,1625,4.67848,-9.53309
343,-601,11.1404,3.14575,0,0,0,0,0,0,0,-1,1567,1625,11.1404,-3.1458
350,-601,10.9462,2.37769,0,0,0,0,0,0,0,-1,1574,1625,10.9461,-2.37764
357,-601,10.7518,1.6095,0,0,0,0,0,0,0,-1,1581,1625,10.7518,-1.60948
364,-601,5.33643,9.74426,0,0,0,0,0,0,0,-1,1588,1625,5.33637,-9.74429
371,-601,16.4049,47.8789,0,0,0,0,0,0,0,-1,1595,1625,16.4049,-47.8789
378,-601,16.9058,45.6639,0,0,0,0,0,0,0,-1,1602,1625,16.9058,-45.664
385,-601,17.4528,45.4465,0,0,0,0,0,0,0,-1,1609,1625,17.4527,-45.4466
392,-601,17.5177,44.7888,0.000122564,0.0219002,-0.00512676,0.0230468,-0.00102398,-1.35078,0.015717,0.0417282,1616,1625,17.5177,-44.7888
399,-601,17.6182,44.0802,-0.000349532,0.0189898,-0.0042365,0.0198771,-0.00123687,-1.36433,0.0136823,0.0206458,1623,1625,17.6182,-44.0803
406,-601,17.653,43.443,-0.000487315,0.0162742,-0.00365976,0.0170384,-0.00125155,-1.36493,0.0117983,0.0134166,1630,1625,17.6529,-43.443
413,-601,17.6031,42.8352,-0.000217974,0.0140587,-0.00340594,0.0148296,-0.000988889,-1.3482,0.010232,0.0128764,1637,1625,17.6031,-42.8352
420,-601,17.6005,42.1903,0.000107117,0.0121372,-0.00325654,0.0129622,-0.00071785,-1.32269,0.00889042,0.0114462,1644,1625,17.6005,-42.1904
427,-601,17.582,41.592,0.000311404,0.0102819,-0.0030212,0.0111259,-0.000532617,-1.29838,0.00760101,0.0152964,1651,1625,17.582,-41.592
434,-601,17.5416,40.9427,0.000735756,0.00886635,-0.00305628,0.00988706,-0.000284953,-1.24847,0.00668838,0.0160902,1658,1625,17.5416,-40.9428
441,-601,17.5406,40.3092,0.00131677,0.00743101,-0.00309863,0.00872676,2.10172e-05,-1.17473,0.00581085,0.0171957,1665,1625,17.5406,-40.3092
448,-601,17.5349,39.6932,0.0017004,0.00615417,-0.00302605,0.00768441,0.000170162,-1.10261,0.00506717,0.0152324,1672,1625,17.535,-39.6932
455,-601,17.5189,39.0343,0.00197383,0.00493648,-0.00301694,0.00681615,9.41581e-05,-1.01361,0.00451304,0.0138302,1679,1625,17.5189,-39.0344
462,-601,17.4949,38.3961,0.00216459,0.00359929,-0.00286818,0.00583847,-7.45829e-05,-0.907937,0.00391741,0.0126047,1686,1625,17.4949,-38.3961
469,-601,17.4827,37.7866,0.00205986,0.00249429,-0.00260489,0.004891,-0.000336854,-0.826996,0.00337855,0.0121374,1693,1625,17.4827,-37.7866
476,-601,17.4392,37.145,0.00177852,0.00156818,-0.00229342,0.00396918,-0.000622478,-0.762486,0.00287615,0.0133908,1700,1625,17.4392,-37.145
483,-601,17.3783,36.4874,0.00133678,0.000607205,-0.00200943,0.00301426,-0.00107028,-0.695607,0.00244562,0.0170193,1707,1625,17.3783,-36.4874
490,-601,17.3397,35.8365,0.000781038,-0.000126309,-0.00175434,0.00213941,-0.00148469,-0.65887,0.00210373,0.0139513,1714,1625,17.3397,-35.8365
497,-601,17.3308,35.1617,0.000216229,-0.000733928,-0.00157959,0.00139064,-0.00190834,-0.639321,0.00191247,0.0122462,1721,1625,17.3308,-35.1617
504,-601,17.3845,34.4713,-0.000317783,-0.00119017,-0.00141712,0.00072875,-0.00223671,-0.636097,0.00178437,0.0241335,1728,1625,17.3845,-34.4713
511,-601,17.2947,33.9158,-0.000911289,-0.00177547,-0.00107242,-0.000187185,-0.00249957,-0.593891,0.00160762,0.0396985,1735,1625,17.2946,-33.9158
518,-601,17.1782,33.2023,-0.00142105,-0.00177233,-0.000915412,-0.000664581,-0.0025288,-0.690618,0.00151377,0.0469095,1742,1625,17.1782,-33.2023
525,-601,17.1349,32.4939,0,0,0,0,0,0,0,-1,1749,1625,17.1348,-32.4939
532,-601,16.3573,21.5406,0,0,0,0,0,0,0,-1,1756,1625,16.3573,-21.5406
539,-601,7.77112,11.4299,0,0,0,0,0,0,0,-1,1763,1625,7.77116,-11.4299
546,-601,6.56873,3.62354,0,0,0,0,0,0,0,-1,1770,1625,6.56867,-3.62352
553,-601,7.03015,4.25049,0,0,0,0,0,0,0,-1,1777,1625,7.03011,-4.25048
560,-601,7.50745,4.83374,0,0,0,0,0,0,0,-1,1784,1625,7.50744,-4.83376
567,-601,7.82043,3.83301,0,0,0,0,0,0,0,-1,1791,1625,7.82041,-3.83303
574,-601,0,0,0,0,0,0,0,0,0,-1,1798,1625,0,0
581,-601,0,0,0,0,0,0,0,0,0,-1,1805,1625,0,0
588,-601,0,0,0,0,0,0,0,0,0,-1,1812,1625,0,0
595,-601,0,0,0,0,0,0,0,0,0,-1,1819,1625,0,0
602,-601,0,0,0,0,0,0,0,0,0,-1,1826,1625,0,0
609,-601,0,0,0,0,0,0,0,0,0,-1,1833,1625,0,0
616,-601,0,0,0,0,0,0,0,0,0,-1,1840,1625,0,0
623,-601,0,0,0,0,0,0,0,0,0,-1,1847,1625,0,0
630,-601,0,0,0,0,0,0,0,0,0,-1,1854,1625,0,0
637,-601,0,0,0,0,0,0,0,0,0,-1,1861,1625,0,0
644,-601,0,0,0,0,0,0,0,0,0,-1,1868,1625,0,0
651,-601,0,0,0,0,0,0,0,0,0,-1,1875,1625,0,0
658,-601,0,0,0,0,0,0,0,0,0,-1,1882,1625,0,0
665,-601,0,0,0,0,0,0,0,0,0,-1,1889,1625,0,0
672,-601,0,0,0,0,0,0,0,0,0,-1,1896,1625,0,0
679,-601,0,0,0,0,0,0,0,0,0,-1,1903,1625,0,0
686,-601,0,0,0,0,0,0,0,0,0,-1,1910,1625,0,0
693,-601,0,0,0,0,0,0,0,0,0,-1,1917,1625,0,0
700,-601,0,0,0,0,0,0,0,0,0,-1,1924,1625,0,0
707,-601,0,0,0,0,0,0,0,0,0,-1,1931,1625,0,0
714,-601,0,0,0,0,0,0,0,0,0,-1,1938,1625,0,0
721,-601,0,0,0,0,0,0,0,0,0,-1,1945,1625,0,0
728,-601,0,0,0,0,0,0,0,0,0,-1,1952,1625,0,0
735,-601,0,0,0,0,0,0,0,0,0,-1,1959,1625,0,0
742,-601,0,0,0,0,0,0,0,0,0,-1,1966,1625,0,0
749,-601,0,0,0,0,0,0,0,0,0,-1,1973,1625,0,0
756,-601,0,0,0,0,0,0,0,0,0,-1,1980,1625,0,0
763,-601,0,0,0,0,0,0,0,0,0,-1,1987,1625,0,0
770,-601,0,0,0,0,0,0,0,0,0,-1,1994,1625,0,0
777,-601,0,0,0,0,0,0,0,0,0,-1,2001,1625,0,0
784,-601,0,0,0,0,0,0,0,0,0,-1,2008,1625,0,0
791,-601,0,0,0,0,0,0,0,0,0,-1,2015,1625,0,0
798,-601,0,0,0,0,0,0,0,0,0,-1,2022,1625,0,0
805,-601,0,0,0,0,0,0,0,0,0,-1,2029,1625,0,0
812,-601,0,0,0,0,0,0,0,0,0,-1,2036,1625,0,0
-700,-608,0,0,0,0,0,0,0,0,0,-1,524,1632,0,0
-693,-608,0,0,0,0,0,0,0,0,0,-1,531,1632,0,0
-686,-608,0,0,0,0,0,0,0,0,0,-1,538,1632,0,0
-679,-608,0,0,0,0,0,0,0,0,0,-1,545,1632,0,0
-672,-608,0,0,0,0,0,0,0,0,0,-1,552,1632,0,0
-665,-608,0,0,0,0,0,0,0,0,0,-1,559,1632,0,0
-658,-608,0,0,0,0,0,0,0,0,0,-1,566,1632,0,0
-651,-608,0,0,0,0,0,0,0,0,0,-1,573,1632,0,0
-644,-608,0,0,0,0,0,0,0,0,0,-1,580,1632,0,0
-637,-608,0,0,0,0,0,0,0,0,0,-1,587,1632,0,0
-630,-608,0,0,0,0,0,0,0,0,0,-1,594,1632,0,0
-623,-608,0,0,0,0,0,0,0,0,0,-1,601,1632,0,0
-616,-608,0,0,0,0,0,0,0,0,0,-1,608,1632,0,0
-609,-608,0,0,0,0,0,0,0,0,0,-1,615,1632,0,0
-602,-608,0,0,0,0,0,0,0,0,0,-1,622,1632,0,0
-595,-608,0,0,0,0,0,0,0,0,0,-1,629,1632,0,0
-588,-608,0,0,0,0,0,0,0,0,0,-1,636,1632,0,0
-581,-608,0,0,0,0,0,0,0,0,0,-1,643,1632,0,0
-574,-608,0,0,0,0,0,0,0,0,0,-1,650,1632,0,0
-567,-608,0,0,0,0,0,0,0,0,0,-1,657,1632,0,0
-560,-608,0,0,0,0,0,0,0,0,0,-1,664,1632,0,0
-553,-608,0,0,0,0,0,0,0,0,0,-1,671,1632,0,0
-546,-608,0,0,0,0,0,0,0,0,0,-1,678,1632,0,0
-539,-608,0,0,0,0,0,0,0,0,0,-1,685,1632,0,0
-532,-608,0,0,0,0,0,0,0,0,0,-1,692,1632,0,0
-525,-608,0,0,0,0,0,0,0,0,0,-1,699,1632,0,0
-518,-608,0,0,0,0,0,0,0,0,0,-1,706,1632,0,0
-511,-608,0,0,0,0,0,0,0,0,0,-1,713,1632,0,0
-504,-608,0,0,0,0,0,0,0,0,0,-1,720,1632,0,0
-497,-608,0,0,0,0,0,0,0,0,0,-1,727,1632,0,0
-490,-608,0,0,0,0,0,0,0,0,0,-1,734,1632,0,0
-483,-608,0,0,0,0,0,0,0,0,0,-1,741,1632,0,0
-476,-608,0,0,0,0,0,0,0,0,0,-1,748,1632,0,0
-469,-608,0,0,0,0,0,0,0,0,0,-1,755,1632,0,0
-462,-608,0,0,0,0,0,0,0,0,0,-1,762,1632,0,0
-455,-608,0,0,0,0,0,0,0,0,0,-1,769,1632,0,0
-448,-608,0,0,0,0,0,0,0,0,0,-1,776,1632,0,0
-441,-608,-7.34601,2.78052,0,0,0,0,0,0,0,-1,783,1632,-7.346,-2.78056
-434,-608,-6.34558,3.27405,0,0,0,0,0,0,0,-1,790,1632,-6.34555,-3.27406
-427,-608,-7.74335,4.17688,0,0,0,0,0,0,0,-1,797,1632,-7.74334,-4.17693
-420,-608,-6.82794,4.34839,0,0,0,0,0,0,0,-1,804,1632,-6.82794,-4.34838
-413,-608,-5.41919,5.66138,0,0,0,0,0,0,0,-1,811,1632,-5.41917,-5.66133
-406,-608,-4.79681,4.98999,0,0,0,0,0,0,0,-1,818,1632,-4.79684,-4.98997
-399,-608,-2.60645,6.34167,0,0,0,0,0,0,0,-1,825,1632,-2.60643,-6.34169
-392,-608,2.08356,15.437,0,0,0,0,0,0,0,-1,832,1632,2.08354,-15.437
-385,-608,1.51526,31.5153,0,0,0,0,0,0,0,-1,839,1632,1.51527,-31.5153
-378,-608,1.401,33.8213,0,0,0,0,0,0,0,-1,846,1632,1.40098,-33.8213
-371,-608,1.61926,34.309,0,0,0,0,0,0,0,-1,853,1632,1.61929,-34.309
-364,-608,1.49103,35.0579,0.000286804,-0.00178307,0.00174516,0.00128083,-0.00277709,0.517757,0.00239534,0.0278878,860,1632,1.49104,-35.0578
-357,-608,1.35266,35.8129,0.000637052,-0.0014312,0.00175181,0.00163719,-0.00243134,0.518763,0.00236384,0.0183417,867,1632,1.35264,-35.8129
-350,-608,1.34857,36.5597,0.00100673,-0.00108176,0.0017489,0.00199942,-0.00207445,0.516262,0.00235218,0.0188701,874,1632,1.34858,-36.5596
-343,-608,1.33252,37.2504,0.00138645,-0.000557153,0.00174902,0.00241552,-0.00158622,0.531822,0.00232688,0.0254883,881,1632,1.33253,-37.2504
-336,-608,1.24121,37.9552,0.0017068,-3.72745e-05,0.00173216,0.00277404,-0.00110452,0.552201,0.0023074,0.0186959,888,1632,1.24122,-37.9551
-329,-608,1.17926,38.6544,0.00206871,0.000767957,0.00184865,0.00337806,-0.000541387,0.616254,0.0024525,0.018294,895,1632,1.17929,-38.6545
-322,-608,1.17139,39.2759,0.0024052,0.00184589,0.00209536,0.00423949,1.16064e-05,0.719058,0.00282247,0.0182691,902,1632,1.17137,-39.2759
-315,-608,1.19019,39.875,0.0028351,0.00307738,0.00248746,0.00544665,0.000465827,0.809728,0.00348621,0.0169749,909,1632,1.1902,-39.875
-308,-608,1.14624,40.5458,0.00338688,0.0044052,0.00293721,0.00687705,0.000915026,0.871219,0.00431218,0.0173518,916,1632,1.14627,-40.5458
-301,-608,1.11969,41.1981,0.00405271,0.00594881,0.00360682,0.0087301,0.00127143,0.913915,0.00544595,0.0114121,923,1632,1.11967,-41.1981
-294,-608,1.10834,41.828,0.00482643,0.00792796,0.00449406,0.0111313,0.0016231,0.951536,0.00694335,0.010518,930,1632,1.10831,-41.828
-287,-608,1.05725,42.4661,0.00575812,0.0100168,0.00543657,0.0137262,0.00204877,0.972051,0.00855007,0.0101651,937,1632,1.05723,-42.466
-280,-608,1.05859,43.0815,0.00700053,0.01213,0.00657636,0.016624,0.00250647,0.971322,0.0103489,0.00898574,944,1632,1.05859,-43.0815
-273,-608,1.04437,43.718,0.00832285,0.0141911,0.00773239,0.0195273,0.00298662,0.966735,0.0121457,0.0103001,951,1632,1.04438,-43.718
-266,-608,1.0578,44.3694,0.00972205,0.0162443,0.00885353,0.0224182,0.00354812,0.961857,0.0139144,0.0110984,958,1632,1.05779,-44.3694
-259,-608,1.10889,44.9905,0.0112254,0.0182291,0.00991819,0.0252455,0.00420902,0.955104,0.0156176,0.016589,965,1632,1.10886,-44.9905
-252,-608,1.21313,45.6682,0.0128507,0.0201666,0.0110015,0.0281024,0.00491494,0.945898,0.0173305,0.0318632,972,1632,1.21313,-45.6682
-245,-608,1.20203,46.6647,0.0143691,0.0217549,0.0120012,0.0306185,0.00550549,0.934656,0.0188471,0.0473041,979,1632,1.202,-46.6647
-238,-608,1.31262,47.4847,0,0,0,0,0,0,0,-1,986,1632,1.31265,-47.4848
-231,-608,1.7229,47.7532,0,0,0,0,0,0,0,-1,993,1632,1.72289,-47.7531
-224,-608,2.51642,15.3452,0,0,0,0,0,0,0,-1,1000,1632,2.5164,-15.3452
-217,-608,1.04419,12.8451,0,0,0,0,0,0,0,-1,1007,1632,1.04418,-12.8451
-210,-608,2.75903,15.9414,0,0,0,0,0,0,0,-1,1014,1632,2.75903,-15.9414
-203,-608,2.76776,16.217,0,0,0,0,0,0,0,-1,1021,1632,2.76773,-16.217
-196,-608,1.53955,18.6058,0,0,0,0,0,0,0,-1,1028,1632,1.53959,-18.6058
-189,-608,1.37634,19.119,0,0,0,0,0,0,0,-1,1035,1632,1.37634,-19.1191
-182,-608,2.89221,16.7092,0,0,0,0,0,0,0,-1,1042,1632,2.89224,-16.7093
-175,-608,0.219116,15.1643,0,0,0,0,0,0,0,-1,1049,1632,0.219173,-15.1644
-168,-608,0.000366211,9.48645,0,0,0,0,0,0,0,-1,1056,1632,0.000317105,-9.48648
-161,-608,2.27832,15.4423,0,0,0,0,0,0,0,-1,1063,1632,2.27826,-15.4423
-154,-608,1.3999,16.4037,0,0,0,0,0,0,0,-1,1070,1632,1.39987,-16.4037
-147,-608,2.4386,9.50317,0,0,0,0,0,0,0,-1,1077,1632,2.43858,-9.50313
-140,-608,2.60132,10.8401,0,0,0,0,0,0,0,-1,1084,1632,2.60134,-10.8401
-133,-608,3.2312,12.4738,0,0,0,0,0,0,0,-1,1091,1632,3.23116,-12.4738
-126,-608,3.76465,13.9644,0,0,0,0,0,0,0,-1,1098,1632,3.76466,-13.9644
-119,-608,4.28906,15.4196,0,0,0,0,0,0,0,-1,1105,1632,4.28911,-15.4195
-112,-608,0.745117,10.5587,0,0,0,0,0,0,0,-1,1112,1632,0.745145,-10.5587
-105,-608,-0.252319,1.42419,0,0,0,0,0,0,0,-1,1119,1632,-0.252331,-1.42418
-98,-608,-2.8595,3.0863,0,0,0,0,0,0,0,-1,1126,1632,-2.85948,-3.08625
-91,-608,-3.71948,1.73608,0,0,0,0,0,0,0,-1,1133,1632,-3.7195,-1.73607
-84,-608,0,0,0,0,0,0,0,0,0,-1,1140,1632,0,0
-77,-608,0,0,0,0,0,0,0,0,0,-1,1147,1632,0,0
-70,-608,0,0,0,0,0,0,0,0,0,-1,1154,1632,0,0
-63,-608,0,0,0,0,0,0,0,0,0,-1,1161,1632,0,0
-56,-608,0,0,0,0,0,0,0,0,0,-1,1168,1632,0,0
-49,-608,0,0,0,0,0,0,0,0,0,-1,1175,1632,0,0
-42,-608,0,0,0,0,0,0,0,0,0,-1,1182,1632,0,0
-35,-608,0,0,0,0,0,0,0,0,0,-1,1189,1632,0,0
-28,-608,0,0,0,0,0,0,0,0,0,-1,1196,1632,0,0
-21,-608,0,0,0,0,0,0,0,0,0,-1,1203,1632,0,0
-14,-608,0,0,0,0,0,0,0,0,0,-1,1210,1632,0,0
-7,-608,0,0,0,0,0,0,0,0,0,-1,1217,1632,0,0
0,-608,0,0,0,0,0,0,0,0,0,-1,1224,1632,0,0
7,-608,0,0,0,0,0,0,0,0,0,-1,1231,1632,0,0
14,-608,0,0,0,0,0,0,0,0,0,-1,1238,1632,0,0
21,-608,0,0,0,0,0,0,0,0,0,-1,1245,1632,0,0
28,-608,0,0,0,0,0,0,0,0,0,-1,1252,1632,0,0
35,-608,0,0,0,0,0,0,0,0,0,-1,1259,1632,0,0
42,-608,0,0,0,0,0,0,0,0,0,-1,1266,1632,0,0
49,-608,0,0,0,0,0,0,0,0,0,-1,1273,1632,0,0
56,-608,0,0,0,0,0,0,0,0,0,-1,1280,1632,0,0
63,-608,0,0,0,0,0,0,0,0,0,-1,1287,1632,0,0
70,-608,0,0,0,0,0,0,0,0,0,-1,1294,1632,0,0
77,-608,0,0,0,0,0,0,0,0,0,-1,1301,1632,0,0
84,-608,0,0,0,0,0,0,0,0,0,-1,1308,1632,0,0
91,-608,0,0,0,0,0,0,0,0,0,-1,1315,1632,0,0
98,-608,0,0,0,0,0,0,0,0,0,-1,1322,1632,0,0
105,-608,0,0,0,0,0,0,0,0,0,-1,1329,1632,0,0
112,-608,0,0,0,0,0,0,0,0,0,-1,1336,1632,0,0
119,-608,0,0,0,0,0,0,0,0,0,-1,1343,1632,0,0
126,-608,0,0,0,0,0,0,0,0,0,-1,1350,1632,0,0
133,-608,0,0,0,0,0,0,0,0,0,-1,1357,1632,0,0
140,-608,0,0,0,0,0,0,0,0,0,-1,1364,1632,0,0
147,-608,0,0,0,0,0,0,0,0,0,-1,1371,1632,0,0
154,-608,0,0,0,0,0,0,0,0,0,-1,1378,1632,0,0
161,-608,0,0,0,0,0,0,0,0,0,-1,1385,1632,0,0
168,-608,0,0,0,0,0,0,0,0,0,-1,1392,1632,0,0
175,-608,0,0,0,0,0,0,0,0,0,-1,1399,1632,0,0
182,-608,0,0,0,0,0,0,0,0,0,-1,1406,1632,0,0
189,-608,0,0,0,0,0,0,0,0,0,-1,1413,1632,0,0
196,-608,0,0,0,0,0,0,0,0,0,-1,1420,1632,0,0
203,-608,0,0,0,0,0,0,0,0,0,-1,1427,1632,0,0
210,-608,5.7157,-0.333008,0,0,0,0,0,0,0,-1,1434,1632,5.71566,0.333004
217,-608,4.49402,-0.831787,0,0,0,0,0,0,0,-1,1441,1632,4.49396,0.831738
224,-608,4.18018,-1.11792,0,0,0,0,0,0,0,-1,1448,1632,4.1802,1.11796
231,-608,0.361816,0.825195,0,0,0,0,0,0,0,-1,1455,1632,0.36185,-0.825226
238,-608,2.85388,-0.28833,0,0,0,0,0,0,0,-1,1462,1632,2.85391,0.288282
245,-608,3.87537,4.02173,0,0,0,0,0,0,0,-1,1469,1632,3.87538,-4.02168
252,-608,5.66956,3.5282,0,0,0,0,0,0,0,-1,1476,1632,5.6696,-3.52815
259,-608,7.47437,3.07178,0,0,0,0,0,0,0,-1,1483,1632,7.4744,-3.07172
266,-608,9.46936,2.34766,0,0,0,0,0,0,0,-1,1490,1632,9.46932,-2.34764
273,-608,6.03003,3.34241,0,0,0,0,0,0,0,-1,1497,1632,6.02997,-3.34245
280,-608,5.72461,2.0769,0,0,0,0,0,0,0,-1,1504,1632,5.72457,-2.07688
287,-608,6.20581,3.59338,0,0,0,0,0,0,0,-1,1511,1632,6.20585,-3.59341
294,-608,6.94922,5.17151,0,0,0,0,0,0,0,-1,1518,1632,6.94925,-5.17151
301,-608,7.60083,6.68018,0,0,0,0,0,0,0,-1,1525,1632,7.60086,-6.68013
308,-608,7.64746,9.93848,0,0,0,0,0,0,0,-1,1532,1632,7.64745,-9.93842
315,-608,5.30688,11.2054,0,0,0,0,0,0,0,-1,1539,1632,5.30694,-11.2054
322,-608,5.32617,13.7581,0,0,0,0,0,0,0,-1,1546,1632,5.32613,-13.758
329,-608,7.12231,13.9607,0,0,0,0,0,0,0,-1,1553,1632,7.12231,-13.9607
336,-608,5.48633,7.82446,0,0,0,0,0,0,0,-1,1560,1632,5.48634,-7.82446
343,-608,5.47192,5.61047,0,0,0,0,0,0,0,-1,1567,1632,5.47192,-5.61045
350,-608,11.6957,1.71387,0,0,0,0,0,0,0,-1,1574,1632,11.6957,-1.71388
357,-608,3.77002,5.10046,0,0,0,0,0,0,0,-1,1581,1632,3.77002,-5.10043
364,-608,15.6985,48.7415,0,0,0,0,0,0,0,-1,1588,1632,15.6985,-48.7414
371,-608,16.174,47.5328,0,0,0,0,0,0,0,-1,1595,1632,16.174,-47.5329
378,-608,16.6494,46.3242,0,0,0,0,0,0,0,-1,1602,1632,16.6495,-46.3243
385,-608,17.123,45.4117,0.00227151,0.0196459,-0.00526384,0.0211162,0.000801175,-1.29841,0.0138182,0.0327972,1609,1632,17.123,-45.4117
392,-608,16.9436,44.6759,0.00134078,0.0167364,-0.00408599,0.0177536,0.000323566,-1.3268,0.0117294,0.0233393,1616,1632,16.9436,-44.676
399,-608,16.9889,44.0164,0.000765556,0.0144435,-0.00333295,0.0152124,-3.36999e-06,-1.34406,0.0101428,0.0119348,1623,1632,16.9889,-44.0164
406,-608,17.0292,43.4047,0.000464574,0.0123213,-0.00284451,0.0129684,-0.000182525,-1.34711,0.00870707,0.00977566,1630,1632,17.0291,-43.4046
413,-608,17.0125,42.7944,0.000487648,0.0104966,-0.00257214,0.0111189,-0.00013466,-1.33342,0.00745788,0.010638,1637,1632,17.0125,-42.7945
420,-608,16.9437,42.2062,0.00060466,0.00898435,-0.00242959,0.00963782,-4.88102e-05,-1.30805,0.00644155,0.0187842,1644,1632,16.9437,-42.2062
427,-608,16.938,41.6047,0.000645622,0.00749042,-0.00224779,0.00816258,-2.65348e-05,-1.28023,0.00545059,0.0203748,1651,1632,16.938,-41.6047
434,-608,16.9127,40.9865,0.000916591,0.00643282,-0.00234459,0.00729469,5.4721e-05,-1.21853,0.00484499,0.0161192,1658,1632,16.9128,-40.9864
441,-608,16.9188,40.36,0.00135426,0.0053566,-0.00247061,0.00653483,0.000176022,-1.1258,0.00429908,0.0140442,1665,1632,16.9188,-40.36
448,-608,16.9169,39.7505,0.00169033,0.00439627,-0.0025229,0.00590609,0.000180504,-1.03152,0.00387862,0.0156036,1672,1632,16.9169,-39.7505
455,-608,16.9347,39.0913,0.00194828,0.00347766,-0.00261219,0.00543479,-8.85059e-06,-0.927789,0.00362615,0.0123261,1679,1632,16.9347,-39.0913
462,-608,16.8931,38.4414,0.00207973,0.00247462,-0.00259034,0.00487503,-0.000320678,-0.823436,0.00336201,0.0124924,1686,1632,16.8931,-38.4414
469,-608,16.8345,37.8193,0.00198773,0.00159974,-0.00250337,0.00430461,-0.000717144,-0.746729,0.00313624,0.00961654,1693,1632,16.8344,-37.8194
476,-608,16.7893,37.1766,0.00179623,0.000860624,-0.00232911,0.00370405,-0.0010472,-0.686291,0.00288255,0.00897247,1700,1632,16.7893,-37.1766
483,-608,16.7534,36.5155,0.00144434,8.25273e-05,-0.00220099,0.00306734,-0.00154047,-0.635386,0.00270857,0.00877957,1707,1632,16.7534,-36.5155
490,-608,16.7467,35.8542,0.000927102,-0.000449407,-0.00208407,0.00243362,-0.00195593,-0.625914,0.0025393,0.01191,1714,1632,16.7468,-35.8542
497,-608,16.7601,35.1538,0.000413252,-0.000943412,-0.00204072,0.00188543,-0.00241559,-0.624944,0.00248947,0.0287049,1721,1632,16.7601,-35.1538
504,-608,16.8939,34.4377,0,0,0,0,0,0,0,-1,1728,1632,16.894,-34.4378
511,-608,16.6646,34.105,0,0,0,0,0,0,0,-1,1735,1632,16.6646,-34.105
518,-608,16.6516,33.2664,0,0,0,0,0,0,0,-1,1742,1632,16.6516,-33.2663
525,-608,11.2109,16.2579,0,0,0,0,0,0,0,-1,1749,1632,11.2109,-16.2579
532,-608,8.27917,11.6693,0,0,0,0,0,0,0,-1,1756,1632,8.27919,-11.6694
539,-608,9.40796,1.43457,0,0,0,0,0,0,0,-1,1763,1632,9.40801,-1.43463
546,-608,9.94031,2.1134,0,0,0,0,0,0,0,-1,1770,1632,9.94031,-2.11346
553,-608,10.363,2.81335,0,0,0,0,0,0,0,-1,1777,1632,10.3631,-2.81333
560,-608,9.23999,4.5636,0,0,0,0,0,0,0,-1,1784,1632,9.24,-4.56354
567,-608,0,0,0,0,0,0,0,0,0,-1,1791,1632,0,0
574,-608,0,0,0,0,0,0,0,0,0,-1,1798,1632,0,0
581,-608,0,0,0,0,0,0,0,0,0,-1,1805,1632,0,0
588,-608,0,0,0,0,0,0,0,0,0,-1,1812,1632,0,0
595,-608,0,0,0,0,0,0,0,0,0,-1,1819,1632,0,0
602,-608,0,0,0,0,0,0,0,0,0,-1,1826,1632,0,0
609,-608,0,0,0,0,0,0,0,0,0,-1,1833,1632,0,0
616,-608,0,0,0,0,0,0,0,0,0,-1,1840,1632,0,0
623,-608,0,0,0,0,0,0,0,0,0,-1,1847,1632,0,0
630,-608,0,0,0,0,0,0,0,0,0,-1,1854,1632,0,0
637,-608,0,0,0,0,0,0,0,0,0,-1,1861,1632,0,0
644,-608,0,0,0,0,0,0,0,0,0,-1,1868,1632,0,0
651,-608,0,0,0,0,0,0,0,0,0,-1,1875,1632,0,0
658,-608,0,0,0,0,0,0,0,0,0,-1,1882,1632,0,0
665,-608,0,0,0,0,0,0,0,0,0,-1,1889,1632,0,0
672,-608,0,0,0,0,0,0,0,0,0,-1,1896,1632,0,0
679,-608,0,0,0,0,0,0,0,0,0,-1,1903,1632,0,0
686,-608,0,0,0,0,0,0,0,0,0,-1,1910,1632,0,0
693,-608,0,0,0,0,0,0,0,0,0,-1,1917,1632,0,0
700,-608,0,0,0,0,0,0,0,0,0,-1,1924,1632,0,0
707,-608,0,0,0,0,0,0,0,0,0,-1,1931,1632,0,0
714,-608,0,0,0,0,0,0,0,0,0,-1,1938,1632,0,0
721,-608,0,0,0,0,0,0,0,0,0,-1,1945,1632,0,0
728,-608,0,0,0,0,0,0,0,0,0,-1,1952,1632,0,0
735,-608,0,0,0,0,0,0,0,0,0,-1,1959,1632,0,0
742,-608,0,0,0,0,0,0,0,0,0,-1,1966,1632,0,0
749,-608,0,0,0,0,0,0,0,0,0,-1,1973,1632,0,0
756,-608,0,0,0,0,0,0,0,0,0,-1,1980,1632,0,0
763,-608,0,0,0,0,0,0,0,0,0,-1,1987,1632,0,0
770,-608,0,0,0,0,0,0,0,0,0,-1,1994,1632,0,0
777,-608,0,0,0,0,0,0,0,0,0,-1,2001,1632,0,0
784,-608,0,0,0,0,0,0,0,0,0,-1,2008,1632,0,0
791,-608,0,0,0,0,0,0,0,0,0,-1,2015,1632,0,0
798,-608,0,0,0,0,0,0,0,0,0,-1,2022,1632,0,0
805,-608,0,0,0,0,0,0,0,0,0,-1,2029,1632,0,0
812,-608,0,0,0,0,0,0,0,0,0,-1,2036,1632,0,0
-700,-615,0,0,0,0,0,0,0,0,0,-1,524,1639,0,0
-693,-615,0,0,0,0,0,0,0,0,0,-1,531,1639,0,0
-686,-615,0,0,0,0,0,0,0,0,0,-1,538,1639,0,0
-679,-615,0,0,0,0,0,0,0,0,0,-1,545,1639,0,0
-672,-615,0,0,0,0,0,0,0,0,0,-1,552,1639,0,0
-665,-615,0,0,0,0,0,0,0,0,0,-1,559,1639,0,0
-658,-615,0,0,0,0,0,0,0,0,0,-1,566,1639,0,0
-651,-615,0,0,0,0,0,0,0,0,0,-1,573,1639,0,0
-644,-615,0,0,0,0,0,0,0,0,0,-1,580,1639,0,0
-637,-615,0,0,0,0,0,0,0,0,0,-1,587,1639,0,0
-630,-615,0,0,0,0,0,0,0,0,0,-1,594,1639,0,0
-623,-615,0,0,0,0,0,0,0,0,0,-1,601,1639,0,0
-616,-615,0,0,0,0,0,0,0,0,0,-1,608,1639,0,0
-609,-615,0,0,0,0,0,0,0,0,0,-1,615,1639,0,0
-602,-615,0,0,0,0,0,0,0,0,0,-1,622,1639,0,0
-595,-615,0,0,0,0,0,0,0,0,0,-1,629,1639,0,0
-588,-615,0,0,0,0,0,0,0,0,0,-1,636,1639,0,0
-581,-615,0,0,0,0,0,0,0,0,0,-1,643,1639,0,0
-574,-615,0,0,0,0,0,0,0,0,0,-1,650,1639,0,0
-567,-615,0,0,0,0,0,0,0,0,0,-1,657,1639,0,0
-560,-615,0,0,0,0,0,0,0,0,0,-1,664,1639,0,0
-553,-615,0,0,0,0,0,0,0,0,0,-1,671,1639,0,0
-546,-615,0,0,0,0,0,0,0,0,0,-1,678,1639,0,0
-539,-615,0,0,0,0,0,0,0,0,0,-1,685,1639,0,0
-532,-615,0,0,0,0,0,0,0,0,0,-1,692,1639,0,0
-525,-615,0,0,0,0,0,0,0,0,0,-1,699,1639,0,0
-518,-615,0,0,0,0,0,0,0,0,0,-1,706,1639,0,0
-511,-615,0,0,0,0,0,0,0,0,0,-1,713,1639,0,0
-504,-615,0,0,0,0,0,0,0,0,0,-1,720,1639,0,0
-497,-615,0,0,0,0,0,0,0,0,0,-1,727,1639,0,0
-490,-615,0,0,0,0,0,0,0,0,0,-1,734,1639,0,0
-483,-615,0,0,0,0,0,0,0,0,0,-1,741,1639,0,0
-476,-615,0,0,0,0,0,0,0,0,0,-1,748,1639,0,0
-469,-615,0,0,0,0,0,0,0,0,0,-1,755,1639,0,0
-462,-615,0,0,0,0,0,0,0,0,0,-1,762,1639,0,0
-455,-615,0,0,0,0,0,0,0,0,0,-1,769,1639,0,0
-448,-615,0,0,0,0,0,0,0,0,0,-1,776,1639,0,0
-441,-615,0,0,0,0,0,0,0,0,0,-1,783,1639,0,0
-434,-615,-7.64508,2.98596,0,0,0,0,0,0,0,-1,790,1639,-7.64505,-2.98594
-427,-615,-9.0011,2.89404,0,0,0,0,0,0,0,-1,797,1639,-9.00107,-2.89399
-420,-615,-8.07568,3.0752,0,0,0,0,0,0,0,-1,804,1639,-8.07569,-3.07514
-413,-615,-7.09149,3.396,0,0,0,0,0,0,0,-1,811,1639,-7.09147,-3.39599
-406,-615,-6.21368,3.7312,0,0,0,0,0,0,0,-1,818,1639,-6.21366,-3.73114
-399,-615,-4.84875,3.91907,0,0,0,0,0,0,0,-1,825,1639,-4.84877,-3.91901
-392,-615,1.7395,13.3127,0,0,0,0,0,0,0,-1,832,1639,1.73953,-13.3128
-385,-615,3.42297,14.9401,0,0,0,0,0,0,0,-1,839,1639,3.42296,-14.94
-378,-615,2.80365,34.2993,0,0,0,0,0,0,0,-1,846,1639,2.80367,-34.2993
-371,-615,2.23846,34.3755,0,0,0,0,0,0,0,-1,853,1639,2.23845,-34.3755
-364,-615,2.07452,35.2831,0,0,0,0,0,0,0,-1,860,1639,2.0745,-35.2831
-357,-615,1.9613,35.8766,0,0,0,0,0,0,0,-1,867,1639,1.96131,-35.8766
-350,-615,1.96857,36.6844,0.00140359,-0.00135168,0.00227019,0.00268145,-0.00262954,0.512683,0.00306635,0.0324116,874,1639,1.96856,-36.6845
-343,-615,1.94971,37.2443,0.00171654,-0.000720753,0.00222802,0.00303742,-0.00204163,0.535143,0.00295111,0.0196022,881,1639,1.94973,-37.2442
-336,-615,1.9328,37.9429,0.00190759,-0.000278128,0.0020735,0.0031586,-0.00152914,0.542868,0.00276044,0.0106157,888,1639,1.9328,-37.9429
-329,-615,1.86725,38.6344,0.00208813,0.00035465,0.00200932,0.00340968,-0.0009669,0.581775,0.00265478,0.012104,895,1639,1.86728,-38.6344
-322,-615,1.8443,39.2938,0.00220949,0.0011397,0.00203765,0.00378128,-0.000432092,0.657041,0.00267653,0.0139793,902,1639,1.8443,-39.2938
-315,-615,1.8385,39.9524,0.00240377,0.00207836,0.00219383,0.00444092,4.1211e-05,0.748383,0.00294697,0.0169019,909,1639,1.83853,-39.9524
-308,-615,1.78052,40.6127,0.00273575,0.0031205,0.00242085,0.00535661,0.00049964,0.825048,0.00341673,0.0248721,916,1639,1.78051,-40.6126
-301,-615,1.771,41.2118,0.00316123,0.00428846,0.00282847,0.00660893,0.000840768,0.883742,0.00415415,0.0137688,923,1639,1.77102,-41.2118
-294,-615,1.74377,41.8331,0.00371509,0.00580021,0.00343653,0.00834885,0.00116645,0.932674,0.0052207,0.0104579,930,1639,1.7438,-41.8331
-287,-615,1.69879,42.4858,0.00439665,0.00735521,0.0040758,0.0102119,0.00153998,0.959477,0.00635707,0.00795172,937,1639,1.69879,-42.4858
-280,-615,1.69318,43.1212,0.00534582,0.00891506,0.00485488,0.0123029,0.00195794,0.961529,0.00763348,0.0102416,944,1639,1.69316,-43.1212
-273,-615,1.67218,43.7529,0.00638762,0.0103755,0.00565024,0.0143733,0.00238983,0.955026,0.0088933,0.0123469,951,1639,1.67219,-43.753
-266,-615,1.64099,44.3608,0.00747284,0.011817,0.00642553,0.0164276,0.00286219,0.948388,0.0101333,0.012469,958,1639,1.64096,-44.3608
-259,-615,1.67139,44.9437,0.00867571,0.0132293,0.0071508,0.018457,0.003448,0.939523,0.0113316,0.0146088,965,1639,1.67139,-44.9437
-252,-615,1.67273,45.6154,0.00995668,0.01461,0.0078555,0.0204761,0.00409051,0.929373,0.0125122,0.0190569,972,1639,1.67273,-45.6154
-245,-615,1.78217,46.3759,0.0111082,0.0156996,0.00846788,0.0221775,0.00463035,0.917771,0.0135087,0.0312239,979,1639,1.78217,-46.3758
-238,-615,1.78888,47.0192,0.010122,0.0143462,0.00902355,0.0215015,0.00296666,0.900363,0.0134549,0.0406061,986,1639,1.78888,-47.0191
-231,-615,2.02985,47.5211,0.00737526,0.00915213,0.00975324,0.0180573,-0.00152992,0.830819,0.0125792,0.0469241,993,1639,2.02983,-47.5211
-224,-615,2.17737,48.3461,0,0,0,0,0,0,0,-1,1000,1639,2.1774,-48.3461
-217,-615,2.57983,47.7939,0,0,0,0,0,0,0,-1,1007,1639,2.57981,-47.7939
-210,-615,2.48901,18.9324,0,0,0,0,0,0,0,-1,1014,1639,2.48902,-18.9323
-203,-615,2.13684,18.6173,0,0,0,0,0,0,0,-1,1021,1639,2.13683,-18.6173
-196,-615,4.27161,21.3264,0,0,0,0,0,0,0,-1,1028,1639,4.27165,-21.3264
-189,-615,3.44299,49.4087,0,0,0,0,0,0,0,-1,1035,1639,3.44305,-49.4087
-182,-615,3.34619,49.856,0,0,0,0,0,0,0,-1,1042,1639,3.34613,-49.856
-175,-615,2.25159,49.2682,0,0,0,0,0,0,0,-1,1049,1639,2.25158,-49.2682
-168,-615,3.85754,15.472,0,0,0,0,0,0,0,-1,1056,1639,3.85757,-15.472
-161,-615,2.14307,46.5156,0,0,0,0,0,0,0,-1,1063,1639,2.14303,-46.5156
-154,-615,1.37329,47.9545,0,0,0,0,0,0,0,-1,1070,1639,1.37327,-47.9545
-147,-615,0.0180664,48.1396,0,0,0,0,0,0,0,-1,1077,1639,0.0180157,-48.1397
-140,-615,3.73401,10.2349,0,0,0,0,0,0,0,-1,1084,1639,3.73402,-10.2348
-133,-615,2.6178,17.45,0,0,0,0,0,0,0,-1,1091,1639,2.61776,-17.4499
-126,-615,4.43408,12.5017,0,0,0,0,0,0,0,-1,1098,1639,4.43403,-12.5018
-119,-615,4.82983,13.9279,0,0,0,0,0,0,0,-1,1105,1639,4.82986,-13.9278
-112,-615,3.65698,14.4874,0,0,0,0,0,0,0,-1,1112,1639,3.65695,-14.4875
-105,-615,0.958496,2.45398,0,0,0,0,0,0,0,-1,1119,1639,0.958452,-2.45398
-98,-615,-0.647705,2.12109,0,0,0,0,0,0,0,-1,1126,1639,-0.647756,-2.12105
-91,-615,-3.07983,2.97375,0,0,0,0,0,0,0,-1,1133,1639,-3.07989,-2.97376
-84,-615,-2.46509,0.703247,0,0,0,0,0,0,0,-1,1140,1639,-2.46505,-0.703273
-77,-615,-3.17859,1.23755,0,0,0,0,0,0,0,-1,1147,1639,-3.17865,-1.23752
-70,-615,-4.03943,1.43335,0,0,0,0,0,0,0,-1,1154,1639,-4.03942,-1.43339
-63,-615,-4.8877,1.45544,0,0,0,0,0,0,0,-1,1161,1639,-4.88766,-1.45549
-56,-615,0,0,0,0,0,0,0,0,0,-1,1168,1639,0,0
-49,-615,0,0,0,0,0,0,0,0,0,-1,1175,1639,0,0
-42,-615,0,0,0,0,0,0,0,0,0,-1,1182,1639,0,0
-35,-615,0,0,0,0,0,0,0,0,0,-1,1189,1639,0,0
-28,-615,0,0,0,0,0,0,0,0,0,-1,1196,1639,0,0
-21,-615,0,0,0,0,0,0,0,0,0,-1,1203,1639,0,0
-14,-615,0,0,0,0,0,0,0,0,0,-1,1210,1639,0,0
-7,-615,0,0,0,0,0,0,0,0,0,-1,1217,1639,0,0
0,-615,0,0,0,0,0,0,0,0,0,-1,1224,1639,0,0
7,-615,0,0,0,0,0,0,0,0,0,-1,1231,1639,0,0
14,-615,0,0,0,0,0,0,0,0,0,-1,1238,1639,0,0
21,-615,0,0,0,0,0,0,0,0,0,-1,1245,1639,0,0
28,-615,0,0,0,0,0,0,0,0,0,-1,1252,1639,0,0
35,-615,0,0,0,0,0,0,0,0,0,-1,1259,1639,0,0
42,-615,0,0,0,0,0,0,0,0,0,-1,1266,1639,0,0
49,-615,0,0,0,0,0,0,0,0,0,-1,1273,1639,0,0
56,-615,0,0,0,0,0,0,0,0,0,-1,1280,1639,0,0
63,-615,0,0,0,0,0,0,0,0,0,-1,1287,1639,0,0
70,-615,0,0,0,0,0,0,0,0,0,-1,1294,1639,0,0
77,-615,0,0,0,0,0,0,0,0,0,-1,1301,1639,0,0
84,-615,0,0,0,0,0,0,0,0,0,-1,1308,1639,0,0
91,-615,0,0,0,0,0,0,0,0,0,-1,1315,1639,0,0
98,-615,0,0,0,0,0,0,0,0,0,-1,1322,1639,0,0
105,-615,0,0,0,0,0,0,0,0,0,-1,1329,1639,0,0
112,-615,0,0,0,0,0,0,0,0,0,-1,1336,1639,0,0
119,-615,0,0,0,0,0,0,0,0,0,-1,1343,1639,0,0
126,-615,0,0,0,0,0,0,0,0,0,-1,1350,1639,0,0
133,-615,0,0,0,0,0,0,0,0,0,-1,1357,1639,0,0
140,-615,0,0,0,0,0,0,0,0,0,-1,1364,1639,0,0
147,-615,0,0,0,0,0,0,0,0,0,-1,1371,1639,0,0
154,-615,0,0,0,0,0,0,0,0,0,-1,1378,1639,0,0
161,-615,0,0,0,0,0,0,0,0,0,-1,1385,1639,0,0
168,-615,0,0,0,0,0,0,0,0,0,-1,1392,1639,0,0
175,-615,5.39648,-2.00879,0,0,0,0,0,0,0,-1,1399,1639,5.3965,2.00881
182,-615,5.65393,-1.51025,0,0,0,0,0,0,0,-1,1406,1639,5.65388,1.51028
189,-615,5.58972,-1.35608,0,0,0,0,0,0,0,-1,1413,1639,5.58967,1.35607
196,-615,5.49915,-0.693604,0,0,0,0,0,0,0,-1,1420,1639,5.4991,0.693602
203,-615,5.33411,-0.226685,0,0,0,0,0,0,0,-1,1427,1639,5.33414,0.226689
210,-615,5.60278,0.108276,0,0,0,0,0,0,0,-1,1434,1639,5.60284,-0.10831
217,-615,6.26331,-0.307373,0,0,0,0,0,0,0,-1,1441,1639,6.26331,0.307372
224,-615,5.45422,-0.333984,0,0,0,0,0,0,0,-1,1448,1639,5.45422,0.333992
231,-615,4.92542,1.80298,0,0,0,0,0,0,0,-1,1455,1639,4.92537,-1.80297
238,-615,4.76355,1.96729,0,0,0,0,0,0,0,-1,1462,1639,4.76357,-1.96734
245,-615,4.08643,3.15906,0,0,0,0,0,0,0,-1,1469,1639,4.08638,-3.159
252,-615,6.37805,3.73889,0,0,0,0,0,0,0,-1,1476,1639,6.37806,-3.73891
259,-615,8.35974,3.16443,0,0,0,0,0,0,0,-1,1483,1639,8.35975,-3.16444
266,-615,10.3414,2.58997,0,0,0,0,0,0,0,-1,1490,1639,10.3414,-2.58996
273,-615,6.57043,1.84766,0,0,0,0,0,0,0,-1,1497,1639,6.5704,-1.84771
280,-615,7.10449,3.23438,0,0,0,0,0,0,0,-1,1504,1639,7.10447,-3.23435
287,-615,7.35779,4.68542,0,0,0,0,0,0,0,-1,1511,1639,7.35776,-4.68546
294,-615,7.63733,6.29114,0,0,0,0,0,0,0,-1,1518,1639,7.63735,-6.29109
301,-615,8.47925,11.452,0,0,0,0,0,0,0,-1,1525,1639,8.47922,-11.452
308,-615,6.8114,10.9059,0,0,0,0,0,0,0,-1,1532,1639,6.81137,-10.9058
315,-615,5.1427,14.7251,0,0,0,0,0,0,0,-1,1539,1639,5.14269,-14.7251
322,-615,7.17981,17.6864,0,0,0,0,0,0,0,-1,1546,1639,7.17985,-17.6864
329,-615,7.62134,20.4354,0,0,0,0,0,0,0,-1,1553,1639,7.62139,-20.4354
336,-615,6.45007,14.1138,0,0,0,0,0,0,0,-1,1560,1639,6.45011,-14.1138
343,-615,2.40491,6.50134,0,0,0,0,0,0,0,-1,1567,1639,2.40489,-6.50137
350,-615,15.046,46.4662,0,0,0,0,0,0,0,-1,1574,1639,15.046,-46.4662
357,-615,16.28,48.1333,0,0,0,0,0,0,0,-1,1581,1639,16.2801,-48.1333
364,-615,16.1779,47.3345,0,0,0,0,0,0,0,-1,1588,1639,16.1779,-47.3344
371,-615,16.0487,46.8356,0.00485929,0.0205826,-0.0067909,0.0231095,0.00233239,-1.21457,0.0146907,0.038469,1595,1639,16.0487,-46.8356
378,-615,16.3783,45.8392,0.00376115,0.0176991,-0.00540607,0.0195501,0.00191013,-1.24091,0.0124456,0.0194194,1602,1639,16.3782,-45.8392
385,-615,16.4076,45.203,0.00268222,0.0149567,-0.00411068,0.0162062,0.00143276,-1.27571,0.0103596,0.0128511,1609,1639,16.4076,-45.203
392,-615,16.4261,44.599,0.00187128,0.012703,-0.00321127,0.0135834,0.000990806,-1.30319,0.0087441,0.0118466,1616,1639,16.4261,-44.599
399,-615,16.4139,44.0204,0.00130523,0.0109054,-0.00262754,0.0115775,0.000633136,-1.32038,0.0075162,0.0130845,1623,1639,16.414,-44.0203
406,-615,16.4014,43.4354,0.000968567,0.00926493,-0.00226631,0.00984365,0.000389852,-1.32078,0.00643642,0.0118835,1630,1639,16.4013,-43.4355
413,-615,16.4086,42.8499,0.000893886,0.00779172,-0.00205041,0.00835519,0.000330419,-1.30261,0.00546332,0.0130459,1637,1639,16.4085,-42.8498
420,-615,16.3717,42.2421,0.000931947,0.00662856,-0.00196913,0.00724295,0.00031755,-1.26835,0.00472634,0.0149939,1644,1639,16.3717,-42.242
427,-615,16.342,41.6201,0.000923779,0.00545981,-0.00187737,0.00613602,0.000247575,-1.22508,0.0040107,0.0158758,1651,1639,16.3421,-41.6201
434,-615,16.313,41.0049,0.00113679,0.00470796,-0.0020499,0.00564091,0.000203846,-1.14369,0.00369453,0.0149288,1658,1639,16.313,-41.0048
441,-615,16.3038,40.3835,0.00151526,0.0039426,-0.00225493,0.00528973,0.00016813,-1.03228,0.0034718,0.0148483,1665,1639,16.3038,-40.3835
448,-615,16.2998,39.7771,0.00186359,0.00325862,-0.00242229,0.00508183,4.03833e-05,-0.925584,0.0033745,0.0149783,1672,1639,16.2998,-39.7771
455,-615,16.3032,39.1538,0.00215562,0.00260437,-0.00259593,0.00498561,-0.000225615,-0.828507,0.00340144,0.0147476,1679,1639,16.3032,-39.1538
462,-615,16.2511,38.5013,0.0022886,0.00190457,-0.00268586,0.0047893,-0.000596131,-0.749713,0.00340899,0.0159718,1686,1639,16.2511,-38.5014
469,-615,16.2032,37.8429,0.00225093,0.00124834,-0.00275593,0.00455079,-0.00105152,-0.695433,0.00343838,0.0130004,1693,1639,16.2032,-37.8429
476,-615,16.178,37.1807,0.00220797,0.000666977,-0.00271038,0.00425525,-0.0013803,-0.646914,0.00339188,0.0122315,1700,1639,16.178,-37.1806
483,-615,16.1995,36.437,0.00199576,6.99775e-05,-0.00273693,0.00393424,-0.0018685,-0.616253,0.00342025,0.0292733,1707,1639,16.1995,-36.437
490,-615,16.1454,35.7938,0.00148897,-0.000371898,-0.00269036,0.00340525,-0.00228817,-0.618916,0.00330812,0.048307,1714,1639,16.1454,-35.7938
497,-615,16.2245,34.9995,0,0,0,0,0,0,0,-1,1721,1639,16.2244,-34.9995
504,-615,15.389,31.2102,0,0,0,0,0,0,0,-1,1728,1639,15.389,-31.2102
511,-615,15.2349,30.2052,0,0,0,0,0,0,0,-1,1735,1639,15.2348,-30.2052
518,-615,13.2416,9.81812,0,0,0,0,0,0,0,-1,1742,1639,13.2416,-9.81813
525,-615,4.37524,3.90491,0,0,0,0,0,0,0,-1,1749,1639,4.37518,-3.90495
532,-615,7.3645,0.848145,0,0,0,0,0,0,0,-1,1756,1639,7.36451,-0.848093
539,-615,12.8112,-0.0476074,0,0,0,0,0,0,0,-1,1763,1639,12.8111,0.0475553
546,-615,8.33813,2.94556,0,0,0,0,0,0,0,-1,1770,1639,8.33813,-2.9455
553,-615,5.82532,-2.04199,0,0,0,0,0,0,0,-1,1777,1639,5.82534,2.04195
560,-615,0,0,0,0,0,0,0,0,0,-1,1784,1639,0,0
567,-615,0,0,0,0,0,0,0,0,0,-1,1791,1639,0,0
574,-615,0,0,0,0,0,0,0,0,0,-1,1798,1639,0,0
581,-615,0,0,0,0,0,0,0,0,0,-1,1805,1639,0,0
588,-615,0,0,0,0,0,0,0,0,0,-1,1812,1639,0,0
595,-615,0,0,0,0,0,0,0,0,0,-1,1819,1639,0,0
602,-615,0,0,0,0,0,0,0,0,0,-1,1826,1639,0,0
609,-615,0,0,0,0,0,0,0,0,0,-1,1833,1639,0,0
616,-615,0,0,0,0,0,0,0,0,0,-1,1840,1639,0,0
623,-615,0,0,0,0,0,0,0,0,0,-1,1847,1639,0,0
630,-615,0,0,0,0,0,0,0,0,0,-1,1854,1639,0,0
637,-615,0,0,0,0,0,0,0,0,0,-1,1861,1639,0,0
644,-615,0,0,0,0,0,0,0,0,0,-1,1868,1639,0,0
651,-615,0,0,0,0,0,0,0,0,0,-1,1875,1639,0,0
658,-615,0,0,0,0,0,0,0,0,0,-1,1882,1639,0,0
665,-615,0,0,0,0,0,0,0,0,0,-1,1889,1639,0,0
672,-615,0,0,0,0,0,0,0,0,0,-1,1896,1639,0,0
679,-615,0,0,0,0,0,0,0,0,0,-1,1903,1639,0,0
686,-615,0,0,0,0,0,0,0,0,0,-1,1910,1639,0,0
693,-615,0,0,0,0,0,0,0,0,0,-1,1917,1639,0,0
700,-615,0,0,0,0,0,0,0,0,0,-1,1924,1639,0,0
707,-615,0,0,0,0,0,0,0,0,0,-1,1931,1639,0,0
714,-615,0,0,0,0,0,0,0,0,0,-1,1938,1639,0,0
721,-615,0,0,0,0,0,0,0,0,0,-1,1945,1639,0,0
728,-615,0,0,0,0,0,0,0,0,0,-1,1952,1639,0,0
735,-615,0,0,0,0,0,0,0,0,0,-1,1959,1639,0,0
742,-615,0,0,0,0,0,0,0,0,0,-1,1966,1639,0,0
749,-615,0,0,0,0,0,0,0,0,0,-1,1973,1639,0,0
756,-615,0,0,0,0,0,0,0,0,0,-1,1980,1639,0,0
763,-615,0,0,0,0,0,0,0,0,0,-1,1987,1639,0,0
770,-615,0,0,0,0,0,0,0,0,0,-1,1994,1639,0,0
777,-615,0,0,0,0,0,0,0,0,0,-1,2001,1639,0,0
784,-615,0,0,0,0,0,0,0,0,0,-1,2008,1639,0,0
791,-615,0,0,0,0,0,0,0,0,0,-1,2015,1639,0,0
798,-615,0,0,0,0,0,0,0,0,0,-1,2022,1639,0,0
805,-615,0,0,0,0,0,0,0,0,0,-1,2029,1639,0,0
812,-615,0,0,0,0,0,0,0,0,0,-1,2036,1639,0,0
-700,-622,0,0,0,0,0,0,0,0,0,-1,524,1646,0,0
-693,-622,0,0,0,0,0,0,0,0,0,-1,531,1646,0,0
-686,-622,0,0,0,0,0,0,0,0,0,-1,538,1646,0,0
-679,-622,0,0,0,0,0,0,0,0,0,-1,545,1646,0,0
-672,-622,0,0,0,0,0,0,0,0,0,-1,552,1646,0,0
-665,-622,0,0,0,0,0,0,0,0,0,-1,559,1646,0,0
-658,-622,0,0,0,0,0,0,0,0,0,-1,566,1646,0,0
-651,-622,0,0,0,0,0,0,0,0,0,-1,573,1646,0,0
-644,-622,0,0,0,0,0,0,0,0,0,-1,580,1646,0,0
-637,-622,0,0,0,0,0,0,0,0,0,-1,587,1646,0,0
-630,-622,0,0,0,0,0,0,0,0,0,-1,594,1646,0,0
-623,-622,0,0,0,0,0,0,0,0,0,-1,601,1646,0,0
-616,-622,0,0,0,0,0,0,0,0,0,-1,608,1646,0,0
-609,-622,0,0,0,0,0,0,0,0,0,-1,615,1646,0,0
-602,-622,0,0,0,0,0,0,0,0,0,-1,622,1646,0,0
-595,-622,0,0,0,0,0,0,0,0,0,-1,629,1646,0,0
-588,-622,0,0,0,0,0,0,0,0,0,-1,636,1646,0,0
-581,-622,0,0,0,0,0,0,0,0,0,-1,643,1646,0,0
-574,-622,0,0,0,0,0,0,0,0,0,-1,650,1646,0,0
-567,-622,0,0,0,0,0,0,0,0,0,-1,657,1646,0,0
-560,-622,0,0,0,0,0,0,0,0,0,-1,664,1646,0,0
-553,-622,0,0,0,0,0,0,0,0,0,-1,671,1646,0,0
-546,-622,0,0,0,0,0,0,0,0,0,-1,678,1646,0,0
-539,-622,0,0,0,0,0,0,0,0,0,-1,685,1646,0,0
-532,-622,0,0,0,0,0,0,0,0,0,-1,692,1646,0,0
-525,-622,0,0,0,0,0,0,0,0,0,-1,699,1646,0,0
-518,-622,0,0,0,0,0,0,0,0,0,-1,706,1646,0,0
-511,-622,0,0,0,0,0,0,0,0,0,-1,713,1646,0,0
-504,-622,0,0,0,0,0,0,0,0,0,-1,720,1646,0,0
-497,-622,0,0,0,0,0,0,0,0,0,-1,727,1646,0,0
-490,-622,0,0,0,0,0,0,0,0,0,-1,734,1646,0,0
-483,-622,0,0,0,0,0,0,0,0,0,-1,741,1646,0,0
-476,-622,0,0,0,0,0,0,0,0,0,-1,748,1646,0,0
-469,-622,0,0,0,0,0,0,0,0,0,-1,755,1646,0,0
-462,-622,0,0,0,0,0,0,0,0,0,-1,762,1646,0,0
-455,-622,0,0,0,0,0,0,0,0,0,-1,769,1646,0,0
-448,-622,0,0,0,0,0,0,0,0,0,-1,776,1646,0,0
-441,-622,0,0,0,0,0,0,0,0,0,-1,783,1646,0,0
-434,-622,0,0,0,0,0,0,0,0,0,-1,790,1646,0,0
-427,-622,-7.62891,3.48096,0,0,0,0,0,0,0,-1,797,1646,-7.62892,-3.48092
-420,-622,-9.35791,1.77185,0,0,0,0,0,0,0,-1,804,1646,-9.35789,-1.77183
-413,-622,-8.46075,1.96777,0,0,0,0,0,0,0,-1,811,1646,-8.46074,-1.96774
-406,-622,-4.44318,2.16858,0,0,0,0,0,0,0,-1,818,1646,-4.44315,-2.16859
-399,-622,-7.06976,1.51001,0,0,0,0,0,0,0,-1,825,1646,-7.06976,-1.51005
-392,-622,3.89551,5.85376,0,0,0,0,0,0,0,-1,832,1646,3.8955,-5.85379
-385,-622,2.00543,14.0448,0,0,0,0,0,0,0,-1,839,1646,2.00544,-14.0448
-378,-622,1.49036,15.3436,0,0,0,0,0,0,0,-1,846,1646,1.49033,-15.3436
-371,-622,2.59088,35.0416,0,0,0,0,0,0,0,-1,853,1646,2.59086,-35.0417
-364,-622,2.49585,35.2362,0,0,0,0,0,0,0,-1,860,1646,2.49588,-35.2362
-357,-622,2.66089,35.9536,0,0,0,0,0,0,0,-1,867,1646,2.66086,-35.9536
-350,-622,2.60712,36.7461,0.00231606,-0.00169768,0.00296442,0.00388904,-0.00327066,0.487842,0.00413879,0.0471788,874,1646,2.60712,-36.7461
-343,-622,2.48779,37.3738,0.00270827,-0.00102898,0.00292413,0.00430985,-0.00263056,0.501083,0.00404595,0.0260617,881,1646,2.48782,-37.3738
-336,-622,2.56836,37.9744,0.00280259,-0.000682227,0.00262856,0.0042138,-0.00209344,0.492712,0.00370944,0.00925328,888,1646,2.56838,-37.9744
-329,-622,2.50879,38.6371,0.00275743,-0.00021547,0.00234444,0.00404693,-0.00150497,0.502864,0.0033155,0.00922099,895,1646,2.50876,-38.6371
-322,-622,2.47455,39.3075,0.00264041,0.000294809,0.00214242,0.00391004,-0.000974813,0.534969,0.00298516,0.0114774,902,1646,2.47453,-39.3074
-315,-622,2.44501,39.9661,0.00258443,0.000957584,0.00207044,0.00399551,-0.000453487,0.598223,0.00282698,0.0159892,909,1646,2.44499,-39.966
-308,-622,2.42334,40.5967,0.00266931,0.00175076,0.00209145,0.00435132,6.87556e-05,0.677316,0.00287823,0.0161232,916,1646,2.42336,-40.5967
-301,-622,2.4071,41.2145,0.00281701,0.00261893,0.00226036,0.0049805,0.000455439,0.763504,0.00317941,0.0141064,923,1646,2.40712,-41.2145
-294,-622,2.37091,41.8556,0.00310315,0.00377174,0.00262058,0.00607927,0.000795628,0.848838,0.00381539,0.010181,930,1646,2.37091,-41.8556
-287,-622,2.34558,42.4965,0.00348171,0.0049598,0.00301355,0.00732361,0.0011179,0.905645,0.00455572,0.00793649,937,1646,2.34559,-42.4965
-280,-622,2.32074,43.1235,0.00408041,0.00617099,0.00350186,0.00878023,0.00147117,0.930436,0.00542994,0.00992564,944,1646,2.32073,-43.1236
-273,-622,2.29541,43.7365,0.0047939,0.00728461,0.00402837,0.0102557,0.00182277,0.935311,0.00631783,0.0153433,951,1646,2.29544,-43.7365
-266,-622,2.25183,44.3442,0.00554237,0.00840521,0.00457529,0.0117678,0.00217981,0.937004,0.00722897,0.014982,958,1646,2.25186,-44.3442
-259,-622,2.27332,44.9651,0.00644138,0.00951888,0.00508192,0.0132899,0.00267036,0.932405,0.00811756,0.0134267,965,1646,2.27332,-44.9651
-252,-622,2.25647,45.549,0.00741961,0.0106144,0.00554309,0.0147857,0.00324832,0.925685,0.00897251,0.013012,972,1646,2.25649,-45.549
-245,-622,2.29999,46.1595,0.00830613,0.0114662,0.00592012,0.0160135,0.00375882,0.915804,0.00966941,0.0117684,979,1646,2.29998,-46.1595
-238,-622,2.29028,46.7421,0.00774018,0.0102754,0.00632564,0.0154592,0.00255638,0.884283,0.0095685,0.0157253,986,1646,2.29028,-46.7421
-231,-622,2.3446,47.4097,0.00579874,0.00629165,0.00681987,0.0128695,-0.000779131,0.803459,0.00885083,0.0239299,993,1646,2.34458,-47.4097
-224,-622,2.45996,47.9116,0.00393906,0.00263892,0.00692821,0.0102476,-0.00366965,0.73862,0.00832894,0.0353566,1000,1646,2.45999,-47.9116
-217,-622,2.56274,48.3848,0,0,0,0,0,0,0,-1,1007,1646,2.56272,-48.3847
-210,-622,2.7038,48.6818,0,0,0,0,0,0,0,-1,1014,1646,2.70377,-48.6818
-203,-622,4.21375,20.9574,0,0,0,0,0,0,0,-1,1021,1646,4.21375,-20.9574
-196,-622,3.97058,49.5768,0,0,0,0,0,0,0,-1,1028,1646,3.97058,-49.5768
-189,-622,3.58765,49.7723,-0.0156784,-0.033685,0.0107344,-0.0106715,-0.038692,0.43644,0.0230752,0.0487261,1035,1646,3.58764,-49.7723
-182,-622,3.47192,49.6909,-0.0198682,-0.0412813,0.0124958,-0.0141195,-0.04703,0.431182,0.0278659,0.0473268,1042,1646,3.47192,-49.6909
-175,-622,3.25354,49.8893,0,0,0,0,0,0,0,-1,1049,1646,3.2536,-49.8893
-168,-622,4.2959,51.9233,0,0,0,0,0,0,0,-1,1056,1646,4.29585,-51.9233
-161,-622,2.91394,48.1183,0,0,0,0,0,0,0,-1,1063,1646,2.91396,-48.1183
-154,-622,3.18774,47.9808,0,0,0,0,0,0,0,-1,1070,1646,3.1878,-47.9808
-147,-622,1.85205,49.8027,0,0,0,0,0,0,0,-1,1077,1646,1.85208,-49.8027
-140,-622,0.546997,48.6783,0,0,0,0,0,0,0,-1,1084,1646,0.547022,-48.6784
-133,-622,3.09644,17.677,0,0,0,0,0,0,0,-1,1091,1646,3.09638,-17.677
-126,-622,3.5061,19.5251,0,0,0,0,0,0,0,-1,1098,1646,3.50616,-19.5252
-119,-622,4.06384,13.1715,0,0,0,0,0,0,0,-1,1105,1646,4.06379,-13.1716
-112,-622,4.33276,14.6605,0,0,0,0,0,0,0,-1,1112,1646,4.33281,-14.6605
-105,-622,0.306519,4.38159,0,0,0,0,0,0,0,-1,1119,1646,0.306536,-4.38159
-98,-622,-0.510376,3.5033,0,0,0,0,0,0,0,-1,1126,1646,-0.510393,-3.50324
-91,-622,-1.146,0.975952,0,0,0,0,0,0,0,-1,1133,1646,-1.14599,-0.97597
-84,-622,-2.04895,1.31787,0,0,0,0,0,0,0,-1,1140,1646,-2.0489,-1.31781
-77,-622,-1.80627,0.332275,0,0,0,0,0,0,0,-1,1147,1646,-1.80622,-0.33223
-70,-622,-3.65588,2.28149,0,0,0,0,0,0,0,-1,1154,1646,-3.65589,-2.28155
-63,-622,-2.49683,1.27087,0,0,0,0,0,0,0,-1,1161,1646,-2.49679,-1.27093
-56,-622,-2.44238,-0.575562,0,0,0,0,0,0,0,-1,1168,1646,-2.44242,0.575508
-49,-622,-2.41089,1.38818,0,0,0,0,0,0,0,-1,1175,1646,-2.41088,-1.38815
-42,-622,-2.71497,2.85242,0,0,0,0,0,0,0,-1,1182,1646,-2.71491,-2.85247
-35,-622,-3.0177,4.25842,0,0,0,0,0,0,0,-1,1189,1646,-3.01773,-4.25838
-28,-622,-0.896606,0.678833,0,0,0,0,0,0,0,-1,1196,1646,-0.89661,-0.678835
-21,-622,16.4141,36.2849,0,0,0,0,0,0,0,-1,1203,1646,16.4141,-36.285
-14,-622,22.5557,61.7714,0,0,0,0,0,0,0,-1,1210,1646,22.5557,-61.7714
-7,-622,2.05774,47.2183,0,0,0,0,0,0,0,-1,1217,1646,2.05772,-47.2183
0,-622,0,0,0,0,0,0,0,0,0,-1,1224,1646,0,0
7,-622,0,0,0,0,0,0,0,0,0,-1,1231,1646,0,0
14,-622,0,0,0,0,0,0,0,0,0,-1,1238,1646,0,0
21,-622,0,0,0,0,0,0,0,0,0,-1,1245,1646,0,0
28,-622,0,0,0,0,0,0,0,0,0,-1,1252,1646,0,0
35,-622,0,0,0,0,0,0,0,0,0,-1,1259,1646,0,0
42,-622,0,0,0,0,0,0,0,0,0,-1,1266,1646,0,0
49,-622,0,0,0,0,0,0,0,0,0,-1,1273,1646,0,0
56,-622,0,0,0,0,0,0,0,0,0,-1,1280,1646,0,0
63,-622,0,0,0,0,0,0,0,0,0,-1,1287,1646,0,0
70,-622,0,0,0,0,0,0,0,0,0,-1,1294,1646,0,0
77,-622,0,0,0,0,0,0,0,0,0,-1,1301,1646,0,0
84,-622,0,0,0,0,0,0,0,0,0,-1,1308,1646,0,0
91,-622,0,0,0,0,0,0,0,0,0,-1,1315,1646,0,0
98,-622,0,0,0,0,0,0,0,0,0,-1,1322,1646,0,0
105,-622,0,0,0,0,0,0,0,0,0,-1,1329,1646,0,0
112,-622,0,0,0,0,0,0,0,0,0,-1,1336,1646,0,0
119,-622,0,0,0,0,0,0,0,0,0,-1,1343,1646,0,0
126,-622,3.88538,53.7196,-0.0642818,-0.0608052,-0.0244936,-0.0379883,-0.0870987,-0.820824,0.0504229,0.0423264,1350,1646,3.88541,-53.7196
133,-622,3.41235,53.4187,-0.0741507,-0.0800092,-0.0363166,-0.0406454,-0.113514,-0.745156,0.066412,0.0456212,1357,1646,3.41231,-53.4187
140,-622,3.10217,53.191,-0.079971,-0.100229,-0.0456484,-0.0433414,-0.136859,-0.67622,0.0807662,0.0459207,1364,1646,3.10222,-53.1911
147,-622,2.8175,52.9073,0,0,0,0,0,0,0,-1,1371,1646,2.81748,-52.9074
154,-622,2.5271,52.655,0,0,0,0,0,0,0,-1,1378,1646,2.52706,-52.655
161,-622,10.6884,6.46448,0,0,0,0,0,0,0,-1,1385,1646,10.6883,-6.46442
168,-622,12.2402,5.18091,0,0,0,0,0,0,0,-1,1392,1646,12.2403,-5.1809
175,-622,5.64355,-1.77075,0,0,0,0,0,0,0,-1,1399,1646,5.64351,1.77077
182,-622,5.88586,-1.32251,0,0,0,0,0,0,0,-1,1406,1646,5.88587,1.32256
189,-622,5.97986,-1.18005,0,0,0,0,0,0,0,-1,1413,1646,5.97986,1.18003
196,-622,5.85022,-0.244507,0,0,0,0,0,0,0,-1,1420,1646,5.85026,0.244478
203,-622,5.25159,0.138794,0,0,0,0,0,0,0,-1,1427,1646,5.25162,-0.138822
210,-622,6.66833,0.0397949,0,0,0,0,0,0,0,-1,1434,1646,6.6684,-0.0398278
217,-622,6.12061,0.0506592,0,0,0,0,0,0,0,-1,1441,1646,6.12058,-0.0507181
224,-622,5.57275,0.0616455,0,0,0,0,0,0,0,-1,1448,1646,5.57276,-0.0616084
231,-622,5.31348,1.3949,0,0,0,0,0,0,0,-1,1455,1646,5.31342,-1.39495
238,-622,3.76477,2.90686,0,0,0,0,0,0,0,-1,1462,1646,3.7648,-2.90686
245,-622,5.13794,2.67993,0,0,0,0,0,0,0,-1,1469,1646,5.13796,-2.67992
252,-622,6.66528,2.53992,0,0,0,0,0,0,0,-1,1476,1646,6.66522,-2.53991
259,-622,8.93787,3.31458,0,0,0,0,0,0,0,-1,1483,1646,8.93791,-3.31454
266,-622,5.72644,3.11926,0,0,0,0,0,0,0,-1,1490,1646,5.72647,-3.1192
273,-622,7.28076,3.61218,0,0,0,0,0,0,0,-1,1497,1646,7.28071,-3.61212
280,-622,8.43127,4.4447,0,0,0,0,0,0,0,-1,1504,1646,8.43123,-4.44467
287,-622,8.60315,5.94617,0,0,0,0,0,0,0,-1,1511,1646,8.60319,-5.94622
294,-622,7.62756,11.5143,0,0,0,0,0,0,0,-1,1518,1646,7.62762,-11.5143
301,-622,7.36548,11.6569,0,0,0,0,0,0,0,-1,1525,1646,7.36549,-11.6569
308,-622,7.10339,11.7994,0,0,0,0,0,0,0,-1,1532,1646,7.10335,-11.7995
315,-622,8.28687,16.5842,0,0,0,0,0,0,0,-1,1539,1646,8.28689,-16.5843
322,-622,7.43689,20.5786,0,0,0,0,0,0,0,-1,1546,1646,7.43685,-20.5786
329,-622,9.76477,26.4202,0,0,0,0,0,0,0,-1,1553,1646,9.7648,-26.4202
336,-622,10.4526,28.8552,0,0,0,0,0,0,0,-1,1560,1646,10.4526,-28.8552
343,-622,15.1061,49.1334,0,0,0,0,0,0,0,-1,1567,1646,15.1061,-49.1335
350,-622,15.9746,48.4841,0,0,0,0,0,0,0,-1,1574,1646,15.9746,-48.4841
357,-622,15.8456,47.8258,0.00655791,0.0202777,-0.00728503,0.0234243,0.00341131,-1.16307,0.0146124,0.042861,1581,1646,15.8456,-47.8258
364,-622,15.752,47.1057,0.00527292,0.0182193,-0.00624901,0.0207435,0.00274876,-1.18691,0.0130099,0.0336934,1588,1646,15.7519,-47.1058
371,-622,15.7733,46.4326,0.00442848,0.015779,-0.00516449,0.0177771,0.00243037,-1.20164,0.0111301,0.020528,1595,1646,15.7733,-46.4326
378,-622,15.8165,45.7976,0.00353795,0.0135598,-0.00419567,0.0150844,0.00201335,-1.22226,0.00945685,0.0124438,1602,1646,15.8165,-45.7977
385,-622,15.8221,45.194,0.00268593,0.0113677,-0.00327049,0.0124618,0.00159179,-1.24795,0.00783138,0.0105188,1609,1646,15.8222,-45.194
392,-622,15.8064,44.6295,0.00200577,0.00955935,-0.00261116,0.0103741,0.00119101,-1.26834,0.00655523,0.0117786,1616,1646,15.8064,-44.6295
399,-622,15.7924,44.0453,0.00150176,0.00810702,-0.00218518,0.00876449,0.00084429,-1.27854,0.00558288,0.0120811,1623,1646,15.7923,-44.0453
406,-622,15.7681,43.4379,0.00119779,0.00681711,-0.00194261,0.00742328,0.000591614,-1.26833,0.00476391,0.015142,1630,1646,15.768,-43.4379
413,-622,15.7848,42.8362,0.00108879,0.0055979,-0.00176888,0.006209,0.000477692,-1.23816,0.00398965,0.0167039,1637,1646,15.7847,-42.8362
420,-622,15.7668,42.2717,0.00109999,0.00470554,-0.00173292,0.00540337,0.000402161,-1.18797,0.00347596,0.0168793,1644,1646,15.7668,-42.2717
427,-622,15.7372,41.6477,0.00111305,0.00382215,-0.00172596,0.00466162,0.000273575,-1.1181,0.00302069,0.0131341,1651,1646,15.7372,-41.6476
434,-622,15.7024,41.016,0.0013231,0.00332388,-0.00194672,0.00451221,0.000134767,-1.02275,0.00296424,0.013685,1658,1646,15.7024,-41.016
441,-622,15.6924,40.3865,0.00168146,0.00284683,-0.00220737,0.00454712,-1.88355e-05,-0.914441,0.00303771,0.0152949,1665,1646,15.6924,-40.3865
448,-622,15.6753,39.7888,0.002082,0.00244526,-0.00247945,0.00474973,-0.000222471,-0.82196,0.00324319,0.014659,1672,1646,15.6753,-39.7888
455,-622,15.6528,39.1735,0.00246863,0.00209462,-0.00275265,0.00504062,-0.000477371,-0.751483,0.00353031,0.0172433,1679,1646,15.6528,-39.1735
462,-622,15.6294,38.5302,0.00270455,0.00177023,-0.00301395,0.00528733,-0.000812548,-0.70851,0.00382461,0.0185813,1686,1646,15.6294,-38.5302
469,-622,15.5857,37.8912,0.0028405,0.00146519,-0.00333366,0.00555668,-0.001251,-0.683686,0.00418426,0.0195006,1693,1646,15.5858,-37.8913
476,-622,15.7059,37.2446,0.0030722,0.00116847,-0.00355056,0.00579628,-0.00155561,-0.654434,0.0044738,0.0368134,1700,1646,15.7059,-37.2446
483,-622,15.8452,36.4717,0,0,0,0,0,0,0,-1,1707,1646,15.8452,-36.4717
490,-622,15.5638,35.8291,0,0,0,0,0,0,0,-1,1714,1646,15.5638,-35.8291
497,-622,14.9666,32.1024,0,0,0,0,0,0,0,-1,1721,1646,14.9665,-32.1024
504,-622,10.8306,19.8021,0,0,0,0,0,0,0,-1,1728,1646,10.8306,-19.8022
511,-622,5.29004,4.14587,0,0,0,0,0,0,0,-1,1735,1646,5.29008,-4.14589
518,-622,5.6001,1.55359,0,0,0,0,0,0,0,-1,1742,1646,5.60015,-1.5536
525,-622,5.83093,2.01807,0,0,0,0,0,0,0,-1,1749,1646,5.83097,-2.01802
532,-622,5.44202,0.57373,0,0,0,0,0,0,0,-1,1756,1646,5.44196,-0.573705
539,-622,9.32129,1.06116,0,0,0,0,0,0,0,-1,1763,1646,9.32131,-1.0612
546,-622,6.50977,-3.45618,0,0,0,0,0,0,0,-1,1770,1646,6.50981,3.4562
553,-622,0,0,0,0,0,0,0,0,0,-1,1777,1646,0,0
560,-622,0,0,0,0,0,0,0,0,0,-1,1784,1646,0,0
567,-622,0,0,0,0,0,0,0,0,0,-1,1791,1646,0,0
574,-622,0,0,0,0,0,0,0,0,0,-1,1798,1646,0,0
581,-622,0,0,0,0,0,0,0,0,0,-1,1805,1646,0,0
588,-622,0,0,0,0,0,0,0,0,0,-1,1812,1646,0,0
595,-622,0,0,0,0,0,0,0,0,0,-1,1819,1646,0,0
602,-622,0,0,0,0,0,0,0,0,0,-1,1826,1646,0,0
609,-622,0,0,0,0,0,0,0,0,0,-1,1833,1646,0,0
616,-622,0,0,0,0,0,0,0,0,0,-1,1840,1646,0,0
623,-622,0,0,0,0,0,0,0,0,0,-1,1847,1646,0,0
630,-622,0,0,0,0,0,0,0,0,0,-1,1854,1646,0,0
637,-622,0,0,0,0,0,0,0,0,0,-1,1861,1646,0,0
644,-622,0,0,0,0,0,0,0,0,0,-1,1868,1646,0,0
651,-622,0,0,0,0,0,0,0,0,0,-1,1875,1646,0,0
658,-622,0,0,0,0,0,0,0,0,0,-1,1882,1646,0,0
665,-622,0,0,0,0,0,0,0,0,0,-1,1889,1646,0,0
672,-622,0,0,0,0,0,0,0,0,0,-1,1896,1646,0,0
679,-622,0,0,0,0,0,0,0,0,0,-1,1903,1646,0,0
686,-622,0,0,0,0,0,0,0,0,0,-1,1910,1646,0,0
693,-622,0,0,0,0,0,0,0,0,0,-1,1917,1646,0,0
700,-622,0,0,0,0,0,0,0,0,0,-1,1924,1646,0,0
707,-622,0,0,0,0,0,0,0,0,0,-1,1931,1646,0,0
714,-622,0,0,0,0,0,0,0,0,0,-1,1938,1646,0,0
721,-622,0,0,0,0,0,0,0,0,0,-1,1945,1646,0,0
728,-622,0,0,0,0,0,0,0,0,0,-1,1952,1646,0,0
735,-622,0,0,0,0,0,0,0,0,0,-1,1959,1646,0,0
742,-622,0,0,0,0,0,0,0,0,0,-1,1966,1646,0,0
749,-622,0,0,0,0,0,0,0,0,0,-1,1973,1646,0,0
756,-622,0,0,0,0,0,0,0,0,0,-1,1980,1646,0,0
763,-622,0,0,0,0,0,0,0,0,0,-1,1987,1646,0,0
770,-622,0,0,0,0,0,0,0,0,0,-1,1994,1646,0,0
777,-622,0,0,0,0,0,0,0,0,0,-1,2001,1646,0,0
784,-622,0,0,0,0,0,0,0,0,0,-1,2008,1646,0,0
791,-622,0,0,0,0,0,0,0,0,0,-1,2015,1646,0,0
798,-622,0,0,0,0,0,0,0,0,0,-1,2022,1646,0,0
805,-622,0,0,0,0,0,0,0,0,0,-1,2029,1646,0,0
812,-622,0,0,0,0,0,0,0,0,0,-1,2036,1646,0,0
-700,-629,0,0,0,0,0,0,0,0,0,-1,524,1653,0,0
-693,-629,0,0,0,0,0,0,0,0,0,-1,531,1653,0,0
-686,-629,0,0,0,0,0,0,0,0,0,-1,538,1653,0,0
-679,-629,0,0,0,0,0,0,0,0,0,-1,545,1653,0,0
-672,-629,0,0,0,0,0,0,0,0,0,-1,552,1653,0,0
-665,-629,0,0,0,0,0,0,0,0,0,-1,559,1653,0,0
-658,-629,0,0,0,0,0,0,0,0,0,-1,566,1653,0,0
-651,-629,0,0,0,0,0,0,0,0,0,-1,573,1653,0,0
-644,-629,0,0,0,0,0,0,0,0,0,-1,580,1653,0,0
-637,-629,0,0,0,0,0,0,0,0,0,-1,587,1653,0,0
-630,-629,0,0,0,0,0,0,0,0,0,-1,594,1653,0,0
-623,-629,0,0,0,0,0,0,0,0,0,-1,601,1653,0,0
-616,-629,0,0,0,0,0,0,0,0,0,-1,608,1653,0,0
-609,-629,0,0,0,0,0,0,0,0,0,-1,615,1653,0,0
-602,-629,0,0,0,0,0,0,0,0,0,-1,622,1653,0,0
-595,-629,0,0,0,0,0,0,0,0,0,-1,629,1653,0,0
-588,-629,0,0,0,0,0,0,0,0,0,-1,636,1653,0,0
-581,-629,0,0,0,0,0,0,0,0,0,-1,643,1653,0,0
-574,-629,0,0,0,0,0,0,0,0,0,-1,650,1653,0,0
-567,-629,0,0,0,0,0,0,0,0,0,-1,657,1653,0,0
-560,-629,0,0,0,0,0,0,0,0,0,-1,664,1653,0,0
-553,-629,0,0,0,0,0,0,0,0,0,-1,671,1653,0,0
-546,-629,0,0,0,0,0,0,0,0,0,-1,678,1653,0,0
-539,-629,0,0,0,0,0,0,0,0,0,-1,685,1653,0,0
-532,-629,0,0,0,0,0,0,0,0,0,-1,692,1653,0,0
-525,-629,0,0,0,0,0,0,0,0,0,-1,699,1653,0,0
-518,-629,0,0,0,0,0,0,0,0,0,-1,706,1653,0,0
-511,-629,0,0,0,0,0,0,0,0,0,-1,713,1653,0,0
-504,-629,0,0,0,0,0,0,0,0,0,-1,720,1653,0,0
-497,-629,0,0,0,0,0,0,0,0,0,-1,727,1653,0,0
-490,-629,0,0,0,0,0,0,0,0,0,-1,734,1653,0,0
-483,-629,0,0,0,0,0,0,0,0,0,-1,741,1653,0,0
-476,-629,0,0,0,0,0,0,0,0,0,-1,748,1653,0,0
-469,-629,0,0,0,0,0,0,0,0,0,-1,755,1653,0,0
-462,-629,0,0,0,0,0,0,0,0,0,-1,762,1653,0,0
-455,-629,0,0,0,0,0,0,0,0,0,-1,769,1653,0,0
-448,-629,0,0,0,0,0,0,0,0,0,-1,776,1653,0,0
-441,-629,0,0,0,0,0,0,0,0,0,-1,783,1653,0,0
-434,-629,0,0,0,0,0,0,0,0,0,-1,790,1653,0,0
-427,-629,0,0,0,0,0,0,0,0,0,-1,797,1653,0,0
-420,-629,-3.87103,3.37634,0,0,0,0,0,0,0,-1,804,1653,-3.87101,-3.37633
-413,-629,-5.69751,1.33582,0,0,0,0,0,0,0,-1,811,1653,-5.69754,-1.3358
-406,-629,2.85406,6.01501,0,0,0,0,0,0,0,-1,818,1653,2.85405,-6.01507
-399,-629,-0.455627,10.8687,0,0,0,0,0,0,0,-1,825,1653,-0.455625,-10.8687
-392,-629,1.15369,11.1295,0,0,0,0,0,0,0,-1,832,1653,1.1537,-11.1295
-385,-629,1.81976,11.6935,0,0,0,0,0,0,0,-1,839,1653,1.81975,-11.6935
-378,-629,2.19452,14.7941,0,0,0,0,0,0,0,-1,846,1653,2.19451,-14.7941
-371,-629,3.60114,14.7299,0,0,0,0,0,0,0,-1,853,1653,3.60113,-14.7299
-364,-629,3.26898,21.0801,0,0,0,0,0,0,0,-1,860,1653,3.26895,-21.08
-357,-629,4.38782,16.3444,0,0,0,0,0,0,0,-1,867,1653,4.38783,-16.3443
-350,-629,3.2641,36.7228,0,0,0,0,0,0,0,-1,874,1653,3.26409,-36.7228
-343,-629,3.12555,37.366,0.00404312,-0.00173247,0.00347464,0.00567334,-0.00336269,0.438687,0.0052735,0.0395539,881,1653,3.12554,-37.3659
-336,-629,3.18298,38.0326,0.00382094,-0.00167166,0.00277543,0.00497914,-0.00282987,0.395337,0.0045651,0.018616,888,1653,3.18301,-38.0326
-329,-629,3.15802,38.6816,0.00338149,-0.00154417,0.00211407,0.0041644,-0.00232708,0.354673,0.00379757,0.0123396,895,1653,3.15804,-38.6817
-322,-629,3.11694,39.3528,0.00285845,-0.00144012,0.00161206,0.00339583,-0.0019775,0.321766,0.00313811,0.0133408,902,1653,3.11695,-39.3528
-315,-629,3.07495,39.9985,0.00241731,-0.00113308,0.00127811,0.00282955,-0.00154532,0.312007,0.00256185,0.0172511,909,1653,3.07497,-39.9985
-308,-629,3.05652,40.6195,0.00218573,-0.000607542,0.0011083,0.00257204,-0.000993856,0.335397,0.00212492,0.0136714,916,1653,3.05653,-40.6195
-301,-629,3.03735,41.272,0.00204367,2.14366e-05,0.00111185,0.00253541,-0.000470301,0.416406,0.00186689,0.0118571,923,1653,3.03733,-41.2719
-294,-629,3.01093,41.9159,0.00209668,0.00093351,0.00134063,0.00297644,5.37528e-05,0.580741,0.00196662,0.0123843,930,1653,3.01093,-41.9159
-287,-629,2.97894,42.5272,0.00226637,0.00194104,0.00165211,0.0037638,0.000443614,0.736327,0.00237518,0.0100299,937,1653,2.97894,-42.5272
-280,-629,2.94733,43.1433,0.00264819,0.00303821,0.0020474,0.00489987,0.000786531,0.832878,0.00303853,0.0109863,944,1653,2.94732,-43.1433
-273,-629,2.90161,43.755,0.00319853,0.00409273,0.00251407,0.00619914,0.00109211,0.873398,0.00382111,0.0141688,951,1653,2.90164,-43.7551
-266,-629,2.8797,44.3639,0.00381401,0.00518869,0.00303544,0.00761364,0.00138906,0.89674,0.00468194,0.0147441,958,1653,2.87969,-44.3638
-259,-629,2.8634,44.9806,0.00462738,0.00628826,0.00352176,0.00907617,0.00183948,0.901184,0.00554036,0.0156508,965,1653,2.86343,-44.9806
-252,-629,2.85693,45.5618,0.00550674,0.00736738,0.00390649,0.0104528,0.00242132,0.902295,0.00631803,0.0112657,972,1653,2.85694,-45.5617
-245,-629,2.87341,46.1765,0.00629702,0.00822335,0.00418037,0.0115501,0.00297029,0.898623,0.00692563,0.00775285,979,1653,2.87343,-46.1765
-238,-629,2.87158,46.7579,0.00592055,0.00726898,0.00436495,0.0110115,0.00217805,0.862024,0.00673343,0.0112897,986,1653,2.8716,-46.758
-231,-629,2.83496,47.33,0.00454398,0.00438809,0.00464362,0.00911031,-0.000178239,0.777007,0.00613381,0.0156526,993,1653,2.83495,-47.33
-224,-629,2.93652,48.0258,0.00329208,0.00182494,0.00466704,0.00728285,-0.00216583,0.707446,0.00571564,0.0187241,1000,1653,2.93652,-48.0257
-217,-629,2.90106,48.4915,0.00159175,-0.00215216,0.00497231,0.0050328,-0.00559322,0.605366,0.00613778,0.0307278,1007,1653,2.90105,-48.4915
-210,-629,3.06458,49.1378,0,0,0,0,0,0,0,-1,1014,1653,3.06458,-49.1378
-203,-629,3.12708,49.6405,0,0,0,0,0,0,0,-1,1021,1653,3.12713,-49.6405
-196,-629,3.46167,50.2738,0,0,0,0,0,0,0,-1,1028,1653,3.46165,-50.2738
-189,-629,3.52026,50.1793,-0.0091031,-0.0228262,0.00758818,-0.00573424,-0.026195,0.417822,0.0159004,0.0438911,1035,1653,3.52023,-50.1794
-182,-629,2.70764,50.353,-0.0114111,-0.0272476,0.00886372,-0.00744389,-0.0312148,0.420838,0.0188257,0.0423419,1042,1653,2.70767,-50.353
-175,-629,1.60413,50.598,0,0,0,0,0,0,0,-1,1049,1653,1.60412,-50.598
-168,-629,4.46143,51.8595,0,0,0,0,0,0,0,-1,1056,1653,4.46138,-51.8594
-161,-629,4.51038,52.6733,0,0,0,0,0,0,0,-1,1063,1653,4.51042,-52.6734
-154,-629,4.26489,47.3336,0,0,0,0,0,0,0,-1,1070,1653,4.26491,-47.3336
-147,-629,4.43958,47.1637,0,0,0,0,0,0,0,-1,1077,1653,4.43951,-47.1637
-140,-629,2.10181,41.6577,0,0,0,0,0,0,0,-1,1084,1653,2.10175,-41.6577
-133,-629,3.41248,17.6686,0,0,0,0,0,0,0,-1,1091,1653,3.41243,-17.6686
-126,-629,4.01025,19.5328,0,0,0,0,0,0,0,-1,1098,1653,4.01022,-19.5328
-119,-629,4.94177,13.5525,0,0,0,0,0,0,0,-1,1105,1653,4.94172,-13.5525
-112,-629,5.63123,15.9187,0,0,0,0,0,0,0,-1,1112,1653,5.63118,-15.9187
-105,-629,2.15881,4.38342,0,0,0,0,0,0,0,-1,1119,1653,2.15878,-4.38347
-98,-629,0.825806,4.19385,0,0,0,0,0,0,0,-1,1126,1653,0.825779,-4.1939
-91,-629,-0.452271,3.64465,0,0,0,0,0,0,0,-1,1133,1653,-0.452278,-3.6446
-84,-629,-2.6084,0.466797,0,0,0,0,0,0,0,-1,1140,1653,-2.6084,-0.466786
-77,-629,-3.50903,2.10706,0,0,0,0,0,0,0,-1,1147,1653,-3.509,-2.10707
-70,-629,-1.20886,2.52502,0,0,0,0,0,0,0,-1,1154,1653,-1.20886,-2.525
-63,-629,-0.960693,4.30212,0,0,0,0,0,0,0,-1,1161,1653,-0.960691,-4.30215
-56,-629,-1.31934,5.64343,0,0,0,0,0,0,0,-1,1168,1653,-1.31928,-5.6434
-49,-629,-2.15662,2.57458,0,0,0,0,0,0,0,-1,1175,1653,-2.15656,-2.57459
-42,-629,-2.46326,3.91467,0,0,0,0,0,0,0,-1,1182,1653,-2.4633,-3.91466
-35,-629,-2.67261,5.24292,0,0,0,0,0,0,0,-1,1189,1653,-2.67257,-5.24298
-28,-629,-0.402954,-0.866577,0,0,0,0,0,0,0,-1,1196,1653,-0.402943,0.866612
-21,-629,3.45508,27.0596,0,0,0,0,0,0,0,-1,1203,1653,3.45508,-27.0596
-14,-629,2.62427,49.126,0,0,0,0,0,0,0,-1,1210,1653,2.62426,-49.126
-7,-629,10.4447,63.5476,0,0,0,0,0,0,0,-1,1217,1653,10.4447,-63.5476
0,-629,11.6548,64.4304,0,0,0,0,0,0,0,-1,1224,1653,11.6548,-64.4304
7,-629,11.0006,62.5314,0,0,0,0,0,0,0,-1,1231,1653,11.0006,-62.5313
14,-629,11.1842,62.9347,0.0244308,0.112246,0.0742537,0.154603,-0.0179255,1.0524,0.109534,0.0425181,1238,1653,11.1842,-62.9347
21,-629,11.4363,63.423,0.0339048,0.114457,0.054086,0.141616,0.00674613,1.10544,0.0922442,0.0437289,1245,1653,11.4363,-63.4229
28,-629,11.3857,65.4822,0.0427135,0.107063,0.0355707,0.122852,0.0269248,1.15305,0.0745646,0.0441524,1252,1653,11.3858,-65.4821
35,-629,11.7487,66.2415,0.0498895,0.0984413,0.0207642,0.10611,0.0422205,1.217,0.0616871,0.0438953,1259,1653,11.7486,-66.2414
42,-629,11.9087,66.8204,0.0555704,0.094234,0.0134597,0.0984581,0.0513463,1.2667,0.0568623,0.046514,1266,1653,11.9087,-66.8205
49,-629,9.53577,60.4006,0.0578319,0.0837327,0.0102188,0.0872789,0.0542858,1.23677,0.0508879,0.0456696,1273,1653,9.53574,-60.4006
56,-629,10.1768,59.7805,0.0537988,0.0747264,0.00536793,0.076023,0.0525023,1.3338,0.0449425,0.0487553,1280,1653,10.1768,-59.7805
63,-629,10.7505,59.1532,0,0,0,0,0,0,0,-1,1287,1653,10.7505,-59.1532
70,-629,10.9623,59.5162,0,0,0,0,0,0,0,-1,1294,1653,10.9623,-59.5162
77,-629,11.3751,59.5978,0.026551,0.0450089,0.00183131,0.0451889,0.026371,1.47285,0.026211,0.0467846,1301,1653,11.3751,-59.5978
84,-629,11.5801,59.693,0.0119417,0.0275108,-0.00145959,0.0276465,0.011806,-1.47812,0.0160182,0.0439839,1308,1653,11.58,-59.693
91,-629,11.6284,59.8561,-0.00112575,0.00949528,-0.00556436,0.0118766,-0.00350703,-1.16643,0.00930957,0.04189,1315,1653,11.6284,-59.8561
98,-629,11.6188,60.4349,-0.0158057,-0.0103504,-0.00201248,-0.00968833,-0.0164678,-1.25297,0.009557,0.0426454,1322,1653,11.6187,-60.435
105,-629,7.86023,56.8932,0,0,0,0,0,0,0,-1,1329,1653,7.8602,-56.8932
112,-629,4.69592,55.3937,0,0,0,0,0,0,0,-1,1336,1653,4.69594,-55.3937
119,-629,4.38062,54.9694,-0.0601588,-0.0531176,-0.0210474,-0.0352984,-0.077978,-0.868267,0.0450878,0.0433935,1343,1653,4.38059,-54.9694
126,-629,4.00879,54.4614,-0.0722755,-0.0725388,-0.0311818,-0.0412251,-0.103589,-0.783288,0.0602209,0.0415962,1350,1653,4.00884,-54.4614
133,-629,3.61462,53.851,-0.0827608,-0.090781,-0.0399818,-0.0465884,-0.126953,-0.735416,0.0741562,0.044045,1357,1653,3.61464,-53.8509
140,-629,3.52649,53.3245,-0.0905664,-0.110545,-0.0468068,-0.0526949,-0.148417,-0.680266,0.0868804,0.0439011,1364,1653,3.52644,-53.3244
147,-629,2.98975,53.5708,0,0,0,0,0,0,0,-1,1371,1653,2.98976,-53.5708
154,-629,6.41516,53.151,0,0,0,0,0,0,0,-1,1378,1653,6.41517,-53.151
161,-629,10.5461,6.83752,0,0,0,0,0,0,0,-1,1385,1653,10.5461,-6.83758
168,-629,12.0059,5.56348,0,0,0,0,0,0,0,-1,1392,1653,12.0059,-5.56352
175,-629,5.84485,-1.78845,0,0,0,0,0,0,0,-1,1399,1653,5.84479,1.7884
182,-629,5.99036,-1.27783,0,0,0,0,0,0,0,-1,1406,1653,5.99041,1.27778
189,-629,5.97668,-0.748535,0,0,0,0,0,0,0,-1,1413,1653,5.97671,0.748544
196,-629,4.52869,9.24695,0,0,0,0,0,0,0,-1,1420,1653,4.52869,-9.2469
203,-629,3.75085,6.88037,0,0,0,0,0,0,0,-1,1427,1653,3.75087,-6.88032
210,-629,3.5907,6.52637,0,0,0,0,0,0,0,-1,1434,1653,3.59067,-6.52642
217,-629,2.4585,4.84448,0,0,0,0,0,0,0,-1,1441,1653,2.45855,-4.84448
224,-629,1.31982,3.68481,0,0,0,0,0,0,0,-1,1448,1653,1.31986,-3.68487
231,-629,3.63025,1.73499,0,0,0,0,0,0,0,-1,1455,1653,3.6303,-1.735
238,-629,4.26428,2.11255,0,0,0,0,0,0,0,-1,1462,1653,4.26429,-2.11253
245,-629,5.61816,1.95361,0,0,0,0,0,0,0,-1,1469,1653,5.61815,-1.95359
252,-629,7.27136,2.18982,0,0,0,0,0,0,0,-1,1476,1653,7.27131,-2.18985
259,-629,8.67334,2.18628,0,0,0,0,0,0,0,-1,1483,1653,8.6733,-2.18633
266,-629,6.86475,3.72058,0,0,0,0,0,0,0,-1,1490,1653,6.86479,-3.72063
273,-629,7.9021,3.8717,0,0,0,0,0,0,0,-1,1497,1653,7.90205,-3.87171
280,-629,9.70837,4.39087,0,0,0,0,0,0,0,-1,1504,1653,9.7084,-4.39082
287,-629,9.82947,7.19348,0,0,0,0,0,0,0,-1,1511,1653,9.8295,-7.19347
294,-629,6.56555,11.6359,0,0,0,0,0,0,0,-1,1518,1653,6.5656,-11.6358
301,-629,13.903,44.4862,0,0,0,0,0,0,0,-1,1525,1653,13.903,-44.4862
308,-629,6.08264,12.1423,0,0,0,0,0,0,0,-1,1532,1653,6.08263,-12.1423
315,-629,6.82043,18.2764,0,0,0,0,0,0,0,-1,1539,1653,6.82049,-18.2764
322,-629,14.1931,43.8071,0,0,0,0,0,0,0,-1,1546,1653,14.1931,-43.8071
329,-629,15.0182,50.0035,0,0,0,0,0,0,0,-1,1553,1653,15.0182,-50.0036
336,-629,15.0109,49.3264,0,0,0,0,0,0,0,-1,1560,1653,15.0108,-49.3264
343,-629,15.3116,48.7374,0,0,0,0,0,0,0,-1,1567,1653,15.3117,-48.7375
350,-629,15.3297,48.1324,0.00694546,0.0174066,-0.00641227,0.020451,0.003901,-1.12752,0.0125376,0.0309772,1574,1653,15.3297,-48.1324
357,-629,15.3197,47.5057,0.00537399,0.0152235,-0.00527437,0.0175148,0.00308263,-1.16096,0.0107967,0.0179759,1581,1653,15.3197,-47.5057
364,-629,15.2539,46.9321,0.00435987,0.0136829,-0.0045695,0.015549,0.00249374,-1.18308,0.00964285,0.0151194,1588,1653,15.254,-46.9322
371,-629,15.2338,46.3654,0.00369759,0.011815,-0.00385263,0.0133524,0.00216024,-1.19112,0.00827601,0.0123758,1595,1653,15.2337,-46.3654
378,-629,15.2456,45.7769,0.00302685,0.010064,-0.00321795,0.0113136,0.00177724,-1.2004,0.00702533,0.0110658,1602,1653,15.2456,-45.7769
385,-629,15.239,45.2222,0.0024261,0.00831655,-0.0026241,0.00931597,0.00142668,-1.2069,0.00579394,0.0128412,1609,1653,15.2391,-45.2222
392,-629,15.2139,44.6514,0.00191936,0.00685433,-0.00219883,0.0076919,0.0010818,-1.20685,0.00480807,0.011133,1616,1653,15.2139,-44.6513
399,-629,15.1982,44.0651,0.00153182,0.0056555,-0.00192705,0.00641584,0.000771482,-1.19499,0.00404467,0.0113085,1623,1653,15.1982,-44.0651
406,-629,15.1769,43.4567,0.00131215,0.00464964,-0.00180281,0.00543749,0.000524301,-1.1588,0.00346348,0.0151038,1630,1653,15.1768,-43.4566
413,-629,15.1569,42.8499,0.00125684,0.00370523,-0.00173015,0.00460049,0.000361584,-1.09329,0.00295385,0.0243855,1637,1653,15.1569,-42.8498
420,-629,15.1252,42.2831,0.00132268,0.00308315,-0.00178351,0.00419181,0.000214014,-1.01463,0.00272601,0.0225781,1644,1653,15.1252,-42.283
427,-629,15.1396,41.6986,0.00142747,0.00251268,-0.0018959,0.00394209,-1.94344e-06,-0.924772,0.00262871,0.0159875,1651,1653,15.1396,-41.6986
434,-629,15.1417,41.0657,0.00169585,0.00229239,-0.00218865,0.00420299,-0.000214761,-0.853121,0.00287626,0.0139012,1658,1653,15.1418,-41.0657
441,-629,15.1027,40.4287,0.00208238,0.002157,-0.0025286,0.00464856,-0.000409186,-0.792775,0.00324405,0.0164318,1665,1653,15.1026,-40.4288
448,-629,15.0575,39.7996,0.00257042,0.0021174,-0.00292497,0.00527764,-0.00058982,-0.746755,0.00373061,0.0161261,1672,1653,15.0575,-39.7995
455,-629,15.0139,39.1567,0.00310581,0.00217723,-0.00331502,0.00598889,-0.000705853,-0.715823,0.00424747,0.0150494,1679,1653,15.0139,-39.1568
462,-629,15.0214,38.5715,0.00350448,0.0023514,-0.0037799,0.00675155,-0.000895682,-0.709718,0.00482737,0.0202349,1686,1653,15.0214,-38.5716
469,-629,15.0105,37.9236,0.00381634,0.00255739,-0.00436205,0.0075941,-0.00122037,-0.71374,0.00551472,0.0297267,1693,1653,15.0105,-37.9236
476,-629,15.1517,37.2762,0,0,0,0,0,0,0,-1,1700,1653,15.1517,-37.2762
483,-629,14.0381,30.967,0,0,0,0,0,0,0,-1,1707,1653,14.0381,-30.9671
490,-629,13.9072,28.8588,0,0,0,0,0,0,0,-1,1714,1653,13.9072,-28.8587
497,-629,10.3662,19.8605,0,0,0,0,0,0,0,-1,1721,1653,10.3662,-19.8605
504,-629,7.89453,15.5316,0,0,0,0,0,0,0,-1,1728,1653,7.89447,-15.5316
511,-629,6.29138,3.40295,0,0,0,0,0,0,0,-1,1735,1653,6.29137,-3.403
518,-629,5.84387,1.41858,0,0,0,0,0,0,0,-1,1742,1653,5.84391,-1.4186
525,-629,6.4729,1.02319,0,0,0,0,0,0,0,-1,1749,1653,6.47284,-1.02316
532,-629,6.86511,0.903687,0,0,0,0,0,0,0,-1,1756,1653,6.86514,-0.903691
539,-629,6.60803,0.746704,0,0,0,0,0,0,0,-1,1763,1653,6.60809,-0.746691
546,-629,0,0,0,0,0,0,0,0,0,-1,1770,1653,0,0
553,-629,0,0,0,0,0,0,0,0,0,-1,1777,1653,0,0
560,-629,0,0,0,0,0,0,0,0,0,-1,1784,1653,0,0
567,-629,0,0,0,0,0,0,0,0,0,-1,1791,1653,0,0
574,-629,0,0,0,0,0,0,0,0,0,-1,1798,1653,0,0
581,-629,0,0,0,0,0,0,0,0,0,-1,1805,1653,0,0
588,-629,0,0,0,0,0,0,0,0,0,-1,1812,1653,0,0
595,-629,0,0,0,0,0,0,0,0,0,-1,1819,1653,0,0
602,-629,0,0,0,0,0,0,0,0,0,-1,1826,1653,0,0
609,-629,0,0,0,0,0,0,0,0,0,-1,1833,1653,0,0
616,-629,0,0,0,0,0,0,0,0,0,-1,1840,1653,0,0
623,-629,0,0,0,0,0,0,0,0,0,-1,1847,1653,0,0
630,-629,0,0,0,0,0,0,0,0,0,-1,1854,1653,0,0
637,-629,0,0,0,0,0,0,0,0,0,-1,1861,1653,0,0
644,-629,0,0,0,0,0,0,0,0,0,-1,1868,1653,0,0
651,-629,0,0,0,0,0,0,0,0,0,-1,1875,1653,0,0
658,-629,0,0,0,0,0,0,0,0,0,-1,1882,1653,0,0
665,-629,0,0,0,0,0,0,0,0,0,-1,1889,1653,0,0
672,-629,0,0,0,0,0,0,0,0,0,-1,1896,1653,0,0
679,-629,0,0,0,0,0,0,0,0,0,-1,1903,1653,0,0
686,-629,0,0,0,0,0,0,0,0,0,-1,1910,1653,0,0
693,-629,0,0,0,0,0,0,0,0,0,-1,1917,1653,0,0
700,-629,0,0,0,0,0,0,0,0,0,-1,1924,1653,0,0
707,-629,0,0,0,0,0,0,0,0,0,-1,1931,1653,0,0
714,-629,0,0,0,0,0,0,0,0,0,-1,1938,1653,0,0
721,-629,0,0,0,0,0,0,0,0,0,-1,1945,1653,0,0
728,-629,0,0,0,0,0,0,0,0,0,-1,1952,1653,0,0
735,-629,0,0,0,0,0,0,0,0,0,-1,1959,1653,0,0
742,-629,0,0,0,0,0,0,0,0,0,-1,1966,1653,0,0
749,-629,0,0,0,0,0,0,0,0,0,-1,1973,1653,0,0
756,-629,0,0,0,0,0,0,0,0,0,-1,1980,1653,0,0
763,-629,0,0,0,0,0,0,0,0,0,-1,1987,1653,0,0
770,-629,0,0,0,0,0,0,0,0,0,-1,1994,1653,0,0
777,-629,0,0,0,0,0,0,0,0,0,-1,2001,1653,0,0
784,-629,0,0,0,0,0,0,0,0,0,-1,2008,1653,0,0
791,-629,0,0,0,0,0,0,0,0,0,-1,2015,1653,0,0
798,-629,0,0,0,0,0,0,0,0,0,-1,2022,1653,0,0
805,-629,0,0,0,0,0,0,0,0,0,-1,2029,1653,0,0
812,-629,0,0,0,0,0,0,0,0,0,-1,2036,1653,0,0
-700,-636,0,0,0,0,0,0,0,0,0,-1,524,1660,0,0
-693,-636,0,0,0,0,0,0,0,0,0,-1,531,1660,0,0
-686,-636,0,0,0,0,0,0,0,0,0,-1,538,1660,0,0
-679,-636,0,0,0,0,0,0,0,0,0,-1,545,1660,0,0
-672,-636,0,0,0,0,0,0,0,0,0,-1,552,1660,0,0
-665,-636,0,0,0,0,0,0,0,0,0,-1,559,1660,0,0
-658,-636,0,0,0,0,0,0,0,0,0,-1,566,1660,0,0
-651,-636,0,0,0,0,0,0,0,0,0,-1,573,1660,0,0
-644,-636,0,0,0,0,0,0,0,0,0,-1,580,1660,0,0
-637,-636,0,0,0,0,0,0,0,0,0,-1,587,1660,0,0
-630,-636,0,0,0,0,0,0,0,0,0,-1,594,1660,0,0
-623,-636,0,0,0,0,0,0,0,0,0,-1,601,1660,0,0
-616,-636,0,0,0,0,0,0,0,0,0,-1,608,1660,0,0
-609,-636,0,0,0,0,0,0,0,0,0,-1,615,1660,0,0
-602,-636,0,0,0,0,0,0,0,0,0,-1,622,1660,0,0
-595,-636,0,0,0,0,0,0,0,0,0,-1,629,1660,0,0
-588,-636,0,0,0,0,0,0,0,0,0,-1,636,1660,0,0
-581,-636,0,0,0,0,0,0,0,0,0,-1,643,1660,0,0
-574,-636,0,0,0,0,0,0,0,0,0,-1,650,1660,0,0
-567,-636,0,0,0,0,0,0,0,0,0,-1,657,1660,0,0
-560,-636,0,0,0,0,0,0,0,0,0,-1,664,1660,0,0
-553,-636,0,0,0,0,0,0,0,0,0,-1,671,1660,0,0
-546,-636,0,0,0,0,0,0,0,0,0,-1,678,1660,0,0
-539,-636,0,0,0,0,0,0,0,0,0,-1,685,1660,0,0
-532,-636,0,0,0,0,0,0,0,0,0,-1,692,1660,0,0
-525,-636,0,0,0,0,0,0,0,0,0,-1,699,1660,0,0
-518,-636,0,0,0,0,0,0,0,0,0,-1,706,1660,0,0
-511,-636,0,0,0,0,0,0,0,0,0,-1,713,1660,0,0
-504,-636,0,0,0,0,0,0,0,0,0,-1,720,1660,0,0
-497,-636,0,0,0,0,0,0,0,0,0,-1,727,1660,0,0
-490,-636,0,0,0,0,0,0,0,0,0,-1,734,1660,0,0
-483,-636,0,0,0,0,0,0,0,0,0,-1,741,1660,0,0
-476,-636,0,0,0,0,0,0,0,0,0,-1,748,1660,0,0
-469,-636,0,0,0,0,0,0,0,0,0,-1,755,1660,0,0
-462,-636,0,0,0,0,0,0,0,0,0,-1,762,1660,0,0
-455,-636,0,0,0,0,0,0,0,0,0,-1,769,1660,0,0
-448,-636,0,0,0,0,0,0,0,0,0,-1,776,1660,0,0
-441,-636,0,0,0,0,0,0,0,0,0,-1,783,1660,0,0
-434,-636,0,0,0,0,0,0,0,0,0,-1,790,1660,0,0
-427,-636,0,0,0,0,0,0,0,0,0,-1,797,1660,0,0
-420,-636,0,0,0,0,0,0,0,0,0,-1,804,1660,0,0
-413,-636,0,0,0,0,0,0,0,0,0,-1,811,1660,0,0
-406,-636,-0.591125,10.6943,0,0,0,0,0,0,0,-1,818,1660,-0.59115,-10.6943
-399,-636,0.0766602,11.2408,0,0,0,0,0,0,0,-1,825,1660,0.076685,-11.2409
-392,-636,0.75946,11.9233,0,0,0,0,0,0,0,-1,832,1660,0.759481,-11.9233
-385,-636,1.68878,12.517,0,0,0,0,0,0,0,-1,839,1660,1.6888,-12.5169
-378,-636,2.22107,13.0013,0,0,0,0,0,0,0,-1,846,1660,2.22107,-13.0014
-371,-636,2.52185,11.9684,0,0,0,0,0,0,0,-1,853,1660,2.52184,-11.9684
-364,-636,4.51947,14.8503,0,0,0,0,0,0,0,-1,860,1660,4.51949,-14.8504
-357,-636,4.55682,15.8809,0,0,0,0,0,0,0,-1,867,1660,4.55681,-15.8808
-350,-636,3.67798,35.933,0,0,0,0,0,0,0,-1,874,1660,3.678,-35.933
-343,-636,3.7453,37.3616,0,0,0,0,0,0,0,-1,881,1660,3.74533,-37.3616
-336,-636,3.67188,38.0236,0.00548255,-0.00233953,0.00313388,0.00658324,-0.00344022,0.337764,0.00588112,0.0334865,888,1660,3.67187,-38.0236
-329,-636,3.78766,38.7026,0.00426328,-0.00267541,0.00213685,0.00486855,-0.00328068,0.276023,0.00473464,0.0194785,895,1660,3.78768,-38.7026
-322,-636,3.74786,39.3566,0.00310394,-0.00306825,0.00143943,0.00342313,-0.00338743,0.218214,0.0039321,0.0135644,902,1660,3.74785,-39.3566
-315,-636,3.70453,40.0203,0.00216251,-0.00316661,0.000914548,0.00231509,-0.00331919,0.165314,0.00327012,0.0142579,909,1660,3.70451,-40.0202
-308,-636,3.67737,40.6683,0.0015247,-0.00294279,0.000609286,0.0016063,-0.00302439,0.133143,0.002715,0.011871,916,1660,3.67737,-40.6684
-301,-636,3.65021,41.3248,0.00103844,-0.00256053,0.000495326,0.00110537,-0.00262746,0.134304,0.00221406,0.011596,923,1660,3.65021,-41.3248
-294,-636,3.60864,41.9827,0.000838137,-0.00187859,0.000617852,0.000972051,-0.0020125,0.21344,0.00175769,0.0151722,930,1660,3.60865,-41.9826
-287,-636,3.58063,42.5742,0.000808501,-0.00104579,0.000846393,0.00113673,-0.00137403,0.369948,0.00145175,0.0141588,937,1660,3.58062,-42.5742
-280,-636,3.56061,43.1666,0.00100873,-4.6688e-05,0.00112993,0.0017281,-0.000766065,0.566937,0.00147528,0.013721,944,1660,3.56063,-43.1667
-273,-636,3.5332,43.7837,0.0014543,0.000979085,0.00149964,0.00273504,-0.000301658,0.70683,0.00193178,0.012876,951,1660,3.53321,-43.7837
-266,-636,3.50977,44.4053,0.0020065,0.00208637,0.00194679,0.00399363,9.92357e-05,0.795652,0.00262997,0.0133954,958,1660,3.50977,-44.4052
-259,-636,3.48724,45.0114,0.002808,0.00320175,0.00235689,0.00536997,0.000639778,0.827068,0.00338693,0.0153268,965,1660,3.48727,-45.0113
-252,-636,3.46033,45.5789,0.00368271,0.00432634,0.00263834,0.00666242,0.00134662,0.846087,0.00406773,0.0121699,972,1660,3.46035,-45.5789
-245,-636,3.4729,46.1938,0.00445123,0.00525458,0.00281076,0.00769222,0.00201359,0.856371,0.00460607,0.0109389,979,1660,3.47289,-46.1938
-238,-636,3.47699,46.7976,0.0042623,0.0047663,0.00293011,0.00745523,0.00157337,0.828294,0.00453755,0.0119599,986,1660,3.47701,-46.7976
-231,-636,3.46954,47.3723,0.00337985,0.00284884,0.00313723,0.00626279,-3.4102e-05,0.743183,0.00418661,0.0111937,993,1660,3.46951,-47.3723
-224,-636,3.47424,47.9423,0.00258306,0.00114692,0.00316147,0.00510699,-0.001377,0.673727,0.00394461,0.0103112,1000,1660,3.47422,-47.9422
-217,-636,3.45801,48.5663,0.00151257,-0.00158468,0.00341839,0.00371676,-0.00378887,0.572713,0.00433345,0.0180963,1007,1660,3.45803,-48.5663
-210,-636,3.44141,49.0858,-2.60339e-05,-0.00468904,0.00366196,0.00198364,-0.00669872,0.50192,0.00525338,0.0294532,1014,1660,3.44142,-49.0859
-203,-636,3.42957,49.6743,0,0,0,0,0,0,0,-1,1021,1660,3.42955,-49.6744
-196,-636,3.68066,50.1257,-0.00307378,-0.0114215,0.00469093,-0.000968631,-0.0135267,0.42183,0.00871286,0.0324819,1028,1660,3.68064,-50.1257
-189,-636,3.65283,50.5138,-0.00459269,-0.0150479,0.00530518,-0.00237229,-0.0172683,0.396381,0.0108086,0.028808,1035,1660,3.65287,-50.5138
-182,-636,3.62,51.1937,-0.00568342,-0.0174062,0.00620062,-0.00301231,-0.0200773,0.406757,0.0125023,0.0409186,1042,1660,3.61997,-51.1938
-175,-636,3.72205,51.7178,0,0,0,0,0,0,0,-1,1049,1660,3.72205,-51.7178
-168,-636,4.61365,51.7938,0,0,0,0,0,0,0,-1,1056,1660,4.6136,-51.7938
-161,-636,4.66357,52.5931,0,0,0,0,0,0,0,-1,1063,1660,4.66357,-52.5931
-154,-636,3.04114,53.8864,0,0,0,0,0,0,0,-1,1070,1660,3.04114,-53.8863
-147,-636,2.90784,51.7357,0,0,0,0,0,0,0,-1,1077,1660,2.90779,-51.7357
-140,-636,3.4729,27.1271,0,0,0,0,0,0,0,-1,1084,1660,3.47287,-27.1271
-133,-636,1.87109,53.1626,0,0,0,0,0,0,0,-1,1091,1660,1.87115,-53.1626
-126,-636,3.79028,18.2225,0,0,0,0,0,0,0,-1,1098,1660,3.79025,-18.2226
-119,-636,1.8667,13.8916,0,0,0,0,0,0,0,-1,1105,1660,1.86668,-13.8916
-112,-636,-1.24963,9.7998,0,0,0,0,0,0,0,-1,1112,1660,-1.24968,-9.79978
-105,-636,3.51624,4.72791,0,0,0,0,0,0,0,-1,1119,1660,3.51618,-4.7279
-98,-636,1.54504,5.11914,0,0,0,0,0,0,0,-1,1126,1660,1.54503,-5.11912
-91,-636,-1.87964,-2.25012,0,0,0,0,0,0,0,-1,1133,1660,-1.87966,2.25016
-84,-636,-2.84143,0.133667,0,0,0,0,0,0,0,-1,1140,1660,-2.84144,-0.133701
-77,-636,-3.57349,2.45935,0,0,0,0,0,0,0,-1,1147,1660,-3.57345,-2.45939
-70,-636,-4.23682,4.82312,0,0,0,0,0,0,0,-1,1154,1660,-4.23681,-4.82307
-63,-636,-2.21033,6.97168,0,0,0,0,0,0,0,-1,1161,1660,-2.21034,-6.97165
-56,-636,-2.51917,8.80359,0,0,0,0,0,0,0,-1,1168,1660,-2.51916,-8.80361
-49,-636,-3.13,10.4113,0,0,0,0,0,0,0,-1,1175,1660,-3.12996,-10.4112
-42,-636,-2.27771,4.90173,0,0,0,0,0,0,0,-1,1182,1660,-2.27775,-4.90173
-35,-636,-2.27698,5.89685,0,0,0,0,0,0,0,-1,1189,1660,-2.27695,-5.89686
-28,-636,-1.70654,4.83936,0,0,0,0,0,0,0,-1,1196,1660,-1.70656,-4.8393
-21,-636,4.24683,27.7834,0,0,0,0,0,0,0,-1,1203,1660,4.24687,-27.7835
-14,-636,-0.462646,46.4132,0,0,0,0,0,0,0,-1,1210,1660,-0.462615,-46.4132
-7,-636,9.17664,62.5701,0,0,0,0,0,0,0,-1,1217,1660,9.17667,-62.57
0,-636,10.1683,63.424,0,0,0,0,0,0,0,-1,1224,1660,10.1683,-63.424
7,-636,11.181,64.307,0.0120201,0.110949,0.0717086,0.148598,-0.0256296,1.08732,0.108621,0.045194,1231,1660,11.181,-64.307
14,-636,10.1688,62.8948,0.0178741,0.111156,0.0606662,0.141038,-0.012008,1.11311,0.0982726,0.0408021,1238,1660,10.1688,-62.8947
21,-636,10.3369,63.4791,0.0245457,0.111156,0.0442534,0.129768,0.00593397,1.17268,0.0846034,0.0420478,1245,1660,10.3369,-63.4791
28,-636,10.4626,64.5524,0.0310787,0.102654,0.0292155,0.113065,0.0206679,1.22848,0.0695192,0.0444236,1252,1660,10.4626,-64.5524
35,-636,10.9512,65.4465,0.0367991,0.092348,0.0167456,0.0970055,0.0321416,1.29952,0.0570584,0.0425684,1259,1660,10.9512,-65.4465
42,-636,11.437,66.095,0.0415795,0.0846308,0.0100067,0.0868431,0.0393673,1.35322,0.0502117,0.0467547,1266,1660,11.437,-66.095
49,-636,9.41943,60.6752,0.0437811,0.0724407,0.00609576,0.0736834,0.0425384,1.3697,0.0427103,0.0457624,1273,1660,9.41938,-60.6751
56,-636,9.94543,60.105,0.04066,0.0616357,0.00116886,0.0617006,0.040595,1.5153,0.0362104,0.0467686,1280,1660,9.94543,-60.1049
63,-636,10.4236,58.9343,0,0,0,0,0,0,0,-1,1287,1660,10.4236,-58.9343
70,-636,9.84021,59.3215,0,0,0,0,0,0,0,-1,1294,1660,9.84017,-59.3216
77,-636,10.4178,59.4244,0.0192032,0.0289101,-0.00392055,0.0302958,0.0178175,-1.23106,0.0175816,0.0465163,1301,1660,10.4178,-59.4244
84,-636,10.9561,59.5435,0.00652098,0.0127933,-0.006856,0.0171964,0.00211789,-0.999906,0.0108275,0.04474,1308,1660,10.956,-59.5434
91,-636,10.0382,57.6105,-0.00546337,-0.00335847,-0.010635,0.006276,-0.0150978,-0.834718,0.0126857,0.041009,1315,1660,10.0383,-57.6105
98,-636,10.6489,61.0333,-0.018805,-0.0205986,-0.00918158,-0.0104765,-0.0289271,-0.736717,0.0169112,0.0453323,1322,1660,10.649,-61.0333
105,-636,7.94177,57.0151,-0.0333037,-0.0299443,-0.00984944,-0.0216324,-0.0416156,-0.869853,0.0240331,0.0498729,1329,1660,7.94172,-57.0151
112,-636,6.37463,55.814,0,0,0,0,0,0,0,-1,1336,1660,6.37469,-55.8139
119,-636,4.69238,55.7905,-0.0598084,-0.0595795,-0.0265103,-0.0331834,-0.0862045,-0.787557,0.0502076,0.0467215,1343,1660,4.69241,-55.7905
126,-636,3.89343,55.453,-0.0712209,-0.0768976,-0.0345105,-0.0394322,-0.108686,-0.744368,0.0635325,0.0451127,1350,1660,3.89345,-55.4531
133,-636,3.19824,55.0789,-0.0812538,-0.0943812,-0.0408581,-0.0464355,-0.1292,-0.705756,0.0755699,0.0479856,1357,1660,3.19823,-55.0789
140,-636,2.58948,54.7366,0,0,0,0,0,0,0,-1,1364,1660,2.58944,-54.7366
147,-636,1.08557,53.1262,0,0,0,0,0,0,0,-1,1371,1660,1.08563,-53.1262
154,-636,1.53149,56.5167,0,0,0,0,0,0,0,-1,1378,1660,1.5315,-56.5167
161,-636,10.2961,7.13025,0,0,0,0,0,0,0,-1,1385,1660,10.2961,-7.13021
168,-636,11.7659,5.83899,0,0,0,0,0,0,0,-1,1392,1660,11.7658,-5.83899
175,-636,5.94592,-1.72888,0,0,0,0,0,0,0,-1,1399,1660,5.94598,1.72886
182,-636,5.93994,-1.11938,0,0,0,0,0,0,0,-1,1406,1660,5.93998,1.11936
189,-636,5.32544,11.9595,0,0,0,0,0,0,0,-1,1413,1660,5.32542,-11.9595
196,-636,5.3623,9.38025,0,0,0,0,0,0,0,-1,1420,1660,5.36225,-9.38027
203,-636,5.18542,9.02429,0,0,0,0,0,0,0,-1,1427,1660,5.18547,-9.0243
210,-636,4.09167,7.17041,0,0,0,0,0,0,0,-1,1434,1660,4.09173,-7.17041
217,-636,2.94897,5.28992,0,0,0,0,0,0,0,-1,1441,1660,2.94899,-5.28991
224,-636,1.49194,3.63916,0,0,0,0,0,0,0,-1,1448,1660,1.49197,-3.63918
231,-636,0.17749,2.24854,0,0,0,0,0,0,0,-1,1455,1660,0.177501,-2.24855
238,-636,-0.764648,1.00598,0,0,0,0,0,0,0,-1,1462,1660,-0.764704,-1.00595
245,-636,6.21204,1.18005,0,0,0,0,0,0,0,-1,1469,1660,6.21206,-1.18001
252,-636,7.70251,0.865723,0,0,0,0,0,0,0,-1,1476,1660,7.7025,-0.865692
259,-636,9.03601,0.787231,0,0,0,0,0,0,0,-1,1483,1660,9.03598,-0.787243
266,-636,10.1071,3.24109,0,0,0,0,0,0,0,-1,1490,1660,10.1071,-3.24103
273,-636,8.48535,5.02466,0,0,0,0,0,0,0,-1,1497,1660,8.48533,-5.02472
280,-636,11.908,32.0698,0,0,0,0,0,0,0,-1,1504,1660,11.9079,-32.0698
287,-636,12.1218,36.4158,0,0,0,0,0,0,0,-1,1511,1660,12.1218,-36.4158
294,-636,13.3706,44.9711,0,0,0,0,0,0,0,-1,1518,1660,13.3706,-44.9711
301,-636,14.5042,52.4933,0,0,0,0,0,0,0,-1,1525,1660,14.5042,-52.4932
308,-636,14.6792,51.2804,0,0,0,0,0,0,0,-1,1532,1660,14.6792,-51.2804
315,-636,14.3688,50.9479,0,0,0,0,0,0,0,-1,1539,1660,14.3687,-50.9479
322,-636,14.6107,50.5984,0,0,0,0,0,0,0,-1,1546,1660,14.6108,-50.5984
329,-636,14.5375,49.9193,0.00946033,0.0169325,-0.00657468,0.0207585,0.00563437,-1.04377,0.0123953,0.0404943,1553,1660,14.5375,-49.9193
336,-636,14.5323,49.2815,0.00794478,0.0155636,-0.00586706,0.0187494,0.0047589,-1.07333,0.0112539,0.0301757,1560,1660,14.5323,-49.2815
343,-636,14.6649,48.6263,0.00663831,0.0141728,-0.00533366,0.0169355,0.00387563,-1.09288,0.0102458,0.0227932,1567,1660,14.6649,-48.6263
350,-636,14.6753,48.0553,0.00538322,0.0127376,-0.00449794,0.0148702,0.00325066,-1.12807,0.00902714,0.0121687,1574,1660,14.6753,-48.0552
357,-636,14.6902,47.4706,0.00422182,0.0110606,-0.00378859,0.0127447,0.00253772,-1.15251,0.00778961,0.0108536,1581,1660,14.6902,-47.4706
364,-636,14.6917,46.9063,0.00349463,0.00991702,-0.00337617,0.0113652,0.00204639,-1.16558,0.0069952,0.0110007,1588,1660,14.6917,-46.9062
371,-636,14.6764,46.3636,0.00301137,0.00849609,-0.00294314,0.0097765,0.00173097,-1.16045,0.00602415,0.00963299,1595,1660,14.6764,-46.3637
378,-636,14.6643,45.8029,0.00255474,0.0071097,-0.00256282,0.00826077,0.00140367,-1.14866,0.00510404,0.00983405,1602,1660,14.6643,-45.8028
385,-636,14.6681,45.2308,0.00221295,0.00571324,-0.00222644,0.00679506,0.00113113,-1.11849,0.00420403,0.0148136,1609,1660,14.6681,-45.2308
392,-636,14.6451,44.6462,0.0018887,0.00452079,-0.00197851,0.00558098,0.00082851,-1.07888,0.00347754,0.0159639,1616,1660,14.6452,-44.6462
399,-636,14.6166,44.0793,0.00163772,0.00355931,-0.00184818,0.00468151,0.000515519,-1.0251,0.00296415,0.0125557,1623,1660,14.6166,-44.0793
406,-636,14.6074,43.4985,0.00152879,0.0028173,-0.00184574,0.00412799,0.000218096,-0.953312,0.00268225,0.0148204,1630,1660,14.6075,-43.4985
413,-636,14.5895,42.8857,0.00154977,0.00216564,-0.00189499,0.00377755,-6.2143e-05,-0.865944,0.00253934,0.0235531,1637,1660,14.5894,-42.8857
420,-636,14.543,42.3124,0.00168055,0.00183188,-0.00206016,0.00381777,-0.000305331,-0.803754,0.00265282,0.0241764,1644,1660,14.543,-42.3124
427,-636,14.5508,41.7136,0.00188671,0.00162309,-0.00231803,0.00407668,-0.000566878,-0.756997,0.00292511,0.0165625,1651,1660,14.5508,-41.7137
434,-636,14.5326,41.076,0.00222492,0.00174048,-0.00271221,0.00470571,-0.000740303,-0.740863,0.00341079,0.0161746,1658,1660,14.5326,-41.0761
441,-636,14.4921,40.4446,0.00263188,0.00202525,-0.00317315,0.00551618,-0.000859044,-0.737749,0.00399471,0.0141747,1665,1660,14.4921,-40.4445
448,-636,14.4709,39.8269,0.00317817,0.00244572,-0.00372208,0.006552,-0.000928113,-0.736359,0.00470797,0.0159141,1672,1660,14.471,-39.8269
455,-636,14.4188,39.1956,0.00384102,0.00303324,-0.00424741,0.0077037,-0.000829443,-0.737995,0.00543343,0.016518,1679,1660,14.4188,-39.1955
462,-636,14.351,38.562,0.00443033,0.00377179,-0.00492637,0.00903843,-0.000836302,-0.752028,0.00632285,0.0240152,1686,1660,14.351,-38.562
469,-636,14.4719,37.8923,0.00494558,0.00455503,-0.0057537,0.0105073,-0.0010067,-0.768435,0.00736342,0.0413588,1693,1660,14.4719,-37.8923
476,-636,14.7582,37.2498,0,0,0,0,0,0,0,-1,1700,1660,14.7582,-37.2498
483,-636,11.3833,24.3958,0,0,0,0,0,0,0,-1,1707,1660,11.3833,-24.3957
490,-636,10.8951,23.9569,0,0,0,0,0,0,0,-1,1714,1660,10.8951,-23.9569
497,-636,9.55579,18.0111,0,0,0,0,0,0,0,-1,1721,1660,9.55574,-18.0111
504,-636,6.26428,19.4268,0,0,0,0,0,0,0,-1,1728,1660,6.26433,-19.4268
511,-636,5.65466,9.23218,0,0,0,0,0,0,0,-1,1735,1660,5.65461,-9.23216
518,-636,6.72791,1.07605,0,0,0,0,0,0,0,-1,1742,1660,6.7279,-1.0761
525,-636,7.04309,0.93335,0,0,0,0,0,0,0,-1,1749,1660,7.04308,-0.933298
532,-636,0,0,0,0,0,0,0,0,0,-1,1756,1660,0,0
539,-636,0,0,0,0,0,0,0,0,0,-1,1763,1660,0,0
546,-636,0,0,0,0,0,0,0,0,0,-1,1770,1660,0,0
553,-636,0,0,0,0,0,0,0,0,0,-1,1777,1660,0,0
560,-636,0,0,0,0,0,0,0,0,0,-1,1784,1660,0,0
567,-636,0,0,0,0,0,0,0,0,0,-1,1791,1660,0,0
574,-636,0,0,0,0,0,0,0,0,0,-1,1798,1660,0,0
581,-636,0,0,0,0,0,0,0,0,0,-1,1805,1660,0,0
588,-636,0,0,0,0,0,0,0,0,0,-1,1812,1660,0,0
595,-636,0,0,0,0,0,0,0,0,0,-1,1819,1660,0,0
602,-636,0,0,0,0,0,0,0,0,0,-1,1826,1660,0,0
609,-636,0,0,0,0,0,0,0,0,0,-1,1833,1660,0,0
616,-636,0,0,0,0,0,0,0,0,0,-1,1840,1660,0,0
623,-636,0,0,0,0,0,0,0,0,0,-1,1847,1660,0,0
630,-636,0,0,0,0,0,0,0,0,0,-1,1854,1660,0,0
637,-636,0,0,0,0,0,0,0,0,0,-1,1861,1660,0,0
644,-636,0,0,0,0,0,0,0,0,0,-1,1868,1660,0,0
651,-636,0,0,0,0,0,0,0,0,0,-1,1875,1660,0,0
658,-636,0,0,0,0,0,0,0,0,0,-1,1882,1660,0,0
665,-636,0,0,0,0,0,0,0,0,0,-1,1889,1660,0,0
672,-636,0,0,0,0,0,0,0,0,0,-1,1896,1660,0,0
679,-636,0,0,0,0,0,0,0,0,0,-1,1903,1660,0,0
686,-636,0,0,0,0,0,0,0,0,0,-1,1910,1660,0,0
693,-636,0,0,0,0,0,0,0,0,0,-1,1917,1660,0,0
700,-636,0,0,0,0,0,0,0,0,0,-1,1924,1660,0,0
707,-636,0,0,0,0,0,0,0,0,0,-1,1931,1660,0,0
714,-636,0,0,0,0,0,0,0,0,0,-1,1938,1660,0,0
721,-636,0,0,0,0,0,0,0,0,0,-1,1945,1660,0,0
728,-636,0,0,0,0,0,0,0,0,0,-1,1952,1660,0,0
735,-636,0,0,0,0,0,0,0,0,0,-1,1959,1660,0,0
742,-636,0,0,0,0,0,0,0,0,0,-1,1966,1660,0,0
749,-636,0,0,0,0,0,0,0,0,0,-1,1973,1660,0,0
756,-636,0,0,0,0,0,0,0,0,0,-1,1980,1660,0,0
763,-636,0,0,0,0,0,0,0,0,0,-1,1987,1660,0,0
770,-636,0,0,0,0,0,0,0,0,0,-1,1994,1660,0,0
777,-636,0,0,0,0,0,0,0,0,0,-1,2001,1660,0,0
784,-636,0,0,0,0,0,0,0,0,0,-1,2008,1660,0,0
791,-636,0,0,0,0,0,0,0,0,0,-1,2015,1660,0,0
798,-636,0,0,0,0,0,0,0,0,0,-1,2022,1660,0,0
805,-636,0,0,0,0,0,0,0,0,0,-1,2029,1660,0,0
812,-636,0,0,0,0,0,0,0,0,0,-1,2036,1660,0,0
-700,-643,0,0,0,0,0,0,0,0,0,-1,524,1667,0,0
-693,-643,0,0,0,0,0,0,0,0,0,-1,531,1667,0,0
-686,-643,0,0,0,0,0,0,0,0,0,-1,538,1667,0,0
-679,-643,0,0,0,0,0,0,0,0,0,-1,545,1667,0,0
-672,-643,0,0,0,0,0,0,0,0,0,-1,552,1667,0,0
-665,-643,0,0,0,0,0,0,0,0,0,-1,559,1667,0,0
-658,-643,0,0,0,0,0,0,0,0,0,-1,566,1667,0,0
-651,-643,0,0,0,0,0,0,0,0,0,-1,573,1667,0,0
-644,-643,0,0,0,0,0,0,0,0,0,-1,580,1667,0,0
-637,-643,0,0,0,0,0,0,0,0,0,-1,587,1667,0,0
-630,-643,0,0,0,0,0,0,0,0,0,-1,594,1667,0,0
-623,-643,0,0,0,0,0,0,0,0,0,-1,601,1667,0,0
-616,-643,0,0,0,0,0,0,0,0,0,-1,608,1667,0,0
-609,-643,0,0,0,0,0,0,0,0,0,-1,615,1667,0,0
-602,-643,0,0,0,0,0,0,0,0,0,-1,622,1667,0,0
-595,-643,0,0,0,0,0,0,0,0,0,-1,629,1667,0,0
-588,-643,0,0,0,0,0,0,0,0,0,-1,636,1667,0,0
-581,-643,0,0,0,0,0,0,0,0,0,-1,643,1667,0,0
-574,-643,0,0,0,0,0,0,0,0,0,-1,650,1667,0,0
-567,-643,0,0,0,0,0,0,0,0,0,-1,657,1667,0,0
-560,-643,0,0,0,0,0,0,0,0,0,-1,664,1667,0,0
-553,-643,0,0,0,0,0,0,0,0,0,-1,671,1667,0,0
-546,-643,0,0,0,0,0,0,0,0,0,-1,678,1667,0,0
-539,-643,0,0,0,0,0,0,0,0,0,-1,685,1667,0,0
-532,-643,0,0,0,0,0,0,0,0,0,-1,692,1667,0,0
-525,-643,0,0,0,0,0,0,0,0,0,-1,699,1667,0,0
-518,-643,0,0,0,0,0,0,0,0,0,-1,706,1667,0,0
-511,-643,0,0,0,0,0,0,0,0,0,-1,713,1667,0,0
-504,-643,0,0,0,0,0,0,0,0,0,-1,720,1667,0,0
-497,-643,0,0,0,0,0,0,0,0,0,-1,727,1667,0,0
-490,-643,0,0,0,0,0,0,0,0,0,-1,734,1667,0,0
-483,-643,0,0,0,0,0,0,0,0,0,-1,741,1667,0,0
-476,-643,0,0,0,0,0,0,0,0,0,-1,748,1667,0,0
-469,-643,0,0,0,0,0,0,0,0,0,-1,755,1667,0,0
-462,-643,0,0,0,0,0,0,0,0,0,-1,762,1667,0,0
-455,-643,0,0,0,0,0,0,0,0,0,-1,769,1667,0,0
-448,-643,0,0,0,0,0,0,0,0,0,-1,776,1667,0,0
-441,-643,0,0,0,0,0,0,0,0,0,-1,783,1667,0,0
-434,-643,0,0,0,0,0,0,0,0,0,-1,790,1667,0,0
-427,-643,0,0,0,0,0,0,0,0,0,-1,797,1667,0,0
-420,-643,0,0,0,0,0,0,0,0,0,-1,804,1667,0,0
-413,-643,0,0,0,0,0,0,0,0,0,-1,811,1667,0,0
-406,-643,0,0,0,0,0,0,0,0,0,-1,818,1667,0,0
-399,-643,0.589417,11.6465,0,0,0,0,0,0,0,-1,825,1667,0.58939,-11.6465
-392,-643,0.865295,12.6523,0,0,0,0,0,0,0,-1,832,1667,0.865315,-12.6523
-385,-643,1.72968,13.2692,0,0,0,0,0,0,0,-1,839,1667,1.72967,-13.2692
-378,-643,2.66522,13.8193,0,0,0,0,0,0,0,-1,846,1667,2.66524,-13.8193
-371,-643,0.466125,3.35095,0,0,0,0,0,0,0,-1,853,1667,0.466148,-3.351
-364,-643,1.69513,9.922,0,0,0,0,0,0,0,-1,860,1667,1.69511,-9.92205
-357,-643,1.14227,10.8429,0,0,0,0,0,0,0,-1,867,1667,1.14228,-10.8429
-350,-643,4.48804,36.1799,0,0,0,0,0,0,0,-1,874,1667,4.48801,-36.1799
-343,-643,4.02527,37.4551,0,0,0,0,0,0,0,-1,881,1667,4.02526,-37.4551
-336,-643,4.03162,38.1244,0.00789245,-0.00344685,0.00340244,0.00883503,-0.00438943,0.270252,0.00777761,0.0483011,888,1667,4.03161,-38.1244
-329,-643,4.05212,38.7114,0.00586492,-0.00402444,0.00211504,0.00629828,-0.00445779,0.202095,0.00624025,0.0424053,895,1667,4.05212,-38.7114
-322,-643,4.3186,39.4092,0.00397914,-0.00474139,0.00122503,0.00414796,-0.00491021,0.136947,0.0052359,0.0291348,902,1667,4.31859,-39.4092
-315,-643,4.2948,40.0669,0.00239173,-0.00530539,0.000432247,0.00241592,-0.00532958,0.0559227,0.00457612,0.0190718,909,1667,4.29477,-40.0669
-308,-643,4.29919,40.7034,0.00122829,-0.00545008,-7.22148e-05,0.00122907,-0.00545086,-0.0108115,0.00410539,0.0131926,916,1667,4.29917,-40.7033
-301,-643,4.26868,41.3407,0.000300827,-0.00537714,-0.000354962,0.000322932,-0.00539924,-0.0621929,0.00371183,0.0138404,923,1667,4.26866,-41.3407
-294,-643,4.22833,41.976,-0.000241707,-0.00498018,-0.000370301,-0.000212943,-0.00500895,-0.0775206,0.00327063,0.0128982,930,1667,4.22833,-41.976
-287,-643,4.20081,42.5862,-0.000540086,-0.0043517,-0.000227257,-0.000526584,-0.0043652,-0.0593421,0.00275145,0.0112554,937,1667,4.20079,-42.5862
-280,-643,4.17615,43.1984,-0.000585146,-0.00345288,-1.00347e-05,-0.000585111,-0.00345291,-0.00349911,0.00213381,0.0152088,944,1667,4.17612,-43.1983
-273,-643,4.15118,43.8146,-0.000303253,-0.00243096,0.000326391,-0.00025431,-0.0024799,0.148842,0.00157535,0.0124297,951,1667,4.15118,-43.8146
-266,-643,4.11499,44.437,0.000139688,-0.00126917,0.000786984,0.000491461,-0.00162094,0.420348,0.00127639,0.0120287,958,1667,4.11497,-44.437
-259,-643,4.09009,45.0286,0.000891272,-8.60904e-05,0.00122411,0.00172064,-0.000915462,0.595484,0.00154544,0.0128892,965,1667,4.09008,-45.0286
-252,-643,4.06439,45.627,0.00174635,0.00115653,0.00152202,0.00300177,-9.88906e-05,0.689705,0.00203494,0.0147714,972,1667,4.06441,-45.627
-245,-643,4.05219,46.2209,0.00252878,0.00226476,0.00172351,0.00412533,0.000668209,0.747177,0.00255676,0.0131994,979,1667,4.0522,-46.221
-238,-643,4.09033,46.7992,0.00255977,0.0023559,0.00190216,0.00436272,0.000552945,0.758629,0.00274281,0.015707,986,1667,4.09031,-46.7992
-231,-643,4.05426,47.3741,0.00214708,0.00132557,0.00212683,0.00390245,-0.000429807,0.690007,0.0027561,0.011388,993,1667,4.05428,-47.3742
-224,-643,4.04553,47.9407,0.00188009,0.000432698,0.0021977,0.00347018,-0.0011574,0.626342,0.00278074,0.0100606,1000,1667,4.04551,-47.9407
-217,-643,4.01959,48.4719,0.00139084,-0.00121726,0.00239763,0.00281611,-0.00264253,0.536328,0.00315207,0.00942997,1007,1667,4.01956,-48.4719
-210,-643,4.01178,49.0339,0.000537161,-0.00324832,0.00253434,0.00180754,-0.0045187,0.464661,0.0037626,0.0119785,1014,1667,4.01175,-49.0339
-203,-643,4.01453,49.6436,-0.00028956,-0.00542799,0.00280097,0.000942053,-0.0066596,0.414263,0.00478477,0.0157189,1021,1667,4.01449,-49.6436
-196,-643,4.02808,50.1509,-0.000984775,-0.00760583,0.00322334,0.00032525,-0.00891585,0.386027,0.00605523,0.0161005,1028,1667,4.02802,-50.1509
-189,-643,4.1272,50.6449,-0.00165863,-0.00966542,0.00366143,-0.000236789,-0.0110873,0.370407,0.00731386,0.0165444,1035,1667,4.12716,-50.6449
-182,-643,4.21558,51.2015,-0.0019911,-0.0107063,0.00426297,-0.00025268,-0.0124448,0.38721,0.00821358,0.0255487,1042,1667,4.21554,-51.2015
-175,-643,4.2937,51.7087,-0.00200208,-0.011122,0.00494355,0.000163424,-0.0132875,0.41287,0.00891332,0.0399525,1049,1667,4.29369,-51.7088
-168,-643,4.58459,52.0167,-0.00127174,-0.0100867,0.00572198,0.00154345,-0.0129019,0.457223,0.0091592,0.0455255,1056,1667,4.58455,-52.0167
-161,-643,4.77002,52.5215,0,0,0,0,0,0,0,-1,1063,1667,4.77007,-52.5215
-154,-643,3.94849,53.4678,0,0,0,0,0,0,0,-1,1070,1667,3.94854,-53.4678
-147,-643,4.39111,53.9604,0,0,0,0,0,0,0,-1,1077,1667,4.39107,-53.9605
-140,-643,2.88684,53.5577,0,0,0,0,0,0,0,-1,1084,1667,2.88688,-53.5578
-133,-643,2.90088,53.454,0,0,0,0,0,0,0,-1,1091,1667,2.90084,-53.454
-126,-643,2.91479,53.3503,0,0,0,0,0,0,0,-1,1098,1667,2.9148,-53.3503
-119,-643,3.76282,14.1458,0,0,0,0,0,0,0,-1,1105,1667,3.76283,-14.1458
-112,-643,3.81458,16.2069,0,0,0,0,0,0,0,-1,1112,1667,3.81463,-16.2069
-105,-643,-2.23413,10.0996,0,0,0,0,0,0,0,-1,1119,1667,-2.23415,-10.0996
-98,-643,3.11035,4.68066,0,0,0,0,0,0,0,-1,1126,1667,3.11041,-4.68071
-91,-643,-1.74146,-2.5885,0,0,0,0,0,0,0,-1,1133,1667,-1.74146,2.58856
-84,-643,-3.07446,-0.199341,0,0,0,0,0,0,0,-1,1140,1667,-3.07449,0.199383
-77,-643,-3.63794,2.81165,0,0,0,0,0,0,0,-1,1147,1667,-3.63791,-2.8117
-70,-643,-3.36938,4.45203,0,0,0,0,0,0,0,-1,1154,1667,-3.36941,-4.452
-63,-643,-3.67822,6.26855,0,0,0,0,0,0,0,-1,1161,1667,-3.67823,-6.26856
-56,-643,-3.95142,8.1073,0,0,0,0,0,0,0,-1,1168,1667,-3.95139,-8.10732
-49,-643,-4.23535,9.90552,0,0,0,0,0,0,0,-1,1175,1667,-4.23537,-9.90557
-42,-643,-4.25195,10.7059,0,0,0,0,0,0,0,-1,1182,1667,-4.25192,-10.706
-35,-643,-4.10986,11.6588,0,0,0,0,0,0,0,-1,1189,1667,-4.10982,-11.6589
-28,-643,-1.38513,5.604,0,0,0,0,0,0,0,-1,1196,1667,-1.3851,-5.60403
-21,-643,1.61011,23.1276,0,0,0,0,0,0,0,-1,1203,1667,1.61011,-23.1275
-14,-643,6.16138,56.0734,0,0,0,0,0,0,0,-1,1210,1667,6.16137,-56.0733
-7,-643,7.22375,75.7926,0,0,0,0,0,0,0,-1,1217,1667,7.22376,-75.7926
0,-643,9.86853,63.1464,0,0,0,0,0,0,0,-1,1224,1667,9.86858,-63.1463
7,-643,10.1887,63.3368,0,0,0,0,0,0,0,-1,1231,1667,10.1887,-63.3368
14,-643,10.5089,63.5272,0,0,0,0,0,0,0,-1,1238,1667,10.5089,-63.5272
21,-643,9.67627,63.3864,0.0150933,0.105191,0.0342965,0.116761,0.00352373,1.24544,0.076693,0.0398629,1245,1667,9.67631,-63.3864
28,-643,9.42151,63.4103,0.0196084,0.096091,0.0229331,0.10244,0.0132591,1.3007,0.0643309,0.0445011,1252,1667,9.42147,-63.4103
35,-643,9.41248,63.2699,0.0237882,0.0846703,0.0129008,0.0872912,0.0211674,1.37037,0.0525783,0.0445513,1259,1667,9.41247,-63.2699
42,-643,8.84131,63.5424,0.0273176,0.0746633,0.00690638,0.0756502,0.0263307,1.42886,0.0443438,0.0467451,1266,1667,8.84132,-63.5424
49,-643,9.31458,61.0482,0.0290883,0.0615877,0.00243393,0.0617689,0.0289071,1.49646,0.0356867,0.0445216,1273,1667,9.31452,-61.0483
56,-643,9.8042,60.3387,0.0269751,0.0493363,-0.00256364,0.0496264,0.026685,-1.4581,0.028679,0.0436082,1280,1667,9.80417,-60.3388
63,-643,10.1136,59.5466,0,0,0,0,0,0,0,-1,1287,1667,10.1137,-59.5466
70,-643,8.65979,59.1564,0,0,0,0,0,0,0,-1,1294,1667,8.65975,-59.1564
77,-643,9.52795,59.1581,0.0131024,0.0157071,-0.00887351,0.0233733,0.0054362,-0.858262,0.0141233,0.0458328,1301,1667,9.52792,-59.158
84,-643,9.31421,58.1403,0.00333543,0.00138989,-0.0114103,0.0138144,-0.00908905,-0.742874,0.0133168,0.047224,1308,1667,9.31419,-58.1403
91,-643,9.7749,58.223,-0.00659249,-0.01234,-0.0145608,0.00537543,-0.0243079,-0.687969,0.0182627,0.0467326,1315,1667,9.77493,-58.223
98,-643,10.2828,58.4536,0,0,0,0,0,0,0,-1,1322,1667,10.2829,-58.4536
105,-643,7.85718,57.4746,-0.0305705,-0.0346197,-0.0154038,-0.0170588,-0.0481314,-0.720056,0.0281786,0.0474943,1329,1667,7.85723,-57.4746
112,-643,6.70984,56.9871,0,0,0,0,0,0,0,-1,1336,1667,6.70987,-56.9871
119,-643,5.42151,56.6959,-0.0540583,-0.0602013,-0.0279562,-0.0290053,-0.0852542,-0.730683,0.0500523,0.0443936,1343,1667,5.42156,-56.696
126,-643,4.29028,56.2079,-0.0644277,-0.0754104,-0.0336745,-0.0357998,-0.104038,-0.704574,0.0610321,0.0442622,1350,1667,4.29032,-56.2078
133,-643,3.18103,55.6211,-0.073559,-0.0912884,-0.0376242,-0.0437693,-0.121078,-0.669703,0.0707928,0.0486598,1357,1667,3.18106,-55.6211
140,-643,2.17273,54.7687,-0.0813711,-0.108799,-0.0404442,-0.0523791,-0.137791,-0.621939,0.0803122,0.0431675,1364,1667,2.17269,-54.7687
147,-643,1.28491,53.9857,-0.0848298,-0.11495,-0.0357714,-0.0610775,-0.138702,-0.586156,0.0802695,0.0430994,1371,1667,1.28491,-53.9857
154,-643,0.396729,53.2372,0,0,0,0,0,0,0,-1,1378,1667,0.396693,-53.2372
161,-643,5.57935,26.2754,0,0,0,0,0,0,0,-1,1385,1667,5.57931,-26.2754
168,-643,10.5563,10.9818,0,0,0,0,0,0,0,-1,1392,1667,10.5562,-10.9819
175,-643,5.88525,-1.1698,0,0,0,0,0,0,0,-1,1399,1667,5.88526,1.16977
182,-643,5.80945,-0.418701,0,0,0,0,0,0,0,-1,1406,1667,5.80949,0.418712
189,-643,5.42297,12.9208,0,0,0,0,0,0,0,-1,1413,1667,5.42298,-12.9208
196,-643,5.51953,11.2415,0,0,0,0,0,0,0,-1,1420,1667,5.51948,-11.2414
203,-643,5.60828,9.82153,0,0,0,0,0,0,0,-1,1427,1667,5.60833,-9.82148
210,-643,4.73218,7.58728,0,0,0,0,0,0,0,-1,1434,1667,4.73222,-7.58728
217,-643,3.8031,5.28955,0,0,0,0,0,0,0,-1,1441,1667,3.80305,-5.28955
224,-643,2.96436,2.97095,0,0,0,0,0,0,0,-1,1448,1667,2.96432,-2.97095
231,-643,2.13403,1.08472,0,0,0,0,0,0,0,-1,1455,1667,2.13403,-1.08467
238,-643,1.18152,-0.261963,0,0,0,0,0,0,0,-1,1462,1667,1.18152,0.26192
245,-643,-0.157471,-1.79016,0,0,0,0,0,0,0,-1,1469,1667,-0.157517,1.7901
252,-643,8.08789,0.0202637,0,0,0,0,0,0,0,-1,1476,1667,8.08791,-0.0203056
259,-643,9.02979,-0.46936,0,0,0,0,0,0,0,-1,1483,1667,9.02974,0.46933
266,-643,4.55066,5.17554,0,0,0,0,0,0,0,-1,1490,1667,4.55063,-5.17556
273,-643,10.74,31.432,0,0,0,0,0,0,0,-1,1497,1667,10.7399,-31.4319
280,-643,12.1675,42.5023,0,0,0,0,0,0,0,-1,1504,1667,12.1675,-42.5023
287,-643,12.9725,46.299,0,0,0,0,0,0,0,-1,1511,1667,12.9725,-46.299
294,-643,13.7921,52.842,0,0,0,0,0,0,0,-1,1518,1667,13.7921,-52.8421
301,-643,13.9453,52.1001,0.0144229,0.0154992,-0.00626564,0.0212498,0.00867233,-0.82824,0.0123374,0.0413923,1525,1667,13.9453,-52.1
308,-643,14.1012,51.2045,0.0122112,0.0148378,-0.00557222,0.0192494,0.00779958,-0.901132,0.01118,0.0371721,1532,1667,14.1012,-51.2045
315,-643,13.9899,50.7887,0.010144,0.013839,-0.00497988,0.0173031,0.00667997,-0.963026,0.010076,0.0320109,1539,1667,13.9899,-50.7887
322,-643,14.0638,50.2318,0.00877019,0.0132001,-0.00481834,0.0162882,0.00568209,-1.00084,0.00954616,0.0196413,1546,1667,14.0639,-50.2318
329,-643,14.1005,49.6508,0.00754708,0.0120496,-0.00440593,0.0147461,0.00485058,-1.02159,0.00867818,0.0138819,1553,1667,14.1005,-49.6508
336,-643,14.0986,49.1426,0.00631663,0.0111024,-0.00396998,0.0133449,0.00407414,-1.05661,0.00789697,0.012502,1560,1667,14.0986,-49.1426
343,-643,14.1277,48.6165,0.00522771,0.0101615,-0.00366849,0.0121154,0.0032738,-1.0814,0.00723683,0.0143091,1567,1667,14.1277,-48.6164
350,-643,14.1448,48.0619,0.00421598,0.00914254,-0.0031991,0.0107168,0.00264169,-1.11348,0.006447,0.0126325,1574,1667,14.1448,-48.0618
357,-643,14.1281,47.5037,0.00342326,0.00780745,-0.00280277,0.00917355,0.00205716,-1.11727,0.00555836,0.0108857,1581,1667,14.1281,-47.5036
364,-643,14.1267,46.9409,0.00296671,0.00691251,-0.00259893,0.00820255,0.00167667,-1.11005,0.005004,0.0103185,1588,1667,14.1267,-46.9409
371,-643,14.108,46.408,0.00264395,0.00580508,-0.00237258,0.00707536,0.00137367,-1.07923,0.00433223,0.0085775,1595,1667,14.1081,-46.4079
378,-643,14.0887,45.8569,0.00236039,0.00466397,-0.00217066,0.0059695,0.00105487,-1.02932,0.0036788,0.010578,1602,1667,14.0887,-45.857
385,-643,14.0826,45.2828,0.0022019,0.00357345,-0.00204835,0.00504777,0.000727582,-0.946931,0.00315078,0.0170465,1609,1667,14.0826,-45.2828
392,-643,14.0612,44.693,0.00200446,0.0026029,-0.00196342,0.00428976,0.000317593,-0.861015,0.00276007,0.0174572,1616,1667,14.0612,-44.693
399,-643,14.0267,44.1235,0.00184744,0.00185985,-0.00196683,0.00382049,-0.000113194,-0.786976,0.00258555,0.0148692,1623,1667,14.0268,-44.1235
406,-643,14.0221,43.5187,0.00180827,0.00137176,-0.00208849,0.00368987,-0.000509849,-0.733336,0.00264629,0.0135692,1630,1667,14.022,-43.5187
413,-643,14.0287,42.9149,0.00186957,0.0010038,-0.00227436,0.00375187,-0.000878506,-0.691356,0.00283974,0.0193535,1637,1667,14.0287,-42.9149
420,-643,13.9762,42.3352,0.00202965,0.000975492,-0.00258674,0.00414246,-0.00113732,-0.684893,0.00320865,0.0191664,1644,1667,13.9763,-42.3352
427,-643,13.943,41.7365,0.0023163,0.00115811,-0.00302718,0.00481928,-0.00134487,-0.690891,0.00374257,0.016368,1651,1667,13.943,-41.7364
434,-643,13.9155,41.1125,0.00273453,0.00165237,-0.00355197,0.0057864,-0.0013995,-0.709813,0.00439894,0.0178936,1658,1667,13.9155,-41.1125
441,-643,13.8735,40.4723,0.0032035,0.00240143,-0.0041622,0.00698395,-0.00137901,-0.737371,0.00517722,0.0178915,1665,1667,13.8735,-40.4723
448,-643,13.8624,39.834,0.00387003,0.00331728,-0.00487952,0.008481,-0.00129369,-0.757109,0.0061309,0.0219823,1672,1667,13.8624,-39.834
455,-643,13.7603,39.2611,0.00476176,0.00445548,-0.00553425,0.010145,-0.00092775,-0.771566,0.00709283,0.0282214,1679,1667,13.7603,-39.2611
462,-643,13.8453,38.5765,0.00581104,0.00556454,-0.0063815,0.0120705,-0.000694901,-0.775743,0.00828833,0.0453357,1686,1667,13.8454,-38.5766
469,-643,13.9934,37.8535,0,0,0,0,0,0,0,-1,1693,1667,13.9935,-37.8535
476,-643,10.5598,24.5066,0,0,0,0,0,0,0,-1,1700,1667,10.5598,-24.5065
483,-643,10.4502,24.3062,0,0,0,0,0,0,0,-1,1707,1667,10.4502,-24.3062
490,-643,10.6885,24.1522,0,0,0,0,0,0,0,-1,1714,1667,10.6884,-24.1522
497,-643,10.9073,23.9465,0,0,0,0,0,0,0,-1,1721,1667,10.9074,-23.9465
504,-643,8.05591,19.0656,0,0,0,0,0,0,0,-1,1728,1667,8.0559,-19.0655
511,-643,7.74719,18.1564,0,0,0,0,0,0,0,-1,1735,1667,7.74724,-18.1563
518,-643,7.40564,0.922607,0,0,0,0,0,0,0,-1,1742,1667,7.4057,-0.922598
525,-643,0,0,0,0,0,0,0,0,0,-1,1749,1667,0,0
532,-643,0,0,0,0,0,0,0,0,0,-1,1756,1667,0,0
539,-643,0,0,0,0,0,0,0,0,0,-1,1763,1667,0,0
546,-643,0,0,0,0,0,0,0,0,0,-1,1770,1667,0,0
553,-643,0,0,0,0,0,0,0,0,0,-1,1777,1667,0,0
560,-643,0,0,0,0,0,0,0,0,0,-1,1784,1667,0,0
567,-643,0,0,0,0,0,0,0,0,0,-1,1791,1667,0,0
574,-643,0,0,0,0,0,0,0,0,0,-1,1798,1667,0,0
581,-643,0,0,0,0,0,0,0,0,0,-1,1805,1667,0,0
588,-643,0,0,0,0,0,0,0,0,0,-1,1812,1667,0,0
595,-643,0,0,0,0,0,0,0,0,0,-1,1819,1667,0,0
602,-643,0,0,0,0,0,0,0,0,0,-1,1826,1667,0,0
609,-643,0,0,0,0,0,0,0,0,0,-1,1833,1667,0,0
616,-643,0,0,0,0,0,0,0,0,0,-1,1840,1667,0,0
623,-643,0,0,0,0,0,0,0,0,0,-1,1847,1667,0,0
630,-643,0,0,0,0,0,0,0,0,0,-1,1854,1667,0,0
637,-643,0,0,0,0,0,0,0,0,0,-1,1861,1667,0,0
644,-643,0,0,0,0,0,0,0,0,0,-1,1868,1667,0,0
651,-643,0,0,0,0,0,0,0,0,0,-1,1875,1667,0,0
658,-643,0,0,0,0,0,0,0,0,0,-1,1882,1667,0,0
665,-643,0,0,0,0,0,0,0,0,0,-1,1889,1667,0,0
672,-643,0,0,0,0,0,0,0,0,0,-1,1896,1667,0,0
679,-643,0,0,0,0,0,0,0,0,0,-1,1903,1667,0,0
686,-643,0,0,0,0,0,0,0,0,0,-1,1910,1667,0,0
693,-643,0,0,0,0,0,0,0,0,0,-1,1917,1667,0,0
700,-643,0,0,0,0,0,0,0,0,0,-1,1924,1667,0,0
707,-643,0,0,0,0,0,0,0,0,0,-1,1931,1667,0,0
714,-643,0,0,0,0,0,0,0,0,0,-1,1938,1667,0,0
721,-643,0,0,0,0,0,0,0,0,0,-1,1945,1667,0,0
728,-643,0,0,0,0,0,0,0,0,0,-1,1952,1667,0,0
735,-643,0,0,0,0,0,0,0,0,0,-1,1959,1667,0,0
742,-643,0,0,0,0,0,0,0,0,0,-1,1966,1667,0,0
749,-643,0,0,0,0,0,0,0,0,0,-1,1973,1667,0,0
756,-643,0,0,0,0,0,0,0,0,0,-1,1980,1667,0,0
763,-643,0,0,0,0,0,0,0,0,0,-1,1987,1667,0,0
770,-643,0,0,0,0,0,0,0,0,0,-1,1994,1667,0,0
777,-643,0,0,0,0,0,0,0,0,0,-1,2001,1667,0,0
784,-643,0,0,0,0,0,0,0,0,0,-1,2008,1667,0,0
791,-643,0,0,0,0,0,0,0,0,0,-1,2015,1667,0,0
798,-643,0,0,0,0,0,0,0,0,0,-1,2022,1667,0,0
805,-643,0,0,0,0,0,0,0,0,0,-1,2029,1667,0,0
812,-643,0,0,0,0,0,0,0,0,0,-1,2036,1667,0,0
-700,-650,0,0,0,0,0,0,0,0,0,-1,524,1674,0,0
-693,-650,0,0,0,0,0,0,0,0,0,-1,531,1674,0,0
-686,-650,0,0,0,0,0,0,0,0,0,-1,538,1674,0,0
-679,-650,0,0,0,0,0,0,0,0,0,-1,545,1674,0,0
-672,-650,0,0,0,0,0,0,0,0,0,-1,552,1674,0,0
-665,-650,0,0,0,0,0,0,0,0,0,-1,559,1674,0,0
-658,-650,0,0,0,0,0,0,0,0,0,-1,566,1674,0,0
-651,-650,0,0,0,0,0,0,0,0,0,-1,573,1674,0,0
-644,-650,0,0,0,0,0,0,0,0,0,-1,580,1674,0,0
-637,-650,0,0,0,0,0,0,0,0,0,-1,587,1674,0,0
-630,-650,0,0,0,0,0,0,0,0,0,-1,594,1674,0,0
-623,-650,0,0,0,0,0,0,0,0,0,-1,601,1674,0,0
-616,-650,0,0,0,0,0,0,0,0,0,-1,608,1674,0,0
-609,-650,0,0,0,0,0,0,0,0,0,-1,615,1674,0,0
-602,-650,0,0,0,0,0,0,0,0,0,-1,622,1674,0,0
-595,-650,0,0,0,0,0,0,0,0,0,-1,629,1674,0,0
-588,-650,0,0,0,0,0,0,0,0,0,-1,636,1674,0,0
-581,-650,0,0,0,0,0,0,0,0,0,-1,643,1674,0,0
-574,-650,0,0,0,0,0,0,0,0,0,-1,650,1674,0,0
-567,-650,0,0,0,0,0,0,0,0,0,-1,657,1674,0,0
-560,-650,0,0,0,0,0,0,0,0,0,-1,664,1674,0,0
-553,-650,0,0,0,0,0,0,0,0,0,-1,671,1674,0,0
-546,-650,0,0,0,0,0,0,0,0,0,-1,678,1674,0,0
-539,-650,0,0,0,0,0,0,0,0,0,-1,685,1674,0,0
-532,-650,0,0,0,0,0,0,0,0,0,-1,692,1674,0,0
-525,-650,0,0,0,0,0,0,0,0,0,-1,699,1674,0,0
-518,-650,0,0,0,0,0,0,0,0,0,-1,706,1674,0,0
-511,-650,0,0,0,0,0,0,0,0,0,-1,713,1674,0,0
-504,-650,0,0,0,0,0,0,0,0,0,-1,720,1674,0,0
-497,-650,0,0,0,0,0,0,0,0,0,-1,727,1674,0,0
-490,-650,0,0,0,0,0,0,0,0,0,-1,734,1674,0,0
-483,-650,0,0,0,0,0,0,0,0,0,-1,741,1674,0,0
-476,-650,0,0,0,0,0,0,0,0,0,-1,748,1674,0,0
-469,-650,0,0,0,0,0,0,0,0,0,-1,755,1674,0,0
-462,-650,0,0,0,0,0,0,0,0,0,-1,762,1674,0,0
-455,-650,0,0,0,0,0,0,0,0,0,-1,769,1674,0,0
-448,-650,0,0,0,0,0,0,0,0,0,-1,776,1674,0,0
-441,-650,0,0,0,0,0,0,0,0,0,-1,783,1674,0,0
-434,-650,0,0,0,0,0,0,0,0,0,-1,790,1674,0,0
-427,-650,0,0,0,0,0,0,0,0,0,-1,797,1674,0,0
-420,-650,0,0,0,0,0,0,0,0,0,-1,804,1674,0,0
-413,-650,0,0,0,0,0,0,0,0,0,-1,811,1674,0,0
-406,-650,0,0,0,0,0,0,0,0,0,-1,818,1674,0,0
-399,-650,0,0,0,0,0,0,0,0,0,-1,825,1674,0,0
-392,-650,5.44415,6.85669,0,0,0,0,0,0,0,-1,832,1674,5.44414,-6.85674
-385,-650,1.74451,14.0183,0,0,0,0,0,0,0,-1,839,1674,1.74453,-14.0183
-378,-650,0.997986,4.11108,0,0,0,0,0,0,0,-1,846,1674,0.998006,-4.11113
-371,-650,-1.80096,3.78625,0,0,0,0,0,0,0,-1,853,1674,-1.80094,-3.78625
-364,-650,-2.95679,2.57507,0,0,0,0,0,0,0,-1,860,1674,-2.95681,-2.57506
-357,-650,5.76074,34.531,0,0,0,0,0,0,0,-1,867,1674,5.76077,-34.531
-350,-650,5.11011,35.4972,0,0,0,0,0,0,0,-1,874,1674,5.1101,-35.4971
-343,-650,5.20538,37.4165,0,0,0,0,0,0,0,-1,881,1674,5.20538,-37.4166
-336,-650,4.32312,38.1967,0,0,0,0,0,0,0,-1,888,1674,4.32314,-38.1967
-329,-650,4.30994,38.7173,0,0,0,0,0,0,0,-1,895,1674,4.30993,-38.7173
-322,-650,4.88184,39.4711,0.00483611,-0.00771581,0.00034707,0.0048457,-0.0077254,0.0276226,0.00732113,0.0464426,902,1674,4.88183,-39.4711
-315,-650,4.93152,40.0493,0.00257686,-0.0085569,-0.000489884,0.00259837,-0.00857841,-0.0438869,0.00675378,0.0401519,909,1674,4.9315,-40.0493
-308,-650,4.92987,40.6245,0.00080809,-0.00894113,-0.00105915,0.000921829,-0.00905487,-0.106977,0.00636614,0.023719,916,1674,4.92986,-40.6245
-301,-650,4.90985,41.3666,-0.000606696,-0.00901165,-0.00137745,-0.000386709,-0.00923163,-0.158368,0.00602965,0.0131233,923,1674,4.90987,-41.3666
-294,-650,4.86603,41.9902,-0.00151797,-0.00871621,-0.00140848,-0.00125219,-0.008982,-0.186509,0.00561732,0.0107188,930,1674,4.86605,-41.9903
-287,-650,4.81024,42.6251,-0.00208241,-0.00810181,-0.00123999,-0.00183698,-0.00834724,-0.195403,0.00506479,0.0140435,937,1674,4.81022,-42.6251
-280,-650,4.76874,43.2214,-0.00228609,-0.00711216,-0.000966136,-0.00209986,-0.00729839,-0.190418,0.00433847,0.0157513,944,1674,4.76872,-43.2215
-273,-650,4.73798,43.8523,-0.00207748,-0.00590765,-0.000582476,-0.00199086,-0.00599427,-0.147631,0.00352521,0.014106,951,1674,4.73797,-43.8523
-266,-650,4.70599,44.4606,-0.00165875,-0.00452348,-4.76059e-05,-0.00165796,-0.00452427,-0.0166118,0.00264296,0.0115256,958,1674,4.70599,-44.4606
-259,-650,4.67987,45.0515,-0.000874698,-0.00313423,0.000461185,-0.000784192,-0.00322473,0.193783,0.00194194,0.0149212,965,1674,4.67989,-45.0516
-252,-650,4.6615,45.6564,2.95786e-05,-0.00167025,0.000805823,0.000350863,-0.00199153,0.379388,0.00145877,0.0139895,972,1674,4.66148,-45.6564
-245,-650,4.64459,46.233,0.00086895,-0.000298099,0.00105073,0.00148731,-0.000916461,0.531927,0.0014008,0.0137093,979,1674,4.64459,-46.233
-238,-650,4.64612,46.8263,0.00109698,0.000421621,0.00130409,0.0021064,-0.000587799,0.658711,0.00163579,0.0145333,986,1674,4.64611,-46.8264
-231,-650,4.59033,47.4203,0.00107609,0.000168514,0.00154843,0.00223585,-0.000991251,0.642858,0.0019088,0.0184116,993,1674,4.59032,-47.4203
-224,-650,4.59747,47.9819,0.00123257,-8.73112e-05,0.00164163,0.00234194,-0.00119668,0.594282,0.00207839,0.0149157,1000,1674,4.59747,-47.9819
-217,-650,4.59027,48.5012,0.00115127,-0.00094386,0.00175396,0.00214669,-0.00193928,0.516198,0.00236005,0.0102194,1007,1674,4.59028,-48.5012
-210,-650,4.5827,49.0271,0.000751476,-0.00213202,0.00183197,0.00164098,-0.00302153,0.452018,0.00273095,0.00961744,1014,1674,4.58268,-49.0271
-203,-650,4.61658,49.5632,0.000351453,-0.00352025,0.00196724,0.0011756,-0.00434439,0.396721,0.00335744,0.0139889,1021,1674,4.61655,-49.5632
-196,-650,4.61548,50.0833,0.000113382,-0.00487372,0.00225065,0.000978879,-0.00573922,0.367121,0.00419072,0.012979,1028,1674,4.61544,-50.0833
-189,-650,4.60144,50.6184,-7.67834e-05,-0.00597856,0.00253947,0.000865482,-0.00692082,0.355302,0.00492778,0.0113844,1035,1674,4.60143,-50.6184
-182,-650,4.67578,51.1976,1.11103e-05,-0.00628112,0.00292608,0.0011615,-0.00743152,0.374588,0.00538344,0.0118152,1042,1674,4.67582,-51.1976
-175,-650,4.6825,51.6649,0.000438911,-0.00615675,0.0034238,0.00189483,-0.00761266,0.402068,0.00581063,0.0197711,1049,1674,4.68253,-51.6649
-168,-650,4.68127,52.1788,0.00129148,-0.00505141,0.00395074,0.00318624,-0.00694617,0.447192,0.0059827,0.0264004,1056,1674,4.68132,-52.1788
-161,-650,4.68237,52.668,0.00259452,-0.00290811,0.00453862,0.00515064,-0.00546423,0.512915,0.00612939,0.0333271,1063,1674,4.68235,-52.668
-154,-650,4.7395,53.1267,0.00410919,0.000202746,0.00506652,0.00758594,-0.00327401,0.601419,0.00643263,0.0331961,1070,1674,4.73945,-53.1267
-147,-650,4.91394,53.6908,0.00567874,0.00423894,0.00548766,0.0104935,-0.000575836,0.720178,0.00719531,0.0441328,1077,1674,4.91389,-53.6908
-140,-650,4.74988,54.8479,0,0,0,0,0,0,0,-1,1084,1674,4.74993,-54.8479
-133,-650,4.66199,55.2866,0,0,0,0,0,0,0,-1,1091,1674,4.66201,-55.2866
-126,-650,3.95898,53.8031,0,0,0,0,0,0,0,-1,1098,1674,3.95901,-53.8031
-119,-650,5.16663,20.6232,0,0,0,0,0,0,0,-1,1105,1674,5.16665,-20.6232
-112,-650,3.86292,14.4513,0,0,0,0,0,0,0,-1,1112,1674,3.8629,-14.4513
-105,-650,7.92102,38.1313,0,0,0,0,0,0,0,-1,1119,1674,7.92104,-38.1314
-98,-650,3.3761,6.78003,0,0,0,0,0,0,0,-1,1126,1674,3.37611,-6.78009
-91,-650,3.66809,7.04443,0,0,0,0,0,0,0,-1,1133,1674,3.66806,-7.04439
-84,-650,-3.82666,-1.59521,0,0,0,0,0,0,0,-1,1140,1674,-3.82661,1.59517
-77,-650,-4.70557,1.90198,0,0,0,0,0,0,0,-1,1147,1674,-4.7056,-1.90194
-70,-650,-4.88171,3.81653,0,0,0,0,0,0,0,-1,1154,1674,-4.88176,-3.81651
-63,-650,-5.14612,5.56543,0,0,0,0,0,0,0,-1,1161,1674,-5.14612,-5.56547
-56,-650,-5.38367,7.41101,0,0,0,0,0,0,0,-1,1168,1674,-5.38361,-7.41102
-49,-650,-5.11316,8.23706,0,0,0,0,0,0,0,-1,1175,1674,-5.11317,-8.23708
-42,-650,-4.99487,9.6792,0,0,0,0,0,0,0,-1,1182,1674,-4.99484,-9.67921
-35,-650,-4.77771,11.3369,0,0,0,0,0,0,0,-1,1189,1674,-4.77769,-11.3369
-28,-650,-4.1936,13.1501,0,0,0,0,0,0,0,-1,1196,1674,-4.19358,-13.1501
-21,-650,7.52466,48.5822,0,0,0,0,0,0,0,-1,1203,1674,7.52469,-48.5821
-14,-650,7.24109,61.2703,0,0,0,0,0,0,0,-1,1210,1674,7.24105,-61.2703
-7,-650,7.19897,61.165,0,0,0,0,0,0,0,-1,1217,1674,7.19892,-61.1651
0,-650,8.9198,62.7748,0,0,0,0,0,0,0,-1,1224,1674,8.91983,-62.7748
7,-650,9.19336,62.877,0.00486913,0.0997299,0.0413692,0.115236,-0.0106373,1.21217,0.0806043,0.0455501,1231,1674,9.19335,-62.877
14,-650,9.24341,62.8451,0.00695136,0.0983588,0.0347771,0.110086,-0.00477556,1.24557,0.075033,0.0407572,1238,1674,9.24346,-62.8451
21,-650,9.0863,62.7477,0.00939417,0.0944645,0.0259556,0.101758,0.0021003,1.29685,0.0671497,0.0416377,1245,1674,9.08636,-62.7477
28,-650,9.19751,62.4094,0.0123337,0.0856283,0.0175531,0.0896152,0.00834687,1.34745,0.0571646,0.0425712,1252,1674,9.19756,-62.4094
35,-650,9.30811,62.235,0.0151671,0.0742327,0.0096251,0.0757616,0.0136382,1.41327,0.0466313,0.0465287,1259,1674,9.30808,-62.235
42,-650,9.26831,61.9207,0.0175462,0.0635816,0.00447558,0.0640127,0.0171151,1.47477,0.0382679,0.04661,1266,1674,9.26832,-61.9207
49,-650,8.96313,61.3435,0.0186909,0.0508534,3.00487e-05,0.0508534,0.0186909,1.56986,0.0297017,0.0469981,1273,1674,8.96311,-61.3436
56,-650,8.67102,60.7723,0,0,0,0,0,0,0,-1,1280,1674,8.67107,-60.7724
63,-650,9.31848,59.3091,0,0,0,0,0,0,0,-1,1287,1674,9.3185,-59.3091
70,-650,8.02148,58.6135,0,0,0,0,0,0,0,-1,1294,1674,8.02151,-58.6135
77,-650,8.69934,58.6864,0.00870017,0.0061711,-0.0116531,0.0191571,-0.00428585,-0.731352,0.014414,0.0458124,1301,1674,8.69933,-58.6864
84,-650,9.29248,58.5562,0.00199368,-0.00615611,-0.0138604,0.0123658,-0.0165282,-0.642429,0.0167395,0.0456965,1308,1674,9.29247,-58.5562
91,-650,9.64587,58.741,-0.00540913,-0.0173609,-0.016299,0.005975,-0.028745,-0.609688,0.0214344,0.0456246,1315,1674,9.64581,-58.741
98,-650,9.14905,58.24,-0.0144326,-0.02871,-0.0162149,-0.00385451,-0.0392881,-0.578038,0.0250065,0.0469885,1322,1674,9.14901,-58.24
105,-650,7.9032,57.5027,-0.0251052,-0.0352414,-0.0170859,-0.0123516,-0.047995,-0.641219,0.028777,0.0477186,1329,1674,7.9032,-57.5027
112,-650,6.68091,56.7716,0,0,0,0,0,0,0,-1,1336,1674,6.68096,-56.7715
119,-650,6.00085,57.7465,0,0,0,0,0,0,0,-1,1343,1674,6.00089,-57.7465
126,-650,4.92725,56.9686,0,0,0,0,0,0,0,-1,1350,1674,4.92726,-56.9687
133,-650,3.58276,56.73,0,0,0,0,0,0,0,-1,1357,1674,3.5828,-56.7299
140,-650,2.20959,55.6948,-0.0678792,-0.0896675,-0.0329565,-0.0440629,-0.113484,-0.625771,0.0660628,0.0443735,1364,1674,2.20963,-55.6948
147,-650,1.29614,55.2236,-0.071337,-0.0922132,-0.0319515,-0.0481618,-0.115388,-0.62752,0.0669219,0.0425452,1371,1674,1.2961,-55.2237
154,-650,0.387939,54.7146,0,0,0,0,0,0,0,-1,1378,1674,0.387899,-54.7146
161,-650,4.09106,30.3021,0,0,0,0,0,0,0,-1,1385,1674,4.09104,-30.3021
168,-650,11.2113,7.87231,0,0,0,0,0,0,0,-1,1392,1674,11.2113,-7.87236
175,-650,5.62537,-0.230713,0,0,0,0,0,0,0,-1,1399,1674,5.62538,0.230745
182,-650,5.56006,0.421631,0,0,0,0,0,0,0,-1,1406,1674,5.56,-0.421652
189,-650,4.81543,11.0654,0,0,0,0,0,0,0,-1,1413,1674,4.81542,-11.0654
196,-650,5.39575,11.9077,0,0,0,0,0,0,0,-1,1420,1674,5.39575,-11.9078
203,-650,3.93628,11.8215,0,0,0,0,0,0,0,-1,1427,1674,3.93624,-11.8216
210,-650,5.40955,8.08594,0,0,0,0,0,0,0,-1,1434,1674,5.40958,-8.086
217,-650,5.12451,4.69739,0,0,0,0,0,0,0,-1,1441,1674,5.12451,-4.69738
224,-650,4.79041,1.45813,0,0,0,0,0,0,0,-1,1448,1674,4.79046,-1.45816
231,-650,4.04102,-0.642212,0,0,0,0,0,0,0,-1,1455,1674,4.04101,0.642209
238,-650,3.23022,-1.43396,0,0,0,0,0,0,0,-1,1462,1674,3.23023,1.43394
245,-650,1.65894,-2.55042,0,0,0,0,0,0,0,-1,1469,1674,1.65889,2.55036
252,-650,8.75342,0.355103,0,0,0,0,0,0,0,-1,1476,1674,8.75337,-0.355147
259,-650,5.61255,3.17566,0,0,0,0,0,0,0,-1,1483,1674,5.61257,-3.17572
266,-650,4.00403,6.10229,0,0,0,0,0,0,0,-1,1490,1674,4.00401,-6.10225
273,-650,11.9524,42.7109,0,0,0,0,0,0,0,-1,1497,1674,11.9524,-42.7109
280,-650,12.3011,46.7283,0,0,0,0,0,0,0,-1,1504,1674,12.3011,-46.7283
287,-650,13.3898,52.5303,0,0,0,0,0,0,0,-1,1511,1674,13.3897,-52.5302
294,-650,13.2141,52.1952,0.012977,0.0112536,-0.0048668,0.0170578,0.00717282,-0.697781,0.00988973,0.0437251,1518,1674,13.2141,-52.1952
301,-650,13.4323,51.6558,0.01147,0.010576,-0.0041954,0.0152422,0.00680388,-0.732324,0.00881692,0.0327487,1525,1674,13.4323,-51.6558
308,-650,13.5233,51.1978,0.00986541,0.0101246,-0.00374244,0.0137397,0.00625035,-0.802709,0.00794337,0.0196955,1532,1674,13.5233,-51.1978
315,-650,13.5732,50.7,0.00833444,0.0095505,-0.00341851,0.0124146,0.0054703,-0.87341,0.00718441,0.0121112,1539,1674,13.5732,-50.7
322,-650,13.5669,50.1881,0.00713819,0.00920696,-0.00331161,0.011642,0.00470318,-0.936772,0.00676268,0.0115314,1546,1674,13.567,-50.1881
329,-650,13.5795,49.6216,0.00606987,0.00852153,-0.0030869,0.0106171,0.0039743,-0.974403,0.00619398,0.0175253,1553,1674,13.5794,-49.6215
336,-650,13.5896,49.1239,0.00506406,0.00792915,-0.00283214,0.00967044,0.00332278,-1.01954,0.00567355,0.0153757,1560,1674,13.5896,-49.124
343,-650,13.611,48.6011,0.00415702,0.00732733,-0.00268024,0.00885608,0.00262827,-1.05244,0.00525196,0.0142481,1567,1674,13.611,-48.601
350,-650,13.6021,48.0671,0.00335111,0.00659127,-0.00246656,0.00792222,0.00202016,-1.07597,0.00475341,0.0158156,1574,1674,13.602,-48.0672
357,-650,13.5613,47.5248,0.00274197,0.00553806,-0.00228145,0.00681574,0.00146428,-1.06028,0.00414291,0.0135154,1581,1674,13.5613,-47.5248
364,-650,13.5498,46.9641,0.00243405,0.00476669,-0.0022322,0.00611891,0.00108184,-1.02614,0.00377075,0.0101031,1588,1674,13.5498,-46.9642
371,-650,13.5417,46.4038,0.00220274,0.00382427,-0.00215793,0.00531872,0.000708294,-0.965096,0.00333488,0.011734,1595,1674,13.5417,-46.4038
378,-650,13.5159,45.8621,0.00204272,0.00279477,-0.00209255,0.00454482,0.000292678,-0.874298,0.00293718,0.0127195,1602,1674,13.5158,-45.862
385,-650,13.4979,45.2941,0.00204702,0.00191691,-0.00215386,0.0041368,-0.000172882,-0.770301,0.00281726,0.0147524,1609,1674,13.4979,-45.2941
392,-650,13.4912,44.7146,0.00197621,0.00107626,-0.00221656,0.003788,-0.000735532,-0.685257,0.00280287,0.0184751,1616,1674,13.4912,-44.7145
399,-650,13.4825,44.1481,0.0019326,0.000453958,-0.0023418,0.00364901,-0.00126246,-0.632497,0.00294511,0.0165436,1623,1674,13.4825,-44.148
406,-650,13.4449,43.5638,0.00200246,0.000160467,-0.00255808,0.00380029,-0.00163736,-0.612605,0.00322115,0.0149957,1630,1674,13.4449,-43.5639
413,-650,13.4296,42.9712,0.00217173,1.59122e-05,-0.00286098,0.00415112,-0.00196348,-0.605241,0.00360479,0.0154204,1637,1674,13.4296,-42.9712
420,-650,13.3793,42.392,0.00244809,0.000283647,-0.00332923,0.00486658,-0.00213484,-0.628252,0.00414356,0.0163427,1644,1674,13.3793,-42.3919
427,-650,13.3516,41.785,0.00286963,0.0008805,-0.00393497,0.00593378,-0.00218364,-0.661615,0.00485044,0.0151446,1651,1674,13.3516,-41.785
434,-650,13.3024,41.1531,0.00343104,0.00177684,-0.00457207,0.00725021,-0.00204234,-0.695915,0.00563892,0.0196438,1658,1674,13.3023,-41.1531
441,-650,13.2649,40.4371,0.00401797,0.0030504,-0.00532233,0.00887846,-0.00181008,-0.740074,0.00660553,0.0345845,1665,1674,13.2649,-40.4371
448,-650,13.1819,39.8114,0.00485234,0.00456069,-0.00620005,0.0109083,-0.00149525,-0.77364,0.0078184,0.0439949,1672,1674,13.1819,-39.8113
455,-650,13.2452,39.1285,0.00609229,0.00631421,-0.00700835,0.0132125,-0.000805975,-0.793314,0.0090889,0.0480879,1679,1674,13.2453,-39.1285
462,-650,13.3794,38.554,0,0,0,0,0,0,0,-1,1686,1674,13.3793,-38.5539
469,-650,11.3628,29.8889,0,0,0,0,0,0,0,-1,1693,1674,11.3628,-29.8889
476,-650,10.9189,27.1289,0,0,0,0,0,0,0,-1,1700,1674,10.919,-27.1289
483,-650,10.2426,24.5127,0,0,0,0,0,0,0,-1,1707,1674,10.2425,-24.5127
490,-650,10.4818,24.3475,0,0,0,0,0,0,0,-1,1714,1674,10.4818,-24.3475
497,-650,10.4985,20.1362,0,0,0,0,0,0,0,-1,1721,1674,10.4986,-20.1362
504,-650,9.69458,18.7721,0,0,0,0,0,0,0,-1,1728,1674,9.6946,-18.772
511,-650,9.37158,17.7506,0,0,0,0,0,0,0,-1,1735,1674,9.37159,-17.7506
518,-650,0,0,0,0,0,0,0,0,0,-1,1742,1674,0,0
525,-650,0,0,0,0,0,0,0,0,0,-1,1749,1674,0,0
532,-650,0,0,0,0,0,0,0,0,0,-1,1756,1674,0,0
539,-650,0,0,0,0,0,0,0,0,0,-1,1763,1674,0,0
546,-650,0,0,0,0,0,0,0,0,0,-1,1770,1674,0,0
553,-650,0,0,0,0,0,0,0,0,0,-1,1777,1674,0,0
560,-650,0,0,0,0,0,0,0,0,0,-1,1784,1674,0,0
567,-650,0,0,0,0,0,0,0,0,0,-1,1791,1674,0,0
574,-650,0,0,0,0,0,0,0,0,0,-1,1798,1674,0,0
581,-650,0,0,0,0,0,0,0,0,0,-1,1805,1674,0,0
588,-650,0,0,0,0,0,0,0,0,0,-1,1812,1674,0,0
595,-650,0,0,0,0,0,0,0,0,0,-1,1819,1674,0,0
602,-650,0,0,0,0,0,0,0,0,0,-1,1826,1674,0,0
609,-650,0,0,0,0,0,0,0,0,0,-1,1833,1674,0,0
616,-650,0,0,0,0,0,0,0,0,0,-1,1840,1674,0,0
623,-650,0,0,0,0,0,0,0,0,0,-1,1847,1674,0,0
630,-650,0,0,0,0,0,0,0,0,0,-1,1854,1674,0,0
637,-650,0,0,0,0,0,0,0,0,0,-1,1861,1674,0,0
644,-650,0,0,0,0,0,0,0,0,0,-1,1868,1674,0,0
651,-650,0,0,0,0,0,0,0,0,0,-1,1875,1674,0,0
658,-650,0,0,0,0,0,0,0,0,0,-1,1882,1674,0,0
665,-650,0,0,0,0,0,0,0,0,0,-1,1889,1674,0,0
672,-650,0,0,0,0,0,0,0,0,0,-1,1896,1674,0,0
679,-650,0,0,0,0,0,0,0,0,0,-1,1903,1674,0,0
686,-650,0,0,0,0,0,0,0,0,0,-1,1910,1674,0,0
693,-650,0,0,0,0,0,0,0,0,0,-1,1917,1674,0,0
700,-650,0,0,0,0,0,0,0,0,0,-1,1924,1674,0,0
707,-650,0,0,0,0,0,0,0,0,0,-1,1931,1674,0,0
714,-650,0,0,0,0,0,0,0,0,0,-1,1938,1674,0,0
721,-650,0,0,0,0,0,0,0,0,0,-1,1945,1674,0,0
728,-650,0,0,0,0,0,0,0,0,0,-1,1952,1674,0,0
735,-650,0,0,0,0,0,0,0,0,0,-1,1959,1674,0,0
742,-650,0,0,0,0,0,0,0,0,0,-1,1966,1674,0,0
749,-650,0,0,0,0,0,0,0,0,0,-1,1973,1674,0,0
756,-650,0,0,0,0,0,0,0,0,0,-1,1980,1674,0,0
763,-650,0,0,0,0,0,0,0,0,0,-1,1987,1674,0,0
770,-650,0,0,0,0,0,0,0,0,0,-1,1994,1674,0,0
777,-650,0,0,0,0,0,0,0,0,0,-1,2001,1674,0,0
784,-650,0,0,0,0,0,0,0,0,0,-1,2008,1674,0,0
791,-650,0,0,0,0,0,0,0,0,0,-1,2015,1674,0,0
798,-650,0,0,0,0,0,0,0,0,0,-1,2022,1674,0,0
805,-650,0,0,0,0,0,0,0,0,0,-1,2029,1674,0,0
812,-650,0,0,0,0,0,0,0,0,0,-1,2036,1674,0,0
-700,-657,0,0,0,0,0,0,0,0,0,-1,524,1681,0,0
-693,-657,0,0,0,0,0,0,0,0,0,-1,531,1681,0,0
-686,-657,0,0,0,0,0,0,0,0,0,-1,538,1681,0,0
-679,-657,0,0,0,0,0,0,0,0,0,-1,545,1681,0,0
-672,-657,0,0,0,0,0,0,0,0,0,-1,552,1681,0,0
-665,-657,0,0,0,0,0,0,0,0,0,-1,559,1681,0,0
-658,-657,0,0,0,0,0,0,0,0,0,-1,566,1681,0,0
-651,-657,0,0,0,0,0,0,0,0,0,-1,573,1681,0,0
-644,-657,0,0,0,0,0,0,0,0,0,-1,580,1681,0,0
-637,-657,0,0,0,0,0,0,0,0,0,-1,587,1681,0,0
-630,-657,0,0,0,0,0,0,0,0,0,-1,594,1681,0,0
-623,-657,0,0,0,0,0,0,0,0,0,-1,601,1681,0,0
-616,-657,0,0,0,0,0,0,0,0,0,-1,608,1681,0,0
-609,-657,0,0,0,0,0,0,0,0,0,-1,615,1681,0,0
-602,-657,0,0,0,0,0,0,0,0,0,-1,622,1681,0,0
-595,-657,0,0,0,0,0,0,0,0,0,-1,629,1681,0,0
-588,-657,0,0,0,0,0,0,0,0,0,-1,636,1681,0,0
-581,-657,0,0,0,0,0,0,0,0,0,-1,643,1681,0,0
-574,-657,0,0,0,0,0,0,0,0,0,-1,650,1681,0,0
-567,-657,0,0,0,0,0,0,0,0,0,-1,657,1681,0,0
-560,-657,0,0,0,0,0,0,0,0,0,-1,664,1681,0,0
-553,-657,0,0,0,0,0,0,0,0,0,-1,671,1681,0,0
-546,-657,0,0,0,0,0,0,0,0,0,-1,678,1681,0,0
-539,-657,0,0,0,0,0,0,0,0,0,-1,685,1681,0,0
-532,-657,0,0,0,0,0,0,0,0,0,-1,692,1681,0,0
-525,-657,0,0,0,0,0,0,0,0,0,-1,699,1681,0,0
-518,-657,0,0,0,0,0,0,0,0,0,-1,706,1681,0,0
-511,-657,0,0,0,0,0,0,0,0,0,-1,713,1681,0,0
-504,-657,0,0,0,0,0,0,0,0,0,-1,720,1681,0,0
-497,-657,0,0,0,0,0,0,0,0,0,-1,727,1681,0,0
-490,-657,0,0,0,0,0,0,0,0,0,-1,734,1681,0,0
-483,-657,0,0,0,0,0,0,0,0,0,-1,741,1681,0,0
-476,-657,0,0,0,0,0,0,0,0,0,-1,748,1681,0,0
-469,-657,0,0,0,0,0,0,0,0,0,-1,755,1681,0,0
-462,-657,0,0,0,0,0,0,0,0,0,-1,762,1681,0,0
-455,-657,0,0,0,0,0,0,0,0,0,-1,769,1681,0,0
-448,-657,0,0,0,0,0,0,0,0,0,-1,776,1681,0,0
-441,-657,0,0,0,0,0,0,0,0,0,-1,783,1681,0,0
-434,-657,0,0,0,0,0,0,0,0,0,-1,790,1681,0,0
-427,-657,0,0,0,0,0,0,0,0,0,-1,797,1681,0,0
-420,-657,0,0,0,0,0,0,0,0,0,-1,804,1681,0,0
-413,-657,0,0,0,0,0,0,0,0,0,-1,811,1681,0,0
-406,-657,0,0,0,0,0,0,0,0,0,-1,818,1681,0,0
-399,-657,0,0,0,0,0,0,0,0,0,-1,825,1681,0,0
-392,-657,0,0,0,0,0,0,0,0,0,-1,832,1681,0,0
-385,-657,1.09814,6.18896,0,0,0,0,0,0,0,-1,839,1681,1.09814,-6.18894
-378,-657,0.31488,4.46753,0,0,0,0,0,0,0,-1,846,1681,0.31487,-4.46755
-371,-657,-0.519043,2.69421,0,0,0,0,0,0,0,-1,853,1681,-0.519064,-2.69422
-364,-657,-3.42017,4.18323,0,0,0,0,0,0,0,-1,860,1681,-3.42019,-4.18319
-357,-657,5.03418,34.7598,0,0,0,0,0,0,0,-1,867,1681,5.03417,-34.7597
-350,-657,4.23431,35.8203,0,0,0,0,0,0,0,-1,874,1681,4.23429,-35.8203
-343,-657,3.60156,36.754,0,0,0,0,0,0,0,-1,881,1681,3.60154,-36.754
-336,-657,3.91907,37.433,0,0,0,0,0,0,0,-1,888,1681,3.91905,-37.433
-329,-657,5.42627,38.8193,0,0,0,0,0,0,0,-1,895,1681,5.42625,-38.8193
-322,-657,5.49213,39.5648,0.00536863,-0.013269,-0.00164784,0.0055132,-0.0134136,-0.0875099,0.0112403,0.0479841,902,1681,5.49211,-39.5649
-315,-657,5.62305,39.9381,0.00226481,-0.0141905,-0.00239459,0.00260619,-0.0145319,-0.141609,0.0106634,0.0440388,909,1681,5.62307,-39.9381
-308,-657,5.5199,40.4923,-0.000146335,-0.0145734,-0.0028448,0.000394352,-0.0151141,-0.187821,0.0102101,0.0392662,916,1681,5.51987,-40.4923
-301,-657,5.5083,41.3541,-0.00206981,-0.0144513,-0.0029958,-0.00138304,-0.0151381,-0.225349,0.00966407,0.0321264,923,1681,5.50833,-41.3542
-294,-657,5.46594,42.0455,-0.00333126,-0.0139018,-0.00284574,-0.00261383,-0.0146192,-0.246958,0.00900225,0.0175399,930,1681,5.46592,-42.0455
-287,-657,5.40649,42.67,-0.00410216,-0.0129576,-0.00247122,-0.00345922,-0.0136005,-0.25453,0.00816207,0.0120657,937,1681,5.40652,-42.6701
-280,-657,5.34265,43.2568,-0.00437753,-0.0115397,-0.00197536,-0.00386885,-0.0120484,-0.25204,0.00710298,0.0147615,944,1681,5.34266,-43.2569
-273,-657,5.3197,43.8925,-0.00413456,-0.00982493,-0.00141152,-0.00380367,-0.0101558,-0.230265,0.00592468,0.0110445,951,1681,5.31971,-43.8924
-266,-657,5.27472,44.4741,-0.00363689,-0.00792848,-0.00070943,-0.00352266,-0.00804271,-0.159651,0.00465535,0.0147321,958,1681,5.27472,-44.4741
-259,-657,5.25824,45.0498,-0.00273088,-0.00610721,-5.49718e-05,-0.00272998,-0.0061081,-0.0162758,0.00353313,0.0183885,965,1681,5.25825,-45.0498
-252,-657,5.22449,45.6433,-0.0016936,-0.00424969,0.000384021,-0.00163716,-0.00430613,0.145947,0.00250983,0.013137,972,1681,5.22451,-45.6433
-245,-657,5.22095,46.2557,-0.00073046,-0.00248524,0.000697073,-0.00048726,-0.00272844,0.335684,0.00168026,0.0168949,979,1681,5.22096,-46.2557
-238,-657,5.23181,46.8704,-0.000295786,-0.00106884,0.00105114,0.000437644,-0.00180227,0.609211,0.00137088,0.0231168,986,1681,5.23178,-46.8703
-231,-657,5.19446,47.4666,5.42403e-05,-0.000620503,0.00133188,0.00109081,-0.00165707,0.661355,0.00159768,0.0229246,993,1681,5.19444,-47.4666
-224,-657,5.15698,48.0298,0.000614838,-0.000347664,0.00144292,0.00165465,-0.00138748,0.624437,0.00175863,0.016696,1000,1681,5.15701,-48.0298
-217,-657,5.15338,48.5577,0.000856396,-0.000603662,0.0014509,0.00175057,-0.00149784,0.552313,0.00187736,0.0100792,1007,1681,5.15338,-48.5578
-210,-657,5.14996,49.076,0.000748254,-0.0012081,0.00145916,0.00152677,-0.00198662,0.490117,0.00203424,0.0114437,1014,1681,5.14998,-49.0761
-203,-657,5.14966,49.6036,0.000615857,-0.00205724,0.00150598,0.00129285,-0.00273423,0.422467,0.00237415,0.013936,1021,1681,5.14963,-49.6036
-196,-657,5.14429,50.1259,0.000636387,-0.00290197,0.00167184,0.00130135,-0.00356693,0.37856,0.00291039,0.0139085,1028,1681,5.14426,-50.1258
-189,-657,5.14807,50.6476,0.000714629,-0.00347039,0.00183509,0.00140531,-0.00416107,0.359976,0.00334246,0.0101351,1035,1681,5.14805,-50.6476
-182,-657,5.14172,51.1725,0.00101574,-0.00341418,0.00205673,0.00182339,-0.00422183,0.374187,0.0035806,0.00877298,1042,1681,5.14167,-51.1724
-175,-657,5.15198,51.6616,0.00160914,-0.00305624,0.00236966,0.00260161,-0.00404872,0.39663,0.00386975,0.0114748,1049,1681,5.15203,-51.6617
-168,-657,5.12036,52.166,0.00243242,-0.00208144,0.00269907,0.00369383,-0.00334285,0.437188,0.00406431,0.0151467,1056,1681,5.12033,-52.1661
-161,-657,5.1582,52.6969,0.00351375,-0.000384808,0.00307557,0.00520574,-0.00207679,0.502949,0.004332,0.0155663,1063,1681,5.15816,-52.6969
-154,-657,5.25562,53.1331,0.00471534,0.00193269,0.00342489,0.00702072,-0.000372692,0.592461,0.00480953,0.0161044,1070,1681,5.25556,-53.133
-147,-657,5.27271,53.6089,0.00595115,0.00482893,0.00368256,0.0091151,0.00166498,0.709795,0.00560479,0.0259852,1077,1681,5.27266,-53.6089
-140,-657,5.26172,54.3542,0.00704322,0.00785696,0.00378236,0.0112543,0.00364591,0.838978,0.00663054,0.036834,1084,1681,5.26177,-54.3543
-133,-657,5.1969,54.8615,0.0089027,0.0120173,0.00391371,0.0146721,0.00624783,0.974747,0.00850197,0.0435874,1091,1681,5.1969,-54.8614
-126,-657,5.12891,55.3879,0,0,0,0,0,0,0,-1,1098,1681,5.12888,-55.3879
-119,-657,5.64758,54.4952,0,0,0,0,0,0,0,-1,1105,1681,5.64753,-54.4952
-112,-657,6.24219,42.9092,0,0,0,0,0,0,0,-1,1112,1681,6.24217,-42.9092
-105,-657,7.37256,41.0361,0,0,0,0,0,0,0,-1,1119,1681,7.37254,-41.0362
-98,-657,8.14404,38.4435,0,0,0,0,0,0,0,-1,1126,1681,8.14405,-38.4435
-91,-657,3.6521,16.6017,0,0,0,0,0,0,0,-1,1133,1681,3.65215,-16.6017
-84,-657,4.08008,10.4579,0,0,0,0,0,0,0,-1,1140,1681,4.08006,-10.4579
-77,-657,-5.29846,0.396606,0,0,0,0,0,0,0,-1,1147,1681,-5.29842,-0.396573
-70,-657,-4.14893,2.14575,0,0,0,0,0,0,0,-1,1154,1681,-4.14893,-2.1458
-63,-657,-4.1239,3.177,0,0,0,0,0,0,0,-1,1161,1681,-4.12391,-3.17698
-56,-657,-6.40576,5.73987,0,0,0,0,0,0,0,-1,1168,1681,-6.40577,-5.7399
-49,-657,-5.98462,7.54053,0,0,0,0,0,0,0,-1,1175,1681,-5.98466,-7.5405
-42,-657,-5.71948,9.28955,0,0,0,0,0,0,0,-1,1182,1681,-5.71951,-9.2895
-35,-657,-5.44556,11.015,0,0,0,0,0,0,0,-1,1189,1681,-5.44555,-11.015
-28,-657,-1.3446,8.92847,0,0,0,0,0,0,0,-1,1196,1681,-1.34459,-8.92848
-21,-657,7.32947,59.7876,0,0,0,0,0,0,0,-1,1203,1681,7.32948,-59.7876
-14,-657,7.39734,60.4417,-0.00266083,0.0793465,0.0353335,0.0924701,-0.0157844,1.21517,0.067526,0.0486275,1210,1681,7.39734,-60.4416
-7,-657,7.29102,60.765,0.00201441,0.0831501,0.0343477,0.0957379,-0.0105733,1.21952,0.0676258,0.0498998,1217,1681,7.29108,-60.765
0,-657,7.04688,61.2843,0,0,0,0,0,0,0,-1,1224,1681,7.04684,-61.2843
7,-657,8.47363,62.2457,0.00376568,0.0878146,0.0309074,0.0979564,-0.00637616,1.25373,0.0675301,0.0460845,1231,1681,8.47363,-62.2458
14,-657,8.65247,62.1023,0.00475647,0.086407,0.0260578,0.0940142,-0.00285079,1.28675,0.0636477,0.0417928,1238,1681,8.65248,-62.1023
21,-657,8.79968,61.9459,0.00596037,0.0820816,0.0197986,0.0869231,0.00111885,1.33096,0.0575794,0.0421458,1245,1681,8.79963,-61.9459
28,-657,8.92236,61.7813,0.00783439,0.0741084,0.0136365,0.0768045,0.00513824,1.3756,0.0495791,0.0436282,1252,1681,8.92236,-61.7813
35,-657,9.03528,61.6086,0,0,0,0,0,0,0,-1,1259,1681,9.03525,-61.6087
42,-657,9.08606,62.2367,0.0113478,0.0532657,0.0029856,0.0534773,0.0111362,1.50005,0.0325801,0.0443833,1266,1681,9.08604,-62.2367
49,-657,8.60913,61.682,0.0120798,0.0416329,-0.00115936,0.0416783,0.0120344,-1.53165,0.0247686,0.046139,1273,1681,8.60911,-61.682
56,-657,8.60242,60.6632,0.0107803,0.0301873,-0.00544241,0.0316093,0.00935821,-1.31522,0.0187489,0.0460055,1280,1681,8.60236,-60.6632
63,-657,8.87903,59.0931,0,0,0,0,0,0,0,-1,1287,1681,8.87903,-59.0931
70,-657,8.79871,57.4003,0.00957842,0.0101301,-0.0100603,0.0199184,-0.000209853,-0.799104,0.0133494,0.0490617,1294,1681,8.79872,-57.4002
77,-657,8.97717,61.1805,0.00615925,0.00049465,-0.0123292,0.0159773,-0.00932339,-0.672495,0.0147748,0.0457394,1301,1681,8.9772,-61.1805
84,-657,9.73511,59.7826,0.00182737,-0.0100838,-0.0143121,0.0113735,-0.0196299,-0.588234,0.0181102,0.0479108,1308,1681,9.73517,-59.7826
91,-657,9.50659,59.0724,-0.00336879,-0.0192077,-0.0162352,0.0067755,-0.029352,-0.55848,0.0221743,0.0482327,1315,1681,9.50654,-59.0723
98,-657,9.29993,58.3041,-0.0102527,-0.0282131,-0.0161487,-0.000755228,-0.0377106,-0.531643,0.0248924,0.0484565,1322,1681,9.29993,-58.304
105,-657,9.08521,57.5098,0,0,0,0,0,0,0,-1,1329,1681,9.08514,-57.5097
112,-657,9.84692,59.0897,0,0,0,0,0,0,0,-1,1336,1681,9.84694,-59.0897
119,-657,10.0428,59.4722,0,0,0,0,0,0,0,-1,1343,1681,10.0429,-59.4722
126,-657,5.84644,57.6212,0,0,0,0,0,0,0,-1,1350,1681,5.84639,-57.6212
133,-657,4.45959,57.8339,0,0,0,0,0,0,0,-1,1357,1681,4.45953,-57.8338
140,-657,3.05334,58.0001,0,0,0,0,0,0,0,-1,1364,1681,3.0533,-58.0002
147,-657,1.46228,56.8668,0,0,0,0,0,0,0,-1,1371,1681,1.46231,-56.8668
154,-657,0.0133057,56.4684,0,0,0,0,0,0,0,-1,1378,1681,0.0133658,-56.4683
161,-657,4.2926,24.9226,0,0,0,0,0,0,0,-1,1385,1681,4.29264,-24.9226
168,-657,5.21643,0.70105,0,0,0,0,0,0,0,-1,1392,1681,5.21648,-0.7011
175,-657,5.52771,0.649048,0,0,0,0,0,0,0,-1,1399,1681,5.52774,-0.649019
182,-657,5.73999,1.02612,0,0,0,0,0,0,0,-1,1406,1681,5.73995,-1.02611
189,-657,5.92126,1.44116,0,0,0,0,0,0,0,-1,1413,1681,5.92126,-1.44115
196,-657,4.92834,9.59021,0,0,0,0,0,0,0,-1,1420,1681,4.9284,-9.59018
203,-657,6.26343,5.16492,0,0,0,0,0,0,0,-1,1427,1681,6.26345,-5.16488
210,-657,3.9856,5.28088,0,0,0,0,0,0,0,-1,1434,1681,3.98555,-5.28084
217,-657,3.95178,5.2843,0,0,0,0,0,0,0,-1,1441,1681,3.95174,-5.28431
224,-657,6.66736,-0.250244,0,0,0,0,0,0,0,-1,1448,1681,6.66737,0.250229
231,-657,6.85498,-1.70752,0,0,0,0,0,0,0,-1,1455,1681,6.855,1.70758
238,-657,5.34143,-2.89819,0,0,0,0,0,0,0,-1,1462,1681,5.34143,2.89813
245,-657,8.66003,-0.102783,0,0,0,0,0,0,0,-1,1469,1681,8.66,0.102824
252,-657,4.78955,0.623779,0,0,0,0,0,0,0,-1,1476,1681,4.7895,-0.623826
259,-657,2.61523,4.31909,0,0,0,0,0,0,0,-1,1483,1681,2.61523,-4.31908
266,-657,5.35437,11.4742,0,0,0,0,0,0,0,-1,1490,1681,5.35441,-11.4742
273,-657,11.9164,46.0638,0,0,0,0,0,0,0,-1,1497,1681,11.9164,-46.0638
280,-657,12.7335,53.0739,0,0,0,0,0,0,0,-1,1504,1681,12.7336,-53.0738
287,-657,12.8301,52.554,0.0112367,0.00773207,-0.00341298,0.0133209,0.00564783,-0.548235,0.00772039,0.0427965,1511,1681,12.8301,-52.5539
294,-657,12.9259,52.1354,0.0102746,0.00728788,-0.00321082,0.0123223,0.00524012,-0.567728,0.00714076,0.0343051,1518,1681,12.9258,-52.1353
301,-657,12.9774,51.739,0.00914028,0.00697267,-0.00281598,0.0110738,0.00503914,-0.601697,0.00640208,0.0255401,1525,1681,12.9774,-51.7391
308,-657,13.0116,51.2246,0.0079283,0.00685477,-0.00259481,0.0100413,0.00474179,-0.683406,0.00580032,0.0164977,1532,1681,13.0116,-51.2246
315,-657,13.0447,50.6837,0.00672232,0.00664647,-0.00243814,0.00912283,0.00424596,-0.777621,0.00527127,0.0118236,1539,1681,13.0447,-50.6837
322,-657,13.072,50.1639,0.00566815,0.00656932,-0.00239672,0.00855744,0.00368003,-0.878314,0.00495674,0.0140074,1546,1681,13.0721,-50.1639
329,-657,13.0674,49.6843,0.00471171,0.00623961,-0.00231298,0.00791154,0.00303978,-0.944902,0.00460837,0.0206347,1553,1681,13.0673,-49.6843
336,-657,13.0605,49.1331,0.00385297,0.00591607,-0.00218303,0.007299,0.00247004,-1.00611,0.00428681,0.0173483,1560,1681,13.0605,-49.133
343,-657,13.068,48.608,0.00308426,0.00553212,-0.00212942,0.00676429,0.00185209,-1.04623,0.00403638,0.0131803,1567,1681,13.068,-48.608
350,-657,13.0364,48.0907,0.00242287,0.004954,-0.0020723,0.00611662,0.00126025,-1.05953,0.00372933,0.0149438,1574,1681,13.0364,-48.0907
357,-657,13.0214,47.5331,0.00196141,0.00408769,-0.00202192,0.00530894,0.000740162,-1.02744,0.00332019,0.0150533,1581,1681,13.0214,-47.5331
364,-657,13.0242,46.9701,0.00180111,0.00332706,-0.00208082,0.00478038,0.000347794,-0.961122,0.00307755,0.0118638,1588,1681,13.0241,-46.9701
371,-657,13.0052,46.4178,0.00168325,0.00244152,-0.00211888,0.00421491,-9.01518e-05,-0.873927,0.00284047,0.0158123,1595,1681,13.0052,-46.4179
378,-657,12.9542,45.8765,0.00167577,0.00142068,-0.0021621,0.00371408,-0.000617638,-0.755937,0.00270553,0.0141373,1602,1681,12.9542,-45.8764
385,-657,12.9143,45.3132,0.00188736,0.000655397,-0.00238523,0.00373486,-0.00119211,-0.659035,0.00296818,0.0130996,1609,1681,12.9143,-45.3132
392,-657,12.901,44.7504,0.00201433,-0.000160054,-0.00258896,0.00373511,-0.00188083,-0.586612,0.00330075,0.0137389,1616,1681,12.901,-44.7504
399,-657,12.9174,44.1604,0.0021673,-0.000788231,-0.00284919,0.00389915,-0.00252009,-0.546165,0.00373455,0.0137366,1623,1681,12.9173,-44.1604
406,-657,12.8936,43.5778,0.00241233,-0.000942632,-0.00318228,0.00433219,-0.00286249,-0.542839,0.00418264,0.014888,1630,1681,12.8936,-43.5778
413,-657,12.8586,42.9832,0.00276873,-0.000902934,-0.00363021,0.0050009,-0.00313511,-0.551296,0.00473832,0.0144609,1637,1681,12.8587,-42.9832
420,-657,12.8314,42.3479,0.00324516,-0.000368798,-0.0042845,0.00608815,-0.00321178,-0.585842,0.00545425,0.0169539,1644,1681,12.8314,-42.3479
427,-657,12.7656,41.704,0.00389866,0.000642531,-0.0050928,0.0076173,-0.00307611,-0.630692,0.0063567,0.0214498,1651,1681,12.7657,-41.7039
434,-657,12.7734,41.0345,0.00471361,0.00198155,-0.0058834,0.00938748,-0.00269232,-0.671328,0.00732264,0.0311318,1658,1681,12.7735,-41.0346
441,-657,12.6519,40.3508,0,0,0,0,0,0,0,-1,1665,1681,12.6518,-40.3508
448,-657,12.4535,39.7263,0,0,0,0,0,0,0,-1,1672,1681,12.4535,-39.7263
455,-657,12.6798,39.0417,0,0,0,0,0,0,0,-1,1679,1681,12.6798,-39.0417
462,-657,10.2832,30.1719,0,0,0,0,0,0,0,-1,1686,1681,10.2831,-30.1718
469,-657,9.22205,26.4175,0,0,0,0,0,0,0,-1,1693,1681,9.2221,-26.4175
476,-657,8.9519,20.5712,0,0,0,0,0,0,0,-1,1700,1681,8.95194,-20.5712
483,-657,10.0663,21.8628,0,0,0,0,0,0,0,-1,1707,1681,10.0663,-21.8628
490,-657,11.6039,21.2185,0,0,0,0,0,0,0,-1,1714,1681,11.6038,-21.2185
497,-657,9.20862,17.8127,0,0,0,0,0,0,0,-1,1721,1681,9.2086,-17.8127
504,-657,0,0,0,0,0,0,0,0,0,-1,1728,1681,0,0
511,-657,0,0,0,0,0,0,0,0,0,-1,1735,1681,0,0
518,-657,0,0,0,0,0,0,0,0,0,-1,1742,1681,0,0
525,-657,0,0,0,0,0,0,0,0,0,-1,1749,1681,0,0
532,-657,0,0,0,0,0,0,0,0,0,-1,1756,1681,0,0
539,-657,0,0,0,0,0,0,0,0,0,-1,1763,1681,0,0
546,-657,0,0,0,0,0,0,0,0,0,-1,1770,1681,0,0
553,-657,0,0,0,0,0,0,0,0,0,-1,1777,1681,0,0
560,-657,0,0,0,0,0,0,0,0,0,-1,1784,1681,0,0
567,-657,0,0,0,0,0,0,0,0,0,-1,1791,1681,0,0
574,-657,0,0,0,0,0,0,0,0,0,-1,1798,1681,0,0
581,-657,0,0,0,0,0,0,0,0,0,-1,1805,1681,0,0
588,-657,0,0,0,0,0,0,0,0,0,-1,1812,1681,0,0
595,-657,0,0,0,0,0,0,0,0,0,-1,1819,1681,0,0
602,-657,0,0,0,0,0,0,0,0,0,-1,1826,1681,0,0
609,-657,0,0,0,0,0,0,0,0,0,-1,1833,1681,0,0
616,-657,0,0,0,0,0,0,0,0,0,-1,1840,1681,0,0
623,-657,0,0,0,0,0,0,0,0,0,-1,1847,1681,0,0
630,-657,0,0,0,0,0,0,0,0,0,-1,1854,1681,0,0
637,-657,0,0,0,0,0,0,0,0,0,-1,1861,1681,0,0
644,-657,0,0,0,0,0,0,0,0,0,-1,1868,1681,0,0
651,-657,0,0,0,0,0,0,0,0,0,-1,1875,1681,0,0
658,-657,0,0,0,0,0,0,0,0,0,-1,1882,1681,0,0
665,-657,0,0,0,0,0,0,0,0,0,-1,1889,1681,0,0
672,-657,0,0,0,0,0,0,0,0,0,-1,1896,1681,0,0
679,-657,0,0,0,0,0,0,0,0,0,-1,1903,1681,0,0
686,-657,0,0,0,0,0,0,0,0,0,-1,1910,1681,0,0
693,-657,0,0,0,0,0,0,0,0,0,-1,1917,1681,0,0
700,-657,0,0,0,0,0,0,0,0,0,-1,1924,1681,0,0
707,-657,0,0,0,0,0,0,0,0,0,-1,1931,1681,0,0
714,-657,0,0,0,0,0,0,0,0,0,-1,1938,1681,0,0
721,-657,0,0,0,0,0,0,0,0,0,-1,1945,1681,0,0
728,-657,0,0,0,0,0,0,0,0,0,-1,1952,1681,0,0
735,-657,0,0,0,0,0,0,0,0,0,-1,1959,1681,0,0
742,-657,0,0,0,0,0,0,0,0,0,-1,1966,1681,0,0
749,-657,0,0,0,0,0,0,0,0,0,-1,1973,1681,0,0
756,-657,0,0,0,0,0,0,0,0,0,-1,1980,1681,0,0
763,-657,0,0,0,0,0,0,0,0,0,-1,1987,1681,0,0
770,-657,0,0,0,0,0,0,0,0,0,-1,1994,1681,0,0
777,-657,0,0,0,0,0,0,0,0,0,-1,2001,1681,0,0
784,-657,0,0,0,0,0,0,0,0,0,-1,2008,1681,0,0
791,-657,0,0,0,0,0,0,0,0,0,-1,2015,1681,0,0
798,-657,0,0,0,0,0,0,0,0,0,-1,2022,1681,0,0
805,-657,0,0,0,0,0,0,0,0,0,-1,2029,1681,0,0
812,-657,0,0,0,0,0,0,0,0,0,-1,2036,1681,0,0
-700,-664,0,0,0,0,0,0,0,0,0,-1,524,1688,0,0
-693,-664,0,0,0,0,0,0,0,0,0,-1,531,1688,0,0
-686,-664,0,0,0,0,0,0,0,0,0,-1,538,1688,0,0
-679,-664,0,0,0,0,0,0,0,0,0,-1,545,1688,0,0
-672,-664,0,0,0,0,0,0,0,0,0,-1,552,1688,0,0
-665,-664,0,0,0,0,0,0,0,0,0,-1,559,1688,0,0
-658,-664,0,0,0,0,0,0,0,0,0,-1,566,1688,0,0
-651,-664,0,0,0,0,0,0,0,0,0,-1,573,1688,0,0
-644,-664,0,0,0,0,0,0,0,0,0,-1,580,1688,0,0
-637,-664,0,0,0,0,0,0,0,0,0,-1,587,1688,0,0
-630,-664,0,0,0,0,0,0,0,0,0,-1,594,1688,0,0
-623,-664,0,0,0,0,0,0,0,0,0,-1,601,1688,0,0
-616,-664,0,0,0,0,0,0,0,0,0,-1,608,1688,0,0
-609,-664,0,0,0,0,0,0,0,0,0,-1,615,1688,0,0
-602,-664,0,0,0,0,0,0,0,0,0,-1,622,1688,0,0
-595,-664,0,0,0,0,0,0,0,0,0,-1,629,1688,0,0
-588,-664,0,0,0,0,0,0,0,0,0,-1,636,1688,0,0
-581,-664,0,0,0,0,0,0,0,0,0,-1,643,1688,0,0
-574,-664,0,0,0,0,0,0,0,0,0,-1,650,1688,0,0
-567,-664,0,0,0,0,0,0,0,0,0,-1,657,1688,0,0
-560,-664,0,0,0,0,0,0,0,0,0,-1,664,1688,0,0
-553,-664,0,0,0,0,0,0,0,0,0,-1,671,1688,0,0
-546,-664,0,0,0,0,0,0,0,0,0,-1,678,1688,0,0
-539,-664,0,0,0,0,0,0,0,0,0,-1,685,1688,0,0
-532,-664,0,0,0,0,0,0,0,0,0,-1,692,1688,0,0
-525,-664,0,0,0,0,0,0,0,0,0,-1,699,1688,0,0
-518,-664,0,0,0,0,0,0,0,0,0,-1,706,1688,0,0
-511,-664,0,0,0,0,0,0,0,0,0,-1,713,1688,0,0
-504,-664,0,0,0,0,0,0,0,0,0,-1,720,1688,0,0
-497,-664,0,0,0,0,0,0,0,0,0,-1,727,1688,0,0
-490,-664,0,0,0,0,0,0,0,0,0,-1,734,1688,0,0
-483,-664,0,0,0,0,0,0,0,0,0,-1,741,1688,0,0
-476,-664,0,0,0,0,0,0,0,0,0,-1,748,1688,0,0
-469,-664,0,0,0,0,0,0,0,0,0,-1,755,1688,0,0
-462,-664,0,0,0,0,0,0,0,0,0,-1,762,1688,0,0
-455,-664,0,0,0,0,0,0,0,0,0,-1,769,1688,0,0
-448,-664,0,0,0,0,0,0,0,0,0,-1,776,1688,0,0
-441,-664,0,0,0,0,0,0,0,0,0,-1,783,1688,0,0
-434,-664,0,0,0,0,0,0,0,0,0,-1,790,1688,0,0
-427,-664,0,0,0,0,0,0,0,0,0,-1,797,1688,0,0
-420,-664,0,0,0,0,0,0,0,0,0,-1,804,1688,0,0
-413,-664,0,0,0,0,0,0,0,0,0,-1,811,1688,0,0
-406,-664,0,0,0,0,0,0,0,0,0,-1,818,1688,0,0
-399,-664,0,0,0,0,0,0,0,0,0,-1,825,1688,0,0
-392,-664,0,0,0,0,0,0,0,0,0,-1,832,1688,0,0
-385,-664,0,0,0,0,0,0,0,0,0,-1,839,1688,0,0
-378,-664,0,0,0,0,0,0,0,0,0,-1,846,1688,0,0
-371,-664,-1.61676,5.92737,0,0,0,0,0,0,0,-1,853,1688,-1.61675,-5.92735
-364,-664,-3.901,5.87024,0,0,0,0,0,0,0,-1,860,1688,-3.90097,-5.87027
-357,-664,-4.81012,4.53479,0,0,0,0,0,0,0,-1,867,1688,-4.81012,-4.5348
-350,-664,3.26105,36.0225,0,0,0,0,0,0,0,-1,874,1688,3.26104,-36.0224
-343,-664,5.2652,32.889,0,0,0,0,0,0,0,-1,881,1688,5.26517,-32.889
-336,-664,5.38037,33.5928,0,0,0,0,0,0,0,-1,888,1688,5.38037,-33.5927
-329,-664,6.11078,37.1841,0,0,0,0,0,0,0,-1,895,1688,6.11079,-37.1841
-322,-664,6.08313,39.6288,0,0,0,0,0,0,0,-1,902,1688,6.08314,-39.6287
-315,-664,6.29047,39.8008,0,0,0,0,0,0,0,-1,909,1688,6.29049,-39.8008
-308,-664,6.11688,40.3368,0,0,0,0,0,0,0,-1,916,1688,6.11689,-40.3368
-301,-664,6.10181,41.321,0,0,0,0,0,0,0,-1,923,1688,6.1018,-41.321
-294,-664,6.16296,41.9552,-0.00600991,-0.0212608,-0.0048267,-0.00461071,-0.0226601,-0.282155,0.0138284,0.0416472,930,1688,6.16298,-41.9551
-287,-664,6.0885,42.7212,-0.00693202,-0.0195994,-0.00405918,-0.0057429,-0.0207885,-0.284971,0.0123964,0.0272978,937,1688,6.0885,-42.7212
-280,-664,5.95874,43.3096,-0.0071369,-0.0173518,-0.00315586,-0.00624056,-0.0182482,-0.276736,0.0107095,0.0180771,944,1688,5.95876,-43.3096
-273,-664,5.8775,43.9169,-0.00670031,-0.0147566,-0.00228462,-0.00609753,-0.0153594,-0.257962,0.00893027,0.0150781,951,1688,5.87753,-43.9169
-266,-664,5.86902,44.4988,-0.00596494,-0.0120422,-0.00133149,-0.00568601,-0.0123211,-0.206495,0.00712062,0.0212028,958,1688,5.86902,-44.4988
-259,-664,5.8504,45.0883,-0.0047968,-0.00953637,-0.000482205,-0.00474824,-0.00958493,-0.10037,0.00553394,0.0183865,965,1688,5.85038,-45.0882
-252,-664,5.8299,45.6957,-0.00351431,-0.00709639,8.01632e-05,-0.00351252,-0.00709819,0.022364,0.00409821,0.0160084,972,1688,5.82991,-45.6957
-245,-664,5.75653,46.3083,-0.00234068,-0.00480641,0.000473014,-0.00225306,-0.00489403,0.183175,0.00282853,0.0216155,979,1688,5.7565,-46.3083
-238,-664,5.78973,46.8835,-0.0016573,-0.00258491,0.000953634,-0.00106067,-0.00318155,0.559062,0.00187055,0.0265975,986,1688,5.78973,-46.8836
-231,-664,5.77649,47.4597,-0.000932965,-0.00146056,0.00129016,0.000120089,-0.00251361,0.684554,0.00171717,0.0224647,993,1688,5.77649,-47.4598
-224,-664,5.72778,48.0431,4.4995e-05,-0.000673086,0.00142307,0.00115362,-0.00178171,0.661827,0.0017076,0.0147885,1000,1688,5.72777,-48.043
-217,-664,5.70087,48.5771,0.000561615,-0.000388914,0.00134072,0.00150881,-0.00133611,0.615066,0.00164353,0.0106021,1007,1688,5.70089,-48.5771
-210,-664,5.6842,49.1022,0.000631953,-0.000533121,0.00131092,0.00148394,-0.00138511,0.576316,0.00165677,0.0120701,1014,1688,5.68418,-49.1021
-203,-664,5.66125,49.6526,0.000623585,-0.000973794,0.00131807,0.00136607,-0.00171628,0.513006,0.00178342,0.0145331,1021,1688,5.66126,-49.6526
-196,-664,5.65283,50.1625,0.00075552,-0.0014813,0.00140997,0.00143679,-0.00216257,0.450104,0.00209213,0.0149196,1028,1688,5.65279,-50.1625
-189,-664,5.64221,50.6681,0.000944617,-0.00172886,0.00149451,0.00161298,-0.00239722,0.420533,0.00233,0.0105045,1035,1688,5.64216,-50.6681
-182,-664,5.65356,51.1774,0.00130759,-0.00152968,0.00159287,0.00202197,-0.00224406,0.421594,0.00246411,0.00988213,1042,1688,5.65355,-51.1774
-175,-664,5.65515,51.6371,0.00190566,-0.00110966,0.00175152,0.00270902,-0.00191303,0.43004,0.0026817,0.0130962,1049,1688,5.6551,-51.637
-168,-664,5.65869,52.1161,0.0026194,-0.000311329,0.00192718,0.00357505,-0.00126698,0.460346,0.00289948,0.014722,1056,1688,5.65873,-52.1161
-161,-664,5.65466,52.6154,0.00347806,0.000965279,0.00211977,0.0046858,-0.000242457,0.51788,0.00320774,0.0113442,1063,1688,5.65468,-52.6154
-154,-664,5.7196,53.084,0.00440736,0.00266129,0.00227165,0.00596796,0.00110069,0.60194,0.00366722,0.0118083,1070,1688,5.71959,-53.084
-147,-664,5.724,53.5497,0.00535758,0.00470345,0.00234615,0.00739935,0.00266168,0.716143,0.0043277,0.0165455,1077,1688,5.72403,-53.5497
-140,-664,5.75574,54.0249,0.00621736,0.00674456,0.00228403,0.00878015,0.00418177,0.842848,0.00507113,0.0188813,1084,1688,5.75571,-54.0249
-133,-664,5.73047,54.4736,0.0075368,0.00947497,0.0022926,0.0109949,0.00601688,0.985359,0.00635734,0.0198862,1091,1688,5.73046,-54.4736
-126,-664,5.84229,55.0399,0.0089755,0.0126662,0.00215474,0.0136578,0.00798391,1.1395,0.00792283,0.0373741,1098,1688,5.84225,-55.0399
-119,-664,6.02075,55.6982,0,0,0,0,0,0,0,-1,1105,1688,6.0208,-55.6982
-112,-664,6.3916,51.1235,0,0,0,0,0,0,0,-1,1112,1688,6.39161,-51.1236
-105,-664,6.87256,43.2527,0,0,0,0,0,0,0,-1,1119,1688,6.87258,-43.2527
-98,-664,7.69324,41.3359,0,0,0,0,0,0,0,-1,1126,1688,7.69321,-41.3359
-91,-664,5.41931,25.6302,0,0,0,0,0,0,0,-1,1133,1688,5.41932,-25.6302
-84,-664,3.48389,16.6913,0,0,0,0,0,0,0,-1,1140,1688,3.4839,-16.6913
-77,-664,4.52014,11.2122,0,0,0,0,0,0,0,-1,1147,1688,4.5202,-11.2122
-70,-664,4.20374,8.24524,0,0,0,0,0,0,0,-1,1154,1688,4.20379,-8.24519
-63,-664,-4.677,2.40503,0,0,0,0,0,0,0,-1,1161,1688,-4.67702,-2.40498
-56,-664,-4.66504,3.32727,0,0,0,0,0,0,0,-1,1168,1688,-4.6651,-3.32724
-49,-664,-2.54297,3.31848,0,0,0,0,0,0,0,-1,1175,1688,-2.54297,-3.31852
-42,-664,-0.359253,4.38684,0,0,0,0,0,0,0,-1,1182,1688,-0.359261,-4.38685
-35,-664,-0.705566,3.55017,0,0,0,0,0,0,0,-1,1189,1688,-0.705567,-3.55023
-28,-664,-1.54236,10.2538,0,0,0,0,0,0,0,-1,1196,1688,-1.54236,-10.2538
-21,-664,7.40967,59.0132,0,0,0,0,0,0,0,-1,1203,1688,7.40971,-59.0132
-14,-664,7.4353,59.5994,-0.000875335,0.07094,0.0280849,0.0806188,-0.0105541,1.23892,0.0575872,0.046495,1210,1688,7.43533,-59.5993
-7,-664,7.28296,60.1729,0.00181494,0.0736252,0.0265373,0.0823676,-0.00692751,1.25255,0.0573605,0.0484531,1217,1688,7.28296,-60.1728
0,-664,7.15771,61.0112,0,0,0,0,0,0,0,-1,1224,1688,7.15772,-61.0113
7,-664,7.44946,61.4614,0.00310196,0.0748532,0.0229457,0.0815636,-0.00360842,1.28628,0.0556176,0.0440249,1231,1688,7.44944,-61.4614
14,-664,7.77808,61.2742,0.00342858,0.0736837,0.0195155,0.0787407,-0.00162841,1.31725,0.0530449,0.0422065,1238,1688,7.77809,-61.2742
21,-664,7.94446,61.0916,0,0,0,0,0,0,0,-1,1245,1688,7.94447,-61.0915
28,-664,8.35645,60.985,0,0,0,0,0,0,0,-1,1252,1688,8.35648,-60.9849
35,-664,9.44299,62.5973,0.0062727,0.0533324,0.00581005,0.0540391,0.005566,1.44976,0.0343215,0.045537,1259,1688,9.44298,-62.5973
42,-664,8.62219,62.4303,0.00737665,0.0440202,0.00206114,0.0441358,0.00726108,1.51478,0.027327,0.0467541,1266,1688,8.6222,-62.4303
49,-664,8.13257,62.0713,0.0078387,0.0338086,-0.00166599,0.033915,0.00773226,-1.50699,0.020524,0.0425752,1273,1688,8.13252,-62.0713
56,-664,8.52124,60.821,0.00685469,0.0236655,-0.00540362,0.0252526,0.00526761,-1.28512,0.0153828,0.045074,1280,1688,8.52122,-60.8211
63,-664,8.43958,58.8771,0,0,0,0,0,0,0,-1,1287,1688,8.43956,-58.8771
70,-664,10.7408,59.6036,0.0066614,0.00568405,-0.00976859,0.0159535,-0.00360808,-0.760406,0.0120203,0.0484375,1294,1688,10.7408,-59.6036
77,-664,9.55188,60.7954,0.004659,-0.00271851,-0.0118466,0.0133778,-0.0114373,-0.634467,0.0143416,0.0445754,1301,1688,9.55185,-60.7954
84,-664,9.62085,60.4198,0.00209614,-0.0117519,-0.0136502,0.010478,-0.0201338,-0.550684,0.0179644,0.0476438,1308,1688,9.62082,-60.4198
91,-664,9.40283,59.6163,-0.00127615,-0.0191694,-0.0152075,0.00742123,-0.0278668,-0.519511,0.0214832,0.044913,1315,1688,9.40288,-59.6163
98,-664,9.18005,58.8234,0,0,0,0,0,0,0,-1,1322,1688,9.18011,-58.8234
105,-664,9.38196,59.2266,0,0,0,0,0,0,0,-1,1329,1688,9.38195,-59.2265
112,-664,9.69995,59.2117,-0.0198878,-0.0353751,-0.0162061,-0.00967036,-0.0455926,-0.562523,0.0277393,0.0432158,1336,1688,9.69996,-59.2116
119,-664,10.053,59.3977,-0.0262352,-0.0417543,-0.018194,-0.0142151,-0.0537744,-0.583832,0.0321755,0.0489731,1343,1688,10.053,-59.3977
126,-664,10.3761,59.577,0,0,0,0,0,0,0,-1,1350,1688,10.3761,-59.577
133,-664,10.9088,59.845,0,0,0,0,0,0,0,-1,1357,1688,10.9088,-59.845
140,-664,10.4817,57.9497,0,0,0,0,0,0,0,-1,1364,1688,10.4817,-57.9497
147,-664,1.74255,58.2877,0,0,0,0,0,0,0,-1,1371,1688,1.74256,-58.2877
154,-664,13.0916,56.0908,0,0,0,0,0,0,0,-1,1378,1688,13.0915,-56.0908
161,-664,4.60132,1.56238,0,0,0,0,0,0,0,-1,1385,1688,4.60134,-1.56233
168,-664,5.172,1.25488,0,0,0,0,0,0,0,-1,1392,1688,5.17203,-1.25484
175,-664,5.58313,1.16467,0,0,0,0,0,0,0,-1,1399,1688,5.58317,-1.16466
182,-664,5.74268,1.41113,0,0,0,0,0,0,0,-1,1406,1688,5.74263,-1.41115
189,-664,5.87744,1.87061,0,0,0,0,0,0,0,-1,1413,1688,5.87745,-1.87065
196,-664,6.7594,5.97473,0,0,0,0,0,0,0,-1,1420,1688,6.75943,-5.97478
203,-664,5.38452,5.22034,0,0,0,0,0,0,0,-1,1427,1688,5.38453,-5.2203
210,-664,5.25549,6.45715,0,0,0,0,0,0,0,-1,1434,1688,5.25549,-6.45721
217,-664,5.72009,6.73975,0,0,0,0,0,0,0,-1,1441,1688,5.72014,-6.73972
224,-664,5.05725,7.42908,0,0,0,0,0,0,0,-1,1448,1688,5.05723,-7.42912
231,-664,5.13318,7.60864,0,0,0,0,0,0,0,-1,1455,1688,5.13313,-7.60862
238,-664,4.23193,6.45471,0,0,0,0,0,0,0,-1,1462,1688,4.23197,-6.45476
245,-664,4.42004,6.80896,0,0,0,0,0,0,0,-1,1469,1688,4.4201,-6.80901
252,-664,3.67346,6.85461,0,0,0,0,0,0,0,-1,1476,1688,3.6734,-6.85462
259,-664,4.55823,11.7435,0,0,0,0,0,0,0,-1,1483,1688,4.55826,-11.7435
266,-664,12.0984,53.5537,0,0,0,0,0,0,0,-1,1490,1688,12.0984,-53.5537
273,-664,12.3763,53.3706,0,0,0,0,0,0,0,-1,1497,1688,12.3764,-53.3706
280,-664,12.3676,53.0688,0.0094869,0.00503531,-0.00249171,0.0106022,0.00392003,-0.420853,0.00619002,0.0343872,1504,1688,12.3676,-53.0689
287,-664,12.3165,52.6198,0.0087608,0.00509742,-0.00238578,0.00993694,0.00392128,-0.458016,0.00577942,0.0315164,1511,1688,12.3165,-52.6198
294,-664,12.443,52.1649,0.00795844,0.00493524,-0.00228227,0.0091843,0.00370938,-0.492903,0.00533512,0.0226049,1518,1688,12.4429,-52.1649
301,-664,12.5087,51.6746,0.00701439,0.00483869,-0.00204782,0.00824537,0.00360771,-0.541241,0.00477283,0.0142147,1525,1688,12.5086,-51.6745
308,-664,12.5298,51.1703,0.00602273,0.0049251,-0.00195846,0.00750782,0.00344,-0.648788,0.00433969,0.012117,1532,1688,12.5298,-51.1703
315,-664,12.5386,50.6591,0.00502805,0.0049272,-0.00188676,0.00686506,0.00309019,-0.772038,0.00397011,0.0120188,1539,1688,12.5385,-50.6591
322,-664,12.5712,50.1901,0.00411489,0.00500712,-0.00188712,0.00650014,0.00262187,-0.901468,0.00377615,0.0150573,1546,1688,12.5712,-50.1901
329,-664,12.5577,49.7323,0.00329124,0.0048893,-0.00189732,0.00614898,0.00203157,-0.984695,0.00361756,0.01802,1553,1688,12.5577,-49.7323
336,-664,12.5282,49.1893,0.00261014,0.00470565,-0.00184934,0.00578341,0.00153238,-1.04313,0.00345984,0.0145451,1560,1688,12.5282,-49.1894
343,-664,12.5103,48.6439,0.00204769,0.00442982,-0.00186826,0.00545439,0.00102312,-1.06918,0.00334774,0.0115113,1567,1688,12.5103,-48.6439
350,-664,12.4882,48.1201,0.00160257,0.00391872,-0.00192784,0.00500958,0.000511708,-1.05587,0.00318289,0.0136557,1574,1688,12.4881,-48.1202
357,-664,12.4858,47.54,0.00134771,0.00316093,-0.00198801,0.0044393,6.93474e-05,-0.99933,0.00293669,0.0138713,1581,1688,12.4858,-47.54
364,-664,12.4912,46.9757,0.00138938,0.00235032,-0.00214871,0.00407162,-0.000331922,-0.895393,0.00283155,0.0123664,1588,1688,12.4912,-46.9757
371,-664,12.4683,46.4402,0.00142208,0.0014755,-0.00228811,0.00373706,-0.000839477,-0.791234,0.00281326,0.0146593,1595,1688,12.4683,-46.4402
378,-664,12.4156,45.8899,0.00158597,0.000416829,-0.00243218,0.00350285,-0.00150005,-0.667461,0.00296457,0.0126876,1602,1688,12.4157,-45.8899
385,-664,12.3536,45.3397,0.00201216,-0.000297076,-0.00281048,0.00389596,-0.00218087,-0.590496,0.00355473,0.0134821,1609,1688,12.3536,-45.3397
392,-664,12.3033,44.792,0.00234524,-0.00114679,-0.00316206,0.00421131,-0.00301286,-0.533141,0.00418997,0.0166633,1616,1688,12.3034,-44.792
399,-664,12.3295,44.1953,0.00270216,-0.00185181,-0.00357117,0.00466049,-0.00381014,-0.501593,0.00489873,0.0143576,1623,1688,12.3294,-44.1953
406,-664,12.3273,43.5955,0.0031352,-0.00195577,-0.00403513,0.00536064,-0.00418122,-0.504008,0.005523,0.0132857,1630,1688,12.3273,-43.5955
413,-664,12.2975,42.9814,0.00370657,-0.00183867,-0.00465677,0.00635363,-0.00448573,-0.516885,0.00628901,0.0142881,1637,1688,12.2975,-42.9814
420,-664,12.3156,42.3394,0.00442503,-0.0011153,-0.00555738,0.0078644,-0.00455467,-0.554188,0.00725453,0.0318149,1644,1688,12.3155,-42.3393
427,-664,12.0066,41.8264,0.00533722,0.00025163,-0.00661713,0.00988331,-0.00429446,-0.60196,0.00839485,0.0468335,1651,1688,12.0066,-41.8264
434,-664,12.1821,40.7814,0.00646739,0.00200305,-0.00761972,0.0121752,-0.00370473,-0.642911,0.00959318,0.048195,1658,1688,12.1821,-40.7813
441,-664,12.3715,39.7339,0,0,0,0,0,0,0,-1,1665,1688,12.3714,-39.7339
448,-664,12.5538,38.7155,0,0,0,0,0,0,0,-1,1672,1688,12.5539,-38.7154
455,-664,12.1709,39.3733,0,0,0,0,0,0,0,-1,1679,1688,12.1708,-39.3733
462,-664,4.3147,4.25439,0,0,0,0,0,0,0,-1,1686,1688,4.31467,-4.25435
469,-664,6.05469,7.49341,0,0,0,0,0,0,0,-1,1693,1688,6.05474,-7.49339
476,-664,10.2377,22.7128,0,0,0,0,0,0,0,-1,1700,1688,10.2377,-22.7128
483,-664,8.41895,10.9768,0,0,0,0,0,0,0,-1,1707,1688,8.41897,-10.9769
490,-664,3.90771,13.2842,0,0,0,0,0,0,0,-1,1714,1688,3.90776,-13.2841
497,-664,0,0,0,0,0,0,0,0,0,-1,1721,1688,0,0
504,-664,0,0,0,0,0,0,0,0,0,-1,1728,1688,0,0
511,-664,0,0,0,0,0,0,0,0,0,-1,1735,1688,0,0
518,-664,0,0,0,0,0,0,0,0,0,-1,1742,1688,0,0
525,-664,0,0,0,0,0,0,0,0,0,-1,1749,1688,0,0
532,-664,0,0,0,0,0,0,0,0,0,-1,1756,1688,0,0
539,-664,0,0,0,0,0,0,0,0,0,-1,1763,1688,0,0
546,-664,0,0,0,0,0,0,0,0,0,-1,1770,1688,0,0
553,-664,0,0,0,0,0,0,0,0,0,-1,1777,1688,0,0
560,-664,0,0,0,0,0,0,0,0,0,-1,1784,1688,0,0
567,-664,0,0,0,0,0,0,0,0,0,-1,1791,1688,0,0
574,-664,0,0,0,0,0,0,0,0,0,-1,1798,1688,0,0
581,-664,0,0,0,0,0,0,0,0,0,-1,1805,1688,0,0
588,-664,0,0,0,0,0,0,0,0,0,-1,1812,1688,0,0
595,-664,0,0,0,0,0,0,0,0,0,-1,1819,1688,0,0
602,-664,0,0,0,0,0,0,0,0,0,-1,1826,1688,0,0
609,-664,0,0,0,0,0,0,0,0,0,-1,1833,1688,0,0
616,-664,0,0,0,0,0,0,0,0,0,-1,1840,1688,0,0
623,-664,0,0,0,0,0,0,0,0,0,-1,1847,1688,0,0
630,-664,0,0,0,0,0,0,0,0,0,-1,1854,1688,0,0
637,-664,0,0,0,0,0,0,0,0,0,-1,1861,1688,0,0
644,-664,0,0,0,0,0,0,0,0,0,-1,1868,1688,0,0
651,-664,0,0,0,0,0,0,0,0,0,-1,1875,1688,0,0
658,-664,0,0,0,0,0,0,0,0,0,-1,1882,1688,0,0
665,-664,0,0,0,0,0,0,0,0,0,-1,1889,1688,0,0
672,-664,0,0,0,0,0,0,0,0,0,-1,1896,1688,0,0
679,-664,0,0,0,0,0,0,0,0,0,-1,1903,1688,0,0
686,-664,0,0,0,0,0,0,0,0,0,-1,1910,1688,0,0
693,-664,0,0,0,0,0,0,0,0,0,-1,1917,1688,0,0
700,-664,0,0,0,0,0,0,0,0,0,-1,1924,1688,0,0
707,-664,0,0,0,0,0,0,0,0,0,-1,1931,1688,0,0
714,-664,0,0,0,0,0,0,0,0,0,-1,1938,1688,0,0
721,-664,0,0,0,0,0,0,0,0,0,-1,1945,1688,0,0
728,-664,0,0,0,0,0,0,0,0,0,-1,1952,1688,0,0
735,-664,0,0,0,0,0,0,0,0,0,-1,1959,1688,0,0
742,-664,0,0,0,0,0,0,0,0,0,-1,1966,1688,0,0
749,-664,0,0,0,0,0,0,0,0,0,-1,1973,1688,0,0
756,-664,0,0,0,0,0,0,0,0,0,-1,1980,1688,0,0
763,-664,0,0,0,0,0,0,0,0,0,-1,1987,1688,0,0
770,-664,0,0,0,0,0,0,0,0,0,-1,1994,1688,0,0
777,-664,0,0,0,0,0,0,0,0,0,-1,2001,1688,0,0
784,-664,0,0,0,0,0,0,0,0,0,-1,2008,1688,0,0
791,-664,0,0,0,0,0,0,0,0,0,-1,2015,1688,0,0
798,-664,0,0,0,0,0,0,0,0,0,-1,2022,1688,0,0
805,-664,0,0,0,0,0,0,0,0,0,-1,2029,1688,0,0
812,-664,0,0,0,0,0,0,0,0,0,-1,2036,1688,0,0
-700,-671,0,0,0,0,0,0,0,0,0,-1,524,1695,0,0
-693,-671,0,0,0,0,0,0,0,0,0,-1,531,1695,0,0
-686,-671,0,0,0,0,0,0,0,0,0,-1,538,1695,0,0
-679,-671,0,0,0,0,0,0,0,0,0,-1,545,1695,0,0
-672,-671,0,0,0,0,0,0,0,0,0,-1,552,1695,0,0
-665,-671,0,0,0,0,0,0,0,0,0,-1,559,1695,0,0
-658,-671,0,0,0,0,0,0,0,0,0,-1,566,1695,0,0
-651,-671,0,0,0,0,0,0,0,0,0,-1,573,1695,0,0
-644,-671,0,0,0,0,0,0,0,0,0,-1,580,1695,0,0
-637,-671,0,0,0,0,0,0,0,0,0,-1,587,1695,0,0
-630,-671,0,0,0,0,0,0,0,0,0,-1,594,1695,0,0
-623,-671,0,0,0,0,0,0,0,0,0,-1,601,1695,0,0
-616,-671,0,0,0,0,0,0,0,0,0,-1,608,1695,0,0
-609,-671,0,0,0,0,0,0,0,0,0,-1,615,1695,0,0
-602,-671,0,0,0,0,0,0,0,0,0,-1,622,1695,0,0
-595,-671,0,0,0,0,0,0,0,0,0,-1,629,1695,0,0
-588,-671,0,0,0,0,0,0,0,0,0,-1,636,1695,0,0
-581,-671,0,0,0,0,0,0,0,0,0,-1,643,1695,0,0
-574,-671,0,0,0,0,0,0,0,0,0,-1,650,1695,0,0
-567,-671,0,0,0,0,0,0,0,0,0,-1,657,1695,0,0
-560,-671,0,0,0,0,0,0,0,0,0,-1,664,1695,0,0
-553,-671,0,0,0,0,0,0,0,0,0,-1,671,1695,0,0
-546,-671,0,0,0,0,0,0,0,0,0,-1,678,1695,0,0
-539,-671,0,0,0,0,0,0,0,0,0,-1,685,1695,0,0
-532,-671,0,0,0,0,0,0,0,0,0,-1,692,1695,0,0
-525,-671,0,0,0,0,0,0,0,0,0,-1,699,1695,0,0
-518,-671,0,0,0,0,0,0,0,0,0,-1,706,1695,0,0
-511,-671,0,0,0,0,0,0,0,0,0,-1,713,1695,0,0
-504,-671,0,0,0,0,0,0,0,0,0,-1,720,1695,0,0
-497,-671,0,0,0,0,0,0,0,0,0,-1,727,1695,0,0
-490,-671,0,0,0,0,0,0,0,0,0,-1,734,1695,0,0
-483,-671,0,0,0,0,0,0,0,0,0,-1,741,1695,0,0
-476,-671,0,0,0,0,0,0,0,0,0,-1,748,1695,0,0
-469,-671,0,0,0,0,0,0,0,0,0,-1,755,1695,0,0
-462,-671,0,0,0,0,0,0,0,0,0,-1,762,1695,0,0
-455,-671,0,0,0,0,0,0,0,0,0,-1,769,1695,0,0
-448,-671,0,0,0,0,0,0,0,0,0,-1,776,1695,0,0
-441,-671,0,0,0,0,0,0,0,0,0,-1,783,1695,0,0
-434,-671,0,0,0,0,0,0,0,0,0,-1,790,1695,0,0
-427,-671,0,0,0,0,0,0,0,0,0,-1,797,1695,0,0
-420,-671,0,0,0,0,0,0,0,0,0,-1,804,1695,0,0
-413,-671,0,0,0,0,0,0,0,0,0,-1,811,1695,0,0
-406,-671,0,0,0,0,0,0,0,0,0,-1,818,1695,0,0
-399,-671,0,0,0,0,0,0,0,0,0,-1,825,1695,0,0
-392,-671,0,0,0,0,0,0,0,0,0,-1,832,1695,0,0
-385,-671,0,0,0,0,0,0,0,0,0,-1,839,1695,0,0
-378,-671,0,0,0,0,0,0,0,0,0,-1,846,1695,0,0
-371,-671,0,0,0,0,0,0,0,0,0,-1,853,1695,0,0
-364,-671,-4.18738,7.51416,0,0,0,0,0,0,0,-1,860,1695,-4.18739,-7.51419
-357,-671,-5.02393,6.07129,0,0,0,0,0,0,0,-1,867,1695,-5.0239,-6.07135
-350,-671,6.93323,33.8943,0,0,0,0,0,0,0,-1,874,1695,6.93325,-33.8943
-343,-671,6.16626,32.3158,0,0,0,0,0,0,0,-1,881,1695,6.16623,-32.3158
-336,-671,5.67371,33.653,0,0,0,0,0,0,0,-1,888,1695,5.67369,-33.653
-329,-671,6.14716,34.5975,0,0,0,0,0,0,0,-1,895,1695,6.14716,-34.5976
-322,-671,5.93262,37.9797,0,0,0,0,0,0,0,-1,902,1695,5.93262,-37.9797
-315,-671,6.90985,39.7028,0,0,0,0,0,0,0,-1,909,1695,6.90982,-39.7028
-308,-671,7.38599,39.3616,0,0,0,0,0,0,0,-1,916,1695,7.38598,-39.3615
-301,-671,6.94019,40.3413,0,0,0,0,0,0,0,-1,923,1695,6.94016,-40.3414
-294,-671,6.49561,41.3778,-0.010074,-0.0314534,-0.00767806,-0.00760229,-0.0339251,-0.31144,0.0205567,0.0469808,930,1695,6.49563,-41.3778
-287,-671,7.03021,43.1814,-0.0109885,-0.0285347,-0.0062471,-0.00899159,-0.0305316,-0.309392,0.0181169,0.0406343,937,1695,7.03021,-43.1814
-280,-671,6.8075,43.3713,-0.0108299,-0.0249413,-0.00464375,-0.00943885,-0.0263323,-0.291044,0.0154047,0.0326699,944,1695,6.80752,-43.3714
-273,-671,6.55353,43.9244,-0.00992911,-0.0209397,-0.00326344,-0.00903453,-0.0218343,-0.267548,0.0126684,0.0305528,951,1695,6.55354,-43.9244
-266,-671,6.47296,44.5581,-0.00872079,-0.016955,-0.00191642,-0.00829662,-0.0173791,-0.217826,0.0100373,0.02286,958,1695,6.47295,-44.5581
-259,-671,6.42554,45.1287,-0.00710112,-0.013411,-0.000765665,-0.00700954,-0.0135026,-0.119042,0.00779763,0.0217875,965,1695,6.42552,-45.1287
-252,-671,6.37762,45.7484,-0.00542949,-0.0101296,-7.00901e-06,-0.00542948,-0.0101296,-0.00149124,0.00585338,0.0174627,972,1695,6.37764,-45.7484
-245,-671,6.34552,46.318,-0.00394956,-0.00712986,0.000502907,-0.00387193,-0.00720749,0.153155,0.00416509,0.0201743,979,1695,6.34551,-46.318
-238,-671,6.33728,46.8978,-0.00299525,-0.00400156,0.00113087,-0.00226065,-0.00473616,0.576086,0.00273536,0.0222798,986,1695,6.33729,-46.8979
-231,-671,6.32861,47.4757,-0.00186718,-0.00226413,0.00153333,-0.000519533,-0.00361177,0.721036,0.00225471,0.0174491,993,1695,6.32862,-47.4757
-224,-671,6.27222,48.0238,-0.000484696,-0.00102358,0.00167064,0.000938093,-0.00244637,0.705446,0.00201766,0.0127732,1000,1695,6.27221,-48.0238
-217,-671,6.23346,48.5592,0.000241891,-0.000305213,0.00150213,0.00149517,-0.00155849,0.69533,0.00176316,0.011688,1007,1695,6.23346,-48.5592
-210,-671,6.21527,49.1255,0.000426796,-0.000118181,0.00144758,0.00162731,-0.0013187,0.692368,0.00170399,0.0113862,1014,1695,6.21529,-49.1255
-203,-671,6.20508,49.6674,0.000472211,-0.000286874,0.00142917,0.00157138,-0.00138604,0.65561,0.00170859,0.0192898,1021,1695,6.2051,-49.6673
-196,-671,6.17786,50.1804,0.000642356,-0.000597171,0.00145371,0.0016029,-0.00155771,0.583898,0.00182484,0.0170321,1028,1695,6.17784,-50.1805
-189,-671,6.16113,50.7318,0.000873416,-0.000696931,0.00147294,0.00175739,-0.0015809,0.540524,0.00192826,0.0129665,1035,1695,6.16109,-50.7318
-182,-671,6.14514,51.2119,0.00124879,-0.00044116,0.00149657,0.00212245,-0.00131482,0.528403,0.00200268,0.0103144,1042,1695,6.14516,-51.212
-175,-671,6.14355,51.6781,0.00180047,-2.77725e-05,0.00154629,0.00268263,-0.000909938,0.518448,0.0021567,0.0134585,1049,1695,6.14361,-51.6781
-168,-671,6.15088,52.1484,0.00237249,0.000588903,0.00161634,0.00332673,-0.000365335,0.533309,0.00234909,0.0147963,1056,1695,6.15093,-52.1485
-161,-671,6.14392,52.6393,0.0030165,0.00152183,0.0016671,0.00409611,0.000442219,0.574684,0.00259592,0.010054,1063,1695,6.14393,-52.6392
-154,-671,6.16272,53.0946,0.00370011,0.00275649,0.00165676,0.00495093,0.00150567,0.646681,0.00293063,0.00898898,1070,1695,6.16271,-53.0946
-147,-671,6.16882,53.5712,0.00440166,0.00418292,0.00157773,0.00587381,0.00271078,0.750793,0.00339459,0.0106785,1077,1695,6.16884,-53.5711
-140,-671,6.21411,53.9996,0.00505925,0.0055075,0.00138315,0.00668457,0.00388218,0.865719,0.00387609,0.0134886,1084,1695,6.21415,-53.9996
-133,-671,6.22461,54.3835,0.00596746,0.00715957,0.00124103,0.00794027,0.00518677,1.00928,0.00465552,0.0194493,1091,1695,6.22458,-54.3835
-126,-671,6.29492,54.9427,0.00704108,0.00887205,0.00105865,0.00935615,0.00655697,1.1419,0.00554511,0.0348786,1098,1695,6.29492,-54.9427
-119,-671,6.3894,55.6521,0,0,0,0,0,0,0,-1,1105,1695,6.38945,-55.6521
-112,-671,6.58704,44.6255,0,0,0,0,0,0,0,-1,1112,1695,6.58701,-44.6255
-105,-671,7.33252,41.3418,0,0,0,0,0,0,0,-1,1119,1695,7.33247,-41.3418
-98,-671,6.34534,45.6299,0,0,0,0,0,0,0,-1,1126,1695,6.34533,-45.6299
-91,-671,6.40063,38.2443,0,0,0,0,0,0,0,-1,1133,1695,6.40059,-38.2442
-84,-671,5.4209,26.2415,0,0,0,0,0,0,0,-1,1140,1695,5.42096,-26.2414
-77,-671,4.31763,16.489,0,0,0,0,0,0,0,-1,1147,1695,4.31757,-16.489
-70,-671,3.06067,10.7737,0,0,0,0,0,0,0,-1,1154,1695,3.0607,-10.7737
-63,-671,2.94592,6.90198,0,0,0,0,0,0,0,-1,1161,1695,2.94594,-6.90198
-56,-671,-3.07678,2.87976,0,0,0,0,0,0,0,-1,1168,1695,-3.07675,-2.87979
-49,-671,-1.05957,4.76917,0,0,0,0,0,0,0,-1,1175,1695,-1.05958,-4.76921
-42,-671,0.539307,3.7865,0,0,0,0,0,0,0,-1,1182,1695,0.539266,-3.78648
-35,-671,-0.272461,0.347534,0,0,0,0,0,0,0,-1,1189,1695,-0.272434,-0.347569
-28,-671,-10.4878,17.2009,0,0,0,0,0,0,0,-1,1196,1695,-10.4878,-17.2009
-21,-671,7.74463,56.662,0,0,0,0,0,0,0,-1,1203,1695,7.74468,-56.662
-14,-671,7.53784,59.1796,0,0,0,0,0,0,0,-1,1210,1695,7.53789,-59.1795
-7,-671,7.3125,59.5249,0,0,0,0,0,0,0,-1,1217,1695,7.31254,-59.5248
0,-671,7.49451,59.6796,0,0,0,0,0,0,0,-1,1224,1695,7.49448,-59.6796
7,-671,6.40247,60.646,0.00268926,0.0619161,0.0169135,0.0664058,-0.00180043,1.31133,0.0448827,0.0445598,1231,1695,6.40247,-60.6459
14,-671,6.59265,60.5668,0.00263412,0.0611287,0.0146015,0.064571,-0.00080815,1.33928,0.0433192,0.0431479,1238,1695,6.59262,-60.5668
21,-671,6.44397,59.9529,0,0,0,0,0,0,0,-1,1245,1695,6.44399,-59.9529
28,-671,9.40063,62.6592,0.00327796,0.0519305,0.00850866,0.0533756,0.00183283,1.40256,0.0349888,0.0471659,1252,1695,9.40066,-62.6592
35,-671,8.63843,62.3188,0.00408804,0.0439647,0.00467842,0.0445062,0.00354651,1.45556,0.0285621,0.0477455,1259,1695,8.63842,-62.3189
42,-671,7.99451,62.1923,0.00483163,0.0358481,0.00150023,0.0359204,0.00475923,1.52258,0.0225287,0.0472054,1266,1695,7.99447,-62.1923
49,-671,7.93152,62.3702,0.00511074,0.0271458,-0.00176938,0.027287,0.00496957,-1.49118,0.0167819,0.0437185,1273,1695,7.93148,-62.3703
56,-671,8.28308,60.5594,0.0043901,0.0184654,-0.0049455,0.0200293,0.00282621,-1.26452,0.0125176,0.0451779,1280,1695,8.28307,-60.5595
63,-671,11.1005,59.8021,0,0,0,0,0,0,0,-1,1287,1695,11.1005,-59.8021
70,-671,10.6813,59.9354,0.00479376,0.00273282,-0.00888583,0.0127087,-0.00518209,-0.727672,0.0106296,0.0493356,1294,1695,10.6813,-59.9354
77,-671,10.287,60.0996,0.00375959,-0.0044406,-0.0107355,0.0111513,-0.0118323,-0.602987,0.0132715,0.0452746,1301,1695,10.2869,-60.0996
84,-671,9.74548,60.3655,0.00246348,-0.0120902,-0.0123622,0.00953157,-0.0191583,-0.519387,0.0168721,0.0467487,1308,1695,9.74543,-60.3654
91,-671,9.50427,59.9409,0.000519259,-0.0180945,-0.0136454,0.00772948,-0.0253047,-0.486109,0.0199518,0.0457538,1315,1695,9.50432,-59.9409
98,-671,9.14392,59.4031,-0.00277394,-0.0236349,-0.0134687,0.00383085,-0.0302397,-0.455923,0.0215505,0.0453572,1322,1695,9.1439,-59.403
105,-671,9.3479,59.2961,-0.00753092,-0.0261084,-0.0129461,-0.000885999,-0.0327533,-0.474213,0.0215463,0.0474262,1329,1695,9.34793,-59.2962
112,-671,9.68591,59.3058,-0.0128339,-0.0301012,-0.0134326,-0.0054996,-0.0374355,-0.49977,0.0233408,0.0439102,1336,1695,9.68588,-59.3058
119,-671,10.0111,59.3649,-0.01771,-0.0346789,-0.0146276,-0.0092844,-0.0431046,-0.522594,0.0261959,0.0481639,1343,1695,10.0111,-59.3649
126,-671,10.4613,59.3105,0,0,0,0,0,0,0,-1,1350,1695,10.4613,-59.3105
133,-671,11.0361,59.5408,0,0,0,0,0,0,0,-1,1357,1695,11.0361,-59.5408
140,-671,11.2522,59.395,0,0,0,0,0,0,0,-1,1364,1695,11.2522,-59.395
147,-671,11.1302,56.554,0,0,0,0,0,0,0,-1,1371,1695,11.1303,-56.5539
154,-671,11.5029,55.7073,0,0,0,0,0,0,0,-1,1378,1695,11.503,-55.7072
161,-671,4.49292,4.91272,0,0,0,0,0,0,0,-1,1385,1695,4.49297,-4.91273
168,-671,5.17639,6.1416,0,0,0,0,0,0,0,-1,1392,1695,5.1764,-6.14164
175,-671,5.6731,1.64685,0,0,0,0,0,0,0,-1,1399,1695,5.67313,-1.64691
182,-671,5.56812,1.71692,0,0,0,0,0,0,0,-1,1406,1695,5.56809,-1.71686
189,-671,6.98315,6.36169,0,0,0,0,0,0,0,-1,1413,1695,6.98312,-6.36175
196,-671,5.38123,5.69775,0,0,0,0,0,0,0,-1,1420,1695,5.38125,-5.69769
203,-671,5.95117,8.11658,0,0,0,0,0,0,0,-1,1427,1695,5.9512,-8.11662
210,-671,4.73596,8.39624,0,0,0,0,0,0,0,-1,1434,1695,4.736,-8.39618
217,-671,5.37097,11.863,0,0,0,0,0,0,0,-1,1441,1695,5.37094,-11.863
224,-671,5.08167,13.6694,0,0,0,0,0,0,0,-1,1448,1695,5.08165,-13.6695
231,-671,5.66663,15.3348,0,0,0,0,0,0,0,-1,1455,1695,5.66667,-15.3349
238,-671,6.32959,16.2036,0,0,0,0,0,0,0,-1,1462,1695,6.32961,-16.2037
245,-671,11.7333,55.4242,0,0,0,0,0,0,0,-1,1469,1695,11.7333,-55.4242
252,-671,11.8489,54.7917,0,0,0,0,0,0,0,-1,1476,1695,11.8489,-54.7918
259,-671,11.8701,54.4449,0,0,0,0,0,0,0,-1,1483,1695,11.8702,-54.4449
266,-671,11.8881,53.8881,0.00779824,0.00315217,-0.0017319,0.00837279,0.00257763,-0.320319,0.00495158,0.0360063,1490,1695,11.888,-53.8881
273,-671,11.9825,53.4979,0.00744055,0.00316402,-0.00174383,0.00806147,0.0025431,-0.342071,0.00475878,0.0110602,1497,1695,11.9825,-53.498
280,-671,11.9949,53.0665,0.00694935,0.00336718,-0.00176191,0.0076707,0.00264583,-0.388594,0.00449912,0.00975649,1504,1695,11.9949,-53.0665
287,-671,11.9824,52.5406,0.00638061,0.00349985,-0.00173277,0.00719349,0.00268697,-0.438643,0.00419722,0.0126729,1511,1695,11.9825,-52.5407
294,-671,11.9832,52.071,0.00574306,0.00350201,-0.00169439,0.00665393,0.00259115,-0.493254,0.00387284,0.0129264,1518,1695,11.9832,-52.0711
301,-671,12.0001,51.6547,0.00498361,0.00351954,-0.00158453,0.00599703,0.00250612,-0.569008,0.00347791,0.0112202,1525,1695,12.0002,-51.6547
308,-671,12.0063,51.1952,0.00418149,0.00374504,-0.00160237,0.00558043,0.0023461,-0.717719,0.00323544,0.0117812,1532,1695,12.0064,-51.1952
315,-671,12.0264,50.7112,0.00336708,0.00389186,-0.00159433,0.00524525,0.00201369,-0.866957,0.00305544,0.0128825,1539,1695,12.0263,-50.7112
322,-671,12.038,50.2355,0.00257474,0.00407706,-0.00161634,0.00510825,0.00154355,-1.00292,0.00302522,0.0150713,1546,1695,12.038,-50.2355
329,-671,12.0227,49.7423,0.0018665,0.00413213,-0.00169891,0.00504126,0.000957367,-1.07944,0.00309153,0.015043,1553,1695,12.0228,-49.7423
336,-671,12.0137,49.1809,0.00130903,0.00409689,-0.00172245,0.00491878,0.000487133,-1.12558,0.00312948,0.0114498,1560,1695,12.0137,-49.1809
343,-671,12.0331,48.6125,0.000917302,0.00393308,-0.00181609,0.00478568,6.47015e-05,-1.13187,0.00316911,0.0123749,1567,1695,12.0331,-48.6126
350,-671,12.002,48.1337,0.000677437,0.00349138,-0.00198774,0.00451971,-0.000350892,-1.09338,0.00313665,0.0129506,1574,1695,12.0019,-48.1336
357,-671,11.9652,47.5479,0.000644541,0.00284183,-0.00216407,0.00417016,-0.000683788,-1.02028,0.00303383,0.0115207,1581,1695,11.9652,-47.5479
364,-671,11.9298,46.9922,0.000925842,0.00198134,-0.00244192,0.00395189,-0.0010447,-0.891822,0.0030432,0.0133764,1588,1695,11.9298,-46.9922
371,-671,11.9037,46.4752,0.00118421,0.00109291,-0.00270217,0.00384111,-0.00156399,-0.776952,0.00321162,0.015074,1595,1695,11.9037,-46.4752
378,-671,11.8615,45.9247,0.00162078,-4.53722e-05,-0.00297664,0.00387872,-0.00230331,-0.648953,0.00360763,0.0122174,1602,1695,11.8614,-45.9247
385,-671,11.806,45.3317,0.00238715,-0.000783629,-0.00354043,0.00468095,-0.00307743,-0.574889,0.00451108,0.0132522,1609,1695,11.8061,-45.3317
392,-671,11.7679,44.8062,0.00308928,-0.00176645,-0.00408356,0.0054122,-0.00408938,-0.517198,0.00550343,0.0179711,1616,1695,11.7679,-44.8062
399,-671,11.7506,44.2423,0.00382922,-0.0027001,-0.00469115,0.00627988,-0.00515076,-0.481407,0.0066102,0.01447,1623,1695,11.7506,-44.2423
406,-671,11.7659,43.6417,0.00461621,-0.00287846,-0.0053171,0.0073738,-0.00563605,-0.478438,0.00753354,0.0205979,1630,1695,11.7658,-43.6417
413,-671,11.7616,43.1481,0.00558252,-0.00283951,-0.00615133,0.00882614,-0.00608313,-0.485251,0.00865629,0.0335664,1637,1695,11.7616,-43.148
420,-671,11.7781,42.4451,0,0,0,0,0,0,0,-1,1644,1695,11.7781,-42.445
427,-671,11.2493,42.0903,0,0,0,0,0,0,0,-1,1651,1695,11.2493,-42.0903
434,-671,11.637,40.7195,0,0,0,0,0,0,0,-1,1658,1695,11.637,-40.7194
441,-671,11.8904,39.6104,0,0,0,0,0,0,0,-1,1665,1695,11.8904,-39.6103
448,-671,11.6979,39.1995,0,0,0,0,0,0,0,-1,1672,1695,11.6979,-39.1994
455,-671,11.5221,39.0929,0,0,0,0,0,0,0,-1,1679,1695,11.5221,-39.0929
462,-671,5.86255,4.47961,0,0,0,0,0,0,0,-1,1686,1695,5.8625,-4.4796
469,-671,3.71301,3.76978,0,0,0,0,0,0,0,-1,1693,1695,3.71297,-3.76974
476,-671,3.75574,3.18848,0,0,0,0,0,0,0,-1,1700,1695,3.7558,-3.18847
483,-671,7.81824,12.1041,0,0,0,0,0,0,0,-1,1707,1695,7.81826,-12.1041
490,-671,0,0,0,0,0,0,0,0,0,-1,1714,1695,0,0
497,-671,0,0,0,0,0,0,0,0,0,-1,1721,1695,0,0
504,-671,0,0,0,0,0,0,0,0,0,-1,1728,1695,0,0
511,-671,0,0,0,0,0,0,0,0,0,-1,1735,1695,0,0
518,-671,0,0,0,0,0,0,0,0,0,-1,1742,1695,0,0
525,-671,0,0,0,0,0,0,0,0,0,-1,1749,1695,0,0
532,-671,0,0,0,0,0,0,0,0,0,-1,1756,1695,0,0
539,-671,0,0,0,0,0,0,0,0,0,-1,1763,1695,0,0
546,-671,0,0,0,0,0,0,0,0,0,-1,1770,1695,0,0
553,-671,0,0,0,0,0,0,0,0,0,-1,1777,1695,0,0
560,-671,0,0,0,0,0,0,0,0,0,-1,1784,1695,0,0
567,-671,0,0,0,0,0,0,0,0,0,-1,1791,1695,0,0
574,-671,0,0,0,0,0,0,0,0,0,-1,1798,1695,0,0
581,-671,0,0,0,0,0,0,0,0,0,-1,1805,1695,0,0
588,-671,0,0,0,0,0,0,0,0,0,-1,1812,1695,0,0
595,-671,0,0,0,0,0,0,0,0,0,-1,1819,1695,0,0
602,-671,0,0,0,0,0,0,0,0,0,-1,1826,1695,0,0
609,-671,0,0,0,0,0,0,0,0,0,-1,1833,1695,0,0
616,-671,0,0,0,0,0,0,0,0,0,-1,1840,1695,0,0
623,-671,0,0,0,0,0,0,0,0,0,-1,1847,1695,0,0
630,-671,0,0,0,0,0,0,0,0,0,-1,1854,1695,0,0
637,-671,0,0,0,0,0,0,0,0,0,-1,1861,1695,0,0
644,-671,0,0,0,0,0,0,0,0,0,-1,1868,1695,0,0
651,-671,0,0,0,0,0,0,0,0,0,-1,1875,1695,0,0
658,-671,0,0,0,0,0,0,0,0,0,-1,1882,1695,0,0
665,-671,0,0,0,0,0,0,0,0,0,-1,1889,1695,0,0
672,-671,0,0,0,0,0,0,0,0,0,-1,1896,1695,0,0
679,-671,0,0,0,0,0,0,0,0,0,-1,1903,1695,0,0
686,-671,0,0,0,0,0,0,0,0,0,-1,1910,1695,0,0
693,-671,0,0,0,0,0,0,0,0,0,-1,1917,1695,0,0
700,-671,0,0,0,0,0,0,0,0,0,-1,1924,1695,0,0
707,-671,0,0,0,0,0,0,0,0,0,-1,1931,1695,0,0
714,-671,0,0,0,0,0,0,0,0,0,-1,1938,1695,0,0
721,-671,0,0,0,0,0,0,0,0,0,-1,1945,1695,0,0
728,-671,0,0,0,0,0,0,0,0,0,-1,1952,1695,0,0
735,-671,0,0,0,0,0,0,0,0,0,-1,1959,1695,0,0
742,-671,0,0,0,0,0,0,0,0,0,-1,1966,1695,0,0
749,-671,0,0,0,0,0,0,0,0,0,-1,1973,1695,0,0
756,-671,0,0,0,0,0,0,0,0,0,-1,1980,1695,0,0
763,-671,0,0,0,0,0,0,0,0,0,-1,1987,1695,0,0
770,-671,0,0,0,0,0,0,0,0,0,-1,1994,1695,0,0
777,-671,0,0,0,0,0,0,0,0,0,-1,2001,1695,0,0
784,-671,0,0,0,0,0,0,0,0,0,-1,2008,1695,0,0
791,-671,0,0,0,0,0,0,0,0,0,-1,2015,1695,0,0
798,-671,0,0,0,0,0,0,0,0,0,-1,2022,1695,0,0
805,-671,0,0,0,0,0,0,0,0,0,-1,2029,1695,0,0
812,-671,0,0,0,0,0,0,0,0,0,-1,2036,1695,0,0
-700,-678,0,0,0,0,0,0,0,0,0,-1,524,1702,0,0
-693,-678,0,0,0,0,0,0,0,0,0,-1,531,1702,0,0
-686,-678,0,0,0,0,0,0,0,0,0,-1,538,1702,0,0
-679,-678,0,0,0,0,0,0,0,0,0,-1,545,1702,0,0
-672,-678,0,0,0,0,0,0,0,0,0,-1,552,1702,0,0
-665,-678,0,0,0,0,0,0,0,0,0,-1,559,1702,0,0
-658,-678,0,0,0,0,0,0,0,0,0,-1,566,1702,0,0
-651,-678,0,0,0,0,0,0,0,0,0,-1,573,1702,0,0
-644,-678,0,0,0,0,0,0,0,0,0,-1,580,1702,0,0
-637,-678,0,0,0,0,0,0,0,0,0,-1,587,1702,0,0
-630,-678,0,0,0,0,0,0,0,0,0,-1,594,1702,0,0
-623,-678,0,0,0,0,0,0,0,0,0,-1,601,1702,0,0
-616,-678,0,0,0,0,0,0,0,0,0,-1,608,1702,0,0
-609,-678,0,0,0,0,0,0,0,0,0,-1,615,1702,0,0
-602,-678,0,0,0,0,0,0,0,0,0,-1,622,1702,0,0
-595,-678,0,0,0,0,0,0,0,0,0,-1,629,1702,0,0
-588,-678,0,0,0,0,0,0,0,0,0,-1,636,1702,0,0
-581,-678,0,0,0,0,0,0,0,0,0,-1,643,1702,0,0
-574,-678,0,0,0,0,0,0,0,0,0,-1,650,1702,0,0
-567,-678,0,0,0,0,0,0,0,0,0,-1,657,1702,0,0
-560,-678,0,0,0,0,0,0,0,0,0,-1,664,1702,0,0
-553,-678,0,0,0,0,0,0,0,0,0,-1,671,1702,0,0
-546,-678,0,0,0,0,0,0,0,0,0,-1,678,1702,0,0
-539,-678,0,0,0,0,0,0,0,0,0,-1,685,1702,0,0
-532,-678,0,0,0,0,0,0,0,0,0,-1,692,1702,0,0
-525,-678,0,0,0,0,0,0,0,0,0,-1,699,1702,0,0
-518,-678,0,0,0,0,0,0,0,0,0,-1,706,1702,0,0
-511,-678,0,0,0,0,0,0,0,0,0,-1,713,1702,0,0
-504,-678,0,0,0,0,0,0,0,0,0,-1,720,1702,0,0
-497,-678,0,0,0,0,0,0,0,0,0,-1,727,1702,0,0
-490,-678,0,0,0,0,0,0,0,0,0,-1,734,1702,0,0
-483,-678,0,0,0,0,0,0,0,0,0,-1,741,1702,0,0
-476,-678,0,0,0,0,0,0,0,0,0,-1,748,1702,0,0
-469,-678,0,0,0,0,0,0,0,0,0,-1,755,1702,0,0
-462,-678,0,0,0,0,0,0,0,0,0,-1,762,1702,0,0
-455,-678,0,0,0,0,0,0,0,0,0,-1,769,1702,0,0
-448,-678,0,0,0,0,0,0,0,0,0,-1,776,1702,0,0
-441,-678,0,0,0,0,0,0,0,0,0,-1,783,1702,0,0
-434,-678,0,0,0,0,0,0,0,0,0,-1,790,1702,0,0
-427,-678,0,0,0,0,0,0,0,0,0,-1,797,1702,0,0
-420,-678,0,0,0,0,0,0,0,0,0,-1,804,1702,0,0
-413,-678,0,0,0,0,0,0,0,0,0,-1,811,1702,0,0
-406,-678,0,0,0,0,0,0,0,0,0,-1,818,1702,0,0
-399,-678,0,0,0,0,0,0,0,0,0,-1,825,1702,0,0
-392,-678,0,0,0,0,0,0,0,0,0,-1,832,1702,0,0
-385,-678,0,0,0,0,0,0,0,0,0,-1,839,1702,0,0
-378,-678,0,0,0,0,0,0,0,0,0,-1,846,1702,0,0
-371,-678,0,0,0,0,0,0,0,0,0,-1,853,1702,0,0
-364,-678,0,0,0,0,0,0,0,0,0,-1,860,1702,0,0
-357,-678,0,0,0,0,0,0,0,0,0,-1,867,1702,0,0
-350,-678,-5.79944,6.11865,0,0,0,0,0,0,0,-1,874,1702,-5.79942,-6.11864
-343,-678,8.79578,34.4388,0,0,0,0,0,0,0,-1,881,1702,8.79579,-34.4388
-336,-678,9.06317,34.813,0,0,0,0,0,0,0,-1,888,1702,9.06318,-34.8129
-329,-678,8.68359,35.6151,0,0,0,0,0,0,0,-1,895,1702,8.68362,-35.6152
-322,-678,8.50494,35.5048,0,0,0,0,0,0,0,-1,902,1702,8.50495,-35.5047
-315,-678,7.95453,39.342,0,0,0,0,0,0,0,-1,909,1702,7.95455,-39.342
-308,-678,7.5271,39.0367,0,0,0,0,0,0,0,-1,916,1702,7.52708,-39.0367
-301,-678,7.09558,40.002,0,0,0,0,0,0,0,-1,923,1702,7.09555,-40.002
-294,-678,8.21301,43.4984,-0.0162241,-0.0455651,-0.0116789,-0.0121431,-0.0496462,-0.336173,0.0298838,0.0488964,930,1702,8.21304,-43.4984
-287,-678,7.97198,43.5037,-0.0169469,-0.0406665,-0.00922787,-0.0137797,-0.0438336,-0.330615,0.0258822,0.0453158,937,1702,7.972,-43.5037
-280,-678,7.79144,43.5623,-0.0160304,-0.0349715,-0.00655131,-0.0139853,-0.0370166,-0.302586,0.0215832,0.0426346,944,1702,7.79147,-43.5622
-273,-678,7.50067,44.2416,-0.0142172,-0.0289108,-0.00445291,-0.0129731,-0.030155,-0.272447,0.0174664,0.0407374,951,1702,7.50069,-44.2416
-266,-678,6.91327,44.7434,-0.0121626,-0.0230038,-0.00255747,-0.0115896,-0.0235768,-0.220419,0.0136127,0.0346914,958,1702,6.9133,-44.7434
-259,-678,6.88055,45.2289,-0.00979293,-0.0179297,-0.000992463,-0.00967362,-0.018049,-0.119636,0.0104296,0.022763,965,1702,6.88058,-45.2289
-252,-678,6.93884,45.7797,-0.00749866,-0.0134451,3.87151e-05,-0.0074984,-0.0134454,0.00651024,0.00777989,0.0182702,972,1702,6.93886,-45.7797
-245,-678,6.93164,46.351,-0.00554292,-0.00946216,0.000704224,-0.00542022,-0.00958485,0.172498,0.00554962,0.0185547,979,1702,6.93167,-46.351
-238,-678,6.89801,46.924,-0.00423891,-0.00527876,0.00151837,-0.00315392,-0.00636375,0.620444,0.00367416,0.0158816,986,1702,6.89803,-46.924
-231,-678,6.84235,47.4882,-0.00269644,-0.00293117,0.00200726,-0.000803116,-0.0048245,0.756196,0.00298486,0.0137631,993,1702,6.84235,-47.4882
-224,-678,6.78406,48.0127,-0.000895843,-0.00120229,0.00212873,0.00108517,-0.0031833,0.749471,0.00256172,0.0133872,1000,1702,6.78406,-48.0127
-217,-678,6.75897,48.5651,8.29313e-06,-5.29583e-05,0.00185062,0.00182854,-0.0018732,0.777124,0.00213725,0.0136423,1007,1702,6.75898,-48.5651
-210,-678,6.74536,49.1549,0.00024376,0.000430351,0.00175686,0.00209639,-0.00142228,0.811925,0.0020439,0.0140486,1014,1702,6.74536,-49.1549
-203,-678,6.74158,49.6858,0.0002877,0.000490254,0.00169428,0.00208628,-0.00130833,0.815251,0.00197696,0.0188818,1021,1702,6.74152,-49.6857
-196,-678,6.7041,50.2012,0.000430076,0.000338616,0.00162251,0.0020075,-0.0012388,0.771309,0.00189169,0.0188254,1028,1702,6.70408,-50.2011
-189,-678,6.6637,50.7415,0.000655098,0.000333674,0.0015669,0.00206951,-0.00108073,0.734293,0.00184841,0.0110967,1035,1702,6.66375,-50.7415
-182,-678,6.64429,51.2397,0.0010044,0.000584795,0.00152134,0.00233034,-0.000741141,0.716877,0.00185075,0.0103176,1042,1702,6.64425,-51.2398
-175,-678,6.63,51.7229,0.00146518,0.000945848,0.00147914,0.00270728,-0.000296244,0.698507,0.00191127,0.0117504,1049,1702,6.63003,-51.7229
-168,-678,6.62903,52.2018,0.00192511,0.00137475,0.00148705,0.00316223,0.000137636,0.693907,0.00206381,0.0112922,1056,1702,6.62898,-52.2018
-161,-678,6.63074,52.6624,0.00240906,0.00199056,0.00145473,0.00366951,0.000730105,0.713968,0.00224294,0.0092039,1063,1702,6.6307,-52.6624
-154,-678,6.62537,53.1317,0.00292372,0.00283282,0.00136274,0.00424177,0.00151477,0.768729,0.0024821,0.00875114,1070,1702,6.62535,-53.1318
-147,-678,6.60767,53.5979,0.00347133,0.00375921,0.00122394,0.00484765,0.00238289,0.84393,0.00279893,0.0113434,1077,1702,6.60761,-53.5979
-140,-678,6.65991,54.0275,0.00401622,0.00452547,0.000992113,0.00529511,0.00324658,0.911013,0.00308311,0.0122572,1084,1702,6.65994,-54.0275
-133,-678,6.70068,54.4374,0.00467288,0.00534787,0.000793206,0.00587239,0.00414835,0.986539,0.0034854,0.0131377,1091,1702,6.70074,-54.4374
-126,-678,6.69922,54.8892,0.00542754,0.006008,0.000623811,0.00640579,0.00502975,1.00313,0.00389376,0.0168809,1098,1702,6.69925,-54.8891
-119,-678,6.69885,55.5067,0,0,0,0,0,0,0,-1,1105,1702,6.69888,-55.5067
-112,-678,6.78711,55.6166,0,0,0,0,0,0,0,-1,1112,1702,6.78708,-55.6166
-105,-678,6.75122,56.0815,0,0,0,0,0,0,0,-1,1119,1702,6.75127,-56.0816
-98,-678,6.77966,56.5826,0,0,0,0,0,0,0,-1,1126,1702,6.77962,-56.5827
-91,-678,6.90271,56.7628,0,0,0,0,0,0,0,-1,1133,1702,6.90271,-56.7628
-84,-678,6.58545,36.5073,0,0,0,0,0,0,0,-1,1140,1702,6.58544,-36.5073
-77,-678,5.95154,29.1879,0,0,0,0,0,0,0,-1,1147,1702,5.95156,-29.1878
-70,-678,4.75891,19.6552,0,0,0,0,0,0,0,-1,1154,1702,4.75895,-19.6551
-63,-678,3.41687,11.0365,0,0,0,0,0,0,0,-1,1161,1702,3.41682,-11.0365
-56,-678,1.72388,6.13159,0,0,0,0,0,0,0,-1,1168,1702,1.72388,-6.13157
-49,-678,-0.241699,5.29895,0,0,0,0,0,0,0,-1,1175,1702,-0.241682,-5.29897
-42,-678,0.297119,3.90649,0,0,0,0,0,0,0,-1,1182,1702,0.297139,-3.90655
-35,-678,0.498413,3.64038,0,0,0,0,0,0,0,-1,1189,1702,0.498471,-3.64038
-28,-678,0.132446,3.55994,0,0,0,0,0,0,0,-1,1196,1702,0.132432,-3.55993
-21,-678,7.66516,59.1511,0,0,0,0,0,0,0,-1,1203,1702,7.66521,-59.1511
-14,-678,7.85229,59.2435,0.00151531,0.0481032,0.0157582,0.0529327,-0.00331418,1.27341,0.0364435,0.0443613,1210,1702,7.85231,-59.2435
-7,-678,7.74023,59.41,0.00185573,0.0500468,0.014949,0.0543074,-0.00240484,1.29315,0.0370326,0.0459499,1217,1702,7.74022,-59.41
0,-678,7.65833,59.5151,0,0,0,0,0,0,0,-1,1224,1702,7.65833,-59.5151
7,-678,7.34314,59.9839,0.00247689,0.0495818,0.0123352,0.0526164,-0.000557786,1.32957,0.035265,0.0421751,1231,1702,7.34316,-59.9839
14,-678,7.57129,60.2875,0.00221451,0.0492254,0.0108835,0.0516228,-0.000182863,1.35398,0.0344763,0.0446004,1238,1702,7.57124,-60.2875
21,-678,8.85767,61.1584,0,0,0,0,0,0,0,-1,1245,1702,8.85772,-61.1585
28,-678,8.3739,61.4164,0.00226032,0.0419973,0.00680185,0.0431293,0.00112828,1.40588,0.0283843,0.0484357,1252,1702,8.37395,-61.4164
35,-678,7.90625,61.6584,0.00274554,0.0354992,0.00385434,0.0359467,0.00229808,1.45522,0.0232363,0.0465191,1259,1702,7.90626,-61.6585
42,-678,7.54504,61.8365,0.00321824,0.0286791,0.0011914,0.0287347,0.00316262,1.52414,0.0181941,0.0489039,1266,1702,7.545,-61.8366
49,-678,7.11206,61.8834,0,0,0,0,0,0,0,-1,1273,1702,7.11209,-61.8835
56,-678,7.84045,60.1375,0,0,0,0,0,0,0,-1,1280,1702,7.8405,-60.1374
63,-678,7.69043,58.9419,0,0,0,0,0,0,0,-1,1287,1702,7.69043,-58.9418
70,-678,10.6364,60.2188,0,0,0,0,0,0,0,-1,1294,1702,10.6363,-60.2187
77,-678,10.108,61.8717,0,0,0,0,0,0,0,-1,1301,1702,10.108,-61.8717
84,-678,9.80054,61.0447,0.00289542,-0.0115896,-0.0107292,0.00859776,-0.0172919,-0.488513,0.0152257,0.0478205,1308,1702,9.80051,-61.0447
91,-678,9.62268,60.266,0.00203974,-0.0163881,-0.0117634,0.00776818,-0.0221165,-0.453171,0.0179046,0.0438501,1315,1702,9.62262,-60.266
98,-678,9.47607,59.5299,9.34853e-05,-0.0206583,-0.011573,0.0052609,-0.0258257,-0.419943,0.0192124,0.0412077,1322,1702,9.47607,-59.5299
105,-678,9.24316,58.8887,-0.0030758,-0.0223014,-0.0108453,0.00180366,-0.0271808,-0.422784,0.0187507,0.0419313,1329,1702,9.24316,-58.8886
112,-678,9.66589,59.7322,-0.0068529,-0.0251337,-0.0107679,-0.00186908,-0.0301175,-0.433483,0.0194852,0.0418626,1336,1702,9.66584,-59.7322
119,-678,10.1169,59.3479,-0.0104096,-0.0283745,-0.0114018,-0.00487705,-0.0339071,-0.451766,0.0211671,0.0431144,1343,1702,10.1169,-59.3478
126,-678,10.6003,59.2305,0,0,0,0,0,0,0,-1,1350,1702,10.6004,-59.2304
133,-678,11.1191,59.1493,0,0,0,0,0,0,0,-1,1357,1702,11.1191,-59.1493
140,-678,11.5747,59.0271,0,0,0,0,0,0,0,-1,1364,1702,11.5747,-59.0271
147,-678,10.6184,56.8413,0,0,0,0,0,0,0,-1,1371,1702,10.6184,-56.8413
154,-678,10.3881,54.8787,0,0,0,0,0,0,0,-1,1378,1702,10.3881,-54.8787
161,-678,8.81226,34.8624,0,0,0,0,0,0,0,-1,1385,1702,8.81229,-34.8624
168,-678,4.21863,5.25781,0,0,0,0,0,0,0,-1,1392,1702,4.21865,-5.25781
175,-678,5.21899,5.9635,0,0,0,0,0,0,0,-1,1399,1702,5.21894,-5.96346
182,-678,7.31262,6.75122,0,0,0,0,0,0,0,-1,1406,1702,7.3126,-6.75123
189,-678,5.96021,6.36853,0,0,0,0,0,0,0,-1,1413,1702,5.96018,-6.36851
196,-678,5.01599,8.15771,0,0,0,0,0,0,0,-1,1420,1702,5.01596,-8.15767
203,-678,4.64771,13.0559,0,0,0,0,0,0,0,-1,1427,1702,4.64766,-13.0559
210,-678,5.6532,18.5957,0,0,0,0,0,0,0,-1,1434,1702,5.65318,-18.5958
217,-678,6.88049,23.4835,0,0,0,0,0,0,0,-1,1441,1702,6.88047,-23.4835
224,-678,8.521,32.0977,0,0,0,0,0,0,0,-1,1448,1702,8.52098,-32.0977
231,-678,9.96838,42.3734,0,0,0,0,0,0,0,-1,1455,1702,9.96844,-42.3734
238,-678,11.2803,55.8168,0,0,0,0,0,0,0,-1,1462,1702,11.2803,-55.8167
245,-678,11.4135,55.2927,0.006967,0.000692793,-0.000609137,0.00702559,0.000634202,-0.0958926,0.00448729,0.0416218,1469,1702,11.4134,-55.2927
252,-678,11.4723,54.7903,0.00677759,0.0017498,-0.000857655,0.00691987,0.00160753,-0.164392,0.0041817,0.0200306,1476,1702,11.4723,-54.7903
259,-678,11.4772,54.4095,0.00621073,0.00194081,-0.00105318,0.00645637,0.00169517,-0.229138,0.00386515,0.0161337,1483,1702,11.4772,-54.4095
266,-678,11.5226,53.9639,0.00566053,0.00213199,-0.00127037,0.00607031,0.00172221,-0.31203,0.00361235,0.0126344,1490,1702,11.5226,-53.9639
273,-678,11.5479,53.5378,0.00531914,0.00224075,-0.00134519,0.00582413,0.00173577,-0.35912,0.00345279,0.0112623,1497,1702,11.5479,-53.5379
280,-678,11.5433,53.1039,0.00486759,0.00243228,-0.00140389,0.00550832,0.00179155,-0.42816,0.00324433,0.0116841,1504,1702,11.5433,-53.1038
287,-678,11.5585,52.6139,0.00434465,0.00258834,-0.00140857,0.00512638,0.00180661,-0.506662,0.00300239,0.0123376,1511,1702,11.5585,-52.6139
294,-678,11.5524,52.1302,0.00377026,0.00270958,-0.0013941,0.00473149,0.00174835,-0.603641,0.00276256,0.0134052,1518,1702,11.5523,-52.1302
301,-678,11.5305,51.6818,0.00311192,0.00280192,-0.00137631,0.00434194,0.00157191,-0.729324,0.00253843,0.0122702,1525,1702,11.5305,-51.6818
308,-678,11.5226,51.2134,0.00243242,0.00313276,-0.00147053,0.00429423,0.00127094,-0.902284,0.00254715,0.0131775,1532,1702,11.5225,-51.2134
315,-678,11.5057,50.7188,0.00174067,0.00339096,-0.00149912,0.00427702,0.000854608,-1.03698,0.00261348,0.0142556,1539,1702,11.5057,-50.7188
322,-678,11.5005,50.2516,0.0010938,0.00372755,-0.00159092,0.00447591,0.000345441,-1.13111,0.00287572,0.0178353,1546,1702,11.5005,-50.2516
329,-678,11.4851,49.7384,0.000521723,0.00397153,-0.0017655,0.00471488,-0.000221628,-1.17228,0.00321967,0.0165807,1553,1702,11.4851,-49.7384
336,-678,11.4703,49.1904,9.64341e-05,0.00412981,-0.00187879,0.00486937,-0.000643123,-1.19579,0.00348048,0.0133161,1560,1702,11.4704,-49.1904
343,-678,11.4747,48.6639,-0.00011306,0.00412438,-0.00207139,0.00496871,-0.000957387,-1.18374,0.00367343,0.0147585,1567,1702,11.4748,-48.6639
350,-678,11.4781,48.1528,-0.000132359,0.00380053,-0.00237238,0.0049155,-0.00124732,-1.13145,0.00376233,0.0142283,1574,1702,11.4782,-48.1528
357,-678,11.4364,47.6163,7.30356e-05,0.00329366,-0.00268064,0.00481047,-0.00144378,-1.05587,0.00378127,0.0101701,1581,1702,11.4364,-47.6163
364,-678,11.3983,47.0695,0.000610719,0.00240942,-0.00309399,0.00473212,-0.00171198,-0.926839,0.0038543,0.0116982,1588,1702,11.3983,-47.0694
371,-678,11.3467,46.528,0.00111473,0.00150332,-0.00347927,0.00479372,-0.00217566,-0.813291,0.00411732,0.0126477,1595,1702,11.3467,-46.5279
378,-678,11.3102,45.9619,0.0018435,0.000245856,-0.00388386,0.00500983,-0.00292048,-0.683974,0.00463123,0.0122869,1602,1702,11.3102,-45.962
385,-678,11.2823,45.3899,0.0029795,-0.000607019,-0.00462404,0.00614583,-0.00377335,-0.60042,0.00578118,0.0117294,1609,1702,11.2824,-45.3899
392,-678,11.3387,44.8964,0.00411099,-0.00186109,-0.00535663,0.00725764,-0.00500774,-0.531127,0.00712102,0.0207721,1616,1702,11.3387,-44.8964
399,-678,11.4005,44.387,0.00531986,-0.00325231,-0.00616676,0.00854374,-0.00647618,-0.481707,0.0086991,0.0319587,1623,1702,11.4006,-44.387
406,-678,11.2773,43.7816,0.00654828,-0.00369363,-0.00693784,0.0100504,-0.00719578,-0.467471,0.0100025,0.0409312,1630,1702,11.2773,-43.7817
413,-678,11.4706,43.3112,0.00804851,-0.00411897,-0.00791479,0.0119475,-0.00801801,-0.457731,0.0116013,0.0496769,1637,1702,11.4705,-43.3112
420,-678,11.7946,42.772,0,0,0,0,0,0,0,-1,1644,1702,11.7945,-42.7719
427,-678,10.0541,38.9548,0,0,0,0,0,0,0,-1,1651,1702,10.0541,-38.9548
434,-678,10.1094,38.722,0,0,0,0,0,0,0,-1,1658,1702,10.1094,-38.7221
441,-678,11.6007,39.4658,0,0,0,0,0,0,0,-1,1665,1702,11.6007,-39.4658
448,-678,11.344,38.9084,0,0,0,0,0,0,0,-1,1672,1702,11.344,-38.9084
455,-678,5.44678,5.54297,0,0,0,0,0,0,0,-1,1679,1702,5.44676,-5.54294
462,-678,3.86792,2.87402,0,0,0,0,0,0,0,-1,1686,1702,3.86796,-2.87406
469,-678,2.26587,1.98755,0,0,0,0,0,0,0,-1,1693,1702,2.26592,-1.98755
476,-678,0,0,0,0,0,0,0,0,0,-1,1700,1702,0,0
483,-678,0,0,0,0,0,0,0,0,0,-1,1707,1702,0,0
490,-678,0,0,0,0,0,0,0,0,0,-1,1714,1702,0,0
497,-678,0,0,0,0,0,0,0,0,0,-1,1721,1702,0,0
504,-678,0,0,0,0,0,0,0,0,0,-1,1728,1702,0,0
511,-678,0,0,0,0,0,0,0,0,0,-1,1735,1702,0,0
518,-678,0,0,0,0,0,0,0,0,0,-1,1742,1702,0,0
525,-678,0,0,0,0,0,0,0,0,0,-1,1749,1702,0,0
532,-678,0,0,0,0,0,0,0,0,0,-1,1756,1702,0,0
539,-678,0,0,0,0,0,0,0,0,0,-1,1763,1702,0,0
546,-678,0,0,0,0,0,0,0,0,0,-1,1770,1702,0,0
553,-678,0,0,0,0,0,0,0,0,0,-1,1777,1702,0,0
560,-678,0,0,0,0,0,0,0,0,0,-1,1784,1702,0,0
567,-678,0,0,0,0,0,0,0,0,0,-1,1791,1702,0,0
574,-678,0,0,0,0,0,0,0,0,0,-1,1798,1702,0,0
581,-678,0,0,0,0,0,0,0,0,0,-1,1805,1702,0,0
588,-678,0,0,0,0,0,0,0,0,0,-1,1812,1702,0,0
595,-678,0,0,0,0,0,0,0,0,0,-1,1819,1702,0,0
602,-678,0,0,0,0,0,0,0,0,0,-1,1826,1702,0,0
609,-678,0,0,0,0,0,0,0,0,0,-1,1833,1702,0,0
616,-678,0,0,0,0,0,0,0,0,0,-1,1840,1702,0,0
623,-678,0,0,0,0,0,0,0,0,0,-1,1847,1702,0,0
630,-678,0,0,0,0,0,0,0,0,0,-1,1854,1702,0,0
637,-678,0,0,0,0,0,0,0,0,0,-1,1861,1702,0,0
644,-678,0,0,0,0,0,0,0,0,0,-1,1868,1702,0,0
651,-678,0,0,0,0,0,0,0,0,0,-1,1875,1702,0,0
658,-678,0,0,0,0,0,0,0,0,0,-1,1882,1702,0,0
665,-678,0,0,0,0,0,0,0,0,0,-1,1889,1702,0,0
672,-678,0,0,0,0,0,0,0,0,0,-1,1896,1702,0,0
679,-678,0,0,0,0,0,0,0,0,0,-1,1903,1702,0,0
686,-678,0,0,0,0,0,0,0,0,0,-1,1910,1702,0,0
693,-678,0,0,0,0,0,0,0,0,0,-1,1917,1702,0,0
700,-678,0,0,0,0,0,0,0,0,0,-1,1924,1702,0,0
707,-678,0,0,0,0,0,0,0,0,0,-1,1931,1702,0,0
714,-678,0,0,0,0,0,0,0,0,0,-1,1938,1702,0,0
721,-678,0,0,0,0,0,0,0,0,0,-1,1945,1702,0,0
728,-678,0,0,0,0,0,0,0,0,0,-1,1952,1702,0,0
735,-678,0,0,0,0,0,0,0,0,0,-1,1959,1702,0,0
742,-678,0,0,0,0,0,0,0,0,0,-1,1966,1702,0,0
749,-678,0,0,0,0,0,0,0,0,0,-1,1973,1702,0,0
756,-678,0,0,0,0,0,0,0,0,0,-1,1980,1702,0,0
763,-678,0,0,0,0,0,0,0,0,0,-1,1987,1702,0,0
770,-678,0,0,0,0,0,0,0,0,0,-1,1994,1702,0,0
777,-678,0,0,0,0,0,0,0,0,0,-1,2001,1702,0,0
784,-678,0,0,0,0,0,0,0,0,0,-1,2008,1702,0,0
791,-678,0,0,0,0,0,0,0,0,0,-1,2015,1702,0,0
798,-678,0,0,0,0,0,0,0,0,0,-1,2022,1702,0,0
805,-678,0,0,0,0,0,0,0,0,0,-1,2029,1702,0,0
812,-678,0,0,0,0,0,0,0,0,0,-1,2036,1702,0,0
-700,-685,0,0,0,0,0,0,0,0,0,-1,524,1709,0,0
-693,-685,0,0,0,0,0,0,0,0,0,-1,531,1709,0,0
-686,-685,0,0,0,0,0,0,0,0,0,-1,538,1709,0,0
-679,-685,0,0,0,0,0,0,0,0,0,-1,545,1709,0,0
-672,-685,0,0,0,0,0,0,0,0,0,-1,552,1709,0,0
-665,-685,0,0,0,0,0,0,0,0,0,-1,559,1709,0,0
-658,-685,0,0,0,0,0,0,0,0,0,-1,566,1709,0,0
-651,-685,0,0,0,0,0,0,0,0,0,-1,573,1709,0,0
-644,-685,0,0,0,0,0,0,0,0,0,-1,580,1709,0,0
-637,-685,0,0,0,0,0,0,0,0,0,-1,587,1709,0,0
-630,-685,0,0,0,0,0,0,0,0,0,-1,594,1709,0,0
-623,-685,0,0,0,0,0,0,0,0,0,-1,601,1709,0,0
-616,-685,0,0,0,0,0,0,0,0,0,-1,608,1709,0,0
-609,-685,0,0,0,0,0,0,0,0,0,-1,615,1709,0,0
-602,-685,0,0,0,0,0,0,0,0,0,-1,622,1709,0,0
-595,-685,0,0,0,0,0,0,0,0,0,-1,629,1709,0,0
-588,-685,0,0,0,0,0,0,0,0,0,-1,636,1709,0,0
-581,-685,0,0,0,0,0,0,0,0,0,-1,643,1709,0,0
-574,-685,0,0,0,0,0,0,0,0,0,-1,650,1709,0,0
-567,-685,0,0,0,0,0,0,0,0,0,-1,657,1709,0,0
-560,-685,0,0,0,0,0,0,0,0,0,-1,664,1709,0,0
-553,-685,0,0,0,0,0,0,0,0,0,-1,671,1709,0,0
-546,-685,0,0,0,0,0,0,0,0,0,-1,678,1709,0,0
-539,-685,0,0,0,0,0,0,0,0,0,-1,685,1709,0,0
-532,-685,0,0,0,0,0,0,0,0,0,-1,692,1709,0,0
-525,-685,0,0,0,0,0,0,0,0,0,-1,699,1709,0,0
-518,-685,0,0,0,0,0,0,0,0,0,-1,706,1709,0,0
-511,-685,0,0,0,0,0,0,0,0,0,-1,713,1709,0,0
-504,-685,0,0,0,0,0,0,0,0,0,-1,720,1709,0,0
-497,-685,0,0,0,0,0,0,0,0,0,-1,727,1709,0,0
-490,-685,0,0,0,0,0,0,0,0,0,-1,734,1709,0,0
-483,-685,0,0,0,0,0,0,0,0,0,-1,741,1709,0,0
-476,-685,0,0,0,0,0,0,0,0,0,-1,748,1709,0,0
-469,-685,0,0,0,0,0,0,0,0,0,-1,755,1709,0,0
-462,-685,0,0,0,0,0,0,0,0,0,-1,762,1709,0,0
-455,-685,0,0,0,0,0,0,0,0,0,-1,769,1709,0,0
-448,-685,0,0,0,0,0,0,0,0,0,-1,776,1709,0,0
-441,-685,0,0,0,0,0,0,0,0,0,-1,783,1709,0,0
-434,-685,0,0,0,0,0,0,0,0,0,-1,790,1709,0,0
-427,-685,0,0,0,0,0,0,0,0,0,-1,797,1709,0,0
-420,-685,0,0,0,0,0,0,0,0,0,-1,804,1709,0,0
-413,-685,0,0,0,0,0,0,0,0,0,-1,811,1709,0,0
-406,-685,0,0,0,0,0,0,0,0,0,-1,818,1709,0,0
-399,-685,0,0,0,0,0,0,0,0,0,-1,825,1709,0,0
-392,-685,0,0,0,0,0,0,0,0,0,-1,832,1709,0,0
-385,-685,0,0,0,0,0,0,0,0,0,-1,839,1709,0,0
-378,-685,0,0,0,0,0,0,0,0,0,-1,846,1709,0,0
-371,-685,0,0,0,0,0,0,0,0,0,-1,853,1709,0,0
-364,-685,0,0,0,0,0,0,0,0,0,-1,860,1709,0,0
-357,-685,0,0,0,0,0,0,0,0,0,-1,867,1709,0,0
-350,-685,0,0,0,0,0,0,0,0,0,-1,874,1709,0,0
-343,-685,-5.98505,6.56335,0,0,0,0,0,0,0,-1,881,1709,-5.98505,-6.56329
-336,-685,-6.51312,5.10571,0,0,0,0,0,0,0,-1,888,1709,-6.51311,-5.10575
-329,-685,9.98907,36.2474,0,0,0,0,0,0,0,-1,895,1709,9.98909,-36.2475
-322,-685,3.83191,16.7219,0,0,0,0,0,0,0,-1,902,1709,3.8319,-16.7219
-315,-685,5.15784,21.4388,0,0,0,0,0,0,0,-1,909,1709,5.15783,-21.4389
-308,-685,9.5943,40.3096,0,0,0,0,0,0,0,-1,916,1709,9.5943,-40.3095
-301,-685,9.84204,40.6484,0,0,0,0,0,0,0,-1,923,1709,9.84203,-40.6484
-294,-685,9.72119,43.866,0,0,0,0,0,0,0,-1,930,1709,9.72119,-43.866
-287,-685,9.04346,43.6123,0,0,0,0,0,0,0,-1,937,1709,9.04343,-43.6123
-280,-685,8.44727,44.1072,-0.0233211,-0.0484644,-0.00895676,-0.0204567,-0.0513287,-0.309518,0.0298373,0.0477297,944,1709,8.44724,-44.1072
-273,-685,7.37543,44.7954,-0.0199588,-0.0393307,-0.00590692,-0.0182997,-0.0409897,-0.273813,0.0237106,0.0490427,951,1709,7.37545,-44.7955
-266,-685,7.22772,45.0659,-0.0166029,-0.030735,-0.00335584,-0.0158465,-0.0314914,-0.221694,0.0181817,0.0472908,958,1709,7.2277,-45.0659
-259,-685,7.31683,45.3969,-0.013096,-0.0234851,-0.00126062,-0.0129453,-0.0236359,-0.119039,0.0136669,0.0437786,965,1709,7.31685,-45.3969
-252,-685,7.33325,45.73,-0.00989402,-0.0173427,0.000116804,-0.00989219,-0.0173446,0.0156759,0.0100469,0.0388178,972,1709,7.33323,-45.73
-245,-685,7.42902,46.3638,-0.00726096,-0.0120342,0.000973407,-0.00707009,-0.0122251,0.193632,0.00708695,0.0373744,979,1709,7.42899,-46.3637
-238,-685,7.46368,46.962,-0.0056201,-0.00662458,0.00203701,-0.00402433,-0.00822034,0.66453,0.00474636,0.0297393,986,1709,7.46367,-46.962
-231,-685,7.35553,47.5559,-0.00368217,-0.00371972,0.00264317,-0.00105771,-0.00634418,0.781846,0.00392469,0.0184543,993,1709,7.35556,-47.5559
-224,-685,7.31848,48.0725,-0.00141794,-0.00149724,0.00275494,0.00129763,-0.00421281,0.778203,0.00332655,0.0147386,1000,1709,7.31846,-48.0725
-217,-685,7.29047,48.6267,-0.000328314,3.11304e-05,0.00240118,0.00225931,-0.00255649,0.822752,0.00278216,0.0111556,1007,1709,7.29046,-48.6268
-210,-685,7.26031,49.1978,-2.51821e-05,0.000726938,0.00231415,0.00269539,-0.00199363,0.865946,0.00271729,0.0151525,1014,1709,7.26032,-49.1978
-203,-685,7.2478,49.7135,5.41603e-05,0.0009268,0.0022477,0.00278014,-0.00179918,0.881265,0.00266401,0.016322,1021,1709,7.24782,-49.7136
-196,-685,7.21826,50.236,0.000214733,0.000845809,0.00211991,0.00267353,-0.00161299,0.859278,0.00249994,0.0138998,1028,1709,7.2183,-50.2359
-189,-685,7.17322,50.7303,0.000473179,0.000846995,0.00202232,0.00269103,-0.00137086,0.831478,0.00238606,0.00945401,1035,1709,7.17326,-50.7304
-182,-685,7.13818,51.2307,0.000823185,0.0010323,0.00192837,0.00285895,-0.00100347,0.812482,0.00231415,0.0136038,1042,1709,7.13818,-51.2307
-175,-685,7.10657,51.7325,0.00119986,0.00131859,0.0017998,0.00306,-0.000541554,0.801884,0.00224243,0.0140212,1049,1709,7.10651,-51.7325
-168,-685,7.10522,52.2235,0.00155412,0.00159728,0.00176141,0.00333724,-0.000185848,0.791524,0.0022893,0.0108524,1056,1709,7.1052,-52.2236
-161,-685,7.11938,52.6865,0.00189164,0.00196436,0.00164487,0.00357327,0.00028273,0.79645,0.00229375,0.0119692,1063,1709,7.11938,-52.6866
-154,-685,7.10986,53.1687,0.00223877,0.00253991,0.00145843,0.00385552,0.000923159,0.836837,0.00232455,0.0113715,1070,1709,7.10983,-53.1687
-147,-685,7.08313,53.6134,0.00261655,0.00315008,0.00124506,0.00415663,0.00161,0.890931,0.00242006,0.0105919,1077,1709,7.08309,-53.6134
-140,-685,7.11292,54.016,0.00302167,0.00359905,0.000972339,0.00432465,0.00229607,0.929706,0.00249843,0.0122588,1084,1709,7.11291,-54.016
-133,-685,7.12878,54.4541,0.0034106,0.00401536,0.000732745,0.00450566,0.0029203,0.981086,0.00263913,0.0113187,1091,1709,7.12873,-54.4541
-126,-685,7.12756,54.8861,0.00386083,0.00426204,0.000513409,0.00461264,0.00351022,0.971645,0.00278143,0.0101494,1098,1709,7.12757,-54.8861
-119,-685,7.15015,55.2776,0.00437412,0.00430789,0.000293344,0.00463622,0.0040458,0.729194,0.00291401,0.0148268,1105,1709,7.15015,-55.2776
-112,-685,7.16443,55.6699,0.00474816,0.00413024,2.75397e-05,0.00474938,0.00412901,0.0444507,0.00298106,0.0151055,1112,1709,7.16441,-55.6699
-105,-685,7.151,56.0505,0.00513563,0.00360782,-0.000193594,0.00515978,0.00358367,-0.1241,0.00305324,0.0166312,1119,1709,7.15099,-56.0506
-98,-685,7.21094,56.4016,0.00546254,0.00303833,-0.0004561,0.00554551,0.00295535,-0.179949,0.00320401,0.0243715,1126,1709,7.21094,-56.4016
-91,-685,7.21106,56.6191,0.00577258,0.00254094,-0.00110274,0.00611301,0.00220051,-0.29943,0.00357518,0.0462837,1133,1709,7.21105,-56.6191
-84,-685,7.23914,57.025,0,0,0,0,0,0,0,-1,1140,1709,7.23916,-57.025
-77,-685,7.29773,57.4728,0,0,0,0,0,0,0,-1,1147,1709,7.29776,-57.4728
-70,-685,7.45581,58.0688,0,0,0,0,0,0,0,-1,1154,1709,7.4558,-58.0688
-63,-685,6.03015,29.7728,0,0,0,0,0,0,0,-1,1161,1709,6.0302,-29.7728
-56,-685,3.93909,15.8704,0,0,0,0,0,0,0,-1,1168,1709,3.93905,-15.8704
-49,-685,3.07471,9.86011,0,0,0,0,0,0,0,-1,1175,1709,3.07467,-9.86009
-42,-685,2.70618,7.54504,0,0,0,0,0,0,0,-1,1182,1709,2.7062,-7.54504
-35,-685,2.95264,7.91516,0,0,0,0,0,0,0,-1,1189,1709,2.95262,-7.91517
-28,-685,8.11353,52.4509,0,0,0,0,0,0,0,-1,1196,1709,8.1135,-52.451
-21,-685,8.08618,59.1152,0,0,0,0,0,0,0,-1,1203,1709,8.08615,-59.1152
-14,-685,8.13818,59.351,0.00180651,0.0373273,0.00966522,0.0397869,-0.00065309,1.32161,0.0267449,0.0326245,1210,1709,8.13821,-59.3509
-7,-685,8.11182,59.5878,0.00137921,0.0393132,0.00956518,0.0415886,-0.000896195,1.33725,0.0280293,0.0464255,1217,1709,8.11187,-59.5878
0,-685,8.01257,59.8654,0,0,0,0,0,0,0,-1,1224,1709,8.01253,-59.8653
7,-685,8.05737,59.8838,0,0,0,0,0,0,0,-1,1231,1709,8.05731,-59.8838
14,-685,8.28943,60.0537,0,0,0,0,0,0,0,-1,1238,1709,8.28946,-60.0536
21,-685,8.70129,60.5603,0,0,0,0,0,0,0,-1,1245,1709,8.70126,-60.5603
28,-685,8.83655,60.2064,0,0,0,0,0,0,0,-1,1252,1709,8.83657,-60.2064
35,-685,8.88318,60.2631,0,0,0,0,0,0,0,-1,1259,1709,8.88312,-60.2631
42,-685,8.93811,60.7219,0,0,0,0,0,0,0,-1,1266,1709,8.93813,-60.7219
49,-685,9.05774,60.6444,0,0,0,0,0,0,0,-1,1273,1709,9.05768,-60.6444
56,-685,7.6167,59.9541,0,0,0,0,0,0,0,-1,1280,1709,7.61671,-59.9541
63,-685,12.0989,62.0902,0,0,0,0,0,0,0,-1,1287,1709,12.0989,-62.0902
70,-685,9.25879,60.912,0,0,0,0,0,0,0,-1,1294,1709,9.25884,-60.9119
77,-685,9.547,60.2632,0,0,0,0,0,0,0,-1,1301,1709,9.54706,-60.2632
84,-685,9.93359,61.6083,0,0,0,0,0,0,0,-1,1308,1709,9.93355,-61.6083
91,-685,9.77026,60.2653,0,0,0,0,0,0,0,-1,1315,1709,9.77022,-60.2652
98,-685,9.60181,59.657,0,0,0,0,0,0,0,-1,1322,1709,9.60185,-59.657
105,-685,9.74695,59.5951,0,0,0,0,0,0,0,-1,1329,1709,9.74699,-59.5951
112,-685,9.6405,59.5271,-0.00244843,-0.0215458,-0.00951508,0.00148302,-0.0254773,-0.391817,0.0175002,0.0454186,1336,1709,9.64053,-59.5271
119,-685,10.0265,59.4091,-0.00471201,-0.02328,-0.00947756,-0.000728872,-0.0272631,-0.397858,0.0179374,0.0437151,1343,1709,10.0265,-59.4091
126,-685,10.3967,59.106,0,0,0,0,0,0,0,-1,1350,1709,10.3967,-59.1059
133,-685,10.316,59.2839,0,0,0,0,0,0,0,-1,1357,1709,10.3161,-59.2839
140,-685,10.2584,59.2797,0,0,0,0,0,0,0,-1,1364,1709,10.2584,-59.2797
147,-685,10.2333,58.194,0,0,0,0,0,0,0,-1,1371,1709,10.2333,-58.194
154,-685,10.0796,56.0078,0,0,0,0,0,0,0,-1,1378,1709,10.0796,-56.0079
161,-685,10.4932,55.8827,0,0,0,0,0,0,0,-1,1385,1709,10.4932,-55.8827
168,-685,4.37524,10.8778,0,0,0,0,0,0,0,-1,1392,1709,4.37525,-10.8778
175,-685,3.97522,8.94324,0,0,0,0,0,0,0,-1,1399,1709,3.97519,-8.94328
182,-685,3.98218,9.19739,0,0,0,0,0,0,0,-1,1406,1709,3.98221,-9.1974
189,-685,4.53479,15.2343,0,0,0,0,0,0,0,-1,1413,1709,4.53474,-15.2343
196,-685,10.5815,58.0098,0,0,0,0,0,0,0,-1,1420,1709,10.5815,-58.0098
203,-685,10.6184,57.4097,0,0,0,0,0,0,0,-1,1427,1709,10.6184,-57.4096
210,-685,11.0343,56.9718,0,0,0,0,0,0,0,-1,1434,1709,11.0343,-56.9718
217,-685,10.9835,56.5811,0,0,0,0,0,0,0,-1,1441,1709,10.9835,-56.581
224,-685,10.9253,56.3203,0,0,0,0,0,0,0,-1,1448,1709,10.9253,-56.3203
231,-685,10.8562,56.2742,0,0,0,0,0,0,0,-1,1455,1709,10.8562,-56.2742
238,-685,11.0741,55.5707,0.00556128,0.000417544,-0.000341796,0.0055839,0.000394931,-0.0660618,0.00359819,0.0371371,1462,1709,11.0741,-55.5707
245,-685,11.0802,55.1444,0.00518083,0.000706962,-0.000551661,0.00524785,0.000639942,-0.120895,0.00330597,0.0215792,1469,1709,11.0802,-55.1445
252,-685,11.0796,54.7878,0.00487858,0.00141523,-0.000731528,0.00502676,0.00126706,-0.19985,0.0030188,0.0151454,1476,1709,11.0796,-54.7879
259,-685,11.0878,54.3976,0.0043334,0.00160041,-0.000903338,0.004605,0.00132882,-0.292056,0.00273679,0.0109784,1483,1709,11.0878,-54.3976
266,-685,11.1,53.973,0.00381445,0.00173195,-0.00110914,0.00429451,0.00125189,-0.40848,0.00255028,0.0126971,1490,1709,11.0999,-53.973
273,-685,11.0945,53.5354,0.00345556,0.00183804,-0.00120056,0.00409437,0.00119924,-0.488987,0.00243054,0.0153548,1497,1709,11.0945,-53.5354
280,-685,11.0692,53.098,0.00300466,0.00197883,-0.00127447,0.00386555,0.00111794,-0.594087,0.00229694,0.0167456,1504,1709,11.0692,-53.098
287,-685,11.0808,52.6531,0.00249097,0.00214038,-0.0012988,0.00362625,0.0010051,-0.71832,0.00216181,0.0125139,1511,1709,11.0808,-52.653
294,-685,11.0844,52.1793,0.0019441,0.0023933,-0.00129613,0.00348414,0.000853258,-0.871189,0.00209703,0.0110768,1518,1709,11.0844,-52.1793
301,-685,11.0776,51.7115,0.00135533,0.00257027,-0.00136416,0.0034561,0.000469496,-0.994871,0.00216461,0.0134751,1525,1709,11.0776,-51.7116
308,-685,11.0822,51.2345,0.000737334,0.00306463,-0.00154408,0.00383444,-3.24777e-05,-1.1083,0.00256719,0.0142248,1532,1709,11.0822,-51.2345
315,-685,11.0637,50.7428,0.000111669,0.0034735,-0.00161688,0.00412492,-0.000539746,-1.18781,0.00294639,0.0123711,1539,1709,11.0637,-50.7428
322,-685,11.0167,50.2367,-0.000428433,0.00402003,-0.00179694,0.0046552,-0.00106361,-1.23103,0.0035121,0.0196797,1546,1709,11.0167,-50.2367
329,-685,10.9788,49.7412,-0.000898554,0.0044989,-0.0020697,0.00520117,-0.00160082,-1.24368,0.00410642,0.0194155,1553,1709,10.9788,-49.7412
336,-685,10.9546,49.2168,-0.0012261,0.00490384,-0.00228162,0.00565984,-0.0019821,-1.25084,0.00457922,0.0133809,1560,1709,10.9546,-49.2168
343,-685,10.9362,48.6987,-0.00128515,0.00511192,-0.00257706,0.00602093,-0.00219415,-1.23169,0.00491151,0.0126383,1567,1709,10.9361,-48.6987
350,-685,10.921,48.167,-0.00110115,0.00495916,-0.00299798,0.00619161,-0.00233359,-1.18077,0.00508725,0.0135326,1574,1709,10.9211,-48.167
357,-685,10.8954,47.6554,-0.000642807,0.00462393,-0.00343326,0.00631745,-0.00233632,-1.11255,0.00516949,0.0105891,1581,1709,10.8953,-47.6553
364,-685,10.8573,47.1362,0.000185642,0.0037253,-0.00397901,0.00631033,-0.00239939,-0.994655,0.0051948,0.0114349,1588,1709,10.8573,-47.1363
371,-685,10.8387,46.5576,0.00099605,0.00276803,-0.00446809,0.00643713,-0.00267305,-0.883275,0.00540734,0.0202365,1595,1709,10.8388,-46.5576
378,-685,10.8242,45.9506,0.00209956,0.00131161,-0.00498462,0.00670575,-0.00329458,-0.745961,0.00588459,0.0233418,1602,1709,10.8242,-45.9505
385,-685,10.7693,45.4269,0.00371623,0.000205377,-0.00588349,0.00810059,-0.00417899,-0.64042,0.00720912,0.0333525,1609,1709,10.7693,-45.4269
392,-685,10.9862,44.9733,0.00544532,-0.00152393,-0.00680807,0.00960873,-0.00568735,-0.548862,0.00892741,0.0382684,1616,1709,10.9862,-44.9733
399,-685,11.1267,44.5397,0.00733272,-0.00371123,-0.00784876,0.0114074,-0.00778588,-0.478847,0.0111468,0.0459733,1623,1709,11.1266,-44.5397
406,-685,10.7838,43.9673,0,0,0,0,0,0,0,-1,1630,1709,10.7838,-43.9673
413,-685,10.9447,43.5477,0,0,0,0,0,0,0,-1,1637,1709,10.9447,-43.5477
420,-685,10.3047,40.3569,0,0,0,0,0,0,0,-1,1644,1709,10.3047,-40.3569
427,-685,10.7286,38.6702,0,0,0,0,0,0,0,-1,1651,1709,10.7286,-38.6702
434,-685,4.87769,8.91418,0,0,0,0,0,0,0,-1,1658,1709,4.87768,-8.91413
441,-685,5.62,8.75549,0,0,0,0,0,0,0,-1,1665,1709,5.61996,-8.75545
448,-685,6.4043,8.58972,0,0,0,0,0,0,0,-1,1672,1709,6.40435,-8.58971
455,-685,2.31958,4.09802,0,0,0,0,0,0,0,-1,1679,1709,2.31957,-4.09803
462,-685,0,0,0,0,0,0,0,0,0,-1,1686,1709,0,0
469,-685,0,0,0,0,0,0,0,0,0,-1,1693,1709,0,0
476,-685,0,0,0,0,0,0,0,0,0,-1,1700,1709,0,0
483,-685,0,0,0,0,0,0,0,0,0,-1,1707,1709,0,0
490,-685,0,0,0,0,0,0,0,0,0,-1,1714,1709,0,0
497,-685,0,0,0,0,0,0,0,0,0,-1,1721,1709,0,0
504,-685,0,0,0,0,0,0,0,0,0,-1,1728,1709,0,0
511,-685,0,0,0,0,0,0,0,0,0,-1,1735,1709,0,0
518,-685,0,0,0,0,0,0,0,0,0,-1,1742,1709,0,0
525,-685,0,0,0,0,0,0,0,0,0,-1,1749,1709,0,0
532,-685,0,0,0,0,0,0,0,0,0,-1,1756,1709,0,0
539,-685,0,0,0,0,0,0,0,0,0,-1,1763,1709,0,0
546,-685,0,0,0,0,0,0,0,0,0,-1,1770,1709,0,0
553,-685,0,0,0,0,0,0,0,0,0,-1,1777,1709,0,0
560,-685,0,0,0,0,0,0,0,0,0,-1,1784,1709,0,0
567,-685,0,0,0,0,0,0,0,0,0,-1,1791,1709,0,0
574,-685,0,0,0,0,0,0,0,0,0,-1,1798,1709,0,0
581,-685,0,0,0,0,0,0,0,0,0,-1,1805,1709,0,0
588,-685,0,0,0,0,0,0,0,0,0,-1,1812,1709,0,0
595,-685,0,0,0,0,0,0,0,0,0,-1,1819,1709,0,0
602,-685,0,0,0,0,0,0,0,0,0,-1,1826,1709,0,0
609,-685,0,0,0,0,0,0,0,0,0,-1,1833,1709,0,0
616,-685,0,0,0,0,0,0,0,0,0,-1,1840,1709,0,0
623,-685,0,0,0,0,0,0,0,0,0,-1,1847,1709,0,0
630,-685,0,0,0,0,0,0,0,0,0,-1,1854,1709,0,0
637,-685,0,0,0,0,0,0,0,0,0,-1,1861,1709,0,0
644,-685,0,0,0,0,0,0,0,0,0,-1,1868,1709,0,0
651,-685,0,0,0,0,0,0,0,0,0,-1,1875,1709,0,0
658,-685,0,0,0,0,0,0,0,0,0,-1,1882,1709,0,0
665,-685,0,0,0,0,0,0,0,0,0,-1,1889,1709,0,0
672,-685,0,0,0,0,0,0,0,0,0,-1,1896,1709,0,0
679,-685,0,0,0,0,0,0,0,0,0,-1,1903,1709,0,0
686,-685,0,0,0,0,0,0,0,0,0,-1,1910,1709,0,0
693,-685,0,0,0,0,0,0,0,0,0,-1,1917,1709,0,0
700,-685,0,0,0,0,0,0,0,0,0,-1,1924,1709,0,0
707,-685,0,0,0,0,0,0,0,0,0,-1,1931,1709,0,0
714,-685,0,0,0,0,0,0,0,0,0,-1,1938,1709,0,0
721,-685,0,0,0,0,0,0,0,0,0,-1,1945,1709,0,0
728,-685,0,0,0,0,0,0,0,0,0,-1,1952,1709,0,0
735,-685,0,0,0,0,0,0,0,0,0,-1,1959,1709,0,0
742,-685,0,0,0,0,0,0,0,0,0,-1,1966,1709,0,0
749,-685,0,0,0,0,0,0,0,0,0,-1,1973,1709,0,0
756,-685,0,0,0,0,0,0,0,0,0,-1,1980,1709,0,0
763,-685,0,0,0,0,0,0,0,0,0,-1,1987,1709,0,0
770,-685,0,0,0,0,0,0,0,0,0,-1,1994,1709,0,0
777,-685,0,0,0,0,0,0,0,0,0,-1,2001,1709,0,0
784,-685,0,0,0,0,0,0,0,0,0,-1,2008,1709,0,0
791,-685,0,0,0,0,0,0,0,0,0,-1,2015,1709,0,0
798,-685,0,0,0,0,0,0,0,0,0,-1,2022,1709,0,0
805,-685,0,0,0,0,0,0,0,0,0,-1,2029,1709,0,0
812,-685,0,0,0,0,0,0,0,0,0,-1,2036,1709,0,0
-700,-692,0,0,0,0,0,0,0,0,0,-1,524,1716,0,0
-693,-692,0,0,0,0,0,0,0,0,0,-1,531,1716,0,0
-686,-692,0,0,0,0,0,0,0,0,0,-1,538,1716,0,0
-679,-692,0,0,0,0,0,0,0,0,0,-1,545,1716,0,0
-672,-692,0,0,0,0,0,0,0,0,0,-1,552,1716,0,0
-665,-692,0,0,0,0,0,0,0,0,0,-1,559,1716,0,0
-658,-692,0,0,0,0,0,0,0,0,0,-1,566,1716,0,0
-651,-692,0,0,0,0,0,0,0,0,0,-1,573,1716,0,0
-644,-692,0,0,0,0,0,0,0,0,0,-1,580,1716,0,0
-637,-692,0,0,0,0,0,0,0,0,0,-1,587,1716,0,0
-630,-692,0,0,0,0,0,0,0,0,0,-1,594,1716,0,0
-623,-692,0,0,0,0,0,0,0,0,0,-1,601,1716,0,0
-616,-692,0,0,0,0,0,0,0,0,0,-1,608,1716,0,0
-609,-692,0,0,0,0,0,0,0,0,0,-1,615,1716,0,0
-602,-692,0,0,0,0,0,0,0,0,0,-1,622,1716,0,0
-595,-692,0,0,0,0,0,0,0,0,0,-1,629,1716,0,0
-588,-692,0,0,0,0,0,0,0,0,0,-1,636,1716,0,0
-581,-692,0,0,0,0,0,0,0,0,0,-1,643,1716,0,0
-574,-692,0,0,0,0,0,0,0,0,0,-1,650,1716,0,0
-567,-692,0,0,0,0,0,0,0,0,0,-1,657,1716,0,0
-560,-692,0,0,0,0,0,0,0,0,0,-1,664,1716,0,0
-553,-692,0,0,0,0,0,0,0,0,0,-1,671,1716,0,0
-546,-692,0,0,0,0,0,0,0,0,0,-1,678,1716,0,0
-539,-692,0,0,0,0,0,0,0,0,0,-1,685,1716,0,0
-532,-692,0,0,0,0,0,0,0,0,0,-1,692,1716,0,0
-525,-692,0,0,0,0,0,0,0,0,0,-1,699,1716,0,0
-518,-692,0,0,0,0,0,0,0,0,0,-1,706,1716,0,0
-511,-692,0,0,0,0,0,0,0,0,0,-1,713,1716,0,0
-504,-692,0,0,0,0,0,0,0,0,0,-1,720,1716,0,0
-497,-692,0,0,0,0,0,0,0,0,0,-1,727,1716,0,0
-490,-692,0,0,0,0,0,0,0,0,0,-1,734,1716,0,0
-483,-692,0,0,0,0,0,0,0,0,0,-1,741,1716,0,0
-476,-692,0,0,0,0,0,0,0,0,0,-1,748,1716,0,0
-469,-692,0,0,0,0,0,0,0,0,0,-1,755,1716,0,0
-462,-692,0,0,0,0,0,0,0,0,0,-1,762,1716,0,0
-455,-692,0,0,0,0,0,0,0,0,0,-1,769,1716,0,0
-448,-692,0,0,0,0,0,0,0,0,0,-1,776,1716,0,0
-441,-692,0,0,0,0,0,0,0,0,0,-1,783,1716,0,0
-434,-692,0,0,0,0,0,0,0,0,0,-1,790,1716,0,0
-427,-692,0,0,0,0,0,0,0,0,0,-1,797,1716,0,0
-420,-692,0,0,0,0,0,0,0,0,0,-1,804,1716,0,0
-413,-692,0,0,0,0,0,0,0,0,0,-1,811,1716,0,0
-406,-692,0,0,0,0,0,0,0,0,0,-1,818,1716,0,0
-399,-692,0,0,0,0,0,0,0,0,0,-1,825,1716,0,0
-392,-692,0,0,0,0,0,0,0,0,0,-1,832,1716,0,0
-385,-692,0,0,0,0,0,0,0,0,0,-1,839,1716,0,0
-378,-692,0,0,0,0,0,0,0,0,0,-1,846,1716,0,0
-371,-692,0,0,0,0,0,0,0,0,0,-1,853,1716,0,0
-364,-692,0,0,0,0,0,0,0,0,0,-1,860,1716,0,0
-357,-692,0,0,0,0,0,0,0,0,0,-1,867,1716,0,0
-350,-692,0,0,0,0,0,0,0,0,0,-1,874,1716,0,0
-343,-692,0,0,0,0,0,0,0,0,0,-1,881,1716,0,0
-336,-692,0,0,0,0,0,0,0,0,0,-1,888,1716,0,0
-329,-692,3.03107,4.10266,0,0,0,0,0,0,0,-1,895,1716,3.03105,-4.10267
-322,-692,4.43713,18.5242,0,0,0,0,0,0,0,-1,902,1716,4.43711,-18.5241
-315,-692,5.38965,17.975,0,0,0,0,0,0,0,-1,909,1716,5.38963,-17.975
-308,-692,5.86938,17.4392,0,0,0,0,0,0,0,-1,916,1716,5.86937,-17.4392
-301,-692,12.015,41.2892,0,0,0,0,0,0,0,-1,923,1716,12.015,-41.2892
-294,-692,8.41125,35.4742,0,0,0,0,0,0,0,-1,930,1716,8.41125,-35.4742
-287,-692,9.3382,43.4412,0,0,0,0,0,0,0,-1,937,1716,9.33821,-43.4411
-280,-692,8.88086,44.7029,0,0,0,0,0,0,0,-1,944,1716,8.88084,-44.7029
-273,-692,7.68719,44.8949,0,0,0,0,0,0,0,-1,951,1716,7.68719,-44.8949
-266,-692,7.62903,45.3057,0,0,0,0,0,0,0,-1,958,1716,7.629,-45.3057
-259,-692,7.8501,45.5802,0,0,0,0,0,0,0,-1,965,1716,7.85011,-45.5802
-252,-692,7.64069,45.6522,0,0,0,0,0,0,0,-1,972,1716,7.64068,-45.6522
-245,-692,7.90131,46.1163,0,0,0,0,0,0,0,-1,979,1716,7.9013,-46.1164
-238,-692,8.02271,46.7102,0,0,0,0,0,0,0,-1,986,1716,8.0227,-46.7102
-231,-692,8.01953,47.5468,-0.00447621,-0.00451171,0.00340894,-0.00108497,-0.00790294,0.782795,0.00494679,0.0420818,993,1716,8.01953,-47.5468
-224,-692,7.82642,48.1278,-0.00171485,-0.00179081,0.00350194,0.00174932,-0.00525497,0.779976,0.00420938,0.019804,1000,1716,7.82641,-48.1278
-217,-692,7.80658,48.6521,-0.000531104,4.84198e-05,0.00309989,0.00287206,-0.00335475,0.832,0.00359865,0.0129192,1007,1716,7.80655,-48.6521
-210,-692,7.78223,49.2062,-0.000283364,0.000858809,0.00305303,0.0033937,-0.00281826,0.877858,0.0035916,0.0135166,1014,1716,7.78221,-49.2061
-203,-692,7.75952,49.73,-0.000297162,0.0011002,0.00300433,0.00348602,-0.00268298,0.899647,0.00357172,0.0159874,1021,1716,7.75952,-49.73
-196,-692,7.69226,50.2677,-0.000259502,0.00101232,0.00283834,0.00328511,-0.0025323,0.8956,0.00336805,0.0183631,1028,1716,7.6923,-50.2678
-189,-692,7.64905,50.7368,-9.21472e-05,0.000967844,0.00271654,0.0032056,-0.00232991,0.881738,0.00320923,0.00948723,1035,1716,7.64911,-50.7369
-182,-692,7.61108,51.225,0.000166464,0.00106301,0.00258237,0.00323573,-0.00200625,0.871337,0.00305408,0.0136941,1042,1716,7.61107,-51.225
-175,-692,7.56812,51.7389,0.000399293,0.00127381,0.00236986,0.00324642,-0.00157331,0.876626,0.00283801,0.0143779,1049,1716,7.56813,-51.7388
-168,-692,7.57825,52.2423,0.000631915,0.00144323,0.00229068,0.0033639,-0.00128875,0.873035,0.00277384,0.0114423,1056,1716,7.57828,-52.2423
-161,-692,7.59753,52.7072,0.000854023,0.00164673,0.00209637,0.00338389,-0.000883136,0.878829,0.00260078,0.0147551,1063,1716,7.59755,-52.7071
-154,-692,7.56006,53.2098,0.00108615,0.00207386,0.00181375,0.00345978,-0.000299775,0.918318,0.00241266,0.0160982,1070,1716,7.56004,-53.2098
-147,-692,7.54053,53.6484,0.0013657,0.00250468,0.00152378,0.00356192,0.000308466,0.964227,0.00227876,0.0152461,1077,1716,7.54051,-53.6485
-140,-692,7.52283,54.0551,0.00169786,0.00278092,0.0012078,0.00356304,0.000915745,0.996144,0.00213656,0.0111054,1084,1716,7.52279,-54.0551
-133,-692,7.52185,54.4757,0.00201613,0.0030018,0.000915048,0.00354829,0.00146964,1.03242,0.00205864,0.00982209,1091,1716,7.52179,-54.4757
-126,-692,7.53772,54.8914,0.0023496,0.00311298,0.000633423,0.00347082,0.00199176,1.05656,0.00201116,0.00857798,1098,1716,7.53777,-54.8914
-119,-692,7.52454,55.2903,0.0028186,0.00311913,0.000417066,0.00341217,0.00252555,0.958303,0.00204437,0.0133303,1105,1716,7.52451,-55.2902
-112,-692,7.53625,55.6744,0.0032253,0.00295792,0.000179629,0.00331553,0.00286769,0.465484,0.00207723,0.0126729,1112,1716,7.53625,-55.6744
-105,-692,7.55493,56.0543,0.00360954,0.00252986,-2.67688e-05,0.0036102,0.0025292,-0.0247731,0.00213952,0.0159072,1119,1716,7.55496,-56.0543
-98,-692,7.61755,56.3933,0.0039714,0.00206342,-0.000239852,0.00400109,0.00203373,-0.123157,0.00231014,0.018317,1126,1716,7.61751,-56.3933
-91,-692,7.61108,56.7253,0.00433312,0.00169672,-0.000683899,0.00449997,0.00152987,-0.239292,0.00264204,0.0207744,1133,1716,7.61108,-56.7253
-84,-692,7.69714,57.0789,0.00492258,0.00116475,-0.0010602,0.00520105,0.000886276,-0.256864,0.00321295,0.0249588,1140,1716,7.69718,-57.0788
-77,-692,7.66357,57.4586,0.0055325,0.000479246,-0.00142462,0.00590645,0.00010529,-0.256704,0.00390301,0.0198193,1147,1716,7.66353,-57.4586
-70,-692,7.73547,57.8417,0.00585439,-4.03923e-05,-0.00177272,0.00634643,-0.000532427,-0.270744,0.00441913,0.0365804,1154,1716,7.73547,-57.8417
-63,-692,7.86304,58.1838,0,0,0,0,0,0,0,-1,1161,1716,7.86309,-58.1839
-56,-692,7.79443,58.2605,0,0,0,0,0,0,0,-1,1168,1716,7.79447,-58.2604
-49,-692,7.80139,58.6168,0,0,0,0,0,0,0,-1,1175,1716,7.80142,-58.6168
-42,-692,7.75354,59.1074,0,0,0,0,0,0,0,-1,1182,1716,7.75351,-59.1074
-35,-692,7.96143,59.2842,0,0,0,0,0,0,0,-1,1189,1716,7.96141,-59.2842
-28,-692,8.09351,59.1616,0,0,0,0,0,0,0,-1,1196,1716,8.09354,-59.1616
-21,-692,8.18665,59.3225,0.00400816,0.0235218,0.00542113,0.0249267,0.00260325,1.31722,0.0158216,0.0356757,1203,1716,8.18669,-59.3226
-14,-692,8.25879,59.4792,0.00314328,0.0258501,0.00601508,0.0273451,0.0016483,1.32719,0.0177062,0.0181622,1210,1716,8.25875,-59.4793
-7,-692,8.28308,59.6974,0.00229885,0.0276139,0.00626219,0.0290783,0.000834477,1.34108,0.0191134,0.0173115,1217,1716,8.28304,-59.6974
0,-692,8.27734,59.8364,0.00187924,0.0280496,0.00609346,0.0293989,0.000530017,1.35289,0.019425,0.0238234,1224,1716,8.27739,-59.8364
7,-692,8.38428,59.8956,0.00169407,0.0285922,0.00543013,0.029647,0.00063921,1.37893,0.0195551,0.0313953,1231,1716,8.38425,-59.8957
14,-692,8.53137,60.2278,0.000978301,0.0289674,0.00514562,0.0298834,6.22887e-05,1.39462,0.0199016,0.0333134,1238,1716,8.53133,-60.2278
21,-692,8.67578,60.3962,0.000199032,0.0271837,0.00473355,0.02799,-0.00060722,1.40209,0.0188657,0.0321345,1245,1716,8.67579,-60.3962
28,-692,8.78076,60.2559,-0.000140016,0.0250655,0.00387332,0.0256473,-0.000721799,1.42171,0.0173438,0.03375,1252,1716,8.78075,-60.2558
35,-692,8.84436,60.3391,-0.000230104,0.0209429,0.00234259,0.0211989,-0.000486191,1.46191,0.0142975,0.0317088,1259,1716,8.8444,-60.3391
42,-692,8.91248,60.5519,-0.00027024,0.0160186,0.000480537,0.0160328,-0.000284404,1.54133,0.0107846,0.030022,1266,1716,8.91251,-60.5519
49,-692,8.98364,60.5519,-0.000369719,0.0110789,-0.00160733,0.0113003,-0.000591099,-1.43393,0.00773807,0.0405051,1273,1716,8.98369,-60.5519
56,-692,9.05066,60.5463,0,0,0,0,0,0,0,-1,1280,1716,9.05063,-60.5462
63,-692,9.11584,60.5559,0,0,0,0,0,0,0,-1,1287,1716,9.1159,-60.5559
70,-692,9.19604,60.6486,0,0,0,0,0,0,0,-1,1294,1716,9.19602,-60.6486
77,-692,9.33813,60.4944,0,0,0,0,0,0,0,-1,1301,1716,9.3381,-60.4944
84,-692,9.39478,60.3446,0,0,0,0,0,0,0,-1,1308,1716,9.39478,-60.3447
91,-692,9.51196,60.2937,0,0,0,0,0,0,0,-1,1315,1716,9.51202,-60.2937
98,-692,9.61169,60.0697,0.00360262,-0.0163886,-0.00855307,0.00676251,-0.0195485,-0.353892,0.0157772,0.038173,1322,1716,9.61174,-60.0697
105,-692,9.63574,59.9182,0.0031077,-0.0165734,-0.00774673,0.00579106,-0.0192567,-0.333452,0.0151419,0.047779,1329,1716,9.63574,-59.9182
112,-692,9.81494,59.9956,0,0,0,0,0,0,0,-1,1336,1716,9.81491,-59.9956
119,-692,9.81897,59.7377,0.00133528,-0.0178158,-0.00634782,0.00324825,-0.0197288,-0.292702,0.0143583,0.0421091,1343,1716,9.81893,-59.7377
126,-692,9.93384,59.5735,1.81947e-05,-0.0180849,-0.00617821,0.0019257,-0.0199924,-0.299463,0.0140143,0.0417108,1350,1716,9.93379,-59.5735
133,-692,10.0609,59.4904,-0.0019915,-0.0194893,-0.00599089,-0.000136909,-0.0213439,-0.300211,0.0141839,0.0307196,1357,1716,10.0609,-59.4904
140,-692,10.027,59.4457,-0.00408655,-0.0198715,-0.00553397,-0.00233973,-0.0216183,-0.305755,0.0136991,0.0342846,1364,1716,10.0269,-59.4457
147,-692,9.979,59.3944,0,0,0,0,0,0,0,-1,1371,1716,9.979,-59.3944
154,-692,9.92883,56.0276,0,0,0,0,0,0,0,-1,1378,1716,9.92887,-56.0276
161,-692,10.0132,58.811,0,0,0,0,0,0,0,-1,1385,1716,10.0132,-58.811
168,-692,10.3716,58.7645,0,0,0,0,0,0,0,-1,1392,1716,10.3716,-58.7646
175,-692,10.5448,58.5231,0,0,0,0,0,0,0,-1,1399,1716,10.5448,-58.523
182,-692,10.4795,58.2466,0,0,0,0,0,0,0,-1,1406,1716,10.4795,-58.2465
189,-692,10.4463,57.9576,0,0,0,0,0,0,0,-1,1413,1716,10.4462,-57.9576
196,-692,10.3191,57.5649,0.00351026,-0.00553689,-0.000191718,0.00351432,-0.00554095,-0.0211783,0.00527153,0.0394654,1420,1716,10.3192,-57.565
203,-692,10.3662,57.2654,0.00700978,-0.000365914,0.000811833,0.00709808,-0.000454215,0.108341,0.0048905,0.0277974,1427,1716,10.3662,-57.2654
210,-692,10.6117,57.0095,0.00640274,-0.000127825,0.000470409,0.00643645,-0.000161535,0.0715398,0.00434581,0.0202493,1434,1716,10.6117,-57.0096
217,-692,10.6171,56.6627,0.00580118,9.42696e-06,0.00025471,0.00581236,-1.75321e-06,0.0438652,0.00387549,0.018027,1441,1716,10.6171,-56.6627
224,-692,10.615,56.3438,0.00519395,0.000246016,2.86365e-05,0.00519411,0.000245851,0.00578731,0.00338377,0.0147061,1448,1716,10.615,-56.3438
231,-692,10.6064,55.9705,0.00451175,0.000520964,-0.000289,0.00453257,0.000500144,-0.0719168,0.00286956,0.0122181,1455,1716,10.6064,-55.9704
238,-692,10.6522,55.5177,0.00396025,0.000703355,-0.000504967,0.00403675,0.000626859,-0.150344,0.00250846,0.0183422,1462,1716,10.6522,-55.5177
245,-692,10.705,55.1156,0.00355086,0.000951632,-0.000686258,0.00372093,0.000781571,-0.242916,0.00226549,0.0209111,1469,1716,10.705,-55.1156
252,-692,10.6844,54.7695,0.00317485,0.0014308,-0.000814554,0.00349611,0.00110954,-0.375668,0.00206288,0.0191395,1476,1716,10.6845,-54.7695
259,-692,10.674,54.4001,0.0026477,0.00161453,-0.000946036,0.003209,0.00105323,-0.535496,0.00188882,0.0106081,1483,1716,10.6739,-54.4001
266,-692,10.6578,53.9856,0.00215844,0.00170322,-0.00113312,0.00308659,0.000775077,-0.686283,0.00185417,0.0105232,1490,1716,10.6578,-53.9856
273,-692,10.6382,53.5181,0.00178456,0.00181435,-0.00123875,0.0030383,0.000560614,-0.791409,0.00186693,0.0154177,1497,1716,10.6382,-53.5181
280,-692,10.6357,53.0892,0.00132686,0.00190637,-0.00132045,0.00296848,0.000264748,-0.893404,0.00189691,0.0140956,1504,1716,10.6357,-53.0893
287,-692,10.6324,52.6636,0.000801257,0.00208075,-0.00135808,0.00294222,-6.02129e-05,-1.00552,0.00198186,0.010479,1511,1716,10.6325,-52.6635
294,-692,10.6238,52.2128,0.000252072,0.00249001,-0.00136105,0.00313301,-0.000390931,-1.12944,0.00223043,0.010423,1518,1716,10.6238,-52.2127
301,-692,10.6216,51.7649,-0.000304188,0.00278397,-0.0015106,0.0034,-0.000920222,-1.18358,0.00262768,0.014514,1525,1716,10.6216,-51.7649
308,-692,10.6036,51.3087,-0.000907196,0.0034941,-0.00177752,0.00412231,-0.0015354,-1.23108,0.00337838,0.0179739,1532,1716,10.6036,-51.3087
315,-692,10.585,50.7698,-0.00151952,0.00410102,-0.00189968,0.00468286,-0.00210136,-1.27359,0.00401028,0.0159848,1539,1716,10.5849,-50.7697
322,-692,10.5222,50.2278,-0.00199592,0.00492019,-0.00218144,0.00555076,-0.00262648,-1.28941,0.00482071,0.0193666,1546,1716,10.5222,-50.2278
329,-692,10.4822,49.7317,-0.00240151,0.00570821,-0.00256348,0.00645057,-0.00314387,-1.28892,0.00564795,0.01767,1553,1716,10.4822,-49.7317
336,-692,10.4524,49.215,-0.0026669,0.00645295,-0.00290007,0.00729704,-0.00351098,-1.28756,0.00636636,0.0124105,1560,1716,10.4524,-49.2149
343,-692,10.4374,48.7335,-0.00260722,0.00697596,-0.0033266,0.00801751,-0.00364878,-1.26737,0.00689116,0.0133025,1567,1716,10.4374,-48.7335
350,-692,10.4111,48.2308,-0.00222749,0.0070925,-0.00388325,0.00849841,-0.0036334,-1.22343,0.00718958,0.0174457,1574,1716,10.4112,-48.2308
357,-692,10.3457,47.6183,-0.00146997,0.00699141,-0.00447471,0.00891878,-0.00339734,-1.16409,0.00734504,0.0266083,1581,1716,10.3457,-47.6183
364,-692,10.3578,46.9685,-0.000275434,0.00609432,-0.00518841,0.00899739,-0.0031785,-1.06067,0.00729243,0.0335169,1588,1716,10.3578,-46.9685
371,-692,10.4664,46.4176,0.000953107,0.00504421,-0.00579308,0.00914228,-0.00314497,-0.955116,0.00737034,0.0409543,1595,1716,10.4664,-46.4176
378,-692,10.5233,45.9185,0.00257887,0.00327675,-0.00643045,0.00936773,-0.0035121,-0.812503,0.00768807,0.0498094,1602,1716,10.5233,-45.9185
385,-692,10.2284,45.5067,0,0,0,0,0,0,0,-1,1609,1716,10.2284,-45.5067
392,-692,10.5931,45.0745,0,0,0,0,0,0,0,-1,1616,1716,10.5932,-45.0744
399,-692,10.8047,44.7429,0,0,0,0,0,0,0,-1,1623,1716,10.8047,-44.7429
406,-692,11.3221,42.7773,0,0,0,0,0,0,0,-1,1630,1716,11.3222,-42.7773
413,-692,11.4845,42.9004,0,0,0,0,0,0,0,-1,1637,1716,11.4845,-42.9004
420,-692,9.65894,40.2512,0,0,0,0,0,0,0,-1,1644,1716,9.65889,-40.2513
427,-692,3.79578,8.60339,0,0,0,0,0,0,0,-1,1651,1716,3.79577,-8.6034
434,-692,4.78516,8.64636,0,0,0,0,0,0,0,-1,1658,1716,4.78512,-8.64634
441,-692,5.8208,8.74036,0,0,0,0,0,0,0,-1,1665,1716,5.82084,-8.7404
448,-692,6.73792,8.51013,0,0,0,0,0,0,0,-1,1672,1716,6.73793,-8.5101
455,-692,0,0,0,0,0,0,0,0,0,-1,1679,1716,0,0
462,-692,0,0,0,0,0,0,0,0,0,-1,1686,1716,0,0
469,-692,0,0,0,0,0,0,0,0,0,-1,1693,1716,0,0
476,-692,0,0,0,0,0,0,0,0,0,-1,1700,1716,0,0
483,-692,0,0,0,0,0,0,0,0,0,-1,1707,1716,0,0
490,-692,0,0,0,0,0,0,0,0,0,-1,1714,1716,0,0
497,-692,0,0,0,0,0,0,0,0,0,-1,1721,1716,0,0
504,-692,0,0,0,0,0,0,0,0,0,-1,1728,1716,0,0
511,-692,0,0,0,0,0,0,0,0,0,-1,1735,1716,0,0
518,-692,0,0,0,0,0,0,0,0,0,-1,1742,1716,0,0
525,-692,0,0,0,0,0,0,0,0,0,-1,1749,1716,0,0
532,-692,0,0,0,0,0,0,0,0,0,-1,1756,1716,0,0
539,-692,0,0,0,0,0,0,0,0,0,-1,1763,1716,0,0
546,-692,0,0,0,0,0,0,0,0,0,-1,1770,1716,0,0
553,-692,0,0,0,0,0,0,0,0,0,-1,1777,1716,0,0
560,-692,0,0,0,0,0,0,0,0,0,-1,1784,1716,0,0
567,-692,0,0,0,0,0,0,0,0,0,-1,1791,1716,0,0
574,-692,0,0,0,0,0,0,0,0,0,-1,1798,1716,0,0
581,-692,0,0,0,0,0,0,0,0,0,-1,1805,1716,0,0
588,-692,0,0,0,0,0,0,0,0,0,-1,1812,1716,0,0
595,-692,0,0,0,0,0,0,0,0,0,-1,1819,1716,0,0
602,-692,0,0,0,0,0,0,0,0,0,-1,1826,1716,0,0
609,-692,0,0,0,0,0,0,0,0,0,-1,1833,1716,0,0
616,-692,0,0,0,0,0,0,0,0,0,-1,1840,1716,0,0
623,-692,0,0,0,0,0,0,0,0,0,-1,1847,1716,0,0
630,-692,0,0,0,0,0,0,0,0,0,-1,1854,1716,0,0
637,-692,0,0,0,0,0,0,0,0,0,-1,1861,1716,0,0
644,-692,0,0,0,0,0,0,0,0,0,-1,1868,1716,0,0
651,-692,0,0,0,0,0,0,0,0,0,-1,1875,1716,0,0
658,-692,0,0,0,0,0,0,0,0,0,-1,1882,1716,0,0
665,-692,0,0,0,0,0,0,0,0,0,-1,1889,1716,0,0
672,-692,0,0,0,0,0,0,0,0,0,-1,1896,1716,0,0
679,-692,0,0,0,0,0,0,0,0,0,-1,1903,1716,0,0
686,-692,0,0,0,0,0,0,0,0,0,-1,1910,1716,0,0
693,-692,0,0,0,0,0,0,0,0,0,-1,1917,1716,0,0
700,-692,0,0,0,0,0,0,0,0,0,-1,1924,1716,0,0
707,-692,0,0,0,0,0,0,0,0,0,-1,1931,1716,0,0
714,-692,0,0,0,0,0,0,0,0,0,-1,1938,1716,0,0
721,-692,0,0,0,0,0,0,0,0,0,-1,1945,1716,0,0
728,-692,0,0,0,0,0,0,0,0,0,-1,1952,1716,0,0
735,-692,0,0,0,0,0,0,0,0,0,-1,1959,1716,0,0
742,-692,0,0,0,0,0,0,0,0,0,-1,1966,1716,0,0
749,-692,0,0,0,0,0,0,0,0,0,-1,1973,1716,0,0
756,-692,0,0,0,0,0,0,0,0,0,-1,1980,1716,0,0
763,-692,0,0,0,0,0,0,0,0,0,-1,1987,1716,0,0
770,-692,0,0,0,0,0,0,0,0,0,-1,1994,1716,0,0
777,-692,0,0,0,0,0,0,0,0,0,-1,2001,1716,0,0
784,-692,0,0,0,0,0,0,0,0,0,-1,2008,1716,0,0
791,-692,0,0,0,0,0,0,0,0,0,-1,2015,1716,0,0
798,-692,0,0,0,0,0,0,0,0,0,-1,2022,1716,0,0
805,-692,0,0,0,0,0,0,0,0,0,-1,2029,1716,0,0
812,-692,0,0,0,0,0,0,0,0,0,-1,2036,1716,0,0
-700,-699,0,0,0,0,0,0,0,0,0,-1,524,1723,0,0
-693,-699,0,0,0,0,0,0,0,0,0,-1,531,1723,0,0
-686,-699,0,0,0,0,0,0,0,0,0,-1,538,1723,0,0
-679,-699,0,0,0,0,0,0,0,0,0,-1,545,1723,0,0
-672,-699,0,0,0,0,0,0,0,0,0,-1,552,1723,0,0
-665,-699,0,0,0,0,0,0,0,0,0,-1,559,1723,0,0
-658,-699,0,0,0,0,0,0,0,0,0,-1,566,1723,0,0
-651,-699,0,0,0,0,0,0,0,0,0,-1,573,1723,0,0
-644,-699,0,0,0,0,0,0,0,0,0,-1,580,1723,0,0
-637,-699,0,0,0,0,0,0,0,0,0,-1,587,1723,0,0
-630,-699,0,0,0,0,0,0,0,0,0,-1,594,1723,0,0
-623,-699,0,0,0,0,0,0,0,0,0,-1,601,1723,0,0
-616,-699,0,0,0,0,0,0,0,0,0,-1,608,1723,0,0
-609,-699,0,0,0,0,0,0,0,0,0,-1,615,1723,0,0
-602,-699,0,0,0,0,0,0,0,0,0,-1,622,1723,0,0
-595,-699,0,0,0,0,0,0,0,0,0,-1,629,1723,0,0
-588,-699,0,0,0,0,0,0,0,0,0,-1,636,1723,0,0
-581,-699,0,0,0,0,0,0,0,0,0,-1,643,1723,0,0
-574,-699,0,0,0,0,0,0,0,0,0,-1,650,1723,0,0
-567,-699,0,0,0,0,0,0,0,0,0,-1,657,1723,0,0
-560,-699,0,0,0,0,0,0,0,0,0,-1,664,1723,0,0
-553,-699,0,0,0,0,0,0,0,0,0,-1,671,1723,0,0
-546,-699,0,0,0,0,0,0,0,0,0,-1,678,1723,0,0
-539,-699,0,0,0,0,0,0,0,0,0,-1,685,1723,0,0
-532,-699,0,0,0,0,0,0,0,0,0,-1,692,1723,0,0
-525,-699,0,0,0,0,0,0,0,0,0,-1,699,1723,0,0
-518,-699,0,0,0,0,0,0,0,0,0,-1,706,1723,0,0
-511,-699,0,0,0,0,0,0,0,0,0,-1,713,1723,0,0
-504,-699,0,0,0,0,0,0,0,0,0,-1,720,1723,0,0
-497,-699,0,0,0,0,0,0,0,0,0,-1,727,1723,0,0
-490,-699,0,0,0,0,0,0,0,0,0,-1,734,1723,0,0
-483,-699,0,0,0,0,0,0,0,0,0,-1,741,1723,0,0
-476,-699,0,0,0,0,0,0,0,0,0,-1,748,1723,0,0
-469,-699,0,0,0,0,0,0,0,0,0,-1,755,1723,0,0
-462,-699,0,0,0,0,0,0,0,0,0,-1,762,1723,0,0
-455,-699,0,0,0,0,0,0,0,0,0,-1,769,1723,0,0
-448,-699,0,0,0,0,0,0,0,0,0,-1,776,1723,0,0
-441,-699,0,0,0,0,0,0,0,0,0,-1,783,1723,0,0
-434,-699,0,0,0,0,0,0,0,0,0,-1,790,1723,0,0
-427,-699,0,0,0,0,0,0,0,0,0,-1,797,1723,0,0
-420,-699,0,0,0,0,0,0,0,0,0,-1,804,1723,0,0
-413,-699,0,0,0,0,0,0,0,0,0,-1,811,1723,0,0
-406,-699,0,0,0,0,0,0,0,0,0,-1,818,1723,0,0
-399,-699,0,0,0,0,0,0,0,0,0,-1,825,1723,0,0
-392,-699,0,0,0,0,0,0,0,0,0,-1,832,1723,0,0
-385,-699,0,0,0,0,0,0,0,0,0,-1,839,1723,0,0
-378,-699,0,0,0,0,0,0,0,0,0,-1,846,1723,0,0
-371,-699,0,0,0,0,0,0,0,0,0,-1,853,1723,0,0
-364,-699,0,0,0,0,0,0,0,0,0,-1,860,1723,0,0
-357,-699,0,0,0,0,0,0,0,0,0,-1,867,1723,0,0
-350,-699,0,0,0,0,0,0,0,0,0,-1,874,1723,0,0
-343,-699,0,0,0,0,0,0,0,0,0,-1,881,1723,0,0
-336,-699,0,0,0,0,0,0,0,0,0,-1,888,1723,0,0
-329,-699,0,0,0,0,0,0,0,0,0,-1,895,1723,0,0
-322,-699,0,0,0,0,0,0,0,0,0,-1,902,1723,0,0
-315,-699,6.20001,19.5193,0,0,0,0,0,0,0,-1,909,1723,6.20001,-19.5193
-308,-699,6.98151,18.9218,0,0,0,0,0,0,0,-1,916,1723,6.98151,-18.9217
-301,-699,4.72729,12.8752,0,0,0,0,0,0,0,-1,923,1723,4.72732,-12.8752
-294,-699,6.90332,19.8601,0,0,0,0,0,0,0,-1,930,1723,6.90332,-19.8601
-287,-699,9.0968,36.3315,0,0,0,0,0,0,0,-1,937,1723,9.09678,-36.3315
-280,-699,9.53729,45.2391,0,0,0,0,0,0,0,-1,944,1723,9.53728,-45.2391
-273,-699,10.2987,33.8755,0,0,0,0,0,0,0,-1,951,1723,10.2987,-33.8755
-266,-699,6.81915,20.8951,0,0,0,0,0,0,0,-1,958,1723,6.81914,-20.8952
-259,-699,5.39758,14.5466,0,0,0,0,0,0,0,-1,965,1723,5.39759,-14.5466
-252,-699,8.3866,31.6284,0,0,0,0,0,0,0,-1,972,1723,8.38657,-31.6284
-245,-699,8.45221,46.0125,0,0,0,0,0,0,0,-1,979,1723,8.45222,-46.0124
-238,-699,7.80939,47.4918,0,0,0,0,0,0,0,-1,986,1723,7.80939,-47.4918
-231,-699,8.10297,47.6862,-0.00487035,-0.00500131,0.00429001,-0.000645317,-0.00922634,0.777767,0.00594747,0.0458722,993,1723,8.10295,-47.6861
-224,-699,8.33594,48.1165,-0.00146775,-0.0017335,0.00435993,0.00276133,-0.00596258,0.770165,0.00514855,0.0390128,1000,1723,8.33594,-48.1164
-217,-699,8.32697,48.6189,-0.000148446,0.000320982,0.00398769,0.00408086,-0.00390833,0.814794,0.00461292,0.0257821,1007,1723,8.32695,-48.6188
-210,-699,8.2868,49.1609,-2.91622e-07,0.00115473,0.00402966,0.00464805,-0.00349362,0.856571,0.00471632,0.0186737,1014,1723,8.28683,-49.1609
-203,-699,8.276,49.7314,-0.000152327,0.00133309,0.00402604,0.00468435,-0.00350359,0.876611,0.00474367,0.0232421,1021,1723,8.27596,-49.7315
-196,-699,8.20471,50.3021,-0.000317239,0.00115414,0.00383327,0.00432168,-0.00348478,0.880207,0.00451568,0.01907,1028,1723,8.20469,-50.3021
-189,-699,8.14441,50.774,-0.00031897,0.00101088,0.00369366,0.00409899,-0.00340708,0.874453,0.00433977,0.00976732,1035,1723,8.14444,-50.7741
-182,-699,8.11633,51.2466,-0.000229326,0.000986643,0.00350918,0.00394012,-0.0031828,0.871174,0.00412016,0.0123811,1042,1723,8.11629,-51.2466
-175,-699,8.09094,51.7756,-0.000210693,0.00111677,0.00320274,0.00372382,-0.00281775,0.887571,0.00378884,0.0145371,1049,1723,8.09094,-51.7757
-168,-699,8.07483,52.2587,-0.000149289,0.0012034,0.00306935,0.00367004,-0.00261593,0.893842,0.00364618,0.0157547,1056,1723,8.07483,-52.2586
-161,-699,8.05823,52.7119,-8.14972e-05,0.00131144,0.00278193,0.00348276,-0.00225281,0.908055,0.00333672,0.0138643,1063,1723,8.05822,-52.7119
-154,-699,8.01086,53.1959,6.13349e-06,0.00168278,0.00239557,0.00338248,-0.00169357,0.953712,0.00298424,0.0141169,1070,1723,8.0109,-53.196
-147,-699,7.97693,53.6312,0.000161747,0.00204228,0.00202147,0.00333146,-0.00112743,1.00308,0.00267713,0.0162174,1077,1723,7.97698,-53.6312
-140,-699,7.95044,54.0562,0.000408335,0.00226167,0.0016548,0.0032316,-0.000561595,1.04064,0.00236394,0.0109311,1084,1723,7.95038,-54.0561
-133,-699,7.94983,54.4962,0.00064794,0.00242448,0.0012916,0.00310377,-3.13527e-05,1.08662,0.00207971,0.00940488,1091,1723,7.94986,-54.4962
-126,-699,7.95508,54.9025,0.000848915,0.00255388,0.000954696,0.00298131,0.000421487,1.14985,0.001863,0.0123627,1098,1723,7.95505,-54.9025
-119,-699,7.91345,55.2993,0.0012689,0.00257279,0.000740893,0.00290773,0.00093395,1.14621,0.00171419,0.0186842,1105,1723,7.91347,-55.2993
-112,-699,7.91187,55.6846,0.00171811,0.00248493,0.000520929,0.00274834,0.00145471,1.10264,0.00158766,0.0128754,1112,1723,7.91191,-55.6846
-105,-699,7.91333,56.0767,0.00208887,0.00217691,0.000329941,0.00246576,0.00180003,0.851717,0.00147296,0.013664,1119,1723,7.9133,-56.0767
-98,-699,7.96289,56.4169,0.0024624,0.00182384,0.000172069,0.00250581,0.00178043,0.247154,0.00148886,0.0157669,1126,1723,7.96285,-56.4168
-91,-699,7.99255,56.7484,0.00286138,0.00156702,-0.000113305,0.00287122,0.00155718,-0.0866594,0.00165968,0.0220953,1133,1723,7.99261,-56.7484
-84,-699,8.04016,57.1344,0.00335926,0.00126777,-0.000395211,0.00343145,0.00119558,-0.180666,0.00201126,0.0261898,1140,1723,8.04015,-57.1344
-77,-699,8.01672,57.4388,0.00385973,0.000941065,-0.000666016,0.00400452,0.000796269,-0.214075,0.00244782,0.0172136,1147,1723,8.01673,-57.4388
-70,-699,8.03772,57.7231,0.00422878,0.000637366,-0.000908958,0.00444573,0.000420421,-0.234291,0.00283409,0.0176928,1154,1723,8.03766,-57.7231
-63,-699,8.08594,58.0292,0.00357366,0.00257121,-5.20671e-05,0.00357636,0.00256851,-0.051754,0.00212934,0.0153284,1161,1723,8.08593,-58.0292
-56,-699,8.07422,58.2853,0.00292981,0.00387674,0.000738729,0.00428071,0.00252584,1.07038,0.00248479,0.0117427,1168,1723,8.07419,-58.2853
-49,-699,8.07556,58.5978,0.00279109,0.00451475,0.00110279,0.00505252,0.00225331,1.11708,0.00292275,0.0251258,1175,1723,8.0756,-58.5978
-42,-699,8.08557,58.9498,0.00343933,0.00756884,0.00188703,0.00830125,0.00270693,1.20057,0.00488841,0.0279015,1182,1723,8.08561,-58.9498
-35,-699,8.1748,59.1571,0.00394023,0.0104315,0.0023647,0.0112016,0.00317015,1.25597,0.00666715,0.0256688,1189,1723,8.17481,-59.1571
-28,-699,8.28589,59.3036,0.00427232,0.0120518,0.00251409,0.0127936,0.00353057,1.2839,0.00762953,0.0215901,1196,1723,8.28585,-59.3036
-21,-699,8.32056,59.3961,0.00403585,0.0144704,0.00303374,0.0152883,0.00321794,1.30745,0.00930687,0.0148292,1203,1723,8.3206,-59.3961
-14,-699,8.35437,59.5841,0.00338901,0.0161615,0.00354797,0.0170809,0.00246962,1.31724,0.0106599,0.0128339,1210,1723,8.35442,-59.5841
-7,-699,8.41089,59.7814,0.00265274,0.0173934,0.00393817,0.0183795,0.00166657,1.32543,0.011737,0.00984572,1217,1723,8.41088,-59.7813
0,-699,8.49683,59.9357,0.00221109,0.0180132,0.00405026,0.0189908,0.00123345,1.33395,0.0122701,0.0132466,1224,1723,8.4968,-59.9357
7,-699,8.61755,59.995,0.00196545,0.0187286,0.00373532,0.0195233,0.00117078,1.36118,0.0126434,0.0225109,1231,1723,8.61759,-59.995
14,-699,8.70166,60.1233,0.00133432,0.019149,0.00373276,0.0198995,0.000583801,1.37238,0.0130761,0.0234309,1238,1723,8.70166,-60.1232
21,-699,8.6781,60.2415,0.000599952,0.0179261,0.00363686,0.0186586,-0.00013248,1.37206,0.0124834,0.0190988,1245,1723,8.67815,-60.2414
28,-699,8.73779,60.3018,0.000192306,0.0165698,0.00318444,0.0171672,-0.000405085,1.38535,0.0115822,0.0177163,1252,1723,8.73784,-60.3018
35,-699,8.82874,60.4194,-7.60356e-05,0.0135685,0.00211398,0.0138885,-0.000396053,1.42056,0.00939383,0.0153581,1259,1723,8.82873,-60.4195
42,-699,8.90552,60.4847,-0.000343804,0.00999474,0.000688619,0.0100404,-0.000389469,1.50458,0.00682713,0.0139072,1266,1723,8.90557,-60.4848
49,-699,8.96228,60.5359,-0.000566628,0.00628065,-0.000944704,0.0064086,-0.000694575,-1.43618,0.00452174,0.0163715,1273,1723,8.96233,-60.5358
56,-699,9.05566,60.5785,-0.000559853,0.00268924,-0.00219718,0.00379723,-0.00166784,-1.10373,0.00323411,0.0169767,1280,1723,9.05567,-60.5785
63,-699,9.13123,60.5352,-7.40264e-05,-0.0012489,-0.00334717,0.00273686,-0.00405979,-0.698531,0.00394875,0.0155833,1287,1723,9.13123,-60.5352
70,-699,9.1825,60.5421,0.000867995,-0.00480096,-0.00428633,0.00317228,-0.00710525,-0.493265,0.00607684,0.0137331,1294,1723,9.18246,-60.5421
77,-699,9.24805,60.496,0.00184664,-0.0074825,-0.00505872,0.00406312,-0.00969898,-0.412956,0.00816462,0.0134169,1301,1723,9.24799,-60.496
84,-699,9.32629,60.4197,0.00319544,-0.0102713,-0.0058024,0.00535061,-0.0124265,-0.355635,0.0105311,0.0165789,1308,1723,9.32633,-60.4197
91,-699,9.40613,60.3807,0.00449315,-0.0117497,-0.00616379,0.00656731,-0.0138238,-0.324604,0.0120188,0.0164026,1315,1723,9.40611,-60.3807
98,-699,9.46228,60.3054,0.00561499,-0.0125959,-0.00601835,0.0074242,-0.0144052,-0.292021,0.0128162,0.0136575,1322,1723,9.46226,-60.3055
105,-699,9.52527,60.2301,0.0062643,-0.0123519,-0.0051666,0.00760207,-0.0136897,-0.253361,0.0124592,0.017554,1329,1723,9.52531,-60.2302
112,-699,9.61475,60.1466,0.00661571,-0.0123467,-0.00401327,0.00743011,-0.0131611,-0.20021,0.0120408,0.0237443,1336,1723,9.61477,-60.1466
119,-699,9.62109,60.0112,0.00713543,-0.0120425,-0.0032972,0.00768647,-0.0125936,-0.165594,0.0118224,0.0175666,1343,1723,9.62106,-60.0112
126,-699,9.7135,59.8563,0.00741566,-0.0112967,-0.00272906,0.00780555,-0.0116866,-0.141906,0.0113279,0.0191796,1350,1723,9.71355,-59.8563
133,-699,9.83801,59.714,0.0070758,-0.011408,-0.00209095,0.00730938,-0.0116416,-0.11125,0.0110362,0.0169352,1357,1723,9.83801,-59.714
140,-699,9.88123,59.525,0.00659199,-0.0104389,-0.00116492,0.0066713,-0.0105183,-0.0679786,0.0100069,0.0178222,1364,1723,9.88117,-59.525
147,-699,9.94739,59.4088,0,0,0,0,0,0,0,-1,1371,1723,9.94742,-59.4088
154,-699,9.6394,59.1467,0,0,0,0,0,0,0,-1,1378,1723,9.63937,-59.1467
161,-699,9.95593,58.9631,0.00618939,-0.0094928,0.000500591,0.00620535,-0.00950876,0.0318777,0.00913913,0.0303377,1385,1723,9.95592,-58.9632
168,-699,10.0657,58.7416,0.0041771,-0.00878137,0.00028407,0.00418333,-0.00878759,0.0219076,0.00764441,0.0118689,1392,1723,10.0657,-58.7416
175,-699,10.1217,58.5226,0.00213268,-0.00754554,0.000402917,0.00214943,-0.00756228,0.0415355,0.00589021,0.0183582,1399,1723,10.1217,-58.5225
182,-699,10.1478,58.2598,0.00253335,-0.00542962,0.000303919,0.00254493,-0.0054412,0.0380927,0.00471079,0.0196924,1406,1723,10.1478,-58.2598
189,-699,10.1333,57.9574,0.00309655,-0.00361234,0.000196068,0.00310228,-0.00361806,0.0291918,0.0038838,0.0168411,1413,1723,10.1332,-57.9574
196,-699,10.1251,57.5953,0.00441596,-0.00152174,0.000284833,0.00442959,-0.00153537,0.047824,0.00357645,0.0197564,1420,1723,10.1251,-57.5953
203,-699,10.1383,57.2953,0.0050356,5.37018e-05,0.00030742,0.00505449,3.48035e-05,0.0613969,0.00335812,0.0162983,1427,1723,10.1384,-57.2953
210,-699,10.2124,57.0298,0.00452609,0.000280226,2.29855e-05,0.00452621,0.000280102,0.00541342,0.00292858,0.0138502,1434,1723,10.2124,-57.0297
217,-699,10.2411,56.684,0.00398698,0.00047795,-0.000158749,0.00399415,0.000470782,-0.0451171,0.00252054,0.0138066,1441,1723,10.2411,-56.684
224,-699,10.2328,56.3528,0.00346138,0.000733136,-0.000375637,0.00351215,0.000682361,-0.134355,0.00215038,0.0156583,1448,1723,10.2328,-56.3528
231,-699,10.2529,55.9917,0.00290226,0.00100064,-0.000631563,0.0030929,0.000809997,-0.293159,0.00185195,0.0126409,1455,1723,10.2529,-55.9917
238,-699,10.2467,55.579,0.00243225,0.00120446,-0.000815188,0.00283885,0.000797865,-0.462665,0.00169058,0.0104939,1462,1723,10.2467,-55.579
245,-699,10.2469,55.1936,0.00204005,0.00142138,-0.000980034,0.00275841,0.000703023,-0.632528,0.00165514,0.0122499,1469,1723,10.247,-55.1936
252,-699,10.2557,54.8296,0.00160845,0.00169805,-0.00105296,0.00270717,0.000599336,-0.80666,0.00164188,0.0114245,1476,1723,10.2557,-54.8296
259,-699,10.2394,54.4352,0.00110106,0.00187706,-0.00112976,0.00268359,0.000294535,-0.950806,0.00169941,0.0116957,1483,1723,10.2394,-54.4352
266,-699,10.213,54.0002,0.000648779,0.00192905,-0.00128641,0.0027258,-0.000147965,-1.01627,0.00186847,0.0130822,1490,1723,10.2131,-54.0002
273,-699,10.2096,53.5535,0.000267264,0.00205559,-0.00140342,0.0028255,-0.000502642,-1.06904,0.00207164,0.0123314,1497,1723,10.2097,-53.5535
280,-699,10.2029,53.1046,-0.000204404,0.00216794,-0.001514,0.00290509,-0.000941561,-1.11769,0.0023153,0.0119916,1504,1723,10.2028,-53.1046
287,-699,10.1938,52.6692,-0.000748247,0.00242548,-0.00159555,0.00308893,-0.0014117,-1.17673,0.0026579,0.0101818,1511,1723,10.1939,-52.6692
294,-699,10.1694,52.2207,-0.00131493,0.00307359,-0.00163129,0.00361353,-0.00185488,-1.25115,0.00321115,0.0105394,1518,1723,10.1694,-52.2207
301,-699,10.1517,51.7839,-0.00185958,0.00358562,-0.00189092,0.00417786,-0.00245181,-1.26727,0.00387064,0.0129198,1525,1723,10.1517,-51.7839
308,-699,10.1307,51.3152,-0.00247804,0.00461976,-0.00227378,0.00528569,-0.00314397,-1.28589,0.00491895,0.0180084,1532,1723,10.1308,-51.3152
315,-699,10.1036,50.7708,-0.00312369,0.00552687,-0.00247126,0.00618307,-0.00377989,-1.31125,0.00580763,0.0203621,1539,1723,10.1036,-50.7707
322,-699,10.0591,50.2522,-0.00358653,0.00673485,-0.00288013,0.00748414,-0.00433582,-1.31628,0.00690447,0.0199247,1546,1723,10.0591,-50.2521
329,-699,9.9978,49.7515,-0.00398278,0.0079465,-0.0033802,0.00883771,-0.00487399,-1.31301,0.00802595,0.015579,1553,1723,9.99775,-49.7515
336,-699,9.95386,49.2739,-0.00424846,0.00915443,-0.00386023,0.0101867,-0.00528076,-1.30949,0.00907865,0.0176116,1560,1723,9.95386,-49.2739
343,-699,9.99109,48.7842,-0.00413626,0.0101086,-0.00442846,0.0113731,-0.00540074,-1.29266,0.00988687,0.0279064,1567,1723,9.99114,-48.7842
350,-699,10.0206,48.1919,-0.00360468,0.0105985,-0.00510958,0.0122456,-0.00525183,-1.25895,0.0103677,0.0446366,1574,1723,10.0206,-48.1919
357,-699,9.9679,47.3387,-0.00257598,0.0106417,-0.00578712,0.0128174,-0.00475165,-1.21119,0.0104938,0.0480355,1581,1723,9.96789,-47.3388
364,-699,9.77258,46.9856,-0.000978777,0.00975825,-0.00666936,0.0129514,-0.00417188,-1.12427,0.0103102,0.043045,1588,1723,9.77254,-46.9856
371,-699,10.015,46.5804,0,0,0,0,0,0,0,-1,1595,1723,10.0151,-46.5804
378,-699,10.1521,46.0675,0,0,0,0,0,0,0,-1,1602,1723,10.1522,-46.0676
385,-699,8.04944,42.8464,0,0,0,0,0,0,0,-1,1609,1723,8.04943,-42.8464
392,-699,8.04492,42.0624,0,0,0,0,0,0,0,-1,1616,1723,8.04492,-42.0623
399,-699,8.49963,41.4828,0,0,0,0,0,0,0,-1,1623,1723,8.49961,-41.4828
406,-699,11.7264,44.1525,0,0,0,0,0,0,0,-1,1630,1723,11.7264,-44.1525
413,-699,12.3215,44.3011,0,0,0,0,0,0,0,-1,1637,1723,12.3215,-44.3011
420,-699,8.41907,38.2246,0,0,0,0,0,0,0,-1,1644,1723,8.41902,-38.2247
427,-699,2.98743,11.8593,0,0,0,0,0,0,0,-1,1651,1723,2.98746,-11.8592
434,-699,4.66455,8.90222,0,0,0,0,0,0,0,-1,1658,1723,4.66456,-8.90223
441,-699,0,0,0,0,0,0,0,0,0,-1,1665,1723,0,0
448,-699,0,0,0,0,0,0,0,0,0,-1,1672,1723,0,0
455,-699,0,0,0,0,0,0,0,0,0,-1,1679,1723,0,0
462,-699,0,0,0,0,0,0,0,0,0,-1,1686,1723,0,0
469,-699,0,0,0,0,0,0,0,0,0,-1,1693,1723,0,0
476,-699,0,0,0,0,0,0,0,0,0,-1,1700,1723,0,0
483,-699,0,0,0,0,0,0,0,0,0,-1,1707,1723,0,0
490,-699,0,0,0,0,0,0,0,0,0,-1,1714,1723,0,0
497,-699,0,0,0,0,0,0,0,0,0,-1,1721,1723,0,0
504,-699,0,0,0,0,0,0,0,0,0,-1,1728,1723,0,0
511,-699,0,0,0,0,0,0,0,0,0,-1,1735,1723,0,0
518,-699,0,0,0,0,0,0,0,0,0,-1,1742,1723,0,0
525,-699,0,0,0,0,0,0,0,0,0,-1,1749,1723,0,0
532,-699,0,0,0,0,0,0,0,0,0,-1,1756,1723,0,0
539,-699,0,0,0,0,0,0,0,0,0,-1,1763,1723,0,0
546,-699,0,0,0,0,0,0,0,0,0,-1,1770,1723,0,0
553,-699,0,0,0,0,0,0,0,0,0,-1,1777,1723,0,0
560,-699,0,0,0,0,0,0,0,0,0,-1,1784,1723,0,0
567,-699,0,0,0,0,0,0,0,0,0,-1,1791,1723,0,0
574,-699,0,0,0,0,0,0,0,0,0,-1,1798,1723,0,0
581,-699,0,0,0,0,0,0,0,0,0,-1,1805,1723,0,0
588,-699,0,0,0,0,0,0,0,0,0,-1,1812,1723,0,0
595,-699,0,0,0,0,0,0,0,0,0,-1,1819,1723,0,0
602,-699,0,0,0,0,0,0,0,0,0,-1,1826,1723,0,0
609,-699,0,0,0,0,0,0,0,0,0,-1,1833,1723,0,0
616,-699,0,0,0,0,0,0,0,0,0,-1,1840,1723,0,0
623,-699,0,0,0,0,0,0,0,0,0,-1,1847,1723,0,0
630,-699,0,0,0,0,0,0,0,0,0,-1,1854,1723,0,0
637,-699,0,0,0,0,0,0,0,0,0,-1,1861,1723,0,0
644,-699,0,0,0,0,0,0,0,0,0,-1,1868,1723,0,0
651,-699,0,0,0,0,0,0,0,0,0,-1,1875,1723,0,0
658,-699,0,0,0,0,0,0,0,0,0,-1,1882,1723,0,0
665,-699,0,0,0,0,0,0,0,0,0,-1,1889,1723,0,0
672,-699,0,0,0,0,0,0,0,0,0,-1,1896,1723,0,0
679,-699,0,0,0,0,0,0,0,0,0,-1,1903,1723,0,0
686,-699,0,0,0,0,0,0,0,0,0,-1,1910,1723,0,0
693,-699,0,0,0,0,0,0,0,0,0,-1,1917,1723,0,0
700,-699,0,0,0,0,0,0,0,0,0,-1,1924,1723,0,0
707,-699,0,0,0,0,0,0,0,0,0,-1,1931,1723,0,0
714,-699,0,0,0,0,0,0,0,0,0,-1,1938,1723,0,0
721,-699,0,0,0,0,0,0,0,0,0,-1,1945,1723,0,0
728,-699,0,0,0,0,0,0,0,0,0,-1,1952,1723,0,0
735,-699,0,0,0,0,0,0,0,0,0,-1,1959,1723,0,0
742,-699,0,0,0,0,0,0,0,0,0,-1,1966,1723,0,0
749,-699,0,0,0,0,0,0,0,0,0,-1,1973,1723,0,0
756,-699,0,0,0,0,0,0,0,0,0,-1,1980,1723,0,0
763,-699,0,0,0,0,0,0,0,0,0,-1,1987,1723,0,0
770,-699,0,0,0,0,0,0,0,0,0,-1,1994,1723,0,0
777,-699,0,0,0,0,0,0,0,0,0,-1,2001,1723,0,0
784,-699,0,0,0,0,0,0,0,0,0,-1,2008,1723,0,0
791,-699,0,0,0,0,0,0,0,0,0,-1,2015,1723,0,0
798,-699,0,0,0,0,0,0,0,0,0,-1,2022,1723,0,0
805,-699,0,0,0,0,0,0,0,0,0,-1,2029,1723,0,0
812,-699,0,0,0,0,0,0,0,0,0,-1,2036,1723,0,0
-700,-706,0,0,0,0,0,0,0,0,0,-1,524,1730,0,0
-693,-706,0,0,0,0,0,0,0,0,0,-1,531,1730,0,0
-686,-706,0,0,0,0,0,0,0,0,0,-1,538,1730,0,0
-679,-706,0,0,0,0,0,0,0,0,0,-1,545,1730,0,0
-672,-706,0,0,0,0,0,0,0,0,0,-1,552,1730,0,0
-665,-706,0,0,0,0,0,0,0,0,0,-1,559,1730,0,0
-658,-706,0,0,0,0,0,0,0,0,0,-1,566,1730,0,0
-651,-706,0,0,0,0,0,0,0,0,0,-1,573,1730,0,0
-644,-706,0,0,0,0,0,0,0,0,0,-1,580,1730,0,0
-637,-706,0,0,0,0,0,0,0,0,0,-1,587,1730,0,0
-630,-706,0,0,0,0,0,0,0,0,0,-1,594,1730,0,0
-623,-706,0,0,0,0,0,0,0,0,0,-1,601,1730,0,0
-616,-706,0,0,0,0,0,0,0,0,0,-1,608,1730,0,0
-609,-706,0,0,0,0,0,0,0,0,0,-1,615,1730,0,0
-602,-706,0,0,0,0,0,0,0,0,0,-1,622,1730,0,0
-595,-706,0,0,0,0,0,0,0,0,0,-1,629,1730,0,0
-588,-706,0,0,0,0,0,0,0,0,0,-1,636,1730,0,0
-581,-706,0,0,0,0,0,0,0,0,0,-1,643,1730,0,0
-574,-706,0,0,0,0,0,0,0,0,0,-1,650,1730,0,0
-567,-706,0,0,0,0,0,0,0,0,0,-1,657,1730,0,0
-560,-706,0,0,0,0,0,0,0,0,0,-1,664,1730,0,0
-553,-706,0,0,0,0,0,0,0,0,0,-1,671,1730,0,0
-546,-706,0,0,0,0,0,0,0,0,0,-1,678,1730,0,0
-539,-706,0,0,0,0,0,0,0,0,0,-1,685,1730,0,0
-532,-706,0,0,0,0,0,0,0,0,0,-1,692,1730,0,0
-525,-706,0,0,0,0,0,0,0,0,0,-1,699,1730,0,0
-518,-706,0,0,0,0,0,0,0,0,0,-1,706,1730,0,0
-511,-706,0,0,0,0,0,0,0,0,0,-1,713,1730,0,0
-504,-706,0,0,0,0,0,0,0,0,0,-1,720,1730,0,0
-497,-706,0,0,0,0,0,0,0,0,0,-1,727,1730,0,0
-490,-706,0,0,0,0,0,0,0,0,0,-1,734,1730,0,0
-483,-706,0,0,0,0,0,0,0,0,0,-1,741,1730,0,0
-476,-706,0,0,0,0,0,0,0,0,0,-1,748,1730,0,0
-469,-706,0,0,0,0,0,0,0,0,0,-1,755,1730,0,0
-462,-706,0,0,0,0,0,0,0,0,0,-1,762,1730,0,0
-455,-706,0,0,0,0,0,0,0,0,0,-1,769,1730,0,0
-448,-706,0,0,0,0,0,0,0,0,0,-1,776,1730,0,0
-441,-706,0,0,0,0,0,0,0,0,0,-1,783,1730,0,0
-434,-706,0,0,0,0,0,0,0,0,0,-1,790,1730,0,0
-427,-706,0,0,0,0,0,0,0,0,0,-1,797,1730,0,0
-420,-706,0,0,0,0,0,0,0,0,0,-1,804,1730,0,0
-413,-706,0,0,0,0,0,0,0,0,0,-1,811,1730,0,0
-406,-706,0,0,0,0,0,0,0,0,0,-1,818,1730,0,0
-399,-706,0,0,0,0,0,0,0,0,0,-1,825,1730,0,0
-392,-706,0,0,0,0,0,0,0,0,0,-1,832,1730,0,0
-385,-706,0,0,0,0,0,0,0,0,0,-1,839,1730,0,0
-378,-706,0,0,0,0,0,0,0,0,0,-1,846,1730,0,0
-371,-706,0,0,0,0,0,0,0,0,0,-1,853,1730,0,0
-364,-706,0,0,0,0,0,0,0,0,0,-1,860,1730,0,0
-357,-706,0,0,0,0,0,0,0,0,0,-1,867,1730,0,0
-350,-706,0,0,0,0,0,0,0,0,0,-1,874,1730,0,0
-343,-706,0,0,0,0,0,0,0,0,0,-1,881,1730,0,0
-336,-706,0,0,0,0,0,0,0,0,0,-1,888,1730,0,0
-329,-706,0,0,0,0,0,0,0,0,0,-1,895,1730,0,0
-322,-706,0,0,0,0,0,0,0,0,0,-1,902,1730,0,0
-315,-706,0,0,0,0,0,0,0,0,0,-1,909,1730,0,0
-308,-706,5.08191,14.6245,0,0,0,0,0,0,0,-1,916,1730,5.08188,-14.6245
-301,-706,7.45007,21.1975,0,0,0,0,0,0,0,-1,923,1730,7.45005,-21.1976
-294,-706,11.8603,21.026,0,0,0,0,0,0,0,-1,930,1730,11.8603,-21.026
-287,-706,10.3292,20.8425,0,0,0,0,0,0,0,-1,937,1730,10.3292,-20.8425
-280,-706,7.9162,21.8951,0,0,0,0,0,0,0,-1,944,1730,7.9162,-21.8952
-273,-706,7.38953,20.6355,0,0,0,0,0,0,0,-1,951,1730,7.38955,-20.6355
-266,-706,9.66724,22.8231,0,0,0,0,0,0,0,-1,958,1730,9.66722,-22.8231
-259,-706,3.47852,20.7363,0,0,0,0,0,0,0,-1,965,1730,3.47851,-20.7364
-252,-706,3.84259,20.1979,0,0,0,0,0,0,0,-1,972,1730,3.84256,-20.1979
-245,-706,4.698,19.2992,0,0,0,0,0,0,0,-1,979,1730,4.69799,-19.2991
-238,-706,8.12567,36.8694,0,0,0,0,0,0,0,-1,986,1730,8.12568,-36.8694
-231,-706,8.96204,47.981,0,0,0,0,0,0,0,-1,993,1730,8.96206,-47.981
-224,-706,8.93896,48.2316,-0.000733077,-0.00162485,0.00528522,0.00412503,-0.00648296,0.743315,0.00617475,0.0451863,1000,1730,8.93896,-48.2316
-217,-706,8.88208,48.5081,0.000599325,0.00063807,0.00507802,0.00569676,-0.00445936,0.787306,0.00587813,0.0409537,1007,1730,8.88209,-48.5081
-210,-706,8.75623,49.1772,0.000645188,0.00147394,0.00529777,0.00637351,-0.00425439,0.824427,0.00617654,0.0390406,1014,1730,8.75622,-49.1772
-203,-706,8.73682,49.7148,0.000408423,0.00157284,0.00539464,0.0064166,-0.00443534,0.839152,0.00630008,0.0323914,1021,1730,8.7368,-49.7149
-196,-706,8.7467,50.1947,6.57399e-05,0.00132615,0.00522899,0.00596277,-0.00457088,0.84537,0.00609928,0.025877,1028,1730,8.74671,-50.1947
-189,-706,8.62024,50.7355,-0.000120541,0.00109986,0.0050867,0.00561283,-0.00463351,0.845093,0.00592472,0.0217357,1035,1730,8.6202,-50.7354
-182,-706,8.57056,51.274,-0.000223441,0.000966831,0.00483616,0.00524433,-0.00450094,0.84662,0.00563189,0.0167226,1042,1730,8.57055,-51.2741
-175,-706,8.56482,51.7864,-0.000453126,0.00103023,0.00441386,0.00476429,-0.00418718,0.868638,0.00517171,0.0162449,1049,1730,8.56485,-51.7864
-168,-706,8.54016,52.2615,-0.000585051,0.0010664,0.00420138,0.00452243,-0.00404108,0.88243,0.00494675,0.0169599,1056,1730,8.5401,-52.2615
-161,-706,8.49597,52.7208,-0.000704628,0.00113453,0.00378595,0.00411098,-0.00368108,0.904538,0.00450103,0.0135892,1063,1730,8.49591,-52.7209
-154,-706,8.45007,53.213,-0.000804178,0.00152105,0.00326658,0.00382574,-0.00310888,0.956364,0.00401083,0.0131694,1070,1730,8.45008,-53.213
-147,-706,8.40942,53.6403,-0.000817779,0.00187735,0.00278428,0.00362303,-0.00256346,1.01078,0.00358919,0.0127826,1077,1730,8.4094,-53.6403
-140,-706,8.39575,54.0808,-0.000706636,0.00211697,0.00234184,0.00343965,-0.00202931,1.05666,0.00319231,0.0121139,1084,1730,8.39576,-54.0809
-133,-706,8.37292,54.4982,-0.000592349,0.00230114,0.00188728,0.0032324,-0.0015236,1.11241,0.00280433,0.00973093,1091,1730,8.3729,-54.4982
-126,-706,8.35217,54.8905,-0.000572958,0.00251717,0.00148056,0.00311204,-0.00116782,1.18876,0.00255455,0.0146912,1098,1730,8.35222,-54.8905
-119,-706,8.31763,55.3074,-0.000237637,0.00258907,0.00125818,0.00306796,-0.000716527,1.20711,0.00232131,0.0183326,1105,1730,8.31766,-55.3073
-112,-706,8.31079,55.7029,0.000211953,0.00265525,0.00102366,0.00302744,-0.000160232,1.22207,0.00207377,0.0125451,1112,1730,8.31084,-55.7028
-105,-706,8.31189,56.0924,0.000559292,0.00247415,0.000847549,0.00279539,0.000238046,1.2085,0.00178953,0.0104298,1119,1730,8.31189,-56.0924
-98,-706,8.32495,56.421,0.000932516,0.00222438,0.000745849,0.00256512,0.000591778,1.14226,0.00155092,0.0127295,1126,1730,8.32494,-56.421
-91,-706,8.34265,56.7887,0.00137581,0.0020421,0.000593275,0.00238937,0.00102854,1.04123,0.00138394,0.0164155,1133,1730,8.3427,-56.7886
-84,-706,8.33228,57.1644,0.00180685,0.00182678,0.000372491,0.00218944,0.00144419,0.798771,0.00128536,0.0188587,1140,1730,8.33225,-57.1644
-77,-706,8.31628,57.4326,0.00221819,0.00162157,0.000155074,0.00225609,0.00158367,0.239697,0.0013375,0.0167304,1147,1730,8.31629,-57.4326
-70,-706,8.32861,57.7533,0.00257627,0.00138143,-6.80105e-05,0.00258013,0.00137757,-0.0566763,0.00149078,0.0185874,1154,1730,8.32866,-57.7533
-63,-706,8.34558,58.0555,0.0024605,0.00206509,0.000236257,0.00257086,0.00195473,0.436999,0.00154991,0.0142361,1161,1730,8.34563,-58.0556
-56,-706,8.34131,58.3065,0.00229651,0.00250771,0.000551302,0.00296344,0.00184079,0.880024,0.00172761,0.0140763,1168,1730,8.34127,-58.3065
-49,-706,8.33643,58.5801,0.00234915,0.00264993,0.000658549,0.00317504,0.00182404,0.897653,0.00183988,0.0151559,1175,1730,8.33642,-58.58
-42,-706,8.39258,58.8507,0.00278264,0.00400941,0.000912571,0.00449558,0.00229647,1.08129,0.00259573,0.0193515,1182,1730,8.39256,-58.8508
-35,-706,8.41968,59.061,0.00319012,0.00547231,0.00106481,0.00589196,0.00277047,1.19538,0.00340373,0.0179479,1189,1730,8.4197,-59.0611
-28,-706,8.45715,59.2389,0.00351092,0.0062735,0.0010792,0.00664511,0.00313932,1.23918,0.0038385,0.011896,1196,1730,8.4571,-59.2388
-21,-706,8.50085,59.4341,0.00338759,0.00777264,0.00144619,0.00820664,0.00295359,1.27925,0.0047997,0.0128357,1203,1730,8.50081,-59.4341
-14,-706,8.53528,59.6229,0.00294572,0.00887095,0.00188208,0.00941822,0.00239845,1.28782,0.0056516,0.0120059,1210,1730,8.53522,-59.6229
-7,-706,8.58008,59.8016,0.00242826,0.00979717,0.00230577,0.0104592,0.00176625,1.2912,0.00646497,0.00919307,1217,1730,8.58012,-59.8016
0,-706,8.65002,59.9613,0.00214994,0.0104693,0.00253784,0.0111824,0.00143688,1.29689,0.00702512,0.0135401,1224,1730,8.65,-59.9613
7,-706,8.67664,60.0951,0.00199591,0.0111962,0.00245631,0.0118109,0.00138119,1.32557,0.00745628,0.0166361,1231,1730,8.67667,-60.0951
14,-706,8.71741,60.1915,0.00157388,0.0116598,0.00262644,0.0123028,0.000930925,1.33072,0.00790981,0.0167637,1238,1730,8.71737,-60.1915
21,-706,8.77942,60.2821,0.0010509,0.0109889,0.00272425,0.0116867,0.000353108,1.32005,0.00767612,0.0130222,1245,1730,8.7794,-60.2821
28,-706,8.82568,60.3773,0.000676736,0.010415,0.00252097,0.0110289,6.28261e-05,1.33192,0.00733173,0.0126905,1252,1730,8.82563,-60.3773
35,-706,8.86218,60.4644,0.000361563,0.00866832,0.0018361,0.00905607,-2.61827e-05,1.36268,0.00604613,0.0150002,1259,1730,8.86215,-60.4644
42,-706,8.92468,60.5272,7.98207e-05,0.00644201,0.000822832,0.0065467,-2.48747e-05,1.44424,0.00437278,0.0128176,1266,1730,8.92471,-60.5273
49,-706,8.9856,60.5635,-8.62865e-05,0.00399762,-0.000347028,0.0040269,-0.000115565,-1.48663,0.00272394,0.0143047,1273,1730,8.98556,-60.5635
56,-706,9.06042,60.5792,1.21723e-05,0.00164817,-0.00123184,0.00230887,-0.000648532,-1.07849,0.00179491,0.0142486,1280,1730,9.06037,-60.5792
63,-706,9.11353,60.566,0.000439582,-0.00102506,-0.00206073,0.00189424,-0.00247972,-0.614672,0.00253284,0.0128896,1287,1730,9.11351,-60.5661
70,-706,9.14734,60.5623,0.00126955,-0.0034928,-0.00275435,0.00252931,-0.00475257,-0.428968,0.00426901,0.0137239,1294,1730,9.14734,-60.5623
77,-706,9.18994,60.5359,0.0021372,-0.00528951,-0.00332093,0.00340557,-0.00655788,-0.364835,0.00584758,0.0119701,1301,1730,9.18989,-60.5359
84,-706,9.26135,60.4958,0.00333632,-0.00727322,-0.00386305,0.00459384,-0.00853074,-0.314708,0.00769028,0.00988769,1308,1730,9.2613,-60.4958
91,-706,9.30481,60.4561,0.00461084,-0.00820663,-0.00408966,0.00580456,-0.00940034,-0.283996,0.00886,0.0112401,1315,1730,9.30481,-60.456
98,-706,9.34778,60.3973,0.00581787,-0.00867558,-0.00391446,0.00680753,-0.00966524,-0.247632,0.00955814,0.0160417,1322,1730,9.34777,-60.3973
105,-706,9.41077,60.3301,0.00658594,-0.00850389,-0.00316472,0.00722279,-0.00914073,-0.198581,0.00946909,0.0182353,1329,1730,9.41073,-60.33
112,-706,9.4292,60.2369,0.00719861,-0.00840003,-0.00219824,0.00750248,-0.0087039,-0.137362,0.00936532,0.0166212,1336,1730,9.42917,-60.2369
119,-706,9.44958,60.1155,0.00793944,-0.00793755,-0.00157729,0.00809462,-0.00809273,-0.0980671,0.00934577,0.0132451,1343,1730,9.44962,-60.1154
126,-706,9.5249,59.9509,0.0085775,-0.0069899,-0.00104642,0.00864752,-0.00705992,-0.0668178,0.00908413,0.0147538,1350,1730,9.52485,-59.9509
133,-706,9.60144,59.7656,0.00877991,-0.00662871,-0.000449469,0.00879301,-0.00664181,-0.029137,0.0089401,0.0129556,1357,1730,9.6014,-59.7657
140,-706,9.66174,59.5526,0.00877769,-0.00536868,0.000272347,0.00878293,-0.00537393,0.0192426,0.00825208,0.0126742,1364,1730,9.6618,-59.5527
147,-706,9.73474,59.3745,0.00865593,-0.00433261,0.00082026,0.00870753,-0.00438421,0.0628199,0.00769467,0.0246801,1371,1730,9.7348,-59.3746
154,-706,9.77783,59.2286,0.00838162,-0.00353579,0.00121664,0.00850456,-0.00365873,0.100705,0.00720585,0.0245088,1378,1730,9.77789,-59.2286
161,-706,9.76355,58.9794,0.00760372,-0.00316463,0.00103562,0.00770241,-0.00326333,0.095012,0.00650169,0.0121315,1385,1730,9.7635,-58.9794
168,-706,9.77563,58.7407,0.00609617,-0.00251464,0.000843848,0.00617809,-0.00259656,0.0967719,0.00520481,0.011087,1392,1730,9.77558,-58.7407
175,-706,9.81213,58.5066,0.00458143,-0.00153377,0.000853276,0.00469826,-0.0016506,0.136072,0.00380369,0.0108706,1399,1730,9.81218,-58.5066
182,-706,9.82715,58.2184,0.00412467,-0.000643133,0.000564785,0.00419066,-0.000709123,0.116314,0.00305768,0.0114118,1406,1730,9.82711,-58.2183
189,-706,9.85376,57.9159,0.00376887,-2.76088e-05,0.000246674,0.00378483,-4.35692e-05,0.0646124,0.00253787,0.014177,1413,1730,9.85382,-57.9159
196,-706,9.87244,57.6316,0.00351856,0.000407489,-3.69627e-05,0.003519,0.000407049,-0.0118788,0.00222278,0.012769,1420,1730,9.8724,-57.6316
203,-706,9.85645,57.3466,0.00312965,0.000602433,-0.000297835,0.00316428,0.000567807,-0.115739,0.00194803,0.0141314,1427,1730,9.85649,-57.3465
210,-706,9.85767,57.0291,0.00271945,0.000885212,-0.000548357,0.00287089,0.000733779,-0.269442,0.00172225,0.0131203,1434,1730,9.85773,-57.0291
217,-706,9.86987,56.7054,0.00226221,0.0011547,-0.000718069,0.00261525,0.000801662,-0.456939,0.00154713,0.013612,1441,1730,9.86982,-56.7055
224,-706,9.85229,56.364,0.00181723,0.00144187,-0.000923172,0.0025716,0.000687491,-0.685115,0.00153736,0.0191551,1448,1730,9.85226,-56.3641
231,-706,9.88647,55.9943,0.00135652,0.00171079,-0.00112381,0.00267134,0.000395967,-0.863565,0.00166467,0.0146795,1455,1730,9.88648,-55.9942
238,-706,9.88049,55.6093,0.000970078,0.00192715,-0.00126641,0.00280243,9.4806e-05,-0.96604,0.0018375,0.00902822,1462,1730,9.88048,-55.6092
245,-706,9.8667,55.204,0.000618436,0.002117,-0.0014153,0.00296913,-0.000233691,-1.02885,0.00206173,0.0114908,1469,1730,9.86671,-55.2039
252,-706,9.86035,54.8245,0.000185282,0.00234625,-0.00149575,0.00311096,-0.000579423,-1.09819,0.00229166,0.011814,1476,1730,9.8603,-54.8244
259,-706,9.85193,54.4288,-0.000292151,0.00254989,-0.00152924,0.00321642,-0.000958682,-1.15976,0.00252525,0.012859,1483,1730,9.8519,-54.4288
266,-706,9.81287,54.0156,-0.000698755,0.00260699,-0.00166055,0.00329707,-0.00138883,-1.17694,0.00277918,0.013319,1490,1730,9.81284,-54.0156
273,-706,9.79016,53.5828,-0.00106449,0.00277786,-0.00179739,0.00348756,-0.00177419,-1.19474,0.00309109,0.0123369,1497,1730,9.79012,-53.5828
280,-706,9.77405,53.1196,-0.00153073,0.00294636,-0.00194182,0.00367122,-0.00225559,-1.21353,0.00345423,0.0103517,1504,1730,9.774,-53.1196
287,-706,9.745,52.6754,-0.00208078,0.0033155,-0.0020698,0.00401795,-0.00278323,-1.24361,0.00394817,0.0111677,1511,1730,9.74497,-52.6754
294,-706,9.73352,52.243,-0.00266347,0.00423622,-0.0021334,0.00484258,-0.00326983,-1.29388,0.00471295,0.010701,1518,1730,9.73357,-52.2431
301,-706,9.70251,51.7681,-0.00319853,0.00500979,-0.00249192,0.00570707,-0.00389581,-1.29796,0.005577,0.0100873,1525,1730,9.70249,-51.768
308,-706,9.67908,51.2849,-0.00385129,0.00641599,-0.00297419,0.00721532,-0.00465062,-1.30825,0.00690393,0.0143639,1532,1730,9.67904,-51.2849
315,-706,9.66357,50.7675,-0.0045788,0.00767283,-0.00323074,0.00847257,-0.00537853,-1.32813,0.00806317,0.028214,1539,1730,9.6636,-50.7675
322,-706,9.63647,50.1998,-0.00509387,0.00935306,-0.00375596,0.0102712,-0.00601201,-1.33105,0.00950771,0.0300745,1546,1730,9.6365,-50.1998
329,-706,9.59436,49.7355,-0.00557007,0.0111001,-0.00435403,0.0121688,-0.00663878,-1.3301,0.0110139,0.0252331,1553,1730,9.59434,-49.7355
336,-706,9.40051,49.1438,-0.0059462,0.0129229,-0.00498504,0.0141589,-0.00718224,-1.32775,0.0125389,0.0410036,1560,1730,9.40049,-49.1438
343,-706,9.19849,48.3969,-0.00591361,0.0144918,-0.00570561,0.0159788,-0.00740061,-1.31585,0.0137977,0.0449613,1567,1730,9.19843,-48.3969
350,-706,9.54578,48.1726,0,0,0,0,0,0,0,-1,1574,1730,9.54577,-48.1726
357,-706,9.68481,47.2432,0,0,0,0,0,0,0,-1,1581,1730,9.68477,-47.2431
364,-706,9.02783,47.1432,0,0,0,0,0,0,0,-1,1588,1730,9.02787,-47.1432
371,-706,8.00464,44.9037,0,0,0,0,0,0,0,-1,1595,1730,8.00467,-44.9037
378,-706,7.63867,44.0519,0,0,0,0,0,0,0,-1,1602,1730,7.63863,-44.0519
385,-706,7.3186,43.2451,0,0,0,0,0,0,0,-1,1609,1730,7.31862,-43.2451
392,-706,7.33728,42.4652,0,0,0,0,0,0,0,-1,1616,1730,7.3373,-42.4651
399,-706,7.51855,41.7692,0,0,0,0,0,0,0,-1,1623,1730,7.51855,-41.7691
406,-706,7.46301,40.9797,0,0,0,0,0,0,0,-1,1630,1730,7.46301,-40.9797
413,-706,8.43433,40.3345,0,0,0,0,0,0,0,-1,1637,1730,8.43428,-40.3344
420,-706,8.0636,39.6101,0,0,0,0,0,0,0,-1,1644,1730,8.06362,-39.6101
427,-706,0,0,0,0,0,0,0,0,0,-1,1651,1730,0,0
434,-706,0,0,0,0,0,0,0,0,0,-1,1658,1730,0,0
441,-706,0,0,0,0,0,0,0,0,0,-1,1665,1730,0,0
448,-706,0,0,0,0,0,0,0,0,0,-1,1672,1730,0,0
455,-706,0,0,0,0,0,0,0,0,0,-1,1679,1730,0,0
462,-706,0,0,0,0,0,0,0,0,0,-1,1686,1730,0,0
469,-706,0,0,0,0,0,0,0,0,0,-1,1693,1730,0,0
476,-706,0,0,0,0,0,0,0,0,0,-1,1700,1730,0,0
483,-706,0,0,0,0,0,0,0,0,0,-1,1707,1730,0,0
490,-706,0,0,0,0,0,0,0,0,0,-1,1714,1730,0,0
497,-706,0,0,0,0,0,0,0,0,0,-1,1721,1730,0,0
504,-706,0,0,0,0,0,0,0,0,0,-1,1728,1730,0,0
511,-706,0,0,0,0,0,0,0,0,0,-1,1735,1730,0,0
518,-706,0,0,0,0,0,0,0,0,0,-1,1742,1730,0,0
525,-706,0,0,0,0,0,0,0,0,0,-1,1749,1730,0,0
532,-706,0,0,0,0,0,0,0,0,0,-1,1756,1730,0,0
539,-706,0,0,0,0,0,0,0,0,0,-1,1763,1730,0,0
546,-706,0,0,0,0,0,0,0,0,0,-1,1770,1730,0,0
553,-706,0,0,0,0,0,0,0,0,0,-1,1777,1730,0,0
560,-706,0,0,0,0,0,0,0,0,0,-1,1784,1730,0,0
567,-706,0,0,0,0,0,0,0,0,0,-1,1791,1730,0,0
574,-706,0,0,0,0,0,0,0,0,0,-1,1798,1730,0,0
581,-706,0,0,0,0,0,0,0,0,0,-1,1805,1730,0,0
588,-706,0,0,0,0,0,0,0,0,0,-1,1812,1730,0,0
595,-706,0,0,0,0,0,0,0,0,0,-1,1819,1730,0,0
602,-706,0,0,0,0,0,0,0,0,0,-1,1826,1730,0,0
609,-706,0,0,0,0,0,0,0,0,0,-1,1833,1730,0,0
616,-706,0,0,0,0,0,0,0,0,0,-1,1840,1730,0,0
623,-706,0,0,0,0,0,0,0,0,0,-1,1847,1730,0,0
630,-706,0,0,0,0,0,0,0,0,0,-1,1854,1730,0,0
637,-706,0,0,0,0,0,0,0,0,0,-1,1861,1730,0,0
644,-706,0,0,0,0,0,0,0,0,0,-1,1868,1730,0,0
651,-706,0,0,0,0,0,0,0,0,0,-1,1875,1730,0,0
658,-706,0,0,0,0,0,0,0,0,0,-1,1882,1730,0,0
665,-706,0,0,0,0,0,0,0,0,0,-1,1889,1730,0,0
672,-706,0,0,0,0,0,0,0,0,0,-1,1896,1730,0,0
679,-706,0,0,0,0,0,0,0,0,0,-1,1903,1730,0,0
686,-706,0,0,0,0,0,0,0,0,0,-1,1910,1730,0,0
693,-706,0,0,0,0,0,0,0,0,0,-1,1917,1730,0,0
700,-706,0,0,0,0,0,0,0,0,0,-1,1924,1730,0,0
707,-706,0,0,0,0,0,0,0,0,0,-1,1931,1730,0,0
714,-706,0,0,0,0,0,0,0,0,0,-1,1938,1730,0,0
721,-706,0,0,0,0,0,0,0,0,0,-1,1945,1730,0,0
728,-706,0,0,0,0,0,0,0,0,0,-1,1952,1730,0,0
735,-706,0,0,0,0,0,0,0,0,0,-1,1959,1730,0,0
742,-706,0,0,0,0,0,0,0,0,0,-1,1966,1730,0,0
749,-706,0,0,0,0,0,0,0,0,0,-1,1973,1730,0,0
756,-706,0,0,0,0,0,0,0,0,0,-1,1980,1730,0,0
763,-706,0,0,0,0,0,0,0,0,0,-1,1987,1730,0,0
770,-706,0,0,0,0,0,0,0,0,0,-1,1994,1730,0,0
777,-706,0,0,0,0,0,0,0,0,0,-1,2001,1730,0,0
784,-706,0,0,0,0,0,0,0,0,0,-1,2008,1730,0,0
791,-706,0,0,0,0,0,0,0,0,0,-1,2015,1730,0,0
798,-706,0,0,0,0,0,0,0,0,0,-1,2022,1730,0,0
805,-706,0,0,0,0,0,0,0,0,0,-1,2029,1730,0,0
812,-706,0,0,0,0,0,0,0,0,0,-1,2036,1730,0,0
-700,-713,0,0,0,0,0,0,0,0,0,-1,524,1737,0,0
-693,-713,0,0,0,0,0,0,0,0,0,-1,531,1737,0,0
-686,-713,0,0,0,0,0,0,0,0,0,-1,538,1737,0,0
-679,-713,0,0,0,0,0,0,0,0,0,-1,545,1737,0,0
-672,-713,0,0,0,0,0,0,0,0,0,-1,552,1737,0,0
-665,-713,0,0,0,0,0,0,0,0,0,-1,559,1737,0,0
-658,-713,0,0,0,0,0,0,0,0,0,-1,566,1737,0,0
-651,-713,0,0,0,0,0,0,0,0,0,-1,573,1737,0,0
-644,-713,0,0,0,0,0,0,0,0,0,-1,580,1737,0,0
-637,-713,0,0,0,0,0,0,0,0,0,-1,587,1737,0,0
-630,-713,0,0,0,0,0,0,0,0,0,-1,594,1737,0,0
-623,-713,0,0,0,0,0,0,0,0,0,-1,601,1737,0,0
-616,-713,0,0,0,0,0,0,0,0,0,-1,608,1737,0,0
-609,-713,0,0,0,0,0,0,0,0,0,-1,615,1737,0,0
-602,-713,0,0,0,0,0,0,0,0,0,-1,622,1737,0,0
-595,-713,0,0,0,0,0,0,0,0,0,-1,629,1737,0,0
-588,-713,0,0,0,0,0,0,0,0,0,-1,636,1737,0,0
-581,-713,0,0,0,0,0,0,0,0,0,-1,643,1737,0,0
-574,-713,0,0,0,0,0,0,0,0,0,-1,650,1737,0,0
-567,-713,0,0,0,0,0,0,0,0,0,-1,657,1737,0,0
-560,-713,0,0,0,0,0,0,0,0,0,-1,664,1737,0,0
-553,-713,0,0,0,0,0,0,0,0,0,-1,671,1737,0,0
-546,-713,0,0,0,0,0,0,0,0,0,-1,678,1737,0,0
-539,-713,0,0,0,0,0,0,0,0,0,-1,685,1737,0,0
-532,-713,0,0,0,0,0,0,0,0,0,-1,692,1737,0,0
-525,-713,0,0,0,0,0,0,0,0,0,-1,699,1737,0,0
-518,-713,0,0,0,0,0,0,0,0,0,-1,706,1737,0,0
-511,-713,0,0,0,0,0,0,0,0,0,-1,713,1737,0,0
-504,-713,0,0,0,0,0,0,0,0,0,-1,720,1737,0,0
-497,-713,0,0,0,0,0,0,0,0,0,-1,727,1737,0,0
-490,-713,0,0,0,0,0,0,0,0,0,-1,734,1737,0,0
-483,-713,0,0,0,0,0,0,0,0,0,-1,741,1737,0,0
-476,-713,0,0,0,0,0,0,0,0,0,-1,748,1737,0,0
-469,-713,0,0,0,0,0,0,0,0,0,-1,755,1737,0,0
-462,-713,0,0,0,0,0,0,0,0,0,-1,762,1737,0,0
-455,-713,0,0,0,0,0,0,0,0,0,-1,769,1737,0,0
-448,-713,0,0,0,0,0,0,0,0,0,-1,776,1737,0,0
-441,-713,0,0,0,0,0,0,0,0,0,-1,783,1737,0,0
-434,-713,0,0,0,0,0,0,0,0,0,-1,790,1737,0,0
-427,-713,0,0,0,0,0,0,0,0,0,-1,797,1737,0,0
-420,-713,0,0,0,0,0,0,0,0,0,-1,804,1737,0,0
-413,-713,0,0,0,0,0,0,0,0,0,-1,811,1737,0,0
-406,-713,0,0,0,0,0,0,0,0,0,-1,818,1737,0,0
-399,-713,0,0,0,0,0,0,0,0,0,-1,825,1737,0,0
-392,-713,0,0,0,0,0,0,0,0,0,-1,832,1737,0,0
-385,-713,0,0,0,0,0,0,0,0,0,-1,839,1737,0,0
-378,-713,0,0,0,0,0,0,0,0,0,-1,846,1737,0,0
-371,-713,0,0,0,0,0,0,0,0,0,-1,853,1737,0,0
-364,-713,0,0,0,0,0,0,0,0,0,-1,860,1737,0,0
-357,-713,0,0,0,0,0,0,0,0,0,-1,867,1737,0,0
-350,-713,0,0,0,0,0,0,0,0,0,-1,874,1737,0,0
-343,-713,0,0,0,0,0,0,0,0,0,-1,881,1737,0,0
-336,-713,0,0,0,0,0,0,0,0,0,-1,888,1737,0,0
-329,-713,0,0,0,0,0,0,0,0,0,-1,895,1737,0,0
-322,-713,0,0,0,0,0,0,0,0,0,-1,902,1737,0,0
-315,-713,0,0,0,0,0,0,0,0,0,-1,909,1737,0,0
-308,-713,0,0,0,0,0,0,0,0,0,-1,916,1737,0,0
-301,-713,0,0,0,0,0,0,0,0,0,-1,923,1737,0,0
-294,-713,7.17883,22.0453,0,0,0,0,0,0,0,-1,930,1737,7.17881,-22.0453
-287,-713,11.8916,21.5834,0,0,0,0,0,0,0,-1,937,1737,11.8916,-21.5833
-280,-713,10.2786,21.3551,0,0,0,0,0,0,0,-1,944,1737,10.2787,-21.3551
-273,-713,11.1981,23.8683,0,0,0,0,0,0,0,-1,951,1737,11.198,-23.8683
-266,-713,3.17981,19.8851,0,0,0,0,0,0,0,-1,958,1737,3.17983,-19.8851
-259,-713,3.5921,19.6868,0,0,0,0,0,0,0,-1,965,1737,3.59207,-19.6868
-252,-713,4.55469,20.5758,0,0,0,0,0,0,0,-1,972,1737,4.55466,-20.5758
-245,-713,3.89014,25.9825,0,0,0,0,0,0,0,-1,979,1737,3.89013,-25.9826
-238,-713,6.62506,30.5463,0,0,0,0,0,0,0,-1,986,1737,6.62509,-30.5462
-231,-713,8.93982,48.3102,0,0,0,0,0,0,0,-1,993,1737,8.93983,-48.3102
-224,-713,9.14594,48.2208,0,0,0,0,0,0,0,-1,1000,1737,9.14595,-48.2208
-217,-713,9.35205,48.1313,0,0,0,0,0,0,0,-1,1007,1737,9.35207,-48.1314
-210,-713,9.25623,49.2715,0,0,0,0,0,0,0,-1,1014,1737,9.25621,-49.2715
-203,-713,9.20825,49.8325,0,0,0,0,0,0,0,-1,1021,1737,9.20821,-49.8325
-196,-713,9.25916,50.2802,0,0,0,0,0,0,0,-1,1028,1737,9.25919,-50.2801
-189,-713,8.90918,50.6373,0.000512383,0.0013391,0.00692391,0.00786198,-0.0060105,0.815213,0.00803303,0.042504,1035,1737,8.90922,-50.6374
-182,-713,8.96326,51.1641,0.000117942,0.00129138,0.00661628,0.0073469,-0.00593758,0.829621,0.00768417,0.0278066,1042,1737,8.9632,-51.1641
-175,-713,9.03516,51.692,-0.00044929,0.00135906,0.00606929,0.00659116,-0.00568138,0.859342,0.00709204,0.0243192,1049,1737,9.03519,-51.692
-168,-713,9.07483,52.2036,-0.000834508,0.00142579,0.00576634,0.00617168,-0.0055804,0.882167,0.00678793,0.027283,1056,1737,9.07484,-52.2037
-161,-713,8.95557,52.7375,-0.00119757,0.0015373,0.00519404,0.00554089,-0.00520116,0.914112,0.00620296,0.0131272,1063,1737,8.95562,-52.7375
-154,-713,8.86707,53.1989,-0.00153262,0.00201119,0.00451593,0.0050904,-0.00461182,0.972353,0.00560385,0.0111147,1070,1737,8.8671,-53.1988
-147,-713,8.81299,53.674,-0.00174889,0.00241206,0.00389739,0.0047495,-0.00408633,1.03056,0.00510616,0.0185166,1077,1737,8.81295,-53.674
-140,-713,8.81824,54.116,-0.00179771,0.00271167,0.00334742,0.00449292,-0.00357896,1.08178,0.00467025,0.0190426,1084,1737,8.81826,-54.1159
-133,-713,8.77271,54.5083,-0.00182328,0.00294357,0.00277283,0.00421656,-0.00309626,1.14041,0.00423854,0.0128069,1091,1737,8.7727,-54.5083
-126,-713,8.75439,54.9014,-0.00200269,0.00325789,0.0022721,0.00410336,-0.00284816,1.21456,0.00403521,0.0194366,1098,1737,8.75444,-54.9014
-119,-713,8.74231,55.2625,-0.00174058,0.00336103,0.00201856,0.0040631,-0.00244265,1.23608,0.00379473,0.0268433,1105,1737,8.74227,-55.2625
-112,-713,8.70898,55.7406,-0.00126815,0.0035741,0.00174066,0.00413488,-0.00182893,1.25913,0.00352796,0.0136084,1112,1737,8.70904,-55.7406
-105,-713,8.68799,56.084,-0.000943673,0.00347243,0.00156839,0.00397276,-0.00144401,1.26199,0.00323898,0.0114026,1119,1737,8.68802,-56.0839
-98,-713,8.67151,56.4325,-0.000584861,0.00325844,0.00150749,0.00377917,-0.0011056,1.23819,0.00295768,0.0114079,1126,1737,8.67153,-56.4326
-91,-713,8.64697,56.7827,-0.000110291,0.00304574,0.00142649,0.00359493,-0.000659482,1.20329,0.00264401,0.0111561,1133,1737,8.64696,-56.7827
-84,-713,8.6283,57.1422,0.000277093,0.00276413,0.00123574,0.00327372,-0.000232499,1.17967,0.00226396,0.0104227,1140,1737,8.62836,-57.1422
-77,-713,8.62048,57.4542,0.00061439,0.00251627,0.001043,0.00297676,0.000153902,1.15503,0.00193525,0.0137996,1147,1737,8.62049,-57.4542
-70,-713,8.63464,57.7609,0.000938875,0.0022429,0.00079317,0.00261765,0.000564126,1.12941,0.00159076,0.0153665,1154,1737,8.6347,-57.7608
-63,-713,8.6322,58.074,0.00111533,0.00204259,0.000669534,0.00239334,0.000764569,1.08822,0.00141151,0.0136609,1161,1737,8.63221,-58.074
-56,-713,8.63733,58.3313,0.00127862,0.00181859,0.000619399,0.00222429,0.000872923,0.990923,0.00129406,0.0136372,1168,1737,8.63729,-58.3313
-49,-713,8.60693,58.5846,0.00145306,0.00155715,0.000506418,0.00201419,0.000996017,0.836603,0.00116291,0.0165964,1175,1737,8.60696,-58.5846
-42,-713,8.63171,58.8217,0.00173464,0.00179415,0.000437712,0.00220312,0.00132567,0.819338,0.00128072,0.0196327,1182,1737,8.63177,-58.8217
-35,-713,8.68176,59.0247,0.00202391,0.00222307,0.000362992,0.0024999,0.00174709,0.91927,0.00148088,0.0153842,1189,1737,8.68182,-59.0247
-28,-713,8.69885,59.2509,0.00229109,0.00235688,0.000241633,0.00256785,0.00208012,0.853058,0.0015747,0.0134659,1196,1737,8.6989,-59.2509
-21,-713,8.69336,59.4523,0.00227666,0.00302558,0.000389224,0.00319123,0.00211102,1.16843,0.00187422,0.0101941,1203,1737,8.69339,-59.4523
-14,-713,8.70728,59.6344,0.00201589,0.0036396,0.000641583,0.00386251,0.00179298,1.23641,0.00223193,0.011047,1210,1737,8.70731,-59.6344
-7,-713,8.73975,59.8151,0.00171145,0.00431072,0.000939364,0.00461466,0.00140751,1.25787,0.00273097,0.00956121,1217,1737,8.73977,-59.815
0,-713,8.78198,59.964,0.00154678,0.00494894,0.00117505,0.00531533,0.00118039,1.26854,0.00322296,0.0152405,1224,1737,8.78203,-59.964
7,-713,8.81409,60.0896,0.00143351,0.0057039,0.00128871,0.00606266,0.00107474,1.29928,0.00373543,0.0186035,1231,1737,8.81409,-60.0896
14,-713,8.82825,60.2186,0.00117355,0.00625989,0.00156413,0.00670239,0.00073105,1.2951,0.00424561,0.0132753,1238,1737,8.82824,-60.2186
21,-713,8.86646,60.3191,0.00071366,0.0063219,0.00177849,0.00683834,0.000197222,1.28819,0.00449459,0.0108701,1245,1737,8.86642,-60.319
28,-713,8.89746,60.4232,0.0003184,0.0064813,0.00175414,0.0069456,-0.000145899,1.31204,0.00467979,0.0110428,1252,1737,8.89749,-60.4233
35,-713,8.92334,60.4908,-2.7631e-05,0.00588158,0.00144246,0.00621489,-0.000360942,1.34371,0.00426866,0.0116304,1259,1737,8.92336,-60.4909
42,-713,8.97644,60.5372,-0.000332495,0.00493798,0.000872746,0.00507874,-0.000473255,1.41089,0.0035541,0.0114951,1266,1737,8.97645,-60.5373
49,-713,9.02576,60.5179,-0.000577169,0.00365452,0.000173461,0.00366162,-0.000584267,1.5299,0.00265733,0.0123181,1273,1737,9.02581,-60.5179
56,-713,9.04358,60.5275,-0.000633683,0.00233458,-0.000390771,0.00238516,-0.000684266,-1.44207,0.00186062,0.0148479,1280,1737,9.04362,-60.5275
63,-713,9.07446,60.585,-0.000397945,0.000822494,-0.000907528,0.00130588,-0.000881331,-1.08138,0.00127069,0.0144237,1287,1737,9.07442,-60.5849
70,-713,9.12231,60.5901,0.000196969,-0.000789546,-0.00136344,0.00115363,-0.00174621,-0.611835,0.00168583,0.0127954,1294,1737,9.12234,-60.5901
77,-713,9.17395,60.5703,0.000846416,-0.00198955,-0.00175415,0.00168403,-0.00282716,-0.44549,0.00263226,0.0130545,1301,1737,9.17397,-60.5703
84,-713,9.21729,60.5344,0.00176142,-0.0034318,-0.00212641,0.002521,-0.00419138,-0.343086,0.00391519,0.0125467,1308,1737,9.21727,-60.5344
91,-713,9.24243,60.476,0.00274785,-0.00425023,-0.0022872,0.00342906,-0.00493145,-0.289474,0.00485285,0.0128253,1315,1737,9.24249,-60.476
98,-713,9.25745,60.4026,0.00365502,-0.00481126,-0.00214751,0.00416859,-0.00532484,-0.234739,0.00549457,0.0133693,1322,1737,9.25739,-60.4026
105,-713,9.28723,60.3256,0.00426379,-0.00494634,-0.00161051,0.00453728,-0.00521984,-0.168215,0.00563787,0.0156562,1329,1737,9.28724,-60.3255
112,-713,9.31201,60.2303,0.00478979,-0.00513192,-0.00100278,0.00489012,-0.00523225,-0.0997257,0.00584527,0.0145206,1336,1737,9.31196,-60.2304
119,-713,9.3269,60.1176,0.00533671,-0.00506126,-0.000600815,0.00537131,-0.00509586,-0.0575268,0.00604392,0.0136716,1343,1737,9.32688,-60.1175
126,-713,9.3667,59.9766,0.00585067,-0.00474224,-0.000233824,0.00585582,-0.0047474,-0.0220593,0.00613291,0.0137097,1350,1737,9.36668,-59.9765
133,-713,9.39673,59.7941,0.0059707,-0.00460366,0.000132807,0.00597237,-0.00460533,0.0125567,0.00612401,0.0124805,1357,1737,9.39678,-59.794
140,-713,9.44519,59.5707,0.00579682,-0.00382431,0.000447115,0.00581755,-0.00384504,0.0463391,0.00561731,0.0139268,1364,1737,9.44517,-59.5706
147,-713,9.47937,59.3651,0.00541821,-0.00310084,0.00063069,0.00546465,-0.00314728,0.0734989,0.00503175,0.0157213,1371,1737,9.4794,-59.3651
154,-713,9.46692,59.2458,0.00496139,-0.00240115,0.000656698,0.0050195,-0.00245927,0.0882661,0.0044014,0.0151163,1378,1737,9.46692,-59.2459
161,-713,9.50354,58.9879,0.00432329,-0.00189716,0.000464995,0.00435786,-0.00193173,0.0742031,0.00372026,0.0109593,1385,1737,9.50352,-58.9879
168,-713,9.51892,58.7289,0.00333639,-0.00134517,0.000276318,0.00335264,-0.00136143,0.0587507,0.00280143,0.0111984,1392,1737,9.51896,-58.7289
175,-713,9.51404,58.4814,0.00245776,-0.000610012,0.000169001,0.00246705,-0.000619294,0.0548679,0.00188534,0.0143811,1399,1737,9.51407,-58.4814
182,-713,9.52515,58.2275,0.00212706,-1.0071e-05,-0.000114277,0.00213315,-1.61644e-05,-0.0532698,0.00142752,0.0124294,1406,1737,9.52517,-58.2275
189,-713,9.55188,57.9413,0.00186209,0.000490526,-0.000437311,0.00198966,0.000362958,-0.283833,0.00122353,0.0115575,1413,1737,9.55191,-57.9413
196,-713,9.5575,57.6545,0.00161662,0.000907312,-0.000729329,0.00207296,0.00045098,-0.559094,0.00125886,0.0128669,1420,1737,9.5575,-57.6545
203,-713,9.54565,57.3652,0.001284,0.001225,-0.000981316,0.00223626,0.000272737,-0.770371,0.00140875,0.0173176,1427,1737,9.54562,-57.3652
210,-713,9.53333,57.0278,0.000986675,0.00166112,-0.00123548,0.00260458,4.32227e-05,-0.918628,0.00172216,0.0143432,1434,1737,9.53337,-57.0278
217,-713,9.54236,56.6931,0.000620401,0.00201946,-0.00140979,0.00289374,-0.000253872,-1.0157,0.00201911,0.0117214,1441,1737,9.54235,-56.6931
224,-713,9.5343,56.3593,0.000253574,0.00235772,-0.00160291,0.00322298,-0.00061169,-1.07581,0.00237891,0.0126696,1448,1737,9.53429,-56.3593
231,-713,9.53943,56.006,-0.000128795,0.00264457,-0.00175439,0.00349412,-0.000978351,-1.11983,0.00271494,0.0118743,1455,1737,9.53938,-56.006
238,-713,9.52429,55.6155,-0.000430384,0.00287319,-0.0018509,0.00370218,-0.00125937,-1.14971,0.00297803,0.00896008,1462,1737,9.52425,-55.6155
245,-713,9.50635,55.2106,-0.000688063,0.00306013,-0.00200721,0.00393215,-0.00156008,-1.16096,0.00326803,0.0116063,1469,1737,9.50638,-55.2105
252,-713,9.48352,54.8136,-0.00109165,0.00327866,-0.0020968,0.00412195,-0.00193494,-1.18841,0.00357213,0.0123294,1476,1737,9.48347,-54.8136
259,-713,9.47363,54.4056,-0.00152369,0.00350991,-0.0020773,0.00425646,-0.00227024,-1.22578,0.00382591,0.0123369,1483,1737,9.47365,-54.4056
266,-713,9.42651,54.0206,-0.00186834,0.00358065,-0.00216708,0.00433741,-0.00262509,-1.23483,0.00406012,0.0115457,1490,1737,9.42654,-54.0206
273,-713,9.37378,53.6084,-0.00220535,0.00379694,-0.00231088,0.00458354,-0.00299196,-1.24271,0.00440577,0.00944636,1497,1737,9.37384,-53.6084
280,-713,9.34229,53.1531,-0.00266088,0.00401471,-0.00247177,0.00483029,-0.00347646,-1.25209,0.00481709,0.0100364,1504,1737,9.34229,-53.1531
287,-713,9.32825,52.6932,-0.00322699,0.00448939,-0.00263151,0.00530136,-0.00403897,-1.27151,0.00540904,0.0113744,1511,1737,9.32821,-52.6932
294,-713,9.32654,52.2444,-0.00385784,0.00568844,-0.00270815,0.00640319,-0.00457259,-1.31275,0.00636618,0.0194415,1518,1737,9.32656,-52.2443
301,-713,9.18811,51.6851,-0.00442758,0.00675695,-0.00314816,0.00758219,-0.00525282,-1.31443,0.00745086,0.0320599,1525,1737,9.18817,-51.6851
308,-713,9.03772,51.1691,-0.00517336,0.00859247,-0.00372034,0.00953358,-0.00611448,-1.32303,0.00910602,0.0474318,1532,1737,9.0377,-51.1691
315,-713,9.19934,50.6642,0,0,0,0,0,0,0,-1,1539,1737,9.1994,-50.6642
322,-713,9.11328,50.0964,0,0,0,0,0,0,0,-1,1546,1737,9.11333,-50.0964
329,-713,9.21704,49.6825,0,0,0,0,0,0,0,-1,1553,1737,9.217,-49.6825
336,-713,9.0531,49.0854,0,0,0,0,0,0,0,-1,1560,1737,9.05308,-49.0854
343,-713,8.05396,48.0891,0,0,0,0,0,0,0,-1,1567,1737,8.05392,-48.0891
350,-713,8.63867,47.4143,0,0,0,0,0,0,0,-1,1574,1737,8.6387,-47.4143
357,-713,8.01538,45.3817,0,0,0,0,0,0,0,-1,1581,1737,8.01534,-45.3818
364,-713,7.52661,46.5348,0,0,0,0,0,0,0,-1,1588,1737,7.52664,-46.5347
371,-713,7.3302,45.0861,0,0,0,0,0,0,0,-1,1595,1737,7.33021,-45.0861
378,-713,6.73975,44.3853,0,0,0,0,0,0,0,-1,1602,1737,6.7397,-44.3853
385,-713,6.58777,43.6438,0,0,0,0,0,0,0,-1,1609,1737,6.58781,-43.6438
392,-713,6.62964,42.8679,0,0,0,0,0,0,0,-1,1616,1737,6.62968,-42.868
399,-713,6.53748,42.0555,0,0,0,0,0,0,0,-1,1623,1737,6.53749,-42.0555
406,-713,2.49878,27.8931,0,0,0,0,0,0,0,-1,1630,1737,2.49884,-27.893
413,-713,1.36597,29.459,0,0,0,0,0,0,0,-1,1637,1737,1.36593,-29.459
420,-713,0,0,0,0,0,0,0,0,0,-1,1644,1737,0,0
427,-713,0,0,0,0,0,0,0,0,0,-1,1651,1737,0,0
434,-713,0,0,0,0,0,0,0,0,0,-1,1658,1737,0,0
441,-713,0,0,0,0,0,0,0,0,0,-1,1665,1737,0,0
448,-713,0,0,0,0,0,0,0,0,0,-1,1672,1737,0,0
455,-713,0,0,0,0,0,0,0,0,0,-1,1679,1737,0,0
462,-713,0,0,0,0,0,0,0,0,0,-1,1686,1737,0,0
469,-713,0,0,0,0,0,0,0,0,0,-1,1693,1737,0,0
476,-713,0,0,0,0,0,0,0,0,0,-1,1700,1737,0,0
483,-713,0,0,0,0,0,0,0,0,0,-1,1707,1737,0,0
490,-713,0,0,0,0,0,0,0,0,0,-1,1714,1737,0,0
497,-713,0,0,0,0,0,0,0,0,0,-1,1721,1737,0,0
504,-713,0,0,0,0,0,0,0,0,0,-1,1728,1737,0,0
511,-713,0,0,0,0,0,0,0,0,0,-1,1735,1737,0,0
518,-713,0,0,0,0,0,0,0,0,0,-1,1742,1737,0,0
525,-713,0,0,0,0,0,0,0,0,0,-1,1749,1737,0,0
532,-713,0,0,0,0,0,0,0,0,0,-1,1756,1737,0,0
539,-713,0,0,0,0,0,0,0,0,0,-1,1763,1737,0,0
546,-713,0,0,0,0,0,0,0,0,0,-1,1770,1737,0,0
553,-713,0,0,0,0,0,0,0,0,0,-1,1777,1737,0,0
560,-713,0,0,0,0,0,0,0,0,0,-1,1784,1737,0,0
567,-713,0,0,0,0,0,0,0,0,0,-1,1791,1737,0,0
574,-713,0,0,0,0,0,0,0,0,0,-1,1798,1737,0,0
581,-713,0,0,0,0,0,0,0,0,0,-1,1805,1737,0,0
588,-713,0,0,0,0,0,0,0,0,0,-1,1812,1737,0,0
595,-713,0,0,0,0,0,0,0,0,0,-1,1819,1737,0,0
602,-713,0,0,0,0,0,0,0,0,0,-1,1826,1737,0,0
609,-713,0,0,0,0,0,0,0,0,0,-1,1833,1737,0,0
616,-713,0,0,0,0,0,0,0,0,0,-1,1840,1737,0,0
623,-713,0,0,0,0,0,0,0,0,0,-1,1847,1737,0,0
630,-713,0,0,0,0,0,0,0,0,0,-1,1854,1737,0,0
637,-713,0,0,0,0,0,0,0,0,0,-1,1861,1737,0,0
644,-713,0,0,0,0,0,0,0,0,0,-1,1868,1737,0,0
651,-713,0,0,0,0,0,0,0,0,0,-1,1875,1737,0,0
658,-713,0,0,0,0,0,0,0,0,0,-1,1882,1737,0,0
665,-713,0,0,0,0,0,0,0,0,0,-1,1889,1737,0,0
672,-713,0,0,0,0,0,0,0,0,0,-1,1896,1737,0,0
679,-713,0,0,0,0,0,0,0,0,0,-1,1903,1737,0,0
686,-713,0,0,0,0,0,0,0,0,0,-1,1910,1737,0,0
693,-713,0,0,0,0,0,0,0,0,0,-1,1917,1737,0,0
700,-713,0,0,0,0,0,0,0,0,0,-1,1924,1737,0,0
707,-713,0,0,0,0,0,0,0,0,0,-1,1931,1737,0,0
714,-713,0,0,0,0,0,0,0,0,0,-1,1938,1737,0,0
721,-713,0,0,0,0,0,0,0,0,0,-1,1945,1737,0,0
728,-713,0,0,0,0,0,0,0,0,0,-1,1952,1737,0,0
735,-713,0,0,0,0,0,0,0,0,0,-1,1959,1737,0,0
742,-713,0,0,0,0,0,0,0,0,0,-1,1966,1737,0,0
749,-713,0,0,0,0,0,0,0,0,0,-1,1973,1737,0,0
756,-713,0,0,0,0,0,0,0,0,0,-1,1980,1737,0,0
763,-713,0,0,0,0,0,0,0,0,0,-1,1987,1737,0,0
770,-713,0,0,0,0,0,0,0,0,0,-1,1994,1737,0,0
777,-713,0,0,0,0,0,0,0,0,0,-1,2001,1737,0,0
784,-713,0,0,0,0,0,0,0,0,0,-1,2008,1737,0,0
791,-713,0,0,0,0,0,0,0,0,0,-1,2015,1737,0,0
798,-713,0,0,0,0,0,0,0,0,0,-1,2022,1737,0,0
805,-713,0,0,0,0,0,0,0,0,0,-1,2029,1737,0,0
812,-713,0,0,0,0,0,0,0,0,0,-1,2036,1737,0,0
-700,-720,0,0,0,0,0,0,0,0,0,-1,524,1744,0,0
-693,-720,0,0,0,0,0,0,0,0,0,-1,531,1744,0,0
-686,-720,0,0,0,0,0,0,0,0,0,-1,538,1744,0,0
-679,-720,0,0,0,0,0,0,0,0,0,-1,545,1744,0,0
-672,-720,0,0,0,0,0,0,0,0,0,-1,552,1744,0,0
-665,-720,0,0,0,0,0,0,0,0,0,-1,559,1744,0,0
-658,-720,0,0,0,0,0,0,0,0,0,-1,566,1744,0,0
-651,-720,0,0,0,0,0,0,0,0,0,-1,573,1744,0,0
-644,-720,0,0,0,0,0,0,0,0,0,-1,580,1744,0,0
-637,-720,0,0,0,0,0,0,0,0,0,-1,587,1744,0,0
-630,-720,0,0,0,0,0,0,0,0,0,-1,594,1744,0,0
-623,-720,0,0,0,0,0,0,0,0,0,-1,601,1744,0,0
-616,-720,0,0,0,0,0,0,0,0,0,-1,608,1744,0,0
-609,-720,0,0,0,0,0,0,0,0,0,-1,615,1744,0,0
-602,-720,0,0,0,0,0,0,0,0,0,-1,622,1744,0,0
-595,-720,0,0,0,0,0,0,0,0,0,-1,629,1744,0,0
-588,-720,0,0,0,0,0,0,0,0,0,-1,636,1744,0,0
-581,-720,0,0,0,0,0,0,0,0,0,-1,643,1744,0,0
-574,-720,0,0,0,0,0,0,0,0,0,-1,650,1744,0,0
-567,-720,0,0,0,0,0,0,0,0,0,-1,657,1744,0,0
-560,-720,0,0,0,0,0,0,0,0,0,-1,664,1744,0,0
-553,-720,0,0,0,0,0,0,0,0,0,-1,671,1744,0,0
-546,-720,0,0,0,0,0,0,0,0,0,-1,678,1744,0,0
-539,-720,0,0,0,0,0,0,0,0,0,-1,685,1744,0,0
-532,-720,0,0,0,0,0,0,0,0,0,-1,692,1744,0,0
-525,-720,0,0,0,0,0,0,0,0,0,-1,699,1744,0,0
-518,-720,0,0,0,0,0,0,0,0,0,-1,706,1744,0,0
-511,-720,0,0,0,0,0,0,0,0,0,-1,713,1744,0,0
-504,-720,0,0,0,0,0,0,0,0,0,-1,720,1744,0,0
-497,-720,0,0,0,0,0,0,0,0,0,-1,727,1744,0,0
-490,-720,0,0,0,0,0,0,0,0,0,-1,734,1744,0,0
-483,-720,0,0,0,0,0,0,0,0,0,-1,741,1744,0,0
-476,-720,0,0,0,0,0,0,0,0,0,-1,748,1744,0,0
-469,-720,0,0,0,0,0,0,0,0,0,-1,755,1744,0,0
-462,-720,0,0,0,0,0,0,0,0,0,-1,762,1744,0,0
-455,-720,0,0,0,0,0,0,0,0,0,-1,769,1744,0,0
-448,-720,0,0,0,0,0,0,0,0,0,-1,776,1744,0,0
-441,-720,0,0,0,0,0,0,0,0,0,-1,783,1744,0,0
-434,-720,0,0,0,0,0,0,0,0,0,-1,790,1744,0,0
-427,-720,0,0,0,0,0,0,0,0,0,-1,797,1744,0,0
-420,-720,0,0,0,0,0,0,0,0,0,-1,804,1744,0,0
-413,-720,0,0,0,0,0,0,0,0,0,-1,811,1744,0,0
-406,-720,0,0,0,0,0,0,0,0,0,-1,818,1744,0,0
-399,-720,0,0,0,0,0,0,0,0,0,-1,825,1744,0,0
-392,-720,0,0,0,0,0,0,0,0,0,-1,832,1744,0,0
-385,-720,0,0,0,0,0,0,0,0,0,-1,839,1744,0,0
-378,-720,0,0,0,0,0,0,0,0,0,-1,846,1744,0,0
-371,-720,0,0,0,0,0,0,0,0,0,-1,853,1744,0,0
-364,-720,0,0,0,0,0,0,0,0,0,-1,860,1744,0,0
-357,-720,0,0,0,0,0,0,0,0,0,-1,867,1744,0,0
-350,-720,0,0,0,0,0,0,0,0,0,-1,874,1744,0,0
-343,-720,0,0,0,0,0,0,0,0,0,-1,881,1744,0,0
-336,-720,0,0,0,0,0,0,0,0,0,-1,888,1744,0,0
-329,-720,0,0,0,0,0,0,0,0,0,-1,895,1744,0,0
-322,-720,0,0,0,0,0,0,0,0,0,-1,902,1744,0,0
-315,-720,0,0,0,0,0,0,0,0,0,-1,909,1744,0,0
-308,-720,0,0,0,0,0,0,0,0,0,-1,916,1744,0,0
-301,-720,0,0,0,0,0,0,0,0,0,-1,923,1744,0,0
-294,-720,0,0,0,0,0,0,0,0,0,-1,930,1744,0,0
-287,-720,0,0,0,0,0,0,0,0,0,-1,937,1744,0,0
-280,-720,6.46796,22.6417,0,0,0,0,0,0,0,-1,944,1744,6.46793,-22.6417
-273,-720,8.54633,13.262,0,0,0,0,0,0,0,-1,951,1744,8.54636,-13.2619
-266,-720,7.28027,13.3165,0,0,0,0,0,0,0,-1,958,1744,7.28026,-13.3166
-259,-720,3.70563,18.6372,0,0,0,0,0,0,0,-1,965,1744,3.70564,-18.6372
-252,-720,4.00989,18.5059,0,0,0,0,0,0,0,-1,972,1744,4.00988,-18.5058
-245,-720,7.05634,33.8489,0,0,0,0,0,0,0,-1,979,1744,7.05634,-33.8489
-238,-720,5.02216,24.1455,0,0,0,0,0,0,0,-1,986,1744,5.02217,-24.1455
-231,-720,10.0776,46.4656,0,0,0,0,0,0,0,-1,993,1744,10.0776,-46.4655
-224,-720,9.30096,48.4137,0,0,0,0,0,0,0,-1,1000,1744,9.30097,-48.4137
-217,-720,10.4755,46.8452,0,0,0,0,0,0,0,-1,1007,1744,10.4755,-46.8452
-210,-720,8.74036,38.6686,0,0,0,0,0,0,0,-1,1014,1744,8.74035,-38.6686
-203,-720,10.1962,49.0282,0,0,0,0,0,0,0,-1,1021,1744,10.1962,-49.0282
-196,-720,9.26318,49.9153,0,0,0,0,0,0,0,-1,1028,1744,9.26321,-49.9153
-189,-720,9.24255,50.7311,0,0,0,0,0,0,0,-1,1035,1744,9.24259,-50.7311
-182,-720,9.22449,51.2974,0.0010323,0.00167989,0.00878645,0.0101485,-0.00743632,0.803816,0.0101928,0.0455168,1042,1744,9.22452,-51.2974
-175,-720,9.53516,51.8304,5.07819e-05,0.00191251,0.00812978,0.00916454,-0.00720125,0.8424,0.00947143,0.0440722,1049,1744,9.53513,-51.8304
-168,-720,9.14746,52.3556,-0.000676884,0.00215284,0.0077098,0.00857653,-0.00710057,0.876146,0.00906454,0.0413465,1056,1744,9.1474,-52.3556
-161,-720,9.17285,52.7642,-0.00138062,0.00248086,0.00694193,0.00775554,-0.00665531,0.921034,0.00832819,0.0259585,1063,1744,9.17285,-52.7641
-154,-720,9.30823,53.2119,-0.00204369,0.00321173,0.00608156,0.00720898,-0.00604095,0.989323,0.00765975,0.0201008,1070,1744,9.30827,-53.212
-147,-720,9.24988,53.7397,-0.00253688,0.00379377,0.0053065,0.0068073,-0.00555041,1.05432,0.00714702,0.0221908,1077,1744,9.24985,-53.7397
-140,-720,9.22229,54.1829,-0.00280734,0.0042663,0.00462651,0.00655303,-0.00509407,1.11175,0.00674202,0.0208492,1084,1744,9.2223,-54.1829
-133,-720,9.16052,54.5398,-0.00301276,0.0046214,0.00391671,0.00627339,-0.00466475,1.17166,0.00633786,0.0158915,1091,1744,9.16056,-54.5398
-126,-720,9.13672,54.9513,-0.00342284,0.00506275,0.00331328,0.00620318,-0.00456327,1.2393,0.00624,0.0150698,1098,1744,9.13678,-54.9513
-119,-720,9.12122,55.366,-0.00323535,0.00516499,0.00301637,0.00613589,-0.00420625,1.25939,0.00600558,0.0158247,1105,1744,9.12117,-55.366
-112,-720,9.06824,55.7358,-0.00273187,0.00549981,0.00269257,0.00630231,-0.00353438,1.28114,0.00575367,0.014426,1112,1744,9.06828,-55.7358
-105,-720,9.02478,56.0774,-0.00244079,0.005394,0.00251794,0.00613343,-0.00318022,1.28516,0.0054666,0.013996,1119,1744,9.02483,-56.0774
-98,-720,8.98547,56.4249,-0.00210354,0.00510733,0.00247962,0.0058777,-0.0028739,1.26957,0.00515099,0.0112406,1126,1744,8.98551,-56.4249
-91,-720,8.96631,56.7764,-0.00158138,0.00473182,0.00243151,0.00555974,-0.0024093,1.24261,0.00471925,0.00993597,1133,1744,8.96625,-56.7764
-84,-720,8.95117,57.1265,-0.00122058,0.00415961,0.00221958,0.00495709,-0.00201805,1.22587,0.00414455,0.0107933,1140,1744,8.95121,-57.1265
-77,-720,8.93823,57.4734,-0.000944377,0.00362642,0.00200482,0.00438115,-0.0016991,1.21075,0.00362249,0.0143369,1147,1744,8.93825,-57.4733
-70,-720,8.92163,57.7845,-0.000679477,0.00322635,0.00168413,0.00385223,-0.00130535,1.21498,0.00309639,0.0124604,1154,1744,8.92159,-57.7845
-63,-720,8.88904,58.0657,-0.000494231,0.00272896,0.00129303,0.00318357,-0.000948833,1.23272,0.00249943,0.0113366,1161,1744,8.88899,-58.0656
-56,-720,8.90186,58.3223,-7.70956e-05,0.0024077,0.00108369,0.00281392,-0.000483318,1.21216,0.00205607,0.0134546,1168,1744,8.90181,-58.3223
-49,-720,8.89282,58.5712,0.000225203,0.00226253,0.000855198,0.00257392,-8.61855e-05,1.2216,0.00174538,0.0198849,1175,1744,8.89281,-58.5711
-42,-720,8.88171,58.8126,0.000435728,0.00236321,0.000661223,0.00256824,0.000230704,1.27013,0.00164067,0.021878,1182,1744,8.8817,-58.8127
-35,-720,8.91589,59.0339,0.000653281,0.00220535,0.000407503,0.00230584,0.000552795,1.32903,0.00139009,0.0184404,1189,1744,8.91594,-59.0339
-28,-720,8.90613,59.2708,0.000907506,0.00205574,0.000119478,0.00206804,0.000895205,1.46821,0.00119756,0.0105671,1196,1744,8.90614,-59.2708
-21,-720,8.89563,59.4747,0.00104271,0.00219554,3.40614e-05,0.00219654,0.0010417,1.54128,0.00126873,0.00889462,1203,1744,8.89557,-59.4747
-14,-720,8.88525,59.6385,0.00106586,0.00246825,6.9795e-05,0.00247172,0.0010624,1.52119,0.00143172,0.0110524,1210,1744,8.88526,-59.6386
-7,-720,8.8916,59.8245,0.00103054,0.00289248,0.00016256,0.00290657,0.00101645,1.48436,0.00170319,0.0120522,1217,1744,8.8916,-59.8245
0,-720,8.91589,60.0052,0.00100237,0.00335328,0.000279128,0.00338597,0.000969686,1.45422,0.00201348,0.0134713,1224,1744,8.91583,-60.0053
7,-720,8.9397,60.1287,0.000948189,0.00388262,0.000392202,0.00393413,0.000896673,1.44019,0.00238083,0.0164858,1231,1744,8.93973,-60.1287
14,-720,8.95837,60.2369,0.000818035,0.00420972,0.000598374,0.00431219,0.000715564,1.40119,0.00266845,0.0148964,1238,1744,8.95842,-60.237
21,-720,8.9668,60.3431,0.000662784,0.0043506,0.000787903,0.00451188,0.000501501,1.36889,0.00285547,0.010876,1245,1744,8.96683,-60.3431
28,-720,8.97534,60.4384,0.000555623,0.00441965,0.000833275,0.00459169,0.000383587,1.3672,0.00294161,0.0102253,1252,1744,8.97529,-60.4383
35,-720,8.99524,60.5151,0.000446796,0.00409954,0.000708628,0.0042322,0.00031414,1.38574,0.0027228,0.0113121,1259,1744,8.99521,-60.5151
42,-720,9.02039,60.5518,0.00035442,0.003673,0.000461603,0.00373601,0.000291409,1.43513,0.00239944,0.0121148,1266,1744,9.02043,-60.5518
49,-720,9.0509,60.5409,0.000240721,0.0029223,7.11961e-05,0.00292418,0.000238832,1.54427,0.00187492,0.012843,1273,1744,9.05086,-60.5409
56,-720,9.05872,60.5607,0.000237097,0.0021343,-0.000304684,0.00218203,0.000189367,-1.4154,0.00139585,0.0123078,1280,1744,9.05869,-60.5606
63,-720,9.07739,60.6155,0.000408491,0.00134965,-0.000694956,0.00171836,3.97795e-05,-1.08301,0.00113255,0.0137052,1287,1744,9.07736,-60.6155
70,-720,9.12256,60.6219,0.000768668,0.000460959,-0.00100954,0.00163601,-0.000406387,-0.70978,0.00124839,0.0141301,1294,1744,9.12255,-60.6219
77,-720,9.1366,60.5812,0.0011078,-0.000228343,-0.00133961,0.00193668,-0.00105723,-0.554092,0.00175322,0.016159,1301,1744,9.13659,-60.5811
84,-720,9.15955,60.4921,0.0016004,-0.00109004,-0.00167434,0.00240298,-0.00189262,-0.446983,0.00248589,0.0152188,1308,1744,9.15953,-60.4921
91,-720,9.17236,60.4458,0.00204799,-0.00150601,-0.00185404,0.0028391,-0.00229712,-0.403306,0.00297089,0.0152433,1315,1744,9.1723,-60.4458
98,-720,9.151,60.4114,0.00247411,-0.00184575,-0.00180256,0.00312746,-0.00249909,-0.347727,0.00325524,0.0140536,1322,1744,9.15097,-60.4114
105,-720,9.16785,60.3306,0.00272604,-0.00193865,-0.00146641,0.00314872,-0.00236134,-0.280638,0.00319204,0.012373,1329,1744,9.16779,-60.3305
112,-720,9.20154,60.214,0.0029399,-0.00214842,-0.00110802,0.00317071,-0.00237923,-0.205372,0.0032151,0.0108949,1336,1744,9.20155,-60.2139
119,-720,9.22253,60.1047,0.00311342,-0.00227211,-0.000798007,0.00322918,-0.00238787,-0.144053,0.00325511,0.0110931,1343,1744,9.2225,-60.1048
126,-720,9.24084,59.9613,0.0032055,-0.00233713,-0.000468827,0.00324487,-0.0023765,-0.0837924,0.00325838,0.0114256,1350,1744,9.24083,-59.9613
133,-720,9.2627,59.8008,0.00311619,-0.00232596,-0.000161245,0.00312096,-0.00233074,-0.0295942,0.00315854,0.0122262,1357,1744,9.26264,-59.8008
140,-720,9.28137,59.6284,0.00287106,-0.0019729,6.6632e-05,0.00287198,-0.00197382,0.0137522,0.0028137,0.019136,1364,1744,9.28138,-59.6284
147,-720,9.26599,59.4208,0.00249727,-0.00160239,0.000129497,0.00250136,-0.00160648,0.0315453,0.00239035,0.0204328,1371,1744,9.26599,-59.4208
154,-720,9.23975,59.2397,0.00210703,-0.00114172,6.85001e-05,0.00210848,-0.00114317,0.0210725,0.00190471,0.0133606,1378,1744,9.23975,-59.2397
161,-720,9.28723,59.0017,0.00164443,-0.000734276,-9.49166e-05,0.00164821,-0.000738057,-0.0398183,0.00141072,0.00983217,1385,1744,9.28721,-59.0017
168,-720,9.29529,58.7552,0.00107597,-0.000494534,-0.000227995,0.0011084,-0.000526963,-0.141289,0.000963861,0.0106185,1392,1744,9.29532,-58.7552
175,-720,9.26709,58.485,0.000649953,5.73587e-05,-0.000464794,0.000904859,-0.000197548,-0.501636,0.00067874,0.0164874,1399,1744,9.26705,-58.485
182,-720,9.24805,58.2306,0.000394084,0.000461967,-0.000773434,0.0012022,-0.000346153,-0.807326,0.000938382,0.0159178,1406,1744,9.24809,-58.2306
189,-720,9.26257,57.9646,0.000174869,0.000945475,-0.00113894,0.00176252,-0.00064218,-0.948504,0.00143771,0.0137043,1413,1744,9.26261,-57.9646
196,-720,9.26147,57.6782,-0.000130348,0.00142274,-0.00148292,0.00232013,-0.00102774,-1.0266,0.00198032,0.0146814,1420,1744,9.26151,-57.6782
203,-720,9.22559,57.3553,-0.000500478,0.00191527,-0.00173418,0.00282077,-0.00140597,-1.08959,0.00248546,0.0163616,1427,1744,9.22559,-57.3553
210,-720,9.21094,57.0336,-0.000675987,0.00258322,-0.0020237,0.00355188,-0.00164465,-1.12437,0.00306684,0.0136316,1434,1744,9.21094,-57.0335
217,-720,9.19995,56.6895,-0.000942701,0.00305292,-0.00222281,0.00404378,-0.00193356,-1.15147,0.00352198,0.0129865,1441,1744,9.19994,-56.6895
224,-720,9.19385,56.3384,-0.00123501,0.00346534,-0.00240577,0.00447836,-0.00224802,-1.17225,0.003954,0.010358,1448,1744,9.19381,-56.3384
231,-720,9.19629,55.9794,-0.00156613,0.00379631,-0.00252061,0.00479509,-0.00256491,-1.19353,0.00431384,0.0107521,1455,1744,9.19627,-55.9794
238,-720,9.17249,55.6036,-0.00178576,0.00405257,-0.0025749,0.00502591,-0.00275911,-1.20939,0.00455775,0.00942588,1462,1744,9.17252,-55.6036
245,-720,9.14294,55.2241,-0.00193616,0.00426458,-0.00274321,0.00530396,-0.00297554,-1.20862,0.00484277,0.0119061,1469,1744,9.14298,-55.2242
252,-720,9.11377,54.8245,-0.002308,0.0044954,-0.00285131,0.00553234,-0.00334494,-1.22199,0.00517691,0.0119167,1476,1744,9.11375,-54.8245
259,-720,9.07544,54.4194,-0.00269649,0.00477163,-0.0027865,0.00569673,-0.0036216,-1.25025,0.00542422,0.0104945,1483,1744,9.0755,-54.4195
266,-720,9.01794,54.014,-0.00297201,0.00487759,-0.0028308,0.00579195,-0.00388637,-1.25837,0.00562377,0.00891063,1490,1744,9.018,-54.014
273,-720,8.96545,53.5931,-0.00326938,0.0051599,-0.00298339,0.00610896,-0.00421844,-1.2628,0.00599574,0.0136116,1497,1744,8.96543,-53.5931
280,-720,8.89685,53.1643,-0.00370397,0.00545921,-0.00316424,0.00644569,-0.00469045,-1.26859,0.00645602,0.0175768,1504,1744,8.89684,-53.1643
287,-720,8.89136,52.6842,-0.00428108,0.00608377,-0.00336737,0.0070817,-0.005279,-1.28269,0.00716171,0.0295876,1511,1744,8.89139,-52.6842
294,-720,8.9668,52.1978,-0.00497181,0.00762955,-0.00346733,0.00852059,-0.00586285,-1.31926,0.00835141,0.0489632,1518,1744,8.9668,-52.1978
301,-720,8.6936,51.5811,0,0,0,0,0,0,0,-1,1525,1744,8.69355,-51.5811
308,-720,8.51648,51.161,0,0,0,0,0,0,0,-1,1532,1744,8.51644,-51.161
315,-720,8.66516,48.6633,0,0,0,0,0,0,0,-1,1539,1744,8.6651,-48.6633
322,-720,8.98181,43.5223,0,0,0,0,0,0,0,-1,1546,1744,8.98176,-43.5223
329,-720,9.15906,34.7668,0,0,0,0,0,0,0,-1,1553,1744,9.1591,-34.7669
336,-720,6.14148,26.5682,0,0,0,0,0,0,0,-1,1560,1744,6.14151,-26.5683
343,-720,6.78552,21.3625,0,0,0,0,0,0,0,-1,1567,1744,6.78551,-21.3625
350,-720,4.0741,11.1836,0,0,0,0,0,0,0,-1,1574,1744,4.07412,-11.1836
357,-720,6.90833,21.4504,0,0,0,0,0,0,0,-1,1581,1744,6.90827,-21.4505
364,-720,6.59497,44.1384,0,0,0,0,0,0,0,-1,1588,1744,6.59492,-44.1385
371,-720,6.67773,45.2386,0,0,0,0,0,0,0,-1,1595,1744,6.67779,-45.2386
378,-720,3.88257,25.5404,0,0,0,0,0,0,0,-1,1602,1744,3.88262,-25.5404
385,-720,4.672,37.3854,0,0,0,0,0,0,0,-1,1609,1744,4.67202,-37.3854
392,-720,4.89319,36.2684,0,0,0,0,0,0,0,-1,1616,1744,4.89323,-36.2684
399,-720,2.37317,24.7166,0,0,0,0,0,0,0,-1,1623,1744,2.37317,-24.7166
406,-720,0,0,0,0,0,0,0,0,0,-1,1630,1744,0,0
413,-720,0,0,0,0,0,0,0,0,0,-1,1637,1744,0,0
420,-720,0,0,0,0,0,0,0,0,0,-1,1644,1744,0,0
427,-720,0,0,0,0,0,0,0,0,0,-1,1651,1744,0,0
434,-720,0,0,0,0,0,0,0,0,0,-1,1658,1744,0,0
441,-720,0,0,0,0,0,0,0,0,0,-1,1665,1744,0,0
448,-720,0,0,0,0,0,0,0,0,0,-1,1672,1744,0,0
455,-720,0,0,0,0,0,0,0,0,0,-1,1679,1744,0,0
462,-720,0,0,0,0,0,0,0,0,0,-1,1686,1744,0,0
469,-720,0,0,0,0,0,0,0,0,0,-1,1693,1744,0,0
476,-720,0,0,0,0,0,0,0,0,0,-1,1700,1744,0,0
483,-720,0,0,0,0,0,0,0,0,0,-1,1707,1744,0,0
490,-720,0,0,0,0,0,0,0,0,0,-1,1714,1744,0,0
497,-720,0,0,0,0,0,0,0,0,0,-1,1721,1744,0,0
504,-720,0,0,0,0,0,0,0,0,0,-1,1728,1744,0,0
511,-720,0,0,0,0,0,0,0,0,0,-1,1735,1744,0,0
518,-720,0,0,0,0,0,0,0,0,0,-1,1742,1744,0,0
525,-720,0,0,0,0,0,0,0,0,0,-1,1749,1744,0,0
532,-720,0,0,0,0,0,0,0,0,0,-1,1756,1744,0,0
539,-720,0,0,0,0,0,0,0,0,0,-1,1763,1744,0,0
546,-720,0,0,0,0,0,0,0,0,0,-1,1770,1744,0,0
553,-720,0,0,0,0,0,0,0,0,0,-1,1777,1744,0,0
560,-720,0,0,0,0,0,0,0,0,0,-1,1784,1744,0,0
567,-720,0,0,0,0,0,0,0,0,0,-1,1791,1744,0,0
574,-720,0,0,0,0,0,0,0,0,0,-1,1798,1744,0,0
581,-720,0,0,0,0,0,0,0,0,0,-1,1805,1744,0,0
588,-720,0,0,0,0,0,0,0,0,0,-1,1812,1744,0,0
595,-720,0,0,0,0,0,0,0,0,0,-1,1819,1744,0,0
602,-720,0,0,0,0,0,0,0,0,0,-1,1826,1744,0,0
609,-720,0,0,0,0,0,0,0,0,0,-1,1833,1744,0,0
616,-720,0,0,0,0,0,0,0,0,0,-1,1840,1744,0,0
623,-720,0,0,0,0,0,0,0,0,0,-1,1847,1744,0,0
630,-720,0,0,0,0,0,0,0,0,0,-1,1854,1744,0,0
637,-720,0,0,0,0,0,0,0,0,0,-1,1861,1744,0,0
644,-720,0,0,0,0,0,0,0,0,0,-1,1868,1744,0,0
651,-720,0,0,0,0,0,0,0,0,0,-1,1875,1744,0,0
658,-720,0,0,0,0,0,0,0,0,0,-1,1882,1744,0,0
665,-720,0,0,0,0,0,0,0,0,0,-1,1889,1744,0,0
672,-720,0,0,0,0,0,0,0,0,0,-1,1896,1744,0,0
679,-720,0,0,0,0,0,0,0,0,0,-1,1903,1744,0,0
686,-720,0,0,0,0,0,0,0,0,0,-1,1910,1744,0,0
693,-720,0,0,0,0,0,0,0,0,0,-1,1917,1744,0,0
700,-720,0,0,0,0,0,0,0,0,0,-1,1924,1744,0,0
707,-720,0,0,0,0,0,0,0,0,0,-1,1931,1744,0,0
714,-720,0,0,0,0,0,0,0,0,0,-1,1938,1744,0,0
721,-720,0,0,0,0,0,0,0,0,0,-1,1945,1744,0,0
728,-720,0,0,0,0,0,0,0,0,0,-1,1952,1744,0,0
735,-720,0,0,0,0,0,0,0,0,0,-1,1959,1744,0,0
742,-720,0,0,0,0,0,0,0,0,0,-1,1966,1744,0,0
749,-720,0,0,0,0,0,0,0,0,0,-1,1973,1744,0,0
756,-720,0,0,0,0,0,0,0,0,0,-1,1980,1744,0,0
763,-720,0,0,0,0,0,0,0,0,0,-1,1987,1744,0,0
770,-720,0,0,0,0,0,0,0,0,0,-1,1994,1744,0,0
777,-720,0,0,0,0,0,0,0,0,0,-1,2001,1744,0,0
784,-720,0,0,0,0,0,0,0,0,0,-1,2008,1744,0,0
791,-720,0,0,0,0,0,0,0,0,0,-1,2015,1744,0,0
798,-720,0,0,0,0,0,0,0,0,0,-1,2022,1744,0,0
805,-720,0,0,0,0,0,0,0,0,0,-1,2029,1744,0,0
812,-720,0,0,0,0,0,0,0,0,0,-1,2036,1744,0,0
-700,-727,0,0,0,0,0,0,0,0,0,-1,524,1751,0,0
-693,-727,0,0,0,0,0,0,0,0,0,-1,531,1751,0,0
-686,-727,0,0,0,0,0,0,0,0,0,-1,538,1751,0,0
-679,-727,0,0,0,0,0,0,0,0,0,-1,545,1751,0,0
-672,-727,0,0,0,0,0,0,0,0,0,-1,552,1751,0,0
-665,-727,0,0,0,0,0,0,0,0,0,-1,559,1751,0,0
-658,-727,0,0,0,0,0,0,0,0,0,-1,566,1751,0,0
-651,-727,0,0,0,0,0,0,0,0,0,-1,573,1751,0,0
-644,-727,0,0,0,0,0,0,0,0,0,-1,580,1751,0,0
-637,-727,0,0,0,0,0,0,0,0,0,-1,587,1751,0,0
-630,-727,0,0,0,0,0,0,0,0,0,-1,594,1751,0,0
-623,-727,0,0,0,0,0,0,0,0,0,-1,601,1751,0,0
-616,-727,0,0,0,0,0,0,0,0,0,-1,608,1751,0,0
-609,-727,0,0,0,0,0,0,0,0,0,-1,615,1751,0,0
-602,-727,0,0,0,0,0,0,0,0,0,-1,622,1751,0,0
-595,-727,0,0,0,0,0,0,0,0,0,-1,629,1751,0,0
-588,-727,0,0,0,0,0,0,0,0,0,-1,636,1751,0,0
-581,-727,0,0,0,0,0,0,0,0,0,-1,643,1751,0,0
-574,-727,0,0,0,0,0,0,0,0,0,-1,650,1751,0,0
-567,-727,0,0,0,0,0,0,0,0,0,-1,657,1751,0,0
-560,-727,0,0,0,0,0,0,0,0,0,-1,664,1751,0,0
-553,-727,0,0,0,0,0,0,0,0,0,-1,671,1751,0,0
-546,-727,0,0,0,0,0,0,0,0,0,-1,678,1751,0,0
-539,-727,0,0,0,0,0,0,0,0,0,-1,685,1751,0,0
-532,-727,0,0,0,0,0,0,0,0,0,-1,692,1751,0,0
-525,-727,0,0,0,0,0,0,0,0,0,-1,699,1751,0,0
-518,-727,0,0,0,0,0,0,0,0,0,-1,706,1751,0,0
-511,-727,0,0,0,0,0,0,0,0,0,-1,713,1751,0,0
-504,-727,0,0,0,0,0,0,0,0,0,-1,720,1751,0,0
-497,-727,0,0,0,0,0,0,0,0,0,-1,727,1751,0,0
-490,-727,0,0,0,0,0,0,0,0,0,-1,734,1751,0,0
-483,-727,0,0,0,0,0,0,0,0,0,-1,741,1751,0,0
-476,-727,0,0,0,0,0,0,0,0,0,-1,748,1751,0,0
-469,-727,0,0,0,0,0,0,0,0,0,-1,755,1751,0,0
-462,-727,0,0,0,0,0,0,0,0,0,-1,762,1751,0,0
-455,-727,0,0,0,0,0,0,0,0,0,-1,769,1751,0,0
-448,-727,0,0,0,0,0,0,0,0,0,-1,776,1751,0,0
-441,-727,0,0,0,0,0,0,0,0,0,-1,783,1751,0,0
-434,-727,0,0,0,0,0,0,0,0,0,-1,790,1751,0,0
-427,-727,0,0,0,0,0,0,0,0,0,-1,797,1751,0,0
-420,-727,0,0,0,0,0,0,0,0,0,-1,804,1751,0,0
-413,-727,0,0,0,0,0,0,0,0,0,-1,811,1751,0,0
-406,-727,0,0,0,0,0,0,0,0,0,-1,818,1751,0,0
-399,-727,0,0,0,0,0,0,0,0,0,-1,825,1751,0,0
-392,-727,0,0,0,0,0,0,0,0,0,-1,832,1751,0,0
-385,-727,0,0,0,0,0,0,0,0,0,-1,839,1751,0,0
-378,-727,0,0,0,0,0,0,0,0,0,-1,846,1751,0,0
-371,-727,0,0,0,0,0,0,0,0,0,-1,853,1751,0,0
-364,-727,0,0,0,0,0,0,0,0,0,-1,860,1751,0,0
-357,-727,0,0,0,0,0,0,0,0,0,-1,867,1751,0,0
-350,-727,0,0,0,0,0,0,0,0,0,-1,874,1751,0,0
-343,-727,0,0,0,0,0,0,0,0,0,-1,881,1751,0,0
-336,-727,0,0,0,0,0,0,0,0,0,-1,888,1751,0,0
-329,-727,0,0,0,0,0,0,0,0,0,-1,895,1751,0,0
-322,-727,0,0,0,0,0,0,0,0,0,-1,902,1751,0,0
-315,-727,0,0,0,0,0,0,0,0,0,-1,909,1751,0,0
-308,-727,0,0,0,0,0,0,0,0,0,-1,916,1751,0,0
-301,-727,0,0,0,0,0,0,0,0,0,-1,923,1751,0,0
-294,-727,0,0,0,0,0,0,0,0,0,-1,930,1751,0,0
-287,-727,0,0,0,0,0,0,0,0,0,-1,937,1751,0,0
-280,-727,0,0,0,0,0,0,0,0,0,-1,944,1751,0,0
-273,-727,0,0,0,0,0,0,0,0,0,-1,951,1751,0,0
-266,-727,4.24805,7.61145,0,0,0,0,0,0,0,-1,958,1751,4.24802,-7.6115
-259,-727,3.65228,5.4082,0,0,0,0,0,0,0,-1,965,1751,3.65229,-5.40818
-252,-727,5.8797,32.9292,0,0,0,0,0,0,0,-1,972,1751,5.87972,-32.9292
-245,-727,6.59198,32.2588,0,0,0,0,0,0,0,-1,979,1751,6.59195,-32.2587
-238,-727,6.6189,30.4597,0,0,0,0,0,0,0,-1,986,1751,6.61889,-30.4598
-231,-727,6.70105,28.9473,0,0,0,0,0,0,0,-1,993,1751,6.70103,-28.9472
-224,-727,10.7735,47.245,0,0,0,0,0,0,0,-1,1000,1751,10.7735,-47.245
-217,-727,9.07013,38.8207,0,0,0,0,0,0,0,-1,1007,1751,9.07015,-38.8207
-210,-727,5.0921,32.4524,0,0,0,0,0,0,0,-1,1014,1751,5.09209,-32.4523
-203,-727,14.1763,48.6819,0,0,0,0,0,0,0,-1,1021,1751,14.1763,-48.6819
-196,-727,13.0454,48.5956,0,0,0,0,0,0,0,-1,1028,1751,13.0455,-48.5955
-189,-727,10.3168,48.1697,0,0,0,0,0,0,0,-1,1035,1751,10.3168,-48.1697
-182,-727,9.54919,51.5366,0,0,0,0,0,0,0,-1,1042,1751,9.54919,-51.5366
-175,-727,10.0334,52.0443,0,0,0,0,0,0,0,-1,1049,1751,10.0334,-52.0443
-168,-727,9.10754,52.6136,0,0,0,0,0,0,0,-1,1056,1751,9.1076,-52.6136
-161,-727,9.26172,52.965,0,0,0,0,0,0,0,-1,1063,1751,9.26167,-52.9649
-154,-727,9.73645,53.1956,0,0,0,0,0,0,0,-1,1070,1751,9.73649,-53.1956
-147,-727,9.64331,53.6273,-0.00319803,0.0054705,0.00698305,0.00935505,-0.00708257,1.06314,0.00952045,0.0494635,1077,1751,9.64327,-53.6273
-140,-727,9.49011,53.9539,-0.00374638,0.00625732,0.00613212,0.00916884,-0.0066579,1.12751,0.00917583,0.0341466,1084,1751,9.49008,-53.9538
-133,-727,9.56482,54.3832,-0.00415667,0.00682526,0.0052674,0.00894325,-0.00627466,1.18849,0.00883098,0.0262123,1091,1751,9.56487,-54.3831
-126,-727,9.46973,54.9097,-0.00480575,0.00742475,0.00455554,0.00893506,-0.00631606,1.25067,0.00884841,0.0179838,1098,1751,9.46978,-54.9097
-119,-727,9.44653,55.3429,-0.00468447,0.0075036,0.00420039,0.00881096,-0.00599182,1.26905,0.00859789,0.0156718,1105,1751,9.44656,-55.3429
-112,-727,9.40137,55.598,-0.00413656,0.00797951,0.00383952,0.00909376,-0.00525082,1.28835,0.00838033,0.0256838,1112,1751,9.40142,-55.598
-105,-727,9.29504,55.9431,-0.00387634,0.00783258,0.00366275,0.00888394,-0.00492771,1.29127,0.00808247,0.0261847,1119,1751,9.29504,-55.9431
-98,-727,9.30701,56.4048,-0.00356048,0.00742078,0.00362929,0.00851185,-0.00465155,1.27876,0.00770805,0.0148869,1126,1751,9.30697,-56.4048
-91,-727,9.30432,56.7689,-0.00298352,0.00681947,0.00359532,0.0079967,-0.00416076,1.25436,0.00713462,0.0125208,1133,1751,9.30434,-56.7689
-84,-727,9.27246,57.1042,-0.00265218,0.00587003,0.00333352,0.00701904,-0.00380119,1.23887,0.00633848,0.0122686,1140,1751,9.27242,-57.1043
-77,-727,9.23083,57.4453,-0.00245511,0.00495305,0.0030523,0.00604863,-0.00355068,1.22618,0.00560437,0.0130436,1147,1751,9.23081,-57.4453
-70,-727,9.21167,57.7975,-0.00227732,0.00433383,0.0026114,0.00524089,-0.00318437,1.23649,0.00491239,0.0143601,1154,1751,9.21172,-57.7974
-63,-727,9.18262,58.0695,-0.00235382,0.00334584,0.00136181,0.0036545,-0.00266248,1.34791,0.00366207,0.0114274,1161,1751,9.18258,-58.0695
-56,-727,9.14624,58.312,-0.0018488,0.00320614,0.000622974,0.00328178,-0.00192444,1.44996,0.00303968,0.0115423,1168,1751,9.14626,-58.312
-49,-727,9.13086,58.5757,-0.00147581,0.00392496,4.87908e-06,0.00392497,-0.00147582,1.56989,0.00322325,0.0137654,1175,1751,9.1309,-58.5756
-42,-727,9.12341,58.8367,-0.000892977,0.00614935,0.000256669,0.00615869,-0.00090232,1.53441,0.00443725,0.0166545,1182,1751,9.12342,-58.8367
-35,-727,9.10583,59.0536,-0.000374914,0.00613788,0.000177594,0.00614272,-0.000379753,1.54355,0.00422742,0.0146844,1189,1751,9.10579,-59.0536
-28,-727,9.08679,59.2606,1.88345e-06,0.00620745,-0.000140682,0.00621064,-1.30408e-06,-1.54814,0.00414086,0.00893506,1196,1751,9.08681,-59.2606
-21,-727,9.07092,59.475,0.000405484,0.00630972,-0.000293286,0.00632426,0.000390951,-1.52129,0.00409208,0.0108938,1203,1751,9.07097,-59.475
-14,-727,9.06458,59.6414,0.00073585,0.00647333,-0.000232164,0.00648271,0.00072647,-1.53042,0.00410115,0.0123495,1210,1751,9.06455,-59.6414
-7,-727,9.06079,59.8314,0.00103531,0.00667896,-0.00016135,0.00668357,0.0010307,-1.54224,0.00415498,0.0152695,1217,1751,9.0608,-59.8314
0,-727,9.06287,60.0098,0.00123928,0.00673451,-3.99536e-05,0.0067348,0.00123899,-1.56353,0.00413915,0.0153528,1224,1751,9.06289,-60.0097
7,-727,9.06958,60.1305,0.0013197,0.00663599,0.00012564,0.00663895,0.00131673,1.54718,0.00405889,0.015214,1231,1751,9.0696,-60.1305
14,-727,9.06799,60.2314,0.00127843,0.0062107,0.00029774,0.0062286,0.00126052,1.51072,0.00380252,0.0149643,1238,1751,9.068,-60.2314
21,-727,9.04822,60.3502,0.00117742,0.00566254,0.000432722,0.00570391,0.00113605,1.47549,0.00348618,0.012658,1245,1751,9.04827,-60.3502
28,-727,9.06787,60.4309,0.00106763,0.00495609,0.000463621,0.00501061,0.00101312,1.45375,0.00305914,0.0107546,1252,1751,9.06787,-60.4309
35,-727,9.10376,60.51,0.000895362,0.00415686,0.000342376,0.00419241,0.000859808,1.46732,0.00255699,0.0121576,1259,1751,9.10375,-60.51
42,-727,9.07654,60.5459,0.000731867,0.00352776,0.000210783,0.00354357,0.000716066,1.49597,0.00216355,0.0127103,1266,1751,9.07654,-60.5459
49,-727,9.06396,60.5643,0.000494864,0.0027887,-7.29999e-05,0.00279102,0.000492543,-1.53901,0.00172017,0.010942,1273,1751,9.06397,-60.5643
56,-727,9.05127,60.6161,0.000286333,0.00211997,-0.000409922,0.00220744,0.000198864,-1.36057,0.00141002,0.00938594,1280,1751,9.05121,-60.6161
63,-727,9.06335,60.6288,0.000131031,0.00150382,-0.000917548,0.0019633,-0.000328451,-1.10653,0.00143097,0.0113934,1287,1751,9.0634,-60.6287
70,-727,9.09973,60.6185,0.000103014,0.00128953,-0.00120787,0.00204197,-0.000649429,-1.01367,0.00162173,0.0138128,1294,1751,9.09972,-60.6186
77,-727,9.10779,60.5886,0.000169938,0.00115947,-0.00144611,0.00219311,-0.0008637,-0.950225,0.00181963,0.0163295,1301,1751,9.1078,-60.5887
84,-727,9.11182,60.4797,0.0002565,0.000990356,-0.00169678,0.00235943,-0.00111258,-0.891883,0.0020472,0.017381,1308,1751,9.11187,-60.4797
91,-727,9.11255,60.3879,0.0003658,0.00100327,-0.00191867,0.0026295,-0.00126043,-0.867708,0.00229175,0.0191359,1315,1751,9.11261,-60.3879
98,-727,9.08032,60.3838,0.000516884,0.000931814,-0.00192314,0.00265865,-0.00120995,-0.839129,0.00228514,0.016592,1322,1751,9.08027,-60.3837
105,-727,9.08826,60.3163,0.000561863,0.000956827,-0.00172378,0.0024944,-0.000975706,-0.842431,0.00206643,0.0144346,1329,1751,9.08821,-60.3163
112,-727,9.10388,60.2217,0.000591104,0.000811832,-0.00153438,0.00223981,-0.000836874,-0.8213,0.00183685,0.0119917,1336,1751,9.10394,-60.2217
119,-727,9.1095,60.1102,0.00056849,0.000604544,-0.00127648,0.00186312,-0.00069009,-0.792459,0.00152508,0.00985797,1343,1751,9.10951,-60.1102
126,-727,9.11682,59.9417,0.000507478,0.000313647,-0.000974346,0.00138972,-0.000568592,-0.735828,0.00116329,0.01041,1350,1751,9.11678,-59.9417
133,-727,9.11768,59.8107,0.000366125,0.000146143,-0.000700289,0.000965008,-0.00045274,-0.707502,0.000836158,0.0148526,1357,1751,9.1177,-59.8107
140,-727,9.13928,59.6675,0.000159306,9.71587e-05,-0.000479372,0.000608611,-0.000352146,-0.753033,0.000561242,0.0221957,1364,1751,9.13925,-59.6675
147,-727,9.11536,59.4491,-9.41538e-05,7.42846e-05,-0.000413574,0.000412128,-0.000431997,-0.885843,0.0004874,0.0184043,1371,1751,9.11537,-59.4491
154,-727,9.08447,59.2152,-0.00036494,0.000146786,-0.000462879,0.000419812,-0.000637966,-1.03788,0.000615022,0.0115618,1378,1751,9.0845,-59.2153
161,-727,9.08044,58.9973,-0.000620561,0.000200302,-0.000538616,0.000467042,-0.000887301,-1.11097,0.00079438,0.0099076,1385,1751,9.08042,-58.9973
168,-727,9.06689,58.7682,-0.000866397,5.95101e-05,-0.000595224,0.000350624,-0.00115751,-1.11592,0.000911316,0.0133243,1392,1751,9.06693,-58.7682
175,-727,9.06335,58.5027,-0.000970555,0.000483325,-0.00102872,0.00101603,-0.00150326,-1.09299,0.00146355,0.0182764,1399,1751,9.0634,-58.5027
182,-727,9.05786,58.2424,-0.00116042,0.000771969,-0.00139146,0.0014998,-0.00188824,-1.08887,0.00196037,0.0196789,1406,1751,9.05789,-58.2424
189,-727,8.98877,57.9464,-0.00133381,0.00131848,-0.00183549,0.00225678,-0.00227211,-1.09823,0.00261476,0.0126667,1413,1751,8.98878,-57.9465
196,-727,8.96606,57.6602,-0.00173304,0.00191925,-0.00227465,0.0030101,-0.00282389,-1.12363,0.00336882,0.0145729,1420,1751,8.96606,-57.6602
203,-727,8.93164,57.3365,-0.00223559,0.00263746,-0.00253394,0.00371626,-0.00331438,-1.1683,0.00406135,0.0175793,1427,1751,8.93161,-57.3365
210,-727,8.91211,57.0226,-0.00227172,0.00363009,-0.00289984,0.00481645,-0.00345807,-1.18246,0.00479871,0.0163553,1434,1751,8.91213,-57.0226
217,-727,8.86792,56.7152,-0.00241743,0.00422437,-0.00315368,0.00548321,-0.00367628,-1.19101,0.00532242,0.0118111,1441,1751,8.86798,-56.7152
224,-727,8.849,56.3451,-0.00262569,0.00472685,-0.00333322,0.00601297,-0.00391182,-1.20255,0.00577272,0.0131729,1448,1751,8.84905,-56.3451
231,-727,8.83801,55.9686,-0.00290601,0.00512413,-0.00342914,0.00638919,-0.00417107,-1.21737,0.00614164,0.0119206,1455,1751,8.83797,-55.9687
238,-727,8.83228,55.4734,-0.00303532,0.00542559,-0.00346549,0.0066638,-0.00427353,-1.22763,0.00636474,0.019357,1462,1751,8.83223,-55.4734
245,-727,8.85632,55.11,-0.00305837,0.00568353,-0.00365834,0.00701247,-0.0043873,-1.22236,0.00663958,0.0290179,1469,1751,8.85632,-55.1099
252,-727,8.78589,54.7646,-0.0033821,0.00593104,-0.00379961,0.00728452,-0.00473557,-1.2286,0.00699162,0.0293261,1476,1751,8.78583,-54.7647
259,-727,8.70142,54.3354,-0.00370978,0.00624023,-0.00369802,0.0074641,-0.00493365,-1.25119,0.00720737,0.0240199,1483,1751,8.70144,-54.3355
266,-727,8.66931,53.9923,-0.00388821,0.00636969,-0.00368517,0.00755632,-0.00507485,-1.25928,0.00733937,0.0225767,1490,1751,8.66931,-53.9923
273,-727,8.64319,53.5715,-0.00411745,0.00670236,-0.00384226,0.00792797,-0.00534306,-1.26202,0.00771032,0.0352089,1497,1751,8.64324,-53.5716
280,-727,8.42834,53.1779,0,0,0,0,0,0,0,-1,1504,1751,8.42834,-53.1779
287,-727,8.44788,52.7041,0,0,0,0,0,0,0,-1,1511,1751,8.44783,-52.7041
294,-727,8.61084,52.145,0,0,0,0,0,0,0,-1,1518,1751,8.61082,-52.145
301,-727,8.44385,46.1619,0,0,0,0,0,0,0,-1,1525,1751,8.4439,-46.1619
308,-727,8.77002,44.8007,0,0,0,0,0,0,0,-1,1532,1751,8.76996,-44.8006
315,-727,8.10571,41.24,0,0,0,0,0,0,0,-1,1539,1751,8.10567,-41.2399
322,-727,8.24133,40.2081,0,0,0,0,0,0,0,-1,1546,1751,8.24136,-40.2082
329,-727,5.54419,31.0325,0,0,0,0,0,0,0,-1,1553,1751,5.54425,-31.0325
336,-727,5.55823,20.2439,0,0,0,0,0,0,0,-1,1560,1751,5.55829,-20.2438
343,-727,2.41699,8.72095,0,0,0,0,0,0,0,-1,1567,1751,2.41702,-8.72098
350,-727,3.89783,7.50195,0,0,0,0,0,0,0,-1,1574,1751,3.89782,-7.50193
357,-727,4.48462,10.2948,0,0,0,0,0,0,0,-1,1581,1751,4.48464,-10.2948
364,-727,6.96729,17.2365,0,0,0,0,0,0,0,-1,1588,1751,6.96732,-17.2365
371,-727,5.04565,23.2227,0,0,0,0,0,0,0,-1,1595,1751,5.04564,-23.2227
378,-727,4.56726,23.0574,0,0,0,0,0,0,0,-1,1602,1751,4.56727,-23.0574
385,-727,3.52307,22.6431,0,0,0,0,0,0,0,-1,1609,1751,3.52303,-22.643
392,-727,0,0,0,0,0,0,0,0,0,-1,1616,1751,0,0
399,-727,0,0,0,0,0,0,0,0,0,-1,1623,1751,0,0
406,-727,0,0,0,0,0,0,0,0,0,-1,1630,1751,0,0
413,-727,0,0,0,0,0,0,0,0,0,-1,1637,1751,0,0
420,-727,0,0,0,0,0,0,0,0,0,-1,1644,1751,0,0
427,-727,0,0,0,0,0,0,0,0,0,-1,1651,1751,0,0
434,-727,0,0,0,0,0,0,0,0,0,-1,1658,1751,0,0
441,-727,0,0,0,0,0,0,0,0,0,-1,1665,1751,0,0
448,-727,0,0,0,0,0,0,0,0,0,-1,1672,1751,0,0
455,-727,0,0,0,0,0,0,0,0,0,-1,1679,1751,0,0
462,-727,0,0,0,0,0,0,0,0,0,-1,1686,1751,0,0
469,-727,0,0,0,0,0,0,0,0,0,-1,1693,1751,0,0
476,-727,0,0,0,0,0,0,0,0,0,-1,1700,1751,0,0
483,-727,0,0,0,0,0,0,0,0,0,-1,1707,1751,0,0
490,-727,0,0,0,0,0,0,0,0,0,-1,1714,1751,0,0
497,-727,0,0,0,0,0,0,0,0,0,-1,1721,1751,0,0
504,-727,0,0,0,0,0,0,0,0,0,-1,1728,1751,0,0
511,-727,0,0,0,0,0,0,0,0,0,-1,1735,1751,0,0
518,-727,0,0,0,0,0,0,0,0,0,-1,1742,1751,0,0
525,-727,0,0,0,0,0,0,0,0,0,-1,1749,1751,0,0
532,-727,0,0,0,0,0,0,0,0,0,-1,1756,1751,0,0
539,-727,0,0,0,0,0,0,0,0,0,-1,1763,1751,0,0
546,-727,0,0,0,0,0,0,0,0,0,-1,1770,1751,0,0
553,-727,0,0,0,0,0,0,0,0,0,-1,1777,1751,0,0
560,-727,0,0,0,0,0,0,0,0,0,-1,1784,1751,0,0
567,-727,0,0,0,0,0,0,0,0,0,-1,1791,1751,0,0
574,-727,0,0,0,0,0,0,0,0,0,-1,1798,1751,0,0
581,-727,0,0,0,0,0,0,0,0,0,-1,1805,1751,0,0
588,-727,0,0,0,0,0,0,0,0,0,-1,1812,1751,0,0
595,-727,0,0,0,0,0,0,0,0,0,-1,1819,1751,0,0
602,-727,0,0,0,0,0,0,0,0,0,-1,1826,1751,0,0
609,-727,0,0,0,0,0,0,0,0,0,-1,1833,1751,0,0
616,-727,0,0,0,0,0,0,0,0,0,-1,1840,1751,0,0
623,-727,0,0,0,0,0,0,0,0,0,-1,1847,1751,0,0
630,-727,0,0,0,0,0,0,0,0,0,-1,1854,1751,0,0
637,-727,0,0,0,0,0,0,0,0,0,-1,1861,1751,0,0
644,-727,0,0,0,0,0,0,0,0,0,-1,1868,1751,0,0
651,-727,0,0,0,0,0,0,0,0,0,-1,1875,1751,0,0
658,-727,0,0,0,0,0,0,0,0,0,-1,1882,1751,0,0
665,-727,0,0,0,0,0,0,0,0,0,-1,1889,1751,0,0
672,-727,0,0,0,0,0,0,0,0,0,-1,1896,1751,0,0
679,-727,0,0,0,0,0,0,0,0,0,-1,1903,1751,0,0
686,-727,0,0,0,0,0,0,0,0,0,-1,1910,1751,0,0
693,-727,0,0,0,0,0,0,0,0,0,-1,1917,1751,0,0
700,-727,0,0,0,0,0,0,0,0,0,-1,1924,1751,0,0
707,-727,0,0,0,0,0,0,0,0,0,-1,1931,1751,0,0
714,-727,0,0,0,0,0,0,0,0,0,-1,1938,1751,0,0
721,-727,0,0,0,0,0,0,0,0,0,-1,1945,1751,0,0
728,-727,0,0,0,0,0,0,0,0,0,-1,1952,1751,0,0
735,-727,0,0,0,0,0,0,0,0,0,-1,1959,1751,0,0
742,-727,0,0,0,0,0,0,0,0,0,-1,1966,1751,0,0
749,-727,0,0,0,0,0,0,0,0,0,-1,1973,1751,0,0
756,-727,0,0,0,0,0,0,0,0,0,-1,1980,1751,0,0
763,-727,0,0,0,0,0,0,0,0,0,-1,1987,1751,0,0
770,-727,0,0,0,0,0,0,0,0,0,-1,1994,1751,0,0
777,-727,0,0,0,0,0,0,0,0,0,-1,2001,1751,0,0
784,-727,0,0,0,0,0,0,0,0,0,-1,2008,1751,0,0
791,-727,0,0,0,0,0,0,0,0,0,-1,2015,1751,0,0
798,-727,0,0,0,0,0,0,0,0,0,-1,2022,1751,0,0
805,-727,0,0,0,0,0,0,0,0,0,-1,2029,1751,0,0
812,-727,0,0,0,0,0,0,0,0,0,-1,2036,1751,0,0
-700,-734,0,0,0,0,0,0,0,0,0,-1,524,1758,0,0
-693,-734,0,0,0,0,0,0,0,0,0,-1,531,1758,0,0
-686,-734,0,0,0,0,0,0,0,0,0,-1,538,1758,0,0
-679,-734,0,0,0,0,0,0,0,0,0,-1,545,1758,0,0
-672,-734,0,0,0,0,0,0,0,0,0,-1,552,1758,0,0
-665,-734,0,0,0,0,0,0,0,0,0,-1,559,1758,0,0
-658,-734,0,0,0,0,0,0,0,0,0,-1,566,1758,0,0
-651,-734,0,0,0,0,0,0,0,0,0,-1,573,1758,0,0
-644,-734,0,0,0,0,0,0,0,0,0,-1,580,1758,0,0
-637,-734,0,0,0,0,0,0,0,0,0,-1,587,1758,0,0
-630,-734,0,0,0,0,0,0,0,0,0,-1,594,1758,0,0
-623,-734,0,0,0,0,0,0,0,0,0,-1,601,1758,0,0
-616,-734,0,0,0,0,0,0,0,0,0,-1,608,1758,0,0
-609,-734,0,0,0,0,0,0,0,0,0,-1,615,1758,0,0
-602,-734,0,0,0,0,0,0,0,0,0,-1,622,1758,0,0
-595,-734,0,0,0,0,0,0,0,0,0,-1,629,1758,0,0
-588,-734,0,0,0,0,0,0,0,0,0,-1,636,1758,0,0
-581,-734,0,0,0,0,0,0,0,0,0,-1,643,1758,0,0
-574,-734,0,0,0,0,0,0,0,0,0,-1,650,1758,0,0
-567,-734,0,0,0,0,0,0,0,0,0,-1,657,1758,0,0
-560,-734,0,0,0,0,0,0,0,0,0,-1,664,1758,0,0
-553,-734,0,0,0,0,0,0,0,0,0,-1,671,1758,0,0
-546,-734,0,0,0,0,0,0,0,0,0,-1,678,1758,0,0
-539,-734,0,0,0,0,0,0,0,0,0,-1,685,1758,0,0
-532,-734,0,0,0,0,0,0,0,0,0,-1,692,1758,0,0
-525,-734,0,0,0,0,0,0,0,0,0,-1,699,1758,0,0
-518,-734,0,0,0,0,0,0,0,0,0,-1,706,1758,0,0
-511,-734,0,0,0,0,0,0,0,0,0,-1,713,1758,0,0
-504,-734,0,0,0,0,0,0,0,0,0,-1,720,1758,0,0
-497,-734,0,0,0,0,0,0,0,0,0,-1,727,1758,0,0
-490,-734,0,0,0,0,0,0,0,0,0,-1,734,1758,0,0
-483,-734,0,0,0,0,0,0,0,0,0,-1,741,1758,0,0
-476,-734,0,0,0,0,0,0,0,0,0,-1,748,1758,0,0
-469,-734,0,0,0,0,0,0,0,0,0,-1,755,1758,0,0
-462,-734,0,0,0,0,0,0,0,0,0,-1,762,1758,0,0
-455,-734,0,0,0,0,0,0,0,0,0,-1,769,1758,0,0
-448,-734,0,0,0,0,0,0,0,0,0,-1,776,1758,0,0
-441,-734,0,0,0,0,0,0,0,0,0,-1,783,1758,0,0
-434,-734,0,0,0,0,0,0,0,0,0,-1,790,1758,0,0
-427,-734,0,0,0,0,0,0,0,0,0,-1,797,1758,0,0
-420,-734,0,0,0,0,0,0,0,0,0,-1,804,1758,0,0
-413,-734,0,0,0,0,0,0,0,0,0,-1,811,1758,0,0
-406,-734,0,0,0,0,0,0,0,0,0,-1,818,1758,0,0
-399,-734,0,0,0,0,0,0,0,0,0,-1,825,1758,0,0
-392,-734,0,0,0,0,0,0,0,0,0,-1,832,1758,0,0
-385,-734,0,0,0,0,0,0,0,0,0,-1,839,1758,0,0
-378,-734,0,0,0,0,0,0,0,0,0,-1,846,1758,0,0
-371,-734,0,0,0,0,0,0,0,0,0,-1,853,1758,0,0
-364,-734,0,0,0,0,0,0,0,0,0,-1,860,1758,0,0
-357,-734,0,0,0,0,0,0,0,0,0,-1,867,1758,0,0
-350,-734,0,0,0,0,0,0,0,0,0,-1,874,1758,0,0
-343,-734,0,0,0,0,0,0,0,0,0,-1,881,1758,0,0
-336,-734,0,0,0,0,0,0,0,0,0,-1,888,1758,0,0
-329,-734,0,0,0,0,0,0,0,0,0,-1,895,1758,0,0
-322,-734,0,0,0,0,0,0,0,0,0,-1,902,1758,0,0
-315,-734,0,0,0,0,0,0,0,0,0,-1,909,1758,0,0
-308,-734,0,0,0,0,0,0,0,0,0,-1,916,1758,0,0
-301,-734,0,0,0,0,0,0,0,0,0,-1,923,1758,0,0
-294,-734,0,0,0,0,0,0,0,0,0,-1,930,1758,0,0
-287,-734,0,0,0,0,0,0,0,0,0,-1,937,1758,0,0
-280,-734,0,0,0,0,0,0,0,0,0,-1,944,1758,0,0
-273,-734,0,0,0,0,0,0,0,0,0,-1,951,1758,0,0
-266,-734,0,0,0,0,0,0,0,0,0,-1,958,1758,0,0
-259,-734,0,0,0,0,0,0,0,0,0,-1,965,1758,0,0
-252,-734,5.73883,31.5245,0,0,0,0,0,0,0,-1,972,1758,5.73884,-31.5246
-245,-734,6.32513,30.9761,0,0,0,0,0,0,0,-1,979,1758,6.32511,-30.9761
-238,-734,6.82385,30.0449,0,0,0,0,0,0,0,-1,986,1758,6.82387,-30.0449
-231,-734,7.1958,29.1666,0,0,0,0,0,0,0,-1,993,1758,7.19578,-29.1666
-224,-734,7.36169,28.5652,0,0,0,0,0,0,0,-1,1000,1758,7.36172,-28.5651
-217,-734,7.45984,28.4386,0,0,0,0,0,0,0,-1,1007,1758,7.45986,-28.4386
-210,-734,7.45483,28.4388,0,0,0,0,0,0,0,-1,1014,1758,7.45482,-28.4388
-203,-734,14.3309,49.7766,0,0,0,0,0,0,0,-1,1021,1758,14.3309,-49.7766
-196,-734,13.0366,49.6821,0,0,0,0,0,0,0,-1,1028,1758,13.0366,-49.6822
-189,-734,11.8075,49.2727,0,0,0,0,0,0,0,-1,1035,1758,11.8075,-49.2728
-182,-734,10.8073,48.8035,0,0,0,0,0,0,0,-1,1042,1758,10.8072,-48.8035
-175,-734,9.90186,48.634,0,0,0,0,0,0,0,-1,1049,1758,9.90187,-48.6341
-168,-734,8.91504,48.7642,0,0,0,0,0,0,0,-1,1056,1758,8.91505,-48.7641
-161,-734,10.4485,52.0808,0,0,0,0,0,0,0,-1,1063,1758,10.4485,-52.0808
-154,-734,10.3014,52.4893,0,0,0,0,0,0,0,-1,1070,1758,10.3014,-52.4893
-147,-734,10.2286,53.8092,0,0,0,0,0,0,0,-1,1077,1758,10.2286,-53.8092
-140,-734,9.91504,53.9852,0,0,0,0,0,0,0,-1,1084,1758,9.91502,-53.9852
-133,-734,10.0349,54.3358,0,0,0,0,0,0,0,-1,1091,1758,10.0349,-54.3358
-126,-734,9.79004,54.8765,0,0,0,0,0,0,0,-1,1098,1758,9.79008,-54.8765
-119,-734,9.78503,55.2622,0,0,0,0,0,0,0,-1,1105,1758,9.78498,-55.2622
-112,-734,9.68945,55.4414,0,0,0,0,0,0,0,-1,1112,1758,9.68948,-55.4414
-105,-734,9.51709,55.7487,0,0,0,0,0,0,0,-1,1119,1758,9.5171,-55.7486
-98,-734,9.60425,56.3713,0,0,0,0,0,0,0,-1,1126,1758,9.60424,-56.3713
-91,-734,9.63831,56.7588,0,0,0,0,0,0,0,-1,1133,1758,9.63832,-56.7588
-84,-734,9.56934,57.0643,0,0,0,0,0,0,0,-1,1140,1758,9.56928,-57.0644
-77,-734,9.51172,57.4558,0,0,0,0,0,0,0,-1,1147,1758,9.51175,-57.4559
-70,-734,9.5155,57.8136,0,0,0,0,0,0,0,-1,1154,1758,9.51545,-57.8136
-63,-734,9.36926,57.8422,-0.00467456,0.00375538,4.97505e-05,0.00375567,-0.00467485,1.56489,0.004877,0.0360771,1161,1758,9.36926,-57.8422
-56,-734,9.38513,58.2532,-0.00415164,0.0037418,-0.00209008,0.00426106,-0.0046709,-1.32728,0.00515868,0.0184634,1168,1758,9.38515,-58.2531
-49,-734,9.35803,58.5746,-0.00361135,0.00548539,-0.00358119,0.00672603,-0.00485199,-1.2373,0.00671369,0.0135236,1175,1758,9.35807,-58.5746
-42,-734,9.34192,58.8452,-0.00260404,0.00993626,-0.00298261,0.0106095,-0.00327728,-1.34879,0.00838179,0.0137517,1182,1758,9.34189,-58.8452
-35,-734,9.32654,59.059,-0.00158762,0.0101854,-0.00301817,0.0109141,-0.00231627,-1.33391,0.0081585,0.0140196,1189,1758,9.32654,-59.0589
-28,-734,9.29199,59.2571,-0.00092219,0.010502,-0.00332989,0.0114017,-0.00182192,-1.3069,0.00827558,0.0104811,1196,1758,9.29196,-59.2571
-21,-734,9.30164,59.4692,-0.000248352,0.0108185,-0.00337204,0.011765,-0.00119486,-1.29715,0.00827045,0.0167645,1203,1758,9.3016,-59.4693
-14,-734,9.25793,59.6962,0.000355486,0.0108219,-0.00285384,0.0115495,-0.000372082,-1.32117,0.00782663,0.0164907,1210,1758,9.25793,-59.6962
-7,-734,9.24878,59.8547,0.000922276,0.010802,-0.0025239,0.0114095,0.000314862,-1.33462,0.00750356,0.017188,1217,1758,9.24879,-59.8547
0,-734,9.21509,59.9879,0.00147718,0.0104103,-0.00225229,0.0109461,0.00094145,-1.33727,0.00700468,0.0171791,1224,1758,9.21508,-59.9879
7,-734,9.18066,60.1257,0.00184459,0.00971749,-0.00191443,0.0101583,0.00140375,-1.34447,0.00635618,0.0134686,1231,1758,9.18061,-60.1257
14,-734,9.15601,60.2467,0.00202882,0.00863334,-0.0016244,0.00901124,0.00165091,-1.34222,0.00553981,0.0142153,1238,1758,9.15606,-60.2467
21,-734,9.11841,60.3298,0.00210449,0.0075087,-0.00143828,0.00786764,0.00174555,-1.32623,0.0047709,0.0127738,1245,1758,9.11837,-60.3298
28,-734,9.13367,60.4181,0.00206378,0.00630292,-0.00139952,0.00672328,0.00164342,-1.27901,0.00404718,0.0112358,1252,1758,9.13369,-60.4181
35,-734,9.13623,60.5276,0.00185425,0.00518193,-0.0014988,0.00575746,0.00127872,-1.20417,0.00349102,0.0142405,1259,1758,9.13628,-60.5276
42,-734,9.13062,60.5664,0.00160453,0.00447567,-0.00152427,0.00513397,0.000946235,-1.16312,0.00315489,0.0130457,1266,1758,9.13063,-60.5664
49,-734,9.09424,60.5936,0.00114819,0.00379031,-0.00174734,0.00465978,0.000278724,-1.10908,0.0030179,0.010902,1273,1758,9.09421,-60.5936
56,-734,9.05957,60.6257,0.000603357,0.00321756,-0.00206183,0.00435171,-0.000530784,-1.0679,0.00309328,0.00927858,1280,1758,9.05953,-60.6257
63,-734,9.0686,60.6112,-4.68856e-05,0.00274783,-0.002744,0.00442978,-0.00172883,-1.02091,0.00366789,0.0118815,1287,1758,9.06863,-60.6112
70,-734,9.05493,60.5992,-0.000638159,0.00315853,-0.00292923,0.00475075,-0.00223039,-1.07291,0.00411719,0.0126746,1294,1758,9.05492,-60.5993
77,-734,9.0575,60.6177,-0.00104003,0.00357942,-0.00299731,0.0050537,-0.00251431,-1.11367,0.00445063,0.0168932,1301,1758,9.0575,-60.6177
84,-734,9.04187,60.5376,-0.00146665,0.00397522,-0.00305945,0.00534864,-0.00284006,-1.14885,0.00480113,0.0174262,1308,1758,9.04187,-60.5376
91,-734,9.04626,60.4675,-0.00177525,0.0044174,-0.00332145,0.00586192,-0.00321977,-1.16057,0.00531677,0.021143,1315,1758,9.04628,-60.4676
98,-734,9.03882,60.4191,-0.00194851,0.00446329,-0.00321073,0.00579464,-0.00327986,-1.17772,0.0053058,0.0159293,1322,1758,9.03881,-60.419
105,-734,9.02808,60.3256,-0.00224276,0.00448251,-0.00287271,0.00554252,-0.00330277,-1.2173,0.00516111,0.0158696,1329,1758,9.02807,-60.3255
112,-734,9.02405,60.2035,-0.00241889,0.00423598,-0.00264522,0.0051593,-0.00334222,-1.23496,0.00494559,0.0132916,1336,1758,9.02401,-60.2035
119,-734,9.00598,60.0588,-0.00253491,0.00383077,-0.00235092,0.00460486,-0.003309,-1.25271,0.00458944,0.0139776,1343,1758,9.006,-60.0588
126,-734,8.9856,59.8983,-0.00259171,0.00319878,-0.00198477,0.00381377,-0.0032067,-1.27032,0.00405831,0.0157451,1350,1758,8.98564,-59.8984
133,-734,8.95374,59.7614,-0.00260946,0.00265969,-0.00162531,0.0031207,-0.00307046,-1.29441,0.00357451,0.0154771,1357,1758,8.95371,-59.7614
140,-734,8.9502,59.6335,-0.00262776,0.00216871,-0.00130114,0.00249894,-0.00295798,-1.32225,0.00315427,0.0206278,1364,1758,8.95017,-59.6335
147,-734,8.92456,59.4087,-0.00262419,0.00168531,-0.00108363,0.00194245,-0.00288132,-1.33781,0.00280254,0.0145112,1371,1758,8.92453,-59.4087
154,-734,8.88635,59.2129,-0.00263209,0.00126754,-0.000985743,0.00150255,-0.0028671,-1.33675,0.0025635,0.00981509,1378,1758,8.88629,-59.2128
161,-734,8.86194,58.9999,-0.00259167,0.000844263,-0.000951069,0.00108995,-0.00283736,-1.31799,0.00234105,0.00918263,1385,1758,8.86196,-58.9998
168,-734,8.82056,58.749,-0.00252392,0.000240777,-0.000859267,0.000486074,-0.00276921,-1.29272,0.00202768,0.0148839,1392,1758,8.82056,-58.7491
175,-734,8.80005,58.507,-0.0023512,0.000649507,-0.00151924,0.00128437,-0.00298607,-1.17497,0.00252995,0.0178096,1399,1758,8.80001,-58.5069
182,-734,8.81897,58.2219,-0.00248876,0.000896024,-0.00195978,0.00179302,-0.00338576,-1.14156,0.00303674,0.0161773,1406,1758,8.81892,-58.2219
189,-734,8.7395,57.9282,-0.00261981,0.00158207,-0.00251397,0.00275741,-0.00379514,-1.13347,0.0037989,0.0120355,1413,1758,8.73948,-57.9282
196,-734,8.68311,57.6383,-0.0031613,0.00238615,-0.00310532,0.00377615,-0.0045513,-1.14993,0.00481479,0.0152282,1420,1758,8.68308,-57.6383
203,-734,8.71155,57.3081,-0.00393346,0.00341692,-0.00340309,0.00475053,-0.00526707,-1.19731,0.00578623,0.0220547,1427,1758,8.71155,-57.3081
210,-734,8.69897,56.9653,-0.00379431,0.00491545,-0.00394895,0.00643927,-0.00531813,-1.20252,0.00679842,0.0377927,1434,1758,8.69899,-56.9653
217,-734,8.55847,56.7443,0,0,0,0,0,0,0,-1,1441,1758,8.55849,-56.7443
224,-734,8.5072,56.3922,0,0,0,0,0,0,0,-1,1448,1758,8.50719,-56.3922
231,-734,8.44519,55.9525,0,0,0,0,0,0,0,-1,1455,1758,8.44524,-55.9525
238,-734,8.48486,55.2423,0,0,0,0,0,0,0,-1,1462,1758,8.48481,-55.2423
245,-734,8.62817,54.6938,0,0,0,0,0,0,0,-1,1469,1758,8.62813,-54.6939
252,-734,8.45691,54.5247,0,0,0,0,0,0,0,-1,1476,1758,8.4569,-54.5247
259,-734,8.39722,54.2465,0,0,0,0,0,0,0,-1,1483,1758,8.39721,-54.2464
266,-734,8.30933,53.963,0,0,0,0,0,0,0,-1,1490,1758,8.30933,-53.963
273,-734,8.32593,53.599,0,0,0,0,0,0,0,-1,1497,1758,8.32592,-53.599
280,-734,7.90149,52.7294,0,0,0,0,0,0,0,-1,1504,1758,7.90153,-52.7294
287,-734,7.56177,50.5933,0,0,0,0,0,0,0,-1,1511,1758,7.56172,-50.5933
294,-734,7.42676,47.7545,0,0,0,0,0,0,0,-1,1518,1758,7.4268,-47.7545
301,-734,7.21814,42.6078,0,0,0,0,0,0,0,-1,1525,1758,7.21809,-42.6078
308,-734,8.0509,41.5156,0,0,0,0,0,0,0,-1,1532,1758,8.05087,-41.5157
315,-734,7.93787,40.8274,0,0,0,0,0,0,0,-1,1539,1758,7.93784,-40.8273
322,-734,7.82483,40.139,0,0,0,0,0,0,0,-1,1546,1758,7.82481,-40.139
329,-734,5.73267,19.656,0,0,0,0,0,0,0,-1,1553,1758,5.73262,-19.656
336,-734,6.71375,23.7469,0,0,0,0,0,0,0,-1,1560,1758,6.71372,-23.7469
343,-734,5.54968,5.14221,0,0,0,0,0,0,0,-1,1567,1758,5.54973,-5.14225
350,-734,5.07397,6.73242,0,0,0,0,0,0,0,-1,1574,1758,5.07402,-6.73243
357,-734,5.05542,7.19189,0,0,0,0,0,0,0,-1,1581,1758,5.05541,-7.19184
364,-734,4.43896,10.4904,0,0,0,0,0,0,0,-1,1588,1758,4.43893,-10.4904
371,-734,7.36975,17.4751,0,0,0,0,0,0,0,-1,1595,1758,7.36972,-17.4752
378,-734,0,0,0,0,0,0,0,0,0,-1,1602,1758,0,0
385,-734,0,0,0,0,0,0,0,0,0,-1,1609,1758,0,0
392,-734,0,0,0,0,0,0,0,0,0,-1,1616,1758,0,0
399,-734,0,0,0,0,0,0,0,0,0,-1,1623,1758,0,0
406,-734,0,0,0,0,0,0,0,0,0,-1,1630,1758,0,0
413,-734,0,0,0,0,0,0,0,0,0,-1,1637,1758,0,0
420,-734,0,0,0,0,0,0,0,0,0,-1,1644,1758,0,0
427,-734,0,0,0,0,0,0,0,0,0,-1,1651,1758,0,0
434,-734,0,0,0,0,0,0,0,0,0,-1,1658,1758,0,0
441,-734,0,0,0,0,0,0,0,0,0,-1,1665,1758,0,0
448,-734,0,0,0,0,0,0,0,0,0,-1,1672,1758,0,0
455,-734,0,0,0,0,0,0,0,0,0,-1,1679,1758,0,0
462,-734,0,0,0,0,0,0,0,0,0,-1,1686,1758,0,0
469,-734,0,0,0,0,0,0,0,0,0,-1,1693,1758,0,0
476,-734,0,0,0,0,0,0,0,0,0,-1,1700,1758,0,0
483,-734,0,0,0,0,0,0,0,0,0,-1,1707,1758,0,0
490,-734,0,0,0,0,0,0,0,0,0,-1,1714,1758,0,0
497,-734,0,0,0,0,0,0,0,0,0,-1,1721,1758,0,0
504,-734,0,0,0,0,0,0,0,0,0,-1,1728,1758,0,0
511,-734,0,0,0,0,0,0,0,0,0,-1,1735,1758,0,0
518,-734,0,0,0,0,0,0,0,0,0,-1,1742,1758,0,0
525,-734,0,0,0,0,0,0,0,0,0,-1,1749,1758,0,0
532,-734,0,0,0,0,0,0,0,0,0,-1,1756,1758,0,0
539,-734,0,0,0,0,0,0,0,0,0,-1,1763,1758,0,0
546,-734,0,0,0,0,0,0,0,0,0,-1,1770,1758,0,0
553,-734,0,0,0,0,0,0,0,0,0,-1,1777,1758,0,0
560,-734,0,0,0,0,0,0,0,0,0,-1,1784,1758,0,0
567,-734,0,0,0,0,0,0,0,0,0,-1,1791,1758,0,0
574,-734,0,0,0,0,0,0,0,0,0,-1,1798,1758,0,0
581,-734,0,0,0,0,0,0,0,0,0,-1,1805,1758,0,0
588,-734,0,0,0,0,0,0,0,0,0,-1,1812,1758,0,0
595,-734,0,0,0,0,0,0,0,0,0,-1,1819,1758,0,0
602,-734,0,0,0,0,0,0,0,0,0,-1,1826,1758,0,0
609,-734,0,0,0,0,0,0,0,0,0,-1,1833,1758,0,0
616,-734,0,0,0,0,0,0,0,0,0,-1,1840,1758,0,0
623,-734,0,0,0,0,0,0,0,0,0,-1,1847,1758,0,0
630,-734,0,0,0,0,0,0,0,0,0,-1,1854,1758,0,0
637,-734,0,0,0,0,0,0,0,0,0,-1,1861,1758,0,0
644,-734,0,0,0,0,0,0,0,0,0,-1,1868,1758,0,0
651,-734,0,0,0,0,0,0,0,0,0,-1,1875,1758,0,0
658,-734,0,0,0,0,0,0,0,0,0,-1,1882,1758,0,0
665,-734,0,0,0,0,0,0,0,0,0,-1,1889,1758,0,0
672,-734,0,0,0,0,0,0,0,0,0,-1,1896,1758,0,0
679,-734,0,0,0,0,0,0,0,0,0,-1,1903,1758,0,0
686,-734,0,0,0,0,0,0,0,0,0,-1,1910,1758,0,0
693,-734,0,0,0,0,0,0,0,0,0,-1,1917,1758,0,0
700,-734,0,0,0,0,0,0,0,0,0,-1,1924,1758,0,0
707,-734,0,0,0,0,0,0,0,0,0,-1,1931,1758,0,0
714,-734,0,0,0,0,0,0,0,0,0,-1,1938,1758,0,0
721,-734,0,0,0,0,0,0,0,0,0,-1,1945,1758,0,0
728,-734,0,0,0,0,0,0,0,0,0,-1,1952,1758,0,0
735,-734,0,0,0,0,0,0,0,0,0,-1,1959,1758,0,0
742,-734,0,0,0,0,0,0,0,0,0,-1,1966,1758,0,0
749,-734,0,0,0,0,0,0,0,0,0,-1,1973,1758,0,0
756,-734,0,0,0,0,0,0,0,0,0,-1,1980,1758,0,0
763,-734,0,0,0,0,0,0,0,0,0,-1,1987,1758,0,0
770,-734,0,0,0,0,0,0,0,0,0,-1,1994,1758,0,0
777,-734,0,0,0,0,0,0,0,0,0,-1,2001,1758,0,0
784,-734,0,0,0,0,0,0,0,0,0,-1,2008,1758,0,0
791,-734,0,0,0,0,0,0,0,0,0,-1,2015,1758,0,0
798,-734,0,0,0,0,0,0,0,0,0,-1,2022,1758,0,0
805,-734,0,0,0,0,0,0,0,0,0,-1,2029,1758,0,0
812,-734,0,0,0,0,0,0,0,0,0,-1,2036,1758,0,0
-700,-741,0,0,0,0,0,0,0,0,0,-1,524,1765,0,0
-693,-741,0,0,0,0,0,0,0,0,0,-1,531,1765,0,0
-686,-741,0,0,0,0,0,0,0,0,0,-1,538,1765,0,0
-679,-741,0,0,0,0,0,0,0,0,0,-1,545,1765,0,0
-672,-741,0,0,0,0,0,0,0,0,0,-1,552,1765,0,0
-665,-741,0,0,0,0,0,0,0,0,0,-1,559,1765,0,0
-658,-741,0,0,0,0,0,0,0,0,0,-1,566,1765,0,0
-651,-741,0,0,0,0,0,0,0,0,0,-1,573,1765,0,0
-644,-741,0,0,0,0,0,0,0,0,0,-1,580,1765,0,0
-637,-741,0,0,0,0,0,0,0,0,0,-1,587,1765,0,0
-630,-741,0,0,0,0,0,0,0,0,0,-1,594,1765,0,0
-623,-741,0,0,0,0,0,0,0,0,0,-1,601,1765,0,0
-616,-741,0,0,0,0,0,0,0,0,0,-1,608,1765,0,0
-609,-741,0,0,0,0,0,0,0,0,0,-1,615,1765,0,0
-602,-741,0,0,0,0,0,0,0,0,0,-1,622,1765,0,0
-595,-741,0,0,0,0,0,0,0,0,0,-1,629,1765,0,0
-588,-741,0,0,0,0,0,0,0,0,0,-1,636,1765,0,0
-581,-741,0,0,0,0,0,0,0,0,0,-1,643,1765,0,0
-574,-741,0,0,0,0,0,0,0,0,0,-1,650,1765,0,0
-567,-741,0,0,0,0,0,0,0,0,0,-1,657,1765,0,0
-560,-741,0,0,0,0,0,0,0,0,0,-1,664,1765,0,0
-553,-741,0,0,0,0,0,0,0,0,0,-1,671,1765,0,0
-546,-741,0,0,0,0,0,0,0,0,0,-1,678,1765,0,0
-539,-741,0,0,0,0,0,0,0,0,0,-1,685,1765,0,0
-532,-741,0,0,0,0,0,0,0,0,0,-1,692,1765,0,0
-525,-741,0,0,0,0,0,0,0,0,0,-1,699,1765,0,0
-518,-741,0,0,0,0,0,0,0,0,0,-1,706,1765,0,0
-511,-741,0,0,0,0,0,0,0,0,0,-1,713,1765,0,0
-504,-741,0,0,0,0,0,0,0,0,0,-1,720,1765,0,0
-497,-741,0,0,0,0,0,0,0,0,0,-1,727,1765,0,0
-490,-741,0,0,0,0,0,0,0,0,0,-1,734,1765,0,0
-483,-741,0,0,0,0,0,0,0,0,0,-1,741,1765,0,0
-476,-741,0,0,0,0,0,0,0,0,0,-1,748,1765,0,0
-469,-741,0,0,0,0,0,0,0,0,0,-1,755,1765,0,0
-462,-741,0,0,0,0,0,0,0,0,0,-1,762,1765,0,0
-455,-741,0,0,0,0,0,0,0,0,0,-1,769,1765,0,0
-448,-741,0,0,0,0,0,0,0,0,0,-1,776,1765,0,0
-441,-741,0,0,0,0,0,0,0,0,0,-1,783,1765,0,0
-434,-741,0,0,0,0,0,0,0,0,0,-1,790,1765,0,0
-427,-741,0,0,0,0,0,0,0,0,0,-1,797,1765,0,0
-420,-741,0,0,0,0,0,0,0,0,0,-1,804,1765,0,0
-413,-741,0,0,0,0,0,0,0,0,0,-1,811,1765,0,0
-406,-741,0,0,0,0,0,0,0,0,0,-1,818,1765,0,0
-399,-741,0,0,0,0,0,0,0,0,0,-1,825,1765,0,0
-392,-741,0,0,0,0,0,0,0,0,0,-1,832,1765,0,0
-385,-741,0,0,0,0,0,0,0,0,0,-1,839,1765,0,0
-378,-741,0,0,0,0,0,0,0,0,0,-1,846,1765,0,0
-371,-741,0,0,0,0,0,0,0,0,0,-1,853,1765,0,0
-364,-741,0,0,0,0,0,0,0,0,0,-1,860,1765,0,0
-357,-741,0,0,0,0,0,0,0,0,0,-1,867,1765,0,0
-350,-741,0,0,0,0,0,0,0,0,0,-1,874,1765,0,0
-343,-741,0,0,0,0,0,0,0,0,0,-1,881,1765,0,0
-336,-741,0,0,0,0,0,0,0,0,0,-1,888,1765,0,0
-329,-741,0,0,0,0,0,0,0,0,0,-1,895,1765,0,0
-322,-741,0,0,0,0,0,0,0,0,0,-1,902,1765,0,0
-315,-741,0,0,0,0,0,0,0,0,0,-1,909,1765,0,0
-308,-741,0,0,0,0,0,0,0,0,0,-1,916,1765,0,0
-301,-741,0,0,0,0,0,0,0,0,0,-1,923,1765,0,0
-294,-741,0,0,0,0,0,0,0,0,0,-1,930,1765,0,0
-287,-741,0,0,0,0,0,0,0,0,0,-1,937,1765,0,0
-280,-741,0,0,0,0,0,0,0,0,0,-1,944,1765,0,0
-273,-741,0,0,0,0,0,0,0,0,0,-1,951,1765,0,0
-266,-741,0,0,0,0,0,0,0,0,0,-1,958,1765,0,0
-259,-741,0,0,0,0,0,0,0,0,0,-1,965,1765,0,0
-252,-741,0,0,0,0,0,0,0,0,0,-1,972,1765,0,0
-245,-741,0,0,0,0,0,0,0,0,0,-1,979,1765,0,0
-238,-741,7.13855,29.8348,0,0,0,0,0,0,0,-1,986,1765,7.13856,-29.8348
-231,-741,7.74182,29.3066,0,0,0,0,0,0,0,-1,993,1765,7.74183,-29.3066
-224,-741,7.80078,29.0964,0,0,0,0,0,0,0,-1,1000,1765,7.80079,-29.0964
-217,-741,8.15863,29.113,0,0,0,0,0,0,0,-1,1007,1765,8.15863,-29.1131
-210,-741,8.37024,29.3896,0,0,0,0,0,0,0,-1,1014,1765,8.37022,-29.3896
-203,-741,7.703,44.0701,0,0,0,0,0,0,0,-1,1021,1765,7.70306,-44.0701
-196,-741,13.1698,50.7012,0,0,0,0,0,0,0,-1,1028,1765,13.1698,-50.7012
-189,-741,12.3024,50.0712,0,0,0,0,0,0,0,-1,1035,1765,12.3023,-50.0712
-182,-741,11.3236,49.675,0,0,0,0,0,0,0,-1,1042,1765,11.3236,-49.675
-175,-741,10.1451,49.7836,0,0,0,0,0,0,0,-1,1049,1765,10.1451,-49.7836
-168,-741,9.26172,49.837,0,0,0,0,0,0,0,-1,1056,1765,9.26167,-49.837
-161,-741,8.42102,49.8832,0,0,0,0,0,0,0,-1,1063,1765,8.42099,-49.8832
-154,-741,10.5177,48.0798,0,0,0,0,0,0,0,-1,1070,1765,10.5177,-48.0798
-147,-741,10.9515,48.8568,0,0,0,0,0,0,0,-1,1077,1765,10.9515,-48.8569
-140,-741,10.5068,51.2876,0,0,0,0,0,0,0,-1,1084,1765,10.5068,-51.2876
-133,-741,10.6208,54.5072,0,0,0,0,0,0,0,-1,1091,1765,10.6208,-54.5072
-126,-741,9.89746,52.7167,0,0,0,0,0,0,0,-1,1098,1765,9.8975,-52.7167
-119,-741,9.33801,50.1482,0,0,0,0,0,0,0,-1,1105,1765,9.33802,-50.1482
-112,-741,9.6283,47.2815,0,0,0,0,0,0,0,-1,1112,1765,9.62827,-47.2815
-105,-741,9.61792,45.9158,0,0,0,0,0,0,0,-1,1119,1765,9.61797,-45.9158
-98,-741,9.19971,40.25,0,0,0,0,0,0,0,-1,1126,1765,9.19971,-40.25
-91,-741,8.40002,36.3687,0,0,0,0,0,0,0,-1,1133,1765,8.40002,-36.3687
-84,-741,7.8877,35.0892,0,0,0,0,0,0,0,-1,1140,1765,7.88776,-35.0892
-77,-741,7.73303,34.1174,0,0,0,0,0,0,0,-1,1147,1765,7.73304,-34.1174
-70,-741,7.5437,32.0275,0,0,0,0,0,0,0,-1,1154,1765,7.5437,-32.0275
-63,-741,9.38953,57.4615,0,0,0,0,0,0,0,-1,1161,1765,9.38956,-57.4616
-56,-741,9.65906,58.1384,0,0,0,0,0,0,0,-1,1168,1765,9.65902,-58.1385
-49,-741,9.60352,58.6191,0,0,0,0,0,0,0,-1,1175,1765,9.60348,-58.6192
-42,-741,9.54053,58.8717,0,0,0,0,0,0,0,-1,1182,1765,9.54055,-58.8717
-35,-741,9.54114,59.0527,-0.0015462,0.0126237,-0.0095183,0.0174045,-0.00632692,-1.10534,0.0141902,0.0246251,1189,1765,9.54109,-59.0527
-28,-741,9.51929,59.2708,-0.000288026,0.0131334,-0.00958407,0.0181226,-0.00527724,-1.09083,0.0141722,0.0155181,1196,1765,9.51933,-59.2707
-21,-741,9.49805,59.4771,0.000679221,0.0137356,-0.00912144,0.0184242,-0.00400945,-1.09599,0.0138146,0.0192339,1203,1765,9.49799,-59.4771
-14,-741,9.43066,59.6777,0.00151554,0.013749,-0.0076708,0.0174433,-0.00217872,-1.12198,0.012419,0.0184754,1210,1765,9.43069,-59.6777
-7,-741,9.41406,59.842,0.00239303,0.0138131,-0.00662415,0.0168486,-0.000642442,-1.14111,0.0114525,0.0144086,1217,1765,9.41407,-59.842
0,-741,9.35901,59.9493,0.00323384,0.0133695,-0.00572891,0.0159504,0.000652926,-1.14752,0.0104228,0.0152086,1224,1765,9.35901,-59.9493
7,-741,9.2926,60.0824,0.00373484,0.0124492,-0.00477405,0.0145555,0.00162854,-1.15529,0.00920895,0.0182843,1231,1765,9.29264,-60.0824
14,-741,9.25964,60.2278,0.0039122,0.0110552,-0.00399426,0.0128419,0.00212556,-1.15019,0.00794805,0.016742,1238,1765,9.25966,-60.2278
21,-741,9.21753,60.3148,0.0038716,0.00963885,-0.00345982,0.0112592,0.00225126,-1.13281,0.0068796,0.0126096,1245,1765,9.21757,-60.3148
28,-741,9.19531,60.429,0.00359052,0.00815019,-0.00320726,0.00980535,0.00193536,-1.09438,0.0059968,0.0126121,1252,1765,9.19536,-60.429
35,-741,9.18103,60.4999,0.00303365,0.00682893,-0.00323302,0.00868009,0.0011825,-1.05078,0.00543561,0.0149875,1259,1765,9.18109,-60.4999
42,-741,9.15686,60.5378,0.00249052,0.00607959,-0.0031694,0.00792723,0.000642881,-1.043,0.00508409,0.0169306,1266,1765,9.15685,-60.5378
49,-741,9.11658,60.5757,0.00162056,0.00543256,-0.0034542,0.00747172,-0.000418608,-1.03751,0.00512639,0.0112416,1273,1765,9.11656,-60.5757
56,-741,9.07361,60.6046,0.000594003,0.00492185,-0.00390329,0.00722091,-0.00170506,-1.0385,0.00547157,0.0102801,1280,1765,9.07366,-60.6046
63,-741,9.07251,60.5925,-0.000759359,0.00463775,-0.00499847,0.0076196,-0.0037412,-1.03292,0.00668535,0.0145095,1287,1765,9.07246,-60.5925
70,-741,9.04712,60.5847,-0.00202673,0.00549859,-0.00543678,0.00834775,-0.00487589,-1.08809,0.00772189,0.0168948,1294,1765,9.0471,-60.5848
77,-741,9.01086,60.5913,-0.00282279,0.00637977,-0.00554506,0.00898401,-0.00542703,-1.13172,0.00840427,0.0142659,1301,1765,9.01092,-60.5913
84,-741,8.95959,60.5651,-0.0035158,0.00715722,-0.00567748,0.00961251,-0.00597109,-1.16262,0.0090787,0.0165126,1308,1765,8.95963,-60.5651
91,-741,8.93213,60.51,-0.00403147,0.00805945,-0.00616158,0.0106461,-0.00661807,-1.17334,0.0100575,0.014622,1315,1765,8.93213,-60.51
98,-741,8.9209,60.4037,-0.00443952,0.00822768,-0.00592055,0.010564,-0.00677583,-1.19494,0.0100905,0.0110778,1322,1765,8.92084,-60.4037
105,-741,8.91443,60.2842,-0.00501239,0.00829359,-0.00534952,0.0101776,-0.00689635,-1.23219,0.00991812,0.0106117,1329,1765,8.91444,-60.2842
112,-741,8.92444,60.1425,-0.00532575,0.00799998,-0.00496075,0.00964391,-0.00696968,-1.2508,0.00963319,0.0105058,1336,1765,8.92448,-60.1425
119,-741,8.87451,60.0049,-0.00546097,0.00739405,-0.00446836,0.00879464,-0.00686156,-1.26705,0.00906205,0.0131685,1343,1765,8.87446,-60.0049
126,-741,8.83325,59.8501,-0.00542363,0.00637341,-0.0038739,0.00753178,-0.006582,-1.28024,0.00815474,0.0184294,1350,1765,8.83328,-59.8501
133,-741,8.80725,59.7158,-0.00523309,0.00539448,-0.00327351,0.00632187,-0.00616047,-1.29473,0.00720688,0.0150772,1357,1765,8.80728,-59.7158
140,-741,8.75952,59.5636,-0.00498985,0.00440584,-0.00268273,0.00511788,-0.00570189,-1.31136,0.00624983,0.0120774,1364,1765,8.75952,-59.5636
147,-741,8.73047,59.3754,-0.00468622,0.00337474,-0.00216774,0.00392071,-0.00523218,-1.32407,0.00530248,0.011193,1371,1765,8.73048,-59.3754
154,-741,8.69177,59.2025,-0.00436359,0.00239636,-0.00180969,0.00285034,-0.00481757,-1.32501,0.00447537,0.00901407,1378,1765,8.69174,-59.2025
161,-741,8.65186,58.9879,-0.00402157,0.00138647,-0.0015746,0.00181152,-0.00444662,-1.30714,0.00371837,0.0104006,1385,1765,8.65183,-58.9879
168,-741,8.62708,58.7485,-0.00384067,-4.28721e-06,-0.000990882,0.000236527,-0.00408149,-1.33239,0.00280316,0.025313,1392,1765,8.62707,-58.7486
175,-741,8.59729,58.5341,0,0,0,0,0,0,0,-1,1399,1765,8.5973,-58.5341
182,-741,8.54248,58.2134,0,0,0,0,0,0,0,-1,1406,1765,8.54247,-58.2134
189,-741,8.45251,57.9551,0,0,0,0,0,0,0,-1,1413,1765,8.45256,-57.9551
196,-741,8.41064,57.6637,0,0,0,0,0,0,0,-1,1420,1765,8.41064,-57.6637
203,-741,8.41797,57.2589,0,0,0,0,0,0,0,-1,1427,1765,8.41799,-57.2589
210,-741,8.33472,56.6648,0,0,0,0,0,0,0,-1,1434,1765,8.33473,-56.6647
217,-741,8.4032,40.1213,0,0,0,0,0,0,0,-1,1441,1765,8.40325,-40.1214
224,-741,8.0719,38.4249,0,0,0,0,0,0,0,-1,1448,1765,8.07187,-38.4249
231,-741,7.95923,39.0671,0,0,0,0,0,0,0,-1,1455,1765,7.9592,-39.0671
238,-741,7.96619,42.4865,0,0,0,0,0,0,0,-1,1462,1765,7.96621,-42.4864
245,-741,8.53577,45.7744,0,0,0,0,0,0,0,-1,1469,1765,8.53581,-45.7744
252,-741,8.59167,47.473,0,0,0,0,0,0,0,-1,1476,1765,8.59162,-47.473
259,-741,8.47412,48.5269,0,0,0,0,0,0,0,-1,1483,1765,8.47412,-48.5269
266,-741,8.50134,48.3838,0,0,0,0,0,0,0,-1,1490,1765,8.50132,-48.3838
273,-741,8.81421,49.1227,0,0,0,0,0,0,0,-1,1497,1765,8.81426,-49.1227
280,-741,7.33093,51.4729,0,0,0,0,0,0,0,-1,1504,1765,7.33092,-51.4729
287,-741,7.52783,49.7068,0,0,0,0,0,0,0,-1,1511,1765,7.52783,-49.7068
294,-741,5.91187,43.7742,0,0,0,0,0,0,0,-1,1518,1765,5.91188,-43.7742
301,-741,6.20667,38.5165,0,0,0,0,0,0,0,-1,1525,1765,6.20667,-38.5165
308,-741,7.99036,42.5969,0,0,0,0,0,0,0,-1,1532,1765,7.99037,-42.5969
315,-741,7.83838,41.6693,0,0,0,0,0,0,0,-1,1539,1765,7.83835,-41.6694
322,-741,7.68628,40.7418,0,0,0,0,0,0,0,-1,1546,1765,7.68633,-40.7418
329,-741,4.74414,17.928,0,0,0,0,0,0,0,-1,1553,1765,4.74414,-17.928
336,-741,5.74304,22.0945,0,0,0,0,0,0,0,-1,1560,1765,5.74306,-22.0945
343,-741,7.09888,26.501,0,0,0,0,0,0,0,-1,1567,1765,7.09885,-26.501
350,-741,4.90369,5.44666,0,0,0,0,0,0,0,-1,1574,1765,4.90368,-5.44664
357,-741,4.02063,5.16626,0,0,0,0,0,0,0,-1,1581,1765,4.02058,-5.1662
364,-741,0,0,0,0,0,0,0,0,0,-1,1588,1765,0,0
371,-741,0,0,0,0,0,0,0,0,0,-1,1595,1765,0,0
378,-741,0,0,0,0,0,0,0,0,0,-1,1602,1765,0,0
385,-741,0,0,0,0,0,0,0,0,0,-1,1609,1765,0,0
392,-741,0,0,0,0,0,0,0,0,0,-1,1616,1765,0,0
399,-741,0,0,0,0,0,0,0,0,0,-1,1623,1765,0,0
406,-741,0,0,0,0,0,0,0,0,0,-1,1630,1765,0,0
413,-741,0,0,0,0,0,0,0,0,0,-1,1637,1765,0,0
420,-741,0,0,0,0,0,0,0,0,0,-1,1644,1765,0,0
427,-741,0,0,0,0,0,0,0,0,0,-1,1651,1765,0,0
434,-741,0,0,0,0,0,0,0,0,0,-1,1658,1765,0,0
441,-741,0,0,0,0,0,0,0,0,0,-1,1665,1765,0,0
448,-741,0,0,0,0,0,0,0,0,0,-1,1672,1765,0,0
455,-741,0,0,0,0,0,0,0,0,0,-1,1679,1765,0,0
462,-741,0,0,0,0,0,0,0,0,0,-1,1686,1765,0,0
469,-741,0,0,0,0,0,0,0,0,0,-1,1693,1765,0,0
476,-741,0,0,0,0,0,0,0,0,0,-1,1700,1765,0,0
483,-741,0,0,0,0,0,0,0,0,0,-1,1707,1765,0,0
490,-741,0,0,0,0,0,0,0,0,0,-1,1714,1765,0,0
497,-741,0,0,0,0,0,0,0,0,0,-1,1721,1765,0,0
504,-741,0,0,0,0,0,0,0,0,0,-1,1728,1765,0,0
511,-741,0,0,0,0,0,0,0,0,0,-1,1735,1765,0,0
518,-741,0,0,0,0,0,0,0,0,0,-1,1742,1765,0,0
525,-741,0,0,0,0,0,0,0,0,0,-1,1749,1765,0,0
532,-741,0,0,0,0,0,0,0,0,0,-1,1756,1765,0,0
539,-741,0,0,0,0,0,0,0,0,0,-1,1763,1765,0,0
546,-741,0,0,0,0,0,0,0,0,0,-1,1770,1765,0,0
553,-741,0,0,0,0,0,0,0,0,0,-1,1777,1765,0,0
560,-741,0,0,0,0,0,0,0,0,0,-1,1784,1765,0,0
567,-741,0,0,0,0,0,0,0,0,0,-1,1791,1765,0,0
574,-741,0,0,0,0,0,0,0,0,0,-1,1798,1765,0,0
581,-741,0,0,0,0,0,0,0,0,0,-1,1805,1765,0,0
588,-741,0,0,0,0,0,0,0,0,0,-1,1812,1765,0,0
595,-741,0,0,0,0,0,0,0,0,0,-1,1819,1765,0,0
602,-741,0,0,0,0,0,0,0,0,0,-1,1826,1765,0,0
609,-741,0,0,0,0,0,0,0,0,0,-1,1833,1765,0,0
616,-741,0,0,0,0,0,0,0,0,0,-1,1840,1765,0,0
623,-741,0,0,0,0,0,0,0,0,0,-1,1847,1765,0,0
630,-741,0,0,0,0,0,0,0,0,0,-1,1854,1765,0,0
637,-741,0,0,0,0,0,0,0,0,0,-1,1861,1765,0,0
644,-741,0,0,0,0,0,0,0,0,0,-1,1868,1765,0,0
651,-741,0,0,0,0,0,0,0,0,0,-1,1875,1765,0,0
658,-741,0,0,0,0,0,0,0,0,0,-1,1882,1765,0,0
665,-741,0,0,0,0,0,0,0,0,0,-1,1889,1765,0,0
672,-741,0,0,0,0,0,0,0,0,0,-1,1896,1765,0,0
679,-741,0,0,0,0,0,0,0,0,0,-1,1903,1765,0,0
686,-741,0,0,0,0,0,0,0,0,0,-1,1910,1765,0,0
693,-741,0,0,0,0,0,0,0,0,0,-1,1917,1765,0,0
700,-741,0,0,0,0,0,0,0,0,0,-1,1924,1765,0,0
707,-741,0,0,0,0,0,0,0,0,0,-1,1931,1765,0,0
714,-741,0,0,0,0,0,0,0,0,0,-1,1938,1765,0,0
721,-741,0,0,0,0,0,0,0,0,0,-1,1945,1765,0,0
728,-741,0,0,0,0,0,0,0,0,0,-1,1952,1765,0,0
735,-741,0,0,0,0,0,0,0,0,0,-1,1959,1765,0,0
742,-741,0,0,0,0,0,0,0,0,0,-1,1966,1765,0,0
749,-741,0,0,0,0,0,0,0,0,0,-1,1973,1765,0,0
756,-741,0,0,0,0,0,0,0,0,0,-1,1980,1765,0,0
763,-741,0,0,0,0,0,0,0,0,0,-1,1987,1765,0,0
770,-741,0,0,0,0,0,0,0,0,0,-1,1994,1765,0,0
777,-741,0,0,0,0,0,0,0,0,0,-1,2001,1765,0,0
784,-741,0,0,0,0,0,0,0,0,0,-1,2008,1765,0,0
791,-741,0,0,0,0,0,0,0,0,0,-1,2015,1765,0,0
798,-741,0,0,0,0,0,0,0,0,0,-1,2022,1765,0,0
805,-741,0,0,0,0,0,0,0,0,0,-1,2029,1765,0,0
812,-741,0,0,0,0,0,0,0,0,0,-1,2036,1765,0,0
-700,-748,0,0,0,0,0,0,0,0,0,-1,524,1772,0,0
-693,-748,0,0,0,0,0,0,0,0,0,-1,531,1772,0,0
-686,-748,0,0,0,0,0,0,0,0,0,-1,538,1772,0,0
-679,-748,0,0,0,0,0,0,0,0,0,-1,545,1772,0,0
-672,-748,0,0,0,0,0,0,0,0,0,-1,552,1772,0,0
-665,-748,0,0,0,0,0,0,0,0,0,-1,559,1772,0,0
-658,-748,0,0,0,0,0,0,0,0,0,-1,566,1772,0,0
-651,-748,0,0,0,0,0,0,0,0,0,-1,573,1772,0,0
-644,-748,0,0,0,0,0,0,0,0,0,-1,580,1772,0,0
-637,-748,0,0,0,0,0,0,0,0,0,-1,587,1772,0,0
-630,-748,0,0,0,0,0,0,0,0,0,-1,594,1772,0,0
-623,-748,0,0,0,0,0,0,0,0,0,-1,601,1772,0,0
-616,-748,0,0,0,0,0,0,0,0,0,-1,608,1772,0,0
-609,-748,0,0,0,0,0,0,0,0,0,-1,615,1772,0,0
-602,-748,0,0,0,0,0,0,0,0,0,-1,622,1772,0,0
-595,-748,0,0,0,0,0,0,0,0,0,-1,629,1772,0,0
-588,-748,0,0,0,0,0,0,0,0,0,-1,636,1772,0,0
-581,-748,0,0,0,0,0,0,0,0,0,-1,643,1772,0,0
-574,-748,0,0,0,0,0,0,0,0,0,-1,650,1772,0,0
-567,-748,0,0,0,0,0,0,0,0,0,-1,657,1772,0,0
-560,-748,0,0,0,0,0,0,0,0,0,-1,664,1772,0,0
-553,-748,0,0,0,0,0,0,0,0,0,-1,671,1772,0,0
-546,-748,0,0,0,0,0,0,0,0,0,-1,678,1772,0,0
-539,-748,0,0,0,0,0,0,0,0,0,-1,685,1772,0,0
-532,-748,0,0,0,0,0,0,0,0,0,-1,692,1772,0,0
-525,-748,0,0,0,0,0,0,0,0,0,-1,699,1772,0,0
-518,-748,0,0,0,0,0,0,0,0,0,-1,706,1772,0,0
-511,-748,0,0,0,0,0,0,0,0,0,-1,713,1772,0,0
-504,-748,0,0,0,0,0,0,0,0,0,-1,720,1772,0,0
-497,-748,0,0,0,0,0,0,0,0,0,-1,727,1772,0,0
-490,-748,0,0,0,0,0,0,0,0,0,-1,734,1772,0,0
-483,-748,0,0,0,0,0,0,0,0,0,-1,741,1772,0,0
-476,-748,0,0,0,0,0,0,0,0,0,-1,748,1772,0,0
-469,-748,0,0,0,0,0,0,0,0,0,-1,755,1772,0,0
-462,-748,0,0,0,0,0,0,0,0,0,-1,762,1772,0,0
-455,-748,0,0,0,0,0,0,0,0,0,-1,769,1772,0,0
-448,-748,0,0,0,0,0,0,0,0,0,-1,776,1772,0,0
-441,-748,0,0,0,0,0,0,0,0,0,-1,783,1772,0,0
-434,-748,0,0,0,0,0,0,0,0,0,-1,790,1772,0,0
-427,-748,0,0,0,0,0,0,0,0,0,-1,797,1772,0,0
-420,-748,0,0,0,0,0,0,0,0,0,-1,804,1772,0,0
-413,-748,0,0,0,0,0,0,0,0,0,-1,811,1772,0,0
-406,-748,0,0,0,0,0,0,0,0,0,-1,818,1772,0,0
-399,-748,0,0,0,0,0,0,0,0,0,-1,825,1772,0,0
-392,-748,0,0,0,0,0,0,0,0,0,-1,832,1772,0,0
-385,-748,0,0,0,0,0,0,0,0,0,-1,839,1772,0,0
-378,-748,0,0,0,0,0,0,0,0,0,-1,846,1772,0,0
-371,-748,0,0,0,0,0,0,0,0,0,-1,853,1772,0,0
-364,-748,0,0,0,0,0,0,0,0,0,-1,860,1772,0,0
-357,-748,0,0,0,0,0,0,0,0,0,-1,867,1772,0,0
-350,-748,0,0,0,0,0,0,0,0,0,-1,874,1772,0,0
-343,-748,0,0,0,0,0,0,0,0,0,-1,881,1772,0,0
-336,-748,0,0,0,0,0,0,0,0,0,-1,888,1772,0,0
-329,-748,0,0,0,0,0,0,0,0,0,-1,895,1772,0,0
-322,-748,0,0,0,0,0,0,0,0,0,-1,902,1772,0,0
-315,-748,0,0,0,0,0,0,0,0,0,-1,909,1772,0,0
-308,-748,0,0,0,0,0,0,0,0,0,-1,916,1772,0,0
-301,-748,0,0,0,0,0,0,0,0,0,-1,923,1772,0,0
-294,-748,0,0,0,0,0,0,0,0,0,-1,930,1772,0,0
-287,-748,0,0,0,0,0,0,0,0,0,-1,937,1772,0,0
-280,-748,0,0,0,0,0,0,0,0,0,-1,944,1772,0,0
-273,-748,0,0,0,0,0,0,0,0,0,-1,951,1772,0,0
-266,-748,0,0,0,0,0,0,0,0,0,-1,958,1772,0,0
-259,-748,0,0,0,0,0,0,0,0,0,-1,965,1772,0,0
-252,-748,0,0,0,0,0,0,0,0,0,-1,972,1772,0,0
-245,-748,0,0,0,0,0,0,0,0,0,-1,979,1772,0,0
-238,-748,0,0,0,0,0,0,0,0,0,-1,986,1772,0,0
-231,-748,0,0,0,0,0,0,0,0,0,-1,993,1772,0,0
-224,-748,0,0,0,0,0,0,0,0,0,-1,1000,1772,0,0
-217,-748,8.97742,29.9884,0,0,0,0,0,0,0,-1,1007,1772,8.97744,-29.9884
-210,-748,8.8941,30.14,0,0,0,0,0,0,0,-1,1014,1772,8.8941,-30.14
-203,-748,7.88,43.3942,0,0,0,0,0,0,0,-1,1021,1772,7.87999,-43.3941
-196,-748,7.95483,43.9952,0,0,0,0,0,0,0,-1,1028,1772,7.95478,-43.9953
-189,-748,8.18359,44.5873,0,0,0,0,0,0,0,-1,1035,1772,8.18358,-44.5873
-182,-748,8.49304,45.5183,0,0,0,0,0,0,0,-1,1042,1772,8.49308,-45.5183
-175,-748,10.4392,50.6167,0,0,0,0,0,0,0,-1,1049,1772,10.4392,-50.6167
-168,-748,9.54541,50.6587,0,0,0,0,0,0,0,-1,1056,1772,9.54547,-50.6586
-161,-748,10.7574,47.7889,0,0,0,0,0,0,0,-1,1063,1772,10.7574,-47.7889
-154,-748,11.4552,48.7113,0,0,0,0,0,0,0,-1,1070,1772,11.4552,-48.7113
-147,-748,11.7789,49.4792,0,0,0,0,0,0,0,-1,1077,1772,11.7789,-49.4793
-140,-748,10.4108,44.9001,0,0,0,0,0,0,0,-1,1084,1772,10.4107,-44.9001
-133,-748,7.44727,22.0308,0,0,0,0,0,0,0,-1,1091,1772,7.44728,-22.0308
-126,-748,5.98035,22.6067,0,0,0,0,0,0,0,-1,1098,1772,5.9803,-22.6067
-119,-748,6.63342,26.309,0,0,0,0,0,0,0,-1,1105,1772,6.6334,-26.3089
-112,-748,6.91333,24.923,0,0,0,0,0,0,0,-1,1112,1772,6.91339,-24.923
-105,-748,6.83313,25.0537,0,0,0,0,0,0,0,-1,1119,1772,6.83311,-25.0537
-98,-748,8.13623,30.8743,0,0,0,0,0,0,0,-1,1126,1772,8.13628,-30.8742
-91,-748,4.85352,15.3033,0,0,0,0,0,0,0,-1,1133,1772,4.85351,-15.3033
-84,-748,-0.192017,7.26196,0,0,0,0,0,0,0,-1,1140,1772,-0.192047,-7.26201
-77,-748,4.42615,13.5537,0,0,0,0,0,0,0,-1,1147,1772,4.4261,-13.5538
-70,-748,4.46191,13.7446,0,0,0,0,0,0,0,-1,1154,1772,4.4619,-13.7446
-63,-748,4.49768,13.9355,0,0,0,0,0,0,0,-1,1161,1772,4.49769,-13.9355
-56,-748,3.05762,7.87817,0,0,0,0,0,0,0,-1,1168,1772,3.05768,-7.87822
-49,-748,3.04102,7.82471,0,0,0,0,0,0,0,-1,1175,1772,3.04096,-7.82468
-42,-748,0.793457,14.9474,0,0,0,0,0,0,0,-1,1182,1772,0.793413,-14.9474
-35,-748,9.80762,59.001,0,0,0,0,0,0,0,-1,1189,1772,9.80761,-59.0009
-28,-748,9.74561,59.2937,-0.000307506,0.0142205,-0.0188595,0.0271665,-0.0132536,-0.969224,0.0237929,0.0488293,1196,1772,9.74558,-59.2937
-21,-748,9.66675,59.4861,0.00126709,0.0152727,-0.017582,0.0271952,-0.0106554,-0.974915,0.0225378,0.0231813,1203,1772,9.66672,-59.4861
-14,-748,9.56287,59.6045,0.00262526,0.0156279,-0.0150388,0.0255105,-0.00725733,-0.989419,0.0198729,0.0163326,1210,1772,9.56289,-59.6045
-7,-748,9.53577,59.7745,0.00400188,0.0158994,-0.0129851,0.0242335,-0.0043322,-1.00019,0.0177766,0.0149857,1217,1772,9.5358,-59.7745
0,-748,9.47705,59.9253,0.00525081,0.0155404,-0.011234,0.0227517,-0.00196044,-1.00013,0.0158617,0.015454,1224,1772,9.47707,-59.9252
7,-748,9.41211,60.0444,0.00602968,0.0145302,-0.00955345,0.0207362,-0.000176317,-0.994697,0.0138833,0.0155264,1231,1772,9.41212,-60.0444
14,-748,9.35437,60.2081,0.00636959,0.0129425,-0.00821408,0.0185032,0.000808895,-0.975694,0.0120748,0.0160092,1238,1772,9.35432,-60.2082
21,-748,9.31482,60.3104,0.00634847,0.0113671,-0.00726595,0.0165449,0.00117075,-0.951663,0.0106611,0.0110471,1245,1772,9.31481,-60.3104
28,-748,9.29431,60.4136,0.00589215,0.00977538,-0.00672993,0.0148382,0.000829355,-0.925837,0.00962758,0.0112606,1252,1772,9.29437,-60.4135
35,-748,9.24133,60.4587,0.00501096,0.00843634,-0.0065709,0.0135141,-6.67954e-05,-0.912885,0.00903174,0.0126155,1259,1772,9.24139,-60.4587
42,-748,9.22144,60.49,0.00418947,0.00779386,-0.00627361,0.012519,-0.000535666,-0.925265,0.00853016,0.0137313,1266,1772,9.22143,-60.49
49,-748,9.15662,60.5148,0.00282299,0.00732149,-0.00642444,0.011879,-0.00173456,-0.953784,0.00855635,0.0108021,1273,1772,9.1566,-60.5148
56,-748,9.09363,60.5663,0.00109178,0.00691957,-0.0068322,0.0114333,-0.00342196,-0.986966,0.00898282,0.0104953,1280,1772,9.09362,-60.5663
63,-748,9.06567,60.5713,-0.00110286,0.0069813,-0.00808856,0.0119815,-0.00610308,-1.01711,0.0106234,0.0123094,1287,1772,9.06566,-60.5713
70,-748,9.04358,60.5598,-0.00321019,0.00824817,-0.0085663,0.0128246,-0.00778659,-1.08014,0.0120178,0.0145439,1294,1772,9.04356,-60.5598
77,-748,8.9917,60.5328,-0.00466241,0.00957002,-0.00857381,0.0135961,-0.00868849,-1.13178,0.0129696,0.0132426,1301,1772,8.99173,-60.5328
84,-748,8.92334,60.5115,-0.00590476,0.0107091,-0.00863686,0.0143855,-0.00958118,-1.16836,0.0139295,0.0145875,1308,1772,8.9234,-60.5114
91,-748,8.8761,60.4762,-0.00680077,0.0120099,-0.00920473,0.0157646,-0.0105555,-1.18349,0.0152948,0.0132955,1315,1772,8.8761,-60.4762
98,-748,8.83044,60.3817,-0.00752759,0.0122861,-0.00878439,0.0156198,-0.0108613,-1.20809,0.0153709,0.0126661,1322,1772,8.83044,-60.3817
105,-748,8.81201,60.2428,-0.00841931,0.0123258,-0.00794665,0.01502,-0.0111135,-1.24393,0.0151442,0.0123168,1329,1772,8.81206,-60.2428
112,-748,8.80884,60.1213,-0.00894915,0.0118792,-0.00735291,0.0142133,-0.0112833,-1.26341,0.0147529,0.0145441,1336,1772,8.80881,-60.1213
119,-748,8.75818,60.0018,-0.00920788,0.0109954,-0.00664217,0.0129835,-0.011196,-1.27997,0.0139727,0.0130098,1343,1772,8.75813,-60.0018
126,-748,8.70007,59.8835,-0.00907712,0.00946902,-0.00580602,0.0111367,-0.0107448,-1.2911,0.0126339,0.013847,1350,1772,8.70012,-59.8836
133,-748,8.62683,59.723,-0.00866231,0.00788759,-0.00493336,0.00924658,-0.0100213,-1.30199,0.0111273,0.0089337,1357,1772,8.62685,-59.723
140,-748,8.59485,59.5504,-0.00812431,0.0062228,-0.00403615,0.00728031,-0.00918182,-1.31455,0.00952553,0.0126253,1364,1772,8.5949,-59.5504
147,-748,8.56763,59.3743,-0.00743388,0.00444972,-0.00315892,0.00523723,-0.0082214,-1.32648,0.00783376,0.0149342,1371,1772,8.56764,-59.3742
154,-748,8.49683,59.1804,-0.00654266,0.00280169,-0.00248739,0.00342256,-0.00716353,-1.32619,0.00623779,0.0128138,1378,1772,8.49687,-59.1804
161,-748,8.42249,58.989,-0.00545777,0.00110427,-0.00204568,0.00168976,-0.00604326,-1.29204,0.00469458,0.0187442,1385,1772,8.42247,-58.989
168,-748,8.3717,58.8094,0,0,0,0,0,0,0,-1,1392,1772,8.37172,-58.8094
175,-748,11.6235,16.8242,0,0,0,0,0,0,0,-1,1399,1772,11.6236,-16.8242
182,-748,7.62476,10.3058,0,0,0,0,0,0,0,-1,1406,1772,7.62476,-10.3058
189,-748,6.15857,6.95898,0,0,0,0,0,0,0,-1,1413,1772,6.15862,-6.95896
196,-748,3.9425,8.46021,0,0,0,0,0,0,0,-1,1420,1772,3.9425,-8.46026
203,-748,3.9668,12.9835,0,0,0,0,0,0,0,-1,1427,1772,3.96678,-12.9836
210,-748,4.71472,16.8318,0,0,0,0,0,0,0,-1,1434,1772,4.71471,-16.8317
217,-748,5.38452,21.5551,0,0,0,0,0,0,0,-1,1441,1772,5.38455,-21.555
224,-748,6.14258,25.2345,0,0,0,0,0,0,0,-1,1448,1772,6.14263,-25.2345
231,-748,6.46045,29.7867,0,0,0,0,0,0,0,-1,1455,1772,6.46049,-29.7867
238,-748,7.41565,32.8574,0,0,0,0,0,0,0,-1,1462,1772,7.41562,-32.8574
245,-748,7.84912,32.0914,0,0,0,0,0,0,0,-1,1469,1772,7.84914,-32.0914
252,-748,7.57336,29.4369,0,0,0,0,0,0,0,-1,1476,1772,7.57337,-29.4369
259,-748,9.47351,46.1896,0,0,0,0,0,0,0,-1,1483,1772,9.4735,-46.1895
266,-748,8.36536,48.6908,0,0,0,0,0,0,0,-1,1490,1772,8.36541,-48.6909
273,-748,7.31421,46.6743,0,0,0,0,0,0,0,-1,1497,1772,7.31415,-46.6743
280,-748,8.76538,40.4501,0,0,0,0,0,0,0,-1,1504,1772,8.76537,-40.45
287,-748,14.161,8.32813,0,0,0,0,0,0,0,-1,1511,1772,14.161,-8.32808
294,-748,6.38525,32.4724,0,0,0,0,0,0,0,-1,1518,1772,6.38521,-32.4725
301,-748,5.40393,38.9807,0,0,0,0,0,0,0,-1,1525,1772,5.40397,-38.9807
308,-748,5.95227,37.1827,0,0,0,0,0,0,0,-1,1532,1772,5.95229,-37.1827
315,-748,7.71741,42.637,0,0,0,0,0,0,0,-1,1539,1772,7.71738,-42.637
322,-748,4.26538,29.0557,0,0,0,0,0,0,0,-1,1546,1772,4.26537,-29.0556
329,-748,3.87256,16.1473,0,0,0,0,0,0,0,-1,1553,1772,3.87259,-16.1474
336,-748,4.81006,19.6141,0,0,0,0,0,0,0,-1,1560,1772,4.81011,-19.6141
343,-748,0,0,0,0,0,0,0,0,0,-1,1567,1772,0,0
350,-748,0,0,0,0,0,0,0,0,0,-1,1574,1772,0,0
357,-748,0,0,0,0,0,0,0,0,0,-1,1581,1772,0,0
364,-748,0,0,0,0,0,0,0,0,0,-1,1588,1772,0,0
371,-748,0,0,0,0,0,0,0,0,0,-1,1595,1772,0,0
378,-748,0,0,0,0,0,0,0,0,0,-1,1602,1772,0,0
385,-748,0,0,0,0,0,0,0,0,0,-1,1609,1772,0,0
392,-748,0,0,0,0,0,0,0,0,0,-1,1616,1772,0,0
399,-748,0,0,0,0,0,0,0,0,0,-1,1623,1772,0,0
406,-748,0,0,0,0,0,0,0,0,0,-1,1630,1772,0,0
413,-748,0,0,0,0,0,0,0,0,0,-1,1637,1772,0,0
420,-748,0,0,0,0,0,0,0,0,0,-1,1644,1772,0,0
427,-748,0,0,0,0,0,0,0,0,0,-1,1651,1772,0,0
434,-748,0,0,0,0,0,0,0,0,0,-1,1658,1772,0,0
441,-748,0,0,0,0,0,0,0,0,0,-1,1665,1772,0,0
448,-748,0,0,0,0,0,0,0,0,0,-1,1672,1772,0,0
455,-748,0,0,0,0,0,0,0,0,0,-1,1679,1772,0,0
462,-748,0,0,0,0,0,0,0,0,0,-1,1686,1772,0,0
469,-748,0,0,0,0,0,0,0,0,0,-1,1693,1772,0,0
476,-748,0,0,0,0,0,0,0,0,0,-1,1700,1772,0,0
483,-748,0,0,0,0,0,0,0,0,0,-1,1707,1772,0,0
490,-748,0,0,0,0,0,0,0,0,0,-1,1714,1772,0,0
497,-748,0,0,0,0,0,0,0,0,0,-1,1721,1772,0,0
504,-748,0,0,0,0,0,0,0,0,0,-1,1728,1772,0,0
511,-748,0,0,0,0,0,0,0,0,0,-1,1735,1772,0,0
518,-748,0,0,0,0,0,0,0,0,0,-1,1742,1772,0,0
525,-748,0,0,0,0,0,0,0,0,0,-1,1749,1772,0,0
532,-748,0,0,0,0,0,0,0,0,0,-1,1756,1772,0,0
539,-748,0,0,0,0,0,0,0,0,0,-1,1763,1772,0,0
546,-748,0,0,0,0,0,0,0,0,0,-1,1770,1772,0,0
553,-748,0,0,0,0,0,0,0,0,0,-1,1777,1772,0,0
560,-748,0,0,0,0,0,0,0,0,0,-1,1784,1772,0,0
567,-748,0,0,0,0,0,0,0,0,0,-1,1791,1772,0,0
574,-748,0,0,0,0,0,0,0,0,0,-1,1798,1772,0,0
581,-748,0,0,0,0,0,0,0,0,0,-1,1805,1772,0,0
588,-748,0,0,0,0,0,0,0,0,0,-1,1812,1772,0,0
595,-748,0,0,0,0,0,0,0,0,0,-1,1819,1772,0,0
602,-748,0,0,0,0,0,0,0,0,0,-1,1826,1772,0,0
609,-748,0,0,0,0,0,0,0,0,0,-1,1833,1772,0,0
616,-748,0,0,0,0,0,0,0,0,0,-1,1840,1772,0,0
623,-748,0,0,0,0,0,0,0,0,0,-1,1847,1772,0,0
630,-748,0,0,0,0,0,0,0,0,0,-1,1854,1772,0,0
637,-748,0,0,0,0,0,0,0,0,0,-1,1861,1772,0,0
644,-748,0,0,0,0,0,0,0,0,0,-1,1868,1772,0,0
651,-748,0,0,0,0,0,0,0,0,0,-1,1875,1772,0,0
658,-748,0,0,0,0,0,0,0,0,0,-1,1882,1772,0,0
665,-748,0,0,0,0,0,0,0,0,0,-1,1889,1772,0,0
672,-748,0,0,0,0,0,0,0,0,0,-1,1896,1772,0,0
679,-748,0,0,0,0,0,0,0,0,0,-1,1903,1772,0,0
686,-748,0,0,0,0,0,0,0,0,0,-1,1910,1772,0,0
693,-748,0,0,0,0,0,0,0,0,0,-1,1917,1772,0,0
700,-748,0,0,0,0,0,0,0,0,0,-1,1924,1772,0,0
707,-748,0,0,0,0,0,0,0,0,0,-1,1931,1772,0,0
714,-748,0,0,0,0,0,0,0,0,0,-1,1938,1772,0,0
721,-748,0,0,0,0,0,0,0,0,0,-1,1945,1772,0,0
728,-748,0,0,0,0,0,0,0,0,0,-1,1952,1772,0,0
735,-748,0,0,0,0,0,0,0,0,0,-1,1959,1772,0,0
742,-748,0,0,0,0,0,0,0,0,0,-1,1966,1772,0,0
749,-748,0,0,0,0,0,0,0,0,0,-1,1973,1772,0,0
756,-748,0,0,0,0,0,0,0,0,0,-1,1980,1772,0,0
763,-748,0,0,0,0,0,0,0,0,0,-1,1987,1772,0,0
770,-748,0,0,0,0,0,0,0,0,0,-1,1994,1772,0,0
777,-748,0,0,0,0,0,0,0,0,0,-1,2001,1772,0,0
784,-748,0,0,0,0,0,0,0,0,0,-1,2008,1772,0,0
791,-748,0,0,0,0,0,0,0,0,0,-1,2015,1772,0,0
798,-748,0,0,0,0,0,0,0,0,0,-1,2022,1772,0,0
805,-748,0,0,0,0,0,0,0,0,0,-1,2029,1772,0,0
812,-748,0,0,0,0,0,0,0,0,0,-1,2036,1772,0,0
-700,-755,0,0,0,0,0,0,0,0,0,-1,524,1779,0,0
-693,-755,0,0,0,0,0,0,0,0,0,-1,531,1779,0,0
-686,-755,0,0,0,0,0,0,0,0,0,-1,538,1779,0,0
-679,-755,0,0,0,0,0,0,0,0,0,-1,545,1779,0,0
-672,-755,0,0,0,0,0,0,0,0,0,-1,552,1779,0,0
-665,-755,0,0,0,0,0,0,0,0,0,-1,559,1779,0,0
-658,-755,0,0,0,0,0,0,0,0,0,-1,566,1779,0,0
-651,-755,0,0,0,0,0,0,0,0,0,-1,573,1779,0,0
-644,-755,0,0,0,0,0,0,0,0,0,-1,580,1779,0,0
-637,-755,0,0,0,0,0,0,0,0,0,-1,587,1779,0,0
-630,-755,0,0,0,0,0,0,0,0,0,-1,594,1779,0,0
-623,-755,0,0,0,0,0,0,0,0,0,-1,601,1779,0,0
-616,-755,0,0,0,0,0,0,0,0,0,-1,608,1779,0,0
-609,-755,0,0,0,0,0,0,0,0,0,-1,615,1779,0,0
-602,-755,0,0,0,0,0,0,0,0,0,-1,622,1779,0,0
-595,-755,0,0,0,0,0,0,0,0,0,-1,629,1779,0,0
-588,-755,0,0,0,0,0,0,0,0,0,-1,636,1779,0,0
-581,-755,0,0,0,0,0,0,0,0,0,-1,643,1779,0,0
-574,-755,0,0,0,0,0,0,0,0,0,-1,650,1779,0,0
-567,-755,0,0,0,0,0,0,0,0,0,-1,657,1779,0,0
-560,-755,0,0,0,0,0,0,0,0,0,-1,664,1779,0,0
-553,-755,0,0,0,0,0,0,0,0,0,-1,671,1779,0,0
-546,-755,0,0,0,0,0,0,0,0,0,-1,678,1779,0,0
-539,-755,0,0,0,0,0,0,0,0,0,-1,685,1779,0,0
-532,-755,0,0,0,0,0,0,0,0,0,-1,692,1779,0,0
-525,-755,0,0,0,0,0,0,0,0,0,-1,699,1779,0,0
-518,-755,0,0,0,0,0,0,0,0,0,-1,706,1779,0,0
-511,-755,0,0,0,0,0,0,0,0,0,-1,713,1779,0,0
-504,-755,0,0,0,0,0,0,0,0,0,-1,720,1779,0,0
-497,-755,0,0,0,0,0,0,0,0,0,-1,727,1779,0,0
-490,-755,0,0,0,0,0,0,0,0,0,-1,734,1779,0,0
-483,-755,0,0,0,0,0,0,0,0,0,-1,741,1779,0,0
-476,-755,0,0,0,0,0,0,0,0,0,-1,748,1779,0,0
-469,-755,0,0,0,0,0,0,0,0,0,-1,755,1779,0,0
-462,-755,0,0,0,0,0,0,0,0,0,-1,762,1779,0,0
-455,-755,0,0,0,0,0,0,0,0,0,-1,769,1779,0,0
-448,-755,0,0,0,0,0,0,0,0,0,-1,776,1779,0,0
-441,-755,0,0,0,0,0,0,0,0,0,-1,783,1779,0,0
-434,-755,0,0,0,0,0,0,0,0,0,-1,790,1779,0,0
-427,-755,0,0,0,0,0,0,0,0,0,-1,797,1779,0,0
-420,-755,0,0,0,0,0,0,0,0,0,-1,804,1779,0,0
-413,-755,0,0,0,0,0,0,0,0,0,-1,811,1779,0,0
-406,-755,0,0,0,0,0,0,0,0,0,-1,818,1779,0,0
-399,-755,0,0,0,0,0,0,0,0,0,-1,825,1779,0,0
-392,-755,0,0,0,0,0,0,0,0,0,-1,832,1779,0,0
-385,-755,0,0,0,0,0,0,0,0,0,-1,839,1779,0,0
-378,-755,0,0,0,0,0,0,0,0,0,-1,846,1779,0,0
-371,-755,0,0,0,0,0,0,0,0,0,-1,853,1779,0,0
-364,-755,0,0,0,0,0,0,0,0,0,-1,860,1779,0,0
-357,-755,0,0,0,0,0,0,0,0,0,-1,867,1779,0,0
-350,-755,0,0,0,0,0,0,0,0,0,-1,874,1779,0,0
-343,-755,0,0,0,0,0,0,0,0,0,-1,881,1779,0,0
-336,-755,0,0,0,0,0,0,0,0,0,-1,888,1779,0,0
-329,-755,0,0,0,0,0,0,0,0,0,-1,895,1779,0,0
-322,-755,0,0,0,0,0,0,0,0,0,-1,902,1779,0,0
-315,-755,0,0,0,0,0,0,0,0,0,-1,909,1779,0,0
-308,-755,0,0,0,0,0,0,0,0,0,-1,916,1779,0,0
-301,-755,0,0,0,0,0,0,0,0,0,-1,923,1779,0,0
-294,-755,0,0,0,0,0,0,0,0,0,-1,930,1779,0,0
-287,-755,0,0,0,0,0,0,0,0,0,-1,937,1779,0,0
-280,-755,0,0,0,0,0,0,0,0,0,-1,944,1779,0,0
-273,-755,0,0,0,0,0,0,0,0,0,-1,951,1779,0,0
-266,-755,0,0,0,0,0,0,0,0,0,-1,958,1779,0,0
-259,-755,0,0,0,0,0,0,0,0,0,-1,965,1779,0,0
-252,-755,0,0,0,0,0,0,0,0,0,-1,972,1779,0,0
-245,-755,0,0,0,0,0,0,0,0,0,-1,979,1779,0,0
-238,-755,0,0,0,0,0,0,0,0,0,-1,986,1779,0,0
-231,-755,0,0,0,0,0,0,0,0,0,-1,993,1779,0,0
-224,-755,0,0,0,0,0,0,0,0,0,-1,1000,1779,0,0
-217,-755,0,0,0,0,0,0,0,0,0,-1,1007,1779,0,0
-210,-755,0,0,0,0,0,0,0,0,0,-1,1014,1779,0,0
-203,-755,8.97363,30.5414,0,0,0,0,0,0,0,-1,1021,1779,8.97362,-30.5414
-196,-755,8.08667,43.2203,0,0,0,0,0,0,0,-1,1028,1779,8.08666,-43.2204
-189,-755,0.725098,39.8892,0,0,0,0,0,0,0,-1,1035,1779,0.725055,-39.8891
-182,-755,1.80835,40.9692,0,0,0,0,0,0,0,-1,1042,1779,1.80838,-40.9692
-175,-755,3.04749,41.9612,0,0,0,0,0,0,0,-1,1049,1779,3.0475,-41.9612
-168,-755,4.8302,42.7631,0,0,0,0,0,0,0,-1,1056,1779,4.8302,-42.7631
-161,-755,6.46777,44.0007,0,0,0,0,0,0,0,-1,1063,1779,6.46773,-44.0007
-154,-755,7.71094,44.9023,0,0,0,0,0,0,0,-1,1070,1779,7.71089,-44.9023
-147,-755,-6.45593,10.2422,0,0,0,0,0,0,0,-1,1077,1779,-6.45594,-10.2422
-140,-755,1.33521,21.3856,0,0,0,0,0,0,0,-1,1084,1779,1.33522,-21.3857
-133,-755,2.89417,21.0964,0,0,0,0,0,0,0,-1,1091,1779,2.89422,-21.0964
-126,-755,3.26404,20.9304,0,0,0,0,0,0,0,-1,1098,1779,3.26399,-20.9305
-119,-755,5.17761,21.9325,0,0,0,0,0,0,0,-1,1105,1779,5.17761,-21.9325
-112,-755,5.40247,24.5646,0,0,0,0,0,0,0,-1,1112,1779,5.40244,-24.5646
-105,-755,7.01294,20.1539,0,0,0,0,0,0,0,-1,1119,1779,7.01295,-20.154
-98,-755,5.50708,16.9628,0,0,0,0,0,0,0,-1,1126,1779,5.5071,-16.9628
-91,-755,5.51025,12.0438,0,0,0,0,0,0,0,-1,1133,1779,5.51022,-12.0439
-84,-755,0.169312,8.66443,0,0,0,0,0,0,0,-1,1140,1779,0.16932,-8.66446
-77,-755,-0.0491943,6.87439,0,0,0,0,0,0,0,-1,1147,1779,-0.0491385,-6.87443
-70,-755,4.5686,13.2169,0,0,0,0,0,0,0,-1,1154,1779,4.56865,-13.2169
-63,-755,-1.36316,7.3147,0,0,0,0,0,0,0,-1,1161,1779,-1.36312,-7.31473
-56,-755,0.0483398,5.06079,0,0,0,0,0,0,0,-1,1168,1779,0.0483138,-5.06084
-49,-755,-1.32263,5.33716,0,0,0,0,0,0,0,-1,1175,1779,-1.32264,-5.33718
-42,-755,-2.03613,4.01672,0,0,0,0,0,0,0,-1,1182,1779,-2.0361,-4.01671
-35,-755,-2.72498,2.37476,0,0,0,0,0,0,0,-1,1189,1779,-2.72502,-2.37473
-28,-755,9.85535,59.3558,0,0,0,0,0,0,0,-1,1196,1779,9.85539,-59.3559
-21,-755,9.79199,59.374,0,0,0,0,0,0,0,-1,1203,1779,9.79198,-59.374
-14,-755,9.72961,59.5405,0.00394416,0.0183571,-0.0237761,0.0359948,-0.0136936,-0.932546,0.0296351,0.0335852,1210,1779,9.72956,-59.5405
-7,-755,9.63757,59.7067,0.00604524,0.0190676,-0.0202955,0.0338708,-0.008758,-0.94062,0.0259964,0.0237635,1217,1779,9.63761,-59.7066
0,-755,9.57629,59.8555,0.00789731,0.01894,-0.0173778,0.0316526,-0.00481522,-0.939217,0.0228763,0.014933,1224,1779,9.57629,-59.8555
7,-755,9.526,59.9926,0.00901564,0.0178709,-0.0147795,0.0288718,-0.00198522,-0.930933,0.0199425,0.0136619,1231,1779,9.52604,-59.9925
14,-755,9.4884,60.1384,0.00946836,0.0159911,-0.0127345,0.0258752,-0.000415723,-0.910757,0.0173904,0.0126432,1238,1779,9.48837,-60.1384
21,-755,9.39001,60.277,0.00937853,0.0141252,-0.0113172,0.0233152,0.000188456,-0.888755,0.0154811,0.0168275,1245,1779,9.39003,-60.277
28,-755,9.34534,60.34,0.00861689,0.0122919,-0.0104879,0.0211021,-0.00019324,-0.87212,0.0141329,0.0198567,1252,1779,9.3454,-60.3399
35,-755,9.32886,60.4102,0.00727217,0.0108162,-0.0101753,0.0193726,-0.00128426,-0.871607,0.0133637,0.0202555,1259,1779,9.32889,-60.4101
42,-755,9.27966,60.4451,0.00606741,0.0102177,-0.00968873,0.018051,-0.0017659,-0.890895,0.0126638,0.0145764,1266,1779,9.27967,-60.4451
49,-755,9.20691,60.4744,0.00415361,0.0098551,-0.00976025,0.0171724,-0.0031637,-0.927484,0.0126356,0.0103661,1273,1779,9.20688,-60.4743
56,-755,9.12378,60.5206,0.00172745,0.00948045,-0.0101535,0.0164723,-0.00526439,-0.967753,0.013094,0.0101056,1280,1779,9.12383,-60.5206
63,-755,9.07983,60.5605,-0.00132715,0.00973034,-0.0116514,0.0170981,-0.00869496,-1.00692,0.0151528,0.0103924,1287,1779,9.07983,-60.5605
70,-755,9.05542,60.5162,-0.00426844,0.0113345,-0.0122191,0.0180302,-0.0109642,-1.06951,0.0169048,0.0148806,1294,1779,9.05544,-60.5162
77,-755,8.9679,60.4489,-0.00633963,0.0130383,-0.0121337,0.0188769,-0.0121782,-1.12232,0.0180681,0.0138506,1301,1779,8.96789,-60.4488
84,-755,8.91895,60.4233,-0.00810078,0.0145054,-0.0121344,0.0197856,-0.0133809,-1.16037,0.0192673,0.0143107,1308,1779,8.91894,-60.4234
91,-755,8.86584,60.3767,-0.00941932,0.0162096,-0.0128094,0.0215139,-0.0147237,-1.1782,0.0210439,0.0151502,1315,1779,8.86583,-60.3767
98,-755,8.78784,60.3413,-0.0105372,0.0165514,-0.0121871,0.0212272,-0.015213,-1.20445,0.0211341,0.0164007,1322,1779,8.78789,-60.3413
105,-755,8.7301,60.2415,-0.0118457,0.0165108,-0.0110278,0.0202946,-0.0156295,-1.24027,0.020799,0.0190436,1329,1779,8.73015,-60.2415
112,-755,8.64941,60.101,-0.0126427,0.0158165,-0.01018,0.019083,-0.0159092,-1.2603,0.0202305,0.024178,1336,1779,8.64937,-60.1009
119,-755,8.59961,59.9639,-0.0130713,0.014587,-0.00923215,0.0173855,-0.0158698,-1.27648,0.0192066,0.0242167,1343,1779,8.59956,-59.9639
126,-755,8.55383,59.9076,-0.0128409,0.0124197,-0.00807769,0.0147818,-0.0152031,-1.2863,0.0173123,0.0258087,1350,1779,8.55385,-59.9076
133,-755,8.43677,59.7469,-0.0121489,0.0100896,-0.00686684,0.0120391,-0.0140983,-1.29418,0.015106,0.0258946,1357,1779,8.43679,-59.7469
140,-755,8.31519,59.6133,-0.0112408,0.00764315,-0.00561591,0.00918704,-0.0127847,-1.30251,0.012742,0.0349996,1364,1779,8.31521,-59.6133
147,-755,8.42285,59.4298,-0.0100936,0.00510326,-0.00435266,0.00626164,-0.011252,-1.31069,0.0102474,0.0380002,1371,1779,8.42289,-59.4298
154,-755,8.297,59.3455,-0.00848773,0.00280051,-0.00335764,0.00372372,-0.00941094,-1.30247,0.00781667,0.037279,1378,1779,8.29696,-59.3455
161,-755,8.21997,59.0164,0,0,0,0,0,0,0,-1,1385,1779,8.21995,-59.0164
168,-755,3.98181,7.35901,0,0,0,0,0,0,0,-1,1392,1779,3.98184,-7.35904
175,-755,8.17065,1.34363,0,0,0,0,0,0,0,-1,1399,1779,8.1706,-1.34368
182,-755,8.09216,2.96924,0,0,0,0,0,0,0,-1,1406,1779,8.09213,-2.9693
189,-755,8.04419,4.68042,0,0,0,0,0,0,0,-1,1413,1779,8.04419,-4.68046
196,-755,7.74841,7.4541,0,0,0,0,0,0,0,-1,1420,1779,7.74842,-7.45405
203,-755,4.80554,6.88696,0,0,0,0,0,0,0,-1,1427,1779,4.80554,-6.88697
210,-755,25.1694,7.35693,0,0,0,0,0,0,0,-1,1434,1779,25.1694,-7.35688
217,-755,5.01648,16.411,0,0,0,0,0,0,0,-1,1441,1779,5.01646,-16.411
224,-755,5.18103,22.6283,0,0,0,0,0,0,0,-1,1448,1779,5.18101,-22.6283
231,-755,5.7489,30.15,0,0,0,0,0,0,0,-1,1455,1779,5.74885,-30.15
238,-755,6.56323,29.2726,0,0,0,0,0,0,0,-1,1462,1779,6.56327,-29.2726
245,-755,8.29639,28.2113,0,0,0,0,0,0,0,-1,1469,1779,8.29639,-28.2113
252,-755,6.8877,28.8699,0,0,0,0,0,0,0,-1,1476,1779,6.88774,-28.8698
259,-755,6.42676,30.8574,0,0,0,0,0,0,0,-1,1483,1779,6.42677,-30.8575
266,-755,17.255,7.86096,0,0,0,0,0,0,0,-1,1490,1779,17.255,-7.86092
273,-755,15.7932,7.59778,0,0,0,0,0,0,0,-1,1497,1779,15.7932,-7.59777
280,-755,14.6255,7.34802,0,0,0,0,0,0,0,-1,1504,1779,14.6254,-7.34806
287,-755,13.8279,7.83105,0,0,0,0,0,0,0,-1,1511,1779,13.8279,-7.83104
294,-755,12.5695,7.96814,0,0,0,0,0,0,0,-1,1518,1779,12.5694,-7.9682
301,-755,11.2659,8.27087,0,0,0,0,0,0,0,-1,1525,1779,11.2658,-8.27087
308,-755,5.17737,37.2896,0,0,0,0,0,0,0,-1,1532,1779,5.17742,-37.2896
315,-755,0.828613,31.032,0,0,0,0,0,0,0,-1,1539,1779,0.828668,-31.032
322,-755,0,0,0,0,0,0,0,0,0,-1,1546,1779,0,0
329,-755,0,0,0,0,0,0,0,0,0,-1,1553,1779,0,0
336,-755,0,0,0,0,0,0,0,0,0,-1,1560,1779,0,0
343,-755,0,0,0,0,0,0,0,0,0,-1,1567,1779,0,0
350,-755,0,0,0,0,0,0,0,0,0,-1,1574,1779,0,0
357,-755,0,0,0,0,0,0,0,0,0,-1,1581,1779,0,0
364,-755,0,0,0,0,0,0,0,0,0,-1,1588,1779,0,0
371,-755,0,0,0,0,0,0,0,0,0,-1,1595,1779,0,0
378,-755,0,0,0,0,0,0,0,0,0,-1,1602,1779,0,0
385,-755,0,0,0,0,0,0,0,0,0,-1,1609,1779,0,0
392,-755,0,0,0,0,0,0,0,0,0,-1,1616,1779,0,0
399,-755,0,0,0,0,0,0,0,0,0,-1,1623,1779,0,0
406,-755,0,0,0,0,0,0,0,0,0,-1,1630,1779,0,0
413,-755,0,0,0,0,0,0,0,0,0,-1,1637,1779,0,0
420,-755,0,0,0,0,0,0,0,0,0,-1,1644,1779,0,0
427,-755,0,0,0,0,0,0,0,0,0,-1,1651,1779,0,0
434,-755,0,0,0,0,0,0,0,0,0,-1,1658,1779,0,0
441,-755,0,0,0,0,0,0,0,0,0,-1,1665,1779,0,0
448,-755,0,0,0,0,0,0,0,0,0,-1,1672,1779,0,0
455,-755,0,0,0,0,0,0,0,0,0,-1,1679,1779,0,0
462,-755,0,0,0,0,0,0,0,0,0,-1,1686,1779,0,0
469,-755,0,0,0,0,0,0,0,0,0,-1,1693,1779,0,0
476,-755,0,0,0,0,0,0,0,0,0,-1,1700,1779,0,0
483,-755,0,0,0,0,0,0,0,0,0,-1,1707,1779,0,0
490,-755,0,0,0,0,0,0,0,0,0,-1,1714,1779,0,0
497,-755,0,0,0,0,0,0,0,0,0,-1,1721,1779,0,0
504,-755,0,0,0,0,0,0,0,0,0,-1,1728,1779,0,0
511,-755,0,0,0,0,0,0,0,0,0,-1,1735,1779,0,0
518,-755,0,0,0,0,0,0,0,0,0,-1,1742,1779,0,0
525,-755,0,0,0,0,0,0,0,0,0,-1,1749,1779,0,0
532,-755,0,0,0,0,0,0,0,0,0,-1,1756,1779,0,0
539,-755,0,0,0,0,0,0,0,0,0,-1,1763,1779,0,0
546,-755,0,0,0,0,0,0,0,0,0,-1,1770,1779,0,0
553,-755,0,0,0,0,0,0,0,0,0,-1,1777,1779,0,0
560,-755,0,0,0,0,0,0,0,0,0,-1,1784,1779,0,0
567,-755,0,0,0,0,0,0,0,0,0,-1,1791,1779,0,0
574,-755,0,0,0,0,0,0,0,0,0,-1,1798,1779,0,0
581,-755,0,0,0,0,0,0,0,0,0,-1,1805,1779,0,0
588,-755,0,0,0,0,0,0,0,0,0,-1,1812,1779,0,0
595,-755,0,0,0,0,0,0,0,0,0,-1,1819,1779,0,0
602,-755,0,0,0,0,0,0,0,0,0,-1,1826,1779,0,0
609,-755,0,0,0,0,0,0,0,0,0,-1,1833,1779,0,0
616,-755,0,0,0,0,0,0,0,0,0,-1,1840,1779,0,0
623,-755,0,0,0,0,0,0,0,0,0,-1,1847,1779,0,0
630,-755,0,0,0,0,0,0,0,0,0,-1,1854,1779,0,0
637,-755,0,0,0,0,0,0,0,0,0,-1,1861,1779,0,0
644,-755,0,0,0,0,0,0,0,0,0,-1,1868,1779,0,0
651,-755,0,0,0,0,0,0,0,0,0,-1,1875,1779,0,0
658,-755,0,0,0,0,0,0,0,0,0,-1,1882,1779,0,0
665,-755,0,0,0,0,0,0,0,0,0,-1,1889,1779,0,0
672,-755,0,0,0,0,0,0,0,0,0,-1,1896,1779,0,0
679,-755,0,0,0,0,0,0,0,0,0,-1,1903,1779,0,0
686,-755,0,0,0,0,0,0,0,0,0,-1,1910,1779,0,0
693,-755,0,0,0,0,0,0,0,0,0,-1,1917,1779,0,0
700,-755,0,0,0,0,0,0,0,0,0,-1,1924,1779,0,0
707,-755,0,0,0,0,0,0,0,0,0,-1,1931,1779,0,0
714,-755,0,0,0,0,0,0,0,0,0,-1,1938,1779,0,0
721,-755,0,0,0,0,0,0,0,0,0,-1,1945,1779,0,0
728,-755,0,0,0,0,0,0,0,0,0,-1,1952,1779,0,0
735,-755,0,0,0,0,0,0,0,0,0,-1,1959,1779,0,0
742,-755,0,0,0,0,0,0,0,0,0,-1,1966,1779,0,0
749,-755,0,0,0,0,0,0,0,0,0,-1,1973,1779,0,0
756,-755,0,0,0,0,0,0,0,0,0,-1,1980,1779,0,0
763,-755,0,0,0,0,0,0,0,0,0,-1,1987,1779,0,0
770,-755,0,0,0,0,0,0,0,0,0,-1,1994,1779,0,0
777,-755,0,0,0,0,0,0,0,0,0,-1,2001,1779,0,0
784,-755,0,0,0,0,0,0,0,0,0,-1,2008,1779,0,0
791,-755,0,0,0,0,0,0,0,0,0,-1,2015,1779,0,0
798,-755,0,0,0,0,0,0,0,0,0,-1,2022,1779,0,0
805,-755,0,0,0,0,0,0,0,0,0,-1,2029,1779,0,0
812,-755,0,0,0,0,0,0,0,0,0,-1,2036,1779,0,0
-700,-762,0,0,0,0,0,0,0,0,0,-1,524,1786,0,0
-693,-762,0,0,0,0,0,0,0,0,0,-1,531,1786,0,0
-686,-762,0,0,0,0,0,0,0,0,0,-1,538,1786,0,0
-679,-762,0,0,0,0,0,0,0,0,0,-1,545,1786,0,0
-672,-762,0,0,0,0,0,0,0,0,0,-1,552,1786,0,0
-665,-762,0,0,0,0,0,0,0,0,0,-1,559,1786,0,0
-658,-762,0,0,0,0,0,0,0,0,0,-1,566,1786,0,0
-651,-762,0,0,0,0,0,0,0,0,0,-1,573,1786,0,0
-644,-762,0,0,0,0,0,0,0,0,0,-1,580,1786,0,0
-637,-762,0,0,0,0,0,0,0,0,0,-1,587,1786,0,0
-630,-762,0,0,0,0,0,0,0,0,0,-1,594,1786,0,0
-623,-762,0,0,0,0,0,0,0,0,0,-1,601,1786,0,0
-616,-762,0,0,0,0,0,0,0,0,0,-1,608,1786,0,0
-609,-762,0,0,0,0,0,0,0,0,0,-1,615,1786,0,0
-602,-762,0,0,0,0,0,0,0,0,0,-1,622,1786,0,0
-595,-762,0,0,0,0,0,0,0,0,0,-1,629,1786,0,0
-588,-762,0,0,0,0,0,0,0,0,0,-1,636,1786,0,0
-581,-762,0,0,0,0,0,0,0,0,0,-1,643,1786,0,0
-574,-762,0,0,0,0,0,0,0,0,0,-1,650,1786,0,0
-567,-762,0,0,0,0,0,0,0,0,0,-1,657,1786,0,0
-560,-762,0,0,0,0,0,0,0,0,0,-1,664,1786,0,0
-553,-762,0,0,0,0,0,0,0,0,0,-1,671,1786,0,0
-546,-762,0,0,0,0,0,0,0,0,0,-1,678,1786,0,0
-539,-762,0,0,0,0,0,0,0,0,0,-1,685,1786,0,0
-532,-762,0,0,0,0,0,0,0,0,0,-1,692,1786,0,0
-525,-762,0,0,0,0,0,0,0,0,0,-1,699,1786,0,0
-518,-762,0,0,0,0,0,0,0,0,0,-1,706,1786,0,0
-511,-762,0,0,0,0,0,0,0,0,0,-1,713,1786,0,0
-504,-762,0,0,0,0,0,0,0,0,0,-1,720,1786,0,0
-497,-762,0,0,0,0,0,0,0,0,0,-1,727,1786,0,0
-490,-762,0,0,0,0,0,0,0,0,0,-1,734,1786,0,0
-483,-762,0,0,0,0,0,0,0,0,0,-1,741,1786,0,0
-476,-762,0,0,0,0,0,0,0,0,0,-1,748,1786,0,0
-469,-762,0,0,0,0,0,0,0,0,0,-1,755,1786,0,0
-462,-762,0,0,0,0,0,0,0,0,0,-1,762,1786,0,0
-455,-762,0,0,0,0,0,0,0,0,0,-1,769,1786,0,0
-448,-762,0,0,0,0,0,0,0,0,0,-1,776,1786,0,0
-441,-762,0,0,0,0,0,0,0,0,0,-1,783,1786,0,0
-434,-762,0,0,0,0,0,0,0,0,0,-1,790,1786,0,0
-427,-762,0,0,0,0,0,0,0,0,0,-1,797,1786,0,0
-420,-762,0,0,0,0,0,0,0,0,0,-1,804,1786,0,0
-413,-762,0,0,0,0,0,0,0,0,0,-1,811,1786,0,0
-406,-762,0,0,0,0,0,0,0,0,0,-1,818,1786,0,0
-399,-762,0,0,0,0,0,0,0,0,0,-1,825,1786,0,0
-392,-762,0,0,0,0,0,0,0,0,0,-1,832,1786,0,0
-385,-762,0,0,0,0,0,0,0,0,0,-1,839,1786,0,0
-378,-762,0,0,0,0,0,0,0,0,0,-1,846,1786,0,0
-371,-762,0,0,0,0,0,0,0,0,0,-1,853,1786,0,0
-364,-762,0,0,0,0,0,0,0,0,0,-1,860,1786,0,0
-357,-762,0,0,0,0,0,0,0,0,0,-1,867,1786,0,0
-350,-762,0,0,0,0,0,0,0,0,0,-1,874,1786,0,0
-343,-762,0,0,0,0,0,0,0,0,0,-1,881,1786,0,0
-336,-762,0,0,0,0,0,0,0,0,0,-1,888,1786,0,0
-329,-762,0,0,0,0,0,0,0,0,0,-1,895,1786,0,0
-322,-762,0,0,0,0,0,0,0,0,0,-1,902,1786,0,0
-315,-762,0,0,0,0,0,0,0,0,0,-1,909,1786,0,0
-308,-762,0,0,0,0,0,0,0,0,0,-1,916,1786,0,0
-301,-762,0,0,0,0,0,0,0,0,0,-1,923,1786,0,0
-294,-762,0,0,0,0,0,0,0,0,0,-1,930,1786,0,0
-287,-762,0,0,0,0,0,0,0,0,0,-1,937,1786,0,0
-280,-762,0,0,0,0,0,0,0,0,0,-1,944,1786,0,0
-273,-762,0,0,0,0,0,0,0,0,0,-1,951,1786,0,0
-266,-762,0,0,0,0,0,0,0,0,0,-1,958,1786,0,0
-259,-762,0,0,0,0,0,0,0,0,0,-1,965,1786,0,0
-252,-762,0,0,0,0,0,0,0,0,0,-1,972,1786,0,0
-245,-762,0,0,0,0,0,0,0,0,0,-1,979,1786,0,0
-238,-762,0,0,0,0,0,0,0,0,0,-1,986,1786,0,0
-231,-762,0,0,0,0,0,0,0,0,0,-1,993,1786,0,0
-224,-762,0,0,0,0,0,0,0,0,0,-1,1000,1786,0,0
-217,-762,0,0,0,0,0,0,0,0,0,-1,1007,1786,0,0
-210,-762,0,0,0,0,0,0,0,0,0,-1,1014,1786,0,0
-203,-762,0,0,0,0,0,0,0,0,0,-1,1021,1786,0,0
-196,-762,0,0,0,0,0,0,0,0,0,-1,1028,1786,0,0
-189,-762,0,0,0,0,0,0,0,0,0,-1,1035,1786,0,0
-182,-762,4.44226,13.2462,0,0,0,0,0,0,0,-1,1042,1786,4.44227,-13.2462
-175,-762,1.14465,40.1932,0,0,0,0,0,0,0,-1,1049,1786,1.1447,-40.1932
-168,-762,3.26794,41.3881,0,0,0,0,0,0,0,-1,1056,1786,3.26794,-41.388
-161,-762,-3.29077,11.9508,0,0,0,0,0,0,0,-1,1063,1786,-3.29076,-11.9508
-154,-762,-4.55823,11.1176,0,0,0,0,0,0,0,-1,1070,1786,-4.55828,-11.1175
-147,-762,-6.52454,9.41418,0,0,0,0,0,0,0,-1,1077,1786,-6.52458,-9.41419
-140,-762,4.99792,5.28589,0,0,0,0,0,0,0,-1,1084,1786,4.99793,-5.28587
-133,-762,0.689819,19.2172,0,0,0,0,0,0,0,-1,1091,1786,0.689867,-19.2171
-126,-762,1.48743,19.9288,0,0,0,0,0,0,0,-1,1098,1786,1.48738,-19.9289
-119,-762,2.65637,20.208,0,0,0,0,0,0,0,-1,1105,1786,2.65632,-20.208
-112,-762,6.84705,25.5554,0,0,0,0,0,0,0,-1,1112,1786,6.84706,-25.5554
-105,-762,5.57947,21.618,0,0,0,0,0,0,0,-1,1119,1786,5.57948,-21.618
-98,-762,5.0636,17.9901,0,0,0,0,0,0,0,-1,1126,1786,5.06361,-17.9901
-91,-762,4.54773,14.3622,0,0,0,0,0,0,0,-1,1133,1786,4.54774,-14.3622
-84,-762,3.96375,10.4547,0,0,0,0,0,0,0,-1,1140,1786,3.96371,-10.4548
-77,-762,0.305054,8.49365,0,0,0,0,0,0,0,-1,1147,1786,0.305008,-8.49362
-70,-762,0.183716,6.74622,0,0,0,0,0,0,0,-1,1154,1786,0.183696,-6.74621
-63,-762,-0.883057,9.08813,0,0,0,0,0,0,0,-1,1161,1786,-0.88311,-9.08808
-56,-762,-0.578979,5.10254,0,0,0,0,0,0,0,-1,1168,1786,-0.578951,-5.10249
-49,-762,-2.04541,3.66321,0,0,0,0,0,0,0,-1,1175,1786,-2.0454,-3.66319
-42,-762,-2.23462,3.474,0,0,0,0,0,0,0,-1,1182,1786,-2.23459,-3.47399
-35,-762,-3.28992,1.68164,0,0,0,0,0,0,0,-1,1189,1786,-3.28998,-1.68164
-28,-762,-3.75378,1.37769,0,0,0,0,0,0,0,-1,1196,1786,-3.75373,-1.37767
-21,-762,10.198,59.6622,0,0,0,0,0,0,0,-1,1203,1786,10.198,-59.6623
-14,-762,9.96423,59.7717,0.0053386,0.0197109,-0.0357097,0.0489504,-0.0239008,-0.884691,0.0428814,0.0486008,1210,1786,9.96419,-59.7718
-7,-762,9.70972,59.6689,0.0086365,0.0210726,-0.0302484,0.0457355,-0.0160264,-0.886769,0.0370078,0.0477718,1217,1786,9.70977,-59.6689
0,-762,9.68115,59.814,0.0114975,0.0213411,-0.0256105,0.0424984,-0.00965991,-0.88033,0.0320414,0.03824,1224,1786,9.68114,-59.814
7,-762,9.72815,59.978,0.0132529,0.0202541,-0.0216873,0.0387215,-0.00521452,-0.865415,0.0277165,0.0231965,1231,1786,9.7282,-59.978
14,-762,9.65674,60.2488,0.0139843,0.0181379,-0.0186299,0.0348064,-0.00268416,-0.840907,0.0241488,0.0384047,1238,1786,9.65677,-60.2488
21,-762,9.47595,60.2515,0.0138955,0.016045,-0.0164979,0.0315031,-0.00156259,-0.817925,0.0215418,0.0461584,1245,1786,9.476,-60.2515
28,-762,9.36536,60.368,0.0127951,0.0140859,-0.0151852,0.0286394,-0.00175842,-0.806637,0.0197053,0.0468211,1252,1786,9.36533,-60.368
35,-762,9.17212,60.491,0.0108993,0.0126259,-0.0145839,0.026372,-0.00284679,-0.81496,0.018603,0.0487175,1259,1786,9.17214,-60.4909
42,-762,9.46411,60.4915,0,0,0,0,0,0,0,-1,1266,1786,9.46413,-60.4915
49,-762,9.2959,60.512,0.00664137,0.0121025,-0.0136411,0.0232836,-0.00453981,-0.884178,0.0172362,0.0458833,1273,1786,9.29593,-60.512
56,-762,9.21948,60.5583,0.0033102,0.011833,-0.0139386,0.0221471,-0.00700387,-0.933749,0.017571,0.0336945,1280,1786,9.21944,-60.5583
63,-762,9.12,60.5721,-0.000879026,0.0124534,-0.0156707,0.0228169,-0.0112425,-0.9865,0.0200391,0.030757,1287,1786,9.11999,-60.5722
70,-762,9.00818,60.536,-0.00492738,0.0144036,-0.0163669,0.0237459,-0.0142697,-1.05212,0.0221745,0.0330189,1294,1786,9.00821,-60.536
77,-762,8.97852,60.4102,-0.00783681,0.0165007,-0.0161674,0.0245672,-0.0159033,-1.108,0.0235434,0.0420089,1301,1786,8.97852,-60.4101
84,-762,9.05725,60.4106,-0.0103061,0.0183206,-0.0161062,0.0255544,-0.01754,-1.14866,0.0250236,0.0494468,1308,1786,9.05719,-60.4106
91,-762,8.93286,60.2461,0,0,0,0,0,0,0,-1,1315,1786,8.93283,-60.246
98,-762,8.81384,60.3466,0,0,0,0,0,0,0,-1,1322,1786,8.81389,-60.3466
105,-762,8.69666,60.2754,-0.0157845,0.0206523,-0.0145166,0.0257286,-0.0208608,-1.2344,0.0269473,0.0489873,1329,1786,8.6966,-60.2754
112,-762,8.51001,60.1459,-0.0169342,0.019657,-0.0133793,0.0240271,-0.0213044,-1.25509,0.0261879,0.0462962,1336,1786,8.51003,-60.1459
119,-762,8.27979,60.1787,-0.0175595,0.0179909,-0.0121282,0.0217343,-0.0213029,-1.27142,0.024848,0.0477957,1343,1786,8.27976,-60.1788
126,-762,8.37524,59.9183,0,0,0,0,0,0,0,-1,1350,1786,8.37524,-59.9184
133,-762,8.16284,59.8483,-0.0161629,0.012031,-0.00900393,0.0146611,-0.0187931,-1.2866,0.0193638,0.0496657,1357,1786,8.16283,-59.8482
140,-762,8.13208,59.6122,-0.0148218,0.00881806,-0.00738361,0.0109347,-0.0169384,-1.29161,0.0162165,0.0466795,1364,1786,8.13205,-59.6122
147,-762,8.42676,59.4382,-0.0131605,0.00559817,-0.00572385,0.00720676,-0.0147691,-1.29683,0.0129357,0.0439742,1371,1786,8.42681,-59.4383
154,-762,8.00647,59.5995,0,0,0,0,0,0,0,-1,1378,1786,8.00643,-59.5995
161,-762,8.65051,34.8102,0,0,0,0,0,0,0,-1,1385,1786,8.65054,-34.8101
168,-762,8.19287,0.880615,0,0,0,0,0,0,0,-1,1392,1786,8.19291,-0.880603
175,-762,8.33997,1.95947,0,0,0,0,0,0,0,-1,1399,1786,8.33997,-1.95942
182,-762,8.28418,3.56482,0,0,0,0,0,0,0,-1,1406,1786,8.28415,-3.56485
189,-762,8.21179,5.23389,0,0,0,0,0,0,0,-1,1413,1786,8.21183,-5.23383
196,-762,8.05969,6.95483,0,0,0,0,0,0,0,-1,1420,1786,8.05972,-6.9548
203,-762,24.0077,7.10425,0,0,0,0,0,0,0,-1,1427,1786,24.0077,-7.10426
210,-762,23.8073,7.6499,0,0,0,0,0,0,0,-1,1434,1786,23.8073,-7.64987
217,-762,23.3193,8.24426,0,0,0,0,0,0,0,-1,1441,1786,23.3194,-8.2442
224,-762,2.65149,20.6106,0,0,0,0,0,0,0,-1,1448,1786,2.65153,-20.6106
231,-762,5.46655,23.521,0,0,0,0,0,0,0,-1,1455,1786,5.46653,-23.521
238,-762,5.35632,29.7203,0,0,0,0,0,0,0,-1,1462,1786,5.35629,-29.7203
245,-762,6.93054,27.8312,0,0,0,0,0,0,0,-1,1469,1786,6.93058,-27.8312
252,-762,6.20215,28.3027,0,0,0,0,0,0,0,-1,1476,1786,6.20211,-28.3027
259,-762,5.46472,28.8762,0,0,0,0,0,0,0,-1,1483,1786,5.46476,-28.8762
266,-762,16.451,7.67773,0,0,0,0,0,0,0,-1,1490,1786,16.4511,-7.67773
273,-762,15.287,7.5304,0,0,0,0,0,0,0,-1,1497,1786,15.2869,-7.53044
280,-762,14.1501,7.38379,0,0,0,0,0,0,0,-1,1504,1786,14.1502,-7.38376
287,-762,12.6891,7.99133,0,0,0,0,0,0,0,-1,1511,1786,12.6891,-7.99135
294,-762,12.6959,8.30371,0,0,0,0,0,0,0,-1,1518,1786,12.6959,-8.30368
301,-762,11.4222,8.84143,0,0,0,0,0,0,0,-1,1525,1786,11.4223,-8.84149
308,-762,0,0,0,0,0,0,0,0,0,-1,1532,1786,0,0
315,-762,0,0,0,0,0,0,0,0,0,-1,1539,1786,0,0
322,-762,0,0,0,0,0,0,0,0,0,-1,1546,1786,0,0
329,-762,0,0,0,0,0,0,0,0,0,-1,1553,1786,0,0
336,-762,0,0,0,0,0,0,0,0,0,-1,1560,1786,0,0
343,-762,0,0,0,0,0,0,0,0,0,-1,1567,1786,0,0
350,-762,0,0,0,0,0,0,0,0,0,-1,1574,1786,0,0
357,-762,0,0,0,0,0,0,0,0,0,-1,1581,1786,0,0
364,-762,0,0,0,0,0,0,0,0,0,-1,1588,1786,0,0
371,-762,0,0,0,0,0,0,0,0,0,-1,1595,1786,0,0
378,-762,0,0,0,0,0,0,0,0,0,-1,1602,1786,0,0
385,-762,0,0,0,0,0,0,0,0,0,-1,1609,1786,0,0
392,-762,0,0,0,0,0,0,0,0,0,-1,1616,1786,0,0
399,-762,0,0,0,0,0,0,0,0,0,-1,1623,1786,0,0
406,-762,0,0,0,0,0,0,0,0,0,-1,1630,1786,0,0
413,-762,0,0,0,0,0,0,0,0,0,-1,1637,1786,0,0
420,-762,0,0,0,0,0,0,0,0,0,-1,1644,1786,0,0
427,-762,0,0,0,0,0,0,0,0,0,-1,1651,1786,0,0
434,-762,0,0,0,0,0,0,0,0,0,-1,1658,1786,0,0
441,-762,0,0,0,0,0,0,0,0,0,-1,1665,1786,0,0
448,-762,0,0,0,0,0,0,0,0,0,-1,1672,1786,0,0
455,-762,0,0,0,0,0,0,0,0,0,-1,1679,1786,0,0
462,-762,0,0,0,0,0,0,0,0,0,-1,1686,1786,0,0
469,-762,0,0,0,0,0,0,0,0,0,-1,1693,1786,0,0
476,-762,0,0,0,0,0,0,0,0,0,-1,1700,1786,0,0
483,-762,0,0,0,0,0,0,0,0,0,-1,1707,1786,0,0
490,-762,0,0,0,0,0,0,0,0,0,-1,1714,1786,0,0
497,-762,0,0,0,0,0,0,0,0,0,-1,1721,1786,0,0
504,-762,0,0,0,0,0,0,0,0,0,-1,1728,1786,0,0
511,-762,0,0,0,0,0,0,0,0,0,-1,1735,1786,0,0
518,-762,0,0,0,0,0,0,0,0,0,-1,1742,1786,0,0
525,-762,0,0,0,0,0,0,0,0,0,-1,1749,1786,0,0
532,-762,0,0,0,0,0,0,0,0,0,-1,1756,1786,0,0
539,-762,0,0,0,0,0,0,0,0,0,-1,1763,1786,0,0
546,-762,0,0,0,0,0,0,0,0,0,-1,1770,1786,0,0
553,-762,0,0,0,0,0,0,0,0,0,-1,1777,1786,0,0
560,-762,0,0,0,0,0,0,0,0,0,-1,1784,1786,0,0
567,-762,0,0,0,0,0,0,0,0,0,-1,1791,1786,0,0
574,-762,0,0,0,0,0,0,0,0,0,-1,1798,1786,0,0
581,-762,0,0,0,0,0,0,0,0,0,-1,1805,1786,0,0
588,-762,0,0,0,0,0,0,0,0,0,-1,1812,1786,0,0
595,-762,0,0,0,0,0,0,0,0,0,-1,1819,1786,0,0
602,-762,0,0,0,0,0,0,0,0,0,-1,1826,1786,0,0
609,-762,0,0,0,0,0,0,0,0,0,-1,1833,1786,0,0
616,-762,0,0,0,0,0,0,0,0,0,-1,1840,1786,0,0
623,-762,0,0,0,0,0,0,0,0,0,-1,1847,1786,0,0
630,-762,0,0,0,0,0,0,0,0,0,-1,1854,1786,0,0
637,-762,0,0,0,0,0,0,0,0,0,-1,1861,1786,0,0
644,-762,0,0,0,0,0,0,0,0,0,-1,1868,1786,0,0
651,-762,0,0,0,0,0,0,0,0,0,-1,1875,1786,0,0
658,-762,0,0,0,0,0,0,0,0,0,-1,1882,1786,0,0
665,-762,0,0,0,0,0,0,0,0,0,-1,1889,1786,0,0
672,-762,0,0,0,0,0,0,0,0,0,-1,1896,1786,0,0
679,-762,0,0,0,0,0,0,0,0,0,-1,1903,1786,0,0
686,-762,0,0,0,0,0,0,0,0,0,-1,1910,1786,0,0
693,-762,0,0,0,0,0,0,0,0,0,-1,1917,1786,0,0
700,-762,0,0,0,0,0,0,0,0,0,-1,1924,1786,0,0
707,-762,0,0,0,0,0,0,0,0,0,-1,1931,1786,0,0
714,-762,0,0,0,0,0,0,0,0,0,-1,1938,1786,0,0
721,-762,0,0,0,0,0,0,0,0,0,-1,1945,1786,0,0
728,-762,0,0,0,0,0,0,0,0,0,-1,1952,1786,0,0
735,-762,0,0,0,0,0,0,0,0,0,-1,1959,1786,0,0
742,-762,0,0,0,0,0,0,0,0,0,-1,1966,1786,0,0
749,-762,0,0,0,0,0,0,0,0,0,-1,1973,1786,0,0
756,-762,0,0,0,0,0,0,0,0,0,-1,1980,1786,0,0
763,-762,0,0,0,0,0,0,0,0,0,-1,1987,1786,0,0
770,-762,0,0,0,0,0,0,0,0,0,-1,1994,1786,0,0
777,-762,0,0,0,0,0,0,0,0,0,-1,2001,1786,0,0
784,-762,0,0,0,0,0,0,0,0,0,-1,2008,1786,0,0
791,-762,0,0,0,0,0,0,0,0,0,-1,2015,1786,0,0
798,-762,0,0,0,0,0,0,0,0,0,-1,2022,1786,0,0
805,-762,0,0,0,0,0,0,0,0,0,-1,2029,1786,0,0
812,-762,0,0,0,0,0,0,0,0,0,-1,2036,1786,0,0
-700,-769,0,0,0,0,0,0,0,0,0,-1,524,1793,0,0
-693,-769,0,0,0,0,0,0,0,0,0,-1,531,1793,0,0
-686,-769,0,0,0,0,0,0,0,0,0,-1,538,1793,0,0
-679,-769,0,0,0,0,0,0,0,0,0,-1,545,1793,0,0
-672,-769,0,0,0,0,0,0,0,0,0,-1,552,1793,0,0
-665,-769,0,0,0,0,0,0,0,0,0,-1,559,1793,0,0
-658,-769,0,0,0,0,0,0,0,0,0,-1,566,1793,0,0
-651,-769,0,0,0,0,0,0,0,0,0,-1,573,1793,0,0
-644,-769,0,0,0,0,0,0,0,0,0,-1,580,1793,0,0
-637,-769,0,0,0,0,0,0,0,0,0,-1,587,1793,0,0
-630,-769,0,0,0,0,0,0,0,0,0,-1,594,1793,0,0
-623,-769,0,0,0,0,0,0,0,0,0,-1,601,1793,0,0
-616,-769,0,0,0,0,0,0,0,0,0,-1,608,1793,0,0
-609,-769,0,0,0,0,0,0,0,0,0,-1,615,1793,0,0
-602,-769,0,0,0,0,0,0,0,0,0,-1,622,1793,0,0
-595,-769,0,0,0,0,0,0,0,0,0,-1,629,1793,0,0
-588,-769,0,0,0,0,0,0,0,0,0,-1,636,1793,0,0
-581,-769,0,0,0,0,0,0,0,0,0,-1,643,1793,0,0
-574,-769,0,0,0,0,0,0,0,0,0,-1,650,1793,0,0
-567,-769,0,0,0,0,0,0,0,0,0,-1,657,1793,0,0
-560,-769,0,0,0,0,0,0,0,0,0,-1,664,1793,0,0
-553,-769,0,0,0,0,0,0,0,0,0,-1,671,1793,0,0
-546,-769,0,0,0,0,0,0,0,0,0,-1,678,1793,0,0
-539,-769,0,0,0,0,0,0,0,0,0,-1,685,1793,0,0
-532,-769,0,0,0,0,0,0,0,0,0,-1,692,1793,0,0
-525,-769,0,0,0,0,0,0,0,0,0,-1,699,1793,0,0
-518,-769,0,0,0,0,0,0,0,0,0,-1,706,1793,0,0
-511,-769,0,0,0,0,0,0,0,0,0,-1,713,1793,0,0
-504,-769,0,0,0,0,0,0,0,0,0,-1,720,1793,0,0
-497,-769,0,0,0,0,0,0,0,0,0,-1,727,1793,0,0
-490,-769,0,0,0,0,0,0,0,0,0,-1,734,1793,0,0
-483,-769,0,0,0,0,0,0,0,0,0,-1,741,1793,0,0
-476,-769,0,0,0,0,0,0,0,0,0,-1,748,1793,0,0
-469,-769,0,0,0,0,0,0,0,0,0,-1,755,1793,0,0
-462,-769,0,0,0,0,0,0,0,0,0,-1,762,1793,0,0
-455,-769,0,0,0,0,0,0,0,0,0,-1,769,1793,0,0
-448,-769,0,0,0,0,0,0,0,0,0,-1,776,1793,0,0
-441,-769,0,0,0,0,0,0,0,0,0,-1,783,1793,0,0
-434,-769,0,0,0,0,0,0,0,0,0,-1,790,1793,0,0
-427,-769,0,0,0,0,0,0,0,0,0,-1,797,1793,0,0
-420,-769,0,0,0,0,0,0,0,0,0,-1,804,1793,0,0
-413,-769,0,0,0,0,0,0,0,0,0,-1,811,1793,0,0
-406,-769,0,0,0,0,0,0,0,0,0,-1,818,1793,0,0
-399,-769,0,0,0,0,0,0,0,0,0,-1,825,1793,0,0
-392,-769,0,0,0,0,0,0,0,0,0,-1,832,1793,0,0
-385,-769,0,0,0,0,0,0,0,0,0,-1,839,1793,0,0
-378,-769,0,0,0,0,0,0,0,0,0,-1,846,1793,0,0
-371,-769,0,0,0,0,0,0,0,0,0,-1,853,1793,0,0
-364,-769,0,0,0,0,0,0,0,0,0,-1,860,1793,0,0
-357,-769,0,0,0,0,0,0,0,0,0,-1,867,1793,0,0
-350,-769,0,0,0,0,0,0,0,0,0,-1,874,1793,0,0
-343,-769,0,0,0,0,0,0,0,0,0,-1,881,1793,0,0
-336,-769,0,0,0,0,0,0,0,0,0,-1,888,1793,0,0
-329,-769,0,0,0,0,0,0,0,0,0,-1,895,1793,0,0
-322,-769,0,0,0,0,0,0,0,0,0,-1,902,1793,0,0
-315,-769,0,0,0,0,0,0,0,0,0,-1,909,1793,0,0
-308,-769,0,0,0,0,0,0,0,0,0,-1,916,1793,0,0
-301,-769,0,0,0,0,0,0,0,0,0,-1,923,1793,0,0
-294,-769,0,0,0,0,0,0,0,0,0,-1,930,1793,0,0
-287,-769,0,0,0,0,0,0,0,0,0,-1,937,1793,0,0
-280,-769,0,0,0,0,0,0,0,0,0,-1,944,1793,0,0
-273,-769,0,0,0,0,0,0,0,0,0,-1,951,1793,0,0
-266,-769,0,0,0,0,0,0,0,0,0,-1,958,1793,0,0
-259,-769,0,0,0,0,0,0,0,0,0,-1,965,1793,0,0
-252,-769,0,0,0,0,0,0,0,0,0,-1,972,1793,0,0
-245,-769,0,0,0,0,0,0,0,0,0,-1,979,1793,0,0
-238,-769,0,0,0,0,0,0,0,0,0,-1,986,1793,0,0
-231,-769,0,0,0,0,0,0,0,0,0,-1,993,1793,0,0
-224,-769,0,0,0,0,0,0,0,0,0,-1,1000,1793,0,0
-217,-769,0,0,0,0,0,0,0,0,0,-1,1007,1793,0,0
-210,-769,0,0,0,0,0,0,0,0,0,-1,1014,1793,0,0
-203,-769,0,0,0,0,0,0,0,0,0,-1,1021,1793,0,0
-196,-769,0,0,0,0,0,0,0,0,0,-1,1028,1793,0,0
-189,-769,0,0,0,0,0,0,0,0,0,-1,1035,1793,0,0
-182,-769,0,0,0,0,0,0,0,0,0,-1,1042,1793,0,0
-175,-769,0,0,0,0,0,0,0,0,0,-1,1049,1793,0,0
-168,-769,0,0,0,0,0,0,0,0,0,-1,1056,1793,0,0
-161,-769,-3.61145,12.4761,0,0,0,0,0,0,0,-1,1063,1793,-3.6114,-12.476
-154,-769,-0.813232,5.32874,0,0,0,0,0,0,0,-1,1070,1793,-0.813269,-5.32872
-147,-769,4.26587,4.7002,0,0,0,0,0,0,0,-1,1077,1793,4.26593,-4.70022
-140,-769,4.10376,5.28589,0,0,0,0,0,0,0,-1,1084,1793,4.10371,-5.28584
-133,-769,6.422,8.21777,0,0,0,0,0,0,0,-1,1091,1793,6.42198,-8.21773
-126,-769,-0.352295,19.326,0,0,0,0,0,0,0,-1,1098,1793,-0.352235,-19.326
-119,-769,6.01685,16.2577,0,0,0,0,0,0,0,-1,1105,1793,6.01689,-16.2576
-112,-769,5.76416,27.2615,0,0,0,0,0,0,0,-1,1112,1793,5.7642,-27.2615
-105,-769,4.97009,22.8479,0,0,0,0,0,0,0,-1,1119,1793,4.97006,-22.8479
-98,-769,4.69373,18.9142,0,0,0,0,0,0,0,-1,1126,1793,4.69376,-18.9142
-91,-769,4.41748,14.9805,0,0,0,0,0,0,0,-1,1133,1793,4.41746,-14.9805
-84,-769,3.2207,12.4565,0,0,0,0,0,0,0,-1,1140,1793,3.22066,-12.4565
-77,-769,2.48816,8.98486,0,0,0,0,0,0,0,-1,1147,1793,2.48815,-8.98489
-70,-769,1.04944,11.9852,0,0,0,0,0,0,0,-1,1154,1793,1.04947,-11.9852
-63,-769,-2.39709,9.60339,0,0,0,0,0,0,0,-1,1161,1793,-2.39706,-9.6034
-56,-769,-5.84363,7.22156,0,0,0,0,0,0,0,-1,1168,1793,-5.84359,-7.22157
-49,-769,-2.41443,3.95471,0,0,0,0,0,0,0,-1,1175,1793,-2.41446,-3.95471
-42,-769,-3.1991,2.64941,0,0,0,0,0,0,0,-1,1182,1793,-3.19914,-2.64944
-35,-769,-3.50183,1.73389,0,0,0,0,0,0,0,-1,1189,1793,-3.50189,-1.7339
-28,-769,-3.96985,1.14075,0,0,0,0,0,0,0,-1,1196,1793,-3.96985,-1.14078
-21,-769,8.51636,58.248,0,0,0,0,0,0,0,-1,1203,1793,8.51634,-58.248
-14,-769,10.0874,59.9078,0,0,0,0,0,0,0,-1,1210,1793,10.0874,-59.9078
-7,-769,9.54883,59.3362,0.0114877,0.0211781,-0.0432003,0.0598041,-0.0271383,-0.841243,0.0513636,0.0464024,1217,1793,9.54887,-59.3362
0,-769,9.99927,59.5918,0.0158706,0.0219499,-0.0362581,0.0552955,-0.017475,-0.827217,0.0438648,0.048173,1224,1793,9.99932,-59.5918
7,-769,10.203,60.2008,0.018559,0.0209533,-0.0306335,0.0504131,-0.0109007,-0.804928,0.0377703,0.0436144,1231,1793,10.203,-60.2008
14,-769,10.0601,60.3719,0.0197046,0.0187773,-0.0262725,0.0455175,-0.00703565,-0.776575,0.0329416,0.041839,1238,1793,10.06,-60.372
21,-769,10.0553,60.2164,0.019655,0.0166776,-0.0232023,0.0414163,-0.00508374,-0.753361,0.0294521,0.041086,1245,1793,10.0552,-60.2164
28,-769,9.41467,60.2698,0,0,0,0,0,0,0,-1,1252,1793,9.41461,-60.2698
35,-769,8.95215,60.3979,0.0155937,0.0137561,-0.0202076,0.0349034,-0.0055535,-0.76268,0.0253239,0.0476672,1259,1793,8.95214,-60.398
42,-769,9.07324,60.5149,0,0,0,0,0,0,0,-1,1266,1793,9.0732,-60.5149
49,-769,9.56641,61.1489,0.0100067,0.0141424,-0.0184548,0.0306448,-0.00649571,-0.841191,0.0229042,0.0447956,1273,1793,9.56642,-61.1489
56,-769,9.25244,60.5481,0.00559476,0.0141326,-0.0185395,0.0288883,-0.00916093,-0.898557,0.0229308,0.048525,1280,1793,9.25249,-60.5481
63,-769,9.07227,60.2909,6.19206e-05,0.0154182,-0.0204052,0.029542,-0.0140619,-0.965346,0.0256981,0.0493242,1287,1793,9.07222,-60.2909
70,-769,8.9917,60.1896,-0.00530852,0.017692,-0.0212117,0.0303204,-0.0179369,-1.0338,0.0281655,0.0455714,1294,1793,8.99173,-60.1896
77,-769,9.17322,60.3788,-0.00925454,0.0201503,-0.0208331,0.0309465,-0.0200507,-1.09268,0.0296665,0.0466161,1301,1793,9.17317,-60.3787
84,-769,9.23279,60.3013,-0.0126102,0.022295,-0.0206547,0.0318833,-0.0221985,-1.13618,0.0313906,0.0449605,1308,1793,9.23273,-60.3013
91,-769,8.8949,60.1757,-0.0153275,0.0248836,-0.0215179,0.0342272,-0.0246711,-1.16114,0.0341538,0.0467244,1315,1793,8.89495,-60.1756
98,-769,8.6637,59.9706,-0.0178106,0.0252427,-0.0202764,0.0332884,-0.0258564,-1.19305,0.034237,0.0484104,1322,1793,8.66365,-59.9705
105,-769,8.6394,60.0925,-0.0203723,0.0247554,-0.0183381,0.0312676,-0.0268844,-1.22957,0.0336058,0.0472775,1329,1793,8.63936,-60.0926
112,-769,8.33911,58.114,-0.0219827,0.0233346,-0.0168307,0.0289016,-0.0275497,-1.25136,0.0325953,0.0490913,1336,1793,8.33915,-58.1141
119,-769,7.8783,58.1451,0,0,0,0,0,0,0,-1,1343,1793,7.87828,-58.1451
126,-769,8.33752,58.9042,0,0,0,0,0,0,0,-1,1350,1793,8.33756,-58.9042
133,-769,7.96155,59.8518,0,0,0,0,0,0,0,-1,1357,1793,7.96153,-59.8518
140,-769,7.98889,59.5768,0,0,0,0,0,0,0,-1,1364,1793,7.98885,-59.5768
147,-769,8.401,59.3644,0,0,0,0,0,0,0,-1,1371,1793,8.40095,-59.3643
154,-769,7.29382,55.4241,0,0,0,0,0,0,0,-1,1378,1793,7.29384,-55.4241
161,-769,6.57019,1.53223,0,0,0,0,0,0,0,-1,1385,1793,6.57019,-1.53226
168,-769,8.27637,0.756958,0,0,0,0,0,0,0,-1,1392,1793,8.27639,-0.756944
175,-769,8.47144,2.41174,0,0,0,0,0,0,0,-1,1399,1793,8.47147,-2.4118
182,-769,8.41479,4.05994,0,0,0,0,0,0,0,-1,1406,1793,8.41479,-4.05997
189,-769,8.25049,5.68433,0,0,0,0,0,0,0,-1,1413,1793,8.25054,-5.68428
196,-769,7.97729,7.42847,0,0,0,0,0,0,0,-1,1420,1793,7.9773,-7.42848
203,-769,22.0977,6.73889,0,0,0,0,0,0,0,-1,1427,1793,22.0977,-6.7389
210,-769,22.1115,7.77246,0,0,0,0,0,0,0,-1,1434,1793,22.1115,-7.77248
217,-769,22.4723,8.79102,0,0,0,0,0,0,0,-1,1441,1793,22.4723,-8.79099
224,-769,22.1348,9.35278,0,0,0,0,0,0,0,-1,1448,1793,22.1348,-9.35283
231,-769,3.13318,19.7184,0,0,0,0,0,0,0,-1,1455,1793,3.13323,-19.7184
238,-769,5.74512,18.6597,0,0,0,0,0,0,0,-1,1462,1793,5.74512,-18.6596
245,-769,5.80798,22.87,0,0,0,0,0,0,0,-1,1469,1793,5.80796,-22.87
252,-769,6.20837,28.394,0,0,0,0,0,0,0,-1,1476,1793,6.20833,-28.3941
259,-769,10.974,17.7698,0,0,0,0,0,0,0,-1,1483,1793,10.974,-17.7698
266,-769,15.8488,7.3905,0,0,0,0,0,0,0,-1,1490,1793,15.8488,-7.39046
273,-769,14.8075,7.56152,0,0,0,0,0,0,0,-1,1497,1793,14.8075,-7.56152
280,-769,13.6519,7.43054,0,0,0,0,0,0,0,-1,1504,1793,13.6518,-7.43058
287,-769,0,0,0,0,0,0,0,0,0,-1,1511,1793,0,0
294,-769,0,0,0,0,0,0,0,0,0,-1,1518,1793,0,0
301,-769,0,0,0,0,0,0,0,0,0,-1,1525,1793,0,0
308,-769,0,0,0,0,0,0,0,0,0,-1,1532,1793,0,0
315,-769,0,0,0,0,0,0,0,0,0,-1,1539,1793,0,0
322,-769,0,0,0,0,0,0,0,0,0,-1,1546,1793,0,0
329,-769,0,0,0,0,0,0,0,0,0,-1,1553,1793,0,0
336,-769,0,0,0,0,0,0,0,0,0,-1,1560,1793,0,0
343,-769,0,0,0,0,0,0,0,0,0,-1,1567,1793,0,0
350,-769,0,0,0,0,0,0,0,0,0,-1,1574,1793,0,0
357,-769,0,0,0,0,0,0,0,0,0,-1,1581,1793,0,0
364,-769,0,0,0,0,0,0,0,0,0,-1,1588,1793,0,0
371,-769,0,0,0,0,0,0,0,0,0,-1,1595,1793,0,0
378,-769,0,0,0,0,0,0,0,0,0,-1,1602,1793,0,0
385,-769,0,0,0,0,0,0,0,0,0,-1,1609,1793,0,0
392,-769,0,0,0,0,0,0,0,0,0,-1,1616,1793,0,0
399,-769,0,0,0,0,0,0,0,0,0,-1,1623,1793,0,0
406,-769,0,0,0,0,0,0,0,0,0,-1,1630,1793,0,0
413,-769,0,0,0,0,0,0,0,0,0,-1,1637,1793,0,0
420,-769,0,0,0,0,0,0,0,0,0,-1,1644,1793,0,0
427,-769,0,0,0,0,0,0,0,0,0,-1,1651,1793,0,0
434,-769,0,0,0,0,0,0,0,0,0,-1,1658,1793,0,0
441,-769,0,0,0,0,0,0,0,0,0,-1,1665,1793,0,0
448,-769,0,0,0,0,0,0,0,0,0,-1,1672,1793,0,0
455,-769,0,0,0,0,0,0,0,0,0,-1,1679,1793,0,0
462,-769,0,0,0,0,0,0,0,0,0,-1,1686,1793,0,0
469,-769,0,0,0,0,0,0,0,0,0,-1,1693,1793,0,0
476,-769,0,0,0,0,0,0,0,0,0,-1,1700,1793,0,0
483,-769,0,0,0,0,0,0,0,0,0,-1,1707,1793,0,0
490,-769,0,0,0,0,0,0,0,0,0,-1,1714,1793,0,0
497,-769,0,0,0,0,0,0,0,0,0,-1,1721,1793,0,0
504,-769,0,0,0,0,0,0,0,0,0,-1,1728,1793,0,0
511,-769,0,0,0,0,0,0,0,0,0,-1,1735,1793,0,0
518,-769,0,0,0,0,0,0,0,0,0,-1,1742,1793,0,0
525,-769,0,0,0,0,0,0,0,0,0,-1,1749,1793,0,0
532,-769,0,0,0,0,0,0,0,0,0,-1,1756,1793,0,0
539,-769,0,0,0,0,0,0,0,0,0,-1,1763,1793,0,0
546,-769,0,0,0,0,0,0,0,0,0,-1,1770,1793,0,0
553,-769,0,0,0,0,0,0,0,0,0,-1,1777,1793,0,0
560,-769,0,0,0,0,0,0,0,0,0,-1,1784,1793,0,0
567,-769,0,0,0,0,0,0,0,0,0,-1,1791,1793,0,0
574,-769,0,0,0,0,0,0,0,0,0,-1,1798,1793,0,0
581,-769,0,0,0,0,0,0,0,0,0,-1,1805,1793,0,0
588,-769,0,0,0,0,0,0,0,0,0,-1,1812,1793,0,0
595,-769,0,0,0,0,0,0,0,0,0,-1,1819,1793,0,0
602,-769,0,0,0,0,0,0,0,0,0,-1,1826,1793,0,0
609,-769,0,0,0,0,0,0,0,0,0,-1,1833,1793,0,0
616,-769,0,0,0,0,0,0,0,0,0,-1,1840,1793,0,0
623,-769,0,0,0,0,0,0,0,0,0,-1,1847,1793,0,0
630,-769,0,0,0,0,0,0,0,0,0,-1,1854,1793,0,0
637,-769,0,0,0,0,0,0,0,0,0,-1,1861,1793,0,0
644,-769,0,0,0,0,0,0,0,0,0,-1,1868,1793,0,0
651,-769,0,0,0,0,0,0,0,0,0,-1,1875,1793,0,0
658,-769,0,0,0,0,0,0,0,0,0,-1,1882,1793,0,0
665,-769,0,0,0,0,0,0,0,0,0,-1,1889,1793,0,0
672,-769,0,0,0,0,0,0,0,0,0,-1,1896,1793,0,0
679,-769,0,0,0,0,0,0,0,0,0,-1,1903,1793,0,0
686,-769,0,0,0,0,0,0,0,0,0,-1,1910,1793,0,0
693,-769,0,0,0,0,0,0,0,0,0,-1,1917,1793,0,0
700,-769,0,0,0,0,0,0,0,0,0,-1,1924,1793,0,0
707,-769,0,0,0,0,0,0,0,0,0,-1,1931,1793,0,0
714,-769,0,0,0,0,0,0,0,0,0,-1,1938,1793,0,0
721,-769,0,0,0,0,0,0,0,0,0,-1,1945,1793,0,0
728,-769,0,0,0,0,0,0,0,0,0,-1,1952,1793,0,0
735,-769,0,0,0,0,0,0,0,0,0,-1,1959,1793,0,0
742,-769,0,0,0,0,0,0,0,0,0,-1,1966,1793,0,0
749,-769,0,0,0,0,0,0,0,0,0,-1,1973,1793,0,0
756,-769,0,0,0,0,0,0,0,0,0,-1,1980,1793,0,0
763,-769,0,0,0,0,0,0,0,0,0,-1,1987,1793,0,0
770,-769,0,0,0,0,0,0,0,0,0,-1,1994,1793,0,0
777,-769,0,0,0,0,0,0,0,0,0,-1,2001,1793,0,0
784,-769,0,0,0,0,0,0,0,0,0,-1,2008,1793,0,0
791,-769,0,0,0,0,0,0,0,0,0,-1,2015,1793,0,0
798,-769,0,0,0,0,0,0,0,0,0,-1,2022,1793,0,0
805,-769,0,0,0,0,0,0,0,0,0,-1,2029,1793,0,0
812,-769,0,0,0,0,0,0,0,0,0,-1,2036,1793,0,0
-700,-776,0,0,0,0,0,0,0,0,0,-1,524,1800,0,0
-693,-776,0,0,0,0,0,0,0,0,0,-1,531,1800,0,0
-686,-776,0,0,0,0,0,0,0,0,0,-1,538,1800,0,0
-679,-776,0,0,0,0,0,0,0,0,0,-1,545,1800,0,0
-672,-776,0,0,0,0,0,0,0,0,0,-1,552,1800,0,0
-665,-776,0,0,0,0,0,0,0,0,0,-1,559,1800,0,0
-658,-776,0,0,0,0,0,0,0,0,0,-1,566,1800,0,0
-651,-776,0,0,0,0,0,0,0,0,0,-1,573,1800,0,0
-644,-776,0,0,0,0,0,0,0,0,0,-1,580,1800,0,0
-637,-776,0,0,0,0,0,0,0,0,0,-1,587,1800,0,0
-630,-776,0,0,0,0,0,0,0,0,0,-1,594,1800,0,0
-623,-776,0,0,0,0,0,0,0,0,0,-1,601,1800,0,0
-616,-776,0,0,0,0,0,0,0,0,0,-1,608,1800,0,0
-609,-776,0,0,0,0,0,0,0,0,0,-1,615,1800,0,0
-602,-776,0,0,0,0,0,0,0,0,0,-1,622,1800,0,0
-595,-776,0,0,0,0,0,0,0,0,0,-1,629,1800,0,0
-588,-776,0,0,0,0,0,0,0,0,0,-1,636,1800,0,0
-581,-776,0,0,0,0,0,0,0,0,0,-1,643,1800,0,0
-574,-776,0,0,0,0,0,0,0,0,0,-1,650,1800,0,0
-567,-776,0,0,0,0,0,0,0,0,0,-1,657,1800,0,0
-560,-776,0,0,0,0,0,0,0,0,0,-1,664,1800,0,0
-553,-776,0,0,0,0,0,0,0,0,0,-1,671,1800,0,0
-546,-776,0,0,0,0,0,0,0,0,0,-1,678,1800,0,0
-539,-776,0,0,0,0,0,0,0,0,0,-1,685,1800,0,0
-532,-776,0,0,0,0,0,0,0,0,0,-1,692,1800,0,0
-525,-776,0,0,0,0,0,0,0,0,0,-1,699,1800,0,0
-518,-776,0,0,0,0,0,0,0,0,0,-1,706,1800,0,0
-511,-776,0,0,0,0,0,0,0,0,0,-1,713,1800,0,0
-504,-776,0,0,0,0,0,0,0,0,0,-1,720,1800,0,0
-497,-776,0,0,0,0,0,0,0,0,0,-1,727,1800,0,0
-490,-776,0,0,0,0,0,0,0,0,0,-1,734,1800,0,0
-483,-776,0,0,0,0,0,0,0,0,0,-1,741,1800,0,0
-476,-776,0,0,0,0,0,0,0,0,0,-1,748,1800,0,0
-469,-776,0,0,0,0,0,0,0,0,0,-1,755,1800,0,0
-462,-776,0,0,0,0,0,0,0,0,0,-1,762,1800,0,0
-455,-776,0,0,0,0,0,0,0,0,0,-1,769,1800,0,0
-448,-776,0,0,0,0,0,0,0,0,0,-1,776,1800,0,0
-441,-776,0,0,0,0,0,0,0,0,0,-1,783,1800,0,0
-434,-776,0,0,0,0,0,0,0,0,0,-1,790,1800,0,0
-427,-776,0,0,0,0,0,0,0,0,0,-1,797,1800,0,0
-420,-776,0,0,0,0,0,0,0,0,0,-1,804,1800,0,0
-413,-776,0,0,0,0,0,0,0,0,0,-1,811,1800,0,0
-406,-776,0,0,0,0,0,0,0,0,0,-1,818,1800,0,0
-399,-776,0,0,0,0,0,0,0,0,0,-1,825,1800,0,0
-392,-776,0,0,0,0,0,0,0,0,0,-1,832,1800,0,0
-385,-776,0,0,0,0,0,0,0,0,0,-1,839,1800,0,0
-378,-776,0,0,0,0,0,0,0,0,0,-1,846,1800,0,0
-371,-776,0,0,0,0,0,0,0,0,0,-1,853,1800,0,0
-364,-776,0,0,0,0,0,0,0,0,0,-1,860,1800,0,0
-357,-776,0,0,0,0,0,0,0,0,0,-1,867,1800,0,0
-350,-776,0,0,0,0,0,0,0,0,0,-1,874,1800,0,0
-343,-776,0,0,0,0,0,0,0,0,0,-1,881,1800,0,0
-336,-776,0,0,0,0,0,0,0,0,0,-1,888,1800,0,0
-329,-776,0,0,0,0,0,0,0,0,0,-1,895,1800,0,0
-322,-776,0,0,0,0,0,0,0,0,0,-1,902,1800,0,0
-315,-776,0,0,0,0,0,0,0,0,0,-1,909,1800,0,0
-308,-776,0,0,0,0,0,0,0,0,0,-1,916,1800,0,0
-301,-776,0,0,0,0,0,0,0,0,0,-1,923,1800,0,0
-294,-776,0,0,0,0,0,0,0,0,0,-1,930,1800,0,0
-287,-776,0,0,0,0,0,0,0,0,0,-1,937,1800,0,0
-280,-776,0,0,0,0,0,0,0,0,0,-1,944,1800,0,0
-273,-776,0,0,0,0,0,0,0,0,0,-1,951,1800,0,0
-266,-776,0,0,0,0,0,0,0,0,0,-1,958,1800,0,0
-259,-776,0,0,0,0,0,0,0,0,0,-1,965,1800,0,0
-252,-776,0,0,0,0,0,0,0,0,0,-1,972,1800,0,0
-245,-776,0,0,0,0,0,0,0,0,0,-1,979,1800,0,0
-238,-776,0,0,0,0,0,0,0,0,0,-1,986,1800,0,0
-231,-776,0,0,0,0,0,0,0,0,0,-1,993,1800,0,0
-224,-776,0,0,0,0,0,0,0,0,0,-1,1000,1800,0,0
-217,-776,0,0,0,0,0,0,0,0,0,-1,1007,1800,0,0
-210,-776,0,0,0,0,0,0,0,0,0,-1,1014,1800,0,0
-203,-776,0,0,0,0,0,0,0,0,0,-1,1021,1800,0,0
-196,-776,0,0,0,0,0,0,0,0,0,-1,1028,1800,0,0
-189,-776,0,0,0,0,0,0,0,0,0,-1,1035,1800,0,0
-182,-776,0,0,0,0,0,0,0,0,0,-1,1042,1800,0,0
-175,-776,0,0,0,0,0,0,0,0,0,-1,1049,1800,0,0
-168,-776,0,0,0,0,0,0,0,0,0,-1,1056,1800,0,0
-161,-776,0,0,0,0,0,0,0,0,0,-1,1063,1800,0,0
-154,-776,0,0,0,0,0,0,0,0,0,-1,1070,1800,0,0
-147,-776,0,0,0,0,0,0,0,0,0,-1,1077,1800,0,0
-140,-776,2.98499,5.20911,0,0,0,0,0,0,0,-1,1084,1800,2.98493,-5.2091
-133,-776,6.72363,9.35828,0,0,0,0,0,0,0,-1,1091,1800,6.72358,-9.35824
-126,-776,6.55029,13.7832,0,0,0,0,0,0,0,-1,1098,1800,6.55029,-13.7832
-119,-776,5.72107,13.7787,0,0,0,0,0,0,0,-1,1105,1800,5.72106,-13.7787
-112,-776,6.84998,20.4421,0,0,0,0,0,0,0,-1,1112,1800,6.84993,-20.4421
-105,-776,4.46863,24.6742,0,0,0,0,0,0,0,-1,1119,1800,4.46868,-24.6742
-98,-776,4.31616,19.7659,0,0,0,0,0,0,0,-1,1126,1800,4.31619,-19.7659
-91,-776,3.30225,18.134,0,0,0,0,0,0,0,-1,1133,1800,3.30222,-18.134
-84,-776,2.67932,14.3162,0,0,0,0,0,0,0,-1,1140,1800,2.67926,-14.3161
-77,-776,0.580078,11.1272,0,0,0,0,0,0,0,-1,1147,1800,0.58002,-11.1272
-70,-776,-0.562866,12.3163,0,0,0,0,0,0,0,-1,1154,1800,-0.562897,-12.3163
-63,-776,-3.96106,9.97656,0,0,0,0,0,0,0,-1,1161,1800,-3.961,-9.97654
-56,-776,-7.35913,7.63672,0,0,0,0,0,0,0,-1,1168,1800,-7.3591,-7.63676
-49,-776,-7.62952,3.1908,0,0,0,0,0,0,0,-1,1175,1800,-7.62955,-3.19076
-42,-776,-3.41272,3.0249,0,0,0,0,0,0,0,-1,1182,1800,-3.41269,-3.02488
-35,-776,-3.71753,1.63635,0,0,0,0,0,0,0,-1,1189,1800,-3.71755,-1.63631
-28,-776,-4.03979,0.716064,0,0,0,0,0,0,0,-1,1196,1800,-4.03977,-0.716055
-21,-776,10.4767,61.8448,0,0,0,0,0,0,0,-1,1203,1800,10.4767,-61.8448
-14,-776,10.0792,60.3949,0.0063128,0.0155765,-0.0706064,0.0817027,-0.0598135,-0.818152,0.0820296,0.0482126,1210,1800,10.0792,-60.3949
-7,-776,9.65564,58.9628,0.0143069,0.0184652,-0.0594358,0.0758582,-0.0430861,-0.802881,0.0695359,0.0484454,1217,1800,9.65558,-58.9628
0,-776,9.27295,57.5081,0.020854,0.0197117,-0.0495791,0.0698652,-0.0292996,-0.779638,0.058828,0.0466218,1224,1800,9.27299,-57.5081
7,-776,9.0719,55.8508,0.0247835,0.018964,-0.0418922,0.0638669,-0.0201193,-0.750725,0.0506347,0.046566,1231,1800,9.07186,-55.8508
14,-776,10.4276,60.3037,0.026465,0.0170624,-0.0359367,0.0580066,-0.0144792,-0.720357,0.0442935,0.0419303,1238,1800,10.4276,-60.3038
21,-776,10.4885,59.9891,0.0264856,0.0153493,-0.0316874,0.0530904,-0.0112554,-0.698426,0.0396811,0.0397451,1245,1800,10.4885,-59.9892
28,-776,10.8123,59.5475,0.0244897,0.0142203,-0.0288521,0.0486604,-0.00995037,-0.697337,0.0362156,0.0395982,1252,1800,10.8123,-59.5475
35,-776,8.76843,60.2467,0,0,0,0,0,0,0,-1,1259,1800,8.76846,-60.2467
42,-776,8.95447,60.4377,0,0,0,0,0,0,0,-1,1266,1800,8.95449,-60.4378
49,-776,9.33032,60.3777,0,0,0,0,0,0,0,-1,1273,1800,9.33031,-60.3776
56,-776,9.2572,60.4192,0.00843792,0.0163051,-0.0240424,0.0367335,-0.0119905,-0.866485,0.029315,0.0473877,1280,1800,9.25723,-60.4192
63,-776,9.17102,60.5132,0.00137514,0.0186854,-0.0258721,0.0373117,-0.0172512,-0.946814,0.0322038,0.0493836,1287,1800,9.17107,-60.5132
70,-776,9.01501,59.6437,0,0,0,0,0,0,0,-1,1294,1800,9.01498,-59.6436
77,-776,9.76086,60.1925,0,0,0,0,0,0,0,-1,1301,1800,9.76084,-60.1925
84,-776,9.42932,60.0133,-0.0151223,0.0263817,-0.0257254,0.0386818,-0.0274224,-1.1248,0.0383494,0.0476665,1308,1800,9.42927,-60.0133
91,-776,9.20483,59.7961,-0.0188638,0.0292997,-0.0264965,0.0410229,-0.030587,-1.15424,0.0414901,0.0439812,1315,1800,9.20485,-59.7961
98,-776,9.18433,59.4933,-0.0223816,0.0295347,-0.0247692,0.039456,-0.032303,-1.18981,0.0414986,0.045244,1322,1800,9.18433,-59.4933
105,-776,8.74414,58.4182,-0.0258063,0.0285804,-0.0223282,0.0365726,-0.0337985,-1.22706,0.0406393,0.043275,1329,1800,8.74413,-58.4183
112,-776,8.33264,58.4423,-0.0279939,0.0265217,-0.0203324,0.0332697,-0.0347419,-1.25035,0.0392696,0.0466429,1336,1800,8.33262,-58.4423
119,-776,8.00171,58.7126,-0.0291995,0.0234603,-0.0182285,0.0291545,-0.0348936,-1.26802,0.0370276,0.0433543,1343,1800,8.00165,-58.7126
126,-776,7.58875,58.7034,0,0,0,0,0,0,0,-1,1350,1800,7.58877,-58.7034
133,-776,8.80945,58.4182,0,0,0,0,0,0,0,-1,1357,1800,8.80941,-58.4182
140,-776,6.73706,62.718,0,0,0,0,0,0,0,-1,1364,1800,6.73703,-62.718
147,-776,5.7168,55.2931,0,0,0,0,0,0,0,-1,1371,1800,5.71682,-55.2931
154,-776,38.4338,21.854,0,0,0,0,0,0,0,-1,1378,1800,38.4339,-21.854
161,-776,6.50293,1.1731,0,0,0,0,0,0,0,-1,1385,1800,6.5029,-1.17313
168,-776,8.44971,1.22913,0,0,0,0,0,0,0,-1,1392,1800,8.44974,-1.22915
175,-776,8.61523,2.87061,0,0,0,0,0,0,0,-1,1399,1800,8.6152,-2.87063
182,-776,8.54065,4.60645,0,0,0,0,0,0,0,-1,1406,1800,8.5407,-4.60643
189,-776,8.35303,6.28223,0,0,0,0,0,0,0,-1,1413,1800,8.35297,-6.28225
196,-776,8.0387,8.21704,0,0,0,0,0,0,0,-1,1420,1800,8.03865,-8.217
203,-776,7.91736,9.79919,0,0,0,0,0,0,0,-1,1427,1800,7.91735,-9.79922
210,-776,20.2479,7.85718,0,0,0,0,0,0,0,-1,1434,1800,20.248,-7.85719
217,-776,21.5171,9.3418,0,0,0,0,0,0,0,-1,1441,1800,21.5171,-9.34182
224,-776,3.09253,14.9313,0,0,0,0,0,0,0,-1,1448,1800,3.09254,-14.9313
231,-776,20.8671,9.21057,0,0,0,0,0,0,0,-1,1455,1800,20.867,-9.21054
238,-776,20.7511,9.05847,0,0,0,0,0,0,0,-1,1462,1800,20.7511,-9.05848
245,-776,3.80823,15.4108,0,0,0,0,0,0,0,-1,1469,1800,3.80826,-15.4108
252,-776,8.57837,20.2009,0,0,0,0,0,0,0,-1,1476,1800,8.57841,-20.2009
259,-776,14.1882,7.69055,0,0,0,0,0,0,0,-1,1483,1800,14.1882,-7.69061
266,-776,0,0,0,0,0,0,0,0,0,-1,1490,1800,0,0
273,-776,0,0,0,0,0,0,0,0,0,-1,1497,1800,0,0
280,-776,0,0,0,0,0,0,0,0,0,-1,1504,1800,0,0
287,-776,0,0,0,0,0,0,0,0,0,-1,1511,1800,0,0
294,-776,0,0,0,0,0,0,0,0,0,-1,1518,1800,0,0
301,-776,0,0,0,0,0,0,0,0,0,-1,1525,1800,0,0
308,-776,0,0,0,0,0,0,0,0,0,-1,1532,1800,0,0
315,-776,0,0,0,0,0,0,0,0,0,-1,1539,1800,0,0
322,-776,0,0,0,0,0,0,0,0,0,-1,1546,1800,0,0
329,-776,0,0,0,0,0,0,0,0,0,-1,1553,1800,0,0
336,-776,0,0,0,0,0,0,0,0,0,-1,1560,1800,0,0
343,-776,0,0,0,0,0,0,0,0,0,-1,1567,1800,0,0
350,-776,0,0,0,0,0,0,0,0,0,-1,1574,1800,0,0
357,-776,0,0,0,0,0,0,0,0,0,-1,1581,1800,0,0
364,-776,0,0,0,0,0,0,0,0,0,-1,1588,1800,0,0
371,-776,0,0,0,0,0,0,0,0,0,-1,1595,1800,0,0
378,-776,0,0,0,0,0,0,0,0,0,-1,1602,1800,0,0
385,-776,0,0,0,0,0,0,0,0,0,-1,1609,1800,0,0
392,-776,0,0,0,0,0,0,0,0,0,-1,1616,1800,0,0
399,-776,0,0,0,0,0,0,0,0,0,-1,1623,1800,0,0
406,-776,0,0,0,0,0,0,0,0,0,-1,1630,1800,0,0
413,-776,0,0,0,0,0,0,0,0,0,-1,1637,1800,0,0
420,-776,0,0,0,0,0,0,0,0,0,-1,1644,1800,0,0
427,-776,0,0,0,0,0,0,0,0,0,-1,1651,1800,0,0
434,-776,0,0,0,0,0,0,0,0,0,-1,1658,1800,0,0
441,-776,0,0,0,0,0,0,0,0,0,-1,1665,1800,0,0
448,-776,0,0,0,0,0,0,0,0,0,-1,1672,1800,0,0
455,-776,0,0,0,0,0,0,0,0,0,-1,1679,1800,0,0
462,-776,0,0,0,0,0,0,0,0,0,-1,1686,1800,0,0
469,-776,0,0,0,0,0,0,0,0,0,-1,1693,1800,0,0
476,-776,0,0,0,0,0,0,0,0,0,-1,1700,1800,0,0
483,-776,0,0,0,0,0,0,0,0,0,-1,1707,1800,0,0
490,-776,0,0,0,0,0,0,0,0,0,-1,1714,1800,0,0
497,-776,0,0,0,0,0,0,0,0,0,-1,1721,1800,0,0
504,-776,0,0,0,0,0,0,0,0,0,-1,1728,1800,0,0
511,-776,0,0,0,0,0,0,0,0,0,-1,1735,1800,0,0
518,-776,0,0,0,0,0,0,0,0,0,-1,1742,1800,0,0
525,-776,0,0,0,0,0,0,0,0,0,-1,1749,1800,0,0
532,-776,0,0,0,0,0,0,0,0,0,-1,1756,1800,0,0
539,-776,0,0,0,0,0,0,0,0,0,-1,1763,1800,0,0
546,-776,0,0,0,0,0,0,0,0,0,-1,1770,1800,0,0
553,-776,0,0,0,0,0,0,0,0,0,-1,1777,1800,0,0
560,-776,0,0,0,0,0,0,0,0,0,-1,1784,1800,0,0
567,-776,0,0,0,0,0,0,0,0,0,-1,1791,1800,0,0
574,-776,0,0,0,0,0,0,0,0,0,-1,1798,1800,0,0
581,-776,0,0,0,0,0,0,0,0,0,-1,1805,1800,0,0
588,-776,0,0,0,0,0,0,0,0,0,-1,1812,1800,0,0
595,-776,0,0,0,0,0,0,0,0,0,-1,1819,1800,0,0
602,-776,0,0,0,0,0,0,0,0,0,-1,1826,1800,0,0
609,-776,0,0,0,0,0,0,0,0,0,-1,1833,1800,0,0
616,-776,0,0,0,0,0,0,0,0,0,-1,1840,1800,0,0
623,-776,0,0,0,0,0,0,0,0,0,-1,1847,1800,0,0
630,-776,0,0,0,0,0,0,0,0,0,-1,1854,1800,0,0
637,-776,0,0,0,0,0,0,0,0,0,-1,1861,1800,0,0
644,-776,0,0,0,0,0,0,0,0,0,-1,1868,1800,0,0
651,-776,0,0,0,0,0,0,0,0,0,-1,1875,1800,0,0
658,-776,0,0,0,0,0,0,0,0,0,-1,1882,1800,0,0
665,-776,0,0,0,0,0,0,0,0,0,-1,1889,1800,0,0
672,-776,0,0,0,0,0,0,0,0,0,-1,1896,1800,0,0
679,-776,0,0,0,0,0,0,0,0,0,-1,1903,1800,0,0
686,-776,0,0,0,0,0,0,0,0,0,-1,1910,1800,0,0
693,-776,0,0,0,0,0,0,0,0,0,-1,1917,1800,0,0
700,-776,0,0,0,0,0,0,0,0,0,-1,1924,1800,0,0
707,-776,0,0,0,0,0,0,0,0,0,-1,1931,1800,0,0
714,-776,0,0,0,0,0,0,0,0,0,-1,1938,1800,0,0
721,-776,0,0,0,0,0,0,0,0,0,-1,1945,1800,0,0
728,-776,0,0,0,0,0,0,0,0,0,-1,1952,1800,0,0
735,-776,0,0,0,0,0,0,0,0,0,-1,1959,1800,0,0
742,-776,0,0,0,0,0,0,0,0,0,-1,1966,1800,0,0
749,-776,0,0,0,0,0,0,0,0,0,-1,1973,1800,0,0
756,-776,0,0,0,0,0,0,0,0,0,-1,1980,1800,0,0
763,-776,0,0,0,0,0,0,0,0,0,-1,1987,1800,0,0
770,-776,0,0,0,0,0,0,0,0,0,-1,1994,1800,0,0
777,-776,0,0,0,0,0,0,0,0,0,-1,2001,1800,0,0
784,-776,0,0,0,0,0,0,0,0,0,-1,2008,1800,0,0
791,-776,0,0,0,0,0,0,0,0,0,-1,2015,1800,0,0
798,-776,0,0,0,0,0,0,0,0,0,-1,2022,1800,0,0
805,-776,0,0,0,0,0,0,0,0,0,-1,2029,1800,0,0
812,-776,0,0,0,0,0,0,0,0,0,-1,2036,1800,0,0
-700,-783,0,0,0,0,0,0,0,0,0,-1,524,1807,0,0
-693,-783,0,0,0,0,0,0,0,0,0,-1,531,1807,0,0
-686,-783,0,0,0,0,0,0,0,0,0,-1,538,1807,0,0
-679,-783,0,0,0,0,0,0,0,0,0,-1,545,1807,0,0
-672,-783,0,0,0,0,0,0,0,0,0,-1,552,1807,0,0
-665,-783,0,0,0,0,0,0,0,0,0,-1,559,1807,0,0
-658,-783,0,0,0,0,0,0,0,0,0,-1,566,1807,0,0
-651,-783,0,0,0,0,0,0,0,0,0,-1,573,1807,0,0
-644,-783,0,0,0,0,0,0,0,0,0,-1,580,1807,0,0
-637,-783,0,0,0,0,0,0,0,0,0,-1,587,1807,0,0
-630,-783,0,0,0,0,0,0,0,0,0,-1,594,1807,0,0
-623,-783,0,0,0,0,0,0,0,0,0,-1,601,1807,0,0
-616,-783,0,0,0,0,0,0,0,0,0,-1,608,1807,0,0
-609,-783,0,0,0,0,0,0,0,0,0,-1,615,1807,0,0
-602,-783,0,0,0,0,0,0,0,0,0,-1,622,1807,0,0
-595,-783,0,0,0,0,0,0,0,0,0,-1,629,1807,0,0
-588,-783,0,0,0,0,0,0,0,0,0,-1,636,1807,0,0
-581,-783,0,0,0,0,0,0,0,0,0,-1,643,1807,0,0
-574,-783,0,0,0,0,0,0,0,0,0,-1,650,1807,0,0
-567,-783,0,0,0,0,0,0,0,0,0,-1,657,1807,0,0
-560,-783,0,0,0,0,0,0,0,0,0,-1,664,1807,0,0
-553,-783,0,0,0,0,0,0,0,0,0,-1,671,1807,0,0
-546,-783,0,0,0,0,0,0,0,0,0,-1,678,1807,0,0
-539,-783,0,0,0,0,0,0,0,0,0,-1,685,1807,0,0
-532,-783,0,0,0,0,0,0,0,0,0,-1,692,1807,0,0
-525,-783,0,0,0,0,0,0,0,0,0,-1,699,1807,0,0
-518,-783,0,0,0,0,0,0,0,0,0,-1,706,1807,0,0
-511,-783,0,0,0,0,0,0,0,0,0,-1,713,1807,0,0
-504,-783,0,0,0,0,0,0,0,0,0,-1,720,1807,0,0
-497,-783,0,0,0,0,0,0,0,0,0,-1,727,1807,0,0
-490,-783,0,0,0,0,0,0,0,0,0,-1,734,1807,0,0
-483,-783,0,0,0,0,0,0,0,0,0,-1,741,1807,0,0
-476,-783,0,0,0,0,0,0,0,0,0,-1,748,1807,0,0
-469,-783,0,0,0,0,0,0,0,0,0,-1,755,1807,0,0
-462,-783,0,0,0,0,0,0,0,0,0,-1,762,1807,0,0
-455,-783,0,0,0,0,0,0,0,0,0,-1,769,1807,0,0
-448,-783,0,0,0,0,0,0,0,0,0,-1,776,1807,0,0
-441,-783,0,0,0,0,0,0,0,0,0,-1,783,1807,0,0
-434,-783,0,0,0,0,0,0,0,0,0,-1,790,1807,0,0
-427,-783,0,0,0,0,0,0,0,0,0,-1,797,1807,0,0
-420,-783,0,0,0,0,0,0,0,0,0,-1,804,1807,0,0
-413,-783,0,0,0,0,0,0,0,0,0,-1,811,1807,0,0
-406,-783,0,0,0,0,0,0,0,0,0,-1,818,1807,0,0
-399,-783,0,0,0,0,0,0,0,0,0,-1,825,1807,0,0
-392,-783,0,0,0,0,0,0,0,0,0,-1,832,1807,0,0
-385,-783,0,0,0,0,0,0,0,0,0,-1,839,1807,0,0
-378,-783,0,0,0,0,0,0,0,0,0,-1,846,1807,0,0
-371,-783,0,0,0,0,0,0,0,0,0,-1,853,1807,0,0
-364,-783,0,0,0,0,0,0,0,0,0,-1,860,1807,0,0
-357,-783,0,0,0,0,0,0,0,0,0,-1,867,1807,0,0
-350,-783,0,0,0,0,0,0,0,0,0,-1,874,1807,0,0
-343,-783,0,0,0,0,0,0,0,0,0,-1,881,1807,0,0
-336,-783,0,0,0,0,0,0,0,0,0,-1,888,1807,0,0
-329,-783,0,0,0,0,0,0,0,0,0,-1,895,1807,0,0
-322,-783,0,0,0,0,0,0,0,0,0,-1,902,1807,0,0
-315,-783,0,0,0,0,0,0,0,0,0,-1,909,1807,0,0
-308,-783,0,0,0,0,0,0,0,0,0,-1,916,1807,0,0
-301,-783,0,0,0,0,0,0,0,0,0,-1,923,1807,0,0
-294,-783,0,0,0,0,0,0,0,0,0,-1,930,1807,0,0
-287,-783,0,0,0,0,0,0,0,0,0,-1,937,1807,0,0
-280,-783,0,0,0,0,0,0,0,0,0,-1,944,1807,0,0
-273,-783,0,0,0,0,0,0,0,0,0,-1,951,1807,0,0
-266,-783,0,0,0,0,0,0,0,0,0,-1,958,1807,0,0
-259,-783,0,0,0,0,0,0,0,0,0,-1,965,1807,0,0
-252,-783,0,0,0,0,0,0,0,0,0,-1,972,1807,0,0
-245,-783,0,0,0,0,0,0,0,0,0,-1,979,1807,0,0
-238,-783,0,0,0,0,0,0,0,0,0,-1,986,1807,0,0
-231,-783,0,0,0,0,0,0,0,0,0,-1,993,1807,0,0
-224,-783,0,0,0,0,0,0,0,0,0,-1,1000,1807,0,0
-217,-783,0,0,0,0,0,0,0,0,0,-1,1007,1807,0,0
-210,-783,0,0,0,0,0,0,0,0,0,-1,1014,1807,0,0
-203,-783,0,0,0,0,0,0,0,0,0,-1,1021,1807,0,0
-196,-783,0,0,0,0,0,0,0,0,0,-1,1028,1807,0,0
-189,-783,0,0,0,0,0,0,0,0,0,-1,1035,1807,0,0
-182,-783,0,0,0,0,0,0,0,0,0,-1,1042,1807,0,0
-175,-783,0,0,0,0,0,0,0,0,0,-1,1049,1807,0,0
-168,-783,0,0,0,0,0,0,0,0,0,-1,1056,1807,0,0
-161,-783,0,0,0,0,0,0,0,0,0,-1,1063,1807,0,0
-154,-783,0,0,0,0,0,0,0,0,0,-1,1070,1807,0,0
-147,-783,0,0,0,0,0,0,0,0,0,-1,1077,1807,0,0
-140,-783,0,0,0,0,0,0,0,0,0,-1,1084,1807,0,0
-133,-783,0,0,0,0,0,0,0,0,0,-1,1091,1807,0,0
-126,-783,0,0,0,0,0,0,0,0,0,-1,1098,1807,0,0
-119,-783,0,0,0,0,0,0,0,0,0,-1,1105,1807,0,0
-112,-783,5.33936,14.7699,0,0,0,0,0,0,0,-1,1112,1807,5.33931,-14.7699
-105,-783,6.44263,21.2224,0,0,0,0,0,0,0,-1,1119,1807,6.44263,-21.2224
-98,-783,5.54773,20.5695,0,0,0,0,0,0,0,-1,1126,1807,5.54772,-20.5695
-91,-783,2.6106,20.2491,0,0,0,0,0,0,0,-1,1133,1807,2.61056,-20.2492
-84,-783,-0.0491943,14.5743,0,0,0,0,0,0,0,-1,1140,1807,-0.0491562,-14.5743
-77,-783,0.332764,12.7788,0,0,0,0,0,0,0,-1,1147,1807,0.332743,-12.7788
-70,-783,-1.93176,5.12817,0,0,0,0,0,0,0,-1,1154,1807,-1.93171,-5.12813
-63,-783,-5.31702,10.54,0,0,0,0,0,0,0,-1,1161,1807,-5.31703,-10.54
-56,-783,-6.26135,6.9679,0,0,0,0,0,0,0,-1,1168,1807,-6.26136,-6.96785
-49,-783,-3.17688,4.59705,0,0,0,0,0,0,0,-1,1175,1807,-3.17685,-4.5971
-42,-783,-3.72876,3.1405,0,0,0,0,0,0,0,-1,1182,1807,-3.72874,-3.14055
-35,-783,-3.97046,1.59399,0,0,0,0,0,0,0,-1,1189,1807,-3.97041,-1.59401
-28,-783,-4.12195,0.270386,0,0,0,0,0,0,0,-1,1196,1807,-4.12197,-0.270408
-21,-783,10.3224,62.3893,0,0,0,0,0,0,0,-1,1203,1807,10.3224,-62.3893
-14,-783,10.3661,60.646,0.00493211,0.00868762,-0.0939479,0.100776,-0.0871568,-0.79539,0.108598,0.0461135,1210,1807,10.3661,-60.646
-7,-783,9.79553,58.8789,0.0169059,0.0117436,-0.0790995,0.0934663,-0.0648169,-0.769088,0.0918825,0.0468432,1217,1807,9.79557,-58.8789
0,-783,9.55566,57.2135,0.0262963,0.0132178,-0.0657727,0.085854,-0.0463399,-0.73585,0.0774504,0.0446823,1224,1807,9.5557,-57.2135
7,-783,9.42078,55.6615,0,0,0,0,0,0,0,-1,1231,1807,9.42075,-55.6615
14,-783,10.6836,60.1616,0.0339925,0.0119274,-0.0479194,0.072133,-0.0262131,-0.672255,0.0588071,0.0433085,1238,1807,10.6836,-60.1616
21,-783,11.1437,59.6396,0.0340946,0.0112234,-0.0422391,0.0664188,-0.0211007,-0.6532,0.0527391,0.0442207,1245,1807,11.1437,-59.6396
28,-783,11.6024,59.1543,0.0315312,0.0114594,-0.0383011,0.0610894,-0.0180988,-0.657265,0.0479125,0.0429583,1252,1807,11.6024,-59.1543
35,-783,11.8728,58.8314,0.0273863,0.0125369,-0.0358734,0.0565953,-0.0166721,-0.683355,0.0443448,0.0445742,1259,1807,11.8728,-58.8315
42,-783,8.073,61.463,0,0,0,0,0,0,0,-1,1266,1807,8.07301,-61.463
49,-783,8.20618,61.2322,0.0186889,0.0169157,-0.0313677,0.0491825,-0.0135779,-0.77127,0.0381289,0.0498896,1273,1807,8.20619,-61.2322
56,-783,9.38892,60.3226,0.0115796,0.0182383,-0.0305408,0.0456307,-0.0158128,-0.839691,0.0368405,0.046467,1280,1807,9.38891,-60.3226
63,-783,9.37097,60.6372,0.00283535,0.0222926,-0.0320768,0.0460837,-0.0209557,-0.932635,0.0396011,0.0496539,1287,1807,9.37093,-60.6372
70,-783,9.97583,60.3591,-0.00571368,0.0250281,-0.0329075,0.0459775,-0.0266631,-1.00389,0.0424304,0.0467309,1294,1807,9.97585,-60.3591
77,-783,9.82422,60.1193,-0.0123126,0.0279405,-0.0319041,0.0455359,-0.029908,-1.06679,0.043868,0.0478169,1301,1807,9.82416,-60.1192
84,-783,9.62732,59.7349,-0.0180087,0.030431,-0.0312154,0.0457206,-0.0332983,-1.11533,0.0458091,0.0476245,1308,1807,9.62737,-59.7349
91,-783,9.48987,59.2185,-0.02303,0.0334482,-0.031641,0.047619,-0.0372008,-1.14972,0.0490937,0.044375,1315,1807,9.48983,-59.2185
98,-783,9.18604,58.7484,-0.0278506,0.0333619,-0.0292674,0.0451033,-0.039592,-1.18928,0.0489334,0.0427581,1322,1807,9.18608,-58.7484
105,-783,8.72498,58.6959,-0.0323016,0.0316536,-0.0262368,0.0410395,-0.0416874,-1.22725,0.0477629,0.0463394,1329,1807,8.72497,-58.696
112,-783,8.31677,58.7327,-0.0351944,0.0286066,-0.0235837,0.0363777,-0.0429655,-1.25249,0.0458614,0.0498856,1336,1807,8.31676,-58.7326
119,-783,7.90833,58.8016,-0.0367489,0.0242775,-0.0208264,0.0307074,-0.0431788,-1.27134,0.0428603,0.0480095,1343,1807,7.90827,-58.8016
126,-783,7.68457,58.917,0,0,0,0,0,0,0,-1,1350,1807,7.68457,-58.917
133,-783,7.58325,58.9561,0,0,0,0,0,0,0,-1,1357,1807,7.58326,-58.956
140,-783,6.16809,62.4868,0,0,0,0,0,0,0,-1,1364,1807,6.1681,-62.4868
147,-783,5.66138,61.8387,0,0,0,0,0,0,0,-1,1371,1807,5.66137,-61.8387
154,-783,38.2109,17.545,0,0,0,0,0,0,0,-1,1378,1807,38.2109,-17.545
161,-783,39.5087,17.5449,0,0,0,0,0,0,0,-1,1385,1807,39.5087,-17.545
168,-783,8.62561,1.79944,0,0,0,0,0,0,0,-1,1392,1807,8.62561,-1.79946
175,-783,8.78699,3.40857,0,0,0,0,0,0,0,-1,1399,1807,8.78697,-3.40854
182,-783,8.70984,5.14661,0,0,0,0,0,0,0,-1,1406,1807,8.70989,-5.14666
189,-783,8.55762,6.79871,0,0,0,0,0,0,0,-1,1413,1807,8.55766,-6.79872
196,-783,8.25488,8.66626,0,0,0,0,0,0,0,-1,1420,1807,8.25492,-8.66628
203,-783,7.86755,10.5735,0,0,0,0,0,0,0,-1,1427,1807,7.8676,-10.5734
210,-783,5.6969,8.99231,0,0,0,0,0,0,0,-1,1434,1807,5.69693,-8.99234
217,-783,5.28503,3.80872,0,0,0,0,0,0,0,-1,1441,1807,5.285,-3.80868
224,-783,3.22571,6.62903,0,0,0,0,0,0,0,-1,1448,1807,3.2257,-6.62907
231,-783,4.27942,4.56262,0,0,0,0,0,0,0,-1,1455,1807,4.27948,-4.56267
238,-783,0,0,0,0,0,0,0,0,0,-1,1462,1807,0,0
245,-783,0,0,0,0,0,0,0,0,0,-1,1469,1807,0,0
252,-783,0,0,0,0,0,0,0,0,0,-1,1476,1807,0,0
259,-783,0,0,0,0,0,0,0,0,0,-1,1483,1807,0,0
266,-783,0,0,0,0,0,0,0,0,0,-1,1490,1807,0,0
273,-783,0,0,0,0,0,0,0,0,0,-1,1497,1807,0,0
280,-783,0,0,0,0,0,0,0,0,0,-1,1504,1807,0,0
287,-783,0,0,0,0,0,0,0,0,0,-1,1511,1807,0,0
294,-783,0,0,0,0,0,0,0,0,0,-1,1518,1807,0,0
301,-783,0,0,0,0,0,0,0,0,0,-1,1525,1807,0,0
308,-783,0,0,0,0,0,0,0,0,0,-1,1532,1807,0,0
315,-783,0,0,0,0,0,0,0,0,0,-1,1539,1807,0,0
322,-783,0,0,0,0,0,0,0,0,0,-1,1546,1807,0,0
329,-783,0,0,0,0,0,0,0,0,0,-1,1553,1807,0,0
336,-783,0,0,0,0,0,0,0,0,0,-1,1560,1807,0,0
343,-783,0,0,0,0,0,0,0,0,0,-1,1567,1807,0,0
350,-783,0,0,0,0,0,0,0,0,0,-1,1574,1807,0,0
357,-783,0,0,0,0,0,0,0,0,0,-1,1581,1807,0,0
364,-783,0,0,0,0,0,0,0,0,0,-1,1588,1807,0,0
371,-783,0,0,0,0,0,0,0,0,0,-1,1595,1807,0,0
378,-783,0,0,0,0,0,0,0,0,0,-1,1602,1807,0,0
385,-783,0,0,0,0,0,0,0,0,0,-1,1609,1807,0,0
392,-783,0,0,0,0,0,0,0,0,0,-1,1616,1807,0,0
399,-783,0,0,0,0,0,0,0,0,0,-1,1623,1807,0,0
406,-783,0,0,0,0,0,0,0,0,0,-1,1630,1807,0,0
413,-783,0,0,0,0,0,0,0,0,0,-1,1637,1807,0,0
420,-783,0,0,0,0,0,0,0,0,0,-1,1644,1807,0,0
427,-783,0,0,0,0,0,0,0,0,0,-1,1651,1807,0,0
434,-783,0,0,0,0,0,0,0,0,0,-1,1658,1807,0,0
441,-783,0,0,0,0,0,0,0,0,0,-1,1665,1807,0,0
448,-783,0,0,0,0,0,0,0,0,0,-1,1672,1807,0,0
455,-783,0,0,0,0,0,0,0,0,0,-1,1679,1807,0,0
462,-783,0,0,0,0,0,0,0,0,0,-1,1686,1807,0,0
469,-783,0,0,0,0,0,0,0,0,0,-1,1693,1807,0,0
476,-783,0,0,0,0,0,0,0,0,0,-1,1700,1807,0,0
483,-783,0,0,0,0,0,0,0,0,0,-1,1707,1807,0,0
490,-783,0,0,0,0,0,0,0,0,0,-1,1714,1807,0,0
497,-783,0,0,0,0,0,0,0,0,0,-1,1721,1807,0,0
504,-783,0,0,0,0,0,0,0,0,0,-1,1728,1807,0,0
511,-783,0,0,0,0,0,0,0,0,0,-1,1735,1807,0,0
518,-783,0,0,0,0,0,0,0,0,0,-1,1742,1807,0,0
525,-783,0,0,0,0,0,0,0,0,0,-1,1749,1807,0,0
532,-783,0,0,0,0,0,0,0,0,0,-1,1756,1807,0,0
539,-783,0,0,0,0,0,0,0,0,0,-1,1763,1807,0,0
546,-783,0,0,0,0,0,0,0,0,0,-1,1770,1807,0,0
553,-783,0,0,0,0,0,0,0,0,0,-1,1777,1807,0,0
560,-783,0,0,0,0,0,0,0,0,0,-1,1784,1807,0,0
567,-783,0,0,0,0,0,0,0,0,0,-1,1791,1807,0,0
574,-783,0,0,0,0,0,0,0,0,0,-1,1798,1807,0,0
581,-783,0,0,0,0,0,0,0,0,0,-1,1805,1807,0,0
588,-783,0,0,0,0,0,0,0,0,0,-1,1812,1807,0,0
595,-783,0,0,0,0,0,0,0,0,0,-1,1819,1807,0,0
602,-783,0,0,0,0,0,0,0,0,0,-1,1826,1807,0,0
609,-783,0,0,0,0,0,0,0,0,0,-1,1833,1807,0,0
616,-783,0,0,0,0,0,0,0,0,0,-1,1840,1807,0,0
623,-783,0,0,0,0,0,0,0,0,0,-1,1847,1807,0,0
630,-783,0,0,0,0,0,0,0,0,0,-1,1854,1807,0,0
637,-783,0,0,0,0,0,0,0,0,0,-1,1861,1807,0,0
644,-783,0,0,0,0,0,0,0,0,0,-1,1868,1807,0,0
651,-783,0,0,0,0,0,0,0,0,0,-1,1875,1807,0,0
658,-783,0,0,0,0,0,0,0,0,0,-1,1882,1807,0,0
665,-783,0,0,0,0,0,0,0,0,0,-1,1889,1807,0,0
672,-783,0,0,0,0,0,0,0,0,0,-1,1896,1807,0,0
679,-783,0,0,0,0,0,0,0,0,0,-1,1903,1807,0,0
686,-783,0,0,0,0,0,0,0,0,0,-1,1910,1807,0,0
693,-783,0,0,0,0,0,0,0,0,0,-1,1917,1807,0,0
700,-783,0,0,0,0,0,0,0,0,0,-1,1924,1807,0,0
707,-783,0,0,0,0,0,0,0,0,0,-1,1931,1807,0,0
714,-783,0,0,0,0,0,0,0,0,0,-1,1938,1807,0,0
721,-783,0,0,0,0,0,0,0,0,0,-1,1945,1807,0,0
728,-783,0,0,0,0,0,0,0,0,0,-1,1952,1807,0,0
735,-783,0,0,0,0,0,0,0,0,0,-1,1959,1807,0,0
742,-783,0,0,0,0,0,0,0,0,0,-1,1966,1807,0,0
749,-783,0,0,0,0,0,0,0,0,0,-1,1973,1807,0,0
756,-783,0,0,0,0,0,0,0,0,0,-1,1980,1807,0,0
763,-783,0,0,0,0,0,0,0,0,0,-1,1987,1807,0,0
770,-783,0,0,0,0,0,0,0,0,0,-1,1994,1807,0,0
777,-783,0,0,0,0,0,0,0,0,0,-1,2001,1807,0,0
784,-783,0,0,0,0,0,0,0,0,0,-1,2008,1807,0,0
791,-783,0,0,0,0,0,0,0,0,0,-1,2015,1807,0,0
798,-783,0,0,0,0,0,0,0,0,0,-1,2022,1807,0,0
805,-783,0,0,0,0,0,0,0,0,0,-1,2029,1807,0,0
812,-783,0,0,0,0,0,0,0,0,0,-1,2036,1807,0,0
-700,-790,0,0,0,0,0,0,0,0,0,-1,524,1814,0,0
-693,-790,0,0,0,0,0,0,0,0,0,-1,531,1814,0,0
-686,-790,0,0,0,0,0,0,0,0,0,-1,538,1814,0,0
-679,-790,0,0,0,0,0,0,0,0,0,-1,545,1814,0,0
-672,-790,0,0,0,0,0,0,0,0,0,-1,552,1814,0,0
-665,-790,0,0,0,0,0,0,0,0,0,-1,559,1814,0,0
-658,-790,0,0,0,0,0,0,0,0,0,-1,566,1814,0,0
-651,-790,0,0,0,0,0,0,0,0,0,-1,573,1814,0,0
-644,-790,0,0,0,0,0,0,0,0,0,-1,580,1814,0,0
-637,-790,0,0,0,0,0,0,0,0,0,-1,587,1814,0,0
-630,-790,0,0,0,0,0,0,0,0,0,-1,594,1814,0,0
-623,-790,0,0,0,0,0,0,0,0,0,-1,601,1814,0,0
-616,-790,0,0,0,0,0,0,0,0,0,-1,608,1814,0,0
-609,-790,0,0,0,0,0,0,0,0,0,-1,615,1814,0,0
-602,-790,0,0,0,0,0,0,0,0,0,-1,622,1814,0,0
-595,-790,0,0,0,0,0,0,0,0,0,-1,629,1814,0,0
-588,-790,0,0,0,0,0,0,0,0,0,-1,636,1814,0,0
-581,-790,0,0,0,0,0,0,0,0,0,-1,643,1814,0,0
-574,-790,0,0,0,0,0,0,0,0,0,-1,650,1814,0,0
-567,-790,0,0,0,0,0,0,0,0,0,-1,657,1814,0,0
-560,-790,0,0,0,0,0,0,0,0,0,-1,664,1814,0,0
-553,-790,0,0,0,0,0,0,0,0,0,-1,671,1814,0,0
-546,-790,0,0,0,0,0,0,0,0,0,-1,678,1814,0,0
-539,-790,0,0,0,0,0,0,0,0,0,-1,685,1814,0,0
-532,-790,0,0,0,0,0,0,0,0,0,-1,692,1814,0,0
-525,-790,0,0,0,0,0,0,0,0,0,-1,699,1814,0,0
-518,-790,0,0,0,0,0,0,0,0,0,-1,706,1814,0,0
-511,-790,0,0,0,0,0,0,0,0,0,-1,713,1814,0,0
-504,-790,0,0,0,0,0,0,0,0,0,-1,720,1814,0,0
-497,-790,0,0,0,0,0,0,0,0,0,-1,727,1814,0,0
-490,-790,0,0,0,0,0,0,0,0,0,-1,734,1814,0,0
-483,-790,0,0,0,0,0,0,0,0,0,-1,741,1814,0,0
-476,-790,0,0,0,0,0,0,0,0,0,-1,748,1814,0,0
-469,-790,0,0,0,0,0,0,0,0,0,-1,755,1814,0,0
-462,-790,0,0,0,0,0,0,0,0,0,-1,762,1814,0,0
-455,-790,0,0,0,0,0,0,0,0,0,-1,769,1814,0,0
-448,-790,0,0,0,0,0,0,0,0,0,-1,776,1814,0,0
-441,-790,0,0,0,0,0,0,0,0,0,-1,783,1814,0,0
-434,-790,0,0,0,0,0,0,0,0,0,-1,790,1814,0,0
-427,-790,0,0,0,0,0,0,0,0,0,-1,797,1814,0,0
-420,-790,0,0,0,0,0,0,0,0,0,-1,804,1814,0,0
-413,-790,0,0,0,0,0,0,0,0,0,-1,811,1814,0,0
-406,-790,0,0,0,0,0,0,0,0,0,-1,818,1814,0,0
-399,-790,0,0,0,0,0,0,0,0,0,-1,825,1814,0,0
-392,-790,0,0,0,0,0,0,0,0,0,-1,832,1814,0,0
-385,-790,0,0,0,0,0,0,0,0,0,-1,839,1814,0,0
-378,-790,0,0,0,0,0,0,0,0,0,-1,846,1814,0,0
-371,-790,0,0,0,0,0,0,0,0,0,-1,853,1814,0,0
-364,-790,0,0,0,0,0,0,0,0,0,-1,860,1814,0,0
-357,-790,0,0,0,0,0,0,0,0,0,-1,867,1814,0,0
-350,-790,0,0,0,0,0,0,0,0,0,-1,874,1814,0,0
-343,-790,0,0,0,0,0,0,0,0,0,-1,881,1814,0,0
-336,-790,0,0,0,0,0,0,0,0,0,-1,888,1814,0,0
-329,-790,0,0,0,0,0,0,0,0,0,-1,895,1814,0,0
-322,-790,0,0,0,0,0,0,0,0,0,-1,902,1814,0,0
-315,-790,0,0,0,0,0,0,0,0,0,-1,909,1814,0,0
-308,-790,0,0,0,0,0,0,0,0,0,-1,916,1814,0,0
-301,-790,0,0,0,0,0,0,0,0,0,-1,923,1814,0,0
-294,-790,0,0,0,0,0,0,0,0,0,-1,930,1814,0,0
-287,-790,0,0,0,0,0,0,0,0,0,-1,937,1814,0,0
-280,-790,0,0,0,0,0,0,0,0,0,-1,944,1814,0,0
-273,-790,0,0,0,0,0,0,0,0,0,-1,951,1814,0,0
-266,-790,0,0,0,0,0,0,0,0,0,-1,958,1814,0,0
-259,-790,0,0,0,0,0,0,0,0,0,-1,965,1814,0,0
-252,-790,0,0,0,0,0,0,0,0,0,-1,972,1814,0,0
-245,-790,0,0,0,0,0,0,0,0,0,-1,979,1814,0,0
-238,-790,0,0,0,0,0,0,0,0,0,-1,986,1814,0,0
-231,-790,0,0,0,0,0,0,0,0,0,-1,993,1814,0,0
-224,-790,0,0,0,0,0,0,0,0,0,-1,1000,1814,0,0
-217,-790,0,0,0,0,0,0,0,0,0,-1,1007,1814,0,0
-210,-790,0,0,0,0,0,0,0,0,0,-1,1014,1814,0,0
-203,-790,0,0,0,0,0,0,0,0,0,-1,1021,1814,0,0
-196,-790,0,0,0,0,0,0,0,0,0,-1,1028,1814,0,0
-189,-790,0,0,0,0,0,0,0,0,0,-1,1035,1814,0,0
-182,-790,0,0,0,0,0,0,0,0,0,-1,1042,1814,0,0
-175,-790,0,0,0,0,0,0,0,0,0,-1,1049,1814,0,0
-168,-790,0,0,0,0,0,0,0,0,0,-1,1056,1814,0,0
-161,-790,0,0,0,0,0,0,0,0,0,-1,1063,1814,0,0
-154,-790,0,0,0,0,0,0,0,0,0,-1,1070,1814,0,0
-147,-790,0,0,0,0,0,0,0,0,0,-1,1077,1814,0,0
-140,-790,0,0,0,0,0,0,0,0,0,-1,1084,1814,0,0
-133,-790,0,0,0,0,0,0,0,0,0,-1,1091,1814,0,0
-126,-790,0,0,0,0,0,0,0,0,0,-1,1098,1814,0,0
-119,-790,0,0,0,0,0,0,0,0,0,-1,1105,1814,0,0
-112,-790,0,0,0,0,0,0,0,0,0,-1,1112,1814,0,0
-105,-790,0,0,0,0,0,0,0,0,0,-1,1119,1814,0,0
-98,-790,0,0,0,0,0,0,0,0,0,-1,1126,1814,0,0
-91,-790,0,0,0,0,0,0,0,0,0,-1,1133,1814,0,0
-84,-790,0,0,0,0,0,0,0,0,0,-1,1140,1814,0,0
-77,-790,-0.969238,5.30847,0,0,0,0,0,0,0,-1,1147,1814,-0.969277,-5.3085
-70,-790,-1.23169,4.98914,0,0,0,0,0,0,0,-1,1154,1814,-1.23163,-4.98916
-63,-790,-1.69128,4.32263,0,0,0,0,0,0,0,-1,1161,1814,-1.69128,-4.32258
-56,-790,-2.24756,3.75305,0,0,0,0,0,0,0,-1,1168,1814,-2.24758,-3.75302
-49,-790,-3.11011,3.35779,0,0,0,0,0,0,0,-1,1175,1814,-3.11006,-3.35781
-42,-790,0.593262,1.19165,0,0,0,0,0,0,0,-1,1182,1814,0.593225,-1.19165
-35,-790,0.307129,-0.20105,0,0,0,0,0,0,0,-1,1189,1814,0.307178,0.201006
-28,-790,-2.78467,0.785156,0,0,0,0,0,0,0,-1,1196,1814,-2.78471,-0.785183
-21,-790,11.2179,62.0547,0,0,0,0,0,0,0,-1,1203,1814,11.2179,-62.0547
-14,-790,10.9576,60.5499,0.00165837,-0.00264105,-0.121481,0.121009,-0.121991,-0.776551,0.140297,0.0449183,1210,1814,10.9577,-60.5499
-7,-790,10.438,59.1089,0.0192504,-0.000951881,-0.102255,0.111902,-0.093603,-0.736166,0.118805,0.0466263,1217,1814,10.438,-59.1089
0,-790,9.72778,57.1331,0.0320449,0.000319865,-0.08506,0.102709,-0.0703441,-0.693214,0.100493,0.0476759,1224,1814,9.72773,-57.133
7,-790,9.68591,55.1038,0.0389395,0.00121885,-0.0725348,0.0950259,-0.0548676,-0.658206,0.0875702,0.0413311,1231,1814,9.68585,-55.1038
14,-790,11.2827,59.9847,0.0418211,0.00195589,-0.0626173,0.0876018,-0.0438247,-0.631307,0.0772695,0.0420702,1238,1814,11.2827,-59.9847
21,-790,11.8528,59.4993,0.0419854,0.00322147,-0.0552323,0.0811378,-0.0359308,-0.616652,0.069249,0.0442011,1245,1814,11.8528,-59.4992
28,-790,12.5592,59.1633,0.0387741,0.00584971,-0.0498999,0.0748571,-0.0302333,-0.626067,0.0624707,0.0449357,1252,1814,12.5592,-59.1633
35,-790,8.77356,61.0519,0.0337213,0.00925942,-0.0463708,0.0694471,-0.0264664,-0.656453,0.057199,0.0469896,1259,1814,8.77353,-61.0519
42,-790,8.99878,61.0822,0,0,0,0,0,0,0,-1,1266,1814,8.99883,-61.0822
49,-790,9.2594,61.0693,0.0233318,0.0172232,-0.039735,0.0601298,-0.0195747,-0.747041,0.047962,0.0493188,1273,1814,9.25942,-61.0693
56,-790,9.75183,60.7626,0.0145954,0.0198459,-0.038125,0.0554359,-0.0209946,-0.819774,0.0455961,0.0467025,1280,1814,9.75187,-60.7626
63,-790,10.0691,60.4204,0.00407483,0.0263215,-0.0389883,0.0557422,-0.0253459,-0.924356,0.0479001,0.0460812,1287,1814,10.0691,-60.4204
70,-790,10.3693,59.991,-0.00622044,0.0290795,-0.0396109,0.0547948,-0.0319357,-0.994986,0.0506503,0.0420422,1294,1814,10.3693,-59.9909
77,-790,10.1243,59.7264,-0.0143897,0.0319204,-0.038107,0.0533557,-0.035825,-1.0584,0.0518191,0.0411574,1301,1814,10.1243,-59.7264
84,-790,9.86877,59.4373,-0.0215256,0.0342383,-0.0369305,0.0526301,-0.0399175,-1.10874,0.0536001,0.0450512,1308,1814,9.86877,-59.4373
91,-790,9.625,59.0865,-0.0281001,0.0369409,-0.036596,0.053378,-0.0445373,-1.14865,0.0566082,0.0451872,1315,1814,9.62495,-59.0866
98,-790,9.31299,58.7672,-0.0344908,0.0362462,-0.0333686,0.0495028,-0.0477473,-1.19264,0.0561504,0.0411573,1322,1814,9.31304,-58.7672
105,-790,8.75317,58.7638,-0.0401254,0.0333964,-0.0296271,0.0438492,-0.0505781,-1.23162,0.0545637,0.0470299,1329,1814,8.75312,-58.7638
112,-790,8.96423,58.3538,-0.0438849,0.0288743,-0.026051,0.0372398,-0.0522505,-1.26008,0.051909,0.0477352,1336,1814,8.96423,-58.3537
119,-790,7.91187,59.0817,0,0,0,0,0,0,0,-1,1343,1814,7.91192,-59.0817
126,-790,7.7804,59.1306,0,0,0,0,0,0,0,-1,1350,1814,7.78038,-59.1307
133,-790,6.12988,62.8036,0,0,0,0,0,0,0,-1,1357,1814,6.12992,-62.8036
140,-790,5.57483,62.4133,0,0,0,0,0,0,0,-1,1364,1814,5.57477,-62.4133
147,-790,5.03748,62.022,0,0,0,0,0,0,0,-1,1371,1814,5.03742,-62.022
154,-790,40.215,13.2396,0,0,0,0,0,0,0,-1,1378,1814,40.2149,-13.2396
161,-790,39.3429,13.0336,0,0,0,0,0,0,0,-1,1385,1814,39.3429,-13.0336
168,-790,7.04077,2.23279,0,0,0,0,0,0,0,-1,1392,1814,7.04082,-2.23275
175,-790,9.03918,3.98535,0,0,0,0,0,0,0,-1,1399,1814,9.0392,-3.98535
182,-790,8.96997,5.67896,0,0,0,0,0,0,0,-1,1406,1814,8.97001,-5.6789
189,-790,8.59729,6.86975,0,0,0,0,0,0,0,-1,1413,1814,8.59728,-6.86972
196,-790,8.21924,9.29053,0,0,0,0,0,0,0,-1,1420,1814,8.21924,-9.29048
203,-790,0,0,0,0,0,0,0,0,0,-1,1427,1814,0,0
210,-790,0,0,0,0,0,0,0,0,0,-1,1434,1814,0,0
217,-790,0,0,0,0,0,0,0,0,0,-1,1441,1814,0,0
224,-790,0,0,0,0,0,0,0,0,0,-1,1448,1814,0,0
231,-790,0,0,0,0,0,0,0,0,0,-1,1455,1814,0,0
238,-790,0,0,0,0,0,0,0,0,0,-1,1462,1814,0,0
245,-790,0,0,0,0,0,0,0,0,0,-1,1469,1814,0,0
252,-790,0,0,0,0,0,0,0,0,0,-1,1476,1814,0,0
259,-790,0,0,0,0,0,0,0,0,0,-1,1483,1814,0,0
266,-790,0,0,0,0,0,0,0,0,0,-1,1490,1814,0,0
273,-790,0,0,0,0,0,0,0,0,0,-1,1497,1814,0,0
280,-790,0,0,0,0,0,0,0,0,0,-1,1504,1814,0,0
287,-790,0,0,0,0,0,0,0,0,0,-1,1511,1814,0,0
294,-790,0,0,0,0,0,0,0,0,0,-1,1518,1814,0,0
301,-790,0,0,0,0,0,0,0,0,0,-1,1525,1814,0,0
308,-790,0,0,0,0,0,0,0,0,0,-1,1532,1814,0,0
315,-790,0,0,0,0,0,0,0,0,0,-1,1539,1814,0,0
322,-790,0,0,0,0,0,0,0,0,0,-1,1546,1814,0,0
329,-790,0,0,0,0,0,0,0,0,0,-1,1553,1814,0,0
336,-790,0,0,0,0,0,0,0,0,0,-1,1560,1814,0,0
343,-790,0,0,0,0,0,0,0,0,0,-1,1567,1814,0,0
350,-790,0,0,0,0,0,0,0,0,0,-1,1574,1814,0,0
357,-790,0,0,0,0,0,0,0,0,0,-1,1581,1814,0,0
364,-790,0,0,0,0,0,0,0,0,0,-1,1588,1814,0,0
371,-790,0,0,0,0,0,0,0,0,0,-1,1595,1814,0,0
378,-790,0,0,0,0,0,0,0,0,0,-1,1602,1814,0,0
385,-790,0,0,0,0,0,0,0,0,0,-1,1609,1814,0,0
392,-790,0,0,0,0,0,0,0,0,0,-1,1616,1814,0,0
399,-790,0,0,0,0,0,0,0,0,0,-1,1623,1814,0,0
406,-790,0,0,0,0,0,0,0,0,0,-1,1630,1814,0,0
413,-790,0,0,0,0,0,0,0,0,0,-1,1637,1814,0,0
420,-790,0,0,0,0,0,0,0,0,0,-1,1644,1814,0,0
427,-790,0,0,0,0,0,0,0,0,0,-1,1651,1814,0,0
434,-790,0,0,0,0,0,0,0,0,0,-1,1658,1814,0,0
441,-790,0,0,0,0,0,0,0,0,0,-1,1665,1814,0,0
448,-790,0,0,0,0,0,0,0,0,0,-1,1672,1814,0,0
455,-790,0,0,0,0,0,0,0,0,0,-1,1679,1814,0,0
462,-790,0,0,0,0,0,0,0,0,0,-1,1686,1814,0,0
469,-790,0,0,0,0,0,0,0,0,0,-1,1693,1814,0,0
476,-790,0,0,0,0,0,0,0,0,0,-1,1700,1814,0,0
483,-790,0,0,0,0,0,0,0,0,0,-1,1707,1814,0,0
490,-790,0,0,0,0,0,0,0,0,0,-1,1714,1814,0,0
497,-790,0,0,0,0,0,0,0,0,0,-1,1721,1814,0,0
504,-790,0,0,0,0,0,0,0,0,0,-1,1728,1814,0,0
511,-790,0,0,0,0,0,0,0,0,0,-1,1735,1814,0,0
518,-790,0,0,0,0,0,0,0,0,0,-1,1742,1814,0,0
525,-790,0,0,0,0,0,0,0,0,0,-1,1749,1814,0,0
532,-790,0,0,0,0,0,0,0,0,0,-1,1756,1814,0,0
539,-790,0,0,0,0,0,0,0,0,0,-1,1763,1814,0,0
546,-790,0,0,0,0,0,0,0,0,0,-1,1770,1814,0,0
553,-790,0,0,0,0,0,0,0,0,0,-1,1777,1814,0,0
560,-790,0,0,0,0,0,0,0,0,0,-1,1784,1814,0,0
567,-790,0,0,0,0,0,0,0,0,0,-1,1791,1814,0,0
574,-790,0,0,0,0,0,0,0,0,0,-1,1798,1814,0,0
581,-790,0,0,0,0,0,0,0,0,0,-1,1805,1814,0,0
588,-790,0,0,0,0,0,0,0,0,0,-1,1812,1814,0,0
595,-790,0,0,0,0,0,0,0,0,0,-1,1819,1814,0,0
602,-790,0,0,0,0,0,0,0,0,0,-1,1826,1814,0,0
609,-790,0,0,0,0,0,0,0,0,0,-1,1833,1814,0,0
616,-790,0,0,0,0,0,0,0,0,0,-1,1840,1814,0,0
623,-790,0,0,0,0,0,0,0,0,0,-1,1847,1814,0,0
630,-790,0,0,0,0,0,0,0,0,0,-1,1854,1814,0,0
637,-790,0,0,0,0,0,0,0,0,0,-1,1861,1814,0,0
644,-790,0,0,0,0,0,0,0,0,0,-1,1868,1814,0,0
651,-790,0,0,0,0,0,0,0,0,0,-1,1875,1814,0,0
658,-790,0,0,0,0,0,0,0,0,0,-1,1882,1814,0,0
665,-790,0,0,0,0,0,0,0,0,0,-1,1889,1814,0,0
672,-790,0,0,0,0,0,0,0,0,0,-1,1896,1814,0,0
679,-790,0,0,0,0,0,0,0,0,0,-1,1903,1814,0,0
686,-790,0,0,0,0,0,0,0,0,0,-1,1910,1814,0,0
693,-790,0,0,0,0,0,0,0,0,0,-1,1917,1814,0,0
700,-790,0,0,0,0,0,0,0,0,0,-1,1924,1814,0,0
707,-790,0,0,0,0,0,0,0,0,0,-1,1931,1814,0,0
714,-790,0,0,0,0,0,0,0,0,0,-1,1938,1814,0,0
721,-790,0,0,0,0,0,0,0,0,0,-1,1945,1814,0,0
728,-790,0,0,0,0,0,0,0,0,0,-1,1952,1814,0,0
735,-790,0,0,0,0,0,0,0,0,0,-1,1959,1814,0,0
742,-790,0,0,0,0,0,0,0,0,0,-1,1966,1814,0,0
749,-790,0,0,0,0,0,0,0,0,0,-1,1973,1814,0,0
756,-790,0,0,0,0,0,0,0,0,0,-1,1980,1814,0,0
763,-790,0,0,0,0,0,0,0,0,0,-1,1987,1814,0,0
770,-790,0,0,0,0,0,0,0,0,0,-1,1994,1814,0,0
777,-790,0,0,0,0,0,0,0,0,0,-1,2001,1814,0,0
784,-790,0,0,0,0,0,0,0,0,0,-1,2008,1814,0,0
791,-790,0,0,0,0,0,0,0,0,0,-1,2015,1814,0,0
798,-790,0,0,0,0,0,0,0,0,0,-1,2022,1814,0,0
805,-790,0,0,0,0,0,0,0,0,0,-1,2029,1814,0,0
812,-790,0,0,0,0,0,0,0,0,0,-1,2036,1814,0,0
-700,-797,0,0,0,0,0,0,0,0,0,-1,524,1821,0,0
-693,-797,0,0,0,0,0,0,0,0,0,-1,531,1821,0,0
-686,-797,0,0,0,0,0,0,0,0,0,-1,538,1821,0,0
-679,-797,0,0,0,0,0,0,0,0,0,-1,545,1821,0,0
-672,-797,0,0,0,0,0,0,0,0,0,-1,552,1821,0,0
-665,-797,0,0,0,0,0,0,0,0,0,-1,559,1821,0,0
-658,-797,0,0,0,0,0,0,0,0,0,-1,566,1821,0,0
-651,-797,0,0,0,0,0,0,0,0,0,-1,573,1821,0,0
-644,-797,0,0,0,0,0,0,0,0,0,-1,580,1821,0,0
-637,-797,0,0,0,0,0,0,0,0,0,-1,587,1821,0,0
-630,-797,0,0,0,0,0,0,0,0,0,-1,594,1821,0,0
-623,-797,0,0,0,0,0,0,0,0,0,-1,601,1821,0,0
-616,-797,0,0,0,0,0,0,0,0,0,-1,608,1821,0,0
-609,-797,0,0,0,0,0,0,0,0,0,-1,615,1821,0,0
-602,-797,0,0,0,0,0,0,0,0,0,-1,622,1821,0,0
-595,-797,0,0,0,0,0,0,0,0,0,-1,629,1821,0,0
-588,-797,0,0,0,0,0,0,0,0,0,-1,636,1821,0,0
-581,-797,0,0,0,0,0,0,0,0,0,-1,643,1821,0,0
-574,-797,0,0,0,0,0,0,0,0,0,-1,650,1821,0,0
-567,-797,0,0,0,0,0,0,0,0,0,-1,657,1821,0,0
-560,-797,0,0,0,0,0,0,0,0,0,-1,664,1821,0,0
-553,-797,0,0,0,0,0,0,0,0,0,-1,671,1821,0,0
-546,-797,0,0,0,0,0,0,0,0,0,-1,678,1821,0,0
-539,-797,0,0,0,0,0,0,0,0,0,-1,685,1821,0,0
-532,-797,0,0,0,0,0,0,0,0,0,-1,692,1821,0,0
-525,-797,0,0,0,0,0,0,0,0,0,-1,699,1821,0,0
-518,-797,0,0,0,0,0,0,0,0,0,-1,706,1821,0,0
-511,-797,0,0,0,0,0,0,0,0,0,-1,713,1821,0,0
-504,-797,0,0,0,0,0,0,0,0,0,-1,720,1821,0,0
-497,-797,0,0,0,0,0,0,0,0,0,-1,727,1821,0,0
-490,-797,0,0,0,0,0,0,0,0,0,-1,734,1821,0,0
-483,-797,0,0,0,0,0,0,0,0,0,-1,741,1821,0,0
-476,-797,0,0,0,0,0,0,0,0,0,-1,748,1821,0,0
-469,-797,0,0,0,0,0,0,0,0,0,-1,755,1821,0,0
-462,-797,0,0,0,0,0,0,0,0,0,-1,762,1821,0,0
-455,-797,0,0,0,0,0,0,0,0,0,-1,769,1821,0,0
-448,-797,0,0,0,0,0,0,0,0,0,-1,776,1821,0,0
-441,-797,0,0,0,0,0,0,0,0,0,-1,783,1821,0,0
-434,-797,0,0,0,0,0,0,0,0,0,-1,790,1821,0,0
-427,-797,0,0,0,0,0,0,0,0,0,-1,797,1821,0,0
-420,-797,0,0,0,0,0,0,0,0,0,-1,804,1821,0,0
-413,-797,0,0,0,0,0,0,0,0,0,-1,811,1821,0,0
-406,-797,0,0,0,0,0,0,0,0,0,-1,818,1821,0,0
-399,-797,0,0,0,0,0,0,0,0,0,-1,825,1821,0,0
-392,-797,0,0,0,0,0,0,0,0,0,-1,832,1821,0,0
-385,-797,0,0,0,0,0,0,0,0,0,-1,839,1821,0,0
-378,-797,0,0,0,0,0,0,0,0,0,-1,846,1821,0,0
-371,-797,0,0,0,0,0,0,0,0,0,-1,853,1821,0,0
-364,-797,0,0,0,0,0,0,0,0,0,-1,860,1821,0,0
-357,-797,0,0,0,0,0,0,0,0,0,-1,867,1821,0,0
-350,-797,0,0,0,0,0,0,0,0,0,-1,874,1821,0,0
-343,-797,0,0,0,0,0,0,0,0,0,-1,881,1821,0,0
-336,-797,0,0,0,0,0,0,0,0,0,-1,888,1821,0,0
-329,-797,0,0,0,0,0,0,0,0,0,-1,895,1821,0,0
-322,-797,0,0,0,0,0,0,0,0,0,-1,902,1821,0,0
-315,-797,0,0,0,0,0,0,0,0,0,-1,909,1821,0,0
-308,-797,0,0,0,0,0,0,0,0,0,-1,916,1821,0,0
-301,-797,0,0,0,0,0,0,0,0,0,-1,923,1821,0,0
-294,-797,0,0,0,0,0,0,0,0,0,-1,930,1821,0,0
-287,-797,0,0,0,0,0,0,0,0,0,-1,937,1821,0,0
-280,-797,0,0,0,0,0,0,0,0,0,-1,944,1821,0,0
-273,-797,0,0,0,0,0,0,0,0,0,-1,951,1821,0,0
-266,-797,0,0,0,0,0,0,0,0,0,-1,958,1821,0,0
-259,-797,0,0,0,0,0,0,0,0,0,-1,965,1821,0,0
-252,-797,0,0,0,0,0,0,0,0,0,-1,972,1821,0,0
-245,-797,0,0,0,0,0,0,0,0,0,-1,979,1821,0,0
-238,-797,0,0,0,0,0,0,0,0,0,-1,986,1821,0,0
-231,-797,0,0,0,0,0,0,0,0,0,-1,993,1821,0,0
-224,-797,0,0,0,0,0,0,0,0,0,-1,1000,1821,0,0
-217,-797,0,0,0,0,0,0,0,0,0,-1,1007,1821,0,0
-210,-797,0,0,0,0,0,0,0,0,0,-1,1014,1821,0,0
-203,-797,0,0,0,0,0,0,0,0,0,-1,1021,1821,0,0
-196,-797,0,0,0,0,0,0,0,0,0,-1,1028,1821,0,0
-189,-797,0,0,0,0,0,0,0,0,0,-1,1035,1821,0,0
-182,-797,0,0,0,0,0,0,0,0,0,-1,1042,1821,0,0
-175,-797,0,0,0,0,0,0,0,0,0,-1,1049,1821,0,0
-168,-797,0,0,0,0,0,0,0,0,0,-1,1056,1821,0,0
-161,-797,0,0,0,0,0,0,0,0,0,-1,1063,1821,0,0
-154,-797,0,0,0,0,0,0,0,0,0,-1,1070,1821,0,0
-147,-797,0,0,0,0,0,0,0,0,0,-1,1077,1821,0,0
-140,-797,0,0,0,0,0,0,0,0,0,-1,1084,1821,0,0
-133,-797,0,0,0,0,0,0,0,0,0,-1,1091,1821,0,0
-126,-797,0,0,0,0,0,0,0,0,0,-1,1098,1821,0,0
-119,-797,0,0,0,0,0,0,0,0,0,-1,1105,1821,0,0
-112,-797,0,0,0,0,0,0,0,0,0,-1,1112,1821,0,0
-105,-797,0,0,0,0,0,0,0,0,0,-1,1119,1821,0,0
-98,-797,0,0,0,0,0,0,0,0,0,-1,1126,1821,0,0
-91,-797,0,0,0,0,0,0,0,0,0,-1,1133,1821,0,0
-84,-797,0,0,0,0,0,0,0,0,0,-1,1140,1821,0,0
-77,-797,0,0,0,0,0,0,0,0,0,-1,1147,1821,0,0
-70,-797,0,0,0,0,0,0,0,0,0,-1,1154,1821,0,0
-63,-797,0,0,0,0,0,0,0,0,0,-1,1161,1821,0,0
-56,-797,0,0,0,0,0,0,0,0,0,-1,1168,1821,0,0
-49,-797,0,0,0,0,0,0,0,0,0,-1,1175,1821,0,0
-42,-797,0.579834,0.692871,0,0,0,0,0,0,0,-1,1182,1821,0.579856,-0.692816
-35,-797,-0.185425,5.55396,0,0,0,0,0,0,0,-1,1189,1821,-0.18542,-5.55396
-28,-797,-0.310181,4.71509,0,0,0,0,0,0,0,-1,1196,1821,-0.310228,-4.71503
-21,-797,11.5702,61.5612,0,0,0,0,0,0,0,-1,1203,1821,11.5702,-61.5612
-14,-797,11.5114,60.1622,0.000562148,-0.0238015,-0.150138,0.139012,-0.162251,-0.744918,0.174107,0.0477353,1210,1821,11.5114,-60.1622
-7,-797,11.0903,59.24,0.0225012,-0.024552,-0.128031,0.12915,-0.1312,-0.694534,0.150315,0.0488671,1217,1821,11.0904,-59.24
0,-797,9.85413,56.9932,0,0,0,0,0,0,0,-1,1224,1821,9.85409,-56.9932
7,-797,11.3992,60.8739,0.045701,-0.0191398,-0.0928468,0.111625,-0.0850638,-0.617425,0.113903,0.0449379,1231,1821,11.3992,-60.874
14,-797,11.7666,59.959,0.0490606,-0.0149583,-0.0806165,0.10379,-0.0696876,-0.596414,0.1008,0.0429559,1238,1821,11.7666,-59.959
21,-797,12.4119,59.3849,0.0492499,-0.0101998,-0.0712354,0.0967135,-0.0576634,-0.587743,0.090075,0.0464913,1245,1821,12.4119,-59.3849
28,-797,13.0774,58.8558,0.0453414,-0.00364694,-0.0641461,0.0895109,-0.0478164,-0.603017,0.0804948,0.0490858,1252,1821,13.0773,-58.8559
35,-797,13.7449,58.3572,0,0,0,0,0,0,0,-1,1259,1821,13.7449,-58.3572
42,-797,10.1033,61.0995,0,0,0,0,0,0,0,-1,1266,1821,10.1033,-61.0995
49,-797,10.2664,60.88,0.0272845,0.0166153,-0.0496501,0.0718858,-0.027986,-0.731881,0.0594889,0.049422,1273,1821,10.2664,-60.88
56,-797,9.95544,60.8152,0.0167319,0.0212207,-0.046942,0.0659719,-0.0280194,-0.809286,0.055721,0.0427792,1280,1821,9.9554,-60.8152
63,-797,10.4309,60.4075,0.00443702,0.031091,-0.0465601,0.0661939,-0.0306658,-0.924787,0.0571622,0.0431414,1287,1821,10.4309,-60.4075
70,-797,10.6687,59.6663,0,0,0,0,0,0,0,-1,1294,1821,10.6686,-59.6662
77,-797,10.3993,59.3862,-0.0174121,0.0359914,-0.0444739,0.0611636,-0.0425844,-1.05575,0.0602182,0.0421314,1301,1821,10.3993,-59.3863
84,-797,10.0986,59.152,-0.0261343,0.0376919,-0.0425439,0.0589618,-0.0474042,-1.10719,0.0615311,0.0483735,1308,1821,10.0987,-59.152
91,-797,9.83398,58.8624,-0.0345476,0.0393658,-0.040769,0.0574356,-0.0526173,-1.15359,0.0635594,0.0465623,1315,1821,9.83402,-58.8624
98,-797,9.35217,58.744,-0.0427275,0.0376481,-0.0364336,0.0517048,-0.0567842,-1.20258,0.0626591,0.0408185,1322,1821,9.35213,-58.744
105,-797,8.49646,58.6508,-0.049673,0.0331033,-0.0318196,0.0439211,-0.0604908,-1.24308,0.0605348,0.0444664,1329,1821,8.49646,-58.6507
112,-797,7.61487,58.5204,0,0,0,0,0,0,0,-1,1336,1821,7.6149,-58.5203
119,-797,6.08765,61.9888,0,0,0,0,0,0,0,-1,1343,1821,6.08759,-61.9888
126,-797,5.91833,62.4506,0,0,0,0,0,0,0,-1,1350,1821,5.91835,-62.4506
133,-797,5.65649,62.5391,0,0,0,0,0,0,0,-1,1357,1821,5.65645,-62.5391
140,-797,5.28455,62.5875,0,0,0,0,0,0,0,-1,1364,1821,5.2846,-62.5875
147,-797,5.13147,62.8438,0,0,0,0,0,0,0,-1,1371,1821,5.13144,-62.8437
154,-797,40.2623,8.88733,0,0,0,0,0,0,0,-1,1378,1821,40.2623,-8.88731
161,-797,42.2798,8.17371,0,0,0,0,0,0,0,-1,1385,1821,42.2798,-8.17367
168,-797,0,0,0,0,0,0,0,0,0,-1,1392,1821,0,0
175,-797,0,0,0,0,0,0,0,0,0,-1,1399,1821,0,0
182,-797,0,0,0,0,0,0,0,0,0,-1,1406,1821,0,0
189,-797,0,0,0,0,0,0,0,0,0,-1,1413,1821,0,0
196,-797,0,0,0,0,0,0,0,0,0,-1,1420,1821,0,0
203,-797,0,0,0,0,0,0,0,0,0,-1,1427,1821,0,0
210,-797,0,0,0,0,0,0,0,0,0,-1,1434,1821,0,0
217,-797,0,0,0,0,0,0,0,0,0,-1,1441,1821,0,0
224,-797,0,0,0,0,0,0,0,0,0,-1,1448,1821,0,0
231,-797,0,0,0,0,0,0,0,0,0,-1,1455,1821,0,0
238,-797,0,0,0,0,0,0,0,0,0,-1,1462,1821,0,0
245,-797,0,0,0,0,0,0,0,0,0,-1,1469,1821,0,0
252,-797,0,0,0,0,0,0,0,0,0,-1,1476,1821,0,0
259,-797,0,0,0,0,0,0,0,0,0,-1,1483,1821,0,0
266,-797,0,0,0,0,0,0,0,0,0,-1,1490,1821,0,0
273,-797,0,0,0,0,0,0,0,0,0,-1,1497,1821,0,0
280,-797,0,0,0,0,0,0,0,0,0,-1,1504,1821,0,0
287,-797,0,0,0,0,0,0,0,0,0,-1,1511,1821,0,0
294,-797,0,0,0,0,0,0,0,0,0,-1,1518,1821,0,0
301,-797,0,0,0,0,0,0,0,0,0,-1,1525,1821,0,0
308,-797,0,0,0,0,0,0,0,0,0,-1,1532,1821,0,0
315,-797,0,0,0,0,0,0,0,0,0,-1,1539,1821,0,0
322,-797,0,0,0,0,0,0,0,0,0,-1,1546,1821,0,0
329,-797,0,0,0,0,0,0,0,0,0,-1,1553,1821,0,0
336,-797,0,0,0,0,0,0,0,0,0,-1,1560,1821,0,0
343,-797,0,0,0,0,0,0,0,0,0,-1,1567,1821,0,0
350,-797,0,0,0,0,0,0,0,0,0,-1,1574,1821,0,0
357,-797,0,0,0,0,0,0,0,0,0,-1,1581,1821,0,0
364,-797,0,0,0,0,0,0,0,0,0,-1,1588,1821,0,0
371,-797,0,0,0,0,0,0,0,0,0,-1,1595,1821,0,0
378,-797,0,0,0,0,0,0,0,0,0,-1,1602,1821,0,0
385,-797,0,0,0,0,0,0,0,0,0,-1,1609,1821,0,0
392,-797,0,0,0,0,0,0,0,0,0,-1,1616,1821,0,0
399,-797,0,0,0,0,0,0,0,0,0,-1,1623,1821,0,0
406,-797,0,0,0,0,0,0,0,0,0,-1,1630,1821,0,0
413,-797,0,0,0,0,0,0,0,0,0,-1,1637,1821,0,0
420,-797,0,0,0,0,0,0,0,0,0,-1,1644,1821,0,0
427,-797,0,0,0,0,0,0,0,0,0,-1,1651,1821,0,0
434,-797,0,0,0,0,0,0,0,0,0,-1,1658,1821,0,0
441,-797,0,0,0,0,0,0,0,0,0,-1,1665,1821,0,0
448,-797,0,0,0,0,0,0,0,0,0,-1,1672,1821,0,0
455,-797,0,0,0,0,0,0,0,0,0,-1,1679,1821,0,0
462,-797,0,0,0,0,0,0,0,0,0,-1,1686,1821,0,0
469,-797,0,0,0,0,0,0,0,0,0,-1,1693,1821,0,0
476,-797,0,0,0,0,0,0,0,0,0,-1,1700,1821,0,0
483,-797,0,0,0,0,0,0,0,0,0,-1,1707,1821,0,0
490,-797,0,0,0,0,0,0,0,0,0,-1,1714,1821,0,0
497,-797,0,0,0,0,0,0,0,0,0,-1,1721,1821,0,0
504,-797,0,0,0,0,0,0,0,0,0,-1,1728,1821,0,0
511,-797,0,0,0,0,0,0,0,0,0,-1,1735,1821,0,0
518,-797,0,0,0,0,0,0,0,0,0,-1,1742,1821,0,0
525,-797,0,0,0,0,0,0,0,0,0,-1,1749,1821,0,0
532,-797,0,0,0,0,0,0,0,0,0,-1,1756,1821,0,0
539,-797,0,0,0,0,0,0,0,0,0,-1,1763,1821,0,0
546,-797,0,0,0,0,0,0,0,0,0,-1,1770,1821,0,0
553,-797,0,0,0,0,0,0,0,0,0,-1,1777,1821,0,0
560,-797,0,0,0,0,0,0,0,0,0,-1,1784,1821,0,0
567,-797,0,0,0,0,0,0,0,0,0,-1,1791,1821,0,0
574,-797,0,0,0,0,0,0,0,0,0,-1,1798,1821,0,0
581,-797,0,0,0,0,0,0,0,0,0,-1,1805,1821,0,0
588,-797,0,0,0,0,0,0,0,0,0,-1,1812,1821,0,0
595,-797,0,0,0,0,0,0,0,0,0,-1,1819,1821,0,0
602,-797,0,0,0,0,0,0,0,0,0,-1,1826,1821,0,0
609,-797,0,0,0,0,0,0,0,0,0,-1,1833,1821,0,0
616,-797,0,0,0,0,0,0,0,0,0,-1,1840,1821,0,0
623,-797,0,0,0,0,0,0,0,0,0,-1,1847,1821,0,0
630,-797,0,0,0,0,0,0,0,0,0,-1,1854,1821,0,0
637,-797,0,0,0,0,0,0,0,0,0,-1,1861,1821,0,0
644,-797,0,0,0,0,0,0,0,0,0,-1,1868,1821,0,0
651,-797,0,0,0,0,0,0,0,0,0,-1,1875,1821,0,0
658,-797,0,0,0,0,0,0,0,0,0,-1,1882,1821,0,0
665,-797,0,0,0,0,0,0,0,0,0,-1,1889,1821,0,0
672,-797,0,0,0,0,0,0,0,0,0,-1,1896,1821,0,0
679,-797,0,0,0,0,0,0,0,0,0,-1,1903,1821,0,0
686,-797,0,0,0,0,0,0,0,0,0,-1,1910,1821,0,0
693,-797,0,0,0,0,0,0,0,0,0,-1,1917,1821,0,0
700,-797,0,0,0,0,0,0,0,0,0,-1,1924,1821,0,0
707,-797,0,0,0,0,0,0,0,0,0,-1,1931,1821,0,0
714,-797,0,0,0,0,0,0,0,0,0,-1,1938,1821,0,0
721,-797,0,0,0,0,0,0,0,0,0,-1,1945,1821,0,0
728,-797,0,0,0,0,0,0,0,0,0,-1,1952,1821,0,0
735,-797,0,0,0,0,0,0,0,0,0,-1,1959,1821,0,0
742,-797,0,0,0,0,0,0,0,0,0,-1,1966,1821,0,0
749,-797,0,0,0,0,0,0,0,0,0,-1,1973,1821,0,0
756,-797,0,0,0,0,0,0,0,0,0,-1,1980,1821,0,0
763,-797,0,0,0,0,0,0,0,0,0,-1,1987,1821,0,0
770,-797,0,0,0,0,0,0,0,0,0,-1,1994,1821,0,0
777,-797,0,0,0,0,0,0,0,0,0,-1,2001,1821,0,0
784,-797,0,0,0,0,0,0,0,0,0,-1,2008,1821,0,0
791,-797,0,0,0,0,0,0,0,0,0,-1,2015,1821,0,0
798,-797,0,0,0,0,0,0,0,0,0,-1,2022,1821,0,0
805,-797,0,0,0,0,0,0,0,0,0,-1,2029,1821,0,0
812,-797,0,0,0,0,0,0,0,0,0,-1,2036,1821,0,0
-700,-804,0,0,0,0,0,0,0,0,0,-1,524,1828,0,0
-693,-804,0,0,0,0,0,0,0,0,0,-1,531,1828,0,0
-686,-804,0,0,0,0,0,0,0,0,0,-1,538,1828,0,0
-679,-804,0,0,0,0,0,0,0,0,0,-1,545,1828,0,0
-672,-804,0,0,0,0,0,0,0,0,0,-1,552,1828,0,0
-665,-804,0,0,0,0,0,0,0,0,0,-1,559,1828,0,0
-658,-804,0,0,0,0,0,0,0,0,0,-1,566,1828,0,0
-651,-804,0,0,0,0,0,0,0,0,0,-1,573,1828,0,0
-644,-804,0,0,0,0,0,0,0,0,0,-1,580,1828,0,0
-637,-804,0,0,0,0,0,0,0,0,0,-1,587,1828,0,0
-630,-804,0,0,0,0,0,0,0,0,0,-1,594,1828,0,0
-623,-804,0,0,0,0,0,0,0,0,0,-1,601,1828,0,0
-616,-804,0,0,0,0,0,0,0,0,0,-1,608,1828,0,0
-609,-804,0,0,0,0,0,0,0,0,0,-1,615,1828,0,0
-602,-804,0,0,0,0,0,0,0,0,0,-1,622,1828,0,0
-595,-804,0,0,0,0,0,0,0,0,0,-1,629,1828,0,0
-588,-804,0,0,0,0,0,0,0,0,0,-1,636,1828,0,0
-581,-804,0,0,0,0,0,0,0,0,0,-1,643,1828,0,0
-574,-804,0,0,0,0,0,0,0,0,0,-1,650,1828,0,0
-567,-804,0,0,0,0,0,0,0,0,0,-1,657,1828,0,0
-560,-804,0,0,0,0,0,0,0,0,0,-1,664,1828,0,0
-553,-804,0,0,0,0,0,0,0,0,0,-1,671,1828,0,0
-546,-804,0,0,0,0,0,0,0,0,0,-1,678,1828,0,0
-539,-804,0,0,0,0,0,0,0,0,0,-1,685,1828,0,0
-532,-804,0,0,0,0,0,0,0,0,0,-1,692,1828,0,0
-525,-804,0,0,0,0,0,0,0,0,0,-1,699,1828,0,0
-518,-804,0,0,0,0,0,0,0,0,0,-1,706,1828,0,0
-511,-804,0,0,0,0,0,0,0,0,0,-1,713,1828,0,0
-504,-804,0,0,0,0,0,0,0,0,0,-1,720,1828,0,0
-497,-804,0,0,0,0,0,0,0,0,0,-1,727,1828,0,0
-490,-804,0,0,0,0,0,0,0,0,0,-1,734,1828,0,0
-483,-804,0,0,0,0,0,0,0,0,0,-1,741,1828,0,0
-476,-804,0,0,0,0,0,0,0,0,0,-1,748,1828,0,0
-469,-804,0,0,0,0,0,0,0,0,0,-1,755,1828,0,0
-462,-804,0,0,0,0,0,0,0,0,0,-1,762,1828,0,0
-455,-804,0,0,0,0,0,0,0,0,0,-1,769,1828,0,0
-448,-804,0,0,0,0,0,0,0,0,0,-1,776,1828,0,0
-441,-804,0,0,0,0,0,0,0,0,0,-1,783,1828,0,0
-434,-804,0,0,0,0,0,0,0,0,0,-1,790,1828,0,0
-427,-804,0,0,0,0,0,0,0,0,0,-1,797,1828,0,0
-420,-804,0,0,0,0,0,0,0,0,0,-1,804,1828,0,0
-413,-804,0,0,0,0,0,0,0,0,0,-1,811,1828,0,0
-406,-804,0,0,0,0,0,0,0,0,0,-1,818,1828,0,0
-399,-804,0,0,0,0,0,0,0,0,0,-1,825,1828,0,0
-392,-804,0,0,0,0,0,0,0,0,0,-1,832,1828,0,0
-385,-804,0,0,0,0,0,0,0,0,0,-1,839,1828,0,0
-378,-804,0,0,0,0,0,0,0,0,0,-1,846,1828,0,0
-371,-804,0,0,0,0,0,0,0,0,0,-1,853,1828,0,0
-364,-804,0,0,0,0,0,0,0,0,0,-1,860,1828,0,0
-357,-804,0,0,0,0,0,0,0,0,0,-1,867,1828,0,0
-350,-804,0,0,0,0,0,0,0,0,0,-1,874,1828,0,0
-343,-804,0,0,0,0,0,0,0,0,0,-1,881,1828,0,0
-336,-804,0,0,0,0,0,0,0,0,0,-1,888,1828,0,0
-329,-804,0,0,0,0,0,0,0,0,0,-1,895,1828,0,0
-322,-804,0,0,0,0,0,0,0,0,0,-1,902,1828,0,0
-315,-804,0,0,0,0,0,0,0,0,0,-1,909,1828,0,0
-308,-804,0,0,0,0,0,0,0,0,0,-1,916,1828,0,0
-301,-804,0,0,0,0,0,0,0,0,0,-1,923,1828,0,0
-294,-804,0,0,0,0,0,0,0,0,0,-1,930,1828,0,0
-287,-804,0,0,0,0,0,0,0,0,0,-1,937,1828,0,0
-280,-804,0,0,0,0,0,0,0,0,0,-1,944,1828,0,0
-273,-804,0,0,0,0,0,0,0,0,0,-1,951,1828,0,0
-266,-804,0,0,0,0,0,0,0,0,0,-1,958,1828,0,0
-259,-804,0,0,0,0,0,0,0,0,0,-1,965,1828,0,0
-252,-804,0,0,0,0,0,0,0,0,0,-1,972,1828,0,0
-245,-804,0,0,0,0,0,0,0,0,0,-1,979,1828,0,0
-238,-804,0,0,0,0,0,0,0,0,0,-1,986,1828,0,0
-231,-804,0,0,0,0,0,0,0,0,0,-1,993,1828,0,0
-224,-804,0,0,0,0,0,0,0,0,0,-1,1000,1828,0,0
-217,-804,0,0,0,0,0,0,0,0,0,-1,1007,1828,0,0
-210,-804,0,0,0,0,0,0,0,0,0,-1,1014,1828,0,0
-203,-804,0,0,0,0,0,0,0,0,0,-1,1021,1828,0,0
-196,-804,0,0,0,0,0,0,0,0,0,-1,1028,1828,0,0
-189,-804,0,0,0,0,0,0,0,0,0,-1,1035,1828,0,0
-182,-804,0,0,0,0,0,0,0,0,0,-1,1042,1828,0,0
-175,-804,0,0,0,0,0,0,0,0,0,-1,1049,1828,0,0
-168,-804,0,0,0,0,0,0,0,0,0,-1,1056,1828,0,0
-161,-804,0,0,0,0,0,0,0,0,0,-1,1063,1828,0,0
-154,-804,0,0,0,0,0,0,0,0,0,-1,1070,1828,0,0
-147,-804,0,0,0,0,0,0,0,0,0,-1,1077,1828,0,0
-140,-804,0,0,0,0,0,0,0,0,0,-1,1084,1828,0,0
-133,-804,0,0,0,0,0,0,0,0,0,-1,1091,1828,0,0
-126,-804,0,0,0,0,0,0,0,0,0,-1,1098,1828,0,0
-119,-804,0,0,0,0,0,0,0,0,0,-1,1105,1828,0,0
-112,-804,0,0,0,0,0,0,0,0,0,-1,1112,1828,0,0
-105,-804,0,0,0,0,0,0,0,0,0,-1,1119,1828,0,0
-98,-804,0,0,0,0,0,0,0,0,0,-1,1126,1828,0,0
-91,-804,0,0,0,0,0,0,0,0,0,-1,1133,1828,0,0
-84,-804,0,0,0,0,0,0,0,0,0,-1,1140,1828,0,0
-77,-804,0,0,0,0,0,0,0,0,0,-1,1147,1828,0,0
-70,-804,0,0,0,0,0,0,0,0,0,-1,1154,1828,0,0
-63,-804,0,0,0,0,0,0,0,0,0,-1,1161,1828,0,0
-56,-804,0,0,0,0,0,0,0,0,0,-1,1168,1828,0,0
-49,-804,0,0,0,0,0,0,0,0,0,-1,1175,1828,0,0
-42,-804,0,0,0,0,0,0,0,0,0,-1,1182,1828,0,0
-35,-804,0,0,0,0,0,0,0,0,0,-1,1189,1828,0,0
-28,-804,0,0,0,0,0,0,0,0,0,-1,1196,1828,0,0
-21,-804,0,0,0,0,0,0,0,0,0,-1,1203,1828,0,0
-14,-804,0,0,0,0,0,0,0,0,0,-1,1210,1828,0,0
-7,-804,0,0,0,0,0,0,0,0,0,-1,1217,1828,0,0
0,-804,0,0,0,0,0,0,0,0,0,-1,1224,1828,0,0
7,-804,0,0,0,0,0,0,0,0,0,-1,1231,1828,0,0
14,-804,0,0,0,0,0,0,0,0,0,-1,1238,1828,0,0
21,-804,0,0,0,0,0,0,0,0,0,-1,1245,1828,0,0
28,-804,0,0,0,0,0,0,0,0,0,-1,1252,1828,0,0
35,-804,9.42871,60.827,0,0,0,0,0,0,0,-1,1259,1828,9.42871,-60.8271
42,-804,11.1519,60.8274,0,0,0,0,0,0,0,-1,1266,1828,11.1519,-60.8273
49,-804,11.2509,60.5688,0.0290907,0.0149365,-0.0614681,0.0838878,-0.0398606,-0.728083,0.0729379,0.0469598,1273,1828,11.2509,-60.5688
56,-804,11.0944,60.1359,0.0165358,0.0225561,-0.057226,0.0768511,-0.0377592,-0.811675,0.0674411,0.0465795,1280,1828,11.0944,-60.1359
63,-804,10.5828,60.2744,0.00266214,0.0371099,-0.0546826,0.0772171,-0.037445,-0.937969,0.0675146,0.0459271,1287,1828,10.5827,-60.2744
70,-804,11.01,59.9713,0,0,0,0,0,0,0,-1,1294,1828,11.01,-59.9713
77,-804,10.6676,59.0701,0,0,0,0,0,0,0,-1,1301,1828,10.6676,-59.07
84,-804,10.342,58.8302,0,0,0,0,0,0,0,-1,1308,1828,10.342,-58.8302
91,-804,0,0,0,0,0,0,0,0,0,-1,1315,1828,0,0
98,-804,0,0,0,0,0,0,0,0,0,-1,1322,1828,0,0
105,-804,0,0,0,0,0,0,0,0,0,-1,1329,1828,0,0
112,-804,0,0,0,0,0,0,0,0,0,-1,1336,1828,0,0
119,-804,0,0,0,0,0,0,0,0,0,-1,1343,1828,0,0
126,-804,0,0,0,0,0,0,0,0,0,-1,1350,1828,0,0
133,-804,0,0,0,0,0,0,0,0,0,-1,1357,1828,0,0
140,-804,0,0,0,0,0,0,0,0,0,-1,1364,1828,0,0
147,-804,0,0,0,0,0,0,0,0,0,-1,1371,1828,0,0
154,-804,0,0,0,0,0,0,0,0,0,-1,1378,1828,0,0
161,-804,0,0,0,0,0,0,0,0,0,-1,1385,1828,0,0
168,-804,0,0,0,0,0,0,0,0,0,-1,1392,1828,0,0
175,-804,0,0,0,0,0,0,0,0,0,-1,1399,1828,0,0
182,-804,0,0,0,0,0,0,0,0,0,-1,1406,1828,0,0
189,-804,0,0,0,0,0,0,0,0,0,-1,1413,1828,0,0
196,-804,0,0,0,0,0,0,0,0,0,-1,1420,1828,0,0
203,-804,0,0,0,0,0,0,0,0,0,-1,1427,1828,0,0
210,-804,0,0,0,0,0,0,0,0,0,-1,1434,1828,0,0
217,-804,0,0,0,0,0,0,0,0,0,-1,1441,1828,0,0
224,-804,0,0,0,0,0,0,0,0,0,-1,1448,1828,0,0
231,-804,0,0,0,0,0,0,0,0,0,-1,1455,1828,0,0
238,-804,0,0,0,0,0,0,0,0,0,-1,1462,1828,0,0
245,-804,0,0,0,0,0,0,0,0,0,-1,1469,1828,0,0
252,-804,0,0,0,0,0,0,0,0,0,-1,1476,1828,0,0
259,-804,0,0,0,0,0,0,0,0,0,-1,1483,1828,0,0
266,-804,0,0,0,0,0,0,0,0,0,-1,1490,1828,0,0
273,-804,0,0,0,0,0,0,0,0,0,-1,1497,1828,0,0
280,-804,0,0,0,0,0,0,0,0,0,-1,1504,1828,0,0
287,-804,0,0,0,0,0,0,0,0,0,-1,1511,1828,0,0
294,-804,0,0,0,0,0,0,0,0,0,-1,1518,1828,0,0
301,-804,0,0,0,0,0,0,0,0,0,-1,1525,1828,0,0
308,-804,0,0,0,0,0,0,0,0,0,-1,1532,1828,0,0
315,-804,0,0,0,0,0,0,0,0,0,-1,1539,1828,0,0
322,-804,0,0,0,0,0,0,0,0,0,-1,1546,1828,0,0
329,-804,0,0,0,0,0,0,0,0,0,-1,1553,1828,0,0
336,-804,0,0,0,0,0,0,0,0,0,-1,1560,1828,0,0
343,-804,0,0,0,0,0,0,0,0,0,-1,1567,1828,0,0
350,-804,0,0,0,0,0,0,0,0,0,-1,1574,1828,0,0
357,-804,0,0,0,0,0,0,0,0,0,-1,1581,1828,0,0
364,-804,0,0,0,0,0,0,0,0,0,-1,1588,1828,0,0
371,-804,0,0,0,0,0,0,0,0,0,-1,1595,1828,0,0
378,-804,0,0,0,0,0,0,0,0,0,-1,1602,1828,0,0
385,-804,0,0,0,0,0,0,0,0,0,-1,1609,1828,0,0
392,-804,0,0,0,0,0,0,0,0,0,-1,1616,1828,0,0
399,-804,0,0,0,0,0,0,0,0,0,-1,1623,1828,0,0
406,-804,0,0,0,0,0,0,0,0,0,-1,1630,1828,0,0
413,-804,0,0,0,0,0,0,0,0,0,-1,1637,1828,0,0
420,-804,0,0,0,0,0,0,0,0,0,-1,1644,1828,0,0
427,-804,0,0,0,0,0,0,0,0,0,-1,1651,1828,0,0
434,-804,0,0,0,0,0,0,0,0,0,-1,1658,1828,0,0
441,-804,0,0,0,0,0,0,0,0,0,-1,1665,1828,0,0
448,-804,0,0,0,0,0,0,0,0,0,-1,1672,1828,0,0
455,-804,0,0,0,0,0,0,0,0,0,-1,1679,1828,0,0
462,-804,0,0,0,0,0,0,0,0,0,-1,1686,1828,0,0
469,-804,0,0,0,0,0,0,0,0,0,-1,1693,1828,0,0
476,-804,0,0,0,0,0,0,0,0,0,-1,1700,1828,0,0
483,-804,0,0,0,0,0,0,0,0,0,-1,1707,1828,0,0
490,-804,0,0,0,0,0,0,0,0,0,-1,1714,1828,0,0
497,-804,0,0,0,0,0,0,0,0,0,-1,1721,1828,0,0
504,-804,0,0,0,0,0,0,0,0,0,-1,1728,1828,0,0
511,-804,0,0,0,0,0,0,0,0,0,-1,1735,1828,0,0
518,-804,0,0,0,0,0,0,0,0,0,-1,1742,1828,0,0
525,-804,0,0,0,0,0,0,0,0,0,-1,1749,1828,0,0
532,-804,0,0,0,0,0,0,0,0,0,-1,1756,1828,0,0
539,-804,0,0,0,0,0,0,0,0,0,-1,1763,1828,0,0
546,-804,0,0,0,0,0,0,0,0,0,-1,1770,1828,0,0
553,-804,0,0,0,0,0,0,0,0,0,-1,1777,1828,0,0
560,-804,0,0,0,0,0,0,0,0,0,-1,1784,1828,0,0
567,-804,0,0,0,0,0,0,0,0,0,-1,1791,1828,0,0
574,-804,0,0,0,0,0,0,0,0,0,-1,1798,1828,0,0
581,-804,0,0,0,0,0,0,0,0,0,-1,1805,1828,0,0
588,-804,0,0,0,0,0,0,0,0,0,-1,1812,1828,0,0
595,-804,0,0,0,0,0,0,0,0,0,-1,1819,1828,0,0
602,-804,0,0,0,0,0,0,0,0,0,-1,1826,1828,0,0
609,-804,0,0,0,0,0,0,0,0,0,-1,1833,1828,0,0
616,-804,0,0,0,0,0,0,0,0,0,-1,1840,1828,0,0
623,-804,0,0,0,0,0,0,0,0,0,-1,1847,1828,0,0
630,-804,0,0,0,0,0,0,0,0,0,-1,1854,1828,0,0
637,-804,0,0,0,0,0,0,0,0,0,-1,1861,1828,0,0
644,-804,0,0,0,0,0,0,0,0,0,-1,1868,1828,0,0
651,-804,0,0,0,0,0,0,0,0,0,-1,1875,1828,0,0
658,-804,0,0,0,0,0,0,0,0,0,-1,1882,1828,0,0
665,-804,0,0,0,0,0,0,0,0,0,-1,1889,1828,0,0
672,-804,0,0,0,0,0,0,0,0,0,-1,1896,1828,0,0
679,-804,0,0,0,0,0,0,0,0,0,-1,1903,1828,0,0
686,-804,0,0,0,0,0,0,0,0,0,-1,1910,1828,0,0
693,-804,0,0,0,0,0,0,0,0,0,-1,1917,1828,0,0
700,-804,0,0,0,0,0,0,0,0,0,-1,1924,1828,0,0
707,-804,0,0,0,0,0,0,0,0,0,-1,1931,1828,0,0
714,-804,0,0,0,0,0,0,0,0,0,-1,1938,1828,0,0
721,-804,0,0,0,0,0,0,0,0,0,-1,1945,1828,0,0
728,-804,0,0,0,0,0,0,0,0,0,-1,1952,1828,0,0
735,-804,0,0,0,0,0,0,0,0,0,-1,1959,1828,0,0
742,-804,0,0,0,0,0,0,0,0,0,-1,1966,1828,0,0
749,-804,0,0,0,0,0,0,0,0,0,-1,1973,1828,0,0
756,-804,0,0,0,0,0,0,0,0,0,-1,1980,1828,0,0
763,-804,0,0,0,0,0,0,0,0,0,-1,1987,1828,0,0
770,-804,0,0,0,0,0,0,0,0,0,-1,1994,1828,0,0
777,-804,0,0,0,0,0,0,0,0,0,-1,2001,1828,0,0
784,-804,0,0,0,0,0,0,0,0,0,-1,2008,1828,0,0
791,-804,0,0,0,0,0,0,0,0,0,-1,2015,1828,0,0
798,-804,0,0,0,0,0,0,0,0,0,-1,2022,1828,0,0
805,-804,0,0,0,0,0,0,0,0,0,-1,2029,1828,0,0
812,-804,0,0,0,0,0,0,0,0,0,-1,2036,1828,0,0

