 "x_c",  "y_c",  "u_c",  "v_c",  "exx",  "eyy",  "exy",  "e1",  "e2",  "gamma",  "e_vonmises",  "sigma",  "x",  "y",  "u",  "v"
-700,715,0,0,0,0,0,0,0,0,0,-1,524,309,0,0
-693,715,0,0,0,0,0,0,0,0,0,-1,531,309,0,0
-686,715,0,0,0,0,0,0,0,0,0,-1,538,309,0,0
-679,715,0,0,0,0,0,0,0,0,0,-1,545,309,0,0
-672,715,0,0,0,0,0,0,0,0,0,-1,552,309,0,0
-665,715,0,0,0,0,0,0,0,0,0,-1,559,309,0,0
-658,715,0,0,0,0,0,0,0,0,0,-1,566,309,0,0
-651,715,0,0,0,0,0,0,0,0,0,-1,573,309,0,0
-644,715,0,0,0,0,0,0,0,0,0,-1,580,309,0,0
-637,715,0,0,0,0,0,0,0,0,0,-1,587,309,0,0
-630,715,0,0,0,0,0,0,0,0,0,-1,594,309,0,0
-623,715,0,0,0,0,0,0,0,0,0,-1,601,309,0,0
-616,715,0,0,0,0,0,0,0,0,0,-1,608,309,0,0
-609,715,0,0,0,0,0,0,0,0,0,-1,615,309,0,0
-602,715,0,0,0,0,0,0,0,0,0,-1,622,309,0,0
-595,715,0,0,0,0,0,0,0,0,0,-1,629,309,0,0
-588,715,0,0,0,0,0,0,0,0,0,-1,636,309,0,0
-581,715,0,0,0,0,0,0,0,0,0,-1,643,309,0,0
-574,715,0,0,0,0,0,0,0,0,0,-1,650,309,0,0
-567,715,0,0,0,0,0,0,0,0,0,-1,657,309,0,0
-560,715,0,0,0,0,0,0,0,0,0,-1,664,309,0,0
-553,715,0,0,0,0,0,0,0,0,0,-1,671,309,0,0
-546,715,0,0,0,0,0,0,0,0,0,-1,678,309,0,0
-539,715,0,0,0,0,0,0,0,0,0,-1,685,309,0,0
-532,715,0,0,0,0,0,0,0,0,0,-1,692,309,0,0
-525,715,0,0,0,0,0,0,0,0,0,-1,699,309,0,0
-518,715,0,0,0,0,0,0,0,0,0,-1,706,309,0,0
-511,715,0,0,0,0,0,0,0,0,0,-1,713,309,0,0
-504,715,0,0,0,0,0,0,0,0,0,-1,720,309,0,0
-497,715,0,0,0,0,0,0,0,0,0,-1,727,309,0,0
-490,715,0,0,0,0,0,0,0,0,0,-1,734,309,0,0
-483,715,0,0,0,0,0,0,0,0,0,-1,741,309,0,0
-476,715,0,0,0,0,0,0,0,0,0,-1,748,309,0,0
-469,715,0,0,0,0,0,0,0,0,0,-1,755,309,0,0
-462,715,0,0,0,0,0,0,0,0,0,-1,762,309,0,0
-455,715,0,0,0,0,0,0,0,0,0,-1,769,309,0,0
-448,715,0,0,0,0,0,0,0,0,0,-1,776,309,0,0
-441,715,0,0,0,0,0,0,0,0,0,-1,783,309,0,0
-434,715,0,0,0,0,0,0,0,0,0,-1,790,309,0,0
-427,715,0,0,0,0,0,0,0,0,0,-1,797,309,0,0
-420,715,0,0,0,0,0,0,0,0,0,-1,804,309,0,0
-413,715,0,0,0,0,0,0,0,0,0,-1,811,309,0,0
-406,715,0,0,0,0,0,0,0,0,0,-1,818,309,0,0
-399,715,0,0,0,0,0,0,0,0,0,-1,825,309,0,0
-392,715,0,0,0,0,0,0,0,0,0,-1,832,309,0,0
-385,715,0,0,0,0,0,0,0,0,0,-1,839,309,0,0
-378,715,0,0,0,0,0,0,0,0,0,-1,846,309,0,0
-371,715,0,0,0,0,0,0,0,0,0,-1,853,309,0,0
-364,715,0,0,0,0,0,0,0,0,0,-1,860,309,0,0
-357,715,0,0,0,0,0,0,0,0,0,-1,867,309,0,0
-350,715,0,0,0,0,0,0,0,0,0,-1,874,309,0,0
-343,715,0,0,0,0,0,0,0,0,0,-1,881,309,0,0
-336,715,0,0,0,0,0,0,0,0,0,-1,888,309,0,0
-329,715,0,0,0,0,0,0,0,0,0,-1,895,309,0,0
-322,715,0,0,0,0,0,0,0,0,0,-1,902,309,0,0
-315,715,0,0,0,0,0,0,0,0,0,-1,909,309,0,0
-308,715,0,0,0,0,0,0,0,0,0,-1,916,309,0,0
-301,715,0,0,0,0,0,0,0,0,0,-1,923,309,0,0
-294,715,0,0,0,0,0,0,0,0,0,-1,930,309,0,0
-287,715,0,0,0,0,0,0,0,0,0,-1,937,309,0,0
-280,715,0,0,0,0,0,0,0,0,0,-1,944,309,0,0
-273,715,0,0,0,0,0,0,0,0,0,-1,951,309,0,0
-266,715,0,0,0,0,0,0,0,0,0,-1,958,309,0,0
-259,715,0,0,0,0,0,0,0,0,0,-1,965,309,0,0
-252,715,0,0,0,0,0,0,0,0,0,-1,972,309,0,0
-245,715,0,0,0,0,0,0,0,0,0,-1,979,309,0,0
-238,715,0,0,0,0,0,0,0,0,0,-1,986,309,0,0
-231,715,0,0,0,0,0,0,0,0,0,-1,993,309,0,0
-224,715,0,0,0,0,0,0,0,0,0,-1,1000,309,0,0
-217,715,0,0,0,0,0,0,0,0,0,-1,1007,309,0,0
-210,715,0,0,0,0,0,0,0,0,0,-1,1014,309,0,0
-203,715,0,0,0,0,0,0,0,0,0,-1,1021,309,0,0
-196,715,0,0,0,0,0,0,0,0,0,-1,1028,309,0,0
-189,715,0,0,0,0,0,0,0,0,0,-1,1035,309,0,0
-182,715,0,0,0,0,0,0,0,0,0,-1,1042,309,0,0
-175,715,0,0,0,0,0,0,0,0,0,-1,1049,309,0,0
-168,715,0,0,0,0,0,0,0,0,0,-1,1056,309,0,0
-161,715,0,0,0,0,0,0,0,0,0,-1,1063,309,0,0
-154,715,0,0,0,0,0,0,0,0,0,-1,1070,309,0,0
-147,715,0,0,0,0,0,0,0,0,0,-1,1077,309,0,0
-140,715,0,0,0,0,0,0,0,0,0,-1,1084,309,0,0
-133,715,0,0,0,0,0,0,0,0,0,-1,1091,309,0,0
-126,715,0,0,0,0,0,0,0,0,0,-1,1098,309,0,0
-119,715,0,0,0,0,0,0,0,0,0,-1,1105,309,0,0
-112,715,0,0,0,0,0,0,0,0,0,-1,1112,309,0,0
-105,715,0,0,0,0,0,0,0,0,0,-1,1119,309,0,0
-98,715,0,0,0,0,0,0,0,0,0,-1,1126,309,0,0
-91,715,0,0,0,0,0,0,0,0,0,-1,1133,309,0,0
-84,715,0,0,0,0,0,0,0,0,0,-1,1140,309,0,0
-77,715,0,0,0,0,0,0,0,0,0,-1,1147,309,0,0
-70,715,0,0,0,0,0,0,0,0,0,-1,1154,309,0,0
-63,715,0,0,0,0,0,0,0,0,0,-1,1161,309,0,0
-56,715,0,0,0,0,0,0,0,0,0,-1,1168,309,0,0
-49,715,0,0,0,0,0,0,0,0,0,-1,1175,309,0,0
-42,715,0,0,0,0,0,0,0,0,0,-1,1182,309,0,0
-35,715,0,0,0,0,0,0,0,0,0,-1,1189,309,0,0
-28,715,0,0,0,0,0,0,0,0,0,-1,1196,309,0,0
-21,715,0,0,0,0,0,0,0,0,0,-1,1203,309,0,0
-14,715,0,0,0,0,0,0,0,0,0,-1,1210,309,0,0
-7,715,0,0,0,0,0,0,0,0,0,-1,1217,309,0,0
0,715,0,0,0,0,0,0,0,0,0,-1,1224,309,0,0
7,715,0,0,0,0,0,0,0,0,0,-1,1231,309,0,0
14,715,0,0,0,0,0,0,0,0,0,-1,1238,309,0,0
21,715,0,0,0,0,0,0,0,0,0,-1,1245,309,0,0
28,715,0,0,0,0,0,0,0,0,0,-1,1252,309,0,0
35,715,0,0,0,0,0,0,0,0,0,-1,1259,309,0,0
42,715,0,0,0,0,0,0,0,0,0,-1,1266,309,0,0
49,715,0,0,0,0,0,0,0,0,0,-1,1273,309,0,0
56,715,0,0,0,0,0,0,0,0,0,-1,1280,309,0,0
63,715,1.16052,-10.1803,0.0966045,-0.0295733,-0.0774191,0.133385,-0.066354,-0.443518,0.117464,0.0466827,1287,309,1.16048,10.1803
70,715,2.54285,-9.58249,0,0,0,0,0,0,0,-1,1294,309,2.54281,9.5825
77,715,0,0,0,0,0,0,0,0,0,-1,1301,309,0,0
84,715,0,0,0,0,0,0,0,0,0,-1,1308,309,0,0
91,715,0,0,0,0,0,0,0,0,0,-1,1315,309,0,0
98,715,0,0,0,0,0,0,0,0,0,-1,1322,309,0,0
105,715,0,0,0,0,0,0,0,0,0,-1,1329,309,0,0
112,715,0,0,0,0,0,0,0,0,0,-1,1336,309,0,0
119,715,0,0,0,0,0,0,0,0,0,-1,1343,309,0,0
126,715,0,0,0,0,0,0,0,0,0,-1,1350,309,0,0
133,715,0,0,0,0,0,0,0,0,0,-1,1357,309,0,0
140,715,0,0,0,0,0,0,0,0,0,-1,1364,309,0,0
147,715,0,0,0,0,0,0,0,0,0,-1,1371,309,0,0
154,715,0,0,0,0,0,0,0,0,0,-1,1378,309,0,0
161,715,0,0,0,0,0,0,0,0,0,-1,1385,309,0,0
168,715,0,0,0,0,0,0,0,0,0,-1,1392,309,0,0
175,715,0,0,0,0,0,0,0,0,0,-1,1399,309,0,0
182,715,0,0,0,0,0,0,0,0,0,-1,1406,309,0,0
189,715,0,0,0,0,0,0,0,0,0,-1,1413,309,0,0
196,715,0,0,0,0,0,0,0,0,0,-1,1420,309,0,0
203,715,0,0,0,0,0,0,0,0,0,-1,1427,309,0,0
210,715,0,0,0,0,0,0,0,0,0,-1,1434,309,0,0
217,715,0,0,0,0,0,0,0,0,0,-1,1441,309,0,0
224,715,0,0,0,0,0,0,0,0,0,-1,1448,309,0,0
231,715,0,0,0,0,0,0,0,0,0,-1,1455,309,0,0
238,715,0,0,0,0,0,0,0,0,0,-1,1462,309,0,0
245,715,0,0,0,0,0,0,0,0,0,-1,1469,309,0,0
252,715,0,0,0,0,0,0,0,0,0,-1,1476,309,0,0
259,715,0,0,0,0,0,0,0,0,0,-1,1483,309,0,0
266,715,0,0,0,0,0,0,0,0,0,-1,1490,309,0,0
273,715,0,0,0,0,0,0,0,0,0,-1,1497,309,0,0
280,715,0,0,0,0,0,0,0,0,0,-1,1504,309,0,0
287,715,0,0,0,0,0,0,0,0,0,-1,1511,309,0,0
294,715,0,0,0,0,0,0,0,0,0,-1,1518,309,0,0
301,715,0,0,0,0,0,0,0,0,0,-1,1525,309,0,0
308,715,0,0,0,0,0,0,0,0,0,-1,1532,309,0,0
315,715,0,0,0,0,0,0,0,0,0,-1,1539,309,0,0
322,715,0,0,0,0,0,0,0,0,0,-1,1546,309,0,0
329,715,0,0,0,0,0,0,0,0,0,-1,1553,309,0,0
336,715,0,0,0,0,0,0,0,0,0,-1,1560,309,0,0
343,715,0,0,0,0,0,0,0,0,0,-1,1567,309,0,0
350,715,0,0,0,0,0,0,0,0,0,-1,1574,309,0,0
357,715,0,0,0,0,0,0,0,0,0,-1,1581,309,0,0
364,715,0,0,0,0,0,0,0,0,0,-1,1588,309,0,0
371,715,0,0,0,0,0,0,0,0,0,-1,1595,309,0,0
378,715,0,0,0,0,0,0,0,0,0,-1,1602,309,0,0
385,715,0,0,0,0,0,0,0,0,0,-1,1609,309,0,0
392,715,0,0,0,0,0,0,0,0,0,-1,1616,309,0,0
399,715,0,0,0,0,0,0,0,0,0,-1,1623,309,0,0
406,715,0,0,0,0,0,0,0,0,0,-1,1630,309,0,0
413,715,0,0,0,0,0,0,0,0,0,-1,1637,309,0,0
420,715,0,0,0,0,0,0,0,0,0,-1,1644,309,0,0
427,715,0,0,0,0,0,0,0,0,0,-1,1651,309,0,0
434,715,0,0,0,0,0,0,0,0,0,-1,1658,309,0,0
441,715,0,0,0,0,0,0,0,0,0,-1,1665,309,0,0
448,715,0,0,0,0,0,0,0,0,0,-1,1672,309,0,0
455,715,0,0,0,0,0,0,0,0,0,-1,1679,309,0,0
462,715,0,0,0,0,0,0,0,0,0,-1,1686,309,0,0
469,715,0,0,0,0,0,0,0,0,0,-1,1693,309,0,0
476,715,0,0,0,0,0,0,0,0,0,-1,1700,309,0,0
483,715,0,0,0,0,0,0,0,0,0,-1,1707,309,0,0
490,715,0,0,0,0,0,0,0,0,0,-1,1714,309,0,0
497,715,0,0,0,0,0,0,0,0,0,-1,1721,309,0,0
504,715,0,0,0,0,0,0,0,0,0,-1,1728,309,0,0
511,715,0,0,0,0,0,0,0,0,0,-1,1735,309,0,0
518,715,0,0,0,0,0,0,0,0,0,-1,1742,309,0,0
525,715,0,0,0,0,0,0,0,0,0,-1,1749,309,0,0
532,715,0,0,0,0,0,0,0,0,0,-1,1756,309,0,0
539,715,0,0,0,0,0,0,0,0,0,-1,1763,309,0,0
546,715,0,0,0,0,0,0,0,0,0,-1,1770,309,0,0
553,715,0,0,0,0,0,0,0,0,0,-1,1777,309,0,0
560,715,0,0,0,0,0,0,0,0,0,-1,1784,309,0,0
567,715,0,0,0,0,0,0,0,0,0,-1,1791,309,0,0
574,715,0,0,0,0,0,0,0,0,0,-1,1798,309,0,0
581,715,0,0,0,0,0,0,0,0,0,-1,1805,309,0,0
588,715,0,0,0,0,0,0,0,0,0,-1,1812,309,0,0
595,715,0,0,0,0,0,0,0,0,0,-1,1819,309,0,0
602,715,0,0,0,0,0,0,0,0,0,-1,1826,309,0,0
609,715,0,0,0,0,0,0,0,0,0,-1,1833,309,0,0
616,715,0,0,0,0,0,0,0,0,0,-1,1840,309,0,0
623,715,0,0,0,0,0,0,0,0,0,-1,1847,309,0,0
630,715,0,0,0,0,0,0,0,0,0,-1,1854,309,0,0
637,715,0,0,0,0,0,0,0,0,0,-1,1861,309,0,0
644,715,0,0,0,0,0,0,0,0,0,-1,1868,309,0,0
651,715,0,0,0,0,0,0,0,0,0,-1,1875,309,0,0
658,715,0,0,0,0,0,0,0,0,0,-1,1882,309,0,0
665,715,0,0,0,0,0,0,0,0,0,-1,1889,309,0,0
672,715,0,0,0,0,0,0,0,0,0,-1,1896,309,0,0
679,715,0,0,0,0,0,0,0,0,0,-1,1903,309,0,0
686,715,0,0,0,0,0,0,0,0,0,-1,1910,309,0,0
693,715,0,0,0,0,0,0,0,0,0,-1,1917,309,0,0
700,715,0,0,0,0,0,0,0,0,0,-1,1924,309,0,0
707,715,0,0,0,0,0,0,0,0,0,-1,1931,309,0,0
714,715,0,0,0,0,0,0,0,0,0,-1,1938,309,0,0
721,715,0,0,0,0,0,0,0,0,0,-1,1945,309,0,0
728,715,0,0,0,0,0,0,0,0,0,-1,1952,309,0,0
735,715,0,0,0,0,0,0,0,0,0,-1,1959,309,0,0
742,715,0,0,0,0,0,0,0,0,0,-1,1966,309,0,0
749,715,0,0,0,0,0,0,0,0,0,-1,1973,309,0,0
756,715,0,0,0,0,0,0,0,0,0,-1,1980,309,0,0
763,715,0,0,0,0,0,0,0,0,0,-1,1987,309,0,0
770,715,0,0,0,0,0,0,0,0,0,-1,1994,309,0,0
777,715,0,0,0,0,0,0,0,0,0,-1,2001,309,0,0
784,715,0,0,0,0,0,0,0,0,0,-1,2008,309,0,0
791,715,0,0,0,0,0,0,0,0,0,-1,2015,309,0,0
798,715,0,0,0,0,0,0,0,0,0,-1,2022,309,0,0
805,715,0,0,0,0,0,0,0,0,0,-1,2029,309,0,0
812,715,0,0,0,0,0,0,0,0,0,-1,2036,309,0,0
-700,708,0,0,0,0,0,0,0,0,0,-1,524,316,0,0
-693,708,0,0,0,0,0,0,0,0,0,-1,531,316,0,0
-686,708,0,0,0,0,0,0,0,0,0,-1,538,316,0,0
-679,708,0,0,0,0,0,0,0,0,0,-1,545,316,0,0
-672,708,0,0,0,0,0,0,0,0,0,-1,552,316,0,0
-665,708,0,0,0,0,0,0,0,0,0,-1,559,316,0,0
-658,708,0,0,0,0,0,0,0,0,0,-1,566,316,0,0
-651,708,0,0,0,0,0,0,0,0,0,-1,573,316,0,0
-644,708,0,0,0,0,0,0,0,0,0,-1,580,316,0,0
-637,708,0,0,0,0,0,0,0,0,0,-1,587,316,0,0
-630,708,0,0,0,0,0,0,0,0,0,-1,594,316,0,0
-623,708,0,0,0,0,0,0,0,0,0,-1,601,316,0,0
-616,708,0,0,0,0,0,0,0,0,0,-1,608,316,0,0
-609,708,0,0,0,0,0,0,0,0,0,-1,615,316,0,0
-602,708,0,0,0,0,0,0,0,0,0,-1,622,316,0,0
-595,708,0,0,0,0,0,0,0,0,0,-1,629,316,0,0
-588,708,0,0,0,0,0,0,0,0,0,-1,636,316,0,0
-581,708,0,0,0,0,0,0,0,0,0,-1,643,316,0,0
-574,708,0,0,0,0,0,0,0,0,0,-1,650,316,0,0
-567,708,0,0,0,0,0,0,0,0,0,-1,657,316,0,0
-560,708,0,0,0,0,0,0,0,0,0,-1,664,316,0,0
-553,708,0,0,0,0,0,0,0,0,0,-1,671,316,0,0
-546,708,0,0,0,0,0,0,0,0,0,-1,678,316,0,0
-539,708,0,0,0,0,0,0,0,0,0,-1,685,316,0,0
-532,708,0,0,0,0,0,0,0,0,0,-1,692,316,0,0
-525,708,0,0,0,0,0,0,0,0,0,-1,699,316,0,0
-518,708,0,0,0,0,0,0,0,0,0,-1,706,316,0,0
-511,708,0,0,0,0,0,0,0,0,0,-1,713,316,0,0
-504,708,0,0,0,0,0,0,0,0,0,-1,720,316,0,0
-497,708,0,0,0,0,0,0,0,0,0,-1,727,316,0,0
-490,708,0,0,0,0,0,0,0,0,0,-1,734,316,0,0
-483,708,0,0,0,0,0,0,0,0,0,-1,741,316,0,0
-476,708,0,0,0,0,0,0,0,0,0,-1,748,316,0,0
-469,708,0,0,0,0,0,0,0,0,0,-1,755,316,0,0
-462,708,0,0,0,0,0,0,0,0,0,-1,762,316,0,0
-455,708,0,0,0,0,0,0,0,0,0,-1,769,316,0,0
-448,708,0,0,0,0,0,0,0,0,0,-1,776,316,0,0
-441,708,0,0,0,0,0,0,0,0,0,-1,783,316,0,0
-434,708,0,0,0,0,0,0,0,0,0,-1,790,316,0,0
-427,708,0,0,0,0,0,0,0,0,0,-1,797,316,0,0
-420,708,0,0,0,0,0,0,0,0,0,-1,804,316,0,0
-413,708,0,0,0,0,0,0,0,0,0,-1,811,316,0,0
-406,708,0,0,0,0,0,0,0,0,0,-1,818,316,0,0
-399,708,0,0,0,0,0,0,0,0,0,-1,825,316,0,0
-392,708,0,0,0,0,0,0,0,0,0,-1,832,316,0,0
-385,708,0,0,0,0,0,0,0,0,0,-1,839,316,0,0
-378,708,0,0,0,0,0,0,0,0,0,-1,846,316,0,0
-371,708,0,0,0,0,0,0,0,0,0,-1,853,316,0,0
-364,708,0,0,0,0,0,0,0,0,0,-1,860,316,0,0
-357,708,0,0,0,0,0,0,0,0,0,-1,867,316,0,0
-350,708,0,0,0,0,0,0,0,0,0,-1,874,316,0,0
-343,708,0,0,0,0,0,0,0,0,0,-1,881,316,0,0
-336,708,0,0,0,0,0,0,0,0,0,-1,888,316,0,0
-329,708,0,0,0,0,0,0,0,0,0,-1,895,316,0,0
-322,708,0,0,0,0,0,0,0,0,0,-1,902,316,0,0
-315,708,0,0,0,0,0,0,0,0,0,-1,909,316,0,0
-308,708,0,0,0,0,0,0,0,0,0,-1,916,316,0,0
-301,708,0,0,0,0,0,0,0,0,0,-1,923,316,0,0
-294,708,0,0,0,0,0,0,0,0,0,-1,930,316,0,0
-287,708,0,0,0,0,0,0,0,0,0,-1,937,316,0,0
-280,708,0,0,0,0,0,0,0,0,0,-1,944,316,0,0
-273,708,0,0,0,0,0,0,0,0,0,-1,951,316,0,0
-266,708,0,0,0,0,0,0,0,0,0,-1,958,316,0,0
-259,708,0,0,0,0,0,0,0,0,0,-1,965,316,0,0
-252,708,0,0,0,0,0,0,0,0,0,-1,972,316,0,0
-245,708,0,0,0,0,0,0,0,0,0,-1,979,316,0,0
-238,708,0,0,0,0,0,0,0,0,0,-1,986,316,0,0
-231,708,0,0,0,0,0,0,0,0,0,-1,993,316,0,0
-224,708,0,0,0,0,0,0,0,0,0,-1,1000,316,0,0
-217,708,0,0,0,0,0,0,0,0,0,-1,1007,316,0,0
-210,708,0,0,0,0,0,0,0,0,0,-1,1014,316,0,0
-203,708,0,0,0,0,0,0,0,0,0,-1,1021,316,0,0
-196,708,0,0,0,0,0,0,0,0,0,-1,1028,316,0,0
-189,708,0,0,0,0,0,0,0,0,0,-1,1035,316,0,0
-182,708,0,0,0,0,0,0,0,0,0,-1,1042,316,0,0
-175,708,0,0,0,0,0,0,0,0,0,-1,1049,316,0,0
-168,708,0,0,0,0,0,0,0,0,0,-1,1056,316,0,0
-161,708,0,0,0,0,0,0,0,0,0,-1,1063,316,0,0
-154,708,0,0,0,0,0,0,0,0,0,-1,1070,316,0,0
-147,708,0,0,0,0,0,0,0,0,0,-1,1077,316,0,0
-140,708,0,0,0,0,0,0,0,0,0,-1,1084,316,0,0
-133,708,0,0,0,0,0,0,0,0,0,-1,1091,316,0,0
-126,708,0,0,0,0,0,0,0,0,0,-1,1098,316,0,0
-119,708,0,0,0,0,0,0,0,0,0,-1,1105,316,0,0
-112,708,0,0,0,0,0,0,0,0,0,-1,1112,316,0,0
-105,708,0,0,0,0,0,0,0,0,0,-1,1119,316,0,0
-98,708,0,0,0,0,0,0,0,0,0,-1,1126,316,0,0
-91,708,0,0,0,0,0,0,0,0,0,-1,1133,316,0,0
-84,708,0,0,0,0,0,0,0,0,0,-1,1140,316,0,0
-77,708,0,0,0,0,0,0,0,0,0,-1,1147,316,0,0
-70,708,0,0,0,0,0,0,0,0,0,-1,1154,316,0,0
-63,708,0,0,0,0,0,0,0,0,0,-1,1161,316,0,0
-56,708,0,0,0,0,0,0,0,0,0,-1,1168,316,0,0
-49,708,0,0,0,0,0,0,0,0,0,-1,1175,316,0,0
-42,708,0,0,0,0,0,0,0,0,0,-1,1182,316,0,0
-35,708,-2.71204,-6.31558,0,0,0,0,0,0,0,-1,1189,316,-2.712,6.3156
-28,708,-2.92371,-5.53253,0,0,0,0,0,0,0,-1,1196,316,-2.92375,5.53254
-21,708,-5.32227,-7.36841,0,0,0,0,0,0,0,-1,1203,316,-5.32232,7.3684
-14,708,2.2572,-10.7642,0,0,0,0,0,0,0,-1,1210,316,2.25722,10.7642
-7,708,2.43457,-10.8026,0,0,0,0,0,0,0,-1,1217,316,2.43454,10.8026
0,708,2.61182,-10.8409,0,0,0,0,0,0,0,-1,1224,316,2.61185,10.8409
7,708,4.52966,-9.54007,0.0325719,-0.00301828,0.0236843,0.0444013,-0.0148477,0.463217,0.0355977,0.0460081,1231,316,4.52969,9.54008
14,708,5.29919,-9.33789,0,0,0,0,0,0,0,-1,1238,316,5.29922,9.33789
21,708,1.78308,-8.94843,0,0,0,0,0,0,0,-1,1245,316,1.7831,8.94843
28,708,2.15845,-8.44626,0.0303482,-0.0165298,-0.00968269,0.0322694,-0.018451,-0.195875,0.0296435,0.0456011,1252,316,2.15846,8.44625
35,708,2.42761,-8.25162,0,0,0,0,0,0,0,-1,1259,316,2.42756,8.2516
42,708,2.36365,-8.51602,0.0509518,-0.0245443,-0.0348145,0.0645552,-0.0381476,-0.372496,0.0599453,0.0454786,1266,316,2.3636,8.51601
49,708,0.896973,-9.7739,0.0629647,-0.0231287,-0.0444506,0.0817959,-0.0419599,-0.400721,0.0726738,0.0439607,1273,316,0.897,9.77389
56,708,1.3949,-9.62311,0,0,0,0,0,0,0,-1,1280,316,1.39494,9.62312
63,708,2.39063,-9.33994,0,0,0,0,0,0,0,-1,1287,316,2.39058,9.33993
70,708,3.55652,-8.83902,0,0,0,0,0,0,0,-1,1294,316,3.55656,8.83903
77,708,4.00513,-6.49756,0.0921932,0.00698449,-0.05317,0.117722,-0.0185447,-0.447636,0.0853375,0.0443044,1301,316,4.00508,6.49755
84,708,4.64771,-6.73572,0.0945874,0.0171003,-0.0474471,0.1171,-0.00541209,-0.443019,0.0799317,0.0411773,1308,316,4.64767,6.73573
91,708,5.37646,-6.83371,0.0924665,0.0356276,-0.0386618,0.11203,0.0160637,-0.468457,0.0699499,0.046306,1315,316,5.37646,6.83371
98,708,6.21387,-7.05624,0,0,0,0,0,0,0,-1,1322,316,6.2139,7.05623
105,708,7.10974,-7.19171,0,0,0,0,0,0,0,-1,1329,316,7.10973,7.19172
112,708,2.47705,-8.66833,0.0840487,0.0869435,0.00876969,0.0943844,0.0766078,0.867186,0.0579141,0.0464115,1336,316,2.47708,8.66833
119,708,2.38464,-7.89178,0.0770426,0.105121,0.0272046,0.121696,0.0604683,1.02361,0.0702614,0.0409756,1343,316,2.38468,7.89177
126,708,3.11389,-7.815,0.0753795,0.119071,0.0462595,0.148384,0.0460669,1.006,0.0876971,0.0411213,1350,316,3.11387,7.81502
133,708,3.88403,-7.49356,0.0752381,0.134962,0.0664122,0.177917,0.0322832,0.996679,0.109449,0.0460488,1357,316,3.884,7.49357
140,708,4.59399,-7.2428,0,0,0,0,0,0,0,-1,1364,316,4.59403,7.24279
147,708,5.25293,-6.53433,0,0,0,0,0,0,0,-1,1371,316,5.25289,6.53433
154,708,0,0,0,0,0,0,0,0,0,-1,1378,316,0,0
161,708,0,0,0,0,0,0,0,0,0,-1,1385,316,0,0
168,708,0,0,0,0,0,0,0,0,0,-1,1392,316,0,0
175,708,0,0,0,0,0,0,0,0,0,-1,1399,316,0,0
182,708,0,0,0,0,0,0,0,0,0,-1,1406,316,0,0
189,708,0,0,0,0,0,0,0,0,0,-1,1413,316,0,0
196,708,0,0,0,0,0,0,0,0,0,-1,1420,316,0,0
203,708,0,0,0,0,0,0,0,0,0,-1,1427,316,0,0
210,708,0,0,0,0,0,0,0,0,0,-1,1434,316,0,0
217,708,0,0,0,0,0,0,0,0,0,-1,1441,316,0,0
224,708,0,0,0,0,0,0,0,0,0,-1,1448,316,0,0
231,708,0,0,0,0,0,0,0,0,0,-1,1455,316,0,0
238,708,0,0,0,0,0,0,0,0,0,-1,1462,316,0,0
245,708,0,0,0,0,0,0,0,0,0,-1,1469,316,0,0
252,708,0,0,0,0,0,0,0,0,0,-1,1476,316,0,0
259,708,0,0,0,0,0,0,0,0,0,-1,1483,316,0,0
266,708,0,0,0,0,0,0,0,0,0,-1,1490,316,0,0
273,708,0,0,0,0,0,0,0,0,0,-1,1497,316,0,0
280,708,0,0,0,0,0,0,0,0,0,-1,1504,316,0,0
287,708,0,0,0,0,0,0,0,0,0,-1,1511,316,0,0
294,708,0,0,0,0,0,0,0,0,0,-1,1518,316,0,0
301,708,0,0,0,0,0,0,0,0,0,-1,1525,316,0,0
308,708,0,0,0,0,0,0,0,0,0,-1,1532,316,0,0
315,708,0,0,0,0,0,0,0,0,0,-1,1539,316,0,0
322,708,0,0,0,0,0,0,0,0,0,-1,1546,316,0,0
329,708,0,0,0,0,0,0,0,0,0,-1,1553,316,0,0
336,708,0,0,0,0,0,0,0,0,0,-1,1560,316,0,0
343,708,0,0,0,0,0,0,0,0,0,-1,1567,316,0,0
350,708,0,0,0,0,0,0,0,0,0,-1,1574,316,0,0
357,708,0,0,0,0,0,0,0,0,0,-1,1581,316,0,0
364,708,0,0,0,0,0,0,0,0,0,-1,1588,316,0,0
371,708,0,0,0,0,0,0,0,0,0,-1,1595,316,0,0
378,708,0,0,0,0,0,0,0,0,0,-1,1602,316,0,0
385,708,0,0,0,0,0,0,0,0,0,-1,1609,316,0,0
392,708,0,0,0,0,0,0,0,0,0,-1,1616,316,0,0
399,708,0,0,0,0,0,0,0,0,0,-1,1623,316,0,0
406,708,0,0,0,0,0,0,0,0,0,-1,1630,316,0,0
413,708,0,0,0,0,0,0,0,0,0,-1,1637,316,0,0
420,708,0,0,0,0,0,0,0,0,0,-1,1644,316,0,0
427,708,0,0,0,0,0,0,0,0,0,-1,1651,316,0,0
434,708,0,0,0,0,0,0,0,0,0,-1,1658,316,0,0
441,708,0,0,0,0,0,0,0,0,0,-1,1665,316,0,0
448,708,0,0,0,0,0,0,0,0,0,-1,1672,316,0,0
455,708,0,0,0,0,0,0,0,0,0,-1,1679,316,0,0
462,708,0,0,0,0,0,0,0,0,0,-1,1686,316,0,0
469,708,0,0,0,0,0,0,0,0,0,-1,1693,316,0,0
476,708,0,0,0,0,0,0,0,0,0,-1,1700,316,0,0
483,708,0,0,0,0,0,0,0,0,0,-1,1707,316,0,0
490,708,0,0,0,0,0,0,0,0,0,-1,1714,316,0,0
497,708,0,0,0,0,0,0,0,0,0,-1,1721,316,0,0
504,708,0,0,0,0,0,0,0,0,0,-1,1728,316,0,0
511,708,0,0,0,0,0,0,0,0,0,-1,1735,316,0,0
518,708,0,0,0,0,0,0,0,0,0,-1,1742,316,0,0
525,708,0,0,0,0,0,0,0,0,0,-1,1749,316,0,0
532,708,0,0,0,0,0,0,0,0,0,-1,1756,316,0,0
539,708,0,0,0,0,0,0,0,0,0,-1,1763,316,0,0
546,708,0,0,0,0,0,0,0,0,0,-1,1770,316,0,0
553,708,0,0,0,0,0,0,0,0,0,-1,1777,316,0,0
560,708,0,0,0,0,0,0,0,0,0,-1,1784,316,0,0
567,708,0,0,0,0,0,0,0,0,0,-1,1791,316,0,0
574,708,0,0,0,0,0,0,0,0,0,-1,1798,316,0,0
581,708,0,0,0,0,0,0,0,0,0,-1,1805,316,0,0
588,708,0,0,0,0,0,0,0,0,0,-1,1812,316,0,0
595,708,0,0,0,0,0,0,0,0,0,-1,1819,316,0,0
602,708,0,0,0,0,0,0,0,0,0,-1,1826,316,0,0
609,708,0,0,0,0,0,0,0,0,0,-1,1833,316,0,0
616,708,0,0,0,0,0,0,0,0,0,-1,1840,316,0,0
623,708,0,0,0,0,0,0,0,0,0,-1,1847,316,0,0
630,708,0,0,0,0,0,0,0,0,0,-1,1854,316,0,0
637,708,0,0,0,0,0,0,0,0,0,-1,1861,316,0,0
644,708,0,0,0,0,0,0,0,0,0,-1,1868,316,0,0
651,708,0,0,0,0,0,0,0,0,0,-1,1875,316,0,0
658,708,0,0,0,0,0,0,0,0,0,-1,1882,316,0,0
665,708,0,0,0,0,0,0,0,0,0,-1,1889,316,0,0
672,708,0,0,0,0,0,0,0,0,0,-1,1896,316,0,0
679,708,0,0,0,0,0,0,0,0,0,-1,1903,316,0,0
686,708,0,0,0,0,0,0,0,0,0,-1,1910,316,0,0
693,708,0,0,0,0,0,0,0,0,0,-1,1917,316,0,0
700,708,0,0,0,0,0,0,0,0,0,-1,1924,316,0,0
707,708,0,0,0,0,0,0,0,0,0,-1,1931,316,0,0
714,708,0,0,0,0,0,0,0,0,0,-1,1938,316,0,0
721,708,0,0,0,0,0,0,0,0,0,-1,1945,316,0,0
728,708,0,0,0,0,0,0,0,0,0,-1,1952,316,0,0
735,708,0,0,0,0,0,0,0,0,0,-1,1959,316,0,0
742,708,0,0,0,0,0,0,0,0,0,-1,1966,316,0,0
749,708,0,0,0,0,0,0,0,0,0,-1,1973,316,0,0
756,708,0,0,0,0,0,0,0,0,0,-1,1980,316,0,0
763,708,0,0,0,0,0,0,0,0,0,-1,1987,316,0,0
770,708,0,0,0,0,0,0,0,0,0,-1,1994,316,0,0
777,708,0,0,0,0,0,0,0,0,0,-1,2001,316,0,0
784,708,0,0,0,0,0,0,0,0,0,-1,2008,316,0,0
791,708,0,0,0,0,0,0,0,0,0,-1,2015,316,0,0
798,708,0,0,0,0,0,0,0,0,0,-1,2022,316,0,0
805,708,0,0,0,0,0,0,0,0,0,-1,2029,316,0,0
812,708,0,0,0,0,0,0,0,0,0,-1,2036,316,0,0
-700,701,0,0,0,0,0,0,0,0,0,-1,524,323,0,0
-693,701,0,0,0,0,0,0,0,0,0,-1,531,323,0,0
-686,701,0,0,0,0,0,0,0,0,0,-1,538,323,0,0
-679,701,0,0,0,0,0,0,0,0,0,-1,545,323,0,0
-672,701,0,0,0,0,0,0,0,0,0,-1,552,323,0,0
-665,701,0,0,0,0,0,0,0,0,0,-1,559,323,0,0
-658,701,0,0,0,0,0,0,0,0,0,-1,566,323,0,0
-651,701,0,0,0,0,0,0,0,0,0,-1,573,323,0,0
-644,701,0,0,0,0,0,0,0,0,0,-1,580,323,0,0
-637,701,0,0,0,0,0,0,0,0,0,-1,587,323,0,0
-630,701,0,0,0,0,0,0,0,0,0,-1,594,323,0,0
-623,701,0,0,0,0,0,0,0,0,0,-1,601,323,0,0
-616,701,0,0,0,0,0,0,0,0,0,-1,608,323,0,0
-609,701,0,0,0,0,0,0,0,0,0,-1,615,323,0,0
-602,701,0,0,0,0,0,0,0,0,0,-1,622,323,0,0
-595,701,0,0,0,0,0,0,0,0,0,-1,629,323,0,0
-588,701,0,0,0,0,0,0,0,0,0,-1,636,323,0,0
-581,701,0,0,0,0,0,0,0,0,0,-1,643,323,0,0
-574,701,0,0,0,0,0,0,0,0,0,-1,650,323,0,0
-567,701,0,0,0,0,0,0,0,0,0,-1,657,323,0,0
-560,701,0,0,0,0,0,0,0,0,0,-1,664,323,0,0
-553,701,0,0,0,0,0,0,0,0,0,-1,671,323,0,0
-546,701,0,0,0,0,0,0,0,0,0,-1,678,323,0,0
-539,701,0,0,0,0,0,0,0,0,0,-1,685,323,0,0
-532,701,0,0,0,0,0,0,0,0,0,-1,692,323,0,0
-525,701,0,0,0,0,0,0,0,0,0,-1,699,323,0,0
-518,701,0,0,0,0,0,0,0,0,0,-1,706,323,0,0
-511,701,0,0,0,0,0,0,0,0,0,-1,713,323,0,0
-504,701,0,0,0,0,0,0,0,0,0,-1,720,323,0,0
-497,701,0,0,0,0,0,0,0,0,0,-1,727,323,0,0
-490,701,0,0,0,0,0,0,0,0,0,-1,734,323,0,0
-483,701,0,0,0,0,0,0,0,0,0,-1,741,323,0,0
-476,701,0,0,0,0,0,0,0,0,0,-1,748,323,0,0
-469,701,0,0,0,0,0,0,0,0,0,-1,755,323,0,0
-462,701,0,0,0,0,0,0,0,0,0,-1,762,323,0,0
-455,701,0,0,0,0,0,0,0,0,0,-1,769,323,0,0
-448,701,0,0,0,0,0,0,0,0,0,-1,776,323,0,0
-441,701,0,0,0,0,0,0,0,0,0,-1,783,323,0,0
-434,701,0,0,0,0,0,0,0,0,0,-1,790,323,0,0
-427,701,0,0,0,0,0,0,0,0,0,-1,797,323,0,0
-420,701,0,0,0,0,0,0,0,0,0,-1,804,323,0,0
-413,701,0,0,0,0,0,0,0,0,0,-1,811,323,0,0
-406,701,0,0,0,0,0,0,0,0,0,-1,818,323,0,0
-399,701,0,0,0,0,0,0,0,0,0,-1,825,323,0,0
-392,701,0,0,0,0,0,0,0,0,0,-1,832,323,0,0
-385,701,0,0,0,0,0,0,0,0,0,-1,839,323,0,0
-378,701,0,0,0,0,0,0,0,0,0,-1,846,323,0,0
-371,701,0,0,0,0,0,0,0,0,0,-1,853,323,0,0
-364,701,0,0,0,0,0,0,0,0,0,-1,860,323,0,0
-357,701,0,0,0,0,0,0,0,0,0,-1,867,323,0,0
-350,701,0,0,0,0,0,0,0,0,0,-1,874,323,0,0
-343,701,0,0,0,0,0,0,0,0,0,-1,881,323,0,0
-336,701,0,0,0,0,0,0,0,0,0,-1,888,323,0,0
-329,701,0,0,0,0,0,0,0,0,0,-1,895,323,0,0
-322,701,0,0,0,0,0,0,0,0,0,-1,902,323,0,0
-315,701,0,0,0,0,0,0,0,0,0,-1,909,323,0,0
-308,701,0,0,0,0,0,0,0,0,0,-1,916,323,0,0
-301,701,0,0,0,0,0,0,0,0,0,-1,923,323,0,0
-294,701,0,0,0,0,0,0,0,0,0,-1,930,323,0,0
-287,701,0,0,0,0,0,0,0,0,0,-1,937,323,0,0
-280,701,0,0,0,0,0,0,0,0,0,-1,944,323,0,0
-273,701,0,0,0,0,0,0,0,0,0,-1,951,323,0,0
-266,701,0,0,0,0,0,0,0,0,0,-1,958,323,0,0
-259,701,0,0,0,0,0,0,0,0,0,-1,965,323,0,0
-252,701,0,0,0,0,0,0,0,0,0,-1,972,323,0,0
-245,701,0,0,0,0,0,0,0,0,0,-1,979,323,0,0
-238,701,0,0,0,0,0,0,0,0,0,-1,986,323,0,0
-231,701,0,0,0,0,0,0,0,0,0,-1,993,323,0,0
-224,701,0,0,0,0,0,0,0,0,0,-1,1000,323,0,0
-217,701,0,0,0,0,0,0,0,0,0,-1,1007,323,0,0
-210,701,0,0,0,0,0,0,0,0,0,-1,1014,323,0,0
-203,701,0,0,0,0,0,0,0,0,0,-1,1021,323,0,0
-196,701,0,0,0,0,0,0,0,0,0,-1,1028,323,0,0
-189,701,0,0,0,0,0,0,0,0,0,-1,1035,323,0,0
-182,701,0,0,0,0,0,0,0,0,0,-1,1042,323,0,0
-175,701,0,0,0,0,0,0,0,0,0,-1,1049,323,0,0
-168,701,0,0,0,0,0,0,0,0,0,-1,1056,323,0,0
-161,701,0,0,0,0,0,0,0,0,0,-1,1063,323,0,0
-154,701,0,0,0,0,0,0,0,0,0,-1,1070,323,0,0
-147,701,0,0,0,0,0,0,0,0,0,-1,1077,323,0,0
-140,701,0,0,0,0,0,0,0,0,0,-1,1084,323,0,0
-133,701,0,0,0,0,0,0,0,0,0,-1,1091,323,0,0
-126,701,0,0,0,0,0,0,0,0,0,-1,1098,323,0,0
-119,701,0,0,0,0,0,0,0,0,0,-1,1105,323,0,0
-112,701,0,0,0,0,0,0,0,0,0,-1,1112,323,0,0
-105,701,0,0,0,0,0,0,0,0,0,-1,1119,323,0,0
-98,701,0,0,0,0,0,0,0,0,0,-1,1126,323,0,0
-91,701,0,0,0,0,0,0,0,0,0,-1,1133,323,0,0
-84,701,0,0,0,0,0,0,0,0,0,-1,1140,323,0,0
-77,701,0,0,0,0,0,0,0,0,0,-1,1147,323,0,0
-70,701,-2.36731,-1.49271,0,0,0,0,0,0,0,-1,1154,323,-2.36729,1.4927
-63,701,-2.479,-0.295959,0,0,0,0,0,0,0,-1,1161,323,-2.47895,0.295961
-56,701,-0.420166,-0.101776,0,0,0,0,0,0,0,-1,1168,323,-0.420119,0.101777
-49,701,-1.09021,-0.155762,0,0,0,0,0,0,0,-1,1175,323,-1.09024,0.155768
-42,701,-0.210327,-0.299133,0,0,0,0,0,0,0,-1,1182,323,-0.210379,0.29914
-35,701,-2.9635,-7.98676,0,0,0,0,0,0,0,-1,1189,323,-2.9635,7.98676
-28,701,-6.64417,-5.4917,0,0,0,0,0,0,0,-1,1196,323,-6.64411,5.4917
-21,701,-5.11584,-5.84219,0,0,0,0,0,0,0,-1,1203,323,-5.11583,5.8422
-14,701,2.07568,-10.4141,0,0,0,0,0,0,0,-1,1210,323,2.07564,10.4141
-7,701,2.323,-10.4799,0,0,0,0,0,0,0,-1,1217,323,2.32302,10.4799
0,701,3.16394,-9.63095,0,0,0,0,0,0,0,-1,1224,323,3.164,9.63097
7,701,4.00317,-9.51184,0,0,0,0,0,0,0,-1,1231,323,4.00314,9.51185
14,701,4.84229,-9.39273,0,0,0,0,0,0,0,-1,1238,323,4.84229,9.39274
21,701,0.741699,-9.50323,0,0,0,0,0,0,0,-1,1245,323,0.74164,9.50325
28,701,0.915771,-9.73468,0,0,0,0,0,0,0,-1,1252,323,0.91583,9.73468
35,701,2.3031,-8.80243,0,0,0,0,0,0,0,-1,1259,323,2.30313,8.80242
42,701,2.39294,-8.70242,0.0452714,-0.0189515,-0.0260432,0.0545048,-0.0281848,-0.340714,0.0485403,0.0495175,1266,323,2.39296,8.70244
49,701,1.70581,-9.09348,0.053669,-0.015502,-0.0328153,0.0667595,-0.0285925,-0.37957,0.0565025,0.0450792,1273,323,1.70587,9.09347
56,701,2.36292,-8.85983,0.0616546,-0.00934484,-0.0385951,0.0785936,-0.0262838,-0.413575,0.0630115,0.0429459,1280,323,2.36289,8.85983
63,701,3.43774,-8.63525,0.0669957,-0.00384035,-0.0416073,0.0862184,-0.023063,-0.43279,0.066513,0.042711,1287,323,3.43772,8.63526
70,701,4.3667,-8.37735,0,0,0,0,0,0,0,-1,1294,323,4.36666,8.37736
77,701,4.89795,-6.7782,0.0738988,0.0151856,-0.0381409,0.0926727,-0.0035883,-0.457407,0.063012,0.0452858,1301,323,4.89799,6.77821
84,701,5.91846,-6.61719,0.0751467,0.0240697,-0.0334695,0.0917083,0.00750802,-0.459501,0.0587962,0.0455183,1308,323,5.9185,6.61718
91,701,6.8988,-6.39362,0.0727997,0.0385276,-0.0268412,0.0875084,0.0238188,-0.501301,0.0522418,0.0476632,1315,323,6.89877,6.3936
98,701,7.10791,-7.49359,0,0,0,0,0,0,0,-1,1322,323,7.10792,7.49359
105,701,1.36011,-8.05978,0.0710373,0.0641605,-0.00345151,0.0724708,0.062727,-0.393651,0.0454157,0.0440411,1329,323,1.36017,8.05979
112,701,2.1283,-8.53583,0.0651202,0.0756417,0.0100671,0.0817398,0.0590221,1.02617,0.0487194,0.0440914,1336,323,2.12828,8.53584
119,701,2.37891,-8.74463,0.0600966,0.0880031,0.0245436,0.102282,0.0458172,1.04387,0.0591594,0.0444643,1343,323,2.37897,8.74462
126,701,2.61072,-8.44269,0.0592729,0.0972398,0.0392244,0.121833,0.0346797,1.01077,0.0724824,0.0458747,1350,323,2.61069,8.44267
133,701,2.78394,-8.06744,0.0596255,0.108031,0.0548634,0.143793,0.0238634,0.99313,0.0889804,0.046973,1357,323,2.78397,8.06744
140,701,3.22192,-7.60184,0.0621045,0.120798,0.070795,0.168088,0.0148148,0.981884,0.107461,0.0490786,1364,323,3.22192,7.60184
147,701,3.64258,-7.14255,0.0647041,0.142423,0.0899186,0.20152,0.00560752,0.98936,0.132517,0.0468869,1371,323,3.64256,7.14256
154,701,4.23364,-6.64951,0.0657402,0.160802,0.106883,0.230247,-0.0037042,0.994617,0.154747,0.0493106,1378,323,4.23361,6.6495
161,701,5.06604,-6.03851,0,0,0,0,0,0,0,-1,1385,323,5.06602,6.03853
168,701,6.88513,-0.0237427,0,0,0,0,0,0,0,-1,1392,323,6.88517,0.0237498
175,701,6.94556,0.0693054,0,0,0,0,0,0,0,-1,1399,323,6.94555,-0.0692958
182,701,8.80652,5.42807,0,0,0,0,0,0,0,-1,1406,323,8.8065,-5.42808
189,701,8.58081,4.24493,0,0,0,0,0,0,0,-1,1413,323,8.58082,-4.24494
196,701,0,0,0,0,0,0,0,0,0,-1,1420,323,0,0
203,701,0,0,0,0,0,0,0,0,0,-1,1427,323,0,0
210,701,0,0,0,0,0,0,0,0,0,-1,1434,323,0,0
217,701,0,0,0,0,0,0,0,0,0,-1,1441,323,0,0
224,701,0,0,0,0,0,0,0,0,0,-1,1448,323,0,0
231,701,0,0,0,0,0,0,0,0,0,-1,1455,323,0,0
238,701,0,0,0,0,0,0,0,0,0,-1,1462,323,0,0
245,701,0,0,0,0,0,0,0,0,0,-1,1469,323,0,0
252,701,0,0,0,0,0,0,0,0,0,-1,1476,323,0,0
259,701,0,0,0,0,0,0,0,0,0,-1,1483,323,0,0
266,701,0,0,0,0,0,0,0,0,0,-1,1490,323,0,0
273,701,0,0,0,0,0,0,0,0,0,-1,1497,323,0,0
280,701,0,0,0,0,0,0,0,0,0,-1,1504,323,0,0
287,701,0,0,0,0,0,0,0,0,0,-1,1511,323,0,0
294,701,0,0,0,0,0,0,0,0,0,-1,1518,323,0,0
301,701,0,0,0,0,0,0,0,0,0,-1,1525,323,0,0
308,701,0,0,0,0,0,0,0,0,0,-1,1532,323,0,0
315,701,0,0,0,0,0,0,0,0,0,-1,1539,323,0,0
322,701,0,0,0,0,0,0,0,0,0,-1,1546,323,0,0
329,701,0,0,0,0,0,0,0,0,0,-1,1553,323,0,0
336,701,0,0,0,0,0,0,0,0,0,-1,1560,323,0,0
343,701,0,0,0,0,0,0,0,0,0,-1,1567,323,0,0
350,701,0,0,0,0,0,0,0,0,0,-1,1574,323,0,0
357,701,0,0,0,0,0,0,0,0,0,-1,1581,323,0,0
364,701,0,0,0,0,0,0,0,0,0,-1,1588,323,0,0
371,701,0,0,0,0,0,0,0,0,0,-1,1595,323,0,0
378,701,0,0,0,0,0,0,0,0,0,-1,1602,323,0,0
385,701,0,0,0,0,0,0,0,0,0,-1,1609,323,0,0
392,701,0,0,0,0,0,0,0,0,0,-1,1616,323,0,0
399,701,0,0,0,0,0,0,0,0,0,-1,1623,323,0,0
406,701,0,0,0,0,0,0,0,0,0,-1,1630,323,0,0
413,701,0,0,0,0,0,0,0,0,0,-1,1637,323,0,0
420,701,0,0,0,0,0,0,0,0,0,-1,1644,323,0,0
427,701,0,0,0,0,0,0,0,0,0,-1,1651,323,0,0
434,701,0,0,0,0,0,0,0,0,0,-1,1658,323,0,0
441,701,0,0,0,0,0,0,0,0,0,-1,1665,323,0,0
448,701,0,0,0,0,0,0,0,0,0,-1,1672,323,0,0
455,701,0,0,0,0,0,0,0,0,0,-1,1679,323,0,0
462,701,0,0,0,0,0,0,0,0,0,-1,1686,323,0,0
469,701,0,0,0,0,0,0,0,0,0,-1,1693,323,0,0
476,701,0,0,0,0,0,0,0,0,0,-1,1700,323,0,0
483,701,0,0,0,0,0,0,0,0,0,-1,1707,323,0,0
490,701,0,0,0,0,0,0,0,0,0,-1,1714,323,0,0
497,701,0,0,0,0,0,0,0,0,0,-1,1721,323,0,0
504,701,0,0,0,0,0,0,0,0,0,-1,1728,323,0,0
511,701,0,0,0,0,0,0,0,0,0,-1,1735,323,0,0
518,701,0,0,0,0,0,0,0,0,0,-1,1742,323,0,0
525,701,0,0,0,0,0,0,0,0,0,-1,1749,323,0,0
532,701,0,0,0,0,0,0,0,0,0,-1,1756,323,0,0
539,701,0,0,0,0,0,0,0,0,0,-1,1763,323,0,0
546,701,0,0,0,0,0,0,0,0,0,-1,1770,323,0,0
553,701,0,0,0,0,0,0,0,0,0,-1,1777,323,0,0
560,701,0,0,0,0,0,0,0,0,0,-1,1784,323,0,0
567,701,0,0,0,0,0,0,0,0,0,-1,1791,323,0,0
574,701,0,0,0,0,0,0,0,0,0,-1,1798,323,0,0
581,701,0,0,0,0,0,0,0,0,0,-1,1805,323,0,0
588,701,0,0,0,0,0,0,0,0,0,-1,1812,323,0,0
595,701,0,0,0,0,0,0,0,0,0,-1,1819,323,0,0
602,701,0,0,0,0,0,0,0,0,0,-1,1826,323,0,0
609,701,0,0,0,0,0,0,0,0,0,-1,1833,323,0,0
616,701,0,0,0,0,0,0,0,0,0,-1,1840,323,0,0
623,701,0,0,0,0,0,0,0,0,0,-1,1847,323,0,0
630,701,0,0,0,0,0,0,0,0,0,-1,1854,323,0,0
637,701,0,0,0,0,0,0,0,0,0,-1,1861,323,0,0
644,701,0,0,0,0,0,0,0,0,0,-1,1868,323,0,0
651,701,0,0,0,0,0,0,0,0,0,-1,1875,323,0,0
658,701,0,0,0,0,0,0,0,0,0,-1,1882,323,0,0
665,701,0,0,0,0,0,0,0,0,0,-1,1889,323,0,0
672,701,0,0,0,0,0,0,0,0,0,-1,1896,323,0,0
679,701,0,0,0,0,0,0,0,0,0,-1,1903,323,0,0
686,701,0,0,0,0,0,0,0,0,0,-1,1910,323,0,0
693,701,0,0,0,0,0,0,0,0,0,-1,1917,323,0,0
700,701,0,0,0,0,0,0,0,0,0,-1,1924,323,0,0
707,701,0,0,0,0,0,0,0,0,0,-1,1931,323,0,0
714,701,0,0,0,0,0,0,0,0,0,-1,1938,323,0,0
721,701,0,0,0,0,0,0,0,0,0,-1,1945,323,0,0
728,701,0,0,0,0,0,0,0,0,0,-1,1952,323,0,0
735,701,0,0,0,0,0,0,0,0,0,-1,1959,323,0,0
742,701,0,0,0,0,0,0,0,0,0,-1,1966,323,0,0
749,701,0,0,0,0,0,0,0,0,0,-1,1973,323,0,0
756,701,0,0,0,0,0,0,0,0,0,-1,1980,323,0,0
763,701,0,0,0,0,0,0,0,0,0,-1,1987,323,0,0
770,701,0,0,0,0,0,0,0,0,0,-1,1994,323,0,0
777,701,0,0,0,0,0,0,0,0,0,-1,2001,323,0,0
784,701,0,0,0,0,0,0,0,0,0,-1,2008,323,0,0
791,701,0,0,0,0,0,0,0,0,0,-1,2015,323,0,0
798,701,0,0,0,0,0,0,0,0,0,-1,2022,323,0,0
805,701,0,0,0,0,0,0,0,0,0,-1,2029,323,0,0
812,701,0,0,0,0,0,0,0,0,0,-1,2036,323,0,0
-700,694,0,0,0,0,0,0,0,0,0,-1,524,330,0,0
-693,694,0,0,0,0,0,0,0,0,0,-1,531,330,0,0
-686,694,0,0,0,0,0,0,0,0,0,-1,538,330,0,0
-679,694,0,0,0,0,0,0,0,0,0,-1,545,330,0,0
-672,694,0,0,0,0,0,0,0,0,0,-1,552,330,0,0
-665,694,0,0,0,0,0,0,0,0,0,-1,559,330,0,0
-658,694,0,0,0,0,0,0,0,0,0,-1,566,330,0,0
-651,694,0,0,0,0,0,0,0,0,0,-1,573,330,0,0
-644,694,0,0,0,0,0,0,0,0,0,-1,580,330,0,0
-637,694,0,0,0,0,0,0,0,0,0,-1,587,330,0,0
-630,694,0,0,0,0,0,0,0,0,0,-1,594,330,0,0
-623,694,0,0,0,0,0,0,0,0,0,-1,601,330,0,0
-616,694,0,0,0,0,0,0,0,0,0,-1,608,330,0,0
-609,694,0,0,0,0,0,0,0,0,0,-1,615,330,0,0
-602,694,0,0,0,0,0,0,0,0,0,-1,622,330,0,0
-595,694,0,0,0,0,0,0,0,0,0,-1,629,330,0,0
-588,694,0,0,0,0,0,0,0,0,0,-1,636,330,0,0
-581,694,0,0,0,0,0,0,0,0,0,-1,643,330,0,0
-574,694,0,0,0,0,0,0,0,0,0,-1,650,330,0,0
-567,694,0,0,0,0,0,0,0,0,0,-1,657,330,0,0
-560,694,0,0,0,0,0,0,0,0,0,-1,664,330,0,0
-553,694,0,0,0,0,0,0,0,0,0,-1,671,330,0,0
-546,694,0,0,0,0,0,0,0,0,0,-1,678,330,0,0
-539,694,0,0,0,0,0,0,0,0,0,-1,685,330,0,0
-532,694,0,0,0,0,0,0,0,0,0,-1,692,330,0,0
-525,694,0,0,0,0,0,0,0,0,0,-1,699,330,0,0
-518,694,0,0,0,0,0,0,0,0,0,-1,706,330,0,0
-511,694,0,0,0,0,0,0,0,0,0,-1,713,330,0,0
-504,694,0,0,0,0,0,0,0,0,0,-1,720,330,0,0
-497,694,0,0,0,0,0,0,0,0,0,-1,727,330,0,0
-490,694,0,0,0,0,0,0,0,0,0,-1,734,330,0,0
-483,694,0,0,0,0,0,0,0,0,0,-1,741,330,0,0
-476,694,0,0,0,0,0,0,0,0,0,-1,748,330,0,0
-469,694,0,0,0,0,0,0,0,0,0,-1,755,330,0,0
-462,694,0,0,0,0,0,0,0,0,0,-1,762,330,0,0
-455,694,0,0,0,0,0,0,0,0,0,-1,769,330,0,0
-448,694,0,0,0,0,0,0,0,0,0,-1,776,330,0,0
-441,694,0,0,0,0,0,0,0,0,0,-1,783,330,0,0
-434,694,0,0,0,0,0,0,0,0,0,-1,790,330,0,0
-427,694,0,0,0,0,0,0,0,0,0,-1,797,330,0,0
-420,694,0,0,0,0,0,0,0,0,0,-1,804,330,0,0
-413,694,0,0,0,0,0,0,0,0,0,-1,811,330,0,0
-406,694,0,0,0,0,0,0,0,0,0,-1,818,330,0,0
-399,694,0,0,0,0,0,0,0,0,0,-1,825,330,0,0
-392,694,0,0,0,0,0,0,0,0,0,-1,832,330,0,0
-385,694,0,0,0,0,0,0,0,0,0,-1,839,330,0,0
-378,694,0,0,0,0,0,0,0,0,0,-1,846,330,0,0
-371,694,0,0,0,0,0,0,0,0,0,-1,853,330,0,0
-364,694,0,0,0,0,0,0,0,0,0,-1,860,330,0,0
-357,694,0,0,0,0,0,0,0,0,0,-1,867,330,0,0
-350,694,0,0,0,0,0,0,0,0,0,-1,874,330,0,0
-343,694,0,0,0,0,0,0,0,0,0,-1,881,330,0,0
-336,694,0,0,0,0,0,0,0,0,0,-1,888,330,0,0
-329,694,0,0,0,0,0,0,0,0,0,-1,895,330,0,0
-322,694,0,0,0,0,0,0,0,0,0,-1,902,330,0,0
-315,694,0,0,0,0,0,0,0,0,0,-1,909,330,0,0
-308,694,0,0,0,0,0,0,0,0,0,-1,916,330,0,0
-301,694,0,0,0,0,0,0,0,0,0,-1,923,330,0,0
-294,694,0,0,0,0,0,0,0,0,0,-1,930,330,0,0
-287,694,0,0,0,0,0,0,0,0,0,-1,937,330,0,0
-280,694,0,0,0,0,0,0,0,0,0,-1,944,330,0,0
-273,694,0,0,0,0,0,0,0,0,0,-1,951,330,0,0
-266,694,0,0,0,0,0,0,0,0,0,-1,958,330,0,0
-259,694,0,0,0,0,0,0,0,0,0,-1,965,330,0,0
-252,694,0,0,0,0,0,0,0,0,0,-1,972,330,0,0
-245,694,0,0,0,0,0,0,0,0,0,-1,979,330,0,0
-238,694,0,0,0,0,0,0,0,0,0,-1,986,330,0,0
-231,694,0,0,0,0,0,0,0,0,0,-1,993,330,0,0
-224,694,0,0,0,0,0,0,0,0,0,-1,1000,330,0,0
-217,694,0,0,0,0,0,0,0,0,0,-1,1007,330,0,0
-210,694,0,0,0,0,0,0,0,0,0,-1,1014,330,0,0
-203,694,0,0,0,0,0,0,0,0,0,-1,1021,330,0,0
-196,694,0,0,0,0,0,0,0,0,0,-1,1028,330,0,0
-189,694,0,0,0,0,0,0,0,0,0,-1,1035,330,0,0
-182,694,0,0,0,0,0,0,0,0,0,-1,1042,330,0,0
-175,694,0,0,0,0,0,0,0,0,0,-1,1049,330,0,0
-168,694,0,0,0,0,0,0,0,0,0,-1,1056,330,0,0
-161,694,0,0,0,0,0,0,0,0,0,-1,1063,330,0,0
-154,694,0,0,0,0,0,0,0,0,0,-1,1070,330,0,0
-147,694,0,0,0,0,0,0,0,0,0,-1,1077,330,0,0
-140,694,0,0,0,0,0,0,0,0,0,-1,1084,330,0,0
-133,694,0,0,0,0,0,0,0,0,0,-1,1091,330,0,0
-126,694,0,0,0,0,0,0,0,0,0,-1,1098,330,0,0
-119,694,0,0,0,0,0,0,0,0,0,-1,1105,330,0,0
-112,694,0,0,0,0,0,0,0,0,0,-1,1112,330,0,0
-105,694,-1.35962,-7.57141,0,0,0,0,0,0,0,-1,1119,330,-1.3596,7.57142
-98,694,1.34875,-10.1051,0,0,0,0,0,0,0,-1,1126,330,1.34874,10.1051
-91,694,1.35474,-9.22229,0,0,0,0,0,0,0,-1,1133,330,1.35476,9.22229
-84,694,-4.39136,-4.62332,0,0,0,0,0,0,0,-1,1140,330,-4.3914,4.62331
-77,694,-3.93665,-2.81979,0,0,0,0,0,0,0,-1,1147,330,-3.93667,2.81979
-70,694,-3.48193,-1.01627,0,0,0,0,0,0,0,-1,1154,330,-3.48194,1.01627
-63,694,-5.80835,-4.75275,0,0,0,0,0,0,0,-1,1161,330,-5.80834,4.75274
-56,694,-6.50623,-0.649139,0,0,0,0,0,0,0,-1,1168,330,-6.5062,0.649126
-49,694,-1.11426,0.0341797,0,0,0,0,0,0,0,-1,1175,330,-1.11424,-0.0341846
-42,694,-0.346313,-0.709595,0,0,0,0,0,0,0,-1,1182,330,-0.346298,0.709581
-35,694,-0.459106,-1.24713,0,0,0,0,0,0,0,-1,1189,330,-0.459142,1.24714
-28,694,-6.48413,-3.95972,0,0,0,0,0,0,0,-1,1196,330,-6.48414,3.9597
-21,694,-5.01636,-4.28162,0,0,0,0,0,0,0,-1,1203,330,-5.01641,4.28162
-14,694,2.29724,-10.4546,0,0,0,0,0,0,0,-1,1210,330,2.2972,10.4546
-7,694,2.34839,-10.2729,0,0,0,0,0,0,0,-1,1217,330,2.34844,10.2729
0,694,2.49231,-9.50443,0,0,0,0,0,0,0,-1,1224,330,2.49237,9.50442
7,694,3.32898,-9.46463,0,0,0,0,0,0,0,-1,1231,330,3.32896,9.46463
14,694,4.16553,-9.42484,0,0,0,0,0,0,0,-1,1238,330,4.16556,9.42483
21,694,0.884033,-9.14725,0,0,0,0,0,0,0,-1,1245,330,0.884012,9.14725
28,694,1.104,-9.71576,0.0240142,-0.0183276,-0.00647853,0.0249832,-0.0192967,-0.148481,0.0256352,0.0432605,1252,330,1.10397,9.71575
35,694,1.3479,-10.2429,0.0308675,-0.018267,-0.013284,0.0342289,-0.0216285,-0.247845,0.0325217,0.0428105,1259,330,1.34787,10.2429
42,694,2.16357,-8.45844,0.0380566,-0.0139662,-0.0189644,0.0442359,-0.0201455,-0.314989,0.0380281,0.0486832,1266,330,2.16363,8.45843
49,694,2.41174,-8.26691,0.0438561,-0.00973816,-0.0236515,0.0528008,-0.0186829,-0.361563,0.0428094,0.0471117,1273,330,2.41171,8.26689
56,694,3.29834,-8.06873,0.0494552,-0.00343522,-0.0276694,0.0612846,-0.0152646,-0.404009,0.0467822,0.0432608,1280,330,3.29828,8.06872
63,694,4.29456,-7.91324,0.0532545,0.00226055,-0.0296608,0.0668709,-0.0113559,-0.430372,0.0488083,0.0432543,1287,330,4.29461,7.91325
70,694,4.94666,-7.45361,0.0563963,0.0101175,-0.0291859,0.0705027,-0.00398888,-0.450221,0.0483863,0.0408869,1294,330,4.94664,7.45361
77,694,5.71423,-7.11234,0.0578636,0.0188077,-0.0267345,0.0714427,0.00522866,-0.469966,0.0459848,0.0419899,1301,330,5.71423,7.11233
84,694,6.72986,-6.90634,0.0584213,0.0262835,-0.0229838,0.0703964,0.0143084,-0.480324,0.0429632,0.0432857,1308,330,6.72981,6.90634
91,694,7.6709,-6.64359,0,0,0,0,0,0,0,-1,1315,330,7.6709,6.64358
98,694,1.91736,-8.35834,0.0553732,0.0461455,-0.0104065,0.0621428,0.039376,-0.576738,0.0363028,0.047217,1322,330,1.91732,8.35833
105,694,1.84119,-8.50146,0.0540394,0.0557269,-0.000210888,0.0557528,0.0540135,-1.44833,0.0366025,0.0452768,1329,330,1.84123,8.50147
112,694,2.01721,-8.61932,0.0496872,0.0633918,0.0100184,0.0686771,0.0444019,1.08534,0.0402143,0.0431507,1336,330,2.0172,8.61931
119,694,2.24353,-8.82632,0.0461669,0.0715194,0.0210082,0.0833795,0.0343068,1.05685,0.0483901,0.04564,1343,330,2.24357,8.82634
126,694,2.40637,-8.90744,0,0,0,0,0,0,0,-1,1350,330,2.40642,8.90744
133,694,3.22559,-10.4202,0.0464429,0.0843986,0.0438055,0.11316,0.0176811,0.989809,0.0702918,0.0437227,1357,330,3.22557,10.4202
140,694,3.78296,-10.6413,0.0485136,0.0932677,0.0557584,0.130972,0.0108096,0.976221,0.0839436,0.0439921,1364,330,3.78299,10.6413
147,694,2.23962,-8.04956,0.0509314,0.107374,0.0694063,0.154077,0.00422832,0.978494,0.101338,0.0450083,1371,330,2.2396,8.04956
154,694,2.72229,-7.46786,0.0525233,0.120466,0.0815077,0.174799,-0.00180901,0.982846,0.11714,0.049311,1378,330,2.72232,7.46786
161,694,4.21472,-6.58191,0,0,0,0,0,0,0,-1,1385,330,4.21473,6.5819
168,694,6.77161,1.01288,0,0,0,0,0,0,0,-1,1392,330,6.77156,-1.01287
175,694,6.72839,0.473175,0,0,0,0,0,0,0,-1,1399,330,6.72838,-0.473182
182,694,8.29028,5.75238,0,0,0,0,0,0,0,-1,1406,330,8.29034,-5.75237
189,694,7.9801,4.46118,0,0,0,0,0,0,0,-1,1413,330,7.9801,-4.46118
196,694,7.39331,3.32632,0,0,0,0,0,0,0,-1,1420,330,7.39329,-3.32633
203,694,7.04492,2.20529,0,0,0,0,0,0,0,-1,1427,330,7.04496,-2.20529
210,694,6.44714,0.646912,0,0,0,0,0,0,0,-1,1434,330,6.44717,-0.646903
217,694,7.12061,-0.644958,0,0,0,0,0,0,0,-1,1441,330,7.12059,0.644961
224,694,6.74011,-1.70544,0,0,0,0,0,0,0,-1,1448,330,6.74013,1.70546
231,694,0,0,0,0,0,0,0,0,0,-1,1455,330,0,0
238,694,0,0,0,0,0,0,0,0,0,-1,1462,330,0,0
245,694,0,0,0,0,0,0,0,0,0,-1,1469,330,0,0
252,694,0,0,0,0,0,0,0,0,0,-1,1476,330,0,0
259,694,0,0,0,0,0,0,0,0,0,-1,1483,330,0,0
266,694,0,0,0,0,0,0,0,0,0,-1,1490,330,0,0
273,694,0,0,0,0,0,0,0,0,0,-1,1497,330,0,0
280,694,0,0,0,0,0,0,0,0,0,-1,1504,330,0,0
287,694,0,0,0,0,0,0,0,0,0,-1,1511,330,0,0
294,694,0,0,0,0,0,0,0,0,0,-1,1518,330,0,0
301,694,0,0,0,0,0,0,0,0,0,-1,1525,330,0,0
308,694,0,0,0,0,0,0,0,0,0,-1,1532,330,0,0
315,694,0,0,0,0,0,0,0,0,0,-1,1539,330,0,0
322,694,0,0,0,0,0,0,0,0,0,-1,1546,330,0,0
329,694,0,0,0,0,0,0,0,0,0,-1,1553,330,0,0
336,694,0,0,0,0,0,0,0,0,0,-1,1560,330,0,0
343,694,0,0,0,0,0,0,0,0,0,-1,1567,330,0,0
350,694,0,0,0,0,0,0,0,0,0,-1,1574,330,0,0
357,694,0,0,0,0,0,0,0,0,0,-1,1581,330,0,0
364,694,0,0,0,0,0,0,0,0,0,-1,1588,330,0,0
371,694,0,0,0,0,0,0,0,0,0,-1,1595,330,0,0
378,694,0,0,0,0,0,0,0,0,0,-1,1602,330,0,0
385,694,0,0,0,0,0,0,0,0,0,-1,1609,330,0,0
392,694,0,0,0,0,0,0,0,0,0,-1,1616,330,0,0
399,694,0,0,0,0,0,0,0,0,0,-1,1623,330,0,0
406,694,0,0,0,0,0,0,0,0,0,-1,1630,330,0,0
413,694,0,0,0,0,0,0,0,0,0,-1,1637,330,0,0
420,694,0,0,0,0,0,0,0,0,0,-1,1644,330,0,0
427,694,0,0,0,0,0,0,0,0,0,-1,1651,330,0,0
434,694,0,0,0,0,0,0,0,0,0,-1,1658,330,0,0
441,694,0,0,0,0,0,0,0,0,0,-1,1665,330,0,0
448,694,0,0,0,0,0,0,0,0,0,-1,1672,330,0,0
455,694,0,0,0,0,0,0,0,0,0,-1,1679,330,0,0
462,694,0,0,0,0,0,0,0,0,0,-1,1686,330,0,0
469,694,0,0,0,0,0,0,0,0,0,-1,1693,330,0,0
476,694,0,0,0,0,0,0,0,0,0,-1,1700,330,0,0
483,694,0,0,0,0,0,0,0,0,0,-1,1707,330,0,0
490,694,0,0,0,0,0,0,0,0,0,-1,1714,330,0,0
497,694,0,0,0,0,0,0,0,0,0,-1,1721,330,0,0
504,694,0,0,0,0,0,0,0,0,0,-1,1728,330,0,0
511,694,0,0,0,0,0,0,0,0,0,-1,1735,330,0,0
518,694,0,0,0,0,0,0,0,0,0,-1,1742,330,0,0
525,694,0,0,0,0,0,0,0,0,0,-1,1749,330,0,0
532,694,0,0,0,0,0,0,0,0,0,-1,1756,330,0,0
539,694,0,0,0,0,0,0,0,0,0,-1,1763,330,0,0
546,694,0,0,0,0,0,0,0,0,0,-1,1770,330,0,0
553,694,0,0,0,0,0,0,0,0,0,-1,1777,330,0,0
560,694,0,0,0,0,0,0,0,0,0,-1,1784,330,0,0
567,694,0,0,0,0,0,0,0,0,0,-1,1791,330,0,0
574,694,0,0,0,0,0,0,0,0,0,-1,1798,330,0,0
581,694,0,0,0,0,0,0,0,0,0,-1,1805,330,0,0
588,694,0,0,0,0,0,0,0,0,0,-1,1812,330,0,0
595,694,0,0,0,0,0,0,0,0,0,-1,1819,330,0,0
602,694,0,0,0,0,0,0,0,0,0,-1,1826,330,0,0
609,694,0,0,0,0,0,0,0,0,0,-1,1833,330,0,0
616,694,0,0,0,0,0,0,0,0,0,-1,1840,330,0,0
623,694,0,0,0,0,0,0,0,0,0,-1,1847,330,0,0
630,694,0,0,0,0,0,0,0,0,0,-1,1854,330,0,0
637,694,0,0,0,0,0,0,0,0,0,-1,1861,330,0,0
644,694,0,0,0,0,0,0,0,0,0,-1,1868,330,0,0
651,694,0,0,0,0,0,0,0,0,0,-1,1875,330,0,0
658,694,0,0,0,0,0,0,0,0,0,-1,1882,330,0,0
665,694,0,0,0,0,0,0,0,0,0,-1,1889,330,0,0
672,694,0,0,0,0,0,0,0,0,0,-1,1896,330,0,0
679,694,0,0,0,0,0,0,0,0,0,-1,1903,330,0,0
686,694,0,0,0,0,0,0,0,0,0,-1,1910,330,0,0
693,694,0,0,0,0,0,0,0,0,0,-1,1917,330,0,0
700,694,0,0,0,0,0,0,0,0,0,-1,1924,330,0,0
707,694,0,0,0,0,0,0,0,0,0,-1,1931,330,0,0
714,694,0,0,0,0,0,0,0,0,0,-1,1938,330,0,0
721,694,0,0,0,0,0,0,0,0,0,-1,1945,330,0,0
728,694,0,0,0,0,0,0,0,0,0,-1,1952,330,0,0
735,694,0,0,0,0,0,0,0,0,0,-1,1959,330,0,0
742,694,0,0,0,0,0,0,0,0,0,-1,1966,330,0,0
749,694,0,0,0,0,0,0,0,0,0,-1,1973,330,0,0
756,694,0,0,0,0,0,0,0,0,0,-1,1980,330,0,0
763,694,0,0,0,0,0,0,0,0,0,-1,1987,330,0,0
770,694,0,0,0,0,0,0,0,0,0,-1,1994,330,0,0
777,694,0,0,0,0,0,0,0,0,0,-1,2001,330,0,0
784,694,0,0,0,0,0,0,0,0,0,-1,2008,330,0,0
791,694,0,0,0,0,0,0,0,0,0,-1,2015,330,0,0
798,694,0,0,0,0,0,0,0,0,0,-1,2022,330,0,0
805,694,0,0,0,0,0,0,0,0,0,-1,2029,330,0,0
812,694,0,0,0,0,0,0,0,0,0,-1,2036,330,0,0
-700,687,0,0,0,0,0,0,0,0,0,-1,524,337,0,0
-693,687,0,0,0,0,0,0,0,0,0,-1,531,337,0,0
-686,687,0,0,0,0,0,0,0,0,0,-1,538,337,0,0
-679,687,0,0,0,0,0,0,0,0,0,-1,545,337,0,0
-672,687,0,0,0,0,0,0,0,0,0,-1,552,337,0,0
-665,687,0,0,0,0,0,0,0,0,0,-1,559,337,0,0
-658,687,0,0,0,0,0,0,0,0,0,-1,566,337,0,0
-651,687,0,0,0,0,0,0,0,0,0,-1,573,337,0,0
-644,687,0,0,0,0,0,0,0,0,0,-1,580,337,0,0
-637,687,0,0,0,0,0,0,0,0,0,-1,587,337,0,0
-630,687,0,0,0,0,0,0,0,0,0,-1,594,337,0,0
-623,687,0,0,0,0,0,0,0,0,0,-1,601,337,0,0
-616,687,0,0,0,0,0,0,0,0,0,-1,608,337,0,0
-609,687,0,0,0,0,0,0,0,0,0,-1,615,337,0,0
-602,687,0,0,0,0,0,0,0,0,0,-1,622,337,0,0
-595,687,0,0,0,0,0,0,0,0,0,-1,629,337,0,0
-588,687,0,0,0,0,0,0,0,0,0,-1,636,337,0,0
-581,687,0,0,0,0,0,0,0,0,0,-1,643,337,0,0
-574,687,0,0,0,0,0,0,0,0,0,-1,650,337,0,0
-567,687,0,0,0,0,0,0,0,0,0,-1,657,337,0,0
-560,687,0,0,0,0,0,0,0,0,0,-1,664,337,0,0
-553,687,0,0,0,0,0,0,0,0,0,-1,671,337,0,0
-546,687,0,0,0,0,0,0,0,0,0,-1,678,337,0,0
-539,687,0,0,0,0,0,0,0,0,0,-1,685,337,0,0
-532,687,0,0,0,0,0,0,0,0,0,-1,692,337,0,0
-525,687,0,0,0,0,0,0,0,0,0,-1,699,337,0,0
-518,687,0,0,0,0,0,0,0,0,0,-1,706,337,0,0
-511,687,0,0,0,0,0,0,0,0,0,-1,713,337,0,0
-504,687,0,0,0,0,0,0,0,0,0,-1,720,337,0,0
-497,687,0,0,0,0,0,0,0,0,0,-1,727,337,0,0
-490,687,0,0,0,0,0,0,0,0,0,-1,734,337,0,0
-483,687,0,0,0,0,0,0,0,0,0,-1,741,337,0,0
-476,687,0,0,0,0,0,0,0,0,0,-1,748,337,0,0
-469,687,0,0,0,0,0,0,0,0,0,-1,755,337,0,0
-462,687,0,0,0,0,0,0,0,0,0,-1,762,337,0,0
-455,687,0,0,0,0,0,0,0,0,0,-1,769,337,0,0
-448,687,0,0,0,0,0,0,0,0,0,-1,776,337,0,0
-441,687,0,0,0,0,0,0,0,0,0,-1,783,337,0,0
-434,687,0,0,0,0,0,0,0,0,0,-1,790,337,0,0
-427,687,0,0,0,0,0,0,0,0,0,-1,797,337,0,0
-420,687,0,0,0,0,0,0,0,0,0,-1,804,337,0,0
-413,687,0,0,0,0,0,0,0,0,0,-1,811,337,0,0
-406,687,0,0,0,0,0,0,0,0,0,-1,818,337,0,0
-399,687,0,0,0,0,0,0,0,0,0,-1,825,337,0,0
-392,687,0,0,0,0,0,0,0,0,0,-1,832,337,0,0
-385,687,0,0,0,0,0,0,0,0,0,-1,839,337,0,0
-378,687,0,0,0,0,0,0,0,0,0,-1,846,337,0,0
-371,687,0,0,0,0,0,0,0,0,0,-1,853,337,0,0
-364,687,0,0,0,0,0,0,0,0,0,-1,860,337,0,0
-357,687,0,0,0,0,0,0,0,0,0,-1,867,337,0,0
-350,687,0,0,0,0,0,0,0,0,0,-1,874,337,0,0
-343,687,0,0,0,0,0,0,0,0,0,-1,881,337,0,0
-336,687,0,0,0,0,0,0,0,0,0,-1,888,337,0,0
-329,687,0,0,0,0,0,0,0,0,0,-1,895,337,0,0
-322,687,0,0,0,0,0,0,0,0,0,-1,902,337,0,0
-315,687,0,0,0,0,0,0,0,0,0,-1,909,337,0,0
-308,687,0,0,0,0,0,0,0,0,0,-1,916,337,0,0
-301,687,0,0,0,0,0,0,0,0,0,-1,923,337,0,0
-294,687,0,0,0,0,0,0,0,0,0,-1,930,337,0,0
-287,687,0,0,0,0,0,0,0,0,0,-1,937,337,0,0
-280,687,0,0,0,0,0,0,0,0,0,-1,944,337,0,0
-273,687,0,0,0,0,0,0,0,0,0,-1,951,337,0,0
-266,687,0,0,0,0,0,0,0,0,0,-1,958,337,0,0
-259,687,0,0,0,0,0,0,0,0,0,-1,965,337,0,0
-252,687,0,0,0,0,0,0,0,0,0,-1,972,337,0,0
-245,687,0,0,0,0,0,0,0,0,0,-1,979,337,0,0
-238,687,0,0,0,0,0,0,0,0,0,-1,986,337,0,0
-231,687,0,0,0,0,0,0,0,0,0,-1,993,337,0,0
-224,687,0,0,0,0,0,0,0,0,0,-1,1000,337,0,0
-217,687,0,0,0,0,0,0,0,0,0,-1,1007,337,0,0
-210,687,0,0,0,0,0,0,0,0,0,-1,1014,337,0,0
-203,687,0,0,0,0,0,0,0,0,0,-1,1021,337,0,0
-196,687,0,0,0,0,0,0,0,0,0,-1,1028,337,0,0
-189,687,0,0,0,0,0,0,0,0,0,-1,1035,337,0,0
-182,687,0,0,0,0,0,0,0,0,0,-1,1042,337,0,0
-175,687,0,0,0,0,0,0,0,0,0,-1,1049,337,0,0
-168,687,0,0,0,0,0,0,0,0,0,-1,1056,337,0,0
-161,687,0,0,0,0,0,0,0,0,0,-1,1063,337,0,0
-154,687,0,0,0,0,0,0,0,0,0,-1,1070,337,0,0
-147,687,0,0,0,0,0,0,0,0,0,-1,1077,337,0,0
-140,687,0,0,0,0,0,0,0,0,0,-1,1084,337,0,0
-133,687,0.936768,-9.19006,0,0,0,0,0,0,0,-1,1091,337,0.936812,9.19006
-126,687,1.31165,-8.61765,0,0,0,0,0,0,0,-1,1098,337,1.31161,8.61766
-119,687,1.6864,-8.04526,0,0,0,0,0,0,0,-1,1105,337,1.68642,8.04525
-112,687,3.61841,-11.8411,0,0,0,0,0,0,0,-1,1112,337,3.61843,11.8411
-105,687,-1.33191,-6.95676,0,0,0,0,0,0,0,-1,1119,337,-1.33195,6.95674
-98,687,-1.97437,-6.83603,0,0,0,0,0,0,0,-1,1126,337,-1.97434,6.83603
-91,687,2.28162,-7.72437,0,0,0,0,0,0,0,-1,1133,337,2.28167,7.72437
-84,687,-1.72876,-5.14783,0,0,0,0,0,0,0,-1,1140,337,-1.7288,5.14782
-77,687,-1.29443,-3.39886,0,0,0,0,0,0,0,-1,1147,337,-1.29447,3.39887
-70,687,-4.52661,-13.0772,0,0,0,0,0,0,0,-1,1154,337,-4.52662,13.0772
-63,687,-5.61084,-8.87698,0,0,0,0,0,0,0,-1,1161,337,-5.61083,8.877
-56,687,-7.50964,-5.71408,0,0,0,0,0,0,0,-1,1168,337,-7.50966,5.71407
-49,687,-7.44934,-0.550262,0,0,0,0,0,0,0,-1,1175,337,-7.44938,0.550261
-42,687,-4.2019,-0.405609,0,0,0,0,0,0,0,-1,1182,337,-4.20192,0.405614
-35,687,-4.42273,-0.688171,0,0,0,0,0,0,0,-1,1189,337,-4.42276,0.688178
-28,687,-1.14038,-1.39072,0,0,0,0,0,0,0,-1,1196,337,-1.14035,1.3907
-21,687,1.12268,-7.14966,0,0,0,0,0,0,0,-1,1203,337,1.12263,7.14967
-14,687,2.34949,-10.2363,0,0,0,0,0,0,0,-1,1210,337,2.34955,10.2363
-7,687,2.16187,-9.99286,0,0,0,0,0,0,0,-1,1217,337,2.16188,9.99286
0,687,1.94885,-9.77103,0.0154875,-0.0159329,0.0103685,0.0186005,-0.019046,0.29168,0.0217357,0.0472718,1224,337,1.94889,9.77103
7,687,2.52234,-9.42206,0.0135998,-0.0157307,0.00731183,0.0153215,-0.0174524,0.231257,0.0189353,0.0468853,1231,337,2.5223,9.42206
14,687,2.12146,-9.43228,0.0146497,-0.016433,0.00339924,0.0150171,-0.0168004,0.107665,0.0183795,0.0483682,1238,337,2.12149,9.43229
21,687,1.57959,-9.383,0.0157114,-0.0168063,-0.000329364,0.0157148,-0.0168097,-0.0101274,0.0187815,0.0459402,1245,337,1.57955,9.383
28,687,1.37646,-9.54855,0.0195268,-0.0160234,-0.00496741,0.0202078,-0.0167044,-0.136254,0.0213433,0.0448386,1252,337,1.37652,9.54856
35,687,1.5022,-10.0645,0.0252166,-0.0153545,-0.00996343,0.0275314,-0.0176692,-0.228275,0.0263028,0.0464541,1259,337,1.50218,10.0646
42,687,2.09302,-8.43146,0.030551,-0.00980762,-0.0134226,0.0346074,-0.0138641,-0.293483,0.0288266,0.047344,1266,337,2.093,8.43147
49,687,2.1405,-8.27087,0.0344985,-0.00555977,-0.0165953,0.0404804,-0.0115416,-0.345956,0.0315459,0.0488428,1273,337,2.14049,8.27087
56,687,2.18567,-8.09073,0,0,0,0,0,0,0,-1,1280,337,2.18561,8.09073
63,687,5.2074,-7.22647,0.041094,0.00562361,-0.0206224,0.0505585,-0.00384082,-0.430263,0.0350561,0.0453957,1287,337,5.20739,7.22648
70,687,5.91077,-7.07104,0.0433017,0.0122811,-0.0201182,0.0531944,0.0023884,-0.457008,0.0346942,0.0426487,1294,337,5.9108,7.07106
77,687,6.56421,-7.48624,0.0441717,0.0194805,-0.0181875,0.0538079,0.00984429,-0.487223,0.0330824,0.0405422,1301,337,6.56424,7.48623
84,687,7.41895,-7.09454,0.0443267,0.0255546,-0.0152227,0.0528244,0.017057,-0.509135,0.0311294,0.0415469,1308,337,7.41891,7.09455
91,687,7.96887,-6.63629,0.0423306,0.0338066,-0.0115513,0.050381,0.0257561,-0.608664,0.0290899,0.0446943,1315,337,7.96885,6.63628
98,687,1.74487,-8.48264,0.0413376,0.0400825,-0.00591358,0.0466568,0.0347633,-0.732538,0.0279952,0.047971,1322,337,1.7449,8.48263
105,687,1.80261,-8.58862,0.0402434,0.0465755,0.00169035,0.0469985,0.0398204,1.3256,0.0292349,0.0452284,1329,337,1.80257,8.58862
112,687,1.87549,-8.61096,0.0371316,0.051454,0.00920801,0.0559577,0.0326279,1.1159,0.0324555,0.0441446,1336,337,1.87551,8.61098
119,687,2.25269,-8.72958,0.0347131,0.0565499,0.0172818,0.0660734,0.0251895,1.06713,0.0385045,0.0439075,1343,337,2.25266,8.72958
126,687,2.60217,-8.86957,0,0,0,0,0,0,0,-1,1350,337,2.60222,8.86957
133,687,2.90662,-9.16174,0.035298,0.0642571,0.0339224,0.086661,0.0128941,0.987113,0.0539917,0.0440259,1357,337,2.90665,9.16175
140,687,3.5415,-9.25739,0.0368871,0.0701492,0.0426641,0.0993092,0.00772718,0.971245,0.0637866,0.0449161,1364,337,3.54151,9.25738
147,687,4.18896,-9.23944,0,0,0,0,0,0,0,-1,1371,337,4.18897,9.23943
154,687,1.82263,-8.22699,0,0,0,0,0,0,0,-1,1378,337,1.82269,8.227
161,687,6.5564,1.68158,0,0,0,0,0,0,0,-1,1385,337,6.55636,-1.68157
168,687,6.66968,1.37039,0,0,0,0,0,0,0,-1,1392,337,6.6697,-1.37039
175,687,6.64075,0.771606,0,0,0,0,0,0,0,-1,1399,337,6.64073,-0.771595
182,687,6.67249,0.289917,0,0,0,0,0,0,0,-1,1406,337,6.67247,-0.289916
189,687,7.76062,4.53635,0,0,0,0,0,0,0,-1,1413,337,7.76064,-4.53636
196,687,6.99048,3.2966,0,0,0,0,0,0,0,-1,1420,337,6.99046,-3.2966
203,687,6.36499,2.1445,0,0,0,0,0,0,0,-1,1427,337,6.36499,-2.14451
210,687,6.68066,0.674652,0,0,0,0,0,0,0,-1,1434,337,6.68062,-0.674655
217,687,5.99683,-0.630493,0,0,0,0,0,0,0,-1,1441,337,5.99684,0.630497
224,687,2.82117,1.18063,0,0,0,0,0,0,0,-1,1448,337,2.8212,-1.18063
231,687,2.94507,-0.278839,0,0,0,0,0,0,0,-1,1455,337,2.94505,0.278842
238,687,0.891479,0.523315,0,0,0,0,0,0,0,-1,1462,337,0.891479,-0.523308
245,687,1.28259,2.32211,0,0,0,0,0,0,0,-1,1469,337,1.28258,-2.32211
252,687,1.97278,3.88422,0,0,0,0,0,0,0,-1,1476,337,1.97281,-3.88421
259,687,0,0,0,0,0,0,0,0,0,-1,1483,337,0,0
266,687,0,0,0,0,0,0,0,0,0,-1,1490,337,0,0
273,687,0,0,0,0,0,0,0,0,0,-1,1497,337,0,0
280,687,0,0,0,0,0,0,0,0,0,-1,1504,337,0,0
287,687,0,0,0,0,0,0,0,0,0,-1,1511,337,0,0
294,687,0,0,0,0,0,0,0,0,0,-1,1518,337,0,0
301,687,0,0,0,0,0,0,0,0,0,-1,1525,337,0,0
308,687,0,0,0,0,0,0,0,0,0,-1,1532,337,0,0
315,687,0,0,0,0,0,0,0,0,0,-1,1539,337,0,0
322,687,0,0,0,0,0,0,0,0,0,-1,1546,337,0,0
329,687,0,0,0,0,0,0,0,0,0,-1,1553,337,0,0
336,687,0,0,0,0,0,0,0,0,0,-1,1560,337,0,0
343,687,0,0,0,0,0,0,0,0,0,-1,1567,337,0,0
350,687,0,0,0,0,0,0,0,0,0,-1,1574,337,0,0
357,687,0,0,0,0,0,0,0,0,0,-1,1581,337,0,0
364,687,0,0,0,0,0,0,0,0,0,-1,1588,337,0,0
371,687,0,0,0,0,0,0,0,0,0,-1,1595,337,0,0
378,687,0,0,0,0,0,0,0,0,0,-1,1602,337,0,0
385,687,0,0,0,0,0,0,0,0,0,-1,1609,337,0,0
392,687,0,0,0,0,0,0,0,0,0,-1,1616,337,0,0
399,687,0,0,0,0,0,0,0,0,0,-1,1623,337,0,0
406,687,0,0,0,0,0,0,0,0,0,-1,1630,337,0,0
413,687,0,0,0,0,0,0,0,0,0,-1,1637,337,0,0
420,687,0,0,0,0,0,0,0,0,0,-1,1644,337,0,0
427,687,0,0,0,0,0,0,0,0,0,-1,1651,337,0,0
434,687,0,0,0,0,0,0,0,0,0,-1,1658,337,0,0
441,687,0,0,0,0,0,0,0,0,0,-1,1665,337,0,0
448,687,0,0,0,0,0,0,0,0,0,-1,1672,337,0,0
455,687,0,0,0,0,0,0,0,0,0,-1,1679,337,0,0
462,687,0,0,0,0,0,0,0,0,0,-1,1686,337,0,0
469,687,0,0,0,0,0,0,0,0,0,-1,1693,337,0,0
476,687,0,0,0,0,0,0,0,0,0,-1,1700,337,0,0
483,687,0,0,0,0,0,0,0,0,0,-1,1707,337,0,0
490,687,0,0,0,0,0,0,0,0,0,-1,1714,337,0,0
497,687,0,0,0,0,0,0,0,0,0,-1,1721,337,0,0
504,687,0,0,0,0,0,0,0,0,0,-1,1728,337,0,0
511,687,0,0,0,0,0,0,0,0,0,-1,1735,337,0,0
518,687,0,0,0,0,0,0,0,0,0,-1,1742,337,0,0
525,687,0,0,0,0,0,0,0,0,0,-1,1749,337,0,0
532,687,0,0,0,0,0,0,0,0,0,-1,1756,337,0,0
539,687,0,0,0,0,0,0,0,0,0,-1,1763,337,0,0
546,687,0,0,0,0,0,0,0,0,0,-1,1770,337,0,0
553,687,0,0,0,0,0,0,0,0,0,-1,1777,337,0,0
560,687,0,0,0,0,0,0,0,0,0,-1,1784,337,0,0
567,687,0,0,0,0,0,0,0,0,0,-1,1791,337,0,0
574,687,0,0,0,0,0,0,0,0,0,-1,1798,337,0,0
581,687,0,0,0,0,0,0,0,0,0,-1,1805,337,0,0
588,687,0,0,0,0,0,0,0,0,0,-1,1812,337,0,0
595,687,0,0,0,0,0,0,0,0,0,-1,1819,337,0,0
602,687,0,0,0,0,0,0,0,0,0,-1,1826,337,0,0
609,687,0,0,0,0,0,0,0,0,0,-1,1833,337,0,0
616,687,0,0,0,0,0,0,0,0,0,-1,1840,337,0,0
623,687,0,0,0,0,0,0,0,0,0,-1,1847,337,0,0
630,687,0,0,0,0,0,0,0,0,0,-1,1854,337,0,0
637,687,0,0,0,0,0,0,0,0,0,-1,1861,337,0,0
644,687,0,0,0,0,0,0,0,0,0,-1,1868,337,0,0
651,687,0,0,0,0,0,0,0,0,0,-1,1875,337,0,0
658,687,0,0,0,0,0,0,0,0,0,-1,1882,337,0,0
665,687,0,0,0,0,0,0,0,0,0,-1,1889,337,0,0
672,687,0,0,0,0,0,0,0,0,0,-1,1896,337,0,0
679,687,0,0,0,0,0,0,0,0,0,-1,1903,337,0,0
686,687,0,0,0,0,0,0,0,0,0,-1,1910,337,0,0
693,687,0,0,0,0,0,0,0,0,0,-1,1917,337,0,0
700,687,0,0,0,0,0,0,0,0,0,-1,1924,337,0,0
707,687,0,0,0,0,0,0,0,0,0,-1,1931,337,0,0
714,687,0,0,0,0,0,0,0,0,0,-1,1938,337,0,0
721,687,0,0,0,0,0,0,0,0,0,-1,1945,337,0,0
728,687,0,0,0,0,0,0,0,0,0,-1,1952,337,0,0
735,687,0,0,0,0,0,0,0,0,0,-1,1959,337,0,0
742,687,0,0,0,0,0,0,0,0,0,-1,1966,337,0,0
749,687,0,0,0,0,0,0,0,0,0,-1,1973,337,0,0
756,687,0,0,0,0,0,0,0,0,0,-1,1980,337,0,0
763,687,0,0,0,0,0,0,0,0,0,-1,1987,337,0,0
770,687,0,0,0,0,0,0,0,0,0,-1,1994,337,0,0
777,687,0,0,0,0,0,0,0,0,0,-1,2001,337,0,0
784,687,0,0,0,0,0,0,0,0,0,-1,2008,337,0,0
791,687,0,0,0,0,0,0,0,0,0,-1,2015,337,0,0
798,687,0,0,0,0,0,0,0,0,0,-1,2022,337,0,0
805,687,0,0,0,0,0,0,0,0,0,-1,2029,337,0,0
812,687,0,0,0,0,0,0,0,0,0,-1,2036,337,0,0
-700,680,0,0,0,0,0,0,0,0,0,-1,524,344,0,0
-693,680,0,0,0,0,0,0,0,0,0,-1,531,344,0,0
-686,680,0,0,0,0,0,0,0,0,0,-1,538,344,0,0
-679,680,0,0,0,0,0,0,0,0,0,-1,545,344,0,0
-672,680,0,0,0,0,0,0,0,0,0,-1,552,344,0,0
-665,680,0,0,0,0,0,0,0,0,0,-1,559,344,0,0
-658,680,0,0,0,0,0,0,0,0,0,-1,566,344,0,0
-651,680,0,0,0,0,0,0,0,0,0,-1,573,344,0,0
-644,680,0,0,0,0,0,0,0,0,0,-1,580,344,0,0
-637,680,0,0,0,0,0,0,0,0,0,-1,587,344,0,0
-630,680,0,0,0,0,0,0,0,0,0,-1,594,344,0,0
-623,680,0,0,0,0,0,0,0,0,0,-1,601,344,0,0
-616,680,0,0,0,0,0,0,0,0,0,-1,608,344,0,0
-609,680,0,0,0,0,0,0,0,0,0,-1,615,344,0,0
-602,680,0,0,0,0,0,0,0,0,0,-1,622,344,0,0
-595,680,0,0,0,0,0,0,0,0,0,-1,629,344,0,0
-588,680,0,0,0,0,0,0,0,0,0,-1,636,344,0,0
-581,680,0,0,0,0,0,0,0,0,0,-1,643,344,0,0
-574,680,0,0,0,0,0,0,0,0,0,-1,650,344,0,0
-567,680,0,0,0,0,0,0,0,0,0,-1,657,344,0,0
-560,680,0,0,0,0,0,0,0,0,0,-1,664,344,0,0
-553,680,0,0,0,0,0,0,0,0,0,-1,671,344,0,0
-546,680,0,0,0,0,0,0,0,0,0,-1,678,344,0,0
-539,680,0,0,0,0,0,0,0,0,0,-1,685,344,0,0
-532,680,0,0,0,0,0,0,0,0,0,-1,692,344,0,0
-525,680,0,0,0,0,0,0,0,0,0,-1,699,344,0,0
-518,680,0,0,0,0,0,0,0,0,0,-1,706,344,0,0
-511,680,0,0,0,0,0,0,0,0,0,-1,713,344,0,0
-504,680,0,0,0,0,0,0,0,0,0,-1,720,344,0,0
-497,680,0,0,0,0,0,0,0,0,0,-1,727,344,0,0
-490,680,0,0,0,0,0,0,0,0,0,-1,734,344,0,0
-483,680,0,0,0,0,0,0,0,0,0,-1,741,344,0,0
-476,680,0,0,0,0,0,0,0,0,0,-1,748,344,0,0
-469,680,0,0,0,0,0,0,0,0,0,-1,755,344,0,0
-462,680,0,0,0,0,0,0,0,0,0,-1,762,344,0,0
-455,680,0,0,0,0,0,0,0,0,0,-1,769,344,0,0
-448,680,0,0,0,0,0,0,0,0,0,-1,776,344,0,0
-441,680,0,0,0,0,0,0,0,0,0,-1,783,344,0,0
-434,680,0,0,0,0,0,0,0,0,0,-1,790,344,0,0
-427,680,0,0,0,0,0,0,0,0,0,-1,797,344,0,0
-420,680,0,0,0,0,0,0,0,0,0,-1,804,344,0,0
-413,680,0,0,0,0,0,0,0,0,0,-1,811,344,0,0
-406,680,0,0,0,0,0,0,0,0,0,-1,818,344,0,0
-399,680,0,0,0,0,0,0,0,0,0,-1,825,344,0,0
-392,680,0,0,0,0,0,0,0,0,0,-1,832,344,0,0
-385,680,0,0,0,0,0,0,0,0,0,-1,839,344,0,0
-378,680,0,0,0,0,0,0,0,0,0,-1,846,344,0,0
-371,680,0,0,0,0,0,0,0,0,0,-1,853,344,0,0
-364,680,0,0,0,0,0,0,0,0,0,-1,860,344,0,0
-357,680,0,0,0,0,0,0,0,0,0,-1,867,344,0,0
-350,680,0,0,0,0,0,0,0,0,0,-1,874,344,0,0
-343,680,0,0,0,0,0,0,0,0,0,-1,881,344,0,0
-336,680,0,0,0,0,0,0,0,0,0,-1,888,344,0,0
-329,680,0,0,0,0,0,0,0,0,0,-1,895,344,0,0
-322,680,0,0,0,0,0,0,0,0,0,-1,902,344,0,0
-315,680,0,0,0,0,0,0,0,0,0,-1,909,344,0,0
-308,680,0,0,0,0,0,0,0,0,0,-1,916,344,0,0
-301,680,0,0,0,0,0,0,0,0,0,-1,923,344,0,0
-294,680,0,0,0,0,0,0,0,0,0,-1,930,344,0,0
-287,680,0,0,0,0,0,0,0,0,0,-1,937,344,0,0
-280,680,0,0,0,0,0,0,0,0,0,-1,944,344,0,0
-273,680,0,0,0,0,0,0,0,0,0,-1,951,344,0,0
-266,680,0,0,0,0,0,0,0,0,0,-1,958,344,0,0
-259,680,0,0,0,0,0,0,0,0,0,-1,965,344,0,0
-252,680,0,0,0,0,0,0,0,0,0,-1,972,344,0,0
-245,680,0,0,0,0,0,0,0,0,0,-1,979,344,0,0
-238,680,0,0,0,0,0,0,0,0,0,-1,986,344,0,0
-231,680,0,0,0,0,0,0,0,0,0,-1,993,344,0,0
-224,680,0,0,0,0,0,0,0,0,0,-1,1000,344,0,0
-217,680,0,0,0,0,0,0,0,0,0,-1,1007,344,0,0
-210,680,0,0,0,0,0,0,0,0,0,-1,1014,344,0,0
-203,680,0,0,0,0,0,0,0,0,0,-1,1021,344,0,0
-196,680,0,0,0,0,0,0,0,0,0,-1,1028,344,0,0
-189,680,0,0,0,0,0,0,0,0,0,-1,1035,344,0,0
-182,680,0,0,0,0,0,0,0,0,0,-1,1042,344,0,0
-175,680,0,0,0,0,0,0,0,0,0,-1,1049,344,0,0
-168,680,0,0,0,0,0,0,0,0,0,-1,1056,344,0,0
-161,680,0,0,0,0,0,0,0,0,0,-1,1063,344,0,0
-154,680,-1.22534,-3.19229,0,0,0,0,0,0,0,-1,1070,344,-1.22529,3.1923
-147,680,0.78186,-9.7186,0,0,0,0,0,0,0,-1,1077,344,0.781805,9.7186
-140,680,0.000854492,-8.33377,0,0,0,0,0,0,0,-1,1084,344,0.000851028,8.33377
-133,680,1.16846,-9.10474,0,0,0,0,0,0,0,-1,1091,344,1.16844,9.10474
-126,680,1.43762,-8.25723,0,0,0,0,0,0,0,-1,1098,344,1.43757,8.25722
-119,680,1.76282,-7.66183,0,0,0,0,0,0,0,-1,1105,344,1.76277,7.66184
-112,680,3.5127,-10.4761,0,0,0,0,0,0,0,-1,1112,344,3.51274,10.4761
-105,680,3.65027,-10.3892,0,0,0,0,0,0,0,-1,1119,344,3.65033,10.3892
-98,680,2.96692,-4.68964,0,0,0,0,0,0,0,-1,1126,344,2.96693,4.68965
-91,680,2.16418,-6.15857,0,0,0,0,0,0,0,-1,1133,344,2.16424,6.15858
-84,680,2.71631,-7.27869,0,0,0,0,0,0,0,-1,1140,344,2.71634,7.2787
-77,680,1.31738,-3.86298,0,0,0,0,0,0,0,-1,1147,344,1.31733,3.86296
-70,680,1.79248,-2.08197,0,0,0,0,0,0,0,-1,1154,344,1.79242,2.08198
-63,680,-5.41333,-13.0013,0,0,0,0,0,0,0,-1,1161,344,-5.41332,13.0013
-56,680,-6.96912,-8.83356,0,0,0,0,0,0,0,-1,1168,344,-6.96907,8.83354
-49,680,-6.7677,-2.24063,0,0,0,0,0,0,0,-1,1175,344,-6.76772,2.24063
-42,680,-1.02368,0.618805,0,0,0,0,0,0,0,-1,1182,344,-1.0237,-0.618797
-35,680,-0.947876,-0.942719,0,0,0,0,0,0,0,-1,1189,344,-0.947842,0.942731
-28,680,-1.46118,-1.10574,0,0,0,0,0,0,0,-1,1196,344,-1.4612,1.10575
-21,680,1.52234,-8.39993,0,0,0,0,0,0,0,-1,1203,344,1.52234,8.39992
-14,680,1.45117,-8.97345,0,0,0,0,0,0,0,-1,1210,344,1.45122,8.97345
-7,680,2.01648,-8.89825,0,0,0,0,0,0,0,-1,1217,344,2.01649,8.89825
0,680,1.87195,-9.32202,0.0102115,-0.0140101,0.00679874,0.0119894,-0.015788,0.255768,0.0160872,0.0497841,1224,344,1.87199,9.32202
7,680,2.03345,-9.24948,0.00949038,-0.0137637,0.00479932,0.0104419,-0.0147153,0.195734,0.0145942,0.0479904,1231,344,2.03347,9.24948
14,680,2.05334,-9.24796,0.0107193,-0.0141246,0.00218338,0.0109097,-0.014315,0.0869957,0.0146076,0.0457016,1238,344,2.05338,9.24796
21,680,1.77795,-9.12366,0.0119259,-0.0140988,-0.000372684,0.0119312,-0.0141041,-0.0143165,0.0150489,0.043161,1245,344,1.77794,9.12366
28,680,1.66711,-9.22278,0.0151356,-0.0130554,-0.00365364,0.0156015,-0.0135213,-0.126812,0.0168283,0.0411156,1252,344,1.66712,9.22277
35,680,1.6001,-9.28586,0.0196531,-0.0121968,-0.00723339,0.0212189,-0.0137626,-0.213178,0.0203489,0.0445155,1259,344,1.60009,9.28586
42,680,1.9314,-8.67535,0.0235063,-0.00653973,-0.00917481,0.0260863,-0.00911979,-0.274131,0.0210984,0.0447303,1266,344,1.93135,8.67536
49,680,1.76428,-8.66257,0.0261441,-0.00269431,-0.0112607,0.0300202,-0.00657039,-0.331509,0.0225253,0.0394277,1273,344,1.76423,8.66256
56,680,1.80481,-8.82492,0.0288252,0.00240138,-0.0130792,0.0342041,-0.00297757,-0.390175,0.0238573,0.0397942,1280,344,1.80486,8.82493
63,680,6.1178,-6.60486,0,0,0,0,0,0,0,-1,1287,344,6.11784,6.60486
70,680,6.84644,-6.46436,0,0,0,0,0,0,0,-1,1294,344,6.84645,6.46436
77,680,7.38232,-7.81299,0,0,0,0,0,0,0,-1,1301,344,7.38228,7.81298
84,680,7.89954,-7.04684,0,0,0,0,0,0,0,-1,1308,344,7.89956,7.04683
91,680,1.58533,-9.63663,0.0310333,0.0290823,-0.00689947,0.0370259,0.0230897,-0.715168,0.0215936,0.0460402,1315,344,1.58529,9.63662
98,680,1.59314,-8.97128,0.0300345,0.0333839,-0.00283776,0.0350042,0.0284141,-1.05197,0.0214791,0.0447236,1322,344,1.59317,8.97127
105,680,1.65942,-8.66385,0.0291875,0.0375825,0.00266911,0.0383593,0.0284107,1.28761,0.0229859,0.0434855,1329,344,1.65937,8.66383
112,680,1.7251,-8.79376,0.0270202,0.040483,0.00802004,0.0442221,0.023281,1.13453,0.0255436,0.0453703,1336,344,1.72507,8.79376
119,680,1.922,-8.72406,0.025387,0.0434496,0.013744,0.050864,0.0179726,1.07608,0.0297844,0.0434342,1343,344,1.92194,8.72406
126,680,1.8717,-8.85861,0,0,0,0,0,0,0,-1,1350,344,1.87169,8.85861
133,680,1.83569,-8.94296,0,0,0,0,0,0,0,-1,1357,344,1.83572,8.94296
140,680,1.9259,-8.95807,0,0,0,0,0,0,0,-1,1364,344,1.9259,8.95806
147,680,1.43835,-8.8118,0,0,0,0,0,0,0,-1,1371,344,1.43837,8.81179
154,680,1.60547,-8.45285,0,0,0,0,0,0,0,-1,1378,344,1.60548,8.45287
161,680,1.91626,-7.5787,0,0,0,0,0,0,0,-1,1385,344,1.91626,7.5787
168,680,6.85046,1.69257,0,0,0,0,0,0,0,-1,1392,344,6.85045,-1.69257
175,680,6.66541,0.942078,0,0,0,0,0,0,0,-1,1399,344,6.66538,-0.942088
182,680,6.52917,0.532379,0,0,0,0,0,0,0,-1,1406,344,6.52922,-0.532385
189,680,7.55884,4.77695,0,0,0,0,0,0,0,-1,1413,344,7.55886,-4.77694
196,680,6.55627,3.35254,0,0,0,0,0,0,0,-1,1420,344,6.55622,-3.35255
203,680,5.7334,1.90753,0,0,0,0,0,0,0,-1,1427,344,5.73341,-1.90754
210,680,5.27515,0.493622,0,0,0,0,0,0,0,-1,1434,344,5.27514,-0.493632
217,680,2.23169,1.90567,0,0,0,0,0,0,0,-1,1441,344,2.23165,-1.90568
224,680,2.56433,0.633606,0,0,0,0,0,0,0,-1,1448,344,2.56436,-0.633606
231,680,1.37292,-1.15448,0,0,0,0,0,0,0,-1,1455,344,1.37296,1.15448
238,680,1.78271,-0.209778,0,0,0,0,0,0,0,-1,1462,344,1.78269,0.209781
245,680,2.44397,0.985382,0,0,0,0,0,0,0,-1,1469,344,2.44402,-0.985394
252,680,3.07349,2.18951,0,0,0,0,0,0,0,-1,1476,344,3.0735,-2.18952
259,680,2.82971,1.30682,0,0,0,0,0,0,0,-1,1483,344,2.82972,-1.30684
266,680,2.67554,1.44067,0,0,0,0,0,0,0,-1,1490,344,2.67551,-1.44066
273,680,2.46411,1.54666,0,0,0,0,0,0,0,-1,1497,344,2.46407,-1.54666
280,680,0,0,0,0,0,0,0,0,0,-1,1504,344,0,0
287,680,0,0,0,0,0,0,0,0,0,-1,1511,344,0,0
294,680,0,0,0,0,0,0,0,0,0,-1,1518,344,0,0
301,680,0,0,0,0,0,0,0,0,0,-1,1525,344,0,0
308,680,0,0,0,0,0,0,0,0,0,-1,1532,344,0,0
315,680,0,0,0,0,0,0,0,0,0,-1,1539,344,0,0
322,680,0,0,0,0,0,0,0,0,0,-1,1546,344,0,0
329,680,0,0,0,0,0,0,0,0,0,-1,1553,344,0,0
336,680,0,0,0,0,0,0,0,0,0,-1,1560,344,0,0
343,680,0,0,0,0,0,0,0,0,0,-1,1567,344,0,0
350,680,0,0,0,0,0,0,0,0,0,-1,1574,344,0,0
357,680,0,0,0,0,0,0,0,0,0,-1,1581,344,0,0
364,680,0,0,0,0,0,0,0,0,0,-1,1588,344,0,0
371,680,0,0,0,0,0,0,0,0,0,-1,1595,344,0,0
378,680,0,0,0,0,0,0,0,0,0,-1,1602,344,0,0
385,680,0,0,0,0,0,0,0,0,0,-1,1609,344,0,0
392,680,0,0,0,0,0,0,0,0,0,-1,1616,344,0,0
399,680,0,0,0,0,0,0,0,0,0,-1,1623,344,0,0
406,680,0,0,0,0,0,0,0,0,0,-1,1630,344,0,0
413,680,0,0,0,0,0,0,0,0,0,-1,1637,344,0,0
420,680,0,0,0,0,0,0,0,0,0,-1,1644,344,0,0
427,680,0,0,0,0,0,0,0,0,0,-1,1651,344,0,0
434,680,0,0,0,0,0,0,0,0,0,-1,1658,344,0,0
441,680,0,0,0,0,0,0,0,0,0,-1,1665,344,0,0
448,680,0,0,0,0,0,0,0,0,0,-1,1672,344,0,0
455,680,0,0,0,0,0,0,0,0,0,-1,1679,344,0,0
462,680,0,0,0,0,0,0,0,0,0,-1,1686,344,0,0
469,680,0,0,0,0,0,0,0,0,0,-1,1693,344,0,0
476,680,0,0,0,0,0,0,0,0,0,-1,1700,344,0,0
483,680,0,0,0,0,0,0,0,0,0,-1,1707,344,0,0
490,680,0,0,0,0,0,0,0,0,0,-1,1714,344,0,0
497,680,0,0,0,0,0,0,0,0,0,-1,1721,344,0,0
504,680,0,0,0,0,0,0,0,0,0,-1,1728,344,0,0
511,680,0,0,0,0,0,0,0,0,0,-1,1735,344,0,0
518,680,0,0,0,0,0,0,0,0,0,-1,1742,344,0,0
525,680,0,0,0,0,0,0,0,0,0,-1,1749,344,0,0
532,680,0,0,0,0,0,0,0,0,0,-1,1756,344,0,0
539,680,0,0,0,0,0,0,0,0,0,-1,1763,344,0,0
546,680,0,0,0,0,0,0,0,0,0,-1,1770,344,0,0
553,680,0,0,0,0,0,0,0,0,0,-1,1777,344,0,0
560,680,0,0,0,0,0,0,0,0,0,-1,1784,344,0,0
567,680,0,0,0,0,0,0,0,0,0,-1,1791,344,0,0
574,680,0,0,0,0,0,0,0,0,0,-1,1798,344,0,0
581,680,0,0,0,0,0,0,0,0,0,-1,1805,344,0,0
588,680,0,0,0,0,0,0,0,0,0,-1,1812,344,0,0
595,680,0,0,0,0,0,0,0,0,0,-1,1819,344,0,0
602,680,0,0,0,0,0,0,0,0,0,-1,1826,344,0,0
609,680,0,0,0,0,0,0,0,0,0,-1,1833,344,0,0
616,680,0,0,0,0,0,0,0,0,0,-1,1840,344,0,0
623,680,0,0,0,0,0,0,0,0,0,-1,1847,344,0,0
630,680,0,0,0,0,0,0,0,0,0,-1,1854,344,0,0
637,680,0,0,0,0,0,0,0,0,0,-1,1861,344,0,0
644,680,0,0,0,0,0,0,0,0,0,-1,1868,344,0,0
651,680,0,0,0,0,0,0,0,0,0,-1,1875,344,0,0
658,680,0,0,0,0,0,0,0,0,0,-1,1882,344,0,0
665,680,0,0,0,0,0,0,0,0,0,-1,1889,344,0,0
672,680,0,0,0,0,0,0,0,0,0,-1,1896,344,0,0
679,680,0,0,0,0,0,0,0,0,0,-1,1903,344,0,0
686,680,0,0,0,0,0,0,0,0,0,-1,1910,344,0,0
693,680,0,0,0,0,0,0,0,0,0,-1,1917,344,0,0
700,680,0,0,0,0,0,0,0,0,0,-1,1924,344,0,0
707,680,0,0,0,0,0,0,0,0,0,-1,1931,344,0,0
714,680,0,0,0,0,0,0,0,0,0,-1,1938,344,0,0
721,680,0,0,0,0,0,0,0,0,0,-1,1945,344,0,0
728,680,0,0,0,0,0,0,0,0,0,-1,1952,344,0,0
735,680,0,0,0,0,0,0,0,0,0,-1,1959,344,0,0
742,680,0,0,0,0,0,0,0,0,0,-1,1966,344,0,0
749,680,0,0,0,0,0,0,0,0,0,-1,1973,344,0,0
756,680,0,0,0,0,0,0,0,0,0,-1,1980,344,0,0
763,680,0,0,0,0,0,0,0,0,0,-1,1987,344,0,0
770,680,0,0,0,0,0,0,0,0,0,-1,1994,344,0,0
777,680,0,0,0,0,0,0,0,0,0,-1,2001,344,0,0
784,680,0,0,0,0,0,0,0,0,0,-1,2008,344,0,0
791,680,0,0,0,0,0,0,0,0,0,-1,2015,344,0,0
798,680,0,0,0,0,0,0,0,0,0,-1,2022,344,0,0
805,680,0,0,0,0,0,0,0,0,0,-1,2029,344,0,0
812,680,0,0,0,0,0,0,0,0,0,-1,2036,344,0,0
-700,673,0,0,0,0,0,0,0,0,0,-1,524,351,0,0
-693,673,0,0,0,0,0,0,0,0,0,-1,531,351,0,0
-686,673,0,0,0,0,0,0,0,0,0,-1,538,351,0,0
-679,673,0,0,0,0,0,0,0,0,0,-1,545,351,0,0
-672,673,0,0,0,0,0,0,0,0,0,-1,552,351,0,0
-665,673,0,0,0,0,0,0,0,0,0,-1,559,351,0,0
-658,673,0,0,0,0,0,0,0,0,0,-1,566,351,0,0
-651,673,0,0,0,0,0,0,0,0,0,-1,573,351,0,0
-644,673,0,0,0,0,0,0,0,0,0,-1,580,351,0,0
-637,673,0,0,0,0,0,0,0,0,0,-1,587,351,0,0
-630,673,0,0,0,0,0,0,0,0,0,-1,594,351,0,0
-623,673,0,0,0,0,0,0,0,0,0,-1,601,351,0,0
-616,673,0,0,0,0,0,0,0,0,0,-1,608,351,0,0
-609,673,0,0,0,0,0,0,0,0,0,-1,615,351,0,0
-602,673,0,0,0,0,0,0,0,0,0,-1,622,351,0,0
-595,673,0,0,0,0,0,0,0,0,0,-1,629,351,0,0
-588,673,0,0,0,0,0,0,0,0,0,-1,636,351,0,0
-581,673,0,0,0,0,0,0,0,0,0,-1,643,351,0,0
-574,673,0,0,0,0,0,0,0,0,0,-1,650,351,0,0
-567,673,0,0,0,0,0,0,0,0,0,-1,657,351,0,0
-560,673,0,0,0,0,0,0,0,0,0,-1,664,351,0,0
-553,673,0,0,0,0,0,0,0,0,0,-1,671,351,0,0
-546,673,0,0,0,0,0,0,0,0,0,-1,678,351,0,0
-539,673,0,0,0,0,0,0,0,0,0,-1,685,351,0,0
-532,673,0,0,0,0,0,0,0,0,0,-1,692,351,0,0
-525,673,0,0,0,0,0,0,0,0,0,-1,699,351,0,0
-518,673,0,0,0,0,0,0,0,0,0,-1,706,351,0,0
-511,673,0,0,0,0,0,0,0,0,0,-1,713,351,0,0
-504,673,0,0,0,0,0,0,0,0,0,-1,720,351,0,0
-497,673,0,0,0,0,0,0,0,0,0,-1,727,351,0,0
-490,673,0,0,0,0,0,0,0,0,0,-1,734,351,0,0
-483,673,0,0,0,0,0,0,0,0,0,-1,741,351,0,0
-476,673,0,0,0,0,0,0,0,0,0,-1,748,351,0,0
-469,673,0,0,0,0,0,0,0,0,0,-1,755,351,0,0
-462,673,0,0,0,0,0,0,0,0,0,-1,762,351,0,0
-455,673,0,0,0,0,0,0,0,0,0,-1,769,351,0,0
-448,673,0,0,0,0,0,0,0,0,0,-1,776,351,0,0
-441,673,0,0,0,0,0,0,0,0,0,-1,783,351,0,0
-434,673,0,0,0,0,0,0,0,0,0,-1,790,351,0,0
-427,673,0,0,0,0,0,0,0,0,0,-1,797,351,0,0
-420,673,0,0,0,0,0,0,0,0,0,-1,804,351,0,0
-413,673,0,0,0,0,0,0,0,0,0,-1,811,351,0,0
-406,673,0,0,0,0,0,0,0,0,0,-1,818,351,0,0
-399,673,0,0,0,0,0,0,0,0,0,-1,825,351,0,0
-392,673,0,0,0,0,0,0,0,0,0,-1,832,351,0,0
-385,673,0,0,0,0,0,0,0,0,0,-1,839,351,0,0
-378,673,0,0,0,0,0,0,0,0,0,-1,846,351,0,0
-371,673,0,0,0,0,0,0,0,0,0,-1,853,351,0,0
-364,673,0,0,0,0,0,0,0,0,0,-1,860,351,0,0
-357,673,0,0,0,0,0,0,0,0,0,-1,867,351,0,0
-350,673,0,0,0,0,0,0,0,0,0,-1,874,351,0,0
-343,673,0,0,0,0,0,0,0,0,0,-1,881,351,0,0
-336,673,0,0,0,0,0,0,0,0,0,-1,888,351,0,0
-329,673,0,0,0,0,0,0,0,0,0,-1,895,351,0,0
-322,673,0,0,0,0,0,0,0,0,0,-1,902,351,0,0
-315,673,0,0,0,0,0,0,0,0,0,-1,909,351,0,0
-308,673,0,0,0,0,0,0,0,0,0,-1,916,351,0,0
-301,673,0,0,0,0,0,0,0,0,0,-1,923,351,0,0
-294,673,0,0,0,0,0,0,0,0,0,-1,930,351,0,0
-287,673,0,0,0,0,0,0,0,0,0,-1,937,351,0,0
-280,673,0,0,0,0,0,0,0,0,0,-1,944,351,0,0
-273,673,0,0,0,0,0,0,0,0,0,-1,951,351,0,0
-266,673,0,0,0,0,0,0,0,0,0,-1,958,351,0,0
-259,673,0,0,0,0,0,0,0,0,0,-1,965,351,0,0
-252,673,0,0,0,0,0,0,0,0,0,-1,972,351,0,0
-245,673,0,0,0,0,0,0,0,0,0,-1,979,351,0,0
-238,673,0,0,0,0,0,0,0,0,0,-1,986,351,0,0
-231,673,0,0,0,0,0,0,0,0,0,-1,993,351,0,0
-224,673,0,0,0,0,0,0,0,0,0,-1,1000,351,0,0
-217,673,0,0,0,0,0,0,0,0,0,-1,1007,351,0,0
-210,673,0,0,0,0,0,0,0,0,0,-1,1014,351,0,0
-203,673,0,0,0,0,0,0,0,0,0,-1,1021,351,0,0
-196,673,0,0,0,0,0,0,0,0,0,-1,1028,351,0,0
-189,673,0,0,0,0,0,0,0,0,0,-1,1035,351,0,0
-182,673,0,0,0,0,0,0,0,0,0,-1,1042,351,0,0
-175,673,0.35144,-5.74207,0,0,0,0,0,0,0,-1,1049,351,0.35139,5.74208
-168,673,0.501221,-5.83353,0,0,0,0,0,0,0,-1,1056,351,0.501161,5.83354
-161,673,0.677124,-5.85788,0,0,0,0,0,0,0,-1,1063,351,0.677079,5.85789
-154,673,0.936157,-9.47067,0,0,0,0,0,0,0,-1,1070,351,0.936157,9.47068
-147,673,0.962891,-9.51715,0,0,0,0,0,0,0,-1,1077,351,0.962883,9.51715
-140,673,1.02637,-9.36319,0,0,0,0,0,0,0,-1,1084,351,1.0264,9.36318
-133,673,1.34253,-8.63806,-0.00421015,-0.0079628,0.00780287,0.00193882,-0.0141118,0.667405,0.0101162,0.0436398,1091,351,1.3425,8.63805
-126,673,1.63464,-7.90875,-0.0114281,0.00981978,0.000425748,0.00982831,-0.0114366,1.55077,0.012289,0.0427897,1098,351,1.63469,7.90874
-119,673,1.95508,-7.33054,0,0,0,0,0,0,0,-1,1105,351,1.95502,7.33053
-112,673,2.05371,-6.30484,0,0,0,0,0,0,0,-1,1112,351,2.05368,6.30483
-105,673,2.82629,-5.53525,0,0,0,0,0,0,0,-1,1119,351,2.82626,5.53524
-98,673,3.57874,-5.21503,-0.0446001,0.0773736,-0.0274767,0.0832774,-0.050504,-1.35915,0.0780075,0.0472652,1126,351,3.5787,5.21502
-91,673,2.0769,-6.74942,-0.0498486,0.0883842,-0.0317802,0.0953405,-0.0568049,-1.35531,0.0887754,0.0497052,1133,351,2.07696,6.74943
-84,673,2.59912,-6.50293,0,0,0,0,0,0,0,-1,1140,351,2.59909,6.50293
-77,673,2.36157,-7.52881,0,0,0,0,0,0,0,-1,1147,351,2.36159,7.5288
-70,673,1.88684,-4.7381,0,0,0,0,0,0,0,-1,1154,351,1.88682,4.73809
-63,673,1.11719,-2.95016,0,0,0,0,0,0,0,-1,1161,351,1.11724,2.95016
-56,673,-6.18872,-9.52338,0,0,0,0,0,0,0,-1,1168,351,-6.18874,9.52336
-49,673,-0.926758,-0.115448,0,0,0,0,0,0,0,-1,1175,351,-0.926732,0.115444
-42,673,-1.15015,0.289917,0,0,0,0,0,0,0,-1,1182,351,-1.15017,-0.289932
-35,673,-0.919556,-1.00711,0,0,0,0,0,0,0,-1,1189,351,-0.919514,1.00711
-28,673,1.03564,-2.58228,0,0,0,0,0,0,0,-1,1196,351,1.0356,2.58229
-21,673,1.32654,-8.95398,0,0,0,0,0,0,0,-1,1203,351,1.32658,8.95399
-14,673,1.61438,-8.98184,0,0,0,0,0,0,0,-1,1210,351,1.61439,8.98184
-7,673,1.99109,-8.93188,0.00802855,-0.0113689,0.00561127,0.00953481,-0.0128751,0.262252,0.0129862,0.0418659,1217,351,1.99106,8.9319
0,673,2.0553,-8.91525,0.0065327,-0.0112876,0.00439302,0.0075568,-0.0123117,0.22903,0.0115801,0.0425811,1224,351,2.05534,8.91525
7,673,2.10938,-8.97989,0.00639345,-0.0110883,0.00312497,0.00693526,-0.0116301,0.171676,0.0108324,0.0431033,1231,351,2.10939,8.97987
14,673,2.09424,-8.96909,0.00754163,-0.0112866,0.00142246,0.00764849,-0.0113934,0.0749824,0.0110645,0.0375995,1238,351,2.09429,8.96908
21,673,2.0011,-8.95874,0.00866767,-0.0110942,-0.00029273,0.008672,-0.0110986,-0.0148085,0.0114432,0.0230193,1245,351,2.00115,8.95873
28,673,1.98254,-8.9895,0.0112142,-0.0100641,-0.00255471,0.0115166,-0.0103665,-0.117831,0.01264,0.0153548,1252,351,1.98257,8.98951
35,673,1.97668,-9.0361,0.0146489,-0.00923422,-0.00504948,0.0156726,-0.0102579,-0.200024,0.0150794,0.0225274,1259,351,1.97664,9.03611
42,673,1.91736,-9.03778,0.0173499,-0.0041245,-0.00600849,0.0189167,-0.00569134,-0.25509,0.0148757,0.0255913,1266,351,1.91738,9.03779
49,673,1.91211,-9.03009,0.0190762,-0.000878279,-0.0073336,0.0214815,-0.00328356,-0.316926,0.0155317,0.0166688,1273,351,1.91212,9.03008
56,673,1.92969,-9.00314,0.0208887,0.00333885,-0.00850046,0.0243309,-0.0001033,-0.384755,0.0162551,0.0140144,1280,351,1.92971,9.00314
63,673,1.94702,-8.97211,0.0222208,0.00723033,-0.00897691,0.0264202,0.00303098,-0.437553,0.0166951,0.0166106,1287,351,1.94698,8.97211
70,673,1.8623,-8.95709,0.0233126,0.0115535,-0.00852598,0.0277897,0.00707636,-0.483542,0.0166759,0.0238076,1294,351,1.86236,8.9571
77,673,1.89868,-8.91855,0.0235644,0.0160247,-0.00735467,0.0280591,0.01153,-0.548569,0.0162854,0.033615,1301,351,1.89873,8.91854
84,673,1.90857,-9.18008,0.0233951,0.0196534,-0.00560244,0.0274308,0.0156177,-0.624249,0.0158879,0.0395971,1308,351,1.90851,9.18009
91,673,1.72021,-9.33813,0.0220487,0.0238988,-0.0036877,0.0267757,0.0191718,-0.908287,0.0159326,0.0435973,1315,351,1.72021,9.33815
98,673,1.68787,-8.9216,0.0211467,0.0267118,-0.00085139,0.0268391,0.0210194,-1.42233,0.0163028,0.0453078,1322,351,1.68789,8.92159
105,673,1.65491,-8.86295,0.0205185,0.0292621,0.00300688,0.0301963,0.0195843,1.26955,0.0176885,0.0433913,1329,351,1.65487,8.86294
112,673,1.73499,-8.83679,0.0190467,0.0308173,0.00668522,0.0338386,0.0160253,1.14632,0.0195458,0.0428687,1336,351,1.73501,8.83678
119,673,1.85754,-8.80814,0.0179587,0.0323494,0.0105875,0.0379552,0.0123529,1.08385,0.0223541,0.039108,1343,351,1.8576,8.80815
126,673,1.83325,-8.79663,0.0181307,0.0329835,0.0143738,0.041736,0.00937817,1.02384,0.0252845,0.0392873,1350,351,1.83328,8.79663
133,673,1.82495,-8.82532,0.018433,0.033926,0.0185222,0.0462564,0.00610262,0.983458,0.0290181,0.0411892,1357,351,1.82498,8.82533
140,673,1.83984,-8.83704,0.0191357,0.0359078,0.0226816,0.051704,0.0033395,0.962469,0.0334119,0.043494,1364,351,1.8398,8.83703
147,673,1.55005,-8.73663,0.0204907,0.037184,0.0262935,0.0564239,0.00125086,0.939088,0.037206,0.0430569,1371,351,1.55005,8.73665
154,673,1.61975,-8.70636,0.0218847,0.0407671,0.0301211,0.062892,-0.000240143,0.93727,0.0420083,0.040506,1378,351,1.61977,8.70634
161,673,1.78723,-8.496,0,0,0,0,0,0,0,-1,1385,351,1.78719,8.496
168,673,6.87061,1.83954,0,0,0,0,0,0,0,-1,1392,351,6.87063,-1.83953
175,673,6.6228,1.1459,0,0,0,0,0,0,0,-1,1399,351,6.62276,-1.14591
182,673,6.37244,0.796112,0,0,0,0,0,0,0,-1,1406,351,6.3724,-0.796102
189,673,6.12097,0.265472,0,0,0,0,0,0,0,-1,1413,351,6.121,-0.265482
196,673,6.02173,3.12717,0,0,0,0,0,0,0,-1,1420,351,6.02176,-3.12717
203,673,5.04456,1.6351,0,0,0,0,0,0,0,-1,1427,351,5.04455,-1.63509
210,673,4.79224,0.447479,0,0,0,0,0,0,0,-1,1434,351,4.79229,-0.447469
217,673,2.01648,0.972687,0,0,0,0,0,0,0,-1,1441,351,2.01644,-0.972691
224,673,2.30627,0.131836,0,0,0,0,0,0,0,-1,1448,351,2.3063,-0.131824
231,673,2.66956,-0.675812,0,0,0,0,0,0,0,-1,1455,351,2.66953,0.675811
238,673,3.24146,-1.01593,0,0,0,0,0,0,0,-1,1462,351,3.24142,1.01593
245,673,3.5376,-0.190399,0,0,0,0,0,0,0,-1,1469,351,3.53759,0.1904
252,673,3.80518,0.55603,0,0,0,0,0,0,0,-1,1476,351,3.80519,-0.556022
259,673,3.88562,1.29617,0,0,0,0,0,0,0,-1,1483,351,3.88562,-1.29618
266,673,4.22424,2.04834,0,0,0,0,0,0,0,-1,1490,351,4.22429,-2.04834
273,673,6.07886,0.385895,0,0,0,0,0,0,0,-1,1497,351,6.0789,-0.385906
280,673,6.97534,-0.0820007,0,0,0,0,0,0,0,-1,1504,351,6.97536,0.0820122
287,673,7.66968,-0.348541,0,0,0,0,0,0,0,-1,1511,351,7.66969,0.348534
294,673,8.20996,0.28537,0,0,0,0,0,0,0,-1,1518,351,8.20993,-0.28536
301,673,0,0,0,0,0,0,0,0,0,-1,1525,351,0,0
308,673,0,0,0,0,0,0,0,0,0,-1,1532,351,0,0
315,673,0,0,0,0,0,0,0,0,0,-1,1539,351,0,0
322,673,0,0,0,0,0,0,0,0,0,-1,1546,351,0,0
329,673,0,0,0,0,0,0,0,0,0,-1,1553,351,0,0
336,673,0,0,0,0,0,0,0,0,0,-1,1560,351,0,0
343,673,0,0,0,0,0,0,0,0,0,-1,1567,351,0,0
350,673,0,0,0,0,0,0,0,0,0,-1,1574,351,0,0
357,673,0,0,0,0,0,0,0,0,0,-1,1581,351,0,0
364,673,0,0,0,0,0,0,0,0,0,-1,1588,351,0,0
371,673,0,0,0,0,0,0,0,0,0,-1,1595,351,0,0
378,673,0,0,0,0,0,0,0,0,0,-1,1602,351,0,0
385,673,0,0,0,0,0,0,0,0,0,-1,1609,351,0,0
392,673,0,0,0,0,0,0,0,0,0,-1,1616,351,0,0
399,673,0,0,0,0,0,0,0,0,0,-1,1623,351,0,0
406,673,0,0,0,0,0,0,0,0,0,-1,1630,351,0,0
413,673,0,0,0,0,0,0,0,0,0,-1,1637,351,0,0
420,673,0,0,0,0,0,0,0,0,0,-1,1644,351,0,0
427,673,0,0,0,0,0,0,0,0,0,-1,1651,351,0,0
434,673,0,0,0,0,0,0,0,0,0,-1,1658,351,0,0
441,673,0,0,0,0,0,0,0,0,0,-1,1665,351,0,0
448,673,0,0,0,0,0,0,0,0,0,-1,1672,351,0,0
455,673,0,0,0,0,0,0,0,0,0,-1,1679,351,0,0
462,673,0,0,0,0,0,0,0,0,0,-1,1686,351,0,0
469,673,0,0,0,0,0,0,0,0,0,-1,1693,351,0,0
476,673,0,0,0,0,0,0,0,0,0,-1,1700,351,0,0
483,673,0,0,0,0,0,0,0,0,0,-1,1707,351,0,0
490,673,0,0,0,0,0,0,0,0,0,-1,1714,351,0,0
497,673,0,0,0,0,0,0,0,0,0,-1,1721,351,0,0
504,673,0,0,0,0,0,0,0,0,0,-1,1728,351,0,0
511,673,0,0,0,0,0,0,0,0,0,-1,1735,351,0,0
518,673,0,0,0,0,0,0,0,0,0,-1,1742,351,0,0
525,673,0,0,0,0,0,0,0,0,0,-1,1749,351,0,0
532,673,0,0,0,0,0,0,0,0,0,-1,1756,351,0,0
539,673,0,0,0,0,0,0,0,0,0,-1,1763,351,0,0
546,673,0,0,0,0,0,0,0,0,0,-1,1770,351,0,0
553,673,0,0,0,0,0,0,0,0,0,-1,1777,351,0,0
560,673,0,0,0,0,0,0,0,0,0,-1,1784,351,0,0
567,673,0,0,0,0,0,0,0,0,0,-1,1791,351,0,0
574,673,0,0,0,0,0,0,0,0,0,-1,1798,351,0,0
581,673,0,0,0,0,0,0,0,0,0,-1,1805,351,0,0
588,673,0,0,0,0,0,0,0,0,0,-1,1812,351,0,0
595,673,0,0,0,0,0,0,0,0,0,-1,1819,351,0,0
602,673,0,0,0,0,0,0,0,0,0,-1,1826,351,0,0
609,673,0,0,0,0,0,0,0,0,0,-1,1833,351,0,0
616,673,0,0,0,0,0,0,0,0,0,-1,1840,351,0,0
623,673,0,0,0,0,0,0,0,0,0,-1,1847,351,0,0
630,673,0,0,0,0,0,0,0,0,0,-1,1854,351,0,0
637,673,0,0,0,0,0,0,0,0,0,-1,1861,351,0,0
644,673,0,0,0,0,0,0,0,0,0,-1,1868,351,0,0
651,673,0,0,0,0,0,0,0,0,0,-1,1875,351,0,0
658,673,0,0,0,0,0,0,0,0,0,-1,1882,351,0,0
665,673,0,0,0,0,0,0,0,0,0,-1,1889,351,0,0
672,673,0,0,0,0,0,0,0,0,0,-1,1896,351,0,0
679,673,0,0,0,0,0,0,0,0,0,-1,1903,351,0,0
686,673,0,0,0,0,0,0,0,0,0,-1,1910,351,0,0
693,673,0,0,0,0,0,0,0,0,0,-1,1917,351,0,0
700,673,0,0,0,0,0,0,0,0,0,-1,1924,351,0,0
707,673,0,0,0,0,0,0,0,0,0,-1,1931,351,0,0
714,673,0,0,0,0,0,0,0,0,0,-1,1938,351,0,0
721,673,0,0,0,0,0,0,0,0,0,-1,1945,351,0,0
728,673,0,0,0,0,0,0,0,0,0,-1,1952,351,0,0
735,673,0,0,0,0,0,0,0,0,0,-1,1959,351,0,0
742,673,0,0,0,0,0,0,0,0,0,-1,1966,351,0,0
749,673,0,0,0,0,0,0,0,0,0,-1,1973,351,0,0
756,673,0,0,0,0,0,0,0,0,0,-1,1980,351,0,0
763,673,0,0,0,0,0,0,0,0,0,-1,1987,351,0,0
770,673,0,0,0,0,0,0,0,0,0,-1,1994,351,0,0
777,673,0,0,0,0,0,0,0,0,0,-1,2001,351,0,0
784,673,0,0,0,0,0,0,0,0,0,-1,2008,351,0,0
791,673,0,0,0,0,0,0,0,0,0,-1,2015,351,0,0
798,673,0,0,0,0,0,0,0,0,0,-1,2022,351,0,0
805,673,0,0,0,0,0,0,0,0,0,-1,2029,351,0,0
812,673,0,0,0,0,0,0,0,0,0,-1,2036,351,0,0
-700,666,0,0,0,0,0,0,0,0,0,-1,524,358,0,0
-693,666,0,0,0,0,0,0,0,0,0,-1,531,358,0,0
-686,666,0,0,0,0,0,0,0,0,0,-1,538,358,0,0
-679,666,0,0,0,0,0,0,0,0,0,-1,545,358,0,0
-672,666,0,0,0,0,0,0,0,0,0,-1,552,358,0,0
-665,666,0,0,0,0,0,0,0,0,0,-1,559,358,0,0
-658,666,0,0,0,0,0,0,0,0,0,-1,566,358,0,0
-651,666,0,0,0,0,0,0,0,0,0,-1,573,358,0,0
-644,666,0,0,0,0,0,0,0,0,0,-1,580,358,0,0
-637,666,0,0,0,0,0,0,0,0,0,-1,587,358,0,0
-630,666,0,0,0,0,0,0,0,0,0,-1,594,358,0,0
-623,666,0,0,0,0,0,0,0,0,0,-1,601,358,0,0
-616,666,0,0,0,0,0,0,0,0,0,-1,608,358,0,0
-609,666,0,0,0,0,0,0,0,0,0,-1,615,358,0,0
-602,666,0,0,0,0,0,0,0,0,0,-1,622,358,0,0
-595,666,0,0,0,0,0,0,0,0,0,-1,629,358,0,0
-588,666,0,0,0,0,0,0,0,0,0,-1,636,358,0,0
-581,666,0,0,0,0,0,0,0,0,0,-1,643,358,0,0
-574,666,0,0,0,0,0,0,0,0,0,-1,650,358,0,0
-567,666,0,0,0,0,0,0,0,0,0,-1,657,358,0,0
-560,666,0,0,0,0,0,0,0,0,0,-1,664,358,0,0
-553,666,0,0,0,0,0,0,0,0,0,-1,671,358,0,0
-546,666,0,0,0,0,0,0,0,0,0,-1,678,358,0,0
-539,666,0,0,0,0,0,0,0,0,0,-1,685,358,0,0
-532,666,0,0,0,0,0,0,0,0,0,-1,692,358,0,0
-525,666,0,0,0,0,0,0,0,0,0,-1,699,358,0,0
-518,666,0,0,0,0,0,0,0,0,0,-1,706,358,0,0
-511,666,0,0,0,0,0,0,0,0,0,-1,713,358,0,0
-504,666,0,0,0,0,0,0,0,0,0,-1,720,358,0,0
-497,666,0,0,0,0,0,0,0,0,0,-1,727,358,0,0
-490,666,0,0,0,0,0,0,0,0,0,-1,734,358,0,0
-483,666,0,0,0,0,0,0,0,0,0,-1,741,358,0,0
-476,666,0,0,0,0,0,0,0,0,0,-1,748,358,0,0
-469,666,0,0,0,0,0,0,0,0,0,-1,755,358,0,0
-462,666,0,0,0,0,0,0,0,0,0,-1,762,358,0,0
-455,666,0,0,0,0,0,0,0,0,0,-1,769,358,0,0
-448,666,0,0,0,0,0,0,0,0,0,-1,776,358,0,0
-441,666,0,0,0,0,0,0,0,0,0,-1,783,358,0,0
-434,666,0,0,0,0,0,0,0,0,0,-1,790,358,0,0
-427,666,0,0,0,0,0,0,0,0,0,-1,797,358,0,0
-420,666,0,0,0,0,0,0,0,0,0,-1,804,358,0,0
-413,666,0,0,0,0,0,0,0,0,0,-1,811,358,0,0
-406,666,0,0,0,0,0,0,0,0,0,-1,818,358,0,0
-399,666,0,0,0,0,0,0,0,0,0,-1,825,358,0,0
-392,666,0,0,0,0,0,0,0,0,0,-1,832,358,0,0
-385,666,0,0,0,0,0,0,0,0,0,-1,839,358,0,0
-378,666,0,0,0,0,0,0,0,0,0,-1,846,358,0,0
-371,666,0,0,0,0,0,0,0,0,0,-1,853,358,0,0
-364,666,0,0,0,0,0,0,0,0,0,-1,860,358,0,0
-357,666,0,0,0,0,0,0,0,0,0,-1,867,358,0,0
-350,666,0,0,0,0,0,0,0,0,0,-1,874,358,0,0
-343,666,0,0,0,0,0,0,0,0,0,-1,881,358,0,0
-336,666,0,0,0,0,0,0,0,0,0,-1,888,358,0,0
-329,666,0,0,0,0,0,0,0,0,0,-1,895,358,0,0
-322,666,0,0,0,0,0,0,0,0,0,-1,902,358,0,0
-315,666,0,0,0,0,0,0,0,0,0,-1,909,358,0,0
-308,666,0,0,0,0,0,0,0,0,0,-1,916,358,0,0
-301,666,0,0,0,0,0,0,0,0,0,-1,923,358,0,0
-294,666,0,0,0,0,0,0,0,0,0,-1,930,358,0,0
-287,666,0,0,0,0,0,0,0,0,0,-1,937,358,0,0
-280,666,0,0,0,0,0,0,0,0,0,-1,944,358,0,0
-273,666,0,0,0,0,0,0,0,0,0,-1,951,358,0,0
-266,666,0,0,0,0,0,0,0,0,0,-1,958,358,0,0
-259,666,0,0,0,0,0,0,0,0,0,-1,965,358,0,0
-252,666,0,0,0,0,0,0,0,0,0,-1,972,358,0,0
-245,666,0,0,0,0,0,0,0,0,0,-1,979,358,0,0
-238,666,0,0,0,0,0,0,0,0,0,-1,986,358,0,0
-231,666,0,0,0,0,0,0,0,0,0,-1,993,358,0,0
-224,666,0,0,0,0,0,0,0,0,0,-1,1000,358,0,0
-217,666,0,0,0,0,0,0,0,0,0,-1,1007,358,0,0
-210,666,0,0,0,0,0,0,0,0,0,-1,1014,358,0,0
-203,666,0,0,0,0,0,0,0,0,0,-1,1021,358,0,0
-196,666,1.68958,-9.41406,0,0,0,0,0,0,0,-1,1028,358,1.68961,9.41406
-189,666,1.67078,-11.9919,0,0,0,0,0,0,0,-1,1035,358,1.67079,11.9919
-182,666,7.30676,-6.88602,0,0,0,0,0,0,0,-1,1042,358,7.30672,6.88601
-175,666,0.79187,-6.52982,0,0,0,0,0,0,0,-1,1049,358,0.791903,6.52981
-168,666,1.16724,-6.63406,0,0,0,0,0,0,0,-1,1056,358,1.16726,6.63406
-161,666,2.18884,-7.68436,0,0,0,0,0,0,0,-1,1063,358,2.18883,7.68435
-154,666,1.22925,-9.84055,0,0,0,0,0,0,0,-1,1070,358,1.2293,9.84055
-147,666,1.28748,-9.32532,-0.00302756,-0.0341865,0.0147015,0.00281382,-0.0400278,0.378206,0.0276709,0.0463925,1077,358,1.28742,9.32533
-140,666,1.33484,-8.75955,-0.00407354,-0.021706,0.00991053,0.00037464,-0.0261542,0.421884,0.0175623,0.0437399,1084,358,1.3349,8.75954
-133,666,1.51929,-8.20413,-0.00451256,-0.00588589,0.00629085,0.00112899,-0.0115274,0.731037,0.00808759,0.043837,1091,358,1.51923,8.20414
-126,666,1.83398,-7.53888,-0.00895006,0.00820206,0.00109666,0.0082719,-0.0090199,1.5072,0.00998653,0.0434128,1098,358,1.83398,7.53887
-119,666,2.20178,-7.10925,0,0,0,0,0,0,0,-1,1105,358,2.20182,7.10925
-112,666,2.74121,-6.48343,0,0,0,0,0,0,0,-1,1112,358,2.74122,6.48342
-105,666,3.61365,-5.95801,0,0,0,0,0,0,0,-1,1119,358,3.61367,5.95801
-98,666,4.24438,-5.72574,-0.0299162,0.0589255,-0.0179989,0.0624335,-0.0334242,-1.37831,0.0561819,0.0469665,1126,358,4.24443,5.72573
-91,666,2.0166,-7.15244,-0.032906,0.0669247,-0.0207567,0.0710685,-0.0370497,-1.37375,0.0634437,0.0457289,1133,358,2.01655,7.15243
-84,666,2.5116,-7.07971,-0.0339298,0.0694611,-0.0221572,0.0740094,-0.0384781,-1.36833,0.0660158,0.0466341,1140,358,2.51162,7.0797
-77,666,2.90393,-6.84283,0,0,0,0,0,0,0,-1,1147,358,2.90396,6.84283
-70,666,2.05957,-6.51086,0,0,0,0,0,0,0,-1,1154,358,2.05959,6.51088
-63,666,1.47485,-3.79593,0,0,0,0,0,0,0,-1,1161,358,1.47481,3.79593
-56,666,0.424683,-2.04132,0,0,0,0,0,0,0,-1,1168,358,0.424665,2.04132
-49,666,0.754395,-2.23169,0,0,0,0,0,0,0,-1,1175,358,0.754383,2.23169
-42,666,1.34473,-3.53897,0,0,0,0,0,0,0,-1,1182,358,1.34476,3.53896
-35,666,1.74817,-9.09839,0,0,0,0,0,0,0,-1,1189,358,1.74813,9.0984
-28,666,1.99475,-8.85352,0,0,0,0,0,0,0,-1,1196,358,1.99475,8.85353
-21,666,1.99988,-8.86343,0,0,0,0,0,0,0,-1,1203,358,1.99988,8.86344
-14,666,1.77759,-8.99023,0,0,0,0,0,0,0,-1,1210,358,1.77755,8.99023
-7,666,1.98108,-8.95392,0.00476575,-0.00865613,0.00344988,0.00560056,-0.00949094,0.237419,0.00880906,0.0144411,1217,358,1.98106,8.95393
0,666,1.99756,-8.94629,0.00402854,-0.00855596,0.00282429,0.00463332,-0.00916075,0.21095,0.00810573,0.0104611,1224,358,1.99755,8.94628
7,666,2.00696,-8.98914,0.00414317,-0.00840792,0.00204211,0.00446707,-0.00873182,0.1573,0.00775184,0.0141684,1231,358,2.00692,8.98914
14,666,1.9928,-9.00058,0.00509666,-0.00851554,0.000956233,0.00516351,-0.00858239,0.0697914,0.0080176,0.0141601,1238,358,1.99277,9.00057
21,666,1.96265,-9.00302,0.00603829,-0.00827193,-0.000174803,0.00604042,-0.00827407,-0.0122128,0.00829795,0.00987601,1245,358,1.9627,9.00301
28,666,1.95642,-9.01825,0.00796011,-0.00738221,-0.00169766,0.00814571,-0.00756782,-0.108897,0.00907426,0.00973195,1252,358,1.95642,9.01826
35,666,1.95703,-9.01187,0.0104664,-0.00668364,-0.00338938,0.0111119,-0.00732919,-0.188208,0.0107214,0.0091136,1259,358,1.95704,9.01187
42,666,1.94482,-9.01776,0.0123027,-0.00244478,-0.00376151,0.0132067,-0.00334878,-0.235856,0.0101074,0.0110456,1266,358,1.94483,9.01775
49,666,1.92212,-9.02042,0.013408,0.000139424,-0.00456998,0.0148297,-0.00128225,-0.3016,0.0103404,0.0102783,1273,358,1.92211,9.0204
56,666,1.9325,-9.01157,0.0146044,0.00346783,-0.00528728,0.0167148,0.00135751,-0.379758,0.0107194,0.0116117,1280,358,1.93244,9.01155
63,666,1.91943,-9.01215,0.0155206,0.00655565,-0.00554757,0.0181703,0.00390594,-0.445596,0.0110442,0.0129746,1287,358,1.9194,9.01214
70,666,1.88684,-9.0076,0.0162788,0.00986344,-0.00515207,0.0191402,0.00700209,-0.506962,0.0111824,0.0123329,1294,358,1.88686,9.00759
77,666,1.86987,-8.97357,0.0163843,0.0132053,-0.00425548,0.0193374,0.0102521,-0.606661,0.0111712,0.0167953,1301,358,1.86985,8.97357
84,666,1.88599,-8.96103,0.0161807,0.0158636,-0.00295155,0.0189779,0.0130663,-0.758565,0.0112135,0.0241397,1308,358,1.88602,8.96102
91,666,1.87561,-8.96368,0.015139,0.0187644,-0.00161002,0.0193762,0.0145272,-1.20767,0.0116427,0.0224053,1315,358,1.87556,8.96367
98,666,1.8241,-8.94672,0.0143775,0.0205055,0.000303912,0.0205206,0.0143625,1.52136,0.0121591,0.0184326,1322,358,1.82409,8.94671
105,666,1.78491,-8.87976,0.0139265,0.0219315,0.0029111,0.0228782,0.0129798,1.25638,0.0132486,0.0187101,1329,358,1.78494,8.87976
112,666,1.78455,-8.83722,0.0129494,0.0226344,0.00534712,0.0250059,0.0105779,1.15336,0.0144941,0.0219707,1336,358,1.78455,8.83721
119,666,1.80017,-8.79633,0.0122305,0.0232678,0.00789539,0.027382,0.00811623,1.09042,0.01624,0.0230148,1343,358,1.80022,8.79631
126,666,1.79565,-8.75061,0.0123668,0.0232457,0.0103412,0.0294908,0.00612166,1.02751,0.017971,0.0226452,1350,358,1.79562,8.75062
133,666,1.80408,-8.71451,0.012527,0.0233438,0.0130157,0.0320301,0.00384073,0.98231,0.0201952,0.0215104,1357,358,1.80406,8.71451
140,666,1.73584,-8.70779,0.0129126,0.0242014,0.0156659,0.0352087,0.00190526,0.958308,0.0228638,0.0212235,1364,358,1.7358,8.70779
147,666,1.70227,-8.67072,0.0138927,0.0237733,0.017576,0.0370901,0.000575848,0.922404,0.0245371,0.0200631,1371,358,1.70226,8.67071
154,666,1.74194,-8.57858,0.0149364,0.0256965,0.0199408,0.0409703,-0.000337392,0.917161,0.0274267,0.0178146,1378,358,1.74194,8.57858
161,666,1.78894,-8.53732,0.0149716,0.0271843,0.0221968,0.0440994,-0.00194348,0.919629,0.0300684,0.0243688,1385,358,1.78894,8.53731
168,666,1.82617,-8.53156,0,0,0,0,0,0,0,-1,1392,358,1.82613,8.53156
175,666,2.04419,-8.74384,0,0,0,0,0,0,0,-1,1399,358,2.04418,8.74384
182,666,2.60876,-5.17068,0,0,0,0,0,0,0,-1,1406,358,2.6088,5.17068
189,666,2.46973,-5.49979,0,0,0,0,0,0,0,-1,1413,358,2.46975,5.49979
196,666,2.32458,-5.23651,0,0,0,0,0,0,0,-1,1420,358,2.32461,5.23653
203,666,2.28064,-3.88004,0,0,0,0,0,0,0,-1,1427,358,2.28059,3.88003
210,666,3.02576,-5.83548,0,0,0,0,0,0,0,-1,1434,358,3.02581,5.83547
217,666,2.30444,-5.36011,0,0,0,0,0,0,0,-1,1441,358,2.30447,5.3601
224,666,1.82324,-6.03101,0,0,0,0,0,0,0,-1,1448,358,1.82322,6.031
231,666,1.86816,-7.36942,0,0,0,0,0,0,0,-1,1455,358,1.86818,7.36941
238,666,2.52429,-6.10568,0,0,0,0,0,0,0,-1,1462,358,2.52423,6.10567
245,666,4.53345,-1.38205,0,0,0,0,0,0,0,-1,1469,358,4.53349,1.38204
252,666,4.77405,-0.246979,0,0,0,0,0,0,0,-1,1476,358,4.77405,0.246993
259,666,4.83655,1.14087,0,0,0,0,0,0,0,-1,1483,358,4.83652,-1.14087
266,666,6.14148,0.749512,0,0,0,0,0,0,0,-1,1490,358,6.14144,-0.749519
273,666,2.61304,-1.53772,0,0,0,0,0,0,0,-1,1497,358,2.613,1.53773
280,666,8.70898,-0.836975,0,0,0,0,0,0,0,-1,1504,358,8.70894,0.836988
287,666,9.28748,-0.256653,0,0,0,0,0,0,0,-1,1511,358,9.28745,0.256655
294,666,9.87,-1.10745,0,0,0,0,0,0,0,-1,1518,358,9.87,1.10745
301,666,2.8064,-3.51654,0,0,0,0,0,0,0,-1,1525,358,2.80635,3.51654
308,666,1.08496,-1.87576,0,0,0,0,0,0,0,-1,1532,358,1.08491,1.87575
315,666,1.76294,-0.284027,0,0,0,0,0,0,0,-1,1539,358,1.76291,0.284016
322,666,0,0,0,0,0,0,0,0,0,-1,1546,358,0,0
329,666,0,0,0,0,0,0,0,0,0,-1,1553,358,0,0
336,666,0,0,0,0,0,0,0,0,0,-1,1560,358,0,0
343,666,0,0,0,0,0,0,0,0,0,-1,1567,358,0,0
350,666,0,0,0,0,0,0,0,0,0,-1,1574,358,0,0
357,666,0,0,0,0,0,0,0,0,0,-1,1581,358,0,0
364,666,0,0,0,0,0,0,0,0,0,-1,1588,358,0,0
371,666,0,0,0,0,0,0,0,0,0,-1,1595,358,0,0
378,666,0,0,0,0,0,0,0,0,0,-1,1602,358,0,0
385,666,0,0,0,0,0,0,0,0,0,-1,1609,358,0,0
392,666,0,0,0,0,0,0,0,0,0,-1,1616,358,0,0
399,666,0,0,0,0,0,0,0,0,0,-1,1623,358,0,0
406,666,0,0,0,0,0,0,0,0,0,-1,1630,358,0,0
413,666,0,0,0,0,0,0,0,0,0,-1,1637,358,0,0
420,666,0,0,0,0,0,0,0,0,0,-1,1644,358,0,0
427,666,0,0,0,0,0,0,0,0,0,-1,1651,358,0,0
434,666,0,0,0,0,0,0,0,0,0,-1,1658,358,0,0
441,666,0,0,0,0,0,0,0,0,0,-1,1665,358,0,0
448,666,0,0,0,0,0,0,0,0,0,-1,1672,358,0,0
455,666,0,0,0,0,0,0,0,0,0,-1,1679,358,0,0
462,666,0,0,0,0,0,0,0,0,0,-1,1686,358,0,0
469,666,0,0,0,0,0,0,0,0,0,-1,1693,358,0,0
476,666,0,0,0,0,0,0,0,0,0,-1,1700,358,0,0
483,666,0,0,0,0,0,0,0,0,0,-1,1707,358,0,0
490,666,0,0,0,0,0,0,0,0,0,-1,1714,358,0,0
497,666,0,0,0,0,0,0,0,0,0,-1,1721,358,0,0
504,666,0,0,0,0,0,0,0,0,0,-1,1728,358,0,0
511,666,0,0,0,0,0,0,0,0,0,-1,1735,358,0,0
518,666,0,0,0,0,0,0,0,0,0,-1,1742,358,0,0
525,666,0,0,0,0,0,0,0,0,0,-1,1749,358,0,0
532,666,0,0,0,0,0,0,0,0,0,-1,1756,358,0,0
539,666,0,0,0,0,0,0,0,0,0,-1,1763,358,0,0
546,666,0,0,0,0,0,0,0,0,0,-1,1770,358,0,0
553,666,0,0,0,0,0,0,0,0,0,-1,1777,358,0,0
560,666,0,0,0,0,0,0,0,0,0,-1,1784,358,0,0
567,666,0,0,0,0,0,0,0,0,0,-1,1791,358,0,0
574,666,0,0,0,0,0,0,0,0,0,-1,1798,358,0,0
581,666,0,0,0,0,0,0,0,0,0,-1,1805,358,0,0
588,666,0,0,0,0,0,0,0,0,0,-1,1812,358,0,0
595,666,0,0,0,0,0,0,0,0,0,-1,1819,358,0,0
602,666,0,0,0,0,0,0,0,0,0,-1,1826,358,0,0
609,666,0,0,0,0,0,0,0,0,0,-1,1833,358,0,0
616,666,0,0,0,0,0,0,0,0,0,-1,1840,358,0,0
623,666,0,0,0,0,0,0,0,0,0,-1,1847,358,0,0
630,666,0,0,0,0,0,0,0,0,0,-1,1854,358,0,0
637,666,0,0,0,0,0,0,0,0,0,-1,1861,358,0,0
644,666,0,0,0,0,0,0,0,0,0,-1,1868,358,0,0
651,666,0,0,0,0,0,0,0,0,0,-1,1875,358,0,0
658,666,0,0,0,0,0,0,0,0,0,-1,1882,358,0,0
665,666,0,0,0,0,0,0,0,0,0,-1,1889,358,0,0
672,666,0,0,0,0,0,0,0,0,0,-1,1896,358,0,0
679,666,0,0,0,0,0,0,0,0,0,-1,1903,358,0,0
686,666,0,0,0,0,0,0,0,0,0,-1,1910,358,0,0
693,666,0,0,0,0,0,0,0,0,0,-1,1917,358,0,0
700,666,0,0,0,0,0,0,0,0,0,-1,1924,358,0,0
707,666,0,0,0,0,0,0,0,0,0,-1,1931,358,0,0
714,666,0,0,0,0,0,0,0,0,0,-1,1938,358,0,0
721,666,0,0,0,0,0,0,0,0,0,-1,1945,358,0,0
728,666,0,0,0,0,0,0,0,0,0,-1,1952,358,0,0
735,666,0,0,0,0,0,0,0,0,0,-1,1959,358,0,0
742,666,0,0,0,0,0,0,0,0,0,-1,1966,358,0,0
749,666,0,0,0,0,0,0,0,0,0,-1,1973,358,0,0
756,666,0,0,0,0,0,0,0,0,0,-1,1980,358,0,0
763,666,0,0,0,0,0,0,0,0,0,-1,1987,358,0,0
770,666,0,0,0,0,0,0,0,0,0,-1,1994,358,0,0
777,666,0,0,0,0,0,0,0,0,0,-1,2001,358,0,0
784,666,0,0,0,0,0,0,0,0,0,-1,2008,358,0,0
791,666,0,0,0,0,0,0,0,0,0,-1,2015,358,0,0
798,666,0,0,0,0,0,0,0,0,0,-1,2022,358,0,0
805,666,0,0,0,0,0,0,0,0,0,-1,2029,358,0,0
812,666,0,0,0,0,0,0,0,0,0,-1,2036,358,0,0
-700,659,0,0,0,0,0,0,0,0,0,-1,524,365,0,0
-693,659,0,0,0,0,0,0,0,0,0,-1,531,365,0,0
-686,659,0,0,0,0,0,0,0,0,0,-1,538,365,0,0
-679,659,0,0,0,0,0,0,0,0,0,-1,545,365,0,0
-672,659,0,0,0,0,0,0,0,0,0,-1,552,365,0,0
-665,659,0,0,0,0,0,0,0,0,0,-1,559,365,0,0
-658,659,0,0,0,0,0,0,0,0,0,-1,566,365,0,0
-651,659,0,0,0,0,0,0,0,0,0,-1,573,365,0,0
-644,659,0,0,0,0,0,0,0,0,0,-1,580,365,0,0
-637,659,0,0,0,0,0,0,0,0,0,-1,587,365,0,0
-630,659,0,0,0,0,0,0,0,0,0,-1,594,365,0,0
-623,659,0,0,0,0,0,0,0,0,0,-1,601,365,0,0
-616,659,0,0,0,0,0,0,0,0,0,-1,608,365,0,0
-609,659,0,0,0,0,0,0,0,0,0,-1,615,365,0,0
-602,659,0,0,0,0,0,0,0,0,0,-1,622,365,0,0
-595,659,0,0,0,0,0,0,0,0,0,-1,629,365,0,0
-588,659,0,0,0,0,0,0,0,0,0,-1,636,365,0,0
-581,659,0,0,0,0,0,0,0,0,0,-1,643,365,0,0
-574,659,0,0,0,0,0,0,0,0,0,-1,650,365,0,0
-567,659,0,0,0,0,0,0,0,0,0,-1,657,365,0,0
-560,659,0,0,0,0,0,0,0,0,0,-1,664,365,0,0
-553,659,0,0,0,0,0,0,0,0,0,-1,671,365,0,0
-546,659,0,0,0,0,0,0,0,0,0,-1,678,365,0,0
-539,659,0,0,0,0,0,0,0,0,0,-1,685,365,0,0
-532,659,0,0,0,0,0,0,0,0,0,-1,692,365,0,0
-525,659,0,0,0,0,0,0,0,0,0,-1,699,365,0,0
-518,659,0,0,0,0,0,0,0,0,0,-1,706,365,0,0
-511,659,0,0,0,0,0,0,0,0,0,-1,713,365,0,0
-504,659,0,0,0,0,0,0,0,0,0,-1,720,365,0,0
-497,659,0,0,0,0,0,0,0,0,0,-1,727,365,0,0
-490,659,0,0,0,0,0,0,0,0,0,-1,734,365,0,0
-483,659,0,0,0,0,0,0,0,0,0,-1,741,365,0,0
-476,659,0,0,0,0,0,0,0,0,0,-1,748,365,0,0
-469,659,0,0,0,0,0,0,0,0,0,-1,755,365,0,0
-462,659,0,0,0,0,0,0,0,0,0,-1,762,365,0,0
-455,659,0,0,0,0,0,0,0,0,0,-1,769,365,0,0
-448,659,0,0,0,0,0,0,0,0,0,-1,776,365,0,0
-441,659,0,0,0,0,0,0,0,0,0,-1,783,365,0,0
-434,659,0,0,0,0,0,0,0,0,0,-1,790,365,0,0
-427,659,0,0,0,0,0,0,0,0,0,-1,797,365,0,0
-420,659,0,0,0,0,0,0,0,0,0,-1,804,365,0,0
-413,659,0,0,0,0,0,0,0,0,0,-1,811,365,0,0
-406,659,0,0,0,0,0,0,0,0,0,-1,818,365,0,0
-399,659,0,0,0,0,0,0,0,0,0,-1,825,365,0,0
-392,659,0,0,0,0,0,0,0,0,0,-1,832,365,0,0
-385,659,0,0,0,0,0,0,0,0,0,-1,839,365,0,0
-378,659,0,0,0,0,0,0,0,0,0,-1,846,365,0,0
-371,659,0,0,0,0,0,0,0,0,0,-1,853,365,0,0
-364,659,0,0,0,0,0,0,0,0,0,-1,860,365,0,0
-357,659,0,0,0,0,0,0,0,0,0,-1,867,365,0,0
-350,659,0,0,0,0,0,0,0,0,0,-1,874,365,0,0
-343,659,0,0,0,0,0,0,0,0,0,-1,881,365,0,0
-336,659,0,0,0,0,0,0,0,0,0,-1,888,365,0,0
-329,659,0,0,0,0,0,0,0,0,0,-1,895,365,0,0
-322,659,0,0,0,0,0,0,0,0,0,-1,902,365,0,0
-315,659,0,0,0,0,0,0,0,0,0,-1,909,365,0,0
-308,659,0,0,0,0,0,0,0,0,0,-1,916,365,0,0
-301,659,0,0,0,0,0,0,0,0,0,-1,923,365,0,0
-294,659,0,0,0,0,0,0,0,0,0,-1,930,365,0,0
-287,659,0,0,0,0,0,0,0,0,0,-1,937,365,0,0
-280,659,0,0,0,0,0,0,0,0,0,-1,944,365,0,0
-273,659,0,0,0,0,0,0,0,0,0,-1,951,365,0,0
-266,659,0,0,0,0,0,0,0,0,0,-1,958,365,0,0
-259,659,0,0,0,0,0,0,0,0,0,-1,965,365,0,0
-252,659,0,0,0,0,0,0,0,0,0,-1,972,365,0,0
-245,659,0,0,0,0,0,0,0,0,0,-1,979,365,0,0
-238,659,0,0,0,0,0,0,0,0,0,-1,986,365,0,0
-231,659,0,0,0,0,0,0,0,0,0,-1,993,365,0,0
-224,659,0,0,0,0,0,0,0,0,0,-1,1000,365,0,0
-217,659,1.62122,-1.10727,0,0,0,0,0,0,0,-1,1007,365,1.62123,1.10728
-210,659,0.368042,-7.90527,0,0,0,0,0,0,0,-1,1014,365,0.368058,7.90528
-203,659,2.09253,-9.38916,0,0,0,0,0,0,0,-1,1021,365,2.09255,9.38917
-196,659,2.74927,-10.1771,0,0,0,0,0,0,0,-1,1028,365,2.74931,10.1771
-189,659,1.65295,-11.0335,0,0,0,0,0,0,0,-1,1035,365,1.65292,11.0335
-182,659,2.13037,-11.0247,0,0,0,0,0,0,0,-1,1042,365,2.1304,11.0248
-175,659,1.48779,-6.67892,0,0,0,0,0,0,0,-1,1049,365,1.48785,6.67892
-168,659,1.83423,-6.94656,0,0,0,0,0,0,0,-1,1056,365,1.8342,6.94656
-161,659,0.155884,-7.78314,0,0,0,0,0,0,0,-1,1063,365,0.155896,7.78313
-154,659,1.75842,-9.67117,0,0,0,0,0,0,0,-1,1070,365,1.75845,9.67117
-147,659,1.66345,-9.37085,-0.00472623,-0.0277938,0.0108103,-0.000452071,-0.032068,0.376515,0.0212296,0.0448458,1077,365,1.6634,9.37084
-140,659,1.52429,-8.76202,-0.00467864,-0.0174233,0.00735621,-0.00131853,-0.0207834,0.428471,0.0134377,0.0447395,1084,365,1.52425,8.76202
-133,659,1.6991,-8.05008,-0.0043202,-0.00449215,0.00487967,0.00047425,-0.0092866,0.776589,0.00635505,0.0457204,1091,365,1.69904,8.05008
-126,659,2.03894,-7.3223,0,0,0,0,0,0,0,-1,1098,365,2.039,7.32228
-119,659,2.52869,-6.63492,0,0,0,0,0,0,0,-1,1105,365,2.52866,6.63492
-112,659,3.42871,-6.66202,0,0,0,0,0,0,0,-1,1112,365,3.42876,6.66201
-105,659,4.40112,-6.38077,0,0,0,0,0,0,0,-1,1119,365,4.40108,6.38078
-98,659,1.72888,-7.75732,-0.0198119,0.0438678,-0.0116978,0.0459487,-0.0218928,-1.39475,0.0399807,0.0394616,1126,365,1.72882,7.75733
-91,659,2.04663,-7.83405,-0.0214107,0.0495835,-0.0134547,0.0520478,-0.0238751,-1.38964,0.0448288,0.0386623,1133,365,2.04668,7.83403
-84,659,2.13513,-8.40167,-0.0219215,0.0511582,-0.0143339,0.0538691,-0.0246324,-1.38388,0.0463588,0.0385402,1140,365,2.13512,8.40166
-77,659,2.05847,-8.4043,-0.022335,0.0509118,-0.0147365,0.0537655,-0.0251886,-1.37952,0.0465688,0.0446601,1147,365,2.05842,8.40431
-70,659,2.11023,-8.44382,0,0,0,0,0,0,0,-1,1154,365,2.11029,8.44382
-63,659,2.07092,-8.38095,0,0,0,0,0,0,0,-1,1161,365,2.07091,8.38095
-56,659,1.995,-8.33838,0,0,0,0,0,0,0,-1,1168,365,1.99494,8.33838
-49,659,2.00061,-8.79034,0,0,0,0,0,0,0,-1,1175,365,2.00056,8.79035
-42,659,2.02344,-8.85349,0,0,0,0,0,0,0,-1,1182,365,2.02345,8.85349
-35,659,1.96252,-8.96109,0.00367126,0.00169296,0.00226031,0.00514938,0.000214837,0.579143,0.0033636,0.0409971,1189,365,1.96255,8.96108
-28,659,2.00977,-8.94217,0.002198,-0.00465655,0.00188079,0.00268015,-0.0051387,0.250949,0.004588,0.016098,1196,365,2.00976,8.94218
-21,659,2.00891,-8.91766,0.00250517,-0.00536325,0.00172115,0.00286519,-0.00572326,0.206198,0.00504924,0.011318,1203,365,2.00886,8.91767
-14,659,1.99707,-8.95837,0.00295298,-0.00629307,0.00190442,0.00332988,-0.00666997,0.195379,0.00587978,0.0079103,1210,365,1.99711,8.95836
-7,659,1.97644,-8.98703,0.00271158,-0.00620014,0.00211432,0.00318776,-0.00667633,0.221522,0.00581254,0.00709415,1217,365,1.97642,8.98704
0,659,1.96094,-8.9902,0.00239995,-0.00614974,0.00181353,0.00276872,-0.00651852,0.200611,0.00550575,0.00726337,1224,365,1.96096,8.9902
7,659,1.94653,-8.99258,0.00260173,-0.00606855,0.00132703,0.00280029,-0.00626711,0.148527,0.00536109,0.00766526,1231,365,1.94654,8.99259
14,659,1.93872,-9.0029,0.00318367,-0.00609074,0.000682911,0.00323369,-0.00614076,0.0731084,0.0054984,0.00975268,1238,365,1.9387,9.0029
21,659,1.93689,-9.0069,0.00386442,-0.00585666,-4.58731e-05,0.00386464,-0.00585688,-0.00471879,0.00565187,0.0100673,1245,365,1.93695,9.00689
28,659,1.94165,-9.01401,0.00520279,-0.00514319,-0.00103943,0.00530619,-0.00524659,-0.0991471,0.00609268,0.0092038,1252,365,1.9416,9.01401
35,659,1.94104,-9.01669,0.00691012,-0.00459629,-0.0021438,0.00729656,-0.00498273,-0.178344,0.00713128,0.00923432,1259,365,1.94102,9.01668
42,659,1.92822,-9.01804,0.00807043,-0.00127662,-0.00217857,0.00855326,-0.00175945,-0.218102,0.00637017,0.0106109,1266,365,1.92819,9.01802
49,659,1.91711,-9.03137,0.00871735,0.000699479,-0.00262759,0.00950172,-8.4891e-05,-0.290092,0.00636296,0.0107623,1273,365,1.91712,9.03136
56,659,1.90723,-9.03503,0.00945935,0.00323268,-0.00302832,0.0106892,0.00200279,-0.385778,0.00656126,0.0133929,1280,365,1.9072,9.03504
63,659,1.91516,-9.03284,0.0100712,0.00558541,-0.00314278,0.0116894,0.00396727,-0.475477,0.00686393,0.0152155,1287,365,1.91513,9.03285
70,659,1.90845,-9.03015,0.0106076,0.00802664,-0.00280388,0.0124037,0.00623051,-0.569729,0.00716131,0.015479,1294,365,1.90848,9.03015
77,659,1.86487,-9.00323,0.0106606,0.0104295,-0.00212489,0.0126731,0.00841702,-0.758238,0.00744711,0.0170868,1301,365,1.86487,9.00322
84,659,1.86475,-8.97989,0.0105078,0.0122919,-0.00118075,0.0128797,0.00991998,-1.10891,0.00778962,0.0129349,1308,365,1.86478,8.97988
91,659,1.85864,-8.9556,0.00978034,0.0141867,-0.00027293,0.0142035,0.0097635,-1.50917,0.00839021,0.0110948,1315,365,1.8586,8.9556
98,659,1.85828,-8.94614,0.0092234,0.0151718,0.000957221,0.0153221,0.00907316,1.41511,0.00889616,0.00782588,1322,365,1.8583,8.94613
105,659,1.84851,-8.91461,0.00895725,0.0158558,0.00263609,0.0167478,0.00806527,1.24452,0.00967152,0.00840201,1329,365,1.84849,8.91462
112,659,1.84656,-8.88348,0.00836699,0.0160452,0.00416622,0.0178714,0.00654074,1.15768,0.0104409,0.00986872,1336,365,1.84656,8.8835
119,659,1.85156,-8.84357,0.00800386,0.016089,0.00570233,0.0190363,0.0050565,1.09374,0.011386,0.0113751,1343,365,1.85151,8.84358
126,659,1.83582,-8.80099,0.00809378,0.0157469,0.00719406,0.0200688,0.0037719,1.02982,0.0123159,0.0118578,1350,365,1.8358,8.80098
133,659,1.8092,-8.7666,0.00815156,0.0154042,0.00880822,0.0213034,0.00225239,0.980673,0.0135142,0.0106122,1357,365,1.80921,8.76659
140,659,1.78491,-8.71988,0.00832582,0.0155842,0.0103773,0.0229486,0.000961415,0.953612,0.0149888,0.00875815,1364,365,1.78488,8.71989
147,659,1.76965,-8.6756,0.00898243,0.0143598,0.0112033,0.0231925,0.000149697,0.903166,0.015412,0.00794966,1371,365,1.76962,8.67558
154,659,1.76331,-8.62814,0.00968601,0.0152126,0.0125644,0.0253139,-0.000415341,0.89364,0.0170161,0.00889228,1378,365,1.7633,8.62816
161,659,1.77783,-8.59393,0.00953787,0.0157305,0.0138386,0.0268149,-0.00154658,0.895457,0.0184138,0.0104099,1385,365,1.77784,8.59392
168,659,1.81494,-8.57455,0.0090873,0.0163828,0.014663,0.0278449,-0.00237482,0.90731,0.0194034,0.0183749,1392,365,1.81498,8.57455
175,659,1.85156,-8.56027,0.00827384,0.0162025,0.0151867,0.0279337,-0.00345739,0.913069,0.0198755,0.0409231,1399,365,1.85155,8.56027
182,659,1.76196,-8.55734,0,0,0,0,0,0,0,-1,1406,365,1.76193,8.55735
189,659,1.79102,-8.32263,0,0,0,0,0,0,0,-1,1413,365,1.79102,8.32263
196,659,1.78625,-8.04932,0,0,0,0,0,0,0,-1,1420,365,1.78623,8.0493
203,659,1.72412,-8.09244,0,0,0,0,0,0,0,-1,1427,365,1.72408,8.09245
210,659,1.71936,-8.202,0,0,0,0,0,0,0,-1,1434,365,1.7193,8.202
217,659,1.84802,-7.98453,0,0,0,0,0,0,0,-1,1441,365,1.84801,7.98453
224,659,1.8595,-8.02261,0,0,0,0,0,0,0,-1,1448,365,1.85951,8.02262
231,659,1.92188,-7.94522,0,0,0,0,0,0,0,-1,1455,365,1.92182,7.94522
238,659,1.98645,-7.93753,0,0,0,0,0,0,0,-1,1462,365,1.98647,7.93752
245,659,1.76196,-8.16785,0,0,0,0,0,0,0,-1,1469,365,1.76199,8.16786
252,659,1.62488,-8.3027,0,0,0,0,0,0,0,-1,1476,365,1.62483,8.3027
259,659,2.33069,-3.36703,0,0,0,0,0,0,0,-1,1483,365,2.33073,3.36702
266,659,1.99988,-6.19089,0,0,0,0,0,0,0,-1,1490,365,1.99991,6.1909
273,659,1.94824,-5.85742,0,0,0,0,0,0,0,-1,1497,365,1.94823,5.85743
280,659,2.09888,-6.84357,0,0,0,0,0,0,0,-1,1504,365,2.09886,6.84357
287,659,0.756104,-5.24319,0,0,0,0,0,0,0,-1,1511,365,0.756156,5.2432
294,659,4.39294,-5.34583,0,0,0,0,0,0,0,-1,1518,365,4.39292,5.34583
301,659,3.09473,-5.64307,0,0,0,0,0,0,0,-1,1525,365,3.09472,5.64307
308,659,2.48047,-4.8855,0,0,0,0,0,0,0,-1,1532,365,2.4805,4.88549
315,659,2.56055,-0.251129,0,0,0,0,0,0,0,-1,1539,365,2.5605,0.251135
322,659,2.88672,-0.266174,0,0,0,0,0,0,0,-1,1546,365,2.88671,0.266163
329,659,5.20154,-4.3071,0,0,0,0,0,0,0,-1,1553,365,5.20158,4.3071
336,659,2.09851,-1.17941,0,0,0,0,0,0,0,-1,1560,365,2.09857,1.17942
343,659,0,0,0,0,0,0,0,0,0,-1,1567,365,0,0
350,659,0,0,0,0,0,0,0,0,0,-1,1574,365,0,0
357,659,0,0,0,0,0,0,0,0,0,-1,1581,365,0,0
364,659,0,0,0,0,0,0,0,0,0,-1,1588,365,0,0
371,659,0,0,0,0,0,0,0,0,0,-1,1595,365,0,0
378,659,0,0,0,0,0,0,0,0,0,-1,1602,365,0,0
385,659,0,0,0,0,0,0,0,0,0,-1,1609,365,0,0
392,659,0,0,0,0,0,0,0,0,0,-1,1616,365,0,0
399,659,0,0,0,0,0,0,0,0,0,-1,1623,365,0,0
406,659,0,0,0,0,0,0,0,0,0,-1,1630,365,0,0
413,659,0,0,0,0,0,0,0,0,0,-1,1637,365,0,0
420,659,0,0,0,0,0,0,0,0,0,-1,1644,365,0,0
427,659,0,0,0,0,0,0,0,0,0,-1,1651,365,0,0
434,659,0,0,0,0,0,0,0,0,0,-1,1658,365,0,0
441,659,0,0,0,0,0,0,0,0,0,-1,1665,365,0,0
448,659,0,0,0,0,0,0,0,0,0,-1,1672,365,0,0
455,659,0,0,0,0,0,0,0,0,0,-1,1679,365,0,0
462,659,0,0,0,0,0,0,0,0,0,-1,1686,365,0,0
469,659,0,0,0,0,0,0,0,0,0,-1,1693,365,0,0
476,659,0,0,0,0,0,0,0,0,0,-1,1700,365,0,0
483,659,0,0,0,0,0,0,0,0,0,-1,1707,365,0,0
490,659,0,0,0,0,0,0,0,0,0,-1,1714,365,0,0
497,659,0,0,0,0,0,0,0,0,0,-1,1721,365,0,0
504,659,0,0,0,0,0,0,0,0,0,-1,1728,365,0,0
511,659,0,0,0,0,0,0,0,0,0,-1,1735,365,0,0
518,659,0,0,0,0,0,0,0,0,0,-1,1742,365,0,0
525,659,0,0,0,0,0,0,0,0,0,-1,1749,365,0,0
532,659,0,0,0,0,0,0,0,0,0,-1,1756,365,0,0
539,659,0,0,0,0,0,0,0,0,0,-1,1763,365,0,0
546,659,0,0,0,0,0,0,0,0,0,-1,1770,365,0,0
553,659,0,0,0,0,0,0,0,0,0,-1,1777,365,0,0
560,659,0,0,0,0,0,0,0,0,0,-1,1784,365,0,0
567,659,0,0,0,0,0,0,0,0,0,-1,1791,365,0,0
574,659,0,0,0,0,0,0,0,0,0,-1,1798,365,0,0
581,659,0,0,0,0,0,0,0,0,0,-1,1805,365,0,0
588,659,0,0,0,0,0,0,0,0,0,-1,1812,365,0,0
595,659,0,0,0,0,0,0,0,0,0,-1,1819,365,0,0
602,659,0,0,0,0,0,0,0,0,0,-1,1826,365,0,0
609,659,0,0,0,0,0,0,0,0,0,-1,1833,365,0,0
616,659,0,0,0,0,0,0,0,0,0,-1,1840,365,0,0
623,659,0,0,0,0,0,0,0,0,0,-1,1847,365,0,0
630,659,0,0,0,0,0,0,0,0,0,-1,1854,365,0,0
637,659,0,0,0,0,0,0,0,0,0,-1,1861,365,0,0
644,659,0,0,0,0,0,0,0,0,0,-1,1868,365,0,0
651,659,0,0,0,0,0,0,0,0,0,-1,1875,365,0,0
658,659,0,0,0,0,0,0,0,0,0,-1,1882,365,0,0
665,659,0,0,0,0,0,0,0,0,0,-1,1889,365,0,0
672,659,0,0,0,0,0,0,0,0,0,-1,1896,365,0,0
679,659,0,0,0,0,0,0,0,0,0,-1,1903,365,0,0
686,659,0,0,0,0,0,0,0,0,0,-1,1910,365,0,0
693,659,0,0,0,0,0,0,0,0,0,-1,1917,365,0,0
700,659,0,0,0,0,0,0,0,0,0,-1,1924,365,0,0
707,659,0,0,0,0,0,0,0,0,0,-1,1931,365,0,0
714,659,0,0,0,0,0,0,0,0,0,-1,1938,365,0,0
721,659,0,0,0,0,0,0,0,0,0,-1,1945,365,0,0
728,659,0,0,0,0,0,0,0,0,0,-1,1952,365,0,0
735,659,0,0,0,0,0,0,0,0,0,-1,1959,365,0,0
742,659,0,0,0,0,0,0,0,0,0,-1,1966,365,0,0
749,659,0,0,0,0,0,0,0,0,0,-1,1973,365,0,0
756,659,0,0,0,0,0,0,0,0,0,-1,1980,365,0,0
763,659,0,0,0,0,0,0,0,0,0,-1,1987,365,0,0
770,659,0,0,0,0,0,0,0,0,0,-1,1994,365,0,0
777,659,0,0,0,0,0,0,0,0,0,-1,2001,365,0,0
784,659,0,0,0,0,0,0,0,0,0,-1,2008,365,0,0
791,659,0,0,0,0,0,0,0,0,0,-1,2015,365,0,0
798,659,0,0,0,0,0,0,0,0,0,-1,2022,365,0,0
805,659,0,0,0,0,0,0,0,0,0,-1,2029,365,0,0
812,659,0,0,0,0,0,0,0,0,0,-1,2036,365,0,0
-700,652,0,0,0,0,0,0,0,0,0,-1,524,372,0,0
-693,652,0,0,0,0,0,0,0,0,0,-1,531,372,0,0
-686,652,0,0,0,0,0,0,0,0,0,-1,538,372,0,0
-679,652,0,0,0,0,0,0,0,0,0,-1,545,372,0,0
-672,652,0,0,0,0,0,0,0,0,0,-1,552,372,0,0
-665,652,0,0,0,0,0,0,0,0,0,-1,559,372,0,0
-658,652,0,0,0,0,0,0,0,0,0,-1,566,372,0,0
-651,652,0,0,0,0,0,0,0,0,0,-1,573,372,0,0
-644,652,0,0,0,0,0,0,0,0,0,-1,580,372,0,0
-637,652,0,0,0,0,0,0,0,0,0,-1,587,372,0,0
-630,652,0,0,0,0,0,0,0,0,0,-1,594,372,0,0
-623,652,0,0,0,0,0,0,0,0,0,-1,601,372,0,0
-616,652,0,0,0,0,0,0,0,0,0,-1,608,372,0,0
-609,652,0,0,0,0,0,0,0,0,0,-1,615,372,0,0
-602,652,0,0,0,0,0,0,0,0,0,-1,622,372,0,0
-595,652,0,0,0,0,0,0,0,0,0,-1,629,372,0,0
-588,652,0,0,0,0,0,0,0,0,0,-1,636,372,0,0
-581,652,0,0,0,0,0,0,0,0,0,-1,643,372,0,0
-574,652,0,0,0,0,0,0,0,0,0,-1,650,372,0,0
-567,652,0,0,0,0,0,0,0,0,0,-1,657,372,0,0
-560,652,0,0,0,0,0,0,0,0,0,-1,664,372,0,0
-553,652,0,0,0,0,0,0,0,0,0,-1,671,372,0,0
-546,652,0,0,0,0,0,0,0,0,0,-1,678,372,0,0
-539,652,0,0,0,0,0,0,0,0,0,-1,685,372,0,0
-532,652,0,0,0,0,0,0,0,0,0,-1,692,372,0,0
-525,652,0,0,0,0,0,0,0,0,0,-1,699,372,0,0
-518,652,0,0,0,0,0,0,0,0,0,-1,706,372,0,0
-511,652,0,0,0,0,0,0,0,0,0,-1,713,372,0,0
-504,652,0,0,0,0,0,0,0,0,0,-1,720,372,0,0
-497,652,0,0,0,0,0,0,0,0,0,-1,727,372,0,0
-490,652,0,0,0,0,0,0,0,0,0,-1,734,372,0,0
-483,652,0,0,0,0,0,0,0,0,0,-1,741,372,0,0
-476,652,0,0,0,0,0,0,0,0,0,-1,748,372,0,0
-469,652,0,0,0,0,0,0,0,0,0,-1,755,372,0,0
-462,652,0,0,0,0,0,0,0,0,0,-1,762,372,0,0
-455,652,0,0,0,0,0,0,0,0,0,-1,769,372,0,0
-448,652,0,0,0,0,0,0,0,0,0,-1,776,372,0,0
-441,652,0,0,0,0,0,0,0,0,0,-1,783,372,0,0
-434,652,0,0,0,0,0,0,0,0,0,-1,790,372,0,0
-427,652,0,0,0,0,0,0,0,0,0,-1,797,372,0,0
-420,652,0,0,0,0,0,0,0,0,0,-1,804,372,0,0
-413,652,0,0,0,0,0,0,0,0,0,-1,811,372,0,0
-406,652,0,0,0,0,0,0,0,0,0,-1,818,372,0,0
-399,652,0,0,0,0,0,0,0,0,0,-1,825,372,0,0
-392,652,0,0,0,0,0,0,0,0,0,-1,832,372,0,0
-385,652,0,0,0,0,0,0,0,0,0,-1,839,372,0,0
-378,652,0,0,0,0,0,0,0,0,0,-1,846,372,0,0
-371,652,0,0,0,0,0,0,0,0,0,-1,853,372,0,0
-364,652,0,0,0,0,0,0,0,0,0,-1,860,372,0,0
-357,652,0,0,0,0,0,0,0,0,0,-1,867,372,0,0
-350,652,0,0,0,0,0,0,0,0,0,-1,874,372,0,0
-343,652,0,0,0,0,0,0,0,0,0,-1,881,372,0,0
-336,652,0,0,0,0,0,0,0,0,0,-1,888,372,0,0
-329,652,0,0,0,0,0,0,0,0,0,-1,895,372,0,0
-322,652,0,0,0,0,0,0,0,0,0,-1,902,372,0,0
-315,652,0,0,0,0,0,0,0,0,0,-1,909,372,0,0
-308,652,0,0,0,0,0,0,0,0,0,-1,916,372,0,0
-301,652,0,0,0,0,0,0,0,0,0,-1,923,372,0,0
-294,652,0,0,0,0,0,0,0,0,0,-1,930,372,0,0
-287,652,0,0,0,0,0,0,0,0,0,-1,937,372,0,0
-280,652,0,0,0,0,0,0,0,0,0,-1,944,372,0,0
-273,652,0,0,0,0,0,0,0,0,0,-1,951,372,0,0
-266,652,0,0,0,0,0,0,0,0,0,-1,958,372,0,0
-259,652,0,0,0,0,0,0,0,0,0,-1,965,372,0,0
-252,652,0,0,0,0,0,0,0,0,0,-1,972,372,0,0
-245,652,0,0,0,0,0,0,0,0,0,-1,979,372,0,0
-238,652,0,0,0,0,0,0,0,0,0,-1,986,372,0,0
-231,652,-3.17596,-5.87796,0,0,0,0,0,0,0,-1,993,372,-3.17597,5.87796
-224,652,-3.74396,-5.71695,0,0,0,0,0,0,0,-1,1000,372,-3.74397,5.71694
-217,652,-4.52545,-5.19208,0,0,0,0,0,0,0,-1,1007,372,-4.52543,5.19207
-210,652,2.33746,-9.61121,0,0,0,0,0,0,0,-1,1014,372,2.33747,9.61121
-203,652,2.37573,-9.60385,-0.0220775,-0.0469228,0.0060439,-0.0206852,-0.048315,0.226404,0.0279906,0.044002,1021,372,2.37575,9.60386
-196,652,2.40076,-9.9259,-0.0258104,-0.0473556,0.00514803,-0.0246435,-0.0485225,0.222899,0.0280156,0.0431628,1028,372,2.40074,9.92589
-189,652,1.66223,-10.1159,-0.0282609,-0.0458831,0.00421017,-0.0273067,-0.0468373,0.222876,0.0271655,0.0414314,1035,372,1.66229,10.1159
-182,652,1.48743,-9.48428,0,0,0,0,0,0,0,-1,1042,372,1.48746,9.48427
-175,652,1.18347,-8.90283,0,0,0,0,0,0,0,-1,1049,372,1.18344,8.90284
-168,652,2.39221,-8.4426,0,0,0,0,0,0,0,-1,1056,372,2.39224,8.44258
-161,652,3.40894,-8.00797,0,0,0,0,0,0,0,-1,1063,372,3.40891,8.00798
-154,652,2.90894,-8.17761,-0.006035,-0.0296751,0.00900388,-0.00299627,-0.0327139,0.325488,0.0208823,0.0436857,1070,372,2.9089,8.1776
-147,652,2.24915,-8.26523,-0.0051436,-0.0221829,0.0077559,-0.00214202,-0.0251845,0.369254,0.0161231,0.0420515,1077,372,2.24919,8.26522
-140,652,1.86865,-8.1449,-0.00452879,-0.0138697,0.00531006,-0.00212748,-0.016271,0.424697,0.0102123,0.0452273,1084,372,1.86863,8.1449
-133,652,1.8092,-8.11407,-0.00383553,-0.00355171,0.00364005,-5.08113e-05,-0.00733643,0.804881,0.00487411,0.045422,1091,372,1.80915,8.11409
-126,652,2.11365,-8.12506,-0.00532493,0.00486161,0.00113336,0.00498619,-0.0054495,1.46132,0.00602703,0.0402236,1098,372,2.11365,8.12506
-119,652,2.10791,-8.21893,-0.00738338,0.0127247,-0.00133515,0.012813,-0.00747165,-1.50478,0.0118459,0.0334883,1105,372,2.10791,8.21893
-112,652,2.11707,-8.25769,-0.00955891,0.0202778,-0.00365306,0.0207186,-0.00999966,-1.45072,0.0180915,0.0252554,1112,372,2.11711,8.25769
-105,652,2.04407,-8.31229,-0.0116497,0.0268751,-0.00573685,0.0277113,-0.0124858,-1.42607,0.0237563,0.022063,1119,372,2.04412,8.3123
-98,652,2.00586,-8.38864,-0.0128949,0.031914,-0.00753494,0.0331471,-0.0141281,-1.40858,0.0280209,0.0244734,1126,372,2.00588,8.38864
-91,652,2.03809,-8.43466,-0.0136673,0.0359431,-0.00864095,0.037405,-0.0151292,-1.40319,0.0312263,0.0214311,1133,372,2.03807,8.43466
-84,652,2.07556,-8.50073,-0.0139068,0.036908,-0.00918453,0.0385172,-0.0155159,-1.39736,0.0321244,0.016492,1140,372,2.07552,8.50074
-77,652,2.04504,-8.56326,-0.0141884,0.036319,-0.00939996,0.0380117,-0.0158811,-1.39263,0.0319775,0.0144924,1147,372,2.04498,8.56326
-70,652,2.04016,-8.62021,-0.0133541,0.0336119,-0.00878756,0.0352023,-0.0149444,-1.39176,0.0297292,0.0173721,1154,372,2.04012,8.6202
-63,652,2.04028,-8.6394,-0.0108752,0.0281054,-0.00728965,0.029424,-0.0121938,-1.39184,0.024705,0.0325955,1161,372,2.04032,8.63941
-56,652,1.96887,-8.73547,-0.0081882,0.0222171,-0.00568819,0.0232464,-0.00921749,-1.39178,0.0193176,0.0384787,1168,372,1.96891,8.73548
-49,652,1.97754,-8.79065,-0.00483413,0.0153917,-0.00391609,0.0161235,-0.00556588,-1.38607,0.0130075,0.0214559,1175,372,1.97756,8.79065
-42,652,1.98718,-8.82693,-0.000248099,0.00658739,-0.00116345,0.00677999,-0.0004407,-1.40674,0.00467382,0.0102716,1182,372,1.98723,8.82694
-35,652,2.00024,-8.86099,0.00148443,0.00158567,0.00100143,0.00253776,0.000532337,0.81065,0.00154527,0.00825977,1189,372,2.0003,8.86098
-28,652,1.98926,-8.89841,0.000475953,-0.00272007,0.000801575,0.000665723,-0.00290984,0.232466,0.00219571,0.00740336,1196,372,1.98926,8.8984
-21,652,1.97192,-8.93048,0.000604339,-0.00382248,0.000544669,0.000670369,-0.00388851,0.120642,0.00284227,0.00774361,1203,372,1.97196,8.93048
-14,652,1.97192,-8.96613,0.000946424,-0.00469456,0.000663969,0.00102352,-0.00477166,0.1156,0.00357151,0.00875916,1210,372,1.97196,8.96613
-7,652,1.95862,-8.99915,0.0011372,-0.00487774,0.000945137,0.00128222,-0.00502275,0.152245,0.00384779,0.0106129,1217,372,1.95857,8.99915
0,652,1.91956,-9.01755,0.00127508,-0.00490169,0.000897124,0.00140274,-0.00502935,0.141352,0.00390538,0.0110125,1224,372,1.9196,9.01756
7,652,1.92822,-8.98315,0.00163129,-0.00492812,0.000613291,0.00168814,-0.00498497,0.0924305,0.00400638,0.0128278,1231,372,1.92827,8.98314
14,652,1.93823,-8.99973,0.00225286,-0.00501083,0.000231954,0.00226026,-0.00501823,0.03189,0.00430163,0.0103789,1238,372,1.93825,8.99972
21,652,1.93298,-9.00967,0.00292423,-0.00485151,-0.00019857,0.00292929,-0.00485658,-0.0255149,0.00454085,0.00963356,1245,372,1.93296,9.00966
28,652,1.92444,-9.01865,0.00397477,-0.00434704,-0.000720387,0.00403667,-0.00440894,-0.0857164,0.00487765,0.00885617,1252,372,1.92444,9.01864
35,652,1.92249,-9.03421,0.00519854,-0.00394935,-0.00127039,0.00537168,-0.0041225,-0.135458,0.00549726,0.00926832,1259,372,1.92254,9.0342
42,652,1.91223,-9.03894,0.00592058,-0.00141249,-0.000946212,0.0060407,-0.00153261,-0.126278,0.00462347,0.010814,1266,372,1.91225,9.03894
49,652,1.89905,-9.0455,0.00626355,8.09985e-05,-0.00101637,0.00642635,-8.17995e-05,-0.158827,0.00431176,0.0128372,1273,372,1.89903,9.04549
56,652,1.8739,-9.04681,0.00664809,0.0020071,-0.00107194,0.00688372,0.00177148,-0.216371,0.00412738,0.014368,1280,372,1.87393,9.04682
63,652,1.88525,-9.04614,0.00698714,0.00384463,-0.00101338,0.00728558,0.00354619,-0.286408,0.00420682,0.0184738,1287,372,1.8853,9.04613
70,652,1.88855,-9.01959,0.00718803,0.00564536,-0.000691286,0.00745247,0.00538092,-0.365361,0.00444185,0.0158375,1294,372,1.88854,9.0196
77,652,1.9176,-8.9924,0.00699137,0.00738772,-0.000181369,0.00745819,0.00692091,-1.20022,0.00480306,0.0153345,1301,372,1.91755,8.99239
84,652,1.88892,-8.97549,0.00666241,0.00877055,0.000454339,0.0088643,0.00656866,1.36731,0.00531231,0.013392,1308,372,1.88889,8.97549
91,652,1.87195,-8.96979,0.00598676,0.0100039,0.000948399,0.0102166,0.00577411,1.35023,0.00591521,0.01604,1315,372,1.87191,8.96977
98,652,1.88892,-8.94507,0.00536623,0.0105223,0.00155049,0.0109526,0.0049359,1.30006,0.00633375,0.0128398,1322,372,1.88893,8.94507
105,652,1.87866,-8.90509,0.00506242,0.0107362,0.00240922,0.0116211,0.00417744,1.21877,0.00679724,0.0102626,1329,372,1.87869,8.9051
112,652,1.87268,-8.87619,0.00466957,0.010677,0.00319557,0.012059,0.00328763,1.16263,0.0071982,0.00892889,1336,372,1.87271,8.8762
119,652,1.87317,-8.84766,0.00441731,0.010493,0.00395846,0.0124449,0.00246537,1.11268,0.00760912,0.0102686,1343,372,1.87318,8.84765
126,652,1.85205,-8.8168,0.00446893,0.00999014,0.00469554,0.0126765,0.00178261,1.05114,0.00792389,0.0123713,1350,372,1.85199,8.81681
133,652,1.81372,-8.76825,0.00448494,0.00941919,0.00545882,0.0129425,0.000961618,0.997636,0.00832633,0.0125832,1357,372,1.81369,8.76824
140,652,1.80237,-8.71115,0.00455557,0.00920446,0.00621209,0.0135127,0.000247284,0.964424,0.00892721,0.00944559,1364,372,1.80242,8.71116
147,652,1.80298,-8.6683,0.00501426,0.0076761,0.00632215,0.0128059,-0.000115535,0.889142,0.00857604,0.00895274,1371,372,1.80296,8.66829
154,652,1.80688,-8.64011,0.00545679,0.0079619,0.00706859,0.0138881,-0.00046937,0.873088,0.00941906,0.00944043,1378,372,1.80691,8.64011
161,652,1.80603,-8.60623,0.00525443,0.00802637,0.0077695,0.0145326,-0.00125175,0.873663,0.0101314,0.0104352,1385,372,1.80609,8.60624
168,652,1.79602,-8.55267,0.00478327,0.00818773,0.00821098,0.0148711,-0.00190007,0.887606,0.0106043,0.0109903,1392,372,1.79602,8.55267
175,652,1.79456,-8.48514,0.00416804,0.00805793,0.008398,0.0147333,-0.0025073,0.89919,0.0107558,0.0108235,1399,372,1.7946,8.48513
182,652,1.79004,-8.42975,0.0037328,0.0074706,0.00813823,0.0139518,-0.00274837,0.898263,0.0103398,0.0155878,1406,372,1.79,8.42975
189,652,1.79871,-8.34814,0.00252583,0.00671339,0.00781801,0.0127131,-0.00347392,0.916235,0.00983997,0.0187794,1413,372,1.7987,8.34815
196,652,1.771,-8.29559,0.00163376,0.00440783,0.00692209,0.0100805,-0.00403889,0.884277,0.0083969,0.0251281,1420,372,1.77094,8.29558
203,652,1.75977,-8.29874,0.00103544,0.00197351,0.00474717,0.00627476,-0.00326581,0.83464,0.00559882,0.0288655,1427,372,1.75981,8.29873
210,652,1.7854,-8.2005,-0.000564423,0.000153611,0.00297601,0.00279218,-0.00320299,0.845427,0.00346402,0.0222612,1434,372,1.78538,8.2005
217,652,1.83752,-7.9856,-0.000897793,8.29862e-05,0.00314488,0.00277548,-0.00359029,0.862742,0.0036853,0.0228342,1441,372,1.83754,7.98559
224,652,1.83777,-7.91315,-0.00112458,0.000181813,0.00328435,0.00287729,-0.00382006,0.883558,0.00387947,0.0267633,1448,372,1.83782,7.91315
231,652,1.84302,-7.84225,-0.000919137,0.000142496,0.00355929,0.00321034,-0.00398698,0.85942,0.00416343,0.032329,1455,372,1.84306,7.84226
238,652,1.8457,-7.80917,-0.000442762,0.000580409,0.00384245,0.00394518,-0.00380753,0.851579,0.00447626,0.0355719,1462,372,1.84571,7.80918
245,652,1.75793,-7.8645,-0.000293175,0.000662252,0.00375264,0.00396746,-0.00359839,0.848708,0.00436988,0.0356244,1469,372,1.75793,7.8645
252,652,1.6936,-7.83588,-0.000105524,0.000894177,0.00405695,0.00448195,-0.0036933,0.846693,0.0047273,0.0412588,1476,372,1.69359,7.83587
259,652,1.64478,-7.55139,0,0,0,0,0,0,0,-1,1483,372,1.64476,7.55139
266,652,1.73853,-7.34674,0,0,0,0,0,0,0,-1,1490,372,1.73849,7.34675
273,652,1.78821,-7.32846,0,0,0,0,0,0,0,-1,1497,372,1.78826,7.32847
280,652,1.76282,-7.44327,0,0,0,0,0,0,0,-1,1504,372,1.76277,7.44328
287,652,2.02478,-6.69812,0,0,0,0,0,0,0,-1,1511,372,2.02476,6.69813
294,652,1.96094,-7.45663,0,0,0,0,0,0,0,-1,1518,372,1.96095,7.45664
301,652,2.72803,-5.58627,0,0,0,0,0,0,0,-1,1525,372,2.72801,5.58628
308,652,1.55615,-6.3819,0,0,0,0,0,0,0,-1,1532,372,1.5562,6.38188
315,652,1.74426,-5.98007,0,0,0,0,0,0,0,-1,1539,372,1.74426,5.98008
322,652,3.6698,-3.53824,0,0,0,0,0,0,0,-1,1546,372,3.6698,3.53823
329,652,3.80579,-3.18506,0,0,0,0,0,0,0,-1,1553,372,3.80573,3.18506
336,652,4.32825,-3.46991,0,0,0,0,0,0,0,-1,1560,372,4.3282,3.46991
343,652,4.18225,-6.7092,0,0,0,0,0,0,0,-1,1567,372,4.18231,6.70921
350,652,4.64563,-7.2074,0,0,0,0,0,0,0,-1,1574,372,4.6456,7.2074
357,652,0,0,0,0,0,0,0,0,0,-1,1581,372,0,0
364,652,0,0,0,0,0,0,0,0,0,-1,1588,372,0,0
371,652,0,0,0,0,0,0,0,0,0,-1,1595,372,0,0
378,652,0,0,0,0,0,0,0,0,0,-1,1602,372,0,0
385,652,0,0,0,0,0,0,0,0,0,-1,1609,372,0,0
392,652,0,0,0,0,0,0,0,0,0,-1,1616,372,0,0
399,652,0,0,0,0,0,0,0,0,0,-1,1623,372,0,0
406,652,0,0,0,0,0,0,0,0,0,-1,1630,372,0,0
413,652,0,0,0,0,0,0,0,0,0,-1,1637,372,0,0
420,652,0,0,0,0,0,0,0,0,0,-1,1644,372,0,0
427,652,0,0,0,0,0,0,0,0,0,-1,1651,372,0,0
434,652,0,0,0,0,0,0,0,0,0,-1,1658,372,0,0
441,652,0,0,0,0,0,0,0,0,0,-1,1665,372,0,0
448,652,0,0,0,0,0,0,0,0,0,-1,1672,372,0,0
455,652,0,0,0,0,0,0,0,0,0,-1,1679,372,0,0
462,652,0,0,0,0,0,0,0,0,0,-1,1686,372,0,0
469,652,0,0,0,0,0,0,0,0,0,-1,1693,372,0,0
476,652,0,0,0,0,0,0,0,0,0,-1,1700,372,0,0
483,652,0,0,0,0,0,0,0,0,0,-1,1707,372,0,0
490,652,0,0,0,0,0,0,0,0,0,-1,1714,372,0,0
497,652,0,0,0,0,0,0,0,0,0,-1,1721,372,0,0
504,652,0,0,0,0,0,0,0,0,0,-1,1728,372,0,0
511,652,0,0,0,0,0,0,0,0,0,-1,1735,372,0,0
518,652,0,0,0,0,0,0,0,0,0,-1,1742,372,0,0
525,652,0,0,0,0,0,0,0,0,0,-1,1749,372,0,0
532,652,0,0,0,0,0,0,0,0,0,-1,1756,372,0,0
539,652,0,0,0,0,0,0,0,0,0,-1,1763,372,0,0
546,652,0,0,0,0,0,0,0,0,0,-1,1770,372,0,0
553,652,0,0,0,0,0,0,0,0,0,-1,1777,372,0,0
560,652,0,0,0,0,0,0,0,0,0,-1,1784,372,0,0
567,652,0,0,0,0,0,0,0,0,0,-1,1791,372,0,0
574,652,0,0,0,0,0,0,0,0,0,-1,1798,372,0,0
581,652,0,0,0,0,0,0,0,0,0,-1,1805,372,0,0
588,652,0,0,0,0,0,0,0,0,0,-1,1812,372,0,0
595,652,0,0,0,0,0,0,0,0,0,-1,1819,372,0,0
602,652,0,0,0,0,0,0,0,0,0,-1,1826,372,0,0
609,652,0,0,0,0,0,0,0,0,0,-1,1833,372,0,0
616,652,0,0,0,0,0,0,0,0,0,-1,1840,372,0,0
623,652,0,0,0,0,0,0,0,0,0,-1,1847,372,0,0
630,652,0,0,0,0,0,0,0,0,0,-1,1854,372,0,0
637,652,0,0,0,0,0,0,0,0,0,-1,1861,372,0,0
644,652,0,0,0,0,0,0,0,0,0,-1,1868,372,0,0
651,652,0,0,0,0,0,0,0,0,0,-1,1875,372,0,0
658,652,0,0,0,0,0,0,0,0,0,-1,1882,372,0,0
665,652,0,0,0,0,0,0,0,0,0,-1,1889,372,0,0
672,652,0,0,0,0,0,0,0,0,0,-1,1896,372,0,0
679,652,0,0,0,0,0,0,0,0,0,-1,1903,372,0,0
686,652,0,0,0,0,0,0,0,0,0,-1,1910,372,0,0
693,652,0,0,0,0,0,0,0,0,0,-1,1917,372,0,0
700,652,0,0,0,0,0,0,0,0,0,-1,1924,372,0,0
707,652,0,0,0,0,0,0,0,0,0,-1,1931,372,0,0
714,652,0,0,0,0,0,0,0,0,0,-1,1938,372,0,0
721,652,0,0,0,0,0,0,0,0,0,-1,1945,372,0,0
728,652,0,0,0,0,0,0,0,0,0,-1,1952,372,0,0
735,652,0,0,0,0,0,0,0,0,0,-1,1959,372,0,0
742,652,0,0,0,0,0,0,0,0,0,-1,1966,372,0,0
749,652,0,0,0,0,0,0,0,0,0,-1,1973,372,0,0
756,652,0,0,0,0,0,0,0,0,0,-1,1980,372,0,0
763,652,0,0,0,0,0,0,0,0,0,-1,1987,372,0,0
770,652,0,0,0,0,0,0,0,0,0,-1,1994,372,0,0
777,652,0,0,0,0,0,0,0,0,0,-1,2001,372,0,0
784,652,0,0,0,0,0,0,0,0,0,-1,2008,372,0,0
791,652,0,0,0,0,0,0,0,0,0,-1,2015,372,0,0
798,652,0,0,0,0,0,0,0,0,0,-1,2022,372,0,0
805,652,0,0,0,0,0,0,0,0,0,-1,2029,372,0,0
812,652,0,0,0,0,0,0,0,0,0,-1,2036,372,0,0
-700,645,0,0,0,0,0,0,0,0,0,-1,524,379,0,0
-693,645,0,0,0,0,0,0,0,0,0,-1,531,379,0,0
-686,645,0,0,0,0,0,0,0,0,0,-1,538,379,0,0
-679,645,0,0,0,0,0,0,0,0,0,-1,545,379,0,0
-672,645,0,0,0,0,0,0,0,0,0,-1,552,379,0,0
-665,645,0,0,0,0,0,0,0,0,0,-1,559,379,0,0
-658,645,0,0,0,0,0,0,0,0,0,-1,566,379,0,0
-651,645,0,0,0,0,0,0,0,0,0,-1,573,379,0,0
-644,645,0,0,0,0,0,0,0,0,0,-1,580,379,0,0
-637,645,0,0,0,0,0,0,0,0,0,-1,587,379,0,0
-630,645,0,0,0,0,0,0,0,0,0,-1,594,379,0,0
-623,645,0,0,0,0,0,0,0,0,0,-1,601,379,0,0
-616,645,0,0,0,0,0,0,0,0,0,-1,608,379,0,0
-609,645,0,0,0,0,0,0,0,0,0,-1,615,379,0,0
-602,645,0,0,0,0,0,0,0,0,0,-1,622,379,0,0
-595,645,0,0,0,0,0,0,0,0,0,-1,629,379,0,0
-588,645,0,0,0,0,0,0,0,0,0,-1,636,379,0,0
-581,645,0,0,0,0,0,0,0,0,0,-1,643,379,0,0
-574,645,0,0,0,0,0,0,0,0,0,-1,650,379,0,0
-567,645,0,0,0,0,0,0,0,0,0,-1,657,379,0,0
-560,645,0,0,0,0,0,0,0,0,0,-1,664,379,0,0
-553,645,0,0,0,0,0,0,0,0,0,-1,671,379,0,0
-546,645,0,0,0,0,0,0,0,0,0,-1,678,379,0,0
-539,645,0,0,0,0,0,0,0,0,0,-1,685,379,0,0
-532,645,0,0,0,0,0,0,0,0,0,-1,692,379,0,0
-525,645,0,0,0,0,0,0,0,0,0,-1,699,379,0,0
-518,645,0,0,0,0,0,0,0,0,0,-1,706,379,0,0
-511,645,0,0,0,0,0,0,0,0,0,-1,713,379,0,0
-504,645,0,0,0,0,0,0,0,0,0,-1,720,379,0,0
-497,645,0,0,0,0,0,0,0,0,0,-1,727,379,0,0
-490,645,0,0,0,0,0,0,0,0,0,-1,734,379,0,0
-483,645,0,0,0,0,0,0,0,0,0,-1,741,379,0,0
-476,645,0,0,0,0,0,0,0,0,0,-1,748,379,0,0
-469,645,0,0,0,0,0,0,0,0,0,-1,755,379,0,0
-462,645,0,0,0,0,0,0,0,0,0,-1,762,379,0,0
-455,645,0,0,0,0,0,0,0,0,0,-1,769,379,0,0
-448,645,0,0,0,0,0,0,0,0,0,-1,776,379,0,0
-441,645,0,0,0,0,0,0,0,0,0,-1,783,379,0,0
-434,645,0,0,0,0,0,0,0,0,0,-1,790,379,0,0
-427,645,0,0,0,0,0,0,0,0,0,-1,797,379,0,0
-420,645,0,0,0,0,0,0,0,0,0,-1,804,379,0,0
-413,645,0,0,0,0,0,0,0,0,0,-1,811,379,0,0
-406,645,0,0,0,0,0,0,0,0,0,-1,818,379,0,0
-399,645,0,0,0,0,0,0,0,0,0,-1,825,379,0,0
-392,645,0,0,0,0,0,0,0,0,0,-1,832,379,0,0
-385,645,0,0,0,0,0,0,0,0,0,-1,839,379,0,0
-378,645,0,0,0,0,0,0,0,0,0,-1,846,379,0,0
-371,645,0,0,0,0,0,0,0,0,0,-1,853,379,0,0
-364,645,0,0,0,0,0,0,0,0,0,-1,860,379,0,0
-357,645,0,0,0,0,0,0,0,0,0,-1,867,379,0,0
-350,645,0,0,0,0,0,0,0,0,0,-1,874,379,0,0
-343,645,0,0,0,0,0,0,0,0,0,-1,881,379,0,0
-336,645,0,0,0,0,0,0,0,0,0,-1,888,379,0,0
-329,645,0,0,0,0,0,0,0,0,0,-1,895,379,0,0
-322,645,0,0,0,0,0,0,0,0,0,-1,902,379,0,0
-315,645,0,0,0,0,0,0,0,0,0,-1,909,379,0,0
-308,645,0,0,0,0,0,0,0,0,0,-1,916,379,0,0
-301,645,0,0,0,0,0,0,0,0,0,-1,923,379,0,0
-294,645,0,0,0,0,0,0,0,0,0,-1,930,379,0,0
-287,645,0,0,0,0,0,0,0,0,0,-1,937,379,0,0
-280,645,0,0,0,0,0,0,0,0,0,-1,944,379,0,0
-273,645,0,0,0,0,0,0,0,0,0,-1,951,379,0,0
-266,645,0,0,0,0,0,0,0,0,0,-1,958,379,0,0
-259,645,0,0,0,0,0,0,0,0,0,-1,965,379,0,0
-252,645,0.743347,-8.05328,0,0,0,0,0,0,0,-1,972,379,0.743346,8.05328
-245,645,1.33044,-7.66986,0.0517749,-0.0323609,0.0232188,0.0577572,-0.0383432,0.252164,0.0558597,0.0409607,979,379,1.33043,7.66987
-238,645,1.68518,-7.47623,0.0374577,-0.0321428,0.018019,0.041846,-0.0365311,0.238887,0.0452857,0.0424968,986,379,1.68517,7.47622
-231,645,1.97729,-7.08783,0,0,0,0,0,0,0,-1,993,379,1.97729,7.08784
-224,645,-2.62988,-5.69568,0,0,0,0,0,0,0,-1,1000,379,-2.62987,5.69567
-217,645,-3.33527,-5.9166,0,0,0,0,0,0,0,-1,1007,379,-3.33529,5.91658
-210,645,2.6474,-10.0573,0,0,0,0,0,0,0,-1,1014,379,2.6474,10.0572
-203,645,2.67316,-9.8866,-0.0139645,-0.0366671,0.00504159,-0.0128952,-0.0377364,0.208985,0.022148,0.0465652,1021,379,2.67317,9.88661
-196,645,2.23718,-9.66687,-0.0178388,-0.0371099,0.00445536,-0.0168586,-0.0380901,0.216555,0.0220396,0.0425576,1028,379,2.23715,9.66687
-189,645,1.85193,-9.51505,-0.0205127,-0.0360801,0.00365685,-0.0196965,-0.0368963,0.219602,0.0213184,0.0381659,1035,379,1.85192,9.51505
-182,645,1.71667,-8.88516,-0.0196303,-0.0351136,0.00400242,-0.0186568,-0.036087,0.238577,0.0208388,0.0406704,1042,379,1.71668,8.88515
-175,645,1.49475,-8.29971,0,0,0,0,0,0,0,-1,1049,379,1.49474,8.29972
-168,645,2.16479,-8.03973,-0.0128922,-0.0293557,0.00618071,-0.0108301,-0.0314178,0.322019,0.0184284,0.0420413,1056,379,2.1648,8.03974
-161,645,2.13867,-8.14114,-0.0091371,-0.0262043,0.00639083,-0.00700932,-0.0283321,0.321399,0.0170392,0.0419119,1063,379,2.13861,8.14114
-154,645,2.42163,-8.15683,-0.00585636,-0.0230352,0.00630232,-0.00379227,-0.0250993,0.316503,0.015623,0.039955,1070,379,2.42168,8.15684
-147,645,2.19189,-8.07883,-0.00482025,-0.0173202,0.00543397,-0.00278831,-0.0193522,0.357835,0.0120798,0.0383773,1077,379,2.1919,8.07882
-140,645,1.92542,-8.0173,-0.00397378,-0.0108907,0.00373765,-0.00234,-0.0125245,0.412087,0.00768928,0.0351195,1084,379,1.92546,8.0173
-133,645,2.05273,-8.09467,-0.00320592,-0.00285689,0.0026346,-0.000391031,-0.00567178,0.81847,0.00365782,0.0314196,1091,379,2.05274,8.09468
-126,645,2.09143,-8.15411,-0.00398599,0.00347696,0.000921903,0.00358916,-0.00409819,1.44969,0.00444153,0.0238944,1098,379,2.09139,8.15411
-119,645,2.07666,-8.24112,-0.00512497,0.0091189,-0.00071433,0.00915463,-0.0051607,-1.52081,0.0083715,0.0155,1105,379,2.07668,8.24112
-112,645,2.07751,-8.33371,-0.00636715,0.0145582,-0.00223396,0.014794,-0.00660299,-1.46562,0.0126517,0.0114841,1112,379,2.07757,8.33371
-105,645,2.03406,-8.39914,-0.00759726,0.0192515,-0.00359279,0.019724,-0.00806971,-1.44004,0.0165102,0.0119433,1119,379,2.03407,8.39913
-98,645,2.00073,-8.44629,-0.00820312,0.0227516,-0.00481279,0.0234827,-0.00893414,-1.42006,0.0193339,0.013401,1126,379,2.00071,8.4463
-91,645,2.01379,-8.50296,-0.00849064,0.025534,-0.00548711,0.026397,-0.00935365,-1.41479,0.0214082,0.0128247,1133,379,2.01385,8.50295
-84,645,2.00232,-8.57285,-0.00856769,0.0260917,-0.00578908,0.0270331,-0.00950906,-1.4096,0.0218913,0.0118216,1140,379,2.00238,8.57283
-77,645,1.9801,-8.61578,-0.00875586,0.025412,-0.00587053,0.0263925,-0.00973637,-1.4053,0.0215853,0.0106943,1147,379,1.9801,8.61579
-70,645,1.97778,-8.6665,-0.00821269,0.0232885,-0.00543218,0.0241989,-0.00912313,-1.40474,0.019884,0.00996698,1154,379,1.97778,8.66649
-63,645,1.98181,-8.70493,-0.00666961,0.0194395,-0.00448372,0.0201881,-0.00741814,-1.40538,0.0164971,0.0110991,1161,379,1.98175,8.70491
-56,645,1.96423,-8.72751,-0.00502047,0.0153498,-0.00351247,0.0159385,-0.00560911,-1.40475,0.0129082,0.0125272,1168,379,1.96423,8.72751
-49,645,1.9574,-8.77682,-0.00304909,0.0108066,-0.00245814,0.0112298,-0.00347226,-1.40032,0.00887337,0.00975633,1175,379,1.95738,8.77684
-42,645,1.96619,-8.82742,-0.000277819,0.00478831,-0.000809129,0.0049144,-0.000403909,-1.4162,0.00341887,0.00841169,1182,379,1.96614,8.82743
-35,645,1.96631,-8.87802,0.000743356,0.00139889,0.000556177,0.0017167,0.000425551,1.05166,0.00103228,0.0093899,1189,379,1.96633,8.87801
-28,645,1.94629,-8.91623,0.000172362,-0.00146454,0.000461334,0.000293428,-0.0015856,0.256638,0.00116724,0.00843751,1196,379,1.94631,8.91623
-21,645,1.93665,-8.93195,0.000323263,-0.0022777,0.000323448,0.000362882,-0.00231732,0.121884,0.00167896,0.00944156,1203,379,1.93662,8.93195
-14,645,1.9425,-8.95267,0.000607462,-0.00295959,0.000363246,0.000644076,-0.00299621,0.10046,0.0022432,0.00880688,1210,379,1.94254,8.95268
-7,645,1.94434,-8.9986,0.00089697,-0.00321062,0.000491812,0.000955035,-0.00326869,0.117519,0.00255761,0.0116236,1217,379,1.94428,8.99858
0,645,1.92822,-9.02789,0.00107111,-0.00326285,0.000437956,0.00111493,-0.00330666,0.099709,0.00265529,0.0220632,1224,379,1.9282,9.02789
7,645,1.91272,-9.01678,0.00128316,-0.00329481,0.00023301,0.00129499,-0.00330664,0.0507235,0.00274006,0.0153649,1231,379,1.91275,9.01677
14,645,1.91541,-9.01318,0.00159878,-0.00336059,-1.57976e-05,0.00159883,-0.00336064,-0.00318536,0.00292295,0.0141431,1238,379,1.91539,9.01319
21,645,1.91406,-9.03085,0.00199021,-0.00326546,-0.00030033,0.00200731,-0.00328256,-0.0568972,0.00308355,0.00981918,1245,379,1.91402,9.03086
28,645,1.91321,-9.04401,0.00262441,-0.00295804,-0.000522397,0.00267287,-0.00300651,-0.0925082,0.00328088,0.00878663,1252,379,1.91326,9.04402
35,645,1.91406,-9.06049,0.00332966,-0.00273721,-0.000714497,0.00341267,-0.00282022,-0.115662,0.00360398,0.00872597,1259,379,1.91405,9.06048
42,645,1.9198,-9.06329,0.00365055,-0.000994383,-0.000213836,0.00366038,-0.00100421,-0.045907,0.00283491,0.00892975,1266,379,1.91985,9.06328
49,645,1.91003,-9.05566,0.00376916,-1.49582e-06,-2.8545e-05,0.00376938,-1.71212e-06,-0.00756971,0.00251349,0.0115838,1273,379,1.91004,9.05568
56,645,1.89001,-9.04013,0.00388187,0.00129289,0.000199387,0.00389713,0.00127763,0.0764134,0.00229404,0.0117143,1280,379,1.89,9.04013
63,645,1.9043,-9.03049,0.00394293,0.00254278,0.000417063,0.00405775,0.00242797,0.26864,0.0023578,0.0119951,1287,379,1.90433,9.03049
70,645,1.92249,-9.01657,0.00393412,0.00371507,0.000789003,0.00462116,0.00302802,0.716431,0.00271056,0.0145284,1294,379,1.92248,9.01657
77,645,1.93848,-8.9935,0.00364217,0.00481716,0.00123043,0.00559315,0.00286617,1.00813,0.00322954,0.0174092,1301,379,1.93853,8.9935
84,645,1.92175,-8.97498,0.00331677,0.00559519,0.00169267,0.00649631,0.00241565,1.08159,0.00379149,0.0130915,1308,379,1.92172,8.97499
91,645,1.901,-8.96539,0.0027637,0.00604655,0.00197899,0.00697625,0.00183399,1.13161,0.00417597,0.0142982,1315,379,1.90099,8.9654
98,645,1.91064,-8.92581,0.00220203,0.0060294,0.00217114,0.00700985,0.00122158,1.14663,0.00432395,0.0128664,1322,379,1.91065,8.9258
105,645,1.91162,-8.90057,0.00193297,0.00570911,0.00240675,0.00688001,0.000762076,1.118,0.00435493,0.00966926,1329,379,1.91162,8.90057
112,645,1.89197,-8.87454,0.00168218,0.00521704,0.00260796,0.00660005,0.000299165,1.0832,0.00430378,0.00836577,1336,379,1.89192,8.87456
119,645,1.88318,-8.84479,0.00155935,0.00458718,0.00274966,0.00621214,-6.56126e-05,1.03704,0.00416347,0.00869377,1343,379,1.88319,8.84479
126,645,1.88489,-8.82532,0.00158972,0.00374877,0.0028829,0.00574764,-0.000409153,0.964546,0.00397517,0.0115153,1350,379,1.8849,8.82532
133,645,1.8678,-8.76895,0.00161189,0.00281964,0.00294405,0.00522111,-0.000789576,0.886554,0.00377158,0.012869,1357,379,1.86776,8.76894
140,645,1.85327,-8.71368,0.00169301,0.002171,0.0030267,0.00496813,-0.00110412,0.824798,0.00373493,0.0121407,1364,379,1.85321,8.71368
147,645,1.84351,-8.67386,0.00205383,0.000522012,0.00261919,0.0040168,-0.00144096,0.643153,0.00326592,0.0121848,1371,379,1.84348,8.67385
154,645,1.85657,-8.64417,0.00230463,0.000405965,0.00282579,0.0043363,-0.0016257,0.623345,0.00355877,0.0108924,1378,379,1.85655,8.64415
161,645,1.86792,-8.61084,0.00215616,0.000315808,0.00301227,0.00438567,-0.0019137,0.637161,0.00372912,0.013077,1385,379,1.86793,8.61083
168,645,1.84033,-8.55438,0.0017863,0.000447361,0.00317397,0.00436064,-0.00212697,0.681459,0.00381891,0.0159514,1392,379,1.84034,8.55439
175,645,1.8595,-8.48682,0.00133231,0.00064589,0.00326073,0.00426784,-0.00228964,0.732964,0.00384296,0.0136966,1399,379,1.85952,8.48683
182,645,1.86121,-8.41995,0.00111441,0.00087754,0.00330857,0.00430666,-0.00231471,0.767508,0.00388008,0.00948927,1406,379,1.86126,8.41996
189,645,1.84717,-8.34216,0.000551279,0.00127649,0.00336828,0.00430163,-0.00247386,0.839018,0.00395899,0.0102459,1413,379,1.84722,8.34217
196,645,1.83276,-8.28641,0.000272752,0.00135032,0.00304012,0.00389903,-0.00227595,0.8731,0.00360595,0.0106496,1420,379,1.83272,8.28642
203,645,1.82397,-8.21243,0.00013445,0.000564822,0.00247876,0.00283772,-0.00213844,0.828696,0.00288243,0.0113151,1427,379,1.82394,8.21242
210,645,1.85266,-8.16754,-0.000465326,0.000221419,0.00217978,0.0020847,-0.00232861,0.863519,0.00254932,0.0138548,1434,379,1.85271,8.16755
217,645,1.82788,-8.10333,-0.000697855,0.000244026,0.00231723,0.00213768,-0.00259151,0.88565,0.00273459,0.0127094,1441,379,1.82785,8.10333
224,645,1.79773,-8.00375,-0.000861966,0.000377549,0.00244447,0.0022796,-0.00276402,0.90955,0.00291641,0.0119546,1448,379,1.79772,8.00374
231,645,1.80005,-7.89587,-0.000658633,0.000416405,0.00268605,0.00261819,-0.00286042,0.884151,0.0031641,0.0128714,1455,379,1.80001,7.89586
238,645,1.76855,-7.81937,-0.00025917,0.000883467,0.00294944,0.00331641,-0.00269212,0.881065,0.00347526,0.0102132,1462,379,1.76853,7.81937
245,645,1.77576,-7.75266,-0.000134159,0.00104008,0.00294718,0.00345806,-0.00255214,0.883718,0.0034831,0.010862,1469,379,1.77571,7.75265
252,645,1.81226,-7.59274,-7.08091e-07,0.00131571,0.00324835,0.00397187,-0.00265687,0.885359,0.00385212,0.0178953,1476,379,1.81221,7.59275
259,645,1.76172,-7.50168,0.000285776,0.00237438,0.00343651,0.00492176,-0.00226161,0.932907,0.00424105,0.0277172,1483,379,1.76169,7.50167
266,645,1.76709,-7.41022,0.000780468,0.00395684,0.00391383,0.00659245,-0.00185514,0.978141,0.00512648,0.0249696,1490,379,1.76704,7.4102
273,645,1.80737,-7.33374,0.00127677,0.00525815,0.00422884,0.00794143,-0.0014065,1.00538,0.00582005,0.0241797,1497,379,1.80735,7.33373
280,645,1.84045,-7.26776,0.00185365,0.00693955,0.00461965,0.00966991,-0.000876708,1.037,0.00675783,0.0417703,1504,379,1.8405,7.26775
287,645,2.10974,-6.79111,0.00202085,0.00851144,0.0049871,0.0112162,-0.000683901,1.07385,0.00771554,0.0465577,1511,379,2.10971,6.79112
294,645,2.04443,-7.13007,0.00313732,0.00576119,0.00370201,0.00837686,0.000521649,0.955686,0.00541907,0.0447606,1518,379,2.04441,7.13005
301,645,1.83337,-7.14008,0,0,0,0,0,0,0,-1,1525,379,1.83336,7.14009
308,645,1.36768,-6.47693,0,0,0,0,0,0,0,-1,1532,379,1.36767,6.47693
315,645,1.57971,-6.12466,0,0,0,0,0,0,0,-1,1539,379,1.57973,6.12466
322,645,1.40735,-5.79065,0,0,0,0,0,0,0,-1,1546,379,1.40734,5.79066
329,645,1.08081,-5.48596,0,0,0,0,0,0,0,-1,1553,379,1.08087,5.48595
336,645,2.12573,-2.23886,0,0,0,0,0,0,0,-1,1560,379,2.12573,2.23886
343,645,3.48962,-5.22675,0,0,0,0,0,0,0,-1,1567,379,3.48959,5.22675
350,645,3.93213,-5.72198,0,0,0,0,0,0,0,-1,1574,379,3.9321,5.72198
357,645,1.63928,-6.465,0,0,0,0,0,0,0,-1,1581,379,1.63926,6.46499
364,645,-0.0794678,-3.22021,0,0,0,0,0,0,0,-1,1588,379,-0.0794987,3.22021
371,645,0,0,0,0,0,0,0,0,0,-1,1595,379,0,0
378,645,0,0,0,0,0,0,0,0,0,-1,1602,379,0,0
385,645,0,0,0,0,0,0,0,0,0,-1,1609,379,0,0
392,645,0,0,0,0,0,0,0,0,0,-1,1616,379,0,0
399,645,0,0,0,0,0,0,0,0,0,-1,1623,379,0,0
406,645,0,0,0,0,0,0,0,0,0,-1,1630,379,0,0
413,645,0,0,0,0,0,0,0,0,0,-1,1637,379,0,0
420,645,0,0,0,0,0,0,0,0,0,-1,1644,379,0,0
427,645,0,0,0,0,0,0,0,0,0,-1,1651,379,0,0
434,645,0,0,0,0,0,0,0,0,0,-1,1658,379,0,0
441,645,0,0,0,0,0,0,0,0,0,-1,1665,379,0,0
448,645,0,0,0,0,0,0,0,0,0,-1,1672,379,0,0
455,645,0,0,0,0,0,0,0,0,0,-1,1679,379,0,0
462,645,0,0,0,0,0,0,0,0,0,-1,1686,379,0,0
469,645,0,0,0,0,0,0,0,0,0,-1,1693,379,0,0
476,645,0,0,0,0,0,0,0,0,0,-1,1700,379,0,0
483,645,0,0,0,0,0,0,0,0,0,-1,1707,379,0,0
490,645,0,0,0,0,0,0,0,0,0,-1,1714,379,0,0
497,645,0,0,0,0,0,0,0,0,0,-1,1721,379,0,0
504,645,0,0,0,0,0,0,0,0,0,-1,1728,379,0,0
511,645,0,0,0,0,0,0,0,0,0,-1,1735,379,0,0
518,645,0,0,0,0,0,0,0,0,0,-1,1742,379,0,0
525,645,0,0,0,0,0,0,0,0,0,-1,1749,379,0,0
532,645,0,0,0,0,0,0,0,0,0,-1,1756,379,0,0
539,645,0,0,0,0,0,0,0,0,0,-1,1763,379,0,0
546,645,0,0,0,0,0,0,0,0,0,-1,1770,379,0,0
553,645,0,0,0,0,0,0,0,0,0,-1,1777,379,0,0
560,645,0,0,0,0,0,0,0,0,0,-1,1784,379,0,0
567,645,0,0,0,0,0,0,0,0,0,-1,1791,379,0,0
574,645,0,0,0,0,0,0,0,0,0,-1,1798,379,0,0
581,645,0,0,0,0,0,0,0,0,0,-1,1805,379,0,0
588,645,0,0,0,0,0,0,0,0,0,-1,1812,379,0,0
595,645,0,0,0,0,0,0,0,0,0,-1,1819,379,0,0
602,645,0,0,0,0,0,0,0,0,0,-1,1826,379,0,0
609,645,0,0,0,0,0,0,0,0,0,-1,1833,379,0,0
616,645,0,0,0,0,0,0,0,0,0,-1,1840,379,0,0
623,645,0,0,0,0,0,0,0,0,0,-1,1847,379,0,0
630,645,0,0,0,0,0,0,0,0,0,-1,1854,379,0,0
637,645,0,0,0,0,0,0,0,0,0,-1,1861,379,0,0
644,645,0,0,0,0,0,0,0,0,0,-1,1868,379,0,0
651,645,0,0,0,0,0,0,0,0,0,-1,1875,379,0,0
658,645,0,0,0,0,0,0,0,0,0,-1,1882,379,0,0
665,645,0,0,0,0,0,0,0,0,0,-1,1889,379,0,0
672,645,0,0,0,0,0,0,0,0,0,-1,1896,379,0,0
679,645,0,0,0,0,0,0,0,0,0,-1,1903,379,0,0
686,645,0,0,0,0,0,0,0,0,0,-1,1910,379,0,0
693,645,0,0,0,0,0,0,0,0,0,-1,1917,379,0,0
700,645,0,0,0,0,0,0,0,0,0,-1,1924,379,0,0
707,645,0,0,0,0,0,0,0,0,0,-1,1931,379,0,0
714,645,0,0,0,0,0,0,0,0,0,-1,1938,379,0,0
721,645,0,0,0,0,0,0,0,0,0,-1,1945,379,0,0
728,645,0,0,0,0,0,0,0,0,0,-1,1952,379,0,0
735,645,0,0,0,0,0,0,0,0,0,-1,1959,379,0,0
742,645,0,0,0,0,0,0,0,0,0,-1,1966,379,0,0
749,645,0,0,0,0,0,0,0,0,0,-1,1973,379,0,0
756,645,0,0,0,0,0,0,0,0,0,-1,1980,379,0,0
763,645,0,0,0,0,0,0,0,0,0,-1,1987,379,0,0
770,645,0,0,0,0,0,0,0,0,0,-1,1994,379,0,0
777,645,0,0,0,0,0,0,0,0,0,-1,2001,379,0,0
784,645,0,0,0,0,0,0,0,0,0,-1,2008,379,0,0
791,645,0,0,0,0,0,0,0,0,0,-1,2015,379,0,0
798,645,0,0,0,0,0,0,0,0,0,-1,2022,379,0,0
805,645,0,0,0,0,0,0,0,0,0,-1,2029,379,0,0
812,645,0,0,0,0,0,0,0,0,0,-1,2036,379,0,0
-700,638,0,0,0,0,0,0,0,0,0,-1,524,386,0,0
-693,638,0,0,0,0,0,0,0,0,0,-1,531,386,0,0
-686,638,0,0,0,0,0,0,0,0,0,-1,538,386,0,0
-679,638,0,0,0,0,0,0,0,0,0,-1,545,386,0,0
-672,638,0,0,0,0,0,0,0,0,0,-1,552,386,0,0
-665,638,0,0,0,0,0,0,0,0,0,-1,559,386,0,0
-658,638,0,0,0,0,0,0,0,0,0,-1,566,386,0,0
-651,638,0,0,0,0,0,0,0,0,0,-1,573,386,0,0
-644,638,0,0,0,0,0,0,0,0,0,-1,580,386,0,0
-637,638,0,0,0,0,0,0,0,0,0,-1,587,386,0,0
-630,638,0,0,0,0,0,0,0,0,0,-1,594,386,0,0
-623,638,0,0,0,0,0,0,0,0,0,-1,601,386,0,0
-616,638,0,0,0,0,0,0,0,0,0,-1,608,386,0,0
-609,638,0,0,0,0,0,0,0,0,0,-1,615,386,0,0
-602,638,0,0,0,0,0,0,0,0,0,-1,622,386,0,0
-595,638,0,0,0,0,0,0,0,0,0,-1,629,386,0,0
-588,638,0,0,0,0,0,0,0,0,0,-1,636,386,0,0
-581,638,0,0,0,0,0,0,0,0,0,-1,643,386,0,0
-574,638,0,0,0,0,0,0,0,0,0,-1,650,386,0,0
-567,638,0,0,0,0,0,0,0,0,0,-1,657,386,0,0
-560,638,0,0,0,0,0,0,0,0,0,-1,664,386,0,0
-553,638,0,0,0,0,0,0,0,0,0,-1,671,386,0,0
-546,638,0,0,0,0,0,0,0,0,0,-1,678,386,0,0
-539,638,0,0,0,0,0,0,0,0,0,-1,685,386,0,0
-532,638,0,0,0,0,0,0,0,0,0,-1,692,386,0,0
-525,638,0,0,0,0,0,0,0,0,0,-1,699,386,0,0
-518,638,0,0,0,0,0,0,0,0,0,-1,706,386,0,0
-511,638,0,0,0,0,0,0,0,0,0,-1,713,386,0,0
-504,638,0,0,0,0,0,0,0,0,0,-1,720,386,0,0
-497,638,0,0,0,0,0,0,0,0,0,-1,727,386,0,0
-490,638,0,0,0,0,0,0,0,0,0,-1,734,386,0,0
-483,638,0,0,0,0,0,0,0,0,0,-1,741,386,0,0
-476,638,0,0,0,0,0,0,0,0,0,-1,748,386,0,0
-469,638,0,0,0,0,0,0,0,0,0,-1,755,386,0,0
-462,638,0,0,0,0,0,0,0,0,0,-1,762,386,0,0
-455,638,0,0,0,0,0,0,0,0,0,-1,769,386,0,0
-448,638,0,0,0,0,0,0,0,0,0,-1,776,386,0,0
-441,638,0,0,0,0,0,0,0,0,0,-1,783,386,0,0
-434,638,0,0,0,0,0,0,0,0,0,-1,790,386,0,0
-427,638,0,0,0,0,0,0,0,0,0,-1,797,386,0,0
-420,638,0,0,0,0,0,0,0,0,0,-1,804,386,0,0
-413,638,0,0,0,0,0,0,0,0,0,-1,811,386,0,0
-406,638,0,0,0,0,0,0,0,0,0,-1,818,386,0,0
-399,638,0,0,0,0,0,0,0,0,0,-1,825,386,0,0
-392,638,0,0,0,0,0,0,0,0,0,-1,832,386,0,0
-385,638,0,0,0,0,0,0,0,0,0,-1,839,386,0,0
-378,638,0,0,0,0,0,0,0,0,0,-1,846,386,0,0
-371,638,0,0,0,0,0,0,0,0,0,-1,853,386,0,0
-364,638,0,0,0,0,0,0,0,0,0,-1,860,386,0,0
-357,638,0,0,0,0,0,0,0,0,0,-1,867,386,0,0
-350,638,0,0,0,0,0,0,0,0,0,-1,874,386,0,0
-343,638,0,0,0,0,0,0,0,0,0,-1,881,386,0,0
-336,638,0,0,0,0,0,0,0,0,0,-1,888,386,0,0
-329,638,0,0,0,0,0,0,0,0,0,-1,895,386,0,0
-322,638,0,0,0,0,0,0,0,0,0,-1,902,386,0,0
-315,638,0,0,0,0,0,0,0,0,0,-1,909,386,0,0
-308,638,0,0,0,0,0,0,0,0,0,-1,916,386,0,0
-301,638,0,0,0,0,0,0,0,0,0,-1,923,386,0,0
-294,638,0,0,0,0,0,0,0,0,0,-1,930,386,0,0
-287,638,0,0,0,0,0,0,0,0,0,-1,937,386,0,0
-280,638,0,0,0,0,0,0,0,0,0,-1,944,386,0,0
-273,638,0,0,0,0,0,0,0,0,0,-1,951,386,0,0
-266,638,-1.87286,-4.27911,0,0,0,0,0,0,0,-1,958,386,-1.87287,4.2791
-259,638,-0.718689,-3.6188,0,0,0,0,0,0,0,-1,965,386,-0.71871,3.61881
-252,638,0.256226,-7.36792,0,0,0,0,0,0,0,-1,972,386,0.256242,7.36791
-245,638,0.791443,-7.32422,0.0434327,-0.0266152,0.0155901,0.0467458,-0.0299283,0.209397,0.0446213,0.0444629,979,386,0.791445,7.32421
-238,638,1.25055,-7.44754,0.0325412,-0.0266043,0.0119252,0.0348551,-0.0289182,0.191652,0.0368727,0.0461441,986,386,1.25055,7.44755
-231,638,1.02399,-7.75034,0,0,0,0,0,0,0,-1,993,386,1.02397,7.75033
-224,638,3.45862,-6.89499,0,0,0,0,0,0,0,-1,1000,386,3.45865,6.89498
-217,638,4.18878,-11.0275,0,0,0,0,0,0,0,-1,1007,386,4.18878,11.0275
-210,638,3.63702,-10.4718,0,0,0,0,0,0,0,-1,1014,386,3.637,10.4718
-203,638,2.94855,-9.70029,-0.0083828,-0.0276975,0.00385629,-0.00764133,-0.028439,0.189956,0.0169948,0.0498543,1021,386,2.94855,9.7003
-196,638,2.5177,-9.146,-0.0119274,-0.0280343,0.00354571,-0.0111815,-0.0287803,0.207368,0.0167535,0.0443078,1028,386,2.51767,9.146
-189,638,2.12219,-8.83353,-0.0144295,-0.0272776,0.00294794,-0.0137854,-0.0279217,0.215113,0.016121,0.0394647,1035,386,2.12223,8.83353
-182,638,1.90283,-8.22528,-0.0142942,-0.0265207,0.00306979,-0.0135667,-0.0272482,0.232684,0.0157318,0.0384408,1042,386,1.90289,8.22527
-175,638,2.00098,-7.69995,0,0,0,0,0,0,0,-1,1049,386,2.001,7.69995
-168,638,1.95935,-7.71317,-0.0101271,-0.0220728,0.00453228,-0.00860214,-0.0235977,0.324559,0.0137898,0.0316003,1056,386,1.95941,7.71316
-161,638,2.0127,-7.79742,-0.00747013,-0.0197149,0.00452292,-0.00598066,-0.0212044,0.318131,0.0126241,0.0283467,1063,386,2.01268,7.79744
-154,638,2.02979,-7.8801,-0.00512132,-0.0173466,0.00431034,-0.00375443,-0.0187135,0.307087,0.0114316,0.0230711,1070,386,2.02976,7.8801
-147,638,2.01892,-7.94714,-0.00411666,-0.0131775,0.00369579,-0.00280041,-0.0144938,0.342142,0.00887752,0.0178326,1077,386,2.01896,7.94713
-140,638,2.00928,-8.02078,-0.00323516,-0.0083843,0.0025434,-0.00219071,-0.00942875,0.389654,0.00569775,0.014009,1084,386,2.00933,8.02078
-133,638,2.01965,-8.12595,-0.00252082,-0.00228816,0.00182968,-0.000571116,-0.00423786,0.817144,0.00265542,0.0114827,1091,386,2.0197,8.12596
-126,638,2.01306,-8.18945,-0.00288023,0.00238633,0.000663758,0.0024687,-0.00296259,1.44734,0.00314008,0.0124475,1098,386,2.01305,8.18944
-119,638,2.0033,-8.2663,-0.00345196,0.00635187,-0.000417388,0.00636961,-0.0034697,-1.52832,0.00576238,0.0140904,1105,386,2.00329,8.26629
-112,638,2.01282,-8.34335,-0.00410953,0.0102101,-0.00141334,0.0103482,-0.00424769,-1.47335,0.00866884,0.0138218,1112,386,2.01283,8.34334
-105,638,1.9845,-8.4104,-0.00479419,0.0134956,-0.00229736,0.0137798,-0.00507835,-1.44773,0.0112675,0.0158223,1119,386,1.98446,8.41041
-98,638,1.96057,-8.46561,-0.00503026,0.0158751,-0.0031289,0.0163334,-0.00548852,-1.42537,0.0131072,0.0158788,1126,386,1.96055,8.46562
-91,638,1.9491,-8.52963,-0.00504829,0.0177103,-0.00353028,0.0182453,-0.00558333,-1.42039,0.0143904,0.0124976,1133,386,1.94905,8.52962
-84,638,1.94165,-8.57779,-0.00501339,0.017934,-0.00366319,0.0185046,-0.00558397,-1.41628,0.0145591,0.0139979,1140,386,1.94167,8.57778
-77,638,1.93738,-8.62375,-0.00509489,0.0172005,-0.00363663,0.0177787,-0.00567307,-1.41313,0.0141284,0.0114734,1147,386,1.9374,8.62376
-70,638,1.95386,-8.67871,-0.00471676,0.0155468,-0.0032951,0.0160692,-0.00523912,-1.41358,0.0128211,0.0100278,1154,386,1.95382,8.6787
-63,638,1.95068,-8.72217,-0.00376747,0.0129326,-0.00268612,0.013354,-0.00418888,-1.41518,0.0105791,0.0109536,1161,386,1.95073,8.72217
-56,638,1.93945,-8.7579,-0.00276946,0.0101756,-0.00209184,0.0105053,-0.0030991,-1.4145,0.00823332,0.0144709,1168,386,1.9395,8.7579
-49,638,1.92419,-8.80011,-0.00164151,0.00724245,-0.00146657,0.00747829,-0.00187735,-1.41135,0.00571503,0.0118519,1175,386,1.92416,8.8001
-42,638,1.93469,-8.83237,-4.28162e-05,0.00335822,-0.000550643,0.00344515,-0.000129746,-1.41422,0.00234121,0.0101479,1182,386,1.93469,8.83236
-35,638,1.93445,-8.87756,0.000557303,0.0011612,0.000233751,0.00124111,0.000477398,1.24141,0.000722881,0.00988491,1189,386,1.93449,8.87757
-28,638,1.92615,-8.91306,0.000282927,-0.000664262,0.000178779,0.000315548,-0.000696882,0.180477,0.000598188,0.00982643,1196,386,1.92618,8.91304
-21,638,1.90344,-8.92117,0.000418208,-0.00127931,0.000137699,0.000429305,-0.00129041,0.0804173,0.00103354,0.0108349,1203,386,1.90341,8.92117
-14,638,1.89758,-8.93747,0.000570508,-0.00183314,7.01118e-05,0.000572552,-0.00183518,0.0291359,0.00145242,0.0109422,1210,386,1.89763,8.93747
-7,638,1.91174,-9.01752,0.000691603,-0.00212966,-9.16085e-06,0.000691633,-0.00212969,-0.00324703,0.00169796,0.0160675,1217,386,1.91178,9.01752
0,638,1.95715,-9.02979,0.000734827,-0.00225663,-0.000143732,0.000741718,-0.00226352,-0.0479006,0.00180771,0.0295037,1224,386,1.95714,9.0298
7,638,1.93188,-9.01779,0.00075586,-0.00232462,-0.000352905,0.000795772,-0.00236453,-0.112618,0.00189806,0.0219707,1231,386,1.93185,9.01779
14,638,1.88818,-9.01447,0.000843711,-0.00238408,-0.000552047,0.000935516,-0.00247588,-0.164791,0.0020354,0.0115134,1238,386,1.88819,9.01447
21,638,1.89111,-9.03265,0.000939056,-0.00233356,-0.000751888,0.00110354,-0.00249804,-0.215364,0.00213069,0.0101424,1245,386,1.89108,9.03264
28,638,1.89355,-9.05545,0.00131094,-0.00218649,-0.000767672,0.00147202,-0.00234757,-0.206831,0.00222447,0.00857761,1252,386,1.89351,9.05546
35,638,1.90381,-9.0704,0.0017288,-0.00211603,-0.00068766,0.00184809,-0.00223531,-0.171762,0.00236109,0.0104417,1259,386,1.90383,9.0704
42,638,1.93237,-9.07248,0.0019919,-0.00109193,-0.000119257,0.00199651,-0.00109653,-0.0385949,0.00181079,0.0096646,1266,386,1.93238,9.07247
49,638,1.93811,-9.04828,0.00213305,-0.000528331,0.000263421,0.00215887,-0.000554154,0.0977159,0.00165518,0.00796287,1273,386,1.93807,9.04829
56,638,1.93323,-9.03244,0.00230068,0.000296364,0.000673888,0.00250619,9.08613e-05,0.295993,0.00164134,0.0105905,1280,386,1.93323,9.03244
63,638,1.95715,-9.03738,0.00237795,0.00111164,0.000990424,0.0029203,0.000569282,0.500998,0.00178758,0.0126474,1287,386,1.95719,9.03738
70,638,1.93933,-9.01956,0.00234863,0.00187508,0.00141059,0.00354219,0.000681531,0.702246,0.00217025,0.0153385,1294,386,1.93934,9.01956
77,638,1.9248,-9.00543,0.00216009,0.00258245,0.00183089,0.0042143,0.000528241,0.842817,0.00265106,0.0161053,1301,386,1.92481,9.00543
84,638,1.94958,-8.96042,0.00192322,0.00306504,0.00220057,0.00476755,0.000220705,0.912319,0.00310741,0.0117331,1308,386,1.94964,8.96041
91,638,1.95483,-8.92563,0.00155177,0.00328639,0.00235888,0.00493235,-9.41867e-05,0.961566,0.00332007,0.0125407,1315,386,1.9548,8.92562
98,638,1.95178,-8.91342,0.00112629,0.00319637,0.0023383,0.00471847,-0.000395812,0.993759,0.00328554,0.0117567,1322,386,1.9518,8.91343
105,638,1.93542,-8.91702,0.000833043,0.00286783,0.00217773,0.0042541,-0.000553224,1.00392,0.00303731,0.00871663,1329,386,1.93539,8.91701
112,638,1.91577,-8.89914,0.000593977,0.00243895,0.00199862,0.00371771,-0.00068478,1.00161,0.00273546,0.00890734,1336,386,1.91581,8.89914
119,638,1.91064,-8.87411,0.000440018,0.00187986,0.00174694,0.00304941,-0.000729532,0.980846,0.00231476,0.0105186,1343,386,1.91059,8.87411
126,638,1.91357,-8.82126,0.000488001,0.00118541,0.00150137,0.00237805,-0.000704631,0.899504,0.00186515,0.0140647,1350,386,1.91362,8.82126
133,638,1.90735,-8.76434,0.000498595,0.000451428,0.00115784,0.00163309,-0.000683068,0.775215,0.00137422,0.0154968,1357,386,1.90739,8.76436
140,638,1.90967,-8.73679,0.000628135,-0.000113402,0.000872233,0.00120513,-0.000690399,0.584429,0.00110775,0.0160059,1364,386,1.90966,8.73677
147,638,1.89453,-8.69635,0.000908777,-0.00133892,0.000342737,0.000959877,-0.00139002,0.148004,0.00136427,0.0169058,1371,386,1.89448,8.69636
154,638,1.8949,-8.6546,0.00113263,-0.00153305,0.000257379,0.00115725,-0.00155767,0.0953789,0.00157313,0.0150136,1378,386,1.89487,8.65459
161,638,1.90076,-8.62152,0.00108336,-0.00165582,0.000219424,0.00110083,-0.00167328,0.0794306,0.00161296,0.0178723,1385,386,1.90078,8.62151
168,638,1.90332,-8.58432,0.000890704,-0.00155707,0.000299033,0.000926705,-0.00159307,0.119818,0.00147165,0.0235593,1392,386,1.90327,8.58432
175,638,1.93701,-8.50623,0.000633692,-0.00131704,0.00037699,0.000704012,-0.00138736,0.184412,0.00122875,0.0195408,1399,386,1.93703,8.50621
182,638,1.92676,-8.42545,0.000485592,-0.000948509,0.000550709,0.000672666,-0.00113558,0.327467,0.00105534,0.0130153,1406,386,1.92674,8.42545
189,638,1.90173,-8.36102,0.000193123,-0.000345589,0.000761001,0.000731032,-0.000883497,0.615304,0.000933533,0.0113537,1413,386,1.90177,8.36103
196,638,1.89063,-8.29556,-3.84041e-05,0.000135943,0.000958286,0.00101101,-0.000913473,0.830757,0.00111158,0.0135751,1420,386,1.89059,8.29557
203,638,1.88367,-8.22104,-0.000184454,0.000111038,0.00123194,0.00120406,-0.00127748,0.845078,0.00143293,0.0207937,1427,386,1.88366,8.22103
210,638,1.89404,-8.17673,-0.000441079,0.000292561,0.00147261,0.00144335,-0.00159187,0.907461,0.00175309,0.0171674,1434,386,1.89401,8.17673
217,638,1.88293,-8.10553,-0.000632401,0.000363727,0.00162075,0.00156122,-0.00182989,0.93447,0.00195991,0.0113277,1441,386,1.88295,8.10552
224,638,1.85437,-8.01129,-0.000746473,0.000494869,0.00175367,0.00173446,-0.00198607,0.955483,0.00214969,0.00923353,1448,386,1.85434,8.01129
231,638,1.85461,-7.91241,-0.000555773,0.000557231,0.00197379,0.00205148,-0.00205002,0.922804,0.002368,0.0104231,1455,386,1.85464,7.91241
238,638,1.84705,-7.82932,-0.0002165,0.000974906,0.00221966,0.00267741,-0.001919,0.916497,0.00266575,0.0120043,1462,386,1.84701,7.8293
245,638,1.83911,-7.75266,-9.5792e-05,0.00113325,0.00227649,0.0028767,-0.00183925,0.917227,0.00274463,0.0138343,1469,386,1.8391,7.75267
252,638,1.82507,-7.66122,1.54587e-05,0.00138308,0.0025604,0.00334941,-0.00195087,0.915888,0.00309542,0.0156608,1476,386,1.82511,7.66122
259,638,1.82288,-7.55194,0.000233639,0.0022249,0.00276346,0.00416661,-0.00170807,0.958302,0.00348935,0.0152635,1483,386,1.82284,7.55194
266,638,1.81763,-7.4838,0.000592847,0.00348328,0.00319102,0.0055411,-0.00146497,0.99803,0.00426705,0.0111539,1490,386,1.81766,7.4838
273,638,1.82471,-7.40308,0.000959214,0.00449723,0.00348428,0.00663585,-0.00117941,1.0203,0.00486493,0.0106059,1497,386,1.82476,7.40309
280,638,1.8783,-7.21353,0.00138379,0.00576999,0.00383639,0.0079959,-0.000842116,1.04506,0.00563233,0.0213655,1504,386,1.87828,7.21353
287,638,2.11401,-6.97296,0.00143843,0.00683241,0.00415481,0.00908882,-0.000817979,1.07328,0.00634946,0.0340575,1511,386,2.11407,6.97295
294,638,2.02039,-7.15506,0.00216039,0.00427906,0.00310485,0.00650031,-6.08652e-05,0.949799,0.00435397,0.0414563,1518,386,2.0204,7.15507
301,638,1.84534,-6.95236,0.00267653,0.00300359,0.00246831,0.00531378,0.000366333,0.818476,0.00342694,0.0491238,1525,386,1.84539,6.95236
308,638,1.60071,-6.5322,0.00338671,0.000165903,0.00135416,0.00388039,-0.000327771,0.349588,0.00270281,0.0444946,1532,386,1.60073,6.53221
315,638,1.85779,-6.2511,0.00425947,-0.00516477,-0.000422852,0.0042784,-0.00518371,-0.0447487,0.00547128,0.0438306,1539,386,1.85781,6.2511
322,638,1.90637,-5.77209,0,0,0,0,0,0,0,-1,1546,386,1.90639,5.7721
329,638,1.94189,-5.12833,0,0,0,0,0,0,0,-1,1553,386,1.94194,5.12833
336,638,1.86047,-4.58429,0,0,0,0,0,0,0,-1,1560,386,1.86045,4.5843
343,638,1.04028,-10.3387,0,0,0,0,0,0,0,-1,1567,386,1.04031,10.3387
350,638,2.3783,-11.33,0,0,0,0,0,0,0,-1,1574,386,2.37831,11.33
357,638,0.130371,-3.02618,0,0,0,0,0,0,0,-1,1581,386,0.130345,3.0262
364,638,3.78149,-6.45215,0,0,0,0,0,0,0,-1,1588,386,3.78155,6.45216
371,638,4.18604,-6.71164,0,0,0,0,0,0,0,-1,1595,386,4.18598,6.71164
378,638,4.59045,-6.97113,0,0,0,0,0,0,0,-1,1602,386,4.5904,6.97112
385,638,0,0,0,0,0,0,0,0,0,-1,1609,386,0,0
392,638,0,0,0,0,0,0,0,0,0,-1,1616,386,0,0
399,638,0,0,0,0,0,0,0,0,0,-1,1623,386,0,0
406,638,0,0,0,0,0,0,0,0,0,-1,1630,386,0,0
413,638,0,0,0,0,0,0,0,0,0,-1,1637,386,0,0
420,638,0,0,0,0,0,0,0,0,0,-1,1644,386,0,0
427,638,0,0,0,0,0,0,0,0,0,-1,1651,386,0,0
434,638,0,0,0,0,0,0,0,0,0,-1,1658,386,0,0
441,638,0,0,0,0,0,0,0,0,0,-1,1665,386,0,0
448,638,0,0,0,0,0,0,0,0,0,-1,1672,386,0,0
455,638,0,0,0,0,0,0,0,0,0,-1,1679,386,0,0
462,638,0,0,0,0,0,0,0,0,0,-1,1686,386,0,0
469,638,0,0,0,0,0,0,0,0,0,-1,1693,386,0,0
476,638,0,0,0,0,0,0,0,0,0,-1,1700,386,0,0
483,638,0,0,0,0,0,0,0,0,0,-1,1707,386,0,0
490,638,0,0,0,0,0,0,0,0,0,-1,1714,386,0,0
497,638,0,0,0,0,0,0,0,0,0,-1,1721,386,0,0
504,638,0,0,0,0,0,0,0,0,0,-1,1728,386,0,0
511,638,0,0,0,0,0,0,0,0,0,-1,1735,386,0,0
518,638,0,0,0,0,0,0,0,0,0,-1,1742,386,0,0
525,638,0,0,0,0,0,0,0,0,0,-1,1749,386,0,0
532,638,0,0,0,0,0,0,0,0,0,-1,1756,386,0,0
539,638,0,0,0,0,0,0,0,0,0,-1,1763,386,0,0
546,638,0,0,0,0,0,0,0,0,0,-1,1770,386,0,0
553,638,0,0,0,0,0,0,0,0,0,-1,1777,386,0,0
560,638,0,0,0,0,0,0,0,0,0,-1,1784,386,0,0
567,638,0,0,0,0,0,0,0,0,0,-1,1791,386,0,0
574,638,0,0,0,0,0,0,0,0,0,-1,1798,386,0,0
581,638,0,0,0,0,0,0,0,0,0,-1,1805,386,0,0
588,638,0,0,0,0,0,0,0,0,0,-1,1812,386,0,0
595,638,0,0,0,0,0,0,0,0,0,-1,1819,386,0,0
602,638,0,0,0,0,0,0,0,0,0,-1,1826,386,0,0
609,638,0,0,0,0,0,0,0,0,0,-1,1833,386,0,0
616,638,0,0,0,0,0,0,0,0,0,-1,1840,386,0,0
623,638,0,0,0,0,0,0,0,0,0,-1,1847,386,0,0
630,638,0,0,0,0,0,0,0,0,0,-1,1854,386,0,0
637,638,0,0,0,0,0,0,0,0,0,-1,1861,386,0,0
644,638,0,0,0,0,0,0,0,0,0,-1,1868,386,0,0
651,638,0,0,0,0,0,0,0,0,0,-1,1875,386,0,0
658,638,0,0,0,0,0,0,0,0,0,-1,1882,386,0,0
665,638,0,0,0,0,0,0,0,0,0,-1,1889,386,0,0
672,638,0,0,0,0,0,0,0,0,0,-1,1896,386,0,0
679,638,0,0,0,0,0,0,0,0,0,-1,1903,386,0,0
686,638,0,0,0,0,0,0,0,0,0,-1,1910,386,0,0
693,638,0,0,0,0,0,0,0,0,0,-1,1917,386,0,0
700,638,0,0,0,0,0,0,0,0,0,-1,1924,386,0,0
707,638,0,0,0,0,0,0,0,0,0,-1,1931,386,0,0
714,638,0,0,0,0,0,0,0,0,0,-1,1938,386,0,0
721,638,0,0,0,0,0,0,0,0,0,-1,1945,386,0,0
728,638,0,0,0,0,0,0,0,0,0,-1,1952,386,0,0
735,638,0,0,0,0,0,0,0,0,0,-1,1959,386,0,0
742,638,0,0,0,0,0,0,0,0,0,-1,1966,386,0,0
749,638,0,0,0,0,0,0,0,0,0,-1,1973,386,0,0
756,638,0,0,0,0,0,0,0,0,0,-1,1980,386,0,0
763,638,0,0,0,0,0,0,0,0,0,-1,1987,386,0,0
770,638,0,0,0,0,0,0,0,0,0,-1,1994,386,0,0
777,638,0,0,0,0,0,0,0,0,0,-1,2001,386,0,0
784,638,0,0,0,0,0,0,0,0,0,-1,2008,386,0,0
791,638,0,0,0,0,0,0,0,0,0,-1,2015,386,0,0
798,638,0,0,0,0,0,0,0,0,0,-1,2022,386,0,0
805,638,0,0,0,0,0,0,0,0,0,-1,2029,386,0,0
812,638,0,0,0,0,0,0,0,0,0,-1,2036,386,0,0
-700,631,0,0,0,0,0,0,0,0,0,-1,524,393,0,0
-693,631,0,0,0,0,0,0,0,0,0,-1,531,393,0,0
-686,631,0,0,0,0,0,0,0,0,0,-1,538,393,0,0
-679,631,0,0,0,0,0,0,0,0,0,-1,545,393,0,0
-672,631,0,0,0,0,0,0,0,0,0,-1,552,393,0,0
-665,631,0,0,0,0,0,0,0,0,0,-1,559,393,0,0
-658,631,0,0,0,0,0,0,0,0,0,-1,566,393,0,0
-651,631,0,0,0,0,0,0,0,0,0,-1,573,393,0,0
-644,631,0,0,0,0,0,0,0,0,0,-1,580,393,0,0
-637,631,0,0,0,0,0,0,0,0,0,-1,587,393,0,0
-630,631,0,0,0,0,0,0,0,0,0,-1,594,393,0,0
-623,631,0,0,0,0,0,0,0,0,0,-1,601,393,0,0
-616,631,0,0,0,0,0,0,0,0,0,-1,608,393,0,0
-609,631,0,0,0,0,0,0,0,0,0,-1,615,393,0,0
-602,631,0,0,0,0,0,0,0,0,0,-1,622,393,0,0
-595,631,0,0,0,0,0,0,0,0,0,-1,629,393,0,0
-588,631,0,0,0,0,0,0,0,0,0,-1,636,393,0,0
-581,631,0,0,0,0,0,0,0,0,0,-1,643,393,0,0
-574,631,0,0,0,0,0,0,0,0,0,-1,650,393,0,0
-567,631,0,0,0,0,0,0,0,0,0,-1,657,393,0,0
-560,631,0,0,0,0,0,0,0,0,0,-1,664,393,0,0
-553,631,0,0,0,0,0,0,0,0,0,-1,671,393,0,0
-546,631,0,0,0,0,0,0,0,0,0,-1,678,393,0,0
-539,631,0,0,0,0,0,0,0,0,0,-1,685,393,0,0
-532,631,0,0,0,0,0,0,0,0,0,-1,692,393,0,0
-525,631,0,0,0,0,0,0,0,0,0,-1,699,393,0,0
-518,631,0,0,0,0,0,0,0,0,0,-1,706,393,0,0
-511,631,0,0,0,0,0,0,0,0,0,-1,713,393,0,0
-504,631,0,0,0,0,0,0,0,0,0,-1,720,393,0,0
-497,631,0,0,0,0,0,0,0,0,0,-1,727,393,0,0
-490,631,0,0,0,0,0,0,0,0,0,-1,734,393,0,0
-483,631,0,0,0,0,0,0,0,0,0,-1,741,393,0,0
-476,631,0,0,0,0,0,0,0,0,0,-1,748,393,0,0
-469,631,0,0,0,0,0,0,0,0,0,-1,755,393,0,0
-462,631,0,0,0,0,0,0,0,0,0,-1,762,393,0,0
-455,631,0,0,0,0,0,0,0,0,0,-1,769,393,0,0
-448,631,0,0,0,0,0,0,0,0,0,-1,776,393,0,0
-441,631,0,0,0,0,0,0,0,0,0,-1,783,393,0,0
-434,631,0,0,0,0,0,0,0,0,0,-1,790,393,0,0
-427,631,0,0,0,0,0,0,0,0,0,-1,797,393,0,0
-420,631,0,0,0,0,0,0,0,0,0,-1,804,393,0,0
-413,631,0,0,0,0,0,0,0,0,0,-1,811,393,0,0
-406,631,0,0,0,0,0,0,0,0,0,-1,818,393,0,0
-399,631,0,0,0,0,0,0,0,0,0,-1,825,393,0,0
-392,631,0,0,0,0,0,0,0,0,0,-1,832,393,0,0
-385,631,0,0,0,0,0,0,0,0,0,-1,839,393,0,0
-378,631,0,0,0,0,0,0,0,0,0,-1,846,393,0,0
-371,631,0,0,0,0,0,0,0,0,0,-1,853,393,0,0
-364,631,0,0,0,0,0,0,0,0,0,-1,860,393,0,0
-357,631,0,0,0,0,0,0,0,0,0,-1,867,393,0,0
-350,631,0,0,0,0,0,0,0,0,0,-1,874,393,0,0
-343,631,0,0,0,0,0,0,0,0,0,-1,881,393,0,0
-336,631,0,0,0,0,0,0,0,0,0,-1,888,393,0,0
-329,631,0,0,0,0,0,0,0,0,0,-1,895,393,0,0
-322,631,0,0,0,0,0,0,0,0,0,-1,902,393,0,0
-315,631,0,0,0,0,0,0,0,0,0,-1,909,393,0,0
-308,631,0,0,0,0,0,0,0,0,0,-1,916,393,0,0
-301,631,0,0,0,0,0,0,0,0,0,-1,923,393,0,0
-294,631,0,0,0,0,0,0,0,0,0,-1,930,393,0,0
-287,631,0,0,0,0,0,0,0,0,0,-1,937,393,0,0
-280,631,1.64722,-7.69656,0,0,0,0,0,0,0,-1,944,393,1.64723,7.69656
-273,631,2.26263,-7.24976,0,0,0,0,0,0,0,-1,951,393,2.26261,7.24974
-266,631,4.86389,-5.45331,0,0,0,0,0,0,0,-1,958,393,4.86386,5.4533
-259,631,1.77661,-6.75836,0,0,0,0,0,0,0,-1,965,393,1.77658,6.75836
-252,631,0.0943604,-6.74936,0,0,0,0,0,0,0,-1,972,393,0.0943365,6.74936
-245,631,0.436279,-6.8439,0,0,0,0,0,0,0,-1,979,393,0.436302,6.84389
-238,631,0.784668,-7.35675,0.0272299,-0.0211607,0.00711703,0.0282549,-0.0221858,0.14304,0.0291921,0.0497355,986,393,0.784678,7.35676
-231,631,0.853149,-7.84607,0.0194553,-0.0208629,0.00556018,0.0202081,-0.0216157,0.134562,0.0241515,0.0466595,993,393,0.853137,7.84607
-224,631,1.07104,-7.94598,0,0,0,0,0,0,0,-1,1000,393,1.07106,7.94598
-217,631,3.18634,-7.67078,0,0,0,0,0,0,0,-1,1007,393,3.18634,7.67077
-210,631,2.55145,-6.54031,0,0,0,0,0,0,0,-1,1014,393,2.55146,6.5403
-203,631,2.53082,-6.11758,0,0,0,0,0,0,0,-1,1021,393,2.53082,6.11758
-196,631,2.49536,-6.14362,0,0,0,0,0,0,0,-1,1028,393,2.49539,6.1436
-189,631,1.62244,-7.34174,-0.00978337,-0.0197997,0.00219954,-0.00932165,-0.0202614,0.206914,0.0117104,0.042135,1035,393,1.62241,7.34174
-182,631,1.98022,-7.66705,-0.0100296,-0.019227,0.00222419,-0.00952001,-0.0197367,0.225243,0.0113973,0.0394149,1042,393,1.98023,7.66706
-175,631,2.005,-7.66733,-0.00893675,-0.0176223,0.0030628,-0.00796535,-0.0185937,0.307124,0.0107717,0.032863,1049,393,2.00501,7.66734
-168,631,1.97278,-7.71933,-0.00762592,-0.0159655,0.00323785,-0.00651643,-0.017075,0.330124,0.0099499,0.0175926,1056,393,1.97283,7.71932
-161,631,1.95691,-7.81708,-0.0057934,-0.0143279,0.00311754,-0.00477591,-0.0153454,0.315476,0.00906769,0.00965296,1063,393,1.95694,7.81708
-154,631,1.9563,-7.90149,-0.00414515,-0.0126766,0.00286436,-0.0032727,-0.0135491,0.295663,0.00816352,0.00960728,1070,393,1.95628,7.90149
-147,631,1.96741,-7.97873,-0.00326061,-0.00978405,0.00243637,-0.00245112,-0.0105935,0.320775,0.00640364,0.00999359,1077,393,1.96742,7.97872
-140,631,1.9502,-8.06796,-0.00243537,-0.00636224,0.00167759,-0.00181629,-0.00698132,0.353526,0.00418238,0.00946966,1084,393,1.95014,8.06797
-133,631,1.93494,-8.13882,-0.00180532,-0.00189709,0.00122722,-0.000623122,-0.00307929,0.766712,0.0018799,0.00821261,1091,393,1.93492,8.13881
-126,631,1.9281,-8.19458,-0.00190346,0.00146558,0.000441113,0.00152238,-0.00196026,1.44274,0.00201599,0.0112937,1098,393,1.92813,8.19457
-119,631,1.92102,-8.26721,-0.00209863,0.00418674,-0.000265372,0.00419793,-0.00210982,-1.52868,0.0037077,0.0152285,1105,393,1.92105,8.2672
-112,631,1.92798,-8.35242,-0.00235709,0.0068673,-0.000912078,0.00695662,-0.00244641,-1.47318,0.00563316,0.0143661,1112,393,1.92796,8.35243
-105,631,1.93677,-8.41837,-0.00265899,0.00911077,-0.00148178,0.00929446,-0.00284268,-1.44746,0.00732997,0.0175818,1119,393,1.93682,8.41838
-98,631,1.91248,-8.4718,-0.00265641,0.0106654,-0.00204937,0.0109735,-0.00296455,-1.42156,0.00847841,0.0158018,1126,393,1.9125,8.4718
-91,631,1.88965,-8.54321,-0.00251903,0.011776,-0.00228949,0.0121338,-0.00287676,-1.4158,0.00919927,0.0172522,1133,393,1.88971,8.5432
-84,631,1.89954,-8.58887,-0.00240556,0.0117221,-0.00232147,0.0120938,-0.00277724,-1.41204,0.0091302,0.016109,1140,393,1.89957,8.58887
-77,631,1.90063,-8.62579,-0.00239644,0.0109543,-0.00222853,0.0113165,-0.0027586,-1.40969,0.00861239,0.0104287,1147,393,1.90069,8.62579
-70,631,1.91541,-8.67584,-0.00211954,0.00965174,-0.00194333,0.00996427,-0.00243207,-1.41134,0.00758465,0.0104701,1154,393,1.91537,8.67583
-63,631,1.91626,-8.72571,-0.00155654,0.00792501,-0.00153901,0.00816856,-0.00180009,-1.41385,0.00613441,0.0100859,1161,393,1.91621,8.7257
-56,631,1.901,-8.78476,-0.000978943,0.00614573,-0.00116263,0.00633065,-0.00116386,-1.41306,0.00465712,0.011453,1168,393,1.90104,8.78477
-49,631,1.87903,-8.81787,-0.000440722,0.00442432,-0.000811917,0.00455624,-0.000572644,-1.40972,0.00324526,0.0101482,1175,393,1.87906,8.81787
-42,631,1.88965,-8.84271,0.000396095,0.00229238,-0.00035542,0.00235681,0.000331667,-1.39147,0.00147315,0.00814681,1182,393,1.88966,8.84271
-35,631,1.90515,-8.86441,0.000795038,0.00116325,0.000105864,0.00119152,0.000766771,1.30987,0.000697306,0.00876289,1189,393,1.90519,8.86442
-28,631,1.88916,-8.89584,0.000764612,0.0002498,0.000135525,0.000798109,0.000216302,0.242312,0.000476623,0.0114505,1196,393,1.88919,8.89583
-21,631,1.87268,-8.91968,0.00103033,-0.000116728,0.000179433,0.00105774,-0.000144141,0.151605,0.000757792,0.0108862,1203,393,1.87262,8.91967
-14,631,1.85632,-8.95682,0.0012609,-0.000458979,9.15717e-05,0.00126576,-0.000463841,0.0530432,0.00103375,0.0134956,1210,393,1.85633,8.95682
-7,631,1.88586,-9.04205,0.00145233,-0.000639391,-6.75189e-05,0.0014545,-0.000641568,-0.0322344,0.00124013,0.0203815,1217,393,1.88582,9.04206
0,631,1.91187,-9.03775,0.00158529,-0.000736041,-0.000215577,0.00160514,-0.000755891,-0.0918216,0.00139222,0.021341,1224,393,1.91192,9.03776
7,631,1.88733,-9.00906,0.00174709,-0.00072744,-0.000428139,0.00181907,-0.000799422,-0.16657,0.00154952,0.0168569,1231,393,1.88736,9.00906
14,631,1.87659,-9.02692,0.00192259,-0.000751054,-0.00058617,0.00204546,-0.000873919,-0.206616,0.00173015,0.0096754,1238,393,1.87658,9.02691
21,631,1.90039,-9.04379,0.00199127,-0.000769638,-0.000761476,0.00218736,-0.000965731,-0.252041,0.00186543,0.0118674,1245,393,1.90037,9.04378
28,631,1.90308,-9.06305,0.00233955,-0.000871987,-0.000662753,0.00247094,-0.00100338,-0.195717,0.00206469,0.0132797,1252,393,1.90303,9.06304
35,631,1.90918,-9.05963,0.00271644,-0.00107014,-0.000429978,0.00276465,-0.00111835,-0.111659,0.00230804,0.0128912,1259,393,1.90914,9.05963
42,631,1.92285,-9.06009,0.00326223,-0.00112212,5.6413e-05,0.00326295,-0.00112284,0.0128641,0.00263071,0.0111733,1266,393,1.92279,9.06009
49,631,1.92004,-9.03543,0.00376584,-0.00122756,0.000511675,0.00381773,-0.00127946,0.101071,0.00306207,0.00951771,1273,393,1.92001,9.03542
56,631,1.92383,-9.03339,0.00417994,-0.00110595,0.000990068,0.0043593,-0.00128531,0.179213,0.00341621,0.0108704,1280,393,1.92381,9.03337
63,631,1.93701,-9.04749,0.00432106,-0.000978118,0.0012701,0.00460975,-0.0012668,0.223498,0.00357113,0.0125997,1287,393,1.93697,9.04749
70,631,1.9425,-9.03076,0.00420659,-0.000855978,0.0016278,0.00468482,-0.0013342,0.285745,0.00365015,0.0126731,1294,393,1.94251,9.03075
77,631,1.93042,-9.01395,0.00402749,-0.000622304,0.0020013,0.00477022,-0.00136503,0.355368,0.00371961,0.0133594,1301,393,1.93045,9.01394
84,631,1.94556,-8.98169,0.00374787,-0.000297898,0.00227176,0.00476685,-0.00131688,0.421642,0.00369591,0.0116063,1308,393,1.9456,8.9817
91,631,1.9585,-8.94449,0.00325156,1.07482e-06,0.00234404,0.00447867,-0.00122604,0.482273,0.00346748,0.0142429,1315,393,1.95846,8.94449
98,631,1.94519,-8.94052,0.00279258,0.000162415,0.00237709,0.00419412,-0.00123912,0.532738,0.00328789,0.0119544,1322,393,1.94523,8.94051
105,631,1.93335,-8.93192,0.00243671,0.000298041,0.00224235,0.00385165,-0.00111689,0.562907,0.00300995,0.00948233,1329,393,1.93335,8.93192
112,631,1.93909,-8.88922,0.00194296,0.000383302,0.00204974,0.0033562,-0.00102994,0.603627,0.0026484,0.0109748,1336,393,1.93913,8.88921
119,631,1.92896,-8.87082,0.00161936,0.000435861,0.00180774,0.00292973,-0.000874516,0.627224,0.00230074,0.0118734,1343,393,1.9289,8.87081
126,631,1.92834,-8.81396,0.00161671,0.000413962,0.00163523,0.00275764,-0.00072697,0.609194,0.00212266,0.0155785,1350,393,1.9283,8.81396
133,631,1.94287,-8.75693,0.00158459,0.000358637,0.00135742,0.00246102,-0.00051779,0.573316,0.00183775,0.0167971,1357,393,1.94292,8.75694
140,631,1.96106,-8.75195,0.00170431,0.000276837,0.0011461,0.00234075,-0.000359601,0.506908,0.00169314,0.0187069,1364,393,1.96101,8.75197
147,631,1.93616,-8.71906,0.00177886,-2.12719e-05,0.000884249,0.00214054,-0.000382957,0.388267,0.00157032,0.0222064,1371,393,1.9362,8.71905
154,631,1.91907,-8.65344,0.00185275,-0.000181631,0.000733576,0.00208967,-0.000418558,0.3124,0.00155157,0.0212715,1378,393,1.91903,8.65344
161,631,1.92578,-8.61707,0.00183142,-0.000391737,0.00059815,0.00198214,-0.000542454,0.246834,0.00153454,0.0226708,1385,393,1.92573,8.61707
168,631,1.96729,-8.54736,0.00166537,-0.000462176,0.000568747,0.00180787,-0.000604672,0.245491,0.00144947,0.0265197,1392,393,1.96724,8.54736
175,631,1.99731,-8.49866,0.00141749,-0.000382067,0.000443637,0.00152092,-0.000485491,0.229036,0.00120872,0.0204158,1399,393,1.99734,8.49866
182,631,1.97559,-8.43658,0.00104064,-0.000212074,0.000372875,0.00114322,-0.000314661,0.268482,0.000885865,0.0110571,1406,393,1.9756,8.43659
189,631,1.98389,-8.36505,0.000579193,-2.95738e-05,0.00038677,0.000766988,-0.000217369,0.45202,0.000597119,0.0101519,1413,393,1.98395,8.36505
196,631,1.97339,-8.3038,0.000259458,0.000130278,0.000508614,0.000707566,-0.00031783,0.72224,0.000606099,0.010559,1420,393,1.97342,8.30381
203,631,1.96326,-8.22696,-3.12281e-05,0.000165293,0.000635498,0.000710082,-0.000576018,0.8621,0.000743874,0.0130878,1427,393,1.96328,8.22697
210,631,1.95422,-8.16678,-0.000334484,0.000343624,0.000829907,0.000901065,-0.000891925,0.979324,0.00103519,0.0157007,1434,393,1.9542,8.16679
217,631,1.94153,-8.11838,-0.00050092,0.000453366,0.00101549,0.00109822,-0.00114578,1.00502,0.00129567,0.0162497,1441,393,1.94153,8.11839
224,631,1.91028,-8.02472,-0.000577341,0.000587093,0.00117163,0.00131319,-0.00130344,1.01599,0.00151071,0.0119337,1448,393,1.91023,8.02473
231,631,1.9231,-7.91245,-0.000411568,0.000671276,0.00138406,0.00161605,-0.00135634,0.971839,0.00171829,0.0105326,1455,393,1.92305,7.91244
238,631,1.93103,-7.81976,-0.000130983,0.00102256,0.0016181,0.00216361,-0.00127203,0.956603,0.00200571,0.0164588,1462,393,1.93099,7.81977
245,631,1.9187,-7.75626,-1.51321e-05,0.00116997,0.00171955,0.00239621,-0.00124137,0.951325,0.00213514,0.017889,1469,393,1.91871,7.75625
252,631,1.88916,-7.68625,8.13855e-05,0.00138279,0.00198261,0.00281875,-0.00135457,0.943962,0.0024584,0.017699,1476,393,1.88912,7.68625
259,631,1.88647,-7.58276,0.000249676,0.00202604,0.00218999,0.00350111,-0.00122539,0.978046,0.00283231,0.0129838,1483,393,1.88651,7.58275
266,631,1.91418,-7.5036,0.000503763,0.00299977,0.0025584,0.00459833,-0.0010948,1.01232,0.00348823,0.0110981,1490,393,1.91416,7.50359
273,631,1.90698,-7.39828,0.000764122,0.00376399,0.0028102,0.00544949,-0.000921388,1.03054,0.00397587,0.0130719,1497,393,1.90695,7.39828
280,631,1.89648,-7.30786,0.00106735,0.00469926,0.00311214,0.00648651,-0.000719903,1.0495,0.0045832,0.0128511,1504,393,1.89643,7.30785
287,631,1.94531,-7.18777,0.00104025,0.00538267,0.0033796,0.0072284,-0.000805483,1.07092,0.00510864,0.0147339,1511,393,1.94531,7.18779
294,631,1.95361,-7.05484,0.00147597,0.00312143,0.00253138,0.00496042,-0.000363028,0.94252,0.00343436,0.0176357,1518,393,1.95362,7.05484
301,631,1.91321,-6.8999,0.00179909,0.00195159,0.00202836,0.00390513,-0.000154452,0.804186,0.0026564,0.0257578,1525,393,1.91319,6.8999
308,631,1.9364,-6.76559,0.00222794,-0.000437747,0.0011959,0.00268581,-0.000895613,0.365647,0.00215212,0.032423,1532,393,1.93643,6.76558
315,631,1.9165,-6.57141,0.00273707,-0.00455968,-8.89855e-05,0.00273816,-0.00456077,-0.0121928,0.00425761,0.0356319,1539,393,1.91645,6.5714
322,631,1.89709,-6.42822,0,0,0,0,0,0,0,-1,1546,393,1.89712,6.42824
329,631,2.80298,-4.77069,0,0,0,0,0,0,0,-1,1553,393,2.80301,4.7707
336,631,2.57397,-7.01022,0,0,0,0,0,0,0,-1,1560,393,2.57395,7.01024
343,631,1.38635,-8.68948,0.00170011,-0.0335181,-0.00975857,0.00422332,-0.0360413,-0.253022,0.0255519,0.0470311,1567,393,1.38631,8.68948
350,631,2.1344,-9.23401,0,0,0,0,0,0,0,-1,1574,393,2.13439,9.23401
357,631,2.6449,-9.60303,0,0,0,0,0,0,0,-1,1581,393,2.64491,9.60304
364,631,3.39136,-5.7594,0,0,0,0,0,0,0,-1,1588,393,3.39137,5.75939
371,631,3.72839,-6.0574,0,0,0,0,0,0,0,-1,1595,393,3.72845,6.05742
378,631,4.06555,-6.35544,0,0,0,0,0,0,0,-1,1602,393,4.06553,6.35544
385,631,3.90442,-3.58298,0,0,0,0,0,0,0,-1,1609,393,3.90437,3.58299
392,631,0.352295,-2.21301,0,0,0,0,0,0,0,-1,1616,393,0.352345,2.213
399,631,0,0,0,0,0,0,0,0,0,-1,1623,393,0,0
406,631,0,0,0,0,0,0,0,0,0,-1,1630,393,0,0
413,631,0,0,0,0,0,0,0,0,0,-1,1637,393,0,0
420,631,0,0,0,0,0,0,0,0,0,-1,1644,393,0,0
427,631,0,0,0,0,0,0,0,0,0,-1,1651,393,0,0
434,631,0,0,0,0,0,0,0,0,0,-1,1658,393,0,0
441,631,0,0,0,0,0,0,0,0,0,-1,1665,393,0,0
448,631,0,0,0,0,0,0,0,0,0,-1,1672,393,0,0
455,631,0,0,0,0,0,0,0,0,0,-1,1679,393,0,0
462,631,0,0,0,0,0,0,0,0,0,-1,1686,393,0,0
469,631,0,0,0,0,0,0,0,0,0,-1,1693,393,0,0
476,631,0,0,0,0,0,0,0,0,0,-1,1700,393,0,0
483,631,0,0,0,0,0,0,0,0,0,-1,1707,393,0,0
490,631,0,0,0,0,0,0,0,0,0,-1,1714,393,0,0
497,631,0,0,0,0,0,0,0,0,0,-1,1721,393,0,0
504,631,0,0,0,0,0,0,0,0,0,-1,1728,393,0,0
511,631,0,0,0,0,0,0,0,0,0,-1,1735,393,0,0
518,631,0,0,0,0,0,0,0,0,0,-1,1742,393,0,0
525,631,0,0,0,0,0,0,0,0,0,-1,1749,393,0,0
532,631,0,0,0,0,0,0,0,0,0,-1,1756,393,0,0
539,631,0,0,0,0,0,0,0,0,0,-1,1763,393,0,0
546,631,0,0,0,0,0,0,0,0,0,-1,1770,393,0,0
553,631,0,0,0,0,0,0,0,0,0,-1,1777,393,0,0
560,631,0,0,0,0,0,0,0,0,0,-1,1784,393,0,0
567,631,0,0,0,0,0,0,0,0,0,-1,1791,393,0,0
574,631,0,0,0,0,0,0,0,0,0,-1,1798,393,0,0
581,631,0,0,0,0,0,0,0,0,0,-1,1805,393,0,0
588,631,0,0,0,0,0,0,0,0,0,-1,1812,393,0,0
595,631,0,0,0,0,0,0,0,0,0,-1,1819,393,0,0
602,631,0,0,0,0,0,0,0,0,0,-1,1826,393,0,0
609,631,0,0,0,0,0,0,0,0,0,-1,1833,393,0,0
616,631,0,0,0,0,0,0,0,0,0,-1,1840,393,0,0
623,631,0,0,0,0,0,0,0,0,0,-1,1847,393,0,0
630,631,0,0,0,0,0,0,0,0,0,-1,1854,393,0,0
637,631,0,0,0,0,0,0,0,0,0,-1,1861,393,0,0
644,631,0,0,0,0,0,0,0,0,0,-1,1868,393,0,0
651,631,0,0,0,0,0,0,0,0,0,-1,1875,393,0,0
658,631,0,0,0,0,0,0,0,0,0,-1,1882,393,0,0
665,631,0,0,0,0,0,0,0,0,0,-1,1889,393,0,0
672,631,0,0,0,0,0,0,0,0,0,-1,1896,393,0,0
679,631,0,0,0,0,0,0,0,0,0,-1,1903,393,0,0
686,631,0,0,0,0,0,0,0,0,0,-1,1910,393,0,0
693,631,0,0,0,0,0,0,0,0,0,-1,1917,393,0,0
700,631,0,0,0,0,0,0,0,0,0,-1,1924,393,0,0
707,631,0,0,0,0,0,0,0,0,0,-1,1931,393,0,0
714,631,0,0,0,0,0,0,0,0,0,-1,1938,393,0,0
721,631,0,0,0,0,0,0,0,0,0,-1,1945,393,0,0
728,631,0,0,0,0,0,0,0,0,0,-1,1952,393,0,0
735,631,0,0,0,0,0,0,0,0,0,-1,1959,393,0,0
742,631,0,0,0,0,0,0,0,0,0,-1,1966,393,0,0
749,631,0,0,0,0,0,0,0,0,0,-1,1973,393,0,0
756,631,0,0,0,0,0,0,0,0,0,-1,1980,393,0,0
763,631,0,0,0,0,0,0,0,0,0,-1,1987,393,0,0
770,631,0,0,0,0,0,0,0,0,0,-1,1994,393,0,0
777,631,0,0,0,0,0,0,0,0,0,-1,2001,393,0,0
784,631,0,0,0,0,0,0,0,0,0,-1,2008,393,0,0
791,631,0,0,0,0,0,0,0,0,0,-1,2015,393,0,0
798,631,0,0,0,0,0,0,0,0,0,-1,2022,393,0,0
805,631,0,0,0,0,0,0,0,0,0,-1,2029,393,0,0
812,631,0,0,0,0,0,0,0,0,0,-1,2036,393,0,0
-700,624,0,0,0,0,0,0,0,0,0,-1,524,400,0,0
-693,624,0,0,0,0,0,0,0,0,0,-1,531,400,0,0
-686,624,0,0,0,0,0,0,0,0,0,-1,538,400,0,0
-679,624,0,0,0,0,0,0,0,0,0,-1,545,400,0,0
-672,624,0,0,0,0,0,0,0,0,0,-1,552,400,0,0
-665,624,0,0,0,0,0,0,0,0,0,-1,559,400,0,0
-658,624,0,0,0,0,0,0,0,0,0,-1,566,400,0,0
-651,624,0,0,0,0,0,0,0,0,0,-1,573,400,0,0
-644,624,0,0,0,0,0,0,0,0,0,-1,580,400,0,0
-637,624,0,0,0,0,0,0,0,0,0,-1,587,400,0,0
-630,624,0,0,0,0,0,0,0,0,0,-1,594,400,0,0
-623,624,0,0,0,0,0,0,0,0,0,-1,601,400,0,0
-616,624,0,0,0,0,0,0,0,0,0,-1,608,400,0,0
-609,624,0,0,0,0,0,0,0,0,0,-1,615,400,0,0
-602,624,0,0,0,0,0,0,0,0,0,-1,622,400,0,0
-595,624,0,0,0,0,0,0,0,0,0,-1,629,400,0,0
-588,624,0,0,0,0,0,0,0,0,0,-1,636,400,0,0
-581,624,0,0,0,0,0,0,0,0,0,-1,643,400,0,0
-574,624,0,0,0,0,0,0,0,0,0,-1,650,400,0,0
-567,624,0,0,0,0,0,0,0,0,0,-1,657,400,0,0
-560,624,0,0,0,0,0,0,0,0,0,-1,664,400,0,0
-553,624,0,0,0,0,0,0,0,0,0,-1,671,400,0,0
-546,624,0,0,0,0,0,0,0,0,0,-1,678,400,0,0
-539,624,0,0,0,0,0,0,0,0,0,-1,685,400,0,0
-532,624,0,0,0,0,0,0,0,0,0,-1,692,400,0,0
-525,624,0,0,0,0,0,0,0,0,0,-1,699,400,0,0
-518,624,0,0,0,0,0,0,0,0,0,-1,706,400,0,0
-511,624,0,0,0,0,0,0,0,0,0,-1,713,400,0,0
-504,624,0,0,0,0,0,0,0,0,0,-1,720,400,0,0
-497,624,0,0,0,0,0,0,0,0,0,-1,727,400,0,0
-490,624,0,0,0,0,0,0,0,0,0,-1,734,400,0,0
-483,624,0,0,0,0,0,0,0,0,0,-1,741,400,0,0
-476,624,0,0,0,0,0,0,0,0,0,-1,748,400,0,0
-469,624,0,0,0,0,0,0,0,0,0,-1,755,400,0,0
-462,624,0,0,0,0,0,0,0,0,0,-1,762,400,0,0
-455,624,0,0,0,0,0,0,0,0,0,-1,769,400,0,0
-448,624,0,0,0,0,0,0,0,0,0,-1,776,400,0,0
-441,624,0,0,0,0,0,0,0,0,0,-1,783,400,0,0
-434,624,0,0,0,0,0,0,0,0,0,-1,790,400,0,0
-427,624,0,0,0,0,0,0,0,0,0,-1,797,400,0,0
-420,624,0,0,0,0,0,0,0,0,0,-1,804,400,0,0
-413,624,0,0,0,0,0,0,0,0,0,-1,811,400,0,0
-406,624,0,0,0,0,0,0,0,0,0,-1,818,400,0,0
-399,624,0,0,0,0,0,0,0,0,0,-1,825,400,0,0
-392,624,0,0,0,0,0,0,0,0,0,-1,832,400,0,0
-385,624,0,0,0,0,0,0,0,0,0,-1,839,400,0,0
-378,624,0,0,0,0,0,0,0,0,0,-1,846,400,0,0
-371,624,0,0,0,0,0,0,0,0,0,-1,853,400,0,0
-364,624,0,0,0,0,0,0,0,0,0,-1,860,400,0,0
-357,624,0,0,0,0,0,0,0,0,0,-1,867,400,0,0
-350,624,0,0,0,0,0,0,0,0,0,-1,874,400,0,0
-343,624,0,0,0,0,0,0,0,0,0,-1,881,400,0,0
-336,624,0,0,0,0,0,0,0,0,0,-1,888,400,0,0
-329,624,0,0,0,0,0,0,0,0,0,-1,895,400,0,0
-322,624,0,0,0,0,0,0,0,0,0,-1,902,400,0,0
-315,624,0,0,0,0,0,0,0,0,0,-1,909,400,0,0
-308,624,0,0,0,0,0,0,0,0,0,-1,916,400,0,0
-301,624,0,0,0,0,0,0,0,0,0,-1,923,400,0,0
-294,624,-0.23291,-10.9506,0,0,0,0,0,0,0,-1,930,400,-0.232908,10.9506
-287,624,-1.38403,-11.1852,0,0,0,0,0,0,0,-1,937,400,-1.38402,11.1852
-280,624,-2.46918,-11.2775,0,0,0,0,0,0,0,-1,944,400,-2.46915,11.2775
-273,624,2.93359,-6.6337,0,0,0,0,0,0,0,-1,951,400,2.93359,6.63369
-266,624,2.91589,-5.60333,0,0,0,0,0,0,0,-1,958,400,2.91592,5.60334
-259,624,2.68219,-5.36215,0,0,0,0,0,0,0,-1,965,400,2.68217,5.36215
-252,624,3.76422,-7.54245,0,0,0,0,0,0,0,-1,972,400,3.76422,7.54246
-245,624,1.58984,-6.52399,0,0,0,0,0,0,0,-1,979,400,1.58985,6.52399
-238,624,0.350403,-7.58493,0,0,0,0,0,0,0,-1,986,400,0.350391,7.58492
-231,624,0.754761,-7.66458,0.0161992,-0.0156276,0.00272533,0.0164309,-0.0158593,0.084807,0.0186438,0.0483305,993,400,0.75478,7.66457
-224,624,1.28796,-7.45825,0.0105293,-0.0149048,0.00210415,0.0107022,-0.0150777,0.0819865,0.0149554,0.0465129,1000,400,1.28794,7.45826
-217,624,2.14203,-7.03354,0,0,0,0,0,0,0,-1,1007,400,2.14205,7.03354
-210,624,2.21747,-6.86887,0.00149501,-0.0143801,0.00150206,0.00163588,-0.014521,0.0935116,0.0102695,0.0457603,1014,400,2.21746,6.86888
-203,624,2.19849,-6.69302,-0.00209927,-0.0140135,0.00166322,-0.00187144,-0.0142413,0.136133,0.00893597,0.0402893,1021,400,2.19849,6.69301
-196,624,2.17639,-6.7872,-0.00457722,-0.0141691,0.00173055,-0.00427455,-0.0144718,0.173148,0.00858534,0.0356733,1028,400,2.17644,6.78721
-189,624,1.86707,-7.32538,-0.00635029,-0.0137717,0.00151591,-0.00605259,-0.0140694,0.193917,0.00814931,0.0326406,1035,400,1.86701,7.32539
-182,624,1.9071,-7.5195,-0.00675536,-0.0133728,0.00150907,-0.00642747,-0.0137007,0.213952,0.00791514,0.0278762,1042,400,1.90711,7.51952
-175,624,1.93787,-7.64059,-0.00624013,-0.0122318,0.00214777,-0.00554978,-0.0129222,0.310995,0.00748531,0.018014,1049,400,1.93789,7.64058
-168,624,1.91919,-7.73373,-0.00549207,-0.0111067,0.00224744,-0.00470328,-0.0118955,0.337542,0.00691782,0.0112824,1056,400,1.91925,7.73373
-161,624,1.88672,-7.83673,-0.00427008,-0.0100435,0.00208963,-0.00359313,-0.0107204,0.313288,0.00630055,0.0105344,1063,400,1.88673,7.83673
-154,624,1.87891,-7.91312,-0.00315597,-0.00896857,0.001851,-0.00261658,-0.00950796,0.283552,0.00567135,0.0102769,1070,400,1.8789,7.91313
-147,624,1.89111,-7.99411,-0.00241576,-0.00706641,0.00157547,-0.00193231,-0.00754987,0.297741,0.0045287,0.0104864,1077,400,1.89106,7.9941
-140,624,1.88037,-8.07578,-0.00163829,-0.00473673,0.00110041,-0.00128725,-0.00508777,0.308801,0.00305455,0.00963915,1084,400,1.88031,8.07578
-133,624,1.86096,-8.13486,-0.0010696,-0.00158904,0.00082263,-0.000466661,-0.00219197,0.63249,0.00133327,0.0108039,1091,400,1.861,8.13487
-126,624,1.86414,-8.19412,-0.000989729,0.000759454,0.00029238,0.000807032,-0.00103731,1.40948,0.00106759,0.0119129,1098,400,1.86412,8.19411
-119,624,1.85608,-8.26953,-0.000918802,0.00256922,-0.000171788,0.00257766,-0.000927242,-1.5217,0.00209701,0.0148087,1105,400,1.85613,8.26952
-112,624,1.85083,-8.34787,-0.000877491,0.00437378,-0.000591788,0.00443964,-0.000943356,-1.45995,0.0033192,0.0163409,1112,400,1.85085,8.34787
-105,624,1.85571,-8.39676,-0.000875162,0.00584552,-0.000955978,0.00597886,-0.0010085,-1.43221,0.00436112,0.0113635,1119,400,1.85568,8.39676
-98,624,1.84204,-8.46219,-0.000675502,0.00678707,-0.0013399,0.00702036,-0.000908788,-1.39842,0.00501072,0.0129767,1126,400,1.842,8.4622
-91,624,1.84106,-8.5542,-0.000404464,0.00734529,-0.00148458,0.00761995,-0.000679122,-1.38786,0.00532081,0.0183742,1133,400,1.84101,8.55421
-84,624,1.86633,-8.61182,-0.000201261,0.00706536,-0.00145916,0.00734741,-0.000483317,-1.37985,0.00506707,0.0168503,1140,400,1.86631,8.61182
-77,624,1.87122,-8.63336,-9.3624e-05,0.00627223,-0.00132684,0.00653771,-0.000359107,-1.37332,0.00448297,0.0122948,1147,400,1.87118,8.63337
-70,624,1.87659,-8.67459,0.000143378,0.00523738,-0.0010641,0.00545072,-6.99677e-05,-1.37292,0.00365736,0.0119457,1154,400,1.87659,8.6746
-63,624,1.87817,-8.7258,0.000468047,0.00414514,-0.000769845,0.00429981,0.000313377,-1.37252,0.002768,0.0109509,1161,400,1.8782,8.7258
-56,624,1.86438,-8.78125,0.000723532,0.0032006,-0.000511102,0.00330192,0.000622218,-1.37511,0.00202598,0.00914554,1168,400,1.86439,8.78124
-49,624,1.85229,-8.81729,0.000925538,0.00250113,-0.000275148,0.0025478,0.000878871,-1.40279,0.00149436,0.00879089,1175,400,1.85231,8.8173
-42,624,1.86389,-8.84372,0.00129169,0.0019698,4.51475e-05,0.00197279,0.0012887,1.50461,0.00115669,0.00849711,1182,400,1.86394,8.84371
-35,624,1.88281,-8.8678,0.00149937,0.00205453,0.000551522,0.00239438,0.00115951,1.01854,0.00138263,0.0126368,1189,400,1.88275,8.8678
-28,624,1.86743,-8.89777,0.00163862,0.00202379,0.00077073,0.00262564,0.00103678,0.907828,0.00152704,0.0171942,1196,400,1.86741,8.89777
-21,624,1.85925,-8.93216,0.0020411,0.00201654,0.000957174,0.00298607,0.00107157,0.778982,0.00174676,0.0134104,1203,400,1.85925,8.93217
-14,624,1.88013,-8.95938,0.00236454,0.00192699,0.000897223,0.00306928,0.00122225,0.665813,0.00178424,0.0148135,1210,400,1.88016,8.95937
-7,624,1.87012,-8.96072,0.00260978,0.0019068,0.000694361,0.00303655,0.00148003,0.551097,0.00175334,0.0178225,1217,400,1.87014,8.96073
0,624,1.89551,-8.97363,0.0027838,0.00185365,0.000532013,0.00302536,0.00161209,0.426216,0.00174795,0.0176363,1224,400,1.89555,8.97362
7,624,1.88147,-8.99738,0.00302596,0.00183271,0.000269736,0.0030841,0.00177457,0.212301,0.00178734,0.0135424,1231,400,1.88142,8.99737
14,624,1.88879,-9.02698,0.0033167,0.0016421,5.18721e-05,0.00331831,0.00164049,0.0309362,0.00191587,0.011361,1238,400,1.88883,9.02697
21,624,1.89514,-9.01874,0.00337697,0.00125716,-0.000233677,0.00340242,0.0012317,-0.108499,0.00198917,0.0113702,1245,400,1.89518,9.01872
28,624,1.88806,-9.0376,0.00380463,0.000603615,-0.000165486,0.00381316,0.000595083,-0.051515,0.0023688,0.0104211,1252,400,1.8881,9.0376
35,624,1.8772,-9.05331,0.00427836,-0.000157621,7.24146e-05,0.00427954,-0.000158803,0.0163186,0.00290741,0.0139309,1259,400,1.87716,9.05333
42,624,1.87292,-9.05286,0.00503487,-0.00103023,0.000407209,0.00506208,-0.00105745,0.0667405,0.00377687,0.0158148,1266,400,1.87294,9.05287
49,624,1.90332,-9.02591,0.00570133,-0.00181695,0.000754971,0.00577639,-0.00189201,0.0990997,0.0046128,0.0167626,1273,400,1.90327,9.02592
56,624,1.92834,-9.02856,0.00624459,-0.00226026,0.0011363,0.00639379,-0.00240946,0.130555,0.00525321,0.017053,1280,400,1.92829,9.02857
63,624,1.95239,-9.04053,0.00626274,-0.00256899,0.00122997,0.00643083,-0.00273708,0.135825,0.00543441,0.0133787,1287,400,1.95241,9.04052
70,624,1.94263,-9.04156,0.0058155,-0.00284745,0.00144939,0.00605157,-0.00308352,0.161453,0.00536613,0.0116257,1294,400,1.94263,9.04158
77,624,1.92603,-9.00848,0.00536685,-0.00271929,0.00176965,0.00573718,-0.00308962,0.206289,0.005172,0.0126298,1301,400,1.92603,9.0085
84,624,1.92664,-8.99289,0.00481527,-0.00235277,0.00196871,0.00532038,-0.00285789,0.251154,0.00479254,0.0121209,1308,400,1.92666,8.99288
91,624,1.94885,-8.9834,0.00393888,-0.00199703,0.00200154,0.00455072,-0.00260887,0.296663,0.00418396,0.0125603,1315,400,1.94882,8.9834
98,624,1.95251,-8.98117,0.00314136,-0.00170928,0.00212307,0.00393933,-0.00250725,0.359521,0.00375242,0.0118366,1322,400,1.9525,8.98116
105,624,1.95508,-8.95297,0.00246345,-0.0013828,0.00220817,0.00346854,-0.00238789,0.427142,0.00340034,0.012335,1329,400,1.95504,8.95297
112,624,1.97424,-8.90302,0.00164974,-0.00114113,0.002179,0.00284183,-0.00233321,0.500599,0.00299262,0.0139049,1336,400,1.97425,8.90302
119,624,1.953,-8.84088,0.00109455,-0.000932115,0.00218303,0.00248797,-0.00232554,0.568105,0.00277961,0.0153028,1343,400,1.95302,8.84089
126,624,1.9668,-8.78641,0.00108292,-0.000770795,0.00231821,0.0026527,-0.00234057,0.595225,0.00288474,0.0175126,1350,400,1.96684,8.78641
133,624,1.99451,-8.73859,0.00107959,-0.000672733,0.00231546,0.00267912,-0.00227226,0.604525,0.00286189,0.0170118,1357,400,1.99451,8.73859
140,624,2.01416,-8.73264,0.0013445,-0.00068854,0.00234759,0.0028862,-0.00223024,0.581082,0.00296206,0.0176293,1364,400,2.01421,8.73264
147,624,1.97705,-8.68546,0.0016101,-0.000791296,0.00240509,0.00309755,-0.00227874,0.553881,0.00311598,0.0222726,1371,400,1.97702,8.68546
154,624,1.97986,-8.62631,0.00198741,-0.000951858,0.00234669,0.00328667,-0.00225112,0.505647,0.00321583,0.0240285,1378,400,1.97982,8.62632
161,624,2.00391,-8.5611,0.00226423,-0.00116937,0.0021807,0.00332284,-0.00222798,0.451933,0.00322548,0.0218957,1385,400,2.00387,8.5611
168,624,2.0603,-8.51459,0.0024621,-0.00124588,0.00205048,0.00337248,-0.00215626,0.41784,0.00321766,0.0210116,1392,400,2.0603,8.51457
175,624,2.06165,-8.47723,0.00257796,-0.00102347,0.00162048,0.00319975,-0.00164526,0.366382,0.00284486,0.0163167,1399,400,2.06164,8.47725
182,624,2.03943,-8.43756,0.00219853,-0.000700705,0.00115624,0.00260317,-0.00110535,0.336643,0.00219856,0.0104372,1406,400,2.03947,8.43755
189,624,2.04883,-8.37381,0.00146876,-0.000442984,0.00076574,0.00173766,-0.000711876,0.337702,0.00145499,0.010029,1413,400,2.04887,8.3738
196,624,2.02454,-8.31558,0.000953679,-9.16874e-05,0.000599606,0.00122644,-0.000364445,0.426916,0.000962389,0.0103564,1420,400,2.02459,8.31559
203,624,2.0166,-8.23398,0.000352764,0.000128722,0.000332223,0.000591344,-0.000109858,0.622791,0.000435492,0.0132758,1427,400,2.01661,8.23397
210,624,2.03003,-8.16492,-0.00019658,0.000337975,0.000174476,0.000389882,-0.000248488,1.28163,0.000371564,0.0175647,1434,400,2.03005,8.16491
217,624,2.01099,-8.07843,-0.000362761,0.000435762,0.000379295,0.000587204,-0.000514203,1.19092,0.000636363,0.0200162,1441,400,2.011,8.07842
224,624,2.00134,-7.98557,-0.000414173,0.000561571,0.000551423,0.000809964,-0.000662566,1.14756,0.000851584,0.0151297,1448,400,2.00132,7.98557
231,624,2.02417,-7.93161,-0.000282576,0.000647101,0.000749907,0.00106455,-0.000700027,1.06285,0.001026,0.0114524,1455,400,2.02412,7.9316
238,624,2.01587,-7.84506,-6.04293e-05,0.000911133,0.000963881,0.00150473,-0.000654022,1.01881,0.00127821,0.0169014,1462,400,2.01588,7.84507
245,624,2.01025,-7.79285,5.14576e-05,0.00103469,0.00109315,0.00174168,-0.000655539,0.996709,0.00143061,0.0175815,1469,400,2.01025,7.79283
252,624,1.97913,-7.69403,0.00014434,0.0012127,0.00133625,0.00211759,-0.000760548,0.975548,0.00172216,0.0131704,1476,400,1.97911,7.69404
259,624,2.0033,-7.60495,0.000286573,0.00169738,0.00155316,0.00269782,-0.00071387,0.998557,0.00207779,0.00918141,1483,400,2.00326,7.60496
266,624,1.99243,-7.50507,0.000473406,0.00245615,0.00188319,0.00359297,-0.00066342,1.02768,0.00264434,0.0123837,1490,400,1.99241,7.50505
273,624,1.99719,-7.39694,0.000659241,0.00306639,0.00212855,0.00430808,-0.000582446,1.04271,0.00308459,0.0151323,1497,400,1.99719,7.39694
280,624,1.98596,-7.31189,0.000884621,0.00377513,0.00242503,0.00515291,-0.000493159,1.05413,0.0036109,0.0138559,1504,400,1.98596,7.31188
287,624,1.9873,-7.21869,0.000846236,0.00422755,0.00268355,0.0057086,-0.000634816,1.06649,0.00403402,0.0102195,1511,400,1.98726,7.21869
294,624,1.98169,-7.10071,0.00110489,0.00233459,0.00202635,0.00383731,-0.000397833,0.932697,0.00270061,0.00811226,1518,400,1.98167,7.10072
301,624,1.98291,-6.99271,0.00128539,0.00133086,0.00167008,0.00297836,-0.000362106,0.792204,0.00211662,0.0102256,1525,400,1.98285,6.99269
308,624,1.98682,-6.85562,0.00152467,-0.0005921,0.00109578,0.00198974,-0.00105717,0.401377,0.00178639,0.0140152,1532,400,1.98681,6.85562
315,624,1.96936,-6.7186,0.00178676,-0.00372088,0.000181097,0.00179271,-0.00372683,0.0328339,0.00325127,0.0153434,1539,400,1.96938,6.7186
322,624,1.96167,-6.61591,0.00193161,-0.00797404,-0.000989412,0.00202947,-0.00807189,-0.0985859,0.00617003,0.021153,1546,400,1.9617,6.61589
329,624,2.10889,-6.53412,0.00145236,-0.0127882,-0.00255707,0.0018976,-0.0132334,-0.17239,0.00951807,0.037459,1553,400,2.1089,6.53413
336,624,2.31677,-6.72006,0.000590309,-0.0178964,-0.004442,0.00160225,-0.0189083,-0.223988,0.0131722,0.0419508,1560,400,2.31673,6.72007
343,624,1.72742,-7.39343,-0.00021048,-0.0240066,-0.00634013,0.00137334,-0.0255904,-0.244799,0.017536,0.0472861,1567,400,1.72746,7.39343
350,624,1.99194,-7.29742,0,0,0,0,0,0,0,-1,1574,400,1.99198,7.29741
357,624,2.64075,-3.13092,0,0,0,0,0,0,0,-1,1581,400,2.64076,3.13091
364,624,3.16565,-4.9458,0,0,0,0,0,0,0,-1,1588,400,3.16564,4.94579
371,624,3.37561,-5.23529,0,0,0,0,0,0,0,-1,1595,400,3.37563,5.23529
378,624,1.41699,-5.91794,0,0,0,0,0,0,0,-1,1602,400,1.41695,5.91792
385,624,0.724731,-2.43875,0,0,0,0,0,0,0,-1,1609,400,0.724746,2.43875
392,624,0.673218,-2.06125,0,0,0,0,0,0,0,-1,1616,400,0.673239,2.06124
399,624,3.86841,-2.36917,0,0,0,0,0,0,0,-1,1623,400,3.86838,2.36916
406,624,4.35376,-2.6962,0,0,0,0,0,0,0,-1,1630,400,4.35373,2.69619
413,624,0,0,0,0,0,0,0,0,0,-1,1637,400,0,0
420,624,0,0,0,0,0,0,0,0,0,-1,1644,400,0,0
427,624,0,0,0,0,0,0,0,0,0,-1,1651,400,0,0
434,624,0,0,0,0,0,0,0,0,0,-1,1658,400,0,0
441,624,0,0,0,0,0,0,0,0,0,-1,1665,400,0,0
448,624,0,0,0,0,0,0,0,0,0,-1,1672,400,0,0
455,624,0,0,0,0,0,0,0,0,0,-1,1679,400,0,0
462,624,0,0,0,0,0,0,0,0,0,-1,1686,400,0,0
469,624,0,0,0,0,0,0,0,0,0,-1,1693,400,0,0
476,624,0,0,0,0,0,0,0,0,0,-1,1700,400,0,0
483,624,0,0,0,0,0,0,0,0,0,-1,1707,400,0,0
490,624,0,0,0,0,0,0,0,0,0,-1,1714,400,0,0
497,624,0,0,0,0,0,0,0,0,0,-1,1721,400,0,0
504,624,0,0,0,0,0,0,0,0,0,-1,1728,400,0,0
511,624,0,0,0,0,0,0,0,0,0,-1,1735,400,0,0
518,624,0,0,0,0,0,0,0,0,0,-1,1742,400,0,0
525,624,0,0,0,0,0,0,0,0,0,-1,1749,400,0,0
532,624,0,0,0,0,0,0,0,0,0,-1,1756,400,0,0
539,624,0,0,0,0,0,0,0,0,0,-1,1763,400,0,0
546,624,0,0,0,0,0,0,0,0,0,-1,1770,400,0,0
553,624,0,0,0,0,0,0,0,0,0,-1,1777,400,0,0
560,624,0,0,0,0,0,0,0,0,0,-1,1784,400,0,0
567,624,0,0,0,0,0,0,0,0,0,-1,1791,400,0,0
574,624,0,0,0,0,0,0,0,0,0,-1,1798,400,0,0
581,624,0,0,0,0,0,0,0,0,0,-1,1805,400,0,0
588,624,0,0,0,0,0,0,0,0,0,-1,1812,400,0,0
595,624,0,0,0,0,0,0,0,0,0,-1,1819,400,0,0
602,624,0,0,0,0,0,0,0,0,0,-1,1826,400,0,0
609,624,0,0,0,0,0,0,0,0,0,-1,1833,400,0,0
616,624,0,0,0,0,0,0,0,0,0,-1,1840,400,0,0
623,624,0,0,0,0,0,0,0,0,0,-1,1847,400,0,0
630,624,0,0,0,0,0,0,0,0,0,-1,1854,400,0,0
637,624,0,0,0,0,0,0,0,0,0,-1,1861,400,0,0
644,624,0,0,0,0,0,0,0,0,0,-1,1868,400,0,0
651,624,0,0,0,0,0,0,0,0,0,-1,1875,400,0,0
658,624,0,0,0,0,0,0,0,0,0,-1,1882,400,0,0
665,624,0,0,0,0,0,0,0,0,0,-1,1889,400,0,0
672,624,0,0,0,0,0,0,0,0,0,-1,1896,400,0,0
679,624,0,0,0,0,0,0,0,0,0,-1,1903,400,0,0
686,624,0,0,0,0,0,0,0,0,0,-1,1910,400,0,0
693,624,0,0,0,0,0,0,0,0,0,-1,1917,400,0,0
700,624,0,0,0,0,0,0,0,0,0,-1,1924,400,0,0
707,624,0,0,0,0,0,0,0,0,0,-1,1931,400,0,0
714,624,0,0,0,0,0,0,0,0,0,-1,1938,400,0,0
721,624,0,0,0,0,0,0,0,0,0,-1,1945,400,0,0
728,624,0,0,0,0,0,0,0,0,0,-1,1952,400,0,0
735,624,0,0,0,0,0,0,0,0,0,-1,1959,400,0,0
742,624,0,0,0,0,0,0,0,0,0,-1,1966,400,0,0
749,624,0,0,0,0,0,0,0,0,0,-1,1973,400,0,0
756,624,0,0,0,0,0,0,0,0,0,-1,1980,400,0,0
763,624,0,0,0,0,0,0,0,0,0,-1,1987,400,0,0
770,624,0,0,0,0,0,0,0,0,0,-1,1994,400,0,0
777,624,0,0,0,0,0,0,0,0,0,-1,2001,400,0,0
784,624,0,0,0,0,0,0,0,0,0,-1,2008,400,0,0
791,624,0,0,0,0,0,0,0,0,0,-1,2015,400,0,0
798,624,0,0,0,0,0,0,0,0,0,-1,2022,400,0,0
805,624,0,0,0,0,0,0,0,0,0,-1,2029,400,0,0
812,624,0,0,0,0,0,0,0,0,0,-1,2036,400,0,0
-700,617,0,0,0,0,0,0,0,0,0,-1,524,407,0,0
-693,617,0,0,0,0,0,0,0,0,0,-1,531,407,0,0
-686,617,0,0,0,0,0,0,0,0,0,-1,538,407,0,0
-679,617,0,0,0,0,0,0,0,0,0,-1,545,407,0,0
-672,617,0,0,0,0,0,0,0,0,0,-1,552,407,0,0
-665,617,0,0,0,0,0,0,0,0,0,-1,559,407,0,0
-658,617,0,0,0,0,0,0,0,0,0,-1,566,407,0,0
-651,617,0,0,0,0,0,0,0,0,0,-1,573,407,0,0
-644,617,0,0,0,0,0,0,0,0,0,-1,580,407,0,0
-637,617,0,0,0,0,0,0,0,0,0,-1,587,407,0,0
-630,617,0,0,0,0,0,0,0,0,0,-1,594,407,0,0
-623,617,0,0,0,0,0,0,0,0,0,-1,601,407,0,0
-616,617,0,0,0,0,0,0,0,0,0,-1,608,407,0,0
-609,617,0,0,0,0,0,0,0,0,0,-1,615,407,0,0
-602,617,0,0,0,0,0,0,0,0,0,-1,622,407,0,0
-595,617,0,0,0,0,0,0,0,0,0,-1,629,407,0,0
-588,617,0,0,0,0,0,0,0,0,0,-1,636,407,0,0
-581,617,0,0,0,0,0,0,0,0,0,-1,643,407,0,0
-574,617,0,0,0,0,0,0,0,0,0,-1,650,407,0,0
-567,617,0,0,0,0,0,0,0,0,0,-1,657,407,0,0
-560,617,0,0,0,0,0,0,0,0,0,-1,664,407,0,0
-553,617,0,0,0,0,0,0,0,0,0,-1,671,407,0,0
-546,617,0,0,0,0,0,0,0,0,0,-1,678,407,0,0
-539,617,0,0,0,0,0,0,0,0,0,-1,685,407,0,0
-532,617,0,0,0,0,0,0,0,0,0,-1,692,407,0,0
-525,617,0,0,0,0,0,0,0,0,0,-1,699,407,0,0
-518,617,0,0,0,0,0,0,0,0,0,-1,706,407,0,0
-511,617,0,0,0,0,0,0,0,0,0,-1,713,407,0,0
-504,617,0,0,0,0,0,0,0,0,0,-1,720,407,0,0
-497,617,0,0,0,0,0,0,0,0,0,-1,727,407,0,0
-490,617,0,0,0,0,0,0,0,0,0,-1,734,407,0,0
-483,617,0,0,0,0,0,0,0,0,0,-1,741,407,0,0
-476,617,0,0,0,0,0,0,0,0,0,-1,748,407,0,0
-469,617,0,0,0,0,0,0,0,0,0,-1,755,407,0,0
-462,617,0,0,0,0,0,0,0,0,0,-1,762,407,0,0
-455,617,0,0,0,0,0,0,0,0,0,-1,769,407,0,0
-448,617,0,0,0,0,0,0,0,0,0,-1,776,407,0,0
-441,617,0,0,0,0,0,0,0,0,0,-1,783,407,0,0
-434,617,0,0,0,0,0,0,0,0,0,-1,790,407,0,0
-427,617,0,0,0,0,0,0,0,0,0,-1,797,407,0,0
-420,617,0,0,0,0,0,0,0,0,0,-1,804,407,0,0
-413,617,0,0,0,0,0,0,0,0,0,-1,811,407,0,0
-406,617,0,0,0,0,0,0,0,0,0,-1,818,407,0,0
-399,617,0,0,0,0,0,0,0,0,0,-1,825,407,0,0
-392,617,0,0,0,0,0,0,0,0,0,-1,832,407,0,0
-385,617,0,0,0,0,0,0,0,0,0,-1,839,407,0,0
-378,617,0,0,0,0,0,0,0,0,0,-1,846,407,0,0
-371,617,0,0,0,0,0,0,0,0,0,-1,853,407,0,0
-364,617,0,0,0,0,0,0,0,0,0,-1,860,407,0,0
-357,617,0,0,0,0,0,0,0,0,0,-1,867,407,0,0
-350,617,0,0,0,0,0,0,0,0,0,-1,874,407,0,0
-343,617,0,0,0,0,0,0,0,0,0,-1,881,407,0,0
-336,617,0,0,0,0,0,0,0,0,0,-1,888,407,0,0
-329,617,0,0,0,0,0,0,0,0,0,-1,895,407,0,0
-322,617,0,0,0,0,0,0,0,0,0,-1,902,407,0,0
-315,617,0,0,0,0,0,0,0,0,0,-1,909,407,0,0
-308,617,0,0,0,0,0,0,0,0,0,-1,916,407,0,0
-301,617,0.848022,-9.99594,0,0,0,0,0,0,0,-1,923,407,0.847998,9.99593
-294,617,-0.346741,-10.217,0,0,0,0,0,0,0,-1,930,407,-0.34672,10.217
-287,617,-1.59149,-10.4798,0,0,0,0,0,0,0,-1,937,407,-1.59147,10.4798
-280,617,2.2077,-7.80643,0,0,0,0,0,0,0,-1,944,407,2.2077,7.80641
-273,617,2.2851,-6.80606,0,0,0,0,0,0,0,-1,951,407,2.28508,6.80607
-266,617,1.43011,-7.4751,0,0,0,0,0,0,0,-1,958,407,1.43011,7.47511
-259,617,1.40625,-7.03989,0,0,0,0,0,0,0,-1,965,407,1.40625,7.03989
-252,617,1.76642,-6.24323,0,0,0,0,0,0,0,-1,972,407,1.76645,6.24324
-245,617,1.53247,-6.52084,0,0,0,0,0,0,0,-1,979,407,1.53245,6.52084
-238,617,1.4978,-7.04874,0,0,0,0,0,0,0,-1,986,407,1.49781,7.04873
-231,617,1.453,-6.82166,0.0129792,-0.0111621,0.000766534,0.0130035,-0.0111864,0.0317093,0.0139792,0.0424615,993,407,1.453,6.82166
-224,617,1.58057,-7.0899,0.00886808,-0.0104194,0.000588671,0.00888603,-0.0104374,0.030483,0.0111684,0.043209,1000,407,1.58057,7.08989
-217,617,1.95404,-7.03333,0.00524072,-0.00994391,0.000545783,0.00526031,-0.0099635,0.0358814,0.00892819,0.0362907,1007,407,1.95405,7.03332
-210,617,1.8692,-7.17001,0.00220213,-0.00967119,0.000595583,0.00223193,-0.00970099,0.0499941,0.00732553,0.0232126,1014,407,1.86923,7.17001
-203,617,1.87708,-7.27206,-0.000562615,-0.00926673,0.000866147,-0.000477262,-0.00935208,0.0982267,0.00608188,0.0186071,1021,407,1.87706,7.27207
-196,617,1.85925,-7.34656,-0.0025083,-0.00937344,0.00102595,-0.00235826,-0.00952348,0.145217,0.0057271,0.0161445,1028,407,1.85925,7.34656
-189,617,1.83008,-7.43887,-0.00389509,-0.00909498,0.000948412,-0.00372751,-0.00926256,0.174891,0.00538158,0.0132607,1035,407,1.83009,7.43887
-182,617,1.82312,-7.5452,-0.00437488,-0.00878112,0.000919484,-0.0041907,-0.00896529,0.197689,0.00517977,0.0138084,1042,407,1.82308,7.54521
-175,617,1.83899,-7.63382,-0.00424957,-0.00795887,0.0013801,-0.00379243,-0.00841601,0.319866,0.00486688,0.0114759,1049,407,1.83899,7.63382
-168,617,1.82959,-7.73709,-0.00388952,-0.00718116,0.00141962,-0.00336185,-0.00770883,0.355871,0.00446279,0.00883562,1056,407,1.82958,7.73711
-161,617,1.80005,-7.85025,-0.00313229,-0.00645591,0.00124106,-0.00272001,-0.00686819,0.32073,0.00399382,0.0105287,1063,407,1.80001,7.85025
-154,617,1.79651,-7.92902,-0.00243217,-0.00572491,0.00102314,-0.00214016,-0.00601692,0.278022,0.00352177,0.0112277,1070,407,1.79654,7.92903
-147,617,1.79553,-7.98956,-0.00175714,-0.00450941,0.000944002,-0.00146448,-0.00480208,0.300627,0.00284192,0.0146262,1077,407,1.79551,7.98957
-140,617,1.79883,-8.07739,-0.000908329,-0.00299301,0.000750579,-0.000666208,-0.00323513,0.312041,0.00197255,0.0111607,1084,407,1.79877,8.07741
-133,617,1.79443,-8.14099,-0.000302097,-0.000890418,0.000640289,0.00010837,-0.00130089,0.570069,0.000905545,0.0133538,1091,407,1.79449,8.14098
-126,617,1.78796,-8.18408,-7.06495e-06,0.000630005,0.00035682,0.000789785,-0.000166844,1.14978,0.000590054,0.013398,1098,407,1.78793,8.18408
-119,617,1.78662,-8.2673,0.000351933,0.00169013,0.000131206,0.00170288,0.00033919,1.47398,0.00104078,0.0136124,1105,407,1.78667,8.2673
-112,617,1.78455,-8.33456,0.000711644,0.00272666,-6.75016e-05,0.00272892,0.000709386,-1.53735,0.00163495,0.0148187,1112,407,1.78451,8.33456
-105,617,1.8031,-8.39487,0.00101892,0.00350231,-0.000249673,0.00352717,0.000994072,-1.47158,0.00210003,0.0150008,1119,407,1.80313,8.39486
-98,617,1.80005,-8.47379,0.00140797,0.00388419,-0.000498522,0.00398079,0.00131137,-1.3794,0.00234247,0.0128716,1126,407,1.8001,8.47378
-91,617,1.79175,-8.55194,0.00177302,0.00394757,-0.000636685,0.00412027,0.00160032,-1.30592,0.00239851,0.017492,1133,407,1.79174,8.55194
-84,617,1.80933,-8.59964,0.0019809,0.00346502,-0.000675357,0.00372634,0.00171958,-1.20161,0.00215353,0.0167897,1140,407,1.80937,8.59964
-77,617,1.82434,-8.63184,0.00205566,0.00265736,-0.000639173,0.00306294,0.00165007,-1.00536,0.00177016,0.0128863,1147,407,1.82429,8.63184
-70,617,1.84033,-8.69443,0.00216935,0.0018865,-0.000479688,0.00252803,0.00152783,-0.642049,0.00147011,0.0124266,1154,407,1.84029,8.69444
-63,617,1.84216,-8.74631,0.00227691,0.0012968,-0.00030766,0.00236548,0.00120823,-0.280308,0.00136581,0.012952,1161,407,1.8422,8.7463
-56,617,1.83728,-8.78442,0.00220631,0.00124276,-0.000114351,0.00221969,0.00122938,-0.116521,0.00128402,0.00998692,1168,407,1.83726,8.78441
-49,617,1.8291,-8.80884,0.00210454,0.0016117,9.20686e-05,0.00212118,0.00159507,0.178783,0.00127545,0.00882197,1175,407,1.82915,8.80884
-42,617,1.83704,-8.85889,0.00216747,0.00273072,0.000527171,0.00304677,0.00185142,1.03072,0.0017726,0.0104251,1182,407,1.83698,8.8589
-35,617,1.84998,-8.88855,0.00221738,0.00408232,0.00128406,0.00473677,0.00156293,1.09944,0.00278699,0.0149476,1189,407,1.84999,8.88855
-28,617,1.8468,-8.89783,0.00240211,0.00497175,0.00175463,0.00586167,0.00151219,1.10142,0.00351391,0.0175626,1196,407,1.84686,8.89784
-21,617,1.85742,-8.93265,0.00291315,0.00536862,0.00211391,0.00658546,0.00169631,1.04848,0.00394827,0.0134416,1203,407,1.85743,8.93264
-14,617,1.84265,-8.93045,0.00331136,0.00546913,0.00207773,0.00673139,0.0020491,1.02487,0.00398425,0.014469,1210,407,1.8427,8.93045
-7,617,1.83276,-8.92035,0.00361387,0.0055385,0.00180785,0.0066242,0.00252817,1.02997,0.00386003,0.015704,1217,407,1.83276,8.92035
0,617,1.85474,-8.95288,0.0038245,0.00544631,0.00158762,0.00641813,0.00285268,1.02151,0.00371312,0.0139597,1224,407,1.85471,8.95289
7,617,1.88232,-8.9996,0.00432153,0.00538422,0.00117618,0.00614351,0.00356225,0.997554,0.003562,0.0109571,1231,407,1.88236,8.9996
14,617,1.87781,-9.02774,0.00486266,0.00495197,0.000837584,0.00574609,0.00406854,0.812029,0.0034119,0.0129428,1238,407,1.87782,9.02775
21,617,1.8761,-9.00345,0.0049761,0.00406998,0.000369839,0.00510788,0.00393819,0.342305,0.00309006,0.010999,1245,407,1.87613,9.00344
28,617,1.87439,-9.02011,0.00553163,0.00270114,0.00035947,0.00557657,0.0026562,0.124369,0.00322084,0.00966818,1252,407,1.8744,9.0201
35,617,1.84192,-9.05923,0.00620887,0.00131087,0.000575831,0.00627565,0.00124408,0.115467,0.0038369,0.0123553,1259,407,1.84197,9.05923
42,617,1.87732,-9.04163,0.00729734,-0.00018524,0.000905367,0.00740533,-0.000293228,0.118714,0.00503747,0.0184576,1266,407,1.87726,9.04163
49,617,1.92078,-9.02737,0.00826676,-0.00162672,0.0012297,0.00841731,-0.00177727,0.121825,0.00628825,0.0183268,1273,407,1.9208,9.02736
56,617,1.93408,-9.03604,0.00899255,-0.00254502,0.00162546,0.00921718,-0.00276965,0.137324,0.00724663,0.0136725,1280,407,1.93405,9.03605
63,617,1.95642,-9.04895,0.00865389,-0.00317842,0.0017131,0.00889692,-0.00342145,0.140927,0.00734248,0.0100548,1287,407,1.95646,9.04896
70,617,1.92883,-9.04788,0.00764517,-0.0037109,0.00202614,0.00799584,-0.00406158,0.171377,0.00708381,0.0136915,1294,407,1.92889,9.04787
77,617,1.95044,-9.00754,0.00669895,-0.00357522,0.00250318,0.00727637,-0.00415263,0.226708,0.00668018,0.0131128,1301,407,1.95048,9.00753
84,617,1.95374,-8.95245,0.00555919,-0.00314222,0.00284124,0.00640476,-0.00398779,0.289259,0.00605399,0.0106835,1308,407,1.95368,8.95244
91,617,1.97156,-8.97809,0.00397613,-0.00275183,0.00299089,0.00511346,-0.00388916,0.363378,0.00521366,0.00969727,1315,407,1.97152,8.97809
98,617,2.01025,-8.96475,0.00256941,-0.00249871,0.00330059,0.00419653,-0.00412582,0.458013,0.00480497,0.0108037,1322,407,2.01022,8.96476
105,617,2.01062,-8.93021,0.00139852,-0.00214145,0.00357263,0.00361558,-0.00435852,0.555406,0.0046105,0.0122257,1329,407,2.01066,8.9302
112,617,2.00244,-8.90793,-2.58981e-06,-0.00203518,0.00369815,0.00281637,-0.00485413,0.651303,0.00448036,0.015692,1336,407,2.00242,8.90792
119,617,2.01343,-8.84381,-0.000906701,-0.00190108,0.00384613,0.00247424,-0.00528203,0.721119,0.00457485,0.0196116,1343,407,2.01348,8.84381
126,617,2.03687,-8.76947,-0.000936328,-0.00178762,0.00417227,0.00283195,-0.00555589,0.734565,0.00492711,0.0214391,1350,407,2.03681,8.76946
133,617,2.01807,-8.74432,-0.000870652,-0.00177691,0.00433272,0.00303257,-0.00568013,0.733296,0.00510711,0.0176543,1357,407,2.01808,8.74432
140,617,2.04236,-8.72177,-0.000382909,-0.0019854,0.00450331,0.00338988,-0.00575819,0.697357,0.00534031,0.0150064,1364,407,2.04234,8.72178
147,617,2.03992,-8.66071,0.000206168,-0.00227165,0.00468605,0.00381431,-0.0058798,0.656164,0.00563909,0.017728,1371,407,2.03988,8.66069
154,617,2.04712,-8.61288,0.00103531,-0.00251921,0.00468843,0.00427203,-0.00575593,0.60423,0.00581073,0.0203913,1378,407,2.04706,8.61288
161,617,2.10059,-8.58353,0.00179153,-0.00279567,0.00449316,0.00454264,-0.00554678,0.549406,0.00583473,0.0213691,1385,407,2.10058,8.58352
168,617,2.10559,-8.57001,0.00272431,-0.00292242,0.00419983,0.00496157,-0.00515968,0.489467,0.00584388,0.0202877,1392,407,2.10555,8.57
175,617,2.08289,-8.55573,0.00349898,-0.00244706,0.0034144,0.00505332,-0.0040014,0.427195,0.00523949,0.018014,1399,407,2.0829,8.55574
182,617,2.09192,-8.44803,0.00333522,-0.00182422,0.00252773,0.00436719,-0.0028562,0.387609,0.00420073,0.0122032,1406,407,2.09192,8.44804
189,617,2.09094,-8.3739,0.00249357,-0.00129278,0.0016292,0.00309807,-0.00189728,0.355298,0.00291171,0.0114797,1413,407,2.09098,8.37389
196,617,2.0719,-8.31635,0.00190005,-0.000546641,0.00105319,0.00229095,-0.000937537,0.355396,0.00191779,0.0146958,1420,407,2.07195,8.31634
203,617,2.06958,-8.24066,0.000933866,4.10842e-05,0.00020579,0.000979018,-4.06764e-06,0.215985,0.000654039,0.0147752,1427,407,2.06954,8.24066
210,617,2.09387,-8.17084,-3.59458e-05,0.000303721,-0.000477634,0.000640817,-0.000373042,-0.956213,0.000592118,0.0140897,1434,407,2.09387,8.17085
217,617,2.09644,-8.05121,-0.000222115,0.000369348,-0.000254499,0.000463779,-0.000316546,-1.2155,0.000453186,0.0176221,1441,407,2.09641,8.0512
224,617,2.09082,-7.96857,-0.000257412,0.000478758,-6.94946e-05,0.00048526,-0.000263915,-1.47749,0.000438784,0.0166856,1448,407,2.09077,7.96856
231,617,2.10571,-7.92358,-0.000165021,0.000545595,0.00011026,0.00056231,-0.000181736,1.42035,0.000447915,0.012705,1455,407,2.1057,7.92357
238,617,2.09937,-7.85809,-6.54661e-06,0.000700527,0.000290164,0.000804356,-0.000110376,1.22716,0.000576562,0.0143227,1462,407,2.09931,7.85808
245,617,2.09949,-7.79602,8.93802e-05,0.000760231,0.00042215,0.000963991,-0.00011438,1.12111,0.000683983,0.0128135,1469,407,2.09945,7.79603
252,617,2.11279,-7.7132,0.000168429,0.000869069,0.000625907,0.00123602,-0.000198526,1.04053,0.00089754,0.0137454,1476,407,2.11277,7.7132
259,617,2.10107,-7.60712,0.000280514,0.00117453,0.000831052,0.00167117,-0.000216122,1.03214,0.0011927,0.0114314,1483,407,2.10113,7.6071
266,617,2.08997,-7.50278,0.000403821,0.00171252,0.00110706,0.00234415,-0.000227816,1.05231,0.00164398,0.0135953,1490,407,2.08991,7.50279
273,617,2.08411,-7.40598,0.000518663,0.00217388,0.00133197,0.00291441,-0.000221876,1.06338,0.00202097,0.0143085,1497,407,2.08412,7.40598
280,617,2.07581,-7.30988,0.00067595,0.00269154,0.00161624,0.00358844,-0.000220952,1.06417,0.00246924,0.0127227,1504,407,2.07581,7.30989
287,617,2.06067,-7.20966,0.000647972,0.00299654,0.00186857,0.00402918,-0.000384668,1.06593,0.00282309,0.0117191,1511,407,2.06068,7.20965
294,617,2.06909,-7.10565,0.000798783,0.00152076,0.00139683,0.00260249,-0.000282948,0.911849,0.00183659,0.00879763,1518,407,2.0691,7.10566
301,617,2.07031,-7.01016,0.00089433,0.000721372,0.00117379,0.00198482,-0.000369121,0.748627,0.00146187,0.00704776,1525,407,2.07033,7.01016
308,617,2.07361,-6.89557,0.00102831,-0.000760418,0.000813708,0.00134308,-0.00107519,0.369106,0.00139904,0.00808588,1532,407,2.07361,6.89558
315,617,2.07397,-6.76379,0.00118128,-0.00301855,0.00023419,0.0011943,-0.00303157,0.0555324,0.00251549,0.0092781,1539,407,2.07398,6.76381
322,617,2.08618,-6.65952,0.00119435,-0.00606553,-0.000514642,0.00123065,-0.00610183,-0.0704192,0.00453412,0.0111683,1546,407,2.08616,6.65953
329,617,2.06982,-6.55292,0.000639598,-0.00944388,-0.00155294,0.000873346,-0.00967763,-0.149398,0.00676169,0.0125668,1553,407,2.06983,6.55292
336,617,2.05847,-6.46649,-0.000231814,-0.0128454,-0.00277437,0.000351442,-0.0134287,-0.207212,0.00907186,0.0269928,1560,407,2.05846,6.46649
343,617,1.948,-6.46738,-0.00106216,-0.0168573,-0.00398035,-0.000115818,-0.0178036,-0.23342,0.0118307,0.0486684,1567,407,1.94796,6.46737
350,617,2.05457,-6.47086,0,0,0,0,0,0,0,-1,1574,407,2.05456,6.47085
357,617,2.31323,-6.13657,0,0,0,0,0,0,0,-1,1581,407,2.31321,6.13656
364,617,2.42249,-5.76233,0,0,0,0,0,0,0,-1,1588,407,2.42244,5.76233
371,617,2.30957,-5.89301,0,0,0,0,0,0,0,-1,1595,407,2.30958,5.893
378,617,1.60034,-5.82687,0,0,0,0,0,0,0,-1,1602,407,1.60034,5.82688
385,617,1.14258,-5.47083,0,0,0,0,0,0,0,-1,1609,407,1.14254,5.47084
392,617,3.1283,-2.2749,0,0,0,0,0,0,0,-1,1616,407,3.12834,2.27489
399,617,2.56445,-2.84402,0,0,0,0,0,0,0,-1,1623,407,2.56446,2.84404
406,617,3.02429,-3.19577,0,0,0,0,0,0,0,-1,1630,407,3.02431,3.19577
413,617,2.92786,-3.80649,0,0,0,0,0,0,0,-1,1637,407,2.92788,3.8065
420,617,3.42737,-4.47391,0,0,0,0,0,0,0,-1,1644,407,3.42737,4.47391
427,617,0,0,0,0,0,0,0,0,0,-1,1651,407,0,0
434,617,0,0,0,0,0,0,0,0,0,-1,1658,407,0,0
441,617,0,0,0,0,0,0,0,0,0,-1,1665,407,0,0
448,617,0,0,0,0,0,0,0,0,0,-1,1672,407,0,0
455,617,0,0,0,0,0,0,0,0,0,-1,1679,407,0,0
462,617,0,0,0,0,0,0,0,0,0,-1,1686,407,0,0
469,617,0,0,0,0,0,0,0,0,0,-1,1693,407,0,0
476,617,0,0,0,0,0,0,0,0,0,-1,1700,407,0,0
483,617,0,0,0,0,0,0,0,0,0,-1,1707,407,0,0
490,617,0,0,0,0,0,0,0,0,0,-1,1714,407,0,0
497,617,0,0,0,0,0,0,0,0,0,-1,1721,407,0,0
504,617,0,0,0,0,0,0,0,0,0,-1,1728,407,0,0
511,617,0,0,0,0,0,0,0,0,0,-1,1735,407,0,0
518,617,0,0,0,0,0,0,0,0,0,-1,1742,407,0,0
525,617,0,0,0,0,0,0,0,0,0,-1,1749,407,0,0
532,617,0,0,0,0,0,0,0,0,0,-1,1756,407,0,0
539,617,0,0,0,0,0,0,0,0,0,-1,1763,407,0,0
546,617,0,0,0,0,0,0,0,0,0,-1,1770,407,0,0
553,617,0,0,0,0,0,0,0,0,0,-1,1777,407,0,0
560,617,0,0,0,0,0,0,0,0,0,-1,1784,407,0,0
567,617,0,0,0,0,0,0,0,0,0,-1,1791,407,0,0
574,617,0,0,0,0,0,0,0,0,0,-1,1798,407,0,0
581,617,0,0,0,0,0,0,0,0,0,-1,1805,407,0,0
588,617,0,0,0,0,0,0,0,0,0,-1,1812,407,0,0
595,617,0,0,0,0,0,0,0,0,0,-1,1819,407,0,0
602,617,0,0,0,0,0,0,0,0,0,-1,1826,407,0,0
609,617,0,0,0,0,0,0,0,0,0,-1,1833,407,0,0
616,617,0,0,0,0,0,0,0,0,0,-1,1840,407,0,0
623,617,0,0,0,0,0,0,0,0,0,-1,1847,407,0,0
630,617,0,0,0,0,0,0,0,0,0,-1,1854,407,0,0
637,617,0,0,0,0,0,0,0,0,0,-1,1861,407,0,0
644,617,0,0,0,0,0,0,0,0,0,-1,1868,407,0,0
651,617,0,0,0,0,0,0,0,0,0,-1,1875,407,0,0
658,617,0,0,0,0,0,0,0,0,0,-1,1882,407,0,0
665,617,0,0,0,0,0,0,0,0,0,-1,1889,407,0,0
672,617,0,0,0,0,0,0,0,0,0,-1,1896,407,0,0
679,617,0,0,0,0,0,0,0,0,0,-1,1903,407,0,0
686,617,0,0,0,0,0,0,0,0,0,-1,1910,407,0,0
693,617,0,0,0,0,0,0,0,0,0,-1,1917,407,0,0
700,617,0,0,0,0,0,0,0,0,0,-1,1924,407,0,0
707,617,0,0,0,0,0,0,0,0,0,-1,1931,407,0,0
714,617,0,0,0,0,0,0,0,0,0,-1,1938,407,0,0
721,617,0,0,0,0,0,0,0,0,0,-1,1945,407,0,0
728,617,0,0,0,0,0,0,0,0,0,-1,1952,407,0,0
735,617,0,0,0,0,0,0,0,0,0,-1,1959,407,0,0
742,617,0,0,0,0,0,0,0,0,0,-1,1966,407,0,0
749,617,0,0,0,0,0,0,0,0,0,-1,1973,407,0,0
756,617,0,0,0,0,0,0,0,0,0,-1,1980,407,0,0
763,617,0,0,0,0,0,0,0,0,0,-1,1987,407,0,0
770,617,0,0,0,0,0,0,0,0,0,-1,1994,407,0,0
777,617,0,0,0,0,0,0,0,0,0,-1,2001,407,0,0
784,617,0,0,0,0,0,0,0,0,0,-1,2008,407,0,0
791,617,0,0,0,0,0,0,0,0,0,-1,2015,407,0,0
798,617,0,0,0,0,0,0,0,0,0,-1,2022,407,0,0
805,617,0,0,0,0,0,0,0,0,0,-1,2029,407,0,0
812,617,0,0,0,0,0,0,0,0,0,-1,2036,407,0,0
-700,610,0,0,0,0,0,0,0,0,0,-1,524,414,0,0
-693,610,0,0,0,0,0,0,0,0,0,-1,531,414,0,0
-686,610,0,0,0,0,0,0,0,0,0,-1,538,414,0,0
-679,610,0,0,0,0,0,0,0,0,0,-1,545,414,0,0
-672,610,0,0,0,0,0,0,0,0,0,-1,552,414,0,0
-665,610,0,0,0,0,0,0,0,0,0,-1,559,414,0,0
-658,610,0,0,0,0,0,0,0,0,0,-1,566,414,0,0
-651,610,0,0,0,0,0,0,0,0,0,-1,573,414,0,0
-644,610,0,0,0,0,0,0,0,0,0,-1,580,414,0,0
-637,610,0,0,0,0,0,0,0,0,0,-1,587,414,0,0
-630,610,0,0,0,0,0,0,0,0,0,-1,594,414,0,0
-623,610,0,0,0,0,0,0,0,0,0,-1,601,414,0,0
-616,610,0,0,0,0,0,0,0,0,0,-1,608,414,0,0
-609,610,0,0,0,0,0,0,0,0,0,-1,615,414,0,0
-602,610,0,0,0,0,0,0,0,0,0,-1,622,414,0,0
-595,610,0,0,0,0,0,0,0,0,0,-1,629,414,0,0
-588,610,0,0,0,0,0,0,0,0,0,-1,636,414,0,0
-581,610,0,0,0,0,0,0,0,0,0,-1,643,414,0,0
-574,610,0,0,0,0,0,0,0,0,0,-1,650,414,0,0
-567,610,0,0,0,0,0,0,0,0,0,-1,657,414,0,0
-560,610,0,0,0,0,0,0,0,0,0,-1,664,414,0,0
-553,610,0,0,0,0,0,0,0,0,0,-1,671,414,0,0
-546,610,0,0,0,0,0,0,0,0,0,-1,678,414,0,0
-539,610,0,0,0,0,0,0,0,0,0,-1,685,414,0,0
-532,610,0,0,0,0,0,0,0,0,0,-1,692,414,0,0
-525,610,0,0,0,0,0,0,0,0,0,-1,699,414,0,0
-518,610,0,0,0,0,0,0,0,0,0,-1,706,414,0,0
-511,610,0,0,0,0,0,0,0,0,0,-1,713,414,0,0
-504,610,0,0,0,0,0,0,0,0,0,-1,720,414,0,0
-497,610,0,0,0,0,0,0,0,0,0,-1,727,414,0,0
-490,610,0,0,0,0,0,0,0,0,0,-1,734,414,0,0
-483,610,0,0,0,0,0,0,0,0,0,-1,741,414,0,0
-476,610,0,0,0,0,0,0,0,0,0,-1,748,414,0,0
-469,610,0,0,0,0,0,0,0,0,0,-1,755,414,0,0
-462,610,0,0,0,0,0,0,0,0,0,-1,762,414,0,0
-455,610,0,0,0,0,0,0,0,0,0,-1,769,414,0,0
-448,610,0,0,0,0,0,0,0,0,0,-1,776,414,0,0
-441,610,0,0,0,0,0,0,0,0,0,-1,783,414,0,0
-434,610,0,0,0,0,0,0,0,0,0,-1,790,414,0,0
-427,610,0,0,0,0,0,0,0,0,0,-1,797,414,0,0
-420,610,0,0,0,0,0,0,0,0,0,-1,804,414,0,0
-413,610,0,0,0,0,0,0,0,0,0,-1,811,414,0,0
-406,610,0,0,0,0,0,0,0,0,0,-1,818,414,0,0
-399,610,0,0,0,0,0,0,0,0,0,-1,825,414,0,0
-392,610,0,0,0,0,0,0,0,0,0,-1,832,414,0,0
-385,610,0,0,0,0,0,0,0,0,0,-1,839,414,0,0
-378,610,0,0,0,0,0,0,0,0,0,-1,846,414,0,0
-371,610,0,0,0,0,0,0,0,0,0,-1,853,414,0,0
-364,610,0,0,0,0,0,0,0,0,0,-1,860,414,0,0
-357,610,0,0,0,0,0,0,0,0,0,-1,867,414,0,0
-350,610,0,0,0,0,0,0,0,0,0,-1,874,414,0,0
-343,610,0,0,0,0,0,0,0,0,0,-1,881,414,0,0
-336,610,0,0,0,0,0,0,0,0,0,-1,888,414,0,0
-329,610,0,0,0,0,0,0,0,0,0,-1,895,414,0,0
-322,610,0,0,0,0,0,0,0,0,0,-1,902,414,0,0
-315,610,2.20007,-7.75031,0,0,0,0,0,0,0,-1,909,414,2.20009,7.7503
-308,610,2.1037,-9.16321,0,0,0,0,0,0,0,-1,916,414,2.10368,9.1632
-301,610,0.755615,-9.29306,0,0,0,0,0,0,0,-1,923,414,0.755596,9.29307
-294,610,-0.583923,-9.4635,0,0,0,0,0,0,0,-1,930,414,-0.583928,9.46349
-287,610,-1.8819,-9.7428,0,0,0,0,0,0,0,-1,937,414,-1.88192,9.74279
-280,610,-3.13068,-9.97546,0,0,0,0,0,0,0,-1,944,414,-3.13065,9.97548
-273,610,1.20288,-7.46951,0,0,0,0,0,0,0,-1,951,414,1.20286,7.46951
-266,610,1.2608,-7.07715,0,0,0,0,0,0,0,-1,958,414,1.26079,7.07714
-259,610,1.27063,-6.64423,0.0214866,-0.010298,0.000755245,0.0215045,-0.010316,0.0237435,0.0187463,0.0490424,965,414,1.2706,6.64422
-252,610,1.53369,-6.38446,0.0188724,-0.00892577,0.00033938,0.0188765,-0.00892991,0.0122063,0.0163928,0.0466666,972,414,1.53368,6.38447
-245,610,1.63776,-6.5723,0.0159231,-0.00805527,-9.48466e-05,0.0159235,-0.00805565,-0.00395542,0.0140906,0.0447701,979,414,1.63774,6.57228
-238,610,1.87213,-6.81845,0.012927,-0.00809554,-0.000466,0.0129373,-0.00810587,-0.0221522,0.0122556,0.0374163,986,414,1.87215,6.81845
-231,610,1.74988,-6.7883,0.0100217,-0.00757291,-0.000438458,0.0100326,-0.00758383,-0.0248994,0.0102036,0.0315304,993,414,1.74988,6.78829
-224,610,1.71246,-6.9024,0.00713674,-0.00691153,-0.00036268,0.0071461,-0.00692089,-0.0257938,0.00812193,0.0253713,1000,414,1.71246,6.90241
-217,610,1.77393,-7.05493,0.0045766,-0.00645665,-0.000213891,0.00458074,-0.00646079,-0.0193764,0.00640556,0.0156928,1007,414,1.77394,7.05492
-210,610,1.76343,-7.17755,0.00239113,-0.00616032,-3.28443e-05,0.00239126,-0.00616045,-0.0038407,0.00509468,0.00946259,1014,414,1.76345,7.17756
-203,610,1.75952,-7.27969,0.000320507,-0.00577911,0.000267132,0.000332184,-0.00579078,0.0436834,0.00397588,0.0119314,1021,414,1.75954,7.27969
-196,610,1.76379,-7.38333,-0.00117902,-0.00585583,0.00044655,-0.00113677,-0.00589809,0.0943457,0.00361324,0.0141813,1028,414,1.76382,7.38333
-189,610,1.76892,-7.47433,-0.00225421,-0.00566706,0.000428714,-0.00220118,-0.00572009,0.123071,0.00333158,0.0113177,1035,414,1.76898,7.47434
-182,610,1.76111,-7.54822,-0.00270277,-0.0054006,0.000385758,-0.0026487,-0.00545467,0.139271,0.00314969,0.0112968,1042,414,1.76114,7.5482
-175,610,1.74768,-7.61581,-0.00277632,-0.00480893,0.000701805,-0.00255755,-0.00502769,0.302177,0.00290289,0.0107724,1049,414,1.74765,7.61583
-168,610,1.729,-7.72388,-0.00265051,-0.00427692,0.000686445,-0.00239952,-0.00452791,0.350536,0.00261575,0.0101393,1056,414,1.72898,7.72387
-161,610,1.71045,-7.85709,-0.00222006,-0.00377049,0.000497503,-0.00207416,-0.0039164,0.285282,0.00226246,0.0106508,1063,414,1.71048,7.85709
-154,610,1.71863,-7.92853,-0.00182328,-0.00327258,0.0003121,-0.00175893,-0.00333694,0.203339,0.00192752,0.0133525,1070,414,1.71866,7.92852
-147,610,1.73474,-7.97617,-0.00119436,-0.00260261,0.000329757,-0.00112096,-0.002676,0.218991,0.00155175,0.0141835,1077,414,1.73469,7.97618
-140,610,1.73999,-8.06274,-0.000323113,-0.00173045,0.000278779,-0.000269902,-0.00178366,0.188604,0.00111013,0.01089,1084,414,1.74004,8.06275
-133,610,1.73376,-8.14093,0.000294028,-0.000612742,0.000233962,0.000350835,-0.000669549,0.238196,0.000598622,0.0126376,1091,414,1.73371,8.14093
-126,610,1.71448,-8.20151,0.000734086,0.000180044,8.80506e-05,0.000747743,0.000166387,0.153875,0.000453328,0.0122058,1098,414,1.71442,8.20151
-119,610,1.73157,-8.24631,0.00128462,0.000621118,-1.22094e-05,0.00128484,0.000620893,-0.0183933,0.000741942,0.0105898,1105,414,1.73155,8.2463
-112,610,1.74097,-8.31976,0.00187819,0.00101392,-9.23042e-05,0.00188794,0.00100417,-0.105219,0.00109074,0.0183836,1112,414,1.74095,8.31978
-105,610,1.73657,-8.40369,0.00242068,0.0012431,-0.000184353,0.00244886,0.00121492,-0.151719,0.00141387,0.0170956,1119,414,1.73653,8.40368
-98,610,1.75,-8.48022,0.00296167,0.00125828,-0.000350008,0.00303078,0.00118917,-0.194958,0.00176329,0.0125044,1126,414,1.74998,8.48023
-91,610,1.74768,-8.53473,0.00341514,0.00104465,-0.000487442,0.00351146,0.000948327,-0.195087,0.00209758,0.0135485,1133,414,1.74774,8.53474
-84,610,1.75769,-8.57602,0.00363169,0.000644281,-0.000577266,0.00373935,0.000536614,-0.184393,0.00233468,0.0140089,1140,414,1.75767,8.57603
-77,610,1.75732,-8.64273,0.00367926,0.000130544,-0.000595959,0.00377667,3.31346e-05,-0.162017,0.00250681,0.0109,1147,414,1.75735,8.64272
-70,610,1.79065,-8.71106,0.00374535,-0.000205762,-0.000441857,0.00379416,-0.000254572,-0.11002,0.00261843,0.0120783,1154,414,1.79061,8.71106
-63,610,1.79712,-8.75537,0.00381929,-0.00033325,-0.000254756,0.00383486,-0.000348821,-0.0610445,0.00268042,0.0117849,1161,414,1.79706,8.75536
-56,610,1.81335,-8.78305,0.00358519,0.000394102,1.12649e-05,0.00358523,0.000394062,0.00353006,0.00227023,0.0102008,1168,414,1.81331,8.78306
-49,610,1.80542,-8.80798,0.00333036,0.00168155,0.000297072,0.00338225,0.00162966,0.172931,0.00195318,0.0106259,1175,414,1.80536,8.80798
-42,610,1.7948,-8.86151,0.00343591,0.00446573,0.00113841,0.00520026,0.00270138,0.997784,0.00300313,0.0138682,1182,414,1.7948,8.8615
-35,610,1.79932,-8.89905,0.0034133,0.00735609,0.00247816,0.00855134,0.00221805,1.1214,0.00512414,0.0136685,1189,414,1.79934,8.89904
-28,610,1.80176,-8.91367,0.00365036,0.00933084,0.00335679,0.0108878,0.00209344,1.13652,0.0066711,0.011881,1196,414,1.80178,8.91365
-21,610,1.8125,-8.9361,0.00439026,0.0103006,0.00402864,0.0123417,0.00234914,1.10184,0.0075673,0.010408,1203,414,1.8125,8.93609
-14,610,1.80896,-8.94174,0.00495688,0.0106819,0.00410662,0.0128252,0.00281356,1.08977,0.00778367,0.011266,1210,414,1.80899,8.94174
-7,610,1.82642,-8.93506,0.00539627,0.0108764,0.00380312,0.0128238,0.00344894,1.09757,0.00766277,0.0124562,1217,414,1.82647,8.93505
0,610,1.85254,-8.96207,0.00596311,0.0108269,0.0034668,0.0126297,0.00416029,1.09126,0.0074319,0.00949959,1224,414,1.85248,8.96208
7,610,1.86279,-8.98685,0.00703239,0.0107697,0.00281819,0.0122825,0.00551962,1.07815,0.00710341,0.0103068,1231,414,1.86275,8.98685
14,610,1.87781,-9.01065,0.00803216,0.0101159,0.00227094,0.0115726,0.00657549,1.00047,0.00670211,0.0122049,1238,414,1.87782,9.01065
21,610,1.89465,-9.00308,0.0082667,0.00861047,0.00149226,0.00994071,0.00693646,0.842737,0.00588704,0.0108519,1245,414,1.89461,9.00309
28,610,1.90576,-9.03217,0.00893068,0.00632143,0.00124648,0.00943043,0.00582168,0.381303,0.0054944,0.0111222,1252,414,1.90578,9.03218
35,610,1.92334,-9.0437,0.00967378,0.00405787,0.00133193,0.00997366,0.00375799,0.221456,0.00581628,0.0142825,1259,414,1.92328,9.0437
42,610,1.91785,-9.02481,0.0109988,0.00173141,0.00153852,0.0112475,0.00148267,0.160288,0.00705625,0.0138562,1266,414,1.91781,9.0248
49,610,1.9198,-9.04703,0.0121,-0.0005595,0.00174374,0.0123358,-0.000795295,0.134408,0.00850137,0.0132103,1273,414,1.9198,9.04702
56,610,1.9624,-9.05649,0.0127745,-0.00216677,0.00208202,0.0130592,-0.00245147,0.135898,0.00962792,0.0123615,1280,414,1.96236,9.0565
63,610,1.95068,-9.01825,0.0119641,-0.00345282,0.00206149,0.012235,-0.00372371,0.130658,0.00964066,0.0153917,1287,414,1.95074,9.01826
70,610,1.97351,-9.01096,0.0102862,-0.00452693,0.00239733,0.0106645,-0.00490524,0.156517,0.00919191,0.0214524,1294,414,1.97346,9.01097
77,610,2.021,-8.97263,0.00871605,-0.00450925,0.00305098,0.00938596,-0.00517916,0.216141,0.00852529,0.0281924,1301,414,2.02101,8.97263
84,610,2.01733,-8.92389,0.00681632,-0.00414057,0.00355912,0.00787092,-0.00519517,0.288068,0.00759625,0.02902,1308,414,2.01733,8.92388
91,610,1.97656,-8.93661,0.00438171,-0.00378253,0.00388062,0.00593189,-0.00533272,0.380049,0.00650669,0.0232445,1315,414,1.97654,8.93662
98,610,2.02039,-8.94537,0.00230023,-0.00361505,0.0044607,0.00469474,-0.00600956,0.492653,0.00619565,0.0228989,1322,414,2.0204,8.94538
105,610,2.03772,-8.90897,0.000485635,-0.00331583,0.00505645,0.0039868,-0.00681699,0.605618,0.00630851,0.0181176,1329,414,2.03768,8.90897
112,610,2.04041,-8.89789,-0.00163235,-0.0033774,0.00544003,0.00300469,-0.00801444,0.70588,0.00657741,0.0122739,1336,414,2.04038,8.89789
119,610,2.03955,-8.84683,-0.00290388,-0.00328901,0.00584772,0.00275444,-0.00894733,0.768939,0.00706436,0.0184151,1343,414,2.03961,8.84682
126,610,2.06335,-8.79962,-0.00295993,-0.00319512,0.00653104,0.00345457,-0.00960962,0.776396,0.00781668,0.0258602,1350,414,2.0634,8.79963
133,610,2.07446,-8.78247,-0.00287204,-0.00327799,0.00703918,0.00396709,-0.0101171,0.770985,0.00838596,0.0191539,1357,414,2.0745,8.78248
140,610,2.09302,-8.74158,-0.00218376,-0.00370495,0.00751758,0.0046116,-0.0105003,0.734982,0.00894295,0.0137597,1364,414,2.09301,8.74158
147,610,2.09558,-8.67267,-0.0013253,-0.00426589,0.00799183,0.00533036,-0.0109215,0.694428,0.00956635,0.0142822,1371,414,2.0956,8.67267
154,610,2.07996,-8.60239,-0.000102017,-0.00469613,0.00817793,0.00609534,-0.0108935,0.648484,0.00993804,0.0202561,1378,414,2.07991,8.6024
161,610,2.12939,-8.57758,0.00107678,-0.00509062,0.00803507,0.00659956,-0.0106134,0.602175,0.0100276,0.0252413,1385,414,2.12937,8.57757
168,610,2.14514,-8.57529,0.00264547,-0.00526483,0.007569,0.00723041,-0.00984976,0.544638,0.00989982,0.0262012,1392,414,2.14518,8.57528
175,610,2.15564,-8.53442,0.00411095,-0.00450607,0.00635816,0.0074829,-0.00787802,0.487619,0.00886961,0.0224,1399,414,2.15567,8.53444
182,610,2.16077,-8.4556,0.00426989,-0.00349382,0.00494717,0.00667638,-0.00590031,0.452739,0.00726576,0.0154869,1406,414,2.16073,8.45559
189,610,2.16541,-8.37579,0.00356154,-0.00251195,0.00336021,0.00505391,-0.00400432,0.41796,0.00524146,0.0135612,1413,414,2.16543,8.37581
196,610,2.14966,-8.31744,0.00311564,-0.00123214,0.00212759,0.00398353,-0.00210003,0.387317,0.00356802,0.0130026,1420,414,2.14964,8.31744
203,610,2.13818,-8.23389,0.00176162,-0.000129918,0.000367261,0.00183042,-0.000198723,0.185199,0.00129163,0.0135462,1427,414,2.13814,8.23389
210,610,2.1521,-8.1756,0.000141611,0.000233105,-0.00114604,0.00133431,-0.000959592,-0.805346,0.00133026,0.0101652,1434,414,2.1521,8.17558
217,610,2.15222,-8.09497,-8.50325e-05,0.000242656,-0.000911207,0.00100463,-0.000847008,-0.874353,0.00107034,0.0135726,1441,414,2.1522,8.09497
224,610,2.16321,-8.00107,-0.000111357,0.000330351,-0.000715838,0.00085863,-0.000639636,-0.935028,0.000868099,0.0160519,1448,414,2.16324,8.00107
231,610,2.17883,-7.93369,-5.90775e-05,0.000363097,-0.000556438,0.00074714,-0.000443121,-0.96669,0.00069463,0.0133813,1455,414,2.17889,7.93367
238,610,2.18091,-7.86383,3.78357e-05,0.000399173,-0.000416026,0.000672066,-0.000235058,-0.990247,0.000543609,0.0105942,1462,414,2.18088,7.86382
245,610,2.17578,-7.77728,0.000110729,0.000341275,-0.000307825,0.000554703,-0.000102698,-0.964554,0.000408362,0.0124885,1469,414,2.17583,7.77729
252,610,2.19739,-7.71295,0.000172493,0.000353582,-0.000157184,0.000444435,8.16391e-05,-1.04671,0.000273174,0.0141423,1476,414,2.19742,7.71296
259,610,2.18823,-7.61874,0.000256635,0.000472382,2.70127e-05,0.000475712,0.000253305,1.44811,0.000274846,0.0121409,1483,414,2.18828,7.61875
266,610,2.18689,-7.50476,0.000325006,0.000792776,0.000237418,0.000892162,0.00022562,1.17435,0.000535648,0.0120619,1490,414,2.18694,7.50475
273,610,2.17981,-7.41498,0.000377196,0.00111765,0.000440241,0.00132265,0.000172201,1.13501,0.000830337,0.0102428,1497,414,2.17981,7.41499
280,610,2.16406,-7.31284,0.000478283,0.00147843,0.000720209,0.00185516,0.00010156,1.08886,0.00120435,0.00971597,1504,414,2.16412,7.31284
287,610,2.15515,-7.20657,0.000477986,0.00170432,0.00098174,0.00224864,-6.63395e-05,1.06454,0.00152169,0.0120429,1511,414,2.15515,7.20658
294,610,2.18225,-7.10623,0.000566435,0.000686058,0.000704235,0.00133302,-8.05242e-05,0.827762,0.000916699,0.0101444,1518,414,2.1823,7.10622
301,610,2.1908,-7.01959,0.00060847,0.00012988,0.000625607,0.00103899,-0.000300636,0.602733,0.000811646,0.00943579,1525,414,2.19075,7.0196
308,610,2.19885,-6.88907,0.000682474,-0.000912419,0.000470114,0.000810732,-0.00104068,0.266341,0.00107166,0.0118692,1532,414,2.19884,6.88906
315,610,2.19836,-6.75781,0.000783864,-0.00242958,0.000182298,0.000794173,-0.00243989,0.0564882,0.0019461,0.0136661,1539,414,2.19842,6.7578
322,610,2.1886,-6.64371,0.000743068,-0.00451305,-0.000225895,0.000752759,-0.00452274,-0.0428721,0.00329487,0.0123431,1546,414,2.18858,6.64371
329,610,2.16553,-6.52719,0.000209111,-0.00682317,-0.000863802,0.000313661,-0.00692772,-0.120449,0.0047265,0.0112091,1553,414,2.1655,6.52718
336,610,2.14954,-6.39078,-0.000580292,-0.00901922,-0.00161394,-0.00028216,-0.00931736,-0.182664,0.00611969,0.0118659,1560,414,2.14959,6.39079
343,610,2.16968,-6.26996,-0.00132393,-0.011548,-0.00232149,-0.000821496,-0.0120504,-0.213138,0.00777426,0.0218237,1567,414,2.16968,6.26995
350,610,2.15515,-6.24469,-0.00209707,-0.0137336,-0.00287892,-0.00142378,-0.0144069,-0.229743,0.00916692,0.0346217,1574,414,2.1552,6.24469
357,610,2.25098,-6.15524,-0.00320611,-0.0153228,-0.00346833,-0.00228356,-0.0162453,-0.259972,0.010155,0.0414112,1581,414,2.25093,6.15524
364,610,2.29077,-5.87592,-0.00481207,-0.0166721,-0.00382414,-0.00368594,-0.0177982,-0.286384,0.0108476,0.0411965,1588,414,2.29078,5.87591
371,610,2.33203,-5.88736,-0.00684,-0.017644,-0.00428879,-0.00534452,-0.0191395,-0.335512,0.0114036,0.043913,1595,414,2.33203,5.88735
378,610,1.8938,-5.73553,-0.00890634,-0.0165066,-0.0040793,-0.00713138,-0.0182816,-0.410406,0.0106396,0.0424131,1602,414,1.89379,5.73555
385,610,1.42139,-5.4382,0,0,0,0,0,0,0,-1,1609,414,1.4214,5.43821
392,610,2.37634,-2.6618,0,0,0,0,0,0,0,-1,1616,414,2.3764,2.66181
399,610,3.03833,-2.82547,0,0,0,0,0,0,0,-1,1623,414,3.03827,2.82546
406,610,2.91687,-2.9166,0,0,0,0,0,0,0,-1,1630,414,2.91688,2.91659
413,610,3.01929,-3.20306,0,0,0,0,0,0,0,-1,1637,414,3.01929,3.20306
420,610,4.78149,-3.64041,0,0,0,0,0,0,0,-1,1644,414,4.78152,3.64042
427,610,5.20764,-4.67545,0,0,0,0,0,0,0,-1,1651,414,5.20759,4.67545
434,610,5.39233,-5.45441,0,0,0,0,0,0,0,-1,1658,414,5.39228,5.4544
441,610,0,0,0,0,0,0,0,0,0,-1,1665,414,0,0
448,610,0,0,0,0,0,0,0,0,0,-1,1672,414,0,0
455,610,0,0,0,0,0,0,0,0,0,-1,1679,414,0,0
462,610,0,0,0,0,0,0,0,0,0,-1,1686,414,0,0
469,610,0,0,0,0,0,0,0,0,0,-1,1693,414,0,0
476,610,0,0,0,0,0,0,0,0,0,-1,1700,414,0,0
483,610,0,0,0,0,0,0,0,0,0,-1,1707,414,0,0
490,610,0,0,0,0,0,0,0,0,0,-1,1714,414,0,0
497,610,0,0,0,0,0,0,0,0,0,-1,1721,414,0,0
504,610,0,0,0,0,0,0,0,0,0,-1,1728,414,0,0
511,610,0,0,0,0,0,0,0,0,0,-1,1735,414,0,0
518,610,0,0,0,0,0,0,0,0,0,-1,1742,414,0,0
525,610,0,0,0,0,0,0,0,0,0,-1,1749,414,0,0
532,610,0,0,0,0,0,0,0,0,0,-1,1756,414,0,0
539,610,0,0,0,0,0,0,0,0,0,-1,1763,414,0,0
546,610,0,0,0,0,0,0,0,0,0,-1,1770,414,0,0
553,610,0,0,0,0,0,0,0,0,0,-1,1777,414,0,0
560,610,0,0,0,0,0,0,0,0,0,-1,1784,414,0,0
567,610,0,0,0,0,0,0,0,0,0,-1,1791,414,0,0
574,610,0,0,0,0,0,0,0,0,0,-1,1798,414,0,0
581,610,0,0,0,0,0,0,0,0,0,-1,1805,414,0,0
588,610,0,0,0,0,0,0,0,0,0,-1,1812,414,0,0
595,610,0,0,0,0,0,0,0,0,0,-1,1819,414,0,0
602,610,0,0,0,0,0,0,0,0,0,-1,1826,414,0,0
609,610,0,0,0,0,0,0,0,0,0,-1,1833,414,0,0
616,610,0,0,0,0,0,0,0,0,0,-1,1840,414,0,0
623,610,0,0,0,0,0,0,0,0,0,-1,1847,414,0,0
630,610,0,0,0,0,0,0,0,0,0,-1,1854,414,0,0
637,610,0,0,0,0,0,0,0,0,0,-1,1861,414,0,0
644,610,0,0,0,0,0,0,0,0,0,-1,1868,414,0,0
651,610,0,0,0,0,0,0,0,0,0,-1,1875,414,0,0
658,610,0,0,0,0,0,0,0,0,0,-1,1882,414,0,0
665,610,0,0,0,0,0,0,0,0,0,-1,1889,414,0,0
672,610,0,0,0,0,0,0,0,0,0,-1,1896,414,0,0
679,610,0,0,0,0,0,0,0,0,0,-1,1903,414,0,0
686,610,0,0,0,0,0,0,0,0,0,-1,1910,414,0,0
693,610,0,0,0,0,0,0,0,0,0,-1,1917,414,0,0
700,610,0,0,0,0,0,0,0,0,0,-1,1924,414,0,0
707,610,0,0,0,0,0,0,0,0,0,-1,1931,414,0,0
714,610,0,0,0,0,0,0,0,0,0,-1,1938,414,0,0
721,610,0,0,0,0,0,0,0,0,0,-1,1945,414,0,0
728,610,0,0,0,0,0,0,0,0,0,-1,1952,414,0,0
735,610,0,0,0,0,0,0,0,0,0,-1,1959,414,0,0
742,610,0,0,0,0,0,0,0,0,0,-1,1966,414,0,0
749,610,0,0,0,0,0,0,0,0,0,-1,1973,414,0,0
756,610,0,0,0,0,0,0,0,0,0,-1,1980,414,0,0
763,610,0,0,0,0,0,0,0,0,0,-1,1987,414,0,0
770,610,0,0,0,0,0,0,0,0,0,-1,1994,414,0,0
777,610,0,0,0,0,0,0,0,0,0,-1,2001,414,0,0
784,610,0,0,0,0,0,0,0,0,0,-1,2008,414,0,0
791,610,0,0,0,0,0,0,0,0,0,-1,2015,414,0,0
798,610,0,0,0,0,0,0,0,0,0,-1,2022,414,0,0
805,610,0,0,0,0,0,0,0,0,0,-1,2029,414,0,0
812,610,0,0,0,0,0,0,0,0,0,-1,2036,414,0,0
-700,603,0,0,0,0,0,0,0,0,0,-1,524,421,0,0
-693,603,0,0,0,0,0,0,0,0,0,-1,531,421,0,0
-686,603,0,0,0,0,0,0,0,0,0,-1,538,421,0,0
-679,603,0,0,0,0,0,0,0,0,0,-1,545,421,0,0
-672,603,0,0,0,0,0,0,0,0,0,-1,552,421,0,0
-665,603,0,0,0,0,0,0,0,0,0,-1,559,421,0,0
-658,603,0,0,0,0,0,0,0,0,0,-1,566,421,0,0
-651,603,0,0,0,0,0,0,0,0,0,-1,573,421,0,0
-644,603,0,0,0,0,0,0,0,0,0,-1,580,421,0,0
-637,603,0,0,0,0,0,0,0,0,0,-1,587,421,0,0
-630,603,0,0,0,0,0,0,0,0,0,-1,594,421,0,0
-623,603,0,0,0,0,0,0,0,0,0,-1,601,421,0,0
-616,603,0,0,0,0,0,0,0,0,0,-1,608,421,0,0
-609,603,0,0,0,0,0,0,0,0,0,-1,615,421,0,0
-602,603,0,0,0,0,0,0,0,0,0,-1,622,421,0,0
-595,603,0,0,0,0,0,0,0,0,0,-1,629,421,0,0
-588,603,0,0,0,0,0,0,0,0,0,-1,636,421,0,0
-581,603,0,0,0,0,0,0,0,0,0,-1,643,421,0,0
-574,603,0,0,0,0,0,0,0,0,0,-1,650,421,0,0
-567,603,0,0,0,0,0,0,0,0,0,-1,657,421,0,0
-560,603,0,0,0,0,0,0,0,0,0,-1,664,421,0,0
-553,603,0,0,0,0,0,0,0,0,0,-1,671,421,0,0
-546,603,0,0,0,0,0,0,0,0,0,-1,678,421,0,0
-539,603,0,0,0,0,0,0,0,0,0,-1,685,421,0,0
-532,603,0,0,0,0,0,0,0,0,0,-1,692,421,0,0
-525,603,0,0,0,0,0,0,0,0,0,-1,699,421,0,0
-518,603,0,0,0,0,0,0,0,0,0,-1,706,421,0,0
-511,603,0,0,0,0,0,0,0,0,0,-1,713,421,0,0
-504,603,0,0,0,0,0,0,0,0,0,-1,720,421,0,0
-497,603,0,0,0,0,0,0,0,0,0,-1,727,421,0,0
-490,603,0,0,0,0,0,0,0,0,0,-1,734,421,0,0
-483,603,0,0,0,0,0,0,0,0,0,-1,741,421,0,0
-476,603,0,0,0,0,0,0,0,0,0,-1,748,421,0,0
-469,603,0,0,0,0,0,0,0,0,0,-1,755,421,0,0
-462,603,0,0,0,0,0,0,0,0,0,-1,762,421,0,0
-455,603,0,0,0,0,0,0,0,0,0,-1,769,421,0,0
-448,603,0,0,0,0,0,0,0,0,0,-1,776,421,0,0
-441,603,0,0,0,0,0,0,0,0,0,-1,783,421,0,0
-434,603,0,0,0,0,0,0,0,0,0,-1,790,421,0,0
-427,603,0,0,0,0,0,0,0,0,0,-1,797,421,0,0
-420,603,0,0,0,0,0,0,0,0,0,-1,804,421,0,0
-413,603,0,0,0,0,0,0,0,0,0,-1,811,421,0,0
-406,603,0,0,0,0,0,0,0,0,0,-1,818,421,0,0
-399,603,0,0,0,0,0,0,0,0,0,-1,825,421,0,0
-392,603,0,0,0,0,0,0,0,0,0,-1,832,421,0,0
-385,603,0,0,0,0,0,0,0,0,0,-1,839,421,0,0
-378,603,0,0,0,0,0,0,0,0,0,-1,846,421,0,0
-371,603,0,0,0,0,0,0,0,0,0,-1,853,421,0,0
-364,603,0,0,0,0,0,0,0,0,0,-1,860,421,0,0
-357,603,0,0,0,0,0,0,0,0,0,-1,867,421,0,0
-350,603,0,0,0,0,0,0,0,0,0,-1,874,421,0,0
-343,603,0,0,0,0,0,0,0,0,0,-1,881,421,0,0
-336,603,0,0,0,0,0,0,0,0,0,-1,888,421,0,0
-329,603,2.63129,-6.92542,0,0,0,0,0,0,0,-1,895,421,2.63129,6.92541
-322,603,1.95972,-6.17279,0,0,0,0,0,0,0,-1,902,421,1.95971,6.17278
-315,603,1.8905,-6.78546,0,0,0,0,0,0,0,-1,909,421,1.89049,6.78547
-308,603,1.61243,-7.673,0,0,0,0,0,0,0,-1,916,421,1.61245,7.67299
-301,603,1.50592,-5.73083,0,0,0,0,0,0,0,-1,923,421,1.50592,5.73084
-294,603,-0.125122,-9.05579,0,0,0,0,0,0,0,-1,930,421,-0.125098,9.0558
-287,603,-0.617004,-9.61194,0,0,0,0,0,0,0,-1,937,421,-0.61703,9.61193
-280,603,1.18158,-6.44135,0,0,0,0,0,0,0,-1,944,421,1.1816,6.44136
-273,603,1.4776,-6.22034,0,0,0,0,0,0,0,-1,951,421,1.47761,6.22035
-266,603,1.20709,-6.38907,0,0,0,0,0,0,0,-1,958,421,1.20711,6.38908
-259,603,1.36279,-6.43961,0.014971,-0.00696822,-0.000903468,0.0150082,-0.00700536,-0.0410877,0.0129865,0.0473694,965,421,1.3628,6.43962
-252,603,1.67639,-6.49246,0.0132944,-0.0059831,-0.000945799,0.0133407,-0.0060294,-0.0489058,0.0114458,0.0396602,972,421,1.6764,6.49245
-245,603,1.7309,-6.64288,0.0113488,-0.0053031,-0.00109908,0.011421,-0.00537533,-0.0656238,0.00990454,0.0298897,979,421,1.73087,6.64289
-238,603,1.75348,-6.70377,0.00940616,-0.00532453,-0.00122791,0.00950781,-0.00542618,-0.0825978,0.00872883,0.0173358,986,421,1.7535,6.70378
-231,603,1.72046,-6.84329,0.00748133,-0.00486672,-0.00106241,0.00757207,-0.00495747,-0.0852044,0.00728624,0.0121549,993,421,1.72045,6.84329
-224,603,1.66998,-6.9751,0.00554428,-0.00435582,-0.000877664,0.00562148,-0.00443302,-0.0877402,0.00581847,0.0130678,1000,421,1.67,6.97511
-217,603,1.65692,-7.05835,0.003812,-0.00400019,-0.000657588,0.00386697,-0.00405515,-0.0833926,0.00457427,0.0116992,1007,421,1.6569,7.05835
-210,603,1.67017,-7.16428,0.00229552,-0.00375885,-0.000431239,0.00232608,-0.00378941,-0.0707517,0.00356431,0.00973019,1014,421,1.67015,7.16428
-203,603,1.67731,-7.27808,0.000790661,-0.00345418,-0.000152123,0.000796106,-0.00345962,-0.035776,0.00261253,0.0158647,1021,421,1.67734,7.27808
-196,603,1.68799,-7.40262,-0.000300061,-0.00343765,1.47525e-05,-0.000299992,-0.00343772,0.00470172,0.00219865,0.0176725,1028,421,1.68799,7.40261
-189,603,1.68066,-7.4866,-0.00106385,-0.0032412,3.69355e-05,-0.00106322,-0.00324182,0.016957,0.00190824,0.0139888,1035,421,1.68062,7.4866
-182,603,1.66821,-7.57239,-0.00139505,-0.00295155,-4.79197e-06,-0.00139503,-0.00295157,-0.00307864,0.00170494,0.0103818,1042,421,1.66823,7.57238
-175,603,1.64148,-7.64624,-0.00148127,-0.00249288,0.000211897,-0.00143868,-0.00253547,0.19836,0.00146829,0.0104745,1049,421,1.6415,7.64623
-168,603,1.63708,-7.71957,-0.0014426,-0.00208719,0.000169348,-0.00140082,-0.00212898,0.241897,0.00124945,0.013083,1056,421,1.63709,7.71957
-161,603,1.63586,-7.82886,-0.00121424,-0.00167301,9.10141e-07,-0.00121424,-0.00167301,0.00198385,0.000998199,0.0127494,1063,421,1.63581,7.82887
-154,603,1.63794,-7.9458,-0.00103219,-0.00130292,-0.000125721,-0.000982813,-0.00135229,-0.374242,0.00080707,0.0119584,1070,421,1.6379,7.94579
-147,603,1.65735,-7.99112,-0.00058726,-0.000969226,-6.93647e-05,-0.000575054,-0.000981433,-0.174192,0.000569413,0.0129357,1077,421,1.65736,7.99113
-140,603,1.67847,-8.0527,0.000231218,-0.000571107,-4.04909e-05,0.000233256,-0.000573146,-0.0502967,0.000479163,0.0108936,1084,421,1.67845,8.05269
-133,603,1.66394,-8.13022,0.000844668,-0.000188884,-5.00298e-05,0.000847084,-0.0001913,-0.0482553,0.00063812,0.0119823,1091,421,1.66391,8.13023
-126,603,1.65015,-8.19287,0.00134678,5.37735e-05,-0.00011512,0.00135695,4.36039e-05,-0.0881099,0.000890452,0.0108497,1098,421,1.65012,8.19286
-119,603,1.6687,-8.25055,0.00201198,0.000115036,-0.000147996,0.00202346,0.00010356,-0.077394,0.00131581,0.0104506,1105,421,1.66866,8.25056
-112,603,1.67285,-8.32288,0.00279968,6.67013e-05,-0.000152523,0.00280817,5.82157e-05,-0.0555781,0.00185301,0.0151853,1112,421,1.6729,8.32288
-105,603,1.67944,-8.42062,0.00359951,-4.32826e-05,-0.00017734,0.00360812,-5.18957e-05,-0.0485293,0.0024229,0.0147865,1119,421,1.67942,8.42063
-98,603,1.68262,-8.45883,0.00440711,-0.000206813,-0.000256813,0.00442136,-0.000221063,-0.0554322,0.00302396,0.012427,1126,421,1.68263,8.45884
-91,603,1.68274,-8.50854,0.00514907,-0.000494722,-0.000365978,0.0051727,-0.000518355,-0.0644862,0.0036336,0.00927762,1133,421,1.6827,8.50854
-84,603,1.69312,-8.57404,0.0056024,-0.000688825,-0.000470269,0.00563735,-0.000723784,-0.0742005,0.00402127,0.0092074,1140,421,1.69307,8.57402
-77,603,1.70276,-8.64627,0.00582656,-0.000895335,-0.000510033,0.00586504,-0.000933814,-0.0753019,0.00425559,0.0096623,1147,421,1.70274,8.64626
-70,603,1.73242,-8.76651,0.00602514,-0.000910385,-0.000303606,0.00603841,-0.00092365,-0.0436641,0.00436618,0.0163188,1154,421,1.73242,8.76651
-63,603,1.75098,-8.8681,0.00618258,-0.000782062,-7.38192e-05,0.00618337,-0.000782844,-0.0105976,0.00440643,0.0312262,1161,421,1.75095,8.8681
-56,603,1.73193,-8.85568,0.00567731,0.000702517,0.000281964,0.00569324,0.000686586,0.0564376,0.00358859,0.039814,1168,421,1.73198,8.85567
-49,603,1.78638,-8.80722,0,0,0,0,0,0,0,-1,1175,421,1.78641,8.80721
-42,603,1.76453,-8.83841,0,0,0,0,0,0,0,-1,1182,421,1.7645,8.83842
-35,603,1.70654,-8.85196,0.00480735,0.0125364,0.00432002,0.0144682,0.00287558,1.1503,0.00884416,0.0348198,1189,421,1.70652,8.85196
-28,603,1.71155,-8.86929,0.00501371,0.0158553,0.00580532,0.0183772,0.00249178,1.16098,0.0115111,0.0212375,1196,421,1.71155,8.86929
-21,603,1.72522,-8.89667,0.00600307,0.0175618,0.00692441,0.0208018,0.0027631,1.13315,0.0130447,0.0187381,1203,421,1.72518,8.89668
-14,603,1.79163,-8.92438,0.00675596,0.0182948,0.00721269,0.0217616,0.00328909,1.12274,0.0135452,0.0200186,1210,421,1.79164,8.92438
-7,603,1.86328,-8.95361,0.00737814,0.0186028,0.00692422,0.0219036,0.00407739,1.12597,0.0134509,0.0225819,1217,421,1.86332,8.95361
0,603,1.87927,-8.96115,0.00855671,0.0185531,0.00639461,0.0216711,0.00543869,1.11712,0.0130189,0.0247363,1224,421,1.87928,8.96114
7,603,1.875,-8.9451,0.0104736,0.0184264,0.00540012,0.0211562,0.00774378,1.10276,0.0123598,0.029718,1231,421,1.875,8.94509
14,603,1.90833,-8.94043,0.0121509,0.0175103,0.00455048,0.0201115,0.00954969,1.0515,0.0116163,0.0258847,1238,421,1.90836,8.94043
21,603,1.96521,-8.95081,0.0125679,0.015118,0.0033113,0.0173913,0.0102947,0.969175,0.0100973,0.0193879,1245,421,1.96522,8.9508
28,603,2.0188,-8.93307,0.0132549,0.0116088,0.00263474,0.0151922,0.00967155,0.634002,0.00887967,0.0224992,1252,421,2.01874,8.93308
35,603,2.04126,-8.90958,0.0139248,0.00818348,0.00240517,0.0147992,0.00730907,0.348698,0.00854453,0.0293093,1259,421,2.04121,8.90957
42,603,1.98145,-8.9877,0.0153812,0.00478977,0.00231649,0.0158657,0.00430529,0.206175,0.00947391,0.0260191,1266,421,1.98139,8.9877
49,603,1.96082,-9.01895,0.0164716,0.00140759,0.00224744,0.0167997,0.00107943,0.144988,0.0108579,0.0145423,1273,421,1.96082,9.01895
56,603,1.97913,-8.97888,0.0169138,-0.00116233,0.00240156,0.0172274,-0.00147596,0.129857,0.0120072,0.0260784,1280,421,1.97917,8.97887
63,603,1.97815,-8.87949,0.0154699,-0.00339151,0.00217322,0.0157171,-0.00363867,0.113243,0.0118782,0.0366089,1287,421,1.97817,8.87949
70,603,1.99329,-8.86862,0.0129497,-0.00527429,0.00247779,0.0132806,-0.00560517,0.132753,0.0111998,0.0429688,1294,421,1.99332,8.86863
77,603,2.04895,-9.00458,0.0105252,-0.0055118,0.00335425,0.0111985,-0.0061851,0.198097,0.0101746,0.0451613,1301,421,2.0489,9.00457
84,603,1.95349,-8.82913,0.00765722,-0.00529229,0.00407748,0.00883415,-0.00646922,0.281004,0.0088705,0.0439891,1308,421,1.95355,8.82912
91,603,1.95898,-8.80243,0.00415554,-0.00502105,0.0046862,0.00612567,-0.00699117,0.397977,0.00757851,0.0444233,1315,421,1.95902,8.80242
98,603,1.86023,-8.81848,0.00129274,-0.00496081,0.00569059,0.00465901,-0.00832708,0.534182,0.00759656,0.0443669,1322,421,1.86026,8.81849
105,603,1.90637,-8.81113,-0.00130835,-0.00474252,0.00687252,0.00405835,-0.0101092,0.66298,0.00842465,0.0385649,1329,421,1.90642,8.81113
112,603,2.13989,-8.88422,-0.00428178,-0.0049941,0.00773243,0.00310269,-0.0123786,0.762384,0.0094578,0.0313017,1336,421,2.13984,8.8842
119,603,2.1167,-8.87207,-0.00589344,-0.00486531,0.00860434,0.00324031,-0.0139991,0.815235,0.0105795,0.0340141,1343,421,2.11676,8.87206
126,603,2.11072,-8.8649,-0.00592145,-0.00468586,0.00988639,0.00460202,-0.0152093,0.816602,0.0119721,0.0400817,1350,421,2.11073,8.86489
133,603,2.14905,-8.8313,-0.00573484,-0.00478219,0.0109925,0.0057443,-0.0162613,0.807051,0.0131797,0.0332204,1357,421,2.14901,8.8313
140,603,2.19531,-8.72116,-0.00476234,-0.00538114,0.0120138,0.00694608,-0.0170896,0.772524,0.014283,0.0197785,1364,421,2.19535,8.72116
147,603,2.17102,-8.66742,-0.00353162,-0.0062169,0.0129726,0.00816764,-0.0179162,0.733833,0.0154061,0.0156959,1371,421,2.17104,8.66742
154,603,2.13977,-8.62424,-0.00187761,-0.00683177,0.0134855,0.00935647,-0.0180659,0.694569,0.0160963,0.025575,1378,421,2.13983,8.62424
161,603,2.18982,-8.61481,-0.000311259,-0.00731298,0.0134961,0.0101306,-0.0177548,0.658496,0.016299,0.0299755,1385,421,2.18982,8.6148
168,603,2.24463,-8.55515,0.00182638,-0.00752073,0.0127922,0.010772,-0.0164664,0.610259,0.0158402,0.0276816,1392,421,2.24465,8.55515
175,603,2.30359,-8.47598,0.00397032,-0.00649409,0.0110822,0.0109934,-0.0135172,0.564848,0.0141761,0.0284571,1399,421,2.30356,8.476
182,603,2.33887,-8.43445,0.00458131,-0.00512782,0.00905725,0.010003,-0.0105495,0.539388,0.0118673,0.0315852,1406,421,2.33888,8.43446
189,603,2.32629,-8.33417,0.00421189,-0.00374562,0.00662815,0.00796378,-0.00749751,0.515085,0.00892793,0.0264064,1413,421,2.32632,8.33415
196,603,2.26001,-8.25638,0.00434647,-0.00194802,0.00439785,0.0066072,-0.00420875,0.474828,0.00629557,0.0197824,1420,421,2.26005,8.25638
203,603,2.23071,-8.22195,0.00276828,-0.000276124,0.0012278,0.00320173,-0.000709575,0.339374,0.00240615,0.010776,1427,421,2.23067,8.22196
210,603,2.23511,-8.19879,0.000343481,0.000122309,-0.00184828,0.00208448,-0.00161869,-0.755518,0.00214365,0.00922679,1434,421,2.23505,8.1988
217,603,2.22925,-8.10242,4.58472e-05,4.66979e-05,-0.00161563,0.0016619,-0.00156936,-0.78553,0.00186582,0.0108956,1441,421,2.22927,8.10243
224,603,2.24597,-8.0206,2.03763e-05,0.000107222,-0.00141473,0.0014792,-0.0013516,-0.80074,0.00163491,0.014252,1448,421,2.24602,8.02061
231,603,2.26782,-7.95343,3.22912e-05,8.66556e-05,-0.00127898,0.00133874,-0.00121979,-0.796023,0.0014777,0.0132867,1455,421,2.26777,7.95343
238,603,2.26025,-7.86957,6.63171e-05,-5.72083e-06,-0.00118607,0.00121691,-0.00115631,-0.770219,0.00137033,0.010383,1462,421,2.26023,7.86956
245,603,2.26196,-7.78754,0.000109102,-0.000197093,-0.00111309,0.00107957,-0.00116756,-0.717055,0.00129772,0.0118701,1469,421,2.26195,7.78753
252,603,2.26697,-7.72058,0.000149064,-0.000287415,-0.00101642,0.000970409,-0.00110876,-0.679647,0.00120129,0.0104598,1476,421,2.26701,7.72058
259,603,2.26074,-7.62512,0.000208604,-0.00034114,-0.000852505,0.000829455,-0.00096199,-0.629446,0.00103523,0.00999433,1483,421,2.26071,7.62511
266,603,2.26147,-7.51498,0.00019113,-0.000228556,-0.000724965,0.000736011,-0.000773437,-0.644522,0.000871569,0.0110286,1490,421,2.26144,7.51497
273,603,2.26929,-7.41812,0.000149714,-2.96382e-05,-0.000548526,0.000615846,-0.00049577,-0.704372,0.000643039,0.01051,1497,421,2.26927,7.41813
280,603,2.26831,-7.32565,0.000179198,0.000192829,-0.000272125,0.000458224,-8.6197e-05,-0.797918,0.0003379,0.0118606,1504,421,2.26831,7.32565
287,603,2.26758,-7.21658,0.000199645,0.0003717,-1.48073e-08,0.0003717,0.000199645,-1.57071,0.000214798,0.0110358,1511,421,2.26758,7.2166
294,603,2.28455,-7.10812,0.000246928,-0.000197488,-9.52693e-05,0.00026649,-0.00021705,-0.202517,0.000279658,0.0100894,1518,421,2.28453,7.10813
301,603,2.27783,-7.00272,0.000254012,-0.00051991,-4.06257e-05,0.000256138,-0.000522037,-0.0523017,0.000457939,0.0116116,1525,421,2.27777,7.00273
308,603,2.28784,-6.87582,0.000308239,-0.00116981,-2.16431e-05,0.000308556,-0.00117012,-0.0146389,0.000900727,0.0164332,1532,421,2.28787,6.87583
315,603,2.29382,-6.77393,0.000418256,-0.0020862,-7.02764e-05,0.000420226,-0.00208817,-0.0280312,0.00155128,0.015013,1539,421,2.29382,6.77392
322,603,2.29443,-6.64822,0.000406628,-0.0034261,-0.000213799,0.000418517,-0.00343799,-0.0555527,0.00244348,0.0134704,1546,421,2.29438,6.64824
329,603,2.27844,-6.53021,-1.06888e-05,-0.00496368,-0.000552588,5.02127e-05,-0.00502458,-0.109768,0.00336659,0.0102265,1553,421,2.2784,6.53023
336,603,2.26038,-6.41968,-0.000632706,-0.00632368,-0.000962228,-0.000474416,-0.00648197,-0.163044,0.00417218,0.00922079,1560,421,2.26035,6.41969
343,603,2.26733,-6.29816,-0.00120974,-0.00785493,-0.00132227,-0.000956297,-0.00810837,-0.189374,0.00511669,0.0104568,1567,421,2.26728,6.29815
350,603,2.26587,-6.1792,-0.00182657,-0.00911141,-0.00158597,-0.00149626,-0.00944171,-0.20533,0.00585975,0.0151184,1574,421,2.26592,6.1792
357,603,2.2699,-6.02841,-0.00267716,-0.00993607,-0.00186584,-0.00222564,-0.0103876,-0.237425,0.00631528,0.0162685,1581,421,2.26989,6.02841
364,603,2.25745,-5.85803,-0.00382497,-0.0105349,-0.00199407,-0.0032771,-0.0110827,-0.268133,0.00657427,0.015788,1588,421,2.25748,5.85803
371,603,2.32617,-5.73929,-0.00526375,-0.0108983,-0.0022126,-0.00449875,-0.0116633,-0.332879,0.00679216,0.0194348,1595,421,2.32616,5.7393
378,603,2.35193,-5.64389,-0.0066953,-0.0100146,-0.00201556,-0.00574402,-0.0109658,-0.440971,0.00633352,0.0298093,1602,421,2.3519,5.6439
385,603,1.93433,-5.3606,-0.00812543,-0.0090208,-0.00193945,-0.00658267,-0.0105636,-0.671969,0.00616023,0.0451148,1609,421,1.93434,5.36058
392,603,2.21533,-5.38065,0,0,0,0,0,0,0,-1,1616,421,2.21535,5.38065
399,603,2.38013,-5.37076,0,0,0,0,0,0,0,-1,1623,421,2.38016,5.37075
406,603,3.01917,-2.37219,0,0,0,0,0,0,0,-1,1630,421,3.01915,2.37219
413,603,2.38928,-2.41275,0,0,0,0,0,0,0,-1,1637,421,2.38926,2.41274
420,603,2.74866,-2.30066,0,0,0,0,0,0,0,-1,1644,421,2.74867,2.30065
427,603,7.11548,-3.35352,0,0,0,0,0,0,0,-1,1651,421,7.11549,3.35351
434,603,7.32153,-4.50525,0,0,0,0,0,0,0,-1,1658,421,7.32149,4.50525
441,603,3.18213,-0.250946,0,0,0,0,0,0,0,-1,1665,421,3.18212,0.250944
448,603,2.95667,-0.066925,0,0,0,0,0,0,0,-1,1672,421,2.95662,0.0669226
455,603,0,0,0,0,0,0,0,0,0,-1,1679,421,0,0
462,603,0,0,0,0,0,0,0,0,0,-1,1686,421,0,0
469,603,0,0,0,0,0,0,0,0,0,-1,1693,421,0,0
476,603,0,0,0,0,0,0,0,0,0,-1,1700,421,0,0
483,603,0,0,0,0,0,0,0,0,0,-1,1707,421,0,0
490,603,0,0,0,0,0,0,0,0,0,-1,1714,421,0,0
497,603,0,0,0,0,0,0,0,0,0,-1,1721,421,0,0
504,603,0,0,0,0,0,0,0,0,0,-1,1728,421,0,0
511,603,0,0,0,0,0,0,0,0,0,-1,1735,421,0,0
518,603,0,0,0,0,0,0,0,0,0,-1,1742,421,0,0
525,603,0,0,0,0,0,0,0,0,0,-1,1749,421,0,0
532,603,0,0,0,0,0,0,0,0,0,-1,1756,421,0,0
539,603,0,0,0,0,0,0,0,0,0,-1,1763,421,0,0
546,603,0,0,0,0,0,0,0,0,0,-1,1770,421,0,0
553,603,0,0,0,0,0,0,0,0,0,-1,1777,421,0,0
560,603,0,0,0,0,0,0,0,0,0,-1,1784,421,0,0
567,603,0,0,0,0,0,0,0,0,0,-1,1791,421,0,0
574,603,0,0,0,0,0,0,0,0,0,-1,1798,421,0,0
581,603,0,0,0,0,0,0,0,0,0,-1,1805,421,0,0
588,603,0,0,0,0,0,0,0,0,0,-1,1812,421,0,0
595,603,0,0,0,0,0,0,0,0,0,-1,1819,421,0,0
602,603,0,0,0,0,0,0,0,0,0,-1,1826,421,0,0
609,603,0,0,0,0,0,0,0,0,0,-1,1833,421,0,0
616,603,0,0,0,0,0,0,0,0,0,-1,1840,421,0,0
623,603,0,0,0,0,0,0,0,0,0,-1,1847,421,0,0
630,603,0,0,0,0,0,0,0,0,0,-1,1854,421,0,0
637,603,0,0,0,0,0,0,0,0,0,-1,1861,421,0,0
644,603,0,0,0,0,0,0,0,0,0,-1,1868,421,0,0
651,603,0,0,0,0,0,0,0,0,0,-1,1875,421,0,0
658,603,0,0,0,0,0,0,0,0,0,-1,1882,421,0,0
665,603,0,0,0,0,0,0,0,0,0,-1,1889,421,0,0
672,603,0,0,0,0,0,0,0,0,0,-1,1896,421,0,0
679,603,0,0,0,0,0,0,0,0,0,-1,1903,421,0,0
686,603,0,0,0,0,0,0,0,0,0,-1,1910,421,0,0
693,603,0,0,0,0,0,0,0,0,0,-1,1917,421,0,0
700,603,0,0,0,0,0,0,0,0,0,-1,1924,421,0,0
707,603,0,0,0,0,0,0,0,0,0,-1,1931,421,0,0
714,603,0,0,0,0,0,0,0,0,0,-1,1938,421,0,0
721,603,0,0,0,0,0,0,0,0,0,-1,1945,421,0,0
728,603,0,0,0,0,0,0,0,0,0,-1,1952,421,0,0
735,603,0,0,0,0,0,0,0,0,0,-1,1959,421,0,0
742,603,0,0,0,0,0,0,0,0,0,-1,1966,421,0,0
749,603,0,0,0,0,0,0,0,0,0,-1,1973,421,0,0
756,603,0,0,0,0,0,0,0,0,0,-1,1980,421,0,0
763,603,0,0,0,0,0,0,0,0,0,-1,1987,421,0,0
770,603,0,0,0,0,0,0,0,0,0,-1,1994,421,0,0
777,603,0,0,0,0,0,0,0,0,0,-1,2001,421,0,0
784,603,0,0,0,0,0,0,0,0,0,-1,2008,421,0,0
791,603,0,0,0,0,0,0,0,0,0,-1,2015,421,0,0
798,603,0,0,0,0,0,0,0,0,0,-1,2022,421,0,0
805,603,0,0,0,0,0,0,0,0,0,-1,2029,421,0,0
812,603,0,0,0,0,0,0,0,0,0,-1,2036,421,0,0
-700,596,0,0,0,0,0,0,0,0,0,-1,524,428,0,0
-693,596,0,0,0,0,0,0,0,0,0,-1,531,428,0,0
-686,596,0,0,0,0,0,0,0,0,0,-1,538,428,0,0
-679,596,0,0,0,0,0,0,0,0,0,-1,545,428,0,0
-672,596,0,0,0,0,0,0,0,0,0,-1,552,428,0,0
-665,596,0,0,0,0,0,0,0,0,0,-1,559,428,0,0
-658,596,0,0,0,0,0,0,0,0,0,-1,566,428,0,0
-651,596,0,0,0,0,0,0,0,0,0,-1,573,428,0,0
-644,596,0,0,0,0,0,0,0,0,0,-1,580,428,0,0
-637,596,0,0,0,0,0,0,0,0,0,-1,587,428,0,0
-630,596,0,0,0,0,0,0,0,0,0,-1,594,428,0,0
-623,596,0,0,0,0,0,0,0,0,0,-1,601,428,0,0
-616,596,0,0,0,0,0,0,0,0,0,-1,608,428,0,0
-609,596,0,0,0,0,0,0,0,0,0,-1,615,428,0,0
-602,596,0,0,0,0,0,0,0,0,0,-1,622,428,0,0
-595,596,0,0,0,0,0,0,0,0,0,-1,629,428,0,0
-588,596,0,0,0,0,0,0,0,0,0,-1,636,428,0,0
-581,596,0,0,0,0,0,0,0,0,0,-1,643,428,0,0
-574,596,0,0,0,0,0,0,0,0,0,-1,650,428,0,0
-567,596,0,0,0,0,0,0,0,0,0,-1,657,428,0,0
-560,596,0,0,0,0,0,0,0,0,0,-1,664,428,0,0
-553,596,0,0,0,0,0,0,0,0,0,-1,671,428,0,0
-546,596,0,0,0,0,0,0,0,0,0,-1,678,428,0,0
-539,596,0,0,0,0,0,0,0,0,0,-1,685,428,0,0
-532,596,0,0,0,0,0,0,0,0,0,-1,692,428,0,0
-525,596,0,0,0,0,0,0,0,0,0,-1,699,428,0,0
-518,596,0,0,0,0,0,0,0,0,0,-1,706,428,0,0
-511,596,0,0,0,0,0,0,0,0,0,-1,713,428,0,0
-504,596,0,0,0,0,0,0,0,0,0,-1,720,428,0,0
-497,596,0,0,0,0,0,0,0,0,0,-1,727,428,0,0
-490,596,0,0,0,0,0,0,0,0,0,-1,734,428,0,0
-483,596,0,0,0,0,0,0,0,0,0,-1,741,428,0,0
-476,596,0,0,0,0,0,0,0,0,0,-1,748,428,0,0
-469,596,0,0,0,0,0,0,0,0,0,-1,755,428,0,0
-462,596,0,0,0,0,0,0,0,0,0,-1,762,428,0,0
-455,596,0,0,0,0,0,0,0,0,0,-1,769,428,0,0
-448,596,0,0,0,0,0,0,0,0,0,-1,776,428,0,0
-441,596,0,0,0,0,0,0,0,0,0,-1,783,428,0,0
-434,596,0,0,0,0,0,0,0,0,0,-1,790,428,0,0
-427,596,0,0,0,0,0,0,0,0,0,-1,797,428,0,0
-420,596,0,0,0,0,0,0,0,0,0,-1,804,428,0,0
-413,596,0,0,0,0,0,0,0,0,0,-1,811,428,0,0
-406,596,0,0,0,0,0,0,0,0,0,-1,818,428,0,0
-399,596,0,0,0,0,0,0,0,0,0,-1,825,428,0,0
-392,596,0,0,0,0,0,0,0,0,0,-1,832,428,0,0
-385,596,0,0,0,0,0,0,0,0,0,-1,839,428,0,0
-378,596,0,0,0,0,0,0,0,0,0,-1,846,428,0,0
-371,596,0,0,0,0,0,0,0,0,0,-1,853,428,0,0
-364,596,0,0,0,0,0,0,0,0,0,-1,860,428,0,0
-357,596,0,0,0,0,0,0,0,0,0,-1,867,428,0,0
-350,596,0,0,0,0,0,0,0,0,0,-1,874,428,0,0
-343,596,0,0,0,0,0,0,0,0,0,-1,881,428,0,0
-336,596,2.9129,-6.41348,0,0,0,0,0,0,0,-1,888,428,2.91292,6.41348
-329,596,2.32941,-7.8909,0,0,0,0,0,0,0,-1,895,428,2.3294,7.89089
-322,596,1.82288,-7.37094,0,0,0,0,0,0,0,-1,902,428,1.82289,7.37094
-315,596,1.79761,-5.99963,0,0,0,0,0,0,0,-1,909,428,1.79763,5.99964
-308,596,1.26599,-5.6803,0,0,0,0,0,0,0,-1,916,428,1.266,5.6803
-301,596,1.45428,-5.70932,0,0,0,0,0,0,0,-1,923,428,1.45427,5.70931
-294,596,1.64252,-5.73831,0,0,0,0,0,0,0,-1,930,428,1.64253,5.73832
-287,596,1.59888,-6.16214,0,0,0,0,0,0,0,-1,937,428,1.59886,6.16215
-280,596,1.6405,-6.03378,0,0,0,0,0,0,0,-1,944,428,1.64052,6.03378
-273,596,1.64563,-6.14853,0.00859408,-0.00846232,-0.000376757,0.00860239,-0.00847064,-0.0220746,0.00985722,0.0434291,951,428,1.64566,6.14854
-266,596,1.57001,-6.25653,0.0103078,-0.00487664,-0.00153388,0.0104612,-0.00503003,-0.0996747,0.00912528,0.0408676,958,428,1.57,6.25654
-259,596,1.47437,-6.43152,0.0100396,-0.00456337,-0.00154561,0.0102014,-0.00472517,-0.104303,0.00880906,0.0333918,965,428,1.47439,6.43153
-252,596,1.61816,-6.51877,0.00907187,-0.00393833,-0.00137372,0.00921533,-0.00408179,-0.104059,0.0078655,0.0161701,972,428,1.61818,6.51876
-245,596,1.62872,-6.63382,0.00793973,-0.00340666,-0.00137522,0.00810404,-0.00357096,-0.11891,0.00690785,0.0114917,979,428,1.62875,6.63381
-238,596,1.61035,-6.74985,0.00687409,-0.00335513,-0.00136202,0.00705233,-0.00353337,-0.13013,0.00622321,0.0109586,986,428,1.61035,6.74984
-231,596,1.59686,-6.87601,0.005707,-0.0029739,-0.00114991,0.00585674,-0.00312364,-0.12949,0.00526426,0.0125592,993,428,1.59689,6.876
-224,596,1.5697,-6.98172,0.00450029,-0.0026227,-0.000933853,0.00462069,-0.00274309,-0.128218,0.0042973,0.0129194,1000,428,1.5697,6.98172
-217,596,1.56152,-7.05923,0.0033985,-0.00235416,-0.000716201,0.00348633,-0.00244198,-0.122018,0.00344037,0.013566,1007,428,1.56155,7.05924
-210,596,1.57758,-7.16132,0.00239876,-0.00216265,-0.000510881,0.00245528,-0.00221917,-0.110182,0.00269994,0.0112831,1014,428,1.57759,7.16133
-203,596,1.58435,-7.26398,0.00139126,-0.00192332,-0.000312218,0.00142042,-0.00195248,-0.093104,0.0019554,0.0139854,1021,428,1.58432,7.26399
-196,596,1.58252,-7.37958,0.000660709,-0.00180276,-0.000204157,0.000677514,-0.00181956,-0.0821273,0.0014911,0.0142195,1028,428,1.5825,7.37958
-189,596,1.56335,-7.48483,0.000176038,-0.00156106,-0.00018403,0.000195321,-0.00158034,-0.104397,0.00112434,0.0111763,1035,428,1.56333,7.48483
-182,596,1.5592,-7.56729,-2.41701e-05,-0.00120149,-0.000222739,1.65608e-05,-0.00124222,-0.180866,0.000833725,0.0110927,1042,428,1.55915,7.56728
-175,596,1.56152,-7.66589,-0.000106014,-0.000808558,-0.000101026,-9.17755e-05,-0.000822797,-0.140021,0.000520643,0.0134599,1049,428,1.56152,7.66588
-168,596,1.56787,-7.73697,-0.000135341,-0.000464051,-0.000172205,-6.16476e-05,-0.000537745,-0.40436,0.000339816,0.0162144,1056,428,1.56785,7.73696
-161,596,1.57703,-7.82309,-0.00010364,-7.31126e-05,-0.000316291,0.000228282,-0.000405035,-0.809509,0.000370362,0.0148715,1063,428,1.57708,7.8231
-154,596,1.56726,-7.93649,-0.000155938,0.000236962,-0.00037838,0.00046685,-0.000385826,-1.02484,0.000493033,0.0123964,1070,428,1.56727,7.93648
-147,596,1.57458,-7.99994,0.000139675,0.000485759,-0.000201827,0.00057857,4.6864e-05,-1.13978,0.00037108,0.0130292,1077,428,1.57453,7.99993
-140,596,1.58167,-8.05762,0.000960536,0.000631528,-7.94266e-05,0.000978707,0.000613357,-0.224907,0.000571072,0.0136928,1084,428,1.58167,8.05763
-133,596,1.56604,-8.12982,0.00159612,0.000534123,-5.68921e-05,0.00159916,0.000531084,-0.0533674,0.000940465,0.0148383,1091,428,1.56607,8.12982
-126,596,1.5769,-8.19705,0.00219007,0.000416765,-5.19087e-05,0.00219159,0.000415247,-0.029239,0.00134419,0.0112098,1098,428,1.57687,8.19704
-119,596,1.59033,-8.27423,0.00301539,0.000243716,-3.44792e-05,0.00301582,0.000243287,-0.0124373,0.00193456,0.0132367,1105,428,1.59031,8.27423
-112,596,1.60339,-8.33685,0.0040727,-0.000136739,1.08289e-05,0.00407273,-0.000136767,0.00257251,0.00276187,0.0145344,1112,428,1.60342,8.33686
-105,596,1.60193,-8.40338,0.0052281,-0.000543199,9.80286e-06,0.00522812,-0.000543216,0.00169855,0.00367987,0.0148493,1119,428,1.60194,8.40338
-98,596,1.62659,-8.44244,0.00646109,-0.000920543,-4.95653e-05,0.00646142,-0.000920876,-0.00671428,0.0046451,0.0100453,1126,428,1.62655,8.44245
-91,596,1.64001,-8.50803,0.00766813,-0.00138446,-0.000182947,0.00767183,-0.00138816,-0.0201983,0.00563456,0.0100483,1133,428,1.63997,8.50802
-84,596,1.66919,-8.60034,0.00847478,-0.00156993,-0.000364293,0.00848798,-0.00158312,-0.0362038,0.00625351,0.0149605,1140,428,1.66915,8.60033
-77,596,1.66699,-8.70178,0.00891488,-0.00178089,-0.000458462,0.0089345,-0.00180051,-0.0427593,0.0066384,0.0202661,1147,428,1.66701,8.70178
-70,596,1.62329,-8.88867,0.00925364,-0.00171513,-0.000214396,0.00925783,-0.00171932,-0.0195361,0.00681764,0.0401728,1154,428,1.6233,8.88869
-63,596,1.68774,-9.26862,0,0,0,0,0,0,0,-1,1161,428,1.68775,9.2686
-56,596,1.6427,-8.98505,0,0,0,0,0,0,0,-1,1168,428,1.64267,8.98506
-49,596,1.47827,-9.05042,0,0,0,0,0,0,0,-1,1175,428,1.47829,9.05041
-42,596,1.99585,-6.6246,0,0,0,0,0,0,0,-1,1182,428,1.99586,6.62459
-35,596,1.47998,-8.7276,0,0,0,0,0,0,0,-1,1189,428,1.47993,8.72761
-28,596,1.61804,-8.79547,0,0,0,0,0,0,0,-1,1196,428,1.61808,8.79549
-21,596,1.5282,-8.82126,0.00751942,0.0272085,0.0105882,0.0318217,0.00290629,1.15991,0.0203151,0.0494304,1203,428,1.52824,8.82124
-14,596,1.68555,-8.94568,0.0085021,0.028271,0.0111528,0.0332891,0.00348397,1.14799,0.0211274,0.047555,1210,428,1.68555,8.94567
-7,596,1.89417,-8.97293,0,0,0,0,0,0,0,-1,1217,428,1.89417,8.97293
0,596,1.90259,-8.97159,0,0,0,0,0,0,0,-1,1224,428,1.90259,8.97158
7,596,2.01904,-8.84265,0.0141253,0.028204,0.0087753,0.0324145,0.0099148,1.12343,0.0191789,0.0467997,1231,428,2.01904,8.84266
14,596,2.26123,-8.93768,0.01665,0.0269579,0.00757205,0.0309636,0.0126443,1.08421,0.0179766,0.041802,1238,428,2.26123,8.93767
21,596,2.22986,-9.00482,0.0172717,0.023412,0.00577956,0.0268863,0.0137975,1.02955,0.0155246,0.0422042,1245,428,2.22983,9.00481
28,596,2.09363,-8.8187,0.0179553,0.0183744,0.00457486,0.0227445,0.0135852,0.808283,0.0132142,0.0437674,1252,428,2.09362,8.8187
35,596,2.35034,-8.76114,0.0185504,0.0135283,0.00394511,0.0207158,0.0113629,0.501989,0.011979,0.0424912,1259,428,2.35036,8.76115
42,596,2.32068,-8.76947,0.0201799,0.00881885,0.00346804,0.0211549,0.00784388,0.274057,0.012349,0.042168,1266,428,2.3207,8.76946
49,596,1.79541,-8.86053,0.0212983,0.0041088,0.00302162,0.0218139,0.00359312,0.169035,0.0135052,0.041965,1273,428,1.7954,8.86053
56,596,2.1449,-8.82596,0.0215016,0.000343942,0.00289421,0.0218904,-4.48218e-05,0.133525,0.0146085,0.0422982,1280,428,2.14493,8.82597
63,596,1.99756,-8.73611,0,0,0,0,0,0,0,-1,1287,428,1.99756,8.73612
70,596,0.0274658,-8.63721,0,0,0,0,0,0,0,-1,1294,428,0.0274458,8.63722
77,596,0.672729,-8.78799,0.0122595,-0.00646522,0.00375416,0.0129841,-0.00718985,0.190677,0.0118065,0.0421058,1301,428,0.672683,8.78799
84,596,1.59363,-8.76779,0.00813498,-0.00644981,0.00474217,0.00954128,-0.00785611,0.288289,0.0100601,0.0433329,1308,428,1.59367,8.76778
91,596,1.89856,-8.63788,0.00329014,-0.00630489,0.00576164,0.00599014,-0.00900489,0.438227,0.00871551,0.0431329,1315,428,1.89852,8.63789
98,596,1.89551,-8.57672,-0.000506421,-0.00640708,0.00733303,0.00444754,-0.011361,0.59414,0.00941352,0.0475017,1322,428,1.8955,8.57673
105,596,1.88428,-8.52463,0,0,0,0,0,0,0,-1,1329,428,1.88433,8.52462
112,596,2.76965,-8.83725,-0.00801805,-0.00676358,0.0107417,0.0033692,-0.0181508,0.814561,0.0133659,0.0395071,1336,428,2.76965,8.83726
119,596,2.37964,-8.81573,-0.0100376,-0.00658973,0.0122033,0.00401074,-0.0206381,0.855569,0.0152722,0.0425994,1343,428,2.37964,8.81572
126,596,1.81653,-8.91412,-0.0100753,-0.00631789,0.0142119,0.006139,-0.0225322,0.851112,0.0174319,0.0455202,1350,428,1.81658,8.91412
133,596,1.61877,-8.85822,-0.00977063,-0.00642973,0.0160282,0.00801483,-0.0242152,0.83732,0.0193757,0.0432544,1357,428,1.61882,8.85822
140,596,2.38306,-8.66824,-0.00843293,-0.00722335,0.0177054,0.00988759,-0.0255439,0.802471,0.0211116,0.0412636,1364,428,2.3831,8.66826
147,596,2.25073,-8.58353,-0.00664819,-0.00832817,0.0192544,0.0117845,-0.0267609,0.763599,0.0228073,0.0370375,1371,428,2.25075,8.58351
154,596,2.26477,-8.61008,-0.00450243,-0.0090662,0.0201579,0.0135024,-0.027071,0.729038,0.0238577,0.0417087,1378,428,2.26483,8.61007
161,596,2.37537,-8.5726,-0.00264964,-0.00949966,0.0203702,0.0145815,-0.0267308,0.702108,0.024193,0.0458526,1385,428,2.37539,8.57262
168,596,2.34302,-8.44144,0,0,0,0,0,0,0,-1,1392,428,2.343,8.44143
175,596,2.40027,-8.27911,0,0,0,0,0,0,0,-1,1399,428,2.40031,8.27912
182,596,2.46082,-8.3606,0,0,0,0,0,0,0,-1,1406,428,2.46078,8.36059
189,596,2.41418,-8.30716,0,0,0,0,0,0,0,-1,1413,428,2.41423,8.30715
196,596,2.40088,-8.13092,0,0,0,0,0,0,0,-1,1420,428,2.40083,8.13093
203,596,2.42712,-8.29056,0.00402943,-0.000414209,0.00327418,0.00576447,-0.00214925,0.487293,0.00472523,0.0423557,1427,428,2.42713,8.29056
210,596,2.2937,-8.21252,0.000576967,-0.000115503,-0.00260717,0.00286079,-0.00239933,-0.719384,0.00304082,0.0179612,1434,428,2.29369,8.21253
217,596,2.30591,-8.10849,0.000154749,-0.000330051,-0.00240119,0.00232575,-0.00250105,-0.735094,0.00278737,0.0103611,1441,428,2.30586,8.1085
224,596,2.31873,-8.02121,0.000109657,-0.000302674,-0.00220767,0.00212077,-0.00231379,-0.73884,0.0025611,0.0104256,1448,428,2.31876,8.02121
231,596,2.3324,-7.94214,7.04021e-05,-0.000387827,-0.00210827,0.00196198,-0.0022794,-0.731274,0.00245104,0.0108906,1455,428,2.33234,7.94213
238,596,2.32849,-7.8634,3.85284e-05,-0.000609146,-0.00207461,0.00181442,-0.00238504,-0.707975,0.00243201,0.0136088,1462,428,2.32848,7.8634
245,596,2.34338,-7.79074,4.83575e-05,-0.000956793,-0.00205121,0.00165767,-0.0025661,-0.665258,0.00245732,0.0135933,1469,428,2.34336,7.79075
252,596,2.35706,-7.70538,6.90878e-05,-0.00114061,-0.00200689,0.0015603,-0.00263182,-0.639035,0.00244653,0.00988042,1476,428,2.35705,7.70539
259,596,2.35876,-7.60797,0.000113957,-0.00133612,-0.00185546,0.00138101,-0.00260317,-0.599141,0.00233606,0.00811378,1483,428,2.35872,7.60797
266,596,2.35608,-7.50775,3.3908e-05,-0.00138504,-0.00179114,0.00125097,-0.0026021,-0.596828,0.0022697,0.00968271,1490,428,2.35602,7.50775
273,596,2.36316,-7.41547,-8.27819e-05,-0.00126428,-0.00162027,0.00105107,-0.00239813,-0.610588,0.00204139,0.0120766,1497,428,2.36318,7.41547
280,596,2.36475,-7.31726,-0.000101981,-0.00114191,-0.00132542,0.000801816,-0.00204571,-0.598472,0.0016955,0.012988,1504,428,2.36471,7.31728
287,596,2.36682,-7.21597,-4.42488e-05,-0.00097157,-0.00102713,0.000619021,-0.00163484,-0.573383,0.0013446,0.0118795,1511,428,2.3668,7.21596
294,596,2.36511,-7.10495,-9.93706e-06,-0.00110717,-0.000947603,0.000536404,-0.00165351,-0.522999,0.00131804,0.00949192,1518,428,2.36513,7.10496
301,596,2.3623,-7.00256,-2.90237e-05,-0.00122601,-0.000774512,0.000351291,-0.00160632,-0.456452,0.00120517,0.0102172,1525,428,2.3623,7.00257
308,596,2.39441,-6.88766,9.85886e-06,-0.00154271,-0.000613239,0.000222857,-0.00175571,-0.334297,0.00125139,0.0150889,1532,428,2.39443,6.88768
315,596,2.37952,-6.79211,0.000132245,-0.001963,-0.000467102,0.000231661,-0.00206242,-0.209707,0.00145831,0.0154042,1539,428,2.37946,6.79213
322,596,2.38452,-6.6665,0.00014702,-0.00271851,-0.000411167,0.00020485,-0.00277634,-0.139732,0.00192282,0.0122809,1546,428,2.38446,6.66652
329,596,2.39294,-6.54474,-0.000161188,-0.00369676,-0.000537247,-8.13541e-05,-0.0037766,-0.14752,0.00249106,0.00938455,1553,428,2.39292,6.54475
336,596,2.37646,-6.42795,-0.000637621,-0.00448531,-0.000710905,-0.000510474,-0.00461246,-0.17698,0.00291973,0.00924929,1560,428,2.37642,6.42796
343,596,2.37891,-6.31885,-0.00107631,-0.00535799,-0.00083754,-0.000918313,-0.00551599,-0.186458,0.00341266,0.0112489,1567,428,2.37889,6.31885
350,596,2.38293,-6.18442,-0.00154904,-0.00601057,-0.000905175,-0.00137239,-0.00618723,-0.192735,0.00375197,0.0115821,1574,428,2.38295,6.18443
357,596,2.36487,-6.04105,-0.00218149,-0.00637353,-0.000986384,-0.00196099,-0.00659402,-0.219926,0.00390986,0.00902707,1581,428,2.36482,6.04103
364,596,2.34436,-5.90326,-0.00298281,-0.00654801,-0.000973707,-0.00273421,-0.00679661,-0.249971,0.00394892,0.00816679,1588,428,2.34438,5.90325
371,596,2.35889,-5.77246,-0.00392589,-0.00655457,-0.000993184,-0.00359284,-0.00688762,-0.323555,0.00397781,0.00896752,1595,428,2.35883,5.77246
378,596,2.39258,-5.64355,-0.00485657,-0.00582184,-0.000786395,-0.00441651,-0.00626189,-0.510171,0.0037155,0.0134105,1602,428,2.39258,5.64355
385,596,2.39148,-5.48236,-0.00572366,-0.00512368,-0.00072392,-0.00464005,-0.00620729,-0.981828,0.00372728,0.0234684,1609,428,2.39147,5.48236
392,596,2.35876,-5.37347,-0.00587754,-0.00412835,-0.000536922,-0.00397669,-0.0060292,-1.2955,0.00353956,0.0368105,1616,428,2.35873,5.37347
399,596,2.39478,-5.3302,-0.00582127,-0.00076097,0.000945715,-0.000590002,-0.00599223,1.39195,0.0038134,0.0486749,1623,428,2.39482,5.33021
406,596,2.30566,-5.11676,0,0,0,0,0,0,0,-1,1630,428,2.30572,5.11677
413,596,3.39124,-2.63528,0,0,0,0,0,0,0,-1,1637,428,3.39122,2.6353
420,596,2.6344,-3.06308,0,0,0,0,0,0,0,-1,1644,428,2.63439,3.06308
427,596,2.99329,-1.90512,0,0,0,0,0,0,0,-1,1651,428,2.99327,1.90512
434,596,3.80896,-0.253998,0,0,0,0,0,0,0,-1,1658,428,3.80902,0.254004
441,596,3.86401,-0.131622,0,0,0,0,0,0,0,-1,1665,428,3.86406,0.131613
448,596,1.0769,0.0083313,0,0,0,0,0,0,0,-1,1672,428,1.07684,-0.00832231
455,596,2.00769,-1.43329,0,0,0,0,0,0,0,-1,1679,428,2.00765,1.4333
462,596,0,0,0,0,0,0,0,0,0,-1,1686,428,0,0
469,596,0,0,0,0,0,0,0,0,0,-1,1693,428,0,0
476,596,0,0,0,0,0,0,0,0,0,-1,1700,428,0,0
483,596,0,0,0,0,0,0,0,0,0,-1,1707,428,0,0
490,596,0,0,0,0,0,0,0,0,0,-1,1714,428,0,0
497,596,0,0,0,0,0,0,0,0,0,-1,1721,428,0,0
504,596,0,0,0,0,0,0,0,0,0,-1,1728,428,0,0
511,596,0,0,0,0,0,0,0,0,0,-1,1735,428,0,0
518,596,0,0,0,0,0,0,0,0,0,-1,1742,428,0,0
525,596,0,0,0,0,0,0,0,0,0,-1,1749,428,0,0
532,596,0,0,0,0,0,0,0,0,0,-1,1756,428,0,0
539,596,0,0,0,0,0,0,0,0,0,-1,1763,428,0,0
546,596,0,0,0,0,0,0,0,0,0,-1,1770,428,0,0
553,596,0,0,0,0,0,0,0,0,0,-1,1777,428,0,0
560,596,0,0,0,0,0,0,0,0,0,-1,1784,428,0,0
567,596,0,0,0,0,0,0,0,0,0,-1,1791,428,0,0
574,596,0,0,0,0,0,0,0,0,0,-1,1798,428,0,0
581,596,0,0,0,0,0,0,0,0,0,-1,1805,428,0,0
588,596,0,0,0,0,0,0,0,0,0,-1,1812,428,0,0
595,596,0,0,0,0,0,0,0,0,0,-1,1819,428,0,0
602,596,0,0,0,0,0,0,0,0,0,-1,1826,428,0,0
609,596,0,0,0,0,0,0,0,0,0,-1,1833,428,0,0
616,596,0,0,0,0,0,0,0,0,0,-1,1840,428,0,0
623,596,0,0,0,0,0,0,0,0,0,-1,1847,428,0,0
630,596,0,0,0,0,0,0,0,0,0,-1,1854,428,0,0
637,596,0,0,0,0,0,0,0,0,0,-1,1861,428,0,0
644,596,0,0,0,0,0,0,0,0,0,-1,1868,428,0,0
651,596,0,0,0,0,0,0,0,0,0,-1,1875,428,0,0
658,596,0,0,0,0,0,0,0,0,0,-1,1882,428,0,0
665,596,0,0,0,0,0,0,0,0,0,-1,1889,428,0,0
672,596,0,0,0,0,0,0,0,0,0,-1,1896,428,0,0
679,596,0,0,0,0,0,0,0,0,0,-1,1903,428,0,0
686,596,0,0,0,0,0,0,0,0,0,-1,1910,428,0,0
693,596,0,0,0,0,0,0,0,0,0,-1,1917,428,0,0
700,596,0,0,0,0,0,0,0,0,0,-1,1924,428,0,0
707,596,0,0,0,0,0,0,0,0,0,-1,1931,428,0,0
714,596,0,0,0,0,0,0,0,0,0,-1,1938,428,0,0
721,596,0,0,0,0,0,0,0,0,0,-1,1945,428,0,0
728,596,0,0,0,0,0,0,0,0,0,-1,1952,428,0,0
735,596,0,0,0,0,0,0,0,0,0,-1,1959,428,0,0
742,596,0,0,0,0,0,0,0,0,0,-1,1966,428,0,0
749,596,0,0,0,0,0,0,0,0,0,-1,1973,428,0,0
756,596,0,0,0,0,0,0,0,0,0,-1,1980,428,0,0
763,596,0,0,0,0,0,0,0,0,0,-1,1987,428,0,0
770,596,0,0,0,0,0,0,0,0,0,-1,1994,428,0,0
777,596,0,0,0,0,0,0,0,0,0,-1,2001,428,0,0
784,596,0,0,0,0,0,0,0,0,0,-1,2008,428,0,0
791,596,0,0,0,0,0,0,0,0,0,-1,2015,428,0,0
798,596,0,0,0,0,0,0,0,0,0,-1,2022,428,0,0
805,596,0,0,0,0,0,0,0,0,0,-1,2029,428,0,0
812,596,0,0,0,0,0,0,0,0,0,-1,2036,428,0,0
-700,589,0,0,0,0,0,0,0,0,0,-1,524,435,0,0
-693,589,0,0,0,0,0,0,0,0,0,-1,531,435,0,0
-686,589,0,0,0,0,0,0,0,0,0,-1,538,435,0,0
-679,589,0,0,0,0,0,0,0,0,0,-1,545,435,0,0
-672,589,0,0,0,0,0,0,0,0,0,-1,552,435,0,0
-665,589,0,0,0,0,0,0,0,0,0,-1,559,435,0,0
-658,589,0,0,0,0,0,0,0,0,0,-1,566,435,0,0
-651,589,0,0,0,0,0,0,0,0,0,-1,573,435,0,0
-644,589,0,0,0,0,0,0,0,0,0,-1,580,435,0,0
-637,589,0,0,0,0,0,0,0,0,0,-1,587,435,0,0
-630,589,0,0,0,0,0,0,0,0,0,-1,594,435,0,0
-623,589,0,0,0,0,0,0,0,0,0,-1,601,435,0,0
-616,589,0,0,0,0,0,0,0,0,0,-1,608,435,0,0
-609,589,0,0,0,0,0,0,0,0,0,-1,615,435,0,0
-602,589,0,0,0,0,0,0,0,0,0,-1,622,435,0,0
-595,589,0,0,0,0,0,0,0,0,0,-1,629,435,0,0
-588,589,0,0,0,0,0,0,0,0,0,-1,636,435,0,0
-581,589,0,0,0,0,0,0,0,0,0,-1,643,435,0,0
-574,589,0,0,0,0,0,0,0,0,0,-1,650,435,0,0
-567,589,0,0,0,0,0,0,0,0,0,-1,657,435,0,0
-560,589,0,0,0,0,0,0,0,0,0,-1,664,435,0,0
-553,589,0,0,0,0,0,0,0,0,0,-1,671,435,0,0
-546,589,0,0,0,0,0,0,0,0,0,-1,678,435,0,0
-539,589,0,0,0,0,0,0,0,0,0,-1,685,435,0,0
-532,589,0,0,0,0,0,0,0,0,0,-1,692,435,0,0
-525,589,0,0,0,0,0,0,0,0,0,-1,699,435,0,0
-518,589,0,0,0,0,0,0,0,0,0,-1,706,435,0,0
-511,589,0,0,0,0,0,0,0,0,0,-1,713,435,0,0
-504,589,0,0,0,0,0,0,0,0,0,-1,720,435,0,0
-497,589,0,0,0,0,0,0,0,0,0,-1,727,435,0,0
-490,589,0,0,0,0,0,0,0,0,0,-1,734,435,0,0
-483,589,0,0,0,0,0,0,0,0,0,-1,741,435,0,0
-476,589,0,0,0,0,0,0,0,0,0,-1,748,435,0,0
-469,589,0,0,0,0,0,0,0,0,0,-1,755,435,0,0
-462,589,0,0,0,0,0,0,0,0,0,-1,762,435,0,0
-455,589,0,0,0,0,0,0,0,0,0,-1,769,435,0,0
-448,589,0,0,0,0,0,0,0,0,0,-1,776,435,0,0
-441,589,0,0,0,0,0,0,0,0,0,-1,783,435,0,0
-434,589,0,0,0,0,0,0,0,0,0,-1,790,435,0,0
-427,589,0,0,0,0,0,0,0,0,0,-1,797,435,0,0
-420,589,0,0,0,0,0,0,0,0,0,-1,804,435,0,0
-413,589,0,0,0,0,0,0,0,0,0,-1,811,435,0,0
-406,589,0,0,0,0,0,0,0,0,0,-1,818,435,0,0
-399,589,0,0,0,0,0,0,0,0,0,-1,825,435,0,0
-392,589,0,0,0,0,0,0,0,0,0,-1,832,435,0,0
-385,589,0,0,0,0,0,0,0,0,0,-1,839,435,0,0
-378,589,0,0,0,0,0,0,0,0,0,-1,846,435,0,0
-371,589,0,0,0,0,0,0,0,0,0,-1,853,435,0,0
-364,589,0,0,0,0,0,0,0,0,0,-1,860,435,0,0
-357,589,0,0,0,0,0,0,0,0,0,-1,867,435,0,0
-350,589,4.95789,-5.48666,0,0,0,0,0,0,0,-1,874,435,4.95787,5.48665
-343,589,2.73572,-6.56662,0,0,0,0,0,0,0,-1,881,435,2.73572,6.56662
-336,589,2.5589,-7.15228,0,0,0,0,0,0,0,-1,888,435,2.55891,7.15228
-329,589,2.00543,-6.66263,-0.0378187,-0.106339,0.0197044,-0.0325565,-0.111602,0.260969,0.0662704,0.0475939,895,435,2.00545,6.66263
-322,589,1.49969,-6.16339,-0.0289173,-0.0836475,0.0155365,-0.0248145,-0.0877504,0.258184,0.052232,0.0462831,902,435,1.49967,6.16339
-315,589,0.940857,-5.68015,0,0,0,0,0,0,0,-1,909,435,0.940848,5.68013
-308,589,1.18903,-5.66556,-0.014198,-0.0479055,0.00845605,-0.0121957,-0.0499079,0.232516,0.0300435,0.04749,916,435,1.18901,5.66557
-301,589,1.42664,-5.65945,-0.00832869,-0.0342492,0.00559705,-0.00717176,-0.0354062,0.203834,0.0216138,0.0448029,923,435,1.42662,5.65945
-294,589,1.62561,-5.71384,-0.00361114,-0.0237953,0.00336646,-0.00306446,-0.024342,0.160984,0.0153091,0.0473675,930,435,1.62561,5.71384
-287,589,1.49176,-6.13089,-0.00019458,-0.0161313,0.00185692,1.89263e-05,-0.0163448,0.114475,0.0109029,0.0415905,937,435,1.49174,6.13088
-280,589,1.52148,-6.01947,0.00223196,-0.0113585,0.000204329,0.00223503,-0.0113616,0.0150302,0.00841889,0.0310069,944,435,1.52148,6.01947
-273,589,1.53314,-6.15045,0.0048766,-0.00581128,-0.00122154,0.00501444,-0.00594911,-0.112361,0.00633747,0.018503,951,435,1.53312,6.15046
-266,589,1.52625,-6.27994,0.0062949,-0.00295536,-0.00215428,0.006772,-0.00343246,-0.217948,0.00599579,0.0166126,958,435,1.52623,6.27993
-259,589,1.51495,-6.39676,0.0062255,-0.00273598,-0.00214079,0.00671065,-0.00322113,-0.222856,0.0058509,0.0149593,965,435,1.51495,6.39676
-252,589,1.51874,-6.52209,0.00576742,-0.0023115,-0.00194125,0.00620967,-0.00275375,-0.223993,0.00530169,0.00971036,972,435,1.51871,6.52211
-245,589,1.51025,-6.62909,0.00521739,-0.00190259,-0.00189022,0.00568809,-0.00237329,-0.244054,0.0047836,0.00991825,979,435,1.51023,6.62908
-238,589,1.48621,-6.74731,0.00473135,-0.0018203,-0.00183302,0.00520932,-0.00229828,-0.255076,0.0044418,0.0138445,986,435,1.48618,6.74731
-231,589,1.4903,-6.87292,0.00415542,-0.00144698,-0.0016333,0.00459681,-0.00188837,-0.263939,0.00385153,0.0142636,993,435,1.4903,6.87291
-224,589,1.4809,-6.97672,0.00350899,-0.00121501,-0.00142217,0.00390409,-0.00161011,-0.270982,0.00327417,0.0138037,1000,435,1.48088,6.97671
-217,589,1.47699,-7.07242,0.00289845,-0.00098929,-0.00122974,0.00325477,-0.00134561,-0.282031,0.00273121,0.0146572,1007,435,1.47697,7.07241
-210,589,1.48987,-7.17044,0.00228702,-0.000815023,-0.00105046,0.00260927,-0.00113727,-0.297654,0.00221802,0.0135934,1014,435,1.48989,7.17043
-203,589,1.49622,-7.26788,0.00160135,-0.000621857,-0.000916569,0.0019305,-0.000951004,-0.344765,0.00169537,0.0100351,1021,435,1.4962,7.26789
-196,589,1.48413,-7.36923,0.00108161,-0.000449346,-0.000861478,0.00146856,-0.000836302,-0.422168,0.0013473,0.0124523,1028,435,1.48418,7.36923
-189,589,1.44128,-7.48303,0.000748489,-0.000228097,-0.000816332,0.00121142,-0.000691028,-0.515867,0.00111199,0.0162522,1035,435,1.44126,7.48303
-182,589,1.47766,-7.56509,0.000599568,0.000163513,-0.000815542,0.00122572,-0.000462643,-0.654782,0.00100742,0.0126551,1042,435,1.47767,7.5651
-175,589,1.49109,-7.64746,0.000483859,0.000460222,-0.000740842,0.00121298,-0.000268896,-0.777422,0.0009116,0.0163654,1049,435,1.49107,7.64747
-168,589,1.50439,-7.74515,0.000388058,0.00071049,-0.000793296,0.00135879,-0.000260238,-0.885645,0.00100391,0.0139153,1056,435,1.5044,7.74514
-161,589,1.50146,-7.83325,0.000259158,0.00107727,-0.000865979,0.00162595,-0.000289515,-1.00605,0.00119224,0.0124753,1063,435,1.50149,7.83326
-154,589,1.48682,-7.91745,3.15164e-06,0.00136728,-0.000825564,0.00175609,-0.000385656,-1.13065,0.00131822,0.0124043,1070,435,1.48684,7.91745
-147,589,1.50244,-8.00168,0.000239486,0.00160442,-0.00046448,0.00174749,9.64215e-05,-1.27201,0.00113422,0.0126205,1077,435,1.50247,8.00167
-140,589,1.5127,-8.07504,0.00127264,0.00166917,-0.000209907,0.00175964,0.00118216,-1.16384,0.00103573,0.0139844,1084,435,1.51268,8.07506
-133,589,1.51367,-8.12524,0.00214273,0.00126891,-0.000130748,0.00216187,0.00124976,-0.145387,0.00125322,0.0141472,1091,435,1.51368,8.12524
-126,589,1.51428,-8.21072,0.00295693,0.000897178,-4.335e-05,0.00295784,0.000896267,-0.0210338,0.00175133,0.0109753,1098,435,1.51427,8.21072
-119,589,1.5188,-8.29337,0.004094,0.00055606,5.34328e-05,0.00409481,0.000555253,0.0150982,0.0025649,0.0164701,1105,435,1.51883,8.29337
-112,589,1.54272,-8.34454,0.00560242,-0.000143368,0.00018409,0.00560832,-0.00014926,0.0319954,0.00378961,0.0168159,1112,435,1.54278,8.34455
-105,589,1.55627,-8.41794,0.00730339,-0.000874948,0.000234957,0.00731014,-0.000881692,0.0286977,0.00519233,0.0165634,1119,435,1.55628,8.41794
-98,589,1.57373,-8.47498,0.00917771,-0.00154832,0.000212664,0.00918192,-0.00155253,0.0198166,0.00669903,0.0179466,1126,435,1.57376,8.47498
-91,589,1.67651,-8.51431,0.0111239,-0.00238705,8.0054e-05,0.0111244,-0.00238752,0.00592485,0.00832696,0.0228954,1133,435,1.67646,8.51431
-84,589,1.7616,-8.59308,0.012488,-0.00276652,-0.000162207,0.0124897,-0.00276825,-0.0106318,0.00938628,0.029853,1140,435,1.76157,8.59309
-77,589,1.69019,-8.73557,0.0132999,-0.00319433,-0.000283501,0.0133048,-0.0031992,-0.0171811,0.0101065,0.0482358,1147,435,1.69016,8.73556
-70,589,1.70251,-9.00107,0,0,0,0,0,0,0,-1,1154,435,1.70251,9.00106
-63,589,0.880127,-5.50586,0,0,0,0,0,0,0,-1,1161,435,0.880186,5.50587
-56,589,-2.78052,-7.28082,0,0,0,0,0,0,0,-1,1168,435,-2.78053,7.28082
-49,589,-0.525757,-2.76703,0,0,0,0,0,0,0,-1,1175,435,-0.525771,2.76702
-42,589,-2.7738,-2.87921,0,0,0,0,0,0,0,-1,1182,435,-2.77383,2.87922
-35,589,-2.55225,-3.27551,0,0,0,0,0,0,0,-1,1189,435,-2.55223,3.27552
-28,589,-0.0632324,-3.42938,0,0,0,0,0,0,0,-1,1196,435,-0.063241,3.42938
-21,589,1.45398,-8.98712,0,0,0,0,0,0,0,-1,1203,435,1.45399,8.98713
-14,589,1.57104,-8.97522,0,0,0,0,0,0,0,-1,1210,435,1.57109,8.97521
-7,589,1.68823,-8.96329,0,0,0,0,0,0,0,-1,1217,435,1.6882,8.9633
0,589,1.84106,-9.22296,0,0,0,0,0,0,0,-1,1224,435,1.84105,9.22297
7,589,2.26611,-9.01529,0,0,0,0,0,0,0,-1,1231,435,2.26609,9.01528
14,589,2.57202,-8.95172,0,0,0,0,0,0,0,-1,1238,435,2.57205,8.95173
21,589,3.34314,-8.65613,0,0,0,0,0,0,0,-1,1245,435,3.34315,8.65612
28,589,2.13672,-8.72833,0,0,0,0,0,0,0,-1,1252,435,2.13667,8.72834
35,589,2.68555,-8.62375,0.0238214,0.0203789,0.00581485,0.0281644,0.0160359,0.641503,0.0163128,0.0467281,1259,435,2.68556,8.62375
42,589,2.67114,-8.65112,0.0255069,0.014146,0.00478076,0.027251,0.0124019,0.349802,0.0157545,0.047295,1266,435,2.67116,8.65112
49,589,1.66138,-8.73135,0,0,0,0,0,0,0,-1,1273,435,1.66132,8.73137
56,589,2.06482,-8.75024,0,0,0,0,0,0,0,-1,1280,435,2.06479,8.75026
63,589,4.80859,-10.005,0.0231489,-0.00221517,0.00235324,0.0233653,-0.00243165,0.0917353,0.0164475,0.0443161,1287,435,4.80854,10.005
70,589,5.51221,-10.6856,0,0,0,0,0,0,0,-1,1294,435,5.51217,10.6856
77,589,0.572754,-8.66574,0.0134259,-0.00745329,0.0039309,0.0141415,-0.00816883,0.180059,0.0130338,0.0419605,1301,435,0.57275,8.66574
84,589,1.08398,-8.60388,0.00764777,-0.00781009,0.00526911,0.00927298,-0.0094353,0.299182,0.0108014,0.0408636,1308,435,1.08398,8.6039
91,589,1.63293,-8.38193,0.00120348,-0.007918,0.00681633,0.00484413,-0.0115586,0.490559,0.00973103,0.0435245,1315,435,1.6329,8.38193
98,589,1.87476,-8.39832,0,0,0,0,0,0,0,-1,1322,435,1.87478,8.3983
105,589,3.45129,-8.68402,-0.00822655,-0.00837152,0.0119429,0.00364411,-0.0202422,0.782364,0.0148592,0.0459774,1329,435,3.45131,8.68403
112,589,3.3219,-9.02158,-0.0134262,-0.00925165,0.014204,0.00301765,-0.0256955,0.85835,0.0182197,0.0394731,1336,435,3.32196,9.02156
119,589,2.53467,-8.88052,-0.015778,-0.00903265,0.0163825,0.00432076,-0.0291314,0.886915,0.0210098,0.0410785,1343,435,2.53467,8.88052
126,589,1.99048,-8.85138,0,0,0,0,0,0,0,-1,1350,435,1.99043,8.85139
133,589,1.42639,-8.98932,0,0,0,0,0,0,0,-1,1357,435,1.4264,8.98932
140,589,2.47949,-8.59561,0,0,0,0,0,0,0,-1,1364,435,2.47945,8.59561
147,589,2.33215,-8.48254,-0.0106051,-0.0114046,0.0266535,0.0156516,-0.0376613,0.7779,0.0316425,0.0473702,1371,435,2.33217,8.48255
154,589,2.3822,-8.55484,-0.00773694,-0.0122951,0.0280264,0.0181029,-0.0381349,0.744828,0.0331484,0.0450058,1378,435,2.38222,8.55485
161,589,2.54736,-8.59677,0,0,0,0,0,0,0,-1,1385,435,2.54738,8.59676
168,589,9.00769,-8.81058,0,0,0,0,0,0,0,-1,1392,435,9.00763,8.81058
175,589,8.66992,-7.65527,0,0,0,0,0,0,0,-1,1399,435,8.66994,7.65528
182,589,3.8136,-2.45389,0,0,0,0,0,0,0,-1,1406,435,3.81363,2.4539
189,589,3.69983,-3.68149,0,0,0,0,0,0,0,-1,1413,435,3.69987,3.68147
196,589,3.31055,-5.31677,0,0,0,0,0,0,0,-1,1420,435,3.31059,5.31678
203,589,2.61035,-8.35858,0,0,0,0,0,0,0,-1,1427,435,2.6104,8.35859
210,589,2.29309,-8.24808,0,0,0,0,0,0,0,-1,1434,435,2.29304,8.24808
217,589,2.35803,-8.13297,0.000268152,-0.000816335,-0.00329536,0.00306558,-0.00361376,-0.703855,0.00386065,0.0251379,1441,435,2.35806,8.13296
224,589,2.39587,-8.02942,0.000205216,-0.000829866,-0.00311534,0.00284571,-0.00347036,-0.703087,0.00365253,0.0214544,1448,435,2.39592,8.02941
231,589,2.39172,-7.96979,0.000135102,-0.00104216,-0.00304911,0.00265187,-0.00355893,-0.690046,0.00359854,0.0185113,1455,435,2.39169,7.96978
238,589,2.39807,-7.89169,3.40299e-05,-0.00140743,-0.0030994,0.0024954,-0.0038688,-0.671159,0.00370278,0.019932,1462,435,2.39806,7.8917
245,589,2.41528,-7.74878,-2.16827e-05,-0.00199705,-0.00318618,0.00232639,-0.00434512,-0.6351,0.00391014,0.0192384,1469,435,2.41534,7.74877
252,589,2.43982,-7.66632,-3.98996e-05,-0.00230349,-0.00320871,0.00223078,-0.00457416,-0.615848,0.00400573,0.0134964,1476,435,2.4398,7.66633
259,589,2.46338,-7.59152,-2.44959e-05,-0.00263775,-0.00306683,0.00200245,-0.0046647,-0.584018,0.00395025,0.00926964,1483,435,2.46341,7.59154
266,589,2.4668,-7.49832,-0.000199218,-0.00283248,-0.00307012,0.00182469,-0.00485638,-0.582833,0.0039875,0.00921614,1490,435,2.46676,7.49834
273,589,2.46289,-7.41312,-0.000415198,-0.00276282,-0.00288887,0.00152923,-0.00470724,-0.592426,0.00375323,0.0118752,1497,435,2.46293,7.41311
280,589,2.46155,-7.3031,-0.000489972,-0.0026962,-0.00254522,0.0011809,-0.00436708,-0.580913,0.00337461,0.0133098,1504,435,2.46151,7.3031
287,589,2.48242,-7.22418,-0.000397616,-0.00248089,-0.00218804,0.00098408,-0.00386258,-0.563242,0.00295816,0.0116788,1511,435,2.48245,7.22419
294,589,2.47449,-7.11264,-0.000359388,-0.00219557,-0.00192436,0.000854672,-0.00340963,-0.562823,0.00260514,0.00990174,1518,435,2.47451,7.11265
301,589,2.46472,-6.99304,-0.000410311,-0.00213627,-0.00164203,0.000581704,-0.00312828,-0.543457,0.00230403,0.0105029,1525,435,2.46472,6.99303
308,589,2.495,-6.87192,-0.000389716,-0.00215721,-0.00135992,0.000348385,-0.00289531,-0.497262,0.0020562,0.010501,1532,435,2.49504,6.87192
315,589,2.49951,-6.75864,-0.00025508,-0.00216732,-0.00105484,0.000212473,-0.00263487,-0.417224,0.00183152,0.0109277,1539,435,2.49955,6.75865
322,589,2.50525,-6.664,-0.000201454,-0.0024485,-0.000842333,7.92411e-05,-0.00272919,-0.321662,0.00184644,0.0115548,1546,435,2.50527,6.66401
329,589,2.51843,-6.54208,-0.000383002,-0.0030064,-0.000810157,-0.000152979,-0.00323643,-0.276644,0.00210847,0.010276,1553,435,2.51846,6.54209
336,589,2.50879,-6.42068,-0.000691129,-0.00339679,-0.000804328,-0.000470081,-0.00361784,-0.268202,0.00227147,0.00987013,1560,435,2.5088,6.42069
343,589,2.50415,-6.31738,-0.000975017,-0.00381226,-0.000762185,-0.000783231,-0.00400405,-0.246509,0.00245038,0.0107142,1567,435,2.50417,6.3174
350,589,2.48926,-6.19968,-0.00129217,-0.00405617,-0.000695463,-0.00112704,-0.0042213,-0.233114,0.00252384,0.0158614,1574,435,2.48926,6.19969
357,589,2.48413,-6.04465,-0.00170991,-0.0041459,-0.000626175,-0.00155838,-0.00429743,-0.237433,0.00251214,0.0129628,1581,435,2.4841,6.04464
364,589,2.48999,-5.90115,-0.00221716,-0.0040862,-0.000496512,-0.00209345,-0.00420991,-0.244188,0.0024306,0.0102605,1588,435,2.48994,5.90116
371,589,2.5094,-5.76871,-0.002777,-0.00391012,-0.000356509,-0.00267417,-0.00401295,-0.280826,0.00235925,0.0107831,1595,435,2.50941,5.76869
378,589,2.50403,-5.64435,-0.00334201,-0.00329127,-0.000110574,-0.00320319,-0.00343009,-0.898159,0.00221497,0.0126653,1602,435,2.50406,5.64434
385,589,2.50476,-5.509,-0.00381917,-0.00276366,-7.1473e-06,-0.00276361,-0.00381922,-1.56403,0.00227734,0.0140717,1609,435,2.5048,5.50901
392,589,2.4967,-5.35477,-0.00374171,-0.00209541,0.000186671,-0.00207451,-0.00376261,1.45929,0.00217616,0.0143264,1616,435,2.49676,5.35478
399,589,2.46887,-5.21683,-0.00331466,-2.91425e-05,0.00126616,0.000402182,-0.00374598,1.24247,0.00264161,0.0192754,1623,435,2.46891,5.21682
406,589,2.45679,-5.09192,-0.002785,0.000252668,0.00171974,0.00102826,-0.00356058,1.14712,0.00278059,0.0467324,1630,435,2.45681,5.09191
413,589,2.4967,-4.91806,0,0,0,0,0,0,0,-1,1637,435,2.49669,4.91807
420,589,2.73669,-4.69958,0,0,0,0,0,0,0,-1,1644,435,2.73675,4.69958
427,589,2.72461,-4.26404,0,0,0,0,0,0,0,-1,1651,435,2.7246,4.26403
434,589,2.52734,-2.73029,0,0,0,0,0,0,0,-1,1658,435,2.52736,2.73029
441,589,3.17639,-2.02435,0,0,0,0,0,0,0,-1,1665,435,3.17643,2.02435
448,589,0.453735,-3.2868,0,0,0,0,0,0,0,-1,1672,435,0.453701,3.28681
455,589,2.62402,-3.76285,0,0,0,0,0,0,0,-1,1679,435,2.62401,3.76285
462,589,2.56335,-3.59787,0,0,0,0,0,0,0,-1,1686,435,2.56337,3.59787
469,589,1.61658,-3.70923,0,0,0,0,0,0,0,-1,1693,435,1.61657,3.70923
476,589,0,0,0,0,0,0,0,0,0,-1,1700,435,0,0
483,589,0,0,0,0,0,0,0,0,0,-1,1707,435,0,0
490,589,0,0,0,0,0,0,0,0,0,-1,1714,435,0,0
497,589,0,0,0,0,0,0,0,0,0,-1,1721,435,0,0
504,589,0,0,0,0,0,0,0,0,0,-1,1728,435,0,0
511,589,0,0,0,0,0,0,0,0,0,-1,1735,435,0,0
518,589,0,0,0,0,0,0,0,0,0,-1,1742,435,0,0
525,589,0,0,0,0,0,0,0,0,0,-1,1749,435,0,0
532,589,0,0,0,0,0,0,0,0,0,-1,1756,435,0,0
539,589,0,0,0,0,0,0,0,0,0,-1,1763,435,0,0
546,589,0,0,0,0,0,0,0,0,0,-1,1770,435,0,0
553,589,0,0,0,0,0,0,0,0,0,-1,1777,435,0,0
560,589,0,0,0,0,0,0,0,0,0,-1,1784,435,0,0
567,589,0,0,0,0,0,0,0,0,0,-1,1791,435,0,0
574,589,0,0,0,0,0,0,0,0,0,-1,1798,435,0,0
581,589,0,0,0,0,0,0,0,0,0,-1,1805,435,0,0
588,589,0,0,0,0,0,0,0,0,0,-1,1812,435,0,0
595,589,0,0,0,0,0,0,0,0,0,-1,1819,435,0,0
602,589,0,0,0,0,0,0,0,0,0,-1,1826,435,0,0
609,589,0,0,0,0,0,0,0,0,0,-1,1833,435,0,0
616,589,0,0,0,0,0,0,0,0,0,-1,1840,435,0,0
623,589,0,0,0,0,0,0,0,0,0,-1,1847,435,0,0
630,589,0,0,0,0,0,0,0,0,0,-1,1854,435,0,0
637,589,0,0,0,0,0,0,0,0,0,-1,1861,435,0,0
644,589,0,0,0,0,0,0,0,0,0,-1,1868,435,0,0
651,589,0,0,0,0,0,0,0,0,0,-1,1875,435,0,0
658,589,0,0,0,0,0,0,0,0,0,-1,1882,435,0,0
665,589,0,0,0,0,0,0,0,0,0,-1,1889,435,0,0
672,589,0,0,0,0,0,0,0,0,0,-1,1896,435,0,0
679,589,0,0,0,0,0,0,0,0,0,-1,1903,435,0,0
686,589,0,0,0,0,0,0,0,0,0,-1,1910,435,0,0
693,589,0,0,0,0,0,0,0,0,0,-1,1917,435,0,0
700,589,0,0,0,0,0,0,0,0,0,-1,1924,435,0,0
707,589,0,0,0,0,0,0,0,0,0,-1,1931,435,0,0
714,589,0,0,0,0,0,0,0,0,0,-1,1938,435,0,0
721,589,0,0,0,0,0,0,0,0,0,-1,1945,435,0,0
728,589,0,0,0,0,0,0,0,0,0,-1,1952,435,0,0
735,589,0,0,0,0,0,0,0,0,0,-1,1959,435,0,0
742,589,0,0,0,0,0,0,0,0,0,-1,1966,435,0,0
749,589,0,0,0,0,0,0,0,0,0,-1,1973,435,0,0
756,589,0,0,0,0,0,0,0,0,0,-1,1980,435,0,0
763,589,0,0,0,0,0,0,0,0,0,-1,1987,435,0,0
770,589,0,0,0,0,0,0,0,0,0,-1,1994,435,0,0
777,589,0,0,0,0,0,0,0,0,0,-1,2001,435,0,0
784,589,0,0,0,0,0,0,0,0,0,-1,2008,435,0,0
791,589,0,0,0,0,0,0,0,0,0,-1,2015,435,0,0
798,589,0,0,0,0,0,0,0,0,0,-1,2022,435,0,0
805,589,0,0,0,0,0,0,0,0,0,-1,2029,435,0,0
812,589,0,0,0,0,0,0,0,0,0,-1,2036,435,0,0
-700,582,0,0,0,0,0,0,0,0,0,-1,524,442,0,0
-693,582,0,0,0,0,0,0,0,0,0,-1,531,442,0,0
-686,582,0,0,0,0,0,0,0,0,0,-1,538,442,0,0
-679,582,0,0,0,0,0,0,0,0,0,-1,545,442,0,0
-672,582,0,0,0,0,0,0,0,0,0,-1,552,442,0,0
-665,582,0,0,0,0,0,0,0,0,0,-1,559,442,0,0
-658,582,0,0,0,0,0,0,0,0,0,-1,566,442,0,0
-651,582,0,0,0,0,0,0,0,0,0,-1,573,442,0,0
-644,582,0,0,0,0,0,0,0,0,0,-1,580,442,0,0
-637,582,0,0,0,0,0,0,0,0,0,-1,587,442,0,0
-630,582,0,0,0,0,0,0,0,0,0,-1,594,442,0,0
-623,582,0,0,0,0,0,0,0,0,0,-1,601,442,0,0
-616,582,0,0,0,0,0,0,0,0,0,-1,608,442,0,0
-609,582,0,0,0,0,0,0,0,0,0,-1,615,442,0,0
-602,582,0,0,0,0,0,0,0,0,0,-1,622,442,0,0
-595,582,0,0,0,0,0,0,0,0,0,-1,629,442,0,0
-588,582,0,0,0,0,0,0,0,0,0,-1,636,442,0,0
-581,582,0,0,0,0,0,0,0,0,0,-1,643,442,0,0
-574,582,0,0,0,0,0,0,0,0,0,-1,650,442,0,0
-567,582,0,0,0,0,0,0,0,0,0,-1,657,442,0,0
-560,582,0,0,0,0,0,0,0,0,0,-1,664,442,0,0
-553,582,0,0,0,0,0,0,0,0,0,-1,671,442,0,0
-546,582,0,0,0,0,0,0,0,0,0,-1,678,442,0,0
-539,582,0,0,0,0,0,0,0,0,0,-1,685,442,0,0
-532,582,0,0,0,0,0,0,0,0,0,-1,692,442,0,0
-525,582,0,0,0,0,0,0,0,0,0,-1,699,442,0,0
-518,582,0,0,0,0,0,0,0,0,0,-1,706,442,0,0
-511,582,0,0,0,0,0,0,0,0,0,-1,713,442,0,0
-504,582,0,0,0,0,0,0,0,0,0,-1,720,442,0,0
-497,582,0,0,0,0,0,0,0,0,0,-1,727,442,0,0
-490,582,0,0,0,0,0,0,0,0,0,-1,734,442,0,0
-483,582,0,0,0,0,0,0,0,0,0,-1,741,442,0,0
-476,582,0,0,0,0,0,0,0,0,0,-1,748,442,0,0
-469,582,0,0,0,0,0,0,0,0,0,-1,755,442,0,0
-462,582,0,0,0,0,0,0,0,0,0,-1,762,442,0,0
-455,582,0,0,0,0,0,0,0,0,0,-1,769,442,0,0
-448,582,0,0,0,0,0,0,0,0,0,-1,776,442,0,0
-441,582,0,0,0,0,0,0,0,0,0,-1,783,442,0,0
-434,582,0,0,0,0,0,0,0,0,0,-1,790,442,0,0
-427,582,0,0,0,0,0,0,0,0,0,-1,797,442,0,0
-420,582,0,0,0,0,0,0,0,0,0,-1,804,442,0,0
-413,582,0,0,0,0,0,0,0,0,0,-1,811,442,0,0
-406,582,0,0,0,0,0,0,0,0,0,-1,818,442,0,0
-399,582,0,0,0,0,0,0,0,0,0,-1,825,442,0,0
-392,582,0,0,0,0,0,0,0,0,0,-1,832,442,0,0
-385,582,0,0,0,0,0,0,0,0,0,-1,839,442,0,0
-378,582,0,0,0,0,0,0,0,0,0,-1,846,442,0,0
-371,582,0,0,0,0,0,0,0,0,0,-1,853,442,0,0
-364,582,0,0,0,0,0,0,0,0,0,-1,860,442,0,0
-357,582,6.4043,-4.18127,0,0,0,0,0,0,0,-1,867,442,6.40427,4.18126
-350,582,-0.724792,-12.0279,0,0,0,0,0,0,0,-1,874,442,-0.724801,12.0279
-343,582,-0.227417,-10.4762,0,0,0,0,0,0,0,-1,881,442,-0.227397,10.4762
-336,582,2.5824,-5.26614,0,0,0,0,0,0,0,-1,888,442,2.58241,5.26615
-329,582,1.79297,-5.06113,-0.0281243,-0.0789818,0.0144239,-0.0243183,-0.0827878,0.257987,0.0491345,0.0486611,895,442,1.79299,5.06114
-322,582,1.17767,-4.96307,-0.0216062,-0.0622123,0.0113506,-0.0186488,-0.0651698,0.254886,0.0387559,0.0470094,902,442,1.17767,4.96307
-315,582,1.66302,-5.47217,0,0,0,0,0,0,0,-1,909,442,1.663,5.47218
-308,582,1.30188,-5.63055,-0.0109374,-0.0356077,0.00613002,-0.00949819,-0.0370469,0.230605,0.0222192,0.0464203,916,442,1.30188,5.63056
-301,582,1.35901,-5.69147,-0.00671531,-0.0255373,0.00406379,-0.00587539,-0.0263772,0.203814,0.0159903,0.042864,923,442,1.35902,5.69147
-294,582,1.25275,-5.82401,-0.00352703,-0.0176834,0.00233683,-0.00315125,-0.0180592,0.159439,0.0111386,0.0437546,930,442,1.25276,5.82399
-287,582,1.31702,-5.91516,-0.00121622,-0.0119418,0.00111185,-0.00110218,-0.0120558,0.102215,0.00769619,0.0323401,937,442,1.31702,5.91518
-280,582,1.41132,-6.01932,0.000512817,-0.008226,-5.39945e-05,0.00051315,-0.00822633,-0.00617838,0.00566303,0.0140818,944,442,1.41133,6.01933
-273,582,1.41168,-6.13199,0.00244607,-0.00393358,-0.00112558,0.00263883,-0.00412635,-0.169613,0.00393723,0.00982852,951,442,1.41167,6.13198
-266,582,1.39941,-6.2717,0.00357481,-0.0016939,-0.00186664,0.0041691,-0.0022882,-0.308229,0.00378047,0.00957278,958,442,1.39942,6.2717
-259,582,1.40039,-6.41541,0.00366039,-0.00152217,-0.00189996,0.0042823,-0.00214408,-0.316335,0.00377811,0.00833757,965,442,1.40037,6.41542
-252,582,1.40387,-6.53705,0.00350937,-0.00119568,-0.00180822,0.00412401,-0.00181032,-0.327658,0.00351191,0.00788264,972,442,1.40385,6.53705
-245,582,1.40271,-6.63004,0.00329126,-0.000865723,-0.00183846,0.00398767,-0.00156213,-0.362097,0.00330461,0.0112095,979,442,1.4027,6.63004
-238,582,1.38348,-6.71094,0.00313517,-0.000713455,-0.0018786,0.00390012,-0.0014784,-0.38669,0.0032085,0.0159151,986,442,1.38348,6.71095
-231,582,1.38074,-6.84299,0.00292,-0.000336307,-0.00180565,0.00372315,-0.00113946,-0.418521,0.00293656,0.0127482,993,442,1.38073,6.84299
-224,582,1.39246,-6.96567,0.0026312,-0.000181196,-0.00170189,0.00343268,-0.000982675,-0.440125,0.00267682,0.0100351,1000,442,1.39248,6.96568
-217,582,1.3949,-7.07001,0.0023332,5.97039e-06,-0.00161586,0.00316082,-0.000821649,-0.473347,0.00242789,0.0119919,1007,442,1.39488,7.07
-210,582,1.40387,-7.17715,0.00199097,0.000139539,-0.00152247,0.00284707,-0.000716561,-0.512245,0.00217658,0.0124345,1014,442,1.40389,7.17714
-203,582,1.4079,-7.28448,0.00155235,0.000248461,-0.00147164,0.00250999,-0.000709182,-0.576888,0.00195312,0.00984436,1021,442,1.40792,7.28447
-196,582,1.39612,-7.37213,0.00117054,0.000425681,-0.00147547,0.00231985,-0.000723636,-0.661774,0.00183595,0.0152309,1028,442,1.3961,7.37212
-189,582,1.36548,-7.48627,0.000930397,0.000580669,-0.00142558,0.0021918,-0.000680731,-0.724372,0.00173325,0.0222993,1035,442,1.36544,7.48625
-182,582,1.38037,-7.58856,0.000813987,0.000941773,-0.00138027,0.00225963,-0.00050387,-0.808527,0.00169946,0.0155292,1042,442,1.38039,7.58856
-175,582,1.41089,-7.62643,0.000686309,0.00111452,-0.00131368,0.00223143,-0.000430601,-0.866179,0.00164999,0.013499,1049,442,1.41084,7.62642
-168,582,1.41785,-7.71854,0.000568417,0.00126579,-0.00133406,0.00229598,-0.000461775,-0.913224,0.00170554,0.0107627,1056,442,1.41787,7.71852
-161,582,1.41321,-7.82669,0.000328344,0.00164866,-0.00133741,0.00247996,-0.000502962,-1.01466,0.00184397,0.012219,1063,442,1.41319,7.8267
-154,582,1.40222,-7.9072,-0.000101726,0.00202063,-0.00121508,0.00257269,-0.000653784,-1.14434,0.00196956,0.0123114,1070,442,1.40228,7.90719
-147,582,1.41833,-7.9917,0.000170317,0.00237186,-0.000681336,0.00256566,-2.34836e-05,-1.29367,0.00171832,0.0114711,1077,442,1.41833,7.99171
-140,582,1.44543,-8.06802,0.00153995,0.00255571,-0.000314903,0.00264542,0.00145025,-1.29329,0.0015297,0.0115801,1084,442,1.44541,8.06804
-133,582,1.46387,-8.13535,0.00270795,0.00207413,-0.000213715,0.00277328,0.0020088,-0.29666,0.001654,0.0146261,1091,442,1.46388,8.13533
-126,582,1.47034,-8.17935,0.00383325,0.00158536,-5.641e-05,0.00383466,0.00158394,-0.0250736,0.00222507,0.0137276,1098,442,1.47038,8.17935
-119,582,1.46753,-8.23441,0.0053996,0.00112232,0.000144148,0.00540445,0.00111747,0.0336499,0.00329427,0.0176411,1105,442,1.46758,8.23441
-112,582,1.47253,-8.33374,0.00752212,5.04877e-05,0.000406542,0.00754417,2.84321e-05,0.0541982,0.00502,0.0247877,1112,442,1.47259,8.33375
-105,582,1.32593,-8.42953,0.00999737,-0.00112138,0.000554414,0.0100249,-0.00114896,0.0496986,0.00709735,0.0302467,1119,442,1.3259,8.42952
-98,582,1.22498,-8.49515,0.012812,-0.00223191,0.000632647,0.0128386,-0.00225847,0.0419546,0.00940271,0.0353012,1126,442,1.22496,8.49516
-91,582,1.72534,-8.46878,0.0158518,-0.00372227,0.000573211,0.0158686,-0.00373904,0.0292508,0.0120208,0.0393332,1133,442,1.72535,8.46877
-84,582,2.13245,-8.19171,0.0181046,-0.00451474,0.000294811,0.0181085,-0.00451858,0.0130306,0.0138268,0.04025,1140,442,2.13247,8.19172
-77,582,1.71387,-8.76779,0,0,0,0,0,0,0,-1,1147,442,1.71387,8.76781
-70,582,1.49255,-6.36548,0,0,0,0,0,0,0,-1,1154,442,1.49251,6.36549
-63,582,-4.62915,-4.0347,0,0,0,0,0,0,0,-1,1161,442,-4.6292,4.03471
-56,582,-5.81714,-5.24149,0,0,0,0,0,0,0,-1,1168,442,-5.81718,5.24149
-49,582,-3.88672,-10.1064,0,0,0,0,0,0,0,-1,1175,442,-3.88678,10.1064
-42,582,-0.948975,1.13968,0,0,0,0,0,0,0,-1,1182,442,-0.949003,-1.13969
-35,582,-2.58435,-3.86911,0,0,0,0,0,0,0,-1,1189,442,-2.58437,3.86912
-28,582,-0.825317,-3.45941,0,0,0,0,0,0,0,-1,1196,442,-0.825377,3.45942
-21,582,-0.766602,-8.05249,0,0,0,0,0,0,0,-1,1203,442,-0.766548,8.05249
-14,582,1.53174,-8.97272,0,0,0,0,0,0,0,-1,1210,442,1.53179,8.97271
-7,582,1.36414,-9.81152,0,0,0,0,0,0,0,-1,1217,442,1.36409,9.81152
0,582,1.40186,-10.1167,0,0,0,0,0,0,0,-1,1224,442,1.40186,10.1167
7,582,1.83899,-9.66714,0.0225368,0.0540486,0.0178841,0.0621273,0.0144581,1.14651,0.0375387,0.0455577,1231,442,1.83897,9.66715
14,582,2.40479,-9.30634,0.0277504,0.0521747,0.0157164,0.0598658,0.0200592,1.11569,0.0351848,0.046386,1238,442,2.40479,9.30634
21,582,3.03979,-8.84808,0,0,0,0,0,0,0,-1,1245,442,3.03978,8.84808
28,582,3.36047,-8.55283,0,0,0,0,0,0,0,-1,1252,442,3.36053,8.55283
35,582,2.93591,-8.45963,0,0,0,0,0,0,0,-1,1259,442,2.93592,8.45963
42,582,2.44873,-8.83215,0.031194,0.0206378,0.00613173,0.0340064,0.0178254,0.430036,0.0196413,0.0436557,1266,442,2.44877,8.83214
49,582,2.89429,-9.34396,0,0,0,0,0,0,0,-1,1273,442,2.8943,9.34396
56,582,3.41064,-9.72156,0.031049,0.00573093,0.00341881,0.0315026,0.0052774,0.131888,0.0194823,0.0436134,1280,442,3.41066,9.72157
63,582,3.94324,-10.1754,0.0268027,-0.000935267,0.00200835,0.0269473,-0.00107993,0.0719046,0.0183355,0.0450484,1287,442,3.94328,10.1753
70,582,4.45337,-10.587,0,0,0,0,0,0,0,-1,1294,442,4.45335,10.587
77,582,0.580811,-8.30588,0.0136559,-0.00852435,0.00378024,0.0142825,-0.00915093,0.164257,0.013637,0.0444575,1301,442,0.58084,8.30588
84,582,0.585083,-8.34305,0.00574083,-0.00947069,0.00556971,0.00756212,-0.011292,0.316039,0.0109562,0.0450292,1308,442,0.585136,8.34306
91,582,1.25818,-8.2905,-0.00254523,-0.00996171,0.0078449,0.00242371,-0.0149306,0.564616,0.0108523,0.0468668,1315,442,1.25821,8.2905
98,582,3.67334,-9.08984,-0.00846561,-0.0106915,0.0109941,0.00147176,-0.0206289,0.734954,0.0142685,0.0465008,1322,442,3.67337,9.08985
105,582,3.39917,-9.15842,-0.0142632,-0.0110643,0.0150322,0.00245328,-0.0277808,0.8384,0.0193901,0.0431038,1329,442,3.39922,9.1584
112,582,3.53674,-9.37158,-0.0208007,-0.012411,0.0182747,0.00214414,-0.0353558,0.898216,0.0243167,0.042606,1336,442,3.53669,9.37157
119,582,2.55908,-9.0256,-0.0233205,-0.0120106,0.0213019,0.00437415,-0.0397052,0.915139,0.0280422,0.045175,1343,442,2.55903,9.02562
126,582,2.01318,-8.96939,-0.0231112,-0.0113646,0.0251601,0.0085986,-0.0430745,0.900064,0.0319703,0.0469075,1350,442,2.01321,8.9694
133,582,1.49536,-8.99051,0,0,0,0,0,0,0,-1,1357,442,1.49535,8.99051
140,582,0.919556,-8.95602,0,0,0,0,0,0,0,-1,1364,442,0.919519,8.95601
147,582,0.397217,-8.85751,-0.0156025,-0.0146407,0.0351865,0.0200682,-0.0503114,0.792231,0.0418655,0.0456309,1371,442,0.397187,8.8575
154,582,2.3429,-8.58847,-0.0117588,-0.0155802,0.0370822,0.0234619,-0.0508008,0.759658,0.0438334,0.0475917,1378,442,2.34287,8.58848
161,582,2.50391,-8.5889,0,0,0,0,0,0,0,-1,1385,442,2.50394,8.58888
168,582,4.51733,-5.80917,0,0,0,0,0,0,0,-1,1392,442,4.51737,5.80918
175,582,6.50549,-2.00424,0,0,0,0,0,0,0,-1,1399,442,6.50546,2.00425
182,582,5.18958,-2.18652,0,0,0,0,0,0,0,-1,1406,442,5.1896,2.18652
189,582,6.19751,-0.880951,0,0,0,0,0,0,0,-1,1413,442,6.19754,0.88096
196,582,4.87354,-2.22327,0,0,0,0,0,0,0,-1,1420,442,4.87348,2.22325
203,582,3.11401,-4.48257,0,0,0,0,0,0,0,-1,1427,442,3.11404,4.48259
210,582,2.34229,-7.92526,0,0,0,0,0,0,0,-1,1434,442,2.34232,7.92525
217,582,2.46838,-8.03845,0.000321377,-0.00145163,-0.00457709,0.00409703,-0.00522728,-0.689741,0.00539656,0.0404491,1441,442,2.46842,8.03845
224,582,2.56543,-8.07767,0.000227856,-0.00152853,-0.00438836,0.00382503,-0.00512571,-0.686643,0.00518587,0.0457923,1448,442,2.56538,8.07767
231,582,2.56055,-8.03189,0.000147474,-0.0019056,-0.00433281,0.00357369,-0.00533182,-0.669082,0.00517489,0.0417857,1455,442,2.56055,8.0319
238,582,2.35059,-7.85223,-2.45205e-05,-0.00240112,-0.00445154,0.0033946,-0.00582024,-0.654969,0.00538128,0.037733,1462,442,2.35059,7.85223
245,582,2.46594,-7.87769,-0.00018434,-0.00335236,-0.00462769,0.00312292,-0.00665963,-0.620503,0.00576968,0.0351778,1469,442,2.46599,7.87768
252,582,2.58337,-7.71866,-0.000290862,-0.00381904,-0.0046713,0.00293835,-0.00704825,-0.604855,0.00592629,0.0214725,1476,442,2.58336,7.71867
259,582,2.56702,-7.65237,-0.000300889,-0.00424643,-0.00450603,0.00264529,-0.00719261,-0.579064,0.00587869,0.016158,1483,442,2.567,7.65238
266,582,2.54993,-7.55215,-0.000567971,-0.00453128,-0.00455537,0.00241811,-0.00751736,-0.580237,0.00598278,0.0117948,1490,442,2.54993,7.55216
273,582,2.57141,-7.43246,-0.000894582,-0.00448243,-0.00433996,0.0020076,-0.00738461,-0.589417,0.00571113,0.0109754,1497,442,2.57141,7.43247
280,582,2.57629,-7.33368,-0.00100384,-0.0044409,-0.00392654,0.00156378,-0.00700852,-0.579121,0.0052715,0.0114055,1504,442,2.57626,7.33369
287,582,2.60059,-7.22513,-0.000846349,-0.00413925,-0.00350275,0.00137761,-0.00636321,-0.565699,0.00476815,0.0108093,1511,442,2.60064,7.22512
294,582,2.59058,-7.11374,-0.000770317,-0.00342931,-0.00306295,0.00123924,-0.00543886,-0.58064,0.00410187,0.00874044,1518,442,2.59052,7.11375
301,582,2.58923,-6.98242,-0.000827485,-0.0032057,-0.00268456,0.000919537,-0.00495273,-0.576913,0.00364718,0.0100183,1525,442,2.5892,6.98242
308,582,2.61804,-6.87277,-0.000826283,-0.00300162,-0.00233672,0.000663501,-0.00449141,-0.567576,0.00323818,0.0133406,1532,442,2.61805,6.87278
315,582,2.6283,-6.76819,-0.00069047,-0.00267302,-0.00192721,0.00048546,-0.00384895,-0.547865,0.00274215,0.0135306,1539,442,2.62834,6.76819
322,582,2.62976,-6.65176,-0.00061829,-0.00258727,-0.00161301,0.000286935,-0.00349249,-0.511404,0.00242963,0.0105431,1546,442,2.6297,6.65176
329,582,2.63855,-6.54437,-0.000693783,-0.00284228,-0.00146645,4.97926e-05,-0.00358586,-0.469278,0.00240734,0.0105161,1553,442,2.63859,6.54437
336,582,2.62695,-6.41739,-0.000865292,-0.00294302,-0.00133117,-0.000215593,-0.00359272,-0.454056,0.00232661,0.0113914,1560,442,2.62696,6.41738
343,582,2.62683,-6.29013,-0.00103169,-0.0030496,-0.001165,-0.000499476,-0.00358182,-0.428528,0.00224003,0.013064,1567,442,2.62686,6.29014
350,582,2.62048,-6.19791,-0.00122166,-0.003007,-0.000975838,-0.000791786,-0.00343688,-0.414938,0.00207822,0.0157646,1574,442,2.62043,6.1979
357,582,2.61414,-6.04822,-0.00147642,-0.002921,-0.000780168,-0.00113552,-0.0032619,-0.411951,0.001912,0.0136271,1581,442,2.6142,6.04822
364,582,2.62061,-5.90027,-0.00175167,-0.00270505,-0.000546503,-0.00150317,-0.00295355,-0.42676,0.00170532,0.0107893,1588,442,2.62056,5.90026
371,582,2.62024,-5.76813,-0.00200674,-0.00240908,-0.000251209,-0.00188608,-0.00252974,-0.447781,0.00151813,0.0143346,1595,442,2.62026,5.76812
378,582,2.61365,-5.64249,-0.00230546,-0.0018967,5.51655e-05,-0.00188938,-0.00231278,1.43898,0.00142189,0.0154854,1602,442,2.61369,5.64249
385,582,2.59827,-5.51297,-0.00252087,-0.00150594,0.000230245,-0.00145615,-0.00257066,1.35783,0.00148854,0.0113505,1609,442,2.59831,5.51297
392,582,2.59998,-5.37561,-0.00230863,-0.00107281,0.000471906,-0.00091322,-0.00246822,1.24469,0.00144099,0.00952139,1616,442,2.60001,5.37561
399,582,2.59558,-5.23203,-0.00173221,0.000204691,0.00134382,0.000892663,-0.00242019,1.09763,0.00197929,0.0109405,1623,442,2.59553,5.23204
406,582,2.58459,-5.07678,-0.00119953,0.000460396,0.0018435,0.00165215,-0.00239128,0.996912,0.00234744,0.0163763,1630,442,2.58462,5.07677
413,582,2.63696,-4.92703,-0.00166787,0.000197929,0.00251961,0.0019518,-0.00342173,0.9627,0.00314086,0.0360896,1637,442,2.63691,4.92703
420,582,2.67004,-4.81131,-0.00252116,0.000256467,0.0025948,0.00181074,-0.00407544,1.03111,0.00348122,0.0469607,1644,442,2.67007,4.81131
427,582,2.63123,-4.5596,-0.00309943,0.000918472,0.00229766,0.00196159,-0.00414255,1.14463,0.00359843,0.045646,1651,442,2.63127,4.55959
434,582,2.31482,-4.52124,0,0,0,0,0,0,0,-1,1658,442,2.31482,4.52126
441,582,2.44788,-4.45651,0,0,0,0,0,0,0,-1,1665,442,2.44782,4.45653
448,582,1.52722,-2.85928,0,0,0,0,0,0,0,-1,1672,442,1.52724,2.85927
455,582,2.38989,-4.78043,0,0,0,0,0,0,0,-1,1679,442,2.38986,4.78043
462,582,2.10693,-3.91922,0,0,0,0,0,0,0,-1,1686,442,2.10692,3.91921
469,582,2.04663,-3.60779,-0.0159984,0.00273032,-0.00169346,0.00288221,-0.0161503,-1.48134,0.0118451,0.0468924,1693,442,2.04661,3.60779
476,582,1.90906,-3.29541,-0.020985,0.0048022,-0.00519604,0.00580982,-0.0219926,-1.37925,0.0169339,0.0457264,1700,442,1.90906,3.29541
483,582,0,0,0,0,0,0,0,0,0,-1,1707,442,0,0
490,582,0,0,0,0,0,0,0,0,0,-1,1714,442,0,0
497,582,0,0,0,0,0,0,0,0,0,-1,1721,442,0,0
504,582,0,0,0,0,0,0,0,0,0,-1,1728,442,0,0
511,582,0,0,0,0,0,0,0,0,0,-1,1735,442,0,0
518,582,0,0,0,0,0,0,0,0,0,-1,1742,442,0,0
525,582,0,0,0,0,0,0,0,0,0,-1,1749,442,0,0
532,582,0,0,0,0,0,0,0,0,0,-1,1756,442,0,0
539,582,0,0,0,0,0,0,0,0,0,-1,1763,442,0,0
546,582,0,0,0,0,0,0,0,0,0,-1,1770,442,0,0
553,582,0,0,0,0,0,0,0,0,0,-1,1777,442,0,0
560,582,0,0,0,0,0,0,0,0,0,-1,1784,442,0,0
567,582,0,0,0,0,0,0,0,0,0,-1,1791,442,0,0
574,582,0,0,0,0,0,0,0,0,0,-1,1798,442,0,0
581,582,0,0,0,0,0,0,0,0,0,-1,1805,442,0,0
588,582,0,0,0,0,0,0,0,0,0,-1,1812,442,0,0
595,582,0,0,0,0,0,0,0,0,0,-1,1819,442,0,0
602,582,0,0,0,0,0,0,0,0,0,-1,1826,442,0,0
609,582,0,0,0,0,0,0,0,0,0,-1,1833,442,0,0
616,582,0,0,0,0,0,0,0,0,0,-1,1840,442,0,0
623,582,0,0,0,0,0,0,0,0,0,-1,1847,442,0,0
630,582,0,0,0,0,0,0,0,0,0,-1,1854,442,0,0
637,582,0,0,0,0,0,0,0,0,0,-1,1861,442,0,0
644,582,0,0,0,0,0,0,0,0,0,-1,1868,442,0,0
651,582,0,0,0,0,0,0,0,0,0,-1,1875,442,0,0
658,582,0,0,0,0,0,0,0,0,0,-1,1882,442,0,0
665,582,0,0,0,0,0,0,0,0,0,-1,1889,442,0,0
672,582,0,0,0,0,0,0,0,0,0,-1,1896,442,0,0
679,582,0,0,0,0,0,0,0,0,0,-1,1903,442,0,0
686,582,0,0,0,0,0,0,0,0,0,-1,1910,442,0,0
693,582,0,0,0,0,0,0,0,0,0,-1,1917,442,0,0
700,582,0,0,0,0,0,0,0,0,0,-1,1924,442,0,0
707,582,0,0,0,0,0,0,0,0,0,-1,1931,442,0,0
714,582,0,0,0,0,0,0,0,0,0,-1,1938,442,0,0
721,582,0,0,0,0,0,0,0,0,0,-1,1945,442,0,0
728,582,0,0,0,0,0,0,0,0,0,-1,1952,442,0,0
735,582,0,0,0,0,0,0,0,0,0,-1,1959,442,0,0
742,582,0,0,0,0,0,0,0,0,0,-1,1966,442,0,0
749,582,0,0,0,0,0,0,0,0,0,-1,1973,442,0,0
756,582,0,0,0,0,0,0,0,0,0,-1,1980,442,0,0
763,582,0,0,0,0,0,0,0,0,0,-1,1987,442,0,0
770,582,0,0,0,0,0,0,0,0,0,-1,1994,442,0,0
777,582,0,0,0,0,0,0,0,0,0,-1,2001,442,0,0
784,582,0,0,0,0,0,0,0,0,0,-1,2008,442,0,0
791,582,0,0,0,0,0,0,0,0,0,-1,2015,442,0,0
798,582,0,0,0,0,0,0,0,0,0,-1,2022,442,0,0
805,582,0,0,0,0,0,0,0,0,0,-1,2029,442,0,0
812,582,0,0,0,0,0,0,0,0,0,-1,2036,442,0,0
-700,575,0,0,0,0,0,0,0,0,0,-1,524,449,0,0
-693,575,0,0,0,0,0,0,0,0,0,-1,531,449,0,0
-686,575,0,0,0,0,0,0,0,0,0,-1,538,449,0,0
-679,575,0,0,0,0,0,0,0,0,0,-1,545,449,0,0
-672,575,0,0,0,0,0,0,0,0,0,-1,552,449,0,0
-665,575,0,0,0,0,0,0,0,0,0,-1,559,449,0,0
-658,575,0,0,0,0,0,0,0,0,0,-1,566,449,0,0
-651,575,0,0,0,0,0,0,0,0,0,-1,573,449,0,0
-644,575,0,0,0,0,0,0,0,0,0,-1,580,449,0,0
-637,575,0,0,0,0,0,0,0,0,0,-1,587,449,0,0
-630,575,0,0,0,0,0,0,0,0,0,-1,594,449,0,0
-623,575,0,0,0,0,0,0,0,0,0,-1,601,449,0,0
-616,575,0,0,0,0,0,0,0,0,0,-1,608,449,0,0
-609,575,0,0,0,0,0,0,0,0,0,-1,615,449,0,0
-602,575,0,0,0,0,0,0,0,0,0,-1,622,449,0,0
-595,575,0,0,0,0,0,0,0,0,0,-1,629,449,0,0
-588,575,0,0,0,0,0,0,0,0,0,-1,636,449,0,0
-581,575,0,0,0,0,0,0,0,0,0,-1,643,449,0,0
-574,575,0,0,0,0,0,0,0,0,0,-1,650,449,0,0
-567,575,0,0,0,0,0,0,0,0,0,-1,657,449,0,0
-560,575,0,0,0,0,0,0,0,0,0,-1,664,449,0,0
-553,575,0,0,0,0,0,0,0,0,0,-1,671,449,0,0
-546,575,0,0,0,0,0,0,0,0,0,-1,678,449,0,0
-539,575,0,0,0,0,0,0,0,0,0,-1,685,449,0,0
-532,575,0,0,0,0,0,0,0,0,0,-1,692,449,0,0
-525,575,0,0,0,0,0,0,0,0,0,-1,699,449,0,0
-518,575,0,0,0,0,0,0,0,0,0,-1,706,449,0,0
-511,575,0,0,0,0,0,0,0,0,0,-1,713,449,0,0
-504,575,0,0,0,0,0,0,0,0,0,-1,720,449,0,0
-497,575,0,0,0,0,0,0,0,0,0,-1,727,449,0,0
-490,575,0,0,0,0,0,0,0,0,0,-1,734,449,0,0
-483,575,0,0,0,0,0,0,0,0,0,-1,741,449,0,0
-476,575,0,0,0,0,0,0,0,0,0,-1,748,449,0,0
-469,575,0,0,0,0,0,0,0,0,0,-1,755,449,0,0
-462,575,0,0,0,0,0,0,0,0,0,-1,762,449,0,0
-455,575,0,0,0,0,0,0,0,0,0,-1,769,449,0,0
-448,575,0,0,0,0,0,0,0,0,0,-1,776,449,0,0
-441,575,0,0,0,0,0,0,0,0,0,-1,783,449,0,0
-434,575,0,0,0,0,0,0,0,0,0,-1,790,449,0,0
-427,575,0,0,0,0,0,0,0,0,0,-1,797,449,0,0
-420,575,0,0,0,0,0,0,0,0,0,-1,804,449,0,0
-413,575,0,0,0,0,0,0,0,0,0,-1,811,449,0,0
-406,575,0,0,0,0,0,0,0,0,0,-1,818,449,0,0
-399,575,0,0,0,0,0,0,0,0,0,-1,825,449,0,0
-392,575,0,0,0,0,0,0,0,0,0,-1,832,449,0,0
-385,575,0,0,0,0,0,0,0,0,0,-1,839,449,0,0
-378,575,0,0,0,0,0,0,0,0,0,-1,846,449,0,0
-371,575,-2.6095,-2.77533,0,0,0,0,0,0,0,-1,853,449,-2.6095,2.77532
-364,575,-1.88873,-3.23779,0,0,0,0,0,0,0,-1,860,449,-1.88874,3.23779
-357,575,7.00562,-3.99518,0,0,0,0,0,0,0,-1,867,449,7.0056,3.99517
-350,575,1.65332,-5.40192,0,0,0,0,0,0,0,-1,874,449,1.6533,5.40192
-343,575,2.07684,-4.42902,0,0,0,0,0,0,0,-1,881,449,2.07682,4.42901
-336,575,1.94952,-4.60794,0,0,0,0,0,0,0,-1,888,449,1.94954,4.60795
-329,575,1.099,-5.45242,0,0,0,0,0,0,0,-1,895,449,1.09899,5.45244
-322,575,1.2359,-5.48807,0,0,0,0,0,0,0,-1,902,449,1.2359,5.48805
-315,575,1.52441,-5.43378,-0.0118397,-0.0346866,0.00612755,-0.0103,-0.0362262,0.246171,0.0215541,0.0443636,909,449,1.5244,5.43377
-308,575,1.31598,-5.74927,-0.00818506,-0.0259522,0.00435343,-0.00717569,-0.0269615,0.22783,0.0161238,0.0433804,916,449,1.31598,5.74928
-301,575,1.29865,-5.70749,-0.00521581,-0.0187158,0.00289643,-0.00462062,-0.0193109,0.20267,0.0116435,0.0327327,923,449,1.29865,5.70748
-294,575,1.27679,-5.78796,-0.00296013,-0.0130187,0.00169151,-0.00268329,-0.0132956,0.162223,0.00811847,0.0245532,930,449,1.2768,5.78796
-287,575,1.28827,-5.91028,-0.00128899,-0.00881469,0.000806974,-0.00120344,-0.00890025,0.105629,0.00557581,0.0161097,937,449,1.2883,5.91026
-280,575,1.31274,-6.03333,-3.5636e-05,-0.00599708,4.07496e-05,-3.53577e-05,-0.00599736,0.0068351,0.00398651,0.0112647,944,449,1.31276,6.03332
-273,575,1.30017,-6.16019,0.00138336,-0.00274609,-0.000732345,0.00150939,-0.00287212,-0.170425,0.00257013,0.0107092,951,449,1.30018,6.16017
-266,575,1.27789,-6.30475,0.00228675,-0.000999296,-0.00131141,0.00274594,-0.00145849,-0.336811,0.00246507,0.0113907,958,449,1.27789,6.30475
-259,575,1.28296,-6.42191,0.0024762,-0.000837812,-0.00139369,0.00298438,-0.00134599,-0.349648,0.0025591,0.0115004,965,449,1.28296,6.4219
-252,575,1.25507,-6.51715,0.00244827,-0.000572644,-0.00140025,0.00299746,-0.00112184,-0.373777,0.00245909,0.0110791,972,449,1.25508,6.51715
-245,575,1.26215,-6.62732,0.00233327,-0.000342509,-0.00152399,0.00302331,-0.00103255,-0.425167,0.00243386,0.0135293,979,449,1.26213,6.6273
-238,575,1.29443,-6.73032,0.00223104,-0.000199394,-0.00164693,0.00306256,-0.00103092,-0.467553,0.00245848,0.0138028,986,449,1.29443,6.73032
-231,575,1.26263,-6.83929,0.00209406,0.000103734,-0.00168718,0.0030577,-0.000859907,-0.51894,0.00237752,0.0122586,993,449,1.26265,6.83929
-224,575,1.25934,-6.9436,0.00191169,0.000134733,-0.00170152,0.00294273,-0.000896311,-0.544787,0.00231907,0.0111219,1000,449,1.25933,6.9436
-217,575,1.28198,-7.05966,0.0017041,0.000210692,-0.00173272,0.00284417,-0.000929371,-0.581951,0.00227022,0.00979215,1007,449,1.282,7.05968
-210,575,1.30042,-7.18506,0.00145443,0.000227897,-0.00174332,0.0026892,-0.00100688,-0.616268,0.00220639,0.00896976,1014,449,1.3004,7.18507
-203,575,1.29834,-7.29288,0.00115124,0.000181647,-0.00179382,0.00252462,-0.00119173,-0.653421,0.00219115,0.011188,1021,449,1.29834,7.29288
-196,575,1.29626,-7.38284,0.000854867,0.000339284,-0.00188927,0.00250386,-0.0013097,-0.717592,0.00223745,0.0139658,1028,449,1.29627,7.38286
-189,575,1.2959,-7.47638,0.000679662,0.000461441,-0.0018952,0.00246889,-0.00132779,-0.756644,0.00222477,0.0152544,1035,449,1.29588,7.47638
-182,575,1.29358,-7.57025,0.000637742,0.000839958,-0.0018546,0.00259621,-0.00111851,-0.81263,0.00220053,0.0140505,1042,449,1.29355,7.57026
-175,575,1.30396,-7.64841,0.000620742,0.000999767,-0.00183944,0.00265943,-0.00103892,-0.836731,0.00220251,0.011498,1049,449,1.304,7.64839
-168,575,1.31543,-7.72687,0.000622851,0.00119124,-0.00189298,0.00282124,-0.00100715,-0.859907,0.00229155,0.00938928,1056,449,1.31539,7.72686
-161,575,1.32361,-7.82965,0.000343642,0.00176566,-0.00190556,0.00308854,-0.000979238,-0.96396,0.00245152,0.0133064,1063,449,1.32363,7.82964
-154,575,1.3335,-7.90793,-0.000243737,0.00240851,-0.00176715,0.00329178,-0.00112701,-1.10729,0.00265127,0.0153717,1070,449,1.33345,7.90792
-147,575,1.34436,-7.95615,7.75926e-05,0.00307691,-0.0010777,0.00342398,-0.000269478,-1.25924,0.00237757,0.0145972,1077,449,1.34435,7.95614
-140,575,1.32532,-7.97815,0.00186027,0.0035856,-0.000585413,0.00376548,0.00168039,-1.27268,0.00217818,0.0231682,1084,449,1.32531,7.97814
-133,575,1.46619,-8.04364,0.00333066,0.00328416,-0.000433989,0.00374202,0.0028728,-0.758639,0.00226133,0.0331495,1091,449,1.46613,8.04363
-126,575,1.48267,-7.98502,0.0048053,0.00278537,-0.000150721,0.00481649,0.00277419,-0.0740701,0.00279148,0.0407343,1098,449,1.48269,7.98502
-119,575,1.43176,-8.07327,0.00693724,0.00225076,0.000196341,0.00694545,0.00224255,0.0417977,0.00409296,0.0424226,1105,449,1.43177,8.07326
-112,575,1.34973,-8.43835,0.00990988,0.000658396,0.000677473,0.00995923,0.000609049,0.0727116,0.00644607,0.0448574,1112,449,1.34969,8.43835
-105,575,1.08142,-8.4483,0.0134796,-0.0011816,0.00100112,0.0135477,-0.00124965,0.0678634,0.00947584,0.0427703,1119,449,1.08146,8.44831
-98,575,0.866089,-8.42764,0.0176494,-0.00298403,0.00129768,0.0177307,-0.00306532,0.0625637,0.0129636,0.0435015,1126,449,0.866051,8.42764
-91,575,1.69714,-8.39841,0.0223458,-0.00555759,0.00143534,0.0224195,-0.00563123,0.0512594,0.0171347,0.0454183,1133,449,1.6972,8.39839
-84,575,2.05103,-8.26758,0,0,0,0,0,0,0,-1,1140,449,2.05101,8.26757
-77,575,2.28345,-6.12747,0,0,0,0,0,0,0,-1,1147,449,2.28347,6.12746
-70,575,-4.2467,-1.78738,0,0,0,0,0,0,0,-1,1154,449,-4.24674,1.78739
-63,575,-4.52209,-3.48798,0,0,0,0,0,0,0,-1,1161,449,-4.5221,3.48796
-56,575,-5.5968,-5.4928,0,0,0,0,0,0,0,-1,1168,449,-5.59683,5.49281
-49,575,-5.96863,-7.17612,0,0,0,0,0,0,0,-1,1175,449,-5.96868,7.1761
-42,575,-0.830322,0.773499,0,0,0,0,0,0,0,-1,1182,449,-0.83038,-0.77351
-35,575,-0.62085,0.205139,0,0,0,0,0,0,0,-1,1189,449,-0.620855,-0.205126
-28,575,0.49292,-3.87988,0,0,0,0,0,0,0,-1,1196,449,0.492941,3.87989
-21,575,6.93689,-6.14404,0,0,0,0,0,0,0,-1,1203,449,6.93683,6.14403
-14,575,1.27734,-10.2447,0,0,0,0,0,0,0,-1,1210,449,1.27737,10.2447
-7,575,1.11536,-10.3215,0.0138039,0.0710182,0.027783,0.0822892,0.00253296,1.1854,0.0540349,0.048538,1217,449,1.11531,10.3215
0,575,0.960815,-10.4425,0.0192165,0.0701534,0.0261902,0.0812166,0.00815324,1.17111,0.0516417,0.0457903,1224,449,0.960789,10.4425
7,575,1.09863,-10.3593,0.026871,0.0689366,0.0232086,0.079225,0.0165826,1.15353,0.0482486,0.0468198,1231,449,1.09862,10.3593
14,575,1.41663,-10.2079,0.0340707,0.0668228,0.0204015,0.0766078,0.0242857,1.12359,0.0452061,0.0477585,1238,449,1.41666,10.2079
21,575,2.73645,-9.04004,0,0,0,0,0,0,0,-1,1245,449,2.7364,9.04003
28,575,2.61646,-8.55649,0,0,0,0,0,0,0,-1,1252,449,2.6164,8.5565
35,575,1.47717,-8.90353,0,0,0,0,0,0,0,-1,1259,449,1.47721,8.90353
42,575,2.13916,-9.27304,0,0,0,0,0,0,0,-1,1266,449,2.13922,9.27303
49,575,2.80127,-9.64252,0,0,0,0,0,0,0,-1,1273,449,2.80123,9.64253
56,575,2.74487,-10.5079,0,0,0,0,0,0,0,-1,1280,449,2.74488,10.5079
63,575,3.40344,-10.5524,0,0,0,0,0,0,0,-1,1287,449,3.40339,10.5524
70,575,0.574951,-7.58331,0.0219073,-0.0070673,0.000900515,0.0219353,-0.00709527,0.0310395,0.0174755,0.042773,1294,449,0.57496,7.5833
77,575,0.299316,-7.7178,0.0124899,-0.00975418,0.00324001,0.0129523,-0.0102165,0.141734,0.0134075,0.0455811,1301,449,0.299365,7.71779
84,575,0.235718,-8.0145,0.00185236,-0.0115577,0.00559524,0.00388026,-0.0135856,0.347708,0.0105902,0.0494164,1308,449,0.235699,8.0145
91,575,3.89209,-9.0213,0,0,0,0,0,0,0,-1,1315,449,3.89208,9.0213
98,575,3.68225,-9.36011,-0.0153217,-0.0136901,0.013098,-0.00138249,-0.0276293,0.8165,0.0179764,0.0448042,1322,449,3.68229,9.3601
105,575,3.34729,-9.45233,-0.0223803,-0.0144278,0.0185244,0.000542279,-0.0373504,0.891118,0.025083,0.0409031,1329,449,3.34724,9.45234
112,575,3.91748,-9.81097,-0.0303438,-0.0163037,0.0229192,0.000646427,-0.047294,0.934009,0.031747,0.041007,1336,449,3.91751,9.81097
119,575,2.38892,-9.01151,-0.0327534,-0.0154907,0.0268781,0.0041079,-0.0523521,0.940762,0.0363481,0.045741,1343,449,2.38897,9.01152
126,575,2.03442,-8.73062,-0.0322339,-0.0142811,0.0317569,0.00974363,-0.0562587,0.923135,0.0411401,0.0469938,1350,449,2.03448,8.73063
133,575,1.56433,-8.9917,0,0,0,0,0,0,0,-1,1357,449,1.5643,8.9917
140,575,0.592041,-8.33133,-0.0271384,-0.0154719,0.0405307,0.0196432,-0.0622534,0.856868,0.0493702,0.0449873,1364,449,0.592024,8.33132
147,575,0.0706787,-8.00708,-0.0215648,-0.0176405,0.0445169,0.0249575,-0.0641628,0.807423,0.0530872,0.0465239,1371,449,0.0706476,8.00708
154,575,-0.452637,-7.65936,-0.0163416,-0.0184743,0.0469509,0.0295551,-0.064371,0.774044,0.0554561,0.048203,1378,449,-0.452651,7.65935
161,575,-0.991455,-7.30646,0,0,0,0,0,0,0,-1,1385,449,-0.991489,7.30647
168,575,9.2522,-0.307129,0,0,0,0,0,0,0,-1,1392,449,9.25225,0.307127
175,575,4.32617,1.93634,0,0,0,0,0,0,0,-1,1399,449,4.32612,-1.93634
182,575,6.3147,-2.88345,0,0,0,0,0,0,0,-1,1406,449,6.31466,2.88346
189,575,6.10449,-1.30817,0,0,0,0,0,0,0,-1,1413,449,6.10455,1.30817
196,575,5.79895,0.818359,0,0,0,0,0,0,0,-1,1420,449,5.79895,-0.81837
203,575,3.29724,-1.46378,0,0,0,0,0,0,0,-1,1427,449,3.29722,1.46377
210,575,2.32739,-7.74503,0,0,0,0,0,0,0,-1,1434,449,2.32741,7.74502
217,575,2.57397,-7.90015,0,0,0,0,0,0,0,-1,1441,449,2.57403,7.90016
224,575,2.82068,-8.0553,0,0,0,0,0,0,0,-1,1448,449,2.82066,8.05529
231,575,2.7666,-8.22302,0,0,0,0,0,0,0,-1,1455,449,2.76663,8.22302
238,575,2.1792,-8.13705,0,0,0,0,0,0,0,-1,1462,449,2.17921,8.13706
245,575,2.6062,-7.97525,0,0,0,0,0,0,0,-1,1469,449,2.60616,7.97524
252,575,3.03308,-7.81342,0,0,0,0,0,0,0,-1,1476,449,3.0331,7.81343
259,575,2.88843,-7.36023,-0.000786107,-0.00641553,-0.00640563,0.00339594,-0.0105976,-0.578391,0.00842826,0.0449538,1483,449,2.8884,7.36022
266,575,2.73157,-7.53027,-0.00120315,-0.00669552,-0.00646819,0.00307768,-0.0109763,-0.584646,0.00853057,0.0390144,1490,449,2.73159,7.53028
273,575,2.71802,-7.48026,-0.00165891,-0.00658981,-0.00614932,0.00250078,-0.0107495,-0.594744,0.00812918,0.0252762,1497,449,2.71802,7.48027
280,575,2.73328,-7.29642,-0.00177392,-0.00649457,-0.00558837,0.00193213,-0.0102006,-0.58558,0.00752758,0.0172671,1504,449,2.73325,7.29641
287,575,2.69202,-7.22366,-0.00151965,-0.00602084,-0.00503492,0.00174479,-0.00928527,-0.575221,0.0068463,0.0130207,1511,449,2.69203,7.22365
294,575,2.69543,-7.10547,-0.00125736,-0.00501032,-0.00443794,0.0016845,-0.00795219,-0.585384,0.00594308,0.0100741,1518,449,2.69539,7.10547
301,575,2.70874,-7.00464,-0.00130343,-0.00461056,-0.00394335,0.00131902,-0.00723301,-0.586869,0.00531651,0.00936782,1525,449,2.70873,7.00464
308,575,2.72888,-6.89728,-0.00131537,-0.00415551,-0.00350605,0.00104728,-0.00651816,-0.592979,0.00473331,0.0105365,1532,449,2.72888,6.89727
315,575,2.73328,-6.7926,-0.00117175,-0.00341057,-0.00295679,0.00087044,-0.00545276,-0.604441,0.00395736,0.0102405,1539,449,2.73325,6.7926
322,575,2.75049,-6.6488,-0.00108979,-0.00290482,-0.00252069,0.000681772,-0.00467638,-0.612608,0.00336792,0.00902093,1546,449,2.75054,6.64881
329,575,2.74158,-6.5408,-0.00109663,-0.0028212,-0.00224544,0.000446393,-0.00436423,-0.602072,0.00306913,0.0101444,1553,449,2.74159,6.54079
336,575,2.72571,-6.41302,-0.00117243,-0.00260428,-0.00196938,0.000207116,-0.00398383,-0.611061,0.00272755,0.012738,1560,449,2.72573,6.41303
343,575,2.75415,-6.28787,-0.00127029,-0.0024182,-0.0016785,-7.03249e-05,-0.00361817,-0.620656,0.00238901,0.0122004,1567,449,2.75413,6.28788
350,575,2.75037,-6.18582,-0.00137321,-0.00210593,-0.00137668,-0.000314977,-0.00316416,-0.655353,0.00201268,0.0111847,1574,449,2.7504,6.18582
357,575,2.73926,-6.0553,-0.00150555,-0.00188308,-0.00109003,-0.000588062,-0.00280057,-0.699662,0.00170517,0.01133,1581,449,2.7393,6.0553
364,575,2.73462,-5.91751,-0.00163301,-0.0015999,-0.000788442,-0.000827843,-0.00240507,-0.795895,0.00141086,0.011103,1588,449,2.73457,5.91753
371,575,2.72778,-5.80252,-0.00169756,-0.00128545,-0.000405952,-0.00103625,-0.00194676,-1.02025,0.00112474,0.0185171,1595,449,2.72783,5.80251
378,575,2.7417,-5.65265,-0.00181072,-0.000890978,-7.08553e-05,-0.000885552,-0.00181615,-1.49436,0.00104866,0.0171496,1602,449,2.74165,5.65266
385,575,2.72864,-5.50677,-0.00186194,-0.000634103,0.000142318,-0.000617823,-0.00187822,1.4569,0.00110534,0.0115052,1609,449,2.7286,5.50679
392,575,2.73071,-5.37039,-0.00158446,-0.000392543,0.000404817,-0.000268055,-0.00170894,1.27246,0.00106129,0.00980314,1616,449,2.73069,5.3704
399,575,2.73535,-5.24246,-0.000882849,0.000260591,0.00108904,0.000918859,-0.00154112,1.02711,0.00143533,0.0100211,1623,449,2.7354,5.24245
406,575,2.7229,-5.08963,-0.00039401,0.000509915,0.00161823,0.00173811,-0.00162221,0.921575,0.00194047,0.0101067,1630,449,2.72295,5.08962
413,575,2.70386,-4.95627,-0.000705099,0.000356353,0.00224591,0.00213339,-0.00248214,0.901424,0.00266731,0.0117109,1637,449,2.70387,4.95626
420,575,2.69775,-4.79651,-0.00126274,0.000488047,0.00240129,0.00216854,-0.00294322,0.960187,0.00296255,0.0136719,1644,449,2.69781,4.79652
427,575,2.66687,-4.67114,-0.00163166,0.00102171,0.00225699,0.00231306,-0.00292301,1.0511,0.00302987,0.0190953,1651,449,2.66686,4.67113
434,575,2.60669,-4.59064,-0.00182213,0.00124426,0.00263507,0.00275972,-0.00333759,1.04888,0.00352555,0.0263128,1658,449,2.60664,4.59063
441,575,2.69177,-4.44797,-0.00251139,0.00124148,0.00285971,0.00278542,-0.00405533,1.07575,0.00397213,0.0419858,1665,449,2.6918,4.44796
448,575,2.7677,-4.29117,0,0,0,0,0,0,0,-1,1672,449,2.76773,4.29118
455,575,3.63538,-4.50943,0,0,0,0,0,0,0,-1,1679,449,3.63537,4.50944
462,575,2.94031,-3.95557,-0.00958912,0.00317753,0.000588316,0.00320459,-0.00961618,1.52484,0.00770443,0.0456557,1686,449,2.94032,3.95557
469,575,2.52539,-3.52899,-0.0134584,0.00456061,-0.00174566,0.00472817,-0.0136259,-1.4751,0.011004,0.0432621,1693,449,2.52534,3.52899
476,575,2.45044,-3.27402,-0.018547,0.00706264,-0.00525387,0.00809858,-0.0195829,-1.37612,0.016434,0.0441211,1700,449,2.4504,3.27401
483,575,2.48938,-2.9173,0,0,0,0,0,0,0,-1,1707,449,2.48938,2.9173
490,575,2.63696,-2.58798,0,0,0,0,0,0,0,-1,1714,449,2.63692,2.58798
497,575,0,0,0,0,0,0,0,0,0,-1,1721,449,0,0
504,575,0,0,0,0,0,0,0,0,0,-1,1728,449,0,0
511,575,0,0,0,0,0,0,0,0,0,-1,1735,449,0,0
518,575,0,0,0,0,0,0,0,0,0,-1,1742,449,0,0
525,575,0,0,0,0,0,0,0,0,0,-1,1749,449,0,0
532,575,0,0,0,0,0,0,0,0,0,-1,1756,449,0,0
539,575,0,0,0,0,0,0,0,0,0,-1,1763,449,0,0
546,575,0,0,0,0,0,0,0,0,0,-1,1770,449,0,0
553,575,0,0,0,0,0,0,0,0,0,-1,1777,449,0,0
560,575,0,0,0,0,0,0,0,0,0,-1,1784,449,0,0
567,575,0,0,0,0,0,0,0,0,0,-1,1791,449,0,0
574,575,0,0,0,0,0,0,0,0,0,-1,1798,449,0,0
581,575,0,0,0,0,0,0,0,0,0,-1,1805,449,0,0
588,575,0,0,0,0,0,0,0,0,0,-1,1812,449,0,0
595,575,0,0,0,0,0,0,0,0,0,-1,1819,449,0,0
602,575,0,0,0,0,0,0,0,0,0,-1,1826,449,0,0
609,575,0,0,0,0,0,0,0,0,0,-1,1833,449,0,0
616,575,0,0,0,0,0,0,0,0,0,-1,1840,449,0,0
623,575,0,0,0,0,0,0,0,0,0,-1,1847,449,0,0
630,575,0,0,0,0,0,0,0,0,0,-1,1854,449,0,0
637,575,0,0,0,0,0,0,0,0,0,-1,1861,449,0,0
644,575,0,0,0,0,0,0,0,0,0,-1,1868,449,0,0
651,575,0,0,0,0,0,0,0,0,0,-1,1875,449,0,0
658,575,0,0,0,0,0,0,0,0,0,-1,1882,449,0,0
665,575,0,0,0,0,0,0,0,0,0,-1,1889,449,0,0
672,575,0,0,0,0,0,0,0,0,0,-1,1896,449,0,0
679,575,0,0,0,0,0,0,0,0,0,-1,1903,449,0,0
686,575,0,0,0,0,0,0,0,0,0,-1,1910,449,0,0
693,575,0,0,0,0,0,0,0,0,0,-1,1917,449,0,0
700,575,0,0,0,0,0,0,0,0,0,-1,1924,449,0,0
707,575,0,0,0,0,0,0,0,0,0,-1,1931,449,0,0
714,575,0,0,0,0,0,0,0,0,0,-1,1938,449,0,0
721,575,0,0,0,0,0,0,0,0,0,-1,1945,449,0,0
728,575,0,0,0,0,0,0,0,0,0,-1,1952,449,0,0
735,575,0,0,0,0,0,0,0,0,0,-1,1959,449,0,0
742,575,0,0,0,0,0,0,0,0,0,-1,1966,449,0,0
749,575,0,0,0,0,0,0,0,0,0,-1,1973,449,0,0
756,575,0,0,0,0,0,0,0,0,0,-1,1980,449,0,0
763,575,0,0,0,0,0,0,0,0,0,-1,1987,449,0,0
770,575,0,0,0,0,0,0,0,0,0,-1,1994,449,0,0
777,575,0,0,0,0,0,0,0,0,0,-1,2001,449,0,0
784,575,0,0,0,0,0,0,0,0,0,-1,2008,449,0,0
791,575,0,0,0,0,0,0,0,0,0,-1,2015,449,0,0
798,575,0,0,0,0,0,0,0,0,0,-1,2022,449,0,0
805,575,0,0,0,0,0,0,0,0,0,-1,2029,449,0,0
812,575,0,0,0,0,0,0,0,0,0,-1,2036,449,0,0
-700,568,0,0,0,0,0,0,0,0,0,-1,524,456,0,0
-693,568,0,0,0,0,0,0,0,0,0,-1,531,456,0,0
-686,568,0,0,0,0,0,0,0,0,0,-1,538,456,0,0
-679,568,0,0,0,0,0,0,0,0,0,-1,545,456,0,0
-672,568,0,0,0,0,0,0,0,0,0,-1,552,456,0,0
-665,568,0,0,0,0,0,0,0,0,0,-1,559,456,0,0
-658,568,0,0,0,0,0,0,0,0,0,-1,566,456,0,0
-651,568,0,0,0,0,0,0,0,0,0,-1,573,456,0,0
-644,568,0,0,0,0,0,0,0,0,0,-1,580,456,0,0
-637,568,0,0,0,0,0,0,0,0,0,-1,587,456,0,0
-630,568,0,0,0,0,0,0,0,0,0,-1,594,456,0,0
-623,568,0,0,0,0,0,0,0,0,0,-1,601,456,0,0
-616,568,0,0,0,0,0,0,0,0,0,-1,608,456,0,0
-609,568,0,0,0,0,0,0,0,0,0,-1,615,456,0,0
-602,568,0,0,0,0,0,0,0,0,0,-1,622,456,0,0
-595,568,0,0,0,0,0,0,0,0,0,-1,629,456,0,0
-588,568,0,0,0,0,0,0,0,0,0,-1,636,456,0,0
-581,568,0,0,0,0,0,0,0,0,0,-1,643,456,0,0
-574,568,0,0,0,0,0,0,0,0,0,-1,650,456,0,0
-567,568,0,0,0,0,0,0,0,0,0,-1,657,456,0,0
-560,568,0,0,0,0,0,0,0,0,0,-1,664,456,0,0
-553,568,0,0,0,0,0,0,0,0,0,-1,671,456,0,0
-546,568,0,0,0,0,0,0,0,0,0,-1,678,456,0,0
-539,568,0,0,0,0,0,0,0,0,0,-1,685,456,0,0
-532,568,0,0,0,0,0,0,0,0,0,-1,692,456,0,0
-525,568,0,0,0,0,0,0,0,0,0,-1,699,456,0,0
-518,568,0,0,0,0,0,0,0,0,0,-1,706,456,0,0
-511,568,0,0,0,0,0,0,0,0,0,-1,713,456,0,0
-504,568,0,0,0,0,0,0,0,0,0,-1,720,456,0,0
-497,568,0,0,0,0,0,0,0,0,0,-1,727,456,0,0
-490,568,0,0,0,0,0,0,0,0,0,-1,734,456,0,0
-483,568,0,0,0,0,0,0,0,0,0,-1,741,456,0,0
-476,568,0,0,0,0,0,0,0,0,0,-1,748,456,0,0
-469,568,0,0,0,0,0,0,0,0,0,-1,755,456,0,0
-462,568,0,0,0,0,0,0,0,0,0,-1,762,456,0,0
-455,568,0,0,0,0,0,0,0,0,0,-1,769,456,0,0
-448,568,0,0,0,0,0,0,0,0,0,-1,776,456,0,0
-441,568,0,0,0,0,0,0,0,0,0,-1,783,456,0,0
-434,568,0,0,0,0,0,0,0,0,0,-1,790,456,0,0
-427,568,0,0,0,0,0,0,0,0,0,-1,797,456,0,0
-420,568,0,0,0,0,0,0,0,0,0,-1,804,456,0,0
-413,568,0,0,0,0,0,0,0,0,0,-1,811,456,0,0
-406,568,0,0,0,0,0,0,0,0,0,-1,818,456,0,0
-399,568,0,0,0,0,0,0,0,0,0,-1,825,456,0,0
-392,568,0,0,0,0,0,0,0,0,0,-1,832,456,0,0
-385,568,0,0,0,0,0,0,0,0,0,-1,839,456,0,0
-378,568,2.06848,-5.34836,0,0,0,0,0,0,0,-1,846,456,2.06849,5.34836
-371,568,3.07336,-6.36526,0,0,0,0,0,0,0,-1,853,456,3.07334,6.36525
-364,568,-2.44507,-1.98196,0,0,0,0,0,0,0,-1,860,456,-2.4451,1.98195
-357,568,2.04034,-4.85086,0,0,0,0,0,0,0,-1,867,456,2.04033,4.85085
-350,568,1.39032,-5.34686,0,0,0,0,0,0,0,-1,874,456,1.39033,5.34687
-343,568,1.81354,-4.37628,0,0,0,0,0,0,0,-1,881,456,1.81352,4.37629
-336,568,1.1297,-5.12659,0,0,0,0,0,0,0,-1,888,456,1.12968,5.1266
-329,568,1.1424,-5.29456,-0.0142005,-0.0399429,0.00703723,-0.0124024,-0.0417411,0.25017,0.0247516,0.0464556,895,456,1.14241,5.29455
-322,568,1.26874,-5.36615,-0.0110752,-0.0318369,0.00559364,-0.00966407,-0.033248,0.247118,0.0197486,0.0424212,902,456,1.26875,5.36614
-315,568,1.30664,-5.3779,-0.00844743,-0.0246183,0.00427432,-0.00738715,-0.0256786,0.243149,0.0152646,0.0377086,909,456,1.30663,5.37791
-308,568,1.23059,-5.58566,-0.00596321,-0.0184945,0.0030401,-0.00526462,-0.0191931,0.225869,0.0114513,0.0281943,916,456,1.23058,5.58567
-301,568,1.22107,-5.68399,-0.00391525,-0.013463,0.00204637,-0.00349513,-0.0138831,0.202484,0.00833821,0.016027,923,456,1.22104,5.68398
-294,568,1.21893,-5.77701,-0.00232199,-0.00943454,0.00121971,-0.00211864,-0.00963789,0.165201,0.0058484,0.0115908,930,456,1.21895,5.77701
-287,568,1.21851,-5.89386,-0.00109086,-0.00640585,0.000568043,-0.00103083,-0.00646588,0.105291,0.00401137,0.00992038,937,456,1.21852,5.89387
-280,568,1.21484,-6.03708,-0.000243401,-0.00429949,2.85198e-05,-0.000243201,-0.00429969,0.00703089,0.00278893,0.0103472,944,456,1.21484,6.03707
-273,568,1.1958,-6.18234,0.000690821,-0.00184963,-0.000543011,0.00080202,-0.00196083,-0.20199,0.00164124,0.011451,951,456,1.19582,6.18233
-266,568,1.17267,-6.31088,0.00135836,-0.000489581,-0.00100146,0.00179698,-0.000928196,-0.412811,0.00159981,0.0107364,958,456,1.17267,6.3109
-259,568,1.17474,-6.42444,0.00157995,-0.000334884,-0.00114175,0.00211258,-0.000867517,-0.436494,0.00176991,0.0117196,965,456,1.17474,6.42445
-252,568,1.14294,-6.52084,0.00161247,-0.000134798,-0.00125941,0.0022716,-0.000793924,-0.482161,0.00183714,0.0117888,972,456,1.14296,6.52084
-245,568,1.15088,-6.62219,0.00155352,-1.25455e-05,-0.00147786,0.00244298,-0.000902,-0.54178,0.00199837,0.0124934,979,456,1.15089,6.62219
-238,568,1.18536,-6.73798,0.0015139,3.82365e-05,-0.00167385,0.00260532,-0.00105319,-0.57781,0.00217468,0.0112363,986,456,1.18533,6.73799
-231,568,1.1604,-6.84439,0.00147488,0.000200105,-0.00182536,0.00277093,-0.00109595,-0.617424,0.0023013,0.0103497,993,456,1.16039,6.84438
-224,568,1.14771,-6.94925,0.00141722,5.59099e-05,-0.00194561,0.00279779,-0.00132467,-0.617132,0.00243023,0.0115868,1000,456,1.14773,6.94926
-217,568,1.17816,-7.06516,0.00132834,-1.70361e-05,-0.00208789,0.00284924,-0.00153793,-0.629556,0.00257037,0.0103882,1007,456,1.17817,7.06517
-210,568,1.1972,-7.17432,0.0011979,-0.000131295,-0.00219681,0.00282844,-0.00176184,-0.638511,0.00267394,0.0108542,1014,456,1.19718,7.1743
-203,568,1.19739,-7.28079,0.00103469,-0.00032008,-0.00234589,0.00279904,-0.00208442,-0.644844,0.00282951,0.00961735,1021,456,1.19738,7.28079
-196,568,1.20923,-7.36298,0.000809785,-0.000127971,-0.00252401,0.0029081,-0.00222628,-0.693561,0.00297304,0.0119347,1028,456,1.20919,7.36297
-189,568,1.20703,-7.45279,0.000658781,6.66206e-05,-0.00258263,0.00296225,-0.00223684,-0.728326,0.00301142,0.0121115,1035,456,1.20702,7.45279
-182,568,1.20483,-7.55475,0.000615274,0.000617963,-0.00255176,0.00316838,-0.00193514,-0.785662,0.00297505,0.0140782,1042,456,1.20481,7.55475
-175,568,1.20667,-7.65625,0.00056598,0.000985723,-0.0025857,0.00337006,-0.00181836,-0.825892,0.00303986,0.0124655,1049,456,1.20666,7.65626
-168,568,1.22131,-7.73416,0.000532525,0.00141973,-0.00268712,0.00369962,-0.00174736,-0.867203,0.00321144,0.0147803,1056,456,1.2213,7.73415
-161,568,1.23218,-7.81168,0.000129975,0.00231512,-0.00273406,0.00416683,-0.00172174,-0.975486,0.00349609,0.0238873,1063,456,1.23221,7.81169
-154,568,1.31628,-8.0285,-0.000713082,0.00329253,-0.00264312,0.00460595,-0.0020265,-1.10962,0.00392459,0.0323796,1070,456,1.31629,8.02852
-147,568,1.27173,-8.13446,-0.000367634,0.00423793,-0.00179749,0.00485641,-0.000986112,-1.23941,0.00361147,0.0378103,1077,456,1.27175,8.13445
-140,568,1.14758,-8.2261,0.00198712,0.00505939,-0.00112121,0.00542505,0.00162146,-1.25554,0.00321551,0.0426116,1084,456,1.14754,8.2261
-133,568,1.22644,-8.38055,0.00392709,0.00506259,-0.000829542,0.00550007,0.00348961,-1.08549,0.00321351,0.0455634,1091,456,1.2264,8.38056
-126,568,1.396,-8.45959,0,0,0,0,0,0,0,-1,1098,456,1.39605,8.45959
-119,568,1.28833,-7.77679,0,0,0,0,0,0,0,-1,1105,456,1.28839,7.77679
-112,568,1.28845,-8.41776,0,0,0,0,0,0,0,-1,1112,456,1.28841,8.41776
-105,568,1.42542,-8.22647,0,0,0,0,0,0,0,-1,1119,456,1.42546,8.22647
-98,568,0.704346,-8.27673,0,0,0,0,0,0,0,-1,1126,456,0.704295,8.27672
-91,568,1.53772,-8.14383,0,0,0,0,0,0,0,-1,1133,456,1.53776,8.14384
-84,568,-0.760376,3.12466,0,0,0,0,0,0,0,-1,1140,456,-0.76043,-3.12465
-77,568,-2.27258,0.849304,0,0,0,0,0,0,0,-1,1147,456,-2.27262,-0.849306
-70,568,-4.09766,-1.42911,0,0,0,0,0,0,0,-1,1154,456,-4.09767,1.4291
-63,568,-5.92273,-3.70752,0,0,0,0,0,0,0,-1,1161,456,-5.92272,3.70751
-56,568,-5.24158,-6.01385,0,0,0,0,0,0,0,-1,1168,456,-5.24161,6.01386
-49,568,-5.24365,-8.33557,0,0,0,0,0,0,0,-1,1175,456,-5.24371,8.33557
-42,568,-0.664795,0.521973,0,0,0,0,0,0,0,-1,1182,456,-0.664829,-0.521984
-35,568,-0.153076,-1.67731,0,0,0,0,0,0,0,-1,1189,456,-0.153068,1.67731
-28,568,1.25439,-4.48798,0,0,0,0,0,0,0,-1,1196,456,1.2544,4.48797
-21,568,7.03223,-5.29666,0,0,0,0,0,0,0,-1,1203,456,7.03224,5.29666
-14,568,0.899902,-10.7669,0,0,0,0,0,0,0,-1,1210,456,0.899915,10.7669
-7,568,0.820068,-10.8608,0.0138668,0.086745,0.0340067,0.100148,0.000463478,1.19535,0.0666116,0.0496414,1217,456,0.82009,10.8608
0,568,0.703735,-10.9712,0.0209907,0.0858295,0.032287,0.0991645,0.00765574,1.17912,0.0637113,0.049331,1224,456,0.703697,10.9712
7,568,0.53418,-11.0733,0.0309967,0.0842793,0.0287418,0.0968279,0.0184481,1.15914,0.0593659,0.0457993,1231,456,0.53413,11.0733
14,568,0.738892,-11,0,0,0,0,0,0,0,-1,1238,456,0.738943,11
21,568,0.97229,-11.5344,0,0,0,0,0,0,0,-1,1245,456,0.972309,11.5344
28,568,1.95483,-8.5423,0,0,0,0,0,0,0,-1,1252,456,1.95479,8.54231
35,568,1.25366,-9.36392,0,0,0,0,0,0,0,-1,1259,456,1.25369,9.36392
42,568,1.98645,-9.67545,0,0,0,0,0,0,0,-1,1266,456,1.9865,9.67545
49,568,2.71936,-9.98697,0,0,0,0,0,0,0,-1,1273,456,2.71931,9.98698
56,568,2.18835,-11.2331,0.0394838,0.0137508,0.00263677,0.0397512,0.0134834,0.101067,0.0233426,0.0465314,1280,456,2.18831,11.2331
63,568,2.94312,-12.0508,0,0,0,0,0,0,0,-1,1287,456,2.94311,12.0508
70,568,0.468872,-7.1109,0.0221482,-0.0073447,-0.000659757,0.022163,-0.00735945,-0.0223551,0.0177447,0.0433555,1294,456,0.468914,7.11091
77,568,0.0480957,-7.22293,0.00926885,-0.0113188,0.00221464,0.00950439,-0.0115544,0.105956,0.0121775,0.0459177,1301,456,0.0480397,7.22292
84,568,-0.166016,-7.7009,0,0,0,0,0,0,0,-1,1308,456,-0.165999,7.7009
91,568,-0.0457764,-6.11444,0,0,0,0,0,0,0,-1,1315,456,-0.0458141,6.11443
98,568,3.69763,-9.67026,0,0,0,0,0,0,0,-1,1322,456,3.69763,9.67027
105,568,3.36536,-9.74326,0,0,0,0,0,0,0,-1,1329,456,3.36534,9.74325
112,568,4.45435,-10.095,-0.04215,-0.0209827,0.0280242,-0.0016102,-0.0615225,0.965949,0.0404889,0.0453648,1336,456,4.45429,10.095
119,568,2.26294,-8.60361,-0.0440569,-0.019403,0.0329334,0.0034349,-0.0668947,0.964476,0.0457844,0.0439279,1343,456,2.26295,8.60361
126,568,1.87988,-8.51205,-0.0430811,-0.0171941,0.0387815,0.0107468,-0.071022,0.946464,0.0513069,0.0449003,1350,456,1.87987,8.51207
133,568,1.2981,-8.21823,-0.0410646,-0.0162238,0.0442381,0.0173045,-0.0745928,0.922256,0.0563888,0.0463613,1357,456,1.29807,8.21825
140,568,0.641113,-7.63629,-0.0362342,-0.0175348,0.0492936,0.0232879,-0.0770569,0.879122,0.0606432,0.0461165,1364,456,0.641091,7.63628
147,568,0.0672607,-7.07721,-0.0284213,-0.0199271,0.0542125,0.0302044,-0.0785528,0.824489,0.0648262,0.0468,1371,456,0.067253,7.07721
154,568,-0.612427,-6.49927,0,0,0,0,0,0,0,-1,1378,456,-0.612445,6.49926
161,568,3.34412,-8.58749,0,0,0,0,0,0,0,-1,1385,456,3.34414,8.58749
168,568,9.09583,-0.563782,0,0,0,0,0,0,0,-1,1392,456,9.09586,0.563788
175,568,10.5151,0.747498,0,0,0,0,0,0,0,-1,1399,456,10.5152,-0.747501
182,568,6.35095,-3.63361,0,0,0,0,0,0,0,-1,1406,456,6.35093,3.63359
189,568,6.17493,-1.70911,0,0,0,0,0,0,0,-1,1413,456,6.17497,1.70911
196,568,6.04724,0.200836,0,0,0,0,0,0,0,-1,1420,456,6.04724,-0.200835
203,568,5.9281,2.08649,0,0,0,0,0,0,0,-1,1427,456,5.92812,-2.08648
210,568,1.46216,-2.50446,0,0,0,0,0,0,0,-1,1434,456,1.46219,2.50446
217,568,2.62366,-7.86703,0,0,0,0,0,0,0,-1,1441,456,2.62365,7.86704
224,568,3.75354,-8.08215,0,0,0,0,0,0,0,-1,1448,456,3.75349,8.08216
231,568,4.38245,-9.3205,0,0,0,0,0,0,0,-1,1455,456,4.38244,9.32048
238,568,2.5144,-7.55945,0,0,0,0,0,0,0,-1,1462,456,2.51446,7.55944
245,568,2.90259,-8.24289,0,0,0,0,0,0,0,-1,1469,456,2.90264,8.24289
252,568,3.20837,-6.39987,0,0,0,0,0,0,0,-1,1476,456,3.20836,6.39988
259,568,3.17444,-7.08456,0,0,0,0,0,0,0,-1,1483,456,3.17444,7.08455
266,568,3.5802,-6.54364,0,0,0,0,0,0,0,-1,1490,456,3.58021,6.54363
273,568,2.79797,-7.58914,0,0,0,0,0,0,0,-1,1497,456,2.798,7.58915
280,568,2.79114,-7.38495,0,0,0,0,0,0,0,-1,1504,456,2.79117,7.38495
287,568,2.90564,-7.20538,-0.00250118,-0.00857763,-0.00710089,0.00218416,-0.013263,-0.583251,0.00965276,0.0323427,1511,456,2.90568,7.20539
294,568,2.87488,-7.11389,-0.00222028,-0.00733802,-0.00634198,0.0020596,-0.0116179,-0.593646,0.00851524,0.0241665,1518,456,2.87491,7.1139
301,568,2.84729,-7.01697,-0.00222477,-0.0067412,-0.00569169,0.00164032,-0.0106063,-0.596545,0.00767628,0.0180515,1525,456,2.84726,7.01697
308,568,2.83984,-6.89597,-0.00220846,-0.00602746,-0.00515161,0.00137616,-0.00961208,-0.607918,0.00691258,0.0117459,1532,456,2.83979,6.89596
315,568,2.8363,-6.76254,-0.00198639,-0.00484747,-0.00443941,0.00124728,-0.00808113,-0.629533,0.00584769,0.00815283,1539,456,2.83635,6.76253
322,568,2.86438,-6.65527,-0.00178793,-0.00392898,-0.00385593,0.00114332,-0.00686023,-0.649993,0.00499837,0.00959532,1546,456,2.86438,6.65529
329,568,2.86121,-6.53613,-0.00160255,-0.00352359,-0.00343014,0.000999023,-0.00612516,-0.648883,0.00445395,0.0104693,1553,456,2.86117,6.53612
336,568,2.86133,-6.39917,-0.00145973,-0.00302393,-0.00298581,0.000844716,-0.00532837,-0.657306,0.00386472,0.011541,1560,456,2.86133,6.39916
343,568,2.89392,-6.27576,-0.00140052,-0.00260141,-0.00256408,0.00063248,-0.00463441,-0.670383,0.00332057,0.0113451,1567,456,2.89391,6.27576
350,568,2.88354,-6.18246,-0.00136248,-0.00204678,-0.00214481,0.0004673,-0.00387655,-0.706302,0.00275339,0.00990616,1574,456,2.8836,6.18248
357,568,2.86694,-6.04947,-0.00135013,-0.00169556,-0.00175573,0.00024136,-0.00328704,-0.73637,0.00227608,0.00922372,1581,456,2.86694,6.04948
364,568,2.87,-5.92337,-0.00134977,-0.00133817,-0.00136878,2.48182e-05,-0.00271276,-0.787518,0.00181684,0.0112371,1588,456,2.86997,5.92339
371,568,2.88293,-5.80072,-0.00127828,-0.000973499,-0.00089363,-0.000219358,-0.00203242,-0.86985,0.00128807,0.0192917,1595,456,2.88289,5.80072
378,568,2.90088,-5.66006,-0.00127674,-0.000600585,-0.000512105,-0.000325027,-0.0015523,-1.07714,0.000945334,0.0170711,1602,456,2.90088,5.66006
385,568,2.86816,-5.51657,-0.00124352,-0.000361296,-0.000238152,-0.000301113,-0.0013037,-1.32327,0.000788173,0.00868059,1609,456,2.86812,5.51657
392,568,2.85547,-5.37729,-0.000984651,-0.000189642,6.56125e-05,-0.000184263,-0.000990029,1.489,0.000607978,0.0103121,1616,456,2.85543,5.37729
399,568,2.82202,-5.26419,-0.000416332,0.000212005,0.000670018,0.000637854,-0.000842181,1.00463,0.000857209,0.0164071,1623,456,2.822,5.26418
406,568,2.84497,-5.12619,4.99667e-05,0.000511652,0.0012372,0.00153936,-0.000977743,0.87763,0.00146526,0.0144459,1630,456,2.845,5.12618
413,568,2.8418,-4.95612,-0.000111937,0.000489091,0.0018456,0.00205849,-0.00168133,0.866103,0.00216284,0.0116963,1637,456,2.84174,4.9561
420,568,2.85205,-4.79608,-0.000443539,0.000637873,0.00206808,0.00223476,-0.00204042,0.913263,0.00246913,0.0103975,1644,456,2.85205,4.79609
427,568,2.86169,-4.64096,-0.00065839,0.00106727,0.00205031,0.00242891,-0.00202002,0.984565,0.0025722,0.0119584,1651,456,2.86173,4.64098
434,568,2.85767,-4.5289,-0.000828892,0.00127484,0.0023668,0.00281299,-0.00236704,0.994502,0.00299438,0.0146101,1658,456,2.85763,4.52889
441,568,2.85303,-4.42468,-0.00133508,0.00139313,0.00260157,0.00296653,-0.00290849,1.02686,0.003392,0.0221756,1665,456,2.853,4.42468
448,568,3.26379,-4.01694,-0.0025905,0.00173265,0.00251294,0.00288578,-0.00374363,1.14058,0.00383816,0.0405519,1672,456,3.26375,4.01694
455,568,3.5144,-3.8147,0,0,0,0,0,0,0,-1,1679,456,3.51445,3.8147
462,568,2.9491,-3.63541,-0.00767728,0.00391418,0.000387759,0.00392713,-0.00769023,1.53739,0.00682357,0.0452065,1686,456,2.94914,3.63541
469,568,2.7644,-3.61166,-0.0113335,0.00554797,-0.00198467,0.00577816,-0.0115637,-1.45533,0.0101963,0.0390848,1693,456,2.76441,3.61167
476,568,2.70605,-3.54346,-0.0161453,0.00793653,-0.00546353,0.00911808,-0.0173269,-1.35781,0.0155112,0.0432403,1700,456,2.70604,3.54345
483,568,2.64246,-3.47467,0,0,0,0,0,0,0,-1,1707,456,2.64242,3.47466
490,568,3.8689,-1.95938,0,0,0,0,0,0,0,-1,1714,456,3.8689,1.95937
497,568,5.25134,-4.67664,0,0,0,0,0,0,0,-1,1721,456,5.2513,4.67664
504,568,0,0,0,0,0,0,0,0,0,-1,1728,456,0,0
511,568,0,0,0,0,0,0,0,0,0,-1,1735,456,0,0
518,568,0,0,0,0,0,0,0,0,0,-1,1742,456,0,0
525,568,0,0,0,0,0,0,0,0,0,-1,1749,456,0,0
532,568,0,0,0,0,0,0,0,0,0,-1,1756,456,0,0
539,568,0,0,0,0,0,0,0,0,0,-1,1763,456,0,0
546,568,0,0,0,0,0,0,0,0,0,-1,1770,456,0,0
553,568,0,0,0,0,0,0,0,0,0,-1,1777,456,0,0
560,568,0,0,0,0,0,0,0,0,0,-1,1784,456,0,0
567,568,0,0,0,0,0,0,0,0,0,-1,1791,456,0,0
574,568,0,0,0,0,0,0,0,0,0,-1,1798,456,0,0
581,568,0,0,0,0,0,0,0,0,0,-1,1805,456,0,0
588,568,0,0,0,0,0,0,0,0,0,-1,1812,456,0,0
595,568,0,0,0,0,0,0,0,0,0,-1,1819,456,0,0
602,568,0,0,0,0,0,0,0,0,0,-1,1826,456,0,0
609,568,0,0,0,0,0,0,0,0,0,-1,1833,456,0,0
616,568,0,0,0,0,0,0,0,0,0,-1,1840,456,0,0
623,568,0,0,0,0,0,0,0,0,0,-1,1847,456,0,0
630,568,0,0,0,0,0,0,0,0,0,-1,1854,456,0,0
637,568,0,0,0,0,0,0,0,0,0,-1,1861,456,0,0
644,568,0,0,0,0,0,0,0,0,0,-1,1868,456,0,0
651,568,0,0,0,0,0,0,0,0,0,-1,1875,456,0,0
658,568,0,0,0,0,0,0,0,0,0,-1,1882,456,0,0
665,568,0,0,0,0,0,0,0,0,0,-1,1889,456,0,0
672,568,0,0,0,0,0,0,0,0,0,-1,1896,456,0,0
679,568,0,0,0,0,0,0,0,0,0,-1,1903,456,0,0
686,568,0,0,0,0,0,0,0,0,0,-1,1910,456,0,0
693,568,0,0,0,0,0,0,0,0,0,-1,1917,456,0,0
700,568,0,0,0,0,0,0,0,0,0,-1,1924,456,0,0
707,568,0,0,0,0,0,0,0,0,0,-1,1931,456,0,0
714,568,0,0,0,0,0,0,0,0,0,-1,1938,456,0,0
721,568,0,0,0,0,0,0,0,0,0,-1,1945,456,0,0
728,568,0,0,0,0,0,0,0,0,0,-1,1952,456,0,0
735,568,0,0,0,0,0,0,0,0,0,-1,1959,456,0,0
742,568,0,0,0,0,0,0,0,0,0,-1,1966,456,0,0
749,568,0,0,0,0,0,0,0,0,0,-1,1973,456,0,0
756,568,0,0,0,0,0,0,0,0,0,-1,1980,456,0,0
763,568,0,0,0,0,0,0,0,0,0,-1,1987,456,0,0
770,568,0,0,0,0,0,0,0,0,0,-1,1994,456,0,0
777,568,0,0,0,0,0,0,0,0,0,-1,2001,456,0,0
784,568,0,0,0,0,0,0,0,0,0,-1,2008,456,0,0
791,568,0,0,0,0,0,0,0,0,0,-1,2015,456,0,0
798,568,0,0,0,0,0,0,0,0,0,-1,2022,456,0,0
805,568,0,0,0,0,0,0,0,0,0,-1,2029,456,0,0
812,568,0,0,0,0,0,0,0,0,0,-1,2036,456,0,0
-700,561,0,0,0,0,0,0,0,0,0,-1,524,463,0,0
-693,561,0,0,0,0,0,0,0,0,0,-1,531,463,0,0
-686,561,0,0,0,0,0,0,0,0,0,-1,538,463,0,0
-679,561,0,0,0,0,0,0,0,0,0,-1,545,463,0,0
-672,561,0,0,0,0,0,0,0,0,0,-1,552,463,0,0
-665,561,0,0,0,0,0,0,0,0,0,-1,559,463,0,0
-658,561,0,0,0,0,0,0,0,0,0,-1,566,463,0,0
-651,561,0,0,0,0,0,0,0,0,0,-1,573,463,0,0
-644,561,0,0,0,0,0,0,0,0,0,-1,580,463,0,0
-637,561,0,0,0,0,0,0,0,0,0,-1,587,463,0,0
-630,561,0,0,0,0,0,0,0,0,0,-1,594,463,0,0
-623,561,0,0,0,0,0,0,0,0,0,-1,601,463,0,0
-616,561,0,0,0,0,0,0,0,0,0,-1,608,463,0,0
-609,561,0,0,0,0,0,0,0,0,0,-1,615,463,0,0
-602,561,0,0,0,0,0,0,0,0,0,-1,622,463,0,0
-595,561,0,0,0,0,0,0,0,0,0,-1,629,463,0,0
-588,561,0,0,0,0,0,0,0,0,0,-1,636,463,0,0
-581,561,0,0,0,0,0,0,0,0,0,-1,643,463,0,0
-574,561,0,0,0,0,0,0,0,0,0,-1,650,463,0,0
-567,561,0,0,0,0,0,0,0,0,0,-1,657,463,0,0
-560,561,0,0,0,0,0,0,0,0,0,-1,664,463,0,0
-553,561,0,0,0,0,0,0,0,0,0,-1,671,463,0,0
-546,561,0,0,0,0,0,0,0,0,0,-1,678,463,0,0
-539,561,0,0,0,0,0,0,0,0,0,-1,685,463,0,0
-532,561,0,0,0,0,0,0,0,0,0,-1,692,463,0,0
-525,561,0,0,0,0,0,0,0,0,0,-1,699,463,0,0
-518,561,0,0,0,0,0,0,0,0,0,-1,706,463,0,0
-511,561,0,0,0,0,0,0,0,0,0,-1,713,463,0,0
-504,561,0,0,0,0,0,0,0,0,0,-1,720,463,0,0
-497,561,0,0,0,0,0,0,0,0,0,-1,727,463,0,0
-490,561,0,0,0,0,0,0,0,0,0,-1,734,463,0,0
-483,561,0,0,0,0,0,0,0,0,0,-1,741,463,0,0
-476,561,0,0,0,0,0,0,0,0,0,-1,748,463,0,0
-469,561,0,0,0,0,0,0,0,0,0,-1,755,463,0,0
-462,561,0,0,0,0,0,0,0,0,0,-1,762,463,0,0
-455,561,0,0,0,0,0,0,0,0,0,-1,769,463,0,0
-448,561,0,0,0,0,0,0,0,0,0,-1,776,463,0,0
-441,561,0,0,0,0,0,0,0,0,0,-1,783,463,0,0
-434,561,0,0,0,0,0,0,0,0,0,-1,790,463,0,0
-427,561,0,0,0,0,0,0,0,0,0,-1,797,463,0,0
-420,561,0,0,0,0,0,0,0,0,0,-1,804,463,0,0
-413,561,0,0,0,0,0,0,0,0,0,-1,811,463,0,0
-406,561,0,0,0,0,0,0,0,0,0,-1,818,463,0,0
-399,561,0,0,0,0,0,0,0,0,0,-1,825,463,0,0
-392,561,-0.180481,-3.07571,0,0,0,0,0,0,0,-1,832,463,-0.180482,3.07571
-385,561,0.859863,-3.20386,0,0,0,0,0,0,0,-1,839,463,0.859892,3.20387
-378,561,1.5509,-4.3269,0,0,0,0,0,0,0,-1,846,463,1.55091,4.32689
-371,561,2.32941,-5.4509,0,0,0,0,0,0,0,-1,853,463,2.32941,5.45091
-364,561,2.953,-6.38342,0,0,0,0,0,0,0,-1,860,463,2.95299,6.38341
-357,561,1.81787,-4.03372,0,0,0,0,0,0,0,-1,867,463,1.81789,4.03373
-350,561,1.86603,-4.23535,0,0,0,0,0,0,0,-1,874,463,1.866,4.23534
-343,561,1.03387,-5.01334,0,0,0,0,0,0,0,-1,881,463,1.03385,5.01335
-336,561,1.02588,-5.10544,-0.0119662,-0.0324591,0.00566452,-0.0105047,-0.0339206,0.252506,0.0200514,0.0466059,888,463,1.02587,5.10544
-329,561,1.0882,-5.23425,-0.00973204,-0.0271598,0.00471446,-0.00853846,-0.0283534,0.247965,0.0167958,0.0349675,895,463,1.08818,5.23426
-322,561,1.13751,-5.31619,-0.00764839,-0.0218529,0.00375287,-0.00671783,-0.0227834,0.243057,0.013518,0.0272513,902,463,1.13749,5.31619
-315,561,1.12842,-5.37518,-0.0058757,-0.0170066,0.00290352,-0.00516384,-0.0177184,0.240431,0.0105222,0.0193027,909,463,1.12845,5.37519
-308,561,1.09821,-5.49869,-0.00421724,-0.0128849,0.00208424,-0.00374211,-0.01336,0.224135,0.0079582,0.0158835,916,463,1.0982,5.4987
-301,561,1.0957,-5.66428,-0.00281331,-0.00948438,0.00142853,-0.00252028,-0.00977741,0.202321,0.00586165,0.0125544,923,463,1.09573,5.66429
-294,561,1.09705,-5.78345,-0.00168691,-0.0067144,0.000877215,-0.00153825,-0.00686306,0.167877,0.00415856,0.0106584,930,463,1.09705,5.78344
-287,561,1.08887,-5.88809,-0.000767691,-0.00458904,0.000395378,-0.000727212,-0.00462952,0.102026,0.00287477,0.00893931,937,463,1.08889,5.88808
-280,561,1.0752,-6.01654,-0.000144402,-0.00309693,2.77594e-05,-0.000144141,-0.00309719,0.0094008,0.00201846,0.0111999,944,463,1.07518,6.01654
-273,561,1.06689,-6.16064,0.000483698,-0.0013483,-0.00039279,0.000564363,-0.00142897,-0.202547,0.00118639,0.0141916,951,463,1.0669,6.16065
-266,561,1.05341,-6.29684,0.000980649,-0.000333855,-0.000764209,0.00133136,-0.000684569,-0.430251,0.0011837,0.00919988,958,463,1.05343,6.29684
-259,561,1.06311,-6.42224,0.00124603,-0.000170552,-0.000931448,0.00170789,-0.000632421,-0.460331,0.00139793,0.0098697,965,463,1.0631,6.42224
-252,561,1.05652,-6.52945,0.00134228,3.69203e-05,-0.00114221,0.00200514,-0.000625937,-0.525829,0.0015871,0.0137288,972,463,1.05653,6.52946
-245,561,1.04883,-6.63251,0.00131264,0.000152684,-0.00145999,0.00230364,-0.000838307,-0.596332,0.00187861,0.0154214,979,463,1.04884,6.63251
-238,561,1.05493,-6.73669,0.00129182,0.00019819,-0.00175822,0.00258629,-0.00109628,-0.634637,0.00218338,0.0118808,986,463,1.05493,6.7367
-231,561,1.0528,-6.85217,0.00129693,0.000316153,-0.00204315,0.00290772,-0.00129463,-0.667618,0.0024851,0.00998771,993,463,1.0528,6.85216
-224,561,1.05634,-6.97327,0.00128075,0.000110833,-0.0022961,0.00306524,-0.00167365,-0.660671,0.00277504,0.00998667,1000,463,1.05634,6.97328
-217,561,1.08838,-7.06699,0.00122005,-1.29317e-05,-0.00259966,0.00327532,-0.0020682,-0.668977,0.00311121,0.0103157,1007,463,1.08835,7.06697
-210,561,1.11047,-7.16339,0.00111845,-0.000177858,-0.0028517,0.00339472,-0.00245413,-0.673653,0.00339136,0.0121312,1014,463,1.11045,7.1634
-203,561,1.09711,-7.28287,0.000998496,-0.000475827,-0.00314023,0.00348693,-0.00296426,-0.670112,0.00372867,0.0136799,1021,463,1.09712,7.28287
-196,561,1.10864,-7.3786,0.000758475,-0.000249032,-0.00343861,0.00373004,-0.0032206,-0.712666,0.00401654,0.0133425,1028,463,1.10863,7.37861
-189,561,1.10669,-7.45813,0.000551915,-9.75063e-07,-0.00357888,0.00386501,-0.00331407,-0.746853,0.00414891,0.0150348,1035,463,1.1067,7.45814
-182,561,1.11646,-7.56445,0.000442445,0.000701453,-0.00356645,0.00414075,-0.00299685,-0.803546,0.00413849,0.0177766,1042,463,1.1165,7.56445
-175,561,1.18042,-7.65619,0.000318169,0.00131052,-0.00359373,0.00444217,-0.00281348,-0.853998,0.00422408,0.0287618,1049,463,1.18042,7.65618
-168,561,1.27783,-7.76328,0.000228211,0.00199721,-0.0037129,0.0049295,-0.00270409,-0.90233,0.00446925,0.0405552,1056,463,1.27788,7.76327
-161,561,1.14331,-7.89804,-0.000357789,0.0031829,-0.00382126,0.00562399,-0.00279887,-1.00232,0.00495328,0.0442891,1063,463,1.14334,7.89805
-154,561,1.1875,-7.98135,-0.00152349,0.00450457,-0.0037917,0.00633423,-0.00335315,-1.12121,0.0056806,0.0475002,1070,463,1.1875,7.98136
-147,561,1.07117,-8.49069,-0.00117412,0.00571993,-0.00276504,0.0066919,-0.00214608,-1.23277,0.00532284,0.0494431,1077,463,1.07117,8.49068
-140,561,0.920288,-8.5098,0,0,0,0,0,0,0,-1,1084,463,0.920234,8.50981
-133,561,1.09058,-8.60522,0,0,0,0,0,0,0,-1,1091,463,1.09061,8.60522
-126,561,0.22998,-6.28131,0,0,0,0,0,0,0,-1,1098,463,0.230039,6.2813
-119,561,1.36035,-6.77164,0,0,0,0,0,0,0,-1,1105,463,1.36034,6.77163
-112,561,1.81921,-8.01843,0,0,0,0,0,0,0,-1,1112,463,1.81921,8.01843
-105,561,1.94189,-7.73282,0,0,0,0,0,0,0,-1,1119,463,1.94194,7.73283
-98,561,2.0647,-7.44724,0,0,0,0,0,0,0,-1,1126,463,2.06467,7.44724
-91,561,0.957397,5.30316,0,0,0,0,0,0,0,-1,1133,463,0.957394,-5.30317
-84,561,-0.78418,3.14795,0,0,0,0,0,0,0,-1,1140,463,-0.784156,-3.14795
-77,561,-2.36023,1.00204,0,0,0,0,0,0,0,-1,1147,463,-2.3602,-1.00205
-70,561,-3.90015,-1.41541,0,0,0,0,0,0,0,-1,1154,463,-3.90009,1.4154
-63,561,-5.44373,-3.84851,0,0,0,0,0,0,0,-1,1161,463,-5.44376,3.8485
-56,561,-5.37988,-6.66855,0,0,0,0,0,0,0,-1,1168,463,-5.37988,6.66854
-49,561,-5.7439,-9.11029,0,0,0,0,0,0,0,-1,1175,463,-5.74387,9.1103
-42,561,-1.72644,-5.63065,0,0,0,0,0,0,0,-1,1182,463,-1.72648,5.63064
-35,561,-1.65674,-4.87994,0,0,0,0,0,0,0,-1,1189,463,-1.6567,4.87993
-28,561,-1.91418,-3.86896,0,0,0,0,0,0,0,-1,1196,463,-1.91414,3.86895
-21,561,7.87415,-4.81674,0,0,0,0,0,0,0,-1,1203,463,7.87412,4.81675
-14,561,7.40161,-5.1796,0,0,0,0,0,0,0,-1,1210,463,7.40164,5.1796
-7,561,0.544556,-11.5431,0,0,0,0,0,0,0,-1,1217,463,0.544573,11.5431
0,561,0.385132,-11.5959,0,0,0,0,0,0,0,-1,1224,463,0.385169,11.5959
7,561,0.101929,-11.7143,0.0347218,0.0994634,0.034179,0.114168,0.0200174,1.16452,0.0703946,0.044555,1231,463,0.101938,11.7143
14,561,0.317993,-11.7238,0.0477343,0.0970032,0.029585,0.110867,0.0338703,1.13257,0.0656036,0.0412624,1238,463,0.318037,11.7238
21,561,0.525635,-11.7878,0,0,0,0,0,0,0,-1,1245,463,0.525654,11.7878
28,561,0.716919,-11.8532,0,0,0,0,0,0,0,-1,1252,463,0.716965,11.8532
35,561,-1.51367,-10.692,0,0,0,0,0,0,0,-1,1259,463,-1.51363,10.692
42,561,1.85242,-10.0355,0,0,0,0,0,0,0,-1,1266,463,1.8524,10.0355
49,561,0.611206,-11.2639,0.047087,0.0316181,0.0045475,0.0483248,0.0303803,0.265758,0.0282066,0.0454527,1273,463,0.611257,11.264
56,561,1.73181,-11.8608,0.0424196,0.0181817,0.00125451,0.0424843,0.018117,0.0515745,0.0246167,0.0442999,1280,463,1.73185,11.8608
63,561,2.84985,-12.4574,0,0,0,0,0,0,0,-1,1287,463,2.84986,12.4574
70,561,0.477051,-6.55157,0.0204172,-0.0078903,-0.0029235,0.0207159,-0.00818908,-0.101844,0.0172028,0.0450234,1294,463,0.477014,6.55159
77,561,-0.0583496,-6.6897,0.00286071,-0.0135649,0.000541492,0.00287855,-0.0135827,0.0329187,0.0101516,0.0454193,1301,463,-0.058346,6.6897
84,561,-0.28186,-6.60788,-0.0153784,-0.0181577,0.00439946,-0.0121544,-0.0213818,0.632423,0.0123833,0.0439506,1308,463,-0.281832,6.60788
91,561,-1.00146,-6.07974,0,0,0,0,0,0,0,-1,1315,463,-1.00142,6.07974
98,561,-1.98706,-5.72351,0,0,0,0,0,0,0,-1,1322,463,-1.98705,5.7235
105,561,5.75134,-15.3292,0,0,0,0,0,0,0,-1,1329,463,5.75139,15.3292
112,561,4.79041,-10.2041,0,0,0,0,0,0,0,-1,1336,463,4.79037,10.2041
119,561,2.28027,-8.24539,0,0,0,0,0,0,0,-1,1343,463,2.28025,8.2454
126,561,1.74695,-8.19138,0,0,0,0,0,0,0,-1,1350,463,1.74697,8.19139
133,561,1.17822,-7.74783,-0.0530717,-0.0173389,0.0520418,0.019818,-0.0902285,0.950749,0.0677318,0.0485528,1357,463,1.17822,7.74785
140,561,0.629395,-7.34457,-0.0470336,-0.0181619,0.0578111,0.0269885,-0.092184,0.90775,0.0721547,0.0483164,1364,463,0.629391,7.34458
147,561,0.230591,-6.61005,-0.0363043,-0.0207448,0.0637421,0.0356905,-0.0927396,0.846123,0.0765488,0.0484208,1371,463,0.230628,6.61004
154,561,-0.202881,-5.85287,0,0,0,0,0,0,0,-1,1378,463,-0.202885,5.85286
161,561,-0.271973,-5.23352,0,0,0,0,0,0,0,-1,1385,463,-0.271964,5.23351
168,561,8.91394,-0.737396,0,0,0,0,0,0,0,-1,1392,463,8.91389,0.737391
175,561,10.4185,0.276398,0,0,0,0,0,0,0,-1,1399,463,10.4185,-0.276394
182,561,6.45703,-4.02127,0,0,0,0,0,0,0,-1,1406,463,6.45704,4.02127
189,561,6.50854,-2.08685,0,0,0,0,0,0,0,-1,1413,463,6.50851,2.08686
196,561,6.44775,-0.27182,0,0,0,0,0,0,0,-1,1420,463,6.44773,0.271814
203,561,6.18591,1.1301,0,0,0,0,0,0,0,-1,1427,463,6.18592,-1.13009
210,561,5.68713,2.68427,0,0,0,0,0,0,0,-1,1434,463,5.6871,-2.68425
217,561,3.61743,-7.33582,0,0,0,0,0,0,0,-1,1441,463,3.61738,7.33581
224,561,4.27466,-8.59171,0,0,0,0,0,0,0,-1,1448,463,4.27466,8.59171
231,561,4.93188,-9.8476,0,0,0,0,0,0,0,-1,1455,463,4.93193,9.84761
238,561,2.18018,-5.18359,0,0,0,0,0,0,0,-1,1462,463,2.18023,5.18359
245,561,3.07568,-3.50238,0,0,0,0,0,0,0,-1,1469,463,3.0757,3.50238
252,561,3.47412,-3.71109,0,0,0,0,0,0,0,-1,1476,463,3.47413,3.71109
259,561,3.42212,-3.2334,0,0,0,0,0,0,0,-1,1483,463,3.42214,3.2334
266,561,4.44373,-5.90027,0,0,0,0,0,0,0,-1,1490,463,4.44372,5.90026
273,561,2.59485,-3.65268,0,0,0,0,0,0,0,-1,1497,463,2.5948,3.65268
280,561,3.10767,-6.38235,0,0,0,0,0,0,0,-1,1504,463,3.10766,6.38235
287,561,3.17224,-7.12335,0,0,0,0,0,0,0,-1,1511,463,3.17228,7.12334
294,561,2.99146,-6.81009,-0.00368373,-0.010648,-0.00874449,0.00224643,-0.0165782,-0.595917,0.011872,0.0416319,1518,463,2.99145,6.81009
301,561,2.97424,-6.94601,-0.0035877,-0.00976905,-0.00787104,0.00177771,-0.0151345,-0.598315,0.0107314,0.038596,1525,463,2.97428,6.94602
308,561,2.97644,-6.84839,-0.00352382,-0.00873887,-0.00721521,0.00154058,-0.0138033,-0.612004,0.00975634,0.0274697,1532,463,2.97641,6.8484
315,561,2.94104,-6.77338,-0.00319715,-0.00698448,-0.00631855,0.0015054,-0.011687,-0.639808,0.00833858,0.0170481,1539,463,2.94108,6.77337
322,561,2.96985,-6.69083,-0.00286127,-0.00559296,-0.00559404,0.00153125,-0.00998549,-0.665661,0.00722173,0.0156964,1546,463,2.96989,6.69082
329,561,2.97803,-6.55011,-0.00248005,-0.0048437,-0.00502741,0.00150258,-0.00882633,-0.669956,0.00644374,0.0122495,1553,463,2.97802,6.55011
336,561,2.99243,-6.40958,-0.00203208,-0.00403358,-0.00436834,0.00144867,-0.00751433,-0.672796,0.00555576,0.0114722,1560,463,2.9924,6.40957
343,561,3.00745,-6.30084,-0.0017837,-0.00341028,-0.00380699,0.0012959,-0.00648988,-0.680165,0.00481701,0.0100619,1567,463,3.00745,6.30084
350,561,3.00464,-6.1843,-0.00161208,-0.00264739,-0.00327469,0.00118561,-0.00544509,-0.707008,0.00408305,0.009061,1574,463,3.00463,6.18431
357,561,3.00146,-6.04657,-0.0014656,-0.00220079,-0.00278024,0.000971242,-0.00463763,-0.719671,0.00346123,0.00907272,1581,463,3.00152,6.04656
364,561,3.01392,-5.91974,-0.00134079,-0.00177468,-0.00229433,0.000746827,-0.0038623,-0.738259,0.00285654,0.00886431,1588,463,3.01394,5.91974
371,561,3.00244,-5.79599,-0.00113539,-0.00134503,-0.00170474,0.000467748,-0.00294816,-0.754693,0.00213848,0.0157975,1595,463,3.00246,5.79598
378,561,3.00256,-5.67307,-0.00103675,-0.000962194,-0.00124782,0.000248902,-0.00224784,-0.800331,0.00158805,0.0111854,1602,463,3.00254,5.67308
385,561,3.00757,-5.52753,-0.000956274,-0.000695012,-0.000885007,6.89524e-05,-0.00172024,-0.858671,0.00117049,0.00940327,1609,463,3.00762,5.52754
392,561,2.98999,-5.37125,-0.000715936,-0.000510622,-0.000506681,-9.63024e-05,-0.00113025,-0.885349,0.000723542,0.0129828,1616,463,2.98999,5.37123
399,561,2.97119,-5.24799,-0.000233984,-0.000171236,8.6398e-05,-0.000110692,-0.000294528,0.959562,0.000171785,0.0186769,1623,463,2.97123,5.24799
406,561,2.99915,-5.11594,0.000181874,0.000205549,0.00068947,0.000883282,-0.00049586,0.793982,0.000806653,0.0182783,1630,463,2.99919,5.11594
413,561,2.9873,-4.97327,0.000131121,0.000336315,0.00129702,0.00153479,-0.00106735,0.824867,0.0015104,0.017094,1637,463,2.98726,4.97328
420,561,2.98743,-4.81122,-3.58776e-05,0.000525842,0.00158481,0.00185448,-0.00136452,0.873098,0.00186566,0.0135403,1644,463,2.98738,4.81122
427,561,3.005,-4.65753,-0.000133437,0.0009168,0.0016768,0.00214879,-0.00136542,0.937144,0.00204566,0.00973579,1651,463,3.00497,4.65752
434,561,3.0166,-4.51172,-0.00025022,0.00115431,0.00196972,0.00254321,-0.00163912,0.956638,0.00243341,0.0103168,1658,463,3.01658,4.51173
441,561,3.01221,-4.37918,-0.000564758,0.00137364,0.00223948,0.00284465,-0.00203577,0.989619,0.00283058,0.013457,1665,463,3.01217,4.37917
448,561,3.06165,-4.22086,-0.00147697,0.00176829,0.00226718,0.00293368,-0.00264236,1.09599,0.00322079,0.0181926,1672,463,3.0616,4.22086
455,561,3.18958,-3.97476,-0.00339072,0.00264104,0.00167437,0.00307466,-0.00382434,1.31739,0.00399097,0.0341324,1679,463,3.18961,3.97477
462,561,2.9707,-3.74359,-0.00613042,0.00419495,0.000177466,0.004198,-0.00613347,1.55362,0.00599966,0.0333158,1686,463,2.97073,3.74358
469,561,2.91028,-3.67264,-0.00946125,0.00587248,-0.00214671,0.00616735,-0.00975612,-1.43429,0.00927092,0.0228868,1693,463,2.91023,3.67265
476,561,2.8479,-3.54306,-0.0138042,0.00802068,-0.00539797,0.00928278,-0.0150663,-1.34111,0.0141895,0.0407385,1700,463,2.84788,3.54306
483,561,2.80139,-3.42209,0,0,0,0,0,0,0,-1,1707,463,2.80139,3.42209
490,561,3.53809,-1.85056,0,0,0,0,0,0,0,-1,1714,463,3.53814,1.85055
497,561,3.55115,-1.85992,0,0,0,0,0,0,0,-1,1721,463,3.55121,1.85993
504,561,1.04834,-2.51721,0,0,0,0,0,0,0,-1,1728,463,1.0484,2.51722
511,561,0,0,0,0,0,0,0,0,0,-1,1735,463,0,0
518,561,0,0,0,0,0,0,0,0,0,-1,1742,463,0,0
525,561,0,0,0,0,0,0,0,0,0,-1,1749,463,0,0
532,561,0,0,0,0,0,0,0,0,0,-1,1756,463,0,0
539,561,0,0,0,0,0,0,0,0,0,-1,1763,463,0,0
546,561,0,0,0,0,0,0,0,0,0,-1,1770,463,0,0
553,561,0,0,0,0,0,0,0,0,0,-1,1777,463,0,0
560,561,0,0,0,0,0,0,0,0,0,-1,1784,463,0,0
567,561,0,0,0,0,0,0,0,0,0,-1,1791,463,0,0
574,561,0,0,0,0,0,0,0,0,0,-1,1798,463,0,0
581,561,0,0,0,0,0,0,0,0,0,-1,1805,463,0,0
588,561,0,0,0,0,0,0,0,0,0,-1,1812,463,0,0
595,561,0,0,0,0,0,0,0,0,0,-1,1819,463,0,0
602,561,0,0,0,0,0,0,0,0,0,-1,1826,463,0,0
609,561,0,0,0,0,0,0,0,0,0,-1,1833,463,0,0
616,561,0,0,0,0,0,0,0,0,0,-1,1840,463,0,0
623,561,0,0,0,0,0,0,0,0,0,-1,1847,463,0,0
630,561,0,0,0,0,0,0,0,0,0,-1,1854,463,0,0
637,561,0,0,0,0,0,0,0,0,0,-1,1861,463,0,0
644,561,0,0,0,0,0,0,0,0,0,-1,1868,463,0,0
651,561,0,0,0,0,0,0,0,0,0,-1,1875,463,0,0
658,561,0,0,0,0,0,0,0,0,0,-1,1882,463,0,0
665,561,0,0,0,0,0,0,0,0,0,-1,1889,463,0,0
672,561,0,0,0,0,0,0,0,0,0,-1,1896,463,0,0
679,561,0,0,0,0,0,0,0,0,0,-1,1903,463,0,0
686,561,0,0,0,0,0,0,0,0,0,-1,1910,463,0,0
693,561,0,0,0,0,0,0,0,0,0,-1,1917,463,0,0
700,561,0,0,0,0,0,0,0,0,0,-1,1924,463,0,0
707,561,0,0,0,0,0,0,0,0,0,-1,1931,463,0,0
714,561,0,0,0,0,0,0,0,0,0,-1,1938,463,0,0
721,561,0,0,0,0,0,0,0,0,0,-1,1945,463,0,0
728,561,0,0,0,0,0,0,0,0,0,-1,1952,463,0,0
735,561,0,0,0,0,0,0,0,0,0,-1,1959,463,0,0
742,561,0,0,0,0,0,0,0,0,0,-1,1966,463,0,0
749,561,0,0,0,0,0,0,0,0,0,-1,1973,463,0,0
756,561,0,0,0,0,0,0,0,0,0,-1,1980,463,0,0
763,561,0,0,0,0,0,0,0,0,0,-1,1987,463,0,0
770,561,0,0,0,0,0,0,0,0,0,-1,1994,463,0,0
777,561,0,0,0,0,0,0,0,0,0,-1,2001,463,0,0
784,561,0,0,0,0,0,0,0,0,0,-1,2008,463,0,0
791,561,0,0,0,0,0,0,0,0,0,-1,2015,463,0,0
798,561,0,0,0,0,0,0,0,0,0,-1,2022,463,0,0
805,561,0,0,0,0,0,0,0,0,0,-1,2029,463,0,0
812,561,0,0,0,0,0,0,0,0,0,-1,2036,463,0,0
-700,554,0,0,0,0,0,0,0,0,0,-1,524,470,0,0
-693,554,0,0,0,0,0,0,0,0,0,-1,531,470,0,0
-686,554,0,0,0,0,0,0,0,0,0,-1,538,470,0,0
-679,554,0,0,0,0,0,0,0,0,0,-1,545,470,0,0
-672,554,0,0,0,0,0,0,0,0,0,-1,552,470,0,0
-665,554,0,0,0,0,0,0,0,0,0,-1,559,470,0,0
-658,554,0,0,0,0,0,0,0,0,0,-1,566,470,0,0
-651,554,0,0,0,0,0,0,0,0,0,-1,573,470,0,0
-644,554,0,0,0,0,0,0,0,0,0,-1,580,470,0,0
-637,554,0,0,0,0,0,0,0,0,0,-1,587,470,0,0
-630,554,0,0,0,0,0,0,0,0,0,-1,594,470,0,0
-623,554,0,0,0,0,0,0,0,0,0,-1,601,470,0,0
-616,554,0,0,0,0,0,0,0,0,0,-1,608,470,0,0
-609,554,0,0,0,0,0,0,0,0,0,-1,615,470,0,0
-602,554,0,0,0,0,0,0,0,0,0,-1,622,470,0,0
-595,554,0,0,0,0,0,0,0,0,0,-1,629,470,0,0
-588,554,0,0,0,0,0,0,0,0,0,-1,636,470,0,0
-581,554,0,0,0,0,0,0,0,0,0,-1,643,470,0,0
-574,554,0,0,0,0,0,0,0,0,0,-1,650,470,0,0
-567,554,0,0,0,0,0,0,0,0,0,-1,657,470,0,0
-560,554,0,0,0,0,0,0,0,0,0,-1,664,470,0,0
-553,554,0,0,0,0,0,0,0,0,0,-1,671,470,0,0
-546,554,0,0,0,0,0,0,0,0,0,-1,678,470,0,0
-539,554,0,0,0,0,0,0,0,0,0,-1,685,470,0,0
-532,554,0,0,0,0,0,0,0,0,0,-1,692,470,0,0
-525,554,0,0,0,0,0,0,0,0,0,-1,699,470,0,0
-518,554,0,0,0,0,0,0,0,0,0,-1,706,470,0,0
-511,554,0,0,0,0,0,0,0,0,0,-1,713,470,0,0
-504,554,0,0,0,0,0,0,0,0,0,-1,720,470,0,0
-497,554,0,0,0,0,0,0,0,0,0,-1,727,470,0,0
-490,554,0,0,0,0,0,0,0,0,0,-1,734,470,0,0
-483,554,0,0,0,0,0,0,0,0,0,-1,741,470,0,0
-476,554,0,0,0,0,0,0,0,0,0,-1,748,470,0,0
-469,554,0,0,0,0,0,0,0,0,0,-1,755,470,0,0
-462,554,0,0,0,0,0,0,0,0,0,-1,762,470,0,0
-455,554,0,0,0,0,0,0,0,0,0,-1,769,470,0,0
-448,554,0,0,0,0,0,0,0,0,0,-1,776,470,0,0
-441,554,0,0,0,0,0,0,0,0,0,-1,783,470,0,0
-434,554,0,0,0,0,0,0,0,0,0,-1,790,470,0,0
-427,554,0,0,0,0,0,0,0,0,0,-1,797,470,0,0
-420,554,0,0,0,0,0,0,0,0,0,-1,804,470,0,0
-413,554,0,0,0,0,0,0,0,0,0,-1,811,470,0,0
-406,554,0,0,0,0,0,0,0,0,0,-1,818,470,0,0
-399,554,0.139099,-3.37323,0.110312,-0.00191001,-0.0572804,0.134385,-0.0259832,-0.397856,0.0993896,0.0464632,825,470,0.139082,3.37324
-392,554,0.617798,-3.08887,0.0947422,-0.00361911,-0.0505919,0.116118,-0.0249953,-0.399771,0.08695,0.0475119,832,470,0.61779,3.08886
-385,554,1.05798,-2.50409,0,0,0,0,0,0,0,-1,839,470,1.058,2.50409
-378,554,0.708435,-3.3783,0,0,0,0,0,0,0,-1,846,470,0.708463,3.37829
-371,554,1.53546,-4.47464,0,0,0,0,0,0,0,-1,853,470,1.53547,4.47464
-364,554,0.907227,-4.44827,0,0,0,0,0,0,0,-1,860,470,0.907255,4.44828
-357,554,2.18787,-3.63782,0,0,0,0,0,0,0,-1,867,470,2.18788,3.63781
-350,554,1.13855,-5.14941,0,0,0,0,0,0,0,-1,874,470,1.13855,5.14942
-343,554,1.10858,-5.06042,-0.00519732,-0.0223277,0.00183068,-0.00500386,-0.0225212,0.105283,0.0136553,0.0440871,881,470,1.10858,5.06041
-336,554,0.978638,-5.05017,-0.00796099,-0.0211088,0.00358777,-0.00704568,-0.0220241,0.249791,0.0129877,0.031671,888,470,0.978629,5.05016
-329,554,0.944763,-5.17993,-0.00651657,-0.0179421,0.00304324,-0.00575655,-0.0187021,0.244735,0.0110604,0.0160048,895,470,0.944765,5.17993
-322,554,0.964966,-5.28992,-0.00511056,-0.0146157,0.00244021,-0.0045207,-0.0152055,0.237176,0.00901615,0.00963074,902,470,0.964962,5.28991
-315,554,0.96698,-5.40375,-0.00396077,-0.0115016,0.00194113,-0.00349043,-0.011972,0.23772,0.00710943,0.00973362,909,470,0.967003,5.40376
-308,554,0.963684,-5.53293,-0.00291472,-0.00879753,0.00141933,-0.00259018,-0.00912206,0.224788,0.00542804,0.012622,916,470,0.963655,5.53294
-301,554,0.974609,-5.66275,-0.00200587,-0.00657634,0.00101337,-0.00179126,-0.00679095,0.208694,0.004064,0.0134095,923,470,0.974597,5.66275
-294,554,0.954956,-5.80072,-0.00125656,-0.00473389,0.000674728,-0.00113023,-0.00486022,0.185091,0.00293682,0.0119197,930,470,0.954945,5.80073
-287,554,0.931519,-5.91223,-0.000599473,-0.00327308,0.000318309,-0.000562099,-0.00331045,0.11688,0.00204551,0.0110622,937,470,0.931542,5.91223
-280,554,0.922913,-6.02057,-0.000293593,-0.00241407,9.10019e-05,-0.000289695,-0.00241796,0.0428109,0.00152461,0.0101588,944,470,0.922931,6.02057
-273,554,0.920593,-6.15735,1.8576e-05,-0.00131955,-0.000215391,5.23917e-05,-0.00135337,-0.155726,0.000920208,0.0138109,951,470,0.920585,6.15735
-266,554,0.927551,-6.28491,0.00027814,-0.000692774,-0.000487487,0.00048066,-0.000895294,-0.393742,0.000806341,0.0119728,958,470,0.927523,6.28493
-259,554,0.9328,-6.40189,0.00043728,-0.000660417,-0.000629287,0.000723439,-0.000946576,-0.426785,0.000967048,0.0119758,965,470,0.932815,6.40189
-252,554,0.934937,-6.49799,0.000447538,-0.000565345,-0.000874782,0.000951901,-0.00106971,-0.523005,0.00116784,0.0141408,972,470,0.934938,6.49799
-245,554,0.932251,-6.60486,0.000303615,-0.000556535,-0.00123397,0.00118031,-0.00143323,-0.617716,0.00151128,0.0154955,979,470,0.932276,6.60485
-238,554,0.938599,-6.73013,0.000168009,-0.000601902,-0.00158618,0.00141528,-0.00184917,-0.666353,0.00189027,0.0111752,986,470,0.938592,6.73014
-231,554,0.94635,-6.85648,8.14796e-05,-0.000581345,-0.00196353,0.00174137,-0.00224123,-0.701794,0.00230538,0.00955433,993,470,0.946373,6.85649
-224,554,0.954102,-6.95901,1.84086e-05,-0.000819073,-0.00231736,0.00195455,-0.00275522,-0.696014,0.00273225,0.00951943,1000,470,0.954086,6.95901
-217,554,0.988281,-7.04895,-4.17941e-05,-0.00095,-0.00279291,0.00233369,-0.00332548,-0.704808,0.003284,0.00968109,1007,470,0.98827,7.04894
-210,554,1.02808,-7.16275,-0.000160008,-0.00109543,-0.00321212,0.00261827,-0.00387371,-0.713102,0.00377143,0.0131284,1014,470,1.02809,7.16275
-203,554,1.01331,-7.30432,-0.000258269,-0.0013957,-0.00369771,0.0029142,-0.00456817,-0.709095,0.00435499,0.0203371,1021,470,1.0133,7.30433
-196,554,1.00781,-7.36713,-0.000491889,-0.00105715,-0.00418479,0.00341981,-0.00496885,-0.751681,0.00487064,0.0262098,1028,470,1.00787,7.36714
-189,554,1.05579,-7.44989,-0.000725247,-0.000690991,-0.0044736,0.00376551,-0.00518175,-0.787313,0.00518723,0.0302232,1035,470,1.05584,7.44989
-182,554,1.12708,-7.50076,-0.000848372,0.000244534,-0.00456936,0.0043,-0.00490384,-0.844911,0.00531765,0.037885,1042,470,1.12704,7.50077
-175,554,1.13855,-7.46808,-0.000340665,0.00165246,-0.00500244,0.00575664,-0.00444485,-0.883719,0.00590604,0.046376,1049,470,1.13852,7.46809
-168,554,1.32654,-7.44104,0,0,0,0,0,0,0,-1,1056,470,1.32649,7.44105
-161,554,1.02258,-7.93509,0,0,0,0,0,0,0,-1,1063,470,1.02257,7.9351
-154,554,1.07629,-7.93781,0,0,0,0,0,0,0,-1,1070,470,1.07629,7.93781
-147,554,1.0116,-8.78653,0,0,0,0,0,0,0,-1,1077,470,1.01159,8.78652
-140,554,-2.1781,-4.32184,0,0,0,0,0,0,0,-1,1084,470,-2.17808,4.32185
-133,554,-0.830078,-5.08127,0,0,0,0,0,0,0,-1,1091,470,-0.830078,5.08128
-126,554,0.383545,-5.81537,0,0,0,0,0,0,0,-1,1098,470,0.383508,5.81537
-119,554,1.27966,-6.15982,0,0,0,0,0,0,0,-1,1105,470,1.27962,6.15982
-112,554,2.71375,-6.02573,0,0,0,0,0,0,0,-1,1112,470,2.71374,6.02574
-105,554,2.49744,-7.02872,0,0,0,0,0,0,0,-1,1119,470,2.49741,7.02871
-98,554,-0.573242,-8.06555,0,0,0,0,0,0,0,-1,1126,470,-0.573201,8.06555
-91,554,-0.60437,-5.328,0,0,0,0,0,0,0,-1,1133,470,-0.604344,5.32801
-84,554,-1.47241,3.85419,0,0,0,0,0,0,0,-1,1140,470,-1.47239,-3.8542
-77,554,-2.56958,1.33258,0,0,0,0,0,0,0,-1,1147,470,-2.56959,-1.33257
-70,554,-3.68164,-1.18332,0,0,0,0,0,0,0,-1,1154,470,-3.68158,1.18331
-63,554,-4.86853,-3.88708,0,0,0,0,0,0,0,-1,1161,470,-4.86853,3.88708
-56,554,-5.69958,-6.45422,0,0,0,0,0,0,0,-1,1168,470,-5.69955,6.45422
-49,554,-6.23645,-8.8569,0,0,0,0,0,0,0,-1,1175,470,-6.23643,8.85689
-42,554,-6.62524,-11.5382,0,0,0,0,0,0,0,-1,1182,470,-6.62522,11.5382
-35,554,-2.40173,-4.59482,0,0,0,0,0,0,0,-1,1189,470,-2.40169,4.59481
-28,554,-0.760132,-1.65555,0,0,0,0,0,0,0,-1,1196,470,-0.760095,1.65556
-21,554,-0.326904,-1.55664,0,0,0,0,0,0,0,-1,1203,470,-0.326898,1.55664
-14,554,8.2019,-4.71942,0,0,0,0,0,0,0,-1,1210,470,8.20193,4.71943
-7,554,7.56934,-7.24402,0,0,0,0,0,0,0,-1,1217,470,7.56929,7.24402
0,554,-0.518677,-12.2898,0,0,0,0,0,0,0,-1,1224,470,-0.51868,12.2898
7,554,-0.345947,-12.2596,0.037886,0.112555,0.0387228,0.12901,0.0214309,1.16897,0.0798278,0.0489512,1231,470,-0.345934,12.2596
14,554,-0.169434,-12.2002,0.0550046,0.110012,0.0328916,0.125384,0.0396328,1.13361,0.0740046,0.0465152,1238,470,-0.169408,12.2002
21,554,-0.0130615,-12.1855,0,0,0,0,0,0,0,-1,1245,470,-0.0130792,12.1856
28,554,-3.30444,-10.3476,0,0,0,0,0,0,0,-1,1252,470,-3.30441,10.3476
35,554,-2.20996,-10.8203,0,0,0,0,0,0,0,-1,1259,470,-2.20993,10.8203
42,554,-0.996582,-11.2112,0,0,0,0,0,0,0,-1,1266,470,-0.996627,11.2112
49,554,0.333374,-11.769,0.0502709,0.0377746,0.00267347,0.0508188,0.0372267,0.202155,0.0303795,0.0461922,1273,470,0.333317,11.769
56,554,1.44836,-12.3932,0.043167,0.0217649,-0.00141003,0.0432595,0.0216724,-0.0655055,0.0249759,0.0461452,1280,470,1.4484,12.3932
63,554,2.43738,-12.7866,0,0,0,0,0,0,0,-1,1287,470,2.43738,12.7866
70,554,0.499634,-6.07697,0.0146763,-0.00967652,-0.00602994,0.0160876,-0.0110878,-0.229906,0.015778,0.0465415,1294,470,0.499629,6.07697
77,554,0.0344238,-6.22485,-0.00922658,-0.0176139,-0.00191521,-0.00880995,-0.0180306,-0.214202,0.0104108,0.045665,1301,470,0.0343856,6.22486
84,554,-0.438232,-6.17926,-0.0324011,-0.024332,0.00292042,-0.0233859,-0.0333472,1.25752,0.0197662,0.0442074,1308,470,-0.438283,6.17927
91,554,-0.911743,-5.9646,0,0,0,0,0,0,0,-1,1315,470,-0.91171,5.9646
98,554,5.15479,-14.4662,0,0,0,0,0,0,0,-1,1322,470,5.15477,14.4662
105,554,6.45862,-16.0302,0,0,0,0,0,0,0,-1,1329,470,6.45859,16.0302
112,554,7.59583,-17.0872,0,0,0,0,0,0,0,-1,1336,470,7.59585,17.0872
119,554,8.57361,-18.0238,0,0,0,0,0,0,0,-1,1343,470,8.57359,18.0238
126,554,9.58008,-19.054,0,0,0,0,0,0,0,-1,1350,470,9.58014,19.054
133,554,1.04993,-7.31958,0,0,0,0,0,0,0,-1,1357,470,1.04987,7.31957
140,554,0.348145,-7.3974,-0.0603771,-0.0159623,0.064912,0.030436,-0.106775,0.950215,0.0832056,0.0474647,1364,470,0.3481,7.39741
147,554,-0.0281982,-6.72992,-0.0459254,-0.0189043,0.0721424,0.0409818,-0.105811,0.877964,0.0874628,0.0477618,1371,470,-0.0282156,6.72991
154,554,-0.275146,-5.95938,-0.0308156,-0.0184853,0.0770689,0.0526647,-0.101966,0.825311,0.0907757,0.0480701,1378,470,-0.2751,5.95937
161,554,-0.410767,-5.25067,0,0,0,0,0,0,0,-1,1385,470,-0.410715,5.25066
168,554,-0.586548,-4.50751,0,0,0,0,0,0,0,-1,1392,470,-0.586565,4.50752
175,554,10.663,0.286957,0,0,0,0,0,0,0,-1,1399,470,10.663,-0.286966
182,554,6.71106,-4.50217,0,0,0,0,0,0,0,-1,1406,470,6.71107,4.50215
189,554,6.90479,-2.50348,0,0,0,0,0,0,0,-1,1413,470,6.90477,2.50348
196,554,6.96216,-0.740906,0,0,0,0,0,0,0,-1,1420,470,6.96214,0.740912
203,554,6.43518,0.414154,0,0,0,0,0,0,0,-1,1427,470,6.43523,-0.414141
210,554,6.21167,1.96707,0,0,0,0,0,0,0,-1,1434,470,6.21165,-1.96706
217,554,5.64551,3.4989,0,0,0,0,0,0,0,-1,1441,470,5.64555,-3.49891
224,554,4.85144,-8.85172,0,0,0,0,0,0,0,-1,1448,470,4.85146,8.85173
231,554,3.25073,-5.29642,0,0,0,0,0,0,0,-1,1455,470,3.25078,5.29642
238,554,4.28625,-3.25253,0,0,0,0,0,0,0,-1,1462,470,4.28622,3.25252
245,554,4.0752,-2.90033,0,0,0,0,0,0,0,-1,1469,470,4.07515,2.90032
252,554,3.52112,-0.934998,0,0,0,0,0,0,0,-1,1476,470,3.52113,0.934996
259,554,3.96448,-2.16425,0,0,0,0,0,0,0,-1,1483,470,3.96446,2.16424
266,554,3.0592,-2.71716,0,0,0,0,0,0,0,-1,1490,470,3.05923,2.71718
273,554,2.58521,-3.06876,0,0,0,0,0,0,0,-1,1497,470,2.58524,3.06874
280,554,2.83301,-0.991699,0,0,0,0,0,0,0,-1,1504,470,2.83303,0.991704
287,554,3.54126,-4.12277,0,0,0,0,0,0,0,-1,1511,470,3.54123,4.12277
294,554,3.16394,-6.3118,0,0,0,0,0,0,0,-1,1518,470,3.16397,6.31179
301,554,3.06189,-6.77527,0,0,0,0,0,0,0,-1,1525,470,3.06185,6.77526
308,554,3.53052,-6.60571,0,0,0,0,0,0,0,-1,1532,470,3.53049,6.60572
315,554,3.45239,-6.60614,-0.00479842,-0.00985336,-0.00879808,0.00182804,-0.0164798,-0.645527,0.0116438,0.0458914,1539,470,3.45238,6.60614
322,554,3.18677,-6.55365,-0.00434601,-0.00791899,-0.00786915,0.00193689,-0.0142019,-0.673778,0.0101752,0.035501,1546,470,3.18672,6.55365
329,554,3.10266,-6.50287,-0.00384682,-0.00677891,-0.00714157,0.00197763,-0.0126034,-0.684163,0.0091331,0.0187136,1553,470,3.10263,6.50287
336,554,3.10278,-6.4249,-0.00303582,-0.00557661,-0.0061775,0.00200056,-0.010613,-0.683988,0.00782786,0.0107385,1560,470,3.10282,6.42491
343,554,3.1012,-6.31418,-0.00257038,-0.00468871,-0.00541676,0.0018898,-0.00914888,-0.688849,0.00681707,0.00902612,1567,470,3.10116,6.31418
350,554,3.12524,-6.18268,-0.00223482,-0.00364893,-0.00471557,0.00182641,-0.00771016,-0.710983,0.00584482,0.0086382,1574,470,3.12523,6.18268
357,554,3.14697,-6.04709,-0.00191855,-0.00310105,-0.00410048,0.00163309,-0.00665269,-0.713796,0.00506797,0.00995081,1581,470,3.14698,6.04708
364,554,3.1449,-5.92743,-0.00163366,-0.00257267,-0.00350699,0.00143511,-0.00564145,-0.718855,0.00431954,0.00879475,1588,470,3.14489,5.92742
371,554,3.13696,-5.80347,-0.00125956,-0.00203273,-0.00278603,0.00116657,-0.00445887,-0.716459,0.00342825,0.00877772,1595,470,3.13697,5.80347
378,554,3.14111,-5.66727,-0.00102615,-0.0016069,-0.00223135,0.000933638,-0.00356668,-0.720694,0.0027425,0.0106443,1602,470,3.14115,5.66725
385,554,3.15491,-5.52383,-0.000868295,-0.00129123,-0.00176662,0.000699475,-0.002859,-0.725832,0.00217694,0.0101871,1609,470,3.15488,5.52382
392,554,3.13635,-5.37747,-0.000619133,-0.00107276,-0.00130287,0.000476523,-0.00216842,-0.699218,0.00162787,0.0130895,1616,470,3.1363,5.37749
399,554,3.13696,-5.23569,-0.00020014,-0.000754336,-0.000697943,0.0002737,-0.00122818,-0.596431,0.000923635,0.0177066,1623,470,3.13702,5.23569
406,554,3.1554,-5.11353,0.000182774,-0.0003362,-4.96172e-05,0.000187475,-0.000340901,-0.0944662,0.000309315,0.0169273,1630,470,3.1554,5.11354
413,554,3.14526,-4.95346,0.000232415,-9.78563e-05,0.000585413,0.000675537,-0.000540979,0.647928,0.000703787,0.0161904,1637,470,3.14528,4.95345
420,554,3.13513,-4.82257,0.000178842,0.000111644,0.000949206,0.00109504,-0.000804557,0.767707,0.001101,0.0168527,1644,470,3.13509,4.82258
427,554,3.13782,-4.69022,0.000134492,0.000480337,0.00114624,0.00146663,-0.000851798,0.860264,0.00135414,0.0108446,1651,470,3.13778,4.69022
434,554,3.13525,-4.53125,3.39158e-05,0.000761948,0.00143619,0.00187954,-0.00108367,0.909514,0.00173126,0.00929359,1658,470,3.13528,4.53125
441,554,3.146,-4.36267,-0.000142981,0.00106653,0.00174948,0.00231283,-0.00138928,0.951807,0.00215947,0.0102213,1665,470,3.14596,4.36268
448,554,3.14368,-4.20529,-0.000784169,0.00154782,0.00190004,0.0026111,-0.00184745,1.0606,0.0025867,0.0117648,1672,470,3.14366,4.20529
455,554,3.14722,-4.03659,-0.00243027,0.00250057,0.00141687,0.00287871,-0.00280841,1.30999,0.00328354,0.0135496,1679,470,3.14718,4.03658
462,554,3.13721,-3.87732,-0.00488092,0.00409539,-7.1753e-06,0.0040954,-0.00488092,-1.57,0.00518909,0.0168187,1686,470,3.1372,3.87732
469,554,3.08069,-3.72177,-0.00783631,0.00569891,-0.00221596,0.00605247,-0.00818987,-1.41258,0.00825362,0.0234238,1693,470,3.08064,3.72179
476,554,3.2428,-3.61066,-0.0116648,0.00755677,-0.00516607,0.00885723,-0.0129653,-1.32419,0.0126734,0.0435896,1700,470,3.24274,3.61064
483,554,3.43237,-3.52148,0,0,0,0,0,0,0,-1,1707,470,3.43239,3.52149
490,554,3.57263,-2.28433,0,0,0,0,0,0,0,-1,1714,470,3.57266,2.28432
497,554,3.51331,-2.32608,0,0,0,0,0,0,0,-1,1721,470,3.51335,2.32607
504,554,3.62061,-2.60568,0,0,0,0,0,0,0,-1,1728,470,3.6206,2.60567
511,554,-0.234375,-0.243439,0,0,0,0,0,0,0,-1,1735,470,-0.234366,0.243431
518,554,-1.15686,-2.436,0,0,0,0,0,0,0,-1,1742,470,-1.15691,2.43599
525,554,0,0,0,0,0,0,0,0,0,-1,1749,470,0,0
532,554,0,0,0,0,0,0,0,0,0,-1,1756,470,0,0
539,554,0,0,0,0,0,0,0,0,0,-1,1763,470,0,0
546,554,0,0,0,0,0,0,0,0,0,-1,1770,470,0,0
553,554,0,0,0,0,0,0,0,0,0,-1,1777,470,0,0
560,554,0,0,0,0,0,0,0,0,0,-1,1784,470,0,0
567,554,0,0,0,0,0,0,0,0,0,-1,1791,470,0,0
574,554,0,0,0,0,0,0,0,0,0,-1,1798,470,0,0
581,554,0,0,0,0,0,0,0,0,0,-1,1805,470,0,0
588,554,0,0,0,0,0,0,0,0,0,-1,1812,470,0,0
595,554,0,0,0,0,0,0,0,0,0,-1,1819,470,0,0
602,554,0,0,0,0,0,0,0,0,0,-1,1826,470,0,0
609,554,0,0,0,0,0,0,0,0,0,-1,1833,470,0,0
616,554,0,0,0,0,0,0,0,0,0,-1,1840,470,0,0
623,554,0,0,0,0,0,0,0,0,0,-1,1847,470,0,0
630,554,0,0,0,0,0,0,0,0,0,-1,1854,470,0,0
637,554,0,0,0,0,0,0,0,0,0,-1,1861,470,0,0
644,554,0,0,0,0,0,0,0,0,0,-1,1868,470,0,0
651,554,0,0,0,0,0,0,0,0,0,-1,1875,470,0,0
658,554,0,0,0,0,0,0,0,0,0,-1,1882,470,0,0
665,554,0,0,0,0,0,0,0,0,0,-1,1889,470,0,0
672,554,0,0,0,0,0,0,0,0,0,-1,1896,470,0,0
679,554,0,0,0,0,0,0,0,0,0,-1,1903,470,0,0
686,554,0,0,0,0,0,0,0,0,0,-1,1910,470,0,0
693,554,0,0,0,0,0,0,0,0,0,-1,1917,470,0,0
700,554,0,0,0,0,0,0,0,0,0,-1,1924,470,0,0
707,554,0,0,0,0,0,0,0,0,0,-1,1931,470,0,0
714,554,0,0,0,0,0,0,0,0,0,-1,1938,470,0,0
721,554,0,0,0,0,0,0,0,0,0,-1,1945,470,0,0
728,554,0,0,0,0,0,0,0,0,0,-1,1952,470,0,0
735,554,0,0,0,0,0,0,0,0,0,-1,1959,470,0,0
742,554,0,0,0,0,0,0,0,0,0,-1,1966,470,0,0
749,554,0,0,0,0,0,0,0,0,0,-1,1973,470,0,0
756,554,0,0,0,0,0,0,0,0,0,-1,1980,470,0,0
763,554,0,0,0,0,0,0,0,0,0,-1,1987,470,0,0
770,554,0,0,0,0,0,0,0,0,0,-1,1994,470,0,0
777,554,0,0,0,0,0,0,0,0,0,-1,2001,470,0,0
784,554,0,0,0,0,0,0,0,0,0,-1,2008,470,0,0
791,554,0,0,0,0,0,0,0,0,0,-1,2015,470,0,0
798,554,0,0,0,0,0,0,0,0,0,-1,2022,470,0,0
805,554,0,0,0,0,0,0,0,0,0,-1,2029,470,0,0
812,554,0,0,0,0,0,0,0,0,0,-1,2036,470,0,0
-700,547,0,0,0,0,0,0,0,0,0,-1,524,477,0,0
-693,547,0,0,0,0,0,0,0,0,0,-1,531,477,0,0
-686,547,0,0,0,0,0,0,0,0,0,-1,538,477,0,0
-679,547,0,0,0,0,0,0,0,0,0,-1,545,477,0,0
-672,547,0,0,0,0,0,0,0,0,0,-1,552,477,0,0
-665,547,0,0,0,0,0,0,0,0,0,-1,559,477,0,0
-658,547,0,0,0,0,0,0,0,0,0,-1,566,477,0,0
-651,547,0,0,0,0,0,0,0,0,0,-1,573,477,0,0
-644,547,0,0,0,0,0,0,0,0,0,-1,580,477,0,0
-637,547,0,0,0,0,0,0,0,0,0,-1,587,477,0,0
-630,547,0,0,0,0,0,0,0,0,0,-1,594,477,0,0
-623,547,0,0,0,0,0,0,0,0,0,-1,601,477,0,0
-616,547,0,0,0,0,0,0,0,0,0,-1,608,477,0,0
-609,547,0,0,0,0,0,0,0,0,0,-1,615,477,0,0
-602,547,0,0,0,0,0,0,0,0,0,-1,622,477,0,0
-595,547,0,0,0,0,0,0,0,0,0,-1,629,477,0,0
-588,547,0,0,0,0,0,0,0,0,0,-1,636,477,0,0
-581,547,0,0,0,0,0,0,0,0,0,-1,643,477,0,0
-574,547,0,0,0,0,0,0,0,0,0,-1,650,477,0,0
-567,547,0,0,0,0,0,0,0,0,0,-1,657,477,0,0
-560,547,0,0,0,0,0,0,0,0,0,-1,664,477,0,0
-553,547,0,0,0,0,0,0,0,0,0,-1,671,477,0,0
-546,547,0,0,0,0,0,0,0,0,0,-1,678,477,0,0
-539,547,0,0,0,0,0,0,0,0,0,-1,685,477,0,0
-532,547,0,0,0,0,0,0,0,0,0,-1,692,477,0,0
-525,547,0,0,0,0,0,0,0,0,0,-1,699,477,0,0
-518,547,0,0,0,0,0,0,0,0,0,-1,706,477,0,0
-511,547,0,0,0,0,0,0,0,0,0,-1,713,477,0,0
-504,547,0,0,0,0,0,0,0,0,0,-1,720,477,0,0
-497,547,0,0,0,0,0,0,0,0,0,-1,727,477,0,0
-490,547,0,0,0,0,0,0,0,0,0,-1,734,477,0,0
-483,547,0,0,0,0,0,0,0,0,0,-1,741,477,0,0
-476,547,0,0,0,0,0,0,0,0,0,-1,748,477,0,0
-469,547,0,0,0,0,0,0,0,0,0,-1,755,477,0,0
-462,547,0,0,0,0,0,0,0,0,0,-1,762,477,0,0
-455,547,0,0,0,0,0,0,0,0,0,-1,769,477,0,0
-448,547,0,0,0,0,0,0,0,0,0,-1,776,477,0,0
-441,547,0,0,0,0,0,0,0,0,0,-1,783,477,0,0
-434,547,0,0,0,0,0,0,0,0,0,-1,790,477,0,0
-427,547,0,0,0,0,0,0,0,0,0,-1,797,477,0,0
-420,547,0,0,0,0,0,0,0,0,0,-1,804,477,0,0
-413,547,0,0,0,0,0,0,0,0,0,-1,811,477,0,0
-406,547,0.207275,-3.15308,0.112268,0.00374811,-0.0442587,0.12803,-0.0120132,-0.342113,0.0896263,0.0455044,818,477,0.207264,3.15306
-399,547,0.776428,-3.1937,0.101079,0.00286581,-0.0421462,0.116686,-0.0127405,-0.354634,0.0823664,0.0456297,825,477,0.776414,3.19368
-392,547,1.42914,-3.08472,0.0869995,0.00126832,-0.0373185,0.100968,-0.0127003,-0.358164,0.0719203,0.0453454,832,477,1.42915,3.08473
-385,547,2.10779,-2.9545,0,0,0,0,0,0,0,-1,839,477,2.10777,2.9545
-378,547,-3.15106,-4.12308,0,0,0,0,0,0,0,-1,846,477,-3.15109,4.12307
-371,547,0.350281,-3.99786,0,0,0,0,0,0,0,-1,853,477,0.350252,3.99786
-364,547,0.723694,-4.31046,0,0,0,0,0,0,0,-1,860,477,0.723718,4.31046
-357,547,0.841919,-4.63205,0,0,0,0,0,0,0,-1,867,477,0.84194,4.63205
-350,547,0.902161,-4.69806,0,0,0,0,0,0,0,-1,874,477,0.902167,4.69805
-343,547,0.887329,-4.86209,-0.00305798,-0.0138577,0.000825273,-0.00299527,-0.0139204,0.0758294,0.00846046,0.0356281,881,477,0.88734,4.86209
-336,547,0.8573,-5.00388,-0.00514902,-0.0132947,0.00218416,-0.00460033,-0.0138434,0.246123,0.00814091,0.0150858,888,477,0.8573,5.00386
-329,547,0.835815,-5.12463,-0.0042582,-0.0115983,0.00189503,-0.00379782,-0.0120587,0.23832,0.00711928,0.00891045,895,477,0.835804,5.12462
-322,547,0.834717,-5.26825,-0.00335757,-0.00959861,0.00155238,-0.00299276,-0.00996342,0.230813,0.00590323,0.0101977,902,477,0.834733,5.26826
-315,547,0.835999,-5.41217,-0.0026241,-0.00761198,0.00129532,-0.00230778,-0.0079283,0.239518,0.00470872,0.0100162,909,477,0.835986,5.41218
-308,547,0.843933,-5.52866,-0.001984,-0.00585135,0.00100073,-0.00174039,-0.00609496,0.238786,0.00362522,0.0111231,916,477,0.84393,5.52864
-301,547,0.841248,-5.66724,-0.00151011,-0.00446561,0.000833683,-0.00129117,-0.00468455,0.256824,0.00279393,0.0110893,923,477,0.841277,5.66724
-294,547,0.819885,-5.80408,-0.00124248,-0.00340066,0.000753951,-0.00100519,-0.00363795,0.304924,0.00216931,0.00984521,930,477,0.819908,5.80407
-287,547,0.800598,-5.91782,-0.0011517,-0.00270547,0.00065228,-0.000914179,-0.00294299,0.349216,0.00173928,0.0109087,937,477,0.800572,5.91781
-280,547,0.796631,-6.04636,-0.0016566,-0.00273227,0.000752548,-0.00126945,-0.00311942,0.475141,0.00181136,0.0117284,944,477,0.796613,6.04637
-273,547,0.80249,-6.15997,-0.00211888,-0.00251322,0.000729456,-0.00156042,-0.00307169,0.653405,0.00177351,0.0115017,951,477,0.802501,6.15999
-266,547,0.809753,-6.284,-0.00268357,-0.0026348,0.000772624,-0.00188618,-0.0034322,0.801173,0.00198482,0.0117726,958,477,0.809731,6.28399
-259,547,0.815918,-6.40457,-0.00334646,-0.00322792,0.000914519,-0.00237075,-0.00420363,0.817759,0.00243358,0.0110414,965,477,0.815935,6.40457
-252,547,0.822815,-6.51334,-0.00409865,-0.00371624,0.000874845,-0.00301195,-0.00480294,0.892985,0.00280269,0.011078,972,477,0.822831,6.51333
-245,547,0.834839,-6.62732,-0.00493831,-0.00422683,0.000667569,-0.00382613,-0.00533901,1.03021,0.00317746,0.0123343,979,477,0.834852,6.62732
-238,547,0.843567,-6.73978,-0.00566322,-0.0047104,0.000394471,-0.00456828,-0.00580534,1.225,0.00353086,0.00863255,986,477,0.843577,6.73977
-231,547,0.842224,-6.85623,-0.006208,-0.0050451,2.66759e-05,-0.00504449,-0.00620861,1.54787,0.00381077,0.00787642,993,477,0.842216,6.85624
-224,547,0.842957,-6.94843,-0.00649409,-0.00540323,-0.000414235,-0.00526376,-0.00663356,-1.24603,0.00404386,0.00948699,1000,477,0.842929,6.94843
-217,547,0.885254,-7.05786,-0.00655899,-0.00549839,-0.00111402,-0.00479489,-0.00726249,-1.00754,0.00426416,0.0123403,1007,477,0.885225,7.05785
-210,547,0.940186,-7.16931,-0.00647124,-0.00542284,-0.00184481,-0.0040292,-0.00786487,-0.923823,0.00454125,0.0207335,1014,477,0.940164,7.1693
-203,547,0.972046,-7.1651,-0.00620309,-0.00539385,-0.0027168,-0.0030517,-0.00854524,-0.859321,0.00500029,0.0355826,1021,477,0.972053,7.16509
-196,547,0.933594,-7.28043,-0.00556197,-0.00438616,-0.00387803,-0.00105173,-0.0088964,-0.860625,0.0056133,0.042397,1028,477,0.933605,7.28041
-189,547,1.01709,-7.37839,-0.00486792,-0.00321152,-0.00477289,0.000804494,-0.00888394,-0.871303,0.00620819,0.0456614,1035,477,1.01712,7.37839
-182,547,1.15784,-7.49567,0,0,0,0,0,0,0,-1,1042,477,1.15788,7.49566
-175,547,1.08447,-6.89252,0,0,0,0,0,0,0,-1,1049,477,1.08449,6.89252
-168,547,1.58667,-7.02173,0,0,0,0,0,0,0,-1,1056,477,1.58671,7.02172
-161,547,1.3147,-7.58066,0,0,0,0,0,0,0,-1,1063,477,1.31467,7.58067
-154,547,1.28894,-7.69382,0,0,0,0,0,0,0,-1,1070,477,1.28896,7.69381
-147,547,0.567017,-6.60828,0,0,0,0,0,0,0,-1,1077,477,0.567012,6.60828
-140,547,1.83264,-7.80319,0,0,0,0,0,0,0,-1,1084,477,1.83266,7.80318
-133,547,-0.473755,-4.74057,0,0,0,0,0,0,0,-1,1091,477,-0.473736,4.74058
-126,547,0.562256,-5.37524,0,0,0,0,0,0,0,-1,1098,477,0.562281,5.37525
-119,547,1.33801,-5.80905,0,0,0,0,0,0,0,-1,1105,477,1.33801,5.80905
-112,547,3.27466,-5.47641,0,0,0,0,0,0,0,-1,1112,477,3.27462,5.47642
-105,547,-0.50647,-7.05853,0,0,0,0,0,0,0,-1,1119,477,-0.506446,7.05853
-98,547,0.289429,-4.92862,0,0,0,0,0,0,0,-1,1126,477,0.289474,4.92861
-91,547,-0.491089,-4.73654,0,0,0,0,0,0,0,-1,1133,477,-0.491051,4.73654
-84,547,-0.648071,3.42496,0,0,0,0,0,0,0,-1,1140,477,-0.648118,-3.42494
-77,547,-2.28357,1.8588,0,0,0,0,0,0,0,-1,1147,477,-2.28356,-1.85879
-70,547,-3.70178,-0.874908,0,0,0,0,0,0,0,-1,1154,477,-3.70182,0.874918
-63,547,-5.12012,-3.60861,0,0,0,0,0,0,0,-1,1161,477,-5.12009,3.60862
-56,547,-6.01917,-6.2399,0,0,0,0,0,0,0,-1,1168,477,-6.01921,6.23991
-49,547,-6.729,-8.60349,0,0,0,0,0,0,0,-1,1175,477,-6.72899,8.60348
-42,547,-2.41736,-5.53012,0,0,0,0,0,0,0,-1,1182,477,-2.41734,5.53011
-35,547,-2.96838,-4.45734,0,0,0,0,0,0,0,-1,1189,477,-2.96839,4.45734
-28,547,-0.869141,-1.29901,0,0,0,0,0,0,0,-1,1196,477,-0.869135,1.29901
-21,547,-0.411865,-1.11679,0,0,0,0,0,0,0,-1,1203,477,-0.411879,1.11679
-14,547,7.94373,-6.3222,0,0,0,0,0,0,0,-1,1210,477,7.94372,6.3222
-7,547,2.50354,-7.88321,0,0,0,0,0,0,0,-1,1217,477,2.50355,7.88322
0,547,2.40405,-8.24176,0,0,0,0,0,0,0,-1,1224,477,2.4041,8.24177
7,547,-0.817139,-12.8347,0,0,0,0,0,0,0,-1,1231,477,-0.817155,12.8347
14,547,0,0,0,0,0,0,0,0,0,-1,1238,477,0,0
21,547,0,0,0,0,0,0,0,0,0,-1,1245,477,0,0
28,547,0,0,0,0,0,0,0,0,0,-1,1252,477,0,0
35,547,0,0,0,0,0,0,0,0,0,-1,1259,477,0,0
42,547,0,0,0,0,0,0,0,0,0,-1,1266,477,0,0
49,547,0,0,0,0,0,0,0,0,0,-1,1273,477,0,0
56,547,0,0,0,0,0,0,0,0,0,-1,1280,477,0,0
63,547,0,0,0,0,0,0,0,0,0,-1,1287,477,0,0
70,547,0,0,0,0,0,0,0,0,0,-1,1294,477,0,0
77,547,0,0,0,0,0,0,0,0,0,-1,1301,477,0,0
84,547,0,0,0,0,0,0,0,0,0,-1,1308,477,0,0
91,547,0,0,0,0,0,0,0,0,0,-1,1315,477,0,0
98,547,0,0,0,0,0,0,0,0,0,-1,1322,477,0,0
105,547,7.28882,-15.8499,0,0,0,0,0,0,0,-1,1329,477,7.28877,15.8498
112,547,8.38293,-17,0,0,0,0,0,0,0,-1,1336,477,8.38298,17
119,547,9.28271,-18.2966,0,0,0,0,0,0,0,-1,1343,477,9.2827,18.2966
126,547,9.91382,-19.3318,0,0,0,0,0,0,0,-1,1350,477,9.91387,19.3318
133,547,0.393555,-8.04904,0,0,0,0,0,0,0,-1,1357,477,0.393512,8.04904
140,547,0.0317383,-7.4277,-0.079288,-0.00737021,0.0664774,0.0322505,-0.118909,1.03332,0.0919281,0.0438061,1364,477,0.031759,7.42772
147,547,-0.337891,-6.80991,-0.0608758,-0.0114274,0.0755576,0.0433483,-0.115651,0.943519,0.0949096,0.0456557,1371,477,-0.337859,6.8099
154,547,-0.556885,-6.13199,-0.0364337,-0.0121461,0.0843772,0.0609567,-0.109537,0.856869,0.0997574,0.0484223,1378,477,-0.556904,6.13197
161,547,-0.846924,-5.45709,0,0,0,0,0,0,0,-1,1385,477,-0.84695,5.45708
168,547,8.99524,-2.06577,0,0,0,0,0,0,0,-1,1392,477,8.99525,2.06576
175,547,3.35034,-0.26532,0,0,0,0,0,0,0,-1,1399,477,3.3503,0.265306
182,547,4.26038,3.72672,0,0,0,0,0,0,0,-1,1406,477,4.26039,-3.7267
189,547,3.40454,1.28671,0,0,0,0,0,0,0,-1,1413,477,3.40457,-1.28673
196,547,3.53931,1.87793,0,0,0,0,0,0,0,-1,1420,477,3.53928,-1.87794
203,547,6.49414,-0.425842,0,0,0,0,0,0,0,-1,1427,477,6.4941,0.425844
210,547,4.82092,0.53595,0,0,0,0,0,0,0,-1,1434,477,4.82096,-0.535942
217,547,4.68579,0.480072,0,0,0,0,0,0,0,-1,1441,477,4.68577,-0.480069
224,547,4.55615,0.739807,0,0,0,0,0,0,0,-1,1448,477,4.55613,-0.73981
231,547,5.90869,-3.57721,0,0,0,0,0,0,0,-1,1455,477,5.90871,3.57722
238,547,5.50049,-3.15356,0,0,0,0,0,0,0,-1,1462,477,5.50045,3.15356
245,547,5.13708,-2.65213,0,0,0,0,0,0,0,-1,1469,477,5.13708,2.65212
252,547,3.73511,-0.645233,0,0,0,0,0,0,0,-1,1476,477,3.73515,0.645237
259,547,5.86816,-3.20816,0,0,0,0,0,0,0,-1,1483,477,5.86815,3.20816
266,547,5.40222,-2.45731,0,0,0,0,0,0,0,-1,1490,477,5.40221,2.45732
273,547,3.05737,0.495789,0,0,0,0,0,0,0,-1,1497,477,3.05742,-0.49578
280,547,2.0885,1.47797,0,0,0,0,0,0,0,-1,1504,477,2.08848,-1.47795
287,547,2.31177,-2.21716,0,0,0,0,0,0,0,-1,1511,477,2.31174,2.21717
294,547,2.4823,-3.03659,0,0,0,0,0,0,0,-1,1518,477,2.48229,3.0366
301,547,4.72119,-3.93454,0,0,0,0,0,0,0,-1,1525,477,4.72119,3.93453
308,547,4.07471,-5.42175,0,0,0,0,0,0,0,-1,1532,477,4.07468,5.42174
315,547,4.04419,-6.6167,0,0,0,0,0,0,0,-1,1539,477,4.04414,6.61669
322,547,3.41199,-6.45212,0,0,0,0,0,0,0,-1,1546,477,3.41199,6.45212
329,547,3.23621,-6.40698,-0.00569301,-0.00905405,-0.00981459,0.00258389,-0.017331,-0.700607,0.0125046,0.0406865,1553,477,3.23625,6.40697
336,547,3.25476,-6.35535,-0.00447647,-0.00735626,-0.00843425,0.00263991,-0.0144726,-0.700853,0.0106381,0.0272096,1560,477,3.2548,6.35535
343,547,3.23877,-6.30652,-0.00371134,-0.00621334,-0.007396,0.00253872,-0.0124634,-0.701619,0.00927175,0.0215803,1567,477,3.23876,6.30651
350,547,3.28418,-6.21762,-0.00318179,-0.00491846,-0.00647661,0.00248443,-0.0105847,-0.718759,0.00801401,0.0166745,1574,477,3.28421,6.21763
357,547,3.27197,-6.06454,-0.00266529,-0.00428342,-0.00569083,0.00227371,-0.00922241,-0.714786,0.00702983,0.0125836,1581,477,3.27191,6.06455
364,547,3.25464,-5.92706,-0.00219194,-0.00365845,-0.00494147,0.00207038,-0.00792077,-0.711742,0.00608912,0.0105044,1588,477,3.25463,5.92705
371,547,3.2522,-5.78787,-0.00162622,-0.00301461,-0.00405126,0.00178988,-0.00643072,-0.700546,0.00499191,0.00961415,1595,477,3.25224,5.78787
378,547,3.2749,-5.64496,-0.00122446,-0.00254335,-0.00335381,0.00153412,-0.00530193,-0.688324,0.00414181,0.0108602,1602,477,3.27489,5.64496
385,547,3.28503,-5.50854,-0.000967507,-0.00216468,-0.00275679,0.00125494,-0.00438712,-0.678492,0.00342068,0.011608,1609,477,3.28498,5.50854
392,547,3.26416,-5.38055,-0.000692828,-0.0018861,-0.0021846,0.000975149,-0.00355408,-0.652094,0.00275263,0.0119863,1616,477,3.26421,5.38056
399,547,3.27405,-5.23834,-0.00031957,-0.00156047,-0.00155199,0.000731396,-0.00261143,-0.595242,0.00202918,0.0133949,1623,477,3.2741,5.23836
406,547,3.29395,-5.09149,4.36492e-05,-0.00108318,-0.000856752,0.000505642,-0.00154517,-0.494543,0.0012337,0.0135434,1630,477,3.2939,5.0915
413,547,3.28674,-4.94888,0.000184072,-0.000724551,-0.000195202,0.000224233,-0.000764712,-0.202908,0.000598716,0.0135676,1637,477,3.28678,4.94887
420,547,3.28662,-4.82269,0.00021857,-0.00048549,0.000234092,0.000289298,-0.000556218,0.293416,0.000496201,0.0156417,1644,477,3.28659,4.8227
427,547,3.27942,-4.68015,0.000231693,-9.57704e-05,0.000527892,0.000620661,-0.000484739,0.635022,0.000639809,0.0137159,1651,477,3.2794,4.68015
434,547,3.25879,-4.51749,0.000174886,0.000244498,0.000841056,0.00105147,-0.000632084,0.806078,0.000982,0.00909737,1658,477,3.25881,4.51748
441,547,3.26233,-4.36865,4.74389e-05,0.000617524,0.00117863,0.00154509,-0.00088013,0.904041,0.00141764,0.00944968,1665,477,3.26238,4.36867
448,547,3.26746,-4.21558,-0.000396879,0.00116209,0.00142818,0.00200966,-0.00124444,1.0352,0.00189599,0.0107341,1672,477,3.2674,4.21556
455,547,3.27734,-4.05997,-0.00179813,0.00214009,0.00105874,0.00240667,-0.00206471,1.32413,0.00258407,0.0112021,1679,477,3.27737,4.05997
462,547,3.26086,-3.90738,-0.00392911,0.00370775,-0.000218002,0.00371397,-0.00393532,-1.54228,0.00441694,0.0108439,1686,477,3.2609,3.90737
469,547,3.24744,-3.76126,-0.00647599,0.00516967,-0.00222601,0.00558066,-0.00688698,-1.38822,0.00721135,0.0190743,1693,477,3.24747,3.76125
476,547,3.31604,-3.5976,-0.009746,0.0066596,-0.00483544,0.00797875,-0.0110651,-1.30447,0.011043,0.0386811,1700,477,3.31606,3.59758
483,547,3.42017,-3.39148,0,0,0,0,0,0,0,-1,1707,477,3.42011,3.39149
490,547,3.45557,-3.1796,0,0,0,0,0,0,0,-1,1714,477,3.45562,3.17958
497,547,3.48352,-2.62775,0,0,0,0,0,0,0,-1,1721,477,3.48347,2.62774
504,547,1.26208,-1.8761,0,0,0,0,0,0,0,-1,1728,477,1.26211,1.87611
511,547,0.334351,-1.07587,0,0,0,0,0,0,0,-1,1735,477,0.334369,1.07586
518,547,-0.545776,-0.796417,0,0,0,0,0,0,0,-1,1742,477,-0.545795,0.796425
525,547,0.781616,-3.76355,0,0,0,0,0,0,0,-1,1749,477,0.781645,3.76354
532,547,0,0,0,0,0,0,0,0,0,-1,1756,477,0,0
539,547,0,0,0,0,0,0,0,0,0,-1,1763,477,0,0
546,547,0,0,0,0,0,0,0,0,0,-1,1770,477,0,0
553,547,0,0,0,0,0,0,0,0,0,-1,1777,477,0,0
560,547,0,0,0,0,0,0,0,0,0,-1,1784,477,0,0
567,547,0,0,0,0,0,0,0,0,0,-1,1791,477,0,0
574,547,0,0,0,0,0,0,0,0,0,-1,1798,477,0,0
581,547,0,0,0,0,0,0,0,0,0,-1,1805,477,0,0
588,547,0,0,0,0,0,0,0,0,0,-1,1812,477,0,0
595,547,0,0,0,0,0,0,0,0,0,-1,1819,477,0,0
602,547,0,0,0,0,0,0,0,0,0,-1,1826,477,0,0
609,547,0,0,0,0,0,0,0,0,0,-1,1833,477,0,0
616,547,0,0,0,0,0,0,0,0,0,-1,1840,477,0,0
623,547,0,0,0,0,0,0,0,0,0,-1,1847,477,0,0
630,547,0,0,0,0,0,0,0,0,0,-1,1854,477,0,0
637,547,0,0,0,0,0,0,0,0,0,-1,1861,477,0,0
644,547,0,0,0,0,0,0,0,0,0,-1,1868,477,0,0
651,547,0,0,0,0,0,0,0,0,0,-1,1875,477,0,0
658,547,0,0,0,0,0,0,0,0,0,-1,1882,477,0,0
665,547,0,0,0,0,0,0,0,0,0,-1,1889,477,0,0
672,547,0,0,0,0,0,0,0,0,0,-1,1896,477,0,0
679,547,0,0,0,0,0,0,0,0,0,-1,1903,477,0,0
686,547,0,0,0,0,0,0,0,0,0,-1,1910,477,0,0
693,547,0,0,0,0,0,0,0,0,0,-1,1917,477,0,0
700,547,0,0,0,0,0,0,0,0,0,-1,1924,477,0,0
707,547,0,0,0,0,0,0,0,0,0,-1,1931,477,0,0
714,547,0,0,0,0,0,0,0,0,0,-1,1938,477,0,0
721,547,0,0,0,0,0,0,0,0,0,-1,1945,477,0,0
728,547,0,0,0,0,0,0,0,0,0,-1,1952,477,0,0
735,547,0,0,0,0,0,0,0,0,0,-1,1959,477,0,0
742,547,0,0,0,0,0,0,0,0,0,-1,1966,477,0,0
749,547,0,0,0,0,0,0,0,0,0,-1,1973,477,0,0
756,547,0,0,0,0,0,0,0,0,0,-1,1980,477,0,0
763,547,0,0,0,0,0,0,0,0,0,-1,1987,477,0,0
770,547,0,0,0,0,0,0,0,0,0,-1,1994,477,0,0
777,547,0,0,0,0,0,0,0,0,0,-1,2001,477,0,0
784,547,0,0,0,0,0,0,0,0,0,-1,2008,477,0,0
791,547,0,0,0,0,0,0,0,0,0,-1,2015,477,0,0
798,547,0,0,0,0,0,0,0,0,0,-1,2022,477,0,0
805,547,0,0,0,0,0,0,0,0,0,-1,2029,477,0,0
812,547,0,0,0,0,0,0,0,0,0,-1,2036,477,0,0
-700,540,0,0,0,0,0,0,0,0,0,-1,524,484,0,0
-693,540,0,0,0,0,0,0,0,0,0,-1,531,484,0,0
-686,540,0,0,0,0,0,0,0,0,0,-1,538,484,0,0
-679,540,0,0,0,0,0,0,0,0,0,-1,545,484,0,0
-672,540,0,0,0,0,0,0,0,0,0,-1,552,484,0,0
-665,540,0,0,0,0,0,0,0,0,0,-1,559,484,0,0
-658,540,0,0,0,0,0,0,0,0,0,-1,566,484,0,0
-651,540,0,0,0,0,0,0,0,0,0,-1,573,484,0,0
-644,540,0,0,0,0,0,0,0,0,0,-1,580,484,0,0
-637,540,0,0,0,0,0,0,0,0,0,-1,587,484,0,0
-630,540,0,0,0,0,0,0,0,0,0,-1,594,484,0,0
-623,540,0,0,0,0,0,0,0,0,0,-1,601,484,0,0
-616,540,0,0,0,0,0,0,0,0,0,-1,608,484,0,0
-609,540,0,0,0,0,0,0,0,0,0,-1,615,484,0,0
-602,540,0,0,0,0,0,0,0,0,0,-1,622,484,0,0
-595,540,0,0,0,0,0,0,0,0,0,-1,629,484,0,0
-588,540,0,0,0,0,0,0,0,0,0,-1,636,484,0,0
-581,540,0,0,0,0,0,0,0,0,0,-1,643,484,0,0
-574,540,0,0,0,0,0,0,0,0,0,-1,650,484,0,0
-567,540,0,0,0,0,0,0,0,0,0,-1,657,484,0,0
-560,540,0,0,0,0,0,0,0,0,0,-1,664,484,0,0
-553,540,0,0,0,0,0,0,0,0,0,-1,671,484,0,0
-546,540,0,0,0,0,0,0,0,0,0,-1,678,484,0,0
-539,540,0,0,0,0,0,0,0,0,0,-1,685,484,0,0
-532,540,0,0,0,0,0,0,0,0,0,-1,692,484,0,0
-525,540,0,0,0,0,0,0,0,0,0,-1,699,484,0,0
-518,540,0,0,0,0,0,0,0,0,0,-1,706,484,0,0
-511,540,0,0,0,0,0,0,0,0,0,-1,713,484,0,0
-504,540,0,0,0,0,0,0,0,0,0,-1,720,484,0,0
-497,540,0,0,0,0,0,0,0,0,0,-1,727,484,0,0
-490,540,0,0,0,0,0,0,0,0,0,-1,734,484,0,0
-483,540,0,0,0,0,0,0,0,0,0,-1,741,484,0,0
-476,540,0,0,0,0,0,0,0,0,0,-1,748,484,0,0
-469,540,0,0,0,0,0,0,0,0,0,-1,755,484,0,0
-462,540,0,0,0,0,0,0,0,0,0,-1,762,484,0,0
-455,540,0,0,0,0,0,0,0,0,0,-1,769,484,0,0
-448,540,0,0,0,0,0,0,0,0,0,-1,776,484,0,0
-441,540,0,0,0,0,0,0,0,0,0,-1,783,484,0,0
-434,540,0,0,0,0,0,0,0,0,0,-1,790,484,0,0
-427,540,0,0,0,0,0,0,0,0,0,-1,797,484,0,0
-420,540,-0.484924,-2.88467,0.108902,0.00999803,-0.0413181,0.123891,-0.00499138,-0.348015,0.0843071,0.0467345,804,484,-0.484916,2.88468
-413,540,0.265869,-2.69922,0.105552,0.00795795,-0.0353327,0.117001,-0.00349075,-0.31335,0.0791898,0.046143,811,484,0.265851,2.69921
-406,540,0.895569,-2.94043,0.0980361,0.00647253,-0.0318681,0.108036,-0.00352693,-0.304047,0.0732277,0.0436584,818,484,0.895552,2.94044
-399,540,1.71185,-3.28363,0.0883042,0.00549196,-0.0297383,0.0978768,-0.0040807,-0.311422,0.0666531,0.0432847,825,484,1.71188,3.28363
-392,540,2.50116,-3.33051,0,0,0,0,0,0,0,-1,832,484,2.50113,3.33049
-385,540,-2.4325,-4.12067,0,0,0,0,0,0,0,-1,839,484,-2.43249,4.12067
-378,540,-2.86218,-4.33124,0,0,0,0,0,0,0,-1,846,484,-2.86219,4.33122
-371,540,0.272644,-3.83493,0,0,0,0,0,0,0,-1,853,484,0.272657,3.83493
-364,540,0.581177,-4.15759,0,0,0,0,0,0,0,-1,860,484,0.581176,4.15759
-357,540,0.745178,-4.52924,0.0137378,-0.00658681,-0.00489594,0.0148557,-0.00770469,-0.22448,0.0132416,0.0452049,867,484,0.745189,4.52924
-350,540,0.679932,-4.71262,0.00443337,-0.00773059,-0.00304606,0.00515352,-0.00845074,-0.232157,0.00793095,0.0287133,874,484,0.679907,4.71262
-343,540,0.712097,-4.83661,-0.00184211,-0.00826849,0.000313036,-0.0018269,-0.0082837,0.0485579,0.00502544,0.0130256,881,484,0.712112,4.83659
-336,540,0.709534,-4.99725,-0.00334487,-0.00811194,0.00131127,-0.00300798,-0.00844882,0.251474,0.00494488,0.0115908,888,484,0.709505,4.99727
-329,540,0.680786,-5.11319,-0.00274871,-0.00730255,0.00113389,-0.00248199,-0.00756927,0.231021,0.00445557,0.00993103,895,484,0.680776,5.11318
-322,540,0.691345,-5.25446,-0.00213509,-0.00614238,0.000931741,-0.00192905,-0.00634843,0.217638,0.00375809,0.0134157,902,484,0.691371,5.25447
-315,540,0.688232,-5.38995,-0.00163544,-0.00489748,0.000818287,-0.00144168,-0.00509124,0.232504,0.00303016,0.0125436,909,484,0.688213,5.38997
-308,540,0.686768,-5.51068,-0.00120997,-0.00377943,0.000670086,-0.00104572,-0.00394368,0.24038,0.00235911,0.0122261,916,484,0.686741,5.51068
-301,540,0.677673,-5.64856,-0.0011749,-0.00307459,0.000787155,-0.000891127,-0.00335837,0.346005,0.00200887,0.0120314,923,484,0.677681,5.64857
-294,540,0.699829,-5.80069,-0.00149814,-0.00279002,0.00108596,-0.000880538,-0.00340763,0.517101,0.00204252,0.0108848,930,484,0.699805,5.80068
-287,540,0.703735,-5.92706,-0.00222897,-0.00298377,0.00144352,-0.00111433,-0.00409841,0.657538,0.00244692,0.00826761,937,484,0.703707,5.92705
-280,540,0.686218,-6.04333,-0.00399647,-0.00414275,0.00211777,-0.00195058,-0.00618864,0.768136,0.00365347,0.00972864,944,484,0.686228,6.04333
-273,540,0.698608,-6.1658,-0.00588809,-0.00518541,0.00265157,-0.00286201,-0.0082115,0.851266,0.00481287,0.0117974,951,484,0.698625,6.16579
-266,540,0.708435,-6.2937,-0.00791568,-0.00645057,0.00332015,-0.00378312,-0.0105831,0.893978,0.00619238,0.0121482,958,484,0.708441,6.2937
-259,540,0.710144,-6.41245,-0.0102073,-0.00820102,0.0041016,-0.00498166,-0.0134266,0.90533,0.00783737,0.0108885,965,484,0.710149,6.41244
-252,540,0.71051,-6.52185,-0.0125988,-0.00984003,0.00462815,-0.0063901,-0.0160488,0.93023,0.00932961,0.0115902,972,484,0.710528,6.52186
-245,540,0.713928,-6.63998,-0.0149717,-0.0114117,0.00487625,-0.00800069,-0.0183826,0.9604,0.0106429,0.0123254,979,484,0.713955,6.63997
-238,540,0.716675,-6.74344,-0.0171549,-0.0128876,0.00496334,-0.00961872,-0.0204238,0.988398,0.0117983,0.00924008,986,484,0.716669,6.74343
-231,540,0.718018,-6.84628,-0.0190542,-0.0141359,0.00485216,-0.0111553,-0.0220348,1.01994,0.0127222,0.0113664,993,484,0.718018,6.84628
-224,540,0.732239,-6.96875,-0.020351,-0.0151132,0.00449303,-0.0125315,-0.0229327,1.04927,0.0132592,0.0156772,1000,484,0.732221,6.96874
-217,540,0.766968,-7.16492,-0.0210946,-0.0156231,0.00368554,-0.0137689,-0.0229488,1.10468,0.0133375,0.0248683,1007,484,0.766968,7.16493
-210,540,0.936646,-7.22656,-0.0212729,-0.0156489,0.00268036,-0.0145761,-0.0223457,1.19008,0.0130993,0.0399312,1014,484,0.936672,7.22657
-203,540,1.33539,-7.15302,-0.020881,-0.0154456,0.00138494,-0.0151131,-0.0212136,1.33515,0.0126107,0.0445112,1021,484,1.33538,7.15302
-196,540,1.27417,-7.14151,-0.0193052,-0.0137235,-0.000840769,-0.0135996,-0.0194291,-1.42449,0.0115125,0.0458335,1028,484,1.27418,7.14152
-189,540,0.996948,-7.27637,-0.0172107,-0.0112107,-0.00294333,-0.0100079,-0.0184135,-1.18287,0.0106444,0.0493187,1035,484,0.997009,7.27638
-182,540,1.02954,-7.38605,0,0,0,0,0,0,0,-1,1042,484,1.02949,7.38606
-175,540,1.20837,-6.45352,0,0,0,0,0,0,0,-1,1049,484,1.20834,6.45351
-168,540,1.96252,-6.69171,0,0,0,0,0,0,0,-1,1056,484,1.96253,6.69171
-161,540,1.53137,-2.62488,0,0,0,0,0,0,0,-1,1063,484,1.53137,2.62486
-154,540,0.62207,-2.01782,0,0,0,0,0,0,0,-1,1070,484,0.622083,2.01782
-147,540,-0.22937,-1.34387,0,0,0,0,0,0,0,-1,1077,484,-0.229346,1.34387
-140,540,0.147095,-7.30521,0,0,0,0,0,0,0,-1,1084,484,0.147099,7.30521
-133,540,0.530396,-6.52548,0,0,0,0,0,0,0,-1,1091,484,0.530384,6.52548
-126,540,1.78943,-1.73938,0,0,0,0,0,0,0,-1,1098,484,1.78942,1.73938
-119,540,1.22986,-5.17435,0,0,0,0,0,0,0,-1,1105,484,1.22989,5.17435
-112,540,2.65173,-3.42639,0,0,0,0,0,0,0,-1,1112,484,2.65174,3.42639
-105,540,1.73462,-4.61615,0,0,0,0,0,0,0,-1,1119,484,1.73465,4.61616
-98,540,0.73877,-3.08093,0,0,0,0,0,0,0,-1,1126,484,0.738754,3.08092
-91,540,0.586914,4.62909,0,0,0,0,0,0,0,-1,1133,484,0.586932,-4.6291
-84,540,-0.945923,4.43073,0,0,0,0,0,0,0,-1,1140,484,-0.945891,-4.43074
-77,540,-2.28894,2.14368,0,0,0,0,0,0,0,-1,1147,484,-2.28894,-2.14368
-70,540,-3.75244,-0.452576,0,0,0,0,0,0,0,-1,1154,484,-3.75244,0.452576
-63,540,-5.26257,-3.04767,0,0,0,0,0,0,0,-1,1161,484,-5.26262,3.04766
-56,540,-5.19055,-6.12595,0,0,0,0,0,0,0,-1,1168,484,-5.19057,6.12595
-49,540,-5.63867,-8.52298,0,0,0,0,0,0,0,-1,1175,484,-5.63871,8.52298
-42,540,0,0,0,0,0,0,0,0,0,-1,1182,484,0,0
-35,540,0,0,0,0,0,0,0,0,0,-1,1189,484,0,0
-28,540,0,0,0,0,0,0,0,0,0,-1,1196,484,0,0
-21,540,0,0,0,0,0,0,0,0,0,-1,1203,484,0,0
-14,540,0,0,0,0,0,0,0,0,0,-1,1210,484,0,0
-7,540,0,0,0,0,0,0,0,0,0,-1,1217,484,0,0
0,540,0,0,0,0,0,0,0,0,0,-1,1224,484,0,0
7,540,0,0,0,0,0,0,0,0,0,-1,1231,484,0,0
14,540,0,0,0,0,0,0,0,0,0,-1,1238,484,0,0
21,540,0,0,0,0,0,0,0,0,0,-1,1245,484,0,0
28,540,0,0,0,0,0,0,0,0,0,-1,1252,484,0,0
35,540,0,0,0,0,0,0,0,0,0,-1,1259,484,0,0
42,540,0,0,0,0,0,0,0,0,0,-1,1266,484,0,0
49,540,0,0,0,0,0,0,0,0,0,-1,1273,484,0,0
56,540,0,0,0,0,0,0,0,0,0,-1,1280,484,0,0
63,540,0,0,0,0,0,0,0,0,0,-1,1287,484,0,0
70,540,0,0,0,0,0,0,0,0,0,-1,1294,484,0,0
77,540,0,0,0,0,0,0,0,0,0,-1,1301,484,0,0
84,540,0,0,0,0,0,0,0,0,0,-1,1308,484,0,0
91,540,0,0,0,0,0,0,0,0,0,-1,1315,484,0,0
98,540,0,0,0,0,0,0,0,0,0,-1,1322,484,0,0
105,540,0,0,0,0,0,0,0,0,0,-1,1329,484,0,0
112,540,0,0,0,0,0,0,0,0,0,-1,1336,484,0,0
119,540,0,0,0,0,0,0,0,0,0,-1,1343,484,0,0
126,540,0,0,0,0,0,0,0,0,0,-1,1350,484,0,0
133,540,0,0,0,0,0,0,0,0,0,-1,1357,484,0,0
140,540,0,0,0,0,0,0,0,0,0,-1,1364,484,0,0
147,540,0,0,0,0,0,0,0,0,0,-1,1371,484,0,0
154,540,0,0,0,0,0,0,0,0,0,-1,1378,484,0,0
161,540,0,0,0,0,0,0,0,0,0,-1,1385,484,0,0
168,540,3.05078,-0.0010376,0,0,0,0,0,0,0,-1,1392,484,3.05084,0.00102554
175,540,3.37708,0.617035,0,0,0,0,0,0,0,-1,1399,484,3.37707,-0.617046
182,540,3.32678,1.23267,0,0,0,0,0,0,0,-1,1406,484,3.32678,-1.23266
189,540,3.5813,2.15619,0,0,0,0,0,0,0,-1,1413,484,3.58129,-2.1562
196,540,1.84448,-0.801483,0,0,0,0,0,0,0,-1,1420,484,1.84446,0.80148
203,540,4.14648,0.702087,0,0,0,0,0,0,0,-1,1427,484,4.14645,-0.702089
210,540,4.50671,-0.56076,0,0,0,0,0,0,0,-1,1434,484,4.50667,0.560771
217,540,5.00452,-0.278717,0,0,0,0,0,0,0,-1,1441,484,5.00452,0.278709
224,540,6.44458,-2.83527,0,0,0,0,0,0,0,-1,1448,484,6.44457,2.83525
231,540,6.9231,-3.10504,0,0,0,0,0,0,0,-1,1455,484,6.92307,3.10505
238,540,6.4823,-2.58365,0,0,0,0,0,0,0,-1,1462,484,6.48225,2.58363
245,540,6.02087,-1.97916,0,0,0,0,0,0,0,-1,1469,484,6.02088,1.97915
252,540,6.50647,-3.56006,0,0,0,0,0,0,0,-1,1476,484,6.50649,3.56006
259,540,6.01941,-2.798,0,0,0,0,0,0,0,-1,1483,484,6.01941,2.79801
266,540,5.5332,-2.02853,0,0,0,0,0,0,0,-1,1490,484,5.53323,2.02855
273,540,5.06787,-1.28137,0,0,0,0,0,0,0,-1,1497,484,5.06786,1.28136
280,540,1.62903,-2.14609,0,0,0,0,0,0,0,-1,1504,484,1.62906,2.1461
287,540,1.97156,-2.45053,0,0,0,0,0,0,0,-1,1511,484,1.97159,2.45053
294,540,2.44165,-2.6185,0,0,0,0,0,0,0,-1,1518,484,2.44167,2.6185
301,540,4.36169,-2.54272,0,0,0,0,0,0,0,-1,1525,484,4.36165,2.54272
308,540,4.2019,-4.30469,0,0,0,0,0,0,0,-1,1532,484,4.20193,4.3047
315,540,4.45923,-5.32101,0,0,0,0,0,0,0,-1,1539,484,4.45923,5.32103
322,540,4.71655,-6.33737,0,0,0,0,0,0,0,-1,1546,484,4.71653,6.33736
329,540,3.39075,-6.34753,0,0,0,0,0,0,0,-1,1553,484,3.39074,6.34755
336,540,3.42712,-6.32626,0,0,0,0,0,0,0,-1,1560,484,3.42718,6.32625
343,540,3.78577,-5.91846,0,0,0,0,0,0,0,-1,1567,484,3.78577,5.91845
350,540,3.66492,-5.91992,-0.00419056,-0.00641559,-0.00868645,0.00345433,-0.0140605,-0.721707,0.0107124,0.0384119,1574,484,3.6649,5.91992
357,540,3.5188,-5.97324,-0.00346762,-0.00575122,-0.00766437,0.00313953,-0.0123584,-0.711455,0.0094607,0.0289358,1581,484,3.5188,5.97322
364,540,3.38025,-5.90366,-0.00282381,-0.00505025,-0.00670013,0.00285495,-0.010729,-0.703076,0.00827025,0.0170802,1588,484,3.38023,5.90365
371,540,3.36621,-5.78873,-0.00210471,-0.00430794,-0.00558858,0.00248979,-0.00890244,-0.688087,0.00691593,0.013505,1595,484,3.36622,5.78874
378,540,3.40259,-5.64508,-0.00158449,-0.00378574,-0.00470276,0.00214472,-0.00751496,-0.670448,0.00585726,0.011879,1602,484,3.40255,5.64509
385,540,3.42102,-5.51273,-0.00129097,-0.00330942,-0.00393728,0.00176438,-0.00636477,-0.659937,0.00493753,0.013368,1609,484,3.42098,5.51272
392,540,3.40002,-5.36407,-0.00103489,-0.00291795,-0.00322451,0.00138274,-0.00533558,-0.643351,0.00409651,0.0125121,1616,484,3.39999,5.36408
399,540,3.3844,-5.24698,-0.000725963,-0.00253487,-0.00253304,0.00105925,-0.00432008,-0.613922,0.00329047,0.0166906,1623,484,3.38436,5.24698
406,540,3.38684,-5.1138,-0.000380524,-0.00194919,-0.00176842,0.00076969,-0.0030994,-0.576671,0.00236496,0.017592,1630,484,3.38682,5.11381
413,540,3.40405,-4.95596,-0.00014692,-0.00143338,-0.00105025,0.000441423,-0.00202173,-0.510635,0.00151653,0.0126352,1637,484,3.40401,4.95597
420,540,3.42029,-4.79291,-2.29795e-05,-0.00113276,-0.000534919,0.00019287,-0.00134861,-0.383536,0.000969781,0.0110412,1644,484,3.42028,4.79292
427,540,3.41016,-4.63968,5.63681e-05,-0.000678836,-0.00012943,7.84883e-05,-0.000700956,-0.169269,0.000495543,0.0123559,1651,484,3.41021,4.63969
434,540,3.40051,-4.49994,8.28022e-05,-0.000254242,0.000236744,0.000204878,-0.000376318,0.476086,0.000340385,0.0149417,1658,484,3.40052,4.49995
441,540,3.43384,-4.34415,4.37452e-05,0.00017525,0.000609356,0.000722391,-0.000503396,0.839142,0.000711463,0.0174892,1665,484,3.43384,4.34415
448,540,3.42859,-4.21262,-0.000226775,0.000771579,0.000946148,0.00134216,-0.000797352,1.02814,0.00124852,0.0110117,1672,484,3.42855,4.21261
455,540,3.4292,-4.0466,-0.00135892,0.00172392,0.000704122,0.00187713,-0.00151213,1.35655,0.00196057,0.010254,1679,484,3.42916,4.0466
462,540,3.41626,-3.87643,-0.00313997,0.00318971,-0.000381511,0.00321263,-0.00316289,-1.51081,0.00368094,0.010146,1686,484,3.41626,3.87643
469,540,3.39819,-3.75055,-0.00527348,0.00446593,-0.0021532,0.00492073,-0.00572828,-1.36264,0.00615409,0.0129112,1693,484,3.39816,3.75053
476,540,3.37573,-3.66324,-0.00799126,0.00558187,-0.00441809,0.00689327,-0.00930266,-1.28226,0.00938515,0.0180175,1700,484,3.37572,3.66323
483,540,3.38831,-3.48221,-0.0114773,0.00750575,-0.00738913,0.0100429,-0.0140144,-1.24005,0.0139524,0.0276517,1707,484,3.38832,3.4822
490,540,3.52698,-3.19107,-0.0160729,0.00989571,-0.0114405,0.0142168,-0.020394,-1.20966,0.0200883,0.0479545,1714,484,3.52696,3.19108
497,540,3.2865,-2.56375,0,0,0,0,0,0,0,-1,1721,484,3.28651,2.56375
504,540,1.97705,-2.26202,-0.0286738,0.0155857,-0.0231551,0.0254854,-0.0385735,-1.16678,0.0372408,0.0460799,1728,484,1.97707,2.26203
511,540,1.19531,-2.09866,-0.0362054,0.0186258,-0.0309208,0.0325346,-0.0501142,-1.14809,0.0480758,0.0445395,1735,484,1.19535,2.09866
518,540,0.679932,-2.02246,0,0,0,0,0,0,0,-1,1742,484,0.679871,2.02248
525,540,4.31628,-1.68539,0,0,0,0,0,0,0,-1,1749,484,4.31623,1.6854
532,540,2.84265,-1.07925,0,0,0,0,0,0,0,-1,1756,484,2.84269,1.07927
539,540,0,0,0,0,0,0,0,0,0,-1,1763,484,0,0
546,540,0,0,0,0,0,0,0,0,0,-1,1770,484,0,0
553,540,0,0,0,0,0,0,0,0,0,-1,1777,484,0,0
560,540,0,0,0,0,0,0,0,0,0,-1,1784,484,0,0
567,540,0,0,0,0,0,0,0,0,0,-1,1791,484,0,0
574,540,0,0,0,0,0,0,0,0,0,-1,1798,484,0,0
581,540,0,0,0,0,0,0,0,0,0,-1,1805,484,0,0
588,540,0,0,0,0,0,0,0,0,0,-1,1812,484,0,0
595,540,0,0,0,0,0,0,0,0,0,-1,1819,484,0,0
602,540,0,0,0,0,0,0,0,0,0,-1,1826,484,0,0
609,540,0,0,0,0,0,0,0,0,0,-1,1833,484,0,0
616,540,0,0,0,0,0,0,0,0,0,-1,1840,484,0,0
623,540,0,0,0,0,0,0,0,0,0,-1,1847,484,0,0
630,540,0,0,0,0,0,0,0,0,0,-1,1854,484,0,0
637,540,0,0,0,0,0,0,0,0,0,-1,1861,484,0,0
644,540,0,0,0,0,0,0,0,0,0,-1,1868,484,0,0
651,540,0,0,0,0,0,0,0,0,0,-1,1875,484,0,0
658,540,0,0,0,0,0,0,0,0,0,-1,1882,484,0,0
665,540,0,0,0,0,0,0,0,0,0,-1,1889,484,0,0
672,540,0,0,0,0,0,0,0,0,0,-1,1896,484,0,0
679,540,0,0,0,0,0,0,0,0,0,-1,1903,484,0,0
686,540,0,0,0,0,0,0,0,0,0,-1,1910,484,0,0
693,540,0,0,0,0,0,0,0,0,0,-1,1917,484,0,0
700,540,0,0,0,0,0,0,0,0,0,-1,1924,484,0,0
707,540,0,0,0,0,0,0,0,0,0,-1,1931,484,0,0
714,540,0,0,0,0,0,0,0,0,0,-1,1938,484,0,0
721,540,0,0,0,0,0,0,0,0,0,-1,1945,484,0,0
728,540,0,0,0,0,0,0,0,0,0,-1,1952,484,0,0
735,540,0,0,0,0,0,0,0,0,0,-1,1959,484,0,0
742,540,0,0,0,0,0,0,0,0,0,-1,1966,484,0,0
749,540,0,0,0,0,0,0,0,0,0,-1,1973,484,0,0
756,540,0,0,0,0,0,0,0,0,0,-1,1980,484,0,0
763,540,0,0,0,0,0,0,0,0,0,-1,1987,484,0,0
770,540,0,0,0,0,0,0,0,0,0,-1,1994,484,0,0
777,540,0,0,0,0,0,0,0,0,0,-1,2001,484,0,0
784,540,0,0,0,0,0,0,0,0,0,-1,2008,484,0,0
791,540,0,0,0,0,0,0,0,0,0,-1,2015,484,0,0
798,540,0,0,0,0,0,0,0,0,0,-1,2022,484,0,0
805,540,0,0,0,0,0,0,0,0,0,-1,2029,484,0,0
812,540,0,0,0,0,0,0,0,0,0,-1,2036,484,0,0
-700,533,0,0,0,0,0,0,0,0,0,-1,524,491,0,0
-693,533,0,0,0,0,0,0,0,0,0,-1,531,491,0,0
-686,533,0,0,0,0,0,0,0,0,0,-1,538,491,0,0
-679,533,0,0,0,0,0,0,0,0,0,-1,545,491,0,0
-672,533,0,0,0,0,0,0,0,0,0,-1,552,491,0,0
-665,533,0,0,0,0,0,0,0,0,0,-1,559,491,0,0
-658,533,0,0,0,0,0,0,0,0,0,-1,566,491,0,0
-651,533,0,0,0,0,0,0,0,0,0,-1,573,491,0,0
-644,533,0,0,0,0,0,0,0,0,0,-1,580,491,0,0
-637,533,0,0,0,0,0,0,0,0,0,-1,587,491,0,0
-630,533,0,0,0,0,0,0,0,0,0,-1,594,491,0,0
-623,533,0,0,0,0,0,0,0,0,0,-1,601,491,0,0
-616,533,0,0,0,0,0,0,0,0,0,-1,608,491,0,0
-609,533,0,0,0,0,0,0,0,0,0,-1,615,491,0,0
-602,533,0,0,0,0,0,0,0,0,0,-1,622,491,0,0
-595,533,0,0,0,0,0,0,0,0,0,-1,629,491,0,0
-588,533,0,0,0,0,0,0,0,0,0,-1,636,491,0,0
-581,533,0,0,0,0,0,0,0,0,0,-1,643,491,0,0
-574,533,0,0,0,0,0,0,0,0,0,-1,650,491,0,0
-567,533,0,0,0,0,0,0,0,0,0,-1,657,491,0,0
-560,533,0,0,0,0,0,0,0,0,0,-1,664,491,0,0
-553,533,0,0,0,0,0,0,0,0,0,-1,671,491,0,0
-546,533,0,0,0,0,0,0,0,0,0,-1,678,491,0,0
-539,533,0,0,0,0,0,0,0,0,0,-1,685,491,0,0
-532,533,0,0,0,0,0,0,0,0,0,-1,692,491,0,0
-525,533,0,0,0,0,0,0,0,0,0,-1,699,491,0,0
-518,533,0,0,0,0,0,0,0,0,0,-1,706,491,0,0
-511,533,0,0,0,0,0,0,0,0,0,-1,713,491,0,0
-504,533,0,0,0,0,0,0,0,0,0,-1,720,491,0,0
-497,533,0,0,0,0,0,0,0,0,0,-1,727,491,0,0
-490,533,0,0,0,0,0,0,0,0,0,-1,734,491,0,0
-483,533,0,0,0,0,0,0,0,0,0,-1,741,491,0,0
-476,533,0,0,0,0,0,0,0,0,0,-1,748,491,0,0
-469,533,0,0,0,0,0,0,0,0,0,-1,755,491,0,0
-462,533,0,0,0,0,0,0,0,0,0,-1,762,491,0,0
-455,533,0,0,0,0,0,0,0,0,0,-1,769,491,0,0
-448,533,0,0,0,0,0,0,0,0,0,-1,776,491,0,0
-441,533,0,0,0,0,0,0,0,0,0,-1,783,491,0,0
-434,533,0,0,0,0,0,0,0,0,0,-1,790,491,0,0
-427,533,-0.500061,-2.93945,0,0,0,0,0,0,0,-1,797,491,-0.500056,2.93947
-420,533,0.185242,-2.96811,0.0940859,0.0133736,-0.0323484,0.10545,0.002009,-0.33785,0.0696403,0.0495539,804,491,0.185236,2.96811
-413,533,0.729187,-2.77609,0.0900779,0.0105831,-0.0262799,0.0979802,0.00268088,-0.292095,0.0644451,0.0460842,811,491,0.729214,2.77609
-406,533,3.27307,-2.37555,0,0,0,0,0,0,0,-1,818,491,3.27306,2.37555
-399,533,2.6026,-3.28928,0.0746535,0.00704054,-0.0200987,0.0801768,0.00151719,-0.268191,0.0529527,0.0450344,825,491,2.60263,3.28927
-392,533,3.46771,-2.70639,0,0,0,0,0,0,0,-1,832,491,3.46773,2.70638
-385,533,4.35858,-2.19321,0,0,0,0,0,0,0,-1,839,491,4.35861,2.19321
-378,533,0.566528,-3.63681,0,0,0,0,0,0,0,-1,846,491,0.566527,3.6368
-371,533,0.424866,-4.23514,0,0,0,0,0,0,0,-1,853,491,0.424872,4.23514
-364,533,0.404053,-4.00961,0,0,0,0,0,0,0,-1,860,491,0.404045,4.0096
-357,533,0.618103,-4.54425,0.0115778,-0.00172872,-0.00388729,0.0126302,-0.0027811,-0.264385,0.00948409,0.0239682,867,491,0.61813,4.54425
-350,533,0.576965,-4.6698,0.00402221,-0.00286594,-0.00287362,0.00506359,-0.00390733,-0.347674,0.00519369,0.0116293,874,491,0.576959,4.66979
-343,533,0.615784,-4.84976,-0.000705014,-0.00338859,-0.000360853,-0.000657338,-0.00343626,-0.131359,0.0021062,0.0108002,881,491,0.615759,4.84975
-336,533,0.592285,-4.99161,-0.00178764,-0.00352035,0.000386103,-0.0017055,-0.00360249,0.209622,0.00208088,0.0151851,888,491,0.592272,4.99159
-329,533,0.560791,-5.12543,-0.00145664,-0.00340076,0.000324201,-0.001404,-0.00345339,0.160959,0.00200539,0.0140283,895,491,0.560785,5.12542
-322,533,0.558655,-5.25485,-0.00113122,-0.00293768,0.000274323,-0.00109048,-0.00297842,0.147429,0.00174002,0.0116082,902,491,0.558636,5.25484
-315,533,0.557312,-5.37439,-0.000873643,-0.0023539,0.000308986,-0.000811735,-0.00241581,0.197741,0.00141955,0.0130476,909,491,0.557295,5.37438
-308,533,0.549377,-5.49673,-0.000662683,-0.00184457,0.000312598,-0.000585097,-0.00192216,0.243281,0.00113771,0.0125658,916,491,0.549394,5.49674
-301,533,0.546082,-5.62842,-0.00109232,-0.00180718,0.000738327,-0.000629458,-0.00227005,0.559971,0.00135326,0.0132305,923,491,0.54608,5.62842
-294,533,0.573425,-5.78613,-0.00227101,-0.00249594,0.00152534,-0.000853993,-0.00391296,0.7486,0.0023757,0.0119102,930,491,0.573449,5.78614
-287,533,0.581299,-5.92679,-0.0042044,-0.00389167,0.00249353,-0.00154961,-0.00654646,0.816711,0.00395041,0.00939209,937,491,0.581279,5.92678
-280,533,0.573425,-6.05109,-0.00772373,-0.00663993,0.00395301,-0.00319185,-0.0111718,0.853517,0.00664458,0.00918675,944,491,0.573411,6.05109
-273,533,0.570557,-6.16763,-0.0115768,-0.00948526,0.00526185,-0.00516625,-0.0158958,0.883491,0.00936291,0.0125637,951,491,0.570539,6.16764
-266,533,0.581299,-6.28848,-0.0156253,-0.0124561,0.00678409,-0.007074,-0.0210074,0.90013,0.0123423,0.0111222,958,491,0.581272,6.28848
-259,533,0.594543,-6.41388,-0.0201316,-0.0160144,0.00845108,-0.00937479,-0.0267712,0.904867,0.0156859,0.0107834,965,491,0.594571,6.41389
-252,533,0.601807,-6.52112,-0.0246843,-0.0194166,0.00978278,-0.0119193,-0.0321816,0.916897,0.018787,0.01246,972,491,0.601836,6.52112
-245,533,0.631104,-6.62585,-0.0290294,-0.0226143,0.0107067,-0.014645,-0.0369988,0.930935,0.0215152,0.0170718,979,491,0.631079,6.62584
-238,533,0.648315,-6.67462,-0.0330514,-0.0256173,0.0113583,-0.0173834,-0.0412854,0.943534,0.023935,0.0199845,986,491,0.648299,6.67461
-231,533,0.737854,-6.78864,-0.0366372,-0.0282649,0.0117071,-0.0200181,-0.0448841,0.957102,0.0259642,0.0295092,993,491,0.737842,6.78863
-224,533,0.673828,-7.06662,-0.0392666,-0.0303232,0.0116294,-0.0223354,-0.0472544,0.968942,0.0272959,0.0349794,1000,491,0.673838,7.06661
-217,533,0.633179,-7.33801,-0.0410786,-0.0317429,0.0109609,-0.0244973,-0.0483243,0.9867,0.0279009,0.0390883,1007,491,0.633178,7.33802
-210,533,1.43597,-7.32724,0,0,0,0,0,0,0,-1,1014,491,1.43599,7.32723
-203,533,1.56598,-7.30344,-0.0421045,-0.0325825,0.00854068,-0.0275654,-0.0471215,1.03967,0.0273363,0.0491189,1021,491,1.56599,7.30343
-196,533,1.46082,-7.21838,-0.0407626,-0.0310604,0.00586438,-0.0283007,-0.0435223,1.13095,0.025503,0.046025,1028,491,1.46076,7.21838
-189,533,0.940308,-7.22256,0,0,0,0,0,0,0,-1,1035,491,0.940303,7.22256
-182,533,1.59631,-3.88702,0,0,0,0,0,0,0,-1,1042,491,1.59636,3.88702
-175,533,1.17761,-6.07086,0,0,0,0,0,0,0,-1,1049,491,1.17759,6.07086
-168,533,2.64807,-2.7543,0,0,0,0,0,0,0,-1,1056,491,2.64812,2.7543
-161,533,1.91833,-1.76553,0,0,0,0,0,0,0,-1,1063,491,1.91836,1.76554
-154,533,1.65686,-0.885834,0,0,0,0,0,0,0,-1,1070,491,1.65687,0.885832
-147,533,1.55835,-0.0189819,0,0,0,0,0,0,0,-1,1077,491,1.55836,0.0189716
-140,533,0.693359,-6.06354,0,0,0,0,0,0,0,-1,1084,491,0.69335,6.06352
-133,533,-4.95264,-6.48141,0,0,0,0,0,0,0,-1,1091,491,-4.95263,6.48142
-126,533,2.89612,-2.59003,0,0,0,0,0,0,0,-1,1098,491,2.89608,2.59003
-119,533,2.87903,-3.47372,0,0,0,0,0,0,0,-1,1105,491,2.87905,3.47373
-112,533,1.69788,-3.8486,0,0,0,0,0,0,0,-1,1112,491,1.69793,3.84862
-105,533,3.84839,1.12769,0,0,0,0,0,0,0,-1,1119,491,3.84843,-1.12769
-98,533,-1.39392,-5.16367,0,0,0,0,0,0,0,-1,1126,491,-1.39394,5.16367
-91,533,0.367432,4.49753,0,0,0,0,0,0,0,-1,1133,491,0.367468,-4.49754
-84,533,-0.88623,3.03604,0,0,0,0,0,0,0,-1,1140,491,-0.886288,-3.03605
-77,533,0,0,0,0,0,0,0,0,0,-1,1147,491,0,0
-70,533,0,0,0,0,0,0,0,0,0,-1,1154,491,0,0
-63,533,0,0,0,0,0,0,0,0,0,-1,1161,491,0,0
-56,533,0,0,0,0,0,0,0,0,0,-1,1168,491,0,0
-49,533,0,0,0,0,0,0,0,0,0,-1,1175,491,0,0
-42,533,0,0,0,0,0,0,0,0,0,-1,1182,491,0,0
-35,533,0,0,0,0,0,0,0,0,0,-1,1189,491,0,0
-28,533,0,0,0,0,0,0,0,0,0,-1,1196,491,0,0
-21,533,0,0,0,0,0,0,0,0,0,-1,1203,491,0,0
-14,533,0,0,0,0,0,0,0,0,0,-1,1210,491,0,0
-7,533,0,0,0,0,0,0,0,0,0,-1,1217,491,0,0
0,533,0,0,0,0,0,0,0,0,0,-1,1224,491,0,0
7,533,0,0,0,0,0,0,0,0,0,-1,1231,491,0,0
14,533,0,0,0,0,0,0,0,0,0,-1,1238,491,0,0
21,533,0,0,0,0,0,0,0,0,0,-1,1245,491,0,0
28,533,0,0,0,0,0,0,0,0,0,-1,1252,491,0,0
35,533,0,0,0,0,0,0,0,0,0,-1,1259,491,0,0
42,533,0,0,0,0,0,0,0,0,0,-1,1266,491,0,0
49,533,0,0,0,0,0,0,0,0,0,-1,1273,491,0,0
56,533,0,0,0,0,0,0,0,0,0,-1,1280,491,0,0
63,533,0,0,0,0,0,0,0,0,0,-1,1287,491,0,0
70,533,0,0,0,0,0,0,0,0,0,-1,1294,491,0,0
77,533,0,0,0,0,0,0,0,0,0,-1,1301,491,0,0
84,533,0,0,0,0,0,0,0,0,0,-1,1308,491,0,0
91,533,0,0,0,0,0,0,0,0,0,-1,1315,491,0,0
98,533,0,0,0,0,0,0,0,0,0,-1,1322,491,0,0
105,533,0,0,0,0,0,0,0,0,0,-1,1329,491,0,0
112,533,0,0,0,0,0,0,0,0,0,-1,1336,491,0,0
119,533,0,0,0,0,0,0,0,0,0,-1,1343,491,0,0
126,533,0,0,0,0,0,0,0,0,0,-1,1350,491,0,0
133,533,0,0,0,0,0,0,0,0,0,-1,1357,491,0,0
140,533,0,0,0,0,0,0,0,0,0,-1,1364,491,0,0
147,533,0,0,0,0,0,0,0,0,0,-1,1371,491,0,0
154,533,0,0,0,0,0,0,0,0,0,-1,1378,491,0,0
161,533,0,0,0,0,0,0,0,0,0,-1,1385,491,0,0
168,533,0,0,0,0,0,0,0,0,0,-1,1392,491,0,0
175,533,0,0,0,0,0,0,0,0,0,-1,1399,491,0,0
182,533,0,0,0,0,0,0,0,0,0,-1,1406,491,0,0
189,533,0,0,0,0,0,0,0,0,0,-1,1413,491,0,0
196,533,0,0,0,0,0,0,0,0,0,-1,1420,491,0,0
203,533,3.7887,1.16193,0,0,0,0,0,0,0,-1,1427,491,3.78872,-1.16193
210,533,5.09558,-0.216034,0,0,0,0,0,0,0,-1,1434,491,5.09559,0.216028
217,533,6.91614,-2.46814,0,0,0,0,0,0,0,-1,1441,491,6.91618,2.46814
224,533,7.23621,-2.1857,0,0,0,0,0,0,0,-1,1448,491,7.23621,2.1857
231,533,7.23474,-1.92282,0,0,0,0,0,0,0,-1,1455,491,7.2347,1.92282
238,533,7.23535,-1.67258,0,0,0,0,0,0,0,-1,1462,491,7.23539,1.67258
245,533,6.86682,-1.2301,0,0,0,0,0,0,0,-1,1469,491,6.86686,1.23011
252,533,6.63354,-3.07825,0,0,0,0,0,0,0,-1,1476,491,6.6335,3.07824
259,533,6.16431,-2.35037,0,0,0,0,0,0,0,-1,1483,491,6.1643,2.35037
266,533,5.68884,-1.6214,0,0,0,0,0,0,0,-1,1490,491,5.68885,1.6214
273,533,5.21399,-0.864227,0,0,0,0,0,0,0,-1,1497,491,5.21403,0.864227
280,533,1.41089,-1.97946,0,0,0,0,0,0,0,-1,1504,491,1.41087,1.97946
287,533,1.6814,-2.44443,0,0,0,0,0,0,0,-1,1511,491,1.6814,2.44444
294,533,2.2384,-2.57626,0,0,0,0,0,0,0,-1,1518,491,2.23839,2.57625
301,533,3.39941,-4.0817,0,0,0,0,0,0,0,-1,1525,491,3.3994,4.08171
308,533,4.13733,-4.14752,0,0,0,0,0,0,0,-1,1532,491,4.13727,4.14752
315,533,4.80762,-5.29349,0,0,0,0,0,0,0,-1,1539,491,4.80762,5.29347
322,533,5.47803,-6.43942,0,0,0,0,0,0,0,-1,1546,491,5.47798,6.43943
329,533,3.88477,-3.86301,0,0,0,0,0,0,0,-1,1553,491,3.88475,3.86299
336,533,3.67114,-5.11346,0,0,0,0,0,0,0,-1,1560,491,3.67114,5.11348
343,533,4.30469,-5.25919,0,0,0,0,0,0,0,-1,1567,491,4.30467,5.25917
350,533,3.93176,-5.52371,0,0,0,0,0,0,0,-1,1574,491,3.93176,5.5237
357,533,3.86401,-5.73978,-0.00438262,-0.00763721,-0.0100038,0.00412534,-0.0161452,-0.70477,0.01237,0.0422151,1581,491,3.86396,5.73977
364,533,3.69727,-5.87354,-0.00353071,-0.006859,-0.00877366,0.00373523,-0.014125,-0.691674,0.0108776,0.0327783,1588,491,3.69729,5.87354
371,533,3.5238,-5.81223,-0.0026362,-0.00600729,-0.00740197,0.00326972,-0.0119132,-0.673449,0.00922722,0.0271861,1595,491,3.52377,5.81221
378,533,3.50708,-5.65573,-0.00198017,-0.0054232,-0.00629196,0.00282154,-0.0102249,-0.651864,0.00792632,0.0202674,1602,491,3.50704,5.65573
385,533,3.56384,-5.4996,-0.00164134,-0.00483009,-0.00533678,0.00233414,-0.00880557,-0.640242,0.00678363,0.0180164,1609,491,3.56389,5.49959
392,533,3.54956,-5.37018,-0.00139864,-0.00430018,-0.00446803,0.00184825,-0.00754707,-0.628418,0.00574739,0.0125916,1616,491,3.54951,5.37017
399,533,3.53979,-5.25824,-0.00113817,-0.00381719,-0.00369051,0.0014484,-0.00640376,-0.611311,0.00482499,0.011938,1623,491,3.53978,5.25824
406,533,3.5448,-5.13348,-0.0007929,-0.00308253,-0.00283732,0.00112186,-0.00499729,-0.593645,0.00376166,0.0146467,1630,491,3.54476,5.13347
413,533,3.55823,-4.95853,-0.000464746,-0.00236804,-0.00202866,0.000824387,-0.00365717,-0.566086,0.00275435,0.0123086,1637,491,3.55828,4.95853
420,533,3.54932,-4.78641,-0.000260544,-0.00196128,-0.00139634,0.000523982,-0.00274581,-0.511893,0.00202789,0.0112634,1644,491,3.54935,4.78642
427,533,3.57031,-4.62561,-0.000127011,-0.00139085,-0.000855519,0.000304665,-0.00182253,-0.467303,0.00132827,0.0126967,1651,491,3.57035,4.62561
434,533,3.56726,-4.49329,-3.4367e-05,-0.000836558,-0.000411251,0.000138998,-0.00100992,-0.39895,0.000724076,0.0129861,1658,491,3.56732,4.49328
441,533,3.59509,-4.34827,-1.91577e-05,-0.000325103,1.47879e-05,-1.84446e-05,-0.000325817,0.0481852,0.000211331,0.0148618,1665,491,3.59513,4.34826
448,533,3.5929,-4.20493,-0.000146903,0.000343484,0.000444378,0.000605825,-0.000409244,1.0375,0.000589702,0.0150989,1672,491,3.59294,4.20492
455,533,3.57788,-4.04883,-0.00101061,0.00126644,0.00035627,0.00132088,-0.00106505,1.41916,0.00138016,0.0144634,1679,491,3.57792,4.04883
462,533,3.56726,-3.85266,-0.00244499,0.0025988,-0.000497964,0.00264749,-0.00249368,-1.47332,0.0029687,0.0150105,1686,491,3.56722,3.85266
469,533,3.57031,-3.72375,-0.00419977,0.00368669,-0.00200194,0.00416577,-0.00467886,-1.33591,0.00510931,0.009867,1693,491,3.57033,3.72375
476,533,3.58362,-3.59256,-0.00642697,0.00447353,-0.00392504,0.00573976,-0.0076932,-1.25873,0.00778281,0.00993946,1700,491,3.58359,3.59255
483,533,3.5835,-3.41168,-0.00922417,0.00596869,-0.00638339,0.00829463,-0.0115501,-1.22137,0.0115086,0.0141677,1707,491,3.58348,3.41168
490,533,3.58606,-3.29404,-0.0128548,0.00771369,-0.00968461,0.0115559,-0.016697,-1.19311,0.0164016,0.0318965,1714,491,3.58604,3.29403
497,533,3.47461,-2.84567,-0.0172918,0.00973324,-0.0137053,0.0154671,-0.0230257,-1.17456,0.0223662,0.0463882,1721,491,3.47466,2.84568
504,533,2.75647,-2.61188,-0.0224383,0.0117019,-0.0187951,0.0200216,-0.0307581,-1.15407,0.0295353,0.0379553,1728,491,2.75646,2.61188
511,533,2.36023,-2.69348,-0.0275139,0.013826,-0.0244334,0.0251598,-0.0388477,-1.13647,0.0372353,0.0424792,1735,491,2.36028,2.69348
518,533,2.08813,-2.6557,-0.0329538,0.0161027,-0.0309721,0.0310828,-0.0479339,-1.1203,0.0459648,0.0458963,1742,491,2.0881,2.6557
525,533,1.84778,-2.62155,0,0,0,0,0,0,0,-1,1749,491,1.84778,2.62155
532,533,3.24243,0.0737,0,0,0,0,0,0,0,-1,1756,491,3.24239,-0.0737072
539,533,3.61609,1.62427,0,0,0,0,0,0,0,-1,1763,491,3.61606,-1.62426
546,533,3.59607,1.65799,0,0,0,0,0,0,0,-1,1770,491,3.59605,-1.658
553,533,0,0,0,0,0,0,0,0,0,-1,1777,491,0,0
560,533,0,0,0,0,0,0,0,0,0,-1,1784,491,0,0
567,533,0,0,0,0,0,0,0,0,0,-1,1791,491,0,0
574,533,0,0,0,0,0,0,0,0,0,-1,1798,491,0,0
581,533,0,0,0,0,0,0,0,0,0,-1,1805,491,0,0
588,533,0,0,0,0,0,0,0,0,0,-1,1812,491,0,0
595,533,0,0,0,0,0,0,0,0,0,-1,1819,491,0,0
602,533,0,0,0,0,0,0,0,0,0,-1,1826,491,0,0
609,533,0,0,0,0,0,0,0,0,0,-1,1833,491,0,0
616,533,0,0,0,0,0,0,0,0,0,-1,1840,491,0,0
623,533,0,0,0,0,0,0,0,0,0,-1,1847,491,0,0
630,533,0,0,0,0,0,0,0,0,0,-1,1854,491,0,0
637,533,0,0,0,0,0,0,0,0,0,-1,1861,491,0,0
644,533,0,0,0,0,0,0,0,0,0,-1,1868,491,0,0
651,533,0,0,0,0,0,0,0,0,0,-1,1875,491,0,0
658,533,0,0,0,0,0,0,0,0,0,-1,1882,491,0,0
665,533,0,0,0,0,0,0,0,0,0,-1,1889,491,0,0
672,533,0,0,0,0,0,0,0,0,0,-1,1896,491,0,0
679,533,0,0,0,0,0,0,0,0,0,-1,1903,491,0,0
686,533,0,0,0,0,0,0,0,0,0,-1,1910,491,0,0
693,533,0,0,0,0,0,0,0,0,0,-1,1917,491,0,0
700,533,0,0,0,0,0,0,0,0,0,-1,1924,491,0,0
707,533,0,0,0,0,0,0,0,0,0,-1,1931,491,0,0
714,533,0,0,0,0,0,0,0,0,0,-1,1938,491,0,0
721,533,0,0,0,0,0,0,0,0,0,-1,1945,491,0,0
728,533,0,0,0,0,0,0,0,0,0,-1,1952,491,0,0
735,533,0,0,0,0,0,0,0,0,0,-1,1959,491,0,0
742,533,0,0,0,0,0,0,0,0,0,-1,1966,491,0,0
749,533,0,0,0,0,0,0,0,0,0,-1,1973,491,0,0
756,533,0,0,0,0,0,0,0,0,0,-1,1980,491,0,0
763,533,0,0,0,0,0,0,0,0,0,-1,1987,491,0,0
770,533,0,0,0,0,0,0,0,0,0,-1,1994,491,0,0
777,533,0,0,0,0,0,0,0,0,0,-1,2001,491,0,0
784,533,0,0,0,0,0,0,0,0,0,-1,2008,491,0,0
791,533,0,0,0,0,0,0,0,0,0,-1,2015,491,0,0
798,533,0,0,0,0,0,0,0,0,0,-1,2022,491,0,0
805,533,0,0,0,0,0,0,0,0,0,-1,2029,491,0,0
812,533,0,0,0,0,0,0,0,0,0,-1,2036,491,0,0
-700,526,0,0,0,0,0,0,0,0,0,-1,524,498,0,0
-693,526,0,0,0,0,0,0,0,0,0,-1,531,498,0,0
-686,526,0,0,0,0,0,0,0,0,0,-1,538,498,0,0
-679,526,0,0,0,0,0,0,0,0,0,-1,545,498,0,0
-672,526,0,0,0,0,0,0,0,0,0,-1,552,498,0,0
-665,526,0,0,0,0,0,0,0,0,0,-1,559,498,0,0
-658,526,0,0,0,0,0,0,0,0,0,-1,566,498,0,0
-651,526,0,0,0,0,0,0,0,0,0,-1,573,498,0,0
-644,526,0,0,0,0,0,0,0,0,0,-1,580,498,0,0
-637,526,0,0,0,0,0,0,0,0,0,-1,587,498,0,0
-630,526,0,0,0,0,0,0,0,0,0,-1,594,498,0,0
-623,526,0,0,0,0,0,0,0,0,0,-1,601,498,0,0
-616,526,0,0,0,0,0,0,0,0,0,-1,608,498,0,0
-609,526,0,0,0,0,0,0,0,0,0,-1,615,498,0,0
-602,526,0,0,0,0,0,0,0,0,0,-1,622,498,0,0
-595,526,0,0,0,0,0,0,0,0,0,-1,629,498,0,0
-588,526,0,0,0,0,0,0,0,0,0,-1,636,498,0,0
-581,526,0,0,0,0,0,0,0,0,0,-1,643,498,0,0
-574,526,0,0,0,0,0,0,0,0,0,-1,650,498,0,0
-567,526,0,0,0,0,0,0,0,0,0,-1,657,498,0,0
-560,526,0,0,0,0,0,0,0,0,0,-1,664,498,0,0
-553,526,0,0,0,0,0,0,0,0,0,-1,671,498,0,0
-546,526,0,0,0,0,0,0,0,0,0,-1,678,498,0,0
-539,526,0,0,0,0,0,0,0,0,0,-1,685,498,0,0
-532,526,0,0,0,0,0,0,0,0,0,-1,692,498,0,0
-525,526,0,0,0,0,0,0,0,0,0,-1,699,498,0,0
-518,526,0,0,0,0,0,0,0,0,0,-1,706,498,0,0
-511,526,0,0,0,0,0,0,0,0,0,-1,713,498,0,0
-504,526,0,0,0,0,0,0,0,0,0,-1,720,498,0,0
-497,526,0,0,0,0,0,0,0,0,0,-1,727,498,0,0
-490,526,0,0,0,0,0,0,0,0,0,-1,734,498,0,0
-483,526,0,0,0,0,0,0,0,0,0,-1,741,498,0,0
-476,526,0,0,0,0,0,0,0,0,0,-1,748,498,0,0
-469,526,0,0,0,0,0,0,0,0,0,-1,755,498,0,0
-462,526,0,0,0,0,0,0,0,0,0,-1,762,498,0,0
-455,526,0,0,0,0,0,0,0,0,0,-1,769,498,0,0
-448,526,0,0,0,0,0,0,0,0,0,-1,776,498,0,0
-441,526,0,0,0,0,0,0,0,0,0,-1,783,498,0,0
-434,526,3.3847,0.540985,0,0,0,0,0,0,0,-1,790,498,3.38472,-0.540982
-427,526,2.52576,-0.17395,0,0,0,0,0,0,0,-1,797,498,2.52577,0.173941
-420,526,0.603027,-2.56317,0,0,0,0,0,0,0,-1,804,498,0.603047,2.56317
-413,526,1.16187,-2.85855,0.0749497,0.0127627,-0.0196937,0.0806617,0.00705066,-0.282297,0.0515851,0.0471351,811,498,1.16184,2.85855
-406,526,2.46545,-2.63004,0.0686241,0.00997139,-0.0157206,0.0725719,0.00602354,-0.246038,0.0465037,0.0469756,818,498,2.46546,2.63003
-399,526,2.44092,-2.09518,0,0,0,0,0,0,0,-1,825,498,2.44094,2.09518
-392,526,4.552,-2.80872,0,0,0,0,0,0,0,-1,832,498,4.55201,2.80871
-385,526,0.786621,-3.25848,0,0,0,0,0,0,0,-1,839,498,0.786627,3.25849
-378,526,0.957397,-3.66675,0,0,0,0,0,0,0,-1,846,498,0.957401,3.66673
-371,526,0.387878,-4.26904,0.024778,0.00311117,-0.00563714,0.0261569,0.00173229,-0.239896,0.0168902,0.0375219,853,498,0.387857,4.26905
-364,526,0.458923,-4.40918,0.0168796,0.00212601,-0.00357923,0.0177021,0.00130353,-0.225869,0.0113918,0.0206987,860,498,0.45894,4.40919
-357,526,0.421387,-4.55063,0.00921913,0.000820316,-0.0026287,0.00997402,6.54217e-05,-0.279648,0.00662765,0.0145709,867,498,0.421375,4.55064
-350,526,0.4422,-4.70319,0.0034213,-0.000231045,-0.00225702,0.00449841,-0.00130815,-0.445263,0.00351704,0.0121196,874,498,0.442196,4.70317
-343,526,0.460022,-4.83191,8.85644e-05,-0.000682856,-0.000474188,0.000314104,-0.000908396,-0.443965,0.000733084,0.0162025,881,498,0.46004,4.8319
-336,526,0.432068,-4.98758,-0.000620264,-0.000920867,2.68709e-05,-0.00061788,-0.00092325,0.0884555,0.000543122,0.0145618,888,498,0.432048,4.98757
-329,526,0.414001,-5.12726,-0.000452635,-0.00115813,-8.99658e-06,-0.000452521,-0.00115824,-0.0127494,0.000674017,0.0147321,895,498,0.413974,5.12727
-322,526,0.436768,-5.24445,-0.000342015,-0.00109846,9.45007e-06,-0.000341897,-0.00109858,0.0124902,0.000649159,0.0107141,902,498,0.436783,5.24446
-315,526,0.445251,-5.38126,-0.00027284,-0.000930017,0.000107954,-0.000255561,-0.000947297,0.158715,0.000565917,0.0095353,909,498,0.445251,5.38125
-308,526,0.436829,-5.52127,-0.000244053,-0.000817137,0.000189818,-0.000186884,-0.000874306,0.292537,0.00053164,0.00902464,916,498,0.43683,5.52128
-301,526,0.431519,-5.63882,-0.00126769,-0.00133126,0.000957939,-0.000341005,-0.00225794,0.768814,0.00140548,0.0102646,923,498,0.431547,5.63881
-294,526,0.437805,-5.77158,-0.003497,-0.00294837,0.00230482,-0.000901605,-0.00554377,0.844628,0.00343498,0.00961716,930,498,0.437827,5.77158
-287,526,0.431946,-5.91757,-0.00718332,-0.00595514,0.0040509,-0.00247205,-0.0106664,0.860622,0.0064469,0.00969463,937,498,0.431916,5.91757
-280,526,0.433838,-6.0325,-0.0131441,-0.010862,0.00650471,-0.00539903,-0.0186071,0.872226,0.0110537,0.0125313,944,498,0.433863,6.03251
-273,526,0.436707,-6.16388,-0.0194022,-0.0158209,0.00872034,-0.00870921,-0.0265138,0.886662,0.0156051,0.0106631,951,498,0.436733,6.16387
-266,526,0.439514,-6.27979,-0.0259739,-0.0209557,0.0112667,-0.0119221,-0.0350075,0.894959,0.0205513,0.00994731,958,498,0.439512,6.27978
-259,526,0.479614,-6.38766,-0.0332006,-0.0268787,0.0139502,-0.0157359,-0.0443435,0.896811,0.0259588,0.0176141,965,498,0.479602,6.38766
-252,526,0.478455,-6.47305,-0.0402155,-0.0324515,0.0161446,-0.0197287,-0.0529382,0.903385,0.0308924,0.0327277,972,498,0.478427,6.47304
-245,526,0.557068,-6.58389,-0.0466896,-0.0375831,0.0177438,-0.0238177,-0.060455,0.910994,0.0351643,0.0415859,979,498,0.557096,6.58391
-238,526,0.840515,-6.74335,-0.0526201,-0.0423433,0.0189174,-0.0278788,-0.0670846,0.918011,0.0389149,0.0390842,986,498,0.840514,6.74336
-231,526,0.862671,-6.76196,-0.0578962,-0.0465459,0.0196527,-0.0317653,-0.0726767,0.925961,0.0420705,0.0440953,993,498,0.862694,6.76195
-224,526,0.582825,-7.08627,-0.0618676,-0.0498385,0.0197902,-0.035169,-0.076537,0.93292,0.044237,0.047509,1000,498,0.582819,7.08627
-217,526,0.556091,-7.35571,0,0,0,0,0,0,0,-1,1007,498,0.556092,7.3557
-210,526,1.12372,-7.22238,0,0,0,0,0,0,0,-1,1014,498,1.12371,7.22237
-203,526,1.59216,-7.32526,0,0,0,0,0,0,0,-1,1021,498,1.59218,7.32524
-196,526,1.43909,-7.02933,0,0,0,0,0,0,0,-1,1028,498,1.4391,7.02934
-189,526,1.30518,-3.10144,0,0,0,0,0,0,0,-1,1035,498,1.3052,3.10144
-182,526,1.7323,-2.99405,0,0,0,0,0,0,0,-1,1042,498,1.73226,2.99404
-175,526,2.27637,-2.07983,0,0,0,0,0,0,0,-1,1049,498,2.27639,2.07984
-168,526,2.12036,-1.66049,0,0,0,0,0,0,0,-1,1056,498,2.12035,1.66048
-161,526,2.09082,-1.20572,0,0,0,0,0,0,0,-1,1063,498,2.09086,1.2057
-154,526,2.15234,-0.381561,0,0,0,0,0,0,0,-1,1070,498,2.15234,0.381553
-147,526,2.28003,0.0862732,0,0,0,0,0,0,0,-1,1077,498,2.28002,-0.0862774
-140,526,1.70288,-4.23944,0,0,0,0,0,0,0,-1,1084,498,1.70289,4.23944
-133,526,2.84351,-4.6127,0,0,0,0,0,0,0,-1,1091,498,2.84349,4.61269
-126,526,3.42529,-2.36053,0,0,0,0,0,0,0,-1,1098,498,3.42523,2.36052
-119,526,2.7771,-0.764099,0,0,0,0,0,0,0,-1,1105,498,2.7771,0.764107
-112,526,2.57715,-1.1893,0,0,0,0,0,0,0,-1,1112,498,2.57718,1.1893
-105,526,0,0,0,0,0,0,0,0,0,-1,1119,498,0,0
-98,526,0,0,0,0,0,0,0,0,0,-1,1126,498,0,0
-91,526,0,0,0,0,0,0,0,0,0,-1,1133,498,0,0
-84,526,0,0,0,0,0,0,0,0,0,-1,1140,498,0,0
-77,526,0,0,0,0,0,0,0,0,0,-1,1147,498,0,0
-70,526,0,0,0,0,0,0,0,0,0,-1,1154,498,0,0
-63,526,0,0,0,0,0,0,0,0,0,-1,1161,498,0,0
-56,526,0,0,0,0,0,0,0,0,0,-1,1168,498,0,0
-49,526,0,0,0,0,0,0,0,0,0,-1,1175,498,0,0
-42,526,0,0,0,0,0,0,0,0,0,-1,1182,498,0,0
-35,526,0,0,0,0,0,0,0,0,0,-1,1189,498,0,0
-28,526,0,0,0,0,0,0,0,0,0,-1,1196,498,0,0
-21,526,0,0,0,0,0,0,0,0,0,-1,1203,498,0,0
-14,526,0,0,0,0,0,0,0,0,0,-1,1210,498,0,0
-7,526,0,0,0,0,0,0,0,0,0,-1,1217,498,0,0
0,526,0,0,0,0,0,0,0,0,0,-1,1224,498,0,0
7,526,0,0,0,0,0,0,0,0,0,-1,1231,498,0,0
14,526,0,0,0,0,0,0,0,0,0,-1,1238,498,0,0
21,526,0,0,0,0,0,0,0,0,0,-1,1245,498,0,0
28,526,0,0,0,0,0,0,0,0,0,-1,1252,498,0,0
35,526,0,0,0,0,0,0,0,0,0,-1,1259,498,0,0
42,526,0,0,0,0,0,0,0,0,0,-1,1266,498,0,0
49,526,0,0,0,0,0,0,0,0,0,-1,1273,498,0,0
56,526,0,0,0,0,0,0,0,0,0,-1,1280,498,0,0
63,526,0,0,0,0,0,0,0,0,0,-1,1287,498,0,0
70,526,0,0,0,0,0,0,0,0,0,-1,1294,498,0,0
77,526,0,0,0,0,0,0,0,0,0,-1,1301,498,0,0
84,526,0,0,0,0,0,0,0,0,0,-1,1308,498,0,0
91,526,0,0,0,0,0,0,0,0,0,-1,1315,498,0,0
98,526,0,0,0,0,0,0,0,0,0,-1,1322,498,0,0
105,526,0,0,0,0,0,0,0,0,0,-1,1329,498,0,0
112,526,0,0,0,0,0,0,0,0,0,-1,1336,498,0,0
119,526,0,0,0,0,0,0,0,0,0,-1,1343,498,0,0
126,526,0,0,0,0,0,0,0,0,0,-1,1350,498,0,0
133,526,0,0,0,0,0,0,0,0,0,-1,1357,498,0,0
140,526,0,0,0,0,0,0,0,0,0,-1,1364,498,0,0
147,526,0,0,0,0,0,0,0,0,0,-1,1371,498,0,0
154,526,0,0,0,0,0,0,0,0,0,-1,1378,498,0,0
161,526,0,0,0,0,0,0,0,0,0,-1,1385,498,0,0
168,526,0,0,0,0,0,0,0,0,0,-1,1392,498,0,0
175,526,0,0,0,0,0,0,0,0,0,-1,1399,498,0,0
182,526,0,0,0,0,0,0,0,0,0,-1,1406,498,0,0
189,526,0,0,0,0,0,0,0,0,0,-1,1413,498,0,0
196,526,0,0,0,0,0,0,0,0,0,-1,1420,498,0,0
203,526,0,0,0,0,0,0,0,0,0,-1,1427,498,0,0
210,526,0,0,0,0,0,0,0,0,0,-1,1434,498,0,0
217,526,0,0,0,0,0,0,0,0,0,-1,1441,498,0,0
224,526,0,0,0,0,0,0,0,0,0,-1,1448,498,0,0
231,526,7.93237,-1.30618,0,0,0,0,0,0,0,-1,1455,498,7.93238,1.30618
238,526,7.97717,-1.08197,0,0,0,0,0,0,0,-1,1462,498,7.97723,1.08196
245,526,7.2793,-0.792938,0,0,0,0,0,0,0,-1,1469,498,7.27931,0.792926
252,526,6.73523,-2.23608,0,0,0,0,0,0,0,-1,1476,498,6.73525,2.23608
259,526,6.22949,-1.84967,0,0,0,0,0,0,0,-1,1483,498,6.22953,1.84968
266,526,5.72375,-1.46329,0,0,0,0,0,0,0,-1,1490,498,5.72381,1.46328
273,526,4.33984,0.49173,0,0,0,0,0,0,0,-1,1497,498,4.33979,-0.491727
280,526,1.4585,-1.59897,0,0,0,0,0,0,0,-1,1504,498,1.45846,1.59895
287,526,1.46411,-2.40134,0,0,0,0,0,0,0,-1,1511,498,1.46406,2.40133
294,526,5.57471,-4.59085,0,0,0,0,0,0,0,-1,1518,498,5.57466,4.59084
301,526,4.42786,-3.99677,0,0,0,0,0,0,0,-1,1525,498,4.42788,3.99676
308,526,5.79529,-4.19366,0,0,0,0,0,0,0,-1,1532,498,5.79528,4.19368
315,526,5.09851,-5.20068,0,0,0,0,0,0,0,-1,1539,498,5.09851,5.20068
322,526,5.50708,-4.72348,0,0,0,0,0,0,0,-1,1546,498,5.50713,4.72347
329,526,3.88672,-4.345,0,0,0,0,0,0,0,-1,1553,498,3.88674,4.34501
336,526,4.97876,-2.23828,0,0,0,0,0,0,0,-1,1560,498,4.97877,2.23828
343,526,3.31665,-2.69696,0,0,0,0,0,0,0,-1,1567,498,3.31667,2.69696
350,526,4.75708,-5.0192,0,0,0,0,0,0,0,-1,1574,498,4.75702,5.01919
357,526,4.16992,-5.62112,0,0,0,0,0,0,0,-1,1581,498,4.16993,5.62113
364,526,4.06897,-6.0654,-0.00419168,-0.00913469,-0.0112006,0.00480682,-0.0181332,-0.676809,0.0139695,0.0446506,1588,498,4.06893,6.06539
371,526,4.073,-5.76602,-0.00313279,-0.00822257,-0.00952105,0.00417762,-0.015533,-0.654806,0.0119929,0.0446404,1595,498,4.07298,5.76602
378,526,3.58032,-5.89069,0,0,0,0,0,0,0,-1,1602,498,3.58034,5.89067
385,526,3.70239,-5.64789,-0.00200928,-0.00681485,-0.00693737,0.00292963,-0.0117538,-0.618687,0.00897324,0.0414459,1609,498,3.70244,5.64788
392,526,3.78223,-5.38821,-0.00180792,-0.0060847,-0.00587908,0.00230959,-0.0102022,-0.610972,0.00768786,0.0233262,1616,498,3.78227,5.38821
399,526,3.68604,-5.25125,-0.00160888,-0.00543689,-0.00498851,0.0018202,-0.00886597,-0.602218,0.00660156,0.0148257,1623,498,3.68608,5.25124
406,526,3.71973,-5.09943,-0.00125934,-0.00447941,-0.00403573,0.00147566,-0.00721441,-0.5956,0.00536951,0.011284,1630,498,3.71979,5.09942
413,526,3.71985,-4.94653,-0.000843089,-0.00349293,-0.00311228,0.00121454,-0.00555056,-0.584163,0.00416468,0.0118154,1637,498,3.71991,4.94655
420,526,3.70569,-4.80408,-0.000570409,-0.00291124,-0.00234829,0.000882973,-0.00436462,-0.554209,0.00324437,0.0126576,1644,498,3.70564,4.80407
427,526,3.73108,-4.64529,-0.000380747,-0.00215478,-0.00165819,0.000612764,-0.00314829,-0.539798,0.00233013,0.0133738,1651,498,3.73106,4.64528
434,526,3.74097,-4.47223,-0.000215553,-0.00141896,-0.00111321,0.000448161,-0.00208267,-0.537633,0.00155945,0.0123143,1658,498,3.74099,4.47222
441,526,3.73389,-4.34216,-0.000149472,-0.000790901,-0.000620235,0.000228061,-0.00116843,-0.546787,0.000865056,0.011172,1665,498,3.73387,4.34216
448,526,3.72449,-4.20523,-0.000123798,-2.82004e-05,-7.84346e-05,1.58524e-05,-0.000167851,-1.05905,0.000117541,0.0100747,1672,498,3.72453,4.20522
455,526,3.71741,-4.07751,-0.000690841,0.000874407,2.46245e-05,0.000874794,-0.000691229,1.55507,0.000906212,0.0126499,1679,498,3.71744,4.07753
462,526,3.73022,-3.89691,-0.00176528,0.00207714,-0.000550209,0.00215437,-0.00184251,-1.43134,0.00230994,0.0107501,1686,498,3.73022,3.8969
469,526,3.74377,-3.72797,-0.00315903,0.00299726,-0.0017536,0.00346173,-0.0036235,-1.31188,0.00409101,0.00811917,1693,498,3.74382,3.72796
476,526,3.73755,-3.57214,-0.00494982,0.00351719,-0.00333628,0.00467381,-0.00610643,-1.23709,0.00624226,0.00933699,1700,498,3.7376,3.57214
483,526,3.73804,-3.39178,-0.00715476,0.00465071,-0.00532176,0.00669552,-0.00919957,-1.20395,0.00921492,0.0102167,1707,498,3.73805,3.39178
490,526,3.76221,-3.20914,-0.00996835,0.0058679,-0.0079638,0.00918004,-0.0132805,-1.17666,0.0130394,0.0159842,1714,498,3.76225,3.20913
497,526,3.70422,-3.08847,-0.0133461,0.00724511,-0.0110716,0.0120684,-0.0181693,-1.15995,0.0175758,0.0208689,1721,498,3.70422,3.08847
504,526,3.59937,-2.83817,-0.0171102,0.00851668,-0.0148911,0.0153483,-0.0239418,-1.14067,0.0228643,0.0257849,1728,498,3.59937,2.83818
511,526,3.21729,-2.66479,-0.0205021,0.00993941,-0.01889,0.0189778,-0.0295404,-1.12452,0.0282324,0.0363905,1735,498,3.21733,2.66479
518,526,2.93457,-2.60645,-0.0238493,0.0115622,-0.0231485,0.023,-0.0352871,-1.11188,0.0339004,0.0442791,1742,498,2.93461,2.60643
525,526,3.24976,-3.94742,0,0,0,0,0,0,0,-1,1749,498,3.2498,3.94743
532,526,3.54285,-2.81274,0,0,0,0,0,0,0,-1,1756,498,3.54284,2.81273
539,526,3.29407,0.932312,0,0,0,0,0,0,0,-1,1763,498,3.2941,-0.93232
546,526,3.36731,1.07721,0,0,0,0,0,0,0,-1,1770,498,3.36735,-1.07719
553,526,3.40796,1.37137,0,0,0,0,0,0,0,-1,1777,498,3.40792,-1.37138
560,526,0,0,0,0,0,0,0,0,0,-1,1784,498,0,0
567,526,0,0,0,0,0,0,0,0,0,-1,1791,498,0,0
574,526,0,0,0,0,0,0,0,0,0,-1,1798,498,0,0
581,526,0,0,0,0,0,0,0,0,0,-1,1805,498,0,0
588,526,0,0,0,0,0,0,0,0,0,-1,1812,498,0,0
595,526,0,0,0,0,0,0,0,0,0,-1,1819,498,0,0
602,526,0,0,0,0,0,0,0,0,0,-1,1826,498,0,0
609,526,0,0,0,0,0,0,0,0,0,-1,1833,498,0,0
616,526,0,0,0,0,0,0,0,0,0,-1,1840,498,0,0
623,526,0,0,0,0,0,0,0,0,0,-1,1847,498,0,0
630,526,0,0,0,0,0,0,0,0,0,-1,1854,498,0,0
637,526,0,0,0,0,0,0,0,0,0,-1,1861,498,0,0
644,526,0,0,0,0,0,0,0,0,0,-1,1868,498,0,0
651,526,0,0,0,0,0,0,0,0,0,-1,1875,498,0,0
658,526,0,0,0,0,0,0,0,0,0,-1,1882,498,0,0
665,526,0,0,0,0,0,0,0,0,0,-1,1889,498,0,0
672,526,0,0,0,0,0,0,0,0,0,-1,1896,498,0,0
679,526,0,0,0,0,0,0,0,0,0,-1,1903,498,0,0
686,526,0,0,0,0,0,0,0,0,0,-1,1910,498,0,0
693,526,0,0,0,0,0,0,0,0,0,-1,1917,498,0,0
700,526,0,0,0,0,0,0,0,0,0,-1,1924,498,0,0
707,526,0,0,0,0,0,0,0,0,0,-1,1931,498,0,0
714,526,0,0,0,0,0,0,0,0,0,-1,1938,498,0,0
721,526,0,0,0,0,0,0,0,0,0,-1,1945,498,0,0
728,526,0,0,0,0,0,0,0,0,0,-1,1952,498,0,0
735,526,0,0,0,0,0,0,0,0,0,-1,1959,498,0,0
742,526,0,0,0,0,0,0,0,0,0,-1,1966,498,0,0
749,526,0,0,0,0,0,0,0,0,0,-1,1973,498,0,0
756,526,0,0,0,0,0,0,0,0,0,-1,1980,498,0,0
763,526,0,0,0,0,0,0,0,0,0,-1,1987,498,0,0
770,526,0,0,0,0,0,0,0,0,0,-1,1994,498,0,0
777,526,0,0,0,0,0,0,0,0,0,-1,2001,498,0,0
784,526,0,0,0,0,0,0,0,0,0,-1,2008,498,0,0
791,526,0,0,0,0,0,0,0,0,0,-1,2015,498,0,0
798,526,0,0,0,0,0,0,0,0,0,-1,2022,498,0,0
805,526,0,0,0,0,0,0,0,0,0,-1,2029,498,0,0
812,526,0,0,0,0,0,0,0,0,0,-1,2036,498,0,0
-700,519,0,0,0,0,0,0,0,0,0,-1,524,505,0,0
-693,519,0,0,0,0,0,0,0,0,0,-1,531,505,0,0
-686,519,0,0,0,0,0,0,0,0,0,-1,538,505,0,0
-679,519,0,0,0,0,0,0,0,0,0,-1,545,505,0,0
-672,519,0,0,0,0,0,0,0,0,0,-1,552,505,0,0
-665,519,0,0,0,0,0,0,0,0,0,-1,559,505,0,0
-658,519,0,0,0,0,0,0,0,0,0,-1,566,505,0,0
-651,519,0,0,0,0,0,0,0,0,0,-1,573,505,0,0
-644,519,0,0,0,0,0,0,0,0,0,-1,580,505,0,0
-637,519,0,0,0,0,0,0,0,0,0,-1,587,505,0,0
-630,519,0,0,0,0,0,0,0,0,0,-1,594,505,0,0
-623,519,0,0,0,0,0,0,0,0,0,-1,601,505,0,0
-616,519,0,0,0,0,0,0,0,0,0,-1,608,505,0,0
-609,519,0,0,0,0,0,0,0,0,0,-1,615,505,0,0
-602,519,0,0,0,0,0,0,0,0,0,-1,622,505,0,0
-595,519,0,0,0,0,0,0,0,0,0,-1,629,505,0,0
-588,519,0,0,0,0,0,0,0,0,0,-1,636,505,0,0
-581,519,0,0,0,0,0,0,0,0,0,-1,643,505,0,0
-574,519,0,0,0,0,0,0,0,0,0,-1,650,505,0,0
-567,519,0,0,0,0,0,0,0,0,0,-1,657,505,0,0
-560,519,0,0,0,0,0,0,0,0,0,-1,664,505,0,0
-553,519,0,0,0,0,0,0,0,0,0,-1,671,505,0,0
-546,519,0,0,0,0,0,0,0,0,0,-1,678,505,0,0
-539,519,0,0,0,0,0,0,0,0,0,-1,685,505,0,0
-532,519,0,0,0,0,0,0,0,0,0,-1,692,505,0,0
-525,519,0,0,0,0,0,0,0,0,0,-1,699,505,0,0
-518,519,0,0,0,0,0,0,0,0,0,-1,706,505,0,0
-511,519,0,0,0,0,0,0,0,0,0,-1,713,505,0,0
-504,519,0,0,0,0,0,0,0,0,0,-1,720,505,0,0
-497,519,0,0,0,0,0,0,0,0,0,-1,727,505,0,0
-490,519,0,0,0,0,0,0,0,0,0,-1,734,505,0,0
-483,519,0,0,0,0,0,0,0,0,0,-1,741,505,0,0
-476,519,0,0,0,0,0,0,0,0,0,-1,748,505,0,0
-469,519,0,0,0,0,0,0,0,0,0,-1,755,505,0,0
-462,519,0,0,0,0,0,0,0,0,0,-1,762,505,0,0
-455,519,0,0,0,0,0,0,0,0,0,-1,769,505,0,0
-448,519,0,0,0,0,0,0,0,0,0,-1,776,505,0,0
-441,519,-6.75061,0.169159,0,0,0,0,0,0,0,-1,783,505,-6.75061,-0.169161
-434,519,4.32593,0.366211,0,0,0,0,0,0,0,-1,790,505,4.32595,-0.366207
-427,519,-0.540405,-2.76971,0,0,0,0,0,0,0,-1,797,505,-0.540393,2.7697
-420,519,0.525635,-2.82028,0,0,0,0,0,0,0,-1,804,505,0.525644,2.82028
-413,519,1.02374,-3.10211,0.060667,0.0142556,-0.0150967,0.0651455,0.00977711,-0.288385,0.040566,0.048447,811,505,1.02375,3.10211
-406,519,1.6358,-2.86505,0.055013,0.0109647,-0.0109914,0.0576034,0.00837436,-0.231449,0.0359375,0.0460267,818,505,1.6358,2.86504
-399,519,1.612,-2.3396,0,0,0,0,0,0,0,-1,825,505,1.61197,2.3396
-392,519,0.434692,-3.81592,0,0,0,0,0,0,0,-1,832,505,0.4347,3.81593
-385,519,0.503235,-3.5932,0.0332149,0.0056996,-0.00522177,0.0341726,0.00474196,-0.181378,0.0213771,0.0453146,839,505,0.503228,3.59319
-378,519,0.572327,-3.89343,0.025523,0.0045443,-0.00508282,0.0266896,0.00337769,-0.225613,0.0167809,0.0321996,846,505,0.572307,3.89344
-371,519,0.32373,-4.23273,0.0185959,0.00325923,-0.00320859,0.0192401,0.00261502,-0.198142,0.01205,0.0185523,853,505,0.3237,4.23272
-364,519,0.295349,-4.37646,0.0124485,0.00231547,-0.00190835,0.012796,0.00196799,-0.180113,0.00795619,0.0109982,860,505,0.295336,4.37647
-357,519,0.308105,-4.54834,0.00655679,0.00111322,-0.00150811,0.00694668,0.000723329,-0.252989,0.00440983,0.00970962,867,505,0.308124,4.54833
-350,519,0.306519,-4.70123,0.00228704,7.71151e-05,-0.00159568,0.00312298,-0.000758831,-0.48257,0.00237568,0.0122627,874,505,0.306538,4.70123
-343,519,0.307068,-4.82864,6.36225e-05,-0.000355088,-0.000435482,0.000337459,-0.000628925,-0.561336,0.000566338,0.0143722,881,505,0.307066,4.82864
-336,519,0.273987,-4.97311,-0.0003481,-0.000591557,-0.000183497,-0.000249627,-0.000690031,-0.492536,0.000403433,0.0123318,888,505,0.27399,4.97313
-329,519,0.279724,-5.10617,-0.000261945,-0.000900649,-0.00028648,-0.000152279,-0.00101032,-0.365596,0.000628959,0.0112484,895,505,0.279698,5.10617
-322,519,0.31189,-5.23569,-0.000290341,-0.000927818,-0.000289903,-0.000178223,-0.00103994,-0.369028,0.000642181,0.0104122,902,505,0.311902,5.2357
-315,519,0.322815,-5.38464,-0.000337558,-0.000857345,-0.000216747,-0.000259038,-0.000935866,-0.347561,0.000557981,0.00881446,909,505,0.322801,5.38466
-308,519,0.315796,-5.5365,-0.00042129,-0.000820468,-0.000128515,-0.000383493,-0.000858265,-0.286037,0.000496453,0.00811534,916,505,0.315781,5.53651
-301,519,0.298767,-5.64722,-0.0021525,-0.00169082,0.00105277,-0.000843874,-0.00299944,0.893324,0.00178607,0.0124762,923,505,0.298779,5.64722
-294,519,0.299744,-5.73749,-0.00579749,-0.00429181,0.00317229,-0.00178425,-0.00830505,0.901902,0.00504817,0.0144937,930,505,0.299737,5.73749
-287,519,0.286316,-5.91553,-0.011717,-0.00909541,0.0059893,-0.00427514,-0.0165372,0.893126,0.00991202,0.0106529,937,505,0.286338,5.91554
-280,519,0.283508,-6.05185,-0.0206453,-0.0164229,0.00975068,-0.00855745,-0.0285107,0.892011,0.0168933,0.013948,944,505,0.283495,6.05184
-273,519,0.318176,-6.19711,-0.0298892,-0.0237827,0.0131552,-0.0133311,-0.0403409,0.899426,0.0237329,0.0179573,951,505,0.318203,6.19712
-266,519,0.305176,-6.32129,-0.0394642,-0.0313623,0.0171269,-0.0178138,-0.0530127,0.901527,0.0311506,0.0264713,958,505,0.305184,6.3213
-259,519,0.376465,-6.36942,-0.049713,-0.0399786,0.0211445,-0.0231484,-0.0665433,0.898521,0.0390071,0.0460535,965,505,0.376477,6.3694
-252,519,0.506592,-6.38055,0,0,0,0,0,0,0,-1,972,505,0.506593,6.38057
-245,519,0.469177,-6.56616,0,0,0,0,0,0,0,-1,979,505,0.469204,6.56616
-238,519,0.999451,-6.8197,0,0,0,0,0,0,0,-1,986,505,0.99947,6.81969
-231,519,0.888916,-6.70898,0,0,0,0,0,0,0,-1,993,505,0.88894,6.70898
-224,519,0.492859,-7.09467,0,0,0,0,0,0,0,-1,1000,505,0.492887,7.09465
-217,519,-2.97125,-4.84393,0,0,0,0,0,0,0,-1,1007,505,-2.97128,4.84393
-210,519,-2.14398,-4.74774,0,0,0,0,0,0,0,-1,1014,505,-2.14397,4.74775
-203,519,-1.60431,-5.51117,0,0,0,0,0,0,0,-1,1021,505,-1.60429,5.51118
-196,519,-1.11841,-6.27396,0,0,0,0,0,0,0,-1,1028,505,-1.11841,6.27395
-189,519,3.354,-1.57919,0,0,0,0,0,0,0,-1,1035,505,3.35401,1.57919
-182,519,2.76697,-1.19659,0,0,0,0,0,0,0,-1,1042,505,2.76696,1.19661
-175,519,2.31323,-0.960938,0,0,0,0,0,0,0,-1,1049,505,2.31319,0.960941
-168,519,2.07849,-0.696259,0,0,0,0,0,0,0,-1,1056,505,2.07853,0.696256
-161,519,2.32056,-0.522339,0,0,0,0,0,0,0,-1,1063,505,2.32057,0.522328
-154,519,2.55566,0.116669,0,0,0,0,0,0,0,-1,1070,505,2.55563,-0.116661
-147,519,1.20239,-3.77567,0,0,0,0,0,0,0,-1,1077,505,1.20242,3.77568
-140,519,2.0553,-3.98102,0,0,0,0,0,0,0,-1,1084,505,2.05531,3.98103
-133,519,2.70911,-4.4516,0,0,0,0,0,0,0,-1,1091,505,2.70915,4.45161
-126,519,0,0,0,0,0,0,0,0,0,-1,1098,505,0,0
-119,519,0,0,0,0,0,0,0,0,0,-1,1105,505,0,0
-112,519,0,0,0,0,0,0,0,0,0,-1,1112,505,0,0
-105,519,0,0,0,0,0,0,0,0,0,-1,1119,505,0,0
-98,519,0,0,0,0,0,0,0,0,0,-1,1126,505,0,0
-91,519,0,0,0,0,0,0,0,0,0,-1,1133,505,0,0
-84,519,0,0,0,0,0,0,0,0,0,-1,1140,505,0,0
-77,519,0,0,0,0,0,0,0,0,0,-1,1147,505,0,0
-70,519,0,0,0,0,0,0,0,0,0,-1,1154,505,0,0
-63,519,0,0,0,0,0,0,0,0,0,-1,1161,505,0,0
-56,519,0,0,0,0,0,0,0,0,0,-1,1168,505,0,0
-49,519,0,0,0,0,0,0,0,0,0,-1,1175,505,0,0
-42,519,0,0,0,0,0,0,0,0,0,-1,1182,505,0,0
-35,519,0,0,0,0,0,0,0,0,0,-1,1189,505,0,0
-28,519,0,0,0,0,0,0,0,0,0,-1,1196,505,0,0
-21,519,0,0,0,0,0,0,0,0,0,-1,1203,505,0,0
-14,519,0,0,0,0,0,0,0,0,0,-1,1210,505,0,0
-7,519,0,0,0,0,0,0,0,0,0,-1,1217,505,0,0
0,519,0,0,0,0,0,0,0,0,0,-1,1224,505,0,0
7,519,0,0,0,0,0,0,0,0,0,-1,1231,505,0,0
14,519,0,0,0,0,0,0,0,0,0,-1,1238,505,0,0
21,519,0,0,0,0,0,0,0,0,0,-1,1245,505,0,0
28,519,0,0,0,0,0,0,0,0,0,-1,1252,505,0,0
35,519,0,0,0,0,0,0,0,0,0,-1,1259,505,0,0
42,519,0,0,0,0,0,0,0,0,0,-1,1266,505,0,0
49,519,0,0,0,0,0,0,0,0,0,-1,1273,505,0,0
56,519,0,0,0,0,0,0,0,0,0,-1,1280,505,0,0
63,519,0,0,0,0,0,0,0,0,0,-1,1287,505,0,0
70,519,0,0,0,0,0,0,0,0,0,-1,1294,505,0,0
77,519,0,0,0,0,0,0,0,0,0,-1,1301,505,0,0
84,519,0,0,0,0,0,0,0,0,0,-1,1308,505,0,0
91,519,0,0,0,0,0,0,0,0,0,-1,1315,505,0,0
98,519,0,0,0,0,0,0,0,0,0,-1,1322,505,0,0
105,519,0,0,0,0,0,0,0,0,0,-1,1329,505,0,0
112,519,0,0,0,0,0,0,0,0,0,-1,1336,505,0,0
119,519,0,0,0,0,0,0,0,0,0,-1,1343,505,0,0
126,519,0,0,0,0,0,0,0,0,0,-1,1350,505,0,0
133,519,0,0,0,0,0,0,0,0,0,-1,1357,505,0,0
140,519,0,0,0,0,0,0,0,0,0,-1,1364,505,0,0
147,519,0,0,0,0,0,0,0,0,0,-1,1371,505,0,0
154,519,0,0,0,0,0,0,0,0,0,-1,1378,505,0,0
161,519,0,0,0,0,0,0,0,0,0,-1,1385,505,0,0
168,519,0,0,0,0,0,0,0,0,0,-1,1392,505,0,0
175,519,0,0,0,0,0,0,0,0,0,-1,1399,505,0,0
182,519,0,0,0,0,0,0,0,0,0,-1,1406,505,0,0
189,519,0,0,0,0,0,0,0,0,0,-1,1413,505,0,0
196,519,0,0,0,0,0,0,0,0,0,-1,1420,505,0,0
203,519,0,0,0,0,0,0,0,0,0,-1,1427,505,0,0
210,519,0,0,0,0,0,0,0,0,0,-1,1434,505,0,0
217,519,0,0,0,0,0,0,0,0,0,-1,1441,505,0,0
224,519,0,0,0,0,0,0,0,0,0,-1,1448,505,0,0
231,519,0,0,0,0,0,0,0,0,0,-1,1455,505,0,0
238,519,0,0,0,0,0,0,0,0,0,-1,1462,505,0,0
245,519,0,0,0,0,0,0,0,0,0,-1,1469,505,0,0
252,519,5.26208,0.0938416,0,0,0,0,0,0,0,-1,1476,505,5.26207,-0.0938493
259,519,6.14246,-1.36441,0,0,0,0,0,0,0,-1,1483,505,6.14241,1.36441
266,519,5.31909,-0.400787,0,0,0,0,0,0,0,-1,1490,505,5.31912,0.400773
273,519,4.02393,0.325531,0,0,0,0,0,0,0,-1,1497,505,4.0239,-0.325522
280,519,4.68848,0.53006,0,0,0,0,0,0,0,-1,1504,505,4.68842,-0.530073
287,519,7.9519,-3.80801,0,0,0,0,0,0,0,-1,1511,505,7.95193,3.808
294,519,6.92273,-3.38889,0,0,0,0,0,0,0,-1,1518,505,6.92268,3.38888
301,519,5.35669,-2.92661,0,0,0,0,0,0,0,-1,1525,505,5.35675,2.9266
308,519,7.37549,-5.64529,0,0,0,0,0,0,0,-1,1532,505,7.3755,5.64529
315,519,6.30029,-4.53754,0,0,0,0,0,0,0,-1,1539,505,6.30024,4.53753
322,519,5.84302,-5.45117,0,0,0,0,0,0,0,-1,1546,505,5.84303,5.45116
329,519,4.92407,0.62384,0,0,0,0,0,0,0,-1,1553,505,4.92403,-0.623832
336,519,3.10095,-0.329285,0,0,0,0,0,0,0,-1,1560,505,3.1009,0.329283
343,519,2.49146,-2.31119,0,0,0,0,0,0,0,-1,1567,505,2.49145,2.31119
350,519,3.47729,-2.22516,0,0,0,0,0,0,0,-1,1574,505,3.47726,2.22515
357,519,4.51917,-4.51691,0,0,0,0,0,0,0,-1,1581,505,4.51914,4.51691
364,519,4.3844,-6.2142,0,0,0,0,0,0,0,-1,1588,505,4.38444,6.2142
371,519,4.57629,-5.88327,0,0,0,0,0,0,0,-1,1595,505,4.57632,5.88327
378,519,4.02661,-5.76602,0,0,0,0,0,0,0,-1,1602,505,4.02655,5.76602
385,519,4.05969,-5.51044,-0.00243849,-0.00945868,-0.00891034,0.00362821,-0.0155254,-0.597765,0.0117479,0.0443529,1609,505,4.05967,5.51044
392,519,4.05908,-5.28778,-0.00229109,-0.00844475,-0.00762556,0.00285498,-0.0135908,-0.593643,0.010147,0.0369468,1616,505,4.05904,5.28777
399,519,3.9043,-5.19098,-0.00215345,-0.00750898,-0.00654271,0.00223826,-0.0119007,-0.59116,0.00877555,0.0265748,1623,505,3.90433,5.19099
406,519,3.87988,-5.10092,-0.00178949,-0.00621502,-0.00542202,0.00185391,-0.00985842,-0.59166,0.00726948,0.0161139,1630,505,3.8799,5.10092
413,519,3.89563,-4.95557,-0.00132309,-0.00489193,-0.00429651,0.00154482,-0.00775984,-0.588577,0.00575767,0.0127208,1637,505,3.89564,4.95557
420,519,3.8667,-4.80945,-0.00102947,-0.00401685,-0.00334763,0.0011426,-0.00618891,-0.575557,0.00455483,0.0150275,1644,505,3.86666,4.80945
427,519,3.88245,-4.67673,-0.000795325,-0.00296741,-0.00246887,0.000815815,-0.00457855,-0.578189,0.00335751,0.0133926,1651,505,3.88248,4.67673
434,519,3.89856,-4.50961,-0.000556423,-0.00196363,-0.0017934,0.000666455,-0.00318651,-0.598459,0.00237783,0.0123397,1658,505,3.8986,4.50962
441,519,3.87646,-4.34811,-0.000449093,-0.0011658,-0.00123961,0.000482923,-0.00209781,-0.644692,0.00158424,0.012196,1665,505,3.87643,4.34812
448,519,3.86951,-4.20847,-0.000260461,-0.000280462,-0.000609177,0.000338798,-0.00087972,-0.777191,0.00072625,0.00933131,1672,505,3.86949,4.20847
455,519,3.87073,-4.0806,-0.000499093,0.000606064,-0.000332564,0.000698421,-0.00059145,-1.29991,0.000745561,0.0101906,1679,505,3.8707,4.0806
462,519,3.89136,-3.91168,-0.00119217,0.00167752,-0.000635272,0.00181186,-0.00132652,-1.36239,0.00181915,0.010087,1686,505,3.89134,3.91167
469,519,3.89551,-3.73389,-0.00221819,0.0024288,-0.00154793,0.00289721,-0.00268659,-1.27695,0.00322457,0.0106921,1693,505,3.89553,3.73389
476,519,3.88171,-3.55637,-0.00358779,0.00272384,-0.00282899,0.00380623,-0.00467018,-1.20537,0.00490232,0.0124504,1700,505,3.88173,3.55638
483,519,3.88916,-3.38577,-0.00525238,0.00351499,-0.00441539,0.00535323,-0.00709062,-1.1763,0.00720776,0.0139109,1707,505,3.88913,3.38578
490,519,3.88928,-3.20776,-0.00734093,0.00426171,-0.00648896,0.00716452,-0.0102437,-1.15015,0.0101029,0.0122206,1714,505,3.88932,3.20777
497,519,3.87549,-3.07895,-0.00981173,0.00508978,-0.00881921,0.00918425,-0.0139062,-1.13614,0.0134239,0.0122747,1721,505,3.87551,3.07895
504,519,3.85706,-2.9285,-0.012459,0.00581035,-0.0115806,0.0114253,-0.018074,-1.11933,0.0171751,0.0121577,1728,505,3.85703,2.9285
511,519,3.88,-2.73938,-0.0145288,0.00666058,-0.0142223,0.0138007,-0.0216689,-1.10552,0.0206456,0.0180502,1735,505,3.88003,2.73938
518,519,3.90137,-2.75974,-0.0164234,0.00763796,-0.0166933,0.016184,-0.0249694,-1.09764,0.0239398,0.0376155,1742,505,3.90134,2.75975
525,519,3.69995,-3.20837,-0.0180165,0.00849713,-0.0188024,0.0182463,-0.0277656,-1.09245,0.0267538,0.0463628,1749,505,3.69995,3.20839
532,519,3.948,-2.95157,0,0,0,0,0,0,0,-1,1756,505,3.94805,2.95158
539,519,3.30005,0.0229797,0,0,0,0,0,0,0,-1,1763,505,3.30008,-0.0229869
546,519,4.62024,-2.89774,0,0,0,0,0,0,0,-1,1770,505,4.62023,2.89775
553,519,4.14136,0.0667419,0,0,0,0,0,0,0,-1,1777,505,4.14141,-0.0667503
560,519,3.77856,0.279724,0,0,0,0,0,0,0,-1,1784,505,3.77861,-0.279731
567,519,0,0,0,0,0,0,0,0,0,-1,1791,505,0,0
574,519,0,0,0,0,0,0,0,0,0,-1,1798,505,0,0
581,519,0,0,0,0,0,0,0,0,0,-1,1805,505,0,0
588,519,0,0,0,0,0,0,0,0,0,-1,1812,505,0,0
595,519,0,0,0,0,0,0,0,0,0,-1,1819,505,0,0
602,519,0,0,0,0,0,0,0,0,0,-1,1826,505,0,0
609,519,0,0,0,0,0,0,0,0,0,-1,1833,505,0,0
616,519,0,0,0,0,0,0,0,0,0,-1,1840,505,0,0
623,519,0,0,0,0,0,0,0,0,0,-1,1847,505,0,0
630,519,0,0,0,0,0,0,0,0,0,-1,1854,505,0,0
637,519,0,0,0,0,0,0,0,0,0,-1,1861,505,0,0
644,519,0,0,0,0,0,0,0,0,0,-1,1868,505,0,0
651,519,0,0,0,0,0,0,0,0,0,-1,1875,505,0,0
658,519,0,0,0,0,0,0,0,0,0,-1,1882,505,0,0
665,519,0,0,0,0,0,0,0,0,0,-1,1889,505,0,0
672,519,0,0,0,0,0,0,0,0,0,-1,1896,505,0,0
679,519,0,0,0,0,0,0,0,0,0,-1,1903,505,0,0
686,519,0,0,0,0,0,0,0,0,0,-1,1910,505,0,0
693,519,0,0,0,0,0,0,0,0,0,-1,1917,505,0,0
700,519,0,0,0,0,0,0,0,0,0,-1,1924,505,0,0
707,519,0,0,0,0,0,0,0,0,0,-1,1931,505,0,0
714,519,0,0,0,0,0,0,0,0,0,-1,1938,505,0,0
721,519,0,0,0,0,0,0,0,0,0,-1,1945,505,0,0
728,519,0,0,0,0,0,0,0,0,0,-1,1952,505,0,0
735,519,0,0,0,0,0,0,0,0,0,-1,1959,505,0,0
742,519,0,0,0,0,0,0,0,0,0,-1,1966,505,0,0
749,519,0,0,0,0,0,0,0,0,0,-1,1973,505,0,0
756,519,0,0,0,0,0,0,0,0,0,-1,1980,505,0,0
763,519,0,0,0,0,0,0,0,0,0,-1,1987,505,0,0
770,519,0,0,0,0,0,0,0,0,0,-1,1994,505,0,0
777,519,0,0,0,0,0,0,0,0,0,-1,2001,505,0,0
784,519,0,0,0,0,0,0,0,0,0,-1,2008,505,0,0
791,519,0,0,0,0,0,0,0,0,0,-1,2015,505,0,0
798,519,0,0,0,0,0,0,0,0,0,-1,2022,505,0,0
805,519,0,0,0,0,0,0,0,0,0,-1,2029,505,0,0
812,519,0,0,0,0,0,0,0,0,0,-1,2036,505,0,0
-700,512,0,0,0,0,0,0,0,0,0,-1,524,512,0,0
-693,512,0,0,0,0,0,0,0,0,0,-1,531,512,0,0
-686,512,0,0,0,0,0,0,0,0,0,-1,538,512,0,0
-679,512,0,0,0,0,0,0,0,0,0,-1,545,512,0,0
-672,512,0,0,0,0,0,0,0,0,0,-1,552,512,0,0
-665,512,0,0,0,0,0,0,0,0,0,-1,559,512,0,0
-658,512,0,0,0,0,0,0,0,0,0,-1,566,512,0,0
-651,512,0,0,0,0,0,0,0,0,0,-1,573,512,0,0
-644,512,0,0,0,0,0,0,0,0,0,-1,580,512,0,0
-637,512,0,0,0,0,0,0,0,0,0,-1,587,512,0,0
-630,512,0,0,0,0,0,0,0,0,0,-1,594,512,0,0
-623,512,0,0,0,0,0,0,0,0,0,-1,601,512,0,0
-616,512,0,0,0,0,0,0,0,0,0,-1,608,512,0,0
-609,512,0,0,0,0,0,0,0,0,0,-1,615,512,0,0
-602,512,0,0,0,0,0,0,0,0,0,-1,622,512,0,0
-595,512,0,0,0,0,0,0,0,0,0,-1,629,512,0,0
-588,512,0,0,0,0,0,0,0,0,0,-1,636,512,0,0
-581,512,0,0,0,0,0,0,0,0,0,-1,643,512,0,0
-574,512,0,0,0,0,0,0,0,0,0,-1,650,512,0,0
-567,512,0,0,0,0,0,0,0,0,0,-1,657,512,0,0
-560,512,0,0,0,0,0,0,0,0,0,-1,664,512,0,0
-553,512,0,0,0,0,0,0,0,0,0,-1,671,512,0,0
-546,512,0,0,0,0,0,0,0,0,0,-1,678,512,0,0
-539,512,0,0,0,0,0,0,0,0,0,-1,685,512,0,0
-532,512,0,0,0,0,0,0,0,0,0,-1,692,512,0,0
-525,512,0,0,0,0,0,0,0,0,0,-1,699,512,0,0
-518,512,0,0,0,0,0,0,0,0,0,-1,706,512,0,0
-511,512,0,0,0,0,0,0,0,0,0,-1,713,512,0,0
-504,512,0,0,0,0,0,0,0,0,0,-1,720,512,0,0
-497,512,0,0,0,0,0,0,0,0,0,-1,727,512,0,0
-490,512,0,0,0,0,0,0,0,0,0,-1,734,512,0,0
-483,512,0,0,0,0,0,0,0,0,0,-1,741,512,0,0
-476,512,0,0,0,0,0,0,0,0,0,-1,748,512,0,0
-469,512,0,0,0,0,0,0,0,0,0,-1,755,512,0,0
-462,512,0,0,0,0,0,0,0,0,0,-1,762,512,0,0
-455,512,0,0,0,0,0,0,0,0,0,-1,769,512,0,0
-448,512,-5.90814,0.303284,0.059835,0.039304,-0.0638377,0.114227,-0.0150883,-0.705677,0.081647,0.0468434,776,512,-5.90814,-0.303296
-441,512,-6.15137,-0.321411,0,0,0,0,0,0,0,-1,783,512,-6.15135,0.321394
-434,512,-6.26929,-0.656006,0,0,0,0,0,0,0,-1,790,512,-6.2693,0.656015
-427,512,-0.582092,-3.03986,0.0550659,0.0240359,-0.0264484,0.0702141,0.00888768,-0.520138,0.0441461,0.0494726,797,512,-0.582082,3.03983
-420,512,-0.0148315,-3.17786,0.0518753,0.0190193,-0.0179338,0.0597681,0.0111266,-0.414595,0.0367031,0.0492434,804,512,-0.0148112,3.17785
-413,512,0.518311,-3.3266,0.047788,0.0150877,-0.0120844,0.0517691,0.0111067,-0.318244,0.0314708,0.0472351,811,512,0.518306,3.32659
-406,512,0.791626,-3.09253,0.0427757,0.0113877,-0.0079046,0.044654,0.00950944,-0.233289,0.0271602,0.0440256,818,512,0.791625,3.09251
-399,512,0.351868,-3.63116,0,0,0,0,0,0,0,-1,825,512,0.351842,3.63118
-392,512,0.263306,-3.81403,0.0318421,0.00713206,-0.00314477,0.032236,0.00673812,-0.124621,0.0196339,0.035798,832,512,0.26333,3.81404
-385,512,0.23291,-3.9339,0.0249456,0.0055233,-0.00258483,0.0252837,0.00518518,-0.13007,0.0154208,0.0182127,839,512,0.2329,3.9339
-378,512,0.214661,-4.0672,0.0188962,0.00431791,-0.00294002,0.0194668,0.00374732,-0.191692,0.0119266,0.0142763,846,512,0.214682,4.06718
-371,512,0.186279,-4.22198,0.0135114,0.00302666,-0.00162986,0.013759,0.00277914,-0.150713,0.00840091,0.0118871,853,512,0.186302,4.22199
-364,512,0.174194,-4.38458,0.00884322,0.00217009,-0.000920753,0.00896793,0.00204537,-0.134629,0.00542687,0.00926326,860,512,0.174212,4.38455
-357,512,0.173767,-4.5351,0.00445424,0.00111007,-0.000916867,0.00468912,0.000875189,-0.250783,0.00287904,0.0105691,867,512,0.173762,4.5351
-350,512,0.174255,-4.68732,0.00140959,0.000152823,-0.00128831,0.0022146,-0.000652188,-0.558496,0.00173514,0.0116904,874,512,0.174256,4.68731
-343,512,0.175659,-4.84027,-1.10426e-05,-0.000238149,-0.000607726,0.000493648,-0.00074284,-0.693039,0.000718703,0.0111374,881,512,0.175647,4.84026
-336,512,0.153259,-4.97821,-0.000222422,-0.00044047,-0.000531683,0.0002113,-0.000874192,-0.684273,0.000664522,0.0101975,888,512,0.153263,4.97822
-329,512,0.15448,-5.10492,-0.000177376,-0.000758694,-0.000678378,0.000269989,-0.00120606,-0.582999,0.000907523,0.0107686,895,512,0.154492,5.10494
-322,512,0.169189,-5.25122,-0.000307345,-0.00082565,-0.000679609,0.000160846,-0.00129384,-0.603246,0.00092087,0.0094072,902,512,0.169179,5.25125
-315,512,0.178955,-5.39954,-0.000439562,-0.000830595,-0.000614251,9.53802e-06,-0.0012797,-0.631318,0.000856327,0.00981245,909,512,0.17893,5.39952
-308,512,0.17572,-5.54114,-0.000609852,-0.000861163,-0.000498415,-0.000221497,-0.00124952,-0.661916,0.000769875,0.0108462,916,512,0.175722,5.54112
-301,512,0.165466,-5.67548,-0.00328949,-0.00221112,0.00128188,-0.00135964,-0.00414097,0.984476,0.0024373,0.0150989,923,512,0.165486,5.67546
-294,512,0.16925,-5.77539,-0.00898549,-0.00622486,0.00452968,-0.00286985,-0.0123405,0.933292,0.00745679,0.0147182,930,512,0.16928,5.7754
-287,512,0.115234,-5.87433,-0.01809,-0.0135689,0.00883909,-0.00670588,-0.024953,0.910588,0.0149115,0.0177298,937,512,0.115229,5.87435
-280,512,0.178406,-6.06866,-0.0308357,-0.0240321,0.0142559,-0.0127778,-0.0420901,0.90252,0.0249179,0.0218324,944,512,0.178435,6.06867
-273,512,0.269409,-6.10315,-0.0435865,-0.0342906,0.0190425,-0.0193371,-0.05854,0.905099,0.0344407,0.0380054,951,512,0.269435,6.10317
-266,512,0.218994,-6.18988,-0.0565454,-0.0446863,0.0246044,-0.0253071,-0.0759247,0.903642,0.0446397,0.0446917,958,512,0.218964,6.18991
-259,512,0.0476074,-6.43085,0,0,0,0,0,0,0,-1,965,512,0.047631,6.43084
-252,512,1.45941,-3.43475,0,0,0,0,0,0,0,-1,972,512,1.45938,3.43475
-245,512,4.12927,-11.272,0,0,0,0,0,0,0,-1,979,512,4.1293,11.272
-238,512,1.1908,-6.47168,0,0,0,0,0,0,0,-1,986,512,1.19082,6.47169
-231,512,-2.54437,-10.169,0,0,0,0,0,0,0,-1,993,512,-2.54439,10.169
-224,512,-4.84601,-7.52783,0,0,0,0,0,0,0,-1,1000,512,-4.84602,7.52786
-217,512,-7.37274,-3.89563,0,0,0,0,0,0,0,-1,1007,512,-7.37274,3.89561
-210,512,-3.76642,-1.94702,0,0,0,0,0,0,0,-1,1014,512,-3.76641,1.94702
-203,512,-2.48328,-5.19061,0,0,0,0,0,0,0,-1,1021,512,-2.48328,5.19059
-196,512,-2.03931,-5.96924,0,0,0,0,0,0,0,-1,1028,512,-2.03931,5.96923
-189,512,0.197998,4.55505,0,0,0,0,0,0,0,-1,1035,512,0.197996,-4.55506
-182,512,2.73938,0.0778503,0,0,0,0,0,0,0,-1,1042,512,2.73944,-0.077852
-175,512,2.29565,0.209808,0,0,0,0,0,0,0,-1,1049,512,2.29565,-0.209813
-168,512,2.09399,-0.302856,0,0,0,0,0,0,0,-1,1056,512,2.09403,0.302826
-161,512,2.76636,0.0921021,0,0,0,0,0,0,0,-1,1063,512,2.76633,-0.0921104
-154,512,3.41382,0.466187,0,0,0,0,0,0,0,-1,1070,512,3.41382,-0.466178
-147,512,0,0,0,0,0,0,0,0,0,-1,1077,512,0,0
-140,512,0,0,0,0,0,0,0,0,0,-1,1084,512,0,0
-133,512,0,0,0,0,0,0,0,0,0,-1,1091,512,0,0
-126,512,0,0,0,0,0,0,0,0,0,-1,1098,512,0,0
-119,512,0,0,0,0,0,0,0,0,0,-1,1105,512,0,0
-112,512,0,0,0,0,0,0,0,0,0,-1,1112,512,0,0
-105,512,0,0,0,0,0,0,0,0,0,-1,1119,512,0,0
-98,512,0,0,0,0,0,0,0,0,0,-1,1126,512,0,0
-91,512,0,0,0,0,0,0,0,0,0,-1,1133,512,0,0
-84,512,0,0,0,0,0,0,0,0,0,-1,1140,512,0,0
-77,512,0,0,0,0,0,0,0,0,0,-1,1147,512,0,0
-70,512,0,0,0,0,0,0,0,0,0,-1,1154,512,0,0
-63,512,0,0,0,0,0,0,0,0,0,-1,1161,512,0,0
-56,512,0,0,0,0,0,0,0,0,0,-1,1168,512,0,0
-49,512,0,0,0,0,0,0,0,0,0,-1,1175,512,0,0
-42,512,0,0,0,0,0,0,0,0,0,-1,1182,512,0,0
-35,512,0,0,0,0,0,0,0,0,0,-1,1189,512,0,0
-28,512,0,0,0,0,0,0,0,0,0,-1,1196,512,0,0
-21,512,0,0,0,0,0,0,0,0,0,-1,1203,512,0,0
-14,512,0,0,0,0,0,0,0,0,0,-1,1210,512,0,0
-7,512,0,0,0,0,0,0,0,0,0,-1,1217,512,0,0
0,512,0,0,0,0,0,0,0,0,0,-1,1224,512,0,0
7,512,0,0,0,0,0,0,0,0,0,-1,1231,512,0,0
14,512,0,0,0,0,0,0,0,0,0,-1,1238,512,0,0
21,512,0,0,0,0,0,0,0,0,0,-1,1245,512,0,0
28,512,0,0,0,0,0,0,0,0,0,-1,1252,512,0,0
35,512,0,0,0,0,0,0,0,0,0,-1,1259,512,0,0
42,512,0,0,0,0,0,0,0,0,0,-1,1266,512,0,0
49,512,0,0,0,0,0,0,0,0,0,-1,1273,512,0,0
56,512,0,0,0,0,0,0,0,0,0,-1,1280,512,0,0
63,512,0,0,0,0,0,0,0,0,0,-1,1287,512,0,0
70,512,0,0,0,0,0,0,0,0,0,-1,1294,512,0,0
77,512,0,0,0,0,0,0,0,0,0,-1,1301,512,0,0
84,512,0,0,0,0,0,0,0,0,0,-1,1308,512,0,0
91,512,0,0,0,0,0,0,0,0,0,-1,1315,512,0,0
98,512,0,0,0,0,0,0,0,0,0,-1,1322,512,0,0
105,512,0,0,0,0,0,0,0,0,0,-1,1329,512,0,0
112,512,0,0,0,0,0,0,0,0,0,-1,1336,512,0,0
119,512,0,0,0,0,0,0,0,0,0,-1,1343,512,0,0
126,512,0,0,0,0,0,0,0,0,0,-1,1350,512,0,0
133,512,0,0,0,0,0,0,0,0,0,-1,1357,512,0,0
140,512,0,0,0,0,0,0,0,0,0,-1,1364,512,0,0
147,512,0,0,0,0,0,0,0,0,0,-1,1371,512,0,0
154,512,0,0,0,0,0,0,0,0,0,-1,1378,512,0,0
161,512,0,0,0,0,0,0,0,0,0,-1,1385,512,0,0
168,512,0,0,0,0,0,0,0,0,0,-1,1392,512,0,0
175,512,0,0,0,0,0,0,0,0,0,-1,1399,512,0,0
182,512,0,0,0,0,0,0,0,0,0,-1,1406,512,0,0
189,512,0,0,0,0,0,0,0,0,0,-1,1413,512,0,0
196,512,0,0,0,0,0,0,0,0,0,-1,1420,512,0,0
203,512,0,0,0,0,0,0,0,0,0,-1,1427,512,0,0
210,512,0,0,0,0,0,0,0,0,0,-1,1434,512,0,0
217,512,0,0,0,0,0,0,0,0,0,-1,1441,512,0,0
224,512,0,0,0,0,0,0,0,0,0,-1,1448,512,0,0
231,512,0,0,0,0,0,0,0,0,0,-1,1455,512,0,0
238,512,0,0,0,0,0,0,0,0,0,-1,1462,512,0,0
245,512,0,0,0,0,0,0,0,0,0,-1,1469,512,0,0
252,512,0,0,0,0,0,0,0,0,0,-1,1476,512,0,0
259,512,0,0,0,0,0,0,0,0,0,-1,1483,512,0,0
266,512,0,0,0,0,0,0,0,0,0,-1,1490,512,0,0
273,512,4.00745,0.618622,0,0,0,0,0,0,0,-1,1497,512,4.00747,-0.618611
280,512,4.49609,0.649841,0,0,0,0,0,0,0,-1,1504,512,4.49612,-0.649834
287,512,4.77234,0.458069,0,0,0,0,0,0,0,-1,1511,512,4.77233,-0.458083
294,512,8.54956,-2.36273,0,0,0,0,0,0,0,-1,1518,512,8.54952,2.36274
301,512,6.302,-1.69092,0,0,0,0,0,0,0,-1,1525,512,6.30196,1.69093
308,512,8.2439,-6.22754,0,0,0,0,0,0,0,-1,1532,512,8.24394,6.22757
315,512,7.53687,-6.04211,0,0,0,0,0,0,0,-1,1539,512,7.53691,6.04211
322,512,6.82983,-5.85663,0,0,0,0,0,0,0,-1,1546,512,6.82988,5.85666
329,512,4.38147,-0.329651,0,0,0,0,0,0,0,-1,1553,512,4.38144,0.329662
336,512,4.41467,-0.741455,0,0,0,0,0,0,0,-1,1560,512,4.41467,0.741442
343,512,4.44727,-1.21667,0,0,0,0,0,0,0,-1,1567,512,4.44732,1.21666
350,512,4.55469,-1.65082,0,0,0,0,0,0,0,-1,1574,512,4.5547,1.65083
357,512,5.79993,-2.67456,0,0,0,0,0,0,0,-1,1581,512,5.79991,2.67454
364,512,3.35901,-6.73199,0,0,0,0,0,0,0,-1,1588,512,3.35897,6.73202
371,512,4.72168,-6.11853,0,0,0,0,0,0,0,-1,1595,512,4.7217,6.11854
378,512,4.14575,-5.72913,0,0,0,0,0,0,0,-1,1602,512,4.14577,5.72913
385,512,4.14722,-5.45996,-0.00280526,-0.0129815,-0.0112812,0.00448217,-0.0202689,-0.573544,0.0152282,0.0463525,1609,512,4.14724,5.45998
392,512,4.38745,-5.03595,-0.00270133,-0.0115397,-0.00971454,0.00355196,-0.0177929,-0.571937,0.0132061,0.0482615,1616,512,4.38743,5.03595
399,512,4.2605,-4.93701,-0.00249941,-0.0100855,-0.00826584,0.00280211,-0.015387,-0.57029,0.0113084,0.042443,1623,512,4.26044,4.93702
406,512,4.12573,-4.99786,-0.00213183,-0.00828333,-0.00692203,0.00236702,-0.0127822,-0.576329,0.00941023,0.0292844,1630,512,4.12568,4.99785
413,512,4.03955,-4.97723,-0.00166394,-0.00650099,-0.00556568,0.00198598,-0.0101509,-0.580436,0.00751723,0.0238628,1637,512,4.03957,4.97723
420,512,4.06567,-4.83362,-0.00140965,-0.00523749,-0.00440964,0.00148351,-0.00813065,-0.58065,0.00597663,0.0173644,1644,512,4.06565,4.83363
427,512,4.05737,-4.69177,-0.00120129,-0.00382738,-0.00333078,0.00106591,-0.00609458,-0.597643,0.00446101,0.0141512,1651,512,4.05738,4.6918
434,512,4.04004,-4.52808,-0.000941337,-0.0024972,-0.00248178,0.000881581,-0.00432012,-0.63352,0.00321449,0.0112276,1658,512,4.04006,4.52809
441,512,4.01807,-4.35327,-0.000853896,-0.00151704,-0.00185078,0.000694782,-0.00306572,-0.696762,0.0023105,0.0134105,1665,512,4.01802,4.35325
448,512,4.01697,-4.203,-0.000553608,-0.000523561,-0.00111579,0.000577302,-0.00165447,-0.79213,0.00133761,0.00918596,1672,512,4.01698,4.20299
455,512,4.03027,-4.04767,-0.000492316,0.000314952,-0.000632861,0.00066194,-0.000839304,-1.06927,0.000868758,0.00829743,1679,512,4.03022,4.04768
462,512,4.03284,-3.88519,-0.000832105,0.00124086,-0.000619491,0.00141188,-0.00100313,-1.30144,0.00140095,0.00870179,1686,512,4.03285,3.88518
469,512,4.01782,-3.71997,-0.00152147,0.00183269,-0.00119951,0.0022175,-0.00190628,-1.26036,0.00238313,0.0103071,1693,512,4.01779,3.72
476,512,4.01514,-3.55481,-0.00251853,0.00197107,-0.00216428,0.00284448,-0.00339194,-1.18723,0.00360522,0.013272,1700,512,4.01517,3.55481
483,512,4.03064,-3.37964,-0.00372368,0.00248915,-0.0033751,0.0039698,-0.00520433,-1.15738,0.00531264,0.012513,1707,512,4.03061,3.37963
490,512,4.04175,-3.21411,-0.00521705,0.00288997,-0.00494232,0.00522844,-0.00755553,-1.12886,0.00742148,0.0103104,1714,512,4.04177,3.21408
497,512,4.03931,-3.06409,-0.0069784,0.00332996,-0.00663665,0.00657879,-0.0102272,-1.11556,0.00977888,0.0112376,1721,512,4.03935,3.06408
504,512,4.0365,-2.88025,-0.00875648,0.00370313,-0.0085534,0.00805496,-0.0131083,-1.10015,0.0123342,0.0116753,1728,512,4.03647,2.88027
511,512,4.03137,-2.70435,-0.00990578,0.00421445,-0.0101985,0.00955813,-0.0152495,-1.08816,0.0144478,0.0123402,1735,512,4.03134,2.70434
518,512,4.09607,-2.5885,-0.010829,0.00487753,-0.0115254,0.0109709,-0.0169224,-1.08446,0.0162259,0.0180939,1742,512,4.09612,2.58852
525,512,4.11548,-2.54901,-0.0113656,0.00550171,-0.012435,0.0120932,-0.0179571,-1.08338,0.0174593,0.041357,1749,512,4.11553,2.549
532,512,4.37097,-2.32312,0,0,0,0,0,0,0,-1,1756,512,4.37103,2.3231
539,512,4.39929,-3.11737,0,0,0,0,0,0,0,-1,1763,512,4.3993,3.11735
546,512,3.94604,-0.9953,0,0,0,0,0,0,0,-1,1770,512,3.94606,0.99528
553,512,3.927,-0.448853,0,0,0,0,0,0,0,-1,1777,512,3.92704,0.448843
560,512,3.55762,-0.201233,0,0,0,0,0,0,0,-1,1784,512,3.55768,0.201259
567,512,3.09045,0.191193,0,0,0,0,0,0,0,-1,1791,512,3.09045,-0.191203
574,512,0,0,0,0,0,0,0,0,0,-1,1798,512,0,0
581,512,0,0,0,0,0,0,0,0,0,-1,1805,512,0,0
588,512,0,0,0,0,0,0,0,0,0,-1,1812,512,0,0
595,512,0,0,0,0,0,0,0,0,0,-1,1819,512,0,0
602,512,0,0,0,0,0,0,0,0,0,-1,1826,512,0,0
609,512,0,0,0,0,0,0,0,0,0,-1,1833,512,0,0
616,512,0,0,0,0,0,0,0,0,0,-1,1840,512,0,0
623,512,0,0,0,0,0,0,0,0,0,-1,1847,512,0,0
630,512,0,0,0,0,0,0,0,0,0,-1,1854,512,0,0
637,512,0,0,0,0,0,0,0,0,0,-1,1861,512,0,0
644,512,0,0,0,0,0,0,0,0,0,-1,1868,512,0,0
651,512,0,0,0,0,0,0,0,0,0,-1,1875,512,0,0
658,512,0,0,0,0,0,0,0,0,0,-1,1882,512,0,0
665,512,0,0,0,0,0,0,0,0,0,-1,1889,512,0,0
672,512,0,0,0,0,0,0,0,0,0,-1,1896,512,0,0
679,512,0,0,0,0,0,0,0,0,0,-1,1903,512,0,0
686,512,0,0,0,0,0,0,0,0,0,-1,1910,512,0,0
693,512,0,0,0,0,0,0,0,0,0,-1,1917,512,0,0
700,512,0,0,0,0,0,0,0,0,0,-1,1924,512,0,0
707,512,0,0,0,0,0,0,0,0,0,-1,1931,512,0,0
714,512,0,0,0,0,0,0,0,0,0,-1,1938,512,0,0
721,512,0,0,0,0,0,0,0,0,0,-1,1945,512,0,0
728,512,0,0,0,0,0,0,0,0,0,-1,1952,512,0,0
735,512,0,0,0,0,0,0,0,0,0,-1,1959,512,0,0
742,512,0,0,0,0,0,0,0,0,0,-1,1966,512,0,0
749,512,0,0,0,0,0,0,0,0,0,-1,1973,512,0,0
756,512,0,0,0,0,0,0,0,0,0,-1,1980,512,0,0
763,512,0,0,0,0,0,0,0,0,0,-1,1987,512,0,0
770,512,0,0,0,0,0,0,0,0,0,-1,1994,512,0,0
777,512,0,0,0,0,0,0,0,0,0,-1,2001,512,0,0
784,512,0,0,0,0,0,0,0,0,0,-1,2008,512,0,0
791,512,0,0,0,0,0,0,0,0,0,-1,2015,512,0,0
798,512,0,0,0,0,0,0,0,0,0,-1,2022,512,0,0
805,512,0,0,0,0,0,0,0,0,0,-1,2029,512,0,0
812,512,0,0,0,0,0,0,0,0,0,-1,2036,512,0,0
-700,505,0,0,0,0,0,0,0,0,0,-1,524,519,0,0
-693,505,0,0,0,0,0,0,0,0,0,-1,531,519,0,0
-686,505,0,0,0,0,0,0,0,0,0,-1,538,519,0,0
-679,505,0,0,0,0,0,0,0,0,0,-1,545,519,0,0
-672,505,0,0,0,0,0,0,0,0,0,-1,552,519,0,0
-665,505,0,0,0,0,0,0,0,0,0,-1,559,519,0,0
-658,505,0,0,0,0,0,0,0,0,0,-1,566,519,0,0
-651,505,0,0,0,0,0,0,0,0,0,-1,573,519,0,0
-644,505,0,0,0,0,0,0,0,0,0,-1,580,519,0,0
-637,505,0,0,0,0,0,0,0,0,0,-1,587,519,0,0
-630,505,0,0,0,0,0,0,0,0,0,-1,594,519,0,0
-623,505,0,0,0,0,0,0,0,0,0,-1,601,519,0,0
-616,505,0,0,0,0,0,0,0,0,0,-1,608,519,0,0
-609,505,0,0,0,0,0,0,0,0,0,-1,615,519,0,0
-602,505,0,0,0,0,0,0,0,0,0,-1,622,519,0,0
-595,505,0,0,0,0,0,0,0,0,0,-1,629,519,0,0
-588,505,0,0,0,0,0,0,0,0,0,-1,636,519,0,0
-581,505,0,0,0,0,0,0,0,0,0,-1,643,519,0,0
-574,505,0,0,0,0,0,0,0,0,0,-1,650,519,0,0
-567,505,0,0,0,0,0,0,0,0,0,-1,657,519,0,0
-560,505,0,0,0,0,0,0,0,0,0,-1,664,519,0,0
-553,505,0,0,0,0,0,0,0,0,0,-1,671,519,0,0
-546,505,0,0,0,0,0,0,0,0,0,-1,678,519,0,0
-539,505,0,0,0,0,0,0,0,0,0,-1,685,519,0,0
-532,505,0,0,0,0,0,0,0,0,0,-1,692,519,0,0
-525,505,0,0,0,0,0,0,0,0,0,-1,699,519,0,0
-518,505,0,0,0,0,0,0,0,0,0,-1,706,519,0,0
-511,505,0,0,0,0,0,0,0,0,0,-1,713,519,0,0
-504,505,0,0,0,0,0,0,0,0,0,-1,720,519,0,0
-497,505,0,0,0,0,0,0,0,0,0,-1,727,519,0,0
-490,505,0,0,0,0,0,0,0,0,0,-1,734,519,0,0
-483,505,0,0,0,0,0,0,0,0,0,-1,741,519,0,0
-476,505,0,0,0,0,0,0,0,0,0,-1,748,519,0,0
-469,505,0,0,0,0,0,0,0,0,0,-1,755,519,0,0
-462,505,0,0,0,0,0,0,0,0,0,-1,762,519,0,0
-455,505,-5.13776,0.626465,0.0564221,0.0443859,-0.0751969,0.125841,-0.0250333,-0.745468,0.0933641,0.0430599,769,519,-5.13775,-0.626493
-448,505,-5.29688,0.145874,0.0544215,0.0396948,-0.0610108,0.108512,-0.0143954,-0.725344,0.077586,0.0425015,776,519,-5.29686,-0.145862
-441,505,-5.48047,-0.339722,0,0,0,0,0,0,0,-1,783,519,-5.48049,0.339724
-434,505,0.332703,-3.07794,0.0477654,0.0298704,-0.034922,0.0748679,0.00276782,-0.659989,0.0490154,0.0476344,790,519,0.33272,3.07796
-427,505,0.305359,-2.98242,0.0443405,0.0247582,-0.0243296,0.0607752,0.00832353,-0.594095,0.038047,0.0475404,797,519,0.305354,2.98245
-420,505,0.129761,-3.04968,0.0407608,0.0194853,-0.0159851,0.0493242,0.0109218,-0.491808,0.0299144,0.0465268,804,519,0.129767,3.04969
-413,505,0.159668,-3.32404,0.0367494,0.015328,-0.0102581,0.0408694,0.0112081,-0.381909,0.0243845,0.0477205,811,519,0.159644,3.32406
-406,505,0.111572,-3.40521,0.0323289,0.0113367,-0.00607745,0.0339615,0.00970418,-0.262425,0.0201988,0.045761,818,519,0.111563,3.40518
-399,505,0.138672,-3.633,0.0278827,0.00866637,-0.00313099,0.02838,0.00816909,-0.157508,0.0168697,0.0409671,825,519,0.138662,3.63301
-392,505,0.106506,-3.80872,0.0235043,0.00673996,-0.00145593,0.0236298,0.00661445,-0.0859892,0.0140763,0.0213553,832,519,0.106514,3.80871
-385,505,0.0515747,-3.94153,0.0181555,0.00501619,-0.00105232,0.0182392,0.00493244,-0.079415,0.0108941,0.00939479,839,519,0.0515486,3.94154
-378,505,0.0340576,-4.0675,0.013586,0.00376362,-0.00159463,0.0138384,0.00351122,-0.156977,0.00830638,0.0103146,846,519,0.0340736,4.06748
-371,505,0.0338745,-4.22009,0.00956624,0.00248183,-0.000682954,0.00963147,0.00241659,-0.0952339,0.00578618,0.0136228,853,519,0.0338486,4.22008
-364,505,0.0115356,-4.38977,0.006159,0.00170531,-0.000375871,0.0061905,0.00167382,-0.0836074,0.00369758,0.0149674,860,519,0.0115316,4.38978
-357,505,0.0302124,-4.5332,0.00305896,0.000754303,-0.000618867,0.00321463,0.000598634,-0.246426,0.00197403,0.0122153,867,519,0.0302308,4.53322
-350,505,0.0319214,-4.68329,0.00101724,-0.00013165,-0.00112907,0.0017096,-0.000824006,-0.550076,0.00149227,0.0119361,874,519,0.0319368,4.68327
-343,505,0.0198364,-4.83832,0.000180073,-0.000524399,-0.000812606,0.000713499,-0.00105783,-0.580889,0.0010291,0.008953,881,519,0.0198171,4.83831
-336,505,0.0141602,-4.96808,7.6606e-05,-0.000728605,-0.000879425,0.000641202,-0.0012932,-0.570735,0.00113778,0.00993028,888,519,0.0141607,4.96809
-329,505,0.0206299,-5.10773,5.36875e-05,-0.00105053,-0.00108918,0.000722698,-0.00171954,-0.55082,0.00144865,0.0124784,895,519,0.020606,5.10773
-322,505,0.00585938,-5.24963,-0.000221469,-0.00113928,-0.00111756,0.000527738,-0.00188849,-0.590579,0.0014669,0.0131364,902,519,0.00583006,5.24966
-315,505,0.0139771,-5.39697,-0.000503366,-0.00119826,-0.00109947,0.000302247,-0.00200388,-0.632356,0.00144723,0.0114797,909,519,0.0139468,5.39698
-308,505,0.0332642,-5.53674,-0.000838219,-0.00126437,-0.000991159,-3.74909e-05,-0.0020651,-0.679522,0.00136441,0.0109356,916,519,0.0332888,5.53673
-301,505,0.0551758,-5.70117,-0.00485348,-0.00319377,0.00156748,-0.00225003,-0.00579722,1.02885,0.00337484,0.0150562,923,519,0.0551586,5.70119
-294,505,0.0306396,-5.70691,-0.0134604,-0.00908864,0.00635717,-0.00455203,-0.017997,0.950988,0.0108051,0.0234513,930,519,0.0306426,5.70693
-287,505,-0.000793457,-5.85052,-0.0268387,-0.0197235,0.0125878,-0.0102003,-0.0363619,0.923118,0.0216573,0.0324923,937,519,-0.000820117,5.85053
-280,505,0.189514,-5.849,-0.0439185,-0.0338349,0.0198486,-0.0183978,-0.0593556,0.909775,0.0350844,0.0460351,944,519,0.189525,5.849
-273,505,-0.134155,-6.03839,-0.0604186,-0.0472553,0.0261003,-0.0269197,-0.0807543,0.908907,0.0474789,0.0459772,951,519,-0.134162,6.03837
-266,505,0.258911,-6.14294,0,0,0,0,0,0,0,-1,958,519,0.258942,6.14293
-259,505,0.10321,-6.69824,0,0,0,0,0,0,0,-1,965,519,0.103235,6.69826
-252,505,6.82312,-15.6972,0,0,0,0,0,0,0,-1,972,519,6.82314,15.6972
-245,505,4.26727,-12.9861,0,0,0,0,0,0,0,-1,979,519,4.2673,12.9861
-238,505,1.67432,-11.2307,0,0,0,0,0,0,0,-1,986,519,1.67429,11.2307
-231,505,-0.958435,-8.3075,-0.140848,-0.116566,0.0518481,-0.0754566,-0.181958,0.900408,0.105562,0.0498154,993,519,-0.958421,8.30751
-224,505,-3.69653,-5.12732,0,0,0,0,0,0,0,-1,1000,519,-3.69653,5.12733
-217,505,-6.34302,-1.65533,0,0,0,0,0,0,0,-1,1007,519,-6.34299,1.65535
-210,505,-3.06128,-0.396301,0,0,0,0,0,0,0,-1,1014,519,-3.06129,0.396294
-203,505,-4.26465,2.03607,0,0,0,0,0,0,0,-1,1021,519,-4.26462,-2.03606
-196,505,-5.47595,4.27295,0,0,0,0,0,0,0,-1,1028,519,-5.47597,-4.27292
-189,505,1.51526,5.56207,0,0,0,0,0,0,0,-1,1035,519,1.51523,-5.56209
-182,505,2.97815,7.5097,0,0,0,0,0,0,0,-1,1042,519,2.97812,-7.5097
-175,505,-2.38416,-2.17548,0,0,0,0,0,0,0,-1,1049,519,-2.38411,2.1755
-168,505,0,0,0,0,0,0,0,0,0,-1,1056,519,0,0
-161,505,0,0,0,0,0,0,0,0,0,-1,1063,519,0,0
-154,505,0,0,0,0,0,0,0,0,0,-1,1070,519,0,0
-147,505,0,0,0,0,0,0,0,0,0,-1,1077,519,0,0
-140,505,0,0,0,0,0,0,0,0,0,-1,1084,519,0,0
-133,505,0,0,0,0,0,0,0,0,0,-1,1091,519,0,0
-126,505,0,0,0,0,0,0,0,0,0,-1,1098,519,0,0
-119,505,0,0,0,0,0,0,0,0,0,-1,1105,519,0,0
-112,505,0,0,0,0,0,0,0,0,0,-1,1112,519,0,0
-105,505,0,0,0,0,0,0,0,0,0,-1,1119,519,0,0
-98,505,0,0,0,0,0,0,0,0,0,-1,1126,519,0,0
-91,505,0,0,0,0,0,0,0,0,0,-1,1133,519,0,0
-84,505,0,0,0,0,0,0,0,0,0,-1,1140,519,0,0
-77,505,0,0,0,0,0,0,0,0,0,-1,1147,519,0,0
-70,505,0,0,0,0,0,0,0,0,0,-1,1154,519,0,0
-63,505,0,0,0,0,0,0,0,0,0,-1,1161,519,0,0
-56,505,0,0,0,0,0,0,0,0,0,-1,1168,519,0,0
-49,505,0,0,0,0,0,0,0,0,0,-1,1175,519,0,0
-42,505,0,0,0,0,0,0,0,0,0,-1,1182,519,0,0
-35,505,0,0,0,0,0,0,0,0,0,-1,1189,519,0,0
-28,505,0,0,0,0,0,0,0,0,0,-1,1196,519,0,0
-21,505,0,0,0,0,0,0,0,0,0,-1,1203,519,0,0
-14,505,0,0,0,0,0,0,0,0,0,-1,1210,519,0,0
-7,505,0,0,0,0,0,0,0,0,0,-1,1217,519,0,0
0,505,0,0,0,0,0,0,0,0,0,-1,1224,519,0,0
7,505,0,0,0,0,0,0,0,0,0,-1,1231,519,0,0
14,505,0,0,0,0,0,0,0,0,0,-1,1238,519,0,0
21,505,0,0,0,0,0,0,0,0,0,-1,1245,519,0,0
28,505,0,0,0,0,0,0,0,0,0,-1,1252,519,0,0
35,505,0,0,0,0,0,0,0,0,0,-1,1259,519,0,0
42,505,0,0,0,0,0,0,0,0,0,-1,1266,519,0,0
49,505,0,0,0,0,0,0,0,0,0,-1,1273,519,0,0
56,505,0,0,0,0,0,0,0,0,0,-1,1280,519,0,0
63,505,0,0,0,0,0,0,0,0,0,-1,1287,519,0,0
70,505,0,0,0,0,0,0,0,0,0,-1,1294,519,0,0
77,505,0,0,0,0,0,0,0,0,0,-1,1301,519,0,0
84,505,0,0,0,0,0,0,0,0,0,-1,1308,519,0,0
91,505,0,0,0,0,0,0,0,0,0,-1,1315,519,0,0
98,505,0,0,0,0,0,0,0,0,0,-1,1322,519,0,0
105,505,0,0,0,0,0,0,0,0,0,-1,1329,519,0,0
112,505,0,0,0,0,0,0,0,0,0,-1,1336,519,0,0
119,505,0,0,0,0,0,0,0,0,0,-1,1343,519,0,0
126,505,0,0,0,0,0,0,0,0,0,-1,1350,519,0,0
133,505,0,0,0,0,0,0,0,0,0,-1,1357,519,0,0
140,505,0,0,0,0,0,0,0,0,0,-1,1364,519,0,0
147,505,0,0,0,0,0,0,0,0,0,-1,1371,519,0,0
154,505,0,0,0,0,0,0,0,0,0,-1,1378,519,0,0
161,505,0,0,0,0,0,0,0,0,0,-1,1385,519,0,0
168,505,0,0,0,0,0,0,0,0,0,-1,1392,519,0,0
175,505,0,0,0,0,0,0,0,0,0,-1,1399,519,0,0
182,505,0,0,0,0,0,0,0,0,0,-1,1406,519,0,0
189,505,0,0,0,0,0,0,0,0,0,-1,1413,519,0,0
196,505,0,0,0,0,0,0,0,0,0,-1,1420,519,0,0
203,505,0,0,0,0,0,0,0,0,0,-1,1427,519,0,0
210,505,0,0,0,0,0,0,0,0,0,-1,1434,519,0,0
217,505,0,0,0,0,0,0,0,0,0,-1,1441,519,0,0
224,505,0,0,0,0,0,0,0,0,0,-1,1448,519,0,0
231,505,0,0,0,0,0,0,0,0,0,-1,1455,519,0,0
238,505,0,0,0,0,0,0,0,0,0,-1,1462,519,0,0
245,505,0,0,0,0,0,0,0,0,0,-1,1469,519,0,0
252,505,0,0,0,0,0,0,0,0,0,-1,1476,519,0,0
259,505,0,0,0,0,0,0,0,0,0,-1,1483,519,0,0
266,505,0,0,0,0,0,0,0,0,0,-1,1490,519,0,0
273,505,0,0,0,0,0,0,0,0,0,-1,1497,519,0,0
280,505,0,0,0,0,0,0,0,0,0,-1,1504,519,0,0
287,505,4.39478,0.499512,0,0,0,0,0,0,0,-1,1511,519,4.39476,-0.499506
294,505,4.88867,0.0822754,0,0,0,0,0,0,0,-1,1518,519,4.88871,-0.0822748
301,505,4.82153,-0.0704346,0,0,0,0,0,0,0,-1,1525,519,4.82156,0.0704312
308,505,4.67761,-0.29187,0,0,0,0,0,0,0,-1,1532,519,4.67762,0.291845
315,505,8.44055,-6.54352,0,0,0,0,0,0,0,-1,1539,519,8.44059,6.54349
322,505,4.78955,-0.594116,0,0,0,0,0,0,0,-1,1546,519,4.78957,0.594096
329,505,5.16321,0.434631,0,0,0,0,0,0,0,-1,1553,519,5.16316,-0.434614
336,505,4.94495,-0.920471,0,0,0,0,0,0,0,-1,1560,519,4.945,0.920495
343,505,5.01855,-1.4823,0,0,0,0,0,0,0,-1,1567,519,5.01851,1.48227
350,505,5.33154,-1.77838,0,0,0,0,0,0,0,-1,1574,519,5.33152,1.77838
357,505,5.56567,-1.9425,0,0,0,0,0,0,0,-1,1581,519,5.56562,1.94248
364,505,5.85205,-2.6579,0,0,0,0,0,0,0,-1,1588,519,5.85211,2.65788
371,505,3.72278,-6.50806,0,0,0,0,0,0,0,-1,1595,519,3.7228,6.50805
378,505,4.43469,-5.76599,0,0,0,0,0,0,0,-1,1602,519,4.43465,5.76599
385,505,4.42651,-5.47833,0,0,0,0,0,0,0,-1,1609,519,4.42647,5.47832
392,505,4.41833,-5.19067,0,0,0,0,0,0,0,-1,1616,519,4.41828,5.19065
399,505,4.56421,-4.61151,0,0,0,0,0,0,0,-1,1623,519,4.56422,4.6115
406,505,4.42139,-4.61633,-0.00262077,-0.0107448,-0.00860917,0.00283656,-0.0162021,-0.564971,0.0118605,0.0409094,1630,519,4.42133,4.61632
413,505,4.34375,-4.80243,-0.00214628,-0.00826565,-0.00694607,0.00238413,-0.0127961,-0.577939,0.00942646,0.0422748,1637,519,4.34373,4.80243
420,505,4.24658,-4.83032,-0.00191821,-0.00646677,-0.00552912,0.00178609,-0.0101711,-0.590282,0.00744781,0.0307266,1644,519,4.24662,4.83033
427,505,4.22424,-4.6778,-0.0016995,-0.00459887,-0.00421331,0.00130654,-0.00760492,-0.619706,0.00555689,0.0140088,1651,519,4.22421,4.6778
434,505,4.19983,-4.52478,-0.00136711,-0.00288039,-0.00315933,0.00112493,-0.00537242,-0.667865,0.00400954,0.0102856,1658,519,4.19985,4.52476
441,505,4.18604,-4.33386,-0.00125632,-0.00169509,-0.00244244,0.000976566,-0.00392797,-0.740607,0.00299767,0.0109427,1665,519,4.18597,4.33386
448,505,4.18921,-4.17578,-0.000795925,-0.000592247,-0.00159758,0.000906738,-0.00229491,-0.817228,0.00190551,0.0106647,1672,519,4.18918,4.17577
455,505,4.19189,-4.02484,-0.000406705,0.000179334,-0.000904082,0.000836696,-0.00106407,-0.94211,0.00110002,0.0102199,1679,519,4.19193,4.02486
462,505,4.1814,-3.86707,-0.000404896,0.000957638,-0.000578275,0.00116997,-0.000617232,-1.21889,0.00104816,0.0103147,1686,519,4.18138,3.86706
469,505,4.16833,-3.70258,-0.000789182,0.00140653,-0.000830438,0.00168523,-0.00106789,-1.247,0.00160278,0.0107004,1693,519,4.16831,3.70255
476,505,4.16956,-3.54517,-0.00146957,0.00145583,-0.00149513,0.00208476,-0.0020985,-1.17261,0.00241521,0.0111845,1700,519,4.16959,3.54516
483,505,4.19006,-3.40857,-0.00230931,0.00176956,-0.00237107,0.00285763,-0.00339738,-1.14057,0.00361581,0.0123085,1707,519,4.19011,3.40859
490,505,4.19617,-3.24255,-0.00333728,0.0019335,-0.003498,0.00367775,-0.00508154,-1.10824,0.00507878,0.0119382,1714,519,4.19618,3.24255
497,505,4.2019,-3.06061,-0.00458695,0.00211729,-0.00468663,0.00452722,-0.00699687,-1.09584,0.00670417,0.012247,1721,519,4.20195,3.06059
504,505,4.19751,-2.88434,-0.00578138,0.00228439,-0.00598302,0.00546681,-0.0089638,-1.08195,0.00841267,0.0129332,1728,519,4.19747,2.88436
511,505,4.19946,-2.71783,-0.00629515,0.00262929,-0.00687973,0.0063672,-0.0100331,-1.07309,0.00954721,0.0137403,1735,519,4.19944,2.71785
518,505,4.27295,-2.59436,-0.00659938,0.00319675,-0.00744303,0.00720878,-0.0106114,-1.07641,0.0103508,0.0235885,1742,519,4.27293,2.59436
525,505,4.13232,-2.4483,-0.00653314,0.00373597,-0.00762023,0.00779008,-0.0105873,-1.08186,0.010651,0.0303153,1749,519,4.13237,2.44831
532,505,4.27527,-2.19928,-0.005635,0.00468142,-0.00685172,0.00809953,-0.00905311,-1.10805,0.00990818,0.0437766,1756,519,4.27529,2.19929
539,505,4.19531,-2.16296,0,0,0,0,0,0,0,-1,1763,519,4.19535,2.16296
546,505,4.51208,-1.79962,0,0,0,0,0,0,0,-1,1770,519,4.51206,1.79964
553,505,3.8103,-0.864807,0,0,0,0,0,0,0,-1,1777,519,3.8103,0.864829
560,505,3.66223,-0.479797,0,0,0,0,0,0,0,-1,1784,519,3.66219,0.47982
567,505,4.65271,-0.950256,0,0,0,0,0,0,0,-1,1791,519,4.65274,0.95028
574,505,5.54443,-1.19977,0,0,0,0,0,0,0,-1,1798,519,5.54443,1.19974
581,505,0,0,0,0,0,0,0,0,0,-1,1805,519,0,0
588,505,0,0,0,0,0,0,0,0,0,-1,1812,519,0,0
595,505,0,0,0,0,0,0,0,0,0,-1,1819,519,0,0
602,505,0,0,0,0,0,0,0,0,0,-1,1826,519,0,0
609,505,0,0,0,0,0,0,0,0,0,-1,1833,519,0,0
616,505,0,0,0,0,0,0,0,0,0,-1,1840,519,0,0
623,505,0,0,0,0,0,0,0,0,0,-1,1847,519,0,0
630,505,0,0,0,0,0,0,0,0,0,-1,1854,519,0,0
637,505,0,0,0,0,0,0,0,0,0,-1,1861,519,0,0
644,505,0,0,0,0,0,0,0,0,0,-1,1868,519,0,0
651,505,0,0,0,0,0,0,0,0,0,-1,1875,519,0,0
658,505,0,0,0,0,0,0,0,0,0,-1,1882,519,0,0
665,505,0,0,0,0,0,0,0,0,0,-1,1889,519,0,0
672,505,0,0,0,0,0,0,0,0,0,-1,1896,519,0,0
679,505,0,0,0,0,0,0,0,0,0,-1,1903,519,0,0
686,505,0,0,0,0,0,0,0,0,0,-1,1910,519,0,0
693,505,0,0,0,0,0,0,0,0,0,-1,1917,519,0,0
700,505,0,0,0,0,0,0,0,0,0,-1,1924,519,0,0
707,505,0,0,0,0,0,0,0,0,0,-1,1931,519,0,0
714,505,0,0,0,0,0,0,0,0,0,-1,1938,519,0,0
721,505,0,0,0,0,0,0,0,0,0,-1,1945,519,0,0
728,505,0,0,0,0,0,0,0,0,0,-1,1952,519,0,0
735,505,0,0,0,0,0,0,0,0,0,-1,1959,519,0,0
742,505,0,0,0,0,0,0,0,0,0,-1,1966,519,0,0
749,505,0,0,0,0,0,0,0,0,0,-1,1973,519,0,0
756,505,0,0,0,0,0,0,0,0,0,-1,1980,519,0,0
763,505,0,0,0,0,0,0,0,0,0,-1,1987,519,0,0
770,505,0,0,0,0,0,0,0,0,0,-1,1994,519,0,0
777,505,0,0,0,0,0,0,0,0,0,-1,2001,519,0,0
784,505,0,0,0,0,0,0,0,0,0,-1,2008,519,0,0
791,505,0,0,0,0,0,0,0,0,0,-1,2015,519,0,0
798,505,0,0,0,0,0,0,0,0,0,-1,2022,519,0,0
805,505,0,0,0,0,0,0,0,0,0,-1,2029,519,0,0
812,505,0,0,0,0,0,0,0,0,0,-1,2036,519,0,0
-700,498,0,0,0,0,0,0,0,0,0,-1,524,526,0,0
-693,498,0,0,0,0,0,0,0,0,0,-1,531,526,0,0
-686,498,0,0,0,0,0,0,0,0,0,-1,538,526,0,0
-679,498,0,0,0,0,0,0,0,0,0,-1,545,526,0,0
-672,498,0,0,0,0,0,0,0,0,0,-1,552,526,0,0
-665,498,0,0,0,0,0,0,0,0,0,-1,559,526,0,0
-658,498,0,0,0,0,0,0,0,0,0,-1,566,526,0,0
-651,498,0,0,0,0,0,0,0,0,0,-1,573,526,0,0
-644,498,0,0,0,0,0,0,0,0,0,-1,580,526,0,0
-637,498,0,0,0,0,0,0,0,0,0,-1,587,526,0,0
-630,498,0,0,0,0,0,0,0,0,0,-1,594,526,0,0
-623,498,0,0,0,0,0,0,0,0,0,-1,601,526,0,0
-616,498,0,0,0,0,0,0,0,0,0,-1,608,526,0,0
-609,498,0,0,0,0,0,0,0,0,0,-1,615,526,0,0
-602,498,0,0,0,0,0,0,0,0,0,-1,622,526,0,0
-595,498,0,0,0,0,0,0,0,0,0,-1,629,526,0,0
-588,498,0,0,0,0,0,0,0,0,0,-1,636,526,0,0
-581,498,0,0,0,0,0,0,0,0,0,-1,643,526,0,0
-574,498,0,0,0,0,0,0,0,0,0,-1,650,526,0,0
-567,498,0,0,0,0,0,0,0,0,0,-1,657,526,0,0
-560,498,0,0,0,0,0,0,0,0,0,-1,664,526,0,0
-553,498,0,0,0,0,0,0,0,0,0,-1,671,526,0,0
-546,498,0,0,0,0,0,0,0,0,0,-1,678,526,0,0
-539,498,0,0,0,0,0,0,0,0,0,-1,685,526,0,0
-532,498,0,0,0,0,0,0,0,0,0,-1,692,526,0,0
-525,498,0,0,0,0,0,0,0,0,0,-1,699,526,0,0
-518,498,0,0,0,0,0,0,0,0,0,-1,706,526,0,0
-511,498,0,0,0,0,0,0,0,0,0,-1,713,526,0,0
-504,498,0,0,0,0,0,0,0,0,0,-1,720,526,0,0
-497,498,0,0,0,0,0,0,0,0,0,-1,727,526,0,0
-490,498,0,0,0,0,0,0,0,0,0,-1,734,526,0,0
-483,498,0,0,0,0,0,0,0,0,0,-1,741,526,0,0
-476,498,0,0,0,0,0,0,0,0,0,-1,748,526,0,0
-469,498,0,0,0,0,0,0,0,0,0,-1,755,526,0,0
-462,498,-4.65875,1.1944,0.0584568,0.0468194,-0.0897375,0.142564,-0.0372878,-0.753023,0.109607,0.0459348,762,526,-4.65874,-1.19441
-455,498,-4.50635,0.463623,0.0539269,0.0434694,-0.0730741,0.121959,-0.0245628,-0.749682,0.0906103,0.0383173,769,526,-4.50634,-0.463633
-448,498,-4.50238,-0.135254,0.0492366,0.0391152,-0.0584818,0.102876,-0.0145244,-0.742238,0.073903,0.0422275,776,526,-4.50236,0.135245
-441,498,-4.47986,-0.707458,0,0,0,0,0,0,0,-1,783,526,-4.47984,0.707436
-434,498,-3.99225,-0.960693,0,0,0,0,0,0,0,-1,790,526,-3.99224,0.960717
-427,498,0.17926,-2.97302,0,0,0,0,0,0,0,-1,797,526,0.179285,2.97301
-420,498,-0.0131836,-3.07855,0.031717,0.0193378,-0.0144292,0.0412281,0.00982666,-0.582786,0.0248658,0.046502,804,526,-0.0131952,3.07855
-413,498,-0.0360107,-3.19604,0.0277978,0.0151235,-0.00892042,0.0324029,0.0105184,-0.476559,0.0190876,0.0447056,811,526,-0.0360067,3.19604
-406,498,-0.0521851,-3.44647,0.0238708,0.011031,-0.00485024,0.025497,0.00940477,-0.323507,0.0148885,0.0389899,818,526,-0.0521984,3.44649
-399,498,-0.0583496,-3.64349,0.0201475,0.008236,-0.00196118,0.0204621,0.00792141,-0.159054,0.0119137,0.0247949,825,526,-0.05834,3.64346
-392,498,-0.0969849,-3.80334,0.0168367,0.00624626,-0.000446157,0.0168554,0.0062275,-0.0420291,0.00984142,0.0126926,832,526,-0.0969555,3.80332
-385,498,-0.115173,-3.93738,0.0128151,0.00442096,-9.06971e-05,0.0128161,0.00441998,-0.0108031,0.00751716,0.00874665,839,526,-0.11517,3.93737
-378,498,-0.111328,-4.06305,0.00950649,0.00309432,-0.000654864,0.00957269,0.00302812,-0.100742,0.00564973,0.00948778,846,526,-0.111353,4.06302
-371,498,-0.119324,-4.21826,0.00664115,0.00178974,-3.57067e-05,0.00664141,0.00178948,-0.00735953,0.00396798,0.0153545,853,526,-0.119329,4.21827
-364,498,-0.140198,-4.39899,0.00427189,0.00103956,-5.37698e-07,0.00427189,0.00103956,-0.00016635,0.0025724,0.01651,860,526,-0.140198,4.39898
-357,498,-0.106934,-4.55646,0.00225029,0.000124536,-0.000394877,0.00232127,5.35548e-05,-0.177857,0.00152998,0.0115089,867,526,-0.106949,4.55645
-350,498,-0.108459,-4.68829,0.00102728,-0.000750481,-0.000959462,0.00144633,-0.00116953,-0.411782,0.00151308,0.0113985,874,526,-0.108461,4.68828
-343,498,-0.120911,-4.83295,0.00063232,-0.00122936,-0.000917106,0.00100821,-0.00160525,-0.388983,0.00152195,0.0114913,881,526,-0.120932,4.83294
-336,498,-0.130249,-4.97772,0.000561883,-0.0014997,-0.00109747,0.00103674,-0.00197455,-0.40836,0.00176645,0.0139456,888,526,-0.130253,4.97771
-329,498,-0.140686,-5.1001,0.000412405,-0.00185917,-0.00137124,0.00105715,-0.00250392,-0.43952,0.00211179,0.0179056,895,526,-0.14071,5.10007
-322,498,-0.137512,-5.2384,-8.10494e-05,-0.00198996,-0.00144568,0.00069683,-0.00276784,-0.493638,0.0021161,0.0171749,902,526,-0.137521,5.23843
-315,498,-0.139893,-5.39178,-0.000612495,-0.00211539,-0.00151135,0.000323914,-0.0030518,-0.554695,0.00215065,0.0138011,909,526,-0.139916,5.39176
-308,498,-0.111694,-5.55383,-0.0012298,-0.00221639,-0.00145851,-0.000183425,-0.00326276,-0.622327,0.00211668,0.0136737,916,526,-0.111684,5.55385
-301,498,-0.0292969,-5.74969,-0.00706528,-0.00487205,0.0020628,-0.00363249,-0.00830484,1.02971,0.00480731,0.0228434,923,526,-0.0293173,5.74968
-294,498,-0.127625,-5.76331,-0.0196212,-0.0132235,0.00881881,-0.00704129,-0.0258034,0.959385,0.0154014,0.0388662,930,526,-0.127633,5.76328
-287,498,-0.241394,-5.94067,-0.0382351,-0.027747,0.0172063,-0.0150033,-0.0509788,0.933314,0.0302514,0.0463718,937,526,-0.241394,5.94065
-280,498,0.234314,-5.60217,0,0,0,0,0,0,0,-1,944,526,0.234321,5.60214
-273,498,-0.512329,-6.00531,0,0,0,0,0,0,0,-1,951,526,-0.512359,6.00529
-266,498,0.362488,-6.33545,0,0,0,0,0,0,0,-1,958,526,0.362478,6.33547
-259,498,10.9454,-17.3615,0,0,0,0,0,0,0,-1,965,526,10.9454,17.3614
-252,498,8.56586,-14.6886,-0.136145,-0.11123,0.0577027,-0.0646556,-0.18272,0.891711,0.106985,0.0499272,972,526,8.56584,14.6886
-245,498,5.97382,-11.928,-0.150286,-0.124038,0.0615215,-0.0742562,-0.200068,0.890485,0.116781,0.0472383,979,526,5.97381,11.928
-238,498,3.31403,-9.40442,-0.162383,-0.135198,0.0635895,-0.0837645,-0.213816,0.890689,0.124407,0.0457826,986,526,3.31405,9.40443
-231,498,0.675598,-6.60547,-0.172039,-0.144315,0.0637862,-0.092902,-0.223452,0.892396,0.129619,0.0477083,993,526,0.675587,6.60545
-224,498,-2.11243,-4.76312,0,0,0,0,0,0,0,-1,1000,526,-2.11245,4.76314
-217,498,-3.82239,-1.42841,0,0,0,0,0,0,0,-1,1007,526,-3.82241,1.42843
-210,498,-1.80591,-0.358215,0,0,0,0,0,0,0,-1,1014,526,-1.8059,0.3582
-203,498,-3.17316,1.06641,0,0,0,0,0,0,0,-1,1021,526,-3.17313,-1.0664
-196,498,-0.103271,5.40527,0,0,0,0,0,0,0,-1,1028,526,-0.103285,-5.40528
-189,498,3.00256,6.47137,0,0,0,0,0,0,0,-1,1035,526,3.00256,-6.47139
-182,498,0,0,0,0,0,0,0,0,0,-1,1042,526,0,0
-175,498,0,0,0,0,0,0,0,0,0,-1,1049,526,0,0
-168,498,0,0,0,0,0,0,0,0,0,-1,1056,526,0,0
-161,498,0,0,0,0,0,0,0,0,0,-1,1063,526,0,0
-154,498,0,0,0,0,0,0,0,0,0,-1,1070,526,0,0
-147,498,0,0,0,0,0,0,0,0,0,-1,1077,526,0,0
-140,498,0,0,0,0,0,0,0,0,0,-1,1084,526,0,0
-133,498,0,0,0,0,0,0,0,0,0,-1,1091,526,0,0
-126,498,0,0,0,0,0,0,0,0,0,-1,1098,526,0,0
-119,498,0,0,0,0,0,0,0,0,0,-1,1105,526,0,0
-112,498,0,0,0,0,0,0,0,0,0,-1,1112,526,0,0
-105,498,0,0,0,0,0,0,0,0,0,-1,1119,526,0,0
-98,498,0,0,0,0,0,0,0,0,0,-1,1126,526,0,0
-91,498,0,0,0,0,0,0,0,0,0,-1,1133,526,0,0
-84,498,0,0,0,0,0,0,0,0,0,-1,1140,526,0,0
-77,498,0,0,0,0,0,0,0,0,0,-1,1147,526,0,0
-70,498,0,0,0,0,0,0,0,0,0,-1,1154,526,0,0
-63,498,0,0,0,0,0,0,0,0,0,-1,1161,526,0,0
-56,498,0,0,0,0,0,0,0,0,0,-1,1168,526,0,0
-49,498,0,0,0,0,0,0,0,0,0,-1,1175,526,0,0
-42,498,0,0,0,0,0,0,0,0,0,-1,1182,526,0,0
-35,498,0,0,0,0,0,0,0,0,0,-1,1189,526,0,0
-28,498,0,0,0,0,0,0,0,0,0,-1,1196,526,0,0
-21,498,0,0,0,0,0,0,0,0,0,-1,1203,526,0,0
-14,498,0,0,0,0,0,0,0,0,0,-1,1210,526,0,0
-7,498,0,0,0,0,0,0,0,0,0,-1,1217,526,0,0
0,498,0,0,0,0,0,0,0,0,0,-1,1224,526,0,0
7,498,0,0,0,0,0,0,0,0,0,-1,1231,526,0,0
14,498,0,0,0,0,0,0,0,0,0,-1,1238,526,0,0
21,498,0,0,0,0,0,0,0,0,0,-1,1245,526,0,0
28,498,0,0,0,0,0,0,0,0,0,-1,1252,526,0,0
35,498,0,0,0,0,0,0,0,0,0,-1,1259,526,0,0
42,498,0,0,0,0,0,0,0,0,0,-1,1266,526,0,0
49,498,0,0,0,0,0,0,0,0,0,-1,1273,526,0,0
56,498,0,0,0,0,0,0,0,0,0,-1,1280,526,0,0
63,498,0,0,0,0,0,0,0,0,0,-1,1287,526,0,0
70,498,0,0,0,0,0,0,0,0,0,-1,1294,526,0,0
77,498,0,0,0,0,0,0,0,0,0,-1,1301,526,0,0
84,498,0,0,0,0,0,0,0,0,0,-1,1308,526,0,0
91,498,0,0,0,0,0,0,0,0,0,-1,1315,526,0,0
98,498,0,0,0,0,0,0,0,0,0,-1,1322,526,0,0
105,498,0,0,0,0,0,0,0,0,0,-1,1329,526,0,0
112,498,0,0,0,0,0,0,0,0,0,-1,1336,526,0,0
119,498,0,0,0,0,0,0,0,0,0,-1,1343,526,0,0
126,498,0,0,0,0,0,0,0,0,0,-1,1350,526,0,0
133,498,0,0,0,0,0,0,0,0,0,-1,1357,526,0,0
140,498,0,0,0,0,0,0,0,0,0,-1,1364,526,0,0
147,498,0,0,0,0,0,0,0,0,0,-1,1371,526,0,0
154,498,0,0,0,0,0,0,0,0,0,-1,1378,526,0,0
161,498,0,0,0,0,0,0,0,0,0,-1,1385,526,0,0
168,498,0,0,0,0,0,0,0,0,0,-1,1392,526,0,0
175,498,0,0,0,0,0,0,0,0,0,-1,1399,526,0,0
182,498,0,0,0,0,0,0,0,0,0,-1,1406,526,0,0
189,498,0,0,0,0,0,0,0,0,0,-1,1413,526,0,0
196,498,0,0,0,0,0,0,0,0,0,-1,1420,526,0,0
203,498,0,0,0,0,0,0,0,0,0,-1,1427,526,0,0
210,498,0,0,0,0,0,0,0,0,0,-1,1434,526,0,0
217,498,0,0,0,0,0,0,0,0,0,-1,1441,526,0,0
224,498,0,0,0,0,0,0,0,0,0,-1,1448,526,0,0
231,498,0,0,0,0,0,0,0,0,0,-1,1455,526,0,0
238,498,0,0,0,0,0,0,0,0,0,-1,1462,526,0,0
245,498,0,0,0,0,0,0,0,0,0,-1,1469,526,0,0
252,498,0,0,0,0,0,0,0,0,0,-1,1476,526,0,0
259,498,0,0,0,0,0,0,0,0,0,-1,1483,526,0,0
266,498,0,0,0,0,0,0,0,0,0,-1,1490,526,0,0
273,498,0,0,0,0,0,0,0,0,0,-1,1497,526,0,0
280,498,0,0,0,0,0,0,0,0,0,-1,1504,526,0,0
287,498,0,0,0,0,0,0,0,0,0,-1,1511,526,0,0
294,498,0,0,0,0,0,0,0,0,0,-1,1518,526,0,0
301,498,0,0,0,0,0,0,0,0,0,-1,1525,526,0,0
308,498,4.77942,-0.293884,0,0,0,0,0,0,0,-1,1532,526,4.77939,0.293899
315,498,4.56091,-0.564148,0,0,0,0,0,0,0,-1,1539,526,4.56097,0.564142
322,498,4.52344,-0.447266,0,0,0,0,0,0,0,-1,1546,526,4.52341,0.447295
329,498,4.63232,-0.156982,0,0,0,0,0,0,0,-1,1553,526,4.63238,0.156991
336,498,5.22644,0.0925903,0,0,0,0,0,0,0,-1,1560,526,5.22648,-0.0926188
343,498,6.22607,-1.67615,0,0,0,0,0,0,0,-1,1567,526,6.22605,1.67617
350,498,6.19373,-1.59906,0,0,0,0,0,0,0,-1,1574,526,6.19367,1.59906
357,498,6.21472,-1.58929,0,0,0,0,0,0,0,-1,1581,526,6.21476,1.58927
364,498,5.73547,-1.2019,0,0,0,0,0,0,0,-1,1588,526,5.73547,1.20192
371,498,3.27087,-4.55334,0,0,0,0,0,0,0,-1,1595,526,3.27089,4.55332
378,498,8.42944,-4.70624,0,0,0,0,0,0,0,-1,1602,526,8.42942,4.70624
385,498,4.45325,-5.31464,0,0,0,0,0,0,0,-1,1609,526,4.45319,5.31463
392,498,3.44421,-4.27454,0,0,0,0,0,0,0,-1,1616,526,3.44416,4.27456
399,498,5.09229,-4.25647,0,0,0,0,0,0,0,-1,1623,526,5.09227,4.25647
406,498,4.67383,-4.2948,0,0,0,0,0,0,0,-1,1630,526,4.67382,4.29479
413,498,4.77283,-4.60583,0,0,0,0,0,0,0,-1,1637,526,4.77281,4.60584
420,498,4.44214,-4.7179,0,0,0,0,0,0,0,-1,1644,526,4.44212,4.71792
427,498,4.33752,-4.64087,-0.00218841,-0.00529678,-0.00520748,0.00169186,-0.00917705,-0.64038,0.00675301,0.0326338,1651,526,4.3375,4.64088
434,498,4.39893,-4.49921,-0.00176398,-0.00307354,-0.00387858,0.0015147,-0.00635222,-0.701777,0.00481972,0.0173897,1658,526,4.39894,4.49924
441,498,4.3418,-4.32599,-0.00162409,-0.001631,-0.00303388,0.00140634,-0.00466143,-0.784829,0.00366741,0.010036,1665,526,4.34181,4.32598
448,498,4.35583,-4.1665,-0.00100806,-0.000403756,-0.00204864,0.00136489,-0.00277671,-0.858615,0.00243702,0.010116,1672,526,4.35578,4.16648
455,498,4.35486,-4.01556,-0.000311643,0.000279778,-0.00113195,0.00115401,-0.00118587,-0.913162,0.00135097,0.0129095,1679,526,4.35489,4.01556
462,498,4.35168,-3.87622,-2.02277e-05,0.000911471,-0.000486508,0.0011192,-0.000227955,-1.16725,0.000832585,0.0151336,1686,526,4.3517,3.87621
469,498,4.33997,-3.7149,-0.000157547,0.00122381,-0.000416735,0.00133979,-0.000273531,-1.29935,0.000996959,0.0136259,1693,526,4.34001,3.71493
476,498,4.35388,-3.54059,-0.000593611,0.00122768,-0.000806475,0.00153346,-0.000899385,-1.20839,0.00142042,0.00995243,1700,526,4.35391,3.54057
483,498,4.35242,-3.35718,-0.00116781,0.00136922,-0.001406,0.00199438,-0.00179296,-1.15242,0.00218765,0.00828624,1707,526,4.35238,3.3572
490,498,4.35437,-3.21606,-0.00184864,0.00135872,-0.00218077,0.00246199,-0.00295191,-1.10243,0.00312997,0.0104053,1714,526,4.35436,3.21606
497,498,4.36658,-3.06818,-0.00272851,0.001361,-0.00299682,0.00294418,-0.00431169,-1.08477,0.00421391,0.012193,1721,526,4.36662,3.06815
504,498,4.34973,-2.90375,-0.00353116,0.00139941,-0.00386231,0.00351617,-0.00564791,-1.06945,0.00533839,0.0140396,1728,526,4.34967,2.90374
511,498,4.35095,-2.72571,-0.00365727,0.00165857,-0.00426554,0.00402652,-0.00602522,-1.06402,0.00584149,0.0146182,1735,526,4.35094,2.72569
518,498,4.41455,-2.54773,-0.00360078,0.0021959,-0.00434663,0.00452188,-0.00592676,-1.07945,0.00605068,0.0164562,1742,526,4.4146,2.54773
525,498,4.35608,-2.40228,-0.00322179,0.00272324,-0.00410131,0.00481596,-0.00531451,-1.09898,0.00585119,0.0248981,1749,526,4.35602,2.40229
532,498,4.31519,-2.31976,-0.00217088,0.00366058,-0.00305607,0.00496871,-0.00347902,-1.16635,0.00490251,0.034334,1756,526,4.3152,2.31976
539,498,4.37146,-2.20618,-0.00011831,0.00550278,-0.000913474,0.0056475,-0.000263031,-1.41367,0.00385567,0.0407582,1763,526,4.37144,2.20618
546,498,4.43811,-1.80566,0.00307849,0.00811994,0.00237094,0.00905976,0.00213867,1.1934,0.00546819,0.0461691,1770,526,4.43817,1.80569
553,498,4.22803,-1.36304,0,0,0,0,0,0,0,-1,1777,526,4.22799,1.36307
560,498,3.69385,-0.615112,0,0,0,0,0,0,0,-1,1784,526,3.69381,0.615118
567,498,5.12695,-0.581604,0,0,0,0,0,0,0,-1,1791,526,5.12699,0.58159
574,498,3.88,0.0286255,0,0,0,0,0,0,0,-1,1798,526,3.87999,-0.0286535
581,498,10.8722,2.58551,0,0,0,0,0,0,0,-1,1805,526,10.8723,-2.58551
588,498,0,0,0,0,0,0,0,0,0,-1,1812,526,0,0
595,498,0,0,0,0,0,0,0,0,0,-1,1819,526,0,0
602,498,0,0,0,0,0,0,0,0,0,-1,1826,526,0,0
609,498,0,0,0,0,0,0,0,0,0,-1,1833,526,0,0
616,498,0,0,0,0,0,0,0,0,0,-1,1840,526,0,0
623,498,0,0,0,0,0,0,0,0,0,-1,1847,526,0,0
630,498,0,0,0,0,0,0,0,0,0,-1,1854,526,0,0
637,498,0,0,0,0,0,0,0,0,0,-1,1861,526,0,0
644,498,0,0,0,0,0,0,0,0,0,-1,1868,526,0,0
651,498,0,0,0,0,0,0,0,0,0,-1,1875,526,0,0
658,498,0,0,0,0,0,0,0,0,0,-1,1882,526,0,0
665,498,0,0,0,0,0,0,0,0,0,-1,1889,526,0,0
672,498,0,0,0,0,0,0,0,0,0,-1,1896,526,0,0
679,498,0,0,0,0,0,0,0,0,0,-1,1903,526,0,0
686,498,0,0,0,0,0,0,0,0,0,-1,1910,526,0,0
693,498,0,0,0,0,0,0,0,0,0,-1,1917,526,0,0
700,498,0,0,0,0,0,0,0,0,0,-1,1924,526,0,0
707,498,0,0,0,0,0,0,0,0,0,-1,1931,526,0,0
714,498,0,0,0,0,0,0,0,0,0,-1,1938,526,0,0
721,498,0,0,0,0,0,0,0,0,0,-1,1945,526,0,0
728,498,0,0,0,0,0,0,0,0,0,-1,1952,526,0,0
735,498,0,0,0,0,0,0,0,0,0,-1,1959,526,0,0
742,498,0,0,0,0,0,0,0,0,0,-1,1966,526,0,0
749,498,0,0,0,0,0,0,0,0,0,-1,1973,526,0,0
756,498,0,0,0,0,0,0,0,0,0,-1,1980,526,0,0
763,498,0,0,0,0,0,0,0,0,0,-1,1987,526,0,0
770,498,0,0,0,0,0,0,0,0,0,-1,1994,526,0,0
777,498,0,0,0,0,0,0,0,0,0,-1,2001,526,0,0
784,498,0,0,0,0,0,0,0,0,0,-1,2008,526,0,0
791,498,0,0,0,0,0,0,0,0,0,-1,2015,526,0,0
798,498,0,0,0,0,0,0,0,0,0,-1,2022,526,0,0
805,498,0,0,0,0,0,0,0,0,0,-1,2029,526,0,0
812,498,0,0,0,0,0,0,0,0,0,-1,2036,526,0,0
-700,491,0,0,0,0,0,0,0,0,0,-1,524,533,0,0
-693,491,0,0,0,0,0,0,0,0,0,-1,531,533,0,0
-686,491,0,0,0,0,0,0,0,0,0,-1,538,533,0,0
-679,491,0,0,0,0,0,0,0,0,0,-1,545,533,0,0
-672,491,0,0,0,0,0,0,0,0,0,-1,552,533,0,0
-665,491,0,0,0,0,0,0,0,0,0,-1,559,533,0,0
-658,491,0,0,0,0,0,0,0,0,0,-1,566,533,0,0
-651,491,0,0,0,0,0,0,0,0,0,-1,573,533,0,0
-644,491,0,0,0,0,0,0,0,0,0,-1,580,533,0,0
-637,491,0,0,0,0,0,0,0,0,0,-1,587,533,0,0
-630,491,0,0,0,0,0,0,0,0,0,-1,594,533,0,0
-623,491,0,0,0,0,0,0,0,0,0,-1,601,533,0,0
-616,491,0,0,0,0,0,0,0,0,0,-1,608,533,0,0
-609,491,0,0,0,0,0,0,0,0,0,-1,615,533,0,0
-602,491,0,0,0,0,0,0,0,0,0,-1,622,533,0,0
-595,491,0,0,0,0,0,0,0,0,0,-1,629,533,0,0
-588,491,0,0,0,0,0,0,0,0,0,-1,636,533,0,0
-581,491,0,0,0,0,0,0,0,0,0,-1,643,533,0,0
-574,491,0,0,0,0,0,0,0,0,0,-1,650,533,0,0
-567,491,0,0,0,0,0,0,0,0,0,-1,657,533,0,0
-560,491,0,0,0,0,0,0,0,0,0,-1,664,533,0,0
-553,491,0,0,0,0,0,0,0,0,0,-1,671,533,0,0
-546,491,0,0,0,0,0,0,0,0,0,-1,678,533,0,0
-539,491,0,0,0,0,0,0,0,0,0,-1,685,533,0,0
-532,491,0,0,0,0,0,0,0,0,0,-1,692,533,0,0
-525,491,0,0,0,0,0,0,0,0,0,-1,699,533,0,0
-518,491,0,0,0,0,0,0,0,0,0,-1,706,533,0,0
-511,491,0,0,0,0,0,0,0,0,0,-1,713,533,0,0
-504,491,0,0,0,0,0,0,0,0,0,-1,720,533,0,0
-497,491,0,0,0,0,0,0,0,0,0,-1,727,533,0,0
-490,491,0,0,0,0,0,0,0,0,0,-1,734,533,0,0
-483,491,0,0,0,0,0,0,0,0,0,-1,741,533,0,0
-476,491,0,0,0,0,0,0,0,0,0,-1,748,533,0,0
-469,491,-4.84955,1.0932,0,0,0,0,0,0,0,-1,755,533,-4.84952,-1.09322
-462,491,-4.1087,0.456055,0.0585076,0.0431766,-0.0863032,0.137485,-0.0358009,-0.741104,0.105632,0.0453951,762,533,-4.1087,-0.456068
-455,491,-3.64661,0.0198364,0.0511972,0.0407289,-0.0699332,0.116092,-0.0241657,-0.748045,0.0865813,0.0420399,769,533,-3.64662,-0.0198285
-448,491,-2.7984,-0.344299,0,0,0,0,0,0,0,-1,776,533,-2.79842,0.344328
-441,491,-1.65051,-0.546326,0,0,0,0,0,0,0,-1,783,533,-1.65049,0.546323
-434,491,-0.82959,-1.83087,0,0,0,0,0,0,0,-1,790,533,-0.82957,1.83087
-427,491,-0.545715,-2.25427,0.0281612,0.0237008,-0.0206521,0.0467032,0.00515881,-0.731611,0.0295662,0.0492382,797,533,-0.545705,2.25428
-420,491,-0.278625,-2.87915,0.0241193,0.0185092,-0.0128943,0.0345101,0.00811838,-0.678297,0.0208347,0.0449718,804,533,-0.278648,2.87914
-413,491,-0.245728,-3.27106,0.0203459,0.014388,-0.00771937,0.0256412,0.00909275,-0.601249,0.0150111,0.0350457,811,533,-0.245748,3.27104
-406,491,-0.214111,-3.47882,0.0168926,0.01037,-0.00388661,0.0187049,0.00855764,-0.436329,0.0108123,0.019725,818,533,-0.214123,3.4788
-399,491,-0.239929,-3.63379,0.013826,0.00754848,-0.00116283,0.0140345,0.00734001,-0.177397,0.00810568,0.0115062,825,533,-0.239957,3.63378
-392,491,-0.261292,-3.78662,0.0114001,0.00550338,0.000176322,0.0114054,0.00549811,0.0298659,0.00658632,0.00986622,832,533,-0.261301,3.78661
-385,491,-0.272888,-3.93726,0.00850851,0.00361755,0.000510583,0.00856124,0.00356481,0.102915,0.00496582,0.0087425,839,533,-0.272872,3.93724
-378,491,-0.266785,-4.08368,0.00627407,0.00222394,8.96245e-06,0.00627409,0.00222392,0.00221287,0.00367314,0.0120083,846,533,-0.266802,4.08368
-371,491,-0.264526,-4.23883,0.00439064,0.000898538,0.000354712,0.00442631,0.000862872,0.100212,0.00270944,0.0136298,853,533,-0.264511,4.23881
-364,491,-0.264771,-4.39862,0.00287107,0.000155503,0.000169419,0.0028816,0.000144974,0.0620673,0.00187461,0.0138965,860,533,-0.264753,4.3986
-357,491,-0.256531,-4.55237,0.00175839,-0.000741186,-0.000341528,0.00180421,-0.00078701,-0.133378,0.00153398,0.012298,867,533,-0.256544,4.55234
-350,491,-0.255432,-4.67792,0.0012147,-0.00160689,-0.000952496,0.00150614,-0.00189833,-0.296926,0.00196991,0.0140403,874,533,-0.255446,4.67791
-343,491,-0.246155,-4.78979,0.00108424,-0.00215305,-0.0011527,0.00145274,-0.00252155,-0.309414,0.00232205,0.0218116,881,533,-0.246185,4.78979
-336,491,-0.255493,-4.92108,0.000953663,-0.00249237,-0.00145372,0.001485,-0.0030237,-0.350415,0.00265315,0.0218093,888,533,-0.255503,4.92107
-329,491,-0.292847,-5.06555,0.000653284,-0.00288263,-0.00184459,0.00144035,-0.0036697,-0.403303,0.00304244,0.0229036,895,533,-0.292822,5.06555
-322,491,-0.261719,-5.2049,-8.89058e-05,-0.00305714,-0.0020237,0.000936551,-0.00408259,-0.469012,0.00308172,0.0208643,902,533,-0.261723,5.20487
-315,491,-0.290222,-5.36737,-0.000932835,-0.0032603,-0.00223697,0.000425,-0.00461814,-0.545549,0.00322976,0.0154564,909,533,-0.290237,5.36737
-308,491,-0.163452,-5.57605,-0.00192503,-0.00341228,-0.00230415,-0.000247482,-0.00508984,-0.629308,0.00331381,0.0322171,916,533,-0.163467,5.57603
-301,491,-0.170532,-6.03467,0,0,0,0,0,0,0,-1,923,533,-0.170559,6.03469
-294,491,-0.661255,-5.85217,0,0,0,0,0,0,0,-1,930,533,-0.66125,5.85217
-287,491,-0.552185,-5.84924,0,0,0,0,0,0,0,-1,937,533,-0.552184,5.84925
-280,491,0.2948,-5.99219,0,0,0,0,0,0,0,-1,944,533,0.294811,5.99221
-273,491,0.369995,-5.33691,0,0,0,0,0,0,0,-1,951,533,0.369985,5.33693
-266,491,1.1167,-5.0321,0,0,0,0,0,0,0,-1,958,533,1.11668,5.0321
-259,491,12.0862,-16.9615,0,0,0,0,0,0,0,-1,965,533,12.0862,16.9615
-252,491,9.72443,-13.8417,-0.165081,-0.136347,0.0707705,-0.0784997,-0.222928,0.885539,0.13057,0.0470737,972,533,9.72444,13.8418
-245,491,7.36926,-10.7169,-0.180572,-0.151,0.0748926,-0.0894477,-0.242124,0.88286,0.14137,0.0462217,979,533,7.36924,10.7169
-238,491,4.84167,-7.53986,-0.193753,-0.163713,0.0767598,-0.100518,-0.256949,0.882015,0.149516,0.0445601,986,533,4.84169,7.53984
-231,491,2.15582,-5.05225,-0.203993,-0.173943,0.0760701,-0.111428,-0.266508,0.882901,0.154555,0.0447746,993,533,2.1558,5.05223
-224,491,-0.429749,-3.09216,-0.210292,-0.181611,0.0720396,-0.122498,-0.269404,0.883648,0.155753,0.0471058,1000,533,-0.429743,3.09215
-217,491,-2.92743,-1.0766,0,0,0,0,0,0,0,-1,1007,533,-2.92743,1.07659
-210,491,-0.92395,0.374512,0,0,0,0,0,0,0,-1,1014,533,-0.923959,-0.374531
-203,491,0.417419,4.77161,0,0,0,0,0,0,0,-1,1021,533,0.417446,-4.77162
-196,491,0,0,0,0,0,0,0,0,0,-1,1028,533,0,0
-189,491,0,0,0,0,0,0,0,0,0,-1,1035,533,0,0
-182,491,0,0,0,0,0,0,0,0,0,-1,1042,533,0,0
-175,491,0,0,0,0,0,0,0,0,0,-1,1049,533,0,0
-168,491,0,0,0,0,0,0,0,0,0,-1,1056,533,0,0
-161,491,0,0,0,0,0,0,0,0,0,-1,1063,533,0,0
-154,491,0,0,0,0,0,0,0,0,0,-1,1070,533,0,0
-147,491,0,0,0,0,0,0,0,0,0,-1,1077,533,0,0
-140,491,0,0,0,0,0,0,0,0,0,-1,1084,533,0,0
-133,491,0,0,0,0,0,0,0,0,0,-1,1091,533,0,0
-126,491,0,0,0,0,0,0,0,0,0,-1,1098,533,0,0
-119,491,0,0,0,0,0,0,0,0,0,-1,1105,533,0,0
-112,491,0,0,0,0,0,0,0,0,0,-1,1112,533,0,0
-105,491,0,0,0,0,0,0,0,0,0,-1,1119,533,0,0
-98,491,0,0,0,0,0,0,0,0,0,-1,1126,533,0,0
-91,491,0,0,0,0,0,0,0,0,0,-1,1133,533,0,0
-84,491,0,0,0,0,0,0,0,0,0,-1,1140,533,0,0
-77,491,0,0,0,0,0,0,0,0,0,-1,1147,533,0,0
-70,491,0,0,0,0,0,0,0,0,0,-1,1154,533,0,0
-63,491,0,0,0,0,0,0,0,0,0,-1,1161,533,0,0
-56,491,0,0,0,0,0,0,0,0,0,-1,1168,533,0,0
-49,491,0,0,0,0,0,0,0,0,0,-1,1175,533,0,0
-42,491,0,0,0,0,0,0,0,0,0,-1,1182,533,0,0
-35,491,0,0,0,0,0,0,0,0,0,-1,1189,533,0,0
-28,491,0,0,0,0,0,0,0,0,0,-1,1196,533,0,0
-21,491,0,0,0,0,0,0,0,0,0,-1,1203,533,0,0
-14,491,0,0,0,0,0,0,0,0,0,-1,1210,533,0,0
-7,491,0,0,0,0,0,0,0,0,0,-1,1217,533,0,0
0,491,0,0,0,0,0,0,0,0,0,-1,1224,533,0,0
7,491,0,0,0,0,0,0,0,0,0,-1,1231,533,0,0
14,491,0,0,0,0,0,0,0,0,0,-1,1238,533,0,0
21,491,0,0,0,0,0,0,0,0,0,-1,1245,533,0,0
28,491,0,0,0,0,0,0,0,0,0,-1,1252,533,0,0
35,491,0,0,0,0,0,0,0,0,0,-1,1259,533,0,0
42,491,0,0,0,0,0,0,0,0,0,-1,1266,533,0,0
49,491,0,0,0,0,0,0,0,0,0,-1,1273,533,0,0
56,491,0,0,0,0,0,0,0,0,0,-1,1280,533,0,0
63,491,0,0,0,0,0,0,0,0,0,-1,1287,533,0,0
70,491,0,0,0,0,0,0,0,0,0,-1,1294,533,0,0
77,491,0,0,0,0,0,0,0,0,0,-1,1301,533,0,0
84,491,0,0,0,0,0,0,0,0,0,-1,1308,533,0,0
91,491,0,0,0,0,0,0,0,0,0,-1,1315,533,0,0
98,491,0,0,0,0,0,0,0,0,0,-1,1322,533,0,0
105,491,0,0,0,0,0,0,0,0,0,-1,1329,533,0,0
112,491,0,0,0,0,0,0,0,0,0,-1,1336,533,0,0
119,491,0,0,0,0,0,0,0,0,0,-1,1343,533,0,0
126,491,0,0,0,0,0,0,0,0,0,-1,1350,533,0,0
133,491,0,0,0,0,0,0,0,0,0,-1,1357,533,0,0
140,491,0,0,0,0,0,0,0,0,0,-1,1364,533,0,0
147,491,0,0,0,0,0,0,0,0,0,-1,1371,533,0,0
154,491,0,0,0,0,0,0,0,0,0,-1,1378,533,0,0
161,491,0,0,0,0,0,0,0,0,0,-1,1385,533,0,0
168,491,0,0,0,0,0,0,0,0,0,-1,1392,533,0,0
175,491,0,0,0,0,0,0,0,0,0,-1,1399,533,0,0
182,491,0,0,0,0,0,0,0,0,0,-1,1406,533,0,0
189,491,0,0,0,0,0,0,0,0,0,-1,1413,533,0,0
196,491,0,0,0,0,0,0,0,0,0,-1,1420,533,0,0
203,491,0,0,0,0,0,0,0,0,0,-1,1427,533,0,0
210,491,0,0,0,0,0,0,0,0,0,-1,1434,533,0,0
217,491,0,0,0,0,0,0,0,0,0,-1,1441,533,0,0
224,491,0,0,0,0,0,0,0,0,0,-1,1448,533,0,0
231,491,0,0,0,0,0,0,0,0,0,-1,1455,533,0,0
238,491,0,0,0,0,0,0,0,0,0,-1,1462,533,0,0
245,491,0,0,0,0,0,0,0,0,0,-1,1469,533,0,0
252,491,0,0,0,0,0,0,0,0,0,-1,1476,533,0,0
259,491,0,0,0,0,0,0,0,0,0,-1,1483,533,0,0
266,491,0,0,0,0,0,0,0,0,0,-1,1490,533,0,0
273,491,0,0,0,0,0,0,0,0,0,-1,1497,533,0,0
280,491,0,0,0,0,0,0,0,0,0,-1,1504,533,0,0
287,491,0,0,0,0,0,0,0,0,0,-1,1511,533,0,0
294,491,0,0,0,0,0,0,0,0,0,-1,1518,533,0,0
301,491,0,0,0,0,0,0,0,0,0,-1,1525,533,0,0
308,491,0,0,0,0,0,0,0,0,0,-1,1532,533,0,0
315,491,0,0,0,0,0,0,0,0,0,-1,1539,533,0,0
322,491,4.26331,-0.734314,0,0,0,0,0,0,0,-1,1546,533,4.26326,0.734324
329,491,4.25354,-0.783752,0,0,0,0,0,0,0,-1,1553,533,4.25359,0.783734
336,491,4.81604,-0.722107,0,0,0,0,0,0,0,-1,1560,533,4.81605,0.722115
343,491,6.14478,-1.44281,0,0,0,0,0,0,0,-1,1567,533,6.14474,1.44281
350,491,6.36353,-1.30792,0,0,0,0,0,0,0,-1,1574,533,6.36352,1.3079
357,491,6.69482,-1.06018,0,0,0,0,0,0,0,-1,1581,533,6.69489,1.06018
364,491,8.01086,-1.69604,0,0,0,0,0,0,0,-1,1588,533,8.01087,1.69607
371,491,8.2135,-0.539307,0,0,0,0,0,0,0,-1,1595,533,8.21348,0.53929
378,491,13.3868,1.12128,0,0,0,0,0,0,0,-1,1602,533,13.3869,-1.12126
385,491,8.08228,-4.95471,0,0,0,0,0,0,0,-1,1609,533,8.08227,4.95474
392,491,2.88721,-4.30988,0,0,0,0,0,0,0,-1,1616,533,2.88716,4.30986
399,491,7.08691,-4.86603,0,0,0,0,0,0,0,-1,1623,533,7.08696,4.86606
406,491,5.23694,-4.38751,0,0,0,0,0,0,0,-1,1630,533,5.23699,4.38754
413,491,5.31848,-3.7124,0,0,0,0,0,0,0,-1,1637,533,5.31849,3.7124
420,491,4.86389,-3.95892,0,0,0,0,0,0,0,-1,1644,533,4.86387,3.95893
427,491,4.55652,-4.53009,0,0,0,0,0,0,0,-1,1651,533,4.5565,4.5301
434,491,4.60852,-4.5318,-0.00222385,-0.00312045,-0.00460996,0.00195956,-0.00730386,-0.736928,0.00563712,0.0352809,1658,533,4.60852,4.53181
441,491,4.51575,-4.40887,-0.00202062,-0.00136474,-0.0035984,0.00192064,-0.005306,-0.83084,0.00432221,0.0230482,1665,533,4.51576,4.4089
448,491,4.51367,-4.17358,-0.00121658,9.69976e-06,-0.00245044,0.00192254,-0.00312942,-0.90799,0.00294437,0.0128928,1672,533,4.51372,4.17361
455,491,4.5105,-4.02124,-0.000279982,0.000639828,-0.00139764,0.00165128,-0.00129144,-0.944348,0.00170321,0.0113744,1679,533,4.51048,4.02127
462,491,4.50525,-3.89825,0.000239705,0.00113113,-0.000471383,0.00133416,3.66792e-05,-1.16411,0.000877469,0.0149929,1686,533,4.50531,3.89827
469,491,4.50134,-3.7514,0.000308798,0.00133028,-0.000125745,0.00134553,0.000293547,-1.4501,0.000816942,0.0143635,1693,533,4.50133,3.75139
476,491,4.52051,-3.54968,5.86311e-05,0.00133468,-0.000294438,0.00139934,-6.03154e-06,-1.35461,0.000934911,0.0096749,1700,533,4.52055,3.54966
483,491,4.52356,-3.35217,-0.000337719,0.00133404,-0.000695869,0.00158579,-0.000589464,-1.22367,0.00129905,0.0110221,1707,533,4.5236,3.35215
490,491,4.52234,-3.21509,-0.000775704,0.00119646,-0.00121758,0.00177718,-0.00135642,-1.12576,0.00181462,0.00994641,1714,533,4.52239,3.2151
497,491,4.52283,-3.07672,-0.00139331,0.00105467,-0.00178197,0.00199253,-0.00233117,-1.08633,0.00249884,0.0108491,1721,533,4.52283,3.07674
504,491,4.5238,-2.91107,-0.00193347,0.00099107,-0.00235123,0.00229765,-0.00324005,-1.06359,0.00321259,0.0118846,1728,533,4.52384,2.91106
511,491,4.51843,-2.72198,-0.00184514,0.00115885,-0.00243797,0.00252036,-0.00320666,-1.06148,0.0033144,0.0111426,1735,533,4.51844,2.72201
518,491,4.51953,-2.55334,-0.00158003,0.0016325,-0.00221575,0.00276296,-0.00271048,-1.09903,0.00316014,0.00880227,1742,533,4.51951,2.55334
525,491,4.53223,-2.37811,-0.001036,0.00211958,-0.00172662,0.00288073,-0.00179715,-1.15559,0.00272482,0.00897565,1749,533,4.53218,2.37811
532,491,4.56152,-2.23517,2.00901e-05,0.00300521,-0.000585508,0.00311595,-9.06452e-05,-1.38388,0.00210816,0.0146136,1756,533,4.56153,2.23517
539,491,4.56189,-2.1629,0.00180836,0.004718,0.00137599,0.00526564,0.00126072,1.19202,0.00317476,0.0221002,1763,533,4.56195,2.16289
546,491,4.43945,-1.89441,0.00444868,0.0070402,0.0041766,0.0101174,0.00137146,0.935812,0.00633745,0.034586,1770,533,4.43947,1.89441
553,491,4.2843,-1.45789,0.0191621,0.00948389,0.0115313,0.0268286,0.00181745,0.586734,0.0173117,0.0461464,1777,533,4.28429,1.45788
560,491,4.09692,-1.14307,0,0,0,0,0,0,0,-1,1784,533,4.09695,1.14305
567,491,5.67651,-1.3562,0,0,0,0,0,0,0,-1,1791,533,5.67649,1.3562
574,491,8.0719,1.58325,0,0,0,0,0,0,0,-1,1798,533,8.07195,-1.58326
581,491,9.44812,1.60931,0,0,0,0,0,0,0,-1,1805,533,9.44808,-1.60933
588,491,11.0497,1.54962,0,0,0,0,0,0,0,-1,1812,533,11.0496,-1.54963
595,491,0,0,0,0,0,0,0,0,0,-1,1819,533,0,0
602,491,0,0,0,0,0,0,0,0,0,-1,1826,533,0,0
609,491,0,0,0,0,0,0,0,0,0,-1,1833,533,0,0
616,491,0,0,0,0,0,0,0,0,0,-1,1840,533,0,0
623,491,0,0,0,0,0,0,0,0,0,-1,1847,533,0,0
630,491,0,0,0,0,0,0,0,0,0,-1,1854,533,0,0
637,491,0,0,0,0,0,0,0,0,0,-1,1861,533,0,0
644,491,0,0,0,0,0,0,0,0,0,-1,1868,533,0,0
651,491,0,0,0,0,0,0,0,0,0,-1,1875,533,0,0
658,491,0,0,0,0,0,0,0,0,0,-1,1882,533,0,0
665,491,0,0,0,0,0,0,0,0,0,-1,1889,533,0,0
672,491,0,0,0,0,0,0,0,0,0,-1,1896,533,0,0
679,491,0,0,0,0,0,0,0,0,0,-1,1903,533,0,0
686,491,0,0,0,0,0,0,0,0,0,-1,1910,533,0,0
693,491,0,0,0,0,0,0,0,0,0,-1,1917,533,0,0
700,491,0,0,0,0,0,0,0,0,0,-1,1924,533,0,0
707,491,0,0,0,0,0,0,0,0,0,-1,1931,533,0,0
714,491,0,0,0,0,0,0,0,0,0,-1,1938,533,0,0
721,491,0,0,0,0,0,0,0,0,0,-1,1945,533,0,0
728,491,0,0,0,0,0,0,0,0,0,-1,1952,533,0,0
735,491,0,0,0,0,0,0,0,0,0,-1,1959,533,0,0
742,491,0,0,0,0,0,0,0,0,0,-1,1966,533,0,0
749,491,0,0,0,0,0,0,0,0,0,-1,1973,533,0,0
756,491,0,0,0,0,0,0,0,0,0,-1,1980,533,0,0
763,491,0,0,0,0,0,0,0,0,0,-1,1987,533,0,0
770,491,0,0,0,0,0,0,0,0,0,-1,1994,533,0,0
777,491,0,0,0,0,0,0,0,0,0,-1,2001,533,0,0
784,491,0,0,0,0,0,0,0,0,0,-1,2008,533,0,0
791,491,0,0,0,0,0,0,0,0,0,-1,2015,533,0,0
798,491,0,0,0,0,0,0,0,0,0,-1,2022,533,0,0
805,491,0,0,0,0,0,0,0,0,0,-1,2029,533,0,0
812,491,0,0,0,0,0,0,0,0,0,-1,2036,533,0,0
-700,484,0,0,0,0,0,0,0,0,0,-1,524,540,0,0
-693,484,0,0,0,0,0,0,0,0,0,-1,531,540,0,0
-686,484,0,0,0,0,0,0,0,0,0,-1,538,540,0,0
-679,484,0,0,0,0,0,0,0,0,0,-1,545,540,0,0
-672,484,0,0,0,0,0,0,0,0,0,-1,552,540,0,0
-665,484,0,0,0,0,0,0,0,0,0,-1,559,540,0,0
-658,484,0,0,0,0,0,0,0,0,0,-1,566,540,0,0
-651,484,0,0,0,0,0,0,0,0,0,-1,573,540,0,0
-644,484,0,0,0,0,0,0,0,0,0,-1,580,540,0,0
-637,484,0,0,0,0,0,0,0,0,0,-1,587,540,0,0
-630,484,0,0,0,0,0,0,0,0,0,-1,594,540,0,0
-623,484,0,0,0,0,0,0,0,0,0,-1,601,540,0,0
-616,484,0,0,0,0,0,0,0,0,0,-1,608,540,0,0
-609,484,0,0,0,0,0,0,0,0,0,-1,615,540,0,0
-602,484,0,0,0,0,0,0,0,0,0,-1,622,540,0,0
-595,484,0,0,0,0,0,0,0,0,0,-1,629,540,0,0
-588,484,0,0,0,0,0,0,0,0,0,-1,636,540,0,0
-581,484,0,0,0,0,0,0,0,0,0,-1,643,540,0,0
-574,484,0,0,0,0,0,0,0,0,0,-1,650,540,0,0
-567,484,0,0,0,0,0,0,0,0,0,-1,657,540,0,0
-560,484,0,0,0,0,0,0,0,0,0,-1,664,540,0,0
-553,484,0,0,0,0,0,0,0,0,0,-1,671,540,0,0
-546,484,0,0,0,0,0,0,0,0,0,-1,678,540,0,0
-539,484,0,0,0,0,0,0,0,0,0,-1,685,540,0,0
-532,484,0,0,0,0,0,0,0,0,0,-1,692,540,0,0
-525,484,0,0,0,0,0,0,0,0,0,-1,699,540,0,0
-518,484,0,0,0,0,0,0,0,0,0,-1,706,540,0,0
-511,484,0,0,0,0,0,0,0,0,0,-1,713,540,0,0
-504,484,0,0,0,0,0,0,0,0,0,-1,720,540,0,0
-497,484,0,0,0,0,0,0,0,0,0,-1,727,540,0,0
-490,484,0,0,0,0,0,0,0,0,0,-1,734,540,0,0
-483,484,0,0,0,0,0,0,0,0,0,-1,741,540,0,0
-476,484,-5.03638,1.02295,0,0,0,0,0,0,0,-1,748,540,-5.03639,-1.02294
-469,484,-4.27777,0.508911,0.0660603,0.0383256,-0.0966234,0.149806,-0.0454205,-0.714125,0.117963,0.0485557,755,540,-4.27774,-0.50892
-462,484,-3.49432,-0.00994873,0.0559135,0.0382369,-0.0802222,0.127783,-0.0336323,-0.730533,0.0983355,0.0466147,762,540,-3.49429,0.00993701
-455,484,-2.93475,-0.409241,0.0471915,0.0366026,-0.0646466,0.10676,-0.022966,-0.74454,0.0799361,0.0444303,769,540,-2.93475,0.409226
-448,484,-2.20337,-1.15057,0,0,0,0,0,0,0,-1,776,540,-2.20336,1.15056
-441,484,-1.33167,-1.51862,0.0328377,0.0295703,-0.0384511,0.0696898,-0.00728178,-0.764167,0.0490676,0.0492724,783,540,-1.33167,1.51864
-434,484,-1.01581,-1.88098,0.0266686,0.0260862,-0.0275484,0.0539273,-0.00117248,-0.780113,0.0363487,0.0474406,790,540,-1.01579,1.88097
-427,484,-0.551025,-2.68774,0.0216643,0.0218917,-0.0184377,0.040216,0.00333994,-0.788481,0.0257696,0.0397613,797,540,-0.551024,2.68774
-420,484,-0.405945,-3.13501,0.0176311,0.0170199,-0.0112845,0.0286141,0.00603686,-0.771862,0.0174161,0.0308423,804,540,-0.405951,3.13502
-413,484,-0.382263,-3.29761,0.0141506,0.0131184,-0.00660745,0.0202621,0.00700696,-0.746422,0.0118823,0.0184158,811,540,-0.382255,3.2976
-406,484,-0.369019,-3.47919,0.0112626,0.00930699,-0.00313386,0.0135676,0.00700192,-0.634179,0.00783463,0.0119245,818,540,-0.368994,3.47921
-399,484,-0.386047,-3.62787,0.00890453,0.00656986,-0.000684961,0.00909065,0.00638374,-0.265318,0.00538969,0.0158315,825,540,-0.386052,3.62789
-392,484,-0.385437,-3.7804,0.0073145,0.00451134,0.000441239,0.00738231,0.00444352,0.152497,0.00429159,0.0170036,832,540,-0.385412,3.78038
-385,484,-0.405762,-3.94031,0.00544156,0.00263252,0.000757006,0.00563257,0.0024415,0.247171,0.00326155,0.0116803,839,540,-0.405763,3.9403
-378,484,-0.400085,-4.08508,0.0041472,0.00120186,0.000369192,0.00419278,0.00115629,0.122816,0.00250052,0.0123668,846,540,-0.400074,4.08507
-371,484,-0.393433,-4.22925,0.00309492,-0.000143717,0.000483752,0.00316563,-0.000214431,0.14515,0.00218541,0.0143529,853,540,-0.393441,4.22922
-364,484,-0.404419,-4.38129,0.00226195,-0.000919301,0.000140418,0.00226814,-0.000925487,0.0440252,0.00189738,0.0115459,860,540,-0.4044,4.38128
-357,484,-0.411316,-4.54541,0.00185035,-0.00185609,-0.000423969,0.00189823,-0.00190397,-0.112452,0.0021952,0.0127817,867,540,-0.411303,4.54538
-350,484,-0.401672,-4.65509,0.00173757,-0.00275775,-0.00100705,0.00195286,-0.00297304,-0.210613,0.00286423,0.0142916,874,540,-0.401683,4.65509
-343,484,-0.358948,-4.77472,0.00168039,-0.00343921,-0.0013647,0.00202145,-0.00378026,-0.244898,0.00340054,0.0216732,881,540,-0.358949,4.77474
-336,484,-0.350708,-4.92499,0.00141881,-0.00391981,-0.00179077,0.00196386,-0.00446486,-0.295455,0.00380409,0.0243148,888,540,-0.350727,4.92501
-329,484,-0.364685,-5.03387,0.000926728,-0.00440106,-0.00235196,0.00181643,-0.00529076,-0.361645,0.00426364,0.0264138,895,540,-0.364705,5.03389
-322,484,-0.244141,-5.24957,-0.000128875,-0.00466366,-0.00271646,0.00114212,-0.00593466,-0.43763,0.00438699,0.0278675,902,540,-0.244138,5.24955
-315,484,-0.330261,-5.3595,-0.00140357,-0.00497356,-0.00317892,0.000457217,-0.00683435,-0.52958,0.00471603,0.0315027,909,540,-0.330274,5.35949
-308,484,-0.0368042,-5.55804,0,0,0,0,0,0,0,-1,916,540,-0.0367888,5.55804
-301,484,-0.413025,-4.94653,0,0,0,0,0,0,0,-1,923,540,-0.413034,4.94656
-294,484,-1.3476,-6.06122,0,0,0,0,0,0,0,-1,930,540,-1.3476,6.06122
-287,484,-0.715759,-5.62103,0,0,0,0,0,0,0,-1,937,540,-0.715772,5.62105
-280,484,2.66742,-1.6795,0,0,0,0,0,0,0,-1,944,540,2.6674,1.67949
-273,484,2.53125,-2.22296,0,0,0,0,0,0,0,-1,951,540,2.53128,2.22295
-266,484,2.6778,-2.72058,0,0,0,0,0,0,0,-1,958,540,2.6778,2.72061
-259,484,2.41718,-2.59894,0,0,0,0,0,0,0,-1,965,540,2.41717,2.59892
-252,484,10.6069,-11.696,0,0,0,0,0,0,0,-1,972,540,10.6069,11.696
-245,484,8.0415,-9.22931,-0.209284,-0.178519,0.0885403,-0.104035,-0.283768,0.871406,0.165765,0.0473276,979,540,8.0415,9.2293
-238,484,5.56836,-6.82672,-0.223932,-0.193263,0.0903101,-0.116995,-0.3002,0.869495,0.17472,0.0445868,986,540,5.56834,6.82672
-231,484,3.39185,-3.8576,-0.235584,-0.20554,0.0885248,-0.130772,-0.310352,0.869443,0.179919,0.0454654,993,540,3.39183,3.85763
-224,484,1.14313,-1.21228,-0.242299,-0.215165,0.08151,-0.146101,-0.311363,0.867863,0.179879,0.0475105,1000,540,1.14312,1.21226
-217,484,-0.745056,1.17358,0,0,0,0,0,0,0,-1,1007,540,-0.745043,-1.17359
-210,484,0,0,0,0,0,0,0,0,0,-1,1014,540,0,0
-203,484,0,0,0,0,0,0,0,0,0,-1,1021,540,0,0
-196,484,0,0,0,0,0,0,0,0,0,-1,1028,540,0,0
-189,484,0,0,0,0,0,0,0,0,0,-1,1035,540,0,0
-182,484,0,0,0,0,0,0,0,0,0,-1,1042,540,0,0
-175,484,0,0,0,0,0,0,0,0,0,-1,1049,540,0,0
-168,484,0,0,0,0,0,0,0,0,0,-1,1056,540,0,0
-161,484,0,0,0,0,0,0,0,0,0,-1,1063,540,0,0
-154,484,0,0,0,0,0,0,0,0,0,-1,1070,540,0,0
-147,484,0,0,0,0,0,0,0,0,0,-1,1077,540,0,0
-140,484,0,0,0,0,0,0,0,0,0,-1,1084,540,0,0
-133,484,0,0,0,0,0,0,0,0,0,-1,1091,540,0,0
-126,484,0,0,0,0,0,0,0,0,0,-1,1098,540,0,0
-119,484,0,0,0,0,0,0,0,0,0,-1,1105,540,0,0
-112,484,0,0,0,0,0,0,0,0,0,-1,1112,540,0,0
-105,484,0,0,0,0,0,0,0,0,0,-1,1119,540,0,0
-98,484,0,0,0,0,0,0,0,0,0,-1,1126,540,0,0
-91,484,0,0,0,0,0,0,0,0,0,-1,1133,540,0,0
-84,484,0,0,0,0,0,0,0,0,0,-1,1140,540,0,0
-77,484,0,0,0,0,0,0,0,0,0,-1,1147,540,0,0
-70,484,0,0,0,0,0,0,0,0,0,-1,1154,540,0,0
-63,484,0,0,0,0,0,0,0,0,0,-1,1161,540,0,0
-56,484,0,0,0,0,0,0,0,0,0,-1,1168,540,0,0
-49,484,0,0,0,0,0,0,0,0,0,-1,1175,540,0,0
-42,484,0,0,0,0,0,0,0,0,0,-1,1182,540,0,0
-35,484,0,0,0,0,0,0,0,0,0,-1,1189,540,0,0
-28,484,0,0,0,0,0,0,0,0,0,-1,1196,540,0,0
-21,484,0,0,0,0,0,0,0,0,0,-1,1203,540,0,0
-14,484,0,0,0,0,0,0,0,0,0,-1,1210,540,0,0
-7,484,0,0,0,0,0,0,0,0,0,-1,1217,540,0,0
0,484,0,0,0,0,0,0,0,0,0,-1,1224,540,0,0
7,484,0,0,0,0,0,0,0,0,0,-1,1231,540,0,0
14,484,0,0,0,0,0,0,0,0,0,-1,1238,540,0,0
21,484,0,0,0,0,0,0,0,0,0,-1,1245,540,0,0
28,484,0,0,0,0,0,0,0,0,0,-1,1252,540,0,0
35,484,0,0,0,0,0,0,0,0,0,-1,1259,540,0,0
42,484,0,0,0,0,0,0,0,0,0,-1,1266,540,0,0
49,484,0,0,0,0,0,0,0,0,0,-1,1273,540,0,0
56,484,0,0,0,0,0,0,0,0,0,-1,1280,540,0,0
63,484,0,0,0,0,0,0,0,0,0,-1,1287,540,0,0
70,484,0,0,0,0,0,0,0,0,0,-1,1294,540,0,0
77,484,0,0,0,0,0,0,0,0,0,-1,1301,540,0,0
84,484,0,0,0,0,0,0,0,0,0,-1,1308,540,0,0
91,484,0,0,0,0,0,0,0,0,0,-1,1315,540,0,0
98,484,0,0,0,0,0,0,0,0,0,-1,1322,540,0,0
105,484,0,0,0,0,0,0,0,0,0,-1,1329,540,0,0
112,484,0,0,0,0,0,0,0,0,0,-1,1336,540,0,0
119,484,0,0,0,0,0,0,0,0,0,-1,1343,540,0,0
126,484,0,0,0,0,0,0,0,0,0,-1,1350,540,0,0
133,484,0,0,0,0,0,0,0,0,0,-1,1357,540,0,0
140,484,0,0,0,0,0,0,0,0,0,-1,1364,540,0,0
147,484,0,0,0,0,0,0,0,0,0,-1,1371,540,0,0
154,484,0,0,0,0,0,0,0,0,0,-1,1378,540,0,0
161,484,0,0,0,0,0,0,0,0,0,-1,1385,540,0,0
168,484,0,0,0,0,0,0,0,0,0,-1,1392,540,0,0
175,484,0,0,0,0,0,0,0,0,0,-1,1399,540,0,0
182,484,0,0,0,0,0,0,0,0,0,-1,1406,540,0,0
189,484,0,0,0,0,0,0,0,0,0,-1,1413,540,0,0
196,484,0,0,0,0,0,0,0,0,0,-1,1420,540,0,0
203,484,0,0,0,0,0,0,0,0,0,-1,1427,540,0,0
210,484,0,0,0,0,0,0,0,0,0,-1,1434,540,0,0
217,484,0,0,0,0,0,0,0,0,0,-1,1441,540,0,0
224,484,0,0,0,0,0,0,0,0,0,-1,1448,540,0,0
231,484,0,0,0,0,0,0,0,0,0,-1,1455,540,0,0
238,484,0,0,0,0,0,0,0,0,0,-1,1462,540,0,0
245,484,0,0,0,0,0,0,0,0,0,-1,1469,540,0,0
252,484,0,0,0,0,0,0,0,0,0,-1,1476,540,0,0
259,484,0,0,0,0,0,0,0,0,0,-1,1483,540,0,0
266,484,0,0,0,0,0,0,0,0,0,-1,1490,540,0,0
273,484,0,0,0,0,0,0,0,0,0,-1,1497,540,0,0
280,484,0,0,0,0,0,0,0,0,0,-1,1504,540,0,0
287,484,0,0,0,0,0,0,0,0,0,-1,1511,540,0,0
294,484,0,0,0,0,0,0,0,0,0,-1,1518,540,0,0
301,484,0,0,0,0,0,0,0,0,0,-1,1525,540,0,0
308,484,0,0,0,0,0,0,0,0,0,-1,1532,540,0,0
315,484,0,0,0,0,0,0,0,0,0,-1,1539,540,0,0
322,484,0,0,0,0,0,0,0,0,0,-1,1546,540,0,0
329,484,0,0,0,0,0,0,0,0,0,-1,1553,540,0,0
336,484,4.38708,-1.64136,0,0,0,0,0,0,0,-1,1560,540,4.38704,1.64138
343,484,7.57996,-1.05457,0,0,0,0,0,0,0,-1,1567,540,7.57995,1.05454
350,484,8.10425,-1.18878,0,0,0,0,0,0,0,-1,1574,540,8.1043,1.18877
357,484,7.74902,-3.80286,0,0,0,0,0,0,0,-1,1581,540,7.74901,3.80287
364,484,6.31262,-3.87213,0,0,0,0,0,0,0,-1,1588,540,6.31263,3.87215
371,484,8.71362,0.452087,0,0,0,0,0,0,0,-1,1595,540,8.71363,-0.452062
378,484,11.5304,1.16388,0,0,0,0,0,0,0,-1,1602,540,11.5304,-1.16387
385,484,14.3472,1.87567,0,0,0,0,0,0,0,-1,1609,540,14.3471,-1.87567
392,484,7.39453,-4.95026,0,0,0,0,0,0,0,-1,1616,540,7.39448,4.95023
399,484,7.14417,-2.5639,0,0,0,0,0,0,0,-1,1623,540,7.14417,2.56391
406,484,7.88953,-2.47321,0,0,0,0,0,0,0,-1,1630,540,7.88954,2.47323
413,484,4.4895,-1.08673,0,0,0,0,0,0,0,-1,1637,540,4.48952,1.08674
420,484,4.50012,-2.11255,0,0,0,0,0,0,0,-1,1644,540,4.50012,2.11256
427,484,5.28601,-3.54053,0,0,0,0,0,0,0,-1,1651,540,5.28599,3.54051
434,484,4.95154,-4.55475,0,0,0,0,0,0,0,-1,1658,540,4.95155,4.55472
441,484,4.59546,-4.25116,0,0,0,0,0,0,0,-1,1665,540,4.59542,4.25116
448,484,4.61255,-4.15674,-0.00138627,0.000646789,-0.00281862,0.00262658,-0.00336606,-0.958463,0.00346862,0.0410852,1672,540,4.61256,4.15676
455,484,4.64075,-4.01965,-0.000847609,0.00133313,-0.00169419,0.0022575,-0.00177198,-1.07133,0.00233205,0.0202096,1679,540,4.64072,4.01964
462,484,4.66748,-3.88733,-0.000441073,0.00177791,-0.000524428,0.00189561,-0.000558772,-1.35002,0.00148545,0.0146731,1686,540,4.66746,3.88733
469,484,4.6864,-3.71936,-0.000193332,0.00183179,9.67227e-05,0.0018364,-0.000197941,1.52318,0.00129529,0.0159571,1693,540,4.68639,3.71937
476,484,4.70459,-3.52081,-0.000278817,0.00180666,0.000147908,0.0018171,-0.000289255,1.50034,0.00131844,0.0147439,1700,540,4.70464,3.52079
483,484,4.70142,-3.36847,-0.000501284,0.00159827,-8.56978e-05,0.00160176,-0.000504776,-1.53007,0.00126999,0.0114143,1707,540,4.70146,3.36849
490,484,4.70435,-3.24127,-0.000667903,0.00127027,-0.000407679,0.00135253,-0.000750164,-1.37169,0.00123048,0.0114382,1714,540,4.70437,3.24125
497,484,4.69165,-3.0705,-0.00095179,0.000902664,-0.000796652,0.0011979,-0.00124702,-1.2159,0.00141167,0.0127652,1721,540,4.69169,3.07051
504,484,4.68811,-2.89081,-0.00115263,0.000648463,-0.00116352,0.00121923,-0.00172339,-1.11474,0.00170722,0.0144895,1728,540,4.68811,2.89081
511,484,4.69324,-2.71631,-0.000792308,0.000628956,-0.00107609,0.00120788,-0.00137123,-1.07722,0.00149005,0.0174152,1735,540,4.69327,2.7163
518,484,4.67749,-2.56311,-0.000237686,0.00094638,-0.000708672,0.00127777,-0.000569081,-1.13338,0.00109214,0.0150721,1742,540,4.67751,2.56308
525,484,4.68457,-2.3877,0.000544761,0.00132783,-0.000139257,0.00135185,0.000520733,-1.39994,0.00078732,0.0133653,1749,540,4.68459,2.3877
532,484,4.71692,-2.22833,0.00166837,0.00210337,0.000930214,0.00284117,0.000930567,0.900243,0.00167257,0.0152973,1756,540,4.71697,2.22833
539,484,4.72571,-2.04315,0.00328268,0.00361461,0.0026009,0.00605484,0.00084246,0.81726,0.0037871,0.0194204,1763,540,4.7257,2.04316
546,484,4.6521,-1.8822,0.00544775,0.00563542,0.0048757,0.0104182,0.000664977,0.79502,0.00673475,0.0201531,1770,540,4.65213,1.88219
553,484,4.43152,-1.48828,0.0183595,0.00765699,0.0111412,0.0253679,0.000648574,0.561511,0.0167,0.03201,1777,540,4.43151,1.48829
560,484,5.3136,-1.02209,0.0426729,0.00953323,0.020851,0.0527362,-0.000530111,0.449655,0.0353355,0.043929,1784,540,5.31362,1.0221
567,484,5.57605,-0.379761,0,0,0,0,0,0,0,-1,1791,540,5.57611,0.379751
574,484,5.74463,1.50922,0,0,0,0,0,0,0,-1,1798,540,5.74463,-1.50924
581,484,10.34,2.9491,0,0,0,0,0,0,0,-1,1805,540,10.34,-2.94912
588,484,10.6669,2.88568,0,0,0,0,0,0,0,-1,1812,540,10.6669,-2.88567
595,484,10.7233,1.04767,0,0,0,0,0,0,0,-1,1819,540,10.7233,-1.04766
602,484,0,0,0,0,0,0,0,0,0,-1,1826,540,0,0
609,484,0,0,0,0,0,0,0,0,0,-1,1833,540,0,0
616,484,0,0,0,0,0,0,0,0,0,-1,1840,540,0,0
623,484,0,0,0,0,0,0,0,0,0,-1,1847,540,0,0
630,484,0,0,0,0,0,0,0,0,0,-1,1854,540,0,0
637,484,0,0,0,0,0,0,0,0,0,-1,1861,540,0,0
644,484,0,0,0,0,0,0,0,0,0,-1,1868,540,0,0
651,484,0,0,0,0,0,0,0,0,0,-1,1875,540,0,0
658,484,0,0,0,0,0,0,0,0,0,-1,1882,540,0,0
665,484,0,0,0,0,0,0,0,0,0,-1,1889,540,0,0
672,484,0,0,0,0,0,0,0,0,0,-1,1896,540,0,0
679,484,0,0,0,0,0,0,0,0,0,-1,1903,540,0,0
686,484,0,0,0,0,0,0,0,0,0,-1,1910,540,0,0
693,484,0,0,0,0,0,0,0,0,0,-1,1917,540,0,0
700,484,0,0,0,0,0,0,0,0,0,-1,1924,540,0,0
707,484,0,0,0,0,0,0,0,0,0,-1,1931,540,0,0
714,484,0,0,0,0,0,0,0,0,0,-1,1938,540,0,0
721,484,0,0,0,0,0,0,0,0,0,-1,1945,540,0,0
728,484,0,0,0,0,0,0,0,0,0,-1,1952,540,0,0
735,484,0,0,0,0,0,0,0,0,0,-1,1959,540,0,0
742,484,0,0,0,0,0,0,0,0,0,-1,1966,540,0,0
749,484,0,0,0,0,0,0,0,0,0,-1,1973,540,0,0
756,484,0,0,0,0,0,0,0,0,0,-1,1980,540,0,0
763,484,0,0,0,0,0,0,0,0,0,-1,1987,540,0,0
770,484,0,0,0,0,0,0,0,0,0,-1,1994,540,0,0
777,484,0,0,0,0,0,0,0,0,0,-1,2001,540,0,0
784,484,0,0,0,0,0,0,0,0,0,-1,2008,540,0,0
791,484,0,0,0,0,0,0,0,0,0,-1,2015,540,0,0
798,484,0,0,0,0,0,0,0,0,0,-1,2022,540,0,0
805,484,0,0,0,0,0,0,0,0,0,-1,2029,540,0,0
812,484,0,0,0,0,0,0,0,0,0,-1,2036,540,0,0
-700,477,0,0,0,0,0,0,0,0,0,-1,524,547,0,0
-693,477,0,0,0,0,0,0,0,0,0,-1,531,547,0,0
-686,477,0,0,0,0,0,0,0,0,0,-1,538,547,0,0
-679,477,0,0,0,0,0,0,0,0,0,-1,545,547,0,0
-672,477,0,0,0,0,0,0,0,0,0,-1,552,547,0,0
-665,477,0,0,0,0,0,0,0,0,0,-1,559,547,0,0
-658,477,0,0,0,0,0,0,0,0,0,-1,566,547,0,0
-651,477,0,0,0,0,0,0,0,0,0,-1,573,547,0,0
-644,477,0,0,0,0,0,0,0,0,0,-1,580,547,0,0
-637,477,0,0,0,0,0,0,0,0,0,-1,587,547,0,0
-630,477,0,0,0,0,0,0,0,0,0,-1,594,547,0,0
-623,477,0,0,0,0,0,0,0,0,0,-1,601,547,0,0
-616,477,0,0,0,0,0,0,0,0,0,-1,608,547,0,0
-609,477,0,0,0,0,0,0,0,0,0,-1,615,547,0,0
-602,477,0,0,0,0,0,0,0,0,0,-1,622,547,0,0
-595,477,0,0,0,0,0,0,0,0,0,-1,629,547,0,0
-588,477,0,0,0,0,0,0,0,0,0,-1,636,547,0,0
-581,477,0,0,0,0,0,0,0,0,0,-1,643,547,0,0
-574,477,0,0,0,0,0,0,0,0,0,-1,650,547,0,0
-567,477,0,0,0,0,0,0,0,0,0,-1,657,547,0,0
-560,477,0,0,0,0,0,0,0,0,0,-1,664,547,0,0
-553,477,0,0,0,0,0,0,0,0,0,-1,671,547,0,0
-546,477,0,0,0,0,0,0,0,0,0,-1,678,547,0,0
-539,477,0,0,0,0,0,0,0,0,0,-1,685,547,0,0
-532,477,0,0,0,0,0,0,0,0,0,-1,692,547,0,0
-525,477,0,0,0,0,0,0,0,0,0,-1,699,547,0,0
-518,477,0,0,0,0,0,0,0,0,0,-1,706,547,0,0
-511,477,0,0,0,0,0,0,0,0,0,-1,713,547,0,0
-504,477,0,0,0,0,0,0,0,0,0,-1,720,547,0,0
-497,477,0,0,0,0,0,0,0,0,0,-1,727,547,0,0
-490,477,0,0,0,0,0,0,0,0,0,-1,734,547,0,0
-483,477,-4.57544,1.88416,0,0,0,0,0,0,0,-1,741,547,-4.57545,-1.88413
-476,477,-4.25409,1.05322,0.074977,0.0284713,-0.10416,0.158448,-0.0549996,-0.675578,0.127967,0.0441062,748,547,-4.2541,-1.05324
-469,477,-3.82349,0.391541,0.0623875,0.0318756,-0.0879307,0.136376,-0.0421128,-0.699503,0.107734,0.0474397,755,547,-3.82351,-0.391521
-462,477,-3.02765,-0.455444,0,0,0,0,0,0,0,-1,762,547,-3.02764,0.455448
-455,477,-2.3573,-1.13477,0,0,0,0,0,0,0,-1,769,547,-2.35731,1.13474
-448,477,-1.53052,-2.17078,0,0,0,0,0,0,0,-1,776,547,-1.53052,2.17075
-441,477,-1.1535,-2.28937,0.0280029,0.0258339,-0.0344739,0.0614094,-0.0075726,-0.769674,0.0436831,0.0468052,783,547,-1.15352,2.28934
-434,477,-0.669434,-2.67371,0.0217666,0.0228984,-0.0245499,0.0468889,-0.00222389,-0.796922,0.0320263,0.0395135,790,547,-0.669431,2.67369
-427,477,-0.5271,-2.99554,0.0168572,0.0192792,-0.0164285,0.0345413,0.00159506,-0.822188,0.0225147,0.0202153,797,547,-0.527109,2.99553
-420,477,-0.562134,-3.11096,0.0130518,0.0148741,-0.0100931,0.0240971,0.00382878,-0.830413,0.0149528,0.0164532,804,547,-0.56213,3.11097
-413,477,-0.545654,-3.29517,0.00997023,0.0113364,-0.00605278,0.0167445,0.00456211,-0.841588,0.00999558,0.0148205,811,547,-0.545661,3.29515
-406,477,-0.530396,-3.45984,0.00760978,0.00791087,-0.00303958,0.0108036,0.00471702,-0.810142,0.00625417,0.0111295,818,547,-0.530367,3.45985
-399,477,-0.546936,-3.63501,0.00583236,0.00539193,-0.00090048,0.00653916,0.00468513,-0.665473,0.00389154,0.0184707,825,547,-0.546908,3.63501
-392,477,-0.56073,-3.789,0.00484784,0.0033908,9.15502e-05,0.00485357,0.00338507,0.0625054,0.00287411,0.0167274,832,547,-0.560735,3.78898
-385,477,-0.54364,-3.91003,0.00370758,0.00160016,0.000495915,0.00381845,0.0014893,0.219941,0.00222229,0.0145705,839,547,-0.54362,3.91001
-378,477,-0.536438,-4.0686,0.00308977,0.000169519,0.000351352,0.00313145,0.000127841,0.118071,0.00204635,0.0123741,846,547,-0.536415,4.06861
-371,477,-0.543518,-4.2218,0.002645,-0.00120176,0.000354791,0.00267744,-0.00123421,0.0912061,0.00230906,0.0124414,853,547,-0.543545,4.22182
-364,477,-0.569275,-4.36218,0.00225469,-0.00206213,-1.02528e-05,0.00225472,-0.00206216,-0.00237505,0.00249318,0.0133487,860,547,-0.569252,4.36221
-357,477,-0.574524,-4.52423,0.00232008,-0.0031156,-0.000516328,0.00236869,-0.00316421,-0.0938701,0.00320541,0.0109934,867,547,-0.574513,4.52425
-350,477,-0.559448,-4.65466,0.00248877,-0.00413916,-0.00100591,0.00263807,-0.00428846,-0.147349,0.0040367,0.0101145,874,547,-0.55943,4.65469
-343,477,-0.501038,-4.8009,0.00240436,-0.00505616,-0.00146859,0.00268304,-0.00533484,-0.18753,0.00471276,0.0184906,881,547,-0.501065,4.80092
-336,477,-0.437073,-4.96484,0.00200331,-0.00578313,-0.0020424,0.00250652,-0.00628634,-0.241568,0.00523057,0.0245067,888,547,-0.437102,4.96481
-329,477,-0.394897,-5.17426,0.00128318,-0.00646687,-0.00282261,0.00220221,-0.0073859,-0.31477,0.0057991,0.0371375,895,547,-0.394913,5.17428
-322,477,-0.609253,-5.20795,-0.000164122,-0.00691745,-0.00346925,0.00130045,-0.00838202,-0.399461,0.00606812,0.0414377,902,547,-0.609234,5.20798
-315,477,-0.598694,-5.3902,-0.0020412,-0.00740663,-0.00432326,0.000364062,-0.00981189,-0.507709,0.00666593,0.0458285,909,547,-0.598693,5.39018
-308,477,-0.610107,-5.50629,0,0,0,0,0,0,0,-1,916,547,-0.610079,5.50628
-301,477,-0.613708,-4.85797,0,0,0,0,0,0,0,-1,923,547,-0.613722,4.85799
-294,477,-0.352905,3.27142,0,0,0,0,0,0,0,-1,930,547,-0.35292,-3.27144
-287,477,3.54364,2.15399,0,0,0,0,0,0,0,-1,937,547,3.54362,-2.15396
-280,477,1.97308,-0.954163,0,0,0,0,0,0,0,-1,944,547,1.9731,0.954178
-273,477,2.11621,-3.76709,0,0,0,0,0,0,0,-1,951,547,2.11619,3.76706
-266,477,2.04669,-3.42389,0,0,0,0,0,0,0,-1,958,547,2.04671,3.42391
-259,477,1.8042,-3.24603,0,0,0,0,0,0,0,-1,965,547,1.80419,3.24601
-252,477,1.73175,-3.15027,0,0,0,0,0,0,0,-1,972,547,1.73172,3.15029
-245,477,9.38531,-7.18048,0,0,0,0,0,0,0,-1,979,547,9.38534,7.18047
-238,477,7.29095,-4.50336,-0.244796,-0.218841,0.101838,-0.129157,-0.33448,0.848773,0.194774,0.0496699,986,547,7.29093,4.50335
-231,477,4.9693,-1.70117,-0.259595,-0.235204,0.0999456,-0.146713,-0.348087,0.84611,0.201792,0.04649,993,547,4.96929,1.70114
-224,477,0,0,0,0,0,0,0,0,0,-1,1000,547,0,0
-217,477,0,0,0,0,0,0,0,0,0,-1,1007,547,0,0
-210,477,0,0,0,0,0,0,0,0,0,-1,1014,547,0,0
-203,477,0,0,0,0,0,0,0,0,0,-1,1021,547,0,0
-196,477,0,0,0,0,0,0,0,0,0,-1,1028,547,0,0
-189,477,0,0,0,0,0,0,0,0,0,-1,1035,547,0,0
-182,477,0,0,0,0,0,0,0,0,0,-1,1042,547,0,0
-175,477,0,0,0,0,0,0,0,0,0,-1,1049,547,0,0
-168,477,0,0,0,0,0,0,0,0,0,-1,1056,547,0,0
-161,477,0,0,0,0,0,0,0,0,0,-1,1063,547,0,0
-154,477,0,0,0,0,0,0,0,0,0,-1,1070,547,0,0
-147,477,0,0,0,0,0,0,0,0,0,-1,1077,547,0,0
-140,477,0,0,0,0,0,0,0,0,0,-1,1084,547,0,0
-133,477,0,0,0,0,0,0,0,0,0,-1,1091,547,0,0
-126,477,0,0,0,0,0,0,0,0,0,-1,1098,547,0,0
-119,477,0,0,0,0,0,0,0,0,0,-1,1105,547,0,0
-112,477,0,0,0,0,0,0,0,0,0,-1,1112,547,0,0
-105,477,0,0,0,0,0,0,0,0,0,-1,1119,547,0,0
-98,477,0,0,0,0,0,0,0,0,0,-1,1126,547,0,0
-91,477,0,0,0,0,0,0,0,0,0,-1,1133,547,0,0
-84,477,0,0,0,0,0,0,0,0,0,-1,1140,547,0,0
-77,477,0,0,0,0,0,0,0,0,0,-1,1147,547,0,0
-70,477,0,0,0,0,0,0,0,0,0,-1,1154,547,0,0
-63,477,0,0,0,0,0,0,0,0,0,-1,1161,547,0,0
-56,477,0,0,0,0,0,0,0,0,0,-1,1168,547,0,0
-49,477,0,0,0,0,0,0,0,0,0,-1,1175,547,0,0
-42,477,0,0,0,0,0,0,0,0,0,-1,1182,547,0,0
-35,477,0,0,0,0,0,0,0,0,0,-1,1189,547,0,0
-28,477,0,0,0,0,0,0,0,0,0,-1,1196,547,0,0
-21,477,0,0,0,0,0,0,0,0,0,-1,1203,547,0,0
-14,477,0,0,0,0,0,0,0,0,0,-1,1210,547,0,0
-7,477,0,0,0,0,0,0,0,0,0,-1,1217,547,0,0
0,477,0,0,0,0,0,0,0,0,0,-1,1224,547,0,0
7,477,0,0,0,0,0,0,0,0,0,-1,1231,547,0,0
14,477,0,0,0,0,0,0,0,0,0,-1,1238,547,0,0
21,477,0,0,0,0,0,0,0,0,0,-1,1245,547,0,0
28,477,0,0,0,0,0,0,0,0,0,-1,1252,547,0,0
35,477,0,0,0,0,0,0,0,0,0,-1,1259,547,0,0
42,477,0,0,0,0,0,0,0,0,0,-1,1266,547,0,0
49,477,0,0,0,0,0,0,0,0,0,-1,1273,547,0,0
56,477,0,0,0,0,0,0,0,0,0,-1,1280,547,0,0
63,477,0,0,0,0,0,0,0,0,0,-1,1287,547,0,0
70,477,0,0,0,0,0,0,0,0,0,-1,1294,547,0,0
77,477,0,0,0,0,0,0,0,0,0,-1,1301,547,0,0
84,477,0,0,0,0,0,0,0,0,0,-1,1308,547,0,0
91,477,0,0,0,0,0,0,0,0,0,-1,1315,547,0,0
98,477,0,0,0,0,0,0,0,0,0,-1,1322,547,0,0
105,477,0,0,0,0,0,0,0,0,0,-1,1329,547,0,0
112,477,0,0,0,0,0,0,0,0,0,-1,1336,547,0,0
119,477,0,0,0,0,0,0,0,0,0,-1,1343,547,0,0
126,477,0,0,0,0,0,0,0,0,0,-1,1350,547,0,0
133,477,0,0,0,0,0,0,0,0,0,-1,1357,547,0,0
140,477,0,0,0,0,0,0,0,0,0,-1,1364,547,0,0
147,477,0,0,0,0,0,0,0,0,0,-1,1371,547,0,0
154,477,0,0,0,0,0,0,0,0,0,-1,1378,547,0,0
161,477,0,0,0,0,0,0,0,0,0,-1,1385,547,0,0
168,477,0,0,0,0,0,0,0,0,0,-1,1392,547,0,0
175,477,0,0,0,0,0,0,0,0,0,-1,1399,547,0,0
182,477,0,0,0,0,0,0,0,0,0,-1,1406,547,0,0
189,477,0,0,0,0,0,0,0,0,0,-1,1413,547,0,0
196,477,0,0,0,0,0,0,0,0,0,-1,1420,547,0,0
203,477,0,0,0,0,0,0,0,0,0,-1,1427,547,0,0
210,477,0,0,0,0,0,0,0,0,0,-1,1434,547,0,0
217,477,0,0,0,0,0,0,0,0,0,-1,1441,547,0,0
224,477,0,0,0,0,0,0,0,0,0,-1,1448,547,0,0
231,477,0,0,0,0,0,0,0,0,0,-1,1455,547,0,0
238,477,0,0,0,0,0,0,0,0,0,-1,1462,547,0,0
245,477,0,0,0,0,0,0,0,0,0,-1,1469,547,0,0
252,477,0,0,0,0,0,0,0,0,0,-1,1476,547,0,0
259,477,0,0,0,0,0,0,0,0,0,-1,1483,547,0,0
266,477,0,0,0,0,0,0,0,0,0,-1,1490,547,0,0
273,477,0,0,0,0,0,0,0,0,0,-1,1497,547,0,0
280,477,0,0,0,0,0,0,0,0,0,-1,1504,547,0,0
287,477,0,0,0,0,0,0,0,0,0,-1,1511,547,0,0
294,477,0,0,0,0,0,0,0,0,0,-1,1518,547,0,0
301,477,0,0,0,0,0,0,0,0,0,-1,1525,547,0,0
308,477,0,0,0,0,0,0,0,0,0,-1,1532,547,0,0
315,477,0,0,0,0,0,0,0,0,0,-1,1539,547,0,0
322,477,0,0,0,0,0,0,0,0,0,-1,1546,547,0,0
329,477,0,0,0,0,0,0,0,0,0,-1,1553,547,0,0
336,477,0,0,0,0,0,0,0,0,0,-1,1560,547,0,0
343,477,0,0,0,0,0,0,0,0,0,-1,1567,547,0,0
350,477,1.7699,-3.32275,0,0,0,0,0,0,0,-1,1574,547,1.7699,3.32272
357,477,3.073,-4.83313,0,0,0,0,0,0,0,-1,1581,547,3.07303,4.83316
364,477,4.30127,-4.22864,0,0,0,0,0,0,0,-1,1588,547,4.30125,4.22865
371,477,6.76746,0.428284,0,0,0,0,0,0,0,-1,1595,547,6.76748,-0.428313
378,477,9.70935,0.88385,0,0,0,0,0,0,0,-1,1602,547,9.7093,-0.883864
385,477,12.6511,1.33942,0,0,0,0,0,0,0,-1,1609,547,12.6511,-1.33941
392,477,11.9564,1.24927,0,0,0,0,0,0,0,-1,1616,547,11.9564,-1.24924
399,477,8.00037,-2.29523,0,0,0,0,0,0,0,-1,1623,547,8.00031,2.2952
406,477,4.82495,2.7475,0,0,0,0,0,0,0,-1,1630,547,4.825,-2.74752
413,477,4.88171,-0.336426,0,0,0,0,0,0,0,-1,1637,547,4.88169,0.336398
420,477,3.34875,0.102722,0,0,0,0,0,0,0,-1,1644,547,3.34871,-0.1027
427,477,1.66772,-0.373108,0,0,0,0,0,0,0,-1,1651,547,1.66768,0.373104
434,477,3.76978,-2.30798,0,0,0,0,0,0,0,-1,1658,547,3.76974,2.30801
441,477,4.05444,-2.80402,0,0,0,0,0,0,0,-1,1665,547,4.05444,2.804
448,477,4.69482,-4.19061,0,0,0,0,0,0,0,-1,1672,547,4.69478,4.19064
455,477,4.85791,-4.02795,-0.00204119,0.00255129,-0.00211477,0.00337674,-0.00286664,-1.19866,0.00360863,0.0484993,1679,547,4.85785,4.02797
462,477,4.88257,-3.9505,-0.00170879,0.00289581,-0.000818031,0.00303681,-0.00184979,-1.4001,0.0028489,0.0330244,1686,547,4.88257,3.95052
469,477,4.88684,-3.6925,-0.00130492,0.00275746,-4.41204e-05,0.00275794,-0.0013054,-1.55994,0.00239542,0.0199801,1693,547,4.88683,3.6925
476,477,4.87634,-3.51776,-0.00114666,0.00270648,0.000238826,0.00272123,-0.00116141,1.50913,0.00230115,0.0167412,1700,547,4.87632,3.51779
483,477,4.88464,-3.3877,-0.00113614,0.00228945,0.000171616,0.00229802,-0.00114471,1.52086,0.0020245,0.0112832,1707,547,4.88468,3.38769
490,477,4.86499,-3.24329,-0.0010107,0.00179793,3.71008e-05,0.00179842,-0.00101119,1.55759,0.00164321,0.0110306,1714,547,4.86497,3.24328
497,477,4.87109,-3.04834,-0.000975597,0.00122938,-0.000194801,0.00124646,-0.000992674,-1.48335,0.00129553,0.0127131,1721,547,4.87112,3.04837
504,477,4.85632,-2.86328,-0.000919508,0.000807486,-0.000383391,0.000888773,-0.00100079,-1.36187,0.00109158,0.0167812,1728,547,4.85632,2.86329
511,477,4.88745,-2.71429,-0.000448087,0.000610079,-0.00018661,0.000642024,-0.000480032,-1.40125,0.000650066,0.0221065,1735,547,4.88748,2.71431
518,477,4.88354,-2.5528,0.000219663,0.000771419,0.000256309,0.000872109,0.000118973,1.19647,0.000546085,0.0203565,1742,547,4.88351,2.55279
525,477,4.85278,-2.39099,0.00106005,0.00105243,0.000848057,0.0019043,0.000208173,0.78315,0.00120615,0.0174666,1749,547,4.85275,2.39097
532,477,4.85193,-2.23285,0.00208978,0.001699,0.00179603,0.00370102,8.77643e-05,0.731216,0.00243862,0.0188052,1756,547,4.85191,2.23285
539,477,4.86401,-2.02234,0.00341082,0.00298987,0.00315456,0.00636192,3.87675e-05,0.752087,0.00422842,0.0157334,1763,547,4.86398,2.02232
546,477,4.87842,-1.87561,0.00507776,0.00468254,0.00493264,0.00981674,-5.64465e-05,0.765378,0.00656339,0.0167933,1770,547,4.87846,1.87564
553,477,4.83533,-1.67322,0.0162648,0.00634452,0.0102066,0.0226527,-4.3408e-05,0.559217,0.0151163,0.0164649,1777,547,4.83529,1.67324
560,477,4.82251,-1.422,0.0369784,0.00788715,0.0182023,0.045733,-0.000867398,0.448299,0.0307819,0.0325985,1784,547,4.82253,1.422
567,477,5.24146,-0.783569,0.0614811,0.00955853,0.0280607,0.073748,-0.00270834,0.412121,0.0500925,0.048065,1791,547,5.24147,0.783551
574,477,5.37573,-0.227844,0,0,0,0,0,0,0,-1,1798,547,5.3757,0.227857
581,477,9.29321,-0.557007,0,0,0,0,0,0,0,-1,1805,547,9.29324,0.55703
588,477,9.75195,0.422729,0,0,0,0,0,0,0,-1,1812,547,9.75198,-0.42273
595,477,9.89172,1.21326,0,0,0,0,0,0,0,-1,1819,547,9.89174,-1.21328
602,477,6.5271,-0.964417,0,0,0,0,0,0,0,-1,1826,547,6.52706,0.964427
609,477,0,0,0,0,0,0,0,0,0,-1,1833,547,0,0
616,477,0,0,0,0,0,0,0,0,0,-1,1840,547,0,0
623,477,0,0,0,0,0,0,0,0,0,-1,1847,547,0,0
630,477,0,0,0,0,0,0,0,0,0,-1,1854,547,0,0
637,477,0,0,0,0,0,0,0,0,0,-1,1861,547,0,0
644,477,0,0,0,0,0,0,0,0,0,-1,1868,547,0,0
651,477,0,0,0,0,0,0,0,0,0,-1,1875,547,0,0
658,477,0,0,0,0,0,0,0,0,0,-1,1882,547,0,0
665,477,0,0,0,0,0,0,0,0,0,-1,1889,547,0,0
672,477,0,0,0,0,0,0,0,0,0,-1,1896,547,0,0
679,477,0,0,0,0,0,0,0,0,0,-1,1903,547,0,0
686,477,0,0,0,0,0,0,0,0,0,-1,1910,547,0,0
693,477,0,0,0,0,0,0,0,0,0,-1,1917,547,0,0
700,477,0,0,0,0,0,0,0,0,0,-1,1924,547,0,0
707,477,0,0,0,0,0,0,0,0,0,-1,1931,547,0,0
714,477,0,0,0,0,0,0,0,0,0,-1,1938,547,0,0
721,477,0,0,0,0,0,0,0,0,0,-1,1945,547,0,0
728,477,0,0,0,0,0,0,0,0,0,-1,1952,547,0,0
735,477,0,0,0,0,0,0,0,0,0,-1,1959,547,0,0
742,477,0,0,0,0,0,0,0,0,0,-1,1966,547,0,0
749,477,0,0,0,0,0,0,0,0,0,-1,1973,547,0,0
756,477,0,0,0,0,0,0,0,0,0,-1,1980,547,0,0
763,477,0,0,0,0,0,0,0,0,0,-1,1987,547,0,0
770,477,0,0,0,0,0,0,0,0,0,-1,1994,547,0,0
777,477,0,0,0,0,0,0,0,0,0,-1,2001,547,0,0
784,477,0,0,0,0,0,0,0,0,0,-1,2008,547,0,0
791,477,0,0,0,0,0,0,0,0,0,-1,2015,547,0,0
798,477,0,0,0,0,0,0,0,0,0,-1,2022,547,0,0
805,477,0,0,0,0,0,0,0,0,0,-1,2029,547,0,0
812,477,0,0,0,0,0,0,0,0,0,-1,2036,547,0,0
-700,470,0,0,0,0,0,0,0,0,0,-1,524,554,0,0
-693,470,0,0,0,0,0,0,0,0,0,-1,531,554,0,0
-686,470,0,0,0,0,0,0,0,0,0,-1,538,554,0,0
-679,470,0,0,0,0,0,0,0,0,0,-1,545,554,0,0
-672,470,0,0,0,0,0,0,0,0,0,-1,552,554,0,0
-665,470,0,0,0,0,0,0,0,0,0,-1,559,554,0,0
-658,470,0,0,0,0,0,0,0,0,0,-1,566,554,0,0
-651,470,0,0,0,0,0,0,0,0,0,-1,573,554,0,0
-644,470,0,0,0,0,0,0,0,0,0,-1,580,554,0,0
-637,470,0,0,0,0,0,0,0,0,0,-1,587,554,0,0
-630,470,0,0,0,0,0,0,0,0,0,-1,594,554,0,0
-623,470,0,0,0,0,0,0,0,0,0,-1,601,554,0,0
-616,470,0,0,0,0,0,0,0,0,0,-1,608,554,0,0
-609,470,0,0,0,0,0,0,0,0,0,-1,615,554,0,0
-602,470,0,0,0,0,0,0,0,0,0,-1,622,554,0,0
-595,470,0,0,0,0,0,0,0,0,0,-1,629,554,0,0
-588,470,0,0,0,0,0,0,0,0,0,-1,636,554,0,0
-581,470,0,0,0,0,0,0,0,0,0,-1,643,554,0,0
-574,470,0,0,0,0,0,0,0,0,0,-1,650,554,0,0
-567,470,0,0,0,0,0,0,0,0,0,-1,657,554,0,0
-560,470,0,0,0,0,0,0,0,0,0,-1,664,554,0,0
-553,470,0,0,0,0,0,0,0,0,0,-1,671,554,0,0
-546,470,0,0,0,0,0,0,0,0,0,-1,678,554,0,0
-539,470,0,0,0,0,0,0,0,0,0,-1,685,554,0,0
-532,470,0,0,0,0,0,0,0,0,0,-1,692,554,0,0
-525,470,0,0,0,0,0,0,0,0,0,-1,699,554,0,0
-518,470,0,0,0,0,0,0,0,0,0,-1,706,554,0,0
-511,470,0,0,0,0,0,0,0,0,0,-1,713,554,0,0
-504,470,0,0,0,0,0,0,0,0,0,-1,720,554,0,0
-497,470,0,0,0,0,0,0,0,0,0,-1,727,554,0,0
-490,470,-4.34039,2.16119,0.0975286,0.00645481,-0.125586,0.185578,-0.0815947,-0.611472,0.158099,0.047455,734,554,-4.34039,-2.16118
-483,470,-3.74512,1.38556,0.0818424,0.0159693,-0.108657,0.162445,-0.0646335,-0.638238,0.135097,0.0438616,741,554,-3.74509,-1.38558
-476,470,-3.30554,0.593384,0.0683265,0.0223155,-0.0924054,0.140547,-0.0499052,-0.663397,0.114033,0.0490349,748,554,-3.30557,-0.593364
-469,470,-3.13269,0.161499,0,0,0,0,0,0,0,-1,755,554,-3.13268,-0.161506
-462,470,-3.36151,-2.0484,0,0,0,0,0,0,0,-1,762,554,-3.36152,2.04841
-455,470,-0.284607,-1.05542,0,0,0,0,0,0,0,-1,769,554,-0.284622,1.05544
-448,470,-0.473389,-1.974,0,0,0,0,0,0,0,-1,776,554,-0.473373,1.97398
-441,470,-0.605286,-2.56653,0.023079,0.0215559,-0.0299852,0.0523123,-0.00767747,-0.772702,0.0376956,0.0432911,783,554,-0.60526,2.5665
-434,470,-0.601196,-2.86487,0.0170873,0.0191882,-0.0213183,0.0394819,-0.00320643,-0.810015,0.0274526,0.0226583,790,554,-0.601188,2.86485
-427,470,-0.709045,-2.98926,0.0124884,0.0161824,-0.0143357,0.0287896,-0.000118727,-0.849465,0.0192328,0.0116166,797,554,-0.709024,2.98924
-420,470,-0.711731,-3.14691,0.00906454,0.012363,-0.00895021,0.0198147,0.00161288,-0.87651,0.0127063,0.0120336,804,554,-0.711718,3.14692
-413,470,-0.701782,-3.30835,0.00647707,0.00930331,-0.00560846,0.0136739,0.00210644,-0.90881,0.00850125,0.0120287,811,554,-0.701806,3.30837
-406,470,-0.713867,-3.44305,0.00466731,0.00638821,-0.00309607,0.00874118,0.00231435,-0.920936,0.00522958,0.00925105,818,554,-0.713857,3.44306
-399,470,-0.704895,-3.61066,0.00345849,0.00418699,-0.00128107,0.00515459,0.00249089,-0.923909,0.00297656,0.0124666,825,554,-0.704915,3.61067
-392,470,-0.715149,-3.77411,0.00300784,0.00229601,-0.000378905,0.00317178,0.00213208,-0.408339,0.00186708,0.0136479,832,554,-0.715135,3.77413
-385,470,-0.677185,-3.90002,0.0025015,0.000652435,0.000124932,0.0025099,0.000644032,0.0671582,0.00150524,0.0110543,839,554,-0.6772,3.90004
-378,470,-0.670105,-4.07947,0.00247888,-0.000751676,0.000240585,0.0024967,-0.000769495,0.0739284,0.00197167,0.0153973,846,554,-0.670081,4.07946
-371,470,-0.692078,-4.22021,0.00257659,-0.00217173,0.000198744,0.0025849,-0.00218004,0.0417583,0.00275434,0.0131629,853,554,-0.692048,4.22019
-364,470,-0.698608,-4.36243,0.00255025,-0.00318495,-0.000115778,0.00255258,-0.00318729,-0.0201763,0.00332066,0.0136591,860,554,-0.698623,4.36243
-357,470,-0.706238,-4.5238,0.00298645,-0.00446424,-0.00052004,0.00302257,-0.00450037,-0.0693494,0.00437122,0.0129269,867,554,-0.706223,4.52378
-350,470,-0.694397,-4.664,0.00332615,-0.0057692,-0.00094236,0.00342276,-0.00586581,-0.102163,0.00542423,0.00910456,874,554,-0.69437,4.66403
-343,470,-0.638672,-4.82745,0.00324778,-0.00707888,-0.00150003,0.00346125,-0.00729236,-0.141367,0.00633858,0.0171515,881,554,-0.638672,4.82746
-336,470,-0.694092,-4.94135,0.0027518,-0.00823746,-0.00223178,0.00318776,-0.00867341,-0.192909,0.00708797,0.025929,888,554,-0.694117,4.94136
-329,470,-0.568604,-4.95563,0.00181524,-0.00934537,-0.00326968,0.00270259,-0.0102327,-0.265006,0.00787873,0.0352867,895,554,-0.5686,4.95564
-322,470,-0.0686035,-4.86066,-0.000120342,-0.0101521,-0.00427677,0.00145543,-0.0117279,-0.353014,0.00834614,0.0421104,902,554,-0.068583,4.86068
-315,470,-0.779297,-5.52014,-0.00281963,-0.0109306,-0.00560423,4.25763e-05,-0.0137928,-0.472189,0.0092094,0.0494797,909,554,-0.779322,5.52013
-308,470,-0.804321,-5.44153,0,0,0,0,0,0,0,-1,916,554,-0.804297,5.44153
-301,470,-0.0340576,3.34888,0,0,0,0,0,0,0,-1,923,554,-0.0340496,-3.3489
-294,470,-1.18378,3.22266,0,0,0,0,0,0,0,-1,930,554,-1.18376,-3.22268
-287,470,-2.15454,3.2204,0,0,0,0,0,0,0,-1,937,554,-2.15452,-3.22037
-280,470,-3.00537,3.099,0,0,0,0,0,0,0,-1,944,554,-3.00536,-3.09898
-273,470,1.05981,-2.39728,0,0,0,0,0,0,0,-1,951,554,1.05983,2.39727
-266,470,1.61761,-2.7876,0,0,0,0,0,0,0,-1,958,554,1.61764,2.78761
-259,470,1.46301,-3.27332,0,0,0,0,0,0,0,-1,965,554,1.46301,3.2733
-252,470,1.34393,-3.74951,0,0,0,0,0,0,0,-1,972,554,1.34393,3.7495
-245,470,1.2428,-4.10791,0,0,0,0,0,0,0,-1,979,554,1.24283,4.10792
-238,470,0,0,0,0,0,0,0,0,0,-1,986,554,0,0
-231,470,0,0,0,0,0,0,0,0,0,-1,993,554,0,0
-224,470,0,0,0,0,0,0,0,0,0,-1,1000,554,0,0
-217,470,0,0,0,0,0,0,0,0,0,-1,1007,554,0,0
-210,470,0,0,0,0,0,0,0,0,0,-1,1014,554,0,0
-203,470,0,0,0,0,0,0,0,0,0,-1,1021,554,0,0
-196,470,0,0,0,0,0,0,0,0,0,-1,1028,554,0,0
-189,470,0,0,0,0,0,0,0,0,0,-1,1035,554,0,0
-182,470,0,0,0,0,0,0,0,0,0,-1,1042,554,0,0
-175,470,0,0,0,0,0,0,0,0,0,-1,1049,554,0,0
-168,470,0,0,0,0,0,0,0,0,0,-1,1056,554,0,0
-161,470,0,0,0,0,0,0,0,0,0,-1,1063,554,0,0
-154,470,0,0,0,0,0,0,0,0,0,-1,1070,554,0,0
-147,470,0,0,0,0,0,0,0,0,0,-1,1077,554,0,0
-140,470,0,0,0,0,0,0,0,0,0,-1,1084,554,0,0
-133,470,0,0,0,0,0,0,0,0,0,-1,1091,554,0,0
-126,470,0,0,0,0,0,0,0,0,0,-1,1098,554,0,0
-119,470,0,0,0,0,0,0,0,0,0,-1,1105,554,0,0
-112,470,0,0,0,0,0,0,0,0,0,-1,1112,554,0,0
-105,470,0,0,0,0,0,0,0,0,0,-1,1119,554,0,0
-98,470,0,0,0,0,0,0,0,0,0,-1,1126,554,0,0
-91,470,0,0,0,0,0,0,0,0,0,-1,1133,554,0,0
-84,470,0,0,0,0,0,0,0,0,0,-1,1140,554,0,0
-77,470,0,0,0,0,0,0,0,0,0,-1,1147,554,0,0
-70,470,0,0,0,0,0,0,0,0,0,-1,1154,554,0,0
-63,470,0,0,0,0,0,0,0,0,0,-1,1161,554,0,0
-56,470,0,0,0,0,0,0,0,0,0,-1,1168,554,0,0
-49,470,0,0,0,0,0,0,0,0,0,-1,1175,554,0,0
-42,470,0,0,0,0,0,0,0,0,0,-1,1182,554,0,0
-35,470,0,0,0,0,0,0,0,0,0,-1,1189,554,0,0
-28,470,0,0,0,0,0,0,0,0,0,-1,1196,554,0,0
-21,470,0,0,0,0,0,0,0,0,0,-1,1203,554,0,0
-14,470,0,0,0,0,0,0,0,0,0,-1,1210,554,0,0
-7,470,0,0,0,0,0,0,0,0,0,-1,1217,554,0,0
0,470,0,0,0,0,0,0,0,0,0,-1,1224,554,0,0
7,470,0,0,0,0,0,0,0,0,0,-1,1231,554,0,0
14,470,0,0,0,0,0,0,0,0,0,-1,1238,554,0,0
21,470,0,0,0,0,0,0,0,0,0,-1,1245,554,0,0
28,470,0,0,0,0,0,0,0,0,0,-1,1252,554,0,0
35,470,0,0,0,0,0,0,0,0,0,-1,1259,554,0,0
42,470,0,0,0,0,0,0,0,0,0,-1,1266,554,0,0
49,470,0,0,0,0,0,0,0,0,0,-1,1273,554,0,0
56,470,0,0,0,0,0,0,0,0,0,-1,1280,554,0,0
63,470,0,0,0,0,0,0,0,0,0,-1,1287,554,0,0
70,470,0,0,0,0,0,0,0,0,0,-1,1294,554,0,0
77,470,0,0,0,0,0,0,0,0,0,-1,1301,554,0,0
84,470,0,0,0,0,0,0,0,0,0,-1,1308,554,0,0
91,470,0,0,0,0,0,0,0,0,0,-1,1315,554,0,0
98,470,0,0,0,0,0,0,0,0,0,-1,1322,554,0,0
105,470,0,0,0,0,0,0,0,0,0,-1,1329,554,0,0
112,470,0,0,0,0,0,0,0,0,0,-1,1336,554,0,0
119,470,0,0,0,0,0,0,0,0,0,-1,1343,554,0,0
126,470,0,0,0,0,0,0,0,0,0,-1,1350,554,0,0
133,470,0,0,0,0,0,0,0,0,0,-1,1357,554,0,0
140,470,0,0,0,0,0,0,0,0,0,-1,1364,554,0,0
147,470,0,0,0,0,0,0,0,0,0,-1,1371,554,0,0
154,470,0,0,0,0,0,0,0,0,0,-1,1378,554,0,0
161,470,0,0,0,0,0,0,0,0,0,-1,1385,554,0,0
168,470,0,0,0,0,0,0,0,0,0,-1,1392,554,0,0
175,470,0,0,0,0,0,0,0,0,0,-1,1399,554,0,0
182,470,0,0,0,0,0,0,0,0,0,-1,1406,554,0,0
189,470,0,0,0,0,0,0,0,0,0,-1,1413,554,0,0
196,470,0,0,0,0,0,0,0,0,0,-1,1420,554,0,0
203,470,0,0,0,0,0,0,0,0,0,-1,1427,554,0,0
210,470,0,0,0,0,0,0,0,0,0,-1,1434,554,0,0
217,470,0,0,0,0,0,0,0,0,0,-1,1441,554,0,0
224,470,0,0,0,0,0,0,0,0,0,-1,1448,554,0,0
231,470,0,0,0,0,0,0,0,0,0,-1,1455,554,0,0
238,470,0,0,0,0,0,0,0,0,0,-1,1462,554,0,0
245,470,0,0,0,0,0,0,0,0,0,-1,1469,554,0,0
252,470,0,0,0,0,0,0,0,0,0,-1,1476,554,0,0
259,470,0,0,0,0,0,0,0,0,0,-1,1483,554,0,0
266,470,0,0,0,0,0,0,0,0,0,-1,1490,554,0,0
273,470,0,0,0,0,0,0,0,0,0,-1,1497,554,0,0
280,470,0,0,0,0,0,0,0,0,0,-1,1504,554,0,0
287,470,0,0,0,0,0,0,0,0,0,-1,1511,554,0,0
294,470,0,0,0,0,0,0,0,0,0,-1,1518,554,0,0
301,470,0,0,0,0,0,0,0,0,0,-1,1525,554,0,0
308,470,0,0,0,0,0,0,0,0,0,-1,1532,554,0,0
315,470,0,0,0,0,0,0,0,0,0,-1,1539,554,0,0
322,470,0,0,0,0,0,0,0,0,0,-1,1546,554,0,0
329,470,0,0,0,0,0,0,0,0,0,-1,1553,554,0,0
336,470,0,0,0,0,0,0,0,0,0,-1,1560,554,0,0
343,470,0,0,0,0,0,0,0,0,0,-1,1567,554,0,0
350,470,0,0,0,0,0,0,0,0,0,-1,1574,554,0,0
357,470,0,0,0,0,0,0,0,0,0,-1,1581,554,0,0
364,470,1.33423,0.293335,0,0,0,0,0,0,0,-1,1588,554,1.33422,-0.293348
371,470,4.3595,0.741394,0,0,0,0,0,0,0,-1,1595,554,4.35956,-0.741385
378,470,7.41846,0.960266,0,0,0,0,0,0,0,-1,1602,554,7.4184,-0.960263
385,470,10.3213,1.32568,0,0,0,0,0,0,0,-1,1609,554,10.3213,-1.32569
392,470,12.5139,3.7251,0,0,0,0,0,0,0,-1,1616,554,12.5139,-3.72509
399,470,12.9828,1.44592,0,0,0,0,0,0,0,-1,1623,554,12.9828,-1.44594
406,470,15.1896,1.36676,0,0,0,0,0,0,0,-1,1630,554,15.1896,-1.36679
413,470,6.55383,1.99207,0,0,0,0,0,0,0,-1,1637,554,6.5538,-1.99208
420,470,4.47095,0.845703,0,0,0,0,0,0,0,-1,1644,554,4.47098,-0.845718
427,470,3.51038,1.19684,0,0,0,0,0,0,0,-1,1651,554,3.51039,-1.19684
434,470,3.31775,-1.37427,0,0,0,0,0,0,0,-1,1658,554,3.31781,1.37426
441,470,2.55457,-2.05902,0,0,0,0,0,0,0,-1,1665,554,2.55461,2.05904
448,470,3.27258,-2.64032,0,0,0,0,0,0,0,-1,1672,554,3.27257,2.64029
455,470,5.16516,-4.12964,0,0,0,0,0,0,0,-1,1679,554,5.16514,4.12962
462,470,5.11523,-3.97815,0,0,0,0,0,0,0,-1,1686,554,5.11527,3.97814
469,470,5.19482,-3.74658,-0.00320758,0.00391754,-0.000465615,0.00394783,-0.00323788,-1.50582,0.00415542,0.0440213,1693,554,5.1948,3.74656
476,470,5.01025,-3.56488,-0.00279939,0.00381522,2.87559e-05,0.00381535,-0.00279951,1.56645,0.00383407,0.0249994,1700,554,5.01024,3.56486
483,470,5.03967,-3.38971,-0.0025274,0.00319505,0.000105909,0.00319701,-0.00252936,1.5523,0.0033136,0.0143568,1707,554,5.03969,3.38972
490,470,5.01538,-3.22632,-0.00210873,0.002583,0.000119181,0.00258602,-0.00211175,1.54542,0.00271687,0.0123962,1714,554,5.01534,3.22632
497,470,5.02734,-3.05249,-0.00175036,0.00184351,-7.61733e-06,0.00184352,-0.00175037,-1.56868,0.00207517,0.0121501,1721,554,5.02739,3.0525
504,470,5.04956,-2.90704,-0.00144929,0.00127222,-7.62949e-05,0.00127436,-0.00145143,-1.54279,0.00157484,0.0187447,1728,554,5.04956,2.90704
511,470,5.0752,-2.72345,-0.000906415,0.00089027,0.000135703,0.000900462,-0.000916607,1.49583,0.0010491,0.0265949,1735,554,5.0752,2.72347
518,470,5.10083,-2.53882,-0.00014341,0.00086789,0.000564971,0.00112045,-0.000395964,1.15042,0.000908195,0.0257286,1742,554,5.10081,2.53883
525,470,5.06177,-2.36316,0.000754226,0.00102774,0.00111787,0.00201719,-0.000235222,0.846265,0.00142967,0.0159734,1749,554,5.06183,2.36317
532,470,5.0321,-2.17267,0.00170951,0.00151333,0.00190471,0.00351865,-0.000295809,0.759671,0.00245033,0.013361,1756,554,5.03211,2.17268
539,470,5.02722,-2.02203,0.00279235,0.0025453,0.0029526,0.00562401,-0.000286358,0.764493,0.00384834,0.0138999,1763,554,5.02725,2.02202
546,470,5.04358,-1.8667,0.00407076,0.00388465,0.00428562,0.00826433,-0.000308922,0.774543,0.00561536,0.0133224,1770,554,5.04364,1.86669
553,470,5.0509,-1.69238,0.0136061,0.00517504,0.00863812,0.0190024,-0.000221293,0.558392,0.0127427,0.0107634,1777,554,5.05096,1.69238
560,470,5.0459,-1.49585,0.0309952,0.00633668,0.0151582,0.0382052,-0.000873294,0.443977,0.0257661,0.0137211,1784,554,5.04588,1.49585
567,470,5.01624,-1.30298,0.0510247,0.00754375,0.0229567,0.0609016,-0.00233318,0.406302,0.0414007,0.0176168,1791,554,5.0162,1.30296
574,470,4.9491,-1.23059,0,0,0,0,0,0,0,-1,1798,554,4.94911,1.23061
581,470,8.24646,-4.06317,0,0,0,0,0,0,0,-1,1805,554,8.24648,4.06318
588,470,8.83704,-2.04022,0,0,0,0,0,0,0,-1,1812,554,8.83707,2.04021
595,470,4.72192,3.44116,0,0,0,0,0,0,0,-1,1819,554,4.72191,-3.44116
602,470,13.7172,2.42462,0,0,0,0,0,0,0,-1,1826,554,13.7172,-2.42464
609,470,16.2076,2.45117,0,0,0,0,0,0,0,-1,1833,554,16.2077,-2.45116
616,470,0,0,0,0,0,0,0,0,0,-1,1840,554,0,0
623,470,0,0,0,0,0,0,0,0,0,-1,1847,554,0,0
630,470,0,0,0,0,0,0,0,0,0,-1,1854,554,0,0
637,470,0,0,0,0,0,0,0,0,0,-1,1861,554,0,0
644,470,0,0,0,0,0,0,0,0,0,-1,1868,554,0,0
651,470,0,0,0,0,0,0,0,0,0,-1,1875,554,0,0
658,470,0,0,0,0,0,0,0,0,0,-1,1882,554,0,0
665,470,0,0,0,0,0,0,0,0,0,-1,1889,554,0,0
672,470,0,0,0,0,0,0,0,0,0,-1,1896,554,0,0
679,470,0,0,0,0,0,0,0,0,0,-1,1903,554,0,0
686,470,0,0,0,0,0,0,0,0,0,-1,1910,554,0,0
693,470,0,0,0,0,0,0,0,0,0,-1,1917,554,0,0
700,470,0,0,0,0,0,0,0,0,0,-1,1924,554,0,0
707,470,0,0,0,0,0,0,0,0,0,-1,1931,554,0,0
714,470,0,0,0,0,0,0,0,0,0,-1,1938,554,0,0
721,470,0,0,0,0,0,0,0,0,0,-1,1945,554,0,0
728,470,0,0,0,0,0,0,0,0,0,-1,1952,554,0,0
735,470,0,0,0,0,0,0,0,0,0,-1,1959,554,0,0
742,470,0,0,0,0,0,0,0,0,0,-1,1966,554,0,0
749,470,0,0,0,0,0,0,0,0,0,-1,1973,554,0,0
756,470,0,0,0,0,0,0,0,0,0,-1,1980,554,0,0
763,470,0,0,0,0,0,0,0,0,0,-1,1987,554,0,0
770,470,0,0,0,0,0,0,0,0,0,-1,1994,554,0,0
777,470,0,0,0,0,0,0,0,0,0,-1,2001,554,0,0
784,470,0,0,0,0,0,0,0,0,0,-1,2008,554,0,0
791,470,0,0,0,0,0,0,0,0,0,-1,2015,554,0,0
798,470,0,0,0,0,0,0,0,0,0,-1,2022,554,0,0
805,470,0,0,0,0,0,0,0,0,0,-1,2029,554,0,0
812,470,0,0,0,0,0,0,0,0,0,-1,2036,554,0,0
-700,463,0,0,0,0,0,0,0,0,0,-1,524,561,0,0
-693,463,0,0,0,0,0,0,0,0,0,-1,531,561,0,0
-686,463,0,0,0,0,0,0,0,0,0,-1,538,561,0,0
-679,463,0,0,0,0,0,0,0,0,0,-1,545,561,0,0
-672,463,0,0,0,0,0,0,0,0,0,-1,552,561,0,0
-665,463,0,0,0,0,0,0,0,0,0,-1,559,561,0,0
-658,463,0,0,0,0,0,0,0,0,0,-1,566,561,0,0
-651,463,0,0,0,0,0,0,0,0,0,-1,573,561,0,0
-644,463,0,0,0,0,0,0,0,0,0,-1,580,561,0,0
-637,463,0,0,0,0,0,0,0,0,0,-1,587,561,0,0
-630,463,0,0,0,0,0,0,0,0,0,-1,594,561,0,0
-623,463,0,0,0,0,0,0,0,0,0,-1,601,561,0,0
-616,463,0,0,0,0,0,0,0,0,0,-1,608,561,0,0
-609,463,0,0,0,0,0,0,0,0,0,-1,615,561,0,0
-602,463,0,0,0,0,0,0,0,0,0,-1,622,561,0,0
-595,463,0,0,0,0,0,0,0,0,0,-1,629,561,0,0
-588,463,0,0,0,0,0,0,0,0,0,-1,636,561,0,0
-581,463,0,0,0,0,0,0,0,0,0,-1,643,561,0,0
-574,463,0,0,0,0,0,0,0,0,0,-1,650,561,0,0
-567,463,0,0,0,0,0,0,0,0,0,-1,657,561,0,0
-560,463,0,0,0,0,0,0,0,0,0,-1,664,561,0,0
-553,463,0,0,0,0,0,0,0,0,0,-1,671,561,0,0
-546,463,0,0,0,0,0,0,0,0,0,-1,678,561,0,0
-539,463,0,0,0,0,0,0,0,0,0,-1,685,561,0,0
-532,463,0,0,0,0,0,0,0,0,0,-1,692,561,0,0
-525,463,0,0,0,0,0,0,0,0,0,-1,699,561,0,0
-518,463,0,0,0,0,0,0,0,0,0,-1,706,561,0,0
-511,463,0,0,0,0,0,0,0,0,0,-1,713,561,0,0
-504,463,0,0,0,0,0,0,0,0,0,-1,720,561,0,0
-497,463,-4.27014,3.24841,0,0,0,0,0,0,0,-1,727,561,-4.27015,-3.24842
-490,463,-3.59601,2.38934,0.0809979,0.0108716,-0.112305,0.163586,-0.0717161,-0.634086,0.13926,0.046041,734,561,-3.59599,-2.38932
-483,463,-3.06262,1.57922,0.0711081,0.013385,-0.0951459,0.141674,-0.0571805,-0.638139,0.118213,0.0449667,741,561,-3.06259,-1.57922
-476,463,-2.60632,0.5047,0.0602651,0.0171373,-0.0799631,0.121521,-0.0441185,-0.653695,0.0990512,0.0483142,748,561,-2.60635,-0.50472
-469,463,-1.92133,-0.684265,0,0,0,0,0,0,0,-1,755,561,-1.92133,0.684277
-462,463,-0.174622,-1.94922,0,0,0,0,0,0,0,-1,762,561,-0.174633,1.9492
-455,463,-0.418213,-1.95349,0,0,0,0,0,0,0,-1,769,561,-0.418212,1.95352
-448,463,-0.64447,-2.28424,0.0247832,0.0194663,-0.0333946,0.055625,-0.0113755,-0.745678,0.0413994,0.0440814,776,561,-0.644497,2.28424
-441,463,-0.707703,-2.62714,0.0188718,0.0172828,-0.025102,0.0431919,-0.00703727,-0.769578,0.0314043,0.0299888,783,561,-0.707702,2.62714
-434,463,-0.821655,-2.83716,0.0134764,0.0153915,-0.0177494,0.0322092,-0.00334124,-0.812347,0.0226687,0.0116143,790,561,-0.821633,2.83714
-427,463,-0.85553,-2.98273,0.00944657,0.0129329,-0.0119352,0.0232515,-0.000872038,-0.857912,0.0157997,0.00915587,797,561,-0.855553,2.98273
-420,463,-0.846558,-3.12976,0.0065555,0.00970872,-0.00753731,0.0158325,0.000431675,-0.888498,0.0104141,0.00997992,804,561,-0.846532,3.12976
-413,463,-0.856018,-3.30756,0.00448117,0.0071229,-0.00488737,0.0108647,0.000739326,-0.917376,0.00700973,0.00862438,811,561,-0.856026,3.30757
-406,463,-0.87677,-3.46204,0.00313401,0.00470506,-0.00287359,0.00689855,0.000940516,-0.918819,0.00431979,0.00787509,818,561,-0.876766,3.46204
-399,463,-0.86499,-3.60663,0.00233568,0.00281364,-0.00138923,0.00398429,0.00116503,-0.870575,0.0023655,0.00900081,825,561,-0.864986,3.60664
-392,463,-0.86261,-3.77472,0.00219394,0.00102299,-0.000584143,0.00243551,0.000781424,-0.39213,0.00143592,0.00870874,832,561,-0.862612,3.77472
-385,463,-0.845215,-3.93951,0.00206959,-0.000466756,-4.88238e-05,0.00207053,-0.000467696,-0.0192401,0.0015598,0.00987975,839,561,-0.845224,3.93954
-378,463,-0.842041,-4.09723,0.00241275,-0.00182638,0.000248351,0.00242725,-0.00184088,0.0583196,0.00247194,0.0115686,846,561,-0.842016,4.09721
-371,463,-0.851563,-4.23676,0.00286349,-0.00329431,0.000172358,0.00286831,-0.00329913,0.027961,0.00356367,0.0109997,853,561,-0.851543,4.23676
-364,463,-0.831604,-4.37354,0.00306343,-0.00447964,-9.34319e-05,0.00306459,-0.00448079,-0.0123839,0.00438183,0.0134705,860,561,-0.831611,4.37353
-357,463,-0.83075,-4.52606,0.00369746,-0.00603731,-0.000417526,0.00371533,-0.00605519,-0.0427854,0.00569468,0.0150026,867,561,-0.830724,4.52609
-350,463,-0.816467,-4.67981,0.0041241,-0.0077135,-0.000827674,0.00418169,-0.00777109,-0.0694685,0.0070039,0.0145096,874,561,-0.816493,4.67983
-343,463,-0.708191,-4.78424,0.00406935,-0.00951711,-0.00146507,0.00422554,-0.0096733,-0.106206,0.0082274,0.0247118,881,561,-0.708215,4.78425
-336,463,-0.661682,-4.92761,0.00350124,-0.0112653,-0.0023424,0.0038639,-0.011628,-0.153607,0.00931113,0.0366649,888,561,-0.66169,4.92764
-329,463,-0.594177,-5.16455,0,0,0,0,0,0,0,-1,895,561,-0.594174,5.16457
-322,463,0.209167,-4.62024,0,0,0,0,0,0,0,-1,902,561,0.209177,4.62026
-315,463,-0.944763,-5.96234,0,0,0,0,0,0,0,-1,909,561,-0.94479,5.96237
-308,463,-1.1535,-3.17889,0,0,0,0,0,0,0,-1,916,561,-1.15352,3.17889
-301,463,-1.50366,-3.15338,0,0,0,0,0,0,0,-1,923,561,-1.50364,3.15341
-294,463,-2.35889,-3.93463,0,0,0,0,0,0,0,-1,930,561,-2.35886,3.93465
-287,463,-2.80322,2.73999,0,0,0,0,0,0,0,-1,937,561,-2.80322,-2.74
-280,463,-3.29858,2.24219,0,0,0,0,0,0,0,-1,944,561,-3.29859,-2.24221
-273,463,-3.89429,1.77289,0,0,0,0,0,0,0,-1,951,561,-3.89426,-1.77287
-266,463,-0.36261,-3.09674,0,0,0,0,0,0,0,-1,958,561,-0.362581,3.09673
-259,463,1.29675,-3.47339,0,0,0,0,0,0,0,-1,965,561,1.29678,3.47338
-252,463,0,0,0,0,0,0,0,0,0,-1,972,561,0,0
-245,463,0,0,0,0,0,0,0,0,0,-1,979,561,0,0
-238,463,0,0,0,0,0,0,0,0,0,-1,986,561,0,0
-231,463,0,0,0,0,0,0,0,0,0,-1,993,561,0,0
-224,463,0,0,0,0,0,0,0,0,0,-1,1000,561,0,0
-217,463,0,0,0,0,0,0,0,0,0,-1,1007,561,0,0
-210,463,0,0,0,0,0,0,0,0,0,-1,1014,561,0,0
-203,463,0,0,0,0,0,0,0,0,0,-1,1021,561,0,0
-196,463,0,0,0,0,0,0,0,0,0,-1,1028,561,0,0
-189,463,0,0,0,0,0,0,0,0,0,-1,1035,561,0,0
-182,463,0,0,0,0,0,0,0,0,0,-1,1042,561,0,0
-175,463,0,0,0,0,0,0,0,0,0,-1,1049,561,0,0
-168,463,0,0,0,0,0,0,0,0,0,-1,1056,561,0,0
-161,463,0,0,0,0,0,0,0,0,0,-1,1063,561,0,0
-154,463,0,0,0,0,0,0,0,0,0,-1,1070,561,0,0
-147,463,0,0,0,0,0,0,0,0,0,-1,1077,561,0,0
-140,463,0,0,0,0,0,0,0,0,0,-1,1084,561,0,0
-133,463,0,0,0,0,0,0,0,0,0,-1,1091,561,0,0
-126,463,0,0,0,0,0,0,0,0,0,-1,1098,561,0,0
-119,463,0,0,0,0,0,0,0,0,0,-1,1105,561,0,0
-112,463,0,0,0,0,0,0,0,0,0,-1,1112,561,0,0
-105,463,0,0,0,0,0,0,0,0,0,-1,1119,561,0,0
-98,463,0,0,0,0,0,0,0,0,0,-1,1126,561,0,0
-91,463,0,0,0,0,0,0,0,0,0,-1,1133,561,0,0
-84,463,0,0,0,0,0,0,0,0,0,-1,1140,561,0,0
-77,463,0,0,0,0,0,0,0,0,0,-1,1147,561,0,0
-70,463,0,0,0,0,0,0,0,0,0,-1,1154,561,0,0
-63,463,0,0,0,0,0,0,0,0,0,-1,1161,561,0,0
-56,463,0,0,0,0,0,0,0,0,0,-1,1168,561,0,0
-49,463,0,0,0,0,0,0,0,0,0,-1,1175,561,0,0
-42,463,0,0,0,0,0,0,0,0,0,-1,1182,561,0,0
-35,463,0,0,0,0,0,0,0,0,0,-1,1189,561,0,0
-28,463,0,0,0,0,0,0,0,0,0,-1,1196,561,0,0
-21,463,0,0,0,0,0,0,0,0,0,-1,1203,561,0,0
-14,463,0,0,0,0,0,0,0,0,0,-1,1210,561,0,0
-7,463,0,0,0,0,0,0,0,0,0,-1,1217,561,0,0
0,463,0,0,0,0,0,0,0,0,0,-1,1224,561,0,0
7,463,0,0,0,0,0,0,0,0,0,-1,1231,561,0,0
14,463,0,0,0,0,0,0,0,0,0,-1,1238,561,0,0
21,463,0,0,0,0,0,0,0,0,0,-1,1245,561,0,0
28,463,0,0,0,0,0,0,0,0,0,-1,1252,561,0,0
35,463,0,0,0,0,0,0,0,0,0,-1,1259,561,0,0
42,463,0,0,0,0,0,0,0,0,0,-1,1266,561,0,0
49,463,0,0,0,0,0,0,0,0,0,-1,1273,561,0,0
56,463,0,0,0,0,0,0,0,0,0,-1,1280,561,0,0
63,463,0,0,0,0,0,0,0,0,0,-1,1287,561,0,0
70,463,0,0,0,0,0,0,0,0,0,-1,1294,561,0,0
77,463,0,0,0,0,0,0,0,0,0,-1,1301,561,0,0
84,463,0,0,0,0,0,0,0,0,0,-1,1308,561,0,0
91,463,0,0,0,0,0,0,0,0,0,-1,1315,561,0,0
98,463,0,0,0,0,0,0,0,0,0,-1,1322,561,0,0
105,463,0,0,0,0,0,0,0,0,0,-1,1329,561,0,0
112,463,0,0,0,0,0,0,0,0,0,-1,1336,561,0,0
119,463,0,0,0,0,0,0,0,0,0,-1,1343,561,0,0
126,463,0,0,0,0,0,0,0,0,0,-1,1350,561,0,0
133,463,0,0,0,0,0,0,0,0,0,-1,1357,561,0,0
140,463,0,0,0,0,0,0,0,0,0,-1,1364,561,0,0
147,463,0,0,0,0,0,0,0,0,0,-1,1371,561,0,0
154,463,0,0,0,0,0,0,0,0,0,-1,1378,561,0,0
161,463,0,0,0,0,0,0,0,0,0,-1,1385,561,0,0
168,463,0,0,0,0,0,0,0,0,0,-1,1392,561,0,0
175,463,0,0,0,0,0,0,0,0,0,-1,1399,561,0,0
182,463,0,0,0,0,0,0,0,0,0,-1,1406,561,0,0
189,463,0,0,0,0,0,0,0,0,0,-1,1413,561,0,0
196,463,0,0,0,0,0,0,0,0,0,-1,1420,561,0,0
203,463,0,0,0,0,0,0,0,0,0,-1,1427,561,0,0
210,463,0,0,0,0,0,0,0,0,0,-1,1434,561,0,0
217,463,0,0,0,0,0,0,0,0,0,-1,1441,561,0,0
224,463,0,0,0,0,0,0,0,0,0,-1,1448,561,0,0
231,463,0,0,0,0,0,0,0,0,0,-1,1455,561,0,0
238,463,0,0,0,0,0,0,0,0,0,-1,1462,561,0,0
245,463,0,0,0,0,0,0,0,0,0,-1,1469,561,0,0
252,463,0,0,0,0,0,0,0,0,0,-1,1476,561,0,0
259,463,0,0,0,0,0,0,0,0,0,-1,1483,561,0,0
266,463,0,0,0,0,0,0,0,0,0,-1,1490,561,0,0
273,463,0,0,0,0,0,0,0,0,0,-1,1497,561,0,0
280,463,0,0,0,0,0,0,0,0,0,-1,1504,561,0,0
287,463,0,0,0,0,0,0,0,0,0,-1,1511,561,0,0
294,463,0,0,0,0,0,0,0,0,0,-1,1518,561,0,0
301,463,0,0,0,0,0,0,0,0,0,-1,1525,561,0,0
308,463,0,0,0,0,0,0,0,0,0,-1,1532,561,0,0
315,463,0,0,0,0,0,0,0,0,0,-1,1539,561,0,0
322,463,0,0,0,0,0,0,0,0,0,-1,1546,561,0,0
329,463,0,0,0,0,0,0,0,0,0,-1,1553,561,0,0
336,463,0,0,0,0,0,0,0,0,0,-1,1560,561,0,0
343,463,0,0,0,0,0,0,0,0,0,-1,1567,561,0,0
350,463,0,0,0,0,0,0,0,0,0,-1,1574,561,0,0
357,463,0,0,0,0,0,0,0,0,0,-1,1581,561,0,0
364,463,0,0,0,0,0,0,0,0,0,-1,1588,561,0,0
371,463,1.75842,0.152588,0,0,0,0,0,0,0,-1,1595,561,1.75844,-0.152558
378,463,4.96985,0.751465,0,0,0,0,0,0,0,-1,1602,561,4.96983,-0.751443
385,463,7.66809,1.53461,0,0,0,0,0,0,0,-1,1609,561,7.66806,-1.53461
392,463,10.6348,2.47943,0,0,0,0,0,0,0,-1,1616,561,10.6348,-2.47944
399,463,13.1924,2.06775,0,0,0,0,0,0,0,-1,1623,561,13.1924,-2.06776
406,463,7.28088,1.38538,0,0,0,0,0,0,0,-1,1630,561,7.28091,-1.38537
413,463,8.05847,1.82239,0,0,0,0,0,0,0,-1,1637,561,8.05851,-1.82241
420,463,8.849,2.26611,0,0,0,0,0,0,0,-1,1644,561,8.84899,-2.26613
427,463,5.12207,1.69183,0,0,0,0,0,0,0,-1,1651,561,5.12206,-1.69184
434,463,4.59814,1.81995,0,0,0,0,0,0,0,-1,1658,561,4.59812,-1.81994
441,463,1.76392,-5.99225,0,0,0,0,0,0,0,-1,1665,561,1.7639,5.99225
448,463,2.49939,-4.30536,0,0,0,0,0,0,0,-1,1672,561,2.49941,4.30536
455,463,4.40295,-3.02557,0,0,0,0,0,0,0,-1,1679,561,4.40299,3.02558
462,463,4.80664,-3.54138,0,0,0,0,0,0,0,-1,1686,561,4.80664,3.54139
469,463,5.32813,-3.96167,0,0,0,0,0,0,0,-1,1693,561,5.32815,3.96169
476,463,5.09058,-3.78607,0,0,0,0,0,0,0,-1,1700,561,5.09056,3.7861
483,463,5.09814,-3.54596,-0.00462433,0.00381612,-0.000399162,0.00383495,-0.00464317,-1.52365,0.00490225,0.0292161,1707,561,5.09818,3.54595
490,463,5.18628,-3.26544,-0.00387737,0.00315088,-0.000229492,0.00315837,-0.00388485,-1.53819,0.00407361,0.016732,1714,561,5.18633,3.26541
497,463,5.19275,-3.05328,-0.00316811,0.00232581,-0.000234463,0.0023358,-0.00317809,-1.52822,0.00319581,0.0128373,1721,561,5.19273,3.05327
504,463,5.22363,-2.89752,-0.00261703,0.00168629,-0.00016247,0.00169241,-0.00262315,-1.53311,0.00251083,0.016559,1728,561,5.22365,2.89751
511,463,5.21912,-2.7179,-0.00200707,0.00118665,6.80657e-05,0.0011881,-0.00200852,1.5495,0.00186572,0.0236499,1735,561,5.21915,2.71787
518,463,5.24658,-2.52899,-0.00112275,0.00103318,0.000499441,0.00114326,-0.00123283,1.35386,0.00137216,0.0237053,1742,561,5.24653,2.529
525,463,5.224,-2.37244,-0.00011832,0.00113596,0.00105138,0.00173304,-0.000715395,1.05432,0.00145373,0.0189246,1749,561,5.22399,2.37242
532,463,5.21179,-2.19696,0.00084385,0.00151246,0.00172653,0.00293676,-0.000580441,0.881029,0.00217726,0.0159631,1756,561,5.21182,2.19697
539,463,5.20862,-2.02228,0.00180502,0.00232164,0.00253679,0.00461323,-0.000486575,0.836137,0.00324985,0.0141283,1763,561,5.20859,2.02231
546,463,5.2218,-1.86365,0.00285079,0.00335774,0.00352861,0.00664197,-0.000433435,0.821254,0.0045793,0.0113414,1770,561,5.22183,1.86363
553,463,5.21521,-1.6709,0.0107623,0.00432057,0.00702651,0.015271,-0.000188095,0.570494,0.0102439,0.0103936,1777,561,5.21521,1.6709
560,463,5.21558,-1.46765,0.0250833,0.00513683,0.0122372,0.0308965,-0.000676434,0.443489,0.0208268,0.0115531,1784,561,5.21561,1.46765
567,463,5.16113,-1.31122,0.0411746,0.00590943,0.0182766,0.0489377,-0.00185371,0.401666,0.0332603,0.0140515,1791,561,5.16116,1.31123
574,463,5.12744,-1.237,0.0657531,0.00642588,0.026932,0.0761552,-0.00397624,0.368585,0.0521461,0.0371902,1798,561,5.12738,1.23702
581,463,5.24817,-1.10846,0,0,0,0,0,0,0,-1,1805,561,5.24819,1.10846
588,463,1.97424,2.16016,0,0,0,0,0,0,0,-1,1812,561,1.97422,-2.16013
595,463,8.86877,2.81097,0,0,0,0,0,0,0,-1,1819,561,8.86876,-2.81096
602,463,11.7985,2.72906,0.290269,0.000823896,0.0997973,0.321342,-0.0302493,0.301848,0.22499,0.0469976,1826,561,11.7985,-2.72908
609,463,14.5898,2.71442,0.381686,-0.00369346,0.128276,0.420479,-0.042486,0.293671,0.295501,0.044606,1833,561,14.5898,-2.71441
616,463,16.8923,2.79462,0,0,0,0,0,0,0,-1,1840,561,16.8923,-2.79464
623,463,0,0,0,0,0,0,0,0,0,-1,1847,561,0,0
630,463,0,0,0,0,0,0,0,0,0,-1,1854,561,0,0
637,463,0,0,0,0,0,0,0,0,0,-1,1861,561,0,0
644,463,0,0,0,0,0,0,0,0,0,-1,1868,561,0,0
651,463,0,0,0,0,0,0,0,0,0,-1,1875,561,0,0
658,463,0,0,0,0,0,0,0,0,0,-1,1882,561,0,0
665,463,0,0,0,0,0,0,0,0,0,-1,1889,561,0,0
672,463,0,0,0,0,0,0,0,0,0,-1,1896,561,0,0
679,463,0,0,0,0,0,0,0,0,0,-1,1903,561,0,0
686,463,0,0,0,0,0,0,0,0,0,-1,1910,561,0,0
693,463,0,0,0,0,0,0,0,0,0,-1,1917,561,0,0
700,463,0,0,0,0,0,0,0,0,0,-1,1924,561,0,0
707,463,0,0,0,0,0,0,0,0,0,-1,1931,561,0,0
714,463,0,0,0,0,0,0,0,0,0,-1,1938,561,0,0
721,463,0,0,0,0,0,0,0,0,0,-1,1945,561,0,0
728,463,0,0,0,0,0,0,0,0,0,-1,1952,561,0,0
735,463,0,0,0,0,0,0,0,0,0,-1,1959,561,0,0
742,463,0,0,0,0,0,0,0,0,0,-1,1966,561,0,0
749,463,0,0,0,0,0,0,0,0,0,-1,1973,561,0,0
756,463,0,0,0,0,0,0,0,0,0,-1,1980,561,0,0
763,463,0,0,0,0,0,0,0,0,0,-1,1987,561,0,0
770,463,0,0,0,0,0,0,0,0,0,-1,1994,561,0,0
777,463,0,0,0,0,0,0,0,0,0,-1,2001,561,0,0
784,463,0,0,0,0,0,0,0,0,0,-1,2008,561,0,0
791,463,0,0,0,0,0,0,0,0,0,-1,2015,561,0,0
798,463,0,0,0,0,0,0,0,0,0,-1,2022,561,0,0
805,463,0,0,0,0,0,0,0,0,0,-1,2029,561,0,0
812,463,0,0,0,0,0,0,0,0,0,-1,2036,561,0,0
-700,456,0,0,0,0,0,0,0,0,0,-1,524,568,0,0
-693,456,0,0,0,0,0,0,0,0,0,-1,531,568,0,0
-686,456,0,0,0,0,0,0,0,0,0,-1,538,568,0,0
-679,456,0,0,0,0,0,0,0,0,0,-1,545,568,0,0
-672,456,0,0,0,0,0,0,0,0,0,-1,552,568,0,0
-665,456,0,0,0,0,0,0,0,0,0,-1,559,568,0,0
-658,456,0,0,0,0,0,0,0,0,0,-1,566,568,0,0
-651,456,0,0,0,0,0,0,0,0,0,-1,573,568,0,0
-644,456,0,0,0,0,0,0,0,0,0,-1,580,568,0,0
-637,456,0,0,0,0,0,0,0,0,0,-1,587,568,0,0
-630,456,0,0,0,0,0,0,0,0,0,-1,594,568,0,0
-623,456,0,0,0,0,0,0,0,0,0,-1,601,568,0,0
-616,456,0,0,0,0,0,0,0,0,0,-1,608,568,0,0
-609,456,0,0,0,0,0,0,0,0,0,-1,615,568,0,0
-602,456,0,0,0,0,0,0,0,0,0,-1,622,568,0,0
-595,456,0,0,0,0,0,0,0,0,0,-1,629,568,0,0
-588,456,0,0,0,0,0,0,0,0,0,-1,636,568,0,0
-581,456,0,0,0,0,0,0,0,0,0,-1,643,568,0,0
-574,456,0,0,0,0,0,0,0,0,0,-1,650,568,0,0
-567,456,0,0,0,0,0,0,0,0,0,-1,657,568,0,0
-560,456,0,0,0,0,0,0,0,0,0,-1,664,568,0,0
-553,456,0,0,0,0,0,0,0,0,0,-1,671,568,0,0
-546,456,0,0,0,0,0,0,0,0,0,-1,678,568,0,0
-539,456,0,0,0,0,0,0,0,0,0,-1,685,568,0,0
-532,456,0,0,0,0,0,0,0,0,0,-1,692,568,0,0
-525,456,0,0,0,0,0,0,0,0,0,-1,699,568,0,0
-518,456,0,0,0,0,0,0,0,0,0,-1,706,568,0,0
-511,456,0,0,0,0,0,0,0,0,0,-1,713,568,0,0
-504,456,-1.43451,-1.86499,0,0,0,0,0,0,0,-1,720,568,-1.43452,1.86499
-497,456,-3.59912,3.37024,0,0,0,0,0,0,0,-1,727,568,-3.59911,-3.37021
-490,456,-2.81476,2.5285,0.0645776,0.0147906,-0.0983775,0.141162,-0.061794,-0.661479,0.120126,0.0461629,734,568,-2.81477,-2.52848
-483,456,-2.06812,1.72504,0.0593566,0.0116812,-0.0808301,0.119791,-0.048753,-0.642007,0.100148,0.0453026,741,568,-2.06814,-1.72502
-476,456,-1.81543,0.520935,0,0,0,0,0,0,0,-1,748,568,-1.81546,-0.520916
-469,456,-2.81238,-3.51501,0,0,0,0,0,0,0,-1,755,568,-2.81237,3.51501
-462,456,-1.25372,-1.68402,0,0,0,0,0,0,0,-1,762,568,-1.25373,1.68404
-455,456,-0.551819,-2.85162,0,0,0,0,0,0,0,-1,769,568,-0.551803,2.8516
-448,456,-0.898499,-2.46661,0.0200766,0.0152527,-0.026758,0.0445311,-0.00920183,-0.74045,0.0331827,0.0322461,776,568,-0.898501,2.46663
-441,456,-0.956726,-2.66675,0.0149617,0.0135801,-0.0199603,0.0342432,-0.00570134,-0.768102,0.0249473,0.0143357,783,568,-0.956755,2.66672
-434,456,-0.993774,-2.8316,0.0102685,0.0120719,-0.0139015,0.0251009,-0.00276056,-0.817785,0.0177259,0.00846412,790,568,-0.99377,2.83158
-427,456,-1.00079,-2.98682,0.00685258,0.010061,-0.00920268,0.0177983,-0.000884653,-0.871692,0.0121711,0.00802873,797,568,-1.00079,2.98684
-420,456,-0.996216,-3.13416,0.00450054,0.00734778,-0.00575593,0.0118535,-5.21215e-06,-0.90663,0.00790409,0.00904721,804,568,-0.996244,3.13412
-413,456,-0.993958,-3.29962,0.00292317,0.00514969,-0.00377803,0.00797507,9.77926e-05,-0.928677,0.00528442,0.00824326,811,568,-0.993948,3.2996
-406,456,-1.01892,-3.46283,0.00200865,0.0031249,-0.00227525,0.00490948,0.000224073,-0.905676,0.00320091,0.00810749,818,568,-1.01889,3.46281
-399,456,-1.0174,-3.60229,0.00158091,0.00146475,-0.00115577,0.00268006,0.000365598,-0.760295,0.00167817,0.00909188,825,568,-1.01741,3.60227
-392,456,-1.01141,-3.76465,0.00169734,-0.0002838,-0.000516043,0.0018237,-0.000410158,-0.240135,0.00137309,0.00799633,832,568,-1.01144,3.76462
-385,456,-1.00061,-3.93225,0.0019063,-0.00168689,-3.38326e-05,0.00190662,-0.00168721,-0.00941466,0.00207618,0.00842582,839,568,-1.00058,3.93226
-378,456,-1.00879,-4.09406,0.00256855,-0.00306163,0.000352043,0.00259048,-0.00308356,0.0622048,0.00328003,0.0101424,846,568,-1.00878,4.09404
-371,456,-1.01154,-4.24176,0.00331422,-0.00465133,0.000266351,0.00332312,-0.00466023,0.0333881,0.00463069,0.0105725,853,568,-1.01155,4.24179
-364,456,-0.971741,-4.36798,0.00367548,-0.00609017,7.43701e-05,0.00367605,-0.00609073,0.00761489,0.00569601,0.0138413,860,568,-0.971722,4.368
-357,456,-0.935913,-4.52997,0.00444726,-0.00804155,-0.000163039,0.00444939,-0.00804368,-0.0130519,0.0073117,0.0154182,867,568,-0.935932,4.52996
-350,456,-0.79541,-4.57037,0.00495733,-0.0102443,-0.000575003,0.00497905,-0.010266,-0.0377532,0.00897643,0.0258697,874,568,-0.795397,4.57036
-343,456,-0.637817,-4.55066,0.0049675,-0.0127081,-0.00123274,0.00505306,-0.0127937,-0.0692952,0.010622,0.0347676,881,568,-0.637806,4.55063
-336,456,-0.63031,-4.96851,0,0,0,0,0,0,0,-1,888,568,-0.630283,4.96849
-329,456,-0.352844,-3.79413,0,0,0,0,0,0,0,-1,895,568,-0.352844,3.79413
-322,456,-0.344421,-3.39081,0,0,0,0,0,0,0,-1,902,568,-0.344438,3.39081
-315,456,-0.675476,-3.38397,0,0,0,0,0,0,0,-1,909,568,-0.675473,3.38399
-308,456,-1.1618,-3.15314,0,0,0,0,0,0,0,-1,916,568,-1.16178,3.15314
-301,456,-1.83551,-3.26447,0,0,0,0,0,0,0,-1,923,568,-1.8355,3.26449
-294,456,-2.93414,-3.35449,0,0,0,0,0,0,0,-1,930,568,-2.93413,3.35451
-287,456,-3.7569,-3.53101,0,0,0,0,0,0,0,-1,937,568,-3.75692,3.53101
-280,456,-3.58478,1.37744,0,0,0,0,0,0,0,-1,944,568,-3.58476,-1.37746
-273,456,-4.14526,0.793213,0,0,0,0,0,0,0,-1,951,568,-4.14529,-0.793201
-266,456,-1.52106,-3.52063,0,0,0,0,0,0,0,-1,958,568,-1.52106,3.52061
-259,456,0,0,0,0,0,0,0,0,0,-1,965,568,0,0
-252,456,0,0,0,0,0,0,0,0,0,-1,972,568,0,0
-245,456,0,0,0,0,0,0,0,0,0,-1,979,568,0,0
-238,456,0,0,0,0,0,0,0,0,0,-1,986,568,0,0
-231,456,0,0,0,0,0,0,0,0,0,-1,993,568,0,0
-224,456,0,0,0,0,0,0,0,0,0,-1,1000,568,0,0
-217,456,0,0,0,0,0,0,0,0,0,-1,1007,568,0,0
-210,456,0,0,0,0,0,0,0,0,0,-1,1014,568,0,0
-203,456,0,0,0,0,0,0,0,0,0,-1,1021,568,0,0
-196,456,0,0,0,0,0,0,0,0,0,-1,1028,568,0,0
-189,456,0,0,0,0,0,0,0,0,0,-1,1035,568,0,0
-182,456,0,0,0,0,0,0,0,0,0,-1,1042,568,0,0
-175,456,0,0,0,0,0,0,0,0,0,-1,1049,568,0,0
-168,456,0,0,0,0,0,0,0,0,0,-1,1056,568,0,0
-161,456,0,0,0,0,0,0,0,0,0,-1,1063,568,0,0
-154,456,0,0,0,0,0,0,0,0,0,-1,1070,568,0,0
-147,456,0,0,0,0,0,0,0,0,0,-1,1077,568,0,0
-140,456,0,0,0,0,0,0,0,0,0,-1,1084,568,0,0
-133,456,0,0,0,0,0,0,0,0,0,-1,1091,568,0,0
-126,456,0,0,0,0,0,0,0,0,0,-1,1098,568,0,0
-119,456,0,0,0,0,0,0,0,0,0,-1,1105,568,0,0
-112,456,0,0,0,0,0,0,0,0,0,-1,1112,568,0,0
-105,456,0,0,0,0,0,0,0,0,0,-1,1119,568,0,0
-98,456,0,0,0,0,0,0,0,0,0,-1,1126,568,0,0
-91,456,0,0,0,0,0,0,0,0,0,-1,1133,568,0,0
-84,456,0,0,0,0,0,0,0,0,0,-1,1140,568,0,0
-77,456,0,0,0,0,0,0,0,0,0,-1,1147,568,0,0
-70,456,0,0,0,0,0,0,0,0,0,-1,1154,568,0,0
-63,456,0,0,0,0,0,0,0,0,0,-1,1161,568,0,0
-56,456,0,0,0,0,0,0,0,0,0,-1,1168,568,0,0
-49,456,0,0,0,0,0,0,0,0,0,-1,1175,568,0,0
-42,456,0,0,0,0,0,0,0,0,0,-1,1182,568,0,0
-35,456,0,0,0,0,0,0,0,0,0,-1,1189,568,0,0
-28,456,0,0,0,0,0,0,0,0,0,-1,1196,568,0,0
-21,456,0,0,0,0,0,0,0,0,0,-1,1203,568,0,0
-14,456,0,0,0,0,0,0,0,0,0,-1,1210,568,0,0
-7,456,0,0,0,0,0,0,0,0,0,-1,1217,568,0,0
0,456,0,0,0,0,0,0,0,0,0,-1,1224,568,0,0
7,456,0,0,0,0,0,0,0,0,0,-1,1231,568,0,0
14,456,0,0,0,0,0,0,0,0,0,-1,1238,568,0,0
21,456,0,0,0,0,0,0,0,0,0,-1,1245,568,0,0
28,456,0,0,0,0,0,0,0,0,0,-1,1252,568,0,0
35,456,0,0,0,0,0,0,0,0,0,-1,1259,568,0,0
42,456,0,0,0,0,0,0,0,0,0,-1,1266,568,0,0
49,456,0,0,0,0,0,0,0,0,0,-1,1273,568,0,0
56,456,0,0,0,0,0,0,0,0,0,-1,1280,568,0,0
63,456,0,0,0,0,0,0,0,0,0,-1,1287,568,0,0
70,456,0,0,0,0,0,0,0,0,0,-1,1294,568,0,0
77,456,0,0,0,0,0,0,0,0,0,-1,1301,568,0,0
84,456,0,0,0,0,0,0,0,0,0,-1,1308,568,0,0
91,456,0,0,0,0,0,0,0,0,0,-1,1315,568,0,0
98,456,0,0,0,0,0,0,0,0,0,-1,1322,568,0,0
105,456,0,0,0,0,0,0,0,0,0,-1,1329,568,0,0
112,456,0,0,0,0,0,0,0,0,0,-1,1336,568,0,0
119,456,0,0,0,0,0,0,0,0,0,-1,1343,568,0,0
126,456,0,0,0,0,0,0,0,0,0,-1,1350,568,0,0
133,456,0,0,0,0,0,0,0,0,0,-1,1357,568,0,0
140,456,0,0,0,0,0,0,0,0,0,-1,1364,568,0,0
147,456,0,0,0,0,0,0,0,0,0,-1,1371,568,0,0
154,456,0,0,0,0,0,0,0,0,0,-1,1378,568,0,0
161,456,0,0,0,0,0,0,0,0,0,-1,1385,568,0,0
168,456,0,0,0,0,0,0,0,0,0,-1,1392,568,0,0
175,456,0,0,0,0,0,0,0,0,0,-1,1399,568,0,0
182,456,0,0,0,0,0,0,0,0,0,-1,1406,568,0,0
189,456,0,0,0,0,0,0,0,0,0,-1,1413,568,0,0
196,456,0,0,0,0,0,0,0,0,0,-1,1420,568,0,0
203,456,0,0,0,0,0,0,0,0,0,-1,1427,568,0,0
210,456,0,0,0,0,0,0,0,0,0,-1,1434,568,0,0
217,456,0,0,0,0,0,0,0,0,0,-1,1441,568,0,0
224,456,0,0,0,0,0,0,0,0,0,-1,1448,568,0,0
231,456,0,0,0,0,0,0,0,0,0,-1,1455,568,0,0
238,456,0,0,0,0,0,0,0,0,0,-1,1462,568,0,0
245,456,0,0,0,0,0,0,0,0,0,-1,1469,568,0,0
252,456,0,0,0,0,0,0,0,0,0,-1,1476,568,0,0
259,456,0,0,0,0,0,0,0,0,0,-1,1483,568,0,0
266,456,0,0,0,0,0,0,0,0,0,-1,1490,568,0,0
273,456,0,0,0,0,0,0,0,0,0,-1,1497,568,0,0
280,456,0,0,0,0,0,0,0,0,0,-1,1504,568,0,0
287,456,0,0,0,0,0,0,0,0,0,-1,1511,568,0,0
294,456,0,0,0,0,0,0,0,0,0,-1,1518,568,0,0
301,456,0,0,0,0,0,0,0,0,0,-1,1525,568,0,0
308,456,0,0,0,0,0,0,0,0,0,-1,1532,568,0,0
315,456,0,0,0,0,0,0,0,0,0,-1,1539,568,0,0
322,456,0,0,0,0,0,0,0,0,0,-1,1546,568,0,0
329,456,0,0,0,0,0,0,0,0,0,-1,1553,568,0,0
336,456,0,0,0,0,0,0,0,0,0,-1,1560,568,0,0
343,456,0,0,0,0,0,0,0,0,0,-1,1567,568,0,0
350,456,0,0,0,0,0,0,0,0,0,-1,1574,568,0,0
357,456,0,0,0,0,0,0,0,0,0,-1,1581,568,0,0
364,456,0,0,0,0,0,0,0,0,0,-1,1588,568,0,0
371,456,0,0,0,0,0,0,0,0,0,-1,1595,568,0,0
378,456,0,0,0,0,0,0,0,0,0,-1,1602,568,0,0
385,456,5.15979,0.492188,0,0,0,0,0,0,0,-1,1609,568,5.15975,-0.492186
392,456,9.61865,2.70856,0,0,0,0,0,0,0,-1,1616,568,9.61862,-2.70856
399,456,11.889,2.58441,0,0,0,0,0,0,0,-1,1623,568,11.889,-2.58444
406,456,14.1594,2.46033,0,0,0,0,0,0,0,-1,1630,568,14.1595,-2.46032
413,456,9.55115,1.49933,0,0,0,0,0,0,0,-1,1637,568,9.55119,-1.49933
420,456,6.33875,1.88824,0,0,0,0,0,0,0,-1,1644,568,6.33876,-1.88827
427,456,6.21375,2.02905,0,0,0,0,0,0,0,-1,1651,568,6.21372,-2.02904
434,456,3.0719,-4.86285,0,0,0,0,0,0,0,-1,1658,568,3.07184,4.86287
441,456,2.90344,-4.70459,0,0,0,0,0,0,0,-1,1665,568,2.90346,4.7046
448,456,3.06995,-4.93689,0,0,0,0,0,0,0,-1,1672,568,3.06991,4.93687
455,456,3.46582,-3.43701,0,0,0,0,0,0,0,-1,1679,568,3.46585,3.43698
462,456,4.68445,-4.45831,0,0,0,0,0,0,0,-1,1686,568,4.68439,4.45833
469,456,4.93201,-2.289,0,0,0,0,0,0,0,-1,1693,568,4.93197,2.28903
476,456,4.8363,-2.79364,0,0,0,0,0,0,0,-1,1700,568,4.83636,2.79363
483,456,5.07495,-3.86383,0,0,0,0,0,0,0,-1,1707,568,5.07492,3.86381
490,456,5.35278,-3.42133,0,0,0,0,0,0,0,-1,1714,568,5.35273,3.42131
497,456,5.36975,-3.11688,-0.00510977,0.00257245,-0.000496937,0.00260446,-0.00514178,-1.50647,0.00455156,0.0248993,1721,568,5.36971,3.11687
504,456,5.37695,-2.89496,-0.00421576,0.00184153,-0.000402153,0.00186811,-0.00424234,-1.50479,0.00361555,0.0109698,1728,568,5.37695,2.89494
511,456,5.38391,-2.71716,-0.0034768,0.00119359,-0.000276793,0.00120994,-0.00349315,-1.51181,0.00281997,0.0139663,1735,568,5.38386,2.71716
518,456,5.38147,-2.55103,-0.00242018,0.000875104,5.72251e-05,0.000876097,-0.00242118,1.55344,0.00197212,0.0162464,1742,568,5.38149,2.55104
525,456,5.38037,-2.39966,-0.00126213,0.000913724,0.00055249,0.00104597,-0.00139438,1.33585,0.00141371,0.0158064,1749,568,5.38039,2.39966
532,456,5.37793,-2.20825,-0.000232785,0.00118588,0.00110345,0.00178832,-0.000835229,1.07106,0.00154767,0.0145555,1756,568,5.37788,2.20825
539,456,5.38208,-2.01544,0.000687191,0.00179059,0.00171649,0.00304187,-0.000564083,0.94089,0.00223974,0.0156158,1763,568,5.38211,2.01545
546,456,5.3833,-1.85785,0.00159948,0.00257991,0.00245488,0.00459304,-0.000413656,0.883946,0.00320881,0.0169538,1770,568,5.38329,1.85785
553,456,5.37805,-1.66504,0.0078914,0.00330228,0.00518194,0.0112641,-7.03926e-05,0.576973,0.00753296,0.0122026,1777,568,5.37808,1.66501
560,456,5.37793,-1.49237,0.0193134,0.00387288,0.00926568,0.0236536,-0.000467336,0.438065,0.0159272,0.0107311,1784,568,5.37794,1.49238
567,456,5.37842,-1.31744,0.0319168,0.00436909,0.0138959,0.0377086,-0.00142274,0.394905,0.0256265,0.0116046,1791,568,5.37841,1.31746
574,456,5.34424,-1.22723,0.0509024,0.00465589,0.0205223,0.058696,-0.00313768,0.362938,0.0402174,0.0265692,1798,568,5.34419,1.22725
581,456,5.23792,-1.02356,0.0779234,0.00451318,0.029684,0.0884243,-0.00598767,0.340016,0.0610434,0.048799,1805,568,5.23792,1.02354
588,456,5.23901,-0.0901489,0,0,0,0,0,0,0,-1,1812,568,5.23906,0.0901656
595,456,6.90063,3.14886,0,0,0,0,0,0,0,-1,1819,568,6.90066,-3.14887
602,456,9.99329,3.05798,0.226831,-0.000173019,0.0776485,0.25085,-0.0241919,0.299993,0.175853,0.0463623,1826,568,9.9933,-3.05798
609,456,13.1351,2.96027,0.30103,-0.00373468,0.100902,0.331408,-0.0341132,0.292438,0.233143,0.0435167,1833,568,13.1351,-2.96027
616,456,16.0509,2.8313,0,0,0,0,0,0,0,-1,1840,568,16.0509,-2.8313
623,456,11.7659,2.72815,0,0,0,0,0,0,0,-1,1847,568,11.7658,-2.72815
630,456,0,0,0,0,0,0,0,0,0,-1,1854,568,0,0
637,456,0,0,0,0,0,0,0,0,0,-1,1861,568,0,0
644,456,0,0,0,0,0,0,0,0,0,-1,1868,568,0,0
651,456,0,0,0,0,0,0,0,0,0,-1,1875,568,0,0
658,456,0,0,0,0,0,0,0,0,0,-1,1882,568,0,0
665,456,0,0,0,0,0,0,0,0,0,-1,1889,568,0,0
672,456,0,0,0,0,0,0,0,0,0,-1,1896,568,0,0
679,456,0,0,0,0,0,0,0,0,0,-1,1903,568,0,0
686,456,0,0,0,0,0,0,0,0,0,-1,1910,568,0,0
693,456,0,0,0,0,0,0,0,0,0,-1,1917,568,0,0
700,456,0,0,0,0,0,0,0,0,0,-1,1924,568,0,0
707,456,0,0,0,0,0,0,0,0,0,-1,1931,568,0,0
714,456,0,0,0,0,0,0,0,0,0,-1,1938,568,0,0
721,456,0,0,0,0,0,0,0,0,0,-1,1945,568,0,0
728,456,0,0,0,0,0,0,0,0,0,-1,1952,568,0,0
735,456,0,0,0,0,0,0,0,0,0,-1,1959,568,0,0
742,456,0,0,0,0,0,0,0,0,0,-1,1966,568,0,0
749,456,0,0,0,0,0,0,0,0,0,-1,1973,568,0,0
756,456,0,0,0,0,0,0,0,0,0,-1,1980,568,0,0
763,456,0,0,0,0,0,0,0,0,0,-1,1987,568,0,0
770,456,0,0,0,0,0,0,0,0,0,-1,1994,568,0,0
777,456,0,0,0,0,0,0,0,0,0,-1,2001,568,0,0
784,456,0,0,0,0,0,0,0,0,0,-1,2008,568,0,0
791,456,0,0,0,0,0,0,0,0,0,-1,2015,568,0,0
798,456,0,0,0,0,0,0,0,0,0,-1,2022,568,0,0
805,456,0,0,0,0,0,0,0,0,0,-1,2029,568,0,0
812,456,0,0,0,0,0,0,0,0,0,-1,2036,568,0,0
-700,449,0,0,0,0,0,0,0,0,0,-1,524,575,0,0
-693,449,0,0,0,0,0,0,0,0,0,-1,531,575,0,0
-686,449,0,0,0,0,0,0,0,0,0,-1,538,575,0,0
-679,449,0,0,0,0,0,0,0,0,0,-1,545,575,0,0
-672,449,0,0,0,0,0,0,0,0,0,-1,552,575,0,0
-665,449,0,0,0,0,0,0,0,0,0,-1,559,575,0,0
-658,449,0,0,0,0,0,0,0,0,0,-1,566,575,0,0
-651,449,0,0,0,0,0,0,0,0,0,-1,573,575,0,0
-644,449,0,0,0,0,0,0,0,0,0,-1,580,575,0,0
-637,449,0,0,0,0,0,0,0,0,0,-1,587,575,0,0
-630,449,0,0,0,0,0,0,0,0,0,-1,594,575,0,0
-623,449,0,0,0,0,0,0,0,0,0,-1,601,575,0,0
-616,449,0,0,0,0,0,0,0,0,0,-1,608,575,0,0
-609,449,0,0,0,0,0,0,0,0,0,-1,615,575,0,0
-602,449,0,0,0,0,0,0,0,0,0,-1,622,575,0,0
-595,449,0,0,0,0,0,0,0,0,0,-1,629,575,0,0
-588,449,0,0,0,0,0,0,0,0,0,-1,636,575,0,0
-581,449,0,0,0,0,0,0,0,0,0,-1,643,575,0,0
-574,449,0,0,0,0,0,0,0,0,0,-1,650,575,0,0
-567,449,0,0,0,0,0,0,0,0,0,-1,657,575,0,0
-560,449,0,0,0,0,0,0,0,0,0,-1,664,575,0,0
-553,449,0,0,0,0,0,0,0,0,0,-1,671,575,0,0
-546,449,0,0,0,0,0,0,0,0,0,-1,678,575,0,0
-539,449,0,0,0,0,0,0,0,0,0,-1,685,575,0,0
-532,449,0,0,0,0,0,0,0,0,0,-1,692,575,0,0
-525,449,0,0,0,0,0,0,0,0,0,-1,699,575,0,0
-518,449,0,0,0,0,0,0,0,0,0,-1,706,575,0,0
-511,449,-0.941345,-4.4519,0,0,0,0,0,0,0,-1,713,575,-0.941356,4.45191
-504,449,-0.813354,-1.30457,0,0,0,0,0,0,0,-1,720,575,-0.813353,1.30454
-497,449,-1.06378,-0.79657,0,0,0,0,0,0,0,-1,727,575,-1.06381,0.796591
-490,449,-2.24689,2.591,0,0,0,0,0,0,0,-1,734,575,-2.24688,-2.59099
-483,449,-2.19177,-1.65717,0,0,0,0,0,0,0,-1,741,575,-2.19175,1.65719
-476,449,-2.70276,-1.01776,0,0,0,0,0,0,0,-1,748,575,-2.70274,1.01776
-469,449,-1.38489,-1.63843,0,0,0,0,0,0,0,-1,755,575,-1.38486,1.63844
-462,449,-1.27618,-2.18591,0,0,0,0,0,0,0,-1,762,575,-1.27618,2.1859
-455,449,-1.27173,-2.37183,0.0216084,0.0125452,-0.0281956,0.0456343,-0.0114806,-0.70572,0.0348852,0.0431826,769,575,-1.2717,2.37183
-448,449,-1.15594,-2.51257,0.0163881,0.011759,-0.0215415,0.0357391,-0.00759192,-0.73188,0.0267187,0.0209282,776,575,-1.15592,2.51257
-441,449,-1.14117,-2.70032,0.0121695,0.0104953,-0.0160995,0.0274537,-0.00478887,-0.759425,0.0200899,0.0126185,783,575,-1.14115,2.70029
-434,449,-1.15833,-2.85187,0.00824432,0.00928268,-0.0111779,0.0199535,-0.0024265,-0.808605,0.0141805,0.0107212,790,575,-1.15832,2.85186
-427,449,-1.15607,-2.99023,0.00542588,0.00762006,-0.00735617,0.0139605,-0.00091456,-0.859422,0.00962635,0.0115175,797,575,-1.15605,2.99025
-420,449,-1.15002,-3.13342,0.00352663,0.00532614,-0.00458141,0.00909531,-0.000242544,-0.88236,0.00614599,0.0122131,804,575,-1.15004,3.13344
-413,449,-1.14197,-3.29285,0.00228594,0.00342889,-0.0029805,0.0058922,-0.000177375,-0.880117,0.00398858,0.00943041,811,575,-1.14196,3.29286
-406,449,-1.17151,-3.46429,0.00160943,0.0017071,-0.0017357,0.00339465,-7.81226e-05,-0.799462,0.00228958,0.00852227,818,575,-1.1715,3.46428
-399,449,-1.18719,-3.61676,0.00135074,0.000213719,-0.00079941,0.00176317,-0.00019872,-0.47631,0.00124698,0.00819245,825,575,-1.18718,3.61679
-392,449,-1.17444,-3.77264,0.00154431,-0.00154071,-0.000172389,0.00155391,-0.00155031,-0.0556484,0.00179223,0.00849268,832,575,-1.17442,3.77262
-385,449,-1.16406,-3.92004,0.00190313,-0.00291547,0.000303108,0.00192212,-0.00293446,0.062575,0.00282418,0.00926297,839,575,-1.16406,3.92004
-378,449,-1.16992,-4.06641,0.00272979,-0.00434985,0.000691969,0.00279679,-0.00441685,0.0965235,0.00419966,0.00928662,846,575,-1.16994,4.06638
-371,449,-1.16278,-4.23419,0.00367287,-0.00614072,0.000608357,0.00371044,-0.00617829,0.0616766,0.00576822,0.0105014,853,575,-1.16275,4.2342
-364,449,-1.1405,-4.4032,0.0041804,-0.00794773,0.000473778,0.00419888,-0.00796621,0.0389852,0.0071349,0.0200724,860,575,-1.14049,4.40319
-357,449,-1.05438,-4.5365,0.00512237,-0.0104112,0.000304982,0.00512835,-0.0104171,0.0196237,0.0091467,0.0317931,867,575,-1.05439,4.53649
-350,449,-0.813232,-4.41901,0.00578898,-0.0133143,-9.74099e-05,0.00578947,-0.0133148,-0.00509895,0.0113115,0.0440652,874,575,-0.813254,4.41903
-343,449,-0.752502,-3.92499,0.00589304,-0.0166678,-0.000736052,0.00591703,-0.0166918,-0.032579,0.0135383,0.0458743,881,575,-0.752503,3.92498
-336,449,-0.675049,-3.73523,0,0,0,0,0,0,0,-1,888,575,-0.675036,3.73526
-329,449,-0.649353,-3.46033,0,0,0,0,0,0,0,-1,895,575,-0.649351,3.46035
-322,449,-0.628845,-3.16669,0,0,0,0,0,0,0,-1,902,575,-0.628861,3.16667
-315,449,-0.540344,-3.21918,0,0,0,0,0,0,0,-1,909,575,-0.540336,3.21917
-308,449,-1.04413,-2.99341,0,0,0,0,0,0,0,-1,916,575,-1.04415,2.99338
-301,449,-1.58691,-2.80725,0,0,0,0,0,0,0,-1,923,575,-1.58692,2.80728
-294,449,-3.71118,-2.76086,0,0,0,0,0,0,0,-1,930,575,-3.71119,2.76087
-287,449,-4.4082,-2.69525,0,0,0,0,0,0,0,-1,937,575,-4.40822,2.69526
-280,449,-5.09955,-2.96295,0,0,0,0,0,0,0,-1,944,575,-5.09953,2.96297
-273,449,0,0,0,0,0,0,0,0,0,-1,951,575,0,0
-266,449,0,0,0,0,0,0,0,0,0,-1,958,575,0,0
-259,449,0,0,0,0,0,0,0,0,0,-1,965,575,0,0
-252,449,0,0,0,0,0,0,0,0,0,-1,972,575,0,0
-245,449,0,0,0,0,0,0,0,0,0,-1,979,575,0,0
-238,449,0,0,0,0,0,0,0,0,0,-1,986,575,0,0
-231,449,0,0,0,0,0,0,0,0,0,-1,993,575,0,0
-224,449,0,0,0,0,0,0,0,0,0,-1,1000,575,0,0
-217,449,0,0,0,0,0,0,0,0,0,-1,1007,575,0,0
-210,449,0,0,0,0,0,0,0,0,0,-1,1014,575,0,0
-203,449,0,0,0,0,0,0,0,0,0,-1,1021,575,0,0
-196,449,0,0,0,0,0,0,0,0,0,-1,1028,575,0,0
-189,449,0,0,0,0,0,0,0,0,0,-1,1035,575,0,0
-182,449,0,0,0,0,0,0,0,0,0,-1,1042,575,0,0
-175,449,0,0,0,0,0,0,0,0,0,-1,1049,575,0,0
-168,449,0,0,0,0,0,0,0,0,0,-1,1056,575,0,0
-161,449,0,0,0,0,0,0,0,0,0,-1,1063,575,0,0
-154,449,0,0,0,0,0,0,0,0,0,-1,1070,575,0,0
-147,449,0,0,0,0,0,0,0,0,0,-1,1077,575,0,0
-140,449,0,0,0,0,0,0,0,0,0,-1,1084,575,0,0
-133,449,0,0,0,0,0,0,0,0,0,-1,1091,575,0,0
-126,449,0,0,0,0,0,0,0,0,0,-1,1098,575,0,0
-119,449,0,0,0,0,0,0,0,0,0,-1,1105,575,0,0
-112,449,0,0,0,0,0,0,0,0,0,-1,1112,575,0,0
-105,449,0,0,0,0,0,0,0,0,0,-1,1119,575,0,0
-98,449,0,0,0,0,0,0,0,0,0,-1,1126,575,0,0
-91,449,0,0,0,0,0,0,0,0,0,-1,1133,575,0,0
-84,449,0,0,0,0,0,0,0,0,0,-1,1140,575,0,0
-77,449,0,0,0,0,0,0,0,0,0,-1,1147,575,0,0
-70,449,0,0,0,0,0,0,0,0,0,-1,1154,575,0,0
-63,449,0,0,0,0,0,0,0,0,0,-1,1161,575,0,0
-56,449,0,0,0,0,0,0,0,0,0,-1,1168,575,0,0
-49,449,0,0,0,0,0,0,0,0,0,-1,1175,575,0,0
-42,449,0,0,0,0,0,0,0,0,0,-1,1182,575,0,0
-35,449,0,0,0,0,0,0,0,0,0,-1,1189,575,0,0
-28,449,0,0,0,0,0,0,0,0,0,-1,1196,575,0,0
-21,449,0,0,0,0,0,0,0,0,0,-1,1203,575,0,0
-14,449,0,0,0,0,0,0,0,0,0,-1,1210,575,0,0
-7,449,0,0,0,0,0,0,0,0,0,-1,1217,575,0,0
0,449,0,0,0,0,0,0,0,0,0,-1,1224,575,0,0
7,449,0,0,0,0,0,0,0,0,0,-1,1231,575,0,0
14,449,0,0,0,0,0,0,0,0,0,-1,1238,575,0,0
21,449,0,0,0,0,0,0,0,0,0,-1,1245,575,0,0
28,449,0,0,0,0,0,0,0,0,0,-1,1252,575,0,0
35,449,0,0,0,0,0,0,0,0,0,-1,1259,575,0,0
42,449,0,0,0,0,0,0,0,0,0,-1,1266,575,0,0
49,449,0,0,0,0,0,0,0,0,0,-1,1273,575,0,0
56,449,0,0,0,0,0,0,0,0,0,-1,1280,575,0,0
63,449,0,0,0,0,0,0,0,0,0,-1,1287,575,0,0
70,449,0,0,0,0,0,0,0,0,0,-1,1294,575,0,0
77,449,0,0,0,0,0,0,0,0,0,-1,1301,575,0,0
84,449,0,0,0,0,0,0,0,0,0,-1,1308,575,0,0
91,449,0,0,0,0,0,0,0,0,0,-1,1315,575,0,0
98,449,0,0,0,0,0,0,0,0,0,-1,1322,575,0,0
105,449,0,0,0,0,0,0,0,0,0,-1,1329,575,0,0
112,449,0,0,0,0,0,0,0,0,0,-1,1336,575,0,0
119,449,0,0,0,0,0,0,0,0,0,-1,1343,575,0,0
126,449,0,0,0,0,0,0,0,0,0,-1,1350,575,0,0
133,449,0,0,0,0,0,0,0,0,0,-1,1357,575,0,0
140,449,0,0,0,0,0,0,0,0,0,-1,1364,575,0,0
147,449,0,0,0,0,0,0,0,0,0,-1,1371,575,0,0
154,449,0,0,0,0,0,0,0,0,0,-1,1378,575,0,0
161,449,0,0,0,0,0,0,0,0,0,-1,1385,575,0,0
168,449,0,0,0,0,0,0,0,0,0,-1,1392,575,0,0
175,449,0,0,0,0,0,0,0,0,0,-1,1399,575,0,0
182,449,0,0,0,0,0,0,0,0,0,-1,1406,575,0,0
189,449,0,0,0,0,0,0,0,0,0,-1,1413,575,0,0
196,449,0,0,0,0,0,0,0,0,0,-1,1420,575,0,0
203,449,0,0,0,0,0,0,0,0,0,-1,1427,575,0,0
210,449,0,0,0,0,0,0,0,0,0,-1,1434,575,0,0
217,449,0,0,0,0,0,0,0,0,0,-1,1441,575,0,0
224,449,0,0,0,0,0,0,0,0,0,-1,1448,575,0,0
231,449,0,0,0,0,0,0,0,0,0,-1,1455,575,0,0
238,449,0,0,0,0,0,0,0,0,0,-1,1462,575,0,0
245,449,0,0,0,0,0,0,0,0,0,-1,1469,575,0,0
252,449,0,0,0,0,0,0,0,0,0,-1,1476,575,0,0
259,449,0,0,0,0,0,0,0,0,0,-1,1483,575,0,0
266,449,0,0,0,0,0,0,0,0,0,-1,1490,575,0,0
273,449,0,0,0,0,0,0,0,0,0,-1,1497,575,0,0
280,449,0,0,0,0,0,0,0,0,0,-1,1504,575,0,0
287,449,0,0,0,0,0,0,0,0,0,-1,1511,575,0,0
294,449,0,0,0,0,0,0,0,0,0,-1,1518,575,0,0
301,449,0,0,0,0,0,0,0,0,0,-1,1525,575,0,0
308,449,0,0,0,0,0,0,0,0,0,-1,1532,575,0,0
315,449,0,0,0,0,0,0,0,0,0,-1,1539,575,0,0
322,449,0,0,0,0,0,0,0,0,0,-1,1546,575,0,0
329,449,0,0,0,0,0,0,0,0,0,-1,1553,575,0,0
336,449,0,0,0,0,0,0,0,0,0,-1,1560,575,0,0
343,449,0,0,0,0,0,0,0,0,0,-1,1567,575,0,0
350,449,0,0,0,0,0,0,0,0,0,-1,1574,575,0,0
357,449,0,0,0,0,0,0,0,0,0,-1,1581,575,0,0
364,449,0,0,0,0,0,0,0,0,0,-1,1588,575,0,0
371,449,0,0,0,0,0,0,0,0,0,-1,1595,575,0,0
378,449,0,0,0,0,0,0,0,0,0,-1,1602,575,0,0
385,449,0,0,0,0,0,0,0,0,0,-1,1609,575,0,0
392,449,7.95471,3.66217,0,0,0,0,0,0,0,-1,1616,575,7.95471,-3.66218
399,449,10.4088,3.30078,0,0,0,0,0,0,0,-1,1623,575,10.4088,-3.30078
406,449,12.8629,2.93939,0,0,0,0,0,0,0,-1,1630,575,12.8629,-2.93939
413,449,13.7874,2.0094,0,0,0,0,0,0,0,-1,1637,575,13.7874,-2.00941
420,449,4.70264,2.21893,0,0,0,0,0,0,0,-1,1644,575,4.70263,-2.21894
427,449,8.96924,-4.53351,0,0,0,0,0,0,0,-1,1651,575,8.96925,4.53353
434,449,4.12927,-7.06952,0,0,0,0,0,0,0,-1,1658,575,4.12932,7.06952
441,449,3.89856,-6.06458,0,0,0,0,0,0,0,-1,1665,575,3.89855,6.06459
448,449,4.03198,-5.18207,0,0,0,0,0,0,0,-1,1672,575,4.03197,5.18207
455,449,4.21948,-4.09467,0,0,0,0,0,0,0,-1,1679,575,4.21952,4.09465
462,449,4.23181,-2.96924,0,0,0,0,0,0,0,-1,1686,575,4.23185,2.96926
469,449,4.51672,-2.95135,0,0,0,0,0,0,0,-1,1693,575,4.51672,2.95135
476,449,4.71838,-1.86688,0,0,0,0,0,0,0,-1,1700,575,4.71842,1.86689
483,449,4.87878,-1.73126,0,0,0,0,0,0,0,-1,1707,575,4.87875,1.73128
490,449,5.73279,-2.74573,0,0,0,0,0,0,0,-1,1714,575,5.73282,2.74575
497,449,5.49402,-3.22888,0,0,0,0,0,0,0,-1,1721,575,5.49405,3.22889
504,449,5.495,-2.90308,-0.00635064,0.00188927,-0.000752725,0.00195746,-0.00641884,-1.48044,0.00505955,0.0275117,1728,575,5.49503,2.90309
511,449,5.54675,-2.72736,-0.00531481,0.00101583,-0.000759332,0.00110563,-0.00540461,-1.45308,0.00402259,0.0110005,1735,575,5.54672,2.72736
518,449,5.56311,-2.55621,-0.00395817,0.000472415,-0.000535533,0.000536227,-0.00402198,-1.4522,0.00287677,0.0137959,1742,575,5.56308,2.55623
525,449,5.5498,-2.39337,-0.00255124,0.000426576,-8.77681e-05,0.000429161,-0.00255382,-1.54136,0.00186216,0.0124292,1749,575,5.54982,2.39335
532,449,5.53369,-2.22052,-0.00136464,0.000601971,0.000371677,0.000669871,-0.00143254,1.3901,0.00124016,0.00932435,1756,575,5.53372,2.2205
539,449,5.52405,-2.02551,-0.000391874,0.00102996,0.000852679,0.00142921,-0.000791121,1.13289,0.00129943,0.0109949,1763,575,5.52404,2.02548
546,449,5.54285,-1.85583,0.000487302,0.001643,0.00142942,0.00260695,-0.000476649,0.977482,0.00191671,0.0183676,1770,575,5.54281,1.85583
553,449,5.53809,-1.67944,0.00526645,0.00221643,0.003488,0.00754825,-6.53693e-05,0.579313,0.0050541,0.0144987,1777,575,5.53808,1.67944
560,449,5.54871,-1.51611,0.0140884,0.00265131,0.0066254,0.0171219,-0.000382158,0.429367,0.0115441,0.014296,1784,575,5.54871,1.51614
567,449,5.54187,-1.34381,0.0237284,0.00301208,0.0101227,0.0278533,-0.0011129,0.386952,0.0189508,0.0101613,1791,575,5.54181,1.3438
574,449,5.54895,-1.14185,0.037969,0.00321438,0.0151239,0.0436287,-0.00244533,0.358088,0.0299342,0.0152191,1798,575,5.54896,1.14184
581,449,5.49414,-0.920959,0.0579936,0.00307847,0.0219483,0.0656878,-0.00461571,0.337173,0.0454087,0.0333998,1805,575,5.49411,0.920965
588,449,5.4032,-0.562256,0.0854463,0.00251478,0.031071,0.0957957,-0.00783465,0.321532,0.0666291,0.0496278,1812,575,5.40318,0.562232
595,449,5.65186,-0.345642,0,0,0,0,0,0,0,-1,1819,575,5.65188,0.34562
602,449,5.81018,-0.312195,0,0,0,0,0,0,0,-1,1826,575,5.81012,0.312211
609,449,10.9318,3.04095,0,0,0,0,0,0,0,-1,1833,575,10.9318,-3.04097
616,449,8.89563,1.21643,0,0,0,0,0,0,0,-1,1840,575,8.89568,-1.21645
623,449,9.83789,-0.0820313,0,0,0,0,0,0,0,-1,1847,575,9.83794,0.0820443
630,449,8.90686,4.99329,0,0,0,0,0,0,0,-1,1854,575,8.90685,-4.99327
637,449,0,0,0,0,0,0,0,0,0,-1,1861,575,0,0
644,449,0,0,0,0,0,0,0,0,0,-1,1868,575,0,0
651,449,0,0,0,0,0,0,0,0,0,-1,1875,575,0,0
658,449,0,0,0,0,0,0,0,0,0,-1,1882,575,0,0
665,449,0,0,0,0,0,0,0,0,0,-1,1889,575,0,0
672,449,0,0,0,0,0,0,0,0,0,-1,1896,575,0,0
679,449,0,0,0,0,0,0,0,0,0,-1,1903,575,0,0
686,449,0,0,0,0,0,0,0,0,0,-1,1910,575,0,0
693,449,0,0,0,0,0,0,0,0,0,-1,1917,575,0,0
700,449,0,0,0,0,0,0,0,0,0,-1,1924,575,0,0
707,449,0,0,0,0,0,0,0,0,0,-1,1931,575,0,0
714,449,0,0,0,0,0,0,0,0,0,-1,1938,575,0,0
721,449,0,0,0,0,0,0,0,0,0,-1,1945,575,0,0
728,449,0,0,0,0,0,0,0,0,0,-1,1952,575,0,0
735,449,0,0,0,0,0,0,0,0,0,-1,1959,575,0,0
742,449,0,0,0,0,0,0,0,0,0,-1,1966,575,0,0
749,449,0,0,0,0,0,0,0,0,0,-1,1973,575,0,0
756,449,0,0,0,0,0,0,0,0,0,-1,1980,575,0,0
763,449,0,0,0,0,0,0,0,0,0,-1,1987,575,0,0
770,449,0,0,0,0,0,0,0,0,0,-1,1994,575,0,0
777,449,0,0,0,0,0,0,0,0,0,-1,2001,575,0,0
784,449,0,0,0,0,0,0,0,0,0,-1,2008,575,0,0
791,449,0,0,0,0,0,0,0,0,0,-1,2015,575,0,0
798,449,0,0,0,0,0,0,0,0,0,-1,2022,575,0,0
805,449,0,0,0,0,0,0,0,0,0,-1,2029,575,0,0
812,449,0,0,0,0,0,0,0,0,0,-1,2036,575,0,0
-700,442,0,0,0,0,0,0,0,0,0,-1,524,582,0,0
-693,442,0,0,0,0,0,0,0,0,0,-1,531,582,0,0
-686,442,0,0,0,0,0,0,0,0,0,-1,538,582,0,0
-679,442,0,0,0,0,0,0,0,0,0,-1,545,582,0,0
-672,442,0,0,0,0,0,0,0,0,0,-1,552,582,0,0
-665,442,0,0,0,0,0,0,0,0,0,-1,559,582,0,0
-658,442,0,0,0,0,0,0,0,0,0,-1,566,582,0,0
-651,442,0,0,0,0,0,0,0,0,0,-1,573,582,0,0
-644,442,0,0,0,0,0,0,0,0,0,-1,580,582,0,0
-637,442,0,0,0,0,0,0,0,0,0,-1,587,582,0,0
-630,442,0,0,0,0,0,0,0,0,0,-1,594,582,0,0
-623,442,0,0,0,0,0,0,0,0,0,-1,601,582,0,0
-616,442,0,0,0,0,0,0,0,0,0,-1,608,582,0,0
-609,442,0,0,0,0,0,0,0,0,0,-1,615,582,0,0
-602,442,0,0,0,0,0,0,0,0,0,-1,622,582,0,0
-595,442,0,0,0,0,0,0,0,0,0,-1,629,582,0,0
-588,442,0,0,0,0,0,0,0,0,0,-1,636,582,0,0
-581,442,0,0,0,0,0,0,0,0,0,-1,643,582,0,0
-574,442,0,0,0,0,0,0,0,0,0,-1,650,582,0,0
-567,442,0,0,0,0,0,0,0,0,0,-1,657,582,0,0
-560,442,0,0,0,0,0,0,0,0,0,-1,664,582,0,0
-553,442,0,0,0,0,0,0,0,0,0,-1,671,582,0,0
-546,442,0,0,0,0,0,0,0,0,0,-1,678,582,0,0
-539,442,0,0,0,0,0,0,0,0,0,-1,685,582,0,0
-532,442,0,0,0,0,0,0,0,0,0,-1,692,582,0,0
-525,442,0,0,0,0,0,0,0,0,0,-1,699,582,0,0
-518,442,0.131653,-3.48492,0,0,0,0,0,0,0,-1,706,582,0.131622,3.4849
-511,442,-1.15607,-3.88239,0,0,0,0,0,0,0,-1,713,582,-1.15607,3.88238
-504,442,-2.24268,-3.98193,0,0,0,0,0,0,0,-1,720,582,-2.24267,3.9819
-497,442,-4.08337,-4.24878,0,0,0,0,0,0,0,-1,727,582,-4.08336,4.24877
-490,442,-1.73291,-1.49493,0,0,0,0,0,0,0,-1,734,582,-1.73294,1.49493
-483,442,-1.76251,-1.81641,0,0,0,0,0,0,0,-1,741,582,-1.76252,1.81643
-476,442,-1.33301,-1.55475,0,0,0,0,0,0,0,-1,748,582,-1.33303,1.55473
-469,442,-1.30969,-1.89587,0,0,0,0,0,0,0,-1,755,582,-1.30972,1.8959
-462,442,-1.3493,-2.21368,0.0213266,0.00816073,-0.0262824,0.0418379,-0.0123506,-0.662688,0.0327934,0.036184,762,582,-1.34931,2.2137
-455,442,-1.3775,-2.41125,0.016348,0.0083127,-0.0202111,0.0329369,-0.0082762,-0.687285,0.0251743,0.0225841,769,582,-1.3775,2.41124
-448,442,-1.32135,-2.53827,0.0122042,0.00779435,-0.0150852,0.0252448,-0.00524625,-0.71283,0.0188239,0.0127416,776,582,-1.32136,2.53826
-441,442,-1.32037,-2.6955,0.00891568,0.00694762,-0.0110027,0.0189782,-0.00311495,-0.740799,0.0138081,0.0133834,783,582,-1.32038,2.6955
-434,442,-1.32648,-2.85181,0.00580698,0.00604346,-0.00730273,0.0132289,-0.00137847,-0.793493,0.00931283,0.0121832,790,582,-1.32646,2.85178
-427,442,-1.33429,-2.98816,0.00362995,0.0047571,-0.00448834,0.00871711,-0.00033006,-0.847854,0.00592449,0.01248,797,582,-1.33431,2.98814
-420,442,-1.32178,-3.13324,0.00220671,0.00293111,-0.00253416,0.00512883,8.99495e-06,-0.856381,0.00341623,0.0134743,804,582,-1.32176,3.13321
-413,442,-1.30804,-3.29193,0.00130499,0.00137732,-0.00146391,0.00280551,-0.000123206,-0.797748,0.00191273,0.0108789,811,582,-1.30807,3.29194
-406,442,-1.32153,-3.46576,0.00085932,-1.42463e-05,-0.000643668,0.00120041,-0.000355337,-0.487294,0.000941347,0.00901375,818,582,-1.32152,3.46574
-399,442,-1.32874,-3.63464,0.000768881,-0.00134967,4.55309e-06,0.00076889,-0.00134968,0.00214914,0.00123838,0.00798878,825,582,-1.32873,3.63461
-392,442,-1.32239,-3.78156,0.00103258,-0.00311414,0.000531336,0.00109958,-0.00318114,0.125435,0.00256703,0.00897357,832,582,-1.32242,3.78155
-385,442,-1.31494,-3.91711,0.00152152,-0.004489,0.000895521,0.00165211,-0.00461959,0.144803,0.00375364,0.0103018,839,582,-1.31493,3.91714
-378,442,-1.31085,-4.05914,0.0024946,-0.00603272,0.00122728,0.00266772,-0.00620584,0.140135,0.00525715,0.0110473,846,582,-1.31087,4.05914
-371,442,-1.29718,-4.21271,0.00363198,-0.00810775,0.00115083,0.00374373,-0.0082195,0.0968011,0.00706627,0.0233231,853,582,-1.29717,4.21269
-364,442,-1.26453,-4.38702,0.00432223,-0.0103464,0.00104097,0.00439574,-0.0104199,0.0704946,0.00878637,0.0419201,860,582,-1.26451,4.38704
-357,442,-1.23956,-4.62775,0,0,0,0,0,0,0,-1,867,582,-1.23954,4.62777
-350,442,-0.874451,-4.34906,0,0,0,0,0,0,0,-1,874,582,-0.874473,4.34903
-343,442,-0.791199,-3.41217,0,0,0,0,0,0,0,-1,881,582,-0.791196,3.41216
-336,442,-0.935913,-3.07611,0,0,0,0,0,0,0,-1,888,582,-0.935899,3.07609
-329,442,-0.952576,-2.76923,0,0,0,0,0,0,0,-1,895,582,-0.952571,2.7692
-322,442,-0.972534,-2.63208,0,0,0,0,0,0,0,-1,902,582,-0.972512,2.6321
-315,442,-0.445557,-2.89764,0,0,0,0,0,0,0,-1,909,582,-0.445582,2.89765
-308,442,-0.654175,-3.07831,0,0,0,0,0,0,0,-1,916,582,-0.654145,3.07832
-301,442,-1.37427,-2.41455,0,0,0,0,0,0,0,-1,923,582,-1.37425,2.41453
-294,442,-1.67377,-2.23328,0,0,0,0,0,0,0,-1,930,582,-1.67378,2.23326
-287,442,-5.00836,-2.38507,0,0,0,0,0,0,0,-1,937,582,-5.00839,2.38506
-280,442,0,0,0,0,0,0,0,0,0,-1,944,582,0,0
-273,442,0,0,0,0,0,0,0,0,0,-1,951,582,0,0
-266,442,0,0,0,0,0,0,0,0,0,-1,958,582,0,0
-259,442,0,0,0,0,0,0,0,0,0,-1,965,582,0,0
-252,442,0,0,0,0,0,0,0,0,0,-1,972,582,0,0
-245,442,0,0,0,0,0,0,0,0,0,-1,979,582,0,0
-238,442,0,0,0,0,0,0,0,0,0,-1,986,582,0,0
-231,442,0,0,0,0,0,0,0,0,0,-1,993,582,0,0
-224,442,0,0,0,0,0,0,0,0,0,-1,1000,582,0,0
-217,442,0,0,0,0,0,0,0,0,0,-1,1007,582,0,0
-210,442,0,0,0,0,0,0,0,0,0,-1,1014,582,0,0
-203,442,0,0,0,0,0,0,0,0,0,-1,1021,582,0,0
-196,442,0,0,0,0,0,0,0,0,0,-1,1028,582,0,0
-189,442,0,0,0,0,0,0,0,0,0,-1,1035,582,0,0
-182,442,0,0,0,0,0,0,0,0,0,-1,1042,582,0,0
-175,442,0,0,0,0,0,0,0,0,0,-1,1049,582,0,0
-168,442,0,0,0,0,0,0,0,0,0,-1,1056,582,0,0
-161,442,0,0,0,0,0,0,0,0,0,-1,1063,582,0,0
-154,442,0,0,0,0,0,0,0,0,0,-1,1070,582,0,0
-147,442,0,0,0,0,0,0,0,0,0,-1,1077,582,0,0
-140,442,0,0,0,0,0,0,0,0,0,-1,1084,582,0,0
-133,442,0,0,0,0,0,0,0,0,0,-1,1091,582,0,0
-126,442,0,0,0,0,0,0,0,0,0,-1,1098,582,0,0
-119,442,0,0,0,0,0,0,0,0,0,-1,1105,582,0,0
-112,442,0,0,0,0,0,0,0,0,0,-1,1112,582,0,0
-105,442,0,0,0,0,0,0,0,0,0,-1,1119,582,0,0
-98,442,0,0,0,0,0,0,0,0,0,-1,1126,582,0,0
-91,442,0,0,0,0,0,0,0,0,0,-1,1133,582,0,0
-84,442,0,0,0,0,0,0,0,0,0,-1,1140,582,0,0
-77,442,0,0,0,0,0,0,0,0,0,-1,1147,582,0,0
-70,442,0,0,0,0,0,0,0,0,0,-1,1154,582,0,0
-63,442,0,0,0,0,0,0,0,0,0,-1,1161,582,0,0
-56,442,0,0,0,0,0,0,0,0,0,-1,1168,582,0,0
-49,442,0,0,0,0,0,0,0,0,0,-1,1175,582,0,0
-42,442,0,0,0,0,0,0,0,0,0,-1,1182,582,0,0
-35,442,0,0,0,0,0,0,0,0,0,-1,1189,582,0,0
-28,442,0,0,0,0,0,0,0,0,0,-1,1196,582,0,0
-21,442,0,0,0,0,0,0,0,0,0,-1,1203,582,0,0
-14,442,0,0,0,0,0,0,0,0,0,-1,1210,582,0,0
-7,442,0,0,0,0,0,0,0,0,0,-1,1217,582,0,0
0,442,0,0,0,0,0,0,0,0,0,-1,1224,582,0,0
7,442,0,0,0,0,0,0,0,0,0,-1,1231,582,0,0
14,442,0,0,0,0,0,0,0,0,0,-1,1238,582,0,0
21,442,0,0,0,0,0,0,0,0,0,-1,1245,582,0,0
28,442,0,0,0,0,0,0,0,0,0,-1,1252,582,0,0
35,442,0,0,0,0,0,0,0,0,0,-1,1259,582,0,0
42,442,0,0,0,0,0,0,0,0,0,-1,1266,582,0,0
49,442,0,0,0,0,0,0,0,0,0,-1,1273,582,0,0
56,442,0,0,0,0,0,0,0,0,0,-1,1280,582,0,0
63,442,0,0,0,0,0,0,0,0,0,-1,1287,582,0,0
70,442,0,0,0,0,0,0,0,0,0,-1,1294,582,0,0
77,442,0,0,0,0,0,0,0,0,0,-1,1301,582,0,0
84,442,0,0,0,0,0,0,0,0,0,-1,1308,582,0,0
91,442,0,0,0,0,0,0,0,0,0,-1,1315,582,0,0
98,442,0,0,0,0,0,0,0,0,0,-1,1322,582,0,0
105,442,0,0,0,0,0,0,0,0,0,-1,1329,582,0,0
112,442,0,0,0,0,0,0,0,0,0,-1,1336,582,0,0
119,442,0,0,0,0,0,0,0,0,0,-1,1343,582,0,0
126,442,0,0,0,0,0,0,0,0,0,-1,1350,582,0,0
133,442,0,0,0,0,0,0,0,0,0,-1,1357,582,0,0
140,442,0,0,0,0,0,0,0,0,0,-1,1364,582,0,0
147,442,0,0,0,0,0,0,0,0,0,-1,1371,582,0,0
154,442,0,0,0,0,0,0,0,0,0,-1,1378,582,0,0
161,442,0,0,0,0,0,0,0,0,0,-1,1385,582,0,0
168,442,0,0,0,0,0,0,0,0,0,-1,1392,582,0,0
175,442,0,0,0,0,0,0,0,0,0,-1,1399,582,0,0
182,442,0,0,0,0,0,0,0,0,0,-1,1406,582,0,0
189,442,0,0,0,0,0,0,0,0,0,-1,1413,582,0,0
196,442,0,0,0,0,0,0,0,0,0,-1,1420,582,0,0
203,442,0,0,0,0,0,0,0,0,0,-1,1427,582,0,0
210,442,0,0,0,0,0,0,0,0,0,-1,1434,582,0,0
217,442,0,0,0,0,0,0,0,0,0,-1,1441,582,0,0
224,442,0,0,0,0,0,0,0,0,0,-1,1448,582,0,0
231,442,0,0,0,0,0,0,0,0,0,-1,1455,582,0,0
238,442,0,0,0,0,0,0,0,0,0,-1,1462,582,0,0
245,442,0,0,0,0,0,0,0,0,0,-1,1469,582,0,0
252,442,0,0,0,0,0,0,0,0,0,-1,1476,582,0,0
259,442,0,0,0,0,0,0,0,0,0,-1,1483,582,0,0
266,442,0,0,0,0,0,0,0,0,0,-1,1490,582,0,0
273,442,0,0,0,0,0,0,0,0,0,-1,1497,582,0,0
280,442,0,0,0,0,0,0,0,0,0,-1,1504,582,0,0
287,442,0,0,0,0,0,0,0,0,0,-1,1511,582,0,0
294,442,0,0,0,0,0,0,0,0,0,-1,1518,582,0,0
301,442,0,0,0,0,0,0,0,0,0,-1,1525,582,0,0
308,442,0,0,0,0,0,0,0,0,0,-1,1532,582,0,0
315,442,0,0,0,0,0,0,0,0,0,-1,1539,582,0,0
322,442,0,0,0,0,0,0,0,0,0,-1,1546,582,0,0
329,442,0,0,0,0,0,0,0,0,0,-1,1553,582,0,0
336,442,0,0,0,0,0,0,0,0,0,-1,1560,582,0,0
343,442,0,0,0,0,0,0,0,0,0,-1,1567,582,0,0
350,442,0,0,0,0,0,0,0,0,0,-1,1574,582,0,0
357,442,0,0,0,0,0,0,0,0,0,-1,1581,582,0,0
364,442,0,0,0,0,0,0,0,0,0,-1,1588,582,0,0
371,442,0,0,0,0,0,0,0,0,0,-1,1595,582,0,0
378,442,0,0,0,0,0,0,0,0,0,-1,1602,582,0,0
385,442,0,0,0,0,0,0,0,0,0,-1,1609,582,0,0
392,442,0,0,0,0,0,0,0,0,0,-1,1616,582,0,0
399,442,0,0,0,0,0,0,0,0,0,-1,1623,582,0,0
406,442,10.3704,2.44556,0,0,0,0,0,0,0,-1,1630,582,10.3703,-2.44558
413,442,3.66699,2.87408,0,0,0,0,0,0,0,-1,1637,582,3.66703,-2.87408
420,442,4.69055,3.09448,0,0,0,0,0,0,0,-1,1644,582,4.69054,-3.0945
427,442,2.44519,-1.35358,0,0,0,0,0,0,0,-1,1651,582,2.44514,1.35361
434,442,8.45898,-3.86719,0,0,0,0,0,0,0,-1,1658,582,8.45904,3.86719
441,442,4.89368,-7.42456,0,0,0,0,0,0,0,-1,1665,582,4.89365,7.42457
448,442,4.7749,-5.88562,0,0,0,0,0,0,0,-1,1672,582,4.7749,5.8856
455,442,4.87024,-4.60687,0,0,0,0,0,0,0,-1,1679,582,4.87019,4.60686
462,442,5.02307,-3.72821,0,0,0,0,0,0,0,-1,1686,582,5.02311,3.7282
469,442,5.12976,-2.98834,0,0,0,0,0,0,0,-1,1693,582,5.12971,2.98834
476,442,5.4624,1.76947,0,0,0,0,0,0,0,-1,1700,582,5.46234,-1.76944
483,442,5.98486,1.87042,0,0,0,0,0,0,0,-1,1707,582,5.98492,-1.87045
490,442,5.04407,-2.35834,0,0,0,0,0,0,0,-1,1714,582,5.04411,2.35837
497,442,6.04651,-3.10858,0,0,0,0,0,0,0,-1,1721,582,6.04655,3.1086
504,442,5.84741,-2.7475,-0.00924832,0.00178113,-0.00117666,0.00190526,-0.00937245,-1.46569,0.00697073,0.0467652,1728,582,5.84737,2.74753
511,442,5.65808,-2.72968,-0.00762975,0.000698037,-0.00126046,0.000884634,-0.00781635,-1.42382,0.00552942,0.0183782,1735,582,5.65811,2.72965
518,442,5.72632,-2.55255,-0.00576546,-4.1826e-05,-0.00109537,0.000160641,-0.00596793,-1.38802,0.00403323,0.0114827,1742,582,5.72637,2.55256
525,442,5.71606,-2.38092,-0.0039653,-0.000130049,-0.000652819,-2.1975e-05,-0.00407337,-1.40673,0.00270829,0.0106214,1749,582,5.71606,2.38089
532,442,5.72424,-2.20361,-0.00250976,-7.58234e-06,-0.0002453,1.62387e-05,-0.00253358,-1.47399,0.00169449,0.00973785,1756,582,5.72427,2.20359
539,442,5.71704,-2.01862,-0.00139165,0.000282439,0.000147386,0.000295316,-0.00140453,1.48365,0.00104874,0.0104566,1763,582,5.71706,2.01862
546,442,5.72363,-1.84851,-0.000462552,0.000781136,0.00060633,0.00102781,-0.000709227,1.18441,0.00100849,0.0129477,1770,582,5.72358,1.84852
553,442,5.70825,-1.67773,0.00298806,0.0012677,0.00207453,0.00437367,-0.000117911,0.588868,0.00295587,0.0143974,1777,582,5.70829,1.67776
560,442,5.71521,-1.5025,0.00961408,0.00163132,0.00441916,0.0115775,-0.000332137,0.418108,0.00783142,0.0146828,1784,582,5.71524,1.50248
567,442,5.70361,-1.33087,0.0168666,0.00192624,0.00701198,0.019642,-0.000849133,0.376885,0.0133867,0.0101933,1791,582,5.70357,1.33089
574,442,5.72217,-1.15881,0.0273342,0.00211106,0.0107318,0.0312823,-0.00183704,0.352522,0.0214934,0.0119699,1798,582,5.72222,1.1588
581,442,5.74707,-0.955383,0.0418528,0.00204434,0.0157039,0.0473018,-0.00340474,0.33399,0.0327286,0.0150784,1805,582,5.74707,0.955394
588,442,5.69995,-0.827576,0.0616616,0.0016732,0.0223338,0.0690632,-0.00572845,0.320019,0.0480656,0.0194181,1812,582,5.69995,0.827585
595,442,5.72302,-0.679871,0.0879533,0.000946509,0.0309381,0.0978326,-0.00893277,0.30909,0.068394,0.0335736,1819,582,5.72305,0.679894
602,442,5.82141,-0.391296,0.121318,3.5418e-05,0.0417393,0.134294,-0.0129408,0.301415,0.0941399,0.0496461,1826,582,5.8214,0.391304
609,442,5.86462,-0.185486,0,0,0,0,0,0,0,-1,1833,582,5.86464,0.185507
616,442,7.16003,-1.18372,0,0,0,0,0,0,0,-1,1840,582,7.16,1.18373
623,442,9.23828,0.326721,0,0,0,0,0,0,0,-1,1847,582,9.23829,-0.326727
630,442,7.74304,2.3924,0,0,0,0,0,0,0,-1,1854,582,7.7431,-2.39238
637,442,5.87805,1.84027,0,0,0,0,0,0,0,-1,1861,582,5.87807,-1.84025
644,442,0,0,0,0,0,0,0,0,0,-1,1868,582,0,0
651,442,0,0,0,0,0,0,0,0,0,-1,1875,582,0,0
658,442,0,0,0,0,0,0,0,0,0,-1,1882,582,0,0
665,442,0,0,0,0,0,0,0,0,0,-1,1889,582,0,0
672,442,0,0,0,0,0,0,0,0,0,-1,1896,582,0,0
679,442,0,0,0,0,0,0,0,0,0,-1,1903,582,0,0
686,442,0,0,0,0,0,0,0,0,0,-1,1910,582,0,0
693,442,0,0,0,0,0,0,0,0,0,-1,1917,582,0,0
700,442,0,0,0,0,0,0,0,0,0,-1,1924,582,0,0
707,442,0,0,0,0,0,0,0,0,0,-1,1931,582,0,0
714,442,0,0,0,0,0,0,0,0,0,-1,1938,582,0,0
721,442,0,0,0,0,0,0,0,0,0,-1,1945,582,0,0
728,442,0,0,0,0,0,0,0,0,0,-1,1952,582,0,0
735,442,0,0,0,0,0,0,0,0,0,-1,1959,582,0,0
742,442,0,0,0,0,0,0,0,0,0,-1,1966,582,0,0
749,442,0,0,0,0,0,0,0,0,0,-1,1973,582,0,0
756,442,0,0,0,0,0,0,0,0,0,-1,1980,582,0,0
763,442,0,0,0,0,0,0,0,0,0,-1,1987,582,0,0
770,442,0,0,0,0,0,0,0,0,0,-1,1994,582,0,0
777,442,0,0,0,0,0,0,0,0,0,-1,2001,582,0,0
784,442,0,0,0,0,0,0,0,0,0,-1,2008,582,0,0
791,442,0,0,0,0,0,0,0,0,0,-1,2015,582,0,0
798,442,0,0,0,0,0,0,0,0,0,-1,2022,582,0,0
805,442,0,0,0,0,0,0,0,0,0,-1,2029,582,0,0
812,442,0,0,0,0,0,0,0,0,0,-1,2036,582,0,0
-700,435,0,0,0,0,0,0,0,0,0,-1,524,589,0,0
-693,435,0,0,0,0,0,0,0,0,0,-1,531,589,0,0
-686,435,0,0,0,0,0,0,0,0,0,-1,538,589,0,0
-679,435,0,0,0,0,0,0,0,0,0,-1,545,589,0,0
-672,435,0,0,0,0,0,0,0,0,0,-1,552,589,0,0
-665,435,0,0,0,0,0,0,0,0,0,-1,559,589,0,0
-658,435,0,0,0,0,0,0,0,0,0,-1,566,589,0,0
-651,435,0,0,0,0,0,0,0,0,0,-1,573,589,0,0
-644,435,0,0,0,0,0,0,0,0,0,-1,580,589,0,0
-637,435,0,0,0,0,0,0,0,0,0,-1,587,589,0,0
-630,435,0,0,0,0,0,0,0,0,0,-1,594,589,0,0
-623,435,0,0,0,0,0,0,0,0,0,-1,601,589,0,0
-616,435,0,0,0,0,0,0,0,0,0,-1,608,589,0,0
-609,435,0,0,0,0,0,0,0,0,0,-1,615,589,0,0
-602,435,0,0,0,0,0,0,0,0,0,-1,622,589,0,0
-595,435,0,0,0,0,0,0,0,0,0,-1,629,589,0,0
-588,435,0,0,0,0,0,0,0,0,0,-1,636,589,0,0
-581,435,0,0,0,0,0,0,0,0,0,-1,643,589,0,0
-574,435,0,0,0,0,0,0,0,0,0,-1,650,589,0,0
-567,435,0,0,0,0,0,0,0,0,0,-1,657,589,0,0
-560,435,0,0,0,0,0,0,0,0,0,-1,664,589,0,0
-553,435,0,0,0,0,0,0,0,0,0,-1,671,589,0,0
-546,435,0,0,0,0,0,0,0,0,0,-1,678,589,0,0
-539,435,0,0,0,0,0,0,0,0,0,-1,685,589,0,0
-532,435,0,0,0,0,0,0,0,0,0,-1,692,589,0,0
-525,435,1.28522,-2.46606,0,0,0,0,0,0,0,-1,699,589,1.28522,2.46607
-518,435,0.071167,-2.88116,0,0,0,0,0,0,0,-1,706,589,0.071157,2.88113
-511,435,-1.16431,-3.28766,0,0,0,0,0,0,0,-1,713,589,-1.16431,3.28763
-504,435,-2.31818,-3.51294,0,0,0,0,0,0,0,-1,720,589,-2.31816,3.51296
-497,435,-3.67499,-3.48743,0,0,0,0,0,0,0,-1,727,589,-3.67499,3.48742
-490,435,-1.33777,-1.79742,0,0,0,0,0,0,0,-1,734,589,-1.33777,1.7974
-483,435,-1.5733,-1.69598,0.027215,0.00499639,-0.0396042,0.0572385,-0.0250272,-0.648658,0.0486946,0.0464155,741,589,-1.5733,1.69599
-476,435,-1.53125,-1.67157,0.0241271,0.00257987,-0.0293843,0.0446506,-0.0179436,-0.609685,0.0372191,0.0452375,748,589,-1.53124,1.67159
-469,435,-1.44574,-1.90442,0.0190762,0.00399562,-0.0234241,0.0361437,-0.0130719,-0.629684,0.029437,0.0282982,755,589,-1.44572,1.90445
-462,435,-1.43036,-2.20422,0.0146986,0.00472715,-0.0181279,0.0285139,-0.00908814,-0.651201,0.0226546,0.014048,762,589,-1.43036,2.20425
-455,435,-1.49152,-2.37726,0.0109789,0.00492522,-0.0136236,0.0219079,-0.00600374,-0.676086,0.0169644,0.0122903,769,589,-1.49154,2.37725
-448,435,-1.47864,-2.53857,0.00796085,0.004565,-0.00985843,0.0162665,-0.00374066,-0.700119,0.0122826,0.0122918,776,589,-1.47866,2.53858
-441,435,-1.4776,-2.68671,0.00561994,0.00399556,-0.00691819,0.0117735,-0.00215796,-0.726966,0.0086584,0.0103809,783,589,-1.47759,2.68673
-434,435,-1.48303,-2.84326,0.00334765,0.00326848,-0.00424708,0.00755533,-0.000939201,-0.780738,0.00537737,0.0111906,790,589,-1.48301,2.84326
-427,435,-1.47986,-2.99615,0.00181579,0.00223105,-0.00222336,0.00425646,-0.000209614,-0.831957,0.00291003,0.00969513,797,589,-1.47987,2.99615
-420,435,-1.48029,-3.14087,0.000863393,0.000757465,-0.000874413,0.00168644,-6.55863e-05,-0.75515,0.00114678,0.0106387,804,589,-1.4803,3.14088
-413,435,-1.47565,-3.29413,0.000293137,-0.000548947,-0.000162894,0.000323549,-0.000579359,-0.184574,0.000528222,0.0106072,811,589,-1.47564,3.29412
-406,435,-1.46887,-3.46295,7.28439e-05,-0.00173089,0.000369936,0.000145768,-0.00180381,0.19463,0.00125396,0.0100138,818,589,-1.46889,3.46298
-399,435,-1.47717,-3.62305,0.000139217,-0.00297067,0.000802921,0.000334282,-0.00316574,0.238327,0.00223029,0.00886924,825,589,-1.4772,3.62306
-392,435,-1.47406,-3.77557,0.000475923,-0.00476412,0.00122518,0.000748231,-0.00503643,0.218705,0.00363281,0.00925288,832,589,-1.47407,3.7756
-385,435,-1.4613,-3.93671,0.00108849,-0.00619072,0.00143752,0.00136209,-0.00646433,0.188079,0.00482806,0.0110882,839,589,-1.46127,3.93668
-378,435,-1.43628,-4.06366,0.00219376,-0.00791691,0.00167694,0.00246464,-0.00818779,0.160148,0.00643927,0.0173953,846,589,-1.43628,4.06365
-371,435,-1.41724,-4.16809,0.00347026,-0.0104316,0.00164564,0.00366241,-0.0106237,0.116236,0.00856829,0.0372136,853,589,-1.41721,4.16809
-364,435,-1.37762,-4.27893,0.00432718,-0.0132623,0.00156771,0.00446582,-0.0134009,0.0882015,0.0107367,0.0489535,860,589,-1.37765,4.27893
-357,435,-1.32654,-4.53949,0,0,0,0,0,0,0,-1,867,589,-1.32655,4.53948
-350,435,-0.86676,-3.69836,0,0,0,0,0,0,0,-1,874,589,-0.866784,3.69834
-343,435,-1.60706,-2.36835,0,0,0,0,0,0,0,-1,881,589,-1.60706,2.36838
-336,435,-2.07263,-1.94012,0,0,0,0,0,0,0,-1,888,589,-2.07265,1.94014
-329,435,-2.55963,-1.5517,0,0,0,0,0,0,0,-1,895,589,-2.5596,1.55168
-322,435,-3.08545,-1.55255,0,0,0,0,0,0,0,-1,902,589,-3.08544,1.55254
-315,435,-0.404297,-2.63763,0,0,0,0,0,0,0,-1,909,589,-0.404276,2.63761
-308,435,-1.70056,-1.90369,0,0,0,0,0,0,0,-1,916,589,-1.70056,1.90367
-301,435,-1.25232,-2.05511,0,0,0,0,0,0,0,-1,923,589,-1.25234,2.05514
-294,435,-1.79974,-1.97321,0,0,0,0,0,0,0,-1,930,589,-1.79973,1.97322
-287,435,0,0,0,0,0,0,0,0,0,-1,937,589,0,0
-280,435,0,0,0,0,0,0,0,0,0,-1,944,589,0,0
-273,435,0,0,0,0,0,0,0,0,0,-1,951,589,0,0
-266,435,0,0,0,0,0,0,0,0,0,-1,958,589,0,0
-259,435,0,0,0,0,0,0,0,0,0,-1,965,589,0,0
-252,435,0,0,0,0,0,0,0,0,0,-1,972,589,0,0
-245,435,0,0,0,0,0,0,0,0,0,-1,979,589,0,0
-238,435,0,0,0,0,0,0,0,0,0,-1,986,589,0,0
-231,435,0,0,0,0,0,0,0,0,0,-1,993,589,0,0
-224,435,0,0,0,0,0,0,0,0,0,-1,1000,589,0,0
-217,435,0,0,0,0,0,0,0,0,0,-1,1007,589,0,0
-210,435,0,0,0,0,0,0,0,0,0,-1,1014,589,0,0
-203,435,0,0,0,0,0,0,0,0,0,-1,1021,589,0,0
-196,435,0,0,0,0,0,0,0,0,0,-1,1028,589,0,0
-189,435,0,0,0,0,0,0,0,0,0,-1,1035,589,0,0
-182,435,0,0,0,0,0,0,0,0,0,-1,1042,589,0,0
-175,435,0,0,0,0,0,0,0,0,0,-1,1049,589,0,0
-168,435,0,0,0,0,0,0,0,0,0,-1,1056,589,0,0
-161,435,0,0,0,0,0,0,0,0,0,-1,1063,589,0,0
-154,435,0,0,0,0,0,0,0,0,0,-1,1070,589,0,0
-147,435,0,0,0,0,0,0,0,0,0,-1,1077,589,0,0
-140,435,0,0,0,0,0,0,0,0,0,-1,1084,589,0,0
-133,435,0,0,0,0,0,0,0,0,0,-1,1091,589,0,0
-126,435,0,0,0,0,0,0,0,0,0,-1,1098,589,0,0
-119,435,0,0,0,0,0,0,0,0,0,-1,1105,589,0,0
-112,435,0,0,0,0,0,0,0,0,0,-1,1112,589,0,0
-105,435,0,0,0,0,0,0,0,0,0,-1,1119,589,0,0
-98,435,0,0,0,0,0,0,0,0,0,-1,1126,589,0,0
-91,435,0,0,0,0,0,0,0,0,0,-1,1133,589,0,0
-84,435,0,0,0,0,0,0,0,0,0,-1,1140,589,0,0
-77,435,0,0,0,0,0,0,0,0,0,-1,1147,589,0,0
-70,435,0,0,0,0,0,0,0,0,0,-1,1154,589,0,0
-63,435,0,0,0,0,0,0,0,0,0,-1,1161,589,0,0
-56,435,0,0,0,0,0,0,0,0,0,-1,1168,589,0,0
-49,435,0,0,0,0,0,0,0,0,0,-1,1175,589,0,0
-42,435,0,0,0,0,0,0,0,0,0,-1,1182,589,0,0
-35,435,0,0,0,0,0,0,0,0,0,-1,1189,589,0,0
-28,435,0,0,0,0,0,0,0,0,0,-1,1196,589,0,0
-21,435,0,0,0,0,0,0,0,0,0,-1,1203,589,0,0
-14,435,0,0,0,0,0,0,0,0,0,-1,1210,589,0,0
-7,435,0,0,0,0,0,0,0,0,0,-1,1217,589,0,0
0,435,0,0,0,0,0,0,0,0,0,-1,1224,589,0,0
7,435,0,0,0,0,0,0,0,0,0,-1,1231,589,0,0
14,435,0,0,0,0,0,0,0,0,0,-1,1238,589,0,0
21,435,0,0,0,0,0,0,0,0,0,-1,1245,589,0,0
28,435,0,0,0,0,0,0,0,0,0,-1,1252,589,0,0
35,435,0,0,0,0,0,0,0,0,0,-1,1259,589,0,0
42,435,0,0,0,0,0,0,0,0,0,-1,1266,589,0,0
49,435,0,0,0,0,0,0,0,0,0,-1,1273,589,0,0
56,435,0,0,0,0,0,0,0,0,0,-1,1280,589,0,0
63,435,0,0,0,0,0,0,0,0,0,-1,1287,589,0,0
70,435,0,0,0,0,0,0,0,0,0,-1,1294,589,0,0
77,435,0,0,0,0,0,0,0,0,0,-1,1301,589,0,0
84,435,0,0,0,0,0,0,0,0,0,-1,1308,589,0,0
91,435,0,0,0,0,0,0,0,0,0,-1,1315,589,0,0
98,435,0,0,0,0,0,0,0,0,0,-1,1322,589,0,0
105,435,0,0,0,0,0,0,0,0,0,-1,1329,589,0,0
112,435,0,0,0,0,0,0,0,0,0,-1,1336,589,0,0
119,435,0,0,0,0,0,0,0,0,0,-1,1343,589,0,0
126,435,0,0,0,0,0,0,0,0,0,-1,1350,589,0,0
133,435,0,0,0,0,0,0,0,0,0,-1,1357,589,0,0
140,435,0,0,0,0,0,0,0,0,0,-1,1364,589,0,0
147,435,0,0,0,0,0,0,0,0,0,-1,1371,589,0,0
154,435,0,0,0,0,0,0,0,0,0,-1,1378,589,0,0
161,435,0,0,0,0,0,0,0,0,0,-1,1385,589,0,0
168,435,0,0,0,0,0,0,0,0,0,-1,1392,589,0,0
175,435,0,0,0,0,0,0,0,0,0,-1,1399,589,0,0
182,435,0,0,0,0,0,0,0,0,0,-1,1406,589,0,0
189,435,0,0,0,0,0,0,0,0,0,-1,1413,589,0,0
196,435,0,0,0,0,0,0,0,0,0,-1,1420,589,0,0
203,435,0,0,0,0,0,0,0,0,0,-1,1427,589,0,0
210,435,0,0,0,0,0,0,0,0,0,-1,1434,589,0,0
217,435,0,0,0,0,0,0,0,0,0,-1,1441,589,0,0
224,435,0,0,0,0,0,0,0,0,0,-1,1448,589,0,0
231,435,0,0,0,0,0,0,0,0,0,-1,1455,589,0,0
238,435,0,0,0,0,0,0,0,0,0,-1,1462,589,0,0
245,435,0,0,0,0,0,0,0,0,0,-1,1469,589,0,0
252,435,0,0,0,0,0,0,0,0,0,-1,1476,589,0,0
259,435,0,0,0,0,0,0,0,0,0,-1,1483,589,0,0
266,435,0,0,0,0,0,0,0,0,0,-1,1490,589,0,0
273,435,0,0,0,0,0,0,0,0,0,-1,1497,589,0,0
280,435,0,0,0,0,0,0,0,0,0,-1,1504,589,0,0
287,435,0,0,0,0,0,0,0,0,0,-1,1511,589,0,0
294,435,0,0,0,0,0,0,0,0,0,-1,1518,589,0,0
301,435,0,0,0,0,0,0,0,0,0,-1,1525,589,0,0
308,435,0,0,0,0,0,0,0,0,0,-1,1532,589,0,0
315,435,0,0,0,0,0,0,0,0,0,-1,1539,589,0,0
322,435,0,0,0,0,0,0,0,0,0,-1,1546,589,0,0
329,435,0,0,0,0,0,0,0,0,0,-1,1553,589,0,0
336,435,0,0,0,0,0,0,0,0,0,-1,1560,589,0,0
343,435,0,0,0,0,0,0,0,0,0,-1,1567,589,0,0
350,435,0,0,0,0,0,0,0,0,0,-1,1574,589,0,0
357,435,0,0,0,0,0,0,0,0,0,-1,1581,589,0,0
364,435,0,0,0,0,0,0,0,0,0,-1,1588,589,0,0
371,435,0,0,0,0,0,0,0,0,0,-1,1595,589,0,0
378,435,0,0,0,0,0,0,0,0,0,-1,1602,589,0,0
385,435,0,0,0,0,0,0,0,0,0,-1,1609,589,0,0
392,435,0,0,0,0,0,0,0,0,0,-1,1616,589,0,0
399,435,0,0,0,0,0,0,0,0,0,-1,1623,589,0,0
406,435,0,0,0,0,0,0,0,0,0,-1,1630,589,0,0
413,435,3.62073,3.42682,0,0,0,0,0,0,0,-1,1637,589,3.62069,-3.4268
420,435,3.6062,3.71564,0,0,0,0,0,0,0,-1,1644,589,3.60616,-3.71562
427,435,3.11963,0.640198,0,0,0,0,0,0,0,-1,1651,589,3.11967,-0.640192
434,435,2.72107,-1.34802,0,0,0,0,0,0,0,-1,1658,589,2.7211,1.34803
441,435,7.33191,-1.57452,0,0,0,0,0,0,0,-1,1665,589,7.33193,1.57452
448,435,7.4585,-0.00292969,0,0,0,0,0,0,0,-1,1672,589,7.45848,0.00294131
455,435,5.49915,-5.047,0,0,0,0,0,0,0,-1,1679,589,5.49914,5.04703
462,435,5.60669,-4.71466,0,0,0,0,0,0,0,-1,1686,589,5.60675,4.71469
469,435,5.87708,1.22351,0,0,0,0,0,0,0,-1,1693,589,5.87703,-1.22351
476,435,6.14136,1.37714,0,0,0,0,0,0,0,-1,1700,589,6.14138,-1.37712
483,435,6.49243,1.36169,0,0,0,0,0,0,0,-1,1707,589,6.49242,-1.36171
490,435,4.38391,-1.36218,0,0,0,0,0,0,0,-1,1714,589,4.38389,1.3622
497,435,7.23499,-3.64551,0,0,0,0,0,0,0,-1,1721,589,7.23495,3.64551
504,435,6.57349,-3.05597,-0.0132613,0.00131716,-0.00170172,0.00151316,-0.0134573,-1.45612,0.00951612,0.0484464,1728,589,6.5735,3.05595
511,435,5.72681,-2.60602,-0.0105995,4.60199e-05,-0.00180476,0.000343661,-0.0108972,-1.40735,0.00738201,0.0357905,1735,589,5.72675,2.60601
518,435,5.8877,-2.55426,-0.00790646,-0.000834126,-0.0016384,-0.000473006,-0.00826758,-1.35386,0.00536101,0.0137866,1742,589,5.88771,2.55424
525,435,5.88672,-2.36707,-0.00548561,-0.000904466,-0.00116081,-0.000627124,-0.00576296,-1.33627,0.00365093,0.011703,1749,589,5.88669,2.36708
532,435,5.9104,-2.18896,-0.00358628,-0.000772696,-0.00076804,-0.000576694,-0.00378228,-1.32093,0.00235297,0.0122403,1756,589,5.91035,2.18899
539,435,5.92261,-2.00549,-0.00219066,-0.000560849,-0.000422764,-0.000457712,-0.00229379,-1.33151,0.00140176,0.0138248,1763,589,5.9226,2.00547
546,435,5.90137,-1.84875,-0.00111346,-0.000101056,-4.08887e-05,-9.94077e-05,-0.00111511,-1.5305,0.000712587,0.0131347,1770,589,5.90137,1.84874
553,435,5.89001,-1.67847,0.00121852,0.000363912,0.000918658,0.00180439,-0.000221958,0.567712,0.00128333,0.00996348,1777,589,5.88999,1.67847
560,435,5.88818,-1.50067,0.00602974,0.000720229,0.00261404,0.00710069,-0.000350724,0.388835,0.00485493,0.00906319,1784,589,5.88818,1.50069
567,435,5.90173,-1.3161,0.0113839,0.00101833,0.00450293,0.0130668,-0.000664575,0.357661,0.00894096,0.00833035,1791,589,5.90175,1.31608
574,435,5.90491,-1.14258,0.0188842,0.0012427,0.0072294,0.0214683,-0.00134136,0.343286,0.0147796,0.00950418,1798,589,5.90488,1.14256
581,435,5.91138,-0.974243,0.0290905,0.00128222,0.0107762,0.0327776,-0.00240485,0.329665,0.0226958,0.0157615,1805,589,5.91132,0.97423
588,435,5.89648,-0.801208,0.0428331,0.00110358,0.0154485,0.0479297,-0.00399303,0.318667,0.0333639,0.0166633,1812,589,5.89649,0.801238
595,435,5.8584,-0.64386,0.0606441,0.000736738,0.0213507,0.0674746,-0.00609376,0.309629,0.0471458,0.0186634,1819,589,5.85837,0.643867
602,435,5.71021,-0.451843,0.0828455,0.000506373,0.0286461,0.091831,-0.00847911,0.303953,0.0642339,0.0380247,1826,589,5.71015,0.451834
609,435,5.55151,-0.257019,0,0,0,0,0,0,0,-1,1833,589,5.55155,0.257009
616,435,5.05151,-2.75269,0,0,0,0,0,0,0,-1,1840,589,5.05157,2.7527
623,435,6.55383,-1.27942,0,0,0,0,0,0,0,-1,1847,589,6.55382,1.27943
630,435,4.72742,-0.87561,0,0,0,0,0,0,0,-1,1854,589,4.7274,0.875636
637,435,5.05286,1.48792,0,0,0,0,0,0,0,-1,1861,589,5.05291,-1.48792
644,435,0,0,0,0,0,0,0,0,0,-1,1868,589,0,0
651,435,0,0,0,0,0,0,0,0,0,-1,1875,589,0,0
658,435,0,0,0,0,0,0,0,0,0,-1,1882,589,0,0
665,435,0,0,0,0,0,0,0,0,0,-1,1889,589,0,0
672,435,0,0,0,0,0,0,0,0,0,-1,1896,589,0,0
679,435,0,0,0,0,0,0,0,0,0,-1,1903,589,0,0
686,435,0,0,0,0,0,0,0,0,0,-1,1910,589,0,0
693,435,0,0,0,0,0,0,0,0,0,-1,1917,589,0,0
700,435,0,0,0,0,0,0,0,0,0,-1,1924,589,0,0
707,435,0,0,0,0,0,0,0,0,0,-1,1931,589,0,0
714,435,0,0,0,0,0,0,0,0,0,-1,1938,589,0,0
721,435,0,0,0,0,0,0,0,0,0,-1,1945,589,0,0
728,435,0,0,0,0,0,0,0,0,0,-1,1952,589,0,0
735,435,0,0,0,0,0,0,0,0,0,-1,1959,589,0,0
742,435,0,0,0,0,0,0,0,0,0,-1,1966,589,0,0
749,435,0,0,0,0,0,0,0,0,0,-1,1973,589,0,0
756,435,0,0,0,0,0,0,0,0,0,-1,1980,589,0,0
763,435,0,0,0,0,0,0,0,0,0,-1,1987,589,0,0
770,435,0,0,0,0,0,0,0,0,0,-1,1994,589,0,0
777,435,0,0,0,0,0,0,0,0,0,-1,2001,589,0,0
784,435,0,0,0,0,0,0,0,0,0,-1,2008,589,0,0
791,435,0,0,0,0,0,0,0,0,0,-1,2015,589,0,0
798,435,0,0,0,0,0,0,0,0,0,-1,2022,589,0,0
805,435,0,0,0,0,0,0,0,0,0,-1,2029,589,0,0
812,435,0,0,0,0,0,0,0,0,0,-1,2036,589,0,0
-700,428,0,0,0,0,0,0,0,0,0,-1,524,596,0,0
-693,428,0,0,0,0,0,0,0,0,0,-1,531,596,0,0
-686,428,0,0,0,0,0,0,0,0,0,-1,538,596,0,0
-679,428,0,0,0,0,0,0,0,0,0,-1,545,596,0,0
-672,428,0,0,0,0,0,0,0,0,0,-1,552,596,0,0
-665,428,0,0,0,0,0,0,0,0,0,-1,559,596,0,0
-658,428,0,0,0,0,0,0,0,0,0,-1,566,596,0,0
-651,428,0,0,0,0,0,0,0,0,0,-1,573,596,0,0
-644,428,0,0,0,0,0,0,0,0,0,-1,580,596,0,0
-637,428,0,0,0,0,0,0,0,0,0,-1,587,596,0,0
-630,428,0,0,0,0,0,0,0,0,0,-1,594,596,0,0
-623,428,0,0,0,0,0,0,0,0,0,-1,601,596,0,0
-616,428,0,0,0,0,0,0,0,0,0,-1,608,596,0,0
-609,428,0,0,0,0,0,0,0,0,0,-1,615,596,0,0
-602,428,0,0,0,0,0,0,0,0,0,-1,622,596,0,0
-595,428,0,0,0,0,0,0,0,0,0,-1,629,596,0,0
-588,428,0,0,0,0,0,0,0,0,0,-1,636,596,0,0
-581,428,0,0,0,0,0,0,0,0,0,-1,643,596,0,0
-574,428,0,0,0,0,0,0,0,0,0,-1,650,596,0,0
-567,428,0,0,0,0,0,0,0,0,0,-1,657,596,0,0
-560,428,0,0,0,0,0,0,0,0,0,-1,664,596,0,0
-553,428,0,0,0,0,0,0,0,0,0,-1,671,596,0,0
-546,428,0,0,0,0,0,0,0,0,0,-1,678,596,0,0
-539,428,0,0,0,0,0,0,0,0,0,-1,685,596,0,0
-532,428,0,0,0,0,0,0,0,0,0,-1,692,596,0,0
-525,428,-9.94873,5.86664,0,0,0,0,0,0,0,-1,699,596,-9.94875,-5.86666
-518,428,-0.227173,-2.38116,0,0,0,0,0,0,0,-1,706,596,-0.227175,2.38115
-511,428,-0.818176,-2.53741,0,0,0,0,0,0,0,-1,713,596,-0.818198,2.53739
-504,428,-2.38135,-2.87598,0,0,0,0,0,0,0,-1,720,596,-2.38134,2.87597
-497,428,-3.40997,-2.75391,0,0,0,0,0,0,0,-1,727,596,-3.40999,2.75389
-490,428,-1.20868,-1.88708,0,0,0,0,0,0,0,-1,734,596,-1.2087,1.88706
-483,428,-1.5481,-1.77795,0.0171835,0.00308753,-0.0281117,0.0391173,-0.0188463,-0.662573,0.0341406,0.0457609,741,596,-1.54812,1.77796
-476,428,-1.73828,-1.75439,0.0153208,9.0824e-05,-0.0192474,0.0284048,-0.0129932,-0.597029,0.024447,0.0341166,748,596,-1.7383,1.75441
-469,428,-1.6062,-2.00275,0.0116677,0.00108001,-0.0149035,0.0221896,-0.0094419,-0.614745,0.0187503,0.017317,755,596,-1.60621,2.00277
-462,428,-1.61768,-2.16199,0.00854493,0.00162931,-0.0111468,0.0167579,-0.0065837,-0.635001,0.0138965,0.0156054,762,596,-1.61769,2.16196
-455,428,-1.65259,-2.3465,0.0059493,0.00181801,-0.0080209,0.0121663,-0.00439896,-0.65937,0.0099082,0.0122477,769,596,-1.65256,2.34647
-448,428,-1.65265,-2.53125,0.00391729,0.0015654,-0.00542792,0.00829519,-0.0028125,-0.678723,0.00666835,0.0109572,776,596,-1.65262,2.53124
-441,428,-1.64435,-2.70013,0.00237729,0.00122188,-0.0034531,0.00530068,-0.0017015,-0.702516,0.00421697,0.012281,783,596,-1.64437,2.70016
-434,428,-1.63477,-2.85693,0.000804755,0.000642506,-0.00165339,0.00237901,-0.000931752,-0.760885,0.00197141,0.00908706,790,596,-1.63475,2.85696
-427,428,-1.61688,-3.00665,-0.00019983,-0.000168049,-0.000294106,0.000110595,-0.000478475,-0.812387,0.000361532,0.00989722,797,596,-1.61689,3.00665
-420,428,-1.62134,-3.1369,-0.000770589,-0.00131492,0.000553231,-0.000426201,-0.00165931,0.556802,0.000995044,0.0110558,804,596,-1.62136,3.13688
-413,428,-1.62433,-3.27515,-0.00106411,-0.00238232,0.000958435,-0.000560018,-0.0028864,0.48419,0.00176742,0.0126114,811,596,-1.62431,3.27516
-406,428,-1.62408,-3.44196,-0.0011396,-0.00340103,0.00126826,-0.000571195,-0.00396943,0.421335,0.00247793,0.0146846,818,596,-1.62406,3.44198
-399,428,-1.63953,-3.61151,-0.000980256,-0.00458633,0.00153465,-0.000415577,-0.00515101,0.352579,0.0033042,0.0138223,825,596,-1.63953,3.61151
-392,428,-1.61969,-3.77429,-0.000576422,-0.00642054,0.00184443,-4.29987e-05,-0.00695396,0.281526,0.00462171,0.0128425,832,596,-1.61972,3.77428
-385,428,-1.62195,-3.96191,0.000105753,-0.00806754,0.00193979,0.000542761,-0.00850455,0.221587,0.00585901,0.0188467,839,596,-1.62192,3.9619
-378,428,-1.63068,-4.06635,0.00123972,-0.0102546,0.00218935,0.00164261,-0.0106575,0.181986,0.00771108,0.0342899,846,596,-1.63069,4.06636
-371,428,-1.55756,-4.07141,0.00268659,-0.013414,0.00225142,0.00299549,-0.0137229,0.136351,0.0102934,0.0472806,853,596,-1.55754,4.07143
-364,428,-1.54895,-4.19769,0,0,0,0,0,0,0,-1,860,596,-1.54896,4.1977
-357,428,-0.868958,-3.06989,0,0,0,0,0,0,0,-1,867,596,-0.868956,3.06986
-350,428,-0.83551,-3.08636,0,0,0,0,0,0,0,-1,874,596,-0.835488,3.08638
-343,428,-0.0567017,-4.80994,0,0,0,0,0,0,0,-1,881,596,-0.0567096,4.80996
-336,428,-3.29175,-1.39569,0,0,0,0,0,0,0,-1,888,596,-3.29172,1.39568
-329,428,-3.71564,-0.791321,0,0,0,0,0,0,0,-1,895,596,-3.71564,0.791299
-322,428,-5.52863,-3.59827,0,0,0,0,0,0,0,-1,902,596,-5.52865,3.59829
-315,428,-4.57172,-1.22052,0,0,0,0,0,0,0,-1,909,596,-4.57171,1.22052
-308,428,-5.26538,-1.1521,0,0,0,0,0,0,0,-1,916,596,-5.26539,1.15209
-301,428,0,0,0,0,0,0,0,0,0,-1,923,596,0,0
-294,428,0,0,0,0,0,0,0,0,0,-1,930,596,0,0
-287,428,0,0,0,0,0,0,0,0,0,-1,937,596,0,0
-280,428,0,0,0,0,0,0,0,0,0,-1,944,596,0,0
-273,428,0,0,0,0,0,0,0,0,0,-1,951,596,0,0
-266,428,0,0,0,0,0,0,0,0,0,-1,958,596,0,0
-259,428,0,0,0,0,0,0,0,0,0,-1,965,596,0,0
-252,428,0,0,0,0,0,0,0,0,0,-1,972,596,0,0
-245,428,0,0,0,0,0,0,0,0,0,-1,979,596,0,0
-238,428,0,0,0,0,0,0,0,0,0,-1,986,596,0,0
-231,428,0,0,0,0,0,0,0,0,0,-1,993,596,0,0
-224,428,0,0,0,0,0,0,0,0,0,-1,1000,596,0,0
-217,428,0,0,0,0,0,0,0,0,0,-1,1007,596,0,0
-210,428,0,0,0,0,0,0,0,0,0,-1,1014,596,0,0
-203,428,0,0,0,0,0,0,0,0,0,-1,1021,596,0,0
-196,428,0,0,0,0,0,0,0,0,0,-1,1028,596,0,0
-189,428,0,0,0,0,0,0,0,0,0,-1,1035,596,0,0
-182,428,0,0,0,0,0,0,0,0,0,-1,1042,596,0,0
-175,428,0,0,0,0,0,0,0,0,0,-1,1049,596,0,0
-168,428,0,0,0,0,0,0,0,0,0,-1,1056,596,0,0
-161,428,0,0,0,0,0,0,0,0,0,-1,1063,596,0,0
-154,428,0,0,0,0,0,0,0,0,0,-1,1070,596,0,0
-147,428,0,0,0,0,0,0,0,0,0,-1,1077,596,0,0
-140,428,0,0,0,0,0,0,0,0,0,-1,1084,596,0,0
-133,428,0,0,0,0,0,0,0,0,0,-1,1091,596,0,0
-126,428,0,0,0,0,0,0,0,0,0,-1,1098,596,0,0
-119,428,0,0,0,0,0,0,0,0,0,-1,1105,596,0,0
-112,428,0,0,0,0,0,0,0,0,0,-1,1112,596,0,0
-105,428,0,0,0,0,0,0,0,0,0,-1,1119,596,0,0
-98,428,0,0,0,0,0,0,0,0,0,-1,1126,596,0,0
-91,428,0,0,0,0,0,0,0,0,0,-1,1133,596,0,0
-84,428,0,0,0,0,0,0,0,0,0,-1,1140,596,0,0
-77,428,0,0,0,0,0,0,0,0,0,-1,1147,596,0,0
-70,428,0,0,0,0,0,0,0,0,0,-1,1154,596,0,0
-63,428,0,0,0,0,0,0,0,0,0,-1,1161,596,0,0
-56,428,0,0,0,0,0,0,0,0,0,-1,1168,596,0,0
-49,428,0,0,0,0,0,0,0,0,0,-1,1175,596,0,0
-42,428,0,0,0,0,0,0,0,0,0,-1,1182,596,0,0
-35,428,0,0,0,0,0,0,0,0,0,-1,1189,596,0,0
-28,428,0,0,0,0,0,0,0,0,0,-1,1196,596,0,0
-21,428,0,0,0,0,0,0,0,0,0,-1,1203,596,0,0
-14,428,0,0,0,0,0,0,0,0,0,-1,1210,596,0,0
-7,428,0,0,0,0,0,0,0,0,0,-1,1217,596,0,0
0,428,0,0,0,0,0,0,0,0,0,-1,1224,596,0,0
7,428,0,0,0,0,0,0,0,0,0,-1,1231,596,0,0
14,428,0,0,0,0,0,0,0,0,0,-1,1238,596,0,0
21,428,0,0,0,0,0,0,0,0,0,-1,1245,596,0,0
28,428,0,0,0,0,0,0,0,0,0,-1,1252,596,0,0
35,428,0,0,0,0,0,0,0,0,0,-1,1259,596,0,0
42,428,0,0,0,0,0,0,0,0,0,-1,1266,596,0,0
49,428,0,0,0,0,0,0,0,0,0,-1,1273,596,0,0
56,428,0,0,0,0,0,0,0,0,0,-1,1280,596,0,0
63,428,0,0,0,0,0,0,0,0,0,-1,1287,596,0,0
70,428,0,0,0,0,0,0,0,0,0,-1,1294,596,0,0
77,428,0,0,0,0,0,0,0,0,0,-1,1301,596,0,0
84,428,0,0,0,0,0,0,0,0,0,-1,1308,596,0,0
91,428,0,0,0,0,0,0,0,0,0,-1,1315,596,0,0
98,428,0,0,0,0,0,0,0,0,0,-1,1322,596,0,0
105,428,0,0,0,0,0,0,0,0,0,-1,1329,596,0,0
112,428,0,0,0,0,0,0,0,0,0,-1,1336,596,0,0
119,428,0,0,0,0,0,0,0,0,0,-1,1343,596,0,0
126,428,0,0,0,0,0,0,0,0,0,-1,1350,596,0,0
133,428,0,0,0,0,0,0,0,0,0,-1,1357,596,0,0
140,428,0,0,0,0,0,0,0,0,0,-1,1364,596,0,0
147,428,0,0,0,0,0,0,0,0,0,-1,1371,596,0,0
154,428,0,0,0,0,0,0,0,0,0,-1,1378,596,0,0
161,428,0,0,0,0,0,0,0,0,0,-1,1385,596,0,0
168,428,0,0,0,0,0,0,0,0,0,-1,1392,596,0,0
175,428,0,0,0,0,0,0,0,0,0,-1,1399,596,0,0
182,428,0,0,0,0,0,0,0,0,0,-1,1406,596,0,0
189,428,0,0,0,0,0,0,0,0,0,-1,1413,596,0,0
196,428,0,0,0,0,0,0,0,0,0,-1,1420,596,0,0
203,428,0,0,0,0,0,0,0,0,0,-1,1427,596,0,0
210,428,0,0,0,0,0,0,0,0,0,-1,1434,596,0,0
217,428,0,0,0,0,0,0,0,0,0,-1,1441,596,0,0
224,428,0,0,0,0,0,0,0,0,0,-1,1448,596,0,0
231,428,0,0,0,0,0,0,0,0,0,-1,1455,596,0,0
238,428,0,0,0,0,0,0,0,0,0,-1,1462,596,0,0
245,428,0,0,0,0,0,0,0,0,0,-1,1469,596,0,0
252,428,0,0,0,0,0,0,0,0,0,-1,1476,596,0,0
259,428,0,0,0,0,0,0,0,0,0,-1,1483,596,0,0
266,428,0,0,0,0,0,0,0,0,0,-1,1490,596,0,0
273,428,0,0,0,0,0,0,0,0,0,-1,1497,596,0,0
280,428,0,0,0,0,0,0,0,0,0,-1,1504,596,0,0
287,428,0,0,0,0,0,0,0,0,0,-1,1511,596,0,0
294,428,0,0,0,0,0,0,0,0,0,-1,1518,596,0,0
301,428,0,0,0,0,0,0,0,0,0,-1,1525,596,0,0
308,428,0,0,0,0,0,0,0,0,0,-1,1532,596,0,0
315,428,0,0,0,0,0,0,0,0,0,-1,1539,596,0,0
322,428,0,0,0,0,0,0,0,0,0,-1,1546,596,0,0
329,428,0,0,0,0,0,0,0,0,0,-1,1553,596,0,0
336,428,0,0,0,0,0,0,0,0,0,-1,1560,596,0,0
343,428,0,0,0,0,0,0,0,0,0,-1,1567,596,0,0
350,428,0,0,0,0,0,0,0,0,0,-1,1574,596,0,0
357,428,0,0,0,0,0,0,0,0,0,-1,1581,596,0,0
364,428,0,0,0,0,0,0,0,0,0,-1,1588,596,0,0
371,428,0,0,0,0,0,0,0,0,0,-1,1595,596,0,0
378,428,0,0,0,0,0,0,0,0,0,-1,1602,596,0,0
385,428,0,0,0,0,0,0,0,0,0,-1,1609,596,0,0
392,428,0,0,0,0,0,0,0,0,0,-1,1616,596,0,0
399,428,0,0,0,0,0,0,0,0,0,-1,1623,596,0,0
406,428,0,0,0,0,0,0,0,0,0,-1,1630,596,0,0
413,428,0,0,0,0,0,0,0,0,0,-1,1637,596,0,0
420,428,2.95886,0.551819,0,0,0,0,0,0,0,-1,1644,596,2.9589,-0.551797
427,428,3.19385,0.384705,0,0,0,0,0,0,0,-1,1651,596,3.19383,-0.384692
434,428,8.18152,1.80432,0,0,0,0,0,0,0,-1,1658,596,8.18148,-1.80434
441,428,8.17993,0.607483,0,0,0,0,0,0,0,-1,1665,596,8.17997,-0.607513
448,428,7.84338,-0.385986,0,0,0,0,0,0,0,-1,1672,596,7.84336,0.385978
455,428,6.64038,2.1123,0,0,0,0,0,0,0,-1,1679,596,6.64037,-2.11229
462,428,4.84106,4.12341,0,0,0,0,0,0,0,-1,1686,596,4.84107,-4.12339
469,428,7.83789,3.10083,0,0,0,0,0,0,0,-1,1693,596,7.83785,-3.10086
476,428,7.61255,1.73956,0,0,0,0,0,0,0,-1,1700,596,7.61252,-1.73958
483,428,7.22766,1.05121,0,0,0,0,0,0,0,-1,1707,596,7.2277,-1.05121
490,428,5.4071,-3.2793,0,0,0,0,0,0,0,-1,1714,596,5.40707,3.27929
497,428,7.84106,-3.65491,0,0,0,0,0,0,0,-1,1721,596,7.84107,3.65491
504,428,6.92139,-2.83356,0,0,0,0,0,0,0,-1,1728,596,6.92137,2.83353
511,428,5.87781,-2.67084,0,0,0,0,0,0,0,-1,1735,596,5.87778,2.67082
518,428,6.12451,-2.55426,-0.00974649,-0.00136293,-0.00203737,-0.00089404,-0.0102154,-1.34459,0.00653267,0.0478978,1742,596,6.12451,2.55427
525,428,5.9928,-2.41449,-0.00672521,-0.00142451,-0.00153619,-0.00101149,-0.00713823,-1.30815,0.00446006,0.0266694,1749,596,5.99279,2.41447
532,428,6.05884,-2.16785,-0.004503,-0.00130181,-0.00117802,-0.000915036,-0.00488977,-1.25356,0.00300169,0.0163263,1756,596,6.05878,2.16784
539,428,6.09741,-2.00415,-0.00298563,-0.00119979,-0.000895293,-0.000828255,-0.00335717,-1.17743,0.00201946,0.0188853,1763,596,6.09747,2.00416
546,428,6.08032,-1.84778,-0.00190929,-0.000806815,-0.000602399,-0.000541507,-0.0021746,-1.15594,0.00130717,0.0152928,1770,596,6.08032,1.8478
553,428,6.05969,-1.67316,-0.000615835,-0.000400962,-9.73831e-05,-0.000363395,-0.000653402,-1.20262,0.000378034,0.0103522,1777,596,6.0597,1.67318
560,428,6.07422,-1.49329,0.00266226,-8.62391e-05,0.00105915,0.00302305,-0.000447027,0.328312,0.00217971,0.0110402,1784,596,6.07427,1.49328
567,428,6.09277,-1.3222,0.00651474,0.000185986,0.00240129,0.0073227,-0.000621978,0.324571,0.00510178,0.0101698,1791,596,6.09274,1.32221
574,428,6.09192,-1.15668,0.0117718,0.000412635,0.00437579,0.013262,-0.00107753,0.328228,0.0092215,0.012009,1798,596,6.09193,1.15669
581,428,6.07532,-0.972595,0.0187792,0.000510578,0.00686151,0.0210692,-0.00177947,0.322129,0.0146753,0.0107687,1805,596,6.07527,0.972617
588,428,6.06909,-0.792725,0.0280978,0.000464018,0.0101019,0.0313968,-0.00283499,0.315655,0.0219374,0.0141963,1812,596,6.06903,0.79275
595,428,6.04395,-0.617249,0.0398274,0.000334134,0.014033,0.0443058,-0.00414434,0.308921,0.0310111,0.00950705,1819,596,6.04397,0.617278
602,428,6.01611,-0.442505,0.0541207,0.000443036,0.0187531,0.0600234,-0.00545957,0.304937,0.041954,0.0195899,1826,596,6.01615,0.442511
609,428,5.9895,-0.228577,0,0,0,0,0,0,0,-1,1833,596,5.98951,0.228606
616,428,5.88977,-0.239319,0,0,0,0,0,0,0,-1,1840,596,5.88983,0.239293
623,428,6.41541,0.466675,0,0,0,0,0,0,0,-1,1847,596,6.41543,-0.466696
630,428,4.94434,0.773193,0,0,0,0,0,0,0,-1,1854,596,4.9443,-0.773171
637,428,3.95435,1.90857,0,0,0,0,0,0,0,-1,1861,596,3.95439,-1.90858
644,428,5.75476,0.888977,0,0,0,0,0,0,0,-1,1868,596,5.75472,-0.888955
651,428,0,0,0,0,0,0,0,0,0,-1,1875,596,0,0
658,428,0,0,0,0,0,0,0,0,0,-1,1882,596,0,0
665,428,0,0,0,0,0,0,0,0,0,-1,1889,596,0,0
672,428,0,0,0,0,0,0,0,0,0,-1,1896,596,0,0
679,428,0,0,0,0,0,0,0,0,0,-1,1903,596,0,0
686,428,0,0,0,0,0,0,0,0,0,-1,1910,596,0,0
693,428,0,0,0,0,0,0,0,0,0,-1,1917,596,0,0
700,428,0,0,0,0,0,0,0,0,0,-1,1924,596,0,0
707,428,0,0,0,0,0,0,0,0,0,-1,1931,596,0,0
714,428,0,0,0,0,0,0,0,0,0,-1,1938,596,0,0
721,428,0,0,0,0,0,0,0,0,0,-1,1945,596,0,0
728,428,0,0,0,0,0,0,0,0,0,-1,1952,596,0,0
735,428,0,0,0,0,0,0,0,0,0,-1,1959,596,0,0
742,428,0,0,0,0,0,0,0,0,0,-1,1966,596,0,0
749,428,0,0,0,0,0,0,0,0,0,-1,1973,596,0,0
756,428,0,0,0,0,0,0,0,0,0,-1,1980,596,0,0
763,428,0,0,0,0,0,0,0,0,0,-1,1987,596,0,0
770,428,0,0,0,0,0,0,0,0,0,-1,1994,596,0,0
777,428,0,0,0,0,0,0,0,0,0,-1,2001,596,0,0
784,428,0,0,0,0,0,0,0,0,0,-1,2008,596,0,0
791,428,0,0,0,0,0,0,0,0,0,-1,2015,596,0,0
798,428,0,0,0,0,0,0,0,0,0,-1,2022,596,0,0
805,428,0,0,0,0,0,0,0,0,0,-1,2029,596,0,0
812,428,0,0,0,0,0,0,0,0,0,-1,2036,596,0,0
-700,421,0,0,0,0,0,0,0,0,0,-1,524,603,0,0
-693,421,0,0,0,0,0,0,0,0,0,-1,531,603,0,0
-686,421,0,0,0,0,0,0,0,0,0,-1,538,603,0,0
-679,421,0,0,0,0,0,0,0,0,0,-1,545,603,0,0
-672,421,0,0,0,0,0,0,0,0,0,-1,552,603,0,0
-665,421,0,0,0,0,0,0,0,0,0,-1,559,603,0,0
-658,421,0,0,0,0,0,0,0,0,0,-1,566,603,0,0
-651,421,0,0,0,0,0,0,0,0,0,-1,573,603,0,0
-644,421,0,0,0,0,0,0,0,0,0,-1,580,603,0,0
-637,421,0,0,0,0,0,0,0,0,0,-1,587,603,0,0
-630,421,0,0,0,0,0,0,0,0,0,-1,594,603,0,0
-623,421,0,0,0,0,0,0,0,0,0,-1,601,603,0,0
-616,421,0,0,0,0,0,0,0,0,0,-1,608,603,0,0
-609,421,0,0,0,0,0,0,0,0,0,-1,615,603,0,0
-602,421,0,0,0,0,0,0,0,0,0,-1,622,603,0,0
-595,421,0,0,0,0,0,0,0,0,0,-1,629,603,0,0
-588,421,0,0,0,0,0,0,0,0,0,-1,636,603,0,0
-581,421,0,0,0,0,0,0,0,0,0,-1,643,603,0,0
-574,421,0,0,0,0,0,0,0,0,0,-1,650,603,0,0
-567,421,0,0,0,0,0,0,0,0,0,-1,657,603,0,0
-560,421,0,0,0,0,0,0,0,0,0,-1,664,603,0,0
-553,421,0,0,0,0,0,0,0,0,0,-1,671,603,0,0
-546,421,0,0,0,0,0,0,0,0,0,-1,678,603,0,0
-539,421,0,0,0,0,0,0,0,0,0,-1,685,603,0,0
-532,421,-9.85718,5.32794,0,0,0,0,0,0,0,-1,692,603,-9.85718,-5.32797
-525,421,-10.3297,5.08777,0,0,0,0,0,0,0,-1,699,603,-10.3297,-5.08777
-518,421,-9.51392,5.47845,0,0,0,0,0,0,0,-1,706,603,-9.51391,-5.47846
-511,421,-1.85492,-3.3161,0,0,0,0,0,0,0,-1,713,603,-1.85494,3.31612
-504,421,-2.57458,-2.5722,0,0,0,0,0,0,0,-1,720,603,-2.57456,2.57223
-497,421,-1.61987,-1.68799,0,0,0,0,0,0,0,-1,727,603,-1.61986,1.68799
-490,421,-1.79346,-1.6637,0.00871772,0.00927886,-0.0303417,0.0393413,-0.0213447,-0.790022,0.0355469,0.0464526,734,603,-1.79347,1.66368
-483,421,-1.77435,-1.67908,0.00975782,0.00167933,-0.018278,0.0244376,-0.0130004,-0.676651,0.0219485,0.0351821,741,603,-1.77436,1.67907
-476,421,-1.82086,-1.86359,0.00910102,-0.00140981,-0.0109021,0.0159483,-0.0082571,-0.560804,0.0142082,0.0184698,748,603,-1.82088,1.86356
-469,421,-1.79126,-2.02893,0.00673285,-0.000496472,-0.00817353,0.0120553,-0.00581895,-0.577207,0.010527,0.0145615,755,603,-1.79125,2.02892
-462,421,-1.78223,-2.19171,0.00459223,5.25089e-05,-0.00588088,0.00862611,-0.00398136,-0.60122,0.00744176,0.0168962,762,603,-1.7822,2.1917
-455,421,-1.78888,-2.33771,0.00276028,0.000289053,-0.00398686,0.00569861,-0.00264927,-0.635131,0.00492566,0.0180109,769,603,-1.7889,2.3377
-448,421,-1.81262,-2.52234,0.00130479,0.000102231,-0.00237727,0.00315564,-0.00174862,-0.661532,0.00287006,0.0180959,776,603,-1.8126,2.52235
-441,421,-1.8006,-2.70679,0.000133556,-0.000145382,-0.00114099,0.00114356,-0.00115539,-0.724582,0.00132731,0.0139786,783,603,-1.80057,2.7068
-434,421,-1.80096,-2.85492,-0.00112716,-0.000723999,1.44617e-05,-0.000723481,-0.00112768,1.53499,0.000659706,0.0096654,790,603,-1.80097,2.85492
-427,421,-1.78027,-2.99335,-0.00198716,-0.0015001,0.000948931,-0.000763949,-0.00272331,0.911004,0.00162201,0.00885122,797,603,-1.78025,2.99337
-420,421,-1.78156,-3.12897,-0.00252658,-0.00255405,0.00153286,-0.00100739,-0.00407323,0.780918,0.00244974,0.010937,804,603,-1.78158,3.12894
-413,421,-1.78949,-3.29059,-0.00288995,-0.00364504,0.00188342,-0.00134661,-0.00518838,0.686481,0.00310883,0.0128504,811,603,-1.7895,3.29056
-406,421,-1.80261,-3.47437,-0.00306158,-0.00477332,0.00216115,-0.001593,-0.0062419,0.596861,0.00374496,0.0174091,818,603,-1.80262,3.47439
-399,421,-1.7915,-3.66003,-0.00295786,-0.0061343,0.00238173,-0.00168337,-0.00740879,0.491339,0.00448465,0.0157745,825,603,-1.79151,3.66003
-392,421,-1.79492,-3.78552,-0.00259361,-0.00821032,0.00265786,-0.0015353,-0.00926863,0.378936,0.00573622,0.016932,832,603,-1.7949,3.78552
-385,421,-1.87445,-4.01807,-0.00200146,-0.0103191,0.00274761,-0.00117579,-0.0111448,0.291919,0.0070706,0.0372366,839,603,-1.87444,4.01804
-378,421,-1.96161,-4.28809,0,0,0,0,0,0,0,-1,846,603,-1.96164,4.28812
-371,421,-1.83795,-4.18494,0,0,0,0,0,0,0,-1,853,603,-1.83793,4.18496
-364,421,-3.55609,-7.24316,0,0,0,0,0,0,0,-1,860,603,-3.5561,7.24316
-357,421,-1.39752,-2.55725,0,0,0,0,0,0,0,-1,867,603,-1.39755,2.55724
-350,421,-0.568542,-6.99695,0,0,0,0,0,0,0,-1,874,603,-0.568545,6.99693
-343,421,-2.70099,-2.13391,0,0,0,0,0,0,0,-1,881,603,-2.70101,2.13393
-336,421,-4.78381,-1.46234,0,0,0,0,0,0,0,-1,888,603,-4.78379,1.46232
-329,421,-4.50134,-1.49469,0,0,0,0,0,0,0,-1,895,603,-4.50137,1.49468
-322,421,-4.26563,-1.38239,0,0,0,0,0,0,0,-1,902,603,-4.26559,1.3824
-315,421,-4.47821,-1.26733,0,0,0,0,0,0,0,-1,909,603,-4.47824,1.26732
-308,421,0,0,0,0,0,0,0,0,0,-1,916,603,0,0
-301,421,0,0,0,0,0,0,0,0,0,-1,923,603,0,0
-294,421,0,0,0,0,0,0,0,0,0,-1,930,603,0,0
-287,421,0,0,0,0,0,0,0,0,0,-1,937,603,0,0
-280,421,0,0,0,0,0,0,0,0,0,-1,944,603,0,0
-273,421,0,0,0,0,0,0,0,0,0,-1,951,603,0,0
-266,421,0,0,0,0,0,0,0,0,0,-1,958,603,0,0
-259,421,0,0,0,0,0,0,0,0,0,-1,965,603,0,0
-252,421,0,0,0,0,0,0,0,0,0,-1,972,603,0,0
-245,421,0,0,0,0,0,0,0,0,0,-1,979,603,0,0
-238,421,0,0,0,0,0,0,0,0,0,-1,986,603,0,0
-231,421,0,0,0,0,0,0,0,0,0,-1,993,603,0,0
-224,421,0,0,0,0,0,0,0,0,0,-1,1000,603,0,0
-217,421,0,0,0,0,0,0,0,0,0,-1,1007,603,0,0
-210,421,0,0,0,0,0,0,0,0,0,-1,1014,603,0,0
-203,421,0,0,0,0,0,0,0,0,0,-1,1021,603,0,0
-196,421,0,0,0,0,0,0,0,0,0,-1,1028,603,0,0
-189,421,0,0,0,0,0,0,0,0,0,-1,1035,603,0,0
-182,421,0,0,0,0,0,0,0,0,0,-1,1042,603,0,0
-175,421,0,0,0,0,0,0,0,0,0,-1,1049,603,0,0
-168,421,0,0,0,0,0,0,0,0,0,-1,1056,603,0,0
-161,421,0,0,0,0,0,0,0,0,0,-1,1063,603,0,0
-154,421,0,0,0,0,0,0,0,0,0,-1,1070,603,0,0
-147,421,0,0,0,0,0,0,0,0,0,-1,1077,603,0,0
-140,421,0,0,0,0,0,0,0,0,0,-1,1084,603,0,0
-133,421,0,0,0,0,0,0,0,0,0,-1,1091,603,0,0
-126,421,0,0,0,0,0,0,0,0,0,-1,1098,603,0,0
-119,421,0,0,0,0,0,0,0,0,0,-1,1105,603,0,0
-112,421,0,0,0,0,0,0,0,0,0,-1,1112,603,0,0
-105,421,0,0,0,0,0,0,0,0,0,-1,1119,603,0,0
-98,421,0,0,0,0,0,0,0,0,0,-1,1126,603,0,0
-91,421,0,0,0,0,0,0,0,0,0,-1,1133,603,0,0
-84,421,0,0,0,0,0,0,0,0,0,-1,1140,603,0,0
-77,421,0,0,0,0,0,0,0,0,0,-1,1147,603,0,0
-70,421,0,0,0,0,0,0,0,0,0,-1,1154,603,0,0
-63,421,0,0,0,0,0,0,0,0,0,-1,1161,603,0,0
-56,421,0,0,0,0,0,0,0,0,0,-1,1168,603,0,0
-49,421,0,0,0,0,0,0,0,0,0,-1,1175,603,0,0
-42,421,0,0,0,0,0,0,0,0,0,-1,1182,603,0,0
-35,421,0,0,0,0,0,0,0,0,0,-1,1189,603,0,0
-28,421,0,0,0,0,0,0,0,0,0,-1,1196,603,0,0
-21,421,0,0,0,0,0,0,0,0,0,-1,1203,603,0,0
-14,421,0,0,0,0,0,0,0,0,0,-1,1210,603,0,0
-7,421,0,0,0,0,0,0,0,0,0,-1,1217,603,0,0
0,421,0,0,0,0,0,0,0,0,0,-1,1224,603,0,0
7,421,0,0,0,0,0,0,0,0,0,-1,1231,603,0,0
14,421,0,0,0,0,0,0,0,0,0,-1,1238,603,0,0
21,421,0,0,0,0,0,0,0,0,0,-1,1245,603,0,0
28,421,0,0,0,0,0,0,0,0,0,-1,1252,603,0,0
35,421,0,0,0,0,0,0,0,0,0,-1,1259,603,0,0
42,421,0,0,0,0,0,0,0,0,0,-1,1266,603,0,0
49,421,0,0,0,0,0,0,0,0,0,-1,1273,603,0,0
56,421,0,0,0,0,0,0,0,0,0,-1,1280,603,0,0
63,421,0,0,0,0,0,0,0,0,0,-1,1287,603,0,0
70,421,0,0,0,0,0,0,0,0,0,-1,1294,603,0,0
77,421,0,0,0,0,0,0,0,0,0,-1,1301,603,0,0
84,421,0,0,0,0,0,0,0,0,0,-1,1308,603,0,0
91,421,0,0,0,0,0,0,0,0,0,-1,1315,603,0,0
98,421,0,0,0,0,0,0,0,0,0,-1,1322,603,0,0
105,421,0,0,0,0,0,0,0,0,0,-1,1329,603,0,0
112,421,0,0,0,0,0,0,0,0,0,-1,1336,603,0,0
119,421,0,0,0,0,0,0,0,0,0,-1,1343,603,0,0
126,421,0,0,0,0,0,0,0,0,0,-1,1350,603,0,0
133,421,0,0,0,0,0,0,0,0,0,-1,1357,603,0,0
140,421,0,0,0,0,0,0,0,0,0,-1,1364,603,0,0
147,421,0,0,0,0,0,0,0,0,0,-1,1371,603,0,0
154,421,0,0,0,0,0,0,0,0,0,-1,1378,603,0,0
161,421,0,0,0,0,0,0,0,0,0,-1,1385,603,0,0
168,421,0,0,0,0,0,0,0,0,0,-1,1392,603,0,0
175,421,0,0,0,0,0,0,0,0,0,-1,1399,603,0,0
182,421,0,0,0,0,0,0,0,0,0,-1,1406,603,0,0
189,421,0,0,0,0,0,0,0,0,0,-1,1413,603,0,0
196,421,0,0,0,0,0,0,0,0,0,-1,1420,603,0,0
203,421,0,0,0,0,0,0,0,0,0,-1,1427,603,0,0
210,421,0,0,0,0,0,0,0,0,0,-1,1434,603,0,0
217,421,0,0,0,0,0,0,0,0,0,-1,1441,603,0,0
224,421,0,0,0,0,0,0,0,0,0,-1,1448,603,0,0
231,421,0,0,0,0,0,0,0,0,0,-1,1455,603,0,0
238,421,0,0,0,0,0,0,0,0,0,-1,1462,603,0,0
245,421,0,0,0,0,0,0,0,0,0,-1,1469,603,0,0
252,421,0,0,0,0,0,0,0,0,0,-1,1476,603,0,0
259,421,0,0,0,0,0,0,0,0,0,-1,1483,603,0,0
266,421,0,0,0,0,0,0,0,0,0,-1,1490,603,0,0
273,421,0,0,0,0,0,0,0,0,0,-1,1497,603,0,0
280,421,0,0,0,0,0,0,0,0,0,-1,1504,603,0,0
287,421,0,0,0,0,0,0,0,0,0,-1,1511,603,0,0
294,421,0,0,0,0,0,0,0,0,0,-1,1518,603,0,0
301,421,0,0,0,0,0,0,0,0,0,-1,1525,603,0,0
308,421,0,0,0,0,0,0,0,0,0,-1,1532,603,0,0
315,421,0,0,0,0,0,0,0,0,0,-1,1539,603,0,0
322,421,0,0,0,0,0,0,0,0,0,-1,1546,603,0,0
329,421,0,0,0,0,0,0,0,0,0,-1,1553,603,0,0
336,421,0,0,0,0,0,0,0,0,0,-1,1560,603,0,0
343,421,0,0,0,0,0,0,0,0,0,-1,1567,603,0,0
350,421,0,0,0,0,0,0,0,0,0,-1,1574,603,0,0
357,421,0,0,0,0,0,0,0,0,0,-1,1581,603,0,0
364,421,0,0,0,0,0,0,0,0,0,-1,1588,603,0,0
371,421,0,0,0,0,0,0,0,0,0,-1,1595,603,0,0
378,421,0,0,0,0,0,0,0,0,0,-1,1602,603,0,0
385,421,0,0,0,0,0,0,0,0,0,-1,1609,603,0,0
392,421,0,0,0,0,0,0,0,0,0,-1,1616,603,0,0
399,421,0,0,0,0,0,0,0,0,0,-1,1623,603,0,0
406,421,0,0,0,0,0,0,0,0,0,-1,1630,603,0,0
413,421,0,0,0,0,0,0,0,0,0,-1,1637,603,0,0
420,421,0,0,0,0,0,0,0,0,0,-1,1644,603,0,0
427,421,0,0,0,0,0,0,0,0,0,-1,1651,603,0,0
434,421,3.68176,-0.0327759,0,0,0,0,0,0,0,-1,1658,603,3.6818,0.0328037
441,421,8.06689,0.527832,0,0,0,0,0,0,0,-1,1665,603,8.06693,-0.527851
448,421,6.93921,0.802246,0,0,0,0,0,0,0,-1,1672,603,6.93923,-0.802251
455,421,7.29456,2.14825,0,0,0,0,0,0,0,-1,1679,603,7.29461,-2.14827
462,421,7.86902,3.53174,0,0,0,0,0,0,0,-1,1686,603,7.869,-3.53173
469,421,8.06604,2.81213,0,0,0,0,0,0,0,-1,1693,603,8.06606,-2.81212
476,421,8.26306,2.09253,0,0,0,0,0,0,0,-1,1700,603,8.26312,-2.09251
483,421,8.05322,0.798096,0,0,0,0,0,0,0,-1,1707,603,8.05323,-0.7981
490,421,7.51233,0.213074,0,0,0,0,0,0,0,-1,1714,603,7.51235,-0.213043
497,421,7.49634,-2.86688,0,0,0,0,0,0,0,-1,1721,603,7.4963,2.86688
504,421,6.90491,-2.18671,0,0,0,0,0,0,0,-1,1728,603,6.90491,2.18669
511,421,6.31348,-1.50653,0,0,0,0,0,0,0,-1,1735,603,6.31353,1.5065
518,421,6.27588,-2.49878,0,0,0,0,0,0,0,-1,1742,603,6.2759,2.4988
525,421,6.06702,-2.47339,0,0,0,0,0,0,0,-1,1749,603,6.06706,2.47339
532,421,6.17249,-2.21069,-0.00530682,-0.00115784,-0.00137931,-0.000741145,-0.00572352,-1.27741,0.00359419,0.0292406,1756,603,6.17246,2.21071
539,421,6.26648,-2.02625,-0.00350595,-0.00118093,-0.00112458,-0.000726005,-0.00396088,-1.18639,0.00243493,0.0193829,1763,603,6.26647,2.02625
546,421,6.24377,-1.84851,-0.00229573,-0.000879917,-0.000900437,-0.000442434,-0.00273322,-1.11853,0.00169404,0.0122842,1770,603,6.24382,1.84851
553,421,6.23694,-1.6568,-0.00168518,-0.000587772,-0.000757457,-0.000201161,-0.0020718,-1.09886,0.00131927,0.0110137,1777,603,6.2369,1.65679
560,421,6.25366,-1.47223,0.000498736,-0.00037756,-2.45331e-05,0.000499422,-0.000378246,-0.0279672,0.000508329,0.0134838,1784,603,6.25362,1.47223
567,421,6.26807,-1.31543,0.00325479,-0.000202068,0.00089302,0.00347186,-0.000419134,0.238445,0.00246619,0.015844,1791,603,6.26808,1.31546
574,421,6.2561,-1.15674,0.00686017,-6.58639e-05,0.00228767,0.00754756,-0.000753258,0.291895,0.00530066,0.0176698,1798,603,6.25611,1.15673
581,421,6.24316,-0.960693,0.0114993,-1.84428e-05,0.0039716,0.012736,-0.00125516,0.301873,0.00893849,0.015384,1805,603,6.24314,0.960697
588,421,6.23315,-0.80127,0.0175668,-6.36004e-05,0.00614988,0.0195,-0.00199683,0.304572,0.0137142,0.0109507,1812,603,6.2331,0.80129
595,421,6.25134,-0.630249,0.0249702,-9.19801e-05,0.00868693,0.0276868,-0.00280854,0.303084,0.0194617,0.0144469,1819,603,6.2513,0.63023
602,421,6.24023,-0.483337,0.0337421,0.000136712,0.011604,0.0373596,-0.00348073,0.302195,0.026144,0.0146391,1826,603,6.2402,0.483314
609,421,6.16675,-0.30719,0.0442698,0.000269404,0.0150464,0.048923,-0.00438378,0.299926,0.0341704,0.0319017,1833,603,6.16677,0.307182
616,421,6.32629,-0.0487671,0,0,0,0,0,0,0,-1,1840,603,6.32624,0.0487683
623,421,6.19885,0.376648,0,0,0,0,0,0,0,-1,1847,603,6.19881,-0.376624
630,421,6.54993,0.778748,0,0,0,0,0,0,0,-1,1854,603,6.54991,-0.778744
637,421,3.74512,1.65405,0,0,0,0,0,0,0,-1,1861,603,3.74517,-1.65407
644,421,3.58081,0.354675,0,0,0,0,0,0,0,-1,1868,603,3.58082,-0.354704
651,421,3.28687,3.66351,0,0,0,0,0,0,0,-1,1875,603,3.28688,-3.66353
658,421,0,0,0,0,0,0,0,0,0,-1,1882,603,0,0
665,421,0,0,0,0,0,0,0,0,0,-1,1889,603,0,0
672,421,0,0,0,0,0,0,0,0,0,-1,1896,603,0,0
679,421,0,0,0,0,0,0,0,0,0,-1,1903,603,0,0
686,421,0,0,0,0,0,0,0,0,0,-1,1910,603,0,0
693,421,0,0,0,0,0,0,0,0,0,-1,1917,603,0,0
700,421,0,0,0,0,0,0,0,0,0,-1,1924,603,0,0
707,421,0,0,0,0,0,0,0,0,0,-1,1931,603,0,0
714,421,0,0,0,0,0,0,0,0,0,-1,1938,603,0,0
721,421,0,0,0,0,0,0,0,0,0,-1,1945,603,0,0
728,421,0,0,0,0,0,0,0,0,0,-1,1952,603,0,0
735,421,0,0,0,0,0,0,0,0,0,-1,1959,603,0,0
742,421,0,0,0,0,0,0,0,0,0,-1,1966,603,0,0
749,421,0,0,0,0,0,0,0,0,0,-1,1973,603,0,0
756,421,0,0,0,0,0,0,0,0,0,-1,1980,603,0,0
763,421,0,0,0,0,0,0,0,0,0,-1,1987,603,0,0
770,421,0,0,0,0,0,0,0,0,0,-1,1994,603,0,0
777,421,0,0,0,0,0,0,0,0,0,-1,2001,603,0,0
784,421,0,0,0,0,0,0,0,0,0,-1,2008,603,0,0
791,421,0,0,0,0,0,0,0,0,0,-1,2015,603,0,0
798,421,0,0,0,0,0,0,0,0,0,-1,2022,603,0,0
805,421,0,0,0,0,0,0,0,0,0,-1,2029,603,0,0
812,421,0,0,0,0,0,0,0,0,0,-1,2036,603,0,0
-700,414,0,0,0,0,0,0,0,0,0,-1,524,610,0,0
-693,414,0,0,0,0,0,0,0,0,0,-1,531,610,0,0
-686,414,0,0,0,0,0,0,0,0,0,-1,538,610,0,0
-679,414,0,0,0,0,0,0,0,0,0,-1,545,610,0,0
-672,414,0,0,0,0,0,0,0,0,0,-1,552,610,0,0
-665,414,0,0,0,0,0,0,0,0,0,-1,559,610,0,0
-658,414,0,0,0,0,0,0,0,0,0,-1,566,610,0,0
-651,414,0,0,0,0,0,0,0,0,0,-1,573,610,0,0
-644,414,0,0,0,0,0,0,0,0,0,-1,580,610,0,0
-637,414,0,0,0,0,0,0,0,0,0,-1,587,610,0,0
-630,414,0,0,0,0,0,0,0,0,0,-1,594,610,0,0
-623,414,0,0,0,0,0,0,0,0,0,-1,601,610,0,0
-616,414,0,0,0,0,0,0,0,0,0,-1,608,610,0,0
-609,414,0,0,0,0,0,0,0,0,0,-1,615,610,0,0
-602,414,0,0,0,0,0,0,0,0,0,-1,622,610,0,0
-595,414,0,0,0,0,0,0,0,0,0,-1,629,610,0,0
-588,414,0,0,0,0,0,0,0,0,0,-1,636,610,0,0
-581,414,0,0,0,0,0,0,0,0,0,-1,643,610,0,0
-574,414,0,0,0,0,0,0,0,0,0,-1,650,610,0,0
-567,414,0,0,0,0,0,0,0,0,0,-1,657,610,0,0
-560,414,0,0,0,0,0,0,0,0,0,-1,664,610,0,0
-553,414,0,0,0,0,0,0,0,0,0,-1,671,610,0,0
-546,414,0,0,0,0,0,0,0,0,0,-1,678,610,0,0
-539,414,-8.2038,6.32764,-0.0456183,0.150708,-0.179556,0.257181,-0.152092,-1.03555,0.238877,0.0498706,685,610,-8.20379,-6.32766
-532,414,-8.72266,4.98444,-0.0343475,0.11963,-0.149197,0.210531,-0.125248,-1.02359,0.195935,0.0464786,692,610,-8.72265,-4.98445
-525,414,-9.23834,3.88635,0,0,0,0,0,0,0,-1,699,610,-9.23831,-3.88637
-518,414,-9.75745,3.01373,0,0,0,0,0,0,0,-1,706,610,-9.75747,-3.01375
-511,414,-2.49542,-1.94452,0,0,0,0,0,0,0,-1,713,610,-2.49544,1.94452
-504,414,-1.6496,-1.7901,0,0,0,0,0,0,0,-1,720,610,-1.64957,1.79012
-497,414,-2.01184,-1.50403,0,0,0,0,0,0,0,-1,727,610,-2.01185,1.50401
-490,414,-1.96222,-1.5918,0.0015376,0.00867118,-0.0200946,0.0255131,-0.0153043,-0.873233,0.0238103,0.0362347,734,610,-1.96224,1.5918
-483,414,-1.92651,-1.6897,0.00347586,0.00153042,-0.0100163,0.0125665,-0.00756024,-0.736993,0.0117394,0.0151227,741,610,-1.92654,1.68973
-476,414,-1.94147,-1.85498,0.00404796,-0.00153449,-0.00436778,0.00644022,-0.00392674,-0.501079,0.00604372,0.00994534,748,610,-1.94148,1.85496
-469,414,-1.94458,-2.00842,0.00293991,-0.000795437,-0.00313067,0.00471769,-0.00257321,-0.516451,0.00426967,0.010749,755,610,-1.94459,2.00844
-462,414,-1.95343,-2.20807,0.0017405,-0.000341689,-0.00209519,0.003039,-0.00164019,-0.554817,0.00274147,0.0195974,762,610,-1.95341,2.20808
-455,414,-1.95734,-2.3808,0.000569733,-0.000189726,-0.0011845,0.00143388,-0.00105388,-0.630283,0.00144188,0.0227314,769,610,-1.95731,2.38081
-448,414,-1.95013,-2.52612,-0.000431505,-0.000451764,-0.00031606,-0.000125412,-0.000757856,-0.769379,0.000469056,0.0239147,776,610,-1.95013,2.52612
-441,414,-1.93646,-2.69763,-0.00137335,-0.000774297,0.000416219,-0.000561033,-0.00158661,1.09729,0.000929028,0.0172098,783,610,-1.93645,2.69761
-434,414,-1.95673,-2.84601,-0.00247071,-0.00151648,0.00112718,-0.000769596,-0.0032176,0.985606,0.0019401,0.00924381,790,610,-1.95672,2.84602
-427,414,-1.95282,-2.98871,-0.00336806,-0.00243751,0.00183893,-0.00100591,-0.00479966,0.909305,0.00292275,0.0095516,797,610,-1.95281,2.98873
-420,414,-1.94855,-3.13885,-0.00409966,-0.00362279,0.00239948,-0.00144993,-0.00627253,0.834921,0.00379193,0.00982666,804,610,-1.94852,3.13888
-413,414,-1.95605,-3.32117,-0.00472953,-0.00494116,0.00284366,-0.00198971,-0.00768097,0.766802,0.00460306,0.00997715,811,610,-1.95608,3.32119
-406,414,-1.94421,-3.52618,-0.00519427,-0.00640118,0.00319688,-0.00254439,-0.00905107,0.692114,0.00538996,0.0144902,818,610,-1.9442,3.52619
-399,414,-1.94232,-3.65417,-0.00535707,-0.00816387,0.00346976,-0.00301764,-0.0105033,0.593223,0.0062443,0.0200306,825,610,-1.9423,3.65416
-392,414,-1.95947,-3.7663,-0.00522536,-0.0106901,0.00379526,-0.0032812,-0.0126342,0.473406,0.00756996,0.0259681,832,610,-1.95949,3.76627
-385,414,-2.12878,-4.06158,-0.00477692,-0.0134109,0.00391836,-0.00326383,-0.014924,0.368515,0.00905954,0.0419769,839,610,-2.12878,4.06155
-378,414,-2.24799,-4.36212,0,0,0,0,0,0,0,-1,846,610,-2.24796,4.36214
-371,414,-2.85834,-5.24066,0,0,0,0,0,0,0,-1,853,610,-2.85836,5.24064
-364,414,-3.54663,-6.31989,0,0,0,0,0,0,0,-1,860,610,-3.54664,6.31989
-357,414,-4.17346,-7.30469,0,0,0,0,0,0,0,-1,867,610,-4.17344,7.30469
-350,414,-0.729858,-6.09155,0,0,0,0,0,0,0,-1,874,610,-0.729829,6.09153
-343,414,-0.68158,-7.48419,0,0,0,0,0,0,0,-1,881,610,-0.681581,7.4842
-336,414,-3.09222,-1.78766,0,0,0,0,0,0,0,-1,888,610,-3.09222,1.78763
-329,414,-4.73792,-1.55701,0,0,0,0,0,0,0,-1,895,610,-4.73793,1.557
-322,414,-4.42236,-1.29163,0,0,0,0,0,0,0,-1,902,610,-4.42238,1.2916
-315,414,0,0,0,0,0,0,0,0,0,-1,909,610,0,0
-308,414,0,0,0,0,0,0,0,0,0,-1,916,610,0,0
-301,414,0,0,0,0,0,0,0,0,0,-1,923,610,0,0
-294,414,0,0,0,0,0,0,0,0,0,-1,930,610,0,0
-287,414,0,0,0,0,0,0,0,0,0,-1,937,610,0,0
-280,414,0,0,0,0,0,0,0,0,0,-1,944,610,0,0
-273,414,0,0,0,0,0,0,0,0,0,-1,951,610,0,0
-266,414,0,0,0,0,0,0,0,0,0,-1,958,610,0,0
-259,414,0,0,0,0,0,0,0,0,0,-1,965,610,0,0
-252,414,0,0,0,0,0,0,0,0,0,-1,972,610,0,0
-245,414,0,0,0,0,0,0,0,0,0,-1,979,610,0,0
-238,414,0,0,0,0,0,0,0,0,0,-1,986,610,0,0
-231,414,0,0,0,0,0,0,0,0,0,-1,993,610,0,0
-224,414,0,0,0,0,0,0,0,0,0,-1,1000,610,0,0
-217,414,0,0,0,0,0,0,0,0,0,-1,1007,610,0,0
-210,414,0,0,0,0,0,0,0,0,0,-1,1014,610,0,0
-203,414,0,0,0,0,0,0,0,0,0,-1,1021,610,0,0
-196,414,0,0,0,0,0,0,0,0,0,-1,1028,610,0,0
-189,414,0,0,0,0,0,0,0,0,0,-1,1035,610,0,0
-182,414,0,0,0,0,0,0,0,0,0,-1,1042,610,0,0
-175,414,0,0,0,0,0,0,0,0,0,-1,1049,610,0,0
-168,414,0,0,0,0,0,0,0,0,0,-1,1056,610,0,0
-161,414,0,0,0,0,0,0,0,0,0,-1,1063,610,0,0
-154,414,0,0,0,0,0,0,0,0,0,-1,1070,610,0,0
-147,414,0,0,0,0,0,0,0,0,0,-1,1077,610,0,0
-140,414,0,0,0,0,0,0,0,0,0,-1,1084,610,0,0
-133,414,0,0,0,0,0,0,0,0,0,-1,1091,610,0,0
-126,414,0,0,0,0,0,0,0,0,0,-1,1098,610,0,0
-119,414,0,0,0,0,0,0,0,0,0,-1,1105,610,0,0
-112,414,0,0,0,0,0,0,0,0,0,-1,1112,610,0,0
-105,414,0,0,0,0,0,0,0,0,0,-1,1119,610,0,0
-98,414,0,0,0,0,0,0,0,0,0,-1,1126,610,0,0
-91,414,0,0,0,0,0,0,0,0,0,-1,1133,610,0,0
-84,414,0,0,0,0,0,0,0,0,0,-1,1140,610,0,0
-77,414,0,0,0,0,0,0,0,0,0,-1,1147,610,0,0
-70,414,0,0,0,0,0,0,0,0,0,-1,1154,610,0,0
-63,414,0,0,0,0,0,0,0,0,0,-1,1161,610,0,0
-56,414,0,0,0,0,0,0,0,0,0,-1,1168,610,0,0
-49,414,0,0,0,0,0,0,0,0,0,-1,1175,610,0,0
-42,414,0,0,0,0,0,0,0,0,0,-1,1182,610,0,0
-35,414,0,0,0,0,0,0,0,0,0,-1,1189,610,0,0
-28,414,0,0,0,0,0,0,0,0,0,-1,1196,610,0,0
-21,414,0,0,0,0,0,0,0,0,0,-1,1203,610,0,0
-14,414,0,0,0,0,0,0,0,0,0,-1,1210,610,0,0
-7,414,0,0,0,0,0,0,0,0,0,-1,1217,610,0,0
0,414,0,0,0,0,0,0,0,0,0,-1,1224,610,0,0
7,414,0,0,0,0,0,0,0,0,0,-1,1231,610,0,0
14,414,0,0,0,0,0,0,0,0,0,-1,1238,610,0,0
21,414,0,0,0,0,0,0,0,0,0,-1,1245,610,0,0
28,414,0,0,0,0,0,0,0,0,0,-1,1252,610,0,0
35,414,0,0,0,0,0,0,0,0,0,-1,1259,610,0,0
42,414,0,0,0,0,0,0,0,0,0,-1,1266,610,0,0
49,414,0,0,0,0,0,0,0,0,0,-1,1273,610,0,0
56,414,0,0,0,0,0,0,0,0,0,-1,1280,610,0,0
63,414,0,0,0,0,0,0,0,0,0,-1,1287,610,0,0
70,414,0,0,0,0,0,0,0,0,0,-1,1294,610,0,0
77,414,0,0,0,0,0,0,0,0,0,-1,1301,610,0,0
84,414,0,0,0,0,0,0,0,0,0,-1,1308,610,0,0
91,414,0,0,0,0,0,0,0,0,0,-1,1315,610,0,0
98,414,0,0,0,0,0,0,0,0,0,-1,1322,610,0,0
105,414,0,0,0,0,0,0,0,0,0,-1,1329,610,0,0
112,414,0,0,0,0,0,0,0,0,0,-1,1336,610,0,0
119,414,0,0,0,0,0,0,0,0,0,-1,1343,610,0,0
126,414,0,0,0,0,0,0,0,0,0,-1,1350,610,0,0
133,414,0,0,0,0,0,0,0,0,0,-1,1357,610,0,0
140,414,0,0,0,0,0,0,0,0,0,-1,1364,610,0,0
147,414,0,0,0,0,0,0,0,0,0,-1,1371,610,0,0
154,414,0,0,0,0,0,0,0,0,0,-1,1378,610,0,0
161,414,0,0,0,0,0,0,0,0,0,-1,1385,610,0,0
168,414,0,0,0,0,0,0,0,0,0,-1,1392,610,0,0
175,414,0,0,0,0,0,0,0,0,0,-1,1399,610,0,0
182,414,0,0,0,0,0,0,0,0,0,-1,1406,610,0,0
189,414,0,0,0,0,0,0,0,0,0,-1,1413,610,0,0
196,414,0,0,0,0,0,0,0,0,0,-1,1420,610,0,0
203,414,0,0,0,0,0,0,0,0,0,-1,1427,610,0,0
210,414,0,0,0,0,0,0,0,0,0,-1,1434,610,0,0
217,414,0,0,0,0,0,0,0,0,0,-1,1441,610,0,0
224,414,0,0,0,0,0,0,0,0,0,-1,1448,610,0,0
231,414,0,0,0,0,0,0,0,0,0,-1,1455,610,0,0
238,414,0,0,0,0,0,0,0,0,0,-1,1462,610,0,0
245,414,0,0,0,0,0,0,0,0,0,-1,1469,610,0,0
252,414,0,0,0,0,0,0,0,0,0,-1,1476,610,0,0
259,414,0,0,0,0,0,0,0,0,0,-1,1483,610,0,0
266,414,0,0,0,0,0,0,0,0,0,-1,1490,610,0,0
273,414,0,0,0,0,0,0,0,0,0,-1,1497,610,0,0
280,414,0,0,0,0,0,0,0,0,0,-1,1504,610,0,0
287,414,0,0,0,0,0,0,0,0,0,-1,1511,610,0,0
294,414,0,0,0,0,0,0,0,0,0,-1,1518,610,0,0
301,414,0,0,0,0,0,0,0,0,0,-1,1525,610,0,0
308,414,0,0,0,0,0,0,0,0,0,-1,1532,610,0,0
315,414,0,0,0,0,0,0,0,0,0,-1,1539,610,0,0
322,414,0,0,0,0,0,0,0,0,0,-1,1546,610,0,0
329,414,0,0,0,0,0,0,0,0,0,-1,1553,610,0,0
336,414,0,0,0,0,0,0,0,0,0,-1,1560,610,0,0
343,414,0,0,0,0,0,0,0,0,0,-1,1567,610,0,0
350,414,0,0,0,0,0,0,0,0,0,-1,1574,610,0,0
357,414,0,0,0,0,0,0,0,0,0,-1,1581,610,0,0
364,414,0,0,0,0,0,0,0,0,0,-1,1588,610,0,0
371,414,0,0,0,0,0,0,0,0,0,-1,1595,610,0,0
378,414,0,0,0,0,0,0,0,0,0,-1,1602,610,0,0
385,414,0,0,0,0,0,0,0,0,0,-1,1609,610,0,0
392,414,0,0,0,0,0,0,0,0,0,-1,1616,610,0,0
399,414,0,0,0,0,0,0,0,0,0,-1,1623,610,0,0
406,414,0,0,0,0,0,0,0,0,0,-1,1630,610,0,0
413,414,0,0,0,0,0,0,0,0,0,-1,1637,610,0,0
420,414,0,0,0,0,0,0,0,0,0,-1,1644,610,0,0
427,414,0,0,0,0,0,0,0,0,0,-1,1651,610,0,0
434,414,0,0,0,0,0,0,0,0,0,-1,1658,610,0,0
441,414,7.84375,0.584412,0,0,0,0,0,0,0,-1,1665,610,7.84379,-0.584394
448,414,7.40808,1.25446,0,0,0,0,0,0,0,-1,1672,610,7.40807,-1.25446
455,414,6.3512,1.73846,0,0,0,0,0,0,0,-1,1679,610,6.3512,-1.73847
462,414,8.18103,3.22113,0,0,0,0,0,0,0,-1,1686,610,8.18108,-3.22112
469,414,8.38513,2.49579,0,0,0,0,0,0,0,-1,1693,610,8.38516,-2.49576
476,414,8.64099,1.71161,0,0,0,0,0,0,0,-1,1700,610,8.64097,-1.71164
483,414,8.62744,0.687622,0,0,0,0,0,0,0,-1,1707,610,8.62749,-0.687615
490,414,8.38831,-0.0302734,0,0,0,0,0,0,0,-1,1714,610,8.38835,0.0302913
497,414,4.71094,-0.110046,0,0,0,0,0,0,0,-1,1721,610,4.71089,0.110024
504,414,7.19568,-1.43835,0,0,0,0,0,0,0,-1,1728,610,7.19563,1.43836
511,414,5.94153,-1.28772,0,0,0,0,0,0,0,-1,1735,610,5.94151,1.28769
518,414,4.53381,-0.0996704,0,0,0,0,0,0,0,-1,1742,610,4.53378,0.0996819
525,414,6.18811,-1.64056,0,0,0,0,0,0,0,-1,1749,610,6.18814,1.64055
532,414,6.32898,-2.44446,0,0,0,0,0,0,0,-1,1756,610,6.32893,2.44448
539,414,6.40649,-2.11316,-0.00478597,-0.0010385,-0.00160942,-0.000442198,-0.00538228,-1.21597,0.00345025,0.0292979,1763,610,6.40648,2.11316
546,414,6.40955,-1.85046,-0.00327818,-0.000684065,-0.00129422,-0.000148813,-0.00381343,-1.17864,0.00249416,0.012429,1770,610,6.40956,1.85047
553,414,6.41858,-1.66235,-0.00294183,-0.000395217,-0.00128132,0.000137879,-0.00347492,-1.17653,0.00236392,0.0114107,1777,610,6.41853,1.66238
560,414,6.44092,-1.46991,-0.00139224,-0.000202218,-0.000751348,0.000161187,-0.00175565,-1.1203,0.00122769,0.013472,1784,610,6.4409,1.46992
567,414,6.46448,-1.27728,0.000696484,-5.03762e-05,-5.52087e-05,0.000700543,-5.44353e-05,-0.0733895,0.000486191,0.0228175,1791,610,6.46453,1.27727
574,414,6.45178,-1.11835,0.00325405,2.77485e-05,0.000979085,0.00352793,-0.000246125,0.272753,0.00243814,0.0209316,1798,610,6.45175,1.11838
581,414,6.42163,-0.961548,0.00635629,2.94688e-05,0.00213579,0.00700979,-0.000624027,0.296928,0.00489448,0.0161488,1805,610,6.42164,0.961545
588,414,6.41919,-0.790588,0.0102896,-4.67354e-05,0.00358772,0.0114128,-0.00116997,0.303411,0.00802699,0.0155546,1812,610,6.41918,0.790602
595,414,6.44031,-0.597595,0.0149249,-3.72344e-05,0.00518892,0.0165483,-0.00166063,0.303211,0.0116254,0.0210974,1819,610,6.44026,0.597565
602,414,6.45813,-0.420593,0.020206,0.000240829,0.00691739,0.0223684,-0.00192164,0.302989,0.0155924,0.0232381,1826,610,6.45814,0.420617
609,414,6.33948,-0.298157,0.0262589,0.000419089,0.00883666,0.0289918,-0.00231382,0.299939,0.0201435,0.021076,1833,610,6.33943,0.298139
616,414,6.46887,-0.242737,0.0332552,0.000976126,0.0110687,0.0366861,-0.00245477,0.300571,0.0253154,0.0383284,1840,610,6.46886,0.242739
623,414,6.7666,-0.00268555,0,0,0,0,0,0,0,-1,1847,610,6.76655,0.00269579
630,414,5.47144,0.499329,0,0,0,0,0,0,0,-1,1854,610,5.47142,-0.499303
637,414,6.57898,2.38019,0,0,0,0,0,0,0,-1,1861,610,6.579,-2.38019
644,414,5.87073,1.51422,0,0,0,0,0,0,0,-1,1868,610,5.87076,-1.51424
651,414,3.6377,0.820557,0,0,0,0,0,0,0,-1,1875,610,3.6377,-0.820543
658,414,2.29761,3.87323,0,0,0,0,0,0,0,-1,1882,610,2.29758,-3.87325
665,414,0,0,0,0,0,0,0,0,0,-1,1889,610,0,0
672,414,0,0,0,0,0,0,0,0,0,-1,1896,610,0,0
679,414,0,0,0,0,0,0,0,0,0,-1,1903,610,0,0
686,414,0,0,0,0,0,0,0,0,0,-1,1910,610,0,0
693,414,0,0,0,0,0,0,0,0,0,-1,1917,610,0,0
700,414,0,0,0,0,0,0,0,0,0,-1,1924,610,0,0
707,414,0,0,0,0,0,0,0,0,0,-1,1931,610,0,0
714,414,0,0,0,0,0,0,0,0,0,-1,1938,610,0,0
721,414,0,0,0,0,0,0,0,0,0,-1,1945,610,0,0
728,414,0,0,0,0,0,0,0,0,0,-1,1952,610,0,0
735,414,0,0,0,0,0,0,0,0,0,-1,1959,610,0,0
742,414,0,0,0,0,0,0,0,0,0,-1,1966,610,0,0
749,414,0,0,0,0,0,0,0,0,0,-1,1973,610,0,0
756,414,0,0,0,0,0,0,0,0,0,-1,1980,610,0,0
763,414,0,0,0,0,0,0,0,0,0,-1,1987,610,0,0
770,414,0,0,0,0,0,0,0,0,0,-1,1994,610,0,0
777,414,0,0,0,0,0,0,0,0,0,-1,2001,610,0,0
784,414,0,0,0,0,0,0,0,0,0,-1,2008,610,0,0
791,414,0,0,0,0,0,0,0,0,0,-1,2015,610,0,0
798,414,0,0,0,0,0,0,0,0,0,-1,2022,610,0,0
805,414,0,0,0,0,0,0,0,0,0,-1,2029,610,0,0
812,414,0,0,0,0,0,0,0,0,0,-1,2036,610,0,0
-700,407,0,0,0,0,0,0,0,0,0,-1,524,617,0,0
-693,407,0,0,0,0,0,0,0,0,0,-1,531,617,0,0
-686,407,0,0,0,0,0,0,0,0,0,-1,538,617,0,0
-679,407,0,0,0,0,0,0,0,0,0,-1,545,617,0,0
-672,407,0,0,0,0,0,0,0,0,0,-1,552,617,0,0
-665,407,0,0,0,0,0,0,0,0,0,-1,559,617,0,0
-658,407,0,0,0,0,0,0,0,0,0,-1,566,617,0,0
-651,407,0,0,0,0,0,0,0,0,0,-1,573,617,0,0
-644,407,0,0,0,0,0,0,0,0,0,-1,580,617,0,0
-637,407,0,0,0,0,0,0,0,0,0,-1,587,617,0,0
-630,407,0,0,0,0,0,0,0,0,0,-1,594,617,0,0
-623,407,0,0,0,0,0,0,0,0,0,-1,601,617,0,0
-616,407,0,0,0,0,0,0,0,0,0,-1,608,617,0,0
-609,407,0,0,0,0,0,0,0,0,0,-1,615,617,0,0
-602,407,0,0,0,0,0,0,0,0,0,-1,622,617,0,0
-595,407,0,0,0,0,0,0,0,0,0,-1,629,617,0,0
-588,407,0,0,0,0,0,0,0,0,0,-1,636,617,0,0
-581,407,0,0,0,0,0,0,0,0,0,-1,643,617,0,0
-574,407,0,0,0,0,0,0,0,0,0,-1,650,617,0,0
-567,407,0,0,0,0,0,0,0,0,0,-1,657,617,0,0
-560,407,0,0,0,0,0,0,0,0,0,-1,664,617,0,0
-553,407,0,0,0,0,0,0,0,0,0,-1,671,617,0,0
-546,407,-6.47162,6.6189,0,0,0,0,0,0,0,-1,678,617,-6.47164,-6.61892
-539,407,-6.94537,5.34058,-0.039751,0.128842,-0.152461,0.218759,-0.129668,-1.03793,0.203345,0.0478252,685,617,-6.9454,-5.34059
-532,407,-7.50598,4.08948,-0.0326735,0.103145,-0.124751,0.177273,-0.106802,-1.03465,0.165684,0.0446583,692,617,-7.50599,-4.0895
-525,407,-8.14691,2.68494,0,0,0,0,0,0,0,-1,699,617,-8.14691,-2.68496
-518,407,-1.0863,-2.17444,0,0,0,0,0,0,0,-1,706,617,-1.08633,2.17444
-511,407,-1.77454,-1.93561,0,0,0,0,0,0,0,-1,713,617,-1.77455,1.93562
-504,407,-1.92615,-2.13934,0,0,0,0,0,0,0,-1,720,617,-1.92614,2.13936
-497,407,-1.99506,-1.87854,-0.00559886,0.0144442,-0.0210402,0.0277277,-0.0188823,-1.00765,0.0270713,0.0409873,727,617,-1.99509,1.87855
-490,407,-2.09717,-1.5755,-0.00294531,0.0075557,-0.0121026,0.0154976,-0.0108872,-0.990063,0.0153106,0.0191794,734,617,-2.09716,1.5755
-483,407,-2.09528,-1.69781,-0.000523758,0.00132432,-0.00420386,0.0047045,-0.00390394,-0.893581,0.00497724,0.0108068,741,617,-2.09526,1.69782
-476,407,-2.09717,-1.82556,0.000790424,-0.00149023,-0.00017539,0.000803833,-0.00150364,-0.0763053,0.00135249,0.00960535,748,617,-2.09718,1.82558
-469,407,-2.10547,-1.97076,0.000497873,-0.0009354,3.40901e-05,0.000498683,-0.00093621,0.0237669,0.000841175,0.0117831,755,617,-2.10545,1.97078
-462,407,-2.15314,-2.17224,-0.000119787,-0.000591788,0.000218331,-3.4284e-05,-0.000677292,0.373263,0.000440545,0.0181183,762,617,-2.15312,2.17225
-455,407,-2.14844,-2.35315,-0.000940503,-0.000551319,0.000517291,-0.00019323,-0.00129859,0.965299,0.000809046,0.020153,769,617,-2.14843,2.35318
-448,407,-2.08771,-2.50311,-0.00176294,-0.000900861,0.000946764,-0.000291631,-0.00237217,0.999014,0.00149375,0.0185629,776,617,-2.0877,2.50312
-441,407,-2.09149,-2.63611,-0.00272144,-0.00133133,0.00143192,-0.000434692,-0.00361808,1.01135,0.00228101,0.0138859,783,617,-2.09152,2.63611
-434,407,-2.10797,-2.80591,-0.00392509,-0.00223571,0.00196798,-0.000938797,-0.005222,0.988117,0.00321443,0.00979994,790,617,-2.10795,2.8059
-427,407,-2.10559,-2.98279,-0.00511243,-0.00332252,0.00268121,-0.00139084,-0.0070441,0.946478,0.00430795,0.0101268,797,617,-2.10557,2.98279
-420,407,-2.10352,-3.13953,-0.00626086,-0.00470182,0.00340708,-0.00198623,-0.00897646,0.89786,0.00544437,0.00999147,804,617,-2.10352,3.13953
-413,407,-2.09064,-3.30554,-0.00734131,-0.00631215,0.00404842,-0.00274574,-0.0109077,0.848612,0.00655126,0.0102678,811,617,-2.09065,3.30553
-406,407,-2.06219,-3.427,-0.00830663,-0.0082077,0.00458642,-0.00367048,-0.0128438,0.790791,0.0076389,0.0199138,818,617,-2.06221,3.42699
-399,407,-2.02661,-3.49445,-0.008969,-0.0105139,0.0050212,-0.00466117,-0.0148217,0.709079,0.00875146,0.03561,825,617,-2.02658,3.49443
-392,407,-2.00671,-3.58356,-0.00929512,-0.013621,0.00549871,-0.00554925,-0.0173669,0.598015,0.0102422,0.0430221,832,617,-2.00673,3.58356
-385,407,-2.03406,-3.74432,-0.00903985,-0.0170946,0.005663,-0.00611818,-0.0200163,0.476305,0.0118438,0.0464224,839,617,-2.03407,3.74431
-378,407,-2.02563,-3.81915,0,0,0,0,0,0,0,-1,846,617,-2.02561,3.81915
-371,407,-2.95203,-4.27045,0,0,0,0,0,0,0,-1,853,617,-2.95201,4.27047
-364,407,-3.53717,-5.39661,0,0,0,0,0,0,0,-1,860,617,-3.53718,5.39662
-357,407,-2.9917,-3.28107,0,0,0,0,0,0,0,-1,867,617,-2.99171,3.28106
-350,407,-1.05005,-4.43396,0,0,0,0,0,0,0,-1,874,617,-1.05007,4.43393
-343,407,-0.408447,-6.80444,0,0,0,0,0,0,0,-1,881,617,-0.408437,6.80447
-336,407,-0.174316,-8.50122,0,0,0,0,0,0,0,-1,888,617,-0.17432,8.50119
-329,407,-0.549561,-0.736267,0,0,0,0,0,0,0,-1,895,617,-0.549544,0.736255
-322,407,0,0,0,0,0,0,0,0,0,-1,902,617,0,0
-315,407,0,0,0,0,0,0,0,0,0,-1,909,617,0,0
-308,407,0,0,0,0,0,0,0,0,0,-1,916,617,0,0
-301,407,0,0,0,0,0,0,0,0,0,-1,923,617,0,0
-294,407,0,0,0,0,0,0,0,0,0,-1,930,617,0,0
-287,407,0,0,0,0,0,0,0,0,0,-1,937,617,0,0
-280,407,0,0,0,0,0,0,0,0,0,-1,944,617,0,0
-273,407,0,0,0,0,0,0,0,0,0,-1,951,617,0,0
-266,407,0,0,0,0,0,0,0,0,0,-1,958,617,0,0
-259,407,0,0,0,0,0,0,0,0,0,-1,965,617,0,0
-252,407,0,0,0,0,0,0,0,0,0,-1,972,617,0,0
-245,407,0,0,0,0,0,0,0,0,0,-1,979,617,0,0
-238,407,0,0,0,0,0,0,0,0,0,-1,986,617,0,0
-231,407,0,0,0,0,0,0,0,0,0,-1,993,617,0,0
-224,407,0,0,0,0,0,0,0,0,0,-1,1000,617,0,0
-217,407,0,0,0,0,0,0,0,0,0,-1,1007,617,0,0
-210,407,0,0,0,0,0,0,0,0,0,-1,1014,617,0,0
-203,407,0,0,0,0,0,0,0,0,0,-1,1021,617,0,0
-196,407,0,0,0,0,0,0,0,0,0,-1,1028,617,0,0
-189,407,0,0,0,0,0,0,0,0,0,-1,1035,617,0,0
-182,407,0,0,0,0,0,0,0,0,0,-1,1042,617,0,0
-175,407,0,0,0,0,0,0,0,0,0,-1,1049,617,0,0
-168,407,0,0,0,0,0,0,0,0,0,-1,1056,617,0,0
-161,407,0,0,0,0,0,0,0,0,0,-1,1063,617,0,0
-154,407,0,0,0,0,0,0,0,0,0,-1,1070,617,0,0
-147,407,0,0,0,0,0,0,0,0,0,-1,1077,617,0,0
-140,407,0,0,0,0,0,0,0,0,0,-1,1084,617,0,0
-133,407,0,0,0,0,0,0,0,0,0,-1,1091,617,0,0
-126,407,0,0,0,0,0,0,0,0,0,-1,1098,617,0,0
-119,407,0,0,0,0,0,0,0,0,0,-1,1105,617,0,0
-112,407,0,0,0,0,0,0,0,0,0,-1,1112,617,0,0
-105,407,0,0,0,0,0,0,0,0,0,-1,1119,617,0,0
-98,407,0,0,0,0,0,0,0,0,0,-1,1126,617,0,0
-91,407,0,0,0,0,0,0,0,0,0,-1,1133,617,0,0
-84,407,0,0,0,0,0,0,0,0,0,-1,1140,617,0,0
-77,407,0,0,0,0,0,0,0,0,0,-1,1147,617,0,0
-70,407,0,0,0,0,0,0,0,0,0,-1,1154,617,0,0
-63,407,0,0,0,0,0,0,0,0,0,-1,1161,617,0,0
-56,407,0,0,0,0,0,0,0,0,0,-1,1168,617,0,0
-49,407,0,0,0,0,0,0,0,0,0,-1,1175,617,0,0
-42,407,0,0,0,0,0,0,0,0,0,-1,1182,617,0,0
-35,407,0,0,0,0,0,0,0,0,0,-1,1189,617,0,0
-28,407,0,0,0,0,0,0,0,0,0,-1,1196,617,0,0
-21,407,0,0,0,0,0,0,0,0,0,-1,1203,617,0,0
-14,407,0,0,0,0,0,0,0,0,0,-1,1210,617,0,0
-7,407,0,0,0,0,0,0,0,0,0,-1,1217,617,0,0
0,407,0,0,0,0,0,0,0,0,0,-1,1224,617,0,0
7,407,0,0,0,0,0,0,0,0,0,-1,1231,617,0,0
14,407,0,0,0,0,0,0,0,0,0,-1,1238,617,0,0
21,407,0,0,0,0,0,0,0,0,0,-1,1245,617,0,0
28,407,0,0,0,0,0,0,0,0,0,-1,1252,617,0,0
35,407,0,0,0,0,0,0,0,0,0,-1,1259,617,0,0
42,407,0,0,0,0,0,0,0,0,0,-1,1266,617,0,0
49,407,0,0,0,0,0,0,0,0,0,-1,1273,617,0,0
56,407,0,0,0,0,0,0,0,0,0,-1,1280,617,0,0
63,407,0,0,0,0,0,0,0,0,0,-1,1287,617,0,0
70,407,0,0,0,0,0,0,0,0,0,-1,1294,617,0,0
77,407,0,0,0,0,0,0,0,0,0,-1,1301,617,0,0
84,407,0,0,0,0,0,0,0,0,0,-1,1308,617,0,0
91,407,0,0,0,0,0,0,0,0,0,-1,1315,617,0,0
98,407,0,0,0,0,0,0,0,0,0,-1,1322,617,0,0
105,407,0,0,0,0,0,0,0,0,0,-1,1329,617,0,0
112,407,0,0,0,0,0,0,0,0,0,-1,1336,617,0,0
119,407,0,0,0,0,0,0,0,0,0,-1,1343,617,0,0
126,407,0,0,0,0,0,0,0,0,0,-1,1350,617,0,0
133,407,0,0,0,0,0,0,0,0,0,-1,1357,617,0,0
140,407,0,0,0,0,0,0,0,0,0,-1,1364,617,0,0
147,407,0,0,0,0,0,0,0,0,0,-1,1371,617,0,0
154,407,0,0,0,0,0,0,0,0,0,-1,1378,617,0,0
161,407,0,0,0,0,0,0,0,0,0,-1,1385,617,0,0
168,407,0,0,0,0,0,0,0,0,0,-1,1392,617,0,0
175,407,0,0,0,0,0,0,0,0,0,-1,1399,617,0,0
182,407,0,0,0,0,0,0,0,0,0,-1,1406,617,0,0
189,407,0,0,0,0,0,0,0,0,0,-1,1413,617,0,0
196,407,0,0,0,0,0,0,0,0,0,-1,1420,617,0,0
203,407,0,0,0,0,0,0,0,0,0,-1,1427,617,0,0
210,407,0,0,0,0,0,0,0,0,0,-1,1434,617,0,0
217,407,0,0,0,0,0,0,0,0,0,-1,1441,617,0,0
224,407,0,0,0,0,0,0,0,0,0,-1,1448,617,0,0
231,407,0,0,0,0,0,0,0,0,0,-1,1455,617,0,0
238,407,0,0,0,0,0,0,0,0,0,-1,1462,617,0,0
245,407,0,0,0,0,0,0,0,0,0,-1,1469,617,0,0
252,407,0,0,0,0,0,0,0,0,0,-1,1476,617,0,0
259,407,0,0,0,0,0,0,0,0,0,-1,1483,617,0,0
266,407,0,0,0,0,0,0,0,0,0,-1,1490,617,0,0
273,407,0,0,0,0,0,0,0,0,0,-1,1497,617,0,0
280,407,0,0,0,0,0,0,0,0,0,-1,1504,617,0,0
287,407,0,0,0,0,0,0,0,0,0,-1,1511,617,0,0
294,407,0,0,0,0,0,0,0,0,0,-1,1518,617,0,0
301,407,0,0,0,0,0,0,0,0,0,-1,1525,617,0,0
308,407,0,0,0,0,0,0,0,0,0,-1,1532,617,0,0
315,407,0,0,0,0,0,0,0,0,0,-1,1539,617,0,0
322,407,0,0,0,0,0,0,0,0,0,-1,1546,617,0,0
329,407,0,0,0,0,0,0,0,0,0,-1,1553,617,0,0
336,407,0,0,0,0,0,0,0,0,0,-1,1560,617,0,0
343,407,0,0,0,0,0,0,0,0,0,-1,1567,617,0,0
350,407,0,0,0,0,0,0,0,0,0,-1,1574,617,0,0
357,407,0,0,0,0,0,0,0,0,0,-1,1581,617,0,0
364,407,0,0,0,0,0,0,0,0,0,-1,1588,617,0,0
371,407,0,0,0,0,0,0,0,0,0,-1,1595,617,0,0
378,407,0,0,0,0,0,0,0,0,0,-1,1602,617,0,0
385,407,0,0,0,0,0,0,0,0,0,-1,1609,617,0,0
392,407,0,0,0,0,0,0,0,0,0,-1,1616,617,0,0
399,407,0,0,0,0,0,0,0,0,0,-1,1623,617,0,0
406,407,0,0,0,0,0,0,0,0,0,-1,1630,617,0,0
413,407,0,0,0,0,0,0,0,0,0,-1,1637,617,0,0
420,407,0,0,0,0,0,0,0,0,0,-1,1644,617,0,0
427,407,0,0,0,0,0,0,0,0,0,-1,1651,617,0,0
434,407,0,0,0,0,0,0,0,0,0,-1,1658,617,0,0
441,407,0,0,0,0,0,0,0,0,0,-1,1665,617,0,0
448,407,7.02893,2.13843,0,0,0,0,0,0,0,-1,1672,617,7.02899,-2.13844
455,407,7.55237,2.29242,0,0,0,0,0,0,0,-1,1679,617,7.55236,-2.29244
462,407,8.2926,2.46173,0,0,0,0,0,0,0,-1,1686,617,8.29261,-2.46174
469,407,8.71509,2.22681,0,0,0,0,0,0,0,-1,1693,617,8.71511,-2.22681
476,407,8.89917,1.47766,0,0,0,0,0,0,0,-1,1700,617,8.89914,-1.47768
483,407,9.02612,0.682983,0,0,0,0,0,0,0,-1,1707,617,9.02608,-0.683004
490,407,9.12659,0.000671387,0,0,0,0,0,0,0,-1,1714,617,9.12653,-0.000675931
497,407,7.76819,0.855835,0,0,0,0,0,0,0,-1,1721,617,7.7682,-0.855865
504,407,4.69336,0.160706,0,0,0,0,0,0,0,-1,1728,617,4.69337,-0.1607
511,407,4.07104,-0.00140381,0,0,0,0,0,0,0,-1,1735,617,4.07109,0.00141425
518,407,6.09534,1.9411,0,0,0,0,0,0,0,-1,1742,617,6.09532,-1.94113
525,407,5.72534,-1.35986,0,0,0,0,0,0,0,-1,1749,617,5.72529,1.35988
532,407,6.703,-2.24658,0,0,0,0,0,0,0,-1,1756,617,6.703,2.2466
539,407,6.63599,-2.02618,-0.00653274,-0.00136149,-0.00253362,-0.000327077,-0.00756716,-1.18318,0.00493936,0.0441598,1763,617,6.63603,2.02617
546,407,6.57996,-1.84052,-0.00466692,-0.000855158,-0.0020392,3.01492e-05,-0.00555223,-1.16121,0.00371158,0.0126595,1770,617,6.57993,1.84052
553,407,6.58276,-1.65399,-0.00398041,-0.000496575,-0.00186694,0.000314886,-0.00479187,-1.16078,0.00330454,0.013675,1777,617,6.58282,1.65398
560,407,6.61597,-1.45178,-0.00279849,-0.000246542,-0.00141013,0.00037921,-0.00342424,-1.15315,0.00241916,0.0147313,1784,617,6.61594,1.45181
567,407,6.64099,-1.27118,-0.00151994,-2.36919e-05,-0.000940497,0.000429944,-0.00197357,-1.12138,0.00147999,0.0268728,1791,617,6.641,1.27117
574,407,6.61853,-1.11267,-0.000131853,8.27294e-05,-0.000284042,0.000279068,-0.000328192,-0.965979,0.000350984,0.0242255,1798,617,6.61848,1.11269
581,407,6.58569,-0.957642,0.0013681,0.000134742,0.000346172,0.00145862,4.42236e-05,0.255757,0.000958012,0.0166751,1805,617,6.58572,0.957624
588,407,6.59131,-0.780151,0.00317866,0.000126639,0.00108948,0.00352766,-0.000222362,0.310009,0.00242929,0.0111637,1812,617,6.59128,0.780174
595,407,6.62366,-0.593445,0.00526826,0.000256422,0.00184026,0.00587139,-0.000346708,0.31671,0.0040348,0.0207874,1819,617,6.62372,0.593438
602,407,6.61987,-0.409485,0.00752733,0.000651076,0.00255646,0.00837362,-0.000195211,0.319684,0.00564861,0.0181758,1826,617,6.61989,0.409495
609,407,6.58606,-0.230896,0.00987628,0.0009342,0.00322223,0.0109164,-0.000105929,0.312239,0.00731317,0.0141829,1833,617,6.586,0.230919
616,407,6.63281,0.0309448,0.0123988,0.0014901,0.00394483,0.0136758,0.000213055,0.313078,0.00904705,0.0211759,1840,617,6.63286,-0.0309182
623,407,6.75586,0.301758,0.0149907,0.00272551,0.00450493,0.0164675,0.00124869,0.316782,0.0105867,0.0441234,1847,617,6.75592,-0.301769
630,407,6.93848,0.477112,0,0,0,0,0,0,0,-1,1854,617,6.93845,-0.47714
637,407,5.59973,0.707397,0,0,0,0,0,0,0,-1,1861,617,5.59969,-0.707368
644,407,7.13757,1.3642,0,0,0,0,0,0,0,-1,1868,617,7.13754,-1.3642
651,407,7.12671,2.01025,0,0,0,0,0,0,0,-1,1875,617,7.12674,-2.01028
658,407,3.76685,0.594177,0,0,0,0,0,0,0,-1,1882,617,3.76683,-0.594184
665,407,5.76123,0.375061,0,0,0,0,0,0,0,-1,1889,617,5.76118,-0.37509
672,407,0,0,0,0,0,0,0,0,0,-1,1896,617,0,0
679,407,0,0,0,0,0,0,0,0,0,-1,1903,617,0,0
686,407,0,0,0,0,0,0,0,0,0,-1,1910,617,0,0
693,407,0,0,0,0,0,0,0,0,0,-1,1917,617,0,0
700,407,0,0,0,0,0,0,0,0,0,-1,1924,617,0,0
707,407,0,0,0,0,0,0,0,0,0,-1,1931,617,0,0
714,407,0,0,0,0,0,0,0,0,0,-1,1938,617,0,0
721,407,0,0,0,0,0,0,0,0,0,-1,1945,617,0,0
728,407,0,0,0,0,0,0,0,0,0,-1,1952,617,0,0
735,407,0,0,0,0,0,0,0,0,0,-1,1959,617,0,0
742,407,0,0,0,0,0,0,0,0,0,-1,1966,617,0,0
749,407,0,0,0,0,0,0,0,0,0,-1,1973,617,0,0
756,407,0,0,0,0,0,0,0,0,0,-1,1980,617,0,0
763,407,0,0,0,0,0,0,0,0,0,-1,1987,617,0,0
770,407,0,0,0,0,0,0,0,0,0,-1,1994,617,0,0
777,407,0,0,0,0,0,0,0,0,0,-1,2001,617,0,0
784,407,0,0,0,0,0,0,0,0,0,-1,2008,617,0,0
791,407,0,0,0,0,0,0,0,0,0,-1,2015,617,0,0
798,407,0,0,0,0,0,0,0,0,0,-1,2022,617,0,0
805,407,0,0,0,0,0,0,0,0,0,-1,2029,617,0,0
812,407,0,0,0,0,0,0,0,0,0,-1,2036,617,0,0
-700,400,0,0,0,0,0,0,0,0,0,-1,524,624,0,0
-693,400,0,0,0,0,0,0,0,0,0,-1,531,624,0,0
-686,400,0,0,0,0,0,0,0,0,0,-1,538,624,0,0
-679,400,0,0,0,0,0,0,0,0,0,-1,545,624,0,0
-672,400,0,0,0,0,0,0,0,0,0,-1,552,624,0,0
-665,400,0,0,0,0,0,0,0,0,0,-1,559,624,0,0
-658,400,0,0,0,0,0,0,0,0,0,-1,566,624,0,0
-651,400,0,0,0,0,0,0,0,0,0,-1,573,624,0,0
-644,400,0,0,0,0,0,0,0,0,0,-1,580,624,0,0
-637,400,0,0,0,0,0,0,0,0,0,-1,587,624,0,0
-630,400,0,0,0,0,0,0,0,0,0,-1,594,624,0,0
-623,400,0,0,0,0,0,0,0,0,0,-1,601,624,0,0
-616,400,0,0,0,0,0,0,0,0,0,-1,608,624,0,0
-609,400,0,0,0,0,0,0,0,0,0,-1,615,624,0,0
-602,400,0,0,0,0,0,0,0,0,0,-1,622,624,0,0
-595,400,0,0,0,0,0,0,0,0,0,-1,629,624,0,0
-588,400,0,0,0,0,0,0,0,0,0,-1,636,624,0,0
-581,400,0,0,0,0,0,0,0,0,0,-1,643,624,0,0
-574,400,0,0,0,0,0,0,0,0,0,-1,650,624,0,0
-567,400,0,0,0,0,0,0,0,0,0,-1,657,624,0,0
-560,400,0,0,0,0,0,0,0,0,0,-1,664,624,0,0
-553,400,0,0,0,0,0,0,0,0,0,-1,671,624,0,0
-546,400,-5.37708,0.118958,0,0,0,0,0,0,0,-1,678,624,-5.37707,-0.118948
-539,400,-5.73517,4.28027,0,0,0,0,0,0,0,-1,685,624,-5.73516,-4.28025
-532,400,-6.32507,3.02686,0,0,0,0,0,0,0,-1,692,624,-6.32507,-3.02683
-525,400,-7.08356,1.90802,0,0,0,0,0,0,0,-1,699,624,-7.08354,-1.90801
-518,400,-2.18304,-1.49579,0,0,0,0,0,0,0,-1,706,624,-2.18304,1.49582
-511,400,-1.84985,-1.71204,0,0,0,0,0,0,0,-1,713,624,-1.84987,1.71206
-504,400,-1.75812,-1.12115,0,0,0,0,0,0,0,-1,720,624,-1.75809,1.12114
-497,400,-2.16571,-1.50409,-0.00793795,0.0117276,-0.0143429,0.0192846,-0.0154949,-1.08588,0.0201196,0.0316608,727,624,-2.16569,1.50411
-490,400,-2.24298,-1.52161,-0.00518093,0.00615769,-0.00747806,0.00987254,-0.00889578,-1.10974,0.0108408,0.0149371,734,624,-2.24299,1.52161
-483,400,-2.26776,-1.67944,-0.0026041,0.00109521,-0.00152104,0.0016403,-0.00314919,-1.22669,0.00281058,0.0139392,741,624,-2.26776,1.67947
-476,400,-2.25305,-1.83093,-0.0010019,-0.00134491,0.00136211,0.000199466,-0.00254627,0.722772,0.00176776,0.0128951,748,624,-2.25304,1.83092
-469,400,-2.27917,-1.99237,-0.000889163,-0.00104825,0.00125278,0.000286597,-0.00222401,0.753693,0.00158686,0.0141279,755,624,-2.27917,1.99234
-462,400,-2.27039,-2.17584,-0.00118967,-0.000924728,0.0011483,9.87125e-05,-0.00221311,0.842826,0.00150939,0.0179482,762,624,-2.27041,2.17582
-455,400,-2.28833,-2.31628,-0.00186603,-0.00109784,0.00128495,-0.000140809,-0.00282306,0.930632,0.0018369,0.0194037,769,624,-2.28833,2.31626
-448,400,-2.28247,-2.46875,-0.00267906,-0.00161418,0.00162679,-0.000434915,-0.00385832,0.943551,0.0024402,0.0151464,776,624,-2.28245,2.46875
-441,400,-2.26996,-2.62109,-0.0038019,-0.00223888,0.002138,-0.000744029,-0.00529675,0.960621,0.00331114,0.0135308,783,624,-2.26998,2.6211
-434,400,-2.26563,-2.78381,-0.00528744,-0.00333425,0.00275962,-0.00138352,-0.00723818,0.955465,0.00443677,0.010531,790,624,-2.26563,2.78382
-427,400,-2.26337,-2.95557,-0.00696134,-0.00461038,0.00369085,-0.00191234,-0.00965938,0.939562,0.00590625,0.00944961,797,624,-2.26334,2.95555
-420,400,-2.23364,-3.14661,-0.00869239,-0.00620526,0.00468209,-0.00260441,-0.0122932,0.915201,0.00748005,0.0106594,804,624,-2.23363,3.14658
-413,400,-2.19788,-3.29462,-0.0104278,-0.00812711,0.00560443,-0.0035562,-0.0149987,0.886622,0.00904975,0.0202608,811,624,-2.19786,3.29464
-406,400,-2.31659,-3.23694,-0.0121747,-0.0104942,0.00643053,-0.00484926,-0.0178196,0.85036,0.0106383,0.0340544,818,624,-2.31656,3.23691
-399,400,-2.27954,-3.34998,-0.0137007,-0.0133821,0.00711753,-0.0064221,-0.0206607,0.796589,0.0122097,0.043283,825,624,-2.27954,3.35
-392,400,-2.21869,-3.58826,0,0,0,0,0,0,0,-1,832,624,-2.21869,3.58827
-385,400,-2.07251,-3.65839,0,0,0,0,0,0,0,-1,839,624,-2.0725,3.65837
-378,400,-2.27655,-3.70203,0,0,0,0,0,0,0,-1,846,624,-2.27658,3.70203
-371,400,-4.00922,-3.81506,0,0,0,0,0,0,0,-1,853,624,-4.00921,3.81507
-364,400,-3.69025,-3.5376,0,0,0,0,0,0,0,-1,860,624,-3.69024,3.53759
-357,400,-1.43842,-3.62018,0,0,0,0,0,0,0,-1,867,624,-1.43842,3.62018
-350,400,-0.496826,-4.11804,0,0,0,0,0,0,0,-1,874,624,-0.496807,4.11803
-343,400,-0.111755,-5.8924,0,0,0,0,0,0,0,-1,881,624,-0.111774,5.89237
-336,400,0,0,0,0,0,0,0,0,0,-1,888,624,0,0
-329,400,0,0,0,0,0,0,0,0,0,-1,895,624,0,0
-322,400,0,0,0,0,0,0,0,0,0,-1,902,624,0,0
-315,400,0,0,0,0,0,0,0,0,0,-1,909,624,0,0
-308,400,0,0,0,0,0,0,0,0,0,-1,916,624,0,0
-301,400,0,0,0,0,0,0,0,0,0,-1,923,624,0,0
-294,400,0,0,0,0,0,0,0,0,0,-1,930,624,0,0
-287,400,0,0,0,0,0,0,0,0,0,-1,937,624,0,0
-280,400,0,0,0,0,0,0,0,0,0,-1,944,624,0,0
-273,400,0,0,0,0,0,0,0,0,0,-1,951,624,0,0
-266,400,0,0,0,0,0,0,0,0,0,-1,958,624,0,0
-259,400,0,0,0,0,0,0,0,0,0,-1,965,624,0,0
-252,400,0,0,0,0,0,0,0,0,0,-1,972,624,0,0
-245,400,0,0,0,0,0,0,0,0,0,-1,979,624,0,0
-238,400,0,0,0,0,0,0,0,0,0,-1,986,624,0,0
-231,400,0,0,0,0,0,0,0,0,0,-1,993,624,0,0
-224,400,0,0,0,0,0,0,0,0,0,-1,1000,624,0,0
-217,400,0,0,0,0,0,0,0,0,0,-1,1007,624,0,0
-210,400,0,0,0,0,0,0,0,0,0,-1,1014,624,0,0
-203,400,0,0,0,0,0,0,0,0,0,-1,1021,624,0,0
-196,400,0,0,0,0,0,0,0,0,0,-1,1028,624,0,0
-189,400,0,0,0,0,0,0,0,0,0,-1,1035,624,0,0
-182,400,0,0,0,0,0,0,0,0,0,-1,1042,624,0,0
-175,400,0,0,0,0,0,0,0,0,0,-1,1049,624,0,0
-168,400,0,0,0,0,0,0,0,0,0,-1,1056,624,0,0
-161,400,0,0,0,0,0,0,0,0,0,-1,1063,624,0,0
-154,400,0,0,0,0,0,0,0,0,0,-1,1070,624,0,0
-147,400,0,0,0,0,0,0,0,0,0,-1,1077,624,0,0
-140,400,0,0,0,0,0,0,0,0,0,-1,1084,624,0,0
-133,400,0,0,0,0,0,0,0,0,0,-1,1091,624,0,0
-126,400,0,0,0,0,0,0,0,0,0,-1,1098,624,0,0
-119,400,0,0,0,0,0,0,0,0,0,-1,1105,624,0,0
-112,400,0,0,0,0,0,0,0,0,0,-1,1112,624,0,0
-105,400,0,0,0,0,0,0,0,0,0,-1,1119,624,0,0
-98,400,0,0,0,0,0,0,0,0,0,-1,1126,624,0,0
-91,400,0,0,0,0,0,0,0,0,0,-1,1133,624,0,0
-84,400,0,0,0,0,0,0,0,0,0,-1,1140,624,0,0
-77,400,0,0,0,0,0,0,0,0,0,-1,1147,624,0,0
-70,400,0,0,0,0,0,0,0,0,0,-1,1154,624,0,0
-63,400,0,0,0,0,0,0,0,0,0,-1,1161,624,0,0
-56,400,0,0,0,0,0,0,0,0,0,-1,1168,624,0,0
-49,400,0,0,0,0,0,0,0,0,0,-1,1175,624,0,0
-42,400,0,0,0,0,0,0,0,0,0,-1,1182,624,0,0
-35,400,0,0,0,0,0,0,0,0,0,-1,1189,624,0,0
-28,400,0,0,0,0,0,0,0,0,0,-1,1196,624,0,0
-21,400,0,0,0,0,0,0,0,0,0,-1,1203,624,0,0
-14,400,0,0,0,0,0,0,0,0,0,-1,1210,624,0,0
-7,400,0,0,0,0,0,0,0,0,0,-1,1217,624,0,0
0,400,0,0,0,0,0,0,0,0,0,-1,1224,624,0,0
7,400,0,0,0,0,0,0,0,0,0,-1,1231,624,0,0
14,400,0,0,0,0,0,0,0,0,0,-1,1238,624,0,0
21,400,0,0,0,0,0,0,0,0,0,-1,1245,624,0,0
28,400,0,0,0,0,0,0,0,0,0,-1,1252,624,0,0
35,400,0,0,0,0,0,0,0,0,0,-1,1259,624,0,0
42,400,0,0,0,0,0,0,0,0,0,-1,1266,624,0,0
49,400,0,0,0,0,0,0,0,0,0,-1,1273,624,0,0
56,400,0,0,0,0,0,0,0,0,0,-1,1280,624,0,0
63,400,0,0,0,0,0,0,0,0,0,-1,1287,624,0,0
70,400,0,0,0,0,0,0,0,0,0,-1,1294,624,0,0
77,400,0,0,0,0,0,0,0,0,0,-1,1301,624,0,0
84,400,0,0,0,0,0,0,0,0,0,-1,1308,624,0,0
91,400,0,0,0,0,0,0,0,0,0,-1,1315,624,0,0
98,400,0,0,0,0,0,0,0,0,0,-1,1322,624,0,0
105,400,0,0,0,0,0,0,0,0,0,-1,1329,624,0,0
112,400,0,0,0,0,0,0,0,0,0,-1,1336,624,0,0
119,400,0,0,0,0,0,0,0,0,0,-1,1343,624,0,0
126,400,0,0,0,0,0,0,0,0,0,-1,1350,624,0,0
133,400,0,0,0,0,0,0,0,0,0,-1,1357,624,0,0
140,400,0,0,0,0,0,0,0,0,0,-1,1364,624,0,0
147,400,0,0,0,0,0,0,0,0,0,-1,1371,624,0,0
154,400,0,0,0,0,0,0,0,0,0,-1,1378,624,0,0
161,400,0,0,0,0,0,0,0,0,0,-1,1385,624,0,0
168,400,0,0,0,0,0,0,0,0,0,-1,1392,624,0,0
175,400,0,0,0,0,0,0,0,0,0,-1,1399,624,0,0
182,400,0,0,0,0,0,0,0,0,0,-1,1406,624,0,0
189,400,0,0,0,0,0,0,0,0,0,-1,1413,624,0,0
196,400,0,0,0,0,0,0,0,0,0,-1,1420,624,0,0
203,400,0,0,0,0,0,0,0,0,0,-1,1427,624,0,0
210,400,0,0,0,0,0,0,0,0,0,-1,1434,624,0,0
217,400,0,0,0,0,0,0,0,0,0,-1,1441,624,0,0
224,400,0,0,0,0,0,0,0,0,0,-1,1448,624,0,0
231,400,0,0,0,0,0,0,0,0,0,-1,1455,624,0,0
238,400,0,0,0,0,0,0,0,0,0,-1,1462,624,0,0
245,400,0,0,0,0,0,0,0,0,0,-1,1469,624,0,0
252,400,0,0,0,0,0,0,0,0,0,-1,1476,624,0,0
259,400,0,0,0,0,0,0,0,0,0,-1,1483,624,0,0
266,400,0,0,0,0,0,0,0,0,0,-1,1490,624,0,0
273,400,0,0,0,0,0,0,0,0,0,-1,1497,624,0,0
280,400,0,0,0,0,0,0,0,0,0,-1,1504,624,0,0
287,400,0,0,0,0,0,0,0,0,0,-1,1511,624,0,0
294,400,0,0,0,0,0,0,0,0,0,-1,1518,624,0,0
301,400,0,0,0,0,0,0,0,0,0,-1,1525,624,0,0
308,400,0,0,0,0,0,0,0,0,0,-1,1532,624,0,0
315,400,0,0,0,0,0,0,0,0,0,-1,1539,624,0,0
322,400,0,0,0,0,0,0,0,0,0,-1,1546,624,0,0
329,400,0,0,0,0,0,0,0,0,0,-1,1553,624,0,0
336,400,0,0,0,0,0,0,0,0,0,-1,1560,624,0,0
343,400,0,0,0,0,0,0,0,0,0,-1,1567,624,0,0
350,400,0,0,0,0,0,0,0,0,0,-1,1574,624,0,0
357,400,0,0,0,0,0,0,0,0,0,-1,1581,624,0,0
364,400,0,0,0,0,0,0,0,0,0,-1,1588,624,0,0
371,400,0,0,0,0,0,0,0,0,0,-1,1595,624,0,0
378,400,0,0,0,0,0,0,0,0,0,-1,1602,624,0,0
385,400,0,0,0,0,0,0,0,0,0,-1,1609,624,0,0
392,400,0,0,0,0,0,0,0,0,0,-1,1616,624,0,0
399,400,0,0,0,0,0,0,0,0,0,-1,1623,624,0,0
406,400,0,0,0,0,0,0,0,0,0,-1,1630,624,0,0
413,400,0,0,0,0,0,0,0,0,0,-1,1637,624,0,0
420,400,0,0,0,0,0,0,0,0,0,-1,1644,624,0,0
427,400,0,0,0,0,0,0,0,0,0,-1,1651,624,0,0
434,400,0,0,0,0,0,0,0,0,0,-1,1658,624,0,0
441,400,0,0,0,0,0,0,0,0,0,-1,1665,624,0,0
448,400,0,0,0,0,0,0,0,0,0,-1,1672,624,0,0
455,400,8.91309,2.75885,0,0,0,0,0,0,0,-1,1679,624,8.91312,-2.75885
462,400,8.90356,2.37878,0,0,0,0,0,0,0,-1,1686,624,8.90353,-2.37878
469,400,9.14429,1.76849,0,0,0,0,0,0,0,-1,1693,624,9.14432,-1.76847
476,400,9.23254,1.25995,0,0,0,0,0,0,0,-1,1700,624,9.23252,-1.25994
483,400,9.59766,0.562439,0,0,0,0,0,0,0,-1,1707,624,9.59771,-0.56242
490,400,9.92578,-0.213745,0,0,0,0,0,0,0,-1,1714,624,9.92579,0.21376
497,400,9.19141,0.175232,0,0,0,0,0,0,0,-1,1721,624,9.19138,-0.175209
504,400,9.23438,0.00823975,0,0,0,0,0,0,0,-1,1728,624,9.23436,-0.00823766
511,400,6.16687,3.3501,0,0,0,0,0,0,0,-1,1735,624,6.16682,-3.35007
518,400,6.55237,1.74994,0,0,0,0,0,0,0,-1,1742,624,6.55236,-1.74993
525,400,6.99731,1.08783,0,0,0,0,0,0,0,-1,1749,624,6.99736,-1.08785
532,400,6.96582,-1.74982,0,0,0,0,0,0,0,-1,1756,624,6.96585,1.74983
539,400,6.93848,-1.81824,-0.00866335,-0.0016497,-0.00372854,-3.79435e-05,-0.0102751,-1.16278,0.00683746,0.0496507,1763,624,6.93851,1.81824
546,400,6.81519,-1.86469,-0.00640128,-0.00100759,-0.00303375,0.0003547,-0.00776357,-1.14874,0.00529791,0.0165304,1770,624,6.81518,1.86466
553,400,6.76331,-1.65143,-0.00478307,-0.000594952,-0.00252426,0.000590773,-0.00596879,-1.13166,0.00419002,0.0119958,1777,624,6.76328,1.65143
560,400,6.78271,-1.43793,-0.00343878,-0.000319712,-0.00198998,0.00064903,-0.00440753,-1.11776,0.00317687,0.013158,1784,624,6.78274,1.43795
567,400,6.80115,-1.29138,-0.00273865,-5.11767e-05,-0.00164588,0.000729834,-0.00351966,-1.12774,0.00262378,0.0169939,1791,624,6.80114,1.2914
574,400,6.78113,-1.13452,-0.00215125,4.83317e-05,-0.00121567,0.000587869,-0.00269079,-1.1531,0.00201855,0.0194701,1798,624,6.78112,1.13452
581,400,6.7439,-0.956604,-0.00169851,0.000125107,-0.000871402,0.000474542,-0.00204795,-1.18943,0.00154792,0.0172886,1805,624,6.74388,0.956576
588,400,6.75769,-0.780701,-0.00126815,0.000174004,-0.000510026,0.000336148,-0.00143029,-1.26299,0.00108311,0.012834,1812,624,6.75773,0.780703
595,400,6.78601,-0.60907,-0.000757294,0.000408186,-0.000184809,0.000436789,-0.000785897,-1.41724,0.000715445,0.0120817,1819,624,6.78596,0.609061
602,400,6.79126,-0.426025,-0.00027048,0.000891863,5.01719e-05,0.000894025,-0.000272642,1.52774,0.000704702,0.0123538,1826,624,6.79126,0.426041
609,400,6.75818,-0.247253,-7.27582e-06,0.00128118,0.000131371,0.00129444,-2.05341e-05,1.47021,0.000869883,0.0132676,1833,624,6.75814,0.247258
616,400,6.76624,-0.0576782,0.000161632,0.00182007,0.000179341,0.00183925,0.00014246,1.4643,0.00118154,0.0161574,1840,624,6.76625,0.0576877
623,400,6.90234,0.210327,0.000303715,0.0029741,4.39911e-05,0.00297482,0.000302991,1.55433,0.00189033,0.0303453,1847,624,6.90228,-0.210343
630,400,6.61816,0.372559,0.000409913,0.00409343,-0.00036517,0.00412928,0.000374061,-1.47293,0.00263702,0.0398574,1854,624,6.61812,-0.372541
637,400,5.98987,0.586487,0,0,0,0,0,0,0,-1,1861,624,5.98986,-0.586499
644,400,5.40674,0.835449,0,0,0,0,0,0,0,-1,1868,624,5.40672,-0.835444
651,400,6.83264,1.19507,0,0,0,0,0,0,0,-1,1875,624,6.83265,-1.19504
658,400,6.91614,2.34265,0,0,0,0,0,0,0,-1,1882,624,6.91614,-2.34262
665,400,5.98438,0.522522,0,0,0,0,0,0,0,-1,1889,624,5.98442,-0.522552
672,400,0,0,0,0,0,0,0,0,0,-1,1896,624,0,0
679,400,0,0,0,0,0,0,0,0,0,-1,1903,624,0,0
686,400,0,0,0,0,0,0,0,0,0,-1,1910,624,0,0
693,400,0,0,0,0,0,0,0,0,0,-1,1917,624,0,0
700,400,0,0,0,0,0,0,0,0,0,-1,1924,624,0,0
707,400,0,0,0,0,0,0,0,0,0,-1,1931,624,0,0
714,400,0,0,0,0,0,0,0,0,0,-1,1938,624,0,0
721,400,0,0,0,0,0,0,0,0,0,-1,1945,624,0,0
728,400,0,0,0,0,0,0,0,0,0,-1,1952,624,0,0
735,400,0,0,0,0,0,0,0,0,0,-1,1959,624,0,0
742,400,0,0,0,0,0,0,0,0,0,-1,1966,624,0,0
749,400,0,0,0,0,0,0,0,0,0,-1,1973,624,0,0
756,400,0,0,0,0,0,0,0,0,0,-1,1980,624,0,0
763,400,0,0,0,0,0,0,0,0,0,-1,1987,624,0,0
770,400,0,0,0,0,0,0,0,0,0,-1,1994,624,0,0
777,400,0,0,0,0,0,0,0,0,0,-1,2001,624,0,0
784,400,0,0,0,0,0,0,0,0,0,-1,2008,624,0,0
791,400,0,0,0,0,0,0,0,0,0,-1,2015,624,0,0
798,400,0,0,0,0,0,0,0,0,0,-1,2022,624,0,0
805,400,0,0,0,0,0,0,0,0,0,-1,2029,624,0,0
812,400,0,0,0,0,0,0,0,0,0,-1,2036,624,0,0
-700,393,0,0,0,0,0,0,0,0,0,-1,524,631,0,0
-693,393,0,0,0,0,0,0,0,0,0,-1,531,631,0,0
-686,393,0,0,0,0,0,0,0,0,0,-1,538,631,0,0
-679,393,0,0,0,0,0,0,0,0,0,-1,545,631,0,0
-672,393,0,0,0,0,0,0,0,0,0,-1,552,631,0,0
-665,393,0,0,0,0,0,0,0,0,0,-1,559,631,0,0
-658,393,0,0,0,0,0,0,0,0,0,-1,566,631,0,0
-651,393,0,0,0,0,0,0,0,0,0,-1,573,631,0,0
-644,393,0,0,0,0,0,0,0,0,0,-1,580,631,0,0
-637,393,0,0,0,0,0,0,0,0,0,-1,587,631,0,0
-630,393,0,0,0,0,0,0,0,0,0,-1,594,631,0,0
-623,393,0,0,0,0,0,0,0,0,0,-1,601,631,0,0
-616,393,0,0,0,0,0,0,0,0,0,-1,608,631,0,0
-609,393,0,0,0,0,0,0,0,0,0,-1,615,631,0,0
-602,393,0,0,0,0,0,0,0,0,0,-1,622,631,0,0
-595,393,0,0,0,0,0,0,0,0,0,-1,629,631,0,0
-588,393,0,0,0,0,0,0,0,0,0,-1,636,631,0,0
-581,393,0,0,0,0,0,0,0,0,0,-1,643,631,0,0
-574,393,0,0,0,0,0,0,0,0,0,-1,650,631,0,0
-567,393,0,0,0,0,0,0,0,0,0,-1,657,631,0,0
-560,393,0,0,0,0,0,0,0,0,0,-1,664,631,0,0
-553,393,-4.95001,1.22772,0,0,0,0,0,0,0,-1,671,631,-4.94999,-1.22774
-546,393,-4.65851,-0.741272,0,0,0,0,0,0,0,-1,678,631,-4.65848,0.74126
-539,393,-4.38177,-2.64526,0,0,0,0,0,0,0,-1,685,631,-4.3818,2.64525
-532,393,-5.24463,2.12268,0,0,0,0,0,0,0,-1,692,631,-5.2446,-2.12269
-525,393,-3.4906,-0.842896,0,0,0,0,0,0,0,-1,699,631,-3.49058,0.842889
-518,393,-2.76563,-1.21136,0,0,0,0,0,0,0,-1,706,631,-2.76564,1.21136
-511,393,-2.26105,-1.28839,-0.0131801,0.0247141,-0.0306403,0.0417923,-0.0302583,-1.06231,0.0417757,0.0455388,713,631,-2.26105,1.28838
-504,393,-2.14471,-1.22754,-0.00979181,0.015487,-0.0192507,0.0258768,-0.0201816,-1.07589,0.0266595,0.0418063,720,631,-2.14469,1.22754
-497,393,-2.41266,-1.31305,-0.00695912,0.0088183,-0.011023,0.0144846,-0.0126254,-1.09598,0.0156642,0.0209176,727,631,-2.41268,1.31304
-490,393,-2.4165,-1.54224,-0.00458209,0.00454958,-0.00572503,0.0073065,-0.00733902,-1.12201,0.0084556,0.013511,734,631,-2.41648,1.54223
-483,393,-2.41699,-1.69843,-0.00230022,0.000643838,-0.00122165,0.00108474,-0.00274113,-1.22444,0.00227682,0.0176602,741,631,-2.41698,1.69842
-476,393,-2.40985,-1.83832,-0.000919554,-0.00136659,0.001082,-3.82276e-05,-0.00224792,0.683542,0.00148603,0.0151887,748,631,-2.40986,1.83833
-469,393,-2.42896,-2.00293,-0.000865818,-0.00132686,0.00123956,0.000164472,-0.00235715,0.693464,0.00162902,0.0124527,755,631,-2.42894,2.00296
-462,393,-2.4223,-2.18042,-0.00114224,-0.00144931,0.00131012,2.33147e-05,-0.00261486,0.727068,0.00175106,0.0149639,762,631,-2.42229,2.18041
-455,393,-2.43304,-2.33331,-0.00185196,-0.00187135,0.0016243,-0.000237326,-0.00348598,0.782414,0.00224905,0.0142707,769,631,-2.43303,2.33334
-448,393,-2.46552,-2.49951,-0.00276561,-0.00259054,0.00213167,-0.000544613,-0.00481154,0.805919,0.00304245,0.013754,776,631,-2.46554,2.49952
-441,393,-2.46069,-2.65875,-0.00411295,-0.0034694,0.00284625,-0.000926797,-0.00665555,0.841686,0.00416264,0.0120226,783,631,-2.46072,2.65875
-434,393,-2.4411,-2.79474,-0.0059243,-0.004798,0.00368775,-0.00163065,-0.00909165,0.861167,0.00559729,0.00997258,790,631,-2.44112,2.79474
-427,393,-2.40991,-2.96747,-0.00811142,-0.00632244,0.00489683,-0.00223907,-0.0121948,0.875735,0.00749581,0.0133459,797,631,-2.40988,2.96748
-420,393,-2.38251,-3.11542,-0.0105101,-0.00819042,0.00620837,-0.00303448,-0.015666,0.877743,0.00959386,0.0230111,804,631,-2.38248,3.11544
-413,393,-2.48059,-3.04413,-0.0130918,-0.0104816,0.00749165,-0.00418224,-0.0193912,0.871637,0.0117834,0.0370318,811,631,-2.48059,3.04411
-406,393,-2.78241,-2.92175,-0.015953,-0.0133864,0.0086899,-0.00588554,-0.0234538,0.858707,0.0140899,0.047046,818,631,-2.78241,2.92173
-399,393,-2.53833,-3.052,0,0,0,0,0,0,0,-1,825,631,-2.53833,3.05202
-392,393,-2.08063,-3.02386,0,0,0,0,0,0,0,-1,832,631,-2.08063,3.02384
-385,393,-3.16931,-0.624756,0,0,0,0,0,0,0,-1,839,631,-3.16928,0.624764
-378,393,-2.34045,-1.48468,0,0,0,0,0,0,0,-1,846,631,-2.34048,1.48471
-371,393,-1.4248,-2.56482,0,0,0,0,0,0,0,-1,853,631,-1.4248,2.56481
-364,393,-1.349,-3.17017,0,0,0,0,0,0,0,-1,860,631,-1.349,3.17014
-357,393,-1.84821,-4.28015,0,0,0,0,0,0,0,-1,867,631,-1.84823,4.28018
-350,393,-7.6015,0.331421,0,0,0,0,0,0,0,-1,874,631,-7.60151,-0.331426
-343,393,0,0,0,0,0,0,0,0,0,-1,881,631,0,0
-336,393,0,0,0,0,0,0,0,0,0,-1,888,631,0,0
-329,393,0,0,0,0,0,0,0,0,0,-1,895,631,0,0
-322,393,0,0,0,0,0,0,0,0,0,-1,902,631,0,0
-315,393,0,0,0,0,0,0,0,0,0,-1,909,631,0,0
-308,393,0,0,0,0,0,0,0,0,0,-1,916,631,0,0
-301,393,0,0,0,0,0,0,0,0,0,-1,923,631,0,0
-294,393,0,0,0,0,0,0,0,0,0,-1,930,631,0,0
-287,393,0,0,0,0,0,0,0,0,0,-1,937,631,0,0
-280,393,0,0,0,0,0,0,0,0,0,-1,944,631,0,0
-273,393,0,0,0,0,0,0,0,0,0,-1,951,631,0,0
-266,393,0,0,0,0,0,0,0,0,0,-1,958,631,0,0
-259,393,0,0,0,0,0,0,0,0,0,-1,965,631,0,0
-252,393,0,0,0,0,0,0,0,0,0,-1,972,631,0,0
-245,393,0,0,0,0,0,0,0,0,0,-1,979,631,0,0
-238,393,0,0,0,0,0,0,0,0,0,-1,986,631,0,0
-231,393,0,0,0,0,0,0,0,0,0,-1,993,631,0,0
-224,393,0,0,0,0,0,0,0,0,0,-1,1000,631,0,0
-217,393,0,0,0,0,0,0,0,0,0,-1,1007,631,0,0
-210,393,0,0,0,0,0,0,0,0,0,-1,1014,631,0,0
-203,393,0,0,0,0,0,0,0,0,0,-1,1021,631,0,0
-196,393,0,0,0,0,0,0,0,0,0,-1,1028,631,0,0
-189,393,0,0,0,0,0,0,0,0,0,-1,1035,631,0,0
-182,393,0,0,0,0,0,0,0,0,0,-1,1042,631,0,0
-175,393,0,0,0,0,0,0,0,0,0,-1,1049,631,0,0
-168,393,0,0,0,0,0,0,0,0,0,-1,1056,631,0,0
-161,393,0,0,0,0,0,0,0,0,0,-1,1063,631,0,0
-154,393,0,0,0,0,0,0,0,0,0,-1,1070,631,0,0
-147,393,0,0,0,0,0,0,0,0,0,-1,1077,631,0,0
-140,393,0,0,0,0,0,0,0,0,0,-1,1084,631,0,0
-133,393,0,0,0,0,0,0,0,0,0,-1,1091,631,0,0
-126,393,0,0,0,0,0,0,0,0,0,-1,1098,631,0,0
-119,393,0,0,0,0,0,0,0,0,0,-1,1105,631,0,0
-112,393,0,0,0,0,0,0,0,0,0,-1,1112,631,0,0
-105,393,0,0,0,0,0,0,0,0,0,-1,1119,631,0,0
-98,393,0,0,0,0,0,0,0,0,0,-1,1126,631,0,0
-91,393,0,0,0,0,0,0,0,0,0,-1,1133,631,0,0
-84,393,0,0,0,0,0,0,0,0,0,-1,1140,631,0,0
-77,393,0,0,0,0,0,0,0,0,0,-1,1147,631,0,0
-70,393,0,0,0,0,0,0,0,0,0,-1,1154,631,0,0
-63,393,0,0,0,0,0,0,0,0,0,-1,1161,631,0,0
-56,393,0,0,0,0,0,0,0,0,0,-1,1168,631,0,0
-49,393,0,0,0,0,0,0,0,0,0,-1,1175,631,0,0
-42,393,0,0,0,0,0,0,0,0,0,-1,1182,631,0,0
-35,393,0,0,0,0,0,0,0,0,0,-1,1189,631,0,0
-28,393,0,0,0,0,0,0,0,0,0,-1,1196,631,0,0
-21,393,0,0,0,0,0,0,0,0,0,-1,1203,631,0,0
-14,393,0,0,0,0,0,0,0,0,0,-1,1210,631,0,0
-7,393,0,0,0,0,0,0,0,0,0,-1,1217,631,0,0
0,393,0,0,0,0,0,0,0,0,0,-1,1224,631,0,0
7,393,0,0,0,0,0,0,0,0,0,-1,1231,631,0,0
14,393,0,0,0,0,0,0,0,0,0,-1,1238,631,0,0
21,393,0,0,0,0,0,0,0,0,0,-1,1245,631,0,0
28,393,0,0,0,0,0,0,0,0,0,-1,1252,631,0,0
35,393,0,0,0,0,0,0,0,0,0,-1,1259,631,0,0
42,393,0,0,0,0,0,0,0,0,0,-1,1266,631,0,0
49,393,0,0,0,0,0,0,0,0,0,-1,1273,631,0,0
56,393,0,0,0,0,0,0,0,0,0,-1,1280,631,0,0
63,393,0,0,0,0,0,0,0,0,0,-1,1287,631,0,0
70,393,0,0,0,0,0,0,0,0,0,-1,1294,631,0,0
77,393,0,0,0,0,0,0,0,0,0,-1,1301,631,0,0
84,393,0,0,0,0,0,0,0,0,0,-1,1308,631,0,0
91,393,0,0,0,0,0,0,0,0,0,-1,1315,631,0,0
98,393,0,0,0,0,0,0,0,0,0,-1,1322,631,0,0
105,393,0,0,0,0,0,0,0,0,0,-1,1329,631,0,0
112,393,0,0,0,0,0,0,0,0,0,-1,1336,631,0,0
119,393,0,0,0,0,0,0,0,0,0,-1,1343,631,0,0
126,393,0,0,0,0,0,0,0,0,0,-1,1350,631,0,0
133,393,0,0,0,0,0,0,0,0,0,-1,1357,631,0,0
140,393,0,0,0,0,0,0,0,0,0,-1,1364,631,0,0
147,393,0,0,0,0,0,0,0,0,0,-1,1371,631,0,0
154,393,0,0,0,0,0,0,0,0,0,-1,1378,631,0,0
161,393,0,0,0,0,0,0,0,0,0,-1,1385,631,0,0
168,393,0,0,0,0,0,0,0,0,0,-1,1392,631,0,0
175,393,0,0,0,0,0,0,0,0,0,-1,1399,631,0,0
182,393,0,0,0,0,0,0,0,0,0,-1,1406,631,0,0
189,393,0,0,0,0,0,0,0,0,0,-1,1413,631,0,0
196,393,0,0,0,0,0,0,0,0,0,-1,1420,631,0,0
203,393,0,0,0,0,0,0,0,0,0,-1,1427,631,0,0
210,393,0,0,0,0,0,0,0,0,0,-1,1434,631,0,0
217,393,0,0,0,0,0,0,0,0,0,-1,1441,631,0,0
224,393,0,0,0,0,0,0,0,0,0,-1,1448,631,0,0
231,393,0,0,0,0,0,0,0,0,0,-1,1455,631,0,0
238,393,0,0,0,0,0,0,0,0,0,-1,1462,631,0,0
245,393,0,0,0,0,0,0,0,0,0,-1,1469,631,0,0
252,393,0,0,0,0,0,0,0,0,0,-1,1476,631,0,0
259,393,0,0,0,0,0,0,0,0,0,-1,1483,631,0,0
266,393,0,0,0,0,0,0,0,0,0,-1,1490,631,0,0
273,393,0,0,0,0,0,0,0,0,0,-1,1497,631,0,0
280,393,0,0,0,0,0,0,0,0,0,-1,1504,631,0,0
287,393,0,0,0,0,0,0,0,0,0,-1,1511,631,0,0
294,393,0,0,0,0,0,0,0,0,0,-1,1518,631,0,0
301,393,0,0,0,0,0,0,0,0,0,-1,1525,631,0,0
308,393,0,0,0,0,0,0,0,0,0,-1,1532,631,0,0
315,393,0,0,0,0,0,0,0,0,0,-1,1539,631,0,0
322,393,0,0,0,0,0,0,0,0,0,-1,1546,631,0,0
329,393,0,0,0,0,0,0,0,0,0,-1,1553,631,0,0
336,393,0,0,0,0,0,0,0,0,0,-1,1560,631,0,0
343,393,0,0,0,0,0,0,0,0,0,-1,1567,631,0,0
350,393,0,0,0,0,0,0,0,0,0,-1,1574,631,0,0
357,393,0,0,0,0,0,0,0,0,0,-1,1581,631,0,0
364,393,0,0,0,0,0,0,0,0,0,-1,1588,631,0,0
371,393,0,0,0,0,0,0,0,0,0,-1,1595,631,0,0
378,393,0,0,0,0,0,0,0,0,0,-1,1602,631,0,0
385,393,0,0,0,0,0,0,0,0,0,-1,1609,631,0,0
392,393,0,0,0,0,0,0,0,0,0,-1,1616,631,0,0
399,393,0,0,0,0,0,0,0,0,0,-1,1623,631,0,0
406,393,0,0,0,0,0,0,0,0,0,-1,1630,631,0,0
413,393,0,0,0,0,0,0,0,0,0,-1,1637,631,0,0
420,393,0,0,0,0,0,0,0,0,0,-1,1644,631,0,0
427,393,0,0,0,0,0,0,0,0,0,-1,1651,631,0,0
434,393,0,0,0,0,0,0,0,0,0,-1,1658,631,0,0
441,393,0,0,0,0,0,0,0,0,0,-1,1665,631,0,0
448,393,0,0,0,0,0,0,0,0,0,-1,1672,631,0,0
455,393,0,0,0,0,0,0,0,0,0,-1,1679,631,0,0
462,393,8.51099,1.89502,0,0,0,0,0,0,0,-1,1686,631,8.51103,-1.89504
469,393,9.39465,1.51703,0,0,0,0,0,0,0,-1,1693,631,9.39465,-1.51703
476,393,9.95569,1.185,0,0,0,0,0,0,0,-1,1700,631,9.95575,-1.18497
483,393,10.5267,0.887329,0,0,0,0,0,0,0,-1,1707,631,10.5267,-0.887321
490,393,10.9303,0.761414,0,0,0,0,0,0,0,-1,1714,631,10.9303,-0.761386
497,393,8.32153,1.88104,0,0,0,0,0,0,0,-1,1721,631,8.32148,-1.88103
504,393,9.46985,1.78711,0,0,0,0,0,0,0,-1,1728,631,9.46986,-1.78713
511,393,9.66565,-0.375977,0,0,0,0,0,0,0,-1,1735,631,9.66571,0.375949
518,393,7.01599,1.62482,0,0,0,0,0,0,0,-1,1742,631,7.01597,-1.62483
525,393,7.88245,-1.13422,0,0,0,0,0,0,0,-1,1749,631,7.88246,1.13423
532,393,7.06335,-1.18103,0,0,0,0,0,0,0,-1,1756,631,7.06332,1.18101
539,393,7.25452,-1.83301,0,0,0,0,0,0,0,-1,1763,631,7.25454,1.83303
546,393,7.12402,-1.74652,-0.00868837,-0.000629225,-0.00414976,0.00112549,-0.0104431,-1.17075,0.00736594,0.0341939,1770,631,7.12405,1.74652
553,393,6.97168,-1.6936,-0.00663219,-0.00032178,-0.00350943,0.00124228,-0.00819625,-1.15155,0.00592185,0.0152364,1777,631,6.97167,1.6936
560,393,6.96716,-1.48773,-0.0050058,-0.000167258,-0.00288579,0.00117919,-0.00635225,-1.13424,0.00467771,0.0127018,1784,631,6.96716,1.48775
567,393,6.95776,-1.29114,-0.00408339,6.22216e-06,-0.00245452,0.00115609,-0.00523325,-1.13269,0.00393127,0.0141595,1791,631,6.95772,1.29114
574,393,6.95361,-1.14343,-0.0032515,-3.78023e-05,-0.00196881,0.000896646,-0.00418595,-1.12765,0.00313258,0.0157555,1798,631,6.95364,1.14344
581,393,6.94214,-0.961243,-0.00252332,-5.53699e-05,-0.00153381,0.000679222,-0.00325791,-1.12414,0.0024302,0.0137289,1805,631,6.94215,0.961227
588,393,6.95239,-0.77002,-0.00186781,-5.08045e-05,-0.00108962,0.000459373,-0.00237799,-1.1329,0.00175856,0.0144269,1812,631,6.95245,0.770039
595,393,6.97534,-0.601196,-0.00117008,0.000185294,-0.000670596,0.000461,-0.00144579,-1.18073,0.00114878,0.0124443,1819,631,6.97533,0.60121
602,393,6.96765,-0.427185,-0.000536109,0.000651718,-0.000353255,0.000748835,-0.000633225,-1.30251,0.000798863,0.0142285,1826,631,6.96759,0.427175
609,393,6.95105,-0.241089,-0.00018191,0.00106033,-0.000216607,0.00109701,-0.000218596,-1.40302,0.000814051,0.0150084,1833,631,6.95106,0.241114
616,393,6.93994,-0.0714111,5.40072e-05,0.00148664,-0.000154961,0.00150321,3.74374e-05,-1.46427,0.000989899,0.014811,1840,631,6.93997,0.0713848
623,393,6.95203,0.135315,0.000299789,0.00243676,-0.000247198,0.00246499,0.000271566,-1.45712,0.0015607,0.0184956,1847,631,6.95207,-0.135336
630,393,7.00806,0.356445,0.000540678,0.00338131,-0.000606785,0.00350549,0.000416492,-1.36892,0.00221128,0.0298792,1854,631,7.008,-0.356454
637,393,6.96228,0.573792,0,0,0,0,0,0,0,-1,1861,631,6.96234,-0.573809
644,393,6.75317,0.727844,0.00592967,0.00486036,-0.00163572,0.0071159,0.00367413,-0.62744,0.0041091,0.045966,1868,631,6.75312,-0.727822
651,393,6.89343,1.03387,0.0106053,0.00610376,-0.0021561,0.0114714,0.00523769,-0.381959,0.00663132,0.0462825,1875,631,6.89346,-1.03388
658,393,7.02161,1.30676,0,0,0,0,0,0,0,-1,1882,631,7.02161,-1.30677
665,393,4.66687,1.0874,0,0,0,0,0,0,0,-1,1889,631,4.66689,-1.08738
672,393,5.56921,1.91486,0,0,0,0,0,0,0,-1,1896,631,5.56927,-1.91486
679,393,0,0,0,0,0,0,0,0,0,-1,1903,631,0,0
686,393,0,0,0,0,0,0,0,0,0,-1,1910,631,0,0
693,393,0,0,0,0,0,0,0,0,0,-1,1917,631,0,0
700,393,0,0,0,0,0,0,0,0,0,-1,1924,631,0,0
707,393,0,0,0,0,0,0,0,0,0,-1,1931,631,0,0
714,393,0,0,0,0,0,0,0,0,0,-1,1938,631,0,0
721,393,0,0,0,0,0,0,0,0,0,-1,1945,631,0,0
728,393,0,0,0,0,0,0,0,0,0,-1,1952,631,0,0
735,393,0,0,0,0,0,0,0,0,0,-1,1959,631,0,0
742,393,0,0,0,0,0,0,0,0,0,-1,1966,631,0,0
749,393,0,0,0,0,0,0,0,0,0,-1,1973,631,0,0
756,393,0,0,0,0,0,0,0,0,0,-1,1980,631,0,0
763,393,0,0,0,0,0,0,0,0,0,-1,1987,631,0,0
770,393,0,0,0,0,0,0,0,0,0,-1,1994,631,0,0
777,393,0,0,0,0,0,0,0,0,0,-1,2001,631,0,0
784,393,0,0,0,0,0,0,0,0,0,-1,2008,631,0,0
791,393,0,0,0,0,0,0,0,0,0,-1,2015,631,0,0
798,393,0,0,0,0,0,0,0,0,0,-1,2022,631,0,0
805,393,0,0,0,0,0,0,0,0,0,-1,2029,631,0,0
812,393,0,0,0,0,0,0,0,0,0,-1,2036,631,0,0
-700,386,0,0,0,0,0,0,0,0,0,-1,524,638,0,0
-693,386,0,0,0,0,0,0,0,0,0,-1,531,638,0,0
-686,386,0,0,0,0,0,0,0,0,0,-1,538,638,0,0
-679,386,0,0,0,0,0,0,0,0,0,-1,545,638,0,0
-672,386,0,0,0,0,0,0,0,0,0,-1,552,638,0,0
-665,386,0,0,0,0,0,0,0,0,0,-1,559,638,0,0
-658,386,0,0,0,0,0,0,0,0,0,-1,566,638,0,0
-651,386,0,0,0,0,0,0,0,0,0,-1,573,638,0,0
-644,386,0,0,0,0,0,0,0,0,0,-1,580,638,0,0
-637,386,0,0,0,0,0,0,0,0,0,-1,587,638,0,0
-630,386,0,0,0,0,0,0,0,0,0,-1,594,638,0,0
-623,386,0,0,0,0,0,0,0,0,0,-1,601,638,0,0
-616,386,0,0,0,0,0,0,0,0,0,-1,608,638,0,0
-609,386,0,0,0,0,0,0,0,0,0,-1,615,638,0,0
-602,386,0,0,0,0,0,0,0,0,0,-1,622,638,0,0
-595,386,0,0,0,0,0,0,0,0,0,-1,629,638,0,0
-588,386,0,0,0,0,0,0,0,0,0,-1,636,638,0,0
-581,386,0,0,0,0,0,0,0,0,0,-1,643,638,0,0
-574,386,0,0,0,0,0,0,0,0,0,-1,650,638,0,0
-567,386,0,0,0,0,0,0,0,0,0,-1,657,638,0,0
-560,386,-4.2887,2.3324,0,0,0,0,0,0,0,-1,664,638,-4.28869,-2.33239
-553,386,-4.60669,0.0904541,0,0,0,0,0,0,0,-1,671,638,-4.60671,-0.0904537
-546,386,-4.95508,-2.09094,0,0,0,0,0,0,0,-1,678,638,-4.95506,2.09096
-539,386,-3.41394,-3.4696,0,0,0,0,0,0,0,-1,685,638,-3.41397,3.46962
-532,386,-3.54681,1.15985,0,0,0,0,0,0,0,-1,692,638,-3.5468,-1.15984
-525,386,-2.44043,-0.500366,0,0,0,0,0,0,0,-1,699,638,-2.44042,0.500379
-518,386,-2.63422,-0.912048,0,0,0,0,0,0,0,-1,706,638,-2.6342,0.912029
-511,386,-2.50909,-0.973877,-0.0109498,0.0187198,-0.0232291,0.031447,-0.023677,-1.06957,0.0319311,0.0428585,713,638,-2.50908,0.97389
-504,386,-2.5506,-1.21436,-0.0081939,0.0117332,-0.0145167,0.0193767,-0.0158374,-1.08615,0.0203651,0.0230494,720,638,-2.55063,1.21435
-497,386,-2.59192,-1.39276,-0.0058604,0.006633,-0.00829555,0.0107708,-0.00999818,-1.10811,0.0119937,0.0110229,727,638,-2.59192,1.39278
-490,386,-2.57776,-1.56439,-0.00378305,0.00330053,-0.00428863,0.00532081,-0.00580333,-1.13055,0.00642454,0.0118841,734,638,-2.57777,1.56442
-483,386,-2.56689,-1.72443,-0.00179119,0.00024383,-0.000927514,0.000603132,-0.00215049,-1.20122,0.00167138,0.0154057,741,638,-2.5669,1.72445
-476,386,-2.56909,-1.86462,-0.000675886,-0.00144602,0.000908894,-7.38521e-05,-0.00204805,0.585029,0.00134143,0.0149174,748,638,-2.5691,1.86462
-469,386,-2.58911,-2.00433,-0.000796135,-0.00161882,0.00127975,0.00013675,-0.00255171,0.6299,0.00174851,0.011404,755,638,-2.58911,2.00436
-462,386,-2.57288,-2.18152,-0.00116928,-0.00195288,0.0015038,-7.08085e-06,-0.00311508,0.65796,0.00207436,0.0109082,762,638,-2.57287,2.18155
-455,386,-2.58643,-2.35791,-0.00203427,-0.00260262,0.00199,-0.000308259,-0.00432863,0.714478,0.00278869,0.0117651,769,638,-2.58645,2.3579
-448,386,-2.60974,-2.52167,-0.00318648,-0.00351052,0.00267779,-0.000665815,-0.00603119,0.755182,0.00381825,0.0124001,776,638,-2.60973,2.5217
-441,386,-2.61444,-2.664,-0.00490485,-0.00465704,0.00362346,-0.00115537,-0.00840652,0.802489,0.00526168,0.0125663,783,638,-2.61446,2.66403
-434,386,-2.57874,-2.83844,-0.00718876,-0.00623985,0.00472907,-0.00196149,-0.0114671,0.835394,0.00708205,0.0167302,790,638,-2.57872,2.83843
-427,386,-2.54187,-3.01154,-0.0100702,-0.00805447,0.00627447,-0.00270743,-0.0154172,0.865032,0.00950508,0.0345446,797,638,-2.54188,3.01155
-420,386,-2.71564,-2.96155,-0.0133742,-0.0102532,0.00799542,-0.00366738,-0.01996,0.881774,0.0122683,0.0393951,804,638,-2.71566,2.96156
-413,386,-2.66187,-2.92273,0,0,0,0,0,0,0,-1,811,638,-2.6619,2.9227
-406,386,-3.10077,-2.62891,0,0,0,0,0,0,0,-1,818,638,-3.10076,2.62889
-399,386,-3.57117,-3.42126,0,0,0,0,0,0,0,-1,825,638,-3.57116,3.42129
-392,386,-4.00977,0.403625,0,0,0,0,0,0,0,-1,832,638,-4.0098,-0.403616
-385,386,-3.2406,-0.118469,0,0,0,0,0,0,0,-1,839,638,-3.24058,0.118485
-378,386,-2.55243,-1.22748,0,0,0,0,0,0,0,-1,846,638,-2.55243,1.22748
-371,386,-1.46411,-2.6026,0,0,0,0,0,0,0,-1,853,638,-1.46413,2.60261
-364,386,-3.06403,0.651733,0,0,0,0,0,0,0,-1,860,638,-3.064,-0.651763
-357,386,-2.5058,-4.91699,0,0,0,0,0,0,0,-1,867,638,-2.50581,4.91698
-350,386,0,0,0,0,0,0,0,0,0,-1,874,638,0,0
-343,386,0,0,0,0,0,0,0,0,0,-1,881,638,0,0
-336,386,0,0,0,0,0,0,0,0,0,-1,888,638,0,0
-329,386,0,0,0,0,0,0,0,0,0,-1,895,638,0,0
-322,386,0,0,0,0,0,0,0,0,0,-1,902,638,0,0
-315,386,0,0,0,0,0,0,0,0,0,-1,909,638,0,0
-308,386,0,0,0,0,0,0,0,0,0,-1,916,638,0,0
-301,386,0,0,0,0,0,0,0,0,0,-1,923,638,0,0
-294,386,0,0,0,0,0,0,0,0,0,-1,930,638,0,0
-287,386,0,0,0,0,0,0,0,0,0,-1,937,638,0,0
-280,386,0,0,0,0,0,0,0,0,0,-1,944,638,0,0
-273,386,0,0,0,0,0,0,0,0,0,-1,951,638,0,0
-266,386,0,0,0,0,0,0,0,0,0,-1,958,638,0,0
-259,386,0,0,0,0,0,0,0,0,0,-1,965,638,0,0
-252,386,0,0,0,0,0,0,0,0,0,-1,972,638,0,0
-245,386,0,0,0,0,0,0,0,0,0,-1,979,638,0,0
-238,386,0,0,0,0,0,0,0,0,0,-1,986,638,0,0
-231,386,0,0,0,0,0,0,0,0,0,-1,993,638,0,0
-224,386,0,0,0,0,0,0,0,0,0,-1,1000,638,0,0
-217,386,0,0,0,0,0,0,0,0,0,-1,1007,638,0,0
-210,386,0,0,0,0,0,0,0,0,0,-1,1014,638,0,0
-203,386,0,0,0,0,0,0,0,0,0,-1,1021,638,0,0
-196,386,0,0,0,0,0,0,0,0,0,-1,1028,638,0,0
-189,386,0,0,0,0,0,0,0,0,0,-1,1035,638,0,0
-182,386,0,0,0,0,0,0,0,0,0,-1,1042,638,0,0
-175,386,0,0,0,0,0,0,0,0,0,-1,1049,638,0,0
-168,386,0,0,0,0,0,0,0,0,0,-1,1056,638,0,0
-161,386,0,0,0,0,0,0,0,0,0,-1,1063,638,0,0
-154,386,0,0,0,0,0,0,0,0,0,-1,1070,638,0,0
-147,386,0,0,0,0,0,0,0,0,0,-1,1077,638,0,0
-140,386,0,0,0,0,0,0,0,0,0,-1,1084,638,0,0
-133,386,0,0,0,0,0,0,0,0,0,-1,1091,638,0,0
-126,386,0,0,0,0,0,0,0,0,0,-1,1098,638,0,0
-119,386,0,0,0,0,0,0,0,0,0,-1,1105,638,0,0
-112,386,0,0,0,0,0,0,0,0,0,-1,1112,638,0,0
-105,386,0,0,0,0,0,0,0,0,0,-1,1119,638,0,0
-98,386,0,0,0,0,0,0,0,0,0,-1,1126,638,0,0
-91,386,0,0,0,0,0,0,0,0,0,-1,1133,638,0,0
-84,386,0,0,0,0,0,0,0,0,0,-1,1140,638,0,0
-77,386,0,0,0,0,0,0,0,0,0,-1,1147,638,0,0
-70,386,0,0,0,0,0,0,0,0,0,-1,1154,638,0,0
-63,386,0,0,0,0,0,0,0,0,0,-1,1161,638,0,0
-56,386,0,0,0,0,0,0,0,0,0,-1,1168,638,0,0
-49,386,0,0,0,0,0,0,0,0,0,-1,1175,638,0,0
-42,386,0,0,0,0,0,0,0,0,0,-1,1182,638,0,0
-35,386,0,0,0,0,0,0,0,0,0,-1,1189,638,0,0
-28,386,0,0,0,0,0,0,0,0,0,-1,1196,638,0,0
-21,386,0,0,0,0,0,0,0,0,0,-1,1203,638,0,0
-14,386,0,0,0,0,0,0,0,0,0,-1,1210,638,0,0
-7,386,0,0,0,0,0,0,0,0,0,-1,1217,638,0,0
0,386,0,0,0,0,0,0,0,0,0,-1,1224,638,0,0
7,386,0,0,0,0,0,0,0,0,0,-1,1231,638,0,0
14,386,0,0,0,0,0,0,0,0,0,-1,1238,638,0,0
21,386,0,0,0,0,0,0,0,0,0,-1,1245,638,0,0
28,386,0,0,0,0,0,0,0,0,0,-1,1252,638,0,0
35,386,0,0,0,0,0,0,0,0,0,-1,1259,638,0,0
42,386,0,0,0,0,0,0,0,0,0,-1,1266,638,0,0
49,386,0,0,0,0,0,0,0,0,0,-1,1273,638,0,0
56,386,0,0,0,0,0,0,0,0,0,-1,1280,638,0,0
63,386,0,0,0,0,0,0,0,0,0,-1,1287,638,0,0
70,386,0,0,0,0,0,0,0,0,0,-1,1294,638,0,0
77,386,0,0,0,0,0,0,0,0,0,-1,1301,638,0,0
84,386,0,0,0,0,0,0,0,0,0,-1,1308,638,0,0
91,386,0,0,0,0,0,0,0,0,0,-1,1315,638,0,0
98,386,0,0,0,0,0,0,0,0,0,-1,1322,638,0,0
105,386,0,0,0,0,0,0,0,0,0,-1,1329,638,0,0
112,386,0,0,0,0,0,0,0,0,0,-1,1336,638,0,0
119,386,0,0,0,0,0,0,0,0,0,-1,1343,638,0,0
126,386,0,0,0,0,0,0,0,0,0,-1,1350,638,0,0
133,386,0,0,0,0,0,0,0,0,0,-1,1357,638,0,0
140,386,0,0,0,0,0,0,0,0,0,-1,1364,638,0,0
147,386,0,0,0,0,0,0,0,0,0,-1,1371,638,0,0
154,386,0,0,0,0,0,0,0,0,0,-1,1378,638,0,0
161,386,0,0,0,0,0,0,0,0,0,-1,1385,638,0,0
168,386,0,0,0,0,0,0,0,0,0,-1,1392,638,0,0
175,386,0,0,0,0,0,0,0,0,0,-1,1399,638,0,0
182,386,0,0,0,0,0,0,0,0,0,-1,1406,638,0,0
189,386,0,0,0,0,0,0,0,0,0,-1,1413,638,0,0
196,386,0,0,0,0,0,0,0,0,0,-1,1420,638,0,0
203,386,0,0,0,0,0,0,0,0,0,-1,1427,638,0,0
210,386,0,0,0,0,0,0,0,0,0,-1,1434,638,0,0
217,386,0,0,0,0,0,0,0,0,0,-1,1441,638,0,0
224,386,0,0,0,0,0,0,0,0,0,-1,1448,638,0,0
231,386,0,0,0,0,0,0,0,0,0,-1,1455,638,0,0
238,386,0,0,0,0,0,0,0,0,0,-1,1462,638,0,0
245,386,0,0,0,0,0,0,0,0,0,-1,1469,638,0,0
252,386,0,0,0,0,0,0,0,0,0,-1,1476,638,0,0
259,386,0,0,0,0,0,0,0,0,0,-1,1483,638,0,0
266,386,0,0,0,0,0,0,0,0,0,-1,1490,638,0,0
273,386,0,0,0,0,0,0,0,0,0,-1,1497,638,0,0
280,386,0,0,0,0,0,0,0,0,0,-1,1504,638,0,0
287,386,0,0,0,0,0,0,0,0,0,-1,1511,638,0,0
294,386,0,0,0,0,0,0,0,0,0,-1,1518,638,0,0
301,386,0,0,0,0,0,0,0,0,0,-1,1525,638,0,0
308,386,0,0,0,0,0,0,0,0,0,-1,1532,638,0,0
315,386,0,0,0,0,0,0,0,0,0,-1,1539,638,0,0
322,386,0,0,0,0,0,0,0,0,0,-1,1546,638,0,0
329,386,0,0,0,0,0,0,0,0,0,-1,1553,638,0,0
336,386,0,0,0,0,0,0,0,0,0,-1,1560,638,0,0
343,386,0,0,0,0,0,0,0,0,0,-1,1567,638,0,0
350,386,0,0,0,0,0,0,0,0,0,-1,1574,638,0,0
357,386,0,0,0,0,0,0,0,0,0,-1,1581,638,0,0
364,386,0,0,0,0,0,0,0,0,0,-1,1588,638,0,0
371,386,0,0,0,0,0,0,0,0,0,-1,1595,638,0,0
378,386,0,0,0,0,0,0,0,0,0,-1,1602,638,0,0
385,386,0,0,0,0,0,0,0,0,0,-1,1609,638,0,0
392,386,0,0,0,0,0,0,0,0,0,-1,1616,638,0,0
399,386,0,0,0,0,0,0,0,0,0,-1,1623,638,0,0
406,386,0,0,0,0,0,0,0,0,0,-1,1630,638,0,0
413,386,0,0,0,0,0,0,0,0,0,-1,1637,638,0,0
420,386,0,0,0,0,0,0,0,0,0,-1,1644,638,0,0
427,386,0,0,0,0,0,0,0,0,0,-1,1651,638,0,0
434,386,0,0,0,0,0,0,0,0,0,-1,1658,638,0,0
441,386,0,0,0,0,0,0,0,0,0,-1,1665,638,0,0
448,386,0,0,0,0,0,0,0,0,0,-1,1672,638,0,0
455,386,0,0,0,0,0,0,0,0,0,-1,1679,638,0,0
462,386,0,0,0,0,0,0,0,0,0,-1,1686,638,0,0
469,386,9.84692,1.55804,0,0,0,0,0,0,0,-1,1693,638,9.84691,-1.55807
476,386,10.6145,0.986511,0,0,0,0,0,0,0,-1,1700,638,10.6145,-0.986529
483,386,11.4113,0.732971,0,0,0,0,0,0,0,-1,1707,638,11.4112,-0.732958
490,386,7.79785,1.79572,0,0,0,0,0,0,0,-1,1714,638,7.79788,-1.7957
497,386,8.96362,1.77081,0,0,0,0,0,0,0,-1,1721,638,8.96357,-1.77081
504,386,10.0555,1.69427,0,0,0,0,0,0,0,-1,1728,638,10.0555,-1.69426
511,386,11.2172,1.534,0,0,0,0,0,0,0,-1,1735,638,11.2172,-1.53398
518,386,7.41553,1.75238,0,0,0,0,0,0,0,-1,1742,638,7.41547,-1.75238
525,386,8.82422,-1.1449,0,0,0,0,0,0,0,-1,1749,638,8.82426,1.14492
532,386,8.21069,0.19751,0,0,0,0,0,0,0,-1,1756,638,8.21067,-0.197522
539,386,7.48425,-0.624512,0,0,0,0,0,0,0,-1,1763,638,7.48425,0.624485
546,386,7.06226,-1.67596,0,0,0,0,0,0,0,-1,1770,638,7.06229,1.67597
553,386,7.12769,-1.51355,-0.00888091,0.00030137,-0.0045479,0.00217258,-0.0107521,-1.18046,0.00799133,0.0352999,1777,638,7.12771,1.51357
560,386,7.16101,-1.39349,-0.00699151,0.000291948,-0.00385163,0.0019509,-0.00865046,-1.1641,0.00651537,0.0257208,1784,638,7.16096,1.39348
567,386,7.11084,-1.26337,-0.00581113,0.000284948,-0.00329408,0.00172484,-0.00725102,-1.15871,0.00549986,0.0179422,1791,638,7.11086,1.26335
574,386,7.12158,-1.1181,-0.00468516,4.1962e-05,-0.0027266,0.00128683,-0.00593003,-1.1425,0.00444483,0.0137368,1798,638,7.12162,1.11812
581,386,7.10974,-0.959167,-0.00363694,-0.000106681,-0.0021809,0.000933897,-0.00467752,-1.12561,0.00347177,0.0116351,1805,638,7.10975,0.959145
588,386,7.12878,-0.776306,-0.00273267,-0.000172608,-0.00165336,0.000638314,-0.00354359,-1.1148,0.0026014,0.0107936,1812,638,7.12879,0.776284
595,386,7.12793,-0.62207,-0.00184515,2.34226e-05,-0.00115682,0.000576118,-0.00239785,-1.12509,0.00182124,0.0124555,1819,638,7.12797,0.622078
602,386,7.12402,-0.438904,-0.00107183,0.000425789,-0.000786125,0.000762663,-0.0014087,-1.16594,0.001272,0.0144101,1826,638,7.124,0.438896
609,386,7.12817,-0.254639,-0.000629055,0.000806486,-0.000628571,0.00104281,-0.00086538,-1.21118,0.00110328,0.0145382,1833,638,7.12815,0.25462
616,386,7.12488,-0.0751343,-0.000332352,0.0010853,-0.000590943,0.00129932,-0.000546374,-1.22332,0.00109477,0.0116715,1840,638,7.12483,0.0751148
623,386,7.10522,0.107178,-1.1863e-05,0.00179138,-0.000677847,0.00201777,-0.000238248,-1.24847,0.00143122,0.0105077,1847,638,7.10526,-0.107199
630,386,7.14587,0.271912,0.000326282,0.00254362,-0.0010139,0.00293733,-6.74234e-05,-1.20041,0.00198108,0.0170672,1854,638,7.14593,-0.271904
637,386,7.12585,0.436096,0.00220601,0.00304001,-0.00143368,0.00411611,0.00112992,-0.926923,0.00245567,0.027776,1861,638,7.12588,-0.436119
644,386,6.98035,0.551819,0.00550181,0.0033151,-0.0020594,0.0067401,0.00207682,-0.541363,0.00398576,0.0363582,1868,638,6.98031,-0.551845
651,386,7.01819,0.732666,0.00975479,0.003831,-0.00264492,0.0107638,0.00282195,-0.364462,0.00644459,0.0456739,1875,638,7.01825,-0.732674
658,386,7.18616,0.770691,0,0,0,0,0,0,0,-1,1882,638,7.18611,-0.770704
665,386,7.48633,0.081665,0,0,0,0,0,0,0,-1,1889,638,7.4863,-0.0816793
672,386,5.67126,2.79889,0,0,0,0,0,0,0,-1,1896,638,5.67123,-2.79889
679,386,6.69678,3.61572,0,0,0,0,0,0,0,-1,1903,638,6.69677,-3.61573
686,386,0,0,0,0,0,0,0,0,0,-1,1910,638,0,0
693,386,0,0,0,0,0,0,0,0,0,-1,1917,638,0,0
700,386,0,0,0,0,0,0,0,0,0,-1,1924,638,0,0
707,386,0,0,0,0,0,0,0,0,0,-1,1931,638,0,0
714,386,0,0,0,0,0,0,0,0,0,-1,1938,638,0,0
721,386,0,0,0,0,0,0,0,0,0,-1,1945,638,0,0
728,386,0,0,0,0,0,0,0,0,0,-1,1952,638,0,0
735,386,0,0,0,0,0,0,0,0,0,-1,1959,638,0,0
742,386,0,0,0,0,0,0,0,0,0,-1,1966,638,0,0
749,386,0,0,0,0,0,0,0,0,0,-1,1973,638,0,0
756,386,0,0,0,0,0,0,0,0,0,-1,1980,638,0,0
763,386,0,0,0,0,0,0,0,0,0,-1,1987,638,0,0
770,386,0,0,0,0,0,0,0,0,0,-1,1994,638,0,0
777,386,0,0,0,0,0,0,0,0,0,-1,2001,638,0,0
784,386,0,0,0,0,0,0,0,0,0,-1,2008,638,0,0
791,386,0,0,0,0,0,0,0,0,0,-1,2015,638,0,0
798,386,0,0,0,0,0,0,0,0,0,-1,2022,638,0,0
805,386,0,0,0,0,0,0,0,0,0,-1,2029,638,0,0
812,386,0,0,0,0,0,0,0,0,0,-1,2036,638,0,0
-700,379,0,0,0,0,0,0,0,0,0,-1,524,645,0,0
-693,379,0,0,0,0,0,0,0,0,0,-1,531,645,0,0
-686,379,0,0,0,0,0,0,0,0,0,-1,538,645,0,0
-679,379,0,0,0,0,0,0,0,0,0,-1,545,645,0,0
-672,379,0,0,0,0,0,0,0,0,0,-1,552,645,0,0
-665,379,0,0,0,0,0,0,0,0,0,-1,559,645,0,0
-658,379,0,0,0,0,0,0,0,0,0,-1,566,645,0,0
-651,379,0,0,0,0,0,0,0,0,0,-1,573,645,0,0
-644,379,0,0,0,0,0,0,0,0,0,-1,580,645,0,0
-637,379,0,0,0,0,0,0,0,0,0,-1,587,645,0,0
-630,379,0,0,0,0,0,0,0,0,0,-1,594,645,0,0
-623,379,0,0,0,0,0,0,0,0,0,-1,601,645,0,0
-616,379,0,0,0,0,0,0,0,0,0,-1,608,645,0,0
-609,379,0,0,0,0,0,0,0,0,0,-1,615,645,0,0
-602,379,0,0,0,0,0,0,0,0,0,-1,622,645,0,0
-595,379,0,0,0,0,0,0,0,0,0,-1,629,645,0,0
-588,379,0,0,0,0,0,0,0,0,0,-1,636,645,0,0
-581,379,0,0,0,0,0,0,0,0,0,-1,643,645,0,0
-574,379,0,0,0,0,0,0,0,0,0,-1,650,645,0,0
-567,379,-3.82068,3.1806,0,0,0,0,0,0,0,-1,657,645,-3.82069,-3.1806
-560,379,-3.82104,1.45129,0,0,0,0,0,0,0,-1,664,645,-3.82108,-1.45126
-553,379,-3.97083,-0.535828,0,0,0,0,0,0,0,-1,671,645,-3.97082,0.535825
-546,379,-2.67047,0.248169,0,0,0,0,0,0,0,-1,678,645,-2.67048,-0.248182
-539,379,-4.03125,0.937134,0,0,0,0,0,0,0,-1,685,645,-4.03126,-0.937135
-532,379,-2.95416,0.327576,0,0,0,0,0,0,0,-1,692,645,-2.95415,-0.327546
-525,379,-2.75818,-0.411438,-0.0133456,0.0303537,-0.0366642,0.0511851,-0.034177,-1.05411,0.0496088,0.0441702,699,645,-2.75816,0.411465
-518,379,-2.74158,-0.879333,-0.0121619,0.0214409,-0.0261958,0.0357604,-0.0264814,-1.07054,0.0360681,0.0434339,706,645,-2.74158,0.879303
-511,379,-2.6911,-1.14349,-0.0092336,0.014204,-0.0175068,0.0235522,-0.0185818,-1.08034,0.0243825,0.0265824,713,645,-2.6911,1.14348
-504,379,-2.72961,-1.26166,-0.00697137,0.00893544,-0.0109276,0.0144975,-0.0125334,-1.09998,0.0156201,0.0128783,720,645,-2.72963,1.26168
-497,379,-2.74481,-1.40326,-0.00501983,0.00495933,-0.0062496,0.00796684,-0.00802734,-1.12228,0.00923427,0.00989409,727,645,-2.74482,1.40324
-490,379,-2.73212,-1.55518,-0.00317204,0.00222162,-0.00319687,0.00370724,-0.00465766,-1.13578,0.00483986,0.0104426,734,645,-2.73214,1.5552
-483,379,-2.72418,-1.71973,-0.00141272,-0.000318088,-0.000629384,-3.13299e-05,-0.00169948,-1.14328,0.00112269,0.012225,741,645,-2.72417,1.71975
-476,379,-2.72369,-1.85529,-0.000513913,-0.00189831,0.000916956,-5.72212e-05,-0.002355,0.462088,0.00155128,0.0127534,748,645,-2.72369,1.85527
-469,379,-2.7384,-2.00281,-0.000782834,-0.00235554,0.00148999,0.00011558,-0.00325395,0.542596,0.00220883,0.0117486,755,645,-2.73843,2.00282
-462,379,-2.74304,-2.17944,-0.00123811,-0.00299238,0.00188922,-3.2332e-05,-0.00419816,0.568064,0.00278806,0.00889525,762,645,-2.74305,2.17942
-455,379,-2.74579,-2.34387,-0.00223611,-0.00396143,0.00257185,-0.000386097,-0.00581144,0.623583,0.00375222,0.00896686,769,645,-2.74578,2.34384
-448,379,-2.73883,-2.48865,-0.00361789,-0.00515834,0.00348062,-0.000823291,-0.00795294,0.676508,0.00504995,0.0113291,776,645,-2.73886,2.48863
-441,379,-2.72925,-2.66608,-0.00570983,-0.00668023,0.00470446,-0.00146562,-0.0109244,0.734012,0.00684691,0.014602,783,645,-2.72925,2.66608
-434,379,-2.68646,-2.72754,0,0,0,0,0,0,0,-1,790,645,-2.68646,2.72756
-427,379,-2.95264,-2.84088,-0.0120932,-0.0108506,0.00805129,-0.00339666,-0.0195471,0.823905,0.0120597,0.0417867,797,645,-2.95261,2.84086
-420,379,-3.45392,-2.97968,-0.0163951,-0.0134891,0.0101984,-0.00464073,-0.0252435,0.85616,0.0155152,0.0432255,804,645,-3.45394,2.9797
-413,379,-4.12262,-3.5498,0,0,0,0,0,0,0,-1,811,645,-4.12261,3.5498
-406,379,-4.64063,-4.38489,0,0,0,0,0,0,0,-1,818,645,-4.64065,4.3849
-399,379,-2.93536,-1.40118,0,0,0,0,0,0,0,-1,825,645,-2.93534,1.40119
-392,379,-4.16711,-0.466003,0,0,0,0,0,0,0,-1,832,645,-4.16714,0.465992
-385,379,-3.51862,0.441101,0,0,0,0,0,0,0,-1,839,645,-3.51859,-0.441072
-378,379,-5.3504,0.212219,0,0,0,0,0,0,0,-1,846,645,-5.35038,-0.212241
-371,379,-4.32092,-0.186707,0,0,0,0,0,0,0,-1,853,645,-4.3209,0.186707
-364,379,-3.40887,-0.549805,0,0,0,0,0,0,0,-1,860,645,-3.4089,0.549802
-357,379,0,0,0,0,0,0,0,0,0,-1,867,645,0,0
-350,379,0,0,0,0,0,0,0,0,0,-1,874,645,0,0
-343,379,0,0,0,0,0,0,0,0,0,-1,881,645,0,0
-336,379,0,0,0,0,0,0,0,0,0,-1,888,645,0,0
-329,379,0,0,0,0,0,0,0,0,0,-1,895,645,0,0
-322,379,0,0,0,0,0,0,0,0,0,-1,902,645,0,0
-315,379,0,0,0,0,0,0,0,0,0,-1,909,645,0,0
-308,379,0,0,0,0,0,0,0,0,0,-1,916,645,0,0
-301,379,0,0,0,0,0,0,0,0,0,-1,923,645,0,0
-294,379,0,0,0,0,0,0,0,0,0,-1,930,645,0,0
-287,379,0,0,0,0,0,0,0,0,0,-1,937,645,0,0
-280,379,0,0,0,0,0,0,0,0,0,-1,944,645,0,0
-273,379,0,0,0,0,0,0,0,0,0,-1,951,645,0,0
-266,379,0,0,0,0,0,0,0,0,0,-1,958,645,0,0
-259,379,0,0,0,0,0,0,0,0,0,-1,965,645,0,0
-252,379,0,0,0,0,0,0,0,0,0,-1,972,645,0,0
-245,379,0,0,0,0,0,0,0,0,0,-1,979,645,0,0
-238,379,0,0,0,0,0,0,0,0,0,-1,986,645,0,0
-231,379,0,0,0,0,0,0,0,0,0,-1,993,645,0,0
-224,379,0,0,0,0,0,0,0,0,0,-1,1000,645,0,0
-217,379,0,0,0,0,0,0,0,0,0,-1,1007,645,0,0
-210,379,0,0,0,0,0,0,0,0,0,-1,1014,645,0,0
-203,379,0,0,0,0,0,0,0,0,0,-1,1021,645,0,0
-196,379,0,0,0,0,0,0,0,0,0,-1,1028,645,0,0
-189,379,0,0,0,0,0,0,0,0,0,-1,1035,645,0,0
-182,379,0,0,0,0,0,0,0,0,0,-1,1042,645,0,0
-175,379,0,0,0,0,0,0,0,0,0,-1,1049,645,0,0
-168,379,0,0,0,0,0,0,0,0,0,-1,1056,645,0,0
-161,379,0,0,0,0,0,0,0,0,0,-1,1063,645,0,0
-154,379,0,0,0,0,0,0,0,0,0,-1,1070,645,0,0
-147,379,0,0,0,0,0,0,0,0,0,-1,1077,645,0,0
-140,379,0,0,0,0,0,0,0,0,0,-1,1084,645,0,0
-133,379,0,0,0,0,0,0,0,0,0,-1,1091,645,0,0
-126,379,0,0,0,0,0,0,0,0,0,-1,1098,645,0,0
-119,379,0,0,0,0,0,0,0,0,0,-1,1105,645,0,0
-112,379,0,0,0,0,0,0,0,0,0,-1,1112,645,0,0
-105,379,0,0,0,0,0,0,0,0,0,-1,1119,645,0,0
-98,379,0,0,0,0,0,0,0,0,0,-1,1126,645,0,0
-91,379,0,0,0,0,0,0,0,0,0,-1,1133,645,0,0
-84,379,0,0,0,0,0,0,0,0,0,-1,1140,645,0,0
-77,379,0,0,0,0,0,0,0,0,0,-1,1147,645,0,0
-70,379,0,0,0,0,0,0,0,0,0,-1,1154,645,0,0
-63,379,0,0,0,0,0,0,0,0,0,-1,1161,645,0,0
-56,379,0,0,0,0,0,0,0,0,0,-1,1168,645,0,0
-49,379,0,0,0,0,0,0,0,0,0,-1,1175,645,0,0
-42,379,0,0,0,0,0,0,0,0,0,-1,1182,645,0,0
-35,379,0,0,0,0,0,0,0,0,0,-1,1189,645,0,0
-28,379,0,0,0,0,0,0,0,0,0,-1,1196,645,0,0
-21,379,0,0,0,0,0,0,0,0,0,-1,1203,645,0,0
-14,379,0,0,0,0,0,0,0,0,0,-1,1210,645,0,0
-7,379,0,0,0,0,0,0,0,0,0,-1,1217,645,0,0
0,379,0,0,0,0,0,0,0,0,0,-1,1224,645,0,0
7,379,0,0,0,0,0,0,0,0,0,-1,1231,645,0,0
14,379,0,0,0,0,0,0,0,0,0,-1,1238,645,0,0
21,379,0,0,0,0,0,0,0,0,0,-1,1245,645,0,0
28,379,0,0,0,0,0,0,0,0,0,-1,1252,645,0,0
35,379,0,0,0,0,0,0,0,0,0,-1,1259,645,0,0
42,379,0,0,0,0,0,0,0,0,0,-1,1266,645,0,0
49,379,0,0,0,0,0,0,0,0,0,-1,1273,645,0,0
56,379,0,0,0,0,0,0,0,0,0,-1,1280,645,0,0
63,379,0,0,0,0,0,0,0,0,0,-1,1287,645,0,0
70,379,0,0,0,0,0,0,0,0,0,-1,1294,645,0,0
77,379,0,0,0,0,0,0,0,0,0,-1,1301,645,0,0
84,379,0,0,0,0,0,0,0,0,0,-1,1308,645,0,0
91,379,0,0,0,0,0,0,0,0,0,-1,1315,645,0,0
98,379,0,0,0,0,0,0,0,0,0,-1,1322,645,0,0
105,379,0,0,0,0,0,0,0,0,0,-1,1329,645,0,0
112,379,0,0,0,0,0,0,0,0,0,-1,1336,645,0,0
119,379,0,0,0,0,0,0,0,0,0,-1,1343,645,0,0
126,379,0,0,0,0,0,0,0,0,0,-1,1350,645,0,0
133,379,0,0,0,0,0,0,0,0,0,-1,1357,645,0,0
140,379,0,0,0,0,0,0,0,0,0,-1,1364,645,0,0
147,379,0,0,0,0,0,0,0,0,0,-1,1371,645,0,0
154,379,0,0,0,0,0,0,0,0,0,-1,1378,645,0,0
161,379,0,0,0,0,0,0,0,0,0,-1,1385,645,0,0
168,379,0,0,0,0,0,0,0,0,0,-1,1392,645,0,0
175,379,0,0,0,0,0,0,0,0,0,-1,1399,645,0,0
182,379,0,0,0,0,0,0,0,0,0,-1,1406,645,0,0
189,379,0,0,0,0,0,0,0,0,0,-1,1413,645,0,0
196,379,0,0,0,0,0,0,0,0,0,-1,1420,645,0,0
203,379,0,0,0,0,0,0,0,0,0,-1,1427,645,0,0
210,379,0,0,0,0,0,0,0,0,0,-1,1434,645,0,0
217,379,0,0,0,0,0,0,0,0,0,-1,1441,645,0,0
224,379,0,0,0,0,0,0,0,0,0,-1,1448,645,0,0
231,379,0,0,0,0,0,0,0,0,0,-1,1455,645,0,0
238,379,0,0,0,0,0,0,0,0,0,-1,1462,645,0,0
245,379,0,0,0,0,0,0,0,0,0,-1,1469,645,0,0
252,379,0,0,0,0,0,0,0,0,0,-1,1476,645,0,0
259,379,0,0,0,0,0,0,0,0,0,-1,1483,645,0,0
266,379,0,0,0,0,0,0,0,0,0,-1,1490,645,0,0
273,379,0,0,0,0,0,0,0,0,0,-1,1497,645,0,0
280,379,0,0,0,0,0,0,0,0,0,-1,1504,645,0,0
287,379,0,0,0,0,0,0,0,0,0,-1,1511,645,0,0
294,379,0,0,0,0,0,0,0,0,0,-1,1518,645,0,0
301,379,0,0,0,0,0,0,0,0,0,-1,1525,645,0,0
308,379,0,0,0,0,0,0,0,0,0,-1,1532,645,0,0
315,379,0,0,0,0,0,0,0,0,0,-1,1539,645,0,0
322,379,0,0,0,0,0,0,0,0,0,-1,1546,645,0,0
329,379,0,0,0,0,0,0,0,0,0,-1,1553,645,0,0
336,379,0,0,0,0,0,0,0,0,0,-1,1560,645,0,0
343,379,0,0,0,0,0,0,0,0,0,-1,1567,645,0,0
350,379,0,0,0,0,0,0,0,0,0,-1,1574,645,0,0
357,379,0,0,0,0,0,0,0,0,0,-1,1581,645,0,0
364,379,0,0,0,0,0,0,0,0,0,-1,1588,645,0,0
371,379,0,0,0,0,0,0,0,0,0,-1,1595,645,0,0
378,379,0,0,0,0,0,0,0,0,0,-1,1602,645,0,0
385,379,0,0,0,0,0,0,0,0,0,-1,1609,645,0,0
392,379,0,0,0,0,0,0,0,0,0,-1,1616,645,0,0
399,379,0,0,0,0,0,0,0,0,0,-1,1623,645,0,0
406,379,0,0,0,0,0,0,0,0,0,-1,1630,645,0,0
413,379,0,0,0,0,0,0,0,0,0,-1,1637,645,0,0
420,379,0,0,0,0,0,0,0,0,0,-1,1644,645,0,0
427,379,0,0,0,0,0,0,0,0,0,-1,1651,645,0,0
434,379,0,0,0,0,0,0,0,0,0,-1,1658,645,0,0
441,379,0,0,0,0,0,0,0,0,0,-1,1665,645,0,0
448,379,0,0,0,0,0,0,0,0,0,-1,1672,645,0,0
455,379,0,0,0,0,0,0,0,0,0,-1,1679,645,0,0
462,379,0,0,0,0,0,0,0,0,0,-1,1686,645,0,0
469,379,0,0,0,0,0,0,0,0,0,-1,1693,645,0,0
476,379,11.1787,0.830383,0,0,0,0,0,0,0,-1,1700,645,11.1787,-0.830365
483,379,7.4231,1.54321,0,0,0,0,0,0,0,-1,1707,645,7.42314,-1.54324
490,379,8.52881,1.56677,0,0,0,0,0,0,0,-1,1714,645,8.52878,-1.56677
497,379,9.63599,1.49573,0,0,0,0,0,0,0,-1,1721,645,9.63604,-1.4957
504,379,10.0833,1.35229,0,0,0,0,0,0,0,-1,1728,645,10.0832,-1.35227
511,379,8.14343,1.59912,0,0,0,0,0,0,0,-1,1735,645,8.14347,-1.59912
518,379,12.7955,-0.324097,0,0,0,0,0,0,0,-1,1742,645,12.7955,0.324101
525,379,6.03711,1.10352,0,0,0,0,0,0,0,-1,1749,645,6.03711,-1.10351
532,379,8.70947,0.887817,0,0,0,0,0,0,0,-1,1756,645,8.70953,-0.887808
539,379,7.45959,-0.272278,0,0,0,0,0,0,0,-1,1763,645,7.45965,0.272251
546,379,6.50842,-0.779175,0,0,0,0,0,0,0,-1,1770,645,6.50843,0.779203
553,379,7.46033,-1.44183,0,0,0,0,0,0,0,-1,1777,645,7.46031,1.44185
560,379,7.36389,-1.30896,-0.00974138,0.000767329,-0.00519525,0.00290208,-0.0118761,-1.18093,0.00904138,0.0344648,1784,645,7.36385,1.30896
567,379,7.21497,-1.22253,-0.00814947,0.000483212,-0.00443647,0.00235663,-0.0100229,-1.17124,0.00759041,0.0194262,1791,645,7.21499,1.22254
574,379,7.29504,-1.1189,-0.00653128,4.28355e-06,-0.00373911,0.00170232,-0.00822931,-1.14451,0.00613291,0.0113226,1798,645,7.29502,1.11887
581,379,7.29504,-0.958801,-0.00499601,-0.00028111,-0.00301679,0.0011901,-0.00646722,-1.11706,0.00475805,0.0125696,1805,645,7.29501,0.958801
588,379,7.28503,-0.78009,-0.00371388,-0.000403585,-0.00234523,0.000811743,-0.00492921,-1.09269,0.00358747,0.0155047,1812,645,7.28508,0.780062
595,379,7.2821,-0.614746,-0.00254023,-0.000241352,-0.00171106,0.000670503,-0.00345208,-1.08116,0.00255439,0.0141811,1819,645,7.28216,0.61473
602,379,7.30566,-0.45282,-0.00155685,0.000103556,-0.00122756,0.000755291,-0.00220858,-1.08272,0.00177844,0.0147302,1826,645,7.3057,0.452824
609,379,7.29529,-0.284912,-0.000966325,0.000467269,-0.000986086,0.000969555,-0.00146861,-1.09968,0.00141747,0.0147359,1833,645,7.29527,0.284924
616,379,7.28687,-0.101135,-0.000570522,0.000626876,-0.000913026,0.00111999,-0.00106364,-1.07559,0.00126086,0.012148,1840,645,7.28692,0.101158
623,379,7.28137,0.104553,-0.00016237,0.00111995,-0.00093951,0.00161623,-0.000658648,-1.08482,0.00135163,0.011809,1847,645,7.28143,-0.104575
630,379,7.27441,0.267273,0.000254431,0.00172765,-0.00119718,0.00239669,-0.000414606,-1.06119,0.00175242,0.0126339,1854,645,7.27438,-0.267267
637,379,7.31848,0.444031,0.00209653,0.00199667,-0.00151662,0.00356404,0.000529162,-0.768943,0.00222076,0.0135832,1861,645,7.31842,-0.444016
644,379,7.32202,0.654114,0.00510412,0.00197686,-0.00209564,0.00615519,0.000925799,-0.464886,0.00383232,0.0233557,1868,645,7.32197,-0.654089
651,379,7.22998,0.506653,0.00888091,0.0020168,-0.00267834,0.0098023,0.00109541,-0.331334,0.00620206,0.0466809,1875,645,7.23004,-0.506667
658,379,7.32593,0.746887,0.0148963,0.00190156,-0.00315978,0.0156239,0.00117397,-0.22632,0.0100475,0.0494011,1882,645,7.32588,-0.746915
665,379,7.30444,0.908813,0,0,0,0,0,0,0,-1,1889,645,7.30439,-0.908788
672,379,5.33313,3.47418,0,0,0,0,0,0,0,-1,1896,645,5.33315,-3.47421
679,379,9.08142,0.965332,0,0,0,0,0,0,0,-1,1903,645,9.08139,-0.965311
686,379,0,0,0,0,0,0,0,0,0,-1,1910,645,0,0
693,379,0,0,0,0,0,0,0,0,0,-1,1917,645,0,0
700,379,0,0,0,0,0,0,0,0,0,-1,1924,645,0,0
707,379,0,0,0,0,0,0,0,0,0,-1,1931,645,0,0
714,379,0,0,0,0,0,0,0,0,0,-1,1938,645,0,0
721,379,0,0,0,0,0,0,0,0,0,-1,1945,645,0,0
728,379,0,0,0,0,0,0,0,0,0,-1,1952,645,0,0
735,379,0,0,0,0,0,0,0,0,0,-1,1959,645,0,0
742,379,0,0,0,0,0,0,0,0,0,-1,1966,645,0,0
749,379,0,0,0,0,0,0,0,0,0,-1,1973,645,0,0
756,379,0,0,0,0,0,0,0,0,0,-1,1980,645,0,0
763,379,0,0,0,0,0,0,0,0,0,-1,1987,645,0,0
770,379,0,0,0,0,0,0,0,0,0,-1,1994,645,0,0
777,379,0,0,0,0,0,0,0,0,0,-1,2001,645,0,0
784,379,0,0,0,0,0,0,0,0,0,-1,2008,645,0,0
791,379,0,0,0,0,0,0,0,0,0,-1,2015,645,0,0
798,379,0,0,0,0,0,0,0,0,0,-1,2022,645,0,0
805,379,0,0,0,0,0,0,0,0,0,-1,2029,645,0,0
812,379,0,0,0,0,0,0,0,0,0,-1,2036,645,0,0
-700,372,0,0,0,0,0,0,0,0,0,-1,524,652,0,0
-693,372,0,0,0,0,0,0,0,0,0,-1,531,652,0,0
-686,372,0,0,0,0,0,0,0,0,0,-1,538,652,0,0
-679,372,0,0,0,0,0,0,0,0,0,-1,545,652,0,0
-672,372,0,0,0,0,0,0,0,0,0,-1,552,652,0,0
-665,372,0,0,0,0,0,0,0,0,0,-1,559,652,0,0
-658,372,0,0,0,0,0,0,0,0,0,-1,566,652,0,0
-651,372,0,0,0,0,0,0,0,0,0,-1,573,652,0,0
-644,372,0,0,0,0,0,0,0,0,0,-1,580,652,0,0
-637,372,0,0,0,0,0,0,0,0,0,-1,587,652,0,0
-630,372,0,0,0,0,0,0,0,0,0,-1,594,652,0,0
-623,372,0,0,0,0,0,0,0,0,0,-1,601,652,0,0
-616,372,0,0,0,0,0,0,0,0,0,-1,608,652,0,0
-609,372,0,0,0,0,0,0,0,0,0,-1,615,652,0,0
-602,372,0,0,0,0,0,0,0,0,0,-1,622,652,0,0
-595,372,0,0,0,0,0,0,0,0,0,-1,629,652,0,0
-588,372,0,0,0,0,0,0,0,0,0,-1,636,652,0,0
-581,372,0,0,0,0,0,0,0,0,0,-1,643,652,0,0
-574,372,0,0,0,0,0,0,0,0,0,-1,650,652,0,0
-567,372,-3.98621,1.14832,0,0,0,0,0,0,0,-1,657,652,-3.9862,-1.14834
-560,372,-3.82819,1.56592,0,0,0,0,0,0,0,-1,664,652,-3.82817,-1.56591
-553,372,-3.89148,1.47626,0,0,0,0,0,0,0,-1,671,652,-3.89145,-1.47623
-546,372,-4.33881,0.393372,0,0,0,0,0,0,0,-1,678,652,-4.33878,-0.393402
-539,372,-2.09174,0.639038,0,0,0,0,0,0,0,-1,685,652,-2.09174,-0.63904
-532,372,-2.71918,0.315247,-0.0115096,0.0312241,-0.0368669,0.0524684,-0.0327539,-1.04803,0.0496401,0.0487837,692,652,-2.71919,-0.315263
-525,372,-2.86725,-0.40509,-0.010711,0.0232511,-0.0275042,0.038594,-0.0260539,-1.06196,0.0375579,0.0425484,699,652,-2.86724,0.40511
-518,372,-2.83063,-0.86084,-0.0100041,0.0164131,-0.0195866,0.0268287,-0.0204196,-1.08206,0.0273624,0.0275669,706,652,-2.83064,0.860839
-511,372,-2.89996,-1.10101,-0.00763832,0.0109596,-0.0131576,0.0177725,-0.0144513,-1.09301,0.0186373,0.0146258,713,652,-2.89993,1.10101
-504,372,-2.91577,-1.23871,-0.00581043,0.00692875,-0.00817038,0.010919,-0.00980071,-1.11649,0.0119684,0.0101878,720,652,-2.91574,1.23872
-497,372,-2.90851,-1.40448,-0.00414785,0.00371195,-0.00463632,0.00585984,-0.00629574,-1.13696,0.00701953,0.0108123,727,652,-2.90849,1.40448
-490,372,-2.89337,-1.53967,-0.00245896,0.00134054,-0.0023071,0.0024294,-0.00354782,-1.12983,0.00347102,0.0112823,734,652,-2.8934,1.53968
-483,372,-2.88489,-1.69348,-0.000894821,-0.000889528,-0.000330069,-0.000562095,-0.00122225,-0.789407,0.000706426,0.0116261,741,652,-2.8849,1.69347
-476,372,-2.88934,-1.83575,-0.000188767,-0.00246298,0.000996481,0.000186074,-0.00283782,0.359791,0.00195686,0.0128682,748,652,-2.88934,1.83577
-469,372,-2.90173,-1.9903,-0.000606564,-0.00324021,0.00173616,0.000255667,-0.00410244,0.460949,0.00282404,0.0106225,755,652,-2.90173,1.99031
-462,372,-2.89679,-2.16675,-0.00116509,-0.00424608,0.00231058,7.14501e-05,-0.00548262,0.491381,0.00367913,0.00922595,762,652,-2.89677,2.16677
-455,372,-2.89984,-2.32312,-0.00231664,-0.00561728,0.00320083,-0.000365727,-0.00756819,0.547377,0.00492807,0.00973855,769,652,-2.89987,2.32312
-448,372,-2.89514,-2.48047,-0.00396159,-0.0072049,0.00435672,-0.000934504,-0.010232,0.607233,0.00653214,0.0105033,776,652,-2.89517,2.48048
-441,372,-2.92438,-2.70996,0,0,0,0,0,0,0,-1,783,652,-2.9244,2.70998
-434,372,-2.99146,-2.75323,-0.00978553,-0.0116487,0.00768667,-0.0029742,-0.01846,0.725094,0.0114448,0.0374327,790,652,-2.99147,2.75326
-427,372,-3.24371,-2.90088,-0.0141382,-0.0143917,0.0100076,-0.00425658,-0.0242734,0.779066,0.0149665,0.0431083,797,652,-3.24369,2.90085
-420,372,-4.07214,-3.01935,-0.0195775,-0.0176255,0.0126447,-0.00591921,-0.0312838,0.823915,0.0191896,0.0494045,804,652,-4.07214,3.01935
-413,372,-4.74762,-3.29541,0,0,0,0,0,0,0,-1,811,652,-4.74763,3.29542
-406,372,-0.885437,-0.583923,0,0,0,0,0,0,0,-1,818,652,-0.885437,0.5839
-399,372,-3.97357,-0.825012,0,0,0,0,0,0,0,-1,825,652,-3.97359,0.825037
-392,372,-7.64337,0.173035,0,0,0,0,0,0,0,-1,832,652,-7.64337,-0.173019
-385,372,-6.48871,-0.0271606,0,0,0,0,0,0,0,-1,839,652,-6.48874,0.0271353
-378,372,-5.33044,-0.242432,0,0,0,0,0,0,0,-1,846,652,-5.33042,0.242457
-371,372,-4.40802,-0.495667,0,0,0,0,0,0,0,-1,853,652,-4.40802,0.495661
-364,372,0,0,0,0,0,0,0,0,0,-1,860,652,0,0
-357,372,0,0,0,0,0,0,0,0,0,-1,867,652,0,0
-350,372,0,0,0,0,0,0,0,0,0,-1,874,652,0,0
-343,372,0,0,0,0,0,0,0,0,0,-1,881,652,0,0
-336,372,0,0,0,0,0,0,0,0,0,-1,888,652,0,0
-329,372,0,0,0,0,0,0,0,0,0,-1,895,652,0,0
-322,372,0,0,0,0,0,0,0,0,0,-1,902,652,0,0
-315,372,0,0,0,0,0,0,0,0,0,-1,909,652,0,0
-308,372,0,0,0,0,0,0,0,0,0,-1,916,652,0,0
-301,372,0,0,0,0,0,0,0,0,0,-1,923,652,0,0
-294,372,0,0,0,0,0,0,0,0,0,-1,930,652,0,0
-287,372,0,0,0,0,0,0,0,0,0,-1,937,652,0,0
-280,372,0,0,0,0,0,0,0,0,0,-1,944,652,0,0
-273,372,0,0,0,0,0,0,0,0,0,-1,951,652,0,0
-266,372,0,0,0,0,0,0,0,0,0,-1,958,652,0,0
-259,372,0,0,0,0,0,0,0,0,0,-1,965,652,0,0
-252,372,0,0,0,0,0,0,0,0,0,-1,972,652,0,0
-245,372,0,0,0,0,0,0,0,0,0,-1,979,652,0,0
-238,372,0,0,0,0,0,0,0,0,0,-1,986,652,0,0
-231,372,0,0,0,0,0,0,0,0,0,-1,993,652,0,0
-224,372,0,0,0,0,0,0,0,0,0,-1,1000,652,0,0
-217,372,0,0,0,0,0,0,0,0,0,-1,1007,652,0,0
-210,372,0,0,0,0,0,0,0,0,0,-1,1014,652,0,0
-203,372,0,0,0,0,0,0,0,0,0,-1,1021,652,0,0
-196,372,0,0,0,0,0,0,0,0,0,-1,1028,652,0,0
-189,372,0,0,0,0,0,0,0,0,0,-1,1035,652,0,0
-182,372,0,0,0,0,0,0,0,0,0,-1,1042,652,0,0
-175,372,0,0,0,0,0,0,0,0,0,-1,1049,652,0,0
-168,372,0,0,0,0,0,0,0,0,0,-1,1056,652,0,0
-161,372,0,0,0,0,0,0,0,0,0,-1,1063,652,0,0
-154,372,0,0,0,0,0,0,0,0,0,-1,1070,652,0,0
-147,372,0,0,0,0,0,0,0,0,0,-1,1077,652,0,0
-140,372,0,0,0,0,0,0,0,0,0,-1,1084,652,0,0
-133,372,0,0,0,0,0,0,0,0,0,-1,1091,652,0,0
-126,372,0,0,0,0,0,0,0,0,0,-1,1098,652,0,0
-119,372,0,0,0,0,0,0,0,0,0,-1,1105,652,0,0
-112,372,0,0,0,0,0,0,0,0,0,-1,1112,652,0,0
-105,372,0,0,0,0,0,0,0,0,0,-1,1119,652,0,0
-98,372,0,0,0,0,0,0,0,0,0,-1,1126,652,0,0
-91,372,0,0,0,0,0,0,0,0,0,-1,1133,652,0,0
-84,372,0,0,0,0,0,0,0,0,0,-1,1140,652,0,0
-77,372,0,0,0,0,0,0,0,0,0,-1,1147,652,0,0
-70,372,0,0,0,0,0,0,0,0,0,-1,1154,652,0,0
-63,372,0,0,0,0,0,0,0,0,0,-1,1161,652,0,0
-56,372,0,0,0,0,0,0,0,0,0,-1,1168,652,0,0
-49,372,0,0,0,0,0,0,0,0,0,-1,1175,652,0,0
-42,372,0,0,0,0,0,0,0,0,0,-1,1182,652,0,0
-35,372,0,0,0,0,0,0,0,0,0,-1,1189,652,0,0
-28,372,0,0,0,0,0,0,0,0,0,-1,1196,652,0,0
-21,372,0,0,0,0,0,0,0,0,0,-1,1203,652,0,0
-14,372,0,0,0,0,0,0,0,0,0,-1,1210,652,0,0
-7,372,0,0,0,0,0,0,0,0,0,-1,1217,652,0,0
0,372,0,0,0,0,0,0,0,0,0,-1,1224,652,0,0
7,372,0,0,0,0,0,0,0,0,0,-1,1231,652,0,0
14,372,0,0,0,0,0,0,0,0,0,-1,1238,652,0,0
21,372,0,0,0,0,0,0,0,0,0,-1,1245,652,0,0
28,372,0,0,0,0,0,0,0,0,0,-1,1252,652,0,0
35,372,0,0,0,0,0,0,0,0,0,-1,1259,652,0,0
42,372,0,0,0,0,0,0,0,0,0,-1,1266,652,0,0
49,372,0,0,0,0,0,0,0,0,0,-1,1273,652,0,0
56,372,0,0,0,0,0,0,0,0,0,-1,1280,652,0,0
63,372,0,0,0,0,0,0,0,0,0,-1,1287,652,0,0
70,372,0,0,0,0,0,0,0,0,0,-1,1294,652,0,0
77,372,0,0,0,0,0,0,0,0,0,-1,1301,652,0,0
84,372,0,0,0,0,0,0,0,0,0,-1,1308,652,0,0
91,372,0,0,0,0,0,0,0,0,0,-1,1315,652,0,0
98,372,0,0,0,0,0,0,0,0,0,-1,1322,652,0,0
105,372,0,0,0,0,0,0,0,0,0,-1,1329,652,0,0
112,372,0,0,0,0,0,0,0,0,0,-1,1336,652,0,0
119,372,0,0,0,0,0,0,0,0,0,-1,1343,652,0,0
126,372,0,0,0,0,0,0,0,0,0,-1,1350,652,0,0
133,372,0,0,0,0,0,0,0,0,0,-1,1357,652,0,0
140,372,0,0,0,0,0,0,0,0,0,-1,1364,652,0,0
147,372,0,0,0,0,0,0,0,0,0,-1,1371,652,0,0
154,372,0,0,0,0,0,0,0,0,0,-1,1378,652,0,0
161,372,0,0,0,0,0,0,0,0,0,-1,1385,652,0,0
168,372,0,0,0,0,0,0,0,0,0,-1,1392,652,0,0
175,372,0,0,0,0,0,0,0,0,0,-1,1399,652,0,0
182,372,0,0,0,0,0,0,0,0,0,-1,1406,652,0,0
189,372,0,0,0,0,0,0,0,0,0,-1,1413,652,0,0
196,372,0,0,0,0,0,0,0,0,0,-1,1420,652,0,0
203,372,0,0,0,0,0,0,0,0,0,-1,1427,652,0,0
210,372,0,0,0,0,0,0,0,0,0,-1,1434,652,0,0
217,372,0,0,0,0,0,0,0,0,0,-1,1441,652,0,0
224,372,0,0,0,0,0,0,0,0,0,-1,1448,652,0,0
231,372,0,0,0,0,0,0,0,0,0,-1,1455,652,0,0
238,372,0,0,0,0,0,0,0,0,0,-1,1462,652,0,0
245,372,0,0,0,0,0,0,0,0,0,-1,1469,652,0,0
252,372,0,0,0,0,0,0,0,0,0,-1,1476,652,0,0
259,372,0,0,0,0,0,0,0,0,0,-1,1483,652,0,0
266,372,0,0,0,0,0,0,0,0,0,-1,1490,652,0,0
273,372,0,0,0,0,0,0,0,0,0,-1,1497,652,0,0
280,372,0,0,0,0,0,0,0,0,0,-1,1504,652,0,0
287,372,0,0,0,0,0,0,0,0,0,-1,1511,652,0,0
294,372,0,0,0,0,0,0,0,0,0,-1,1518,652,0,0
301,372,0,0,0,0,0,0,0,0,0,-1,1525,652,0,0
308,372,0,0,0,0,0,0,0,0,0,-1,1532,652,0,0
315,372,0,0,0,0,0,0,0,0,0,-1,1539,652,0,0
322,372,0,0,0,0,0,0,0,0,0,-1,1546,652,0,0
329,372,0,0,0,0,0,0,0,0,0,-1,1553,652,0,0
336,372,0,0,0,0,0,0,0,0,0,-1,1560,652,0,0
343,372,0,0,0,0,0,0,0,0,0,-1,1567,652,0,0
350,372,0,0,0,0,0,0,0,0,0,-1,1574,652,0,0
357,372,0,0,0,0,0,0,0,0,0,-1,1581,652,0,0
364,372,0,0,0,0,0,0,0,0,0,-1,1588,652,0,0
371,372,0,0,0,0,0,0,0,0,0,-1,1595,652,0,0
378,372,0,0,0,0,0,0,0,0,0,-1,1602,652,0,0
385,372,0,0,0,0,0,0,0,0,0,-1,1609,652,0,0
392,372,0,0,0,0,0,0,0,0,0,-1,1616,652,0,0
399,372,0,0,0,0,0,0,0,0,0,-1,1623,652,0,0
406,372,0,0,0,0,0,0,0,0,0,-1,1630,652,0,0
413,372,0,0,0,0,0,0,0,0,0,-1,1637,652,0,0
420,372,0,0,0,0,0,0,0,0,0,-1,1644,652,0,0
427,372,0,0,0,0,0,0,0,0,0,-1,1651,652,0,0
434,372,0,0,0,0,0,0,0,0,0,-1,1658,652,0,0
441,372,0,0,0,0,0,0,0,0,0,-1,1665,652,0,0
448,372,0,0,0,0,0,0,0,0,0,-1,1672,652,0,0
455,372,0,0,0,0,0,0,0,0,0,-1,1679,652,0,0
462,372,0,0,0,0,0,0,0,0,0,-1,1686,652,0,0
469,372,0,0,0,0,0,0,0,0,0,-1,1693,652,0,0
476,372,0,0,0,0,0,0,0,0,0,-1,1700,652,0,0
483,372,8.74182,1.53125,0,0,0,0,0,0,0,-1,1707,652,8.74186,-1.53126
490,372,9.78455,1.67096,0,0,0,0,0,0,0,-1,1714,652,9.7846,-1.67093
497,372,9.97644,1.46069,0,0,0,0,0,0,0,-1,1721,652,9.97647,-1.46071
504,372,10.1216,1.28375,0,0,0,0,0,0,0,-1,1728,652,10.1216,-1.28376
511,372,11.7367,-0.0272217,0,0,0,0,0,0,0,-1,1735,652,11.7367,0.0272326
518,372,12.0657,-0.0995483,0,0,0,0,0,0,0,-1,1742,652,12.0657,0.0995285
525,372,12.3947,-0.171814,0,0,0,0,0,0,0,-1,1749,652,12.3946,0.171824
532,372,9.36597,1.72034,0,0,0,0,0,0,0,-1,1756,652,9.36597,-1.72036
539,372,7.82886,-0.0865479,0,0,0,0,0,0,0,-1,1763,652,7.82882,0.0865771
546,372,10.953,-0.187195,0,0,0,0,0,0,0,-1,1770,652,10.953,0.187181
553,372,7.29358,-2.01715,0,0,0,0,0,0,0,-1,1777,652,7.29358,2.01715
560,372,7.4032,-1.66675,-0.0131544,0.00108878,-0.00699449,0.00394917,-0.0160148,-1.1826,0.0122077,0.0395619,1784,652,7.40317,1.66678
567,372,7.42932,-1.27869,-0.010894,0.000451119,-0.00599106,0.00302906,-0.0134719,-1.16445,0.0101429,0.0207114,1791,652,7.42935,1.27866
574,372,7.48694,-1.09412,-0.00869988,-0.000322946,-0.00508123,0.00207358,-0.0110964,-1.13009,0.00817691,0.0143926,1798,652,7.48689,1.09413
581,372,7.4729,-0.955933,-0.0065907,-0.000757731,-0.00410541,0.00136168,-0.00871011,-1.09423,0.0063098,0.0139536,1805,652,7.47295,0.95596
588,372,7.45825,-0.77179,-0.00487816,-0.00092468,-0.00322878,0.000884412,-0.00668725,-1.06008,0.00478032,0.0152798,1812,652,7.45825,0.771786
595,372,7.47278,-0.589233,-0.00339134,-0.000783713,-0.00240261,0.000646051,-0.00482111,-1.034,0.00344965,0.0143185,1819,652,7.47273,0.589225
602,372,7.51196,-0.440796,-0.0021809,-0.000471127,-0.00175419,0.0006254,-0.00327743,-1.01213,0.0024205,0.0143666,1826,652,7.51195,0.440766
609,372,7.4812,-0.275452,-0.00142292,-8.97079e-05,-0.00137799,0.000774445,-0.00228707,-1.01068,0.00183807,0.0142086,1833,652,7.48115,0.275424
616,372,7.46094,-0.0949707,-0.00091601,1.73982e-05,-0.00122376,0.000860429,-0.00175904,-0.967569,0.00154173,0.0139646,1840,652,7.46095,0.0949502
623,372,7.45862,0.0981445,-0.000417618,0.00036955,-0.00115394,0.00119518,-0.00124325,-0.94975,0.00140792,0.0119689,1847,652,7.45864,-0.0981367
630,372,7.45056,0.268372,7.45974e-05,0.000908248,-0.00129732,0.00185406,-0.000871215,-0.940838,0.00160718,0.0155217,1854,652,7.45059,-0.268382
637,372,7.47351,0.432373,0.00182728,0.00108226,-0.00148568,0.00298644,-7.69011e-05,-0.662565,0.00201708,0.018588,1861,652,7.47351,-0.432382
644,372,7.53967,0.651306,0.00452363,0.000919751,-0.00196435,0.00538734,5.60442e-05,-0.414247,0.00357302,0.0185469,1868,652,7.53962,-0.651305
651,372,7.60168,0.854553,0.00784259,0.000693455,-0.00248361,0.00862071,-8.46633e-05,-0.303614,0.00577557,0.0403485,1875,652,7.60163,-0.854578
658,372,7.50879,0.722656,0.0131025,0.000259536,-0.00293621,0.0137419,-0.000379917,-0.214433,0.0092905,0.0425515,1882,652,7.50883,-0.722646
665,372,7.47644,0.880432,0,0,0,0,0,0,0,-1,1889,652,7.47641,-0.880424
672,372,8.11414,0.00299072,0,0,0,0,0,0,0,-1,1896,652,8.11419,-0.00299842
679,372,7.80078,0.789246,0,0,0,0,0,0,0,-1,1903,652,7.80077,-0.789221
686,372,8.29541,0.715393,0,0,0,0,0,0,0,-1,1910,652,8.29538,-0.715379
693,372,0,0,0,0,0,0,0,0,0,-1,1917,652,0,0
700,372,0,0,0,0,0,0,0,0,0,-1,1924,652,0,0
707,372,0,0,0,0,0,0,0,0,0,-1,1931,652,0,0
714,372,0,0,0,0,0,0,0,0,0,-1,1938,652,0,0
721,372,0,0,0,0,0,0,0,0,0,-1,1945,652,0,0
728,372,0,0,0,0,0,0,0,0,0,-1,1952,652,0,0
735,372,0,0,0,0,0,0,0,0,0,-1,1959,652,0,0
742,372,0,0,0,0,0,0,0,0,0,-1,1966,652,0,0
749,372,0,0,0,0,0,0,0,0,0,-1,1973,652,0,0
756,372,0,0,0,0,0,0,0,0,0,-1,1980,652,0,0
763,372,0,0,0,0,0,0,0,0,0,-1,1987,652,0,0
770,372,0,0,0,0,0,0,0,0,0,-1,1994,652,0,0
777,372,0,0,0,0,0,0,0,0,0,-1,2001,652,0,0
784,372,0,0,0,0,0,0,0,0,0,-1,2008,652,0,0
791,372,0,0,0,0,0,0,0,0,0,-1,2015,652,0,0
798,372,0,0,0,0,0,0,0,0,0,-1,2022,652,0,0
805,372,0,0,0,0,0,0,0,0,0,-1,2029,652,0,0
812,372,0,0,0,0,0,0,0,0,0,-1,2036,652,0,0
-700,365,0,0,0,0,0,0,0,0,0,-1,524,659,0,0
-693,365,0,0,0,0,0,0,0,0,0,-1,531,659,0,0
-686,365,0,0,0,0,0,0,0,0,0,-1,538,659,0,0
-679,365,0,0,0,0,0,0,0,0,0,-1,545,659,0,0
-672,365,0,0,0,0,0,0,0,0,0,-1,552,659,0,0
-665,365,0,0,0,0,0,0,0,0,0,-1,559,659,0,0
-658,365,0,0,0,0,0,0,0,0,0,-1,566,659,0,0
-651,365,0,0,0,0,0,0,0,0,0,-1,573,659,0,0
-644,365,0,0,0,0,0,0,0,0,0,-1,580,659,0,0
-637,365,0,0,0,0,0,0,0,0,0,-1,587,659,0,0
-630,365,0,0,0,0,0,0,0,0,0,-1,594,659,0,0
-623,365,0,0,0,0,0,0,0,0,0,-1,601,659,0,0
-616,365,0,0,0,0,0,0,0,0,0,-1,608,659,0,0
-609,365,0,0,0,0,0,0,0,0,0,-1,615,659,0,0
-602,365,0,0,0,0,0,0,0,0,0,-1,622,659,0,0
-595,365,0,0,0,0,0,0,0,0,0,-1,629,659,0,0
-588,365,0,0,0,0,0,0,0,0,0,-1,636,659,0,0
-581,365,0,0,0,0,0,0,0,0,0,-1,643,659,0,0
-574,365,-4.05328,0.744568,0.0522094,0.0499629,-0.0645442,0.11564,-0.0134678,-0.776698,0.0819524,0.0441957,650,659,-4.05329,-0.744581
-567,365,-3.36737,0.952393,0,0,0,0,0,0,0,-1,657,659,-3.36739,-0.952407
-560,365,-3.18237,1.34869,0.0119342,0.0493855,-0.0586112,0.0921897,-0.03087,-0.940018,0.0739303,0.0472152,664,659,-3.18239,-1.34869
-553,365,-3.10754,1.18927,0.00113039,0.0445862,-0.0519764,0.0791935,-0.0334768,-0.983376,0.0668114,0.0493215,671,659,-3.10751,-1.18929
-546,365,-2.24805,0.878845,0,0,0,0,0,0,0,-1,678,659,-2.24803,-0.878857
-539,365,-2.34247,0.450256,-0.00852661,0.0312792,-0.035637,0.0521945,-0.0294418,-1.04007,0.047739,0.0465567,685,659,-2.34246,-0.450263
-532,365,-2.52185,0.0551758,-0.00947562,0.0244684,-0.0276624,0.0399503,-0.0249575,-1.06056,0.0378063,0.046182,692,659,-2.52183,-0.0551914
-525,365,-2.7644,-0.433105,-0.00898235,0.0182742,-0.0205906,0.0293381,-0.0200462,-1.07774,0.0286798,0.0378287,699,659,-2.76442,0.433136
-518,365,-2.97095,-0.933105,-0.00847038,0.0129422,-0.0146333,0.0203676,-0.0158958,-1.10122,0.0209897,0.0223948,706,659,-2.97095,0.933093
-511,365,-3.05927,-1.07703,-0.00648513,0.00872705,-0.00989381,0.0136005,-0.0113586,-1.1131,0.0144296,0.0179288,713,659,-3.05924,1.07702
-504,365,-3.05768,-1.23877,-0.00494929,0.00548906,-0.0060824,0.00828458,-0.00774481,-1.13998,0.00925632,0.0122854,720,659,-3.05767,1.23876
-497,365,-3.06268,-1.40509,-0.00347355,0.00273562,-0.00338553,0.00422454,-0.00496247,-1.15647,0.00530983,0.0119261,727,659,-3.06271,1.40509
-490,365,-3.05042,-1.54419,-0.00186364,0.00053661,-0.00159227,0.00133038,-0.00265741,-1.10834,0.00234446,0.0124276,734,659,-3.05044,1.54421
-483,365,-3.0343,-1.69781,-0.000412168,-0.00157231,-4.16756e-05,-0.000410673,-0.00157381,-0.0358611,0.000942622,0.012173,741,659,-3.03432,1.69784
-476,365,-3.03021,-1.85107,0.000215612,-0.00324633,0.0011085,0.000540131,-0.00357085,0.284796,0.00257953,0.0123101,748,659,-3.03021,1.85109
-469,365,-3.0484,-2.00958,-0.000217815,-0.00438779,0.00193821,0.00054392,-0.00514953,0.374465,0.00362794,0.011569,755,659,-3.0484,2.00958
-462,365,-3.04535,-2.16791,-0.000746591,-0.0058239,0.00262466,0.000366277,-0.00693677,0.401027,0.00475131,0.0132507,762,659,-3.04533,2.16788
-455,365,-3.04749,-2.3255,-0.00190296,-0.00766987,0.00365005,-0.000134835,-0.009438,0.451098,0.00624754,0.0148768,769,659,-3.04748,2.32549
-448,365,-2.99823,-2.53278,-0.00366076,-0.00973378,0.00497243,-0.000870998,-0.0125235,0.511285,0.00807437,0.0156423,776,659,-2.99825,2.53278
-441,365,-3.08545,-2.72534,0,0,0,0,0,0,0,-1,783,659,-3.08546,2.72535
-434,365,-3.02063,-2.77686,0,0,0,0,0,0,0,-1,790,659,-3.02064,2.77683
-427,365,-3.41687,-2.99884,0,0,0,0,0,0,0,-1,797,659,-3.41689,2.99886
-420,365,-4.58813,-3.16376,0,0,0,0,0,0,0,-1,804,659,-4.58816,3.16374
-413,365,0.141357,0.672729,0,0,0,0,0,0,0,-1,811,659,0.141365,-0.672714
-406,365,-1.75067,-0.934448,0,0,0,0,0,0,0,-1,818,659,-1.7507,0.934424
-399,365,-4.10242,-1.25439,0,0,0,0,0,0,0,-1,825,659,-4.10244,1.25438
-392,365,-7.46545,-0.779724,0,0,0,0,0,0,0,-1,832,659,-7.46543,0.779744
-385,365,-6.27875,-0.887573,0,0,0,0,0,0,0,-1,839,659,-6.27874,0.887545
-378,365,-5.34503,-0.263306,0,0,0,0,0,0,0,-1,846,659,-5.34504,0.263275
-371,365,0,0,0,0,0,0,0,0,0,-1,853,659,0,0
-364,365,0,0,0,0,0,0,0,0,0,-1,860,659,0,0
-357,365,0,0,0,0,0,0,0,0,0,-1,867,659,0,0
-350,365,0,0,0,0,0,0,0,0,0,-1,874,659,0,0
-343,365,0,0,0,0,0,0,0,0,0,-1,881,659,0,0
-336,365,0,0,0,0,0,0,0,0,0,-1,888,659,0,0
-329,365,0,0,0,0,0,0,0,0,0,-1,895,659,0,0
-322,365,0,0,0,0,0,0,0,0,0,-1,902,659,0,0
-315,365,0,0,0,0,0,0,0,0,0,-1,909,659,0,0
-308,365,0,0,0,0,0,0,0,0,0,-1,916,659,0,0
-301,365,0,0,0,0,0,0,0,0,0,-1,923,659,0,0
-294,365,0,0,0,0,0,0,0,0,0,-1,930,659,0,0
-287,365,0,0,0,0,0,0,0,0,0,-1,937,659,0,0
-280,365,0,0,0,0,0,0,0,0,0,-1,944,659,0,0
-273,365,0,0,0,0,0,0,0,0,0,-1,951,659,0,0
-266,365,0,0,0,0,0,0,0,0,0,-1,958,659,0,0
-259,365,0,0,0,0,0,0,0,0,0,-1,965,659,0,0
-252,365,0,0,0,0,0,0,0,0,0,-1,972,659,0,0
-245,365,0,0,0,0,0,0,0,0,0,-1,979,659,0,0
-238,365,0,0,0,0,0,0,0,0,0,-1,986,659,0,0
-231,365,0,0,0,0,0,0,0,0,0,-1,993,659,0,0
-224,365,0,0,0,0,0,0,0,0,0,-1,1000,659,0,0
-217,365,0,0,0,0,0,0,0,0,0,-1,1007,659,0,0
-210,365,0,0,0,0,0,0,0,0,0,-1,1014,659,0,0
-203,365,0,0,0,0,0,0,0,0,0,-1,1021,659,0,0
-196,365,0,0,0,0,0,0,0,0,0,-1,1028,659,0,0
-189,365,0,0,0,0,0,0,0,0,0,-1,1035,659,0,0
-182,365,0,0,0,0,0,0,0,0,0,-1,1042,659,0,0
-175,365,0,0,0,0,0,0,0,0,0,-1,1049,659,0,0
-168,365,0,0,0,0,0,0,0,0,0,-1,1056,659,0,0
-161,365,0,0,0,0,0,0,0,0,0,-1,1063,659,0,0
-154,365,0,0,0,0,0,0,0,0,0,-1,1070,659,0,0
-147,365,0,0,0,0,0,0,0,0,0,-1,1077,659,0,0
-140,365,0,0,0,0,0,0,0,0,0,-1,1084,659,0,0
-133,365,0,0,0,0,0,0,0,0,0,-1,1091,659,0,0
-126,365,0,0,0,0,0,0,0,0,0,-1,1098,659,0,0
-119,365,0,0,0,0,0,0,0,0,0,-1,1105,659,0,0
-112,365,0,0,0,0,0,0,0,0,0,-1,1112,659,0,0
-105,365,0,0,0,0,0,0,0,0,0,-1,1119,659,0,0
-98,365,0,0,0,0,0,0,0,0,0,-1,1126,659,0,0
-91,365,0,0,0,0,0,0,0,0,0,-1,1133,659,0,0
-84,365,0,0,0,0,0,0,0,0,0,-1,1140,659,0,0
-77,365,0,0,0,0,0,0,0,0,0,-1,1147,659,0,0
-70,365,0,0,0,0,0,0,0,0,0,-1,1154,659,0,0
-63,365,0,0,0,0,0,0,0,0,0,-1,1161,659,0,0
-56,365,0,0,0,0,0,0,0,0,0,-1,1168,659,0,0
-49,365,0,0,0,0,0,0,0,0,0,-1,1175,659,0,0
-42,365,0,0,0,0,0,0,0,0,0,-1,1182,659,0,0
-35,365,0,0,0,0,0,0,0,0,0,-1,1189,659,0,0
-28,365,0,0,0,0,0,0,0,0,0,-1,1196,659,0,0
-21,365,0,0,0,0,0,0,0,0,0,-1,1203,659,0,0
-14,365,0,0,0,0,0,0,0,0,0,-1,1210,659,0,0
-7,365,0,0,0,0,0,0,0,0,0,-1,1217,659,0,0
0,365,0,0,0,0,0,0,0,0,0,-1,1224,659,0,0
7,365,0,0,0,0,0,0,0,0,0,-1,1231,659,0,0
14,365,0,0,0,0,0,0,0,0,0,-1,1238,659,0,0
21,365,0,0,0,0,0,0,0,0,0,-1,1245,659,0,0
28,365,0,0,0,0,0,0,0,0,0,-1,1252,659,0,0
35,365,0,0,0,0,0,0,0,0,0,-1,1259,659,0,0
42,365,0,0,0,0,0,0,0,0,0,-1,1266,659,0,0
49,365,0,0,0,0,0,0,0,0,0,-1,1273,659,0,0
56,365,0,0,0,0,0,0,0,0,0,-1,1280,659,0,0
63,365,0,0,0,0,0,0,0,0,0,-1,1287,659,0,0
70,365,0,0,0,0,0,0,0,0,0,-1,1294,659,0,0
77,365,0,0,0,0,0,0,0,0,0,-1,1301,659,0,0
84,365,0,0,0,0,0,0,0,0,0,-1,1308,659,0,0
91,365,0,0,0,0,0,0,0,0,0,-1,1315,659,0,0
98,365,0,0,0,0,0,0,0,0,0,-1,1322,659,0,0
105,365,0,0,0,0,0,0,0,0,0,-1,1329,659,0,0
112,365,0,0,0,0,0,0,0,0,0,-1,1336,659,0,0
119,365,0,0,0,0,0,0,0,0,0,-1,1343,659,0,0
126,365,0,0,0,0,0,0,0,0,0,-1,1350,659,0,0
133,365,0,0,0,0,0,0,0,0,0,-1,1357,659,0,0
140,365,0,0,0,0,0,0,0,0,0,-1,1364,659,0,0
147,365,0,0,0,0,0,0,0,0,0,-1,1371,659,0,0
154,365,0,0,0,0,0,0,0,0,0,-1,1378,659,0,0
161,365,0,0,0,0,0,0,0,0,0,-1,1385,659,0,0
168,365,0,0,0,0,0,0,0,0,0,-1,1392,659,0,0
175,365,0,0,0,0,0,0,0,0,0,-1,1399,659,0,0
182,365,0,0,0,0,0,0,0,0,0,-1,1406,659,0,0
189,365,0,0,0,0,0,0,0,0,0,-1,1413,659,0,0
196,365,0,0,0,0,0,0,0,0,0,-1,1420,659,0,0
203,365,0,0,0,0,0,0,0,0,0,-1,1427,659,0,0
210,365,0,0,0,0,0,0,0,0,0,-1,1434,659,0,0
217,365,0,0,0,0,0,0,0,0,0,-1,1441,659,0,0
224,365,0,0,0,0,0,0,0,0,0,-1,1448,659,0,0
231,365,0,0,0,0,0,0,0,0,0,-1,1455,659,0,0
238,365,0,0,0,0,0,0,0,0,0,-1,1462,659,0,0
245,365,0,0,0,0,0,0,0,0,0,-1,1469,659,0,0
252,365,0,0,0,0,0,0,0,0,0,-1,1476,659,0,0
259,365,0,0,0,0,0,0,0,0,0,-1,1483,659,0,0
266,365,0,0,0,0,0,0,0,0,0,-1,1490,659,0,0
273,365,0,0,0,0,0,0,0,0,0,-1,1497,659,0,0
280,365,0,0,0,0,0,0,0,0,0,-1,1504,659,0,0
287,365,0,0,0,0,0,0,0,0,0,-1,1511,659,0,0
294,365,0,0,0,0,0,0,0,0,0,-1,1518,659,0,0
301,365,0,0,0,0,0,0,0,0,0,-1,1525,659,0,0
308,365,0,0,0,0,0,0,0,0,0,-1,1532,659,0,0
315,365,0,0,0,0,0,0,0,0,0,-1,1539,659,0,0
322,365,0,0,0,0,0,0,0,0,0,-1,1546,659,0,0
329,365,0,0,0,0,0,0,0,0,0,-1,1553,659,0,0
336,365,0,0,0,0,0,0,0,0,0,-1,1560,659,0,0
343,365,0,0,0,0,0,0,0,0,0,-1,1567,659,0,0
350,365,0,0,0,0,0,0,0,0,0,-1,1574,659,0,0
357,365,0,0,0,0,0,0,0,0,0,-1,1581,659,0,0
364,365,0,0,0,0,0,0,0,0,0,-1,1588,659,0,0
371,365,0,0,0,0,0,0,0,0,0,-1,1595,659,0,0
378,365,0,0,0,0,0,0,0,0,0,-1,1602,659,0,0
385,365,0,0,0,0,0,0,0,0,0,-1,1609,659,0,0
392,365,0,0,0,0,0,0,0,0,0,-1,1616,659,0,0
399,365,0,0,0,0,0,0,0,0,0,-1,1623,659,0,0
406,365,0,0,0,0,0,0,0,0,0,-1,1630,659,0,0
413,365,0,0,0,0,0,0,0,0,0,-1,1637,659,0,0
420,365,0,0,0,0,0,0,0,0,0,-1,1644,659,0,0
427,365,0,0,0,0,0,0,0,0,0,-1,1651,659,0,0
434,365,0,0,0,0,0,0,0,0,0,-1,1658,659,0,0
441,365,0,0,0,0,0,0,0,0,0,-1,1665,659,0,0
448,365,0,0,0,0,0,0,0,0,0,-1,1672,659,0,0
455,365,0,0,0,0,0,0,0,0,0,-1,1679,659,0,0
462,365,0,0,0,0,0,0,0,0,0,-1,1686,659,0,0
469,365,0,0,0,0,0,0,0,0,0,-1,1693,659,0,0
476,365,0,0,0,0,0,0,0,0,0,-1,1700,659,0,0
483,365,0,0,0,0,0,0,0,0,0,-1,1707,659,0,0
490,365,8.39551,0.471252,0,0,0,0,0,0,0,-1,1714,659,8.39551,-0.471241
497,365,9.89233,1.35394,0,0,0,0,0,0,0,-1,1721,659,9.89237,-1.35396
504,365,10.1414,1.18005,0,0,0,0,0,0,0,-1,1728,659,10.1413,-1.18004
511,365,10.5151,0.993896,0,0,0,0,0,0,0,-1,1735,659,10.5152,-0.993894
518,365,11.2029,0.398132,0,0,0,0,0,0,0,-1,1742,659,11.2029,-0.398136
525,365,11.3424,0.597229,0,0,0,0,0,0,0,-1,1749,659,11.3424,-0.597203
532,365,11.2446,1.00629,0,0,0,0,0,0,0,-1,1756,659,11.2446,-1.00631
539,365,12.6301,1.03204,0,0,0,0,0,0,0,-1,1763,659,12.6302,-1.03204
546,365,11.647,0.84198,0,0,0,0,0,0,0,-1,1770,659,11.6469,-0.841955
553,365,12.028,-0.558899,0,0,0,0,0,0,0,-1,1777,659,12.028,0.558873
560,365,7.66602,-2.28088,0,0,0,0,0,0,0,-1,1784,659,7.66596,2.28088
567,365,8.20728,-1.76318,-0.0143987,9.48757e-06,-0.00801445,0.00358177,-0.017971,-1.1515,0.0133359,0.0431865,1791,659,8.20732,1.76316
574,365,7.79089,-1.18646,-0.0113446,-0.00102805,-0.00676216,0.00231866,-0.0146913,-1.11122,0.0106515,0.0275932,1798,659,7.79088,1.18644
581,365,7.65576,-0.986084,-0.00849268,-0.00155947,-0.00544061,0.00142509,-0.0114772,-1.06905,0.00816807,0.0146418,1805,659,7.65578,0.986114
588,365,7.62463,-0.787903,-0.0062326,-0.00170241,-0.00428135,0.000876115,-0.00881112,-1.02871,0.00618683,0.0113077,1812,659,7.62466,0.787884
595,365,7.65271,-0.579773,-0.00435148,-0.00152293,-0.00320018,0.000561559,-0.00643596,-0.993462,0.00448955,0.0128965,1819,659,7.65266,0.579791
602,365,7.6665,-0.413452,-0.00285176,-0.00118559,-0.00233861,0.000463894,-0.00450124,-0.956505,0.00316681,0.0144979,1826,659,7.66656,0.413475
609,365,7.63428,-0.252869,-0.00187052,-0.00073633,-0.00178907,0.000573369,-0.00318022,-0.938878,0.00233486,0.014889,1833,659,7.63432,0.252838
616,365,7.64819,-0.0686646,-0.00121455,-0.000609107,-0.00152381,0.000641759,-0.00246541,-0.883452,0.00189412,0.0158232,1840,659,7.6482,0.0686443
623,365,7.66479,0.0949707,-0.000610167,-0.000334577,-0.00134509,0.000879761,-0.00182451,-0.836441,0.00159275,0.0109861,1847,659,7.66476,-0.0949551
630,365,7.63818,0.261719,-3.96841e-05,0.000184099,-0.00137128,0.00144804,-0.00130363,-0.826106,0.00158941,0.0142509,1854,659,7.63819,-0.261729
637,365,7.6394,0.433472,0.00157991,0.000334493,-0.00144338,0.00252917,-0.000614772,-0.581748,0.00192406,0.0190857,1861,659,7.63947,-0.433471
644,365,7.68726,0.614319,0.00391739,0.000136438,-0.00181801,0.00464971,-0.000595881,-0.38293,0.00331633,0.0138444,1868,659,7.68726,-0.614303
651,365,7.7594,0.812073,0.00676212,-0.000219442,-0.00226065,0.00743019,-0.000887516,-0.287345,0.00527425,0.0242622,1875,659,7.75945,-0.812085
658,365,7.57373,0.711609,0.0112386,-0.000793627,-0.0026481,0.0117956,-0.00135065,-0.207325,0.00835043,0.0387396,1882,659,7.57369,-0.711589
665,365,7.49536,0.702332,0.0179502,-0.00164867,-0.00292978,0.0183788,-0.00207726,-0.145258,0.0130004,0.0496084,1889,659,7.49536,-0.70236
672,365,7.3999,0.699829,0,0,0,0,0,0,0,-1,1896,659,7.39994,-0.69981
679,365,7.98621,0.932068,0,0,0,0,0,0,0,-1,1903,659,7.98616,-0.932069
686,365,8.80444,1.29584,0.0569989,-0.00547885,-0.00229054,0.0570828,-0.00556271,-0.0365962,0.0400384,0.0461042,1910,659,8.80445,-1.29582
693,365,9.39966,1.29321,0.0774195,-0.00709777,-0.00104886,0.0774325,-0.00711079,-0.0124075,0.0541478,0.047028,1917,659,9.39969,-1.2932
700,365,0,0,0,0,0,0,0,0,0,-1,1924,659,0,0
707,365,0,0,0,0,0,0,0,0,0,-1,1931,659,0,0
714,365,0,0,0,0,0,0,0,0,0,-1,1938,659,0,0
721,365,0,0,0,0,0,0,0,0,0,-1,1945,659,0,0
728,365,0,0,0,0,0,0,0,0,0,-1,1952,659,0,0
735,365,0,0,0,0,0,0,0,0,0,-1,1959,659,0,0
742,365,0,0,0,0,0,0,0,0,0,-1,1966,659,0,0
749,365,0,0,0,0,0,0,0,0,0,-1,1973,659,0,0
756,365,0,0,0,0,0,0,0,0,0,-1,1980,659,0,0
763,365,0,0,0,0,0,0,0,0,0,-1,1987,659,0,0
770,365,0,0,0,0,0,0,0,0,0,-1,1994,659,0,0
777,365,0,0,0,0,0,0,0,0,0,-1,2001,659,0,0
784,365,0,0,0,0,0,0,0,0,0,-1,2008,659,0,0
791,365,0,0,0,0,0,0,0,0,0,-1,2015,659,0,0
798,365,0,0,0,0,0,0,0,0,0,-1,2022,659,0,0
805,365,0,0,0,0,0,0,0,0,0,-1,2029,659,0,0
812,365,0,0,0,0,0,0,0,0,0,-1,2036,659,0,0
-700,358,0,0,0,0,0,0,0,0,0,-1,524,666,0,0
-693,358,0,0,0,0,0,0,0,0,0,-1,531,666,0,0
-686,358,0,0,0,0,0,0,0,0,0,-1,538,666,0,0
-679,358,0,0,0,0,0,0,0,0,0,-1,545,666,0,0
-672,358,0,0,0,0,0,0,0,0,0,-1,552,666,0,0
-665,358,0,0,0,0,0,0,0,0,0,-1,559,666,0,0
-658,358,0,0,0,0,0,0,0,0,0,-1,566,666,0,0
-651,358,0,0,0,0,0,0,0,0,0,-1,573,666,0,0
-644,358,0,0,0,0,0,0,0,0,0,-1,580,666,0,0
-637,358,0,0,0,0,0,0,0,0,0,-1,587,666,0,0
-630,358,0,0,0,0,0,0,0,0,0,-1,594,666,0,0
-623,358,0,0,0,0,0,0,0,0,0,-1,601,666,0,0
-616,358,0,0,0,0,0,0,0,0,0,-1,608,666,0,0
-609,358,0,0,0,0,0,0,0,0,0,-1,615,666,0,0
-602,358,0,0,0,0,0,0,0,0,0,-1,622,666,0,0
-595,358,0,0,0,0,0,0,0,0,0,-1,629,666,0,0
-588,358,0,0,0,0,0,0,0,0,0,-1,636,666,0,0
-581,358,-3.74402,0.119751,0,0,0,0,0,0,0,-1,643,666,-3.74402,-0.119759
-574,358,-3.19556,0.41394,0,0,0,0,0,0,0,-1,650,666,-3.19559,-0.413941
-567,358,-2.79272,1.36188,0,0,0,0,0,0,0,-1,657,666,-2.79273,-1.36188
-560,358,-2.7262,1.24402,0.00774914,0.0328412,-0.0400739,0.0622871,-0.0216967,-0.937101,0.0503404,0.0483303,664,666,-2.72621,-1.24402
-553,358,-2.69281,0.960266,0.000335354,0.0303222,-0.0350989,0.053496,-0.0228385,-0.987254,0.045241,0.0458348,671,666,-2.6928,-0.960281
-546,358,-2.58606,0.675171,0,0,0,0,0,0,0,-1,678,666,-2.58608,-0.675142
-539,358,-2.58588,0.28656,-0.00686843,0.0219051,-0.0236247,0.0351788,-0.0201422,-1.05889,0.0323305,0.0479491,685,666,-2.58587,-0.286554
-532,358,-2.76862,-0.118286,-0.00766105,0.0173269,-0.0182157,0.0269217,-0.0172558,-1.08599,0.0257086,0.0410925,692,666,-2.7686,0.118273
-525,358,-3.13263,-0.752808,-0.00732471,0.0129129,-0.0134349,0.0196133,-0.0140252,-1.10816,0.0195103,0.0257852,699,666,-3.13266,0.752827
-518,358,-3.16199,-0.87323,-0.00692078,0.00908921,-0.00940153,0.013432,-0.0112636,-1.13807,0.0142763,0.0197842,706,666,-3.16199,0.873257
-511,358,-3.20142,-1.06714,-0.00523577,0.00616147,-0.00633251,0.00898195,-0.00805625,-1.15178,0.00984185,0.0149802,713,666,-3.20139,1.06712
-504,358,-3.20056,-1.2298,-0.00397147,0.00369368,-0.00365651,0.00515815,-0.00543594,-1.18985,0.0061172,0.01131,720,666,-3.20055,1.22977
-497,358,-3.20404,-1.39954,-0.00270175,0.00140323,-0.00175665,0.00205232,-0.00335085,-1.21685,0.00314941,0.0107907,727,666,-3.20403,1.39956
-490,358,-3.20215,-1.54681,-0.0012048,-0.000597324,-0.000457506,-0.000351909,-0.00145021,-1.07844,0.000873465,0.0103513,734,666,-3.20213,1.54681
-483,358,-3.19836,-1.6861,0.000103419,-0.00257196,0.000709461,0.000279912,-0.00274845,0.243821,0.00193238,0.00995691,741,666,-3.19835,1.68611
-476,358,-3.18555,-1.84387,0.00065306,-0.00435478,0.00172426,0.00118932,-0.00489104,0.301525,0.00372104,0.0105872,748,666,-3.18557,1.84386
-469,358,-3.19397,-2.00732,0.000227712,-0.0058919,0.00266338,0.00122451,-0.00688869,0.358121,0.00505036,0.0124296,755,666,-3.19396,2.00733
-462,358,-3.20258,-2.17096,-0.000262488,-0.00781447,0.00349765,0.00110852,-0.00918548,0.373575,0.00652463,0.016892,762,666,-3.2026,2.17098
-455,358,-3.16943,-2.34344,-0.0013978,-0.0102204,0.00469084,0.000630129,-0.0122483,0.408051,0.00838347,0.0183715,769,666,-3.16944,2.34344
-448,358,-3.04517,-2.54608,-0.00323524,-0.0128711,0.00620981,-0.00019351,-0.0159128,0.455475,0.0105446,0.0360536,776,666,-3.04515,2.54611
-441,358,-3.08582,-2.36151,0,0,0,0,0,0,0,-1,783,666,-3.08584,2.36154
-434,358,-3.09296,-2.89484,0,0,0,0,0,0,0,-1,790,666,-3.09294,2.89481
-427,358,-2.73853,-3.09583,0,0,0,0,0,0,0,-1,797,666,-2.73854,3.09585
-420,358,0.200195,1.08234,0,0,0,0,0,0,0,-1,804,666,0.200174,-1.08231
-413,358,0.0325317,0.161072,0,0,0,0,0,0,0,-1,811,666,0.0325501,-0.161098
-406,358,-0.505615,0.0419312,0,0,0,0,0,0,0,-1,818,666,-0.50561,-0.0419371
-399,358,-1.31213,0.190735,0,0,0,0,0,0,0,-1,825,666,-1.31215,-0.190763
-392,358,-3.73914,-0.832214,0,0,0,0,0,0,0,-1,832,666,-3.73915,0.832202
-385,358,-5.95178,-1.69141,0,0,0,0,0,0,0,-1,839,666,-5.9518,1.69143
-378,358,0,0,0,0,0,0,0,0,0,-1,846,666,0,0
-371,358,0,0,0,0,0,0,0,0,0,-1,853,666,0,0
-364,358,0,0,0,0,0,0,0,0,0,-1,860,666,0,0
-357,358,0,0,0,0,0,0,0,0,0,-1,867,666,0,0
-350,358,0,0,0,0,0,0,0,0,0,-1,874,666,0,0
-343,358,0,0,0,0,0,0,0,0,0,-1,881,666,0,0
-336,358,0,0,0,0,0,0,0,0,0,-1,888,666,0,0
-329,358,0,0,0,0,0,0,0,0,0,-1,895,666,0,0
-322,358,0,0,0,0,0,0,0,0,0,-1,902,666,0,0
-315,358,0,0,0,0,0,0,0,0,0,-1,909,666,0,0
-308,358,0,0,0,0,0,0,0,0,0,-1,916,666,0,0
-301,358,0,0,0,0,0,0,0,0,0,-1,923,666,0,0
-294,358,0,0,0,0,0,0,0,0,0,-1,930,666,0,0
-287,358,0,0,0,0,0,0,0,0,0,-1,937,666,0,0
-280,358,0,0,0,0,0,0,0,0,0,-1,944,666,0,0
-273,358,0,0,0,0,0,0,0,0,0,-1,951,666,0,0
-266,358,0,0,0,0,0,0,0,0,0,-1,958,666,0,0
-259,358,0,0,0,0,0,0,0,0,0,-1,965,666,0,0
-252,358,0,0,0,0,0,0,0,0,0,-1,972,666,0,0
-245,358,0,0,0,0,0,0,0,0,0,-1,979,666,0,0
-238,358,0,0,0,0,0,0,0,0,0,-1,986,666,0,0
-231,358,0,0,0,0,0,0,0,0,0,-1,993,666,0,0
-224,358,0,0,0,0,0,0,0,0,0,-1,1000,666,0,0
-217,358,0,0,0,0,0,0,0,0,0,-1,1007,666,0,0
-210,358,0,0,0,0,0,0,0,0,0,-1,1014,666,0,0
-203,358,0,0,0,0,0,0,0,0,0,-1,1021,666,0,0
-196,358,0,0,0,0,0,0,0,0,0,-1,1028,666,0,0
-189,358,0,0,0,0,0,0,0,0,0,-1,1035,666,0,0
-182,358,0,0,0,0,0,0,0,0,0,-1,1042,666,0,0
-175,358,0,0,0,0,0,0,0,0,0,-1,1049,666,0,0
-168,358,0,0,0,0,0,0,0,0,0,-1,1056,666,0,0
-161,358,0,0,0,0,0,0,0,0,0,-1,1063,666,0,0
-154,358,0,0,0,0,0,0,0,0,0,-1,1070,666,0,0
-147,358,0,0,0,0,0,0,0,0,0,-1,1077,666,0,0
-140,358,0,0,0,0,0,0,0,0,0,-1,1084,666,0,0
-133,358,0,0,0,0,0,0,0,0,0,-1,1091,666,0,0
-126,358,0,0,0,0,0,0,0,0,0,-1,1098,666,0,0
-119,358,0,0,0,0,0,0,0,0,0,-1,1105,666,0,0
-112,358,0,0,0,0,0,0,0,0,0,-1,1112,666,0,0
-105,358,0,0,0,0,0,0,0,0,0,-1,1119,666,0,0
-98,358,0,0,0,0,0,0,0,0,0,-1,1126,666,0,0
-91,358,0,0,0,0,0,0,0,0,0,-1,1133,666,0,0
-84,358,0,0,0,0,0,0,0,0,0,-1,1140,666,0,0
-77,358,0,0,0,0,0,0,0,0,0,-1,1147,666,0,0
-70,358,0,0,0,0,0,0,0,0,0,-1,1154,666,0,0
-63,358,0,0,0,0,0,0,0,0,0,-1,1161,666,0,0
-56,358,0,0,0,0,0,0,0,0,0,-1,1168,666,0,0
-49,358,0,0,0,0,0,0,0,0,0,-1,1175,666,0,0
-42,358,0,0,0,0,0,0,0,0,0,-1,1182,666,0,0
-35,358,0,0,0,0,0,0,0,0,0,-1,1189,666,0,0
-28,358,0,0,0,0,0,0,0,0,0,-1,1196,666,0,0
-21,358,0,0,0,0,0,0,0,0,0,-1,1203,666,0,0
-14,358,0,0,0,0,0,0,0,0,0,-1,1210,666,0,0
-7,358,0,0,0,0,0,0,0,0,0,-1,1217,666,0,0
0,358,0,0,0,0,0,0,0,0,0,-1,1224,666,0,0
7,358,0,0,0,0,0,0,0,0,0,-1,1231,666,0,0
14,358,0,0,0,0,0,0,0,0,0,-1,1238,666,0,0
21,358,0,0,0,0,0,0,0,0,0,-1,1245,666,0,0
28,358,0,0,0,0,0,0,0,0,0,-1,1252,666,0,0
35,358,0,0,0,0,0,0,0,0,0,-1,1259,666,0,0
42,358,0,0,0,0,0,0,0,0,0,-1,1266,666,0,0
49,358,0,0,0,0,0,0,0,0,0,-1,1273,666,0,0
56,358,0,0,0,0,0,0,0,0,0,-1,1280,666,0,0
63,358,0,0,0,0,0,0,0,0,0,-1,1287,666,0,0
70,358,0,0,0,0,0,0,0,0,0,-1,1294,666,0,0
77,358,0,0,0,0,0,0,0,0,0,-1,1301,666,0,0
84,358,0,0,0,0,0,0,0,0,0,-1,1308,666,0,0
91,358,0,0,0,0,0,0,0,0,0,-1,1315,666,0,0
98,358,0,0,0,0,0,0,0,0,0,-1,1322,666,0,0
105,358,0,0,0,0,0,0,0,0,0,-1,1329,666,0,0
112,358,0,0,0,0,0,0,0,0,0,-1,1336,666,0,0
119,358,0,0,0,0,0,0,0,0,0,-1,1343,666,0,0
126,358,0,0,0,0,0,0,0,0,0,-1,1350,666,0,0
133,358,0,0,0,0,0,0,0,0,0,-1,1357,666,0,0
140,358,0,0,0,0,0,0,0,0,0,-1,1364,666,0,0
147,358,0,0,0,0,0,0,0,0,0,-1,1371,666,0,0
154,358,0,0,0,0,0,0,0,0,0,-1,1378,666,0,0
161,358,0,0,0,0,0,0,0,0,0,-1,1385,666,0,0
168,358,0,0,0,0,0,0,0,0,0,-1,1392,666,0,0
175,358,0,0,0,0,0,0,0,0,0,-1,1399,666,0,0
182,358,0,0,0,0,0,0,0,0,0,-1,1406,666,0,0
189,358,0,0,0,0,0,0,0,0,0,-1,1413,666,0,0
196,358,0,0,0,0,0,0,0,0,0,-1,1420,666,0,0
203,358,0,0,0,0,0,0,0,0,0,-1,1427,666,0,0
210,358,0,0,0,0,0,0,0,0,0,-1,1434,666,0,0
217,358,0,0,0,0,0,0,0,0,0,-1,1441,666,0,0
224,358,0,0,0,0,0,0,0,0,0,-1,1448,666,0,0
231,358,0,0,0,0,0,0,0,0,0,-1,1455,666,0,0
238,358,0,0,0,0,0,0,0,0,0,-1,1462,666,0,0
245,358,0,0,0,0,0,0,0,0,0,-1,1469,666,0,0
252,358,0,0,0,0,0,0,0,0,0,-1,1476,666,0,0
259,358,0,0,0,0,0,0,0,0,0,-1,1483,666,0,0
266,358,0,0,0,0,0,0,0,0,0,-1,1490,666,0,0
273,358,0,0,0,0,0,0,0,0,0,-1,1497,666,0,0
280,358,0,0,0,0,0,0,0,0,0,-1,1504,666,0,0
287,358,0,0,0,0,0,0,0,0,0,-1,1511,666,0,0
294,358,0,0,0,0,0,0,0,0,0,-1,1518,666,0,0
301,358,0,0,0,0,0,0,0,0,0,-1,1525,666,0,0
308,358,0,0,0,0,0,0,0,0,0,-1,1532,666,0,0
315,358,0,0,0,0,0,0,0,0,0,-1,1539,666,0,0
322,358,0,0,0,0,0,0,0,0,0,-1,1546,666,0,0
329,358,0,0,0,0,0,0,0,0,0,-1,1553,666,0,0
336,358,0,0,0,0,0,0,0,0,0,-1,1560,666,0,0
343,358,0,0,0,0,0,0,0,0,0,-1,1567,666,0,0
350,358,0,0,0,0,0,0,0,0,0,-1,1574,666,0,0
357,358,0,0,0,0,0,0,0,0,0,-1,1581,666,0,0
364,358,0,0,0,0,0,0,0,0,0,-1,1588,666,0,0
371,358,0,0,0,0,0,0,0,0,0,-1,1595,666,0,0
378,358,0,0,0,0,0,0,0,0,0,-1,1602,666,0,0
385,358,0,0,0,0,0,0,0,0,0,-1,1609,666,0,0
392,358,0,0,0,0,0,0,0,0,0,-1,1616,666,0,0
399,358,0,0,0,0,0,0,0,0,0,-1,1623,666,0,0
406,358,0,0,0,0,0,0,0,0,0,-1,1630,666,0,0
413,358,0,0,0,0,0,0,0,0,0,-1,1637,666,0,0
420,358,0,0,0,0,0,0,0,0,0,-1,1644,666,0,0
427,358,0,0,0,0,0,0,0,0,0,-1,1651,666,0,0
434,358,0,0,0,0,0,0,0,0,0,-1,1658,666,0,0
441,358,0,0,0,0,0,0,0,0,0,-1,1665,666,0,0
448,358,0,0,0,0,0,0,0,0,0,-1,1672,666,0,0
455,358,0,0,0,0,0,0,0,0,0,-1,1679,666,0,0
462,358,0,0,0,0,0,0,0,0,0,-1,1686,666,0,0
469,358,0,0,0,0,0,0,0,0,0,-1,1693,666,0,0
476,358,0,0,0,0,0,0,0,0,0,-1,1700,666,0,0
483,358,0,0,0,0,0,0,0,0,0,-1,1707,666,0,0
490,358,0,0,0,0,0,0,0,0,0,-1,1714,666,0,0
497,358,8.57239,1.1322,0,0,0,0,0,0,0,-1,1721,666,8.57234,-1.13219
504,358,10.5972,0.832947,0,0,0,0,0,0,0,-1,1728,666,10.5972,-0.832968
511,358,10.6873,0.868469,0,0,0,0,0,0,0,-1,1735,666,10.6872,-0.868484
518,358,10.7079,0.866211,0,0,0,0,0,0,0,-1,1742,666,10.7079,-0.8662
525,358,10.797,0.692993,0,0,0,0,0,0,0,-1,1749,666,10.797,-0.693009
532,358,13.5295,1.88013,0,0,0,0,0,0,0,-1,1756,666,13.5296,-1.88011
539,358,12.9438,1.70734,0,0,0,0,0,0,0,-1,1763,666,12.9438,-1.70732
546,358,12.3792,1.53558,0,0,0,0,0,0,0,-1,1770,666,12.3792,-1.5356
553,358,11.6584,1.26172,0,0,0,0,0,0,0,-1,1777,666,11.6585,-1.26175
560,358,10.8234,1.43042,0,0,0,0,0,0,0,-1,1784,666,10.8233,-1.43041
567,358,8.73206,-0.946533,0,0,0,0,0,0,0,-1,1791,666,8.7321,0.946518
574,358,8.31677,-0.941956,-0.0141394,-0.00240013,-0.008905,0.00239568,-0.0189352,-1.07678,0.0134931,0.0458551,1798,666,8.31683,0.941976
581,358,7.88635,-0.950562,-0.0104376,-0.00286937,-0.00708598,0.00137962,-0.0146866,-1.03065,0.0102818,0.0212688,1805,666,7.8864,0.950558
588,358,7.79065,-0.804504,-0.00760133,-0.00284577,-0.00554436,0.000809176,-0.0112563,-0.987968,0.00778793,0.0130215,1812,666,7.79059,0.804484
595,358,7.81531,-0.58551,-0.00530099,-0.00249709,-0.00412033,0.000453272,-0.00825135,-0.94938,0.00565805,0.0119577,1819,666,7.81537,0.585526
602,358,7.79614,-0.409424,-0.00349663,-0.00201218,-0.00297939,0.000316045,-0.00582485,-0.907473,0.00399276,0.012544,1826,666,7.79615,0.409397
609,358,7.77832,-0.264404,-0.00228148,-0.00139971,-0.00220598,0.000409006,-0.0040902,-0.884029,0.00287286,0.0152251,1833,666,7.77829,0.26441
616,358,7.7915,-0.071167,-0.00148019,-0.00114867,-0.00178767,0.000480909,-0.00310977,-0.831627,0.00225067,0.0143433,1840,666,7.79147,0.0711384
623,358,7.81885,0.0858154,-0.000795707,-0.000869177,-0.00147914,0.000647155,-0.00231204,-0.772983,0.00179636,0.0139867,1847,666,7.81887,-0.0857857
630,358,7.79626,0.231689,-0.000176519,-0.000322032,-0.00137674,0.00112939,-0.00162794,-0.758999,0.00160059,0.0167558,1854,666,7.79628,-0.231688
637,358,7.80237,0.428345,0.00125961,-0.000149356,-0.00133194,0.0020619,-0.000951642,-0.542142,0.00177879,0.0228138,1861,666,7.80233,-0.428317
644,358,7.84839,0.617249,0.0032586,-0.000318329,-0.00160535,0.00387342,-0.000933147,-0.365748,0.00294306,0.0183684,1868,666,7.84842,-0.617267
651,358,7.86609,0.825012,0.00572196,-0.00072623,-0.00199585,0.00628973,-0.001294,-0.277152,0.00468444,0.0180717,1875,666,7.86615,-0.825023
658,358,7.68823,0.971619,0.00950086,-0.00133922,-0.00234064,0.00998467,-0.00182303,-0.203829,0.00733998,0.0288514,1882,666,7.68824,-0.971592
665,358,7.54309,0.961426,0.0151559,-0.00213112,-0.00255007,0.0155242,-0.00249945,-0.143444,0.0112754,0.0395087,1889,666,7.54306,-0.961428
672,358,7.47913,1.07452,0,0,0,0,0,0,0,-1,1896,666,7.47912,-1.07452
679,358,8.06555,1.45538,0,0,0,0,0,0,0,-1,1903,666,8.06556,-1.45539
686,358,8.81335,1.33228,0.0480513,-0.0054901,-0.00120941,0.0480786,-0.00551741,-0.0225729,0.0340409,0.047206,1910,666,8.81336,-1.33228
693,358,9.45935,1.38348,0.0653295,-0.00668357,0.00052846,0.0653334,-0.00668745,0.00733787,0.0459473,0.0460239,1917,666,9.4593,-1.38345
700,358,0,0,0,0,0,0,0,0,0,-1,1924,666,0,0
707,358,0,0,0,0,0,0,0,0,0,-1,1931,666,0,0
714,358,0,0,0,0,0,0,0,0,0,-1,1938,666,0,0
721,358,0,0,0,0,0,0,0,0,0,-1,1945,666,0,0
728,358,0,0,0,0,0,0,0,0,0,-1,1952,666,0,0
735,358,0,0,0,0,0,0,0,0,0,-1,1959,666,0,0
742,358,0,0,0,0,0,0,0,0,0,-1,1966,666,0,0
749,358,0,0,0,0,0,0,0,0,0,-1,1973,666,0,0
756,358,0,0,0,0,0,0,0,0,0,-1,1980,666,0,0
763,358,0,0,0,0,0,0,0,0,0,-1,1987,666,0,0
770,358,0,0,0,0,0,0,0,0,0,-1,1994,666,0,0
777,358,0,0,0,0,0,0,0,0,0,-1,2001,666,0,0
784,358,0,0,0,0,0,0,0,0,0,-1,2008,666,0,0
791,358,0,0,0,0,0,0,0,0,0,-1,2015,666,0,0
798,358,0,0,0,0,0,0,0,0,0,-1,2022,666,0,0
805,358,0,0,0,0,0,0,0,0,0,-1,2029,666,0,0
812,358,0,0,0,0,0,0,0,0,0,-1,2036,666,0,0
-700,351,0,0,0,0,0,0,0,0,0,-1,524,673,0,0
-693,351,0,0,0,0,0,0,0,0,0,-1,531,673,0,0
-686,351,0,0,0,0,0,0,0,0,0,-1,538,673,0,0
-679,351,0,0,0,0,0,0,0,0,0,-1,545,673,0,0
-672,351,0,0,0,0,0,0,0,0,0,-1,552,673,0,0
-665,351,0,0,0,0,0,0,0,0,0,-1,559,673,0,0
-658,351,0,0,0,0,0,0,0,0,0,-1,566,673,0,0
-651,351,0,0,0,0,0,0,0,0,0,-1,573,673,0,0
-644,351,0,0,0,0,0,0,0,0,0,-1,580,673,0,0
-637,351,0,0,0,0,0,0,0,0,0,-1,587,673,0,0
-630,351,0,0,0,0,0,0,0,0,0,-1,594,673,0,0
-623,351,0,0,0,0,0,0,0,0,0,-1,601,673,0,0
-616,351,0,0,0,0,0,0,0,0,0,-1,608,673,0,0
-609,351,0,0,0,0,0,0,0,0,0,-1,615,673,0,0
-602,351,0,0,0,0,0,0,0,0,0,-1,622,673,0,0
-595,351,0,0,0,0,0,0,0,0,0,-1,629,673,0,0
-588,351,0,0,0,0,0,0,0,0,0,-1,636,673,0,0
-581,351,-2.78931,-0.214111,0,0,0,0,0,0,0,-1,643,673,-2.78928,0.214094
-574,351,-2.19696,0.101074,0,0,0,0,0,0,0,-1,650,673,-2.19694,-0.101052
-567,351,-1.67334,0.504272,0,0,0,0,0,0,0,-1,657,673,-1.67332,-0.504287
-560,351,-2.2699,0.90863,0,0,0,0,0,0,0,-1,664,673,-2.26991,-0.908657
-553,351,-2.58081,0.657349,0,0,0,0,0,0,0,-1,671,673,-2.58081,-0.65735
-546,351,-2.39008,0.322998,0,0,0,0,0,0,0,-1,678,673,-2.39006,-0.322982
-539,351,-2.78571,0.142822,-0.00594818,0.0151453,-0.0149528,0.0228967,-0.0136995,-1.09255,0.0213501,0.0444259,685,673,-2.78572,-0.142809
-532,351,-3.24158,-0.585022,-0.00639725,0.0123171,-0.0117464,0.0179777,-0.0120579,-1.12173,0.017453,0.0302776,692,673,-3.24159,0.585049
-525,351,-3.33459,-0.788696,-0.00600642,0.00923115,-0.00862889,0.0131234,-0.00989866,-1.14705,0.0133352,0.0171851,699,673,-3.33457,0.788688
-518,351,-3.36639,-0.902588,-0.00556969,0.00647883,-0.00594576,0.00891884,-0.00800969,-1.18138,0.00977839,0.0112526,706,673,-3.36639,0.902599
-511,351,-3.35541,-1.0614,-0.00410763,0.0044005,-0.0039717,0.00596636,-0.00567348,-1.19525,0.00672098,0.0109038,713,673,-3.3554,1.06138
-504,351,-3.35443,-1.23071,-0.00307066,0.00237729,-0.00199417,0.00302922,-0.0037226,-1.25483,0.00390501,0.0101736,720,673,-3.35443,1.23074
-497,351,-3.35138,-1.37921,-0.00200466,0.000289072,-0.000558097,0.000417656,-0.00213325,-1.34435,0.00157989,0.0103937,727,673,-3.35135,1.37922
-490,351,-3.35394,-1.53381,-0.000660795,-0.00170237,0.000497169,-0.000461585,-0.00190158,0.381101,0.00114529,0.0103181,734,673,-3.35397,1.53378
-483,351,-3.3526,-1.67365,0.000462173,-0.00373671,0.00152562,0.000957954,-0.00423249,0.314204,0.0031893,0.0117495,741,673,-3.35261,1.67364
-476,351,-3.36566,-1.83044,0.000905616,-0.00575778,0.00254883,0.00176877,-0.00662093,0.326524,0.00510669,0.0109172,748,673,-3.36568,1.83042
-469,351,-3.35822,-1.99182,0.000470511,-0.00775821,0.00362101,0.001837,-0.0091247,0.360853,0.00677894,0.0130394,755,673,-3.35823,1.99184
-462,351,-3.34082,-2.16669,-2.17865e-06,-0.0102532,0.00463455,0.00178245,-0.0120378,0.36757,0.00868055,0.0166522,762,673,-3.34083,2.16667
-455,351,-3.30023,-2.36798,-0.00110535,-0.0133143,0.00600417,0.00135258,-0.0157722,0.388558,0.0109934,0.0222347,769,673,-3.30022,2.36797
-448,351,-3.28394,-2.18713,-0.00298397,-0.0166773,0.00770308,0.000475388,-0.0201367,0.422095,0.0135857,0.0434621,776,673,-3.28394,2.18715
-441,351,-3.01361,-1.88324,-0.00616652,-0.0205254,0.00985356,-0.00115428,-0.0255376,0.470562,0.0166537,0.0486569,783,673,-3.01364,1.88323
-434,351,-2.81744,-1.61591,0,0,0,0,0,0,0,-1,790,673,-2.81745,1.61588
-427,351,-2.05157,-2.7785,0,0,0,0,0,0,0,-1,797,673,-2.05157,2.77848
-420,351,-1.06989,-2.43665,0,0,0,0,0,0,0,-1,804,673,-1.06991,2.43663
-413,351,-0.392334,-2.06671,0,0,0,0,0,0,0,-1,811,673,-0.392363,2.06672
-406,351,-1.86316,-2.58105,0,0,0,0,0,0,0,-1,818,673,-1.86313,2.58106
-399,351,1.00952,-1.53455,0,0,0,0,0,0,0,-1,825,673,1.00954,1.53457
-392,351,-1.02197,0.877136,0,0,0,0,0,0,0,-1,832,673,-1.02195,-0.877143
-385,351,-1.47205,1.04437,0,0,0,0,0,0,0,-1,839,673,-1.47207,-1.04435
-378,351,0,0,0,0,0,0,0,0,0,-1,846,673,0,0
-371,351,0,0,0,0,0,0,0,0,0,-1,853,673,0,0
-364,351,0,0,0,0,0,0,0,0,0,-1,860,673,0,0
-357,351,0,0,0,0,0,0,0,0,0,-1,867,673,0,0
-350,351,0,0,0,0,0,0,0,0,0,-1,874,673,0,0
-343,351,0,0,0,0,0,0,0,0,0,-1,881,673,0,0
-336,351,0,0,0,0,0,0,0,0,0,-1,888,673,0,0
-329,351,0,0,0,0,0,0,0,0,0,-1,895,673,0,0
-322,351,0,0,0,0,0,0,0,0,0,-1,902,673,0,0
-315,351,0,0,0,0,0,0,0,0,0,-1,909,673,0,0
-308,351,0,0,0,0,0,0,0,0,0,-1,916,673,0,0
-301,351,0,0,0,0,0,0,0,0,0,-1,923,673,0,0
-294,351,0,0,0,0,0,0,0,0,0,-1,930,673,0,0
-287,351,0,0,0,0,0,0,0,0,0,-1,937,673,0,0
-280,351,0,0,0,0,0,0,0,0,0,-1,944,673,0,0
-273,351,0,0,0,0,0,0,0,0,0,-1,951,673,0,0
-266,351,0,0,0,0,0,0,0,0,0,-1,958,673,0,0
-259,351,0,0,0,0,0,0,0,0,0,-1,965,673,0,0
-252,351,0,0,0,0,0,0,0,0,0,-1,972,673,0,0
-245,351,0,0,0,0,0,0,0,0,0,-1,979,673,0,0
-238,351,0,0,0,0,0,0,0,0,0,-1,986,673,0,0
-231,351,0,0,0,0,0,0,0,0,0,-1,993,673,0,0
-224,351,0,0,0,0,0,0,0,0,0,-1,1000,673,0,0
-217,351,0,0,0,0,0,0,0,0,0,-1,1007,673,0,0
-210,351,0,0,0,0,0,0,0,0,0,-1,1014,673,0,0
-203,351,0,0,0,0,0,0,0,0,0,-1,1021,673,0,0
-196,351,0,0,0,0,0,0,0,0,0,-1,1028,673,0,0
-189,351,0,0,0,0,0,0,0,0,0,-1,1035,673,0,0
-182,351,0,0,0,0,0,0,0,0,0,-1,1042,673,0,0
-175,351,0,0,0,0,0,0,0,0,0,-1,1049,673,0,0
-168,351,0,0,0,0,0,0,0,0,0,-1,1056,673,0,0
-161,351,0,0,0,0,0,0,0,0,0,-1,1063,673,0,0
-154,351,0,0,0,0,0,0,0,0,0,-1,1070,673,0,0
-147,351,0,0,0,0,0,0,0,0,0,-1,1077,673,0,0
-140,351,0,0,0,0,0,0,0,0,0,-1,1084,673,0,0
-133,351,0,0,0,0,0,0,0,0,0,-1,1091,673,0,0
-126,351,0,0,0,0,0,0,0,0,0,-1,1098,673,0,0
-119,351,0,0,0,0,0,0,0,0,0,-1,1105,673,0,0
-112,351,0,0,0,0,0,0,0,0,0,-1,1112,673,0,0
-105,351,0,0,0,0,0,0,0,0,0,-1,1119,673,0,0
-98,351,0,0,0,0,0,0,0,0,0,-1,1126,673,0,0
-91,351,0,0,0,0,0,0,0,0,0,-1,1133,673,0,0
-84,351,0,0,0,0,0,0,0,0,0,-1,1140,673,0,0
-77,351,0,0,0,0,0,0,0,0,0,-1,1147,673,0,0
-70,351,0,0,0,0,0,0,0,0,0,-1,1154,673,0,0
-63,351,0,0,0,0,0,0,0,0,0,-1,1161,673,0,0
-56,351,0,0,0,0,0,0,0,0,0,-1,1168,673,0,0
-49,351,0,0,0,0,0,0,0,0,0,-1,1175,673,0,0
-42,351,0,0,0,0,0,0,0,0,0,-1,1182,673,0,0
-35,351,0,0,0,0,0,0,0,0,0,-1,1189,673,0,0
-28,351,0,0,0,0,0,0,0,0,0,-1,1196,673,0,0
-21,351,0,0,0,0,0,0,0,0,0,-1,1203,673,0,0
-14,351,0,0,0,0,0,0,0,0,0,-1,1210,673,0,0
-7,351,0,0,0,0,0,0,0,0,0,-1,1217,673,0,0
0,351,0,0,0,0,0,0,0,0,0,-1,1224,673,0,0
7,351,0,0,0,0,0,0,0,0,0,-1,1231,673,0,0
14,351,0,0,0,0,0,0,0,0,0,-1,1238,673,0,0
21,351,0,0,0,0,0,0,0,0,0,-1,1245,673,0,0
28,351,0,0,0,0,0,0,0,0,0,-1,1252,673,0,0
35,351,0,0,0,0,0,0,0,0,0,-1,1259,673,0,0
42,351,0,0,0,0,0,0,0,0,0,-1,1266,673,0,0
49,351,0,0,0,0,0,0,0,0,0,-1,1273,673,0,0
56,351,0,0,0,0,0,0,0,0,0,-1,1280,673,0,0
63,351,0,0,0,0,0,0,0,0,0,-1,1287,673,0,0
70,351,0,0,0,0,0,0,0,0,0,-1,1294,673,0,0
77,351,0,0,0,0,0,0,0,0,0,-1,1301,673,0,0
84,351,0,0,0,0,0,0,0,0,0,-1,1308,673,0,0
91,351,0,0,0,0,0,0,0,0,0,-1,1315,673,0,0
98,351,0,0,0,0,0,0,0,0,0,-1,1322,673,0,0
105,351,0,0,0,0,0,0,0,0,0,-1,1329,673,0,0
112,351,0,0,0,0,0,0,0,0,0,-1,1336,673,0,0
119,351,0,0,0,0,0,0,0,0,0,-1,1343,673,0,0
126,351,0,0,0,0,0,0,0,0,0,-1,1350,673,0,0
133,351,0,0,0,0,0,0,0,0,0,-1,1357,673,0,0
140,351,0,0,0,0,0,0,0,0,0,-1,1364,673,0,0
147,351,0,0,0,0,0,0,0,0,0,-1,1371,673,0,0
154,351,0,0,0,0,0,0,0,0,0,-1,1378,673,0,0
161,351,0,0,0,0,0,0,0,0,0,-1,1385,673,0,0
168,351,0,0,0,0,0,0,0,0,0,-1,1392,673,0,0
175,351,0,0,0,0,0,0,0,0,0,-1,1399,673,0,0
182,351,0,0,0,0,0,0,0,0,0,-1,1406,673,0,0
189,351,0,0,0,0,0,0,0,0,0,-1,1413,673,0,0
196,351,0,0,0,0,0,0,0,0,0,-1,1420,673,0,0
203,351,0,0,0,0,0,0,0,0,0,-1,1427,673,0,0
210,351,0,0,0,0,0,0,0,0,0,-1,1434,673,0,0
217,351,0,0,0,0,0,0,0,0,0,-1,1441,673,0,0
224,351,0,0,0,0,0,0,0,0,0,-1,1448,673,0,0
231,351,0,0,0,0,0,0,0,0,0,-1,1455,673,0,0
238,351,0,0,0,0,0,0,0,0,0,-1,1462,673,0,0
245,351,0,0,0,0,0,0,0,0,0,-1,1469,673,0,0
252,351,0,0,0,0,0,0,0,0,0,-1,1476,673,0,0
259,351,0,0,0,0,0,0,0,0,0,-1,1483,673,0,0
266,351,0,0,0,0,0,0,0,0,0,-1,1490,673,0,0
273,351,0,0,0,0,0,0,0,0,0,-1,1497,673,0,0
280,351,0,0,0,0,0,0,0,0,0,-1,1504,673,0,0
287,351,0,0,0,0,0,0,0,0,0,-1,1511,673,0,0
294,351,0,0,0,0,0,0,0,0,0,-1,1518,673,0,0
301,351,0,0,0,0,0,0,0,0,0,-1,1525,673,0,0
308,351,0,0,0,0,0,0,0,0,0,-1,1532,673,0,0
315,351,0,0,0,0,0,0,0,0,0,-1,1539,673,0,0
322,351,0,0,0,0,0,0,0,0,0,-1,1546,673,0,0
329,351,0,0,0,0,0,0,0,0,0,-1,1553,673,0,0
336,351,0,0,0,0,0,0,0,0,0,-1,1560,673,0,0
343,351,0,0,0,0,0,0,0,0,0,-1,1567,673,0,0
350,351,0,0,0,0,0,0,0,0,0,-1,1574,673,0,0
357,351,0,0,0,0,0,0,0,0,0,-1,1581,673,0,0
364,351,0,0,0,0,0,0,0,0,0,-1,1588,673,0,0
371,351,0,0,0,0,0,0,0,0,0,-1,1595,673,0,0
378,351,0,0,0,0,0,0,0,0,0,-1,1602,673,0,0
385,351,0,0,0,0,0,0,0,0,0,-1,1609,673,0,0
392,351,0,0,0,0,0,0,0,0,0,-1,1616,673,0,0
399,351,0,0,0,0,0,0,0,0,0,-1,1623,673,0,0
406,351,0,0,0,0,0,0,0,0,0,-1,1630,673,0,0
413,351,0,0,0,0,0,0,0,0,0,-1,1637,673,0,0
420,351,0,0,0,0,0,0,0,0,0,-1,1644,673,0,0
427,351,0,0,0,0,0,0,0,0,0,-1,1651,673,0,0
434,351,0,0,0,0,0,0,0,0,0,-1,1658,673,0,0
441,351,0,0,0,0,0,0,0,0,0,-1,1665,673,0,0
448,351,0,0,0,0,0,0,0,0,0,-1,1672,673,0,0
455,351,0,0,0,0,0,0,0,0,0,-1,1679,673,0,0
462,351,0,0,0,0,0,0,0,0,0,-1,1686,673,0,0
469,351,0,0,0,0,0,0,0,0,0,-1,1693,673,0,0
476,351,0,0,0,0,0,0,0,0,0,-1,1700,673,0,0
483,351,0,0,0,0,0,0,0,0,0,-1,1707,673,0,0
490,351,0,0,0,0,0,0,0,0,0,-1,1714,673,0,0
497,351,0,0,0,0,0,0,0,0,0,-1,1721,673,0,0
504,351,10.8842,1.61615,0,0,0,0,0,0,0,-1,1728,673,10.8842,-1.61618
511,351,15.4548,0.0236816,0,0,0,0,0,0,0,-1,1735,673,15.4549,-0.0236664
518,351,15.4282,0.152954,0,0,0,0,0,0,0,-1,1742,673,15.4282,-0.152972
525,351,15.4595,0.39502,0,0,0,0,0,0,0,-1,1749,673,15.4595,-0.395007
532,351,13.8259,2.63629,0,0,0,0,0,0,0,-1,1756,673,13.8259,-2.63632
539,351,13.2594,2.43634,0,0,0,0,0,0,0,-1,1763,673,13.2594,-2.43634
546,351,12.6396,2.22565,0,0,0,0,0,0,0,-1,1770,673,12.6396,-2.22564
553,351,12.0682,2.02832,0,0,0,0,0,0,0,-1,1777,673,12.0683,-2.02831
560,351,11.3593,1.97107,0,0,0,0,0,0,0,-1,1784,673,11.3592,-1.97108
567,351,9.86121,0.292114,0,0,0,0,0,0,0,-1,1791,673,9.86122,-0.292089
574,351,8.62036,-0.563782,0,0,0,0,0,0,0,-1,1798,673,8.62041,0.563761
581,351,8.19775,-0.579224,-0.0124777,-0.00427096,-0.00870043,0.0012452,-0.0179938,-1.00574,0.0124318,0.0393093,1805,673,8.19771,0.579244
588,351,7.99219,-0.755676,-0.00901674,-0.00404533,-0.00675064,0.000662708,-0.0137248,-0.961804,0.00937856,0.0254239,1812,673,7.99223,0.755674
595,351,7.96033,-0.620422,-0.00627635,-0.00352529,-0.00499669,0.000281743,-0.0100834,-0.919715,0.00681811,0.0161444,1819,673,7.96035,0.620402
602,351,7.95874,-0.423706,-0.00415071,-0.00287183,-0.00359042,0.000135641,-0.00715819,-0.873522,0.00481797,0.0173043,1826,673,7.95876,0.423686
609,351,7.99219,-0.28595,-0.0026845,-0.00209162,-0.00260265,0.00023142,-0.00500753,-0.842103,0.00341811,0.0159333,1833,673,7.99217,0.285963
616,351,7.98962,-0.097229,-0.0017335,-0.00169402,-0.0020378,0.000324141,-0.00375166,-0.79024,0.00261586,0.0146908,1840,673,7.98962,0.0972168
623,351,7.98438,0.0899048,-0.000982969,-0.00138816,-0.00161513,0.00044222,-0.00281335,-0.723006,0.00203902,0.015372,1847,673,7.98435,-0.0899098
630,351,8.00293,0.238708,-0.000334798,-0.000808639,-0.00140114,0.00084931,-0.00199275,-0.701645,0.00168455,0.0231373,1854,673,8.00298,-0.238691
637,351,8.01563,0.42688,0.000893902,-0.000587855,-0.00125749,0.00161254,-0.00130649,-0.519188,0.00168838,0.0271834,1861,673,8.01557,-0.426867
644,351,7.99658,0.609924,0.00257521,-0.000684879,-0.0014315,0.00311456,-0.00122422,-0.360319,0.00258303,0.0197848,1868,673,7.99659,-0.609936
651,351,7.98413,0.789063,0.00472798,-0.00108611,-0.00172606,0.00520179,-0.00155992,-0.267906,0.00408827,0.0137572,1875,673,7.98408,-0.789047
658,351,7.95911,0.979797,0.00798833,-0.00162595,-0.00191464,0.0083556,-0.00199321,-0.189516,0.00634011,0.0194692,1882,673,7.95905,-0.979768
665,351,7.81775,1.06287,0.0127543,-0.00224115,-0.00192086,0.0129965,-0.0024833,-0.125399,0.00959976,0.0255407,1889,673,7.81771,-1.06286
672,351,7.88391,1.32874,0.0193281,-0.00305674,-0.0014202,0.0194178,-0.00314648,-0.0631078,0.0141115,0.0349864,1896,673,7.88395,-1.32873
679,351,8.24158,1.35083,0.0282473,-0.00394728,-0.000637045,0.0282599,-0.00395988,-0.019777,0.0202891,0.0415589,1903,673,8.24157,-1.35082
686,351,8.83826,1.22357,0.0398216,-0.00485728,0.00091576,0.0398404,-0.00487604,0.020485,0.0283259,0.0478235,1910,673,8.83823,-1.22355
693,351,9.37524,1.21228,0,0,0,0,0,0,0,-1,1917,673,9.37521,-1.21225
700,351,9.49255,1.04114,0,0,0,0,0,0,0,-1,1924,673,9.49251,-1.04113
707,351,0,0,0,0,0,0,0,0,0,-1,1931,673,0,0
714,351,0,0,0,0,0,0,0,0,0,-1,1938,673,0,0
721,351,0,0,0,0,0,0,0,0,0,-1,1945,673,0,0
728,351,0,0,0,0,0,0,0,0,0,-1,1952,673,0,0
735,351,0,0,0,0,0,0,0,0,0,-1,1959,673,0,0
742,351,0,0,0,0,0,0,0,0,0,-1,1966,673,0,0
749,351,0,0,0,0,0,0,0,0,0,-1,1973,673,0,0
756,351,0,0,0,0,0,0,0,0,0,-1,1980,673,0,0
763,351,0,0,0,0,0,0,0,0,0,-1,1987,673,0,0
770,351,0,0,0,0,0,0,0,0,0,-1,1994,673,0,0
777,351,0,0,0,0,0,0,0,0,0,-1,2001,673,0,0
784,351,0,0,0,0,0,0,0,0,0,-1,2008,673,0,0
791,351,0,0,0,0,0,0,0,0,0,-1,2015,673,0,0
798,351,0,0,0,0,0,0,0,0,0,-1,2022,673,0,0
805,351,0,0,0,0,0,0,0,0,0,-1,2029,673,0,0
812,351,0,0,0,0,0,0,0,0,0,-1,2036,673,0,0
-700,344,0,0,0,0,0,0,0,0,0,-1,524,680,0,0
-693,344,0,0,0,0,0,0,0,0,0,-1,531,680,0,0
-686,344,0,0,0,0,0,0,0,0,0,-1,538,680,0,0
-679,344,0,0,0,0,0,0,0,0,0,-1,545,680,0,0
-672,344,0,0,0,0,0,0,0,0,0,-1,552,680,0,0
-665,344,0,0,0,0,0,0,0,0,0,-1,559,680,0,0
-658,344,0,0,0,0,0,0,0,0,0,-1,566,680,0,0
-651,344,0,0,0,0,0,0,0,0,0,-1,573,680,0,0
-644,344,0,0,0,0,0,0,0,0,0,-1,580,680,0,0
-637,344,0,0,0,0,0,0,0,0,0,-1,587,680,0,0
-630,344,0,0,0,0,0,0,0,0,0,-1,594,680,0,0
-623,344,0,0,0,0,0,0,0,0,0,-1,601,680,0,0
-616,344,0,0,0,0,0,0,0,0,0,-1,608,680,0,0
-609,344,0,0,0,0,0,0,0,0,0,-1,615,680,0,0
-602,344,0,0,0,0,0,0,0,0,0,-1,622,680,0,0
-595,344,0,0,0,0,0,0,0,0,0,-1,629,680,0,0
-588,344,-2.0874,2.19135,0,0,0,0,0,0,0,-1,636,680,-2.08739,-2.19135
-581,344,-2.3985,1.50256,0,0,0,0,0,0,0,-1,643,680,-2.39851,-1.50257
-574,344,-0.986572,0.0657959,0,0,0,0,0,0,0,-1,650,680,-0.986573,-0.0658226
-567,344,-2.89264,1.63129,0,0,0,0,0,0,0,-1,657,680,-2.89265,-1.63129
-560,344,-2.98657,1.05463,0,0,0,0,0,0,0,-1,664,680,-2.98655,-1.05461
-553,344,-3.04498,0.501465,0,0,0,0,0,0,0,-1,671,680,-3.04496,-0.501484
-546,344,-3.10858,-0.0558472,0,0,0,0,0,0,0,-1,678,680,-3.10856,0.055851
-539,344,-3.12708,-0.0510864,-0.00618302,0.0122976,-0.010945,0.0173813,-0.0112667,-1.13597,0.0166651,0.036269,685,680,-3.12706,0.0511095
-532,344,-3.43573,-0.603821,-0.00603285,0.010249,-0.00883093,0.0141189,-0.00990276,-1.15778,0.0139399,0.0184293,692,680,-3.43574,0.603798
-525,344,-3.51471,-0.771912,-0.00535875,0.00771111,-0.00647068,0.0103726,-0.00802029,-1.18057,0.0106481,0.0155742,699,680,-3.51473,0.771883
-518,344,-3.53113,-0.938721,-0.00467244,0.00536112,-0.00437902,0.00700346,-0.00631479,-1.21198,0.00769272,0.0193924,706,680,-3.53115,0.938701
-511,344,-3.54492,-1.08276,-0.0032452,0.00351879,-0.00280468,0.00453044,-0.00425685,-1.22462,0.00507416,0.0168548,713,680,-3.5449,1.08277
-504,344,-3.54651,-1.24243,-0.00229474,0.00151192,-0.00105085,0.00178275,-0.00256557,-1.31856,0.00252403,0.0165442,720,680,-3.5465,1.24243
-497,344,-3.52771,-1.3822,-0.00133472,-0.000666835,0.000258391,-0.000578541,-0.00142302,1.24153,0.000826347,0.0145473,727,680,-3.52771,1.38222
-490,344,-3.53156,-1.53918,-7.74742e-05,-0.00285688,0.00131228,0.000444199,-0.00337855,0.378376,0.0024141,0.0131507,734,680,-3.53156,1.53916
-483,344,-3.50403,-1.68549,0.000897147,-0.00513138,0.00240061,0.00173629,-0.00597052,0.336276,0.00466801,0.0127524,741,680,-3.50401,1.68549
-476,344,-3.52533,-1.83575,0.00124268,-0.00747704,0.00349727,0.00247203,-0.00870639,0.338025,0.00678019,0.0133827,748,680,-3.52531,1.83575
-469,344,-3.5282,-2.01752,0.000795796,-0.00997287,0.00467146,0.00253982,-0.0117169,0.357312,0.00878118,0.0117934,755,680,-3.52822,2.01752
-462,344,-3.51007,-2.19507,0.000339823,-0.0130755,0.00582738,0.0025176,-0.0152533,0.357643,0.0111036,0.0163799,762,680,-3.51009,2.19508
-455,344,-3.53107,-2.12292,-0.000692284,-0.016836,0.00729821,0.00211789,-0.0196462,0.367552,0.0138575,0.0336993,769,680,-3.53107,2.12295
-448,344,-3.24805,-1.73541,-0.00254214,-0.0209921,0.00906423,0.0011658,-0.0247001,0.388304,0.0168687,0.0472324,776,680,-3.24806,1.73541
-441,344,-2.68445,-1.48718,-0.0057462,-0.0254978,0.0111352,-0.000738314,-0.0305057,0.422633,0.0200956,0.0482043,783,680,-2.68444,1.48716
-434,344,-2.70483,-1.74866,0,0,0,0,0,0,0,-1,790,680,-2.70481,1.74866
-427,344,-3.06506,-1.45404,0,0,0,0,0,0,0,-1,797,680,-3.06505,1.45402
-420,344,-1.96582,-1.57574,0,0,0,0,0,0,0,-1,804,680,-1.96579,1.57574
-413,344,-0.817993,-1.4751,0,0,0,0,0,0,0,-1,811,680,-0.818017,1.47511
-406,344,-0.00714111,-1.25189,0,0,0,0,0,0,0,-1,818,680,-0.00714956,1.25191
-399,344,0.240051,-1.75769,0,0,0,0,0,0,0,-1,825,680,0.240079,1.75767
-392,344,1.11353,-2.05615,0,0,0,0,0,0,0,-1,832,680,1.11351,2.05616
-385,344,0,0,0,0,0,0,0,0,0,-1,839,680,0,0
-378,344,0,0,0,0,0,0,0,0,0,-1,846,680,0,0
-371,344,0,0,0,0,0,0,0,0,0,-1,853,680,0,0
-364,344,0,0,0,0,0,0,0,0,0,-1,860,680,0,0
-357,344,0,0,0,0,0,0,0,0,0,-1,867,680,0,0
-350,344,0,0,0,0,0,0,0,0,0,-1,874,680,0,0
-343,344,0,0,0,0,0,0,0,0,0,-1,881,680,0,0
-336,344,0,0,0,0,0,0,0,0,0,-1,888,680,0,0
-329,344,0,0,0,0,0,0,0,0,0,-1,895,680,0,0
-322,344,0,0,0,0,0,0,0,0,0,-1,902,680,0,0
-315,344,0,0,0,0,0,0,0,0,0,-1,909,680,0,0
-308,344,0,0,0,0,0,0,0,0,0,-1,916,680,0,0
-301,344,0,0,0,0,0,0,0,0,0,-1,923,680,0,0
-294,344,0,0,0,0,0,0,0,0,0,-1,930,680,0,0
-287,344,0,0,0,0,0,0,0,0,0,-1,937,680,0,0
-280,344,0,0,0,0,0,0,0,0,0,-1,944,680,0,0
-273,344,0,0,0,0,0,0,0,0,0,-1,951,680,0,0
-266,344,0,0,0,0,0,0,0,0,0,-1,958,680,0,0
-259,344,0,0,0,0,0,0,0,0,0,-1,965,680,0,0
-252,344,0,0,0,0,0,0,0,0,0,-1,972,680,0,0
-245,344,0,0,0,0,0,0,0,0,0,-1,979,680,0,0
-238,344,0,0,0,0,0,0,0,0,0,-1,986,680,0,0
-231,344,0,0,0,0,0,0,0,0,0,-1,993,680,0,0
-224,344,0,0,0,0,0,0,0,0,0,-1,1000,680,0,0
-217,344,0,0,0,0,0,0,0,0,0,-1,1007,680,0,0
-210,344,0,0,0,0,0,0,0,0,0,-1,1014,680,0,0
-203,344,0,0,0,0,0,0,0,0,0,-1,1021,680,0,0
-196,344,0,0,0,0,0,0,0,0,0,-1,1028,680,0,0
-189,344,0,0,0,0,0,0,0,0,0,-1,1035,680,0,0
-182,344,0,0,0,0,0,0,0,0,0,-1,1042,680,0,0
-175,344,0,0,0,0,0,0,0,0,0,-1,1049,680,0,0
-168,344,0,0,0,0,0,0,0,0,0,-1,1056,680,0,0
-161,344,0,0,0,0,0,0,0,0,0,-1,1063,680,0,0
-154,344,0,0,0,0,0,0,0,0,0,-1,1070,680,0,0
-147,344,0,0,0,0,0,0,0,0,0,-1,1077,680,0,0
-140,344,0,0,0,0,0,0,0,0,0,-1,1084,680,0,0
-133,344,0,0,0,0,0,0,0,0,0,-1,1091,680,0,0
-126,344,0,0,0,0,0,0,0,0,0,-1,1098,680,0,0
-119,344,0,0,0,0,0,0,0,0,0,-1,1105,680,0,0
-112,344,0,0,0,0,0,0,0,0,0,-1,1112,680,0,0
-105,344,0,0,0,0,0,0,0,0,0,-1,1119,680,0,0
-98,344,0,0,0,0,0,0,0,0,0,-1,1126,680,0,0
-91,344,0,0,0,0,0,0,0,0,0,-1,1133,680,0,0
-84,344,0,0,0,0,0,0,0,0,0,-1,1140,680,0,0
-77,344,0,0,0,0,0,0,0,0,0,-1,1147,680,0,0
-70,344,0,0,0,0,0,0,0,0,0,-1,1154,680,0,0
-63,344,0,0,0,0,0,0,0,0,0,-1,1161,680,0,0
-56,344,0,0,0,0,0,0,0,0,0,-1,1168,680,0,0
-49,344,0,0,0,0,0,0,0,0,0,-1,1175,680,0,0
-42,344,0,0,0,0,0,0,0,0,0,-1,1182,680,0,0
-35,344,0,0,0,0,0,0,0,0,0,-1,1189,680,0,0
-28,344,0,0,0,0,0,0,0,0,0,-1,1196,680,0,0
-21,344,0,0,0,0,0,0,0,0,0,-1,1203,680,0,0
-14,344,0,0,0,0,0,0,0,0,0,-1,1210,680,0,0
-7,344,0,0,0,0,0,0,0,0,0,-1,1217,680,0,0
0,344,0,0,0,0,0,0,0,0,0,-1,1224,680,0,0
7,344,0,0,0,0,0,0,0,0,0,-1,1231,680,0,0
14,344,0,0,0,0,0,0,0,0,0,-1,1238,680,0,0
21,344,0,0,0,0,0,0,0,0,0,-1,1245,680,0,0
28,344,0,0,0,0,0,0,0,0,0,-1,1252,680,0,0
35,344,0,0,0,0,0,0,0,0,0,-1,1259,680,0,0
42,344,0,0,0,0,0,0,0,0,0,-1,1266,680,0,0
49,344,0,0,0,0,0,0,0,0,0,-1,1273,680,0,0
56,344,0,0,0,0,0,0,0,0,0,-1,1280,680,0,0
63,344,0,0,0,0,0,0,0,0,0,-1,1287,680,0,0
70,344,0,0,0,0,0,0,0,0,0,-1,1294,680,0,0
77,344,0,0,0,0,0,0,0,0,0,-1,1301,680,0,0
84,344,0,0,0,0,0,0,0,0,0,-1,1308,680,0,0
91,344,0,0,0,0,0,0,0,0,0,-1,1315,680,0,0
98,344,0,0,0,0,0,0,0,0,0,-1,1322,680,0,0
105,344,0,0,0,0,0,0,0,0,0,-1,1329,680,0,0
112,344,0,0,0,0,0,0,0,0,0,-1,1336,680,0,0
119,344,0,0,0,0,0,0,0,0,0,-1,1343,680,0,0
126,344,0,0,0,0,0,0,0,0,0,-1,1350,680,0,0
133,344,0,0,0,0,0,0,0,0,0,-1,1357,680,0,0
140,344,0,0,0,0,0,0,0,0,0,-1,1364,680,0,0
147,344,0,0,0,0,0,0,0,0,0,-1,1371,680,0,0
154,344,0,0,0,0,0,0,0,0,0,-1,1378,680,0,0
161,344,0,0,0,0,0,0,0,0,0,-1,1385,680,0,0
168,344,0,0,0,0,0,0,0,0,0,-1,1392,680,0,0
175,344,0,0,0,0,0,0,0,0,0,-1,1399,680,0,0
182,344,0,0,0,0,0,0,0,0,0,-1,1406,680,0,0
189,344,0,0,0,0,0,0,0,0,0,-1,1413,680,0,0
196,344,0,0,0,0,0,0,0,0,0,-1,1420,680,0,0
203,344,0,0,0,0,0,0,0,0,0,-1,1427,680,0,0
210,344,0,0,0,0,0,0,0,0,0,-1,1434,680,0,0
217,344,0,0,0,0,0,0,0,0,0,-1,1441,680,0,0
224,344,0,0,0,0,0,0,0,0,0,-1,1448,680,0,0
231,344,0,0,0,0,0,0,0,0,0,-1,1455,680,0,0
238,344,0,0,0,0,0,0,0,0,0,-1,1462,680,0,0
245,344,0,0,0,0,0,0,0,0,0,-1,1469,680,0,0
252,344,0,0,0,0,0,0,0,0,0,-1,1476,680,0,0
259,344,0,0,0,0,0,0,0,0,0,-1,1483,680,0,0
266,344,0,0,0,0,0,0,0,0,0,-1,1490,680,0,0
273,344,0,0,0,0,0,0,0,0,0,-1,1497,680,0,0
280,344,0,0,0,0,0,0,0,0,0,-1,1504,680,0,0
287,344,0,0,0,0,0,0,0,0,0,-1,1511,680,0,0
294,344,0,0,0,0,0,0,0,0,0,-1,1518,680,0,0
301,344,0,0,0,0,0,0,0,0,0,-1,1525,680,0,0
308,344,0,0,0,0,0,0,0,0,0,-1,1532,680,0,0
315,344,0,0,0,0,0,0,0,0,0,-1,1539,680,0,0
322,344,0,0,0,0,0,0,0,0,0,-1,1546,680,0,0
329,344,0,0,0,0,0,0,0,0,0,-1,1553,680,0,0
336,344,0,0,0,0,0,0,0,0,0,-1,1560,680,0,0
343,344,0,0,0,0,0,0,0,0,0,-1,1567,680,0,0
350,344,0,0,0,0,0,0,0,0,0,-1,1574,680,0,0
357,344,0,0,0,0,0,0,0,0,0,-1,1581,680,0,0
364,344,0,0,0,0,0,0,0,0,0,-1,1588,680,0,0
371,344,0,0,0,0,0,0,0,0,0,-1,1595,680,0,0
378,344,0,0,0,0,0,0,0,0,0,-1,1602,680,0,0
385,344,0,0,0,0,0,0,0,0,0,-1,1609,680,0,0
392,344,0,0,0,0,0,0,0,0,0,-1,1616,680,0,0
399,344,0,0,0,0,0,0,0,0,0,-1,1623,680,0,0
406,344,0,0,0,0,0,0,0,0,0,-1,1630,680,0,0
413,344,0,0,0,0,0,0,0,0,0,-1,1637,680,0,0
420,344,0,0,0,0,0,0,0,0,0,-1,1644,680,0,0
427,344,0,0,0,0,0,0,0,0,0,-1,1651,680,0,0
434,344,0,0,0,0,0,0,0,0,0,-1,1658,680,0,0
441,344,0,0,0,0,0,0,0,0,0,-1,1665,680,0,0
448,344,0,0,0,0,0,0,0,0,0,-1,1672,680,0,0
455,344,0,0,0,0,0,0,0,0,0,-1,1679,680,0,0
462,344,0,0,0,0,0,0,0,0,0,-1,1686,680,0,0
469,344,0,0,0,0,0,0,0,0,0,-1,1693,680,0,0
476,344,0,0,0,0,0,0,0,0,0,-1,1700,680,0,0
483,344,0,0,0,0,0,0,0,0,0,-1,1707,680,0,0
490,344,0,0,0,0,0,0,0,0,0,-1,1714,680,0,0
497,344,0,0,0,0,0,0,0,0,0,-1,1721,680,0,0
504,344,0,0,0,0,0,0,0,0,0,-1,1728,680,0,0
511,344,15.4819,0.452637,0,0,0,0,0,0,0,-1,1735,680,15.4819,-0.452656
518,344,15.4491,0.723633,0,0,0,0,0,0,0,-1,1742,680,15.4491,-0.723644
525,344,15.4259,1.00104,0,0,0,0,0,0,0,-1,1749,680,15.4259,-1.00101
532,344,15.295,1.44165,0,0,0,0,0,0,0,-1,1756,680,15.2951,-1.44162
539,344,14.3729,1.48114,0,0,0,0,0,0,0,-1,1763,680,14.373,-1.48117
546,344,13.3718,1.66003,0,0,0,0,0,0,0,-1,1770,680,13.3718,-1.66001
553,344,12.5339,2.20245,0,0,0,0,0,0,0,-1,1777,680,12.5339,-2.20245
560,344,11.9363,2.14185,0,0,0,0,0,0,0,-1,1784,680,11.9362,-2.14182
567,344,11.1631,1.59094,0,0,0,0,0,0,0,-1,1791,680,11.1631,-1.59096
574,344,8.23853,-0.09729,0,0,0,0,0,0,0,-1,1798,680,8.23856,0.0973055
581,344,8.51624,-0.254761,0,0,0,0,0,0,0,-1,1805,680,8.51627,0.254785
588,344,8.37097,-0.456177,-0.0124962,-0.0057694,-0.0058179,-0.00241264,-0.0158529,-1.04748,0.00986325,0.048983,1812,680,8.37094,0.456179
595,344,8.23352,-0.539246,-0.00852249,-0.00496609,-0.00471576,-0.00170441,-0.0117842,-0.965693,0.00735411,0.0308086,1819,680,8.23358,0.539238
602,344,8.2887,-0.392151,-0.00548634,-0.00403141,-0.00358361,-0.00110217,-0.00841558,-0.885536,0.00528147,0.0237998,1826,680,8.28874,0.392127
609,344,8.1925,-0.248108,-0.00336249,-0.00299984,-0.00264792,-0.000527049,-0.00583529,-0.819584,0.00372695,0.0153402,1833,680,8.19248,0.248135
616,344,8.1748,-0.0822754,-0.00190865,-0.00240609,-0.00213027,-1.26348e-05,-0.00430211,-0.727283,0.00286387,0.0219933,1840,680,8.17485,0.0822675
623,344,8.17139,0.102356,-0.000922139,-0.0019239,-0.00164678,0.000298247,-0.00314428,-0.637765,0.00220234,0.0184905,1847,680,8.17143,-0.102347
630,344,8.19165,0.247742,-0.000245979,-0.00127407,-0.00132631,0.000662421,-0.00218247,-0.600523,0.00171888,0.0228724,1854,680,8.1916,-0.247714
637,344,8.22021,0.399475,0.000761183,-0.000958648,-0.00110378,0.00130048,-0.00149794,-0.454477,0.00161701,0.0227172,1861,680,8.2202,-0.39945
644,344,8.17041,0.597473,0.00211949,-0.000942438,-0.00119058,0.00252794,-0.00135089,-0.330486,0.00227356,0.0148749,1868,680,8.17036,-0.597478
651,344,8.16724,0.774597,0.0039529,-0.00128025,-0.00140086,0.0043043,-0.00163165,-0.245774,0.00354102,0.0100306,1875,680,8.16724,-0.774615
658,344,8.15723,0.987061,0.00672472,-0.0017156,-0.00145387,0.00696814,-0.00195901,-0.165886,0.0054178,0.015312,1882,680,8.15723,-0.987038
665,344,8.10852,1.14294,0.0106829,-0.00216442,-0.00132633,0.0108184,-0.00229992,-0.101807,0.00808866,0.02169,1889,680,8.10858,-1.14294
672,344,8.16382,1.2326,0.0160625,-0.00283066,-0.000598705,0.0160815,-0.00284962,-0.0316466,0.0117863,0.0164542,1896,680,8.16382,-1.23261
679,344,8.32178,1.2605,0.0234392,-0.0035785,0.000411457,0.0234455,-0.00358476,0.0152245,0.016952,0.0335317,1903,680,8.32174,-1.26048
686,344,8.4093,1.17993,0.0330501,-0.00431496,0.00224942,0.033185,-0.00444989,0.0599129,0.023746,0.0471586,1910,680,8.40936,-1.17991
693,344,8.61597,1.3493,0,0,0,0,0,0,0,-1,1917,680,8.61601,-1.34932
700,344,10.1432,1.18677,0,0,0,0,0,0,0,-1,1924,680,10.1431,-1.18675
707,344,10.3894,1.84442,0,0,0,0,0,0,0,-1,1931,680,10.3895,-1.84442
714,344,0,0,0,0,0,0,0,0,0,-1,1938,680,0,0
721,344,0,0,0,0,0,0,0,0,0,-1,1945,680,0,0
728,344,0,0,0,0,0,0,0,0,0,-1,1952,680,0,0
735,344,0,0,0,0,0,0,0,0,0,-1,1959,680,0,0
742,344,0,0,0,0,0,0,0,0,0,-1,1966,680,0,0
749,344,0,0,0,0,0,0,0,0,0,-1,1973,680,0,0
756,344,0,0,0,0,0,0,0,0,0,-1,1980,680,0,0
763,344,0,0,0,0,0,0,0,0,0,-1,1987,680,0,0
770,344,0,0,0,0,0,0,0,0,0,-1,1994,680,0,0
777,344,0,0,0,0,0,0,0,0,0,-1,2001,680,0,0
784,344,0,0,0,0,0,0,0,0,0,-1,2008,680,0,0
791,344,0,0,0,0,0,0,0,0,0,-1,2015,680,0,0
798,344,0,0,0,0,0,0,0,0,0,-1,2022,680,0,0
805,344,0,0,0,0,0,0,0,0,0,-1,2029,680,0,0
812,344,0,0,0,0,0,0,0,0,0,-1,2036,680,0,0
-700,337,0,0,0,0,0,0,0,0,0,-1,524,687,0,0
-693,337,0,0,0,0,0,0,0,0,0,-1,531,687,0,0
-686,337,0,0,0,0,0,0,0,0,0,-1,538,687,0,0
-679,337,0,0,0,0,0,0,0,0,0,-1,545,687,0,0
-672,337,0,0,0,0,0,0,0,0,0,-1,552,687,0,0
-665,337,0,0,0,0,0,0,0,0,0,-1,559,687,0,0
-658,337,0,0,0,0,0,0,0,0,0,-1,566,687,0,0
-651,337,0,0,0,0,0,0,0,0,0,-1,573,687,0,0
-644,337,0,0,0,0,0,0,0,0,0,-1,580,687,0,0
-637,337,0,0,0,0,0,0,0,0,0,-1,587,687,0,0
-630,337,0,0,0,0,0,0,0,0,0,-1,594,687,0,0
-623,337,0,0,0,0,0,0,0,0,0,-1,601,687,0,0
-616,337,0,0,0,0,0,0,0,0,0,-1,608,687,0,0
-609,337,0,0,0,0,0,0,0,0,0,-1,615,687,0,0
-602,337,0,0,0,0,0,0,0,0,0,-1,622,687,0,0
-595,337,0,0,0,0,0,0,0,0,0,-1,629,687,0,0
-588,337,-4.9505,4.85217,0,0,0,0,0,0,0,-1,636,687,-4.95053,-4.85218
-581,337,-2.6178,1.0528,0,0,0,0,0,0,0,-1,643,687,-2.6178,-1.05278
-574,337,-2.54529,0.861572,0,0,0,0,0,0,0,-1,650,687,-2.5453,-0.861583
-567,337,-4.99896,0.0681763,0,0,0,0,0,0,0,-1,657,687,-4.99897,-0.0681532
-560,337,-3.76233,0.92981,0,0,0,0,0,0,0,-1,664,687,-3.76232,-0.92979
-553,337,-3.7995,0.381958,0,0,0,0,0,0,0,-1,671,687,-3.79951,-0.381964
-546,337,-3.64648,-0.27594,-0.00577122,0.00919673,-0.00828661,0.0128787,-0.00945317,-1.15267,0.0129438,0.0373623,678,687,-3.64646,0.275921
-539,337,-3.58582,-0.450012,-0.00576281,0.00932114,-0.00751769,0.012428,-0.00886964,-1.1789,0.0123533,0.0226471,685,687,-3.5858,0.450038
-532,337,-3.65521,-0.624512,-0.00529092,0.00806021,-0.00632093,0.010578,-0.00780868,-1.19174,0.0106556,0.0126368,692,687,-3.6552,0.624502
-525,337,-3.68073,-0.78772,-0.00457995,0.00617585,-0.00456994,0.0078553,-0.0062594,-1.21862,0.00816647,0.0141465,699,687,-3.68074,0.787717
-518,337,-3.69238,-0.947144,-0.00375497,0.00421981,-0.00296672,0.0052024,-0.00473757,-1.25096,0.00574094,0.0236839,706,687,-3.6924,0.947169
-511,337,-3.72607,-1.06567,-0.0023616,0.00259656,-0.00166624,0.00310448,-0.00286953,-1.27491,0.00344999,0.0241217,713,687,-3.72606,1.06568
-504,337,-3.7218,-1.23651,-0.00148483,0.00061286,-3.89025e-05,0.000613582,-0.00148555,-1.55226,0.0012463,0.0222285,720,687,-3.72179,1.23649
-497,337,-3.68927,-1.38959,-0.000631056,-0.0016293,0.00122728,0.000194716,-0.00245507,0.592268,0.00170533,0.0153804,727,687,-3.68925,1.38956
-490,337,-3.69141,-1.552,0.0005248,-0.00398629,0.00236083,0.00153437,-0.00499587,0.4041,0.00394284,0.0130872,734,687,-3.69139,1.55199
-483,337,-3.67407,-1.71368,0.00131829,-0.00648757,0.00357339,0.00270705,-0.00787633,0.370674,0.00634862,0.0131141,741,687,-3.6741,1.71366
-476,337,-3.66467,-1.8653,0.00152214,-0.009175,0.00479996,0.00336014,-0.011013,0.365696,0.00868158,0.0118828,748,687,-3.66466,1.86531
-469,337,-3.67389,-2.05078,0.00103633,-0.0122026,0.00610275,0.00342024,-0.0145865,0.372402,0.0110424,0.0145196,755,687,-3.67391,2.05077
-462,337,-3.68878,-2.15576,0.000576186,-0.0159646,0.00738905,0.00339621,-0.0187846,0.364588,0.0137952,0.0302382,762,687,-3.6888,2.15577
-455,337,-3.83691,-2.11951,-0.000336729,-0.0204049,0.00882674,0.0029931,-0.0237347,0.360736,0.0169094,0.044905,769,687,-3.83694,2.11953
-448,337,-3.28619,-1.37,0,0,0,0,0,0,0,-1,776,687,-3.28621,1.37001
-441,337,-2.64465,-1.14648,0,0,0,0,0,0,0,-1,783,687,-2.64465,1.14647
-434,337,-2.79712,-0.596558,0,0,0,0,0,0,0,-1,790,687,-2.79713,0.596536
-427,337,-2.94312,-1.42773,0,0,0,0,0,0,0,-1,797,687,-2.94314,1.42773
-420,337,-2.95996,-1.76697,0,0,0,0,0,0,0,-1,804,687,-2.95998,1.76696
-413,337,-1.29169,-1.99487,0,0,0,0,0,0,0,-1,811,687,-1.29171,1.9949
-406,337,-1.02356,-1.89563,0,0,0,0,0,0,0,-1,818,687,-1.02357,1.89564
-399,337,-0.472839,-2.21338,0,0,0,0,0,0,0,-1,825,687,-0.472837,2.2134
-392,337,0,0,0,0,0,0,0,0,0,-1,832,687,0,0
-385,337,0,0,0,0,0,0,0,0,0,-1,839,687,0,0
-378,337,0,0,0,0,0,0,0,0,0,-1,846,687,0,0
-371,337,0,0,0,0,0,0,0,0,0,-1,853,687,0,0
-364,337,0,0,0,0,0,0,0,0,0,-1,860,687,0,0
-357,337,0,0,0,0,0,0,0,0,0,-1,867,687,0,0
-350,337,0,0,0,0,0,0,0,0,0,-1,874,687,0,0
-343,337,0,0,0,0,0,0,0,0,0,-1,881,687,0,0
-336,337,0,0,0,0,0,0,0,0,0,-1,888,687,0,0
-329,337,0,0,0,0,0,0,0,0,0,-1,895,687,0,0
-322,337,0,0,0,0,0,0,0,0,0,-1,902,687,0,0
-315,337,0,0,0,0,0,0,0,0,0,-1,909,687,0,0
-308,337,0,0,0,0,0,0,0,0,0,-1,916,687,0,0
-301,337,0,0,0,0,0,0,0,0,0,-1,923,687,0,0
-294,337,0,0,0,0,0,0,0,0,0,-1,930,687,0,0
-287,337,0,0,0,0,0,0,0,0,0,-1,937,687,0,0
-280,337,0,0,0,0,0,0,0,0,0,-1,944,687,0,0
-273,337,0,0,0,0,0,0,0,0,0,-1,951,687,0,0
-266,337,0,0,0,0,0,0,0,0,0,-1,958,687,0,0
-259,337,0,0,0,0,0,0,0,0,0,-1,965,687,0,0
-252,337,0,0,0,0,0,0,0,0,0,-1,972,687,0,0
-245,337,0,0,0,0,0,0,0,0,0,-1,979,687,0,0
-238,337,0,0,0,0,0,0,0,0,0,-1,986,687,0,0
-231,337,0,0,0,0,0,0,0,0,0,-1,993,687,0,0
-224,337,0,0,0,0,0,0,0,0,0,-1,1000,687,0,0
-217,337,0,0,0,0,0,0,0,0,0,-1,1007,687,0,0
-210,337,0,0,0,0,0,0,0,0,0,-1,1014,687,0,0
-203,337,0,0,0,0,0,0,0,0,0,-1,1021,687,0,0
-196,337,0,0,0,0,0,0,0,0,0,-1,1028,687,0,0
-189,337,0,0,0,0,0,0,0,0,0,-1,1035,687,0,0
-182,337,0,0,0,0,0,0,0,0,0,-1,1042,687,0,0
-175,337,0,0,0,0,0,0,0,0,0,-1,1049,687,0,0
-168,337,0,0,0,0,0,0,0,0,0,-1,1056,687,0,0
-161,337,0,0,0,0,0,0,0,0,0,-1,1063,687,0,0
-154,337,0,0,0,0,0,0,0,0,0,-1,1070,687,0,0
-147,337,0,0,0,0,0,0,0,0,0,-1,1077,687,0,0
-140,337,0,0,0,0,0,0,0,0,0,-1,1084,687,0,0
-133,337,0,0,0,0,0,0,0,0,0,-1,1091,687,0,0
-126,337,0,0,0,0,0,0,0,0,0,-1,1098,687,0,0
-119,337,0,0,0,0,0,0,0,0,0,-1,1105,687,0,0
-112,337,0,0,0,0,0,0,0,0,0,-1,1112,687,0,0
-105,337,0,0,0,0,0,0,0,0,0,-1,1119,687,0,0
-98,337,0,0,0,0,0,0,0,0,0,-1,1126,687,0,0
-91,337,0,0,0,0,0,0,0,0,0,-1,1133,687,0,0
-84,337,0,0,0,0,0,0,0,0,0,-1,1140,687,0,0
-77,337,0,0,0,0,0,0,0,0,0,-1,1147,687,0,0
-70,337,0,0,0,0,0,0,0,0,0,-1,1154,687,0,0
-63,337,0,0,0,0,0,0,0,0,0,-1,1161,687,0,0
-56,337,0,0,0,0,0,0,0,0,0,-1,1168,687,0,0
-49,337,0,0,0,0,0,0,0,0,0,-1,1175,687,0,0
-42,337,0,0,0,0,0,0,0,0,0,-1,1182,687,0,0
-35,337,0,0,0,0,0,0,0,0,0,-1,1189,687,0,0
-28,337,0,0,0,0,0,0,0,0,0,-1,1196,687,0,0
-21,337,0,0,0,0,0,0,0,0,0,-1,1203,687,0,0
-14,337,0,0,0,0,0,0,0,0,0,-1,1210,687,0,0
-7,337,0,0,0,0,0,0,0,0,0,-1,1217,687,0,0
0,337,0,0,0,0,0,0,0,0,0,-1,1224,687,0,0
7,337,0,0,0,0,0,0,0,0,0,-1,1231,687,0,0
14,337,0,0,0,0,0,0,0,0,0,-1,1238,687,0,0
21,337,0,0,0,0,0,0,0,0,0,-1,1245,687,0,0
28,337,0,0,0,0,0,0,0,0,0,-1,1252,687,0,0
35,337,0,0,0,0,0,0,0,0,0,-1,1259,687,0,0
42,337,0,0,0,0,0,0,0,0,0,-1,1266,687,0,0
49,337,0,0,0,0,0,0,0,0,0,-1,1273,687,0,0
56,337,0,0,0,0,0,0,0,0,0,-1,1280,687,0,0
63,337,0,0,0,0,0,0,0,0,0,-1,1287,687,0,0
70,337,0,0,0,0,0,0,0,0,0,-1,1294,687,0,0
77,337,0,0,0,0,0,0,0,0,0,-1,1301,687,0,0
84,337,0,0,0,0,0,0,0,0,0,-1,1308,687,0,0
91,337,0,0,0,0,0,0,0,0,0,-1,1315,687,0,0
98,337,0,0,0,0,0,0,0,0,0,-1,1322,687,0,0
105,337,0,0,0,0,0,0,0,0,0,-1,1329,687,0,0
112,337,0,0,0,0,0,0,0,0,0,-1,1336,687,0,0
119,337,0,0,0,0,0,0,0,0,0,-1,1343,687,0,0
126,337,0,0,0,0,0,0,0,0,0,-1,1350,687,0,0
133,337,0,0,0,0,0,0,0,0,0,-1,1357,687,0,0
140,337,0,0,0,0,0,0,0,0,0,-1,1364,687,0,0
147,337,0,0,0,0,0,0,0,0,0,-1,1371,687,0,0
154,337,0,0,0,0,0,0,0,0,0,-1,1378,687,0,0
161,337,0,0,0,0,0,0,0,0,0,-1,1385,687,0,0
168,337,0,0,0,0,0,0,0,0,0,-1,1392,687,0,0
175,337,0,0,0,0,0,0,0,0,0,-1,1399,687,0,0
182,337,0,0,0,0,0,0,0,0,0,-1,1406,687,0,0
189,337,0,0,0,0,0,0,0,0,0,-1,1413,687,0,0
196,337,0,0,0,0,0,0,0,0,0,-1,1420,687,0,0
203,337,0,0,0,0,0,0,0,0,0,-1,1427,687,0,0
210,337,0,0,0,0,0,0,0,0,0,-1,1434,687,0,0
217,337,0,0,0,0,0,0,0,0,0,-1,1441,687,0,0
224,337,0,0,0,0,0,0,0,0,0,-1,1448,687,0,0
231,337,0,0,0,0,0,0,0,0,0,-1,1455,687,0,0
238,337,0,0,0,0,0,0,0,0,0,-1,1462,687,0,0
245,337,0,0,0,0,0,0,0,0,0,-1,1469,687,0,0
252,337,0,0,0,0,0,0,0,0,0,-1,1476,687,0,0
259,337,0,0,0,0,0,0,0,0,0,-1,1483,687,0,0
266,337,0,0,0,0,0,0,0,0,0,-1,1490,687,0,0
273,337,0,0,0,0,0,0,0,0,0,-1,1497,687,0,0
280,337,0,0,0,0,0,0,0,0,0,-1,1504,687,0,0
287,337,0,0,0,0,0,0,0,0,0,-1,1511,687,0,0
294,337,0,0,0,0,0,0,0,0,0,-1,1518,687,0,0
301,337,0,0,0,0,0,0,0,0,0,-1,1525,687,0,0
308,337,0,0,0,0,0,0,0,0,0,-1,1532,687,0,0
315,337,0,0,0,0,0,0,0,0,0,-1,1539,687,0,0
322,337,0,0,0,0,0,0,0,0,0,-1,1546,687,0,0
329,337,0,0,0,0,0,0,0,0,0,-1,1553,687,0,0
336,337,0,0,0,0,0,0,0,0,0,-1,1560,687,0,0
343,337,0,0,0,0,0,0,0,0,0,-1,1567,687,0,0
350,337,0,0,0,0,0,0,0,0,0,-1,1574,687,0,0
357,337,0,0,0,0,0,0,0,0,0,-1,1581,687,0,0
364,337,0,0,0,0,0,0,0,0,0,-1,1588,687,0,0
371,337,0,0,0,0,0,0,0,0,0,-1,1595,687,0,0
378,337,0,0,0,0,0,0,0,0,0,-1,1602,687,0,0
385,337,0,0,0,0,0,0,0,0,0,-1,1609,687,0,0
392,337,0,0,0,0,0,0,0,0,0,-1,1616,687,0,0
399,337,0,0,0,0,0,0,0,0,0,-1,1623,687,0,0
406,337,0,0,0,0,0,0,0,0,0,-1,1630,687,0,0
413,337,0,0,0,0,0,0,0,0,0,-1,1637,687,0,0
420,337,0,0,0,0,0,0,0,0,0,-1,1644,687,0,0
427,337,0,0,0,0,0,0,0,0,0,-1,1651,687,0,0
434,337,0,0,0,0,0,0,0,0,0,-1,1658,687,0,0
441,337,0,0,0,0,0,0,0,0,0,-1,1665,687,0,0
448,337,0,0,0,0,0,0,0,0,0,-1,1672,687,0,0
455,337,0,0,0,0,0,0,0,0,0,-1,1679,687,0,0
462,337,0,0,0,0,0,0,0,0,0,-1,1686,687,0,0
469,337,0,0,0,0,0,0,0,0,0,-1,1693,687,0,0
476,337,0,0,0,0,0,0,0,0,0,-1,1700,687,0,0
483,337,0,0,0,0,0,0,0,0,0,-1,1707,687,0,0
490,337,0,0,0,0,0,0,0,0,0,-1,1714,687,0,0
497,337,0,0,0,0,0,0,0,0,0,-1,1721,687,0,0
504,337,0,0,0,0,0,0,0,0,0,-1,1728,687,0,0
511,337,0,0,0,0,0,0,0,0,0,-1,1735,687,0,0
518,337,15.9426,1.1582,0,0,0,0,0,0,0,-1,1742,687,15.9426,-1.15822
525,337,15.4696,1.37122,0,0,0,0,0,0,0,-1,1749,687,15.4697,-1.37122
532,337,15.0925,1.70947,0,0,0,0,0,0,0,-1,1756,687,15.0926,-1.70946
539,337,14.4066,1.75189,0,0,0,0,0,0,0,-1,1763,687,14.4066,-1.75192
546,337,13.7113,2.09351,0,0,0,0,0,0,0,-1,1770,687,13.7113,-2.0935
553,337,13.1376,1.8833,0,0,0,0,0,0,0,-1,1777,687,13.1376,-1.8833
560,337,12.347,2.23297,0,0,0,0,0,0,0,-1,1784,687,12.3471,-2.23299
567,337,11.9288,1.38776,0,0,0,0,0,0,0,-1,1791,687,11.9288,-1.38777
574,337,10.704,1.19476,0,0,0,0,0,0,0,-1,1798,687,10.704,-1.19478
581,337,8.41809,0.510925,0,0,0,0,0,0,0,-1,1805,687,8.41812,-0.510934
588,337,8.40442,-0.0950928,0,0,0,0,0,0,0,-1,1812,687,8.40448,0.0950784
595,337,8.20654,-0.434753,0,0,0,0,0,0,0,-1,1819,687,8.2065,0.434751
602,337,8.35461,-0.379272,-0.00667319,-0.00515029,-0.00286069,-0.00295145,-0.00887203,-0.91547,0.00521701,0.0289536,1826,687,8.35463,0.379271
609,337,8.35352,-0.204407,-0.00404246,-0.00394241,-0.00241561,-0.00157631,-0.00640857,-0.795751,0.00385588,0.0188722,1833,687,8.35353,0.204437
616,337,8.33801,-0.0517578,-0.00216861,-0.00318929,-0.00227443,-0.000347969,-0.00500992,-0.675035,0.00323021,0.017046,1840,687,8.33803,0.0517331
623,337,8.32068,0.0985107,-0.00102117,-0.00250669,-0.00185515,0.00023439,-0.00376225,-0.594983,0.00258983,0.0141865,1847,687,8.32064,-0.0985176
630,337,8.32715,0.25238,-0.00041369,-0.0017934,-0.00143046,0.000484569,-0.00269166,-0.56072,0.00197587,0.0181681,1854,687,8.32709,-0.252395
637,337,8.37866,0.429138,0.00033645,-0.0013888,-0.0011357,0.000899988,-0.00195234,-0.460605,0.00168374,0.0165555,1861,687,8.37865,-0.429167
644,337,8.35352,0.620178,0.00139357,-0.00126844,-0.00113105,0.00180923,-0.00168411,-0.352182,0.00201731,0.010579,1868,687,8.35351,-0.62019
651,337,8.35278,0.78186,0.00294238,-0.00152212,-0.00124586,0.00326652,-0.00184626,-0.254527,0.00298958,0.00923625,1875,687,8.35278,-0.781839
658,337,8.35974,0.94873,0.00523572,-0.00181805,-0.00113912,0.00541511,-0.00199745,-0.156203,0.00442868,0.0107821,1882,687,8.35968,-0.948729
665,337,8.34998,1.10773,0.00835492,-0.00193909,-0.000870568,0.00842803,-0.00201219,-0.0837775,0.00639581,0.01226,1889,687,8.34995,-1.10775
672,337,8.34998,1.24194,0.0125822,-0.00232578,6.99942e-05,0.0125825,-0.00232611,0.00469495,0.0092616,0.0134179,1896,687,8.34998,-1.24197
679,337,8.27747,1.33099,0.018365,-0.00273263,0.00125168,0.018439,-0.00280663,0.0590517,0.0133271,0.0306275,1903,687,8.27741,-1.33097
686,337,8.40796,1.42755,0.025861,-0.0029892,0.0032866,0.0262306,-0.00335887,0.112008,0.0187075,0.0457655,1910,687,8.40792,-1.42753
693,337,8.54932,1.62744,0,0,0,0,0,0,0,-1,1917,687,8.54936,-1.62743
700,337,10.7655,1.28864,0,0,0,0,0,0,0,-1,1924,687,10.7655,-1.28861
707,337,10.975,1.92566,0,0,0,0,0,0,0,-1,1931,687,10.975,-1.92567
714,337,0,0,0,0,0,0,0,0,0,-1,1938,687,0,0
721,337,0,0,0,0,0,0,0,0,0,-1,1945,687,0,0
728,337,0,0,0,0,0,0,0,0,0,-1,1952,687,0,0
735,337,0,0,0,0,0,0,0,0,0,-1,1959,687,0,0
742,337,0,0,0,0,0,0,0,0,0,-1,1966,687,0,0
749,337,0,0,0,0,0,0,0,0,0,-1,1973,687,0,0
756,337,0,0,0,0,0,0,0,0,0,-1,1980,687,0,0
763,337,0,0,0,0,0,0,0,0,0,-1,1987,687,0,0
770,337,0,0,0,0,0,0,0,0,0,-1,1994,687,0,0
777,337,0,0,0,0,0,0,0,0,0,-1,2001,687,0,0
784,337,0,0,0,0,0,0,0,0,0,-1,2008,687,0,0
791,337,0,0,0,0,0,0,0,0,0,-1,2015,687,0,0
798,337,0,0,0,0,0,0,0,0,0,-1,2022,687,0,0
805,337,0,0,0,0,0,0,0,0,0,-1,2029,687,0,0
812,337,0,0,0,0,0,0,0,0,0,-1,2036,687,0,0
-700,330,0,0,0,0,0,0,0,0,0,-1,524,694,0,0
-693,330,0,0,0,0,0,0,0,0,0,-1,531,694,0,0
-686,330,0,0,0,0,0,0,0,0,0,-1,538,694,0,0
-679,330,0,0,0,0,0,0,0,0,0,-1,545,694,0,0
-672,330,0,0,0,0,0,0,0,0,0,-1,552,694,0,0
-665,330,0,0,0,0,0,0,0,0,0,-1,559,694,0,0
-658,330,0,0,0,0,0,0,0,0,0,-1,566,694,0,0
-651,330,0,0,0,0,0,0,0,0,0,-1,573,694,0,0
-644,330,0,0,0,0,0,0,0,0,0,-1,580,694,0,0
-637,330,0,0,0,0,0,0,0,0,0,-1,587,694,0,0
-630,330,0,0,0,0,0,0,0,0,0,-1,594,694,0,0
-623,330,0,0,0,0,0,0,0,0,0,-1,601,694,0,0
-616,330,0,0,0,0,0,0,0,0,0,-1,608,694,0,0
-609,330,0,0,0,0,0,0,0,0,0,-1,615,694,0,0
-602,330,0,0,0,0,0,0,0,0,0,-1,622,694,0,0
-595,330,-3.70386,4.87622,0,0,0,0,0,0,0,-1,629,694,-3.70385,-4.87625
-588,330,-3.74249,3.93481,0,0,0,0,0,0,0,-1,636,694,-3.74249,-3.93483
-581,330,-3.74622,3.02252,0,0,0,0,0,0,0,-1,643,694,-3.74619,-3.02253
-574,330,-5.38135,0.9552,0,0,0,0,0,0,0,-1,650,694,-5.38137,-0.955211
-567,330,-4.81323,0.300476,0,0,0,0,0,0,0,-1,657,694,-4.81325,-0.30045
-560,330,-4.22638,-0.0426025,0,0,0,0,0,0,0,-1,664,694,-4.22639,0.0426095
-553,330,-3.82532,-0.199585,-0.00647458,0.00368856,-0.00442345,0.00534415,-0.00813016,-1.21266,0.00783463,0.0376937,671,694,-3.82533,0.199584
-546,330,-3.76758,-0.373596,-0.00605472,0.00550174,-0.00447859,0.00703416,-0.00758715,-1.24112,0.00844363,0.0236108,678,694,-3.76756,0.373614
-539,330,-3.77887,-0.491516,-0.00542128,0.00638747,-0.00452482,0.00792189,-0.00695569,-1.24385,0.00859561,0.0109443,685,694,-3.77884,0.491492
-532,330,-3.83856,-0.616272,-0.00458089,0.00579149,-0.00402736,0.0071716,-0.00596099,-1.24066,0.00759283,0.00965044,692,694,-3.83858,0.616271
-525,330,-3.83942,-0.792725,-0.00372272,0.00452249,-0.00273304,0.00534614,-0.00454636,-1.27809,0.00571766,0.0106875,699,694,-3.83941,0.792696
-518,330,-3.82617,-0.913757,-0.00274331,0.00298706,-0.00153928,0.00337436,-0.00313061,-1.3243,0.00375652,0.0149663,706,694,-3.82619,0.913783
-511,330,-3.85669,-1.0611,-0.00136982,0.00165341,-0.000491038,0.00173117,-0.00144758,-1.41375,0.00183768,0.0201067,713,694,-3.85666,1.06109
-504,330,-3.84949,-1.23462,-0.000548959,-0.000213212,0.00100208,0.000634959,-0.00139713,0.86839,0.00120042,0.0172357,720,694,-3.84949,1.23461
-497,330,-3.83496,-1.3927,0.000204598,-0.00240936,0.00221006,0.00146522,-0.00366998,0.518371,0.00305454,0.0119562,727,694,-3.83498,1.39272
-490,330,-3.83575,-1.56665,0.0012487,-0.00480954,0.00340669,0.00277821,-0.00633905,0.421999,0.00539602,0.012331,734,694,-3.83576,1.56668
-483,330,-3.83112,-1.72333,0.00183675,-0.00743005,0.00473271,0.00382656,-0.00941987,0.398001,0.00787181,0.0119413,741,694,-3.83111,1.72331
-476,330,-3.82458,-1.85986,0.0018681,-0.0103726,0.00607526,0.0043714,-0.0128759,0.390851,0.0103534,0.016362,748,694,-3.82456,1.85987
-469,330,-3.76367,-1.96918,0.00131558,-0.0138886,0.00748009,0.00437855,-0.0169515,0.388655,0.0130085,0.0277512,755,694,-3.76367,1.96915
-462,330,-3.85052,-1.94348,0.000745917,-0.018322,0.0089039,0.0042571,-0.0218332,0.375619,0.0161625,0.0448801,762,694,-3.85054,1.94351
-455,330,-4.06366,-1.94214,-0.000192389,-0.0235711,0.0103716,0.00374549,-0.027509,0.362867,0.0197068,0.0443969,769,694,-4.06364,1.94212
-448,330,-4.25073,-1.88708,-0.00162993,-0.0295359,0.0117398,0.00265193,-0.0338177,0.349736,0.0234791,0.0485183,776,694,-4.25072,1.88707
-441,330,-4.27936,-1.7807,0,0,0,0,0,0,0,-1,783,694,-4.27934,1.7807
-434,330,-2.91284,-1.47968,0,0,0,0,0,0,0,-1,790,694,-2.91286,1.47967
-427,330,-2.84381,-2.25128,0,0,0,0,0,0,0,-1,797,694,-2.84381,2.25129
-420,330,-1.97321,-2.073,0,0,0,0,0,0,0,-1,804,694,-1.97319,2.07303
-413,330,-1.32983,-3.20068,0,0,0,0,0,0,0,-1,811,694,-1.32981,3.2007
-406,330,-1.65375,-1.74371,0,0,0,0,0,0,0,-1,818,694,-1.65375,1.74371
-399,330,0,0,0,0,0,0,0,0,0,-1,825,694,0,0
-392,330,0,0,0,0,0,0,0,0,0,-1,832,694,0,0
-385,330,0,0,0,0,0,0,0,0,0,-1,839,694,0,0
-378,330,0,0,0,0,0,0,0,0,0,-1,846,694,0,0
-371,330,0,0,0,0,0,0,0,0,0,-1,853,694,0,0
-364,330,0,0,0,0,0,0,0,0,0,-1,860,694,0,0
-357,330,0,0,0,0,0,0,0,0,0,-1,867,694,0,0
-350,330,0,0,0,0,0,0,0,0,0,-1,874,694,0,0
-343,330,0,0,0,0,0,0,0,0,0,-1,881,694,0,0
-336,330,0,0,0,0,0,0,0,0,0,-1,888,694,0,0
-329,330,0,0,0,0,0,0,0,0,0,-1,895,694,0,0
-322,330,0,0,0,0,0,0,0,0,0,-1,902,694,0,0
-315,330,0,0,0,0,0,0,0,0,0,-1,909,694,0,0
-308,330,0,0,0,0,0,0,0,0,0,-1,916,694,0,0
-301,330,0,0,0,0,0,0,0,0,0,-1,923,694,0,0
-294,330,0,0,0,0,0,0,0,0,0,-1,930,694,0,0
-287,330,0,0,0,0,0,0,0,0,0,-1,937,694,0,0
-280,330,0,0,0,0,0,0,0,0,0,-1,944,694,0,0
-273,330,0,0,0,0,0,0,0,0,0,-1,951,694,0,0
-266,330,0,0,0,0,0,0,0,0,0,-1,958,694,0,0
-259,330,0,0,0,0,0,0,0,0,0,-1,965,694,0,0
-252,330,0,0,0,0,0,0,0,0,0,-1,972,694,0,0
-245,330,0,0,0,0,0,0,0,0,0,-1,979,694,0,0
-238,330,0,0,0,0,0,0,0,0,0,-1,986,694,0,0
-231,330,0,0,0,0,0,0,0,0,0,-1,993,694,0,0
-224,330,0,0,0,0,0,0,0,0,0,-1,1000,694,0,0
-217,330,0,0,0,0,0,0,0,0,0,-1,1007,694,0,0
-210,330,0,0,0,0,0,0,0,0,0,-1,1014,694,0,0
-203,330,0,0,0,0,0,0,0,0,0,-1,1021,694,0,0
-196,330,0,0,0,0,0,0,0,0,0,-1,1028,694,0,0
-189,330,0,0,0,0,0,0,0,0,0,-1,1035,694,0,0
-182,330,0,0,0,0,0,0,0,0,0,-1,1042,694,0,0
-175,330,0,0,0,0,0,0,0,0,0,-1,1049,694,0,0
-168,330,0,0,0,0,0,0,0,0,0,-1,1056,694,0,0
-161,330,0,0,0,0,0,0,0,0,0,-1,1063,694,0,0
-154,330,0,0,0,0,0,0,0,0,0,-1,1070,694,0,0
-147,330,0,0,0,0,0,0,0,0,0,-1,1077,694,0,0
-140,330,0,0,0,0,0,0,0,0,0,-1,1084,694,0,0
-133,330,0,0,0,0,0,0,0,0,0,-1,1091,694,0,0
-126,330,0,0,0,0,0,0,0,0,0,-1,1098,694,0,0
-119,330,0,0,0,0,0,0,0,0,0,-1,1105,694,0,0
-112,330,0,0,0,0,0,0,0,0,0,-1,1112,694,0,0
-105,330,0,0,0,0,0,0,0,0,0,-1,1119,694,0,0
-98,330,0,0,0,0,0,0,0,0,0,-1,1126,694,0,0
-91,330,0,0,0,0,0,0,0,0,0,-1,1133,694,0,0
-84,330,0,0,0,0,0,0,0,0,0,-1,1140,694,0,0
-77,330,0,0,0,0,0,0,0,0,0,-1,1147,694,0,0
-70,330,0,0,0,0,0,0,0,0,0,-1,1154,694,0,0
-63,330,0,0,0,0,0,0,0,0,0,-1,1161,694,0,0
-56,330,0,0,0,0,0,0,0,0,0,-1,1168,694,0,0
-49,330,0,0,0,0,0,0,0,0,0,-1,1175,694,0,0
-42,330,0,0,0,0,0,0,0,0,0,-1,1182,694,0,0
-35,330,0,0,0,0,0,0,0,0,0,-1,1189,694,0,0
-28,330,0,0,0,0,0,0,0,0,0,-1,1196,694,0,0
-21,330,0,0,0,0,0,0,0,0,0,-1,1203,694,0,0
-14,330,0,0,0,0,0,0,0,0,0,-1,1210,694,0,0
-7,330,0,0,0,0,0,0,0,0,0,-1,1217,694,0,0
0,330,0,0,0,0,0,0,0,0,0,-1,1224,694,0,0
7,330,0,0,0,0,0,0,0,0,0,-1,1231,694,0,0
14,330,0,0,0,0,0,0,0,0,0,-1,1238,694,0,0
21,330,0,0,0,0,0,0,0,0,0,-1,1245,694,0,0
28,330,0,0,0,0,0,0,0,0,0,-1,1252,694,0,0
35,330,0,0,0,0,0,0,0,0,0,-1,1259,694,0,0
42,330,0,0,0,0,0,0,0,0,0,-1,1266,694,0,0
49,330,0,0,0,0,0,0,0,0,0,-1,1273,694,0,0
56,330,0,0,0,0,0,0,0,0,0,-1,1280,694,0,0
63,330,0,0,0,0,0,0,0,0,0,-1,1287,694,0,0
70,330,0,0,0,0,0,0,0,0,0,-1,1294,694,0,0
77,330,0,0,0,0,0,0,0,0,0,-1,1301,694,0,0
84,330,0,0,0,0,0,0,0,0,0,-1,1308,694,0,0
91,330,0,0,0,0,0,0,0,0,0,-1,1315,694,0,0
98,330,0,0,0,0,0,0,0,0,0,-1,1322,694,0,0
105,330,0,0,0,0,0,0,0,0,0,-1,1329,694,0,0
112,330,0,0,0,0,0,0,0,0,0,-1,1336,694,0,0
119,330,0,0,0,0,0,0,0,0,0,-1,1343,694,0,0
126,330,0,0,0,0,0,0,0,0,0,-1,1350,694,0,0
133,330,0,0,0,0,0,0,0,0,0,-1,1357,694,0,0
140,330,0,0,0,0,0,0,0,0,0,-1,1364,694,0,0
147,330,0,0,0,0,0,0,0,0,0,-1,1371,694,0,0
154,330,0,0,0,0,0,0,0,0,0,-1,1378,694,0,0
161,330,0,0,0,0,0,0,0,0,0,-1,1385,694,0,0
168,330,0,0,0,0,0,0,0,0,0,-1,1392,694,0,0
175,330,0,0,0,0,0,0,0,0,0,-1,1399,694,0,0
182,330,0,0,0,0,0,0,0,0,0,-1,1406,694,0,0
189,330,0,0,0,0,0,0,0,0,0,-1,1413,694,0,0
196,330,0,0,0,0,0,0,0,0,0,-1,1420,694,0,0
203,330,0,0,0,0,0,0,0,0,0,-1,1427,694,0,0
210,330,0,0,0,0,0,0,0,0,0,-1,1434,694,0,0
217,330,0,0,0,0,0,0,0,0,0,-1,1441,694,0,0
224,330,0,0,0,0,0,0,0,0,0,-1,1448,694,0,0
231,330,0,0,0,0,0,0,0,0,0,-1,1455,694,0,0
238,330,0,0,0,0,0,0,0,0,0,-1,1462,694,0,0
245,330,0,0,0,0,0,0,0,0,0,-1,1469,694,0,0
252,330,0,0,0,0,0,0,0,0,0,-1,1476,694,0,0
259,330,0,0,0,0,0,0,0,0,0,-1,1483,694,0,0
266,330,0,0,0,0,0,0,0,0,0,-1,1490,694,0,0
273,330,0,0,0,0,0,0,0,0,0,-1,1497,694,0,0
280,330,0,0,0,0,0,0,0,0,0,-1,1504,694,0,0
287,330,0,0,0,0,0,0,0,0,0,-1,1511,694,0,0
294,330,0,0,0,0,0,0,0,0,0,-1,1518,694,0,0
301,330,0,0,0,0,0,0,0,0,0,-1,1525,694,0,0
308,330,0,0,0,0,0,0,0,0,0,-1,1532,694,0,0
315,330,0,0,0,0,0,0,0,0,0,-1,1539,694,0,0
322,330,0,0,0,0,0,0,0,0,0,-1,1546,694,0,0
329,330,0,0,0,0,0,0,0,0,0,-1,1553,694,0,0
336,330,0,0,0,0,0,0,0,0,0,-1,1560,694,0,0
343,330,0,0,0,0,0,0,0,0,0,-1,1567,694,0,0
350,330,0,0,0,0,0,0,0,0,0,-1,1574,694,0,0
357,330,0,0,0,0,0,0,0,0,0,-1,1581,694,0,0
364,330,0,0,0,0,0,0,0,0,0,-1,1588,694,0,0
371,330,0,0,0,0,0,0,0,0,0,-1,1595,694,0,0
378,330,0,0,0,0,0,0,0,0,0,-1,1602,694,0,0
385,330,0,0,0,0,0,0,0,0,0,-1,1609,694,0,0
392,330,0,0,0,0,0,0,0,0,0,-1,1616,694,0,0
399,330,0,0,0,0,0,0,0,0,0,-1,1623,694,0,0
406,330,0,0,0,0,0,0,0,0,0,-1,1630,694,0,0
413,330,0,0,0,0,0,0,0,0,0,-1,1637,694,0,0
420,330,0,0,0,0,0,0,0,0,0,-1,1644,694,0,0
427,330,0,0,0,0,0,0,0,0,0,-1,1651,694,0,0
434,330,0,0,0,0,0,0,0,0,0,-1,1658,694,0,0
441,330,0,0,0,0,0,0,0,0,0,-1,1665,694,0,0
448,330,0,0,0,0,0,0,0,0,0,-1,1672,694,0,0
455,330,0,0,0,0,0,0,0,0,0,-1,1679,694,0,0
462,330,0,0,0,0,0,0,0,0,0,-1,1686,694,0,0
469,330,0,0,0,0,0,0,0,0,0,-1,1693,694,0,0
476,330,0,0,0,0,0,0,0,0,0,-1,1700,694,0,0
483,330,0,0,0,0,0,0,0,0,0,-1,1707,694,0,0
490,330,0,0,0,0,0,0,0,0,0,-1,1714,694,0,0
497,330,0,0,0,0,0,0,0,0,0,-1,1721,694,0,0
504,330,0,0,0,0,0,0,0,0,0,-1,1728,694,0,0
511,330,0,0,0,0,0,0,0,0,0,-1,1735,694,0,0
518,330,0,0,0,0,0,0,0,0,0,-1,1742,694,0,0
525,330,15.9268,0.974548,0,0,0,0,0,0,0,-1,1749,694,15.9268,-0.974546
532,330,11.1788,2.26495,0,0,0,0,0,0,0,-1,1756,694,11.1788,-2.26498
539,330,14.2271,2.31458,0,0,0,0,0,0,0,-1,1763,694,14.227,-2.31455
546,330,13.6356,2.49316,0,0,0,0,0,0,0,-1,1770,694,13.6356,-2.49314
553,330,12.5461,1.17865,0,0,0,0,0,0,0,-1,1777,694,12.5461,-1.17862
560,330,12.5674,1.58716,0,0,0,0,0,0,0,-1,1784,694,12.5674,-1.58714
567,330,12.5887,1.99567,0,0,0,0,0,0,0,-1,1791,694,12.5887,-1.99565
574,330,11.4338,1.91241,0,0,0,0,0,0,0,-1,1798,694,11.4339,-1.91239
581,330,10.9291,2.43317,0,0,0,0,0,0,0,-1,1805,694,10.929,-2.43319
588,330,6.45667,-0.0630493,0,0,0,0,0,0,0,-1,1812,694,6.45661,0.0630695
595,330,8.23193,-0.258484,0,0,0,0,0,0,0,-1,1819,694,8.23188,0.258459
602,330,8.28748,-0.464844,0,0,0,0,0,0,0,-1,1826,694,8.28749,0.464874
609,330,8.44153,-0.234314,-0.00479657,-0.00456432,-0.00174816,-0.00292843,-0.00643246,-0.818563,0.00371874,0.0232743,1833,694,8.44158,0.234335
616,330,8.50244,-0.0715942,-0.00240543,-0.00381584,-0.00221666,-0.000784507,-0.00543677,-0.631391,0.00339337,0.0109452,1840,694,8.50247,0.0716159
623,330,8.49377,0.0797729,-0.000986451,-0.00296031,-0.00197482,0.000234322,-0.00418109,-0.553672,0.00286869,0.0120472,1847,694,8.49373,-0.0797741
630,330,8.51746,0.262634,-0.000410979,-0.00215442,-0.00144666,0.000406298,-0.0029717,-0.514242,0.00212953,0.0130947,1854,694,8.51742,-0.262664
637,330,8.55347,0.449097,0.000133461,-0.00163657,-0.00109139,0.000653576,-0.00215668,-0.444721,0.0016981,0.0127917,1861,694,8.55343,-0.449109
644,330,8.52649,0.62561,0.000944203,-0.00139703,-0.00100344,0.00131542,-0.00176825,-0.354327,0.00178674,0.00795739,1868,694,8.52653,-0.625599
651,330,8.51587,0.791504,0.00225083,-0.00154168,-0.00104282,0.00251865,-0.00180951,-0.251397,0.00251002,0.0107069,1875,694,8.51583,-0.791507
658,330,8.5155,0.954773,0.00415661,-0.00167888,-0.000831308,0.00427272,-0.00179499,-0.13878,0.00359924,0.0120421,1882,694,8.51549,-0.954771
665,330,8.51282,1.11462,0.00662924,-0.00150261,-0.000498315,0.00665966,-0.00153303,-0.0609754,0.00502928,0.0102234,1889,694,8.5128,-1.11464
672,330,8.51538,1.28021,0.00995798,-0.00164416,0.000549807,0.00998398,-0.00167015,0.0472473,0.00727687,0.0113906,1896,694,8.51533,-1.28021
679,330,8.41675,1.44604,0.014481,-0.0017106,0.00179227,0.014677,-0.00190662,0.108934,0.0104782,0.0238668,1903,694,8.41672,-1.44607
686,330,8.3811,1.80768,0.0203494,-0.00160944,0.00385479,0.0210064,-0.00226647,0.168824,0.0148177,0.0416048,1910,694,8.38108,-1.80767
693,330,8.34912,2.11194,0,0,0,0,0,0,0,-1,1917,694,8.34917,-2.11196
700,330,8.09058,0.218811,0,0,0,0,0,0,0,-1,1924,694,8.09061,-0.218804
707,330,10.7957,-2.12073,0,0,0,0,0,0,0,-1,1931,694,10.7957,2.12074
714,330,11.8872,0.964966,0,0,0,0,0,0,0,-1,1938,694,11.8873,-0.964963
721,330,0,0,0,0,0,0,0,0,0,-1,1945,694,0,0
728,330,0,0,0,0,0,0,0,0,0,-1,1952,694,0,0
735,330,0,0,0,0,0,0,0,0,0,-1,1959,694,0,0
742,330,0,0,0,0,0,0,0,0,0,-1,1966,694,0,0
749,330,0,0,0,0,0,0,0,0,0,-1,1973,694,0,0
756,330,0,0,0,0,0,0,0,0,0,-1,1980,694,0,0
763,330,0,0,0,0,0,0,0,0,0,-1,1987,694,0,0
770,330,0,0,0,0,0,0,0,0,0,-1,1994,694,0,0
777,330,0,0,0,0,0,0,0,0,0,-1,2001,694,0,0
784,330,0,0,0,0,0,0,0,0,0,-1,2008,694,0,0
791,330,0,0,0,0,0,0,0,0,0,-1,2015,694,0,0
798,330,0,0,0,0,0,0,0,0,0,-1,2022,694,0,0
805,330,0,0,0,0,0,0,0,0,0,-1,2029,694,0,0
812,330,0,0,0,0,0,0,0,0,0,-1,2036,694,0,0
-700,323,0,0,0,0,0,0,0,0,0,-1,524,701,0,0
-693,323,0,0,0,0,0,0,0,0,0,-1,531,701,0,0
-686,323,0,0,0,0,0,0,0,0,0,-1,538,701,0,0
-679,323,0,0,0,0,0,0,0,0,0,-1,545,701,0,0
-672,323,0,0,0,0,0,0,0,0,0,-1,552,701,0,0
-665,323,0,0,0,0,0,0,0,0,0,-1,559,701,0,0
-658,323,0,0,0,0,0,0,0,0,0,-1,566,701,0,0
-651,323,0,0,0,0,0,0,0,0,0,-1,573,701,0,0
-644,323,0,0,0,0,0,0,0,0,0,-1,580,701,0,0
-637,323,0,0,0,0,0,0,0,0,0,-1,587,701,0,0
-630,323,0,0,0,0,0,0,0,0,0,-1,594,701,0,0
-623,323,0,0,0,0,0,0,0,0,0,-1,601,701,0,0
-616,323,0,0,0,0,0,0,0,0,0,-1,608,701,0,0
-609,323,0,0,0,0,0,0,0,0,0,-1,615,701,0,0
-602,323,-2.88702,-3.30676,0,0,0,0,0,0,0,-1,622,701,-2.88704,3.30675
-595,323,-2.72211,-2.88635,0,0,0,0,0,0,0,-1,629,701,-2.72212,2.88633
-588,323,-2.53357,2.98468,0,0,0,0,0,0,0,-1,636,701,-2.53357,-2.9847
-581,323,-6.45282,1.04645,0,0,0,0,0,0,0,-1,643,701,-6.45283,-1.04642
-574,323,-5.25989,1.1532,0,0,0,0,0,0,0,-1,650,701,-5.25988,-1.15319
-567,323,-4.75641,0.617981,0,0,0,0,0,0,0,-1,657,701,-4.75639,-0.617993
-560,323,-4.29913,0.0845337,-0.00829115,-0.00319238,-0.000860148,-0.00305119,-0.00843234,-1.4081,0.00492998,0.0432636,664,701,-4.29914,-0.0845097
-553,323,-3.99121,-0.259338,-0.00732598,0.000324817,-0.00121929,0.000514433,-0.0075156,-1.41652,0.00519038,0.0264229,671,701,-3.99123,0.25932
-546,323,-3.98944,-0.361877,-0.00623452,0.0026464,-0.001603,0.00292689,-0.006515,-1.39758,0.00558094,0.0108525,678,701,-3.98944,0.36188
-539,323,-3.99353,-0.479553,-0.00511075,0.00404495,-0.00218088,0.0045379,-0.00560369,-1.3485,0.00586602,0.0105313,685,701,-3.99355,0.479556
-532,323,-3.99939,-0.628418,-0.00395719,0.00387208,-0.00213529,0.00441658,-0.00450169,-1.32112,0.00514904,0.00930858,692,701,-3.99938,0.62844
-525,323,-3.99487,-0.786011,-0.00297354,0.00303582,-0.00115838,0.00325138,-0.0031891,-1.38681,0.00371847,0.00797827,699,701,-3.99485,0.786
-518,323,-3.98853,-0.922241,-0.00187075,0.0018077,-0.000267816,0.0018271,-0.00189015,-1.4985,0.00214626,0.00988523,706,701,-3.98855,0.922255
-511,323,-4.00989,-1.07239,-0.000509506,0.00066372,0.000603986,0.000919077,-0.000764864,1.1708,0.000973582,0.0133189,713,701,-4.00988,1.07241
-504,323,-4.01074,-1.22632,0.000281851,-0.00113933,0.00200746,0.00170078,-0.00255826,0.615293,0.00247551,0.0136991,720,701,-4.01077,1.22633
-497,323,-3.99542,-1.38782,0.00095686,-0.00333484,0.00319978,0.0026637,-0.00504168,0.490029,0.00451877,0.0111464,727,701,-3.99542,1.38779
-490,323,-3.99927,-1.55408,0.00189656,-0.00581697,0.00450247,0.00396827,-0.00788868,0.431245,0.00696923,0.0122637,734,701,-3.99925,1.55407
-483,323,-3.98627,-1.70123,0.00228056,-0.00856474,0.00597851,0.00492933,-0.0112135,0.417057,0.00955257,0.0138793,741,701,-3.98625,1.70122
-476,323,-3.90479,-1.87408,0.00217399,-0.0117832,0.00748542,0.00542927,-0.0150385,0.410212,0.0122435,0.0251054,748,701,-3.9048,1.87408
-469,323,-3.70343,-1.93713,0,0,0,0,0,0,0,-1,755,701,-3.70343,1.93713
-462,323,-3.92255,-1.64612,0,0,0,0,0,0,0,-1,762,701,-3.92256,1.64613
-455,323,-4.37115,-1.57153,9.24381e-05,-0.0268408,0.0122212,0.0048112,-0.0315595,0.368477,0.0228132,0.0471971,769,701,-4.37114,1.57153
-448,323,-4.60632,-1.51868,-0.000974845,-0.0337506,0.0134102,0.00381265,-0.0385381,0.342901,0.0270526,0.0451691,776,701,-4.60632,1.51868
-441,323,-4.71863,-1.66339,0,0,0,0,0,0,0,-1,783,701,-4.71861,1.66342
-434,323,-4.6142,-2.86597,0,0,0,0,0,0,0,-1,790,701,-4.6142,2.86596
-427,323,-4.74371,-3.58179,0,0,0,0,0,0,0,-1,797,701,-4.74371,3.58181
-420,323,-2.38629,-2.42578,0,0,0,0,0,0,0,-1,804,701,-2.38628,2.4258
-413,323,-1.97827,-2.94897,0,0,0,0,0,0,0,-1,811,701,-1.97826,2.94897
-406,323,0,0,0,0,0,0,0,0,0,-1,818,701,0,0
-399,323,0,0,0,0,0,0,0,0,0,-1,825,701,0,0
-392,323,0,0,0,0,0,0,0,0,0,-1,832,701,0,0
-385,323,0,0,0,0,0,0,0,0,0,-1,839,701,0,0
-378,323,0,0,0,0,0,0,0,0,0,-1,846,701,0,0
-371,323,0,0,0,0,0,0,0,0,0,-1,853,701,0,0
-364,323,0,0,0,0,0,0,0,0,0,-1,860,701,0,0
-357,323,0,0,0,0,0,0,0,0,0,-1,867,701,0,0
-350,323,0,0,0,0,0,0,0,0,0,-1,874,701,0,0
-343,323,0,0,0,0,0,0,0,0,0,-1,881,701,0,0
-336,323,0,0,0,0,0,0,0,0,0,-1,888,701,0,0
-329,323,0,0,0,0,0,0,0,0,0,-1,895,701,0,0
-322,323,0,0,0,0,0,0,0,0,0,-1,902,701,0,0
-315,323,0,0,0,0,0,0,0,0,0,-1,909,701,0,0
-308,323,0,0,0,0,0,0,0,0,0,-1,916,701,0,0
-301,323,0,0,0,0,0,0,0,0,0,-1,923,701,0,0
-294,323,0,0,0,0,0,0,0,0,0,-1,930,701,0,0
-287,323,0,0,0,0,0,0,0,0,0,-1,937,701,0,0
-280,323,0,0,0,0,0,0,0,0,0,-1,944,701,0,0
-273,323,0,0,0,0,0,0,0,0,0,-1,951,701,0,0
-266,323,0,0,0,0,0,0,0,0,0,-1,958,701,0,0
-259,323,0,0,0,0,0,0,0,0,0,-1,965,701,0,0
-252,323,0,0,0,0,0,0,0,0,0,-1,972,701,0,0
-245,323,0,0,0,0,0,0,0,0,0,-1,979,701,0,0
-238,323,0,0,0,0,0,0,0,0,0,-1,986,701,0,0
-231,323,0,0,0,0,0,0,0,0,0,-1,993,701,0,0
-224,323,0,0,0,0,0,0,0,0,0,-1,1000,701,0,0
-217,323,0,0,0,0,0,0,0,0,0,-1,1007,701,0,0
-210,323,0,0,0,0,0,0,0,0,0,-1,1014,701,0,0
-203,323,0,0,0,0,0,0,0,0,0,-1,1021,701,0,0
-196,323,0,0,0,0,0,0,0,0,0,-1,1028,701,0,0
-189,323,0,0,0,0,0,0,0,0,0,-1,1035,701,0,0
-182,323,0,0,0,0,0,0,0,0,0,-1,1042,701,0,0
-175,323,0,0,0,0,0,0,0,0,0,-1,1049,701,0,0
-168,323,0,0,0,0,0,0,0,0,0,-1,1056,701,0,0
-161,323,0,0,0,0,0,0,0,0,0,-1,1063,701,0,0
-154,323,0,0,0,0,0,0,0,0,0,-1,1070,701,0,0
-147,323,0,0,0,0,0,0,0,0,0,-1,1077,701,0,0
-140,323,0,0,0,0,0,0,0,0,0,-1,1084,701,0,0
-133,323,0,0,0,0,0,0,0,0,0,-1,1091,701,0,0
-126,323,0,0,0,0,0,0,0,0,0,-1,1098,701,0,0
-119,323,0,0,0,0,0,0,0,0,0,-1,1105,701,0,0
-112,323,0,0,0,0,0,0,0,0,0,-1,1112,701,0,0
-105,323,0,0,0,0,0,0,0,0,0,-1,1119,701,0,0
-98,323,0,0,0,0,0,0,0,0,0,-1,1126,701,0,0
-91,323,0,0,0,0,0,0,0,0,0,-1,1133,701,0,0
-84,323,0,0,0,0,0,0,0,0,0,-1,1140,701,0,0
-77,323,0,0,0,0,0,0,0,0,0,-1,1147,701,0,0
-70,323,0,0,0,0,0,0,0,0,0,-1,1154,701,0,0
-63,323,0,0,0,0,0,0,0,0,0,-1,1161,701,0,0
-56,323,0,0,0,0,0,0,0,0,0,-1,1168,701,0,0
-49,323,0,0,0,0,0,0,0,0,0,-1,1175,701,0,0
-42,323,0,0,0,0,0,0,0,0,0,-1,1182,701,0,0
-35,323,0,0,0,0,0,0,0,0,0,-1,1189,701,0,0
-28,323,0,0,0,0,0,0,0,0,0,-1,1196,701,0,0
-21,323,0,0,0,0,0,0,0,0,0,-1,1203,701,0,0
-14,323,0,0,0,0,0,0,0,0,0,-1,1210,701,0,0
-7,323,0,0,0,0,0,0,0,0,0,-1,1217,701,0,0
0,323,0,0,0,0,0,0,0,0,0,-1,1224,701,0,0
7,323,0,0,0,0,0,0,0,0,0,-1,1231,701,0,0
14,323,0,0,0,0,0,0,0,0,0,-1,1238,701,0,0
21,323,0,0,0,0,0,0,0,0,0,-1,1245,701,0,0
28,323,0,0,0,0,0,0,0,0,0,-1,1252,701,0,0
35,323,0,0,0,0,0,0,0,0,0,-1,1259,701,0,0
42,323,0,0,0,0,0,0,0,0,0,-1,1266,701,0,0
49,323,0,0,0,0,0,0,0,0,0,-1,1273,701,0,0
56,323,0,0,0,0,0,0,0,0,0,-1,1280,701,0,0
63,323,0,0,0,0,0,0,0,0,0,-1,1287,701,0,0
70,323,0,0,0,0,0,0,0,0,0,-1,1294,701,0,0
77,323,0,0,0,0,0,0,0,0,0,-1,1301,701,0,0
84,323,0,0,0,0,0,0,0,0,0,-1,1308,701,0,0
91,323,0,0,0,0,0,0,0,0,0,-1,1315,701,0,0
98,323,0,0,0,0,0,0,0,0,0,-1,1322,701,0,0
105,323,0,0,0,0,0,0,0,0,0,-1,1329,701,0,0
112,323,0,0,0,0,0,0,0,0,0,-1,1336,701,0,0
119,323,0,0,0,0,0,0,0,0,0,-1,1343,701,0,0
126,323,0,0,0,0,0,0,0,0,0,-1,1350,701,0,0
133,323,0,0,0,0,0,0,0,0,0,-1,1357,701,0,0
140,323,0,0,0,0,0,0,0,0,0,-1,1364,701,0,0
147,323,0,0,0,0,0,0,0,0,0,-1,1371,701,0,0
154,323,0,0,0,0,0,0,0,0,0,-1,1378,701,0,0
161,323,0,0,0,0,0,0,0,0,0,-1,1385,701,0,0
168,323,0,0,0,0,0,0,0,0,0,-1,1392,701,0,0
175,323,0,0,0,0,0,0,0,0,0,-1,1399,701,0,0
182,323,0,0,0,0,0,0,0,0,0,-1,1406,701,0,0
189,323,0,0,0,0,0,0,0,0,0,-1,1413,701,0,0
196,323,0,0,0,0,0,0,0,0,0,-1,1420,701,0,0
203,323,0,0,0,0,0,0,0,0,0,-1,1427,701,0,0
210,323,0,0,0,0,0,0,0,0,0,-1,1434,701,0,0
217,323,0,0,0,0,0,0,0,0,0,-1,1441,701,0,0
224,323,0,0,0,0,0,0,0,0,0,-1,1448,701,0,0
231,323,0,0,0,0,0,0,0,0,0,-1,1455,701,0,0
238,323,0,0,0,0,0,0,0,0,0,-1,1462,701,0,0
245,323,0,0,0,0,0,0,0,0,0,-1,1469,701,0,0
252,323,0,0,0,0,0,0,0,0,0,-1,1476,701,0,0
259,323,0,0,0,0,0,0,0,0,0,-1,1483,701,0,0
266,323,0,0,0,0,0,0,0,0,0,-1,1490,701,0,0
273,323,0,0,0,0,0,0,0,0,0,-1,1497,701,0,0
280,323,0,0,0,0,0,0,0,0,0,-1,1504,701,0,0
287,323,0,0,0,0,0,0,0,0,0,-1,1511,701,0,0
294,323,0,0,0,0,0,0,0,0,0,-1,1518,701,0,0
301,323,0,0,0,0,0,0,0,0,0,-1,1525,701,0,0
308,323,0,0,0,0,0,0,0,0,0,-1,1532,701,0,0
315,323,0,0,0,0,0,0,0,0,0,-1,1539,701,0,0
322,323,0,0,0,0,0,0,0,0,0,-1,1546,701,0,0
329,323,0,0,0,0,0,0,0,0,0,-1,1553,701,0,0
336,323,0,0,0,0,0,0,0,0,0,-1,1560,701,0,0
343,323,0,0,0,0,0,0,0,0,0,-1,1567,701,0,0
350,323,0,0,0,0,0,0,0,0,0,-1,1574,701,0,0
357,323,0,0,0,0,0,0,0,0,0,-1,1581,701,0,0
364,323,0,0,0,0,0,0,0,0,0,-1,1588,701,0,0
371,323,0,0,0,0,0,0,0,0,0,-1,1595,701,0,0
378,323,0,0,0,0,0,0,0,0,0,-1,1602,701,0,0
385,323,0,0,0,0,0,0,0,0,0,-1,1609,701,0,0
392,323,0,0,0,0,0,0,0,0,0,-1,1616,701,0,0
399,323,0,0,0,0,0,0,0,0,0,-1,1623,701,0,0
406,323,0,0,0,0,0,0,0,0,0,-1,1630,701,0,0
413,323,0,0,0,0,0,0,0,0,0,-1,1637,701,0,0
420,323,0,0,0,0,0,0,0,0,0,-1,1644,701,0,0
427,323,0,0,0,0,0,0,0,0,0,-1,1651,701,0,0
434,323,0,0,0,0,0,0,0,0,0,-1,1658,701,0,0
441,323,0,0,0,0,0,0,0,0,0,-1,1665,701,0,0
448,323,0,0,0,0,0,0,0,0,0,-1,1672,701,0,0
455,323,0,0,0,0,0,0,0,0,0,-1,1679,701,0,0
462,323,0,0,0,0,0,0,0,0,0,-1,1686,701,0,0
469,323,0,0,0,0,0,0,0,0,0,-1,1693,701,0,0
476,323,0,0,0,0,0,0,0,0,0,-1,1700,701,0,0
483,323,0,0,0,0,0,0,0,0,0,-1,1707,701,0,0
490,323,0,0,0,0,0,0,0,0,0,-1,1714,701,0,0
497,323,0,0,0,0,0,0,0,0,0,-1,1721,701,0,0
504,323,0,0,0,0,0,0,0,0,0,-1,1728,701,0,0
511,323,0,0,0,0,0,0,0,0,0,-1,1735,701,0,0
518,323,0,0,0,0,0,0,0,0,0,-1,1742,701,0,0
525,323,0,0,0,0,0,0,0,0,0,-1,1749,701,0,0
532,323,11.9408,1.85529,0,0,0,0,0,0,0,-1,1756,701,11.9407,-1.85531
539,323,12.3457,1.81079,0,0,0,0,0,0,0,-1,1763,701,12.3457,-1.81077
546,323,13.3927,3.146,0,0,0,0,0,0,0,-1,1770,701,13.3927,-3.14601
553,323,14.3785,0.642395,0,0,0,0,0,0,0,-1,1777,701,14.3786,-0.642384
560,323,12.8538,0.740662,0,0,0,0,0,0,0,-1,1784,701,12.8538,-0.740676
567,323,13.0957,0.747559,0,0,0,0,0,0,0,-1,1791,701,13.0957,-0.747551
574,323,12.551,1.22339,0,0,0,0,0,0,0,-1,1798,701,12.551,-1.22341
581,323,12.0192,1.8443,0,0,0,0,0,0,0,-1,1805,701,12.0192,-1.84433
588,323,11.6512,2.39935,0,0,0,0,0,0,0,-1,1812,701,11.6513,-2.39938
595,323,6.67847,0.06604,0,0,0,0,0,0,0,-1,1819,701,6.67841,-0.0660418
602,323,8.38672,-0.150024,0,0,0,0,0,0,0,-1,1826,701,8.38669,0.150022
609,323,8.5946,-0.127136,-0.00574388,-0.00216393,-0.000523114,-0.00208905,-0.00581875,-1.42863,0.00340368,0.0377366,1833,701,8.59463,0.12714
616,323,8.67969,-0.0601196,-0.00303893,-0.00203595,-0.00180137,-0.000667568,-0.00440731,-0.921158,0.0027429,0.0127632,1840,701,8.67969,0.0601458
623,323,8.6781,0.114685,-0.00132027,-0.00162129,-0.00197456,0.000509506,-0.00345107,-0.747359,0.002488,0.0117186,1847,701,8.67809,-0.114708
630,323,8.69019,0.285522,-0.000703263,-0.0013017,-0.00147683,0.000504356,-0.00250932,-0.685447,0.00186388,0.0127176,1854,701,8.69022,-0.28553
637,323,8.71436,0.46051,-0.000252047,-0.00109679,-0.00111126,0.000514399,-0.00186324,-0.603787,0.00144449,0.0101433,1861,701,8.71436,-0.460482
644,323,8.71716,0.622742,0.000410518,-0.000987748,-0.000951797,0.000892361,-0.00146959,-0.468632,0.00137718,0.00740402,1868,701,8.7172,-0.622755
651,323,8.67688,0.799377,0.00155838,-0.00118972,-0.000915766,0.00183559,-0.00146692,-0.293934,0.00191066,0.0088069,1875,701,8.67689,-0.799375
658,323,8.65247,0.974976,0.00319544,-0.00131068,-0.000607726,0.00327597,-0.0013912,-0.131732,0.00276686,0.0112627,1882,701,8.65246,-0.974974
665,323,8.65857,1.12994,0.00518125,-0.000996537,-0.000227318,0.00518961,-0.00100489,-0.0367297,0.0038388,0.0102945,1889,701,8.65851,-1.12994
672,323,8.66187,1.31042,0.00781275,-0.000976258,0.000843557,0.00789298,-0.00105649,0.0948252,0.00564719,0.00892774,1896,701,8.66187,-1.3104
679,323,8.61389,1.50525,0.0113589,-0.000813917,0.00206014,0.0116981,-0.00115312,0.163188,0.00821015,0.0176229,1903,701,8.61384,-1.50524
686,323,8.47937,1.86511,0.0159082,-0.000506029,0.00398663,0.0168252,-0.00142305,0.226092,0.01172,0.0388817,1910,701,8.47941,-1.86513
693,323,8.36023,1.80902,0,0,0,0,0,0,0,-1,1917,701,8.36021,-1.809
700,323,8.38806,0.340088,0,0,0,0,0,0,0,-1,1924,701,8.38803,-0.340079
707,323,12.0165,1.44641,0,0,0,0,0,0,0,-1,1931,701,12.0165,-1.44643
714,323,11.5031,1.37494,0,0,0,0,0,0,0,-1,1938,701,11.5031,-1.37493
721,323,0,0,0,0,0,0,0,0,0,-1,1945,701,0,0
728,323,0,0,0,0,0,0,0,0,0,-1,1952,701,0,0
735,323,0,0,0,0,0,0,0,0,0,-1,1959,701,0,0
742,323,0,0,0,0,0,0,0,0,0,-1,1966,701,0,0
749,323,0,0,0,0,0,0,0,0,0,-1,1973,701,0,0
756,323,0,0,0,0,0,0,0,0,0,-1,1980,701,0,0
763,323,0,0,0,0,0,0,0,0,0,-1,1987,701,0,0
770,323,0,0,0,0,0,0,0,0,0,-1,1994,701,0,0
777,323,0,0,0,0,0,0,0,0,0,-1,2001,701,0,0
784,323,0,0,0,0,0,0,0,0,0,-1,2008,701,0,0
791,323,0,0,0,0,0,0,0,0,0,-1,2015,701,0,0
798,323,0,0,0,0,0,0,0,0,0,-1,2022,701,0,0
805,323,0,0,0,0,0,0,0,0,0,-1,2029,701,0,0
812,323,0,0,0,0,0,0,0,0,0,-1,2036,701,0,0
-700,316,0,0,0,0,0,0,0,0,0,-1,524,708,0,0
-693,316,0,0,0,0,0,0,0,0,0,-1,531,708,0,0
-686,316,0,0,0,0,0,0,0,0,0,-1,538,708,0,0
-679,316,0,0,0,0,0,0,0,0,0,-1,545,708,0,0
-672,316,0,0,0,0,0,0,0,0,0,-1,552,708,0,0
-665,316,0,0,0,0,0,0,0,0,0,-1,559,708,0,0
-658,316,0,0,0,0,0,0,0,0,0,-1,566,708,0,0
-651,316,0,0,0,0,0,0,0,0,0,-1,573,708,0,0
-644,316,0,0,0,0,0,0,0,0,0,-1,580,708,0,0
-637,316,0,0,0,0,0,0,0,0,0,-1,587,708,0,0
-630,316,0,0,0,0,0,0,0,0,0,-1,594,708,0,0
-623,316,0,0,0,0,0,0,0,0,0,-1,601,708,0,0
-616,316,0,0,0,0,0,0,0,0,0,-1,608,708,0,0
-609,316,0,0,0,0,0,0,0,0,0,-1,615,708,0,0
-602,316,-2.71521,-2.69397,0,0,0,0,0,0,0,-1,622,708,-2.71523,2.69399
-595,316,-2.71552,-2.435,0,0,0,0,0,0,0,-1,629,708,-2.71553,2.43498
-588,316,-3.05548,-1.77814,0,0,0,0,0,0,0,-1,636,708,-3.05549,1.77815
-581,316,-6.3316,1.01733,0,0,0,0,0,0,0,-1,643,708,-6.3316,-1.01736
-574,316,-5.67462,0.709656,0,0,0,0,0,0,0,-1,650,708,-5.67461,-0.709672
-567,316,-3.93451,0.105896,0,0,0,0,0,0,0,-1,657,708,-3.9345,-0.105905
-560,316,-3.99451,-0.0910034,-0.00891904,-0.00592293,0.00146836,-0.00532331,-0.00951866,1.1831,0.00550845,0.0426129,664,708,-3.99448,0.091016
-553,316,-4.07593,-0.230835,-0.00745423,-0.00229312,0.00117307,-0.002039,-0.00770834,1.35747,0.004612,0.0250672,671,708,-4.07596,0.230862
-546,316,-4.16614,-0.321838,-0.00596474,0.000317856,0.000661475,0.000386746,-0.00603363,1.46703,0.00415734,0.0154629,678,708,-4.16612,0.321849
-539,316,-4.16095,-0.492126,-0.00453833,0.00202425,-0.000229247,0.00203225,-0.00454633,-1.53592,0.0038895,0.0124364,685,708,-4.16093,0.492156
-532,316,-4.16833,-0.644226,-0.00319682,0.00213055,-0.000444517,0.00216738,-0.00323365,-1.48812,0.00313848,0.0101947,692,708,-4.16832,0.6442
-525,316,-4.14734,-0.771667,-0.00226468,0.0016481,0.000358028,0.00168059,-0.00229717,1.4803,0.00230574,0.00901355,699,708,-4.14734,0.771674
-518,316,-4.14545,-0.920776,-0.00139864,0.000641366,0.00102991,0.00107089,-0.00182817,1.17568,0.0016927,0.00949692,706,708,-4.14544,0.920754
-511,316,-4.1546,-1.0683,-0.00045373,-0.000337685,0.00178935,0.00139459,-0.002186,0.801606,0.00208402,0.0106221,713,708,-4.15459,1.0683
-504,316,-4.15448,-1.23663,-0.000166543,-0.00201526,0.00307286,0.00211798,-0.00429978,0.639297,0.00377599,0.0128284,720,708,-4.1545,1.23662
-497,316,-4.14948,-1.38599,-0.000172427,-0.00413897,0.00420778,0.00249605,-0.00680745,0.565171,0.00556031,0.0119743,727,708,-4.14949,1.38598
-490,316,-4.13788,-1.53961,-0.000179908,-0.00654737,0.00545809,0.00295513,-0.00968241,0.521371,0.00763311,0.0134459,734,708,-4.13785,1.53963
-483,316,-4.04816,-1.73431,-0.000945257,-0.00921476,0.00680269,0.00288069,-0.0130407,0.512327,0.00979626,0.0252378,741,708,-4.04816,1.73433
-476,316,-3.95087,-1.94421,0,0,0,0,0,0,0,-1,748,708,-3.95086,1.94423
-469,316,-4.4389,-1.61902,0,0,0,0,0,0,0,-1,755,708,-4.43889,1.619
-462,316,-4.62854,-1.30457,0,0,0,0,0,0,0,-1,762,708,-4.62851,1.30456
-455,316,-4.60645,-1.36981,-0.00738207,-0.0263129,0.0102346,-0.00290687,-0.0307881,0.412211,0.0196283,0.0471974,769,708,-4.60645,1.36982
-448,316,-4.51263,-1.42432,-0.00831984,-0.0325899,0.00968803,-0.00492694,-0.0359828,0.336867,0.0225266,0.0468658,776,708,-4.51266,1.42433
-441,316,-4.57129,-2.20374,0,0,0,0,0,0,0,-1,783,708,-4.5713,2.20371
-434,316,-4.5556,-3.17346,0,0,0,0,0,0,0,-1,790,708,-4.5556,3.17345
-427,316,-4.7243,-3.97223,0,0,0,0,0,0,0,-1,797,708,-4.72433,3.97221
-420,316,-4.88147,-4.87561,0,0,0,0,0,0,0,-1,804,708,-4.88145,4.8756
-413,316,0,0,0,0,0,0,0,0,0,-1,811,708,0,0
-406,316,0,0,0,0,0,0,0,0,0,-1,818,708,0,0
-399,316,0,0,0,0,0,0,0,0,0,-1,825,708,0,0
-392,316,0,0,0,0,0,0,0,0,0,-1,832,708,0,0
-385,316,0,0,0,0,0,0,0,0,0,-1,839,708,0,0
-378,316,0,0,0,0,0,0,0,0,0,-1,846,708,0,0
-371,316,0,0,0,0,0,0,0,0,0,-1,853,708,0,0
-364,316,0,0,0,0,0,0,0,0,0,-1,860,708,0,0
-357,316,0,0,0,0,0,0,0,0,0,-1,867,708,0,0
-350,316,0,0,0,0,0,0,0,0,0,-1,874,708,0,0
-343,316,0,0,0,0,0,0,0,0,0,-1,881,708,0,0
-336,316,0,0,0,0,0,0,0,0,0,-1,888,708,0,0
-329,316,0,0,0,0,0,0,0,0,0,-1,895,708,0,0
-322,316,0,0,0,0,0,0,0,0,0,-1,902,708,0,0
-315,316,0,0,0,0,0,0,0,0,0,-1,909,708,0,0
-308,316,0,0,0,0,0,0,0,0,0,-1,916,708,0,0
-301,316,0,0,0,0,0,0,0,0,0,-1,923,708,0,0
-294,316,0,0,0,0,0,0,0,0,0,-1,930,708,0,0
-287,316,0,0,0,0,0,0,0,0,0,-1,937,708,0,0
-280,316,0,0,0,0,0,0,0,0,0,-1,944,708,0,0
-273,316,0,0,0,0,0,0,0,0,0,-1,951,708,0,0
-266,316,0,0,0,0,0,0,0,0,0,-1,958,708,0,0
-259,316,0,0,0,0,0,0,0,0,0,-1,965,708,0,0
-252,316,0,0,0,0,0,0,0,0,0,-1,972,708,0,0
-245,316,0,0,0,0,0,0,0,0,0,-1,979,708,0,0
-238,316,0,0,0,0,0,0,0,0,0,-1,986,708,0,0
-231,316,0,0,0,0,0,0,0,0,0,-1,993,708,0,0
-224,316,0,0,0,0,0,0,0,0,0,-1,1000,708,0,0
-217,316,0,0,0,0,0,0,0,0,0,-1,1007,708,0,0
-210,316,0,0,0,0,0,0,0,0,0,-1,1014,708,0,0
-203,316,0,0,0,0,0,0,0,0,0,-1,1021,708,0,0
-196,316,0,0,0,0,0,0,0,0,0,-1,1028,708,0,0
-189,316,0,0,0,0,0,0,0,0,0,-1,1035,708,0,0
-182,316,0,0,0,0,0,0,0,0,0,-1,1042,708,0,0
-175,316,0,0,0,0,0,0,0,0,0,-1,1049,708,0,0
-168,316,0,0,0,0,0,0,0,0,0,-1,1056,708,0,0
-161,316,0,0,0,0,0,0,0,0,0,-1,1063,708,0,0
-154,316,0,0,0,0,0,0,0,0,0,-1,1070,708,0,0
-147,316,0,0,0,0,0,0,0,0,0,-1,1077,708,0,0
-140,316,0,0,0,0,0,0,0,0,0,-1,1084,708,0,0
-133,316,0,0,0,0,0,0,0,0,0,-1,1091,708,0,0
-126,316,0,0,0,0,0,0,0,0,0,-1,1098,708,0,0
-119,316,0,0,0,0,0,0,0,0,0,-1,1105,708,0,0
-112,316,0,0,0,0,0,0,0,0,0,-1,1112,708,0,0
-105,316,0,0,0,0,0,0,0,0,0,-1,1119,708,0,0
-98,316,0,0,0,0,0,0,0,0,0,-1,1126,708,0,0
-91,316,0,0,0,0,0,0,0,0,0,-1,1133,708,0,0
-84,316,0,0,0,0,0,0,0,0,0,-1,1140,708,0,0
-77,316,0,0,0,0,0,0,0,0,0,-1,1147,708,0,0
-70,316,0,0,0,0,0,0,0,0,0,-1,1154,708,0,0
-63,316,0,0,0,0,0,0,0,0,0,-1,1161,708,0,0
-56,316,0,0,0,0,0,0,0,0,0,-1,1168,708,0,0
-49,316,0,0,0,0,0,0,0,0,0,-1,1175,708,0,0
-42,316,0,0,0,0,0,0,0,0,0,-1,1182,708,0,0
-35,316,0,0,0,0,0,0,0,0,0,-1,1189,708,0,0
-28,316,0,0,0,0,0,0,0,0,0,-1,1196,708,0,0
-21,316,0,0,0,0,0,0,0,0,0,-1,1203,708,0,0
-14,316,0,0,0,0,0,0,0,0,0,-1,1210,708,0,0
-7,316,0,0,0,0,0,0,0,0,0,-1,1217,708,0,0
0,316,0,0,0,0,0,0,0,0,0,-1,1224,708,0,0
7,316,0,0,0,0,0,0,0,0,0,-1,1231,708,0,0
14,316,0,0,0,0,0,0,0,0,0,-1,1238,708,0,0
21,316,0,0,0,0,0,0,0,0,0,-1,1245,708,0,0
28,316,0,0,0,0,0,0,0,0,0,-1,1252,708,0,0
35,316,0,0,0,0,0,0,0,0,0,-1,1259,708,0,0
42,316,0,0,0,0,0,0,0,0,0,-1,1266,708,0,0
49,316,0,0,0,0,0,0,0,0,0,-1,1273,708,0,0
56,316,0,0,0,0,0,0,0,0,0,-1,1280,708,0,0
63,316,0,0,0,0,0,0,0,0,0,-1,1287,708,0,0
70,316,0,0,0,0,0,0,0,0,0,-1,1294,708,0,0
77,316,0,0,0,0,0,0,0,0,0,-1,1301,708,0,0
84,316,0,0,0,0,0,0,0,0,0,-1,1308,708,0,0
91,316,0,0,0,0,0,0,0,0,0,-1,1315,708,0,0
98,316,0,0,0,0,0,0,0,0,0,-1,1322,708,0,0
105,316,0,0,0,0,0,0,0,0,0,-1,1329,708,0,0
112,316,0,0,0,0,0,0,0,0,0,-1,1336,708,0,0
119,316,0,0,0,0,0,0,0,0,0,-1,1343,708,0,0
126,316,0,0,0,0,0,0,0,0,0,-1,1350,708,0,0
133,316,0,0,0,0,0,0,0,0,0,-1,1357,708,0,0
140,316,0,0,0,0,0,0,0,0,0,-1,1364,708,0,0
147,316,0,0,0,0,0,0,0,0,0,-1,1371,708,0,0
154,316,0,0,0,0,0,0,0,0,0,-1,1378,708,0,0
161,316,0,0,0,0,0,0,0,0,0,-1,1385,708,0,0
168,316,0,0,0,0,0,0,0,0,0,-1,1392,708,0,0
175,316,0,0,0,0,0,0,0,0,0,-1,1399,708,0,0
182,316,0,0,0,0,0,0,0,0,0,-1,1406,708,0,0
189,316,0,0,0,0,0,0,0,0,0,-1,1413,708,0,0
196,316,0,0,0,0,0,0,0,0,0,-1,1420,708,0,0
203,316,0,0,0,0,0,0,0,0,0,-1,1427,708,0,0
210,316,0,0,0,0,0,0,0,0,0,-1,1434,708,0,0
217,316,0,0,0,0,0,0,0,0,0,-1,1441,708,0,0
224,316,0,0,0,0,0,0,0,0,0,-1,1448,708,0,0
231,316,0,0,0,0,0,0,0,0,0,-1,1455,708,0,0
238,316,0,0,0,0,0,0,0,0,0,-1,1462,708,0,0
245,316,0,0,0,0,0,0,0,0,0,-1,1469,708,0,0
252,316,0,0,0,0,0,0,0,0,0,-1,1476,708,0,0
259,316,0,0,0,0,0,0,0,0,0,-1,1483,708,0,0
266,316,0,0,0,0,0,0,0,0,0,-1,1490,708,0,0
273,316,0,0,0,0,0,0,0,0,0,-1,1497,708,0,0
280,316,0,0,0,0,0,0,0,0,0,-1,1504,708,0,0
287,316,0,0,0,0,0,0,0,0,0,-1,1511,708,0,0
294,316,0,0,0,0,0,0,0,0,0,-1,1518,708,0,0
301,316,0,0,0,0,0,0,0,0,0,-1,1525,708,0,0
308,316,0,0,0,0,0,0,0,0,0,-1,1532,708,0,0
315,316,0,0,0,0,0,0,0,0,0,-1,1539,708,0,0
322,316,0,0,0,0,0,0,0,0,0,-1,1546,708,0,0
329,316,0,0,0,0,0,0,0,0,0,-1,1553,708,0,0
336,316,0,0,0,0,0,0,0,0,0,-1,1560,708,0,0
343,316,0,0,0,0,0,0,0,0,0,-1,1567,708,0,0
350,316,0,0,0,0,0,0,0,0,0,-1,1574,708,0,0
357,316,0,0,0,0,0,0,0,0,0,-1,1581,708,0,0
364,316,0,0,0,0,0,0,0,0,0,-1,1588,708,0,0
371,316,0,0,0,0,0,0,0,0,0,-1,1595,708,0,0
378,316,0,0,0,0,0,0,0,0,0,-1,1602,708,0,0
385,316,0,0,0,0,0,0,0,0,0,-1,1609,708,0,0
392,316,0,0,0,0,0,0,0,0,0,-1,1616,708,0,0
399,316,0,0,0,0,0,0,0,0,0,-1,1623,708,0,0
406,316,0,0,0,0,0,0,0,0,0,-1,1630,708,0,0
413,316,0,0,0,0,0,0,0,0,0,-1,1637,708,0,0
420,316,0,0,0,0,0,0,0,0,0,-1,1644,708,0,0
427,316,0,0,0,0,0,0,0,0,0,-1,1651,708,0,0
434,316,0,0,0,0,0,0,0,0,0,-1,1658,708,0,0
441,316,0,0,0,0,0,0,0,0,0,-1,1665,708,0,0
448,316,0,0,0,0,0,0,0,0,0,-1,1672,708,0,0
455,316,0,0,0,0,0,0,0,0,0,-1,1679,708,0,0
462,316,0,0,0,0,0,0,0,0,0,-1,1686,708,0,0
469,316,0,0,0,0,0,0,0,0,0,-1,1693,708,0,0
476,316,0,0,0,0,0,0,0,0,0,-1,1700,708,0,0
483,316,0,0,0,0,0,0,0,0,0,-1,1707,708,0,0
490,316,0,0,0,0,0,0,0,0,0,-1,1714,708,0,0
497,316,0,0,0,0,0,0,0,0,0,-1,1721,708,0,0
504,316,0,0,0,0,0,0,0,0,0,-1,1728,708,0,0
511,316,0,0,0,0,0,0,0,0,0,-1,1735,708,0,0
518,316,0,0,0,0,0,0,0,0,0,-1,1742,708,0,0
525,316,0,0,0,0,0,0,0,0,0,-1,1749,708,0,0
532,316,12.8229,1.54395,0,0,0,0,0,0,0,-1,1756,708,12.8229,-1.54392
539,316,13.2544,1.47809,0,0,0,0,0,0,0,-1,1763,708,13.2544,-1.47808
546,316,14.1232,0.957886,0,0,0,0,0,0,0,-1,1770,708,14.1231,-0.957887
553,316,14.0029,0.634521,0,0,0,0,0,0,0,-1,1777,708,14.0029,-0.634533
560,316,13.5597,0.350525,0,0,0,0,0,0,0,-1,1784,708,13.5597,-0.350553
567,316,13.6337,0.167786,0,0,0,0,0,0,0,-1,1791,708,13.6337,-0.16776
574,316,13.8534,0.168152,0,0,0,0,0,0,0,-1,1798,708,13.8534,-0.168178
581,316,13.2273,1.14886,0,0,0,0,0,0,0,-1,1805,708,13.2273,-1.1489
588,316,12.9459,1.36847,0,0,0,0,0,0,0,-1,1812,708,12.9459,-1.36846
595,316,12.5363,1.50702,0,0,0,0,0,0,0,-1,1819,708,12.5363,-1.50701
602,316,7.79919,0.0422363,0,0,0,0,0,0,0,-1,1826,708,7.79923,-0.0422066
609,316,8.7356,0.012207,0,0,0,0,0,0,0,-1,1833,708,8.73558,-0.0122352
616,316,8.84021,-0.0387573,-0.00211044,0.000406309,-0.00141761,0.00104349,-0.00274762,-1.14838,0.00226131,0.0146625,1840,708,8.84017,0.0387719
623,316,8.85095,0.121582,-0.000350933,0.00044596,-0.00206341,0.00214904,-0.00205402,-0.880775,0.00242684,0.0101705,1847,708,8.85095,-0.121586
630,316,8.85046,0.276001,-4.37008e-05,7.42844e-05,-0.00161907,0.00163544,-0.00160485,-0.803608,0.00187081,0.0118609,1854,708,8.85043,-0.275972
637,316,8.86584,0.467529,8.31388e-05,-0.000203264,-0.00124271,0.00119087,-0.001311,-0.728035,0.00144501,0.0111407,1861,708,8.86583,-0.467523
644,316,8.88794,0.637207,0.000435769,-0.000344575,-0.00102187,0.00113942,-0.00104823,-0.60303,0.00126341,0.0113901,1868,708,8.888,-0.637215
651,316,8.8562,0.796875,0.00129415,-0.00068334,-0.000909963,0.00164915,-0.00103834,-0.371965,0.00156492,0.0116197,1875,708,8.85618,-0.796889
658,316,8.82117,0.956299,0.00259755,-0.000854564,-0.000505275,0.00266999,-0.000927,-0.142389,0.00215646,0.0169475,1882,708,8.82112,-0.956313
665,316,8.82751,1.13776,0.00411518,-0.000514432,-8.54354e-05,0.00411676,-0.000516008,-0.0184457,0.00293169,0.0141411,1889,708,8.82756,-1.13775
672,316,8.83923,1.32361,0.00619523,-0.000431908,0.000985086,0.00633856,-0.000575235,0.144484,0.00442992,0.0118551,1896,708,8.83928,-1.32362
679,316,8.83179,1.51733,0.00900703,-9.4705e-05,0.00216544,0.00949596,-0.000583631,0.222062,0.00653388,0.0180599,1903,708,8.8318,-1.51734
686,316,8.72717,1.64709,0.0125773,0.000370461,0.00393502,0.0137358,-0.000788088,0.286329,0.00943089,0.0301944,1910,708,8.72716,-1.64712
693,316,8.61157,1.81451,0.016971,0.00114107,0.00664857,0.0193929,-0.00128081,0.34933,0.013376,0.0458056,1917,708,8.61158,-1.81451
700,316,8.49866,2.02087,0,0,0,0,0,0,0,-1,1924,708,8.4986,-2.0209
707,316,11.7229,2.13934,0,0,0,0,0,0,0,-1,1931,708,11.7229,-2.13936
714,316,10.7938,2.91705,0,0,0,0,0,0,0,-1,1938,708,10.7939,-2.91704
721,316,11.0726,3.18066,0,0,0,0,0,0,0,-1,1945,708,11.0726,-3.18064
728,316,0,0,0,0,0,0,0,0,0,-1,1952,708,0,0
735,316,0,0,0,0,0,0,0,0,0,-1,1959,708,0,0
742,316,0,0,0,0,0,0,0,0,0,-1,1966,708,0,0
749,316,0,0,0,0,0,0,0,0,0,-1,1973,708,0,0
756,316,0,0,0,0,0,0,0,0,0,-1,1980,708,0,0
763,316,0,0,0,0,0,0,0,0,0,-1,1987,708,0,0
770,316,0,0,0,0,0,0,0,0,0,-1,1994,708,0,0
777,316,0,0,0,0,0,0,0,0,0,-1,2001,708,0,0
784,316,0,0,0,0,0,0,0,0,0,-1,2008,708,0,0
791,316,0,0,0,0,0,0,0,0,0,-1,2015,708,0,0
798,316,0,0,0,0,0,0,0,0,0,-1,2022,708,0,0
805,316,0,0,0,0,0,0,0,0,0,-1,2029,708,0,0
812,316,0,0,0,0,0,0,0,0,0,-1,2036,708,0,0
-700,309,0,0,0,0,0,0,0,0,0,-1,524,715,0,0
-693,309,0,0,0,0,0,0,0,0,0,-1,531,715,0,0
-686,309,0,0,0,0,0,0,0,0,0,-1,538,715,0,0
-679,309,0,0,0,0,0,0,0,0,0,-1,545,715,0,0
-672,309,0,0,0,0,0,0,0,0,0,-1,552,715,0,0
-665,309,0,0,0,0,0,0,0,0,0,-1,559,715,0,0
-658,309,0,0,0,0,0,0,0,0,0,-1,566,715,0,0
-651,309,0,0,0,0,0,0,0,0,0,-1,573,715,0,0
-644,309,0,0,0,0,0,0,0,0,0,-1,580,715,0,0
-637,309,0,0,0,0,0,0,0,0,0,-1,587,715,0,0
-630,309,0,0,0,0,0,0,0,0,0,-1,594,715,0,0
-623,309,0,0,0,0,0,0,0,0,0,-1,601,715,0,0
-616,309,0,0,0,0,0,0,0,0,0,-1,608,715,0,0
-609,309,-5.33124,0.941589,0,0,0,0,0,0,0,-1,615,715,-5.33124,-0.941591
-602,309,-2.64648,-2.40558,0,0,0,0,0,0,0,-1,622,715,-2.64649,2.40559
-595,309,-2.73096,-1.99005,-0.023301,-0.054357,0.0146537,-0.0174784,-0.0601797,0.378219,0.0357475,0.0468292,629,715,-2.73097,1.99006
-588,309,-3.06836,-1.37238,-0.0198228,-0.0412006,0.0111654,-0.0150548,-0.0459687,0.403598,0.0270614,0.0481568,636,715,-3.06834,1.37236
-581,309,-3.19507,-0.971924,0,0,0,0,0,0,0,-1,643,715,-3.1951,0.971925
-574,309,-3.39612,-0.648376,0,0,0,0,0,0,0,-1,650,715,-3.39612,0.648359
-567,309,-3.70532,-0.71814,-0.0116968,-0.0138907,0.00517945,-0.0074994,-0.0180881,0.681048,0.0104938,0.0470166,657,715,-3.70534,0.718131
-560,309,-4.11719,-0.552002,-0.00954791,-0.00832112,0.00385282,-0.00503317,-0.0128359,0.864339,0.00746807,0.0393474,664,715,-4.11718,0.552013
-553,309,-4.25763,-0.238403,-0.00765718,-0.00451685,0.00333039,-0.00240504,-0.00976898,1.00568,0.00587735,0.02489,671,715,-4.25762,0.238419
-546,309,-4.29382,-0.306641,-0.00581641,-0.00164471,0.00259496,-0.000401212,-0.00705991,1.12393,0.00457874,0.0150311,678,715,-4.2938,0.306668
-539,309,-4.2934,-0.490417,-0.00410065,0.000141695,0.00132619,0.000522149,-0.00448111,1.29142,0.00317579,0.0142252,685,715,-4.29337,0.490393
-532,309,-4.31171,-0.634521,-0.00247133,0.000572679,0.000909991,0.000823971,-0.00272262,1.30136,0.0021432,0.0114417,692,715,-4.31172,0.634501
-525,309,-4.31665,-0.768372,-0.00150109,0.000540285,0.00157378,0.00139539,-0.00235619,1.07308,0.00218953,0.0144972,699,715,-4.31666,0.768368
-518,309,-4.31409,-0.927307,-0.000818891,-0.000135151,0.00205602,0.00160722,-0.00256126,0.867783,0.0024276,0.0150062,706,715,-4.31406,0.927285
-511,309,-4.30005,-1.0733,-0.000242461,-0.000788915,0.00273051,0.00222846,-0.00325984,0.735532,0.00318727,0.0121627,713,715,-4.30008,1.07328
-504,309,-4.30206,-1.21045,-0.000450945,-0.00212172,0.00386295,0.00266591,-0.00523858,0.678909,0.00464353,0.00946955,720,715,-4.30207,1.21043
-497,309,-4.30115,-1.35736,-0.00115118,-0.00392465,0.00488797,0.00254296,-0.00761879,0.647178,0.00610599,0.0131405,727,715,-4.30116,1.35737
-490,309,-4.25757,-1.50525,-0.00214672,-0.00596962,0.00593689,0.00217885,-0.0102952,0.629658,0.00769328,0.019268,734,715,-4.25756,1.50527
-483,309,-4.13861,-1.45715,-0.0040934,-0.00823964,0.00688076,0.00101977,-0.0133528,0.639077,0.00926053,0.0420743,741,715,-4.1386,1.45713
-476,309,-4.10883,-1.01099,-0.00674798,-0.0109394,0.00750474,-0.00105181,-0.0166355,0.649242,0.0107569,0.0462214,748,715,-4.10882,1.011
-469,309,-3.92914,-0.498596,0,0,0,0,0,0,0,-1,755,715,-3.92914,0.498575
-462,309,-3.87,-1.14081,0,0,0,0,0,0,0,-1,762,715,-3.87002,1.14079
-455,309,-4.9032,-1.12115,0,0,0,0,0,0,0,-1,769,715,-4.90322,1.12117
-448,309,-4.4845,-1.38116,0,0,0,0,0,0,0,-1,776,715,-4.48449,1.38116
-441,309,-4.47241,-2.46301,0,0,0,0,0,0,0,-1,783,715,-4.47241,2.46303
-434,309,-4.49701,-3.48096,0,0,0,0,0,0,0,-1,790,715,-4.497,3.48094
-427,309,-4.70496,-4.36261,0,0,0,0,0,0,0,-1,797,715,-4.70494,4.36261
-420,309,-3.81921,-3.49042,0,0,0,0,0,0,0,-1,804,715,-3.81922,3.4904
-413,309,0,0,0,0,0,0,0,0,0,-1,811,715,0,0
-406,309,0,0,0,0,0,0,0,0,0,-1,818,715,0,0
-399,309,0,0,0,0,0,0,0,0,0,-1,825,715,0,0
-392,309,0,0,0,0,0,0,0,0,0,-1,832,715,0,0
-385,309,0,0,0,0,0,0,0,0,0,-1,839,715,0,0
-378,309,0,0,0,0,0,0,0,0,0,-1,846,715,0,0
-371,309,0,0,0,0,0,0,0,0,0,-1,853,715,0,0
-364,309,0,0,0,0,0,0,0,0,0,-1,860,715,0,0
-357,309,0,0,0,0,0,0,0,0,0,-1,867,715,0,0
-350,309,0,0,0,0,0,0,0,0,0,-1,874,715,0,0
-343,309,0,0,0,0,0,0,0,0,0,-1,881,715,0,0
-336,309,0,0,0,0,0,0,0,0,0,-1,888,715,0,0
-329,309,0,0,0,0,0,0,0,0,0,-1,895,715,0,0
-322,309,0,0,0,0,0,0,0,0,0,-1,902,715,0,0
-315,309,0,0,0,0,0,0,0,0,0,-1,909,715,0,0
-308,309,0,0,0,0,0,0,0,0,0,-1,916,715,0,0
-301,309,0,0,0,0,0,0,0,0,0,-1,923,715,0,0
-294,309,0,0,0,0,0,0,0,0,0,-1,930,715,0,0
-287,309,0,0,0,0,0,0,0,0,0,-1,937,715,0,0
-280,309,0,0,0,0,0,0,0,0,0,-1,944,715,0,0
-273,309,0,0,0,0,0,0,0,0,0,-1,951,715,0,0
-266,309,0,0,0,0,0,0,0,0,0,-1,958,715,0,0
-259,309,0,0,0,0,0,0,0,0,0,-1,965,715,0,0
-252,309,0,0,0,0,0,0,0,0,0,-1,972,715,0,0
-245,309,0,0,0,0,0,0,0,0,0,-1,979,715,0,0
-238,309,0,0,0,0,0,0,0,0,0,-1,986,715,0,0
-231,309,0,0,0,0,0,0,0,0,0,-1,993,715,0,0
-224,309,0,0,0,0,0,0,0,0,0,-1,1000,715,0,0
-217,309,0,0,0,0,0,0,0,0,0,-1,1007,715,0,0
-210,309,0,0,0,0,0,0,0,0,0,-1,1014,715,0,0
-203,309,0,0,0,0,0,0,0,0,0,-1,1021,715,0,0
-196,309,0,0,0,0,0,0,0,0,0,-1,1028,715,0,0
-189,309,0,0,0,0,0,0,0,0,0,-1,1035,715,0,0
-182,309,0,0,0,0,0,0,0,0,0,-1,1042,715,0,0
-175,309,0,0,0,0,0,0,0,0,0,-1,1049,715,0,0
-168,309,0,0,0,0,0,0,0,0,0,-1,1056,715,0,0
-161,309,0,0,0,0,0,0,0,0,0,-1,1063,715,0,0
-154,309,0,0,0,0,0,0,0,0,0,-1,1070,715,0,0
-147,309,0,0,0,0,0,0,0,0,0,-1,1077,715,0,0
-140,309,0,0,0,0,0,0,0,0,0,-1,1084,715,0,0
-133,309,0,0,0,0,0,0,0,0,0,-1,1091,715,0,0
-126,309,0,0,0,0,0,0,0,0,0,-1,1098,715,0,0
-119,309,0,0,0,0,0,0,0,0,0,-1,1105,715,0,0
-112,309,0,0,0,0,0,0,0,0,0,-1,1112,715,0,0
-105,309,0,0,0,0,0,0,0,0,0,-1,1119,715,0,0
-98,309,0,0,0,0,0,0,0,0,0,-1,1126,715,0,0
-91,309,0,0,0,0,0,0,0,0,0,-1,1133,715,0,0
-84,309,0,0,0,0,0,0,0,0,0,-1,1140,715,0,0
-77,309,0,0,0,0,0,0,0,0,0,-1,1147,715,0,0
-70,309,0,0,0,0,0,0,0,0,0,-1,1154,715,0,0
-63,309,0,0,0,0,0,0,0,0,0,-1,1161,715,0,0
-56,309,0,0,0,0,0,0,0,0,0,-1,1168,715,0,0
-49,309,0,0,0,0,0,0,0,0,0,-1,1175,715,0,0
-42,309,0,0,0,0,0,0,0,0,0,-1,1182,715,0,0
-35,309,0,0,0,0,0,0,0,0,0,-1,1189,715,0,0
-28,309,0,0,0,0,0,0,0,0,0,-1,1196,715,0,0
-21,309,0,0,0,0,0,0,0,0,0,-1,1203,715,0,0
-14,309,0,0,0,0,0,0,0,0,0,-1,1210,715,0,0
-7,309,0,0,0,0,0,0,0,0,0,-1,1217,715,0,0
0,309,0,0,0,0,0,0,0,0,0,-1,1224,715,0,0
7,309,0,0,0,0,0,0,0,0,0,-1,1231,715,0,0
14,309,0,0,0,0,0,0,0,0,0,-1,1238,715,0,0
21,309,0,0,0,0,0,0,0,0,0,-1,1245,715,0,0
28,309,0,0,0,0,0,0,0,0,0,-1,1252,715,0,0
35,309,0,0,0,0,0,0,0,0,0,-1,1259,715,0,0
42,309,0,0,0,0,0,0,0,0,0,-1,1266,715,0,0
49,309,0,0,0,0,0,0,0,0,0,-1,1273,715,0,0
56,309,0,0,0,0,0,0,0,0,0,-1,1280,715,0,0
63,309,0,0,0,0,0,0,0,0,0,-1,1287,715,0,0
70,309,0,0,0,0,0,0,0,0,0,-1,1294,715,0,0
77,309,0,0,0,0,0,0,0,0,0,-1,1301,715,0,0
84,309,0,0,0,0,0,0,0,0,0,-1,1308,715,0,0
91,309,0,0,0,0,0,0,0,0,0,-1,1315,715,0,0
98,309,0,0,0,0,0,0,0,0,0,-1,1322,715,0,0
105,309,0,0,0,0,0,0,0,0,0,-1,1329,715,0,0
112,309,0,0,0,0,0,0,0,0,0,-1,1336,715,0,0
119,309,0,0,0,0,0,0,0,0,0,-1,1343,715,0,0
126,309,0,0,0,0,0,0,0,0,0,-1,1350,715,0,0
133,309,0,0,0,0,0,0,0,0,0,-1,1357,715,0,0
140,309,0,0,0,0,0,0,0,0,0,-1,1364,715,0,0
147,309,0,0,0,0,0,0,0,0,0,-1,1371,715,0,0
154,309,0,0,0,0,0,0,0,0,0,-1,1378,715,0,0
161,309,0,0,0,0,0,0,0,0,0,-1,1385,715,0,0
168,309,0,0,0,0,0,0,0,0,0,-1,1392,715,0,0
175,309,0,0,0,0,0,0,0,0,0,-1,1399,715,0,0
182,309,0,0,0,0,0,0,0,0,0,-1,1406,715,0,0
189,309,0,0,0,0,0,0,0,0,0,-1,1413,715,0,0
196,309,0,0,0,0,0,0,0,0,0,-1,1420,715,0,0
203,309,0,0,0,0,0,0,0,0,0,-1,1427,715,0,0
210,309,0,0,0,0,0,0,0,0,0,-1,1434,715,0,0
217,309,0,0,0,0,0,0,0,0,0,-1,1441,715,0,0
224,309,0,0,0,0,0,0,0,0,0,-1,1448,715,0,0
231,309,0,0,0,0,0,0,0,0,0,-1,1455,715,0,0
238,309,0,0,0,0,0,0,0,0,0,-1,1462,715,0,0
245,309,0,0,0,0,0,0,0,0,0,-1,1469,715,0,0
252,309,0,0,0,0,0,0,0,0,0,-1,1476,715,0,0
259,309,0,0,0,0,0,0,0,0,0,-1,1483,715,0,0
266,309,0,0,0,0,0,0,0,0,0,-1,1490,715,0,0
273,309,0,0,0,0,0,0,0,0,0,-1,1497,715,0,0
280,309,0,0,0,0,0,0,0,0,0,-1,1504,715,0,0
287,309,0,0,0,0,0,0,0,0,0,-1,1511,715,0,0
294,309,0,0,0,0,0,0,0,0,0,-1,1518,715,0,0
301,309,0,0,0,0,0,0,0,0,0,-1,1525,715,0,0
308,309,0,0,0,0,0,0,0,0,0,-1,1532,715,0,0
315,309,0,0,0,0,0,0,0,0,0,-1,1539,715,0,0
322,309,0,0,0,0,0,0,0,0,0,-1,1546,715,0,0
329,309,0,0,0,0,0,0,0,0,0,-1,1553,715,0,0
336,309,0,0,0,0,0,0,0,0,0,-1,1560,715,0,0
343,309,0,0,0,0,0,0,0,0,0,-1,1567,715,0,0
350,309,0,0,0,0,0,0,0,0,0,-1,1574,715,0,0
357,309,0,0,0,0,0,0,0,0,0,-1,1581,715,0,0
364,309,0,0,0,0,0,0,0,0,0,-1,1588,715,0,0
371,309,0,0,0,0,0,0,0,0,0,-1,1595,715,0,0
378,309,0,0,0,0,0,0,0,0,0,-1,1602,715,0,0
385,309,0,0,0,0,0,0,0,0,0,-1,1609,715,0,0
392,309,0,0,0,0,0,0,0,0,0,-1,1616,715,0,0
399,309,0,0,0,0,0,0,0,0,0,-1,1623,715,0,0
406,309,0,0,0,0,0,0,0,0,0,-1,1630,715,0,0
413,309,0,0,0,0,0,0,0,0,0,-1,1637,715,0,0
420,309,0,0,0,0,0,0,0,0,0,-1,1644,715,0,0
427,309,0,0,0,0,0,0,0,0,0,-1,1651,715,0,0
434,309,0,0,0,0,0,0,0,0,0,-1,1658,715,0,0
441,309,0,0,0,0,0,0,0,0,0,-1,1665,715,0,0
448,309,0,0,0,0,0,0,0,0,0,-1,1672,715,0,0
455,309,0,0,0,0,0,0,0,0,0,-1,1679,715,0,0
462,309,0,0,0,0,0,0,0,0,0,-1,1686,715,0,0
469,309,0,0,0,0,0,0,0,0,0,-1,1693,715,0,0
476,309,0,0,0,0,0,0,0,0,0,-1,1700,715,0,0
483,309,0,0,0,0,0,0,0,0,0,-1,1707,715,0,0
490,309,0,0,0,0,0,0,0,0,0,-1,1714,715,0,0
497,309,0,0,0,0,0,0,0,0,0,-1,1721,715,0,0
504,309,0,0,0,0,0,0,0,0,0,-1,1728,715,0,0
511,309,0,0,0,0,0,0,0,0,0,-1,1735,715,0,0
518,309,0,0,0,0,0,0,0,0,0,-1,1742,715,0,0
525,309,0,0,0,0,0,0,0,0,0,-1,1749,715,0,0
532,309,0,0,0,0,0,0,0,0,0,-1,1756,715,0,0
539,309,14.1641,1.25635,0,0,0,0,0,0,0,-1,1763,715,14.1641,-1.25632
546,309,14.1941,1.16833,0,0,0,0,0,0,0,-1,1770,715,14.1941,-1.16833
553,309,13.8173,0.837891,0,0,0,0,0,0,0,-1,1777,715,13.8172,-0.837883
560,309,16.5969,1.9765,0,0,0,0,0,0,0,-1,1784,715,16.5969,-1.97649
567,309,14.5972,-0.76593,0,0,0,0,0,0,0,-1,1791,715,14.5971,0.765947
574,309,13.8748,-0.273071,0,0,0,0,0,0,0,-1,1798,715,13.8747,0.27305
581,309,13.9192,-0.152588,0,0,0,0,0,0,0,-1,1805,715,13.9192,0.152573
588,309,14.4976,0.355774,0,0,0,0,0,0,0,-1,1812,715,14.4975,-0.355786
595,309,12.5885,1.65131,0,0,0,0,0,0,0,-1,1819,715,12.5885,-1.65132
602,309,9.59094,1.75812,0,0,0,0,0,0,0,-1,1826,715,9.59096,-1.75812
609,309,9.03662,-0.174561,0,0,0,0,0,0,0,-1,1833,715,9.0366,0.174586
616,309,9.04504,-0.0198975,-0.0016399,0.00211238,-0.0016985,0.00276701,-0.00229453,-1.20292,0.00292652,0.0214806,1840,715,9.04503,0.0199085
623,309,9.04272,0.123413,3.97728e-05,0.00211088,-0.00264329,0.00391422,-0.00176357,-0.972093,0.00335555,0.0106485,1847,715,9.04268,-0.123424
630,309,9.02173,0.292114,0.000153444,0.00119762,-0.00213625,0.00287465,-0.00152359,-0.905246,0.00257895,0.0105996,1854,715,9.02178,-0.292117
637,309,9.00183,0.468323,0.000120855,0.000516898,-0.0016484,0.00197913,-0.00134138,-0.845176,0.00192885,0.013049,1861,715,9.00179,-0.468341
644,309,9.01819,0.636414,0.000255709,0.000183238,-0.00127537,0.00149535,-0.00105641,-0.771196,0.00148051,0.0141287,1868,715,9.01816,-0.636439
651,309,9.03833,0.802673,0.000894442,-0.000236154,-0.00104001,0.00151286,-0.000854573,-0.536459,0.00138434,0.0125573,1875,715,9.03833,-0.802663
658,309,9.01611,0.961426,0.00191507,-0.000417706,-0.000523583,0.0020272,-0.000529833,-0.210966,0.00155839,0.0167002,1882,715,9.01606,-0.96144
665,309,9.04553,1.13129,0.00302055,-4.54806e-05,-4.81618e-05,0.0030213,-4.6237e-05,-0.0157031,0.00202979,0.0158625,1889,715,9.04552,-1.13128
672,309,9.04639,1.31464,0.00461059,7.10648e-05,0.000989314,0.00481682,-0.00013517,0.205519,0.00325721,0.0150139,1896,715,9.04638,-1.31464
679,309,9.02539,1.48035,0.00680828,0.000440826,0.00208833,0.00743208,-0.00018297,0.290269,0.00501682,0.0158547,1903,715,9.02539,-1.48035
686,309,9.01147,1.64563,0.00968051,0.000800529,0.00356568,0.010935,-0.000454001,0.338309,0.00744598,0.0204579,1910,715,9.01149,-1.6456
693,309,8.90698,1.7666,0.0134699,0.00113679,0.00571027,0.0157077,-0.00110104,0.3735,0.0108575,0.0331765,1917,715,8.90694,-1.76662
700,309,9.37561,1.56207,0.0184329,0.00124938,0.00884278,0.0221705,-0.00248822,0.399897,0.0156757,0.048879,1924,715,9.37567,-1.56208
707,309,9.82458,1.39893,0,0,0,0,0,0,0,-1,1931,715,9.82464,-1.39892
714,309,10.7302,2.78613,0.0312335,0.000727057,0.0187453,0.0401473,-0.00818679,0.443876,0.0298701,0.0438574,1938,715,10.7303,-2.78615
721,309,11.0383,3.06445,0.0398893,-0.00111533,0.0257853,0.0523298,-0.0135558,0.44952,0.0401748,0.0451207,1945,715,11.0383,-3.06447
728,309,0,0,0,0,0,0,0,0,0,-1,1952,715,0,0
735,309,0,0,0,0,0,0,0,0,0,-1,1959,715,0,0
742,309,0,0,0,0,0,0,0,0,0,-1,1966,715,0,0
749,309,0,0,0,0,0,0,0,0,0,-1,1973,715,0,0
756,309,0,0,0,0,0,0,0,0,0,-1,1980,715,0,0
763,309,0,0,0,0,0,0,0,0,0,-1,1987,715,0,0
770,309,0,0,0,0,0,0,0,0,0,-1,1994,715,0,0
777,309,0,0,0,0,0,0,0,0,0,-1,2001,715,0,0
784,309,0,0,0,0,0,0,0,0,0,-1,2008,715,0,0
791,309,0,0,0,0,0,0,0,0,0,-1,2015,715,0,0
798,309,0,0,0,0,0,0,0,0,0,-1,2022,715,0,0
805,309,0,0,0,0,0,0,0,0,0,-1,2029,715,0,0
812,309,0,0,0,0,0,0,0,0,0,-1,2036,715,0,0
-700,302,0,0,0,0,0,0,0,0,0,-1,524,722,0,0
-693,302,0,0,0,0,0,0,0,0,0,-1,531,722,0,0
-686,302,0,0,0,0,0,0,0,0,0,-1,538,722,0,0
-679,302,0,0,0,0,0,0,0,0,0,-1,545,722,0,0
-672,302,0,0,0,0,0,0,0,0,0,-1,552,722,0,0
-665,302,0,0,0,0,0,0,0,0,0,-1,559,722,0,0
-658,302,0,0,0,0,0,0,0,0,0,-1,566,722,0,0
-651,302,0,0,0,0,0,0,0,0,0,-1,573,722,0,0
-644,302,0,0,0,0,0,0,0,0,0,-1,580,722,0,0
-637,302,0,0,0,0,0,0,0,0,0,-1,587,722,0,0
-630,302,0,0,0,0,0,0,0,0,0,-1,594,722,0,0
-623,302,0,0,0,0,0,0,0,0,0,-1,601,722,0,0
-616,302,0,0,0,0,0,0,0,0,0,-1,608,722,0,0
-609,302,-2.3645,-2.31799,0,0,0,0,0,0,0,-1,615,722,-2.36451,2.31799
-602,302,-2.60864,-1.71149,-0.0221019,-0.065173,0.0101925,-0.0198117,-0.0674632,0.221025,0.0400401,0.0440856,622,722,-2.60862,1.7115
-595,302,-2.97632,-1.33105,-0.0194707,-0.0513656,0.00918358,-0.0170154,-0.0538208,0.261242,0.031766,0.0458196,629,722,-2.97634,1.33107
-588,302,-3.07037,-0.930847,-0.0171228,-0.0388823,0.00763492,-0.0147112,-0.0412939,0.305952,0.0241672,0.0470872,636,722,-3.07038,0.930845
-581,302,-3.18298,-0.515259,0,0,0,0,0,0,0,-1,643,722,-3.18298,0.515258
-574,302,-3.56598,-0.262268,0,0,0,0,0,0,0,-1,650,722,-3.56597,0.26229
-567,302,-3.94446,-0.36322,-0.0105828,-0.0135726,0.00465547,-0.00718811,-0.0169673,0.630043,0.00983408,0.0439912,657,722,-3.94447,0.363199
-560,302,-4.25366,-0.259644,-0.0086638,-0.00847782,0.00382282,-0.00474686,-0.0123948,0.797558,0.00722116,0.0345149,664,722,-4.25365,0.259673
-553,302,-4.46082,-0.180542,-0.00682826,-0.00512869,0.00359426,-0.00228512,-0.00967183,0.90148,0.00583723,0.0152765,671,722,-4.46084,0.18053
-546,302,-4.45099,-0.315979,-0.0049395,-0.00271108,0.00321641,-0.00042136,-0.00722922,0.952137,0.00468535,0.0142475,678,722,-4.45097,0.316004
-539,302,-4.45038,-0.450562,-0.00322282,-0.00103732,0.00209518,0.00023296,-0.00449309,1.02577,0.00307599,0.0140404,685,722,-4.45038,0.450562
-532,302,-4.49042,-0.593628,-0.00159207,-0.000367933,0.00187901,0.000996177,-0.00295619,0.94285,0.00237358,0.0136479,692,722,-4.49042,0.593635
-525,302,-4.47784,-0.770874,-0.00074109,9.24205e-05,0.00272392,0.00243129,-0.00307995,0.861309,0.00318925,0.0187645,699,722,-4.47783,0.770863
-518,302,-4.49921,-0.926331,-0.000294623,-0.000134787,0.00338419,0.00317042,-0.00359983,0.797204,0.00391143,0.0186406,706,722,-4.49921,0.926352
-511,302,-4.44928,-1.05261,2.75256e-05,-0.000247797,0.00429458,0.00418665,-0.00440692,0.769376,0.00496205,0.00978569,713,722,-4.44927,1.05261
-504,302,-4.45972,-1.19025,-0.000500438,-0.000978004,0.00555589,0.0048218,-0.00630024,0.763922,0.0064402,0.00920811,720,722,-4.45971,1.19027
-497,302,-4.46417,-1.33167,-0.00165311,-0.00213382,0.00677779,0.00488859,-0.00867552,0.767675,0.00793232,0.0129212,727,722,-4.46415,1.33167
-490,302,-4.36859,-1.45117,-0.00328571,-0.00348726,0.00793503,0.00454919,-0.0113222,0.779048,0.00943735,0.0237276,734,722,-4.36856,1.45116
-483,302,-4.28699,-1.08099,-0.00592225,-0.00507422,0.00878543,0.00329742,-0.0142939,0.809511,0.0107976,0.0496604,741,722,-4.28701,1.08097
-476,302,-4.49725,-0.909485,-0.00928651,-0.00710913,0.00905269,0.000920104,-0.0173157,0.845241,0.0118624,0.0466377,748,722,-4.49723,0.909463
-469,302,-4.49127,-0.730164,0,0,0,0,0,0,0,-1,755,722,-4.49125,0.730194
-462,302,-8.34802,-0.247131,0,0,0,0,0,0,0,-1,762,722,-8.348,0.24716
-455,302,-9.00903,0.356384,0,0,0,0,0,0,0,-1,769,722,-9.00903,-0.356406
-448,302,-9.82703,0.864868,0,0,0,0,0,0,0,-1,776,722,-9.82704,-0.864845
-441,302,-3.31964,2.08636,0,0,0,0,0,0,0,-1,783,722,-3.31965,-2.08637
-434,302,-3.84656,2.89349,0,0,0,0,0,0,0,-1,790,722,-3.84654,-2.8935
-427,302,-9.85724,0.342041,0,0,0,0,0,0,0,-1,797,722,-9.85723,-0.342042
-420,302,0,0,0,0,0,0,0,0,0,-1,804,722,0,0
-413,302,0,0,0,0,0,0,0,0,0,-1,811,722,0,0
-406,302,0,0,0,0,0,0,0,0,0,-1,818,722,0,0
-399,302,0,0,0,0,0,0,0,0,0,-1,825,722,0,0
-392,302,0,0,0,0,0,0,0,0,0,-1,832,722,0,0
-385,302,0,0,0,0,0,0,0,0,0,-1,839,722,0,0
-378,302,0,0,0,0,0,0,0,0,0,-1,846,722,0,0
-371,302,0,0,0,0,0,0,0,0,0,-1,853,722,0,0
-364,302,0,0,0,0,0,0,0,0,0,-1,860,722,0,0
-357,302,0,0,0,0,0,0,0,0,0,-1,867,722,0,0
-350,302,0,0,0,0,0,0,0,0,0,-1,874,722,0,0
-343,302,0,0,0,0,0,0,0,0,0,-1,881,722,0,0
-336,302,0,0,0,0,0,0,0,0,0,-1,888,722,0,0
-329,302,0,0,0,0,0,0,0,0,0,-1,895,722,0,0
-322,302,0,0,0,0,0,0,0,0,0,-1,902,722,0,0
-315,302,0,0,0,0,0,0,0,0,0,-1,909,722,0,0
-308,302,0,0,0,0,0,0,0,0,0,-1,916,722,0,0
-301,302,0,0,0,0,0,0,0,0,0,-1,923,722,0,0
-294,302,0,0,0,0,0,0,0,0,0,-1,930,722,0,0
-287,302,0,0,0,0,0,0,0,0,0,-1,937,722,0,0
-280,302,0,0,0,0,0,0,0,0,0,-1,944,722,0,0
-273,302,0,0,0,0,0,0,0,0,0,-1,951,722,0,0
-266,302,0,0,0,0,0,0,0,0,0,-1,958,722,0,0
-259,302,0,0,0,0,0,0,0,0,0,-1,965,722,0,0
-252,302,0,0,0,0,0,0,0,0,0,-1,972,722,0,0
-245,302,0,0,0,0,0,0,0,0,0,-1,979,722,0,0
-238,302,0,0,0,0,0,0,0,0,0,-1,986,722,0,0
-231,302,0,0,0,0,0,0,0,0,0,-1,993,722,0,0
-224,302,0,0,0,0,0,0,0,0,0,-1,1000,722,0,0
-217,302,0,0,0,0,0,0,0,0,0,-1,1007,722,0,0
-210,302,0,0,0,0,0,0,0,0,0,-1,1014,722,0,0
-203,302,0,0,0,0,0,0,0,0,0,-1,1021,722,0,0
-196,302,0,0,0,0,0,0,0,0,0,-1,1028,722,0,0
-189,302,0,0,0,0,0,0,0,0,0,-1,1035,722,0,0
-182,302,0,0,0,0,0,0,0,0,0,-1,1042,722,0,0
-175,302,0,0,0,0,0,0,0,0,0,-1,1049,722,0,0
-168,302,0,0,0,0,0,0,0,0,0,-1,1056,722,0,0
-161,302,0,0,0,0,0,0,0,0,0,-1,1063,722,0,0
-154,302,0,0,0,0,0,0,0,0,0,-1,1070,722,0,0
-147,302,0,0,0,0,0,0,0,0,0,-1,1077,722,0,0
-140,302,0,0,0,0,0,0,0,0,0,-1,1084,722,0,0
-133,302,0,0,0,0,0,0,0,0,0,-1,1091,722,0,0
-126,302,0,0,0,0,0,0,0,0,0,-1,1098,722,0,0
-119,302,0,0,0,0,0,0,0,0,0,-1,1105,722,0,0
-112,302,0,0,0,0,0,0,0,0,0,-1,1112,722,0,0
-105,302,0,0,0,0,0,0,0,0,0,-1,1119,722,0,0
-98,302,0,0,0,0,0,0,0,0,0,-1,1126,722,0,0
-91,302,0,0,0,0,0,0,0,0,0,-1,1133,722,0,0
-84,302,0,0,0,0,0,0,0,0,0,-1,1140,722,0,0
-77,302,0,0,0,0,0,0,0,0,0,-1,1147,722,0,0
-70,302,0,0,0,0,0,0,0,0,0,-1,1154,722,0,0
-63,302,0,0,0,0,0,0,0,0,0,-1,1161,722,0,0
-56,302,0,0,0,0,0,0,0,0,0,-1,1168,722,0,0
-49,302,0,0,0,0,0,0,0,0,0,-1,1175,722,0,0
-42,302,0,0,0,0,0,0,0,0,0,-1,1182,722,0,0
-35,302,0,0,0,0,0,0,0,0,0,-1,1189,722,0,0
-28,302,0,0,0,0,0,0,0,0,0,-1,1196,722,0,0
-21,302,0,0,0,0,0,0,0,0,0,-1,1203,722,0,0
-14,302,0,0,0,0,0,0,0,0,0,-1,1210,722,0,0
-7,302,0,0,0,0,0,0,0,0,0,-1,1217,722,0,0
0,302,0,0,0,0,0,0,0,0,0,-1,1224,722,0,0
7,302,0,0,0,0,0,0,0,0,0,-1,1231,722,0,0
14,302,0,0,0,0,0,0,0,0,0,-1,1238,722,0,0
21,302,0,0,0,0,0,0,0,0,0,-1,1245,722,0,0
28,302,0,0,0,0,0,0,0,0,0,-1,1252,722,0,0
35,302,0,0,0,0,0,0,0,0,0,-1,1259,722,0,0
42,302,0,0,0,0,0,0,0,0,0,-1,1266,722,0,0
49,302,0,0,0,0,0,0,0,0,0,-1,1273,722,0,0
56,302,0,0,0,0,0,0,0,0,0,-1,1280,722,0,0
63,302,0,0,0,0,0,0,0,0,0,-1,1287,722,0,0
70,302,0,0,0,0,0,0,0,0,0,-1,1294,722,0,0
77,302,0,0,0,0,0,0,0,0,0,-1,1301,722,0,0
84,302,0,0,0,0,0,0,0,0,0,-1,1308,722,0,0
91,302,0,0,0,0,0,0,0,0,0,-1,1315,722,0,0
98,302,0,0,0,0,0,0,0,0,0,-1,1322,722,0,0
105,302,0,0,0,0,0,0,0,0,0,-1,1329,722,0,0
112,302,0,0,0,0,0,0,0,0,0,-1,1336,722,0,0
119,302,0,0,0,0,0,0,0,0,0,-1,1343,722,0,0
126,302,0,0,0,0,0,0,0,0,0,-1,1350,722,0,0
133,302,0,0,0,0,0,0,0,0,0,-1,1357,722,0,0
140,302,0,0,0,0,0,0,0,0,0,-1,1364,722,0,0
147,302,0,0,0,0,0,0,0,0,0,-1,1371,722,0,0
154,302,0,0,0,0,0,0,0,0,0,-1,1378,722,0,0
161,302,0,0,0,0,0,0,0,0,0,-1,1385,722,0,0
168,302,0,0,0,0,0,0,0,0,0,-1,1392,722,0,0
175,302,0,0,0,0,0,0,0,0,0,-1,1399,722,0,0
182,302,0,0,0,0,0,0,0,0,0,-1,1406,722,0,0
189,302,0,0,0,0,0,0,0,0,0,-1,1413,722,0,0
196,302,0,0,0,0,0,0,0,0,0,-1,1420,722,0,0
203,302,0,0,0,0,0,0,0,0,0,-1,1427,722,0,0
210,302,0,0,0,0,0,0,0,0,0,-1,1434,722,0,0
217,302,0,0,0,0,0,0,0,0,0,-1,1441,722,0,0
224,302,0,0,0,0,0,0,0,0,0,-1,1448,722,0,0
231,302,0,0,0,0,0,0,0,0,0,-1,1455,722,0,0
238,302,0,0,0,0,0,0,0,0,0,-1,1462,722,0,0
245,302,0,0,0,0,0,0,0,0,0,-1,1469,722,0,0
252,302,0,0,0,0,0,0,0,0,0,-1,1476,722,0,0
259,302,0,0,0,0,0,0,0,0,0,-1,1483,722,0,0
266,302,0,0,0,0,0,0,0,0,0,-1,1490,722,0,0
273,302,0,0,0,0,0,0,0,0,0,-1,1497,722,0,0
280,302,0,0,0,0,0,0,0,0,0,-1,1504,722,0,0
287,302,0,0,0,0,0,0,0,0,0,-1,1511,722,0,0
294,302,0,0,0,0,0,0,0,0,0,-1,1518,722,0,0
301,302,0,0,0,0,0,0,0,0,0,-1,1525,722,0,0
308,302,0,0,0,0,0,0,0,0,0,-1,1532,722,0,0
315,302,0,0,0,0,0,0,0,0,0,-1,1539,722,0,0
322,302,0,0,0,0,0,0,0,0,0,-1,1546,722,0,0
329,302,0,0,0,0,0,0,0,0,0,-1,1553,722,0,0
336,302,0,0,0,0,0,0,0,0,0,-1,1560,722,0,0
343,302,0,0,0,0,0,0,0,0,0,-1,1567,722,0,0
350,302,0,0,0,0,0,0,0,0,0,-1,1574,722,0,0
357,302,0,0,0,0,0,0,0,0,0,-1,1581,722,0,0
364,302,0,0,0,0,0,0,0,0,0,-1,1588,722,0,0
371,302,0,0,0,0,0,0,0,0,0,-1,1595,722,0,0
378,302,0,0,0,0,0,0,0,0,0,-1,1602,722,0,0
385,302,0,0,0,0,0,0,0,0,0,-1,1609,722,0,0
392,302,0,0,0,0,0,0,0,0,0,-1,1616,722,0,0
399,302,0,0,0,0,0,0,0,0,0,-1,1623,722,0,0
406,302,0,0,0,0,0,0,0,0,0,-1,1630,722,0,0
413,302,0,0,0,0,0,0,0,0,0,-1,1637,722,0,0
420,302,0,0,0,0,0,0,0,0,0,-1,1644,722,0,0
427,302,0,0,0,0,0,0,0,0,0,-1,1651,722,0,0
434,302,0,0,0,0,0,0,0,0,0,-1,1658,722,0,0
441,302,0,0,0,0,0,0,0,0,0,-1,1665,722,0,0
448,302,0,0,0,0,0,0,0,0,0,-1,1672,722,0,0
455,302,0,0,0,0,0,0,0,0,0,-1,1679,722,0,0
462,302,0,0,0,0,0,0,0,0,0,-1,1686,722,0,0
469,302,0,0,0,0,0,0,0,0,0,-1,1693,722,0,0
476,302,0,0,0,0,0,0,0,0,0,-1,1700,722,0,0
483,302,0,0,0,0,0,0,0,0,0,-1,1707,722,0,0
490,302,0,0,0,0,0,0,0,0,0,-1,1714,722,0,0
497,302,0,0,0,0,0,0,0,0,0,-1,1721,722,0,0
504,302,0,0,0,0,0,0,0,0,0,-1,1728,722,0,0
511,302,0,0,0,0,0,0,0,0,0,-1,1735,722,0,0
518,302,0,0,0,0,0,0,0,0,0,-1,1742,722,0,0
525,302,0,0,0,0,0,0,0,0,0,-1,1749,722,0,0
532,302,0,0,0,0,0,0,0,0,0,-1,1756,722,0,0
539,302,0,0,0,0,0,0,0,0,0,-1,1763,722,0,0
546,302,13.4829,1.59705,0,0,0,0,0,0,0,-1,1770,722,13.4829,-1.59702
553,302,15.3267,1.4986,0,0,0,0,0,0,0,-1,1777,722,15.3266,-1.49857
560,302,15.8514,2.08746,0,0,0,0,0,0,0,-1,1784,722,15.8514,-2.08746
567,302,15.0665,1.75598,0,0,0,0,0,0,0,-1,1791,722,15.0666,-1.756
574,302,13.6384,0.117371,0,0,0,0,0,0,0,-1,1798,722,13.6384,-0.117372
581,302,13.6143,0.050293,0,0,0,0,0,0,0,-1,1805,722,13.6143,-0.0502943
588,302,13.4319,0.27179,0,0,0,0,0,0,0,-1,1812,722,13.4319,-0.271809
595,302,13.0282,1.2948,0,0,0,0,0,0,0,-1,1819,722,13.0282,-1.29482
602,302,12.8401,2.16803,0,0,0,0,0,0,0,-1,1826,722,12.8401,-2.16801
609,302,9.44836,-0.267151,0,0,0,0,0,0,0,-1,1833,722,9.44841,0.267129
616,302,9.32898,-0.0761108,-0.00758373,0.00420609,-0.000929274,0.00427888,-0.00765653,-1.49262,0.00698228,0.0431622,1840,722,9.32897,0.0761243
623,302,9.2196,0.123657,-0.00541805,0.00403445,-0.00238707,0.00460306,-0.00598666,-1.33695,0.00613135,0.014173,1847,722,9.21956,-0.123677
630,302,9.17896,0.310669,-0.00409843,0.00259889,-0.00223467,0.00327605,-0.0047756,-1.27656,0.00467542,0.0110391,1854,722,9.17895,-0.310652
637,302,9.15271,0.486206,-0.00292971,0.00140781,-0.00189842,0.00212132,-0.00364322,-1.21128,0.0033666,0.0145755,1861,722,9.15271,-0.486194
644,302,9.18262,0.64563,-0.0018245,0.000757094,-0.00152964,0.00146779,-0.0025352,-1.13586,0.00233835,0.0155981,1868,722,9.18263,-0.645635
651,302,9.20996,0.813538,-0.000544477,0.000160896,-0.00123726,0.00109476,-0.00147834,-0.924243,0.00149107,0.0137047,1875,722,9.20995,-0.813557
658,302,9.2146,0.970337,0.000969998,-8.68898e-05,-0.000690628,0.00131116,-0.000428055,-0.45883,0.0010464,0.0136037,1882,722,9.21457,-0.970352
665,302,9.19751,1.12952,0.00209964,0.000178215,-0.000173499,0.00211518,0.000162674,-0.0893339,0.00135915,0.0135977,1889,722,9.19752,-1.1295
672,302,9.20276,1.28418,0.0033709,0.00031216,0.000820372,0.00357703,0.000106023,0.246176,0.00235015,0.0118672,1896,722,9.20271,-1.28416
679,302,9.18347,1.4519,0.00518398,0.000731224,0.00182766,0.00583807,7.71335e-05,0.343681,0.00386659,0.00948648,1903,722,9.18349,-1.45192
686,302,9.20508,1.60333,0.00766655,0.000959355,0.00302289,0.00882787,-0.000201964,0.36679,0.00595371,0.0122018,1910,722,9.20505,-1.60331
693,302,9.13025,1.68164,0.0110905,0.000884179,0.00460993,0.0128644,-0.000889698,0.36733,0.0088877,0.0242442,1917,722,9.13021,-1.68166
700,302,9.57043,1.63556,0.0159449,0.000194498,0.00689889,0.0185393,-0.00239995,0.359706,0.0132323,0.0438729,1924,722,9.57046,-1.63556
707,302,10.208,2.20319,0.0217914,-0.000801568,0.00999066,0.0255755,-0.00458566,0.362066,0.0187666,0.0479155,1931,722,10.208,-2.20318
714,302,10.6995,2.62274,0.0294527,-0.002999,0.0138399,0.0345534,-0.0080997,0.353104,0.0261569,0.0433889,1938,722,10.6995,-2.62271
721,302,10.4805,3.1759,0.0395413,-0.00712352,0.0184853,0.0459765,-0.0135587,0.335002,0.0360312,0.0435314,1945,722,10.4805,-3.17589
728,302,10.1989,3.56274,0,0,0,0,0,0,0,-1,1952,722,10.1989,-3.56276
735,302,0,0,0,0,0,0,0,0,0,-1,1959,722,0,0
742,302,0,0,0,0,0,0,0,0,0,-1,1966,722,0,0
749,302,0,0,0,0,0,0,0,0,0,-1,1973,722,0,0
756,302,0,0,0,0,0,0,0,0,0,-1,1980,722,0,0
763,302,0,0,0,0,0,0,0,0,0,-1,1987,722,0,0
770,302,0,0,0,0,0,0,0,0,0,-1,1994,722,0,0
777,302,0,0,0,0,0,0,0,0,0,-1,2001,722,0,0
784,302,0,0,0,0,0,0,0,0,0,-1,2008,722,0,0
791,302,0,0,0,0,0,0,0,0,0,-1,2015,722,0,0
798,302,0,0,0,0,0,0,0,0,0,-1,2022,722,0,0
805,302,0,0,0,0,0,0,0,0,0,-1,2029,722,0,0
812,302,0,0,0,0,0,0,0,0,0,-1,2036,722,0,0
-700,295,0,0,0,0,0,0,0,0,0,-1,524,729,0,0
-693,295,0,0,0,0,0,0,0,0,0,-1,531,729,0,0
-686,295,0,0,0,0,0,0,0,0,0,-1,538,729,0,0
-679,295,0,0,0,0,0,0,0,0,0,-1,545,729,0,0
-672,295,0,0,0,0,0,0,0,0,0,-1,552,729,0,0
-665,295,0,0,0,0,0,0,0,0,0,-1,559,729,0,0
-658,295,0,0,0,0,0,0,0,0,0,-1,566,729,0,0
-651,295,0,0,0,0,0,0,0,0,0,-1,573,729,0,0
-644,295,0,0,0,0,0,0,0,0,0,-1,580,729,0,0
-637,295,0,0,0,0,0,0,0,0,0,-1,587,729,0,0
-630,295,0,0,0,0,0,0,0,0,0,-1,594,729,0,0
-623,295,0,0,0,0,0,0,0,0,0,-1,601,729,0,0
-616,295,-7.23132,0.131592,0,0,0,0,0,0,0,-1,608,729,-7.23135,-0.131581
-609,295,-2.37451,-1.89069,0,0,0,0,0,0,0,-1,615,729,-2.37453,1.89069
-602,295,-2.64081,-1.26917,0,0,0,0,0,0,0,-1,622,729,-2.64078,1.26915
-595,295,-5.75342,-0.806458,0,0,0,0,0,0,0,-1,629,729,-5.75339,0.806487
-588,295,-5.02484,-0.677368,0,0,0,0,0,0,0,-1,636,729,-5.02482,0.677398
-581,295,-3.1709,-0.0585938,0,0,0,0,0,0,0,-1,643,729,-3.17087,0.0585913
-574,295,-3.87463,0.385193,0,0,0,0,0,0,0,-1,650,729,-3.87462,-0.385188
-567,295,-4.37744,0.0336914,-0.00832263,-0.0112418,0.00282252,-0.00660462,-0.0129598,0.546776,0.00748279,0.0393202,657,729,-4.37747,-0.0337
-560,295,-4.56793,-0.0806885,-0.00687064,-0.00711784,0.00269093,-0.00430047,-0.00968801,0.762448,0.0056051,0.0206337,664,729,-4.56794,0.0806785
-553,295,-4.59119,-0.22522,-0.00538676,-0.00457093,0.00297334,-0.00197766,-0.00798003,0.853568,0.00479863,0.0155509,671,729,-4.59121,0.225244
-546,295,-4.59814,-0.331421,-0.00380459,-0.0028546,0.00303619,-0.000256472,-0.00640272,0.862992,0.00418561,0.019704,678,729,-4.59814,0.331441
-539,295,-4.59985,-0.443665,-0.0022503,-0.00132765,0.00228856,0.000545618,-0.00412357,0.884855,0.0029478,0.0176559,685,729,-4.59985,0.443665
-532,295,-4.65289,-0.596985,-0.000678216,-0.000474974,0.00247144,0.00189694,-0.00305013,0.805946,0.00288194,0.0155473,692,729,-4.6529,0.59697
-525,295,-4.63654,-0.746826,-3.8492e-06,0.000429762,0.00353148,0.00375109,-0.00332518,0.816056,0.00408795,0.0145132,699,729,-4.63656,0.746822
-518,295,-4.60803,-0.898193,0.000127575,0.000644249,0.00432868,0.0047223,-0.00395047,0.815203,0.00501383,0.00997121,706,729,-4.60805,0.898192
-511,295,-4.60083,-1.0379,0.000161833,0.00107096,0.00537334,0.00600893,-0.00477614,0.827596,0.00624031,0.0077015,713,729,-4.60083,1.03789
-504,295,-4.60199,-1.1933,-0.000679845,0.000943066,0.00663205,0.00681312,-0.0065499,0.846272,0.00771564,0.00988472,720,729,-4.60197,1.19327
-497,295,-4.59967,-1.32831,-0.0023055,0.000459536,0.00783347,0.00703155,-0.00887752,0.872743,0.00920569,0.0141705,727,729,-4.59967,1.32828
-490,295,-4.43671,-1.25342,-0.00468126,-0.000214105,0.008837,0.00666722,-0.0115626,0.909182,0.0106507,0.0369682,734,729,-4.43668,1.25341
-483,295,-4.16541,-0.892944,0,0,0,0,0,0,0,-1,741,729,-4.16538,0.892938
-476,295,-5.2948,-1.51331,0,0,0,0,0,0,0,-1,748,729,-5.29483,1.51328
-469,295,-8.01422,-0.246277,0,0,0,0,0,0,0,-1,755,729,-8.01419,0.246264
-462,295,-8.51593,0.00292969,0,0,0,0,0,0,0,-1,762,729,-8.51594,-0.0029088
-455,295,-9.21576,0.487,0,0,0,0,0,0,0,-1,769,729,-9.21575,-0.486971
-448,295,-9.0495,0.712891,0,0,0,0,0,0,0,-1,776,729,-9.04947,-0.712888
-441,295,-9.08978,0.770386,0,0,0,0,0,0,0,-1,783,729,-9.0898,-0.770408
-434,295,-0.990417,3.5564,0,0,0,0,0,0,0,-1,790,729,-0.990417,-3.55639
-427,295,0,0,0,0,0,0,0,0,0,-1,797,729,0,0
-420,295,0,0,0,0,0,0,0,0,0,-1,804,729,0,0
-413,295,0,0,0,0,0,0,0,0,0,-1,811,729,0,0
-406,295,0,0,0,0,0,0,0,0,0,-1,818,729,0,0
-399,295,0,0,0,0,0,0,0,0,0,-1,825,729,0,0
-392,295,0,0,0,0,0,0,0,0,0,-1,832,729,0,0
-385,295,0,0,0,0,0,0,0,0,0,-1,839,729,0,0
-378,295,0,0,0,0,0,0,0,0,0,-1,846,729,0,0
-371,295,0,0,0,0,0,0,0,0,0,-1,853,729,0,0
-364,295,0,0,0,0,0,0,0,0,0,-1,860,729,0,0
-357,295,0,0,0,0,0,0,0,0,0,-1,867,729,0,0
-350,295,0,0,0,0,0,0,0,0,0,-1,874,729,0,0
-343,295,0,0,0,0,0,0,0,0,0,-1,881,729,0,0
-336,295,0,0,0,0,0,0,0,0,0,-1,888,729,0,0
-329,295,0,0,0,0,0,0,0,0,0,-1,895,729,0,0
-322,295,0,0,0,0,0,0,0,0,0,-1,902,729,0,0
-315,295,0,0,0,0,0,0,0,0,0,-1,909,729,0,0
-308,295,0,0,0,0,0,0,0,0,0,-1,916,729,0,0
-301,295,0,0,0,0,0,0,0,0,0,-1,923,729,0,0
-294,295,0,0,0,0,0,0,0,0,0,-1,930,729,0,0
-287,295,0,0,0,0,0,0,0,0,0,-1,937,729,0,0
-280,295,0,0,0,0,0,0,0,0,0,-1,944,729,0,0
-273,295,0,0,0,0,0,0,0,0,0,-1,951,729,0,0
-266,295,0,0,0,0,0,0,0,0,0,-1,958,729,0,0
-259,295,0,0,0,0,0,0,0,0,0,-1,965,729,0,0
-252,295,0,0,0,0,0,0,0,0,0,-1,972,729,0,0
-245,295,0,0,0,0,0,0,0,0,0,-1,979,729,0,0
-238,295,0,0,0,0,0,0,0,0,0,-1,986,729,0,0
-231,295,0,0,0,0,0,0,0,0,0,-1,993,729,0,0
-224,295,0,0,0,0,0,0,0,0,0,-1,1000,729,0,0
-217,295,0,0,0,0,0,0,0,0,0,-1,1007,729,0,0
-210,295,0,0,0,0,0,0,0,0,0,-1,1014,729,0,0
-203,295,0,0,0,0,0,0,0,0,0,-1,1021,729,0,0
-196,295,0,0,0,0,0,0,0,0,0,-1,1028,729,0,0
-189,295,0,0,0,0,0,0,0,0,0,-1,1035,729,0,0
-182,295,0,0,0,0,0,0,0,0,0,-1,1042,729,0,0
-175,295,0,0,0,0,0,0,0,0,0,-1,1049,729,0,0
-168,295,0,0,0,0,0,0,0,0,0,-1,1056,729,0,0
-161,295,0,0,0,0,0,0,0,0,0,-1,1063,729,0,0
-154,295,0,0,0,0,0,0,0,0,0,-1,1070,729,0,0
-147,295,0,0,0,0,0,0,0,0,0,-1,1077,729,0,0
-140,295,0,0,0,0,0,0,0,0,0,-1,1084,729,0,0
-133,295,0,0,0,0,0,0,0,0,0,-1,1091,729,0,0
-126,295,0,0,0,0,0,0,0,0,0,-1,1098,729,0,0
-119,295,0,0,0,0,0,0,0,0,0,-1,1105,729,0,0
-112,295,0,0,0,0,0,0,0,0,0,-1,1112,729,0,0
-105,295,0,0,0,0,0,0,0,0,0,-1,1119,729,0,0
-98,295,0,0,0,0,0,0,0,0,0,-1,1126,729,0,0
-91,295,0,0,0,0,0,0,0,0,0,-1,1133,729,0,0
-84,295,0,0,0,0,0,0,0,0,0,-1,1140,729,0,0
-77,295,0,0,0,0,0,0,0,0,0,-1,1147,729,0,0
-70,295,0,0,0,0,0,0,0,0,0,-1,1154,729,0,0
-63,295,0,0,0,0,0,0,0,0,0,-1,1161,729,0,0
-56,295,0,0,0,0,0,0,0,0,0,-1,1168,729,0,0
-49,295,0,0,0,0,0,0,0,0,0,-1,1175,729,0,0
-42,295,0,0,0,0,0,0,0,0,0,-1,1182,729,0,0
-35,295,0,0,0,0,0,0,0,0,0,-1,1189,729,0,0
-28,295,0,0,0,0,0,0,0,0,0,-1,1196,729,0,0
-21,295,0,0,0,0,0,0,0,0,0,-1,1203,729,0,0
-14,295,0,0,0,0,0,0,0,0,0,-1,1210,729,0,0
-7,295,0,0,0,0,0,0,0,0,0,-1,1217,729,0,0
0,295,0,0,0,0,0,0,0,0,0,-1,1224,729,0,0
7,295,0,0,0,0,0,0,0,0,0,-1,1231,729,0,0
14,295,0,0,0,0,0,0,0,0,0,-1,1238,729,0,0
21,295,0,0,0,0,0,0,0,0,0,-1,1245,729,0,0
28,295,0,0,0,0,0,0,0,0,0,-1,1252,729,0,0
35,295,0,0,0,0,0,0,0,0,0,-1,1259,729,0,0
42,295,0,0,0,0,0,0,0,0,0,-1,1266,729,0,0
49,295,0,0,0,0,0,0,0,0,0,-1,1273,729,0,0
56,295,0,0,0,0,0,0,0,0,0,-1,1280,729,0,0
63,295,0,0,0,0,0,0,0,0,0,-1,1287,729,0,0
70,295,0,0,0,0,0,0,0,0,0,-1,1294,729,0,0
77,295,0,0,0,0,0,0,0,0,0,-1,1301,729,0,0
84,295,0,0,0,0,0,0,0,0,0,-1,1308,729,0,0
91,295,0,0,0,0,0,0,0,0,0,-1,1315,729,0,0
98,295,0,0,0,0,0,0,0,0,0,-1,1322,729,0,0
105,295,0,0,0,0,0,0,0,0,0,-1,1329,729,0,0
112,295,0,0,0,0,0,0,0,0,0,-1,1336,729,0,0
119,295,0,0,0,0,0,0,0,0,0,-1,1343,729,0,0
126,295,0,0,0,0,0,0,0,0,0,-1,1350,729,0,0
133,295,0,0,0,0,0,0,0,0,0,-1,1357,729,0,0
140,295,0,0,0,0,0,0,0,0,0,-1,1364,729,0,0
147,295,0,0,0,0,0,0,0,0,0,-1,1371,729,0,0
154,295,0,0,0,0,0,0,0,0,0,-1,1378,729,0,0
161,295,0,0,0,0,0,0,0,0,0,-1,1385,729,0,0
168,295,0,0,0,0,0,0,0,0,0,-1,1392,729,0,0
175,295,0,0,0,0,0,0,0,0,0,-1,1399,729,0,0
182,295,0,0,0,0,0,0,0,0,0,-1,1406,729,0,0
189,295,0,0,0,0,0,0,0,0,0,-1,1413,729,0,0
196,295,0,0,0,0,0,0,0,0,0,-1,1420,729,0,0
203,295,0,0,0,0,0,0,0,0,0,-1,1427,729,0,0
210,295,0,0,0,0,0,0,0,0,0,-1,1434,729,0,0
217,295,0,0,0,0,0,0,0,0,0,-1,1441,729,0,0
224,295,0,0,0,0,0,0,0,0,0,-1,1448,729,0,0
231,295,0,0,0,0,0,0,0,0,0,-1,1455,729,0,0
238,295,0,0,0,0,0,0,0,0,0,-1,1462,729,0,0
245,295,0,0,0,0,0,0,0,0,0,-1,1469,729,0,0
252,295,0,0,0,0,0,0,0,0,0,-1,1476,729,0,0
259,295,0,0,0,0,0,0,0,0,0,-1,1483,729,0,0
266,295,0,0,0,0,0,0,0,0,0,-1,1490,729,0,0
273,295,0,0,0,0,0,0,0,0,0,-1,1497,729,0,0
280,295,0,0,0,0,0,0,0,0,0,-1,1504,729,0,0
287,295,0,0,0,0,0,0,0,0,0,-1,1511,729,0,0
294,295,0,0,0,0,0,0,0,0,0,-1,1518,729,0,0
301,295,0,0,0,0,0,0,0,0,0,-1,1525,729,0,0
308,295,0,0,0,0,0,0,0,0,0,-1,1532,729,0,0
315,295,0,0,0,0,0,0,0,0,0,-1,1539,729,0,0
322,295,0,0,0,0,0,0,0,0,0,-1,1546,729,0,0
329,295,0,0,0,0,0,0,0,0,0,-1,1553,729,0,0
336,295,0,0,0,0,0,0,0,0,0,-1,1560,729,0,0
343,295,0,0,0,0,0,0,0,0,0,-1,1567,729,0,0
350,295,0,0,0,0,0,0,0,0,0,-1,1574,729,0,0
357,295,0,0,0,0,0,0,0,0,0,-1,1581,729,0,0
364,295,0,0,0,0,0,0,0,0,0,-1,1588,729,0,0
371,295,0,0,0,0,0,0,0,0,0,-1,1595,729,0,0
378,295,0,0,0,0,0,0,0,0,0,-1,1602,729,0,0
385,295,0,0,0,0,0,0,0,0,0,-1,1609,729,0,0
392,295,0,0,0,0,0,0,0,0,0,-1,1616,729,0,0
399,295,0,0,0,0,0,0,0,0,0,-1,1623,729,0,0
406,295,0,0,0,0,0,0,0,0,0,-1,1630,729,0,0
413,295,0,0,0,0,0,0,0,0,0,-1,1637,729,0,0
420,295,0,0,0,0,0,0,0,0,0,-1,1644,729,0,0
427,295,0,0,0,0,0,0,0,0,0,-1,1651,729,0,0
434,295,0,0,0,0,0,0,0,0,0,-1,1658,729,0,0
441,295,0,0,0,0,0,0,0,0,0,-1,1665,729,0,0
448,295,0,0,0,0,0,0,0,0,0,-1,1672,729,0,0
455,295,0,0,0,0,0,0,0,0,0,-1,1679,729,0,0
462,295,0,0,0,0,0,0,0,0,0,-1,1686,729,0,0
469,295,0,0,0,0,0,0,0,0,0,-1,1693,729,0,0
476,295,0,0,0,0,0,0,0,0,0,-1,1700,729,0,0
483,295,0,0,0,0,0,0,0,0,0,-1,1707,729,0,0
490,295,0,0,0,0,0,0,0,0,0,-1,1714,729,0,0
497,295,0,0,0,0,0,0,0,0,0,-1,1721,729,0,0
504,295,0,0,0,0,0,0,0,0,0,-1,1728,729,0,0
511,295,0,0,0,0,0,0,0,0,0,-1,1735,729,0,0
518,295,0,0,0,0,0,0,0,0,0,-1,1742,729,0,0
525,295,0,0,0,0,0,0,0,0,0,-1,1749,729,0,0
532,295,0,0,0,0,0,0,0,0,0,-1,1756,729,0,0
539,295,0,0,0,0,0,0,0,0,0,-1,1763,729,0,0
546,295,14.8772,1.11255,0,0,0,0,0,0,0,-1,1770,729,14.8772,-1.11252
553,295,15.0607,1.60791,0,0,0,0,0,0,0,-1,1777,729,15.0607,-1.60792
560,295,15.1089,2.19104,-0.0273154,-0.00782362,0.0372463,0.0209307,-0.0560697,0.91336,0.0459734,0.045141,1784,729,15.1089,-2.19106
567,295,14.6052,2.1637,-0.0234734,-0.00567855,0.0286146,0.01539,-0.044542,0.93613,0.0359403,0.0458918,1791,729,14.6052,-2.16372
574,295,14.5129,1.92023,0,0,0,0,0,0,0,-1,1798,729,14.5129,-1.92023
581,295,13.3602,0.307495,0,0,0,0,0,0,0,-1,1805,729,13.3602,-0.307504
588,295,13.472,0.465393,0,0,0,0,0,0,0,-1,1812,729,13.4721,-0.4654
595,295,13.6716,1.13251,0,0,0,0,0,0,0,-1,1819,729,13.6717,-1.13248
602,295,14.7317,0.359619,0,0,0,0,0,0,0,-1,1826,729,14.7317,-0.35963
609,295,11.7737,2.19989,0,0,0,0,0,0,0,-1,1833,729,11.7736,-2.19988
616,295,9.35889,-0.0427246,0,0,0,0,0,0,0,-1,1840,729,9.35892,0.0427472
623,295,9.354,0.142517,-0.00651494,0.00646785,-0.00306585,0.00715543,-0.00720251,-1.35018,0.00828957,0.0267272,1847,729,9.35402,-0.142541
630,295,9.35022,0.316467,-0.00530692,0.00461114,-0.0029691,0.00543203,-0.00612781,-1.30106,0.00667811,0.0117219,1854,729,9.35019,-0.316478
637,295,9.33398,0.48584,-0.00412185,0.00282896,-0.0025891,0.00368736,-0.00498025,-1.25066,0.00502277,0.0133159,1861,729,9.33401,-0.485838
644,295,9.34216,0.659119,-0.00286615,0.00167022,-0.00204298,0.00245464,-0.00365058,-1.20419,0.00354732,0.013004,1868,729,9.34213,-0.659117
651,295,9.34009,0.822876,-0.00144555,0.000719428,-0.00157081,0.00154462,-0.00227074,-1.08709,0.00221605,0.0125193,1875,729,9.34004,-0.822872
658,295,9.32849,0.964539,0.000230755,0.000249982,-0.000926127,0.00116654,-0.000685808,-0.790588,0.0010814,0.0117509,1882,729,9.32855,-0.964536
665,295,9.33215,1.11658,0.00131669,0.000190733,-0.000297541,0.00139048,0.000116942,-0.243098,0.00089057,0.0112194,1889,729,9.33217,-1.11657
672,295,9.34253,1.28284,0.00234871,0.000243852,0.000596398,0.00250595,8.6613e-05,0.257782,0.00164253,0.013159,1896,729,9.3425,-1.28283
679,295,9.33618,1.46313,0.00390594,0.000668768,0.00148648,0.00448495,8.97539e-05,0.371439,0.0029605,0.0100378,1903,729,9.33624,-1.46314
686,295,9.35046,1.59729,0.00623073,0.000676118,0.00242542,0.00714071,-0.000233862,0.358933,0.00484031,0.00940866,1910,729,9.35048,-1.5973
693,295,9.36426,1.71686,0.00964957,0.000195825,0.00349535,0.0108015,-0.000956144,0.318362,0.00753998,0.0184637,1917,729,9.3643,-1.71683
700,295,9.40308,1.85876,0.0146927,-0.00122701,0.00501734,0.0161421,-0.00267635,0.281212,0.0117555,0.0339486,1924,729,9.40311,-1.85879
707,295,9.87805,2.08197,0.0210231,-0.003421,0.00696478,0.0228683,-0.00526617,0.258979,0.0172706,0.0429084,1931,729,9.8781,-2.08195
714,295,8.30481,3.26721,0,0,0,0,0,0,0,-1,1938,729,8.30483,-3.26721
721,295,10.2695,2.87933,0,0,0,0,0,0,0,-1,1945,729,10.2695,-2.87932
728,295,9.5824,3.05652,0,0,0,0,0,0,0,-1,1952,729,9.58244,-3.05652
735,295,0,0,0,0,0,0,0,0,0,-1,1959,729,0,0
742,295,0,0,0,0,0,0,0,0,0,-1,1966,729,0,0
749,295,0,0,0,0,0,0,0,0,0,-1,1973,729,0,0
756,295,0,0,0,0,0,0,0,0,0,-1,1980,729,0,0
763,295,0,0,0,0,0,0,0,0,0,-1,1987,729,0,0
770,295,0,0,0,0,0,0,0,0,0,-1,1994,729,0,0
777,295,0,0,0,0,0,0,0,0,0,-1,2001,729,0,0
784,295,0,0,0,0,0,0,0,0,0,-1,2008,729,0,0
791,295,0,0,0,0,0,0,0,0,0,-1,2015,729,0,0
798,295,0,0,0,0,0,0,0,0,0,-1,2022,729,0,0
805,295,0,0,0,0,0,0,0,0,0,-1,2029,729,0,0
812,295,0,0,0,0,0,0,0,0,0,-1,2036,729,0,0
-700,288,0,0,0,0,0,0,0,0,0,-1,524,736,0,0
-693,288,0,0,0,0,0,0,0,0,0,-1,531,736,0,0
-686,288,0,0,0,0,0,0,0,0,0,-1,538,736,0,0
-679,288,0,0,0,0,0,0,0,0,0,-1,545,736,0,0
-672,288,0,0,0,0,0,0,0,0,0,-1,552,736,0,0
-665,288,0,0,0,0,0,0,0,0,0,-1,559,736,0,0
-658,288,0,0,0,0,0,0,0,0,0,-1,566,736,0,0
-651,288,0,0,0,0,0,0,0,0,0,-1,573,736,0,0
-644,288,0,0,0,0,0,0,0,0,0,-1,580,736,0,0
-637,288,0,0,0,0,0,0,0,0,0,-1,587,736,0,0
-630,288,0,0,0,0,0,0,0,0,0,-1,594,736,0,0
-623,288,0,0,0,0,0,0,0,0,0,-1,601,736,0,0
-616,288,-7.82233,-0.161316,0,0,0,0,0,0,0,-1,608,736,-7.8223,0.161343
-609,288,-4.55939,2.51093,0,0,0,0,0,0,0,-1,615,736,-4.55941,-2.51091
-602,288,-4.9231,1.9519,0,0,0,0,0,0,0,-1,622,736,-4.92308,-1.9519
-595,288,-6.20502,-0.641907,0,0,0,0,0,0,0,-1,629,736,-6.20502,0.641912
-588,288,-5.69635,-0.391235,0,0,0,0,0,0,0,-1,636,736,-5.69636,0.391218
-581,288,-5.15741,-0.251404,-0.00721839,-0.0189665,-0.00141487,-0.00705039,-0.0191345,-0.118183,0.011174,0.047525,643,736,-5.15741,0.251391
-574,288,-4.5871,0.0882568,-0.00648994,-0.0135446,-4.07801e-05,-0.0064897,-0.0135448,-0.00578036,0.00782237,0.0357403,650,736,-4.58709,-0.0882586
-567,288,-4.6369,0.0130005,-0.00592301,-0.00892198,0.000840962,-0.00570328,-0.0091417,0.255561,0.00533168,0.021448,657,736,-4.63692,-0.0129971
-560,288,-4.75513,-0.0774536,-0.00519746,-0.00565752,0.00134006,-0.00406784,-0.00678715,0.700398,0.00394426,0.0121396,664,736,-4.75513,0.0774622
-553,288,-4.7085,-0.233704,-0.00420406,-0.00377987,0.00208632,-0.00189489,-0.00608904,0.836054,0.00359808,0.0169259,671,736,-4.70848,0.233694
-546,288,-4.71039,-0.359192,-0.00290417,-0.00256779,0.00265137,-7.92767e-05,-0.00539268,0.817073,0.00356899,0.0183381,678,736,-4.71038,0.359173
-539,288,-4.74371,-0.475342,-0.00141751,-0.00116213,0.00230672,0.00102042,-0.00360007,0.813047,0.00280281,0.0157606,685,736,-4.74369,0.475324
-532,288,-4.74341,-0.61969,0.000196969,-0.000166801,0.00291278,0.00293354,-0.00290337,0.754217,0.00336996,0.0122368,692,736,-4.74343,0.61966
-525,288,-4.73706,-0.763611,0.000788506,0.00111786,0.00417207,0.0051285,-0.00322214,0.805123,0.00486294,0.0116192,699,736,-4.73709,0.763633
-518,288,-4.73883,-0.90686,0.000685991,0.00170164,0.00507578,0.00629494,-0.00390731,0.835256,0.0059438,0.0109274,706,736,-4.73883,0.906866
-511,288,-4.74426,-1.05365,0.000524427,0.00258159,0.0061876,0.00782552,-0.00471951,0.867761,0.0073165,0.00792574,713,736,-4.74424,1.05363
-504,288,-4.74384,-1.20734,-0.000541103,0.00295639,0.00736512,0.00877753,-0.00636224,0.901958,0.00877794,0.0102959,720,736,-4.74384,1.20735
-497,288,-4.70898,-1.30121,-0.00256553,0.00301786,0.00847423,0.00914839,-0.00869607,0.944516,0.0103036,0.0195567,727,736,-4.70896,1.30118
-490,288,-4.5907,-0.863342,-0.00565875,0.002814,0.00923566,0.00873855,-0.0115833,1.00043,0.0117711,0.046285,734,736,-4.59067,0.863354
-483,288,-4.39374,-1.1651,0,0,0,0,0,0,0,-1,741,736,-4.39375,1.16512
-476,288,-7.66425,0.320068,0,0,0,0,0,0,0,-1,748,736,-7.66423,-0.320096
-469,288,-8.23486,0.344727,0,0,0,0,0,0,0,-1,755,736,-8.23485,-0.344749
-462,288,-8.8031,0.56427,0,0,0,0,0,0,0,-1,762,736,-8.80311,-0.564257
-455,288,-9.31421,0.699341,0,0,0,0,0,0,0,-1,769,736,-9.31419,-0.699359
-448,288,-9.22833,0.621948,0,0,0,0,0,0,0,-1,776,736,-9.22832,-0.621963
-441,288,-9.26141,0.691956,0,0,0,0,0,0,0,-1,783,736,-9.26142,-0.691973
-434,288,-9.31873,0.718201,0,0,0,0,0,0,0,-1,790,736,-9.31875,-0.718188
-427,288,0,0,0,0,0,0,0,0,0,-1,797,736,0,0
-420,288,0,0,0,0,0,0,0,0,0,-1,804,736,0,0
-413,288,0,0,0,0,0,0,0,0,0,-1,811,736,0,0
-406,288,0,0,0,0,0,0,0,0,0,-1,818,736,0,0
-399,288,0,0,0,0,0,0,0,0,0,-1,825,736,0,0
-392,288,0,0,0,0,0,0,0,0,0,-1,832,736,0,0
-385,288,0,0,0,0,0,0,0,0,0,-1,839,736,0,0
-378,288,0,0,0,0,0,0,0,0,0,-1,846,736,0,0
-371,288,0,0,0,0,0,0,0,0,0,-1,853,736,0,0
-364,288,0,0,0,0,0,0,0,0,0,-1,860,736,0,0
-357,288,0,0,0,0,0,0,0,0,0,-1,867,736,0,0
-350,288,0,0,0,0,0,0,0,0,0,-1,874,736,0,0
-343,288,0,0,0,0,0,0,0,0,0,-1,881,736,0,0
-336,288,0,0,0,0,0,0,0,0,0,-1,888,736,0,0
-329,288,0,0,0,0,0,0,0,0,0,-1,895,736,0,0
-322,288,0,0,0,0,0,0,0,0,0,-1,902,736,0,0
-315,288,0,0,0,0,0,0,0,0,0,-1,909,736,0,0
-308,288,0,0,0,0,0,0,0,0,0,-1,916,736,0,0
-301,288,0,0,0,0,0,0,0,0,0,-1,923,736,0,0
-294,288,0,0,0,0,0,0,0,0,0,-1,930,736,0,0
-287,288,0,0,0,0,0,0,0,0,0,-1,937,736,0,0
-280,288,0,0,0,0,0,0,0,0,0,-1,944,736,0,0
-273,288,0,0,0,0,0,0,0,0,0,-1,951,736,0,0
-266,288,0,0,0,0,0,0,0,0,0,-1,958,736,0,0
-259,288,0,0,0,0,0,0,0,0,0,-1,965,736,0,0
-252,288,0,0,0,0,0,0,0,0,0,-1,972,736,0,0
-245,288,0,0,0,0,0,0,0,0,0,-1,979,736,0,0
-238,288,0,0,0,0,0,0,0,0,0,-1,986,736,0,0
-231,288,0,0,0,0,0,0,0,0,0,-1,993,736,0,0
-224,288,0,0,0,0,0,0,0,0,0,-1,1000,736,0,0
-217,288,0,0,0,0,0,0,0,0,0,-1,1007,736,0,0
-210,288,0,0,0,0,0,0,0,0,0,-1,1014,736,0,0
-203,288,0,0,0,0,0,0,0,0,0,-1,1021,736,0,0
-196,288,0,0,0,0,0,0,0,0,0,-1,1028,736,0,0
-189,288,0,0,0,0,0,0,0,0,0,-1,1035,736,0,0
-182,288,0,0,0,0,0,0,0,0,0,-1,1042,736,0,0
-175,288,0,0,0,0,0,0,0,0,0,-1,1049,736,0,0
-168,288,0,0,0,0,0,0,0,0,0,-1,1056,736,0,0
-161,288,0,0,0,0,0,0,0,0,0,-1,1063,736,0,0
-154,288,0,0,0,0,0,0,0,0,0,-1,1070,736,0,0
-147,288,0,0,0,0,0,0,0,0,0,-1,1077,736,0,0
-140,288,0,0,0,0,0,0,0,0,0,-1,1084,736,0,0
-133,288,0,0,0,0,0,0,0,0,0,-1,1091,736,0,0
-126,288,0,0,0,0,0,0,0,0,0,-1,1098,736,0,0
-119,288,0,0,0,0,0,0,0,0,0,-1,1105,736,0,0
-112,288,0,0,0,0,0,0,0,0,0,-1,1112,736,0,0
-105,288,0,0,0,0,0,0,0,0,0,-1,1119,736,0,0
-98,288,0,0,0,0,0,0,0,0,0,-1,1126,736,0,0
-91,288,0,0,0,0,0,0,0,0,0,-1,1133,736,0,0
-84,288,0,0,0,0,0,0,0,0,0,-1,1140,736,0,0
-77,288,0,0,0,0,0,0,0,0,0,-1,1147,736,0,0
-70,288,0,0,0,0,0,0,0,0,0,-1,1154,736,0,0
-63,288,0,0,0,0,0,0,0,0,0,-1,1161,736,0,0
-56,288,0,0,0,0,0,0,0,0,0,-1,1168,736,0,0
-49,288,0,0,0,0,0,0,0,0,0,-1,1175,736,0,0
-42,288,0,0,0,0,0,0,0,0,0,-1,1182,736,0,0
-35,288,0,0,0,0,0,0,0,0,0,-1,1189,736,0,0
-28,288,0,0,0,0,0,0,0,0,0,-1,1196,736,0,0
-21,288,0,0,0,0,0,0,0,0,0,-1,1203,736,0,0
-14,288,0,0,0,0,0,0,0,0,0,-1,1210,736,0,0
-7,288,0,0,0,0,0,0,0,0,0,-1,1217,736,0,0
0,288,0,0,0,0,0,0,0,0,0,-1,1224,736,0,0
7,288,0,0,0,0,0,0,0,0,0,-1,1231,736,0,0
14,288,0,0,0,0,0,0,0,0,0,-1,1238,736,0,0
21,288,0,0,0,0,0,0,0,0,0,-1,1245,736,0,0
28,288,0,0,0,0,0,0,0,0,0,-1,1252,736,0,0
35,288,0,0,0,0,0,0,0,0,0,-1,1259,736,0,0
42,288,0,0,0,0,0,0,0,0,0,-1,1266,736,0,0
49,288,0,0,0,0,0,0,0,0,0,-1,1273,736,0,0
56,288,0,0,0,0,0,0,0,0,0,-1,1280,736,0,0
63,288,0,0,0,0,0,0,0,0,0,-1,1287,736,0,0
70,288,0,0,0,0,0,0,0,0,0,-1,1294,736,0,0
77,288,0,0,0,0,0,0,0,0,0,-1,1301,736,0,0
84,288,0,0,0,0,0,0,0,0,0,-1,1308,736,0,0
91,288,0,0,0,0,0,0,0,0,0,-1,1315,736,0,0
98,288,0,0,0,0,0,0,0,0,0,-1,1322,736,0,0
105,288,0,0,0,0,0,0,0,0,0,-1,1329,736,0,0
112,288,0,0,0,0,0,0,0,0,0,-1,1336,736,0,0
119,288,0,0,0,0,0,0,0,0,0,-1,1343,736,0,0
126,288,0,0,0,0,0,0,0,0,0,-1,1350,736,0,0
133,288,0,0,0,0,0,0,0,0,0,-1,1357,736,0,0
140,288,0,0,0,0,0,0,0,0,0,-1,1364,736,0,0
147,288,0,0,0,0,0,0,0,0,0,-1,1371,736,0,0
154,288,0,0,0,0,0,0,0,0,0,-1,1378,736,0,0
161,288,0,0,0,0,0,0,0,0,0,-1,1385,736,0,0
168,288,0,0,0,0,0,0,0,0,0,-1,1392,736,0,0
175,288,0,0,0,0,0,0,0,0,0,-1,1399,736,0,0
182,288,0,0,0,0,0,0,0,0,0,-1,1406,736,0,0
189,288,0,0,0,0,0,0,0,0,0,-1,1413,736,0,0
196,288,0,0,0,0,0,0,0,0,0,-1,1420,736,0,0
203,288,0,0,0,0,0,0,0,0,0,-1,1427,736,0,0
210,288,0,0,0,0,0,0,0,0,0,-1,1434,736,0,0
217,288,0,0,0,0,0,0,0,0,0,-1,1441,736,0,0
224,288,0,0,0,0,0,0,0,0,0,-1,1448,736,0,0
231,288,0,0,0,0,0,0,0,0,0,-1,1455,736,0,0
238,288,0,0,0,0,0,0,0,0,0,-1,1462,736,0,0
245,288,0,0,0,0,0,0,0,0,0,-1,1469,736,0,0
252,288,0,0,0,0,0,0,0,0,0,-1,1476,736,0,0
259,288,0,0,0,0,0,0,0,0,0,-1,1483,736,0,0
266,288,0,0,0,0,0,0,0,0,0,-1,1490,736,0,0
273,288,0,0,0,0,0,0,0,0,0,-1,1497,736,0,0
280,288,0,0,0,0,0,0,0,0,0,-1,1504,736,0,0
287,288,0,0,0,0,0,0,0,0,0,-1,1511,736,0,0
294,288,0,0,0,0,0,0,0,0,0,-1,1518,736,0,0
301,288,0,0,0,0,0,0,0,0,0,-1,1525,736,0,0
308,288,0,0,0,0,0,0,0,0,0,-1,1532,736,0,0
315,288,0,0,0,0,0,0,0,0,0,-1,1539,736,0,0
322,288,0,0,0,0,0,0,0,0,0,-1,1546,736,0,0
329,288,0,0,0,0,0,0,0,0,0,-1,1553,736,0,0
336,288,0,0,0,0,0,0,0,0,0,-1,1560,736,0,0
343,288,0,0,0,0,0,0,0,0,0,-1,1567,736,0,0
350,288,0,0,0,0,0,0,0,0,0,-1,1574,736,0,0
357,288,0,0,0,0,0,0,0,0,0,-1,1581,736,0,0
364,288,0,0,0,0,0,0,0,0,0,-1,1588,736,0,0
371,288,0,0,0,0,0,0,0,0,0,-1,1595,736,0,0
378,288,0,0,0,0,0,0,0,0,0,-1,1602,736,0,0
385,288,0,0,0,0,0,0,0,0,0,-1,1609,736,0,0
392,288,0,0,0,0,0,0,0,0,0,-1,1616,736,0,0
399,288,0,0,0,0,0,0,0,0,0,-1,1623,736,0,0
406,288,0,0,0,0,0,0,0,0,0,-1,1630,736,0,0
413,288,0,0,0,0,0,0,0,0,0,-1,1637,736,0,0
420,288,0,0,0,0,0,0,0,0,0,-1,1644,736,0,0
427,288,0,0,0,0,0,0,0,0,0,-1,1651,736,0,0
434,288,0,0,0,0,0,0,0,0,0,-1,1658,736,0,0
441,288,0,0,0,0,0,0,0,0,0,-1,1665,736,0,0
448,288,0,0,0,0,0,0,0,0,0,-1,1672,736,0,0
455,288,0,0,0,0,0,0,0,0,0,-1,1679,736,0,0
462,288,0,0,0,0,0,0,0,0,0,-1,1686,736,0,0
469,288,0,0,0,0,0,0,0,0,0,-1,1693,736,0,0
476,288,0,0,0,0,0,0,0,0,0,-1,1700,736,0,0
483,288,0,0,0,0,0,0,0,0,0,-1,1707,736,0,0
490,288,0,0,0,0,0,0,0,0,0,-1,1714,736,0,0
497,288,0,0,0,0,0,0,0,0,0,-1,1721,736,0,0
504,288,0,0,0,0,0,0,0,0,0,-1,1728,736,0,0
511,288,0,0,0,0,0,0,0,0,0,-1,1735,736,0,0
518,288,0,0,0,0,0,0,0,0,0,-1,1742,736,0,0
525,288,0,0,0,0,0,0,0,0,0,-1,1749,736,0,0
532,288,0,0,0,0,0,0,0,0,0,-1,1756,736,0,0
539,288,0,0,0,0,0,0,0,0,0,-1,1763,736,0,0
546,288,0,0,0,0,0,0,0,0,0,-1,1770,736,0,0
553,288,14.5217,1.5802,0,0,0,0,0,0,0,-1,1777,736,14.5217,-1.58023
560,288,14.463,2.11798,-0.0254356,-0.00144987,0.035782,0.0242956,-0.0511811,0.947097,0.0444885,0.0427214,1784,736,14.463,-2.11801
567,288,14.2332,2.56897,-0.0230107,0.000508226,0.028823,0.0198783,-0.0423808,0.979085,0.0367196,0.0459538,1791,736,14.2332,-2.56895
574,288,14.2682,2.53943,0,0,0,0,0,0,0,-1,1798,736,14.2682,-2.53946
581,288,14.7235,0.895996,0,0,0,0,0,0,0,-1,1805,736,14.7235,-0.896017
588,288,13.4309,0.617798,0,0,0,0,0,0,0,-1,1812,736,13.4309,-0.617823
595,288,13.7234,0.716309,0,0,0,0,0,0,0,-1,1819,736,13.7234,-0.716284
602,288,10.871,3.04169,0,0,0,0,0,0,0,-1,1826,736,10.871,-3.04166
609,288,15.0834,0.464844,0,0,0,0,0,0,0,-1,1833,736,15.0833,-0.464853
616,288,9.67725,0.608765,0,0,0,0,0,0,0,-1,1840,736,9.67728,-0.608739
623,288,9.58374,0.510132,-0.00746235,0.00819276,-0.00308599,0.00877912,-0.00804871,-1.38303,0.0097186,0.0456743,1847,736,9.58377,-0.510155
630,288,9.52148,0.332153,-0.00645241,0.0062151,-0.00313646,0.00694914,-0.00718646,-1.3409,0.00816158,0.017839,1854,736,9.52151,-0.332153
637,288,9.51074,0.480957,-0.00533373,0.00417894,-0.00283375,0.00495911,-0.00611389,-1.30214,0.00640458,0.00965472,1861,736,9.51075,-0.480983
644,288,9.50476,0.646179,-0.00391511,0.00264705,-0.002282,0.00336259,-0.00463065,-1.26695,0.00463422,0.00953538,1868,736,9.50478,-0.646161
651,288,9.49719,0.802368,-0.00227467,0.00141341,-0.00176384,0.00212116,-0.00298242,-1.18921,0.0029605,0.0107211,1875,736,9.49722,-0.802375
658,288,9.5,0.962524,-0.00030413,0.000753352,-0.0011274,0.00146984,-0.00102061,-1.00467,0.00144564,0.015151,1882,736,9.49997,-0.962508
665,288,9.49927,1.12561,0.000891339,0.000340913,-0.000453389,0.00114651,8.57447e-05,-0.512618,0.00073742,0.0151051,1889,736,9.4993,-1.12558
672,288,9.50574,1.28503,0.00180691,0.000270777,0.000301831,0.00186409,0.000213599,0.187218,0.001178,0.0142474,1896,736,9.50574,-1.28504
679,288,9.5188,1.46338,0.00323742,0.00066412,0.00103485,0.00360195,0.000299591,0.338679,0.00230792,0.0124729,1903,736,9.51879,-1.46341
686,288,9.51416,1.58917,0.0054897,0.000513462,0.00169556,0.0060125,-9.34117e-06,0.299088,0.00401145,0.0098975,1910,736,9.5142,-1.58917
693,288,9.53113,1.73749,0.00902673,-0.000341299,0.00229528,0.00955887,-0.000873444,0.227818,0.00668278,0.0117956,1917,736,9.53109,-1.73747
700,288,9.53906,1.8819,0.0143152,-0.00242276,0.00314119,0.0148853,-0.00299285,0.179533,0.011057,0.0229636,1924,736,9.53902,-1.88189
707,288,9.55237,2.28497,0.0210401,-0.00561519,0.00418818,0.0216826,-0.00625776,0.152238,0.016931,0.037833,1931,736,9.5524,-2.28495
714,288,8.92297,2.77869,0.0300634,-0.0104983,0.00533999,0.0307546,-0.0111896,0.128729,0.0250793,0.0482708,1938,736,8.92299,-2.7787
721,288,9.36804,2.72656,0,0,0,0,0,0,0,-1,1945,736,9.36801,-2.72655
728,288,8.74219,2.95709,0,0,0,0,0,0,0,-1,1952,736,8.74223,-2.95709
735,288,10.7511,1.54199,0,0,0,0,0,0,0,-1,1959,736,10.7511,-1.54198
742,288,0,0,0,0,0,0,0,0,0,-1,1966,736,0,0
749,288,0,0,0,0,0,0,0,0,0,-1,1973,736,0,0
756,288,0,0,0,0,0,0,0,0,0,-1,1980,736,0,0
763,288,0,0,0,0,0,0,0,0,0,-1,1987,736,0,0
770,288,0,0,0,0,0,0,0,0,0,-1,1994,736,0,0
777,288,0,0,0,0,0,0,0,0,0,-1,2001,736,0,0
784,288,0,0,0,0,0,0,0,0,0,-1,2008,736,0,0
791,288,0,0,0,0,0,0,0,0,0,-1,2015,736,0,0
798,288,0,0,0,0,0,0,0,0,0,-1,2022,736,0,0
805,288,0,0,0,0,0,0,0,0,0,-1,2029,736,0,0
812,288,0,0,0,0,0,0,0,0,0,-1,2036,736,0,0
-700,281,0,0,0,0,0,0,0,0,0,-1,524,743,0,0
-693,281,0,0,0,0,0,0,0,0,0,-1,531,743,0,0
-686,281,0,0,0,0,0,0,0,0,0,-1,538,743,0,0
-679,281,0,0,0,0,0,0,0,0,0,-1,545,743,0,0
-672,281,0,0,0,0,0,0,0,0,0,-1,552,743,0,0
-665,281,0,0,0,0,0,0,0,0,0,-1,559,743,0,0
-658,281,0,0,0,0,0,0,0,0,0,-1,566,743,0,0
-651,281,0,0,0,0,0,0,0,0,0,-1,573,743,0,0
-644,281,0,0,0,0,0,0,0,0,0,-1,580,743,0,0
-637,281,0,0,0,0,0,0,0,0,0,-1,587,743,0,0
-630,281,0,0,0,0,0,0,0,0,0,-1,594,743,0,0
-623,281,-5.19678,-3.36859,0,0,0,0,0,0,0,-1,601,743,-5.19679,3.36856
-616,281,-4.3421,3.91211,0,0,0,0,0,0,0,-1,608,743,-4.34211,-3.9121
-609,281,-4.65588,2.93384,0.00306463,-0.0483889,-0.0183164,0.00891883,-0.0542431,-0.309354,0.0394723,0.0496224,615,743,-4.65589,-2.93384
-602,281,-4.81049,2.16064,0.000354821,-0.0362857,-0.0140359,0.00511354,-0.0410444,-0.326876,0.029217,0.0480734,622,743,-4.81051,-2.16066
-595,281,-4.7489,1.90918,0,0,0,0,0,0,0,-1,629,743,-4.74889,-1.90921
-588,281,-4.05023,1.06824,0,0,0,0,0,0,0,-1,636,743,-4.05021,-1.06825
-581,281,-4.66467,0.335693,-0.00336802,-0.0143118,-0.00431418,-0.00187186,-0.0158079,-0.333823,0.00997339,0.044405,643,743,-4.66466,-0.335711
-574,281,-4.77789,0.153015,-0.00363719,-0.0101647,-0.00227228,-0.00292409,-0.0108778,-0.304091,0.00650023,0.0250947,650,743,-4.7779,-0.152992
-567,281,-4.89648,0.0372314,-0.00394727,-0.00655701,-0.000828456,-0.00370649,-0.00679779,-0.282841,0.00393006,0.0115197,657,743,-4.8965,-0.0372378
-560,281,-4.90826,-0.0733643,-0.0039049,-0.00410355,0.000137083,-0.00383494,-0.00417351,0.471893,0.00267663,0.00760277,664,743,-4.90824,0.0733497
-553,281,-4.86664,-0.223511,-0.00321205,-0.0027346,0.00114705,-0.00180169,-0.00414495,0.887994,0.00239989,0.0121358,671,743,-4.86661,0.223504
-546,281,-4.86981,-0.357178,-0.00194727,-0.00193939,0.00202438,8.1057e-05,-0.00396772,0.786371,0.00267257,0.0137512,678,743,-4.86978,0.357162
-539,281,-4.888,-0.483154,-0.000261138,-0.000610784,0.00191533,0.00148733,-0.00235926,0.739886,0.00223977,0.0125547,685,743,-4.88801,0.483133
-532,281,-4.8786,-0.612793,0.00171837,0.000535864,0.00275343,0.00394331,-0.00168907,0.679637,0.00333754,0.0110069,692,743,-4.87859,0.612799
-525,281,-4.88531,-0.763977,0.00258762,0.00215793,0.00400387,0.0063824,-0.00163686,0.758594,0.00489269,0.0122113,699,743,-4.88534,0.763972
-518,281,-4.88495,-0.922485,0.0026041,0.00305551,0.00482509,0.00766017,-0.00200056,0.80877,0.00588803,0.0120385,706,743,-4.88498,0.922482
-511,281,-4.88324,-1.0658,0.00249874,0.0043095,0.00589825,0.00937146,-0.00256322,0.861553,0.00725459,0.0104919,713,743,-4.88323,1.06578
-504,281,-4.88287,-1.2182,0.00137179,0.00508817,0.00698574,0.0104586,-0.00399867,0.915387,0.00862021,0.012772,720,743,-4.88289,1.21821
-497,281,-4.74231,-1.37201,-0.000902308,0.00550838,0.00806244,0.0109793,-0.00637321,0.974601,0.0101354,0.0328827,727,743,-4.74231,1.372
-490,281,-4.59235,-1.44128,-0.0045867,0.00551839,0.00874163,0.0105626,-0.00963091,1.04744,0.0116629,0.0429132,734,743,-4.59235,1.44131
-483,281,-4.48224,-1.39795,0,0,0,0,0,0,0,-1,741,743,-4.48223,1.39793
-476,281,-4.34039,-1.45276,0,0,0,0,0,0,0,-1,748,743,-4.34042,1.45276
-469,281,-8.34918,0.803833,0,0,0,0,0,0,0,-1,755,743,-8.34917,-0.803845
-462,281,-9.29852,0.650757,0,0,0,0,0,0,0,-1,762,743,-9.29853,-0.650762
-455,281,-9.23706,0.881592,0,0,0,0,0,0,0,-1,769,743,-9.23708,-0.88158
-448,281,-9.41797,0.619629,0,0,0,0,0,0,0,-1,776,743,-9.41795,-0.61962
-441,281,-9.23126,0.570007,0,0,0,0,0,0,0,-1,783,743,-9.23128,-0.570036
-434,281,0,0,0,0,0,0,0,0,0,-1,790,743,0,0
-427,281,0,0,0,0,0,0,0,0,0,-1,797,743,0,0
-420,281,0,0,0,0,0,0,0,0,0,-1,804,743,0,0
-413,281,0,0,0,0,0,0,0,0,0,-1,811,743,0,0
-406,281,0,0,0,0,0,0,0,0,0,-1,818,743,0,0
-399,281,0,0,0,0,0,0,0,0,0,-1,825,743,0,0
-392,281,0,0,0,0,0,0,0,0,0,-1,832,743,0,0
-385,281,0,0,0,0,0,0,0,0,0,-1,839,743,0,0
-378,281,0,0,0,0,0,0,0,0,0,-1,846,743,0,0
-371,281,0,0,0,0,0,0,0,0,0,-1,853,743,0,0
-364,281,0,0,0,0,0,0,0,0,0,-1,860,743,0,0
-357,281,0,0,0,0,0,0,0,0,0,-1,867,743,0,0
-350,281,0,0,0,0,0,0,0,0,0,-1,874,743,0,0
-343,281,0,0,0,0,0,0,0,0,0,-1,881,743,0,0
-336,281,0,0,0,0,0,0,0,0,0,-1,888,743,0,0
-329,281,0,0,0,0,0,0,0,0,0,-1,895,743,0,0
-322,281,0,0,0,0,0,0,0,0,0,-1,902,743,0,0
-315,281,0,0,0,0,0,0,0,0,0,-1,909,743,0,0
-308,281,0,0,0,0,0,0,0,0,0,-1,916,743,0,0
-301,281,0,0,0,0,0,0,0,0,0,-1,923,743,0,0
-294,281,0,0,0,0,0,0,0,0,0,-1,930,743,0,0
-287,281,0,0,0,0,0,0,0,0,0,-1,937,743,0,0
-280,281,0,0,0,0,0,0,0,0,0,-1,944,743,0,0
-273,281,0,0,0,0,0,0,0,0,0,-1,951,743,0,0
-266,281,0,0,0,0,0,0,0,0,0,-1,958,743,0,0
-259,281,0,0,0,0,0,0,0,0,0,-1,965,743,0,0
-252,281,0,0,0,0,0,0,0,0,0,-1,972,743,0,0
-245,281,0,0,0,0,0,0,0,0,0,-1,979,743,0,0
-238,281,0,0,0,0,0,0,0,0,0,-1,986,743,0,0
-231,281,0,0,0,0,0,0,0,0,0,-1,993,743,0,0
-224,281,0,0,0,0,0,0,0,0,0,-1,1000,743,0,0
-217,281,0,0,0,0,0,0,0,0,0,-1,1007,743,0,0
-210,281,0,0,0,0,0,0,0,0,0,-1,1014,743,0,0
-203,281,0,0,0,0,0,0,0,0,0,-1,1021,743,0,0
-196,281,0,0,0,0,0,0,0,0,0,-1,1028,743,0,0
-189,281,0,0,0,0,0,0,0,0,0,-1,1035,743,0,0
-182,281,0,0,0,0,0,0,0,0,0,-1,1042,743,0,0
-175,281,0,0,0,0,0,0,0,0,0,-1,1049,743,0,0
-168,281,0,0,0,0,0,0,0,0,0,-1,1056,743,0,0
-161,281,0,0,0,0,0,0,0,0,0,-1,1063,743,0,0
-154,281,0,0,0,0,0,0,0,0,0,-1,1070,743,0,0
-147,281,0,0,0,0,0,0,0,0,0,-1,1077,743,0,0
-140,281,0,0,0,0,0,0,0,0,0,-1,1084,743,0,0
-133,281,0,0,0,0,0,0,0,0,0,-1,1091,743,0,0
-126,281,0,0,0,0,0,0,0,0,0,-1,1098,743,0,0
-119,281,0,0,0,0,0,0,0,0,0,-1,1105,743,0,0
-112,281,0,0,0,0,0,0,0,0,0,-1,1112,743,0,0
-105,281,0,0,0,0,0,0,0,0,0,-1,1119,743,0,0
-98,281,0,0,0,0,0,0,0,0,0,-1,1126,743,0,0
-91,281,0,0,0,0,0,0,0,0,0,-1,1133,743,0,0
-84,281,0,0,0,0,0,0,0,0,0,-1,1140,743,0,0
-77,281,0,0,0,0,0,0,0,0,0,-1,1147,743,0,0
-70,281,0,0,0,0,0,0,0,0,0,-1,1154,743,0,0
-63,281,0,0,0,0,0,0,0,0,0,-1,1161,743,0,0
-56,281,0,0,0,0,0,0,0,0,0,-1,1168,743,0,0
-49,281,0,0,0,0,0,0,0,0,0,-1,1175,743,0,0
-42,281,0,0,0,0,0,0,0,0,0,-1,1182,743,0,0
-35,281,0,0,0,0,0,0,0,0,0,-1,1189,743,0,0
-28,281,0,0,0,0,0,0,0,0,0,-1,1196,743,0,0
-21,281,0,0,0,0,0,0,0,0,0,-1,1203,743,0,0
-14,281,0,0,0,0,0,0,0,0,0,-1,1210,743,0,0
-7,281,0,0,0,0,0,0,0,0,0,-1,1217,743,0,0
0,281,0,0,0,0,0,0,0,0,0,-1,1224,743,0,0
7,281,0,0,0,0,0,0,0,0,0,-1,1231,743,0,0
14,281,0,0,0,0,0,0,0,0,0,-1,1238,743,0,0
21,281,0,0,0,0,0,0,0,0,0,-1,1245,743,0,0
28,281,0,0,0,0,0,0,0,0,0,-1,1252,743,0,0
35,281,0,0,0,0,0,0,0,0,0,-1,1259,743,0,0
42,281,0,0,0,0,0,0,0,0,0,-1,1266,743,0,0
49,281,0,0,0,0,0,0,0,0,0,-1,1273,743,0,0
56,281,0,0,0,0,0,0,0,0,0,-1,1280,743,0,0
63,281,0,0,0,0,0,0,0,0,0,-1,1287,743,0,0
70,281,0,0,0,0,0,0,0,0,0,-1,1294,743,0,0
77,281,0,0,0,0,0,0,0,0,0,-1,1301,743,0,0
84,281,0,0,0,0,0,0,0,0,0,-1,1308,743,0,0
91,281,0,0,0,0,0,0,0,0,0,-1,1315,743,0,0
98,281,0,0,0,0,0,0,0,0,0,-1,1322,743,0,0
105,281,0,0,0,0,0,0,0,0,0,-1,1329,743,0,0
112,281,0,0,0,0,0,0,0,0,0,-1,1336,743,0,0
119,281,0,0,0,0,0,0,0,0,0,-1,1343,743,0,0
126,281,0,0,0,0,0,0,0,0,0,-1,1350,743,0,0
133,281,0,0,0,0,0,0,0,0,0,-1,1357,743,0,0
140,281,0,0,0,0,0,0,0,0,0,-1,1364,743,0,0
147,281,0,0,0,0,0,0,0,0,0,-1,1371,743,0,0
154,281,0,0,0,0,0,0,0,0,0,-1,1378,743,0,0
161,281,0,0,0,0,0,0,0,0,0,-1,1385,743,0,0
168,281,0,0,0,0,0,0,0,0,0,-1,1392,743,0,0
175,281,0,0,0,0,0,0,0,0,0,-1,1399,743,0,0
182,281,0,0,0,0,0,0,0,0,0,-1,1406,743,0,0
189,281,0,0,0,0,0,0,0,0,0,-1,1413,743,0,0
196,281,0,0,0,0,0,0,0,0,0,-1,1420,743,0,0
203,281,0,0,0,0,0,0,0,0,0,-1,1427,743,0,0
210,281,0,0,0,0,0,0,0,0,0,-1,1434,743,0,0
217,281,0,0,0,0,0,0,0,0,0,-1,1441,743,0,0
224,281,0,0,0,0,0,0,0,0,0,-1,1448,743,0,0
231,281,0,0,0,0,0,0,0,0,0,-1,1455,743,0,0
238,281,0,0,0,0,0,0,0,0,0,-1,1462,743,0,0
245,281,0,0,0,0,0,0,0,0,0,-1,1469,743,0,0
252,281,0,0,0,0,0,0,0,0,0,-1,1476,743,0,0
259,281,0,0,0,0,0,0,0,0,0,-1,1483,743,0,0
266,281,0,0,0,0,0,0,0,0,0,-1,1490,743,0,0
273,281,0,0,0,0,0,0,0,0,0,-1,1497,743,0,0
280,281,0,0,0,0,0,0,0,0,0,-1,1504,743,0,0
287,281,0,0,0,0,0,0,0,0,0,-1,1511,743,0,0
294,281,0,0,0,0,0,0,0,0,0,-1,1518,743,0,0
301,281,0,0,0,0,0,0,0,0,0,-1,1525,743,0,0
308,281,0,0,0,0,0,0,0,0,0,-1,1532,743,0,0
315,281,0,0,0,0,0,0,0,0,0,-1,1539,743,0,0
322,281,0,0,0,0,0,0,0,0,0,-1,1546,743,0,0
329,281,0,0,0,0,0,0,0,0,0,-1,1553,743,0,0
336,281,0,0,0,0,0,0,0,0,0,-1,1560,743,0,0
343,281,0,0,0,0,0,0,0,0,0,-1,1567,743,0,0
350,281,0,0,0,0,0,0,0,0,0,-1,1574,743,0,0
357,281,0,0,0,0,0,0,0,0,0,-1,1581,743,0,0
364,281,0,0,0,0,0,0,0,0,0,-1,1588,743,0,0
371,281,0,0,0,0,0,0,0,0,0,-1,1595,743,0,0
378,281,0,0,0,0,0,0,0,0,0,-1,1602,743,0,0
385,281,0,0,0,0,0,0,0,0,0,-1,1609,743,0,0
392,281,0,0,0,0,0,0,0,0,0,-1,1616,743,0,0
399,281,0,0,0,0,0,0,0,0,0,-1,1623,743,0,0
406,281,0,0,0,0,0,0,0,0,0,-1,1630,743,0,0
413,281,0,0,0,0,0,0,0,0,0,-1,1637,743,0,0
420,281,0,0,0,0,0,0,0,0,0,-1,1644,743,0,0
427,281,0,0,0,0,0,0,0,0,0,-1,1651,743,0,0
434,281,0,0,0,0,0,0,0,0,0,-1,1658,743,0,0
441,281,0,0,0,0,0,0,0,0,0,-1,1665,743,0,0
448,281,0,0,0,0,0,0,0,0,0,-1,1672,743,0,0
455,281,0,0,0,0,0,0,0,0,0,-1,1679,743,0,0
462,281,0,0,0,0,0,0,0,0,0,-1,1686,743,0,0
469,281,0,0,0,0,0,0,0,0,0,-1,1693,743,0,0
476,281,0,0,0,0,0,0,0,0,0,-1,1700,743,0,0
483,281,0,0,0,0,0,0,0,0,0,-1,1707,743,0,0
490,281,0,0,0,0,0,0,0,0,0,-1,1714,743,0,0
497,281,0,0,0,0,0,0,0,0,0,-1,1721,743,0,0
504,281,0,0,0,0,0,0,0,0,0,-1,1728,743,0,0
511,281,0,0,0,0,0,0,0,0,0,-1,1735,743,0,0
518,281,0,0,0,0,0,0,0,0,0,-1,1742,743,0,0
525,281,0,0,0,0,0,0,0,0,0,-1,1749,743,0,0
532,281,0,0,0,0,0,0,0,0,0,-1,1756,743,0,0
539,281,0,0,0,0,0,0,0,0,0,-1,1763,743,0,0
546,281,0,0,0,0,0,0,0,0,0,-1,1770,743,0,0
553,281,0,0,0,0,0,0,0,0,0,-1,1777,743,0,0
560,281,14.2825,2.18292,-0.0175163,0.00166025,0.0308784,0.0244048,-0.0402608,0.935937,0.0377069,0.0422706,1784,743,14.2825,-2.18291
567,281,14.1604,2.50433,-0.0209589,0.00469304,0.0252962,0.020229,-0.0364949,1.02003,0.0331954,0.0441877,1791,743,14.1604,-2.50432
574,281,14.0319,2.44373,0,0,0,0,0,0,0,-1,1798,743,14.0319,-2.44373
581,281,13.8856,2.73932,0,0,0,0,0,0,0,-1,1805,743,13.8856,-2.73933
588,281,14.9688,0.6875,0,0,0,0,0,0,0,-1,1812,743,14.9688,-0.687484
595,281,10.4277,3.42603,0,0,0,0,0,0,0,-1,1819,743,10.4278,-3.42603
602,281,10.6002,3.14148,0,0,0,0,0,0,0,-1,1826,743,10.6002,-3.14145
609,281,10.5714,2.97772,0,0,0,0,0,0,0,-1,1833,743,10.5714,-2.9777
616,281,10.5021,2.58826,0,0,0,0,0,0,0,-1,1840,743,10.5021,-2.58826
623,281,9.68591,0.748413,0,0,0,0,0,0,0,-1,1847,743,9.68595,-0.748435
630,281,9.6521,0.348755,-0.00725404,0.00687217,-0.00309672,0.0075212,-0.00790308,-1.3642,0.00890612,0.0330189,1854,743,9.65215,-0.348771
637,281,9.66931,0.481567,-0.00612821,0.00484519,-0.00273455,0.00548888,-0.00677189,-1.33961,0.00709167,0.0125993,1861,743,9.66934,-0.481577
644,281,9.67737,0.646484,-0.00462571,0.00326265,-0.00214323,0.00380735,-0.00517041,-1.32192,0.00520319,0.0101418,1868,743,9.67737,-0.646483
651,281,9.6759,0.803772,-0.00285512,0.001941,-0.00162575,0.00244014,-0.00335426,-1.27291,0.00335924,0.0108593,1875,743,9.67586,-0.803784
658,281,9.6781,0.970947,-0.000645358,0.00120555,-0.00107633,0.00169959,-0.0011394,-1.14048,0.00164969,0.0180661,1882,743,9.67812,-0.970941
665,281,9.68347,1.12292,0.000641493,0.000479422,-0.000405219,0.000973699,0.000147215,-0.68671,0.000606051,0.0177131,1889,743,9.68351,-1.12295
672,281,9.66321,1.29364,0.0013843,0.000324265,0.000133576,0.00140087,0.000307692,0.123441,0.000850117,0.0111647,1896,743,9.66324,-1.29366
679,281,9.68115,1.43378,0.00264956,0.0006841,0.000635121,0.00283693,0.000496728,0.286879,0.00174938,0.01798,1903,743,9.68113,-1.43376
686,281,9.67285,1.57129,0.00481499,0.000339041,0.000979254,0.00501986,0.000134175,0.206231,0.00330276,0.0141872,1910,743,9.6728,-1.57129
693,281,9.67273,1.73175,0.00837678,-0.000829046,0.00113862,0.00851552,-0.000967785,0.121251,0.00602557,0.0104627,1917,743,9.67279,-1.73173
700,281,9.68567,1.88159,0.0137587,-0.00353362,0.0014028,0.0138718,-0.00364668,0.0804218,0.0106731,0.0173459,1924,743,9.68572,-1.88157
707,281,9.63025,1.92981,0.0205788,-0.00717329,0.00185292,0.020702,-0.00729645,0.0663743,0.0167712,0.0367193,1931,743,9.6302,-1.92978
714,281,9.56445,2.14313,0.0296787,-0.0126276,0.00214602,0.0297873,-0.0127362,0.0505527,0.0252003,0.0489933,1938,743,9.56444,-2.14311
721,281,9.91626,2.1684,0,0,0,0,0,0,0,-1,1945,743,9.91625,-2.16838
728,281,9.24231,2.50781,0,0,0,0,0,0,0,-1,1952,743,9.24237,-2.50784
735,281,8.96912,2.38184,0,0,0,0,0,0,0,-1,1959,743,8.96908,-2.38185
742,281,0,0,0,0,0,0,0,0,0,-1,1966,743,0,0
749,281,0,0,0,0,0,0,0,0,0,-1,1973,743,0,0
756,281,0,0,0,0,0,0,0,0,0,-1,1980,743,0,0
763,281,0,0,0,0,0,0,0,0,0,-1,1987,743,0,0
770,281,0,0,0,0,0,0,0,0,0,-1,1994,743,0,0
777,281,0,0,0,0,0,0,0,0,0,-1,2001,743,0,0
784,281,0,0,0,0,0,0,0,0,0,-1,2008,743,0,0
791,281,0,0,0,0,0,0,0,0,0,-1,2015,743,0,0
798,281,0,0,0,0,0,0,0,0,0,-1,2022,743,0,0
805,281,0,0,0,0,0,0,0,0,0,-1,2029,743,0,0
812,281,0,0,0,0,0,0,0,0,0,-1,2036,743,0,0
-700,274,0,0,0,0,0,0,0,0,0,-1,524,750,0,0
-693,274,0,0,0,0,0,0,0,0,0,-1,531,750,0,0
-686,274,0,0,0,0,0,0,0,0,0,-1,538,750,0,0
-679,274,0,0,0,0,0,0,0,0,0,-1,545,750,0,0
-672,274,0,0,0,0,0,0,0,0,0,-1,552,750,0,0
-665,274,0,0,0,0,0,0,0,0,0,-1,559,750,0,0
-658,274,0,0,0,0,0,0,0,0,0,-1,566,750,0,0
-651,274,0,0,0,0,0,0,0,0,0,-1,573,750,0,0
-644,274,0,0,0,0,0,0,0,0,0,-1,580,750,0,0
-637,274,0,0,0,0,0,0,0,0,0,-1,587,750,0,0
-630,274,0,0,0,0,0,0,0,0,0,-1,594,750,0,0
-623,274,-4.30292,2.78729,0,0,0,0,0,0,0,-1,601,750,-4.30294,-2.78729
-616,274,-4.4173,3.92426,0,0,0,0,0,0,0,-1,608,750,-4.41732,-3.92424
-609,274,-4.5033,3.1745,0.0123167,-0.0385468,-0.0217269,0.0203339,-0.046564,-0.353499,0.0396008,0.0489253,615,750,-4.50329,-3.17453
-602,274,-4.59595,2.41443,0.0080753,-0.0278776,-0.0172788,0.015033,-0.0348353,-0.382807,0.0295384,0.0451041,622,750,-4.59597,-2.41445
-595,274,-4.54138,1.86859,0,0,0,0,0,0,0,-1,629,750,-4.54137,-1.86858
-588,274,-4.40741,1.14417,0.00233567,-0.0142187,-0.00954325,0.00669119,-0.0185742,-0.428162,0.0151152,0.0473654,636,750,-4.40743,-1.14415
-581,274,-4.68146,0.475891,0.000455563,-0.00993474,-0.00639993,0.00350351,-0.0129827,-0.444465,0.0100291,0.0361573,643,750,-4.68147,-0.475886
-574,274,-4.98401,0.18396,-0.000774049,-0.00690326,-0.00394604,0.00115765,-0.00883495,-0.455235,0.00631134,0.0182515,650,750,-4.98402,-0.183962
-567,274,-5.04645,0.0582275,-0.00190599,-0.00420747,-0.00209719,-0.000664577,-0.00544888,-0.534473,0.00343258,0.0154038,657,750,-5.04643,-0.0582254
-560,274,-5.02612,-0.0690918,-0.00247826,-0.00245426,-0.000864731,-0.00160145,-0.00333107,-0.792335,0.00192367,0.0134002,664,750,-5.02609,0.0690862
-553,274,-5.03552,-0.209595,-0.00210996,-0.00147531,0.000275104,-0.00137266,-0.00221261,1.21367,0.00128973,0.00909459,671,750,-5.03554,0.209614
-546,274,-5.04785,-0.350891,-0.00109084,-0.00103044,0.00143732,0.000377001,-0.00249828,0.795903,0.00180436,0.0108311,678,750,-5.04788,0.350874
-539,274,-5.04211,-0.483826,0.000559266,0.000265402,0.00157842,0.00199757,-0.00117291,0.738988,0.001851,0.0110781,685,750,-5.04213,0.483828
-532,274,-5.02386,-0.608765,0.00262735,0.00157724,0.00266687,0.00482036,-0.00061577,0.688201,0.00343726,0.0105343,692,750,-5.02385,0.608782
-525,274,-5.02307,-0.751892,0.00349667,0.00348529,0.00396057,0.00745155,-0.000469586,0.78468,0.0051314,0.0107054,699,750,-5.02308,0.751911
-518,274,-5.03815,-0.913574,0.00339223,0.0046582,0.00476398,0.00883107,-0.000780633,0.851446,0.00616409,0.0118675,706,750,-5.03815,0.9136
-511,274,-5.03235,-1.07281,0.00320068,0.00623367,0.0058386,0.0107495,-0.00131516,0.912459,0.00764254,0.0111734,713,750,-5.03237,1.07279
-504,274,-4.99615,-1.22241,0.00197063,0.00738469,0.00687997,0.012071,-0.00271571,0.972829,0.00908885,0.0192228,720,750,-4.99613,1.22244
-497,274,-4.9848,-1.33301,-0.000523118,0.00818805,0.00794181,0.0128903,-0.00522531,1.03622,0.0107666,0.0426084,727,750,-4.98483,1.33301
-490,274,-4.96454,-1.45337,0,0,0,0,0,0,0,-1,734,750,-4.96455,1.45337
-483,274,-4.57074,-1.63074,0,0,0,0,0,0,0,-1,741,750,-4.57071,1.63074
-476,274,-3.56769,3.47803,0,0,0,0,0,0,0,-1,748,750,-3.56769,-3.47803
-469,274,-8.93591,0.307922,0,0,0,0,0,0,0,-1,755,750,-8.93594,-0.307941
-462,274,-9.08075,0.773682,0,0,0,0,0,0,0,-1,762,750,-9.08075,-0.7737
-455,274,-9.22559,1.23944,0,0,0,0,0,0,0,-1,769,750,-9.22557,-1.23946
-448,274,-9.62817,0.228699,0,0,0,0,0,0,0,-1,776,750,-9.6282,-0.228729
-441,274,0,0,0,0,0,0,0,0,0,-1,783,750,0,0
-434,274,0,0,0,0,0,0,0,0,0,-1,790,750,0,0
-427,274,0,0,0,0,0,0,0,0,0,-1,797,750,0,0
-420,274,0,0,0,0,0,0,0,0,0,-1,804,750,0,0
-413,274,0,0,0,0,0,0,0,0,0,-1,811,750,0,0
-406,274,0,0,0,0,0,0,0,0,0,-1,818,750,0,0
-399,274,0,0,0,0,0,0,0,0,0,-1,825,750,0,0
-392,274,0,0,0,0,0,0,0,0,0,-1,832,750,0,0
-385,274,0,0,0,0,0,0,0,0,0,-1,839,750,0,0
-378,274,0,0,0,0,0,0,0,0,0,-1,846,750,0,0
-371,274,0,0,0,0,0,0,0,0,0,-1,853,750,0,0
-364,274,0,0,0,0,0,0,0,0,0,-1,860,750,0,0
-357,274,0,0,0,0,0,0,0,0,0,-1,867,750,0,0
-350,274,0,0,0,0,0,0,0,0,0,-1,874,750,0,0
-343,274,0,0,0,0,0,0,0,0,0,-1,881,750,0,0
-336,274,0,0,0,0,0,0,0,0,0,-1,888,750,0,0
-329,274,0,0,0,0,0,0,0,0,0,-1,895,750,0,0
-322,274,0,0,0,0,0,0,0,0,0,-1,902,750,0,0
-315,274,0,0,0,0,0,0,0,0,0,-1,909,750,0,0
-308,274,0,0,0,0,0,0,0,0,0,-1,916,750,0,0
-301,274,0,0,0,0,0,0,0,0,0,-1,923,750,0,0
-294,274,0,0,0,0,0,0,0,0,0,-1,930,750,0,0
-287,274,0,0,0,0,0,0,0,0,0,-1,937,750,0,0
-280,274,0,0,0,0,0,0,0,0,0,-1,944,750,0,0
-273,274,0,0,0,0,0,0,0,0,0,-1,951,750,0,0
-266,274,0,0,0,0,0,0,0,0,0,-1,958,750,0,0
-259,274,0,0,0,0,0,0,0,0,0,-1,965,750,0,0
-252,274,0,0,0,0,0,0,0,0,0,-1,972,750,0,0
-245,274,0,0,0,0,0,0,0,0,0,-1,979,750,0,0
-238,274,0,0,0,0,0,0,0,0,0,-1,986,750,0,0
-231,274,0,0,0,0,0,0,0,0,0,-1,993,750,0,0
-224,274,0,0,0,0,0,0,0,0,0,-1,1000,750,0,0
-217,274,0,0,0,0,0,0,0,0,0,-1,1007,750,0,0
-210,274,0,0,0,0,0,0,0,0,0,-1,1014,750,0,0
-203,274,0,0,0,0,0,0,0,0,0,-1,1021,750,0,0
-196,274,0,0,0,0,0,0,0,0,0,-1,1028,750,0,0
-189,274,0,0,0,0,0,0,0,0,0,-1,1035,750,0,0
-182,274,0,0,0,0,0,0,0,0,0,-1,1042,750,0,0
-175,274,0,0,0,0,0,0,0,0,0,-1,1049,750,0,0
-168,274,0,0,0,0,0,0,0,0,0,-1,1056,750,0,0
-161,274,0,0,0,0,0,0,0,0,0,-1,1063,750,0,0
-154,274,0,0,0,0,0,0,0,0,0,-1,1070,750,0,0
-147,274,0,0,0,0,0,0,0,0,0,-1,1077,750,0,0
-140,274,0,0,0,0,0,0,0,0,0,-1,1084,750,0,0
-133,274,0,0,0,0,0,0,0,0,0,-1,1091,750,0,0
-126,274,0,0,0,0,0,0,0,0,0,-1,1098,750,0,0
-119,274,0,0,0,0,0,0,0,0,0,-1,1105,750,0,0
-112,274,0,0,0,0,0,0,0,0,0,-1,1112,750,0,0
-105,274,0,0,0,0,0,0,0,0,0,-1,1119,750,0,0
-98,274,0,0,0,0,0,0,0,0,0,-1,1126,750,0,0
-91,274,0,0,0,0,0,0,0,0,0,-1,1133,750,0,0
-84,274,0,0,0,0,0,0,0,0,0,-1,1140,750,0,0
-77,274,0,0,0,0,0,0,0,0,0,-1,1147,750,0,0
-70,274,0,0,0,0,0,0,0,0,0,-1,1154,750,0,0
-63,274,0,0,0,0,0,0,0,0,0,-1,1161,750,0,0
-56,274,0,0,0,0,0,0,0,0,0,-1,1168,750,0,0
-49,274,0,0,0,0,0,0,0,0,0,-1,1175,750,0,0
-42,274,0,0,0,0,0,0,0,0,0,-1,1182,750,0,0
-35,274,0,0,0,0,0,0,0,0,0,-1,1189,750,0,0
-28,274,0,0,0,0,0,0,0,0,0,-1,1196,750,0,0
-21,274,0,0,0,0,0,0,0,0,0,-1,1203,750,0,0
-14,274,0,0,0,0,0,0,0,0,0,-1,1210,750,0,0
-7,274,0,0,0,0,0,0,0,0,0,-1,1217,750,0,0
0,274,0,0,0,0,0,0,0,0,0,-1,1224,750,0,0
7,274,0,0,0,0,0,0,0,0,0,-1,1231,750,0,0
14,274,0,0,0,0,0,0,0,0,0,-1,1238,750,0,0
21,274,0,0,0,0,0,0,0,0,0,-1,1245,750,0,0
28,274,0,0,0,0,0,0,0,0,0,-1,1252,750,0,0
35,274,0,0,0,0,0,0,0,0,0,-1,1259,750,0,0
42,274,0,0,0,0,0,0,0,0,0,-1,1266,750,0,0
49,274,0,0,0,0,0,0,0,0,0,-1,1273,750,0,0
56,274,0,0,0,0,0,0,0,0,0,-1,1280,750,0,0
63,274,0,0,0,0,0,0,0,0,0,-1,1287,750,0,0
70,274,0,0,0,0,0,0,0,0,0,-1,1294,750,0,0
77,274,0,0,0,0,0,0,0,0,0,-1,1301,750,0,0
84,274,0,0,0,0,0,0,0,0,0,-1,1308,750,0,0
91,274,0,0,0,0,0,0,0,0,0,-1,1315,750,0,0
98,274,0,0,0,0,0,0,0,0,0,-1,1322,750,0,0
105,274,0,0,0,0,0,0,0,0,0,-1,1329,750,0,0
112,274,0,0,0,0,0,0,0,0,0,-1,1336,750,0,0
119,274,0,0,0,0,0,0,0,0,0,-1,1343,750,0,0
126,274,0,0,0,0,0,0,0,0,0,-1,1350,750,0,0
133,274,0,0,0,0,0,0,0,0,0,-1,1357,750,0,0
140,274,0,0,0,0,0,0,0,0,0,-1,1364,750,0,0
147,274,0,0,0,0,0,0,0,0,0,-1,1371,750,0,0
154,274,0,0,0,0,0,0,0,0,0,-1,1378,750,0,0
161,274,0,0,0,0,0,0,0,0,0,-1,1385,750,0,0
168,274,0,0,0,0,0,0,0,0,0,-1,1392,750,0,0
175,274,0,0,0,0,0,0,0,0,0,-1,1399,750,0,0
182,274,0,0,0,0,0,0,0,0,0,-1,1406,750,0,0
189,274,0,0,0,0,0,0,0,0,0,-1,1413,750,0,0
196,274,0,0,0,0,0,0,0,0,0,-1,1420,750,0,0
203,274,0,0,0,0,0,0,0,0,0,-1,1427,750,0,0
210,274,0,0,0,0,0,0,0,0,0,-1,1434,750,0,0
217,274,0,0,0,0,0,0,0,0,0,-1,1441,750,0,0
224,274,0,0,0,0,0,0,0,0,0,-1,1448,750,0,0
231,274,0,0,0,0,0,0,0,0,0,-1,1455,750,0,0
238,274,0,0,0,0,0,0,0,0,0,-1,1462,750,0,0
245,274,0,0,0,0,0,0,0,0,0,-1,1469,750,0,0
252,274,0,0,0,0,0,0,0,0,0,-1,1476,750,0,0
259,274,0,0,0,0,0,0,0,0,0,-1,1483,750,0,0
266,274,0,0,0,0,0,0,0,0,0,-1,1490,750,0,0
273,274,0,0,0,0,0,0,0,0,0,-1,1497,750,0,0
280,274,0,0,0,0,0,0,0,0,0,-1,1504,750,0,0
287,274,0,0,0,0,0,0,0,0,0,-1,1511,750,0,0
294,274,0,0,0,0,0,0,0,0,0,-1,1518,750,0,0
301,274,0,0,0,0,0,0,0,0,0,-1,1525,750,0,0
308,274,0,0,0,0,0,0,0,0,0,-1,1532,750,0,0
315,274,0,0,0,0,0,0,0,0,0,-1,1539,750,0,0
322,274,0,0,0,0,0,0,0,0,0,-1,1546,750,0,0
329,274,0,0,0,0,0,0,0,0,0,-1,1553,750,0,0
336,274,0,0,0,0,0,0,0,0,0,-1,1560,750,0,0
343,274,0,0,0,0,0,0,0,0,0,-1,1567,750,0,0
350,274,0,0,0,0,0,0,0,0,0,-1,1574,750,0,0
357,274,0,0,0,0,0,0,0,0,0,-1,1581,750,0,0
364,274,0,0,0,0,0,0,0,0,0,-1,1588,750,0,0
371,274,0,0,0,0,0,0,0,0,0,-1,1595,750,0,0
378,274,0,0,0,0,0,0,0,0,0,-1,1602,750,0,0
385,274,0,0,0,0,0,0,0,0,0,-1,1609,750,0,0
392,274,0,0,0,0,0,0,0,0,0,-1,1616,750,0,0
399,274,0,0,0,0,0,0,0,0,0,-1,1623,750,0,0
406,274,0,0,0,0,0,0,0,0,0,-1,1630,750,0,0
413,274,0,0,0,0,0,0,0,0,0,-1,1637,750,0,0
420,274,0,0,0,0,0,0,0,0,0,-1,1644,750,0,0
427,274,0,0,0,0,0,0,0,0,0,-1,1651,750,0,0
434,274,0,0,0,0,0,0,0,0,0,-1,1658,750,0,0
441,274,0,0,0,0,0,0,0,0,0,-1,1665,750,0,0
448,274,0,0,0,0,0,0,0,0,0,-1,1672,750,0,0
455,274,0,0,0,0,0,0,0,0,0,-1,1679,750,0,0
462,274,0,0,0,0,0,0,0,0,0,-1,1686,750,0,0
469,274,0,0,0,0,0,0,0,0,0,-1,1693,750,0,0
476,274,0,0,0,0,0,0,0,0,0,-1,1700,750,0,0
483,274,0,0,0,0,0,0,0,0,0,-1,1707,750,0,0
490,274,0,0,0,0,0,0,0,0,0,-1,1714,750,0,0
497,274,0,0,0,0,0,0,0,0,0,-1,1721,750,0,0
504,274,0,0,0,0,0,0,0,0,0,-1,1728,750,0,0
511,274,0,0,0,0,0,0,0,0,0,-1,1735,750,0,0
518,274,0,0,0,0,0,0,0,0,0,-1,1742,750,0,0
525,274,0,0,0,0,0,0,0,0,0,-1,1749,750,0,0
532,274,0,0,0,0,0,0,0,0,0,-1,1756,750,0,0
539,274,0,0,0,0,0,0,0,0,0,-1,1763,750,0,0
546,274,0,0,0,0,0,0,0,0,0,-1,1770,750,0,0
553,274,0,0,0,0,0,0,0,0,0,-1,1777,750,0,0
560,274,14.2083,2.07465,-0.0045183,0.00135155,0.0260824,0.0246637,-0.0278304,0.841425,0.0303259,0.0406119,1784,750,14.2083,-2.07463
567,274,14.0242,2.35773,-0.0160777,0.00591656,0.0215364,0.0191011,-0.0292623,1.02146,0.0281273,0.0399195,1791,750,14.0242,-2.35774
574,274,13.9482,2.39276,-0.017406,0.00966388,0.0167285,0.0176473,-0.0253894,1.12553,0.0249809,0.0445904,1798,750,13.9483,-2.39276
581,274,13.9359,2.57733,-0.0164543,0.0110523,0.0124341,0.0158398,-0.0212418,1.20326,0.0214847,0.0424774,1805,750,13.9359,-2.57731
588,274,13.947,2.77734,0,0,0,0,0,0,0,-1,1812,750,13.9471,-2.77737
595,274,10.1998,3.55963,0,0,0,0,0,0,0,-1,1819,750,10.1999,-3.55963
602,274,10.3384,3.27063,0,0,0,0,0,0,0,-1,1826,750,10.3383,-3.27065
609,274,10.2533,2.97589,-0.0123105,0.0109097,0.000385676,0.0109161,-0.0123169,1.55419,0.0134217,0.0487748,1833,750,10.2533,-2.9759
616,274,10.1234,2.40491,-0.0108411,0.0100839,-0.00183008,0.0102428,-0.011,-1.48421,0.0122671,0.0469321,1840,750,10.1234,-2.40489
623,274,10.037,0.778625,0,0,0,0,0,0,0,-1,1847,750,10.037,-0.778656
630,274,9.93359,0.624634,-0.0081937,0.00712171,-0.00274346,0.00759832,-0.0086703,-1.39879,0.00939949,0.0410475,1854,750,9.93361,-0.624654
637,274,9.83057,0.491577,-0.00696624,0.0051035,-0.00225594,0.00551137,-0.00737411,-1.39193,0.0074653,0.0127889,1861,750,9.83054,-0.491599
644,274,9.83826,0.646912,-0.00534181,0.00351588,-0.00160744,0.00379857,-0.00562449,-1.39672,0.00547435,0.0114815,1868,750,9.83826,-0.646928
651,274,9.83984,0.820618,-0.0033996,0.00215666,-0.00111974,0.00237383,-0.00361677,-1.37923,0.0034834,0.0130287,1875,750,9.83982,-0.820641
658,274,9.84399,0.967346,-0.000913766,0.00138477,-0.000715224,0.00158915,-0.00111815,-1.29246,0.00157092,0.015665,1882,750,9.84403,-0.967334
665,274,9.83691,1.12799,0.000532164,0.000374435,-9.00992e-05,0.000573039,0.00033356,-0.425895,0.000332327,0.0150123,1889,750,9.83692,-1.12799
672,274,9.82935,1.28711,0.00114077,0.000162544,0.000172192,0.00117019,0.000133119,0.16925,0.00073976,0.0120069,1896,750,9.82932,-1.28709
679,274,9.84644,1.43591,0.0022641,0.000489592,0.000382213,0.00234293,0.000410768,0.203379,0.00144463,0.0135472,1903,750,9.84648,-1.4359
686,274,9.84216,1.58679,0.00435078,-3.11528e-05,0.000404394,0.00438779,-6.81602e-05,0.0912594,0.00294818,0.0145754,1910,750,9.84214,-1.5868
693,274,9.82983,1.75317,0.00791562,-0.00143362,0.000159213,0.00791833,-0.00143633,0.017023,0.00581707,0.0113927,1917,750,9.82984,-1.75316
700,274,9.8429,1.91608,0.0132954,-0.00456009,-7.23e-05,0.0132957,-0.00456038,-0.00404908,0.0107126,0.0137378,1924,750,9.84291,-1.91606
707,274,9.87671,2.04797,0.0206711,-0.00831895,0.000174603,0.0206721,-0.00832,0.00602259,0.0172376,0.0222543,1931,750,9.87666,-2.04798
714,274,9.92358,2.03613,0.0308167,-0.0135823,0.000503369,0.0308224,-0.013588,0.0113355,0.0262761,0.0403729,1938,750,9.9236,-2.03612
721,274,9.84119,1.95465,0.0440305,-0.0213234,0.000657754,0.0440371,-0.02133,0.0100631,0.0384912,0.0468458,1945,750,9.84123,-1.95465
728,274,9.82349,1.90552,0,0,0,0,0,0,0,-1,1952,750,9.82354,-1.90552
735,274,9.651,1.67072,0,0,0,0,0,0,0,-1,1959,750,9.65102,-1.67071
742,274,11.7815,-0.740234,0,0,0,0,0,0,0,-1,1966,750,11.7815,0.740253
749,274,0,0,0,0,0,0,0,0,0,-1,1973,750,0,0
756,274,0,0,0,0,0,0,0,0,0,-1,1980,750,0,0
763,274,0,0,0,0,0,0,0,0,0,-1,1987,750,0,0
770,274,0,0,0,0,0,0,0,0,0,-1,1994,750,0,0
777,274,0,0,0,0,0,0,0,0,0,-1,2001,750,0,0
784,274,0,0,0,0,0,0,0,0,0,-1,2008,750,0,0
791,274,0,0,0,0,0,0,0,0,0,-1,2015,750,0,0
798,274,0,0,0,0,0,0,0,0,0,-1,2022,750,0,0
805,274,0,0,0,0,0,0,0,0,0,-1,2029,750,0,0
812,274,0,0,0,0,0,0,0,0,0,-1,2036,750,0,0
-700,267,0,0,0,0,0,0,0,0,0,-1,524,757,0,0
-693,267,0,0,0,0,0,0,0,0,0,-1,531,757,0,0
-686,267,0,0,0,0,0,0,0,0,0,-1,538,757,0,0
-679,267,0,0,0,0,0,0,0,0,0,-1,545,757,0,0
-672,267,0,0,0,0,0,0,0,0,0,-1,552,757,0,0
-665,267,0,0,0,0,0,0,0,0,0,-1,559,757,0,0
-658,267,0,0,0,0,0,0,0,0,0,-1,566,757,0,0
-651,267,0,0,0,0,0,0,0,0,0,-1,573,757,0,0
-644,267,0,0,0,0,0,0,0,0,0,-1,580,757,0,0
-637,267,0,0,0,0,0,0,0,0,0,-1,587,757,0,0
-630,267,-5.15479,4.2218,0,0,0,0,0,0,0,-1,594,757,-5.15478,-4.22179
-623,267,-4.7674,3.72876,0,0,0,0,0,0,0,-1,601,757,-4.76742,-3.72876
-616,267,-4.14825,3.9436,0,0,0,0,0,0,0,-1,608,757,-4.14827,-3.9436
-609,267,-4.22589,3.2049,0.0227217,-0.0259106,-0.0230627,0.0319191,-0.035108,-0.379474,0.0387127,0.0482005,615,757,-4.22592,-3.20492
-602,267,-4.31671,2.46155,0.016591,-0.0183885,-0.0188517,0.0248166,-0.026614,-0.411428,0.0296995,0.0463231,622,757,-4.31672,-2.46156
-595,267,-4.81897,1.71234,0,0,0,0,0,0,0,-1,629,757,-4.81895,-1.71232
-588,267,-4.81525,1.10077,0.00743516,-0.00901893,-0.0110679,0.0129988,-0.0145826,-0.46579,0.0159328,0.0426812,636,757,-4.81525,-1.1008
-581,267,-5.06427,0.375732,0.00417084,-0.00604811,-0.0077354,0.00833192,-0.0102092,-0.493527,0.010723,0.0265595,643,757,-5.06428,-0.375706
-574,267,-5.1554,0.202454,0.00170581,-0.00411584,-0.00496944,0.00455418,-0.00696421,-0.520462,0.00669849,0.0135085,650,757,-5.15542,-0.202443
-567,267,-5.19,0.0905762,-0.00047565,-0.00222494,-0.00277719,0.00156137,-0.00426196,-0.632845,0.00348052,0.0193263,657,757,-5.18998,-0.0905951
-560,267,-5.16528,-0.0257568,-0.00148175,-0.00108773,-0.0014073,0.000136281,-0.00270576,-0.854943,0.00185094,0.020753,664,757,-5.16528,0.0257773
-553,267,-5.15723,-0.200378,-0.00128974,-0.000444245,-0.000281825,-0.000358917,-0.00137506,-1.2768,0.000823566,0.0181576,671,757,-5.15724,0.200389
-546,267,-5.17523,-0.347412,-0.000460799,-0.000315053,0.00103998,0.0006546,-0.00143045,0.820377,0.00123127,0.0117211,678,757,-5.17521,0.347429
-539,267,-5.164,-0.478455,0.00115928,0.000920481,0.00134295,0.00238813,-0.000308371,0.741061,0.0017042,0.0100407,685,757,-5.16399,0.478463
-532,267,-5.15875,-0.608643,0.00329415,0.00232514,0.00255731,0.00541245,0.000206837,0.691779,0.00354137,0.00946505,692,757,-5.15874,0.608663
-525,267,-5.16156,-0.751465,0.00419935,0.00440646,0.00381141,0.00811572,0.000490085,0.79898,0.00525474,0.00904102,699,757,-5.16157,0.751473
-518,267,-5.1712,-0.913208,0.00408129,0.00581053,0.00453456,0.00956216,0.000329652,0.879604,0.00626778,0.0095699,706,757,-5.17123,0.913186
-511,267,-5.15155,-1.08337,0.00390243,0.00766158,0.0055404,0.0116325,-6.85416e-05,0.948931,0.00777798,0.0137068,713,757,-5.15154,1.08338
-504,267,-5.14105,-1.18964,0.00272816,0.00920776,0.00649709,0.013228,-0.00129211,1.01668,0.00927942,0.0275053,720,757,-5.14106,1.18962
-497,267,-5.12677,-1.14746,0.00021901,0.0104301,0.007572,0.014457,-0.00380791,1.08202,0.0111267,0.0455943,727,757,-5.12677,1.14746
-490,267,-5.09216,-1.16718,0,0,0,0,0,0,0,-1,734,757,-5.09215,1.16718
-483,267,-3.73401,1.69623,-0.0102228,0.010887,0.00781931,0.0134678,-0.0128037,1.252,0.0151695,0.0444455,741,757,-3.73402,-1.69624
-476,267,-4.07458,3.14813,-0.0182962,0.00971578,0.00595018,0.0109273,-0.0195077,1.36993,0.0178029,0.0448735,748,757,-4.07462,-3.14816
-469,267,-8.5025,0.308533,-0.0282121,0.00736681,0.00202668,0.00748189,-0.0283272,1.51408,0.0218108,0.042352,755,757,-8.50252,-0.308541
-462,267,-8.82806,0.877686,-0.039878,0.00358584,-0.0044102,0.00402882,-0.040321,-1.47069,0.0283193,0.0445729,762,757,-8.82804,-0.877698
-455,267,-8.7876,0.656921,-0.0493444,-0.0013151,-0.0159685,0.0035094,-0.0541689,-1.27739,0.0373374,0.048891,769,757,-8.7876,-0.656914
-448,267,-8.67993,0.422241,0,0,0,0,0,0,0,-1,776,757,-8.67995,-0.422212
-441,267,0,0,0,0,0,0,0,0,0,-1,783,757,0,0
-434,267,0,0,0,0,0,0,0,0,0,-1,790,757,0,0
-427,267,0,0,0,0,0,0,0,0,0,-1,797,757,0,0
-420,267,0,0,0,0,0,0,0,0,0,-1,804,757,0,0
-413,267,0,0,0,0,0,0,0,0,0,-1,811,757,0,0
-406,267,0,0,0,0,0,0,0,0,0,-1,818,757,0,0
-399,267,0,0,0,0,0,0,0,0,0,-1,825,757,0,0
-392,267,0,0,0,0,0,0,0,0,0,-1,832,757,0,0
-385,267,0,0,0,0,0,0,0,0,0,-1,839,757,0,0
-378,267,0,0,0,0,0,0,0,0,0,-1,846,757,0,0
-371,267,0,0,0,0,0,0,0,0,0,-1,853,757,0,0
-364,267,0,0,0,0,0,0,0,0,0,-1,860,757,0,0
-357,267,0,0,0,0,0,0,0,0,0,-1,867,757,0,0
-350,267,0,0,0,0,0,0,0,0,0,-1,874,757,0,0
-343,267,0,0,0,0,0,0,0,0,0,-1,881,757,0,0
-336,267,0,0,0,0,0,0,0,0,0,-1,888,757,0,0
-329,267,0,0,0,0,0,0,0,0,0,-1,895,757,0,0
-322,267,0,0,0,0,0,0,0,0,0,-1,902,757,0,0
-315,267,0,0,0,0,0,0,0,0,0,-1,909,757,0,0
-308,267,0,0,0,0,0,0,0,0,0,-1,916,757,0,0
-301,267,0,0,0,0,0,0,0,0,0,-1,923,757,0,0
-294,267,0,0,0,0,0,0,0,0,0,-1,930,757,0,0
-287,267,0,0,0,0,0,0,0,0,0,-1,937,757,0,0
-280,267,0,0,0,0,0,0,0,0,0,-1,944,757,0,0
-273,267,0,0,0,0,0,0,0,0,0,-1,951,757,0,0
-266,267,0,0,0,0,0,0,0,0,0,-1,958,757,0,0
-259,267,0,0,0,0,0,0,0,0,0,-1,965,757,0,0
-252,267,0,0,0,0,0,0,0,0,0,-1,972,757,0,0
-245,267,0,0,0,0,0,0,0,0,0,-1,979,757,0,0
-238,267,0,0,0,0,0,0,0,0,0,-1,986,757,0,0
-231,267,0,0,0,0,0,0,0,0,0,-1,993,757,0,0
-224,267,0,0,0,0,0,0,0,0,0,-1,1000,757,0,0
-217,267,0,0,0,0,0,0,0,0,0,-1,1007,757,0,0
-210,267,0,0,0,0,0,0,0,0,0,-1,1014,757,0,0
-203,267,0,0,0,0,0,0,0,0,0,-1,1021,757,0,0
-196,267,0,0,0,0,0,0,0,0,0,-1,1028,757,0,0
-189,267,0,0,0,0,0,0,0,0,0,-1,1035,757,0,0
-182,267,0,0,0,0,0,0,0,0,0,-1,1042,757,0,0
-175,267,0,0,0,0,0,0,0,0,0,-1,1049,757,0,0
-168,267,0,0,0,0,0,0,0,0,0,-1,1056,757,0,0
-161,267,0,0,0,0,0,0,0,0,0,-1,1063,757,0,0
-154,267,0,0,0,0,0,0,0,0,0,-1,1070,757,0,0
-147,267,0,0,0,0,0,0,0,0,0,-1,1077,757,0,0
-140,267,0,0,0,0,0,0,0,0,0,-1,1084,757,0,0
-133,267,0,0,0,0,0,0,0,0,0,-1,1091,757,0,0
-126,267,0,0,0,0,0,0,0,0,0,-1,1098,757,0,0
-119,267,0,0,0,0,0,0,0,0,0,-1,1105,757,0,0
-112,267,0,0,0,0,0,0,0,0,0,-1,1112,757,0,0
-105,267,0,0,0,0,0,0,0,0,0,-1,1119,757,0,0
-98,267,0,0,0,0,0,0,0,0,0,-1,1126,757,0,0
-91,267,0,0,0,0,0,0,0,0,0,-1,1133,757,0,0
-84,267,0,0,0,0,0,0,0,0,0,-1,1140,757,0,0
-77,267,0,0,0,0,0,0,0,0,0,-1,1147,757,0,0
-70,267,0,0,0,0,0,0,0,0,0,-1,1154,757,0,0
-63,267,0,0,0,0,0,0,0,0,0,-1,1161,757,0,0
-56,267,0,0,0,0,0,0,0,0,0,-1,1168,757,0,0
-49,267,0,0,0,0,0,0,0,0,0,-1,1175,757,0,0
-42,267,0,0,0,0,0,0,0,0,0,-1,1182,757,0,0
-35,267,0,0,0,0,0,0,0,0,0,-1,1189,757,0,0
-28,267,0,0,0,0,0,0,0,0,0,-1,1196,757,0,0
-21,267,0,0,0,0,0,0,0,0,0,-1,1203,757,0,0
-14,267,0,0,0,0,0,0,0,0,0,-1,1210,757,0,0
-7,267,0,0,0,0,0,0,0,0,0,-1,1217,757,0,0
0,267,0,0,0,0,0,0,0,0,0,-1,1224,757,0,0
7,267,0,0,0,0,0,0,0,0,0,-1,1231,757,0,0
14,267,0,0,0,0,0,0,0,0,0,-1,1238,757,0,0
21,267,0,0,0,0,0,0,0,0,0,-1,1245,757,0,0
28,267,0,0,0,0,0,0,0,0,0,-1,1252,757,0,0
35,267,0,0,0,0,0,0,0,0,0,-1,1259,757,0,0
42,267,0,0,0,0,0,0,0,0,0,-1,1266,757,0,0
49,267,0,0,0,0,0,0,0,0,0,-1,1273,757,0,0
56,267,0,0,0,0,0,0,0,0,0,-1,1280,757,0,0
63,267,0,0,0,0,0,0,0,0,0,-1,1287,757,0,0
70,267,0,0,0,0,0,0,0,0,0,-1,1294,757,0,0
77,267,0,0,0,0,0,0,0,0,0,-1,1301,757,0,0
84,267,0,0,0,0,0,0,0,0,0,-1,1308,757,0,0
91,267,0,0,0,0,0,0,0,0,0,-1,1315,757,0,0
98,267,0,0,0,0,0,0,0,0,0,-1,1322,757,0,0
105,267,0,0,0,0,0,0,0,0,0,-1,1329,757,0,0
112,267,0,0,0,0,0,0,0,0,0,-1,1336,757,0,0
119,267,0,0,0,0,0,0,0,0,0,-1,1343,757,0,0
126,267,0,0,0,0,0,0,0,0,0,-1,1350,757,0,0
133,267,0,0,0,0,0,0,0,0,0,-1,1357,757,0,0
140,267,0,0,0,0,0,0,0,0,0,-1,1364,757,0,0
147,267,0,0,0,0,0,0,0,0,0,-1,1371,757,0,0
154,267,0,0,0,0,0,0,0,0,0,-1,1378,757,0,0
161,267,0,0,0,0,0,0,0,0,0,-1,1385,757,0,0
168,267,0,0,0,0,0,0,0,0,0,-1,1392,757,0,0
175,267,0,0,0,0,0,0,0,0,0,-1,1399,757,0,0
182,267,0,0,0,0,0,0,0,0,0,-1,1406,757,0,0
189,267,0,0,0,0,0,0,0,0,0,-1,1413,757,0,0
196,267,0,0,0,0,0,0,0,0,0,-1,1420,757,0,0
203,267,0,0,0,0,0,0,0,0,0,-1,1427,757,0,0
210,267,0,0,0,0,0,0,0,0,0,-1,1434,757,0,0
217,267,0,0,0,0,0,0,0,0,0,-1,1441,757,0,0
224,267,0,0,0,0,0,0,0,0,0,-1,1448,757,0,0
231,267,0,0,0,0,0,0,0,0,0,-1,1455,757,0,0
238,267,0,0,0,0,0,0,0,0,0,-1,1462,757,0,0
245,267,0,0,0,0,0,0,0,0,0,-1,1469,757,0,0
252,267,0,0,0,0,0,0,0,0,0,-1,1476,757,0,0
259,267,0,0,0,0,0,0,0,0,0,-1,1483,757,0,0
266,267,0,0,0,0,0,0,0,0,0,-1,1490,757,0,0
273,267,0,0,0,0,0,0,0,0,0,-1,1497,757,0,0
280,267,0,0,0,0,0,0,0,0,0,-1,1504,757,0,0
287,267,0,0,0,0,0,0,0,0,0,-1,1511,757,0,0
294,267,0,0,0,0,0,0,0,0,0,-1,1518,757,0,0
301,267,0,0,0,0,0,0,0,0,0,-1,1525,757,0,0
308,267,0,0,0,0,0,0,0,0,0,-1,1532,757,0,0
315,267,0,0,0,0,0,0,0,0,0,-1,1539,757,0,0
322,267,0,0,0,0,0,0,0,0,0,-1,1546,757,0,0
329,267,0,0,0,0,0,0,0,0,0,-1,1553,757,0,0
336,267,0,0,0,0,0,0,0,0,0,-1,1560,757,0,0
343,267,0,0,0,0,0,0,0,0,0,-1,1567,757,0,0
350,267,0,0,0,0,0,0,0,0,0,-1,1574,757,0,0
357,267,0,0,0,0,0,0,0,0,0,-1,1581,757,0,0
364,267,0,0,0,0,0,0,0,0,0,-1,1588,757,0,0
371,267,0,0,0,0,0,0,0,0,0,-1,1595,757,0,0
378,267,0,0,0,0,0,0,0,0,0,-1,1602,757,0,0
385,267,0,0,0,0,0,0,0,0,0,-1,1609,757,0,0
392,267,0,0,0,0,0,0,0,0,0,-1,1616,757,0,0
399,267,0,0,0,0,0,0,0,0,0,-1,1623,757,0,0
406,267,0,0,0,0,0,0,0,0,0,-1,1630,757,0,0
413,267,0,0,0,0,0,0,0,0,0,-1,1637,757,0,0
420,267,0,0,0,0,0,0,0,0,0,-1,1644,757,0,0
427,267,0,0,0,0,0,0,0,0,0,-1,1651,757,0,0
434,267,0,0,0,0,0,0,0,0,0,-1,1658,757,0,0
441,267,0,0,0,0,0,0,0,0,0,-1,1665,757,0,0
448,267,0,0,0,0,0,0,0,0,0,-1,1672,757,0,0
455,267,0,0,0,0,0,0,0,0,0,-1,1679,757,0,0
462,267,0,0,0,0,0,0,0,0,0,-1,1686,757,0,0
469,267,0,0,0,0,0,0,0,0,0,-1,1693,757,0,0
476,267,0,0,0,0,0,0,0,0,0,-1,1700,757,0,0
483,267,0,0,0,0,0,0,0,0,0,-1,1707,757,0,0
490,267,0,0,0,0,0,0,0,0,0,-1,1714,757,0,0
497,267,0,0,0,0,0,0,0,0,0,-1,1721,757,0,0
504,267,0,0,0,0,0,0,0,0,0,-1,1728,757,0,0
511,267,0,0,0,0,0,0,0,0,0,-1,1735,757,0,0
518,267,0,0,0,0,0,0,0,0,0,-1,1742,757,0,0
525,267,0,0,0,0,0,0,0,0,0,-1,1749,757,0,0
532,267,0,0,0,0,0,0,0,0,0,-1,1756,757,0,0
539,267,0,0,0,0,0,0,0,0,0,-1,1763,757,0,0
546,267,0,0,0,0,0,0,0,0,0,-1,1770,757,0,0
553,267,0,0,0,0,0,0,0,0,0,-1,1777,757,0,0
560,267,0,0,0,0,0,0,0,0,0,-1,1784,757,0,0
567,267,14.0106,2.19806,-0.00820688,0.00406734,0.0179924,0.0169406,-0.0210801,0.949757,0.0219946,0.0366282,1791,757,14.0106,-2.19805
574,267,13.9176,2.35999,-0.0139956,0.0100574,0.013855,0.0163775,-0.0203157,1.14283,0.0212255,0.0380661,1798,757,13.9175,-2.36
581,267,14.0043,2.33008,-0.015213,0.0122681,0.0100833,0.0155709,-0.0185158,1.25426,0.0197045,0.0380076,1805,757,14.0043,-2.33007
588,267,14.1389,2.23273,0,0,0,0,0,0,0,-1,1812,757,14.139,-2.23272
595,267,13.9552,1.84686,0,0,0,0,0,0,0,-1,1819,757,13.9552,-1.84687
602,267,9.11047,2.10968,0,0,0,0,0,0,0,-1,1826,757,9.11042,-2.10965
609,267,9.25281,2.19019,-0.0132037,0.0115678,-0.000173523,0.011569,-0.0132049,-1.56379,0.0143137,0.046464,1833,757,9.25286,-2.19019
616,267,9.51453,1.95612,-0.0117671,0.0104627,-0.0019105,0.0106257,-0.0119301,-1.48568,0.0130299,0.0450304,1840,757,9.5145,-1.9561
623,267,9.93066,1.10669,-0.0102333,0.00917856,-0.00273954,0.00955778,-0.0106125,-1.43325,0.0116506,0.0440969,1847,757,9.93064,-1.1067
630,267,9.99829,0.571533,-0.00883406,0.00708557,-0.0023696,0.0074308,-0.00917928,-1.42613,0.00960753,0.0386376,1854,757,9.99823,-0.571529
637,267,10.0078,0.478638,-0.00747235,0.00502805,-0.00181951,0.00528751,-0.00773181,-1.42916,0.00756073,0.0247843,1861,757,10.0078,-0.478657
644,267,9.9834,0.641052,-0.00574716,0.00338605,-0.00113628,0.0035253,-0.0058864,-1.44886,0.00549055,0.0120641,1868,757,9.98339,-0.64106
651,267,9.98523,0.833069,-0.00371127,0.00198316,-0.000669801,0.00206089,-0.003789,-1.45527,0.0034262,0.014146,1875,757,9.98524,-0.833057
658,267,9.98242,0.970276,-0.00101147,0.00118344,-0.000379224,0.00124711,-0.00107514,-1.40444,0.00134198,0.0144538,1882,757,9.98246,-0.970251
665,267,9.99329,1.1203,0.000586379,-6.70272e-05,0.000234176,0.000661638,-0.000142286,0.310951,0.000495379,0.0141985,1889,757,9.99331,-1.1203
672,267,10.0144,1.29114,0.00106587,-0.000305912,0.00028083,0.00112113,-0.000361177,0.194309,0.000892515,0.0119065,1896,757,10.0144,-1.29114
679,267,10.0029,1.43439,0.0020333,1.28022e-05,0.000261494,0.00206659,-2.04918e-05,0.126641,0.00138461,0.0113722,1903,757,10.0029,-1.4344
686,267,10.0028,1.60938,0.00402628,-0.000616521,4.55724e-05,0.00402673,-0.000616969,0.00981445,0.00291201,0.0119728,1910,757,10.0028,-1.60935
693,267,9.98877,1.75439,0.00758744,-0.00214284,-0.000487637,0.00761182,-0.00216721,-0.0499486,0.00593045,0.0124217,1917,757,9.98882,-1.75441
700,267,9.99109,1.91095,0.0128933,-0.00549797,-0.00109886,0.0129587,-0.00556339,-0.0594671,0.0109742,0.0149591,1924,757,9.99111,-1.91094
707,267,10.0051,2.04834,0.0202641,-0.00927515,-0.00116742,0.0203102,-0.00932121,-0.0394391,0.0174954,0.0155668,1931,757,10.0052,-2.04835
714,267,10.0226,2.04889,0.0303383,-0.0140852,-0.00104861,0.030363,-0.01411,-0.0235874,0.0262418,0.0291038,1938,757,10.0225,-2.04889
721,267,10.1965,1.94537,0.0433065,-0.0213391,-0.00120964,0.0433291,-0.0213617,-0.0187031,0.0380603,0.0456642,1945,757,10.1965,-1.94536
728,267,10.4175,1.44055,0,0,0,0,0,0,0,-1,1952,757,10.4175,-1.44058
735,267,10.5096,0.97467,0,0,0,0,0,0,0,-1,1959,757,10.5097,-0.974699
742,267,11.8174,0.0310059,0,0,0,0,0,0,0,-1,1966,757,11.8173,-0.0309843
749,267,0,0,0,0,0,0,0,0,0,-1,1973,757,0,0
756,267,0,0,0,0,0,0,0,0,0,-1,1980,757,0,0
763,267,0,0,0,0,0,0,0,0,0,-1,1987,757,0,0
770,267,0,0,0,0,0,0,0,0,0,-1,1994,757,0,0
777,267,0,0,0,0,0,0,0,0,0,-1,2001,757,0,0
784,267,0,0,0,0,0,0,0,0,0,-1,2008,757,0,0
791,267,0,0,0,0,0,0,0,0,0,-1,2015,757,0,0
798,267,0,0,0,0,0,0,0,0,0,-1,2022,757,0,0
805,267,0,0,0,0,0,0,0,0,0,-1,2029,757,0,0
812,267,0,0,0,0,0,0,0,0,0,-1,2036,757,0,0
-700,260,0,0,0,0,0,0,0,0,0,-1,524,764,0,0
-693,260,0,0,0,0,0,0,0,0,0,-1,531,764,0,0
-686,260,0,0,0,0,0,0,0,0,0,-1,538,764,0,0
-679,260,0,0,0,0,0,0,0,0,0,-1,545,764,0,0
-672,260,0,0,0,0,0,0,0,0,0,-1,552,764,0,0
-665,260,0,0,0,0,0,0,0,0,0,-1,559,764,0,0
-658,260,0,0,0,0,0,0,0,0,0,-1,566,764,0,0
-651,260,0,0,0,0,0,0,0,0,0,-1,573,764,0,0
-644,260,0,0,0,0,0,0,0,0,0,-1,580,764,0,0
-637,260,0,0,0,0,0,0,0,0,0,-1,587,764,0,0
-630,260,-5.63519,5.23328,0,0,0,0,0,0,0,-1,594,764,-5.63516,-5.2333
-623,260,-5.15674,4.68787,0.0428994,-0.0253149,-0.0266218,0.0520591,-0.0344746,-0.331379,0.0503029,0.0448893,601,764,-5.15676,-4.68784
-616,260,-4.84399,3.91193,0.0373666,-0.0196051,-0.0250724,0.046829,-0.0290675,-0.360876,0.044217,0.04695,608,764,-4.84397,-3.9119
-609,260,-4.60535,3.35901,0.03034,-0.014212,-0.0221005,0.0394431,-0.0233151,-0.390722,0.0366301,0.0444373,615,764,-4.60533,-3.35902
-602,260,-4.45123,2.75262,0.0233501,-0.00967906,-0.0184648,0.031608,-0.017937,-0.420547,0.0289656,0.0459773,622,764,-4.45122,-2.75263
-595,260,-4.14819,1.82935,0.0172624,-0.00679418,-0.014776,0.0242869,-0.0138187,-0.443776,0.0222753,0.0484797,629,764,-4.14822,-1.82936
-588,260,-5.43701,0.878052,0,0,0,0,0,0,0,-1,636,764,-5.43699,-0.878047
-581,260,-5.2569,0.360962,0.00776316,-0.00272635,-0.00823035,0.0122778,-0.00724101,-0.50172,0.0113936,0.0213703,643,764,-5.2569,-0.360991
-574,260,-5.32068,0.226746,0.00422579,-0.00179717,-0.005414,0.0074095,-0.00498088,-0.531588,0.00719925,0.014067,650,764,-5.32067,-0.226772
-567,260,-5.33716,0.0992432,0.00116234,-0.000629696,-0.00312319,0.0035155,-0.00298286,-0.645704,0.00375603,0.0150829,657,764,-5.33717,-0.0992241
-560,260,-5.32251,-0.0280762,-0.000263778,-2.91065e-05,-0.0017368,0.00159432,-0.0018872,-0.819126,0.00201243,0.0176991,664,764,-5.32252,0.0280697
-553,260,-5.30316,-0.17749,-0.000216507,0.000422865,-0.00074633,0.000915095,-0.000708738,-0.987748,0.00094004,0.0172413,671,764,-5.30314,0.177479
-546,260,-5.29492,-0.334778,0.000425976,0.000367784,0.000631384,0.00102893,-0.000235173,0.762373,0.000776313,0.0112551,678,764,-5.29491,0.334758
-539,260,-5.29962,-0.459351,0.00200124,0.00159929,0.00104387,0.0028633,0.000737226,0.690296,0.00171673,0.0104245,685,764,-5.29963,0.45936
-532,260,-5.30975,-0.597229,0.00417614,0.00311572,0.00228847,0.00599503,0.00129684,0.671563,0.00364219,0.0118803,692,764,-5.30975,0.597205
-525,260,-5.30902,-0.749756,0.00515081,0.00532513,0.00343385,0.00867292,0.00180302,0.798086,0.00528448,0.0109262,699,764,-5.30904,0.749735
-518,260,-5.30646,-0.901367,0.00511805,0.00696039,0.00403655,0.0101795,0.00189889,0.897581,0.0062503,0.0109168,706,764,-5.30646,0.901372
-511,260,-5.27887,-1.04559,0.00504164,0.00905596,0.00491978,0.0123623,0.00173534,0.979081,0.00772828,0.018395,713,764,-5.27889,1.04558
-504,260,-5.23102,-1.11963,0.00398255,0.0109469,0.00577426,0.0142077,0.000721745,1.05673,0.00924059,0.0383238,720,764,-5.23103,1.11964
-497,260,-5.26227,-1.13257,0,0,0,0,0,0,0,-1,727,764,-5.26228,1.13254
-490,260,-5.4657,1.54633,-0.00270125,0.0135342,0.00755558,0.0165063,-0.00567334,1.19602,0.0133048,0.0475387,734,764,-5.46573,-1.54632
-483,260,-4.9317,2.25586,-0.00904262,0.0137311,0.00736785,0.0159069,-0.0112184,1.28365,0.0157386,0.0450852,741,764,-4.93173,-2.25587
-476,260,-4.50879,2.87231,-0.0176215,0.0129199,0.00580973,0.0139878,-0.0186893,1.38903,0.0189311,0.044925,748,764,-4.50881,-2.87228
-469,260,-8.49176,0.883362,-0.0285994,0.0108333,0.00229184,0.0109661,-0.0287322,1.51294,0.0236725,0.0451349,755,764,-8.49178,-0.883356
-462,260,-8.52338,0.737122,-0.042006,0.00728242,-0.00367538,0.00755498,-0.0422785,-1.49677,0.0310123,0.0432024,762,764,-8.52336,-0.737114
-455,260,-8.63635,0.470154,-0.0535609,0.00256594,-0.015274,0.00645327,-0.0574482,-1.32158,0.0406211,0.0471187,769,764,-8.63638,-0.470146
-448,260,0,0,0,0,0,0,0,0,0,-1,776,764,0,0
-441,260,0,0,0,0,0,0,0,0,0,-1,783,764,0,0
-434,260,0,0,0,0,0,0,0,0,0,-1,790,764,0,0
-427,260,0,0,0,0,0,0,0,0,0,-1,797,764,0,0
-420,260,0,0,0,0,0,0,0,0,0,-1,804,764,0,0
-413,260,0,0,0,0,0,0,0,0,0,-1,811,764,0,0
-406,260,0,0,0,0,0,0,0,0,0,-1,818,764,0,0
-399,260,0,0,0,0,0,0,0,0,0,-1,825,764,0,0
-392,260,0,0,0,0,0,0,0,0,0,-1,832,764,0,0
-385,260,0,0,0,0,0,0,0,0,0,-1,839,764,0,0
-378,260,0,0,0,0,0,0,0,0,0,-1,846,764,0,0
-371,260,0,0,0,0,0,0,0,0,0,-1,853,764,0,0
-364,260,0,0,0,0,0,0,0,0,0,-1,860,764,0,0
-357,260,0,0,0,0,0,0,0,0,0,-1,867,764,0,0
-350,260,0,0,0,0,0,0,0,0,0,-1,874,764,0,0
-343,260,0,0,0,0,0,0,0,0,0,-1,881,764,0,0
-336,260,0,0,0,0,0,0,0,0,0,-1,888,764,0,0
-329,260,0,0,0,0,0,0,0,0,0,-1,895,764,0,0
-322,260,0,0,0,0,0,0,0,0,0,-1,902,764,0,0
-315,260,0,0,0,0,0,0,0,0,0,-1,909,764,0,0
-308,260,0,0,0,0,0,0,0,0,0,-1,916,764,0,0
-301,260,0,0,0,0,0,0,0,0,0,-1,923,764,0,0
-294,260,0,0,0,0,0,0,0,0,0,-1,930,764,0,0
-287,260,0,0,0,0,0,0,0,0,0,-1,937,764,0,0
-280,260,0,0,0,0,0,0,0,0,0,-1,944,764,0,0
-273,260,0,0,0,0,0,0,0,0,0,-1,951,764,0,0
-266,260,0,0,0,0,0,0,0,0,0,-1,958,764,0,0
-259,260,0,0,0,0,0,0,0,0,0,-1,965,764,0,0
-252,260,0,0,0,0,0,0,0,0,0,-1,972,764,0,0
-245,260,0,0,0,0,0,0,0,0,0,-1,979,764,0,0
-238,260,0,0,0,0,0,0,0,0,0,-1,986,764,0,0
-231,260,0,0,0,0,0,0,0,0,0,-1,993,764,0,0
-224,260,0,0,0,0,0,0,0,0,0,-1,1000,764,0,0
-217,260,0,0,0,0,0,0,0,0,0,-1,1007,764,0,0
-210,260,0,0,0,0,0,0,0,0,0,-1,1014,764,0,0
-203,260,0,0,0,0,0,0,0,0,0,-1,1021,764,0,0
-196,260,0,0,0,0,0,0,0,0,0,-1,1028,764,0,0
-189,260,0,0,0,0,0,0,0,0,0,-1,1035,764,0,0
-182,260,0,0,0,0,0,0,0,0,0,-1,1042,764,0,0
-175,260,0,0,0,0,0,0,0,0,0,-1,1049,764,0,0
-168,260,0,0,0,0,0,0,0,0,0,-1,1056,764,0,0
-161,260,0,0,0,0,0,0,0,0,0,-1,1063,764,0,0
-154,260,0,0,0,0,0,0,0,0,0,-1,1070,764,0,0
-147,260,0,0,0,0,0,0,0,0,0,-1,1077,764,0,0
-140,260,0,0,0,0,0,0,0,0,0,-1,1084,764,0,0
-133,260,0,0,0,0,0,0,0,0,0,-1,1091,764,0,0
-126,260,0,0,0,0,0,0,0,0,0,-1,1098,764,0,0
-119,260,0,0,0,0,0,0,0,0,0,-1,1105,764,0,0
-112,260,0,0,0,0,0,0,0,0,0,-1,1112,764,0,0
-105,260,0,0,0,0,0,0,0,0,0,-1,1119,764,0,0
-98,260,0,0,0,0,0,0,0,0,0,-1,1126,764,0,0
-91,260,0,0,0,0,0,0,0,0,0,-1,1133,764,0,0
-84,260,0,0,0,0,0,0,0,0,0,-1,1140,764,0,0
-77,260,0,0,0,0,0,0,0,0,0,-1,1147,764,0,0
-70,260,0,0,0,0,0,0,0,0,0,-1,1154,764,0,0
-63,260,0,0,0,0,0,0,0,0,0,-1,1161,764,0,0
-56,260,0,0,0,0,0,0,0,0,0,-1,1168,764,0,0
-49,260,0,0,0,0,0,0,0,0,0,-1,1175,764,0,0
-42,260,0,0,0,0,0,0,0,0,0,-1,1182,764,0,0
-35,260,0,0,0,0,0,0,0,0,0,-1,1189,764,0,0
-28,260,0,0,0,0,0,0,0,0,0,-1,1196,764,0,0
-21,260,0,0,0,0,0,0,0,0,0,-1,1203,764,0,0
-14,260,0,0,0,0,0,0,0,0,0,-1,1210,764,0,0
-7,260,0,0,0,0,0,0,0,0,0,-1,1217,764,0,0
0,260,0,0,0,0,0,0,0,0,0,-1,1224,764,0,0
7,260,0,0,0,0,0,0,0,0,0,-1,1231,764,0,0
14,260,0,0,0,0,0,0,0,0,0,-1,1238,764,0,0
21,260,0,0,0,0,0,0,0,0,0,-1,1245,764,0,0
28,260,0,0,0,0,0,0,0,0,0,-1,1252,764,0,0
35,260,0,0,0,0,0,0,0,0,0,-1,1259,764,0,0
42,260,0,0,0,0,0,0,0,0,0,-1,1266,764,0,0
49,260,0,0,0,0,0,0,0,0,0,-1,1273,764,0,0
56,260,0,0,0,0,0,0,0,0,0,-1,1280,764,0,0
63,260,0,0,0,0,0,0,0,0,0,-1,1287,764,0,0
70,260,0,0,0,0,0,0,0,0,0,-1,1294,764,0,0
77,260,0,0,0,0,0,0,0,0,0,-1,1301,764,0,0
84,260,0,0,0,0,0,0,0,0,0,-1,1308,764,0,0
91,260,0,0,0,0,0,0,0,0,0,-1,1315,764,0,0
98,260,0,0,0,0,0,0,0,0,0,-1,1322,764,0,0
105,260,0,0,0,0,0,0,0,0,0,-1,1329,764,0,0
112,260,0,0,0,0,0,0,0,0,0,-1,1336,764,0,0
119,260,0,0,0,0,0,0,0,0,0,-1,1343,764,0,0
126,260,0,0,0,0,0,0,0,0,0,-1,1350,764,0,0
133,260,0,0,0,0,0,0,0,0,0,-1,1357,764,0,0
140,260,0,0,0,0,0,0,0,0,0,-1,1364,764,0,0
147,260,0,0,0,0,0,0,0,0,0,-1,1371,764,0,0
154,260,0,0,0,0,0,0,0,0,0,-1,1378,764,0,0
161,260,0,0,0,0,0,0,0,0,0,-1,1385,764,0,0
168,260,0,0,0,0,0,0,0,0,0,-1,1392,764,0,0
175,260,0,0,0,0,0,0,0,0,0,-1,1399,764,0,0
182,260,0,0,0,0,0,0,0,0,0,-1,1406,764,0,0
189,260,0,0,0,0,0,0,0,0,0,-1,1413,764,0,0
196,260,0,0,0,0,0,0,0,0,0,-1,1420,764,0,0
203,260,0,0,0,0,0,0,0,0,0,-1,1427,764,0,0
210,260,0,0,0,0,0,0,0,0,0,-1,1434,764,0,0
217,260,0,0,0,0,0,0,0,0,0,-1,1441,764,0,0
224,260,0,0,0,0,0,0,0,0,0,-1,1448,764,0,0
231,260,0,0,0,0,0,0,0,0,0,-1,1455,764,0,0
238,260,0,0,0,0,0,0,0,0,0,-1,1462,764,0,0
245,260,0,0,0,0,0,0,0,0,0,-1,1469,764,0,0
252,260,0,0,0,0,0,0,0,0,0,-1,1476,764,0,0
259,260,0,0,0,0,0,0,0,0,0,-1,1483,764,0,0
266,260,0,0,0,0,0,0,0,0,0,-1,1490,764,0,0
273,260,0,0,0,0,0,0,0,0,0,-1,1497,764,0,0
280,260,0,0,0,0,0,0,0,0,0,-1,1504,764,0,0
287,260,0,0,0,0,0,0,0,0,0,-1,1511,764,0,0
294,260,0,0,0,0,0,0,0,0,0,-1,1518,764,0,0
301,260,0,0,0,0,0,0,0,0,0,-1,1525,764,0,0
308,260,0,0,0,0,0,0,0,0,0,-1,1532,764,0,0
315,260,0,0,0,0,0,0,0,0,0,-1,1539,764,0,0
322,260,0,0,0,0,0,0,0,0,0,-1,1546,764,0,0
329,260,0,0,0,0,0,0,0,0,0,-1,1553,764,0,0
336,260,0,0,0,0,0,0,0,0,0,-1,1560,764,0,0
343,260,0,0,0,0,0,0,0,0,0,-1,1567,764,0,0
350,260,0,0,0,0,0,0,0,0,0,-1,1574,764,0,0
357,260,0,0,0,0,0,0,0,0,0,-1,1581,764,0,0
364,260,0,0,0,0,0,0,0,0,0,-1,1588,764,0,0
371,260,0,0,0,0,0,0,0,0,0,-1,1595,764,0,0
378,260,0,0,0,0,0,0,0,0,0,-1,1602,764,0,0
385,260,0,0,0,0,0,0,0,0,0,-1,1609,764,0,0
392,260,0,0,0,0,0,0,0,0,0,-1,1616,764,0,0
399,260,0,0,0,0,0,0,0,0,0,-1,1623,764,0,0
406,260,0,0,0,0,0,0,0,0,0,-1,1630,764,0,0
413,260,0,0,0,0,0,0,0,0,0,-1,1637,764,0,0
420,260,0,0,0,0,0,0,0,0,0,-1,1644,764,0,0
427,260,0,0,0,0,0,0,0,0,0,-1,1651,764,0,0
434,260,0,0,0,0,0,0,0,0,0,-1,1658,764,0,0
441,260,0,0,0,0,0,0,0,0,0,-1,1665,764,0,0
448,260,0,0,0,0,0,0,0,0,0,-1,1672,764,0,0
455,260,0,0,0,0,0,0,0,0,0,-1,1679,764,0,0
462,260,0,0,0,0,0,0,0,0,0,-1,1686,764,0,0
469,260,0,0,0,0,0,0,0,0,0,-1,1693,764,0,0
476,260,0,0,0,0,0,0,0,0,0,-1,1700,764,0,0
483,260,0,0,0,0,0,0,0,0,0,-1,1707,764,0,0
490,260,0,0,0,0,0,0,0,0,0,-1,1714,764,0,0
497,260,0,0,0,0,0,0,0,0,0,-1,1721,764,0,0
504,260,0,0,0,0,0,0,0,0,0,-1,1728,764,0,0
511,260,0,0,0,0,0,0,0,0,0,-1,1735,764,0,0
518,260,0,0,0,0,0,0,0,0,0,-1,1742,764,0,0
525,260,0,0,0,0,0,0,0,0,0,-1,1749,764,0,0
532,260,0,0,0,0,0,0,0,0,0,-1,1756,764,0,0
539,260,0,0,0,0,0,0,0,0,0,-1,1763,764,0,0
546,260,0,0,0,0,0,0,0,0,0,-1,1770,764,0,0
553,260,0,0,0,0,0,0,0,0,0,-1,1777,764,0,0
560,260,0,0,0,0,0,0,0,0,0,-1,1784,764,0,0
567,260,0,0,0,0,0,0,0,0,0,-1,1791,764,0,0
574,260,14.1459,1.98682,-0.00872942,0.008311,0.0115065,0.0141084,-0.0145268,1.10408,0.0165331,0.0365245,1798,764,14.1459,-1.98679
581,260,14.1194,2.11755,-0.0125155,0.0115833,0.00817929,0.0140971,-0.0150294,1.27261,0.0168191,0.038065,1805,764,14.1194,-2.11756
588,260,14.2671,2.07947,-0.014108,0.0128153,0.00501698,0.0137198,-0.0150125,1.39243,0.0165942,0.0421009,1812,764,14.2671,-2.0795
595,260,14.3567,1.6496,0,0,0,0,0,0,0,-1,1819,764,14.3567,-1.64962
602,260,9.25049,2.26074,0,0,0,0,0,0,0,-1,1826,764,9.25052,-2.26076
609,260,9.22363,2.09875,-0.0134399,0.0112646,-0.00049221,0.0112744,-0.0134497,-1.55088,0.0142929,0.0464245,1833,764,9.22369,-2.09874
616,260,9.06702,1.59186,-0.0120798,0.0100078,-0.00176208,0.0101475,-0.0122195,-1.49169,0.012932,0.0435546,1840,764,9.06705,-1.59184
623,260,9.22351,1.01166,-0.0105186,0.00855671,-0.00227536,0.00882437,-0.0107862,-1.4537,0.0113411,0.0442688,1847,764,9.22354,-1.01163
630,260,10.1167,0.626343,0,0,0,0,0,0,0,-1,1854,764,10.1166,-0.62632
637,260,10.3143,0.385498,-0.0075754,0.0045971,-0.00129201,0.00473273,-0.00771103,-1.46621,0.00725268,0.0455033,1861,764,10.3143,-0.385513
644,260,10.1349,0.623291,-0.00588004,0.00303397,-0.000620931,0.00307702,-0.00592309,-1.50158,0.00528211,0.0235013,1868,764,10.1349,-0.623301
651,260,10.1602,0.826843,-0.0039019,0.00169684,-0.000198425,0.00170386,-0.00390892,-1.53541,0.00332286,0.0130086,1875,764,10.1602,-0.826843
658,260,10.162,0.986328,-0.00113229,0.000948885,-1.33834e-05,0.000948971,-0.00113237,-1.56437,0.00120322,0.0153792,1882,764,10.1619,-0.986349
665,260,10.1721,1.13501,0.000561483,-0.000439333,0.000602609,0.000844367,-0.000722217,0.438895,0.000905383,0.014921,1889,764,10.1721,-1.13498
672,260,10.1757,1.30658,0.000948921,-0.000695646,0.000493426,0.00108561,-0.00083233,0.270235,0.00111053,0.0125788,1896,764,10.1757,-1.30657
679,260,10.1438,1.45081,0.00179237,-0.000397718,0.000305267,0.00183412,-0.000439472,0.135935,0.00139255,0.0117552,1903,764,10.1438,-1.45081
686,260,10.1542,1.61108,0.00369531,-0.00111326,-6.79077e-05,0.00369627,-0.00111422,-0.0141185,0.00290764,0.0138079,1910,764,10.1541,-1.61111
693,260,10.1453,1.74286,0.0072266,-0.00270042,-0.000768873,0.00728579,-0.00275962,-0.0768419,0.00599275,0.0141379,1917,764,10.1453,-1.74288
700,260,10.1188,1.89874,0.0124018,-0.00614144,-0.00164581,0.0125467,-0.00628638,-0.0878402,0.0110717,0.0127469,1924,764,10.1188,-1.89872
707,260,10.1184,2.03076,0.0196767,-0.00970029,-0.0019224,0.019802,-0.00982555,-0.065069,0.0174257,0.0131788,1931,764,10.1184,-2.03076
714,260,10.1271,2.14813,0.0295122,-0.0139368,-0.00192285,0.0295972,-0.0140218,-0.0441402,0.025713,0.0241865,1938,764,10.127,-2.14816
721,260,10.1887,2.26099,0.042036,-0.0205168,-0.00222972,0.0421153,-0.0205962,-0.0355852,0.0369102,0.0422134,1945,764,10.1887,-2.26099
728,260,10.6105,2.01025,0.0582357,-0.0289529,-0.00228038,0.0582953,-0.0290125,-0.0261307,0.0513436,0.0451776,1952,764,10.6104,-2.01027
735,260,10.9681,1.54559,0.078554,-0.0393353,-0.00189177,0.0785844,-0.0393657,-0.0160415,0.0693419,0.0450952,1959,764,10.9682,-1.54559
742,260,11.8778,0.832092,0.103133,-0.0516226,-0.000793389,0.103137,-0.0516267,-0.00512654,0.0909877,0.0454264,1966,764,11.8779,-0.832089
749,260,12.9869,0.486084,0.131863,-0.0656143,0.00145228,0.131874,-0.065625,0.00735362,0.116145,0.0460585,1973,764,12.9869,-0.486076
756,260,0,0,0,0,0,0,0,0,0,-1,1980,764,0,0
763,260,0,0,0,0,0,0,0,0,0,-1,1987,764,0,0
770,260,0,0,0,0,0,0,0,0,0,-1,1994,764,0,0
777,260,0,0,0,0,0,0,0,0,0,-1,2001,764,0,0
784,260,0,0,0,0,0,0,0,0,0,-1,2008,764,0,0
791,260,0,0,0,0,0,0,0,0,0,-1,2015,764,0,0
798,260,0,0,0,0,0,0,0,0,0,-1,2022,764,0,0
805,260,0,0,0,0,0,0,0,0,0,-1,2029,764,0,0
812,260,0,0,0,0,0,0,0,0,0,-1,2036,764,0,0
-700,253,0,0,0,0,0,0,0,0,0,-1,524,771,0,0
-693,253,0,0,0,0,0,0,0,0,0,-1,531,771,0,0
-686,253,0,0,0,0,0,0,0,0,0,-1,538,771,0,0
-679,253,0,0,0,0,0,0,0,0,0,-1,545,771,0,0
-672,253,0,0,0,0,0,0,0,0,0,-1,552,771,0,0
-665,253,0,0,0,0,0,0,0,0,0,-1,559,771,0,0
-658,253,0,0,0,0,0,0,0,0,0,-1,566,771,0,0
-651,253,0,0,0,0,0,0,0,0,0,-1,573,771,0,0
-644,253,0,0,0,0,0,0,0,0,0,-1,580,771,0,0
-637,253,-6.41498,1.75354,0,0,0,0,0,0,0,-1,587,771,-6.41497,-1.75354
-630,253,-5.90979,6.27747,0,0,0,0,0,0,0,-1,594,771,-5.90977,-6.27746
-623,253,-5.60773,5.58301,0.0519288,-0.00899847,-0.0265138,0.061851,-0.0189207,-0.358094,0.0487798,0.0457793,601,771,-5.60772,-5.583
-616,253,-5.27637,4.87079,0.0456191,-0.0068302,-0.0248048,0.0554916,-0.0167028,-0.378791,0.0436408,0.0434193,608,771,-5.27638,-4.8708
-609,253,-4.55298,4.29279,0,0,0,0,0,0,0,-1,615,771,-4.55301,-4.29278
-602,253,-4.45306,3.4472,0.029681,-0.00205443,-0.0185096,0.0381934,-0.0105668,-0.431049,0.0296196,0.0439858,622,771,-4.45309,-3.44722
-595,253,-5.78851,1.0531,0.0225873,-0.00105545,-0.0150064,0.0298692,-0.00833739,-0.451783,0.0231969,0.0431668,629,771,-5.78854,-1.0531
-588,253,-5.42236,0.483765,0.0164868,-0.0001355,-0.0118318,0.0226348,-0.00628346,-0.479216,0.0175631,0.0372332,636,771,-5.42236,-0.483791
-581,253,-5.41473,0.346619,0.011158,0.000496388,-0.00871865,0.0160464,-0.00439203,-0.51101,0.0124231,0.0217394,643,771,-5.41471,-0.346612
-574,253,-5.46301,0.204956,0.00668344,0.000508885,-0.0058702,0.0102287,-0.00303637,-0.543313,0.00802507,0.0180796,650,771,-5.463,-0.204946
-567,253,-5.45886,0.0466309,0.00279144,0.000998722,-0.00349281,0.00550107,-0.00171091,-0.659794,0.00435129,0.0149765,657,771,-5.45887,-0.0466528
-560,253,-5.42603,-0.0498047,0.000982661,0.00112282,-0.00213223,0.00318612,-0.00108064,-0.801825,0.00256144,0.0117023,664,771,-5.426,0.0497838
-553,253,-5.42346,-0.16394,0.000926287,0.00142899,-0.00131853,0.00251991,-0.000164632,-0.879584,0.00173742,0.0116373,671,771,-5.42344,0.16391
-546,253,-5.43182,-0.298584,0.00138563,0.00123878,4.73789e-05,0.00139959,0.00122482,0.286513,0.000880604,0.0106623,678,771,-5.43182,0.29858
-539,253,-5.45422,-0.458374,0.00287972,0.00241086,0.000533407,0.00322794,0.00206264,0.578355,0.0018875,0.011205,685,771,-5.45425,0.458344
-532,253,-5.46716,-0.606812,0.00504897,0.00397832,0.0017004,0.00629632,0.00273097,0.632898,0.0036458,0.0139656,692,771,-5.46714,0.606813
-525,253,-5.45422,-0.756836,0.00613483,0.00626148,0.00265088,0.00884979,0.00354652,0.79734,0.00514288,0.0114216,699,771,-5.45421,0.756845
-518,253,-5.46863,-0.889221,0.00626246,0.00808472,0.00308059,0.0103861,0.00396109,0.929181,0.0060524,0.0137205,706,771,-5.46862,0.889204
-511,253,-5.4635,-1.00909,0.00634,0.0103553,0.00378229,0.0126297,0.00406555,1.02939,0.00744438,0.029931,713,771,-5.46352,1.00908
-504,253,-5.47571,-0.887268,0.00551469,0.0124715,0.00446679,0.0146545,0.0033317,1.11622,0.00887019,0.0419795,720,771,-5.47572,0.887288
-497,253,-5.43091,-0.127747,0.00339438,0.0143152,0.00539506,0.0165309,0.00117868,1.18111,0.0106495,0.0438837,727,771,-5.43093,0.127746
-490,253,-5.37036,0.87439,-0.00051553,0.0155775,0.0059537,0.0175406,-0.00247865,1.25229,0.0126015,0.0465403,734,771,-5.37035,-0.874371
-483,253,-4.95251,1.65417,-0.00647562,0.0160275,0.00573373,0.0174042,-0.00785233,1.33515,0.0149254,0.0497352,741,771,-4.95251,-1.65415
-476,253,-4.95673,2.63513,-0.0145729,0.0154628,0.00424791,0.016052,-0.0151621,1.43297,0.0180239,0.0498003,748,771,-4.95671,-2.63513
-469,253,-5.19049,3.71143,0,0,0,0,0,0,0,-1,755,771,-5.19052,-3.71142
-462,253,-8.47009,0.637573,-0.0374692,0.0101576,-0.00458756,0.0105954,-0.037907,-1.47564,0.0294456,0.0445502,762,771,-8.47008,-0.63756
-455,253,-8.6264,0.382935,-0.0479685,0.00535003,-0.0155656,0.00956151,-0.05218,-1.30656,0.038373,0.03638,769,771,-8.62643,-0.38291
-448,253,0,0,0,0,0,0,0,0,0,-1,776,771,0,0
-441,253,0,0,0,0,0,0,0,0,0,-1,783,771,0,0
-434,253,0,0,0,0,0,0,0,0,0,-1,790,771,0,0
-427,253,0,0,0,0,0,0,0,0,0,-1,797,771,0,0
-420,253,0,0,0,0,0,0,0,0,0,-1,804,771,0,0
-413,253,0,0,0,0,0,0,0,0,0,-1,811,771,0,0
-406,253,0,0,0,0,0,0,0,0,0,-1,818,771,0,0
-399,253,0,0,0,0,0,0,0,0,0,-1,825,771,0,0
-392,253,0,0,0,0,0,0,0,0,0,-1,832,771,0,0
-385,253,0,0,0,0,0,0,0,0,0,-1,839,771,0,0
-378,253,0,0,0,0,0,0,0,0,0,-1,846,771,0,0
-371,253,0,0,0,0,0,0,0,0,0,-1,853,771,0,0
-364,253,0,0,0,0,0,0,0,0,0,-1,860,771,0,0
-357,253,0,0,0,0,0,0,0,0,0,-1,867,771,0,0
-350,253,0,0,0,0,0,0,0,0,0,-1,874,771,0,0
-343,253,0,0,0,0,0,0,0,0,0,-1,881,771,0,0
-336,253,0,0,0,0,0,0,0,0,0,-1,888,771,0,0
-329,253,0,0,0,0,0,0,0,0,0,-1,895,771,0,0
-322,253,0,0,0,0,0,0,0,0,0,-1,902,771,0,0
-315,253,0,0,0,0,0,0,0,0,0,-1,909,771,0,0
-308,253,0,0,0,0,0,0,0,0,0,-1,916,771,0,0
-301,253,0,0,0,0,0,0,0,0,0,-1,923,771,0,0
-294,253,0,0,0,0,0,0,0,0,0,-1,930,771,0,0
-287,253,0,0,0,0,0,0,0,0,0,-1,937,771,0,0
-280,253,0,0,0,0,0,0,0,0,0,-1,944,771,0,0
-273,253,0,0,0,0,0,0,0,0,0,-1,951,771,0,0
-266,253,0,0,0,0,0,0,0,0,0,-1,958,771,0,0
-259,253,0,0,0,0,0,0,0,0,0,-1,965,771,0,0
-252,253,0,0,0,0,0,0,0,0,0,-1,972,771,0,0
-245,253,0,0,0,0,0,0,0,0,0,-1,979,771,0,0
-238,253,0,0,0,0,0,0,0,0,0,-1,986,771,0,0
-231,253,0,0,0,0,0,0,0,0,0,-1,993,771,0,0
-224,253,0,0,0,0,0,0,0,0,0,-1,1000,771,0,0
-217,253,0,0,0,0,0,0,0,0,0,-1,1007,771,0,0
-210,253,0,0,0,0,0,0,0,0,0,-1,1014,771,0,0
-203,253,0,0,0,0,0,0,0,0,0,-1,1021,771,0,0
-196,253,0,0,0,0,0,0,0,0,0,-1,1028,771,0,0
-189,253,0,0,0,0,0,0,0,0,0,-1,1035,771,0,0
-182,253,0,0,0,0,0,0,0,0,0,-1,1042,771,0,0
-175,253,0,0,0,0,0,0,0,0,0,-1,1049,771,0,0
-168,253,0,0,0,0,0,0,0,0,0,-1,1056,771,0,0
-161,253,0,0,0,0,0,0,0,0,0,-1,1063,771,0,0
-154,253,0,0,0,0,0,0,0,0,0,-1,1070,771,0,0
-147,253,0,0,0,0,0,0,0,0,0,-1,1077,771,0,0
-140,253,0,0,0,0,0,0,0,0,0,-1,1084,771,0,0
-133,253,0,0,0,0,0,0,0,0,0,-1,1091,771,0,0
-126,253,0,0,0,0,0,0,0,0,0,-1,1098,771,0,0
-119,253,0,0,0,0,0,0,0,0,0,-1,1105,771,0,0
-112,253,0,0,0,0,0,0,0,0,0,-1,1112,771,0,0
-105,253,0,0,0,0,0,0,0,0,0,-1,1119,771,0,0
-98,253,0,0,0,0,0,0,0,0,0,-1,1126,771,0,0
-91,253,0,0,0,0,0,0,0,0,0,-1,1133,771,0,0
-84,253,0,0,0,0,0,0,0,0,0,-1,1140,771,0,0
-77,253,0,0,0,0,0,0,0,0,0,-1,1147,771,0,0
-70,253,0,0,0,0,0,0,0,0,0,-1,1154,771,0,0
-63,253,0,0,0,0,0,0,0,0,0,-1,1161,771,0,0
-56,253,0,0,0,0,0,0,0,0,0,-1,1168,771,0,0
-49,253,0,0,0,0,0,0,0,0,0,-1,1175,771,0,0
-42,253,0,0,0,0,0,0,0,0,0,-1,1182,771,0,0
-35,253,0,0,0,0,0,0,0,0,0,-1,1189,771,0,0
-28,253,0,0,0,0,0,0,0,0,0,-1,1196,771,0,0
-21,253,0,0,0,0,0,0,0,0,0,-1,1203,771,0,0
-14,253,0,0,0,0,0,0,0,0,0,-1,1210,771,0,0
-7,253,0,0,0,0,0,0,0,0,0,-1,1217,771,0,0
0,253,0,0,0,0,0,0,0,0,0,-1,1224,771,0,0
7,253,0,0,0,0,0,0,0,0,0,-1,1231,771,0,0
14,253,0,0,0,0,0,0,0,0,0,-1,1238,771,0,0
21,253,0,0,0,0,0,0,0,0,0,-1,1245,771,0,0
28,253,0,0,0,0,0,0,0,0,0,-1,1252,771,0,0
35,253,0,0,0,0,0,0,0,0,0,-1,1259,771,0,0
42,253,0,0,0,0,0,0,0,0,0,-1,1266,771,0,0
49,253,0,0,0,0,0,0,0,0,0,-1,1273,771,0,0
56,253,0,0,0,0,0,0,0,0,0,-1,1280,771,0,0
63,253,0,0,0,0,0,0,0,0,0,-1,1287,771,0,0
70,253,0,0,0,0,0,0,0,0,0,-1,1294,771,0,0
77,253,0,0,0,0,0,0,0,0,0,-1,1301,771,0,0
84,253,0,0,0,0,0,0,0,0,0,-1,1308,771,0,0
91,253,0,0,0,0,0,0,0,0,0,-1,1315,771,0,0
98,253,0,0,0,0,0,0,0,0,0,-1,1322,771,0,0
105,253,0,0,0,0,0,0,0,0,0,-1,1329,771,0,0
112,253,0,0,0,0,0,0,0,0,0,-1,1336,771,0,0
119,253,0,0,0,0,0,0,0,0,0,-1,1343,771,0,0
126,253,0,0,0,0,0,0,0,0,0,-1,1350,771,0,0
133,253,0,0,0,0,0,0,0,0,0,-1,1357,771,0,0
140,253,0,0,0,0,0,0,0,0,0,-1,1364,771,0,0
147,253,0,0,0,0,0,0,0,0,0,-1,1371,771,0,0
154,253,0,0,0,0,0,0,0,0,0,-1,1378,771,0,0
161,253,0,0,0,0,0,0,0,0,0,-1,1385,771,0,0
168,253,0,0,0,0,0,0,0,0,0,-1,1392,771,0,0
175,253,0,0,0,0,0,0,0,0,0,-1,1399,771,0,0
182,253,0,0,0,0,0,0,0,0,0,-1,1406,771,0,0
189,253,0,0,0,0,0,0,0,0,0,-1,1413,771,0,0
196,253,0,0,0,0,0,0,0,0,0,-1,1420,771,0,0
203,253,0,0,0,0,0,0,0,0,0,-1,1427,771,0,0
210,253,0,0,0,0,0,0,0,0,0,-1,1434,771,0,0
217,253,0,0,0,0,0,0,0,0,0,-1,1441,771,0,0
224,253,0,0,0,0,0,0,0,0,0,-1,1448,771,0,0
231,253,0,0,0,0,0,0,0,0,0,-1,1455,771,0,0
238,253,0,0,0,0,0,0,0,0,0,-1,1462,771,0,0
245,253,0,0,0,0,0,0,0,0,0,-1,1469,771,0,0
252,253,0,0,0,0,0,0,0,0,0,-1,1476,771,0,0
259,253,0,0,0,0,0,0,0,0,0,-1,1483,771,0,0
266,253,0,0,0,0,0,0,0,0,0,-1,1490,771,0,0
273,253,0,0,0,0,0,0,0,0,0,-1,1497,771,0,0
280,253,0,0,0,0,0,0,0,0,0,-1,1504,771,0,0
287,253,0,0,0,0,0,0,0,0,0,-1,1511,771,0,0
294,253,0,0,0,0,0,0,0,0,0,-1,1518,771,0,0
301,253,0,0,0,0,0,0,0,0,0,-1,1525,771,0,0
308,253,0,0,0,0,0,0,0,0,0,-1,1532,771,0,0
315,253,0,0,0,0,0,0,0,0,0,-1,1539,771,0,0
322,253,0,0,0,0,0,0,0,0,0,-1,1546,771,0,0
329,253,0,0,0,0,0,0,0,0,0,-1,1553,771,0,0
336,253,0,0,0,0,0,0,0,0,0,-1,1560,771,0,0
343,253,0,0,0,0,0,0,0,0,0,-1,1567,771,0,0
350,253,0,0,0,0,0,0,0,0,0,-1,1574,771,0,0
357,253,0,0,0,0,0,0,0,0,0,-1,1581,771,0,0
364,253,0,0,0,0,0,0,0,0,0,-1,1588,771,0,0
371,253,0,0,0,0,0,0,0,0,0,-1,1595,771,0,0
378,253,0,0,0,0,0,0,0,0,0,-1,1602,771,0,0
385,253,0,0,0,0,0,0,0,0,0,-1,1609,771,0,0
392,253,0,0,0,0,0,0,0,0,0,-1,1616,771,0,0
399,253,0,0,0,0,0,0,0,0,0,-1,1623,771,0,0
406,253,0,0,0,0,0,0,0,0,0,-1,1630,771,0,0
413,253,0,0,0,0,0,0,0,0,0,-1,1637,771,0,0
420,253,0,0,0,0,0,0,0,0,0,-1,1644,771,0,0
427,253,0,0,0,0,0,0,0,0,0,-1,1651,771,0,0
434,253,0,0,0,0,0,0,0,0,0,-1,1658,771,0,0
441,253,0,0,0,0,0,0,0,0,0,-1,1665,771,0,0
448,253,0,0,0,0,0,0,0,0,0,-1,1672,771,0,0
455,253,0,0,0,0,0,0,0,0,0,-1,1679,771,0,0
462,253,0,0,0,0,0,0,0,0,0,-1,1686,771,0,0
469,253,0,0,0,0,0,0,0,0,0,-1,1693,771,0,0
476,253,0,0,0,0,0,0,0,0,0,-1,1700,771,0,0
483,253,0,0,0,0,0,0,0,0,0,-1,1707,771,0,0
490,253,0,0,0,0,0,0,0,0,0,-1,1714,771,0,0
497,253,0,0,0,0,0,0,0,0,0,-1,1721,771,0,0
504,253,0,0,0,0,0,0,0,0,0,-1,1728,771,0,0
511,253,0,0,0,0,0,0,0,0,0,-1,1735,771,0,0
518,253,0,0,0,0,0,0,0,0,0,-1,1742,771,0,0
525,253,0,0,0,0,0,0,0,0,0,-1,1749,771,0,0
532,253,0,0,0,0,0,0,0,0,0,-1,1756,771,0,0
539,253,0,0,0,0,0,0,0,0,0,-1,1763,771,0,0
546,253,0,0,0,0,0,0,0,0,0,-1,1770,771,0,0
553,253,0,0,0,0,0,0,0,0,0,-1,1777,771,0,0
560,253,0,0,0,0,0,0,0,0,0,-1,1784,771,0,0
567,253,0,0,0,0,0,0,0,0,0,-1,1791,771,0,0
574,253,14.1683,1.99902,-0.00192011,0.00514818,0.00980565,0.0120371,-0.00880906,0.958361,0.0120836,0.0357071,1798,771,14.1683,-1.99902
581,253,14.1125,2.04089,-0.00841124,0.009443,0.00690349,0.0118009,-0.0107691,1.24167,0.0130354,0.0395488,1805,771,14.1125,-2.04088
588,253,14.2058,2.04462,-0.0118112,0.0113676,0.00402014,0.0120451,-0.0124887,1.40385,0.0141654,0.044221,1812,771,14.2059,-2.04464
595,253,14.8595,1.51984,0,0,0,0,0,0,0,-1,1819,771,14.8595,-1.51984
602,253,14.413,1.62585,-0.0136986,0.0114242,0.000362344,0.0114294,-0.0137039,1.55638,0.0145305,0.0417257,1826,771,14.413,-1.62584
609,253,10.2344,2.53302,-0.0130855,0.0102838,-0.000470329,0.0102932,-0.013095,-1.55068,0.0135354,0.0474996,1833,771,10.2344,-2.53299
616,253,8.70239,1.29034,0,0,0,0,0,0,0,-1,1840,771,8.70244,-1.29033
623,253,8.62,1.12299,0,0,0,0,0,0,0,-1,1847,771,8.62004,-1.123
630,253,10.9637,0.690674,0,0,0,0,0,0,0,-1,1854,771,10.9638,-0.690677
637,253,10.7247,0.742188,-0.00741335,0.00392996,-0.000581854,0.00395973,-0.00744311,-1.51968,0.00668505,0.0496435,1861,771,10.7248,-0.742175
644,253,10.3,0.610474,-0.00582399,0.00249396,4.95847e-05,0.00249425,-0.00582429,1.56484,0.00492932,0.0366154,1868,771,10.3001,-0.610471
651,253,10.3029,0.827759,-0.00398656,0.00127068,0.000408105,0.00130217,-0.00401805,1.49378,0.00320226,0.0212366,1875,771,10.3029,-0.82775
658,253,10.3296,1.00549,-0.00129805,0.000616948,0.000476135,0.000728799,-0.0014099,1.34007,0.00125547,0.0179249,1882,771,10.3296,-1.00549
665,253,10.2998,1.14777,0.000387339,-0.000798849,0.00103918,0.000990763,-0.00140227,0.526087,0.00138841,0.0200054,1889,771,10.2999,-1.14774
672,253,10.2668,1.30481,0.000670523,-0.00101994,0.00076078,0.000962482,-0.0013119,0.366431,0.00131827,0.0162057,1896,771,10.2669,-1.30479
679,253,10.3033,1.46204,0.00135742,-0.000729419,0.000407504,0.00143417,-0.00080617,0.186165,0.00131029,0.0133998,1903,771,10.3033,-1.46203
686,253,10.3041,1.61218,0.00307543,-0.00147414,-0.00011101,0.00307814,-0.00147685,-0.0243809,0.00268344,0.0176407,1910,771,10.304,-1.61221
693,253,10.2588,1.77588,0.00646307,-0.00304624,-0.000958816,0.00655879,-0.00314195,-0.0994948,0.00571536,0.0166484,1917,771,10.2588,-1.77587
700,253,10.2548,1.89978,0.0114676,-0.00648255,-0.00204843,0.0116984,-0.00671335,-0.112196,0.0107591,0.0136277,1924,771,10.2548,-1.89977
707,253,10.2681,2.03864,0.018565,-0.0096998,-0.00252932,0.0187896,-0.00992435,-0.088549,0.0168393,0.0132422,1931,771,10.2681,-2.03864
714,253,10.2686,2.1778,0.028005,-0.0132644,-0.00261334,0.0281698,-0.0134292,-0.0629886,0.0245147,0.0188887,1938,771,10.2685,-2.17778
721,253,10.3378,2.39172,0.039827,-0.0189358,-0.0030461,0.0399844,-0.0190932,-0.0516527,0.0348121,0.0313365,1945,771,10.3378,-2.39173
728,253,10.5225,2.73218,0.0551105,-0.0261096,-0.00322009,0.0552379,-0.0262371,-0.0395636,0.0480227,0.0405087,1952,771,10.5224,-2.7322
735,253,11.2777,2.1095,0.0741408,-0.0346779,-0.00285995,0.0742159,-0.034753,-0.0262576,0.0642737,0.0446123,1959,771,11.2777,-2.1095
742,253,11.9259,1.55139,0.0970335,-0.0444373,-0.0016501,0.0970527,-0.0444566,-0.0116618,0.0835603,0.048263,1966,771,11.9259,-1.5514
749,253,12.7939,1.34778,0.1237,-0.0549328,0.000902471,0.123704,-0.0549374,0.00505194,0.105655,0.0469386,1973,771,12.7939,-1.34776
756,253,0,0,0,0,0,0,0,0,0,-1,1980,771,0,0
763,253,0,0,0,0,0,0,0,0,0,-1,1987,771,0,0
770,253,0,0,0,0,0,0,0,0,0,-1,1994,771,0,0
777,253,0,0,0,0,0,0,0,0,0,-1,2001,771,0,0
784,253,0,0,0,0,0,0,0,0,0,-1,2008,771,0,0
791,253,0,0,0,0,0,0,0,0,0,-1,2015,771,0,0
798,253,0,0,0,0,0,0,0,0,0,-1,2022,771,0,0
805,253,0,0,0,0,0,0,0,0,0,-1,2029,771,0,0
812,253,0,0,0,0,0,0,0,0,0,-1,2036,771,0,0
-700,246,0,0,0,0,0,0,0,0,0,-1,524,778,0,0
-693,246,0,0,0,0,0,0,0,0,0,-1,531,778,0,0
-686,246,0,0,0,0,0,0,0,0,0,-1,538,778,0,0
-679,246,0,0,0,0,0,0,0,0,0,-1,545,778,0,0
-672,246,0,0,0,0,0,0,0,0,0,-1,552,778,0,0
-665,246,0,0,0,0,0,0,0,0,0,-1,559,778,0,0
-658,246,0,0,0,0,0,0,0,0,0,-1,566,778,0,0
-651,246,0,0,0,0,0,0,0,0,0,-1,573,778,0,0
-644,246,0,0,0,0,0,0,0,0,0,-1,580,778,0,0
-637,246,-6.54767,0.977661,0,0,0,0,0,0,0,-1,587,778,-6.54769,-0.977653
-630,246,-7.4577,0.297119,0,0,0,0,0,0,0,-1,594,778,-7.4577,-0.297104
-623,246,-6.01483,6.5155,0,0,0,0,0,0,0,-1,601,778,-6.01483,-6.51551
-616,246,-7.79474,0.0326538,0,0,0,0,0,0,0,-1,608,778,-7.79475,-0.0326308
-609,246,-6.77399,1.07349,0,0,0,0,0,0,0,-1,615,778,-6.77401,-1.07351
-602,246,-6.4082,0.935669,0.034435,0.00429118,-0.0179625,0.0428112,-0.00408503,-0.436339,0.0299954,0.0478365,622,778,-6.40821,-0.935679
-595,246,-5.95862,0.719421,0.0265594,0.00356375,-0.0146238,0.0336642,-0.00354103,-0.452252,0.0237114,0.0410323,629,778,-5.95861,-0.719398
-588,246,-5.56915,0.438843,0.0197025,0.00323752,-0.0116329,0.0257213,-0.00278123,-0.477463,0.0181458,0.0272299,636,778,-5.56915,-0.438865
-581,246,-5.57349,0.332825,0.0136414,0.00290069,-0.00862694,0.018433,-0.00189088,-0.506994,0.012965,0.0150002,643,778,-5.57351,-0.332829
-574,246,-5.58197,0.172058,0.00839151,0.00215053,-0.00579688,0.0118544,-0.00131239,-0.538488,0.00837477,0.0169461,650,778,-5.582,-0.172075
-567,246,-5.58551,0.039917,0.00381565,0.00207984,-0.00339737,0.00645422,-0.000558732,-0.660341,0.00450063,0.0148596,657,778,-5.58551,-0.0399418
-560,246,-5.56519,-0.0701294,0.00175304,0.00187562,-0.00214781,0.00396301,-0.000334348,-0.799662,0.00276022,0.0119691,664,778,-5.56519,0.0701523
-553,246,-5.55597,-0.173035,0.00165908,0.00213532,-0.00157387,0.00348899,0.000305415,-0.860478,0.00223116,0.0126105,671,778,-5.55594,0.173034
-546,246,-5.55756,-0.296936,0.00195736,0.00189951,-0.00032117,0.0022509,0.00160596,-0.740494,0.00133846,0.0106672,678,778,-5.55755,0.296914
-539,246,-5.56891,-0.447632,0.00337769,0.00302457,0.000125307,0.00341764,0.00298462,0.308603,0.00214868,0.0103021,685,778,-5.56889,0.447655
-532,246,-5.58807,-0.61615,0.00552723,0.00458965,0.00110465,0.00625844,0.00385843,0.584725,0.00364587,0.01109,692,778,-5.58806,0.616129
-525,246,-5.57916,-0.739746,0.00676618,0.00683465,0.0018001,0.00860084,0.00499999,0.794906,0.00498755,0.0117141,699,778,-5.57913,0.739769
-518,246,-5.60303,-0.857483,0.00714783,0.00875243,0.00201754,0.0101213,0.00577892,0.974642,0.00586314,0.0181499,706,778,-5.60302,0.857487
-511,246,-5.73389,-0.917236,0.00748346,0.01108,0.00249146,0.0123544,0.00620908,1.09799,0.00713283,0.0382509,713,778,-5.7339,0.917263
-504,246,-5.8656,-0.978516,0.00701945,0.0132839,0.00297002,0.0144681,0.00583522,1.19138,0.00840508,0.0428635,720,778,-5.8656,0.978524
-497,246,-5.45178,-0.680054,0.00538278,0.0152546,0.00368885,0.0164807,0.00415664,1.24989,0.00989697,0.0440199,727,778,-5.45181,0.680044
-490,246,-5.19855,0.02948,0.0020488,0.0166386,0.00412444,0.0177238,0.000963571,1.31351,0.0115082,0.0496715,734,778,-5.19857,-0.0294496
-483,246,-5.13824,0.912109,0,0,0,0,0,0,0,-1,741,778,-5.13823,-0.912091
-476,246,-5.40857,2.35767,0,0,0,0,0,0,0,-1,748,778,-5.40859,-2.35767
-469,246,-8.50311,0.68335,-0.0201523,0.0145447,-0.000457162,0.0145507,-0.0201584,-1.55762,0.0201263,0.0404183,755,778,-8.50312,-0.683341
-462,246,-8.59827,0.47821,-0.0319795,0.010574,-0.00548694,0.0112701,-0.0326756,-1.4446,0.0263563,0.0457611,762,778,-8.59828,-0.478199
-455,246,0,0,0,0,0,0,0,0,0,-1,769,778,0,0
-448,246,0,0,0,0,0,0,0,0,0,-1,776,778,0,0
-441,246,0,0,0,0,0,0,0,0,0,-1,783,778,0,0
-434,246,0,0,0,0,0,0,0,0,0,-1,790,778,0,0
-427,246,0,0,0,0,0,0,0,0,0,-1,797,778,0,0
-420,246,0,0,0,0,0,0,0,0,0,-1,804,778,0,0
-413,246,0,0,0,0,0,0,0,0,0,-1,811,778,0,0
-406,246,0,0,0,0,0,0,0,0,0,-1,818,778,0,0
-399,246,0,0,0,0,0,0,0,0,0,-1,825,778,0,0
-392,246,0,0,0,0,0,0,0,0,0,-1,832,778,0,0
-385,246,0,0,0,0,0,0,0,0,0,-1,839,778,0,0
-378,246,0,0,0,0,0,0,0,0,0,-1,846,778,0,0
-371,246,0,0,0,0,0,0,0,0,0,-1,853,778,0,0
-364,246,0,0,0,0,0,0,0,0,0,-1,860,778,0,0
-357,246,0,0,0,0,0,0,0,0,0,-1,867,778,0,0
-350,246,0,0,0,0,0,0,0,0,0,-1,874,778,0,0
-343,246,0,0,0,0,0,0,0,0,0,-1,881,778,0,0
-336,246,0,0,0,0,0,0,0,0,0,-1,888,778,0,0
-329,246,0,0,0,0,0,0,0,0,0,-1,895,778,0,0
-322,246,0,0,0,0,0,0,0,0,0,-1,902,778,0,0
-315,246,0,0,0,0,0,0,0,0,0,-1,909,778,0,0
-308,246,0,0,0,0,0,0,0,0,0,-1,916,778,0,0
-301,246,0,0,0,0,0,0,0,0,0,-1,923,778,0,0
-294,246,0,0,0,0,0,0,0,0,0,-1,930,778,0,0
-287,246,0,0,0,0,0,0,0,0,0,-1,937,778,0,0
-280,246,0,0,0,0,0,0,0,0,0,-1,944,778,0,0
-273,246,0,0,0,0,0,0,0,0,0,-1,951,778,0,0
-266,246,0,0,0,0,0,0,0,0,0,-1,958,778,0,0
-259,246,0,0,0,0,0,0,0,0,0,-1,965,778,0,0
-252,246,0,0,0,0,0,0,0,0,0,-1,972,778,0,0
-245,246,0,0,0,0,0,0,0,0,0,-1,979,778,0,0
-238,246,0,0,0,0,0,0,0,0,0,-1,986,778,0,0
-231,246,0,0,0,0,0,0,0,0,0,-1,993,778,0,0
-224,246,0,0,0,0,0,0,0,0,0,-1,1000,778,0,0
-217,246,0,0,0,0,0,0,0,0,0,-1,1007,778,0,0
-210,246,0,0,0,0,0,0,0,0,0,-1,1014,778,0,0
-203,246,0,0,0,0,0,0,0,0,0,-1,1021,778,0,0
-196,246,0,0,0,0,0,0,0,0,0,-1,1028,778,0,0
-189,246,0,0,0,0,0,0,0,0,0,-1,1035,778,0,0
-182,246,0,0,0,0,0,0,0,0,0,-1,1042,778,0,0
-175,246,0,0,0,0,0,0,0,0,0,-1,1049,778,0,0
-168,246,0,0,0,0,0,0,0,0,0,-1,1056,778,0,0
-161,246,0,0,0,0,0,0,0,0,0,-1,1063,778,0,0
-154,246,0,0,0,0,0,0,0,0,0,-1,1070,778,0,0
-147,246,0,0,0,0,0,0,0,0,0,-1,1077,778,0,0
-140,246,0,0,0,0,0,0,0,0,0,-1,1084,778,0,0
-133,246,0,0,0,0,0,0,0,0,0,-1,1091,778,0,0
-126,246,0,0,0,0,0,0,0,0,0,-1,1098,778,0,0
-119,246,0,0,0,0,0,0,0,0,0,-1,1105,778,0,0
-112,246,0,0,0,0,0,0,0,0,0,-1,1112,778,0,0
-105,246,0,0,0,0,0,0,0,0,0,-1,1119,778,0,0
-98,246,0,0,0,0,0,0,0,0,0,-1,1126,778,0,0
-91,246,0,0,0,0,0,0,0,0,0,-1,1133,778,0,0
-84,246,0,0,0,0,0,0,0,0,0,-1,1140,778,0,0
-77,246,0,0,0,0,0,0,0,0,0,-1,1147,778,0,0
-70,246,0,0,0,0,0,0,0,0,0,-1,1154,778,0,0
-63,246,0,0,0,0,0,0,0,0,0,-1,1161,778,0,0
-56,246,0,0,0,0,0,0,0,0,0,-1,1168,778,0,0
-49,246,0,0,0,0,0,0,0,0,0,-1,1175,778,0,0
-42,246,0,0,0,0,0,0,0,0,0,-1,1182,778,0,0
-35,246,0,0,0,0,0,0,0,0,0,-1,1189,778,0,0
-28,246,0,0,0,0,0,0,0,0,0,-1,1196,778,0,0
-21,246,0,0,0,0,0,0,0,0,0,-1,1203,778,0,0
-14,246,0,0,0,0,0,0,0,0,0,-1,1210,778,0,0
-7,246,0,0,0,0,0,0,0,0,0,-1,1217,778,0,0
0,246,0,0,0,0,0,0,0,0,0,-1,1224,778,0,0
7,246,0,0,0,0,0,0,0,0,0,-1,1231,778,0,0
14,246,0,0,0,0,0,0,0,0,0,-1,1238,778,0,0
21,246,0,0,0,0,0,0,0,0,0,-1,1245,778,0,0
28,246,0,0,0,0,0,0,0,0,0,-1,1252,778,0,0
35,246,0,0,0,0,0,0,0,0,0,-1,1259,778,0,0
42,246,0,0,0,0,0,0,0,0,0,-1,1266,778,0,0
49,246,0,0,0,0,0,0,0,0,0,-1,1273,778,0,0
56,246,0,0,0,0,0,0,0,0,0,-1,1280,778,0,0
63,246,0,0,0,0,0,0,0,0,0,-1,1287,778,0,0
70,246,0,0,0,0,0,0,0,0,0,-1,1294,778,0,0
77,246,0,0,0,0,0,0,0,0,0,-1,1301,778,0,0
84,246,0,0,0,0,0,0,0,0,0,-1,1308,778,0,0
91,246,0,0,0,0,0,0,0,0,0,-1,1315,778,0,0
98,246,0,0,0,0,0,0,0,0,0,-1,1322,778,0,0
105,246,0,0,0,0,0,0,0,0,0,-1,1329,778,0,0
112,246,0,0,0,0,0,0,0,0,0,-1,1336,778,0,0
119,246,0,0,0,0,0,0,0,0,0,-1,1343,778,0,0
126,246,0,0,0,0,0,0,0,0,0,-1,1350,778,0,0
133,246,0,0,0,0,0,0,0,0,0,-1,1357,778,0,0
140,246,0,0,0,0,0,0,0,0,0,-1,1364,778,0,0
147,246,0,0,0,0,0,0,0,0,0,-1,1371,778,0,0
154,246,0,0,0,0,0,0,0,0,0,-1,1378,778,0,0
161,246,0,0,0,0,0,0,0,0,0,-1,1385,778,0,0
168,246,0,0,0,0,0,0,0,0,0,-1,1392,778,0,0
175,246,0,0,0,0,0,0,0,0,0,-1,1399,778,0,0
182,246,0,0,0,0,0,0,0,0,0,-1,1406,778,0,0
189,246,0,0,0,0,0,0,0,0,0,-1,1413,778,0,0
196,246,0,0,0,0,0,0,0,0,0,-1,1420,778,0,0
203,246,0,0,0,0,0,0,0,0,0,-1,1427,778,0,0
210,246,0,0,0,0,0,0,0,0,0,-1,1434,778,0,0
217,246,0,0,0,0,0,0,0,0,0,-1,1441,778,0,0
224,246,0,0,0,0,0,0,0,0,0,-1,1448,778,0,0
231,246,0,0,0,0,0,0,0,0,0,-1,1455,778,0,0
238,246,0,0,0,0,0,0,0,0,0,-1,1462,778,0,0
245,246,0,0,0,0,0,0,0,0,0,-1,1469,778,0,0
252,246,0,0,0,0,0,0,0,0,0,-1,1476,778,0,0
259,246,0,0,0,0,0,0,0,0,0,-1,1483,778,0,0
266,246,0,0,0,0,0,0,0,0,0,-1,1490,778,0,0
273,246,0,0,0,0,0,0,0,0,0,-1,1497,778,0,0
280,246,0,0,0,0,0,0,0,0,0,-1,1504,778,0,0
287,246,0,0,0,0,0,0,0,0,0,-1,1511,778,0,0
294,246,0,0,0,0,0,0,0,0,0,-1,1518,778,0,0
301,246,0,0,0,0,0,0,0,0,0,-1,1525,778,0,0
308,246,0,0,0,0,0,0,0,0,0,-1,1532,778,0,0
315,246,0,0,0,0,0,0,0,0,0,-1,1539,778,0,0
322,246,0,0,0,0,0,0,0,0,0,-1,1546,778,0,0
329,246,0,0,0,0,0,0,0,0,0,-1,1553,778,0,0
336,246,0,0,0,0,0,0,0,0,0,-1,1560,778,0,0
343,246,0,0,0,0,0,0,0,0,0,-1,1567,778,0,0
350,246,0,0,0,0,0,0,0,0,0,-1,1574,778,0,0
357,246,0,0,0,0,0,0,0,0,0,-1,1581,778,0,0
364,246,0,0,0,0,0,0,0,0,0,-1,1588,778,0,0
371,246,0,0,0,0,0,0,0,0,0,-1,1595,778,0,0
378,246,0,0,0,0,0,0,0,0,0,-1,1602,778,0,0
385,246,0,0,0,0,0,0,0,0,0,-1,1609,778,0,0
392,246,0,0,0,0,0,0,0,0,0,-1,1616,778,0,0
399,246,0,0,0,0,0,0,0,0,0,-1,1623,778,0,0
406,246,0,0,0,0,0,0,0,0,0,-1,1630,778,0,0
413,246,0,0,0,0,0,0,0,0,0,-1,1637,778,0,0
420,246,0,0,0,0,0,0,0,0,0,-1,1644,778,0,0
427,246,0,0,0,0,0,0,0,0,0,-1,1651,778,0,0
434,246,0,0,0,0,0,0,0,0,0,-1,1658,778,0,0
441,246,0,0,0,0,0,0,0,0,0,-1,1665,778,0,0
448,246,0,0,0,0,0,0,0,0,0,-1,1672,778,0,0
455,246,0,0,0,0,0,0,0,0,0,-1,1679,778,0,0
462,246,0,0,0,0,0,0,0,0,0,-1,1686,778,0,0
469,246,0,0,0,0,0,0,0,0,0,-1,1693,778,0,0
476,246,0,0,0,0,0,0,0,0,0,-1,1700,778,0,0
483,246,0,0,0,0,0,0,0,0,0,-1,1707,778,0,0
490,246,0,0,0,0,0,0,0,0,0,-1,1714,778,0,0
497,246,0,0,0,0,0,0,0,0,0,-1,1721,778,0,0
504,246,0,0,0,0,0,0,0,0,0,-1,1728,778,0,0
511,246,0,0,0,0,0,0,0,0,0,-1,1735,778,0,0
518,246,0,0,0,0,0,0,0,0,0,-1,1742,778,0,0
525,246,0,0,0,0,0,0,0,0,0,-1,1749,778,0,0
532,246,0,0,0,0,0,0,0,0,0,-1,1756,778,0,0
539,246,0,0,0,0,0,0,0,0,0,-1,1763,778,0,0
546,246,0,0,0,0,0,0,0,0,0,-1,1770,778,0,0
553,246,0,0,0,0,0,0,0,0,0,-1,1777,778,0,0
560,246,0,0,0,0,0,0,0,0,0,-1,1784,778,0,0
567,246,0,0,0,0,0,0,0,0,0,-1,1791,778,0,0
574,246,0,0,0,0,0,0,0,0,0,-1,1798,778,0,0
581,246,14.009,2.19287,-0.00301235,0.00656389,0.00621621,0.00962226,-0.00607071,1.11357,0.00913735,0.0400304,1805,778,14.009,-2.19288
588,246,14.1061,2.10107,-0.00826488,0.00918676,0.00360337,0.0099015,-0.00897962,1.37498,0.0109054,0.042567,1812,778,14.106,-2.10107
595,246,14.454,1.85779,-0.0112252,0.0099736,0.00142065,0.0100684,-0.01132,1.50418,0.0123557,0.0398685,1819,778,14.454,-1.85776
602,246,14.4503,1.85004,-0.0122341,0.00984094,0.000329531,0.00984585,-0.012239,1.55587,0.0127756,0.0409379,1826,778,14.4503,-1.85004
609,246,14.3887,1.85535,-0.0119992,0.00887629,-0.000195157,0.00887811,-0.012001,-1.56145,0.0120994,0.0454518,1833,778,14.3887,-1.85533
616,246,14.4336,2.05206,0,0,0,0,0,0,0,-1,1840,778,14.4335,-2.05204
623,246,8.1156,0.927979,0,0,0,0,0,0,0,-1,1847,778,8.11554,-0.927992
630,246,10.4441,-0.625183,0,0,0,0,0,0,0,-1,1854,778,10.4441,0.625178
637,246,10.5184,0.404968,0,0,0,0,0,0,0,-1,1861,778,10.5184,-0.404982
644,246,10.4871,0.621643,-0.00550425,0.00192789,0.000780489,0.00200897,-0.00558533,1.46729,0.00454374,0.0429841,1868,778,10.487,-0.621624
651,246,10.4379,0.83667,-0.00391165,0.00085253,0.00104392,0.00107123,-0.00413036,1.36428,0.00317154,0.027247,1875,778,10.4379,-0.836648
658,246,10.4379,1.0199,-0.0014815,0.000290395,0.000976549,0.000722989,-0.00191409,1.15379,0.00157344,0.0192582,1882,778,10.4379,-1.01993
665,246,10.4532,1.15106,8.95983e-05,-0.0010689,0.00143028,0.00105347,-0.00203278,0.592997,0.0018115,0.0208426,1889,778,10.4532,-1.15109
672,246,10.4241,1.32471,0.000300028,-0.00124222,0.000960084,0.000760324,-0.00170251,0.447059,0.00145619,0.0210857,1896,778,10.424,-1.32469
679,246,10.4329,1.45905,0.00086303,-0.000966343,0.00042026,0.000954956,-0.00105827,0.215346,0.00116285,0.0213963,1903,778,10.4329,-1.45903
686,246,10.4633,1.59967,0.00241451,-0.00169652,-0.000259944,0.00243088,-0.00171289,-0.062897,0.00240435,0.0215424,1910,778,10.4633,-1.59968
693,246,10.4359,1.77045,0.00560404,-0.00317215,-0.00124613,0.00577755,-0.00334566,-0.138347,0.0053293,0.0165333,1917,778,10.4359,-1.77043
700,246,10.4353,1.90155,0.0103078,-0.00646916,-0.00249307,0.0106705,-0.00683179,-0.144444,0.0101856,0.0132407,1924,778,10.4353,-1.90157
707,246,10.4486,2.03107,0.0171461,-0.00925976,-0.00308795,0.0175024,-0.00961606,-0.114877,0.015876,0.0122712,1931,778,10.4486,-2.03109
714,246,10.427,2.1767,0.0261245,-0.0120331,-0.00315555,0.0263837,-0.0122923,-0.0819559,0.0228183,0.0121229,1938,778,10.427,-2.17672
721,246,10.4351,2.30579,0.0371268,-0.0166278,-0.00354415,0.0373594,-0.0168604,-0.0655538,0.0320409,0.0175213,1945,778,10.435,-2.30577
728,246,10.5898,2.63245,0.0513547,-0.0223593,-0.00363122,0.0515331,-0.0225377,-0.0491025,0.0438434,0.0345613,1952,778,10.5899,-2.63247
735,246,10.9587,3.01563,0.0689572,-0.0288851,-0.00311313,0.0690562,-0.028984,-0.031775,0.0581582,0.0450714,1959,778,10.9587,-3.01564
742,246,11.9316,2.17053,0.090047,-0.0358243,-0.00166238,0.090069,-0.0358463,-0.0132039,0.0749104,0.0461019,1966,778,11.9317,-2.17052
749,246,12.7577,1.96783,0.114507,-0.0425182,0.00118696,0.114516,-0.0425272,0.00755851,0.0937903,0.0458636,1973,778,12.7577,-1.96784
756,246,13.5074,1.71936,0.142156,-0.0478685,0.00610806,0.142352,-0.0480646,0.0320993,0.114342,0.0455357,1980,778,13.5075,-1.71936
763,246,0,0,0,0,0,0,0,0,0,-1,1987,778,0,0
770,246,0,0,0,0,0,0,0,0,0,-1,1994,778,0,0
777,246,0,0,0,0,0,0,0,0,0,-1,2001,778,0,0
784,246,0,0,0,0,0,0,0,0,0,-1,2008,778,0,0
791,246,0,0,0,0,0,0,0,0,0,-1,2015,778,0,0
798,246,0,0,0,0,0,0,0,0,0,-1,2022,778,0,0
805,246,0,0,0,0,0,0,0,0,0,-1,2029,778,0,0
812,246,0,0,0,0,0,0,0,0,0,-1,2036,778,0,0
-700,239,0,0,0,0,0,0,0,0,0,-1,524,785,0,0
-693,239,0,0,0,0,0,0,0,0,0,-1,531,785,0,0
-686,239,0,0,0,0,0,0,0,0,0,-1,538,785,0,0
-679,239,0,0,0,0,0,0,0,0,0,-1,545,785,0,0
-672,239,0,0,0,0,0,0,0,0,0,-1,552,785,0,0
-665,239,0,0,0,0,0,0,0,0,0,-1,559,785,0,0
-658,239,0,0,0,0,0,0,0,0,0,-1,566,785,0,0
-651,239,0,0,0,0,0,0,0,0,0,-1,573,785,0,0
-644,239,0,0,0,0,0,0,0,0,0,-1,580,785,0,0
-637,239,-11.2739,3.08356,0,0,0,0,0,0,0,-1,587,785,-11.2739,-3.08357
-630,239,-6.66272,-0.438538,0,0,0,0,0,0,0,-1,594,785,-6.66275,0.438544
-623,239,-8.71985,0.371582,0,0,0,0,0,0,0,-1,601,785,-8.71985,-0.371598
-616,239,-7.74701,0.351624,0.0553665,0.0128829,-0.0209205,0.0639388,0.00431055,-0.388889,0.0412642,0.0468379,608,785,-7.74703,-0.351605
-609,239,-7.1358,0.305664,0.0460735,0.0102432,-0.0182201,0.0537107,0.00260596,-0.396918,0.0349709,0.0482447,615,785,-7.13582,-0.305669
-602,239,-5.74994,0.977417,0.0366741,0.0084468,-0.0152417,0.0433331,0.00178778,-0.411903,0.0283116,0.0480181,622,785,-5.74997,-0.977405
-595,239,-5.71234,0.626221,0.0283845,0.00622043,-0.0123406,0.0338886,0.000716258,-0.41954,0.0223575,0.0376836,629,785,-5.71237,-0.626249
-588,239,-5.68256,0.451782,0.0211289,0.00488362,-0.00980846,0.0257414,0.000271143,-0.43957,0.0170712,0.0168085,636,785,-5.68254,-0.4518
-581,239,-5.71326,0.311951,0.0147013,0.00383279,-0.00718984,0.0182795,0.000254561,-0.461789,0.0121024,0.00988697,643,785,-5.71325,-0.311971
-574,239,-5.71753,0.19165,0.00895928,0.00257447,-0.00465011,0.0114073,0.0001264,-0.484587,0.00756312,0.0105754,650,785,-5.71754,-0.191633
-567,239,-5.73401,0.0603638,0.00394669,0.0021656,-0.0024613,0.0056736,0.000438692,-0.611816,0.00364498,0.0112795,657,785,-5.73402,-0.0603549
-560,239,-5.70837,-0.0733032,0.00180606,0.00188059,-0.00149869,0.00334247,0.000344174,-0.797827,0.00212291,0.0121054,664,785,-5.70837,0.0733314
-553,239,-5.69165,-0.19928,0.00173148,0.00228438,-0.00126574,0.00330351,0.000712354,-0.892916,0.00200747,0.0140361,671,785,-5.69163,0.199255
-546,239,-5.71259,-0.311279,0.00190283,0.00219882,-0.000268915,0.00235778,0.00174388,-1.03695,0.00141241,0.0141269,678,785,-5.71258,0.31125
-539,239,-5.69629,-0.460327,0.00321696,0.00334165,3.18045e-05,0.0033493,0.00320932,1.33493,0.0021877,0.0145487,685,785,-5.69627,0.460309
-532,239,-5.69696,-0.606812,0.00527647,0.00485562,0.000725472,0.00582141,0.00431067,0.644246,0.00348817,0.0114643,692,785,-5.69693,0.606782
-525,239,-5.68933,-0.70282,0.00661546,0.00696636,0.00114392,0.0079482,0.00563362,0.861493,0.00472038,0.0128488,699,785,-5.68933,0.702835
-518,239,-5.72955,-0.78418,0.00726309,0.00888215,0.0011228,0.00945683,0.00668842,1.09774,0.00561408,0.0326099,706,785,-5.72955,0.784175
-511,239,-5.90381,-0.478882,0.00787932,0.0111364,0.00131393,0.0116004,0.00741536,1.23136,0.00678349,0.0403774,713,785,-5.90379,0.478875
-504,239,-5.10748,-2.28265,0.00781837,0.0132591,0.00152116,0.0136555,0.00742195,1.31587,0.00789397,0.0427858,720,785,-5.10751,2.28267
-497,239,-5.36511,-1.39264,0.00672645,0.0151231,0.00195109,0.0155543,0.00629523,1.35328,0.00903445,0.0457624,727,785,-5.36514,1.39264
-490,239,-5.56586,-0.513,0,0,0,0,0,0,0,-1,734,785,-5.56586,0.512983
-483,239,-9.03564,0.110474,-0.000516041,0.0166587,0.0019104,0.0168687,-0.000725974,1.46135,0.0114954,0.0442902,741,785,-9.03565,-0.110447
-476,239,-8.58148,0.53302,-0.0071806,0.0157018,0.000687044,0.0157224,-0.00720121,1.54081,0.0135363,0.0391806,748,785,-8.58149,-0.533029
-469,239,-8.60693,0.466309,-0.0160585,0.0130022,-0.00199817,0.013139,-0.0161952,-1.50247,0.0169667,0.0396249,755,785,-8.60694,-0.466315
-462,239,-8.69165,0.311646,-0.0275485,0.00796874,-0.0064545,0.00910534,-0.0286851,-1.39649,0.0227735,0.0446095,762,785,-8.69166,-0.311632
-455,239,0,0,0,0,0,0,0,0,0,-1,769,785,0,0
-448,239,0,0,0,0,0,0,0,0,0,-1,776,785,0,0
-441,239,0,0,0,0,0,0,0,0,0,-1,783,785,0,0
-434,239,0,0,0,0,0,0,0,0,0,-1,790,785,0,0
-427,239,0,0,0,0,0,0,0,0,0,-1,797,785,0,0
-420,239,0,0,0,0,0,0,0,0,0,-1,804,785,0,0
-413,239,0,0,0,0,0,0,0,0,0,-1,811,785,0,0
-406,239,0,0,0,0,0,0,0,0,0,-1,818,785,0,0
-399,239,0,0,0,0,0,0,0,0,0,-1,825,785,0,0
-392,239,0,0,0,0,0,0,0,0,0,-1,832,785,0,0
-385,239,0,0,0,0,0,0,0,0,0,-1,839,785,0,0
-378,239,0,0,0,0,0,0,0,0,0,-1,846,785,0,0
-371,239,0,0,0,0,0,0,0,0,0,-1,853,785,0,0
-364,239,0,0,0,0,0,0,0,0,0,-1,860,785,0,0
-357,239,0,0,0,0,0,0,0,0,0,-1,867,785,0,0
-350,239,0,0,0,0,0,0,0,0,0,-1,874,785,0,0
-343,239,0,0,0,0,0,0,0,0,0,-1,881,785,0,0
-336,239,0,0,0,0,0,0,0,0,0,-1,888,785,0,0
-329,239,0,0,0,0,0,0,0,0,0,-1,895,785,0,0
-322,239,0,0,0,0,0,0,0,0,0,-1,902,785,0,0
-315,239,0,0,0,0,0,0,0,0,0,-1,909,785,0,0
-308,239,0,0,0,0,0,0,0,0,0,-1,916,785,0,0
-301,239,0,0,0,0,0,0,0,0,0,-1,923,785,0,0
-294,239,0,0,0,0,0,0,0,0,0,-1,930,785,0,0
-287,239,0,0,0,0,0,0,0,0,0,-1,937,785,0,0
-280,239,0,0,0,0,0,0,0,0,0,-1,944,785,0,0
-273,239,0,0,0,0,0,0,0,0,0,-1,951,785,0,0
-266,239,0,0,0,0,0,0,0,0,0,-1,958,785,0,0
-259,239,0,0,0,0,0,0,0,0,0,-1,965,785,0,0
-252,239,0,0,0,0,0,0,0,0,0,-1,972,785,0,0
-245,239,0,0,0,0,0,0,0,0,0,-1,979,785,0,0
-238,239,0,0,0,0,0,0,0,0,0,-1,986,785,0,0
-231,239,0,0,0,0,0,0,0,0,0,-1,993,785,0,0
-224,239,0,0,0,0,0,0,0,0,0,-1,1000,785,0,0
-217,239,0,0,0,0,0,0,0,0,0,-1,1007,785,0,0
-210,239,0,0,0,0,0,0,0,0,0,-1,1014,785,0,0
-203,239,0,0,0,0,0,0,0,0,0,-1,1021,785,0,0
-196,239,0,0,0,0,0,0,0,0,0,-1,1028,785,0,0
-189,239,0,0,0,0,0,0,0,0,0,-1,1035,785,0,0
-182,239,0,0,0,0,0,0,0,0,0,-1,1042,785,0,0
-175,239,0,0,0,0,0,0,0,0,0,-1,1049,785,0,0
-168,239,0,0,0,0,0,0,0,0,0,-1,1056,785,0,0
-161,239,0,0,0,0,0,0,0,0,0,-1,1063,785,0,0
-154,239,0,0,0,0,0,0,0,0,0,-1,1070,785,0,0
-147,239,0,0,0,0,0,0,0,0,0,-1,1077,785,0,0
-140,239,0,0,0,0,0,0,0,0,0,-1,1084,785,0,0
-133,239,0,0,0,0,0,0,0,0,0,-1,1091,785,0,0
-126,239,0,0,0,0,0,0,0,0,0,-1,1098,785,0,0
-119,239,0,0,0,0,0,0,0,0,0,-1,1105,785,0,0
-112,239,0,0,0,0,0,0,0,0,0,-1,1112,785,0,0
-105,239,0,0,0,0,0,0,0,0,0,-1,1119,785,0,0
-98,239,0,0,0,0,0,0,0,0,0,-1,1126,785,0,0
-91,239,0,0,0,0,0,0,0,0,0,-1,1133,785,0,0
-84,239,0,0,0,0,0,0,0,0,0,-1,1140,785,0,0
-77,239,0,0,0,0,0,0,0,0,0,-1,1147,785,0,0
-70,239,0,0,0,0,0,0,0,0,0,-1,1154,785,0,0
-63,239,0,0,0,0,0,0,0,0,0,-1,1161,785,0,0
-56,239,0,0,0,0,0,0,0,0,0,-1,1168,785,0,0
-49,239,0,0,0,0,0,0,0,0,0,-1,1175,785,0,0
-42,239,0,0,0,0,0,0,0,0,0,-1,1182,785,0,0
-35,239,0,0,0,0,0,0,0,0,0,-1,1189,785,0,0
-28,239,0,0,0,0,0,0,0,0,0,-1,1196,785,0,0
-21,239,0,0,0,0,0,0,0,0,0,-1,1203,785,0,0
-14,239,0,0,0,0,0,0,0,0,0,-1,1210,785,0,0
-7,239,0,0,0,0,0,0,0,0,0,-1,1217,785,0,0
0,239,0,0,0,0,0,0,0,0,0,-1,1224,785,0,0
7,239,0,0,0,0,0,0,0,0,0,-1,1231,785,0,0
14,239,0,0,0,0,0,0,0,0,0,-1,1238,785,0,0
21,239,0,0,0,0,0,0,0,0,0,-1,1245,785,0,0
28,239,0,0,0,0,0,0,0,0,0,-1,1252,785,0,0
35,239,0,0,0,0,0,0,0,0,0,-1,1259,785,0,0
42,239,0,0,0,0,0,0,0,0,0,-1,1266,785,0,0
49,239,0,0,0,0,0,0,0,0,0,-1,1273,785,0,0
56,239,0,0,0,0,0,0,0,0,0,-1,1280,785,0,0
63,239,0,0,0,0,0,0,0,0,0,-1,1287,785,0,0
70,239,0,0,0,0,0,0,0,0,0,-1,1294,785,0,0
77,239,0,0,0,0,0,0,0,0,0,-1,1301,785,0,0
84,239,0,0,0,0,0,0,0,0,0,-1,1308,785,0,0
91,239,0,0,0,0,0,0,0,0,0,-1,1315,785,0,0
98,239,0,0,0,0,0,0,0,0,0,-1,1322,785,0,0
105,239,0,0,0,0,0,0,0,0,0,-1,1329,785,0,0
112,239,0,0,0,0,0,0,0,0,0,-1,1336,785,0,0
119,239,0,0,0,0,0,0,0,0,0,-1,1343,785,0,0
126,239,0,0,0,0,0,0,0,0,0,-1,1350,785,0,0
133,239,0,0,0,0,0,0,0,0,0,-1,1357,785,0,0
140,239,0,0,0,0,0,0,0,0,0,-1,1364,785,0,0
147,239,0,0,0,0,0,0,0,0,0,-1,1371,785,0,0
154,239,0,0,0,0,0,0,0,0,0,-1,1378,785,0,0
161,239,0,0,0,0,0,0,0,0,0,-1,1385,785,0,0
168,239,0,0,0,0,0,0,0,0,0,-1,1392,785,0,0
175,239,0,0,0,0,0,0,0,0,0,-1,1399,785,0,0
182,239,0,0,0,0,0,0,0,0,0,-1,1406,785,0,0
189,239,0,0,0,0,0,0,0,0,0,-1,1413,785,0,0
196,239,0,0,0,0,0,0,0,0,0,-1,1420,785,0,0
203,239,0,0,0,0,0,0,0,0,0,-1,1427,785,0,0
210,239,0,0,0,0,0,0,0,0,0,-1,1434,785,0,0
217,239,0,0,0,0,0,0,0,0,0,-1,1441,785,0,0
224,239,0,0,0,0,0,0,0,0,0,-1,1448,785,0,0
231,239,0,0,0,0,0,0,0,0,0,-1,1455,785,0,0
238,239,0,0,0,0,0,0,0,0,0,-1,1462,785,0,0
245,239,0,0,0,0,0,0,0,0,0,-1,1469,785,0,0
252,239,0,0,0,0,0,0,0,0,0,-1,1476,785,0,0
259,239,0,0,0,0,0,0,0,0,0,-1,1483,785,0,0
266,239,0,0,0,0,0,0,0,0,0,-1,1490,785,0,0
273,239,0,0,0,0,0,0,0,0,0,-1,1497,785,0,0
280,239,0,0,0,0,0,0,0,0,0,-1,1504,785,0,0
287,239,0,0,0,0,0,0,0,0,0,-1,1511,785,0,0
294,239,0,0,0,0,0,0,0,0,0,-1,1518,785,0,0
301,239,0,0,0,0,0,0,0,0,0,-1,1525,785,0,0
308,239,0,0,0,0,0,0,0,0,0,-1,1532,785,0,0
315,239,0,0,0,0,0,0,0,0,0,-1,1539,785,0,0
322,239,0,0,0,0,0,0,0,0,0,-1,1546,785,0,0
329,239,0,0,0,0,0,0,0,0,0,-1,1553,785,0,0
336,239,0,0,0,0,0,0,0,0,0,-1,1560,785,0,0
343,239,0,0,0,0,0,0,0,0,0,-1,1567,785,0,0
350,239,0,0,0,0,0,0,0,0,0,-1,1574,785,0,0
357,239,0,0,0,0,0,0,0,0,0,-1,1581,785,0,0
364,239,0,0,0,0,0,0,0,0,0,-1,1588,785,0,0
371,239,0,0,0,0,0,0,0,0,0,-1,1595,785,0,0
378,239,0,0,0,0,0,0,0,0,0,-1,1602,785,0,0
385,239,0,0,0,0,0,0,0,0,0,-1,1609,785,0,0
392,239,0,0,0,0,0,0,0,0,0,-1,1616,785,0,0
399,239,0,0,0,0,0,0,0,0,0,-1,1623,785,0,0
406,239,0,0,0,0,0,0,0,0,0,-1,1630,785,0,0
413,239,0,0,0,0,0,0,0,0,0,-1,1637,785,0,0
420,239,0,0,0,0,0,0,0,0,0,-1,1644,785,0,0
427,239,0,0,0,0,0,0,0,0,0,-1,1651,785,0,0
434,239,0,0,0,0,0,0,0,0,0,-1,1658,785,0,0
441,239,0,0,0,0,0,0,0,0,0,-1,1665,785,0,0
448,239,0,0,0,0,0,0,0,0,0,-1,1672,785,0,0
455,239,0,0,0,0,0,0,0,0,0,-1,1679,785,0,0
462,239,0,0,0,0,0,0,0,0,0,-1,1686,785,0,0
469,239,0,0,0,0,0,0,0,0,0,-1,1693,785,0,0
476,239,0,0,0,0,0,0,0,0,0,-1,1700,785,0,0
483,239,0,0,0,0,0,0,0,0,0,-1,1707,785,0,0
490,239,0,0,0,0,0,0,0,0,0,-1,1714,785,0,0
497,239,0,0,0,0,0,0,0,0,0,-1,1721,785,0,0
504,239,0,0,0,0,0,0,0,0,0,-1,1728,785,0,0
511,239,0,0,0,0,0,0,0,0,0,-1,1735,785,0,0
518,239,0,0,0,0,0,0,0,0,0,-1,1742,785,0,0
525,239,0,0,0,0,0,0,0,0,0,-1,1749,785,0,0
532,239,0,0,0,0,0,0,0,0,0,-1,1756,785,0,0
539,239,0,0,0,0,0,0,0,0,0,-1,1763,785,0,0
546,239,0,0,0,0,0,0,0,0,0,-1,1770,785,0,0
553,239,0,0,0,0,0,0,0,0,0,-1,1777,785,0,0
560,239,0,0,0,0,0,0,0,0,0,-1,1784,785,0,0
567,239,0,0,0,0,0,0,0,0,0,-1,1791,785,0,0
574,239,0,0,0,0,0,0,0,0,0,-1,1798,785,0,0
581,239,14.0116,2.08136,0.0037693,0.00407079,0.00578877,0.00971077,-0.00187069,0.798416,0.00717912,0.0381022,1805,785,14.0116,-2.08134
588,239,14.1316,1.98743,-0.00316068,0.00699208,0.00351953,0.00809282,-0.00426142,1.26768,0.00724615,0.0378656,1812,785,14.1316,-1.98741
595,239,14.2567,1.89081,-0.00773581,0.00784825,0.00128157,0.00795294,-0.0078405,1.48929,0.00911843,0.0328955,1819,785,14.2567,-1.89078
602,239,14.361,1.91388,-0.00979182,0.0079562,0.000400912,0.00796525,-0.00980087,1.54822,0.0102755,0.0373206,1826,785,14.361,-1.91389
609,239,14.4874,1.86493,-0.010169,0.00719878,0.00017306,0.00720051,-0.0101707,1.56083,0.010078,0.0487916,1833,785,14.4875,-1.86492
616,239,14.6416,1.80792,0,0,0,0,0,0,0,-1,1840,785,14.6416,-1.80793
623,239,11.2999,0.234497,0,0,0,0,0,0,0,-1,1847,785,11.2999,-0.234514
630,239,10.903,0.18988,0,0,0,0,0,0,0,-1,1854,785,10.9029,-0.18988
637,239,10.6753,0.293762,0,0,0,0,0,0,0,-1,1861,785,10.6752,-0.293743
644,239,10.6404,0.541321,-0.00496384,0.00126776,0.00148307,0.00160272,-0.00529879,1.34867,0.00417071,0.0477668,1868,785,10.6404,-0.541297
651,239,10.5665,0.745361,-0.00365786,0.000407782,0.0016215,0.000975276,-0.00422536,1.23414,0.00319205,0.0355394,1875,785,10.5665,-0.74536
658,239,10.5557,1.03174,-0.00160383,-5.90159e-06,0.00142153,0.000825807,-0.00243553,1.04142,0.0019579,0.0174697,1882,785,10.5557,-1.03174
665,239,10.5714,1.18091,-0.000216756,-0.00116376,0.00175083,0.00112347,-0.00250399,0.653335,0.00214428,0.0133523,1889,785,10.5714,-1.1809
672,239,10.5822,1.35272,-4.10484e-05,-0.00123322,0.00118348,0.000687981,-0.00196225,0.552106,0.00158798,0.0192857,1896,785,10.5821,-1.35269
679,239,10.6078,1.4928,0.000449355,-0.000967678,0.000546628,0.000635711,-0.00115403,0.328563,0.00104766,0.0200782,1903,785,10.6078,-1.49279
686,239,10.6282,1.64276,0.00184969,-0.00163632,-0.0001671,0.00185768,-0.00164431,-0.0477885,0.00202313,0.0222348,1910,785,10.6282,-1.64279
693,239,10.6344,1.76129,0.00477506,-0.00292949,-0.00113403,0.00493851,-0.00309294,-0.143146,0.00467759,0.0151234,1917,785,10.6344,-1.76131
700,239,10.6259,1.90405,0.0090618,-0.0058915,-0.00238724,0.00943367,-0.00626336,-0.154531,0.00912409,0.0112324,1924,785,10.6258,-1.90404
707,239,10.6104,2.02588,0.0154525,-0.00810601,-0.00296648,0.0158203,-0.00847381,-0.123354,0.0142384,0.0104567,1931,785,10.6103,-2.0259
714,239,10.5962,2.15784,0.0237881,-0.00998331,-0.00286542,0.0240295,-0.0102247,-0.084047,0.020305,0.0100521,1938,785,10.5962,-2.15786
721,239,10.5975,2.27649,0.0338215,-0.0133786,-0.00303234,0.0340155,-0.0135726,-0.0638941,0.0283075,0.0195106,1945,785,10.5976,-2.27648
728,239,10.6677,2.4151,0.0467623,-0.0174864,-0.00287827,0.046891,-0.0176151,-0.0446795,0.0384999,0.0367795,1952,785,10.6678,-2.41508
735,239,10.8207,2.6297,0,0,0,0,0,0,0,-1,1959,785,10.8207,-2.62971
742,239,11.9788,2.79193,0.0817137,-0.025903,-0.000403459,0.0817152,-0.0259045,-0.00374897,0.0648595,0.0465008,1966,785,11.9788,-2.79191
749,239,12.7958,2.7644,0.103697,-0.0289589,0.00266316,0.10375,-0.0290124,0.020065,0.0805974,0.045436,1973,785,12.7957,-2.76441
756,239,13.5514,2.66888,0.128387,-0.0298297,0.00769466,0.12876,-0.030203,0.0484813,0.09748,0.0449068,1980,785,13.5514,-2.6689
763,239,0,0,0,0,0,0,0,0,0,-1,1987,785,0,0
770,239,0,0,0,0,0,0,0,0,0,-1,1994,785,0,0
777,239,0,0,0,0,0,0,0,0,0,-1,2001,785,0,0
784,239,0,0,0,0,0,0,0,0,0,-1,2008,785,0,0
791,239,0,0,0,0,0,0,0,0,0,-1,2015,785,0,0
798,239,0,0,0,0,0,0,0,0,0,-1,2022,785,0,0
805,239,0,0,0,0,0,0,0,0,0,-1,2029,785,0,0
812,239,0,0,0,0,0,0,0,0,0,-1,2036,785,0,0
-700,232,0,0,0,0,0,0,0,0,0,-1,524,792,0,0
-693,232,0,0,0,0,0,0,0,0,0,-1,531,792,0,0
-686,232,0,0,0,0,0,0,0,0,0,-1,538,792,0,0
-679,232,0,0,0,0,0,0,0,0,0,-1,545,792,0,0
-672,232,0,0,0,0,0,0,0,0,0,-1,552,792,0,0
-665,232,0,0,0,0,0,0,0,0,0,-1,559,792,0,0
-658,232,0,0,0,0,0,0,0,0,0,-1,566,792,0,0
-651,232,0,0,0,0,0,0,0,0,0,-1,573,792,0,0
-644,232,-10.7224,1.82684,0.0640243,0.0678173,-0.0196926,0.0857045,0.0461371,-0.833403,0.0495299,0.0458082,580,792,-10.7224,-1.82684
-637,232,-10.7527,2.59424,0,0,0,0,0,0,0,-1,587,792,-10.7527,-2.59425
-630,232,-9.24286,0.340027,0,0,0,0,0,0,0,-1,594,792,-9.24286,-0.340024
-623,232,-8.56128,0.479065,0.0642798,0.026546,-0.0206326,0.0733712,0.0174546,-0.415036,0.0442585,0.045561,601,792,-8.56127,-0.479043
-616,232,-7.79968,0.557861,0.0559097,0.0198703,-0.0184165,0.0636558,0.0121242,-0.398144,0.0390286,0.0468615,608,792,-7.79967,-0.557847
-609,232,-7.13861,0.566589,0.0464018,0.0151512,-0.0157899,0.0529907,0.00856227,-0.39532,0.0328472,0.0464693,615,792,-7.1386,-0.566602
-602,232,-6.54596,0.579773,0,0,0,0,0,0,0,-1,622,792,-6.54598,-0.579773
-595,232,-5.88959,0.64679,0.0285278,0.00829231,-0.010463,0.0329649,0.00385519,-0.401087,0.0208109,0.0325603,629,792,-5.88958,-0.646804
-588,232,-5.85028,0.451538,0.0211704,0.00612518,-0.00826439,0.0248232,0.00247238,-0.416175,0.0157893,0.0116221,636,792,-5.8503,-0.451509
-581,232,-5.85059,0.311096,0.0146394,0.00445776,-0.00589329,0.0173362,0.00176094,-0.429163,0.0110175,0.00782027,643,792,-5.85061,-0.311125
-574,232,-5.83978,0.195313,0.00863143,0.00274353,-0.00355357,0.0103021,0.00107285,-0.439474,0.00653985,0.00765618,650,792,-5.83976,-0.195312
-567,232,-5.85345,0.0772705,0.0033085,0.0020698,-0.00153327,0.00434279,0.00103551,-0.59345,0.00261917,0.00858469,657,792,-5.85343,-0.077246
-560,232,-5.84613,-0.0612183,0.00111776,0.00173798,-0.00077596,0.0022635,0.000592236,-0.975499,0.00135543,0.0107295,664,792,-5.84613,0.0612232
-553,232,-5.86835,-0.194153,0.00103379,0.00227394,-0.000778548,0.00264917,0.000658563,-1.12168,0.00159264,0.012729,671,792,-5.86832,0.194128
-546,232,-5.86884,-0.3255,0.00107169,0.00236122,-2.14102e-05,0.00236158,0.00107133,-1.5542,0.00136541,0.0206025,678,792,-5.86883,0.325531
-539,232,-5.83844,-0.46814,0.00225751,0.00348234,0.00012572,0.00349511,0.00224474,1.46956,0.00204494,0.023872,685,792,-5.83846,0.46811
-532,232,-5.83307,-0.596497,0.00418869,0.00491782,0.000534513,0.00520025,0.00390625,1.08469,0.00312609,0.013972,692,792,-5.83307,0.596479
-525,232,-5.84479,-0.704285,0.00562184,0.0068374,0.000664181,0.00712991,0.00532932,1.15594,0.00428121,0.0215807,699,792,-5.84478,0.704286
-518,232,-6.31708,-0.431213,0.00653248,0.00870054,0.000399074,0.00877167,0.00646136,1.39442,0.00524995,0.0423215,706,792,-6.31709,0.43123
-511,232,-6.79913,0.115723,0.00743865,0.0108213,0.00027967,0.0108442,0.00741569,1.48886,0.00640043,0.0417262,713,792,-6.79912,-0.115734
-504,232,-4.63409,-2.97791,0.00780323,0.0127817,0.000176954,0.012788,0.00779695,1.53531,0.00744215,0.044653,720,792,-4.63407,2.97793
-497,232,-5.23865,-1.92108,0,0,0,0,0,0,0,-1,727,792,-5.23864,1.9211
-490,232,-8.92212,-0.0615845,0.00527025,0.0153917,0.000288384,0.0153999,0.00526204,1.54233,0.00903849,0.0438431,734,792,-8.92213,0.0615609
-483,232,-8.70074,0.377625,0.00137978,0.0153246,-6.85053e-05,0.0153249,0.00137945,-1.56588,0.00978926,0.0414825,741,792,-8.70073,-0.377603
-476,232,-8.61609,0.40979,-0.0047921,0.0138198,-0.00111587,0.0138865,-0.00485876,-1.51113,0.0112332,0.0350189,748,792,-8.61608,-0.409815
-469,232,-8.65466,0.32373,-0.0134507,0.0102649,-0.0033538,0.0107301,-0.0139159,-1.43298,0.0142689,0.0327343,755,792,-8.65464,-0.323752
-462,232,0,0,0,0,0,0,0,0,0,-1,762,792,0,0
-455,232,0,0,0,0,0,0,0,0,0,-1,769,792,0,0
-448,232,0,0,0,0,0,0,0,0,0,-1,776,792,0,0
-441,232,0,0,0,0,0,0,0,0,0,-1,783,792,0,0
-434,232,0,0,0,0,0,0,0,0,0,-1,790,792,0,0
-427,232,0,0,0,0,0,0,0,0,0,-1,797,792,0,0
-420,232,0,0,0,0,0,0,0,0,0,-1,804,792,0,0
-413,232,0,0,0,0,0,0,0,0,0,-1,811,792,0,0
-406,232,0,0,0,0,0,0,0,0,0,-1,818,792,0,0
-399,232,0,0,0,0,0,0,0,0,0,-1,825,792,0,0
-392,232,0,0,0,0,0,0,0,0,0,-1,832,792,0,0
-385,232,0,0,0,0,0,0,0,0,0,-1,839,792,0,0
-378,232,0,0,0,0,0,0,0,0,0,-1,846,792,0,0
-371,232,0,0,0,0,0,0,0,0,0,-1,853,792,0,0
-364,232,0,0,0,0,0,0,0,0,0,-1,860,792,0,0
-357,232,0,0,0,0,0,0,0,0,0,-1,867,792,0,0
-350,232,0,0,0,0,0,0,0,0,0,-1,874,792,0,0
-343,232,0,0,0,0,0,0,0,0,0,-1,881,792,0,0
-336,232,0,0,0,0,0,0,0,0,0,-1,888,792,0,0
-329,232,0,0,0,0,0,0,0,0,0,-1,895,792,0,0
-322,232,0,0,0,0,0,0,0,0,0,-1,902,792,0,0
-315,232,0,0,0,0,0,0,0,0,0,-1,909,792,0,0
-308,232,0,0,0,0,0,0,0,0,0,-1,916,792,0,0
-301,232,0,0,0,0,0,0,0,0,0,-1,923,792,0,0
-294,232,0,0,0,0,0,0,0,0,0,-1,930,792,0,0
-287,232,0,0,0,0,0,0,0,0,0,-1,937,792,0,0
-280,232,0,0,0,0,0,0,0,0,0,-1,944,792,0,0
-273,232,0,0,0,0,0,0,0,0,0,-1,951,792,0,0
-266,232,0,0,0,0,0,0,0,0,0,-1,958,792,0,0
-259,232,0,0,0,0,0,0,0,0,0,-1,965,792,0,0
-252,232,0,0,0,0,0,0,0,0,0,-1,972,792,0,0
-245,232,0,0,0,0,0,0,0,0,0,-1,979,792,0,0
-238,232,0,0,0,0,0,0,0,0,0,-1,986,792,0,0
-231,232,0,0,0,0,0,0,0,0,0,-1,993,792,0,0
-224,232,0,0,0,0,0,0,0,0,0,-1,1000,792,0,0
-217,232,0,0,0,0,0,0,0,0,0,-1,1007,792,0,0
-210,232,0,0,0,0,0,0,0,0,0,-1,1014,792,0,0
-203,232,0,0,0,0,0,0,0,0,0,-1,1021,792,0,0
-196,232,0,0,0,0,0,0,0,0,0,-1,1028,792,0,0
-189,232,0,0,0,0,0,0,0,0,0,-1,1035,792,0,0
-182,232,0,0,0,0,0,0,0,0,0,-1,1042,792,0,0
-175,232,0,0,0,0,0,0,0,0,0,-1,1049,792,0,0
-168,232,0,0,0,0,0,0,0,0,0,-1,1056,792,0,0
-161,232,0,0,0,0,0,0,0,0,0,-1,1063,792,0,0
-154,232,0,0,0,0,0,0,0,0,0,-1,1070,792,0,0
-147,232,0,0,0,0,0,0,0,0,0,-1,1077,792,0,0
-140,232,0,0,0,0,0,0,0,0,0,-1,1084,792,0,0
-133,232,0,0,0,0,0,0,0,0,0,-1,1091,792,0,0
-126,232,0,0,0,0,0,0,0,0,0,-1,1098,792,0,0
-119,232,0,0,0,0,0,0,0,0,0,-1,1105,792,0,0
-112,232,0,0,0,0,0,0,0,0,0,-1,1112,792,0,0
-105,232,0,0,0,0,0,0,0,0,0,-1,1119,792,0,0
-98,232,0,0,0,0,0,0,0,0,0,-1,1126,792,0,0
-91,232,0,0,0,0,0,0,0,0,0,-1,1133,792,0,0
-84,232,0,0,0,0,0,0,0,0,0,-1,1140,792,0,0
-77,232,0,0,0,0,0,0,0,0,0,-1,1147,792,0,0
-70,232,0,0,0,0,0,0,0,0,0,-1,1154,792,0,0
-63,232,0,0,0,0,0,0,0,0,0,-1,1161,792,0,0
-56,232,0,0,0,0,0,0,0,0,0,-1,1168,792,0,0
-49,232,0,0,0,0,0,0,0,0,0,-1,1175,792,0,0
-42,232,0,0,0,0,0,0,0,0,0,-1,1182,792,0,0
-35,232,0,0,0,0,0,0,0,0,0,-1,1189,792,0,0
-28,232,0,0,0,0,0,0,0,0,0,-1,1196,792,0,0
-21,232,0,0,0,0,0,0,0,0,0,-1,1203,792,0,0
-14,232,0,0,0,0,0,0,0,0,0,-1,1210,792,0,0
-7,232,0,0,0,0,0,0,0,0,0,-1,1217,792,0,0
0,232,0,0,0,0,0,0,0,0,0,-1,1224,792,0,0
7,232,0,0,0,0,0,0,0,0,0,-1,1231,792,0,0
14,232,0,0,0,0,0,0,0,0,0,-1,1238,792,0,0
21,232,0,0,0,0,0,0,0,0,0,-1,1245,792,0,0
28,232,0,0,0,0,0,0,0,0,0,-1,1252,792,0,0
35,232,0,0,0,0,0,0,0,0,0,-1,1259,792,0,0
42,232,0,0,0,0,0,0,0,0,0,-1,1266,792,0,0
49,232,0,0,0,0,0,0,0,0,0,-1,1273,792,0,0
56,232,0,0,0,0,0,0,0,0,0,-1,1280,792,0,0
63,232,0,0,0,0,0,0,0,0,0,-1,1287,792,0,0
70,232,0,0,0,0,0,0,0,0,0,-1,1294,792,0,0
77,232,0,0,0,0,0,0,0,0,0,-1,1301,792,0,0
84,232,0,0,0,0,0,0,0,0,0,-1,1308,792,0,0
91,232,0,0,0,0,0,0,0,0,0,-1,1315,792,0,0
98,232,0,0,0,0,0,0,0,0,0,-1,1322,792,0,0
105,232,0,0,0,0,0,0,0,0,0,-1,1329,792,0,0
112,232,0,0,0,0,0,0,0,0,0,-1,1336,792,0,0
119,232,0,0,0,0,0,0,0,0,0,-1,1343,792,0,0
126,232,0,0,0,0,0,0,0,0,0,-1,1350,792,0,0
133,232,0,0,0,0,0,0,0,0,0,-1,1357,792,0,0
140,232,0,0,0,0,0,0,0,0,0,-1,1364,792,0,0
147,232,0,0,0,0,0,0,0,0,0,-1,1371,792,0,0
154,232,0,0,0,0,0,0,0,0,0,-1,1378,792,0,0
161,232,0,0,0,0,0,0,0,0,0,-1,1385,792,0,0
168,232,0,0,0,0,0,0,0,0,0,-1,1392,792,0,0
175,232,0,0,0,0,0,0,0,0,0,-1,1399,792,0,0
182,232,0,0,0,0,0,0,0,0,0,-1,1406,792,0,0
189,232,0,0,0,0,0,0,0,0,0,-1,1413,792,0,0
196,232,0,0,0,0,0,0,0,0,0,-1,1420,792,0,0
203,232,0,0,0,0,0,0,0,0,0,-1,1427,792,0,0
210,232,0,0,0,0,0,0,0,0,0,-1,1434,792,0,0
217,232,0,0,0,0,0,0,0,0,0,-1,1441,792,0,0
224,232,0,0,0,0,0,0,0,0,0,-1,1448,792,0,0
231,232,0,0,0,0,0,0,0,0,0,-1,1455,792,0,0
238,232,0,0,0,0,0,0,0,0,0,-1,1462,792,0,0
245,232,0,0,0,0,0,0,0,0,0,-1,1469,792,0,0
252,232,0,0,0,0,0,0,0,0,0,-1,1476,792,0,0
259,232,0,0,0,0,0,0,0,0,0,-1,1483,792,0,0
266,232,0,0,0,0,0,0,0,0,0,-1,1490,792,0,0
273,232,0,0,0,0,0,0,0,0,0,-1,1497,792,0,0
280,232,0,0,0,0,0,0,0,0,0,-1,1504,792,0,0
287,232,0,0,0,0,0,0,0,0,0,-1,1511,792,0,0
294,232,0,0,0,0,0,0,0,0,0,-1,1518,792,0,0
301,232,0,0,0,0,0,0,0,0,0,-1,1525,792,0,0
308,232,0,0,0,0,0,0,0,0,0,-1,1532,792,0,0
315,232,0,0,0,0,0,0,0,0,0,-1,1539,792,0,0
322,232,0,0,0,0,0,0,0,0,0,-1,1546,792,0,0
329,232,0,0,0,0,0,0,0,0,0,-1,1553,792,0,0
336,232,0,0,0,0,0,0,0,0,0,-1,1560,792,0,0
343,232,0,0,0,0,0,0,0,0,0,-1,1567,792,0,0
350,232,0,0,0,0,0,0,0,0,0,-1,1574,792,0,0
357,232,0,0,0,0,0,0,0,0,0,-1,1581,792,0,0
364,232,0,0,0,0,0,0,0,0,0,-1,1588,792,0,0
371,232,0,0,0,0,0,0,0,0,0,-1,1595,792,0,0
378,232,0,0,0,0,0,0,0,0,0,-1,1602,792,0,0
385,232,0,0,0,0,0,0,0,0,0,-1,1609,792,0,0
392,232,0,0,0,0,0,0,0,0,0,-1,1616,792,0,0
399,232,0,0,0,0,0,0,0,0,0,-1,1623,792,0,0
406,232,0,0,0,0,0,0,0,0,0,-1,1630,792,0,0
413,232,0,0,0,0,0,0,0,0,0,-1,1637,792,0,0
420,232,0,0,0,0,0,0,0,0,0,-1,1644,792,0,0
427,232,0,0,0,0,0,0,0,0,0,-1,1651,792,0,0
434,232,0,0,0,0,0,0,0,0,0,-1,1658,792,0,0
441,232,0,0,0,0,0,0,0,0,0,-1,1665,792,0,0
448,232,0,0,0,0,0,0,0,0,0,-1,1672,792,0,0
455,232,0,0,0,0,0,0,0,0,0,-1,1679,792,0,0
462,232,0,0,0,0,0,0,0,0,0,-1,1686,792,0,0
469,232,0,0,0,0,0,0,0,0,0,-1,1693,792,0,0
476,232,0,0,0,0,0,0,0,0,0,-1,1700,792,0,0
483,232,0,0,0,0,0,0,0,0,0,-1,1707,792,0,0
490,232,0,0,0,0,0,0,0,0,0,-1,1714,792,0,0
497,232,0,0,0,0,0,0,0,0,0,-1,1721,792,0,0
504,232,0,0,0,0,0,0,0,0,0,-1,1728,792,0,0
511,232,0,0,0,0,0,0,0,0,0,-1,1735,792,0,0
518,232,0,0,0,0,0,0,0,0,0,-1,1742,792,0,0
525,232,0,0,0,0,0,0,0,0,0,-1,1749,792,0,0
532,232,0,0,0,0,0,0,0,0,0,-1,1756,792,0,0
539,232,0,0,0,0,0,0,0,0,0,-1,1763,792,0,0
546,232,0,0,0,0,0,0,0,0,0,-1,1770,792,0,0
553,232,0,0,0,0,0,0,0,0,0,-1,1777,792,0,0
560,232,0,0,0,0,0,0,0,0,0,-1,1784,792,0,0
567,232,0,0,0,0,0,0,0,0,0,-1,1791,792,0,0
574,232,0,0,0,0,0,0,0,0,0,-1,1798,792,0,0
581,232,0,0,0,0,0,0,0,0,0,-1,1805,792,0,0
588,232,14.1583,1.86145,0.0019588,0.00448786,0.00334839,0.00680254,-0.000355882,0.965945,0.00465818,0.0381858,1812,792,14.1584,-1.86143
595,232,14.1537,1.8335,-0.00406503,0.00533986,0.00113227,0.00547426,-0.00419943,1.45265,0.00560125,0.0344446,1819,792,14.1537,-1.83349
602,232,14.1603,1.95538,-0.0071191,0.00580064,0.000478402,0.00581833,-0.00713679,1.53384,0.00749254,0.0346471,1826,792,14.1603,-1.95541
609,232,14.317,1.92981,-0.00809877,0.00539246,0.000579239,0.00541728,-0.00812359,1.52797,0.0078697,0.041117,1833,792,14.317,-1.92981
616,232,14.5309,1.78461,-0.00793239,0.00452799,0.000745977,0.00457249,-0.00797689,1.51121,0.00733372,0.0432911,1840,792,14.5308,-1.7846
623,232,14.668,1.5061,-0.00722523,0.0035474,0.00105174,0.00364912,-0.00732696,1.47438,0.00645453,0.0420062,1847,792,14.6679,-1.50608
630,232,11.3239,0.98877,0,0,0,0,0,0,0,-1,1854,792,11.3239,-0.988784
637,232,10.5477,-0.521667,0,0,0,0,0,0,0,-1,1861,792,10.5477,0.521638
644,232,10.6403,0.0603027,-0.00434982,0.000760976,0.0021932,0.0015731,-0.00516194,1.21616,0.00406833,0.0461361,1868,792,10.6403,-0.0602935
651,232,10.7295,0.719116,-0.00334815,0.000111521,0.00221178,0.00118958,-0.00442621,1.11726,0.00341707,0.0398384,1875,792,10.7295,-0.719137
658,232,10.7415,1.04724,-0.00168543,-0.000156621,0.0019039,0.0011306,-0.00297265,0.976295,0.00244729,0.0220097,1882,792,10.7415,-1.04723
665,232,10.7168,1.17365,-0.000506085,-0.0011074,0.00209922,0.00131389,-0.00292738,0.71427,0.00250707,0.011704,1889,792,10.7167,-1.17363
672,232,10.7003,1.34943,-0.000330768,-0.00110799,0.00147127,0.000802346,-0.00224111,0.65628,0.00182141,0.0175288,1896,792,10.7004,-1.34944
679,232,10.7618,1.50757,0.000134046,-0.00090545,0.000767063,0.000540863,-0.00131227,0.487638,0.00110037,0.0181511,1903,792,10.7618,-1.50759
686,232,10.8047,1.62958,0.00144451,-0.00154392,4.36592e-05,0.00144515,-0.00154456,0.0146053,0.00172643,0.0190092,1910,792,10.8047,-1.62958
693,232,10.79,1.74017,0.00415465,-0.00269281,-0.000890831,0.00426865,-0.00280681,-0.127274,0.00411398,0.0109996,1917,792,10.7901,-1.7402
700,232,10.7788,1.89166,0.00807347,-0.00531493,-0.00213157,0.00840465,-0.00564611,-0.154135,0.00816415,0.0114776,1924,792,10.7788,-1.89167
707,232,10.7723,2.03619,0.0140204,-0.00703021,-0.0027291,0.0143684,-0.00737827,-0.126851,0.0127698,0.011694,1931,792,10.7723,-2.03618
714,232,10.7583,2.16162,0.0217288,-0.00814869,-0.0025313,0.0219417,-0.00836163,-0.0839257,0.0180718,0.0127196,1938,792,10.7583,-2.16162
721,232,10.7495,2.25629,0.0308014,-0.0104677,-0.0025604,0.0309596,-0.010626,-0.061726,0.0249478,0.0167228,1945,792,10.7495,-2.25627
728,232,10.6932,2.29498,0.0424064,-0.0131121,-0.00227084,0.0424991,-0.0132048,-0.0408115,0.0336104,0.0315498,1952,792,10.6933,-2.29496
735,232,10.6886,2.36591,0.0565484,-0.0154789,-0.00140552,0.0565758,-0.0155063,-0.0195038,0.0438104,0.0465542,1959,792,10.6886,-2.36591
742,232,12.0447,3.39594,0,0,0,0,0,0,0,-1,1966,792,12.0447,-3.39595
749,232,12.7992,3.68573,0.092639,-0.0169782,0.00331562,0.0927392,-0.0170784,0.0302104,0.0682351,0.0444973,1973,792,12.7991,-3.68572
756,232,13.2278,3.64941,0.114081,-0.0141439,0.00803359,0.114583,-0.0146453,0.0623273,0.0817089,0.0432682,1980,792,13.2278,-3.6494
763,232,13.6646,3.59338,0.136954,-0.00675687,0.0151325,0.13853,-0.00833302,0.103782,0.0952524,0.0421416,1987,792,13.6646,-3.59336
770,232,0,0,0,0,0,0,0,0,0,-1,1994,792,0,0
777,232,0,0,0,0,0,0,0,0,0,-1,2001,792,0,0
784,232,0,0,0,0,0,0,0,0,0,-1,2008,792,0,0
791,232,0,0,0,0,0,0,0,0,0,-1,2015,792,0,0
798,232,0,0,0,0,0,0,0,0,0,-1,2022,792,0,0
805,232,0,0,0,0,0,0,0,0,0,-1,2029,792,0,0
812,232,0,0,0,0,0,0,0,0,0,-1,2036,792,0,0
-700,225,0,0,0,0,0,0,0,0,0,-1,524,799,0,0
-693,225,0,0,0,0,0,0,0,0,0,-1,531,799,0,0
-686,225,0,0,0,0,0,0,0,0,0,-1,538,799,0,0
-679,225,0,0,0,0,0,0,0,0,0,-1,545,799,0,0
-672,225,0,0,0,0,0,0,0,0,0,-1,552,799,0,0
-665,225,0,0,0,0,0,0,0,0,0,-1,559,799,0,0
-658,225,0,0,0,0,0,0,0,0,0,-1,566,799,0,0
-651,225,0,0,0,0,0,0,0,0,0,-1,573,799,0,0
-644,225,-10.1981,1.63586,0,0,0,0,0,0,0,-1,580,799,-10.1981,-1.63585
-637,225,-9.54053,1.93134,0,0,0,0,0,0,0,-1,587,799,-9.54054,-1.93135
-630,225,-9.49316,2.43677,0,0,0,0,0,0,0,-1,594,799,-9.49318,-2.43679
-623,225,-8.13666,0.428772,0.0633282,0.0341952,-0.0184302,0.0722533,0.0252701,-0.45098,0.0423387,0.0496459,601,799,-8.13666,-0.428758
-616,225,-7.80499,0.659607,0.054973,0.0255903,-0.0160269,0.0620232,0.01854,-0.414424,0.0367617,0.0463664,608,799,-7.805,-0.659612
-609,225,-7.0639,0.870667,0.0456394,0.019203,-0.0134129,0.0512528,0.0135896,-0.396354,0.0306596,0.0455818,615,799,-7.06389,-0.870687
-602,225,-6.38007,0.752991,0.0363446,0.0144357,-0.0108311,0.0407951,0.00998518,-0.389868,0.0245547,0.0451905,622,799,-6.38004,-0.752963
-595,225,-6.03937,0.596924,0.0281889,0.00998716,-0.00851726,0.0315528,0.00662329,-0.376143,0.0192118,0.0286209,629,799,-6.03936,-0.596913
-588,225,-6.00861,0.436829,0.0208861,0.00708947,-0.00657616,0.0235184,0.00445717,-0.380748,0.0144246,0.011808,636,799,-6.00859,-0.436802
-581,225,-5.97992,0.308472,0.0143852,0.00482324,-0.00440001,0.0161017,0.00310669,-0.371964,0.00986337,0.00989827,643,799,-5.97989,-0.308481
-574,225,-5.95862,0.174927,0.00819953,0.00266581,-0.00224539,0.008996,0.00186934,-0.340866,0.00548152,0.00793832,650,799,-5.95862,-0.174906
-567,225,-5.96808,0.0557861,0.00264967,0.00175705,-0.00043844,0.002829,0.00157772,-0.388251,0.00163694,0.00939955,657,799,-5.96805,-0.055775
-560,225,-5.98145,-0.0606079,0.000395682,0.00138915,0.000112566,0.00140174,0.000383087,1.45937,0.000836568,0.0099466,664,799,-5.98144,0.0605876
-553,225,-5.99066,-0.204346,0.000219394,0.00199845,-9.2832e-05,0.00200328,0.000214563,-1.5188,0.00127006,0.0105081,671,799,-5.99066,0.204326
-546,225,-6.02075,-0.350464,9.31622e-05,0.00224862,0.000407272,0.00232301,1.87758e-05,1.39014,0.00154245,0.019109,678,799,-6.02072,0.35045
-539,225,-6.00336,-0.467529,0.00111032,0.00330823,0.000411272,0.00338266,0.00103589,1.39174,0.00200127,0.0214331,685,799,-6.00336,0.467508
-532,225,-5.99188,-0.578003,0.00285399,0.00464353,0.000561874,0.00480532,0.0026922,1.29044,0.00278106,0.0142155,692,799,-5.99187,0.578025
-525,225,-6.06274,-0.68042,0.00428442,0.00637343,0.000438107,0.00646159,0.00419626,1.37222,0.00378572,0.0333423,699,799,-6.06274,0.680434
-518,225,-6.13281,-0.784546,0.00538786,0.00815747,-3.45497e-05,0.0081579,0.00538743,-1.55832,0.00479007,0.0441091,706,799,-6.13283,0.784552
-511,225,-6.16693,-0.824219,0.00654285,0.0101381,-0.000421039,0.0101867,0.0064942,-1.45576,0.00595499,0.049807,713,799,-6.16692,0.824195
-504,225,-4.48395,-3.74219,0,0,0,0,0,0,0,-1,720,799,-4.48394,3.74216
-497,225,-8.57263,0.274841,0.00721034,0.0134109,-0.00100054,0.0135683,0.00705289,-1.41471,0.00783572,0.0414807,727,799,-8.57261,-0.274863
-490,225,-8.78491,0.218445,0.00578524,0.0141473,-0.00121253,0.0143196,0.00561297,-1.42966,0.00833148,0.0365725,734,799,-8.7849,-0.218439
-483,225,-8.69189,0.353638,0.00242138,0.0137722,-0.00165104,0.0140075,0.0021861,-1.42925,0.00870163,0.0315338,741,799,-8.69189,-0.353664
-476,225,-8.6626,0.316101,-0.00348324,0.0117971,-0.00250349,0.0121968,-0.00388295,-1.41247,0.00968846,0.0321207,748,799,-8.66261,-0.316082
-469,225,-8.67389,0.222778,-0.0121654,0.00750517,-0.0042789,0.00839564,-0.0130558,-1.36562,0.0124821,0.0351945,755,799,-8.67391,-0.222775
-462,225,0,0,0,0,0,0,0,0,0,-1,762,799,0,0
-455,225,0,0,0,0,0,0,0,0,0,-1,769,799,0,0
-448,225,0,0,0,0,0,0,0,0,0,-1,776,799,0,0
-441,225,0,0,0,0,0,0,0,0,0,-1,783,799,0,0
-434,225,0,0,0,0,0,0,0,0,0,-1,790,799,0,0
-427,225,0,0,0,0,0,0,0,0,0,-1,797,799,0,0
-420,225,0,0,0,0,0,0,0,0,0,-1,804,799,0,0
-413,225,0,0,0,0,0,0,0,0,0,-1,811,799,0,0
-406,225,0,0,0,0,0,0,0,0,0,-1,818,799,0,0
-399,225,0,0,0,0,0,0,0,0,0,-1,825,799,0,0
-392,225,0,0,0,0,0,0,0,0,0,-1,832,799,0,0
-385,225,0,0,0,0,0,0,0,0,0,-1,839,799,0,0
-378,225,0,0,0,0,0,0,0,0,0,-1,846,799,0,0
-371,225,0,0,0,0,0,0,0,0,0,-1,853,799,0,0
-364,225,0,0,0,0,0,0,0,0,0,-1,860,799,0,0
-357,225,0,0,0,0,0,0,0,0,0,-1,867,799,0,0
-350,225,0,0,0,0,0,0,0,0,0,-1,874,799,0,0
-343,225,0,0,0,0,0,0,0,0,0,-1,881,799,0,0
-336,225,0,0,0,0,0,0,0,0,0,-1,888,799,0,0
-329,225,0,0,0,0,0,0,0,0,0,-1,895,799,0,0
-322,225,0,0,0,0,0,0,0,0,0,-1,902,799,0,0
-315,225,0,0,0,0,0,0,0,0,0,-1,909,799,0,0
-308,225,0,0,0,0,0,0,0,0,0,-1,916,799,0,0
-301,225,0,0,0,0,0,0,0,0,0,-1,923,799,0,0
-294,225,0,0,0,0,0,0,0,0,0,-1,930,799,0,0
-287,225,0,0,0,0,0,0,0,0,0,-1,937,799,0,0
-280,225,0,0,0,0,0,0,0,0,0,-1,944,799,0,0
-273,225,0,0,0,0,0,0,0,0,0,-1,951,799,0,0
-266,225,0,0,0,0,0,0,0,0,0,-1,958,799,0,0
-259,225,0,0,0,0,0,0,0,0,0,-1,965,799,0,0
-252,225,0,0,0,0,0,0,0,0,0,-1,972,799,0,0
-245,225,0,0,0,0,0,0,0,0,0,-1,979,799,0,0
-238,225,0,0,0,0,0,0,0,0,0,-1,986,799,0,0
-231,225,0,0,0,0,0,0,0,0,0,-1,993,799,0,0
-224,225,0,0,0,0,0,0,0,0,0,-1,1000,799,0,0
-217,225,0,0,0,0,0,0,0,0,0,-1,1007,799,0,0
-210,225,0,0,0,0,0,0,0,0,0,-1,1014,799,0,0
-203,225,0,0,0,0,0,0,0,0,0,-1,1021,799,0,0
-196,225,0,0,0,0,0,0,0,0,0,-1,1028,799,0,0
-189,225,0,0,0,0,0,0,0,0,0,-1,1035,799,0,0
-182,225,0,0,0,0,0,0,0,0,0,-1,1042,799,0,0
-175,225,0,0,0,0,0,0,0,0,0,-1,1049,799,0,0
-168,225,0,0,0,0,0,0,0,0,0,-1,1056,799,0,0
-161,225,0,0,0,0,0,0,0,0,0,-1,1063,799,0,0
-154,225,0,0,0,0,0,0,0,0,0,-1,1070,799,0,0
-147,225,0,0,0,0,0,0,0,0,0,-1,1077,799,0,0
-140,225,0,0,0,0,0,0,0,0,0,-1,1084,799,0,0
-133,225,0,0,0,0,0,0,0,0,0,-1,1091,799,0,0
-126,225,0,0,0,0,0,0,0,0,0,-1,1098,799,0,0
-119,225,0,0,0,0,0,0,0,0,0,-1,1105,799,0,0
-112,225,0,0,0,0,0,0,0,0,0,-1,1112,799,0,0
-105,225,0,0,0,0,0,0,0,0,0,-1,1119,799,0,0
-98,225,0,0,0,0,0,0,0,0,0,-1,1126,799,0,0
-91,225,0,0,0,0,0,0,0,0,0,-1,1133,799,0,0
-84,225,0,0,0,0,0,0,0,0,0,-1,1140,799,0,0
-77,225,0,0,0,0,0,0,0,0,0,-1,1147,799,0,0
-70,225,0,0,0,0,0,0,0,0,0,-1,1154,799,0,0
-63,225,0,0,0,0,0,0,0,0,0,-1,1161,799,0,0
-56,225,0,0,0,0,0,0,0,0,0,-1,1168,799,0,0
-49,225,0,0,0,0,0,0,0,0,0,-1,1175,799,0,0
-42,225,0,0,0,0,0,0,0,0,0,-1,1182,799,0,0
-35,225,0,0,0,0,0,0,0,0,0,-1,1189,799,0,0
-28,225,0,0,0,0,0,0,0,0,0,-1,1196,799,0,0
-21,225,0,0,0,0,0,0,0,0,0,-1,1203,799,0,0
-14,225,0,0,0,0,0,0,0,0,0,-1,1210,799,0,0
-7,225,0,0,0,0,0,0,0,0,0,-1,1217,799,0,0
0,225,0,0,0,0,0,0,0,0,0,-1,1224,799,0,0
7,225,0,0,0,0,0,0,0,0,0,-1,1231,799,0,0
14,225,0,0,0,0,0,0,0,0,0,-1,1238,799,0,0
21,225,0,0,0,0,0,0,0,0,0,-1,1245,799,0,0
28,225,0,0,0,0,0,0,0,0,0,-1,1252,799,0,0
35,225,0,0,0,0,0,0,0,0,0,-1,1259,799,0,0
42,225,0,0,0,0,0,0,0,0,0,-1,1266,799,0,0
49,225,0,0,0,0,0,0,0,0,0,-1,1273,799,0,0
56,225,0,0,0,0,0,0,0,0,0,-1,1280,799,0,0
63,225,0,0,0,0,0,0,0,0,0,-1,1287,799,0,0
70,225,0,0,0,0,0,0,0,0,0,-1,1294,799,0,0
77,225,0,0,0,0,0,0,0,0,0,-1,1301,799,0,0
84,225,0,0,0,0,0,0,0,0,0,-1,1308,799,0,0
91,225,0,0,0,0,0,0,0,0,0,-1,1315,799,0,0
98,225,0,0,0,0,0,0,0,0,0,-1,1322,799,0,0
105,225,0,0,0,0,0,0,0,0,0,-1,1329,799,0,0
112,225,0,0,0,0,0,0,0,0,0,-1,1336,799,0,0
119,225,0,0,0,0,0,0,0,0,0,-1,1343,799,0,0
126,225,0,0,0,0,0,0,0,0,0,-1,1350,799,0,0
133,225,0,0,0,0,0,0,0,0,0,-1,1357,799,0,0
140,225,0,0,0,0,0,0,0,0,0,-1,1364,799,0,0
147,225,0,0,0,0,0,0,0,0,0,-1,1371,799,0,0
154,225,0,0,0,0,0,0,0,0,0,-1,1378,799,0,0
161,225,0,0,0,0,0,0,0,0,0,-1,1385,799,0,0
168,225,0,0,0,0,0,0,0,0,0,-1,1392,799,0,0
175,225,0,0,0,0,0,0,0,0,0,-1,1399,799,0,0
182,225,0,0,0,0,0,0,0,0,0,-1,1406,799,0,0
189,225,0,0,0,0,0,0,0,0,0,-1,1413,799,0,0
196,225,0,0,0,0,0,0,0,0,0,-1,1420,799,0,0
203,225,0,0,0,0,0,0,0,0,0,-1,1427,799,0,0
210,225,0,0,0,0,0,0,0,0,0,-1,1434,799,0,0
217,225,0,0,0,0,0,0,0,0,0,-1,1441,799,0,0
224,225,0,0,0,0,0,0,0,0,0,-1,1448,799,0,0
231,225,0,0,0,0,0,0,0,0,0,-1,1455,799,0,0
238,225,0,0,0,0,0,0,0,0,0,-1,1462,799,0,0
245,225,0,0,0,0,0,0,0,0,0,-1,1469,799,0,0
252,225,0,0,0,0,0,0,0,0,0,-1,1476,799,0,0
259,225,0,0,0,0,0,0,0,0,0,-1,1483,799,0,0
266,225,0,0,0,0,0,0,0,0,0,-1,1490,799,0,0
273,225,0,0,0,0,0,0,0,0,0,-1,1497,799,0,0
280,225,0,0,0,0,0,0,0,0,0,-1,1504,799,0,0
287,225,0,0,0,0,0,0,0,0,0,-1,1511,799,0,0
294,225,0,0,0,0,0,0,0,0,0,-1,1518,799,0,0
301,225,0,0,0,0,0,0,0,0,0,-1,1525,799,0,0
308,225,0,0,0,0,0,0,0,0,0,-1,1532,799,0,0
315,225,0,0,0,0,0,0,0,0,0,-1,1539,799,0,0
322,225,0,0,0,0,0,0,0,0,0,-1,1546,799,0,0
329,225,0,0,0,0,0,0,0,0,0,-1,1553,799,0,0
336,225,0,0,0,0,0,0,0,0,0,-1,1560,799,0,0
343,225,0,0,0,0,0,0,0,0,0,-1,1567,799,0,0
350,225,0,0,0,0,0,0,0,0,0,-1,1574,799,0,0
357,225,0,0,0,0,0,0,0,0,0,-1,1581,799,0,0
364,225,0,0,0,0,0,0,0,0,0,-1,1588,799,0,0
371,225,0,0,0,0,0,0,0,0,0,-1,1595,799,0,0
378,225,0,0,0,0,0,0,0,0,0,-1,1602,799,0,0
385,225,0,0,0,0,0,0,0,0,0,-1,1609,799,0,0
392,225,0,0,0,0,0,0,0,0,0,-1,1616,799,0,0
399,225,0,0,0,0,0,0,0,0,0,-1,1623,799,0,0
406,225,0,0,0,0,0,0,0,0,0,-1,1630,799,0,0
413,225,0,0,0,0,0,0,0,0,0,-1,1637,799,0,0
420,225,0,0,0,0,0,0,0,0,0,-1,1644,799,0,0
427,225,0,0,0,0,0,0,0,0,0,-1,1651,799,0,0
434,225,0,0,0,0,0,0,0,0,0,-1,1658,799,0,0
441,225,0,0,0,0,0,0,0,0,0,-1,1665,799,0,0
448,225,0,0,0,0,0,0,0,0,0,-1,1672,799,0,0
455,225,0,0,0,0,0,0,0,0,0,-1,1679,799,0,0
462,225,0,0,0,0,0,0,0,0,0,-1,1686,799,0,0
469,225,0,0,0,0,0,0,0,0,0,-1,1693,799,0,0
476,225,0,0,0,0,0,0,0,0,0,-1,1700,799,0,0
483,225,0,0,0,0,0,0,0,0,0,-1,1707,799,0,0
490,225,0,0,0,0,0,0,0,0,0,-1,1714,799,0,0
497,225,0,0,0,0,0,0,0,0,0,-1,1721,799,0,0
504,225,0,0,0,0,0,0,0,0,0,-1,1728,799,0,0
511,225,0,0,0,0,0,0,0,0,0,-1,1735,799,0,0
518,225,0,0,0,0,0,0,0,0,0,-1,1742,799,0,0
525,225,0,0,0,0,0,0,0,0,0,-1,1749,799,0,0
532,225,0,0,0,0,0,0,0,0,0,-1,1756,799,0,0
539,225,0,0,0,0,0,0,0,0,0,-1,1763,799,0,0
546,225,0,0,0,0,0,0,0,0,0,-1,1770,799,0,0
553,225,0,0,0,0,0,0,0,0,0,-1,1777,799,0,0
560,225,0,0,0,0,0,0,0,0,0,-1,1784,799,0,0
567,225,0,0,0,0,0,0,0,0,0,-1,1791,799,0,0
574,225,0,0,0,0,0,0,0,0,0,-1,1798,799,0,0
581,225,0,0,0,0,0,0,0,0,0,-1,1805,799,0,0
588,225,14.1973,1.86377,0.0065581,0.00267361,0.00336108,0.00849776,0.000733951,0.523406,0.00543706,0.0368926,1812,799,14.1972,-1.86376
595,225,14.1907,1.85864,-0.000453985,0.00307775,0.000994686,0.00333862,-0.000714861,1.3143,0.00249836,0.0331117,1819,799,14.1907,-1.85862
602,225,14.2059,1.91205,-0.00435822,0.003703,0.000379194,0.0037208,-0.00437601,1.5239,0.0046798,0.0322869,1826,799,14.206,-1.91204
609,225,14.2839,1.96173,-0.00591191,0.00360058,0.000709174,0.00365316,-0.00596449,1.49679,0.00560594,0.0316543,1833,799,14.2839,-1.96172
616,225,14.2554,1.95911,-0.00613187,0.00294549,0.00111653,0.00308081,-0.00626719,1.45019,0.00550059,0.0360457,1840,799,14.2553,-1.95908
623,225,14.2222,1.98956,-0.0057715,0.00223435,0.00153165,0.00251738,-0.00605452,1.38807,0.0050875,0.0378545,1847,799,14.2222,-1.98959
630,225,13.9041,2.06036,-0.00504701,0.00146648,0.00195615,0.00200881,-0.00558933,1.30035,0.00454625,0.0394065,1854,799,13.904,-2.06036
637,225,10.3965,-0.78656,0,0,0,0,0,0,0,-1,1861,799,10.3965,0.786552
644,225,10.4875,-0.147095,-0.00364723,0.000141226,0.00252776,0.00140574,-0.00491175,1.10695,0.00383006,0.0498506,1868,799,10.4876,0.147088
651,225,10.6846,0.706726,-0.0029156,-0.000332317,0.00246268,0.00115689,-0.00440481,1.02692,0.00338865,0.0395618,1875,799,10.6845,-0.706716
658,225,10.927,1.27087,-0.00166945,-0.000490312,0.00210607,0.00110716,-0.00326692,0.921873,0.00262599,0.0328694,1882,799,10.927,-1.27089
665,225,10.8979,1.13727,-0.000758871,-0.0011957,0.00220102,0.00123454,-0.00318911,0.735943,0.00263579,0.0129899,1889,799,10.898,-1.13728
672,225,10.8694,1.33661,-0.000616907,-0.00111791,0.00159152,0.000743704,-0.00247852,0.70734,0.00194815,0.0168381,1896,799,10.8694,-1.33662
679,225,10.9027,1.51135,-0.000247633,-0.000921721,0.00091669,0.000392011,-0.00156136,0.609231,0.00119324,0.0173938,1903,799,10.9027,-1.51137
686,225,10.9308,1.60938,0.000868193,-0.00145017,0.000253201,0.000895525,-0.0014775,0.107526,0.00138373,0.0116544,1910,799,10.9308,-1.60935
693,225,10.9158,1.74677,0.00322741,-0.00235869,-0.000585984,0.00328822,-0.0024195,-0.103401,0.00330805,0.0106818,1917,799,10.9158,-1.74675
700,225,10.8988,1.89819,0.00664725,-0.00451346,-0.00175436,0.00691652,-0.00478274,-0.152299,0.00679192,0.0105621,1924,799,10.8988,-1.89821
707,225,10.891,2.04388,0.0119409,-0.00569332,-0.0023564,0.0122503,-0.00600277,-0.130575,0.0107422,0.0109607,1931,799,10.891,-2.04388
714,225,10.8936,2.17499,0.0188331,-0.00610875,-0.00210819,0.01901,-0.00628569,-0.0837325,0.0152079,0.012516,1938,799,10.8935,-2.17496
721,225,10.9082,2.29022,0.0268726,-0.00741956,-0.00202518,0.0269918,-0.00753874,-0.0587842,0.0209642,0.0132183,1945,799,10.9082,-2.29023
728,225,10.9344,2.37286,0.0370776,-0.00875652,-0.00163139,0.0371355,-0.00881452,-0.0355335,0.0281589,0.0224127,1952,799,10.9345,-2.37286
735,225,10.9897,2.42596,0.0493888,-0.00947547,-0.000763332,0.0493987,-0.00948537,-0.0129648,0.0365073,0.0411275,1959,799,10.9897,-2.42596
742,225,11.0796,2.5177,0.0639189,-0.00904268,0.000901726,0.0639301,-0.00905382,0.0123564,0.0459364,0.0472835,1966,799,11.0796,-2.51769
749,225,11.7015,2.21283,0,0,0,0,0,0,0,-1,1973,799,11.7016,-2.21285
756,225,11.5627,1.77936,0.0987881,-0.00146909,0.00797467,0.0994185,-0.00209945,0.0788811,0.0669898,0.048619,1980,799,11.5627,-1.77935
763,225,13.9869,3.90784,0.118111,0.00810295,0.0143343,0.119949,0.00626585,0.127466,0.0779611,0.0439371,1987,799,13.987,-3.90781
770,225,0,0,0,0,0,0,0,0,0,-1,1994,799,0,0
777,225,0,0,0,0,0,0,0,0,0,-1,2001,799,0,0
784,225,0,0,0,0,0,0,0,0,0,-1,2008,799,0,0
791,225,0,0,0,0,0,0,0,0,0,-1,2015,799,0,0
798,225,0,0,0,0,0,0,0,0,0,-1,2022,799,0,0
805,225,0,0,0,0,0,0,0,0,0,-1,2029,799,0,0
812,225,0,0,0,0,0,0,0,0,0,-1,2036,799,0,0
-700,218,0,0,0,0,0,0,0,0,0,-1,524,806,0,0
-693,218,0,0,0,0,0,0,0,0,0,-1,531,806,0,0
-686,218,0,0,0,0,0,0,0,0,0,-1,538,806,0,0
-679,218,0,0,0,0,0,0,0,0,0,-1,545,806,0,0
-672,218,0,0,0,0,0,0,0,0,0,-1,552,806,0,0
-665,218,0,0,0,0,0,0,0,0,0,-1,559,806,0,0
-658,218,0,0,0,0,0,0,0,0,0,-1,566,806,0,0
-651,218,-9.74078,0.916626,0.0534012,0.109482,-0.0123695,0.112089,0.0507942,-1.36307,0.0648092,0.0491096,573,806,-9.7408,-0.916614
-644,218,-9.45642,1.18188,0.0648319,0.0854878,-0.016553,0.0946705,0.0556491,-1.06431,0.0549384,0.0465405,580,806,-9.45639,-1.18185
-637,218,-9.1532,1.38037,0.0680524,0.0662851,-0.0178317,0.0850223,0.0493152,-0.760641,0.0492968,0.0462902,587,806,-9.15321,-1.38036
-630,218,-9.13348,1.82788,0.0658347,0.0506661,-0.0172534,0.0770972,0.0394036,-0.57832,0.0445157,0.0479843,594,806,-9.13348,-1.82787
-623,218,-6.81366,0.551392,0.0599757,0.0382861,-0.0155619,0.0680988,0.0301629,-0.481084,0.0394022,0.0491429,601,806,-6.81366,-0.551412
-616,218,-6.05853,0.83551,0,0,0,0,0,0,0,-1,608,806,-6.05851,-0.835518
-609,218,-6.08295,0.75293,0.0433189,0.02136,-0.0110344,0.0479056,0.0167733,-0.393948,0.0280694,0.0468464,615,806,-6.08293,-0.752955
-602,218,-6.10876,0.638245,0.0345934,0.0157603,-0.00877554,0.0380486,0.0123052,-0.375089,0.0224194,0.0377867,622,806,-6.10874,-0.638237
-595,218,-6.14667,0.548828,0.0268705,0.0106815,-0.006694,0.0292798,0.00827219,-0.345489,0.0174296,0.0170136,629,806,-6.14669,-0.548829
-588,218,-6.13275,0.442322,0.0198284,0.00733377,-0.0049698,0.0215641,0.00559811,-0.335998,0.0129208,0.0109157,636,806,-6.13273,-0.442307
-581,218,-6.11823,0.321289,0.0135023,0.00471697,-0.00296863,0.0144114,0.00380792,-0.297154,0.00862325,0.0104089,643,806,-6.11825,-0.321261
-574,218,-6.1095,0.188782,0.00733955,0.00231968,-0.0010128,0.00753619,0.00212304,-0.191767,0.00448711,0.0095561,650,806,-6.10952,-0.188796
-567,218,-6.07159,0.0510864,0.00185425,0.00130779,0.000536991,0.00218353,0.000978514,0.550059,0.00126292,0.0158323,657,806,-6.0716,-0.0510912
-560,218,-6.08307,-0.0739136,-0.000340207,0.00100361,0.00088046,0.00143926,-0.00077585,1.11133,0.00129787,0.017033,664,806,-6.08306,0.0739411
-553,218,-6.0907,-0.186584,-0.000560683,0.0017258,0.000498722,0.00182984,-0.000664729,1.36512,0.00149169,0.0177248,671,806,-6.09071,0.186596
-546,218,-6.10529,-0.33075,-0.000818748,0.00216295,0.00074432,0.00233843,-0.000994225,1.33927,0.00197559,0.0139148,678,806,-6.10531,0.330763
-539,218,-6.11792,-0.456055,8.26798e-06,0.00319175,0.000589228,0.00329731,-9.72913e-05,1.39353,0.00223135,0.0153696,685,806,-6.11794,0.456067
-532,218,-6.14038,-0.530396,0.00149763,0.00443305,0.000486942,0.00451172,0.00141896,1.41063,0.00266393,0.0165802,692,806,-6.14036,0.530379
-525,218,-6.29028,-0.516296,0.00283491,0.00597714,0.000126731,0.00598224,0.00282981,1.53055,0.00345552,0.0421115,699,806,-6.2903,0.516302
-518,218,-6.40778,-0.596069,0.00403098,0.00763975,-0.000546335,0.00772064,0.00395009,-1.42379,0.00445792,0.0465891,706,806,-6.40776,0.596047
-511,218,-6.58228,-0.665039,0,0,0,0,0,0,0,-1,713,806,-6.58226,0.665009
-504,218,-8.2525,0.777649,0.00636357,0.0110525,-0.00184118,0.011689,0.00572701,-1.23793,0.00674912,0.0450914,720,806,-8.2525,-0.77767
-497,218,-8.52753,0.479248,0.00667347,0.0122744,-0.00232868,0.0131161,0.00583176,-1.22396,0.00758803,0.0449206,727,806,-8.52752,-0.479275
-490,218,-8.66705,0.324646,0.00572607,0.0127104,-0.00274148,0.0136579,0.00477853,-1.23802,0.008003,0.0358421,734,806,-8.66707,-0.324673
-483,218,-8.64905,0.33905,0.00273934,0.0118927,-0.00320105,0.012901,0.00173098,-1.26563,0.0080857,0.0321943,741,806,-8.64902,-0.339025
-476,218,-8.59656,0.369263,-0.00312035,0.00924611,-0.00371717,0.0102774,-0.00415167,-1.30016,0.00857724,0.035386,748,806,-8.59653,-0.369276
-469,218,0,0,0,0,0,0,0,0,0,-1,755,806,0,0
-462,218,0,0,0,0,0,0,0,0,0,-1,762,806,0,0
-455,218,0,0,0,0,0,0,0,0,0,-1,769,806,0,0
-448,218,0,0,0,0,0,0,0,0,0,-1,776,806,0,0
-441,218,0,0,0,0,0,0,0,0,0,-1,783,806,0,0
-434,218,0,0,0,0,0,0,0,0,0,-1,790,806,0,0
-427,218,0,0,0,0,0,0,0,0,0,-1,797,806,0,0
-420,218,0,0,0,0,0,0,0,0,0,-1,804,806,0,0
-413,218,0,0,0,0,0,0,0,0,0,-1,811,806,0,0
-406,218,0,0,0,0,0,0,0,0,0,-1,818,806,0,0
-399,218,0,0,0,0,0,0,0,0,0,-1,825,806,0,0
-392,218,0,0,0,0,0,0,0,0,0,-1,832,806,0,0
-385,218,0,0,0,0,0,0,0,0,0,-1,839,806,0,0
-378,218,0,0,0,0,0,0,0,0,0,-1,846,806,0,0
-371,218,0,0,0,0,0,0,0,0,0,-1,853,806,0,0
-364,218,0,0,0,0,0,0,0,0,0,-1,860,806,0,0
-357,218,0,0,0,0,0,0,0,0,0,-1,867,806,0,0
-350,218,0,0,0,0,0,0,0,0,0,-1,874,806,0,0
-343,218,0,0,0,0,0,0,0,0,0,-1,881,806,0,0
-336,218,0,0,0,0,0,0,0,0,0,-1,888,806,0,0
-329,218,0,0,0,0,0,0,0,0,0,-1,895,806,0,0
-322,218,0,0,0,0,0,0,0,0,0,-1,902,806,0,0
-315,218,0,0,0,0,0,0,0,0,0,-1,909,806,0,0
-308,218,0,0,0,0,0,0,0,0,0,-1,916,806,0,0
-301,218,0,0,0,0,0,0,0,0,0,-1,923,806,0,0
-294,218,0,0,0,0,0,0,0,0,0,-1,930,806,0,0
-287,218,0,0,0,0,0,0,0,0,0,-1,937,806,0,0
-280,218,0,0,0,0,0,0,0,0,0,-1,944,806,0,0
-273,218,0,0,0,0,0,0,0,0,0,-1,951,806,0,0
-266,218,0,0,0,0,0,0,0,0,0,-1,958,806,0,0
-259,218,0,0,0,0,0,0,0,0,0,-1,965,806,0,0
-252,218,0,0,0,0,0,0,0,0,0,-1,972,806,0,0
-245,218,0,0,0,0,0,0,0,0,0,-1,979,806,0,0
-238,218,0,0,0,0,0,0,0,0,0,-1,986,806,0,0
-231,218,0,0,0,0,0,0,0,0,0,-1,993,806,0,0
-224,218,0,0,0,0,0,0,0,0,0,-1,1000,806,0,0
-217,218,0,0,0,0,0,0,0,0,0,-1,1007,806,0,0
-210,218,0,0,0,0,0,0,0,0,0,-1,1014,806,0,0
-203,218,0,0,0,0,0,0,0,0,0,-1,1021,806,0,0
-196,218,0,0,0,0,0,0,0,0,0,-1,1028,806,0,0
-189,218,0,0,0,0,0,0,0,0,0,-1,1035,806,0,0
-182,218,0,0,0,0,0,0,0,0,0,-1,1042,806,0,0
-175,218,0,0,0,0,0,0,0,0,0,-1,1049,806,0,0
-168,218,0,0,0,0,0,0,0,0,0,-1,1056,806,0,0
-161,218,0,0,0,0,0,0,0,0,0,-1,1063,806,0,0
-154,218,0,0,0,0,0,0,0,0,0,-1,1070,806,0,0
-147,218,0,0,0,0,0,0,0,0,0,-1,1077,806,0,0
-140,218,0,0,0,0,0,0,0,0,0,-1,1084,806,0,0
-133,218,0,0,0,0,0,0,0,0,0,-1,1091,806,0,0
-126,218,0,0,0,0,0,0,0,0,0,-1,1098,806,0,0
-119,218,0,0,0,0,0,0,0,0,0,-1,1105,806,0,0
-112,218,0,0,0,0,0,0,0,0,0,-1,1112,806,0,0
-105,218,0,0,0,0,0,0,0,0,0,-1,1119,806,0,0
-98,218,0,0,0,0,0,0,0,0,0,-1,1126,806,0,0
-91,218,0,0,0,0,0,0,0,0,0,-1,1133,806,0,0
-84,218,0,0,0,0,0,0,0,0,0,-1,1140,806,0,0
-77,218,0,0,0,0,0,0,0,0,0,-1,1147,806,0,0
-70,218,0,0,0,0,0,0,0,0,0,-1,1154,806,0,0
-63,218,0,0,0,0,0,0,0,0,0,-1,1161,806,0,0
-56,218,0,0,0,0,0,0,0,0,0,-1,1168,806,0,0
-49,218,0,0,0,0,0,0,0,0,0,-1,1175,806,0,0
-42,218,0,0,0,0,0,0,0,0,0,-1,1182,806,0,0
-35,218,0,0,0,0,0,0,0,0,0,-1,1189,806,0,0
-28,218,0,0,0,0,0,0,0,0,0,-1,1196,806,0,0
-21,218,0,0,0,0,0,0,0,0,0,-1,1203,806,0,0
-14,218,0,0,0,0,0,0,0,0,0,-1,1210,806,0,0
-7,218,0,0,0,0,0,0,0,0,0,-1,1217,806,0,0
0,218,0,0,0,0,0,0,0,0,0,-1,1224,806,0,0
7,218,0,0,0,0,0,0,0,0,0,-1,1231,806,0,0
14,218,0,0,0,0,0,0,0,0,0,-1,1238,806,0,0
21,218,0,0,0,0,0,0,0,0,0,-1,1245,806,0,0
28,218,0,0,0,0,0,0,0,0,0,-1,1252,806,0,0
35,218,0,0,0,0,0,0,0,0,0,-1,1259,806,0,0
42,218,0,0,0,0,0,0,0,0,0,-1,1266,806,0,0
49,218,0,0,0,0,0,0,0,0,0,-1,1273,806,0,0
56,218,0,0,0,0,0,0,0,0,0,-1,1280,806,0,0
63,218,0,0,0,0,0,0,0,0,0,-1,1287,806,0,0
70,218,0,0,0,0,0,0,0,0,0,-1,1294,806,0,0
77,218,0,0,0,0,0,0,0,0,0,-1,1301,806,0,0
84,218,0,0,0,0,0,0,0,0,0,-1,1308,806,0,0
91,218,0,0,0,0,0,0,0,0,0,-1,1315,806,0,0
98,218,0,0,0,0,0,0,0,0,0,-1,1322,806,0,0
105,218,0,0,0,0,0,0,0,0,0,-1,1329,806,0,0
112,218,0,0,0,0,0,0,0,0,0,-1,1336,806,0,0
119,218,0,0,0,0,0,0,0,0,0,-1,1343,806,0,0
126,218,0,0,0,0,0,0,0,0,0,-1,1350,806,0,0
133,218,0,0,0,0,0,0,0,0,0,-1,1357,806,0,0
140,218,0,0,0,0,0,0,0,0,0,-1,1364,806,0,0
147,218,0,0,0,0,0,0,0,0,0,-1,1371,806,0,0
154,218,0,0,0,0,0,0,0,0,0,-1,1378,806,0,0
161,218,0,0,0,0,0,0,0,0,0,-1,1385,806,0,0
168,218,0,0,0,0,0,0,0,0,0,-1,1392,806,0,0
175,218,0,0,0,0,0,0,0,0,0,-1,1399,806,0,0
182,218,0,0,0,0,0,0,0,0,0,-1,1406,806,0,0
189,218,0,0,0,0,0,0,0,0,0,-1,1413,806,0,0
196,218,0,0,0,0,0,0,0,0,0,-1,1420,806,0,0
203,218,0,0,0,0,0,0,0,0,0,-1,1427,806,0,0
210,218,0,0,0,0,0,0,0,0,0,-1,1434,806,0,0
217,218,0,0,0,0,0,0,0,0,0,-1,1441,806,0,0
224,218,0,0,0,0,0,0,0,0,0,-1,1448,806,0,0
231,218,0,0,0,0,0,0,0,0,0,-1,1455,806,0,0
238,218,0,0,0,0,0,0,0,0,0,-1,1462,806,0,0
245,218,0,0,0,0,0,0,0,0,0,-1,1469,806,0,0
252,218,0,0,0,0,0,0,0,0,0,-1,1476,806,0,0
259,218,0,0,0,0,0,0,0,0,0,-1,1483,806,0,0
266,218,0,0,0,0,0,0,0,0,0,-1,1490,806,0,0
273,218,0,0,0,0,0,0,0,0,0,-1,1497,806,0,0
280,218,0,0,0,0,0,0,0,0,0,-1,1504,806,0,0
287,218,0,0,0,0,0,0,0,0,0,-1,1511,806,0,0
294,218,0,0,0,0,0,0,0,0,0,-1,1518,806,0,0
301,218,0,0,0,0,0,0,0,0,0,-1,1525,806,0,0
308,218,0,0,0,0,0,0,0,0,0,-1,1532,806,0,0
315,218,0,0,0,0,0,0,0,0,0,-1,1539,806,0,0
322,218,0,0,0,0,0,0,0,0,0,-1,1546,806,0,0
329,218,0,0,0,0,0,0,0,0,0,-1,1553,806,0,0
336,218,0,0,0,0,0,0,0,0,0,-1,1560,806,0,0
343,218,0,0,0,0,0,0,0,0,0,-1,1567,806,0,0
350,218,0,0,0,0,0,0,0,0,0,-1,1574,806,0,0
357,218,0,0,0,0,0,0,0,0,0,-1,1581,806,0,0
364,218,0,0,0,0,0,0,0,0,0,-1,1588,806,0,0
371,218,0,0,0,0,0,0,0,0,0,-1,1595,806,0,0
378,218,0,0,0,0,0,0,0,0,0,-1,1602,806,0,0
385,218,0,0,0,0,0,0,0,0,0,-1,1609,806,0,0
392,218,0,0,0,0,0,0,0,0,0,-1,1616,806,0,0
399,218,0,0,0,0,0,0,0,0,0,-1,1623,806,0,0
406,218,0,0,0,0,0,0,0,0,0,-1,1630,806,0,0
413,218,0,0,0,0,0,0,0,0,0,-1,1637,806,0,0
420,218,0,0,0,0,0,0,0,0,0,-1,1644,806,0,0
427,218,0,0,0,0,0,0,0,0,0,-1,1651,806,0,0
434,218,0,0,0,0,0,0,0,0,0,-1,1658,806,0,0
441,218,0,0,0,0,0,0,0,0,0,-1,1665,806,0,0
448,218,0,0,0,0,0,0,0,0,0,-1,1672,806,0,0
455,218,0,0,0,0,0,0,0,0,0,-1,1679,806,0,0
462,218,0,0,0,0,0,0,0,0,0,-1,1686,806,0,0
469,218,0,0,0,0,0,0,0,0,0,-1,1693,806,0,0
476,218,0,0,0,0,0,0,0,0,0,-1,1700,806,0,0
483,218,0,0,0,0,0,0,0,0,0,-1,1707,806,0,0
490,218,0,0,0,0,0,0,0,0,0,-1,1714,806,0,0
497,218,0,0,0,0,0,0,0,0,0,-1,1721,806,0,0
504,218,0,0,0,0,0,0,0,0,0,-1,1728,806,0,0
511,218,0,0,0,0,0,0,0,0,0,-1,1735,806,0,0
518,218,0,0,0,0,0,0,0,0,0,-1,1742,806,0,0
525,218,0,0,0,0,0,0,0,0,0,-1,1749,806,0,0
532,218,0,0,0,0,0,0,0,0,0,-1,1756,806,0,0
539,218,0,0,0,0,0,0,0,0,0,-1,1763,806,0,0
546,218,0,0,0,0,0,0,0,0,0,-1,1770,806,0,0
553,218,0,0,0,0,0,0,0,0,0,-1,1777,806,0,0
560,218,0,0,0,0,0,0,0,0,0,-1,1784,806,0,0
567,218,0,0,0,0,0,0,0,0,0,-1,1791,806,0,0
574,218,0,0,0,0,0,0,0,0,0,-1,1798,806,0,0
581,218,0,0,0,0,0,0,0,0,0,-1,1805,806,0,0
588,218,0,0,0,0,0,0,0,0,0,-1,1812,806,0,0
595,218,14.2734,1.78156,0.00328854,0.00117116,0.000595429,0.0034445,0.0010152,0.256164,0.00204378,0.0360804,1819,806,14.2735,-1.78153
602,218,14.3107,1.84979,-0.00145501,0.00149114,-6.60305e-05,0.00149262,-0.00145649,-1.5484,0.00170271,0.0329913,1826,806,14.3107,-1.8498
609,218,14.2721,1.93134,-0.0035874,0.00148907,0.000494989,0.00153689,-0.00363521,1.4745,0.00306693,0.0289816,1833,806,14.272,-1.93133
616,218,14.1705,2.00983,-0.0042221,0.0010079,0.00115506,0.00125164,-0.00446584,1.36283,0.00347051,0.0304439,1840,806,14.1706,-2.0098
623,218,14.1167,2.05865,-0.00422509,0.000563775,0.00168868,0.00109935,-0.00476066,1.26368,0.00359667,0.0351818,1847,806,14.1167,-2.05866
630,218,14.0873,2.13031,-0.00388733,4.69829e-05,0.00214437,0.000989813,-0.00483016,1.15656,0.00359575,0.0398665,1854,806,14.0872,-2.13028
637,218,13.9457,2.19287,-0.00348653,-0.00039394,0.00245553,0.000961604,-0.00484207,1.06639,0.00359175,0.0439676,1861,806,13.9456,-2.1929
644,218,10.3386,-0.351257,0,0,0,0,0,0,0,-1,1868,806,10.3386,0.351231
651,218,10.6602,1.00598,-0.00268591,-0.00101641,0.00249253,0.000777434,-0.00447975,0.946978,0.00327654,0.046389,1875,806,10.6602,-1.00598
658,218,10.9547,1.66565,-0.00189216,-0.00103368,0.00210462,0.000685028,-0.00361087,0.885994,0.0026651,0.0372826,1882,806,10.9547,-1.66565
665,218,11.0819,1.19507,-0.00131938,-0.00140939,0.00210325,0.000739345,-0.00346812,0.7747,0.00259389,0.0270151,1889,806,11.0819,-1.19504
672,218,11.0399,1.31531,-0.00130102,-0.0012171,0.00154538,0.000286892,-0.00280502,0.798971,0.00197261,0.0113121,1896,806,11.04,-1.31531
679,218,11.0582,1.47192,-0.00106247,-0.00101621,0.000929078,-0.000109974,-0.00196871,0.797845,0.00127739,0.0108428,1903,806,11.0583,-1.47192
686,218,11.0685,1.60297,-0.000131535,-0.00141099,0.000329069,-5.18619e-05,-0.00149066,0.237547,0.000976946,0.0111899,1910,806,11.0685,-1.60297
693,218,11.0577,1.75085,0.0019344,-0.0020679,-0.000401595,0.00197429,-0.0021078,-0.0990257,0.00235722,0.0114938,1917,806,11.0578,-1.75083
700,218,11.0331,1.89374,0.00492812,-0.00373554,-0.00144914,0.00516408,-0.0039715,-0.161416,0.00528939,0.00910141,1924,806,11.0331,-1.89371
707,218,11.0208,2.02881,0.00957591,-0.00445073,-0.00204368,0.0098676,-0.00474243,-0.141774,0.00860637,0.00779021,1931,806,11.0208,-2.02883
714,218,11.0325,2.16345,0.0156641,-0.00429517,-0.00178909,0.0158232,-0.00445427,-0.0886951,0.0123053,0.0108203,1938,806,11.0325,-2.16345
721,218,11.0637,2.29968,0.0227021,-0.00474431,-0.00164033,0.0227998,-0.004842,-0.0594826,0.0170447,0.0129916,1945,806,11.0638,-2.29966
728,218,11.1053,2.39783,0.0315713,-0.00503993,-0.00120126,0.0316107,-0.0050793,-0.0327643,0.022955,0.0181507,1952,806,11.1053,-2.39782
735,218,11.158,2.46887,0.0421034,-0.00452027,-0.000413554,0.0421071,-0.00452394,-0.00886912,0.0296945,0.0313185,1959,806,11.158,-2.46888
742,218,11.5107,2.42047,0.0543695,-0.00267973,0.00106688,0.0543894,-0.00269968,0.0186923,0.0371922,0.0442198,1966,806,11.5108,-2.42044
749,218,11.8959,2.17426,0.0682763,0.00117002,0.00351222,0.0684597,0.000986703,0.0521482,0.0453145,0.0478003,1973,806,11.8959,-2.17427
756,218,12.1986,2.03235,0.0834813,0.00789142,0.00727831,0.0841757,0.00719699,0.0951225,0.0538786,0.0463529,1980,806,12.1986,-2.03234
763,218,12.4368,1.90979,0.099409,0.0186078,0.0128113,0.101392,0.0166251,0.153538,0.0627907,0.0456304,1987,806,12.4367,-1.90976
770,218,0,0,0,0,0,0,0,0,0,-1,1994,806,0,0
777,218,0,0,0,0,0,0,0,0,0,-1,2001,806,0,0
784,218,0,0,0,0,0,0,0,0,0,-1,2008,806,0,0
791,218,0,0,0,0,0,0,0,0,0,-1,2015,806,0,0
798,218,0,0,0,0,0,0,0,0,0,-1,2022,806,0,0
805,218,0,0,0,0,0,0,0,0,0,-1,2029,806,0,0
812,218,0,0,0,0,0,0,0,0,0,-1,2036,806,0,0
-700,211,0,0,0,0,0,0,0,0,0,-1,524,813,0,0
-693,211,0,0,0,0,0,0,0,0,0,-1,531,813,0,0
-686,211,0,0,0,0,0,0,0,0,0,-1,538,813,0,0
-679,211,0,0,0,0,0,0,0,0,0,-1,545,813,0,0
-672,211,0,0,0,0,0,0,0,0,0,-1,552,813,0,0
-665,211,0,0,0,0,0,0,0,0,0,-1,559,813,0,0
-658,211,0,0,0,0,0,0,0,0,0,-1,566,813,0,0
-651,211,-9.06488,-0.221008,0.0507771,0.101167,-0.00351237,0.101411,0.0505334,-1.50154,0.0585499,0.0479008,573,813,-9.06491,0.221018
-644,211,-9.12445,0.368347,0.0589673,0.0826899,-0.0097747,0.0861986,0.0554586,-1.22617,0.0504442,0.046088,580,813,-9.12445,-0.368377
-637,211,-9.18274,0.887085,0.0610573,0.0662306,-0.0125271,0.0764353,0.0508526,-0.887209,0.0449266,0.0440877,587,813,-9.18276,-0.887109
-630,211,-8.74005,1.15717,0.0589287,0.051816,-0.0129985,0.0688486,0.0418961,-0.651868,0.0400606,0.0437695,594,813,-8.74006,-1.15719
-623,211,-7.26453,0.600525,0.0537888,0.0397066,-0.0120701,0.0607214,0.032774,-0.521355,0.0350944,0.0429949,601,813,-7.2645,-0.600529
-616,211,-6.74475,1.03998,0.0468479,0.0298676,-0.0104136,0.0517937,0.0249218,-0.443399,0.0299102,0.0446489,608,813,-6.74476,-1.03999
-609,211,-6.27509,0.674011,0.0391414,0.0222699,-0.00872663,0.042843,0.0185683,-0.401173,0.0248084,0.037453,615,813,-6.27509,-0.674015
-602,211,-6.21942,0.620361,0.0313748,0.0162539,-0.00692604,0.0340677,0.0135611,-0.370817,0.0198048,0.0180435,622,813,-6.21945,-0.620337
-595,211,-6.24646,0.542725,0.0243509,0.0108507,-0.00516014,0.0260973,0.00910428,-0.326344,0.015295,0.0097385,629,813,-6.24644,-0.5427
-588,211,-6.23871,0.437134,0.0177254,0.00722027,-0.00358093,0.0188299,0.00611575,-0.299186,0.0110917,0.00992865,636,813,-6.23868,-0.437112
-581,211,-6.24445,0.32135,0.0117291,0.00437039,-0.00170024,0.0121029,0.00399654,-0.216437,0.00712065,0.011213,643,813,-6.24447,-0.321355
-574,211,-6.24988,0.194824,0.00576074,0.00181785,6.72749e-05,0.00576189,0.0018167,0.0170557,0.00340144,0.013275,650,813,-6.24991,-0.194854
-567,211,-6.21863,0.0586548,0.000493426,0.000769712,0.00136189,0.00200045,-0.000737311,0.835943,0.00163576,0.019962,657,813,-6.21863,-0.0586433
-560,211,-6.21716,-0.0526733,-0.00163171,0.000508108,0.00156343,0.00133267,-0.00245627,1.08547,0.00221938,0.0213742,664,813,-6.21716,0.0527014
-553,211,-6.24054,-0.153198,-0.00195405,0.00121506,0.0011303,0.00157689,-0.00231588,1.26099,0.00226095,0.0176021,671,813,-6.24052,0.153178
-546,211,-6.24237,-0.257263,-0.00232151,0.00172999,0.00119573,0.00205657,-0.00264809,1.30418,0.00272338,0.0192788,678,813,-6.24235,0.257287
-539,211,-6.24286,-0.402039,-0.00164977,0.0026717,0.000923953,0.00286096,-0.00183903,1.36876,0.00273484,0.0137528,685,813,-6.24284,0.402063
-532,211,-6.37469,-0.441345,-0.000336127,0.00383131,0.000557993,0.00390473,-0.000409545,1.43997,0.00274985,0.0369027,692,813,-6.3747,0.441363
-525,211,-6.39783,-0.375671,0.00105876,0.00520044,1.31166e-05,0.00520049,0.00105871,1.56763,0.00317351,0.0469698,699,813,-6.39782,0.375653
-518,211,-6.47839,-0.434631,0,0,0,0,0,0,0,-1,706,813,-6.47841,0.434651
-511,211,-8.53156,0.703064,0.00414149,0.0084662,-0.00167387,0.00903837,0.00356933,-1.24142,0.00525659,0.0458042,713,813,-8.53155,-0.703035
-504,211,-8.30701,0.729248,0.00562096,0.00997757,-0.0025371,0.0111432,0.00445533,-1.14013,0.00647643,0.0430412,720,813,-8.307,-0.729218
-497,211,-8.49084,0.472717,0.00656959,0.0110908,-0.00324741,0.0127869,0.00487342,-1.08946,0.00745176,0.0450054,727,813,-8.49086,-0.472714
-490,211,-8.61157,0.285767,0.00637651,0.0113705,-0.00374918,0.0133781,0.00436891,-1.07917,0.0078772,0.0358628,734,813,-8.61157,-0.285765
-483,211,-8.5224,0.389709,0.00382623,0.0101939,-0.00391192,0.0120539,0.00196627,-1.12697,0.00746729,0.033349,741,813,-8.52241,-0.389722
-476,211,-8.51251,0.449036,-0.00220507,0.00688043,-0.00350246,0.00807386,-0.00339851,-1.24239,0.00680445,0.0357755,748,813,-8.5125,-0.449011
-469,211,0,0,0,0,0,0,0,0,0,-1,755,813,0,0
-462,211,0,0,0,0,0,0,0,0,0,-1,762,813,0,0
-455,211,0,0,0,0,0,0,0,0,0,-1,769,813,0,0
-448,211,0,0,0,0,0,0,0,0,0,-1,776,813,0,0
-441,211,0,0,0,0,0,0,0,0,0,-1,783,813,0,0
-434,211,0,0,0,0,0,0,0,0,0,-1,790,813,0,0
-427,211,0,0,0,0,0,0,0,0,0,-1,797,813,0,0
-420,211,0,0,0,0,0,0,0,0,0,-1,804,813,0,0
-413,211,0,0,0,0,0,0,0,0,0,-1,811,813,0,0
-406,211,0,0,0,0,0,0,0,0,0,-1,818,813,0,0
-399,211,0,0,0,0,0,0,0,0,0,-1,825,813,0,0
-392,211,0,0,0,0,0,0,0,0,0,-1,832,813,0,0
-385,211,0,0,0,0,0,0,0,0,0,-1,839,813,0,0
-378,211,0,0,0,0,0,0,0,0,0,-1,846,813,0,0
-371,211,0,0,0,0,0,0,0,0,0,-1,853,813,0,0
-364,211,0,0,0,0,0,0,0,0,0,-1,860,813,0,0
-357,211,0,0,0,0,0,0,0,0,0,-1,867,813,0,0
-350,211,0,0,0,0,0,0,0,0,0,-1,874,813,0,0
-343,211,0,0,0,0,0,0,0,0,0,-1,881,813,0,0
-336,211,0,0,0,0,0,0,0,0,0,-1,888,813,0,0
-329,211,0,0,0,0,0,0,0,0,0,-1,895,813,0,0
-322,211,0,0,0,0,0,0,0,0,0,-1,902,813,0,0
-315,211,0,0,0,0,0,0,0,0,0,-1,909,813,0,0
-308,211,0,0,0,0,0,0,0,0,0,-1,916,813,0,0
-301,211,0,0,0,0,0,0,0,0,0,-1,923,813,0,0
-294,211,0,0,0,0,0,0,0,0,0,-1,930,813,0,0
-287,211,0,0,0,0,0,0,0,0,0,-1,937,813,0,0
-280,211,0,0,0,0,0,0,0,0,0,-1,944,813,0,0
-273,211,0,0,0,0,0,0,0,0,0,-1,951,813,0,0
-266,211,0,0,0,0,0,0,0,0,0,-1,958,813,0,0
-259,211,0,0,0,0,0,0,0,0,0,-1,965,813,0,0
-252,211,0,0,0,0,0,0,0,0,0,-1,972,813,0,0
-245,211,0,0,0,0,0,0,0,0,0,-1,979,813,0,0
-238,211,0,0,0,0,0,0,0,0,0,-1,986,813,0,0
-231,211,0,0,0,0,0,0,0,0,0,-1,993,813,0,0
-224,211,0,0,0,0,0,0,0,0,0,-1,1000,813,0,0
-217,211,0,0,0,0,0,0,0,0,0,-1,1007,813,0,0
-210,211,0,0,0,0,0,0,0,0,0,-1,1014,813,0,0
-203,211,0,0,0,0,0,0,0,0,0,-1,1021,813,0,0
-196,211,0,0,0,0,0,0,0,0,0,-1,1028,813,0,0
-189,211,0,0,0,0,0,0,0,0,0,-1,1035,813,0,0
-182,211,0,0,0,0,0,0,0,0,0,-1,1042,813,0,0
-175,211,0,0,0,0,0,0,0,0,0,-1,1049,813,0,0
-168,211,0,0,0,0,0,0,0,0,0,-1,1056,813,0,0
-161,211,0,0,0,0,0,0,0,0,0,-1,1063,813,0,0
-154,211,0,0,0,0,0,0,0,0,0,-1,1070,813,0,0
-147,211,0,0,0,0,0,0,0,0,0,-1,1077,813,0,0
-140,211,0,0,0,0,0,0,0,0,0,-1,1084,813,0,0
-133,211,0,0,0,0,0,0,0,0,0,-1,1091,813,0,0
-126,211,0,0,0,0,0,0,0,0,0,-1,1098,813,0,0
-119,211,0,0,0,0,0,0,0,0,0,-1,1105,813,0,0
-112,211,0,0,0,0,0,0,0,0,0,-1,1112,813,0,0
-105,211,0,0,0,0,0,0,0,0,0,-1,1119,813,0,0
-98,211,0,0,0,0,0,0,0,0,0,-1,1126,813,0,0
-91,211,0,0,0,0,0,0,0,0,0,-1,1133,813,0,0
-84,211,0,0,0,0,0,0,0,0,0,-1,1140,813,0,0
-77,211,0,0,0,0,0,0,0,0,0,-1,1147,813,0,0
-70,211,0,0,0,0,0,0,0,0,0,-1,1154,813,0,0
-63,211,0,0,0,0,0,0,0,0,0,-1,1161,813,0,0
-56,211,0,0,0,0,0,0,0,0,0,-1,1168,813,0,0
-49,211,0,0,0,0,0,0,0,0,0,-1,1175,813,0,0
-42,211,0,0,0,0,0,0,0,0,0,-1,1182,813,0,0
-35,211,0,0,0,0,0,0,0,0,0,-1,1189,813,0,0
-28,211,0,0,0,0,0,0,0,0,0,-1,1196,813,0,0
-21,211,0,0,0,0,0,0,0,0,0,-1,1203,813,0,0
-14,211,0,0,0,0,0,0,0,0,0,-1,1210,813,0,0
-7,211,0,0,0,0,0,0,0,0,0,-1,1217,813,0,0
0,211,0,0,0,0,0,0,0,0,0,-1,1224,813,0,0
7,211,0,0,0,0,0,0,0,0,0,-1,1231,813,0,0
14,211,0,0,0,0,0,0,0,0,0,-1,1238,813,0,0
21,211,0,0,0,0,0,0,0,0,0,-1,1245,813,0,0
28,211,0,0,0,0,0,0,0,0,0,-1,1252,813,0,0
35,211,0,0,0,0,0,0,0,0,0,-1,1259,813,0,0
42,211,0,0,0,0,0,0,0,0,0,-1,1266,813,0,0
49,211,0,0,0,0,0,0,0,0,0,-1,1273,813,0,0
56,211,0,0,0,0,0,0,0,0,0,-1,1280,813,0,0
63,211,0,0,0,0,0,0,0,0,0,-1,1287,813,0,0
70,211,0,0,0,0,0,0,0,0,0,-1,1294,813,0,0
77,211,0,0,0,0,0,0,0,0,0,-1,1301,813,0,0
84,211,0,0,0,0,0,0,0,0,0,-1,1308,813,0,0
91,211,0,0,0,0,0,0,0,0,0,-1,1315,813,0,0
98,211,0,0,0,0,0,0,0,0,0,-1,1322,813,0,0
105,211,0,0,0,0,0,0,0,0,0,-1,1329,813,0,0
112,211,0,0,0,0,0,0,0,0,0,-1,1336,813,0,0
119,211,0,0,0,0,0,0,0,0,0,-1,1343,813,0,0
126,211,0,0,0,0,0,0,0,0,0,-1,1350,813,0,0
133,211,0,0,0,0,0,0,0,0,0,-1,1357,813,0,0
140,211,0,0,0,0,0,0,0,0,0,-1,1364,813,0,0
147,211,0,0,0,0,0,0,0,0,0,-1,1371,813,0,0
154,211,0,0,0,0,0,0,0,0,0,-1,1378,813,0,0
161,211,0,0,0,0,0,0,0,0,0,-1,1385,813,0,0
168,211,0,0,0,0,0,0,0,0,0,-1,1392,813,0,0
175,211,0,0,0,0,0,0,0,0,0,-1,1399,813,0,0
182,211,0,0,0,0,0,0,0,0,0,-1,1406,813,0,0
189,211,0,0,0,0,0,0,0,0,0,-1,1413,813,0,0
196,211,0,0,0,0,0,0,0,0,0,-1,1420,813,0,0
203,211,0,0,0,0,0,0,0,0,0,-1,1427,813,0,0
210,211,0,0,0,0,0,0,0,0,0,-1,1434,813,0,0
217,211,0,0,0,0,0,0,0,0,0,-1,1441,813,0,0
224,211,0,0,0,0,0,0,0,0,0,-1,1448,813,0,0
231,211,0,0,0,0,0,0,0,0,0,-1,1455,813,0,0
238,211,0,0,0,0,0,0,0,0,0,-1,1462,813,0,0
245,211,0,0,0,0,0,0,0,0,0,-1,1469,813,0,0
252,211,0,0,0,0,0,0,0,0,0,-1,1476,813,0,0
259,211,0,0,0,0,0,0,0,0,0,-1,1483,813,0,0
266,211,0,0,0,0,0,0,0,0,0,-1,1490,813,0,0
273,211,0,0,0,0,0,0,0,0,0,-1,1497,813,0,0
280,211,0,0,0,0,0,0,0,0,0,-1,1504,813,0,0
287,211,0,0,0,0,0,0,0,0,0,-1,1511,813,0,0
294,211,0,0,0,0,0,0,0,0,0,-1,1518,813,0,0
301,211,0,0,0,0,0,0,0,0,0,-1,1525,813,0,0
308,211,0,0,0,0,0,0,0,0,0,-1,1532,813,0,0
315,211,0,0,0,0,0,0,0,0,0,-1,1539,813,0,0
322,211,0,0,0,0,0,0,0,0,0,-1,1546,813,0,0
329,211,0,0,0,0,0,0,0,0,0,-1,1553,813,0,0
336,211,0,0,0,0,0,0,0,0,0,-1,1560,813,0,0
343,211,0,0,0,0,0,0,0,0,0,-1,1567,813,0,0
350,211,0,0,0,0,0,0,0,0,0,-1,1574,813,0,0
357,211,0,0,0,0,0,0,0,0,0,-1,1581,813,0,0
364,211,0,0,0,0,0,0,0,0,0,-1,1588,813,0,0
371,211,0,0,0,0,0,0,0,0,0,-1,1595,813,0,0
378,211,0,0,0,0,0,0,0,0,0,-1,1602,813,0,0
385,211,0,0,0,0,0,0,0,0,0,-1,1609,813,0,0
392,211,0,0,0,0,0,0,0,0,0,-1,1616,813,0,0
399,211,0,0,0,0,0,0,0,0,0,-1,1623,813,0,0
406,211,0,0,0,0,0,0,0,0,0,-1,1630,813,0,0
413,211,0,0,0,0,0,0,0,0,0,-1,1637,813,0,0
420,211,0,0,0,0,0,0,0,0,0,-1,1644,813,0,0
427,211,0,0,0,0,0,0,0,0,0,-1,1651,813,0,0
434,211,0,0,0,0,0,0,0,0,0,-1,1658,813,0,0
441,211,0,0,0,0,0,0,0,0,0,-1,1665,813,0,0
448,211,0,0,0,0,0,0,0,0,0,-1,1672,813,0,0
455,211,0,0,0,0,0,0,0,0,0,-1,1679,813,0,0
462,211,0,0,0,0,0,0,0,0,0,-1,1686,813,0,0
469,211,0,0,0,0,0,0,0,0,0,-1,1693,813,0,0
476,211,0,0,0,0,0,0,0,0,0,-1,1700,813,0,0
483,211,0,0,0,0,0,0,0,0,0,-1,1707,813,0,0
490,211,0,0,0,0,0,0,0,0,0,-1,1714,813,0,0
497,211,0,0,0,0,0,0,0,0,0,-1,1721,813,0,0
504,211,0,0,0,0,0,0,0,0,0,-1,1728,813,0,0
511,211,0,0,0,0,0,0,0,0,0,-1,1735,813,0,0
518,211,0,0,0,0,0,0,0,0,0,-1,1742,813,0,0
525,211,0,0,0,0,0,0,0,0,0,-1,1749,813,0,0
532,211,0,0,0,0,0,0,0,0,0,-1,1756,813,0,0
539,211,0,0,0,0,0,0,0,0,0,-1,1763,813,0,0
546,211,0,0,0,0,0,0,0,0,0,-1,1770,813,0,0
553,211,0,0,0,0,0,0,0,0,0,-1,1777,813,0,0
560,211,0,0,0,0,0,0,0,0,0,-1,1784,813,0,0
567,211,0,0,0,0,0,0,0,0,0,-1,1791,813,0,0
574,211,0,0,0,0,0,0,0,0,0,-1,1798,813,0,0
581,211,0,0,0,0,0,0,0,0,0,-1,1805,813,0,0
588,211,0,0,0,0,0,0,0,0,0,-1,1812,813,0,0
595,211,14.3142,1.6994,0.00706188,-8.06571e-05,0.000208458,0.00706795,-8.67359e-05,0.0291523,0.00474115,0.0394645,1819,813,14.3142,-1.6994
602,211,14.3248,1.85944,0.00110438,-3.41103e-05,-0.00059241,0.00135672,-0.000286442,-0.402667,0.00101354,0.0370196,1826,813,14.3248,-1.85943
609,211,14.3007,2.0058,-0.0018453,5.96847e-05,0.00014711,7.09782e-05,-0.00185659,1.49418,0.00126205,0.0356452,1833,813,14.3006,-2.00578
616,211,14.1578,2.00757,-0.0030268,-0.000266379,0.00101283,6.53728e-05,-0.00335855,1.25426,0.00226114,0.0306269,1840,813,14.1578,-2.00755
623,211,14.0676,2.07758,-0.00341994,-0.0005,0.00165704,0.000248489,-0.00416843,1.14653,0.00286537,0.0327853,1847,813,14.0676,-2.07756
630,211,14.1544,2.08356,-0.00348774,-0.000820874,0.00210932,0.000341141,-0.00464976,1.06727,0.00321958,0.0387511,1854,813,14.1544,-2.08355
637,211,14.2101,2.12488,-0.00339019,-0.00105476,0.00237068,0.000420189,-0.00486514,1.01424,0.00339218,0.0410849,1861,813,14.2101,-2.12485
644,211,14.1598,1.86792,-0.00324138,-0.00124754,0.0024682,0.00041747,-0.00490638,0.977333,0.00341859,0.0393105,1868,813,14.1597,-1.86791
651,211,10.6294,1.17181,0,0,0,0,0,0,0,-1,1875,813,10.6294,-1.17182
658,211,11.2767,1.33374,0,0,0,0,0,0,0,-1,1882,813,11.2768,-1.33372
665,211,11.2236,1.35291,-0.00230464,-0.00150376,0.00175648,-0.000102651,-0.00370575,0.897472,0.002437,0.0425555,1889,813,11.2237,-1.35288
672,211,11.1622,1.35162,-0.00236661,-0.00125101,0.0012446,-0.00044493,-0.00317269,0.996067,0.00198352,0.0160013,1896,813,11.1622,-1.35161
679,211,11.1793,1.47174,-0.00221639,-0.00107096,0.000685606,-0.00075033,-0.00253701,1.13336,0.00150493,0.0118241,1903,813,11.1793,-1.47172
686,211,11.1912,1.61847,-0.00142427,-0.0013647,0.000145734,-0.00124574,-0.00154323,0.886187,0.00094539,0.0107968,1910,813,11.1912,-1.61847
693,211,11.1937,1.74329,0.000381831,-0.0018275,-0.000477581,0.000480648,-0.00192631,-0.204032,0.00147084,0.011157,1917,813,11.1937,-1.7433
700,211,11.1619,1.87061,0.00299396,-0.00305384,-0.00137012,0.00328988,-0.00334976,-0.212714,0.00383345,0.0126534,1924,813,11.1619,-1.87059
707,211,11.1731,2.03333,0.00701731,-0.00341243,-0.00193538,0.00736486,-0.00375998,-0.177685,0.00653437,0.019425,1931,813,11.173,-2.03331
714,211,11.1913,2.15686,0.0122851,-0.00283936,-0.00171767,0.0124777,-0.00303198,-0.111674,0.00949195,0.0228559,1938,813,11.1912,-2.15687
721,211,11.1975,2.27832,0.0183797,-0.00262001,-0.00154925,0.0184934,-0.00273369,-0.0732463,0.0133339,0.0165036,1945,813,11.1976,-2.27832
728,211,11.2152,2.41058,0.0259462,-0.00210111,-0.00112963,0.0259916,-0.00214654,-0.040189,0.0180858,0.0149741,1952,813,11.2152,-2.41057
735,211,11.2488,2.52246,0.0346558,-0.000706031,-0.000546518,0.0346642,-0.000714477,-0.0154501,0.0233513,0.0225583,1959,813,11.2488,-2.52245
742,211,11.5216,2.46228,0.0446307,0.0020146,0.000586637,0.0446388,0.00200653,0.0137621,0.0291134,0.0409483,1966,813,11.5216,-2.46226
749,211,11.9526,2.1106,0.0557775,0.00667762,0.0024694,0.0559014,0.00655374,0.0501248,0.0352865,0.0441479,1973,813,11.9527,-2.11061
756,211,12.3169,1.82721,0.0677577,0.0139554,0.00536415,0.0682873,0.0134258,0.0984106,0.041775,0.0427257,1980,813,12.3169,-1.82724
763,211,12.5804,1.69818,0.080035,0.0246387,0.00957245,0.0816425,0.0230313,0.166374,0.0486055,0.0460806,1987,813,12.5805,-1.69821
770,211,12.8065,1.54254,0,0,0,0,0,0,0,-1,1994,813,12.8065,-1.54253
777,211,0,0,0,0,0,0,0,0,0,-1,2001,813,0,0
784,211,0,0,0,0,0,0,0,0,0,-1,2008,813,0,0
791,211,0,0,0,0,0,0,0,0,0,-1,2015,813,0,0
798,211,0,0,0,0,0,0,0,0,0,-1,2022,813,0,0
805,211,0,0,0,0,0,0,0,0,0,-1,2029,813,0,0
812,211,0,0,0,0,0,0,0,0,0,-1,2036,813,0,0
-700,204,0,0,0,0,0,0,0,0,0,-1,524,820,0,0
-693,204,0,0,0,0,0,0,0,0,0,-1,531,820,0,0
-686,204,0,0,0,0,0,0,0,0,0,-1,538,820,0,0
-679,204,0,0,0,0,0,0,0,0,0,-1,545,820,0,0
-672,204,0,0,0,0,0,0,0,0,0,-1,552,820,0,0
-665,204,0,0,0,0,0,0,0,0,0,-1,559,820,0,0
-658,204,0,0,0,0,0,0,0,0,0,-1,566,820,0,0
-651,204,-8.47485,-1.39624,0,0,0,0,0,0,0,-1,573,820,-8.47483,1.39627
-644,204,-9.00305,0.310608,0,0,0,0,0,0,0,-1,580,820,-9.00307,-0.310611
-637,204,-8.5882,0.433838,0.0532954,0.0624961,-0.0057884,0.0652896,0.050502,-1.12116,0.0395302,0.0471699,587,820,-8.58819,-0.43386
-630,204,-8.12012,0.527222,0.0509935,0.0501397,-0.00775989,0.0583383,0.042795,-0.75792,0.0348851,0.0433497,594,820,-8.1201,-0.527228
-623,204,-7.45001,0.375366,0.0464149,0.03915,-0.00804597,0.0516104,0.0339545,-0.573364,0.0302885,0.038559,601,820,-7.45004,-0.375363
-616,204,-6.57129,0.518372,0.0403946,0.0297785,-0.00733352,0.0441395,0.0260336,-0.472135,0.0256206,0.0421864,608,820,-6.5713,-0.518389
-609,204,-6.29608,0.705566,0.0337539,0.0223761,-0.00653586,0.03673,0.0194001,-0.427284,0.0212173,0.034053,615,820,-6.29611,-0.705574
-602,204,-6.34381,0.626953,0.0270285,0.0162482,-0.00535599,0.029237,0.0140396,-0.391111,0.0168844,0.0142741,622,820,-6.34381,-0.626977
-595,204,-6.35559,0.521973,0.0208031,0.0107472,-0.00394958,0.0221689,0.00938149,-0.332927,0.0128495,0.0137276,629,820,-6.35558,-0.521944
-588,204,-6.3595,0.394348,0.0147361,0.00690549,-0.00253739,0.0154864,0.00615518,-0.287508,0.00900356,0.0115299,636,820,-6.35951,-0.394367
-581,204,-6.35657,0.282715,0.00921782,0.00384621,-0.000722861,0.00931339,0.00375063,-0.131456,0.00541091,0.0122934,643,820,-6.35657,-0.282731
-574,204,-6.36224,0.194702,0.00363258,0.00119044,0.000889134,0.00392199,0.000901019,0.314688,0.00237207,0.0139145,650,820,-6.36226,-0.194701
-567,204,-6.36462,0.0806885,-0.00124413,4.95509e-05,0.00199887,0.00150363,-0.00269821,0.941882,0.0024584,0.0137222,657,820,-6.36464,-0.0806958
-560,204,-6.37097,-0.0513306,-0.00322587,-0.000271153,0.00217014,0.000876765,-0.00437379,1.08425,0.00324781,0.0129257,664,820,-6.37098,0.0513175
-553,204,-6.33856,-0.157166,-0.00360274,0.000324784,0.00179918,0.00102436,-0.00430232,1.19995,0.0032637,0.00901342,671,820,-6.33857,0.157179
-546,204,-6.33783,-0.2453,-0.00401969,0.000801258,0.00178675,0.00139126,-0.00460969,1.25186,0.00362694,0.0124888,678,820,-6.33784,0.245289
-539,204,-6.37384,-0.381104,-0.0034919,0.00159078,0.0014414,0.00197109,-0.00387221,1.31283,0.00343264,0.0221122,685,820,-6.37385,0.381101
-532,204,-6.35553,-0.553101,0,0,0,0,0,0,0,-1,692,820,-6.35556,0.553119
-525,204,-6.53973,-0.240662,0,0,0,0,0,0,0,-1,699,820,-6.53973,0.240641
-518,204,-8.60577,0.532715,0,0,0,0,0,0,0,-1,706,820,-8.60579,-0.532687
-511,204,-8.58441,0.526917,0.00248377,0.00655708,-0.00165501,0.00714474,0.00189611,-1.2296,0.00427371,0.0475746,713,820,-8.58441,-0.526896
-504,204,-8.38879,0.603149,0.00436275,0.0079256,-0.00270028,0.00937914,0.00290921,-1.07699,0.0055436,0.0466769,720,820,-8.38877,-0.603175
-497,204,-8.48035,0.445801,0.00591108,0.0089532,-0.00360907,0.0113486,0.00351563,-0.98483,0.00670833,0.0402618,727,820,-8.48033,-0.445813
-490,204,-8.5564,0.27179,0.00647894,0.00919167,-0.00417323,0.0122234,0.00344719,-0.942522,0.00727732,0.0357807,734,820,-8.5564,-0.271763
-483,204,-8.4967,0.294861,0.00443092,0.00792626,-0.00393019,0.0104798,0.00187734,-0.994608,0.00645246,0.0407269,741,820,-8.49671,-0.294887
-476,204,0,0,0,0,0,0,0,0,0,-1,748,820,0,0
-469,204,0,0,0,0,0,0,0,0,0,-1,755,820,0,0
-462,204,0,0,0,0,0,0,0,0,0,-1,762,820,0,0
-455,204,0,0,0,0,0,0,0,0,0,-1,769,820,0,0
-448,204,0,0,0,0,0,0,0,0,0,-1,776,820,0,0
-441,204,0,0,0,0,0,0,0,0,0,-1,783,820,0,0
-434,204,0,0,0,0,0,0,0,0,0,-1,790,820,0,0
-427,204,0,0,0,0,0,0,0,0,0,-1,797,820,0,0
-420,204,0,0,0,0,0,0,0,0,0,-1,804,820,0,0
-413,204,0,0,0,0,0,0,0,0,0,-1,811,820,0,0
-406,204,0,0,0,0,0,0,0,0,0,-1,818,820,0,0
-399,204,0,0,0,0,0,0,0,0,0,-1,825,820,0,0
-392,204,0,0,0,0,0,0,0,0,0,-1,832,820,0,0
-385,204,0,0,0,0,0,0,0,0,0,-1,839,820,0,0
-378,204,0,0,0,0,0,0,0,0,0,-1,846,820,0,0
-371,204,0,0,0,0,0,0,0,0,0,-1,853,820,0,0
-364,204,0,0,0,0,0,0,0,0,0,-1,860,820,0,0
-357,204,0,0,0,0,0,0,0,0,0,-1,867,820,0,0
-350,204,0,0,0,0,0,0,0,0,0,-1,874,820,0,0
-343,204,0,0,0,0,0,0,0,0,0,-1,881,820,0,0
-336,204,0,0,0,0,0,0,0,0,0,-1,888,820,0,0
-329,204,0,0,0,0,0,0,0,0,0,-1,895,820,0,0
-322,204,0,0,0,0,0,0,0,0,0,-1,902,820,0,0
-315,204,0,0,0,0,0,0,0,0,0,-1,909,820,0,0
-308,204,0,0,0,0,0,0,0,0,0,-1,916,820,0,0
-301,204,0,0,0,0,0,0,0,0,0,-1,923,820,0,0
-294,204,0,0,0,0,0,0,0,0,0,-1,930,820,0,0
-287,204,0,0,0,0,0,0,0,0,0,-1,937,820,0,0
-280,204,0,0,0,0,0,0,0,0,0,-1,944,820,0,0
-273,204,0,0,0,0,0,0,0,0,0,-1,951,820,0,0
-266,204,0,0,0,0,0,0,0,0,0,-1,958,820,0,0
-259,204,0,0,0,0,0,0,0,0,0,-1,965,820,0,0
-252,204,0,0,0,0,0,0,0,0,0,-1,972,820,0,0
-245,204,0,0,0,0,0,0,0,0,0,-1,979,820,0,0
-238,204,0,0,0,0,0,0,0,0,0,-1,986,820,0,0
-231,204,0,0,0,0,0,0,0,0,0,-1,993,820,0,0
-224,204,0,0,0,0,0,0,0,0,0,-1,1000,820,0,0
-217,204,0,0,0,0,0,0,0,0,0,-1,1007,820,0,0
-210,204,0,0,0,0,0,0,0,0,0,-1,1014,820,0,0
-203,204,0,0,0,0,0,0,0,0,0,-1,1021,820,0,0
-196,204,0,0,0,0,0,0,0,0,0,-1,1028,820,0,0
-189,204,0,0,0,0,0,0,0,0,0,-1,1035,820,0,0
-182,204,0,0,0,0,0,0,0,0,0,-1,1042,820,0,0
-175,204,0,0,0,0,0,0,0,0,0,-1,1049,820,0,0
-168,204,0,0,0,0,0,0,0,0,0,-1,1056,820,0,0
-161,204,0,0,0,0,0,0,0,0,0,-1,1063,820,0,0
-154,204,0,0,0,0,0,0,0,0,0,-1,1070,820,0,0
-147,204,0,0,0,0,0,0,0,0,0,-1,1077,820,0,0
-140,204,0,0,0,0,0,0,0,0,0,-1,1084,820,0,0
-133,204,0,0,0,0,0,0,0,0,0,-1,1091,820,0,0
-126,204,0,0,0,0,0,0,0,0,0,-1,1098,820,0,0
-119,204,0,0,0,0,0,0,0,0,0,-1,1105,820,0,0
-112,204,0,0,0,0,0,0,0,0,0,-1,1112,820,0,0
-105,204,0,0,0,0,0,0,0,0,0,-1,1119,820,0,0
-98,204,0,0,0,0,0,0,0,0,0,-1,1126,820,0,0
-91,204,0,0,0,0,0,0,0,0,0,-1,1133,820,0,0
-84,204,0,0,0,0,0,0,0,0,0,-1,1140,820,0,0
-77,204,0,0,0,0,0,0,0,0,0,-1,1147,820,0,0
-70,204,0,0,0,0,0,0,0,0,0,-1,1154,820,0,0
-63,204,0,0,0,0,0,0,0,0,0,-1,1161,820,0,0
-56,204,0,0,0,0,0,0,0,0,0,-1,1168,820,0,0
-49,204,0,0,0,0,0,0,0,0,0,-1,1175,820,0,0
-42,204,0,0,0,0,0,0,0,0,0,-1,1182,820,0,0
-35,204,0,0,0,0,0,0,0,0,0,-1,1189,820,0,0
-28,204,0,0,0,0,0,0,0,0,0,-1,1196,820,0,0
-21,204,0,0,0,0,0,0,0,0,0,-1,1203,820,0,0
-14,204,0,0,0,0,0,0,0,0,0,-1,1210,820,0,0
-7,204,0,0,0,0,0,0,0,0,0,-1,1217,820,0,0
0,204,0,0,0,0,0,0,0,0,0,-1,1224,820,0,0
7,204,0,0,0,0,0,0,0,0,0,-1,1231,820,0,0
14,204,0,0,0,0,0,0,0,0,0,-1,1238,820,0,0
21,204,0,0,0,0,0,0,0,0,0,-1,1245,820,0,0
28,204,0,0,0,0,0,0,0,0,0,-1,1252,820,0,0
35,204,0,0,0,0,0,0,0,0,0,-1,1259,820,0,0
42,204,0,0,0,0,0,0,0,0,0,-1,1266,820,0,0
49,204,0,0,0,0,0,0,0,0,0,-1,1273,820,0,0
56,204,0,0,0,0,0,0,0,0,0,-1,1280,820,0,0
63,204,0,0,0,0,0,0,0,0,0,-1,1287,820,0,0
70,204,0,0,0,0,0,0,0,0,0,-1,1294,820,0,0
77,204,0,0,0,0,0,0,0,0,0,-1,1301,820,0,0
84,204,0,0,0,0,0,0,0,0,0,-1,1308,820,0,0
91,204,0,0,0,0,0,0,0,0,0,-1,1315,820,0,0
98,204,0,0,0,0,0,0,0,0,0,-1,1322,820,0,0
105,204,0,0,0,0,0,0,0,0,0,-1,1329,820,0,0
112,204,0,0,0,0,0,0,0,0,0,-1,1336,820,0,0
119,204,0,0,0,0,0,0,0,0,0,-1,1343,820,0,0
126,204,0,0,0,0,0,0,0,0,0,-1,1350,820,0,0
133,204,0,0,0,0,0,0,0,0,0,-1,1357,820,0,0
140,204,0,0,0,0,0,0,0,0,0,-1,1364,820,0,0
147,204,0,0,0,0,0,0,0,0,0,-1,1371,820,0,0
154,204,0,0,0,0,0,0,0,0,0,-1,1378,820,0,0
161,204,0,0,0,0,0,0,0,0,0,-1,1385,820,0,0
168,204,0,0,0,0,0,0,0,0,0,-1,1392,820,0,0
175,204,0,0,0,0,0,0,0,0,0,-1,1399,820,0,0
182,204,0,0,0,0,0,0,0,0,0,-1,1406,820,0,0
189,204,0,0,0,0,0,0,0,0,0,-1,1413,820,0,0
196,204,0,0,0,0,0,0,0,0,0,-1,1420,820,0,0
203,204,0,0,0,0,0,0,0,0,0,-1,1427,820,0,0
210,204,0,0,0,0,0,0,0,0,0,-1,1434,820,0,0
217,204,0,0,0,0,0,0,0,0,0,-1,1441,820,0,0
224,204,0,0,0,0,0,0,0,0,0,-1,1448,820,0,0
231,204,0,0,0,0,0,0,0,0,0,-1,1455,820,0,0
238,204,0,0,0,0,0,0,0,0,0,-1,1462,820,0,0
245,204,0,0,0,0,0,0,0,0,0,-1,1469,820,0,0
252,204,0,0,0,0,0,0,0,0,0,-1,1476,820,0,0
259,204,0,0,0,0,0,0,0,0,0,-1,1483,820,0,0
266,204,0,0,0,0,0,0,0,0,0,-1,1490,820,0,0
273,204,0,0,0,0,0,0,0,0,0,-1,1497,820,0,0
280,204,0,0,0,0,0,0,0,0,0,-1,1504,820,0,0
287,204,0,0,0,0,0,0,0,0,0,-1,1511,820,0,0
294,204,0,0,0,0,0,0,0,0,0,-1,1518,820,0,0
301,204,0,0,0,0,0,0,0,0,0,-1,1525,820,0,0
308,204,0,0,0,0,0,0,0,0,0,-1,1532,820,0,0
315,204,0,0,0,0,0,0,0,0,0,-1,1539,820,0,0
322,204,0,0,0,0,0,0,0,0,0,-1,1546,820,0,0
329,204,0,0,0,0,0,0,0,0,0,-1,1553,820,0,0
336,204,0,0,0,0,0,0,0,0,0,-1,1560,820,0,0
343,204,0,0,0,0,0,0,0,0,0,-1,1567,820,0,0
350,204,0,0,0,0,0,0,0,0,0,-1,1574,820,0,0
357,204,0,0,0,0,0,0,0,0,0,-1,1581,820,0,0
364,204,0,0,0,0,0,0,0,0,0,-1,1588,820,0,0
371,204,0,0,0,0,0,0,0,0,0,-1,1595,820,0,0
378,204,0,0,0,0,0,0,0,0,0,-1,1602,820,0,0
385,204,0,0,0,0,0,0,0,0,0,-1,1609,820,0,0
392,204,0,0,0,0,0,0,0,0,0,-1,1616,820,0,0
399,204,0,0,0,0,0,0,0,0,0,-1,1623,820,0,0
406,204,0,0,0,0,0,0,0,0,0,-1,1630,820,0,0
413,204,0,0,0,0,0,0,0,0,0,-1,1637,820,0,0
420,204,0,0,0,0,0,0,0,0,0,-1,1644,820,0,0
427,204,0,0,0,0,0,0,0,0,0,-1,1651,820,0,0
434,204,0,0,0,0,0,0,0,0,0,-1,1658,820,0,0
441,204,0,0,0,0,0,0,0,0,0,-1,1665,820,0,0
448,204,0,0,0,0,0,0,0,0,0,-1,1672,820,0,0
455,204,0,0,0,0,0,0,0,0,0,-1,1679,820,0,0
462,204,0,0,0,0,0,0,0,0,0,-1,1686,820,0,0
469,204,0,0,0,0,0,0,0,0,0,-1,1693,820,0,0
476,204,0,0,0,0,0,0,0,0,0,-1,1700,820,0,0
483,204,0,0,0,0,0,0,0,0,0,-1,1707,820,0,0
490,204,0,0,0,0,0,0,0,0,0,-1,1714,820,0,0
497,204,0,0,0,0,0,0,0,0,0,-1,1721,820,0,0
504,204,0,0,0,0,0,0,0,0,0,-1,1728,820,0,0
511,204,0,0,0,0,0,0,0,0,0,-1,1735,820,0,0
518,204,0,0,0,0,0,0,0,0,0,-1,1742,820,0,0
525,204,0,0,0,0,0,0,0,0,0,-1,1749,820,0,0
532,204,0,0,0,0,0,0,0,0,0,-1,1756,820,0,0
539,204,0,0,0,0,0,0,0,0,0,-1,1763,820,0,0
546,204,0,0,0,0,0,0,0,0,0,-1,1770,820,0,0
553,204,0,0,0,0,0,0,0,0,0,-1,1777,820,0,0
560,204,0,0,0,0,0,0,0,0,0,-1,1784,820,0,0
567,204,0,0,0,0,0,0,0,0,0,-1,1791,820,0,0
574,204,0,0,0,0,0,0,0,0,0,-1,1798,820,0,0
581,204,0,0,0,0,0,0,0,0,0,-1,1805,820,0,0
588,204,0,0,0,0,0,0,0,0,0,-1,1812,820,0,0
595,204,0,0,0,0,0,0,0,0,0,-1,1819,820,0,0
602,204,14.2266,2.03125,0.00295432,-0.00105498,-0.00122339,0.00329814,-0.0013988,-0.273971,0.0027847,0.03813,1826,820,14.2266,-2.03125
609,204,14.2644,2.08905,-0.00020977,-0.000739545,-0.000259558,-0.0001038,-0.000845516,-0.387618,0.000532461,0.0401553,1833,820,14.2645,-2.08905
616,204,14.2051,2.07233,-0.0016509,-0.000838568,0.000816124,-0.000333126,-0.00215634,1.01629,0.00134039,0.0376796,1840,820,14.2051,-2.07233
623,204,14.1501,2.02783,-0.00231035,-0.000909766,0.00153392,7.61551e-05,-0.00329627,0.999537,0.00222333,0.0291059,1847,820,14.1501,-2.02781
630,204,14.1774,1.97107,-0.00274264,-0.00106532,0.00196769,0.000234981,-0.00404295,0.986847,0.00277694,0.0275714,1854,820,14.1774,-1.9711
637,204,14.1708,2.00421,-0.00297764,-0.00116793,0.00217151,0.000279709,-0.00442528,0.982806,0.0030477,0.0340513,1861,820,14.1707,-2.00419
644,204,14.0717,2.01917,-0.00309196,-0.00126892,0.0021911,0.000192699,-0.00455358,0.982514,0.00310195,0.0398825,1868,820,14.0717,-2.01914
651,204,13.8622,2.33417,-0.00317268,-0.00135862,0.00196891,-9.78657e-05,-0.00443344,1.00125,0.00292355,0.0442109,1875,820,13.8622,-2.33414
658,204,13.8882,2.53906,0,0,0,0,0,0,0,-1,1882,820,13.8882,-2.53903
665,204,11.2672,1.49542,-0.0029662,-0.0013862,0.00133725,-0.000623035,-0.00372937,1.0522,0.00230679,0.0471904,1889,820,11.2672,-1.49542
672,204,11.3134,1.28894,-0.00311772,-0.0011272,0.000911128,-0.000773127,-0.00347179,1.20015,0.0021047,0.0274202,1896,820,11.3133,-1.28891
679,204,11.3044,1.43347,-0.0030567,-0.000966176,0.000441995,-0.000876567,-0.00314631,1.37077,0.00187495,0.0162681,1903,820,11.3044,-1.43344
686,204,11.3157,1.61816,-0.00242227,-0.00114975,9.49487e-06,-0.00114968,-0.00242234,1.56334,0.00139914,0.0102992,1910,820,11.3157,-1.61814
693,204,11.3032,1.74078,-0.000948152,-0.0014208,-0.000492301,-0.000638392,-0.00173056,-0.56162,0.00101053,0.0155159,1917,820,11.3032,-1.74081
700,204,11.3114,1.87848,0.00118291,-0.00219965,-0.00121829,0.00157601,-0.00259276,-0.312121,0.00243058,0.0165589,1924,820,11.3114,-1.87847
707,204,11.3207,2.05609,0.00451145,-0.00223801,-0.00172464,0.0049266,-0.00265316,-0.236223,0.0044413,0.0145104,1931,820,11.3207,-2.05612
714,204,11.3423,2.2041,0.00890416,-0.00130984,-0.00155072,0.0091344,-0.00154008,-0.1474,0.00666256,0.0223431,1938,820,11.3423,-2.20412
721,204,11.3121,2.28192,0.0140205,-0.000494309,-0.00135547,0.014146,-0.000619805,-0.0923218,0.0096439,0.0211077,1945,820,11.3121,-2.28192
728,204,11.3053,2.39813,0.0203922,0.000719674,-0.000885724,0.020432,0.000679876,-0.0449023,0.0134005,0.0128742,1952,820,11.3053,-2.39816
735,204,11.3213,2.54083,0.0276081,0.00276039,-0.00040055,0.0276145,0.00275393,-0.0161146,0.0175638,0.0141949,1959,820,11.3213,-2.54082
742,204,11.3618,2.61536,0.0357471,0.00602891,0.000527416,0.0357565,0.00601955,0.0177398,0.022106,0.0289541,1966,820,11.3618,-2.61537
749,204,12.1749,2.12708,0.0448089,0.0110535,0.00205832,0.0449339,0.0109285,0.0606781,0.027059,0.0395499,1973,820,12.1749,-2.12708
756,204,13.2822,1.521,0.0545631,0.0183351,0.00440639,0.0550913,0.0178069,0.119312,0.0324629,0.0451891,1980,820,13.2822,-1.521
763,204,12.6803,1.32269,0.0646062,0.0284086,0.00779759,0.0662145,0.0268004,0.203401,0.0384595,0.0439357,1987,820,12.6803,-1.32268
770,204,12.6173,1.00775,0.0741541,0.0419139,0.0125097,0.0784387,0.0376293,0.329975,0.045299,0.0481592,1994,820,12.6173,-1.00773
777,204,0,0,0,0,0,0,0,0,0,-1,2001,820,0,0
784,204,0,0,0,0,0,0,0,0,0,-1,2008,820,0,0
791,204,0,0,0,0,0,0,0,0,0,-1,2015,820,0,0
798,204,0,0,0,0,0,0,0,0,0,-1,2022,820,0,0
805,204,0,0,0,0,0,0,0,0,0,-1,2029,820,0,0
812,204,0,0,0,0,0,0,0,0,0,-1,2036,820,0,0
-700,197,0,0,0,0,0,0,0,0,0,-1,524,827,0,0
-693,197,0,0,0,0,0,0,0,0,0,-1,531,827,0,0
-686,197,0,0,0,0,0,0,0,0,0,-1,538,827,0,0
-679,197,0,0,0,0,0,0,0,0,0,-1,545,827,0,0
-672,197,0,0,0,0,0,0,0,0,0,-1,552,827,0,0
-665,197,0,0,0,0,0,0,0,0,0,-1,559,827,0,0
-658,197,-6.77045,-2.1214,0,0,0,0,0,0,0,-1,566,827,-6.77044,2.12139
-651,197,-7.70233,-2.22589,0,0,0,0,0,0,0,-1,573,827,-7.70231,2.22591
-644,197,-8.03131,0.182983,0,0,0,0,0,0,0,-1,580,827,-8.03134,-0.182969
-637,197,-7.7962,0.131409,0.0449199,0.05628,-0.000808557,0.0563373,0.0448627,-1.5001,0.0343777,0.0467537,587,827,-7.79619,-0.131409
-630,197,-7.54407,0.0273438,0.042775,0.0456991,-0.00367074,0.0481882,0.0402858,-0.974921,0.0298422,0.0430726,594,827,-7.54406,-0.0273194
-623,197,-7.09686,-0.0640869,0.0389325,0.035949,-0.00468213,0.0423548,0.0325267,-0.631176,0.0255973,0.0405946,601,827,-7.09688,0.0640823
-616,197,-6.66644,0.218872,0.033956,0.027388,-0.00455475,0.0362872,0.0250568,-0.473055,0.0214514,0.0431754,608,827,-6.66643,-0.218885
-609,197,-6.43878,0.572754,0.0284382,0.0205508,-0.00435126,0.030367,0.018622,-0.417249,0.0176816,0.0328743,615,827,-6.43878,-0.572745
-602,197,-6.50372,0.592957,0.0227887,0.0147352,-0.00360693,0.0241679,0.013356,-0.365228,0.0139791,0.0172394,622,827,-6.50374,-0.592976
-595,197,-6.5011,0.511963,0.017398,0.00954756,-0.00248088,0.0181163,0.00882928,-0.281822,0.0104605,0.0176967,629,827,-6.50112,-0.511943
-588,197,-6.49695,0.39917,0.0119337,0.00580674,-0.00120003,0.0121604,0.00558008,-0.186674,0.00702871,0.0187986,636,827,-6.49692,-0.39918
-581,197,-6.47583,0.283508,0.00691664,0.00281348,0.000512663,0.00697972,0.00275039,0.122436,0.00405979,0.0112998,643,827,-6.47585,-0.283517
-574,197,-6.4682,0.191467,0.00173685,0.000290101,0.00190797,0.00305397,-0.00102702,0.604204,0.00245112,0.0116852,650,827,-6.46823,-0.191465
-567,197,-6.48151,0.0626831,-0.00273238,-0.00079313,0.0027818,0.00118318,-0.0047087,0.953095,0.00359895,0.0127542,657,827,-6.48153,-0.0626834
-560,197,-6.50018,-0.0600586,-0.00458885,-0.00109026,0.00287541,0.000526159,-0.00620527,1.05867,0.00432292,0.0124695,664,827,-6.50019,0.0600623
-553,197,-6.46857,-0.14856,-0.00502384,-0.0005748,0.00251379,0.000557408,-0.00615604,1.14761,0.00430189,0.0111201,671,827,-6.46858,0.148556
-546,197,-6.45135,-0.25824,-0.00549588,-0.000114408,0.00235231,0.000768849,-0.00637914,1.2116,0.00453084,0.0190907,678,827,-6.45136,0.258245
-539,197,-6.59485,-0.283264,-0.00504121,0.000524195,0.00188844,0.00110447,-0.00562149,1.27267,0.00416492,0.0396072,685,827,-6.59484,0.283279
-532,197,-6.85913,-0.358459,0,0,0,0,0,0,0,-1,692,827,-6.8591,0.358453
-525,197,-8.30804,0.804321,0,0,0,0,0,0,0,-1,699,827,-8.30802,-0.80434
-518,197,-8.57739,0.497498,-0.000917211,0.00337149,-0.000674736,0.00347514,-0.00102086,-1.41837,0.00272164,0.0487742,706,827,-8.5774,-0.497469
-511,197,-8.49402,0.475647,0.00112165,0.00464921,-0.00194005,0.0055074,0.000263461,-1.15432,0.00358701,0.0445748,713,827,-8.49401,-0.475664
-504,197,-8.43811,0.544128,0.00332194,0.0058595,-0.00327684,0.00810461,0.00107682,-0.970109,0.0050823,0.0407714,720,827,-8.43809,-0.544138
-497,197,-8.56,0.434937,0.00531233,0.00678391,-0.00449626,0.0106042,0.00149205,-0.866502,0.00662832,0.0413053,727,827,-8.56,-0.434917
-490,197,-8.59747,0.202087,0.00628603,0.00699831,-0.00520759,0.0118619,0.00142241,-0.819539,0.00747904,0.0383545,734,827,-8.59747,-0.202099
-483,197,-8.46454,0.244812,0.00420599,0.00576898,-0.00447032,0.0095256,0.000449365,-0.871933,0.00620604,0.0398643,741,827,-8.46456,-0.244833
-476,197,0,0,0,0,0,0,0,0,0,-1,748,827,0,0
-469,197,0,0,0,0,0,0,0,0,0,-1,755,827,0,0
-462,197,0,0,0,0,0,0,0,0,0,-1,762,827,0,0
-455,197,0,0,0,0,0,0,0,0,0,-1,769,827,0,0
-448,197,0,0,0,0,0,0,0,0,0,-1,776,827,0,0
-441,197,0,0,0,0,0,0,0,0,0,-1,783,827,0,0
-434,197,0,0,0,0,0,0,0,0,0,-1,790,827,0,0
-427,197,0,0,0,0,0,0,0,0,0,-1,797,827,0,0
-420,197,0,0,0,0,0,0,0,0,0,-1,804,827,0,0
-413,197,0,0,0,0,0,0,0,0,0,-1,811,827,0,0
-406,197,0,0,0,0,0,0,0,0,0,-1,818,827,0,0
-399,197,0,0,0,0,0,0,0,0,0,-1,825,827,0,0
-392,197,0,0,0,0,0,0,0,0,0,-1,832,827,0,0
-385,197,0,0,0,0,0,0,0,0,0,-1,839,827,0,0
-378,197,0,0,0,0,0,0,0,0,0,-1,846,827,0,0
-371,197,0,0,0,0,0,0,0,0,0,-1,853,827,0,0
-364,197,0,0,0,0,0,0,0,0,0,-1,860,827,0,0
-357,197,0,0,0,0,0,0,0,0,0,-1,867,827,0,0
-350,197,0,0,0,0,0,0,0,0,0,-1,874,827,0,0
-343,197,0,0,0,0,0,0,0,0,0,-1,881,827,0,0
-336,197,0,0,0,0,0,0,0,0,0,-1,888,827,0,0
-329,197,0,0,0,0,0,0,0,0,0,-1,895,827,0,0
-322,197,0,0,0,0,0,0,0,0,0,-1,902,827,0,0
-315,197,0,0,0,0,0,0,0,0,0,-1,909,827,0,0
-308,197,0,0,0,0,0,0,0,0,0,-1,916,827,0,0
-301,197,0,0,0,0,0,0,0,0,0,-1,923,827,0,0
-294,197,0,0,0,0,0,0,0,0,0,-1,930,827,0,0
-287,197,0,0,0,0,0,0,0,0,0,-1,937,827,0,0
-280,197,0,0,0,0,0,0,0,0,0,-1,944,827,0,0
-273,197,0,0,0,0,0,0,0,0,0,-1,951,827,0,0
-266,197,0,0,0,0,0,0,0,0,0,-1,958,827,0,0
-259,197,0,0,0,0,0,0,0,0,0,-1,965,827,0,0
-252,197,0,0,0,0,0,0,0,0,0,-1,972,827,0,0
-245,197,0,0,0,0,0,0,0,0,0,-1,979,827,0,0
-238,197,0,0,0,0,0,0,0,0,0,-1,986,827,0,0
-231,197,0,0,0,0,0,0,0,0,0,-1,993,827,0,0
-224,197,0,0,0,0,0,0,0,0,0,-1,1000,827,0,0
-217,197,0,0,0,0,0,0,0,0,0,-1,1007,827,0,0
-210,197,0,0,0,0,0,0,0,0,0,-1,1014,827,0,0
-203,197,0,0,0,0,0,0,0,0,0,-1,1021,827,0,0
-196,197,0,0,0,0,0,0,0,0,0,-1,1028,827,0,0
-189,197,0,0,0,0,0,0,0,0,0,-1,1035,827,0,0
-182,197,0,0,0,0,0,0,0,0,0,-1,1042,827,0,0
-175,197,0,0,0,0,0,0,0,0,0,-1,1049,827,0,0
-168,197,0,0,0,0,0,0,0,0,0,-1,1056,827,0,0
-161,197,0,0,0,0,0,0,0,0,0,-1,1063,827,0,0
-154,197,0,0,0,0,0,0,0,0,0,-1,1070,827,0,0
-147,197,0,0,0,0,0,0,0,0,0,-1,1077,827,0,0
-140,197,0,0,0,0,0,0,0,0,0,-1,1084,827,0,0
-133,197,0,0,0,0,0,0,0,0,0,-1,1091,827,0,0
-126,197,0,0,0,0,0,0,0,0,0,-1,1098,827,0,0
-119,197,0,0,0,0,0,0,0,0,0,-1,1105,827,0,0
-112,197,0,0,0,0,0,0,0,0,0,-1,1112,827,0,0
-105,197,0,0,0,0,0,0,0,0,0,-1,1119,827,0,0
-98,197,0,0,0,0,0,0,0,0,0,-1,1126,827,0,0
-91,197,0,0,0,0,0,0,0,0,0,-1,1133,827,0,0
-84,197,0,0,0,0,0,0,0,0,0,-1,1140,827,0,0
-77,197,0,0,0,0,0,0,0,0,0,-1,1147,827,0,0
-70,197,0,0,0,0,0,0,0,0,0,-1,1154,827,0,0
-63,197,0,0,0,0,0,0,0,0,0,-1,1161,827,0,0
-56,197,0,0,0,0,0,0,0,0,0,-1,1168,827,0,0
-49,197,0,0,0,0,0,0,0,0,0,-1,1175,827,0,0
-42,197,0,0,0,0,0,0,0,0,0,-1,1182,827,0,0
-35,197,0,0,0,0,0,0,0,0,0,-1,1189,827,0,0
-28,197,0,0,0,0,0,0,0,0,0,-1,1196,827,0,0
-21,197,0,0,0,0,0,0,0,0,0,-1,1203,827,0,0
-14,197,0,0,0,0,0,0,0,0,0,-1,1210,827,0,0
-7,197,0,0,0,0,0,0,0,0,0,-1,1217,827,0,0
0,197,0,0,0,0,0,0,0,0,0,-1,1224,827,0,0
7,197,0,0,0,0,0,0,0,0,0,-1,1231,827,0,0
14,197,0,0,0,0,0,0,0,0,0,-1,1238,827,0,0
21,197,0,0,0,0,0,0,0,0,0,-1,1245,827,0,0
28,197,0,0,0,0,0,0,0,0,0,-1,1252,827,0,0
35,197,0,0,0,0,0,0,0,0,0,-1,1259,827,0,0
42,197,0,0,0,0,0,0,0,0,0,-1,1266,827,0,0
49,197,0,0,0,0,0,0,0,0,0,-1,1273,827,0,0
56,197,0,0,0,0,0,0,0,0,0,-1,1280,827,0,0
63,197,0,0,0,0,0,0,0,0,0,-1,1287,827,0,0
70,197,0,0,0,0,0,0,0,0,0,-1,1294,827,0,0
77,197,0,0,0,0,0,0,0,0,0,-1,1301,827,0,0
84,197,0,0,0,0,0,0,0,0,0,-1,1308,827,0,0
91,197,0,0,0,0,0,0,0,0,0,-1,1315,827,0,0
98,197,0,0,0,0,0,0,0,0,0,-1,1322,827,0,0
105,197,0,0,0,0,0,0,0,0,0,-1,1329,827,0,0
112,197,0,0,0,0,0,0,0,0,0,-1,1336,827,0,0
119,197,0,0,0,0,0,0,0,0,0,-1,1343,827,0,0
126,197,0,0,0,0,0,0,0,0,0,-1,1350,827,0,0
133,197,0,0,0,0,0,0,0,0,0,-1,1357,827,0,0
140,197,0,0,0,0,0,0,0,0,0,-1,1364,827,0,0
147,197,0,0,0,0,0,0,0,0,0,-1,1371,827,0,0
154,197,0,0,0,0,0,0,0,0,0,-1,1378,827,0,0
161,197,0,0,0,0,0,0,0,0,0,-1,1385,827,0,0
168,197,0,0,0,0,0,0,0,0,0,-1,1392,827,0,0
175,197,0,0,0,0,0,0,0,0,0,-1,1399,827,0,0
182,197,0,0,0,0,0,0,0,0,0,-1,1406,827,0,0
189,197,0,0,0,0,0,0,0,0,0,-1,1413,827,0,0
196,197,0,0,0,0,0,0,0,0,0,-1,1420,827,0,0
203,197,0,0,0,0,0,0,0,0,0,-1,1427,827,0,0
210,197,0,0,0,0,0,0,0,0,0,-1,1434,827,0,0
217,197,0,0,0,0,0,0,0,0,0,-1,1441,827,0,0
224,197,0,0,0,0,0,0,0,0,0,-1,1448,827,0,0
231,197,0,0,0,0,0,0,0,0,0,-1,1455,827,0,0
238,197,0,0,0,0,0,0,0,0,0,-1,1462,827,0,0
245,197,0,0,0,0,0,0,0,0,0,-1,1469,827,0,0
252,197,0,0,0,0,0,0,0,0,0,-1,1476,827,0,0
259,197,0,0,0,0,0,0,0,0,0,-1,1483,827,0,0
266,197,0,0,0,0,0,0,0,0,0,-1,1490,827,0,0
273,197,0,0,0,0,0,0,0,0,0,-1,1497,827,0,0
280,197,0,0,0,0,0,0,0,0,0,-1,1504,827,0,0
287,197,0,0,0,0,0,0,0,0,0,-1,1511,827,0,0
294,197,0,0,0,0,0,0,0,0,0,-1,1518,827,0,0
301,197,0,0,0,0,0,0,0,0,0,-1,1525,827,0,0
308,197,0,0,0,0,0,0,0,0,0,-1,1532,827,0,0
315,197,0,0,0,0,0,0,0,0,0,-1,1539,827,0,0
322,197,0,0,0,0,0,0,0,0,0,-1,1546,827,0,0
329,197,0,0,0,0,0,0,0,0,0,-1,1553,827,0,0
336,197,0,0,0,0,0,0,0,0,0,-1,1560,827,0,0
343,197,0,0,0,0,0,0,0,0,0,-1,1567,827,0,0
350,197,0,0,0,0,0,0,0,0,0,-1,1574,827,0,0
357,197,0,0,0,0,0,0,0,0,0,-1,1581,827,0,0
364,197,0,0,0,0,0,0,0,0,0,-1,1588,827,0,0
371,197,0,0,0,0,0,0,0,0,0,-1,1595,827,0,0
378,197,0,0,0,0,0,0,0,0,0,-1,1602,827,0,0
385,197,0,0,0,0,0,0,0,0,0,-1,1609,827,0,0
392,197,0,0,0,0,0,0,0,0,0,-1,1616,827,0,0
399,197,0,0,0,0,0,0,0,0,0,-1,1623,827,0,0
406,197,0,0,0,0,0,0,0,0,0,-1,1630,827,0,0
413,197,0,0,0,0,0,0,0,0,0,-1,1637,827,0,0
420,197,0,0,0,0,0,0,0,0,0,-1,1644,827,0,0
427,197,0,0,0,0,0,0,0,0,0,-1,1651,827,0,0
434,197,0,0,0,0,0,0,0,0,0,-1,1658,827,0,0
441,197,0,0,0,0,0,0,0,0,0,-1,1665,827,0,0
448,197,0,0,0,0,0,0,0,0,0,-1,1672,827,0,0
455,197,0,0,0,0,0,0,0,0,0,-1,1679,827,0,0
462,197,0,0,0,0,0,0,0,0,0,-1,1686,827,0,0
469,197,0,0,0,0,0,0,0,0,0,-1,1693,827,0,0
476,197,0,0,0,0,0,0,0,0,0,-1,1700,827,0,0
483,197,0,0,0,0,0,0,0,0,0,-1,1707,827,0,0
490,197,0,0,0,0,0,0,0,0,0,-1,1714,827,0,0
497,197,0,0,0,0,0,0,0,0,0,-1,1721,827,0,0
504,197,0,0,0,0,0,0,0,0,0,-1,1728,827,0,0
511,197,0,0,0,0,0,0,0,0,0,-1,1735,827,0,0
518,197,0,0,0,0,0,0,0,0,0,-1,1742,827,0,0
525,197,0,0,0,0,0,0,0,0,0,-1,1749,827,0,0
532,197,0,0,0,0,0,0,0,0,0,-1,1756,827,0,0
539,197,0,0,0,0,0,0,0,0,0,-1,1763,827,0,0
546,197,0,0,0,0,0,0,0,0,0,-1,1770,827,0,0
553,197,0,0,0,0,0,0,0,0,0,-1,1777,827,0,0
560,197,0,0,0,0,0,0,0,0,0,-1,1784,827,0,0
567,197,0,0,0,0,0,0,0,0,0,-1,1791,827,0,0
574,197,0,0,0,0,0,0,0,0,0,-1,1798,827,0,0
581,197,0,0,0,0,0,0,0,0,0,-1,1805,827,0,0
588,197,0,0,0,0,0,0,0,0,0,-1,1812,827,0,0
595,197,0,0,0,0,0,0,0,0,0,-1,1819,827,0,0
602,197,14.111,2.07764,0.00506223,-0.00192026,-0.00240499,0.00581041,-0.00266845,-0.301607,0.00500605,0.0407444,1826,827,14.111,-2.07762
609,197,14.153,2.02435,0.00288284,-0.00151824,-0.00133558,0.00325643,-0.00189183,-0.27275,0.00300695,0.0398211,1833,827,14.153,-2.02434
616,197,14.1289,1.74677,0,0,0,0,0,0,0,-1,1840,827,14.1289,-1.74676
623,197,14.2231,1.91772,0.000575345,-0.00127867,0.00087334,0.000921941,-0.00162526,0.377799,0.0014892,0.0362814,1847,827,14.2231,-1.91773
630,197,14.2322,1.9552,-0.000542218,-0.00124741,0.00140689,0.000555588,-0.00234522,0.662617,0.00177785,0.0300103,1854,827,14.2322,-1.95519
637,197,14.1941,1.94299,-0.00149436,-0.00120848,0.00166096,0.000315676,-0.00301851,0.828322,0.0021254,0.0283028,1861,827,14.1941,-1.94302
644,197,14.1366,2.00409,-0.00218926,-0.00122257,0.00170341,6.4739e-05,-0.00347657,0.923641,0.00233959,0.0332422,1868,827,14.1366,-2.00412
651,197,13.9688,2.31348,-0.00274095,-0.00126882,0.00151758,-0.00031822,-0.00369156,1.0112,0.00236212,0.0415989,1875,827,13.9687,-2.31347
658,197,13.9237,2.55701,-0.00319558,-0.00124261,0.00116066,-0.000702305,-0.00373588,1.13511,0.00229263,0.0496713,1882,827,13.9237,-2.55702
665,197,11.9863,1.25879,0,0,0,0,0,0,0,-1,1889,827,11.9864,-1.25878
672,197,11.6981,1.33679,-0.00375092,-0.0010393,0.000594622,-0.000914643,-0.00387558,1.36414,0.00233922,0.0434558,1896,827,11.6981,-1.33681
679,197,11.4854,1.48401,-0.00377692,-0.000942594,0.000199429,-0.00092863,-0.00379089,1.50089,0.0022816,0.0188294,1903,827,11.4853,-1.484
686,197,11.4583,1.62463,-0.00327341,-0.00106118,-0.000160592,-0.00104958,-0.00328501,-1.49871,0.00193735,0.0115215,1910,827,11.4582,-1.62464
693,197,11.4512,1.76556,-0.00205957,-0.00123612,-0.000581831,-0.000935074,-0.00236062,-1.09331,0.00137267,0.0148627,1917,827,11.4512,-1.76555
700,197,11.421,1.89758,-0.000316512,-0.00171692,-0.00116087,0.00033898,-0.00237241,-0.514025,0.00170587,0.0215017,1924,827,11.421,-1.89759
707,197,11.4609,2.03699,0.00239666,-0.0015834,-0.00160998,0.00296637,-0.00215311,-0.340109,0.00296814,0.00911028,1931,827,11.4609,-2.03697
714,197,11.457,2.16962,0.00600756,-0.000519239,-0.00152022,0.00634427,-0.000855956,-0.217974,0.0045418,0.0109279,1938,827,11.4571,-2.16963
721,197,11.4352,2.27686,0.0102579,0.000651741,-0.00134956,0.0104439,0.000465744,-0.136958,0.00681266,0.0117324,1945,827,11.4352,-2.27688
728,197,11.4269,2.39252,0.0155765,0.00230259,-0.000895034,0.0156366,0.00224251,-0.0670235,0.00976314,0.0103918,1952,827,11.4269,-2.39251
735,197,11.4265,2.52411,0.0214884,0.00471594,-0.000541033,0.0215058,0.00469851,-0.0322125,0.013056,0.0107906,1959,827,11.4265,-2.52413
742,197,11.4528,2.6778,0.028041,0.00823027,0.000168757,0.0280424,0.00822883,0.00851765,0.0166444,0.0198323,1966,827,11.4527,-2.67778
749,197,11.4696,2.85846,0.0352849,0.0133374,0.00136229,0.0353691,0.0132531,0.0617544,0.020633,0.0443896,1973,827,11.4696,-2.85848
756,197,11.4679,3.03168,0,0,0,0,0,0,0,-1,1980,827,11.468,-3.03167
763,197,12.5957,0.977234,0.0510594,0.0300202,0.00594905,0.0526251,0.0284545,0.25734,0.0304166,0.0425631,1987,827,12.5957,-0.977212
770,197,12.5166,0.62793,0.0585504,0.0424877,0.00974308,0.0631456,0.0378925,0.440703,0.0366998,0.0419716,1994,827,12.5166,-0.627947
777,197,0,0,0,0,0,0,0,0,0,-1,2001,827,0,0
784,197,0,0,0,0,0,0,0,0,0,-1,2008,827,0,0
791,197,0,0,0,0,0,0,0,0,0,-1,2015,827,0,0
798,197,0,0,0,0,0,0,0,0,0,-1,2022,827,0,0
805,197,0,0,0,0,0,0,0,0,0,-1,2029,827,0,0
812,197,0,0,0,0,0,0,0,0,0,-1,2036,827,0,0
-700,190,0,0,0,0,0,0,0,0,0,-1,524,834,0,0
-693,190,0,0,0,0,0,0,0,0,0,-1,531,834,0,0
-686,190,0,0,0,0,0,0,0,0,0,-1,538,834,0,0
-679,190,0,0,0,0,0,0,0,0,0,-1,545,834,0,0
-672,190,0,0,0,0,0,0,0,0,0,-1,552,834,0,0
-665,190,0,0,0,0,0,0,0,0,0,-1,559,834,0,0
-658,190,-6.10083,-3.26868,0,0,0,0,0,0,0,-1,566,834,-6.10085,3.2687
-651,190,-7.89679,-0.637878,0,0,0,0,0,0,0,-1,573,834,-7.89681,0.637888
-644,190,-7.49133,-0.499634,0,0,0,0,0,0,0,-1,580,834,-7.4913,0.499643
-637,190,-7.27539,-0.285034,0.0381181,0.0483252,0.00245633,0.0488856,0.0375577,1.34651,0.0295473,0.0462946,587,834,-7.27541,0.285046
-630,190,-7.25482,-0.313171,0.035456,0.0392674,-0.000671846,0.0393824,0.0353411,-1.40133,0.0250169,0.0423149,594,834,-7.25481,0.31316
-623,190,-6.81427,-0.36084,0.0317639,0.0308703,-0.00214581,0.033509,0.0291253,-0.682755,0.0210309,0.0436221,601,834,-6.81428,0.360858
-616,190,-6.70758,0.284485,0.0274333,0.0234042,-0.00246238,0.0286002,0.0222373,-0.44255,0.0173395,0.0422662,608,834,-6.70761,-0.284511
-609,190,-6.60577,0.57019,0.0227847,0.0174746,-0.00280379,0.023991,0.0162682,-0.406319,0.0141411,0.0229493,615,834,-6.60579,-0.570172
-602,190,-6.61926,0.576355,0.0179856,0.0123272,-0.00246519,0.0189089,0.0114039,-0.358378,0.0109942,0.0151765,622,834,-6.61928,-0.576374
-595,190,-6.62073,0.509521,0.0132826,0.00775337,-0.00161709,0.0137208,0.00731516,-0.264631,0.0079275,0.0179721,629,834,-6.62071,-0.509527
-588,190,-6.62213,0.412476,0.00844618,0.00437906,-0.000415252,0.00848814,0.0043371,-0.100715,0.00490102,0.0147365,636,834,-6.6221,-0.412477
-581,190,-6.60004,0.311462,0.0040101,0.00165875,0.0012571,0.00455562,0.00111323,0.409427,0.00274238,0.0102858,643,834,-6.60003,-0.311491
-574,190,-6.57813,0.184937,-0.000599527,-0.00058333,0.00254468,0.00195327,-0.00313613,0.786989,0.0029647,0.00947957,650,834,-6.57816,-0.184934
-567,190,-6.58179,0.0586548,-0.00451134,-0.0015003,0.0032903,0.000612562,-0.0066242,0.999961,0.00463384,0.0108042,657,834,-6.5818,-0.0586814
-560,190,-6.61768,-0.0582886,-0.00615078,-0.00172038,0.00339008,0.000114079,-0.00798524,1.07479,0.00536192,0.0148828,664,834,-6.61767,0.0583
-553,190,-6.61047,-0.153809,-0.00657049,-0.00134653,0.00312142,0.00011159,-0.00802861,1.13379,0.00538999,0.0134863,671,834,-6.61046,0.153815
-546,190,-6.61926,-0.262268,-0.00698702,-0.000914535,0.0029504,0.000282854,-0.00818441,1.18527,0.00555296,0.0267584,678,834,-6.61928,0.262284
-539,190,-6.78467,-0.312256,-0.00652443,-0.000415009,0.00243762,0.00043838,-0.00737782,1.23404,0.00507099,0.0409645,685,834,-6.78464,0.312244
-532,190,-7.23053,-0.154968,-0.00546657,0.000217368,0.00179536,0.000736963,-0.00598616,1.28908,0.00425774,0.0458619,692,834,-7.2305,0.154997
-525,190,-7.7511,-0.0737305,0,0,0,0,0,0,0,-1,699,834,-7.75109,0.0737376
-518,190,-8.57507,0.414917,-0.00213945,0.00207721,-0.000318733,0.00210117,-0.0021634,-1.49578,0.00246224,0.0499692,706,834,-8.5751,-0.414933
-511,190,-8.43591,0.473083,0.000216157,0.00327912,-0.00173088,0.00405877,-0.000563502,-1.14758,0.00291191,0.041698,713,834,-8.43591,-0.473056
-504,190,-8.50439,0.484253,0.00285736,0.00449487,-0.00326734,0.00704448,0.000307753,-0.908164,0.00459717,0.041033,720,834,-8.5044,-0.484262
-497,190,-8.62634,0.430603,0.00547746,0.00555457,-0.00471723,0.0102334,0.000798622,-0.789485,0.00657226,0.0425669,727,834,-8.62636,-0.430592
-490,190,-8.59619,0.349426,0.00696942,0.00610748,-0.00557693,0.012132,0.000944885,-0.746836,0.00779216,0.0393745,734,834,-8.59617,-0.349452
-483,190,0,0,0,0,0,0,0,0,0,-1,741,834,0,0
-476,190,0,0,0,0,0,0,0,0,0,-1,748,834,0,0
-469,190,0,0,0,0,0,0,0,0,0,-1,755,834,0,0
-462,190,0,0,0,0,0,0,0,0,0,-1,762,834,0,0
-455,190,0,0,0,0,0,0,0,0,0,-1,769,834,0,0
-448,190,0,0,0,0,0,0,0,0,0,-1,776,834,0,0
-441,190,0,0,0,0,0,0,0,0,0,-1,783,834,0,0
-434,190,0,0,0,0,0,0,0,0,0,-1,790,834,0,0
-427,190,0,0,0,0,0,0,0,0,0,-1,797,834,0,0
-420,190,0,0,0,0,0,0,0,0,0,-1,804,834,0,0
-413,190,0,0,0,0,0,0,0,0,0,-1,811,834,0,0
-406,190,0,0,0,0,0,0,0,0,0,-1,818,834,0,0
-399,190,0,0,0,0,0,0,0,0,0,-1,825,834,0,0
-392,190,0,0,0,0,0,0,0,0,0,-1,832,834,0,0
-385,190,0,0,0,0,0,0,0,0,0,-1,839,834,0,0
-378,190,0,0,0,0,0,0,0,0,0,-1,846,834,0,0
-371,190,0,0,0,0,0,0,0,0,0,-1,853,834,0,0
-364,190,0,0,0,0,0,0,0,0,0,-1,860,834,0,0
-357,190,0,0,0,0,0,0,0,0,0,-1,867,834,0,0
-350,190,0,0,0,0,0,0,0,0,0,-1,874,834,0,0
-343,190,0,0,0,0,0,0,0,0,0,-1,881,834,0,0
-336,190,0,0,0,0,0,0,0,0,0,-1,888,834,0,0
-329,190,0,0,0,0,0,0,0,0,0,-1,895,834,0,0
-322,190,0,0,0,0,0,0,0,0,0,-1,902,834,0,0
-315,190,0,0,0,0,0,0,0,0,0,-1,909,834,0,0
-308,190,0,0,0,0,0,0,0,0,0,-1,916,834,0,0
-301,190,0,0,0,0,0,0,0,0,0,-1,923,834,0,0
-294,190,0,0,0,0,0,0,0,0,0,-1,930,834,0,0
-287,190,0,0,0,0,0,0,0,0,0,-1,937,834,0,0
-280,190,0,0,0,0,0,0,0,0,0,-1,944,834,0,0
-273,190,0,0,0,0,0,0,0,0,0,-1,951,834,0,0
-266,190,0,0,0,0,0,0,0,0,0,-1,958,834,0,0
-259,190,0,0,0,0,0,0,0,0,0,-1,965,834,0,0
-252,190,0,0,0,0,0,0,0,0,0,-1,972,834,0,0
-245,190,0,0,0,0,0,0,0,0,0,-1,979,834,0,0
-238,190,0,0,0,0,0,0,0,0,0,-1,986,834,0,0
-231,190,0,0,0,0,0,0,0,0,0,-1,993,834,0,0
-224,190,0,0,0,0,0,0,0,0,0,-1,1000,834,0,0
-217,190,0,0,0,0,0,0,0,0,0,-1,1007,834,0,0
-210,190,0,0,0,0,0,0,0,0,0,-1,1014,834,0,0
-203,190,0,0,0,0,0,0,0,0,0,-1,1021,834,0,0
-196,190,0,0,0,0,0,0,0,0,0,-1,1028,834,0,0
-189,190,0,0,0,0,0,0,0,0,0,-1,1035,834,0,0
-182,190,0,0,0,0,0,0,0,0,0,-1,1042,834,0,0
-175,190,0,0,0,0,0,0,0,0,0,-1,1049,834,0,0
-168,190,0,0,0,0,0,0,0,0,0,-1,1056,834,0,0
-161,190,0,0,0,0,0,0,0,0,0,-1,1063,834,0,0
-154,190,0,0,0,0,0,0,0,0,0,-1,1070,834,0,0
-147,190,0,0,0,0,0,0,0,0,0,-1,1077,834,0,0
-140,190,0,0,0,0,0,0,0,0,0,-1,1084,834,0,0
-133,190,0,0,0,0,0,0,0,0,0,-1,1091,834,0,0
-126,190,0,0,0,0,0,0,0,0,0,-1,1098,834,0,0
-119,190,0,0,0,0,0,0,0,0,0,-1,1105,834,0,0
-112,190,0,0,0,0,0,0,0,0,0,-1,1112,834,0,0
-105,190,0,0,0,0,0,0,0,0,0,-1,1119,834,0,0
-98,190,0,0,0,0,0,0,0,0,0,-1,1126,834,0,0
-91,190,0,0,0,0,0,0,0,0,0,-1,1133,834,0,0
-84,190,0,0,0,0,0,0,0,0,0,-1,1140,834,0,0
-77,190,0,0,0,0,0,0,0,0,0,-1,1147,834,0,0
-70,190,0,0,0,0,0,0,0,0,0,-1,1154,834,0,0
-63,190,0,0,0,0,0,0,0,0,0,-1,1161,834,0,0
-56,190,0,0,0,0,0,0,0,0,0,-1,1168,834,0,0
-49,190,0,0,0,0,0,0,0,0,0,-1,1175,834,0,0
-42,190,0,0,0,0,0,0,0,0,0,-1,1182,834,0,0
-35,190,0,0,0,0,0,0,0,0,0,-1,1189,834,0,0
-28,190,0,0,0,0,0,0,0,0,0,-1,1196,834,0,0
-21,190,0,0,0,0,0,0,0,0,0,-1,1203,834,0,0
-14,190,0,0,0,0,0,0,0,0,0,-1,1210,834,0,0
-7,190,0,0,0,0,0,0,0,0,0,-1,1217,834,0,0
0,190,0,0,0,0,0,0,0,0,0,-1,1224,834,0,0
7,190,0,0,0,0,0,0,0,0,0,-1,1231,834,0,0
14,190,0,0,0,0,0,0,0,0,0,-1,1238,834,0,0
21,190,0,0,0,0,0,0,0,0,0,-1,1245,834,0,0
28,190,0,0,0,0,0,0,0,0,0,-1,1252,834,0,0
35,190,0,0,0,0,0,0,0,0,0,-1,1259,834,0,0
42,190,0,0,0,0,0,0,0,0,0,-1,1266,834,0,0
49,190,0,0,0,0,0,0,0,0,0,-1,1273,834,0,0
56,190,0,0,0,0,0,0,0,0,0,-1,1280,834,0,0
63,190,0,0,0,0,0,0,0,0,0,-1,1287,834,0,0
70,190,0,0,0,0,0,0,0,0,0,-1,1294,834,0,0
77,190,0,0,0,0,0,0,0,0,0,-1,1301,834,0,0
84,190,0,0,0,0,0,0,0,0,0,-1,1308,834,0,0
91,190,0,0,0,0,0,0,0,0,0,-1,1315,834,0,0
98,190,0,0,0,0,0,0,0,0,0,-1,1322,834,0,0
105,190,0,0,0,0,0,0,0,0,0,-1,1329,834,0,0
112,190,0,0,0,0,0,0,0,0,0,-1,1336,834,0,0
119,190,0,0,0,0,0,0,0,0,0,-1,1343,834,0,0
126,190,0,0,0,0,0,0,0,0,0,-1,1350,834,0,0
133,190,0,0,0,0,0,0,0,0,0,-1,1357,834,0,0
140,190,0,0,0,0,0,0,0,0,0,-1,1364,834,0,0
147,190,0,0,0,0,0,0,0,0,0,-1,1371,834,0,0
154,190,0,0,0,0,0,0,0,0,0,-1,1378,834,0,0
161,190,0,0,0,0,0,0,0,0,0,-1,1385,834,0,0
168,190,0,0,0,0,0,0,0,0,0,-1,1392,834,0,0
175,190,0,0,0,0,0,0,0,0,0,-1,1399,834,0,0
182,190,0,0,0,0,0,0,0,0,0,-1,1406,834,0,0
189,190,0,0,0,0,0,0,0,0,0,-1,1413,834,0,0
196,190,0,0,0,0,0,0,0,0,0,-1,1420,834,0,0
203,190,0,0,0,0,0,0,0,0,0,-1,1427,834,0,0
210,190,0,0,0,0,0,0,0,0,0,-1,1434,834,0,0
217,190,0,0,0,0,0,0,0,0,0,-1,1441,834,0,0
224,190,0,0,0,0,0,0,0,0,0,-1,1448,834,0,0
231,190,0,0,0,0,0,0,0,0,0,-1,1455,834,0,0
238,190,0,0,0,0,0,0,0,0,0,-1,1462,834,0,0
245,190,0,0,0,0,0,0,0,0,0,-1,1469,834,0,0
252,190,0,0,0,0,0,0,0,0,0,-1,1476,834,0,0
259,190,0,0,0,0,0,0,0,0,0,-1,1483,834,0,0
266,190,0,0,0,0,0,0,0,0,0,-1,1490,834,0,0
273,190,0,0,0,0,0,0,0,0,0,-1,1497,834,0,0
280,190,0,0,0,0,0,0,0,0,0,-1,1504,834,0,0
287,190,0,0,0,0,0,0,0,0,0,-1,1511,834,0,0
294,190,0,0,0,0,0,0,0,0,0,-1,1518,834,0,0
301,190,0,0,0,0,0,0,0,0,0,-1,1525,834,0,0
308,190,0,0,0,0,0,0,0,0,0,-1,1532,834,0,0
315,190,0,0,0,0,0,0,0,0,0,-1,1539,834,0,0
322,190,0,0,0,0,0,0,0,0,0,-1,1546,834,0,0
329,190,0,0,0,0,0,0,0,0,0,-1,1553,834,0,0
336,190,0,0,0,0,0,0,0,0,0,-1,1560,834,0,0
343,190,0,0,0,0,0,0,0,0,0,-1,1567,834,0,0
350,190,0,0,0,0,0,0,0,0,0,-1,1574,834,0,0
357,190,0,0,0,0,0,0,0,0,0,-1,1581,834,0,0
364,190,0,0,0,0,0,0,0,0,0,-1,1588,834,0,0
371,190,0,0,0,0,0,0,0,0,0,-1,1595,834,0,0
378,190,0,0,0,0,0,0,0,0,0,-1,1602,834,0,0
385,190,0,0,0,0,0,0,0,0,0,-1,1609,834,0,0
392,190,0,0,0,0,0,0,0,0,0,-1,1616,834,0,0
399,190,0,0,0,0,0,0,0,0,0,-1,1623,834,0,0
406,190,0,0,0,0,0,0,0,0,0,-1,1630,834,0,0
413,190,0,0,0,0,0,0,0,0,0,-1,1637,834,0,0
420,190,0,0,0,0,0,0,0,0,0,-1,1644,834,0,0
427,190,0,0,0,0,0,0,0,0,0,-1,1651,834,0,0
434,190,0,0,0,0,0,0,0,0,0,-1,1658,834,0,0
441,190,0,0,0,0,0,0,0,0,0,-1,1665,834,0,0
448,190,0,0,0,0,0,0,0,0,0,-1,1672,834,0,0
455,190,0,0,0,0,0,0,0,0,0,-1,1679,834,0,0
462,190,0,0,0,0,0,0,0,0,0,-1,1686,834,0,0
469,190,0,0,0,0,0,0,0,0,0,-1,1693,834,0,0
476,190,0,0,0,0,0,0,0,0,0,-1,1700,834,0,0
483,190,0,0,0,0,0,0,0,0,0,-1,1707,834,0,0
490,190,0,0,0,0,0,0,0,0,0,-1,1714,834,0,0
497,190,0,0,0,0,0,0,0,0,0,-1,1721,834,0,0
504,190,0,0,0,0,0,0,0,0,0,-1,1728,834,0,0
511,190,0,0,0,0,0,0,0,0,0,-1,1735,834,0,0
518,190,0,0,0,0,0,0,0,0,0,-1,1742,834,0,0
525,190,0,0,0,0,0,0,0,0,0,-1,1749,834,0,0
532,190,0,0,0,0,0,0,0,0,0,-1,1756,834,0,0
539,190,0,0,0,0,0,0,0,0,0,-1,1763,834,0,0
546,190,0,0,0,0,0,0,0,0,0,-1,1770,834,0,0
553,190,0,0,0,0,0,0,0,0,0,-1,1777,834,0,0
560,190,0,0,0,0,0,0,0,0,0,-1,1784,834,0,0
567,190,0,0,0,0,0,0,0,0,0,-1,1791,834,0,0
574,190,0,0,0,0,0,0,0,0,0,-1,1798,834,0,0
581,190,0,0,0,0,0,0,0,0,0,-1,1805,834,0,0
588,190,0,0,0,0,0,0,0,0,0,-1,1812,834,0,0
595,190,0,0,0,0,0,0,0,0,0,-1,1819,834,0,0
602,190,14.0331,1.98517,0.00493148,-0.002658,-0.00278473,0.00584363,-0.00357015,-0.316539,0.00548763,0.0446754,1826,834,14.0331,-1.98514
609,190,14.1293,2.07404,0.00268053,-0.00225671,-0.00164923,0.00318075,-0.00275694,-0.29449,0.00343104,0.0396827,1833,834,14.1293,-2.07404
616,190,14.2233,1.88586,0.00131687,-0.00187563,-0.000303594,0.00134548,-0.00190424,-0.0939738,0.00188545,0.0394565,1840,834,14.2233,-1.88588
623,190,14.3201,1.90149,0.000402239,-0.00161643,0.000597511,0.000565839,-0.00178003,0.267253,0.00141357,0.0397831,1847,834,14.3201,-1.90148
630,190,14.3207,1.9032,-0.000762847,-0.0013477,0.0010662,5.03005e-05,-0.00216085,0.651555,0.00145762,0.0410584,1854,834,14.3207,-1.9032
637,190,14.2434,1.88428,-0.00186573,-0.00113747,0.00123685,-0.000212262,-0.00279094,0.928554,0.00179406,0.0341615,1861,834,14.2434,-1.8843
644,190,14.1553,1.95813,-0.00266765,-0.00105144,0.00119416,-0.000417656,-0.00330143,1.08286,0.00207579,0.0260532,1868,834,14.1552,-1.9581
651,190,14.1012,2.17358,-0.00330001,-0.00104619,0.000983994,-0.000677052,-0.00366915,1.2119,0.00225456,0.0362077,1875,834,14.1012,-2.1736
658,190,14.059,2.41779,-0.00381165,-0.00102372,0.000635964,-0.000885496,-0.00394987,1.35679,0.00239332,0.0451299,1882,834,14.059,-2.41776
665,190,12.9269,0.726074,0,0,0,0,0,0,0,-1,1889,834,12.9269,-0.726057
672,190,11.9211,1.57184,-0.00443131,-0.000828682,0.000116415,-0.000824924,-0.00443507,1.53853,0.0027237,0.0487752,1896,834,11.9212,-1.57184
679,190,11.6385,1.55273,-0.00448086,-0.000806698,-0.00021492,-0.000794169,-0.00449339,-1.51257,0.00276909,0.0229789,1903,834,11.6386,-1.55275
686,190,11.5751,1.66083,-0.00405195,-0.000885315,-0.000519434,-0.000802288,-0.00413497,-1.41229,0.00253195,0.0108585,1910,834,11.575,-1.66082
693,190,11.5875,1.77234,-0.00302015,-0.0010373,-0.000827848,-0.000737115,-0.00332033,-1.22293,0.00201334,0.0122671,1917,834,11.5875,-1.77236
700,190,11.5861,1.89227,-0.00159559,-0.00135412,-0.00125031,-0.000218724,-0.00273099,-0.833532,0.0017523,0.0115624,1924,834,11.586,-1.8923
707,190,11.5931,2.0224,0.000552385,-0.00111958,-0.00161326,0.00153339,-0.00210059,-0.546349,0.00210658,0.0131581,1931,834,11.5931,-2.02239
714,190,11.5895,2.14935,0.00352594,-4.31617e-05,-0.00157772,0.00412337,-0.00064059,-0.36198,0.00298544,0.0114258,1938,834,11.5895,-2.14934
721,190,11.5834,2.28339,0.00712311,0.00130672,-0.00137648,0.00743241,0.000997416,-0.221034,0.0046582,0.0107823,1945,834,11.5834,-2.28339
728,190,11.5764,2.3891,0.0116534,0.00324411,-0.000869871,0.0117424,0.00315507,-0.102003,0.00701714,0.0127133,1952,834,11.5764,-2.38907
735,190,11.5775,2.50006,0.0166047,0.00587007,-0.000538454,0.0166316,0.00584312,-0.0499932,0.00974276,0.0113405,1959,834,11.5775,-2.50009
742,190,11.6014,2.67871,0.0220604,0.0094503,0.000111962,0.0220614,0.0094493,0.00887785,0.0127807,0.0152705,1966,834,11.6015,-2.67872
749,190,11.6815,2.91833,0.028148,0.0144333,0.00117746,0.0282484,0.0143329,0.0850244,0.0163098,0.0381144,1973,834,11.6816,-2.91833
756,190,11.7947,3.1582,0,0,0,0,0,0,0,-1,1980,834,11.7947,-3.15823
763,190,11.8483,3.34216,0,0,0,0,0,0,0,-1,1987,834,11.8483,-3.34216
770,190,13.7908,4.78265,0,0,0,0,0,0,0,-1,1994,834,13.7908,-4.78263
777,190,14.0736,5.64661,0,0,0,0,0,0,0,-1,2001,834,14.0736,-5.64658
784,190,0,0,0,0,0,0,0,0,0,-1,2008,834,0,0
791,190,0,0,0,0,0,0,0,0,0,-1,2015,834,0,0
798,190,0,0,0,0,0,0,0,0,0,-1,2022,834,0,0
805,190,0,0,0,0,0,0,0,0,0,-1,2029,834,0,0
812,190,0,0,0,0,0,0,0,0,0,-1,2036,834,0,0
-700,183,0,0,0,0,0,0,0,0,0,-1,524,841,0,0
-693,183,0,0,0,0,0,0,0,0,0,-1,531,841,0,0
-686,183,0,0,0,0,0,0,0,0,0,-1,538,841,0,0
-679,183,0,0,0,0,0,0,0,0,0,-1,545,841,0,0
-672,183,0,0,0,0,0,0,0,0,0,-1,552,841,0,0
-665,183,0,0,0,0,0,0,0,0,0,-1,559,841,0,0
-658,183,-5.76593,1.62744,0,0,0,0,0,0,0,-1,566,841,-5.76596,-1.62742
-651,183,-6.50671,2.09772,0,0,0,0,0,0,0,-1,573,841,-6.5067,-2.09773
-644,183,-6.61542,-0.0663452,0,0,0,0,0,0,0,-1,580,841,-6.61541,0.0663386
-637,183,-6.8399,-0.471802,0.0314914,0.0418849,0.00497677,0.0438836,0.0294927,1.18891,0.0258315,0.0468138,587,841,-6.8399,0.471832
-630,183,-7.24506,-0.860596,0.0287577,0.0341623,0.00175316,0.0346812,0.0282388,1.28304,0.0213006,0.0420201,594,841,-7.24508,0.860598
-623,183,-6.6012,-0.717285,0,0,0,0,0,0,0,-1,601,841,-6.6012,0.717297
-616,183,-6.8053,0.513672,0.02163,0.020502,-0.000613578,0.0218994,0.0202326,-0.413724,0.0140769,0.037563,608,841,-6.80532,-0.513665
-609,183,-6.70123,0.671082,0.0176932,0.0153563,-0.00136312,0.0183201,0.0147294,-0.431072,0.0112099,0.0153731,615,841,-6.70125,-0.671057
-602,183,-6.70856,0.604736,0.0135843,0.0108079,-0.00135273,0.0141344,0.0102578,-0.386232,0.00843316,0.010669,622,841,-6.70853,-0.604713
-595,183,-6.7243,0.504272,0.00945013,0.00680271,-0.0007652,0.00965539,0.00659745,-0.26207,0.00569803,0.01038,629,841,-6.72433,-0.504256
-588,183,-6.7171,0.405396,0.00514612,0.00371941,0.00033987,0.00522294,0.00364258,0.222311,0.00309283,0.00977244,636,841,-6.71713,-0.405391
-581,183,-6.70618,0.305969,0.00121091,0.00118503,0.0019553,0.00315332,-0.000757372,0.782089,0.00239492,0.0104119,643,841,-6.70615,-0.305989
-574,183,-6.69318,0.195679,-0.00285534,-0.000866752,0.00310882,0.0014029,-0.00512499,0.940173,0.00396785,0.0104737,650,841,-6.6932,-0.195679
-567,183,-6.67126,0.0823975,-0.0062315,-0.00170243,0.00370182,0.000372571,-0.0083065,1.0599,0.00566594,0.0136791,657,841,-6.67124,-0.0823722
-560,183,-6.74194,-0.00976563,-0.00770554,-0.00192503,0.00380326,-3.84231e-05,-0.00959215,1.11032,0.00638199,0.0153195,664,841,-6.74196,0.00979387
-553,183,-6.70221,-0.172729,-0.00813907,-0.00178133,0.0036652,-0.000108514,-0.00981189,1.14263,0.00650539,0.0131626,671,841,-6.70221,0.172759
-546,183,-6.64063,-0.28302,-0.00846834,-0.00148394,0.0034719,-5.17541e-05,-0.00990052,1.17955,0.00658317,0.0329343,678,841,-6.64064,0.283029
-539,183,-6.7525,-0.403076,-0.00798192,-0.00103872,0.00297621,6.24065e-05,-0.00908305,1.21644,0.00607627,0.0444905,685,841,-6.7525,0.403075
-532,183,-7.75452,-0.186096,-0.00690905,-0.000453629,0.00232792,0.000298276,-0.00766095,1.25838,0.00520957,0.042498,692,841,-7.7545,0.18608
-525,183,-8.4035,-0.06604,0,0,0,0,0,0,0,-1,699,841,-8.40353,0.0660213
-518,183,-8.85565,-0.0956421,0,0,0,0,0,0,0,-1,706,841,-8.85567,0.0956656
-511,183,-8.59589,0.0455933,0,0,0,0,0,0,0,-1,713,841,-8.59588,-0.0455762
-504,183,-8.4823,0.182556,0.00292545,0.00377958,-0.00325381,0.00663423,7.08024e-05,-0.85065,0.00439941,0.038386,720,841,-8.4823,-0.18257
-497,183,-8.52203,0.370239,0.00639136,0.00506413,-0.00500245,0.010774,0.000681466,-0.719454,0.00696664,0.0400827,727,841,-8.52205,-0.370216
-490,183,-8.45349,0.40332,0.00856742,0.00606714,-0.00620171,0.0136437,0.000990818,-0.685941,0.0087842,0.0387911,734,841,-8.45351,-0.403313
-483,183,0,0,0,0,0,0,0,0,0,-1,741,841,0,0
-476,183,0,0,0,0,0,0,0,0,0,-1,748,841,0,0
-469,183,0,0,0,0,0,0,0,0,0,-1,755,841,0,0
-462,183,0,0,0,0,0,0,0,0,0,-1,762,841,0,0
-455,183,0,0,0,0,0,0,0,0,0,-1,769,841,0,0
-448,183,0,0,0,0,0,0,0,0,0,-1,776,841,0,0
-441,183,0,0,0,0,0,0,0,0,0,-1,783,841,0,0
-434,183,0,0,0,0,0,0,0,0,0,-1,790,841,0,0
-427,183,0,0,0,0,0,0,0,0,0,-1,797,841,0,0
-420,183,0,0,0,0,0,0,0,0,0,-1,804,841,0,0
-413,183,0,0,0,0,0,0,0,0,0,-1,811,841,0,0
-406,183,0,0,0,0,0,0,0,0,0,-1,818,841,0,0
-399,183,0,0,0,0,0,0,0,0,0,-1,825,841,0,0
-392,183,0,0,0,0,0,0,0,0,0,-1,832,841,0,0
-385,183,0,0,0,0,0,0,0,0,0,-1,839,841,0,0
-378,183,0,0,0,0,0,0,0,0,0,-1,846,841,0,0
-371,183,0,0,0,0,0,0,0,0,0,-1,853,841,0,0
-364,183,0,0,0,0,0,0,0,0,0,-1,860,841,0,0
-357,183,0,0,0,0,0,0,0,0,0,-1,867,841,0,0
-350,183,0,0,0,0,0,0,0,0,0,-1,874,841,0,0
-343,183,0,0,0,0,0,0,0,0,0,-1,881,841,0,0
-336,183,0,0,0,0,0,0,0,0,0,-1,888,841,0,0
-329,183,0,0,0,0,0,0,0,0,0,-1,895,841,0,0
-322,183,0,0,0,0,0,0,0,0,0,-1,902,841,0,0
-315,183,0,0,0,0,0,0,0,0,0,-1,909,841,0,0
-308,183,0,0,0,0,0,0,0,0,0,-1,916,841,0,0
-301,183,0,0,0,0,0,0,0,0,0,-1,923,841,0,0
-294,183,0,0,0,0,0,0,0,0,0,-1,930,841,0,0
-287,183,0,0,0,0,0,0,0,0,0,-1,937,841,0,0
-280,183,0,0,0,0,0,0,0,0,0,-1,944,841,0,0
-273,183,0,0,0,0,0,0,0,0,0,-1,951,841,0,0
-266,183,0,0,0,0,0,0,0,0,0,-1,958,841,0,0
-259,183,0,0,0,0,0,0,0,0,0,-1,965,841,0,0
-252,183,0,0,0,0,0,0,0,0,0,-1,972,841,0,0
-245,183,0,0,0,0,0,0,0,0,0,-1,979,841,0,0
-238,183,0,0,0,0,0,0,0,0,0,-1,986,841,0,0
-231,183,0,0,0,0,0,0,0,0,0,-1,993,841,0,0
-224,183,0,0,0,0,0,0,0,0,0,-1,1000,841,0,0
-217,183,0,0,0,0,0,0,0,0,0,-1,1007,841,0,0
-210,183,0,0,0,0,0,0,0,0,0,-1,1014,841,0,0
-203,183,0,0,0,0,0,0,0,0,0,-1,1021,841,0,0
-196,183,0,0,0,0,0,0,0,0,0,-1,1028,841,0,0
-189,183,0,0,0,0,0,0,0,0,0,-1,1035,841,0,0
-182,183,0,0,0,0,0,0,0,0,0,-1,1042,841,0,0
-175,183,0,0,0,0,0,0,0,0,0,-1,1049,841,0,0
-168,183,0,0,0,0,0,0,0,0,0,-1,1056,841,0,0
-161,183,0,0,0,0,0,0,0,0,0,-1,1063,841,0,0
-154,183,0,0,0,0,0,0,0,0,0,-1,1070,841,0,0
-147,183,0,0,0,0,0,0,0,0,0,-1,1077,841,0,0
-140,183,0,0,0,0,0,0,0,0,0,-1,1084,841,0,0
-133,183,0,0,0,0,0,0,0,0,0,-1,1091,841,0,0
-126,183,0,0,0,0,0,0,0,0,0,-1,1098,841,0,0
-119,183,0,0,0,0,0,0,0,0,0,-1,1105,841,0,0
-112,183,0,0,0,0,0,0,0,0,0,-1,1112,841,0,0
-105,183,0,0,0,0,0,0,0,0,0,-1,1119,841,0,0
-98,183,0,0,0,0,0,0,0,0,0,-1,1126,841,0,0
-91,183,0,0,0,0,0,0,0,0,0,-1,1133,841,0,0
-84,183,0,0,0,0,0,0,0,0,0,-1,1140,841,0,0
-77,183,0,0,0,0,0,0,0,0,0,-1,1147,841,0,0
-70,183,0,0,0,0,0,0,0,0,0,-1,1154,841,0,0
-63,183,0,0,0,0,0,0,0,0,0,-1,1161,841,0,0
-56,183,0,0,0,0,0,0,0,0,0,-1,1168,841,0,0
-49,183,0,0,0,0,0,0,0,0,0,-1,1175,841,0,0
-42,183,0,0,0,0,0,0,0,0,0,-1,1182,841,0,0
-35,183,0,0,0,0,0,0,0,0,0,-1,1189,841,0,0
-28,183,0,0,0,0,0,0,0,0,0,-1,1196,841,0,0
-21,183,0,0,0,0,0,0,0,0,0,-1,1203,841,0,0
-14,183,0,0,0,0,0,0,0,0,0,-1,1210,841,0,0
-7,183,0,0,0,0,0,0,0,0,0,-1,1217,841,0,0
0,183,0,0,0,0,0,0,0,0,0,-1,1224,841,0,0
7,183,0,0,0,0,0,0,0,0,0,-1,1231,841,0,0
14,183,0,0,0,0,0,0,0,0,0,-1,1238,841,0,0
21,183,0,0,0,0,0,0,0,0,0,-1,1245,841,0,0
28,183,0,0,0,0,0,0,0,0,0,-1,1252,841,0,0
35,183,0,0,0,0,0,0,0,0,0,-1,1259,841,0,0
42,183,0,0,0,0,0,0,0,0,0,-1,1266,841,0,0
49,183,0,0,0,0,0,0,0,0,0,-1,1273,841,0,0
56,183,0,0,0,0,0,0,0,0,0,-1,1280,841,0,0
63,183,0,0,0,0,0,0,0,0,0,-1,1287,841,0,0
70,183,0,0,0,0,0,0,0,0,0,-1,1294,841,0,0
77,183,0,0,0,0,0,0,0,0,0,-1,1301,841,0,0
84,183,0,0,0,0,0,0,0,0,0,-1,1308,841,0,0
91,183,0,0,0,0,0,0,0,0,0,-1,1315,841,0,0
98,183,0,0,0,0,0,0,0,0,0,-1,1322,841,0,0
105,183,0,0,0,0,0,0,0,0,0,-1,1329,841,0,0
112,183,0,0,0,0,0,0,0,0,0,-1,1336,841,0,0
119,183,0,0,0,0,0,0,0,0,0,-1,1343,841,0,0
126,183,0,0,0,0,0,0,0,0,0,-1,1350,841,0,0
133,183,0,0,0,0,0,0,0,0,0,-1,1357,841,0,0
140,183,0,0,0,0,0,0,0,0,0,-1,1364,841,0,0
147,183,0,0,0,0,0,0,0,0,0,-1,1371,841,0,0
154,183,0,0,0,0,0,0,0,0,0,-1,1378,841,0,0
161,183,0,0,0,0,0,0,0,0,0,-1,1385,841,0,0
168,183,0,0,0,0,0,0,0,0,0,-1,1392,841,0,0
175,183,0,0,0,0,0,0,0,0,0,-1,1399,841,0,0
182,183,0,0,0,0,0,0,0,0,0,-1,1406,841,0,0
189,183,0,0,0,0,0,0,0,0,0,-1,1413,841,0,0
196,183,0,0,0,0,0,0,0,0,0,-1,1420,841,0,0
203,183,0,0,0,0,0,0,0,0,0,-1,1427,841,0,0
210,183,0,0,0,0,0,0,0,0,0,-1,1434,841,0,0
217,183,0,0,0,0,0,0,0,0,0,-1,1441,841,0,0
224,183,0,0,0,0,0,0,0,0,0,-1,1448,841,0,0
231,183,0,0,0,0,0,0,0,0,0,-1,1455,841,0,0
238,183,0,0,0,0,0,0,0,0,0,-1,1462,841,0,0
245,183,0,0,0,0,0,0,0,0,0,-1,1469,841,0,0
252,183,0,0,0,0,0,0,0,0,0,-1,1476,841,0,0
259,183,0,0,0,0,0,0,0,0,0,-1,1483,841,0,0
266,183,0,0,0,0,0,0,0,0,0,-1,1490,841,0,0
273,183,0,0,0,0,0,0,0,0,0,-1,1497,841,0,0
280,183,0,0,0,0,0,0,0,0,0,-1,1504,841,0,0
287,183,0,0,0,0,0,0,0,0,0,-1,1511,841,0,0
294,183,0,0,0,0,0,0,0,0,0,-1,1518,841,0,0
301,183,0,0,0,0,0,0,0,0,0,-1,1525,841,0,0
308,183,0,0,0,0,0,0,0,0,0,-1,1532,841,0,0
315,183,0,0,0,0,0,0,0,0,0,-1,1539,841,0,0
322,183,0,0,0,0,0,0,0,0,0,-1,1546,841,0,0
329,183,0,0,0,0,0,0,0,0,0,-1,1553,841,0,0
336,183,0,0,0,0,0,0,0,0,0,-1,1560,841,0,0
343,183,0,0,0,0,0,0,0,0,0,-1,1567,841,0,0
350,183,0,0,0,0,0,0,0,0,0,-1,1574,841,0,0
357,183,0,0,0,0,0,0,0,0,0,-1,1581,841,0,0
364,183,0,0,0,0,0,0,0,0,0,-1,1588,841,0,0
371,183,0,0,0,0,0,0,0,0,0,-1,1595,841,0,0
378,183,0,0,0,0,0,0,0,0,0,-1,1602,841,0,0
385,183,0,0,0,0,0,0,0,0,0,-1,1609,841,0,0
392,183,0,0,0,0,0,0,0,0,0,-1,1616,841,0,0
399,183,0,0,0,0,0,0,0,0,0,-1,1623,841,0,0
406,183,0,0,0,0,0,0,0,0,0,-1,1630,841,0,0
413,183,0,0,0,0,0,0,0,0,0,-1,1637,841,0,0
420,183,0,0,0,0,0,0,0,0,0,-1,1644,841,0,0
427,183,0,0,0,0,0,0,0,0,0,-1,1651,841,0,0
434,183,0,0,0,0,0,0,0,0,0,-1,1658,841,0,0
441,183,0,0,0,0,0,0,0,0,0,-1,1665,841,0,0
448,183,0,0,0,0,0,0,0,0,0,-1,1672,841,0,0
455,183,0,0,0,0,0,0,0,0,0,-1,1679,841,0,0
462,183,0,0,0,0,0,0,0,0,0,-1,1686,841,0,0
469,183,0,0,0,0,0,0,0,0,0,-1,1693,841,0,0
476,183,0,0,0,0,0,0,0,0,0,-1,1700,841,0,0
483,183,0,0,0,0,0,0,0,0,0,-1,1707,841,0,0
490,183,0,0,0,0,0,0,0,0,0,-1,1714,841,0,0
497,183,0,0,0,0,0,0,0,0,0,-1,1721,841,0,0
504,183,0,0,0,0,0,0,0,0,0,-1,1728,841,0,0
511,183,0,0,0,0,0,0,0,0,0,-1,1735,841,0,0
518,183,0,0,0,0,0,0,0,0,0,-1,1742,841,0,0
525,183,0,0,0,0,0,0,0,0,0,-1,1749,841,0,0
532,183,0,0,0,0,0,0,0,0,0,-1,1756,841,0,0
539,183,0,0,0,0,0,0,0,0,0,-1,1763,841,0,0
546,183,0,0,0,0,0,0,0,0,0,-1,1770,841,0,0
553,183,0,0,0,0,0,0,0,0,0,-1,1777,841,0,0
560,183,0,0,0,0,0,0,0,0,0,-1,1784,841,0,0
567,183,0,0,0,0,0,0,0,0,0,-1,1791,841,0,0
574,183,0,0,0,0,0,0,0,0,0,-1,1798,841,0,0
581,183,0,0,0,0,0,0,0,0,0,-1,1805,841,0,0
588,183,0,0,0,0,0,0,0,0,0,-1,1812,841,0,0
595,183,0,0,0,0,0,0,0,0,0,-1,1819,841,0,0
602,183,0,0,0,0,0,0,0,0,0,-1,1826,841,0,0
609,183,14.126,2.24518,0.00261754,-0.00328227,-0.00251524,0.00354428,-0.00420901,-0.353016,0.00448184,0.0413796,1833,841,14.1259,-2.24517
616,183,14.1765,2.20721,0.00121334,-0.00246955,-0.00123683,0.00159015,-0.00284637,-0.295727,0.00259543,0.0378641,1840,841,14.1765,-2.20721
623,183,14.2469,2.03754,0.000421264,-0.00201199,-0.00028415,0.000454005,-0.00204473,-0.114721,0.00153701,0.0407681,1847,841,14.247,-2.03753
630,183,14.3123,1.89191,-0.000711025,-0.00149456,0.000255912,-0.000634847,-0.00157074,0.28932,0.0009124,0.0395669,1854,841,14.3122,-1.89192
637,183,14.2361,1.9035,-0.00195,-0.00115377,0.000486569,-0.000923202,-0.00218057,1.12827,0.00126387,0.0332766,1861,841,14.2361,-1.90353
644,183,14.118,1.98297,-0.0029406,-0.000999645,0.000473644,-0.000890231,-0.00305001,1.34377,0.00181106,0.0269538,1868,841,14.118,-1.98296
651,183,14.1553,1.99945,-0.00373294,-0.000966827,0.000323546,-0.000929487,-0.00377029,1.4559,0.00226809,0.0254601,1875,841,14.1553,-1.99942
658,183,14.2177,1.35498,0,0,0,0,0,0,0,-1,1882,841,14.2177,-1.35499
665,183,13.1903,1.03491,0,0,0,0,0,0,0,-1,1889,841,13.1904,-1.03494
672,183,12.1506,1.07025,-0.00511988,-0.000806018,-0.000311277,-0.000783673,-0.00514222,-1.49913,0.00319908,0.0432277,1896,841,12.1506,-1.07024
679,183,11.7554,1.52173,-0.0052143,-0.000783433,-0.000584179,-0.000707707,-0.00529002,-1.44189,0.00331605,0.0303178,1903,841,11.7553,-1.5217
686,183,11.7238,1.66766,-0.00485804,-0.000839129,-0.000818565,-0.000678801,-0.00501837,-1.37738,0.00314383,0.0140495,1910,841,11.7237,-1.66769
693,183,11.723,1.78046,-0.00399317,-0.000969858,-0.00102919,-0.000652759,-0.00431027,-1.27192,0.00268253,0.0115995,1917,841,11.723,-1.78047
700,183,11.7201,1.90948,-0.00280746,-0.00115261,-0.00132743,-0.000415838,-0.00354423,-1.0641,0.00223713,0.0147782,1924,841,11.7201,-1.9095
707,183,11.725,2.03369,-0.00108528,-0.000897639,-0.00161879,0.000630047,-0.00261296,-0.814344,0.00198559,0.0123036,1931,841,11.725,-2.0337
714,183,11.7419,2.15411,0.00141952,9.75147e-05,-0.00163348,0.00252067,-0.00100364,-0.59314,0.00209666,0.0151559,1938,841,11.7419,-2.15412
721,183,11.7048,2.29169,0.00460747,0.00146135,-0.00140786,0.00514547,0.000923345,-0.365018,0.00316771,0.0137339,1945,841,11.7048,-2.2917
728,183,11.7021,2.40356,0.00865218,0.00349415,-0.000865408,0.00879351,0.00335282,-0.161875,0.00512441,0.0124723,1952,841,11.7022,-2.40357
735,183,11.7072,2.50159,0.0130267,0.00699419,-0.000361502,0.0130483,0.00697261,-0.0596407,0.00753939,0.0114053,1959,841,11.7071,-2.50159
742,183,11.7284,2.64459,0.017797,0.0111168,0.000365904,0.017817,0.0110968,0.0545563,0.0103896,0.0107206,1966,841,11.7284,-2.64459
749,183,11.7622,2.82489,0.0231746,0.0168601,0.00152448,0.0235234,0.0165113,0.224916,0.0139455,0.0305242,1973,841,11.7622,-2.82491
756,183,11.9659,3.12628,0,0,0,0,0,0,0,-1,1980,841,11.966,-3.12628
763,183,11.5283,3.1015,0,0,0,0,0,0,0,-1,1987,841,11.5283,-3.10147
770,183,13.4591,4.81171,0,0,0,0,0,0,0,-1,1994,841,13.4591,-4.8117
777,183,14.1365,5.29578,0,0,0,0,0,0,0,-1,2001,841,14.1365,-5.29576
784,183,0,0,0,0,0,0,0,0,0,-1,2008,841,0,0
791,183,0,0,0,0,0,0,0,0,0,-1,2015,841,0,0
798,183,0,0,0,0,0,0,0,0,0,-1,2022,841,0,0
805,183,0,0,0,0,0,0,0,0,0,-1,2029,841,0,0
812,183,0,0,0,0,0,0,0,0,0,-1,2036,841,0,0
-700,176,0,0,0,0,0,0,0,0,0,-1,524,848,0,0
-693,176,0,0,0,0,0,0,0,0,0,-1,531,848,0,0
-686,176,0,0,0,0,0,0,0,0,0,-1,538,848,0,0
-679,176,0,0,0,0,0,0,0,0,0,-1,545,848,0,0
-672,176,0,0,0,0,0,0,0,0,0,-1,552,848,0,0
-665,176,-4.55548,-0.40918,0,0,0,0,0,0,0,-1,559,848,-4.55549,0.409209
-658,176,-4.15308,0.504089,0,0,0,0,0,0,0,-1,566,848,-4.15306,-0.504104
-651,176,-6.56854,2.42462,0,0,0,0,0,0,0,-1,573,848,-6.56854,-2.42465
-644,176,-6.1272,-0.501343,0,0,0,0,0,0,0,-1,580,848,-6.12722,0.501365
-637,176,-6.55304,-1.14331,0.0255332,0.0362791,0.00703187,0.0397558,0.0220566,1.11162,0.0229989,0.0427691,587,848,-6.55302,1.14333
-630,176,-7.12531,-1.66986,0.0228524,0.0295259,0.00377672,0.0312287,0.0211496,1.14721,0.0184037,0.0434436,594,848,-7.12529,1.66986
-623,176,-7.39563,-1.97833,0,0,0,0,0,0,0,-1,601,848,-7.39566,1.97835
-616,176,-6.77692,0.787659,0.0166625,0.0175469,0.000986921,0.0181862,0.0160233,0.996024,0.0114713,0.0269751,608,848,-6.77692,-0.787675
-609,176,-6.79193,0.70697,0.0133467,0.0130351,-8.99571e-05,0.0133708,0.0130109,-0.261805,0.00879636,0.0114541,615,848,-6.79191,-0.706995
-602,176,-6.80774,0.609436,0.00980864,0.00908082,-0.00039726,0.00998347,0.00890599,-0.414593,0.00632714,0.0123793,622,848,-6.80773,-0.609421
-595,176,-6.8219,0.493774,0.00617521,0.00565789,-4.90001e-05,0.00617981,0.00565329,-0.0936105,0.00395606,0.0113326,629,848,-6.82189,-0.493792
-588,176,-6.81079,0.389465,0.00234773,0.0029224,0.000970709,0.00364741,0.00162273,0.929292,0.00211009,0.011562,636,848,-6.81079,-0.389482
-581,176,-6.81152,0.301208,-0.00112235,0.000650293,0.00250027,0.00241669,-0.00288874,0.955733,0.00306713,0.0107269,643,848,-6.81155,-0.301223
-574,176,-6.81531,0.19751,-0.00468268,-0.00113771,0.0035213,0.00103204,-0.00685244,1.01856,0.00494831,0.0117715,650,848,-6.81529,-0.197529
-567,176,-6.79083,0.1203,-0.00754054,-0.00188994,0.00399577,0.00017848,-0.00960896,1.09313,0.00646629,0.0161911,657,848,-6.79082,-0.120323
-560,176,-6.86877,-0.00958252,-0.00892937,-0.00218033,0.00416232,-0.000196466,-0.0109132,1.12602,0.0072109,0.0134576,664,848,-6.86876,0.00957104
-553,176,-6.79431,-0.150818,-0.00964554,-0.00223094,0.00427174,-0.000282111,-0.0115944,1.14279,0.00763728,0.0234621,671,848,-6.79433,0.150787
-546,176,-6.71783,-0.271118,-0.0100596,-0.00200839,0.00421056,-0.000208681,-0.0118593,1.16687,0.00783756,0.0411602,678,848,-6.71784,0.271131
-539,176,-7.55096,-0.165649,-0.00968715,-0.0015878,0.0038272,-6.54599e-05,-0.0112095,1.19222,0.00745127,0.0366924,685,848,-7.55096,0.16565
-532,176,-8.27173,-0.365662,0,0,0,0,0,0,0,-1,692,848,-8.27175,0.365666
-525,176,-8.68298,0.195007,0,0,0,0,0,0,0,-1,699,848,-8.68296,-0.195013
-518,176,-8.72516,0.208862,-0.0047313,0.000676963,0.00113516,0.000905565,-0.0049599,1.37207,0.00364613,0.0429725,706,848,-8.72517,-0.208851
-511,176,-8.6405,0.177551,-0.00144388,0.00197948,-0.000529334,0.00205946,-0.00152386,-1.42084,0.00207652,0.0373479,713,848,-8.64051,-0.177557
-504,176,-8.55188,-0.022522,0.00279304,0.00352879,-0.00261798,0.00580462,0.000517222,-0.8552,0.00370938,0.0399878,720,848,-8.55186,0.0225153
-497,176,-8.41107,0.0286865,0.00781891,0.0052694,-0.00496651,0.0116716,0.00141666,-0.659775,0.0073545,0.0418771,727,848,-8.41105,-0.0287154
-490,176,-8.33447,0.0540771,0.0121378,0.00706943,-0.00731389,0.0173441,0.00186314,-0.618625,0.0109945,0.0385303,734,848,-8.3345,-0.0540556
-483,176,0,0,0,0,0,0,0,0,0,-1,741,848,0,0
-476,176,0,0,0,0,0,0,0,0,0,-1,748,848,0,0
-469,176,0,0,0,0,0,0,0,0,0,-1,755,848,0,0
-462,176,0,0,0,0,0,0,0,0,0,-1,762,848,0,0
-455,176,0,0,0,0,0,0,0,0,0,-1,769,848,0,0
-448,176,0,0,0,0,0,0,0,0,0,-1,776,848,0,0
-441,176,0,0,0,0,0,0,0,0,0,-1,783,848,0,0
-434,176,0,0,0,0,0,0,0,0,0,-1,790,848,0,0
-427,176,0,0,0,0,0,0,0,0,0,-1,797,848,0,0
-420,176,0,0,0,0,0,0,0,0,0,-1,804,848,0,0
-413,176,0,0,0,0,0,0,0,0,0,-1,811,848,0,0
-406,176,0,0,0,0,0,0,0,0,0,-1,818,848,0,0
-399,176,0,0,0,0,0,0,0,0,0,-1,825,848,0,0
-392,176,0,0,0,0,0,0,0,0,0,-1,832,848,0,0
-385,176,0,0,0,0,0,0,0,0,0,-1,839,848,0,0
-378,176,0,0,0,0,0,0,0,0,0,-1,846,848,0,0
-371,176,0,0,0,0,0,0,0,0,0,-1,853,848,0,0
-364,176,0,0,0,0,0,0,0,0,0,-1,860,848,0,0
-357,176,0,0,0,0,0,0,0,0,0,-1,867,848,0,0
-350,176,0,0,0,0,0,0,0,0,0,-1,874,848,0,0
-343,176,0,0,0,0,0,0,0,0,0,-1,881,848,0,0
-336,176,0,0,0,0,0,0,0,0,0,-1,888,848,0,0
-329,176,0,0,0,0,0,0,0,0,0,-1,895,848,0,0
-322,176,0,0,0,0,0,0,0,0,0,-1,902,848,0,0
-315,176,0,0,0,0,0,0,0,0,0,-1,909,848,0,0
-308,176,0,0,0,0,0,0,0,0,0,-1,916,848,0,0
-301,176,0,0,0,0,0,0,0,0,0,-1,923,848,0,0
-294,176,0,0,0,0,0,0,0,0,0,-1,930,848,0,0
-287,176,0,0,0,0,0,0,0,0,0,-1,937,848,0,0
-280,176,0,0,0,0,0,0,0,0,0,-1,944,848,0,0
-273,176,0,0,0,0,0,0,0,0,0,-1,951,848,0,0
-266,176,0,0,0,0,0,0,0,0,0,-1,958,848,0,0
-259,176,0,0,0,0,0,0,0,0,0,-1,965,848,0,0
-252,176,0,0,0,0,0,0,0,0,0,-1,972,848,0,0
-245,176,0,0,0,0,0,0,0,0,0,-1,979,848,0,0
-238,176,0,0,0,0,0,0,0,0,0,-1,986,848,0,0
-231,176,0,0,0,0,0,0,0,0,0,-1,993,848,0,0
-224,176,0,0,0,0,0,0,0,0,0,-1,1000,848,0,0
-217,176,0,0,0,0,0,0,0,0,0,-1,1007,848,0,0
-210,176,0,0,0,0,0,0,0,0,0,-1,1014,848,0,0
-203,176,0,0,0,0,0,0,0,0,0,-1,1021,848,0,0
-196,176,0,0,0,0,0,0,0,0,0,-1,1028,848,0,0
-189,176,0,0,0,0,0,0,0,0,0,-1,1035,848,0,0
-182,176,0,0,0,0,0,0,0,0,0,-1,1042,848,0,0
-175,176,0,0,0,0,0,0,0,0,0,-1,1049,848,0,0
-168,176,0,0,0,0,0,0,0,0,0,-1,1056,848,0,0
-161,176,0,0,0,0,0,0,0,0,0,-1,1063,848,0,0
-154,176,0,0,0,0,0,0,0,0,0,-1,1070,848,0,0
-147,176,0,0,0,0,0,0,0,0,0,-1,1077,848,0,0
-140,176,0,0,0,0,0,0,0,0,0,-1,1084,848,0,0
-133,176,0,0,0,0,0,0,0,0,0,-1,1091,848,0,0
-126,176,0,0,0,0,0,0,0,0,0,-1,1098,848,0,0
-119,176,0,0,0,0,0,0,0,0,0,-1,1105,848,0,0
-112,176,0,0,0,0,0,0,0,0,0,-1,1112,848,0,0
-105,176,0,0,0,0,0,0,0,0,0,-1,1119,848,0,0
-98,176,0,0,0,0,0,0,0,0,0,-1,1126,848,0,0
-91,176,0,0,0,0,0,0,0,0,0,-1,1133,848,0,0
-84,176,0,0,0,0,0,0,0,0,0,-1,1140,848,0,0
-77,176,0,0,0,0,0,0,0,0,0,-1,1147,848,0,0
-70,176,0,0,0,0,0,0,0,0,0,-1,1154,848,0,0
-63,176,0,0,0,0,0,0,0,0,0,-1,1161,848,0,0
-56,176,0,0,0,0,0,0,0,0,0,-1,1168,848,0,0
-49,176,0,0,0,0,0,0,0,0,0,-1,1175,848,0,0
-42,176,0,0,0,0,0,0,0,0,0,-1,1182,848,0,0
-35,176,0,0,0,0,0,0,0,0,0,-1,1189,848,0,0
-28,176,0,0,0,0,0,0,0,0,0,-1,1196,848,0,0
-21,176,0,0,0,0,0,0,0,0,0,-1,1203,848,0,0
-14,176,0,0,0,0,0,0,0,0,0,-1,1210,848,0,0
-7,176,0,0,0,0,0,0,0,0,0,-1,1217,848,0,0
0,176,0,0,0,0,0,0,0,0,0,-1,1224,848,0,0
7,176,0,0,0,0,0,0,0,0,0,-1,1231,848,0,0
14,176,0,0,0,0,0,0,0,0,0,-1,1238,848,0,0
21,176,0,0,0,0,0,0,0,0,0,-1,1245,848,0,0
28,176,0,0,0,0,0,0,0,0,0,-1,1252,848,0,0
35,176,0,0,0,0,0,0,0,0,0,-1,1259,848,0,0
42,176,0,0,0,0,0,0,0,0,0,-1,1266,848,0,0
49,176,0,0,0,0,0,0,0,0,0,-1,1273,848,0,0
56,176,0,0,0,0,0,0,0,0,0,-1,1280,848,0,0
63,176,0,0,0,0,0,0,0,0,0,-1,1287,848,0,0
70,176,0,0,0,0,0,0,0,0,0,-1,1294,848,0,0
77,176,0,0,0,0,0,0,0,0,0,-1,1301,848,0,0
84,176,0,0,0,0,0,0,0,0,0,-1,1308,848,0,0
91,176,0,0,0,0,0,0,0,0,0,-1,1315,848,0,0
98,176,0,0,0,0,0,0,0,0,0,-1,1322,848,0,0
105,176,0,0,0,0,0,0,0,0,0,-1,1329,848,0,0
112,176,0,0,0,0,0,0,0,0,0,-1,1336,848,0,0
119,176,0,0,0,0,0,0,0,0,0,-1,1343,848,0,0
126,176,0,0,0,0,0,0,0,0,0,-1,1350,848,0,0
133,176,0,0,0,0,0,0,0,0,0,-1,1357,848,0,0
140,176,0,0,0,0,0,0,0,0,0,-1,1364,848,0,0
147,176,0,0,0,0,0,0,0,0,0,-1,1371,848,0,0
154,176,0,0,0,0,0,0,0,0,0,-1,1378,848,0,0
161,176,0,0,0,0,0,0,0,0,0,-1,1385,848,0,0
168,176,0,0,0,0,0,0,0,0,0,-1,1392,848,0,0
175,176,0,0,0,0,0,0,0,0,0,-1,1399,848,0,0
182,176,0,0,0,0,0,0,0,0,0,-1,1406,848,0,0
189,176,0,0,0,0,0,0,0,0,0,-1,1413,848,0,0
196,176,0,0,0,0,0,0,0,0,0,-1,1420,848,0,0
203,176,0,0,0,0,0,0,0,0,0,-1,1427,848,0,0
210,176,0,0,0,0,0,0,0,0,0,-1,1434,848,0,0
217,176,0,0,0,0,0,0,0,0,0,-1,1441,848,0,0
224,176,0,0,0,0,0,0,0,0,0,-1,1448,848,0,0
231,176,0,0,0,0,0,0,0,0,0,-1,1455,848,0,0
238,176,0,0,0,0,0,0,0,0,0,-1,1462,848,0,0
245,176,0,0,0,0,0,0,0,0,0,-1,1469,848,0,0
252,176,0,0,0,0,0,0,0,0,0,-1,1476,848,0,0
259,176,0,0,0,0,0,0,0,0,0,-1,1483,848,0,0
266,176,0,0,0,0,0,0,0,0,0,-1,1490,848,0,0
273,176,0,0,0,0,0,0,0,0,0,-1,1497,848,0,0
280,176,0,0,0,0,0,0,0,0,0,-1,1504,848,0,0
287,176,0,0,0,0,0,0,0,0,0,-1,1511,848,0,0
294,176,0,0,0,0,0,0,0,0,0,-1,1518,848,0,0
301,176,0,0,0,0,0,0,0,0,0,-1,1525,848,0,0
308,176,0,0,0,0,0,0,0,0,0,-1,1532,848,0,0
315,176,0,0,0,0,0,0,0,0,0,-1,1539,848,0,0
322,176,0,0,0,0,0,0,0,0,0,-1,1546,848,0,0
329,176,0,0,0,0,0,0,0,0,0,-1,1553,848,0,0
336,176,0,0,0,0,0,0,0,0,0,-1,1560,848,0,0
343,176,0,0,0,0,0,0,0,0,0,-1,1567,848,0,0
350,176,0,0,0,0,0,0,0,0,0,-1,1574,848,0,0
357,176,0,0,0,0,0,0,0,0,0,-1,1581,848,0,0
364,176,0,0,0,0,0,0,0,0,0,-1,1588,848,0,0
371,176,0,0,0,0,0,0,0,0,0,-1,1595,848,0,0
378,176,0,0,0,0,0,0,0,0,0,-1,1602,848,0,0
385,176,0,0,0,0,0,0,0,0,0,-1,1609,848,0,0
392,176,0,0,0,0,0,0,0,0,0,-1,1616,848,0,0
399,176,0,0,0,0,0,0,0,0,0,-1,1623,848,0,0
406,176,0,0,0,0,0,0,0,0,0,-1,1630,848,0,0
413,176,0,0,0,0,0,0,0,0,0,-1,1637,848,0,0
420,176,0,0,0,0,0,0,0,0,0,-1,1644,848,0,0
427,176,0,0,0,0,0,0,0,0,0,-1,1651,848,0,0
434,176,0,0,0,0,0,0,0,0,0,-1,1658,848,0,0
441,176,0,0,0,0,0,0,0,0,0,-1,1665,848,0,0
448,176,0,0,0,0,0,0,0,0,0,-1,1672,848,0,0
455,176,0,0,0,0,0,0,0,0,0,-1,1679,848,0,0
462,176,0,0,0,0,0,0,0,0,0,-1,1686,848,0,0
469,176,0,0,0,0,0,0,0,0,0,-1,1693,848,0,0
476,176,0,0,0,0,0,0,0,0,0,-1,1700,848,0,0
483,176,0,0,0,0,0,0,0,0,0,-1,1707,848,0,0
490,176,0,0,0,0,0,0,0,0,0,-1,1714,848,0,0
497,176,0,0,0,0,0,0,0,0,0,-1,1721,848,0,0
504,176,0,0,0,0,0,0,0,0,0,-1,1728,848,0,0
511,176,0,0,0,0,0,0,0,0,0,-1,1735,848,0,0
518,176,0,0,0,0,0,0,0,0,0,-1,1742,848,0,0
525,176,0,0,0,0,0,0,0,0,0,-1,1749,848,0,0
532,176,0,0,0,0,0,0,0,0,0,-1,1756,848,0,0
539,176,0,0,0,0,0,0,0,0,0,-1,1763,848,0,0
546,176,0,0,0,0,0,0,0,0,0,-1,1770,848,0,0
553,176,0,0,0,0,0,0,0,0,0,-1,1777,848,0,0
560,176,0,0,0,0,0,0,0,0,0,-1,1784,848,0,0
567,176,0,0,0,0,0,0,0,0,0,-1,1791,848,0,0
574,176,0,0,0,0,0,0,0,0,0,-1,1798,848,0,0
581,176,0,0,0,0,0,0,0,0,0,-1,1805,848,0,0
588,176,0,0,0,0,0,0,0,0,0,-1,1812,848,0,0
595,176,0,0,0,0,0,0,0,0,0,-1,1819,848,0,0
602,176,0,0,0,0,0,0,0,0,0,-1,1826,848,0,0
609,176,14.124,2.23584,0.00312256,-0.00430482,-0.00348173,0.00449945,-0.0056817,-0.376586,0.00589129,0.040348,1833,848,14.124,-2.23584
616,176,14.0404,1.9834,0.00142704,-0.00308905,-0.00231509,0.00240294,-0.00406495,-0.398936,0.00377511,0.0395862,1840,848,14.0404,-1.98342
623,176,14.106,1.82672,0.000616239,-0.00248671,-0.00134204,0.00111614,-0.00298661,-0.356571,0.00244941,0.0415158,1847,848,14.106,-1.82672
630,176,14.3164,1.84021,-0.000477233,-0.00174686,-0.000719618,-0.000152444,-0.00207165,-0.423964,0.00133319,0.0384602,1854,848,14.3165,-1.84023
637,176,14.2439,1.91492,-0.00185529,-0.00135624,-0.000402848,-0.0011319,-0.00207963,-1.06268,0.00120224,0.0304657,1861,848,14.2439,-1.91493
644,176,14.1205,2.02161,-0.00308161,-0.00118341,-0.000362841,-0.00111641,-0.00314861,-1.38822,0.0018433,0.030475,1868,848,14.1205,-2.02158
651,176,14.1439,2.02545,-0.00408129,-0.00115181,-0.000445021,-0.00108569,-0.0041474,-1.42332,0.00248344,0.0306911,1875,848,14.144,-2.02546
658,176,14.2712,1.87769,-0.00483559,-0.00115558,-0.000635497,-0.00104893,-0.00494224,-1.40452,0.0030068,0.0341379,1882,848,14.2712,-1.87771
665,176,13.4539,1.34381,0,0,0,0,0,0,0,-1,1889,848,13.4538,-1.34381
672,176,12.4229,1.01318,0,0,0,0,0,0,0,-1,1896,848,12.4228,-1.01321
679,176,12.2642,1.75751,0,0,0,0,0,0,0,-1,1903,848,12.2641,-1.75753
686,176,11.8925,1.67401,-0.00564679,-0.00105297,-0.00116009,-0.000776626,-0.00592313,-1.33695,0.00371702,0.019011,1910,848,11.8925,-1.67401
693,176,11.8594,1.80591,-0.00490845,-0.00112732,-0.00127282,-0.000738783,-0.00529699,-1.27452,0.00331264,0.0108539,1917,848,11.8594,-1.8059
700,176,11.8486,1.92212,-0.00388889,-0.0011619,-0.0014388,-0.00054316,-0.00450763,-1.16466,0.00284139,0.0150087,1924,848,11.8487,-1.92212
707,176,11.8567,2.05621,-0.00244179,-0.000965013,-0.00166916,0.000121784,-0.00352859,-0.993644,0.00239402,0.0138166,1931,848,11.8566,-2.05619
714,176,11.8472,2.16656,-0.000225415,-0.000100343,-0.00171024,0.0015485,-0.00187426,-0.803673,0.00197911,0.0113228,1938,848,11.8471,-2.16654
721,176,11.839,2.28455,0.00280254,0.00116592,-0.00143547,0.00363656,0.000331896,-0.526339,0.00232166,0.0108941,1945,848,11.8389,-2.28453
728,176,11.8441,2.41046,0.00661139,0.00310277,-0.000956858,0.00685537,0.00285878,-0.249665,0.00397608,0.0139418,1952,848,11.8442,-2.41047
735,176,11.8373,2.50812,0.0106036,0.0070307,-0.000703022,0.010737,0.00689735,-0.187456,0.00628224,0.0134605,1959,848,11.8373,-2.50813
742,176,11.854,2.62482,0.0149433,0.0112739,-0.000260106,0.0149616,0.0112555,-0.0704157,0.0089972,0.0164039,1966,848,11.854,-2.62484
749,176,11.8514,2.76526,0.0197675,0.0172094,0.00042144,0.0198351,0.0171418,0.159149,0.0124233,0.0265908,1973,848,11.8514,-2.76526
756,176,11.9075,2.68286,0.0252221,0.0253953,0.00148123,0.0267924,0.0238249,0.814599,0.0169592,0.0413486,1980,848,11.9075,-2.68284
763,176,12.0222,2.67828,0,0,0,0,0,0,0,-1,1987,848,12.0222,-2.67827
770,176,13.5464,4.29022,0.0373058,0.0507866,0.00534941,0.0526514,0.035441,1.23537,0.0309998,0.0492839,1994,848,13.5464,-4.29024
777,176,13.8922,4.97852,0.0429424,0.0692783,0.00841777,0.071739,0.0404817,1.2864,0.0415325,0.0487549,2001,848,13.8922,-4.97852
784,176,0,0,0,0,0,0,0,0,0,-1,2008,848,0,0
791,176,0,0,0,0,0,0,0,0,0,-1,2015,848,0,0
798,176,0,0,0,0,0,0,0,0,0,-1,2022,848,0,0
805,176,0,0,0,0,0,0,0,0,0,-1,2029,848,0,0
812,176,0,0,0,0,0,0,0,0,0,-1,2036,848,0,0
-700,169,0,0,0,0,0,0,0,0,0,-1,524,855,0,0
-693,169,0,0,0,0,0,0,0,0,0,-1,531,855,0,0
-686,169,0,0,0,0,0,0,0,0,0,-1,538,855,0,0
-679,169,0,0,0,0,0,0,0,0,0,-1,545,855,0,0
-672,169,0,0,0,0,0,0,0,0,0,-1,552,855,0,0
-665,169,-5.48505,0.269409,0.0235764,0.0524944,0.0394865,0.080086,-0.00401512,0.960904,0.0547781,0.0438833,559,855,-5.48504,-0.269412
-658,169,-5.07849,0.672913,0.024282,0.0478298,0.0286357,0.0670177,0.00509418,0.980444,0.0430809,0.0475348,566,855,-5.07851,-0.672937
-651,169,-4.84882,1.07623,0,0,0,0,0,0,0,-1,573,855,-4.84883,-1.07625
-644,169,-6.03015,-1.26349,0,0,0,0,0,0,0,-1,580,855,-6.03017,1.26347
-637,169,-6.53467,-1.88904,0,0,0,0,0,0,0,-1,587,855,-6.53465,1.88906
-630,169,-7.04376,-2.39056,0,0,0,0,0,0,0,-1,594,855,-7.04377,2.39059
-623,169,-6.78583,0.686401,0.0152924,0.0192717,0.00363209,0.0214234,0.0131407,1.03597,0.0124744,0.0353897,601,855,-6.78581,-0.686375
-616,169,-6.93524,0.782532,0.0126631,0.0143344,0.00257938,0.0162102,0.0107874,0.942049,0.00952824,0.0203458,608,855,-6.93523,-0.782559
-609,169,-6.91357,0.723083,0.0098219,0.0104752,0.00121112,0.0114029,0.00889414,0.917111,0.006919,0.0132248,615,855,-6.91359,-0.723092
-602,169,-6.90717,0.611267,0.00671095,0.00712753,0.000640339,0.0075926,0.00624588,0.942641,0.0046779,0.0130432,622,855,-6.90718,-0.611253
-595,169,-6.92078,0.484985,0.00347064,0.0043154,0.000743492,0.00474811,0.00303792,1.04372,0.00277682,0.0112566,629,855,-6.9208,-0.484998
-588,169,-6.91534,0.388489,9.0401e-05,0.00198136,0.00161721,0.0029092,-0.000837433,1.04992,0.00227068,0.00954842,636,855,-6.91533,-0.388502
-581,169,-6.92767,0.296631,-0.00296129,2.45386e-05,0.00300823,0.00188993,-0.00482669,1.01573,0.00399949,0.0098809,643,855,-6.92765,-0.296625
-574,169,-6.96161,0.184753,-0.00607131,-0.00147037,0.00389718,0.000754664,-0.00829634,1.05202,0.00579884,0.011504,650,855,-6.96163,-0.184724
-567,169,-6.91595,0.113464,-0.00851024,-0.0021381,0.00430646,3.27518e-05,-0.0106811,1.10388,0.00713167,0.0143626,657,855,-6.91597,-0.113447
-560,169,-6.96356,0.0135498,-0.00965765,-0.00254662,0.00451961,-0.000351611,-0.0118527,1.11868,0.00778722,0.0142259,664,855,-6.96354,-0.0135194
-553,169,-6.90991,-0.123291,-0.0101885,-0.00271169,0.00460468,-0.000518932,-0.0123813,1.12637,0.00808677,0.0227782,671,855,-6.90988,0.123304
-546,169,-6.68372,-0.157532,0,0,0,0,0,0,0,-1,678,855,-6.6837,0.15756
-539,169,-8.00134,0.0783081,0,0,0,0,0,0,0,-1,685,855,-8.00132,-0.0782923
-532,169,-8.60138,0.307007,0,0,0,0,0,0,0,-1,692,855,-8.60137,-0.306989
-525,169,-8.48212,0.581909,0,0,0,0,0,0,0,-1,699,855,-8.48214,-0.581923
-518,169,-8.72723,0.390808,-0.00387028,4.13014e-07,0.00142865,0.000470604,-0.00434048,1.25285,0.00306259,0.0436728,706,855,-8.72725,-0.390807
-511,169,-8.68091,0.215149,6.22643e-05,0.00144666,-0.000370236,0.00153945,-3.05302e-05,-1.32522,0.00103663,0.0418831,713,855,-8.68088,-0.215132
-504,169,-8.55597,-0.12085,0.00506721,0.00332976,-0.00265995,0.00699671,0.00140027,-0.627562,0.00427486,0.0437667,720,855,-8.55594,0.120833
-497,169,-8.41284,-0.558594,0,0,0,0,0,0,0,-1,727,855,-8.41283,0.558606
-490,169,0,0,0,0,0,0,0,0,0,-1,734,855,0,0
-483,169,0,0,0,0,0,0,0,0,0,-1,741,855,0,0
-476,169,0,0,0,0,0,0,0,0,0,-1,748,855,0,0
-469,169,0,0,0,0,0,0,0,0,0,-1,755,855,0,0
-462,169,0,0,0,0,0,0,0,0,0,-1,762,855,0,0
-455,169,0,0,0,0,0,0,0,0,0,-1,769,855,0,0
-448,169,0,0,0,0,0,0,0,0,0,-1,776,855,0,0
-441,169,0,0,0,0,0,0,0,0,0,-1,783,855,0,0
-434,169,0,0,0,0,0,0,0,0,0,-1,790,855,0,0
-427,169,0,0,0,0,0,0,0,0,0,-1,797,855,0,0
-420,169,0,0,0,0,0,0,0,0,0,-1,804,855,0,0
-413,169,0,0,0,0,0,0,0,0,0,-1,811,855,0,0
-406,169,0,0,0,0,0,0,0,0,0,-1,818,855,0,0
-399,169,0,0,0,0,0,0,0,0,0,-1,825,855,0,0
-392,169,0,0,0,0,0,0,0,0,0,-1,832,855,0,0
-385,169,0,0,0,0,0,0,0,0,0,-1,839,855,0,0
-378,169,0,0,0,0,0,0,0,0,0,-1,846,855,0,0
-371,169,0,0,0,0,0,0,0,0,0,-1,853,855,0,0
-364,169,0,0,0,0,0,0,0,0,0,-1,860,855,0,0
-357,169,0,0,0,0,0,0,0,0,0,-1,867,855,0,0
-350,169,0,0,0,0,0,0,0,0,0,-1,874,855,0,0
-343,169,0,0,0,0,0,0,0,0,0,-1,881,855,0,0
-336,169,0,0,0,0,0,0,0,0,0,-1,888,855,0,0
-329,169,0,0,0,0,0,0,0,0,0,-1,895,855,0,0
-322,169,0,0,0,0,0,0,0,0,0,-1,902,855,0,0
-315,169,0,0,0,0,0,0,0,0,0,-1,909,855,0,0
-308,169,0,0,0,0,0,0,0,0,0,-1,916,855,0,0
-301,169,0,0,0,0,0,0,0,0,0,-1,923,855,0,0
-294,169,0,0,0,0,0,0,0,0,0,-1,930,855,0,0
-287,169,0,0,0,0,0,0,0,0,0,-1,937,855,0,0
-280,169,0,0,0,0,0,0,0,0,0,-1,944,855,0,0
-273,169,0,0,0,0,0,0,0,0,0,-1,951,855,0,0
-266,169,0,0,0,0,0,0,0,0,0,-1,958,855,0,0
-259,169,0,0,0,0,0,0,0,0,0,-1,965,855,0,0
-252,169,0,0,0,0,0,0,0,0,0,-1,972,855,0,0
-245,169,0,0,0,0,0,0,0,0,0,-1,979,855,0,0
-238,169,0,0,0,0,0,0,0,0,0,-1,986,855,0,0
-231,169,0,0,0,0,0,0,0,0,0,-1,993,855,0,0
-224,169,0,0,0,0,0,0,0,0,0,-1,1000,855,0,0
-217,169,0,0,0,0,0,0,0,0,0,-1,1007,855,0,0
-210,169,0,0,0,0,0,0,0,0,0,-1,1014,855,0,0
-203,169,0,0,0,0,0,0,0,0,0,-1,1021,855,0,0
-196,169,0,0,0,0,0,0,0,0,0,-1,1028,855,0,0
-189,169,0,0,0,0,0,0,0,0,0,-1,1035,855,0,0
-182,169,0,0,0,0,0,0,0,0,0,-1,1042,855,0,0
-175,169,0,0,0,0,0,0,0,0,0,-1,1049,855,0,0
-168,169,0,0,0,0,0,0,0,0,0,-1,1056,855,0,0
-161,169,0,0,0,0,0,0,0,0,0,-1,1063,855,0,0
-154,169,0,0,0,0,0,0,0,0,0,-1,1070,855,0,0
-147,169,0,0,0,0,0,0,0,0,0,-1,1077,855,0,0
-140,169,0,0,0,0,0,0,0,0,0,-1,1084,855,0,0
-133,169,0,0,0,0,0,0,0,0,0,-1,1091,855,0,0
-126,169,0,0,0,0,0,0,0,0,0,-1,1098,855,0,0
-119,169,0,0,0,0,0,0,0,0,0,-1,1105,855,0,0
-112,169,0,0,0,0,0,0,0,0,0,-1,1112,855,0,0
-105,169,0,0,0,0,0,0,0,0,0,-1,1119,855,0,0
-98,169,0,0,0,0,0,0,0,0,0,-1,1126,855,0,0
-91,169,0,0,0,0,0,0,0,0,0,-1,1133,855,0,0
-84,169,0,0,0,0,0,0,0,0,0,-1,1140,855,0,0
-77,169,0,0,0,0,0,0,0,0,0,-1,1147,855,0,0
-70,169,0,0,0,0,0,0,0,0,0,-1,1154,855,0,0
-63,169,0,0,0,0,0,0,0,0,0,-1,1161,855,0,0
-56,169,0,0,0,0,0,0,0,0,0,-1,1168,855,0,0
-49,169,0,0,0,0,0,0,0,0,0,-1,1175,855,0,0
-42,169,0,0,0,0,0,0,0,0,0,-1,1182,855,0,0
-35,169,0,0,0,0,0,0,0,0,0,-1,1189,855,0,0
-28,169,0,0,0,0,0,0,0,0,0,-1,1196,855,0,0
-21,169,0,0,0,0,0,0,0,0,0,-1,1203,855,0,0
-14,169,0,0,0,0,0,0,0,0,0,-1,1210,855,0,0
-7,169,0,0,0,0,0,0,0,0,0,-1,1217,855,0,0
0,169,0,0,0,0,0,0,0,0,0,-1,1224,855,0,0
7,169,0,0,0,0,0,0,0,0,0,-1,1231,855,0,0
14,169,0,0,0,0,0,0,0,0,0,-1,1238,855,0,0
21,169,0,0,0,0,0,0,0,0,0,-1,1245,855,0,0
28,169,0,0,0,0,0,0,0,0,0,-1,1252,855,0,0
35,169,0,0,0,0,0,0,0,0,0,-1,1259,855,0,0
42,169,0,0,0,0,0,0,0,0,0,-1,1266,855,0,0
49,169,0,0,0,0,0,0,0,0,0,-1,1273,855,0,0
56,169,0,0,0,0,0,0,0,0,0,-1,1280,855,0,0
63,169,0,0,0,0,0,0,0,0,0,-1,1287,855,0,0
70,169,0,0,0,0,0,0,0,0,0,-1,1294,855,0,0
77,169,0,0,0,0,0,0,0,0,0,-1,1301,855,0,0
84,169,0,0,0,0,0,0,0,0,0,-1,1308,855,0,0
91,169,0,0,0,0,0,0,0,0,0,-1,1315,855,0,0
98,169,0,0,0,0,0,0,0,0,0,-1,1322,855,0,0
105,169,0,0,0,0,0,0,0,0,0,-1,1329,855,0,0
112,169,0,0,0,0,0,0,0,0,0,-1,1336,855,0,0
119,169,0,0,0,0,0,0,0,0,0,-1,1343,855,0,0
126,169,0,0,0,0,0,0,0,0,0,-1,1350,855,0,0
133,169,0,0,0,0,0,0,0,0,0,-1,1357,855,0,0
140,169,0,0,0,0,0,0,0,0,0,-1,1364,855,0,0
147,169,0,0,0,0,0,0,0,0,0,-1,1371,855,0,0
154,169,0,0,0,0,0,0,0,0,0,-1,1378,855,0,0
161,169,0,0,0,0,0,0,0,0,0,-1,1385,855,0,0
168,169,0,0,0,0,0,0,0,0,0,-1,1392,855,0,0
175,169,0,0,0,0,0,0,0,0,0,-1,1399,855,0,0
182,169,0,0,0,0,0,0,0,0,0,-1,1406,855,0,0
189,169,0,0,0,0,0,0,0,0,0,-1,1413,855,0,0
196,169,0,0,0,0,0,0,0,0,0,-1,1420,855,0,0
203,169,0,0,0,0,0,0,0,0,0,-1,1427,855,0,0
210,169,0,0,0,0,0,0,0,0,0,-1,1434,855,0,0
217,169,0,0,0,0,0,0,0,0,0,-1,1441,855,0,0
224,169,0,0,0,0,0,0,0,0,0,-1,1448,855,0,0
231,169,0,0,0,0,0,0,0,0,0,-1,1455,855,0,0
238,169,0,0,0,0,0,0,0,0,0,-1,1462,855,0,0
245,169,0,0,0,0,0,0,0,0,0,-1,1469,855,0,0
252,169,0,0,0,0,0,0,0,0,0,-1,1476,855,0,0
259,169,0,0,0,0,0,0,0,0,0,-1,1483,855,0,0
266,169,0,0,0,0,0,0,0,0,0,-1,1490,855,0,0
273,169,0,0,0,0,0,0,0,0,0,-1,1497,855,0,0
280,169,0,0,0,0,0,0,0,0,0,-1,1504,855,0,0
287,169,0,0,0,0,0,0,0,0,0,-1,1511,855,0,0
294,169,0,0,0,0,0,0,0,0,0,-1,1518,855,0,0
301,169,0,0,0,0,0,0,0,0,0,-1,1525,855,0,0
308,169,0,0,0,0,0,0,0,0,0,-1,1532,855,0,0
315,169,0,0,0,0,0,0,0,0,0,-1,1539,855,0,0
322,169,0,0,0,0,0,0,0,0,0,-1,1546,855,0,0
329,169,0,0,0,0,0,0,0,0,0,-1,1553,855,0,0
336,169,0,0,0,0,0,0,0,0,0,-1,1560,855,0,0
343,169,0,0,0,0,0,0,0,0,0,-1,1567,855,0,0
350,169,0,0,0,0,0,0,0,0,0,-1,1574,855,0,0
357,169,0,0,0,0,0,0,0,0,0,-1,1581,855,0,0
364,169,0,0,0,0,0,0,0,0,0,-1,1588,855,0,0
371,169,0,0,0,0,0,0,0,0,0,-1,1595,855,0,0
378,169,0,0,0,0,0,0,0,0,0,-1,1602,855,0,0
385,169,0,0,0,0,0,0,0,0,0,-1,1609,855,0,0
392,169,0,0,0,0,0,0,0,0,0,-1,1616,855,0,0
399,169,0,0,0,0,0,0,0,0,0,-1,1623,855,0,0
406,169,0,0,0,0,0,0,0,0,0,-1,1630,855,0,0
413,169,0,0,0,0,0,0,0,0,0,-1,1637,855,0,0
420,169,0,0,0,0,0,0,0,0,0,-1,1644,855,0,0
427,169,0,0,0,0,0,0,0,0,0,-1,1651,855,0,0
434,169,0,0,0,0,0,0,0,0,0,-1,1658,855,0,0
441,169,0,0,0,0,0,0,0,0,0,-1,1665,855,0,0
448,169,0,0,0,0,0,0,0,0,0,-1,1672,855,0,0
455,169,0,0,0,0,0,0,0,0,0,-1,1679,855,0,0
462,169,0,0,0,0,0,0,0,0,0,-1,1686,855,0,0
469,169,0,0,0,0,0,0,0,0,0,-1,1693,855,0,0
476,169,0,0,0,0,0,0,0,0,0,-1,1700,855,0,0
483,169,0,0,0,0,0,0,0,0,0,-1,1707,855,0,0
490,169,0,0,0,0,0,0,0,0,0,-1,1714,855,0,0
497,169,0,0,0,0,0,0,0,0,0,-1,1721,855,0,0
504,169,0,0,0,0,0,0,0,0,0,-1,1728,855,0,0
511,169,0,0,0,0,0,0,0,0,0,-1,1735,855,0,0
518,169,0,0,0,0,0,0,0,0,0,-1,1742,855,0,0
525,169,0,0,0,0,0,0,0,0,0,-1,1749,855,0,0
532,169,0,0,0,0,0,0,0,0,0,-1,1756,855,0,0
539,169,0,0,0,0,0,0,0,0,0,-1,1763,855,0,0
546,169,0,0,0,0,0,0,0,0,0,-1,1770,855,0,0
553,169,0,0,0,0,0,0,0,0,0,-1,1777,855,0,0
560,169,0,0,0,0,0,0,0,0,0,-1,1784,855,0,0
567,169,0,0,0,0,0,0,0,0,0,-1,1791,855,0,0
574,169,0,0,0,0,0,0,0,0,0,-1,1798,855,0,0
581,169,0,0,0,0,0,0,0,0,0,-1,1805,855,0,0
588,169,0,0,0,0,0,0,0,0,0,-1,1812,855,0,0
595,169,0,0,0,0,0,0,0,0,0,-1,1819,855,0,0
602,169,0,0,0,0,0,0,0,0,0,-1,1826,855,0,0
609,169,0,0,0,0,0,0,0,0,0,-1,1833,855,0,0
616,169,14.0629,1.95386,0.00200759,-0.00401009,-0.00309504,0.00331528,-0.00531778,-0.39976,0.00502879,0.0448576,1840,855,14.0629,-1.95386
623,169,14.2306,1.81354,0.0012026,-0.00315045,-0.00222277,0.00213702,-0.00408487,-0.397955,0.00365042,0.0456375,1847,855,14.2306,-1.81355
630,169,14.3964,1.98743,0.000194004,-0.00204746,-0.0015879,0.00101684,-0.0028703,-0.478096,0.00232773,0.0418842,1854,855,14.3963,-1.9874
637,169,14.2578,2.07458,-0.00135506,-0.00150632,-0.00124099,-0.000187393,-0.00267399,-0.754963,0.00172359,0.0364542,1861,855,14.2578,-2.07458
644,169,14.1375,2.13989,-0.00288445,-0.00125484,-0.00118421,-0.000632197,-0.00350709,-1.08673,0.00215842,0.0358959,1868,855,14.1374,-2.13989
651,169,14.1713,2.06323,-0.00419039,-0.00118925,-0.00123721,-0.000744982,-0.00463466,-1.22605,0.00287381,0.0343336,1875,855,14.1712,-2.06323
658,169,14.1926,1.97729,-0.00517386,-0.0011914,-0.00136984,-0.00076572,-0.00559954,-1.2695,0.00350577,0.0330826,1882,855,14.1926,-1.9773
665,169,14.319,1.85681,-0.00587799,-0.001172,-0.00143166,-0.000770679,-0.0062793,-1.29749,0.00395442,0.0446876,1889,855,14.3189,-1.85681
672,169,13.3019,1.69507,0,0,0,0,0,0,0,-1,1896,855,13.3018,-1.69509
679,169,12.6023,1.6673,-0.00664335,-0.00113741,-0.00155865,-0.000726802,-0.00705395,-1.31321,0.00448006,0.048014,1903,855,12.6023,-1.6673
686,169,11.9519,1.67383,-0.00653243,-0.00113889,-0.00161558,-0.000691991,-0.00697933,-1.30093,0.00444023,0.0218058,1910,855,11.9519,-1.67382
693,169,11.9866,1.81592,-0.00594076,-0.00119282,-0.00162207,-0.000691573,-0.006442,-1.27109,0.00408371,0.0114946,1917,855,11.9866,-1.8159
700,169,11.9962,1.95404,-0.00505004,-0.00118564,-0.00165868,-0.000571343,-0.00566433,-1.21611,0.00360092,0.0122116,1924,855,11.9962,-1.95406
707,169,11.9803,2.06299,-0.00395909,-0.00109255,-0.00185334,-0.000182932,-0.00486871,-1.11454,0.00318658,0.0139434,1931,855,11.9804,-2.063
714,169,11.9736,2.1601,-0.00221218,-0.000496973,-0.00202231,0.000842062,-0.00355121,-0.98594,0.00269242,0.0128117,1938,855,11.9737,-2.16011
721,169,11.9717,2.28943,0.000430818,0.000528274,-0.00181428,0.00229448,-0.00133539,-0.798824,0.00211995,0.0143985,1945,855,11.9717,-2.28942
728,169,11.9834,2.41064,0.0037368,0.00217168,-0.00149773,0.00464409,0.00126439,-0.544657,0.00277243,0.0124534,1952,855,11.9834,-2.41067
735,169,11.9563,2.49951,0.00702209,0.00597435,-0.00143531,0.00802615,0.00497029,-0.610416,0.00467763,0.0184432,1959,855,11.9563,-2.49952
742,169,11.9728,2.62451,0.0103956,0.0096862,-0.00129609,0.0113846,0.00869714,-0.651835,0.00687141,0.0148909,1966,855,11.9728,-2.62448
749,169,11.9904,2.69849,0.0139154,0.0149412,-0.00105929,0.0156052,0.0132514,-1.01085,0.00971441,0.023024,1973,855,11.9904,-2.6985
756,169,11.7372,2.66449,0.0178156,0.0222583,-0.000590605,0.0223355,0.0177384,-1.44086,0.0136191,0.0416999,1980,855,11.7372,-2.66448
763,169,11.8685,2.867,0,0,0,0,0,0,0,-1,1987,855,11.8685,-2.86701
770,169,13.6615,4.01538,0.0260969,0.0449713,0.00178455,0.0451386,0.0259297,1.47735,0.0261569,0.0457107,1994,855,13.6615,-4.0154
777,169,13.8801,4.54913,0.0295418,0.0613356,0.00398834,0.0618283,0.0290491,1.44789,0.0357182,0.0448744,2001,855,13.8801,-4.54912
784,169,14.28,5.10608,0,0,0,0,0,0,0,-1,2008,855,14.28,-5.1061
791,169,0,0,0,0,0,0,0,0,0,-1,2015,855,0,0
798,169,0,0,0,0,0,0,0,0,0,-1,2022,855,0,0
805,169,0,0,0,0,0,0,0,0,0,-1,2029,855,0,0
812,169,0,0,0,0,0,0,0,0,0,-1,2036,855,0,0
-700,162,0,0,0,0,0,0,0,0,0,-1,524,862,0,0
-693,162,0,0,0,0,0,0,0,0,0,-1,531,862,0,0
-686,162,0,0,0,0,0,0,0,0,0,-1,538,862,0,0
-679,162,0,0,0,0,0,0,0,0,0,-1,545,862,0,0
-672,162,0,0,0,0,0,0,0,0,0,-1,552,862,0,0
-665,162,-6.16608,0.298523,0.0189642,0.0479213,0.0389449,0.0749919,-0.00810644,0.963366,0.0529042,0.0444196,559,862,-6.16606,-0.298525
-658,162,-6.06885,0.693665,0.0190998,0.0433679,0.0303322,0.063903,-0.00143538,0.975668,0.0430885,0.0444277,566,862,-6.06886,-0.693642
-651,162,-6.01526,1.05048,0.018292,0.037871,0.0230658,0.0531388,0.00302432,0.986086,0.034462,0.0489786,573,862,-6.01528,-1.05045
-644,162,-4.87756,-1.82056,0,0,0,0,0,0,0,-1,580,862,-4.87758,1.82053
-637,162,-6.15741,-2.35382,0,0,0,0,0,0,0,-1,587,862,-6.15739,2.35382
-630,162,-7.43719,-2.88715,0,0,0,0,0,0,0,-1,594,862,-7.43721,2.88712
-623,162,-7.03088,0.64447,0.0108847,0.0160327,0.00592173,0.0199157,0.00700177,0.990413,0.011666,0.0306838,601,862,-7.03091,-0.644462
-616,162,-7.03302,0.783447,0.00885385,0.0115201,0.00448229,0.0148633,0.00551063,0.929942,0.00867638,0.0175293,608,862,-7.03303,-0.783419
-609,162,-7.0285,0.707275,0.0065261,0.00806389,0.00274894,0.0101494,0.00444055,0.921766,0.00587501,0.0127076,615,862,-7.02853,-0.707256
-602,162,-7.02991,0.597839,0.00384294,0.00480404,0.00166621,0.00605761,0.00258937,0.925794,0.00350961,0.0104905,622,862,-7.02992,-0.597825
-595,162,-7.03918,0.494385,0.00102509,0.0027707,0.00150067,0.00363392,0.000161866,1.04879,0.0023705,0.00967196,629,862,-7.03918,-0.494382
-588,162,-7.03949,0.393738,-0.00189377,0.000980158,0.00217359,0.00214883,-0.00306245,1.07747,0.00302411,0.0104176,636,862,-7.03952,-0.393766
-581,162,-7.06354,0.271667,-0.00456177,-0.000614118,0.00339214,0.00133667,-0.00651256,1.04889,0.00484906,0.0123067,643,862,-7.06355,-0.271687
-574,162,-7.1192,0.151794,-0.00723979,-0.00178551,0.00411672,0.000425428,-0.00945073,1.07794,0.00644698,0.0167805,650,862,-7.11922,-0.151771
-567,162,-7.0838,0.0776367,-0.00926482,-0.00235286,0.00443819,-0.000183776,-0.0114339,1.1162,0.00756209,0.019946,657,862,-7.08383,-0.0776533
-560,162,-7.06744,-0.0453491,-0.0102786,-0.00271882,0.00464877,-0.000507169,-0.0124902,1.12674,0.00816303,0.0160354,664,862,-7.06745,0.0453222
-553,162,-7.02332,-0.146973,-0.0106823,-0.00291674,0.00471431,-0.000692098,-0.012907,1.12989,0.00838349,0.0250337,671,862,-7.02334,0.146993
-546,162,-7.68762,0.128418,-0.0107455,-0.00278958,0.00469178,-0.000616367,-0.0129187,1.13702,0.00841457,0.0370885,678,862,-7.6876,-0.128435
-539,162,-8.31622,0.334167,0,0,0,0,0,0,0,-1,685,862,-8.3162,-0.334192
-532,162,-8.59253,0.236084,-0.00849238,-0.00198696,0.00376946,-0.000260821,-0.0102185,1.14137,0.00672709,0.0367777,692,862,-8.59252,-0.236057
-525,162,-8.60687,0.171021,-0.00614453,-0.00128003,0.00281045,4.50644e-06,-0.00742907,1.14209,0.00495421,0.0409746,699,862,-8.60688,-0.171033
-518,162,-8.59009,-0.0127563,-0.00274674,-0.000208036,0.00142016,0.000427374,-0.00338215,1.15009,0.00240989,0.0433511,706,862,-8.59006,0.0127515
-511,162,-8.43341,0.0119629,0.00186533,0.0012864,-0.000461814,0.0021209,0.00103083,-0.505453,0.00122466,0.0459903,713,862,-8.43343,-0.0119336
-504,162,-8.47528,0.0531006,0.00751713,0.00325892,-0.00281705,0.00891915,0.0018569,-0.461799,0.00543394,0.0462127,720,862,-8.47529,-0.0531128
-497,162,-8.57507,0.154175,0,0,0,0,0,0,0,-1,727,862,-8.57508,-0.154195
-490,162,0,0,0,0,0,0,0,0,0,-1,734,862,0,0
-483,162,0,0,0,0,0,0,0,0,0,-1,741,862,0,0
-476,162,0,0,0,0,0,0,0,0,0,-1,748,862,0,0
-469,162,0,0,0,0,0,0,0,0,0,-1,755,862,0,0
-462,162,0,0,0,0,0,0,0,0,0,-1,762,862,0,0
-455,162,0,0,0,0,0,0,0,0,0,-1,769,862,0,0
-448,162,0,0,0,0,0,0,0,0,0,-1,776,862,0,0
-441,162,0,0,0,0,0,0,0,0,0,-1,783,862,0,0
-434,162,0,0,0,0,0,0,0,0,0,-1,790,862,0,0
-427,162,0,0,0,0,0,0,0,0,0,-1,797,862,0,0
-420,162,0,0,0,0,0,0,0,0,0,-1,804,862,0,0
-413,162,0,0,0,0,0,0,0,0,0,-1,811,862,0,0
-406,162,0,0,0,0,0,0,0,0,0,-1,818,862,0,0
-399,162,0,0,0,0,0,0,0,0,0,-1,825,862,0,0
-392,162,0,0,0,0,0,0,0,0,0,-1,832,862,0,0
-385,162,0,0,0,0,0,0,0,0,0,-1,839,862,0,0
-378,162,0,0,0,0,0,0,0,0,0,-1,846,862,0,0
-371,162,0,0,0,0,0,0,0,0,0,-1,853,862,0,0
-364,162,0,0,0,0,0,0,0,0,0,-1,860,862,0,0
-357,162,0,0,0,0,0,0,0,0,0,-1,867,862,0,0
-350,162,0,0,0,0,0,0,0,0,0,-1,874,862,0,0
-343,162,0,0,0,0,0,0,0,0,0,-1,881,862,0,0
-336,162,0,0,0,0,0,0,0,0,0,-1,888,862,0,0
-329,162,0,0,0,0,0,0,0,0,0,-1,895,862,0,0
-322,162,0,0,0,0,0,0,0,0,0,-1,902,862,0,0
-315,162,0,0,0,0,0,0,0,0,0,-1,909,862,0,0
-308,162,0,0,0,0,0,0,0,0,0,-1,916,862,0,0
-301,162,0,0,0,0,0,0,0,0,0,-1,923,862,0,0
-294,162,0,0,0,0,0,0,0,0,0,-1,930,862,0,0
-287,162,0,0,0,0,0,0,0,0,0,-1,937,862,0,0
-280,162,0,0,0,0,0,0,0,0,0,-1,944,862,0,0
-273,162,0,0,0,0,0,0,0,0,0,-1,951,862,0,0
-266,162,0,0,0,0,0,0,0,0,0,-1,958,862,0,0
-259,162,0,0,0,0,0,0,0,0,0,-1,965,862,0,0
-252,162,0,0,0,0,0,0,0,0,0,-1,972,862,0,0
-245,162,0,0,0,0,0,0,0,0,0,-1,979,862,0,0
-238,162,0,0,0,0,0,0,0,0,0,-1,986,862,0,0
-231,162,0,0,0,0,0,0,0,0,0,-1,993,862,0,0
-224,162,0,0,0,0,0,0,0,0,0,-1,1000,862,0,0
-217,162,0,0,0,0,0,0,0,0,0,-1,1007,862,0,0
-210,162,0,0,0,0,0,0,0,0,0,-1,1014,862,0,0
-203,162,0,0,0,0,0,0,0,0,0,-1,1021,862,0,0
-196,162,0,0,0,0,0,0,0,0,0,-1,1028,862,0,0
-189,162,0,0,0,0,0,0,0,0,0,-1,1035,862,0,0
-182,162,0,0,0,0,0,0,0,0,0,-1,1042,862,0,0
-175,162,0,0,0,0,0,0,0,0,0,-1,1049,862,0,0
-168,162,0,0,0,0,0,0,0,0,0,-1,1056,862,0,0
-161,162,0,0,0,0,0,0,0,0,0,-1,1063,862,0,0
-154,162,0,0,0,0,0,0,0,0,0,-1,1070,862,0,0
-147,162,0,0,0,0,0,0,0,0,0,-1,1077,862,0,0
-140,162,0,0,0,0,0,0,0,0,0,-1,1084,862,0,0
-133,162,0,0,0,0,0,0,0,0,0,-1,1091,862,0,0
-126,162,0,0,0,0,0,0,0,0,0,-1,1098,862,0,0
-119,162,0,0,0,0,0,0,0,0,0,-1,1105,862,0,0
-112,162,0,0,0,0,0,0,0,0,0,-1,1112,862,0,0
-105,162,0,0,0,0,0,0,0,0,0,-1,1119,862,0,0
-98,162,0,0,0,0,0,0,0,0,0,-1,1126,862,0,0
-91,162,0,0,0,0,0,0,0,0,0,-1,1133,862,0,0
-84,162,0,0,0,0,0,0,0,0,0,-1,1140,862,0,0
-77,162,0,0,0,0,0,0,0,0,0,-1,1147,862,0,0
-70,162,0,0,0,0,0,0,0,0,0,-1,1154,862,0,0
-63,162,0,0,0,0,0,0,0,0,0,-1,1161,862,0,0
-56,162,0,0,0,0,0,0,0,0,0,-1,1168,862,0,0
-49,162,0,0,0,0,0,0,0,0,0,-1,1175,862,0,0
-42,162,0,0,0,0,0,0,0,0,0,-1,1182,862,0,0
-35,162,0,0,0,0,0,0,0,0,0,-1,1189,862,0,0
-28,162,0,0,0,0,0,0,0,0,0,-1,1196,862,0,0
-21,162,0,0,0,0,0,0,0,0,0,-1,1203,862,0,0
-14,162,0,0,0,0,0,0,0,0,0,-1,1210,862,0,0
-7,162,0,0,0,0,0,0,0,0,0,-1,1217,862,0,0
0,162,0,0,0,0,0,0,0,0,0,-1,1224,862,0,0
7,162,0,0,0,0,0,0,0,0,0,-1,1231,862,0,0
14,162,0,0,0,0,0,0,0,0,0,-1,1238,862,0,0
21,162,0,0,0,0,0,0,0,0,0,-1,1245,862,0,0
28,162,0,0,0,0,0,0,0,0,0,-1,1252,862,0,0
35,162,0,0,0,0,0,0,0,0,0,-1,1259,862,0,0
42,162,0,0,0,0,0,0,0,0,0,-1,1266,862,0,0
49,162,0,0,0,0,0,0,0,0,0,-1,1273,862,0,0
56,162,0,0,0,0,0,0,0,0,0,-1,1280,862,0,0
63,162,0,0,0,0,0,0,0,0,0,-1,1287,862,0,0
70,162,0,0,0,0,0,0,0,0,0,-1,1294,862,0,0
77,162,0,0,0,0,0,0,0,0,0,-1,1301,862,0,0
84,162,0,0,0,0,0,0,0,0,0,-1,1308,862,0,0
91,162,0,0,0,0,0,0,0,0,0,-1,1315,862,0,0
98,162,0,0,0,0,0,0,0,0,0,-1,1322,862,0,0
105,162,0,0,0,0,0,0,0,0,0,-1,1329,862,0,0
112,162,0,0,0,0,0,0,0,0,0,-1,1336,862,0,0
119,162,0,0,0,0,0,0,0,0,0,-1,1343,862,0,0
126,162,0,0,0,0,0,0,0,0,0,-1,1350,862,0,0
133,162,0,0,0,0,0,0,0,0,0,-1,1357,862,0,0
140,162,0,0,0,0,0,0,0,0,0,-1,1364,862,0,0
147,162,0,0,0,0,0,0,0,0,0,-1,1371,862,0,0
154,162,0,0,0,0,0,0,0,0,0,-1,1378,862,0,0
161,162,0,0,0,0,0,0,0,0,0,-1,1385,862,0,0
168,162,0,0,0,0,0,0,0,0,0,-1,1392,862,0,0
175,162,0,0,0,0,0,0,0,0,0,-1,1399,862,0,0
182,162,0,0,0,0,0,0,0,0,0,-1,1406,862,0,0
189,162,0,0,0,0,0,0,0,0,0,-1,1413,862,0,0
196,162,0,0,0,0,0,0,0,0,0,-1,1420,862,0,0
203,162,0,0,0,0,0,0,0,0,0,-1,1427,862,0,0
210,162,0,0,0,0,0,0,0,0,0,-1,1434,862,0,0
217,162,0,0,0,0,0,0,0,0,0,-1,1441,862,0,0
224,162,0,0,0,0,0,0,0,0,0,-1,1448,862,0,0
231,162,0,0,0,0,0,0,0,0,0,-1,1455,862,0,0
238,162,0,0,0,0,0,0,0,0,0,-1,1462,862,0,0
245,162,0,0,0,0,0,0,0,0,0,-1,1469,862,0,0
252,162,0,0,0,0,0,0,0,0,0,-1,1476,862,0,0
259,162,0,0,0,0,0,0,0,0,0,-1,1483,862,0,0
266,162,0,0,0,0,0,0,0,0,0,-1,1490,862,0,0
273,162,0,0,0,0,0,0,0,0,0,-1,1497,862,0,0
280,162,0,0,0,0,0,0,0,0,0,-1,1504,862,0,0
287,162,0,0,0,0,0,0,0,0,0,-1,1511,862,0,0
294,162,0,0,0,0,0,0,0,0,0,-1,1518,862,0,0
301,162,0,0,0,0,0,0,0,0,0,-1,1525,862,0,0
308,162,0,0,0,0,0,0,0,0,0,-1,1532,862,0,0
315,162,0,0,0,0,0,0,0,0,0,-1,1539,862,0,0
322,162,0,0,0,0,0,0,0,0,0,-1,1546,862,0,0
329,162,0,0,0,0,0,0,0,0,0,-1,1553,862,0,0
336,162,0,0,0,0,0,0,0,0,0,-1,1560,862,0,0
343,162,0,0,0,0,0,0,0,0,0,-1,1567,862,0,0
350,162,0,0,0,0,0,0,0,0,0,-1,1574,862,0,0
357,162,0,0,0,0,0,0,0,0,0,-1,1581,862,0,0
364,162,0,0,0,0,0,0,0,0,0,-1,1588,862,0,0
371,162,0,0,0,0,0,0,0,0,0,-1,1595,862,0,0
378,162,0,0,0,0,0,0,0,0,0,-1,1602,862,0,0
385,162,0,0,0,0,0,0,0,0,0,-1,1609,862,0,0
392,162,0,0,0,0,0,0,0,0,0,-1,1616,862,0,0
399,162,0,0,0,0,0,0,0,0,0,-1,1623,862,0,0
406,162,0,0,0,0,0,0,0,0,0,-1,1630,862,0,0
413,162,0,0,0,0,0,0,0,0,0,-1,1637,862,0,0
420,162,0,0,0,0,0,0,0,0,0,-1,1644,862,0,0
427,162,0,0,0,0,0,0,0,0,0,-1,1651,862,0,0
434,162,0,0,0,0,0,0,0,0,0,-1,1658,862,0,0
441,162,0,0,0,0,0,0,0,0,0,-1,1665,862,0,0
448,162,0,0,0,0,0,0,0,0,0,-1,1672,862,0,0
455,162,0,0,0,0,0,0,0,0,0,-1,1679,862,0,0
462,162,0,0,0,0,0,0,0,0,0,-1,1686,862,0,0
469,162,0,0,0,0,0,0,0,0,0,-1,1693,862,0,0
476,162,0,0,0,0,0,0,0,0,0,-1,1700,862,0,0
483,162,0,0,0,0,0,0,0,0,0,-1,1707,862,0,0
490,162,0,0,0,0,0,0,0,0,0,-1,1714,862,0,0
497,162,0,0,0,0,0,0,0,0,0,-1,1721,862,0,0
504,162,0,0,0,0,0,0,0,0,0,-1,1728,862,0,0
511,162,0,0,0,0,0,0,0,0,0,-1,1735,862,0,0
518,162,0,0,0,0,0,0,0,0,0,-1,1742,862,0,0
525,162,0,0,0,0,0,0,0,0,0,-1,1749,862,0,0
532,162,0,0,0,0,0,0,0,0,0,-1,1756,862,0,0
539,162,0,0,0,0,0,0,0,0,0,-1,1763,862,0,0
546,162,0,0,0,0,0,0,0,0,0,-1,1770,862,0,0
553,162,0,0,0,0,0,0,0,0,0,-1,1777,862,0,0
560,162,0,0,0,0,0,0,0,0,0,-1,1784,862,0,0
567,162,0,0,0,0,0,0,0,0,0,-1,1791,862,0,0
574,162,0,0,0,0,0,0,0,0,0,-1,1798,862,0,0
581,162,0,0,0,0,0,0,0,0,0,-1,1805,862,0,0
588,162,0,0,0,0,0,0,0,0,0,-1,1812,862,0,0
595,162,0,0,0,0,0,0,0,0,0,-1,1819,862,0,0
602,162,0,0,0,0,0,0,0,0,0,-1,1826,862,0,0
609,162,0,0,0,0,0,0,0,0,0,-1,1833,862,0,0
616,162,14.3486,2.00873,0.00257257,-0.005077,-0.0039696,0.0042602,-0.00676463,-0.401988,0.0064197,0.0457475,1840,862,14.3486,-2.00873
623,162,14.4354,2.03296,0.00176906,-0.00389085,-0.00302316,0.00308013,-0.00520193,-0.409197,0.00483367,0.0456725,1847,862,14.4354,-2.03293
630,162,14.2986,1.98389,0.000927669,-0.00234709,-0.00223635,0.00206198,-0.0034814,-0.469403,0.00323526,0.0409061,1854,862,14.2986,-1.98388
637,162,14.17,2.04425,-0.00069834,-0.00158383,-0.00178926,0.000702133,-0.00298431,-0.664111,0.00226023,0.0404262,1861,862,14.17,-2.04426
644,162,14.1964,2.14105,-0.00244548,-0.00119009,-0.00167645,-2.76772e-05,-0.00360789,-0.964529,0.00239609,0.0393547,1868,862,14.1965,-2.14103
651,162,14.2051,2.0249,-0.00404693,-0.00105216,-0.00171856,-0.000270163,-0.00482893,-1.14376,0.00313312,0.0348842,1875,862,14.2051,-2.02488
658,162,14.1517,1.9826,-0.00528239,-0.00103349,-0.00182575,-0.000356751,-0.00595913,-1.21583,0.00385934,0.0331831,1882,862,14.1517,-1.98258
665,162,14.1934,1.95178,-0.00617842,-0.00103253,-0.00186884,-0.000425441,-0.0067855,-1.2567,0.00438873,0.0388233,1889,862,14.1934,-1.95176
672,162,13.4724,2.39441,0,0,0,0,0,0,0,-1,1896,862,13.4724,-2.39443
679,162,12.8076,2.09668,-0.00717358,-0.00102285,-0.00196511,-0.000448618,-0.00774781,-1.2865,0.00502235,0.0466032,1903,862,12.8076,-2.09669
686,162,12.0719,1.69385,-0.00721877,-0.00104932,-0.00198306,-0.000466885,-0.0078012,-1.28513,0.00505237,0.0276343,1910,862,12.0719,-1.69386
693,162,12.0974,1.82288,-0.00682717,-0.00110538,-0.00192899,-0.000515814,-0.00741674,-1.27418,0.00478184,0.0155883,1917,862,12.0974,-1.82287
700,162,12.1266,1.94843,-0.00613305,-0.00110623,-0.00189869,-0.000469678,-0.0067696,-1.24731,0.00436494,0.0151463,1924,862,12.1266,-1.94845
707,162,12.1201,2.05475,-0.00519152,-0.00104919,-0.00194004,-0.000282486,-0.00595822,-1.19444,0.00388141,0.0114191,1931,862,12.1201,-2.05472
714,162,12.1171,2.14404,-0.00352385,-0.000655081,-0.00202972,0.000395936,-0.00457487,-1.093,0.00319009,0.0143652,1938,862,12.1171,-2.14402
721,162,12.0574,2.33148,-0.000863592,0.000172355,-0.00169603,0.00142774,-0.00211898,-0.933602,0.00206062,0.0261174,1945,862,12.0574,-2.3315
728,162,12.0723,2.44757,0.00246287,0.00156096,-0.00129692,0.003385,0.000638829,-0.61808,0.00207674,0.0215626,1952,862,12.0723,-2.44759
735,162,12.0933,2.5105,0.00575565,0.00530122,-0.00110545,0.00665699,0.00439987,-0.68404,0.00390922,0.0110106,1959,862,12.0932,-2.51051
742,162,12.0911,2.62744,0.00917041,0.00856424,-0.000831595,0.00975243,0.00798222,-0.610648,0.00599925,0.0122488,1966,862,12.0911,-2.62744
749,162,12.0819,2.72931,0.0126322,0.0131618,-0.000549371,0.0135069,0.0122872,-1.00997,0.0086268,0.0163982,1973,862,12.0819,-2.72932
756,162,12.047,2.79779,0.0164091,0.0196268,-0.000118382,0.0196312,0.0164048,-1.53407,0.0121556,0.0368361,1980,862,12.047,-2.79781
763,162,11.9948,2.87921,0.0203747,0.028316,0.000645367,0.0283681,0.0203226,1.49023,0.0168819,0.0499337,1987,862,11.9947,-2.8792
770,162,11.9934,2.94666,0,0,0,0,0,0,0,-1,1994,862,11.9934,-2.94666
777,162,13.9407,4.05261,0.0273877,0.0538497,0.00361412,0.0543345,0.026903,1.43747,0.0313705,0.047042,2001,862,13.9406,-4.05263
784,162,13.6801,4.02942,0.0288435,0.0713225,0.00591816,0.0721316,0.0280344,1.43492,0.041988,0.0456329,2008,862,13.68,-4.02944
791,162,0,0,0,0,0,0,0,0,0,-1,2015,862,0,0
798,162,0,0,0,0,0,0,0,0,0,-1,2022,862,0,0
805,162,0,0,0,0,0,0,0,0,0,-1,2029,862,0,0
812,162,0,0,0,0,0,0,0,0,0,-1,2036,862,0,0
-700,155,0,0,0,0,0,0,0,0,0,-1,524,869,0,0
-693,155,0,0,0,0,0,0,0,0,0,-1,531,869,0,0
-686,155,0,0,0,0,0,0,0,0,0,-1,538,869,0,0
-679,155,0,0,0,0,0,0,0,0,0,-1,545,869,0,0
-672,155,0,0,0,0,0,0,0,0,0,-1,552,869,0,0
-665,155,-7.48621,0.557617,0.0199928,0.0476676,0.0326346,0.0692772,-0.00161676,0.985914,0.0467331,0.0458853,559,869,-7.48619,-0.55763
-658,155,-7.36816,0.818848,0.0194707,0.0419773,0.0266766,0.0596771,0.00177098,0.984994,0.0392077,0.0434634,566,869,-7.36815,-0.818873
-651,155,-7.32556,1.08319,0.0180141,0.0358358,0.0210942,0.0498241,0.00402584,0.985245,0.0319587,0.0450741,573,869,-7.32557,-1.0832
-644,155,-7.41217,1.66724,0.0160545,0.0296594,0.0161528,0.0403837,0.00533017,0.984693,0.0253334,0.0439837,580,869,-7.41217,-1.66722
-637,155,-5.43323,-2.68658,0,0,0,0,0,0,0,-1,587,869,-5.43324,2.6866
-630,155,-7.48438,0.318604,0.011453,0.0183439,0.00869029,0.0242468,0.00555005,0.974128,0.0146688,0.0372354,594,869,-7.48436,-0.318605
-623,155,-7.16772,0.757629,0.00918733,0.0136349,0.00616325,0.0179633,0.00485896,0.958537,0.0107291,0.024287,601,869,-7.16773,-0.757644
-616,155,-7.12567,0.766479,0.00716395,0.00935619,0.00480121,0.0131848,0.00333533,0.897625,0.00791589,0.0138252,608,869,-7.1257,-0.76645
-609,155,-7.13361,0.676331,0.00473977,0.00623325,0.00322265,0.00879455,0.00217847,0.899246,0.00528861,0.0128052,615,869,-7.13362,-0.676346
-602,155,-7.14984,0.586121,0.00201261,0.00273864,0.00197005,0.00437884,0.000372415,0.876509,0.00280334,0.0114141,622,869,-7.14986,-0.586109
-595,155,-7.14374,0.495239,-0.000673145,0.00136227,0.00174497,0.00236462,-0.0016755,1.04939,0.00234385,0.0102112,629,869,-7.14372,-0.49526
-588,155,-7.13287,0.405945,-0.00334591,7.63623e-05,0.0023574,0.00127818,-0.00454773,1.09933,0.00353575,0.0111573,636,869,-7.13286,-0.40594
-581,155,-7.19556,0.286499,-0.00574704,-0.00117493,0.00346614,0.000691149,-0.00761312,1.07692,0.00532078,0.0153591,643,869,-7.19556,-0.286524
-574,155,-7.21973,0.195618,-0.00811916,-0.00205091,0.00409861,1.44257e-05,-0.0101845,1.10402,0.00679448,0.0216586,650,869,-7.21975,-0.195598
-567,155,-7.17883,0.0926514,-0.00985706,-0.0025181,0.00440943,-0.000451012,-0.0119241,1.13243,0.00780344,0.0229869,657,869,-7.17881,-0.0926321
-560,155,-7.15332,-0.00341797,-0.0107378,-0.00283135,0.00462488,-0.000700385,-0.0128688,1.13903,0.00835554,0.0206134,664,869,-7.15334,0.00340365
-553,155,-7.17755,-0.0088501,-0.0110487,-0.00306733,0.00467697,-0.000909881,-0.0132062,1.13859,0.00851704,0.034273,671,869,-7.17755,0.00884985
-546,155,-7.84485,0.269531,-0.0109875,-0.00299223,0.00464964,-0.000857953,-0.0131217,1.14047,0.00847633,0.039972,678,869,-7.84485,-0.269511
-539,155,-8.30701,0.598572,0,0,0,0,0,0,0,-1,685,869,-8.30704,-0.598551
-532,155,-8.57245,0.281311,-0.00835993,-0.00228833,0.0036547,-0.000573034,-0.0100752,1.13198,0.00653419,0.0344204,692,869,-8.57243,-0.281284
-525,155,-8.49384,0.342896,-0.00566841,-0.00160013,0.00262519,-0.000313221,-0.00695531,1.11501,0.00453607,0.0371276,699,869,-8.49383,-0.342879
-518,155,-8.46912,0.254395,-0.00177212,-0.000535891,0.00114448,0.000146723,-0.00245474,1.033,0.00168753,0.0427468,706,869,-8.46912,-0.254365
-511,155,-8.51611,0.46875,0.00344519,0.000987022,-0.000830495,0.00369947,0.000732742,-0.297116,0.00226198,0.0428137,713,869,-8.51612,-0.468758
-504,155,-8.50208,0.506897,0.00959624,0.00306193,-0.00322048,0.0109167,0.00174152,-0.389102,0.00677232,0.0417423,720,869,-8.5021,-0.50689
-497,155,0,0,0,0,0,0,0,0,0,-1,727,869,0,0
-490,155,0,0,0,0,0,0,0,0,0,-1,734,869,0,0
-483,155,0,0,0,0,0,0,0,0,0,-1,741,869,0,0
-476,155,0,0,0,0,0,0,0,0,0,-1,748,869,0,0
-469,155,0,0,0,0,0,0,0,0,0,-1,755,869,0,0
-462,155,0,0,0,0,0,0,0,0,0,-1,762,869,0,0
-455,155,0,0,0,0,0,0,0,0,0,-1,769,869,0,0
-448,155,0,0,0,0,0,0,0,0,0,-1,776,869,0,0
-441,155,0,0,0,0,0,0,0,0,0,-1,783,869,0,0
-434,155,0,0,0,0,0,0,0,0,0,-1,790,869,0,0
-427,155,0,0,0,0,0,0,0,0,0,-1,797,869,0,0
-420,155,0,0,0,0,0,0,0,0,0,-1,804,869,0,0
-413,155,0,0,0,0,0,0,0,0,0,-1,811,869,0,0
-406,155,0,0,0,0,0,0,0,0,0,-1,818,869,0,0
-399,155,0,0,0,0,0,0,0,0,0,-1,825,869,0,0
-392,155,0,0,0,0,0,0,0,0,0,-1,832,869,0,0
-385,155,0,0,0,0,0,0,0,0,0,-1,839,869,0,0
-378,155,0,0,0,0,0,0,0,0,0,-1,846,869,0,0
-371,155,0,0,0,0,0,0,0,0,0,-1,853,869,0,0
-364,155,0,0,0,0,0,0,0,0,0,-1,860,869,0,0
-357,155,0,0,0,0,0,0,0,0,0,-1,867,869,0,0
-350,155,0,0,0,0,0,0,0,0,0,-1,874,869,0,0
-343,155,0,0,0,0,0,0,0,0,0,-1,881,869,0,0
-336,155,0,0,0,0,0,0,0,0,0,-1,888,869,0,0
-329,155,0,0,0,0,0,0,0,0,0,-1,895,869,0,0
-322,155,0,0,0,0,0,0,0,0,0,-1,902,869,0,0
-315,155,0,0,0,0,0,0,0,0,0,-1,909,869,0,0
-308,155,0,0,0,0,0,0,0,0,0,-1,916,869,0,0
-301,155,0,0,0,0,0,0,0,0,0,-1,923,869,0,0
-294,155,0,0,0,0,0,0,0,0,0,-1,930,869,0,0
-287,155,0,0,0,0,0,0,0,0,0,-1,937,869,0,0
-280,155,0,0,0,0,0,0,0,0,0,-1,944,869,0,0
-273,155,0,0,0,0,0,0,0,0,0,-1,951,869,0,0
-266,155,0,0,0,0,0,0,0,0,0,-1,958,869,0,0
-259,155,0,0,0,0,0,0,0,0,0,-1,965,869,0,0
-252,155,0,0,0,0,0,0,0,0,0,-1,972,869,0,0
-245,155,0,0,0,0,0,0,0,0,0,-1,979,869,0,0
-238,155,0,0,0,0,0,0,0,0,0,-1,986,869,0,0
-231,155,0,0,0,0,0,0,0,0,0,-1,993,869,0,0
-224,155,0,0,0,0,0,0,0,0,0,-1,1000,869,0,0
-217,155,0,0,0,0,0,0,0,0,0,-1,1007,869,0,0
-210,155,0,0,0,0,0,0,0,0,0,-1,1014,869,0,0
-203,155,0,0,0,0,0,0,0,0,0,-1,1021,869,0,0
-196,155,0,0,0,0,0,0,0,0,0,-1,1028,869,0,0
-189,155,0,0,0,0,0,0,0,0,0,-1,1035,869,0,0
-182,155,0,0,0,0,0,0,0,0,0,-1,1042,869,0,0
-175,155,0,0,0,0,0,0,0,0,0,-1,1049,869,0,0
-168,155,0,0,0,0,0,0,0,0,0,-1,1056,869,0,0
-161,155,0,0,0,0,0,0,0,0,0,-1,1063,869,0,0
-154,155,0,0,0,0,0,0,0,0,0,-1,1070,869,0,0
-147,155,0,0,0,0,0,0,0,0,0,-1,1077,869,0,0
-140,155,0,0,0,0,0,0,0,0,0,-1,1084,869,0,0
-133,155,0,0,0,0,0,0,0,0,0,-1,1091,869,0,0
-126,155,0,0,0,0,0,0,0,0,0,-1,1098,869,0,0
-119,155,0,0,0,0,0,0,0,0,0,-1,1105,869,0,0
-112,155,0,0,0,0,0,0,0,0,0,-1,1112,869,0,0
-105,155,0,0,0,0,0,0,0,0,0,-1,1119,869,0,0
-98,155,0,0,0,0,0,0,0,0,0,-1,1126,869,0,0
-91,155,0,0,0,0,0,0,0,0,0,-1,1133,869,0,0
-84,155,0,0,0,0,0,0,0,0,0,-1,1140,869,0,0
-77,155,0,0,0,0,0,0,0,0,0,-1,1147,869,0,0
-70,155,0,0,0,0,0,0,0,0,0,-1,1154,869,0,0
-63,155,0,0,0,0,0,0,0,0,0,-1,1161,869,0,0
-56,155,0,0,0,0,0,0,0,0,0,-1,1168,869,0,0
-49,155,0,0,0,0,0,0,0,0,0,-1,1175,869,0,0
-42,155,0,0,0,0,0,0,0,0,0,-1,1182,869,0,0
-35,155,0,0,0,0,0,0,0,0,0,-1,1189,869,0,0
-28,155,0,0,0,0,0,0,0,0,0,-1,1196,869,0,0
-21,155,0,0,0,0,0,0,0,0,0,-1,1203,869,0,0
-14,155,0,0,0,0,0,0,0,0,0,-1,1210,869,0,0
-7,155,0,0,0,0,0,0,0,0,0,-1,1217,869,0,0
0,155,0,0,0,0,0,0,0,0,0,-1,1224,869,0,0
7,155,0,0,0,0,0,0,0,0,0,-1,1231,869,0,0
14,155,0,0,0,0,0,0,0,0,0,-1,1238,869,0,0
21,155,0,0,0,0,0,0,0,0,0,-1,1245,869,0,0
28,155,0,0,0,0,0,0,0,0,0,-1,1252,869,0,0
35,155,0,0,0,0,0,0,0,0,0,-1,1259,869,0,0
42,155,0,0,0,0,0,0,0,0,0,-1,1266,869,0,0
49,155,0,0,0,0,0,0,0,0,0,-1,1273,869,0,0
56,155,0,0,0,0,0,0,0,0,0,-1,1280,869,0,0
63,155,0,0,0,0,0,0,0,0,0,-1,1287,869,0,0
70,155,0,0,0,0,0,0,0,0,0,-1,1294,869,0,0
77,155,0,0,0,0,0,0,0,0,0,-1,1301,869,0,0
84,155,0,0,0,0,0,0,0,0,0,-1,1308,869,0,0
91,155,0,0,0,0,0,0,0,0,0,-1,1315,869,0,0
98,155,0,0,0,0,0,0,0,0,0,-1,1322,869,0,0
105,155,0,0,0,0,0,0,0,0,0,-1,1329,869,0,0
112,155,0,0,0,0,0,0,0,0,0,-1,1336,869,0,0
119,155,0,0,0,0,0,0,0,0,0,-1,1343,869,0,0
126,155,0,0,0,0,0,0,0,0,0,-1,1350,869,0,0
133,155,0,0,0,0,0,0,0,0,0,-1,1357,869,0,0
140,155,0,0,0,0,0,0,0,0,0,-1,1364,869,0,0
147,155,0,0,0,0,0,0,0,0,0,-1,1371,869,0,0
154,155,0,0,0,0,0,0,0,0,0,-1,1378,869,0,0
161,155,0,0,0,0,0,0,0,0,0,-1,1385,869,0,0
168,155,0,0,0,0,0,0,0,0,0,-1,1392,869,0,0
175,155,0,0,0,0,0,0,0,0,0,-1,1399,869,0,0
182,155,0,0,0,0,0,0,0,0,0,-1,1406,869,0,0
189,155,0,0,0,0,0,0,0,0,0,-1,1413,869,0,0
196,155,0,0,0,0,0,0,0,0,0,-1,1420,869,0,0
203,155,0,0,0,0,0,0,0,0,0,-1,1427,869,0,0
210,155,0,0,0,0,0,0,0,0,0,-1,1434,869,0,0
217,155,0,0,0,0,0,0,0,0,0,-1,1441,869,0,0
224,155,0,0,0,0,0,0,0,0,0,-1,1448,869,0,0
231,155,0,0,0,0,0,0,0,0,0,-1,1455,869,0,0
238,155,0,0,0,0,0,0,0,0,0,-1,1462,869,0,0
245,155,0,0,0,0,0,0,0,0,0,-1,1469,869,0,0
252,155,0,0,0,0,0,0,0,0,0,-1,1476,869,0,0
259,155,0,0,0,0,0,0,0,0,0,-1,1483,869,0,0
266,155,0,0,0,0,0,0,0,0,0,-1,1490,869,0,0
273,155,0,0,0,0,0,0,0,0,0,-1,1497,869,0,0
280,155,0,0,0,0,0,0,0,0,0,-1,1504,869,0,0
287,155,0,0,0,0,0,0,0,0,0,-1,1511,869,0,0
294,155,0,0,0,0,0,0,0,0,0,-1,1518,869,0,0
301,155,0,0,0,0,0,0,0,0,0,-1,1525,869,0,0
308,155,0,0,0,0,0,0,0,0,0,-1,1532,869,0,0
315,155,0,0,0,0,0,0,0,0,0,-1,1539,869,0,0
322,155,0,0,0,0,0,0,0,0,0,-1,1546,869,0,0
329,155,0,0,0,0,0,0,0,0,0,-1,1553,869,0,0
336,155,0,0,0,0,0,0,0,0,0,-1,1560,869,0,0
343,155,0,0,0,0,0,0,0,0,0,-1,1567,869,0,0
350,155,0,0,0,0,0,0,0,0,0,-1,1574,869,0,0
357,155,0,0,0,0,0,0,0,0,0,-1,1581,869,0,0
364,155,0,0,0,0,0,0,0,0,0,-1,1588,869,0,0
371,155,0,0,0,0,0,0,0,0,0,-1,1595,869,0,0
378,155,0,0,0,0,0,0,0,0,0,-1,1602,869,0,0
385,155,0,0,0,0,0,0,0,0,0,-1,1609,869,0,0
392,155,0,0,0,0,0,0,0,0,0,-1,1616,869,0,0
399,155,0,0,0,0,0,0,0,0,0,-1,1623,869,0,0
406,155,0,0,0,0,0,0,0,0,0,-1,1630,869,0,0
413,155,0,0,0,0,0,0,0,0,0,-1,1637,869,0,0
420,155,0,0,0,0,0,0,0,0,0,-1,1644,869,0,0
427,155,0,0,0,0,0,0,0,0,0,-1,1651,869,0,0
434,155,0,0,0,0,0,0,0,0,0,-1,1658,869,0,0
441,155,0,0,0,0,0,0,0,0,0,-1,1665,869,0,0
448,155,0,0,0,0,0,0,0,0,0,-1,1672,869,0,0
455,155,0,0,0,0,0,0,0,0,0,-1,1679,869,0,0
462,155,0,0,0,0,0,0,0,0,0,-1,1686,869,0,0
469,155,0,0,0,0,0,0,0,0,0,-1,1693,869,0,0
476,155,0,0,0,0,0,0,0,0,0,-1,1700,869,0,0
483,155,0,0,0,0,0,0,0,0,0,-1,1707,869,0,0
490,155,0,0,0,0,0,0,0,0,0,-1,1714,869,0,0
497,155,0,0,0,0,0,0,0,0,0,-1,1721,869,0,0
504,155,0,0,0,0,0,0,0,0,0,-1,1728,869,0,0
511,155,0,0,0,0,0,0,0,0,0,-1,1735,869,0,0
518,155,0,0,0,0,0,0,0,0,0,-1,1742,869,0,0
525,155,0,0,0,0,0,0,0,0,0,-1,1749,869,0,0
532,155,0,0,0,0,0,0,0,0,0,-1,1756,869,0,0
539,155,0,0,0,0,0,0,0,0,0,-1,1763,869,0,0
546,155,0,0,0,0,0,0,0,0,0,-1,1770,869,0,0
553,155,0,0,0,0,0,0,0,0,0,-1,1777,869,0,0
560,155,0,0,0,0,0,0,0,0,0,-1,1784,869,0,0
567,155,0,0,0,0,0,0,0,0,0,-1,1791,869,0,0
574,155,0,0,0,0,0,0,0,0,0,-1,1798,869,0,0
581,155,0,0,0,0,0,0,0,0,0,-1,1805,869,0,0
588,155,0,0,0,0,0,0,0,0,0,-1,1812,869,0,0
595,155,0,0,0,0,0,0,0,0,0,-1,1819,869,0,0
602,155,0,0,0,0,0,0,0,0,0,-1,1826,869,0,0
609,155,0,0,0,0,0,0,0,0,0,-1,1833,869,0,0
616,155,14.4325,2.01093,0.0028527,-0.00511649,-0.00492633,0.00520416,-0.00746796,-0.445345,0.00735507,0.0436802,1840,869,14.4325,-2.01094
623,155,14.412,1.9726,0.00209454,-0.00389757,-0.00382427,0.00395661,-0.00575965,-0.45312,0.00564179,0.0433281,1847,869,14.412,-1.9726
630,155,14.2271,1.99261,0.00154895,-0.00221734,-0.0028023,0.00304206,-0.00371045,-0.489555,0.00390493,0.0432429,1854,869,14.2271,-1.99261
637,155,14.1361,1.90729,2.67203e-05,-0.00145588,-0.00219315,0.00160047,-0.00302962,-0.622423,0.0027153,0.0421782,1861,869,14.1361,-1.90726
644,155,14.2469,2.03076,-0.00180524,-0.00105802,-0.00196571,0.000569267,-0.00343252,-0.87931,0.00249981,0.0389485,1868,869,14.2469,-2.03079
651,155,14.2406,1.94043,-0.00364282,-0.000926374,-0.00197681,0.000113847,-0.00468304,-1.0864,0.00316066,0.0340289,1875,869,14.2406,-1.94042
658,155,14.1428,1.93652,-0.00512238,-0.00093475,-0.00206104,-9.05448e-05,-0.00596658,-1.18204,0.00394789,0.0277247,1882,869,14.1428,-1.93653
665,155,14.1514,1.96466,-0.00622658,-0.000965886,-0.00210409,-0.000227864,-0.0069646,-1.23345,0.00456901,0.031581,1889,869,14.1513,-1.96467
672,155,14.222,1.87976,-0.00707437,-0.00101158,-0.00208465,-0.000363963,-0.00772198,-1.26959,0.00503106,0.0380092,1896,869,14.222,-1.87979
679,155,13.0645,2.37128,0,0,0,0,0,0,0,-1,1903,869,13.0645,-2.37129
686,155,12.1783,1.72742,0,0,0,0,0,0,0,-1,1910,869,12.1783,-1.72743
693,155,12.2001,1.8266,-0.00751702,-0.00103571,-0.00213717,-0.000394442,-0.00815829,-1.27929,0.00531227,0.0181983,1917,869,12.2001,-1.82659
700,155,12.2354,1.95319,-0.00701504,-0.00103127,-0.00207161,-0.000384067,-0.00766223,-1.26799,0.00498507,0.0156541,1924,869,12.2353,-1.95316
707,155,12.2808,2.08588,-0.006234,-0.00096998,-0.0020287,-0.000278871,-0.00692511,-1.24246,0.00452664,0.0116035,1931,869,12.2807,-2.08588
714,155,12.2743,2.14264,-0.00464237,-0.000636341,-0.00203286,0.000214516,-0.00549323,-1.1744,0.00373571,0.0190152,1938,869,12.2743,-2.14266
721,155,12.2015,2.26923,-0.00197187,4.78748e-05,-0.00158016,0.000913298,-0.00283729,-1.06973,0.00225838,0.0243566,1945,869,12.2015,-2.26925
728,155,12.1896,2.39709,0.00131788,0.00121922,-0.00111807,0.00238771,0.000149392,-0.763352,0.00154442,0.0197467,1952,869,12.1896,-2.39708
735,155,12.2111,2.50165,0.00456317,0.00495044,-0.000818956,0.00559834,0.00391527,-0.901485,0.00331674,0.0159607,1959,869,12.2111,-2.50164
742,155,12.2229,2.62006,0.00799717,0.00789174,-0.000419182,0.00836694,0.00752197,-0.722847,0.00531872,0.0167139,1966,869,12.2229,-2.62005
749,155,12.1936,2.74774,0.0113601,0.0119603,-5.54641e-05,0.0119654,0.0113551,-1.47941,0.00778145,0.0134718,1973,869,12.1935,-2.74774
756,155,12.1877,2.82471,0.0149645,0.0177721,0.000369964,0.01782,0.0149166,1.44195,0.0110402,0.0241777,1980,869,12.1877,-2.82473
763,155,12.3949,2.71063,0.018662,0.0255226,0.00102252,0.0256717,0.0185129,1.42595,0.0152972,0.0417519,1987,869,12.3949,-2.71062
770,155,12.6512,2.56635,0,0,0,0,0,0,0,-1,1994,869,12.6513,-2.56636
777,155,13.8903,3.4054,0.0251707,0.0480728,0.0033423,0.0485506,0.0246929,1.4288,0.0280321,0.0478222,2001,869,13.8903,-3.40539
784,155,14.1976,3.94592,0.0264595,0.0632286,0.00501223,0.0638996,0.0257885,1.43771,0.0371204,0.0476918,2008,869,14.1976,-3.94595
791,155,0,0,0,0,0,0,0,0,0,-1,2015,869,0,0
798,155,0,0,0,0,0,0,0,0,0,-1,2022,869,0,0
805,155,0,0,0,0,0,0,0,0,0,-1,2029,869,0,0
812,155,0,0,0,0,0,0,0,0,0,-1,2036,869,0,0
-700,148,0,0,0,0,0,0,0,0,0,-1,524,876,0,0
-693,148,0,0,0,0,0,0,0,0,0,-1,531,876,0,0
-686,148,0,0,0,0,0,0,0,0,0,-1,538,876,0,0
-679,148,0,0,0,0,0,0,0,0,0,-1,545,876,0,0
-672,148,-10.0114,2.52722,0,0,0,0,0,0,0,-1,552,876,-10.0114,-2.52721
-665,148,-9.83893,2.32971,0,0,0,0,0,0,0,-1,559,876,-9.83892,-2.32974
-658,148,-9.90271,2.38196,0,0,0,0,0,0,0,-1,566,876,-9.90269,-2.38194
-651,148,-7.72614,2.07617,0.0177665,0.0358159,0.0151668,0.0444399,0.00914253,1.05378,0.0270981,0.0425045,573,876,-7.72611,-2.07619
-644,148,-7.78107,1.71759,0.0153971,0.0287186,0.0124218,0.0361528,0.00796293,1.0315,0.0219348,0.0430899,580,876,-7.78106,-1.7176
-637,148,-7.88684,1.11108,0.0128605,0.022292,0.009775,0.0284293,0.00672317,1.01014,0.0171567,0.0437476,587,876,-7.88685,-1.11106
-630,148,-7.70325,0.68634,0.0103526,0.0166839,0.00743044,0.0215949,0.00544154,0.986773,0.012969,0.0378974,594,876,-7.70328,-0.686367
-623,148,-7.14868,0.833801,0.00805656,0.0120038,0.0056135,0.0159805,0.00407985,0.954442,0.0095876,0.0211917,601,876,-7.14865,-0.833817
-616,148,-7.20605,0.769226,0.00599936,0.00784805,0.00467582,0.01169,0.00215739,0.882983,0.00718303,0.0125122,608,876,-7.20607,-0.76925
-609,148,-7.23285,0.679138,0.00345878,0.00495525,0.00345075,0.00773795,0.000676083,0.892162,0.00494869,0.0113086,615,876,-7.23287,-0.679166
-602,148,-7.2403,0.564026,0.000685788,0.00132534,0.00215086,0.00318007,-0.00116894,0.859195,0.00259885,0.0113404,622,876,-7.24028,-0.564053
-595,148,-7.22662,0.482727,-0.00193624,0.000296853,0.00190864,0.00139155,-0.00303094,1.05006,0.00261115,0.00959805,629,876,-7.22661,-0.48273
-588,148,-7.23761,0.398743,-0.00442173,-0.000643595,0.00243673,0.000550555,-0.00561588,1.11513,0.00394028,0.0119732,636,876,-7.23759,-0.398764
-581,148,-7.28314,0.295349,-0.00658666,-0.00162382,0.0034196,0.000119817,-0.0083303,1.09926,0.0055939,0.0171917,643,876,-7.28317,-0.295341
-574,148,-7.21173,0.22168,-0.0087172,-0.00227224,0.00397784,-0.000375388,-0.0106141,1.12584,0.00695428,0.0218301,650,876,-7.21171,-0.221686
-567,148,-7.25134,0.156128,-0.0102106,-0.00266121,0.00427477,-0.000733092,-0.0121387,1.14707,0.00785949,0.0283759,657,876,-7.25136,-0.156103
-560,148,-7.21979,0.0504761,-0.0109514,-0.0029349,0.00452616,-0.00089732,-0.012989,1.14779,0.00837627,0.026593,664,876,-7.21976,-0.0504937
-553,148,-7.66522,0.256104,-0.011172,-0.00319139,0.00459108,-0.00109889,-0.0132645,1.14315,0.00850043,0.0364302,671,876,-7.6652,-0.256087
-546,148,-8.21082,0.559692,0,0,0,0,0,0,0,-1,678,876,-8.21083,-0.559672
-539,148,-8.54785,0.32428,-0.00990716,-0.00291911,0.00419617,-0.000952725,-0.0118735,1.13257,0.00761801,0.034681,685,876,-8.54784,-0.32425
-532,148,-8.52509,0.322144,-0.00793952,-0.00255138,0.0035237,-0.00080986,-0.00968104,1.11177,0.00620173,0.0338396,692,876,-8.52508,-0.322114
-525,148,-8.46204,0.411682,-0.00491869,-0.0018967,0.00243243,-0.000544157,-0.00627123,1.06332,0.00401175,0.0362105,699,876,-8.46201,-0.411659
-518,148,-8.56097,0.57605,-0.000574003,-0.000849853,0.000861858,0.000160897,-0.00158475,0.706055,0.00111401,0.0429594,706,876,-8.56095,-0.576051
-511,148,-8.60107,0.791199,0.00506048,0.000663852,-0.00119167,0.0053627,0.000361633,-0.248373,0.00346089,0.0432567,713,876,-8.60108,-0.791212
-504,148,-8.42242,0.755005,0.0112302,0.00273064,-0.00355973,0.0125241,0.00143674,-0.348635,0.00791404,0.042936,720,876,-8.42244,-0.755013
-497,148,0,0,0,0,0,0,0,0,0,-1,727,876,0,0
-490,148,0,0,0,0,0,0,0,0,0,-1,734,876,0,0
-483,148,0,0,0,0,0,0,0,0,0,-1,741,876,0,0
-476,148,0,0,0,0,0,0,0,0,0,-1,748,876,0,0
-469,148,0,0,0,0,0,0,0,0,0,-1,755,876,0,0
-462,148,0,0,0,0,0,0,0,0,0,-1,762,876,0,0
-455,148,0,0,0,0,0,0,0,0,0,-1,769,876,0,0
-448,148,0,0,0,0,0,0,0,0,0,-1,776,876,0,0
-441,148,0,0,0,0,0,0,0,0,0,-1,783,876,0,0
-434,148,0,0,0,0,0,0,0,0,0,-1,790,876,0,0
-427,148,0,0,0,0,0,0,0,0,0,-1,797,876,0,0
-420,148,0,0,0,0,0,0,0,0,0,-1,804,876,0,0
-413,148,0,0,0,0,0,0,0,0,0,-1,811,876,0,0
-406,148,0,0,0,0,0,0,0,0,0,-1,818,876,0,0
-399,148,0,0,0,0,0,0,0,0,0,-1,825,876,0,0
-392,148,0,0,0,0,0,0,0,0,0,-1,832,876,0,0
-385,148,0,0,0,0,0,0,0,0,0,-1,839,876,0,0
-378,148,0,0,0,0,0,0,0,0,0,-1,846,876,0,0
-371,148,0,0,0,0,0,0,0,0,0,-1,853,876,0,0
-364,148,0,0,0,0,0,0,0,0,0,-1,860,876,0,0
-357,148,0,0,0,0,0,0,0,0,0,-1,867,876,0,0
-350,148,0,0,0,0,0,0,0,0,0,-1,874,876,0,0
-343,148,0,0,0,0,0,0,0,0,0,-1,881,876,0,0
-336,148,0,0,0,0,0,0,0,0,0,-1,888,876,0,0
-329,148,0,0,0,0,0,0,0,0,0,-1,895,876,0,0
-322,148,0,0,0,0,0,0,0,0,0,-1,902,876,0,0
-315,148,0,0,0,0,0,0,0,0,0,-1,909,876,0,0
-308,148,0,0,0,0,0,0,0,0,0,-1,916,876,0,0
-301,148,0,0,0,0,0,0,0,0,0,-1,923,876,0,0
-294,148,0,0,0,0,0,0,0,0,0,-1,930,876,0,0
-287,148,0,0,0,0,0,0,0,0,0,-1,937,876,0,0
-280,148,0,0,0,0,0,0,0,0,0,-1,944,876,0,0
-273,148,0,0,0,0,0,0,0,0,0,-1,951,876,0,0
-266,148,0,0,0,0,0,0,0,0,0,-1,958,876,0,0
-259,148,0,0,0,0,0,0,0,0,0,-1,965,876,0,0
-252,148,0,0,0,0,0,0,0,0,0,-1,972,876,0,0
-245,148,0,0,0,0,0,0,0,0,0,-1,979,876,0,0
-238,148,0,0,0,0,0,0,0,0,0,-1,986,876,0,0
-231,148,0,0,0,0,0,0,0,0,0,-1,993,876,0,0
-224,148,0,0,0,0,0,0,0,0,0,-1,1000,876,0,0
-217,148,0,0,0,0,0,0,0,0,0,-1,1007,876,0,0
-210,148,0,0,0,0,0,0,0,0,0,-1,1014,876,0,0
-203,148,0,0,0,0,0,0,0,0,0,-1,1021,876,0,0
-196,148,0,0,0,0,0,0,0,0,0,-1,1028,876,0,0
-189,148,0,0,0,0,0,0,0,0,0,-1,1035,876,0,0
-182,148,0,0,0,0,0,0,0,0,0,-1,1042,876,0,0
-175,148,0,0,0,0,0,0,0,0,0,-1,1049,876,0,0
-168,148,0,0,0,0,0,0,0,0,0,-1,1056,876,0,0
-161,148,0,0,0,0,0,0,0,0,0,-1,1063,876,0,0
-154,148,0,0,0,0,0,0,0,0,0,-1,1070,876,0,0
-147,148,0,0,0,0,0,0,0,0,0,-1,1077,876,0,0
-140,148,0,0,0,0,0,0,0,0,0,-1,1084,876,0,0
-133,148,0,0,0,0,0,0,0,0,0,-1,1091,876,0,0
-126,148,0,0,0,0,0,0,0,0,0,-1,1098,876,0,0
-119,148,0,0,0,0,0,0,0,0,0,-1,1105,876,0,0
-112,148,0,0,0,0,0,0,0,0,0,-1,1112,876,0,0
-105,148,0,0,0,0,0,0,0,0,0,-1,1119,876,0,0
-98,148,0,0,0,0,0,0,0,0,0,-1,1126,876,0,0
-91,148,0,0,0,0,0,0,0,0,0,-1,1133,876,0,0
-84,148,0,0,0,0,0,0,0,0,0,-1,1140,876,0,0
-77,148,0,0,0,0,0,0,0,0,0,-1,1147,876,0,0
-70,148,0,0,0,0,0,0,0,0,0,-1,1154,876,0,0
-63,148,0,0,0,0,0,0,0,0,0,-1,1161,876,0,0
-56,148,0,0,0,0,0,0,0,0,0,-1,1168,876,0,0
-49,148,0,0,0,0,0,0,0,0,0,-1,1175,876,0,0
-42,148,0,0,0,0,0,0,0,0,0,-1,1182,876,0,0
-35,148,0,0,0,0,0,0,0,0,0,-1,1189,876,0,0
-28,148,0,0,0,0,0,0,0,0,0,-1,1196,876,0,0
-21,148,0,0,0,0,0,0,0,0,0,-1,1203,876,0,0
-14,148,0,0,0,0,0,0,0,0,0,-1,1210,876,0,0
-7,148,0,0,0,0,0,0,0,0,0,-1,1217,876,0,0
0,148,0,0,0,0,0,0,0,0,0,-1,1224,876,0,0
7,148,0,0,0,0,0,0,0,0,0,-1,1231,876,0,0
14,148,0,0,0,0,0,0,0,0,0,-1,1238,876,0,0
21,148,0,0,0,0,0,0,0,0,0,-1,1245,876,0,0
28,148,0,0,0,0,0,0,0,0,0,-1,1252,876,0,0
35,148,0,0,0,0,0,0,0,0,0,-1,1259,876,0,0
42,148,0,0,0,0,0,0,0,0,0,-1,1266,876,0,0
49,148,0,0,0,0,0,0,0,0,0,-1,1273,876,0,0
56,148,0,0,0,0,0,0,0,0,0,-1,1280,876,0,0
63,148,0,0,0,0,0,0,0,0,0,-1,1287,876,0,0
70,148,0,0,0,0,0,0,0,0,0,-1,1294,876,0,0
77,148,0,0,0,0,0,0,0,0,0,-1,1301,876,0,0
84,148,0,0,0,0,0,0,0,0,0,-1,1308,876,0,0
91,148,0,0,0,0,0,0,0,0,0,-1,1315,876,0,0
98,148,0,0,0,0,0,0,0,0,0,-1,1322,876,0,0
105,148,0,0,0,0,0,0,0,0,0,-1,1329,876,0,0
112,148,0,0,0,0,0,0,0,0,0,-1,1336,876,0,0
119,148,0,0,0,0,0,0,0,0,0,-1,1343,876,0,0
126,148,0,0,0,0,0,0,0,0,0,-1,1350,876,0,0
133,148,0,0,0,0,0,0,0,0,0,-1,1357,876,0,0
140,148,0,0,0,0,0,0,0,0,0,-1,1364,876,0,0
147,148,0,0,0,0,0,0,0,0,0,-1,1371,876,0,0
154,148,0,0,0,0,0,0,0,0,0,-1,1378,876,0,0
161,148,0,0,0,0,0,0,0,0,0,-1,1385,876,0,0
168,148,0,0,0,0,0,0,0,0,0,-1,1392,876,0,0
175,148,0,0,0,0,0,0,0,0,0,-1,1399,876,0,0
182,148,0,0,0,0,0,0,0,0,0,-1,1406,876,0,0
189,148,0,0,0,0,0,0,0,0,0,-1,1413,876,0,0
196,148,0,0,0,0,0,0,0,0,0,-1,1420,876,0,0
203,148,0,0,0,0,0,0,0,0,0,-1,1427,876,0,0
210,148,0,0,0,0,0,0,0,0,0,-1,1434,876,0,0
217,148,0,0,0,0,0,0,0,0,0,-1,1441,876,0,0
224,148,0,0,0,0,0,0,0,0,0,-1,1448,876,0,0
231,148,0,0,0,0,0,0,0,0,0,-1,1455,876,0,0
238,148,0,0,0,0,0,0,0,0,0,-1,1462,876,0,0
245,148,0,0,0,0,0,0,0,0,0,-1,1469,876,0,0
252,148,0,0,0,0,0,0,0,0,0,-1,1476,876,0,0
259,148,0,0,0,0,0,0,0,0,0,-1,1483,876,0,0
266,148,0,0,0,0,0,0,0,0,0,-1,1490,876,0,0
273,148,0,0,0,0,0,0,0,0,0,-1,1497,876,0,0
280,148,0,0,0,0,0,0,0,0,0,-1,1504,876,0,0
287,148,0,0,0,0,0,0,0,0,0,-1,1511,876,0,0
294,148,0,0,0,0,0,0,0,0,0,-1,1518,876,0,0
301,148,0,0,0,0,0,0,0,0,0,-1,1525,876,0,0
308,148,0,0,0,0,0,0,0,0,0,-1,1532,876,0,0
315,148,0,0,0,0,0,0,0,0,0,-1,1539,876,0,0
322,148,0,0,0,0,0,0,0,0,0,-1,1546,876,0,0
329,148,0,0,0,0,0,0,0,0,0,-1,1553,876,0,0
336,148,0,0,0,0,0,0,0,0,0,-1,1560,876,0,0
343,148,0,0,0,0,0,0,0,0,0,-1,1567,876,0,0
350,148,0,0,0,0,0,0,0,0,0,-1,1574,876,0,0
357,148,0,0,0,0,0,0,0,0,0,-1,1581,876,0,0
364,148,0,0,0,0,0,0,0,0,0,-1,1588,876,0,0
371,148,0,0,0,0,0,0,0,0,0,-1,1595,876,0,0
378,148,0,0,0,0,0,0,0,0,0,-1,1602,876,0,0
385,148,0,0,0,0,0,0,0,0,0,-1,1609,876,0,0
392,148,0,0,0,0,0,0,0,0,0,-1,1616,876,0,0
399,148,0,0,0,0,0,0,0,0,0,-1,1623,876,0,0
406,148,0,0,0,0,0,0,0,0,0,-1,1630,876,0,0
413,148,0,0,0,0,0,0,0,0,0,-1,1637,876,0,0
420,148,0,0,0,0,0,0,0,0,0,-1,1644,876,0,0
427,148,0,0,0,0,0,0,0,0,0,-1,1651,876,0,0
434,148,0,0,0,0,0,0,0,0,0,-1,1658,876,0,0
441,148,0,0,0,0,0,0,0,0,0,-1,1665,876,0,0
448,148,0,0,0,0,0,0,0,0,0,-1,1672,876,0,0
455,148,0,0,0,0,0,0,0,0,0,-1,1679,876,0,0
462,148,0,0,0,0,0,0,0,0,0,-1,1686,876,0,0
469,148,0,0,0,0,0,0,0,0,0,-1,1693,876,0,0
476,148,0,0,0,0,0,0,0,0,0,-1,1700,876,0,0
483,148,0,0,0,0,0,0,0,0,0,-1,1707,876,0,0
490,148,0,0,0,0,0,0,0,0,0,-1,1714,876,0,0
497,148,0,0,0,0,0,0,0,0,0,-1,1721,876,0,0
504,148,0,0,0,0,0,0,0,0,0,-1,1728,876,0,0
511,148,0,0,0,0,0,0,0,0,0,-1,1735,876,0,0
518,148,0,0,0,0,0,0,0,0,0,-1,1742,876,0,0
525,148,0,0,0,0,0,0,0,0,0,-1,1749,876,0,0
532,148,0,0,0,0,0,0,0,0,0,-1,1756,876,0,0
539,148,0,0,0,0,0,0,0,0,0,-1,1763,876,0,0
546,148,0,0,0,0,0,0,0,0,0,-1,1770,876,0,0
553,148,0,0,0,0,0,0,0,0,0,-1,1777,876,0,0
560,148,0,0,0,0,0,0,0,0,0,-1,1784,876,0,0
567,148,0,0,0,0,0,0,0,0,0,-1,1791,876,0,0
574,148,0,0,0,0,0,0,0,0,0,-1,1798,876,0,0
581,148,0,0,0,0,0,0,0,0,0,-1,1805,876,0,0
588,148,0,0,0,0,0,0,0,0,0,-1,1812,876,0,0
595,148,0,0,0,0,0,0,0,0,0,-1,1819,876,0,0
602,148,0,0,0,0,0,0,0,0,0,-1,1826,876,0,0
609,148,0,0,0,0,0,0,0,0,0,-1,1833,876,0,0
616,148,0,0,0,0,0,0,0,0,0,-1,1840,876,0,0
623,148,14.2955,2.11115,0.00231113,-0.00355172,-0.00422594,0.00452284,-0.00576343,-0.482165,0.00595316,0.0442183,1847,876,14.2956,-2.11117
630,148,14.1855,2.14221,0.00209301,-0.00184906,-0.00312486,0.00381652,-0.00357258,-0.504033,0.00426687,0.0425661,1854,876,14.1855,-2.14219
637,148,14.1416,2.07892,0.000744575,-0.00113716,-0.00245638,0.00243411,-0.00282669,-0.602502,0.00304015,0.0384182,1861,876,14.1416,-2.07893
644,148,14.0898,2.02484,-0.00108301,-0.000748754,-0.00214666,0.00123728,-0.00306904,-0.824247,0.00256013,0.0382191,1868,876,14.0899,-2.02483
651,148,14.161,1.81927,-0.00310551,-0.000624561,-0.00214831,0.000615692,-0.00434577,-1.04722,0.00312271,0.0398245,1875,876,14.161,-1.8193
658,148,14.1414,1.89612,-0.00482995,-0.000643602,-0.00222427,0.000317527,-0.00579108,-1.16292,0.0039708,0.0339902,1882,876,14.1413,-1.8961
665,148,14.115,2.0108,-0.0061499,-0.000695404,-0.00227302,0.000127629,-0.00697293,-1.22339,0.00469174,0.0241418,1889,876,14.115,-2.01079
672,148,14.1614,1.95386,-0.0071675,-0.000763975,-0.00226834,-4.18797e-05,-0.00788959,-1.2626,0.00524582,0.0272304,1896,876,14.1614,-1.95387
679,148,14.1293,1.95844,-0.00771498,-0.00069747,-0.00241445,5.29932e-05,-0.00846544,-1.26944,0.00566137,0.0383328,1903,876,14.1293,-1.95843
686,148,12.3427,1.78839,0,0,0,0,0,0,0,-1,1910,876,12.3427,-1.78838
693,148,12.3008,1.8584,-0.00807709,-0.000810732,-0.00228543,-0.000151689,-0.00873613,-1.29005,0.00577419,0.0243393,1917,876,12.3007,-1.85839
700,148,12.3478,1.97406,-0.00776721,-0.000792615,-0.00220547,-0.000153736,-0.00840609,-1.28883,0.00555352,0.014695,1924,876,12.3478,-1.97405
707,148,12.3997,2.11157,-0.00712166,-0.000745162,-0.00209079,-0.000120758,-0.00774607,-1.28058,0.00512427,0.0121931,1931,876,12.3997,-2.1116
714,148,12.3737,2.17194,-0.00557581,-0.000490515,-0.00203374,0.000222776,-0.0062891,-1.23347,0.00426893,0.011905,1938,876,12.3736,-2.17191
721,148,12.3199,2.26038,-0.00289806,3.4538e-05,-0.00150075,0.000666403,-0.00352993,-1.17229,0.002604,0.0169007,1945,876,12.3199,-2.26036
728,148,12.3082,2.37811,0.000373347,0.000977282,-0.00102857,0.00174729,-0.000396663,-0.928177,0.00131714,0.0211153,1952,876,12.3082,-2.37809
735,148,12.3207,2.50067,0.00359213,0.00464733,-0.000691253,0.00498932,0.00325013,-1.11136,0.00292428,0.0191822,1959,876,12.3207,-2.50065
742,148,12.3341,2.6427,0.00708457,0.00726868,-0.000232512,0.0074267,0.00692656,-0.973891,0.00479312,0.0203427,1966,876,12.3341,-2.6427
749,148,12.3195,2.75494,0.0104477,0.0108306,0.000155333,0.0108857,0.0103926,1.23001,0.00709846,0.0157656,1973,876,12.3195,-2.75492
756,148,12.2759,2.81091,0.0140337,0.016022,0.000521606,0.0161506,0.0139052,1.32921,0.0101021,0.020226,1980,876,12.2759,-2.81092
763,148,12.5024,2.63458,0.017614,0.0228758,0.000999905,0.0230594,0.0174304,1.38919,0.0138824,0.0407667,1987,876,12.5024,-2.63458
770,148,12.7123,2.47845,0,0,0,0,0,0,0,-1,1994,876,12.7122,-2.47848
777,148,13.9097,3.45886,0,0,0,0,0,0,0,-1,2001,876,13.9097,-3.45885
784,148,14.5243,3.83868,0,0,0,0,0,0,0,-1,2008,876,14.5243,-3.8387
791,148,15.4161,3.61328,0,0,0,0,0,0,0,-1,2015,876,15.4161,-3.61326
798,148,0,0,0,0,0,0,0,0,0,-1,2022,876,0,0
805,148,0,0,0,0,0,0,0,0,0,-1,2029,876,0,0
812,148,0,0,0,0,0,0,0,0,0,-1,2036,876,0,0
-700,141,0,0,0,0,0,0,0,0,0,-1,524,883,0,0
-693,141,0,0,0,0,0,0,0,0,0,-1,531,883,0,0
-686,141,0,0,0,0,0,0,0,0,0,-1,538,883,0,0
-679,141,0,0,0,0,0,0,0,0,0,-1,545,883,0,0
-672,141,-9.18445,1.93811,0.019813,0.0604066,-0.00206665,0.0605115,0.019708,-1.52006,0.035637,0.047625,552,883,-9.18447,-1.93814
-665,141,-9.25806,1.91528,0.0207461,0.053258,0.00390549,0.0537206,0.0202835,1.45291,0.031324,0.0497367,559,883,-9.25807,-1.91529
-658,141,-9.34741,1.95569,0.0196804,0.0449948,0.00673511,0.0466752,0.018,1.32629,0.0271819,0.0470224,566,883,-9.34742,-1.95566
-651,141,-8.54114,1.66815,0.0176629,0.0367556,0.00762287,0.0394257,0.0149928,1.23388,0.0229789,0.0434322,573,883,-8.54113,-1.66813
-644,141,-8.03369,1.3783,0.0151852,0.0290371,0.0073653,0.0322213,0.0120009,1.16273,0.0188037,0.0436296,580,883,-8.03368,-1.3783
-637,141,-7.80481,1.08838,0.0125249,0.0221293,0.0064943,0.025404,0.00925013,1.10376,0.0148465,0.043886,587,883,-7.80481,-1.0884
-630,141,-7.44031,0.947205,0.0099848,0.0162547,0.00546201,0.0194175,0.00682202,1.04592,0.0113747,0.0374637,594,883,-7.44031,-0.947187
-623,141,-7.21368,0.824219,0.00763951,0.0114296,0.00451847,0.0144343,0.00463479,0.983958,0.00850964,0.0201812,601,883,-7.21366,-0.824243
-616,141,-7.29425,0.772278,0.00545956,0.00722036,0.00412945,0.0105622,0.0021177,0.890425,0.00645247,0.0115746,608,883,-7.29425,-0.772282
-609,141,-7.31604,0.683044,0.00271541,0.00439049,0.00339271,0.00704751,5.83916e-05,0.906411,0.004679,0.0122489,615,883,-7.31604,-0.683018
-602,141,-7.32385,0.572266,-0.000187027,0.000456203,0.00211627,0.00227516,-0.00200598,0.860807,0.00247334,0.0116273,622,883,-7.32383,-0.572246
-595,141,-7.32635,0.482361,-0.00279118,-0.000381101,0.00191837,0.000679311,-0.00385159,1.06583,0.00282156,0.0101541,629,883,-7.32637,-0.482348
-588,141,-7.38666,0.406006,-0.00513369,-0.00109922,0.002377,1.13947e-06,-0.00623404,1.13725,0.00415641,0.0143223,636,883,-7.38665,-0.405976
-581,141,-7.3894,0.327515,-0.00711919,-0.00188316,0.00323395,-0.000340356,-0.00866199,1.12566,0.00566462,0.0190366,643,883,-7.38943,-0.3275
-574,141,-7.26404,0.27002,-0.00905411,-0.00235139,0.0037203,-0.000695523,-0.01071,1.15203,0.0069198,0.021016,650,883,-7.26406,-0.269995
-567,141,-7.28949,0.230835,-0.0103657,-0.00267983,0.00401276,-0.000966645,-0.0120789,1.16729,0.00775047,0.0267754,657,883,-7.28949,-0.230836
-560,141,-7.42078,0.183472,-0.0109758,-0.00291733,0.00430342,-0.0010513,-0.0128418,1.16165,0.0082332,0.0327748,664,883,-7.42076,-0.183473
-553,141,-7.95575,0.324585,-0.0110804,-0.00314833,0.00438318,-0.00120322,-0.0130255,1.15314,0.0083117,0.0429194,671,883,-7.95574,-0.324595
-546,141,-8.49603,0.427429,0,0,0,0,0,0,0,-1,678,883,-8.49603,-0.427416
-539,141,-8.49609,0.318359,-0.0094673,-0.00285668,0.00399093,-0.000980043,-0.0113439,1.13125,0.00725803,0.0286641,685,883,-8.4961,-0.318338
-532,141,-8.52936,0.332947,-0.00728324,-0.00245498,0.00331002,-0.000772251,-0.00896597,1.10047,0.00573725,0.0297313,692,883,-8.52934,-0.332927
-525,141,-8.48639,0.450195,-0.00397741,-0.0017445,0.00220726,-0.0003874,-0.00533451,1.01954,0.0034345,0.0388077,699,883,-8.48637,-0.450165
-518,141,-8.52716,0.601929,0.000702308,-0.000613601,0.000624555,0.000951532,-0.000862825,0.379681,0.00104794,0.0430595,706,883,-8.52718,-0.601921
-511,141,-8.50842,0.658752,0.00648829,0.000992964,-0.00137647,0.00681378,0.000667466,-0.232208,0.00433719,0.0416609,713,883,-8.50844,-0.658733
-504,141,-8.41528,0.546448,0.012192,0.00313616,-0.00353726,0.0134099,0.00191828,-0.331589,0.00837407,0.0430606,720,883,-8.4153,-0.546462
-497,141,0,0,0,0,0,0,0,0,0,-1,727,883,0,0
-490,141,0,0,0,0,0,0,0,0,0,-1,734,883,0,0
-483,141,0,0,0,0,0,0,0,0,0,-1,741,883,0,0
-476,141,0,0,0,0,0,0,0,0,0,-1,748,883,0,0
-469,141,0,0,0,0,0,0,0,0,0,-1,755,883,0,0
-462,141,0,0,0,0,0,0,0,0,0,-1,762,883,0,0
-455,141,0,0,0,0,0,0,0,0,0,-1,769,883,0,0
-448,141,0,0,0,0,0,0,0,0,0,-1,776,883,0,0
-441,141,0,0,0,0,0,0,0,0,0,-1,783,883,0,0
-434,141,0,0,0,0,0,0,0,0,0,-1,790,883,0,0
-427,141,0,0,0,0,0,0,0,0,0,-1,797,883,0,0
-420,141,0,0,0,0,0,0,0,0,0,-1,804,883,0,0
-413,141,0,0,0,0,0,0,0,0,0,-1,811,883,0,0
-406,141,0,0,0,0,0,0,0,0,0,-1,818,883,0,0
-399,141,0,0,0,0,0,0,0,0,0,-1,825,883,0,0
-392,141,0,0,0,0,0,0,0,0,0,-1,832,883,0,0
-385,141,0,0,0,0,0,0,0,0,0,-1,839,883,0,0
-378,141,0,0,0,0,0,0,0,0,0,-1,846,883,0,0
-371,141,0,0,0,0,0,0,0,0,0,-1,853,883,0,0
-364,141,0,0,0,0,0,0,0,0,0,-1,860,883,0,0
-357,141,0,0,0,0,0,0,0,0,0,-1,867,883,0,0
-350,141,0,0,0,0,0,0,0,0,0,-1,874,883,0,0
-343,141,0,0,0,0,0,0,0,0,0,-1,881,883,0,0
-336,141,0,0,0,0,0,0,0,0,0,-1,888,883,0,0
-329,141,0,0,0,0,0,0,0,0,0,-1,895,883,0,0
-322,141,0,0,0,0,0,0,0,0,0,-1,902,883,0,0
-315,141,0,0,0,0,0,0,0,0,0,-1,909,883,0,0
-308,141,0,0,0,0,0,0,0,0,0,-1,916,883,0,0
-301,141,0,0,0,0,0,0,0,0,0,-1,923,883,0,0
-294,141,0,0,0,0,0,0,0,0,0,-1,930,883,0,0
-287,141,0,0,0,0,0,0,0,0,0,-1,937,883,0,0
-280,141,0,0,0,0,0,0,0,0,0,-1,944,883,0,0
-273,141,0,0,0,0,0,0,0,0,0,-1,951,883,0,0
-266,141,0,0,0,0,0,0,0,0,0,-1,958,883,0,0
-259,141,0,0,0,0,0,0,0,0,0,-1,965,883,0,0
-252,141,0,0,0,0,0,0,0,0,0,-1,972,883,0,0
-245,141,0,0,0,0,0,0,0,0,0,-1,979,883,0,0
-238,141,0,0,0,0,0,0,0,0,0,-1,986,883,0,0
-231,141,0,0,0,0,0,0,0,0,0,-1,993,883,0,0
-224,141,0,0,0,0,0,0,0,0,0,-1,1000,883,0,0
-217,141,0,0,0,0,0,0,0,0,0,-1,1007,883,0,0
-210,141,0,0,0,0,0,0,0,0,0,-1,1014,883,0,0
-203,141,0,0,0,0,0,0,0,0,0,-1,1021,883,0,0
-196,141,0,0,0,0,0,0,0,0,0,-1,1028,883,0,0
-189,141,0,0,0,0,0,0,0,0,0,-1,1035,883,0,0
-182,141,0,0,0,0,0,0,0,0,0,-1,1042,883,0,0
-175,141,0,0,0,0,0,0,0,0,0,-1,1049,883,0,0
-168,141,0,0,0,0,0,0,0,0,0,-1,1056,883,0,0
-161,141,0,0,0,0,0,0,0,0,0,-1,1063,883,0,0
-154,141,0,0,0,0,0,0,0,0,0,-1,1070,883,0,0
-147,141,0,0,0,0,0,0,0,0,0,-1,1077,883,0,0
-140,141,0,0,0,0,0,0,0,0,0,-1,1084,883,0,0
-133,141,0,0,0,0,0,0,0,0,0,-1,1091,883,0,0
-126,141,0,0,0,0,0,0,0,0,0,-1,1098,883,0,0
-119,141,0,0,0,0,0,0,0,0,0,-1,1105,883,0,0
-112,141,0,0,0,0,0,0,0,0,0,-1,1112,883,0,0
-105,141,0,0,0,0,0,0,0,0,0,-1,1119,883,0,0
-98,141,0,0,0,0,0,0,0,0,0,-1,1126,883,0,0
-91,141,0,0,0,0,0,0,0,0,0,-1,1133,883,0,0
-84,141,0,0,0,0,0,0,0,0,0,-1,1140,883,0,0
-77,141,0,0,0,0,0,0,0,0,0,-1,1147,883,0,0
-70,141,0,0,0,0,0,0,0,0,0,-1,1154,883,0,0
-63,141,0,0,0,0,0,0,0,0,0,-1,1161,883,0,0
-56,141,0,0,0,0,0,0,0,0,0,-1,1168,883,0,0
-49,141,0,0,0,0,0,0,0,0,0,-1,1175,883,0,0
-42,141,0,0,0,0,0,0,0,0,0,-1,1182,883,0,0
-35,141,0,0,0,0,0,0,0,0,0,-1,1189,883,0,0
-28,141,0,0,0,0,0,0,0,0,0,-1,1196,883,0,0
-21,141,0,0,0,0,0,0,0,0,0,-1,1203,883,0,0
-14,141,0,0,0,0,0,0,0,0,0,-1,1210,883,0,0
-7,141,0,0,0,0,0,0,0,0,0,-1,1217,883,0,0
0,141,0,0,0,0,0,0,0,0,0,-1,1224,883,0,0
7,141,0,0,0,0,0,0,0,0,0,-1,1231,883,0,0
14,141,0,0,0,0,0,0,0,0,0,-1,1238,883,0,0
21,141,0,0,0,0,0,0,0,0,0,-1,1245,883,0,0
28,141,0,0,0,0,0,0,0,0,0,-1,1252,883,0,0
35,141,0,0,0,0,0,0,0,0,0,-1,1259,883,0,0
42,141,0,0,0,0,0,0,0,0,0,-1,1266,883,0,0
49,141,0,0,0,0,0,0,0,0,0,-1,1273,883,0,0
56,141,0,0,0,0,0,0,0,0,0,-1,1280,883,0,0
63,141,0,0,0,0,0,0,0,0,0,-1,1287,883,0,0
70,141,0,0,0,0,0,0,0,0,0,-1,1294,883,0,0
77,141,0,0,0,0,0,0,0,0,0,-1,1301,883,0,0
84,141,0,0,0,0,0,0,0,0,0,-1,1308,883,0,0
91,141,0,0,0,0,0,0,0,0,0,-1,1315,883,0,0
98,141,0,0,0,0,0,0,0,0,0,-1,1322,883,0,0
105,141,0,0,0,0,0,0,0,0,0,-1,1329,883,0,0
112,141,0,0,0,0,0,0,0,0,0,-1,1336,883,0,0
119,141,0,0,0,0,0,0,0,0,0,-1,1343,883,0,0
126,141,0,0,0,0,0,0,0,0,0,-1,1350,883,0,0
133,141,0,0,0,0,0,0,0,0,0,-1,1357,883,0,0
140,141,0,0,0,0,0,0,0,0,0,-1,1364,883,0,0
147,141,0,0,0,0,0,0,0,0,0,-1,1371,883,0,0
154,141,0,0,0,0,0,0,0,0,0,-1,1378,883,0,0
161,141,0,0,0,0,0,0,0,0,0,-1,1385,883,0,0
168,141,0,0,0,0,0,0,0,0,0,-1,1392,883,0,0
175,141,0,0,0,0,0,0,0,0,0,-1,1399,883,0,0
182,141,0,0,0,0,0,0,0,0,0,-1,1406,883,0,0
189,141,0,0,0,0,0,0,0,0,0,-1,1413,883,0,0
196,141,0,0,0,0,0,0,0,0,0,-1,1420,883,0,0
203,141,0,0,0,0,0,0,0,0,0,-1,1427,883,0,0
210,141,0,0,0,0,0,0,0,0,0,-1,1434,883,0,0
217,141,0,0,0,0,0,0,0,0,0,-1,1441,883,0,0
224,141,0,0,0,0,0,0,0,0,0,-1,1448,883,0,0
231,141,0,0,0,0,0,0,0,0,0,-1,1455,883,0,0
238,141,0,0,0,0,0,0,0,0,0,-1,1462,883,0,0
245,141,0,0,0,0,0,0,0,0,0,-1,1469,883,0,0
252,141,0,0,0,0,0,0,0,0,0,-1,1476,883,0,0
259,141,0,0,0,0,0,0,0,0,0,-1,1483,883,0,0
266,141,0,0,0,0,0,0,0,0,0,-1,1490,883,0,0
273,141,0,0,0,0,0,0,0,0,0,-1,1497,883,0,0
280,141,0,0,0,0,0,0,0,0,0,-1,1504,883,0,0
287,141,0,0,0,0,0,0,0,0,0,-1,1511,883,0,0
294,141,0,0,0,0,0,0,0,0,0,-1,1518,883,0,0
301,141,0,0,0,0,0,0,0,0,0,-1,1525,883,0,0
308,141,0,0,0,0,0,0,0,0,0,-1,1532,883,0,0
315,141,0,0,0,0,0,0,0,0,0,-1,1539,883,0,0
322,141,0,0,0,0,0,0,0,0,0,-1,1546,883,0,0
329,141,0,0,0,0,0,0,0,0,0,-1,1553,883,0,0
336,141,0,0,0,0,0,0,0,0,0,-1,1560,883,0,0
343,141,0,0,0,0,0,0,0,0,0,-1,1567,883,0,0
350,141,0,0,0,0,0,0,0,0,0,-1,1574,883,0,0
357,141,0,0,0,0,0,0,0,0,0,-1,1581,883,0,0
364,141,0,0,0,0,0,0,0,0,0,-1,1588,883,0,0
371,141,0,0,0,0,0,0,0,0,0,-1,1595,883,0,0
378,141,0,0,0,0,0,0,0,0,0,-1,1602,883,0,0
385,141,0,0,0,0,0,0,0,0,0,-1,1609,883,0,0
392,141,0,0,0,0,0,0,0,0,0,-1,1616,883,0,0
399,141,0,0,0,0,0,0,0,0,0,-1,1623,883,0,0
406,141,0,0,0,0,0,0,0,0,0,-1,1630,883,0,0
413,141,0,0,0,0,0,0,0,0,0,-1,1637,883,0,0
420,141,0,0,0,0,0,0,0,0,0,-1,1644,883,0,0
427,141,0,0,0,0,0,0,0,0,0,-1,1651,883,0,0
434,141,0,0,0,0,0,0,0,0,0,-1,1658,883,0,0
441,141,0,0,0,0,0,0,0,0,0,-1,1665,883,0,0
448,141,0,0,0,0,0,0,0,0,0,-1,1672,883,0,0
455,141,0,0,0,0,0,0,0,0,0,-1,1679,883,0,0
462,141,0,0,0,0,0,0,0,0,0,-1,1686,883,0,0
469,141,0,0,0,0,0,0,0,0,0,-1,1693,883,0,0
476,141,0,0,0,0,0,0,0,0,0,-1,1700,883,0,0
483,141,0,0,0,0,0,0,0,0,0,-1,1707,883,0,0
490,141,0,0,0,0,0,0,0,0,0,-1,1714,883,0,0
497,141,0,0,0,0,0,0,0,0,0,-1,1721,883,0,0
504,141,0,0,0,0,0,0,0,0,0,-1,1728,883,0,0
511,141,0,0,0,0,0,0,0,0,0,-1,1735,883,0,0
518,141,0,0,0,0,0,0,0,0,0,-1,1742,883,0,0
525,141,0,0,0,0,0,0,0,0,0,-1,1749,883,0,0
532,141,0,0,0,0,0,0,0,0,0,-1,1756,883,0,0
539,141,0,0,0,0,0,0,0,0,0,-1,1763,883,0,0
546,141,0,0,0,0,0,0,0,0,0,-1,1770,883,0,0
553,141,0,0,0,0,0,0,0,0,0,-1,1777,883,0,0
560,141,0,0,0,0,0,0,0,0,0,-1,1784,883,0,0
567,141,0,0,0,0,0,0,0,0,0,-1,1791,883,0,0
574,141,0,0,0,0,0,0,0,0,0,-1,1798,883,0,0
581,141,0,0,0,0,0,0,0,0,0,-1,1805,883,0,0
588,141,0,0,0,0,0,0,0,0,0,-1,1812,883,0,0
595,141,0,0,0,0,0,0,0,0,0,-1,1819,883,0,0
602,141,0,0,0,0,0,0,0,0,0,-1,1826,883,0,0
609,141,0,0,0,0,0,0,0,0,0,-1,1833,883,0,0
616,141,0,0,0,0,0,0,0,0,0,-1,1840,883,0,0
623,141,14.2084,2.0899,0.00241787,-0.00305213,-0.00403927,0.00456098,-0.00519524,-0.487802,0.00563672,0.0478737,1847,883,14.2084,-2.0899
630,141,14.0828,2.20703,0.00244934,-0.00145848,-0.00304792,0.00411587,-0.00312501,-0.500365,0.00419355,0.0460466,1854,883,14.0827,-2.20705
637,141,14.025,2.11444,0.0013272,-0.000868258,-0.00245974,0.00292304,-0.00246411,-0.575521,0.00311403,0.0422992,1861,883,14.025,-2.11443
644,141,14.1045,1.81604,-0.000361121,-0.00054621,-0.00214203,0.00169036,-0.00259769,-0.763809,0.00249411,0.0405927,1868,883,14.1045,-1.81601
651,141,14.3099,1.82532,-0.00248897,-0.000457557,-0.00218157,0.000933169,-0.0038797,-1.00327,0.00294719,0.041398,1875,883,14.31,-1.8253
658,141,14.3058,1.83521,-0.0044674,-0.000480806,-0.00228854,0.0005608,-0.005509,-1.14368,0.00387316,0.0377186,1882,883,14.3057,-1.83523
665,141,14.1218,1.90765,-0.00602779,-0.00055206,-0.0023585,0.000323722,-0.00690357,-1.21525,0.00471399,0.02651,1889,883,14.1218,-1.90768
672,141,14.1387,1.98346,-0.00723993,-0.000633579,-0.00237275,0.000130296,-0.0080038,-1.25934,0.00537982,0.0187334,1896,883,14.1387,-1.98348
679,141,14.0975,1.97052,-0.00795996,-0.000563183,-0.00251989,0.000213684,-0.00873682,-1.27175,0.00589707,0.0187572,1903,883,14.0976,-1.9705
686,141,12.7123,2.1745,0,0,0,0,0,0,0,-1,1910,883,12.7123,-2.17448
693,141,12.4706,2.0575,-0.00868949,-0.0007061,-0.00235849,-6.14058e-05,-0.00933418,-1.30396,0.00620242,0.0397749,1917,883,12.4706,-2.05752
700,141,12.4274,1.96747,-0.0084842,-0.000661055,-0.00229314,-3.8438e-05,-0.00910681,-1.30567,0.00605844,0.0149398,1924,883,12.4273,-1.96745
707,141,12.4528,2.03857,-0.00790377,-0.000592069,-0.00217868,7.88597e-06,-0.00850373,-1.30208,0.00567178,0.0127016,1931,883,12.4528,-2.03857
714,141,12.4009,2.12659,-0.00636724,-0.000383706,-0.00210647,0.000283471,-0.00703442,-1.26406,0.0047869,0.0131906,1938,883,12.4009,-2.12656
721,141,12.4152,2.25232,-0.00365669,2.53961e-05,-0.00158478,0.000613545,-0.00424484,-1.21543,0.00305501,0.0127431,1945,883,12.4151,-2.25235
728,141,12.4307,2.36322,-0.000396295,0.000749468,-0.00122576,0.00152961,-0.00117644,-1.004,0.00156677,0.0150785,1952,883,12.4307,-2.36321
735,141,12.4424,2.52716,0.00281621,0.00421,-0.00101571,0.0047449,0.00228131,-1.08607,0.00274015,0.0148803,1959,883,12.4424,-2.52714
742,141,12.4338,2.64093,0.00638717,0.00641537,-0.000696791,0.0070982,0.00570434,-0.795515,0.00434273,0.0156883,1966,883,12.4338,-2.64094
749,141,12.4172,2.72858,0.00976335,0.0093667,-0.000480906,0.0100852,0.00904483,-0.589823,0.00640491,0.012441,1973,883,12.4172,-2.72857
756,141,12.365,2.81842,0.0132755,0.0137719,-0.000358013,0.0139593,0.0130881,-1.08851,0.00902983,0.0181147,1980,883,12.365,-2.81843
763,141,12.4678,3.07898,0.0165504,0.0195405,-0.000239205,0.0195595,0.0165314,-1.49147,0.0121567,0.0401203,1987,883,12.4678,-3.07896
770,141,13.5033,2.99225,0.019613,0.0268632,1.06423e-05,0.0268632,0.019613,1.56933,0.0160476,0.0445836,1994,883,13.5033,-2.99227
777,141,14.1163,3.38611,0.0220192,0.0358526,0.0004061,0.0358645,0.0220073,1.54147,0.0208839,0.0470304,2001,883,14.1164,-3.38613
784,141,14.7405,3.76605,0,0,0,0,0,0,0,-1,2008,883,14.7405,-3.76606
791,141,15.3553,3.48114,0,0,0,0,0,0,0,-1,2015,883,15.3553,-3.48115
798,141,0,0,0,0,0,0,0,0,0,-1,2022,883,0,0
805,141,0,0,0,0,0,0,0,0,0,-1,2029,883,0,0
812,141,0,0,0,0,0,0,0,0,0,-1,2036,883,0,0
-700,134,0,0,0,0,0,0,0,0,0,-1,524,890,0,0
-693,134,0,0,0,0,0,0,0,0,0,-1,531,890,0,0
-686,134,0,0,0,0,0,0,0,0,0,-1,538,890,0,0
-679,134,0,0,0,0,0,0,0,0,0,-1,545,890,0,0
-672,134,-8.52563,1.4032,0.0198853,0.0596546,-0.020228,0.0681349,0.011405,-1.17382,0.0421392,0.0491398,552,890,-8.52565,-1.40317
-665,134,-8.56079,1.38678,0.0214267,0.0533429,-0.0105518,0.0565159,0.0182536,-1.27869,0.0333042,0.0471798,559,890,-8.56077,-1.3868
-658,134,-8.73547,1.48578,0.0206134,0.0454693,-0.00432999,0.046202,0.0198807,-1.40317,0.026761,0.0414917,566,890,-8.73546,-1.48575
-651,134,-8.78656,1.44098,0.0185961,0.0372714,-0.000540672,0.037287,0.0185804,-1.54188,0.0215277,0.0418606,573,890,-8.78655,-1.44095
-644,134,-8.40149,1.26605,0.0159685,0.0294122,0.00155215,0.0295891,0.0157916,1.45733,0.0170962,0.0424614,580,890,-8.40148,-1.26604
-637,134,-8.02301,1.11902,0.0130953,0.0223094,0.00248872,0.0229387,0.012466,1.32315,0.0132603,0.0448795,587,890,-8.023,-1.11903
-630,134,-7.51624,0.995789,0.0104184,0.0163206,0.00286634,0.0174835,0.00925555,1.18538,0.0100999,0.0372135,594,890,-7.51621,-0.99576
-623,134,-7.33954,0.87085,0.00788205,0.0113971,0.00295714,0.0130795,0.00619957,1.05352,0.00755489,0.0195633,601,890,-7.33952,-0.870873
-616,134,-7.40063,0.771423,0.00542363,0.0071246,0.00325372,0.00963714,0.00291108,0.913232,0.00570748,0.0111496,608,890,-7.40062,-0.771405
-609,134,-7.41998,0.676025,0.0023501,0.00431848,0.0031192,0.00660507,6.35094e-05,0.938218,0.00438237,0.0107054,615,890,-7.41999,-0.676001
-602,134,-7.42102,0.575562,-0.000778558,5.11309e-05,0.00197338,0.0016528,-0.00238022,0.889,0.00234106,0.0115496,622,890,-7.42102,-0.575585
-595,134,-7.41547,0.494812,-0.00339465,-0.0006787,0.00184943,0.000257771,-0.00433112,1.10208,0.00297706,0.0112254,629,890,-7.4155,-0.494801
-588,134,-7.50568,0.418884,-0.00557872,-0.00124678,0.00225622,-0.000285138,-0.00654036,1.16789,0.00426837,0.0185312,636,890,-7.50567,-0.41889
-581,134,-7.48322,0.281433,-0.00737874,-0.0018865,0.00297985,-0.000580383,-0.00868486,1.1577,0.00560647,0.0230077,643,890,-7.48323,-0.281444
-574,134,-7.41705,0.210083,-0.0091128,-0.0022,0.00338347,-0.000819603,-0.0104932,1.18343,0.0067389,0.0222825,650,890,-7.41705,-0.21011
-567,134,-7.1532,0.0493164,0,0,0,0,0,0,0,-1,657,890,-7.15318,-0.0493258
-560,134,-7.63599,0.344116,-0.0107142,-0.00263433,0.00392654,-0.00104055,-0.012308,1.18521,0.0078814,0.0345156,664,890,-7.636,-0.344123
-553,134,-8.29211,0.485352,-0.0106721,-0.00280311,0.00397121,-0.00114736,-0.0123278,1.17577,0.00786404,0.0461767,671,890,-8.29214,-0.485327
-546,134,-8.47443,0.324341,-0.0101151,-0.0027121,0.00388386,-0.00104838,-0.0117788,1.16608,0.00752743,0.026213,678,890,-8.47442,-0.324313
-539,134,-8.48126,0.299438,-0.00868636,-0.00237023,0.00348637,-0.000824239,-0.0102323,1.15341,0.00656409,0.0181687,685,890,-8.48126,-0.29945
-532,134,-8.5199,0.310974,-0.00631134,-0.00184635,0.00277091,-0.000520479,-0.00763721,1.1245,0.00492715,0.0249151,692,890,-8.51989,-0.310994
-525,134,-8.50275,0.361938,-0.00282183,-0.000979736,0.00165856,-3.64205e-06,-0.00379793,1.03886,0.00253074,0.0385618,699,890,-8.50273,-0.361944
-518,134,-8.45892,0.426819,0.00197358,0.000363737,0.000114861,0.00198174,0.000355584,0.0708706,0.00122003,0.0432073,706,890,-8.45892,-0.426797
-511,134,-8.49017,0.537598,0.00750923,0.00223472,-0.00168965,0.00800407,0.00173988,-0.2849,0.00486101,0.0437932,713,890,-8.49016,-0.537586
-504,134,0,0,0,0,0,0,0,0,0,-1,720,890,0,0
-497,134,0,0,0,0,0,0,0,0,0,-1,727,890,0,0
-490,134,0,0,0,0,0,0,0,0,0,-1,734,890,0,0
-483,134,0,0,0,0,0,0,0,0,0,-1,741,890,0,0
-476,134,0,0,0,0,0,0,0,0,0,-1,748,890,0,0
-469,134,0,0,0,0,0,0,0,0,0,-1,755,890,0,0
-462,134,0,0,0,0,0,0,0,0,0,-1,762,890,0,0
-455,134,0,0,0,0,0,0,0,0,0,-1,769,890,0,0
-448,134,0,0,0,0,0,0,0,0,0,-1,776,890,0,0
-441,134,0,0,0,0,0,0,0,0,0,-1,783,890,0,0
-434,134,0,0,0,0,0,0,0,0,0,-1,790,890,0,0
-427,134,0,0,0,0,0,0,0,0,0,-1,797,890,0,0
-420,134,0,0,0,0,0,0,0,0,0,-1,804,890,0,0
-413,134,0,0,0,0,0,0,0,0,0,-1,811,890,0,0
-406,134,0,0,0,0,0,0,0,0,0,-1,818,890,0,0
-399,134,0,0,0,0,0,0,0,0,0,-1,825,890,0,0
-392,134,0,0,0,0,0,0,0,0,0,-1,832,890,0,0
-385,134,0,0,0,0,0,0,0,0,0,-1,839,890,0,0
-378,134,0,0,0,0,0,0,0,0,0,-1,846,890,0,0
-371,134,0,0,0,0,0,0,0,0,0,-1,853,890,0,0
-364,134,0,0,0,0,0,0,0,0,0,-1,860,890,0,0
-357,134,0,0,0,0,0,0,0,0,0,-1,867,890,0,0
-350,134,0,0,0,0,0,0,0,0,0,-1,874,890,0,0
-343,134,0,0,0,0,0,0,0,0,0,-1,881,890,0,0
-336,134,0,0,0,0,0,0,0,0,0,-1,888,890,0,0
-329,134,0,0,0,0,0,0,0,0,0,-1,895,890,0,0
-322,134,0,0,0,0,0,0,0,0,0,-1,902,890,0,0
-315,134,0,0,0,0,0,0,0,0,0,-1,909,890,0,0
-308,134,0,0,0,0,0,0,0,0,0,-1,916,890,0,0
-301,134,0,0,0,0,0,0,0,0,0,-1,923,890,0,0
-294,134,0,0,0,0,0,0,0,0,0,-1,930,890,0,0
-287,134,0,0,0,0,0,0,0,0,0,-1,937,890,0,0
-280,134,0,0,0,0,0,0,0,0,0,-1,944,890,0,0
-273,134,0,0,0,0,0,0,0,0,0,-1,951,890,0,0
-266,134,0,0,0,0,0,0,0,0,0,-1,958,890,0,0
-259,134,0,0,0,0,0,0,0,0,0,-1,965,890,0,0
-252,134,0,0,0,0,0,0,0,0,0,-1,972,890,0,0
-245,134,0,0,0,0,0,0,0,0,0,-1,979,890,0,0
-238,134,0,0,0,0,0,0,0,0,0,-1,986,890,0,0
-231,134,0,0,0,0,0,0,0,0,0,-1,993,890,0,0
-224,134,0,0,0,0,0,0,0,0,0,-1,1000,890,0,0
-217,134,0,0,0,0,0,0,0,0,0,-1,1007,890,0,0
-210,134,0,0,0,0,0,0,0,0,0,-1,1014,890,0,0
-203,134,0,0,0,0,0,0,0,0,0,-1,1021,890,0,0
-196,134,0,0,0,0,0,0,0,0,0,-1,1028,890,0,0
-189,134,0,0,0,0,0,0,0,0,0,-1,1035,890,0,0
-182,134,0,0,0,0,0,0,0,0,0,-1,1042,890,0,0
-175,134,0,0,0,0,0,0,0,0,0,-1,1049,890,0,0
-168,134,0,0,0,0,0,0,0,0,0,-1,1056,890,0,0
-161,134,0,0,0,0,0,0,0,0,0,-1,1063,890,0,0
-154,134,0,0,0,0,0,0,0,0,0,-1,1070,890,0,0
-147,134,0,0,0,0,0,0,0,0,0,-1,1077,890,0,0
-140,134,0,0,0,0,0,0,0,0,0,-1,1084,890,0,0
-133,134,0,0,0,0,0,0,0,0,0,-1,1091,890,0,0
-126,134,0,0,0,0,0,0,0,0,0,-1,1098,890,0,0
-119,134,0,0,0,0,0,0,0,0,0,-1,1105,890,0,0
-112,134,0,0,0,0,0,0,0,0,0,-1,1112,890,0,0
-105,134,0,0,0,0,0,0,0,0,0,-1,1119,890,0,0
-98,134,0,0,0,0,0,0,0,0,0,-1,1126,890,0,0
-91,134,0,0,0,0,0,0,0,0,0,-1,1133,890,0,0
-84,134,0,0,0,0,0,0,0,0,0,-1,1140,890,0,0
-77,134,0,0,0,0,0,0,0,0,0,-1,1147,890,0,0
-70,134,0,0,0,0,0,0,0,0,0,-1,1154,890,0,0
-63,134,0,0,0,0,0,0,0,0,0,-1,1161,890,0,0
-56,134,0,0,0,0,0,0,0,0,0,-1,1168,890,0,0
-49,134,0,0,0,0,0,0,0,0,0,-1,1175,890,0,0
-42,134,0,0,0,0,0,0,0,0,0,-1,1182,890,0,0
-35,134,0,0,0,0,0,0,0,0,0,-1,1189,890,0,0
-28,134,0,0,0,0,0,0,0,0,0,-1,1196,890,0,0
-21,134,0,0,0,0,0,0,0,0,0,-1,1203,890,0,0
-14,134,0,0,0,0,0,0,0,0,0,-1,1210,890,0,0
-7,134,0,0,0,0,0,0,0,0,0,-1,1217,890,0,0
0,134,0,0,0,0,0,0,0,0,0,-1,1224,890,0,0
7,134,0,0,0,0,0,0,0,0,0,-1,1231,890,0,0
14,134,0,0,0,0,0,0,0,0,0,-1,1238,890,0,0
21,134,0,0,0,0,0,0,0,0,0,-1,1245,890,0,0
28,134,0,0,0,0,0,0,0,0,0,-1,1252,890,0,0
35,134,0,0,0,0,0,0,0,0,0,-1,1259,890,0,0
42,134,0,0,0,0,0,0,0,0,0,-1,1266,890,0,0
49,134,0,0,0,0,0,0,0,0,0,-1,1273,890,0,0
56,134,0,0,0,0,0,0,0,0,0,-1,1280,890,0,0
63,134,0,0,0,0,0,0,0,0,0,-1,1287,890,0,0
70,134,0,0,0,0,0,0,0,0,0,-1,1294,890,0,0
77,134,0,0,0,0,0,0,0,0,0,-1,1301,890,0,0
84,134,0,0,0,0,0,0,0,0,0,-1,1308,890,0,0
91,134,0,0,0,0,0,0,0,0,0,-1,1315,890,0,0
98,134,0,0,0,0,0,0,0,0,0,-1,1322,890,0,0
105,134,0,0,0,0,0,0,0,0,0,-1,1329,890,0,0
112,134,0,0,0,0,0,0,0,0,0,-1,1336,890,0,0
119,134,0,0,0,0,0,0,0,0,0,-1,1343,890,0,0
126,134,0,0,0,0,0,0,0,0,0,-1,1350,890,0,0
133,134,0,0,0,0,0,0,0,0,0,-1,1357,890,0,0
140,134,0,0,0,0,0,0,0,0,0,-1,1364,890,0,0
147,134,0,0,0,0,0,0,0,0,0,-1,1371,890,0,0
154,134,0,0,0,0,0,0,0,0,0,-1,1378,890,0,0
161,134,0,0,0,0,0,0,0,0,0,-1,1385,890,0,0
168,134,0,0,0,0,0,0,0,0,0,-1,1392,890,0,0
175,134,0,0,0,0,0,0,0,0,0,-1,1399,890,0,0
182,134,0,0,0,0,0,0,0,0,0,-1,1406,890,0,0
189,134,0,0,0,0,0,0,0,0,0,-1,1413,890,0,0
196,134,0,0,0,0,0,0,0,0,0,-1,1420,890,0,0
203,134,0,0,0,0,0,0,0,0,0,-1,1427,890,0,0
210,134,0,0,0,0,0,0,0,0,0,-1,1434,890,0,0
217,134,0,0,0,0,0,0,0,0,0,-1,1441,890,0,0
224,134,0,0,0,0,0,0,0,0,0,-1,1448,890,0,0
231,134,0,0,0,0,0,0,0,0,0,-1,1455,890,0,0
238,134,0,0,0,0,0,0,0,0,0,-1,1462,890,0,0
245,134,0,0,0,0,0,0,0,0,0,-1,1469,890,0,0
252,134,0,0,0,0,0,0,0,0,0,-1,1476,890,0,0
259,134,0,0,0,0,0,0,0,0,0,-1,1483,890,0,0
266,134,0,0,0,0,0,0,0,0,0,-1,1490,890,0,0
273,134,0,0,0,0,0,0,0,0,0,-1,1497,890,0,0
280,134,0,0,0,0,0,0,0,0,0,-1,1504,890,0,0
287,134,0,0,0,0,0,0,0,0,0,-1,1511,890,0,0
294,134,0,0,0,0,0,0,0,0,0,-1,1518,890,0,0
301,134,0,0,0,0,0,0,0,0,0,-1,1525,890,0,0
308,134,0,0,0,0,0,0,0,0,0,-1,1532,890,0,0
315,134,0,0,0,0,0,0,0,0,0,-1,1539,890,0,0
322,134,0,0,0,0,0,0,0,0,0,-1,1546,890,0,0
329,134,0,0,0,0,0,0,0,0,0,-1,1553,890,0,0
336,134,0,0,0,0,0,0,0,0,0,-1,1560,890,0,0
343,134,0,0,0,0,0,0,0,0,0,-1,1567,890,0,0
350,134,0,0,0,0,0,0,0,0,0,-1,1574,890,0,0
357,134,0,0,0,0,0,0,0,0,0,-1,1581,890,0,0
364,134,0,0,0,0,0,0,0,0,0,-1,1588,890,0,0
371,134,0,0,0,0,0,0,0,0,0,-1,1595,890,0,0
378,134,0,0,0,0,0,0,0,0,0,-1,1602,890,0,0
385,134,0,0,0,0,0,0,0,0,0,-1,1609,890,0,0
392,134,0,0,0,0,0,0,0,0,0,-1,1616,890,0,0
399,134,0,0,0,0,0,0,0,0,0,-1,1623,890,0,0
406,134,0,0,0,0,0,0,0,0,0,-1,1630,890,0,0
413,134,0,0,0,0,0,0,0,0,0,-1,1637,890,0,0
420,134,0,0,0,0,0,0,0,0,0,-1,1644,890,0,0
427,134,0,0,0,0,0,0,0,0,0,-1,1651,890,0,0
434,134,0,0,0,0,0,0,0,0,0,-1,1658,890,0,0
441,134,0,0,0,0,0,0,0,0,0,-1,1665,890,0,0
448,134,0,0,0,0,0,0,0,0,0,-1,1672,890,0,0
455,134,0,0,0,0,0,0,0,0,0,-1,1679,890,0,0
462,134,0,0,0,0,0,0,0,0,0,-1,1686,890,0,0
469,134,0,0,0,0,0,0,0,0,0,-1,1693,890,0,0
476,134,0,0,0,0,0,0,0,0,0,-1,1700,890,0,0
483,134,0,0,0,0,0,0,0,0,0,-1,1707,890,0,0
490,134,0,0,0,0,0,0,0,0,0,-1,1714,890,0,0
497,134,0,0,0,0,0,0,0,0,0,-1,1721,890,0,0
504,134,0,0,0,0,0,0,0,0,0,-1,1728,890,0,0
511,134,0,0,0,0,0,0,0,0,0,-1,1735,890,0,0
518,134,0,0,0,0,0,0,0,0,0,-1,1742,890,0,0
525,134,0,0,0,0,0,0,0,0,0,-1,1749,890,0,0
532,134,0,0,0,0,0,0,0,0,0,-1,1756,890,0,0
539,134,0,0,0,0,0,0,0,0,0,-1,1763,890,0,0
546,134,0,0,0,0,0,0,0,0,0,-1,1770,890,0,0
553,134,0,0,0,0,0,0,0,0,0,-1,1777,890,0,0
560,134,0,0,0,0,0,0,0,0,0,-1,1784,890,0,0
567,134,0,0,0,0,0,0,0,0,0,-1,1791,890,0,0
574,134,0,0,0,0,0,0,0,0,0,-1,1798,890,0,0
581,134,0,0,0,0,0,0,0,0,0,-1,1805,890,0,0
588,134,0,0,0,0,0,0,0,0,0,-1,1812,890,0,0
595,134,0,0,0,0,0,0,0,0,0,-1,1819,890,0,0
602,134,0,0,0,0,0,0,0,0,0,-1,1826,890,0,0
609,134,0,0,0,0,0,0,0,0,0,-1,1833,890,0,0
616,134,0,0,0,0,0,0,0,0,0,-1,1840,890,0,0
623,134,14.0496,2.37695,0.00245681,-0.00145821,-0.00356211,0.00456384,-0.00356524,-0.534154,0.00470512,0.0468698,1847,890,14.0496,-2.37696
630,134,13.9631,2.39093,0.00262674,-0.000338537,-0.00272412,0.00424556,-0.00195735,-0.536184,0.00366158,0.0459654,1854,890,13.9632,-2.39096
637,134,14.2571,1.62469,0.00171994,-0.000156191,-0.00224033,0.00321067,-0.00164692,-0.587129,0.00285256,0.0439488,1861,890,14.257,-1.62468
644,134,14.188,1.55011,0.00026317,-0.000178492,-0.00190913,0.00196419,-0.00187952,-0.727819,0.00221935,0.0405584,1868,890,14.188,-1.5501
651,134,14.2124,1.70197,-0.00188587,-0.000328041,-0.00198045,0.00102116,-0.00323508,-0.972758,0.00256576,0.0422372,1875,890,14.2124,-1.70194
658,134,14.2853,1.68066,-0.00409717,-0.000497653,-0.00212352,0.000486196,-0.00508102,-1.13693,0.0035605,0.0419669,1882,890,14.2852,-1.68067
665,134,14.1895,1.76282,-0.00590611,-0.000678253,-0.0022226,0.000138938,-0.0067233,-1.21846,0.00452922,0.0328159,1889,890,14.1895,-1.76281
672,134,14.201,1.93573,-0.00731153,-0.000823766,-0.00226884,-0.000109061,-0.00802624,-1.26563,0.00531485,0.020624,1896,890,14.2011,-1.93572
679,134,14.1497,1.94092,-0.00821562,-0.000768513,-0.00242338,-4.93601e-05,-0.00893477,-1.28232,0.00594013,0.0143672,1903,890,14.1496,-1.94094
686,134,13.8105,2.0766,0,0,0,0,0,0,0,-1,1910,890,13.8105,-2.0766
693,134,13.0388,1.98706,-0.00929127,-0.000913795,-0.0022675,-0.000339439,-0.00986563,-1.32271,0.00646691,0.0284577,1917,890,13.0388,-1.98704
700,134,12.4918,1.9223,-0.00917886,-0.000838721,-0.0022184,-0.000285363,-0.00973221,-1.32634,0.00639514,0.0187177,1924,890,12.4918,-1.92228
707,134,12.4248,1.96875,-0.0086569,-0.000707515,-0.00211137,-0.000181532,-0.00918288,-1.32665,0.00606232,0.0176713,1931,890,12.4248,-1.96875
714,134,12.4502,2.11987,-0.00717041,-0.000474579,-0.00203981,9.78818e-05,-0.00774287,-1.29719,0.00519485,0.0165562,1938,890,12.4502,-2.11986
721,134,12.5387,2.26831,-0.00452149,-9.22155e-05,-0.00156522,0.000405073,-0.00501878,-1.26317,0.00348872,0.0149495,1945,890,12.5387,-2.26829
728,134,12.5601,2.39008,-0.00139731,0.000506944,-0.0013355,0.00119497,-0.00208534,-1.09508,0.001917,0.0148276,1952,890,12.56,-2.39005
735,134,12.5563,2.50739,0.00166742,0.0036183,-0.0012787,0.00425114,0.00103458,-1.11123,0.00255989,0.0189778,1959,890,12.5563,-2.5074
742,134,12.5314,2.61371,0.00514654,0.00529556,-0.00114973,0.00637319,0.00406891,-0.817755,0.00372628,0.0131807,1966,890,12.5314,-2.61373
749,134,12.5255,2.69684,0.00841213,0.00749707,-0.00117344,0.00921409,0.00669512,-0.59951,0.00549887,0.0111996,1973,890,12.5255,-2.69681
756,134,12.5039,2.79413,0.0117237,0.0109174,-0.0013573,0.0127364,0.00990463,-0.641042,0.00772208,0.0151023,1980,890,12.5039,-2.79416
763,134,12.4991,2.89941,0.0145647,0.0153369,-0.00170026,0.0166943,0.0132072,-0.897039,0.0101685,0.0350459,1987,890,12.4991,-2.89942
770,134,13.1509,3.15601,0.0170438,0.0208365,-0.00203859,0.0217244,0.0161559,-1.16003,0.0130296,0.0404943,1994,890,13.1508,-3.156
777,134,14.303,3.31677,0.0189091,0.0274772,-0.0023683,0.0280882,0.018298,-1.3183,0.0164628,0.0465699,2001,890,14.303,-3.31678
784,134,14.8356,3.53857,0.0194222,0.0351661,-0.00270325,0.0356174,0.018971,-1.4054,0.0205783,0.0497514,2008,890,14.8356,-3.53855
791,134,15.2805,3.38934,0,0,0,0,0,0,0,-1,2015,890,15.2805,-3.38934
798,134,0,0,0,0,0,0,0,0,0,-1,2022,890,0,0
805,134,0,0,0,0,0,0,0,0,0,-1,2029,890,0,0
812,134,0,0,0,0,0,0,0,0,0,-1,2036,890,0,0
-700,127,0,0,0,0,0,0,0,0,0,-1,524,897,0,0
-693,127,0,0,0,0,0,0,0,0,0,-1,531,897,0,0
-686,127,0,0,0,0,0,0,0,0,0,-1,538,897,0,0
-679,127,-8.22906,1.11469,0,0,0,0,0,0,0,-1,545,897,-8.22907,-1.11466
-672,127,-8.07391,0.962341,0.0219331,0.058782,-0.0356779,0.0805119,0.000203151,-1.02374,0.053607,0.0482195,552,897,-8.07389,-0.962341
-665,127,-8.01447,0.696228,0.0233718,0.0527559,-0.0228242,0.0652079,0.0109198,-1.07137,0.0403279,0.0464046,559,897,-8.01449,-0.696258
-658,127,-8.20215,0.966431,0,0,0,0,0,0,0,-1,566,897,-8.20217,-0.966451
-651,127,-8.7431,1.42023,0,0,0,0,0,0,0,-1,573,897,-8.74311,-1.4202
-644,127,-8.39661,1.27515,0,0,0,0,0,0,0,-1,580,897,-8.39663,-1.27513
-637,127,-7.263,0.757446,0.01397,0.0220326,-0.000917667,0.0221357,0.0138669,-1.45889,0.0129156,0.0398671,587,897,-7.26303,-0.757477
-630,127,-7.41974,0.908936,0.0110663,0.0160566,0.000660996,0.0161427,0.0109802,1.44131,0.0095196,0.0289692,594,897,-7.41974,-0.908922
-623,127,-7.46783,0.811584,0.0082732,0.0111562,0.00165238,0.0119075,0.00752193,1.14407,0.00695384,0.0125432,601,897,-7.46783,-0.811594
-616,127,-7.48981,0.747498,0.00550273,0.00694282,0.00253044,0.00885367,0.00359188,0.924012,0.00514189,0.00968157,608,897,-7.48982,-0.747524
-609,127,-7.49164,0.651489,0.00209336,0.0042788,0.00296679,0.00634771,2.44579e-05,0.961847,0.00422368,0.0128062,615,897,-7.49162,-0.651472
-602,127,-7.48389,0.564819,-0.00119848,-0.000201947,0.00192882,0.00129192,-0.00269235,0.911799,0.00234721,0.0144426,622,897,-7.4839,-0.564835
-595,127,-7.48413,0.497498,-0.00377408,-0.000829883,0.00186307,7.24844e-05,-0.00467645,1.11975,0.00314207,0.0137278,629,897,-7.48415,-0.497506
-588,127,-7.55408,0.41272,-0.00579092,-0.0012693,0.00219231,-0.000380902,-0.00667931,1.18579,0.00433149,0.0180977,636,897,-7.55409,-0.412745
-581,127,-7.58435,0.312317,-0.00739434,-0.00179099,0.00275231,-0.000665245,-0.00852009,1.18254,0.00547181,0.0242576,643,897,-7.58434,-0.312328
-574,127,-7.52942,0.236511,-0.00893455,-0.00198266,0.00303951,-0.000841158,-0.0100761,1.21154,0.00645528,0.0228458,650,897,-7.52942,-0.23653
-567,127,-7.45319,0.1604,-0.00985303,-0.00214483,0.00323668,-0.000966026,-0.0110318,1.22152,0.00705463,0.0327329,657,897,-7.45319,-0.160415
-560,127,-7.88525,0.299255,-0.0101406,-0.00226266,0.00345273,-0.000963607,-0.0114396,1.21094,0.00732636,0.0354798,664,897,-7.88528,-0.299243
-553,127,-8.48468,0.322205,-0.00991562,-0.00233701,0.00341731,-0.00102368,-0.0112289,1.20388,0.00716914,0.0388264,671,897,-8.48467,-0.322181
-546,127,-8.46057,0.2547,-0.00913799,-0.00216514,0.00322516,-0.000902167,-0.010401,1.19755,0.00665367,0.0225788,678,897,-8.46057,-0.254683
-539,127,-8.43665,0.266785,-0.0075286,-0.00174706,0.00273564,-0.000657842,-0.00861782,1.19188,0.00553897,0.0199665,685,897,-8.43665,-0.266774
-532,127,-8.47321,0.287048,-0.00502223,-0.00110141,0.00192315,-0.000315608,-0.00580804,1.18289,0.00377123,0.0179221,692,897,-8.47318,-0.287079
-525,127,-8.4635,0.274963,-0.00149436,-0.000112755,0.000724066,0.000197181,-0.0018043,1.16634,0.00127369,0.0347895,699,897,-8.46348,-0.274956
-518,127,-8.48401,0.302612,0.00309444,0.00135071,-0.000872749,0.0034562,0.000988947,-0.392953,0.00205538,0.0418677,706,897,-8.484,-0.302628
-511,127,-8.49646,0.403198,0.00780442,0.00329746,-0.00257702,0.00897428,0.00212761,-0.426138,0.00541482,0.0439841,713,897,-8.49646,-0.403202
-504,127,0,0,0,0,0,0,0,0,0,-1,720,897,0,0
-497,127,0,0,0,0,0,0,0,0,0,-1,727,897,0,0
-490,127,0,0,0,0,0,0,0,0,0,-1,734,897,0,0
-483,127,0,0,0,0,0,0,0,0,0,-1,741,897,0,0
-476,127,0,0,0,0,0,0,0,0,0,-1,748,897,0,0
-469,127,0,0,0,0,0,0,0,0,0,-1,755,897,0,0
-462,127,0,0,0,0,0,0,0,0,0,-1,762,897,0,0
-455,127,0,0,0,0,0,0,0,0,0,-1,769,897,0,0
-448,127,0,0,0,0,0,0,0,0,0,-1,776,897,0,0
-441,127,0,0,0,0,0,0,0,0,0,-1,783,897,0,0
-434,127,0,0,0,0,0,0,0,0,0,-1,790,897,0,0
-427,127,0,0,0,0,0,0,0,0,0,-1,797,897,0,0
-420,127,0,0,0,0,0,0,0,0,0,-1,804,897,0,0
-413,127,0,0,0,0,0,0,0,0,0,-1,811,897,0,0
-406,127,0,0,0,0,0,0,0,0,0,-1,818,897,0,0
-399,127,0,0,0,0,0,0,0,0,0,-1,825,897,0,0
-392,127,0,0,0,0,0,0,0,0,0,-1,832,897,0,0
-385,127,0,0,0,0,0,0,0,0,0,-1,839,897,0,0
-378,127,0,0,0,0,0,0,0,0,0,-1,846,897,0,0
-371,127,0,0,0,0,0,0,0,0,0,-1,853,897,0,0
-364,127,0,0,0,0,0,0,0,0,0,-1,860,897,0,0
-357,127,0,0,0,0,0,0,0,0,0,-1,867,897,0,0
-350,127,0,0,0,0,0,0,0,0,0,-1,874,897,0,0
-343,127,0,0,0,0,0,0,0,0,0,-1,881,897,0,0
-336,127,0,0,0,0,0,0,0,0,0,-1,888,897,0,0
-329,127,0,0,0,0,0,0,0,0,0,-1,895,897,0,0
-322,127,0,0,0,0,0,0,0,0,0,-1,902,897,0,0
-315,127,0,0,0,0,0,0,0,0,0,-1,909,897,0,0
-308,127,0,0,0,0,0,0,0,0,0,-1,916,897,0,0
-301,127,0,0,0,0,0,0,0,0,0,-1,923,897,0,0
-294,127,0,0,0,0,0,0,0,0,0,-1,930,897,0,0
-287,127,0,0,0,0,0,0,0,0,0,-1,937,897,0,0
-280,127,0,0,0,0,0,0,0,0,0,-1,944,897,0,0
-273,127,0,0,0,0,0,0,0,0,0,-1,951,897,0,0
-266,127,0,0,0,0,0,0,0,0,0,-1,958,897,0,0
-259,127,0,0,0,0,0,0,0,0,0,-1,965,897,0,0
-252,127,0,0,0,0,0,0,0,0,0,-1,972,897,0,0
-245,127,0,0,0,0,0,0,0,0,0,-1,979,897,0,0
-238,127,0,0,0,0,0,0,0,0,0,-1,986,897,0,0
-231,127,0,0,0,0,0,0,0,0,0,-1,993,897,0,0
-224,127,0,0,0,0,0,0,0,0,0,-1,1000,897,0,0
-217,127,0,0,0,0,0,0,0,0,0,-1,1007,897,0,0
-210,127,0,0,0,0,0,0,0,0,0,-1,1014,897,0,0
-203,127,0,0,0,0,0,0,0,0,0,-1,1021,897,0,0
-196,127,0,0,0,0,0,0,0,0,0,-1,1028,897,0,0
-189,127,0,0,0,0,0,0,0,0,0,-1,1035,897,0,0
-182,127,0,0,0,0,0,0,0,0,0,-1,1042,897,0,0
-175,127,0,0,0,0,0,0,0,0,0,-1,1049,897,0,0
-168,127,0,0,0,0,0,0,0,0,0,-1,1056,897,0,0
-161,127,0,0,0,0,0,0,0,0,0,-1,1063,897,0,0
-154,127,0,0,0,0,0,0,0,0,0,-1,1070,897,0,0
-147,127,0,0,0,0,0,0,0,0,0,-1,1077,897,0,0
-140,127,0,0,0,0,0,0,0,0,0,-1,1084,897,0,0
-133,127,0,0,0,0,0,0,0,0,0,-1,1091,897,0,0
-126,127,0,0,0,0,0,0,0,0,0,-1,1098,897,0,0
-119,127,0,0,0,0,0,0,0,0,0,-1,1105,897,0,0
-112,127,0,0,0,0,0,0,0,0,0,-1,1112,897,0,0
-105,127,0,0,0,0,0,0,0,0,0,-1,1119,897,0,0
-98,127,0,0,0,0,0,0,0,0,0,-1,1126,897,0,0
-91,127,0,0,0,0,0,0,0,0,0,-1,1133,897,0,0
-84,127,0,0,0,0,0,0,0,0,0,-1,1140,897,0,0
-77,127,0,0,0,0,0,0,0,0,0,-1,1147,897,0,0
-70,127,0,0,0,0,0,0,0,0,0,-1,1154,897,0,0
-63,127,0,0,0,0,0,0,0,0,0,-1,1161,897,0,0
-56,127,0,0,0,0,0,0,0,0,0,-1,1168,897,0,0
-49,127,0,0,0,0,0,0,0,0,0,-1,1175,897,0,0
-42,127,0,0,0,0,0,0,0,0,0,-1,1182,897,0,0
-35,127,0,0,0,0,0,0,0,0,0,-1,1189,897,0,0
-28,127,0,0,0,0,0,0,0,0,0,-1,1196,897,0,0
-21,127,0,0,0,0,0,0,0,0,0,-1,1203,897,0,0
-14,127,0,0,0,0,0,0,0,0,0,-1,1210,897,0,0
-7,127,0,0,0,0,0,0,0,0,0,-1,1217,897,0,0
0,127,0,0,0,0,0,0,0,0,0,-1,1224,897,0,0
7,127,0,0,0,0,0,0,0,0,0,-1,1231,897,0,0
14,127,0,0,0,0,0,0,0,0,0,-1,1238,897,0,0
21,127,0,0,0,0,0,0,0,0,0,-1,1245,897,0,0
28,127,0,0,0,0,0,0,0,0,0,-1,1252,897,0,0
35,127,0,0,0,0,0,0,0,0,0,-1,1259,897,0,0
42,127,0,0,0,0,0,0,0,0,0,-1,1266,897,0,0
49,127,0,0,0,0,0,0,0,0,0,-1,1273,897,0,0
56,127,0,0,0,0,0,0,0,0,0,-1,1280,897,0,0
63,127,0,0,0,0,0,0,0,0,0,-1,1287,897,0,0
70,127,0,0,0,0,0,0,0,0,0,-1,1294,897,0,0
77,127,0,0,0,0,0,0,0,0,0,-1,1301,897,0,0
84,127,0,0,0,0,0,0,0,0,0,-1,1308,897,0,0
91,127,0,0,0,0,0,0,0,0,0,-1,1315,897,0,0
98,127,0,0,0,0,0,0,0,0,0,-1,1322,897,0,0
105,127,0,0,0,0,0,0,0,0,0,-1,1329,897,0,0
112,127,0,0,0,0,0,0,0,0,0,-1,1336,897,0,0
119,127,0,0,0,0,0,0,0,0,0,-1,1343,897,0,0
126,127,0,0,0,0,0,0,0,0,0,-1,1350,897,0,0
133,127,0,0,0,0,0,0,0,0,0,-1,1357,897,0,0
140,127,0,0,0,0,0,0,0,0,0,-1,1364,897,0,0
147,127,0,0,0,0,0,0,0,0,0,-1,1371,897,0,0
154,127,0,0,0,0,0,0,0,0,0,-1,1378,897,0,0
161,127,0,0,0,0,0,0,0,0,0,-1,1385,897,0,0
168,127,0,0,0,0,0,0,0,0,0,-1,1392,897,0,0
175,127,0,0,0,0,0,0,0,0,0,-1,1399,897,0,0
182,127,0,0,0,0,0,0,0,0,0,-1,1406,897,0,0
189,127,0,0,0,0,0,0,0,0,0,-1,1413,897,0,0
196,127,0,0,0,0,0,0,0,0,0,-1,1420,897,0,0
203,127,0,0,0,0,0,0,0,0,0,-1,1427,897,0,0
210,127,0,0,0,0,0,0,0,0,0,-1,1434,897,0,0
217,127,0,0,0,0,0,0,0,0,0,-1,1441,897,0,0
224,127,0,0,0,0,0,0,0,0,0,-1,1448,897,0,0
231,127,0,0,0,0,0,0,0,0,0,-1,1455,897,0,0
238,127,0,0,0,0,0,0,0,0,0,-1,1462,897,0,0
245,127,0,0,0,0,0,0,0,0,0,-1,1469,897,0,0
252,127,0,0,0,0,0,0,0,0,0,-1,1476,897,0,0
259,127,0,0,0,0,0,0,0,0,0,-1,1483,897,0,0
266,127,0,0,0,0,0,0,0,0,0,-1,1490,897,0,0
273,127,0,0,0,0,0,0,0,0,0,-1,1497,897,0,0
280,127,0,0,0,0,0,0,0,0,0,-1,1504,897,0,0
287,127,0,0,0,0,0,0,0,0,0,-1,1511,897,0,0
294,127,0,0,0,0,0,0,0,0,0,-1,1518,897,0,0
301,127,0,0,0,0,0,0,0,0,0,-1,1525,897,0,0
308,127,0,0,0,0,0,0,0,0,0,-1,1532,897,0,0
315,127,0,0,0,0,0,0,0,0,0,-1,1539,897,0,0
322,127,0,0,0,0,0,0,0,0,0,-1,1546,897,0,0
329,127,0,0,0,0,0,0,0,0,0,-1,1553,897,0,0
336,127,0,0,0,0,0,0,0,0,0,-1,1560,897,0,0
343,127,0,0,0,0,0,0,0,0,0,-1,1567,897,0,0
350,127,0,0,0,0,0,0,0,0,0,-1,1574,897,0,0
357,127,0,0,0,0,0,0,0,0,0,-1,1581,897,0,0
364,127,0,0,0,0,0,0,0,0,0,-1,1588,897,0,0
371,127,0,0,0,0,0,0,0,0,0,-1,1595,897,0,0
378,127,0,0,0,0,0,0,0,0,0,-1,1602,897,0,0
385,127,0,0,0,0,0,0,0,0,0,-1,1609,897,0,0
392,127,0,0,0,0,0,0,0,0,0,-1,1616,897,0,0
399,127,0,0,0,0,0,0,0,0,0,-1,1623,897,0,0
406,127,0,0,0,0,0,0,0,0,0,-1,1630,897,0,0
413,127,0,0,0,0,0,0,0,0,0,-1,1637,897,0,0
420,127,0,0,0,0,0,0,0,0,0,-1,1644,897,0,0
427,127,0,0,0,0,0,0,0,0,0,-1,1651,897,0,0
434,127,0,0,0,0,0,0,0,0,0,-1,1658,897,0,0
441,127,0,0,0,0,0,0,0,0,0,-1,1665,897,0,0
448,127,0,0,0,0,0,0,0,0,0,-1,1672,897,0,0
455,127,0,0,0,0,0,0,0,0,0,-1,1679,897,0,0
462,127,0,0,0,0,0,0,0,0,0,-1,1686,897,0,0
469,127,0,0,0,0,0,0,0,0,0,-1,1693,897,0,0
476,127,0,0,0,0,0,0,0,0,0,-1,1700,897,0,0
483,127,0,0,0,0,0,0,0,0,0,-1,1707,897,0,0
490,127,0,0,0,0,0,0,0,0,0,-1,1714,897,0,0
497,127,0,0,0,0,0,0,0,0,0,-1,1721,897,0,0
504,127,0,0,0,0,0,0,0,0,0,-1,1728,897,0,0
511,127,0,0,0,0,0,0,0,0,0,-1,1735,897,0,0
518,127,0,0,0,0,0,0,0,0,0,-1,1742,897,0,0
525,127,0,0,0,0,0,0,0,0,0,-1,1749,897,0,0
532,127,0,0,0,0,0,0,0,0,0,-1,1756,897,0,0
539,127,0,0,0,0,0,0,0,0,0,-1,1763,897,0,0
546,127,0,0,0,0,0,0,0,0,0,-1,1770,897,0,0
553,127,0,0,0,0,0,0,0,0,0,-1,1777,897,0,0
560,127,0,0,0,0,0,0,0,0,0,-1,1784,897,0,0
567,127,0,0,0,0,0,0,0,0,0,-1,1791,897,0,0
574,127,0,0,0,0,0,0,0,0,0,-1,1798,897,0,0
581,127,0,0,0,0,0,0,0,0,0,-1,1805,897,0,0
588,127,0,0,0,0,0,0,0,0,0,-1,1812,897,0,0
595,127,0,0,0,0,0,0,0,0,0,-1,1819,897,0,0
602,127,0,0,0,0,0,0,0,0,0,-1,1826,897,0,0
609,127,0,0,0,0,0,0,0,0,0,-1,1833,897,0,0
616,127,0,0,0,0,0,0,0,0,0,-1,1840,897,0,0
623,127,0,0,0,0,0,0,0,0,0,-1,1847,897,0,0
630,127,14.0109,2.37573,0.00277666,0.000970981,-0.00180615,0.00389305,-0.000145413,-0.553627,0.00264517,0.0420702,1854,897,14.0108,-2.37573
637,127,14.1864,1.88037,0.00199289,0.000779065,-0.00153543,0.003037,-0.000265045,-0.597185,0.00211855,0.0419823,1861,897,14.1864,-1.88038
644,127,14.1582,1.74548,0.000793779,0.00042123,-0.00130775,0.00192846,-0.000713449,-0.714655,0.00157816,0.0408298,1868,897,14.1582,-1.74551
651,127,14.0497,1.94379,-0.00129298,4.24379e-05,-0.00149919,0.00101589,-0.00226643,-0.994901,0.00194035,0.0437818,1875,897,14.0497,-1.94376
658,127,14.0498,1.98712,-0.00366271,-0.00028186,-0.00177224,0.000476872,-0.00442144,-1.16629,0.00311876,0.0441408,1882,897,14.0498,-1.98713
665,127,14.125,1.90295,-0.0056864,-0.000564129,-0.00197406,0.000108363,-0.00635889,-1.24246,0.00427584,0.0397224,1889,897,14.125,-1.90295
672,127,14.1683,1.86609,-0.00725751,-0.000758667,-0.0021076,-0.000135012,-0.00788116,-1.2831,0.00520969,0.0324663,1896,897,14.1684,-1.86607
679,127,14.1827,1.88202,-0.00832314,-0.000734231,-0.00230582,-8.85623e-05,-0.00896881,-1.29777,0.00594991,0.0206716,1903,897,14.1828,-1.88201
686,127,14.1353,1.9295,0,0,0,0,0,0,0,-1,1910,897,14.1352,-1.92952
693,127,13.402,1.88654,-0.00964553,-0.000902587,-0.00221098,-0.000375262,-0.0101729,-1.33667,0.00666034,0.0272874,1917,897,13.402,-1.88656
700,127,12.6752,1.90039,-0.00958294,-0.000820944,-0.00218856,-0.000304704,-0.0100992,-1.33915,0.00663355,0.0230677,1924,897,12.6751,-1.90039
707,127,12.5295,2.01685,-0.0090978,-0.000660568,-0.00208766,-0.000172267,-0.0095861,-1.34103,0.00633409,0.0214615,1931,897,12.5296,-2.01684
714,127,12.5455,2.15906,-0.00769443,-0.000426121,-0.00200513,9.03402e-05,-0.00821089,-1.31871,0.00550429,0.0181085,1938,897,12.5455,-2.15905
721,127,12.6649,2.32568,-0.00517818,-9.19476e-05,-0.00157557,0.000356567,-0.00562669,-1.29346,0.00387546,0.0133411,1945,897,12.6649,-2.32571
728,127,12.6595,2.38757,-0.00226404,0.00036999,-0.00142151,0.000990811,-0.00288486,-1.15903,0.00232498,0.0132418,1952,897,12.6595,-2.38759
735,127,12.6437,2.48541,0.000589692,0.00296908,-0.00146759,0.00366862,-0.000109846,-1.126,0.00248317,0.0185497,1959,897,12.6437,-2.48543
742,127,12.6287,2.58618,0.00387968,0.00400653,-0.00149022,0.00543468,0.00245154,-0.806666,0.00314271,0.0159968,1966,897,12.6286,-2.58617
749,127,12.6406,2.6839,0.00698711,0.00535515,-0.00171975,0.00807465,0.00426762,-0.563887,0.00466443,0.0119058,1973,897,12.6406,-2.68387
756,127,12.6263,2.77136,0.0100927,0.00767523,-0.00214465,0.0113458,0.00642213,-0.528787,0.00656949,0.0142786,1980,897,12.6263,-2.77137
763,127,12.6111,2.84558,0.0125696,0.0106151,-0.00286138,0.014616,0.00856872,-0.620841,0.00848032,0.0214893,1987,897,12.6111,-2.84556
770,127,13.2803,2.96173,0.0145553,0.0141405,-0.00369511,0.0180488,0.010647,-0.757358,0.0104765,0.0373298,1994,897,13.2803,-2.96172
777,127,14.2555,3.23596,0.0159643,0.0182717,-0.00464244,0.0219017,0.0123344,-0.907185,0.0126785,0.0450407,2001,897,14.2555,-3.23599
784,127,12.5609,-0.375793,0.0161711,0.0228808,-0.00572651,0.0261628,0.0128891,-1.05037,0.0151056,0.0463016,2008,897,12.5609,0.375787
791,127,12.0505,1.01135,0,0,0,0,0,0,0,-1,2015,897,12.0506,-1.01137
798,127,0,0,0,0,0,0,0,0,0,-1,2022,897,0,0
805,127,0,0,0,0,0,0,0,0,0,-1,2029,897,0,0
812,127,0,0,0,0,0,0,0,0,0,-1,2036,897,0,0
-700,120,0,0,0,0,0,0,0,0,0,-1,524,904,0,0
-693,120,0,0,0,0,0,0,0,0,0,-1,531,904,0,0
-686,120,0,0,0,0,0,0,0,0,0,-1,538,904,0,0
-679,120,-7.6991,0.579529,0,0,0,0,0,0,0,-1,545,904,-7.69909,-0.579502
-672,120,-7.57843,0.504028,0,0,0,0,0,0,0,-1,552,904,-7.57842,-0.504055
-665,120,-7.75977,-0.0765381,0,0,0,0,0,0,0,-1,559,904,-7.75974,0.0765381
-658,120,-8.65839,-0.0999146,0,0,0,0,0,0,0,-1,566,904,-8.65839,0.0999217
-651,120,-8.12268,-0.0241089,0,0,0,0,0,0,0,-1,573,904,-8.12268,0.0241389
-644,120,-7.27802,0.463867,0,0,0,0,0,0,0,-1,580,904,-7.278,-0.463846
-637,120,-7.41156,0.788513,0.0143903,0.0208782,-0.00400567,0.0227887,0.0124798,-1.12575,0.0131769,0.0370003,587,904,-7.41158,-0.788509
-630,120,-7.56042,0.887756,0.0113505,0.0151682,-0.00136874,0.0156082,0.0109105,-1.25976,0.00924632,0.0211003,594,904,-7.56042,-0.887781
-623,120,-7.58539,0.782532,0.00838449,0.0104766,0.000440276,0.0105655,0.00829561,1.3716,0.00642217,0.010411,601,904,-7.5854,-0.782547
-616,120,-7.57843,0.714905,0.0053692,0.00646245,0.001878,0.00787175,0.00395989,0.92702,0.00454479,0.00974045,608,904,-7.57842,-0.714908
-609,120,-7.5733,0.638855,0.00174302,0.00404188,0.00280353,0.00592246,-0.000137565,0.979944,0.00399495,0.0131125,615,904,-7.57332,-0.638863
-602,120,-7.59406,0.581238,-0.00159973,-0.000506934,0.00185952,0.000884802,-0.00299146,0.928295,0.00234555,0.0137561,622,904,-7.59405,-0.581247
-595,120,-7.58325,0.511108,-0.0040477,-0.0010549,0.00184287,-0.000177399,-0.0049252,1.1264,0.00322596,0.016464,629,904,-7.58326,-0.511105
-588,120,-7.59735,0.414856,-0.00584572,-0.00138099,0.00208825,-0.000556519,-0.00667019,1.19477,0.00427338,0.0205119,636,904,-7.59737,-0.414868
-581,120,-7.64398,0.359863,-0.00729641,-0.00178552,0.00250602,-0.000816368,-0.00826556,1.20178,0.00525941,0.0243235,643,904,-7.64399,-0.359855
-574,120,-7.57965,0.275024,-0.00864481,-0.0018798,0.00266587,-0.000955536,-0.00956907,1.23706,0.00608592,0.0206632,650,904,-7.57966,-0.275023
-567,120,-7.65485,0.240662,-0.00940049,-0.00196459,0.00280105,-0.00102753,-0.0103375,1.24796,0.006576,0.0373942,657,904,-7.65483,-0.240657
-560,120,-8.64856,-0.00390625,0,0,0,0,0,0,0,-1,664,904,-8.64857,0.00393384
-553,120,-8.57971,0.16333,-0.00921061,-0.00197153,0.00284471,-0.000987435,-0.0101947,1.23774,0.0064924,0.0389569,671,904,-8.57973,-0.163354
-546,120,-8.44342,0.286377,-0.00828059,-0.00171817,0.00256824,-0.00083258,-0.00916618,1.23874,0.00585303,0.0303646,678,904,-8.4434,-0.286404
-539,120,-8.39984,0.273376,-0.00656367,-0.00124569,0.00200426,-0.000574925,-0.00723444,1.24784,0.0046432,0.0248731,685,904,-8.39986,-0.273405
-532,120,-8.41632,0.250244,-0.00401232,-0.000522747,0.00111558,-0.000196591,-0.00433847,1.28636,0.00282906,0.0283099,692,904,-8.41635,-0.250265
-525,120,-8.57831,0.262024,-0.000538302,0.000491033,-0.000154415,0.000513699,-0.000560968,-1.42505,0.000620659,0.0359384,699,904,-8.57831,-0.262015
-518,120,-8.75043,0.305847,0.00370009,0.00187647,-0.00179376,0.00480048,0.00077607,-0.550257,0.00297556,0.0396005,706,904,-8.75041,-0.305829
-511,120,-8.66766,0.369202,0.0074368,0.00353929,-0.00338776,0.00939632,0.00157978,-0.524393,0.00580966,0.0399597,713,904,-8.66767,-0.369226
-504,120,0,0,0,0,0,0,0,0,0,-1,720,904,0,0
-497,120,0,0,0,0,0,0,0,0,0,-1,727,904,0,0
-490,120,0,0,0,0,0,0,0,0,0,-1,734,904,0,0
-483,120,0,0,0,0,0,0,0,0,0,-1,741,904,0,0
-476,120,0,0,0,0,0,0,0,0,0,-1,748,904,0,0
-469,120,0,0,0,0,0,0,0,0,0,-1,755,904,0,0
-462,120,0,0,0,0,0,0,0,0,0,-1,762,904,0,0
-455,120,0,0,0,0,0,0,0,0,0,-1,769,904,0,0
-448,120,0,0,0,0,0,0,0,0,0,-1,776,904,0,0
-441,120,0,0,0,0,0,0,0,0,0,-1,783,904,0,0
-434,120,0,0,0,0,0,0,0,0,0,-1,790,904,0,0
-427,120,0,0,0,0,0,0,0,0,0,-1,797,904,0,0
-420,120,0,0,0,0,0,0,0,0,0,-1,804,904,0,0
-413,120,0,0,0,0,0,0,0,0,0,-1,811,904,0,0
-406,120,0,0,0,0,0,0,0,0,0,-1,818,904,0,0
-399,120,0,0,0,0,0,0,0,0,0,-1,825,904,0,0
-392,120,0,0,0,0,0,0,0,0,0,-1,832,904,0,0
-385,120,0,0,0,0,0,0,0,0,0,-1,839,904,0,0
-378,120,0,0,0,0,0,0,0,0,0,-1,846,904,0,0
-371,120,0,0,0,0,0,0,0,0,0,-1,853,904,0,0
-364,120,0,0,0,0,0,0,0,0,0,-1,860,904,0,0
-357,120,0,0,0,0,0,0,0,0,0,-1,867,904,0,0
-350,120,0,0,0,0,0,0,0,0,0,-1,874,904,0,0
-343,120,0,0,0,0,0,0,0,0,0,-1,881,904,0,0
-336,120,0,0,0,0,0,0,0,0,0,-1,888,904,0,0
-329,120,0,0,0,0,0,0,0,0,0,-1,895,904,0,0
-322,120,0,0,0,0,0,0,0,0,0,-1,902,904,0,0
-315,120,0,0,0,0,0,0,0,0,0,-1,909,904,0,0
-308,120,0,0,0,0,0,0,0,0,0,-1,916,904,0,0
-301,120,0,0,0,0,0,0,0,0,0,-1,923,904,0,0
-294,120,0,0,0,0,0,0,0,0,0,-1,930,904,0,0
-287,120,0,0,0,0,0,0,0,0,0,-1,937,904,0,0
-280,120,0,0,0,0,0,0,0,0,0,-1,944,904,0,0
-273,120,0,0,0,0,0,0,0,0,0,-1,951,904,0,0
-266,120,0,0,0,0,0,0,0,0,0,-1,958,904,0,0
-259,120,0,0,0,0,0,0,0,0,0,-1,965,904,0,0
-252,120,0,0,0,0,0,0,0,0,0,-1,972,904,0,0
-245,120,0,0,0,0,0,0,0,0,0,-1,979,904,0,0
-238,120,0,0,0,0,0,0,0,0,0,-1,986,904,0,0
-231,120,0,0,0,0,0,0,0,0,0,-1,993,904,0,0
-224,120,0,0,0,0,0,0,0,0,0,-1,1000,904,0,0
-217,120,0,0,0,0,0,0,0,0,0,-1,1007,904,0,0
-210,120,0,0,0,0,0,0,0,0,0,-1,1014,904,0,0
-203,120,0,0,0,0,0,0,0,0,0,-1,1021,904,0,0
-196,120,0,0,0,0,0,0,0,0,0,-1,1028,904,0,0
-189,120,0,0,0,0,0,0,0,0,0,-1,1035,904,0,0
-182,120,0,0,0,0,0,0,0,0,0,-1,1042,904,0,0
-175,120,0,0,0,0,0,0,0,0,0,-1,1049,904,0,0
-168,120,0,0,0,0,0,0,0,0,0,-1,1056,904,0,0
-161,120,0,0,0,0,0,0,0,0,0,-1,1063,904,0,0
-154,120,0,0,0,0,0,0,0,0,0,-1,1070,904,0,0
-147,120,0,0,0,0,0,0,0,0,0,-1,1077,904,0,0
-140,120,0,0,0,0,0,0,0,0,0,-1,1084,904,0,0
-133,120,0,0,0,0,0,0,0,0,0,-1,1091,904,0,0
-126,120,0,0,0,0,0,0,0,0,0,-1,1098,904,0,0
-119,120,0,0,0,0,0,0,0,0,0,-1,1105,904,0,0
-112,120,0,0,0,0,0,0,0,0,0,-1,1112,904,0,0
-105,120,0,0,0,0,0,0,0,0,0,-1,1119,904,0,0
-98,120,0,0,0,0,0,0,0,0,0,-1,1126,904,0,0
-91,120,0,0,0,0,0,0,0,0,0,-1,1133,904,0,0
-84,120,0,0,0,0,0,0,0,0,0,-1,1140,904,0,0
-77,120,0,0,0,0,0,0,0,0,0,-1,1147,904,0,0
-70,120,0,0,0,0,0,0,0,0,0,-1,1154,904,0,0
-63,120,0,0,0,0,0,0,0,0,0,-1,1161,904,0,0
-56,120,0,0,0,0,0,0,0,0,0,-1,1168,904,0,0
-49,120,0,0,0,0,0,0,0,0,0,-1,1175,904,0,0
-42,120,0,0,0,0,0,0,0,0,0,-1,1182,904,0,0
-35,120,0,0,0,0,0,0,0,0,0,-1,1189,904,0,0
-28,120,0,0,0,0,0,0,0,0,0,-1,1196,904,0,0
-21,120,0,0,0,0,0,0,0,0,0,-1,1203,904,0,0
-14,120,0,0,0,0,0,0,0,0,0,-1,1210,904,0,0
-7,120,0,0,0,0,0,0,0,0,0,-1,1217,904,0,0
0,120,0,0,0,0,0,0,0,0,0,-1,1224,904,0,0
7,120,0,0,0,0,0,0,0,0,0,-1,1231,904,0,0
14,120,0,0,0,0,0,0,0,0,0,-1,1238,904,0,0
21,120,0,0,0,0,0,0,0,0,0,-1,1245,904,0,0
28,120,0,0,0,0,0,0,0,0,0,-1,1252,904,0,0
35,120,0,0,0,0,0,0,0,0,0,-1,1259,904,0,0
42,120,0,0,0,0,0,0,0,0,0,-1,1266,904,0,0
49,120,0,0,0,0,0,0,0,0,0,-1,1273,904,0,0
56,120,0,0,0,0,0,0,0,0,0,-1,1280,904,0,0
63,120,0,0,0,0,0,0,0,0,0,-1,1287,904,0,0
70,120,0,0,0,0,0,0,0,0,0,-1,1294,904,0,0
77,120,0,0,0,0,0,0,0,0,0,-1,1301,904,0,0
84,120,0,0,0,0,0,0,0,0,0,-1,1308,904,0,0
91,120,0,0,0,0,0,0,0,0,0,-1,1315,904,0,0
98,120,0,0,0,0,0,0,0,0,0,-1,1322,904,0,0
105,120,0,0,0,0,0,0,0,0,0,-1,1329,904,0,0
112,120,0,0,0,0,0,0,0,0,0,-1,1336,904,0,0
119,120,0,0,0,0,0,0,0,0,0,-1,1343,904,0,0
126,120,0,0,0,0,0,0,0,0,0,-1,1350,904,0,0
133,120,0,0,0,0,0,0,0,0,0,-1,1357,904,0,0
140,120,0,0,0,0,0,0,0,0,0,-1,1364,904,0,0
147,120,0,0,0,0,0,0,0,0,0,-1,1371,904,0,0
154,120,0,0,0,0,0,0,0,0,0,-1,1378,904,0,0
161,120,0,0,0,0,0,0,0,0,0,-1,1385,904,0,0
168,120,0,0,0,0,0,0,0,0,0,-1,1392,904,0,0
175,120,0,0,0,0,0,0,0,0,0,-1,1399,904,0,0
182,120,0,0,0,0,0,0,0,0,0,-1,1406,904,0,0
189,120,0,0,0,0,0,0,0,0,0,-1,1413,904,0,0
196,120,0,0,0,0,0,0,0,0,0,-1,1420,904,0,0
203,120,0,0,0,0,0,0,0,0,0,-1,1427,904,0,0
210,120,0,0,0,0,0,0,0,0,0,-1,1434,904,0,0
217,120,0,0,0,0,0,0,0,0,0,-1,1441,904,0,0
224,120,0,0,0,0,0,0,0,0,0,-1,1448,904,0,0
231,120,0,0,0,0,0,0,0,0,0,-1,1455,904,0,0
238,120,0,0,0,0,0,0,0,0,0,-1,1462,904,0,0
245,120,0,0,0,0,0,0,0,0,0,-1,1469,904,0,0
252,120,0,0,0,0,0,0,0,0,0,-1,1476,904,0,0
259,120,0,0,0,0,0,0,0,0,0,-1,1483,904,0,0
266,120,0,0,0,0,0,0,0,0,0,-1,1490,904,0,0
273,120,0,0,0,0,0,0,0,0,0,-1,1497,904,0,0
280,120,0,0,0,0,0,0,0,0,0,-1,1504,904,0,0
287,120,0,0,0,0,0,0,0,0,0,-1,1511,904,0,0
294,120,0,0,0,0,0,0,0,0,0,-1,1518,904,0,0
301,120,0,0,0,0,0,0,0,0,0,-1,1525,904,0,0
308,120,0,0,0,0,0,0,0,0,0,-1,1532,904,0,0
315,120,0,0,0,0,0,0,0,0,0,-1,1539,904,0,0
322,120,0,0,0,0,0,0,0,0,0,-1,1546,904,0,0
329,120,0,0,0,0,0,0,0,0,0,-1,1553,904,0,0
336,120,0,0,0,0,0,0,0,0,0,-1,1560,904,0,0
343,120,0,0,0,0,0,0,0,0,0,-1,1567,904,0,0
350,120,0,0,0,0,0,0,0,0,0,-1,1574,904,0,0
357,120,0,0,0,0,0,0,0,0,0,-1,1581,904,0,0
364,120,0,0,0,0,0,0,0,0,0,-1,1588,904,0,0
371,120,0,0,0,0,0,0,0,0,0,-1,1595,904,0,0
378,120,0,0,0,0,0,0,0,0,0,-1,1602,904,0,0
385,120,0,0,0,0,0,0,0,0,0,-1,1609,904,0,0
392,120,0,0,0,0,0,0,0,0,0,-1,1616,904,0,0
399,120,0,0,0,0,0,0,0,0,0,-1,1623,904,0,0
406,120,0,0,0,0,0,0,0,0,0,-1,1630,904,0,0
413,120,0,0,0,0,0,0,0,0,0,-1,1637,904,0,0
420,120,0,0,0,0,0,0,0,0,0,-1,1644,904,0,0
427,120,0,0,0,0,0,0,0,0,0,-1,1651,904,0,0
434,120,0,0,0,0,0,0,0,0,0,-1,1658,904,0,0
441,120,0,0,0,0,0,0,0,0,0,-1,1665,904,0,0
448,120,0,0,0,0,0,0,0,0,0,-1,1672,904,0,0
455,120,0,0,0,0,0,0,0,0,0,-1,1679,904,0,0
462,120,0,0,0,0,0,0,0,0,0,-1,1686,904,0,0
469,120,0,0,0,0,0,0,0,0,0,-1,1693,904,0,0
476,120,0,0,0,0,0,0,0,0,0,-1,1700,904,0,0
483,120,0,0,0,0,0,0,0,0,0,-1,1707,904,0,0
490,120,0,0,0,0,0,0,0,0,0,-1,1714,904,0,0
497,120,0,0,0,0,0,0,0,0,0,-1,1721,904,0,0
504,120,0,0,0,0,0,0,0,0,0,-1,1728,904,0,0
511,120,0,0,0,0,0,0,0,0,0,-1,1735,904,0,0
518,120,0,0,0,0,0,0,0,0,0,-1,1742,904,0,0
525,120,0,0,0,0,0,0,0,0,0,-1,1749,904,0,0
532,120,0,0,0,0,0,0,0,0,0,-1,1756,904,0,0
539,120,0,0,0,0,0,0,0,0,0,-1,1763,904,0,0
546,120,0,0,0,0,0,0,0,0,0,-1,1770,904,0,0
553,120,0,0,0,0,0,0,0,0,0,-1,1777,904,0,0
560,120,0,0,0,0,0,0,0,0,0,-1,1784,904,0,0
567,120,0,0,0,0,0,0,0,0,0,-1,1791,904,0,0
574,120,0,0,0,0,0,0,0,0,0,-1,1798,904,0,0
581,120,0,0,0,0,0,0,0,0,0,-1,1805,904,0,0
588,120,0,0,0,0,0,0,0,0,0,-1,1812,904,0,0
595,120,0,0,0,0,0,0,0,0,0,-1,1819,904,0,0
602,120,0,0,0,0,0,0,0,0,0,-1,1826,904,0,0
609,120,0,0,0,0,0,0,0,0,0,-1,1833,904,0,0
616,120,0,0,0,0,0,0,0,0,0,-1,1840,904,0,0
623,120,0,0,0,0,0,0,0,0,0,-1,1847,904,0,0
630,120,14.0931,2.16681,0.0030693,0.00152685,-0.000740695,0.00336738,0.00122877,-0.382602,0.00196767,0.0416066,1854,904,14.0932,-2.16683
637,120,14.303,2.0415,0.00217636,0.00138706,-0.000672993,0.00256188,0.00100154,-0.520216,0.00149079,0.0446564,1861,904,14.303,-2.0415
644,120,14.2119,2.03345,0.00111674,0.00106026,-0.000547745,0.00163698,0.000540031,-0.759641,0.000963167,0.0430013,1868,904,14.2119,-2.03344
651,120,13.9885,2.13617,-0.000894627,0.000716187,-0.000827627,0.00106562,-0.00124406,-1.17129,0.00133482,0.0439158,1875,904,13.9886,-2.13618
658,120,13.9816,2.12921,-0.00337224,0.00041222,-0.00120559,0.000763641,-0.00372366,-1.28716,0.00277227,0.0415685,1882,904,13.9815,-2.12919
665,120,14.0715,2.05347,-0.00558564,0.000129854,-0.00150008,0.000499638,-0.00595542,-1.32911,0.00414687,0.0377083,1889,904,14.0715,-2.05348
672,120,14.111,1.94879,-0.00730106,-7.74053e-05,-0.00171322,0.00030832,-0.00768678,-1.34934,0.00523033,0.036041,1896,904,14.111,-1.9488
679,120,14.1298,1.87964,-0.00850215,-0.000108663,-0.00194805,0.000321423,-0.00893224,-1.3535,0.00606481,0.0283195,1903,904,14.1297,-1.87965
686,120,14.1428,1.88654,-0.00949371,-0.000305026,-0.00193781,8.69194e-05,-0.00988566,-1.37123,0.0066196,0.0150801,1910,904,14.1428,-1.88656
693,120,13.7616,1.92798,-0.0099653,-0.000400621,-0.00193969,-2.22274e-05,-0.0103437,-1.37814,0.0068884,0.0302977,1917,904,13.7617,-1.92799
700,120,13.0323,1.95258,-0.00991477,-0.000373738,-0.00194893,9.01101e-06,-0.0102975,-1.37687,0.00686802,0.0226515,1924,904,13.0323,-1.9526
707,120,12.6979,2.10016,-0.00944012,-0.000280186,-0.00187254,8.7826e-05,-0.00980813,-1.37674,0.00656823,0.0181907,1931,904,12.6978,-2.10015
714,120,12.7404,2.21973,-0.00810253,-0.000130035,-0.00178765,0.000252456,-0.00848502,-1.36001,0.00574268,0.0151492,1938,904,12.7404,-2.21972
721,120,12.7548,2.32922,-0.00576129,6.71837e-05,-0.00143583,0.000401698,-0.0060958,-1.3419,0.00420417,0.012845,1945,904,12.7547,-2.32923
728,120,12.7571,2.41852,-0.0030817,0.000254991,-0.001385,0.000754963,-0.00358168,-1.22436,0.00267519,0.00961931,1952,904,12.7571,-2.41851
735,120,12.7267,2.49084,-0.000461086,0.00232485,-0.00152033,0.00299386,-0.0011301,-1.15625,0.00246068,0.0118442,1959,904,12.7266,-2.49082
742,120,12.7341,2.59564,0.00260172,0.00272285,-0.00168604,0.00434942,0.000975153,-0.803352,0.0026354,0.0126793,1966,904,12.7342,-2.59564
749,120,12.7383,2.67517,0.00553124,0.00326027,-0.0021395,0.0068179,0.0019736,-0.541436,0.00405096,0.0105346,1973,904,12.7383,-2.67515
756,120,12.7286,2.75342,0.00845269,0.00455138,-0.0027953,0.00991066,0.00309341,-0.480763,0.00585501,0.0120962,1980,904,12.7287,-2.75339
763,120,12.6979,2.81885,0.0106557,0.00611521,-0.00385871,0.0128625,0.00390845,-0.519495,0.00761423,0.0209775,1987,904,12.6978,-2.81883
770,120,12.7097,2.52386,0.012284,0.00784686,-0.00514915,0.0156722,0.00445867,-0.581986,0.00932428,0.041459,1994,904,12.7097,-2.52385
777,120,13.8068,2.62927,0,0,0,0,0,0,0,-1,2001,904,13.8068,-2.62929
784,120,12.4385,0.630066,0.0134049,0.0114423,-0.00850518,0.0209852,0.003862,-0.727965,0.012897,0.0448596,2008,904,12.4385,-0.630082
791,120,12.2136,1.3877,0.011719,0.0128205,-0.0106763,0.0229603,0.00157924,-0.811168,0.0148086,0.0425719,2015,904,12.2136,-1.38767
798,120,11.8661,1.75653,0.00737361,0.0132802,-0.0131576,0.0238119,-0.00315806,-0.895796,0.0170252,0.045421,2022,904,11.8661,-1.75654
805,120,0,0,0,0,0,0,0,0,0,-1,2029,904,0,0
812,120,0,0,0,0,0,0,0,0,0,-1,2036,904,0,0
-700,113,0,0,0,0,0,0,0,0,0,-1,524,911,0,0
-693,113,0,0,0,0,0,0,0,0,0,-1,531,911,0,0
-686,113,0,0,0,0,0,0,0,0,0,-1,538,911,0,0
-679,113,-14.4552,1.77863,0,0,0,0,0,0,0,-1,545,911,-14.4552,-1.77861
-672,113,-6.99298,0.0146484,0,0,0,0,0,0,0,-1,552,911,-6.99299,-0.0146736
-665,113,-12.9966,-2.38904,0,0,0,0,0,0,0,-1,559,911,-12.9966,2.38901
-658,113,-8.13263,-0.147644,0.0225921,0.0403992,-0.0295853,0.0623917,0.000599643,-0.93156,0.041396,0.0447717,566,911,-8.13261,0.147657
-651,113,-7.80725,0.171265,0,0,0,0,0,0,0,-1,573,911,-7.80727,-0.171254
-644,113,-7.48627,0.673645,0.0168506,0.0264128,-0.0125431,0.0350552,0.00820826,-0.967484,0.0211713,0.0444064,580,911,-7.48624,-0.673634
-637,113,-7.55914,0.807007,0.0135065,0.0199982,-0.00748291,0.0249089,0.00859579,-0.990037,0.0146094,0.0320652,587,911,-7.55911,-0.806984
-630,113,-7.65118,0.83783,0.0105645,0.0146044,-0.00381763,0.0169035,0.00826539,-1.02873,0.00976006,0.0144095,594,911,-7.65119,-0.837846
-623,113,-7.66345,0.766663,0.00764816,0.0101422,-0.00118702,0.0106168,0.00717353,-1.19042,0.00625448,0.00993996,601,911,-7.66344,-0.766638
-616,113,-7.6618,0.695801,0.00462898,0.00633389,0.000824506,0.00666739,0.00429548,1.18643,0.00390245,0.00882985,608,911,-7.66181,-0.695819
-609,113,-7.66272,0.648804,0.00102349,0.00412725,0.00226849,0.00532389,-0.000173152,1.08539,0.00360836,0.0106224,615,911,-7.66272,-0.648813
-602,113,-7.68542,0.593811,-0.00218218,-0.000403287,0.00153691,0.00048299,-0.00306846,1.04771,0.00222419,0.0149994,622,911,-7.68539,-0.593801
-595,113,-7.68158,0.545776,-0.00442666,-0.000959068,0.0016015,-0.000332598,-0.00505313,1.19792,0.00326354,0.0175696,629,911,-7.68157,-0.545768
-588,113,-7.65399,0.438538,-0.00601492,-0.00125634,0.00184031,-0.000627683,-0.00664357,1.24162,0.00423535,0.0165036,636,911,-7.65398,-0.438539
-581,113,-7.64117,0.360596,-0.00726754,-0.00162446,0.00217384,-0.000884171,-0.00800783,1.24257,0.0050696,0.0175128,643,911,-7.64117,-0.36058
-574,113,-7.59198,0.249268,-0.0084155,-0.00170215,0.002245,-0.00102059,-0.00909705,1.27605,0.00575475,0.0175414,650,911,-7.59201,-0.249292
-567,113,-7.93311,0.161072,-0.00904996,-0.00172574,0.00233352,-0.00104546,-0.00973024,1.28713,0.00616795,0.0328424,657,911,-7.93308,-0.161074
-560,113,-8.51965,0.0725098,-0.00912399,-0.00170194,0.00241799,-0.000983696,-0.00984223,1.28206,0.00625941,0.0497304,664,911,-8.51963,-0.0725327
-553,113,-8.53802,0.181458,-0.00865993,-0.00156261,0.00225903,-0.000904585,-0.00931796,1.28735,0.00593347,0.0389467,671,911,-8.53804,-0.181485
-546,113,-8.48242,0.266418,-0.00757458,-0.00119712,0.00189516,-0.000676455,-0.00809525,1.30268,0.00518607,0.0343588,678,911,-8.48242,-0.266418
-539,113,-8.41138,0.397583,-0.00572239,-0.000587316,0.00124262,-0.000302425,-0.00600728,1.34542,0.00390795,0.0352012,685,911,-8.41136,-0.397557
-532,113,-8.34943,0.428467,-0.00307232,0.000305678,0.000258994,0.00032542,-0.00309206,1.49472,0.00217797,0.0383166,692,911,-8.3494,-0.428458
-525,113,-8.52142,0.369324,0.00042866,0.00152661,-0.00111531,0.00222074,-0.000265463,-1.0141,0.00157645,0.0381991,699,911,-8.5214,-0.369345
-518,113,-8.84741,0.406189,0,0,0,0,0,0,0,-1,706,911,-8.84739,-0.406198
-511,113,-8.68512,0.375732,0,0,0,0,0,0,0,-1,713,911,-8.68515,-0.375745
-504,113,0,0,0,0,0,0,0,0,0,-1,720,911,0,0
-497,113,0,0,0,0,0,0,0,0,0,-1,727,911,0,0
-490,113,0,0,0,0,0,0,0,0,0,-1,734,911,0,0
-483,113,0,0,0,0,0,0,0,0,0,-1,741,911,0,0
-476,113,0,0,0,0,0,0,0,0,0,-1,748,911,0,0
-469,113,0,0,0,0,0,0,0,0,0,-1,755,911,0,0
-462,113,0,0,0,0,0,0,0,0,0,-1,762,911,0,0
-455,113,0,0,0,0,0,0,0,0,0,-1,769,911,0,0
-448,113,0,0,0,0,0,0,0,0,0,-1,776,911,0,0
-441,113,0,0,0,0,0,0,0,0,0,-1,783,911,0,0
-434,113,0,0,0,0,0,0,0,0,0,-1,790,911,0,0
-427,113,0,0,0,0,0,0,0,0,0,-1,797,911,0,0
-420,113,0,0,0,0,0,0,0,0,0,-1,804,911,0,0
-413,113,0,0,0,0,0,0,0,0,0,-1,811,911,0,0
-406,113,0,0,0,0,0,0,0,0,0,-1,818,911,0,0
-399,113,0,0,0,0,0,0,0,0,0,-1,825,911,0,0
-392,113,0,0,0,0,0,0,0,0,0,-1,832,911,0,0
-385,113,0,0,0,0,0,0,0,0,0,-1,839,911,0,0
-378,113,0,0,0,0,0,0,0,0,0,-1,846,911,0,0
-371,113,0,0,0,0,0,0,0,0,0,-1,853,911,0,0
-364,113,0,0,0,0,0,0,0,0,0,-1,860,911,0,0
-357,113,0,0,0,0,0,0,0,0,0,-1,867,911,0,0
-350,113,0,0,0,0,0,0,0,0,0,-1,874,911,0,0
-343,113,0,0,0,0,0,0,0,0,0,-1,881,911,0,0
-336,113,0,0,0,0,0,0,0,0,0,-1,888,911,0,0
-329,113,0,0,0,0,0,0,0,0,0,-1,895,911,0,0
-322,113,0,0,0,0,0,0,0,0,0,-1,902,911,0,0
-315,113,0,0,0,0,0,0,0,0,0,-1,909,911,0,0
-308,113,0,0,0,0,0,0,0,0,0,-1,916,911,0,0
-301,113,0,0,0,0,0,0,0,0,0,-1,923,911,0,0
-294,113,0,0,0,0,0,0,0,0,0,-1,930,911,0,0
-287,113,0,0,0,0,0,0,0,0,0,-1,937,911,0,0
-280,113,0,0,0,0,0,0,0,0,0,-1,944,911,0,0
-273,113,0,0,0,0,0,0,0,0,0,-1,951,911,0,0
-266,113,0,0,0,0,0,0,0,0,0,-1,958,911,0,0
-259,113,0,0,0,0,0,0,0,0,0,-1,965,911,0,0
-252,113,0,0,0,0,0,0,0,0,0,-1,972,911,0,0
-245,113,0,0,0,0,0,0,0,0,0,-1,979,911,0,0
-238,113,0,0,0,0,0,0,0,0,0,-1,986,911,0,0
-231,113,0,0,0,0,0,0,0,0,0,-1,993,911,0,0
-224,113,0,0,0,0,0,0,0,0,0,-1,1000,911,0,0
-217,113,0,0,0,0,0,0,0,0,0,-1,1007,911,0,0
-210,113,0,0,0,0,0,0,0,0,0,-1,1014,911,0,0
-203,113,0,0,0,0,0,0,0,0,0,-1,1021,911,0,0
-196,113,0,0,0,0,0,0,0,0,0,-1,1028,911,0,0
-189,113,0,0,0,0,0,0,0,0,0,-1,1035,911,0,0
-182,113,0,0,0,0,0,0,0,0,0,-1,1042,911,0,0
-175,113,0,0,0,0,0,0,0,0,0,-1,1049,911,0,0
-168,113,0,0,0,0,0,0,0,0,0,-1,1056,911,0,0
-161,113,0,0,0,0,0,0,0,0,0,-1,1063,911,0,0
-154,113,0,0,0,0,0,0,0,0,0,-1,1070,911,0,0
-147,113,0,0,0,0,0,0,0,0,0,-1,1077,911,0,0
-140,113,0,0,0,0,0,0,0,0,0,-1,1084,911,0,0
-133,113,0,0,0,0,0,0,0,0,0,-1,1091,911,0,0
-126,113,0,0,0,0,0,0,0,0,0,-1,1098,911,0,0
-119,113,0,0,0,0,0,0,0,0,0,-1,1105,911,0,0
-112,113,0,0,0,0,0,0,0,0,0,-1,1112,911,0,0
-105,113,0,0,0,0,0,0,0,0,0,-1,1119,911,0,0
-98,113,0,0,0,0,0,0,0,0,0,-1,1126,911,0,0
-91,113,0,0,0,0,0,0,0,0,0,-1,1133,911,0,0
-84,113,0,0,0,0,0,0,0,0,0,-1,1140,911,0,0
-77,113,0,0,0,0,0,0,0,0,0,-1,1147,911,0,0
-70,113,0,0,0,0,0,0,0,0,0,-1,1154,911,0,0
-63,113,0,0,0,0,0,0,0,0,0,-1,1161,911,0,0
-56,113,0,0,0,0,0,0,0,0,0,-1,1168,911,0,0
-49,113,0,0,0,0,0,0,0,0,0,-1,1175,911,0,0
-42,113,0,0,0,0,0,0,0,0,0,-1,1182,911,0,0
-35,113,0,0,0,0,0,0,0,0,0,-1,1189,911,0,0
-28,113,0,0,0,0,0,0,0,0,0,-1,1196,911,0,0
-21,113,0,0,0,0,0,0,0,0,0,-1,1203,911,0,0
-14,113,0,0,0,0,0,0,0,0,0,-1,1210,911,0,0
-7,113,0,0,0,0,0,0,0,0,0,-1,1217,911,0,0
0,113,0,0,0,0,0,0,0,0,0,-1,1224,911,0,0
7,113,0,0,0,0,0,0,0,0,0,-1,1231,911,0,0
14,113,0,0,0,0,0,0,0,0,0,-1,1238,911,0,0
21,113,0,0,0,0,0,0,0,0,0,-1,1245,911,0,0
28,113,0,0,0,0,0,0,0,0,0,-1,1252,911,0,0
35,113,0,0,0,0,0,0,0,0,0,-1,1259,911,0,0
42,113,0,0,0,0,0,0,0,0,0,-1,1266,911,0,0
49,113,0,0,0,0,0,0,0,0,0,-1,1273,911,0,0
56,113,0,0,0,0,0,0,0,0,0,-1,1280,911,0,0
63,113,0,0,0,0,0,0,0,0,0,-1,1287,911,0,0
70,113,0,0,0,0,0,0,0,0,0,-1,1294,911,0,0
77,113,0,0,0,0,0,0,0,0,0,-1,1301,911,0,0
84,113,0,0,0,0,0,0,0,0,0,-1,1308,911,0,0
91,113,0,0,0,0,0,0,0,0,0,-1,1315,911,0,0
98,113,0,0,0,0,0,0,0,0,0,-1,1322,911,0,0
105,113,0,0,0,0,0,0,0,0,0,-1,1329,911,0,0
112,113,0,0,0,0,0,0,0,0,0,-1,1336,911,0,0
119,113,0,0,0,0,0,0,0,0,0,-1,1343,911,0,0
126,113,0,0,0,0,0,0,0,0,0,-1,1350,911,0,0
133,113,0,0,0,0,0,0,0,0,0,-1,1357,911,0,0
140,113,0,0,0,0,0,0,0,0,0,-1,1364,911,0,0
147,113,0,0,0,0,0,0,0,0,0,-1,1371,911,0,0
154,113,0,0,0,0,0,0,0,0,0,-1,1378,911,0,0
161,113,0,0,0,0,0,0,0,0,0,-1,1385,911,0,0
168,113,0,0,0,0,0,0,0,0,0,-1,1392,911,0,0
175,113,0,0,0,0,0,0,0,0,0,-1,1399,911,0,0
182,113,0,0,0,0,0,0,0,0,0,-1,1406,911,0,0
189,113,0,0,0,0,0,0,0,0,0,-1,1413,911,0,0
196,113,0,0,0,0,0,0,0,0,0,-1,1420,911,0,0
203,113,0,0,0,0,0,0,0,0,0,-1,1427,911,0,0
210,113,0,0,0,0,0,0,0,0,0,-1,1434,911,0,0
217,113,0,0,0,0,0,0,0,0,0,-1,1441,911,0,0
224,113,0,0,0,0,0,0,0,0,0,-1,1448,911,0,0
231,113,0,0,0,0,0,0,0,0,0,-1,1455,911,0,0
238,113,0,0,0,0,0,0,0,0,0,-1,1462,911,0,0
245,113,0,0,0,0,0,0,0,0,0,-1,1469,911,0,0
252,113,0,0,0,0,0,0,0,0,0,-1,1476,911,0,0
259,113,0,0,0,0,0,0,0,0,0,-1,1483,911,0,0
266,113,0,0,0,0,0,0,0,0,0,-1,1490,911,0,0
273,113,0,0,0,0,0,0,0,0,0,-1,1497,911,0,0
280,113,0,0,0,0,0,0,0,0,0,-1,1504,911,0,0
287,113,0,0,0,0,0,0,0,0,0,-1,1511,911,0,0
294,113,0,0,0,0,0,0,0,0,0,-1,1518,911,0,0
301,113,0,0,0,0,0,0,0,0,0,-1,1525,911,0,0
308,113,0,0,0,0,0,0,0,0,0,-1,1532,911,0,0
315,113,0,0,0,0,0,0,0,0,0,-1,1539,911,0,0
322,113,0,0,0,0,0,0,0,0,0,-1,1546,911,0,0
329,113,0,0,0,0,0,0,0,0,0,-1,1553,911,0,0
336,113,0,0,0,0,0,0,0,0,0,-1,1560,911,0,0
343,113,0,0,0,0,0,0,0,0,0,-1,1567,911,0,0
350,113,0,0,0,0,0,0,0,0,0,-1,1574,911,0,0
357,113,0,0,0,0,0,0,0,0,0,-1,1581,911,0,0
364,113,0,0,0,0,0,0,0,0,0,-1,1588,911,0,0
371,113,0,0,0,0,0,0,0,0,0,-1,1595,911,0,0
378,113,0,0,0,0,0,0,0,0,0,-1,1602,911,0,0
385,113,0,0,0,0,0,0,0,0,0,-1,1609,911,0,0
392,113,0,0,0,0,0,0,0,0,0,-1,1616,911,0,0
399,113,0,0,0,0,0,0,0,0,0,-1,1623,911,0,0
406,113,0,0,0,0,0,0,0,0,0,-1,1630,911,0,0
413,113,0,0,0,0,0,0,0,0,0,-1,1637,911,0,0
420,113,0,0,0,0,0,0,0,0,0,-1,1644,911,0,0
427,113,0,0,0,0,0,0,0,0,0,-1,1651,911,0,0
434,113,0,0,0,0,0,0,0,0,0,-1,1658,911,0,0
441,113,0,0,0,0,0,0,0,0,0,-1,1665,911,0,0
448,113,0,0,0,0,0,0,0,0,0,-1,1672,911,0,0
455,113,0,0,0,0,0,0,0,0,0,-1,1679,911,0,0
462,113,0,0,0,0,0,0,0,0,0,-1,1686,911,0,0
469,113,0,0,0,0,0,0,0,0,0,-1,1693,911,0,0
476,113,0,0,0,0,0,0,0,0,0,-1,1700,911,0,0
483,113,0,0,0,0,0,0,0,0,0,-1,1707,911,0,0
490,113,0,0,0,0,0,0,0,0,0,-1,1714,911,0,0
497,113,0,0,0,0,0,0,0,0,0,-1,1721,911,0,0
504,113,0,0,0,0,0,0,0,0,0,-1,1728,911,0,0
511,113,0,0,0,0,0,0,0,0,0,-1,1735,911,0,0
518,113,0,0,0,0,0,0,0,0,0,-1,1742,911,0,0
525,113,0,0,0,0,0,0,0,0,0,-1,1749,911,0,0
532,113,0,0,0,0,0,0,0,0,0,-1,1756,911,0,0
539,113,0,0,0,0,0,0,0,0,0,-1,1763,911,0,0
546,113,0,0,0,0,0,0,0,0,0,-1,1770,911,0,0
553,113,0,0,0,0,0,0,0,0,0,-1,1777,911,0,0
560,113,0,0,0,0,0,0,0,0,0,-1,1784,911,0,0
567,113,0,0,0,0,0,0,0,0,0,-1,1791,911,0,0
574,113,0,0,0,0,0,0,0,0,0,-1,1798,911,0,0
581,113,0,0,0,0,0,0,0,0,0,-1,1805,911,0,0
588,113,0,0,0,0,0,0,0,0,0,-1,1812,911,0,0
595,113,0,0,0,0,0,0,0,0,0,-1,1819,911,0,0
602,113,0,0,0,0,0,0,0,0,0,-1,1826,911,0,0
609,113,0,0,0,0,0,0,0,0,0,-1,1833,911,0,0
616,113,0,0,0,0,0,0,0,0,0,-1,1840,911,0,0
623,113,0,0,0,0,0,0,0,0,0,-1,1847,911,0,0
630,113,14.1765,1.97882,0.00294536,0.00238388,0.000501169,0.00323906,0.00209018,0.530091,0.00189621,0.0386542,1854,911,14.1766,-1.97884
637,113,14.3373,2.11829,0.00204546,0.0021122,0.000318169,0.00239874,0.00175892,0.837643,0.00143427,0.0394201,1861,911,14.3372,-2.11831
644,113,14.2324,2.18726,0.00128544,0.00170672,0.000296918,0.00186013,0.00113204,1.09391,0.00108235,0.0395092,1868,911,14.2324,-2.18725
651,113,14.1508,2.05878,-0.000465737,0.00134338,-8.32386e-05,0.0013472,-0.000469559,-1.52491,0.00108894,0.0414921,1875,911,14.1508,-2.0588
658,113,14.1992,1.93561,-0.00288286,0.00103701,-0.000560962,0.0011157,-0.00296156,-1.43142,0.00243309,0.0401029,1882,911,14.1992,-1.93561
665,113,14.2135,2.01758,-0.00517345,0.000739841,-0.000927224,0.000881824,-0.00531543,-1.41885,0.00387119,0.034595,1889,911,14.2135,-2.0176
672,113,14.1655,2.0661,-0.00698736,0.000509813,-0.00120707,0.000699362,-0.0071769,-1.41504,0.00503394,0.0343277,1896,911,14.1656,-2.06612
679,113,14.205,1.90039,-0.00831449,0.000415657,-0.00146591,0.00065523,-0.00855407,-1.4088,0.00593319,0.0297101,1903,911,14.205,-1.9004
686,113,14.1714,1.84369,-0.00941491,0.000158779,-0.00148747,0.000384563,-0.00964069,-1.42016,0.00655908,0.0216972,1910,911,14.1714,-1.84367
693,113,13.9044,1.96106,0,0,0,0,0,0,0,-1,1917,911,13.9044,-1.96107
700,113,13.3384,2.04388,-0.00998767,-1.10816e-05,-0.00157971,0.000233077,-0.0102318,-1.41745,0.00690023,0.0293114,1924,911,13.3384,-2.04386
707,113,12.8184,2.0697,-0.00957302,2.52118e-05,-0.00151691,0.000259238,-0.00980704,-1.41772,0.00662613,0.0227785,1931,911,12.8184,-2.06971
714,113,12.8276,2.18079,-0.00836463,9.97678e-05,-0.00143185,0.000335423,-0.00860029,-1.40768,0.00584854,0.0151464,1938,911,12.8277,-2.18076
721,113,12.8234,2.30316,-0.00623359,0.000188694,-0.00115413,0.000389803,-0.00643469,-1.39828,0.00442546,0.0155994,1945,911,12.8233,-2.30317
728,113,12.84,2.4314,-0.00380527,0.000178917,-0.00119228,0.000508454,-0.00413481,-1.30114,0.00294071,0.0149291,1952,911,12.8399,-2.43138
735,113,12.8273,2.50757,-0.00136321,0.00174569,-0.00135092,0.00225068,-0.0018682,-1.21307,0.00238146,0.0134894,1959,911,12.8273,-2.50757
742,113,12.8297,2.58032,0.00162282,0.00158089,-0.00150191,0.00310391,9.97996e-05,-0.778418,0.00203682,0.0113533,1966,911,12.8297,-2.58033
749,113,12.823,2.67023,0.00449101,0.00142457,-0.00203718,0.00550747,0.000408109,-0.462811,0.00354346,0.00883501,1973,911,12.8231,-2.67023
756,113,12.8339,2.73535,0.00742095,0.00178186,-0.00271775,0.00851753,0.000685287,-0.383508,0.00546426,0.0097141,1980,911,12.8339,-2.73535
763,113,12.8085,2.80743,0.00962997,0.00206377,-0.00384395,0.0112402,0.000453558,-0.396688,0.00734693,0.0188031,1987,911,12.8085,-2.80746
770,113,12.7557,2.66681,0.0112149,0.00213269,-0.00524149,0.0136088,-0.000261258,-0.428437,0.00916087,0.0410169,1994,911,12.7557,-2.66683
777,113,13.1472,2.89917,0.0122824,0.00179589,-0.00694793,0.0157435,-0.00166519,-0.462163,0.0110924,0.0468635,2001,911,13.1472,-2.89918
784,113,12.3881,1.37646,0.0124662,0.000819242,-0.00905276,0.0174068,-0.00412135,-0.499579,0.0131947,0.0469112,2008,911,12.3881,-1.37644
791,113,12.2654,1.81458,0.0111815,-0.00118604,-0.0116923,0.0182245,-0.00822905,-0.542157,0.0156322,0.0459999,2015,911,12.2654,-1.81457
798,113,12.2653,1.67572,0.00761691,-0.00482626,-0.0149401,0.0175791,-0.0147885,-0.588101,0.0187106,0.0443219,2022,911,12.2652,-1.67569
805,113,0,0,0,0,0,0,0,0,0,-1,2029,911,0,0
812,113,0,0,0,0,0,0,0,0,0,-1,2036,911,0,0
-700,106,0,0,0,0,0,0,0,0,0,-1,524,918,0,0
-693,106,0,0,0,0,0,0,0,0,0,-1,531,918,0,0
-686,106,0,0,0,0,0,0,0,0,0,-1,538,918,0,0
-679,106,-13.2316,1.80066,0,0,0,0,0,0,0,-1,545,918,-13.2316,-1.80067
-672,106,-13.1782,1.2475,0,0,0,0,0,0,0,-1,552,918,-13.1782,-1.24748
-665,106,-12.2827,-1.461,0.0241462,0.0408053,-0.0490329,0.0822111,-0.0172596,-0.869533,0.061375,0.0486928,559,918,-12.2827,1.46102
-658,106,-11.3198,-3.18262,0.0224955,0.0357343,-0.0353226,0.0650523,-0.00682258,-0.878023,0.0458121,0.0451995,566,918,-11.3197,3.1826
-651,106,-7.75922,1.05518,0,0,0,0,0,0,0,-1,573,918,-7.75923,-1.05519
-644,106,-7.7384,0.998047,0.0163313,0.0238721,-0.0163603,0.0368909,0.00331252,-0.898651,0.0235675,0.0429772,580,918,-7.73843,-0.998024
-637,106,-7.71826,0.925598,0.0128907,0.0182286,-0.01037,0.0262677,0.0048517,-0.91135,0.0161395,0.0272786,587,918,-7.71824,-0.925615
-630,106,-7.72522,0.853821,0.00993485,0.0134878,-0.00595345,0.0179242,0.00549848,-0.930389,0.010603,0.011089,594,918,-7.72519,-0.853842
-623,106,-7.73077,0.762817,0.00698729,0.00952023,-0.0026581,0.0111981,0.00530938,-1.00772,0.00646814,0.00978558,601,918,-7.73079,-0.762841
-616,106,-7.73151,0.686279,0.00392432,0.00603423,-0.000153449,0.00604533,0.00391321,-1.49858,0.00354041,0.00993288,608,918,-7.73151,-0.686275
-609,106,-7.72571,0.645386,0.000359112,0.00412421,0.00171064,0.00478533,-0.000302015,1.202,0.00329551,0.0102903,615,918,-7.72568,-0.645416
-602,106,-7.73743,0.582886,-0.00265672,-0.000166664,0.0011704,0.000297085,-0.00312047,1.19354,0.00218608,0.0126217,622,918,-7.73742,-0.582896
-595,106,-7.77264,0.50946,-0.00464776,-0.000681953,0.00132022,-0.000282654,-0.00504706,1.27709,0.00327456,0.0154515,629,918,-7.77266,-0.509471
-588,106,-7.74066,0.432312,-0.0059929,-0.000921836,0.00151867,-0.000501819,-0.00641291,1.30097,0.00411821,0.0155733,636,918,-7.74069,-0.432321
-581,106,-7.68555,0.35199,-0.00700913,-0.00120553,0.00174755,-0.000719944,-0.00749472,1.29977,0.00477463,0.0141961,643,918,-7.68556,-0.351999
-574,106,-7.7088,0.284363,-0.00792016,-0.00123065,0.00172637,-0.0008114,-0.00833941,1.33256,0.00530985,0.0171524,650,918,-7.70882,-0.284389
-567,106,-8.11053,0.282654,-0.00838381,-0.00115853,0.00174219,-0.000760383,-0.00878195,1.34612,0.00561835,0.0297903,657,918,-8.11055,-0.282653
-560,106,-8.53802,0.235596,-0.00832762,-0.00102133,0.00173032,-0.000632261,-0.00871669,1.34962,0.00561226,0.0328817,664,918,-8.538,-0.235566
-553,106,-8.57196,0.249451,-0.00772509,-0.000726995,0.00147383,-0.000429268,-0.00802281,1.37147,0.00521135,0.0355734,671,918,-8.57194,-0.249449
-546,106,-8.48444,0.207581,-0.00650536,-0.000214377,0.00100224,-5.85662e-05,-0.00666117,1.41657,0.00442139,0.0390818,678,918,-8.48446,-0.207589
-539,106,-8.34912,0.461304,-0.0045739,0.000565553,0.000242391,0.00057696,-0.00458531,1.52377,0.00326622,0.0391906,685,918,-8.34914,-0.461289
-532,106,-8.30054,0.501038,-0.00191873,0.00166193,-0.000856368,0.0018562,-0.00211301,-1.34772,0.00229322,0.0405878,692,918,-8.30054,-0.501051
-525,106,-8.37396,0.378357,0.00145407,0.00313714,-0.00236634,0.00480712,-0.000215912,-0.956238,0.00327909,0.0401517,699,918,-8.37393,-0.378331
-518,106,-8.45276,0.151367,0.0049308,0.00513632,-0.00427069,0.00930549,0.000761633,-0.797426,0.00596601,0.0412501,706,918,-8.45275,-0.151352
-511,106,0,0,0,0,0,0,0,0,0,-1,713,918,0,0
-504,106,0,0,0,0,0,0,0,0,0,-1,720,918,0,0
-497,106,0,0,0,0,0,0,0,0,0,-1,727,918,0,0
-490,106,0,0,0,0,0,0,0,0,0,-1,734,918,0,0
-483,106,0,0,0,0,0,0,0,0,0,-1,741,918,0,0
-476,106,0,0,0,0,0,0,0,0,0,-1,748,918,0,0
-469,106,0,0,0,0,0,0,0,0,0,-1,755,918,0,0
-462,106,0,0,0,0,0,0,0,0,0,-1,762,918,0,0
-455,106,0,0,0,0,0,0,0,0,0,-1,769,918,0,0
-448,106,0,0,0,0,0,0,0,0,0,-1,776,918,0,0
-441,106,0,0,0,0,0,0,0,0,0,-1,783,918,0,0
-434,106,0,0,0,0,0,0,0,0,0,-1,790,918,0,0
-427,106,0,0,0,0,0,0,0,0,0,-1,797,918,0,0
-420,106,0,0,0,0,0,0,0,0,0,-1,804,918,0,0
-413,106,0,0,0,0,0,0,0,0,0,-1,811,918,0,0
-406,106,0,0,0,0,0,0,0,0,0,-1,818,918,0,0
-399,106,0,0,0,0,0,0,0,0,0,-1,825,918,0,0
-392,106,0,0,0,0,0,0,0,0,0,-1,832,918,0,0
-385,106,0,0,0,0,0,0,0,0,0,-1,839,918,0,0
-378,106,0,0,0,0,0,0,0,0,0,-1,846,918,0,0
-371,106,0,0,0,0,0,0,0,0,0,-1,853,918,0,0
-364,106,0,0,0,0,0,0,0,0,0,-1,860,918,0,0
-357,106,0,0,0,0,0,0,0,0,0,-1,867,918,0,0
-350,106,0,0,0,0,0,0,0,0,0,-1,874,918,0,0
-343,106,0,0,0,0,0,0,0,0,0,-1,881,918,0,0
-336,106,0,0,0,0,0,0,0,0,0,-1,888,918,0,0
-329,106,0,0,0,0,0,0,0,0,0,-1,895,918,0,0
-322,106,0,0,0,0,0,0,0,0,0,-1,902,918,0,0
-315,106,0,0,0,0,0,0,0,0,0,-1,909,918,0,0
-308,106,0,0,0,0,0,0,0,0,0,-1,916,918,0,0
-301,106,0,0,0,0,0,0,0,0,0,-1,923,918,0,0
-294,106,0,0,0,0,0,0,0,0,0,-1,930,918,0,0
-287,106,0,0,0,0,0,0,0,0,0,-1,937,918,0,0
-280,106,0,0,0,0,0,0,0,0,0,-1,944,918,0,0
-273,106,0,0,0,0,0,0,0,0,0,-1,951,918,0,0
-266,106,0,0,0,0,0,0,0,0,0,-1,958,918,0,0
-259,106,0,0,0,0,0,0,0,0,0,-1,965,918,0,0
-252,106,0,0,0,0,0,0,0,0,0,-1,972,918,0,0
-245,106,0,0,0,0,0,0,0,0,0,-1,979,918,0,0
-238,106,0,0,0,0,0,0,0,0,0,-1,986,918,0,0
-231,106,0,0,0,0,0,0,0,0,0,-1,993,918,0,0
-224,106,0,0,0,0,0,0,0,0,0,-1,1000,918,0,0
-217,106,0,0,0,0,0,0,0,0,0,-1,1007,918,0,0
-210,106,0,0,0,0,0,0,0,0,0,-1,1014,918,0,0
-203,106,0,0,0,0,0,0,0,0,0,-1,1021,918,0,0
-196,106,0,0,0,0,0,0,0,0,0,-1,1028,918,0,0
-189,106,0,0,0,0,0,0,0,0,0,-1,1035,918,0,0
-182,106,0,0,0,0,0,0,0,0,0,-1,1042,918,0,0
-175,106,0,0,0,0,0,0,0,0,0,-1,1049,918,0,0
-168,106,0,0,0,0,0,0,0,0,0,-1,1056,918,0,0
-161,106,0,0,0,0,0,0,0,0,0,-1,1063,918,0,0
-154,106,0,0,0,0,0,0,0,0,0,-1,1070,918,0,0
-147,106,0,0,0,0,0,0,0,0,0,-1,1077,918,0,0
-140,106,0,0,0,0,0,0,0,0,0,-1,1084,918,0,0
-133,106,0,0,0,0,0,0,0,0,0,-1,1091,918,0,0
-126,106,0,0,0,0,0,0,0,0,0,-1,1098,918,0,0
-119,106,0,0,0,0,0,0,0,0,0,-1,1105,918,0,0
-112,106,0,0,0,0,0,0,0,0,0,-1,1112,918,0,0
-105,106,0,0,0,0,0,0,0,0,0,-1,1119,918,0,0
-98,106,0,0,0,0,0,0,0,0,0,-1,1126,918,0,0
-91,106,0,0,0,0,0,0,0,0,0,-1,1133,918,0,0
-84,106,0,0,0,0,0,0,0,0,0,-1,1140,918,0,0
-77,106,0,0,0,0,0,0,0,0,0,-1,1147,918,0,0
-70,106,0,0,0,0,0,0,0,0,0,-1,1154,918,0,0
-63,106,0,0,0,0,0,0,0,0,0,-1,1161,918,0,0
-56,106,0,0,0,0,0,0,0,0,0,-1,1168,918,0,0
-49,106,0,0,0,0,0,0,0,0,0,-1,1175,918,0,0
-42,106,0,0,0,0,0,0,0,0,0,-1,1182,918,0,0
-35,106,0,0,0,0,0,0,0,0,0,-1,1189,918,0,0
-28,106,0,0,0,0,0,0,0,0,0,-1,1196,918,0,0
-21,106,0,0,0,0,0,0,0,0,0,-1,1203,918,0,0
-14,106,0,0,0,0,0,0,0,0,0,-1,1210,918,0,0
-7,106,0,0,0,0,0,0,0,0,0,-1,1217,918,0,0
0,106,0,0,0,0,0,0,0,0,0,-1,1224,918,0,0
7,106,0,0,0,0,0,0,0,0,0,-1,1231,918,0,0
14,106,0,0,0,0,0,0,0,0,0,-1,1238,918,0,0
21,106,0,0,0,0,0,0,0,0,0,-1,1245,918,0,0
28,106,0,0,0,0,0,0,0,0,0,-1,1252,918,0,0
35,106,0,0,0,0,0,0,0,0,0,-1,1259,918,0,0
42,106,0,0,0,0,0,0,0,0,0,-1,1266,918,0,0
49,106,0,0,0,0,0,0,0,0,0,-1,1273,918,0,0
56,106,0,0,0,0,0,0,0,0,0,-1,1280,918,0,0
63,106,0,0,0,0,0,0,0,0,0,-1,1287,918,0,0
70,106,0,0,0,0,0,0,0,0,0,-1,1294,918,0,0
77,106,0,0,0,0,0,0,0,0,0,-1,1301,918,0,0
84,106,0,0,0,0,0,0,0,0,0,-1,1308,918,0,0
91,106,0,0,0,0,0,0,0,0,0,-1,1315,918,0,0
98,106,0,0,0,0,0,0,0,0,0,-1,1322,918,0,0
105,106,0,0,0,0,0,0,0,0,0,-1,1329,918,0,0
112,106,0,0,0,0,0,0,0,0,0,-1,1336,918,0,0
119,106,0,0,0,0,0,0,0,0,0,-1,1343,918,0,0
126,106,0,0,0,0,0,0,0,0,0,-1,1350,918,0,0
133,106,0,0,0,0,0,0,0,0,0,-1,1357,918,0,0
140,106,0,0,0,0,0,0,0,0,0,-1,1364,918,0,0
147,106,0,0,0,0,0,0,0,0,0,-1,1371,918,0,0
154,106,0,0,0,0,0,0,0,0,0,-1,1378,918,0,0
161,106,0,0,0,0,0,0,0,0,0,-1,1385,918,0,0
168,106,0,0,0,0,0,0,0,0,0,-1,1392,918,0,0
175,106,0,0,0,0,0,0,0,0,0,-1,1399,918,0,0
182,106,0,0,0,0,0,0,0,0,0,-1,1406,918,0,0
189,106,0,0,0,0,0,0,0,0,0,-1,1413,918,0,0
196,106,0,0,0,0,0,0,0,0,0,-1,1420,918,0,0
203,106,0,0,0,0,0,0,0,0,0,-1,1427,918,0,0
210,106,0,0,0,0,0,0,0,0,0,-1,1434,918,0,0
217,106,0,0,0,0,0,0,0,0,0,-1,1441,918,0,0
224,106,0,0,0,0,0,0,0,0,0,-1,1448,918,0,0
231,106,0,0,0,0,0,0,0,0,0,-1,1455,918,0,0
238,106,0,0,0,0,0,0,0,0,0,-1,1462,918,0,0
245,106,0,0,0,0,0,0,0,0,0,-1,1469,918,0,0
252,106,0,0,0,0,0,0,0,0,0,-1,1476,918,0,0
259,106,0,0,0,0,0,0,0,0,0,-1,1483,918,0,0
266,106,0,0,0,0,0,0,0,0,0,-1,1490,918,0,0
273,106,0,0,0,0,0,0,0,0,0,-1,1497,918,0,0
280,106,0,0,0,0,0,0,0,0,0,-1,1504,918,0,0
287,106,0,0,0,0,0,0,0,0,0,-1,1511,918,0,0
294,106,0,0,0,0,0,0,0,0,0,-1,1518,918,0,0
301,106,0,0,0,0,0,0,0,0,0,-1,1525,918,0,0
308,106,0,0,0,0,0,0,0,0,0,-1,1532,918,0,0
315,106,0,0,0,0,0,0,0,0,0,-1,1539,918,0,0
322,106,0,0,0,0,0,0,0,0,0,-1,1546,918,0,0
329,106,0,0,0,0,0,0,0,0,0,-1,1553,918,0,0
336,106,0,0,0,0,0,0,0,0,0,-1,1560,918,0,0
343,106,0,0,0,0,0,0,0,0,0,-1,1567,918,0,0
350,106,0,0,0,0,0,0,0,0,0,-1,1574,918,0,0
357,106,0,0,0,0,0,0,0,0,0,-1,1581,918,0,0
364,106,0,0,0,0,0,0,0,0,0,-1,1588,918,0,0
371,106,0,0,0,0,0,0,0,0,0,-1,1595,918,0,0
378,106,0,0,0,0,0,0,0,0,0,-1,1602,918,0,0
385,106,0,0,0,0,0,0,0,0,0,-1,1609,918,0,0
392,106,0,0,0,0,0,0,0,0,0,-1,1616,918,0,0
399,106,0,0,0,0,0,0,0,0,0,-1,1623,918,0,0
406,106,0,0,0,0,0,0,0,0,0,-1,1630,918,0,0
413,106,0,0,0,0,0,0,0,0,0,-1,1637,918,0,0
420,106,0,0,0,0,0,0,0,0,0,-1,1644,918,0,0
427,106,0,0,0,0,0,0,0,0,0,-1,1651,918,0,0
434,106,0,0,0,0,0,0,0,0,0,-1,1658,918,0,0
441,106,0,0,0,0,0,0,0,0,0,-1,1665,918,0,0
448,106,0,0,0,0,0,0,0,0,0,-1,1672,918,0,0
455,106,0,0,0,0,0,0,0,0,0,-1,1679,918,0,0
462,106,0,0,0,0,0,0,0,0,0,-1,1686,918,0,0
469,106,0,0,0,0,0,0,0,0,0,-1,1693,918,0,0
476,106,0,0,0,0,0,0,0,0,0,-1,1700,918,0,0
483,106,0,0,0,0,0,0,0,0,0,-1,1707,918,0,0
490,106,0,0,0,0,0,0,0,0,0,-1,1714,918,0,0
497,106,0,0,0,0,0,0,0,0,0,-1,1721,918,0,0
504,106,0,0,0,0,0,0,0,0,0,-1,1728,918,0,0
511,106,0,0,0,0,0,0,0,0,0,-1,1735,918,0,0
518,106,0,0,0,0,0,0,0,0,0,-1,1742,918,0,0
525,106,0,0,0,0,0,0,0,0,0,-1,1749,918,0,0
532,106,0,0,0,0,0,0,0,0,0,-1,1756,918,0,0
539,106,0,0,0,0,0,0,0,0,0,-1,1763,918,0,0
546,106,0,0,0,0,0,0,0,0,0,-1,1770,918,0,0
553,106,0,0,0,0,0,0,0,0,0,-1,1777,918,0,0
560,106,0,0,0,0,0,0,0,0,0,-1,1784,918,0,0
567,106,0,0,0,0,0,0,0,0,0,-1,1791,918,0,0
574,106,0,0,0,0,0,0,0,0,0,-1,1798,918,0,0
581,106,0,0,0,0,0,0,0,0,0,-1,1805,918,0,0
588,106,0,0,0,0,0,0,0,0,0,-1,1812,918,0,0
595,106,0,0,0,0,0,0,0,0,0,-1,1819,918,0,0
602,106,0,0,0,0,0,0,0,0,0,-1,1826,918,0,0
609,106,0,0,0,0,0,0,0,0,0,-1,1833,918,0,0
616,106,0,0,0,0,0,0,0,0,0,-1,1840,918,0,0
623,106,0,0,0,0,0,0,0,0,0,-1,1847,918,0,0
630,106,14.2748,1.85913,0.00311419,0.00337467,0.00177249,0.00502171,0.00146716,0.822071,0.00298161,0.0365455,1854,918,14.2748,-1.85916
637,106,14.3398,2.02698,0.00209607,0.00282435,0.00135477,0.00386307,0.00105736,0.916686,0.00230523,0.0370657,1861,918,14.3399,-2.02696
644,106,14.3724,2.17847,0.00154962,0.00223149,0.00120854,0.00314626,0.000634842,0.922878,0.00192118,0.0371266,1868,918,14.3724,-2.17846
651,106,14.3473,2.04907,8.12011e-05,0.00178679,0.000764877,0.00207955,-0.000211559,1.20525,0.001462,0.0393555,1875,918,14.3473,-2.04909
658,106,14.3099,1.90002,-0.00220799,0.00144911,0.000228841,0.00146337,-0.00222225,1.50855,0.00214288,0.0399333,1882,918,14.31,-1.90005
665,106,14.2817,1.86725,-0.0045336,0.00114182,-0.000179677,0.00114751,-0.00453928,-1.53918,0.00347247,0.0381186,1889,918,14.2817,-1.86727
672,106,14.2019,2.02594,-0.00643921,0.000897308,-0.000500559,0.000931302,-0.0064732,-1.50299,0.00465705,0.0382895,1896,918,14.2019,-2.02594
679,106,14.1354,2.00842,-0.0078973,0.000763877,-0.000772327,0.000832208,-0.00796563,-1.48255,0.00560844,0.0325305,1903,918,14.1353,-2.0084
686,106,14.1479,1.92542,-0.00910285,0.000483883,-0.000836196,0.000556273,-0.00917524,-1.48444,0.00631043,0.0256666,1910,918,14.1479,-1.92539
693,106,14.061,2.01898,-0.00973202,0.000310458,-0.000949427,0.00039943,-0.00982099,-1.47736,0.00668445,0.0165428,1917,918,14.061,-2.01896
700,106,13.7559,2.08228,-0.00985559,0.000263042,-0.00103789,0.000368404,-0.00996095,-1.46963,0.00676678,0.0347737,1924,918,13.7558,-2.0823
707,106,12.8964,2.08038,0,0,0,0,0,0,0,-1,1931,918,12.8963,-2.08036
714,106,12.9219,2.17175,-0.00851492,0.000277971,-0.000946825,0.00037877,-0.00861572,-1.46474,0.00587414,0.0158285,1938,918,12.9219,-2.17175
721,106,12.9269,2.29028,-0.00663998,0.000310297,-0.000752523,0.000390842,-0.00672053,-1.46417,0.00461615,0.0160463,1945,918,12.9269,-2.29029
728,106,12.9517,2.42505,-0.0044732,0.000169439,-0.000852579,0.000321056,-0.00462482,-1.3948,0.00319561,0.0154109,1952,918,12.9517,-2.42503
735,106,12.9368,2.49615,-0.00220501,0.00123666,-0.00102717,0.00151991,-0.00248826,-1.30173,0.00233652,0.0135692,1959,918,12.9367,-2.49616
742,106,12.9189,2.56653,0.000645235,0.000613586,-0.00118682,0.00181634,-0.000557515,-0.778732,0.00143334,0.0101801,1966,918,12.919,-2.56655
749,106,12.9163,2.65997,0.00343271,-0.000143926,-0.00177228,0.00416214,-0.000873358,-0.390447,0.00310707,0.00809183,1973,918,12.9163,-2.65995
756,106,12.9181,2.72156,0.00637962,-0.000596939,-0.00243321,0.00714441,-0.00136173,-0.304536,0.00527576,0.00840911,1980,918,12.918,-2.72153
763,106,12.9136,2.79419,0.00869085,-0.00143149,-0.00353702,0.0098043,-0.00254494,-0.304978,0.00752927,0.0152792,1987,918,12.9135,-2.79417
770,106,12.902,2.99048,0.0104047,-0.00279227,-0.0049299,0.012043,-0.00443053,-0.320829,0.00984367,0.034072,1994,918,12.9019,-2.99049
777,106,12.8337,3.29694,0.0116939,-0.00498007,-0.00666234,0.014029,-0.00731511,-0.337105,0.0125246,0.0439084,2001,918,12.8337,-3.29691
784,106,11.8068,2.51373,0.0123584,-0.00827528,-0.00885746,0.0156391,-0.0115559,-0.354717,0.0157599,0.0466054,2008,918,11.8068,-2.51375
791,106,12.2046,2.25665,0.0119465,-0.0131145,-0.0116942,0.0165557,-0.0177236,-0.375443,0.019795,0.0477557,2015,918,12.2045,-2.25664
798,106,12.214,2.24481,0.00981033,-0.0201349,-0.0153186,0.0162582,-0.0265828,-0.39841,0.0249726,0.0465358,2022,918,12.214,-2.24483
805,106,0,0,0,0,0,0,0,0,0,-1,2029,918,0,0
812,106,0,0,0,0,0,0,0,0,0,-1,2036,918,0,0
-700,99,0,0,0,0,0,0,0,0,0,-1,524,925,0,0
-693,99,0,0,0,0,0,0,0,0,0,-1,531,925,0,0
-686,99,0,0,0,0,0,0,0,0,0,-1,538,925,0,0
-679,99,-11.9531,1.77625,0.0216538,0.0342906,-0.0871091,0.11531,-0.0593657,-0.821602,0.102559,0.0465078,545,925,-11.9531,-1.77623
-672,99,-11.9471,1.33093,0.0245651,0.0354329,-0.0681799,0.0983951,-0.0383971,-0.825164,0.0814699,0.0480997,552,925,-11.9471,-1.33095
-665,99,-11.6271,-0.269775,0.0243341,0.0336535,-0.0519892,0.0811914,-0.0232038,-0.830093,0.0632962,0.0474253,559,925,-11.6271,0.269761
-658,99,-7.94733,1.40082,0,0,0,0,0,0,0,-1,566,925,-7.94734,-1.4008
-651,99,-8.00409,1.34406,0.0191474,0.0256717,-0.027497,0.0500994,-0.00528027,-0.84444,0.0352916,0.0478284,573,925,-8.00409,-1.34407
-644,99,-7.85229,1.05847,0.0156273,0.0208664,-0.0188784,0.0373061,-0.000812415,-0.854338,0.0251459,0.0442453,580,925,-7.85231,-1.0585
-637,99,-7.77661,0.917725,0.0121153,0.0161793,-0.0123885,0.0267014,0.00159326,-0.866686,0.0172943,0.0275797,587,925,-7.77659,-0.917753
-630,99,-7.79529,0.849426,0.00913801,0.0122346,-0.00758468,0.0184274,0.0029452,-0.886081,0.0114304,0.0127975,594,925,-7.7953,-0.849449
-623,99,-7.81592,0.772766,0.00617834,0.00885883,-0.00386694,0.0116112,0.00342597,-0.952215,0.00688888,0.00801416,601,925,-7.81594,-0.772751
-616,99,-7.81281,0.692139,0.00315056,0.00572956,-0.000997093,0.00607009,0.00281003,-1.24169,0.00350778,0.00927578,608,925,-7.81279,-0.69212
-609,99,-7.80377,0.639587,-0.000274098,0.00412215,0.00115666,0.00440789,-0.000559847,1.3286,0.00314188,0.0103565,615,925,-7.8038,-0.639611
-602,99,-7.80591,0.596436,-0.00306128,0.00018142,0.000781435,0.000359908,-0.00323977,1.34624,0.00228927,0.0107168,622,925,-7.80593,-0.596443
-595,99,-7.84467,0.52417,-0.00482279,-0.000332908,0.000965576,-0.000134062,-0.00502164,1.3677,0.00330398,0.0130933,629,925,-7.84465,-0.524145
-588,99,-7.81842,0.449707,-0.0059377,-0.000522464,0.00113406,-0.00029456,-0.00616561,1.37247,0.00401582,0.0127118,636,925,-7.81841,-0.449734
-581,99,-7.75952,0.363708,-0.00672052,-0.000712846,0.00124231,-0.000466087,-0.00696728,1.37472,0.00449755,0.0112651,643,925,-7.75953,-0.36373
-574,99,-7.85095,0.289978,-0.00737141,-0.000686124,0.00112188,-0.000502881,-0.00755466,1.40889,0.00487746,0.0135829,650,925,-7.85098,-0.290006
-567,99,-8.16418,0.236023,-0.00764977,-0.000476764,0.0010248,-0.000333225,-0.00779331,1.43164,0.00508811,0.0306671,657,925,-8.16416,-0.236048
-560,99,-8.46075,0.31488,-0.0074545,-0.000182439,0.00086859,-8.01319e-05,-0.00755681,1.45355,0.00501138,0.0340578,664,925,-8.46075,-0.314909
-553,99,-8.55475,0.419739,-0.00672402,0.00030252,0.000474689,0.000334444,-0.00675594,1.50365,0.00461948,0.0396013,671,925,-8.55476,-0.419718
-546,99,-8.54895,0.308289,-0.00538603,0.00101631,-0.000148559,0.00101975,-0.00538947,-1.54761,0.00397672,0.041595,678,925,-8.54896,-0.308276
-539,99,-8.52032,0.041748,-0.00338862,0.00203593,-0.00106275,0.00223671,-0.0035894,-1.38407,0.00339379,0.0383785,685,925,-8.52031,-0.0417534
-532,99,-8.24347,0.499939,-0.000734294,0.00342737,-0.00232211,0.00446456,-0.00177148,-1.15073,0.0037106,0.0432754,692,925,-8.24349,-0.499937
-525,99,-8.37018,0.543701,0.0024947,0.00528701,-0.00400943,0.00813642,-0.000354708,-0.952941,0.0055463,0.044381,699,925,-8.3702,-0.54368
-518,99,-8.37976,0.189758,0.0054686,0.00781814,-0.00609681,0.0128523,0.00043441,-0.880575,0.00842715,0.0422348,706,925,-8.37977,-0.189752
-511,99,0,0,0,0,0,0,0,0,0,-1,713,925,0,0
-504,99,0,0,0,0,0,0,0,0,0,-1,720,925,0,0
-497,99,0,0,0,0,0,0,0,0,0,-1,727,925,0,0
-490,99,0,0,0,0,0,0,0,0,0,-1,734,925,0,0
-483,99,0,0,0,0,0,0,0,0,0,-1,741,925,0,0
-476,99,0,0,0,0,0,0,0,0,0,-1,748,925,0,0
-469,99,0,0,0,0,0,0,0,0,0,-1,755,925,0,0
-462,99,0,0,0,0,0,0,0,0,0,-1,762,925,0,0
-455,99,0,0,0,0,0,0,0,0,0,-1,769,925,0,0
-448,99,0,0,0,0,0,0,0,0,0,-1,776,925,0,0
-441,99,0,0,0,0,0,0,0,0,0,-1,783,925,0,0
-434,99,0,0,0,0,0,0,0,0,0,-1,790,925,0,0
-427,99,0,0,0,0,0,0,0,0,0,-1,797,925,0,0
-420,99,0,0,0,0,0,0,0,0,0,-1,804,925,0,0
-413,99,0,0,0,0,0,0,0,0,0,-1,811,925,0,0
-406,99,0,0,0,0,0,0,0,0,0,-1,818,925,0,0
-399,99,0,0,0,0,0,0,0,0,0,-1,825,925,0,0
-392,99,0,0,0,0,0,0,0,0,0,-1,832,925,0,0
-385,99,0,0,0,0,0,0,0,0,0,-1,839,925,0,0
-378,99,0,0,0,0,0,0,0,0,0,-1,846,925,0,0
-371,99,0,0,0,0,0,0,0,0,0,-1,853,925,0,0
-364,99,0,0,0,0,0,0,0,0,0,-1,860,925,0,0
-357,99,0,0,0,0,0,0,0,0,0,-1,867,925,0,0
-350,99,0,0,0,0,0,0,0,0,0,-1,874,925,0,0
-343,99,0,0,0,0,0,0,0,0,0,-1,881,925,0,0
-336,99,0,0,0,0,0,0,0,0,0,-1,888,925,0,0
-329,99,0,0,0,0,0,0,0,0,0,-1,895,925,0,0
-322,99,0,0,0,0,0,0,0,0,0,-1,902,925,0,0
-315,99,0,0,0,0,0,0,0,0,0,-1,909,925,0,0
-308,99,0,0,0,0,0,0,0,0,0,-1,916,925,0,0
-301,99,0,0,0,0,0,0,0,0,0,-1,923,925,0,0
-294,99,0,0,0,0,0,0,0,0,0,-1,930,925,0,0
-287,99,0,0,0,0,0,0,0,0,0,-1,937,925,0,0
-280,99,0,0,0,0,0,0,0,0,0,-1,944,925,0,0
-273,99,0,0,0,0,0,0,0,0,0,-1,951,925,0,0
-266,99,0,0,0,0,0,0,0,0,0,-1,958,925,0,0
-259,99,0,0,0,0,0,0,0,0,0,-1,965,925,0,0
-252,99,0,0,0,0,0,0,0,0,0,-1,972,925,0,0
-245,99,0,0,0,0,0,0,0,0,0,-1,979,925,0,0
-238,99,0,0,0,0,0,0,0,0,0,-1,986,925,0,0
-231,99,0,0,0,0,0,0,0,0,0,-1,993,925,0,0
-224,99,0,0,0,0,0,0,0,0,0,-1,1000,925,0,0
-217,99,0,0,0,0,0,0,0,0,0,-1,1007,925,0,0
-210,99,0,0,0,0,0,0,0,0,0,-1,1014,925,0,0
-203,99,0,0,0,0,0,0,0,0,0,-1,1021,925,0,0
-196,99,0,0,0,0,0,0,0,0,0,-1,1028,925,0,0
-189,99,0,0,0,0,0,0,0,0,0,-1,1035,925,0,0
-182,99,0,0,0,0,0,0,0,0,0,-1,1042,925,0,0
-175,99,0,0,0,0,0,0,0,0,0,-1,1049,925,0,0
-168,99,0,0,0,0,0,0,0,0,0,-1,1056,925,0,0
-161,99,0,0,0,0,0,0,0,0,0,-1,1063,925,0,0
-154,99,0,0,0,0,0,0,0,0,0,-1,1070,925,0,0
-147,99,0,0,0,0,0,0,0,0,0,-1,1077,925,0,0
-140,99,0,0,0,0,0,0,0,0,0,-1,1084,925,0,0
-133,99,0,0,0,0,0,0,0,0,0,-1,1091,925,0,0
-126,99,0,0,0,0,0,0,0,0,0,-1,1098,925,0,0
-119,99,0,0,0,0,0,0,0,0,0,-1,1105,925,0,0
-112,99,0,0,0,0,0,0,0,0,0,-1,1112,925,0,0
-105,99,0,0,0,0,0,0,0,0,0,-1,1119,925,0,0
-98,99,0,0,0,0,0,0,0,0,0,-1,1126,925,0,0
-91,99,0,0,0,0,0,0,0,0,0,-1,1133,925,0,0
-84,99,0,0,0,0,0,0,0,0,0,-1,1140,925,0,0
-77,99,0,0,0,0,0,0,0,0,0,-1,1147,925,0,0
-70,99,0,0,0,0,0,0,0,0,0,-1,1154,925,0,0
-63,99,0,0,0,0,0,0,0,0,0,-1,1161,925,0,0
-56,99,0,0,0,0,0,0,0,0,0,-1,1168,925,0,0
-49,99,0,0,0,0,0,0,0,0,0,-1,1175,925,0,0
-42,99,0,0,0,0,0,0,0,0,0,-1,1182,925,0,0
-35,99,0,0,0,0,0,0,0,0,0,-1,1189,925,0,0
-28,99,0,0,0,0,0,0,0,0,0,-1,1196,925,0,0
-21,99,0,0,0,0,0,0,0,0,0,-1,1203,925,0,0
-14,99,0,0,0,0,0,0,0,0,0,-1,1210,925,0,0
-7,99,0,0,0,0,0,0,0,0,0,-1,1217,925,0,0
0,99,0,0,0,0,0,0,0,0,0,-1,1224,925,0,0
7,99,0,0,0,0,0,0,0,0,0,-1,1231,925,0,0
14,99,0,0,0,0,0,0,0,0,0,-1,1238,925,0,0
21,99,0,0,0,0,0,0,0,0,0,-1,1245,925,0,0
28,99,0,0,0,0,0,0,0,0,0,-1,1252,925,0,0
35,99,0,0,0,0,0,0,0,0,0,-1,1259,925,0,0
42,99,0,0,0,0,0,0,0,0,0,-1,1266,925,0,0
49,99,0,0,0,0,0,0,0,0,0,-1,1273,925,0,0
56,99,0,0,0,0,0,0,0,0,0,-1,1280,925,0,0
63,99,0,0,0,0,0,0,0,0,0,-1,1287,925,0,0
70,99,0,0,0,0,0,0,0,0,0,-1,1294,925,0,0
77,99,0,0,0,0,0,0,0,0,0,-1,1301,925,0,0
84,99,0,0,0,0,0,0,0,0,0,-1,1308,925,0,0
91,99,0,0,0,0,0,0,0,0,0,-1,1315,925,0,0
98,99,0,0,0,0,0,0,0,0,0,-1,1322,925,0,0
105,99,0,0,0,0,0,0,0,0,0,-1,1329,925,0,0
112,99,0,0,0,0,0,0,0,0,0,-1,1336,925,0,0
119,99,0,0,0,0,0,0,0,0,0,-1,1343,925,0,0
126,99,0,0,0,0,0,0,0,0,0,-1,1350,925,0,0
133,99,0,0,0,0,0,0,0,0,0,-1,1357,925,0,0
140,99,0,0,0,0,0,0,0,0,0,-1,1364,925,0,0
147,99,0,0,0,0,0,0,0,0,0,-1,1371,925,0,0
154,99,0,0,0,0,0,0,0,0,0,-1,1378,925,0,0
161,99,0,0,0,0,0,0,0,0,0,-1,1385,925,0,0
168,99,0,0,0,0,0,0,0,0,0,-1,1392,925,0,0
175,99,0,0,0,0,0,0,0,0,0,-1,1399,925,0,0
182,99,0,0,0,0,0,0,0,0,0,-1,1406,925,0,0
189,99,0,0,0,0,0,0,0,0,0,-1,1413,925,0,0
196,99,0,0,0,0,0,0,0,0,0,-1,1420,925,0,0
203,99,0,0,0,0,0,0,0,0,0,-1,1427,925,0,0
210,99,0,0,0,0,0,0,0,0,0,-1,1434,925,0,0
217,99,0,0,0,0,0,0,0,0,0,-1,1441,925,0,0
224,99,0,0,0,0,0,0,0,0,0,-1,1448,925,0,0
231,99,0,0,0,0,0,0,0,0,0,-1,1455,925,0,0
238,99,0,0,0,0,0,0,0,0,0,-1,1462,925,0,0
245,99,0,0,0,0,0,0,0,0,0,-1,1469,925,0,0
252,99,0,0,0,0,0,0,0,0,0,-1,1476,925,0,0
259,99,0,0,0,0,0,0,0,0,0,-1,1483,925,0,0
266,99,0,0,0,0,0,0,0,0,0,-1,1490,925,0,0
273,99,0,0,0,0,0,0,0,0,0,-1,1497,925,0,0
280,99,0,0,0,0,0,0,0,0,0,-1,1504,925,0,0
287,99,0,0,0,0,0,0,0,0,0,-1,1511,925,0,0
294,99,0,0,0,0,0,0,0,0,0,-1,1518,925,0,0
301,99,0,0,0,0,0,0,0,0,0,-1,1525,925,0,0
308,99,0,0,0,0,0,0,0,0,0,-1,1532,925,0,0
315,99,0,0,0,0,0,0,0,0,0,-1,1539,925,0,0
322,99,0,0,0,0,0,0,0,0,0,-1,1546,925,0,0
329,99,0,0,0,0,0,0,0,0,0,-1,1553,925,0,0
336,99,0,0,0,0,0,0,0,0,0,-1,1560,925,0,0
343,99,0,0,0,0,0,0,0,0,0,-1,1567,925,0,0
350,99,0,0,0,0,0,0,0,0,0,-1,1574,925,0,0
357,99,0,0,0,0,0,0,0,0,0,-1,1581,925,0,0
364,99,0,0,0,0,0,0,0,0,0,-1,1588,925,0,0
371,99,0,0,0,0,0,0,0,0,0,-1,1595,925,0,0
378,99,0,0,0,0,0,0,0,0,0,-1,1602,925,0,0
385,99,0,0,0,0,0,0,0,0,0,-1,1609,925,0,0
392,99,0,0,0,0,0,0,0,0,0,-1,1616,925,0,0
399,99,0,0,0,0,0,0,0,0,0,-1,1623,925,0,0
406,99,0,0,0,0,0,0,0,0,0,-1,1630,925,0,0
413,99,0,0,0,0,0,0,0,0,0,-1,1637,925,0,0
420,99,0,0,0,0,0,0,0,0,0,-1,1644,925,0,0
427,99,0,0,0,0,0,0,0,0,0,-1,1651,925,0,0
434,99,0,0,0,0,0,0,0,0,0,-1,1658,925,0,0
441,99,0,0,0,0,0,0,0,0,0,-1,1665,925,0,0
448,99,0,0,0,0,0,0,0,0,0,-1,1672,925,0,0
455,99,0,0,0,0,0,0,0,0,0,-1,1679,925,0,0
462,99,0,0,0,0,0,0,0,0,0,-1,1686,925,0,0
469,99,0,0,0,0,0,0,0,0,0,-1,1693,925,0,0
476,99,0,0,0,0,0,0,0,0,0,-1,1700,925,0,0
483,99,0,0,0,0,0,0,0,0,0,-1,1707,925,0,0
490,99,0,0,0,0,0,0,0,0,0,-1,1714,925,0,0
497,99,0,0,0,0,0,0,0,0,0,-1,1721,925,0,0
504,99,0,0,0,0,0,0,0,0,0,-1,1728,925,0,0
511,99,0,0,0,0,0,0,0,0,0,-1,1735,925,0,0
518,99,0,0,0,0,0,0,0,0,0,-1,1742,925,0,0
525,99,0,0,0,0,0,0,0,0,0,-1,1749,925,0,0
532,99,0,0,0,0,0,0,0,0,0,-1,1756,925,0,0
539,99,0,0,0,0,0,0,0,0,0,-1,1763,925,0,0
546,99,0,0,0,0,0,0,0,0,0,-1,1770,925,0,0
553,99,0,0,0,0,0,0,0,0,0,-1,1777,925,0,0
560,99,0,0,0,0,0,0,0,0,0,-1,1784,925,0,0
567,99,0,0,0,0,0,0,0,0,0,-1,1791,925,0,0
574,99,0,0,0,0,0,0,0,0,0,-1,1798,925,0,0
581,99,0,0,0,0,0,0,0,0,0,-1,1805,925,0,0
588,99,0,0,0,0,0,0,0,0,0,-1,1812,925,0,0
595,99,0,0,0,0,0,0,0,0,0,-1,1819,925,0,0
602,99,0,0,0,0,0,0,0,0,0,-1,1826,925,0,0
609,99,0,0,0,0,0,0,0,0,0,-1,1833,925,0,0
616,99,0,0,0,0,0,0,0,0,0,-1,1840,925,0,0
623,99,0,0,0,0,0,0,0,0,0,-1,1847,925,0,0
630,99,0,0,0,0,0,0,0,0,0,-1,1854,925,0,0
637,99,14.3472,1.70941,0.00227403,0.00377381,0.00229993,0.00544301,0.000604832,0.942989,0.00344481,0.0402617,1861,925,14.3472,-1.70943
644,99,14.4279,1.92841,0.00171886,0.00290103,0.00198642,0.00438244,0.00023745,0.930008,0.00284578,0.0377471,1868,925,14.4279,-1.92842
651,99,14.3384,1.95197,0.000441999,0.0022942,0.00145534,0.00309311,-0.000356919,1.06876,0.00219076,0.0386554,1875,925,14.3384,-1.95194
658,99,14.2499,1.89435,-0.00171346,0.00186492,0.000858568,0.00206025,-0.00190879,1.34709,0.00229209,0.0411712,1882,925,14.2498,-1.89436
665,99,14.2615,1.80316,-0.00405482,0.00151966,0.000411774,0.00154991,-0.00408507,1.49746,0.00336132,0.0430791,1889,925,14.2615,-1.80318
672,99,14.2018,1.84521,-0.00605058,0.00124933,6.29514e-05,0.00124987,-0.00605112,1.56217,0.00450882,0.0416458,1896,925,14.2018,-1.84519
679,99,14.0865,1.93188,-0.00762033,0.00107957,-0.000206508,0.00108447,-0.00762523,-1.54708,0.00548086,0.0354374,1903,925,14.0866,-1.93187
686,99,14.1016,1.95898,-0.00889888,0.00078685,-0.000304261,0.000796399,-0.00890842,-1.53942,0.00622143,0.0268722,1910,925,14.1016,-1.95895
693,99,14.1027,2.04803,-0.00957521,0.000601934,-0.000461579,0.000622825,-0.00959611,-1.52557,0.00661479,0.0181553,1917,925,14.1026,-2.04801
700,99,14.0414,2.0719,-0.00977958,0.000535471,-0.000567504,0.0005666,-0.00981071,-1.516,0.00673729,0.0321202,1924,925,14.0414,-2.07189
707,99,13.0564,2.09735,0,0,0,0,0,0,0,-1,1931,925,13.0564,-2.09734
714,99,13.0449,2.19202,-0.00870384,0.000489053,-0.000511605,0.000517438,-0.00873222,-1.51537,0.0060014,0.0158577,1938,925,13.0449,-2.19204
721,99,12.9973,2.26892,-0.00708342,0.000484363,-0.000395025,0.000504927,-0.00710398,-1.51879,0.00491295,0.0180512,1945,925,12.9973,-2.26895
728,99,13.0254,2.38977,-0.00519838,0.000265799,-0.00055434,0.000321469,-0.00525405,-1.47071,0.00361463,0.0152904,1952,925,13.0254,-2.38978
735,99,13.0248,2.47699,-0.00311291,0.000929404,-0.00072957,0.00105705,-0.00324055,-1.39759,0.00258577,0.0131235,1959,925,13.0248,-2.47701
742,99,13.0096,2.54022,-0.000428483,-5.20854e-05,-0.000890926,0.000670303,-0.00115087,-0.889488,0.00106359,0.0107932,1966,925,13.0096,-2.54023
749,99,12.9982,2.63287,0.00221063,-0.00127529,-0.00153678,0.00279137,-0.00185603,-0.361307,0.00270123,0.00881169,1973,925,12.9982,-2.63289
756,99,12.99,2.70074,0.00508709,-0.00235721,-0.00219874,0.005688,-0.00295812,-0.266783,0.0050741,0.0104715,1980,925,12.99,-2.70072
763,99,12.9957,2.77466,0.00746143,-0.00405464,-0.00327375,0.00832702,-0.00492023,-0.258488,0.00773215,0.0132517,1987,925,12.9957,-2.77464
770,99,12.9946,2.8858,0.0093172,-0.00651879,-0.00463773,0.0105754,-0.00777703,-0.264927,0.0106368,0.0251487,1994,925,12.9946,-2.8858
777,99,12.1924,2.47607,0,0,0,0,0,0,0,-1,2001,925,12.1923,-2.4761
784,99,12.4072,2.55835,0.0121055,-0.0151998,-0.00855373,0.0145638,-0.0176581,-0.279847,0.0186319,0.0425127,2008,925,12.4072,-2.55835
791,99,12.5574,2.49408,0.0127255,-0.0222446,-0.0114554,0.0161439,-0.0256629,-0.289996,0.0243449,0.0450128,2015,925,12.5574,-2.4941
798,99,12.4893,2.60132,0.0122903,-0.0319189,-0.015248,0.0170393,-0.0366679,-0.301928,0.0316906,0.0457457,2022,925,12.4892,-2.60133
805,99,0,0,0,0,0,0,0,0,0,-1,2029,925,0,0
812,99,0,0,0,0,0,0,0,0,0,-1,2036,925,0,0
-700,92,0,0,0,0,0,0,0,0,0,-1,524,932,0,0
-693,92,0,0,0,0,0,0,0,0,0,-1,531,932,0,0
-686,92,-10.3151,2.1698,0.017152,0.0144978,-0.0931437,0.108978,-0.0773282,-0.778275,0.10808,0.0446131,538,932,-10.3151,-2.16982
-679,92,-10.5038,1.79578,0.0234877,0.0213655,-0.0771267,0.0995606,-0.0547074,-0.77852,0.0903128,0.0450615,545,932,-10.5038,-1.79575
-672,92,-10.7626,1.44025,0.0252544,0.0241644,-0.0618906,0.0866024,-0.0371836,-0.780995,0.0733418,0.0456648,552,932,-10.7626,-1.44023
-665,92,-10.6718,0.679138,0.0243702,0.0243453,-0.0481459,0.0725037,-0.0237881,-0.785269,0.0579171,0.0484759,559,932,-10.6718,-0.679115
-658,92,-10.409,-0.21051,0,0,0,0,0,0,0,-1,566,932,-10.409,0.210507
-651,92,-7.83972,1.31171,0.0186465,0.0200683,-0.0262097,0.0455768,-0.00686197,-0.798956,0.0329112,0.0459213,573,932,-7.83974,-1.31172
-644,92,-7.84058,1.10339,0.0150494,0.0167687,-0.0181718,0.0341012,-0.00228313,-0.809034,0.0235321,0.0425711,580,932,-7.8406,-1.10338
-637,92,-7.85193,0.922974,0.0114989,0.0133552,-0.0121136,0.0245762,0.000277897,-0.823634,0.0162923,0.0246586,587,932,-7.85195,-0.922946
-630,92,-7.85956,0.834106,0.00850395,0.0103929,-0.00757125,0.0170784,0.00181851,-0.847452,0.0108304,0.0122282,594,932,-7.85959,-0.834079
-623,92,-7.87445,0.761353,0.00555856,0.00771315,-0.0039015,0.0106834,0.00258835,-0.920103,0.00643536,0.00852855,601,932,-7.87447,-0.761338
-616,92,-7.88495,0.69458,0.00259626,0.00506538,-0.00105101,0.00545216,0.00220948,-1.21817,0.00316659,0.00797939,608,932,-7.88494,-0.694555
-609,92,-7.87421,0.622986,-0.000632086,0.00383878,0.00102698,0.0040634,-0.000856703,1.35547,0.00303507,0.00864149,615,932,-7.8742,-0.62297
-602,92,-7.8645,0.57373,-0.00321421,0.000399172,0.00066829,0.00051881,-0.00333385,1.39365,0.00241415,0.00881773,622,932,-7.8645,-0.573743
-595,92,-7.85852,0.505859,-0.00482866,-0.00010758,0.000774294,1.61668e-05,-0.00495241,1.41232,0.00330701,0.0133042,629,932,-7.85852,-0.505864
-588,92,-7.84033,0.453552,-0.00576019,-0.000241522,0.000825239,-0.000120761,-0.00588095,1.42549,0.003881,0.0155459,636,932,-7.84034,-0.453567
-581,92,-7.83978,0.376282,-0.00633186,-0.000341053,0.000782787,-0.000240459,-0.00643246,1.44299,0.00421044,0.0129407,643,932,-7.83981,-0.376253
-574,92,-8.00116,0.308655,-0.00674318,-0.00025829,0.000530777,-0.000215134,-0.00678634,1.48967,0.00445424,0.0173227,650,932,-8.00118,-0.308645
-567,92,-8.26196,0.222473,-0.00685369,5.86118e-05,0.000315452,7.29782e-05,-0.00686805,1.52529,0.00460322,0.0324492,657,932,-8.26195,-0.222474
-560,92,-8.33148,0.370361,-0.00653829,0.000453337,2.47525e-05,0.000453425,-0.00653838,1.56726,0.00451765,0.0366931,664,932,-8.3315,-0.370384
-553,92,-8.39624,0.552307,-0.00570528,0.00105154,-0.000498873,0.00108818,-0.00574191,-1.49749,0.0042375,0.0399023,671,932,-8.39622,-0.552311
-546,92,-8.49072,0.429932,-0.00427155,0.0019013,-0.00127079,0.00215268,-0.00452293,-1.37551,0.00393431,0.0394685,678,932,-8.4907,-0.429958
-539,92,-8.56152,0.22644,-0.00222104,0.00308079,-0.00234522,0.00396928,-0.00310953,-1.20865,0.00409699,0.0384221,685,932,-8.56151,-0.226457
-532,92,-8.375,0.502136,0.000430709,0.00466794,-0.00378446,0.00688645,-0.0017878,-1.04057,0.00528861,0.0460466,692,932,-8.37497,-0.502123
-525,92,-8.48737,0.410095,0.00349852,0.00678834,-0.00568436,0.011061,-0.000774139,-0.926238,0.00764513,0.0451001,699,932,-8.48734,-0.410124
-518,92,-8.42981,0.386963,0.00598859,0.00967963,-0.00801999,0.0160637,-0.00039548,-0.898487,0.0108434,0.0419282,706,932,-8.4298,-0.386955
-511,92,0,0,0,0,0,0,0,0,0,-1,713,932,0,0
-504,92,0,0,0,0,0,0,0,0,0,-1,720,932,0,0
-497,92,0,0,0,0,0,0,0,0,0,-1,727,932,0,0
-490,92,0,0,0,0,0,0,0,0,0,-1,734,932,0,0
-483,92,0,0,0,0,0,0,0,0,0,-1,741,932,0,0
-476,92,0,0,0,0,0,0,0,0,0,-1,748,932,0,0
-469,92,0,0,0,0,0,0,0,0,0,-1,755,932,0,0
-462,92,0,0,0,0,0,0,0,0,0,-1,762,932,0,0
-455,92,0,0,0,0,0,0,0,0,0,-1,769,932,0,0
-448,92,0,0,0,0,0,0,0,0,0,-1,776,932,0,0
-441,92,0,0,0,0,0,0,0,0,0,-1,783,932,0,0
-434,92,0,0,0,0,0,0,0,0,0,-1,790,932,0,0
-427,92,0,0,0,0,0,0,0,0,0,-1,797,932,0,0
-420,92,0,0,0,0,0,0,0,0,0,-1,804,932,0,0
-413,92,0,0,0,0,0,0,0,0,0,-1,811,932,0,0
-406,92,0,0,0,0,0,0,0,0,0,-1,818,932,0,0
-399,92,0,0,0,0,0,0,0,0,0,-1,825,932,0,0
-392,92,0,0,0,0,0,0,0,0,0,-1,832,932,0,0
-385,92,0,0,0,0,0,0,0,0,0,-1,839,932,0,0
-378,92,0,0,0,0,0,0,0,0,0,-1,846,932,0,0
-371,92,0,0,0,0,0,0,0,0,0,-1,853,932,0,0
-364,92,0,0,0,0,0,0,0,0,0,-1,860,932,0,0
-357,92,0,0,0,0,0,0,0,0,0,-1,867,932,0,0
-350,92,0,0,0,0,0,0,0,0,0,-1,874,932,0,0
-343,92,0,0,0,0,0,0,0,0,0,-1,881,932,0,0
-336,92,0,0,0,0,0,0,0,0,0,-1,888,932,0,0
-329,92,0,0,0,0,0,0,0,0,0,-1,895,932,0,0
-322,92,0,0,0,0,0,0,0,0,0,-1,902,932,0,0
-315,92,0,0,0,0,0,0,0,0,0,-1,909,932,0,0
-308,92,0,0,0,0,0,0,0,0,0,-1,916,932,0,0
-301,92,0,0,0,0,0,0,0,0,0,-1,923,932,0,0
-294,92,0,0,0,0,0,0,0,0,0,-1,930,932,0,0
-287,92,0,0,0,0,0,0,0,0,0,-1,937,932,0,0
-280,92,0,0,0,0,0,0,0,0,0,-1,944,932,0,0
-273,92,0,0,0,0,0,0,0,0,0,-1,951,932,0,0
-266,92,0,0,0,0,0,0,0,0,0,-1,958,932,0,0
-259,92,0,0,0,0,0,0,0,0,0,-1,965,932,0,0
-252,92,0,0,0,0,0,0,0,0,0,-1,972,932,0,0
-245,92,0,0,0,0,0,0,0,0,0,-1,979,932,0,0
-238,92,0,0,0,0,0,0,0,0,0,-1,986,932,0,0
-231,92,0,0,0,0,0,0,0,0,0,-1,993,932,0,0
-224,92,0,0,0,0,0,0,0,0,0,-1,1000,932,0,0
-217,92,0,0,0,0,0,0,0,0,0,-1,1007,932,0,0
-210,92,0,0,0,0,0,0,0,0,0,-1,1014,932,0,0
-203,92,0,0,0,0,0,0,0,0,0,-1,1021,932,0,0
-196,92,0,0,0,0,0,0,0,0,0,-1,1028,932,0,0
-189,92,0,0,0,0,0,0,0,0,0,-1,1035,932,0,0
-182,92,0,0,0,0,0,0,0,0,0,-1,1042,932,0,0
-175,92,0,0,0,0,0,0,0,0,0,-1,1049,932,0,0
-168,92,0,0,0,0,0,0,0,0,0,-1,1056,932,0,0
-161,92,0,0,0,0,0,0,0,0,0,-1,1063,932,0,0
-154,92,0,0,0,0,0,0,0,0,0,-1,1070,932,0,0
-147,92,0,0,0,0,0,0,0,0,0,-1,1077,932,0,0
-140,92,0,0,0,0,0,0,0,0,0,-1,1084,932,0,0
-133,92,0,0,0,0,0,0,0,0,0,-1,1091,932,0,0
-126,92,0,0,0,0,0,0,0,0,0,-1,1098,932,0,0
-119,92,0,0,0,0,0,0,0,0,0,-1,1105,932,0,0
-112,92,0,0,0,0,0,0,0,0,0,-1,1112,932,0,0
-105,92,0,0,0,0,0,0,0,0,0,-1,1119,932,0,0
-98,92,0,0,0,0,0,0,0,0,0,-1,1126,932,0,0
-91,92,0,0,0,0,0,0,0,0,0,-1,1133,932,0,0
-84,92,0,0,0,0,0,0,0,0,0,-1,1140,932,0,0
-77,92,0,0,0,0,0,0,0,0,0,-1,1147,932,0,0
-70,92,0,0,0,0,0,0,0,0,0,-1,1154,932,0,0
-63,92,0,0,0,0,0,0,0,0,0,-1,1161,932,0,0
-56,92,0,0,0,0,0,0,0,0,0,-1,1168,932,0,0
-49,92,0,0,0,0,0,0,0,0,0,-1,1175,932,0,0
-42,92,0,0,0,0,0,0,0,0,0,-1,1182,932,0,0
-35,92,0,0,0,0,0,0,0,0,0,-1,1189,932,0,0
-28,92,0,0,0,0,0,0,0,0,0,-1,1196,932,0,0
-21,92,0,0,0,0,0,0,0,0,0,-1,1203,932,0,0
-14,92,0,0,0,0,0,0,0,0,0,-1,1210,932,0,0
-7,92,0,0,0,0,0,0,0,0,0,-1,1217,932,0,0
0,92,0,0,0,0,0,0,0,0,0,-1,1224,932,0,0
7,92,0,0,0,0,0,0,0,0,0,-1,1231,932,0,0
14,92,0,0,0,0,0,0,0,0,0,-1,1238,932,0,0
21,92,0,0,0,0,0,0,0,0,0,-1,1245,932,0,0
28,92,0,0,0,0,0,0,0,0,0,-1,1252,932,0,0
35,92,0,0,0,0,0,0,0,0,0,-1,1259,932,0,0
42,92,0,0,0,0,0,0,0,0,0,-1,1266,932,0,0
49,92,0,0,0,0,0,0,0,0,0,-1,1273,932,0,0
56,92,0,0,0,0,0,0,0,0,0,-1,1280,932,0,0
63,92,0,0,0,0,0,0,0,0,0,-1,1287,932,0,0
70,92,0,0,0,0,0,0,0,0,0,-1,1294,932,0,0
77,92,0,0,0,0,0,0,0,0,0,-1,1301,932,0,0
84,92,0,0,0,0,0,0,0,0,0,-1,1308,932,0,0
91,92,0,0,0,0,0,0,0,0,0,-1,1315,932,0,0
98,92,0,0,0,0,0,0,0,0,0,-1,1322,932,0,0
105,92,0,0,0,0,0,0,0,0,0,-1,1329,932,0,0
112,92,0,0,0,0,0,0,0,0,0,-1,1336,932,0,0
119,92,0,0,0,0,0,0,0,0,0,-1,1343,932,0,0
126,92,0,0,0,0,0,0,0,0,0,-1,1350,932,0,0
133,92,0,0,0,0,0,0,0,0,0,-1,1357,932,0,0
140,92,0,0,0,0,0,0,0,0,0,-1,1364,932,0,0
147,92,0,0,0,0,0,0,0,0,0,-1,1371,932,0,0
154,92,0,0,0,0,0,0,0,0,0,-1,1378,932,0,0
161,92,0,0,0,0,0,0,0,0,0,-1,1385,932,0,0
168,92,0,0,0,0,0,0,0,0,0,-1,1392,932,0,0
175,92,0,0,0,0,0,0,0,0,0,-1,1399,932,0,0
182,92,0,0,0,0,0,0,0,0,0,-1,1406,932,0,0
189,92,0,0,0,0,0,0,0,0,0,-1,1413,932,0,0
196,92,0,0,0,0,0,0,0,0,0,-1,1420,932,0,0
203,92,0,0,0,0,0,0,0,0,0,-1,1427,932,0,0
210,92,0,0,0,0,0,0,0,0,0,-1,1434,932,0,0
217,92,0,0,0,0,0,0,0,0,0,-1,1441,932,0,0
224,92,0,0,0,0,0,0,0,0,0,-1,1448,932,0,0
231,92,0,0,0,0,0,0,0,0,0,-1,1455,932,0,0
238,92,0,0,0,0,0,0,0,0,0,-1,1462,932,0,0
245,92,0,0,0,0,0,0,0,0,0,-1,1469,932,0,0
252,92,0,0,0,0,0,0,0,0,0,-1,1476,932,0,0
259,92,0,0,0,0,0,0,0,0,0,-1,1483,932,0,0
266,92,0,0,0,0,0,0,0,0,0,-1,1490,932,0,0
273,92,0,0,0,0,0,0,0,0,0,-1,1497,932,0,0
280,92,0,0,0,0,0,0,0,0,0,-1,1504,932,0,0
287,92,0,0,0,0,0,0,0,0,0,-1,1511,932,0,0
294,92,0,0,0,0,0,0,0,0,0,-1,1518,932,0,0
301,92,0,0,0,0,0,0,0,0,0,-1,1525,932,0,0
308,92,0,0,0,0,0,0,0,0,0,-1,1532,932,0,0
315,92,0,0,0,0,0,0,0,0,0,-1,1539,932,0,0
322,92,0,0,0,0,0,0,0,0,0,-1,1546,932,0,0
329,92,0,0,0,0,0,0,0,0,0,-1,1553,932,0,0
336,92,0,0,0,0,0,0,0,0,0,-1,1560,932,0,0
343,92,0,0,0,0,0,0,0,0,0,-1,1567,932,0,0
350,92,0,0,0,0,0,0,0,0,0,-1,1574,932,0,0
357,92,0,0,0,0,0,0,0,0,0,-1,1581,932,0,0
364,92,0,0,0,0,0,0,0,0,0,-1,1588,932,0,0
371,92,0,0,0,0,0,0,0,0,0,-1,1595,932,0,0
378,92,0,0,0,0,0,0,0,0,0,-1,1602,932,0,0
385,92,0,0,0,0,0,0,0,0,0,-1,1609,932,0,0
392,92,0,0,0,0,0,0,0,0,0,-1,1616,932,0,0
399,92,0,0,0,0,0,0,0,0,0,-1,1623,932,0,0
406,92,0,0,0,0,0,0,0,0,0,-1,1630,932,0,0
413,92,0,0,0,0,0,0,0,0,0,-1,1637,932,0,0
420,92,0,0,0,0,0,0,0,0,0,-1,1644,932,0,0
427,92,0,0,0,0,0,0,0,0,0,-1,1651,932,0,0
434,92,0,0,0,0,0,0,0,0,0,-1,1658,932,0,0
441,92,0,0,0,0,0,0,0,0,0,-1,1665,932,0,0
448,92,0,0,0,0,0,0,0,0,0,-1,1672,932,0,0
455,92,0,0,0,0,0,0,0,0,0,-1,1679,932,0,0
462,92,0,0,0,0,0,0,0,0,0,-1,1686,932,0,0
469,92,0,0,0,0,0,0,0,0,0,-1,1693,932,0,0
476,92,0,0,0,0,0,0,0,0,0,-1,1700,932,0,0
483,92,0,0,0,0,0,0,0,0,0,-1,1707,932,0,0
490,92,0,0,0,0,0,0,0,0,0,-1,1714,932,0,0
497,92,0,0,0,0,0,0,0,0,0,-1,1721,932,0,0
504,92,0,0,0,0,0,0,0,0,0,-1,1728,932,0,0
511,92,0,0,0,0,0,0,0,0,0,-1,1735,932,0,0
518,92,0,0,0,0,0,0,0,0,0,-1,1742,932,0,0
525,92,0,0,0,0,0,0,0,0,0,-1,1749,932,0,0
532,92,0,0,0,0,0,0,0,0,0,-1,1756,932,0,0
539,92,0,0,0,0,0,0,0,0,0,-1,1763,932,0,0
546,92,0,0,0,0,0,0,0,0,0,-1,1770,932,0,0
553,92,0,0,0,0,0,0,0,0,0,-1,1777,932,0,0
560,92,0,0,0,0,0,0,0,0,0,-1,1784,932,0,0
567,92,0,0,0,0,0,0,0,0,0,-1,1791,932,0,0
574,92,0,0,0,0,0,0,0,0,0,-1,1798,932,0,0
581,92,0,0,0,0,0,0,0,0,0,-1,1805,932,0,0
588,92,0,0,0,0,0,0,0,0,0,-1,1812,932,0,0
595,92,0,0,0,0,0,0,0,0,0,-1,1819,932,0,0
602,92,0,0,0,0,0,0,0,0,0,-1,1826,932,0,0
609,92,0,0,0,0,0,0,0,0,0,-1,1833,932,0,0
616,92,0,0,0,0,0,0,0,0,0,-1,1840,932,0,0
623,92,0,0,0,0,0,0,0,0,0,-1,1847,932,0,0
630,92,0,0,0,0,0,0,0,0,0,-1,1854,932,0,0
637,92,14.2528,1.63867,0.00217893,0.00448405,0.0031466,0.00668254,-1.95552e-05,0.960953,0.00446156,0.0425761,1861,932,14.2528,-1.63866
644,92,14.2361,1.87653,0.00167044,0.00333001,0.00266948,0.0052957,-0.00029525,0.936085,0.00363288,0.04088,1868,932,14.236,-1.87653
651,92,14.2582,1.92474,0.000660768,0.00258557,0.00204997,0.0038878,-0.000641468,1.00486,0.00283003,0.0412365,1875,932,14.2582,-1.92472
658,92,14.2416,1.87115,-0.00124024,0.00209198,0.00140602,0.00260597,-0.00175422,1.22033,0.00253332,0.0440093,1882,932,14.2416,-1.87113
665,92,14.1924,1.80109,-0.00347516,0.00173522,0.000933677,0.00189748,-0.00363742,1.39873,0.00324778,0.0451514,1889,932,14.1924,-1.80111
672,92,14.3438,1.55286,-0.00547834,0.00147205,0.000573961,0.00151913,-0.00552541,1.48896,0.0042808,0.0443872,1896,932,14.3438,-1.55285
679,92,14.2279,1.68848,-0.00711499,0.00129769,0.000316466,0.00130958,-0.00712688,1.53325,0.00524259,0.0382134,1903,932,14.2279,-1.68846
686,92,14.126,1.9248,-0.00844257,0.00102344,0.000197391,0.00102755,-0.00844668,1.54996,0.00600302,0.0274449,1910,932,14.126,-1.92483
693,92,14.1407,2.00616,-0.00918122,0.000841289,9.70486e-06,0.000841298,-0.00918123,1.56983,0.00641965,0.0204523,1917,932,14.1407,-2.00617
700,92,14.1318,2.04089,-0.00949336,0.000767459,-0.000108612,0.000768608,-0.00949451,-1.56021,0.00660081,0.0310087,1924,932,14.1318,-2.04087
707,92,13.5128,2.12933,-0.00941924,0.000711252,-0.000130274,0.000712927,-0.00942092,-1.55794,0.00653124,0.033204,1931,932,13.5129,-2.12934
714,92,13.0441,2.25433,-0.00872512,0.000702979,-9.82841e-05,0.000704003,-0.00872614,-1.56037,0.00606573,0.0272009,1938,932,13.0441,-2.25431
721,92,13.1222,2.32831,-0.00737596,0.000690702,-4.94916e-05,0.000691005,-0.00737626,-1.56466,0.00516328,0.021752,1945,932,13.1222,-2.32831
728,92,13.1091,2.44855,-0.00575018,0.000460921,-0.000230318,0.00046945,-0.00575871,-1.53378,0.0040048,0.0167422,1952,932,13.1092,-2.44856
735,92,13.1079,2.49121,-0.00378862,0.000842657,-0.000368107,0.000871733,-0.00381769,-1.49197,0.00288002,0.0153805,1959,932,13.108,-2.49124
742,92,13.118,2.52734,-0.001207,-0.000350778,-0.000492044,-0.000126672,-0.0014311,-1.14341,0.000914773,0.016786,1966,932,13.118,-2.52734
749,92,13.1003,2.61694,0.00137491,-0.0018481,-0.0011395,0.00173708,-0.00221028,-0.307739,0.00228446,0.0137494,1973,932,13.1004,-2.61697
756,92,13.0782,2.70734,0.00430356,-0.00330715,-0.00173104,0.00467878,-0.00368237,-0.213459,0.00483872,0.013954,1980,932,13.0783,-2.70733
763,92,13.0975,2.77643,0.00694284,-0.00553188,-0.00265725,0.00748528,-0.00607431,-0.201368,0.00784275,0.0157631,1987,932,13.0976,-2.77642
770,92,13.0924,2.81012,0.00923406,-0.0087037,-0.00382954,0.0100174,-0.00948706,-0.201774,0.0112623,0.0229019,1994,932,13.0924,-2.8101
777,92,13.0552,2.8299,0.011423,-0.0132166,-0.00530558,0.0125169,-0.0143104,-0.203326,0.0155003,0.040519,2001,932,13.0552,-2.82992
784,92,12.8159,2.69043,0.0135945,-0.0194904,-0.00727254,0.0151226,-0.0210184,-0.207098,0.0209584,0.0446105,2008,932,12.8159,-2.69042
791,92,12.8784,2.83356,0.0156464,-0.0280543,-0.00994626,0.0178037,-0.0302116,-0.213584,0.0280285,0.0432127,2015,932,12.8784,-2.83358
798,92,12.7909,2.96558,0.0173113,-0.0396169,-0.0135819,0.0203857,-0.0426913,-0.222604,0.0371687,0.0440423,2022,932,12.791,-2.9656
805,92,0,0,0,0,0,0,0,0,0,-1,2029,932,0,0
812,92,0,0,0,0,0,0,0,0,0,-1,2036,932,0,0
-700,85,0,0,0,0,0,0,0,0,0,-1,524,939,0,0
-693,85,0,0,0,0,0,0,0,0,0,-1,531,939,0,0
-686,85,-9.10333,2.20093,0.0214692,0.0027984,-0.076132,0.088836,-0.0645684,-0.724392,0.0889367,0.0407659,538,939,-9.10331,-2.20092
-679,85,-9.30835,1.87891,0.0254221,0.00951138,-0.0649693,0.0829213,-0.0479878,-0.724477,0.0764722,0.0453022,545,939,-9.30834,-1.87893
-672,85,-9.57788,1.47211,0.0257751,0.0132945,-0.0534721,0.0733698,-0.0343002,-0.72731,0.0635128,0.045954,552,939,-9.57789,-1.47213
-665,85,-9.34766,0.808594,0.0240733,0.0149503,-0.0425004,0.0622563,-0.0232327,-0.731939,0.0510424,0.0449313,559,939,-9.34768,-0.808607
-658,85,-8.90344,0.307983,0.0211875,0.0150127,-0.0325352,0.0507814,-0.0145813,-0.738092,0.0396194,0.044035,566,939,-8.90344,-0.307986
-651,85,-7.81787,0.620117,0.0177016,0.0139217,-0.0238901,0.0397764,-0.00815302,-0.745925,0.0296118,0.0412105,573,939,-7.8179,-0.620115
-644,85,-7.90747,0.947815,0.01406,0.0120853,-0.0167434,0.0298452,-0.00369991,-0.755948,0.0212378,0.0324701,580,939,-7.90744,-0.947807
-637,85,-7.91779,0.900757,0.0105336,0.00998701,-0.0113823,0.0216459,-0.00112526,-0.773396,0.0148199,0.017417,587,939,-7.91776,-0.900767
-630,85,-7.91803,0.803345,0.0075841,0.00806788,-0.00730742,0.0151374,0.000514567,-0.801943,0.00992453,0.0111842,594,939,-7.91802,-0.803342
-623,85,-7.93298,0.735596,0.00474712,0.00617451,-0.00382506,0.00935188,0.00156974,-0.877629,0.0057828,0.00876723,601,939,-7.93297,-0.735579
-616,85,-7.94489,0.683777,0.00195571,0.0040983,-0.00110968,0.00456943,0.00148458,-1.1693,0.00269155,0.00822589,608,939,-7.94489,-0.683752
-609,85,-7.94171,0.623291,-0.000966814,0.00328946,0.000805402,0.00343676,-0.00111412,1.3899,0.00273915,0.0109647,615,939,-7.94174,-0.623317
-602,85,-7.93372,0.572998,-0.0032451,0.000484595,0.000500201,0.000550513,-0.00331102,1.43977,0.00241188,0.014241,622,939,-7.93374,-0.572988
-595,85,-7.91083,0.532349,-0.00464307,4.12885e-05,0.000570311,0.000109723,-0.00471151,1.45137,0.00317821,0.0149423,629,939,-7.9108,-0.532361
-588,85,-7.91705,0.479492,-0.00538009,-5.53789e-05,0.000555385,1.93296e-06,-0.0054374,1.46797,0.00362558,0.0152476,636,939,-7.91705,-0.479519
-581,85,-7.91919,0.405518,-0.00574559,-8.47768e-05,0.000422008,-5.34896e-05,-0.00577688,1.49679,0.00383355,0.0147366,643,939,-7.9192,-0.405546
-574,85,-8.10089,0.311707,-0.00594421,3.76293e-05,8.00187e-05,3.86992e-05,-0.00594528,1.55742,0.00397648,0.0233831,650,939,-8.10089,-0.311714
-567,85,-8.38483,0.283997,-0.00590136,0.000416245,-0.00020425,0.000422842,-0.00590796,-1.53851,0.00408689,0.0329926,657,939,-8.38485,-0.283974
-560,85,-8.28992,0.337463,-0.00545157,0.000854802,-0.000574621,0.000906732,-0.0055035,-1.48067,0.0040056,0.0353281,664,939,-8.28989,-0.33745
-553,85,-8.27905,0.429871,-0.00449799,0.00149128,-0.00118219,0.00171619,-0.00472289,-1.3828,0.00385033,0.0402242,671,939,-8.27904,-0.429872
-546,85,-8.34912,0.41272,-0.00296871,0.00239381,-0.0020639,0.00309616,-0.00367106,-1.24279,0.00391175,0.0401956,678,939,-8.34914,-0.412689
-539,85,-8.47986,0.463318,-0.000868063,0.00362552,-0.00327695,0.00535195,-0.00259449,-1.08591,0.00467904,0.0384161,685,939,-8.47984,-0.463329
-532,85,-8.43726,0.360291,0.00177144,0.00526577,-0.00490153,0.00872221,-0.00168501,-0.956604,0.00645026,0.0416973,692,939,-8.43724,-0.360321
-525,85,-8.47015,0.0639038,0.00465199,0.00744684,-0.00705778,0.0132442,-0.00114538,-0.883133,0.00923497,0.0402631,699,939,-8.47016,-0.0639276
-518,85,-8.43091,0.17511,0.00665869,0.0104028,-0.00975908,0.0184677,-0.00140629,-0.880159,0.0128063,0.0378651,706,939,-8.43093,-0.175102
-511,85,0,0,0,0,0,0,0,0,0,-1,713,939,0,0
-504,85,0,0,0,0,0,0,0,0,0,-1,720,939,0,0
-497,85,0,0,0,0,0,0,0,0,0,-1,727,939,0,0
-490,85,0,0,0,0,0,0,0,0,0,-1,734,939,0,0
-483,85,0,0,0,0,0,0,0,0,0,-1,741,939,0,0
-476,85,0,0,0,0,0,0,0,0,0,-1,748,939,0,0
-469,85,0,0,0,0,0,0,0,0,0,-1,755,939,0,0
-462,85,0,0,0,0,0,0,0,0,0,-1,762,939,0,0
-455,85,0,0,0,0,0,0,0,0,0,-1,769,939,0,0
-448,85,0,0,0,0,0,0,0,0,0,-1,776,939,0,0
-441,85,0,0,0,0,0,0,0,0,0,-1,783,939,0,0
-434,85,0,0,0,0,0,0,0,0,0,-1,790,939,0,0
-427,85,0,0,0,0,0,0,0,0,0,-1,797,939,0,0
-420,85,0,0,0,0,0,0,0,0,0,-1,804,939,0,0
-413,85,0,0,0,0,0,0,0,0,0,-1,811,939,0,0
-406,85,0,0,0,0,0,0,0,0,0,-1,818,939,0,0
-399,85,0,0,0,0,0,0,0,0,0,-1,825,939,0,0
-392,85,0,0,0,0,0,0,0,0,0,-1,832,939,0,0
-385,85,0,0,0,0,0,0,0,0,0,-1,839,939,0,0
-378,85,0,0,0,0,0,0,0,0,0,-1,846,939,0,0
-371,85,0,0,0,0,0,0,0,0,0,-1,853,939,0,0
-364,85,0,0,0,0,0,0,0,0,0,-1,860,939,0,0
-357,85,0,0,0,0,0,0,0,0,0,-1,867,939,0,0
-350,85,0,0,0,0,0,0,0,0,0,-1,874,939,0,0
-343,85,0,0,0,0,0,0,0,0,0,-1,881,939,0,0
-336,85,0,0,0,0,0,0,0,0,0,-1,888,939,0,0
-329,85,0,0,0,0,0,0,0,0,0,-1,895,939,0,0
-322,85,0,0,0,0,0,0,0,0,0,-1,902,939,0,0
-315,85,0,0,0,0,0,0,0,0,0,-1,909,939,0,0
-308,85,0,0,0,0,0,0,0,0,0,-1,916,939,0,0
-301,85,0,0,0,0,0,0,0,0,0,-1,923,939,0,0
-294,85,0,0,0,0,0,0,0,0,0,-1,930,939,0,0
-287,85,0,0,0,0,0,0,0,0,0,-1,937,939,0,0
-280,85,0,0,0,0,0,0,0,0,0,-1,944,939,0,0
-273,85,0,0,0,0,0,0,0,0,0,-1,951,939,0,0
-266,85,0,0,0,0,0,0,0,0,0,-1,958,939,0,0
-259,85,0,0,0,0,0,0,0,0,0,-1,965,939,0,0
-252,85,0,0,0,0,0,0,0,0,0,-1,972,939,0,0
-245,85,0,0,0,0,0,0,0,0,0,-1,979,939,0,0
-238,85,0,0,0,0,0,0,0,0,0,-1,986,939,0,0
-231,85,0,0,0,0,0,0,0,0,0,-1,993,939,0,0
-224,85,0,0,0,0,0,0,0,0,0,-1,1000,939,0,0
-217,85,0,0,0,0,0,0,0,0,0,-1,1007,939,0,0
-210,85,0,0,0,0,0,0,0,0,0,-1,1014,939,0,0
-203,85,0,0,0,0,0,0,0,0,0,-1,1021,939,0,0
-196,85,0,0,0,0,0,0,0,0,0,-1,1028,939,0,0
-189,85,0,0,0,0,0,0,0,0,0,-1,1035,939,0,0
-182,85,0,0,0,0,0,0,0,0,0,-1,1042,939,0,0
-175,85,0,0,0,0,0,0,0,0,0,-1,1049,939,0,0
-168,85,0,0,0,0,0,0,0,0,0,-1,1056,939,0,0
-161,85,0,0,0,0,0,0,0,0,0,-1,1063,939,0,0
-154,85,0,0,0,0,0,0,0,0,0,-1,1070,939,0,0
-147,85,0,0,0,0,0,0,0,0,0,-1,1077,939,0,0
-140,85,0,0,0,0,0,0,0,0,0,-1,1084,939,0,0
-133,85,0,0,0,0,0,0,0,0,0,-1,1091,939,0,0
-126,85,0,0,0,0,0,0,0,0,0,-1,1098,939,0,0
-119,85,0,0,0,0,0,0,0,0,0,-1,1105,939,0,0
-112,85,0,0,0,0,0,0,0,0,0,-1,1112,939,0,0
-105,85,0,0,0,0,0,0,0,0,0,-1,1119,939,0,0
-98,85,0,0,0,0,0,0,0,0,0,-1,1126,939,0,0
-91,85,0,0,0,0,0,0,0,0,0,-1,1133,939,0,0
-84,85,0,0,0,0,0,0,0,0,0,-1,1140,939,0,0
-77,85,0,0,0,0,0,0,0,0,0,-1,1147,939,0,0
-70,85,0,0,0,0,0,0,0,0,0,-1,1154,939,0,0
-63,85,0,0,0,0,0,0,0,0,0,-1,1161,939,0,0
-56,85,0,0,0,0,0,0,0,0,0,-1,1168,939,0,0
-49,85,0,0,0,0,0,0,0,0,0,-1,1175,939,0,0
-42,85,0,0,0,0,0,0,0,0,0,-1,1182,939,0,0
-35,85,0,0,0,0,0,0,0,0,0,-1,1189,939,0,0
-28,85,0,0,0,0,0,0,0,0,0,-1,1196,939,0,0
-21,85,0,0,0,0,0,0,0,0,0,-1,1203,939,0,0
-14,85,0,0,0,0,0,0,0,0,0,-1,1210,939,0,0
-7,85,0,0,0,0,0,0,0,0,0,-1,1217,939,0,0
0,85,0,0,0,0,0,0,0,0,0,-1,1224,939,0,0
7,85,0,0,0,0,0,0,0,0,0,-1,1231,939,0,0
14,85,0,0,0,0,0,0,0,0,0,-1,1238,939,0,0
21,85,0,0,0,0,0,0,0,0,0,-1,1245,939,0,0
28,85,0,0,0,0,0,0,0,0,0,-1,1252,939,0,0
35,85,0,0,0,0,0,0,0,0,0,-1,1259,939,0,0
42,85,0,0,0,0,0,0,0,0,0,-1,1266,939,0,0
49,85,0,0,0,0,0,0,0,0,0,-1,1273,939,0,0
56,85,0,0,0,0,0,0,0,0,0,-1,1280,939,0,0
63,85,0,0,0,0,0,0,0,0,0,-1,1287,939,0,0
70,85,0,0,0,0,0,0,0,0,0,-1,1294,939,0,0
77,85,0,0,0,0,0,0,0,0,0,-1,1301,939,0,0
84,85,0,0,0,0,0,0,0,0,0,-1,1308,939,0,0
91,85,0,0,0,0,0,0,0,0,0,-1,1315,939,0,0
98,85,0,0,0,0,0,0,0,0,0,-1,1322,939,0,0
105,85,0,0,0,0,0,0,0,0,0,-1,1329,939,0,0
112,85,0,0,0,0,0,0,0,0,0,-1,1336,939,0,0
119,85,0,0,0,0,0,0,0,0,0,-1,1343,939,0,0
126,85,0,0,0,0,0,0,0,0,0,-1,1350,939,0,0
133,85,0,0,0,0,0,0,0,0,0,-1,1357,939,0,0
140,85,0,0,0,0,0,0,0,0,0,-1,1364,939,0,0
147,85,0,0,0,0,0,0,0,0,0,-1,1371,939,0,0
154,85,0,0,0,0,0,0,0,0,0,-1,1378,939,0,0
161,85,0,0,0,0,0,0,0,0,0,-1,1385,939,0,0
168,85,0,0,0,0,0,0,0,0,0,-1,1392,939,0,0
175,85,0,0,0,0,0,0,0,0,0,-1,1399,939,0,0
182,85,0,0,0,0,0,0,0,0,0,-1,1406,939,0,0
189,85,0,0,0,0,0,0,0,0,0,-1,1413,939,0,0
196,85,0,0,0,0,0,0,0,0,0,-1,1420,939,0,0
203,85,0,0,0,0,0,0,0,0,0,-1,1427,939,0,0
210,85,0,0,0,0,0,0,0,0,0,-1,1434,939,0,0
217,85,0,0,0,0,0,0,0,0,0,-1,1441,939,0,0
224,85,0,0,0,0,0,0,0,0,0,-1,1448,939,0,0
231,85,0,0,0,0,0,0,0,0,0,-1,1455,939,0,0
238,85,0,0,0,0,0,0,0,0,0,-1,1462,939,0,0
245,85,0,0,0,0,0,0,0,0,0,-1,1469,939,0,0
252,85,0,0,0,0,0,0,0,0,0,-1,1476,939,0,0
259,85,0,0,0,0,0,0,0,0,0,-1,1483,939,0,0
266,85,0,0,0,0,0,0,0,0,0,-1,1490,939,0,0
273,85,0,0,0,0,0,0,0,0,0,-1,1497,939,0,0
280,85,0,0,0,0,0,0,0,0,0,-1,1504,939,0,0
287,85,0,0,0,0,0,0,0,0,0,-1,1511,939,0,0
294,85,0,0,0,0,0,0,0,0,0,-1,1518,939,0,0
301,85,0,0,0,0,0,0,0,0,0,-1,1525,939,0,0
308,85,0,0,0,0,0,0,0,0,0,-1,1532,939,0,0
315,85,0,0,0,0,0,0,0,0,0,-1,1539,939,0,0
322,85,0,0,0,0,0,0,0,0,0,-1,1546,939,0,0
329,85,0,0,0,0,0,0,0,0,0,-1,1553,939,0,0
336,85,0,0,0,0,0,0,0,0,0,-1,1560,939,0,0
343,85,0,0,0,0,0,0,0,0,0,-1,1567,939,0,0
350,85,0,0,0,0,0,0,0,0,0,-1,1574,939,0,0
357,85,0,0,0,0,0,0,0,0,0,-1,1581,939,0,0
364,85,0,0,0,0,0,0,0,0,0,-1,1588,939,0,0
371,85,0,0,0,0,0,0,0,0,0,-1,1595,939,0,0
378,85,0,0,0,0,0,0,0,0,0,-1,1602,939,0,0
385,85,0,0,0,0,0,0,0,0,0,-1,1609,939,0,0
392,85,0,0,0,0,0,0,0,0,0,-1,1616,939,0,0
399,85,0,0,0,0,0,0,0,0,0,-1,1623,939,0,0
406,85,0,0,0,0,0,0,0,0,0,-1,1630,939,0,0
413,85,0,0,0,0,0,0,0,0,0,-1,1637,939,0,0
420,85,0,0,0,0,0,0,0,0,0,-1,1644,939,0,0
427,85,0,0,0,0,0,0,0,0,0,-1,1651,939,0,0
434,85,0,0,0,0,0,0,0,0,0,-1,1658,939,0,0
441,85,0,0,0,0,0,0,0,0,0,-1,1665,939,0,0
448,85,0,0,0,0,0,0,0,0,0,-1,1672,939,0,0
455,85,0,0,0,0,0,0,0,0,0,-1,1679,939,0,0
462,85,0,0,0,0,0,0,0,0,0,-1,1686,939,0,0
469,85,0,0,0,0,0,0,0,0,0,-1,1693,939,0,0
476,85,0,0,0,0,0,0,0,0,0,-1,1700,939,0,0
483,85,0,0,0,0,0,0,0,0,0,-1,1707,939,0,0
490,85,0,0,0,0,0,0,0,0,0,-1,1714,939,0,0
497,85,0,0,0,0,0,0,0,0,0,-1,1721,939,0,0
504,85,0,0,0,0,0,0,0,0,0,-1,1728,939,0,0
511,85,0,0,0,0,0,0,0,0,0,-1,1735,939,0,0
518,85,0,0,0,0,0,0,0,0,0,-1,1742,939,0,0
525,85,0,0,0,0,0,0,0,0,0,-1,1749,939,0,0
532,85,0,0,0,0,0,0,0,0,0,-1,1756,939,0,0
539,85,0,0,0,0,0,0,0,0,0,-1,1763,939,0,0
546,85,0,0,0,0,0,0,0,0,0,-1,1770,939,0,0
553,85,0,0,0,0,0,0,0,0,0,-1,1777,939,0,0
560,85,0,0,0,0,0,0,0,0,0,-1,1784,939,0,0
567,85,0,0,0,0,0,0,0,0,0,-1,1791,939,0,0
574,85,0,0,0,0,0,0,0,0,0,-1,1798,939,0,0
581,85,0,0,0,0,0,0,0,0,0,-1,1805,939,0,0
588,85,0,0,0,0,0,0,0,0,0,-1,1812,939,0,0
595,85,0,0,0,0,0,0,0,0,0,-1,1819,939,0,0
602,85,0,0,0,0,0,0,0,0,0,-1,1826,939,0,0
609,85,0,0,0,0,0,0,0,0,0,-1,1833,939,0,0
616,85,0,0,0,0,0,0,0,0,0,-1,1840,939,0,0
623,85,0,0,0,0,0,0,0,0,0,-1,1847,939,0,0
630,85,0,0,0,0,0,0,0,0,0,-1,1854,939,0,0
637,85,14.1599,1.66956,0.00177,0.00470305,0.00396251,0.00746171,-0.000988662,0.962632,0.00533465,0.0461858,1861,939,14.1599,-1.66954
644,85,14.1145,1.82544,0.00132906,0.0033745,0.00331145,0.00581757,-0.001114,0.935173,0.00429811,0.0448706,1868,939,14.1146,-1.82541
651,85,14.2256,1.91846,0.000654188,0.00256622,0.00262079,0.00439992,-0.00117951,0.960289,0.00339544,0.0459571,1875,939,14.2256,-1.91848
658,85,14.2085,1.87317,-0.000870478,0.0020616,0.00196364,0.0030461,-0.00185498,1.10606,0.00285736,0.0432646,1882,939,14.2084,-1.8732
665,85,14.1321,1.83173,-0.0028631,0.00172852,0.00149812,0.00217408,-0.00330866,1.28171,0.00318797,0.0432048,1889,939,14.1321,-1.83174
672,85,14.1312,1.80841,-0.00478055,0.00149611,0.00115828,0.00170303,-0.00498747,1.39401,0.00401492,0.0437934,1896,939,14.1313,-1.80838
679,85,14.1792,1.95667,-0.00642329,0.00133565,0.000935163,0.00144677,-0.00653441,1.45253,0.0049101,0.0400586,1903,939,14.1792,-1.95669
686,85,14.0955,2.05109,-0.00776939,0.00109636,0.00081467,0.00117059,-0.00784362,1.47992,0.00565978,0.0330624,1910,939,14.0954,-2.05106
693,85,14.1115,2.02612,-0.00856576,0.000941912,0.000609331,0.000980805,-0.00860465,1.50706,0.00608975,0.024557,1917,939,14.1114,-2.02609
700,85,14.1316,2.02283,-0.00899021,0.000867918,0.000479282,0.000891165,-0.00901346,1.52233,0.00632698,0.0231588,1924,939,14.1316,-2.0228
707,85,13.6965,2.0979,-0.00905579,0.000791688,0.00041805,0.000809403,-0.00907351,1.52845,0.00633606,0.0328247,1931,939,13.6965,-2.09787
714,85,12.9648,2.29761,-0.00859054,0.000773077,0.000394779,0.000789692,-0.00860715,1.52873,0.00601863,0.0350566,1938,939,12.9648,-2.29763
721,85,13.1956,2.35522,-0.00758555,0.000769003,0.000338579,0.000782702,-0.00759925,1.53036,0.0053462,0.0206944,1945,939,13.1955,-2.35522
728,85,13.2061,2.46594,-0.00626313,0.000550371,9.34587e-05,0.000551653,-0.00626441,1.55708,0.00437178,0.0167868,1952,939,13.206,-2.46592
735,85,13.1865,2.49731,-0.00444156,0.00076151,-5.01956e-05,0.000761995,-0.00444204,-1.56115,0.00324532,0.0176654,1959,939,13.1865,-2.49732
742,85,13.199,2.54779,-0.00198434,-0.000536043,-0.000174347,-0.00051535,-0.00200503,-1.45266,0.0012023,0.0162231,1966,939,13.1989,-2.54781
749,85,13.1954,2.63257,0.000507735,-0.00218896,-0.000814274,0.000734532,-0.00241576,-0.271643,0.0019032,0.0134,1973,939,13.1955,-2.63259
756,85,13.1823,2.71539,0.00343915,-0.0038732,-0.00131113,0.00366713,-0.00410118,-0.172161,0.00448737,0.0124129,1980,939,13.1823,-2.7154
763,85,13.181,2.79169,0.00632002,-0.00638192,-0.00202555,0.00663521,-0.00669711,-0.154369,0.00769745,0.0119525,1987,939,13.181,-2.79172
770,85,13.1831,2.82434,0.00904732,-0.00994235,-0.00286818,0.00947107,-0.0103661,-0.146681,0.0114569,0.017133,1994,939,13.183,-2.82433
777,85,13.147,2.8042,0.0118597,-0.0149307,-0.00386848,0.0124072,-0.0154781,-0.140573,0.0161321,0.039027,2001,939,13.1469,-2.80419
784,85,13.1506,3.03149,0.0149183,-0.0217988,-0.00518009,0.0156351,-0.0225156,-0.137506,0.0221454,0.0454152,2008,939,13.1507,-3.03148
791,85,13.3159,3.26276,0.0182559,-0.0310789,-0.0069672,0.019221,-0.0320439,-0.137638,0.0299048,0.0436765,2015,939,13.316,-3.26276
798,85,13.5156,3.19214,0.02171,-0.0434519,-0.00941512,0.0230431,-0.044785,-0.140656,0.0398256,0.0448814,2022,939,13.5156,-3.19217
805,85,13.5812,3.18616,0,0,0,0,0,0,0,-1,2029,939,13.5812,-3.18616
812,85,0,0,0,0,0,0,0,0,0,-1,2036,939,0,0
-700,78,0,0,0,0,0,0,0,0,0,-1,524,946,0,0
-693,78,0,0,0,0,0,0,0,0,0,-1,531,946,0,0
-686,78,-8.47443,2.13086,0,0,0,0,0,0,0,-1,538,946,-8.47444,-2.13084
-679,78,-8.3053,1.94922,0,0,0,0,0,0,0,-1,545,946,-8.30527,-1.94921
-672,78,-8.67175,1.19391,0,0,0,0,0,0,0,-1,552,946,-8.67173,-1.19393
-665,78,-8.56561,0.967834,0.0240524,0.00632703,-0.0364044,0.0526574,-0.022278,-0.665996,0.0444333,0.0453928,559,946,-8.5656,-0.967864
-658,78,-8.05579,0.486267,0.0207626,0.00789151,-0.0284889,0.0435338,-0.0148797,-0.674315,0.0350515,0.0439175,566,946,-8.05582,-0.486268
-651,78,-7.888,0.724121,0.0170705,0.00823698,-0.0212794,0.0343866,-0.00907918,-0.683071,0.0264749,0.0435851,573,946,-7.888,-0.724131
-644,78,-7.94153,0.889038,0.0133596,0.00770144,-0.015107,0.0259001,-0.00483906,-0.692835,0.0190854,0.0273485,580,946,-7.94154,-0.889008
-637,78,-7.96295,0.83667,0.009822,0.00676209,-0.0104675,0.0188708,-0.00228672,-0.712831,0.0134079,0.0136774,587,946,-7.96295,-0.836699
-630,78,-7.98328,0.783997,0.0068688,0.00578344,-0.00692151,0.0132689,-0.000616632,-0.746276,0.00905846,0.0127659,594,946,-7.98327,-0.784006
-623,78,-7.9967,0.721069,0.00410906,0.00463174,-0.00372278,0.00810234,0.000638465,-0.820441,0.00520182,0.0118849,601,946,-7.99669,-0.721063
-616,78,-8.00793,0.672058,0.00149206,0.00309202,-0.00119153,0.0037272,0.000856871,-1.08103,0.00225414,0.00991066,608,946,-8.00791,-0.67206
-609,78,-7.995,0.62561,-0.00110867,0.00267187,0.000568044,0.00275538,-0.00119217,1.42483,0.00233793,0.0105779,615,946,-7.99498,-0.625607
-602,78,-7.99036,0.558167,-0.00313516,0.00051685,0.000357921,0.000551598,-0.00316991,1.47402,0.00231911,0.0142886,622,946,-7.99035,-0.558138
-595,78,-7.9834,0.505798,-0.00437482,0.000156507,0.000385479,0.000189066,-0.00440738,1.48653,0.00300326,0.0146547,629,946,-7.9834,-0.505799
-588,78,-7.98145,0.501282,-0.00492554,0.000105666,0.000301029,0.000123613,-0.00494349,1.51125,0.00333763,0.0133332,636,946,-7.98145,-0.501294
-581,78,-8.00153,0.456177,-0.0050593,0.000135008,8.01648e-05,0.000136245,-0.00506054,1.55537,0.00342001,0.016629,643,946,-8.00152,-0.456205
-574,78,-8.20923,0.32959,-0.00504826,0.000294661,-0.000326908,0.000314589,-0.00506818,-1.50991,0.00348838,0.0217108,650,946,-8.20921,-0.329566
-567,78,-8.48944,0.213928,-0.00484352,0.000707174,-0.00066937,0.000786754,-0.0049231,-1.45246,0.00357331,0.0292665,657,946,-8.48941,-0.2139
-560,78,-8.39551,0.25415,-0.00422846,0.00116175,-0.00112087,0.00138554,-0.00445225,-1.37373,0.00352206,0.0320627,664,946,-8.3955,-0.254167
-553,78,-8.29486,0.204529,-0.00311253,0.00181682,-0.00181747,0.00241447,-0.00371018,-1.2531,0.00356235,0.0412445,671,946,-8.29488,-0.204524
-546,78,-8.31635,0.291687,-0.00144729,0.00272935,-0.00281103,0.00414288,-0.00286082,-1.10487,0.00406611,0.0436508,678,946,-8.31635,-0.29167
-539,78,-8.323,0.544312,0.000764833,0.00396561,-0.00416995,0.00683173,-0.00210129,-0.968626,0.00539314,0.0400697,685,946,-8.32302,-0.544298
-532,78,-8.42133,0.285889,0.00347754,0.00561504,-0.00599729,0.0106381,-0.00154549,-0.873575,0.00765936,0.039052,692,946,-8.42135,-0.285893
-525,78,-8.26672,-0.160706,0.00630916,0.00783104,-0.00845176,0.015556,-0.00141585,-0.830294,0.0108734,0.0387744,699,946,-8.2667,0.160676
-518,78,-8.33099,-0.190308,0.00813133,0.0108611,-0.0116232,0.0211993,-0.00220682,-0.843845,0.0149229,0.0413306,706,946,-8.33099,0.19033
-511,78,0,0,0,0,0,0,0,0,0,-1,713,946,0,0
-504,78,0,0,0,0,0,0,0,0,0,-1,720,946,0,0
-497,78,0,0,0,0,0,0,0,0,0,-1,727,946,0,0
-490,78,0,0,0,0,0,0,0,0,0,-1,734,946,0,0
-483,78,0,0,0,0,0,0,0,0,0,-1,741,946,0,0
-476,78,0,0,0,0,0,0,0,0,0,-1,748,946,0,0
-469,78,0,0,0,0,0,0,0,0,0,-1,755,946,0,0
-462,78,0,0,0,0,0,0,0,0,0,-1,762,946,0,0
-455,78,0,0,0,0,0,0,0,0,0,-1,769,946,0,0
-448,78,0,0,0,0,0,0,0,0,0,-1,776,946,0,0
-441,78,0,0,0,0,0,0,0,0,0,-1,783,946,0,0
-434,78,0,0,0,0,0,0,0,0,0,-1,790,946,0,0
-427,78,0,0,0,0,0,0,0,0,0,-1,797,946,0,0
-420,78,0,0,0,0,0,0,0,0,0,-1,804,946,0,0
-413,78,0,0,0,0,0,0,0,0,0,-1,811,946,0,0
-406,78,0,0,0,0,0,0,0,0,0,-1,818,946,0,0
-399,78,0,0,0,0,0,0,0,0,0,-1,825,946,0,0
-392,78,0,0,0,0,0,0,0,0,0,-1,832,946,0,0
-385,78,0,0,0,0,0,0,0,0,0,-1,839,946,0,0
-378,78,0,0,0,0,0,0,0,0,0,-1,846,946,0,0
-371,78,0,0,0,0,0,0,0,0,0,-1,853,946,0,0
-364,78,0,0,0,0,0,0,0,0,0,-1,860,946,0,0
-357,78,0,0,0,0,0,0,0,0,0,-1,867,946,0,0
-350,78,0,0,0,0,0,0,0,0,0,-1,874,946,0,0
-343,78,0,0,0,0,0,0,0,0,0,-1,881,946,0,0
-336,78,0,0,0,0,0,0,0,0,0,-1,888,946,0,0
-329,78,0,0,0,0,0,0,0,0,0,-1,895,946,0,0
-322,78,0,0,0,0,0,0,0,0,0,-1,902,946,0,0
-315,78,0,0,0,0,0,0,0,0,0,-1,909,946,0,0
-308,78,0,0,0,0,0,0,0,0,0,-1,916,946,0,0
-301,78,0,0,0,0,0,0,0,0,0,-1,923,946,0,0
-294,78,0,0,0,0,0,0,0,0,0,-1,930,946,0,0
-287,78,0,0,0,0,0,0,0,0,0,-1,937,946,0,0
-280,78,0,0,0,0,0,0,0,0,0,-1,944,946,0,0
-273,78,0,0,0,0,0,0,0,0,0,-1,951,946,0,0
-266,78,0,0,0,0,0,0,0,0,0,-1,958,946,0,0
-259,78,0,0,0,0,0,0,0,0,0,-1,965,946,0,0
-252,78,0,0,0,0,0,0,0,0,0,-1,972,946,0,0
-245,78,0,0,0,0,0,0,0,0,0,-1,979,946,0,0
-238,78,0,0,0,0,0,0,0,0,0,-1,986,946,0,0
-231,78,0,0,0,0,0,0,0,0,0,-1,993,946,0,0
-224,78,0,0,0,0,0,0,0,0,0,-1,1000,946,0,0
-217,78,0,0,0,0,0,0,0,0,0,-1,1007,946,0,0
-210,78,0,0,0,0,0,0,0,0,0,-1,1014,946,0,0
-203,78,0,0,0,0,0,0,0,0,0,-1,1021,946,0,0
-196,78,0,0,0,0,0,0,0,0,0,-1,1028,946,0,0
-189,78,0,0,0,0,0,0,0,0,0,-1,1035,946,0,0
-182,78,0,0,0,0,0,0,0,0,0,-1,1042,946,0,0
-175,78,0,0,0,0,0,0,0,0,0,-1,1049,946,0,0
-168,78,0,0,0,0,0,0,0,0,0,-1,1056,946,0,0
-161,78,0,0,0,0,0,0,0,0,0,-1,1063,946,0,0
-154,78,0,0,0,0,0,0,0,0,0,-1,1070,946,0,0
-147,78,0,0,0,0,0,0,0,0,0,-1,1077,946,0,0
-140,78,0,0,0,0,0,0,0,0,0,-1,1084,946,0,0
-133,78,0,0,0,0,0,0,0,0,0,-1,1091,946,0,0
-126,78,0,0,0,0,0,0,0,0,0,-1,1098,946,0,0
-119,78,0,0,0,0,0,0,0,0,0,-1,1105,946,0,0
-112,78,0,0,0,0,0,0,0,0,0,-1,1112,946,0,0
-105,78,0,0,0,0,0,0,0,0,0,-1,1119,946,0,0
-98,78,0,0,0,0,0,0,0,0,0,-1,1126,946,0,0
-91,78,0,0,0,0,0,0,0,0,0,-1,1133,946,0,0
-84,78,0,0,0,0,0,0,0,0,0,-1,1140,946,0,0
-77,78,0,0,0,0,0,0,0,0,0,-1,1147,946,0,0
-70,78,0,0,0,0,0,0,0,0,0,-1,1154,946,0,0
-63,78,0,0,0,0,0,0,0,0,0,-1,1161,946,0,0
-56,78,0,0,0,0,0,0,0,0,0,-1,1168,946,0,0
-49,78,0,0,0,0,0,0,0,0,0,-1,1175,946,0,0
-42,78,0,0,0,0,0,0,0,0,0,-1,1182,946,0,0
-35,78,0,0,0,0,0,0,0,0,0,-1,1189,946,0,0
-28,78,0,0,0,0,0,0,0,0,0,-1,1196,946,0,0
-21,78,0,0,0,0,0,0,0,0,0,-1,1203,946,0,0
-14,78,0,0,0,0,0,0,0,0,0,-1,1210,946,0,0
-7,78,0,0,0,0,0,0,0,0,0,-1,1217,946,0,0
0,78,0,0,0,0,0,0,0,0,0,-1,1224,946,0,0
7,78,0,0,0,0,0,0,0,0,0,-1,1231,946,0,0
14,78,0,0,0,0,0,0,0,0,0,-1,1238,946,0,0
21,78,0,0,0,0,0,0,0,0,0,-1,1245,946,0,0
28,78,0,0,0,0,0,0,0,0,0,-1,1252,946,0,0
35,78,0,0,0,0,0,0,0,0,0,-1,1259,946,0,0
42,78,0,0,0,0,0,0,0,0,0,-1,1266,946,0,0
49,78,0,0,0,0,0,0,0,0,0,-1,1273,946,0,0
56,78,0,0,0,0,0,0,0,0,0,-1,1280,946,0,0
63,78,0,0,0,0,0,0,0,0,0,-1,1287,946,0,0
70,78,0,0,0,0,0,0,0,0,0,-1,1294,946,0,0
77,78,0,0,0,0,0,0,0,0,0,-1,1301,946,0,0
84,78,0,0,0,0,0,0,0,0,0,-1,1308,946,0,0
91,78,0,0,0,0,0,0,0,0,0,-1,1315,946,0,0
98,78,0,0,0,0,0,0,0,0,0,-1,1322,946,0,0
105,78,0,0,0,0,0,0,0,0,0,-1,1329,946,0,0
112,78,0,0,0,0,0,0,0,0,0,-1,1336,946,0,0
119,78,0,0,0,0,0,0,0,0,0,-1,1343,946,0,0
126,78,0,0,0,0,0,0,0,0,0,-1,1350,946,0,0
133,78,0,0,0,0,0,0,0,0,0,-1,1357,946,0,0
140,78,0,0,0,0,0,0,0,0,0,-1,1364,946,0,0
147,78,0,0,0,0,0,0,0,0,0,-1,1371,946,0,0
154,78,0,0,0,0,0,0,0,0,0,-1,1378,946,0,0
161,78,0,0,0,0,0,0,0,0,0,-1,1385,946,0,0
168,78,0,0,0,0,0,0,0,0,0,-1,1392,946,0,0
175,78,0,0,0,0,0,0,0,0,0,-1,1399,946,0,0
182,78,0,0,0,0,0,0,0,0,0,-1,1406,946,0,0
189,78,0,0,0,0,0,0,0,0,0,-1,1413,946,0,0
196,78,0,0,0,0,0,0,0,0,0,-1,1420,946,0,0
203,78,0,0,0,0,0,0,0,0,0,-1,1427,946,0,0
210,78,0,0,0,0,0,0,0,0,0,-1,1434,946,0,0
217,78,0,0,0,0,0,0,0,0,0,-1,1441,946,0,0
224,78,0,0,0,0,0,0,0,0,0,-1,1448,946,0,0
231,78,0,0,0,0,0,0,0,0,0,-1,1455,946,0,0
238,78,0,0,0,0,0,0,0,0,0,-1,1462,946,0,0
245,78,0,0,0,0,0,0,0,0,0,-1,1469,946,0,0
252,78,0,0,0,0,0,0,0,0,0,-1,1476,946,0,0
259,78,0,0,0,0,0,0,0,0,0,-1,1483,946,0,0
266,78,0,0,0,0,0,0,0,0,0,-1,1490,946,0,0
273,78,0,0,0,0,0,0,0,0,0,-1,1497,946,0,0
280,78,0,0,0,0,0,0,0,0,0,-1,1504,946,0,0
287,78,0,0,0,0,0,0,0,0,0,-1,1511,946,0,0
294,78,0,0,0,0,0,0,0,0,0,-1,1518,946,0,0
301,78,0,0,0,0,0,0,0,0,0,-1,1525,946,0,0
308,78,0,0,0,0,0,0,0,0,0,-1,1532,946,0,0
315,78,0,0,0,0,0,0,0,0,0,-1,1539,946,0,0
322,78,0,0,0,0,0,0,0,0,0,-1,1546,946,0,0
329,78,0,0,0,0,0,0,0,0,0,-1,1553,946,0,0
336,78,0,0,0,0,0,0,0,0,0,-1,1560,946,0,0
343,78,0,0,0,0,0,0,0,0,0,-1,1567,946,0,0
350,78,0,0,0,0,0,0,0,0,0,-1,1574,946,0,0
357,78,0,0,0,0,0,0,0,0,0,-1,1581,946,0,0
364,78,0,0,0,0,0,0,0,0,0,-1,1588,946,0,0
371,78,0,0,0,0,0,0,0,0,0,-1,1595,946,0,0
378,78,0,0,0,0,0,0,0,0,0,-1,1602,946,0,0
385,78,0,0,0,0,0,0,0,0,0,-1,1609,946,0,0
392,78,0,0,0,0,0,0,0,0,0,-1,1616,946,0,0
399,78,0,0,0,0,0,0,0,0,0,-1,1623,946,0,0
406,78,0,0,0,0,0,0,0,0,0,-1,1630,946,0,0
413,78,0,0,0,0,0,0,0,0,0,-1,1637,946,0,0
420,78,0,0,0,0,0,0,0,0,0,-1,1644,946,0,0
427,78,0,0,0,0,0,0,0,0,0,-1,1651,946,0,0
434,78,0,0,0,0,0,0,0,0,0,-1,1658,946,0,0
441,78,0,0,0,0,0,0,0,0,0,-1,1665,946,0,0
448,78,0,0,0,0,0,0,0,0,0,-1,1672,946,0,0
455,78,0,0,0,0,0,0,0,0,0,-1,1679,946,0,0
462,78,0,0,0,0,0,0,0,0,0,-1,1686,946,0,0
469,78,0,0,0,0,0,0,0,0,0,-1,1693,946,0,0
476,78,0,0,0,0,0,0,0,0,0,-1,1700,946,0,0
483,78,0,0,0,0,0,0,0,0,0,-1,1707,946,0,0
490,78,0,0,0,0,0,0,0,0,0,-1,1714,946,0,0
497,78,0,0,0,0,0,0,0,0,0,-1,1721,946,0,0
504,78,0,0,0,0,0,0,0,0,0,-1,1728,946,0,0
511,78,0,0,0,0,0,0,0,0,0,-1,1735,946,0,0
518,78,0,0,0,0,0,0,0,0,0,-1,1742,946,0,0
525,78,0,0,0,0,0,0,0,0,0,-1,1749,946,0,0
532,78,0,0,0,0,0,0,0,0,0,-1,1756,946,0,0
539,78,0,0,0,0,0,0,0,0,0,-1,1763,946,0,0
546,78,0,0,0,0,0,0,0,0,0,-1,1770,946,0,0
553,78,0,0,0,0,0,0,0,0,0,-1,1777,946,0,0
560,78,0,0,0,0,0,0,0,0,0,-1,1784,946,0,0
567,78,0,0,0,0,0,0,0,0,0,-1,1791,946,0,0
574,78,0,0,0,0,0,0,0,0,0,-1,1798,946,0,0
581,78,0,0,0,0,0,0,0,0,0,-1,1805,946,0,0
588,78,0,0,0,0,0,0,0,0,0,-1,1812,946,0,0
595,78,0,0,0,0,0,0,0,0,0,-1,1819,946,0,0
602,78,0,0,0,0,0,0,0,0,0,-1,1826,946,0,0
609,78,0,0,0,0,0,0,0,0,0,-1,1833,946,0,0
616,78,0,0,0,0,0,0,0,0,0,-1,1840,946,0,0
623,78,0,0,0,0,0,0,0,0,0,-1,1847,946,0,0
630,78,0,0,0,0,0,0,0,0,0,-1,1854,946,0,0
637,78,14.1437,1.53644,0.000774598,0.0052065,0.00495368,0.00841727,-0.00243618,0.995716,0.00657576,0.0459722,1861,946,14.1436,-1.53644
644,78,14.0287,1.70349,0.000497045,0.00379196,0.00397321,0.00644572,-0.00215672,0.98193,0.0051683,0.0454001,1868,946,14.0287,-1.7035
651,78,14.1173,1.91168,0.000285963,0.00290008,0.00310496,0.00496188,-0.00177584,0.984619,0.00403239,0.0455979,1875,946,14.1173,-1.91166
658,78,14.1268,1.94373,-0.000695066,0.00232736,0.00238681,0.00364115,-0.00200886,1.06762,0.0033071,0.0418765,1882,946,14.1269,-1.94373
665,78,14.1589,1.96558,-0.00226813,0.00195163,0.00191691,0.00269239,-0.00300889,1.20204,0.00329332,0.0420285,1889,946,14.159,-1.96558
672,78,14.1038,2.60345,-0.00396819,0.00168807,0.00160552,0.00211202,-0.00439214,1.31263,0.00383132,0.0433588,1896,946,14.1037,-2.60344
679,78,14.1917,2.1839,-0.00552391,0.00148583,0.00143152,0.00176691,-0.00580498,1.37692,0.00457416,0.0406203,1903,946,14.1916,-2.18393
686,78,14.0226,2.14252,-0.00682531,0.00124733,0.00132779,0.00146012,-0.00703809,1.41189,0.00524693,0.0371209,1910,946,14.0226,-2.1425
693,78,14.1072,1.92694,-0.00766139,0.00108737,0.00113962,0.00123338,-0.0078074,1.44337,0.00566102,0.0279055,1917,946,14.1072,-1.92695
700,78,14.1206,1.96527,-0.00820898,0.000985971,0.00103281,0.00110055,-0.00832356,1.46031,0.00594991,0.0191546,1924,946,14.1206,-1.96528
707,78,13.9537,2.13208,-0.00843099,0.000878092,0.000960524,0.000976167,-0.00852907,1.46904,0.0060378,0.0286711,1931,946,13.9537,-2.13208
714,78,13.1677,2.30072,0,0,0,0,0,0,0,-1,1938,946,13.1677,-2.30075
721,78,13.2485,2.34564,-0.00750158,0.000802664,0.000774498,0.00087428,-0.0075732,1.47859,0.00536403,0.0197374,1945,946,13.2485,-2.34565
728,78,13.3217,2.44263,-0.00646659,0.000598301,0.000487853,0.00063183,-0.00650012,1.50218,0.00455864,0.021121,1952,946,13.3216,-2.44266
735,78,13.2753,2.49524,-0.00480083,0.000333611,0.000297202,0.000350757,-0.00481797,1.51317,0.00333505,0.0158774,1959,946,13.2752,-2.49522
742,78,13.2814,2.56506,-0.00245655,-0.00118607,0.000208974,-0.00115258,-0.00249004,1.41189,0.00143894,0.01436,1966,946,13.2814,-2.56508
749,78,13.2747,2.63165,-4.83356e-05,-0.00312043,-0.0003875,-2.12109e-07,-0.00316856,-0.123557,0.0021123,0.0128201,1973,946,13.2747,-2.63167
756,78,13.2739,2.68567,0.00290766,-0.00528364,-0.000745456,0.00297495,-0.00535093,-0.0900204,0.00487175,0.0133312,1980,946,13.274,-2.68566
763,78,13.2832,2.77899,0.00603913,-0.00834446,-0.00120321,0.00613909,-0.00844442,-0.0828839,0.00845479,0.011796,1987,946,13.2831,-2.77902
770,78,13.2628,2.85126,0.00919184,-0.0125667,-0.00163621,0.00931419,-0.0126891,-0.0746391,0.0127533,0.0155431,1994,946,13.2629,-2.85124
777,78,13.2722,2.86151,0.0125483,-0.0182548,-0.00203284,0.0126819,-0.0183883,-0.0656155,0.018039,0.0362646,2001,946,13.2722,-2.8615
784,78,13.7603,3.26978,0.0163077,-0.0258262,-0.00247493,0.0164526,-0.0259711,-0.0584715,0.024698,0.0425509,2008,946,13.7603,-3.26979
791,78,13.8827,3.83807,0.0205997,-0.0357292,-0.0030392,0.0207632,-0.0358927,-0.0537466,0.0330968,0.040317,2015,946,13.8827,-3.83807
798,78,14.1653,3.79437,0.0252973,-0.0484729,-0.00379498,0.025492,-0.0486676,-0.0512629,0.0435074,0.040993,2022,946,14.1653,-3.79435
805,78,14.4052,3.76276,0,0,0,0,0,0,0,-1,2029,946,14.4052,-3.76274
812,78,0,0,0,0,0,0,0,0,0,-1,2036,946,0,0
-700,71,0,0,0,0,0,0,0,0,0,-1,524,953,0,0
-693,71,0,0,0,0,0,0,0,0,0,-1,531,953,0,0
-686,71,-9.13287,1.89056,0,0,0,0,0,0,0,-1,538,953,-9.13288,-1.89054
-679,71,-8.802,1.62915,0,0,0,0,0,0,0,-1,545,953,-8.802,-1.62912
-672,71,-8.52991,1.38947,0.0265992,-0.00610763,-0.0338189,0.0478111,-0.0273196,-0.560195,0.0439112,0.0461567,552,953,-8.52988,-1.38946
-665,71,-8.19238,1.16217,0.0235306,-0.00168424,-0.028708,0.0422776,-0.0204312,-0.578497,0.03693,0.0431629,559,953,-8.1924,-1.1622
-658,71,-8.07947,1.09448,0.019949,0.00126512,-0.02315,0.0355709,-0.0143568,-0.593621,0.0296805,0.0428326,566,953,-8.07945,-1.09448
-651,71,-8.09753,0.887878,0.016203,0.00295887,-0.0177126,0.028491,-0.0093291,-0.606512,0.0227504,0.0420329,573,953,-8.09756,-0.887849
-644,71,-8.02155,0.907166,0.0125833,0.00365806,-0.0128278,0.0217025,-0.00546117,-0.618003,0.0165911,0.032505,580,953,-8.02157,-0.90719
-637,71,-8.02448,0.845154,0.00916238,0.00381623,-0.00916691,0.016038,-0.00305939,-0.643532,0.0118442,0.0139997,587,953,-8.02449,-0.845155
-630,71,-8.05212,0.792236,0.00628603,0.00371835,-0.00634513,0.0114759,-0.00147152,-0.685578,0.00818532,0.0132668,594,953,-8.05212,-0.792223
-623,71,-8.07428,0.720459,0.00366919,0.0033307,-0.00358446,0.0070884,-8.85078e-05,-0.761807,0.00475538,0.0130453,601,953,-8.07429,-0.72048
-616,71,-8.07843,0.673096,0.00129678,0.00232237,-0.00134312,0.00324726,0.000371888,-0.967756,0.00205214,0.0124705,608,953,-8.07843,-0.673095
-609,71,-8.05127,0.628296,-0.000941562,0.00219865,0.000206234,0.00221214,-0.000955048,1.5055,0.00187597,0.013047,615,953,-8.05124,-0.628318
-602,71,-8.0368,0.561035,-0.00273132,0.000640651,0.000133857,0.000645957,-0.00273662,1.53118,0.00207355,0.014412,622,953,-8.0368,-0.561045
-595,71,-8.0484,0.527466,-0.00388911,0.000364032,0.000106853,0.000366715,-0.0038918,1.54569,0.00272501,0.015474,629,953,-8.04837,-0.527478
-588,71,-8.04291,0.537781,-0.00435462,0.000366185,-5.10476e-05,0.000366737,-0.00435517,-1.55998,0.00303309,0.0167423,636,953,-8.0429,-0.537756
-581,71,-8.11304,0.476196,-0.004361,0.000452077,-0.000328283,0.000474365,-0.00438328,-1.50301,0.00309246,0.022226,643,953,-8.11301,-0.476185
-574,71,-8.33728,0.359436,-0.00421239,0.000656147,-0.000773935,0.000776216,-0.00433246,-1.41688,0.00317879,0.0262068,650,953,-8.33729,-0.359422
-567,71,-8.43652,0.237976,-0.00388605,0.00110229,-0.00115773,0.00135789,-0.00414165,-1.35351,0.00330798,0.019352,657,953,-8.4365,-0.237964
-560,71,-8.41229,0.250488,-0.00314557,0.00157273,-0.00166576,0.00210155,-0.00367438,-1.2634,0.0033757,0.0261365,664,953,-8.41228,-0.250472
-553,71,-8.40601,0.204163,-0.00191146,0.00223319,-0.00241624,0.00334406,-0.00302234,-1.13986,0.00367721,0.0399163,671,953,-8.40603,-0.204165
-546,71,-8.46863,0.386169,-0.000146553,0.00313468,-0.0034775,0.00533915,-0.00235102,-1.00581,0.00455027,0.0431556,678,953,-8.4686,-0.386188
-539,71,-8.43268,0.647827,0.00216263,0.00434539,-0.00493325,0.00830654,-0.00179852,-0.894259,0.00622442,0.0417961,685,953,-8.43267,-0.647839
-532,71,-8.40393,0.423462,0.00496668,0.00596925,-0.00691525,0.0124014,-0.00146542,-0.82158,0.00879683,0.0417809,692,953,-8.40396,-0.423441
-525,71,-8.32452,-0.0276489,0.00782697,0.00819358,-0.00963295,0.017645,-0.00162442,-0.794911,0.0123405,0.0441456,699,953,-8.32454,0.0276768
-518,71,0,0,0,0,0,0,0,0,0,-1,706,953,0,0
-511,71,0,0,0,0,0,0,0,0,0,-1,713,953,0,0
-504,71,0,0,0,0,0,0,0,0,0,-1,720,953,0,0
-497,71,0,0,0,0,0,0,0,0,0,-1,727,953,0,0
-490,71,0,0,0,0,0,0,0,0,0,-1,734,953,0,0
-483,71,0,0,0,0,0,0,0,0,0,-1,741,953,0,0
-476,71,0,0,0,0,0,0,0,0,0,-1,748,953,0,0
-469,71,0,0,0,0,0,0,0,0,0,-1,755,953,0,0
-462,71,0,0,0,0,0,0,0,0,0,-1,762,953,0,0
-455,71,0,0,0,0,0,0,0,0,0,-1,769,953,0,0
-448,71,0,0,0,0,0,0,0,0,0,-1,776,953,0,0
-441,71,0,0,0,0,0,0,0,0,0,-1,783,953,0,0
-434,71,0,0,0,0,0,0,0,0,0,-1,790,953,0,0
-427,71,0,0,0,0,0,0,0,0,0,-1,797,953,0,0
-420,71,0,0,0,0,0,0,0,0,0,-1,804,953,0,0
-413,71,0,0,0,0,0,0,0,0,0,-1,811,953,0,0
-406,71,0,0,0,0,0,0,0,0,0,-1,818,953,0,0
-399,71,0,0,0,0,0,0,0,0,0,-1,825,953,0,0
-392,71,0,0,0,0,0,0,0,0,0,-1,832,953,0,0
-385,71,0,0,0,0,0,0,0,0,0,-1,839,953,0,0
-378,71,0,0,0,0,0,0,0,0,0,-1,846,953,0,0
-371,71,0,0,0,0,0,0,0,0,0,-1,853,953,0,0
-364,71,0,0,0,0,0,0,0,0,0,-1,860,953,0,0
-357,71,0,0,0,0,0,0,0,0,0,-1,867,953,0,0
-350,71,0,0,0,0,0,0,0,0,0,-1,874,953,0,0
-343,71,0,0,0,0,0,0,0,0,0,-1,881,953,0,0
-336,71,0,0,0,0,0,0,0,0,0,-1,888,953,0,0
-329,71,0,0,0,0,0,0,0,0,0,-1,895,953,0,0
-322,71,0,0,0,0,0,0,0,0,0,-1,902,953,0,0
-315,71,0,0,0,0,0,0,0,0,0,-1,909,953,0,0
-308,71,0,0,0,0,0,0,0,0,0,-1,916,953,0,0
-301,71,0,0,0,0,0,0,0,0,0,-1,923,953,0,0
-294,71,0,0,0,0,0,0,0,0,0,-1,930,953,0,0
-287,71,0,0,0,0,0,0,0,0,0,-1,937,953,0,0
-280,71,0,0,0,0,0,0,0,0,0,-1,944,953,0,0
-273,71,0,0,0,0,0,0,0,0,0,-1,951,953,0,0
-266,71,0,0,0,0,0,0,0,0,0,-1,958,953,0,0
-259,71,0,0,0,0,0,0,0,0,0,-1,965,953,0,0
-252,71,0,0,0,0,0,0,0,0,0,-1,972,953,0,0
-245,71,0,0,0,0,0,0,0,0,0,-1,979,953,0,0
-238,71,0,0,0,0,0,0,0,0,0,-1,986,953,0,0
-231,71,0,0,0,0,0,0,0,0,0,-1,993,953,0,0
-224,71,0,0,0,0,0,0,0,0,0,-1,1000,953,0,0
-217,71,0,0,0,0,0,0,0,0,0,-1,1007,953,0,0
-210,71,0,0,0,0,0,0,0,0,0,-1,1014,953,0,0
-203,71,0,0,0,0,0,0,0,0,0,-1,1021,953,0,0
-196,71,0,0,0,0,0,0,0,0,0,-1,1028,953,0,0
-189,71,0,0,0,0,0,0,0,0,0,-1,1035,953,0,0
-182,71,0,0,0,0,0,0,0,0,0,-1,1042,953,0,0
-175,71,0,0,0,0,0,0,0,0,0,-1,1049,953,0,0
-168,71,0,0,0,0,0,0,0,0,0,-1,1056,953,0,0
-161,71,0,0,0,0,0,0,0,0,0,-1,1063,953,0,0
-154,71,0,0,0,0,0,0,0,0,0,-1,1070,953,0,0
-147,71,0,0,0,0,0,0,0,0,0,-1,1077,953,0,0
-140,71,0,0,0,0,0,0,0,0,0,-1,1084,953,0,0
-133,71,0,0,0,0,0,0,0,0,0,-1,1091,953,0,0
-126,71,0,0,0,0,0,0,0,0,0,-1,1098,953,0,0
-119,71,0,0,0,0,0,0,0,0,0,-1,1105,953,0,0
-112,71,0,0,0,0,0,0,0,0,0,-1,1112,953,0,0
-105,71,0,0,0,0,0,0,0,0,0,-1,1119,953,0,0
-98,71,0,0,0,0,0,0,0,0,0,-1,1126,953,0,0
-91,71,0,0,0,0,0,0,0,0,0,-1,1133,953,0,0
-84,71,0,0,0,0,0,0,0,0,0,-1,1140,953,0,0
-77,71,0,0,0,0,0,0,0,0,0,-1,1147,953,0,0
-70,71,0,0,0,0,0,0,0,0,0,-1,1154,953,0,0
-63,71,0,0,0,0,0,0,0,0,0,-1,1161,953,0,0
-56,71,0,0,0,0,0,0,0,0,0,-1,1168,953,0,0
-49,71,0,0,0,0,0,0,0,0,0,-1,1175,953,0,0
-42,71,0,0,0,0,0,0,0,0,0,-1,1182,953,0,0
-35,71,0,0,0,0,0,0,0,0,0,-1,1189,953,0,0
-28,71,0,0,0,0,0,0,0,0,0,-1,1196,953,0,0
-21,71,0,0,0,0,0,0,0,0,0,-1,1203,953,0,0
-14,71,0,0,0,0,0,0,0,0,0,-1,1210,953,0,0
-7,71,0,0,0,0,0,0,0,0,0,-1,1217,953,0,0
0,71,0,0,0,0,0,0,0,0,0,-1,1224,953,0,0
7,71,0,0,0,0,0,0,0,0,0,-1,1231,953,0,0
14,71,0,0,0,0,0,0,0,0,0,-1,1238,953,0,0
21,71,0,0,0,0,0,0,0,0,0,-1,1245,953,0,0
28,71,0,0,0,0,0,0,0,0,0,-1,1252,953,0,0
35,71,0,0,0,0,0,0,0,0,0,-1,1259,953,0,0
42,71,0,0,0,0,0,0,0,0,0,-1,1266,953,0,0
49,71,0,0,0,0,0,0,0,0,0,-1,1273,953,0,0
56,71,0,0,0,0,0,0,0,0,0,-1,1280,953,0,0
63,71,0,0,0,0,0,0,0,0,0,-1,1287,953,0,0
70,71,0,0,0,0,0,0,0,0,0,-1,1294,953,0,0
77,71,0,0,0,0,0,0,0,0,0,-1,1301,953,0,0
84,71,0,0,0,0,0,0,0,0,0,-1,1308,953,0,0
91,71,0,0,0,0,0,0,0,0,0,-1,1315,953,0,0
98,71,0,0,0,0,0,0,0,0,0,-1,1322,953,0,0
105,71,0,0,0,0,0,0,0,0,0,-1,1329,953,0,0
112,71,0,0,0,0,0,0,0,0,0,-1,1336,953,0,0
119,71,0,0,0,0,0,0,0,0,0,-1,1343,953,0,0
126,71,0,0,0,0,0,0,0,0,0,-1,1350,953,0,0
133,71,0,0,0,0,0,0,0,0,0,-1,1357,953,0,0
140,71,0,0,0,0,0,0,0,0,0,-1,1364,953,0,0
147,71,0,0,0,0,0,0,0,0,0,-1,1371,953,0,0
154,71,0,0,0,0,0,0,0,0,0,-1,1378,953,0,0
161,71,0,0,0,0,0,0,0,0,0,-1,1385,953,0,0
168,71,0,0,0,0,0,0,0,0,0,-1,1392,953,0,0
175,71,0,0,0,0,0,0,0,0,0,-1,1399,953,0,0
182,71,0,0,0,0,0,0,0,0,0,-1,1406,953,0,0
189,71,0,0,0,0,0,0,0,0,0,-1,1413,953,0,0
196,71,0,0,0,0,0,0,0,0,0,-1,1420,953,0,0
203,71,0,0,0,0,0,0,0,0,0,-1,1427,953,0,0
210,71,0,0,0,0,0,0,0,0,0,-1,1434,953,0,0
217,71,0,0,0,0,0,0,0,0,0,-1,1441,953,0,0
224,71,0,0,0,0,0,0,0,0,0,-1,1448,953,0,0
231,71,0,0,0,0,0,0,0,0,0,-1,1455,953,0,0
238,71,0,0,0,0,0,0,0,0,0,-1,1462,953,0,0
245,71,0,0,0,0,0,0,0,0,0,-1,1469,953,0,0
252,71,0,0,0,0,0,0,0,0,0,-1,1476,953,0,0
259,71,0,0,0,0,0,0,0,0,0,-1,1483,953,0,0
266,71,0,0,0,0,0,0,0,0,0,-1,1490,953,0,0
273,71,0,0,0,0,0,0,0,0,0,-1,1497,953,0,0
280,71,0,0,0,0,0,0,0,0,0,-1,1504,953,0,0
287,71,0,0,0,0,0,0,0,0,0,-1,1511,953,0,0
294,71,0,0,0,0,0,0,0,0,0,-1,1518,953,0,0
301,71,0,0,0,0,0,0,0,0,0,-1,1525,953,0,0
308,71,0,0,0,0,0,0,0,0,0,-1,1532,953,0,0
315,71,0,0,0,0,0,0,0,0,0,-1,1539,953,0,0
322,71,0,0,0,0,0,0,0,0,0,-1,1546,953,0,0
329,71,0,0,0,0,0,0,0,0,0,-1,1553,953,0,0
336,71,0,0,0,0,0,0,0,0,0,-1,1560,953,0,0
343,71,0,0,0,0,0,0,0,0,0,-1,1567,953,0,0
350,71,0,0,0,0,0,0,0,0,0,-1,1574,953,0,0
357,71,0,0,0,0,0,0,0,0,0,-1,1581,953,0,0
364,71,0,0,0,0,0,0,0,0,0,-1,1588,953,0,0
371,71,0,0,0,0,0,0,0,0,0,-1,1595,953,0,0
378,71,0,0,0,0,0,0,0,0,0,-1,1602,953,0,0
385,71,0,0,0,0,0,0,0,0,0,-1,1609,953,0,0
392,71,0,0,0,0,0,0,0,0,0,-1,1616,953,0,0
399,71,0,0,0,0,0,0,0,0,0,-1,1623,953,0,0
406,71,0,0,0,0,0,0,0,0,0,-1,1630,953,0,0
413,71,0,0,0,0,0,0,0,0,0,-1,1637,953,0,0
420,71,0,0,0,0,0,0,0,0,0,-1,1644,953,0,0
427,71,0,0,0,0,0,0,0,0,0,-1,1651,953,0,0
434,71,0,0,0,0,0,0,0,0,0,-1,1658,953,0,0
441,71,0,0,0,0,0,0,0,0,0,-1,1665,953,0,0
448,71,0,0,0,0,0,0,0,0,0,-1,1672,953,0,0
455,71,0,0,0,0,0,0,0,0,0,-1,1679,953,0,0
462,71,0,0,0,0,0,0,0,0,0,-1,1686,953,0,0
469,71,0,0,0,0,0,0,0,0,0,-1,1693,953,0,0
476,71,0,0,0,0,0,0,0,0,0,-1,1700,953,0,0
483,71,0,0,0,0,0,0,0,0,0,-1,1707,953,0,0
490,71,0,0,0,0,0,0,0,0,0,-1,1714,953,0,0
497,71,0,0,0,0,0,0,0,0,0,-1,1721,953,0,0
504,71,0,0,0,0,0,0,0,0,0,-1,1728,953,0,0
511,71,0,0,0,0,0,0,0,0,0,-1,1735,953,0,0
518,71,0,0,0,0,0,0,0,0,0,-1,1742,953,0,0
525,71,0,0,0,0,0,0,0,0,0,-1,1749,953,0,0
532,71,0,0,0,0,0,0,0,0,0,-1,1756,953,0,0
539,71,0,0,0,0,0,0,0,0,0,-1,1763,953,0,0
546,71,0,0,0,0,0,0,0,0,0,-1,1770,953,0,0
553,71,0,0,0,0,0,0,0,0,0,-1,1777,953,0,0
560,71,0,0,0,0,0,0,0,0,0,-1,1784,953,0,0
567,71,0,0,0,0,0,0,0,0,0,-1,1791,953,0,0
574,71,0,0,0,0,0,0,0,0,0,-1,1798,953,0,0
581,71,0,0,0,0,0,0,0,0,0,-1,1805,953,0,0
588,71,0,0,0,0,0,0,0,0,0,-1,1812,953,0,0
595,71,0,0,0,0,0,0,0,0,0,-1,1819,953,0,0
602,71,0,0,0,0,0,0,0,0,0,-1,1826,953,0,0
609,71,0,0,0,0,0,0,0,0,0,-1,1833,953,0,0
616,71,0,0,0,0,0,0,0,0,0,-1,1840,953,0,0
623,71,0,0,0,0,0,0,0,0,0,-1,1847,953,0,0
630,71,0,0,0,0,0,0,0,0,0,-1,1854,953,0,0
637,71,14.2114,1.62592,-0.000177506,0.00484137,0.00573783,0.00859452,-0.00393065,0.99154,0.00739663,0.041713,1861,953,14.2115,-1.62594
644,71,14.1288,1.60162,-0.000255959,0.00365241,0.00443678,0.00654631,-0.00314985,0.992841,0.00571142,0.0435924,1868,953,14.1287,-1.60161
651,71,14.1392,1.83276,-5.7471e-05,0.00287446,0.0033722,0.00508555,-0.00226856,0.990436,0.00434849,0.0408594,1875,953,14.1392,-1.83275
658,71,14.1603,2.12457,-0.000532516,0.00235252,0.0025885,0.00387331,-0.0020533,1.03961,0.0034751,0.0397834,1882,953,14.1602,-2.12459
665,71,14.1216,1.91675,-0.00167743,0.00202573,0.00212295,0.00299111,-0.00264281,1.14401,0.00325482,0.0422243,1889,953,14.1216,-1.91672
672,71,14.0415,2.1308,-0.0031439,0.00180214,0.0018547,0.00242036,-0.00376212,1.24905,0.00359736,0.0428156,1896,953,14.0415,-2.1308
679,71,14.0007,2.04272,-0.00459865,0.00163378,0.0017442,0.0020887,-0.00505357,1.31566,0.00424037,0.0413191,1903,953,14.0008,-2.04275
686,71,14.1498,1.79694,-0.00585238,0.00144202,0.00168399,0.00181202,-0.00622238,1.35452,0.00486605,0.0366904,1910,953,14.1498,-1.79693
693,71,14.174,1.8479,-0.00673542,0.00129001,0.00155414,0.00158046,-0.00702587,1.38604,0.00529003,0.0302034,1917,953,14.174,-1.84789
700,71,14.1144,1.90002,-0.0073987,0.00117328,0.00149132,0.00142532,-0.00765074,1.40337,0.005636,0.0243147,1924,953,14.1144,-1.90001
707,71,14.0712,2.09583,-0.00778245,0.00106111,0.00143014,0.00128664,-0.00800798,1.41439,0.00581517,0.0222699,1931,953,14.0712,-2.09581
714,71,13.4695,2.28394,0,0,0,0,0,0,0,-1,1938,953,13.4695,-2.28393
721,71,13.3989,2.31342,-0.00732812,0.000962087,0.00118859,0.00112913,-0.00749516,1.43117,0.00541255,0.0242445,1945,953,13.3989,-2.31343
728,71,13.3408,2.41187,-0.00649163,0.000769399,0.000947627,0.000891035,-0.00661326,1.44314,0.00473389,0.0194995,1952,953,13.3408,-2.41185
735,71,13.3333,2.50189,-0.00488587,0.000407158,0.000983058,0.00058384,-0.00506255,1.39297,0.00358553,0.0140321,1959,953,13.3332,-2.5019
742,71,13.3618,2.57159,-0.00260303,-0.0011174,0.00108993,-0.000541229,-0.00317919,1.08451,0.00196407,0.0149335,1966,953,13.3619,-2.57159
749,71,13.3595,2.61902,-0.000220181,-0.00309004,0.000774374,-2.45651e-05,-0.00328566,0.247435,0.0021823,0.0161339,1973,953,13.3594,-2.61905
756,71,13.3398,2.67584,0.0027941,-0.00538555,0.000878397,0.00288737,-0.00547882,0.105781,0.00490685,0.0157508,1980,953,13.3398,-2.67586
763,71,13.3353,2.76703,0.00617544,-0.00853861,0.00104493,0.00624928,-0.00861245,0.0705437,0.0086165,0.0127677,1987,953,13.3353,-2.76706
770,71,13.3425,2.86169,0.00970551,-0.0128807,0.00146285,0.00979986,-0.0129751,0.0644087,0.0131916,0.0142309,1994,953,13.3425,-2.86171
777,71,13.4299,2.8905,0.0134444,-0.0187036,0.00215133,0.0135877,-0.018847,0.0665242,0.0188081,0.0333668,2001,953,13.4299,-2.89048
784,71,13.9287,3.86407,0.0175498,-0.0264434,0.00307632,0.0177638,-0.0266575,0.0694766,0.0258174,0.043544,2008,953,13.9288,-3.86408
791,71,14.3246,4.39935,0.0221707,-0.0365668,0.00418528,0.0224674,-0.0368635,0.0707774,0.0345892,0.0393447,2015,953,14.3246,-4.39937
798,71,14.6797,4.31885,0.027104,-0.049578,0.00541955,0.0274851,-0.0499592,0.0702106,0.0453357,0.0435316,2022,953,14.6797,-4.31886
805,71,14.9454,4.14673,0,0,0,0,0,0,0,-1,2029,953,14.9455,-4.14671
812,71,0,0,0,0,0,0,0,0,0,-1,2036,953,0,0
-700,64,0,0,0,0,0,0,0,0,0,-1,524,960,0,0
-693,64,0,0,0,0,0,0,0,0,0,-1,531,960,0,0
-686,64,-5.26648,0.00518799,0,0,0,0,0,0,0,-1,538,960,-5.26649,-0.00516272
-679,64,-8.69824,1.88483,0,0,0,0,0,0,0,-1,545,960,-8.69821,-1.88485
-672,64,-7.91272,1.12958,0.0262413,-0.0120397,-0.0239875,0.0377889,-0.0235873,-0.448658,0.0357504,0.0479872,552,960,-7.9127,-1.12957
-665,64,-8.09961,1.12256,0.0222788,-0.0070566,-0.0215318,0.0336641,-0.0184419,-0.486395,0.0305083,0.0451127,559,960,-8.09961,-1.12256
-658,64,-8.1333,1.05121,0.018308,-0.00332697,-0.0181197,0.0285936,-0.0136126,-0.516293,0.0248742,0.0422713,566,960,-8.1333,-1.05119
-651,64,-8.14697,0.951172,0.01452,-0.000765636,-0.0143523,0.0231376,-0.00938324,-0.540738,0.0193276,0.0418548,573,960,-8.14694,-0.951195
-644,64,-8.10687,0.876099,0.0110732,0.000789175,-0.0107133,0.0178146,-0.00595222,-0.561653,0.0142801,0.0301044,580,960,-8.10689,-0.876096
-637,64,-8.08844,0.813232,0.00780522,0.00169331,-0.00806859,0.0133772,-0.00387866,-0.604372,0.0104537,0.0145461,587,960,-8.08842,-0.81321
-630,64,-8.11761,0.770447,0.00516239,0.00224101,-0.00593147,0.00981038,-0.00240698,-0.66467,0.00747293,0.0125468,594,960,-8.11763,-0.770425
-623,64,-8.13,0.727722,0.00287604,0.00252747,-0.00354047,0.00624651,-0.000843003,-0.760805,0.00447191,0.0126757,601,960,-8.12998,-0.72773
-616,64,-8.13544,0.671265,0.000851615,0.00189996,-0.00158563,0.00304581,-0.000294235,-0.945032,0.00213539,0.0154524,608,960,-8.13543,-0.671274
-609,64,-8.10919,0.618591,-0.000971487,0.00191418,-0.000202579,0.00192833,-0.000985639,-1.50105,0.00171148,0.0153863,615,960,-8.10918,-0.618589
-602,64,-8.07654,0.583313,-0.00246187,0.000831924,-0.000181558,0.000841902,-0.00247185,-1.5159,0.00198884,0.0160345,622,960,-8.07655,-0.583322
-595,64,-8.09143,0.566711,-0.00348462,0.000626439,-0.00024292,0.000640743,-0.00349892,-1.51198,0.00257293,0.016328,629,960,-8.0914,-0.566699
-588,64,-8.11304,0.563293,-0.00388862,0.000677593,-0.000455214,0.000722532,-0.00393356,-1.47239,0.00289345,0.0211307,636,960,-8.11306,-0.563276
-581,64,-8.1972,0.593384,-0.00380541,0.000805844,-0.000748898,0.000924421,-0.00392399,-1.41376,0.00297244,0.0282441,643,960,-8.19719,-0.593372
-574,64,-8.35181,0.490723,-0.0035472,0.00106045,-0.0011975,0.00135309,-0.00383984,-1.33112,0.00311061,0.0323254,650,960,-8.3518,-0.490748
-567,64,-8.41656,0.227905,-0.00312433,0.00153979,-0.00159249,0.00203165,-0.0036162,-1.27123,0.00330329,0.0255708,657,960,-8.41657,-0.227903
-560,64,-8.41602,0.184204,-0.00229201,0.00204295,-0.00211616,0.00290468,-0.00315374,-1.18409,0.00349881,0.0331524,664,960,-8.41603,-0.184201
-553,64,-8.41028,0.243469,-0.000959645,0.00272157,-0.00287704,0.0042964,-0.00253447,-1.06997,0.00398729,0.0395358,671,960,-8.41026,-0.243452
-546,64,-8.53534,0.494873,0.000909406,0.00362248,-0.00395906,0.00645096,-0.00191907,-0.95045,0.00506305,0.0406979,678,960,-8.53533,-0.4949
-539,64,-8.60065,0.692261,0.00334848,0.0048114,-0.005464,0.00959268,-0.0014328,-0.851937,0.00692233,0.0393702,685,960,-8.60067,-0.69227
-532,64,-8.42389,0.525452,0.00630238,0.00640578,-0.00755522,0.0139095,-0.00120131,-0.78882,0.00969826,0.0392019,692,960,-8.42391,-0.525425
-525,64,-8.36035,0.00494385,0.00930788,0.00860257,-0.010482,0.0194431,-0.00153266,-0.768583,0.013502,0.0429318,699,960,-8.36034,-0.00495135
-518,64,0,0,0,0,0,0,0,0,0,-1,706,960,0,0
-511,64,0,0,0,0,0,0,0,0,0,-1,713,960,0,0
-504,64,0,0,0,0,0,0,0,0,0,-1,720,960,0,0
-497,64,0,0,0,0,0,0,0,0,0,-1,727,960,0,0
-490,64,0,0,0,0,0,0,0,0,0,-1,734,960,0,0
-483,64,0,0,0,0,0,0,0,0,0,-1,741,960,0,0
-476,64,0,0,0,0,0,0,0,0,0,-1,748,960,0,0
-469,64,0,0,0,0,0,0,0,0,0,-1,755,960,0,0
-462,64,0,0,0,0,0,0,0,0,0,-1,762,960,0,0
-455,64,0,0,0,0,0,0,0,0,0,-1,769,960,0,0
-448,64,0,0,0,0,0,0,0,0,0,-1,776,960,0,0
-441,64,0,0,0,0,0,0,0,0,0,-1,783,960,0,0
-434,64,0,0,0,0,0,0,0,0,0,-1,790,960,0,0
-427,64,0,0,0,0,0,0,0,0,0,-1,797,960,0,0
-420,64,0,0,0,0,0,0,0,0,0,-1,804,960,0,0
-413,64,0,0,0,0,0,0,0,0,0,-1,811,960,0,0
-406,64,0,0,0,0,0,0,0,0,0,-1,818,960,0,0
-399,64,0,0,0,0,0,0,0,0,0,-1,825,960,0,0
-392,64,0,0,0,0,0,0,0,0,0,-1,832,960,0,0
-385,64,0,0,0,0,0,0,0,0,0,-1,839,960,0,0
-378,64,0,0,0,0,0,0,0,0,0,-1,846,960,0,0
-371,64,0,0,0,0,0,0,0,0,0,-1,853,960,0,0
-364,64,0,0,0,0,0,0,0,0,0,-1,860,960,0,0
-357,64,0,0,0,0,0,0,0,0,0,-1,867,960,0,0
-350,64,0,0,0,0,0,0,0,0,0,-1,874,960,0,0
-343,64,0,0,0,0,0,0,0,0,0,-1,881,960,0,0
-336,64,0,0,0,0,0,0,0,0,0,-1,888,960,0,0
-329,64,0,0,0,0,0,0,0,0,0,-1,895,960,0,0
-322,64,0,0,0,0,0,0,0,0,0,-1,902,960,0,0
-315,64,0,0,0,0,0,0,0,0,0,-1,909,960,0,0
-308,64,0,0,0,0,0,0,0,0,0,-1,916,960,0,0
-301,64,0,0,0,0,0,0,0,0,0,-1,923,960,0,0
-294,64,0,0,0,0,0,0,0,0,0,-1,930,960,0,0
-287,64,0,0,0,0,0,0,0,0,0,-1,937,960,0,0
-280,64,0,0,0,0,0,0,0,0,0,-1,944,960,0,0
-273,64,0,0,0,0,0,0,0,0,0,-1,951,960,0,0
-266,64,0,0,0,0,0,0,0,0,0,-1,958,960,0,0
-259,64,0,0,0,0,0,0,0,0,0,-1,965,960,0,0
-252,64,0,0,0,0,0,0,0,0,0,-1,972,960,0,0
-245,64,0,0,0,0,0,0,0,0,0,-1,979,960,0,0
-238,64,0,0,0,0,0,0,0,0,0,-1,986,960,0,0
-231,64,0,0,0,0,0,0,0,0,0,-1,993,960,0,0
-224,64,0,0,0,0,0,0,0,0,0,-1,1000,960,0,0
-217,64,0,0,0,0,0,0,0,0,0,-1,1007,960,0,0
-210,64,0,0,0,0,0,0,0,0,0,-1,1014,960,0,0
-203,64,0,0,0,0,0,0,0,0,0,-1,1021,960,0,0
-196,64,0,0,0,0,0,0,0,0,0,-1,1028,960,0,0
-189,64,0,0,0,0,0,0,0,0,0,-1,1035,960,0,0
-182,64,0,0,0,0,0,0,0,0,0,-1,1042,960,0,0
-175,64,0,0,0,0,0,0,0,0,0,-1,1049,960,0,0
-168,64,0,0,0,0,0,0,0,0,0,-1,1056,960,0,0
-161,64,0,0,0,0,0,0,0,0,0,-1,1063,960,0,0
-154,64,0,0,0,0,0,0,0,0,0,-1,1070,960,0,0
-147,64,0,0,0,0,0,0,0,0,0,-1,1077,960,0,0
-140,64,0,0,0,0,0,0,0,0,0,-1,1084,960,0,0
-133,64,0,0,0,0,0,0,0,0,0,-1,1091,960,0,0
-126,64,0,0,0,0,0,0,0,0,0,-1,1098,960,0,0
-119,64,0,0,0,0,0,0,0,0,0,-1,1105,960,0,0
-112,64,0,0,0,0,0,0,0,0,0,-1,1112,960,0,0
-105,64,0,0,0,0,0,0,0,0,0,-1,1119,960,0,0
-98,64,0,0,0,0,0,0,0,0,0,-1,1126,960,0,0
-91,64,0,0,0,0,0,0,0,0,0,-1,1133,960,0,0
-84,64,0,0,0,0,0,0,0,0,0,-1,1140,960,0,0
-77,64,0,0,0,0,0,0,0,0,0,-1,1147,960,0,0
-70,64,0,0,0,0,0,0,0,0,0,-1,1154,960,0,0
-63,64,0,0,0,0,0,0,0,0,0,-1,1161,960,0,0
-56,64,0,0,0,0,0,0,0,0,0,-1,1168,960,0,0
-49,64,0,0,0,0,0,0,0,0,0,-1,1175,960,0,0
-42,64,0,0,0,0,0,0,0,0,0,-1,1182,960,0,0
-35,64,0,0,0,0,0,0,0,0,0,-1,1189,960,0,0
-28,64,0,0,0,0,0,0,0,0,0,-1,1196,960,0,0
-21,64,0,0,0,0,0,0,0,0,0,-1,1203,960,0,0
-14,64,0,0,0,0,0,0,0,0,0,-1,1210,960,0,0
-7,64,0,0,0,0,0,0,0,0,0,-1,1217,960,0,0
0,64,0,0,0,0,0,0,0,0,0,-1,1224,960,0,0
7,64,0,0,0,0,0,0,0,0,0,-1,1231,960,0,0
14,64,0,0,0,0,0,0,0,0,0,-1,1238,960,0,0
21,64,0,0,0,0,0,0,0,0,0,-1,1245,960,0,0
28,64,0,0,0,0,0,0,0,0,0,-1,1252,960,0,0
35,64,0,0,0,0,0,0,0,0,0,-1,1259,960,0,0
42,64,0,0,0,0,0,0,0,0,0,-1,1266,960,0,0
49,64,0,0,0,0,0,0,0,0,0,-1,1273,960,0,0
56,64,0,0,0,0,0,0,0,0,0,-1,1280,960,0,0
63,64,0,0,0,0,0,0,0,0,0,-1,1287,960,0,0
70,64,0,0,0,0,0,0,0,0,0,-1,1294,960,0,0
77,64,0,0,0,0,0,0,0,0,0,-1,1301,960,0,0
84,64,0,0,0,0,0,0,0,0,0,-1,1308,960,0,0
91,64,0,0,0,0,0,0,0,0,0,-1,1315,960,0,0
98,64,0,0,0,0,0,0,0,0,0,-1,1322,960,0,0
105,64,0,0,0,0,0,0,0,0,0,-1,1329,960,0,0
112,64,0,0,0,0,0,0,0,0,0,-1,1336,960,0,0
119,64,0,0,0,0,0,0,0,0,0,-1,1343,960,0,0
126,64,0,0,0,0,0,0,0,0,0,-1,1350,960,0,0
133,64,0,0,0,0,0,0,0,0,0,-1,1357,960,0,0
140,64,0,0,0,0,0,0,0,0,0,-1,1364,960,0,0
147,64,0,0,0,0,0,0,0,0,0,-1,1371,960,0,0
154,64,0,0,0,0,0,0,0,0,0,-1,1378,960,0,0
161,64,0,0,0,0,0,0,0,0,0,-1,1385,960,0,0
168,64,0,0,0,0,0,0,0,0,0,-1,1392,960,0,0
175,64,0,0,0,0,0,0,0,0,0,-1,1399,960,0,0
182,64,0,0,0,0,0,0,0,0,0,-1,1406,960,0,0
189,64,0,0,0,0,0,0,0,0,0,-1,1413,960,0,0
196,64,0,0,0,0,0,0,0,0,0,-1,1420,960,0,0
203,64,0,0,0,0,0,0,0,0,0,-1,1427,960,0,0
210,64,0,0,0,0,0,0,0,0,0,-1,1434,960,0,0
217,64,0,0,0,0,0,0,0,0,0,-1,1441,960,0,0
224,64,0,0,0,0,0,0,0,0,0,-1,1448,960,0,0
231,64,0,0,0,0,0,0,0,0,0,-1,1455,960,0,0
238,64,0,0,0,0,0,0,0,0,0,-1,1462,960,0,0
245,64,0,0,0,0,0,0,0,0,0,-1,1469,960,0,0
252,64,0,0,0,0,0,0,0,0,0,-1,1476,960,0,0
259,64,0,0,0,0,0,0,0,0,0,-1,1483,960,0,0
266,64,0,0,0,0,0,0,0,0,0,-1,1490,960,0,0
273,64,0,0,0,0,0,0,0,0,0,-1,1497,960,0,0
280,64,0,0,0,0,0,0,0,0,0,-1,1504,960,0,0
287,64,0,0,0,0,0,0,0,0,0,-1,1511,960,0,0
294,64,0,0,0,0,0,0,0,0,0,-1,1518,960,0,0
301,64,0,0,0,0,0,0,0,0,0,-1,1525,960,0,0
308,64,0,0,0,0,0,0,0,0,0,-1,1532,960,0,0
315,64,0,0,0,0,0,0,0,0,0,-1,1539,960,0,0
322,64,0,0,0,0,0,0,0,0,0,-1,1546,960,0,0
329,64,0,0,0,0,0,0,0,0,0,-1,1553,960,0,0
336,64,0,0,0,0,0,0,0,0,0,-1,1560,960,0,0
343,64,0,0,0,0,0,0,0,0,0,-1,1567,960,0,0
350,64,0,0,0,0,0,0,0,0,0,-1,1574,960,0,0
357,64,0,0,0,0,0,0,0,0,0,-1,1581,960,0,0
364,64,0,0,0,0,0,0,0,0,0,-1,1588,960,0,0
371,64,0,0,0,0,0,0,0,0,0,-1,1595,960,0,0
378,64,0,0,0,0,0,0,0,0,0,-1,1602,960,0,0
385,64,0,0,0,0,0,0,0,0,0,-1,1609,960,0,0
392,64,0,0,0,0,0,0,0,0,0,-1,1616,960,0,0
399,64,0,0,0,0,0,0,0,0,0,-1,1623,960,0,0
406,64,0,0,0,0,0,0,0,0,0,-1,1630,960,0,0
413,64,0,0,0,0,0,0,0,0,0,-1,1637,960,0,0
420,64,0,0,0,0,0,0,0,0,0,-1,1644,960,0,0
427,64,0,0,0,0,0,0,0,0,0,-1,1651,960,0,0
434,64,0,0,0,0,0,0,0,0,0,-1,1658,960,0,0
441,64,0,0,0,0,0,0,0,0,0,-1,1665,960,0,0
448,64,0,0,0,0,0,0,0,0,0,-1,1672,960,0,0
455,64,0,0,0,0,0,0,0,0,0,-1,1679,960,0,0
462,64,0,0,0,0,0,0,0,0,0,-1,1686,960,0,0
469,64,0,0,0,0,0,0,0,0,0,-1,1693,960,0,0
476,64,0,0,0,0,0,0,0,0,0,-1,1700,960,0,0
483,64,0,0,0,0,0,0,0,0,0,-1,1707,960,0,0
490,64,0,0,0,0,0,0,0,0,0,-1,1714,960,0,0
497,64,0,0,0,0,0,0,0,0,0,-1,1721,960,0,0
504,64,0,0,0,0,0,0,0,0,0,-1,1728,960,0,0
511,64,0,0,0,0,0,0,0,0,0,-1,1735,960,0,0
518,64,0,0,0,0,0,0,0,0,0,-1,1742,960,0,0
525,64,0,0,0,0,0,0,0,0,0,-1,1749,960,0,0
532,64,0,0,0,0,0,0,0,0,0,-1,1756,960,0,0
539,64,0,0,0,0,0,0,0,0,0,-1,1763,960,0,0
546,64,0,0,0,0,0,0,0,0,0,-1,1770,960,0,0
553,64,0,0,0,0,0,0,0,0,0,-1,1777,960,0,0
560,64,0,0,0,0,0,0,0,0,0,-1,1784,960,0,0
567,64,0,0,0,0,0,0,0,0,0,-1,1791,960,0,0
574,64,0,0,0,0,0,0,0,0,0,-1,1798,960,0,0
581,64,0,0,0,0,0,0,0,0,0,-1,1805,960,0,0
588,64,0,0,0,0,0,0,0,0,0,-1,1812,960,0,0
595,64,0,0,0,0,0,0,0,0,0,-1,1819,960,0,0
602,64,0,0,0,0,0,0,0,0,0,-1,1826,960,0,0
609,64,0,0,0,0,0,0,0,0,0,-1,1833,960,0,0
616,64,0,0,0,0,0,0,0,0,0,-1,1840,960,0,0
623,64,0,0,0,0,0,0,0,0,0,-1,1847,960,0,0
630,64,0,0,0,0,0,0,0,0,0,-1,1854,960,0,0
637,64,0,0,0,0,0,0,0,0,0,-1,1861,960,0,0
644,64,14.1439,2.01288,-0.000410747,0.00322058,0.00459049,0.00634143,-0.0035316,0.973721,0.00577663,0.0406497,1868,960,14.1439,-2.01287
651,64,14.1742,1.94348,-2.41342e-06,0.00254693,0.00342396,0.00492579,-0.00238127,0.96359,0.00430315,0.0381136,1875,960,14.1742,-1.94346
658,64,14.1677,2.00677,-0.000145719,0.00210245,0.00262537,0.00383426,-0.00187753,0.987671,0.00336158,0.0358207,1882,960,14.1678,-2.00679
665,64,14.0658,1.81976,-0.000968148,0.00186458,0.00219336,0.00305913,-0.0021627,1.07209,0.0030296,0.0420478,1889,960,14.0658,-1.81976
672,64,13.9995,1.69836,-0.00224377,0.00173015,0.00198882,0.00255449,-0.00306811,1.17786,0.00325072,0.0444231,1896,960,13.9995,-1.69833
679,64,14.0974,1.79144,-0.00361947,0.0016418,0.00194745,0.00228421,-0.00426188,1.25216,0.00383645,0.0409122,1903,960,14.0974,-1.79146
686,64,14.2164,1.78497,-0.00483598,0.00153738,0.00195153,0.00208747,-0.00538607,1.29605,0.00445274,0.0354599,1910,960,14.2165,-1.78499
693,64,14.2028,1.83215,-0.00576274,0.00143508,0.00189422,0.00190314,-0.0062308,1.32855,0.0049127,0.030795,1917,960,14.2027,-1.83213
700,64,14.149,1.88251,-0.00652916,0.00133092,0.00187282,0.00175435,-0.00695259,1.34844,0.0053172,0.024726,1924,960,14.149,-1.8825
707,64,14.0963,2.05646,-0.00705169,0.00124711,0.00181896,0.00162829,-0.00743287,1.36423,0.0055778,0.0246376,1931,960,14.0963,-2.05648
714,64,13.8936,2.28308,-0.00714643,0.00121009,0.00175023,0.00156186,-0.0074982,1.37245,0.0055926,0.0327138,1938,960,13.8935,-2.28307
721,64,13.4426,2.31879,-0.00689672,0.0011809,0.00157202,0.00147605,-0.00719187,1.3852,0.00535484,0.024767,1945,960,13.4426,-2.31878
728,64,13.3616,2.44397,-0.00619085,0.00101164,0.00132501,0.00124766,-0.00642687,1.39452,0.00475534,0.014887,1952,960,13.3616,-2.44394
735,64,13.3765,2.53461,-0.00466958,0.000823887,0.00137271,0.0011478,-0.00499349,1.33907,0.00377029,0.0185045,1959,960,13.3765,-2.53462
742,64,13.4102,2.58698,-0.0024426,-0.000478947,0.00155358,0.00037705,-0.0032986,1.0672,0.00233492,0.0174445,1966,960,13.4102,-2.587
749,64,13.3944,2.61938,-4.53735e-05,-0.00226852,0.00137746,0.000613076,-0.00292697,0.445908,0.00218454,0.01368,1973,960,13.3943,-2.61941
756,64,13.3846,2.68176,0.00300249,-0.00436772,0.00168755,0.00337051,-0.00473574,0.214718,0.00470222,0.0146025,1980,960,13.3846,-2.68176
763,64,13.3972,2.74994,0.00655185,-0.00722638,0.00216537,0.00688414,-0.00755867,0.15227,0.00834159,0.0131936,1987,960,13.3972,-2.74993
770,64,13.3997,2.81854,0.0103626,-0.0112496,0.00306066,0.0107877,-0.0116746,0.138003,0.012972,0.013107,1994,960,13.3996,-2.81852
777,64,13.3948,2.875,0.0143874,-0.0167661,0.00442249,0.015003,-0.0173818,0.138318,0.0187142,0.0303717,2001,960,13.3948,-2.87499
784,64,13.962,2.6322,0.0187461,-0.0242627,0.00627954,0.0196442,-0.0251608,0.142056,0.0259335,0.0428026,2008,960,13.962,-2.63223
791,64,14.6304,5.177,0.0236378,-0.0343096,0.00862364,0.024894,-0.0355657,0.144644,0.0350872,0.0461424,2015,960,14.6303,-5.17698
798,64,15.1625,4.88196,0,0,0,0,0,0,0,-1,2022,960,15.1625,-4.88196
805,64,15.5286,4.61188,0,0,0,0,0,0,0,-1,2029,960,15.5285,-4.61186
812,64,0,0,0,0,0,0,0,0,0,-1,2036,960,0,0
-700,57,0,0,0,0,0,0,0,0,0,-1,524,967,0,0
-693,57,0,0,0,0,0,0,0,0,0,-1,531,967,0,0
-686,57,-5.01471,0.363708,0.0366212,-0.0299024,-0.00836289,0.0376564,-0.0309376,-0.12316,0.039666,0.0477981,538,967,-5.01473,-0.363692
-679,57,-4.86084,0.857361,0.0314274,-0.0234598,-0.0138503,0.0347244,-0.0267567,-0.233693,0.0355954,0.0465875,545,967,-4.86085,-0.857362
-672,57,-7.85822,0.533691,0,0,0,0,0,0,0,-1,552,967,-7.8582,-0.533703
-665,57,-8.12805,1.04535,0,0,0,0,0,0,0,-1,559,967,-8.12804,-1.04533
-658,57,-8.15643,0.996399,0,0,0,0,0,0,0,-1,566,967,-8.15641,-0.996427
-651,57,-8.10309,0.861816,0.0132702,-0.00490817,-0.0118164,0.0190888,-0.0107268,-0.45756,0.0174382,0.0460214,573,967,-8.10312,-0.861836
-644,57,-8.04932,0.767517,0.00991018,-0.00253961,-0.00920794,0.0147999,-0.00742937,-0.488168,0.0130671,0.0295352,580,967,-8.04934,-0.767543
-637,57,-8.13043,0.767578,0.00670335,-0.000898901,-0.00741109,0.0112313,-0.00542681,-0.548442,0.00981023,0.0153389,587,967,-8.13045,-0.767597
-630,57,-8.17004,0.737244,0.00418486,0.000312654,-0.00586686,0.00842683,-0.00392931,-0.626022,0.00728964,0.0127962,594,967,-8.17002,-0.737237
-623,57,-8.15979,0.730774,0.0022021,0.00132461,-0.0037246,0.00551371,-0.001987,-0.72677,0.00448726,0.0119026,601,967,-8.15978,-0.730764
-616,57,-8.15192,0.684204,0.000574453,0.00119908,-0.00193157,0.00284342,-0.00106989,-0.865548,0.00233541,0.0134569,608,967,-8.15191,-0.684178
-609,57,-8.16302,0.609314,-0.000872571,0.00142568,-0.00068788,0.00161583,-0.00106272,-1.3011,0.00155742,0.0142231,615,967,-8.16303,-0.609306
-602,57,-8.15533,0.593872,-0.00206416,0.00096606,-0.000506662,0.00104853,-0.00214663,-1.40944,0.00188069,0.0114303,622,967,-8.15531,-0.593901
-595,57,-8.14801,0.58429,-0.00292682,0.000818618,-0.000595667,0.00091107,-0.00301927,-1.41682,0.00237551,0.0117624,629,967,-8.14799,-0.584317
-588,57,-8.19171,0.547852,-0.00323004,0.00090559,-0.000839948,0.00106967,-0.00339412,-1.37788,0.00269113,0.0151908,636,967,-8.1917,-0.547827
-581,57,-8.29761,0.453491,-0.00302945,0.0010817,-0.00112978,0.00137171,-0.00331946,-1.31952,0.00278518,0.0253428,643,967,-8.29762,-0.453487
-574,57,-8.40295,0.294861,-0.00265678,0.00139449,-0.00154452,0.00191615,-0.00317845,-1.24507,0.00297131,0.0314196,650,967,-8.40297,-0.294839
-567,57,-8.43762,0.197571,-0.00214641,0.00191415,-0.00189403,0.00266045,-0.00289271,-1.19545,0.00320705,0.0335855,657,967,-8.4376,-0.197543
-560,57,-8.35382,0.11499,-0.00124488,0.00246645,-0.00235615,0.00360995,-0.00238837,-1.11896,0.00348699,0.0409843,664,967,-8.35384,-0.115
-553,57,-8.1131,0.0981445,0.000121008,0.0031754,-0.0030341,0.00504498,-0.00174857,-1.01856,0.00407326,0.042387,671,967,-8.1131,-0.0981714
-546,57,-8.30225,0.417297,0.00199054,0.00407527,-0.00401278,0.00717885,-0.00111304,-0.912471,0.0051968,0.0431497,678,967,-8.30227,-0.417298
-539,57,-8.66711,0.51593,0.00441151,0.00521793,-0.00540404,0.0102338,-0.000604345,-0.822636,0.00703263,0.0411329,685,967,-8.6671,-0.515945
-532,57,-8.51233,0.323059,0.00731352,0.00671691,-0.00738886,0.0144101,-0.00037967,-0.765223,0.00973575,0.0389055,692,967,-8.51232,-0.323085
-525,57,-8.4187,0.242004,0.010243,0.00874755,-0.0102239,0.0197465,-0.000755885,-0.748895,0.0134234,0.0418053,699,967,-8.41871,-0.241981
-518,57,0,0,0,0,0,0,0,0,0,-1,706,967,0,0
-511,57,0,0,0,0,0,0,0,0,0,-1,713,967,0,0
-504,57,0,0,0,0,0,0,0,0,0,-1,720,967,0,0
-497,57,0,0,0,0,0,0,0,0,0,-1,727,967,0,0
-490,57,0,0,0,0,0,0,0,0,0,-1,734,967,0,0
-483,57,0,0,0,0,0,0,0,0,0,-1,741,967,0,0
-476,57,0,0,0,0,0,0,0,0,0,-1,748,967,0,0
-469,57,0,0,0,0,0,0,0,0,0,-1,755,967,0,0
-462,57,0,0,0,0,0,0,0,0,0,-1,762,967,0,0
-455,57,0,0,0,0,0,0,0,0,0,-1,769,967,0,0
-448,57,0,0,0,0,0,0,0,0,0,-1,776,967,0,0
-441,57,0,0,0,0,0,0,0,0,0,-1,783,967,0,0
-434,57,0,0,0,0,0,0,0,0,0,-1,790,967,0,0
-427,57,0,0,0,0,0,0,0,0,0,-1,797,967,0,0
-420,57,0,0,0,0,0,0,0,0,0,-1,804,967,0,0
-413,57,0,0,0,0,0,0,0,0,0,-1,811,967,0,0
-406,57,0,0,0,0,0,0,0,0,0,-1,818,967,0,0
-399,57,0,0,0,0,0,0,0,0,0,-1,825,967,0,0
-392,57,0,0,0,0,0,0,0,0,0,-1,832,967,0,0
-385,57,0,0,0,0,0,0,0,0,0,-1,839,967,0,0
-378,57,0,0,0,0,0,0,0,0,0,-1,846,967,0,0
-371,57,0,0,0,0,0,0,0,0,0,-1,853,967,0,0
-364,57,0,0,0,0,0,0,0,0,0,-1,860,967,0,0
-357,57,0,0,0,0,0,0,0,0,0,-1,867,967,0,0
-350,57,0,0,0,0,0,0,0,0,0,-1,874,967,0,0
-343,57,0,0,0,0,0,0,0,0,0,-1,881,967,0,0
-336,57,0,0,0,0,0,0,0,0,0,-1,888,967,0,0
-329,57,0,0,0,0,0,0,0,0,0,-1,895,967,0,0
-322,57,0,0,0,0,0,0,0,0,0,-1,902,967,0,0
-315,57,0,0,0,0,0,0,0,0,0,-1,909,967,0,0
-308,57,0,0,0,0,0,0,0,0,0,-1,916,967,0,0
-301,57,0,0,0,0,0,0,0,0,0,-1,923,967,0,0
-294,57,0,0,0,0,0,0,0,0,0,-1,930,967,0,0
-287,57,0,0,0,0,0,0,0,0,0,-1,937,967,0,0
-280,57,0,0,0,0,0,0,0,0,0,-1,944,967,0,0
-273,57,0,0,0,0,0,0,0,0,0,-1,951,967,0,0
-266,57,0,0,0,0,0,0,0,0,0,-1,958,967,0,0
-259,57,0,0,0,0,0,0,0,0,0,-1,965,967,0,0
-252,57,0,0,0,0,0,0,0,0,0,-1,972,967,0,0
-245,57,0,0,0,0,0,0,0,0,0,-1,979,967,0,0
-238,57,0,0,0,0,0,0,0,0,0,-1,986,967,0,0
-231,57,0,0,0,0,0,0,0,0,0,-1,993,967,0,0
-224,57,0,0,0,0,0,0,0,0,0,-1,1000,967,0,0
-217,57,0,0,0,0,0,0,0,0,0,-1,1007,967,0,0
-210,57,0,0,0,0,0,0,0,0,0,-1,1014,967,0,0
-203,57,0,0,0,0,0,0,0,0,0,-1,1021,967,0,0
-196,57,0,0,0,0,0,0,0,0,0,-1,1028,967,0,0
-189,57,0,0,0,0,0,0,0,0,0,-1,1035,967,0,0
-182,57,0,0,0,0,0,0,0,0,0,-1,1042,967,0,0
-175,57,0,0,0,0,0,0,0,0,0,-1,1049,967,0,0
-168,57,0,0,0,0,0,0,0,0,0,-1,1056,967,0,0
-161,57,0,0,0,0,0,0,0,0,0,-1,1063,967,0,0
-154,57,0,0,0,0,0,0,0,0,0,-1,1070,967,0,0
-147,57,0,0,0,0,0,0,0,0,0,-1,1077,967,0,0
-140,57,0,0,0,0,0,0,0,0,0,-1,1084,967,0,0
-133,57,0,0,0,0,0,0,0,0,0,-1,1091,967,0,0
-126,57,0,0,0,0,0,0,0,0,0,-1,1098,967,0,0
-119,57,0,0,0,0,0,0,0,0,0,-1,1105,967,0,0
-112,57,0,0,0,0,0,0,0,0,0,-1,1112,967,0,0
-105,57,0,0,0,0,0,0,0,0,0,-1,1119,967,0,0
-98,57,0,0,0,0,0,0,0,0,0,-1,1126,967,0,0
-91,57,0,0,0,0,0,0,0,0,0,-1,1133,967,0,0
-84,57,0,0,0,0,0,0,0,0,0,-1,1140,967,0,0
-77,57,0,0,0,0,0,0,0,0,0,-1,1147,967,0,0
-70,57,0,0,0,0,0,0,0,0,0,-1,1154,967,0,0
-63,57,0,0,0,0,0,0,0,0,0,-1,1161,967,0,0
-56,57,0,0,0,0,0,0,0,0,0,-1,1168,967,0,0
-49,57,0,0,0,0,0,0,0,0,0,-1,1175,967,0,0
-42,57,0,0,0,0,0,0,0,0,0,-1,1182,967,0,0
-35,57,0,0,0,0,0,0,0,0,0,-1,1189,967,0,0
-28,57,0,0,0,0,0,0,0,0,0,-1,1196,967,0,0
-21,57,0,0,0,0,0,0,0,0,0,-1,1203,967,0,0
-14,57,0,0,0,0,0,0,0,0,0,-1,1210,967,0,0
-7,57,0,0,0,0,0,0,0,0,0,-1,1217,967,0,0
0,57,0,0,0,0,0,0,0,0,0,-1,1224,967,0,0
7,57,0,0,0,0,0,0,0,0,0,-1,1231,967,0,0
14,57,0,0,0,0,0,0,0,0,0,-1,1238,967,0,0
21,57,0,0,0,0,0,0,0,0,0,-1,1245,967,0,0
28,57,0,0,0,0,0,0,0,0,0,-1,1252,967,0,0
35,57,0,0,0,0,0,0,0,0,0,-1,1259,967,0,0
42,57,0,0,0,0,0,0,0,0,0,-1,1266,967,0,0
49,57,0,0,0,0,0,0,0,0,0,-1,1273,967,0,0
56,57,0,0,0,0,0,0,0,0,0,-1,1280,967,0,0
63,57,0,0,0,0,0,0,0,0,0,-1,1287,967,0,0
70,57,0,0,0,0,0,0,0,0,0,-1,1294,967,0,0
77,57,0,0,0,0,0,0,0,0,0,-1,1301,967,0,0
84,57,0,0,0,0,0,0,0,0,0,-1,1308,967,0,0
91,57,0,0,0,0,0,0,0,0,0,-1,1315,967,0,0
98,57,0,0,0,0,0,0,0,0,0,-1,1322,967,0,0
105,57,0,0,0,0,0,0,0,0,0,-1,1329,967,0,0
112,57,0,0,0,0,0,0,0,0,0,-1,1336,967,0,0
119,57,0,0,0,0,0,0,0,0,0,-1,1343,967,0,0
126,57,0,0,0,0,0,0,0,0,0,-1,1350,967,0,0
133,57,0,0,0,0,0,0,0,0,0,-1,1357,967,0,0
140,57,0,0,0,0,0,0,0,0,0,-1,1364,967,0,0
147,57,0,0,0,0,0,0,0,0,0,-1,1371,967,0,0
154,57,0,0,0,0,0,0,0,0,0,-1,1378,967,0,0
161,57,0,0,0,0,0,0,0,0,0,-1,1385,967,0,0
168,57,0,0,0,0,0,0,0,0,0,-1,1392,967,0,0
175,57,0,0,0,0,0,0,0,0,0,-1,1399,967,0,0
182,57,0,0,0,0,0,0,0,0,0,-1,1406,967,0,0
189,57,0,0,0,0,0,0,0,0,0,-1,1413,967,0,0
196,57,0,0,0,0,0,0,0,0,0,-1,1420,967,0,0
203,57,0,0,0,0,0,0,0,0,0,-1,1427,967,0,0
210,57,0,0,0,0,0,0,0,0,0,-1,1434,967,0,0
217,57,0,0,0,0,0,0,0,0,0,-1,1441,967,0,0
224,57,0,0,0,0,0,0,0,0,0,-1,1448,967,0,0
231,57,0,0,0,0,0,0,0,0,0,-1,1455,967,0,0
238,57,0,0,0,0,0,0,0,0,0,-1,1462,967,0,0
245,57,0,0,0,0,0,0,0,0,0,-1,1469,967,0,0
252,57,0,0,0,0,0,0,0,0,0,-1,1476,967,0,0
259,57,0,0,0,0,0,0,0,0,0,-1,1483,967,0,0
266,57,0,0,0,0,0,0,0,0,0,-1,1490,967,0,0
273,57,0,0,0,0,0,0,0,0,0,-1,1497,967,0,0
280,57,0,0,0,0,0,0,0,0,0,-1,1504,967,0,0
287,57,0,0,0,0,0,0,0,0,0,-1,1511,967,0,0
294,57,0,0,0,0,0,0,0,0,0,-1,1518,967,0,0
301,57,0,0,0,0,0,0,0,0,0,-1,1525,967,0,0
308,57,0,0,0,0,0,0,0,0,0,-1,1532,967,0,0
315,57,0,0,0,0,0,0,0,0,0,-1,1539,967,0,0
322,57,0,0,0,0,0,0,0,0,0,-1,1546,967,0,0
329,57,0,0,0,0,0,0,0,0,0,-1,1553,967,0,0
336,57,0,0,0,0,0,0,0,0,0,-1,1560,967,0,0
343,57,0,0,0,0,0,0,0,0,0,-1,1567,967,0,0
350,57,0,0,0,0,0,0,0,0,0,-1,1574,967,0,0
357,57,0,0,0,0,0,0,0,0,0,-1,1581,967,0,0
364,57,0,0,0,0,0,0,0,0,0,-1,1588,967,0,0
371,57,0,0,0,0,0,0,0,0,0,-1,1595,967,0,0
378,57,0,0,0,0,0,0,0,0,0,-1,1602,967,0,0
385,57,0,0,0,0,0,0,0,0,0,-1,1609,967,0,0
392,57,0,0,0,0,0,0,0,0,0,-1,1616,967,0,0
399,57,0,0,0,0,0,0,0,0,0,-1,1623,967,0,0
406,57,0,0,0,0,0,0,0,0,0,-1,1630,967,0,0
413,57,0,0,0,0,0,0,0,0,0,-1,1637,967,0,0
420,57,0,0,0,0,0,0,0,0,0,-1,1644,967,0,0
427,57,0,0,0,0,0,0,0,0,0,-1,1651,967,0,0
434,57,0,0,0,0,0,0,0,0,0,-1,1658,967,0,0
441,57,0,0,0,0,0,0,0,0,0,-1,1665,967,0,0
448,57,0,0,0,0,0,0,0,0,0,-1,1672,967,0,0
455,57,0,0,0,0,0,0,0,0,0,-1,1679,967,0,0
462,57,0,0,0,0,0,0,0,0,0,-1,1686,967,0,0
469,57,0,0,0,0,0,0,0,0,0,-1,1693,967,0,0
476,57,0,0,0,0,0,0,0,0,0,-1,1700,967,0,0
483,57,0,0,0,0,0,0,0,0,0,-1,1707,967,0,0
490,57,0,0,0,0,0,0,0,0,0,-1,1714,967,0,0
497,57,0,0,0,0,0,0,0,0,0,-1,1721,967,0,0
504,57,0,0,0,0,0,0,0,0,0,-1,1728,967,0,0
511,57,0,0,0,0,0,0,0,0,0,-1,1735,967,0,0
518,57,0,0,0,0,0,0,0,0,0,-1,1742,967,0,0
525,57,0,0,0,0,0,0,0,0,0,-1,1749,967,0,0
532,57,0,0,0,0,0,0,0,0,0,-1,1756,967,0,0
539,57,0,0,0,0,0,0,0,0,0,-1,1763,967,0,0
546,57,0,0,0,0,0,0,0,0,0,-1,1770,967,0,0
553,57,0,0,0,0,0,0,0,0,0,-1,1777,967,0,0
560,57,0,0,0,0,0,0,0,0,0,-1,1784,967,0,0
567,57,0,0,0,0,0,0,0,0,0,-1,1791,967,0,0
574,57,0,0,0,0,0,0,0,0,0,-1,1798,967,0,0
581,57,0,0,0,0,0,0,0,0,0,-1,1805,967,0,0
588,57,0,0,0,0,0,0,0,0,0,-1,1812,967,0,0
595,57,0,0,0,0,0,0,0,0,0,-1,1819,967,0,0
602,57,0,0,0,0,0,0,0,0,0,-1,1826,967,0,0
609,57,0,0,0,0,0,0,0,0,0,-1,1833,967,0,0
616,57,0,0,0,0,0,0,0,0,0,-1,1840,967,0,0
623,57,0,0,0,0,0,0,0,0,0,-1,1847,967,0,0
630,57,0,0,0,0,0,0,0,0,0,-1,1854,967,0,0
637,57,0,0,0,0,0,0,0,0,0,-1,1861,967,0,0
644,57,14.0338,2.05145,-0.000642741,0.00292477,0.00462339,0.00609657,-0.00381454,0.969506,0.00577252,0.0374928,1868,967,14.0339,-2.05146
651,57,14.099,2.01239,-8.8087e-05,0.00227109,0.00341298,0.00470258,-0.00251958,0.951781,0.00423273,0.0323411,1875,967,14.099,-2.01239
658,57,14.1306,1.96484,1.58074e-05,0.0018427,0.0026146,0.00369883,-0.00184032,0.953452,0.00325748,0.0337101,1882,967,14.1307,-1.96484
665,57,13.984,1.80627,-0.00052572,0.00163624,0.00220415,0.00301022,-0.0018997,1.01338,0.00285881,0.0424995,1889,967,13.984,-1.80627
672,57,14.0513,1.77258,-0.00161915,0.00155136,0.00203971,0.00254941,-0.0026172,1.11574,0.00298303,0.043943,1896,967,14.0513,-1.77256
679,57,14.1219,1.90002,-0.00291987,0.00151432,0.00204842,0.00231576,-0.00372131,1.19786,0.00351685,0.039777,1903,967,14.122,-1.90002
686,57,14.1255,1.86963,-0.00410577,0.00147103,0.00211095,0.00217996,-0.00481469,1.2468,0.00413276,0.0361595,1910,967,14.1255,-1.86963
693,57,14.1636,1.82178,-0.00506564,0.00141886,0.00212389,0.00205258,-0.00569935,1.28083,0.00463772,0.0303485,1917,967,14.1636,-1.8218
700,57,14.1434,1.85315,-0.00588928,0.00132871,0.00214004,0.0019155,-0.00647607,1.30318,0.00507778,0.0224085,1924,967,14.1434,-1.85313
707,57,14.099,2.08289,-0.00650662,0.00128215,0.00208928,0.00180719,-0.00703166,1.32459,0.00539209,0.0270168,1931,967,14.0991,-2.08289
714,57,13.9979,2.37018,-0.00671648,0.00127281,0.00201929,0.00175418,-0.00719785,1.33678,0.00547773,0.0415933,1938,967,13.9979,-2.37018
721,57,13.5228,2.33038,-0.00660823,0.00129537,0.00185739,0.0017101,-0.00702296,1.35111,0.00534401,0.0295416,1945,967,13.5228,-2.3304
728,57,13.4069,2.44421,-0.00601796,0.00119846,0.00163154,0.00155018,-0.00636969,1.35847,0.00484654,0.0194855,1952,967,13.4068,-2.44422
735,57,13.4487,2.51093,-0.00459421,0.00117153,0.00172582,0.00164863,-0.0050713,1.30108,0.00404402,0.0203507,1959,967,13.4488,-2.51094
742,57,13.4784,2.57465,-0.00247599,0.000157392,0.00201898,0.00125109,-0.00356968,1.07434,0.00288859,0.0158947,1966,967,13.4784,-2.57463
749,57,13.4396,2.62671,-0.000146287,-0.00136013,0.00206564,0.00139974,-0.00290616,0.64251,0.00253622,0.0127164,1973,967,13.4396,-2.62668
756,57,13.4224,2.66718,0.00280495,-0.0032022,0.0026563,0.00381104,-0.00420828,0.362058,0.00463185,0.0107308,1980,967,13.4224,-2.66717
763,57,13.4391,2.71387,0.00632816,-0.00568218,0.00352409,0.00728584,-0.00663986,0.265345,0.00804289,0.0116186,1987,967,13.4391,-2.71385
770,57,13.4557,2.7608,0.010184,-0.00927319,0.00499626,0.011392,-0.0104811,0.23722,0.0126321,0.011142,1994,967,13.4557,-2.76077
777,57,13.464,2.81476,0.0142269,-0.0143269,0.00715943,0.0159214,-0.0160214,0.232411,0.0184423,0.0265162,2001,967,13.464,-2.81476
784,57,13.4869,2.77917,0.0185175,-0.0213675,0.010106,0.020932,-0.023782,0.23452,0.0258331,0.0475962,2008,967,13.487,-2.77918
791,57,13.4846,2.81189,0,0,0,0,0,0,0,-1,2015,967,13.4846,-2.8119
798,57,9.41357,3.24622,0,0,0,0,0,0,0,-1,2022,967,9.4136,-3.24623
805,57,9.53186,3.29614,0,0,0,0,0,0,0,-1,2029,967,9.53187,-3.29613
812,57,0,0,0,0,0,0,0,0,0,-1,2036,967,0,0
-700,50,0,0,0,0,0,0,0,0,0,-1,524,974,0,0
-693,50,-5.96008,0.150269,0,0,0,0,0,0,0,-1,531,974,-5.9601,-0.150299
-686,50,-5.31396,0.701172,0.0379889,-0.0296459,0.00470804,0.0383151,-0.0299721,0.0691651,0.0395236,0.046911,538,974,-5.31399,-0.701188
-679,50,-4.96912,1.48218,0.0310623,-0.0245092,-0.00303602,0.0312277,-0.0246746,-0.0544167,0.032349,0.0487258,545,974,-4.96909,-1.48219
-672,50,-4.77008,1.99762,0,0,0,0,0,0,0,-1,552,974,-4.77011,-1.99764
-665,50,-4.95392,-2.19373,0,0,0,0,0,0,0,-1,559,974,-4.95395,2.19375
-658,50,-8.86395,0.805542,0,0,0,0,0,0,0,-1,566,974,-8.86393,-0.805551
-651,50,-8.11279,0.77478,0,0,0,0,0,0,0,-1,573,974,-8.11278,-0.77477
-644,50,-8.10614,0.666443,0.00811109,-0.00436642,-0.0066305,0.0109765,-0.00723182,-0.407914,0.0105864,0.0251823,580,974,-8.10616,-0.66646
-637,50,-8.18787,0.733276,0.00510057,-0.00244046,-0.005844,0.00828485,-0.00562474,-0.498903,0.00807951,0.0135632,587,974,-8.18787,-0.733298
-630,50,-8.20093,0.736267,0.00284123,-0.000916608,-0.00503433,0.00633584,-0.00441122,-0.606793,0.0062379,0.0101287,594,974,-8.2009,-0.736267
-623,50,-8.17957,0.719849,0.00126856,0.00050351,-0.00336074,0.00426848,-0.00249641,-0.728731,0.00395012,0.0108941,601,974,-8.17959,-0.719859
-616,50,-8.1662,0.688904,8.49775e-05,0.000764097,-0.00192165,0.00237595,-0.00152688,-0.872847,0.00227101,0.0110229,608,974,-8.1662,-0.688884
-609,50,-8.20007,0.637207,-0.000891461,0.00104109,-0.00096843,0.00144286,-0.00129323,-1.17754,0.00158047,0.0105343,615,974,-8.20009,-0.637191
-602,50,-8.21643,0.593262,-0.00172931,0.00100296,-0.00079177,0.00121582,-0.00194217,-1.30817,0.00183927,0.0108557,622,974,-8.2164,-0.593254
-595,50,-8.19287,0.573608,-0.00241523,0.000917802,-0.000919134,0.00115446,-0.00265189,-1.31879,0.00225357,0.0104226,629,974,-8.1929,-0.573578
-588,50,-8.2312,0.511902,-0.00261493,0.00101942,-0.0012085,0.00138459,-0.0029801,-1.27736,0.00257546,0.0114118,636,974,-8.2312,-0.511913
-581,50,-8.37067,0.3125,-0.00231858,0.00119653,-0.00149081,0.00174365,-0.00286569,-1.21906,0.00268736,0.0220203,643,974,-8.37069,-0.312529
-574,50,-8.41095,0.155212,-0.00187108,0.00153023,-0.00185384,0.00234531,-0.00268617,-1.15656,0.00290715,0.0288655,650,974,-8.41097,-0.15522
-567,50,-8.3761,0.209778,-0.00130581,0.00204335,-0.00212857,0.0030771,-0.00233956,-1.11869,0.00313695,0.0364223,657,974,-8.37612,-0.209787
-560,50,-8.23895,0.119385,-0.000375306,0.00258824,-0.00249526,0.00400854,-0.0017956,-1.05334,0.00343125,0.0413582,664,974,-8.23894,-0.119408
-553,50,-8.10089,-0.0930176,0,0,0,0,0,0,0,-1,671,974,-8.10089,0.0930427
-546,50,-8.25043,0.371155,0.00281958,0.00408203,-0.00386391,0.00736593,-0.000464319,-0.866365,0.00507248,0.041048,678,974,-8.25041,-0.371179
-539,50,-8.54034,0.322388,0.00519262,0.0050898,-0.00507389,0.0102154,6.7052e-05,-0.780332,0.006788,0.0424812,685,974,-8.54032,-0.322397
-532,50,-8.40302,0.119385,0.00801606,0.00639876,-0.00687924,0.014134,0.000280803,-0.726892,0.00933048,0.0433264,692,974,-8.40302,-0.119362
-525,50,-8.26337,0.202576,0.0108894,0.00817485,-0.00954029,0.0191685,-0.000104249,-0.71474,0.0128139,0.0430481,699,974,-8.26339,-0.202558
-518,50,0,0,0,0,0,0,0,0,0,-1,706,974,0,0
-511,50,0,0,0,0,0,0,0,0,0,-1,713,974,0,0
-504,50,0,0,0,0,0,0,0,0,0,-1,720,974,0,0
-497,50,0,0,0,0,0,0,0,0,0,-1,727,974,0,0
-490,50,0,0,0,0,0,0,0,0,0,-1,734,974,0,0
-483,50,0,0,0,0,0,0,0,0,0,-1,741,974,0,0
-476,50,0,0,0,0,0,0,0,0,0,-1,748,974,0,0
-469,50,0,0,0,0,0,0,0,0,0,-1,755,974,0,0
-462,50,0,0,0,0,0,0,0,0,0,-1,762,974,0,0
-455,50,0,0,0,0,0,0,0,0,0,-1,769,974,0,0
-448,50,0,0,0,0,0,0,0,0,0,-1,776,974,0,0
-441,50,0,0,0,0,0,0,0,0,0,-1,783,974,0,0
-434,50,0,0,0,0,0,0,0,0,0,-1,790,974,0,0
-427,50,0,0,0,0,0,0,0,0,0,-1,797,974,0,0
-420,50,0,0,0,0,0,0,0,0,0,-1,804,974,0,0
-413,50,0,0,0,0,0,0,0,0,0,-1,811,974,0,0
-406,50,0,0,0,0,0,0,0,0,0,-1,818,974,0,0
-399,50,0,0,0,0,0,0,0,0,0,-1,825,974,0,0
-392,50,0,0,0,0,0,0,0,0,0,-1,832,974,0,0
-385,50,0,0,0,0,0,0,0,0,0,-1,839,974,0,0
-378,50,0,0,0,0,0,0,0,0,0,-1,846,974,0,0
-371,50,0,0,0,0,0,0,0,0,0,-1,853,974,0,0
-364,50,0,0,0,0,0,0,0,0,0,-1,860,974,0,0
-357,50,0,0,0,0,0,0,0,0,0,-1,867,974,0,0
-350,50,0,0,0,0,0,0,0,0,0,-1,874,974,0,0
-343,50,0,0,0,0,0,0,0,0,0,-1,881,974,0,0
-336,50,0,0,0,0,0,0,0,0,0,-1,888,974,0,0
-329,50,0,0,0,0,0,0,0,0,0,-1,895,974,0,0
-322,50,0,0,0,0,0,0,0,0,0,-1,902,974,0,0
-315,50,0,0,0,0,0,0,0,0,0,-1,909,974,0,0
-308,50,0,0,0,0,0,0,0,0,0,-1,916,974,0,0
-301,50,0,0,0,0,0,0,0,0,0,-1,923,974,0,0
-294,50,0,0,0,0,0,0,0,0,0,-1,930,974,0,0
-287,50,0,0,0,0,0,0,0,0,0,-1,937,974,0,0
-280,50,0,0,0,0,0,0,0,0,0,-1,944,974,0,0
-273,50,0,0,0,0,0,0,0,0,0,-1,951,974,0,0
-266,50,0,0,0,0,0,0,0,0,0,-1,958,974,0,0
-259,50,0,0,0,0,0,0,0,0,0,-1,965,974,0,0
-252,50,0,0,0,0,0,0,0,0,0,-1,972,974,0,0
-245,50,0,0,0,0,0,0,0,0,0,-1,979,974,0,0
-238,50,0,0,0,0,0,0,0,0,0,-1,986,974,0,0
-231,50,0,0,0,0,0,0,0,0,0,-1,993,974,0,0
-224,50,0,0,0,0,0,0,0,0,0,-1,1000,974,0,0
-217,50,0,0,0,0,0,0,0,0,0,-1,1007,974,0,0
-210,50,0,0,0,0,0,0,0,0,0,-1,1014,974,0,0
-203,50,0,0,0,0,0,0,0,0,0,-1,1021,974,0,0
-196,50,0,0,0,0,0,0,0,0,0,-1,1028,974,0,0
-189,50,0,0,0,0,0,0,0,0,0,-1,1035,974,0,0
-182,50,0,0,0,0,0,0,0,0,0,-1,1042,974,0,0
-175,50,0,0,0,0,0,0,0,0,0,-1,1049,974,0,0
-168,50,0,0,0,0,0,0,0,0,0,-1,1056,974,0,0
-161,50,0,0,0,0,0,0,0,0,0,-1,1063,974,0,0
-154,50,0,0,0,0,0,0,0,0,0,-1,1070,974,0,0
-147,50,0,0,0,0,0,0,0,0,0,-1,1077,974,0,0
-140,50,0,0,0,0,0,0,0,0,0,-1,1084,974,0,0
-133,50,0,0,0,0,0,0,0,0,0,-1,1091,974,0,0
-126,50,0,0,0,0,0,0,0,0,0,-1,1098,974,0,0
-119,50,0,0,0,0,0,0,0,0,0,-1,1105,974,0,0
-112,50,0,0,0,0,0,0,0,0,0,-1,1112,974,0,0
-105,50,0,0,0,0,0,0,0,0,0,-1,1119,974,0,0
-98,50,0,0,0,0,0,0,0,0,0,-1,1126,974,0,0
-91,50,0,0,0,0,0,0,0,0,0,-1,1133,974,0,0
-84,50,0,0,0,0,0,0,0,0,0,-1,1140,974,0,0
-77,50,0,0,0,0,0,0,0,0,0,-1,1147,974,0,0
-70,50,0,0,0,0,0,0,0,0,0,-1,1154,974,0,0
-63,50,0,0,0,0,0,0,0,0,0,-1,1161,974,0,0
-56,50,0,0,0,0,0,0,0,0,0,-1,1168,974,0,0
-49,50,0,0,0,0,0,0,0,0,0,-1,1175,974,0,0
-42,50,0,0,0,0,0,0,0,0,0,-1,1182,974,0,0
-35,50,0,0,0,0,0,0,0,0,0,-1,1189,974,0,0
-28,50,0,0,0,0,0,0,0,0,0,-1,1196,974,0,0
-21,50,0,0,0,0,0,0,0,0,0,-1,1203,974,0,0
-14,50,0,0,0,0,0,0,0,0,0,-1,1210,974,0,0
-7,50,0,0,0,0,0,0,0,0,0,-1,1217,974,0,0
0,50,0,0,0,0,0,0,0,0,0,-1,1224,974,0,0
7,50,0,0,0,0,0,0,0,0,0,-1,1231,974,0,0
14,50,0,0,0,0,0,0,0,0,0,-1,1238,974,0,0
21,50,0,0,0,0,0,0,0,0,0,-1,1245,974,0,0
28,50,0,0,0,0,0,0,0,0,0,-1,1252,974,0,0
35,50,0,0,0,0,0,0,0,0,0,-1,1259,974,0,0
42,50,0,0,0,0,0,0,0,0,0,-1,1266,974,0,0
49,50,0,0,0,0,0,0,0,0,0,-1,1273,974,0,0
56,50,0,0,0,0,0,0,0,0,0,-1,1280,974,0,0
63,50,0,0,0,0,0,0,0,0,0,-1,1287,974,0,0
70,50,0,0,0,0,0,0,0,0,0,-1,1294,974,0,0
77,50,0,0,0,0,0,0,0,0,0,-1,1301,974,0,0
84,50,0,0,0,0,0,0,0,0,0,-1,1308,974,0,0
91,50,0,0,0,0,0,0,0,0,0,-1,1315,974,0,0
98,50,0,0,0,0,0,0,0,0,0,-1,1322,974,0,0
105,50,0,0,0,0,0,0,0,0,0,-1,1329,974,0,0
112,50,0,0,0,0,0,0,0,0,0,-1,1336,974,0,0
119,50,0,0,0,0,0,0,0,0,0,-1,1343,974,0,0
126,50,0,0,0,0,0,0,0,0,0,-1,1350,974,0,0
133,50,0,0,0,0,0,0,0,0,0,-1,1357,974,0,0
140,50,0,0,0,0,0,0,0,0,0,-1,1364,974,0,0
147,50,0,0,0,0,0,0,0,0,0,-1,1371,974,0,0
154,50,0,0,0,0,0,0,0,0,0,-1,1378,974,0,0
161,50,0,0,0,0,0,0,0,0,0,-1,1385,974,0,0
168,50,0,0,0,0,0,0,0,0,0,-1,1392,974,0,0
175,50,0,0,0,0,0,0,0,0,0,-1,1399,974,0,0
182,50,0,0,0,0,0,0,0,0,0,-1,1406,974,0,0
189,50,0,0,0,0,0,0,0,0,0,-1,1413,974,0,0
196,50,0,0,0,0,0,0,0,0,0,-1,1420,974,0,0
203,50,0,0,0,0,0,0,0,0,0,-1,1427,974,0,0
210,50,0,0,0,0,0,0,0,0,0,-1,1434,974,0,0
217,50,0,0,0,0,0,0,0,0,0,-1,1441,974,0,0
224,50,0,0,0,0,0,0,0,0,0,-1,1448,974,0,0
231,50,0,0,0,0,0,0,0,0,0,-1,1455,974,0,0
238,50,0,0,0,0,0,0,0,0,0,-1,1462,974,0,0
245,50,0,0,0,0,0,0,0,0,0,-1,1469,974,0,0
252,50,0,0,0,0,0,0,0,0,0,-1,1476,974,0,0
259,50,0,0,0,0,0,0,0,0,0,-1,1483,974,0,0
266,50,0,0,0,0,0,0,0,0,0,-1,1490,974,0,0
273,50,0,0,0,0,0,0,0,0,0,-1,1497,974,0,0
280,50,0,0,0,0,0,0,0,0,0,-1,1504,974,0,0
287,50,0,0,0,0,0,0,0,0,0,-1,1511,974,0,0
294,50,0,0,0,0,0,0,0,0,0,-1,1518,974,0,0
301,50,0,0,0,0,0,0,0,0,0,-1,1525,974,0,0
308,50,0,0,0,0,0,0,0,0,0,-1,1532,974,0,0
315,50,0,0,0,0,0,0,0,0,0,-1,1539,974,0,0
322,50,0,0,0,0,0,0,0,0,0,-1,1546,974,0,0
329,50,0,0,0,0,0,0,0,0,0,-1,1553,974,0,0
336,50,0,0,0,0,0,0,0,0,0,-1,1560,974,0,0
343,50,0,0,0,0,0,0,0,0,0,-1,1567,974,0,0
350,50,0,0,0,0,0,0,0,0,0,-1,1574,974,0,0
357,50,0,0,0,0,0,0,0,0,0,-1,1581,974,0,0
364,50,0,0,0,0,0,0,0,0,0,-1,1588,974,0,0
371,50,0,0,0,0,0,0,0,0,0,-1,1595,974,0,0
378,50,0,0,0,0,0,0,0,0,0,-1,1602,974,0,0
385,50,0,0,0,0,0,0,0,0,0,-1,1609,974,0,0
392,50,0,0,0,0,0,0,0,0,0,-1,1616,974,0,0
399,50,0,0,0,0,0,0,0,0,0,-1,1623,974,0,0
406,50,0,0,0,0,0,0,0,0,0,-1,1630,974,0,0
413,50,0,0,0,0,0,0,0,0,0,-1,1637,974,0,0
420,50,0,0,0,0,0,0,0,0,0,-1,1644,974,0,0
427,50,0,0,0,0,0,0,0,0,0,-1,1651,974,0,0
434,50,0,0,0,0,0,0,0,0,0,-1,1658,974,0,0
441,50,0,0,0,0,0,0,0,0,0,-1,1665,974,0,0
448,50,0,0,0,0,0,0,0,0,0,-1,1672,974,0,0
455,50,0,0,0,0,0,0,0,0,0,-1,1679,974,0,0
462,50,0,0,0,0,0,0,0,0,0,-1,1686,974,0,0
469,50,0,0,0,0,0,0,0,0,0,-1,1693,974,0,0
476,50,0,0,0,0,0,0,0,0,0,-1,1700,974,0,0
483,50,0,0,0,0,0,0,0,0,0,-1,1707,974,0,0
490,50,0,0,0,0,0,0,0,0,0,-1,1714,974,0,0
497,50,0,0,0,0,0,0,0,0,0,-1,1721,974,0,0
504,50,0,0,0,0,0,0,0,0,0,-1,1728,974,0,0
511,50,0,0,0,0,0,0,0,0,0,-1,1735,974,0,0
518,50,0,0,0,0,0,0,0,0,0,-1,1742,974,0,0
525,50,0,0,0,0,0,0,0,0,0,-1,1749,974,0,0
532,50,0,0,0,0,0,0,0,0,0,-1,1756,974,0,0
539,50,0,0,0,0,0,0,0,0,0,-1,1763,974,0,0
546,50,0,0,0,0,0,0,0,0,0,-1,1770,974,0,0
553,50,0,0,0,0,0,0,0,0,0,-1,1777,974,0,0
560,50,0,0,0,0,0,0,0,0,0,-1,1784,974,0,0
567,50,0,0,0,0,0,0,0,0,0,-1,1791,974,0,0
574,50,0,0,0,0,0,0,0,0,0,-1,1798,974,0,0
581,50,0,0,0,0,0,0,0,0,0,-1,1805,974,0,0
588,50,0,0,0,0,0,0,0,0,0,-1,1812,974,0,0
595,50,0,0,0,0,0,0,0,0,0,-1,1819,974,0,0
602,50,0,0,0,0,0,0,0,0,0,-1,1826,974,0,0
609,50,0,0,0,0,0,0,0,0,0,-1,1833,974,0,0
616,50,0,0,0,0,0,0,0,0,0,-1,1840,974,0,0
623,50,0,0,0,0,0,0,0,0,0,-1,1847,974,0,0
630,50,0,0,0,0,0,0,0,0,0,-1,1854,974,0,0
637,50,0,0,0,0,0,0,0,0,0,-1,1861,974,0,0
644,50,14.0396,1.95325,-0.000780457,0.00215195,0.00450238,0.00542085,-0.00404935,0.942809,0.0054867,0.0358105,1868,974,14.0396,-1.95324
651,50,14.0533,1.81519,-6.26854e-05,0.00162262,0.00323252,0.00412052,-0.00256058,0.9129,0.00389222,0.0306123,1875,974,14.0533,-1.81519
658,50,14.0234,1.84705,0.000239195,0.00127609,0.00242342,0.0032359,-0.00172061,0.890776,0.00290587,0.0370914,1882,974,14.0234,-1.84705
665,50,13.9053,1.81494,-8.05591e-05,0.00114417,0.00202884,0.00265104,-0.00158743,0.931966,0.00247263,0.0406587,1889,974,13.9053,-1.81495
672,50,14.0305,1.8537,-0.00102348,0.00113225,0.00192249,0.00225842,-0.00214966,1.04089,0.00254526,0.0402248,1896,974,14.0305,-1.8537
679,50,14.0573,1.87433,-0.00227915,0.00116095,0.00201014,0.0020865,-0.0032047,1.13929,0.00307753,0.0383569,1903,974,14.0573,-1.87432
686,50,14.0991,1.8067,-0.0034649,0.00118303,0.00215914,0.00203125,-0.00431311,1.19647,0.00374105,0.0372067,1910,974,14.0991,-1.80669
693,50,14.0922,1.73212,-0.00446885,0.00119579,0.0022682,0.00199208,-0.00526513,1.23317,0.00432967,0.0360002,1917,974,14.0921,-1.73209
700,50,14.1082,1.83752,-0.00534652,0.00113434,0.00235133,0.00189755,-0.00610973,1.25694,0.00483152,0.0198738,1924,974,14.1081,-1.83751
707,50,14.1035,2.0528,-0.00604965,0.00113107,0.00233999,0.0018263,-0.00674488,1.282,0.0052131,0.0237686,1931,974,14.1035,-2.0528
714,50,14.0765,2.24823,-0.00637414,0.00115019,0.00229102,0.00179287,-0.00701682,1.2973,0.00537609,0.0358408,1938,974,14.0766,-2.24826
721,50,13.6232,2.37512,-0.00638169,0.00121332,0.00216013,0.00178471,-0.00695308,1.3122,0.00533082,0.0286587,1945,974,13.6232,-2.37512
728,50,13.4755,2.42413,-0.0058841,0.00119241,0.00194728,0.00169286,-0.00638455,1.31924,0.00491874,0.0200965,1952,974,13.4755,-2.42411
735,50,13.5239,2.49713,-0.00458344,0.00127016,0.00205158,0.00191759,-0.00523088,1.26511,0.00427239,0.0194879,1959,974,13.524,-2.49714
742,50,13.5559,2.5647,-0.00265547,0.00051491,0.00240873,0.00181326,-0.00395382,1.07642,0.00340522,0.0154048,1966,974,13.5559,-2.56472
749,50,13.5448,2.61646,-0.000467157,-0.000742113,0.0026317,0.00203065,-0.00323992,0.759302,0.00306955,0.0153978,1973,974,13.5449,-2.61648
756,50,13.5051,2.66736,0.00230701,-0.00235729,0.00344397,0.00413417,-0.00418445,0.487779,0.00480279,0.0118017,1980,974,13.5051,-2.66738
763,50,13.4962,2.7135,0.00564821,-0.00448529,0.00461216,0.00743302,-0.0062701,0.369233,0.00792099,0.0117452,1987,974,13.4962,-2.71352
770,50,13.4982,2.7417,0.00933172,-0.00765459,0.00656229,0.0115716,-0.00989444,0.328922,0.012406,0.0109699,1994,974,13.4982,-2.74168
777,50,13.5066,2.76782,0.0131498,-0.0122294,0.00944194,0.0162771,-0.0153567,0.319848,0.0182664,0.022652,2001,974,13.5066,-2.7678
784,50,13.5123,2.78613,0.0170828,-0.0187553,0.0134062,0.0215428,-0.0232152,0.32116,0.0258471,0.0445848,2008,974,13.5123,-2.78612
791,50,13.5197,2.81519,0,0,0,0,0,0,0,-1,2015,974,13.5197,-2.81518
798,50,15.1055,2.33215,0,0,0,0,0,0,0,-1,2022,974,15.1054,-2.33216
805,50,9.34753,3.07062,0,0,0,0,0,0,0,-1,2029,974,9.34758,-3.07061
812,50,0,0,0,0,0,0,0,0,0,-1,2036,974,0,0
-700,43,0,0,0,0,0,0,0,0,0,-1,524,981,0,0
-693,43,-6.21686,0.489258,0.0498929,-0.0302555,0.0326614,0.061517,-0.0418795,0.341917,0.0600538,0.0444682,531,981,-6.21688,-0.489244
-686,43,-5.81287,1.26373,0.040316,-0.0263675,0.017558,0.0446565,-0.030708,0.242353,0.0437595,0.0455682,538,981,-5.81286,-1.26371
-679,43,-5.42334,2.06836,0,0,0,0,0,0,0,-1,545,981,-5.42333,-2.06837
-672,43,-7.97382,0.707336,0,0,0,0,0,0,0,-1,552,981,-7.97381,-0.707334
-665,43,-9.27161,0.705994,0,0,0,0,0,0,0,-1,559,981,-9.2716,-0.706018
-658,43,-8.93695,0.7771,0.0142167,-0.00934024,-0.00337377,0.0146904,-0.0098139,-0.139483,0.0142406,0.0492586,566,981,-8.93692,-0.777071
-651,43,-8.4234,0.688965,0.0102588,-0.00623922,-0.00386707,0.0111203,-0.00710067,-0.219185,0.0106048,0.0377693,573,981,-8.42343,-0.688986
-644,43,-8.2124,0.735107,0.00714482,-0.00383334,-0.00362575,0.0082342,-0.00492271,-0.291874,0.00767593,0.0164974,580,981,-8.21241,-0.735131
-637,43,-8.23456,0.75647,0.004135,-0.00215393,-0.00391023,0.00600826,-0.00402719,-0.446761,0.00583148,0.0111017,587,981,-8.23454,-0.756492
-630,43,-8.22992,0.737244,0.0019877,-0.00080752,-0.00388511,0.00471894,-0.00353876,-0.612738,0.00478379,0.0114614,594,981,-8.2299,-0.737247
-623,43,-8.22089,0.700073,0.000666832,0.000593806,-0.00281289,0.00344345,-0.00218281,-0.778908,0.00327539,0.0111111,601,981,-8.22089,-0.70009
-616,43,-8.20782,0.67218,-0.000185006,0.000922464,-0.00182252,0.00227351,-0.00153605,-0.932882,0.00221314,0.00983234,608,981,-8.2078,-0.672185
-609,43,-8.22931,0.629456,-0.000845181,0.00102655,-0.00116268,0.00158323,-0.00140185,-1.12427,0.0017245,0.0124787,615,981,-8.22933,-0.629433
-602,43,-8.25336,0.597717,-0.00144298,0.000958637,-0.00106516,0.00136298,-0.00184733,-1.20799,0.00186049,0.014687,622,981,-8.25334,-0.597716
-595,43,-8.23468,0.572327,-0.00193028,0.000940065,-0.00122896,0.00139435,-0.00238457,-1.21672,0.00220659,0.0127963,629,981,-8.23468,-0.572322
-588,43,-8.23462,0.473145,-0.00203341,0.00103335,-0.0015433,0.00167552,-0.00267559,-1.17649,0.00253413,0.0120173,636,981,-8.23459,-0.473151
-581,43,-8.34863,0.304199,-0.00167661,0.00115455,-0.00179587,0.00202567,-0.00254773,-1.11916,0.00264618,0.0192713,643,981,-8.34864,-0.304199
-574,43,-8.37933,0.201782,-0.0011868,0.00144695,-0.00207944,0.00259143,-0.00233127,-1.06766,0.00284344,0.0281433,650,981,-8.37936,-0.201776
-567,43,-8.29968,0.167664,-0.000601168,0.00187936,-0.00224604,0.00320482,-0.00192663,-1.03766,0.00299312,0.0372274,657,981,-8.29971,-0.167659
-560,43,-8.20911,0.126465,0.000316074,0.00232077,-0.00247685,0.0039904,-0.00135355,-0.977669,0.00320809,0.0410228,664,981,-8.20913,-0.126442
-553,43,-8.25415,0.18457,0.00161637,0.00284268,-0.00285202,0.00514671,-0.000687663,-0.891281,0.00368183,0.0403337,671,981,-8.25415,-0.184582
-546,43,-8.349,0.394287,0.00334461,0.00344631,-0.00345973,0.00685556,-6.46401e-05,-0.792746,0.00459207,0.0416077,678,981,-8.34902,-0.394286
-539,43,-8.35583,0.0988159,0.00557262,0.00415541,-0.00443809,0.00935831,0.000369714,-0.706234,0.00611936,0.0456336,685,981,-8.35583,-0.0987873
-532,43,-8.25122,-0.100342,0.00819004,0.00508531,-0.00601774,0.0128524,0.000422933,-0.659168,0.00843083,0.0482901,692,981,-8.25123,0.100367
-525,43,-8.10571,-0.0300293,0.0108664,0.00637782,-0.00844481,0.01736,-0.000115835,-0.65552,0.0116122,0.0480288,699,981,-8.10573,0.0300426
-518,43,0,0,0,0,0,0,0,0,0,-1,706,981,0,0
-511,43,0,0,0,0,0,0,0,0,0,-1,713,981,0,0
-504,43,0,0,0,0,0,0,0,0,0,-1,720,981,0,0
-497,43,0,0,0,0,0,0,0,0,0,-1,727,981,0,0
-490,43,0,0,0,0,0,0,0,0,0,-1,734,981,0,0
-483,43,0,0,0,0,0,0,0,0,0,-1,741,981,0,0
-476,43,0,0,0,0,0,0,0,0,0,-1,748,981,0,0
-469,43,0,0,0,0,0,0,0,0,0,-1,755,981,0,0
-462,43,0,0,0,0,0,0,0,0,0,-1,762,981,0,0
-455,43,0,0,0,0,0,0,0,0,0,-1,769,981,0,0
-448,43,0,0,0,0,0,0,0,0,0,-1,776,981,0,0
-441,43,0,0,0,0,0,0,0,0,0,-1,783,981,0,0
-434,43,0,0,0,0,0,0,0,0,0,-1,790,981,0,0
-427,43,0,0,0,0,0,0,0,0,0,-1,797,981,0,0
-420,43,0,0,0,0,0,0,0,0,0,-1,804,981,0,0
-413,43,0,0,0,0,0,0,0,0,0,-1,811,981,0,0
-406,43,0,0,0,0,0,0,0,0,0,-1,818,981,0,0
-399,43,0,0,0,0,0,0,0,0,0,-1,825,981,0,0
-392,43,0,0,0,0,0,0,0,0,0,-1,832,981,0,0
-385,43,0,0,0,0,0,0,0,0,0,-1,839,981,0,0
-378,43,0,0,0,0,0,0,0,0,0,-1,846,981,0,0
-371,43,0,0,0,0,0,0,0,0,0,-1,853,981,0,0
-364,43,0,0,0,0,0,0,0,0,0,-1,860,981,0,0
-357,43,0,0,0,0,0,0,0,0,0,-1,867,981,0,0
-350,43,0,0,0,0,0,0,0,0,0,-1,874,981,0,0
-343,43,0,0,0,0,0,0,0,0,0,-1,881,981,0,0
-336,43,0,0,0,0,0,0,0,0,0,-1,888,981,0,0
-329,43,0,0,0,0,0,0,0,0,0,-1,895,981,0,0
-322,43,0,0,0,0,0,0,0,0,0,-1,902,981,0,0
-315,43,0,0,0,0,0,0,0,0,0,-1,909,981,0,0
-308,43,0,0,0,0,0,0,0,0,0,-1,916,981,0,0
-301,43,0,0,0,0,0,0,0,0,0,-1,923,981,0,0
-294,43,0,0,0,0,0,0,0,0,0,-1,930,981,0,0
-287,43,0,0,0,0,0,0,0,0,0,-1,937,981,0,0
-280,43,0,0,0,0,0,0,0,0,0,-1,944,981,0,0
-273,43,0,0,0,0,0,0,0,0,0,-1,951,981,0,0
-266,43,0,0,0,0,0,0,0,0,0,-1,958,981,0,0
-259,43,0,0,0,0,0,0,0,0,0,-1,965,981,0,0
-252,43,0,0,0,0,0,0,0,0,0,-1,972,981,0,0
-245,43,0,0,0,0,0,0,0,0,0,-1,979,981,0,0
-238,43,0,0,0,0,0,0,0,0,0,-1,986,981,0,0
-231,43,0,0,0,0,0,0,0,0,0,-1,993,981,0,0
-224,43,0,0,0,0,0,0,0,0,0,-1,1000,981,0,0
-217,43,0,0,0,0,0,0,0,0,0,-1,1007,981,0,0
-210,43,0,0,0,0,0,0,0,0,0,-1,1014,981,0,0
-203,43,0,0,0,0,0,0,0,0,0,-1,1021,981,0,0
-196,43,0,0,0,0,0,0,0,0,0,-1,1028,981,0,0
-189,43,0,0,0,0,0,0,0,0,0,-1,1035,981,0,0
-182,43,0,0,0,0,0,0,0,0,0,-1,1042,981,0,0
-175,43,0,0,0,0,0,0,0,0,0,-1,1049,981,0,0
-168,43,0,0,0,0,0,0,0,0,0,-1,1056,981,0,0
-161,43,0,0,0,0,0,0,0,0,0,-1,1063,981,0,0
-154,43,0,0,0,0,0,0,0,0,0,-1,1070,981,0,0
-147,43,0,0,0,0,0,0,0,0,0,-1,1077,981,0,0
-140,43,0,0,0,0,0,0,0,0,0,-1,1084,981,0,0
-133,43,0,0,0,0,0,0,0,0,0,-1,1091,981,0,0
-126,43,0,0,0,0,0,0,0,0,0,-1,1098,981,0,0
-119,43,0,0,0,0,0,0,0,0,0,-1,1105,981,0,0
-112,43,0,0,0,0,0,0,0,0,0,-1,1112,981,0,0
-105,43,0,0,0,0,0,0,0,0,0,-1,1119,981,0,0
-98,43,0,0,0,0,0,0,0,0,0,-1,1126,981,0,0
-91,43,0,0,0,0,0,0,0,0,0,-1,1133,981,0,0
-84,43,0,0,0,0,0,0,0,0,0,-1,1140,981,0,0
-77,43,0,0,0,0,0,0,0,0,0,-1,1147,981,0,0
-70,43,0,0,0,0,0,0,0,0,0,-1,1154,981,0,0
-63,43,0,0,0,0,0,0,0,0,0,-1,1161,981,0,0
-56,43,0,0,0,0,0,0,0,0,0,-1,1168,981,0,0
-49,43,0,0,0,0,0,0,0,0,0,-1,1175,981,0,0
-42,43,0,0,0,0,0,0,0,0,0,-1,1182,981,0,0
-35,43,0,0,0,0,0,0,0,0,0,-1,1189,981,0,0
-28,43,0,0,0,0,0,0,0,0,0,-1,1196,981,0,0
-21,43,0,0,0,0,0,0,0,0,0,-1,1203,981,0,0
-14,43,0,0,0,0,0,0,0,0,0,-1,1210,981,0,0
-7,43,0,0,0,0,0,0,0,0,0,-1,1217,981,0,0
0,43,0,0,0,0,0,0,0,0,0,-1,1224,981,0,0
7,43,0,0,0,0,0,0,0,0,0,-1,1231,981,0,0
14,43,0,0,0,0,0,0,0,0,0,-1,1238,981,0,0
21,43,0,0,0,0,0,0,0,0,0,-1,1245,981,0,0
28,43,0,0,0,0,0,0,0,0,0,-1,1252,981,0,0
35,43,0,0,0,0,0,0,0,0,0,-1,1259,981,0,0
42,43,0,0,0,0,0,0,0,0,0,-1,1266,981,0,0
49,43,0,0,0,0,0,0,0,0,0,-1,1273,981,0,0
56,43,0,0,0,0,0,0,0,0,0,-1,1280,981,0,0
63,43,0,0,0,0,0,0,0,0,0,-1,1287,981,0,0
70,43,0,0,0,0,0,0,0,0,0,-1,1294,981,0,0
77,43,0,0,0,0,0,0,0,0,0,-1,1301,981,0,0
84,43,0,0,0,0,0,0,0,0,0,-1,1308,981,0,0
91,43,0,0,0,0,0,0,0,0,0,-1,1315,981,0,0
98,43,0,0,0,0,0,0,0,0,0,-1,1322,981,0,0
105,43,0,0,0,0,0,0,0,0,0,-1,1329,981,0,0
112,43,0,0,0,0,0,0,0,0,0,-1,1336,981,0,0
119,43,0,0,0,0,0,0,0,0,0,-1,1343,981,0,0
126,43,0,0,0,0,0,0,0,0,0,-1,1350,981,0,0
133,43,0,0,0,0,0,0,0,0,0,-1,1357,981,0,0
140,43,0,0,0,0,0,0,0,0,0,-1,1364,981,0,0
147,43,0,0,0,0,0,0,0,0,0,-1,1371,981,0,0
154,43,0,0,0,0,0,0,0,0,0,-1,1378,981,0,0
161,43,0,0,0,0,0,0,0,0,0,-1,1385,981,0,0
168,43,0,0,0,0,0,0,0,0,0,-1,1392,981,0,0
175,43,0,0,0,0,0,0,0,0,0,-1,1399,981,0,0
182,43,0,0,0,0,0,0,0,0,0,-1,1406,981,0,0
189,43,0,0,0,0,0,0,0,0,0,-1,1413,981,0,0
196,43,0,0,0,0,0,0,0,0,0,-1,1420,981,0,0
203,43,0,0,0,0,0,0,0,0,0,-1,1427,981,0,0
210,43,0,0,0,0,0,0,0,0,0,-1,1434,981,0,0
217,43,0,0,0,0,0,0,0,0,0,-1,1441,981,0,0
224,43,0,0,0,0,0,0,0,0,0,-1,1448,981,0,0
231,43,0,0,0,0,0,0,0,0,0,-1,1455,981,0,0
238,43,0,0,0,0,0,0,0,0,0,-1,1462,981,0,0
245,43,0,0,0,0,0,0,0,0,0,-1,1469,981,0,0
252,43,0,0,0,0,0,0,0,0,0,-1,1476,981,0,0
259,43,0,0,0,0,0,0,0,0,0,-1,1483,981,0,0
266,43,0,0,0,0,0,0,0,0,0,-1,1490,981,0,0
273,43,0,0,0,0,0,0,0,0,0,-1,1497,981,0,0
280,43,0,0,0,0,0,0,0,0,0,-1,1504,981,0,0
287,43,0,0,0,0,0,0,0,0,0,-1,1511,981,0,0
294,43,0,0,0,0,0,0,0,0,0,-1,1518,981,0,0
301,43,0,0,0,0,0,0,0,0,0,-1,1525,981,0,0
308,43,0,0,0,0,0,0,0,0,0,-1,1532,981,0,0
315,43,0,0,0,0,0,0,0,0,0,-1,1539,981,0,0
322,43,0,0,0,0,0,0,0,0,0,-1,1546,981,0,0
329,43,0,0,0,0,0,0,0,0,0,-1,1553,981,0,0
336,43,0,0,0,0,0,0,0,0,0,-1,1560,981,0,0
343,43,0,0,0,0,0,0,0,0,0,-1,1567,981,0,0
350,43,0,0,0,0,0,0,0,0,0,-1,1574,981,0,0
357,43,0,0,0,0,0,0,0,0,0,-1,1581,981,0,0
364,43,0,0,0,0,0,0,0,0,0,-1,1588,981,0,0
371,43,0,0,0,0,0,0,0,0,0,-1,1595,981,0,0
378,43,0,0,0,0,0,0,0,0,0,-1,1602,981,0,0
385,43,0,0,0,0,0,0,0,0,0,-1,1609,981,0,0
392,43,0,0,0,0,0,0,0,0,0,-1,1616,981,0,0
399,43,0,0,0,0,0,0,0,0,0,-1,1623,981,0,0
406,43,0,0,0,0,0,0,0,0,0,-1,1630,981,0,0
413,43,0,0,0,0,0,0,0,0,0,-1,1637,981,0,0
420,43,0,0,0,0,0,0,0,0,0,-1,1644,981,0,0
427,43,0,0,0,0,0,0,0,0,0,-1,1651,981,0,0
434,43,0,0,0,0,0,0,0,0,0,-1,1658,981,0,0
441,43,0,0,0,0,0,0,0,0,0,-1,1665,981,0,0
448,43,0,0,0,0,0,0,0,0,0,-1,1672,981,0,0
455,43,0,0,0,0,0,0,0,0,0,-1,1679,981,0,0
462,43,0,0,0,0,0,0,0,0,0,-1,1686,981,0,0
469,43,0,0,0,0,0,0,0,0,0,-1,1693,981,0,0
476,43,0,0,0,0,0,0,0,0,0,-1,1700,981,0,0
483,43,0,0,0,0,0,0,0,0,0,-1,1707,981,0,0
490,43,0,0,0,0,0,0,0,0,0,-1,1714,981,0,0
497,43,0,0,0,0,0,0,0,0,0,-1,1721,981,0,0
504,43,0,0,0,0,0,0,0,0,0,-1,1728,981,0,0
511,43,0,0,0,0,0,0,0,0,0,-1,1735,981,0,0
518,43,0,0,0,0,0,0,0,0,0,-1,1742,981,0,0
525,43,0,0,0,0,0,0,0,0,0,-1,1749,981,0,0
532,43,0,0,0,0,0,0,0,0,0,-1,1756,981,0,0
539,43,0,0,0,0,0,0,0,0,0,-1,1763,981,0,0
546,43,0,0,0,0,0,0,0,0,0,-1,1770,981,0,0
553,43,0,0,0,0,0,0,0,0,0,-1,1777,981,0,0
560,43,0,0,0,0,0,0,0,0,0,-1,1784,981,0,0
567,43,0,0,0,0,0,0,0,0,0,-1,1791,981,0,0
574,43,0,0,0,0,0,0,0,0,0,-1,1798,981,0,0
581,43,0,0,0,0,0,0,0,0,0,-1,1805,981,0,0
588,43,0,0,0,0,0,0,0,0,0,-1,1812,981,0,0
595,43,0,0,0,0,0,0,0,0,0,-1,1819,981,0,0
602,43,0,0,0,0,0,0,0,0,0,-1,1826,981,0,0
609,43,0,0,0,0,0,0,0,0,0,-1,1833,981,0,0
616,43,0,0,0,0,0,0,0,0,0,-1,1840,981,0,0
623,43,0,0,0,0,0,0,0,0,0,-1,1847,981,0,0
630,43,0,0,0,0,0,0,0,0,0,-1,1854,981,0,0
637,43,0,0,0,0,0,0,0,0,0,-1,1861,981,0,0
644,43,14.0732,1.74487,-0.000703692,0.00195156,0.00412497,0.00495729,-0.00370943,0.941089,0.00502099,0.0369942,1868,981,14.0732,-1.74486
651,43,14.0928,1.69098,4.49819e-05,0.00136923,0.00287922,0.00366148,-0.00224727,0.898417,0.00344383,0.0350129,1875,981,14.0928,-1.691
658,43,14.1071,1.91736,0.00040172,0.000973526,0.00210806,0.00281498,-0.00143974,0.852799,0.00249887,0.0384195,1882,981,14.107,-1.91736
665,43,13.9988,1.91217,0.000202687,0.000816835,0.00175872,0.00229509,-0.00127556,0.871827,0.00208934,0.040016,1889,981,13.9988,-1.91218
672,43,14.0695,1.89471,-0.000628723,0.000806472,0.00173309,0.00196465,-0.0017869,0.981681,0.00216677,0.0404043,1896,981,14.0695,-1.8947
679,43,14.0643,1.896,-0.00184316,0.000853409,0.00191637,0.00184828,-0.00283802,1.09195,0.00272568,0.0401841,1903,981,14.0643,-1.89597
686,43,14.0968,1.82269,-0.00301692,0.000906424,0.00215991,0.00186252,-0.00397301,1.15407,0.00344181,0.0400473,1910,981,14.0968,-1.82267
693,43,14.1229,1.71985,-0.00403609,0.000964712,0.00237239,0.00191109,-0.00498246,1.19123,0.00410956,0.0367318,1917,981,14.1229,-1.71987
700,43,14.123,1.84064,-0.00493026,0.000927988,0.00253167,0.00187044,-0.00587271,1.21443,0.00466532,0.0302308,1924,981,14.123,-1.84062
707,43,14.1166,1.95374,-0.00567398,0.000971686,0.00257062,0.00184996,-0.00655225,1.24157,0.00509796,0.0232214,1931,981,14.1166,-1.95373
714,43,14.1305,2.06305,-0.00607003,0.00101893,0.00255123,0.00184161,-0.00689271,1.25886,0.00531642,0.0261223,1938,981,14.1305,-2.06302
721,43,13.8992,2.29803,-0.00615668,0.00110505,0.00245681,0.00185814,-0.00690977,1.27336,0.00533488,0.0264926,1945,981,13.8992,-2.29806
728,43,13.6399,2.42334,-0.00577644,0.00112748,0.00226343,0.00180337,-0.00645233,1.28061,0.00501201,0.0181576,1952,981,13.6399,-2.42332
735,43,13.5739,2.50616,-0.00466674,0.0012355,0.00236296,0.00206495,-0.00549619,1.23321,0.00451277,0.0135761,1959,981,13.5738,-2.50614
742,43,13.5963,2.55139,-0.00299483,0.000676917,0.00276879,0.00216319,-0.0044811,1.07815,0.00391312,0.0159246,1966,981,13.5963,-2.5514
749,43,13.5931,2.60333,-0.00107747,-0.000360852,0.0031287,0.00242999,-0.00386831,0.842411,0.0036678,0.0174925,1973,981,13.5931,-2.60336
756,43,13.5615,2.6582,0.00137966,-0.00181592,0.00411532,0.00419648,-0.00463274,0.600228,0.00509963,0.0155974,1980,981,13.5615,-2.65818
763,43,13.5471,2.7077,0.0043405,-0.00366072,0.00550823,0.00714764,-0.00646787,0.471319,0.00786418,0.0177298,1987,981,13.5472,-2.70768
770,43,13.557,2.73035,0.00762092,-0.00644928,0.00781564,0.0111014,-0.00992973,0.418954,0.0121486,0.0148807,1994,981,13.557,-2.73036
777,43,13.5573,2.73822,0.010993,-0.0105338,0.0112529,0.0158014,-0.0153421,0.403814,0.0179814,0.020104,2001,981,13.5573,-2.73822
784,43,13.5657,2.76837,0.0143669,-0.0164445,0.0160108,0.0211802,-0.0232578,0.402328,0.0256656,0.0442901,2008,981,13.5657,-2.76839
791,43,13.5801,2.78992,0,0,0,0,0,0,0,-1,2015,981,13.5801,-2.78992
798,43,14.8333,2.63141,0,0,0,0,0,0,0,-1,2022,981,14.8332,-2.63139
805,43,15.0616,3.0752,0,0,0,0,0,0,0,-1,2029,981,15.0617,-3.0752
812,43,14.4866,3.07141,0,0,0,0,0,0,0,-1,2036,981,14.4866,-3.07139
-700,36,0,0,0,0,0,0,0,0,0,-1,524,988,0,0
-693,36,-6.61646,0.849487,0.0547864,-0.0259063,0.0434046,0.0737004,-0.0448203,0.410949,0.0691018,0.0464787,531,988,-6.61644,-0.849469
-686,36,-6.26526,1.45624,0.0434107,-0.0231704,0.0272827,0.0531621,-0.0329218,0.343269,0.0501564,0.0449362,538,988,-6.26528,-1.45623
-679,36,-9.20422,-1.63483,0,0,0,0,0,0,0,-1,545,988,-9.2042,1.63482
-672,36,-8.47809,0.526978,0,0,0,0,0,0,0,-1,552,988,-8.47808,-0.526998
-665,36,-9.01971,0.425659,0,0,0,0,0,0,0,-1,559,988,-9.01971,-0.42566
-658,36,-8.76306,0.487183,0.013964,-0.00879647,0.000975158,0.0140057,-0.00883817,0.04274,0.0133009,0.0453112,566,988,-8.76306,-0.487198
-651,36,-8.40594,0.544495,0.00976954,-0.00602372,-0.000624259,0.00979418,-0.00604835,-0.0394449,0.00923152,0.0333096,573,988,-8.40591,-0.544517
-644,36,-8.28052,0.700439,0.00657213,-0.00383223,-0.00132756,0.00673885,-0.00399896,-0.12493,0.00626639,0.0176755,580,988,-8.28049,-0.700412
-637,36,-8.2746,0.764771,0.00348944,-0.00234863,-0.00243129,0.00436935,-0.00322854,-0.347244,0.00440309,0.0130111,587,988,-8.27457,-0.764753
-630,36,-8.27814,0.738464,0.0013941,-0.00113153,-0.00305473,0.00343675,-0.00317418,-0.589397,0.00381782,0.0117975,594,988,-8.27813,-0.738474
-623,36,-8.27734,0.682068,0.000267045,0.000292959,-0.00243623,0.00271627,-0.00215626,-0.788057,0.00281934,0.0116851,601,988,-8.27736,-0.682088
-616,36,-8.27106,0.652954,-0.000350139,0.000786206,-0.00178901,0.0020951,-0.00165904,-0.939156,0.00217232,0.00980682,608,988,-8.27105,-0.652952
-609,36,-8.25269,0.646912,-0.000793066,0.000788102,-0.00137359,0.00158237,-0.00158734,-1.04653,0.00183003,0.0153218,615,988,-8.25271,-0.646911
-602,36,-8.2608,0.614685,-0.0011891,0.000736623,-0.00135864,0.001439,-0.00189148,-1.09367,0.00192876,0.0190358,622,988,-8.26081,-0.614674
-595,36,-8.26007,0.562866,-0.0015039,0.000758284,-0.00153195,0.00153146,-0.00227707,-1.1034,0.00221286,0.0190508,629,988,-8.26009,-0.562863
-588,36,-8.27606,0.459961,-0.00152747,0.000816701,-0.00182611,0.00181451,-0.00252528,-1.07071,0.00251676,0.0178791,636,988,-8.27609,-0.459985
-581,36,-8.33484,0.305481,-0.00114879,0.000835472,-0.00201865,0.00209262,-0.00240594,-1.0138,0.00259935,0.0219433,643,988,-8.33484,-0.305486
-574,36,-8.34265,0.259827,-0.000650992,0.00101928,-0.00219695,0.00253447,-0.00216618,-0.967031,0.0027167,0.0261752,650,988,-8.34263,-0.259852
-567,36,-8.3205,0.192505,-7.77137e-05,0.0013048,-0.00224231,0.00295999,-0.0017329,-0.934915,0.00274014,0.034967,657,988,-8.32049,-0.192497
-560,36,-8.28619,0.112366,0.000790124,0.00158553,-0.00231159,0.00353338,-0.00115773,-0.870588,0.0028218,0.0410387,664,988,-8.28619,-0.112363
-553,36,-8.32446,0.401917,0.00198837,0.00190423,-0.00248687,0.00443352,-0.000540931,-0.77694,0.00315151,0.0432833,671,988,-8.32446,-0.401915
-546,36,-8.19775,0.646667,0.00355318,0.00224466,-0.00286531,0.00583798,-4.01391e-05,-0.673154,0.00390543,0.0456075,678,988,-8.19775,-0.646676
-539,36,-8.1886,-0.101257,0,0,0,0,0,0,0,-1,685,988,-8.1886,0.101277
-532,36,-8.14508,-0.259888,0,0,0,0,0,0,0,-1,692,988,-8.14507,0.259899
-525,36,-7.96686,-0.344849,0,0,0,0,0,0,0,-1,699,988,-7.96689,0.344868
-518,36,0,0,0,0,0,0,0,0,0,-1,706,988,0,0
-511,36,0,0,0,0,0,0,0,0,0,-1,713,988,0,0
-504,36,0,0,0,0,0,0,0,0,0,-1,720,988,0,0
-497,36,0,0,0,0,0,0,0,0,0,-1,727,988,0,0
-490,36,0,0,0,0,0,0,0,0,0,-1,734,988,0,0
-483,36,0,0,0,0,0,0,0,0,0,-1,741,988,0,0
-476,36,0,0,0,0,0,0,0,0,0,-1,748,988,0,0
-469,36,0,0,0,0,0,0,0,0,0,-1,755,988,0,0
-462,36,0,0,0,0,0,0,0,0,0,-1,762,988,0,0
-455,36,0,0,0,0,0,0,0,0,0,-1,769,988,0,0
-448,36,0,0,0,0,0,0,0,0,0,-1,776,988,0,0
-441,36,0,0,0,0,0,0,0,0,0,-1,783,988,0,0
-434,36,0,0,0,0,0,0,0,0,0,-1,790,988,0,0
-427,36,0,0,0,0,0,0,0,0,0,-1,797,988,0,0
-420,36,0,0,0,0,0,0,0,0,0,-1,804,988,0,0
-413,36,0,0,0,0,0,0,0,0,0,-1,811,988,0,0
-406,36,0,0,0,0,0,0,0,0,0,-1,818,988,0,0
-399,36,0,0,0,0,0,0,0,0,0,-1,825,988,0,0
-392,36,0,0,0,0,0,0,0,0,0,-1,832,988,0,0
-385,36,0,0,0,0,0,0,0,0,0,-1,839,988,0,0
-378,36,0,0,0,0,0,0,0,0,0,-1,846,988,0,0
-371,36,0,0,0,0,0,0,0,0,0,-1,853,988,0,0
-364,36,0,0,0,0,0,0,0,0,0,-1,860,988,0,0
-357,36,0,0,0,0,0,0,0,0,0,-1,867,988,0,0
-350,36,0,0,0,0,0,0,0,0,0,-1,874,988,0,0
-343,36,0,0,0,0,0,0,0,0,0,-1,881,988,0,0
-336,36,0,0,0,0,0,0,0,0,0,-1,888,988,0,0
-329,36,0,0,0,0,0,0,0,0,0,-1,895,988,0,0
-322,36,0,0,0,0,0,0,0,0,0,-1,902,988,0,0
-315,36,0,0,0,0,0,0,0,0,0,-1,909,988,0,0
-308,36,0,0,0,0,0,0,0,0,0,-1,916,988,0,0
-301,36,0,0,0,0,0,0,0,0,0,-1,923,988,0,0
-294,36,0,0,0,0,0,0,0,0,0,-1,930,988,0,0
-287,36,0,0,0,0,0,0,0,0,0,-1,937,988,0,0
-280,36,0,0,0,0,0,0,0,0,0,-1,944,988,0,0
-273,36,0,0,0,0,0,0,0,0,0,-1,951,988,0,0
-266,36,0,0,0,0,0,0,0,0,0,-1,958,988,0,0
-259,36,0,0,0,0,0,0,0,0,0,-1,965,988,0,0
-252,36,0,0,0,0,0,0,0,0,0,-1,972,988,0,0
-245,36,0,0,0,0,0,0,0,0,0,-1,979,988,0,0
-238,36,0,0,0,0,0,0,0,0,0,-1,986,988,0,0
-231,36,0,0,0,0,0,0,0,0,0,-1,993,988,0,0
-224,36,0,0,0,0,0,0,0,0,0,-1,1000,988,0,0
-217,36,0,0,0,0,0,0,0,0,0,-1,1007,988,0,0
-210,36,0,0,0,0,0,0,0,0,0,-1,1014,988,0,0
-203,36,0,0,0,0,0,0,0,0,0,-1,1021,988,0,0
-196,36,0,0,0,0,0,0,0,0,0,-1,1028,988,0,0
-189,36,0,0,0,0,0,0,0,0,0,-1,1035,988,0,0
-182,36,0,0,0,0,0,0,0,0,0,-1,1042,988,0,0
-175,36,0,0,0,0,0,0,0,0,0,-1,1049,988,0,0
-168,36,0,0,0,0,0,0,0,0,0,-1,1056,988,0,0
-161,36,0,0,0,0,0,0,0,0,0,-1,1063,988,0,0
-154,36,0,0,0,0,0,0,0,0,0,-1,1070,988,0,0
-147,36,0,0,0,0,0,0,0,0,0,-1,1077,988,0,0
-140,36,0,0,0,0,0,0,0,0,0,-1,1084,988,0,0
-133,36,0,0,0,0,0,0,0,0,0,-1,1091,988,0,0
-126,36,0,0,0,0,0,0,0,0,0,-1,1098,988,0,0
-119,36,0,0,0,0,0,0,0,0,0,-1,1105,988,0,0
-112,36,0,0,0,0,0,0,0,0,0,-1,1112,988,0,0
-105,36,0,0,0,0,0,0,0,0,0,-1,1119,988,0,0
-98,36,0,0,0,0,0,0,0,0,0,-1,1126,988,0,0
-91,36,0,0,0,0,0,0,0,0,0,-1,1133,988,0,0
-84,36,0,0,0,0,0,0,0,0,0,-1,1140,988,0,0
-77,36,0,0,0,0,0,0,0,0,0,-1,1147,988,0,0
-70,36,0,0,0,0,0,0,0,0,0,-1,1154,988,0,0
-63,36,0,0,0,0,0,0,0,0,0,-1,1161,988,0,0
-56,36,0,0,0,0,0,0,0,0,0,-1,1168,988,0,0
-49,36,0,0,0,0,0,0,0,0,0,-1,1175,988,0,0
-42,36,0,0,0,0,0,0,0,0,0,-1,1182,988,0,0
-35,36,0,0,0,0,0,0,0,0,0,-1,1189,988,0,0
-28,36,0,0,0,0,0,0,0,0,0,-1,1196,988,0,0
-21,36,0,0,0,0,0,0,0,0,0,-1,1203,988,0,0
-14,36,0,0,0,0,0,0,0,0,0,-1,1210,988,0,0
-7,36,0,0,0,0,0,0,0,0,0,-1,1217,988,0,0
0,36,0,0,0,0,0,0,0,0,0,-1,1224,988,0,0
7,36,0,0,0,0,0,0,0,0,0,-1,1231,988,0,0
14,36,0,0,0,0,0,0,0,0,0,-1,1238,988,0,0
21,36,0,0,0,0,0,0,0,0,0,-1,1245,988,0,0
28,36,0,0,0,0,0,0,0,0,0,-1,1252,988,0,0
35,36,0,0,0,0,0,0,0,0,0,-1,1259,988,0,0
42,36,0,0,0,0,0,0,0,0,0,-1,1266,988,0,0
49,36,0,0,0,0,0,0,0,0,0,-1,1273,988,0,0
56,36,0,0,0,0,0,0,0,0,0,-1,1280,988,0,0
63,36,0,0,0,0,0,0,0,0,0,-1,1287,988,0,0
70,36,0,0,0,0,0,0,0,0,0,-1,1294,988,0,0
77,36,0,0,0,0,0,0,0,0,0,-1,1301,988,0,0
84,36,0,0,0,0,0,0,0,0,0,-1,1308,988,0,0
91,36,0,0,0,0,0,0,0,0,0,-1,1315,988,0,0
98,36,0,0,0,0,0,0,0,0,0,-1,1322,988,0,0
105,36,0,0,0,0,0,0,0,0,0,-1,1329,988,0,0
112,36,0,0,0,0,0,0,0,0,0,-1,1336,988,0,0
119,36,0,0,0,0,0,0,0,0,0,-1,1343,988,0,0
126,36,0,0,0,0,0,0,0,0,0,-1,1350,988,0,0
133,36,0,0,0,0,0,0,0,0,0,-1,1357,988,0,0
140,36,0,0,0,0,0,0,0,0,0,-1,1364,988,0,0
147,36,0,0,0,0,0,0,0,0,0,-1,1371,988,0,0
154,36,0,0,0,0,0,0,0,0,0,-1,1378,988,0,0
161,36,0,0,0,0,0,0,0,0,0,-1,1385,988,0,0
168,36,0,0,0,0,0,0,0,0,0,-1,1392,988,0,0
175,36,0,0,0,0,0,0,0,0,0,-1,1399,988,0,0
182,36,0,0,0,0,0,0,0,0,0,-1,1406,988,0,0
189,36,0,0,0,0,0,0,0,0,0,-1,1413,988,0,0
196,36,0,0,0,0,0,0,0,0,0,-1,1420,988,0,0
203,36,0,0,0,0,0,0,0,0,0,-1,1427,988,0,0
210,36,0,0,0,0,0,0,0,0,0,-1,1434,988,0,0
217,36,0,0,0,0,0,0,0,0,0,-1,1441,988,0,0
224,36,0,0,0,0,0,0,0,0,0,-1,1448,988,0,0
231,36,0,0,0,0,0,0,0,0,0,-1,1455,988,0,0
238,36,0,0,0,0,0,0,0,0,0,-1,1462,988,0,0
245,36,0,0,0,0,0,0,0,0,0,-1,1469,988,0,0
252,36,0,0,0,0,0,0,0,0,0,-1,1476,988,0,0
259,36,0,0,0,0,0,0,0,0,0,-1,1483,988,0,0
266,36,0,0,0,0,0,0,0,0,0,-1,1490,988,0,0
273,36,0,0,0,0,0,0,0,0,0,-1,1497,988,0,0
280,36,0,0,0,0,0,0,0,0,0,-1,1504,988,0,0
287,36,0,0,0,0,0,0,0,0,0,-1,1511,988,0,0
294,36,0,0,0,0,0,0,0,0,0,-1,1518,988,0,0
301,36,0,0,0,0,0,0,0,0,0,-1,1525,988,0,0
308,36,0,0,0,0,0,0,0,0,0,-1,1532,988,0,0
315,36,0,0,0,0,0,0,0,0,0,-1,1539,988,0,0
322,36,0,0,0,0,0,0,0,0,0,-1,1546,988,0,0
329,36,0,0,0,0,0,0,0,0,0,-1,1553,988,0,0
336,36,0,0,0,0,0,0,0,0,0,-1,1560,988,0,0
343,36,0,0,0,0,0,0,0,0,0,-1,1567,988,0,0
350,36,0,0,0,0,0,0,0,0,0,-1,1574,988,0,0
357,36,0,0,0,0,0,0,0,0,0,-1,1581,988,0,0
364,36,0,0,0,0,0,0,0,0,0,-1,1588,988,0,0
371,36,0,0,0,0,0,0,0,0,0,-1,1595,988,0,0
378,36,0,0,0,0,0,0,0,0,0,-1,1602,988,0,0
385,36,0,0,0,0,0,0,0,0,0,-1,1609,988,0,0
392,36,0,0,0,0,0,0,0,0,0,-1,1616,988,0,0
399,36,0,0,0,0,0,0,0,0,0,-1,1623,988,0,0
406,36,0,0,0,0,0,0,0,0,0,-1,1630,988,0,0
413,36,0,0,0,0,0,0,0,0,0,-1,1637,988,0,0
420,36,0,0,0,0,0,0,0,0,0,-1,1644,988,0,0
427,36,0,0,0,0,0,0,0,0,0,-1,1651,988,0,0
434,36,0,0,0,0,0,0,0,0,0,-1,1658,988,0,0
441,36,0,0,0,0,0,0,0,0,0,-1,1665,988,0,0
448,36,0,0,0,0,0,0,0,0,0,-1,1672,988,0,0
455,36,0,0,0,0,0,0,0,0,0,-1,1679,988,0,0
462,36,0,0,0,0,0,0,0,0,0,-1,1686,988,0,0
469,36,0,0,0,0,0,0,0,0,0,-1,1693,988,0,0
476,36,0,0,0,0,0,0,0,0,0,-1,1700,988,0,0
483,36,0,0,0,0,0,0,0,0,0,-1,1707,988,0,0
490,36,0,0,0,0,0,0,0,0,0,-1,1714,988,0,0
497,36,0,0,0,0,0,0,0,0,0,-1,1721,988,0,0
504,36,0,0,0,0,0,0,0,0,0,-1,1728,988,0,0
511,36,0,0,0,0,0,0,0,0,0,-1,1735,988,0,0
518,36,0,0,0,0,0,0,0,0,0,-1,1742,988,0,0
525,36,0,0,0,0,0,0,0,0,0,-1,1749,988,0,0
532,36,0,0,0,0,0,0,0,0,0,-1,1756,988,0,0
539,36,0,0,0,0,0,0,0,0,0,-1,1763,988,0,0
546,36,0,0,0,0,0,0,0,0,0,-1,1770,988,0,0
553,36,0,0,0,0,0,0,0,0,0,-1,1777,988,0,0
560,36,0,0,0,0,0,0,0,0,0,-1,1784,988,0,0
567,36,0,0,0,0,0,0,0,0,0,-1,1791,988,0,0
574,36,0,0,0,0,0,0,0,0,0,-1,1798,988,0,0
581,36,0,0,0,0,0,0,0,0,0,-1,1805,988,0,0
588,36,0,0,0,0,0,0,0,0,0,-1,1812,988,0,0
595,36,0,0,0,0,0,0,0,0,0,-1,1819,988,0,0
602,36,0,0,0,0,0,0,0,0,0,-1,1826,988,0,0
609,36,0,0,0,0,0,0,0,0,0,-1,1833,988,0,0
616,36,0,0,0,0,0,0,0,0,0,-1,1840,988,0,0
623,36,0,0,0,0,0,0,0,0,0,-1,1847,988,0,0
630,36,0,0,0,0,0,0,0,0,0,-1,1854,988,0,0
637,36,0,0,0,0,0,0,0,0,0,-1,1861,988,0,0
644,36,14.12,1.70795,-0.000379368,0.00246466,0.00377189,0.00507369,-0.00298839,0.965661,0.00470626,0.0375852,1868,988,14.1201,-1.70792
651,36,14.0901,1.71667,0.00021865,0.00175002,0.00253638,0.00363377,-0.00166509,0.93199,0.00312889,0.0370877,1875,988,14.0901,-1.71666
658,36,14.1233,1.85242,0.000521035,0.00123068,0.00176074,0.00267199,-0.000920273,0.884827,0.00215462,0.0373668,1882,988,14.1233,-1.85241
665,36,14.1593,2.08405,0.000423313,0.000975368,0.00141729,0.00214326,-0.000744579,0.881573,0.00173125,0.038988,1889,988,14.1594,-2.08407
672,36,14.1211,2.05884,-0.000260926,0.000906925,0.0014395,0.00187642,-0.00123042,0.97808,0.00180661,0.0405162,1896,988,14.121,-2.05881
679,36,14.0704,1.96838,-0.00137547,0.000921336,0.00169753,0.00182243,-0.00227657,1.08279,0.0023714,0.0409437,1903,988,14.0704,-1.96837
686,36,13.9724,1.7605,-0.00247833,0.00095662,0.00202682,0.00189578,-0.00341749,1.13688,0.00310927,0.0395761,1910,988,13.9725,-1.76052
693,36,14.1089,1.71008,-0.00346161,0.00100808,0.00234014,0.0020091,-0.00446262,1.16659,0.00382491,0.0400354,1917,988,14.1088,-1.71011
700,36,14.1523,1.89075,-0.0043262,0.000965622,0.00257775,0.00201371,-0.00537429,1.18462,0.0044101,0.0347682,1924,988,14.1523,-1.89074
707,36,14.1176,1.94525,-0.00507503,0.00102267,0.00268324,0.00203525,-0.00608761,1.20995,0.0048804,0.0228855,1931,988,14.1175,-1.94526
714,36,14.1283,2.02478,-0.00552549,0.00107488,0.00271284,0.00204679,-0.00649739,1.22678,0.00515123,0.0229717,1938,988,14.1283,-2.02478
721,36,14.021,2.28436,-0.00568423,0.00116655,0.00267183,0.00208535,-0.00660303,1.23958,0.0052374,0.029114,1945,988,14.021,-2.28439
728,36,13.7759,2.46399,-0.00542329,0.00119693,0.00252795,0.00205184,-0.0062782,1.24469,0.00501144,0.0194993,1952,988,13.7759,-2.464
735,36,13.6362,2.53326,-0.00451552,0.00130846,0.00262606,0.00231767,-0.00552474,1.20389,0.00465231,0.0167768,1959,988,13.6363,-2.53325
742,36,13.64,2.57886,-0.00312569,0.000933672,0.0030675,0.00258219,-0.00477421,1.07767,0.00430961,0.0146522,1966,988,13.64,-2.57886
749,36,13.6541,2.61194,-0.00148045,8.12064e-05,0.00353846,0.00292397,-0.00432321,0.893992,0.00421008,0.01583,1973,988,13.654,-2.61193
756,36,13.624,2.63544,0.000651756,-0.00122191,0.00464209,0.00445061,-0.00502076,0.685829,0.0054716,0.0129912,1980,988,13.624,-2.63542
763,36,13.618,2.68866,0.00323927,-0.0028077,0.00617603,0.00709218,-0.00666061,0.557771,0.00794148,0.0137266,1987,988,13.618,-2.68868
770,36,13.6316,2.71814,0.00615737,-0.00523675,0.0087094,0.0108675,-0.00994691,0.495762,0.0120211,0.0122534,1994,988,13.6316,-2.71811
777,36,13.6187,2.72357,0.0091595,-0.00883473,0.0125276,0.015586,-0.0152612,0.473985,0.01781,0.0208512,2001,988,13.6186,-2.72355
784,36,13.7749,2.46991,0.0120765,-0.0141074,0.0178498,0.0211208,-0.0231518,0.468986,0.0255697,0.042929,2008,988,13.7749,-2.46994
791,36,13.9232,2.23297,0,0,0,0,0,0,0,-1,2015,988,13.9232,-2.23297
798,36,14.5723,2.91559,0.019039,-0.0324597,0.0338747,0.0358399,-0.0492606,0.46042,0.049336,0.0460553,2022,988,14.5723,-2.91557
805,36,14.5537,3.52295,0.0225381,-0.0472473,0.0451938,0.0447417,-0.0694509,0.45666,0.0664416,0.0473199,2029,988,14.5537,-3.52295
812,36,14.5249,3.45966,0,0,0,0,0,0,0,-1,2036,988,14.5248,-3.45964
-700,29,0,0,0,0,0,0,0,0,0,-1,524,995,0,0
-693,29,-6.99359,1.20935,0,0,0,0,0,0,0,-1,531,995,-6.9936,-1.20937
-686,29,-8.63831,-1.72217,0,0,0,0,0,0,0,-1,538,995,-8.6383,1.72214
-679,29,-8.59845,-1.01312,0,0,0,0,0,0,0,-1,545,995,-8.59842,1.0131
-672,29,-8.25122,-0.329346,0,0,0,0,0,0,0,-1,552,995,-8.25125,0.329334
-665,29,-8.48529,0.482971,0.0175353,-0.0108161,0.00790864,0.0195921,-0.012873,0.254445,0.0188771,0.0437423,559,995,-8.48528,-0.482941
-658,29,-8.43549,0.458923,0.0121593,-0.00813206,0.00395589,0.0129033,-0.008876,0.185888,0.0126457,0.044199,566,995,-8.43551,-0.458902
-651,29,-8.29065,0.584045,0.0080707,-0.00579141,0.00150219,0.00823161,-0.00595232,0.106716,0.00822427,0.0365129,573,995,-8.29064,-0.584059
-644,29,-8.25208,0.717773,0.00508969,-0.00387735,7.50121e-05,0.00509032,-0.00387798,0.00836454,0.00519359,0.0187519,580,995,-8.2521,-0.717782
-637,29,-8.29248,0.740051,0.00219024,-0.00266103,-0.00163918,0.00269216,-0.00316295,-0.29714,0.00338409,0.0127157,587,995,-8.2925,-0.740072
-630,29,-8.30652,0.731995,0.000351625,-0.00159184,-0.00271737,0.00226578,-0.00350599,-0.613683,0.00335788,0.0103055,594,995,-8.3065,-0.73202
-623,29,-8.30035,0.702881,-0.00043262,-0.000154429,-0.00241666,0.00212714,-0.00271419,-0.814145,0.00280198,0.00956028,601,995,-8.30033,-0.702851
-616,29,-8.28888,0.664673,-0.000714428,0.000484277,-0.00199382,0.00196688,-0.00219703,-0.931404,0.00240526,0.0127169,608,995,-8.28891,-0.664663
-609,29,-8.28802,0.651367,-0.00090353,0.000469926,-0.00170101,0.0016176,-0.0020512,-0.977252,0.00212311,0.0206897,615,995,-8.28801,-0.651382
-602,29,-8.30383,0.608948,-0.0010469,0.000502988,-0.0016991,0.00159552,-0.00213944,-0.999352,0.00216399,0.0211657,622,995,-8.30382,-0.608964
-595,29,-8.30231,0.5401,-0.00117149,0.00052257,-0.00180973,0.00167368,-0.0023226,-1.00428,0.00231737,0.0184482,629,995,-8.30232,-0.540088
-588,29,-8.32849,0.400269,-0.00114516,0.00055093,-0.0020387,0.00191093,-0.00250517,-0.982498,0.00255732,0.0228095,636,995,-8.3285,-0.400246
-581,29,-8.35529,0.312744,-0.000795798,0.000488643,-0.00214264,0.00208324,-0.0023904,-0.931004,0.00258488,0.0344616,643,995,-8.35528,-0.312755
-574,29,-8.33282,0.260864,-0.000338835,0.000588026,-0.0021872,0.00236035,-0.00211116,-0.889796,0.00258297,0.0308181,650,995,-8.33283,-0.260891
-567,29,-8.35852,0.228577,0.000173112,0.00074371,-0.00208655,0.00256438,-0.00164755,-0.853343,0.00245089,0.0329002,657,995,-8.35851,-0.228591
-560,29,-8.57501,0.458069,0.000929251,0.000902197,-0.00196484,0.00288061,-0.00104916,-0.781956,0.00234955,0.0390986,664,995,-8.575,-0.458052
-553,29,-8.58575,0.633911,0.00195265,0.00106676,-0.00190462,0.00346515,-0.000445738,-0.671148,0.00247211,0.0421538,671,995,-8.58575,-0.633912
-546,29,-8.34674,0.42218,0.00326773,0.00120694,-0.00201136,0.00449726,-2.25937e-05,-0.548683,0.00300573,0.0433418,678,995,-8.34673,-0.422172
-539,29,-8.31891,0.10437,0.00493614,0.00130333,-0.00249279,0.00620411,3.53616e-05,-0.470545,0.00412433,0.0446936,685,995,-8.31893,-0.104383
-532,29,-8.13409,-0.173645,0.00680175,0.00145304,-0.00366471,0.00866416,-0.000409375,-0.470188,0.00591729,0.0469479,692,995,-8.13408,0.173662
-525,29,-7.75446,-0.302917,0,0,0,0,0,0,0,-1,699,995,-7.75448,0.302889
-518,29,0,0,0,0,0,0,0,0,0,-1,706,995,0,0
-511,29,0,0,0,0,0,0,0,0,0,-1,713,995,0,0
-504,29,0,0,0,0,0,0,0,0,0,-1,720,995,0,0
-497,29,0,0,0,0,0,0,0,0,0,-1,727,995,0,0
-490,29,0,0,0,0,0,0,0,0,0,-1,734,995,0,0
-483,29,0,0,0,0,0,0,0,0,0,-1,741,995,0,0
-476,29,0,0,0,0,0,0,0,0,0,-1,748,995,0,0
-469,29,0,0,0,0,0,0,0,0,0,-1,755,995,0,0
-462,29,0,0,0,0,0,0,0,0,0,-1,762,995,0,0
-455,29,0,0,0,0,0,0,0,0,0,-1,769,995,0,0
-448,29,0,0,0,0,0,0,0,0,0,-1,776,995,0,0
-441,29,0,0,0,0,0,0,0,0,0,-1,783,995,0,0
-434,29,0,0,0,0,0,0,0,0,0,-1,790,995,0,0
-427,29,0,0,0,0,0,0,0,0,0,-1,797,995,0,0
-420,29,0,0,0,0,0,0,0,0,0,-1,804,995,0,0
-413,29,0,0,0,0,0,0,0,0,0,-1,811,995,0,0
-406,29,0,0,0,0,0,0,0,0,0,-1,818,995,0,0
-399,29,0,0,0,0,0,0,0,0,0,-1,825,995,0,0
-392,29,0,0,0,0,0,0,0,0,0,-1,832,995,0,0
-385,29,0,0,0,0,0,0,0,0,0,-1,839,995,0,0
-378,29,0,0,0,0,0,0,0,0,0,-1,846,995,0,0
-371,29,0,0,0,0,0,0,0,0,0,-1,853,995,0,0
-364,29,0,0,0,0,0,0,0,0,0,-1,860,995,0,0
-357,29,0,0,0,0,0,0,0,0,0,-1,867,995,0,0
-350,29,0,0,0,0,0,0,0,0,0,-1,874,995,0,0
-343,29,0,0,0,0,0,0,0,0,0,-1,881,995,0,0
-336,29,0,0,0,0,0,0,0,0,0,-1,888,995,0,0
-329,29,0,0,0,0,0,0,0,0,0,-1,895,995,0,0
-322,29,0,0,0,0,0,0,0,0,0,-1,902,995,0,0
-315,29,0,0,0,0,0,0,0,0,0,-1,909,995,0,0
-308,29,0,0,0,0,0,0,0,0,0,-1,916,995,0,0
-301,29,0,0,0,0,0,0,0,0,0,-1,923,995,0,0
-294,29,0,0,0,0,0,0,0,0,0,-1,930,995,0,0
-287,29,0,0,0,0,0,0,0,0,0,-1,937,995,0,0
-280,29,0,0,0,0,0,0,0,0,0,-1,944,995,0,0
-273,29,0,0,0,0,0,0,0,0,0,-1,951,995,0,0
-266,29,0,0,0,0,0,0,0,0,0,-1,958,995,0,0
-259,29,0,0,0,0,0,0,0,0,0,-1,965,995,0,0
-252,29,0,0,0,0,0,0,0,0,0,-1,972,995,0,0
-245,29,0,0,0,0,0,0,0,0,0,-1,979,995,0,0
-238,29,0,0,0,0,0,0,0,0,0,-1,986,995,0,0
-231,29,0,0,0,0,0,0,0,0,0,-1,993,995,0,0
-224,29,0,0,0,0,0,0,0,0,0,-1,1000,995,0,0
-217,29,0,0,0,0,0,0,0,0,0,-1,1007,995,0,0
-210,29,0,0,0,0,0,0,0,0,0,-1,1014,995,0,0
-203,29,0,0,0,0,0,0,0,0,0,-1,1021,995,0,0
-196,29,0,0,0,0,0,0,0,0,0,-1,1028,995,0,0
-189,29,0,0,0,0,0,0,0,0,0,-1,1035,995,0,0
-182,29,0,0,0,0,0,0,0,0,0,-1,1042,995,0,0
-175,29,0,0,0,0,0,0,0,0,0,-1,1049,995,0,0
-168,29,0,0,0,0,0,0,0,0,0,-1,1056,995,0,0
-161,29,0,0,0,0,0,0,0,0,0,-1,1063,995,0,0
-154,29,0,0,0,0,0,0,0,0,0,-1,1070,995,0,0
-147,29,0,0,0,0,0,0,0,0,0,-1,1077,995,0,0
-140,29,0,0,0,0,0,0,0,0,0,-1,1084,995,0,0
-133,29,0,0,0,0,0,0,0,0,0,-1,1091,995,0,0
-126,29,0,0,0,0,0,0,0,0,0,-1,1098,995,0,0
-119,29,0,0,0,0,0,0,0,0,0,-1,1105,995,0,0
-112,29,0,0,0,0,0,0,0,0,0,-1,1112,995,0,0
-105,29,0,0,0,0,0,0,0,0,0,-1,1119,995,0,0
-98,29,0,0,0,0,0,0,0,0,0,-1,1126,995,0,0
-91,29,0,0,0,0,0,0,0,0,0,-1,1133,995,0,0
-84,29,0,0,0,0,0,0,0,0,0,-1,1140,995,0,0
-77,29,0,0,0,0,0,0,0,0,0,-1,1147,995,0,0
-70,29,0,0,0,0,0,0,0,0,0,-1,1154,995,0,0
-63,29,0,0,0,0,0,0,0,0,0,-1,1161,995,0,0
-56,29,0,0,0,0,0,0,0,0,0,-1,1168,995,0,0
-49,29,0,0,0,0,0,0,0,0,0,-1,1175,995,0,0
-42,29,0,0,0,0,0,0,0,0,0,-1,1182,995,0,0
-35,29,0,0,0,0,0,0,0,0,0,-1,1189,995,0,0
-28,29,0,0,0,0,0,0,0,0,0,-1,1196,995,0,0
-21,29,0,0,0,0,0,0,0,0,0,-1,1203,995,0,0
-14,29,0,0,0,0,0,0,0,0,0,-1,1210,995,0,0
-7,29,0,0,0,0,0,0,0,0,0,-1,1217,995,0,0
0,29,0,0,0,0,0,0,0,0,0,-1,1224,995,0,0
7,29,0,0,0,0,0,0,0,0,0,-1,1231,995,0,0
14,29,0,0,0,0,0,0,0,0,0,-1,1238,995,0,0
21,29,0,0,0,0,0,0,0,0,0,-1,1245,995,0,0
28,29,0,0,0,0,0,0,0,0,0,-1,1252,995,0,0
35,29,0,0,0,0,0,0,0,0,0,-1,1259,995,0,0
42,29,0,0,0,0,0,0,0,0,0,-1,1266,995,0,0
49,29,0,0,0,0,0,0,0,0,0,-1,1273,995,0,0
56,29,0,0,0,0,0,0,0,0,0,-1,1280,995,0,0
63,29,0,0,0,0,0,0,0,0,0,-1,1287,995,0,0
70,29,0,0,0,0,0,0,0,0,0,-1,1294,995,0,0
77,29,0,0,0,0,0,0,0,0,0,-1,1301,995,0,0
84,29,0,0,0,0,0,0,0,0,0,-1,1308,995,0,0
91,29,0,0,0,0,0,0,0,0,0,-1,1315,995,0,0
98,29,0,0,0,0,0,0,0,0,0,-1,1322,995,0,0
105,29,0,0,0,0,0,0,0,0,0,-1,1329,995,0,0
112,29,0,0,0,0,0,0,0,0,0,-1,1336,995,0,0
119,29,0,0,0,0,0,0,0,0,0,-1,1343,995,0,0
126,29,0,0,0,0,0,0,0,0,0,-1,1350,995,0,0
133,29,0,0,0,0,0,0,0,0,0,-1,1357,995,0,0
140,29,0,0,0,0,0,0,0,0,0,-1,1364,995,0,0
147,29,0,0,0,0,0,0,0,0,0,-1,1371,995,0,0
154,29,0,0,0,0,0,0,0,0,0,-1,1378,995,0,0
161,29,0,0,0,0,0,0,0,0,0,-1,1385,995,0,0
168,29,0,0,0,0,0,0,0,0,0,-1,1392,995,0,0
175,29,0,0,0,0,0,0,0,0,0,-1,1399,995,0,0
182,29,0,0,0,0,0,0,0,0,0,-1,1406,995,0,0
189,29,0,0,0,0,0,0,0,0,0,-1,1413,995,0,0
196,29,0,0,0,0,0,0,0,0,0,-1,1420,995,0,0
203,29,0,0,0,0,0,0,0,0,0,-1,1427,995,0,0
210,29,0,0,0,0,0,0,0,0,0,-1,1434,995,0,0
217,29,0,0,0,0,0,0,0,0,0,-1,1441,995,0,0
224,29,0,0,0,0,0,0,0,0,0,-1,1448,995,0,0
231,29,0,0,0,0,0,0,0,0,0,-1,1455,995,0,0
238,29,0,0,0,0,0,0,0,0,0,-1,1462,995,0,0
245,29,0,0,0,0,0,0,0,0,0,-1,1469,995,0,0
252,29,0,0,0,0,0,0,0,0,0,-1,1476,995,0,0
259,29,0,0,0,0,0,0,0,0,0,-1,1483,995,0,0
266,29,0,0,0,0,0,0,0,0,0,-1,1490,995,0,0
273,29,0,0,0,0,0,0,0,0,0,-1,1497,995,0,0
280,29,0,0,0,0,0,0,0,0,0,-1,1504,995,0,0
287,29,0,0,0,0,0,0,0,0,0,-1,1511,995,0,0
294,29,0,0,0,0,0,0,0,0,0,-1,1518,995,0,0
301,29,0,0,0,0,0,0,0,0,0,-1,1525,995,0,0
308,29,0,0,0,0,0,0,0,0,0,-1,1532,995,0,0
315,29,0,0,0,0,0,0,0,0,0,-1,1539,995,0,0
322,29,0,0,0,0,0,0,0,0,0,-1,1546,995,0,0
329,29,0,0,0,0,0,0,0,0,0,-1,1553,995,0,0
336,29,0,0,0,0,0,0,0,0,0,-1,1560,995,0,0
343,29,0,0,0,0,0,0,0,0,0,-1,1567,995,0,0
350,29,0,0,0,0,0,0,0,0,0,-1,1574,995,0,0
357,29,0,0,0,0,0,0,0,0,0,-1,1581,995,0,0
364,29,0,0,0,0,0,0,0,0,0,-1,1588,995,0,0
371,29,0,0,0,0,0,0,0,0,0,-1,1595,995,0,0
378,29,0,0,0,0,0,0,0,0,0,-1,1602,995,0,0
385,29,0,0,0,0,0,0,0,0,0,-1,1609,995,0,0
392,29,0,0,0,0,0,0,0,0,0,-1,1616,995,0,0
399,29,0,0,0,0,0,0,0,0,0,-1,1623,995,0,0
406,29,0,0,0,0,0,0,0,0,0,-1,1630,995,0,0
413,29,0,0,0,0,0,0,0,0,0,-1,1637,995,0,0
420,29,0,0,0,0,0,0,0,0,0,-1,1644,995,0,0
427,29,0,0,0,0,0,0,0,0,0,-1,1651,995,0,0
434,29,0,0,0,0,0,0,0,0,0,-1,1658,995,0,0
441,29,0,0,0,0,0,0,0,0,0,-1,1665,995,0,0
448,29,0,0,0,0,0,0,0,0,0,-1,1672,995,0,0
455,29,0,0,0,0,0,0,0,0,0,-1,1679,995,0,0
462,29,0,0,0,0,0,0,0,0,0,-1,1686,995,0,0
469,29,0,0,0,0,0,0,0,0,0,-1,1693,995,0,0
476,29,0,0,0,0,0,0,0,0,0,-1,1700,995,0,0
483,29,0,0,0,0,0,0,0,0,0,-1,1707,995,0,0
490,29,0,0,0,0,0,0,0,0,0,-1,1714,995,0,0
497,29,0,0,0,0,0,0,0,0,0,-1,1721,995,0,0
504,29,0,0,0,0,0,0,0,0,0,-1,1728,995,0,0
511,29,0,0,0,0,0,0,0,0,0,-1,1735,995,0,0
518,29,0,0,0,0,0,0,0,0,0,-1,1742,995,0,0
525,29,0,0,0,0,0,0,0,0,0,-1,1749,995,0,0
532,29,0,0,0,0,0,0,0,0,0,-1,1756,995,0,0
539,29,0,0,0,0,0,0,0,0,0,-1,1763,995,0,0
546,29,0,0,0,0,0,0,0,0,0,-1,1770,995,0,0
553,29,0,0,0,0,0,0,0,0,0,-1,1777,995,0,0
560,29,0,0,0,0,0,0,0,0,0,-1,1784,995,0,0
567,29,0,0,0,0,0,0,0,0,0,-1,1791,995,0,0
574,29,0,0,0,0,0,0,0,0,0,-1,1798,995,0,0
581,29,0,0,0,0,0,0,0,0,0,-1,1805,995,0,0
588,29,0,0,0,0,0,0,0,0,0,-1,1812,995,0,0
595,29,0,0,0,0,0,0,0,0,0,-1,1819,995,0,0
602,29,0,0,0,0,0,0,0,0,0,-1,1826,995,0,0
609,29,0,0,0,0,0,0,0,0,0,-1,1833,995,0,0
616,29,0,0,0,0,0,0,0,0,0,-1,1840,995,0,0
623,29,0,0,0,0,0,0,0,0,0,-1,1847,995,0,0
630,29,0,0,0,0,0,0,0,0,0,-1,1854,995,0,0
637,29,0,0,0,0,0,0,0,0,0,-1,1861,995,0,0
644,29,14.1063,1.72949,7.7454e-05,0.0029969,0.00380344,0.00561112,-0.00253676,0.968625,0.00481451,0.0376074,1868,995,14.1063,-1.72949
651,29,13.9958,1.72052,0.000488771,0.00229342,0.00249139,0.00404085,-0.00125866,0.959139,0.00319714,0.0390644,1875,995,13.9958,-1.72054
658,29,14.0232,1.68787,0.000664611,0.00173301,0.00164736,0.00293062,-0.000533005,0.942186,0.00215352,0.0401693,1882,995,14.0232,-1.68784
665,29,14.1357,1.87262,0.000589346,0.00141676,0.001248,0.00231784,-0.000311735,0.945446,0.00165893,0.0386342,1889,995,14.1358,-1.87262
672,29,14.0155,2.01862,4.3552e-06,0.00129555,0.00126452,0.00206974,-0.000769838,1.02142,0.00169573,0.0371232,1896,995,14.0155,-2.01861
679,29,14.0017,1.95685,-0.00104125,0.00125717,0.0015626,0.00204765,-0.00183173,1.10246,0.00224092,0.0376715,1903,995,14.0017,-1.95685
686,29,14.0244,1.76855,-0.00209356,0.00123882,0.00195352,0.0021402,-0.00299495,1.13849,0.00297844,0.0386022,1910,995,14.0244,-1.76855
693,29,14.0803,1.88513,-0.00304551,0.00124307,0.00234282,0.00227475,-0.00407718,1.15599,0.00371618,0.039039,1917,995,14.0803,-1.88514
700,29,14.1421,1.95636,-0.00387688,0.00116171,0.00264439,0.00229476,-0.00500993,1.16599,0.00431339,0.0331177,1924,995,14.1421,-1.95633
707,29,14.0841,1.95459,-0.00461627,0.0011834,0.00281225,0.00232309,-0.00575596,1.18576,0.00480275,0.0205059,1931,995,14.0841,-1.9546
714,29,14.1129,2.05029,-0.00509818,0.00120546,0.00288825,0.00232868,-0.0062214,1.1999,0.00510408,0.0204201,1938,995,14.1129,-2.05027
721,29,14.0387,2.28833,-0.005309,0.00127356,0.00289786,0.0023675,-0.00640294,1.20984,0.00523924,0.0254736,1945,995,14.0388,-2.28835
728,29,13.7849,2.44635,-0.00515106,0.00127419,0.00280268,0.00232489,-0.00620177,1.21212,0.00508966,0.0198695,1952,995,13.785,-2.44632
735,29,13.6732,2.54358,-0.0044392,0.00136592,0.00288829,0.00255812,-0.0056314,1.17933,0.00483793,0.0152191,1959,995,13.6732,-2.54358
742,29,13.6885,2.5799,-0.00333272,0.00116975,0.00334657,0.00295182,-0.0051148,1.08148,0.00471275,0.0125477,1966,995,13.6885,-2.57989
749,29,13.7107,2.62952,-0.00197207,0.000498875,0.00388646,0.00334151,-0.00481471,0.939293,0.00473453,0.0128237,1973,995,13.7107,-2.62953
756,29,13.6912,2.66571,-0.000162047,-0.000611312,0.00503201,0.00465034,-0.0054237,0.763093,0.00582196,0.0115979,1980,995,13.6912,-2.6657
763,29,13.7063,2.68488,0.00201297,-0.00190366,0.00661721,0.00695555,-0.00684625,0.641533,0.00796856,0.0110375,1987,995,13.7063,-2.68488
770,29,13.6812,2.70288,0.00450872,-0.00391729,0.00922871,0.0104406,-0.00984916,0.571271,0.0117159,0.0118091,1994,995,13.6812,-2.70286
777,29,13.6688,2.76355,0.00709558,-0.00693738,0.0132095,0.0150364,-0.0148782,0.541263,0.0172713,0.0190325,2001,995,13.6689,-2.76353
784,29,13.8398,2.50177,0.00953741,-0.011433,0.0187989,0.0205775,-0.0224731,0.531009,0.0248633,0.0388177,2008,995,13.8399,-2.50178
791,29,14.1576,3.06134,0.012312,-0.0180492,0.026212,0.0274219,-0.0331592,0.522925,0.0350288,0.0444924,2015,995,14.1576,-3.06135
798,29,14.1156,3.46155,0.0155765,-0.0274884,0.0356977,0.0357331,-0.0476449,0.514018,0.0483018,0.0449245,2022,995,14.1156,-3.46152
805,29,14.2905,3.91101,0.0189167,-0.0406722,0.0476441,0.0453153,-0.0670708,0.505971,0.0652902,0.0459564,2029,995,14.2905,-3.91104
812,29,14.4995,4.34296,0,0,0,0,0,0,0,-1,2036,995,14.4996,-4.34298
-700,22,0,0,0,0,0,0,0,0,0,-1,524,1002,0,0
-693,22,-7.05194,1.26605,0,0,0,0,0,0,0,-1,531,1002,-7.05195,-1.26605
-686,22,-7.97009,-1.07349,0,0,0,0,0,0,0,-1,538,1002,-7.97007,1.07349
-679,22,-7.92743,-0.389526,0.0294762,-0.0122539,0.0232178,0.0398268,-0.0226045,0.419359,0.036499,0.0474463,545,1002,-7.92742,0.389499
-672,22,-7.62787,0.187622,0.0213437,-0.010184,0.015049,0.0273737,-0.016214,0.381101,0.0254389,0.0461676,552,1002,-7.62786,-0.187601
-665,22,-7.5567,0.864685,0.0149504,-0.00804015,0.00919251,0.018174,-0.0112637,0.337272,0.0171512,0.0477407,559,1002,-7.55672,-0.864699
-658,22,-8.06348,0.410095,0.0100288,-0.00602847,0.00514711,0.011537,-0.00753669,0.285044,0.0110926,0.0477347,566,1002,-8.0635,-0.410116
-651,22,-8.28558,0.69751,0.00637452,-0.00427702,0.00248769,0.00692688,-0.00482938,0.218493,0.00682339,0.0381029,573,1002,-8.28558,-0.697532
-644,22,-8.26849,0.750488,0.00378311,-0.00269826,0.000755634,0.00387004,-0.00278519,0.114539,0.00385938,0.0174942,580,1002,-8.26851,-0.750478
-637,22,-8.3009,0.730957,0.00116813,-0.00202276,-0.00124688,0.00159757,-0.0024522,-0.331686,0.00235543,0.0124474,587,1002,-8.30091,-0.730935
-630,22,-8.32062,0.721313,-0.0003601,-0.00133229,-0.0025217,0.00172192,-0.00341432,-0.690183,0.00301859,0.0101037,594,1002,-8.32061,-0.721336
-623,22,-8.32343,0.705017,-0.000843156,-0.00013941,-0.00241089,0.00194515,-0.00292772,-0.857862,0.00283235,0.00867566,601,1002,-8.32343,-0.705009
-616,22,-8.30304,0.668823,-0.000868098,0.000487677,-0.00213429,0.00204915,-0.00242957,-0.939168,0.00258889,0.0156744,608,1002,-8.30302,-0.668805
-609,22,-8.35059,0.6474,-0.000867299,0.000329907,-0.00197997,0.00179979,-0.00233718,-0.932194,0.00239519,0.026908,615,1002,-8.35057,-0.647421
-602,22,-8.38702,0.612,-0.000857135,0.00038671,-0.0020111,0.00186985,-0.00234028,-0.935357,0.00243578,0.025492,622,1002,-8.387,-0.611999
-595,22,-8.38947,0.525085,-0.000864143,0.000401716,-0.00209118,0.00195365,-0.00241607,-0.932349,0.00252756,0.020402,629,1002,-8.38946,-0.525055
-588,22,-8.35773,0.408386,-0.000812677,0.000447134,-0.00226433,0.00216754,-0.00253308,-0.921061,0.00271664,0.0262333,636,1002,-8.35774,-0.408412
-581,22,-8.36609,0.31189,-0.000534105,0.000390556,-0.00228209,0.00225667,-0.00240022,-0.885341,0.00268909,0.0366236,643,1002,-8.36609,-0.311872
-574,22,-8.35138,0.242065,-0.000163049,0.000514205,-0.00220365,0.00240509,-0.00205394,-0.861635,0.00257708,0.0325579,650,1002,-8.35137,-0.242094
-567,22,-8.34491,0.145264,0.000241329,0.000666662,-0.0019578,0.00242331,-0.00151532,-0.839499,0.00229403,0.0317711,657,1002,-8.34488,-0.145238
-560,22,-8.48975,0.227783,0.000821891,0.000850004,-0.00164527,0.00248128,-0.000809381,-0.78967,0.00197991,0.0372631,664,1002,-8.48975,-0.227773
-553,22,-8.53699,0.448303,0.00159828,0.00103347,-0.00133765,0.00268301,-5.12566e-05,-0.681366,0.001806,0.040541,671,1002,-8.53699,-0.448296
-546,22,-8.39758,0.295532,0.00258777,0.00117532,-0.00113747,0.00322042,0.000542674,-0.507585,0.00199086,0.0404487,678,1002,-8.3976,-0.295517
-539,22,-8.3559,0.158813,0.00385102,0.00122743,-0.00128099,0.00437273,0.000705715,-0.386759,0.00271071,0.0408999,685,1002,-8.35588,-0.158801
-532,22,-8.28656,0.151611,0.00523831,0.00127199,-0.00211921,0.00615756,0.000352741,-0.409275,0.00399266,0.0433348,692,1002,-8.28658,-0.151625
-525,22,0,0,0,0,0,0,0,0,0,-1,699,1002,0,0
-518,22,0,0,0,0,0,0,0,0,0,-1,706,1002,0,0
-511,22,0,0,0,0,0,0,0,0,0,-1,713,1002,0,0
-504,22,0,0,0,0,0,0,0,0,0,-1,720,1002,0,0
-497,22,0,0,0,0,0,0,0,0,0,-1,727,1002,0,0
-490,22,0,0,0,0,0,0,0,0,0,-1,734,1002,0,0
-483,22,0,0,0,0,0,0,0,0,0,-1,741,1002,0,0
-476,22,0,0,0,0,0,0,0,0,0,-1,748,1002,0,0
-469,22,0,0,0,0,0,0,0,0,0,-1,755,1002,0,0
-462,22,0,0,0,0,0,0,0,0,0,-1,762,1002,0,0
-455,22,0,0,0,0,0,0,0,0,0,-1,769,1002,0,0
-448,22,0,0,0,0,0,0,0,0,0,-1,776,1002,0,0
-441,22,0,0,0,0,0,0,0,0,0,-1,783,1002,0,0
-434,22,0,0,0,0,0,0,0,0,0,-1,790,1002,0,0
-427,22,0,0,0,0,0,0,0,0,0,-1,797,1002,0,0
-420,22,0,0,0,0,0,0,0,0,0,-1,804,1002,0,0
-413,22,0,0,0,0,0,0,0,0,0,-1,811,1002,0,0
-406,22,0,0,0,0,0,0,0,0,0,-1,818,1002,0,0
-399,22,0,0,0,0,0,0,0,0,0,-1,825,1002,0,0
-392,22,0,0,0,0,0,0,0,0,0,-1,832,1002,0,0
-385,22,0,0,0,0,0,0,0,0,0,-1,839,1002,0,0
-378,22,0,0,0,0,0,0,0,0,0,-1,846,1002,0,0
-371,22,0,0,0,0,0,0,0,0,0,-1,853,1002,0,0
-364,22,0,0,0,0,0,0,0,0,0,-1,860,1002,0,0
-357,22,0,0,0,0,0,0,0,0,0,-1,867,1002,0,0
-350,22,0,0,0,0,0,0,0,0,0,-1,874,1002,0,0
-343,22,0,0,0,0,0,0,0,0,0,-1,881,1002,0,0
-336,22,0,0,0,0,0,0,0,0,0,-1,888,1002,0,0
-329,22,0,0,0,0,0,0,0,0,0,-1,895,1002,0,0
-322,22,0,0,0,0,0,0,0,0,0,-1,902,1002,0,0
-315,22,0,0,0,0,0,0,0,0,0,-1,909,1002,0,0
-308,22,0,0,0,0,0,0,0,0,0,-1,916,1002,0,0
-301,22,0,0,0,0,0,0,0,0,0,-1,923,1002,0,0
-294,22,0,0,0,0,0,0,0,0,0,-1,930,1002,0,0
-287,22,0,0,0,0,0,0,0,0,0,-1,937,1002,0,0
-280,22,0,0,0,0,0,0,0,0,0,-1,944,1002,0,0
-273,22,0,0,0,0,0,0,0,0,0,-1,951,1002,0,0
-266,22,0,0,0,0,0,0,0,0,0,-1,958,1002,0,0
-259,22,0,0,0,0,0,0,0,0,0,-1,965,1002,0,0
-252,22,0,0,0,0,0,0,0,0,0,-1,972,1002,0,0
-245,22,0,0,0,0,0,0,0,0,0,-1,979,1002,0,0
-238,22,0,0,0,0,0,0,0,0,0,-1,986,1002,0,0
-231,22,0,0,0,0,0,0,0,0,0,-1,993,1002,0,0
-224,22,0,0,0,0,0,0,0,0,0,-1,1000,1002,0,0
-217,22,0,0,0,0,0,0,0,0,0,-1,1007,1002,0,0
-210,22,0,0,0,0,0,0,0,0,0,-1,1014,1002,0,0
-203,22,0,0,0,0,0,0,0,0,0,-1,1021,1002,0,0
-196,22,0,0,0,0,0,0,0,0,0,-1,1028,1002,0,0
-189,22,0,0,0,0,0,0,0,0,0,-1,1035,1002,0,0
-182,22,0,0,0,0,0,0,0,0,0,-1,1042,1002,0,0
-175,22,0,0,0,0,0,0,0,0,0,-1,1049,1002,0,0
-168,22,0,0,0,0,0,0,0,0,0,-1,1056,1002,0,0
-161,22,0,0,0,0,0,0,0,0,0,-1,1063,1002,0,0
-154,22,0,0,0,0,0,0,0,0,0,-1,1070,1002,0,0
-147,22,0,0,0,0,0,0,0,0,0,-1,1077,1002,0,0
-140,22,0,0,0,0,0,0,0,0,0,-1,1084,1002,0,0
-133,22,0,0,0,0,0,0,0,0,0,-1,1091,1002,0,0
-126,22,0,0,0,0,0,0,0,0,0,-1,1098,1002,0,0
-119,22,0,0,0,0,0,0,0,0,0,-1,1105,1002,0,0
-112,22,0,0,0,0,0,0,0,0,0,-1,1112,1002,0,0
-105,22,0,0,0,0,0,0,0,0,0,-1,1119,1002,0,0
-98,22,0,0,0,0,0,0,0,0,0,-1,1126,1002,0,0
-91,22,0,0,0,0,0,0,0,0,0,-1,1133,1002,0,0
-84,22,0,0,0,0,0,0,0,0,0,-1,1140,1002,0,0
-77,22,0,0,0,0,0,0,0,0,0,-1,1147,1002,0,0
-70,22,0,0,0,0,0,0,0,0,0,-1,1154,1002,0,0
-63,22,0,0,0,0,0,0,0,0,0,-1,1161,1002,0,0
-56,22,0,0,0,0,0,0,0,0,0,-1,1168,1002,0,0
-49,22,0,0,0,0,0,0,0,0,0,-1,1175,1002,0,0
-42,22,0,0,0,0,0,0,0,0,0,-1,1182,1002,0,0
-35,22,0,0,0,0,0,0,0,0,0,-1,1189,1002,0,0
-28,22,0,0,0,0,0,0,0,0,0,-1,1196,1002,0,0
-21,22,0,0,0,0,0,0,0,0,0,-1,1203,1002,0,0
-14,22,0,0,0,0,0,0,0,0,0,-1,1210,1002,0,0
-7,22,0,0,0,0,0,0,0,0,0,-1,1217,1002,0,0
0,22,0,0,0,0,0,0,0,0,0,-1,1224,1002,0,0
7,22,0,0,0,0,0,0,0,0,0,-1,1231,1002,0,0
14,22,0,0,0,0,0,0,0,0,0,-1,1238,1002,0,0
21,22,0,0,0,0,0,0,0,0,0,-1,1245,1002,0,0
28,22,0,0,0,0,0,0,0,0,0,-1,1252,1002,0,0
35,22,0,0,0,0,0,0,0,0,0,-1,1259,1002,0,0
42,22,0,0,0,0,0,0,0,0,0,-1,1266,1002,0,0
49,22,0,0,0,0,0,0,0,0,0,-1,1273,1002,0,0
56,22,0,0,0,0,0,0,0,0,0,-1,1280,1002,0,0
63,22,0,0,0,0,0,0,0,0,0,-1,1287,1002,0,0
70,22,0,0,0,0,0,0,0,0,0,-1,1294,1002,0,0
77,22,0,0,0,0,0,0,0,0,0,-1,1301,1002,0,0
84,22,0,0,0,0,0,0,0,0,0,-1,1308,1002,0,0
91,22,0,0,0,0,0,0,0,0,0,-1,1315,1002,0,0
98,22,0,0,0,0,0,0,0,0,0,-1,1322,1002,0,0
105,22,0,0,0,0,0,0,0,0,0,-1,1329,1002,0,0
112,22,0,0,0,0,0,0,0,0,0,-1,1336,1002,0,0
119,22,0,0,0,0,0,0,0,0,0,-1,1343,1002,0,0
126,22,0,0,0,0,0,0,0,0,0,-1,1350,1002,0,0
133,22,0,0,0,0,0,0,0,0,0,-1,1357,1002,0,0
140,22,0,0,0,0,0,0,0,0,0,-1,1364,1002,0,0
147,22,0,0,0,0,0,0,0,0,0,-1,1371,1002,0,0
154,22,0,0,0,0,0,0,0,0,0,-1,1378,1002,0,0
161,22,0,0,0,0,0,0,0,0,0,-1,1385,1002,0,0
168,22,0,0,0,0,0,0,0,0,0,-1,1392,1002,0,0
175,22,0,0,0,0,0,0,0,0,0,-1,1399,1002,0,0
182,22,0,0,0,0,0,0,0,0,0,-1,1406,1002,0,0
189,22,0,0,0,0,0,0,0,0,0,-1,1413,1002,0,0
196,22,0,0,0,0,0,0,0,0,0,-1,1420,1002,0,0
203,22,0,0,0,0,0,0,0,0,0,-1,1427,1002,0,0
210,22,0,0,0,0,0,0,0,0,0,-1,1434,1002,0,0
217,22,0,0,0,0,0,0,0,0,0,-1,1441,1002,0,0
224,22,0,0,0,0,0,0,0,0,0,-1,1448,1002,0,0
231,22,0,0,0,0,0,0,0,0,0,-1,1455,1002,0,0
238,22,0,0,0,0,0,0,0,0,0,-1,1462,1002,0,0
245,22,0,0,0,0,0,0,0,0,0,-1,1469,1002,0,0
252,22,0,0,0,0,0,0,0,0,0,-1,1476,1002,0,0
259,22,0,0,0,0,0,0,0,0,0,-1,1483,1002,0,0
266,22,0,0,0,0,0,0,0,0,0,-1,1490,1002,0,0
273,22,0,0,0,0,0,0,0,0,0,-1,1497,1002,0,0
280,22,0,0,0,0,0,0,0,0,0,-1,1504,1002,0,0
287,22,0,0,0,0,0,0,0,0,0,-1,1511,1002,0,0
294,22,0,0,0,0,0,0,0,0,0,-1,1518,1002,0,0
301,22,0,0,0,0,0,0,0,0,0,-1,1525,1002,0,0
308,22,0,0,0,0,0,0,0,0,0,-1,1532,1002,0,0
315,22,0,0,0,0,0,0,0,0,0,-1,1539,1002,0,0
322,22,0,0,0,0,0,0,0,0,0,-1,1546,1002,0,0
329,22,0,0,0,0,0,0,0,0,0,-1,1553,1002,0,0
336,22,0,0,0,0,0,0,0,0,0,-1,1560,1002,0,0
343,22,0,0,0,0,0,0,0,0,0,-1,1567,1002,0,0
350,22,0,0,0,0,0,0,0,0,0,-1,1574,1002,0,0
357,22,0,0,0,0,0,0,0,0,0,-1,1581,1002,0,0
364,22,0,0,0,0,0,0,0,0,0,-1,1588,1002,0,0
371,22,0,0,0,0,0,0,0,0,0,-1,1595,1002,0,0
378,22,0,0,0,0,0,0,0,0,0,-1,1602,1002,0,0
385,22,0,0,0,0,0,0,0,0,0,-1,1609,1002,0,0
392,22,0,0,0,0,0,0,0,0,0,-1,1616,1002,0,0
399,22,0,0,0,0,0,0,0,0,0,-1,1623,1002,0,0
406,22,0,0,0,0,0,0,0,0,0,-1,1630,1002,0,0
413,22,0,0,0,0,0,0,0,0,0,-1,1637,1002,0,0
420,22,0,0,0,0,0,0,0,0,0,-1,1644,1002,0,0
427,22,0,0,0,0,0,0,0,0,0,-1,1651,1002,0,0
434,22,0,0,0,0,0,0,0,0,0,-1,1658,1002,0,0
441,22,0,0,0,0,0,0,0,0,0,-1,1665,1002,0,0
448,22,0,0,0,0,0,0,0,0,0,-1,1672,1002,0,0
455,22,0,0,0,0,0,0,0,0,0,-1,1679,1002,0,0
462,22,0,0,0,0,0,0,0,0,0,-1,1686,1002,0,0
469,22,0,0,0,0,0,0,0,0,0,-1,1693,1002,0,0
476,22,0,0,0,0,0,0,0,0,0,-1,1700,1002,0,0
483,22,0,0,0,0,0,0,0,0,0,-1,1707,1002,0,0
490,22,0,0,0,0,0,0,0,0,0,-1,1714,1002,0,0
497,22,0,0,0,0,0,0,0,0,0,-1,1721,1002,0,0
504,22,0,0,0,0,0,0,0,0,0,-1,1728,1002,0,0
511,22,0,0,0,0,0,0,0,0,0,-1,1735,1002,0,0
518,22,0,0,0,0,0,0,0,0,0,-1,1742,1002,0,0
525,22,0,0,0,0,0,0,0,0,0,-1,1749,1002,0,0
532,22,0,0,0,0,0,0,0,0,0,-1,1756,1002,0,0
539,22,0,0,0,0,0,0,0,0,0,-1,1763,1002,0,0
546,22,0,0,0,0,0,0,0,0,0,-1,1770,1002,0,0
553,22,0,0,0,0,0,0,0,0,0,-1,1777,1002,0,0
560,22,0,0,0,0,0,0,0,0,0,-1,1784,1002,0,0
567,22,0,0,0,0,0,0,0,0,0,-1,1791,1002,0,0
574,22,0,0,0,0,0,0,0,0,0,-1,1798,1002,0,0
581,22,0,0,0,0,0,0,0,0,0,-1,1805,1002,0,0
588,22,0,0,0,0,0,0,0,0,0,-1,1812,1002,0,0
595,22,0,0,0,0,0,0,0,0,0,-1,1819,1002,0,0
602,22,0,0,0,0,0,0,0,0,0,-1,1826,1002,0,0
609,22,0,0,0,0,0,0,0,0,0,-1,1833,1002,0,0
616,22,0,0,0,0,0,0,0,0,0,-1,1840,1002,0,0
623,22,0,0,0,0,0,0,0,0,0,-1,1847,1002,0,0
630,22,0,0,0,0,0,0,0,0,0,-1,1854,1002,0,0
637,22,0,0,0,0,0,0,0,0,0,-1,1861,1002,0,0
644,22,13.9753,1.66357,0.000355826,0.00361544,0.00411697,0.00641347,-0.0024422,0.973871,0.00528141,0.0369919,1868,1002,13.9753,-1.66355
651,22,13.9071,1.67218,0.000583421,0.00271155,0.00269438,0.00454436,-0.00124939,0.973458,0.00352073,0.0424759,1875,1002,13.9072,-1.67217
658,22,13.9917,1.77161,0.000647616,0.00200333,0.00175989,0.0032114,-0.000560451,0.969227,0.00235013,0.0423809,1882,1002,13.9917,-1.77163
665,22,14.1011,1.90277,0.000553261,0.00157296,0.00127798,0.00243904,-0.000312814,0.975199,0.0017397,0.0377857,1889,1002,14.1011,-1.90276
672,22,14.032,1.93951,3.70556e-05,0.00137058,0.00126905,0.00213736,-0.000729726,1.02728,0.00172053,0.0367079,1896,1002,14.032,-1.93951
679,22,14.1101,1.84644,-0.000951467,0.00127325,0.00159267,0.00210356,-0.00178177,1.09023,0.00224576,0.0370918,1903,1002,14.1101,-1.84642
686,22,14.1726,1.89618,-0.00196138,0.00121389,0.0020292,0.00220273,-0.00295022,1.11735,0.00298547,0.0373784,1910,1002,14.1726,-1.8962
693,22,14.1095,2.03815,-0.00288079,0.00118989,0.00247636,0.00236,-0.0040509,1.12938,0.00374401,0.0362086,1917,1002,14.1095,-2.03814
700,22,14.1366,1.99664,-0.00367551,0.0010905,0.00282938,0.0024067,-0.00499171,1.13538,0.00435752,0.0306014,1924,1002,14.1365,-1.99663
707,22,14.0981,1.96533,-0.00438174,0.00110245,0.00304467,0.00245781,-0.0057371,1.15198,0.00485596,0.0242964,1931,1002,14.0981,-1.96534
714,22,14.0972,2.03882,-0.00485594,0.0011106,0.00315068,0.0024663,-0.00621164,1.16445,0.00516341,0.0204706,1938,1002,14.0972,-2.03885
721,22,14.0883,2.21118,-0.00508351,0.00118237,0.0031972,0.00252575,-0.00642688,1.17302,0.00532987,0.0253482,1945,1002,14.0882,-2.21121
728,22,13.7423,2.40765,-0.00501587,0.00120316,0.0031314,0.00250667,-0.00631938,1.17634,0.00525182,0.0211333,1952,1002,13.7424,-2.40767
735,22,13.7086,2.55316,-0.00447783,0.00130043,0.00316654,0.00269779,-0.00587519,1.15521,0.00506166,0.0160757,1959,1002,13.7086,-2.55318
742,22,13.7135,2.56274,-0.00359418,0.00130174,0.00358933,0.00319841,-0.00549085,1.08467,0.00507461,0.0156607,1966,1002,13.7135,-2.56273
749,22,13.7292,2.61115,-0.00247332,0.00082749,0.00411285,0.00360872,-0.00525455,0.976203,0.00514653,0.0118213,1973,1002,13.7292,-2.61116
756,22,13.7203,2.64423,-0.000948962,-4.339e-05,0.00518225,0.00470582,-0.00569817,0.828974,0.00601585,0.0154311,1980,1002,13.7203,-2.64425
763,22,13.6842,2.68195,0.000856147,-0.000986207,0.00667597,0.00667419,-0.00680425,0.716839,0.00778191,0.0168007,1987,1002,13.6843,-2.68196
770,22,13.7095,2.68445,0.00293771,-0.0025059,0.00915063,0.00976276,-0.00933094,0.640843,0.0110247,0.0110991,1994,1002,13.7094,-2.68448
777,22,13.7069,2.73297,0.00511356,-0.00485124,0.0129993,0.0140525,-0.0137902,0.602392,0.0160753,0.017253,2001,1002,13.7069,-2.73298
784,22,13.7267,2.81238,0.00710371,-0.00844894,0.0184714,0.0193689,-0.0207142,0.586162,0.0231463,0.036699,2008,1002,13.7266,-2.81238
791,22,13.7456,3.37408,0.00937863,-0.0138862,0.0257526,0.0260041,-0.0305116,0.573265,0.0326639,0.0441149,2015,1002,13.7456,-3.37407
798,22,13.7223,3.89355,0.0122182,-0.0218135,0.0350692,0.0341818,-0.043777,0.559527,0.045123,0.0441062,2022,1002,13.7223,-3.89354
805,22,13.7091,4.49756,0.0153632,-0.0331092,0.0467953,0.0438261,-0.0615721,0.546459,0.0611385,0.0425348,2029,1002,13.7091,-4.49757
812,22,13.6191,4.74359,0,0,0,0,0,0,0,-1,2036,1002,13.6192,-4.74359
-700,15,0,0,0,0,0,0,0,0,0,-1,524,1009,0,0
-693,15,-7.02539,1.04681,0.0479549,-0.00777039,0.0488596,0.076338,-0.0361536,0.526266,0.066314,0.0478791,531,1009,-7.02536,-1.04683
-686,15,-6.2926,1.91541,0.0357253,-0.00821017,0.0345182,0.0546732,-0.027158,0.502017,0.0481273,0.0464726,538,1009,-6.29258,-1.91539
-679,15,-7.22943,0.400574,0.0260496,-0.00760423,0.0239086,0.0384591,-0.0200137,0.478762,0.0343146,0.0476963,545,1009,-7.22945,-0.400579
-672,15,-6.83618,0.791199,0.0184343,-0.00648598,0.0160227,0.0262715,-0.0143232,0.454915,0.0237733,0.0460265,552,1009,-6.8362,-0.79121
-665,15,-6.65729,0.963623,0.0125484,-0.00517367,0.010251,0.0172373,-0.00986254,0.428997,0.015838,0.0455355,559,1009,-6.6573,-0.963601
-658,15,-6.93732,0.909607,0.00810295,-0.00387402,0.00615027,0.0106986,-0.00646969,0.399363,0.0100119,0.0464982,566,1009,-6.93733,-0.909611
-651,15,-8.29395,0.693481,0.00488137,-0.00271675,0.00334014,0.0061409,-0.00397629,0.360603,0.00588556,0.0354732,573,1009,-8.29392,-0.693469
-644,15,-8.31647,0.744324,0.00266458,-0.00156012,0.00138293,0.00307702,-0.00197255,0.289832,0.00293852,0.0178081,580,1009,-8.31649,-0.744336
-637,15,-8.30792,0.751221,0.000345465,-0.00133343,-0.000822555,0.000681291,-0.00166925,-0.387618,0.00139647,0.0147586,587,1009,-8.30795,-0.751242
-630,15,-8.32159,0.711304,-0.000876272,-0.00100729,-0.00225659,0.00131576,-0.00319932,-0.770887,0.00268133,0.0113201,594,1009,-8.3216,-0.711276
-623,15,-8.33636,0.690063,-0.0011145,-8.65099e-05,-0.00234854,0.00180362,-0.00300464,-0.893129,0.00280477,0.00860336,601,1009,-8.33636,-0.690094
-616,15,-8.36353,0.664429,-0.000925025,0.000489659,-0.00226071,0.0021511,-0.00258647,-0.937016,0.00273908,0.0134968,608,1009,-8.36349,-0.664456
-609,15,-8.37988,0.648987,-0.000803626,0.000156905,-0.00222568,0.00195354,-0.00260026,-0.891661,0.00263797,0.0208313,615,1009,-8.37991,-0.648991
-602,15,-8.37775,0.623108,-0.000681318,0.000223875,-0.00228174,0.00209747,-0.00255491,-0.883305,0.00269038,0.0196155,622,1009,-8.37775,-0.623099
-595,15,-8.37006,0.471313,-0.00058219,0.00021508,-0.00234765,0.0021977,-0.00256481,-0.869497,0.00275236,0.0198075,629,1009,-8.37003,-0.471303
-588,15,-8.35468,0.353516,-0.000516821,0.000260206,-0.00247202,0.00237406,-0.00263067,-0.863343,0.00289075,0.0254093,636,1009,-8.35468,-0.353517
-581,15,-8.35474,0.268066,-0.000338536,0.000237284,-0.00241214,0.00237864,-0.00247989,-0.844796,0.00280527,0.0334013,643,1009,-8.35472,-0.268039
-574,15,-8.33972,0.250916,-7.71132e-05,0.000398996,-0.0022279,0.00240152,-0.00207964,-0.838622,0.00258943,0.0303118,650,1009,-8.3397,-0.250891
-567,15,-8.38135,0.118835,0.00017633,0.000624507,-0.00186132,0.00227518,-0.00147434,-0.845306,0.00218118,0.0330755,657,1009,-8.38133,-0.118852
-560,15,-8.4071,0.22644,0.000525312,0.000928084,-0.00138119,0.00212249,-0.000669094,-0.857791,0.00168296,0.0387536,664,1009,-8.40709,-0.226455
-553,15,-8.30109,0.276428,0.000969015,0.00128833,-0.000849693,0.00199324,0.00026411,-0.878266,0.00125012,0.0408884,671,1009,-8.30107,-0.276442
-546,15,-8.32593,0.177429,0.00150102,0.00167704,-0.000359342,0.00195899,0.00121907,-0.905496,0.00114225,0.0407306,678,1009,-8.32594,-0.177446
-539,15,-8.24084,0.290955,0.0021574,0.00205427,-0.00016243,0.00227625,0.00193542,-0.631696,0.00141761,0.0415577,685,1009,-8.24084,-0.290931
-532,15,-8.29559,0.339661,0.0027739,0.00253065,-0.000631094,0.00329498,0.00200956,-0.690205,0.00191761,0.0431108,692,1009,-8.29558,-0.339648
-525,15,0,0,0,0,0,0,0,0,0,-1,699,1009,0,0
-518,15,0,0,0,0,0,0,0,0,0,-1,706,1009,0,0
-511,15,0,0,0,0,0,0,0,0,0,-1,713,1009,0,0
-504,15,0,0,0,0,0,0,0,0,0,-1,720,1009,0,0
-497,15,0,0,0,0,0,0,0,0,0,-1,727,1009,0,0
-490,15,0,0,0,0,0,0,0,0,0,-1,734,1009,0,0
-483,15,0,0,0,0,0,0,0,0,0,-1,741,1009,0,0
-476,15,0,0,0,0,0,0,0,0,0,-1,748,1009,0,0
-469,15,0,0,0,0,0,0,0,0,0,-1,755,1009,0,0
-462,15,0,0,0,0,0,0,0,0,0,-1,762,1009,0,0
-455,15,0,0,0,0,0,0,0,0,0,-1,769,1009,0,0
-448,15,0,0,0,0,0,0,0,0,0,-1,776,1009,0,0
-441,15,0,0,0,0,0,0,0,0,0,-1,783,1009,0,0
-434,15,0,0,0,0,0,0,0,0,0,-1,790,1009,0,0
-427,15,0,0,0,0,0,0,0,0,0,-1,797,1009,0,0
-420,15,0,0,0,0,0,0,0,0,0,-1,804,1009,0,0
-413,15,0,0,0,0,0,0,0,0,0,-1,811,1009,0,0
-406,15,0,0,0,0,0,0,0,0,0,-1,818,1009,0,0
-399,15,0,0,0,0,0,0,0,0,0,-1,825,1009,0,0
-392,15,0,0,0,0,0,0,0,0,0,-1,832,1009,0,0
-385,15,0,0,0,0,0,0,0,0,0,-1,839,1009,0,0
-378,15,0,0,0,0,0,0,0,0,0,-1,846,1009,0,0
-371,15,0,0,0,0,0,0,0,0,0,-1,853,1009,0,0
-364,15,0,0,0,0,0,0,0,0,0,-1,860,1009,0,0
-357,15,0,0,0,0,0,0,0,0,0,-1,867,1009,0,0
-350,15,0,0,0,0,0,0,0,0,0,-1,874,1009,0,0
-343,15,0,0,0,0,0,0,0,0,0,-1,881,1009,0,0
-336,15,0,0,0,0,0,0,0,0,0,-1,888,1009,0,0
-329,15,0,0,0,0,0,0,0,0,0,-1,895,1009,0,0
-322,15,0,0,0,0,0,0,0,0,0,-1,902,1009,0,0
-315,15,0,0,0,0,0,0,0,0,0,-1,909,1009,0,0
-308,15,0,0,0,0,0,0,0,0,0,-1,916,1009,0,0
-301,15,0,0,0,0,0,0,0,0,0,-1,923,1009,0,0
-294,15,0,0,0,0,0,0,0,0,0,-1,930,1009,0,0
-287,15,0,0,0,0,0,0,0,0,0,-1,937,1009,0,0
-280,15,0,0,0,0,0,0,0,0,0,-1,944,1009,0,0
-273,15,0,0,0,0,0,0,0,0,0,-1,951,1009,0,0
-266,15,0,0,0,0,0,0,0,0,0,-1,958,1009,0,0
-259,15,0,0,0,0,0,0,0,0,0,-1,965,1009,0,0
-252,15,0,0,0,0,0,0,0,0,0,-1,972,1009,0,0
-245,15,0,0,0,0,0,0,0,0,0,-1,979,1009,0,0
-238,15,0,0,0,0,0,0,0,0,0,-1,986,1009,0,0
-231,15,0,0,0,0,0,0,0,0,0,-1,993,1009,0,0
-224,15,0,0,0,0,0,0,0,0,0,-1,1000,1009,0,0
-217,15,0,0,0,0,0,0,0,0,0,-1,1007,1009,0,0
-210,15,0,0,0,0,0,0,0,0,0,-1,1014,1009,0,0
-203,15,0,0,0,0,0,0,0,0,0,-1,1021,1009,0,0
-196,15,0,0,0,0,0,0,0,0,0,-1,1028,1009,0,0
-189,15,0,0,0,0,0,0,0,0,0,-1,1035,1009,0,0
-182,15,0,0,0,0,0,0,0,0,0,-1,1042,1009,0,0
-175,15,0,0,0,0,0,0,0,0,0,-1,1049,1009,0,0
-168,15,0,0,0,0,0,0,0,0,0,-1,1056,1009,0,0
-161,15,0,0,0,0,0,0,0,0,0,-1,1063,1009,0,0
-154,15,0,0,0,0,0,0,0,0,0,-1,1070,1009,0,0
-147,15,0,0,0,0,0,0,0,0,0,-1,1077,1009,0,0
-140,15,0,0,0,0,0,0,0,0,0,-1,1084,1009,0,0
-133,15,0,0,0,0,0,0,0,0,0,-1,1091,1009,0,0
-126,15,0,0,0,0,0,0,0,0,0,-1,1098,1009,0,0
-119,15,0,0,0,0,0,0,0,0,0,-1,1105,1009,0,0
-112,15,0,0,0,0,0,0,0,0,0,-1,1112,1009,0,0
-105,15,0,0,0,0,0,0,0,0,0,-1,1119,1009,0,0
-98,15,0,0,0,0,0,0,0,0,0,-1,1126,1009,0,0
-91,15,0,0,0,0,0,0,0,0,0,-1,1133,1009,0,0
-84,15,0,0,0,0,0,0,0,0,0,-1,1140,1009,0,0
-77,15,0,0,0,0,0,0,0,0,0,-1,1147,1009,0,0
-70,15,0,0,0,0,0,0,0,0,0,-1,1154,1009,0,0
-63,15,0,0,0,0,0,0,0,0,0,-1,1161,1009,0,0
-56,15,0,0,0,0,0,0,0,0,0,-1,1168,1009,0,0
-49,15,0,0,0,0,0,0,0,0,0,-1,1175,1009,0,0
-42,15,0,0,0,0,0,0,0,0,0,-1,1182,1009,0,0
-35,15,0,0,0,0,0,0,0,0,0,-1,1189,1009,0,0
-28,15,0,0,0,0,0,0,0,0,0,-1,1196,1009,0,0
-21,15,0,0,0,0,0,0,0,0,0,-1,1203,1009,0,0
-14,15,0,0,0,0,0,0,0,0,0,-1,1210,1009,0,0
-7,15,0,0,0,0,0,0,0,0,0,-1,1217,1009,0,0
0,15,0,0,0,0,0,0,0,0,0,-1,1224,1009,0,0
7,15,0,0,0,0,0,0,0,0,0,-1,1231,1009,0,0
14,15,0,0,0,0,0,0,0,0,0,-1,1238,1009,0,0
21,15,0,0,0,0,0,0,0,0,0,-1,1245,1009,0,0
28,15,0,0,0,0,0,0,0,0,0,-1,1252,1009,0,0
35,15,0,0,0,0,0,0,0,0,0,-1,1259,1009,0,0
42,15,0,0,0,0,0,0,0,0,0,-1,1266,1009,0,0
49,15,0,0,0,0,0,0,0,0,0,-1,1273,1009,0,0
56,15,0,0,0,0,0,0,0,0,0,-1,1280,1009,0,0
63,15,0,0,0,0,0,0,0,0,0,-1,1287,1009,0,0
70,15,0,0,0,0,0,0,0,0,0,-1,1294,1009,0,0
77,15,0,0,0,0,0,0,0,0,0,-1,1301,1009,0,0
84,15,0,0,0,0,0,0,0,0,0,-1,1308,1009,0,0
91,15,0,0,0,0,0,0,0,0,0,-1,1315,1009,0,0
98,15,0,0,0,0,0,0,0,0,0,-1,1322,1009,0,0
105,15,0,0,0,0,0,0,0,0,0,-1,1329,1009,0,0
112,15,0,0,0,0,0,0,0,0,0,-1,1336,1009,0,0
119,15,0,0,0,0,0,0,0,0,0,-1,1343,1009,0,0
126,15,0,0,0,0,0,0,0,0,0,-1,1350,1009,0,0
133,15,0,0,0,0,0,0,0,0,0,-1,1357,1009,0,0
140,15,0,0,0,0,0,0,0,0,0,-1,1364,1009,0,0
147,15,0,0,0,0,0,0,0,0,0,-1,1371,1009,0,0
154,15,0,0,0,0,0,0,0,0,0,-1,1378,1009,0,0
161,15,0,0,0,0,0,0,0,0,0,-1,1385,1009,0,0
168,15,0,0,0,0,0,0,0,0,0,-1,1392,1009,0,0
175,15,0,0,0,0,0,0,0,0,0,-1,1399,1009,0,0
182,15,0,0,0,0,0,0,0,0,0,-1,1406,1009,0,0
189,15,0,0,0,0,0,0,0,0,0,-1,1413,1009,0,0
196,15,0,0,0,0,0,0,0,0,0,-1,1420,1009,0,0
203,15,0,0,0,0,0,0,0,0,0,-1,1427,1009,0,0
210,15,0,0,0,0,0,0,0,0,0,-1,1434,1009,0,0
217,15,0,0,0,0,0,0,0,0,0,-1,1441,1009,0,0
224,15,0,0,0,0,0,0,0,0,0,-1,1448,1009,0,0
231,15,0,0,0,0,0,0,0,0,0,-1,1455,1009,0,0
238,15,0,0,0,0,0,0,0,0,0,-1,1462,1009,0,0
245,15,0,0,0,0,0,0,0,0,0,-1,1469,1009,0,0
252,15,0,0,0,0,0,0,0,0,0,-1,1476,1009,0,0
259,15,0,0,0,0,0,0,0,0,0,-1,1483,1009,0,0
266,15,0,0,0,0,0,0,0,0,0,-1,1490,1009,0,0
273,15,0,0,0,0,0,0,0,0,0,-1,1497,1009,0,0
280,15,0,0,0,0,0,0,0,0,0,-1,1504,1009,0,0
287,15,0,0,0,0,0,0,0,0,0,-1,1511,1009,0,0
294,15,0,0,0,0,0,0,0,0,0,-1,1518,1009,0,0
301,15,0,0,0,0,0,0,0,0,0,-1,1525,1009,0,0
308,15,0,0,0,0,0,0,0,0,0,-1,1532,1009,0,0
315,15,0,0,0,0,0,0,0,0,0,-1,1539,1009,0,0
322,15,0,0,0,0,0,0,0,0,0,-1,1546,1009,0,0
329,15,0,0,0,0,0,0,0,0,0,-1,1553,1009,0,0
336,15,0,0,0,0,0,0,0,0,0,-1,1560,1009,0,0
343,15,0,0,0,0,0,0,0,0,0,-1,1567,1009,0,0
350,15,0,0,0,0,0,0,0,0,0,-1,1574,1009,0,0
357,15,0,0,0,0,0,0,0,0,0,-1,1581,1009,0,0
364,15,0,0,0,0,0,0,0,0,0,-1,1588,1009,0,0
371,15,0,0,0,0,0,0,0,0,0,-1,1595,1009,0,0
378,15,0,0,0,0,0,0,0,0,0,-1,1602,1009,0,0
385,15,0,0,0,0,0,0,0,0,0,-1,1609,1009,0,0
392,15,0,0,0,0,0,0,0,0,0,-1,1616,1009,0,0
399,15,0,0,0,0,0,0,0,0,0,-1,1623,1009,0,0
406,15,0,0,0,0,0,0,0,0,0,-1,1630,1009,0,0
413,15,0,0,0,0,0,0,0,0,0,-1,1637,1009,0,0
420,15,0,0,0,0,0,0,0,0,0,-1,1644,1009,0,0
427,15,0,0,0,0,0,0,0,0,0,-1,1651,1009,0,0
434,15,0,0,0,0,0,0,0,0,0,-1,1658,1009,0,0
441,15,0,0,0,0,0,0,0,0,0,-1,1665,1009,0,0
448,15,0,0,0,0,0,0,0,0,0,-1,1672,1009,0,0
455,15,0,0,0,0,0,0,0,0,0,-1,1679,1009,0,0
462,15,0,0,0,0,0,0,0,0,0,-1,1686,1009,0,0
469,15,0,0,0,0,0,0,0,0,0,-1,1693,1009,0,0
476,15,0,0,0,0,0,0,0,0,0,-1,1700,1009,0,0
483,15,0,0,0,0,0,0,0,0,0,-1,1707,1009,0,0
490,15,0,0,0,0,0,0,0,0,0,-1,1714,1009,0,0
497,15,0,0,0,0,0,0,0,0,0,-1,1721,1009,0,0
504,15,0,0,0,0,0,0,0,0,0,-1,1728,1009,0,0
511,15,0,0,0,0,0,0,0,0,0,-1,1735,1009,0,0
518,15,0,0,0,0,0,0,0,0,0,-1,1742,1009,0,0
525,15,0,0,0,0,0,0,0,0,0,-1,1749,1009,0,0
532,15,0,0,0,0,0,0,0,0,0,-1,1756,1009,0,0
539,15,0,0,0,0,0,0,0,0,0,-1,1763,1009,0,0
546,15,0,0,0,0,0,0,0,0,0,-1,1770,1009,0,0
553,15,0,0,0,0,0,0,0,0,0,-1,1777,1009,0,0
560,15,0,0,0,0,0,0,0,0,0,-1,1784,1009,0,0
567,15,0,0,0,0,0,0,0,0,0,-1,1791,1009,0,0
574,15,0,0,0,0,0,0,0,0,0,-1,1798,1009,0,0
581,15,0,0,0,0,0,0,0,0,0,-1,1805,1009,0,0
588,15,0,0,0,0,0,0,0,0,0,-1,1812,1009,0,0
595,15,0,0,0,0,0,0,0,0,0,-1,1819,1009,0,0
602,15,0,0,0,0,0,0,0,0,0,-1,1826,1009,0,0
609,15,0,0,0,0,0,0,0,0,0,-1,1833,1009,0,0
616,15,0,0,0,0,0,0,0,0,0,-1,1840,1009,0,0
623,15,0,0,0,0,0,0,0,0,0,-1,1847,1009,0,0
630,15,0,0,0,0,0,0,0,0,0,-1,1854,1009,0,0
637,15,0,0,0,0,0,0,0,0,0,-1,1861,1009,0,0
644,15,13.9241,1.65326,0.000512547,0.00434317,0.00492267,0.00771,-0.00285429,0.970927,0.0063104,0.038617,1868,1009,13.924,-1.65326
651,15,14.069,1.94843,0.000616232,0.00304165,0.00323927,0.00528778,-0.0016299,0.96451,0.00417589,0.0406092,1875,1009,14.069,-1.94841
658,15,14.1517,2.14478,0.000595032,0.00210296,0.00211025,0.00358989,-0.000891901,0.956974,0.00273939,0.0394656,1882,1009,14.1518,-2.14479
665,15,14.108,2.1795,0.000468134,0.00152946,0.00145275,0.00254544,-0.000547842,0.96051,0.001906,0.0383056,1889,1009,14.1081,-2.17951
672,15,14.1082,1.98993,1.09596e-05,0.00124825,0.00134145,0.00210683,-0.000847626,1.00145,0.00175664,0.0379133,1896,1009,14.1082,-1.98995
679,15,14.2924,1.87122,-0.000915116,0.00111,0.00163586,0.00202132,-0.00182644,1.06253,0.00222246,0.0375618,1903,1009,14.2924,-1.87122
686,15,14.2941,1.93799,-0.00188013,0.00103804,0.00207978,0.0021195,-0.0029616,1.09128,0.00294697,0.0408623,1910,1009,14.294,-1.938
693,15,14.1575,1.95825,-0.00275532,0.00100941,0.00255432,0.00230003,-0.00404595,1.10294,0.00370978,0.0386,1917,1009,14.1574,-1.95822
700,15,14.1284,1.95154,-0.0035047,0.000903367,0.00294665,0.00237908,-0.00498041,1.1065,0.00433658,0.0299831,1924,1009,14.1284,-1.95156
707,15,14.103,1.90289,-0.00416273,0.000934206,0.0032046,0.00248015,-0.00570867,1.12132,0.00484875,0.0236321,1931,1009,14.1031,-1.90292
714,15,14.1027,1.93573,-0.00461266,0.000948659,0.00333757,0.00251213,-0.00617613,1.13271,0.00516271,0.0215881,1938,1009,14.1026,-1.93573
721,15,14.1321,2.17639,-0.00485045,0.00102722,0.00341474,0.00259363,-0.00641686,1.14072,0.00535603,0.025876,1945,1009,14.1321,-2.17642
728,15,13.7693,2.50348,0,0,0,0,0,0,0,-1,1952,1009,13.7693,-2.50346
735,15,13.7501,2.5434,-0.00447554,0.00114603,0.00336966,0.00272331,-0.00605282,1.13301,0.00518702,0.0174828,1959,1009,13.7502,-2.54338
742,15,13.7479,2.57385,-0.00379473,0.00126495,0.00372635,0.00323908,-0.00576886,1.08361,0.00526866,0.0172293,1966,1009,13.7479,-2.57388
749,15,13.7373,2.59113,-0.0029096,0.000931575,0.00417076,0.00360271,-0.00558073,1.00117,0.0053429,0.0105557,1973,1009,13.7373,-2.59113
756,15,13.7311,2.63013,-0.00166214,0.000251353,0.00509117,0.0044749,-0.00588568,0.878276,0.00600014,0.0115188,1980,1009,13.731,-2.63015
763,15,13.7302,2.65234,-0.000229991,-0.000418233,0.00640192,0.0060785,-0.00672673,0.778048,0.00739626,0.0112614,1987,1009,13.7302,-2.65233
770,15,13.7321,2.66425,0.00140552,-0.00153685,0.00861387,0.00867293,-0.00880427,0.700818,0.0100906,0.0108899,1994,1009,13.7321,-2.66423
777,15,13.7189,2.70013,0.00311611,-0.00331215,0.0121511,0.012471,-0.012667,0.656103,0.0145136,0.0186966,2001,1009,13.7189,-2.70011
784,15,13.7112,2.77795,0.00460211,-0.00612117,0.017289,0.0173418,-0.0188609,0.635042,0.0209078,0.0372164,2008,1009,13.7112,-2.77793
791,15,13.6057,3.42352,0.00631136,-0.0104671,0.0241699,0.0235065,-0.0276623,0.618356,0.0295748,0.0444421,2015,1009,13.6057,-3.42353
798,15,13.6083,3.3418,0,0,0,0,0,0,0,-1,2022,1009,13.6082,-3.34181
805,15,13.4449,3.76862,0,0,0,0,0,0,0,-1,2029,1009,13.445,-3.76864
812,15,13.2737,4.68195,0,0,0,0,0,0,0,-1,2036,1009,13.2736,-4.68193
-700,8,0,0,0,0,0,0,0,0,0,-1,524,1016,0,0
-693,8,-7.01685,0.71051,0.0435963,-0.000538562,0.0484503,0.0747679,-0.0317102,0.571703,0.0631284,0.0459563,531,1016,-7.01685,-0.71051
-686,8,-6.49786,1.69165,0.0324597,-0.00203941,0.0349788,0.054211,-0.0237907,0.556325,0.0461618,0.0443635,538,1016,-6.49787,-1.69162
-679,8,-5.90051,2.7243,0.0236254,-0.00259335,0.0248164,0.0385822,-0.0175501,0.542401,0.0331577,0.0493469,545,1016,-5.90051,-2.7243
-672,8,-6.62634,1.43317,0.0166691,-0.00257382,0.0171229,0.0266886,-0.0125933,0.529429,0.023161,0.043951,552,1016,-6.62634,-1.43314
-665,8,-6.83435,1.8949,0,0,0,0,0,0,0,-1,559,1016,-6.83434,-1.89491
-658,8,-8.3454,0.671936,0.00723341,-0.0017439,0.00718089,0.0112131,-0.00572361,0.506069,0.00994816,0.0355998,566,1016,-8.34537,-0.671946
-651,8,-8.28839,0.665161,0.00429463,-0.00123849,0.00420415,0.00656084,-0.0035047,0.49439,0.00589996,0.0193602,573,1016,-8.28837,-0.665148
-644,8,-8.28192,0.686523,0.00227971,-0.000511664,0.00201987,0.00333919,-0.00157114,0.483075,0.00289559,0.0161801,580,1016,-8.28194,-0.686507
-637,8,-8.29279,0.71283,0.000140411,-0.000735888,-0.0003681,0.000274514,-0.00086999,-0.349366,0.000689949,0.0144716,587,1016,-8.29276,-0.712854
-630,8,-8.3313,0.694824,-0.00093121,-0.000751276,-0.00194228,0.00110312,-0.0027856,-0.808542,0.00231414,0.01239,594,1016,-8.33128,-0.694841
-623,8,-8.34027,0.686829,-0.00109364,-0.000128824,-0.00223341,0.00167369,-0.00289615,-0.891761,0.00266968,0.0120862,601,1016,-8.34027,-0.686856
-616,8,-8.35687,0.658936,-0.000885965,0.00033894,-0.00231689,0.00212296,-0.00266999,-0.914614,0.00277321,0.0121845,608,1016,-8.35689,-0.65896
-609,8,-8.34363,0.638123,-0.000743145,-0.000134259,-0.0024053,0.00198579,-0.00286319,-0.848349,0.0028148,0.0163699,615,1016,-8.34365,-0.638133
-602,8,-8.33588,0.614441,-0.000556427,-4.31761e-05,-0.00247968,0.00219312,-0.00279272,-0.83696,0.00288551,0.0206062,622,1016,-8.33586,-0.614466
-595,8,-8.29443,0.47052,-0.000371555,-0.000117895,-0.00252502,0.00228348,-0.00277293,-0.810492,0.00292387,0.01988,629,1016,-8.29446,-0.47052
-588,8,-8.32489,0.292358,-0.000298966,-0.000134477,-0.00259719,0.00238177,-0.00281521,-0.801226,0.00300395,0.0222366,636,1016,-8.32491,-0.292339
-581,8,-8.32428,0.330017,-0.000224236,-0.000185602,-0.0024784,0.00227356,-0.0026834,-0.789295,0.00286516,0.0284126,643,1016,-8.32426,-0.330001
-574,8,-8.33148,0.271545,-6.36371e-05,-5.58828e-05,-0.00220707,0.00214731,-0.00226683,-0.786277,0.00254882,0.0349939,650,1016,-8.33149,-0.27155
-567,8,-8.33411,0.0819702,5.06061e-05,0.000161638,-0.00174877,0.00185578,-0.00164353,-0.801266,0.00202157,0.0392647,657,1016,-8.33408,-0.0819719
-560,8,-8.33038,0.00427246,0.000183972,0.000496871,-0.00114683,0.00149788,-0.000817032,-0.853189,0.00135564,0.0406818,664,1016,-8.33039,-0.00427558
-553,8,-8.25769,0.0883789,0.000312254,0.000940594,-0.000457064,0.00118105,7.17974e-05,-1.0865,0.000764559,0.0398423,671,1016,-8.25771,-0.088367
-546,8,-8.25439,0.191223,0.000401001,0.00147984,0.000233169,0.00152808,0.000352763,1.36679,0.000923862,0.0392603,678,1016,-8.2544,-0.191225
-539,8,-8.22614,0.286133,0.000455114,0.00208334,0.000651957,0.00231222,0.000226237,1.23318,0.00147187,0.0407627,685,1016,-8.22613,-0.286163
-532,8,-8.26697,0.295898,0.000294655,0.0028917,0.000387059,0.00294816,0.000238196,1.42595,0.00189105,0.0422895,692,1016,-8.26695,-0.295887
-525,8,0,0,0,0,0,0,0,0,0,-1,699,1016,0,0
-518,8,0,0,0,0,0,0,0,0,0,-1,706,1016,0,0
-511,8,0,0,0,0,0,0,0,0,0,-1,713,1016,0,0
-504,8,0,0,0,0,0,0,0,0,0,-1,720,1016,0,0
-497,8,0,0,0,0,0,0,0,0,0,-1,727,1016,0,0
-490,8,0,0,0,0,0,0,0,0,0,-1,734,1016,0,0
-483,8,0,0,0,0,0,0,0,0,0,-1,741,1016,0,0
-476,8,0,0,0,0,0,0,0,0,0,-1,748,1016,0,0
-469,8,0,0,0,0,0,0,0,0,0,-1,755,1016,0,0
-462,8,0,0,0,0,0,0,0,0,0,-1,762,1016,0,0
-455,8,0,0,0,0,0,0,0,0,0,-1,769,1016,0,0
-448,8,0,0,0,0,0,0,0,0,0,-1,776,1016,0,0
-441,8,0,0,0,0,0,0,0,0,0,-1,783,1016,0,0
-434,8,0,0,0,0,0,0,0,0,0,-1,790,1016,0,0
-427,8,0,0,0,0,0,0,0,0,0,-1,797,1016,0,0
-420,8,0,0,0,0,0,0,0,0,0,-1,804,1016,0,0
-413,8,0,0,0,0,0,0,0,0,0,-1,811,1016,0,0
-406,8,0,0,0,0,0,0,0,0,0,-1,818,1016,0,0
-399,8,0,0,0,0,0,0,0,0,0,-1,825,1016,0,0
-392,8,0,0,0,0,0,0,0,0,0,-1,832,1016,0,0
-385,8,0,0,0,0,0,0,0,0,0,-1,839,1016,0,0
-378,8,0,0,0,0,0,0,0,0,0,-1,846,1016,0,0
-371,8,0,0,0,0,0,0,0,0,0,-1,853,1016,0,0
-364,8,0,0,0,0,0,0,0,0,0,-1,860,1016,0,0
-357,8,0,0,0,0,0,0,0,0,0,-1,867,1016,0,0
-350,8,0,0,0,0,0,0,0,0,0,-1,874,1016,0,0
-343,8,0,0,0,0,0,0,0,0,0,-1,881,1016,0,0
-336,8,0,0,0,0,0,0,0,0,0,-1,888,1016,0,0
-329,8,0,0,0,0,0,0,0,0,0,-1,895,1016,0,0
-322,8,0,0,0,0,0,0,0,0,0,-1,902,1016,0,0
-315,8,0,0,0,0,0,0,0,0,0,-1,909,1016,0,0
-308,8,0,0,0,0,0,0,0,0,0,-1,916,1016,0,0
-301,8,0,0,0,0,0,0,0,0,0,-1,923,1016,0,0
-294,8,0,0,0,0,0,0,0,0,0,-1,930,1016,0,0
-287,8,0,0,0,0,0,0,0,0,0,-1,937,1016,0,0
-280,8,0,0,0,0,0,0,0,0,0,-1,944,1016,0,0
-273,8,0,0,0,0,0,0,0,0,0,-1,951,1016,0,0
-266,8,0,0,0,0,0,0,0,0,0,-1,958,1016,0,0
-259,8,0,0,0,0,0,0,0,0,0,-1,965,1016,0,0
-252,8,0,0,0,0,0,0,0,0,0,-1,972,1016,0,0
-245,8,0,0,0,0,0,0,0,0,0,-1,979,1016,0,0
-238,8,0,0,0,0,0,0,0,0,0,-1,986,1016,0,0
-231,8,0,0,0,0,0,0,0,0,0,-1,993,1016,0,0
-224,8,0,0,0,0,0,0,0,0,0,-1,1000,1016,0,0
-217,8,0,0,0,0,0,0,0,0,0,-1,1007,1016,0,0
-210,8,0,0,0,0,0,0,0,0,0,-1,1014,1016,0,0
-203,8,0,0,0,0,0,0,0,0,0,-1,1021,1016,0,0
-196,8,0,0,0,0,0,0,0,0,0,-1,1028,1016,0,0
-189,8,0,0,0,0,0,0,0,0,0,-1,1035,1016,0,0
-182,8,0,0,0,0,0,0,0,0,0,-1,1042,1016,0,0
-175,8,0,0,0,0,0,0,0,0,0,-1,1049,1016,0,0
-168,8,0,0,0,0,0,0,0,0,0,-1,1056,1016,0,0
-161,8,0,0,0,0,0,0,0,0,0,-1,1063,1016,0,0
-154,8,0,0,0,0,0,0,0,0,0,-1,1070,1016,0,0
-147,8,0,0,0,0,0,0,0,0,0,-1,1077,1016,0,0
-140,8,0,0,0,0,0,0,0,0,0,-1,1084,1016,0,0
-133,8,0,0,0,0,0,0,0,0,0,-1,1091,1016,0,0
-126,8,0,0,0,0,0,0,0,0,0,-1,1098,1016,0,0
-119,8,0,0,0,0,0,0,0,0,0,-1,1105,1016,0,0
-112,8,0,0,0,0,0,0,0,0,0,-1,1112,1016,0,0
-105,8,0,0,0,0,0,0,0,0,0,-1,1119,1016,0,0
-98,8,0,0,0,0,0,0,0,0,0,-1,1126,1016,0,0
-91,8,0,0,0,0,0,0,0,0,0,-1,1133,1016,0,0
-84,8,0,0,0,0,0,0,0,0,0,-1,1140,1016,0,0
-77,8,0,0,0,0,0,0,0,0,0,-1,1147,1016,0,0
-70,8,0,0,0,0,0,0,0,0,0,-1,1154,1016,0,0
-63,8,0,0,0,0,0,0,0,0,0,-1,1161,1016,0,0
-56,8,0,0,0,0,0,0,0,0,0,-1,1168,1016,0,0
-49,8,0,0,0,0,0,0,0,0,0,-1,1175,1016,0,0
-42,8,0,0,0,0,0,0,0,0,0,-1,1182,1016,0,0
-35,8,0,0,0,0,0,0,0,0,0,-1,1189,1016,0,0
-28,8,0,0,0,0,0,0,0,0,0,-1,1196,1016,0,0
-21,8,0,0,0,0,0,0,0,0,0,-1,1203,1016,0,0
-14,8,0,0,0,0,0,0,0,0,0,-1,1210,1016,0,0
-7,8,0,0,0,0,0,0,0,0,0,-1,1217,1016,0,0
0,8,0,0,0,0,0,0,0,0,0,-1,1224,1016,0,0
7,8,0,0,0,0,0,0,0,0,0,-1,1231,1016,0,0
14,8,0,0,0,0,0,0,0,0,0,-1,1238,1016,0,0
21,8,0,0,0,0,0,0,0,0,0,-1,1245,1016,0,0
28,8,0,0,0,0,0,0,0,0,0,-1,1252,1016,0,0
35,8,0,0,0,0,0,0,0,0,0,-1,1259,1016,0,0
42,8,0,0,0,0,0,0,0,0,0,-1,1266,1016,0,0
49,8,0,0,0,0,0,0,0,0,0,-1,1273,1016,0,0
56,8,0,0,0,0,0,0,0,0,0,-1,1280,1016,0,0
63,8,0,0,0,0,0,0,0,0,0,-1,1287,1016,0,0
70,8,0,0,0,0,0,0,0,0,0,-1,1294,1016,0,0
77,8,0,0,0,0,0,0,0,0,0,-1,1301,1016,0,0
84,8,0,0,0,0,0,0,0,0,0,-1,1308,1016,0,0
91,8,0,0,0,0,0,0,0,0,0,-1,1315,1016,0,0
98,8,0,0,0,0,0,0,0,0,0,-1,1322,1016,0,0
105,8,0,0,0,0,0,0,0,0,0,-1,1329,1016,0,0
112,8,0,0,0,0,0,0,0,0,0,-1,1336,1016,0,0
119,8,0,0,0,0,0,0,0,0,0,-1,1343,1016,0,0
126,8,0,0,0,0,0,0,0,0,0,-1,1350,1016,0,0
133,8,0,0,0,0,0,0,0,0,0,-1,1357,1016,0,0
140,8,0,0,0,0,0,0,0,0,0,-1,1364,1016,0,0
147,8,0,0,0,0,0,0,0,0,0,-1,1371,1016,0,0
154,8,0,0,0,0,0,0,0,0,0,-1,1378,1016,0,0
161,8,0,0,0,0,0,0,0,0,0,-1,1385,1016,0,0
168,8,0,0,0,0,0,0,0,0,0,-1,1392,1016,0,0
175,8,0,0,0,0,0,0,0,0,0,-1,1399,1016,0,0
182,8,0,0,0,0,0,0,0,0,0,-1,1406,1016,0,0
189,8,0,0,0,0,0,0,0,0,0,-1,1413,1016,0,0
196,8,0,0,0,0,0,0,0,0,0,-1,1420,1016,0,0
203,8,0,0,0,0,0,0,0,0,0,-1,1427,1016,0,0
210,8,0,0,0,0,0,0,0,0,0,-1,1434,1016,0,0
217,8,0,0,0,0,0,0,0,0,0,-1,1441,1016,0,0
224,8,0,0,0,0,0,0,0,0,0,-1,1448,1016,0,0
231,8,0,0,0,0,0,0,0,0,0,-1,1455,1016,0,0
238,8,0,0,0,0,0,0,0,0,0,-1,1462,1016,0,0
245,8,0,0,0,0,0,0,0,0,0,-1,1469,1016,0,0
252,8,0,0,0,0,0,0,0,0,0,-1,1476,1016,0,0
259,8,0,0,0,0,0,0,0,0,0,-1,1483,1016,0,0
266,8,0,0,0,0,0,0,0,0,0,-1,1490,1016,0,0
273,8,0,0,0,0,0,0,0,0,0,-1,1497,1016,0,0
280,8,0,0,0,0,0,0,0,0,0,-1,1504,1016,0,0
287,8,0,0,0,0,0,0,0,0,0,-1,1511,1016,0,0
294,8,0,0,0,0,0,0,0,0,0,-1,1518,1016,0,0
301,8,0,0,0,0,0,0,0,0,0,-1,1525,1016,0,0
308,8,0,0,0,0,0,0,0,0,0,-1,1532,1016,0,0
315,8,0,0,0,0,0,0,0,0,0,-1,1539,1016,0,0
322,8,0,0,0,0,0,0,0,0,0,-1,1546,1016,0,0
329,8,0,0,0,0,0,0,0,0,0,-1,1553,1016,0,0
336,8,0,0,0,0,0,0,0,0,0,-1,1560,1016,0,0
343,8,0,0,0,0,0,0,0,0,0,-1,1567,1016,0,0
350,8,0,0,0,0,0,0,0,0,0,-1,1574,1016,0,0
357,8,0,0,0,0,0,0,0,0,0,-1,1581,1016,0,0
364,8,0,0,0,0,0,0,0,0,0,-1,1588,1016,0,0
371,8,0,0,0,0,0,0,0,0,0,-1,1595,1016,0,0
378,8,0,0,0,0,0,0,0,0,0,-1,1602,1016,0,0
385,8,0,0,0,0,0,0,0,0,0,-1,1609,1016,0,0
392,8,0,0,0,0,0,0,0,0,0,-1,1616,1016,0,0
399,8,0,0,0,0,0,0,0,0,0,-1,1623,1016,0,0
406,8,0,0,0,0,0,0,0,0,0,-1,1630,1016,0,0
413,8,0,0,0,0,0,0,0,0,0,-1,1637,1016,0,0
420,8,0,0,0,0,0,0,0,0,0,-1,1644,1016,0,0
427,8,0,0,0,0,0,0,0,0,0,-1,1651,1016,0,0
434,8,0,0,0,0,0,0,0,0,0,-1,1658,1016,0,0
441,8,0,0,0,0,0,0,0,0,0,-1,1665,1016,0,0
448,8,0,0,0,0,0,0,0,0,0,-1,1672,1016,0,0
455,8,0,0,0,0,0,0,0,0,0,-1,1679,1016,0,0
462,8,0,0,0,0,0,0,0,0,0,-1,1686,1016,0,0
469,8,0,0,0,0,0,0,0,0,0,-1,1693,1016,0,0
476,8,0,0,0,0,0,0,0,0,0,-1,1700,1016,0,0
483,8,0,0,0,0,0,0,0,0,0,-1,1707,1016,0,0
490,8,0,0,0,0,0,0,0,0,0,-1,1714,1016,0,0
497,8,0,0,0,0,0,0,0,0,0,-1,1721,1016,0,0
504,8,0,0,0,0,0,0,0,0,0,-1,1728,1016,0,0
511,8,0,0,0,0,0,0,0,0,0,-1,1735,1016,0,0
518,8,0,0,0,0,0,0,0,0,0,-1,1742,1016,0,0
525,8,0,0,0,0,0,0,0,0,0,-1,1749,1016,0,0
532,8,0,0,0,0,0,0,0,0,0,-1,1756,1016,0,0
539,8,0,0,0,0,0,0,0,0,0,-1,1763,1016,0,0
546,8,0,0,0,0,0,0,0,0,0,-1,1770,1016,0,0
553,8,0,0,0,0,0,0,0,0,0,-1,1777,1016,0,0
560,8,0,0,0,0,0,0,0,0,0,-1,1784,1016,0,0
567,8,0,0,0,0,0,0,0,0,0,-1,1791,1016,0,0
574,8,0,0,0,0,0,0,0,0,0,-1,1798,1016,0,0
581,8,0,0,0,0,0,0,0,0,0,-1,1805,1016,0,0
588,8,0,0,0,0,0,0,0,0,0,-1,1812,1016,0,0
595,8,0,0,0,0,0,0,0,0,0,-1,1819,1016,0,0
602,8,0,0,0,0,0,0,0,0,0,-1,1826,1016,0,0
609,8,0,0,0,0,0,0,0,0,0,-1,1833,1016,0,0
616,8,0,0,0,0,0,0,0,0,0,-1,1840,1016,0,0
623,8,0,0,0,0,0,0,0,0,0,-1,1847,1016,0,0
630,8,0,0,0,0,0,0,0,0,0,-1,1854,1016,0,0
637,8,0,0,0,0,0,0,0,0,0,-1,1861,1016,0,0
644,8,14.2009,1.50146,0.00048096,0.00436971,0.0055177,0.0082756,-0.00342493,0.954799,0.00694611,0.042441,1868,1016,14.201,-1.50148
651,8,14.1627,1.81952,0.000547621,0.00309215,0.00366942,0.00570361,-0.00206384,0.952273,0.00464576,0.0389164,1875,1016,14.1627,-1.81951
658,8,14.16,2.00079,0.000479638,0.00218929,0.00241204,0.0038935,-0.00122457,0.955693,0.00308594,0.0377613,1882,1016,14.16,-2.00078
665,8,14.1344,2.07129,0.000337637,0.00163662,0.00161468,0.00272754,-0.000753283,0.976616,0.00211466,0.0389508,1889,1016,14.1344,-2.07131
672,8,14.2212,1.90045,-3.41102e-05,0.00136039,0.00141659,0.00224203,-0.000915751,1.01409,0.00187598,0.0397609,1896,1016,14.2212,-1.90047
679,8,14.3065,1.74762,-0.000865033,0.00120322,0.00169275,0.00215273,-0.00181455,1.0596,0.00229328,0.0380867,1903,1016,14.3066,-1.74763
686,8,14.2446,1.97791,-0.00175626,0.00110117,0.00214865,0.00225275,-0.00290784,1.0788,0.00298746,0.0414767,1910,1016,14.2446,-1.97793
693,8,14.1611,1.92255,-0.00255688,0.00103104,0.00265461,0.00244102,-0.00396687,1.08254,0.0037344,0.0404049,1917,1016,14.1612,-1.92253
700,8,14.1469,1.90979,-0.00324074,0.000880192,0.00308693,0.00253115,-0.0048917,1.07968,0.00435722,0.0306191,1924,1016,14.1469,-1.90977
707,8,14.1333,1.83496,-0.00384355,0.000876684,0.00338733,0.00264502,-0.00561189,1.08967,0.00486863,0.0211189,1931,1016,14.1333,-1.83498
714,8,14.1135,1.84534,-0.00426859,0.000859455,0.00355142,0.00267571,-0.00608484,1.09806,0.00518399,0.020114,1938,1016,14.1135,-1.84532
721,8,14.1366,2.12689,0,0,0,0,0,0,0,-1,1945,1016,14.1366,-2.12691
728,8,13.8475,2.41339,-0.00459115,0.000929549,0.00366852,0.00276024,-0.00642183,1.10793,0.00543996,0.0219316,1952,1016,13.8475,-2.41339
735,8,13.7596,2.53204,-0.00433632,0.000928397,0.00359957,0.00275544,-0.00616337,1.10111,0.00527309,0.0186098,1959,1016,13.7596,-2.53207
742,8,13.7542,2.55481,-0.00382712,0.00115695,0.00379749,0.00320707,-0.00587724,1.07577,0.00531981,0.0153779,1966,1016,13.7542,-2.5548
749,8,13.7638,2.56647,-0.00309219,0.000979585,0.00401958,0.00344945,-0.00556206,1.01981,0.00525024,0.0101095,1973,1016,13.7638,-2.56646
756,8,13.7678,2.6076,-0.00205676,0.000614016,0.00457176,0.00404143,-0.00548417,0.927492,0.00552059,0.0126781,1980,1016,13.7678,-2.60758
763,8,13.7676,2.63544,-0.000898874,0.000310087,0.00542202,0.00516122,-0.00575,0.840912,0.00630265,0.0129194,1987,1016,13.7676,-2.63545
770,8,13.7675,2.65143,0.000426724,-0.000267817,0.006956,0.00704412,-0.00688521,0.760457,0.00804228,0.014151,1994,1016,13.7675,-2.65144
777,8,13.7319,2.69,0.00186616,-0.00126144,0.00956745,0.00999677,-0.00939205,0.704389,0.011196,0.0177706,2001,1016,13.7319,-2.69001
784,8,13.6569,2.86005,0.0030982,-0.00297949,0.0135218,0.0139184,-0.0137997,0.674866,0.0160031,0.0342654,2008,1016,13.6569,-2.86003
791,8,13.5103,3.16614,0.00452439,-0.00578777,0.0188505,0.0189112,-0.0201746,0.651901,0.0225701,0.0443902,2015,1016,13.5103,-3.16614
798,8,13.5865,3.69855,0,0,0,0,0,0,0,-1,2022,1016,13.5865,-3.69852
805,8,13.4041,4.0802,0,0,0,0,0,0,0,-1,2029,1016,13.4041,-4.08018
812,8,12.9863,4.48407,0,0,0,0,0,0,0,-1,2036,1016,12.9863,-4.48405
-700,1,0,0,0,0,0,0,0,0,0,-1,524,1023,0,0
-693,1,-6.90881,0.368042,0.0378365,0.00693771,0.0454834,0.0704228,-0.0256486,0.621677,0.0574397,0.0409683,531,1023,-6.90884,-0.368023
-686,1,-6.63043,1.25085,0.0280238,0.0049846,0.033619,0.0520421,-0.0190336,0.620341,0.0424851,0.044256,538,1023,-6.63041,-1.25087
-679,1,-6.45221,1.75812,0.0202591,0.00350271,0.0243942,0.0376738,-0.0139119,0.619983,0.0308182,0.0484574,545,1023,-6.45221,-1.75813
-672,1,-6.48114,2.0636,0.0141763,0.00242252,0.0172437,0.026517,-0.00991823,0.621164,0.0217514,0.0469441,552,1023,-6.48114,-2.06362
-665,1,-8.34955,0.684448,0,0,0,0,0,0,0,-1,559,1023,-8.34957,-0.68444
-658,1,-8.3999,0.657471,0.00601154,0.00115255,0.00769876,0.011655,-0.00449095,0.632559,0.00962291,0.0326983,566,1023,-8.39987,-0.657479
-651,1,-8.32684,0.669922,0.00349922,0.000809681,0.00471601,0.00705844,-0.00274955,0.64651,0.00584196,0.0148591,573,1023,-8.32686,-0.669938
-644,1,-8.28046,0.704956,0.00180311,0.000929645,0.00244958,0.00385458,-0.00112183,0.697181,0.00301407,0.0153542,580,1023,-8.28043,-0.704983
-637,1,-8.30371,0.676636,-6.01082e-05,0.000119299,-9.11483e-06,0.000119761,-6.05701e-05,-1.52016,0.000105967,0.0132749,587,1023,-8.30372,-0.676646
-630,1,-8.34796,0.649597,-0.000942612,-0.00033781,-0.00163582,0.00102333,-0.00230375,-0.876797,0.00196773,0.0140144,594,1023,-8.34794,-0.649616
-623,1,-8.35663,0.669861,-0.00103124,-0.000124251,-0.00210274,0.00157334,-0.00272883,-0.891605,0.00251354,0.01194,601,1023,-8.3566,-0.669832
-616,1,-8.34857,0.66217,-0.000819808,0.000157642,-0.00235183,0.00207099,-0.00273315,-0.887843,0.00278244,0.0148427,608,1023,-8.34855,-0.662167
-609,1,-8.34296,0.644958,-0.000689712,-0.000446394,-0.00257574,0.00201056,-0.00314667,-0.808997,0.00300152,0.0173372,615,1023,-8.34293,-0.644968
-602,1,-8.34302,0.626831,-0.000496188,-0.000328029,-0.00266202,0.00225124,-0.00307545,-0.801185,0.00308761,0.0133215,622,1023,-8.34301,-0.626859
-595,1,-8.3526,0.599548,-0.000262611,-0.000472294,-0.00268842,0.00232302,-0.00305792,-0.765909,0.00311633,0.0123734,629,1023,-8.35263,-0.599551
-588,1,-8.3468,0.439819,-0.000195608,-0.000556119,-0.00270259,0.00233274,-0.00308446,-0.752099,0.00313764,0.019222,636,1023,-8.34681,-0.439826
-581,1,-8.33234,0.322937,-0.000221354,-0.0006645,-0.00253345,0.00210019,-0.00298605,-0.74178,0.00295135,0.0269435,643,1023,-8.33232,-0.322931
-574,1,-8.31616,0.387817,-0.000152836,-0.000598254,-0.00220049,0.00183619,-0.00258728,-0.734966,0.00256613,0.0359134,650,1023,-8.31615,-0.387797
-567,1,-8.25598,0.259155,-0.000155678,-0.000430233,-0.00166492,0.00137762,-0.00196353,-0.744265,0.00193887,0.0418123,657,1023,-8.25598,-0.259143
-560,1,-8.28198,-0.0344238,-0.000196716,-0.000126607,-0.00095827,0.000797249,-0.00112057,-0.80368,0.00111249,0.0418113,664,1023,-8.28195,0.0344435
-553,1,-8.38715,-0.0759888,-0.000315634,0.000311407,-0.000132417,0.000338224,-0.00034245,-1.37098,0.00039299,0.0398612,671,1023,-8.38716,0.0759804
-546,1,-8.35443,0.105042,-0.000570234,0.000877237,0.000729296,0.00118096,-0.000873955,1.17618,0.00119081,0.0411858,678,1023,-8.35443,-0.105033
-539,1,-8.30164,0.254578,-0.000987597,0.00153357,0.00133033,0.00210571,-0.00155973,1.16464,0.00212405,0.0421667,685,1023,-8.30165,-0.254548
-532,1,-8.31079,0.141174,-0.00175772,0.00242757,0.00120526,0.00274985,-0.00207999,1.30952,0.00279743,0.041775,692,1023,-8.31082,-0.141179
-525,1,0,0,0,0,0,0,0,0,0,-1,699,1023,0,0
-518,1,0,0,0,0,0,0,0,0,0,-1,706,1023,0,0
-511,1,0,0,0,0,0,0,0,0,0,-1,713,1023,0,0
-504,1,0,0,0,0,0,0,0,0,0,-1,720,1023,0,0
-497,1,0,0,0,0,0,0,0,0,0,-1,727,1023,0,0
-490,1,0,0,0,0,0,0,0,0,0,-1,734,1023,0,0
-483,1,0,0,0,0,0,0,0,0,0,-1,741,1023,0,0
-476,1,0,0,0,0,0,0,0,0,0,-1,748,1023,0,0
-469,1,0,0,0,0,0,0,0,0,0,-1,755,1023,0,0
-462,1,0,0,0,0,0,0,0,0,0,-1,762,1023,0,0
-455,1,0,0,0,0,0,0,0,0,0,-1,769,1023,0,0
-448,1,0,0,0,0,0,0,0,0,0,-1,776,1023,0,0
-441,1,0,0,0,0,0,0,0,0,0,-1,783,1023,0,0
-434,1,0,0,0,0,0,0,0,0,0,-1,790,1023,0,0
-427,1,0,0,0,0,0,0,0,0,0,-1,797,1023,0,0
-420,1,0,0,0,0,0,0,0,0,0,-1,804,1023,0,0
-413,1,0,0,0,0,0,0,0,0,0,-1,811,1023,0,0
-406,1,0,0,0,0,0,0,0,0,0,-1,818,1023,0,0
-399,1,0,0,0,0,0,0,0,0,0,-1,825,1023,0,0
-392,1,0,0,0,0,0,0,0,0,0,-1,832,1023,0,0
-385,1,0,0,0,0,0,0,0,0,0,-1,839,1023,0,0
-378,1,0,0,0,0,0,0,0,0,0,-1,846,1023,0,0
-371,1,0,0,0,0,0,0,0,0,0,-1,853,1023,0,0
-364,1,0,0,0,0,0,0,0,0,0,-1,860,1023,0,0
-357,1,0,0,0,0,0,0,0,0,0,-1,867,1023,0,0
-350,1,0,0,0,0,0,0,0,0,0,-1,874,1023,0,0
-343,1,0,0,0,0,0,0,0,0,0,-1,881,1023,0,0
-336,1,0,0,0,0,0,0,0,0,0,-1,888,1023,0,0
-329,1,0,0,0,0,0,0,0,0,0,-1,895,1023,0,0
-322,1,0,0,0,0,0,0,0,0,0,-1,902,1023,0,0
-315,1,0,0,0,0,0,0,0,0,0,-1,909,1023,0,0
-308,1,0,0,0,0,0,0,0,0,0,-1,916,1023,0,0
-301,1,0,0,0,0,0,0,0,0,0,-1,923,1023,0,0
-294,1,0,0,0,0,0,0,0,0,0,-1,930,1023,0,0
-287,1,0,0,0,0,0,0,0,0,0,-1,937,1023,0,0
-280,1,0,0,0,0,0,0,0,0,0,-1,944,1023,0,0
-273,1,0,0,0,0,0,0,0,0,0,-1,951,1023,0,0
-266,1,0,0,0,0,0,0,0,0,0,-1,958,1023,0,0
-259,1,0,0,0,0,0,0,0,0,0,-1,965,1023,0,0
-252,1,0,0,0,0,0,0,0,0,0,-1,972,1023,0,0
-245,1,0,0,0,0,0,0,0,0,0,-1,979,1023,0,0
-238,1,0,0,0,0,0,0,0,0,0,-1,986,1023,0,0
-231,1,0,0,0,0,0,0,0,0,0,-1,993,1023,0,0
-224,1,0,0,0,0,0,0,0,0,0,-1,1000,1023,0,0
-217,1,0,0,0,0,0,0,0,0,0,-1,1007,1023,0,0
-210,1,0,0,0,0,0,0,0,0,0,-1,1014,1023,0,0
-203,1,0,0,0,0,0,0,0,0,0,-1,1021,1023,0,0
-196,1,0,0,0,0,0,0,0,0,0,-1,1028,1023,0,0
-189,1,0,0,0,0,0,0,0,0,0,-1,1035,1023,0,0
-182,1,0,0,0,0,0,0,0,0,0,-1,1042,1023,0,0
-175,1,0,0,0,0,0,0,0,0,0,-1,1049,1023,0,0
-168,1,0,0,0,0,0,0,0,0,0,-1,1056,1023,0,0
-161,1,0,0,0,0,0,0,0,0,0,-1,1063,1023,0,0
-154,1,0,0,0,0,0,0,0,0,0,-1,1070,1023,0,0
-147,1,0,0,0,0,0,0,0,0,0,-1,1077,1023,0,0
-140,1,0,0,0,0,0,0,0,0,0,-1,1084,1023,0,0
-133,1,0,0,0,0,0,0,0,0,0,-1,1091,1023,0,0
-126,1,0,0,0,0,0,0,0,0,0,-1,1098,1023,0,0
-119,1,0,0,0,0,0,0,0,0,0,-1,1105,1023,0,0
-112,1,0,0,0,0,0,0,0,0,0,-1,1112,1023,0,0
-105,1,0,0,0,0,0,0,0,0,0,-1,1119,1023,0,0
-98,1,0,0,0,0,0,0,0,0,0,-1,1126,1023,0,0
-91,1,0,0,0,0,0,0,0,0,0,-1,1133,1023,0,0
-84,1,0,0,0,0,0,0,0,0,0,-1,1140,1023,0,0
-77,1,0,0,0,0,0,0,0,0,0,-1,1147,1023,0,0
-70,1,0,0,0,0,0,0,0,0,0,-1,1154,1023,0,0
-63,1,0,0,0,0,0,0,0,0,0,-1,1161,1023,0,0
-56,1,0,0,0,0,0,0,0,0,0,-1,1168,1023,0,0
-49,1,0,0,0,0,0,0,0,0,0,-1,1175,1023,0,0
-42,1,0,0,0,0,0,0,0,0,0,-1,1182,1023,0,0
-35,1,0,0,0,0,0,0,0,0,0,-1,1189,1023,0,0
-28,1,0,0,0,0,0,0,0,0,0,-1,1196,1023,0,0
-21,1,0,0,0,0,0,0,0,0,0,-1,1203,1023,0,0
-14,1,0,0,0,0,0,0,0,0,0,-1,1210,1023,0,0
-7,1,0,0,0,0,0,0,0,0,0,-1,1217,1023,0,0
0,1,0,0,0,0,0,0,0,0,0,-1,1224,1023,0,0
7,1,0,0,0,0,0,0,0,0,0,-1,1231,1023,0,0
14,1,0,0,0,0,0,0,0,0,0,-1,1238,1023,0,0
21,1,0,0,0,0,0,0,0,0,0,-1,1245,1023,0,0
28,1,0,0,0,0,0,0,0,0,0,-1,1252,1023,0,0
35,1,0,0,0,0,0,0,0,0,0,-1,1259,1023,0,0
42,1,0,0,0,0,0,0,0,0,0,-1,1266,1023,0,0
49,1,0,0,0,0,0,0,0,0,0,-1,1273,1023,0,0
56,1,0,0,0,0,0,0,0,0,0,-1,1280,1023,0,0
63,1,0,0,0,0,0,0,0,0,0,-1,1287,1023,0,0
70,1,0,0,0,0,0,0,0,0,0,-1,1294,1023,0,0
77,1,0,0,0,0,0,0,0,0,0,-1,1301,1023,0,0
84,1,0,0,0,0,0,0,0,0,0,-1,1308,1023,0,0
91,1,0,0,0,0,0,0,0,0,0,-1,1315,1023,0,0
98,1,0,0,0,0,0,0,0,0,0,-1,1322,1023,0,0
105,1,0,0,0,0,0,0,0,0,0,-1,1329,1023,0,0
112,1,0,0,0,0,0,0,0,0,0,-1,1336,1023,0,0
119,1,0,0,0,0,0,0,0,0,0,-1,1343,1023,0,0
126,1,0,0,0,0,0,0,0,0,0,-1,1350,1023,0,0
133,1,0,0,0,0,0,0,0,0,0,-1,1357,1023,0,0
140,1,0,0,0,0,0,0,0,0,0,-1,1364,1023,0,0
147,1,0,0,0,0,0,0,0,0,0,-1,1371,1023,0,0
154,1,0,0,0,0,0,0,0,0,0,-1,1378,1023,0,0
161,1,0,0,0,0,0,0,0,0,0,-1,1385,1023,0,0
168,1,0,0,0,0,0,0,0,0,0,-1,1392,1023,0,0
175,1,0,0,0,0,0,0,0,0,0,-1,1399,1023,0,0
182,1,0,0,0,0,0,0,0,0,0,-1,1406,1023,0,0
189,1,0,0,0,0,0,0,0,0,0,-1,1413,1023,0,0
196,1,0,0,0,0,0,0,0,0,0,-1,1420,1023,0,0
203,1,0,0,0,0,0,0,0,0,0,-1,1427,1023,0,0
210,1,0,0,0,0,0,0,0,0,0,-1,1434,1023,0,0
217,1,0,0,0,0,0,0,0,0,0,-1,1441,1023,0,0
224,1,0,0,0,0,0,0,0,0,0,-1,1448,1023,0,0
231,1,0,0,0,0,0,0,0,0,0,-1,1455,1023,0,0
238,1,0,0,0,0,0,0,0,0,0,-1,1462,1023,0,0
245,1,0,0,0,0,0,0,0,0,0,-1,1469,1023,0,0
252,1,0,0,0,0,0,0,0,0,0,-1,1476,1023,0,0
259,1,0,0,0,0,0,0,0,0,0,-1,1483,1023,0,0
266,1,0,0,0,0,0,0,0,0,0,-1,1490,1023,0,0
273,1,0,0,0,0,0,0,0,0,0,-1,1497,1023,0,0
280,1,0,0,0,0,0,0,0,0,0,-1,1504,1023,0,0
287,1,0,0,0,0,0,0,0,0,0,-1,1511,1023,0,0
294,1,0,0,0,0,0,0,0,0,0,-1,1518,1023,0,0
301,1,0,0,0,0,0,0,0,0,0,-1,1525,1023,0,0
308,1,0,0,0,0,0,0,0,0,0,-1,1532,1023,0,0
315,1,0,0,0,0,0,0,0,0,0,-1,1539,1023,0,0
322,1,0,0,0,0,0,0,0,0,0,-1,1546,1023,0,0
329,1,0,0,0,0,0,0,0,0,0,-1,1553,1023,0,0
336,1,0,0,0,0,0,0,0,0,0,-1,1560,1023,0,0
343,1,0,0,0,0,0,0,0,0,0,-1,1567,1023,0,0
350,1,0,0,0,0,0,0,0,0,0,-1,1574,1023,0,0
357,1,0,0,0,0,0,0,0,0,0,-1,1581,1023,0,0
364,1,0,0,0,0,0,0,0,0,0,-1,1588,1023,0,0
371,1,0,0,0,0,0,0,0,0,0,-1,1595,1023,0,0
378,1,0,0,0,0,0,0,0,0,0,-1,1602,1023,0,0
385,1,0,0,0,0,0,0,0,0,0,-1,1609,1023,0,0
392,1,0,0,0,0,0,0,0,0,0,-1,1616,1023,0,0
399,1,0,0,0,0,0,0,0,0,0,-1,1623,1023,0,0
406,1,0,0,0,0,0,0,0,0,0,-1,1630,1023,0,0
413,1,0,0,0,0,0,0,0,0,0,-1,1637,1023,0,0
420,1,0,0,0,0,0,0,0,0,0,-1,1644,1023,0,0
427,1,0,0,0,0,0,0,0,0,0,-1,1651,1023,0,0
434,1,0,0,0,0,0,0,0,0,0,-1,1658,1023,0,0
441,1,0,0,0,0,0,0,0,0,0,-1,1665,1023,0,0
448,1,0,0,0,0,0,0,0,0,0,-1,1672,1023,0,0
455,1,0,0,0,0,0,0,0,0,0,-1,1679,1023,0,0
462,1,0,0,0,0,0,0,0,0,0,-1,1686,1023,0,0
469,1,0,0,0,0,0,0,0,0,0,-1,1693,1023,0,0
476,1,0,0,0,0,0,0,0,0,0,-1,1700,1023,0,0
483,1,0,0,0,0,0,0,0,0,0,-1,1707,1023,0,0
490,1,0,0,0,0,0,0,0,0,0,-1,1714,1023,0,0
497,1,0,0,0,0,0,0,0,0,0,-1,1721,1023,0,0
504,1,0,0,0,0,0,0,0,0,0,-1,1728,1023,0,0
511,1,0,0,0,0,0,0,0,0,0,-1,1735,1023,0,0
518,1,0,0,0,0,0,0,0,0,0,-1,1742,1023,0,0
525,1,0,0,0,0,0,0,0,0,0,-1,1749,1023,0,0
532,1,0,0,0,0,0,0,0,0,0,-1,1756,1023,0,0
539,1,0,0,0,0,0,0,0,0,0,-1,1763,1023,0,0
546,1,0,0,0,0,0,0,0,0,0,-1,1770,1023,0,0
553,1,0,0,0,0,0,0,0,0,0,-1,1777,1023,0,0
560,1,0,0,0,0,0,0,0,0,0,-1,1784,1023,0,0
567,1,0,0,0,0,0,0,0,0,0,-1,1791,1023,0,0
574,1,0,0,0,0,0,0,0,0,0,-1,1798,1023,0,0
581,1,0,0,0,0,0,0,0,0,0,-1,1805,1023,0,0
588,1,0,0,0,0,0,0,0,0,0,-1,1812,1023,0,0
595,1,0,0,0,0,0,0,0,0,0,-1,1819,1023,0,0
602,1,0,0,0,0,0,0,0,0,0,-1,1826,1023,0,0
609,1,0,0,0,0,0,0,0,0,0,-1,1833,1023,0,0
616,1,0,0,0,0,0,0,0,0,0,-1,1840,1023,0,0
623,1,0,0,0,0,0,0,0,0,0,-1,1847,1023,0,0
630,1,0,0,0,0,0,0,0,0,0,-1,1854,1023,0,0
637,1,0,0,0,0,0,0,0,0,0,-1,1861,1023,0,0
644,1,0,0,0,0,0,0,0,0,0,-1,1868,1023,0,0
651,1,14.1848,1.97607,0.000121504,0.00289101,0.00395017,0.00569212,-0.0026796,0.953983,0.00493662,0.038801,1875,1023,14.1848,-1.9761
658,1,14.1338,2.12329,0.000118863,0.00210755,0.00261495,0.00391083,-0.00168441,0.967083,0.00331457,0.0417504,1882,1023,14.1338,-2.12328
665,1,14.1466,2.09161,3.24104e-05,0.00162461,0.00171944,0.00272331,-0.00106629,1.0022,0.00225656,0.041849,1889,1023,14.1466,-2.09162
672,1,14.2759,1.88361,-0.000219653,0.00136554,0.00146699,0.00224036,-0.00109447,1.03308,0.00196289,0.0410296,1896,1023,14.2759,-1.88363
679,1,14.2488,1.70203,-0.000931224,0.0011886,0.00175336,0.00217751,-0.00192014,1.05726,0.00236733,0.0399957,1903,1023,14.2488,-1.70203
686,1,14.0388,1.96887,-0.00173415,0.00104768,0.00224338,0.00229635,-0.00298282,1.0629,0.0030565,0.0402385,1910,1023,14.0389,-1.9689
693,1,14.2418,1.99304,-0.00245739,0.000927505,0.00279447,0.00250208,-0.00403197,1.05768,0.00380675,0.037333,1917,1023,14.2419,-1.99304
700,1,14.183,1.90497,-0.00307657,0.00074548,0.00327811,0.00262893,-0.00496001,1.0493,0.00444984,0.0299093,1924,1023,14.1829,-1.90497
707,1,14.1331,1.88684,-0.00361918,0.000695141,0.00362641,0.00275748,-0.00568152,1.05371,0.00496879,0.0214846,1931,1023,14.1331,-1.88684
714,1,14.1053,1.89038,-0.00401194,0.000643082,0.00382393,0.00279215,-0.00616101,1.05878,0.00528968,0.019211,1938,1023,14.1054,-1.89039
721,1,14.13,2.09778,-0.00425748,0.000640518,0.00394841,0.00283775,-0.00645472,1.06299,0.00549881,0.0232761,1945,1023,14.13,-2.0978
728,1,13.8475,2.44421,-0.00436126,0.000661472,0.00399652,0.00287019,-0.00656997,1.06591,0.00558806,0.0182557,1952,1023,13.8475,-2.44423
735,1,13.7617,2.5506,-0.00412604,0.000683109,0.00390858,0.00286754,-0.00631048,1.06116,0.00542179,0.0166894,1959,1023,13.7617,-2.55061
742,1,13.769,2.55798,-0.00356985,0.00097872,0.00402986,0.00333176,-0.0059229,1.0423,0.00541254,0.0149197,1966,1023,13.769,-2.55797
749,1,13.7754,2.56976,-0.00276069,0.000981225,0.00406627,0.00358632,-0.00536578,1.00102,0.00520242,0.0119115,1973,1023,13.7754,-2.56976
756,1,13.778,2.6142,-0.00163619,0.000942813,0.00429472,0.00413745,-0.00483082,0.931242,0.00518299,0.0123525,1980,1023,13.7779,-2.61422
763,1,13.7893,2.6297,-0.00036093,0.00099847,0.00477594,0.00514283,-0.00450529,0.856082,0.0055744,0.0133826,1987,1023,13.7892,-2.62971
770,1,13.8005,2.63953,0.00115207,0.000941833,0.00574563,0.00679355,-0.00469964,0.776251,0.0066722,0.0130971,1994,1023,13.8006,-2.63954
777,1,13.7484,2.65411,0.00292413,0.000680898,0.00755667,0.00944197,-0.00583694,0.711722,0.00890275,0.0144804,2001,1023,13.7484,-2.6541
784,1,13.5773,2.68365,0.00462526,-2.19615e-05,0.0104586,0.0130153,-0.00841201,0.676088,0.0124659,0.0329009,2008,1023,13.5773,-2.68364
791,1,13.3602,2.73169,0.00660813,-0.00141439,0.014363,0.0175095,-0.0123157,0.649229,0.0173064,0.0467528,2015,1023,13.3602,-2.7317
798,1,13.1881,2.79596,0,0,0,0,0,0,0,-1,2022,1023,13.1881,-2.79599
805,1,13.3632,4.39172,0,0,0,0,0,0,0,-1,2029,1023,13.3632,-4.39173
812,1,12.7607,4.20111,0,0,0,0,0,0,0,-1,2036,1023,12.7607,-4.20109
-700,-6,0,0,0,0,0,0,0,0,0,-1,524,1030,0,0
-693,-6,-6.96375,0.141113,0.030973,0.0134756,0.0415196,0.0646556,-0.020207,0.681561,0.0511867,0.0406265,531,1030,-6.96375,-0.141135
-686,-6,-6.74005,0.905762,0.0228376,0.0112234,0.0315787,0.0491387,-0.0150777,0.694467,0.0387748,0.0439413,538,1030,-6.74005,-0.90571
-679,-6,-6.49512,1.52344,0.0164281,0.00901174,0.0235239,0.0365343,-0.0110944,0.707224,0.0287763,0.0482174,545,1030,-6.4951,-1.52346
-672,-6,-8.29181,0.4552,0,0,0,0,0,0,0,-1,552,1030,-8.29183,-0.455244
-665,-6,-8.38617,0.476929,0.00760489,0.00530892,0.0119741,0.0184859,-0.00557208,0.737608,0.0145416,0.045523,559,1030,-8.38617,-0.476952
-658,-6,-8.40082,0.529419,0.00475222,0.00391169,0.00805058,0.0123935,-0.00372959,0.75932,0.00974636,0.0381701,566,1030,-8.40082,-0.529473
-651,-6,-8.36151,0.566406,0.00271231,0.00280025,0.00509858,0.00785505,-0.00234249,0.78971,0.00616764,0.0327563,573,1030,-8.3615,-0.566358
-644,-6,-8.31946,0.621582,0.00136125,0.00234813,0.00281239,0.00471004,-0.00100065,0.87224,0.00352129,0.0289571,580,1030,-8.31947,-0.621634
-637,-6,-8.33191,0.662842,-0.000199632,0.00098725,0.000320612,0.00106832,-0.000280701,1.32313,0.000821916,0.0171198,587,1030,-8.3319,-0.66284
-630,-6,-8.34662,0.641724,-0.000897547,0.000125382,-0.00134547,0.00105332,-0.00182548,-0.967032,0.00168189,0.0133263,594,1030,-8.34659,-0.641692
-623,-6,-8.35242,0.645264,-0.000921296,-3.96101e-05,-0.00197364,0.00154182,-0.00250273,-0.895277,0.00235698,0.0125813,601,1030,-8.35239,-0.645231
-616,-6,-8.33771,0.664795,-0.000732794,2.50381e-05,-0.00237049,0.0020467,-0.00275446,-0.864651,0.00278197,0.0137253,608,1030,-8.3377,-0.664751
-609,-6,-8.32355,0.658936,-0.000627988,-0.000721952,-0.00270839,0.00203382,-0.00338376,-0.776726,0.00316005,0.0164632,615,1030,-8.32358,-0.658963
-602,-6,-8.33826,0.655396,-0.00044645,-0.000596645,-0.00282194,0.00230139,-0.00334449,-0.772095,0.00327814,0.0128106,622,1030,-8.33827,-0.655432
-595,-6,-8.32617,0.644043,-0.000206154,-0.000811861,-0.00284425,0.00235132,-0.00336933,-0.732358,0.00332021,0.0132722,629,1030,-8.32614,-0.644021
-588,-6,-8.32495,0.427734,-0.000170805,-0.000942598,-0.00281868,0.00228828,-0.00340168,-0.717368,0.00330599,0.0156994,636,1030,-8.32493,-0.427707
-581,-6,-8.3313,0.266724,-0.000300869,-0.00107084,-0.00262072,0.00196299,-0.0033347,-0.71247,0.00309261,0.0238798,643,1030,-8.33127,-0.266739
-574,-6,-8.36835,0.344482,-0.000333851,-0.00105606,-0.00226405,0.00159771,-0.00298762,-0.706316,0.00268758,0.0311606,650,1030,-8.36837,-0.344514
-567,-6,-8.32843,0.327026,-0.000462909,-0.000909095,-0.00168854,0.00101721,-0.00238922,-0.719718,0.00201918,0.040909,657,1030,-8.32841,-0.326982
-560,-6,-8.22803,-0.104736,-0.000685277,-0.000606797,-0.000913565,0.00026837,-0.00156044,-0.806861,0.00114033,0.0443923,664,1030,-8.22801,0.1047
-553,-6,-8.32086,-0.122192,-0.00105553,-0.000143182,1.82261e-05,-0.000142818,-0.00105589,1.55083,0.000661482,0.0419257,671,1030,-8.32089,0.122217
-546,-6,-8.35535,0.105103,-0.00165581,0.00047835,0.00104082,0.000901898,-0.00207936,1.18432,0.00176541,0.042927,678,1030,-8.35535,-0.105115
-539,-6,-8.3111,0.391479,-0.00254946,0.00121108,0.00184867,0.00196766,-0.00330604,1.18233,0.00307728,0.0428366,685,1030,-8.31112,-0.391487
-532,-6,-8.34802,0.377808,-0.00394864,0.00216948,0.00194027,0.00273292,-0.00451208,1.28818,0.00422474,0.040391,692,1030,-8.34801,-0.377762
-525,-6,0,0,0,0,0,0,0,0,0,-1,699,1030,0,0
-518,-6,0,0,0,0,0,0,0,0,0,-1,706,1030,0,0
-511,-6,0,0,0,0,0,0,0,0,0,-1,713,1030,0,0
-504,-6,0,0,0,0,0,0,0,0,0,-1,720,1030,0,0
-497,-6,0,0,0,0,0,0,0,0,0,-1,727,1030,0,0
-490,-6,0,0,0,0,0,0,0,0,0,-1,734,1030,0,0
-483,-6,0,0,0,0,0,0,0,0,0,-1,741,1030,0,0
-476,-6,0,0,0,0,0,0,0,0,0,-1,748,1030,0,0
-469,-6,0,0,0,0,0,0,0,0,0,-1,755,1030,0,0
-462,-6,0,0,0,0,0,0,0,0,0,-1,762,1030,0,0
-455,-6,0,0,0,0,0,0,0,0,0,-1,769,1030,0,0
-448,-6,0,0,0,0,0,0,0,0,0,-1,776,1030,0,0
-441,-6,0,0,0,0,0,0,0,0,0,-1,783,1030,0,0
-434,-6,0,0,0,0,0,0,0,0,0,-1,790,1030,0,0
-427,-6,0,0,0,0,0,0,0,0,0,-1,797,1030,0,0
-420,-6,0,0,0,0,0,0,0,0,0,-1,804,1030,0,0
-413,-6,0,0,0,0,0,0,0,0,0,-1,811,1030,0,0
-406,-6,0,0,0,0,0,0,0,0,0,-1,818,1030,0,0
-399,-6,0,0,0,0,0,0,0,0,0,-1,825,1030,0,0
-392,-6,0,0,0,0,0,0,0,0,0,-1,832,1030,0,0
-385,-6,0,0,0,0,0,0,0,0,0,-1,839,1030,0,0
-378,-6,0,0,0,0,0,0,0,0,0,-1,846,1030,0,0
-371,-6,0,0,0,0,0,0,0,0,0,-1,853,1030,0,0
-364,-6,0,0,0,0,0,0,0,0,0,-1,860,1030,0,0
-357,-6,0,0,0,0,0,0,0,0,0,-1,867,1030,0,0
-350,-6,0,0,0,0,0,0,0,0,0,-1,874,1030,0,0
-343,-6,0,0,0,0,0,0,0,0,0,-1,881,1030,0,0
-336,-6,0,0,0,0,0,0,0,0,0,-1,888,1030,0,0
-329,-6,0,0,0,0,0,0,0,0,0,-1,895,1030,0,0
-322,-6,0,0,0,0,0,0,0,0,0,-1,902,1030,0,0
-315,-6,0,0,0,0,0,0,0,0,0,-1,909,1030,0,0
-308,-6,0,0,0,0,0,0,0,0,0,-1,916,1030,0,0
-301,-6,0,0,0,0,0,0,0,0,0,-1,923,1030,0,0
-294,-6,0,0,0,0,0,0,0,0,0,-1,930,1030,0,0
-287,-6,0,0,0,0,0,0,0,0,0,-1,937,1030,0,0
-280,-6,0,0,0,0,0,0,0,0,0,-1,944,1030,0,0
-273,-6,0,0,0,0,0,0,0,0,0,-1,951,1030,0,0
-266,-6,0,0,0,0,0,0,0,0,0,-1,958,1030,0,0
-259,-6,0,0,0,0,0,0,0,0,0,-1,965,1030,0,0
-252,-6,0,0,0,0,0,0,0,0,0,-1,972,1030,0,0
-245,-6,0,0,0,0,0,0,0,0,0,-1,979,1030,0,0
-238,-6,0,0,0,0,0,0,0,0,0,-1,986,1030,0,0
-231,-6,0,0,0,0,0,0,0,0,0,-1,993,1030,0,0
-224,-6,0,0,0,0,0,0,0,0,0,-1,1000,1030,0,0
-217,-6,0,0,0,0,0,0,0,0,0,-1,1007,1030,0,0
-210,-6,0,0,0,0,0,0,0,0,0,-1,1014,1030,0,0
-203,-6,0,0,0,0,0,0,0,0,0,-1,1021,1030,0,0
-196,-6,0,0,0,0,0,0,0,0,0,-1,1028,1030,0,0
-189,-6,0,0,0,0,0,0,0,0,0,-1,1035,1030,0,0
-182,-6,0,0,0,0,0,0,0,0,0,-1,1042,1030,0,0
-175,-6,0,0,0,0,0,0,0,0,0,-1,1049,1030,0,0
-168,-6,0,0,0,0,0,0,0,0,0,-1,1056,1030,0,0
-161,-6,0,0,0,0,0,0,0,0,0,-1,1063,1030,0,0
-154,-6,0,0,0,0,0,0,0,0,0,-1,1070,1030,0,0
-147,-6,0,0,0,0,0,0,0,0,0,-1,1077,1030,0,0
-140,-6,0,0,0,0,0,0,0,0,0,-1,1084,1030,0,0
-133,-6,0,0,0,0,0,0,0,0,0,-1,1091,1030,0,0
-126,-6,0,0,0,0,0,0,0,0,0,-1,1098,1030,0,0
-119,-6,0,0,0,0,0,0,0,0,0,-1,1105,1030,0,0
-112,-6,0,0,0,0,0,0,0,0,0,-1,1112,1030,0,0
-105,-6,0,0,0,0,0,0,0,0,0,-1,1119,1030,0,0
-98,-6,0,0,0,0,0,0,0,0,0,-1,1126,1030,0,0
-91,-6,0,0,0,0,0,0,0,0,0,-1,1133,1030,0,0
-84,-6,0,0,0,0,0,0,0,0,0,-1,1140,1030,0,0
-77,-6,0,0,0,0,0,0,0,0,0,-1,1147,1030,0,0
-70,-6,0,0,0,0,0,0,0,0,0,-1,1154,1030,0,0
-63,-6,0,0,0,0,0,0,0,0,0,-1,1161,1030,0,0
-56,-6,0,0,0,0,0,0,0,0,0,-1,1168,1030,0,0
-49,-6,0,0,0,0,0,0,0,0,0,-1,1175,1030,0,0
-42,-6,0,0,0,0,0,0,0,0,0,-1,1182,1030,0,0
-35,-6,0,0,0,0,0,0,0,0,0,-1,1189,1030,0,0
-28,-6,0,0,0,0,0,0,0,0,0,-1,1196,1030,0,0
-21,-6,0,0,0,0,0,0,0,0,0,-1,1203,1030,0,0
-14,-6,0,0,0,0,0,0,0,0,0,-1,1210,1030,0,0
-7,-6,0,0,0,0,0,0,0,0,0,-1,1217,1030,0,0
0,-6,0,0,0,0,0,0,0,0,0,-1,1224,1030,0,0
7,-6,0,0,0,0,0,0,0,0,0,-1,1231,1030,0,0
14,-6,0,0,0,0,0,0,0,0,0,-1,1238,1030,0,0
21,-6,0,0,0,0,0,0,0,0,0,-1,1245,1030,0,0
28,-6,0,0,0,0,0,0,0,0,0,-1,1252,1030,0,0
35,-6,0,0,0,0,0,0,0,0,0,-1,1259,1030,0,0
42,-6,0,0,0,0,0,0,0,0,0,-1,1266,1030,0,0
49,-6,0,0,0,0,0,0,0,0,0,-1,1273,1030,0,0
56,-6,0,0,0,0,0,0,0,0,0,-1,1280,1030,0,0
63,-6,0,0,0,0,0,0,0,0,0,-1,1287,1030,0,0
70,-6,0,0,0,0,0,0,0,0,0,-1,1294,1030,0,0
77,-6,0,0,0,0,0,0,0,0,0,-1,1301,1030,0,0
84,-6,0,0,0,0,0,0,0,0,0,-1,1308,1030,0,0
91,-6,0,0,0,0,0,0,0,0,0,-1,1315,1030,0,0
98,-6,0,0,0,0,0,0,0,0,0,-1,1322,1030,0,0
105,-6,0,0,0,0,0,0,0,0,0,-1,1329,1030,0,0
112,-6,0,0,0,0,0,0,0,0,0,-1,1336,1030,0,0
119,-6,0,0,0,0,0,0,0,0,0,-1,1343,1030,0,0
126,-6,0,0,0,0,0,0,0,0,0,-1,1350,1030,0,0
133,-6,0,0,0,0,0,0,0,0,0,-1,1357,1030,0,0
140,-6,0,0,0,0,0,0,0,0,0,-1,1364,1030,0,0
147,-6,0,0,0,0,0,0,0,0,0,-1,1371,1030,0,0
154,-6,0,0,0,0,0,0,0,0,0,-1,1378,1030,0,0
161,-6,0,0,0,0,0,0,0,0,0,-1,1385,1030,0,0
168,-6,0,0,0,0,0,0,0,0,0,-1,1392,1030,0,0
175,-6,0,0,0,0,0,0,0,0,0,-1,1399,1030,0,0
182,-6,0,0,0,0,0,0,0,0,0,-1,1406,1030,0,0
189,-6,0,0,0,0,0,0,0,0,0,-1,1413,1030,0,0
196,-6,0,0,0,0,0,0,0,0,0,-1,1420,1030,0,0
203,-6,0,0,0,0,0,0,0,0,0,-1,1427,1030,0,0
210,-6,0,0,0,0,0,0,0,0,0,-1,1434,1030,0,0
217,-6,0,0,0,0,0,0,0,0,0,-1,1441,1030,0,0
224,-6,0,0,0,0,0,0,0,0,0,-1,1448,1030,0,0
231,-6,0,0,0,0,0,0,0,0,0,-1,1455,1030,0,0
238,-6,0,0,0,0,0,0,0,0,0,-1,1462,1030,0,0
245,-6,0,0,0,0,0,0,0,0,0,-1,1469,1030,0,0
252,-6,0,0,0,0,0,0,0,0,0,-1,1476,1030,0,0
259,-6,0,0,0,0,0,0,0,0,0,-1,1483,1030,0,0
266,-6,0,0,0,0,0,0,0,0,0,-1,1490,1030,0,0
273,-6,0,0,0,0,0,0,0,0,0,-1,1497,1030,0,0
280,-6,0,0,0,0,0,0,0,0,0,-1,1504,1030,0,0
287,-6,0,0,0,0,0,0,0,0,0,-1,1511,1030,0,0
294,-6,0,0,0,0,0,0,0,0,0,-1,1518,1030,0,0
301,-6,0,0,0,0,0,0,0,0,0,-1,1525,1030,0,0
308,-6,0,0,0,0,0,0,0,0,0,-1,1532,1030,0,0
315,-6,0,0,0,0,0,0,0,0,0,-1,1539,1030,0,0
322,-6,0,0,0,0,0,0,0,0,0,-1,1546,1030,0,0
329,-6,0,0,0,0,0,0,0,0,0,-1,1553,1030,0,0
336,-6,0,0,0,0,0,0,0,0,0,-1,1560,1030,0,0
343,-6,0,0,0,0,0,0,0,0,0,-1,1567,1030,0,0
350,-6,0,0,0,0,0,0,0,0,0,-1,1574,1030,0,0
357,-6,0,0,0,0,0,0,0,0,0,-1,1581,1030,0,0
364,-6,0,0,0,0,0,0,0,0,0,-1,1588,1030,0,0
371,-6,0,0,0,0,0,0,0,0,0,-1,1595,1030,0,0
378,-6,0,0,0,0,0,0,0,0,0,-1,1602,1030,0,0
385,-6,0,0,0,0,0,0,0,0,0,-1,1609,1030,0,0
392,-6,0,0,0,0,0,0,0,0,0,-1,1616,1030,0,0
399,-6,0,0,0,0,0,0,0,0,0,-1,1623,1030,0,0
406,-6,0,0,0,0,0,0,0,0,0,-1,1630,1030,0,0
413,-6,0,0,0,0,0,0,0,0,0,-1,1637,1030,0,0
420,-6,0,0,0,0,0,0,0,0,0,-1,1644,1030,0,0
427,-6,0,0,0,0,0,0,0,0,0,-1,1651,1030,0,0
434,-6,0,0,0,0,0,0,0,0,0,-1,1658,1030,0,0
441,-6,0,0,0,0,0,0,0,0,0,-1,1665,1030,0,0
448,-6,0,0,0,0,0,0,0,0,0,-1,1672,1030,0,0
455,-6,0,0,0,0,0,0,0,0,0,-1,1679,1030,0,0
462,-6,0,0,0,0,0,0,0,0,0,-1,1686,1030,0,0
469,-6,0,0,0,0,0,0,0,0,0,-1,1693,1030,0,0
476,-6,0,0,0,0,0,0,0,0,0,-1,1700,1030,0,0
483,-6,0,0,0,0,0,0,0,0,0,-1,1707,1030,0,0
490,-6,0,0,0,0,0,0,0,0,0,-1,1714,1030,0,0
497,-6,0,0,0,0,0,0,0,0,0,-1,1721,1030,0,0
504,-6,0,0,0,0,0,0,0,0,0,-1,1728,1030,0,0
511,-6,0,0,0,0,0,0,0,0,0,-1,1735,1030,0,0
518,-6,0,0,0,0,0,0,0,0,0,-1,1742,1030,0,0
525,-6,0,0,0,0,0,0,0,0,0,-1,1749,1030,0,0
532,-6,0,0,0,0,0,0,0,0,0,-1,1756,1030,0,0
539,-6,0,0,0,0,0,0,0,0,0,-1,1763,1030,0,0
546,-6,0,0,0,0,0,0,0,0,0,-1,1770,1030,0,0
553,-6,0,0,0,0,0,0,0,0,0,-1,1777,1030,0,0
560,-6,0,0,0,0,0,0,0,0,0,-1,1784,1030,0,0
567,-6,0,0,0,0,0,0,0,0,0,-1,1791,1030,0,0
574,-6,0,0,0,0,0,0,0,0,0,-1,1798,1030,0,0
581,-6,0,0,0,0,0,0,0,0,0,-1,1805,1030,0,0
588,-6,0,0,0,0,0,0,0,0,0,-1,1812,1030,0,0
595,-6,0,0,0,0,0,0,0,0,0,-1,1819,1030,0,0
602,-6,0,0,0,0,0,0,0,0,0,-1,1826,1030,0,0
609,-6,0,0,0,0,0,0,0,0,0,-1,1833,1030,0,0
616,-6,0,0,0,0,0,0,0,0,0,-1,1840,1030,0,0
623,-6,0,0,0,0,0,0,0,0,0,-1,1847,1030,0,0
630,-6,0,0,0,0,0,0,0,0,0,-1,1854,1030,0,0
637,-6,0,0,0,0,0,0,0,0,0,-1,1861,1030,0,0
644,-6,0,0,0,0,0,0,0,0,0,-1,1868,1030,0,0
651,-6,14.2444,1.95667,-0.000532439,0.00250649,0.00433654,0.00558207,-0.00360801,0.953908,0.00534654,0.0370498,1875,1030,14.2444,-1.95665
658,-6,14.2206,2.026,-0.000393629,0.0018631,0.00289448,0.00384137,-0.0023719,0.971254,0.00362052,0.0401151,1882,1030,14.2205,-2.02594
665,-6,14.1978,1.9845,-0.000378776,0.00146579,0.00189004,0.00264657,-0.00155955,1.01239,0.00245528,0.0424891,1889,1030,14.1978,-1.98447
672,-6,14.235,1.93787,-0.000497765,0.00123315,0.00156878,0.00215936,-0.00142398,1.03746,0.00208331,0.0418319,1896,1030,14.2349,-1.93791
679,-6,14.0731,1.88123,-0.00108928,0.00105088,0.0018526,0.00212024,-0.00215864,1.0473,0.00247044,0.0426309,1903,1030,14.0732,-1.88124
686,-6,13.9185,1.76892,-0.0018057,0.000889933,0.00236688,0.00226585,-0.00318162,1.04422,0.00315988,0.0384299,1910,1030,13.9185,-1.76896
693,-6,14.09,1.91284,-0.00245972,0.000740583,0.0029541,0.00250008,-0.00421921,1.03361,0.00392148,0.0356874,1917,1030,14.09,-1.91282
700,-6,14.1228,1.93579,-0.00302634,0.000549249,0.00348175,0.00267538,-0.00515247,1.02258,0.00459422,0.0306789,1924,1030,14.1228,-1.93583
707,-6,14.0742,1.92761,-0.00350951,0.000467649,0.00386965,0.00282977,-0.00587164,1.02275,0.00512506,0.024816,1931,1030,14.0743,-1.92756
714,-6,14.0754,1.97681,-0.00386088,0.000388547,0.00409609,0.00287819,-0.00635053,1.02465,0.00545247,0.0243496,1938,1030,14.0755,-1.97681
721,-6,14.0538,2.26636,-0.00409615,0.000364557,0.00423508,0.00292068,-0.00665228,1.02776,0.00566519,0.0261667,1945,1030,14.0539,-2.26642
728,-6,13.8369,2.4873,-0.00421715,0.000391926,0.00430237,0.0029681,-0.00679332,1.03128,0.00577819,0.0216224,1952,1030,13.8369,-2.48731
735,-6,13.803,2.53455,-0.00399254,0.000460136,0.0042003,0.00298765,-0.00652005,1.02909,0.00561413,0.0165453,1959,1030,13.803,-2.53454
742,-6,13.7892,2.55469,-0.00334374,0.000816123,0.00422602,0.00344632,-0.00597394,1.01408,0.00550366,0.013545,1966,1030,13.7892,-2.55464
749,-6,13.7889,2.57495,-0.00236999,0.000989264,0.00404396,0.00368854,-0.00506927,0.982229,0.00507722,0.0120722,1973,1030,13.7889,-2.575
756,-6,13.8049,2.60242,-0.00106714,0.00125503,0.00392578,0.00418783,-0.00399993,0.929179,0.00472762,0.0127958,1980,1030,13.8049,-2.60236
763,-6,13.7986,2.61401,0.000429653,0.00164772,0.00400866,0.00509334,-0.00301598,0.860786,0.00473285,0.011816,1987,1030,13.7986,-2.61403
770,-6,13.7928,2.61841,0.00225999,0.00207133,0.00438941,0.00655608,-0.00222476,0.774655,0.0052712,0.0107569,1994,1030,13.7928,-2.61843
777,-6,13.7683,2.62524,0.00451408,0.00247188,0.00537038,0.00895957,-0.00197361,0.691452,0.00672811,0.0136913,2001,1030,13.7683,-2.62524
784,-6,13.6493,2.66333,0.00686366,0.00268236,0.00718949,0.0122603,-0.00271429,0.643904,0.00921256,0.0345151,2008,1030,13.6493,-2.66335
791,-6,13.5317,2.72009,0.00963272,0.00255399,0.00965743,0.0163789,-0.00419222,0.609753,0.0125523,0.0493768,2015,1030,13.5317,-2.72012
798,-6,13.6049,3.41077,0.0133672,0.00188689,0.0126511,0.0215195,-0.00626535,0.572422,0.0168281,0.0490045,2022,1030,13.6048,-3.41071
805,-6,13.021,3.15222,0,0,0,0,0,0,0,-1,2029,1030,13.021,-3.15224
812,-6,12.8147,3.79236,0,0,0,0,0,0,0,-1,2036,1030,12.8146,-3.79233
-700,-13,0,0,0,0,0,0,0,0,0,-1,524,1037,0,0
-693,-13,-7.30225,0.150635,0.024449,0.0179872,0.0386781,0.0600309,-0.0175947,0.743728,0.0469965,0.0496073,531,1037,-7.30223,-0.15067
-686,-13,-7.0224,0.391113,0.0176268,0.0154402,0.0301794,0.0467327,-0.0136657,0.767293,0.0365716,0.044819,538,1037,-7.02239,-0.391062
-679,-13,-6.97284,0.455933,0.0123186,0.0126732,0.0230038,0.0355004,-0.0105086,0.789252,0.0278389,0.0465475,545,1037,-6.97285,-0.455872
-672,-13,-7.94006,-0.0526123,0,0,0,0,0,0,0,-1,552,1037,-7.94004,0.0526653
-665,-13,-8.42139,-0.0189209,0.00515177,0.00766415,0.0122271,0.0186994,-0.00588345,0.836588,0.0148219,0.0485229,559,1037,-8.42137,0.0189136
-658,-13,-8.37634,0.412476,0.0029086,0.00567584,0.00840771,0.012813,-0.00422858,0.86695,0.0102466,0.0475462,566,1037,-8.37634,-0.412433
-651,-13,-8.14789,0.968628,0.00135883,0.00406322,0.0054693,0.00834501,-0.00292295,0.906585,0.00675195,0.0402699,573,1037,-8.14788,-0.968668
-644,-13,-8.32764,0.650757,0.000389376,0.00327002,0.00315057,0.00529389,-0.0016345,0.999795,0.00418195,0.0273709,580,1037,-8.32763,-0.650732
-637,-13,-8.33557,0.623047,-0.000790755,0.00152559,0.000675307,0.00170809,-0.000973256,1.30685,0.00156733,0.0189379,587,1037,-8.33557,-0.623073
-630,-13,-8.34747,0.615112,-0.00123882,0.000426735,-0.00102924,0.00091791,-0.00172999,-1.12554,0.00155255,0.0128768,594,1037,-8.34749,-0.615077
-623,-13,-8.3396,0.643555,-0.00115098,3.01641e-05,-0.00182108,0.00135404,-0.00247486,-0.942197,0.00224196,0.0108791,601,1037,-8.33959,-0.643512
-616,-13,-8.32837,0.659424,-0.000857756,-0.000100247,-0.00233951,0.00189097,-0.00284897,-0.865649,0.00275518,0.0103579,608,1037,-8.32838,-0.659432
-609,-13,-8.3067,0.681641,-0.000674892,-0.000939961,-0.00278427,0.00198,-0.00359485,-0.761616,0.00326334,0.0147708,615,1037,-8.30669,-0.681686
-602,-13,-8.32104,0.6698,-0.000444832,-0.000819254,-0.00294895,0.00232285,-0.00358693,-0.753699,0.00343793,0.0103551,622,1037,-8.32104,-0.669757
-595,-13,-8.32111,0.650879,-0.000200465,-0.0010941,-0.00299503,0.0023809,-0.00367546,-0.711352,0.00352316,0.0140079,629,1037,-8.32112,-0.650923
-588,-13,-8.23853,0.414185,-0.000197671,-0.00126253,-0.00296089,0.00227828,-0.00373848,-0.696439,0.00350771,0.0242049,636,1037,-8.23854,-0.414146
-581,-13,-8.33081,0.24292,-0.000417501,-0.00139438,-0.00276722,0.00190406,-0.00371594,-0.698043,0.00330044,0.0249499,643,1037,-8.3308,-0.242944
-574,-13,-8.36139,0.270752,-0.000546611,-0.0014238,-0.00242552,0.00147965,-0.00345006,-0.695952,0.00292097,0.0344875,650,1037,-8.36138,-0.270712
-567,-13,-8.39838,0.325439,-0.000799553,-0.00129045,-0.0018554,0.000826567,-0.00291657,-0.719636,0.00227062,0.0405291,657,1037,-8.3984,-0.32542
-560,-13,-8.36414,0.253662,-0.0011995,-0.000980609,-0.00106494,-1.95069e-05,-0.0021606,-0.836604,0.00143394,0.0445661,664,1037,-8.36415,-0.253701
-553,-13,-8.31567,0.0325928,-0.00181822,-0.000478593,-8.45321e-05,-0.00047328,-0.00182353,-1.50803,0.00109265,0.0421056,671,1037,-8.31569,-0.0325669
-546,-13,-8.36609,0.327393,-0.0027628,0.000222659,0.00104532,0.000552272,-0.00309241,1.26534,0.00226822,0.0380519,678,1037,-8.3661,-0.327358
-539,-13,-8.35431,0.668457,-0.0041391,0.00107816,0.00202789,0.00177367,-0.0048346,1.2404,0.00394936,0.0400047,685,1037,-8.35432,-0.668412
-532,-13,-8.47736,0.564819,-0.00619724,0.00216661,0.00234387,0.00277867,-0.0068093,1.31537,0.00569633,0.0421429,692,1037,-8.47739,-0.564777
-525,-13,0,0,0,0,0,0,0,0,0,-1,699,1037,0,0
-518,-13,0,0,0,0,0,0,0,0,0,-1,706,1037,0,0
-511,-13,0,0,0,0,0,0,0,0,0,-1,713,1037,0,0
-504,-13,0,0,0,0,0,0,0,0,0,-1,720,1037,0,0
-497,-13,0,0,0,0,0,0,0,0,0,-1,727,1037,0,0
-490,-13,0,0,0,0,0,0,0,0,0,-1,734,1037,0,0
-483,-13,0,0,0,0,0,0,0,0,0,-1,741,1037,0,0
-476,-13,0,0,0,0,0,0,0,0,0,-1,748,1037,0,0
-469,-13,0,0,0,0,0,0,0,0,0,-1,755,1037,0,0
-462,-13,0,0,0,0,0,0,0,0,0,-1,762,1037,0,0
-455,-13,0,0,0,0,0,0,0,0,0,-1,769,1037,0,0
-448,-13,0,0,0,0,0,0,0,0,0,-1,776,1037,0,0
-441,-13,0,0,0,0,0,0,0,0,0,-1,783,1037,0,0
-434,-13,0,0,0,0,0,0,0,0,0,-1,790,1037,0,0
-427,-13,0,0,0,0,0,0,0,0,0,-1,797,1037,0,0
-420,-13,0,0,0,0,0,0,0,0,0,-1,804,1037,0,0
-413,-13,0,0,0,0,0,0,0,0,0,-1,811,1037,0,0
-406,-13,0,0,0,0,0,0,0,0,0,-1,818,1037,0,0
-399,-13,0,0,0,0,0,0,0,0,0,-1,825,1037,0,0
-392,-13,0,0,0,0,0,0,0,0,0,-1,832,1037,0,0
-385,-13,0,0,0,0,0,0,0,0,0,-1,839,1037,0,0
-378,-13,0,0,0,0,0,0,0,0,0,-1,846,1037,0,0
-371,-13,0,0,0,0,0,0,0,0,0,-1,853,1037,0,0
-364,-13,0,0,0,0,0,0,0,0,0,-1,860,1037,0,0
-357,-13,0,0,0,0,0,0,0,0,0,-1,867,1037,0,0
-350,-13,0,0,0,0,0,0,0,0,0,-1,874,1037,0,0
-343,-13,0,0,0,0,0,0,0,0,0,-1,881,1037,0,0
-336,-13,0,0,0,0,0,0,0,0,0,-1,888,1037,0,0
-329,-13,0,0,0,0,0,0,0,0,0,-1,895,1037,0,0
-322,-13,0,0,0,0,0,0,0,0,0,-1,902,1037,0,0
-315,-13,0,0,0,0,0,0,0,0,0,-1,909,1037,0,0
-308,-13,0,0,0,0,0,0,0,0,0,-1,916,1037,0,0
-301,-13,0,0,0,0,0,0,0,0,0,-1,923,1037,0,0
-294,-13,0,0,0,0,0,0,0,0,0,-1,930,1037,0,0
-287,-13,0,0,0,0,0,0,0,0,0,-1,937,1037,0,0
-280,-13,0,0,0,0,0,0,0,0,0,-1,944,1037,0,0
-273,-13,0,0,0,0,0,0,0,0,0,-1,951,1037,0,0
-266,-13,0,0,0,0,0,0,0,0,0,-1,958,1037,0,0
-259,-13,0,0,0,0,0,0,0,0,0,-1,965,1037,0,0
-252,-13,0,0,0,0,0,0,0,0,0,-1,972,1037,0,0
-245,-13,0,0,0,0,0,0,0,0,0,-1,979,1037,0,0
-238,-13,0,0,0,0,0,0,0,0,0,-1,986,1037,0,0
-231,-13,0,0,0,0,0,0,0,0,0,-1,993,1037,0,0
-224,-13,0,0,0,0,0,0,0,0,0,-1,1000,1037,0,0
-217,-13,0,0,0,0,0,0,0,0,0,-1,1007,1037,0,0
-210,-13,0,0,0,0,0,0,0,0,0,-1,1014,1037,0,0
-203,-13,0,0,0,0,0,0,0,0,0,-1,1021,1037,0,0
-196,-13,0,0,0,0,0,0,0,0,0,-1,1028,1037,0,0
-189,-13,0,0,0,0,0,0,0,0,0,-1,1035,1037,0,0
-182,-13,0,0,0,0,0,0,0,0,0,-1,1042,1037,0,0
-175,-13,0,0,0,0,0,0,0,0,0,-1,1049,1037,0,0
-168,-13,0,0,0,0,0,0,0,0,0,-1,1056,1037,0,0
-161,-13,0,0,0,0,0,0,0,0,0,-1,1063,1037,0,0
-154,-13,0,0,0,0,0,0,0,0,0,-1,1070,1037,0,0
-147,-13,0,0,0,0,0,0,0,0,0,-1,1077,1037,0,0
-140,-13,0,0,0,0,0,0,0,0,0,-1,1084,1037,0,0
-133,-13,0,0,0,0,0,0,0,0,0,-1,1091,1037,0,0
-126,-13,0,0,0,0,0,0,0,0,0,-1,1098,1037,0,0
-119,-13,0,0,0,0,0,0,0,0,0,-1,1105,1037,0,0
-112,-13,0,0,0,0,0,0,0,0,0,-1,1112,1037,0,0
-105,-13,0,0,0,0,0,0,0,0,0,-1,1119,1037,0,0
-98,-13,0,0,0,0,0,0,0,0,0,-1,1126,1037,0,0
-91,-13,0,0,0,0,0,0,0,0,0,-1,1133,1037,0,0
-84,-13,0,0,0,0,0,0,0,0,0,-1,1140,1037,0,0
-77,-13,0,0,0,0,0,0,0,0,0,-1,1147,1037,0,0
-70,-13,0,0,0,0,0,0,0,0,0,-1,1154,1037,0,0
-63,-13,0,0,0,0,0,0,0,0,0,-1,1161,1037,0,0
-56,-13,0,0,0,0,0,0,0,0,0,-1,1168,1037,0,0
-49,-13,0,0,0,0,0,0,0,0,0,-1,1175,1037,0,0
-42,-13,0,0,0,0,0,0,0,0,0,-1,1182,1037,0,0
-35,-13,0,0,0,0,0,0,0,0,0,-1,1189,1037,0,0
-28,-13,0,0,0,0,0,0,0,0,0,-1,1196,1037,0,0
-21,-13,0,0,0,0,0,0,0,0,0,-1,1203,1037,0,0
-14,-13,0,0,0,0,0,0,0,0,0,-1,1210,1037,0,0
-7,-13,0,0,0,0,0,0,0,0,0,-1,1217,1037,0,0
0,-13,0,0,0,0,0,0,0,0,0,-1,1224,1037,0,0
7,-13,0,0,0,0,0,0,0,0,0,-1,1231,1037,0,0
14,-13,0,0,0,0,0,0,0,0,0,-1,1238,1037,0,0
21,-13,0,0,0,0,0,0,0,0,0,-1,1245,1037,0,0
28,-13,0,0,0,0,0,0,0,0,0,-1,1252,1037,0,0
35,-13,0,0,0,0,0,0,0,0,0,-1,1259,1037,0,0
42,-13,0,0,0,0,0,0,0,0,0,-1,1266,1037,0,0
49,-13,0,0,0,0,0,0,0,0,0,-1,1273,1037,0,0
56,-13,0,0,0,0,0,0,0,0,0,-1,1280,1037,0,0
63,-13,0,0,0,0,0,0,0,0,0,-1,1287,1037,0,0
70,-13,0,0,0,0,0,0,0,0,0,-1,1294,1037,0,0
77,-13,0,0,0,0,0,0,0,0,0,-1,1301,1037,0,0
84,-13,0,0,0,0,0,0,0,0,0,-1,1308,1037,0,0
91,-13,0,0,0,0,0,0,0,0,0,-1,1315,1037,0,0
98,-13,0,0,0,0,0,0,0,0,0,-1,1322,1037,0,0
105,-13,0,0,0,0,0,0,0,0,0,-1,1329,1037,0,0
112,-13,0,0,0,0,0,0,0,0,0,-1,1336,1037,0,0
119,-13,0,0,0,0,0,0,0,0,0,-1,1343,1037,0,0
126,-13,0,0,0,0,0,0,0,0,0,-1,1350,1037,0,0
133,-13,0,0,0,0,0,0,0,0,0,-1,1357,1037,0,0
140,-13,0,0,0,0,0,0,0,0,0,-1,1364,1037,0,0
147,-13,0,0,0,0,0,0,0,0,0,-1,1371,1037,0,0
154,-13,0,0,0,0,0,0,0,0,0,-1,1378,1037,0,0
161,-13,0,0,0,0,0,0,0,0,0,-1,1385,1037,0,0
168,-13,0,0,0,0,0,0,0,0,0,-1,1392,1037,0,0
175,-13,0,0,0,0,0,0,0,0,0,-1,1399,1037,0,0
182,-13,0,0,0,0,0,0,0,0,0,-1,1406,1037,0,0
189,-13,0,0,0,0,0,0,0,0,0,-1,1413,1037,0,0
196,-13,0,0,0,0,0,0,0,0,0,-1,1420,1037,0,0
203,-13,0,0,0,0,0,0,0,0,0,-1,1427,1037,0,0
210,-13,0,0,0,0,0,0,0,0,0,-1,1434,1037,0,0
217,-13,0,0,0,0,0,0,0,0,0,-1,1441,1037,0,0
224,-13,0,0,0,0,0,0,0,0,0,-1,1448,1037,0,0
231,-13,0,0,0,0,0,0,0,0,0,-1,1455,1037,0,0
238,-13,0,0,0,0,0,0,0,0,0,-1,1462,1037,0,0
245,-13,0,0,0,0,0,0,0,0,0,-1,1469,1037,0,0
252,-13,0,0,0,0,0,0,0,0,0,-1,1476,1037,0,0
259,-13,0,0,0,0,0,0,0,0,0,-1,1483,1037,0,0
266,-13,0,0,0,0,0,0,0,0,0,-1,1490,1037,0,0
273,-13,0,0,0,0,0,0,0,0,0,-1,1497,1037,0,0
280,-13,0,0,0,0,0,0,0,0,0,-1,1504,1037,0,0
287,-13,0,0,0,0,0,0,0,0,0,-1,1511,1037,0,0
294,-13,0,0,0,0,0,0,0,0,0,-1,1518,1037,0,0
301,-13,0,0,0,0,0,0,0,0,0,-1,1525,1037,0,0
308,-13,0,0,0,0,0,0,0,0,0,-1,1532,1037,0,0
315,-13,0,0,0,0,0,0,0,0,0,-1,1539,1037,0,0
322,-13,0,0,0,0,0,0,0,0,0,-1,1546,1037,0,0
329,-13,0,0,0,0,0,0,0,0,0,-1,1553,1037,0,0
336,-13,0,0,0,0,0,0,0,0,0,-1,1560,1037,0,0
343,-13,0,0,0,0,0,0,0,0,0,-1,1567,1037,0,0
350,-13,0,0,0,0,0,0,0,0,0,-1,1574,1037,0,0
357,-13,0,0,0,0,0,0,0,0,0,-1,1581,1037,0,0
364,-13,0,0,0,0,0,0,0,0,0,-1,1588,1037,0,0
371,-13,0,0,0,0,0,0,0,0,0,-1,1595,1037,0,0
378,-13,0,0,0,0,0,0,0,0,0,-1,1602,1037,0,0
385,-13,0,0,0,0,0,0,0,0,0,-1,1609,1037,0,0
392,-13,0,0,0,0,0,0,0,0,0,-1,1616,1037,0,0
399,-13,0,0,0,0,0,0,0,0,0,-1,1623,1037,0,0
406,-13,0,0,0,0,0,0,0,0,0,-1,1630,1037,0,0
413,-13,0,0,0,0,0,0,0,0,0,-1,1637,1037,0,0
420,-13,0,0,0,0,0,0,0,0,0,-1,1644,1037,0,0
427,-13,0,0,0,0,0,0,0,0,0,-1,1651,1037,0,0
434,-13,0,0,0,0,0,0,0,0,0,-1,1658,1037,0,0
441,-13,0,0,0,0,0,0,0,0,0,-1,1665,1037,0,0
448,-13,0,0,0,0,0,0,0,0,0,-1,1672,1037,0,0
455,-13,0,0,0,0,0,0,0,0,0,-1,1679,1037,0,0
462,-13,0,0,0,0,0,0,0,0,0,-1,1686,1037,0,0
469,-13,0,0,0,0,0,0,0,0,0,-1,1693,1037,0,0
476,-13,0,0,0,0,0,0,0,0,0,-1,1700,1037,0,0
483,-13,0,0,0,0,0,0,0,0,0,-1,1707,1037,0,0
490,-13,0,0,0,0,0,0,0,0,0,-1,1714,1037,0,0
497,-13,0,0,0,0,0,0,0,0,0,-1,1721,1037,0,0
504,-13,0,0,0,0,0,0,0,0,0,-1,1728,1037,0,0
511,-13,0,0,0,0,0,0,0,0,0,-1,1735,1037,0,0
518,-13,0,0,0,0,0,0,0,0,0,-1,1742,1037,0,0
525,-13,0,0,0,0,0,0,0,0,0,-1,1749,1037,0,0
532,-13,0,0,0,0,0,0,0,0,0,-1,1756,1037,0,0
539,-13,0,0,0,0,0,0,0,0,0,-1,1763,1037,0,0
546,-13,0,0,0,0,0,0,0,0,0,-1,1770,1037,0,0
553,-13,0,0,0,0,0,0,0,0,0,-1,1777,1037,0,0
560,-13,0,0,0,0,0,0,0,0,0,-1,1784,1037,0,0
567,-13,0,0,0,0,0,0,0,0,0,-1,1791,1037,0,0
574,-13,0,0,0,0,0,0,0,0,0,-1,1798,1037,0,0
581,-13,0,0,0,0,0,0,0,0,0,-1,1805,1037,0,0
588,-13,0,0,0,0,0,0,0,0,0,-1,1812,1037,0,0
595,-13,0,0,0,0,0,0,0,0,0,-1,1819,1037,0,0
602,-13,0,0,0,0,0,0,0,0,0,-1,1826,1037,0,0
609,-13,0,0,0,0,0,0,0,0,0,-1,1833,1037,0,0
616,-13,0,0,0,0,0,0,0,0,0,-1,1840,1037,0,0
623,-13,0,0,0,0,0,0,0,0,0,-1,1847,1037,0,0
630,-13,0,0,0,0,0,0,0,0,0,-1,1854,1037,0,0
637,-13,0,0,0,0,0,0,0,0,0,-1,1861,1037,0,0
644,-13,0,0,0,0,0,0,0,0,0,-1,1868,1037,0,0
651,-13,14.1453,1.97327,-0.00165788,0.0022652,0.00478222,0.00547254,-0.00486522,0.980021,0.00597194,0.0386325,1875,1037,14.1453,-1.97331
658,-13,14.2324,1.85315,-0.00121129,0.00181609,0.0032568,0.00389378,-0.00328898,1.00294,0.00415186,0.0418624,1882,1037,14.2324,-1.85318
665,-13,14.1937,1.95044,-0.000978404,0.00153332,0.00216794,0.00278288,-0.00222797,1.04792,0.00289892,0.043253,1889,1037,14.1937,-1.95048
672,-13,14.1622,1.9071,-0.00091518,0.00134303,0.00177824,0.00232035,-0.0018925,1.06826,0.00243646,0.0376514,1896,1037,14.1623,-1.90715
679,-13,14.0082,1.88855,-0.00137662,0.00115681,0.00204792,0.00229812,-0.00251792,1.06237,0.00278151,0.0383539,1903,1037,14.0081,-1.88858
686,-13,13.9742,1.86914,-0.00201013,0.000966048,0.00256809,0.00244604,-0.00349012,1.04799,0.00344487,0.0401547,1910,1037,13.9742,-1.86918
693,-13,14.0186,1.79126,-0.00261007,0.000772423,0.00316912,0.00267334,-0.00451099,1.03051,0.00419286,0.0389509,1917,1037,14.0186,-1.79124
700,-13,14.0388,1.82385,-0.00314046,0.000549039,0.00372293,0.0028592,-0.00545063,1.01542,0.00487482,0.0362296,1924,1037,14.0388,-1.8239
707,-13,14.0516,1.87756,-0.00356904,0.000415329,0.00412814,0.00300685,-0.00616056,1.01021,0.0053962,0.0286942,1931,1037,14.0517,-1.87758
714,-13,14.0848,1.97693,-0.00388028,0.000288618,0.00436286,0.0030394,-0.00663106,1.00825,0.00571016,0.0207423,1938,1037,14.0848,-1.97687
721,-13,14.0901,2.28516,-0.00410733,0.000216652,0.00449572,0.00304322,-0.0069339,1.00952,0.00590448,0.0250303,1945,1037,14.0901,-2.28511
728,-13,13.8925,2.50208,-0.00423947,0.000226338,0.00455617,0.00306734,-0.00708047,1.01324,0.00600962,0.0222084,1952,1037,13.8924,-2.50212
735,-13,13.8347,2.5365,-0.00401447,0.000303852,0.00442213,0.00306579,-0.00677641,1.0125,0.00581545,0.0185984,1959,1037,13.8348,-2.53649
742,-13,13.8074,2.56958,-0.00328947,0.000693943,0.00434111,0.00347844,-0.00607397,1.00047,0.00558253,0.0107297,1966,1037,13.8074,-2.56955
749,-13,13.8082,2.59351,-0.00216503,0.000991367,0.00394937,0.0036662,-0.00483986,0.975482,0.00492653,0.0145699,1973,1037,13.8082,-2.5935
756,-13,13.8212,2.60596,-0.000712602,0.00151816,0.0034964,0.00407277,-0.00326721,0.9398,0.00424624,0.0123682,1980,1037,13.8211,-2.60597
763,-13,13.8108,2.60632,0.000963056,0.002195,0.00320439,0.00484209,-0.00168403,0.880354,0.00391215,0.0110601,1987,1037,13.8108,-2.60628
770,-13,13.7919,2.59827,0.00303932,0.00302951,0.00305441,0.00608882,-1.9995e-05,0.784595,0.0040659,0.0099967,1994,1037,13.7919,-2.59824
777,-13,13.7803,2.59875,0.005644,0.00400793,0.003283,0.00820934,0.00144258,0.663298,0.00506104,0.0112695,2001,1037,13.7802,-2.59876
784,-13,13.7804,2.65027,0.00845782,0.0050283,0.00411746,0.0112033,0.0022828,0.58809,0.0068362,0.0251057,2008,1037,13.7804,-2.65025
791,-13,13.806,2.73145,0.0118146,0.00603761,0.00527773,0.0149426,0.00290965,0.535013,0.00914742,0.0425334,2015,1037,13.8061,-2.73143
798,-13,13.9253,3.03247,0.0162739,0.00695497,0.00653798,0.0196429,0.003586,0.475806,0.0120787,0.0467396,2022,1037,13.9252,-3.03244
805,-13,14.259,3.26208,0,0,0,0,0,0,0,-1,2029,1037,14.259,-3.26206
812,-13,12.9409,3.41223,0,0,0,0,0,0,0,-1,2036,1037,12.941,-3.41223
-700,-20,-7.40149,-0.438232,0,0,0,0,0,0,0,-1,524,1044,-7.40148,0.438251
-693,-20,-7.36682,-0.0808105,0.0254906,0.0220361,0.036682,0.0604859,-0.0129593,0.761872,0.0452663,0.0450343,531,1044,-7.3668,0.0807681
-686,-20,-7.31268,0.182373,0.0189368,0.0192295,0.0293779,0.0484614,-0.0102951,0.787889,0.0362302,0.043273,538,1044,-7.31271,-0.182398
-679,-20,-7.32648,0.563843,0.0135497,0.0159919,0.0228821,0.0376855,-0.00814388,0.812056,0.0282326,0.0447892,545,1044,-7.32647,-0.563877
-672,-20,-7.52893,0.946899,0.00923147,0.0127902,0.0172945,0.0283966,-0.006375,0.83666,0.0213753,0.0493641,552,1044,-7.52893,-0.946949
-665,-20,-7.61005,1.26563,0,0,0,0,0,0,0,-1,559,1044,-7.61003,-1.26558
-658,-20,-8.16022,1.86316,0.00341074,0.00737436,0.00883577,0.0144478,-0.00366274,0.895719,0.0110569,0.0458088,566,1044,-8.16024,-1.86317
-651,-20,-8.18097,0.974121,0.00166813,0.00531584,0.00586877,0.00963763,-0.00265366,0.936054,0.00746847,0.0379178,573,1044,-8.18098,-0.974076
-644,-20,-8.30402,0.615479,0.000577292,0.00419089,0.00350823,0.00633026,-0.00156208,1.02319,0.00482588,0.0243542,580,1044,-8.30401,-0.615519
-637,-20,-8.31158,0.583862,-0.00057846,0.00212212,0.00103757,0.00247473,-0.000931062,1.24321,0.00203254,0.0160406,587,1044,-8.31159,-0.5839
-630,-20,-8.3089,0.61084,-0.00134442,0.000760915,-0.000780028,0.00101842,-0.00160193,-1.25194,0.00152531,0.0131625,594,1044,-8.30892,-0.610847
-623,-20,-8.3161,0.631348,-0.00134536,0.000170625,-0.00172126,0.0012934,-0.00246813,-0.992806,0.00220675,0.012143,601,1044,-8.31613,-0.631356
-616,-20,-8.31494,0.649902,-0.000965854,-0.000139878,-0.0023326,0.00181601,-0.00292174,-0.873015,0.00276006,0.0119342,608,1044,-8.31493,-0.649855
-609,-20,-8.32184,0.674194,-0.000714342,-0.00102559,-0.00285245,0.00198673,-0.00372666,-0.758146,0.00334923,0.0139709,615,1044,-8.32183,-0.674157
-602,-20,-8.32117,0.665283,-0.000463556,-0.000960599,-0.00306618,0.00236416,-0.00378832,-0.74496,0.00358372,0.0100201,622,1044,-8.32115,-0.665242
-595,-20,-8.31012,0.647949,-0.000244159,-0.00130784,-0.00317481,0.00244305,-0.00399505,-0.702409,0.00375287,0.0115762,629,1044,-8.31015,-0.647894
-588,-20,-8.30371,0.42041,-0.000268444,-0.00149169,-0.0031817,0.00235988,-0.00412001,-0.690441,0.0037869,0.0204232,636,1044,-8.30372,-0.42039
-581,-20,-8.34326,0.269165,-0.000534137,-0.00161412,-0.00303562,0.00200915,-0.0041574,-0.697377,0.00363156,0.0309054,643,1044,-8.34325,-0.269157
-574,-20,-8.38647,0.423828,-0.000710995,-0.00166236,-0.00277426,0.00162807,-0.00400142,-0.700493,0.00334509,0.0385378,650,1044,-8.38647,-0.423861
-567,-20,-8.43188,0.656616,-0.00102716,-0.00153425,-0.00229237,0.00102564,-0.00358705,-0.730319,0.00279666,0.042248,657,1044,-8.43191,-0.65665
-560,-20,-8.22498,-0.127808,0,0,0,0,0,0,0,-1,664,1044,-8.22496,0.127834
-553,-20,-8.25952,0.168457,-0.00225599,-0.000632844,-0.000702443,-0.000371068,-0.00251777,-1.21408,0.00156951,0.0424831,671,1044,-8.2595,-0.168508
-546,-20,-8.23273,0.47998,-0.00336473,0.000207417,0.000362145,0.000243762,-0.00340107,1.47077,0.00235285,0.0385693,678,1044,-8.23274,-0.479958
-539,-20,-8.31824,0.586426,-0.00496573,0.00130587,0.00132474,0.00157421,-0.00523408,1.37094,0.00411573,0.040462,685,1044,-8.31825,-0.58646
-532,-20,-8.56396,0.55127,-0.00732378,0.00276201,0.00165125,0.00302547,-0.00758724,1.41258,0.00631311,0.0429702,692,1044,-8.56394,-0.551227
-525,-20,0,0,0,0,0,0,0,0,0,-1,699,1044,0,0
-518,-20,0,0,0,0,0,0,0,0,0,-1,706,1044,0,0
-511,-20,0,0,0,0,0,0,0,0,0,-1,713,1044,0,0
-504,-20,0,0,0,0,0,0,0,0,0,-1,720,1044,0,0
-497,-20,0,0,0,0,0,0,0,0,0,-1,727,1044,0,0
-490,-20,0,0,0,0,0,0,0,0,0,-1,734,1044,0,0
-483,-20,0,0,0,0,0,0,0,0,0,-1,741,1044,0,0
-476,-20,0,0,0,0,0,0,0,0,0,-1,748,1044,0,0
-469,-20,0,0,0,0,0,0,0,0,0,-1,755,1044,0,0
-462,-20,0,0,0,0,0,0,0,0,0,-1,762,1044,0,0
-455,-20,0,0,0,0,0,0,0,0,0,-1,769,1044,0,0
-448,-20,0,0,0,0,0,0,0,0,0,-1,776,1044,0,0
-441,-20,0,0,0,0,0,0,0,0,0,-1,783,1044,0,0
-434,-20,0,0,0,0,0,0,0,0,0,-1,790,1044,0,0
-427,-20,0,0,0,0,0,0,0,0,0,-1,797,1044,0,0
-420,-20,0,0,0,0,0,0,0,0,0,-1,804,1044,0,0
-413,-20,0,0,0,0,0,0,0,0,0,-1,811,1044,0,0
-406,-20,0,0,0,0,0,0,0,0,0,-1,818,1044,0,0
-399,-20,0,0,0,0,0,0,0,0,0,-1,825,1044,0,0
-392,-20,0,0,0,0,0,0,0,0,0,-1,832,1044,0,0
-385,-20,0,0,0,0,0,0,0,0,0,-1,839,1044,0,0
-378,-20,0,0,0,0,0,0,0,0,0,-1,846,1044,0,0
-371,-20,0,0,0,0,0,0,0,0,0,-1,853,1044,0,0
-364,-20,0,0,0,0,0,0,0,0,0,-1,860,1044,0,0
-357,-20,0,0,0,0,0,0,0,0,0,-1,867,1044,0,0
-350,-20,0,0,0,0,0,0,0,0,0,-1,874,1044,0,0
-343,-20,0,0,0,0,0,0,0,0,0,-1,881,1044,0,0
-336,-20,0,0,0,0,0,0,0,0,0,-1,888,1044,0,0
-329,-20,0,0,0,0,0,0,0,0,0,-1,895,1044,0,0
-322,-20,0,0,0,0,0,0,0,0,0,-1,902,1044,0,0
-315,-20,0,0,0,0,0,0,0,0,0,-1,909,1044,0,0
-308,-20,0,0,0,0,0,0,0,0,0,-1,916,1044,0,0
-301,-20,0,0,0,0,0,0,0,0,0,-1,923,1044,0,0
-294,-20,0,0,0,0,0,0,0,0,0,-1,930,1044,0,0
-287,-20,0,0,0,0,0,0,0,0,0,-1,937,1044,0,0
-280,-20,0,0,0,0,0,0,0,0,0,-1,944,1044,0,0
-273,-20,0,0,0,0,0,0,0,0,0,-1,951,1044,0,0
-266,-20,0,0,0,0,0,0,0,0,0,-1,958,1044,0,0
-259,-20,0,0,0,0,0,0,0,0,0,-1,965,1044,0,0
-252,-20,0,0,0,0,0,0,0,0,0,-1,972,1044,0,0
-245,-20,0,0,0,0,0,0,0,0,0,-1,979,1044,0,0
-238,-20,0,0,0,0,0,0,0,0,0,-1,986,1044,0,0
-231,-20,0,0,0,0,0,0,0,0,0,-1,993,1044,0,0
-224,-20,0,0,0,0,0,0,0,0,0,-1,1000,1044,0,0
-217,-20,0,0,0,0,0,0,0,0,0,-1,1007,1044,0,0
-210,-20,0,0,0,0,0,0,0,0,0,-1,1014,1044,0,0
-203,-20,0,0,0,0,0,0,0,0,0,-1,1021,1044,0,0
-196,-20,0,0,0,0,0,0,0,0,0,-1,1028,1044,0,0
-189,-20,0,0,0,0,0,0,0,0,0,-1,1035,1044,0,0
-182,-20,0,0,0,0,0,0,0,0,0,-1,1042,1044,0,0
-175,-20,0,0,0,0,0,0,0,0,0,-1,1049,1044,0,0
-168,-20,0,0,0,0,0,0,0,0,0,-1,1056,1044,0,0
-161,-20,0,0,0,0,0,0,0,0,0,-1,1063,1044,0,0
-154,-20,0,0,0,0,0,0,0,0,0,-1,1070,1044,0,0
-147,-20,0,0,0,0,0,0,0,0,0,-1,1077,1044,0,0
-140,-20,0,0,0,0,0,0,0,0,0,-1,1084,1044,0,0
-133,-20,0,0,0,0,0,0,0,0,0,-1,1091,1044,0,0
-126,-20,0,0,0,0,0,0,0,0,0,-1,1098,1044,0,0
-119,-20,0,0,0,0,0,0,0,0,0,-1,1105,1044,0,0
-112,-20,0,0,0,0,0,0,0,0,0,-1,1112,1044,0,0
-105,-20,0,0,0,0,0,0,0,0,0,-1,1119,1044,0,0
-98,-20,0,0,0,0,0,0,0,0,0,-1,1126,1044,0,0
-91,-20,0,0,0,0,0,0,0,0,0,-1,1133,1044,0,0
-84,-20,0,0,0,0,0,0,0,0,0,-1,1140,1044,0,0
-77,-20,0,0,0,0,0,0,0,0,0,-1,1147,1044,0,0
-70,-20,0,0,0,0,0,0,0,0,0,-1,1154,1044,0,0
-63,-20,0,0,0,0,0,0,0,0,0,-1,1161,1044,0,0
-56,-20,0,0,0,0,0,0,0,0,0,-1,1168,1044,0,0
-49,-20,0,0,0,0,0,0,0,0,0,-1,1175,1044,0,0
-42,-20,0,0,0,0,0,0,0,0,0,-1,1182,1044,0,0
-35,-20,0,0,0,0,0,0,0,0,0,-1,1189,1044,0,0
-28,-20,0,0,0,0,0,0,0,0,0,-1,1196,1044,0,0
-21,-20,0,0,0,0,0,0,0,0,0,-1,1203,1044,0,0
-14,-20,0,0,0,0,0,0,0,0,0,-1,1210,1044,0,0
-7,-20,0,0,0,0,0,0,0,0,0,-1,1217,1044,0,0
0,-20,0,0,0,0,0,0,0,0,0,-1,1224,1044,0,0
7,-20,0,0,0,0,0,0,0,0,0,-1,1231,1044,0,0
14,-20,0,0,0,0,0,0,0,0,0,-1,1238,1044,0,0
21,-20,0,0,0,0,0,0,0,0,0,-1,1245,1044,0,0
28,-20,0,0,0,0,0,0,0,0,0,-1,1252,1044,0,0
35,-20,0,0,0,0,0,0,0,0,0,-1,1259,1044,0,0
42,-20,0,0,0,0,0,0,0,0,0,-1,1266,1044,0,0
49,-20,0,0,0,0,0,0,0,0,0,-1,1273,1044,0,0
56,-20,0,0,0,0,0,0,0,0,0,-1,1280,1044,0,0
63,-20,0,0,0,0,0,0,0,0,0,-1,1287,1044,0,0
70,-20,0,0,0,0,0,0,0,0,0,-1,1294,1044,0,0
77,-20,0,0,0,0,0,0,0,0,0,-1,1301,1044,0,0
84,-20,0,0,0,0,0,0,0,0,0,-1,1308,1044,0,0
91,-20,0,0,0,0,0,0,0,0,0,-1,1315,1044,0,0
98,-20,0,0,0,0,0,0,0,0,0,-1,1322,1044,0,0
105,-20,0,0,0,0,0,0,0,0,0,-1,1329,1044,0,0
112,-20,0,0,0,0,0,0,0,0,0,-1,1336,1044,0,0
119,-20,0,0,0,0,0,0,0,0,0,-1,1343,1044,0,0
126,-20,0,0,0,0,0,0,0,0,0,-1,1350,1044,0,0
133,-20,0,0,0,0,0,0,0,0,0,-1,1357,1044,0,0
140,-20,0,0,0,0,0,0,0,0,0,-1,1364,1044,0,0
147,-20,0,0,0,0,0,0,0,0,0,-1,1371,1044,0,0
154,-20,0,0,0,0,0,0,0,0,0,-1,1378,1044,0,0
161,-20,0,0,0,0,0,0,0,0,0,-1,1385,1044,0,0
168,-20,0,0,0,0,0,0,0,0,0,-1,1392,1044,0,0
175,-20,0,0,0,0,0,0,0,0,0,-1,1399,1044,0,0
182,-20,0,0,0,0,0,0,0,0,0,-1,1406,1044,0,0
189,-20,0,0,0,0,0,0,0,0,0,-1,1413,1044,0,0
196,-20,0,0,0,0,0,0,0,0,0,-1,1420,1044,0,0
203,-20,0,0,0,0,0,0,0,0,0,-1,1427,1044,0,0
210,-20,0,0,0,0,0,0,0,0,0,-1,1434,1044,0,0
217,-20,0,0,0,0,0,0,0,0,0,-1,1441,1044,0,0
224,-20,0,0,0,0,0,0,0,0,0,-1,1448,1044,0,0
231,-20,0,0,0,0,0,0,0,0,0,-1,1455,1044,0,0
238,-20,0,0,0,0,0,0,0,0,0,-1,1462,1044,0,0
245,-20,0,0,0,0,0,0,0,0,0,-1,1469,1044,0,0
252,-20,0,0,0,0,0,0,0,0,0,-1,1476,1044,0,0
259,-20,0,0,0,0,0,0,0,0,0,-1,1483,1044,0,0
266,-20,0,0,0,0,0,0,0,0,0,-1,1490,1044,0,0
273,-20,0,0,0,0,0,0,0,0,0,-1,1497,1044,0,0
280,-20,0,0,0,0,0,0,0,0,0,-1,1504,1044,0,0
287,-20,0,0,0,0,0,0,0,0,0,-1,1511,1044,0,0
294,-20,0,0,0,0,0,0,0,0,0,-1,1518,1044,0,0
301,-20,0,0,0,0,0,0,0,0,0,-1,1525,1044,0,0
308,-20,0,0,0,0,0,0,0,0,0,-1,1532,1044,0,0
315,-20,0,0,0,0,0,0,0,0,0,-1,1539,1044,0,0
322,-20,0,0,0,0,0,0,0,0,0,-1,1546,1044,0,0
329,-20,0,0,0,0,0,0,0,0,0,-1,1553,1044,0,0
336,-20,0,0,0,0,0,0,0,0,0,-1,1560,1044,0,0
343,-20,0,0,0,0,0,0,0,0,0,-1,1567,1044,0,0
350,-20,0,0,0,0,0,0,0,0,0,-1,1574,1044,0,0
357,-20,0,0,0,0,0,0,0,0,0,-1,1581,1044,0,0
364,-20,0,0,0,0,0,0,0,0,0,-1,1588,1044,0,0
371,-20,0,0,0,0,0,0,0,0,0,-1,1595,1044,0,0
378,-20,0,0,0,0,0,0,0,0,0,-1,1602,1044,0,0
385,-20,0,0,0,0,0,0,0,0,0,-1,1609,1044,0,0
392,-20,0,0,0,0,0,0,0,0,0,-1,1616,1044,0,0
399,-20,0,0,0,0,0,0,0,0,0,-1,1623,1044,0,0
406,-20,0,0,0,0,0,0,0,0,0,-1,1630,1044,0,0
413,-20,0,0,0,0,0,0,0,0,0,-1,1637,1044,0,0
420,-20,0,0,0,0,0,0,0,0,0,-1,1644,1044,0,0
427,-20,0,0,0,0,0,0,0,0,0,-1,1651,1044,0,0
434,-20,0,0,0,0,0,0,0,0,0,-1,1658,1044,0,0
441,-20,0,0,0,0,0,0,0,0,0,-1,1665,1044,0,0
448,-20,0,0,0,0,0,0,0,0,0,-1,1672,1044,0,0
455,-20,0,0,0,0,0,0,0,0,0,-1,1679,1044,0,0
462,-20,0,0,0,0,0,0,0,0,0,-1,1686,1044,0,0
469,-20,0,0,0,0,0,0,0,0,0,-1,1693,1044,0,0
476,-20,0,0,0,0,0,0,0,0,0,-1,1700,1044,0,0
483,-20,0,0,0,0,0,0,0,0,0,-1,1707,1044,0,0
490,-20,0,0,0,0,0,0,0,0,0,-1,1714,1044,0,0
497,-20,0,0,0,0,0,0,0,0,0,-1,1721,1044,0,0
504,-20,0,0,0,0,0,0,0,0,0,-1,1728,1044,0,0
511,-20,0,0,0,0,0,0,0,0,0,-1,1735,1044,0,0
518,-20,0,0,0,0,0,0,0,0,0,-1,1742,1044,0,0
525,-20,0,0,0,0,0,0,0,0,0,-1,1749,1044,0,0
532,-20,0,0,0,0,0,0,0,0,0,-1,1756,1044,0,0
539,-20,0,0,0,0,0,0,0,0,0,-1,1763,1044,0,0
546,-20,0,0,0,0,0,0,0,0,0,-1,1770,1044,0,0
553,-20,0,0,0,0,0,0,0,0,0,-1,1777,1044,0,0
560,-20,0,0,0,0,0,0,0,0,0,-1,1784,1044,0,0
567,-20,0,0,0,0,0,0,0,0,0,-1,1791,1044,0,0
574,-20,0,0,0,0,0,0,0,0,0,-1,1798,1044,0,0
581,-20,0,0,0,0,0,0,0,0,0,-1,1805,1044,0,0
588,-20,0,0,0,0,0,0,0,0,0,-1,1812,1044,0,0
595,-20,0,0,0,0,0,0,0,0,0,-1,1819,1044,0,0
602,-20,0,0,0,0,0,0,0,0,0,-1,1826,1044,0,0
609,-20,0,0,0,0,0,0,0,0,0,-1,1833,1044,0,0
616,-20,0,0,0,0,0,0,0,0,0,-1,1840,1044,0,0
623,-20,0,0,0,0,0,0,0,0,0,-1,1847,1044,0,0
630,-20,0,0,0,0,0,0,0,0,0,-1,1854,1044,0,0
637,-20,0,0,0,0,0,0,0,0,0,-1,1861,1044,0,0
644,-20,0,0,0,0,0,0,0,0,0,-1,1868,1044,0,0
651,-20,14.1669,1.6637,-0.00273279,0.00210282,0.00513909,0.00536446,-0.00599442,1.00527,0.00656141,0.0412806,1875,1044,14.1668,-1.6637
658,-20,14.2561,1.68762,-0.0019543,0.00178406,0.00351193,0.00389326,-0.00406349,1.02995,0.00459418,0.0430097,1882,1044,14.2561,-1.68759
665,-20,14.2174,1.92737,-0.0014762,0.00158713,0.0023459,0.00285712,-0.00274619,1.07461,0.00323528,0.0400214,1889,1044,14.2174,-1.92737
672,-20,14.1993,1.88696,-0.00122549,0.00143578,0.00189854,0.00242356,-0.00221327,1.09105,0.00267799,0.0255701,1896,1044,14.1993,-1.88694
679,-20,14.082,1.90247,-0.00157415,0.00124947,0.00216552,0.00242275,-0.00274743,1.07427,0.00298697,0.0271577,1903,1044,14.0821,-1.9025
686,-20,14.1984,1.73145,-0.00214754,0.00103683,0.00270308,0.0025818,-0.0036925,1.05155,0.00364134,0.0361948,1910,1044,14.1983,-1.73142
693,-20,14.1199,1.73425,-0.00272247,0.000809624,0.00332747,0.00281067,-0.00472351,1.02937,0.00439634,0.0406004,1917,1044,14.1199,-1.7342
700,-20,14.103,1.95154,-0.00324965,0.000556014,0.0039172,0.00300809,-0.00570173,1.01149,0.00510815,0.0370255,1924,1044,14.103,-1.95153
707,-20,14.1,1.89771,-0.0036524,0.000381271,0.00434071,0.00315081,-0.00642194,1.00288,0.00563336,0.0279236,1931,1044,14.1,-1.89775
714,-20,14.1097,1.89282,-0.00394151,0.000223022,0.00458932,0.00318036,-0.00689885,0.99837,0.00594978,0.0201621,1938,1044,14.1098,-1.89279
721,-20,14.1523,1.99365,-0.00416687,0.000113352,0.0047203,0.00315603,-0.00720955,0.99823,0.00613521,0.0165139,1945,1044,14.1524,-1.99366
728,-20,13.9491,2.354,-0.00432154,0.00010294,0.00477459,0.0031529,-0.00737149,1.00234,0.00623685,0.0165069,1952,1044,13.9491,-2.35401
735,-20,13.7715,2.54688,-0.00411833,0.000175261,0.00462038,0.00312324,-0.0070663,1.00288,0.00602797,0.0160626,1959,1044,13.7715,-2.54693
742,-20,13.8091,2.5802,-0.00326793,0.000564584,0.00444832,0.00349183,-0.00619518,0.988777,0.00566493,0.0139764,1966,1044,13.8091,-2.58018
749,-20,13.8153,2.58801,-0.0019183,0.00104378,0.00388687,0.00372222,-0.00459674,0.967424,0.00481179,0.0144376,1973,1044,13.8153,-2.58799
756,-20,13.8219,2.59363,-0.000289264,0.0019035,0.0031606,0.00415248,-0.00253825,0.952349,0.00390019,0.01174,1980,1044,13.8219,-2.59367
763,-20,13.8151,2.59399,0.00161976,0.00291578,0.00257911,0.00492704,-0.000391503,0.908477,0.00342267,0.0127038,1987,1044,13.815,-2.59397
770,-20,13.8182,2.60718,0.00400381,0.00424531,0.00203666,0.00616479,0.00208432,0.815007,0.00362091,0.0121825,1994,1044,13.8182,-2.60716
777,-20,13.807,2.60388,0.00699547,0.00592492,0.00172678,0.00826804,0.00465235,0.635102,0.00478605,0.0122761,2001,1044,13.807,-2.60387
784,-20,13.8203,2.60901,0.0102689,0.00792756,0.00187644,0.0113099,0.00688656,0.506501,0.0065812,0.0153777,2008,1044,13.8203,-2.60905
791,-20,13.8403,2.69421,0.0141474,0.0103078,0.00215269,0.015112,0.00934322,0.421265,0.00880587,0.0320807,2015,1044,13.8404,-2.69419
798,-20,14.0636,3.25415,0.0191506,0.0131218,0.00227696,0.0199139,0.0123584,0.323461,0.0116082,0.0420597,2022,1044,14.0636,-3.25412
805,-20,14.307,3.4939,0.0254366,0.0164058,0.0021635,0.0259282,0.0159143,0.22341,0.0150983,0.0425857,2029,1044,14.307,-3.49392
812,-20,14.5261,3.77197,0,0,0,0,0,0,0,-1,2036,1044,14.5261,-3.77194
-700,-27,-7.74097,-1.23621,0.0402096,0.0255027,0.0389046,0.0724496,-0.00673724,0.691994,0.0506949,0.0494802,524,1051,-7.74094,1.23619
-693,-27,-7.62372,-0.640015,0.0324111,0.0244679,0.0335351,0.062209,-0.00532996,0.726457,0.0433587,0.0460369,531,1051,-7.62375,0.64001
-686,-27,-7.57959,-0.0933838,0.0249762,0.0217089,0.0277165,0.0511071,-0.00442207,0.755961,0.035637,0.0437516,538,1051,-7.57957,0.0934296
-679,-27,-7.69733,0.221191,0.0184875,0.0183264,0.0221669,0.040574,-0.00376005,0.783582,0.0283858,0.0457428,545,1051,-7.69733,-0.221168
-672,-27,-7.83777,0.452515,0.0130738,0.0148722,0.0171571,0.0311536,-0.00320763,0.811579,0.0219167,0.0457907,552,1051,-7.83779,-0.452572
-665,-27,-7.94006,0.758057,0.00875967,0.0116551,0.0128063,0.0230953,-0.0026805,0.841684,0.0163637,0.0456935,559,1051,-7.94006,-0.758019
-658,-27,-8.22125,0.773682,0,0,0,0,0,0,0,-1,566,1051,-8.22126,-0.773696
-651,-27,-8.2533,0.681519,0.0030905,0.0064644,0.00624927,0.0112504,-0.0016955,0.917228,0.00812462,0.0340796,573,1051,-8.2533,-0.681539
-644,-27,-8.28033,0.587158,0.001563,0.00506636,0.00389685,0.00758713,-0.000957775,0.996622,0.0054057,0.0155358,580,1051,-8.28031,-0.587174
-637,-27,-8.28278,0.570435,0.00016885,0.00276977,0.00142805,0.00340077,-0.000462146,1.15473,0.00243588,0.0125198,587,1051,-8.28277,-0.570401
-630,-27,-8.29828,0.609497,-0.00123759,0.00119432,-0.000457427,0.00127751,-0.00132079,-1.39089,0.0015002,0.0165896,594,1051,-8.29828,-0.609547
-623,-27,-8.30377,0.642822,-0.00144036,0.000424387,-0.00158004,0.00132663,-0.00234261,-1.05195,0.00214534,0.0143928,601,1051,-8.30379,-0.64277
-616,-27,-8.2934,0.666504,-0.000987193,-6.20463e-05,-0.00228896,0.00181061,-0.00285985,-0.8851,0.00271908,0.0123644,608,1051,-8.29342,-0.666545
-609,-27,-8.30261,0.668579,-0.000699304,-0.000991428,-0.00290336,0.00206167,-0.0037524,-0.760265,0.00340373,0.013416,615,1051,-8.30262,-0.668603
-602,-27,-8.29395,0.698975,-0.000454399,-0.00101722,-0.00316868,0.00244535,-0.00391696,-0.74111,0.00370589,0.0114921,622,1051,-8.29395,-0.698944
-595,-27,-8.29474,0.719849,-0.000271117,-0.00143354,-0.00334476,0.00254255,-0.0042472,-0.699373,0.00396103,0.0101478,629,1051,-8.29476,-0.719841
-588,-27,-8.31555,0.467407,-0.000320036,-0.00164188,-0.00338762,0.00247054,-0.00443246,-0.689059,0.00403874,0.0164117,636,1051,-8.31558,-0.467384
-581,-27,-8.27661,0.224243,-0.00061011,-0.00174783,-0.00326517,0.00213538,-0.00449332,-0.699153,0.00390696,0.0222882,643,1051,-8.27661,-0.224285
-574,-27,-8.3371,0.402222,-0.000813738,-0.00181853,-0.00305005,0.00177501,-0.00440728,-0.703772,0.00367561,0.0355215,650,1051,-8.33711,-0.402275
-567,-27,-8.28632,0.512939,-0.00116769,-0.00171661,-0.00260957,0.00118182,-0.00406611,-0.733003,0.00317877,0.0439281,657,1051,-8.28633,-0.512926
-560,-27,-8.13678,0.0802002,0,0,0,0,0,0,0,-1,664,1051,-8.13677,-0.0801448
-553,-27,-8.15021,0.179199,-0.00254502,-0.000827834,-0.0010664,-0.000317345,-0.00305551,-1.12433,0.00193989,0.0431708,671,1051,-8.15022,-0.179167
-546,-27,-8.14069,0.254883,-0.00377768,5.73328e-05,2.00501e-05,5.74376e-05,-0.00377778,1.56557,0.00253788,0.0431201,678,1051,-8.14066,-0.254902
-539,-27,-8.25873,0.234009,-0.00555538,0.00127126,0.00105256,0.00142986,-0.00571398,1.42124,0.00436472,0.043212,685,1051,-8.2587,-0.23395
-532,-27,-8.44586,0.374023,-0.00816879,0.00293852,0.00146381,0.00312819,-0.00835847,1.44194,0.00685716,0.0406884,692,1051,-8.44588,-0.374078
-525,-27,0,0,0,0,0,0,0,0,0,-1,699,1051,0,0
-518,-27,0,0,0,0,0,0,0,0,0,-1,706,1051,0,0
-511,-27,0,0,0,0,0,0,0,0,0,-1,713,1051,0,0
-504,-27,0,0,0,0,0,0,0,0,0,-1,720,1051,0,0
-497,-27,0,0,0,0,0,0,0,0,0,-1,727,1051,0,0
-490,-27,0,0,0,0,0,0,0,0,0,-1,734,1051,0,0
-483,-27,0,0,0,0,0,0,0,0,0,-1,741,1051,0,0
-476,-27,0,0,0,0,0,0,0,0,0,-1,748,1051,0,0
-469,-27,0,0,0,0,0,0,0,0,0,-1,755,1051,0,0
-462,-27,0,0,0,0,0,0,0,0,0,-1,762,1051,0,0
-455,-27,0,0,0,0,0,0,0,0,0,-1,769,1051,0,0
-448,-27,0,0,0,0,0,0,0,0,0,-1,776,1051,0,0
-441,-27,0,0,0,0,0,0,0,0,0,-1,783,1051,0,0
-434,-27,0,0,0,0,0,0,0,0,0,-1,790,1051,0,0
-427,-27,0,0,0,0,0,0,0,0,0,-1,797,1051,0,0
-420,-27,0,0,0,0,0,0,0,0,0,-1,804,1051,0,0
-413,-27,0,0,0,0,0,0,0,0,0,-1,811,1051,0,0
-406,-27,0,0,0,0,0,0,0,0,0,-1,818,1051,0,0
-399,-27,0,0,0,0,0,0,0,0,0,-1,825,1051,0,0
-392,-27,0,0,0,0,0,0,0,0,0,-1,832,1051,0,0
-385,-27,0,0,0,0,0,0,0,0,0,-1,839,1051,0,0
-378,-27,0,0,0,0,0,0,0,0,0,-1,846,1051,0,0
-371,-27,0,0,0,0,0,0,0,0,0,-1,853,1051,0,0
-364,-27,0,0,0,0,0,0,0,0,0,-1,860,1051,0,0
-357,-27,0,0,0,0,0,0,0,0,0,-1,867,1051,0,0
-350,-27,0,0,0,0,0,0,0,0,0,-1,874,1051,0,0
-343,-27,0,0,0,0,0,0,0,0,0,-1,881,1051,0,0
-336,-27,0,0,0,0,0,0,0,0,0,-1,888,1051,0,0
-329,-27,0,0,0,0,0,0,0,0,0,-1,895,1051,0,0
-322,-27,0,0,0,0,0,0,0,0,0,-1,902,1051,0,0
-315,-27,0,0,0,0,0,0,0,0,0,-1,909,1051,0,0
-308,-27,0,0,0,0,0,0,0,0,0,-1,916,1051,0,0
-301,-27,0,0,0,0,0,0,0,0,0,-1,923,1051,0,0
-294,-27,0,0,0,0,0,0,0,0,0,-1,930,1051,0,0
-287,-27,0,0,0,0,0,0,0,0,0,-1,937,1051,0,0
-280,-27,0,0,0,0,0,0,0,0,0,-1,944,1051,0,0
-273,-27,0,0,0,0,0,0,0,0,0,-1,951,1051,0,0
-266,-27,0,0,0,0,0,0,0,0,0,-1,958,1051,0,0
-259,-27,0,0,0,0,0,0,0,0,0,-1,965,1051,0,0
-252,-27,0,0,0,0,0,0,0,0,0,-1,972,1051,0,0
-245,-27,0,0,0,0,0,0,0,0,0,-1,979,1051,0,0
-238,-27,0,0,0,0,0,0,0,0,0,-1,986,1051,0,0
-231,-27,0,0,0,0,0,0,0,0,0,-1,993,1051,0,0
-224,-27,0,0,0,0,0,0,0,0,0,-1,1000,1051,0,0
-217,-27,0,0,0,0,0,0,0,0,0,-1,1007,1051,0,0
-210,-27,0,0,0,0,0,0,0,0,0,-1,1014,1051,0,0
-203,-27,0,0,0,0,0,0,0,0,0,-1,1021,1051,0,0
-196,-27,0,0,0,0,0,0,0,0,0,-1,1028,1051,0,0
-189,-27,0,0,0,0,0,0,0,0,0,-1,1035,1051,0,0
-182,-27,0,0,0,0,0,0,0,0,0,-1,1042,1051,0,0
-175,-27,0,0,0,0,0,0,0,0,0,-1,1049,1051,0,0
-168,-27,0,0,0,0,0,0,0,0,0,-1,1056,1051,0,0
-161,-27,0,0,0,0,0,0,0,0,0,-1,1063,1051,0,0
-154,-27,0,0,0,0,0,0,0,0,0,-1,1070,1051,0,0
-147,-27,0,0,0,0,0,0,0,0,0,-1,1077,1051,0,0
-140,-27,0,0,0,0,0,0,0,0,0,-1,1084,1051,0,0
-133,-27,0,0,0,0,0,0,0,0,0,-1,1091,1051,0,0
-126,-27,0,0,0,0,0,0,0,0,0,-1,1098,1051,0,0
-119,-27,0,0,0,0,0,0,0,0,0,-1,1105,1051,0,0
-112,-27,0,0,0,0,0,0,0,0,0,-1,1112,1051,0,0
-105,-27,0,0,0,0,0,0,0,0,0,-1,1119,1051,0,0
-98,-27,0,0,0,0,0,0,0,0,0,-1,1126,1051,0,0
-91,-27,0,0,0,0,0,0,0,0,0,-1,1133,1051,0,0
-84,-27,0,0,0,0,0,0,0,0,0,-1,1140,1051,0,0
-77,-27,0,0,0,0,0,0,0,0,0,-1,1147,1051,0,0
-70,-27,0,0,0,0,0,0,0,0,0,-1,1154,1051,0,0
-63,-27,0,0,0,0,0,0,0,0,0,-1,1161,1051,0,0
-56,-27,0,0,0,0,0,0,0,0,0,-1,1168,1051,0,0
-49,-27,0,0,0,0,0,0,0,0,0,-1,1175,1051,0,0
-42,-27,0,0,0,0,0,0,0,0,0,-1,1182,1051,0,0
-35,-27,0,0,0,0,0,0,0,0,0,-1,1189,1051,0,0
-28,-27,0,0,0,0,0,0,0,0,0,-1,1196,1051,0,0
-21,-27,0,0,0,0,0,0,0,0,0,-1,1203,1051,0,0
-14,-27,0,0,0,0,0,0,0,0,0,-1,1210,1051,0,0
-7,-27,0,0,0,0,0,0,0,0,0,-1,1217,1051,0,0
0,-27,0,0,0,0,0,0,0,0,0,-1,1224,1051,0,0
7,-27,0,0,0,0,0,0,0,0,0,-1,1231,1051,0,0
14,-27,0,0,0,0,0,0,0,0,0,-1,1238,1051,0,0
21,-27,0,0,0,0,0,0,0,0,0,-1,1245,1051,0,0
28,-27,0,0,0,0,0,0,0,0,0,-1,1252,1051,0,0
35,-27,0,0,0,0,0,0,0,0,0,-1,1259,1051,0,0
42,-27,0,0,0,0,0,0,0,0,0,-1,1266,1051,0,0
49,-27,0,0,0,0,0,0,0,0,0,-1,1273,1051,0,0
56,-27,0,0,0,0,0,0,0,0,0,-1,1280,1051,0,0
63,-27,0,0,0,0,0,0,0,0,0,-1,1287,1051,0,0
70,-27,0,0,0,0,0,0,0,0,0,-1,1294,1051,0,0
77,-27,0,0,0,0,0,0,0,0,0,-1,1301,1051,0,0
84,-27,0,0,0,0,0,0,0,0,0,-1,1308,1051,0,0
91,-27,0,0,0,0,0,0,0,0,0,-1,1315,1051,0,0
98,-27,0,0,0,0,0,0,0,0,0,-1,1322,1051,0,0
105,-27,0,0,0,0,0,0,0,0,0,-1,1329,1051,0,0
112,-27,0,0,0,0,0,0,0,0,0,-1,1336,1051,0,0
119,-27,0,0,0,0,0,0,0,0,0,-1,1343,1051,0,0
126,-27,0,0,0,0,0,0,0,0,0,-1,1350,1051,0,0
133,-27,0,0,0,0,0,0,0,0,0,-1,1357,1051,0,0
140,-27,0,0,0,0,0,0,0,0,0,-1,1364,1051,0,0
147,-27,0,0,0,0,0,0,0,0,0,-1,1371,1051,0,0
154,-27,0,0,0,0,0,0,0,0,0,-1,1378,1051,0,0
161,-27,0,0,0,0,0,0,0,0,0,-1,1385,1051,0,0
168,-27,0,0,0,0,0,0,0,0,0,-1,1392,1051,0,0
175,-27,0,0,0,0,0,0,0,0,0,-1,1399,1051,0,0
182,-27,0,0,0,0,0,0,0,0,0,-1,1406,1051,0,0
189,-27,0,0,0,0,0,0,0,0,0,-1,1413,1051,0,0
196,-27,0,0,0,0,0,0,0,0,0,-1,1420,1051,0,0
203,-27,0,0,0,0,0,0,0,0,0,-1,1427,1051,0,0
210,-27,0,0,0,0,0,0,0,0,0,-1,1434,1051,0,0
217,-27,0,0,0,0,0,0,0,0,0,-1,1441,1051,0,0
224,-27,0,0,0,0,0,0,0,0,0,-1,1448,1051,0,0
231,-27,0,0,0,0,0,0,0,0,0,-1,1455,1051,0,0
238,-27,0,0,0,0,0,0,0,0,0,-1,1462,1051,0,0
245,-27,0,0,0,0,0,0,0,0,0,-1,1469,1051,0,0
252,-27,0,0,0,0,0,0,0,0,0,-1,1476,1051,0,0
259,-27,0,0,0,0,0,0,0,0,0,-1,1483,1051,0,0
266,-27,0,0,0,0,0,0,0,0,0,-1,1490,1051,0,0
273,-27,0,0,0,0,0,0,0,0,0,-1,1497,1051,0,0
280,-27,0,0,0,0,0,0,0,0,0,-1,1504,1051,0,0
287,-27,0,0,0,0,0,0,0,0,0,-1,1511,1051,0,0
294,-27,0,0,0,0,0,0,0,0,0,-1,1518,1051,0,0
301,-27,0,0,0,0,0,0,0,0,0,-1,1525,1051,0,0
308,-27,0,0,0,0,0,0,0,0,0,-1,1532,1051,0,0
315,-27,0,0,0,0,0,0,0,0,0,-1,1539,1051,0,0
322,-27,0,0,0,0,0,0,0,0,0,-1,1546,1051,0,0
329,-27,0,0,0,0,0,0,0,0,0,-1,1553,1051,0,0
336,-27,0,0,0,0,0,0,0,0,0,-1,1560,1051,0,0
343,-27,0,0,0,0,0,0,0,0,0,-1,1567,1051,0,0
350,-27,0,0,0,0,0,0,0,0,0,-1,1574,1051,0,0
357,-27,0,0,0,0,0,0,0,0,0,-1,1581,1051,0,0
364,-27,0,0,0,0,0,0,0,0,0,-1,1588,1051,0,0
371,-27,0,0,0,0,0,0,0,0,0,-1,1595,1051,0,0
378,-27,0,0,0,0,0,0,0,0,0,-1,1602,1051,0,0
385,-27,0,0,0,0,0,0,0,0,0,-1,1609,1051,0,0
392,-27,0,0,0,0,0,0,0,0,0,-1,1616,1051,0,0
399,-27,0,0,0,0,0,0,0,0,0,-1,1623,1051,0,0
406,-27,0,0,0,0,0,0,0,0,0,-1,1630,1051,0,0
413,-27,0,0,0,0,0,0,0,0,0,-1,1637,1051,0,0
420,-27,0,0,0,0,0,0,0,0,0,-1,1644,1051,0,0
427,-27,0,0,0,0,0,0,0,0,0,-1,1651,1051,0,0
434,-27,0,0,0,0,0,0,0,0,0,-1,1658,1051,0,0
441,-27,0,0,0,0,0,0,0,0,0,-1,1665,1051,0,0
448,-27,0,0,0,0,0,0,0,0,0,-1,1672,1051,0,0
455,-27,0,0,0,0,0,0,0,0,0,-1,1679,1051,0,0
462,-27,0,0,0,0,0,0,0,0,0,-1,1686,1051,0,0
469,-27,0,0,0,0,0,0,0,0,0,-1,1693,1051,0,0
476,-27,0,0,0,0,0,0,0,0,0,-1,1700,1051,0,0
483,-27,0,0,0,0,0,0,0,0,0,-1,1707,1051,0,0
490,-27,0,0,0,0,0,0,0,0,0,-1,1714,1051,0,0
497,-27,0,0,0,0,0,0,0,0,0,-1,1721,1051,0,0
504,-27,0,0,0,0,0,0,0,0,0,-1,1728,1051,0,0
511,-27,0,0,0,0,0,0,0,0,0,-1,1735,1051,0,0
518,-27,0,0,0,0,0,0,0,0,0,-1,1742,1051,0,0
525,-27,0,0,0,0,0,0,0,0,0,-1,1749,1051,0,0
532,-27,0,0,0,0,0,0,0,0,0,-1,1756,1051,0,0
539,-27,0,0,0,0,0,0,0,0,0,-1,1763,1051,0,0
546,-27,0,0,0,0,0,0,0,0,0,-1,1770,1051,0,0
553,-27,0,0,0,0,0,0,0,0,0,-1,1777,1051,0,0
560,-27,0,0,0,0,0,0,0,0,0,-1,1784,1051,0,0
567,-27,0,0,0,0,0,0,0,0,0,-1,1791,1051,0,0
574,-27,0,0,0,0,0,0,0,0,0,-1,1798,1051,0,0
581,-27,0,0,0,0,0,0,0,0,0,-1,1805,1051,0,0
588,-27,0,0,0,0,0,0,0,0,0,-1,1812,1051,0,0
595,-27,0,0,0,0,0,0,0,0,0,-1,1819,1051,0,0
602,-27,0,0,0,0,0,0,0,0,0,-1,1826,1051,0,0
609,-27,0,0,0,0,0,0,0,0,0,-1,1833,1051,0,0
616,-27,0,0,0,0,0,0,0,0,0,-1,1840,1051,0,0
623,-27,0,0,0,0,0,0,0,0,0,-1,1847,1051,0,0
630,-27,0,0,0,0,0,0,0,0,0,-1,1854,1051,0,0
637,-27,0,0,0,0,0,0,0,0,0,-1,1861,1051,0,0
644,-27,0,0,0,0,0,0,0,0,0,-1,1868,1051,0,0
651,-27,14.2173,1.53296,-0.00358309,0.00204671,0.00531866,0.00524944,-0.00678582,1.02878,0.0069674,0.0407496,1875,1051,14.2173,-1.53297
658,-27,14.1865,1.69421,-0.00250142,0.00170656,0.00360891,0.00378001,-0.00457488,1.04931,0.00483097,0.0412685,1882,1051,14.1865,-1.6942
665,-27,14.0338,1.97449,-0.00180768,0.00148981,0.00239506,0.00274875,-0.00306662,1.08685,0.00335918,0.0382845,1889,1051,14.0338,-1.97452
672,-27,14.0118,1.99744,-0.0014053,0.00130316,0.00191352,0.00229318,-0.00239532,1.09334,0.00270712,0.0283229,1896,1051,14.0119,-1.99747
679,-27,14.0504,1.87024,-0.00168682,0.00106602,0.00220145,0.00228593,-0.00290673,1.06478,0.00300511,0.0262453,1903,1051,14.0504,-1.87024
686,-27,14.1243,1.70508,-0.00223969,0.000808676,0.00277441,0.00245001,-0.00388102,1.03658,0.00368621,0.0366699,1910,1051,14.1242,-1.70511
693,-27,14.0524,1.72571,-0.00282011,0.000545196,0.00343693,0.00268926,-0.00496418,1.01304,0.00448331,0.0399901,1917,1051,14.0524,-1.72565
700,-27,14.0726,1.89307,-0.00337212,0.000274564,0.00407286,0.0029136,-0.00601115,0.99586,0.00525514,0.0357876,1924,1051,14.0727,-1.89303
707,-27,14.0887,1.88879,-0.00376381,8.11431e-05,0.00451865,0.00306928,-0.00675195,0.986525,0.00580164,0.021926,1931,1051,14.0888,-1.88875
714,-27,14.0837,1.88074,-0.00404363,-8.44944e-05,0.00477902,0.00310872,-0.00723685,0.981751,0.00612948,0.0158236,1938,1051,14.0837,-1.88069
721,-27,14.1287,1.94885,-0.00427783,-0.000195341,0.0049119,0.00308257,-0.00755574,0.982327,0.00632043,0.0159483,1945,1051,14.1287,-1.9488
728,-27,13.9727,2.37317,-0.00445467,-0.000186956,0.00495824,0.0030771,-0.00771873,0.988601,0.00642214,0.0191284,1952,1051,13.9726,-2.37323
735,-27,13.7716,2.55859,-0.00426152,-5.81143e-05,0.00476116,0.00304459,-0.00736422,0.993249,0.00617962,0.016625,1959,1051,13.7716,-2.55856
742,-27,13.7968,2.57458,-0.00330129,0.000377808,0.00445334,0.00335657,-0.00628005,0.98126,0.00564841,0.0160837,1966,1051,13.7968,-2.57457
749,-27,13.8198,2.58105,-0.00175292,0.00103129,0.003732,0.00362237,-0.004344,0.963914,0.00460567,0.0105653,1973,1051,13.8198,-2.5811
756,-27,13.8219,2.59485,1.50763e-05,0.0022185,0.00274915,0.00407848,-0.0018449,0.975973,0.00349997,0.0100171,1980,1051,13.8219,-2.59487
763,-27,13.8198,2.58887,0.00207289,0.00356561,0.00191839,0.00487771,0.000760782,0.970916,0.00303022,0.0126218,1987,1051,13.8198,-2.58884
770,-27,13.8273,2.58447,0.00465529,0.00535789,0.00103489,0.00609947,0.0039137,0.949024,0.00356832,0.0149212,1994,1051,13.8273,-2.58444
777,-27,13.8116,2.58936,0.00785596,0.00767107,0.000288692,0.00806665,0.00746039,0.630453,0.0051875,0.0151754,2001,1051,13.8117,-2.5894
784,-27,13.819,2.59314,0.0113353,0.0105499,-8.81352e-05,0.0113451,0.0105402,-0.110388,0.00730987,0.0214572,2008,1051,13.8189,-2.59319
791,-27,14.0137,2.41016,0.0153709,0.0141496,-0.000449833,0.0155187,0.0140018,-0.317454,0.00987905,0.0400054,2015,1051,14.0137,-2.41014
798,-27,14.3756,3.51465,0.0203978,0.0186435,-0.0010844,0.0209154,0.0181259,-0.445338,0.013113,0.0455571,2022,1051,14.3756,-3.51471
805,-27,14.5488,3.45471,0.0264477,0.0242264,-0.00207248,0.0276884,0.0229857,-0.539422,0.0171082,0.0440244,2029,1051,14.5488,-3.45471
812,-27,14.5415,3.52832,0,0,0,0,0,0,0,-1,2036,1051,14.5415,-3.52833
-700,-34,-8.14655,0.753662,0,0,0,0,0,0,0,-1,524,1058,-8.14657,-0.753671
-693,-34,-7.51941,0.469727,0,0,0,0,0,0,0,-1,531,1058,-7.51938,-0.469673
-686,-34,-7.72168,0.370972,0.0280184,0.024116,0.025086,0.0512289,0.000905439,0.746586,0.0338548,0.0480828,538,1058,-7.72169,-0.370952
-679,-34,-7.94843,0.28894,0.0208326,0.0206108,0.0205047,0.0412268,0.0002167,0.782694,0.0274126,0.0432655,545,1058,-7.94844,-0.288966
-672,-34,-8.1828,0.213989,0.0147783,0.0169347,0.0161829,0.0320753,-0.000362316,0.818662,0.0215053,0.0448617,552,1058,-8.18277,-0.21402
-665,-34,-8.27997,0.351807,0.00992751,0.0134366,0.0123032,0.0241097,-0.000745662,0.856224,0.0163274,0.0444454,559,1058,-8.27997,-0.351747
-658,-34,-8.21613,0.623047,0.00622134,0.0103075,0.00897513,0.0174691,-0.000940326,0.897309,0.0119718,0.0421639,566,1058,-8.21615,-0.62308
-651,-34,-8.21838,0.598267,0.00355014,0.00762809,0.00624551,0.012159,-0.000980811,0.943179,0.00845195,0.0281216,573,1058,-8.2184,-0.598234
-644,-34,-8.26788,0.558716,0.00183892,0.00593313,0.00402634,0.00840289,-0.000630841,1.02058,0.00582361,0.0110172,580,1058,-8.26788,-0.558736
-637,-34,-8.28778,0.567261,0.000398049,0.00342889,0.00160581,0.00412144,-0.0002945,1.16362,0.00285087,0.0116445,587,1058,-8.2878,-0.567224
-630,-34,-8.29901,0.616699,-0.00135876,0.00163809,-0.000230479,0.00165571,-0.00137638,-1.49449,0.00175306,0.0149296,594,1058,-8.29899,-0.616756
-623,-34,-8.28192,0.650024,-0.00162118,0.000669367,-0.00145873,0.00137869,-0.00233051,-1.1182,0.00216488,0.0122999,601,1058,-8.28195,-0.649991
-616,-34,-8.27319,0.68103,-0.00111337,-2.10782e-05,-0.00219985,0.00169941,-0.00283385,-0.90707,0.00264446,0.0178877,608,1058,-8.27322,-0.680999
-609,-34,-8.2854,0.682495,-0.000768381,-0.000914324,-0.00288078,0.00204035,-0.00372305,-0.772736,0.00337444,0.0177604,615,1058,-8.28542,-0.682546
-602,-34,-8.29248,0.703003,-0.000502037,-0.00105848,-0.00322409,0.00245581,-0.00401633,-0.742357,0.00377273,0.0145825,622,1058,-8.29245,-0.702993
-595,-34,-8.28296,0.740234,-0.000357065,-0.00153959,-0.00346355,0.00256533,-0.00446198,-0.700858,0.00410618,0.0126742,629,1058,-8.28296,-0.740234
-588,-34,-8.30084,0.472778,-0.000428825,-0.00179785,-0.00354505,0.00249719,-0.00472387,-0.690027,0.00423464,0.0216852,636,1058,-8.30081,-0.472784
-581,-34,-8.24689,0.238037,-0.000703029,-0.00192523,-0.00344704,0.00218666,-0.00481492,-0.697668,0.00413621,0.0244814,643,1058,-8.24686,-0.238016
-574,-34,-8.27551,0.295532,-0.00090615,-0.00205299,-0.00326702,0.00183739,-0.00479653,-0.698524,0.00395507,0.0353948,650,1058,-8.27548,-0.295539
-567,-34,-8.30682,0.101685,-0.0012498,-0.00203079,-0.00286225,0.00124848,-0.00452906,-0.717602,0.00351034,0.0417801,657,1058,-8.30684,-0.101643
-560,-34,-8.26257,-0.0316162,-0.00178161,-0.00181614,-0.00223378,0.000434974,-0.00403272,-0.781533,0.00284458,0.0432138,664,1058,-8.26255,0.0315957
-553,-34,-8.13794,0.119873,-0.00258487,-0.00135394,-0.00139493,-0.000444733,-0.00349407,-0.99316,0.0021962,0.0425566,671,1058,-8.13791,-0.119918
-546,-34,-8.0683,-0.0184326,-0.00377283,-0.000586897,-0.000335663,-0.000551917,-0.00380781,-1.46696,0.00237603,0.0446728,678,1058,-8.06828,0.0184894
-539,-34,-8.13934,-0.323242,-0.00549032,0.000521937,0.000680156,0.000597921,-0.00556631,1.45954,0.00392539,0.0440317,685,1058,-8.13935,0.3233
-532,-34,-8.40875,-0.00793457,-0.00804659,0.00209187,0.00102631,0.00219472,-0.00814944,1.47092,0.00629341,0.0411417,692,1058,-8.40875,0.00787785
-525,-34,0,0,0,0,0,0,0,0,0,-1,699,1058,0,0
-518,-34,0,0,0,0,0,0,0,0,0,-1,706,1058,0,0
-511,-34,0,0,0,0,0,0,0,0,0,-1,713,1058,0,0
-504,-34,0,0,0,0,0,0,0,0,0,-1,720,1058,0,0
-497,-34,0,0,0,0,0,0,0,0,0,-1,727,1058,0,0
-490,-34,0,0,0,0,0,0,0,0,0,-1,734,1058,0,0
-483,-34,0,0,0,0,0,0,0,0,0,-1,741,1058,0,0
-476,-34,0,0,0,0,0,0,0,0,0,-1,748,1058,0,0
-469,-34,0,0,0,0,0,0,0,0,0,-1,755,1058,0,0
-462,-34,0,0,0,0,0,0,0,0,0,-1,762,1058,0,0
-455,-34,0,0,0,0,0,0,0,0,0,-1,769,1058,0,0
-448,-34,0,0,0,0,0,0,0,0,0,-1,776,1058,0,0
-441,-34,0,0,0,0,0,0,0,0,0,-1,783,1058,0,0
-434,-34,0,0,0,0,0,0,0,0,0,-1,790,1058,0,0
-427,-34,0,0,0,0,0,0,0,0,0,-1,797,1058,0,0
-420,-34,0,0,0,0,0,0,0,0,0,-1,804,1058,0,0
-413,-34,0,0,0,0,0,0,0,0,0,-1,811,1058,0,0
-406,-34,0,0,0,0,0,0,0,0,0,-1,818,1058,0,0
-399,-34,0,0,0,0,0,0,0,0,0,-1,825,1058,0,0
-392,-34,0,0,0,0,0,0,0,0,0,-1,832,1058,0,0
-385,-34,0,0,0,0,0,0,0,0,0,-1,839,1058,0,0
-378,-34,0,0,0,0,0,0,0,0,0,-1,846,1058,0,0
-371,-34,0,0,0,0,0,0,0,0,0,-1,853,1058,0,0
-364,-34,0,0,0,0,0,0,0,0,0,-1,860,1058,0,0
-357,-34,0,0,0,0,0,0,0,0,0,-1,867,1058,0,0
-350,-34,0,0,0,0,0,0,0,0,0,-1,874,1058,0,0
-343,-34,0,0,0,0,0,0,0,0,0,-1,881,1058,0,0
-336,-34,0,0,0,0,0,0,0,0,0,-1,888,1058,0,0
-329,-34,0,0,0,0,0,0,0,0,0,-1,895,1058,0,0
-322,-34,0,0,0,0,0,0,0,0,0,-1,902,1058,0,0
-315,-34,0,0,0,0,0,0,0,0,0,-1,909,1058,0,0
-308,-34,0,0,0,0,0,0,0,0,0,-1,916,1058,0,0
-301,-34,0,0,0,0,0,0,0,0,0,-1,923,1058,0,0
-294,-34,0,0,0,0,0,0,0,0,0,-1,930,1058,0,0
-287,-34,0,0,0,0,0,0,0,0,0,-1,937,1058,0,0
-280,-34,0,0,0,0,0,0,0,0,0,-1,944,1058,0,0
-273,-34,0,0,0,0,0,0,0,0,0,-1,951,1058,0,0
-266,-34,0,0,0,0,0,0,0,0,0,-1,958,1058,0,0
-259,-34,0,0,0,0,0,0,0,0,0,-1,965,1058,0,0
-252,-34,0,0,0,0,0,0,0,0,0,-1,972,1058,0,0
-245,-34,0,0,0,0,0,0,0,0,0,-1,979,1058,0,0
-238,-34,0,0,0,0,0,0,0,0,0,-1,986,1058,0,0
-231,-34,0,0,0,0,0,0,0,0,0,-1,993,1058,0,0
-224,-34,0,0,0,0,0,0,0,0,0,-1,1000,1058,0,0
-217,-34,0,0,0,0,0,0,0,0,0,-1,1007,1058,0,0
-210,-34,0,0,0,0,0,0,0,0,0,-1,1014,1058,0,0
-203,-34,0,0,0,0,0,0,0,0,0,-1,1021,1058,0,0
-196,-34,0,0,0,0,0,0,0,0,0,-1,1028,1058,0,0
-189,-34,0,0,0,0,0,0,0,0,0,-1,1035,1058,0,0
-182,-34,0,0,0,0,0,0,0,0,0,-1,1042,1058,0,0
-175,-34,0,0,0,0,0,0,0,0,0,-1,1049,1058,0,0
-168,-34,0,0,0,0,0,0,0,0,0,-1,1056,1058,0,0
-161,-34,0,0,0,0,0,0,0,0,0,-1,1063,1058,0,0
-154,-34,0,0,0,0,0,0,0,0,0,-1,1070,1058,0,0
-147,-34,0,0,0,0,0,0,0,0,0,-1,1077,1058,0,0
-140,-34,0,0,0,0,0,0,0,0,0,-1,1084,1058,0,0
-133,-34,0,0,0,0,0,0,0,0,0,-1,1091,1058,0,0
-126,-34,0,0,0,0,0,0,0,0,0,-1,1098,1058,0,0
-119,-34,0,0,0,0,0,0,0,0,0,-1,1105,1058,0,0
-112,-34,0,0,0,0,0,0,0,0,0,-1,1112,1058,0,0
-105,-34,0,0,0,0,0,0,0,0,0,-1,1119,1058,0,0
-98,-34,0,0,0,0,0,0,0,0,0,-1,1126,1058,0,0
-91,-34,0,0,0,0,0,0,0,0,0,-1,1133,1058,0,0
-84,-34,0,0,0,0,0,0,0,0,0,-1,1140,1058,0,0
-77,-34,0,0,0,0,0,0,0,0,0,-1,1147,1058,0,0
-70,-34,0,0,0,0,0,0,0,0,0,-1,1154,1058,0,0
-63,-34,0,0,0,0,0,0,0,0,0,-1,1161,1058,0,0
-56,-34,0,0,0,0,0,0,0,0,0,-1,1168,1058,0,0
-49,-34,0,0,0,0,0,0,0,0,0,-1,1175,1058,0,0
-42,-34,0,0,0,0,0,0,0,0,0,-1,1182,1058,0,0
-35,-34,0,0,0,0,0,0,0,0,0,-1,1189,1058,0,0
-28,-34,0,0,0,0,0,0,0,0,0,-1,1196,1058,0,0
-21,-34,0,0,0,0,0,0,0,0,0,-1,1203,1058,0,0
-14,-34,0,0,0,0,0,0,0,0,0,-1,1210,1058,0,0
-7,-34,0,0,0,0,0,0,0,0,0,-1,1217,1058,0,0
0,-34,0,0,0,0,0,0,0,0,0,-1,1224,1058,0,0
7,-34,0,0,0,0,0,0,0,0,0,-1,1231,1058,0,0
14,-34,0,0,0,0,0,0,0,0,0,-1,1238,1058,0,0
21,-34,0,0,0,0,0,0,0,0,0,-1,1245,1058,0,0
28,-34,0,0,0,0,0,0,0,0,0,-1,1252,1058,0,0
35,-34,0,0,0,0,0,0,0,0,0,-1,1259,1058,0,0
42,-34,0,0,0,0,0,0,0,0,0,-1,1266,1058,0,0
49,-34,0,0,0,0,0,0,0,0,0,-1,1273,1058,0,0
56,-34,0,0,0,0,0,0,0,0,0,-1,1280,1058,0,0
63,-34,0,0,0,0,0,0,0,0,0,-1,1287,1058,0,0
70,-34,0,0,0,0,0,0,0,0,0,-1,1294,1058,0,0
77,-34,0,0,0,0,0,0,0,0,0,-1,1301,1058,0,0
84,-34,0,0,0,0,0,0,0,0,0,-1,1308,1058,0,0
91,-34,0,0,0,0,0,0,0,0,0,-1,1315,1058,0,0
98,-34,0,0,0,0,0,0,0,0,0,-1,1322,1058,0,0
105,-34,0,0,0,0,0,0,0,0,0,-1,1329,1058,0,0
112,-34,0,0,0,0,0,0,0,0,0,-1,1336,1058,0,0
119,-34,0,0,0,0,0,0,0,0,0,-1,1343,1058,0,0
126,-34,0,0,0,0,0,0,0,0,0,-1,1350,1058,0,0
133,-34,0,0,0,0,0,0,0,0,0,-1,1357,1058,0,0
140,-34,0,0,0,0,0,0,0,0,0,-1,1364,1058,0,0
147,-34,0,0,0,0,0,0,0,0,0,-1,1371,1058,0,0
154,-34,0,0,0,0,0,0,0,0,0,-1,1378,1058,0,0
161,-34,0,0,0,0,0,0,0,0,0,-1,1385,1058,0,0
168,-34,0,0,0,0,0,0,0,0,0,-1,1392,1058,0,0
175,-34,0,0,0,0,0,0,0,0,0,-1,1399,1058,0,0
182,-34,0,0,0,0,0,0,0,0,0,-1,1406,1058,0,0
189,-34,0,0,0,0,0,0,0,0,0,-1,1413,1058,0,0
196,-34,0,0,0,0,0,0,0,0,0,-1,1420,1058,0,0
203,-34,0,0,0,0,0,0,0,0,0,-1,1427,1058,0,0
210,-34,0,0,0,0,0,0,0,0,0,-1,1434,1058,0,0
217,-34,0,0,0,0,0,0,0,0,0,-1,1441,1058,0,0
224,-34,0,0,0,0,0,0,0,0,0,-1,1448,1058,0,0
231,-34,0,0,0,0,0,0,0,0,0,-1,1455,1058,0,0
238,-34,0,0,0,0,0,0,0,0,0,-1,1462,1058,0,0
245,-34,0,0,0,0,0,0,0,0,0,-1,1469,1058,0,0
252,-34,0,0,0,0,0,0,0,0,0,-1,1476,1058,0,0
259,-34,0,0,0,0,0,0,0,0,0,-1,1483,1058,0,0
266,-34,0,0,0,0,0,0,0,0,0,-1,1490,1058,0,0
273,-34,0,0,0,0,0,0,0,0,0,-1,1497,1058,0,0
280,-34,0,0,0,0,0,0,0,0,0,-1,1504,1058,0,0
287,-34,0,0,0,0,0,0,0,0,0,-1,1511,1058,0,0
294,-34,0,0,0,0,0,0,0,0,0,-1,1518,1058,0,0
301,-34,0,0,0,0,0,0,0,0,0,-1,1525,1058,0,0
308,-34,0,0,0,0,0,0,0,0,0,-1,1532,1058,0,0
315,-34,0,0,0,0,0,0,0,0,0,-1,1539,1058,0,0
322,-34,0,0,0,0,0,0,0,0,0,-1,1546,1058,0,0
329,-34,0,0,0,0,0,0,0,0,0,-1,1553,1058,0,0
336,-34,0,0,0,0,0,0,0,0,0,-1,1560,1058,0,0
343,-34,0,0,0,0,0,0,0,0,0,-1,1567,1058,0,0
350,-34,0,0,0,0,0,0,0,0,0,-1,1574,1058,0,0
357,-34,0,0,0,0,0,0,0,0,0,-1,1581,1058,0,0
364,-34,0,0,0,0,0,0,0,0,0,-1,1588,1058,0,0
371,-34,0,0,0,0,0,0,0,0,0,-1,1595,1058,0,0
378,-34,0,0,0,0,0,0,0,0,0,-1,1602,1058,0,0
385,-34,0,0,0,0,0,0,0,0,0,-1,1609,1058,0,0
392,-34,0,0,0,0,0,0,0,0,0,-1,1616,1058,0,0
399,-34,0,0,0,0,0,0,0,0,0,-1,1623,1058,0,0
406,-34,0,0,0,0,0,0,0,0,0,-1,1630,1058,0,0
413,-34,0,0,0,0,0,0,0,0,0,-1,1637,1058,0,0
420,-34,0,0,0,0,0,0,0,0,0,-1,1644,1058,0,0
427,-34,0,0,0,0,0,0,0,0,0,-1,1651,1058,0,0
434,-34,0,0,0,0,0,0,0,0,0,-1,1658,1058,0,0
441,-34,0,0,0,0,0,0,0,0,0,-1,1665,1058,0,0
448,-34,0,0,0,0,0,0,0,0,0,-1,1672,1058,0,0
455,-34,0,0,0,0,0,0,0,0,0,-1,1679,1058,0,0
462,-34,0,0,0,0,0,0,0,0,0,-1,1686,1058,0,0
469,-34,0,0,0,0,0,0,0,0,0,-1,1693,1058,0,0
476,-34,0,0,0,0,0,0,0,0,0,-1,1700,1058,0,0
483,-34,0,0,0,0,0,0,0,0,0,-1,1707,1058,0,0
490,-34,0,0,0,0,0,0,0,0,0,-1,1714,1058,0,0
497,-34,0,0,0,0,0,0,0,0,0,-1,1721,1058,0,0
504,-34,0,0,0,0,0,0,0,0,0,-1,1728,1058,0,0
511,-34,0,0,0,0,0,0,0,0,0,-1,1735,1058,0,0
518,-34,0,0,0,0,0,0,0,0,0,-1,1742,1058,0,0
525,-34,0,0,0,0,0,0,0,0,0,-1,1749,1058,0,0
532,-34,0,0,0,0,0,0,0,0,0,-1,1756,1058,0,0
539,-34,0,0,0,0,0,0,0,0,0,-1,1763,1058,0,0
546,-34,0,0,0,0,0,0,0,0,0,-1,1770,1058,0,0
553,-34,0,0,0,0,0,0,0,0,0,-1,1777,1058,0,0
560,-34,0,0,0,0,0,0,0,0,0,-1,1784,1058,0,0
567,-34,0,0,0,0,0,0,0,0,0,-1,1791,1058,0,0
574,-34,0,0,0,0,0,0,0,0,0,-1,1798,1058,0,0
581,-34,0,0,0,0,0,0,0,0,0,-1,1805,1058,0,0
588,-34,0,0,0,0,0,0,0,0,0,-1,1812,1058,0,0
595,-34,0,0,0,0,0,0,0,0,0,-1,1819,1058,0,0
602,-34,0,0,0,0,0,0,0,0,0,-1,1826,1058,0,0
609,-34,0,0,0,0,0,0,0,0,0,-1,1833,1058,0,0
616,-34,0,0,0,0,0,0,0,0,0,-1,1840,1058,0,0
623,-34,0,0,0,0,0,0,0,0,0,-1,1847,1058,0,0
630,-34,0,0,0,0,0,0,0,0,0,-1,1854,1058,0,0
637,-34,0,0,0,0,0,0,0,0,0,-1,1861,1058,0,0
644,-34,0,0,0,0,0,0,0,0,0,-1,1868,1058,0,0
651,-34,14.2074,1.52234,-0.00487455,0.00192796,0.00525136,0.00478333,-0.00772992,1.07277,0.00729099,0.0403879,1875,1058,14.2074,-1.52235
658,-34,14.1394,1.60461,-0.00330935,0.00156532,0.00362775,0.00349847,-0.0052425,1.08119,0.00507998,0.0431626,1882,1058,14.1394,-1.6046
665,-34,13.979,2.05225,-0.00228695,0.00130415,0.00245505,0.00255019,-0.00353299,1.10113,0.00352737,0.040997,1889,1058,13.979,-2.0523
672,-34,14.0187,2.05566,-0.0016634,0.00103438,0.00197668,0.00207856,-0.00270758,1.08481,0.00277122,0.036885,1896,1058,14.0186,-2.05565
679,-34,14.1864,1.85327,-0.00184302,0.000703306,0.00228424,0.00204523,-0.00318495,1.03964,0.00304345,0.0362219,1903,1058,14.1865,-1.85329
686,-34,14.2189,1.66785,-0.00235207,0.000372253,0.00286741,0.0021846,-0.00416442,1.00714,0.00372454,0.0404657,1910,1058,14.2188,-1.66785
693,-34,14.1208,1.68079,-0.00292616,6.24798e-05,0.00353727,0.00240812,-0.0052718,0.985253,0.00453559,0.040687,1917,1058,14.1209,-1.68081
700,-34,14.0685,1.79468,-0.00348646,-0.000210075,0.00418807,0.00264879,-0.00634533,0.971828,0.00533695,0.0370531,1924,1058,14.0685,-1.79469
707,-34,14.0591,1.85596,-0.00386171,-0.000411247,0.00463146,0.00280587,-0.00707883,0.963688,0.00588199,0.0210001,1931,1058,14.0591,-1.85591
714,-34,14.0732,1.87964,-0.00413917,-0.000575163,0.00488617,0.00284381,-0.00755814,0.960255,0.00620776,0.0134285,1938,1058,14.0732,-1.87969
721,-34,14.1123,1.98279,-0.00438889,-0.000667627,0.00500465,0.00281107,-0.00786759,0.963371,0.00639157,0.0201692,1945,1058,14.1124,-1.98279
728,-34,13.954,2.40112,-0.00458029,-0.000606341,0.0050197,0.00280534,-0.00799197,0.973854,0.00646913,0.0206806,1952,1058,13.954,-2.40118
735,-34,13.786,2.60242,-0.00438608,-0.000393171,0.00478016,0.00279071,-0.00756995,0.983214,0.00619023,0.0142928,1959,1058,13.786,-2.60241
742,-34,13.7842,2.57373,-0.00333074,8.42034e-05,0.00437867,0.00307654,-0.00632308,0.971306,0.00553372,0.0143842,1966,1058,13.7842,-2.57379
749,-34,13.8229,2.58484,-0.00160721,0.000879757,0.0035655,0.00341239,-0.00413984,0.95318,0.00436702,0.0117467,1973,1058,13.8229,-2.58484
756,-34,13.8489,2.59607,0.000317235,0.0022989,0.00239493,0.00389987,-0.00128373,0.981537,0.00311722,0.00915189,1980,1058,13.8489,-2.59613
763,-34,13.8352,2.58167,0.00254888,0.00385892,0.00137203,0.00472427,0.00168353,1.00811,0.00276482,0.0100023,1987,1058,13.8352,-2.58165
770,-34,13.8076,2.56641,0.00536398,0.00596136,0.000218157,0.00603255,0.00529279,1.25538,0.0037992,0.0152581,1994,1058,13.8077,-2.56642
777,-34,13.7834,2.58435,0.00882395,0.00868676,-0.000874549,0.00963259,0.00787812,-0.746262,0.00592415,0.0160867,2001,1058,13.7835,-2.58435
784,-34,13.8514,2.60571,0.0126137,0.0121509,-0.00169759,0.0140956,0.010669,-0.717669,0.00848861,0.032385,2008,1058,13.8515,-2.60568
791,-34,14.4738,2.73633,0,0,0,0,0,0,0,-1,2015,1058,14.4738,-2.73629
798,-34,14.6211,3.75073,0,0,0,0,0,0,0,-1,2022,1058,14.6211,-3.75078
805,-34,14.8049,3.63989,0,0,0,0,0,0,0,-1,2029,1058,14.8049,-3.63993
812,-34,15.1147,3.50317,0,0,0,0,0,0,0,-1,2036,1058,15.1148,-3.50322
-700,-41,-8.21838,0.865479,0,0,0,0,0,0,0,-1,524,1065,-8.2184,-0.865526
-693,-41,-7.96338,0.138062,0,0,0,0,0,0,0,-1,531,1065,-7.9634,-0.138079
-686,-41,-8.14331,0.0262451,0,0,0,0,0,0,0,-1,538,1065,-8.14331,-0.0262028
-679,-41,-9.24512,-0.027832,0,0,0,0,0,0,0,-1,545,1065,-9.24509,0.0278576
-672,-41,-8.87604,0.0734863,0.0164215,0.0185079,0.0164345,0.0339323,0.000997096,0.817094,0.0222966,0.0446498,552,1065,-8.87607,-0.0735255
-665,-41,-8.46826,0.164795,0.0110805,0.014693,0.0126623,0.0256772,9.6323e-05,0.856243,0.0170861,0.0398363,559,1065,-8.46825,-0.164818
-658,-41,-8.22864,0.296387,0.00698207,0.0112693,0.00936495,0.0187328,-0.000481476,0.897909,0.0126521,0.0368011,566,1065,-8.22866,-0.296445
-651,-41,-8.17328,0.458374,0.00402239,0.00833214,0.00662753,0.0131463,-0.000791787,0.942578,0.00903971,0.0268552,573,1065,-8.17328,-0.458395
-644,-41,-8.25928,0.529419,0.00213132,0.00638833,0.00442218,0.0091676,-0.00064795,1.0097,0.00633877,0.011193,580,1065,-8.25931,-0.529388
-637,-41,-8.27069,0.557861,0.000691147,0.0037678,0.00197238,0.00473082,-0.000271873,1.11659,0.0032483,0.0115477,587,1065,-8.2707,-0.557854
-630,-41,-8.27051,0.601929,-0.00146891,0.00181454,5.27282e-05,0.00181539,-0.00146976,1.55474,0.00190018,0.0122318,594,1065,-8.27049,-0.60189
-623,-41,-8.24951,0.642822,-0.00184641,0.000715852,-0.00131203,0.0012685,-0.00239905,-1.17214,0.00215073,0.0112765,601,1065,-8.24954,-0.642855
-616,-41,-8.25464,0.682129,-0.00126517,-9.87791e-05,-0.00209952,0.00149704,-0.00286099,-0.920871,0.00255686,0.0152899,608,1065,-8.25464,-0.682141
-609,-41,-8.27136,0.699341,-0.000853455,-0.00090436,-0.00284458,0.00196578,-0.0037236,-0.780924,0.00333662,0.0212646,615,1065,-8.27135,-0.699309
-602,-41,-8.27325,0.70752,-0.000598145,-0.00116566,-0.00324691,0.00237738,-0.00414119,-0.741812,0.00380915,0.0123636,622,1065,-8.27322,-0.707498
-595,-41,-8.26544,0.735962,-0.000530467,-0.00171665,-0.00357405,0.00249937,-0.00474649,-0.703175,0.00424993,0.0134382,629,1065,-8.26543,-0.735959
-588,-41,-8.29779,0.455688,-0.00062006,-0.00205821,-0.00372553,0.00245516,-0.00513342,-0.690064,0.0044713,0.0228609,636,1065,-8.29776,-0.455629
-581,-41,-8.25177,0.27771,-0.000852437,-0.00225977,-0.00368145,0.002192,-0.0053042,-0.690968,0.00445053,0.0356341,643,1065,-8.2518,-0.277653
-574,-41,-8.36981,0.397705,-0.00103534,-0.00249767,-0.00356513,0.00187283,-0.00540584,-0.684257,0.00436424,0.0364533,650,1065,-8.36982,-0.397751
-567,-41,-8.48676,0.505249,-0.00133105,-0.00261859,-0.00323153,0.00132021,-0.00526986,-0.687078,0.00402612,0.0411557,657,1065,-8.48676,-0.505308
-560,-41,-8.31158,0.194824,-0.00178272,-0.00258225,-0.0026845,0.000531617,-0.00489658,-0.711483,0.00345525,0.0458467,664,1065,-8.31161,-0.194809
-553,-41,-8.20355,0.298218,-0.00246255,-0.00233147,-0.00193668,-0.000459228,-0.0043348,-0.802312,0.0027496,0.0459908,671,1065,-8.20353,-0.298184
-546,-41,-8.09241,-0.00012207,-0.00346574,-0.0018026,-0.000969186,-0.00135713,-0.00391121,-1.13996,0.00229311,0.0433755,678,1065,-8.09242,7.10407e-05
-539,-41,-8.14789,-0.445801,-0.00492029,-0.000940173,-4.0076e-05,-0.000939769,-0.0049207,-1.56073,0.00301641,0.0412202,685,1065,-8.14791,0.445798
-532,-41,-8.27319,-0.505127,-0.007162,0.000335847,0.000152553,0.000338949,-0.00716511,1.55046,0.00489363,0.0411099,692,1065,-8.27321,0.505152
-525,-41,0,0,0,0,0,0,0,0,0,-1,699,1065,0,0
-518,-41,0,0,0,0,0,0,0,0,0,-1,706,1065,0,0
-511,-41,0,0,0,0,0,0,0,0,0,-1,713,1065,0,0
-504,-41,0,0,0,0,0,0,0,0,0,-1,720,1065,0,0
-497,-41,0,0,0,0,0,0,0,0,0,-1,727,1065,0,0
-490,-41,0,0,0,0,0,0,0,0,0,-1,734,1065,0,0
-483,-41,0,0,0,0,0,0,0,0,0,-1,741,1065,0,0
-476,-41,0,0,0,0,0,0,0,0,0,-1,748,1065,0,0
-469,-41,0,0,0,0,0,0,0,0,0,-1,755,1065,0,0
-462,-41,0,0,0,0,0,0,0,0,0,-1,762,1065,0,0
-455,-41,0,0,0,0,0,0,0,0,0,-1,769,1065,0,0
-448,-41,0,0,0,0,0,0,0,0,0,-1,776,1065,0,0
-441,-41,0,0,0,0,0,0,0,0,0,-1,783,1065,0,0
-434,-41,0,0,0,0,0,0,0,0,0,-1,790,1065,0,0
-427,-41,0,0,0,0,0,0,0,0,0,-1,797,1065,0,0
-420,-41,0,0,0,0,0,0,0,0,0,-1,804,1065,0,0
-413,-41,0,0,0,0,0,0,0,0,0,-1,811,1065,0,0
-406,-41,0,0,0,0,0,0,0,0,0,-1,818,1065,0,0
-399,-41,0,0,0,0,0,0,0,0,0,-1,825,1065,0,0
-392,-41,0,0,0,0,0,0,0,0,0,-1,832,1065,0,0
-385,-41,0,0,0,0,0,0,0,0,0,-1,839,1065,0,0
-378,-41,0,0,0,0,0,0,0,0,0,-1,846,1065,0,0
-371,-41,0,0,0,0,0,0,0,0,0,-1,853,1065,0,0
-364,-41,0,0,0,0,0,0,0,0,0,-1,860,1065,0,0
-357,-41,0,0,0,0,0,0,0,0,0,-1,867,1065,0,0
-350,-41,0,0,0,0,0,0,0,0,0,-1,874,1065,0,0
-343,-41,0,0,0,0,0,0,0,0,0,-1,881,1065,0,0
-336,-41,0,0,0,0,0,0,0,0,0,-1,888,1065,0,0
-329,-41,0,0,0,0,0,0,0,0,0,-1,895,1065,0,0
-322,-41,0,0,0,0,0,0,0,0,0,-1,902,1065,0,0
-315,-41,0,0,0,0,0,0,0,0,0,-1,909,1065,0,0
-308,-41,0,0,0,0,0,0,0,0,0,-1,916,1065,0,0
-301,-41,0,0,0,0,0,0,0,0,0,-1,923,1065,0,0
-294,-41,0,0,0,0,0,0,0,0,0,-1,930,1065,0,0
-287,-41,0,0,0,0,0,0,0,0,0,-1,937,1065,0,0
-280,-41,0,0,0,0,0,0,0,0,0,-1,944,1065,0,0
-273,-41,0,0,0,0,0,0,0,0,0,-1,951,1065,0,0
-266,-41,0,0,0,0,0,0,0,0,0,-1,958,1065,0,0
-259,-41,0,0,0,0,0,0,0,0,0,-1,965,1065,0,0
-252,-41,0,0,0,0,0,0,0,0,0,-1,972,1065,0,0
-245,-41,0,0,0,0,0,0,0,0,0,-1,979,1065,0,0
-238,-41,0,0,0,0,0,0,0,0,0,-1,986,1065,0,0
-231,-41,0,0,0,0,0,0,0,0,0,-1,993,1065,0,0
-224,-41,0,0,0,0,0,0,0,0,0,-1,1000,1065,0,0
-217,-41,0,0,0,0,0,0,0,0,0,-1,1007,1065,0,0
-210,-41,0,0,0,0,0,0,0,0,0,-1,1014,1065,0,0
-203,-41,0,0,0,0,0,0,0,0,0,-1,1021,1065,0,0
-196,-41,0,0,0,0,0,0,0,0,0,-1,1028,1065,0,0
-189,-41,0,0,0,0,0,0,0,0,0,-1,1035,1065,0,0
-182,-41,0,0,0,0,0,0,0,0,0,-1,1042,1065,0,0
-175,-41,0,0,0,0,0,0,0,0,0,-1,1049,1065,0,0
-168,-41,0,0,0,0,0,0,0,0,0,-1,1056,1065,0,0
-161,-41,0,0,0,0,0,0,0,0,0,-1,1063,1065,0,0
-154,-41,0,0,0,0,0,0,0,0,0,-1,1070,1065,0,0
-147,-41,0,0,0,0,0,0,0,0,0,-1,1077,1065,0,0
-140,-41,0,0,0,0,0,0,0,0,0,-1,1084,1065,0,0
-133,-41,0,0,0,0,0,0,0,0,0,-1,1091,1065,0,0
-126,-41,0,0,0,0,0,0,0,0,0,-1,1098,1065,0,0
-119,-41,0,0,0,0,0,0,0,0,0,-1,1105,1065,0,0
-112,-41,0,0,0,0,0,0,0,0,0,-1,1112,1065,0,0
-105,-41,0,0,0,0,0,0,0,0,0,-1,1119,1065,0,0
-98,-41,0,0,0,0,0,0,0,0,0,-1,1126,1065,0,0
-91,-41,0,0,0,0,0,0,0,0,0,-1,1133,1065,0,0
-84,-41,0,0,0,0,0,0,0,0,0,-1,1140,1065,0,0
-77,-41,0,0,0,0,0,0,0,0,0,-1,1147,1065,0,0
-70,-41,0,0,0,0,0,0,0,0,0,-1,1154,1065,0,0
-63,-41,0,0,0,0,0,0,0,0,0,-1,1161,1065,0,0
-56,-41,0,0,0,0,0,0,0,0,0,-1,1168,1065,0,0
-49,-41,0,0,0,0,0,0,0,0,0,-1,1175,1065,0,0
-42,-41,0,0,0,0,0,0,0,0,0,-1,1182,1065,0,0
-35,-41,0,0,0,0,0,0,0,0,0,-1,1189,1065,0,0
-28,-41,0,0,0,0,0,0,0,0,0,-1,1196,1065,0,0
-21,-41,0,0,0,0,0,0,0,0,0,-1,1203,1065,0,0
-14,-41,0,0,0,0,0,0,0,0,0,-1,1210,1065,0,0
-7,-41,0,0,0,0,0,0,0,0,0,-1,1217,1065,0,0
0,-41,0,0,0,0,0,0,0,0,0,-1,1224,1065,0,0
7,-41,0,0,0,0,0,0,0,0,0,-1,1231,1065,0,0
14,-41,0,0,0,0,0,0,0,0,0,-1,1238,1065,0,0
21,-41,0,0,0,0,0,0,0,0,0,-1,1245,1065,0,0
28,-41,0,0,0,0,0,0,0,0,0,-1,1252,1065,0,0
35,-41,0,0,0,0,0,0,0,0,0,-1,1259,1065,0,0
42,-41,0,0,0,0,0,0,0,0,0,-1,1266,1065,0,0
49,-41,0,0,0,0,0,0,0,0,0,-1,1273,1065,0,0
56,-41,0,0,0,0,0,0,0,0,0,-1,1280,1065,0,0
63,-41,0,0,0,0,0,0,0,0,0,-1,1287,1065,0,0
70,-41,0,0,0,0,0,0,0,0,0,-1,1294,1065,0,0
77,-41,0,0,0,0,0,0,0,0,0,-1,1301,1065,0,0
84,-41,0,0,0,0,0,0,0,0,0,-1,1308,1065,0,0
91,-41,0,0,0,0,0,0,0,0,0,-1,1315,1065,0,0
98,-41,0,0,0,0,0,0,0,0,0,-1,1322,1065,0,0
105,-41,0,0,0,0,0,0,0,0,0,-1,1329,1065,0,0
112,-41,0,0,0,0,0,0,0,0,0,-1,1336,1065,0,0
119,-41,0,0,0,0,0,0,0,0,0,-1,1343,1065,0,0
126,-41,0,0,0,0,0,0,0,0,0,-1,1350,1065,0,0
133,-41,0,0,0,0,0,0,0,0,0,-1,1357,1065,0,0
140,-41,0,0,0,0,0,0,0,0,0,-1,1364,1065,0,0
147,-41,0,0,0,0,0,0,0,0,0,-1,1371,1065,0,0
154,-41,0,0,0,0,0,0,0,0,0,-1,1378,1065,0,0
161,-41,0,0,0,0,0,0,0,0,0,-1,1385,1065,0,0
168,-41,0,0,0,0,0,0,0,0,0,-1,1392,1065,0,0
175,-41,0,0,0,0,0,0,0,0,0,-1,1399,1065,0,0
182,-41,0,0,0,0,0,0,0,0,0,-1,1406,1065,0,0
189,-41,0,0,0,0,0,0,0,0,0,-1,1413,1065,0,0
196,-41,0,0,0,0,0,0,0,0,0,-1,1420,1065,0,0
203,-41,0,0,0,0,0,0,0,0,0,-1,1427,1065,0,0
210,-41,0,0,0,0,0,0,0,0,0,-1,1434,1065,0,0
217,-41,0,0,0,0,0,0,0,0,0,-1,1441,1065,0,0
224,-41,0,0,0,0,0,0,0,0,0,-1,1448,1065,0,0
231,-41,0,0,0,0,0,0,0,0,0,-1,1455,1065,0,0
238,-41,0,0,0,0,0,0,0,0,0,-1,1462,1065,0,0
245,-41,0,0,0,0,0,0,0,0,0,-1,1469,1065,0,0
252,-41,0,0,0,0,0,0,0,0,0,-1,1476,1065,0,0
259,-41,0,0,0,0,0,0,0,0,0,-1,1483,1065,0,0
266,-41,0,0,0,0,0,0,0,0,0,-1,1490,1065,0,0
273,-41,0,0,0,0,0,0,0,0,0,-1,1497,1065,0,0
280,-41,0,0,0,0,0,0,0,0,0,-1,1504,1065,0,0
287,-41,0,0,0,0,0,0,0,0,0,-1,1511,1065,0,0
294,-41,0,0,0,0,0,0,0,0,0,-1,1518,1065,0,0
301,-41,0,0,0,0,0,0,0,0,0,-1,1525,1065,0,0
308,-41,0,0,0,0,0,0,0,0,0,-1,1532,1065,0,0
315,-41,0,0,0,0,0,0,0,0,0,-1,1539,1065,0,0
322,-41,0,0,0,0,0,0,0,0,0,-1,1546,1065,0,0
329,-41,0,0,0,0,0,0,0,0,0,-1,1553,1065,0,0
336,-41,0,0,0,0,0,0,0,0,0,-1,1560,1065,0,0
343,-41,0,0,0,0,0,0,0,0,0,-1,1567,1065,0,0
350,-41,0,0,0,0,0,0,0,0,0,-1,1574,1065,0,0
357,-41,0,0,0,0,0,0,0,0,0,-1,1581,1065,0,0
364,-41,0,0,0,0,0,0,0,0,0,-1,1588,1065,0,0
371,-41,0,0,0,0,0,0,0,0,0,-1,1595,1065,0,0
378,-41,0,0,0,0,0,0,0,0,0,-1,1602,1065,0,0
385,-41,0,0,0,0,0,0,0,0,0,-1,1609,1065,0,0
392,-41,0,0,0,0,0,0,0,0,0,-1,1616,1065,0,0
399,-41,0,0,0,0,0,0,0,0,0,-1,1623,1065,0,0
406,-41,0,0,0,0,0,0,0,0,0,-1,1630,1065,0,0
413,-41,0,0,0,0,0,0,0,0,0,-1,1637,1065,0,0
420,-41,0,0,0,0,0,0,0,0,0,-1,1644,1065,0,0
427,-41,0,0,0,0,0,0,0,0,0,-1,1651,1065,0,0
434,-41,0,0,0,0,0,0,0,0,0,-1,1658,1065,0,0
441,-41,0,0,0,0,0,0,0,0,0,-1,1665,1065,0,0
448,-41,0,0,0,0,0,0,0,0,0,-1,1672,1065,0,0
455,-41,0,0,0,0,0,0,0,0,0,-1,1679,1065,0,0
462,-41,0,0,0,0,0,0,0,0,0,-1,1686,1065,0,0
469,-41,0,0,0,0,0,0,0,0,0,-1,1693,1065,0,0
476,-41,0,0,0,0,0,0,0,0,0,-1,1700,1065,0,0
483,-41,0,0,0,0,0,0,0,0,0,-1,1707,1065,0,0
490,-41,0,0,0,0,0,0,0,0,0,-1,1714,1065,0,0
497,-41,0,0,0,0,0,0,0,0,0,-1,1721,1065,0,0
504,-41,0,0,0,0,0,0,0,0,0,-1,1728,1065,0,0
511,-41,0,0,0,0,0,0,0,0,0,-1,1735,1065,0,0
518,-41,0,0,0,0,0,0,0,0,0,-1,1742,1065,0,0
525,-41,0,0,0,0,0,0,0,0,0,-1,1749,1065,0,0
532,-41,0,0,0,0,0,0,0,0,0,-1,1756,1065,0,0
539,-41,0,0,0,0,0,0,0,0,0,-1,1763,1065,0,0
546,-41,0,0,0,0,0,0,0,0,0,-1,1770,1065,0,0
553,-41,0,0,0,0,0,0,0,0,0,-1,1777,1065,0,0
560,-41,0,0,0,0,0,0,0,0,0,-1,1784,1065,0,0
567,-41,0,0,0,0,0,0,0,0,0,-1,1791,1065,0,0
574,-41,0,0,0,0,0,0,0,0,0,-1,1798,1065,0,0
581,-41,0,0,0,0,0,0,0,0,0,-1,1805,1065,0,0
588,-41,0,0,0,0,0,0,0,0,0,-1,1812,1065,0,0
595,-41,0,0,0,0,0,0,0,0,0,-1,1819,1065,0,0
602,-41,0,0,0,0,0,0,0,0,0,-1,1826,1065,0,0
609,-41,0,0,0,0,0,0,0,0,0,-1,1833,1065,0,0
616,-41,0,0,0,0,0,0,0,0,0,-1,1840,1065,0,0
623,-41,0,0,0,0,0,0,0,0,0,-1,1847,1065,0,0
630,-41,0,0,0,0,0,0,0,0,0,-1,1854,1065,0,0
637,-41,0,0,0,0,0,0,0,0,0,-1,1861,1065,0,0
644,-41,0,0,0,0,0,0,0,0,0,-1,1868,1065,0,0
651,-41,14.0941,1.91614,-0.00634473,0.000942554,0.00496506,0.00345748,-0.00885966,1.10194,0.00733575,0.0343761,1875,1065,14.0941,-1.91612
658,-41,14.049,1.80432,-0.00418602,0.000734737,0.00349698,0.00255014,-0.00600143,1.09196,0.00506951,0.0391474,1882,1065,14.0489,-1.80431
665,-41,14.0458,1.97449,-0.00277147,0.000592265,0.0024219,0.001859,-0.00403821,1.08889,0.00348138,0.0403206,1889,1065,14.0458,-1.97451
672,-41,14.1155,1.96497,-0.00191576,0.000372326,0.00200698,0.00153844,-0.00308187,1.04444,0.00271669,0.0418633,1896,1065,14.1155,-1.96498
679,-41,14.2809,1.90063,-0.00201443,6.23948e-05,0.00236951,0.00161104,-0.00356307,0.991913,0.00305732,0.0428069,1903,1065,14.2809,-1.90066
686,-41,14.2936,1.59009,-0.00250381,-0.000249478,0.00298192,0.0018112,-0.00456449,0.966097,0.00379369,0.0409691,1910,1065,14.2935,-1.59008
693,-41,14.1931,1.64905,-0.00310038,-0.000532432,0.00366897,0.00207074,-0.00570355,0.953715,0.00464897,0.0409784,1917,1065,14.1931,-1.64903
700,-41,14.1099,1.79309,-0.00368361,-0.000751627,0.00433792,0.00236132,-0.00679656,0.948347,0.00549011,0.0375402,1924,1065,14.1098,-1.79309
707,-41,14.0896,1.82312,-0.00406667,-0.000912872,0.00478788,0.0025511,-0.00753064,0.94448,0.00605273,0.0229424,1931,1065,14.0895,-1.82317
714,-41,14.0879,1.86365,-0.00437069,-0.00103758,0.00504467,0.0026087,-0.00801696,0.944934,0.00639412,0.0116118,1938,1065,14.0879,-1.86362
721,-41,14.1068,2.0957,-0.00464687,-0.00108483,0.00514213,0.00257598,-0.00830768,0.952112,0.00656772,0.023083,1945,1065,14.1068,-2.0957
728,-41,13.8972,2.56335,-0.00484364,-0.000962131,0.00511461,0.00256756,-0.00837333,0.966733,0.00660653,0.0245611,1952,1065,13.8972,-2.56332
735,-41,13.813,2.61145,-0.00462688,-0.000682061,0.0048392,0.00257126,-0.0078802,0.978915,0.0062883,0.0152163,1959,1065,13.8129,-2.61143
742,-41,13.7852,2.59387,-0.00345777,-0.000197257,0.00436368,0.00283075,-0.00648577,0.964168,0.00551515,0.0126997,1966,1065,13.7851,-2.59385
749,-41,13.824,2.604,-0.00155834,0.000702331,0.00351461,0.0032639,-0.00411991,0.94098,0.00427258,0.0127926,1973,1065,13.824,-2.60402
756,-41,13.856,2.59888,0.000516261,0.00222822,0.00228987,0.00381686,-0.00107238,0.964262,0.00296735,0.0123296,1980,1065,13.8559,-2.59892
763,-41,13.8197,2.57495,0.00291937,0.00388621,0.00119945,0.00469599,0.00210959,0.976957,0.00271589,0.0102354,1987,1065,13.8196,-2.57496
770,-41,13.7833,2.5719,0.00595016,0.00612047,-3.66307e-05,0.00612802,0.00594262,-1.36768,0.00402497,0.0124061,1994,1065,13.7833,-2.57195
777,-41,13.7678,2.56885,0.00961341,0.00899033,-0.00119504,0.0105369,0.0080669,-0.657889,0.0063631,0.0139236,2001,1065,13.7678,-2.56889
784,-41,13.7832,2.56165,0.0136002,0.0126529,-0.00206238,0.0152426,0.0110105,-0.672525,0.00908575,0.0258916,2008,1065,13.7833,-2.56165
791,-41,14.2343,2.33142,0.0182076,0.0174018,-0.00302146,0.0208529,0.0147565,-0.719114,0.0123806,0.0433628,2015,1065,14.2342,-2.33142
798,-41,14.6198,1.97693,0.0238048,0.0235724,-0.00436713,0.0280573,0.0193199,-0.7721,0.0165785,0.0475282,2022,1065,14.6197,-1.97694
805,-41,14.6107,1.61157,0.0303528,0.0315785,-0.00620218,0.037198,0.0247333,-0.834645,0.0218622,0.0457689,2029,1065,14.6107,-1.61152
812,-41,14.6826,0.961304,0,0,0,0,0,0,0,-1,2036,1065,14.6827,-0.961314
-700,-48,-8.5307,0.688965,0.0513933,0.0329319,0.0308938,0.0744059,0.00991927,0.640225,0.0466504,0.0449295,524,1072,-8.53071,-0.688939
-693,-48,-8.63593,0.206421,0.0426796,0.0307468,0.0285874,0.0659166,0.00750978,0.682521,0.0416673,0.0422452,531,1072,-8.6359,-0.206475
-686,-48,-8.61206,-0.259521,0.033518,0.0270508,0.0248649,0.0553587,0.00521015,0.720738,0.0352975,0.0445833,538,1072,-8.61206,0.259579
-679,-48,-8.58441,-0.381958,0,0,0,0,0,0,0,-1,545,1072,-8.58443,0.381942
-672,-48,-8.5907,-0.0783691,0.0177841,0.0185467,0.0165951,0.0347649,0.00156594,0.796884,0.0226727,0.0456236,552,1072,-8.59067,0.07834
-665,-48,-8.36432,0.296753,0.0118515,0.0145807,0.0128023,0.0260909,0.000341237,0.838494,0.0172813,0.0423927,559,1072,-8.36434,-0.29676
-658,-48,-8.19849,0.310303,0.00728919,0.0110839,0.00949334,0.0188676,-0.000494557,0.884028,0.0127465,0.0415011,566,1072,-8.19848,-0.310272
-651,-48,-8.15363,0.404175,0.00401111,0.00812767,0.00675675,0.0131327,-0.000993908,0.933246,0.00910453,0.0286858,573,1072,-8.15362,-0.404126
-644,-48,-8.22052,0.537964,0.00194889,0.00612432,0.00459165,0.00908059,-0.00100738,0.998766,0.00641594,0.0125346,580,1072,-8.22055,-0.537964
-637,-48,-8.21558,0.550537,0.00051958,0.00359142,0.00212302,0.00467586,-0.000564859,1.09855,0.00332158,0.0126113,587,1072,-8.21557,-0.550566
-630,-48,-8.21204,0.587769,-0.00195041,0.00163516,0.000188823,0.00164508,-0.00196032,1.51833,0.00208423,0.0148262,594,1072,-8.21201,-0.587795
-623,-48,-8.21851,0.638062,-0.00238013,0.000650743,-0.00125782,0.00110474,-0.00283413,-1.22441,0.00234603,0.0100209,601,1072,-8.21851,-0.638102
-616,-48,-8.22437,0.660767,-0.00171541,-0.00016192,-0.00207419,0.00127619,-0.00315353,-0.964556,0.00263295,0.00969252,608,1072,-8.22439,-0.660824
-609,-48,-8.22119,0.661255,-0.00116952,-0.000803038,-0.00281591,0.00183559,-0.00380815,-0.817889,0.00332409,0.0115527,615,1072,-8.22119,-0.661229
-602,-48,-8.22449,0.697876,-0.000821166,-0.00112281,-0.00326018,0.00229167,-0.00423565,-0.762284,0.00382386,0.0113968,622,1072,-8.22448,-0.697879
-595,-48,-8.23108,0.728394,-0.000761206,-0.00167769,-0.00367431,0.00248333,-0.00492223,-0.723361,0.0043522,0.014166,629,1072,-8.23109,-0.728399
-588,-48,-8.26617,0.422363,-0.000865468,-0.00206593,-0.00390281,0.002483,-0.0054144,-0.709099,0.00466309,0.0276718,636,1072,-8.26618,-0.422399
-581,-48,-8.27667,0.251831,-0.00105246,-0.00232248,-0.0039281,0.00229162,-0.00566657,-0.705263,0.00473038,0.0407756,643,1072,-8.27664,-0.25187
-574,-48,-8.38409,0.460571,-0.00120948,-0.00263578,-0.00388693,0.00202917,-0.00587444,-0.69467,0.00473976,0.0395455,650,1072,-8.38411,-0.460629
-567,-48,-8.4751,0.625854,-0.00144346,-0.00287728,-0.00364441,0.00155388,-0.00587462,-0.688281,0.00452422,0.0416243,657,1072,-8.4751,-0.62589
-560,-48,-8.29694,-0.0300293,-0.00179134,-0.00301667,-0.00321078,0.000864709,-0.00567272,-0.691124,0.00410055,0.0464843,664,1072,-8.29693,0.0299995
-553,-48,-8.34424,0.14856,-0.0023112,-0.0030059,-0.00260152,-3.39414e-05,-0.00528316,-0.719032,0.00351085,0.0458838,671,1072,-8.34422,-0.148504
-546,-48,-8.30988,0.0651855,-0.00307532,-0.00278878,-0.00179758,-0.00112877,-0.00473533,-0.825166,0.00285597,0.0416492,678,1072,-8.30987,-0.0651331
-539,-48,-8.33313,-0.0546875,-0.0041816,-0.00230591,-0.00105497,-0.00183219,-0.00465531,-1.14874,0.00270797,0.0390396,685,1072,-8.3331,0.0546983
-532,-48,-8.27594,-0.123047,-0.00600063,-0.0015382,-0.00114973,-0.00125939,-0.00627944,-1.33289,0.00383603,0.0397274,692,1072,-8.27592,0.122988
-525,-48,0,0,0,0,0,0,0,0,0,-1,699,1072,0,0
-518,-48,0,0,0,0,0,0,0,0,0,-1,706,1072,0,0
-511,-48,0,0,0,0,0,0,0,0,0,-1,713,1072,0,0
-504,-48,0,0,0,0,0,0,0,0,0,-1,720,1072,0,0
-497,-48,0,0,0,0,0,0,0,0,0,-1,727,1072,0,0
-490,-48,0,0,0,0,0,0,0,0,0,-1,734,1072,0,0
-483,-48,0,0,0,0,0,0,0,0,0,-1,741,1072,0,0
-476,-48,0,0,0,0,0,0,0,0,0,-1,748,1072,0,0
-469,-48,0,0,0,0,0,0,0,0,0,-1,755,1072,0,0
-462,-48,0,0,0,0,0,0,0,0,0,-1,762,1072,0,0
-455,-48,0,0,0,0,0,0,0,0,0,-1,769,1072,0,0
-448,-48,0,0,0,0,0,0,0,0,0,-1,776,1072,0,0
-441,-48,0,0,0,0,0,0,0,0,0,-1,783,1072,0,0
-434,-48,0,0,0,0,0,0,0,0,0,-1,790,1072,0,0
-427,-48,0,0,0,0,0,0,0,0,0,-1,797,1072,0,0
-420,-48,0,0,0,0,0,0,0,0,0,-1,804,1072,0,0
-413,-48,0,0,0,0,0,0,0,0,0,-1,811,1072,0,0
-406,-48,0,0,0,0,0,0,0,0,0,-1,818,1072,0,0
-399,-48,0,0,0,0,0,0,0,0,0,-1,825,1072,0,0
-392,-48,0,0,0,0,0,0,0,0,0,-1,832,1072,0,0
-385,-48,0,0,0,0,0,0,0,0,0,-1,839,1072,0,0
-378,-48,0,0,0,0,0,0,0,0,0,-1,846,1072,0,0
-371,-48,0,0,0,0,0,0,0,0,0,-1,853,1072,0,0
-364,-48,0,0,0,0,0,0,0,0,0,-1,860,1072,0,0
-357,-48,0,0,0,0,0,0,0,0,0,-1,867,1072,0,0
-350,-48,0,0,0,0,0,0,0,0,0,-1,874,1072,0,0
-343,-48,0,0,0,0,0,0,0,0,0,-1,881,1072,0,0
-336,-48,0,0,0,0,0,0,0,0,0,-1,888,1072,0,0
-329,-48,0,0,0,0,0,0,0,0,0,-1,895,1072,0,0
-322,-48,0,0,0,0,0,0,0,0,0,-1,902,1072,0,0
-315,-48,0,0,0,0,0,0,0,0,0,-1,909,1072,0,0
-308,-48,0,0,0,0,0,0,0,0,0,-1,916,1072,0,0
-301,-48,0,0,0,0,0,0,0,0,0,-1,923,1072,0,0
-294,-48,0,0,0,0,0,0,0,0,0,-1,930,1072,0,0
-287,-48,0,0,0,0,0,0,0,0,0,-1,937,1072,0,0
-280,-48,0,0,0,0,0,0,0,0,0,-1,944,1072,0,0
-273,-48,0,0,0,0,0,0,0,0,0,-1,951,1072,0,0
-266,-48,0,0,0,0,0,0,0,0,0,-1,958,1072,0,0
-259,-48,0,0,0,0,0,0,0,0,0,-1,965,1072,0,0
-252,-48,0,0,0,0,0,0,0,0,0,-1,972,1072,0,0
-245,-48,0,0,0,0,0,0,0,0,0,-1,979,1072,0,0
-238,-48,0,0,0,0,0,0,0,0,0,-1,986,1072,0,0
-231,-48,0,0,0,0,0,0,0,0,0,-1,993,1072,0,0
-224,-48,0,0,0,0,0,0,0,0,0,-1,1000,1072,0,0
-217,-48,0,0,0,0,0,0,0,0,0,-1,1007,1072,0,0
-210,-48,0,0,0,0,0,0,0,0,0,-1,1014,1072,0,0
-203,-48,0,0,0,0,0,0,0,0,0,-1,1021,1072,0,0
-196,-48,0,0,0,0,0,0,0,0,0,-1,1028,1072,0,0
-189,-48,0,0,0,0,0,0,0,0,0,-1,1035,1072,0,0
-182,-48,0,0,0,0,0,0,0,0,0,-1,1042,1072,0,0
-175,-48,0,0,0,0,0,0,0,0,0,-1,1049,1072,0,0
-168,-48,0,0,0,0,0,0,0,0,0,-1,1056,1072,0,0
-161,-48,0,0,0,0,0,0,0,0,0,-1,1063,1072,0,0
-154,-48,0,0,0,0,0,0,0,0,0,-1,1070,1072,0,0
-147,-48,0,0,0,0,0,0,0,0,0,-1,1077,1072,0,0
-140,-48,0,0,0,0,0,0,0,0,0,-1,1084,1072,0,0
-133,-48,0,0,0,0,0,0,0,0,0,-1,1091,1072,0,0
-126,-48,0,0,0,0,0,0,0,0,0,-1,1098,1072,0,0
-119,-48,0,0,0,0,0,0,0,0,0,-1,1105,1072,0,0
-112,-48,0,0,0,0,0,0,0,0,0,-1,1112,1072,0,0
-105,-48,0,0,0,0,0,0,0,0,0,-1,1119,1072,0,0
-98,-48,0,0,0,0,0,0,0,0,0,-1,1126,1072,0,0
-91,-48,0,0,0,0,0,0,0,0,0,-1,1133,1072,0,0
-84,-48,0,0,0,0,0,0,0,0,0,-1,1140,1072,0,0
-77,-48,0,0,0,0,0,0,0,0,0,-1,1147,1072,0,0
-70,-48,0,0,0,0,0,0,0,0,0,-1,1154,1072,0,0
-63,-48,0,0,0,0,0,0,0,0,0,-1,1161,1072,0,0
-56,-48,0,0,0,0,0,0,0,0,0,-1,1168,1072,0,0
-49,-48,0,0,0,0,0,0,0,0,0,-1,1175,1072,0,0
-42,-48,0,0,0,0,0,0,0,0,0,-1,1182,1072,0,0
-35,-48,0,0,0,0,0,0,0,0,0,-1,1189,1072,0,0
-28,-48,0,0,0,0,0,0,0,0,0,-1,1196,1072,0,0
-21,-48,0,0,0,0,0,0,0,0,0,-1,1203,1072,0,0
-14,-48,0,0,0,0,0,0,0,0,0,-1,1210,1072,0,0
-7,-48,0,0,0,0,0,0,0,0,0,-1,1217,1072,0,0
0,-48,0,0,0,0,0,0,0,0,0,-1,1224,1072,0,0
7,-48,0,0,0,0,0,0,0,0,0,-1,1231,1072,0,0
14,-48,0,0,0,0,0,0,0,0,0,-1,1238,1072,0,0
21,-48,0,0,0,0,0,0,0,0,0,-1,1245,1072,0,0
28,-48,0,0,0,0,0,0,0,0,0,-1,1252,1072,0,0
35,-48,0,0,0,0,0,0,0,0,0,-1,1259,1072,0,0
42,-48,0,0,0,0,0,0,0,0,0,-1,1266,1072,0,0
49,-48,0,0,0,0,0,0,0,0,0,-1,1273,1072,0,0
56,-48,0,0,0,0,0,0,0,0,0,-1,1280,1072,0,0
63,-48,0,0,0,0,0,0,0,0,0,-1,1287,1072,0,0
70,-48,0,0,0,0,0,0,0,0,0,-1,1294,1072,0,0
77,-48,0,0,0,0,0,0,0,0,0,-1,1301,1072,0,0
84,-48,0,0,0,0,0,0,0,0,0,-1,1308,1072,0,0
91,-48,0,0,0,0,0,0,0,0,0,-1,1315,1072,0,0
98,-48,0,0,0,0,0,0,0,0,0,-1,1322,1072,0,0
105,-48,0,0,0,0,0,0,0,0,0,-1,1329,1072,0,0
112,-48,0,0,0,0,0,0,0,0,0,-1,1336,1072,0,0
119,-48,0,0,0,0,0,0,0,0,0,-1,1343,1072,0,0
126,-48,0,0,0,0,0,0,0,0,0,-1,1350,1072,0,0
133,-48,0,0,0,0,0,0,0,0,0,-1,1357,1072,0,0
140,-48,0,0,0,0,0,0,0,0,0,-1,1364,1072,0,0
147,-48,0,0,0,0,0,0,0,0,0,-1,1371,1072,0,0
154,-48,0,0,0,0,0,0,0,0,0,-1,1378,1072,0,0
161,-48,0,0,0,0,0,0,0,0,0,-1,1385,1072,0,0
168,-48,0,0,0,0,0,0,0,0,0,-1,1392,1072,0,0
175,-48,0,0,0,0,0,0,0,0,0,-1,1399,1072,0,0
182,-48,0,0,0,0,0,0,0,0,0,-1,1406,1072,0,0
189,-48,0,0,0,0,0,0,0,0,0,-1,1413,1072,0,0
196,-48,0,0,0,0,0,0,0,0,0,-1,1420,1072,0,0
203,-48,0,0,0,0,0,0,0,0,0,-1,1427,1072,0,0
210,-48,0,0,0,0,0,0,0,0,0,-1,1434,1072,0,0
217,-48,0,0,0,0,0,0,0,0,0,-1,1441,1072,0,0
224,-48,0,0,0,0,0,0,0,0,0,-1,1448,1072,0,0
231,-48,0,0,0,0,0,0,0,0,0,-1,1455,1072,0,0
238,-48,0,0,0,0,0,0,0,0,0,-1,1462,1072,0,0
245,-48,0,0,0,0,0,0,0,0,0,-1,1469,1072,0,0
252,-48,0,0,0,0,0,0,0,0,0,-1,1476,1072,0,0
259,-48,0,0,0,0,0,0,0,0,0,-1,1483,1072,0,0
266,-48,0,0,0,0,0,0,0,0,0,-1,1490,1072,0,0
273,-48,0,0,0,0,0,0,0,0,0,-1,1497,1072,0,0
280,-48,0,0,0,0,0,0,0,0,0,-1,1504,1072,0,0
287,-48,0,0,0,0,0,0,0,0,0,-1,1511,1072,0,0
294,-48,0,0,0,0,0,0,0,0,0,-1,1518,1072,0,0
301,-48,0,0,0,0,0,0,0,0,0,-1,1525,1072,0,0
308,-48,0,0,0,0,0,0,0,0,0,-1,1532,1072,0,0
315,-48,0,0,0,0,0,0,0,0,0,-1,1539,1072,0,0
322,-48,0,0,0,0,0,0,0,0,0,-1,1546,1072,0,0
329,-48,0,0,0,0,0,0,0,0,0,-1,1553,1072,0,0
336,-48,0,0,0,0,0,0,0,0,0,-1,1560,1072,0,0
343,-48,0,0,0,0,0,0,0,0,0,-1,1567,1072,0,0
350,-48,0,0,0,0,0,0,0,0,0,-1,1574,1072,0,0
357,-48,0,0,0,0,0,0,0,0,0,-1,1581,1072,0,0
364,-48,0,0,0,0,0,0,0,0,0,-1,1588,1072,0,0
371,-48,0,0,0,0,0,0,0,0,0,-1,1595,1072,0,0
378,-48,0,0,0,0,0,0,0,0,0,-1,1602,1072,0,0
385,-48,0,0,0,0,0,0,0,0,0,-1,1609,1072,0,0
392,-48,0,0,0,0,0,0,0,0,0,-1,1616,1072,0,0
399,-48,0,0,0,0,0,0,0,0,0,-1,1623,1072,0,0
406,-48,0,0,0,0,0,0,0,0,0,-1,1630,1072,0,0
413,-48,0,0,0,0,0,0,0,0,0,-1,1637,1072,0,0
420,-48,0,0,0,0,0,0,0,0,0,-1,1644,1072,0,0
427,-48,0,0,0,0,0,0,0,0,0,-1,1651,1072,0,0
434,-48,0,0,0,0,0,0,0,0,0,-1,1658,1072,0,0
441,-48,0,0,0,0,0,0,0,0,0,-1,1665,1072,0,0
448,-48,0,0,0,0,0,0,0,0,0,-1,1672,1072,0,0
455,-48,0,0,0,0,0,0,0,0,0,-1,1679,1072,0,0
462,-48,0,0,0,0,0,0,0,0,0,-1,1686,1072,0,0
469,-48,0,0,0,0,0,0,0,0,0,-1,1693,1072,0,0
476,-48,0,0,0,0,0,0,0,0,0,-1,1700,1072,0,0
483,-48,0,0,0,0,0,0,0,0,0,-1,1707,1072,0,0
490,-48,0,0,0,0,0,0,0,0,0,-1,1714,1072,0,0
497,-48,0,0,0,0,0,0,0,0,0,-1,1721,1072,0,0
504,-48,0,0,0,0,0,0,0,0,0,-1,1728,1072,0,0
511,-48,0,0,0,0,0,0,0,0,0,-1,1735,1072,0,0
518,-48,0,0,0,0,0,0,0,0,0,-1,1742,1072,0,0
525,-48,0,0,0,0,0,0,0,0,0,-1,1749,1072,0,0
532,-48,0,0,0,0,0,0,0,0,0,-1,1756,1072,0,0
539,-48,0,0,0,0,0,0,0,0,0,-1,1763,1072,0,0
546,-48,0,0,0,0,0,0,0,0,0,-1,1770,1072,0,0
553,-48,0,0,0,0,0,0,0,0,0,-1,1777,1072,0,0
560,-48,0,0,0,0,0,0,0,0,0,-1,1784,1072,0,0
567,-48,0,0,0,0,0,0,0,0,0,-1,1791,1072,0,0
574,-48,0,0,0,0,0,0,0,0,0,-1,1798,1072,0,0
581,-48,0,0,0,0,0,0,0,0,0,-1,1805,1072,0,0
588,-48,0,0,0,0,0,0,0,0,0,-1,1812,1072,0,0
595,-48,0,0,0,0,0,0,0,0,0,-1,1819,1072,0,0
602,-48,0,0,0,0,0,0,0,0,0,-1,1826,1072,0,0
609,-48,0,0,0,0,0,0,0,0,0,-1,1833,1072,0,0
616,-48,0,0,0,0,0,0,0,0,0,-1,1840,1072,0,0
623,-48,0,0,0,0,0,0,0,0,0,-1,1847,1072,0,0
630,-48,0,0,0,0,0,0,0,0,0,-1,1854,1072,0,0
637,-48,0,0,0,0,0,0,0,0,0,-1,1861,1072,0,0
644,-48,0,0,0,0,0,0,0,0,0,-1,1868,1072,0,0
651,-48,14.1365,1.88269,-0.00682487,-0.000648425,0.00472432,0.00190749,-0.00938079,1.07488,0.00697715,0.0301748,1875,1072,14.1364,-1.88275
658,-48,14.0277,1.94702,-0.00437423,-0.000513154,0.00334278,0.00141651,-0.00630389,1.04726,0.00474576,0.0349202,1882,1072,14.0277,-1.94698
665,-48,13.9703,1.96997,-0.00278384,-0.000381663,0.00233843,0.0010461,-0.0042116,1.02264,0.0032137,0.0402465,1889,1072,13.9704,-1.96994
672,-48,14.0406,1.86841,-0.00186912,-0.000412394,0.00200255,0.000990136,-0.00327165,0.95982,0.00257539,0.0418201,1896,1072,14.0406,-1.86845
679,-48,14.0989,1.67334,-0.00199672,-0.000587736,0.00242936,0.00123722,-0.00382168,0.926523,0.00304516,0.0410138,1903,1072,14.0989,-1.67339
686,-48,14.1747,1.61621,-0.00253217,-0.000793731,0.00307729,0.00153474,-0.00486064,0.923044,0.00385522,0.0381575,1910,1072,14.1747,-1.61619
693,-48,14.1909,1.79614,-0.00319105,-0.000991819,0.00378773,0.00185268,-0.00603555,0.92667,0.00476292,0.0378306,1917,1072,14.1909,-1.79615
700,-48,14.1407,1.91699,-0.00382737,-0.0011223,0.00446866,0.00219403,-0.0071437,0.932351,0.00563795,0.0337696,1924,1072,14.1408,-1.91702
707,-48,14.0756,1.84375,-0.00423852,-0.00122051,0.00492893,0.00242524,-0.00788426,0.933944,0.00622413,0.0224269,1931,1072,14.0755,-1.8437
714,-48,14.0948,1.93298,-0.004575,-0.00129138,0.00519188,0.00251209,-0.00837847,0.938537,0.00658473,0.0182237,1938,1072,14.0948,-1.93303
721,-48,14.0474,2.32007,-0.00486681,-0.00128827,0.00526702,0.00248511,-0.00864019,0.949138,0.00674291,0.0281087,1945,1072,14.0474,-2.32006
728,-48,13.7687,2.68445,-0.00505417,-0.00112752,0.00519227,0.00246022,-0.00864191,0.966152,0.00673288,0.0266051,1952,1072,13.7687,-2.68445
735,-48,13.8168,2.64001,-0.00480448,-0.000830453,0.00489072,0.00246149,-0.00809642,0.978354,0.00637844,0.0158915,1959,1072,13.8167,-2.64007
742,-48,13.7916,2.61682,-0.00353144,-0.000390168,0.00438252,0.00269467,-0.00661627,0.957461,0.00553233,0.0125266,1966,1072,13.7916,-2.61679
749,-48,13.8073,2.58948,-0.00147349,0.000578098,0.00353032,0.00322863,-0.00412403,0.926789,0.00425554,0.0126626,1973,1072,13.8072,-2.58946
756,-48,13.8108,2.58008,0.000744586,0.00213913,0.00232387,0.00386808,-0.000984361,0.931149,0.00296188,0.0127323,1980,1072,13.8108,-2.58004
763,-48,13.7872,2.57068,0.00332443,0.00385993,0.00125017,0.00487071,0.00231366,0.890889,0.00281327,0.0129711,1987,1072,13.7873,-2.57068
770,-48,13.7908,2.55554,0.00656009,0.00616141,4.35167e-05,0.00656478,0.00615671,0.107465,0.00424704,0.0131879,1994,1072,13.7908,-2.55551
777,-48,13.7727,2.547,0.0104093,0.0090989,-0.00103163,0.0109762,0.008532,-0.502479,0.00665409,0.0112667,2001,1072,13.7727,-2.54697
784,-48,13.7527,2.52124,0.014578,0.0128693,-0.00175357,0.0156742,0.011773,-0.55872,0.00942225,0.0232183,2008,1072,13.7526,-2.52123
791,-48,14.2297,2.04102,0.0193525,0.0177932,-0.00248109,0.0211736,0.0159722,-0.633163,0.0127409,0.0388731,2015,1072,14.2297,-2.04103
798,-48,14.677,1.5918,0.0250543,0.0242293,-0.00346333,0.0281296,0.021154,-0.726124,0.0169143,0.0443234,2022,1072,14.6771,-1.59184
805,-48,15.027,0.984375,0.0315934,0.0326145,-0.00474653,0.0368778,0.02733,-0.838972,0.0221011,0.0463571,2029,1072,15.027,-0.984372
812,-48,15.4199,0.533325,0,0,0,0,0,0,0,-1,2036,1072,15.42,-0.533305
-700,-55,-8.77051,0.539795,0.0571702,0.0362208,0.0336161,0.0819057,0.0114853,0.634367,0.0512065,0.0451759,524,1079,-8.77053,-0.539814
-693,-55,-8.93323,-0.231689,0.0476855,0.0322207,0.0305094,0.0714272,0.00847911,0.66129,0.0450585,0.0453315,531,1079,-8.9332,0.231629
-686,-55,-9.03186,-0.520752,0.0375619,0.027419,0.0262431,0.0592191,0.00576184,0.68995,0.0377058,0.0447019,538,1079,-9.03188,0.520811
-679,-55,-8.73944,-0.777954,0,0,0,0,0,0,0,-1,545,1079,-8.73947,0.777922
-672,-55,-8.16913,-0.115601,0,0,0,0,0,0,0,-1,552,1079,-8.16911,0.11554
-665,-55,-8.12921,0.418213,0.0131439,0.0137972,0.0133275,0.026802,0.000139094,0.797652,0.0178218,0.046341,559,1079,-8.12922,-0.418225
-658,-55,-8.1994,0.36853,0.00794957,0.0102985,0.00989858,0.0190921,-0.000843958,0.844448,0.0130185,0.0471163,566,1079,-8.19942,-0.368525
-651,-55,-8.19769,0.390503,0.00423298,0.00742711,0.00708782,0.0130956,-0.00143548,0.89621,0.00924608,0.0341437,573,1079,-8.19767,-0.390554
-644,-55,-8.19965,0.521973,0.00191361,0.00545798,0.00489581,0.00889248,-0.00152089,0.959051,0.00649492,0.014189,580,1079,-8.19964,-0.522026
-637,-55,-8.19055,0.548096,0.000414244,0.00310672,0.00234087,0.00446086,-0.000939897,1.04635,0.00333169,0.0118859,587,1079,-8.19054,-0.548102
-630,-55,-8.1792,0.594971,-0.00242924,0.00119697,0.000313614,0.00122389,-0.00245616,1.48516,0.00216402,0.0140679,594,1079,-8.17922,-0.594969
-623,-55,-8.19861,0.634766,-0.0029446,0.000486429,-0.00119341,0.000860703,-0.00331888,-1.26689,0.0025484,0.0135573,601,1079,-8.19861,-0.634802
-616,-55,-8.1922,0.646973,-0.00215185,-0.000244976,-0.00200657,0.00102315,-0.00341998,-1.00719,0.00268678,0.0132012,608,1079,-8.19218,-0.646992
-609,-55,-8.18347,0.680176,-0.00148259,-0.000661832,-0.00278174,0.00173964,-0.00388406,-0.858633,0.0033246,0.0136858,615,1079,-8.18349,-0.680199
-602,-55,-8.19611,0.724487,-0.00105518,-0.000961431,-0.0033137,0.00230572,-0.00432233,-0.792471,0.0038853,0.012782,622,1079,-8.19608,-0.724527
-595,-55,-8.18152,0.768066,-0.00101395,-0.00143986,-0.00380653,0.00258557,-0.00503938,-0.757455,0.00447761,0.014199,629,1079,-8.1815,-0.768119
-588,-55,-8.19214,0.479248,-0.00113995,-0.00180039,-0.00410391,0.00264701,-0.00558734,-0.745252,0.00485408,0.0255189,636,1079,-8.19216,-0.479243
-581,-55,-8.25446,0.268921,-0.00127954,-0.00204551,-0.0041906,0.00254554,-0.00587059,-0.739829,0.00498386,0.0385101,643,1079,-8.25445,-0.268872
-574,-55,-8.24097,0.386597,-0.00139717,-0.00237299,-0.0042156,0.00235866,-0.00612883,-0.727785,0.00505884,0.0386255,650,1079,-8.24096,-0.386552
-567,-55,-8.20856,0.473022,-0.00155946,-0.00265694,-0.00404964,0.00197845,-0.00619486,-0.718057,0.00492372,0.0408784,657,1079,-8.20858,-0.472978
-560,-55,-8.38135,0.52124,-0.00178305,-0.0029087,-0.00371568,0.00141219,-0.00610394,-0.710233,0.00461265,0.0445728,664,1079,-8.38134,-0.521199
-553,-55,-8.28943,0.0793457,-0.00210656,-0.00310778,-0.00323659,0.000667906,-0.00588224,-0.708671,0.00416203,0.0444426,671,1079,-8.28942,-0.079328
-546,-55,-8.3114,0.071167,-0.0025645,-0.00323155,-0.00260164,-0.00027509,-0.00552096,-0.721647,0.00359245,0.040712,678,1079,-8.31141,-0.0712207
-539,-55,-8.36169,0.0505371,-0.00321188,-0.00325789,-0.00206276,-0.001172,-0.00529777,-0.779822,0.00321323,0.0375634,685,1079,-8.36167,-0.0505112
-532,-55,-8.34631,0.161743,-0.00444649,-0.00328385,-0.00245972,-0.00133769,-0.00639265,-0.901436,0.00389325,0.0375824,692,1079,-8.3463,-0.161723
-525,-55,0,0,0,0,0,0,0,0,0,-1,699,1079,0,0
-518,-55,0,0,0,0,0,0,0,0,0,-1,706,1079,0,0
-511,-55,0,0,0,0,0,0,0,0,0,-1,713,1079,0,0
-504,-55,0,0,0,0,0,0,0,0,0,-1,720,1079,0,0
-497,-55,0,0,0,0,0,0,0,0,0,-1,727,1079,0,0
-490,-55,0,0,0,0,0,0,0,0,0,-1,734,1079,0,0
-483,-55,0,0,0,0,0,0,0,0,0,-1,741,1079,0,0
-476,-55,0,0,0,0,0,0,0,0,0,-1,748,1079,0,0
-469,-55,0,0,0,0,0,0,0,0,0,-1,755,1079,0,0
-462,-55,0,0,0,0,0,0,0,0,0,-1,762,1079,0,0
-455,-55,0,0,0,0,0,0,0,0,0,-1,769,1079,0,0
-448,-55,0,0,0,0,0,0,0,0,0,-1,776,1079,0,0
-441,-55,0,0,0,0,0,0,0,0,0,-1,783,1079,0,0
-434,-55,0,0,0,0,0,0,0,0,0,-1,790,1079,0,0
-427,-55,0,0,0,0,0,0,0,0,0,-1,797,1079,0,0
-420,-55,0,0,0,0,0,0,0,0,0,-1,804,1079,0,0
-413,-55,0,0,0,0,0,0,0,0,0,-1,811,1079,0,0
-406,-55,0,0,0,0,0,0,0,0,0,-1,818,1079,0,0
-399,-55,0,0,0,0,0,0,0,0,0,-1,825,1079,0,0
-392,-55,0,0,0,0,0,0,0,0,0,-1,832,1079,0,0
-385,-55,0,0,0,0,0,0,0,0,0,-1,839,1079,0,0
-378,-55,0,0,0,0,0,0,0,0,0,-1,846,1079,0,0
-371,-55,0,0,0,0,0,0,0,0,0,-1,853,1079,0,0
-364,-55,0,0,0,0,0,0,0,0,0,-1,860,1079,0,0
-357,-55,0,0,0,0,0,0,0,0,0,-1,867,1079,0,0
-350,-55,0,0,0,0,0,0,0,0,0,-1,874,1079,0,0
-343,-55,0,0,0,0,0,0,0,0,0,-1,881,1079,0,0
-336,-55,0,0,0,0,0,0,0,0,0,-1,888,1079,0,0
-329,-55,0,0,0,0,0,0,0,0,0,-1,895,1079,0,0
-322,-55,0,0,0,0,0,0,0,0,0,-1,902,1079,0,0
-315,-55,0,0,0,0,0,0,0,0,0,-1,909,1079,0,0
-308,-55,0,0,0,0,0,0,0,0,0,-1,916,1079,0,0
-301,-55,0,0,0,0,0,0,0,0,0,-1,923,1079,0,0
-294,-55,0,0,0,0,0,0,0,0,0,-1,930,1079,0,0
-287,-55,0,0,0,0,0,0,0,0,0,-1,937,1079,0,0
-280,-55,0,0,0,0,0,0,0,0,0,-1,944,1079,0,0
-273,-55,0,0,0,0,0,0,0,0,0,-1,951,1079,0,0
-266,-55,0,0,0,0,0,0,0,0,0,-1,958,1079,0,0
-259,-55,0,0,0,0,0,0,0,0,0,-1,965,1079,0,0
-252,-55,0,0,0,0,0,0,0,0,0,-1,972,1079,0,0
-245,-55,0,0,0,0,0,0,0,0,0,-1,979,1079,0,0
-238,-55,0,0,0,0,0,0,0,0,0,-1,986,1079,0,0
-231,-55,0,0,0,0,0,0,0,0,0,-1,993,1079,0,0
-224,-55,0,0,0,0,0,0,0,0,0,-1,1000,1079,0,0
-217,-55,0,0,0,0,0,0,0,0,0,-1,1007,1079,0,0
-210,-55,0,0,0,0,0,0,0,0,0,-1,1014,1079,0,0
-203,-55,0,0,0,0,0,0,0,0,0,-1,1021,1079,0,0
-196,-55,0,0,0,0,0,0,0,0,0,-1,1028,1079,0,0
-189,-55,0,0,0,0,0,0,0,0,0,-1,1035,1079,0,0
-182,-55,0,0,0,0,0,0,0,0,0,-1,1042,1079,0,0
-175,-55,0,0,0,0,0,0,0,0,0,-1,1049,1079,0,0
-168,-55,0,0,0,0,0,0,0,0,0,-1,1056,1079,0,0
-161,-55,0,0,0,0,0,0,0,0,0,-1,1063,1079,0,0
-154,-55,0,0,0,0,0,0,0,0,0,-1,1070,1079,0,0
-147,-55,0,0,0,0,0,0,0,0,0,-1,1077,1079,0,0
-140,-55,0,0,0,0,0,0,0,0,0,-1,1084,1079,0,0
-133,-55,0,0,0,0,0,0,0,0,0,-1,1091,1079,0,0
-126,-55,0,0,0,0,0,0,0,0,0,-1,1098,1079,0,0
-119,-55,0,0,0,0,0,0,0,0,0,-1,1105,1079,0,0
-112,-55,0,0,0,0,0,0,0,0,0,-1,1112,1079,0,0
-105,-55,0,0,0,0,0,0,0,0,0,-1,1119,1079,0,0
-98,-55,0,0,0,0,0,0,0,0,0,-1,1126,1079,0,0
-91,-55,0,0,0,0,0,0,0,0,0,-1,1133,1079,0,0
-84,-55,0,0,0,0,0,0,0,0,0,-1,1140,1079,0,0
-77,-55,0,0,0,0,0,0,0,0,0,-1,1147,1079,0,0
-70,-55,0,0,0,0,0,0,0,0,0,-1,1154,1079,0,0
-63,-55,0,0,0,0,0,0,0,0,0,-1,1161,1079,0,0
-56,-55,0,0,0,0,0,0,0,0,0,-1,1168,1079,0,0
-49,-55,0,0,0,0,0,0,0,0,0,-1,1175,1079,0,0
-42,-55,0,0,0,0,0,0,0,0,0,-1,1182,1079,0,0
-35,-55,0,0,0,0,0,0,0,0,0,-1,1189,1079,0,0
-28,-55,0,0,0,0,0,0,0,0,0,-1,1196,1079,0,0
-21,-55,0,0,0,0,0,0,0,0,0,-1,1203,1079,0,0
-14,-55,0,0,0,0,0,0,0,0,0,-1,1210,1079,0,0
-7,-55,0,0,0,0,0,0,0,0,0,-1,1217,1079,0,0
0,-55,0,0,0,0,0,0,0,0,0,-1,1224,1079,0,0
7,-55,0,0,0,0,0,0,0,0,0,-1,1231,1079,0,0
14,-55,0,0,0,0,0,0,0,0,0,-1,1238,1079,0,0
21,-55,0,0,0,0,0,0,0,0,0,-1,1245,1079,0,0
28,-55,0,0,0,0,0,0,0,0,0,-1,1252,1079,0,0
35,-55,0,0,0,0,0,0,0,0,0,-1,1259,1079,0,0
42,-55,0,0,0,0,0,0,0,0,0,-1,1266,1079,0,0
49,-55,0,0,0,0,0,0,0,0,0,-1,1273,1079,0,0
56,-55,0,0,0,0,0,0,0,0,0,-1,1280,1079,0,0
63,-55,0,0,0,0,0,0,0,0,0,-1,1287,1079,0,0
70,-55,0,0,0,0,0,0,0,0,0,-1,1294,1079,0,0
77,-55,0,0,0,0,0,0,0,0,0,-1,1301,1079,0,0
84,-55,0,0,0,0,0,0,0,0,0,-1,1308,1079,0,0
91,-55,0,0,0,0,0,0,0,0,0,-1,1315,1079,0,0
98,-55,0,0,0,0,0,0,0,0,0,-1,1322,1079,0,0
105,-55,0,0,0,0,0,0,0,0,0,-1,1329,1079,0,0
112,-55,0,0,0,0,0,0,0,0,0,-1,1336,1079,0,0
119,-55,0,0,0,0,0,0,0,0,0,-1,1343,1079,0,0
126,-55,0,0,0,0,0,0,0,0,0,-1,1350,1079,0,0
133,-55,0,0,0,0,0,0,0,0,0,-1,1357,1079,0,0
140,-55,0,0,0,0,0,0,0,0,0,-1,1364,1079,0,0
147,-55,0,0,0,0,0,0,0,0,0,-1,1371,1079,0,0
154,-55,0,0,0,0,0,0,0,0,0,-1,1378,1079,0,0
161,-55,0,0,0,0,0,0,0,0,0,-1,1385,1079,0,0
168,-55,0,0,0,0,0,0,0,0,0,-1,1392,1079,0,0
175,-55,0,0,0,0,0,0,0,0,0,-1,1399,1079,0,0
182,-55,0,0,0,0,0,0,0,0,0,-1,1406,1079,0,0
189,-55,0,0,0,0,0,0,0,0,0,-1,1413,1079,0,0
196,-55,0,0,0,0,0,0,0,0,0,-1,1420,1079,0,0
203,-55,0,0,0,0,0,0,0,0,0,-1,1427,1079,0,0
210,-55,0,0,0,0,0,0,0,0,0,-1,1434,1079,0,0
217,-55,0,0,0,0,0,0,0,0,0,-1,1441,1079,0,0
224,-55,0,0,0,0,0,0,0,0,0,-1,1448,1079,0,0
231,-55,0,0,0,0,0,0,0,0,0,-1,1455,1079,0,0
238,-55,0,0,0,0,0,0,0,0,0,-1,1462,1079,0,0
245,-55,0,0,0,0,0,0,0,0,0,-1,1469,1079,0,0
252,-55,0,0,0,0,0,0,0,0,0,-1,1476,1079,0,0
259,-55,0,0,0,0,0,0,0,0,0,-1,1483,1079,0,0
266,-55,0,0,0,0,0,0,0,0,0,-1,1490,1079,0,0
273,-55,0,0,0,0,0,0,0,0,0,-1,1497,1079,0,0
280,-55,0,0,0,0,0,0,0,0,0,-1,1504,1079,0,0
287,-55,0,0,0,0,0,0,0,0,0,-1,1511,1079,0,0
294,-55,0,0,0,0,0,0,0,0,0,-1,1518,1079,0,0
301,-55,0,0,0,0,0,0,0,0,0,-1,1525,1079,0,0
308,-55,0,0,0,0,0,0,0,0,0,-1,1532,1079,0,0
315,-55,0,0,0,0,0,0,0,0,0,-1,1539,1079,0,0
322,-55,0,0,0,0,0,0,0,0,0,-1,1546,1079,0,0
329,-55,0,0,0,0,0,0,0,0,0,-1,1553,1079,0,0
336,-55,0,0,0,0,0,0,0,0,0,-1,1560,1079,0,0
343,-55,0,0,0,0,0,0,0,0,0,-1,1567,1079,0,0
350,-55,0,0,0,0,0,0,0,0,0,-1,1574,1079,0,0
357,-55,0,0,0,0,0,0,0,0,0,-1,1581,1079,0,0
364,-55,0,0,0,0,0,0,0,0,0,-1,1588,1079,0,0
371,-55,0,0,0,0,0,0,0,0,0,-1,1595,1079,0,0
378,-55,0,0,0,0,0,0,0,0,0,-1,1602,1079,0,0
385,-55,0,0,0,0,0,0,0,0,0,-1,1609,1079,0,0
392,-55,0,0,0,0,0,0,0,0,0,-1,1616,1079,0,0
399,-55,0,0,0,0,0,0,0,0,0,-1,1623,1079,0,0
406,-55,0,0,0,0,0,0,0,0,0,-1,1630,1079,0,0
413,-55,0,0,0,0,0,0,0,0,0,-1,1637,1079,0,0
420,-55,0,0,0,0,0,0,0,0,0,-1,1644,1079,0,0
427,-55,0,0,0,0,0,0,0,0,0,-1,1651,1079,0,0
434,-55,0,0,0,0,0,0,0,0,0,-1,1658,1079,0,0
441,-55,0,0,0,0,0,0,0,0,0,-1,1665,1079,0,0
448,-55,0,0,0,0,0,0,0,0,0,-1,1672,1079,0,0
455,-55,0,0,0,0,0,0,0,0,0,-1,1679,1079,0,0
462,-55,0,0,0,0,0,0,0,0,0,-1,1686,1079,0,0
469,-55,0,0,0,0,0,0,0,0,0,-1,1693,1079,0,0
476,-55,0,0,0,0,0,0,0,0,0,-1,1700,1079,0,0
483,-55,0,0,0,0,0,0,0,0,0,-1,1707,1079,0,0
490,-55,0,0,0,0,0,0,0,0,0,-1,1714,1079,0,0
497,-55,0,0,0,0,0,0,0,0,0,-1,1721,1079,0,0
504,-55,0,0,0,0,0,0,0,0,0,-1,1728,1079,0,0
511,-55,0,0,0,0,0,0,0,0,0,-1,1735,1079,0,0
518,-55,0,0,0,0,0,0,0,0,0,-1,1742,1079,0,0
525,-55,0,0,0,0,0,0,0,0,0,-1,1749,1079,0,0
532,-55,0,0,0,0,0,0,0,0,0,-1,1756,1079,0,0
539,-55,0,0,0,0,0,0,0,0,0,-1,1763,1079,0,0
546,-55,0,0,0,0,0,0,0,0,0,-1,1770,1079,0,0
553,-55,0,0,0,0,0,0,0,0,0,-1,1777,1079,0,0
560,-55,0,0,0,0,0,0,0,0,0,-1,1784,1079,0,0
567,-55,0,0,0,0,0,0,0,0,0,-1,1791,1079,0,0
574,-55,0,0,0,0,0,0,0,0,0,-1,1798,1079,0,0
581,-55,0,0,0,0,0,0,0,0,0,-1,1805,1079,0,0
588,-55,0,0,0,0,0,0,0,0,0,-1,1812,1079,0,0
595,-55,0,0,0,0,0,0,0,0,0,-1,1819,1079,0,0
602,-55,0,0,0,0,0,0,0,0,0,-1,1826,1079,0,0
609,-55,0,0,0,0,0,0,0,0,0,-1,1833,1079,0,0
616,-55,0,0,0,0,0,0,0,0,0,-1,1840,1079,0,0
623,-55,0,0,0,0,0,0,0,0,0,-1,1847,1079,0,0
630,-55,0,0,0,0,0,0,0,0,0,-1,1854,1079,0,0
637,-55,0,0,0,0,0,0,0,0,0,-1,1861,1079,0,0
644,-55,0,0,0,0,0,0,0,0,0,-1,1868,1079,0,0
651,-55,14.2623,1.78857,-0.00699144,-0.00145159,0.00444438,0.00101537,-0.0094584,1.06407,0.00666987,0.0333214,1875,1079,14.2623,-1.78853
658,-55,14.101,1.96313,-0.00435986,-0.00106278,0.00314585,0.000840315,-0.00626295,1.02674,0.00448174,0.0334111,1882,1079,14.101,-1.96313
665,-55,13.9587,1.96387,-0.00266715,-0.00076445,0.00221679,0.000696505,-0.00412811,0.988092,0.00301121,0.0388504,1889,1079,13.9587,-1.96383
672,-55,14.0818,2.05286,-0.00176924,-0.00070057,0.00198062,0.000816521,-0.00328633,0.917153,0.00250777,0.0399969,1896,1079,14.0818,-2.05284
679,-55,14.1198,1.97241,-0.00194717,-0.000821862,0.00246155,0.00114052,-0.00390955,0.897757,0.00305827,0.0366146,1903,1079,14.1197,-1.97246
686,-55,14.1486,1.7865,-0.00253084,-0.000994181,0.00313016,0.00146056,-0.00498559,0.905749,0.00390277,0.0367656,1910,1079,14.1485,-1.7865
693,-55,14.193,1.88831,-0.00324294,-0.00116953,0.00384934,0.00178027,-0.00619273,0.916937,0.00483248,0.0383308,1917,1079,14.193,-1.88832
700,-55,14.1161,1.91431,-0.00390853,-0.00126702,0.00452255,0.00212368,-0.00729924,0.927466,0.00570731,0.0340361,1924,1079,14.1161,-1.91428
707,-55,14.0767,1.87744,-0.00434225,-0.0013396,0.00497869,0.0023592,-0.00804105,0.931837,0.0062962,0.0217957,1931,1079,14.0767,-1.87743
714,-55,14.0914,1.96436,-0.00470587,-0.00139237,0.00523551,0.00244227,-0.0085405,0.938635,0.00665877,0.021257,1938,1079,14.0915,-1.9644
721,-55,14.0632,2.36926,-0.00500285,-0.00138329,0.00528469,0.00239291,-0.00877905,0.950368,0.00679233,0.0275694,1945,1079,14.0632,-2.36928
728,-55,13.698,2.66528,-0.00517011,-0.00122234,0.00517974,0.00234687,-0.00873932,0.967443,0.00674598,0.0235991,1952,1079,13.698,-2.66528
735,-55,13.7687,2.63245,-0.00490522,-0.000935509,0.00488486,0.00235235,-0.00819308,0.978373,0.00639211,0.0160081,1959,1079,13.7686,-2.6325
742,-55,13.781,2.61914,-0.00357903,-0.000526489,0.00440726,0.0026113,-0.00671682,0.952089,0.00555675,0.0152524,1966,1079,13.781,-2.61917
749,-55,13.7909,2.5885,-0.00145147,0.000464568,0.00362081,0.00325196,-0.00423886,0.914728,0.00433732,0.0121137,1973,1079,13.7909,-2.58856
756,-55,13.7733,2.57751,0.00084835,0.00200104,0.00250565,0.00399578,-0.00114639,0.898441,0.00311706,0.0121904,1980,1079,13.7733,-2.57745
763,-55,13.7645,2.57776,0.00355151,0.0037502,0.0015178,0.0051719,0.0021298,0.818079,0.00300144,0.0151278,1987,1079,13.7646,-2.57771
770,-55,13.7891,2.54224,0.00692318,0.00606957,0.000437894,0.00710786,0.00588489,0.399111,0.0043881,0.014094,1994,1079,13.7891,-2.54228
777,-55,13.7848,2.52795,0.0108787,0.00902027,-0.000451328,0.0109825,0.00891646,-0.226075,0.00673939,0.0122414,2001,1079,13.7848,-2.52795
784,-55,13.757,2.50793,0.0151504,0.0128271,-0.000948789,0.0154886,0.0124889,-0.342437,0.00948529,0.029132,2008,1079,13.757,-2.50795
791,-55,13.693,2.43188,0.0200359,0.0178339,-0.00140732,0.0207217,0.0171481,-0.453462,0.0127908,0.0428309,2015,1079,13.693,-2.43184
798,-55,14.5698,1.29077,0.0258324,0.024415,-0.00205704,0.0272994,0.022948,-0.619503,0.0169365,0.0454566,2022,1079,14.5698,-1.29078
805,-55,14.9893,0.816895,0.0324413,0.0330203,-0.00294707,0.0356921,0.0297696,-0.83436,0.0220868,0.0468156,2029,1079,14.9892,-0.81693
812,-55,15.5046,0.381226,0,0,0,0,0,0,0,-1,2036,1079,15.5045,-0.381256
-700,-62,-8.76727,-0.0861816,0,0,0,0,0,0,0,-1,524,1086,-8.76728,0.0861954
-693,-62,-9.51569,-0.791016,0,0,0,0,0,0,0,-1,531,1086,-9.51567,0.790999
-686,-62,-9.35645,-0.814087,0,0,0,0,0,0,0,-1,538,1086,-9.35644,0.814123
-679,-62,-9.1972,-0.83728,0,0,0,0,0,0,0,-1,545,1086,-9.1972,0.837247
-672,-62,-7.01141,0.589233,0.0230118,0.0193104,0.0198915,0.0411385,0.00118368,0.739013,0.0270398,0.0443494,552,1086,-7.01139,-0.589226
-665,-62,-7.68134,0.452759,0.0152778,0.0144108,0.0153597,0.0302101,-0.000521474,0.771289,0.0203161,0.0426958,559,1086,-7.68131,-0.452741
-658,-62,-8.20062,0.435425,0.00929216,0.0104247,0.0114662,0.0213386,-0.00162169,0.810072,0.0147959,0.0465176,566,1086,-8.20062,-0.435389
-651,-62,-8.18646,0.439087,0.0049971,0.00729037,0.00827379,0.0144966,-0.00220913,0.854253,0.0104787,0.0349388,573,1086,-8.18646,-0.439092
-644,-62,-8.17181,0.504395,0.00229432,0.00512627,0.00579566,0.00967642,-0.00225583,0.90521,0.00731969,0.0114865,580,1086,-8.17184,-0.504415
-637,-62,-8.17084,0.55481,0.000623231,0.00273412,0.00299194,0.00485131,-0.00149397,0.954965,0.00383057,0.0102229,587,1086,-8.17083,-0.554791
-630,-62,-8.1792,0.603516,-0.00269458,0.000773836,0.000664412,0.000896755,-0.0028175,1.38786,0.00223796,0.0114195,594,1086,-8.17922,-0.603462
-623,-62,-8.185,0.638916,-0.00340333,0.000132673,-0.00111833,0.000456679,-0.00372734,-1.28879,0.00265027,0.012459,601,1086,-8.18503,-0.638873
-616,-62,-8.16547,0.644775,-0.00251673,-0.00041252,-0.00195592,0.000756306,-0.00368556,-1.03215,0.00274411,0.0128059,608,1086,-8.16548,-0.644719
-609,-62,-8.14819,0.688354,-0.00177541,-0.00055036,-0.0027858,0.00168946,-0.00401523,-0.893613,0.00338361,0.0128902,615,1086,-8.14821,-0.688391
-602,-62,-8.15283,0.744873,-0.00131755,-0.000777045,-0.00341249,0.00237588,-0.00447047,-0.824913,0.00401393,0.0131233,622,1086,-8.15281,-0.744923
-595,-62,-8.1452,0.772949,-0.00131566,-0.00115706,-0.00397216,0.00273659,-0.00520931,-0.795379,0.00466103,0.0156246,629,1086,-8.14518,-0.772923
-588,-62,-8.18304,0.628906,-0.00146538,-0.00145693,-0.00432888,0.00286773,-0.00579004,-0.785886,0.0050926,0.0228477,636,1086,-8.18302,-0.628849
-581,-62,-8.24353,0.435547,-0.00155613,-0.00166294,-0.00447873,0.00286951,-0.00608858,-0.779436,0.00528209,0.0323736,643,1086,-8.24351,-0.43556
-574,-62,-8.2442,0.399902,-0.00162711,-0.00196708,-0.00455904,0.00276511,-0.0063593,-0.766764,0.0054025,0.0357012,650,1086,-8.24421,-0.399879
-567,-62,-8.21619,0.480225,-0.00170748,-0.00224618,-0.00445878,0.00249008,-0.00644374,-0.755231,0.00532365,0.0387789,657,1086,-8.21621,-0.480165
-560,-62,-8.10577,0.578735,-0.00178441,-0.002562,-0.00420918,0.0020539,-0.0064003,-0.739344,0.00509151,0.0395316,664,1086,-8.10576,-0.578782
-553,-62,-8.17303,0.174438,-0.001875,-0.0029304,-0.00384169,0.00147506,-0.00628047,-0.717145,0.00475554,0.0373278,671,1086,-8.17301,-0.174481
-546,-62,-8.25177,0.086792,-0.00197252,-0.00337119,-0.00335606,0.000756302,-0.0061,-0.682678,0.00434079,0.0343472,678,1086,-8.25179,-0.0867637
-539,-62,-8.33759,0.104492,-0.0020849,-0.0039148,-0.00298628,0.000123453,-0.00612314,-0.636746,0.00412386,0.0372371,685,1086,-8.3376,-0.104478
-532,-62,-8.34332,0.225342,-0.00263525,-0.00478507,-0.00362958,7.52416e-05,-0.00749556,-0.641437,0.00502231,0.0381778,692,1086,-8.34334,-0.225312
-525,-62,0,0,0,0,0,0,0,0,0,-1,699,1086,0,0
-518,-62,0,0,0,0,0,0,0,0,0,-1,706,1086,0,0
-511,-62,0,0,0,0,0,0,0,0,0,-1,713,1086,0,0
-504,-62,0,0,0,0,0,0,0,0,0,-1,720,1086,0,0
-497,-62,0,0,0,0,0,0,0,0,0,-1,727,1086,0,0
-490,-62,0,0,0,0,0,0,0,0,0,-1,734,1086,0,0
-483,-62,0,0,0,0,0,0,0,0,0,-1,741,1086,0,0
-476,-62,0,0,0,0,0,0,0,0,0,-1,748,1086,0,0
-469,-62,0,0,0,0,0,0,0,0,0,-1,755,1086,0,0
-462,-62,0,0,0,0,0,0,0,0,0,-1,762,1086,0,0
-455,-62,0,0,0,0,0,0,0,0,0,-1,769,1086,0,0
-448,-62,0,0,0,0,0,0,0,0,0,-1,776,1086,0,0
-441,-62,0,0,0,0,0,0,0,0,0,-1,783,1086,0,0
-434,-62,0,0,0,0,0,0,0,0,0,-1,790,1086,0,0
-427,-62,0,0,0,0,0,0,0,0,0,-1,797,1086,0,0
-420,-62,0,0,0,0,0,0,0,0,0,-1,804,1086,0,0
-413,-62,0,0,0,0,0,0,0,0,0,-1,811,1086,0,0
-406,-62,0,0,0,0,0,0,0,0,0,-1,818,1086,0,0
-399,-62,0,0,0,0,0,0,0,0,0,-1,825,1086,0,0
-392,-62,0,0,0,0,0,0,0,0,0,-1,832,1086,0,0
-385,-62,0,0,0,0,0,0,0,0,0,-1,839,1086,0,0
-378,-62,0,0,0,0,0,0,0,0,0,-1,846,1086,0,0
-371,-62,0,0,0,0,0,0,0,0,0,-1,853,1086,0,0
-364,-62,0,0,0,0,0,0,0,0,0,-1,860,1086,0,0
-357,-62,0,0,0,0,0,0,0,0,0,-1,867,1086,0,0
-350,-62,0,0,0,0,0,0,0,0,0,-1,874,1086,0,0
-343,-62,0,0,0,0,0,0,0,0,0,-1,881,1086,0,0
-336,-62,0,0,0,0,0,0,0,0,0,-1,888,1086,0,0
-329,-62,0,0,0,0,0,0,0,0,0,-1,895,1086,0,0
-322,-62,0,0,0,0,0,0,0,0,0,-1,902,1086,0,0
-315,-62,0,0,0,0,0,0,0,0,0,-1,909,1086,0,0
-308,-62,0,0,0,0,0,0,0,0,0,-1,916,1086,0,0
-301,-62,0,0,0,0,0,0,0,0,0,-1,923,1086,0,0
-294,-62,0,0,0,0,0,0,0,0,0,-1,930,1086,0,0
-287,-62,0,0,0,0,0,0,0,0,0,-1,937,1086,0,0
-280,-62,0,0,0,0,0,0,0,0,0,-1,944,1086,0,0
-273,-62,0,0,0,0,0,0,0,0,0,-1,951,1086,0,0
-266,-62,0,0,0,0,0,0,0,0,0,-1,958,1086,0,0
-259,-62,0,0,0,0,0,0,0,0,0,-1,965,1086,0,0
-252,-62,0,0,0,0,0,0,0,0,0,-1,972,1086,0,0
-245,-62,0,0,0,0,0,0,0,0,0,-1,979,1086,0,0
-238,-62,0,0,0,0,0,0,0,0,0,-1,986,1086,0,0
-231,-62,0,0,0,0,0,0,0,0,0,-1,993,1086,0,0
-224,-62,0,0,0,0,0,0,0,0,0,-1,1000,1086,0,0
-217,-62,0,0,0,0,0,0,0,0,0,-1,1007,1086,0,0
-210,-62,0,0,0,0,0,0,0,0,0,-1,1014,1086,0,0
-203,-62,0,0,0,0,0,0,0,0,0,-1,1021,1086,0,0
-196,-62,0,0,0,0,0,0,0,0,0,-1,1028,1086,0,0
-189,-62,0,0,0,0,0,0,0,0,0,-1,1035,1086,0,0
-182,-62,0,0,0,0,0,0,0,0,0,-1,1042,1086,0,0
-175,-62,0,0,0,0,0,0,0,0,0,-1,1049,1086,0,0
-168,-62,0,0,0,0,0,0,0,0,0,-1,1056,1086,0,0
-161,-62,0,0,0,0,0,0,0,0,0,-1,1063,1086,0,0
-154,-62,0,0,0,0,0,0,0,0,0,-1,1070,1086,0,0
-147,-62,0,0,0,0,0,0,0,0,0,-1,1077,1086,0,0
-140,-62,0,0,0,0,0,0,0,0,0,-1,1084,1086,0,0
-133,-62,0,0,0,0,0,0,0,0,0,-1,1091,1086,0,0
-126,-62,0,0,0,0,0,0,0,0,0,-1,1098,1086,0,0
-119,-62,0,0,0,0,0,0,0,0,0,-1,1105,1086,0,0
-112,-62,0,0,0,0,0,0,0,0,0,-1,1112,1086,0,0
-105,-62,0,0,0,0,0,0,0,0,0,-1,1119,1086,0,0
-98,-62,0,0,0,0,0,0,0,0,0,-1,1126,1086,0,0
-91,-62,0,0,0,0,0,0,0,0,0,-1,1133,1086,0,0
-84,-62,0,0,0,0,0,0,0,0,0,-1,1140,1086,0,0
-77,-62,0,0,0,0,0,0,0,0,0,-1,1147,1086,0,0
-70,-62,0,0,0,0,0,0,0,0,0,-1,1154,1086,0,0
-63,-62,0,0,0,0,0,0,0,0,0,-1,1161,1086,0,0
-56,-62,0,0,0,0,0,0,0,0,0,-1,1168,1086,0,0
-49,-62,0,0,0,0,0,0,0,0,0,-1,1175,1086,0,0
-42,-62,0,0,0,0,0,0,0,0,0,-1,1182,1086,0,0
-35,-62,0,0,0,0,0,0,0,0,0,-1,1189,1086,0,0
-28,-62,0,0,0,0,0,0,0,0,0,-1,1196,1086,0,0
-21,-62,0,0,0,0,0,0,0,0,0,-1,1203,1086,0,0
-14,-62,0,0,0,0,0,0,0,0,0,-1,1210,1086,0,0
-7,-62,0,0,0,0,0,0,0,0,0,-1,1217,1086,0,0
0,-62,0,0,0,0,0,0,0,0,0,-1,1224,1086,0,0
7,-62,0,0,0,0,0,0,0,0,0,-1,1231,1086,0,0
14,-62,0,0,0,0,0,0,0,0,0,-1,1238,1086,0,0
21,-62,0,0,0,0,0,0,0,0,0,-1,1245,1086,0,0
28,-62,0,0,0,0,0,0,0,0,0,-1,1252,1086,0,0
35,-62,0,0,0,0,0,0,0,0,0,-1,1259,1086,0,0
42,-62,0,0,0,0,0,0,0,0,0,-1,1266,1086,0,0
49,-62,0,0,0,0,0,0,0,0,0,-1,1273,1086,0,0
56,-62,0,0,0,0,0,0,0,0,0,-1,1280,1086,0,0
63,-62,0,0,0,0,0,0,0,0,0,-1,1287,1086,0,0
70,-62,0,0,0,0,0,0,0,0,0,-1,1294,1086,0,0
77,-62,0,0,0,0,0,0,0,0,0,-1,1301,1086,0,0
84,-62,0,0,0,0,0,0,0,0,0,-1,1308,1086,0,0
91,-62,0,0,0,0,0,0,0,0,0,-1,1315,1086,0,0
98,-62,0,0,0,0,0,0,0,0,0,-1,1322,1086,0,0
105,-62,0,0,0,0,0,0,0,0,0,-1,1329,1086,0,0
112,-62,0,0,0,0,0,0,0,0,0,-1,1336,1086,0,0
119,-62,0,0,0,0,0,0,0,0,0,-1,1343,1086,0,0
126,-62,0,0,0,0,0,0,0,0,0,-1,1350,1086,0,0
133,-62,0,0,0,0,0,0,0,0,0,-1,1357,1086,0,0
140,-62,0,0,0,0,0,0,0,0,0,-1,1364,1086,0,0
147,-62,0,0,0,0,0,0,0,0,0,-1,1371,1086,0,0
154,-62,0,0,0,0,0,0,0,0,0,-1,1378,1086,0,0
161,-62,0,0,0,0,0,0,0,0,0,-1,1385,1086,0,0
168,-62,0,0,0,0,0,0,0,0,0,-1,1392,1086,0,0
175,-62,0,0,0,0,0,0,0,0,0,-1,1399,1086,0,0
182,-62,0,0,0,0,0,0,0,0,0,-1,1406,1086,0,0
189,-62,0,0,0,0,0,0,0,0,0,-1,1413,1086,0,0
196,-62,0,0,0,0,0,0,0,0,0,-1,1420,1086,0,0
203,-62,0,0,0,0,0,0,0,0,0,-1,1427,1086,0,0
210,-62,0,0,0,0,0,0,0,0,0,-1,1434,1086,0,0
217,-62,0,0,0,0,0,0,0,0,0,-1,1441,1086,0,0
224,-62,0,0,0,0,0,0,0,0,0,-1,1448,1086,0,0
231,-62,0,0,0,0,0,0,0,0,0,-1,1455,1086,0,0
238,-62,0,0,0,0,0,0,0,0,0,-1,1462,1086,0,0
245,-62,0,0,0,0,0,0,0,0,0,-1,1469,1086,0,0
252,-62,0,0,0,0,0,0,0,0,0,-1,1476,1086,0,0
259,-62,0,0,0,0,0,0,0,0,0,-1,1483,1086,0,0
266,-62,0,0,0,0,0,0,0,0,0,-1,1490,1086,0,0
273,-62,0,0,0,0,0,0,0,0,0,-1,1497,1086,0,0
280,-62,0,0,0,0,0,0,0,0,0,-1,1504,1086,0,0
287,-62,0,0,0,0,0,0,0,0,0,-1,1511,1086,0,0
294,-62,0,0,0,0,0,0,0,0,0,-1,1518,1086,0,0
301,-62,0,0,0,0,0,0,0,0,0,-1,1525,1086,0,0
308,-62,0,0,0,0,0,0,0,0,0,-1,1532,1086,0,0
315,-62,0,0,0,0,0,0,0,0,0,-1,1539,1086,0,0
322,-62,0,0,0,0,0,0,0,0,0,-1,1546,1086,0,0
329,-62,0,0,0,0,0,0,0,0,0,-1,1553,1086,0,0
336,-62,0,0,0,0,0,0,0,0,0,-1,1560,1086,0,0
343,-62,0,0,0,0,0,0,0,0,0,-1,1567,1086,0,0
350,-62,0,0,0,0,0,0,0,0,0,-1,1574,1086,0,0
357,-62,0,0,0,0,0,0,0,0,0,-1,1581,1086,0,0
364,-62,0,0,0,0,0,0,0,0,0,-1,1588,1086,0,0
371,-62,0,0,0,0,0,0,0,0,0,-1,1595,1086,0,0
378,-62,0,0,0,0,0,0,0,0,0,-1,1602,1086,0,0
385,-62,0,0,0,0,0,0,0,0,0,-1,1609,1086,0,0
392,-62,0,0,0,0,0,0,0,0,0,-1,1616,1086,0,0
399,-62,0,0,0,0,0,0,0,0,0,-1,1623,1086,0,0
406,-62,0,0,0,0,0,0,0,0,0,-1,1630,1086,0,0
413,-62,0,0,0,0,0,0,0,0,0,-1,1637,1086,0,0
420,-62,0,0,0,0,0,0,0,0,0,-1,1644,1086,0,0
427,-62,0,0,0,0,0,0,0,0,0,-1,1651,1086,0,0
434,-62,0,0,0,0,0,0,0,0,0,-1,1658,1086,0,0
441,-62,0,0,0,0,0,0,0,0,0,-1,1665,1086,0,0
448,-62,0,0,0,0,0,0,0,0,0,-1,1672,1086,0,0
455,-62,0,0,0,0,0,0,0,0,0,-1,1679,1086,0,0
462,-62,0,0,0,0,0,0,0,0,0,-1,1686,1086,0,0
469,-62,0,0,0,0,0,0,0,0,0,-1,1693,1086,0,0
476,-62,0,0,0,0,0,0,0,0,0,-1,1700,1086,0,0
483,-62,0,0,0,0,0,0,0,0,0,-1,1707,1086,0,0
490,-62,0,0,0,0,0,0,0,0,0,-1,1714,1086,0,0
497,-62,0,0,0,0,0,0,0,0,0,-1,1721,1086,0,0
504,-62,0,0,0,0,0,0,0,0,0,-1,1728,1086,0,0
511,-62,0,0,0,0,0,0,0,0,0,-1,1735,1086,0,0
518,-62,0,0,0,0,0,0,0,0,0,-1,1742,1086,0,0
525,-62,0,0,0,0,0,0,0,0,0,-1,1749,1086,0,0
532,-62,0,0,0,0,0,0,0,0,0,-1,1756,1086,0,0
539,-62,0,0,0,0,0,0,0,0,0,-1,1763,1086,0,0
546,-62,0,0,0,0,0,0,0,0,0,-1,1770,1086,0,0
553,-62,0,0,0,0,0,0,0,0,0,-1,1777,1086,0,0
560,-62,0,0,0,0,0,0,0,0,0,-1,1784,1086,0,0
567,-62,0,0,0,0,0,0,0,0,0,-1,1791,1086,0,0
574,-62,0,0,0,0,0,0,0,0,0,-1,1798,1086,0,0
581,-62,0,0,0,0,0,0,0,0,0,-1,1805,1086,0,0
588,-62,0,0,0,0,0,0,0,0,0,-1,1812,1086,0,0
595,-62,0,0,0,0,0,0,0,0,0,-1,1819,1086,0,0
602,-62,0,0,0,0,0,0,0,0,0,-1,1826,1086,0,0
609,-62,0,0,0,0,0,0,0,0,0,-1,1833,1086,0,0
616,-62,0,0,0,0,0,0,0,0,0,-1,1840,1086,0,0
623,-62,0,0,0,0,0,0,0,0,0,-1,1847,1086,0,0
630,-62,0,0,0,0,0,0,0,0,0,-1,1854,1086,0,0
637,-62,0,0,0,0,0,0,0,0,0,-1,1861,1086,0,0
644,-62,0,0,0,0,0,0,0,0,0,-1,1868,1086,0,0
651,-62,14.3582,1.76282,-0.00677548,-0.00169449,0.00360113,0.000172089,-0.00864205,1.09259,0.00581958,0.0390809,1875,1086,14.3582,-1.76283
658,-62,14.1542,1.89917,-0.00406386,-0.00117937,0.00253455,0.000294553,-0.00553778,1.04407,0.00379385,0.040735,1882,1086,14.1542,-1.89921
665,-62,13.9945,1.92444,-0.00235673,-0.000841187,0.00180355,0.00035732,-0.00355523,0.984278,0.0024978,0.0399118,1889,1086,13.9945,-1.92444
672,-62,14.0433,1.97913,-0.00157148,-0.000797087,0.00177245,0.000629969,-0.00299853,0.892935,0.00223875,0.0376495,1896,1086,14.0434,-1.9791
679,-62,14.0374,2.08008,-0.00185853,-0.000953713,0.00237873,0.00101524,-0.00382749,0.879371,0.00294892,0.0363109,1903,1086,14.0373,-2.08009
686,-62,14.1801,1.8728,-0.00252886,-0.00116379,0.00311728,0.0013448,-0.00503745,0.893173,0.00388494,0.0371775,1910,1086,14.18,-1.87284
693,-62,14.1936,1.75635,-0.00331717,-0.00136883,0.0038773,0.0016548,-0.0063408,0.908475,0.00487337,0.037842,1917,1086,14.1936,-1.7563
700,-62,14.0938,1.81152,-0.00402013,-0.00146973,0.00456767,0.0019974,-0.00748726,0.921522,0.00577365,0.0321181,1924,1086,14.0938,-1.81149
707,-62,14.0535,1.87463,-0.00448905,-0.00154705,0.00503858,0.00223087,-0.00826696,0.927425,0.00638616,0.0190438,1931,1086,14.0535,-1.87459
714,-62,14.1832,1.73364,0,0,0,0,0,0,0,-1,1938,1086,14.1832,-1.73367
721,-62,14.1317,2.30432,-0.00519071,-0.00158372,0.0053347,0.00224409,-0.00901853,0.948401,0.00688342,0.0263952,1945,1086,14.1317,-2.30428
728,-62,13.7637,2.64294,-0.00532746,-0.00141689,0.00519256,0.00217632,-0.00892067,0.965465,0.00678983,0.0225074,1952,1086,13.7637,-2.64297
735,-62,13.7542,2.625,-0.00504036,-0.00109872,0.00489118,0.00220377,-0.00834284,0.976915,0.00642375,0.0163411,1959,1086,13.7542,-2.62495
742,-62,13.7612,2.62683,-0.00370592,-0.000645459,0.00443028,0.00251142,-0.0068628,0.951685,0.00560319,0.0139415,1966,1086,13.7613,-2.62684
749,-62,13.7449,2.58887,-0.00155276,0.000386992,0.00372308,0.00326445,-0.00443021,0.912818,0.00445948,0.0125669,1973,1086,13.7448,-2.58892
756,-62,13.7266,2.58691,0.000761482,0.00192118,0.00272448,0.00412683,-0.00144417,0.890248,0.00333841,0.014023,1980,1086,13.7265,-2.58693
763,-62,13.7427,2.57446,0.00350881,0.00371486,0.00184915,0.00546385,0.00175982,0.813226,0.00322044,0.0142508,1987,1086,13.7426,-2.57444
770,-62,13.77,2.53577,0.00691295,0.00606634,0.000943087,0.00752338,0.00545592,0.574451,0.00448807,0.0108106,1994,1086,13.77,-2.53582
777,-62,13.7543,2.47131,0.0108379,0.00903506,0.000314807,0.0108913,0.00898167,0.167993,0.00671546,0.0129128,2001,1086,13.7542,-2.47136
784,-62,13.7333,2.34705,0.0150605,0.0128674,0.000146833,0.0150703,0.0128576,0.0665542,0.00939654,0.0267611,2008,1086,13.7333,-2.34703
791,-62,13.4932,2.21716,0.0199072,0.0179208,9.17773e-05,0.0199114,0.0179166,0.0460727,0.0126618,0.0418555,2015,1086,13.4932,-2.21711
798,-62,14.2667,0.946289,0,0,0,0,0,0,0,-1,2022,1086,14.2667,-0.946228
805,-62,14.6443,0.523193,0,0,0,0,0,0,0,-1,2029,1086,14.6443,-0.52318
812,-62,13.302,2.16553,0,0,0,0,0,0,0,-1,2036,1086,13.302,-2.16553
-700,-69,-8.76257,-0.80127,0,0,0,0,0,0,0,-1,524,1093,-8.76259,0.801254
-693,-69,-9.43414,-0.662598,0,0,0,0,0,0,0,-1,531,1093,-9.43417,0.662655
-686,-69,-9.39362,-1.23413,0.0473986,0.0376703,0.0362772,0.0791362,0.00593261,0.718754,0.0508953,0.0456549,538,1093,-9.39364,1.23413
-679,-69,-6.48578,0.574829,0.0365276,0.0292398,0.0298297,0.0629352,0.00283221,0.724621,0.0410453,0.0454277,545,1093,-6.48581,-0.574836
-672,-69,-6.96729,0.582764,0.0266625,0.0220933,0.0237775,0.0482649,0.000490876,0.737504,0.0320142,0.0446139,552,1093,-6.96729,-0.582733
-665,-69,-7.49323,0.639771,0.0183058,0.0162265,0.0183577,0.0356532,-0.00112101,0.757112,0.0241512,0.0456381,559,1093,-7.49323,-0.639795
-658,-69,-7.92633,0.427002,0.0116709,0.0115629,0.0137161,0.0253331,-0.00209927,0.78343,0.0176302,0.0470657,566,1093,-7.92631,-0.427049
-651,-69,-8.10559,0.424561,0.00677741,0.00797292,0.00991192,0.0173051,-0.00255477,0.815515,0.0124758,0.0312531,573,1093,-8.10561,-0.424619
-644,-69,-8.12598,0.496216,0.00356345,0.00544883,0.00696077,0.0115305,-0.00251818,0.852703,0.00864943,0.00893532,580,1093,-8.12598,-0.496261
-637,-69,-8.13147,0.547485,0.00164513,0.00282545,0.00373375,0.00601539,-0.00154481,0.863781,0.00461226,0.011716,587,1093,-8.13146,-0.547532
-630,-69,-8.12408,0.571289,-0.00213692,0.00068399,0.00101574,0.00101167,-0.0024646,1.25874,0.00206463,0.0130122,594,1093,-8.1241,-0.571256
-623,-69,-8.12927,0.631226,-0.00340229,-2.42409e-05,-0.00110092,0.000302875,-0.0037294,-1.28197,0.00259313,0.0117646,601,1093,-8.12927,-0.631234
-616,-69,-8.11823,0.65332,-0.00276881,-0.000408912,-0.00204434,0.000771567,-0.00394929,-1.04713,0.00292418,0.0121616,608,1093,-8.11825,-0.653269
-609,-69,-8.09894,0.666626,-0.00200353,-0.000319976,-0.00289469,0.00185285,-0.00417635,-0.926896,0.00356608,0.0114276,615,1093,-8.09896,-0.666565
-602,-69,-8.10699,0.743652,-0.00153228,-0.000517367,-0.0035866,0.0025975,-0.00464715,-0.855675,0.00423813,0.0142717,622,1093,-8.10697,-0.743668
-595,-69,-8.10638,0.802368,-0.00160225,-0.00078892,-0.00418537,0.0030095,-0.00540067,-0.833828,0.00492059,0.0175247,629,1093,-8.10639,-0.802407
-588,-69,-8.16431,0.702271,-0.00179653,-0.00100905,-0.00459068,0.00320474,-0.00601032,-0.828179,0.00540189,0.0215544,636,1093,-8.16428,-0.702238
-581,-69,-8.24579,0.450928,-0.00184589,-0.00115498,-0.00478718,0.00329919,-0.00630007,-0.821417,0.00563168,0.0287121,643,1093,-8.2458,-0.450977
-574,-69,-8.29645,0.282471,-0.0018727,-0.00138794,-0.00489445,0.00327013,-0.00653077,-0.810139,0.00576199,0.0333012,650,1093,-8.29643,-0.282433
-567,-69,-8.18719,0.51709,-0.00187732,-0.00162086,-0.00482291,0.00307552,-0.0065737,-0.798689,0.00569171,0.0372288,657,1093,-8.18719,-0.517093
-560,-69,-8.12897,0.754639,-0.00182209,-0.00194656,-0.00461007,0.00272616,-0.00649481,-0.778648,0.00546994,0.0378298,664,1093,-8.12897,-0.754639
-553,-69,-8.11816,0.580811,-0.0017075,-0.00241229,-0.00429828,0.00225281,-0.0063726,-0.744497,0.00516576,0.0370492,671,1093,-8.11818,-0.58079
-546,-69,-8.18866,0.258179,-0.00149647,-0.00306949,-0.00390165,0.00169715,-0.00626312,-0.685939,0.00484133,0.0357005,678,1093,-8.18868,-0.258141
-539,-69,-8.28149,0.141724,-0.00115818,-0.00398559,-0.00363502,0.00132836,-0.00647213,-0.599943,0.00481896,0.0390739,685,1093,-8.28151,-0.141774
-532,-69,-8.19647,0.266357,-0.00114495,-0.00546063,-0.00445143,0.00164408,-0.00824966,-0.559711,0.00612184,0.0413362,692,1093,-8.19646,-0.266399
-525,-69,0,0,0,0,0,0,0,0,0,-1,699,1093,0,0
-518,-69,0,0,0,0,0,0,0,0,0,-1,706,1093,0,0
-511,-69,0,0,0,0,0,0,0,0,0,-1,713,1093,0,0
-504,-69,0,0,0,0,0,0,0,0,0,-1,720,1093,0,0
-497,-69,0,0,0,0,0,0,0,0,0,-1,727,1093,0,0
-490,-69,0,0,0,0,0,0,0,0,0,-1,734,1093,0,0
-483,-69,0,0,0,0,0,0,0,0,0,-1,741,1093,0,0
-476,-69,0,0,0,0,0,0,0,0,0,-1,748,1093,0,0
-469,-69,0,0,0,0,0,0,0,0,0,-1,755,1093,0,0
-462,-69,0,0,0,0,0,0,0,0,0,-1,762,1093,0,0
-455,-69,0,0,0,0,0,0,0,0,0,-1,769,1093,0,0
-448,-69,0,0,0,0,0,0,0,0,0,-1,776,1093,0,0
-441,-69,0,0,0,0,0,0,0,0,0,-1,783,1093,0,0
-434,-69,0,0,0,0,0,0,0,0,0,-1,790,1093,0,0
-427,-69,0,0,0,0,0,0,0,0,0,-1,797,1093,0,0
-420,-69,0,0,0,0,0,0,0,0,0,-1,804,1093,0,0
-413,-69,0,0,0,0,0,0,0,0,0,-1,811,1093,0,0
-406,-69,0,0,0,0,0,0,0,0,0,-1,818,1093,0,0
-399,-69,0,0,0,0,0,0,0,0,0,-1,825,1093,0,0
-392,-69,0,0,0,0,0,0,0,0,0,-1,832,1093,0,0
-385,-69,0,0,0,0,0,0,0,0,0,-1,839,1093,0,0
-378,-69,0,0,0,0,0,0,0,0,0,-1,846,1093,0,0
-371,-69,0,0,0,0,0,0,0,0,0,-1,853,1093,0,0
-364,-69,0,0,0,0,0,0,0,0,0,-1,860,1093,0,0
-357,-69,0,0,0,0,0,0,0,0,0,-1,867,1093,0,0
-350,-69,0,0,0,0,0,0,0,0,0,-1,874,1093,0,0
-343,-69,0,0,0,0,0,0,0,0,0,-1,881,1093,0,0
-336,-69,0,0,0,0,0,0,0,0,0,-1,888,1093,0,0
-329,-69,0,0,0,0,0,0,0,0,0,-1,895,1093,0,0
-322,-69,0,0,0,0,0,0,0,0,0,-1,902,1093,0,0
-315,-69,0,0,0,0,0,0,0,0,0,-1,909,1093,0,0
-308,-69,0,0,0,0,0,0,0,0,0,-1,916,1093,0,0
-301,-69,0,0,0,0,0,0,0,0,0,-1,923,1093,0,0
-294,-69,0,0,0,0,0,0,0,0,0,-1,930,1093,0,0
-287,-69,0,0,0,0,0,0,0,0,0,-1,937,1093,0,0
-280,-69,0,0,0,0,0,0,0,0,0,-1,944,1093,0,0
-273,-69,0,0,0,0,0,0,0,0,0,-1,951,1093,0,0
-266,-69,0,0,0,0,0,0,0,0,0,-1,958,1093,0,0
-259,-69,0,0,0,0,0,0,0,0,0,-1,965,1093,0,0
-252,-69,0,0,0,0,0,0,0,0,0,-1,972,1093,0,0
-245,-69,0,0,0,0,0,0,0,0,0,-1,979,1093,0,0
-238,-69,0,0,0,0,0,0,0,0,0,-1,986,1093,0,0
-231,-69,0,0,0,0,0,0,0,0,0,-1,993,1093,0,0
-224,-69,0,0,0,0,0,0,0,0,0,-1,1000,1093,0,0
-217,-69,0,0,0,0,0,0,0,0,0,-1,1007,1093,0,0
-210,-69,0,0,0,0,0,0,0,0,0,-1,1014,1093,0,0
-203,-69,0,0,0,0,0,0,0,0,0,-1,1021,1093,0,0
-196,-69,0,0,0,0,0,0,0,0,0,-1,1028,1093,0,0
-189,-69,0,0,0,0,0,0,0,0,0,-1,1035,1093,0,0
-182,-69,0,0,0,0,0,0,0,0,0,-1,1042,1093,0,0
-175,-69,0,0,0,0,0,0,0,0,0,-1,1049,1093,0,0
-168,-69,0,0,0,0,0,0,0,0,0,-1,1056,1093,0,0
-161,-69,0,0,0,0,0,0,0,0,0,-1,1063,1093,0,0
-154,-69,0,0,0,0,0,0,0,0,0,-1,1070,1093,0,0
-147,-69,0,0,0,0,0,0,0,0,0,-1,1077,1093,0,0
-140,-69,0,0,0,0,0,0,0,0,0,-1,1084,1093,0,0
-133,-69,0,0,0,0,0,0,0,0,0,-1,1091,1093,0,0
-126,-69,0,0,0,0,0,0,0,0,0,-1,1098,1093,0,0
-119,-69,0,0,0,0,0,0,0,0,0,-1,1105,1093,0,0
-112,-69,0,0,0,0,0,0,0,0,0,-1,1112,1093,0,0
-105,-69,0,0,0,0,0,0,0,0,0,-1,1119,1093,0,0
-98,-69,0,0,0,0,0,0,0,0,0,-1,1126,1093,0,0
-91,-69,0,0,0,0,0,0,0,0,0,-1,1133,1093,0,0
-84,-69,0,0,0,0,0,0,0,0,0,-1,1140,1093,0,0
-77,-69,0,0,0,0,0,0,0,0,0,-1,1147,1093,0,0
-70,-69,0,0,0,0,0,0,0,0,0,-1,1154,1093,0,0
-63,-69,0,0,0,0,0,0,0,0,0,-1,1161,1093,0,0
-56,-69,0,0,0,0,0,0,0,0,0,-1,1168,1093,0,0
-49,-69,0,0,0,0,0,0,0,0,0,-1,1175,1093,0,0
-42,-69,0,0,0,0,0,0,0,0,0,-1,1182,1093,0,0
-35,-69,0,0,0,0,0,0,0,0,0,-1,1189,1093,0,0
-28,-69,0,0,0,0,0,0,0,0,0,-1,1196,1093,0,0
-21,-69,0,0,0,0,0,0,0,0,0,-1,1203,1093,0,0
-14,-69,0,0,0,0,0,0,0,0,0,-1,1210,1093,0,0
-7,-69,0,0,0,0,0,0,0,0,0,-1,1217,1093,0,0
0,-69,0,0,0,0,0,0,0,0,0,-1,1224,1093,0,0
7,-69,0,0,0,0,0,0,0,0,0,-1,1231,1093,0,0
14,-69,0,0,0,0,0,0,0,0,0,-1,1238,1093,0,0
21,-69,0,0,0,0,0,0,0,0,0,-1,1245,1093,0,0
28,-69,0,0,0,0,0,0,0,0,0,-1,1252,1093,0,0
35,-69,0,0,0,0,0,0,0,0,0,-1,1259,1093,0,0
42,-69,0,0,0,0,0,0,0,0,0,-1,1266,1093,0,0
49,-69,0,0,0,0,0,0,0,0,0,-1,1273,1093,0,0
56,-69,0,0,0,0,0,0,0,0,0,-1,1280,1093,0,0
63,-69,0,0,0,0,0,0,0,0,0,-1,1287,1093,0,0
70,-69,0,0,0,0,0,0,0,0,0,-1,1294,1093,0,0
77,-69,0,0,0,0,0,0,0,0,0,-1,1301,1093,0,0
84,-69,0,0,0,0,0,0,0,0,0,-1,1308,1093,0,0
91,-69,0,0,0,0,0,0,0,0,0,-1,1315,1093,0,0
98,-69,0,0,0,0,0,0,0,0,0,-1,1322,1093,0,0
105,-69,0,0,0,0,0,0,0,0,0,-1,1329,1093,0,0
112,-69,0,0,0,0,0,0,0,0,0,-1,1336,1093,0,0
119,-69,0,0,0,0,0,0,0,0,0,-1,1343,1093,0,0
126,-69,0,0,0,0,0,0,0,0,0,-1,1350,1093,0,0
133,-69,0,0,0,0,0,0,0,0,0,-1,1357,1093,0,0
140,-69,0,0,0,0,0,0,0,0,0,-1,1364,1093,0,0
147,-69,0,0,0,0,0,0,0,0,0,-1,1371,1093,0,0
154,-69,0,0,0,0,0,0,0,0,0,-1,1378,1093,0,0
161,-69,0,0,0,0,0,0,0,0,0,-1,1385,1093,0,0
168,-69,0,0,0,0,0,0,0,0,0,-1,1392,1093,0,0
175,-69,0,0,0,0,0,0,0,0,0,-1,1399,1093,0,0
182,-69,0,0,0,0,0,0,0,0,0,-1,1406,1093,0,0
189,-69,0,0,0,0,0,0,0,0,0,-1,1413,1093,0,0
196,-69,0,0,0,0,0,0,0,0,0,-1,1420,1093,0,0
203,-69,0,0,0,0,0,0,0,0,0,-1,1427,1093,0,0
210,-69,0,0,0,0,0,0,0,0,0,-1,1434,1093,0,0
217,-69,0,0,0,0,0,0,0,0,0,-1,1441,1093,0,0
224,-69,0,0,0,0,0,0,0,0,0,-1,1448,1093,0,0
231,-69,0,0,0,0,0,0,0,0,0,-1,1455,1093,0,0
238,-69,0,0,0,0,0,0,0,0,0,-1,1462,1093,0,0
245,-69,0,0,0,0,0,0,0,0,0,-1,1469,1093,0,0
252,-69,0,0,0,0,0,0,0,0,0,-1,1476,1093,0,0
259,-69,0,0,0,0,0,0,0,0,0,-1,1483,1093,0,0
266,-69,0,0,0,0,0,0,0,0,0,-1,1490,1093,0,0
273,-69,0,0,0,0,0,0,0,0,0,-1,1497,1093,0,0
280,-69,0,0,0,0,0,0,0,0,0,-1,1504,1093,0,0
287,-69,0,0,0,0,0,0,0,0,0,-1,1511,1093,0,0
294,-69,0,0,0,0,0,0,0,0,0,-1,1518,1093,0,0
301,-69,0,0,0,0,0,0,0,0,0,-1,1525,1093,0,0
308,-69,0,0,0,0,0,0,0,0,0,-1,1532,1093,0,0
315,-69,0,0,0,0,0,0,0,0,0,-1,1539,1093,0,0
322,-69,0,0,0,0,0,0,0,0,0,-1,1546,1093,0,0
329,-69,0,0,0,0,0,0,0,0,0,-1,1553,1093,0,0
336,-69,0,0,0,0,0,0,0,0,0,-1,1560,1093,0,0
343,-69,0,0,0,0,0,0,0,0,0,-1,1567,1093,0,0
350,-69,0,0,0,0,0,0,0,0,0,-1,1574,1093,0,0
357,-69,0,0,0,0,0,0,0,0,0,-1,1581,1093,0,0
364,-69,0,0,0,0,0,0,0,0,0,-1,1588,1093,0,0
371,-69,0,0,0,0,0,0,0,0,0,-1,1595,1093,0,0
378,-69,0,0,0,0,0,0,0,0,0,-1,1602,1093,0,0
385,-69,0,0,0,0,0,0,0,0,0,-1,1609,1093,0,0
392,-69,0,0,0,0,0,0,0,0,0,-1,1616,1093,0,0
399,-69,0,0,0,0,0,0,0,0,0,-1,1623,1093,0,0
406,-69,0,0,0,0,0,0,0,0,0,-1,1630,1093,0,0
413,-69,0,0,0,0,0,0,0,0,0,-1,1637,1093,0,0
420,-69,0,0,0,0,0,0,0,0,0,-1,1644,1093,0,0
427,-69,0,0,0,0,0,0,0,0,0,-1,1651,1093,0,0
434,-69,0,0,0,0,0,0,0,0,0,-1,1658,1093,0,0
441,-69,0,0,0,0,0,0,0,0,0,-1,1665,1093,0,0
448,-69,0,0,0,0,0,0,0,0,0,-1,1672,1093,0,0
455,-69,0,0,0,0,0,0,0,0,0,-1,1679,1093,0,0
462,-69,0,0,0,0,0,0,0,0,0,-1,1686,1093,0,0
469,-69,0,0,0,0,0,0,0,0,0,-1,1693,1093,0,0
476,-69,0,0,0,0,0,0,0,0,0,-1,1700,1093,0,0
483,-69,0,0,0,0,0,0,0,0,0,-1,1707,1093,0,0
490,-69,0,0,0,0,0,0,0,0,0,-1,1714,1093,0,0
497,-69,0,0,0,0,0,0,0,0,0,-1,1721,1093,0,0
504,-69,0,0,0,0,0,0,0,0,0,-1,1728,1093,0,0
511,-69,0,0,0,0,0,0,0,0,0,-1,1735,1093,0,0
518,-69,0,0,0,0,0,0,0,0,0,-1,1742,1093,0,0
525,-69,0,0,0,0,0,0,0,0,0,-1,1749,1093,0,0
532,-69,0,0,0,0,0,0,0,0,0,-1,1756,1093,0,0
539,-69,0,0,0,0,0,0,0,0,0,-1,1763,1093,0,0
546,-69,0,0,0,0,0,0,0,0,0,-1,1770,1093,0,0
553,-69,0,0,0,0,0,0,0,0,0,-1,1777,1093,0,0
560,-69,0,0,0,0,0,0,0,0,0,-1,1784,1093,0,0
567,-69,0,0,0,0,0,0,0,0,0,-1,1791,1093,0,0
574,-69,0,0,0,0,0,0,0,0,0,-1,1798,1093,0,0
581,-69,0,0,0,0,0,0,0,0,0,-1,1805,1093,0,0
588,-69,0,0,0,0,0,0,0,0,0,-1,1812,1093,0,0
595,-69,0,0,0,0,0,0,0,0,0,-1,1819,1093,0,0
602,-69,0,0,0,0,0,0,0,0,0,-1,1826,1093,0,0
609,-69,0,0,0,0,0,0,0,0,0,-1,1833,1093,0,0
616,-69,0,0,0,0,0,0,0,0,0,-1,1840,1093,0,0
623,-69,0,0,0,0,0,0,0,0,0,-1,1847,1093,0,0
630,-69,0,0,0,0,0,0,0,0,0,-1,1854,1093,0,0
637,-69,0,0,0,0,0,0,0,0,0,-1,1861,1093,0,0
644,-69,0,0,0,0,0,0,0,0,0,-1,1868,1093,0,0
651,-69,14.1161,1.81018,-0.00664631,-0.00176077,0.00249871,-0.000709169,-0.00769792,1.17244,0.00491265,0.0410948,1875,1093,14.1161,-1.81016
658,-69,14.0923,1.85962,-0.0038738,-0.00121709,0.00179452,-0.000312766,-0.00477812,1.10401,0.00308644,0.0422194,1882,1093,14.0923,-1.85961
665,-69,13.9785,1.85034,-0.00216062,-0.000890312,0.0013598,-2.46404e-05,-0.00302629,1.00389,0.00200937,0.0407502,1889,1093,13.9785,-1.85037
672,-69,13.8102,1.98523,-0.00150034,-0.000909263,0.00160767,0.00042981,-0.00283942,0.876299,0.00205128,0.0350791,1896,1093,13.8102,-1.98524
679,-69,13.8494,1.9873,-0.00188204,-0.00112726,0.00237511,0.000900252,-0.00390956,0.864186,0.00295256,0.0363747,1903,1093,13.8494,-1.98728
686,-69,14.1649,1.7168,-0.00261872,-0.00138861,0.00319818,0.00125312,-0.00526045,0.880395,0.0039908,0.0384957,1910,1093,14.1649,-1.71681
693,-69,14.1381,1.63416,-0.00346189,-0.0016303,0.00399814,0.00155559,-0.00664777,0.897984,0.00503119,0.0357312,1917,1093,14.138,-1.6342
700,-69,14.0475,1.77466,-0.00418243,-0.0017463,0.00470561,0.00189634,-0.00782507,0.912045,0.00595042,0.0283053,1924,1093,14.0475,-1.7747
707,-69,14.0582,1.87122,-0.00467091,-0.00182653,0.00517981,0.00212278,-0.00862022,0.919379,0.00656974,0.0175179,1931,1093,14.0582,-1.87121
714,-69,14.1265,1.72009,0,0,0,0,0,0,0,-1,1938,1093,14.1264,-1.72015
721,-69,14.1033,2.3031,-0.00539133,-0.0018353,0.00543363,0.00210382,-0.00933045,0.943519,0.00702734,0.0331133,1945,1093,14.1032,-2.30311
728,-69,13.8455,2.63672,-0.00549205,-0.00164399,0.00523131,0.00200589,-0.00914193,0.961616,0.00686169,0.0220307,1952,1093,13.8454,-2.63671
735,-69,13.7507,2.64856,-0.00517507,-0.00128149,0.00489364,0.00203838,-0.00849494,0.974711,0.00645101,0.0154838,1959,1093,13.7508,-2.64857
742,-69,13.7518,2.60876,-0.00385338,-0.000772833,0.00443859,0.00238515,-0.00701136,0.952406,0.00563998,0.0130238,1966,1093,13.7519,-2.60876
749,-69,13.7031,2.5802,-0.00175297,0.000324111,0.0037953,0.0032204,-0.00464926,0.918949,0.00456844,0.0147111,1973,1093,13.7032,-2.58018
756,-69,13.7029,2.58679,0.000553756,0.00191165,0.00299795,0.00430657,-0.00184117,0.896755,0.00364329,0.0144017,1980,1093,13.7029,-2.58676
763,-69,13.7031,2.56897,0.00330141,0.00379821,0.00227763,0.00584095,0.00125867,0.839713,0.00354959,0.0148645,1987,1093,13.7031,-2.56894
770,-69,13.7236,2.53345,0.00666847,0.00624363,0.00162866,0.00809851,0.0048136,0.720552,0.00470336,0.0143589,1994,1093,13.7236,-2.53344
777,-69,13.7239,2.46045,0.0104836,0.00929615,0.00138084,0.0113929,0.00838679,0.582367,0.00681784,0.0180288,2001,1093,13.7238,-2.46041
784,-69,13.729,2.35815,0.0145862,0.0132222,0.0017037,0.0157393,0.012069,0.595012,0.00950856,0.0288632,2008,1093,13.729,-2.35816
791,-69,13.5951,2.28467,0.0193403,0.0183982,0.0022689,0.0211865,0.016552,0.683052,0.0128609,0.0423992,2015,1093,13.5951,-2.28466
798,-69,14.3763,3.23511,0.0250241,0.0252004,0.00292688,0.0280404,0.022184,0.800455,0.0170795,0.0440669,2022,1093,14.3764,-3.23516
805,-69,14.12,3.48291,0.031562,0.0340757,0.00368081,0.0367083,0.0289294,0.949925,0.0223354,0.0453711,2029,1093,14.1199,-3.48296
812,-69,14.238,3.92639,0,0,0,0,0,0,0,-1,2036,1093,14.238,-3.9264
-700,-76,0,0,0,0,0,0,0,0,0,-1,524,1100,0,0
-693,-76,-3.87878,-1.11487,0,0,0,0,0,0,0,-1,531,1100,-3.87878,1.11492
-686,-76,-9.22394,-2.19055,0.0509566,0.0419386,0.0424694,0.0891557,0.00373951,0.732511,0.0582307,0.046063,538,1100,-9.22395,2.19053
-679,-76,-6.43439,0.396973,0.0396739,0.0321013,0.0347908,0.0708838,0.00089141,0.731196,0.0469615,0.0483136,545,1100,-6.43441,-0.396973
-672,-76,-6.89404,0.547363,0.029286,0.0239357,0.027675,0.0544149,-0.00119316,0.737216,0.0366808,0.0484527,552,1100,-6.89402,-0.547391
-665,-76,-7.41541,0.848999,0,0,0,0,0,0,0,-1,559,1100,-7.4154,-0.849033
-658,-76,-7.88904,0.353516,0.0132625,0.0121977,0.0159651,0.0287041,-0.00324383,0.768731,0.0203039,0.0458154,566,1100,-7.88905,-0.35348
-651,-76,-8.04919,0.43457,0.00794981,0.00829926,0.0115576,0.0196834,-0.00343435,0.792957,0.0144042,0.0264955,573,1100,-8.04918,-0.434591
-644,-76,-8.05273,0.499268,0.0043913,0.00553973,0.00813937,0.0131251,-0.00319408,0.820614,0.00998651,0.00954289,580,1100,-8.05276,-0.499259
-637,-76,-8.07324,0.533447,0.00231219,0.00281938,0.0045126,0.0070855,-0.00195393,0.813467,0.00549208,0.0126307,587,1100,-8.07324,-0.533438
-630,-76,-8.08081,0.56665,-0.00175015,0.000569069,0.00141245,0.00123695,-0.00241803,1.1291,0.00214662,0.0136151,594,1100,-8.08079,-0.56663
-623,-76,-8.07019,0.615845,-0.00337528,-0.000184464,-0.00101429,0.000110658,-0.0036704,-1.28765,0.00248464,0.0127093,601,1100,-8.07019,-0.615888
-616,-76,-8.07349,0.655518,-0.00292347,-0.000416154,-0.00206013,0.000741787,-0.00408142,-1.05873,0.00299894,0.0109375,608,1100,-8.07349,-0.655475
-609,-76,-8.07397,0.712646,-0.00219842,-0.000202598,-0.00298055,0.00194266,-0.00434368,-0.946936,0.00371661,0.0116744,615,1100,-8.07397,-0.712703
-602,-76,-8.06281,0.784668,-0.00177561,-0.000379817,-0.00377379,0.00276007,-0.00491549,-0.876831,0.00448935,0.0156671,622,1100,-8.06282,-0.784614
-595,-76,-8.05444,0.846313,-0.0019218,-0.000551591,-0.00440719,0.00322343,-0.00569682,-0.862507,0.00521568,0.0186596,629,1100,-8.05446,-0.846297
-588,-76,-8.11926,0.705811,-0.00215345,-0.000719328,-0.00483546,0.00345195,-0.00632473,-0.859008,0.00572522,0.0227107,636,1100,-8.11923,-0.705791
-581,-76,-8.24286,0.327148,-0.00217535,-0.000816043,-0.00506302,0.00361273,-0.00660413,-0.852119,0.00598239,0.0286231,643,1100,-8.24288,-0.327132
-574,-76,-8.28192,0.139404,-0.00215398,-0.000992121,-0.00517683,0.00363627,-0.00678238,-0.841273,0.00610594,0.0358429,650,1100,-8.28191,-0.139379
-567,-76,-8.14874,0.47876,-0.00207661,-0.0011754,-0.0051014,0.00349526,-0.00674727,-0.829449,0.00601206,0.0383647,657,1100,-8.14877,-0.478819
-560,-76,-8.12158,0.82373,-0.00187602,-0.00148134,-0.00488947,0.00321477,-0.00657214,-0.805567,0.00576023,0.0405584,664,1100,-8.12156,-0.823767
-553,-76,-8.09674,0.732422,-0.0015379,-0.00197845,-0.00460156,0.00284866,-0.006365,-0.761482,0.00544711,0.0423031,671,1100,-8.09673,-0.732403
-546,-76,-8.13367,0.314575,-0.00100092,-0.00274091,-0.00427671,0.00249338,-0.00623522,-0.685054,0.00519152,0.0392798,678,1100,-8.13368,-0.314602
-539,-76,-8.31531,0.0897217,-0.000191088,-0.00386207,-0.00412268,0.00248624,-0.0065394,-0.575963,0.00538325,0.0407999,685,1100,-8.3153,-0.0897381
-532,-76,-8.13953,0.234497,0.000410061,-0.00569295,-0.00515749,0.00335116,-0.00863405,-0.518264,0.00714022,0.0420858,692,1100,-8.13955,-0.234525
-525,-76,0,0,0,0,0,0,0,0,0,-1,699,1100,0,0
-518,-76,0,0,0,0,0,0,0,0,0,-1,706,1100,0,0
-511,-76,0,0,0,0,0,0,0,0,0,-1,713,1100,0,0
-504,-76,0,0,0,0,0,0,0,0,0,-1,720,1100,0,0
-497,-76,0,0,0,0,0,0,0,0,0,-1,727,1100,0,0
-490,-76,0,0,0,0,0,0,0,0,0,-1,734,1100,0,0
-483,-76,0,0,0,0,0,0,0,0,0,-1,741,1100,0,0
-476,-76,0,0,0,0,0,0,0,0,0,-1,748,1100,0,0
-469,-76,0,0,0,0,0,0,0,0,0,-1,755,1100,0,0
-462,-76,0,0,0,0,0,0,0,0,0,-1,762,1100,0,0
-455,-76,0,0,0,0,0,0,0,0,0,-1,769,1100,0,0
-448,-76,0,0,0,0,0,0,0,0,0,-1,776,1100,0,0
-441,-76,0,0,0,0,0,0,0,0,0,-1,783,1100,0,0
-434,-76,0,0,0,0,0,0,0,0,0,-1,790,1100,0,0
-427,-76,0,0,0,0,0,0,0,0,0,-1,797,1100,0,0
-420,-76,0,0,0,0,0,0,0,0,0,-1,804,1100,0,0
-413,-76,0,0,0,0,0,0,0,0,0,-1,811,1100,0,0
-406,-76,0,0,0,0,0,0,0,0,0,-1,818,1100,0,0
-399,-76,0,0,0,0,0,0,0,0,0,-1,825,1100,0,0
-392,-76,0,0,0,0,0,0,0,0,0,-1,832,1100,0,0
-385,-76,0,0,0,0,0,0,0,0,0,-1,839,1100,0,0
-378,-76,0,0,0,0,0,0,0,0,0,-1,846,1100,0,0
-371,-76,0,0,0,0,0,0,0,0,0,-1,853,1100,0,0
-364,-76,0,0,0,0,0,0,0,0,0,-1,860,1100,0,0
-357,-76,0,0,0,0,0,0,0,0,0,-1,867,1100,0,0
-350,-76,0,0,0,0,0,0,0,0,0,-1,874,1100,0,0
-343,-76,0,0,0,0,0,0,0,0,0,-1,881,1100,0,0
-336,-76,0,0,0,0,0,0,0,0,0,-1,888,1100,0,0
-329,-76,0,0,0,0,0,0,0,0,0,-1,895,1100,0,0
-322,-76,0,0,0,0,0,0,0,0,0,-1,902,1100,0,0
-315,-76,0,0,0,0,0,0,0,0,0,-1,909,1100,0,0
-308,-76,0,0,0,0,0,0,0,0,0,-1,916,1100,0,0
-301,-76,0,0,0,0,0,0,0,0,0,-1,923,1100,0,0
-294,-76,0,0,0,0,0,0,0,0,0,-1,930,1100,0,0
-287,-76,0,0,0,0,0,0,0,0,0,-1,937,1100,0,0
-280,-76,0,0,0,0,0,0,0,0,0,-1,944,1100,0,0
-273,-76,0,0,0,0,0,0,0,0,0,-1,951,1100,0,0
-266,-76,0,0,0,0,0,0,0,0,0,-1,958,1100,0,0
-259,-76,0,0,0,0,0,0,0,0,0,-1,965,1100,0,0
-252,-76,0,0,0,0,0,0,0,0,0,-1,972,1100,0,0
-245,-76,0,0,0,0,0,0,0,0,0,-1,979,1100,0,0
-238,-76,0,0,0,0,0,0,0,0,0,-1,986,1100,0,0
-231,-76,0,0,0,0,0,0,0,0,0,-1,993,1100,0,0
-224,-76,0,0,0,0,0,0,0,0,0,-1,1000,1100,0,0
-217,-76,0,0,0,0,0,0,0,0,0,-1,1007,1100,0,0
-210,-76,0,0,0,0,0,0,0,0,0,-1,1014,1100,0,0
-203,-76,0,0,0,0,0,0,0,0,0,-1,1021,1100,0,0
-196,-76,0,0,0,0,0,0,0,0,0,-1,1028,1100,0,0
-189,-76,0,0,0,0,0,0,0,0,0,-1,1035,1100,0,0
-182,-76,0,0,0,0,0,0,0,0,0,-1,1042,1100,0,0
-175,-76,0,0,0,0,0,0,0,0,0,-1,1049,1100,0,0
-168,-76,0,0,0,0,0,0,0,0,0,-1,1056,1100,0,0
-161,-76,0,0,0,0,0,0,0,0,0,-1,1063,1100,0,0
-154,-76,0,0,0,0,0,0,0,0,0,-1,1070,1100,0,0
-147,-76,0,0,0,0,0,0,0,0,0,-1,1077,1100,0,0
-140,-76,0,0,0,0,0,0,0,0,0,-1,1084,1100,0,0
-133,-76,0,0,0,0,0,0,0,0,0,-1,1091,1100,0,0
-126,-76,0,0,0,0,0,0,0,0,0,-1,1098,1100,0,0
-119,-76,0,0,0,0,0,0,0,0,0,-1,1105,1100,0,0
-112,-76,0,0,0,0,0,0,0,0,0,-1,1112,1100,0,0
-105,-76,0,0,0,0,0,0,0,0,0,-1,1119,1100,0,0
-98,-76,0,0,0,0,0,0,0,0,0,-1,1126,1100,0,0
-91,-76,0,0,0,0,0,0,0,0,0,-1,1133,1100,0,0
-84,-76,0,0,0,0,0,0,0,0,0,-1,1140,1100,0,0
-77,-76,0,0,0,0,0,0,0,0,0,-1,1147,1100,0,0
-70,-76,0,0,0,0,0,0,0,0,0,-1,1154,1100,0,0
-63,-76,0,0,0,0,0,0,0,0,0,-1,1161,1100,0,0
-56,-76,0,0,0,0,0,0,0,0,0,-1,1168,1100,0,0
-49,-76,0,0,0,0,0,0,0,0,0,-1,1175,1100,0,0
-42,-76,0,0,0,0,0,0,0,0,0,-1,1182,1100,0,0
-35,-76,0,0,0,0,0,0,0,0,0,-1,1189,1100,0,0
-28,-76,0,0,0,0,0,0,0,0,0,-1,1196,1100,0,0
-21,-76,0,0,0,0,0,0,0,0,0,-1,1203,1100,0,0
-14,-76,0,0,0,0,0,0,0,0,0,-1,1210,1100,0,0
-7,-76,0,0,0,0,0,0,0,0,0,-1,1217,1100,0,0
0,-76,0,0,0,0,0,0,0,0,0,-1,1224,1100,0,0
7,-76,0,0,0,0,0,0,0,0,0,-1,1231,1100,0,0
14,-76,0,0,0,0,0,0,0,0,0,-1,1238,1100,0,0
21,-76,0,0,0,0,0,0,0,0,0,-1,1245,1100,0,0
28,-76,0,0,0,0,0,0,0,0,0,-1,1252,1100,0,0
35,-76,0,0,0,0,0,0,0,0,0,-1,1259,1100,0,0
42,-76,0,0,0,0,0,0,0,0,0,-1,1266,1100,0,0
49,-76,0,0,0,0,0,0,0,0,0,-1,1273,1100,0,0
56,-76,0,0,0,0,0,0,0,0,0,-1,1280,1100,0,0
63,-76,0,0,0,0,0,0,0,0,0,-1,1287,1100,0,0
70,-76,0,0,0,0,0,0,0,0,0,-1,1294,1100,0,0
77,-76,0,0,0,0,0,0,0,0,0,-1,1301,1100,0,0
84,-76,0,0,0,0,0,0,0,0,0,-1,1308,1100,0,0
91,-76,0,0,0,0,0,0,0,0,0,-1,1315,1100,0,0
98,-76,0,0,0,0,0,0,0,0,0,-1,1322,1100,0,0
105,-76,0,0,0,0,0,0,0,0,0,-1,1329,1100,0,0
112,-76,0,0,0,0,0,0,0,0,0,-1,1336,1100,0,0
119,-76,0,0,0,0,0,0,0,0,0,-1,1343,1100,0,0
126,-76,0,0,0,0,0,0,0,0,0,-1,1350,1100,0,0
133,-76,0,0,0,0,0,0,0,0,0,-1,1357,1100,0,0
140,-76,0,0,0,0,0,0,0,0,0,-1,1364,1100,0,0
147,-76,0,0,0,0,0,0,0,0,0,-1,1371,1100,0,0
154,-76,0,0,0,0,0,0,0,0,0,-1,1378,1100,0,0
161,-76,0,0,0,0,0,0,0,0,0,-1,1385,1100,0,0
168,-76,0,0,0,0,0,0,0,0,0,-1,1392,1100,0,0
175,-76,0,0,0,0,0,0,0,0,0,-1,1399,1100,0,0
182,-76,0,0,0,0,0,0,0,0,0,-1,1406,1100,0,0
189,-76,0,0,0,0,0,0,0,0,0,-1,1413,1100,0,0
196,-76,0,0,0,0,0,0,0,0,0,-1,1420,1100,0,0
203,-76,0,0,0,0,0,0,0,0,0,-1,1427,1100,0,0
210,-76,0,0,0,0,0,0,0,0,0,-1,1434,1100,0,0
217,-76,0,0,0,0,0,0,0,0,0,-1,1441,1100,0,0
224,-76,0,0,0,0,0,0,0,0,0,-1,1448,1100,0,0
231,-76,0,0,0,0,0,0,0,0,0,-1,1455,1100,0,0
238,-76,0,0,0,0,0,0,0,0,0,-1,1462,1100,0,0
245,-76,0,0,0,0,0,0,0,0,0,-1,1469,1100,0,0
252,-76,0,0,0,0,0,0,0,0,0,-1,1476,1100,0,0
259,-76,0,0,0,0,0,0,0,0,0,-1,1483,1100,0,0
266,-76,0,0,0,0,0,0,0,0,0,-1,1490,1100,0,0
273,-76,0,0,0,0,0,0,0,0,0,-1,1497,1100,0,0
280,-76,0,0,0,0,0,0,0,0,0,-1,1504,1100,0,0
287,-76,0,0,0,0,0,0,0,0,0,-1,1511,1100,0,0
294,-76,0,0,0,0,0,0,0,0,0,-1,1518,1100,0,0
301,-76,0,0,0,0,0,0,0,0,0,-1,1525,1100,0,0
308,-76,0,0,0,0,0,0,0,0,0,-1,1532,1100,0,0
315,-76,0,0,0,0,0,0,0,0,0,-1,1539,1100,0,0
322,-76,0,0,0,0,0,0,0,0,0,-1,1546,1100,0,0
329,-76,0,0,0,0,0,0,0,0,0,-1,1553,1100,0,0
336,-76,0,0,0,0,0,0,0,0,0,-1,1560,1100,0,0
343,-76,0,0,0,0,0,0,0,0,0,-1,1567,1100,0,0
350,-76,0,0,0,0,0,0,0,0,0,-1,1574,1100,0,0
357,-76,0,0,0,0,0,0,0,0,0,-1,1581,1100,0,0
364,-76,0,0,0,0,0,0,0,0,0,-1,1588,1100,0,0
371,-76,0,0,0,0,0,0,0,0,0,-1,1595,1100,0,0
378,-76,0,0,0,0,0,0,0,0,0,-1,1602,1100,0,0
385,-76,0,0,0,0,0,0,0,0,0,-1,1609,1100,0,0
392,-76,0,0,0,0,0,0,0,0,0,-1,1616,1100,0,0
399,-76,0,0,0,0,0,0,0,0,0,-1,1623,1100,0,0
406,-76,0,0,0,0,0,0,0,0,0,-1,1630,1100,0,0
413,-76,0,0,0,0,0,0,0,0,0,-1,1637,1100,0,0
420,-76,0,0,0,0,0,0,0,0,0,-1,1644,1100,0,0
427,-76,0,0,0,0,0,0,0,0,0,-1,1651,1100,0,0
434,-76,0,0,0,0,0,0,0,0,0,-1,1658,1100,0,0
441,-76,0,0,0,0,0,0,0,0,0,-1,1665,1100,0,0
448,-76,0,0,0,0,0,0,0,0,0,-1,1672,1100,0,0
455,-76,0,0,0,0,0,0,0,0,0,-1,1679,1100,0,0
462,-76,0,0,0,0,0,0,0,0,0,-1,1686,1100,0,0
469,-76,0,0,0,0,0,0,0,0,0,-1,1693,1100,0,0
476,-76,0,0,0,0,0,0,0,0,0,-1,1700,1100,0,0
483,-76,0,0,0,0,0,0,0,0,0,-1,1707,1100,0,0
490,-76,0,0,0,0,0,0,0,0,0,-1,1714,1100,0,0
497,-76,0,0,0,0,0,0,0,0,0,-1,1721,1100,0,0
504,-76,0,0,0,0,0,0,0,0,0,-1,1728,1100,0,0
511,-76,0,0,0,0,0,0,0,0,0,-1,1735,1100,0,0
518,-76,0,0,0,0,0,0,0,0,0,-1,1742,1100,0,0
525,-76,0,0,0,0,0,0,0,0,0,-1,1749,1100,0,0
532,-76,0,0,0,0,0,0,0,0,0,-1,1756,1100,0,0
539,-76,0,0,0,0,0,0,0,0,0,-1,1763,1100,0,0
546,-76,0,0,0,0,0,0,0,0,0,-1,1770,1100,0,0
553,-76,0,0,0,0,0,0,0,0,0,-1,1777,1100,0,0
560,-76,0,0,0,0,0,0,0,0,0,-1,1784,1100,0,0
567,-76,0,0,0,0,0,0,0,0,0,-1,1791,1100,0,0
574,-76,0,0,0,0,0,0,0,0,0,-1,1798,1100,0,0
581,-76,0,0,0,0,0,0,0,0,0,-1,1805,1100,0,0
588,-76,0,0,0,0,0,0,0,0,0,-1,1812,1100,0,0
595,-76,0,0,0,0,0,0,0,0,0,-1,1819,1100,0,0
602,-76,0,0,0,0,0,0,0,0,0,-1,1826,1100,0,0
609,-76,0,0,0,0,0,0,0,0,0,-1,1833,1100,0,0
616,-76,0,0,0,0,0,0,0,0,0,-1,1840,1100,0,0
623,-76,0,0,0,0,0,0,0,0,0,-1,1847,1100,0,0
630,-76,0,0,0,0,0,0,0,0,0,-1,1854,1100,0,0
637,-76,0,0,0,0,0,0,0,0,0,-1,1861,1100,0,0
644,-76,0,0,0,0,0,0,0,0,0,-1,1868,1100,0,0
651,-76,13.9545,1.78198,-0.00644355,-0.00248606,0.00142064,-0.0020289,-0.00690071,1.25946,0.00409528,0.0392763,1875,1100,13.9545,-1.782
658,-76,13.9115,1.76282,-0.00369915,-0.00179882,0.00106065,-0.00132498,-0.00417299,1.15065,0.00246219,0.0413956,1882,1100,13.9115,-1.76277
665,-76,13.9514,1.73608,-0.00200379,-0.00135567,0.000902361,-0.000720944,-0.00263851,0.957787,0.0015747,0.0383205,1889,1100,13.9514,-1.73608
672,-76,13.9824,1.83789,-0.0014683,-0.00132069,0.00140647,1.39109e-05,-0.0028029,0.811611,0.00187325,0.0352455,1896,1100,13.9824,-1.83783
679,-76,14.0892,1.82617,-0.00192164,-0.00149709,0.00231265,0.000613003,-0.00403173,0.831165,0.00291373,0.0382157,1903,1100,14.0893,-1.82618
686,-76,14.2327,1.73718,-0.00270047,-0.00172738,0.00320594,0.00102873,-0.00545657,0.860705,0.00402469,0.0393185,1910,1100,14.2327,-1.73724
693,-76,14.161,1.72363,-0.00357636,-0.00194293,0.00403715,0.00135929,-0.00687857,0.885201,0.00509956,0.0397271,1917,1100,14.161,-1.72363
700,-76,14.0253,1.74951,-0.00429637,-0.00202937,0.00474871,0.00171924,-0.00804499,0.902554,0.00601882,0.0314483,1924,1100,14.0253,-1.74945
707,-76,14.0568,1.85046,-0.00478783,-0.00206603,0.00523148,0.00197867,-0.00883252,0.912646,0.00664681,0.0190432,1931,1100,14.0568,-1.8505
714,-76,14.0632,1.97766,0,0,0,0,0,0,0,-1,1938,1100,14.0632,-1.97761
721,-76,13.9567,2.34583,-0.00551353,-0.00200941,0.00544617,0.00195958,-0.00948252,0.941023,0.00706604,0.0255968,1945,1100,13.9567,-2.34588
728,-76,13.7876,2.65112,-0.00557503,-0.00179486,0.00519606,0.00184421,-0.00921409,0.959835,0.00684083,0.0205322,1952,1100,13.7875,-2.65111
735,-76,13.6497,2.64099,-0.00523734,-0.00141395,0.0048249,0.00186417,-0.00851546,0.974017,0.00638966,0.0172842,1959,1100,13.6497,-2.641
742,-76,13.7158,2.60315,-0.00396418,-0.000909211,0.00438285,0.0022047,-0.00707809,0.953074,0.00560021,0.0125992,1966,1100,13.7159,-2.60313
749,-76,13.698,2.59253,-0.00199404,0.000261809,0.0037799,0.00307849,-0.00481072,0.930392,0.00459129,0.0137782,1973,1100,13.698,-2.59254
756,-76,13.6978,2.60205,0.000187344,0.00183634,0.00313864,0.00425697,-0.00223329,0.913842,0.00380738,0.0146224,1980,1100,13.6978,-2.60208
763,-76,13.698,2.5415,0.00284169,0.00377172,0.0025171,0.0058664,0.000747007,0.87674,0.00368724,0.0153196,1987,1100,13.698,-2.54146
770,-76,13.7145,2.48535,0.0060252,0.00624698,0.00204499,0.00818409,0.0040881,0.812484,0.00472509,0.0147777,1994,1100,13.7145,-2.48531
777,-76,13.7166,2.49011,0.00955096,0.00930924,0.00206372,0.0114974,0.00736284,0.756149,0.00672466,0.0172849,2001,1100,13.7166,-2.4901
784,-76,13.7072,2.44531,0.013326,0.0132511,0.00270473,0.0159935,0.0105835,0.778477,0.00939351,0.0301603,2008,1100,13.7072,-2.44529
791,-76,13.6771,2.44775,0.0177496,0.0184682,0.00365284,0.0217794,0.0144385,0.834421,0.012795,0.0417611,2015,1100,13.6772,-2.44772
798,-76,13.8926,2.76404,0.023095,0.0253428,0.00479956,0.0291483,0.0192895,0.900409,0.0171199,0.042215,2022,1100,13.8926,-2.76408
805,-76,13.8123,3.0022,0.0293327,0.0343264,0.00616851,0.0384842,0.0251749,0.977705,0.0225682,0.0458577,2029,1100,13.8122,-3.00217
812,-76,13.7576,3.33582,0.0363265,0.0459913,0.0076465,0.0502044,0.0321134,1.0672,0.02936,0.0482618,2036,1100,13.7575,-3.33581
-700,-83,0,0,0,0,0,0,0,0,0,-1,524,1107,0,0
-693,-83,-4.9317,-1.08325,0.0635096,0.0644509,0.0575585,0.121541,0.00641987,0.789486,0.0789742,0.0465233,531,1107,-4.93169,1.08328
-686,-83,-4.97247,-0.674805,0.0528758,0.0490577,0.048319,0.0993234,0.00261012,0.765654,0.065363,0.0448125,538,1107,-4.97247,0.674758
-679,-83,-6.69843,0.424194,0,0,0,0,0,0,0,-1,545,1107,-6.69844,-0.424192
-672,-83,-6.85736,0.477661,0.0312514,0.0264515,0.0311244,0.0600683,-0.00236538,0.746921,0.0408568,0.0476515,552,1107,-6.85733,-0.477667
-665,-83,-6.58191,-0.466064,0.0221889,0.0186129,0.0238865,0.0443543,-0.00355245,0.748041,0.030822,0.0481437,559,1107,-6.5819,0.466076
-658,-83,-7.44092,-0.017334,0.0148307,0.0126763,0.01776,0.0315461,-0.00403909,0.755108,0.0224983,0.0428289,566,1107,-7.44093,0.017368
-651,-83,-8.0163,0.415649,0.00926211,0.00833048,0.0127804,0.0215852,-0.00399261,0.767182,0.0158891,0.028829,573,1107,-8.01632,-0.415593
-644,-83,-7.98492,0.465454,0.00542734,0.00520646,0.0089415,0.0142591,-0.00362528,0.779223,0.010917,0.0137246,580,1107,-7.98494,-0.465434
-637,-83,-8.00311,0.529175,0.00320537,0.00244354,0.00499871,0.00783765,-0.00218875,0.74737,0.00608729,0.0108513,587,1107,-8.00309,-0.529179
-630,-83,-8.01404,0.588501,-0.00103098,9.90883e-05,0.00154715,0.00118115,-0.00211304,0.960478,0.0019271,0.0157091,594,1107,-8.01405,-0.588559
-623,-83,-8.00824,0.619385,-0.00310875,-0.000665204,-0.00112099,-0.000228864,-0.00354509,-1.19959,0.00229092,0.0143618,601,1107,-8.00825,-0.619419
-616,-83,-8.01892,0.656738,-0.00300059,-0.000704376,-0.00222658,0.000652678,-0.00435764,-1.02344,0.00314531,0.00986783,608,1107,-8.01895,-0.656777
-609,-83,-8.0343,0.744385,-0.00242986,-0.00034356,-0.00314426,0.00192608,-0.0046995,-0.945567,0.0039354,0.0104182,615,1107,-8.03429,-0.744417
-602,-83,-8.02625,0.819824,-0.00213288,-0.000418975,-0.00394529,0.00276136,-0.00531321,-0.892341,0.00473882,0.0132081,622,1107,-8.02624,-0.819844
-595,-83,-7.99811,0.870361,-0.00238249,-0.000546049,-0.00455233,0.00317974,-0.00610828,-0.884915,0.00545057,0.0157401,629,1107,-7.99809,-0.870418
-588,-83,-8.06122,0.669067,-0.00266468,-0.000714124,-0.00497,0.00337539,-0.00675419,-0.882283,0.00595577,0.0255905,636,1107,-8.06124,-0.669102
-581,-83,-8.22382,0.233521,-0.00269218,-0.000807407,-0.00521493,0.0035496,-0.00704919,-0.874788,0.00622941,0.0327462,643,1107,-8.22381,-0.233481
-574,-83,-8.16888,0.0491943,-0.00265003,-0.000980676,-0.00530989,0.00355974,-0.00719044,-0.863357,0.00632351,0.0366815,650,1107,-8.16888,-0.0491621
-567,-83,-8.07684,0.267578,-0.00250503,-0.00114918,-0.00521125,0.00342806,-0.00708226,-0.850079,0.00618918,0.0415003,657,1107,-8.07685,-0.267582
-560,-83,-8.07245,0.512817,-0.00216844,-0.00145024,-0.00497841,0.003182,-0.00680068,-0.821401,0.00588837,0.043347,664,1107,-8.07244,-0.512841
-553,-83,-8.16132,0.508789,-0.00161706,-0.00196914,-0.00468992,0.00290013,-0.00648632,-0.766639,0.00554955,0.0421847,671,1107,-8.16133,-0.508735
-546,-83,-8.27911,0.470703,-0.000780223,-0.00280242,-0.00441004,0.00273314,-0.00631579,-0.67271,0.00535916,0.0383032,678,1107,-8.27908,-0.470731
-539,-83,-8.39288,0.410889,0.000443767,-0.00407114,-0.00433519,0.00307405,-0.00670143,-0.545352,0.00577194,0.0417796,685,1107,-8.39289,-0.41083
-532,-83,-8.30566,0.303101,0.00153715,-0.00613473,-0.0055008,0.00440741,-0.00900499,-0.480928,0.00789385,0.0445736,692,1107,-8.30568,-0.303149
-525,-83,0,0,0,0,0,0,0,0,0,-1,699,1107,0,0
-518,-83,0,0,0,0,0,0,0,0,0,-1,706,1107,0,0
-511,-83,0,0,0,0,0,0,0,0,0,-1,713,1107,0,0
-504,-83,0,0,0,0,0,0,0,0,0,-1,720,1107,0,0
-497,-83,0,0,0,0,0,0,0,0,0,-1,727,1107,0,0
-490,-83,0,0,0,0,0,0,0,0,0,-1,734,1107,0,0
-483,-83,0,0,0,0,0,0,0,0,0,-1,741,1107,0,0
-476,-83,0,0,0,0,0,0,0,0,0,-1,748,1107,0,0
-469,-83,0,0,0,0,0,0,0,0,0,-1,755,1107,0,0
-462,-83,0,0,0,0,0,0,0,0,0,-1,762,1107,0,0
-455,-83,0,0,0,0,0,0,0,0,0,-1,769,1107,0,0
-448,-83,0,0,0,0,0,0,0,0,0,-1,776,1107,0,0
-441,-83,0,0,0,0,0,0,0,0,0,-1,783,1107,0,0
-434,-83,0,0,0,0,0,0,0,0,0,-1,790,1107,0,0
-427,-83,0,0,0,0,0,0,0,0,0,-1,797,1107,0,0
-420,-83,0,0,0,0,0,0,0,0,0,-1,804,1107,0,0
-413,-83,0,0,0,0,0,0,0,0,0,-1,811,1107,0,0
-406,-83,0,0,0,0,0,0,0,0,0,-1,818,1107,0,0
-399,-83,0,0,0,0,0,0,0,0,0,-1,825,1107,0,0
-392,-83,0,0,0,0,0,0,0,0,0,-1,832,1107,0,0
-385,-83,0,0,0,0,0,0,0,0,0,-1,839,1107,0,0
-378,-83,0,0,0,0,0,0,0,0,0,-1,846,1107,0,0
-371,-83,0,0,0,0,0,0,0,0,0,-1,853,1107,0,0
-364,-83,0,0,0,0,0,0,0,0,0,-1,860,1107,0,0
-357,-83,0,0,0,0,0,0,0,0,0,-1,867,1107,0,0
-350,-83,0,0,0,0,0,0,0,0,0,-1,874,1107,0,0
-343,-83,0,0,0,0,0,0,0,0,0,-1,881,1107,0,0
-336,-83,0,0,0,0,0,0,0,0,0,-1,888,1107,0,0
-329,-83,0,0,0,0,0,0,0,0,0,-1,895,1107,0,0
-322,-83,0,0,0,0,0,0,0,0,0,-1,902,1107,0,0
-315,-83,0,0,0,0,0,0,0,0,0,-1,909,1107,0,0
-308,-83,0,0,0,0,0,0,0,0,0,-1,916,1107,0,0
-301,-83,0,0,0,0,0,0,0,0,0,-1,923,1107,0,0
-294,-83,0,0,0,0,0,0,0,0,0,-1,930,1107,0,0
-287,-83,0,0,0,0,0,0,0,0,0,-1,937,1107,0,0
-280,-83,0,0,0,0,0,0,0,0,0,-1,944,1107,0,0
-273,-83,0,0,0,0,0,0,0,0,0,-1,951,1107,0,0
-266,-83,0,0,0,0,0,0,0,0,0,-1,958,1107,0,0
-259,-83,0,0,0,0,0,0,0,0,0,-1,965,1107,0,0
-252,-83,0,0,0,0,0,0,0,0,0,-1,972,1107,0,0
-245,-83,0,0,0,0,0,0,0,0,0,-1,979,1107,0,0
-238,-83,0,0,0,0,0,0,0,0,0,-1,986,1107,0,0
-231,-83,0,0,0,0,0,0,0,0,0,-1,993,1107,0,0
-224,-83,0,0,0,0,0,0,0,0,0,-1,1000,1107,0,0
-217,-83,0,0,0,0,0,0,0,0,0,-1,1007,1107,0,0
-210,-83,0,0,0,0,0,0,0,0,0,-1,1014,1107,0,0
-203,-83,0,0,0,0,0,0,0,0,0,-1,1021,1107,0,0
-196,-83,0,0,0,0,0,0,0,0,0,-1,1028,1107,0,0
-189,-83,0,0,0,0,0,0,0,0,0,-1,1035,1107,0,0
-182,-83,0,0,0,0,0,0,0,0,0,-1,1042,1107,0,0
-175,-83,0,0,0,0,0,0,0,0,0,-1,1049,1107,0,0
-168,-83,0,0,0,0,0,0,0,0,0,-1,1056,1107,0,0
-161,-83,0,0,0,0,0,0,0,0,0,-1,1063,1107,0,0
-154,-83,0,0,0,0,0,0,0,0,0,-1,1070,1107,0,0
-147,-83,0,0,0,0,0,0,0,0,0,-1,1077,1107,0,0
-140,-83,0,0,0,0,0,0,0,0,0,-1,1084,1107,0,0
-133,-83,0,0,0,0,0,0,0,0,0,-1,1091,1107,0,0
-126,-83,0,0,0,0,0,0,0,0,0,-1,1098,1107,0,0
-119,-83,0,0,0,0,0,0,0,0,0,-1,1105,1107,0,0
-112,-83,0,0,0,0,0,0,0,0,0,-1,1112,1107,0,0
-105,-83,0,0,0,0,0,0,0,0,0,-1,1119,1107,0,0
-98,-83,0,0,0,0,0,0,0,0,0,-1,1126,1107,0,0
-91,-83,0,0,0,0,0,0,0,0,0,-1,1133,1107,0,0
-84,-83,0,0,0,0,0,0,0,0,0,-1,1140,1107,0,0
-77,-83,0,0,0,0,0,0,0,0,0,-1,1147,1107,0,0
-70,-83,0,0,0,0,0,0,0,0,0,-1,1154,1107,0,0
-63,-83,0,0,0,0,0,0,0,0,0,-1,1161,1107,0,0
-56,-83,0,0,0,0,0,0,0,0,0,-1,1168,1107,0,0
-49,-83,0,0,0,0,0,0,0,0,0,-1,1175,1107,0,0
-42,-83,0,0,0,0,0,0,0,0,0,-1,1182,1107,0,0
-35,-83,0,0,0,0,0,0,0,0,0,-1,1189,1107,0,0
-28,-83,0,0,0,0,0,0,0,0,0,-1,1196,1107,0,0
-21,-83,0,0,0,0,0,0,0,0,0,-1,1203,1107,0,0
-14,-83,0,0,0,0,0,0,0,0,0,-1,1210,1107,0,0
-7,-83,0,0,0,0,0,0,0,0,0,-1,1217,1107,0,0
0,-83,0,0,0,0,0,0,0,0,0,-1,1224,1107,0,0
7,-83,0,0,0,0,0,0,0,0,0,-1,1231,1107,0,0
14,-83,0,0,0,0,0,0,0,0,0,-1,1238,1107,0,0
21,-83,0,0,0,0,0,0,0,0,0,-1,1245,1107,0,0
28,-83,0,0,0,0,0,0,0,0,0,-1,1252,1107,0,0
35,-83,0,0,0,0,0,0,0,0,0,-1,1259,1107,0,0
42,-83,0,0,0,0,0,0,0,0,0,-1,1266,1107,0,0
49,-83,0,0,0,0,0,0,0,0,0,-1,1273,1107,0,0
56,-83,0,0,0,0,0,0,0,0,0,-1,1280,1107,0,0
63,-83,0,0,0,0,0,0,0,0,0,-1,1287,1107,0,0
70,-83,0,0,0,0,0,0,0,0,0,-1,1294,1107,0,0
77,-83,0,0,0,0,0,0,0,0,0,-1,1301,1107,0,0
84,-83,0,0,0,0,0,0,0,0,0,-1,1308,1107,0,0
91,-83,0,0,0,0,0,0,0,0,0,-1,1315,1107,0,0
98,-83,0,0,0,0,0,0,0,0,0,-1,1322,1107,0,0
105,-83,0,0,0,0,0,0,0,0,0,-1,1329,1107,0,0
112,-83,0,0,0,0,0,0,0,0,0,-1,1336,1107,0,0
119,-83,0,0,0,0,0,0,0,0,0,-1,1343,1107,0,0
126,-83,0,0,0,0,0,0,0,0,0,-1,1350,1107,0,0
133,-83,0,0,0,0,0,0,0,0,0,-1,1357,1107,0,0
140,-83,0,0,0,0,0,0,0,0,0,-1,1364,1107,0,0
147,-83,0,0,0,0,0,0,0,0,0,-1,1371,1107,0,0
154,-83,0,0,0,0,0,0,0,0,0,-1,1378,1107,0,0
161,-83,0,0,0,0,0,0,0,0,0,-1,1385,1107,0,0
168,-83,0,0,0,0,0,0,0,0,0,-1,1392,1107,0,0
175,-83,0,0,0,0,0,0,0,0,0,-1,1399,1107,0,0
182,-83,0,0,0,0,0,0,0,0,0,-1,1406,1107,0,0
189,-83,0,0,0,0,0,0,0,0,0,-1,1413,1107,0,0
196,-83,0,0,0,0,0,0,0,0,0,-1,1420,1107,0,0
203,-83,0,0,0,0,0,0,0,0,0,-1,1427,1107,0,0
210,-83,0,0,0,0,0,0,0,0,0,-1,1434,1107,0,0
217,-83,0,0,0,0,0,0,0,0,0,-1,1441,1107,0,0
224,-83,0,0,0,0,0,0,0,0,0,-1,1448,1107,0,0
231,-83,0,0,0,0,0,0,0,0,0,-1,1455,1107,0,0
238,-83,0,0,0,0,0,0,0,0,0,-1,1462,1107,0,0
245,-83,0,0,0,0,0,0,0,0,0,-1,1469,1107,0,0
252,-83,0,0,0,0,0,0,0,0,0,-1,1476,1107,0,0
259,-83,0,0,0,0,0,0,0,0,0,-1,1483,1107,0,0
266,-83,0,0,0,0,0,0,0,0,0,-1,1490,1107,0,0
273,-83,0,0,0,0,0,0,0,0,0,-1,1497,1107,0,0
280,-83,0,0,0,0,0,0,0,0,0,-1,1504,1107,0,0
287,-83,0,0,0,0,0,0,0,0,0,-1,1511,1107,0,0
294,-83,0,0,0,0,0,0,0,0,0,-1,1518,1107,0,0
301,-83,0,0,0,0,0,0,0,0,0,-1,1525,1107,0,0
308,-83,0,0,0,0,0,0,0,0,0,-1,1532,1107,0,0
315,-83,0,0,0,0,0,0,0,0,0,-1,1539,1107,0,0
322,-83,0,0,0,0,0,0,0,0,0,-1,1546,1107,0,0
329,-83,0,0,0,0,0,0,0,0,0,-1,1553,1107,0,0
336,-83,0,0,0,0,0,0,0,0,0,-1,1560,1107,0,0
343,-83,0,0,0,0,0,0,0,0,0,-1,1567,1107,0,0
350,-83,0,0,0,0,0,0,0,0,0,-1,1574,1107,0,0
357,-83,0,0,0,0,0,0,0,0,0,-1,1581,1107,0,0
364,-83,0,0,0,0,0,0,0,0,0,-1,1588,1107,0,0
371,-83,0,0,0,0,0,0,0,0,0,-1,1595,1107,0,0
378,-83,0,0,0,0,0,0,0,0,0,-1,1602,1107,0,0
385,-83,0,0,0,0,0,0,0,0,0,-1,1609,1107,0,0
392,-83,0,0,0,0,0,0,0,0,0,-1,1616,1107,0,0
399,-83,0,0,0,0,0,0,0,0,0,-1,1623,1107,0,0
406,-83,0,0,0,0,0,0,0,0,0,-1,1630,1107,0,0
413,-83,0,0,0,0,0,0,0,0,0,-1,1637,1107,0,0
420,-83,0,0,0,0,0,0,0,0,0,-1,1644,1107,0,0
427,-83,0,0,0,0,0,0,0,0,0,-1,1651,1107,0,0
434,-83,0,0,0,0,0,0,0,0,0,-1,1658,1107,0,0
441,-83,0,0,0,0,0,0,0,0,0,-1,1665,1107,0,0
448,-83,0,0,0,0,0,0,0,0,0,-1,1672,1107,0,0
455,-83,0,0,0,0,0,0,0,0,0,-1,1679,1107,0,0
462,-83,0,0,0,0,0,0,0,0,0,-1,1686,1107,0,0
469,-83,0,0,0,0,0,0,0,0,0,-1,1693,1107,0,0
476,-83,0,0,0,0,0,0,0,0,0,-1,1700,1107,0,0
483,-83,0,0,0,0,0,0,0,0,0,-1,1707,1107,0,0
490,-83,0,0,0,0,0,0,0,0,0,-1,1714,1107,0,0
497,-83,0,0,0,0,0,0,0,0,0,-1,1721,1107,0,0
504,-83,0,0,0,0,0,0,0,0,0,-1,1728,1107,0,0
511,-83,0,0,0,0,0,0,0,0,0,-1,1735,1107,0,0
518,-83,0,0,0,0,0,0,0,0,0,-1,1742,1107,0,0
525,-83,0,0,0,0,0,0,0,0,0,-1,1749,1107,0,0
532,-83,0,0,0,0,0,0,0,0,0,-1,1756,1107,0,0
539,-83,0,0,0,0,0,0,0,0,0,-1,1763,1107,0,0
546,-83,0,0,0,0,0,0,0,0,0,-1,1770,1107,0,0
553,-83,0,0,0,0,0,0,0,0,0,-1,1777,1107,0,0
560,-83,0,0,0,0,0,0,0,0,0,-1,1784,1107,0,0
567,-83,0,0,0,0,0,0,0,0,0,-1,1791,1107,0,0
574,-83,0,0,0,0,0,0,0,0,0,-1,1798,1107,0,0
581,-83,0,0,0,0,0,0,0,0,0,-1,1805,1107,0,0
588,-83,0,0,0,0,0,0,0,0,0,-1,1812,1107,0,0
595,-83,0,0,0,0,0,0,0,0,0,-1,1819,1107,0,0
602,-83,0,0,0,0,0,0,0,0,0,-1,1826,1107,0,0
609,-83,0,0,0,0,0,0,0,0,0,-1,1833,1107,0,0
616,-83,0,0,0,0,0,0,0,0,0,-1,1840,1107,0,0
623,-83,0,0,0,0,0,0,0,0,0,-1,1847,1107,0,0
630,-83,0,0,0,0,0,0,0,0,0,-1,1854,1107,0,0
637,-83,0,0,0,0,0,0,0,0,0,-1,1861,1107,0,0
644,-83,14.083,1.7998,-0.00936179,-0.00407039,-3.20456e-05,-0.0040702,-0.00936198,-1.56474,0.00542046,0.0343702,1868,1107,14.0829,-1.79983
651,-83,13.9501,1.74268,-0.00563596,-0.002991,0.000158458,-0.00298154,-0.00564542,1.51117,0.0032611,0.0386855,1875,1107,13.95,-1.74271
658,-83,13.8744,1.6626,-0.00308997,-0.00222462,0.000110451,-0.00221075,-0.00310385,1.44583,0.00184505,0.0431535,1882,1107,13.8744,-1.66256
665,-83,13.9431,1.65112,-0.00158775,-0.00175054,0.000281051,-0.00137654,-0.00196175,0.644447,0.00116293,0.0390365,1889,1107,13.9431,-1.65115
672,-83,14.0121,1.8269,-0.00126364,-0.00169156,0.00107203,-0.000384431,-0.00257077,0.686899,0.00160116,0.0359029,1896,1107,14.0121,-1.82688
679,-83,14.103,2.03394,-0.00182967,-0.00182952,0.00214331,0.000313714,-0.00397291,0.785416,0.00275913,0.0383666,1903,1107,14.103,-2.03395
686,-83,14.2198,2.00403,-0.0026722,-0.00202403,0.00313655,0.000805139,-0.00550137,0.836878,0.00396331,0.0365357,1910,1107,14.2199,-2.00406
693,-83,14.203,2.07288,-0.00358498,-0.00220579,0.00402118,0.0011845,-0.00697526,0.870318,0.00509115,0.036955,1917,1107,14.203,-2.07288
700,-83,14.1194,1.94348,-0.00429719,-0.00226086,0.00475236,0.00158119,-0.00813923,0.890925,0.0060228,0.0301116,1924,1107,14.1194,-1.94345
707,-83,14.0652,1.83667,-0.00479799,-0.00225197,0.00525369,0.00188074,-0.0089307,0.904261,0.0066697,0.0190663,1931,1107,14.0652,-1.83663
714,-83,14.0321,2.12817,0,0,0,0,0,0,0,-1,1938,1107,14.0321,-2.12819
721,-83,13.7955,2.49841,-0.00551615,-0.00210227,0.00545353,0.00190521,-0.00952363,0.937067,0.00707025,0.0205401,1945,1107,13.7956,-2.49835
728,-83,13.6459,2.66553,-0.00552699,-0.00186369,0.00516571,0.00178549,-0.00917618,0.955772,0.00679131,0.0196768,1952,1107,13.6459,-2.66554
735,-83,13.619,2.62073,-0.00517137,-0.00147349,0.00477729,0.00180017,-0.00844504,0.970035,0.00631618,0.0195768,1959,1107,13.619,-2.62069
742,-83,13.6742,2.61133,-0.00395826,-0.000945521,0.00431971,0.00212294,-0.00702672,0.953165,0.00552968,0.0122062,1966,1107,13.6742,-2.61133
749,-83,13.6758,2.60889,-0.00212543,0.000288116,0.00373051,0.00300219,-0.0048395,0.94183,0.00456864,0.011153,1973,1107,13.6758,-2.60894
756,-83,13.6868,2.58032,-7.25136e-05,0.00189205,0.0032191,0.0042754,-0.00245586,0.933482,0.00393334,0.0139868,1980,1107,13.6867,-2.58036
763,-83,13.6978,2.51868,0.00248276,0.00390436,0.00264768,0.00593499,0.000452135,0.916537,0.00381489,0.0120574,1987,1107,13.6978,-2.51866
770,-83,13.6937,2.47705,0.00548402,0.00643483,0.00230154,0.00830956,0.0036093,0.887246,0.00481129,0.0136127,1994,1107,13.6937,-2.47707
777,-83,13.6858,2.46558,0.00874622,0.00955152,0.00251079,0.0116917,0.006606,0.864905,0.00676923,0.0143022,2001,1107,13.6858,-2.46553
784,-83,13.6265,2.46826,0.0122585,0.0135788,0.00335277,0.0163358,0.0095015,0.882609,0.00947329,0.0239973,2008,1107,13.6265,-2.46831
791,-83,13.5826,2.47766,0.0164428,0.0189135,0.00453788,0.0223811,0.0129751,0.918292,0.0129764,0.0432054,2015,1107,13.5826,-2.47767
798,-83,13.4766,3.20923,0.0215715,0.0259261,0.00600094,0.0301325,0.0173651,0.959425,0.0174644,0.0487277,2022,1107,13.4765,-3.20928
805,-83,13.8037,3.25989,0,0,0,0,0,0,0,-1,2029,1107,13.8037,-3.25992
812,-83,13.6802,3.00171,0,0,0,0,0,0,0,-1,2036,1107,13.6801,-3.00176
-700,-90,0,0,0,0,0,0,0,0,0,-1,524,1114,0,0
-693,-90,-5.95367,-1.10217,0.0626806,0.0716283,0.06825,0.135551,-0.00124203,0.818127,0.0907841,0.0475024,531,1114,-5.95367,1.10222
-686,-90,-6.1994,-0.96106,0.0534053,0.0538883,0.0564645,0.110112,-0.00281823,0.787537,0.074365,0.0428111,538,1114,-6.19942,0.96102
-679,-90,-7.02789,-0.681519,0,0,0,0,0,0,0,-1,545,1114,-7.02792,0.681567
-672,-90,-7.0155,-0.450317,0.0329748,0.0283792,0.0355742,0.0663254,-0.00497132,0.753147,0.0459637,0.0452402,552,1114,-7.01549,0.450316
-665,-90,-6.98755,-0.261597,0.0240401,0.0196986,0.0270538,0.04901,-0.00527138,0.745365,0.0345647,0.0499941,559,1114,-6.98753,0.261611
-658,-90,-7.74347,0.18689,0.0166146,0.0132018,0.019941,0.0349221,-0.00510563,0.742717,0.0251566,0.043264,566,1114,-7.74345,-0.186936
-651,-90,-7.90765,0.285278,0.010852,0.00850686,0.0142218,0.0239495,-0.00459067,0.744268,0.0176962,0.0295728,573,1114,-7.90766,-0.285234
-644,-90,-7.96106,0.418579,0.00674126,0.00519958,0.00983535,0.0158359,-0.00389509,0.746291,0.0120671,0.013389,580,1114,-7.96104,-0.418575
-637,-90,-7.95074,0.513672,0.00434154,0.0022764,0.00552386,0.00892852,-0.00231057,0.693,0.00685362,0.0112381,587,1114,-7.95074,-0.513721
-630,-90,-7.94788,0.579102,-6.36197e-05,-0.000224557,0.0016607,0.00151856,-0.00180674,0.76119,0.00192226,0.0108753,594,1114,-7.94785,-0.579074
-623,-90,-7.95398,0.620239,-0.00265969,-0.00110045,-0.00127431,-0.00038619,-0.00337394,-1.05992,0.00213225,0.00860038,601,1114,-7.95396,-0.62029
-616,-90,-7.97137,0.682251,-0.00299059,-0.000959491,-0.00244588,0.000673292,-0.00462338,-0.982172,0.00332945,0.00704165,608,1114,-7.9714,-0.682214
-609,-90,-7.97717,0.749023,-0.00264021,-0.00049303,-0.00335006,0.00195126,-0.0050845,-0.940462,0.00419422,0.010321,615,1114,-7.97718,-0.748977
-602,-90,-7.97614,0.805298,-0.00252446,-0.000454324,-0.00413994,0.00277798,-0.00575676,-0.907897,0.00502658,0.0107426,622,1114,-7.97616,-0.80528
-595,-90,-7.92987,0.861328,-0.00289885,-0.000533859,-0.0047112,0.00314098,-0.00657368,-0.908356,0.00572429,0.0129148,629,1114,-7.92988,-0.861343
-588,-90,-7.93604,0.746582,-0.00324068,-0.000669265,-0.0051128,0.00331701,-0.00722695,-0.908578,0.00622551,0.0213733,636,1114,-7.93603,-0.746642
-581,-90,-8.21136,0.339355,-0.00328591,-0.0007435,-0.00537387,0.00350747,-0.00753688,-0.90154,0.00651638,0.0320664,643,1114,-8.21135,-0.339315
-574,-90,-8.18658,0.155762,-0.00322908,-0.000869134,-0.00545742,0.00353442,-0.00763264,-0.891867,0.00659044,0.0348201,650,1114,-8.18658,-0.155734
-567,-90,-8.14423,0.167114,-0.00302436,-0.000975646,-0.00534047,0.00343782,-0.00743783,-0.880153,0.00641906,0.0369534,657,1114,-8.14425,-0.16711
-560,-90,-8.11346,0.300049,0,0,0,0,0,0,0,-1,664,1114,-8.11349,-0.300002
-553,-90,-8.21021,0.626343,-0.00179908,-0.00168807,-0.00479243,0.00304917,-0.00653632,-0.791189,0.00565494,0.0379019,671,1114,-8.21019,-0.626371
-546,-90,-8.37805,0.739868,-0.000673918,-0.00251492,-0.00454025,0.00303821,-0.00622705,-0.685382,0.00545388,0.0381203,678,1114,-8.37803,-0.739836
-539,-90,-8.36682,0.598267,0.00094227,-0.00384276,-0.00451373,0.00365837,-0.00655886,-0.541698,0.00597762,0.0407386,685,1114,-8.36685,-0.598248
-532,-90,-8.31763,0.248535,0.00253079,-0.00604082,-0.00573617,0.00540542,-0.00891544,-0.464559,0.00835052,0.0418987,692,1114,-8.31764,-0.248562
-525,-90,0,0,0,0,0,0,0,0,0,-1,699,1114,0,0
-518,-90,0,0,0,0,0,0,0,0,0,-1,706,1114,0,0
-511,-90,0,0,0,0,0,0,0,0,0,-1,713,1114,0,0
-504,-90,0,0,0,0,0,0,0,0,0,-1,720,1114,0,0
-497,-90,0,0,0,0,0,0,0,0,0,-1,727,1114,0,0
-490,-90,0,0,0,0,0,0,0,0,0,-1,734,1114,0,0
-483,-90,0,0,0,0,0,0,0,0,0,-1,741,1114,0,0
-476,-90,0,0,0,0,0,0,0,0,0,-1,748,1114,0,0
-469,-90,0,0,0,0,0,0,0,0,0,-1,755,1114,0,0
-462,-90,0,0,0,0,0,0,0,0,0,-1,762,1114,0,0
-455,-90,0,0,0,0,0,0,0,0,0,-1,769,1114,0,0
-448,-90,0,0,0,0,0,0,0,0,0,-1,776,1114,0,0
-441,-90,0,0,0,0,0,0,0,0,0,-1,783,1114,0,0
-434,-90,0,0,0,0,0,0,0,0,0,-1,790,1114,0,0
-427,-90,0,0,0,0,0,0,0,0,0,-1,797,1114,0,0
-420,-90,0,0,0,0,0,0,0,0,0,-1,804,1114,0,0
-413,-90,0,0,0,0,0,0,0,0,0,-1,811,1114,0,0
-406,-90,0,0,0,0,0,0,0,0,0,-1,818,1114,0,0
-399,-90,0,0,0,0,0,0,0,0,0,-1,825,1114,0,0
-392,-90,0,0,0,0,0,0,0,0,0,-1,832,1114,0,0
-385,-90,0,0,0,0,0,0,0,0,0,-1,839,1114,0,0
-378,-90,0,0,0,0,0,0,0,0,0,-1,846,1114,0,0
-371,-90,0,0,0,0,0,0,0,0,0,-1,853,1114,0,0
-364,-90,0,0,0,0,0,0,0,0,0,-1,860,1114,0,0
-357,-90,0,0,0,0,0,0,0,0,0,-1,867,1114,0,0
-350,-90,0,0,0,0,0,0,0,0,0,-1,874,1114,0,0
-343,-90,0,0,0,0,0,0,0,0,0,-1,881,1114,0,0
-336,-90,0,0,0,0,0,0,0,0,0,-1,888,1114,0,0
-329,-90,0,0,0,0,0,0,0,0,0,-1,895,1114,0,0
-322,-90,0,0,0,0,0,0,0,0,0,-1,902,1114,0,0
-315,-90,0,0,0,0,0,0,0,0,0,-1,909,1114,0,0
-308,-90,0,0,0,0,0,0,0,0,0,-1,916,1114,0,0
-301,-90,0,0,0,0,0,0,0,0,0,-1,923,1114,0,0
-294,-90,0,0,0,0,0,0,0,0,0,-1,930,1114,0,0
-287,-90,0,0,0,0,0,0,0,0,0,-1,937,1114,0,0
-280,-90,0,0,0,0,0,0,0,0,0,-1,944,1114,0,0
-273,-90,0,0,0,0,0,0,0,0,0,-1,951,1114,0,0
-266,-90,0,0,0,0,0,0,0,0,0,-1,958,1114,0,0
-259,-90,0,0,0,0,0,0,0,0,0,-1,965,1114,0,0
-252,-90,0,0,0,0,0,0,0,0,0,-1,972,1114,0,0
-245,-90,0,0,0,0,0,0,0,0,0,-1,979,1114,0,0
-238,-90,0,0,0,0,0,0,0,0,0,-1,986,1114,0,0
-231,-90,0,0,0,0,0,0,0,0,0,-1,993,1114,0,0
-224,-90,0,0,0,0,0,0,0,0,0,-1,1000,1114,0,0
-217,-90,0,0,0,0,0,0,0,0,0,-1,1007,1114,0,0
-210,-90,0,0,0,0,0,0,0,0,0,-1,1014,1114,0,0
-203,-90,0,0,0,0,0,0,0,0,0,-1,1021,1114,0,0
-196,-90,0,0,0,0,0,0,0,0,0,-1,1028,1114,0,0
-189,-90,0,0,0,0,0,0,0,0,0,-1,1035,1114,0,0
-182,-90,0,0,0,0,0,0,0,0,0,-1,1042,1114,0,0
-175,-90,0,0,0,0,0,0,0,0,0,-1,1049,1114,0,0
-168,-90,0,0,0,0,0,0,0,0,0,-1,1056,1114,0,0
-161,-90,0,0,0,0,0,0,0,0,0,-1,1063,1114,0,0
-154,-90,0,0,0,0,0,0,0,0,0,-1,1070,1114,0,0
-147,-90,0,0,0,0,0,0,0,0,0,-1,1077,1114,0,0
-140,-90,0,0,0,0,0,0,0,0,0,-1,1084,1114,0,0
-133,-90,0,0,0,0,0,0,0,0,0,-1,1091,1114,0,0
-126,-90,0,0,0,0,0,0,0,0,0,-1,1098,1114,0,0
-119,-90,0,0,0,0,0,0,0,0,0,-1,1105,1114,0,0
-112,-90,0,0,0,0,0,0,0,0,0,-1,1112,1114,0,0
-105,-90,0,0,0,0,0,0,0,0,0,-1,1119,1114,0,0
-98,-90,0,0,0,0,0,0,0,0,0,-1,1126,1114,0,0
-91,-90,0,0,0,0,0,0,0,0,0,-1,1133,1114,0,0
-84,-90,0,0,0,0,0,0,0,0,0,-1,1140,1114,0,0
-77,-90,0,0,0,0,0,0,0,0,0,-1,1147,1114,0,0
-70,-90,0,0,0,0,0,0,0,0,0,-1,1154,1114,0,0
-63,-90,0,0,0,0,0,0,0,0,0,-1,1161,1114,0,0
-56,-90,0,0,0,0,0,0,0,0,0,-1,1168,1114,0,0
-49,-90,0,0,0,0,0,0,0,0,0,-1,1175,1114,0,0
-42,-90,0,0,0,0,0,0,0,0,0,-1,1182,1114,0,0
-35,-90,0,0,0,0,0,0,0,0,0,-1,1189,1114,0,0
-28,-90,0,0,0,0,0,0,0,0,0,-1,1196,1114,0,0
-21,-90,0,0,0,0,0,0,0,0,0,-1,1203,1114,0,0
-14,-90,0,0,0,0,0,0,0,0,0,-1,1210,1114,0,0
-7,-90,0,0,0,0,0,0,0,0,0,-1,1217,1114,0,0
0,-90,0,0,0,0,0,0,0,0,0,-1,1224,1114,0,0
7,-90,0,0,0,0,0,0,0,0,0,-1,1231,1114,0,0
14,-90,0,0,0,0,0,0,0,0,0,-1,1238,1114,0,0
21,-90,0,0,0,0,0,0,0,0,0,-1,1245,1114,0,0
28,-90,0,0,0,0,0,0,0,0,0,-1,1252,1114,0,0
35,-90,0,0,0,0,0,0,0,0,0,-1,1259,1114,0,0
42,-90,0,0,0,0,0,0,0,0,0,-1,1266,1114,0,0
49,-90,0,0,0,0,0,0,0,0,0,-1,1273,1114,0,0
56,-90,0,0,0,0,0,0,0,0,0,-1,1280,1114,0,0
63,-90,0,0,0,0,0,0,0,0,0,-1,1287,1114,0,0
70,-90,0,0,0,0,0,0,0,0,0,-1,1294,1114,0,0
77,-90,0,0,0,0,0,0,0,0,0,-1,1301,1114,0,0
84,-90,0,0,0,0,0,0,0,0,0,-1,1308,1114,0,0
91,-90,0,0,0,0,0,0,0,0,0,-1,1315,1114,0,0
98,-90,0,0,0,0,0,0,0,0,0,-1,1322,1114,0,0
105,-90,0,0,0,0,0,0,0,0,0,-1,1329,1114,0,0
112,-90,0,0,0,0,0,0,0,0,0,-1,1336,1114,0,0
119,-90,0,0,0,0,0,0,0,0,0,-1,1343,1114,0,0
126,-90,0,0,0,0,0,0,0,0,0,-1,1350,1114,0,0
133,-90,0,0,0,0,0,0,0,0,0,-1,1357,1114,0,0
140,-90,0,0,0,0,0,0,0,0,0,-1,1364,1114,0,0
147,-90,0,0,0,0,0,0,0,0,0,-1,1371,1114,0,0
154,-90,0,0,0,0,0,0,0,0,0,-1,1378,1114,0,0
161,-90,0,0,0,0,0,0,0,0,0,-1,1385,1114,0,0
168,-90,0,0,0,0,0,0,0,0,0,-1,1392,1114,0,0
175,-90,0,0,0,0,0,0,0,0,0,-1,1399,1114,0,0
182,-90,0,0,0,0,0,0,0,0,0,-1,1406,1114,0,0
189,-90,0,0,0,0,0,0,0,0,0,-1,1413,1114,0,0
196,-90,0,0,0,0,0,0,0,0,0,-1,1420,1114,0,0
203,-90,0,0,0,0,0,0,0,0,0,-1,1427,1114,0,0
210,-90,0,0,0,0,0,0,0,0,0,-1,1434,1114,0,0
217,-90,0,0,0,0,0,0,0,0,0,-1,1441,1114,0,0
224,-90,0,0,0,0,0,0,0,0,0,-1,1448,1114,0,0
231,-90,0,0,0,0,0,0,0,0,0,-1,1455,1114,0,0
238,-90,0,0,0,0,0,0,0,0,0,-1,1462,1114,0,0
245,-90,0,0,0,0,0,0,0,0,0,-1,1469,1114,0,0
252,-90,0,0,0,0,0,0,0,0,0,-1,1476,1114,0,0
259,-90,0,0,0,0,0,0,0,0,0,-1,1483,1114,0,0
266,-90,0,0,0,0,0,0,0,0,0,-1,1490,1114,0,0
273,-90,0,0,0,0,0,0,0,0,0,-1,1497,1114,0,0
280,-90,0,0,0,0,0,0,0,0,0,-1,1504,1114,0,0
287,-90,0,0,0,0,0,0,0,0,0,-1,1511,1114,0,0
294,-90,0,0,0,0,0,0,0,0,0,-1,1518,1114,0,0
301,-90,0,0,0,0,0,0,0,0,0,-1,1525,1114,0,0
308,-90,0,0,0,0,0,0,0,0,0,-1,1532,1114,0,0
315,-90,0,0,0,0,0,0,0,0,0,-1,1539,1114,0,0
322,-90,0,0,0,0,0,0,0,0,0,-1,1546,1114,0,0
329,-90,0,0,0,0,0,0,0,0,0,-1,1553,1114,0,0
336,-90,0,0,0,0,0,0,0,0,0,-1,1560,1114,0,0
343,-90,0,0,0,0,0,0,0,0,0,-1,1567,1114,0,0
350,-90,0,0,0,0,0,0,0,0,0,-1,1574,1114,0,0
357,-90,0,0,0,0,0,0,0,0,0,-1,1581,1114,0,0
364,-90,0,0,0,0,0,0,0,0,0,-1,1588,1114,0,0
371,-90,0,0,0,0,0,0,0,0,0,-1,1595,1114,0,0
378,-90,0,0,0,0,0,0,0,0,0,-1,1602,1114,0,0
385,-90,0,0,0,0,0,0,0,0,0,-1,1609,1114,0,0
392,-90,0,0,0,0,0,0,0,0,0,-1,1616,1114,0,0
399,-90,0,0,0,0,0,0,0,0,0,-1,1623,1114,0,0
406,-90,0,0,0,0,0,0,0,0,0,-1,1630,1114,0,0
413,-90,0,0,0,0,0,0,0,0,0,-1,1637,1114,0,0
420,-90,0,0,0,0,0,0,0,0,0,-1,1644,1114,0,0
427,-90,0,0,0,0,0,0,0,0,0,-1,1651,1114,0,0
434,-90,0,0,0,0,0,0,0,0,0,-1,1658,1114,0,0
441,-90,0,0,0,0,0,0,0,0,0,-1,1665,1114,0,0
448,-90,0,0,0,0,0,0,0,0,0,-1,1672,1114,0,0
455,-90,0,0,0,0,0,0,0,0,0,-1,1679,1114,0,0
462,-90,0,0,0,0,0,0,0,0,0,-1,1686,1114,0,0
469,-90,0,0,0,0,0,0,0,0,0,-1,1693,1114,0,0
476,-90,0,0,0,0,0,0,0,0,0,-1,1700,1114,0,0
483,-90,0,0,0,0,0,0,0,0,0,-1,1707,1114,0,0
490,-90,0,0,0,0,0,0,0,0,0,-1,1714,1114,0,0
497,-90,0,0,0,0,0,0,0,0,0,-1,1721,1114,0,0
504,-90,0,0,0,0,0,0,0,0,0,-1,1728,1114,0,0
511,-90,0,0,0,0,0,0,0,0,0,-1,1735,1114,0,0
518,-90,0,0,0,0,0,0,0,0,0,-1,1742,1114,0,0
525,-90,0,0,0,0,0,0,0,0,0,-1,1749,1114,0,0
532,-90,0,0,0,0,0,0,0,0,0,-1,1756,1114,0,0
539,-90,0,0,0,0,0,0,0,0,0,-1,1763,1114,0,0
546,-90,0,0,0,0,0,0,0,0,0,-1,1770,1114,0,0
553,-90,0,0,0,0,0,0,0,0,0,-1,1777,1114,0,0
560,-90,0,0,0,0,0,0,0,0,0,-1,1784,1114,0,0
567,-90,0,0,0,0,0,0,0,0,0,-1,1791,1114,0,0
574,-90,0,0,0,0,0,0,0,0,0,-1,1798,1114,0,0
581,-90,0,0,0,0,0,0,0,0,0,-1,1805,1114,0,0
588,-90,0,0,0,0,0,0,0,0,0,-1,1812,1114,0,0
595,-90,0,0,0,0,0,0,0,0,0,-1,1819,1114,0,0
602,-90,0,0,0,0,0,0,0,0,0,-1,1826,1114,0,0
609,-90,0,0,0,0,0,0,0,0,0,-1,1833,1114,0,0
616,-90,0,0,0,0,0,0,0,0,0,-1,1840,1114,0,0
623,-90,0,0,0,0,0,0,0,0,0,-1,1847,1114,0,0
630,-90,0,0,0,0,0,0,0,0,0,-1,1854,1114,0,0
637,-90,0,0,0,0,0,0,0,0,0,-1,1861,1114,0,0
644,-90,14.0841,1.96704,-0.00814848,-0.00348213,-0.00174255,-0.00290323,-0.00872738,-1.25005,0.00513196,0.0360592,1868,1114,14.0842,-1.96698
651,-90,14.0011,1.87219,-0.0048174,-0.00263142,-0.00112849,-0.00215338,-0.00529544,-1.17011,0.00307503,0.0386868,1875,1114,14.0011,-1.87215
658,-90,13.9698,1.65991,-0.00248869,-0.00196685,-0.000852762,-0.00133598,-0.00311955,-0.93386,0.00180724,0.0401994,1882,1114,13.9699,-1.65993
665,-90,14.0031,1.7594,-0.0012489,-0.00160724,-0.00031659,-0.0010643,-0.00179184,-0.527899,0.00104059,0.0404192,1889,1114,14.0031,-1.75934
672,-90,14.0858,2.00208,-0.0011681,-0.00163269,0.000779508,-0.000587013,-0.00221378,0.640589,0.00132428,0.0419212,1896,1114,14.0858,-2.00212
679,-90,14.1503,2.14941,-0.00186448,-0.00180985,0.00203142,0.00019444,-0.00386877,0.792121,0.00264637,0.0389962,1903,1114,14.1503,-2.14943
686,-90,14.1805,2.11975,-0.00278526,-0.00202937,0.00313909,0.000754451,-0.00556908,0.845309,0.00398806,0.0344934,1910,1114,14.1805,-2.11977
693,-90,14.1371,2.00244,-0.00373733,-0.00222383,0.00408174,0.00117072,-0.00713188,0.877057,0.00518904,0.0339737,1917,1114,14.1371,-2.00249
700,-90,14.1436,1.90869,-0.00444303,-0.00228605,0.00483025,0.00158465,-0.00831373,0.895236,0.00613926,0.0282426,1924,1114,14.1435,-1.90869
707,-90,14.0812,1.81116,-0.00494357,-0.0022888,0.00534818,0.00189426,-0.00912663,0.907037,0.0068043,0.0178483,1931,1114,14.0812,-1.81118
714,-90,14.0449,2.08118,-0.0053889,-0.00223136,0.00560192,0.00201001,-0.00963027,0.922749,0.00718453,0.0264807,1938,1114,14.0449,-2.08119
721,-90,13.7373,2.6217,-0.0056124,-0.00208892,0.0055114,0.00193547,-0.00963679,0.940092,0.00715745,0.0194399,1945,1114,13.7373,-2.62176
728,-90,13.6123,2.71362,-0.00555089,-0.00183186,0.00517421,0.00180683,-0.00918958,0.957902,0.00680904,0.0174287,1952,1114,13.6124,-2.71361
735,-90,13.6351,2.6571,-0.00512907,-0.00142079,0.00472394,0.00179985,-0.00834971,0.97241,0.00625337,0.0193299,1959,1114,13.6351,-2.65714
742,-90,13.642,2.59619,-0.00392894,-0.000804109,0.00420836,0.00212251,-0.00685556,0.963144,0.00541827,0.0168693,1966,1114,13.642,-2.59621
749,-90,13.6445,2.56628,-0.00221367,0.000477531,0.00357358,0.00295045,-0.00468659,0.965459,0.00444707,0.01301,1973,1114,13.6445,-2.56623
756,-90,13.6779,2.54602,-0.000261113,0.00215217,0.00307091,0.00424499,-0.00235394,0.972594,0.00386169,0.0139563,1980,1114,13.6779,-2.54599
763,-90,13.6683,2.51392,0.00223616,0.00428281,0.00243097,0.00589706,0.000621913,0.984617,0.00374134,0.0129432,1987,1114,13.6684,-2.51394
770,-90,13.6467,2.48474,0.0050632,0.00692327,0.00205689,0.00825061,0.00373586,0.99772,0.00477056,0.0146508,1994,1114,13.6467,-2.4848
777,-90,13.621,2.4679,0.00805761,0.0101354,0.00225804,0.0115821,0.00661094,1.00101,0.00670923,0.0117475,2001,1114,13.6209,-2.46789
784,-90,13.6112,2.4165,0.0112882,0.0142679,0.00304352,0.0161666,0.00938945,1.01301,0.00937435,0.0250748,2008,1114,13.6112,-2.4165
791,-90,13.8997,2.6311,0.015177,0.0196896,0.00415118,0.0221581,0.0127086,1.03433,0.012839,0.0446649,2015,1114,13.8997,-2.63115
798,-90,13.9801,2.96326,0.0199844,0.0267297,0.00555282,0.0298538,0.0168602,1.05831,0.0172842,0.0462312,2022,1114,13.9801,-2.96322
805,-90,14.5122,3.14465,0,0,0,0,0,0,0,-1,2029,1114,14.5122,-3.14471
812,-90,14.9458,3.32947,0,0,0,0,0,0,0,-1,2036,1114,14.9458,-3.32944
-700,-97,0,0,0,0,0,0,0,0,0,-1,524,1121,0,0
-693,-97,-7.02228,-1.14893,0.0591272,0.0790531,0.0787187,0.148437,-0.0102565,0.848345,0.102548,0.0484361,531,1121,-7.02229,1.1489
-686,-97,-7.38403,-1.06006,0.0517793,0.0590201,0.0645155,0.120017,-0.00921728,0.813427,0.0832538,0.0451603,538,1121,-7.38403,1.06002
-679,-97,-7.66956,-0.707275,0.0427209,0.0431287,0.0514729,0.0943981,-0.00854854,0.787379,0.0659665,0.0450213,545,1121,-7.66957,0.707326
-672,-97,-7.40332,-0.211304,0.0335218,0.0307023,0.0399834,0.0721203,-0.00789621,0.767777,0.0509168,0.0429969,552,1121,-7.40333,0.211333
-665,-97,-7.30994,-0.038208,0.0250624,0.0211939,0.0301758,0.0533659,-0.00710954,0.753392,0.0381684,0.0449131,559,1121,-7.30994,0.0382581
-658,-97,-7.44763,0.198853,0.0178223,0.014123,0.0220667,0.0381168,-0.00617142,0.743585,0.0276985,0.0427943,566,1121,-7.44766,-0.198903
-651,-97,-7.85394,0.307861,0.0120373,0.00904126,0.0156004,0.0262114,-0.0051329,0.737533,0.0194128,0.0303973,573,1121,-7.85392,-0.307853
-644,-97,-7.91217,0.419312,0.00776766,0.00549731,0.0106668,0.0173595,-0.00409452,0.732387,0.013152,0.010857,580,1121,-7.91216,-0.419302
-637,-97,-7.90155,0.483765,0.00527031,0.00235271,0.00601991,0.0100057,-0.00238263,0.666525,0.00759034,0.0109617,587,1121,-7.90158,-0.483801
-630,-97,-7.89545,0.546509,0.000859045,-0.000298327,0.00179168,0.00216318,-0.00160246,0.629194,0.00218211,0.00848036,594,1121,-7.89545,-0.546467
-623,-97,-7.90997,0.635742,-0.00219479,-0.00133131,-0.0013835,-0.000313748,-0.00321235,-0.936642,0.00204502,0.00992413,601,1121,-7.90995,-0.635796
-616,-97,-7.91412,0.690552,-0.00295211,-0.00105903,-0.00264314,0.000801947,-0.00481309,-0.957339,0.00350674,0.0107523,608,1121,-7.91412,-0.690527
-609,-97,-7.92078,0.752319,-0.00282576,-0.000582719,-0.00352455,0.00199445,-0.00540293,-0.939434,0.00441942,0.0132089,615,1121,-7.92075,-0.752332
-602,-97,-7.93048,0.789917,-0.00290331,-0.00047764,-0.00429238,0.00276996,-0.00615091,-0.923087,0.00527233,0.0123149,622,1121,-7.93051,-0.789938
-595,-97,-7.87781,0.848877,-0.0034099,-0.000518597,-0.00481557,0.00306364,-0.00699213,-0.93122,0.00595155,0.0157281,629,1121,-7.87784,-0.848909
-588,-97,-7.81769,0.86438,-0.00383534,-0.000576017,-0.00518461,0.00322902,-0.00764038,-0.937672,0.00644543,0.0209089,636,1121,-7.81771,-0.864413
-581,-97,-8.12,0.441162,-0.00392827,-0.000573935,-0.00543051,0.0034325,-0.00793471,-0.935172,0.00673226,0.0328096,643,1121,-8.12002,-0.44121
-574,-97,-8.2243,0.190308,-0.00386843,-0.000604813,-0.00548011,0.00348128,-0.00795452,-0.930103,0.00676874,0.0390049,650,1121,-8.22427,-0.190304
-567,-97,-8.16748,0.275513,-0.00363472,-0.000572031,-0.00531404,0.0034269,-0.00763366,-0.925682,0.00653796,0.0388009,657,1121,-8.16746,-0.27555
-560,-97,-8.10931,0.651367,-0.00307857,-0.000636885,-0.00499321,0.00328256,-0.00699802,-0.905296,0.00606333,0.0419267,664,1121,-8.10929,-0.651388
-553,-97,-8.26038,0.848755,-0.00216105,-0.0009099,-0.00461647,0.00312319,-0.00619414,-0.852743,0.00547589,0.0439611,671,1121,-8.26035,-0.84874
-546,-97,-8.3938,0.918091,-0.000811716,-0.00151683,-0.00428487,0.00313508,-0.00546362,-0.744351,0.00502477,0.0444264,678,1121,-8.39379,-0.918128
-539,-97,-8.32483,0.780884,0.00110835,-0.00261522,-0.00416214,0.00380613,-0.005313,-0.575089,0.00528884,0.0413579,685,1121,-8.32484,-0.780891
-532,-97,-8.34985,0.277344,0.00311795,-0.00456354,-0.00521552,0.00575432,-0.0071999,-0.468026,0.00749463,0.0377451,692,1121,-8.34985,-0.277388
-525,-97,0,0,0,0,0,0,0,0,0,-1,699,1121,0,0
-518,-97,0,0,0,0,0,0,0,0,0,-1,706,1121,0,0
-511,-97,0,0,0,0,0,0,0,0,0,-1,713,1121,0,0
-504,-97,0,0,0,0,0,0,0,0,0,-1,720,1121,0,0
-497,-97,0,0,0,0,0,0,0,0,0,-1,727,1121,0,0
-490,-97,0,0,0,0,0,0,0,0,0,-1,734,1121,0,0
-483,-97,0,0,0,0,0,0,0,0,0,-1,741,1121,0,0
-476,-97,0,0,0,0,0,0,0,0,0,-1,748,1121,0,0
-469,-97,0,0,0,0,0,0,0,0,0,-1,755,1121,0,0
-462,-97,0,0,0,0,0,0,0,0,0,-1,762,1121,0,0
-455,-97,0,0,0,0,0,0,0,0,0,-1,769,1121,0,0
-448,-97,0,0,0,0,0,0,0,0,0,-1,776,1121,0,0
-441,-97,0,0,0,0,0,0,0,0,0,-1,783,1121,0,0
-434,-97,0,0,0,0,0,0,0,0,0,-1,790,1121,0,0
-427,-97,0,0,0,0,0,0,0,0,0,-1,797,1121,0,0
-420,-97,0,0,0,0,0,0,0,0,0,-1,804,1121,0,0
-413,-97,0,0,0,0,0,0,0,0,0,-1,811,1121,0,0
-406,-97,0,0,0,0,0,0,0,0,0,-1,818,1121,0,0
-399,-97,0,0,0,0,0,0,0,0,0,-1,825,1121,0,0
-392,-97,0,0,0,0,0,0,0,0,0,-1,832,1121,0,0
-385,-97,0,0,0,0,0,0,0,0,0,-1,839,1121,0,0
-378,-97,0,0,0,0,0,0,0,0,0,-1,846,1121,0,0
-371,-97,0,0,0,0,0,0,0,0,0,-1,853,1121,0,0
-364,-97,0,0,0,0,0,0,0,0,0,-1,860,1121,0,0
-357,-97,0,0,0,0,0,0,0,0,0,-1,867,1121,0,0
-350,-97,0,0,0,0,0,0,0,0,0,-1,874,1121,0,0
-343,-97,0,0,0,0,0,0,0,0,0,-1,881,1121,0,0
-336,-97,0,0,0,0,0,0,0,0,0,-1,888,1121,0,0
-329,-97,0,0,0,0,0,0,0,0,0,-1,895,1121,0,0
-322,-97,0,0,0,0,0,0,0,0,0,-1,902,1121,0,0
-315,-97,0,0,0,0,0,0,0,0,0,-1,909,1121,0,0
-308,-97,0,0,0,0,0,0,0,0,0,-1,916,1121,0,0
-301,-97,0,0,0,0,0,0,0,0,0,-1,923,1121,0,0
-294,-97,0,0,0,0,0,0,0,0,0,-1,930,1121,0,0
-287,-97,0,0,0,0,0,0,0,0,0,-1,937,1121,0,0
-280,-97,0,0,0,0,0,0,0,0,0,-1,944,1121,0,0
-273,-97,0,0,0,0,0,0,0,0,0,-1,951,1121,0,0
-266,-97,0,0,0,0,0,0,0,0,0,-1,958,1121,0,0
-259,-97,0,0,0,0,0,0,0,0,0,-1,965,1121,0,0
-252,-97,0,0,0,0,0,0,0,0,0,-1,972,1121,0,0
-245,-97,0,0,0,0,0,0,0,0,0,-1,979,1121,0,0
-238,-97,0,0,0,0,0,0,0,0,0,-1,986,1121,0,0
-231,-97,0,0,0,0,0,0,0,0,0,-1,993,1121,0,0
-224,-97,0,0,0,0,0,0,0,0,0,-1,1000,1121,0,0
-217,-97,0,0,0,0,0,0,0,0,0,-1,1007,1121,0,0
-210,-97,0,0,0,0,0,0,0,0,0,-1,1014,1121,0,0
-203,-97,0,0,0,0,0,0,0,0,0,-1,1021,1121,0,0
-196,-97,0,0,0,0,0,0,0,0,0,-1,1028,1121,0,0
-189,-97,0,0,0,0,0,0,0,0,0,-1,1035,1121,0,0
-182,-97,0,0,0,0,0,0,0,0,0,-1,1042,1121,0,0
-175,-97,0,0,0,0,0,0,0,0,0,-1,1049,1121,0,0
-168,-97,0,0,0,0,0,0,0,0,0,-1,1056,1121,0,0
-161,-97,0,0,0,0,0,0,0,0,0,-1,1063,1121,0,0
-154,-97,0,0,0,0,0,0,0,0,0,-1,1070,1121,0,0
-147,-97,0,0,0,0,0,0,0,0,0,-1,1077,1121,0,0
-140,-97,0,0,0,0,0,0,0,0,0,-1,1084,1121,0,0
-133,-97,0,0,0,0,0,0,0,0,0,-1,1091,1121,0,0
-126,-97,0,0,0,0,0,0,0,0,0,-1,1098,1121,0,0
-119,-97,0,0,0,0,0,0,0,0,0,-1,1105,1121,0,0
-112,-97,0,0,0,0,0,0,0,0,0,-1,1112,1121,0,0
-105,-97,0,0,0,0,0,0,0,0,0,-1,1119,1121,0,0
-98,-97,0,0,0,0,0,0,0,0,0,-1,1126,1121,0,0
-91,-97,0,0,0,0,0,0,0,0,0,-1,1133,1121,0,0
-84,-97,0,0,0,0,0,0,0,0,0,-1,1140,1121,0,0
-77,-97,0,0,0,0,0,0,0,0,0,-1,1147,1121,0,0
-70,-97,0,0,0,0,0,0,0,0,0,-1,1154,1121,0,0
-63,-97,0,0,0,0,0,0,0,0,0,-1,1161,1121,0,0
-56,-97,0,0,0,0,0,0,0,0,0,-1,1168,1121,0,0
-49,-97,0,0,0,0,0,0,0,0,0,-1,1175,1121,0,0
-42,-97,0,0,0,0,0,0,0,0,0,-1,1182,1121,0,0
-35,-97,0,0,0,0,0,0,0,0,0,-1,1189,1121,0,0
-28,-97,0,0,0,0,0,0,0,0,0,-1,1196,1121,0,0
-21,-97,0,0,0,0,0,0,0,0,0,-1,1203,1121,0,0
-14,-97,0,0,0,0,0,0,0,0,0,-1,1210,1121,0,0
-7,-97,0,0,0,0,0,0,0,0,0,-1,1217,1121,0,0
0,-97,0,0,0,0,0,0,0,0,0,-1,1224,1121,0,0
7,-97,0,0,0,0,0,0,0,0,0,-1,1231,1121,0,0
14,-97,0,0,0,0,0,0,0,0,0,-1,1238,1121,0,0
21,-97,0,0,0,0,0,0,0,0,0,-1,1245,1121,0,0
28,-97,0,0,0,0,0,0,0,0,0,-1,1252,1121,0,0
35,-97,0,0,0,0,0,0,0,0,0,-1,1259,1121,0,0
42,-97,0,0,0,0,0,0,0,0,0,-1,1266,1121,0,0
49,-97,0,0,0,0,0,0,0,0,0,-1,1273,1121,0,0
56,-97,0,0,0,0,0,0,0,0,0,-1,1280,1121,0,0
63,-97,0,0,0,0,0,0,0,0,0,-1,1287,1121,0,0
70,-97,0,0,0,0,0,0,0,0,0,-1,1294,1121,0,0
77,-97,0,0,0,0,0,0,0,0,0,-1,1301,1121,0,0
84,-97,0,0,0,0,0,0,0,0,0,-1,1308,1121,0,0
91,-97,0,0,0,0,0,0,0,0,0,-1,1315,1121,0,0
98,-97,0,0,0,0,0,0,0,0,0,-1,1322,1121,0,0
105,-97,0,0,0,0,0,0,0,0,0,-1,1329,1121,0,0
112,-97,0,0,0,0,0,0,0,0,0,-1,1336,1121,0,0
119,-97,0,0,0,0,0,0,0,0,0,-1,1343,1121,0,0
126,-97,0,0,0,0,0,0,0,0,0,-1,1350,1121,0,0
133,-97,0,0,0,0,0,0,0,0,0,-1,1357,1121,0,0
140,-97,0,0,0,0,0,0,0,0,0,-1,1364,1121,0,0
147,-97,0,0,0,0,0,0,0,0,0,-1,1371,1121,0,0
154,-97,0,0,0,0,0,0,0,0,0,-1,1378,1121,0,0
161,-97,0,0,0,0,0,0,0,0,0,-1,1385,1121,0,0
168,-97,0,0,0,0,0,0,0,0,0,-1,1392,1121,0,0
175,-97,0,0,0,0,0,0,0,0,0,-1,1399,1121,0,0
182,-97,0,0,0,0,0,0,0,0,0,-1,1406,1121,0,0
189,-97,0,0,0,0,0,0,0,0,0,-1,1413,1121,0,0
196,-97,0,0,0,0,0,0,0,0,0,-1,1420,1121,0,0
203,-97,0,0,0,0,0,0,0,0,0,-1,1427,1121,0,0
210,-97,0,0,0,0,0,0,0,0,0,-1,1434,1121,0,0
217,-97,0,0,0,0,0,0,0,0,0,-1,1441,1121,0,0
224,-97,0,0,0,0,0,0,0,0,0,-1,1448,1121,0,0
231,-97,0,0,0,0,0,0,0,0,0,-1,1455,1121,0,0
238,-97,0,0,0,0,0,0,0,0,0,-1,1462,1121,0,0
245,-97,0,0,0,0,0,0,0,0,0,-1,1469,1121,0,0
252,-97,0,0,0,0,0,0,0,0,0,-1,1476,1121,0,0
259,-97,0,0,0,0,0,0,0,0,0,-1,1483,1121,0,0
266,-97,0,0,0,0,0,0,0,0,0,-1,1490,1121,0,0
273,-97,0,0,0,0,0,0,0,0,0,-1,1497,1121,0,0
280,-97,0,0,0,0,0,0,0,0,0,-1,1504,1121,0,0
287,-97,0,0,0,0,0,0,0,0,0,-1,1511,1121,0,0
294,-97,0,0,0,0,0,0,0,0,0,-1,1518,1121,0,0
301,-97,0,0,0,0,0,0,0,0,0,-1,1525,1121,0,0
308,-97,0,0,0,0,0,0,0,0,0,-1,1532,1121,0,0
315,-97,0,0,0,0,0,0,0,0,0,-1,1539,1121,0,0
322,-97,0,0,0,0,0,0,0,0,0,-1,1546,1121,0,0
329,-97,0,0,0,0,0,0,0,0,0,-1,1553,1121,0,0
336,-97,0,0,0,0,0,0,0,0,0,-1,1560,1121,0,0
343,-97,0,0,0,0,0,0,0,0,0,-1,1567,1121,0,0
350,-97,0,0,0,0,0,0,0,0,0,-1,1574,1121,0,0
357,-97,0,0,0,0,0,0,0,0,0,-1,1581,1121,0,0
364,-97,0,0,0,0,0,0,0,0,0,-1,1588,1121,0,0
371,-97,0,0,0,0,0,0,0,0,0,-1,1595,1121,0,0
378,-97,0,0,0,0,0,0,0,0,0,-1,1602,1121,0,0
385,-97,0,0,0,0,0,0,0,0,0,-1,1609,1121,0,0
392,-97,0,0,0,0,0,0,0,0,0,-1,1616,1121,0,0
399,-97,0,0,0,0,0,0,0,0,0,-1,1623,1121,0,0
406,-97,0,0,0,0,0,0,0,0,0,-1,1630,1121,0,0
413,-97,0,0,0,0,0,0,0,0,0,-1,1637,1121,0,0
420,-97,0,0,0,0,0,0,0,0,0,-1,1644,1121,0,0
427,-97,0,0,0,0,0,0,0,0,0,-1,1651,1121,0,0
434,-97,0,0,0,0,0,0,0,0,0,-1,1658,1121,0,0
441,-97,0,0,0,0,0,0,0,0,0,-1,1665,1121,0,0
448,-97,0,0,0,0,0,0,0,0,0,-1,1672,1121,0,0
455,-97,0,0,0,0,0,0,0,0,0,-1,1679,1121,0,0
462,-97,0,0,0,0,0,0,0,0,0,-1,1686,1121,0,0
469,-97,0,0,0,0,0,0,0,0,0,-1,1693,1121,0,0
476,-97,0,0,0,0,0,0,0,0,0,-1,1700,1121,0,0
483,-97,0,0,0,0,0,0,0,0,0,-1,1707,1121,0,0
490,-97,0,0,0,0,0,0,0,0,0,-1,1714,1121,0,0
497,-97,0,0,0,0,0,0,0,0,0,-1,1721,1121,0,0
504,-97,0,0,0,0,0,0,0,0,0,-1,1728,1121,0,0
511,-97,0,0,0,0,0,0,0,0,0,-1,1735,1121,0,0
518,-97,0,0,0,0,0,0,0,0,0,-1,1742,1121,0,0
525,-97,0,0,0,0,0,0,0,0,0,-1,1749,1121,0,0
532,-97,0,0,0,0,0,0,0,0,0,-1,1756,1121,0,0
539,-97,0,0,0,0,0,0,0,0,0,-1,1763,1121,0,0
546,-97,0,0,0,0,0,0,0,0,0,-1,1770,1121,0,0
553,-97,0,0,0,0,0,0,0,0,0,-1,1777,1121,0,0
560,-97,0,0,0,0,0,0,0,0,0,-1,1784,1121,0,0
567,-97,0,0,0,0,0,0,0,0,0,-1,1791,1121,0,0
574,-97,0,0,0,0,0,0,0,0,0,-1,1798,1121,0,0
581,-97,0,0,0,0,0,0,0,0,0,-1,1805,1121,0,0
588,-97,0,0,0,0,0,0,0,0,0,-1,1812,1121,0,0
595,-97,0,0,0,0,0,0,0,0,0,-1,1819,1121,0,0
602,-97,0,0,0,0,0,0,0,0,0,-1,1826,1121,0,0
609,-97,0,0,0,0,0,0,0,0,0,-1,1833,1121,0,0
616,-97,0,0,0,0,0,0,0,0,0,-1,1840,1121,0,0
623,-97,0,0,0,0,0,0,0,0,0,-1,1847,1121,0,0
630,-97,0,0,0,0,0,0,0,0,0,-1,1854,1121,0,0
637,-97,0,0,0,0,0,0,0,0,0,-1,1861,1121,0,0
644,-97,13.9889,2.04907,-0.00703332,-0.00140831,-0.00279767,-0.000253806,-0.00818782,-1.17942,0.00537594,0.037919,1868,1121,13.9889,-2.04906
651,-97,13.9381,2.05859,-0.00415817,-0.00128917,-0.0019976,-0.000264361,-0.00518298,-1.09679,0.00337066,0.0386232,1875,1121,13.9381,-2.0586
658,-97,14.0164,1.83923,-0.00208672,-0.00102765,-0.00153897,7.03387e-05,-0.00318471,-0.951095,0.00214697,0.0378061,1882,1121,14.0164,-1.83926
665,-97,14.0729,1.99268,-0.00112569,-0.000971001,-0.000723996,-0.000320229,-0.00177646,-0.838611,0.00109331,0.0417858,1889,1121,14.0729,-1.99267
672,-97,14.1312,2.18481,-0.00127465,-0.00118542,0.000597299,-0.000631075,-0.001829,0.822676,0.00107275,0.0452571,1896,1121,14.1312,-2.18482
679,-97,14.1694,2.21143,-0.00207108,-0.0014603,0.00197354,0.000231345,-0.00376272,0.862161,0.00258904,0.0420834,1903,1121,14.1694,-2.21144
686,-97,14.1478,1.9519,-0.00304195,-0.0017396,0.0031644,0.000839936,-0.00562148,0.886872,0.00405672,0.0367493,1910,1121,14.1478,-1.95188
693,-97,14.1071,1.88794,-0.00400255,-0.00198844,0.00414503,0.00127011,-0.0072611,0.904566,0.00531493,0.0339978,1917,1121,14.1071,-1.88799
700,-97,14.0967,1.84277,-0.00468593,-0.0020865,0.00490348,0.00168659,-0.00845903,0.914949,0.00627753,0.0255358,1924,1121,14.0966,-1.84274
707,-97,14.0713,1.84839,-0.00516678,-0.00210997,0.00542373,0.00199659,-0.00927334,0.922737,0.0069441,0.0168848,1931,1121,14.0712,-1.84836
714,-97,13.9934,2.21143,-0.00557778,-0.00205389,0.00566111,0.00211313,-0.0097448,0.936265,0.00730353,0.0272357,1938,1121,13.9934,-2.21148
721,-97,13.7335,2.64893,-0.00573786,-0.0018994,0.00553663,0.00204121,-0.00967846,0.952238,0.00722941,0.0196052,1945,1121,13.7335,-2.6489
728,-97,13.6178,2.70618,-0.00558602,-0.00164878,0.00515025,0.00189627,-0.00913107,0.967948,0.00680807,0.0181797,1952,1121,13.6178,-2.70615
735,-97,13.5963,2.65344,-0.00509129,-0.00124335,0.00462694,0.00184369,-0.00817834,0.982432,0.00615946,0.0187745,1959,1121,13.5963,-2.65346
742,-97,13.5959,2.59131,-0.00391902,-0.000608579,0.00404239,0.00210434,-0.00663194,0.979718,0.00526484,0.0147722,1966,1121,13.596,-2.59133
749,-97,13.6024,2.5592,-0.00229546,0.000645943,0.00333807,0.00282294,-0.00447245,0.992896,0.00424773,0.016883,1973,1121,13.6024,-2.55927
756,-97,13.6127,2.53088,-0.000353091,0.00226228,0.00283278,0.00407464,-0.00216545,1.00164,0.0036585,0.0150722,1980,1121,13.6127,-2.53092
763,-97,13.6123,2.48633,0.00214063,0.0044012,0.00210891,0.00566362,0.000878213,1.0314,0.00351972,0.0127364,1987,1121,13.6123,-2.48637
770,-97,13.5969,2.46533,0.00487739,0.00699599,0.00171264,0.00795045,0.00392292,1.06236,0.00459033,0.0101944,1994,1121,13.5969,-2.46531
777,-97,13.6078,2.43921,0.00774384,0.0101322,0.00191626,0.011196,0.00668013,1.06405,0.00650412,0.011821,2001,1121,13.6078,-2.43924
784,-97,13.6783,2.41614,0.010916,0.0141634,0.00266321,0.0156589,0.00942056,1.05915,0.00910266,0.029478,2008,1121,13.6784,-2.41618
791,-97,14.0702,2.39673,0.0148157,0.0194198,0.00373992,0.0215094,0.0127261,1.06128,0.0124878,0.0412297,2015,1121,14.0702,-2.39678
798,-97,14.3619,2.54285,0.0197164,0.0261963,0.00515259,0.029043,0.0168698,1.06606,0.0168409,0.0411262,2022,1121,14.3619,-2.54283
805,-97,14.6921,2.77942,0.0257593,0.0348559,0.0070115,0.0386651,0.0219501,1.07312,0.0223914,0.0423814,2029,1121,14.6922,-2.77946
812,-97,15.0779,2.9325,0.0331083,0.0458201,0.0093683,0.0507851,0.0281433,1.08345,0.0293781,0.0478833,2036,1121,15.0778,-2.93252
-700,-104,0,0,0,0,0,0,0,0,0,-1,524,1128,0,0
-693,-104,-8.36078,-1.27295,0.0578698,0.087988,0.0891326,0.163325,-0.0174669,0.869083,0.115148,0.0496511,531,1128,-8.36077,1.27293
-686,-104,-8.64661,-1.34558,0.0520285,0.0655011,0.0722354,0.131314,-0.013784,0.831891,0.0924801,0.0450232,538,1128,-8.64663,1.34557
-679,-104,-7.9765,-0.411011,0.0438777,0.0478196,0.0570436,0.102926,-0.011229,0.802667,0.0726504,0.0441516,545,1128,-7.97649,0.411002
-672,-104,-7.65656,-0.120117,0.0351623,0.0340859,0.0438856,0.078513,-0.00926474,0.779267,0.0556877,0.0462372,552,1128,-7.65658,0.120136
-665,-104,-7.68256,0.220337,0.0268764,0.023625,0.0328147,0.0581056,-0.0076043,0.760647,0.0415047,0.0452882,559,1128,-7.68256,-0.220334
-658,-104,-7.66876,0.227783,0.0195852,0.015861,0.023773,0.0415689,-0.00612266,0.746313,0.0299627,0.0422818,566,1128,-7.66877,-0.227841
-651,-104,-7.836,0.350708,0.013598,0.0102771,0.0166414,0.0286616,-0.0047865,0.735674,0.0208869,0.0357416,573,1128,-7.836,-0.350689
-644,-104,-7.83362,0.40686,0.00903393,0.00637983,0.0112249,0.0190099,-0.00359618,0.726559,0.0140265,0.0140788,580,1128,-7.8336,-0.406881
-637,-104,-7.83801,0.459351,0.00633719,0.00295396,0.00634216,0.0112095,-0.00191831,0.655069,0.00818766,0.0102357,587,1128,-7.83801,-0.459353
-630,-104,-7.84583,0.533325,0.0019107,9.27903e-05,0.0018447,0.00305823,-0.00105474,0.556487,0.00246675,0.0113591,594,1128,-7.84582,-0.53332
-623,-104,-7.85449,0.624756,-0.00161428,-0.00121695,-0.00147939,7.70593e-05,-0.00290828,-0.852144,0.00196505,0.0132811,601,1128,-7.85449,-0.624795
-616,-104,-7.87671,0.700195,-0.00286964,-0.000973817,-0.0028032,0.00103741,-0.00488087,-0.94844,0.0036492,0.0144392,608,1128,-7.87674,-0.700206
-609,-104,-7.91779,0.73938,-0.00304178,-0.000685735,-0.00362722,0.00194996,-0.00567747,-0.942411,0.00457563,0.0179243,615,1128,-7.91781,-0.739386
-602,-104,-7.87238,0.78418,-0.00333026,-0.000618023,-0.00437208,0.00260342,-0.00655171,-0.935782,0.0054471,0.0144504,622,1128,-7.87239,-0.784167
-595,-104,-7.82062,0.881104,-0.00396198,-0.000713984,-0.0048648,0.00279072,-0.00746669,-0.946495,0.0061238,0.0136052,629,1128,-7.82064,-0.881138
-588,-104,-7.80023,0.907104,-0.00448763,-0.000747131,-0.00521025,0.00291837,-0.00815313,-0.957713,0.00662602,0.0216902,636,1128,-7.80025,-0.907045
-581,-104,-7.99329,0.457275,-0.00465874,-0.000682756,-0.00544627,0.00312701,-0.0084685,-0.960394,0.0069274,0.0333545,643,1128,-7.99328,-0.45731
-574,-104,-8.19232,0.119629,-0.00460863,-0.000642916,-0.00545818,0.00318141,-0.00843296,-0.959627,0.00693029,0.0399217,650,1128,-8.19231,-0.11962
-567,-104,-8.03455,0.27356,-0.00437132,-0.000467122,-0.00525149,0.00318335,-0.00802179,-0.963346,0.0066673,0.0375327,657,1128,-8.03453,-0.273536
-560,-104,-7.98578,0.584351,-0.00375664,-0.000312379,-0.00486754,0.0031287,-0.00719772,-0.955426,0.0061143,0.0436387,664,1128,-7.98577,-0.584331
-553,-104,-8.21509,0.567749,-0.00272202,-0.000281866,-0.00440626,0.00307011,-0.006074,-0.920463,0.00537347,0.0475698,671,1128,-8.21508,-0.567772
-546,-104,-8.30933,0.588745,-0.00120895,-0.000499398,-0.00397733,0.00313895,-0.0048473,-0.82988,0.00464589,0.0471833,678,1128,-8.3093,-0.588804
-539,-104,-8.3092,0.547241,0.000920672,-0.00112055,-0.00372807,0.00376531,-0.00396518,-0.65179,0.0044637,0.0417457,685,1128,-8.30921,-0.547279
-532,-104,-8.35767,0.152588,0.00323956,-0.00247851,-0.00453637,0.00574268,-0.00498163,-0.504216,0.00619688,0.0404207,692,1128,-8.35769,-0.152624
-525,-104,-8.22888,0.0786133,0.00458594,-0.00511777,-0.00796122,0.00905725,-0.00958908,-0.511734,0.0107669,0.0390077,699,1128,-8.22891,-0.0785634
-518,-104,0,0,0,0,0,0,0,0,0,-1,706,1128,0,0
-511,-104,0,0,0,0,0,0,0,0,0,-1,713,1128,0,0
-504,-104,0,0,0,0,0,0,0,0,0,-1,720,1128,0,0
-497,-104,0,0,0,0,0,0,0,0,0,-1,727,1128,0,0
-490,-104,0,0,0,0,0,0,0,0,0,-1,734,1128,0,0
-483,-104,0,0,0,0,0,0,0,0,0,-1,741,1128,0,0
-476,-104,0,0,0,0,0,0,0,0,0,-1,748,1128,0,0
-469,-104,0,0,0,0,0,0,0,0,0,-1,755,1128,0,0
-462,-104,0,0,0,0,0,0,0,0,0,-1,762,1128,0,0
-455,-104,0,0,0,0,0,0,0,0,0,-1,769,1128,0,0
-448,-104,0,0,0,0,0,0,0,0,0,-1,776,1128,0,0
-441,-104,0,0,0,0,0,0,0,0,0,-1,783,1128,0,0
-434,-104,0,0,0,0,0,0,0,0,0,-1,790,1128,0,0
-427,-104,0,0,0,0,0,0,0,0,0,-1,797,1128,0,0
-420,-104,0,0,0,0,0,0,0,0,0,-1,804,1128,0,0
-413,-104,0,0,0,0,0,0,0,0,0,-1,811,1128,0,0
-406,-104,0,0,0,0,0,0,0,0,0,-1,818,1128,0,0
-399,-104,0,0,0,0,0,0,0,0,0,-1,825,1128,0,0
-392,-104,0,0,0,0,0,0,0,0,0,-1,832,1128,0,0
-385,-104,0,0,0,0,0,0,0,0,0,-1,839,1128,0,0
-378,-104,0,0,0,0,0,0,0,0,0,-1,846,1128,0,0
-371,-104,0,0,0,0,0,0,0,0,0,-1,853,1128,0,0
-364,-104,0,0,0,0,0,0,0,0,0,-1,860,1128,0,0
-357,-104,0,0,0,0,0,0,0,0,0,-1,867,1128,0,0
-350,-104,0,0,0,0,0,0,0,0,0,-1,874,1128,0,0
-343,-104,0,0,0,0,0,0,0,0,0,-1,881,1128,0,0
-336,-104,0,0,0,0,0,0,0,0,0,-1,888,1128,0,0
-329,-104,0,0,0,0,0,0,0,0,0,-1,895,1128,0,0
-322,-104,0,0,0,0,0,0,0,0,0,-1,902,1128,0,0
-315,-104,0,0,0,0,0,0,0,0,0,-1,909,1128,0,0
-308,-104,0,0,0,0,0,0,0,0,0,-1,916,1128,0,0
-301,-104,0,0,0,0,0,0,0,0,0,-1,923,1128,0,0
-294,-104,0,0,0,0,0,0,0,0,0,-1,930,1128,0,0
-287,-104,0,0,0,0,0,0,0,0,0,-1,937,1128,0,0
-280,-104,0,0,0,0,0,0,0,0,0,-1,944,1128,0,0
-273,-104,0,0,0,0,0,0,0,0,0,-1,951,1128,0,0
-266,-104,0,0,0,0,0,0,0,0,0,-1,958,1128,0,0
-259,-104,0,0,0,0,0,0,0,0,0,-1,965,1128,0,0
-252,-104,0,0,0,0,0,0,0,0,0,-1,972,1128,0,0
-245,-104,0,0,0,0,0,0,0,0,0,-1,979,1128,0,0
-238,-104,0,0,0,0,0,0,0,0,0,-1,986,1128,0,0
-231,-104,0,0,0,0,0,0,0,0,0,-1,993,1128,0,0
-224,-104,0,0,0,0,0,0,0,0,0,-1,1000,1128,0,0
-217,-104,0,0,0,0,0,0,0,0,0,-1,1007,1128,0,0
-210,-104,0,0,0,0,0,0,0,0,0,-1,1014,1128,0,0
-203,-104,0,0,0,0,0,0,0,0,0,-1,1021,1128,0,0
-196,-104,0,0,0,0,0,0,0,0,0,-1,1028,1128,0,0
-189,-104,0,0,0,0,0,0,0,0,0,-1,1035,1128,0,0
-182,-104,0,0,0,0,0,0,0,0,0,-1,1042,1128,0,0
-175,-104,0,0,0,0,0,0,0,0,0,-1,1049,1128,0,0
-168,-104,0,0,0,0,0,0,0,0,0,-1,1056,1128,0,0
-161,-104,0,0,0,0,0,0,0,0,0,-1,1063,1128,0,0
-154,-104,0,0,0,0,0,0,0,0,0,-1,1070,1128,0,0
-147,-104,0,0,0,0,0,0,0,0,0,-1,1077,1128,0,0
-140,-104,0,0,0,0,0,0,0,0,0,-1,1084,1128,0,0
-133,-104,0,0,0,0,0,0,0,0,0,-1,1091,1128,0,0
-126,-104,0,0,0,0,0,0,0,0,0,-1,1098,1128,0,0
-119,-104,0,0,0,0,0,0,0,0,0,-1,1105,1128,0,0
-112,-104,0,0,0,0,0,0,0,0,0,-1,1112,1128,0,0
-105,-104,0,0,0,0,0,0,0,0,0,-1,1119,1128,0,0
-98,-104,0,0,0,0,0,0,0,0,0,-1,1126,1128,0,0
-91,-104,0,0,0,0,0,0,0,0,0,-1,1133,1128,0,0
-84,-104,0,0,0,0,0,0,0,0,0,-1,1140,1128,0,0
-77,-104,0,0,0,0,0,0,0,0,0,-1,1147,1128,0,0
-70,-104,0,0,0,0,0,0,0,0,0,-1,1154,1128,0,0
-63,-104,0,0,0,0,0,0,0,0,0,-1,1161,1128,0,0
-56,-104,0,0,0,0,0,0,0,0,0,-1,1168,1128,0,0
-49,-104,0,0,0,0,0,0,0,0,0,-1,1175,1128,0,0
-42,-104,0,0,0,0,0,0,0,0,0,-1,1182,1128,0,0
-35,-104,0,0,0,0,0,0,0,0,0,-1,1189,1128,0,0
-28,-104,0,0,0,0,0,0,0,0,0,-1,1196,1128,0,0
-21,-104,0,0,0,0,0,0,0,0,0,-1,1203,1128,0,0
-14,-104,0,0,0,0,0,0,0,0,0,-1,1210,1128,0,0
-7,-104,0,0,0,0,0,0,0,0,0,-1,1217,1128,0,0
0,-104,0,0,0,0,0,0,0,0,0,-1,1224,1128,0,0
7,-104,0,0,0,0,0,0,0,0,0,-1,1231,1128,0,0
14,-104,0,0,0,0,0,0,0,0,0,-1,1238,1128,0,0
21,-104,0,0,0,0,0,0,0,0,0,-1,1245,1128,0,0
28,-104,0,0,0,0,0,0,0,0,0,-1,1252,1128,0,0
35,-104,0,0,0,0,0,0,0,0,0,-1,1259,1128,0,0
42,-104,0,0,0,0,0,0,0,0,0,-1,1266,1128,0,0
49,-104,0,0,0,0,0,0,0,0,0,-1,1273,1128,0,0
56,-104,0,0,0,0,0,0,0,0,0,-1,1280,1128,0,0
63,-104,0,0,0,0,0,0,0,0,0,-1,1287,1128,0,0
70,-104,0,0,0,0,0,0,0,0,0,-1,1294,1128,0,0
77,-104,0,0,0,0,0,0,0,0,0,-1,1301,1128,0,0
84,-104,0,0,0,0,0,0,0,0,0,-1,1308,1128,0,0
91,-104,0,0,0,0,0,0,0,0,0,-1,1315,1128,0,0
98,-104,0,0,0,0,0,0,0,0,0,-1,1322,1128,0,0
105,-104,0,0,0,0,0,0,0,0,0,-1,1329,1128,0,0
112,-104,0,0,0,0,0,0,0,0,0,-1,1336,1128,0,0
119,-104,0,0,0,0,0,0,0,0,0,-1,1343,1128,0,0
126,-104,0,0,0,0,0,0,0,0,0,-1,1350,1128,0,0
133,-104,0,0,0,0,0,0,0,0,0,-1,1357,1128,0,0
140,-104,0,0,0,0,0,0,0,0,0,-1,1364,1128,0,0
147,-104,0,0,0,0,0,0,0,0,0,-1,1371,1128,0,0
154,-104,0,0,0,0,0,0,0,0,0,-1,1378,1128,0,0
161,-104,0,0,0,0,0,0,0,0,0,-1,1385,1128,0,0
168,-104,0,0,0,0,0,0,0,0,0,-1,1392,1128,0,0
175,-104,0,0,0,0,0,0,0,0,0,-1,1399,1128,0,0
182,-104,0,0,0,0,0,0,0,0,0,-1,1406,1128,0,0
189,-104,0,0,0,0,0,0,0,0,0,-1,1413,1128,0,0
196,-104,0,0,0,0,0,0,0,0,0,-1,1420,1128,0,0
203,-104,0,0,0,0,0,0,0,0,0,-1,1427,1128,0,0
210,-104,0,0,0,0,0,0,0,0,0,-1,1434,1128,0,0
217,-104,0,0,0,0,0,0,0,0,0,-1,1441,1128,0,0
224,-104,0,0,0,0,0,0,0,0,0,-1,1448,1128,0,0
231,-104,0,0,0,0,0,0,0,0,0,-1,1455,1128,0,0
238,-104,0,0,0,0,0,0,0,0,0,-1,1462,1128,0,0
245,-104,0,0,0,0,0,0,0,0,0,-1,1469,1128,0,0
252,-104,0,0,0,0,0,0,0,0,0,-1,1476,1128,0,0
259,-104,0,0,0,0,0,0,0,0,0,-1,1483,1128,0,0
266,-104,0,0,0,0,0,0,0,0,0,-1,1490,1128,0,0
273,-104,0,0,0,0,0,0,0,0,0,-1,1497,1128,0,0
280,-104,0,0,0,0,0,0,0,0,0,-1,1504,1128,0,0
287,-104,0,0,0,0,0,0,0,0,0,-1,1511,1128,0,0
294,-104,0,0,0,0,0,0,0,0,0,-1,1518,1128,0,0
301,-104,0,0,0,0,0,0,0,0,0,-1,1525,1128,0,0
308,-104,0,0,0,0,0,0,0,0,0,-1,1532,1128,0,0
315,-104,0,0,0,0,0,0,0,0,0,-1,1539,1128,0,0
322,-104,0,0,0,0,0,0,0,0,0,-1,1546,1128,0,0
329,-104,0,0,0,0,0,0,0,0,0,-1,1553,1128,0,0
336,-104,0,0,0,0,0,0,0,0,0,-1,1560,1128,0,0
343,-104,0,0,0,0,0,0,0,0,0,-1,1567,1128,0,0
350,-104,0,0,0,0,0,0,0,0,0,-1,1574,1128,0,0
357,-104,0,0,0,0,0,0,0,0,0,-1,1581,1128,0,0
364,-104,0,0,0,0,0,0,0,0,0,-1,1588,1128,0,0
371,-104,0,0,0,0,0,0,0,0,0,-1,1595,1128,0,0
378,-104,0,0,0,0,0,0,0,0,0,-1,1602,1128,0,0
385,-104,0,0,0,0,0,0,0,0,0,-1,1609,1128,0,0
392,-104,0,0,0,0,0,0,0,0,0,-1,1616,1128,0,0
399,-104,0,0,0,0,0,0,0,0,0,-1,1623,1128,0,0
406,-104,0,0,0,0,0,0,0,0,0,-1,1630,1128,0,0
413,-104,0,0,0,0,0,0,0,0,0,-1,1637,1128,0,0
420,-104,0,0,0,0,0,0,0,0,0,-1,1644,1128,0,0
427,-104,0,0,0,0,0,0,0,0,0,-1,1651,1128,0,0
434,-104,0,0,0,0,0,0,0,0,0,-1,1658,1128,0,0
441,-104,0,0,0,0,0,0,0,0,0,-1,1665,1128,0,0
448,-104,0,0,0,0,0,0,0,0,0,-1,1672,1128,0,0
455,-104,0,0,0,0,0,0,0,0,0,-1,1679,1128,0,0
462,-104,0,0,0,0,0,0,0,0,0,-1,1686,1128,0,0
469,-104,0,0,0,0,0,0,0,0,0,-1,1693,1128,0,0
476,-104,0,0,0,0,0,0,0,0,0,-1,1700,1128,0,0
483,-104,0,0,0,0,0,0,0,0,0,-1,1707,1128,0,0
490,-104,0,0,0,0,0,0,0,0,0,-1,1714,1128,0,0
497,-104,0,0,0,0,0,0,0,0,0,-1,1721,1128,0,0
504,-104,0,0,0,0,0,0,0,0,0,-1,1728,1128,0,0
511,-104,0,0,0,0,0,0,0,0,0,-1,1735,1128,0,0
518,-104,0,0,0,0,0,0,0,0,0,-1,1742,1128,0,0
525,-104,0,0,0,0,0,0,0,0,0,-1,1749,1128,0,0
532,-104,0,0,0,0,0,0,0,0,0,-1,1756,1128,0,0
539,-104,0,0,0,0,0,0,0,0,0,-1,1763,1128,0,0
546,-104,0,0,0,0,0,0,0,0,0,-1,1770,1128,0,0
553,-104,0,0,0,0,0,0,0,0,0,-1,1777,1128,0,0
560,-104,0,0,0,0,0,0,0,0,0,-1,1784,1128,0,0
567,-104,0,0,0,0,0,0,0,0,0,-1,1791,1128,0,0
574,-104,0,0,0,0,0,0,0,0,0,-1,1798,1128,0,0
581,-104,0,0,0,0,0,0,0,0,0,-1,1805,1128,0,0
588,-104,0,0,0,0,0,0,0,0,0,-1,1812,1128,0,0
595,-104,0,0,0,0,0,0,0,0,0,-1,1819,1128,0,0
602,-104,0,0,0,0,0,0,0,0,0,-1,1826,1128,0,0
609,-104,0,0,0,0,0,0,0,0,0,-1,1833,1128,0,0
616,-104,0,0,0,0,0,0,0,0,0,-1,1840,1128,0,0
623,-104,0,0,0,0,0,0,0,0,0,-1,1847,1128,0,0
630,-104,0,0,0,0,0,0,0,0,0,-1,1854,1128,0,0
637,-104,0,0,0,0,0,0,0,0,0,-1,1861,1128,0,0
644,-104,13.9703,2.09937,-0.00575865,0.000733936,-0.00308588,0.0019666,-0.00699131,-1.19076,0.0054363,0.0379036,1868,1128,13.9704,-2.09936
651,-104,13.8988,2.18237,-0.00342661,0.000251954,-0.00232885,0.00138025,-0.0045549,-1.11964,0.00358634,0.0403178,1875,1128,13.8987,-2.18235
658,-104,13.9647,1.9801,-0.00167828,7.49474e-05,-0.0018531,0.00124832,-0.00285165,-1.00633,0.0024267,0.040922,1882,1128,13.9647,-1.98012
665,-104,14.0502,2.17505,-0.000996035,-0.000201758,-0.000923188,0.000406089,-0.00160388,-0.988524,0.00122722,0.0450755,1889,1128,14.0502,-2.1751
672,-104,14.0615,2.16699,-0.00132841,-0.000638675,0.000467444,-0.000402648,-0.00156443,1.10321,0.000938002,0.0461125,1896,1128,14.0615,-2.167
679,-104,13.9908,1.92078,-0.00218209,-0.00105804,0.00186009,0.000323075,-0.00356321,0.932112,0.00249016,0.0418001,1903,1128,13.9909,-1.92072
686,-104,13.9896,1.77271,-0.00316889,-0.00143702,0.00305938,0.000876612,-0.00548252,0.923312,0.00397953,0.0389126,1910,1128,13.9897,-1.77271
693,-104,13.9796,1.74304,-0.00410768,-0.00178032,0.00402718,0.00124794,-0.00713593,0.926046,0.0052232,0.0349985,1917,1128,13.9797,-1.74308
700,-104,14.0522,1.82568,-0.00475078,-0.00194957,0.00476953,0.00162075,-0.0083211,0.928212,0.00615915,0.0239697,1924,1128,14.0522,-1.82567
707,-104,14.0715,1.87036,-0.00519887,-0.00199474,0.00527907,0.00192,-0.00911362,0.932719,0.00680661,0.0208491,1931,1128,14.0716,-1.87033
714,-104,13.8768,2.3103,-0.00556994,-0.00194132,0.00550226,0.00203804,-0.0095493,0.944654,0.00714313,0.0275098,1938,1128,13.8768,-2.31031
721,-104,13.6699,2.72424,0,0,0,0,0,0,0,-1,1945,1128,13.6699,-2.72421
728,-104,13.6101,2.7019,-0.00544448,-0.00155712,0.00496947,0.00183525,-0.00883685,0.971814,0.00658875,0.0210288,1952,1128,13.6101,-2.70196
735,-104,13.5604,2.6228,-0.00487837,-0.00117422,0.00441677,0.00176307,-0.00781566,0.983926,0.0058868,0.0208221,1959,1128,13.5604,-2.62281
742,-104,13.5392,2.5835,-0.00373728,-0.000491649,0.00378587,0.00200455,-0.00623348,0.987878,0.00496073,0.0138975,1966,1128,13.5392,-2.5835
749,-104,13.553,2.56714,-0.0022151,0.000770889,0.00301599,0.0026432,-0.00408741,1.01523,0.00391562,0.0162549,1973,1128,13.553,-2.56708
756,-104,13.5544,2.53284,-0.000356182,0.00240983,0.00250472,0.003888,-0.00183435,1.03765,0.00337398,0.0160748,1980,1128,13.5545,-2.5328
763,-104,13.556,2.48108,0.00208369,0.00458636,0.00169141,0.005439,0.00123105,1.10388,0.00329326,0.0144193,1987,1128,13.556,-2.48112
770,-104,13.5559,2.44543,0.00466326,0.00718363,0.00124442,0.0076945,0.00415239,1.18124,0.00444708,0.0117521,1994,1128,13.5559,-2.4454
777,-104,13.5753,2.45581,0.00731321,0.0103134,0.00138369,0.0108541,0.0067725,1.19827,0.00633049,0.0179499,2001,1128,13.5754,-2.45575
784,-104,13.6356,2.51477,0.0102835,0.014325,0.00200852,0.0151533,0.00945512,1.17961,0.00883796,0.036168,2008,1128,13.6356,-2.51481
791,-104,13.7024,2.56287,0.0139596,0.0195123,0.00295305,0.0207892,0.0126827,1.16268,0.0120992,0.0456546,2015,1128,13.7024,-2.56287
798,-104,13.7916,2.37048,0,0,0,0,0,0,0,-1,2022,1128,13.7916,-2.37051
805,-104,14.7761,2.82874,0.0244113,0.0345303,0.00603562,0.0373465,0.0215951,1.13422,0.0216498,0.0404117,2029,1128,14.7761,-2.82877
812,-104,15.2231,2.56128,0.0315879,0.0450505,0.00841125,0.0490923,0.0275461,1.12285,0.0284139,0.0462811,2036,1128,15.2231,-2.56125
-700,-111,0,0,0,0,0,0,0,0,0,-1,524,1135,0,0
-693,-111,-9.81891,-1.46558,0.0566383,0.094986,0.0935081,0.171266,-0.0196415,0.886522,0.121256,0.0458369,531,1135,-9.81892,1.46559
-686,-111,-10.0342,-2.18604,0.0523193,0.0709993,0.0748982,0.137138,-0.0138191,0.847429,0.0963623,0.0439847,538,1135,-10.0342,2.186
-679,-111,-7.82794,0.182007,0.0451053,0.0521881,0.0586141,0.107368,-0.0100744,0.815571,0.075162,0.0468032,545,1135,-7.82794,-0.182054
-672,-111,-7.99243,0.334595,0.0369229,0.0375675,0.0447681,0.0820144,-0.00752406,0.788998,0.0573491,0.0498284,552,1135,-7.99246,-0.334596
-665,-111,-8.07532,0.495361,0.0288666,0.0263837,0.0332773,0.0609256,-0.00567524,0.766753,0.0426349,0.0497326,559,1135,-8.07533,-0.495421
-658,-111,-8.04053,0.572388,0.0215665,0.018015,0.0239845,0.0438409,-0.00425944,0.748447,0.0307456,0.0442666,566,1135,-8.04053,-0.57236
-651,-111,-7.80658,0.492676,0.0153919,0.0119243,0.0167057,0.0304535,-0.00313728,0.733692,0.0214248,0.0374522,573,1135,-7.8066,-0.492664
-644,-111,-7.74371,0.419189,0.0105208,0.00762803,0.01117,0.0203376,-0.00218882,0.721012,0.0143438,0.0226426,580,1135,-7.74371,-0.419202
-637,-111,-7.77783,0.465454,0.00754719,0.00387043,0.00632383,0.0122944,-0.000876821,0.643943,0.00850365,0.0088035,587,1135,-7.77781,-0.46546
-630,-111,-7.79449,0.531616,0.00307533,0.000774706,0.00178202,0.00404606,-0.000196024,0.498792,0.00276503,0.0133304,594,1135,-7.79451,-0.531672
-623,-111,-7.79926,0.605835,-0.00095331,-0.000906696,-0.00154342,0.000613592,-0.0024736,-0.792948,0.00188714,0.0124212,601,1135,-7.79923,-0.605883
-616,-111,-7.81476,0.671143,-0.00277866,-0.000827183,-0.00291117,0.00126742,-0.00487326,-0.9471,0.00374353,0.0134058,608,1135,-7.81473,-0.671139
-609,-111,-7.85297,0.747803,-0.00330104,-0.000777522,-0.00369428,0.00186453,-0.0059431,-0.949959,0.00470829,0.0163063,615,1135,-7.85294,-0.747816
-602,-111,-7.80426,0.787231,-0.00383248,-0.000749245,-0.00442568,0.00239563,-0.00697735,-0.952993,0.00562288,0.0148267,622,1135,-7.80425,-0.7872
-595,-111,-7.77405,0.885742,-0.00460202,-0.000907466,-0.00490942,0.00249072,-0.0080002,-0.965341,0.00632923,0.0117729,629,1135,-7.77402,-0.885739
-588,-111,-7.73755,0.963013,-0.00522404,-0.000951902,-0.00525776,0.00258714,-0.00876308,-0.978348,0.00686881,0.0209731,636,1135,-7.73753,-0.963024
-581,-111,-7.90692,0.490601,-0.0054661,-0.000882482,-0.00550215,0.00278608,-0.00913466,-0.982735,0.00720044,0.0324624,643,1135,-7.9069,-0.490554
-574,-111,-8.14246,0.0366211,-0.00543742,-0.000814049,-0.00549806,0.00283854,-0.00909,-0.984405,0.0071953,0.0427534,650,1135,-8.14243,-0.0365946
-567,-111,-8.12048,0.196655,-0.00519018,-0.000562049,-0.00526479,0.00287479,-0.00862702,-0.992457,0.00691185,0.0395229,657,1135,-8.12047,-0.1966
-560,-111,-8.06842,0.313599,-0.00450166,-0.000267116,-0.00482224,0.00288219,-0.00765096,-0.992259,0.00628563,0.0412362,664,1135,-8.06841,-0.313655
-553,-111,-8.25116,0.161499,-0.00332193,-2.35551e-05,-0.00426399,0.00289906,-0.00624455,-0.969923,0.00539557,0.044885,671,1135,-8.25118,-0.161492
-546,-111,-8.22058,0.296265,-0.0016046,4.99646e-05,-0.0037024,0.00301638,-0.00457101,-0.895315,0.00441113,0.0414957,678,1135,-8.22056,-0.296247
-539,-111,-8.17963,0.41333,0.000773112,-0.000199459,-0.00327403,0.00359677,-0.00302312,-0.711673,0.00382677,0.0405412,685,1135,-8.17963,-0.413343
-532,-111,-8.21942,0.39502,0.00342891,-0.00107913,-0.00376621,0.00556408,-0.0032143,-0.515746,0.00512836,0.0414182,692,1135,-8.21944,-0.395005
-525,-111,-8.10828,0.404785,0.00504631,-0.00319509,-0.00678562,0.00886443,-0.0070132,-0.512524,0.0091877,0.0419936,699,1135,-8.10829,-0.404821
-518,-111,0,0,0,0,0,0,0,0,0,-1,706,1135,0,0
-511,-111,0,0,0,0,0,0,0,0,0,-1,713,1135,0,0
-504,-111,0,0,0,0,0,0,0,0,0,-1,720,1135,0,0
-497,-111,0,0,0,0,0,0,0,0,0,-1,727,1135,0,0
-490,-111,0,0,0,0,0,0,0,0,0,-1,734,1135,0,0
-483,-111,0,0,0,0,0,0,0,0,0,-1,741,1135,0,0
-476,-111,0,0,0,0,0,0,0,0,0,-1,748,1135,0,0
-469,-111,0,0,0,0,0,0,0,0,0,-1,755,1135,0,0
-462,-111,0,0,0,0,0,0,0,0,0,-1,762,1135,0,0
-455,-111,0,0,0,0,0,0,0,0,0,-1,769,1135,0,0
-448,-111,0,0,0,0,0,0,0,0,0,-1,776,1135,0,0
-441,-111,0,0,0,0,0,0,0,0,0,-1,783,1135,0,0
-434,-111,0,0,0,0,0,0,0,0,0,-1,790,1135,0,0
-427,-111,0,0,0,0,0,0,0,0,0,-1,797,1135,0,0
-420,-111,0,0,0,0,0,0,0,0,0,-1,804,1135,0,0
-413,-111,0,0,0,0,0,0,0,0,0,-1,811,1135,0,0
-406,-111,0,0,0,0,0,0,0,0,0,-1,818,1135,0,0
-399,-111,0,0,0,0,0,0,0,0,0,-1,825,1135,0,0
-392,-111,0,0,0,0,0,0,0,0,0,-1,832,1135,0,0
-385,-111,0,0,0,0,0,0,0,0,0,-1,839,1135,0,0
-378,-111,0,0,0,0,0,0,0,0,0,-1,846,1135,0,0
-371,-111,0,0,0,0,0,0,0,0,0,-1,853,1135,0,0
-364,-111,0,0,0,0,0,0,0,0,0,-1,860,1135,0,0
-357,-111,0,0,0,0,0,0,0,0,0,-1,867,1135,0,0
-350,-111,0,0,0,0,0,0,0,0,0,-1,874,1135,0,0
-343,-111,0,0,0,0,0,0,0,0,0,-1,881,1135,0,0
-336,-111,0,0,0,0,0,0,0,0,0,-1,888,1135,0,0
-329,-111,0,0,0,0,0,0,0,0,0,-1,895,1135,0,0
-322,-111,0,0,0,0,0,0,0,0,0,-1,902,1135,0,0
-315,-111,0,0,0,0,0,0,0,0,0,-1,909,1135,0,0
-308,-111,0,0,0,0,0,0,0,0,0,-1,916,1135,0,0
-301,-111,0,0,0,0,0,0,0,0,0,-1,923,1135,0,0
-294,-111,0,0,0,0,0,0,0,0,0,-1,930,1135,0,0
-287,-111,0,0,0,0,0,0,0,0,0,-1,937,1135,0,0
-280,-111,0,0,0,0,0,0,0,0,0,-1,944,1135,0,0
-273,-111,0,0,0,0,0,0,0,0,0,-1,951,1135,0,0
-266,-111,0,0,0,0,0,0,0,0,0,-1,958,1135,0,0
-259,-111,0,0,0,0,0,0,0,0,0,-1,965,1135,0,0
-252,-111,0,0,0,0,0,0,0,0,0,-1,972,1135,0,0
-245,-111,0,0,0,0,0,0,0,0,0,-1,979,1135,0,0
-238,-111,0,0,0,0,0,0,0,0,0,-1,986,1135,0,0
-231,-111,0,0,0,0,0,0,0,0,0,-1,993,1135,0,0
-224,-111,0,0,0,0,0,0,0,0,0,-1,1000,1135,0,0
-217,-111,0,0,0,0,0,0,0,0,0,-1,1007,1135,0,0
-210,-111,0,0,0,0,0,0,0,0,0,-1,1014,1135,0,0
-203,-111,0,0,0,0,0,0,0,0,0,-1,1021,1135,0,0
-196,-111,0,0,0,0,0,0,0,0,0,-1,1028,1135,0,0
-189,-111,0,0,0,0,0,0,0,0,0,-1,1035,1135,0,0
-182,-111,0,0,0,0,0,0,0,0,0,-1,1042,1135,0,0
-175,-111,0,0,0,0,0,0,0,0,0,-1,1049,1135,0,0
-168,-111,0,0,0,0,0,0,0,0,0,-1,1056,1135,0,0
-161,-111,0,0,0,0,0,0,0,0,0,-1,1063,1135,0,0
-154,-111,0,0,0,0,0,0,0,0,0,-1,1070,1135,0,0
-147,-111,0,0,0,0,0,0,0,0,0,-1,1077,1135,0,0
-140,-111,0,0,0,0,0,0,0,0,0,-1,1084,1135,0,0
-133,-111,0,0,0,0,0,0,0,0,0,-1,1091,1135,0,0
-126,-111,0,0,0,0,0,0,0,0,0,-1,1098,1135,0,0
-119,-111,0,0,0,0,0,0,0,0,0,-1,1105,1135,0,0
-112,-111,0,0,0,0,0,0,0,0,0,-1,1112,1135,0,0
-105,-111,0,0,0,0,0,0,0,0,0,-1,1119,1135,0,0
-98,-111,0,0,0,0,0,0,0,0,0,-1,1126,1135,0,0
-91,-111,0,0,0,0,0,0,0,0,0,-1,1133,1135,0,0
-84,-111,0,0,0,0,0,0,0,0,0,-1,1140,1135,0,0
-77,-111,0,0,0,0,0,0,0,0,0,-1,1147,1135,0,0
-70,-111,0,0,0,0,0,0,0,0,0,-1,1154,1135,0,0
-63,-111,0,0,0,0,0,0,0,0,0,-1,1161,1135,0,0
-56,-111,0,0,0,0,0,0,0,0,0,-1,1168,1135,0,0
-49,-111,0,0,0,0,0,0,0,0,0,-1,1175,1135,0,0
-42,-111,0,0,0,0,0,0,0,0,0,-1,1182,1135,0,0
-35,-111,0,0,0,0,0,0,0,0,0,-1,1189,1135,0,0
-28,-111,0,0,0,0,0,0,0,0,0,-1,1196,1135,0,0
-21,-111,0,0,0,0,0,0,0,0,0,-1,1203,1135,0,0
-14,-111,0,0,0,0,0,0,0,0,0,-1,1210,1135,0,0
-7,-111,0,0,0,0,0,0,0,0,0,-1,1217,1135,0,0
0,-111,0,0,0,0,0,0,0,0,0,-1,1224,1135,0,0
7,-111,0,0,0,0,0,0,0,0,0,-1,1231,1135,0,0
14,-111,0,0,0,0,0,0,0,0,0,-1,1238,1135,0,0
21,-111,0,0,0,0,0,0,0,0,0,-1,1245,1135,0,0
28,-111,0,0,0,0,0,0,0,0,0,-1,1252,1135,0,0
35,-111,0,0,0,0,0,0,0,0,0,-1,1259,1135,0,0
42,-111,0,0,0,0,0,0,0,0,0,-1,1266,1135,0,0
49,-111,0,0,0,0,0,0,0,0,0,-1,1273,1135,0,0
56,-111,0,0,0,0,0,0,0,0,0,-1,1280,1135,0,0
63,-111,0,0,0,0,0,0,0,0,0,-1,1287,1135,0,0
70,-111,0,0,0,0,0,0,0,0,0,-1,1294,1135,0,0
77,-111,0,0,0,0,0,0,0,0,0,-1,1301,1135,0,0
84,-111,0,0,0,0,0,0,0,0,0,-1,1308,1135,0,0
91,-111,0,0,0,0,0,0,0,0,0,-1,1315,1135,0,0
98,-111,0,0,0,0,0,0,0,0,0,-1,1322,1135,0,0
105,-111,0,0,0,0,0,0,0,0,0,-1,1329,1135,0,0
112,-111,0,0,0,0,0,0,0,0,0,-1,1336,1135,0,0
119,-111,0,0,0,0,0,0,0,0,0,-1,1343,1135,0,0
126,-111,0,0,0,0,0,0,0,0,0,-1,1350,1135,0,0
133,-111,0,0,0,0,0,0,0,0,0,-1,1357,1135,0,0
140,-111,0,0,0,0,0,0,0,0,0,-1,1364,1135,0,0
147,-111,0,0,0,0,0,0,0,0,0,-1,1371,1135,0,0
154,-111,0,0,0,0,0,0,0,0,0,-1,1378,1135,0,0
161,-111,0,0,0,0,0,0,0,0,0,-1,1385,1135,0,0
168,-111,0,0,0,0,0,0,0,0,0,-1,1392,1135,0,0
175,-111,0,0,0,0,0,0,0,0,0,-1,1399,1135,0,0
182,-111,0,0,0,0,0,0,0,0,0,-1,1406,1135,0,0
189,-111,0,0,0,0,0,0,0,0,0,-1,1413,1135,0,0
196,-111,0,0,0,0,0,0,0,0,0,-1,1420,1135,0,0
203,-111,0,0,0,0,0,0,0,0,0,-1,1427,1135,0,0
210,-111,0,0,0,0,0,0,0,0,0,-1,1434,1135,0,0
217,-111,0,0,0,0,0,0,0,0,0,-1,1441,1135,0,0
224,-111,0,0,0,0,0,0,0,0,0,-1,1448,1135,0,0
231,-111,0,0,0,0,0,0,0,0,0,-1,1455,1135,0,0
238,-111,0,0,0,0,0,0,0,0,0,-1,1462,1135,0,0
245,-111,0,0,0,0,0,0,0,0,0,-1,1469,1135,0,0
252,-111,0,0,0,0,0,0,0,0,0,-1,1476,1135,0,0
259,-111,0,0,0,0,0,0,0,0,0,-1,1483,1135,0,0
266,-111,0,0,0,0,0,0,0,0,0,-1,1490,1135,0,0
273,-111,0,0,0,0,0,0,0,0,0,-1,1497,1135,0,0
280,-111,0,0,0,0,0,0,0,0,0,-1,1504,1135,0,0
287,-111,0,0,0,0,0,0,0,0,0,-1,1511,1135,0,0
294,-111,0,0,0,0,0,0,0,0,0,-1,1518,1135,0,0
301,-111,0,0,0,0,0,0,0,0,0,-1,1525,1135,0,0
308,-111,0,0,0,0,0,0,0,0,0,-1,1532,1135,0,0
315,-111,0,0,0,0,0,0,0,0,0,-1,1539,1135,0,0
322,-111,0,0,0,0,0,0,0,0,0,-1,1546,1135,0,0
329,-111,0,0,0,0,0,0,0,0,0,-1,1553,1135,0,0
336,-111,0,0,0,0,0,0,0,0,0,-1,1560,1135,0,0
343,-111,0,0,0,0,0,0,0,0,0,-1,1567,1135,0,0
350,-111,0,0,0,0,0,0,0,0,0,-1,1574,1135,0,0
357,-111,0,0,0,0,0,0,0,0,0,-1,1581,1135,0,0
364,-111,0,0,0,0,0,0,0,0,0,-1,1588,1135,0,0
371,-111,0,0,0,0,0,0,0,0,0,-1,1595,1135,0,0
378,-111,0,0,0,0,0,0,0,0,0,-1,1602,1135,0,0
385,-111,0,0,0,0,0,0,0,0,0,-1,1609,1135,0,0
392,-111,0,0,0,0,0,0,0,0,0,-1,1616,1135,0,0
399,-111,0,0,0,0,0,0,0,0,0,-1,1623,1135,0,0
406,-111,0,0,0,0,0,0,0,0,0,-1,1630,1135,0,0
413,-111,0,0,0,0,0,0,0,0,0,-1,1637,1135,0,0
420,-111,0,0,0,0,0,0,0,0,0,-1,1644,1135,0,0
427,-111,0,0,0,0,0,0,0,0,0,-1,1651,1135,0,0
434,-111,0,0,0,0,0,0,0,0,0,-1,1658,1135,0,0
441,-111,0,0,0,0,0,0,0,0,0,-1,1665,1135,0,0
448,-111,0,0,0,0,0,0,0,0,0,-1,1672,1135,0,0
455,-111,0,0,0,0,0,0,0,0,0,-1,1679,1135,0,0
462,-111,0,0,0,0,0,0,0,0,0,-1,1686,1135,0,0
469,-111,0,0,0,0,0,0,0,0,0,-1,1693,1135,0,0
476,-111,0,0,0,0,0,0,0,0,0,-1,1700,1135,0,0
483,-111,0,0,0,0,0,0,0,0,0,-1,1707,1135,0,0
490,-111,0,0,0,0,0,0,0,0,0,-1,1714,1135,0,0
497,-111,0,0,0,0,0,0,0,0,0,-1,1721,1135,0,0
504,-111,0,0,0,0,0,0,0,0,0,-1,1728,1135,0,0
511,-111,0,0,0,0,0,0,0,0,0,-1,1735,1135,0,0
518,-111,0,0,0,0,0,0,0,0,0,-1,1742,1135,0,0
525,-111,0,0,0,0,0,0,0,0,0,-1,1749,1135,0,0
532,-111,0,0,0,0,0,0,0,0,0,-1,1756,1135,0,0
539,-111,0,0,0,0,0,0,0,0,0,-1,1763,1135,0,0
546,-111,0,0,0,0,0,0,0,0,0,-1,1770,1135,0,0
553,-111,0,0,0,0,0,0,0,0,0,-1,1777,1135,0,0
560,-111,0,0,0,0,0,0,0,0,0,-1,1784,1135,0,0
567,-111,0,0,0,0,0,0,0,0,0,-1,1791,1135,0,0
574,-111,0,0,0,0,0,0,0,0,0,-1,1798,1135,0,0
581,-111,0,0,0,0,0,0,0,0,0,-1,1805,1135,0,0
588,-111,0,0,0,0,0,0,0,0,0,-1,1812,1135,0,0
595,-111,0,0,0,0,0,0,0,0,0,-1,1819,1135,0,0
602,-111,0,0,0,0,0,0,0,0,0,-1,1826,1135,0,0
609,-111,0,0,0,0,0,0,0,0,0,-1,1833,1135,0,0
616,-111,0,0,0,0,0,0,0,0,0,-1,1840,1135,0,0
623,-111,0,0,0,0,0,0,0,0,0,-1,1847,1135,0,0
630,-111,0,0,0,0,0,0,0,0,0,-1,1854,1135,0,0
637,-111,0,0,0,0,0,0,0,0,0,-1,1861,1135,0,0
644,-111,13.9553,2.17932,-0.00455162,0.00289602,-0.00269109,0.00376663,-0.00542223,-1.25791,0.00533382,0.0405219,1868,1135,13.9553,-2.17927
651,-111,13.8789,2.17773,-0.00264421,0.00193548,-0.00221024,0.00282817,-0.0035369,-1.18694,0.00368246,0.041869,1875,1135,13.8789,-2.17774
658,-111,13.9937,1.94275,-0.00128765,0.00130941,-0.00178268,0.00221635,-0.00219459,-1.10017,0.00254667,0.0433521,1882,1135,13.9937,-1.94275
665,-111,14.0953,1.66614,-0.000958794,0.000658273,-0.000780293,0.000973387,-0.00127391,-1.18698,0.00130134,0.0456935,1889,1135,14.0953,-1.66612
672,-111,14.0059,1.79626,-0.00152513,-5.76636e-05,0.00064163,0.00018331,-0.0017661,1.21153,0.00124302,0.0463931,1896,1135,14.0059,-1.79629
679,-111,13.9904,1.88635,-0.00247772,-0.000683782,0.00203201,0.000640427,-0.00380193,0.993246,0.00277286,0.040565,1903,1135,13.9904,-1.88636
686,-111,13.9036,1.87512,-0.00350705,-0.0012151,0.00322124,0.00105794,-0.00578009,0.956295,0.00425016,0.0384823,1910,1135,13.9036,-1.87513
693,-111,13.8929,1.84082,-0.00443554,-0.00168689,0.00415402,0.00131425,-0.00743667,0.945152,0.00544895,0.0348417,1917,1135,13.8929,-1.84083
700,-111,14.0388,1.83105,-0.00503556,-0.0019566,0.00485178,0.00159408,-0.00858624,0.939025,0.00632286,0.0224229,1924,1135,14.0388,-1.83107
707,-111,14.0972,1.92468,-0.00543038,-0.00205173,0.00531688,0.00183775,-0.00931986,0.939219,0.0069078,0.0311992,1931,1135,14.0972,-1.92469
714,-111,13.7439,2.38318,-0.00573985,-0.0020028,0.00549912,0.00193658,-0.00967923,0.949172,0.00718586,0.0185783,1938,1135,13.7438,-2.38324
721,-111,13.5228,2.75427,-0.00576335,-0.00184739,0.00534348,0.00188554,-0.00949628,0.961014,0.007044,0.0117933,1945,1135,13.5228,-2.75426
728,-111,13.5359,2.73438,-0.0054345,-0.00160524,0.00490963,0.00174989,-0.00878962,0.971315,0.00652177,0.015386,1952,1135,13.5358,-2.73443
735,-111,13.5133,2.65833,-0.00477028,-0.00122485,0.00429719,0.00165092,-0.00764604,0.981028,0.00572753,0.015212,1959,1135,13.5133,-2.65829
742,-111,13.4957,2.61353,-0.00362517,-0.000467853,0.00357165,0.00185847,-0.00595148,0.993487,0.00471096,0.0111243,1966,1135,13.4957,-2.6135
749,-111,13.5004,2.58826,-0.00216568,0.000841553,0.00268782,0.00241775,-0.00374188,1.04042,0.00358355,0.0145483,1973,1135,13.5004,-2.58827
756,-111,13.509,2.53894,-0.000346513,0.0025959,0.00207133,0.00366534,-0.00141595,1.09419,0.00302799,0.0155274,1980,1135,13.5091,-2.53898
763,-111,13.5062,2.48633,0.00201772,0.00485859,0.00113055,0.00525358,0.00162273,1.23467,0.00310614,0.0129149,1987,1135,13.5063,-2.48629
770,-111,13.4863,2.45349,0.00441496,0.0075291,0.000576045,0.00763224,0.00431182,1.39363,0.00441885,0.0102205,1994,1135,13.4863,-2.45344
777,-111,13.5087,2.44897,0.0068324,0.0107522,0.000549005,0.0108276,0.00675696,1.43424,0.00631512,0.0222377,2001,1135,13.5086,-2.44896
784,-111,13.5885,2.44678,0.00958262,0.0148748,0.000912701,0.0150278,0.00942964,1.40472,0.00876978,0.0401573,2008,1135,13.5885,-2.44678
791,-111,13.5323,2.40686,0.0130099,0.0201707,0.00153909,0.0204875,0.0126931,1.3678,0.0119407,0.0462586,2015,1135,13.5324,-2.40692
798,-111,13.4326,2.31604,0,0,0,0,0,0,0,-1,2022,1135,13.4326,-2.31604
805,-111,14.9098,2.55579,0,0,0,0,0,0,0,-1,2029,1135,14.9098,-2.55581
812,-111,15.3496,2.16418,0,0,0,0,0,0,0,-1,2036,1135,15.3497,-2.16415
-700,-118,0,0,0,0,0,0,0,0,0,-1,524,1142,0,0
-693,-118,-10.4842,-3.2533,0.0560769,0.0996919,0.0881077,0.168651,-0.012882,0.906715,0.116965,0.0435773,531,1142,-10.4842,3.25332
-686,-118,-11.3631,-3.03271,0.0535368,0.0751297,0.0700956,0.135255,-0.00658899,0.86181,0.0924449,0.0460893,538,1142,-11.3631,3.03274
-679,-118,-12.0597,-2.64063,0.0473536,0.0558329,0.0545101,0.106268,-0.00308149,0.824209,0.0718945,0.0449797,545,1142,-12.0597,2.64057
-672,-118,-8.36121,0.703735,0.0397036,0.0407322,0.041359,0.0815801,-0.00114425,0.791616,0.0547721,0.0456606,552,1142,-8.36121,-0.703711
-665,-118,-8.27783,0.38147,0.0318186,0.0290552,0.03051,0.0609782,-0.000104435,0.76277,0.040687,0.0449157,559,1142,-8.27782,-0.381467
-658,-118,-8.3739,0.31311,0,0,0,0,0,0,0,-1,566,1142,-8.37392,-0.313164
-651,-118,-8.01575,0.610107,0.0179359,0.013629,0.0149693,0.0309059,0.000659054,0.71396,0.0203878,0.0362598,573,1142,-8.01575,-0.610107
-644,-118,-7.66479,0.42688,0.0126548,0.00891351,0.00983613,0.0207966,0.000771709,0.691431,0.0136144,0.0250786,580,1142,-7.66482,-0.426919
-637,-118,-7.68359,0.464355,0.00926815,0.00481784,0.00538701,0.0128715,0.00121451,0.589541,0.00820616,0.0138722,587,1142,-7.6836,-0.464328
-630,-118,-7.70514,0.521851,0.00458072,0.0014958,0.0011163,0.00494229,0.00113424,0.313232,0.00298939,0.0166492,594,1142,-7.70516,-0.521847
-623,-118,-7.70599,0.588379,1.00983e-05,-0.00054264,-0.00196685,0.0017199,-0.00225244,-0.715598,0.00230029,0.0146693,601,1142,-7.70601,-0.588333
-616,-118,-7.72021,0.668091,-0.00247397,-0.000680984,-0.00325465,0.00179839,-0.00495334,-0.91979,0.00403748,0.0130406,608,1142,-7.7202,-0.668148
-609,-118,-7.7168,0.729614,-0.00343559,-0.000858873,-0.00394023,0.00199828,-0.00629274,-0.943407,0.00499628,0.0130428,615,1142,-7.71682,-0.729569
-602,-118,-7.70868,0.800781,-0.00427136,-0.000877368,-0.00461655,0.0023442,-0.00749293,-0.961527,0.00593312,0.0124514,622,1142,-7.70869,-0.800813
-595,-118,-7.73401,0.865479,-0.00525449,-0.00112034,-0.00501945,0.00224099,-0.00861583,-0.980723,0.00661858,0.0108826,629,1142,-7.73404,-0.865441
-588,-118,-7.65704,0.942383,-0.00602221,-0.00117509,-0.0053538,0.00227815,-0.00947545,-0.997939,0.00719755,0.0156474,636,1142,-7.65706,-0.942368
-581,-118,-7.82928,0.528198,-0.00634977,-0.00112663,-0.00560298,0.00244352,-0.00991992,-1.00348,0.00756057,0.0368533,643,1142,-7.82927,-0.528245
-574,-118,-8.08606,0.0234375,-0.00634192,-0.0010412,-0.00558189,0.00248759,-0.00987071,-1.00705,0.00754757,0.0451339,650,1142,-8.08608,-0.0234524
-567,-118,-8.14465,0.106323,-0.00608831,-0.00074598,-0.00532315,0.00253862,-0.0093729,-1.01794,0.00724462,0.0443284,657,1142,-8.14463,-0.106369
-560,-118,-8.09009,0.110962,-0.00531761,-0.000353219,-0.00480384,0.00257182,-0.00824265,-1.02386,0.0065236,0.0394778,664,1142,-8.09011,-0.110973
-553,-118,-7.96014,0.297241,-0.00396579,5.44229e-05,-0.00409978,0.00261036,-0.00652172,-1.01333,0.00543122,0.0414663,671,1142,-7.96012,-0.297204
-546,-118,-7.93488,0.31665,-0.00199159,0.000366156,-0.0033115,0.00270236,-0.00432779,-0.956401,0.00409486,0.0406452,678,1142,-7.93485,-0.316664
-539,-118,-7.94818,0.403809,0.000716476,0.000437259,-0.00255181,0.00313249,-0.00197876,-0.758071,0.00297594,0.042217,685,1142,-7.94815,-0.403784
-532,-118,-8.12,0.577271,0.00383206,-7.99986e-06,-0.00250839,0.00507092,-0.00124685,-0.458742,0.00386388,0.0419028,692,1142,-8.12,-0.577243
-525,-118,-8.1131,0.535889,0.005927,-0.00162607,-0.00475985,0.00822651,-0.00392558,-0.450042,0.00716099,0.043015,699,1142,-8.11311,-0.535861
-518,-118,0,0,0,0,0,0,0,0,0,-1,706,1142,0,0
-511,-118,0,0,0,0,0,0,0,0,0,-1,713,1142,0,0
-504,-118,0,0,0,0,0,0,0,0,0,-1,720,1142,0,0
-497,-118,0,0,0,0,0,0,0,0,0,-1,727,1142,0,0
-490,-118,0,0,0,0,0,0,0,0,0,-1,734,1142,0,0
-483,-118,0,0,0,0,0,0,0,0,0,-1,741,1142,0,0
-476,-118,0,0,0,0,0,0,0,0,0,-1,748,1142,0,0
-469,-118,0,0,0,0,0,0,0,0,0,-1,755,1142,0,0
-462,-118,0,0,0,0,0,0,0,0,0,-1,762,1142,0,0
-455,-118,0,0,0,0,0,0,0,0,0,-1,769,1142,0,0
-448,-118,0,0,0,0,0,0,0,0,0,-1,776,1142,0,0
-441,-118,0,0,0,0,0,0,0,0,0,-1,783,1142,0,0
-434,-118,0,0,0,0,0,0,0,0,0,-1,790,1142,0,0
-427,-118,0,0,0,0,0,0,0,0,0,-1,797,1142,0,0
-420,-118,0,0,0,0,0,0,0,0,0,-1,804,1142,0,0
-413,-118,0,0,0,0,0,0,0,0,0,-1,811,1142,0,0
-406,-118,0,0,0,0,0,0,0,0,0,-1,818,1142,0,0
-399,-118,0,0,0,0,0,0,0,0,0,-1,825,1142,0,0
-392,-118,0,0,0,0,0,0,0,0,0,-1,832,1142,0,0
-385,-118,0,0,0,0,0,0,0,0,0,-1,839,1142,0,0
-378,-118,0,0,0,0,0,0,0,0,0,-1,846,1142,0,0
-371,-118,0,0,0,0,0,0,0,0,0,-1,853,1142,0,0
-364,-118,0,0,0,0,0,0,0,0,0,-1,860,1142,0,0
-357,-118,0,0,0,0,0,0,0,0,0,-1,867,1142,0,0
-350,-118,0,0,0,0,0,0,0,0,0,-1,874,1142,0,0
-343,-118,0,0,0,0,0,0,0,0,0,-1,881,1142,0,0
-336,-118,0,0,0,0,0,0,0,0,0,-1,888,1142,0,0
-329,-118,0,0,0,0,0,0,0,0,0,-1,895,1142,0,0
-322,-118,0,0,0,0,0,0,0,0,0,-1,902,1142,0,0
-315,-118,0,0,0,0,0,0,0,0,0,-1,909,1142,0,0
-308,-118,0,0,0,0,0,0,0,0,0,-1,916,1142,0,0
-301,-118,0,0,0,0,0,0,0,0,0,-1,923,1142,0,0
-294,-118,0,0,0,0,0,0,0,0,0,-1,930,1142,0,0
-287,-118,0,0,0,0,0,0,0,0,0,-1,937,1142,0,0
-280,-118,0,0,0,0,0,0,0,0,0,-1,944,1142,0,0
-273,-118,0,0,0,0,0,0,0,0,0,-1,951,1142,0,0
-266,-118,0,0,0,0,0,0,0,0,0,-1,958,1142,0,0
-259,-118,0,0,0,0,0,0,0,0,0,-1,965,1142,0,0
-252,-118,0,0,0,0,0,0,0,0,0,-1,972,1142,0,0
-245,-118,0,0,0,0,0,0,0,0,0,-1,979,1142,0,0
-238,-118,0,0,0,0,0,0,0,0,0,-1,986,1142,0,0
-231,-118,0,0,0,0,0,0,0,0,0,-1,993,1142,0,0
-224,-118,0,0,0,0,0,0,0,0,0,-1,1000,1142,0,0
-217,-118,0,0,0,0,0,0,0,0,0,-1,1007,1142,0,0
-210,-118,0,0,0,0,0,0,0,0,0,-1,1014,1142,0,0
-203,-118,0,0,0,0,0,0,0,0,0,-1,1021,1142,0,0
-196,-118,0,0,0,0,0,0,0,0,0,-1,1028,1142,0,0
-189,-118,0,0,0,0,0,0,0,0,0,-1,1035,1142,0,0
-182,-118,0,0,0,0,0,0,0,0,0,-1,1042,1142,0,0
-175,-118,0,0,0,0,0,0,0,0,0,-1,1049,1142,0,0
-168,-118,0,0,0,0,0,0,0,0,0,-1,1056,1142,0,0
-161,-118,0,0,0,0,0,0,0,0,0,-1,1063,1142,0,0
-154,-118,0,0,0,0,0,0,0,0,0,-1,1070,1142,0,0
-147,-118,0,0,0,0,0,0,0,0,0,-1,1077,1142,0,0
-140,-118,0,0,0,0,0,0,0,0,0,-1,1084,1142,0,0
-133,-118,0,0,0,0,0,0,0,0,0,-1,1091,1142,0,0
-126,-118,0,0,0,0,0,0,0,0,0,-1,1098,1142,0,0
-119,-118,0,0,0,0,0,0,0,0,0,-1,1105,1142,0,0
-112,-118,0,0,0,0,0,0,0,0,0,-1,1112,1142,0,0
-105,-118,0,0,0,0,0,0,0,0,0,-1,1119,1142,0,0
-98,-118,0,0,0,0,0,0,0,0,0,-1,1126,1142,0,0
-91,-118,0,0,0,0,0,0,0,0,0,-1,1133,1142,0,0
-84,-118,0,0,0,0,0,0,0,0,0,-1,1140,1142,0,0
-77,-118,0,0,0,0,0,0,0,0,0,-1,1147,1142,0,0
-70,-118,0,0,0,0,0,0,0,0,0,-1,1154,1142,0,0
-63,-118,0,0,0,0,0,0,0,0,0,-1,1161,1142,0,0
-56,-118,0,0,0,0,0,0,0,0,0,-1,1168,1142,0,0
-49,-118,0,0,0,0,0,0,0,0,0,-1,1175,1142,0,0
-42,-118,0,0,0,0,0,0,0,0,0,-1,1182,1142,0,0
-35,-118,0,0,0,0,0,0,0,0,0,-1,1189,1142,0,0
-28,-118,0,0,0,0,0,0,0,0,0,-1,1196,1142,0,0
-21,-118,0,0,0,0,0,0,0,0,0,-1,1203,1142,0,0
-14,-118,0,0,0,0,0,0,0,0,0,-1,1210,1142,0,0
-7,-118,0,0,0,0,0,0,0,0,0,-1,1217,1142,0,0
0,-118,0,0,0,0,0,0,0,0,0,-1,1224,1142,0,0
7,-118,0,0,0,0,0,0,0,0,0,-1,1231,1142,0,0
14,-118,0,0,0,0,0,0,0,0,0,-1,1238,1142,0,0
21,-118,0,0,0,0,0,0,0,0,0,-1,1245,1142,0,0
28,-118,0,0,0,0,0,0,0,0,0,-1,1252,1142,0,0
35,-118,0,0,0,0,0,0,0,0,0,-1,1259,1142,0,0
42,-118,0,0,0,0,0,0,0,0,0,-1,1266,1142,0,0
49,-118,0,0,0,0,0,0,0,0,0,-1,1273,1142,0,0
56,-118,0,0,0,0,0,0,0,0,0,-1,1280,1142,0,0
63,-118,0,0,0,0,0,0,0,0,0,-1,1287,1142,0,0
70,-118,0,0,0,0,0,0,0,0,0,-1,1294,1142,0,0
77,-118,0,0,0,0,0,0,0,0,0,-1,1301,1142,0,0
84,-118,0,0,0,0,0,0,0,0,0,-1,1308,1142,0,0
91,-118,0,0,0,0,0,0,0,0,0,-1,1315,1142,0,0
98,-118,0,0,0,0,0,0,0,0,0,-1,1322,1142,0,0
105,-118,0,0,0,0,0,0,0,0,0,-1,1329,1142,0,0
112,-118,0,0,0,0,0,0,0,0,0,-1,1336,1142,0,0
119,-118,0,0,0,0,0,0,0,0,0,-1,1343,1142,0,0
126,-118,0,0,0,0,0,0,0,0,0,-1,1350,1142,0,0
133,-118,0,0,0,0,0,0,0,0,0,-1,1357,1142,0,0
140,-118,0,0,0,0,0,0,0,0,0,-1,1364,1142,0,0
147,-118,0,0,0,0,0,0,0,0,0,-1,1371,1142,0,0
154,-118,0,0,0,0,0,0,0,0,0,-1,1378,1142,0,0
161,-118,0,0,0,0,0,0,0,0,0,-1,1385,1142,0,0
168,-118,0,0,0,0,0,0,0,0,0,-1,1392,1142,0,0
175,-118,0,0,0,0,0,0,0,0,0,-1,1399,1142,0,0
182,-118,0,0,0,0,0,0,0,0,0,-1,1406,1142,0,0
189,-118,0,0,0,0,0,0,0,0,0,-1,1413,1142,0,0
196,-118,0,0,0,0,0,0,0,0,0,-1,1420,1142,0,0
203,-118,0,0,0,0,0,0,0,0,0,-1,1427,1142,0,0
210,-118,0,0,0,0,0,0,0,0,0,-1,1434,1142,0,0
217,-118,0,0,0,0,0,0,0,0,0,-1,1441,1142,0,0
224,-118,0,0,0,0,0,0,0,0,0,-1,1448,1142,0,0
231,-118,0,0,0,0,0,0,0,0,0,-1,1455,1142,0,0
238,-118,0,0,0,0,0,0,0,0,0,-1,1462,1142,0,0
245,-118,0,0,0,0,0,0,0,0,0,-1,1469,1142,0,0
252,-118,0,0,0,0,0,0,0,0,0,-1,1476,1142,0,0
259,-118,0,0,0,0,0,0,0,0,0,-1,1483,1142,0,0
266,-118,0,0,0,0,0,0,0,0,0,-1,1490,1142,0,0
273,-118,0,0,0,0,0,0,0,0,0,-1,1497,1142,0,0
280,-118,0,0,0,0,0,0,0,0,0,-1,1504,1142,0,0
287,-118,0,0,0,0,0,0,0,0,0,-1,1511,1142,0,0
294,-118,0,0,0,0,0,0,0,0,0,-1,1518,1142,0,0
301,-118,0,0,0,0,0,0,0,0,0,-1,1525,1142,0,0
308,-118,0,0,0,0,0,0,0,0,0,-1,1532,1142,0,0
315,-118,0,0,0,0,0,0,0,0,0,-1,1539,1142,0,0
322,-118,0,0,0,0,0,0,0,0,0,-1,1546,1142,0,0
329,-118,0,0,0,0,0,0,0,0,0,-1,1553,1142,0,0
336,-118,0,0,0,0,0,0,0,0,0,-1,1560,1142,0,0
343,-118,0,0,0,0,0,0,0,0,0,-1,1567,1142,0,0
350,-118,0,0,0,0,0,0,0,0,0,-1,1574,1142,0,0
357,-118,0,0,0,0,0,0,0,0,0,-1,1581,1142,0,0
364,-118,0,0,0,0,0,0,0,0,0,-1,1588,1142,0,0
371,-118,0,0,0,0,0,0,0,0,0,-1,1595,1142,0,0
378,-118,0,0,0,0,0,0,0,0,0,-1,1602,1142,0,0
385,-118,0,0,0,0,0,0,0,0,0,-1,1609,1142,0,0
392,-118,0,0,0,0,0,0,0,0,0,-1,1616,1142,0,0
399,-118,0,0,0,0,0,0,0,0,0,-1,1623,1142,0,0
406,-118,0,0,0,0,0,0,0,0,0,-1,1630,1142,0,0
413,-118,0,0,0,0,0,0,0,0,0,-1,1637,1142,0,0
420,-118,0,0,0,0,0,0,0,0,0,-1,1644,1142,0,0
427,-118,0,0,0,0,0,0,0,0,0,-1,1651,1142,0,0
434,-118,0,0,0,0,0,0,0,0,0,-1,1658,1142,0,0
441,-118,0,0,0,0,0,0,0,0,0,-1,1665,1142,0,0
448,-118,0,0,0,0,0,0,0,0,0,-1,1672,1142,0,0
455,-118,0,0,0,0,0,0,0,0,0,-1,1679,1142,0,0
462,-118,0,0,0,0,0,0,0,0,0,-1,1686,1142,0,0
469,-118,0,0,0,0,0,0,0,0,0,-1,1693,1142,0,0
476,-118,0,0,0,0,0,0,0,0,0,-1,1700,1142,0,0
483,-118,0,0,0,0,0,0,0,0,0,-1,1707,1142,0,0
490,-118,0,0,0,0,0,0,0,0,0,-1,1714,1142,0,0
497,-118,0,0,0,0,0,0,0,0,0,-1,1721,1142,0,0
504,-118,0,0,0,0,0,0,0,0,0,-1,1728,1142,0,0
511,-118,0,0,0,0,0,0,0,0,0,-1,1735,1142,0,0
518,-118,0,0,0,0,0,0,0,0,0,-1,1742,1142,0,0
525,-118,0,0,0,0,0,0,0,0,0,-1,1749,1142,0,0
532,-118,0,0,0,0,0,0,0,0,0,-1,1756,1142,0,0
539,-118,0,0,0,0,0,0,0,0,0,-1,1763,1142,0,0
546,-118,0,0,0,0,0,0,0,0,0,-1,1770,1142,0,0
553,-118,0,0,0,0,0,0,0,0,0,-1,1777,1142,0,0
560,-118,0,0,0,0,0,0,0,0,0,-1,1784,1142,0,0
567,-118,0,0,0,0,0,0,0,0,0,-1,1791,1142,0,0
574,-118,0,0,0,0,0,0,0,0,0,-1,1798,1142,0,0
581,-118,0,0,0,0,0,0,0,0,0,-1,1805,1142,0,0
588,-118,0,0,0,0,0,0,0,0,0,-1,1812,1142,0,0
595,-118,0,0,0,0,0,0,0,0,0,-1,1819,1142,0,0
602,-118,0,0,0,0,0,0,0,0,0,-1,1826,1142,0,0
609,-118,0,0,0,0,0,0,0,0,0,-1,1833,1142,0,0
616,-118,0,0,0,0,0,0,0,0,0,-1,1840,1142,0,0
623,-118,0,0,0,0,0,0,0,0,0,-1,1847,1142,0,0
630,-118,0,0,0,0,0,0,0,0,0,-1,1854,1142,0,0
637,-118,0,0,0,0,0,0,0,0,0,-1,1861,1142,0,0
644,-118,14.1754,1.99561,-0.0032402,0.00388924,-0.00210352,0.0044636,-0.00381457,-1.30424,0.0047843,0.0393853,1868,1142,14.1754,-1.99556
651,-118,14.1243,1.79883,-0.00171586,0.00276435,-0.00193079,0.00348161,-0.00243313,-1.21511,0.00343271,0.0405428,1875,1142,14.1243,-1.79883
658,-118,14.0345,1.7616,-0.000795884,0.00191121,-0.00157549,0.00263474,-0.00151942,-1.14028,0.00242705,0.0426756,1882,1142,14.0346,-1.76162
665,-118,14.0172,1.60168,-0.000885049,0.00103908,-0.00052804,0.00117446,-0.00102043,-1.31981,0.00126826,0.0461021,1889,1142,14.0172,-1.60165
672,-118,13.9919,1.60803,-0.00171166,0.000164385,0.000888276,0.00051823,-0.0020655,1.19171,0.00157836,0.0487659,1896,1142,13.9919,-1.60806
679,-118,14.0243,1.8938,-0.00278734,-0.000578297,0.00225383,0.000827107,-0.00419274,1.01323,0.00310777,0.0427815,1903,1142,14.0243,-1.89376
686,-118,13.986,2.08203,-0.00387014,-0.00119236,0.00341905,0.00114061,-0.0062031,0.972019,0.00456337,0.0361706,1910,1142,13.9859,-2.08197
693,-118,13.927,1.90955,-0.00479241,-0.00172074,0.00430927,0.0013182,-0.00783135,0.956582,0.00571124,0.0313063,1917,1142,13.9271,-1.9095
700,-118,14.035,1.86145,-0.00535077,-0.00204387,0.00495686,0.00152804,-0.00892267,0.946379,0.00651778,0.0164862,1924,1142,14.0351,-1.86146
707,-118,14.1385,1.94543,-0.00568695,-0.00217351,0.00536925,0.0017191,-0.00957956,0.9435,0.00702983,0.0473517,1931,1142,14.1385,-1.94545
714,-118,13.7365,2.42505,-0.00592455,-0.00211821,0.00550342,0.00180182,-0.00984459,0.951869,0.0072388,0.0294431,1938,1142,13.7365,-2.42506
721,-118,13.4825,2.75061,-0.00584566,-0.00194494,0.00531653,0.00176769,-0.00955828,0.961201,0.00703583,0.00963644,1945,1142,13.4825,-2.7506
728,-118,13.4883,2.74084,-0.00538243,-0.0016608,0.00483557,0.00165964,-0.00870287,0.969073,0.00642696,0.0129232,1952,1142,13.4882,-2.74086
735,-118,13.4802,2.69958,-0.00459114,-0.00124874,0.00414788,0.00155195,-0.00739183,0.976902,0.00551844,0.0127365,1959,1142,13.4803,-2.69957
742,-118,13.496,2.64636,-0.00336506,-0.000417802,0.00328981,0.00171335,-0.00549621,0.995967,0.00434924,0.0192654,1966,1142,13.4959,-2.64633
749,-118,13.4871,2.56433,-0.00184606,0.00095655,0.00222649,0.00218601,-0.00307552,1.06627,0.00305218,0.0204157,1973,1142,13.487,-2.56437
756,-118,13.4771,2.53638,6.28523e-05,0.00283431,0.00141161,0.00342668,-0.000529522,1.17347,0.00247988,0.0183464,1980,1142,13.477,-2.5364
763,-118,13.4573,2.49487,0.00245832,0.00518084,0.000249966,0.0052036,0.00243556,1.47999,0.00300634,0.0100253,1987,1142,13.4572,-2.49483
770,-118,13.4467,2.44153,0.0048161,0.00792734,-0.000533794,0.00801637,0.00472706,-1.40552,0.004653,0.0111311,1994,1142,13.4466,-2.44147
777,-118,13.4617,2.37671,0.00720312,0.0112543,-0.000905536,0.0114475,0.00700993,-1.3606,0.00666462,0.0242746,2001,1142,13.4617,-2.37667
784,-118,13.5013,2.26855,0.00996661,0.0154911,-0.0010344,0.0156784,0.00977929,-1.39164,0.00914389,0.0413067,2008,1142,13.5013,-2.26859
791,-118,13.4764,2.07703,0.0133877,0.0208818,-0.00101155,0.021016,0.0132536,-1.43896,0.0122709,0.0468743,2015,1142,13.4765,-2.07706
798,-118,13.4816,1.98962,0,0,0,0,0,0,0,-1,2022,1142,13.4816,-1.98963
805,-118,14.9377,1.9231,0.0230484,0.036052,-0.000123892,0.0360532,0.0230472,-1.56127,0.0210827,0.0484072,2029,1142,14.9377,-1.9231
812,-118,15.3347,1.50378,0,0,0,0,0,0,0,-1,2036,1142,15.3348,-1.5038
-700,-125,0,0,0,0,0,0,0,0,0,-1,524,1149,0,0
-693,-125,-11.9795,-3.93762,0,0,0,0,0,0,0,-1,531,1149,-11.9795,3.93759
-686,-125,-8.38678,0.592529,0,0,0,0,0,0,0,-1,538,1149,-8.38675,-0.592523
-679,-125,-8.55994,0.106934,0,0,0,0,0,0,0,-1,545,1149,-8.55993,-0.106976
-672,-125,-7.90698,0.373291,0,0,0,0,0,0,0,-1,552,1149,-7.90701,-0.373239
-665,-125,-7.91272,0.344604,0.0345521,0.0308738,0.0284936,0.0612658,0.00416,0.75317,0.0395303,0.0437934,559,1149,-7.91275,-0.344598
-658,-125,-7.95258,0.235352,0.026925,0.0218732,0.0200335,0.0445912,0.00420702,0.722686,0.0284291,0.0420549,566,1149,-7.95258,-0.235336
-651,-125,-7.70416,0.396973,0.0201062,0.0151117,0.0134754,0.0313138,0.00390407,0.693779,0.0197039,0.0381078,573,1149,-7.70413,-0.396934
-644,-125,-7.60602,0.428467,0.0144305,0.0101626,0.00859109,0.0211487,0.00344441,0.663667,0.0131028,0.0234922,580,1149,-7.60603,-0.428487
-637,-125,-7.58826,0.457642,0.0106298,0.00585897,0.00447349,0.0133141,0.00317465,0.540457,0.00802987,0.0126012,587,1149,-7.58827,-0.457587
-630,-125,-7.59253,0.51416,0.00595585,0.00242095,0.000523307,0.00603169,0.00234511,0.143928,0.00351099,0.0133108,594,1149,-7.59255,-0.514199
-623,-125,-7.60962,0.576782,0.00101405,6.70941e-05,-0.00229557,0.00288446,-0.00180332,-0.683696,0.00273038,0.012313,601,1149,-7.60963,-0.576749
-616,-125,-7.61047,0.65686,-0.00224752,-0.000290282,-0.00362986,0.00249057,-0.00502837,-0.917069,0.00442272,0.0116055,608,1149,-7.61047,-0.65683
-609,-125,-7.62427,0.724731,-0.00367734,-0.0009011,-0.00430541,0.00223443,-0.00681287,-0.941343,0.00544185,0.0114408,615,1149,-7.62429,-0.724693
-602,-125,-7.64746,0.799683,-0.00474907,-0.00107248,-0.0048775,0.00230165,-0.0081232,-0.965612,0.00632388,0.0109527,622,1149,-7.64745,-0.799726
-595,-125,-7.63281,0.878418,-0.00591041,-0.0014528,-0.00521217,0.00198711,-0.00935032,-0.98744,0.0069907,0.0103207,629,1149,-7.63279,-0.878375
-588,-125,-7.55145,0.957397,-0.00684096,-0.00157876,-0.00554028,0.00192345,-0.0103432,-1.00708,0.00761797,0.0156107,636,1149,-7.55146,-0.957417
-581,-125,-7.75,0.542358,-0.00728084,-0.00157561,-0.00581569,0.0020494,-0.0109059,-1.01341,0.00804123,0.0367955,643,1149,-7.74998,-0.542402
-574,-125,-7.98834,-0.0848389,-0.00732331,-0.00149157,-0.00581365,0.00209646,-0.0109114,-1.01784,0.00806441,0.0446642,650,1149,-7.98831,0.0848918
-567,-125,-8.15405,0.160034,-0.00709221,-0.00119065,-0.00557802,0.00216899,-0.0104519,-1.02869,0.00779218,0.0414219,657,1149,-8.15408,-0.160044
-560,-125,-8.14673,0.197876,-0.00628468,-0.000727779,-0.00502,0.00223138,-0.00924384,-1.03815,0.00702548,0.0386281,664,1149,-8.14671,-0.197931
-553,-125,-8.05951,0.346313,-0.00480703,-0.000180724,-0.00419763,0.0022989,-0.00728665,-1.03723,0.00577857,0.0412037,671,1149,-8.05951,-0.346366
-546,-125,-8.00354,0.204102,-0.00261654,0.000347035,-0.00319519,0.00238731,-0.00465682,-1.00252,0.00413669,0.041804,678,1149,-8.00356,-0.204086
-539,-125,-7.8894,0.187134,0.00039171,0.00071511,-0.00210367,0.00266329,-0.00155647,-0.823756,0.00246405,0.0417741,685,1149,-7.88937,-0.187176
-532,-125,-8.09576,0.352051,0.00396546,0.000668957,-0.00150149,0.00454683,8.75883e-05,-0.369419,0.00300245,0.0381179,692,1149,-8.09574,-0.352041
-525,-125,-8.09094,0.105591,0.00661403,-0.000511309,-0.0028994,0.00764474,-0.00154202,-0.341558,0.0056807,0.0405291,699,1149,-8.09097,-0.105586
-518,-125,0,0,0,0,0,0,0,0,0,-1,706,1149,0,0
-511,-125,0,0,0,0,0,0,0,0,0,-1,713,1149,0,0
-504,-125,0,0,0,0,0,0,0,0,0,-1,720,1149,0,0
-497,-125,0,0,0,0,0,0,0,0,0,-1,727,1149,0,0
-490,-125,0,0,0,0,0,0,0,0,0,-1,734,1149,0,0
-483,-125,0,0,0,0,0,0,0,0,0,-1,741,1149,0,0
-476,-125,0,0,0,0,0,0,0,0,0,-1,748,1149,0,0
-469,-125,0,0,0,0,0,0,0,0,0,-1,755,1149,0,0
-462,-125,0,0,0,0,0,0,0,0,0,-1,762,1149,0,0
-455,-125,0,0,0,0,0,0,0,0,0,-1,769,1149,0,0
-448,-125,0,0,0,0,0,0,0,0,0,-1,776,1149,0,0
-441,-125,0,0,0,0,0,0,0,0,0,-1,783,1149,0,0
-434,-125,0,0,0,0,0,0,0,0,0,-1,790,1149,0,0
-427,-125,0,0,0,0,0,0,0,0,0,-1,797,1149,0,0
-420,-125,0,0,0,0,0,0,0,0,0,-1,804,1149,0,0
-413,-125,0,0,0,0,0,0,0,0,0,-1,811,1149,0,0
-406,-125,0,0,0,0,0,0,0,0,0,-1,818,1149,0,0
-399,-125,0,0,0,0,0,0,0,0,0,-1,825,1149,0,0
-392,-125,0,0,0,0,0,0,0,0,0,-1,832,1149,0,0
-385,-125,0,0,0,0,0,0,0,0,0,-1,839,1149,0,0
-378,-125,0,0,0,0,0,0,0,0,0,-1,846,1149,0,0
-371,-125,0,0,0,0,0,0,0,0,0,-1,853,1149,0,0
-364,-125,0,0,0,0,0,0,0,0,0,-1,860,1149,0,0
-357,-125,0,0,0,0,0,0,0,0,0,-1,867,1149,0,0
-350,-125,0,0,0,0,0,0,0,0,0,-1,874,1149,0,0
-343,-125,0,0,0,0,0,0,0,0,0,-1,881,1149,0,0
-336,-125,0,0,0,0,0,0,0,0,0,-1,888,1149,0,0
-329,-125,0,0,0,0,0,0,0,0,0,-1,895,1149,0,0
-322,-125,0,0,0,0,0,0,0,0,0,-1,902,1149,0,0
-315,-125,0,0,0,0,0,0,0,0,0,-1,909,1149,0,0
-308,-125,0,0,0,0,0,0,0,0,0,-1,916,1149,0,0
-301,-125,0,0,0,0,0,0,0,0,0,-1,923,1149,0,0
-294,-125,0,0,0,0,0,0,0,0,0,-1,930,1149,0,0
-287,-125,0,0,0,0,0,0,0,0,0,-1,937,1149,0,0
-280,-125,0,0,0,0,0,0,0,0,0,-1,944,1149,0,0
-273,-125,0,0,0,0,0,0,0,0,0,-1,951,1149,0,0
-266,-125,0,0,0,0,0,0,0,0,0,-1,958,1149,0,0
-259,-125,0,0,0,0,0,0,0,0,0,-1,965,1149,0,0
-252,-125,0,0,0,0,0,0,0,0,0,-1,972,1149,0,0
-245,-125,0,0,0,0,0,0,0,0,0,-1,979,1149,0,0
-238,-125,0,0,0,0,0,0,0,0,0,-1,986,1149,0,0
-231,-125,0,0,0,0,0,0,0,0,0,-1,993,1149,0,0
-224,-125,0,0,0,0,0,0,0,0,0,-1,1000,1149,0,0
-217,-125,0,0,0,0,0,0,0,0,0,-1,1007,1149,0,0
-210,-125,0,0,0,0,0,0,0,0,0,-1,1014,1149,0,0
-203,-125,0,0,0,0,0,0,0,0,0,-1,1021,1149,0,0
-196,-125,0,0,0,0,0,0,0,0,0,-1,1028,1149,0,0
-189,-125,0,0,0,0,0,0,0,0,0,-1,1035,1149,0,0
-182,-125,0,0,0,0,0,0,0,0,0,-1,1042,1149,0,0
-175,-125,0,0,0,0,0,0,0,0,0,-1,1049,1149,0,0
-168,-125,0,0,0,0,0,0,0,0,0,-1,1056,1149,0,0
-161,-125,0,0,0,0,0,0,0,0,0,-1,1063,1149,0,0
-154,-125,0,0,0,0,0,0,0,0,0,-1,1070,1149,0,0
-147,-125,0,0,0,0,0,0,0,0,0,-1,1077,1149,0,0
-140,-125,0,0,0,0,0,0,0,0,0,-1,1084,1149,0,0
-133,-125,0,0,0,0,0,0,0,0,0,-1,1091,1149,0,0
-126,-125,0,0,0,0,0,0,0,0,0,-1,1098,1149,0,0
-119,-125,0,0,0,0,0,0,0,0,0,-1,1105,1149,0,0
-112,-125,0,0,0,0,0,0,0,0,0,-1,1112,1149,0,0
-105,-125,0,0,0,0,0,0,0,0,0,-1,1119,1149,0,0
-98,-125,0,0,0,0,0,0,0,0,0,-1,1126,1149,0,0
-91,-125,0,0,0,0,0,0,0,0,0,-1,1133,1149,0,0
-84,-125,0,0,0,0,0,0,0,0,0,-1,1140,1149,0,0
-77,-125,0,0,0,0,0,0,0,0,0,-1,1147,1149,0,0
-70,-125,0,0,0,0,0,0,0,0,0,-1,1154,1149,0,0
-63,-125,0,0,0,0,0,0,0,0,0,-1,1161,1149,0,0
-56,-125,0,0,0,0,0,0,0,0,0,-1,1168,1149,0,0
-49,-125,0,0,0,0,0,0,0,0,0,-1,1175,1149,0,0
-42,-125,0,0,0,0,0,0,0,0,0,-1,1182,1149,0,0
-35,-125,0,0,0,0,0,0,0,0,0,-1,1189,1149,0,0
-28,-125,0,0,0,0,0,0,0,0,0,-1,1196,1149,0,0
-21,-125,0,0,0,0,0,0,0,0,0,-1,1203,1149,0,0
-14,-125,0,0,0,0,0,0,0,0,0,-1,1210,1149,0,0
-7,-125,0,0,0,0,0,0,0,0,0,-1,1217,1149,0,0
0,-125,0,0,0,0,0,0,0,0,0,-1,1224,1149,0,0
7,-125,0,0,0,0,0,0,0,0,0,-1,1231,1149,0,0
14,-125,0,0,0,0,0,0,0,0,0,-1,1238,1149,0,0
21,-125,0,0,0,0,0,0,0,0,0,-1,1245,1149,0,0
28,-125,0,0,0,0,0,0,0,0,0,-1,1252,1149,0,0
35,-125,0,0,0,0,0,0,0,0,0,-1,1259,1149,0,0
42,-125,0,0,0,0,0,0,0,0,0,-1,1266,1149,0,0
49,-125,0,0,0,0,0,0,0,0,0,-1,1273,1149,0,0
56,-125,0,0,0,0,0,0,0,0,0,-1,1280,1149,0,0
63,-125,0,0,0,0,0,0,0,0,0,-1,1287,1149,0,0
70,-125,0,0,0,0,0,0,0,0,0,-1,1294,1149,0,0
77,-125,0,0,0,0,0,0,0,0,0,-1,1301,1149,0,0
84,-125,0,0,0,0,0,0,0,0,0,-1,1308,1149,0,0
91,-125,0,0,0,0,0,0,0,0,0,-1,1315,1149,0,0
98,-125,0,0,0,0,0,0,0,0,0,-1,1322,1149,0,0
105,-125,0,0,0,0,0,0,0,0,0,-1,1329,1149,0,0
112,-125,0,0,0,0,0,0,0,0,0,-1,1336,1149,0,0
119,-125,0,0,0,0,0,0,0,0,0,-1,1343,1149,0,0
126,-125,0,0,0,0,0,0,0,0,0,-1,1350,1149,0,0
133,-125,0,0,0,0,0,0,0,0,0,-1,1357,1149,0,0
140,-125,0,0,0,0,0,0,0,0,0,-1,1364,1149,0,0
147,-125,0,0,0,0,0,0,0,0,0,-1,1371,1149,0,0
154,-125,0,0,0,0,0,0,0,0,0,-1,1378,1149,0,0
161,-125,0,0,0,0,0,0,0,0,0,-1,1385,1149,0,0
168,-125,0,0,0,0,0,0,0,0,0,-1,1392,1149,0,0
175,-125,0,0,0,0,0,0,0,0,0,-1,1399,1149,0,0
182,-125,0,0,0,0,0,0,0,0,0,-1,1406,1149,0,0
189,-125,0,0,0,0,0,0,0,0,0,-1,1413,1149,0,0
196,-125,0,0,0,0,0,0,0,0,0,-1,1420,1149,0,0
203,-125,0,0,0,0,0,0,0,0,0,-1,1427,1149,0,0
210,-125,0,0,0,0,0,0,0,0,0,-1,1434,1149,0,0
217,-125,0,0,0,0,0,0,0,0,0,-1,1441,1149,0,0
224,-125,0,0,0,0,0,0,0,0,0,-1,1448,1149,0,0
231,-125,0,0,0,0,0,0,0,0,0,-1,1455,1149,0,0
238,-125,0,0,0,0,0,0,0,0,0,-1,1462,1149,0,0
245,-125,0,0,0,0,0,0,0,0,0,-1,1469,1149,0,0
252,-125,0,0,0,0,0,0,0,0,0,-1,1476,1149,0,0
259,-125,0,0,0,0,0,0,0,0,0,-1,1483,1149,0,0
266,-125,0,0,0,0,0,0,0,0,0,-1,1490,1149,0,0
273,-125,0,0,0,0,0,0,0,0,0,-1,1497,1149,0,0
280,-125,0,0,0,0,0,0,0,0,0,-1,1504,1149,0,0
287,-125,0,0,0,0,0,0,0,0,0,-1,1511,1149,0,0
294,-125,0,0,0,0,0,0,0,0,0,-1,1518,1149,0,0
301,-125,0,0,0,0,0,0,0,0,0,-1,1525,1149,0,0
308,-125,0,0,0,0,0,0,0,0,0,-1,1532,1149,0,0
315,-125,0,0,0,0,0,0,0,0,0,-1,1539,1149,0,0
322,-125,0,0,0,0,0,0,0,0,0,-1,1546,1149,0,0
329,-125,0,0,0,0,0,0,0,0,0,-1,1553,1149,0,0
336,-125,0,0,0,0,0,0,0,0,0,-1,1560,1149,0,0
343,-125,0,0,0,0,0,0,0,0,0,-1,1567,1149,0,0
350,-125,0,0,0,0,0,0,0,0,0,-1,1574,1149,0,0
357,-125,0,0,0,0,0,0,0,0,0,-1,1581,1149,0,0
364,-125,0,0,0,0,0,0,0,0,0,-1,1588,1149,0,0
371,-125,0,0,0,0,0,0,0,0,0,-1,1595,1149,0,0
378,-125,0,0,0,0,0,0,0,0,0,-1,1602,1149,0,0
385,-125,0,0,0,0,0,0,0,0,0,-1,1609,1149,0,0
392,-125,0,0,0,0,0,0,0,0,0,-1,1616,1149,0,0
399,-125,0,0,0,0,0,0,0,0,0,-1,1623,1149,0,0
406,-125,0,0,0,0,0,0,0,0,0,-1,1630,1149,0,0
413,-125,0,0,0,0,0,0,0,0,0,-1,1637,1149,0,0
420,-125,0,0,0,0,0,0,0,0,0,-1,1644,1149,0,0
427,-125,0,0,0,0,0,0,0,0,0,-1,1651,1149,0,0
434,-125,0,0,0,0,0,0,0,0,0,-1,1658,1149,0,0
441,-125,0,0,0,0,0,0,0,0,0,-1,1665,1149,0,0
448,-125,0,0,0,0,0,0,0,0,0,-1,1672,1149,0,0
455,-125,0,0,0,0,0,0,0,0,0,-1,1679,1149,0,0
462,-125,0,0,0,0,0,0,0,0,0,-1,1686,1149,0,0
469,-125,0,0,0,0,0,0,0,0,0,-1,1693,1149,0,0
476,-125,0,0,0,0,0,0,0,0,0,-1,1700,1149,0,0
483,-125,0,0,0,0,0,0,0,0,0,-1,1707,1149,0,0
490,-125,0,0,0,0,0,0,0,0,0,-1,1714,1149,0,0
497,-125,0,0,0,0,0,0,0,0,0,-1,1721,1149,0,0
504,-125,0,0,0,0,0,0,0,0,0,-1,1728,1149,0,0
511,-125,0,0,0,0,0,0,0,0,0,-1,1735,1149,0,0
518,-125,0,0,0,0,0,0,0,0,0,-1,1742,1149,0,0
525,-125,0,0,0,0,0,0,0,0,0,-1,1749,1149,0,0
532,-125,0,0,0,0,0,0,0,0,0,-1,1756,1149,0,0
539,-125,0,0,0,0,0,0,0,0,0,-1,1763,1149,0,0
546,-125,0,0,0,0,0,0,0,0,0,-1,1770,1149,0,0
553,-125,0,0,0,0,0,0,0,0,0,-1,1777,1149,0,0
560,-125,0,0,0,0,0,0,0,0,0,-1,1784,1149,0,0
567,-125,0,0,0,0,0,0,0,0,0,-1,1791,1149,0,0
574,-125,0,0,0,0,0,0,0,0,0,-1,1798,1149,0,0
581,-125,0,0,0,0,0,0,0,0,0,-1,1805,1149,0,0
588,-125,0,0,0,0,0,0,0,0,0,-1,1812,1149,0,0
595,-125,0,0,0,0,0,0,0,0,0,-1,1819,1149,0,0
602,-125,0,0,0,0,0,0,0,0,0,-1,1826,1149,0,0
609,-125,0,0,0,0,0,0,0,0,0,-1,1833,1149,0,0
616,-125,0,0,0,0,0,0,0,0,0,-1,1840,1149,0,0
623,-125,0,0,0,0,0,0,0,0,0,-1,1847,1149,0,0
630,-125,0,0,0,0,0,0,0,0,0,-1,1854,1149,0,0
637,-125,0,0,0,0,0,0,0,0,0,-1,1861,1149,0,0
644,-125,14.3999,1.97583,0,0,0,0,0,0,0,-1,1868,1149,14.3999,-1.97582
651,-125,14.1409,1.77515,-0.000934888,0.00282327,-0.0016716,0.00345918,-0.0015708,-1.20728,0.0029715,0.0407376,1875,1149,14.1409,-1.7752
658,-125,13.9679,1.50391,-0.000453413,0.00183149,-0.00127091,0.00239796,-0.00101988,-1.15151,0.00202605,0.0423861,1882,1149,13.9679,-1.50388
665,-125,13.9891,1.82141,-0.00096289,0.000810309,-0.000128594,0.000819587,-0.000972167,-1.49878,0.00103572,0.0450707,1889,1149,13.9892,-1.82142
672,-125,13.9081,1.71399,-0.00205256,-0.000155058,0.00129993,0.000505519,-0.00271314,1.10064,0.00199869,0.0462604,1896,1149,13.908,-1.71396
679,-125,14.0089,1.9364,-0.0032694,-0.000951814,0.00264374,0.000775942,-0.00499715,0.991945,0.00361793,0.0391549,1903,1149,14.0089,-1.93642
686,-125,14.0485,2.07092,-0.00441844,-0.00158653,0.00377241,0.00102691,-0.00703188,0.964935,0.00506504,0.0343702,1910,1149,14.0485,-2.07097
693,-125,13.9954,1.89722,-0.00534793,-0.0021048,0.00460388,0.00115473,-0.00860747,0.954722,0.00615941,0.0285513,1917,1149,13.9954,-1.89717
700,-125,14.0515,1.89661,-0.00587191,-0.00241229,0.00517794,0.00131714,-0.00960135,0.946606,0.00688209,0.0119517,1924,1149,14.0515,-1.89665
707,-125,14.1912,1.92078,0,0,0,0,0,0,0,-1,1931,1149,14.1912,-1.92074
714,-125,13.6854,2.56812,-0.00628323,-0.00240166,0.00556649,0.00155268,-0.0102376,0.953136,0.00739713,0.0331832,1938,1149,13.6854,-2.56809
721,-125,13.3871,2.7511,-0.00608297,-0.00216657,0.00531677,0.00154114,-0.00979068,0.961843,0.00709683,0.0155366,1945,1149,13.387,-2.75105
728,-125,13.397,2.74902,-0.00544656,-0.00180154,0.00475314,0.00146652,-0.00871462,0.96847,0.00635524,0.0113466,1952,1149,13.397,-2.74902
735,-125,13.4175,2.69861,-0.0044927,-0.0013154,0.00396392,0.00136637,-0.00717446,0.975986,0.0052975,0.0153557,1959,1149,13.4175,-2.69865
742,-125,13.4337,2.62646,-0.00318946,-0.000385448,0.00294635,0.00147546,-0.00505037,1.00747,0.00395164,0.0228127,1966,1149,13.4338,-2.62644
749,-125,13.4276,2.53955,-0.00158111,0.00106619,0.00163422,0.00184557,-0.00236049,1.12579,0.00243443,0.0258253,1973,1149,13.4276,-2.53949
756,-125,13.4103,2.50122,0.000465505,0.00302934,0.000546706,0.00314105,0.000353794,1.36924,0.00198663,0.0212388,1980,1149,13.4103,-2.50124
763,-125,13.4135,2.48767,0.00287473,0.00539231,-0.000870722,0.00566411,0.00260293,-1.26822,0.00327374,0.0111044,1987,1149,13.4134,-2.48771
770,-125,13.4147,2.41724,0.0051713,0.0081377,-0.00194551,0.00910091,0.0042081,-1.11108,0.00525937,0.012917,1994,1149,13.4146,-2.41719
777,-125,13.4272,2.34546,0.00752444,0.011484,-0.00275469,0.0128965,0.00611189,-1.09698,0.00744919,0.0248365,2001,1149,13.4272,-2.34552
784,-125,13.3879,2.17566,0.0102905,0.0157357,-0.00347994,0.0174315,0.00859464,-1.11735,0.0100644,0.0426234,2008,1149,13.3879,-2.17565
791,-125,13.1809,2.00745,0.0136969,0.0210972,-0.00416515,0.0229684,0.0118258,-1.14857,0.0132628,0.0460387,2015,1149,13.1809,-2.0074
798,-125,13.21,1.83081,0.0179356,0.0277578,-0.00471427,0.0296543,0.0160391,-1.18832,0.01714,0.0483764,2022,1149,13.2099,-1.83078
805,-125,12.9421,1.63086,0.0232059,0.0359416,-0.00489464,0.0376054,0.0215421,-1.24313,0.0217882,0.0490605,2029,1149,12.9421,-1.63087
812,-125,15.3604,0.868774,0,0,0,0,0,0,0,-1,2036,1149,15.3604,-0.868829
-700,-132,0,0,0,0,0,0,0,0,0,-1,524,1156,0,0
-693,-132,-9.41022,-1.50244,0,0,0,0,0,0,0,-1,531,1156,-9.4102,1.50245
-686,-132,-8.60925,-0.237061,0.0544839,0.0761925,0.0599614,0.126274,0.00440226,0.874939,0.0827544,0.0490549,538,1156,-8.60928,0.237109
-679,-132,-8.50085,0.305542,0.0489901,0.0577198,0.0454832,0.0990472,0.0076628,0.833235,0.0636312,0.0467354,545,1156,-8.50083,-0.305561
-672,-132,-8.0462,0.395264,0.0417001,0.0431818,0.0335278,0.075977,0.008905,0.796445,0.0479594,0.0404091,552,1156,-8.04621,-0.395217
-665,-132,-7.83685,0.405884,0.0339563,0.0317805,0.0238782,0.0567714,0.00896552,0.762634,0.0352413,0.0419441,559,1156,-7.83687,-0.405894
-658,-132,-7.73718,0.378174,0.0265215,0.02293,0.0162894,0.0411138,0.00833765,0.7305,0.025096,0.0440149,566,1156,-7.73721,-0.378156
-651,-132,-7.6427,0.428589,0.0198556,0.016176,0.010526,0.0287014,0.00733029,0.698879,0.017219,0.0390768,573,1156,-7.64267,-0.428635
-644,-132,-7.56177,0.448242,0.0142804,0.0111339,0.00634516,0.0192444,0.00616984,0.663876,0.0113467,0.0199987,580,1156,-7.56174,-0.448188
-637,-132,-7.53265,0.455566,0.0104687,0.006743,0.00291918,0.0120688,0.00514293,0.501399,0.00699322,0.010778,587,1156,-7.53262,-0.455604
-630,-132,-7.5365,0.498047,0.00608929,0.00322669,-0.000465313,0.00616303,0.00315295,-0.15716,0.00355854,0.0092307,594,1156,-7.53649,-0.497993
-623,-132,-7.55292,0.615845,0.00117371,0.000625986,-0.00276645,0.00367982,-0.00188013,-0.736062,0.00326561,0.0141682,601,1156,-7.55292,-0.615843
-616,-132,-7.51831,0.685303,-0.00238437,6.62452e-05,-0.00393095,0.00295843,-0.00527656,-0.93648,0.00481685,0.0174626,608,1156,-7.51831,-0.685315
-609,-132,-7.51703,0.726563,-0.0040391,-0.00100957,-0.00453973,0.00226144,-0.00731011,-0.946424,0.00577671,0.010753,615,1156,-7.51704,-0.726512
-602,-132,-7.56653,0.79126,-0.00526794,-0.00139301,-0.00505661,0.0020846,-0.00874556,-0.968348,0.00663531,0.00922632,622,1156,-7.56653,-0.79123
-595,-132,-7.55554,0.88208,-0.00659354,-0.00194349,-0.00538793,0.00159966,-0.0101367,-0.98909,0.00734928,0.0100325,629,1156,-7.55553,-0.882049
-588,-132,-7.46051,1.04285,0,0,0,0,0,0,0,-1,636,1156,-7.46051,-1.04279
-581,-132,-7.66656,0.579102,-0.00821804,-0.00225665,-0.00610964,0.00156061,-0.0120353,-1.01235,0.00859112,0.0377448,643,1156,-7.66655,-0.579101
-574,-132,-7.95093,0.209717,-0.00834197,-0.00221653,-0.00615199,0.00159296,-0.0121515,-1.01636,0.00868082,0.0444529,650,1156,-7.95091,-0.209708
-567,-132,-8.16174,0.19519,-0.00817442,-0.00195442,-0.00595894,0.00165727,-0.0117861,-1.02591,0.00846409,0.0377447,657,1156,-8.16173,-0.1952
-560,-132,-8.24799,0.321167,-0.00738533,-0.00146621,-0.00538501,0.00171893,-0.0105705,-1.03666,0.00768431,0.0353896,664,1156,-8.24801,-0.321217
-553,-132,-8.2702,0.276611,-0.00583743,-0.000807497,-0.0044538,0.00179236,-0.00843729,-1.04242,0.00630778,0.0379883,671,1156,-8.27021,-0.276584
-546,-132,-8.23669,0.0753174,-0.00347947,-6.00199e-05,-0.00322323,0.00187887,-0.00541836,-1.02925,0.00437514,0.0398544,678,1156,-8.23667,-0.0752983
-539,-132,-8.03882,0.130249,-0.000210563,0.000654419,-0.00175523,0.00202965,-0.0015858,-0.906193,0.00209262,0.0417221,685,1156,-8.0388,-0.13026
-532,-132,-7.96313,0.0705566,0.00380319,0.00111414,-0.00050541,0.00389505,0.00102229,-0.179781,0.00233187,0.0405342,692,1156,-7.96313,-0.0705464
-525,-132,-8.12183,0.135986,0.00706287,0.000594529,-0.000874847,0.0071791,0.000478294,-0.13209,0.00463487,0.0380425,699,1156,-8.12183,-0.135967
-518,-132,0,0,0,0,0,0,0,0,0,-1,706,1156,0,0
-511,-132,0,0,0,0,0,0,0,0,0,-1,713,1156,0,0
-504,-132,0,0,0,0,0,0,0,0,0,-1,720,1156,0,0
-497,-132,0,0,0,0,0,0,0,0,0,-1,727,1156,0,0
-490,-132,0,0,0,0,0,0,0,0,0,-1,734,1156,0,0
-483,-132,0,0,0,0,0,0,0,0,0,-1,741,1156,0,0
-476,-132,0,0,0,0,0,0,0,0,0,-1,748,1156,0,0
-469,-132,0,0,0,0,0,0,0,0,0,-1,755,1156,0,0
-462,-132,0,0,0,0,0,0,0,0,0,-1,762,1156,0,0
-455,-132,0,0,0,0,0,0,0,0,0,-1,769,1156,0,0
-448,-132,0,0,0,0,0,0,0,0,0,-1,776,1156,0,0
-441,-132,0,0,0,0,0,0,0,0,0,-1,783,1156,0,0
-434,-132,0,0,0,0,0,0,0,0,0,-1,790,1156,0,0
-427,-132,0,0,0,0,0,0,0,0,0,-1,797,1156,0,0
-420,-132,0,0,0,0,0,0,0,0,0,-1,804,1156,0,0
-413,-132,0,0,0,0,0,0,0,0,0,-1,811,1156,0,0
-406,-132,0,0,0,0,0,0,0,0,0,-1,818,1156,0,0
-399,-132,0,0,0,0,0,0,0,0,0,-1,825,1156,0,0
-392,-132,0,0,0,0,0,0,0,0,0,-1,832,1156,0,0
-385,-132,0,0,0,0,0,0,0,0,0,-1,839,1156,0,0
-378,-132,0,0,0,0,0,0,0,0,0,-1,846,1156,0,0
-371,-132,0,0,0,0,0,0,0,0,0,-1,853,1156,0,0
-364,-132,0,0,0,0,0,0,0,0,0,-1,860,1156,0,0
-357,-132,0,0,0,0,0,0,0,0,0,-1,867,1156,0,0
-350,-132,0,0,0,0,0,0,0,0,0,-1,874,1156,0,0
-343,-132,0,0,0,0,0,0,0,0,0,-1,881,1156,0,0
-336,-132,0,0,0,0,0,0,0,0,0,-1,888,1156,0,0
-329,-132,0,0,0,0,0,0,0,0,0,-1,895,1156,0,0
-322,-132,0,0,0,0,0,0,0,0,0,-1,902,1156,0,0
-315,-132,0,0,0,0,0,0,0,0,0,-1,909,1156,0,0
-308,-132,0,0,0,0,0,0,0,0,0,-1,916,1156,0,0
-301,-132,0,0,0,0,0,0,0,0,0,-1,923,1156,0,0
-294,-132,0,0,0,0,0,0,0,0,0,-1,930,1156,0,0
-287,-132,0,0,0,0,0,0,0,0,0,-1,937,1156,0,0
-280,-132,0,0,0,0,0,0,0,0,0,-1,944,1156,0,0
-273,-132,0,0,0,0,0,0,0,0,0,-1,951,1156,0,0
-266,-132,0,0,0,0,0,0,0,0,0,-1,958,1156,0,0
-259,-132,0,0,0,0,0,0,0,0,0,-1,965,1156,0,0
-252,-132,0,0,0,0,0,0,0,0,0,-1,972,1156,0,0
-245,-132,0,0,0,0,0,0,0,0,0,-1,979,1156,0,0
-238,-132,0,0,0,0,0,0,0,0,0,-1,986,1156,0,0
-231,-132,0,0,0,0,0,0,0,0,0,-1,993,1156,0,0
-224,-132,0,0,0,0,0,0,0,0,0,-1,1000,1156,0,0
-217,-132,0,0,0,0,0,0,0,0,0,-1,1007,1156,0,0
-210,-132,0,0,0,0,0,0,0,0,0,-1,1014,1156,0,0
-203,-132,0,0,0,0,0,0,0,0,0,-1,1021,1156,0,0
-196,-132,0,0,0,0,0,0,0,0,0,-1,1028,1156,0,0
-189,-132,0,0,0,0,0,0,0,0,0,-1,1035,1156,0,0
-182,-132,0,0,0,0,0,0,0,0,0,-1,1042,1156,0,0
-175,-132,0,0,0,0,0,0,0,0,0,-1,1049,1156,0,0
-168,-132,0,0,0,0,0,0,0,0,0,-1,1056,1156,0,0
-161,-132,0,0,0,0,0,0,0,0,0,-1,1063,1156,0,0
-154,-132,0,0,0,0,0,0,0,0,0,-1,1070,1156,0,0
-147,-132,0,0,0,0,0,0,0,0,0,-1,1077,1156,0,0
-140,-132,0,0,0,0,0,0,0,0,0,-1,1084,1156,0,0
-133,-132,0,0,0,0,0,0,0,0,0,-1,1091,1156,0,0
-126,-132,0,0,0,0,0,0,0,0,0,-1,1098,1156,0,0
-119,-132,0,0,0,0,0,0,0,0,0,-1,1105,1156,0,0
-112,-132,0,0,0,0,0,0,0,0,0,-1,1112,1156,0,0
-105,-132,0,0,0,0,0,0,0,0,0,-1,1119,1156,0,0
-98,-132,0,0,0,0,0,0,0,0,0,-1,1126,1156,0,0
-91,-132,0,0,0,0,0,0,0,0,0,-1,1133,1156,0,0
-84,-132,0,0,0,0,0,0,0,0,0,-1,1140,1156,0,0
-77,-132,0,0,0,0,0,0,0,0,0,-1,1147,1156,0,0
-70,-132,0,0,0,0,0,0,0,0,0,-1,1154,1156,0,0
-63,-132,0,0,0,0,0,0,0,0,0,-1,1161,1156,0,0
-56,-132,0,0,0,0,0,0,0,0,0,-1,1168,1156,0,0
-49,-132,0,0,0,0,0,0,0,0,0,-1,1175,1156,0,0
-42,-132,0,0,0,0,0,0,0,0,0,-1,1182,1156,0,0
-35,-132,0,0,0,0,0,0,0,0,0,-1,1189,1156,0,0
-28,-132,0,0,0,0,0,0,0,0,0,-1,1196,1156,0,0
-21,-132,0,0,0,0,0,0,0,0,0,-1,1203,1156,0,0
-14,-132,0,0,0,0,0,0,0,0,0,-1,1210,1156,0,0
-7,-132,0,0,0,0,0,0,0,0,0,-1,1217,1156,0,0
0,-132,0,0,0,0,0,0,0,0,0,-1,1224,1156,0,0
7,-132,0,0,0,0,0,0,0,0,0,-1,1231,1156,0,0
14,-132,0,0,0,0,0,0,0,0,0,-1,1238,1156,0,0
21,-132,0,0,0,0,0,0,0,0,0,-1,1245,1156,0,0
28,-132,0,0,0,0,0,0,0,0,0,-1,1252,1156,0,0
35,-132,0,0,0,0,0,0,0,0,0,-1,1259,1156,0,0
42,-132,0,0,0,0,0,0,0,0,0,-1,1266,1156,0,0
49,-132,0,0,0,0,0,0,0,0,0,-1,1273,1156,0,0
56,-132,0,0,0,0,0,0,0,0,0,-1,1280,1156,0,0
63,-132,0,0,0,0,0,0,0,0,0,-1,1287,1156,0,0
70,-132,0,0,0,0,0,0,0,0,0,-1,1294,1156,0,0
77,-132,0,0,0,0,0,0,0,0,0,-1,1301,1156,0,0
84,-132,0,0,0,0,0,0,0,0,0,-1,1308,1156,0,0
91,-132,0,0,0,0,0,0,0,0,0,-1,1315,1156,0,0
98,-132,0,0,0,0,0,0,0,0,0,-1,1322,1156,0,0
105,-132,0,0,0,0,0,0,0,0,0,-1,1329,1156,0,0
112,-132,0,0,0,0,0,0,0,0,0,-1,1336,1156,0,0
119,-132,0,0,0,0,0,0,0,0,0,-1,1343,1156,0,0
126,-132,0,0,0,0,0,0,0,0,0,-1,1350,1156,0,0
133,-132,0,0,0,0,0,0,0,0,0,-1,1357,1156,0,0
140,-132,0,0,0,0,0,0,0,0,0,-1,1364,1156,0,0
147,-132,0,0,0,0,0,0,0,0,0,-1,1371,1156,0,0
154,-132,0,0,0,0,0,0,0,0,0,-1,1378,1156,0,0
161,-132,0,0,0,0,0,0,0,0,0,-1,1385,1156,0,0
168,-132,0,0,0,0,0,0,0,0,0,-1,1392,1156,0,0
175,-132,0,0,0,0,0,0,0,0,0,-1,1399,1156,0,0
182,-132,0,0,0,0,0,0,0,0,0,-1,1406,1156,0,0
189,-132,0,0,0,0,0,0,0,0,0,-1,1413,1156,0,0
196,-132,0,0,0,0,0,0,0,0,0,-1,1420,1156,0,0
203,-132,0,0,0,0,0,0,0,0,0,-1,1427,1156,0,0
210,-132,0,0,0,0,0,0,0,0,0,-1,1434,1156,0,0
217,-132,0,0,0,0,0,0,0,0,0,-1,1441,1156,0,0
224,-132,0,0,0,0,0,0,0,0,0,-1,1448,1156,0,0
231,-132,0,0,0,0,0,0,0,0,0,-1,1455,1156,0,0
238,-132,0,0,0,0,0,0,0,0,0,-1,1462,1156,0,0
245,-132,0,0,0,0,0,0,0,0,0,-1,1469,1156,0,0
252,-132,0,0,0,0,0,0,0,0,0,-1,1476,1156,0,0
259,-132,0,0,0,0,0,0,0,0,0,-1,1483,1156,0,0
266,-132,0,0,0,0,0,0,0,0,0,-1,1490,1156,0,0
273,-132,0,0,0,0,0,0,0,0,0,-1,1497,1156,0,0
280,-132,0,0,0,0,0,0,0,0,0,-1,1504,1156,0,0
287,-132,0,0,0,0,0,0,0,0,0,-1,1511,1156,0,0
294,-132,0,0,0,0,0,0,0,0,0,-1,1518,1156,0,0
301,-132,0,0,0,0,0,0,0,0,0,-1,1525,1156,0,0
308,-132,0,0,0,0,0,0,0,0,0,-1,1532,1156,0,0
315,-132,0,0,0,0,0,0,0,0,0,-1,1539,1156,0,0
322,-132,0,0,0,0,0,0,0,0,0,-1,1546,1156,0,0
329,-132,0,0,0,0,0,0,0,0,0,-1,1553,1156,0,0
336,-132,0,0,0,0,0,0,0,0,0,-1,1560,1156,0,0
343,-132,0,0,0,0,0,0,0,0,0,-1,1567,1156,0,0
350,-132,0,0,0,0,0,0,0,0,0,-1,1574,1156,0,0
357,-132,0,0,0,0,0,0,0,0,0,-1,1581,1156,0,0
364,-132,0,0,0,0,0,0,0,0,0,-1,1588,1156,0,0
371,-132,0,0,0,0,0,0,0,0,0,-1,1595,1156,0,0
378,-132,0,0,0,0,0,0,0,0,0,-1,1602,1156,0,0
385,-132,0,0,0,0,0,0,0,0,0,-1,1609,1156,0,0
392,-132,0,0,0,0,0,0,0,0,0,-1,1616,1156,0,0
399,-132,0,0,0,0,0,0,0,0,0,-1,1623,1156,0,0
406,-132,0,0,0,0,0,0,0,0,0,-1,1630,1156,0,0
413,-132,0,0,0,0,0,0,0,0,0,-1,1637,1156,0,0
420,-132,0,0,0,0,0,0,0,0,0,-1,1644,1156,0,0
427,-132,0,0,0,0,0,0,0,0,0,-1,1651,1156,0,0
434,-132,0,0,0,0,0,0,0,0,0,-1,1658,1156,0,0
441,-132,0,0,0,0,0,0,0,0,0,-1,1665,1156,0,0
448,-132,0,0,0,0,0,0,0,0,0,-1,1672,1156,0,0
455,-132,0,0,0,0,0,0,0,0,0,-1,1679,1156,0,0
462,-132,0,0,0,0,0,0,0,0,0,-1,1686,1156,0,0
469,-132,0,0,0,0,0,0,0,0,0,-1,1693,1156,0,0
476,-132,0,0,0,0,0,0,0,0,0,-1,1700,1156,0,0
483,-132,0,0,0,0,0,0,0,0,0,-1,1707,1156,0,0
490,-132,0,0,0,0,0,0,0,0,0,-1,1714,1156,0,0
497,-132,0,0,0,0,0,0,0,0,0,-1,1721,1156,0,0
504,-132,0,0,0,0,0,0,0,0,0,-1,1728,1156,0,0
511,-132,0,0,0,0,0,0,0,0,0,-1,1735,1156,0,0
518,-132,0,0,0,0,0,0,0,0,0,-1,1742,1156,0,0
525,-132,0,0,0,0,0,0,0,0,0,-1,1749,1156,0,0
532,-132,0,0,0,0,0,0,0,0,0,-1,1756,1156,0,0
539,-132,0,0,0,0,0,0,0,0,0,-1,1763,1156,0,0
546,-132,0,0,0,0,0,0,0,0,0,-1,1770,1156,0,0
553,-132,0,0,0,0,0,0,0,0,0,-1,1777,1156,0,0
560,-132,0,0,0,0,0,0,0,0,0,-1,1784,1156,0,0
567,-132,0,0,0,0,0,0,0,0,0,-1,1791,1156,0,0
574,-132,0,0,0,0,0,0,0,0,0,-1,1798,1156,0,0
581,-132,0,0,0,0,0,0,0,0,0,-1,1805,1156,0,0
588,-132,0,0,0,0,0,0,0,0,0,-1,1812,1156,0,0
595,-132,0,0,0,0,0,0,0,0,0,-1,1819,1156,0,0
602,-132,0,0,0,0,0,0,0,0,0,-1,1826,1156,0,0
609,-132,0,0,0,0,0,0,0,0,0,-1,1833,1156,0,0
616,-132,0,0,0,0,0,0,0,0,0,-1,1840,1156,0,0
623,-132,0,0,0,0,0,0,0,0,0,-1,1847,1156,0,0
630,-132,0,0,0,0,0,0,0,0,0,-1,1854,1156,0,0
637,-132,0,0,0,0,0,0,0,0,0,-1,1861,1156,0,0
644,-132,13.9629,2.15259,0,0,0,0,0,0,0,-1,1868,1156,13.9629,-2.15255
651,-132,13.9191,2.20776,-0.000596507,0.00274273,-0.00118136,0.00311841,-0.000972182,-1.26291,0.00246768,0.0432307,1875,1156,13.9191,-2.20771
658,-132,13.9246,2.17883,-0.000452095,0.00175059,-0.00074147,0.00197692,-0.000678433,-1.27453,0.001593,0.0419283,1882,1156,13.9245,-2.17881
665,-132,13.9498,2.02014,-0.00127947,0.000694568,0.000435347,0.000786314,-0.00137122,1.36309,0.00126082,0.0412823,1889,1156,13.9499,-2.0201
672,-132,13.9559,1.91162,-0.00254679,-0.000278864,0.00181024,0.000723255,-0.00354891,1.06521,0.00264026,0.0405433,1896,1156,13.956,-1.91161
679,-132,14.0254,1.94739,-0.00385101,-0.00108171,0.00307952,0.000910131,-0.00584285,0.996672,0.00423136,0.0378134,1903,1156,14.0254,-1.94735
686,-132,14.0879,2.02576,-0.00502256,-0.00170232,0.00412955,0.00108831,-0.00781318,0.976517,0.00560688,0.0335554,1910,1156,14.0879,-2.02571
693,-132,14.0469,1.94153,-0.00593805,-0.00222014,0.00487542,0.00113871,-0.0092969,0.967535,0.00661028,0.0252434,1917,1156,14.0468,-1.94153
700,-132,14.0872,1.89465,-0.00642746,-0.00252057,0.00535766,0.00122866,-0.0101767,0.960212,0.0072289,0.0244346,1924,1156,14.0872,-1.89469
707,-132,13.9642,2.1875,-0.00661986,-0.00260628,0.00559243,0.00132852,-0.0105547,0.957662,0.00751851,0.0381101,1931,1156,13.9642,-2.18745
714,-132,13.8932,2.46777,0,0,0,0,0,0,0,-1,1938,1156,13.8931,-2.46774
721,-132,13.2999,2.79517,-0.0063611,-0.00220882,0.00526901,0.00137833,-0.00994825,0.973072,0.00713612,0.0197288,1945,1156,13.3,-2.79518
728,-132,13.3219,2.74854,-0.00557338,-0.00179533,0.00462937,0.0013156,-0.0086843,0.979113,0.00627421,0.0119197,1952,1156,13.3219,-2.74854
735,-132,13.3414,2.68616,-0.00447758,-0.00128259,0.00374854,0.00119466,-0.00695483,0.986827,0.0050818,0.0153486,1959,1156,13.3414,-2.68611
742,-132,13.3359,2.5929,-0.00306674,-0.000300041,0.00258746,0.00125065,-0.00461743,1.03088,0.00356898,0.0199732,1966,1156,13.3359,-2.59292
749,-132,13.3379,2.50452,-0.00130874,0.00122299,0.00106623,0.0016122,-0.00169795,1.22079,0.00191133,0.0236855,1973,1156,13.3379,-2.50454
756,-132,13.3698,2.47021,0.000888533,0.00325821,-0.000260483,0.0032865,0.000860238,-1.46259,0.00196796,0.0207386,1980,1156,13.3698,-2.4702
763,-132,13.3683,2.46472,0.00334061,0.00560921,-0.00189507,0.00668352,0.00226631,-1.05508,0.00392477,0.0118456,1987,1156,13.3682,-2.46478
770,-132,13.3647,2.4209,0.00562956,0.00834738,-0.00322284,0.0104861,0.00349085,-0.984913,0.00616581,0.0121363,1994,1156,13.3648,-2.42093
777,-132,13.3588,2.3634,0.00803634,0.0117127,-0.00444859,0.014688,0.00506113,-0.981319,0.00861558,0.0202708,2001,1156,13.3588,-2.36345
784,-132,13.2839,2.42371,0.0109041,0.0159765,-0.00575257,0.0197271,0.00715344,-0.993022,0.0115319,0.040023,2008,1156,13.2839,-2.42365
791,-132,13.1245,2.64465,0.0143986,0.0212953,-0.00712759,0.0257649,0.00992903,-1.0107,0.0150051,0.0458773,2015,1156,13.1245,-2.64465
798,-132,13.4821,1.29785,0.0186839,0.0278312,-0.00845948,0.0328743,0.0136409,-1.03322,0.0190713,0.0441759,2022,1156,13.482,-1.2978
805,-132,13.3684,2.0824,0.0239608,0.0357647,-0.00946717,0.0410189,0.0187066,-1.06413,0.0237128,0.0452144,2029,1156,13.3684,-2.08244
812,-132,13.0667,1.9552,0,0,0,0,0,0,0,-1,2036,1156,13.0666,-1.95518
-700,-139,0,0,0,0,0,0,0,0,0,-1,524,1163,0,0
-693,-139,-9.36884,-2.50989,0,0,0,0,0,0,0,-1,531,1163,-9.36882,2.50993
-686,-139,-8.81323,-1.00305,0.0570892,0.0764485,0.0524108,0.120066,0.0134717,0.876714,0.0759527,0.0480922,538,1163,-8.81325,1.00307
-679,-139,-8.32428,0.126587,0.0506262,0.0589016,0.0387993,0.0937832,0.0157446,0.838519,0.0579908,0.0464779,545,1163,-8.32425,-0.126557
-672,-139,-7.97467,0.681641,0.0426805,0.0449071,0.0277745,0.0715907,0.0159969,0.80543,0.0433892,0.0414801,552,1163,-7.97468,-0.681678
-665,-139,-7.72717,0.475586,0.0345286,0.0337456,0.0190475,0.0531886,0.0150855,0.775122,0.0316524,0.042335,559,1163,-7.72719,-0.475591
-658,-139,-7.50739,0.422119,0.0268649,0.0249023,0.0123305,0.038253,0.0135142,0.745692,0.0224001,0.043747,566,1163,-7.50738,-0.422127
-651,-139,-7.48828,0.414551,0.0200701,0.0179898,0.00736104,0.0264641,0.0115958,0.71521,0.015318,0.0392864,573,1163,-7.48829,-0.414522
-644,-139,-7.46381,0.431152,0.0144094,0.0126851,0.00388755,0.0175292,0.00956521,0.67628,0.0101346,0.0210631,580,1163,-7.46378,-0.431165
-637,-139,-7.45648,0.442871,0.0104615,0.00808221,0.00120055,0.010962,0.00758171,0.39498,0.00648201,0.0121072,587,1163,-7.45646,-0.442896
-630,-139,-7.46118,0.497803,0.00606913,0.00439011,-0.00155559,0.00699729,0.00346196,-0.537957,0.00403996,0.0101509,594,1163,-7.46121,-0.497755
-623,-139,-7.45251,0.592041,0.00124055,0.0014906,-0.00331778,0.00468571,-0.00195456,-0.804231,0.00394037,0.0149355,601,1163,-7.45251,-0.591985
-616,-139,-7.43958,0.651245,-0.00240668,0.000601249,-0.00427207,0.00362636,-0.00543179,-0.954646,0.00526424,0.0158805,608,1163,-7.43955,-0.651282
-609,-139,-7.42902,0.719849,-0.00423,-0.00098798,-0.00476573,0.00242488,-0.00764286,-0.949329,0.00606727,0.0197801,615,1163,-7.42901,-0.719907
-602,-139,-7.49902,0.814941,-0.00558609,-0.00160847,-0.00514997,0.00192337,-0.00911793,-0.969666,0.00681088,0.0115885,622,1163,-7.49901,-0.814911
-595,-139,-7.50348,0.898071,-0.00704982,-0.00230065,-0.00542732,0.00124882,-0.0105993,-0.991614,0.00751712,0.00964071,629,1163,-7.50349,-0.898052
-588,-139,-7.46796,1.00549,-0.00823231,-0.00258951,-0.00581385,0.00105138,-0.0118732,-1.0113,0.00828818,0.0148997,636,1163,-7.46793,-1.0055
-581,-139,-7.50397,0.871826,-0.0088764,-0.00275766,-0.00619189,0.00108944,-0.0127235,-1.01485,0.00886781,0.0337929,643,1163,-7.50396,-0.871784
-574,-139,-7.8031,0.439819,-0.009062,-0.00276188,-0.00627806,0.00111209,-0.012936,-1.01792,0.00901756,0.0411349,650,1163,-7.80309,-0.439859
-567,-139,-8.23273,0.341919,-0.0089479,-0.00255266,-0.00614033,0.00117275,-0.0126733,-1.02546,0.00886569,0.0384173,657,1163,-8.23275,-0.34196
-560,-139,-8.23926,0.425171,-0.00817898,-0.00207049,-0.00558065,0.00123703,-0.0114865,-1.03578,0.00810155,0.0357888,664,1163,-8.23924,-0.42523
-553,-139,-8.21411,0.346802,-0.0065958,-0.00135344,-0.00460479,0.00132393,-0.00927317,-1.04414,0.00666738,0.0380946,671,1163,-8.21411,-0.346817
-546,-139,-8.25836,0.297485,-0.00412845,-0.000453535,-0.00323868,0.00143262,-0.0060146,-1.04343,0.00456287,0.0393962,678,1163,-8.25837,-0.29753
-539,-139,-8.12946,0.318848,-0.000689196,0.000534135,-0.00152289,0.0015636,-0.00171867,-0.976361,0.00189572,0.0418105,685,1163,-8.12947,-0.318812
-532,-139,-7.96136,0.146118,0.00364308,0.00143894,0.000211302,0.00366316,0.00141886,0.0947159,0.00213275,0.0418463,692,1163,-7.96135,-0.146123
-525,-139,-8.02185,0.0899658,0.00743984,0.00161518,0.000716447,0.00752667,0.00152835,0.120607,0.00459387,0.0390767,699,1163,-8.02186,-0.0899991
-518,-139,0,0,0,0,0,0,0,0,0,-1,706,1163,0,0
-511,-139,0,0,0,0,0,0,0,0,0,-1,713,1163,0,0
-504,-139,0,0,0,0,0,0,0,0,0,-1,720,1163,0,0
-497,-139,0,0,0,0,0,0,0,0,0,-1,727,1163,0,0
-490,-139,0,0,0,0,0,0,0,0,0,-1,734,1163,0,0
-483,-139,0,0,0,0,0,0,0,0,0,-1,741,1163,0,0
-476,-139,0,0,0,0,0,0,0,0,0,-1,748,1163,0,0
-469,-139,0,0,0,0,0,0,0,0,0,-1,755,1163,0,0
-462,-139,0,0,0,0,0,0,0,0,0,-1,762,1163,0,0
-455,-139,0,0,0,0,0,0,0,0,0,-1,769,1163,0,0
-448,-139,0,0,0,0,0,0,0,0,0,-1,776,1163,0,0
-441,-139,0,0,0,0,0,0,0,0,0,-1,783,1163,0,0
-434,-139,0,0,0,0,0,0,0,0,0,-1,790,1163,0,0
-427,-139,0,0,0,0,0,0,0,0,0,-1,797,1163,0,0
-420,-139,0,0,0,0,0,0,0,0,0,-1,804,1163,0,0
-413,-139,0,0,0,0,0,0,0,0,0,-1,811,1163,0,0
-406,-139,0,0,0,0,0,0,0,0,0,-1,818,1163,0,0
-399,-139,0,0,0,0,0,0,0,0,0,-1,825,1163,0,0
-392,-139,0,0,0,0,0,0,0,0,0,-1,832,1163,0,0
-385,-139,0,0,0,0,0,0,0,0,0,-1,839,1163,0,0
-378,-139,0,0,0,0,0,0,0,0,0,-1,846,1163,0,0
-371,-139,0,0,0,0,0,0,0,0,0,-1,853,1163,0,0
-364,-139,0,0,0,0,0,0,0,0,0,-1,860,1163,0,0
-357,-139,0,0,0,0,0,0,0,0,0,-1,867,1163,0,0
-350,-139,0,0,0,0,0,0,0,0,0,-1,874,1163,0,0
-343,-139,0,0,0,0,0,0,0,0,0,-1,881,1163,0,0
-336,-139,0,0,0,0,0,0,0,0,0,-1,888,1163,0,0
-329,-139,0,0,0,0,0,0,0,0,0,-1,895,1163,0,0
-322,-139,0,0,0,0,0,0,0,0,0,-1,902,1163,0,0
-315,-139,0,0,0,0,0,0,0,0,0,-1,909,1163,0,0
-308,-139,0,0,0,0,0,0,0,0,0,-1,916,1163,0,0
-301,-139,0,0,0,0,0,0,0,0,0,-1,923,1163,0,0
-294,-139,0,0,0,0,0,0,0,0,0,-1,930,1163,0,0
-287,-139,0,0,0,0,0,0,0,0,0,-1,937,1163,0,0
-280,-139,0,0,0,0,0,0,0,0,0,-1,944,1163,0,0
-273,-139,0,0,0,0,0,0,0,0,0,-1,951,1163,0,0
-266,-139,0,0,0,0,0,0,0,0,0,-1,958,1163,0,0
-259,-139,0,0,0,0,0,0,0,0,0,-1,965,1163,0,0
-252,-139,0,0,0,0,0,0,0,0,0,-1,972,1163,0,0
-245,-139,0,0,0,0,0,0,0,0,0,-1,979,1163,0,0
-238,-139,0,0,0,0,0,0,0,0,0,-1,986,1163,0,0
-231,-139,0,0,0,0,0,0,0,0,0,-1,993,1163,0,0
-224,-139,0,0,0,0,0,0,0,0,0,-1,1000,1163,0,0
-217,-139,0,0,0,0,0,0,0,0,0,-1,1007,1163,0,0
-210,-139,0,0,0,0,0,0,0,0,0,-1,1014,1163,0,0
-203,-139,0,0,0,0,0,0,0,0,0,-1,1021,1163,0,0
-196,-139,0,0,0,0,0,0,0,0,0,-1,1028,1163,0,0
-189,-139,0,0,0,0,0,0,0,0,0,-1,1035,1163,0,0
-182,-139,0,0,0,0,0,0,0,0,0,-1,1042,1163,0,0
-175,-139,0,0,0,0,0,0,0,0,0,-1,1049,1163,0,0
-168,-139,0,0,0,0,0,0,0,0,0,-1,1056,1163,0,0
-161,-139,0,0,0,0,0,0,0,0,0,-1,1063,1163,0,0
-154,-139,0,0,0,0,0,0,0,0,0,-1,1070,1163,0,0
-147,-139,0,0,0,0,0,0,0,0,0,-1,1077,1163,0,0
-140,-139,0,0,0,0,0,0,0,0,0,-1,1084,1163,0,0
-133,-139,0,0,0,0,0,0,0,0,0,-1,1091,1163,0,0
-126,-139,0,0,0,0,0,0,0,0,0,-1,1098,1163,0,0
-119,-139,0,0,0,0,0,0,0,0,0,-1,1105,1163,0,0
-112,-139,0,0,0,0,0,0,0,0,0,-1,1112,1163,0,0
-105,-139,0,0,0,0,0,0,0,0,0,-1,1119,1163,0,0
-98,-139,0,0,0,0,0,0,0,0,0,-1,1126,1163,0,0
-91,-139,0,0,0,0,0,0,0,0,0,-1,1133,1163,0,0
-84,-139,0,0,0,0,0,0,0,0,0,-1,1140,1163,0,0
-77,-139,0,0,0,0,0,0,0,0,0,-1,1147,1163,0,0
-70,-139,0,0,0,0,0,0,0,0,0,-1,1154,1163,0,0
-63,-139,0,0,0,0,0,0,0,0,0,-1,1161,1163,0,0
-56,-139,0,0,0,0,0,0,0,0,0,-1,1168,1163,0,0
-49,-139,0,0,0,0,0,0,0,0,0,-1,1175,1163,0,0
-42,-139,0,0,0,0,0,0,0,0,0,-1,1182,1163,0,0
-35,-139,0,0,0,0,0,0,0,0,0,-1,1189,1163,0,0
-28,-139,0,0,0,0,0,0,0,0,0,-1,1196,1163,0,0
-21,-139,0,0,0,0,0,0,0,0,0,-1,1203,1163,0,0
-14,-139,0,0,0,0,0,0,0,0,0,-1,1210,1163,0,0
-7,-139,0,0,0,0,0,0,0,0,0,-1,1217,1163,0,0
0,-139,0,0,0,0,0,0,0,0,0,-1,1224,1163,0,0
7,-139,0,0,0,0,0,0,0,0,0,-1,1231,1163,0,0
14,-139,0,0,0,0,0,0,0,0,0,-1,1238,1163,0,0
21,-139,0,0,0,0,0,0,0,0,0,-1,1245,1163,0,0
28,-139,0,0,0,0,0,0,0,0,0,-1,1252,1163,0,0
35,-139,0,0,0,0,0,0,0,0,0,-1,1259,1163,0,0
42,-139,0,0,0,0,0,0,0,0,0,-1,1266,1163,0,0
49,-139,0,0,0,0,0,0,0,0,0,-1,1273,1163,0,0
56,-139,0,0,0,0,0,0,0,0,0,-1,1280,1163,0,0
63,-139,0,0,0,0,0,0,0,0,0,-1,1287,1163,0,0
70,-139,0,0,0,0,0,0,0,0,0,-1,1294,1163,0,0
77,-139,0,0,0,0,0,0,0,0,0,-1,1301,1163,0,0
84,-139,0,0,0,0,0,0,0,0,0,-1,1308,1163,0,0
91,-139,0,0,0,0,0,0,0,0,0,-1,1315,1163,0,0
98,-139,0,0,0,0,0,0,0,0,0,-1,1322,1163,0,0
105,-139,0,0,0,0,0,0,0,0,0,-1,1329,1163,0,0
112,-139,0,0,0,0,0,0,0,0,0,-1,1336,1163,0,0
119,-139,0,0,0,0,0,0,0,0,0,-1,1343,1163,0,0
126,-139,0,0,0,0,0,0,0,0,0,-1,1350,1163,0,0
133,-139,0,0,0,0,0,0,0,0,0,-1,1357,1163,0,0
140,-139,0,0,0,0,0,0,0,0,0,-1,1364,1163,0,0
147,-139,0,0,0,0,0,0,0,0,0,-1,1371,1163,0,0
154,-139,0,0,0,0,0,0,0,0,0,-1,1378,1163,0,0
161,-139,0,0,0,0,0,0,0,0,0,-1,1385,1163,0,0
168,-139,0,0,0,0,0,0,0,0,0,-1,1392,1163,0,0
175,-139,0,0,0,0,0,0,0,0,0,-1,1399,1163,0,0
182,-139,0,0,0,0,0,0,0,0,0,-1,1406,1163,0,0
189,-139,0,0,0,0,0,0,0,0,0,-1,1413,1163,0,0
196,-139,0,0,0,0,0,0,0,0,0,-1,1420,1163,0,0
203,-139,0,0,0,0,0,0,0,0,0,-1,1427,1163,0,0
210,-139,0,0,0,0,0,0,0,0,0,-1,1434,1163,0,0
217,-139,0,0,0,0,0,0,0,0,0,-1,1441,1163,0,0
224,-139,0,0,0,0,0,0,0,0,0,-1,1448,1163,0,0
231,-139,0,0,0,0,0,0,0,0,0,-1,1455,1163,0,0
238,-139,0,0,0,0,0,0,0,0,0,-1,1462,1163,0,0
245,-139,0,0,0,0,0,0,0,0,0,-1,1469,1163,0,0
252,-139,0,0,0,0,0,0,0,0,0,-1,1476,1163,0,0
259,-139,0,0,0,0,0,0,0,0,0,-1,1483,1163,0,0
266,-139,0,0,0,0,0,0,0,0,0,-1,1490,1163,0,0
273,-139,0,0,0,0,0,0,0,0,0,-1,1497,1163,0,0
280,-139,0,0,0,0,0,0,0,0,0,-1,1504,1163,0,0
287,-139,0,0,0,0,0,0,0,0,0,-1,1511,1163,0,0
294,-139,0,0,0,0,0,0,0,0,0,-1,1518,1163,0,0
301,-139,0,0,0,0,0,0,0,0,0,-1,1525,1163,0,0
308,-139,0,0,0,0,0,0,0,0,0,-1,1532,1163,0,0
315,-139,0,0,0,0,0,0,0,0,0,-1,1539,1163,0,0
322,-139,0,0,0,0,0,0,0,0,0,-1,1546,1163,0,0
329,-139,0,0,0,0,0,0,0,0,0,-1,1553,1163,0,0
336,-139,0,0,0,0,0,0,0,0,0,-1,1560,1163,0,0
343,-139,0,0,0,0,0,0,0,0,0,-1,1567,1163,0,0
350,-139,0,0,0,0,0,0,0,0,0,-1,1574,1163,0,0
357,-139,0,0,0,0,0,0,0,0,0,-1,1581,1163,0,0
364,-139,0,0,0,0,0,0,0,0,0,-1,1588,1163,0,0
371,-139,0,0,0,0,0,0,0,0,0,-1,1595,1163,0,0
378,-139,0,0,0,0,0,0,0,0,0,-1,1602,1163,0,0
385,-139,0,0,0,0,0,0,0,0,0,-1,1609,1163,0,0
392,-139,0,0,0,0,0,0,0,0,0,-1,1616,1163,0,0
399,-139,0,0,0,0,0,0,0,0,0,-1,1623,1163,0,0
406,-139,0,0,0,0,0,0,0,0,0,-1,1630,1163,0,0
413,-139,0,0,0,0,0,0,0,0,0,-1,1637,1163,0,0
420,-139,0,0,0,0,0,0,0,0,0,-1,1644,1163,0,0
427,-139,0,0,0,0,0,0,0,0,0,-1,1651,1163,0,0
434,-139,0,0,0,0,0,0,0,0,0,-1,1658,1163,0,0
441,-139,0,0,0,0,0,0,0,0,0,-1,1665,1163,0,0
448,-139,0,0,0,0,0,0,0,0,0,-1,1672,1163,0,0
455,-139,0,0,0,0,0,0,0,0,0,-1,1679,1163,0,0
462,-139,0,0,0,0,0,0,0,0,0,-1,1686,1163,0,0
469,-139,0,0,0,0,0,0,0,0,0,-1,1693,1163,0,0
476,-139,0,0,0,0,0,0,0,0,0,-1,1700,1163,0,0
483,-139,0,0,0,0,0,0,0,0,0,-1,1707,1163,0,0
490,-139,0,0,0,0,0,0,0,0,0,-1,1714,1163,0,0
497,-139,0,0,0,0,0,0,0,0,0,-1,1721,1163,0,0
504,-139,0,0,0,0,0,0,0,0,0,-1,1728,1163,0,0
511,-139,0,0,0,0,0,0,0,0,0,-1,1735,1163,0,0
518,-139,0,0,0,0,0,0,0,0,0,-1,1742,1163,0,0
525,-139,0,0,0,0,0,0,0,0,0,-1,1749,1163,0,0
532,-139,0,0,0,0,0,0,0,0,0,-1,1756,1163,0,0
539,-139,0,0,0,0,0,0,0,0,0,-1,1763,1163,0,0
546,-139,0,0,0,0,0,0,0,0,0,-1,1770,1163,0,0
553,-139,0,0,0,0,0,0,0,0,0,-1,1777,1163,0,0
560,-139,0,0,0,0,0,0,0,0,0,-1,1784,1163,0,0
567,-139,0,0,0,0,0,0,0,0,0,-1,1791,1163,0,0
574,-139,0,0,0,0,0,0,0,0,0,-1,1798,1163,0,0
581,-139,0,0,0,0,0,0,0,0,0,-1,1805,1163,0,0
588,-139,0,0,0,0,0,0,0,0,0,-1,1812,1163,0,0
595,-139,0,0,0,0,0,0,0,0,0,-1,1819,1163,0,0
602,-139,0,0,0,0,0,0,0,0,0,-1,1826,1163,0,0
609,-139,0,0,0,0,0,0,0,0,0,-1,1833,1163,0,0
616,-139,0,0,0,0,0,0,0,0,0,-1,1840,1163,0,0
623,-139,0,0,0,0,0,0,0,0,0,-1,1847,1163,0,0
630,-139,0,0,0,0,0,0,0,0,0,-1,1854,1163,0,0
637,-139,0,0,0,0,0,0,0,0,0,-1,1861,1163,0,0
644,-139,13.9811,2.11218,0,0,0,0,0,0,0,-1,1868,1163,13.9811,-2.11222
651,-139,13.9658,2.18945,-0.00016454,0.00347664,-0.000863112,0.00367087,-0.000358772,-1.34945,0.00257518,0.0436583,1875,1163,13.9659,-2.18948
658,-139,13.9574,2.22156,-0.000471663,0.00234595,-0.000279585,0.00237343,-0.000499138,-1.47284,0.00177225,0.041589,1882,1163,13.9574,-2.22157
665,-139,14.007,2.12537,-0.00168081,0.0011635,0.000996647,0.00147796,-0.00199527,1.26516,0.00201267,0.0382331,1889,1163,14.007,-2.12535
672,-139,14.0833,2.03943,-0.00316917,9.99216e-05,0.00238267,0.00135482,-0.00442407,1.08604,0.00348978,0.0378138,1896,1163,14.0833,-2.03946
679,-139,14.1145,1.97839,-0.00459679,-0.000785965,0.00363817,0.00141555,-0.00679831,1.02662,0.00507036,0.0352543,1903,1163,14.1146,-1.97845
686,-139,14.0417,1.95947,-0.00580338,-0.00147194,0.00466462,0.00150521,-0.00878052,1.00273,0.00641456,0.0291416,1910,1163,14.0417,-1.95951
693,-139,14.0752,1.94336,-0.00670524,-0.00204218,0.00535884,0.00147036,-0.0102178,0.990587,0.00735116,0.0168214,1917,1163,14.0752,-1.94341
700,-139,14.1036,1.87744,-0.00715894,-0.00239413,0.0057615,0.0014581,-0.0110112,0.981445,0.00787196,0.0325189,1924,1163,14.1037,-1.87738
707,-139,13.6519,2.42944,-0.00726714,-0.00251845,0.00589783,0.00146502,-0.0112506,0.976762,0.00803341,0.0232687,1931,1163,13.6518,-2.4295
714,-139,13.2958,2.83228,0,0,0,0,0,0,0,-1,1938,1163,13.2958,-2.83229
721,-139,13.2887,2.78699,-0.0067486,-0.0021596,0.00541246,0.00142463,-0.0103328,0.98588,0.00740922,0.0179743,1945,1163,13.2887,-2.78699
728,-139,13.3202,2.71228,-0.00577712,-0.00173455,0.0046753,0.00133769,-0.00884936,0.989431,0.0063923,0.0196658,1952,1163,13.3202,-2.71233
735,-139,13.2886,2.70251,-0.00450589,-0.00122763,0.00368664,0.00116785,-0.00690137,0.994581,0.00503554,0.0163813,1959,1163,13.2886,-2.70252
742,-139,13.2528,2.62976,-0.0028639,-0.000196944,0.00236099,0.00118112,-0.00424196,1.04246,0.00329306,0.0211856,1966,1163,13.2528,-2.6298
749,-139,13.2385,2.53308,-0.000861564,0.00136898,0.000617897,0.00152871,-0.00102129,1.31783,0.00148193,0.0178095,1973,1163,13.2385,-2.53314
756,-139,13.2677,2.49744,0.00153806,0.00348053,-0.000918599,0.00384613,0.00117246,-1.19202,0.00227625,0.00985691,1980,1163,13.2677,-2.49744
763,-139,13.282,2.44385,0.0040951,0.00582868,-0.00267359,0.00777248,0.0021513,-0.942155,0.0046341,0.00996444,1987,1163,13.282,-2.4438
770,-139,13.293,2.39404,0.00650331,0.00857314,-0.00415382,0.011819,0.00325743,-0.907486,0.00704906,0.0115603,1994,1163,13.293,-2.39407
777,-139,13.2894,2.3335,0.00912753,0.0119761,-0.00565975,0.016388,0.00471559,-0.908664,0.00974165,0.0204884,2001,1163,13.2894,-2.33351
784,-139,13.2159,2.37573,0.0122618,0.0162597,-0.00734583,0.0218737,0.00664779,-0.91824,0.0129484,0.0380466,2008,1163,13.2159,-2.37576
791,-139,13.4443,1.57971,0.0159868,0.0215344,-0.00915659,0.0283281,0.00919312,-0.932469,0.0166876,0.0456302,2015,1163,13.4443,-1.57968
798,-139,13.4043,1.13892,0.0204219,0.0279296,-0.0109783,0.0357781,0.0125734,-0.950132,0.0209583,0.0461054,2022,1163,13.4043,-1.13892
805,-139,13.2943,0.748291,0.0257023,0.0355659,-0.0124879,0.0440606,0.0172076,-0.973461,0.0256408,0.0456427,2029,1163,13.2943,-0.7483
812,-139,0,0,0,0,0,0,0,0,0,-1,2036,1163,0,0
-700,-146,0,0,0,0,0,0,0,0,0,-1,524,1170,0,0
-693,-146,-9.62744,-3.34326,0,0,0,0,0,0,0,-1,531,1170,-9.62744,3.34325
-686,-146,-8.85693,-0.769897,0,0,0,0,0,0,0,-1,538,1170,-8.85694,0.769888
-679,-146,-8.47839,-0.542236,0,0,0,0,0,0,0,-1,545,1170,-8.4784,0.542286
-672,-146,-8.09985,-0.314697,0,0,0,0,0,0,0,-1,552,1170,-8.09986,0.314684
-665,-146,-7.60156,0.917725,0,0,0,0,0,0,0,-1,559,1170,-7.60159,-0.917752
-658,-146,-7.29028,0.231934,0,0,0,0,0,0,0,-1,566,1170,-7.29026,-0.231905
-651,-146,-7.31299,0.298584,0.0192267,0.0197348,0.00323035,0.022721,0.0162404,0.824639,0.0135154,0.0373412,573,1170,-7.31301,-0.298606
-644,-146,-7.3421,0.36377,0.0137148,0.0143098,0.000765105,0.0148332,0.0131914,0.970828,0.00938948,0.0202217,580,1170,-7.3421,-0.36377
-637,-146,-7.35535,0.439087,0.0098079,0.00958429,-0.000983288,0.0106857,0.00870647,-0.728789,0.00656429,0.0109275,587,1170,-7.35535,-0.439033
-630,-146,-7.36426,0.510742,0.00559208,0.00577554,-0.00284639,0.00853168,0.00283594,-0.801506,0.00501716,0.00970991,594,1170,-7.36425,-0.510713
-623,-146,-7.36108,0.580322,0.001076,0.00260938,-0.00397186,0.00588787,-0.00220249,-0.88074,0.00482981,0.0113408,601,1170,-7.3611,-0.580347
-616,-146,-7.40137,0.689819,-0.00242059,0.0013738,-0.00455119,0.00440739,-0.00545418,-0.982875,0.00570426,0.0176114,608,1170,-7.40137,-0.68976
-609,-146,-7.36127,0.744873,-0.00428374,-0.000690183,-0.00492658,0.00275705,-0.00773096,-0.960258,0.00627814,0.0179125,615,1170,-7.36127,-0.744826
-602,-146,-7.39673,0.863281,-0.00565631,-0.00153944,-0.00520242,0.00199697,-0.00919272,-0.973782,0.00689127,0.0185866,622,1170,-7.39673,-0.863239
-595,-146,-7.45093,0.904663,-0.00719545,-0.00234888,-0.00543078,0.00117474,-0.0107191,-0.995248,0.00756808,0.0103141,629,1170,-7.45095,-0.904654
-588,-146,-7.38666,1.01709,-0.0084544,-0.00269687,-0.00580949,0.000907991,-0.0120593,-1.01543,0.00835863,0.0122993,636,1170,-7.38664,-1.01714
-581,-146,-7.2644,0.982056,0,0,0,0,0,0,0,-1,643,1170,-7.2644,-0.98205
-574,-146,-7.71643,0.509033,-0.0093675,-0.00292181,-0.00634751,0.000974169,-0.0132635,-1.02031,0.00918427,0.0393068,650,1170,-7.71641,-0.509025
-567,-146,-8.19849,0.222412,-0.00931351,-0.00274441,-0.006269,0.00104837,-0.0131063,-1.0267,0.00910712,0.0413726,657,1170,-8.19851,-0.222461
-560,-146,-8.22345,0.409668,-0.00861191,-0.00227323,-0.00574077,0.00111496,-0.0120001,-1.03762,0.00839643,0.0384339,664,1170,-8.22346,-0.409646
-553,-146,-8.18604,0.430176,-0.00708668,-0.00153724,-0.00475062,0.00118963,-0.00981354,-1.04971,0.00697281,0.0374867,671,1170,-8.18602,-0.430132
-546,-146,-8.06433,0.320923,-0.0046547,-0.000574023,-0.00329199,0.00125864,-0.00648737,-1.06282,0.00479979,0.0411821,678,1170,-8.06433,-0.320934
-539,-146,-8.25299,0.529175,-0.00124621,0.000535885,-0.00138783,0.00129409,-0.00200442,-1.07078,0.00191906,0.0445899,685,1170,-8.25296,-0.529207
-532,-146,-8.20813,0.327759,0.00313299,0.00165611,0.000736584,0.00343755,0.00135155,0.39207,0.00199971,0.0434254,692,1170,-8.20812,-0.327702
-525,-146,-8.07629,0.234009,0.00721049,0.00223875,0.00202131,0.00792856,0.00152068,0.341344,0.00485879,0.0418569,699,1170,-8.07631,-0.234066
-518,-146,0,0,0,0,0,0,0,0,0,-1,706,1170,0,0
-511,-146,0,0,0,0,0,0,0,0,0,-1,713,1170,0,0
-504,-146,0,0,0,0,0,0,0,0,0,-1,720,1170,0,0
-497,-146,0,0,0,0,0,0,0,0,0,-1,727,1170,0,0
-490,-146,0,0,0,0,0,0,0,0,0,-1,734,1170,0,0
-483,-146,0,0,0,0,0,0,0,0,0,-1,741,1170,0,0
-476,-146,0,0,0,0,0,0,0,0,0,-1,748,1170,0,0
-469,-146,0,0,0,0,0,0,0,0,0,-1,755,1170,0,0
-462,-146,0,0,0,0,0,0,0,0,0,-1,762,1170,0,0
-455,-146,0,0,0,0,0,0,0,0,0,-1,769,1170,0,0
-448,-146,0,0,0,0,0,0,0,0,0,-1,776,1170,0,0
-441,-146,0,0,0,0,0,0,0,0,0,-1,783,1170,0,0
-434,-146,0,0,0,0,0,0,0,0,0,-1,790,1170,0,0
-427,-146,0,0,0,0,0,0,0,0,0,-1,797,1170,0,0
-420,-146,0,0,0,0,0,0,0,0,0,-1,804,1170,0,0
-413,-146,0,0,0,0,0,0,0,0,0,-1,811,1170,0,0
-406,-146,0,0,0,0,0,0,0,0,0,-1,818,1170,0,0
-399,-146,0,0,0,0,0,0,0,0,0,-1,825,1170,0,0
-392,-146,0,0,0,0,0,0,0,0,0,-1,832,1170,0,0
-385,-146,0,0,0,0,0,0,0,0,0,-1,839,1170,0,0
-378,-146,0,0,0,0,0,0,0,0,0,-1,846,1170,0,0
-371,-146,0,0,0,0,0,0,0,0,0,-1,853,1170,0,0
-364,-146,0,0,0,0,0,0,0,0,0,-1,860,1170,0,0
-357,-146,0,0,0,0,0,0,0,0,0,-1,867,1170,0,0
-350,-146,0,0,0,0,0,0,0,0,0,-1,874,1170,0,0
-343,-146,0,0,0,0,0,0,0,0,0,-1,881,1170,0,0
-336,-146,0,0,0,0,0,0,0,0,0,-1,888,1170,0,0
-329,-146,0,0,0,0,0,0,0,0,0,-1,895,1170,0,0
-322,-146,0,0,0,0,0,0,0,0,0,-1,902,1170,0,0
-315,-146,0,0,0,0,0,0,0,0,0,-1,909,1170,0,0
-308,-146,0,0,0,0,0,0,0,0,0,-1,916,1170,0,0
-301,-146,0,0,0,0,0,0,0,0,0,-1,923,1170,0,0
-294,-146,0,0,0,0,0,0,0,0,0,-1,930,1170,0,0
-287,-146,0,0,0,0,0,0,0,0,0,-1,937,1170,0,0
-280,-146,0,0,0,0,0,0,0,0,0,-1,944,1170,0,0
-273,-146,0,0,0,0,0,0,0,0,0,-1,951,1170,0,0
-266,-146,0,0,0,0,0,0,0,0,0,-1,958,1170,0,0
-259,-146,0,0,0,0,0,0,0,0,0,-1,965,1170,0,0
-252,-146,0,0,0,0,0,0,0,0,0,-1,972,1170,0,0
-245,-146,0,0,0,0,0,0,0,0,0,-1,979,1170,0,0
-238,-146,0,0,0,0,0,0,0,0,0,-1,986,1170,0,0
-231,-146,0,0,0,0,0,0,0,0,0,-1,993,1170,0,0
-224,-146,0,0,0,0,0,0,0,0,0,-1,1000,1170,0,0
-217,-146,0,0,0,0,0,0,0,0,0,-1,1007,1170,0,0
-210,-146,0,0,0,0,0,0,0,0,0,-1,1014,1170,0,0
-203,-146,0,0,0,0,0,0,0,0,0,-1,1021,1170,0,0
-196,-146,0,0,0,0,0,0,0,0,0,-1,1028,1170,0,0
-189,-146,0,0,0,0,0,0,0,0,0,-1,1035,1170,0,0
-182,-146,0,0,0,0,0,0,0,0,0,-1,1042,1170,0,0
-175,-146,0,0,0,0,0,0,0,0,0,-1,1049,1170,0,0
-168,-146,0,0,0,0,0,0,0,0,0,-1,1056,1170,0,0
-161,-146,0,0,0,0,0,0,0,0,0,-1,1063,1170,0,0
-154,-146,0,0,0,0,0,0,0,0,0,-1,1070,1170,0,0
-147,-146,0,0,0,0,0,0,0,0,0,-1,1077,1170,0,0
-140,-146,0,0,0,0,0,0,0,0,0,-1,1084,1170,0,0
-133,-146,0,0,0,0,0,0,0,0,0,-1,1091,1170,0,0
-126,-146,0,0,0,0,0,0,0,0,0,-1,1098,1170,0,0
-119,-146,0,0,0,0,0,0,0,0,0,-1,1105,1170,0,0
-112,-146,0,0,0,0,0,0,0,0,0,-1,1112,1170,0,0
-105,-146,0,0,0,0,0,0,0,0,0,-1,1119,1170,0,0
-98,-146,0,0,0,0,0,0,0,0,0,-1,1126,1170,0,0
-91,-146,0,0,0,0,0,0,0,0,0,-1,1133,1170,0,0
-84,-146,0,0,0,0,0,0,0,0,0,-1,1140,1170,0,0
-77,-146,0,0,0,0,0,0,0,0,0,-1,1147,1170,0,0
-70,-146,0,0,0,0,0,0,0,0,0,-1,1154,1170,0,0
-63,-146,0,0,0,0,0,0,0,0,0,-1,1161,1170,0,0
-56,-146,0,0,0,0,0,0,0,0,0,-1,1168,1170,0,0
-49,-146,0,0,0,0,0,0,0,0,0,-1,1175,1170,0,0
-42,-146,0,0,0,0,0,0,0,0,0,-1,1182,1170,0,0
-35,-146,0,0,0,0,0,0,0,0,0,-1,1189,1170,0,0
-28,-146,0,0,0,0,0,0,0,0,0,-1,1196,1170,0,0
-21,-146,0,0,0,0,0,0,0,0,0,-1,1203,1170,0,0
-14,-146,0,0,0,0,0,0,0,0,0,-1,1210,1170,0,0
-7,-146,0,0,0,0,0,0,0,0,0,-1,1217,1170,0,0
0,-146,0,0,0,0,0,0,0,0,0,-1,1224,1170,0,0
7,-146,0,0,0,0,0,0,0,0,0,-1,1231,1170,0,0
14,-146,0,0,0,0,0,0,0,0,0,-1,1238,1170,0,0
21,-146,0,0,0,0,0,0,0,0,0,-1,1245,1170,0,0
28,-146,0,0,0,0,0,0,0,0,0,-1,1252,1170,0,0
35,-146,0,0,0,0,0,0,0,0,0,-1,1259,1170,0,0
42,-146,0,0,0,0,0,0,0,0,0,-1,1266,1170,0,0
49,-146,0,0,0,0,0,0,0,0,0,-1,1273,1170,0,0
56,-146,0,0,0,0,0,0,0,0,0,-1,1280,1170,0,0
63,-146,0,0,0,0,0,0,0,0,0,-1,1287,1170,0,0
70,-146,0,0,0,0,0,0,0,0,0,-1,1294,1170,0,0
77,-146,0,0,0,0,0,0,0,0,0,-1,1301,1170,0,0
84,-146,0,0,0,0,0,0,0,0,0,-1,1308,1170,0,0
91,-146,0,0,0,0,0,0,0,0,0,-1,1315,1170,0,0
98,-146,0,0,0,0,0,0,0,0,0,-1,1322,1170,0,0
105,-146,0,0,0,0,0,0,0,0,0,-1,1329,1170,0,0
112,-146,0,0,0,0,0,0,0,0,0,-1,1336,1170,0,0
119,-146,0,0,0,0,0,0,0,0,0,-1,1343,1170,0,0
126,-146,0,0,0,0,0,0,0,0,0,-1,1350,1170,0,0
133,-146,0,0,0,0,0,0,0,0,0,-1,1357,1170,0,0
140,-146,0,0,0,0,0,0,0,0,0,-1,1364,1170,0,0
147,-146,0,0,0,0,0,0,0,0,0,-1,1371,1170,0,0
154,-146,0,0,0,0,0,0,0,0,0,-1,1378,1170,0,0
161,-146,0,0,0,0,0,0,0,0,0,-1,1385,1170,0,0
168,-146,0,0,0,0,0,0,0,0,0,-1,1392,1170,0,0
175,-146,0,0,0,0,0,0,0,0,0,-1,1399,1170,0,0
182,-146,0,0,0,0,0,0,0,0,0,-1,1406,1170,0,0
189,-146,0,0,0,0,0,0,0,0,0,-1,1413,1170,0,0
196,-146,0,0,0,0,0,0,0,0,0,-1,1420,1170,0,0
203,-146,0,0,0,0,0,0,0,0,0,-1,1427,1170,0,0
210,-146,0,0,0,0,0,0,0,0,0,-1,1434,1170,0,0
217,-146,0,0,0,0,0,0,0,0,0,-1,1441,1170,0,0
224,-146,0,0,0,0,0,0,0,0,0,-1,1448,1170,0,0
231,-146,0,0,0,0,0,0,0,0,0,-1,1455,1170,0,0
238,-146,0,0,0,0,0,0,0,0,0,-1,1462,1170,0,0
245,-146,0,0,0,0,0,0,0,0,0,-1,1469,1170,0,0
252,-146,0,0,0,0,0,0,0,0,0,-1,1476,1170,0,0
259,-146,0,0,0,0,0,0,0,0,0,-1,1483,1170,0,0
266,-146,0,0,0,0,0,0,0,0,0,-1,1490,1170,0,0
273,-146,0,0,0,0,0,0,0,0,0,-1,1497,1170,0,0
280,-146,0,0,0,0,0,0,0,0,0,-1,1504,1170,0,0
287,-146,0,0,0,0,0,0,0,0,0,-1,1511,1170,0,0
294,-146,0,0,0,0,0,0,0,0,0,-1,1518,1170,0,0
301,-146,0,0,0,0,0,0,0,0,0,-1,1525,1170,0,0
308,-146,0,0,0,0,0,0,0,0,0,-1,1532,1170,0,0
315,-146,0,0,0,0,0,0,0,0,0,-1,1539,1170,0,0
322,-146,0,0,0,0,0,0,0,0,0,-1,1546,1170,0,0
329,-146,0,0,0,0,0,0,0,0,0,-1,1553,1170,0,0
336,-146,0,0,0,0,0,0,0,0,0,-1,1560,1170,0,0
343,-146,0,0,0,0,0,0,0,0,0,-1,1567,1170,0,0
350,-146,0,0,0,0,0,0,0,0,0,-1,1574,1170,0,0
357,-146,0,0,0,0,0,0,0,0,0,-1,1581,1170,0,0
364,-146,0,0,0,0,0,0,0,0,0,-1,1588,1170,0,0
371,-146,0,0,0,0,0,0,0,0,0,-1,1595,1170,0,0
378,-146,0,0,0,0,0,0,0,0,0,-1,1602,1170,0,0
385,-146,0,0,0,0,0,0,0,0,0,-1,1609,1170,0,0
392,-146,0,0,0,0,0,0,0,0,0,-1,1616,1170,0,0
399,-146,0,0,0,0,0,0,0,0,0,-1,1623,1170,0,0
406,-146,0,0,0,0,0,0,0,0,0,-1,1630,1170,0,0
413,-146,0,0,0,0,0,0,0,0,0,-1,1637,1170,0,0
420,-146,0,0,0,0,0,0,0,0,0,-1,1644,1170,0,0
427,-146,0,0,0,0,0,0,0,0,0,-1,1651,1170,0,0
434,-146,0,0,0,0,0,0,0,0,0,-1,1658,1170,0,0
441,-146,0,0,0,0,0,0,0,0,0,-1,1665,1170,0,0
448,-146,0,0,0,0,0,0,0,0,0,-1,1672,1170,0,0
455,-146,0,0,0,0,0,0,0,0,0,-1,1679,1170,0,0
462,-146,0,0,0,0,0,0,0,0,0,-1,1686,1170,0,0
469,-146,0,0,0,0,0,0,0,0,0,-1,1693,1170,0,0
476,-146,0,0,0,0,0,0,0,0,0,-1,1700,1170,0,0
483,-146,0,0,0,0,0,0,0,0,0,-1,1707,1170,0,0
490,-146,0,0,0,0,0,0,0,0,0,-1,1714,1170,0,0
497,-146,0,0,0,0,0,0,0,0,0,-1,1721,1170,0,0
504,-146,0,0,0,0,0,0,0,0,0,-1,1728,1170,0,0
511,-146,0,0,0,0,0,0,0,0,0,-1,1735,1170,0,0
518,-146,0,0,0,0,0,0,0,0,0,-1,1742,1170,0,0
525,-146,0,0,0,0,0,0,0,0,0,-1,1749,1170,0,0
532,-146,0,0,0,0,0,0,0,0,0,-1,1756,1170,0,0
539,-146,0,0,0,0,0,0,0,0,0,-1,1763,1170,0,0
546,-146,0,0,0,0,0,0,0,0,0,-1,1770,1170,0,0
553,-146,0,0,0,0,0,0,0,0,0,-1,1777,1170,0,0
560,-146,0,0,0,0,0,0,0,0,0,-1,1784,1170,0,0
567,-146,0,0,0,0,0,0,0,0,0,-1,1791,1170,0,0
574,-146,0,0,0,0,0,0,0,0,0,-1,1798,1170,0,0
581,-146,0,0,0,0,0,0,0,0,0,-1,1805,1170,0,0
588,-146,0,0,0,0,0,0,0,0,0,-1,1812,1170,0,0
595,-146,0,0,0,0,0,0,0,0,0,-1,1819,1170,0,0
602,-146,0,0,0,0,0,0,0,0,0,-1,1826,1170,0,0
609,-146,0,0,0,0,0,0,0,0,0,-1,1833,1170,0,0
616,-146,0,0,0,0,0,0,0,0,0,-1,1840,1170,0,0
623,-146,0,0,0,0,0,0,0,0,0,-1,1847,1170,0,0
630,-146,0,0,0,0,0,0,0,0,0,-1,1854,1170,0,0
637,-146,14.1256,1.87329,-0.00178911,0.00596611,0.000551227,0.00600509,-0.0018281,1.50019,0.00473197,0.0385823,1861,1170,14.1257,-1.87333
644,-146,14.1295,1.84863,-0.00028957,0.00491594,-2.5021e-05,0.00491606,-0.00028969,-1.56599,0.00337808,0.0382274,1868,1170,14.1296,-1.84857
651,-146,14.1423,1.92896,0.00020894,0.00399784,-0.000358167,0.0040314,0.000175379,-1.47737,0.00263109,0.0376153,1875,1170,14.1423,-1.92897
658,-146,14.1064,2.06409,-0.000602911,0.00270108,0.00035686,0.00273918,-0.000641015,1.46442,0.0020731,0.0375962,1882,1170,14.1064,-2.06409
665,-146,14.0881,2.08667,-0.00219309,0.00137683,0.00167061,0.00203666,-0.00285293,1.19464,0.00283609,0.0372845,1889,1170,14.0881,-2.08669
672,-146,14.1051,2.11523,-0.00389841,0.000197859,0.00301971,0.00179849,-0.00549904,1.08339,0.00439009,0.0359032,1896,1170,14.1051,-2.11529
679,-146,14.0955,1.98657,-0.00545022,-0.000790373,0.00422552,0.001705,-0.0079456,1.03735,0.00594743,0.0297013,1903,1170,14.0955,-1.98651
686,-146,14.0212,1.91162,-0.00668734,-0.001553,0.00518847,0.00166866,-0.009909,1.01513,0.00722672,0.0195266,1910,1170,14.0212,-1.91157
693,-146,14.064,1.87488,-0.00756171,-0.00215709,0.00580898,0.00154738,-0.0112662,1.00311,0.00807614,0.0112962,1917,1170,14.064,-1.8749
700,-146,14.0906,1.70142,-0.00795843,-0.00253651,0.0061168,0.00144316,-0.0119381,0.99399,0.00848081,0.0397853,1924,1170,14.0906,-1.70142
707,-146,13.5591,2.49707,-0.00796423,-0.00268141,0.00613946,0.00136075,-0.0120064,0.988546,0.00849424,0.0312116,1931,1170,13.5591,-2.49703
714,-146,13.2728,2.8822,-0.00776439,-0.00257423,0.00593011,0.00130376,-0.0116424,0.99165,0.00823067,0.0203685,1938,1170,13.2728,-2.88223
721,-146,13.2842,2.77625,-0.00712187,-0.00231816,0.00546685,0.0012512,-0.0106912,0.992379,0.00757905,0.0254332,1945,1170,13.2842,-2.77619
728,-146,13.3058,2.68958,-0.00590082,-0.00188396,0.00464256,0.00116598,-0.00895077,0.989549,0.00639139,0.0206721,1952,1170,13.3058,-2.68956
735,-146,13.2288,2.72754,-0.0044173,-0.0013585,0.00356575,0.000991998,-0.0067678,0.987989,0.00487628,0.0173966,1959,1170,13.2288,-2.72749
742,-146,13.2039,2.64917,-0.00251843,-0.000304879,0.00210177,0.00096372,-0.00378703,1.02774,0.0028998,0.0175089,1966,1170,13.2039,-2.64911
749,-146,13.1855,2.56775,-0.000230207,0.00123864,0.000217682,0.00127022,-0.000261788,1.42672,0.000946228,0.0157048,1973,1170,13.1856,-2.56771
756,-146,13.2007,2.50378,0.00240018,0.00330353,-0.00145095,0.00437148,0.00133223,-0.936292,0.00258722,0.0110323,1980,1170,13.2007,-2.50379
763,-146,13.2067,2.42407,0.00508771,0.005474,-0.00321606,0.00850271,0.002059,-0.815391,0.005122,0.0100902,1987,1170,13.2067,-2.42402
770,-146,13.2207,2.37146,0.00768649,0.00803492,-0.00476716,0.0126311,0.00309036,-0.803662,0.0076029,0.0111362,1994,1170,13.2207,-2.37147
777,-146,13.2269,2.28723,0.0106338,0.0112606,-0.0064614,0.0174162,0.00447822,-0.809631,0.0104432,0.019268,2001,1170,13.2269,-2.28724
784,-146,13.3303,1.85425,0.0141594,0.015326,-0.00840735,0.0231703,0.00631515,-0.820031,0.013831,0.0363829,2008,1170,13.3304,-1.85421
791,-146,13.4348,1.47705,0.0182828,0.0203188,-0.0105327,0.0298825,0.00871902,-0.833573,0.0177444,0.0432793,2015,1170,13.4348,-1.47711
798,-146,13.4528,1.12646,0.023113,0.026344,-0.0127496,0.03758,0.011877,-0.848418,0.0221809,0.0440395,2022,1170,13.4528,-1.12649
805,-146,14.1082,0.97229,0.0287152,0.0334747,-0.0147197,0.0460057,0.0161842,-0.865539,0.0269476,0.0427912,2029,1170,14.1081,-0.972252
812,-146,0,0,0,0,0,0,0,0,0,-1,2036,1170,0,0
-700,-153,0,0,0,0,0,0,0,0,0,-1,524,1177,0,0
-693,-153,0,0,0,0,0,0,0,0,0,-1,531,1177,0,0
-686,-153,-8.54572,-0.777222,0,0,0,0,0,0,0,-1,538,1177,-8.54571,0.777232
-679,-153,-8.21979,-0.617798,0,0,0,0,0,0,0,-1,545,1177,-8.2198,0.617834
-672,-153,-7.60089,0.205322,0,0,0,0,0,0,0,-1,552,1177,-7.6009,-0.205323
-665,-153,-7.42273,0.132568,0.0341505,0.0362332,0.00599609,0.0412777,0.029106,0.871377,0.0244911,0.0427149,559,1177,-7.42272,-0.132578
-658,-153,-7.19818,0.0285645,0,0,0,0,0,0,0,-1,566,1177,-7.19819,-0.0285256
-651,-153,-7.11163,-0.0251465,0.0191968,0.021418,-0.000749476,0.0216472,0.0189676,-1.27397,0.0136264,0.0467635,573,1177,-7.11161,0.0251127
-644,-153,-7.24084,0.302246,0.0135652,0.0158969,-0.00223684,0.0172535,0.0122086,-1.02564,0.0102435,0.0286051,580,1177,-7.24083,-0.302221
-637,-153,-7.263,0.43457,0.00949599,0.0110709,-0.00307791,0.0134605,0.00710641,-0.910635,0.00777548,0.011448,587,1177,-7.26299,-0.434527
-630,-153,-7.27826,0.499756,0.00535401,0.00715621,-0.00407542,0.010429,0.00208126,-0.894201,0.00637319,0.00940462,594,1177,-7.27823,-0.499774
-623,-153,-7.28174,0.573853,0.0010904,0.00372547,-0.00455924,0.00715373,-0.00233786,-0.926057,0.00571026,0.00972089,601,1177,-7.28173,-0.57386
-616,-153,-7.29346,0.664917,-0.00231066,0.0021288,-0.00481797,0.00521379,-0.00539565,-1.00126,0.00612566,0.0134291,608,1177,-7.29344,-0.664951
-609,-153,-7.26788,0.753784,-0.00426769,-0.00036634,-0.00508538,0.00312966,-0.00776368,-0.968536,0.00647619,0.0186994,615,1177,-7.26788,-0.753809
-602,-153,-7.29492,0.850098,-0.00564766,-0.00142998,-0.0052375,0.00210729,-0.00918494,-0.976789,0.00693331,0.0208219,622,1177,-7.29491,-0.850049
-595,-153,-7.36957,0.918823,-0.00726227,-0.00239147,-0.00540404,0.00110059,-0.0107543,-0.997101,0.00756316,0.0150631,629,1177,-7.36956,-0.918778
-588,-153,-7.33508,1.00854,-0.00859058,-0.00282478,-0.00577143,0.000743711,-0.0121591,-1.01703,0.00836498,0.00996207,636,1177,-7.33511,-1.00857
-581,-153,-7.23816,1.05688,0,0,0,0,0,0,0,-1,643,1177,-7.23816,-1.05691
-574,-153,-7.68097,0.668945,-0.0095571,-0.0031247,-0.00636652,0.000791882,-0.0134737,-1.01929,0.00925771,0.0414822,650,1177,-7.68095,-0.668888
-567,-153,-8.15179,0.407349,-0.00956329,-0.00300844,-0.00633313,0.000845057,-0.0134168,-1.02417,0.0092391,0.0453756,657,1177,-8.15182,-0.407397
-560,-153,-8.24139,0.384399,-0.00894844,-0.00259693,-0.00583577,0.000871231,-0.0124166,-1.03458,0.0085829,0.0397831,664,1177,-8.2414,-0.38443
-553,-153,-8.19946,0.463379,-0.00752457,-0.00190941,-0.0048538,0.000890309,-0.0103243,-1.0476,0.00719801,0.0382312,671,1177,-8.19946,-0.463358
-546,-153,-8.06146,0.309326,-0.00518978,-0.000981218,-0.00335157,0.000871901,-0.0070429,-1.06572,0.00501125,0.0410451,678,1177,-8.06145,-0.309281
-539,-153,-8.36865,0.449707,-0.00188249,0.000116135,-0.0013358,0.000785054,-0.00255141,-1.10654,0.00201428,0.0441814,685,1177,-8.36862,-0.449761
-532,-153,-8.53687,0.393433,0.00245803,0.00126421,0.00105731,0.00307529,0.000646951,0.528423,0.00187218,0.0452341,692,1177,-8.53684,-0.393433
-525,-153,-8.38306,0.410889,0.0067825,0.00200869,0.00298419,0.00821694,0.00057424,0.448074,0.00529694,0.0422987,699,1177,-8.38307,-0.410895
-518,-153,0,0,0,0,0,0,0,0,0,-1,706,1177,0,0
-511,-153,0,0,0,0,0,0,0,0,0,-1,713,1177,0,0
-504,-153,0,0,0,0,0,0,0,0,0,-1,720,1177,0,0
-497,-153,0,0,0,0,0,0,0,0,0,-1,727,1177,0,0
-490,-153,0,0,0,0,0,0,0,0,0,-1,734,1177,0,0
-483,-153,0,0,0,0,0,0,0,0,0,-1,741,1177,0,0
-476,-153,0,0,0,0,0,0,0,0,0,-1,748,1177,0,0
-469,-153,0,0,0,0,0,0,0,0,0,-1,755,1177,0,0
-462,-153,0,0,0,0,0,0,0,0,0,-1,762,1177,0,0
-455,-153,0,0,0,0,0,0,0,0,0,-1,769,1177,0,0
-448,-153,0,0,0,0,0,0,0,0,0,-1,776,1177,0,0
-441,-153,0,0,0,0,0,0,0,0,0,-1,783,1177,0,0
-434,-153,0,0,0,0,0,0,0,0,0,-1,790,1177,0,0
-427,-153,0,0,0,0,0,0,0,0,0,-1,797,1177,0,0
-420,-153,0,0,0,0,0,0,0,0,0,-1,804,1177,0,0
-413,-153,0,0,0,0,0,0,0,0,0,-1,811,1177,0,0
-406,-153,0,0,0,0,0,0,0,0,0,-1,818,1177,0,0
-399,-153,0,0,0,0,0,0,0,0,0,-1,825,1177,0,0
-392,-153,0,0,0,0,0,0,0,0,0,-1,832,1177,0,0
-385,-153,0,0,0,0,0,0,0,0,0,-1,839,1177,0,0
-378,-153,0,0,0,0,0,0,0,0,0,-1,846,1177,0,0
-371,-153,0,0,0,0,0,0,0,0,0,-1,853,1177,0,0
-364,-153,0,0,0,0,0,0,0,0,0,-1,860,1177,0,0
-357,-153,0,0,0,0,0,0,0,0,0,-1,867,1177,0,0
-350,-153,0,0,0,0,0,0,0,0,0,-1,874,1177,0,0
-343,-153,0,0,0,0,0,0,0,0,0,-1,881,1177,0,0
-336,-153,0,0,0,0,0,0,0,0,0,-1,888,1177,0,0
-329,-153,0,0,0,0,0,0,0,0,0,-1,895,1177,0,0
-322,-153,0,0,0,0,0,0,0,0,0,-1,902,1177,0,0
-315,-153,0,0,0,0,0,0,0,0,0,-1,909,1177,0,0
-308,-153,0,0,0,0,0,0,0,0,0,-1,916,1177,0,0
-301,-153,0,0,0,0,0,0,0,0,0,-1,923,1177,0,0
-294,-153,0,0,0,0,0,0,0,0,0,-1,930,1177,0,0
-287,-153,0,0,0,0,0,0,0,0,0,-1,937,1177,0,0
-280,-153,0,0,0,0,0,0,0,0,0,-1,944,1177,0,0
-273,-153,0,0,0,0,0,0,0,0,0,-1,951,1177,0,0
-266,-153,0,0,0,0,0,0,0,0,0,-1,958,1177,0,0
-259,-153,0,0,0,0,0,0,0,0,0,-1,965,1177,0,0
-252,-153,0,0,0,0,0,0,0,0,0,-1,972,1177,0,0
-245,-153,0,0,0,0,0,0,0,0,0,-1,979,1177,0,0
-238,-153,0,0,0,0,0,0,0,0,0,-1,986,1177,0,0
-231,-153,0,0,0,0,0,0,0,0,0,-1,993,1177,0,0
-224,-153,0,0,0,0,0,0,0,0,0,-1,1000,1177,0,0
-217,-153,0,0,0,0,0,0,0,0,0,-1,1007,1177,0,0
-210,-153,0,0,0,0,0,0,0,0,0,-1,1014,1177,0,0
-203,-153,0,0,0,0,0,0,0,0,0,-1,1021,1177,0,0
-196,-153,0,0,0,0,0,0,0,0,0,-1,1028,1177,0,0
-189,-153,0,0,0,0,0,0,0,0,0,-1,1035,1177,0,0
-182,-153,0,0,0,0,0,0,0,0,0,-1,1042,1177,0,0
-175,-153,0,0,0,0,0,0,0,0,0,-1,1049,1177,0,0
-168,-153,0,0,0,0,0,0,0,0,0,-1,1056,1177,0,0
-161,-153,0,0,0,0,0,0,0,0,0,-1,1063,1177,0,0
-154,-153,0,0,0,0,0,0,0,0,0,-1,1070,1177,0,0
-147,-153,0,0,0,0,0,0,0,0,0,-1,1077,1177,0,0
-140,-153,0,0,0,0,0,0,0,0,0,-1,1084,1177,0,0
-133,-153,0,0,0,0,0,0,0,0,0,-1,1091,1177,0,0
-126,-153,0,0,0,0,0,0,0,0,0,-1,1098,1177,0,0
-119,-153,0,0,0,0,0,0,0,0,0,-1,1105,1177,0,0
-112,-153,0,0,0,0,0,0,0,0,0,-1,1112,1177,0,0
-105,-153,0,0,0,0,0,0,0,0,0,-1,1119,1177,0,0
-98,-153,0,0,0,0,0,0,0,0,0,-1,1126,1177,0,0
-91,-153,0,0,0,0,0,0,0,0,0,-1,1133,1177,0,0
-84,-153,0,0,0,0,0,0,0,0,0,-1,1140,1177,0,0
-77,-153,0,0,0,0,0,0,0,0,0,-1,1147,1177,0,0
-70,-153,0,0,0,0,0,0,0,0,0,-1,1154,1177,0,0
-63,-153,0,0,0,0,0,0,0,0,0,-1,1161,1177,0,0
-56,-153,0,0,0,0,0,0,0,0,0,-1,1168,1177,0,0
-49,-153,0,0,0,0,0,0,0,0,0,-1,1175,1177,0,0
-42,-153,0,0,0,0,0,0,0,0,0,-1,1182,1177,0,0
-35,-153,0,0,0,0,0,0,0,0,0,-1,1189,1177,0,0
-28,-153,0,0,0,0,0,0,0,0,0,-1,1196,1177,0,0
-21,-153,0,0,0,0,0,0,0,0,0,-1,1203,1177,0,0
-14,-153,0,0,0,0,0,0,0,0,0,-1,1210,1177,0,0
-7,-153,0,0,0,0,0,0,0,0,0,-1,1217,1177,0,0
0,-153,0,0,0,0,0,0,0,0,0,-1,1224,1177,0,0
7,-153,0,0,0,0,0,0,0,0,0,-1,1231,1177,0,0
14,-153,0,0,0,0,0,0,0,0,0,-1,1238,1177,0,0
21,-153,0,0,0,0,0,0,0,0,0,-1,1245,1177,0,0
28,-153,0,0,0,0,0,0,0,0,0,-1,1252,1177,0,0
35,-153,0,0,0,0,0,0,0,0,0,-1,1259,1177,0,0
42,-153,0,0,0,0,0,0,0,0,0,-1,1266,1177,0,0
49,-153,0,0,0,0,0,0,0,0,0,-1,1273,1177,0,0
56,-153,0,0,0,0,0,0,0,0,0,-1,1280,1177,0,0
63,-153,0,0,0,0,0,0,0,0,0,-1,1287,1177,0,0
70,-153,0,0,0,0,0,0,0,0,0,-1,1294,1177,0,0
77,-153,0,0,0,0,0,0,0,0,0,-1,1301,1177,0,0
84,-153,0,0,0,0,0,0,0,0,0,-1,1308,1177,0,0
91,-153,0,0,0,0,0,0,0,0,0,-1,1315,1177,0,0
98,-153,0,0,0,0,0,0,0,0,0,-1,1322,1177,0,0
105,-153,0,0,0,0,0,0,0,0,0,-1,1329,1177,0,0
112,-153,0,0,0,0,0,0,0,0,0,-1,1336,1177,0,0
119,-153,0,0,0,0,0,0,0,0,0,-1,1343,1177,0,0
126,-153,0,0,0,0,0,0,0,0,0,-1,1350,1177,0,0
133,-153,0,0,0,0,0,0,0,0,0,-1,1357,1177,0,0
140,-153,0,0,0,0,0,0,0,0,0,-1,1364,1177,0,0
147,-153,0,0,0,0,0,0,0,0,0,-1,1371,1177,0,0
154,-153,0,0,0,0,0,0,0,0,0,-1,1378,1177,0,0
161,-153,0,0,0,0,0,0,0,0,0,-1,1385,1177,0,0
168,-153,0,0,0,0,0,0,0,0,0,-1,1392,1177,0,0
175,-153,0,0,0,0,0,0,0,0,0,-1,1399,1177,0,0
182,-153,0,0,0,0,0,0,0,0,0,-1,1406,1177,0,0
189,-153,0,0,0,0,0,0,0,0,0,-1,1413,1177,0,0
196,-153,0,0,0,0,0,0,0,0,0,-1,1420,1177,0,0
203,-153,0,0,0,0,0,0,0,0,0,-1,1427,1177,0,0
210,-153,0,0,0,0,0,0,0,0,0,-1,1434,1177,0,0
217,-153,0,0,0,0,0,0,0,0,0,-1,1441,1177,0,0
224,-153,0,0,0,0,0,0,0,0,0,-1,1448,1177,0,0
231,-153,0,0,0,0,0,0,0,0,0,-1,1455,1177,0,0
238,-153,0,0,0,0,0,0,0,0,0,-1,1462,1177,0,0
245,-153,0,0,0,0,0,0,0,0,0,-1,1469,1177,0,0
252,-153,0,0,0,0,0,0,0,0,0,-1,1476,1177,0,0
259,-153,0,0,0,0,0,0,0,0,0,-1,1483,1177,0,0
266,-153,0,0,0,0,0,0,0,0,0,-1,1490,1177,0,0
273,-153,0,0,0,0,0,0,0,0,0,-1,1497,1177,0,0
280,-153,0,0,0,0,0,0,0,0,0,-1,1504,1177,0,0
287,-153,0,0,0,0,0,0,0,0,0,-1,1511,1177,0,0
294,-153,0,0,0,0,0,0,0,0,0,-1,1518,1177,0,0
301,-153,0,0,0,0,0,0,0,0,0,-1,1525,1177,0,0
308,-153,0,0,0,0,0,0,0,0,0,-1,1532,1177,0,0
315,-153,0,0,0,0,0,0,0,0,0,-1,1539,1177,0,0
322,-153,0,0,0,0,0,0,0,0,0,-1,1546,1177,0,0
329,-153,0,0,0,0,0,0,0,0,0,-1,1553,1177,0,0
336,-153,0,0,0,0,0,0,0,0,0,-1,1560,1177,0,0
343,-153,0,0,0,0,0,0,0,0,0,-1,1567,1177,0,0
350,-153,0,0,0,0,0,0,0,0,0,-1,1574,1177,0,0
357,-153,0,0,0,0,0,0,0,0,0,-1,1581,1177,0,0
364,-153,0,0,0,0,0,0,0,0,0,-1,1588,1177,0,0
371,-153,0,0,0,0,0,0,0,0,0,-1,1595,1177,0,0
378,-153,0,0,0,0,0,0,0,0,0,-1,1602,1177,0,0
385,-153,0,0,0,0,0,0,0,0,0,-1,1609,1177,0,0
392,-153,0,0,0,0,0,0,0,0,0,-1,1616,1177,0,0
399,-153,0,0,0,0,0,0,0,0,0,-1,1623,1177,0,0
406,-153,0,0,0,0,0,0,0,0,0,-1,1630,1177,0,0
413,-153,0,0,0,0,0,0,0,0,0,-1,1637,1177,0,0
420,-153,0,0,0,0,0,0,0,0,0,-1,1644,1177,0,0
427,-153,0,0,0,0,0,0,0,0,0,-1,1651,1177,0,0
434,-153,0,0,0,0,0,0,0,0,0,-1,1658,1177,0,0
441,-153,0,0,0,0,0,0,0,0,0,-1,1665,1177,0,0
448,-153,0,0,0,0,0,0,0,0,0,-1,1672,1177,0,0
455,-153,0,0,0,0,0,0,0,0,0,-1,1679,1177,0,0
462,-153,0,0,0,0,0,0,0,0,0,-1,1686,1177,0,0
469,-153,0,0,0,0,0,0,0,0,0,-1,1693,1177,0,0
476,-153,0,0,0,0,0,0,0,0,0,-1,1700,1177,0,0
483,-153,0,0,0,0,0,0,0,0,0,-1,1707,1177,0,0
490,-153,0,0,0,0,0,0,0,0,0,-1,1714,1177,0,0
497,-153,0,0,0,0,0,0,0,0,0,-1,1721,1177,0,0
504,-153,0,0,0,0,0,0,0,0,0,-1,1728,1177,0,0
511,-153,0,0,0,0,0,0,0,0,0,-1,1735,1177,0,0
518,-153,0,0,0,0,0,0,0,0,0,-1,1742,1177,0,0
525,-153,0,0,0,0,0,0,0,0,0,-1,1749,1177,0,0
532,-153,0,0,0,0,0,0,0,0,0,-1,1756,1177,0,0
539,-153,0,0,0,0,0,0,0,0,0,-1,1763,1177,0,0
546,-153,0,0,0,0,0,0,0,0,0,-1,1770,1177,0,0
553,-153,0,0,0,0,0,0,0,0,0,-1,1777,1177,0,0
560,-153,0,0,0,0,0,0,0,0,0,-1,1784,1177,0,0
567,-153,0,0,0,0,0,0,0,0,0,-1,1791,1177,0,0
574,-153,0,0,0,0,0,0,0,0,0,-1,1798,1177,0,0
581,-153,0,0,0,0,0,0,0,0,0,-1,1805,1177,0,0
588,-153,0,0,0,0,0,0,0,0,0,-1,1812,1177,0,0
595,-153,0,0,0,0,0,0,0,0,0,-1,1819,1177,0,0
602,-153,0,0,0,0,0,0,0,0,0,-1,1826,1177,0,0
609,-153,0,0,0,0,0,0,0,0,0,-1,1833,1177,0,0
616,-153,0,0,0,0,0,0,0,0,0,-1,1840,1177,0,0
623,-153,0,0,0,0,0,0,0,0,0,-1,1847,1177,0,0
630,-153,0,0,0,0,0,0,0,0,0,-1,1854,1177,0,0
637,-153,14.1625,1.56555,-0.00135242,0.00528438,0.00126195,0.00551624,-0.00158427,1.3891,0.0043039,0.0391013,1861,1177,14.1625,-1.5655
644,-153,14.2046,1.62097,0.000245075,0.00461121,0.000274043,0.00462835,0.000227942,1.50836,0.00301246,0.0358756,1868,1177,14.2045,-1.62103
651,-153,14.21,1.86707,0.000359101,0.00375539,3.37368e-05,0.00375572,0.000358766,1.56086,0.00239321,0.0320661,1875,1177,14.2099,-1.86711
658,-153,14.1804,2.02783,-0.000938037,0.00240965,0.000925492,0.00264847,-0.00117686,1.31826,0.00226238,0.0358252,1882,1177,14.1804,-2.0278
665,-153,14.0875,2.07556,-0.0028617,0.00105705,0.00228961,0.00211122,-0.00391587,1.13931,0.00353135,0.0365336,1889,1177,14.0875,-2.07555
672,-153,14.0598,1.9884,-0.00476504,-0.000149528,0.00363043,0.00184455,-0.00675912,1.06852,0.00523049,0.0350636,1896,1177,14.0599,-1.98844
679,-153,14.0166,1.87964,-0.00643215,-0.00116502,0.00481046,0.0016856,-0.00928276,1.03585,0.00682016,0.0264644,1903,1177,14.0166,-1.87969
686,-153,14.0349,1.91602,-0.00769218,-0.00193741,0.00572435,0.00159204,-0.0112216,1.01828,0.00806432,0.0150022,1910,1177,14.0349,-1.916
693,-153,14.0729,1.82031,-0.00853333,-0.00252176,0.00628205,0.00143657,-0.0124917,1.00854,0.00884561,0.0219439,1917,1177,14.0729,-1.82029
700,-153,14.0759,1.59534,-0.00886181,-0.00287671,0.00650493,0.00129101,-0.0130295,1.00099,0.00914711,0.0476255,1924,1177,14.0759,-1.59535
707,-153,14.0962,1.40027,0,0,0,0,0,0,0,-1,1931,1177,14.0961,-1.40023
714,-153,13.2462,2.8457,-0.0083932,-0.00287309,0.00610714,0.00106872,-0.012335,0.997631,0.00860174,0.0202777,1938,1177,13.2462,-2.84567
721,-153,13.2592,2.76624,-0.0075549,-0.00258006,0.00555408,0.00101817,-0.0111531,0.995932,0.007797,0.0173099,1945,1177,13.2591,-2.76627
728,-153,13.2423,2.70825,-0.00608931,-0.0021001,0.00465027,0.000965277,-0.00915469,0.987992,0.00644901,0.0228677,1952,1177,13.2423,-2.70823
735,-153,13.1361,2.71985,-0.00438165,-0.00151878,0.003499,0.000830263,-0.0067307,0.979561,0.00478794,0.017737,1959,1177,13.1361,-2.71988
742,-153,13.1519,2.63342,-0.00218217,-0.000381487,0.00194561,0.000862002,-0.00342566,1.0021,0.00261883,0.0161214,1966,1177,13.1518,-2.6334
749,-153,13.1421,2.56458,0.000389411,0.00116902,-1.59728e-05,0.00116935,0.000389083,-1.55032,0.0006876,0.0166198,1973,1177,13.1421,-2.56454
756,-153,13.1563,2.49805,0.00320215,0.00318999,-0.0017091,0.00490518,0.00148696,-0.783618,0.00290425,0.0109119,1980,1177,13.1563,-2.49802
763,-153,13.1541,2.43335,0.00596413,0.00520885,-0.00335216,0.00895986,0.00221312,-0.729307,0.0053892,0.0105016,1987,1177,13.1541,-2.4334
770,-153,13.1615,2.36755,0.00875985,0.00766041,-0.00484313,0.0130844,0.0033359,-0.728887,0.00785084,0.00956253,1994,1177,13.1615,-2.36758
777,-153,13.1884,2.28113,0.012047,0.0107956,-0.00653649,0.0179876,0.00485492,-0.737684,0.0107455,0.0200413,2001,1177,13.1883,-2.28118
784,-153,13.4993,2.06982,0.0159948,0.0147573,-0.00847482,0.0238734,0.00687868,-0.748959,0.0141898,0.0416969,2008,1177,13.4992,-2.06984
791,-153,13.759,1.85181,0,0,0,0,0,0,0,-1,2015,1177,13.759,-1.85175
798,-153,13.4703,0.987793,0.0260053,0.0255092,-0.0127994,0.0385591,0.0129555,-0.77571,0.0226578,0.0474274,2022,1177,13.4703,-0.987791
805,-153,13.6617,0.712036,0.0322286,0.0324211,-0.0147578,0.047083,0.0175668,-0.788659,0.0274736,0.0442725,2029,1177,13.6618,-0.712045
812,-153,0,0,0,0,0,0,0,0,0,-1,2036,1177,0,0
-700,-160,0,0,0,0,0,0,0,0,0,-1,524,1184,0,0
-693,-160,0,0,0,0,0,0,0,0,0,-1,531,1184,0,0
-686,-160,-8.18744,-0.700562,0.063422,0.0688895,0.0166432,0.0830219,0.0492896,0.866799,0.0482124,0.0446551,538,1184,-8.18741,0.700601
-679,-160,-7.92645,-0.708862,0.0529012,0.0577605,0.0085017,0.0641729,0.0464888,0.92458,0.0382741,0.0460671,545,1184,-7.92646,0.708829
-672,-160,-7.40601,-0.701538,0.0425403,0.0475575,0.00271062,0.0487422,0.0413556,1.15875,0.0303339,0.0458792,552,1184,-7.40603,0.701493
-665,-160,-7.23743,-0.685059,0.0331186,0.0384436,-0.00123628,0.0387166,0.0328456,-1.35344,0.0240937,0.0475883,559,1184,-7.23743,0.68502
-658,-160,-7.04395,-0.68811,0,0,0,0,0,0,0,-1,566,1184,-7.04392,0.688112
-651,-160,-6.87927,-0.34314,0,0,0,0,0,0,0,-1,573,1184,-6.87928,0.343158
-644,-160,-7.12671,0.0839844,0.012665,0.0177497,-0.00532471,0.0211079,0.0093068,-1.00813,0.012215,0.0380581,580,1184,-7.12668,-0.0840081
-637,-160,-7.16998,0.416382,0.00866976,0.0126892,-0.00517524,0.0162313,0.00512774,-0.970604,0.00958049,0.0137117,587,1184,-7.16997,-0.416427
-630,-160,-7.19952,0.482056,0.00481162,0.00860524,-0.00526975,0.0123092,0.0011077,-0.958151,0.00786292,0.00809416,594,1184,-7.19951,-0.482074
-623,-160,-7.22302,0.544189,0.00092389,0.00477445,-0.00507248,0.00827474,-0.0025764,-0.966777,0.00654652,0.0103721,601,1184,-7.22303,-0.544249
-616,-160,-7.22516,0.63147,-0.0022449,0.00283351,-0.00501828,0.00591842,-0.00532981,-1.01961,0.00649713,0.00982057,608,1184,-7.22515,-0.631443
-609,-160,-7.20325,0.766113,-0.00417541,-8.95681e-05,-0.00517264,0.00342896,-0.00769394,-0.97347,0.00657729,0.0128886,615,1184,-7.20327,-0.766169
-602,-160,-7.21558,0.87439,-0.0055118,-0.00138962,-0.00520363,0.00214624,-0.00904766,-0.973962,0.00686003,0.0178666,622,1184,-7.21557,-0.874365
-595,-160,-7.19794,0.956787,-0.00716145,-0.00250179,-0.00532721,0.000982789,-0.010646,-0.991539,0.0074466,0.0182311,629,1184,-7.19791,-0.956786
-588,-160,-7.25336,1.03271,-0.00851901,-0.00301231,-0.00569946,0.000564014,-0.0120953,-1.01041,0.00825798,0.0177224,636,1184,-7.25336,-1.0327
-581,-160,-7.22797,1.13733,-0.0092135,-0.00335873,-0.00616735,0.000540725,-0.013113,-1.00698,0.00892767,0.0158121,643,1184,-7.22799,-1.13735
-574,-160,-7.56274,1.01917,-0.00949347,-0.00341511,-0.00637174,0.000605148,-0.0135137,-1.00793,0.00921749,0.0394802,650,1184,-7.56277,-1.01917
-567,-160,-7.98138,0.651245,-0.00954709,-0.00338207,-0.00638876,0.000628949,-0.0135581,-1.01017,0.00925551,0.0457415,657,1184,-7.98138,-0.651269
-560,-160,-8.25726,0.358276,-0.00903542,-0.00304506,-0.00594633,0.000617838,-0.0126983,-1.0187,0.00867882,0.0391654,664,1184,-8.25725,-0.358245
-553,-160,-8.21271,0.405884,-0.00776041,-0.00242372,-0.0050173,0.00059066,-0.0107748,-1.02979,0.00738795,0.039443,671,1184,-8.21268,-0.405943
-546,-160,-8.16321,0.261353,-0.00561104,-0.00153596,-0.00353812,0.000509368,-0.00765637,-1.04665,0.00528223,0.0392966,678,1184,-8.16321,-0.261369
-539,-160,-8.37262,0.327148,-0.00253334,-0.000427122,-0.0014979,0.000350819,-0.00331128,-1.09179,0.00233327,0.0421708,685,1184,-8.37259,-0.3271
-532,-160,-8.33661,0.380737,0.00157811,0.000821047,0.00104448,0.00231054,8.86223e-05,0.611553,0.00151168,0.0437935,692,1184,-8.3366,-0.380692
-525,-160,-8.0614,0.267334,0,0,0,0,0,0,0,-1,699,1184,-8.06143,-0.267305
-518,-160,-7.48657,0.247559,0,0,0,0,0,0,0,-1,706,1184,-7.4866,-0.247505
-511,-160,0,0,0,0,0,0,0,0,0,-1,713,1184,0,0
-504,-160,0,0,0,0,0,0,0,0,0,-1,720,1184,0,0
-497,-160,0,0,0,0,0,0,0,0,0,-1,727,1184,0,0
-490,-160,0,0,0,0,0,0,0,0,0,-1,734,1184,0,0
-483,-160,0,0,0,0,0,0,0,0,0,-1,741,1184,0,0
-476,-160,0,0,0,0,0,0,0,0,0,-1,748,1184,0,0
-469,-160,0,0,0,0,0,0,0,0,0,-1,755,1184,0,0
-462,-160,0,0,0,0,0,0,0,0,0,-1,762,1184,0,0
-455,-160,0,0,0,0,0,0,0,0,0,-1,769,1184,0,0
-448,-160,0,0,0,0,0,0,0,0,0,-1,776,1184,0,0
-441,-160,0,0,0,0,0,0,0,0,0,-1,783,1184,0,0
-434,-160,0,0,0,0,0,0,0,0,0,-1,790,1184,0,0
-427,-160,0,0,0,0,0,0,0,0,0,-1,797,1184,0,0
-420,-160,0,0,0,0,0,0,0,0,0,-1,804,1184,0,0
-413,-160,0,0,0,0,0,0,0,0,0,-1,811,1184,0,0
-406,-160,0,0,0,0,0,0,0,0,0,-1,818,1184,0,0
-399,-160,0,0,0,0,0,0,0,0,0,-1,825,1184,0,0
-392,-160,0,0,0,0,0,0,0,0,0,-1,832,1184,0,0
-385,-160,0,0,0,0,0,0,0,0,0,-1,839,1184,0,0
-378,-160,0,0,0,0,0,0,0,0,0,-1,846,1184,0,0
-371,-160,0,0,0,0,0,0,0,0,0,-1,853,1184,0,0
-364,-160,0,0,0,0,0,0,0,0,0,-1,860,1184,0,0
-357,-160,0,0,0,0,0,0,0,0,0,-1,867,1184,0,0
-350,-160,0,0,0,0,0,0,0,0,0,-1,874,1184,0,0
-343,-160,0,0,0,0,0,0,0,0,0,-1,881,1184,0,0
-336,-160,0,0,0,0,0,0,0,0,0,-1,888,1184,0,0
-329,-160,0,0,0,0,0,0,0,0,0,-1,895,1184,0,0
-322,-160,0,0,0,0,0,0,0,0,0,-1,902,1184,0,0
-315,-160,0,0,0,0,0,0,0,0,0,-1,909,1184,0,0
-308,-160,0,0,0,0,0,0,0,0,0,-1,916,1184,0,0
-301,-160,0,0,0,0,0,0,0,0,0,-1,923,1184,0,0
-294,-160,0,0,0,0,0,0,0,0,0,-1,930,1184,0,0
-287,-160,0,0,0,0,0,0,0,0,0,-1,937,1184,0,0
-280,-160,0,0,0,0,0,0,0,0,0,-1,944,1184,0,0
-273,-160,0,0,0,0,0,0,0,0,0,-1,951,1184,0,0
-266,-160,0,0,0,0,0,0,0,0,0,-1,958,1184,0,0
-259,-160,0,0,0,0,0,0,0,0,0,-1,965,1184,0,0
-252,-160,0,0,0,0,0,0,0,0,0,-1,972,1184,0,0
-245,-160,0,0,0,0,0,0,0,0,0,-1,979,1184,0,0
-238,-160,0,0,0,0,0,0,0,0,0,-1,986,1184,0,0
-231,-160,0,0,0,0,0,0,0,0,0,-1,993,1184,0,0
-224,-160,0,0,0,0,0,0,0,0,0,-1,1000,1184,0,0
-217,-160,0,0,0,0,0,0,0,0,0,-1,1007,1184,0,0
-210,-160,0,0,0,0,0,0,0,0,0,-1,1014,1184,0,0
-203,-160,0,0,0,0,0,0,0,0,0,-1,1021,1184,0,0
-196,-160,0,0,0,0,0,0,0,0,0,-1,1028,1184,0,0
-189,-160,0,0,0,0,0,0,0,0,0,-1,1035,1184,0,0
-182,-160,0,0,0,0,0,0,0,0,0,-1,1042,1184,0,0
-175,-160,0,0,0,0,0,0,0,0,0,-1,1049,1184,0,0
-168,-160,0,0,0,0,0,0,0,0,0,-1,1056,1184,0,0
-161,-160,0,0,0,0,0,0,0,0,0,-1,1063,1184,0,0
-154,-160,0,0,0,0,0,0,0,0,0,-1,1070,1184,0,0
-147,-160,0,0,0,0,0,0,0,0,0,-1,1077,1184,0,0
-140,-160,0,0,0,0,0,0,0,0,0,-1,1084,1184,0,0
-133,-160,0,0,0,0,0,0,0,0,0,-1,1091,1184,0,0
-126,-160,0,0,0,0,0,0,0,0,0,-1,1098,1184,0,0
-119,-160,0,0,0,0,0,0,0,0,0,-1,1105,1184,0,0
-112,-160,0,0,0,0,0,0,0,0,0,-1,1112,1184,0,0
-105,-160,0,0,0,0,0,0,0,0,0,-1,1119,1184,0,0
-98,-160,0,0,0,0,0,0,0,0,0,-1,1126,1184,0,0
-91,-160,0,0,0,0,0,0,0,0,0,-1,1133,1184,0,0
-84,-160,0,0,0,0,0,0,0,0,0,-1,1140,1184,0,0
-77,-160,0,0,0,0,0,0,0,0,0,-1,1147,1184,0,0
-70,-160,0,0,0,0,0,0,0,0,0,-1,1154,1184,0,0
-63,-160,0,0,0,0,0,0,0,0,0,-1,1161,1184,0,0
-56,-160,0,0,0,0,0,0,0,0,0,-1,1168,1184,0,0
-49,-160,0,0,0,0,0,0,0,0,0,-1,1175,1184,0,0
-42,-160,0,0,0,0,0,0,0,0,0,-1,1182,1184,0,0
-35,-160,0,0,0,0,0,0,0,0,0,-1,1189,1184,0,0
-28,-160,0,0,0,0,0,0,0,0,0,-1,1196,1184,0,0
-21,-160,0,0,0,0,0,0,0,0,0,-1,1203,1184,0,0
-14,-160,0,0,0,0,0,0,0,0,0,-1,1210,1184,0,0
-7,-160,0,0,0,0,0,0,0,0,0,-1,1217,1184,0,0
0,-160,0,0,0,0,0,0,0,0,0,-1,1224,1184,0,0
7,-160,0,0,0,0,0,0,0,0,0,-1,1231,1184,0,0
14,-160,0,0,0,0,0,0,0,0,0,-1,1238,1184,0,0
21,-160,0,0,0,0,0,0,0,0,0,-1,1245,1184,0,0
28,-160,0,0,0,0,0,0,0,0,0,-1,1252,1184,0,0
35,-160,0,0,0,0,0,0,0,0,0,-1,1259,1184,0,0
42,-160,0,0,0,0,0,0,0,0,0,-1,1266,1184,0,0
49,-160,0,0,0,0,0,0,0,0,0,-1,1273,1184,0,0
56,-160,0,0,0,0,0,0,0,0,0,-1,1280,1184,0,0
63,-160,0,0,0,0,0,0,0,0,0,-1,1287,1184,0,0
70,-160,0,0,0,0,0,0,0,0,0,-1,1294,1184,0,0
77,-160,0,0,0,0,0,0,0,0,0,-1,1301,1184,0,0
84,-160,0,0,0,0,0,0,0,0,0,-1,1308,1184,0,0
91,-160,0,0,0,0,0,0,0,0,0,-1,1315,1184,0,0
98,-160,0,0,0,0,0,0,0,0,0,-1,1322,1184,0,0
105,-160,0,0,0,0,0,0,0,0,0,-1,1329,1184,0,0
112,-160,0,0,0,0,0,0,0,0,0,-1,1336,1184,0,0
119,-160,0,0,0,0,0,0,0,0,0,-1,1343,1184,0,0
126,-160,0,0,0,0,0,0,0,0,0,-1,1350,1184,0,0
133,-160,0,0,0,0,0,0,0,0,0,-1,1357,1184,0,0
140,-160,0,0,0,0,0,0,0,0,0,-1,1364,1184,0,0
147,-160,0,0,0,0,0,0,0,0,0,-1,1371,1184,0,0
154,-160,0,0,0,0,0,0,0,0,0,-1,1378,1184,0,0
161,-160,0,0,0,0,0,0,0,0,0,-1,1385,1184,0,0
168,-160,0,0,0,0,0,0,0,0,0,-1,1392,1184,0,0
175,-160,0,0,0,0,0,0,0,0,0,-1,1399,1184,0,0
182,-160,0,0,0,0,0,0,0,0,0,-1,1406,1184,0,0
189,-160,0,0,0,0,0,0,0,0,0,-1,1413,1184,0,0
196,-160,0,0,0,0,0,0,0,0,0,-1,1420,1184,0,0
203,-160,0,0,0,0,0,0,0,0,0,-1,1427,1184,0,0
210,-160,0,0,0,0,0,0,0,0,0,-1,1434,1184,0,0
217,-160,0,0,0,0,0,0,0,0,0,-1,1441,1184,0,0
224,-160,0,0,0,0,0,0,0,0,0,-1,1448,1184,0,0
231,-160,0,0,0,0,0,0,0,0,0,-1,1455,1184,0,0
238,-160,0,0,0,0,0,0,0,0,0,-1,1462,1184,0,0
245,-160,0,0,0,0,0,0,0,0,0,-1,1469,1184,0,0
252,-160,0,0,0,0,0,0,0,0,0,-1,1476,1184,0,0
259,-160,0,0,0,0,0,0,0,0,0,-1,1483,1184,0,0
266,-160,0,0,0,0,0,0,0,0,0,-1,1490,1184,0,0
273,-160,0,0,0,0,0,0,0,0,0,-1,1497,1184,0,0
280,-160,0,0,0,0,0,0,0,0,0,-1,1504,1184,0,0
287,-160,0,0,0,0,0,0,0,0,0,-1,1511,1184,0,0
294,-160,0,0,0,0,0,0,0,0,0,-1,1518,1184,0,0
301,-160,0,0,0,0,0,0,0,0,0,-1,1525,1184,0,0
308,-160,0,0,0,0,0,0,0,0,0,-1,1532,1184,0,0
315,-160,0,0,0,0,0,0,0,0,0,-1,1539,1184,0,0
322,-160,0,0,0,0,0,0,0,0,0,-1,1546,1184,0,0
329,-160,0,0,0,0,0,0,0,0,0,-1,1553,1184,0,0
336,-160,0,0,0,0,0,0,0,0,0,-1,1560,1184,0,0
343,-160,0,0,0,0,0,0,0,0,0,-1,1567,1184,0,0
350,-160,0,0,0,0,0,0,0,0,0,-1,1574,1184,0,0
357,-160,0,0,0,0,0,0,0,0,0,-1,1581,1184,0,0
364,-160,0,0,0,0,0,0,0,0,0,-1,1588,1184,0,0
371,-160,0,0,0,0,0,0,0,0,0,-1,1595,1184,0,0
378,-160,0,0,0,0,0,0,0,0,0,-1,1602,1184,0,0
385,-160,0,0,0,0,0,0,0,0,0,-1,1609,1184,0,0
392,-160,0,0,0,0,0,0,0,0,0,-1,1616,1184,0,0
399,-160,0,0,0,0,0,0,0,0,0,-1,1623,1184,0,0
406,-160,0,0,0,0,0,0,0,0,0,-1,1630,1184,0,0
413,-160,0,0,0,0,0,0,0,0,0,-1,1637,1184,0,0
420,-160,0,0,0,0,0,0,0,0,0,-1,1644,1184,0,0
427,-160,0,0,0,0,0,0,0,0,0,-1,1651,1184,0,0
434,-160,0,0,0,0,0,0,0,0,0,-1,1658,1184,0,0
441,-160,0,0,0,0,0,0,0,0,0,-1,1665,1184,0,0
448,-160,0,0,0,0,0,0,0,0,0,-1,1672,1184,0,0
455,-160,0,0,0,0,0,0,0,0,0,-1,1679,1184,0,0
462,-160,0,0,0,0,0,0,0,0,0,-1,1686,1184,0,0
469,-160,0,0,0,0,0,0,0,0,0,-1,1693,1184,0,0
476,-160,0,0,0,0,0,0,0,0,0,-1,1700,1184,0,0
483,-160,0,0,0,0,0,0,0,0,0,-1,1707,1184,0,0
490,-160,0,0,0,0,0,0,0,0,0,-1,1714,1184,0,0
497,-160,0,0,0,0,0,0,0,0,0,-1,1721,1184,0,0
504,-160,0,0,0,0,0,0,0,0,0,-1,1728,1184,0,0
511,-160,0,0,0,0,0,0,0,0,0,-1,1735,1184,0,0
518,-160,0,0,0,0,0,0,0,0,0,-1,1742,1184,0,0
525,-160,0,0,0,0,0,0,0,0,0,-1,1749,1184,0,0
532,-160,0,0,0,0,0,0,0,0,0,-1,1756,1184,0,0
539,-160,0,0,0,0,0,0,0,0,0,-1,1763,1184,0,0
546,-160,0,0,0,0,0,0,0,0,0,-1,1770,1184,0,0
553,-160,0,0,0,0,0,0,0,0,0,-1,1777,1184,0,0
560,-160,0,0,0,0,0,0,0,0,0,-1,1784,1184,0,0
567,-160,0,0,0,0,0,0,0,0,0,-1,1791,1184,0,0
574,-160,0,0,0,0,0,0,0,0,0,-1,1798,1184,0,0
581,-160,0,0,0,0,0,0,0,0,0,-1,1805,1184,0,0
588,-160,0,0,0,0,0,0,0,0,0,-1,1812,1184,0,0
595,-160,0,0,0,0,0,0,0,0,0,-1,1819,1184,0,0
602,-160,0,0,0,0,0,0,0,0,0,-1,1826,1184,0,0
609,-160,0,0,0,0,0,0,0,0,0,-1,1833,1184,0,0
616,-160,0,0,0,0,0,0,0,0,0,-1,1840,1184,0,0
623,-160,0,0,0,0,0,0,0,0,0,-1,1847,1184,0,0
630,-160,0,0,0,0,0,0,0,0,0,-1,1854,1184,0,0
637,-160,14.1613,1.31213,-0.00131976,0.00369008,0.00180539,0.00427289,-0.00190257,1.25854,0.0036519,0.0428295,1861,1184,14.1613,-1.31207
644,-160,14.1981,1.27649,0.00044311,0.00345361,0.000536826,0.00354648,0.000350249,1.39951,0.00225665,0.041351,1868,1184,14.1982,-1.27648
651,-160,14.0797,1.72461,0.000316918,0.00275181,0.000418175,0.00282162,0.000247101,1.40537,0.00180436,0.0398106,1875,1184,14.0797,-1.72467
658,-160,14.0198,2.0199,-0.00126439,0.00152331,0.00142464,0.00212255,-0.00186363,1.17263,0.00230304,0.0404374,1882,1184,14.0198,-2.01986
665,-160,14.1079,2.00635,-0.00334045,0.000297896,0.00277346,0.00179557,-0.00483812,1.07566,0.00396197,0.0378775,1889,1184,14.108,-2.00633
672,-160,14.0615,1.86853,-0.00533634,-0.000803308,0.00407103,0.00158962,-0.00772927,1.0394,0.00575635,0.0335108,1896,1184,14.0615,-1.86854
679,-160,14.0109,1.87061,-0.00706225,-0.00172795,0.00520428,0.00145283,-0.010243,1.02219,0.00736091,0.0234108,1903,1184,14.0109,-1.87057
686,-160,14.0498,1.89319,-0.00832208,-0.00242085,0.00606186,0.00137036,-0.0121133,1.01189,0.00856892,0.0129953,1910,1184,14.0498,-1.89323
693,-160,14.0546,1.77966,-0.00914156,-0.00292279,0.00656408,0.00123112,-0.0132955,1.00659,0.00930121,0.0337843,1917,1184,14.0546,-1.77967
700,-160,13.5641,2.3988,-0.00944288,-0.00320848,0.00672265,0.00108452,-0.0137359,1.00249,0.00953932,0.0430894,1924,1184,13.564,-2.39886
707,-160,13.2383,2.9635,0,0,0,0,0,0,0,-1,1931,1184,13.2383,-2.96346
714,-160,13.1919,2.89819,-0.00880743,-0.00310849,0.00617403,0.000841908,-0.0127578,1.0016,0.00879929,0.0263978,1938,1184,13.1919,-2.89825
721,-160,13.1814,2.79187,-0.0078175,-0.00274468,0.00555151,0.000822404,-0.0113846,0.999681,0.00787818,0.0134001,1945,1184,13.1814,-2.79186
728,-160,13.1432,2.74292,-0.00615308,-0.00222039,0.00459141,0.000808021,-0.00918148,0.987715,0.00640734,0.0122956,1952,1184,13.1432,-2.74292
735,-160,13.0919,2.66284,-0.00421187,-0.00161298,0.00338032,0.000709049,-0.00653391,0.968898,0.0046105,0.0141172,1959,1184,13.0919,-2.6628
742,-160,13.0897,2.58752,-0.00171685,-0.000400817,0.00183204,0.00088779,-0.00300546,0.95781,0.002356,0.0164543,1966,1184,13.0898,-2.58749
749,-160,13.0957,2.53101,0.00111455,0.00115586,-9.84448e-05,0.00123579,0.00103462,-0.888818,0.000765664,0.0172865,1973,1184,13.0957,-2.53096
756,-160,13.0918,2.49658,0.00406763,0.00308777,-0.00166454,0.00531285,0.00184256,-0.642273,0.00311499,0.0110922,1980,1184,13.0918,-2.49663
763,-160,13.0986,2.44836,0.00690012,0.00496382,-0.0030134,0.00909708,0.00276687,-0.629966,0.00538484,0.0120147,1987,1184,13.0987,-2.44836
770,-160,13.0906,2.34619,0.00988607,0.00731959,-0.00423578,0.0130287,0.00417694,-0.638316,0.00768185,0.0175885,1994,1184,13.0905,-2.34613
777,-160,13.1202,2.2522,0.0134281,0.0103741,-0.00559522,0.017701,0.00610126,-0.652185,0.0103827,0.0314984,2001,1184,13.1203,-2.25225
784,-160,13.158,2.17175,0.0176082,0.0142605,-0.00705873,0.0231889,0.00867992,-0.668983,0.0135284,0.0454301,2008,1184,13.158,-2.17174
791,-160,13.1941,2.12024,0,0,0,0,0,0,0,-1,2015,1184,13.1941,-2.1202
798,-160,13.5057,0.846069,0,0,0,0,0,0,0,-1,2022,1184,13.5057,-0.846025
805,-160,13.4369,1.31885,0,0,0,0,0,0,0,-1,2029,1184,13.4369,-1.3189
812,-160,0,0,0,0,0,0,0,0,0,-1,2036,1184,0,0
-700,-167,0,0,0,0,0,0,0,0,0,-1,524,1191,0,0
-693,-167,0,0,0,0,0,0,0,0,0,-1,531,1191,0,0
-686,-167,-8.29987,-0.613281,0.0598573,0.059958,0.00237489,0.0622831,0.0575322,0.796,0.0400325,0.0438475,538,1191,-8.29989,0.613309
-679,-167,-7.5578,-1.16187,0.0489649,0.0526955,-0.00320725,0.0545404,0.04712,-1.04878,0.0341565,0.0446847,545,1191,-7.55781,1.16181
-672,-167,-7.15167,-1.39124,0.0387184,0.0450024,-0.00661762,0.049186,0.0345347,-1.00704,0.0291608,0.0493973,552,1191,-7.15168,1.39127
-665,-167,-7.05005,-1.48254,0,0,0,0,0,0,0,-1,559,1191,-7.05007,1.48255
-658,-167,-6.91089,2.21582,0,0,0,0,0,0,0,-1,566,1191,-6.91086,-2.21579
-651,-167,-7.60535,1.54358,0.0158823,0.0240749,-0.00893869,0.0298112,0.010146,-1.00025,0.0175015,0.0489783,573,1191,-7.60532,-1.54363
-644,-167,-7.22791,0.297974,0.010964,0.0184817,-0.00812643,0.0236765,0.00576917,-1.00202,0.0142559,0.0387497,580,1191,-7.22789,-0.297993
-637,-167,-7.08716,0.400879,0.00736113,0.0135929,-0.00704062,0.0181763,0.00277773,-0.993722,0.011306,0.0150574,587,1191,-7.08716,-0.400889
-630,-167,-7.11621,0.46814,0.00404533,0.0095594,-0.00625852,0.0136412,-3.65204e-05,-0.992871,0.00910636,0.00788644,594,1191,-7.1162,-0.468119
-623,-167,-7.11957,0.545288,0.000711258,0.00571187,-0.00538154,0.00914558,-0.00272245,-1.00287,0.00717873,0.00958736,601,1191,-7.11959,-0.545309
-616,-167,-7.13483,0.637939,-0.00211845,0.00349146,-0.00505166,0.00646466,-0.00509165,-1.03883,0.00668771,0.0135355,608,1191,-7.13483,-0.637927
-609,-167,-7.14587,0.748779,-0.00392523,0.000251246,-0.00511244,0.00368549,-0.00735947,-0.979288,0.00649334,0.0139044,615,1191,-7.14586,-0.748751
-602,-167,-7.14966,0.816772,-0.00514458,-0.00123176,-0.00501841,0.00219811,-0.00857445,-0.97126,0.00657268,0.0143458,622,1191,-7.14965,-0.816822
-595,-167,-7.11896,0.925049,-0.00677416,-0.00240271,-0.0051032,0.00096315,-0.01014,-0.987731,0.00710286,0.0187935,629,1191,-7.11895,-0.925056
-588,-167,-7.14252,1.05676,-0.00813303,-0.00294095,-0.00547011,0.000517888,-0.0115919,-1.00695,0.0079062,0.0173001,636,1191,-7.14254,-1.05679
-581,-167,-7.1344,1.11792,-0.00878869,-0.00333681,-0.00594894,0.000480997,-0.0126065,-1.00023,0.00856917,0.0161696,643,1191,-7.1344,-1.11791
-574,-167,-7.38025,1.06104,-0.00907743,-0.00340507,-0.00619202,0.000569411,-0.0130519,-1.00016,0.00889715,0.0364808,650,1191,-7.38026,-1.06106
-567,-167,-7.81555,0.798096,-0.00918485,-0.00342598,-0.00626207,0.000586948,-0.0131978,-1.00089,0.00900055,0.0413377,657,1191,-7.81552,-0.798076
-560,-167,-8.22162,0.249634,-0.0087999,-0.00315269,-0.00591307,0.000576346,-0.0125289,-1.00815,0.00855121,0.0391479,664,1191,-8.22161,-0.249594
-553,-167,-8.17798,0.260254,-0.00772081,-0.00261728,-0.00512796,0.000558735,-0.0108968,-1.01627,0.00745778,0.0367887,671,1191,-8.17801,-0.260312
-546,-167,-8.20343,0.329224,-0.00584959,-0.00181889,-0.00381543,0.000480752,-0.00814923,-1.02838,0.00559995,0.034534,678,1191,-8.20343,-0.329273
-539,-167,-8.35547,0.384399,-0.00312144,-0.000775754,-0.00197734,0.000350409,-0.0042476,-1.05308,0.00295547,0.0381427,685,1191,-8.35546,-0.384339
-532,-167,-8.2868,0.50354,0.0006011,0.000466252,0.000361878,0.000901781,0.00016557,0.693296,0.000554303,0.0430829,692,1191,-8.28682,-0.503528
-525,-167,-8.17334,0.676514,0.00477977,0.00170693,0.00278064,0.00642023,6.6478e-05,0.533002,0.00425817,0.0451388,699,1191,-8.17334,-0.676499
-518,-167,-8.073,0.843994,0,0,0,0,0,0,0,-1,706,1191,-8.07301,-0.843993
-511,-167,0,0,0,0,0,0,0,0,0,-1,713,1191,0,0
-504,-167,0,0,0,0,0,0,0,0,0,-1,720,1191,0,0
-497,-167,0,0,0,0,0,0,0,0,0,-1,727,1191,0,0
-490,-167,0,0,0,0,0,0,0,0,0,-1,734,1191,0,0
-483,-167,0,0,0,0,0,0,0,0,0,-1,741,1191,0,0
-476,-167,0,0,0,0,0,0,0,0,0,-1,748,1191,0,0
-469,-167,0,0,0,0,0,0,0,0,0,-1,755,1191,0,0
-462,-167,0,0,0,0,0,0,0,0,0,-1,762,1191,0,0
-455,-167,0,0,0,0,0,0,0,0,0,-1,769,1191,0,0
-448,-167,0,0,0,0,0,0,0,0,0,-1,776,1191,0,0
-441,-167,0,0,0,0,0,0,0,0,0,-1,783,1191,0,0
-434,-167,0,0,0,0,0,0,0,0,0,-1,790,1191,0,0
-427,-167,0,0,0,0,0,0,0,0,0,-1,797,1191,0,0
-420,-167,0,0,0,0,0,0,0,0,0,-1,804,1191,0,0
-413,-167,0,0,0,0,0,0,0,0,0,-1,811,1191,0,0
-406,-167,0,0,0,0,0,0,0,0,0,-1,818,1191,0,0
-399,-167,0,0,0,0,0,0,0,0,0,-1,825,1191,0,0
-392,-167,0,0,0,0,0,0,0,0,0,-1,832,1191,0,0
-385,-167,0,0,0,0,0,0,0,0,0,-1,839,1191,0,0
-378,-167,0,0,0,0,0,0,0,0,0,-1,846,1191,0,0
-371,-167,0,0,0,0,0,0,0,0,0,-1,853,1191,0,0
-364,-167,0,0,0,0,0,0,0,0,0,-1,860,1191,0,0
-357,-167,0,0,0,0,0,0,0,0,0,-1,867,1191,0,0
-350,-167,0,0,0,0,0,0,0,0,0,-1,874,1191,0,0
-343,-167,0,0,0,0,0,0,0,0,0,-1,881,1191,0,0
-336,-167,0,0,0,0,0,0,0,0,0,-1,888,1191,0,0
-329,-167,0,0,0,0,0,0,0,0,0,-1,895,1191,0,0
-322,-167,0,0,0,0,0,0,0,0,0,-1,902,1191,0,0
-315,-167,0,0,0,0,0,0,0,0,0,-1,909,1191,0,0
-308,-167,0,0,0,0,0,0,0,0,0,-1,916,1191,0,0
-301,-167,0,0,0,0,0,0,0,0,0,-1,923,1191,0,0
-294,-167,0,0,0,0,0,0,0,0,0,-1,930,1191,0,0
-287,-167,0,0,0,0,0,0,0,0,0,-1,937,1191,0,0
-280,-167,0,0,0,0,0,0,0,0,0,-1,944,1191,0,0
-273,-167,0,0,0,0,0,0,0,0,0,-1,951,1191,0,0
-266,-167,0,0,0,0,0,0,0,0,0,-1,958,1191,0,0
-259,-167,0,0,0,0,0,0,0,0,0,-1,965,1191,0,0
-252,-167,0,0,0,0,0,0,0,0,0,-1,972,1191,0,0
-245,-167,0,0,0,0,0,0,0,0,0,-1,979,1191,0,0
-238,-167,0,0,0,0,0,0,0,0,0,-1,986,1191,0,0
-231,-167,0,0,0,0,0,0,0,0,0,-1,993,1191,0,0
-224,-167,0,0,0,0,0,0,0,0,0,-1,1000,1191,0,0
-217,-167,0,0,0,0,0,0,0,0,0,-1,1007,1191,0,0
-210,-167,0,0,0,0,0,0,0,0,0,-1,1014,1191,0,0
-203,-167,0,0,0,0,0,0,0,0,0,-1,1021,1191,0,0
-196,-167,0,0,0,0,0,0,0,0,0,-1,1028,1191,0,0
-189,-167,0,0,0,0,0,0,0,0,0,-1,1035,1191,0,0
-182,-167,0,0,0,0,0,0,0,0,0,-1,1042,1191,0,0
-175,-167,0,0,0,0,0,0,0,0,0,-1,1049,1191,0,0
-168,-167,0,0,0,0,0,0,0,0,0,-1,1056,1191,0,0
-161,-167,0,0,0,0,0,0,0,0,0,-1,1063,1191,0,0
-154,-167,0,0,0,0,0,0,0,0,0,-1,1070,1191,0,0
-147,-167,0,0,0,0,0,0,0,0,0,-1,1077,1191,0,0
-140,-167,0,0,0,0,0,0,0,0,0,-1,1084,1191,0,0
-133,-167,0,0,0,0,0,0,0,0,0,-1,1091,1191,0,0
-126,-167,0,0,0,0,0,0,0,0,0,-1,1098,1191,0,0
-119,-167,0,0,0,0,0,0,0,0,0,-1,1105,1191,0,0
-112,-167,0,0,0,0,0,0,0,0,0,-1,1112,1191,0,0
-105,-167,0,0,0,0,0,0,0,0,0,-1,1119,1191,0,0
-98,-167,0,0,0,0,0,0,0,0,0,-1,1126,1191,0,0
-91,-167,0,0,0,0,0,0,0,0,0,-1,1133,1191,0,0
-84,-167,0,0,0,0,0,0,0,0,0,-1,1140,1191,0,0
-77,-167,0,0,0,0,0,0,0,0,0,-1,1147,1191,0,0
-70,-167,0,0,0,0,0,0,0,0,0,-1,1154,1191,0,0
-63,-167,0,0,0,0,0,0,0,0,0,-1,1161,1191,0,0
-56,-167,0,0,0,0,0,0,0,0,0,-1,1168,1191,0,0
-49,-167,0,0,0,0,0,0,0,0,0,-1,1175,1191,0,0
-42,-167,0,0,0,0,0,0,0,0,0,-1,1182,1191,0,0
-35,-167,0,0,0,0,0,0,0,0,0,-1,1189,1191,0,0
-28,-167,0,0,0,0,0,0,0,0,0,-1,1196,1191,0,0
-21,-167,0,0,0,0,0,0,0,0,0,-1,1203,1191,0,0
-14,-167,0,0,0,0,0,0,0,0,0,-1,1210,1191,0,0
-7,-167,0,0,0,0,0,0,0,0,0,-1,1217,1191,0,0
0,-167,0,0,0,0,0,0,0,0,0,-1,1224,1191,0,0
7,-167,0,0,0,0,0,0,0,0,0,-1,1231,1191,0,0
14,-167,0,0,0,0,0,0,0,0,0,-1,1238,1191,0,0
21,-167,0,0,0,0,0,0,0,0,0,-1,1245,1191,0,0
28,-167,0,0,0,0,0,0,0,0,0,-1,1252,1191,0,0
35,-167,0,0,0,0,0,0,0,0,0,-1,1259,1191,0,0
42,-167,0,0,0,0,0,0,0,0,0,-1,1266,1191,0,0
49,-167,0,0,0,0,0,0,0,0,0,-1,1273,1191,0,0
56,-167,0,0,0,0,0,0,0,0,0,-1,1280,1191,0,0
63,-167,0,0,0,0,0,0,0,0,0,-1,1287,1191,0,0
70,-167,0,0,0,0,0,0,0,0,0,-1,1294,1191,0,0
77,-167,0,0,0,0,0,0,0,0,0,-1,1301,1191,0,0
84,-167,0,0,0,0,0,0,0,0,0,-1,1308,1191,0,0
91,-167,0,0,0,0,0,0,0,0,0,-1,1315,1191,0,0
98,-167,0,0,0,0,0,0,0,0,0,-1,1322,1191,0,0
105,-167,0,0,0,0,0,0,0,0,0,-1,1329,1191,0,0
112,-167,0,0,0,0,0,0,0,0,0,-1,1336,1191,0,0
119,-167,0,0,0,0,0,0,0,0,0,-1,1343,1191,0,0
126,-167,0,0,0,0,0,0,0,0,0,-1,1350,1191,0,0
133,-167,0,0,0,0,0,0,0,0,0,-1,1357,1191,0,0
140,-167,0,0,0,0,0,0,0,0,0,-1,1364,1191,0,0
147,-167,0,0,0,0,0,0,0,0,0,-1,1371,1191,0,0
154,-167,0,0,0,0,0,0,0,0,0,-1,1378,1191,0,0
161,-167,0,0,0,0,0,0,0,0,0,-1,1385,1191,0,0
168,-167,0,0,0,0,0,0,0,0,0,-1,1392,1191,0,0
175,-167,0,0,0,0,0,0,0,0,0,-1,1399,1191,0,0
182,-167,0,0,0,0,0,0,0,0,0,-1,1406,1191,0,0
189,-167,0,0,0,0,0,0,0,0,0,-1,1413,1191,0,0
196,-167,0,0,0,0,0,0,0,0,0,-1,1420,1191,0,0
203,-167,0,0,0,0,0,0,0,0,0,-1,1427,1191,0,0
210,-167,0,0,0,0,0,0,0,0,0,-1,1434,1191,0,0
217,-167,0,0,0,0,0,0,0,0,0,-1,1441,1191,0,0
224,-167,0,0,0,0,0,0,0,0,0,-1,1448,1191,0,0
231,-167,0,0,0,0,0,0,0,0,0,-1,1455,1191,0,0
238,-167,0,0,0,0,0,0,0,0,0,-1,1462,1191,0,0
245,-167,0,0,0,0,0,0,0,0,0,-1,1469,1191,0,0
252,-167,0,0,0,0,0,0,0,0,0,-1,1476,1191,0,0
259,-167,0,0,0,0,0,0,0,0,0,-1,1483,1191,0,0
266,-167,0,0,0,0,0,0,0,0,0,-1,1490,1191,0,0
273,-167,0,0,0,0,0,0,0,0,0,-1,1497,1191,0,0
280,-167,0,0,0,0,0,0,0,0,0,-1,1504,1191,0,0
287,-167,0,0,0,0,0,0,0,0,0,-1,1511,1191,0,0
294,-167,0,0,0,0,0,0,0,0,0,-1,1518,1191,0,0
301,-167,0,0,0,0,0,0,0,0,0,-1,1525,1191,0,0
308,-167,0,0,0,0,0,0,0,0,0,-1,1532,1191,0,0
315,-167,0,0,0,0,0,0,0,0,0,-1,1539,1191,0,0
322,-167,0,0,0,0,0,0,0,0,0,-1,1546,1191,0,0
329,-167,0,0,0,0,0,0,0,0,0,-1,1553,1191,0,0
336,-167,0,0,0,0,0,0,0,0,0,-1,1560,1191,0,0
343,-167,0,0,0,0,0,0,0,0,0,-1,1567,1191,0,0
350,-167,0,0,0,0,0,0,0,0,0,-1,1574,1191,0,0
357,-167,0,0,0,0,0,0,0,0,0,-1,1581,1191,0,0
364,-167,0,0,0,0,0,0,0,0,0,-1,1588,1191,0,0
371,-167,0,0,0,0,0,0,0,0,0,-1,1595,1191,0,0
378,-167,0,0,0,0,0,0,0,0,0,-1,1602,1191,0,0
385,-167,0,0,0,0,0,0,0,0,0,-1,1609,1191,0,0
392,-167,0,0,0,0,0,0,0,0,0,-1,1616,1191,0,0
399,-167,0,0,0,0,0,0,0,0,0,-1,1623,1191,0,0
406,-167,0,0,0,0,0,0,0,0,0,-1,1630,1191,0,0
413,-167,0,0,0,0,0,0,0,0,0,-1,1637,1191,0,0
420,-167,0,0,0,0,0,0,0,0,0,-1,1644,1191,0,0
427,-167,0,0,0,0,0,0,0,0,0,-1,1651,1191,0,0
434,-167,0,0,0,0,0,0,0,0,0,-1,1658,1191,0,0
441,-167,0,0,0,0,0,0,0,0,0,-1,1665,1191,0,0
448,-167,0,0,0,0,0,0,0,0,0,-1,1672,1191,0,0
455,-167,0,0,0,0,0,0,0,0,0,-1,1679,1191,0,0
462,-167,0,0,0,0,0,0,0,0,0,-1,1686,1191,0,0
469,-167,0,0,0,0,0,0,0,0,0,-1,1693,1191,0,0
476,-167,0,0,0,0,0,0,0,0,0,-1,1700,1191,0,0
483,-167,0,0,0,0,0,0,0,0,0,-1,1707,1191,0,0
490,-167,0,0,0,0,0,0,0,0,0,-1,1714,1191,0,0
497,-167,0,0,0,0,0,0,0,0,0,-1,1721,1191,0,0
504,-167,0,0,0,0,0,0,0,0,0,-1,1728,1191,0,0
511,-167,0,0,0,0,0,0,0,0,0,-1,1735,1191,0,0
518,-167,0,0,0,0,0,0,0,0,0,-1,1742,1191,0,0
525,-167,0,0,0,0,0,0,0,0,0,-1,1749,1191,0,0
532,-167,0,0,0,0,0,0,0,0,0,-1,1756,1191,0,0
539,-167,0,0,0,0,0,0,0,0,0,-1,1763,1191,0,0
546,-167,0,0,0,0,0,0,0,0,0,-1,1770,1191,0,0
553,-167,0,0,0,0,0,0,0,0,0,-1,1777,1191,0,0
560,-167,0,0,0,0,0,0,0,0,0,-1,1784,1191,0,0
567,-167,0,0,0,0,0,0,0,0,0,-1,1791,1191,0,0
574,-167,0,0,0,0,0,0,0,0,0,-1,1798,1191,0,0
581,-167,0,0,0,0,0,0,0,0,0,-1,1805,1191,0,0
588,-167,0,0,0,0,0,0,0,0,0,-1,1812,1191,0,0
595,-167,0,0,0,0,0,0,0,0,0,-1,1819,1191,0,0
602,-167,0,0,0,0,0,0,0,0,0,-1,1826,1191,0,0
609,-167,0,0,0,0,0,0,0,0,0,-1,1833,1191,0,0
616,-167,0,0,0,0,0,0,0,0,0,-1,1840,1191,0,0
623,-167,0,0,0,0,0,0,0,0,0,-1,1847,1191,0,0
630,-167,0,0,0,0,0,0,0,0,0,-1,1854,1191,0,0
637,-167,13.9514,1.42993,-0.00189139,0.00162473,0.00247232,0.00290034,-0.003167,1.09447,0.00350411,0.0414379,1861,1191,13.9515,-1.42994
644,-167,13.9602,1.32996,0.000315984,0.00179221,0.00092216,0.00223528,-0.000127085,1.1229,0.0015343,0.0424697,1868,1191,13.9603,-1.32991
651,-167,13.9078,1.50549,0.000276311,0.00131715,0.000873793,0.00181376,-0.000220299,1.05398,0.0012889,0.0416083,1875,1191,13.9079,-1.50552
658,-167,13.9343,1.81995,-0.00125757,0.000335299,0.00190204,0.00160092,-0.00252319,0.98367,0.00240082,0.0415356,1882,1191,13.9343,-1.8199
665,-167,14.1804,1.82471,-0.00325037,-0.000656894,0.00319123,0.001491,-0.00539826,0.97838,0.00418532,0.0358458,1889,1191,14.1804,-1.82467
672,-167,14.0953,1.87195,-0.00521658,-0.00156661,0.00443301,0.00140238,-0.00818557,0.980665,0.00597957,0.026888,1896,1191,14.0954,-1.87195
679,-167,14.0348,1.88647,-0.00695123,-0.0023256,0.00551425,0.00134123,-0.010618,0.983968,0.00756551,0.0192808,1903,1191,14.0347,-1.8865
686,-167,14.022,1.84509,-0.00821302,-0.0028887,0.00632429,0.0013109,-0.0124126,0.984613,0.00874486,0.0234775,1910,1191,14.022,-1.84511
693,-167,14.0117,1.71936,-0.00905227,-0.00326791,0.00679071,0.00122086,-0.013541,0.986716,0.00946061,0.0435878,1917,1191,14.0117,-1.7194
700,-167,13.5537,2.3623,-0.00939309,-0.0034501,0.00689976,0.00109083,-0.013934,0.988728,0.00967348,0.0398278,1924,1191,13.5537,-2.36232
707,-167,13.0381,3.021,-0.00924201,-0.00344081,0.00667131,0.000933195,-0.013616,0.990464,0.00940385,0.0335919,1931,1191,13.0381,-3.02098
714,-167,13.1423,2.95081,-0.00877372,-0.00321494,0.00622415,0.000822199,-0.0128109,0.995389,0.00882741,0.0214222,1938,1191,13.1424,-2.95078
721,-167,13.125,2.8252,-0.00774527,-0.00278753,0.00554859,0.000810741,-0.0113435,0.995475,0.00784658,0.0174873,1945,1191,13.125,-2.82521
728,-167,13.0607,2.76831,-0.00600593,-0.00224002,0.00457387,0.000823322,-0.00906927,0.980664,0.00633847,0.0133384,1952,1191,13.0607,-2.76833
735,-167,13.0157,2.68726,-0.00389461,-0.00159912,0.00330625,0.000752934,-0.00624667,0.952462,0.00443677,0.0141085,1959,1191,13.0158,-2.6872
742,-167,13.0167,2.60278,-0.00117747,-0.000358296,0.00176785,0.0010468,-0.00258256,0.899233,0.00215704,0.0145903,1966,1191,13.0167,-2.60278
749,-167,13.0164,2.53687,0.00183237,0.0011683,-0.000103026,0.00184799,0.00115268,-0.150433,0.00107777,0.0133495,1973,1191,13.0163,-2.53692
756,-167,13.0193,2.49304,0.00489251,0.00297733,-0.00152337,0.00573427,0.00213557,-0.504807,0.00334641,0.0103509,1980,1191,13.0193,-2.49304
763,-167,13.0078,2.41443,0.00783699,0.00475947,-0.00262931,0.00934472,0.00325175,-0.520653,0.00547767,0.011812,1987,1191,13.0078,-2.4144
770,-167,13.0032,2.32275,0.0110604,0.00705729,-0.00365303,0.0132242,0.0048934,-0.534779,0.00772052,0.022044,1994,1191,13.0032,-2.32276
777,-167,13.1782,2.04578,0.0149049,0.0100791,-0.00478336,0.0178494,0.00713449,-0.551804,0.0103743,0.0401556,2001,1191,13.1783,-2.0458
784,-167,13.0747,2.09351,0,0,0,0,0,0,0,-1,2008,1191,13.0747,-2.09353
791,-167,11.6272,2.01184,0,0,0,0,0,0,0,-1,2015,1191,11.6272,-2.01185
798,-167,12.1732,1.10864,0,0,0,0,0,0,0,-1,2022,1191,12.1733,-1.10862
805,-167,13.2766,1.81506,0,0,0,0,0,0,0,-1,2029,1191,13.2766,-1.81512
812,-167,0,0,0,0,0,0,0,0,0,-1,2036,1191,0,0
-700,-174,0,0,0,0,0,0,0,0,0,-1,524,1198,0,0
-693,-174,0,0,0,0,0,0,0,0,0,-1,531,1198,0,0
-686,-174,-8.40778,-0.5354,0,0,0,0,0,0,0,-1,538,1198,-8.40776,0.535424
-679,-174,-7.72418,-0.385864,0,0,0,0,0,0,0,-1,545,1198,-7.7242,0.385869
-672,-174,-6.88898,-2.10022,0.0335416,0.044464,-0.0140685,0.0540941,0.0239115,-0.970538,0.0313011,0.0497865,552,1198,-6.88896,2.10025
-665,-174,-6.26556,3.19019,0.024801,0.0379469,-0.0139361,0.0467824,0.0159655,-1.00575,0.0274597,0.0482787,559,1198,-6.26557,-3.1902
-658,-174,-6.72803,1.93604,0.0179046,0.0314117,-0.0130135,0.0393197,0.00999657,-1.02475,0.0235976,0.0462777,566,1198,-6.72801,-1.93604
-651,-174,-7.25342,1.33936,0.0125377,0.0252172,-0.0115784,0.0320779,0.00567703,-1.03588,0.0197666,0.0445653,573,1198,-7.25344,-1.33936
-644,-174,-7.15662,0.549561,0.00846279,0.019606,-0.0098514,0.0253522,0.00271658,-1.04276,0.0160726,0.0409066,580,1198,-7.15664,-0.549561
-637,-174,-6.9751,0.335205,0.00548159,0.0147157,-0.00803602,0.0193666,0.000830699,-1.04614,0.0126432,0.0203042,587,1198,-6.97512,-0.335195
-630,-174,-7.00128,0.453369,0.00276073,0.0105974,-0.00667487,0.0144191,-0.00106091,-1.05081,0.00998515,0.0109619,594,1198,-7.00131,-0.453404
-623,-174,-7.01282,0.549316,0.000232722,0.00663214,-0.00538205,0.00969379,-0.00282893,-1.05359,0.00758347,0.0126899,601,1198,-7.01284,-0.54935
-616,-174,-7.02448,0.656982,-0.00191134,0.00412391,-0.00482532,0.00679748,-0.00458491,-1.06483,0.00661289,0.0190881,608,1198,-7.0245,-0.656952
-609,-174,-7.06378,0.740479,-0.00353102,0.000663404,-0.00484979,0.00385001,-0.00671762,-0.989473,0.00617565,0.0222524,615,1198,-7.06379,-0.740443
-602,-174,-7.06378,0.810059,-0.00463034,-0.000941291,-0.00469032,0.00225416,-0.00782579,-0.972741,0.00610882,0.0155769,622,1198,-7.0638,-0.810067
-595,-174,-7.03717,0.9021,-0.00617376,-0.00213038,-0.00475543,0.00101527,-0.00931941,-0.986389,0.00657753,0.0127383,629,1198,-7.03714,-0.902041
-588,-174,-7.04565,1.01489,-0.00746654,-0.00269101,-0.00512175,0.000572218,-0.0107298,-1.00352,0.00735135,0.0130272,636,1198,-7.04564,-1.01488
-581,-174,-7.05029,1.10693,-0.00801397,-0.00315796,-0.0056242,0.000539951,-0.0117119,-0.989167,0.00799399,0.0142985,643,1198,-7.05031,-1.10694
-574,-174,-7.35437,1.07422,-0.0082461,-0.00326483,-0.00591905,0.00066625,-0.0121772,-0.984545,0.00834907,0.0340765,650,1198,-7.35434,-1.07426
-567,-174,-7.59216,0.989746,-0.00834749,-0.00334921,-0.00605432,0.000701495,-0.0123982,-0.981139,0.00850894,0.0415154,657,1198,-7.59217,-0.989713
-560,-174,-7.86426,0.119019,-0.00803814,-0.00317417,-0.00584083,0.000720765,-0.0119331,-0.98267,0.00820619,0.0430243,664,1198,-7.86424,-0.11896
-553,-174,-8.07721,0.176392,-0.00712401,-0.00279238,-0.00528001,0.000748748,-0.0106651,-0.980029,0.00737236,0.036242,671,1198,-8.07723,-0.17638
-546,-174,-8.14893,0.261475,-0.00552789,-0.00219617,-0.00424714,0.000700133,-0.00842419,-0.972294,0.00586345,0.0289758,678,1198,-8.14895,-0.261477
-539,-174,-8.27075,0.36792,-0.00317101,-0.00137816,-0.00275833,0.000625755,-0.00517492,-0.942509,0.00367633,0.0333111,685,1198,-8.27075,-0.3679
-532,-174,-8.2605,0.374023,9.50496e-05,-0.000353157,-0.000808139,0.000709583,-0.00096769,-0.650143,0.000972188,0.0425429,692,1198,-8.26052,-0.373977
-525,-174,-8.16034,0.514282,0.00397521,0.000806586,0.00135977,0.00447873,0.000303068,0.354639,0.0028901,0.0438402,699,1198,-8.16036,-0.514343
-518,-174,-8.10236,0.244263,0.00737946,0.00152291,0.00296858,0.00862098,0.000281378,0.396116,0.00565586,0.0436352,706,1198,-8.10233,-0.244243
-511,-174,0,0,0,0,0,0,0,0,0,-1,713,1198,0,0
-504,-174,0,0,0,0,0,0,0,0,0,-1,720,1198,0,0
-497,-174,0,0,0,0,0,0,0,0,0,-1,727,1198,0,0
-490,-174,0,0,0,0,0,0,0,0,0,-1,734,1198,0,0
-483,-174,0,0,0,0,0,0,0,0,0,-1,741,1198,0,0
-476,-174,0,0,0,0,0,0,0,0,0,-1,748,1198,0,0
-469,-174,0,0,0,0,0,0,0,0,0,-1,755,1198,0,0
-462,-174,0,0,0,0,0,0,0,0,0,-1,762,1198,0,0
-455,-174,0,0,0,0,0,0,0,0,0,-1,769,1198,0,0
-448,-174,0,0,0,0,0,0,0,0,0,-1,776,1198,0,0
-441,-174,0,0,0,0,0,0,0,0,0,-1,783,1198,0,0
-434,-174,0,0,0,0,0,0,0,0,0,-1,790,1198,0,0
-427,-174,0,0,0,0,0,0,0,0,0,-1,797,1198,0,0
-420,-174,0,0,0,0,0,0,0,0,0,-1,804,1198,0,0
-413,-174,0,0,0,0,0,0,0,0,0,-1,811,1198,0,0
-406,-174,0,0,0,0,0,0,0,0,0,-1,818,1198,0,0
-399,-174,0,0,0,0,0,0,0,0,0,-1,825,1198,0,0
-392,-174,0,0,0,0,0,0,0,0,0,-1,832,1198,0,0
-385,-174,0,0,0,0,0,0,0,0,0,-1,839,1198,0,0
-378,-174,0,0,0,0,0,0,0,0,0,-1,846,1198,0,0
-371,-174,0,0,0,0,0,0,0,0,0,-1,853,1198,0,0
-364,-174,0,0,0,0,0,0,0,0,0,-1,860,1198,0,0
-357,-174,0,0,0,0,0,0,0,0,0,-1,867,1198,0,0
-350,-174,0,0,0,0,0,0,0,0,0,-1,874,1198,0,0
-343,-174,0,0,0,0,0,0,0,0,0,-1,881,1198,0,0
-336,-174,0,0,0,0,0,0,0,0,0,-1,888,1198,0,0
-329,-174,0,0,0,0,0,0,0,0,0,-1,895,1198,0,0
-322,-174,0,0,0,0,0,0,0,0,0,-1,902,1198,0,0
-315,-174,0,0,0,0,0,0,0,0,0,-1,909,1198,0,0
-308,-174,0,0,0,0,0,0,0,0,0,-1,916,1198,0,0
-301,-174,0,0,0,0,0,0,0,0,0,-1,923,1198,0,0
-294,-174,0,0,0,0,0,0,0,0,0,-1,930,1198,0,0
-287,-174,0,0,0,0,0,0,0,0,0,-1,937,1198,0,0
-280,-174,0,0,0,0,0,0,0,0,0,-1,944,1198,0,0
-273,-174,0,0,0,0,0,0,0,0,0,-1,951,1198,0,0
-266,-174,0,0,0,0,0,0,0,0,0,-1,958,1198,0,0
-259,-174,0,0,0,0,0,0,0,0,0,-1,965,1198,0,0
-252,-174,0,0,0,0,0,0,0,0,0,-1,972,1198,0,0
-245,-174,0,0,0,0,0,0,0,0,0,-1,979,1198,0,0
-238,-174,0,0,0,0,0,0,0,0,0,-1,986,1198,0,0
-231,-174,0,0,0,0,0,0,0,0,0,-1,993,1198,0,0
-224,-174,0,0,0,0,0,0,0,0,0,-1,1000,1198,0,0
-217,-174,0,0,0,0,0,0,0,0,0,-1,1007,1198,0,0
-210,-174,0,0,0,0,0,0,0,0,0,-1,1014,1198,0,0
-203,-174,0,0,0,0,0,0,0,0,0,-1,1021,1198,0,0
-196,-174,0,0,0,0,0,0,0,0,0,-1,1028,1198,0,0
-189,-174,0,0,0,0,0,0,0,0,0,-1,1035,1198,0,0
-182,-174,0,0,0,0,0,0,0,0,0,-1,1042,1198,0,0
-175,-174,0,0,0,0,0,0,0,0,0,-1,1049,1198,0,0
-168,-174,0,0,0,0,0,0,0,0,0,-1,1056,1198,0,0
-161,-174,0,0,0,0,0,0,0,0,0,-1,1063,1198,0,0
-154,-174,0,0,0,0,0,0,0,0,0,-1,1070,1198,0,0
-147,-174,0,0,0,0,0,0,0,0,0,-1,1077,1198,0,0
-140,-174,0,0,0,0,0,0,0,0,0,-1,1084,1198,0,0
-133,-174,0,0,0,0,0,0,0,0,0,-1,1091,1198,0,0
-126,-174,0,0,0,0,0,0,0,0,0,-1,1098,1198,0,0
-119,-174,0,0,0,0,0,0,0,0,0,-1,1105,1198,0,0
-112,-174,0,0,0,0,0,0,0,0,0,-1,1112,1198,0,0
-105,-174,0,0,0,0,0,0,0,0,0,-1,1119,1198,0,0
-98,-174,0,0,0,0,0,0,0,0,0,-1,1126,1198,0,0
-91,-174,0,0,0,0,0,0,0,0,0,-1,1133,1198,0,0
-84,-174,0,0,0,0,0,0,0,0,0,-1,1140,1198,0,0
-77,-174,0,0,0,0,0,0,0,0,0,-1,1147,1198,0,0
-70,-174,0,0,0,0,0,0,0,0,0,-1,1154,1198,0,0
-63,-174,0,0,0,0,0,0,0,0,0,-1,1161,1198,0,0
-56,-174,0,0,0,0,0,0,0,0,0,-1,1168,1198,0,0
-49,-174,0,0,0,0,0,0,0,0,0,-1,1175,1198,0,0
-42,-174,0,0,0,0,0,0,0,0,0,-1,1182,1198,0,0
-35,-174,0,0,0,0,0,0,0,0,0,-1,1189,1198,0,0
-28,-174,0,0,0,0,0,0,0,0,0,-1,1196,1198,0,0
-21,-174,0,0,0,0,0,0,0,0,0,-1,1203,1198,0,0
-14,-174,0,0,0,0,0,0,0,0,0,-1,1210,1198,0,0
-7,-174,0,0,0,0,0,0,0,0,0,-1,1217,1198,0,0
0,-174,0,0,0,0,0,0,0,0,0,-1,1224,1198,0,0
7,-174,0,0,0,0,0,0,0,0,0,-1,1231,1198,0,0
14,-174,0,0,0,0,0,0,0,0,0,-1,1238,1198,0,0
21,-174,0,0,0,0,0,0,0,0,0,-1,1245,1198,0,0
28,-174,0,0,0,0,0,0,0,0,0,-1,1252,1198,0,0
35,-174,0,0,0,0,0,0,0,0,0,-1,1259,1198,0,0
42,-174,0,0,0,0,0,0,0,0,0,-1,1266,1198,0,0
49,-174,0,0,0,0,0,0,0,0,0,-1,1273,1198,0,0
56,-174,0,0,0,0,0,0,0,0,0,-1,1280,1198,0,0
63,-174,0,0,0,0,0,0,0,0,0,-1,1287,1198,0,0
70,-174,0,0,0,0,0,0,0,0,0,-1,1294,1198,0,0
77,-174,0,0,0,0,0,0,0,0,0,-1,1301,1198,0,0
84,-174,0,0,0,0,0,0,0,0,0,-1,1308,1198,0,0
91,-174,0,0,0,0,0,0,0,0,0,-1,1315,1198,0,0
98,-174,0,0,0,0,0,0,0,0,0,-1,1322,1198,0,0
105,-174,0,0,0,0,0,0,0,0,0,-1,1329,1198,0,0
112,-174,0,0,0,0,0,0,0,0,0,-1,1336,1198,0,0
119,-174,0,0,0,0,0,0,0,0,0,-1,1343,1198,0,0
126,-174,0,0,0,0,0,0,0,0,0,-1,1350,1198,0,0
133,-174,0,0,0,0,0,0,0,0,0,-1,1357,1198,0,0
140,-174,0,0,0,0,0,0,0,0,0,-1,1364,1198,0,0
147,-174,0,0,0,0,0,0,0,0,0,-1,1371,1198,0,0
154,-174,0,0,0,0,0,0,0,0,0,-1,1378,1198,0,0
161,-174,0,0,0,0,0,0,0,0,0,-1,1385,1198,0,0
168,-174,0,0,0,0,0,0,0,0,0,-1,1392,1198,0,0
175,-174,0,0,0,0,0,0,0,0,0,-1,1399,1198,0,0
182,-174,0,0,0,0,0,0,0,0,0,-1,1406,1198,0,0
189,-174,0,0,0,0,0,0,0,0,0,-1,1413,1198,0,0
196,-174,0,0,0,0,0,0,0,0,0,-1,1420,1198,0,0
203,-174,0,0,0,0,0,0,0,0,0,-1,1427,1198,0,0
210,-174,0,0,0,0,0,0,0,0,0,-1,1434,1198,0,0
217,-174,0,0,0,0,0,0,0,0,0,-1,1441,1198,0,0
224,-174,0,0,0,0,0,0,0,0,0,-1,1448,1198,0,0
231,-174,0,0,0,0,0,0,0,0,0,-1,1455,1198,0,0
238,-174,0,0,0,0,0,0,0,0,0,-1,1462,1198,0,0
245,-174,0,0,0,0,0,0,0,0,0,-1,1469,1198,0,0
252,-174,0,0,0,0,0,0,0,0,0,-1,1476,1198,0,0
259,-174,0,0,0,0,0,0,0,0,0,-1,1483,1198,0,0
266,-174,0,0,0,0,0,0,0,0,0,-1,1490,1198,0,0
273,-174,0,0,0,0,0,0,0,0,0,-1,1497,1198,0,0
280,-174,0,0,0,0,0,0,0,0,0,-1,1504,1198,0,0
287,-174,0,0,0,0,0,0,0,0,0,-1,1511,1198,0,0
294,-174,0,0,0,0,0,0,0,0,0,-1,1518,1198,0,0
301,-174,0,0,0,0,0,0,0,0,0,-1,1525,1198,0,0
308,-174,0,0,0,0,0,0,0,0,0,-1,1532,1198,0,0
315,-174,0,0,0,0,0,0,0,0,0,-1,1539,1198,0,0
322,-174,0,0,0,0,0,0,0,0,0,-1,1546,1198,0,0
329,-174,0,0,0,0,0,0,0,0,0,-1,1553,1198,0,0
336,-174,0,0,0,0,0,0,0,0,0,-1,1560,1198,0,0
343,-174,0,0,0,0,0,0,0,0,0,-1,1567,1198,0,0
350,-174,0,0,0,0,0,0,0,0,0,-1,1574,1198,0,0
357,-174,0,0,0,0,0,0,0,0,0,-1,1581,1198,0,0
364,-174,0,0,0,0,0,0,0,0,0,-1,1588,1198,0,0
371,-174,0,0,0,0,0,0,0,0,0,-1,1595,1198,0,0
378,-174,0,0,0,0,0,0,0,0,0,-1,1602,1198,0,0
385,-174,0,0,0,0,0,0,0,0,0,-1,1609,1198,0,0
392,-174,0,0,0,0,0,0,0,0,0,-1,1616,1198,0,0
399,-174,0,0,0,0,0,0,0,0,0,-1,1623,1198,0,0
406,-174,0,0,0,0,0,0,0,0,0,-1,1630,1198,0,0
413,-174,0,0,0,0,0,0,0,0,0,-1,1637,1198,0,0
420,-174,0,0,0,0,0,0,0,0,0,-1,1644,1198,0,0
427,-174,0,0,0,0,0,0,0,0,0,-1,1651,1198,0,0
434,-174,0,0,0,0,0,0,0,0,0,-1,1658,1198,0,0
441,-174,0,0,0,0,0,0,0,0,0,-1,1665,1198,0,0
448,-174,0,0,0,0,0,0,0,0,0,-1,1672,1198,0,0
455,-174,0,0,0,0,0,0,0,0,0,-1,1679,1198,0,0
462,-174,0,0,0,0,0,0,0,0,0,-1,1686,1198,0,0
469,-174,0,0,0,0,0,0,0,0,0,-1,1693,1198,0,0
476,-174,0,0,0,0,0,0,0,0,0,-1,1700,1198,0,0
483,-174,0,0,0,0,0,0,0,0,0,-1,1707,1198,0,0
490,-174,0,0,0,0,0,0,0,0,0,-1,1714,1198,0,0
497,-174,0,0,0,0,0,0,0,0,0,-1,1721,1198,0,0
504,-174,0,0,0,0,0,0,0,0,0,-1,1728,1198,0,0
511,-174,0,0,0,0,0,0,0,0,0,-1,1735,1198,0,0
518,-174,0,0,0,0,0,0,0,0,0,-1,1742,1198,0,0
525,-174,0,0,0,0,0,0,0,0,0,-1,1749,1198,0,0
532,-174,0,0,0,0,0,0,0,0,0,-1,1756,1198,0,0
539,-174,0,0,0,0,0,0,0,0,0,-1,1763,1198,0,0
546,-174,0,0,0,0,0,0,0,0,0,-1,1770,1198,0,0
553,-174,0,0,0,0,0,0,0,0,0,-1,1777,1198,0,0
560,-174,0,0,0,0,0,0,0,0,0,-1,1784,1198,0,0
567,-174,0,0,0,0,0,0,0,0,0,-1,1791,1198,0,0
574,-174,0,0,0,0,0,0,0,0,0,-1,1798,1198,0,0
581,-174,0,0,0,0,0,0,0,0,0,-1,1805,1198,0,0
588,-174,0,0,0,0,0,0,0,0,0,-1,1812,1198,0,0
595,-174,0,0,0,0,0,0,0,0,0,-1,1819,1198,0,0
602,-174,0,0,0,0,0,0,0,0,0,-1,1826,1198,0,0
609,-174,0,0,0,0,0,0,0,0,0,-1,1833,1198,0,0
616,-174,0,0,0,0,0,0,0,0,0,-1,1840,1198,0,0
623,-174,0,0,0,0,0,0,0,0,0,-1,1847,1198,0,0
630,-174,0,0,0,0,0,0,0,0,0,-1,1854,1198,0,0
637,-174,13.8682,1.82312,-0.00200655,0.000177497,0.00246153,0.00177836,-0.00360742,0.994173,0.00316869,0.0384773,1861,1198,13.8682,-1.82311
644,-174,13.9314,1.80701,0.000431263,0.00057919,0.000990413,0.0014984,-0.000487945,0.822669,0.00119525,0.0379513,1868,1198,13.9313,-1.80696
651,-174,13.8562,1.69421,0.000421897,0.000206555,0.00116561,0.0014848,-0.000856348,0.739342,0.0013678,0.0394867,1875,1198,13.8563,-1.69418
658,-174,13.8774,1.79211,-0.00103368,-0.000613194,0.002271,0.00145728,-0.00310415,0.831555,0.00269015,0.0397783,1882,1198,13.8774,-1.79206
665,-174,14.103,1.83057,-0.00292064,-0.00144876,0.00354441,0.00143531,-0.00580471,0.887761,0.0044265,0.0328516,1889,1198,14.103,-1.83058
672,-174,14.0621,1.85315,-0.00484269,-0.00222416,0.0047556,0.00139911,-0.00846596,0.919726,0.0061635,0.0251744,1896,1198,14.0622,-1.85318
679,-174,14.0313,1.88867,-0.00656823,-0.00285621,0.00579542,0.00137315,-0.0107976,0.940365,0.00769704,0.0202149,1903,1198,14.0313,-1.8887
686,-174,14.0232,1.8136,-0.00782545,-0.00332295,0.00655631,0.00135786,-0.0125063,0.950777,0.00882501,0.0419016,1910,1198,14.0232,-1.81362
693,-174,14.1248,1.74011,-0.00869528,-0.00359751,0.00698689,0.0012909,-0.0135837,0.960301,0.00951533,0.0453568,1917,1198,14.1248,-1.74007
700,-174,13.4291,2.68726,-0.00909093,-0.00368,0.00704611,0.00116219,-0.0139331,0.968702,0.00969938,0.045366,1924,1198,13.4291,-2.68725
707,-174,13.0527,3.00964,-0.00899779,-0.00359789,0.00676554,0.000986539,-0.0135822,0.975252,0.00940093,0.0338118,1931,1198,13.0527,-3.00962
714,-174,13.0598,2.93445,-0.00856386,-0.00331407,0.00626613,0.00085474,-0.0127327,0.983745,0.00878723,0.0206402,1938,1198,13.0598,-2.93439
721,-174,13.0137,2.86096,-0.00752493,-0.00284683,0.00553632,0.000824271,-0.011196,0.98527,0.0077534,0.0155881,1945,1198,13.0136,-2.86091
728,-174,12.957,2.79565,-0.00572898,-0.00226336,0.00453278,0.000856527,-0.00884887,0.967969,0.0062045,0.011608,1952,1198,12.9571,-2.7956
735,-174,12.9529,2.71033,-0.00350959,-0.00155895,0.00324137,0.000850657,-0.00591921,0.931538,0.00425811,0.0113806,1959,1198,12.9529,-2.71037
742,-174,12.936,2.61975,-0.00064183,-0.00025359,0.00176559,0.00132852,-0.00222394,0.840151,0.00207261,0.019519,1966,1198,12.936,-2.61981
749,-174,12.9371,2.56262,0.00244901,0.00126864,1.77647e-05,0.00244928,0.00126837,0.0150455,0.00141439,0.0170172,1973,1198,12.9372,-2.56261
756,-174,12.932,2.48193,0.00548039,0.00294585,-0.00128873,0.00602055,0.00240569,-0.396896,0.00349926,0.00999279,1980,1198,12.932,-2.48188
763,-174,12.9232,2.38782,0.00842538,0.00469163,-0.00218955,0.00943589,0.00368112,-0.432389,0.00549149,0.0124284,1987,1198,12.9233,-2.38779
770,-174,12.9346,2.29797,0.0117404,0.00700012,-0.00307797,0.013255,0.00548549,-0.457299,0.00769057,0.022755,1994,1198,12.9346,-2.29799
777,-174,13.2452,1.98621,0.0156708,0.0100744,-0.0040897,0.0178279,0.00791724,-0.485375,0.0103144,0.0435472,2001,1198,13.2453,-1.98626
784,-174,13.5576,1.68323,0,0,0,0,0,0,0,-1,2008,1198,13.5577,-1.68327
791,-174,11.0023,2.11365,0,0,0,0,0,0,0,-1,2015,1198,11.0023,-2.1137
798,-174,17.9849,2.76611,0,0,0,0,0,0,0,-1,2022,1198,17.9848,-2.7661
805,-174,12.8835,0.454712,0,0,0,0,0,0,0,-1,2029,1198,12.8836,-0.45466
812,-174,0,0,0,0,0,0,0,0,0,-1,2036,1198,0,0
-700,-181,0,0,0,0,0,0,0,0,0,-1,524,1205,0,0
-693,-181,0,0,0,0,0,0,0,0,0,-1,531,1205,0,0
-686,-181,-8.30823,-0.520996,0,0,0,0,0,0,0,-1,538,1205,-8.30826,0.521019
-679,-181,-5.13269,3.76685,0,0,0,0,0,0,0,-1,545,1205,-5.13269,-3.76683
-672,-181,-5.56635,2.97437,0.0302281,0.049524,-0.0160597,0.0586109,0.0211412,-1.05589,0.034274,0.048513,552,1205,-5.56636,-2.9744
-665,-181,-6.01483,2.2251,0.0223248,0.0422069,-0.0151403,0.0503781,0.0141536,-1.0759,0.0300018,0.0469694,559,1205,-6.01485,-2.22514
-658,-181,-6.56958,1.59656,0.0161208,0.0349259,-0.0136654,0.042111,0.00893573,-1.08673,0.0256202,0.0427736,566,1205,-6.5696,-1.59658
-651,-181,-6.73926,0.782715,0,0,0,0,0,0,0,-1,573,1205,-6.73926,-0.782724
-644,-181,-6.61096,0.0749512,0.00765904,0.0218564,-0.00991248,0.0269498,0.00256557,-1.09613,0.0171754,0.0409595,580,1205,-6.61098,-0.0749307
-637,-181,-6.8714,0.298462,0.00498905,0.0164603,-0.00796991,0.0205439,0.000905463,-1.0973,0.0134043,0.0227948,587,1205,-6.87138,-0.298405
-630,-181,-6.90436,0.439087,0.00255923,0.0119789,-0.00645749,0.0152616,-0.000723551,-1.10048,0.010424,0.0121292,594,1205,-6.90437,-0.439102
-623,-181,-6.93329,0.539307,0.000310266,0.00770132,-0.00507339,0.0102824,-0.00227085,-1.10017,0.00772399,0.0142911,601,1205,-6.93328,-0.53932
-616,-181,-6.92389,0.64209,-0.00148873,0.00492133,-0.00445184,0.00720183,-0.00376923,-1.09739,0.00643666,0.0142857,608,1205,-6.9239,-0.642106
-609,-181,-6.9184,0.738525,-0.00292403,0.00124434,-0.00444549,0.00406996,-0.00574965,-1.0046,0.00569694,0.0146737,615,1205,-6.91839,-0.738559
-602,-181,-6.91327,0.827393,-0.0038952,-0.000512676,-0.00426371,0.00238295,-0.00679083,-0.974212,0.00549651,0.0134662,622,1205,-6.91327,-0.82743
-595,-181,-6.93597,0.92334,-0.00533338,-0.0017488,-0.00433174,0.0011468,-0.00822897,-0.981553,0.00590548,0.0116747,629,1205,-6.936,-0.923302
-588,-181,-6.93311,1.03833,-0.0065293,-0.00235293,-0.00470481,0.000706292,-0.00958852,-0.994258,0.00664031,0.0106082,636,1205,-6.93308,-1.03837
-581,-181,-6.93115,1.18408,-0.00695364,-0.00288421,-0.00520743,0.000671906,-0.0105098,-0.971644,0.00724088,0.0119134,643,1205,-6.93114,-1.18408
-574,-181,-7.11499,1.22717,-0.00710287,-0.00304875,-0.00552072,0.000805291,-0.0109569,-0.961344,0.0075873,0.0285359,650,1205,-7.11501,-1.22716
-567,-181,-7.27356,1.14478,-0.00715988,-0.00321121,-0.0056964,0.000843303,-0.0112144,-0.952217,0.00777263,0.0452214,657,1205,-7.27354,-1.14474
-560,-181,-7.48639,0.26355,-0.00689804,-0.00314831,-0.00560259,0.000884799,-0.0109312,-0.946862,0.00759956,0.0486253,664,1205,-7.48642,-0.263541
-553,-181,-7.98517,0.0938721,-0.00614802,-0.00294225,-0.00526398,0.000957475,-0.0100477,-0.933189,0.0070394,0.0432654,671,1205,-7.98519,-0.0938496
-546,-181,-8.06744,0.171753,-0.0048548,-0.00257856,-0.00452159,0.000945951,-0.00837931,-0.908691,0.00592674,0.0333445,678,1205,-8.06746,-0.171755
-539,-181,-8.16266,0.315796,-0.00293096,-0.00203507,-0.0034106,0.000956878,-0.00592291,-0.850694,0.00430318,0.0354966,685,1205,-8.16265,-0.315848
-532,-181,-8.17865,0.331543,-0.000227813,-0.0013041,-0.0019037,0.00121234,-0.00274425,-0.64765,0.00234072,0.0418057,692,1205,-8.17864,-0.331527
-525,-181,-8.16064,0.355225,0.00315731,-0.000373788,-0.00010872,0.00316066,-0.000377133,-0.0307505,0.00224341,0.0412977,699,1205,-8.16066,-0.355242
-518,-181,-8.1192,0.398438,0.006547,0.000402399,0.00138641,0.00684533,0.000104066,0.211951,0.00452926,0.0401216,706,1205,-8.11918,-0.398444
-511,-181,0,0,0,0,0,0,0,0,0,-1,713,1205,0,0
-504,-181,0,0,0,0,0,0,0,0,0,-1,720,1205,0,0
-497,-181,0,0,0,0,0,0,0,0,0,-1,727,1205,0,0
-490,-181,0,0,0,0,0,0,0,0,0,-1,734,1205,0,0
-483,-181,0,0,0,0,0,0,0,0,0,-1,741,1205,0,0
-476,-181,0,0,0,0,0,0,0,0,0,-1,748,1205,0,0
-469,-181,0,0,0,0,0,0,0,0,0,-1,755,1205,0,0
-462,-181,0,0,0,0,0,0,0,0,0,-1,762,1205,0,0
-455,-181,0,0,0,0,0,0,0,0,0,-1,769,1205,0,0
-448,-181,0,0,0,0,0,0,0,0,0,-1,776,1205,0,0
-441,-181,0,0,0,0,0,0,0,0,0,-1,783,1205,0,0
-434,-181,0,0,0,0,0,0,0,0,0,-1,790,1205,0,0
-427,-181,0,0,0,0,0,0,0,0,0,-1,797,1205,0,0
-420,-181,0,0,0,0,0,0,0,0,0,-1,804,1205,0,0
-413,-181,0,0,0,0,0,0,0,0,0,-1,811,1205,0,0
-406,-181,0,0,0,0,0,0,0,0,0,-1,818,1205,0,0
-399,-181,0,0,0,0,0,0,0,0,0,-1,825,1205,0,0
-392,-181,0,0,0,0,0,0,0,0,0,-1,832,1205,0,0
-385,-181,0,0,0,0,0,0,0,0,0,-1,839,1205,0,0
-378,-181,0,0,0,0,0,0,0,0,0,-1,846,1205,0,0
-371,-181,0,0,0,0,0,0,0,0,0,-1,853,1205,0,0
-364,-181,0,0,0,0,0,0,0,0,0,-1,860,1205,0,0
-357,-181,0,0,0,0,0,0,0,0,0,-1,867,1205,0,0
-350,-181,0,0,0,0,0,0,0,0,0,-1,874,1205,0,0
-343,-181,0,0,0,0,0,0,0,0,0,-1,881,1205,0,0
-336,-181,0,0,0,0,0,0,0,0,0,-1,888,1205,0,0
-329,-181,0,0,0,0,0,0,0,0,0,-1,895,1205,0,0
-322,-181,0,0,0,0,0,0,0,0,0,-1,902,1205,0,0
-315,-181,0,0,0,0,0,0,0,0,0,-1,909,1205,0,0
-308,-181,0,0,0,0,0,0,0,0,0,-1,916,1205,0,0
-301,-181,0,0,0,0,0,0,0,0,0,-1,923,1205,0,0
-294,-181,0,0,0,0,0,0,0,0,0,-1,930,1205,0,0
-287,-181,0,0,0,0,0,0,0,0,0,-1,937,1205,0,0
-280,-181,0,0,0,0,0,0,0,0,0,-1,944,1205,0,0
-273,-181,0,0,0,0,0,0,0,0,0,-1,951,1205,0,0
-266,-181,0,0,0,0,0,0,0,0,0,-1,958,1205,0,0
-259,-181,0,0,0,0,0,0,0,0,0,-1,965,1205,0,0
-252,-181,0,0,0,0,0,0,0,0,0,-1,972,1205,0,0
-245,-181,0,0,0,0,0,0,0,0,0,-1,979,1205,0,0
-238,-181,0,0,0,0,0,0,0,0,0,-1,986,1205,0,0
-231,-181,0,0,0,0,0,0,0,0,0,-1,993,1205,0,0
-224,-181,0,0,0,0,0,0,0,0,0,-1,1000,1205,0,0
-217,-181,0,0,0,0,0,0,0,0,0,-1,1007,1205,0,0
-210,-181,0,0,0,0,0,0,0,0,0,-1,1014,1205,0,0
-203,-181,0,0,0,0,0,0,0,0,0,-1,1021,1205,0,0
-196,-181,0,0,0,0,0,0,0,0,0,-1,1028,1205,0,0
-189,-181,0,0,0,0,0,0,0,0,0,-1,1035,1205,0,0
-182,-181,0,0,0,0,0,0,0,0,0,-1,1042,1205,0,0
-175,-181,0,0,0,0,0,0,0,0,0,-1,1049,1205,0,0
-168,-181,0,0,0,0,0,0,0,0,0,-1,1056,1205,0,0
-161,-181,0,0,0,0,0,0,0,0,0,-1,1063,1205,0,0
-154,-181,0,0,0,0,0,0,0,0,0,-1,1070,1205,0,0
-147,-181,0,0,0,0,0,0,0,0,0,-1,1077,1205,0,0
-140,-181,0,0,0,0,0,0,0,0,0,-1,1084,1205,0,0
-133,-181,0,0,0,0,0,0,0,0,0,-1,1091,1205,0,0
-126,-181,0,0,0,0,0,0,0,0,0,-1,1098,1205,0,0
-119,-181,0,0,0,0,0,0,0,0,0,-1,1105,1205,0,0
-112,-181,0,0,0,0,0,0,0,0,0,-1,1112,1205,0,0
-105,-181,0,0,0,0,0,0,0,0,0,-1,1119,1205,0,0
-98,-181,0,0,0,0,0,0,0,0,0,-1,1126,1205,0,0
-91,-181,0,0,0,0,0,0,0,0,0,-1,1133,1205,0,0
-84,-181,0,0,0,0,0,0,0,0,0,-1,1140,1205,0,0
-77,-181,0,0,0,0,0,0,0,0,0,-1,1147,1205,0,0
-70,-181,0,0,0,0,0,0,0,0,0,-1,1154,1205,0,0
-63,-181,0,0,0,0,0,0,0,0,0,-1,1161,1205,0,0
-56,-181,0,0,0,0,0,0,0,0,0,-1,1168,1205,0,0
-49,-181,0,0,0,0,0,0,0,0,0,-1,1175,1205,0,0
-42,-181,0,0,0,0,0,0,0,0,0,-1,1182,1205,0,0
-35,-181,0,0,0,0,0,0,0,0,0,-1,1189,1205,0,0
-28,-181,0,0,0,0,0,0,0,0,0,-1,1196,1205,0,0
-21,-181,0,0,0,0,0,0,0,0,0,-1,1203,1205,0,0
-14,-181,0,0,0,0,0,0,0,0,0,-1,1210,1205,0,0
-7,-181,0,0,0,0,0,0,0,0,0,-1,1217,1205,0,0
0,-181,0,0,0,0,0,0,0,0,0,-1,1224,1205,0,0
7,-181,0,0,0,0,0,0,0,0,0,-1,1231,1205,0,0
14,-181,0,0,0,0,0,0,0,0,0,-1,1238,1205,0,0
21,-181,0,0,0,0,0,0,0,0,0,-1,1245,1205,0,0
28,-181,0,0,0,0,0,0,0,0,0,-1,1252,1205,0,0
35,-181,0,0,0,0,0,0,0,0,0,-1,1259,1205,0,0
42,-181,0,0,0,0,0,0,0,0,0,-1,1266,1205,0,0
49,-181,0,0,0,0,0,0,0,0,0,-1,1273,1205,0,0
56,-181,0,0,0,0,0,0,0,0,0,-1,1280,1205,0,0
63,-181,0,0,0,0,0,0,0,0,0,-1,1287,1205,0,0
70,-181,0,0,0,0,0,0,0,0,0,-1,1294,1205,0,0
77,-181,0,0,0,0,0,0,0,0,0,-1,1301,1205,0,0
84,-181,0,0,0,0,0,0,0,0,0,-1,1308,1205,0,0
91,-181,0,0,0,0,0,0,0,0,0,-1,1315,1205,0,0
98,-181,0,0,0,0,0,0,0,0,0,-1,1322,1205,0,0
105,-181,0,0,0,0,0,0,0,0,0,-1,1329,1205,0,0
112,-181,0,0,0,0,0,0,0,0,0,-1,1336,1205,0,0
119,-181,0,0,0,0,0,0,0,0,0,-1,1343,1205,0,0
126,-181,0,0,0,0,0,0,0,0,0,-1,1350,1205,0,0
133,-181,0,0,0,0,0,0,0,0,0,-1,1357,1205,0,0
140,-181,0,0,0,0,0,0,0,0,0,-1,1364,1205,0,0
147,-181,0,0,0,0,0,0,0,0,0,-1,1371,1205,0,0
154,-181,0,0,0,0,0,0,0,0,0,-1,1378,1205,0,0
161,-181,0,0,0,0,0,0,0,0,0,-1,1385,1205,0,0
168,-181,0,0,0,0,0,0,0,0,0,-1,1392,1205,0,0
175,-181,0,0,0,0,0,0,0,0,0,-1,1399,1205,0,0
182,-181,0,0,0,0,0,0,0,0,0,-1,1406,1205,0,0
189,-181,0,0,0,0,0,0,0,0,0,-1,1413,1205,0,0
196,-181,0,0,0,0,0,0,0,0,0,-1,1420,1205,0,0
203,-181,0,0,0,0,0,0,0,0,0,-1,1427,1205,0,0
210,-181,0,0,0,0,0,0,0,0,0,-1,1434,1205,0,0
217,-181,0,0,0,0,0,0,0,0,0,-1,1441,1205,0,0
224,-181,0,0,0,0,0,0,0,0,0,-1,1448,1205,0,0
231,-181,0,0,0,0,0,0,0,0,0,-1,1455,1205,0,0
238,-181,0,0,0,0,0,0,0,0,0,-1,1462,1205,0,0
245,-181,0,0,0,0,0,0,0,0,0,-1,1469,1205,0,0
252,-181,0,0,0,0,0,0,0,0,0,-1,1476,1205,0,0
259,-181,0,0,0,0,0,0,0,0,0,-1,1483,1205,0,0
266,-181,0,0,0,0,0,0,0,0,0,-1,1490,1205,0,0
273,-181,0,0,0,0,0,0,0,0,0,-1,1497,1205,0,0
280,-181,0,0,0,0,0,0,0,0,0,-1,1504,1205,0,0
287,-181,0,0,0,0,0,0,0,0,0,-1,1511,1205,0,0
294,-181,0,0,0,0,0,0,0,0,0,-1,1518,1205,0,0
301,-181,0,0,0,0,0,0,0,0,0,-1,1525,1205,0,0
308,-181,0,0,0,0,0,0,0,0,0,-1,1532,1205,0,0
315,-181,0,0,0,0,0,0,0,0,0,-1,1539,1205,0,0
322,-181,0,0,0,0,0,0,0,0,0,-1,1546,1205,0,0
329,-181,0,0,0,0,0,0,0,0,0,-1,1553,1205,0,0
336,-181,0,0,0,0,0,0,0,0,0,-1,1560,1205,0,0
343,-181,0,0,0,0,0,0,0,0,0,-1,1567,1205,0,0
350,-181,0,0,0,0,0,0,0,0,0,-1,1574,1205,0,0
357,-181,0,0,0,0,0,0,0,0,0,-1,1581,1205,0,0
364,-181,0,0,0,0,0,0,0,0,0,-1,1588,1205,0,0
371,-181,0,0,0,0,0,0,0,0,0,-1,1595,1205,0,0
378,-181,0,0,0,0,0,0,0,0,0,-1,1602,1205,0,0
385,-181,0,0,0,0,0,0,0,0,0,-1,1609,1205,0,0
392,-181,0,0,0,0,0,0,0,0,0,-1,1616,1205,0,0
399,-181,0,0,0,0,0,0,0,0,0,-1,1623,1205,0,0
406,-181,0,0,0,0,0,0,0,0,0,-1,1630,1205,0,0
413,-181,0,0,0,0,0,0,0,0,0,-1,1637,1205,0,0
420,-181,0,0,0,0,0,0,0,0,0,-1,1644,1205,0,0
427,-181,0,0,0,0,0,0,0,0,0,-1,1651,1205,0,0
434,-181,0,0,0,0,0,0,0,0,0,-1,1658,1205,0,0
441,-181,0,0,0,0,0,0,0,0,0,-1,1665,1205,0,0
448,-181,0,0,0,0,0,0,0,0,0,-1,1672,1205,0,0
455,-181,0,0,0,0,0,0,0,0,0,-1,1679,1205,0,0
462,-181,0,0,0,0,0,0,0,0,0,-1,1686,1205,0,0
469,-181,0,0,0,0,0,0,0,0,0,-1,1693,1205,0,0
476,-181,0,0,0,0,0,0,0,0,0,-1,1700,1205,0,0
483,-181,0,0,0,0,0,0,0,0,0,-1,1707,1205,0,0
490,-181,0,0,0,0,0,0,0,0,0,-1,1714,1205,0,0
497,-181,0,0,0,0,0,0,0,0,0,-1,1721,1205,0,0
504,-181,0,0,0,0,0,0,0,0,0,-1,1728,1205,0,0
511,-181,0,0,0,0,0,0,0,0,0,-1,1735,1205,0,0
518,-181,0,0,0,0,0,0,0,0,0,-1,1742,1205,0,0
525,-181,0,0,0,0,0,0,0,0,0,-1,1749,1205,0,0
532,-181,0,0,0,0,0,0,0,0,0,-1,1756,1205,0,0
539,-181,0,0,0,0,0,0,0,0,0,-1,1763,1205,0,0
546,-181,0,0,0,0,0,0,0,0,0,-1,1770,1205,0,0
553,-181,0,0,0,0,0,0,0,0,0,-1,1777,1205,0,0
560,-181,0,0,0,0,0,0,0,0,0,-1,1784,1205,0,0
567,-181,0,0,0,0,0,0,0,0,0,-1,1791,1205,0,0
574,-181,0,0,0,0,0,0,0,0,0,-1,1798,1205,0,0
581,-181,0,0,0,0,0,0,0,0,0,-1,1805,1205,0,0
588,-181,0,0,0,0,0,0,0,0,0,-1,1812,1205,0,0
595,-181,0,0,0,0,0,0,0,0,0,-1,1819,1205,0,0
602,-181,0,0,0,0,0,0,0,0,0,-1,1826,1205,0,0
609,-181,0,0,0,0,0,0,0,0,0,-1,1833,1205,0,0
616,-181,0,0,0,0,0,0,0,0,0,-1,1840,1205,0,0
623,-181,0,0,0,0,0,0,0,0,0,-1,1847,1205,0,0
630,-181,14.0552,1.96875,-0.0059548,-3.74908e-05,0.00316047,0.00133308,-0.00732538,1.16161,0.00538325,0.0363832,1854,1205,14.0552,-1.9687
637,-181,13.9515,2.05774,-0.00199749,0.000186546,0.00174069,0.0011494,-0.00296035,1.06554,0.00244835,0.0348868,1861,1205,13.9515,-2.05769
644,-181,13.9065,2.05505,0.00047259,0.00052963,0.000589783,0.00109158,-8.93624e-05,0.809558,0.000759264,0.0352301,1868,1205,13.9065,-2.05507
651,-181,13.9243,2.01428,0.000465819,5.67222e-05,0.00106686,0.00134757,-0.000825025,0.690683,0.00126638,0.03661,1875,1205,13.9244,-2.0143
658,-181,13.9014,2.04272,-0.000851484,-0.000763015,0.00227075,0.00146393,-0.00307843,0.795137,0.00267719,0.0351313,1882,1205,13.9013,-2.04273
665,-181,13.9492,1.89075,-0.00256819,-0.00158556,0.00355828,0.00151516,-0.00566891,0.854003,0.00437272,0.0306482,1889,1205,13.9492,-1.89077
672,-181,14.0248,1.91003,-0.0043627,-0.00235866,0.0047648,0.00150834,-0.0082297,0.889036,0.00605223,0.0215623,1896,1205,14.0248,-1.90998
679,-181,14.0522,1.8772,-0.00600801,-0.00296336,0.00578732,0.00149851,-0.0104699,0.914007,0.00752929,0.025237,1903,1205,14.0522,-1.87725
686,-181,13.9052,2.72998,0,0,0,0,0,0,0,-1,1910,1205,13.9052,-2.72997
693,-181,13.4667,3.01196,-0.00811636,-0.00365331,0.00696092,0.00142502,-0.0131947,0.940512,0.0093079,0.0438118,1917,1205,13.4666,-3.01193
700,-181,13.1561,3.0354,-0.00857547,-0.0037154,0.00703054,0.00129321,-0.0135841,0.951791,0.00951647,0.0470029,1924,1205,13.1561,-3.03543
707,-181,13.0283,3.00012,-0.00856909,-0.0036384,0.00673867,0.00107174,-0.0132792,0.96076,0.00923083,0.024986,1931,1205,13.0283,-3.00015
714,-181,12.957,2.90649,-0.00818602,-0.00334073,0.00622016,0.000911922,-0.0124387,0.971102,0.00861253,0.0187506,1938,1205,12.957,-2.90654
721,-181,12.8877,2.83691,-0.00710964,-0.0028188,0.00545679,0.000899173,-0.0108276,0.972698,0.00753603,0.0132192,1945,1205,12.8877,-2.83687
728,-181,12.8636,2.79187,-0.0052464,-0.00221299,0.00446979,0.000990409,-0.0084498,0.948964,0.00599069,0.0104922,1952,1205,12.8637,-2.79182
735,-181,12.8777,2.71338,-0.0029294,-0.0014447,0.00320471,0.00110252,-0.00547662,0.899212,0.00406869,0.010519,1959,1205,12.8777,-2.71334
742,-181,12.8647,2.63208,7.40632e-05,-2.65707e-05,0.00185679,0.00188121,-0.00183372,0.771852,0.00214488,0.016443,1966,1205,12.8648,-2.63203
749,-181,12.8721,2.54736,0.00327162,0.00145933,0.000327,0.00332881,0.00140214,0.173164,0.00192983,0.015189,1973,1205,12.8721,-2.54735
756,-181,12.8705,2.46643,0.00642743,0.00308494,-0.00069549,0.00656637,0.00294601,-0.197176,0.00379776,0.0108222,1980,1205,12.8705,-2.46647
763,-181,12.8741,2.39417,0.00957343,0.00484886,-0.00125348,0.00988539,0.0045369,-0.243923,0.00571374,0.0113762,1987,1205,12.8741,-2.39417
770,-181,12.8627,2.29114,0,0,0,0,0,0,0,-1,1994,1205,12.8627,-2.29116
777,-181,13.2656,1.97827,0,0,0,0,0,0,0,-1,2001,1205,13.2656,-1.97829
784,-181,13.6686,1.66541,0,0,0,0,0,0,0,-1,2008,1205,13.6686,-1.66543
791,-181,16.5558,3.36328,0,0,0,0,0,0,0,-1,2015,1205,16.5558,-3.36325
798,-181,16.9962,2.50781,0,0,0,0,0,0,0,-1,2022,1205,16.9962,-2.50786
805,-181,0,0,0,0,0,0,0,0,0,-1,2029,1205,0,0
812,-181,0,0,0,0,0,0,0,0,0,-1,2036,1205,0,0
-700,-188,0,0,0,0,0,0,0,0,0,-1,524,1212,0,0
-693,-188,0,0,0,0,0,0,0,0,0,-1,531,1212,0,0
-686,-188,0,0,0,0,0,0,0,0,0,-1,538,1212,0,0
-679,-188,-4.76501,2.94543,0,0,0,0,0,0,0,-1,545,1212,-4.76502,-2.94539
-672,-188,-5.37988,2.35706,0.0270932,0.0548782,-0.0188781,0.0644247,0.0175467,-1.10261,0.0384591,0.0462575,552,1212,-5.37989,-2.35711
-665,-188,-6.04132,1.84851,0.0199067,0.046712,-0.0168645,0.054851,0.0117677,-1.12116,0.0333443,0.0441976,559,1212,-6.0413,-1.84851
-658,-188,-6.63806,1.28772,0.0143302,0.038618,-0.0145958,0.0454612,0.00748694,-1.13238,0.0281457,0.0430844,566,1212,-6.63808,-1.28768
-651,-188,-6.72137,0.815674,0.0100488,0.0310207,-0.012256,0.0366643,0.00440516,-1.13926,0.0231149,0.0471908,573,1212,-6.72136,-0.815613
-644,-188,-6.75189,0.568726,0.00680889,0.0241873,-0.00997025,0.0287234,0.00227282,-1.14382,0.0184381,0.041983,580,1212,-6.75189,-0.568767
-637,-188,-6.78961,0.356079,0.00444014,0.0182752,-0.00785255,0.0218226,0.000892738,-1.14649,0.0142601,0.0212608,587,1212,-6.78963,-0.356139
-630,-188,-6.82263,0.461792,0.00230547,0.0134444,-0.00616315,0.0161818,-0.000431888,-1.15282,0.0109347,0.0107785,594,1212,-6.82263,-0.461816
-623,-188,-6.83093,0.550537,0.000364054,0.00885558,-0.00469857,0.0109425,-0.00172288,-1.15281,0.00793192,0.0111002,601,1212,-6.83094,-0.550494
-616,-188,-6.81555,0.641724,-0.00103433,0.0057982,-0.00400863,0.00764881,-0.00288495,-1.13829,0.00628556,0.0104003,608,1212,-6.81552,-0.641696
-609,-188,-6.79065,0.735596,-0.00224743,0.00198172,-0.00394711,0.00434499,-0.0046107,-1.03131,0.00517133,0.0132844,615,1212,-6.79063,-0.735561
-602,-188,-6.7746,0.851929,-0.00306274,5.90032e-05,-0.0037403,0.00255105,-0.00555479,-0.983069,0.00478582,0.0164229,622,1212,-6.77461,-0.851941
-595,-188,-6.79724,0.959961,-0.00433049,-0.00123636,-0.00380263,0.00132187,-0.00688872,-0.978593,0.00509063,0.0120951,629,1212,-6.79722,-0.960013
-588,-188,-6.81079,1.05847,-0.00545078,-0.00186396,-0.00415415,0.000867369,-0.00818211,-0.989171,0.00576565,0.00933478,636,1212,-6.81079,-1.05852
-581,-188,-6.81165,1.18872,-0.00580745,-0.00245437,-0.00463633,0.000799235,-0.00906105,-0.958888,0.00632397,0.00938712,643,1212,-6.81163,-1.18871
-574,-188,-6.81512,1.25964,-0.00590842,-0.00267632,-0.00495298,0.000917591,-0.00950233,-0.943092,0.00666184,0.0233647,650,1212,-6.81512,-1.25969
-567,-188,-6.93634,1.17847,0,0,0,0,0,0,0,-1,657,1212,-6.93635,-1.17849
-560,-188,-7.85669,0.083252,0,0,0,0,0,0,0,-1,664,1212,-7.85669,-0.0832587
-553,-188,-7.99237,0.197144,-0.00528787,-0.00296453,-0.00502748,0.00103375,-0.00928615,-0.898938,0.00656254,0.0479183,671,1212,-7.99238,-0.197196
-546,-188,-8.10852,0.257935,-0.0043829,-0.00287111,-0.00454713,0.000982522,-0.00823654,-0.867763,0.00584612,0.0395855,678,1212,-8.10852,-0.257899
-539,-188,-8.14825,0.338379,-0.00293173,-0.00261993,-0.00380823,0.00103559,-0.00658725,-0.805856,0.00477429,0.0352038,685,1212,-8.14827,-0.338373
-532,-188,-8.14746,0.362427,-0.000794603,-0.00221351,-0.00276459,0.00135012,-0.00435823,-0.659798,0.00344487,0.0389986,692,1212,-8.14745,-0.362443
-525,-188,-8.11823,0.275635,0.00210266,-0.00159131,-0.00144556,0.00260109,-0.00208974,-0.332038,0.00271361,0.0391212,699,1212,-8.11824,-0.275631
-518,-188,-8.1239,0.234009,0.00544685,-0.000913607,-0.000234092,0.00545546,-0.000922211,-0.036738,0.00398015,0.0408847,706,1212,-8.12388,-0.234048
-511,-188,-8.07825,0.298706,0.00949752,-0.00119888,0.000152743,0.0094997,-0.00120106,0.014276,0.0067691,0.0383291,713,1212,-8.07826,-0.298719
-504,-188,0,0,0,0,0,0,0,0,0,-1,720,1212,0,0
-497,-188,0,0,0,0,0,0,0,0,0,-1,727,1212,0,0
-490,-188,0,0,0,0,0,0,0,0,0,-1,734,1212,0,0
-483,-188,0,0,0,0,0,0,0,0,0,-1,741,1212,0,0
-476,-188,0,0,0,0,0,0,0,0,0,-1,748,1212,0,0
-469,-188,0,0,0,0,0,0,0,0,0,-1,755,1212,0,0
-462,-188,0,0,0,0,0,0,0,0,0,-1,762,1212,0,0
-455,-188,0,0,0,0,0,0,0,0,0,-1,769,1212,0,0
-448,-188,0,0,0,0,0,0,0,0,0,-1,776,1212,0,0
-441,-188,0,0,0,0,0,0,0,0,0,-1,783,1212,0,0
-434,-188,0,0,0,0,0,0,0,0,0,-1,790,1212,0,0
-427,-188,0,0,0,0,0,0,0,0,0,-1,797,1212,0,0
-420,-188,0,0,0,0,0,0,0,0,0,-1,804,1212,0,0
-413,-188,0,0,0,0,0,0,0,0,0,-1,811,1212,0,0
-406,-188,0,0,0,0,0,0,0,0,0,-1,818,1212,0,0
-399,-188,0,0,0,0,0,0,0,0,0,-1,825,1212,0,0
-392,-188,0,0,0,0,0,0,0,0,0,-1,832,1212,0,0
-385,-188,0,0,0,0,0,0,0,0,0,-1,839,1212,0,0
-378,-188,0,0,0,0,0,0,0,0,0,-1,846,1212,0,0
-371,-188,0,0,0,0,0,0,0,0,0,-1,853,1212,0,0
-364,-188,0,0,0,0,0,0,0,0,0,-1,860,1212,0,0
-357,-188,0,0,0,0,0,0,0,0,0,-1,867,1212,0,0
-350,-188,0,0,0,0,0,0,0,0,0,-1,874,1212,0,0
-343,-188,0,0,0,0,0,0,0,0,0,-1,881,1212,0,0
-336,-188,0,0,0,0,0,0,0,0,0,-1,888,1212,0,0
-329,-188,0,0,0,0,0,0,0,0,0,-1,895,1212,0,0
-322,-188,0,0,0,0,0,0,0,0,0,-1,902,1212,0,0
-315,-188,0,0,0,0,0,0,0,0,0,-1,909,1212,0,0
-308,-188,0,0,0,0,0,0,0,0,0,-1,916,1212,0,0
-301,-188,0,0,0,0,0,0,0,0,0,-1,923,1212,0,0
-294,-188,0,0,0,0,0,0,0,0,0,-1,930,1212,0,0
-287,-188,0,0,0,0,0,0,0,0,0,-1,937,1212,0,0
-280,-188,0,0,0,0,0,0,0,0,0,-1,944,1212,0,0
-273,-188,0,0,0,0,0,0,0,0,0,-1,951,1212,0,0
-266,-188,0,0,0,0,0,0,0,0,0,-1,958,1212,0,0
-259,-188,0,0,0,0,0,0,0,0,0,-1,965,1212,0,0
-252,-188,0,0,0,0,0,0,0,0,0,-1,972,1212,0,0
-245,-188,0,0,0,0,0,0,0,0,0,-1,979,1212,0,0
-238,-188,0,0,0,0,0,0,0,0,0,-1,986,1212,0,0
-231,-188,0,0,0,0,0,0,0,0,0,-1,993,1212,0,0
-224,-188,0,0,0,0,0,0,0,0,0,-1,1000,1212,0,0
-217,-188,0,0,0,0,0,0,0,0,0,-1,1007,1212,0,0
-210,-188,0,0,0,0,0,0,0,0,0,-1,1014,1212,0,0
-203,-188,0,0,0,0,0,0,0,0,0,-1,1021,1212,0,0
-196,-188,0,0,0,0,0,0,0,0,0,-1,1028,1212,0,0
-189,-188,0,0,0,0,0,0,0,0,0,-1,1035,1212,0,0
-182,-188,0,0,0,0,0,0,0,0,0,-1,1042,1212,0,0
-175,-188,0,0,0,0,0,0,0,0,0,-1,1049,1212,0,0
-168,-188,0,0,0,0,0,0,0,0,0,-1,1056,1212,0,0
-161,-188,0,0,0,0,0,0,0,0,0,-1,1063,1212,0,0
-154,-188,0,0,0,0,0,0,0,0,0,-1,1070,1212,0,0
-147,-188,0,0,0,0,0,0,0,0,0,-1,1077,1212,0,0
-140,-188,0,0,0,0,0,0,0,0,0,-1,1084,1212,0,0
-133,-188,0,0,0,0,0,0,0,0,0,-1,1091,1212,0,0
-126,-188,0,0,0,0,0,0,0,0,0,-1,1098,1212,0,0
-119,-188,0,0,0,0,0,0,0,0,0,-1,1105,1212,0,0
-112,-188,0,0,0,0,0,0,0,0,0,-1,1112,1212,0,0
-105,-188,0,0,0,0,0,0,0,0,0,-1,1119,1212,0,0
-98,-188,0,0,0,0,0,0,0,0,0,-1,1126,1212,0,0
-91,-188,0,0,0,0,0,0,0,0,0,-1,1133,1212,0,0
-84,-188,0,0,0,0,0,0,0,0,0,-1,1140,1212,0,0
-77,-188,0,0,0,0,0,0,0,0,0,-1,1147,1212,0,0
-70,-188,0,0,0,0,0,0,0,0,0,-1,1154,1212,0,0
-63,-188,0,0,0,0,0,0,0,0,0,-1,1161,1212,0,0
-56,-188,0,0,0,0,0,0,0,0,0,-1,1168,1212,0,0
-49,-188,0,0,0,0,0,0,0,0,0,-1,1175,1212,0,0
-42,-188,0,0,0,0,0,0,0,0,0,-1,1182,1212,0,0
-35,-188,0,0,0,0,0,0,0,0,0,-1,1189,1212,0,0
-28,-188,0,0,0,0,0,0,0,0,0,-1,1196,1212,0,0
-21,-188,0,0,0,0,0,0,0,0,0,-1,1203,1212,0,0
-14,-188,0,0,0,0,0,0,0,0,0,-1,1210,1212,0,0
-7,-188,0,0,0,0,0,0,0,0,0,-1,1217,1212,0,0
0,-188,0,0,0,0,0,0,0,0,0,-1,1224,1212,0,0
7,-188,0,0,0,0,0,0,0,0,0,-1,1231,1212,0,0
14,-188,0,0,0,0,0,0,0,0,0,-1,1238,1212,0,0
21,-188,0,0,0,0,0,0,0,0,0,-1,1245,1212,0,0
28,-188,0,0,0,0,0,0,0,0,0,-1,1252,1212,0,0
35,-188,0,0,0,0,0,0,0,0,0,-1,1259,1212,0,0
42,-188,0,0,0,0,0,0,0,0,0,-1,1266,1212,0,0
49,-188,0,0,0,0,0,0,0,0,0,-1,1273,1212,0,0
56,-188,0,0,0,0,0,0,0,0,0,-1,1280,1212,0,0
63,-188,0,0,0,0,0,0,0,0,0,-1,1287,1212,0,0
70,-188,0,0,0,0,0,0,0,0,0,-1,1294,1212,0,0
77,-188,0,0,0,0,0,0,0,0,0,-1,1301,1212,0,0
84,-188,0,0,0,0,0,0,0,0,0,-1,1308,1212,0,0
91,-188,0,0,0,0,0,0,0,0,0,-1,1315,1212,0,0
98,-188,0,0,0,0,0,0,0,0,0,-1,1322,1212,0,0
105,-188,0,0,0,0,0,0,0,0,0,-1,1329,1212,0,0
112,-188,0,0,0,0,0,0,0,0,0,-1,1336,1212,0,0
119,-188,0,0,0,0,0,0,0,0,0,-1,1343,1212,0,0
126,-188,0,0,0,0,0,0,0,0,0,-1,1350,1212,0,0
133,-188,0,0,0,0,0,0,0,0,0,-1,1357,1212,0,0
140,-188,0,0,0,0,0,0,0,0,0,-1,1364,1212,0,0
147,-188,0,0,0,0,0,0,0,0,0,-1,1371,1212,0,0
154,-188,0,0,0,0,0,0,0,0,0,-1,1378,1212,0,0
161,-188,0,0,0,0,0,0,0,0,0,-1,1385,1212,0,0
168,-188,0,0,0,0,0,0,0,0,0,-1,1392,1212,0,0
175,-188,0,0,0,0,0,0,0,0,0,-1,1399,1212,0,0
182,-188,0,0,0,0,0,0,0,0,0,-1,1406,1212,0,0
189,-188,0,0,0,0,0,0,0,0,0,-1,1413,1212,0,0
196,-188,0,0,0,0,0,0,0,0,0,-1,1420,1212,0,0
203,-188,0,0,0,0,0,0,0,0,0,-1,1427,1212,0,0
210,-188,0,0,0,0,0,0,0,0,0,-1,1434,1212,0,0
217,-188,0,0,0,0,0,0,0,0,0,-1,1441,1212,0,0
224,-188,0,0,0,0,0,0,0,0,0,-1,1448,1212,0,0
231,-188,0,0,0,0,0,0,0,0,0,-1,1455,1212,0,0
238,-188,0,0,0,0,0,0,0,0,0,-1,1462,1212,0,0
245,-188,0,0,0,0,0,0,0,0,0,-1,1469,1212,0,0
252,-188,0,0,0,0,0,0,0,0,0,-1,1476,1212,0,0
259,-188,0,0,0,0,0,0,0,0,0,-1,1483,1212,0,0
266,-188,0,0,0,0,0,0,0,0,0,-1,1490,1212,0,0
273,-188,0,0,0,0,0,0,0,0,0,-1,1497,1212,0,0
280,-188,0,0,0,0,0,0,0,0,0,-1,1504,1212,0,0
287,-188,0,0,0,0,0,0,0,0,0,-1,1511,1212,0,0
294,-188,0,0,0,0,0,0,0,0,0,-1,1518,1212,0,0
301,-188,0,0,0,0,0,0,0,0,0,-1,1525,1212,0,0
308,-188,0,0,0,0,0,0,0,0,0,-1,1532,1212,0,0
315,-188,0,0,0,0,0,0,0,0,0,-1,1539,1212,0,0
322,-188,0,0,0,0,0,0,0,0,0,-1,1546,1212,0,0
329,-188,0,0,0,0,0,0,0,0,0,-1,1553,1212,0,0
336,-188,0,0,0,0,0,0,0,0,0,-1,1560,1212,0,0
343,-188,0,0,0,0,0,0,0,0,0,-1,1567,1212,0,0
350,-188,0,0,0,0,0,0,0,0,0,-1,1574,1212,0,0
357,-188,0,0,0,0,0,0,0,0,0,-1,1581,1212,0,0
364,-188,0,0,0,0,0,0,0,0,0,-1,1588,1212,0,0
371,-188,0,0,0,0,0,0,0,0,0,-1,1595,1212,0,0
378,-188,0,0,0,0,0,0,0,0,0,-1,1602,1212,0,0
385,-188,0,0,0,0,0,0,0,0,0,-1,1609,1212,0,0
392,-188,0,0,0,0,0,0,0,0,0,-1,1616,1212,0,0
399,-188,0,0,0,0,0,0,0,0,0,-1,1623,1212,0,0
406,-188,0,0,0,0,0,0,0,0,0,-1,1630,1212,0,0
413,-188,0,0,0,0,0,0,0,0,0,-1,1637,1212,0,0
420,-188,0,0,0,0,0,0,0,0,0,-1,1644,1212,0,0
427,-188,0,0,0,0,0,0,0,0,0,-1,1651,1212,0,0
434,-188,0,0,0,0,0,0,0,0,0,-1,1658,1212,0,0
441,-188,0,0,0,0,0,0,0,0,0,-1,1665,1212,0,0
448,-188,0,0,0,0,0,0,0,0,0,-1,1672,1212,0,0
455,-188,0,0,0,0,0,0,0,0,0,-1,1679,1212,0,0
462,-188,0,0,0,0,0,0,0,0,0,-1,1686,1212,0,0
469,-188,0,0,0,0,0,0,0,0,0,-1,1693,1212,0,0
476,-188,0,0,0,0,0,0,0,0,0,-1,1700,1212,0,0
483,-188,0,0,0,0,0,0,0,0,0,-1,1707,1212,0,0
490,-188,0,0,0,0,0,0,0,0,0,-1,1714,1212,0,0
497,-188,0,0,0,0,0,0,0,0,0,-1,1721,1212,0,0
504,-188,0,0,0,0,0,0,0,0,0,-1,1728,1212,0,0
511,-188,0,0,0,0,0,0,0,0,0,-1,1735,1212,0,0
518,-188,0,0,0,0,0,0,0,0,0,-1,1742,1212,0,0
525,-188,0,0,0,0,0,0,0,0,0,-1,1749,1212,0,0
532,-188,0,0,0,0,0,0,0,0,0,-1,1756,1212,0,0
539,-188,0,0,0,0,0,0,0,0,0,-1,1763,1212,0,0
546,-188,0,0,0,0,0,0,0,0,0,-1,1770,1212,0,0
553,-188,0,0,0,0,0,0,0,0,0,-1,1777,1212,0,0
560,-188,0,0,0,0,0,0,0,0,0,-1,1784,1212,0,0
567,-188,0,0,0,0,0,0,0,0,0,-1,1791,1212,0,0
574,-188,0,0,0,0,0,0,0,0,0,-1,1798,1212,0,0
581,-188,0,0,0,0,0,0,0,0,0,-1,1805,1212,0,0
588,-188,0,0,0,0,0,0,0,0,0,-1,1812,1212,0,0
595,-188,0,0,0,0,0,0,0,0,0,-1,1819,1212,0,0
602,-188,0,0,0,0,0,0,0,0,0,-1,1826,1212,0,0
609,-188,0,0,0,0,0,0,0,0,0,-1,1833,1212,0,0
616,-188,0,0,0,0,0,0,0,0,0,-1,1840,1212,0,0
623,-188,0,0,0,0,0,0,0,0,0,-1,1847,1212,0,0
630,-188,14.127,2.13989,-0.00636203,0.000124407,0.00253976,0.00100051,-0.00723814,1.23862,0.00519117,0.0403734,1854,1212,14.127,-2.13986
637,-188,13.9858,1.92847,-0.00224834,0.000461675,0.00109987,0.000851876,-0.00263854,1.22988,0.00210136,0.037622,1861,1212,13.9858,-1.92844
644,-188,13.9684,2.02698,0.000304902,0.000617821,0.000233268,0.000742242,0.000180481,1.0808,0.000446983,0.0316865,1868,1212,13.9684,-2.02698
651,-188,13.9816,2.02246,0.000496611,-3.52234e-06,0.000891884,0.00117282,-0.000679733,0.648717,0.00108213,0.0291764,1875,1212,13.9815,-2.02251
658,-188,13.9624,1.9259,-0.000470954,-0.000848867,0.00208702,0.00143565,-0.00275547,0.740252,0.00245941,0.0311356,1882,1212,13.9623,-1.92594
665,-188,13.9868,1.91614,-0.00185878,-0.00168202,0.00332349,0.00155426,-0.00509507,0.798691,0.00401633,0.027139,1889,1212,13.9869,-1.91619
672,-188,14.0402,1.92639,-0.0034022,-0.00246361,0.00447806,0.00156968,-0.00743549,0.837607,0.00555465,0.0204125,1896,1212,14.0401,-1.92636
679,-188,14.0309,1.83081,-0.00487895,-0.00303954,0.00545396,0.00157171,-0.00949021,0.868928,0.00691055,0.0387222,1903,1212,14.0309,-1.83079
686,-188,13.9991,1.63452,-0.00602477,-0.0034592,0.0061727,0.00156261,-0.0110466,0.887848,0.00793669,0.0392204,1910,1212,13.9991,-1.63452
693,-188,13.0648,2.54944,-0.00695603,-0.00366955,0.00662193,0.00150998,-0.0121356,0.907017,0.00863781,0.040088,1917,1212,13.0648,-2.54949
700,-188,12.9589,2.91333,-0.00752881,-0.00371424,0.00673129,0.00137476,-0.0126178,0.923453,0.00890557,0.0339645,1924,1212,12.9588,-2.91336
707,-188,12.8467,3.00256,-0.00767065,-0.00363329,0.00647127,0.00112685,-0.0124308,0.936588,0.00868721,0.0126253,1931,1212,12.8466,-3.00256
714,-188,12.823,2.93335,-0.00743654,-0.00329964,0.00594701,0.000928368,-0.0116646,0.952761,0.00810357,0.010326,1938,1212,12.823,-2.93331
721,-188,12.7802,2.87891,-0.00645463,-0.00269855,0.00518457,0.000937653,-0.0100908,0.959165,0.00706056,0.0105617,1945,1212,12.7801,-2.87893
728,-188,12.7719,2.80127,-0.004652,-0.00205531,0.00427393,0.00111313,-0.00782044,0.93286,0.00562152,0.00898642,1952,1212,12.7718,-2.80127
735,-188,12.7595,2.71375,-0.00240947,-0.0012057,0.00312772,0.00137752,-0.00499269,0.880454,0.00387023,0.0117937,1959,1212,12.7595,-2.71369
742,-188,12.7649,2.61499,0.00057982,0.000268257,0.00200389,0.00243398,-0.0015859,0.746606,0.00233803,0.0132774,1966,1212,12.7649,-2.61497
749,-188,12.7925,2.54639,0.00373668,0.0017313,0.000779261,0.00400388,0.00146409,0.330332,0.00233929,0.0128464,1973,1212,12.7925,-2.5464
756,-188,12.7876,2.46899,0.00688209,0.00325513,0.000163018,0.0068894,0.00324782,0.0448258,0.00397976,0.0116479,1980,1212,12.7877,-2.46894
763,-188,12.7842,2.3927,0.0100914,0.00498815,7.44567e-05,0.0100925,0.00498706,0.0145859,0.00582703,0.0130926,1987,1212,12.7842,-2.39265
770,-188,12.8126,2.2854,0,0,0,0,0,0,0,-1,1994,1212,12.8126,-2.2854
777,-188,13.2023,1.97205,0,0,0,0,0,0,0,-1,2001,1212,13.2023,-1.9721
784,-188,13.592,1.65881,0,0,0,0,0,0,0,-1,2008,1212,13.5921,-1.65881
791,-188,15.5488,3.13049,0.0292261,0.0200053,0.00109676,0.0293548,0.0198766,0.116773,0.0172988,0.0439721,2015,1212,15.5488,-3.13046
798,-188,16.024,2.18652,0,0,0,0,0,0,0,-1,2022,1212,16.024,-2.18652
805,-188,0,0,0,0,0,0,0,0,0,-1,2029,1212,0,0
812,-188,0,0,0,0,0,0,0,0,0,-1,2036,1212,0,0
-700,-195,0,0,0,0,0,0,0,0,0,-1,524,1219,0,0
-693,-195,0,0,0,0,0,0,0,0,0,-1,531,1219,0,0
-686,-195,0,0,0,0,0,0,0,0,0,-1,538,1219,0,0
-679,-195,-4.53601,2.72949,0,0,0,0,0,0,0,-1,545,1219,-4.53601,-2.72951
-672,-195,-5.16571,2.24365,0.0231262,0.0609839,-0.0217455,0.070885,0.013225,-1.14353,0.0435233,0.0445828,552,1219,-5.16569,-2.24367
-665,-195,-6.76733,0.5,0.0172603,0.0516007,-0.0183144,0.059535,0.00932609,-1.16198,0.0369754,0.0488864,559,1219,-6.76733,-0.499946
-658,-195,-6.83026,0.61145,0.0126924,0.0424665,-0.0150984,0.0487829,0.00637595,-1.17457,0.0306187,0.045689,566,1219,-6.83023,-0.611403
-651,-195,-6.7395,0.709351,0.00914961,0.0340143,-0.0121843,0.0389894,0.00417451,-1.18314,0.0247192,0.0456263,573,1219,-6.73952,-0.709386
-644,-195,-6.56812,0.403809,0.00640528,0.0264939,-0.00959885,0.030343,0.0025562,-1.18943,0.0194327,0.0416735,580,1219,-6.56814,-0.403833
-637,-195,-6.62866,0.354614,0.00433236,0.0200338,-0.00737054,0.0229515,0.00141468,-1.19387,0.0148519,0.0208071,587,1219,-6.62864,-0.354609
-630,-195,-6.69855,0.454468,0.00246583,0.0148148,-0.00558563,0.0169664,0.000314247,-1.20311,0.0112077,0.00791006,594,1219,-6.69857,-0.454525
-623,-195,-6.72009,0.543701,0.00075052,0.0099314,-0.00409985,0.0114957,-0.000813789,-1.20629,0.00794897,0.00792145,601,1219,-6.72012,-0.543695
-616,-195,-6.71429,0.645752,-0.000341144,0.00658712,-0.00339604,0.0079741,-0.00172813,-1.18306,0.00597599,0.0101012,608,1219,-6.71431,-0.64576
-609,-195,-6.69824,0.743652,-0.00141176,0.00266459,-0.00330125,0.00450616,-0.00325333,-1.06195,0.00449937,0.0172571,615,1219,-6.69825,-0.743598
-602,-195,-6.70123,0.84375,-0.00212808,0.000608993,-0.00308962,0.0026196,-0.00413869,-0.993885,0.00393462,0.0203381,622,1219,-6.70121,-0.843743
-595,-195,-6.73492,0.971191,-0.00324523,-0.000732712,-0.00314427,0.00139698,-0.00537492,-0.975453,0.00412849,0.0149829,629,1219,-6.73493,-0.971154
-588,-195,-6.71222,1.06812,-0.00436661,-0.00143768,-0.00344783,0.000843813,-0.0066481,-0.986227,0.00473845,0.00778492,636,1219,-6.71221,-1.06811
-581,-195,-6.70203,1.14868,-0.00473231,-0.00210024,-0.00386548,0.000667087,-0.00749964,-0.949472,0.0052363,0.00892262,643,1219,-6.70205,-1.14865
-574,-195,-6.6759,1.18738,-0.00484593,-0.00239348,-0.00414916,0.000706859,-0.00794626,-0.929076,0.00554816,0.0221618,650,1219,-6.67588,-1.18739
-567,-195,-6.4411,1.07458,-0.00494289,-0.00272413,-0.00432444,0.000630963,-0.00829799,-0.910959,0.00575385,0.0414084,657,1219,-6.44107,-1.07459
-560,-195,-8.01624,0.496582,0,0,0,0,0,0,0,-1,664,1219,-8.01622,-0.496581
-553,-195,-8.05908,0.416138,-0.00455331,-0.00302996,-0.00438148,0.000655556,-0.00823882,-0.871458,0.00572359,0.0444406,671,1219,-8.05906,-0.416119
-546,-195,-8.04285,0.323853,-0.00397664,-0.00314625,-0.00410954,0.000569015,-0.00769191,-0.835743,0.00532775,0.0417314,678,1219,-8.04284,-0.323832
-539,-195,-8.11249,0.321899,-0.00292426,-0.00311755,-0.00370092,0.000681277,-0.00672309,-0.772344,0.00472555,0.035173,685,1219,-8.11249,-0.32196
-532,-195,-8.12366,0.337769,-0.00124443,-0.00293209,-0.00312124,0.00114503,-0.00532155,-0.653378,0.0039846,0.0336296,692,1219,-8.12363,-0.337806
-525,-195,-8.06085,0.271729,0.00123536,-0.00249103,-0.00238991,0.00240254,-0.0036582,-0.454307,0.00352411,0.0379941,699,1219,-8.06086,-0.271767
-518,-195,-8.10156,0.223022,0.00447858,-0.00179624,-0.00176444,0.0049407,-0.00225835,-0.256152,0.00425145,0.0405137,706,1219,-8.10155,-0.223058
-511,-195,-8.10876,0.251343,0.00897706,-0.00154223,-0.00172489,0.00925268,-0.00181785,-0.158448,0.00685522,0.0395635,713,1219,-8.10879,-0.251311
-504,-195,0,0,0,0,0,0,0,0,0,-1,720,1219,0,0
-497,-195,0,0,0,0,0,0,0,0,0,-1,727,1219,0,0
-490,-195,0,0,0,0,0,0,0,0,0,-1,734,1219,0,0
-483,-195,0,0,0,0,0,0,0,0,0,-1,741,1219,0,0
-476,-195,0,0,0,0,0,0,0,0,0,-1,748,1219,0,0
-469,-195,0,0,0,0,0,0,0,0,0,-1,755,1219,0,0
-462,-195,0,0,0,0,0,0,0,0,0,-1,762,1219,0,0
-455,-195,0,0,0,0,0,0,0,0,0,-1,769,1219,0,0
-448,-195,0,0,0,0,0,0,0,0,0,-1,776,1219,0,0
-441,-195,0,0,0,0,0,0,0,0,0,-1,783,1219,0,0
-434,-195,0,0,0,0,0,0,0,0,0,-1,790,1219,0,0
-427,-195,0,0,0,0,0,0,0,0,0,-1,797,1219,0,0
-420,-195,0,0,0,0,0,0,0,0,0,-1,804,1219,0,0
-413,-195,0,0,0,0,0,0,0,0,0,-1,811,1219,0,0
-406,-195,0,0,0,0,0,0,0,0,0,-1,818,1219,0,0
-399,-195,0,0,0,0,0,0,0,0,0,-1,825,1219,0,0
-392,-195,0,0,0,0,0,0,0,0,0,-1,832,1219,0,0
-385,-195,0,0,0,0,0,0,0,0,0,-1,839,1219,0,0
-378,-195,0,0,0,0,0,0,0,0,0,-1,846,1219,0,0
-371,-195,0,0,0,0,0,0,0,0,0,-1,853,1219,0,0
-364,-195,0,0,0,0,0,0,0,0,0,-1,860,1219,0,0
-357,-195,0,0,0,0,0,0,0,0,0,-1,867,1219,0,0
-350,-195,0,0,0,0,0,0,0,0,0,-1,874,1219,0,0
-343,-195,0,0,0,0,0,0,0,0,0,-1,881,1219,0,0
-336,-195,0,0,0,0,0,0,0,0,0,-1,888,1219,0,0
-329,-195,0,0,0,0,0,0,0,0,0,-1,895,1219,0,0
-322,-195,0,0,0,0,0,0,0,0,0,-1,902,1219,0,0
-315,-195,0,0,0,0,0,0,0,0,0,-1,909,1219,0,0
-308,-195,0,0,0,0,0,0,0,0,0,-1,916,1219,0,0
-301,-195,0,0,0,0,0,0,0,0,0,-1,923,1219,0,0
-294,-195,0,0,0,0,0,0,0,0,0,-1,930,1219,0,0
-287,-195,0,0,0,0,0,0,0,0,0,-1,937,1219,0,0
-280,-195,0,0,0,0,0,0,0,0,0,-1,944,1219,0,0
-273,-195,0,0,0,0,0,0,0,0,0,-1,951,1219,0,0
-266,-195,0,0,0,0,0,0,0,0,0,-1,958,1219,0,0
-259,-195,0,0,0,0,0,0,0,0,0,-1,965,1219,0,0
-252,-195,0,0,0,0,0,0,0,0,0,-1,972,1219,0,0
-245,-195,0,0,0,0,0,0,0,0,0,-1,979,1219,0,0
-238,-195,0,0,0,0,0,0,0,0,0,-1,986,1219,0,0
-231,-195,0,0,0,0,0,0,0,0,0,-1,993,1219,0,0
-224,-195,0,0,0,0,0,0,0,0,0,-1,1000,1219,0,0
-217,-195,0,0,0,0,0,0,0,0,0,-1,1007,1219,0,0
-210,-195,0,0,0,0,0,0,0,0,0,-1,1014,1219,0,0
-203,-195,0,0,0,0,0,0,0,0,0,-1,1021,1219,0,0
-196,-195,0,0,0,0,0,0,0,0,0,-1,1028,1219,0,0
-189,-195,0,0,0,0,0,0,0,0,0,-1,1035,1219,0,0
-182,-195,0,0,0,0,0,0,0,0,0,-1,1042,1219,0,0
-175,-195,0,0,0,0,0,0,0,0,0,-1,1049,1219,0,0
-168,-195,0,0,0,0,0,0,0,0,0,-1,1056,1219,0,0
-161,-195,0,0,0,0,0,0,0,0,0,-1,1063,1219,0,0
-154,-195,0,0,0,0,0,0,0,0,0,-1,1070,1219,0,0
-147,-195,0,0,0,0,0,0,0,0,0,-1,1077,1219,0,0
-140,-195,0,0,0,0,0,0,0,0,0,-1,1084,1219,0,0
-133,-195,0,0,0,0,0,0,0,0,0,-1,1091,1219,0,0
-126,-195,0,0,0,0,0,0,0,0,0,-1,1098,1219,0,0
-119,-195,0,0,0,0,0,0,0,0,0,-1,1105,1219,0,0
-112,-195,0,0,0,0,0,0,0,0,0,-1,1112,1219,0,0
-105,-195,0,0,0,0,0,0,0,0,0,-1,1119,1219,0,0
-98,-195,0,0,0,0,0,0,0,0,0,-1,1126,1219,0,0
-91,-195,0,0,0,0,0,0,0,0,0,-1,1133,1219,0,0
-84,-195,0,0,0,0,0,0,0,0,0,-1,1140,1219,0,0
-77,-195,0,0,0,0,0,0,0,0,0,-1,1147,1219,0,0
-70,-195,0,0,0,0,0,0,0,0,0,-1,1154,1219,0,0
-63,-195,0,0,0,0,0,0,0,0,0,-1,1161,1219,0,0
-56,-195,0,0,0,0,0,0,0,0,0,-1,1168,1219,0,0
-49,-195,0,0,0,0,0,0,0,0,0,-1,1175,1219,0,0
-42,-195,0,0,0,0,0,0,0,0,0,-1,1182,1219,0,0
-35,-195,0,0,0,0,0,0,0,0,0,-1,1189,1219,0,0
-28,-195,0,0,0,0,0,0,0,0,0,-1,1196,1219,0,0
-21,-195,0,0,0,0,0,0,0,0,0,-1,1203,1219,0,0
-14,-195,0,0,0,0,0,0,0,0,0,-1,1210,1219,0,0
-7,-195,0,0,0,0,0,0,0,0,0,-1,1217,1219,0,0
0,-195,0,0,0,0,0,0,0,0,0,-1,1224,1219,0,0
7,-195,0,0,0,0,0,0,0,0,0,-1,1231,1219,0,0
14,-195,0,0,0,0,0,0,0,0,0,-1,1238,1219,0,0
21,-195,0,0,0,0,0,0,0,0,0,-1,1245,1219,0,0
28,-195,0,0,0,0,0,0,0,0,0,-1,1252,1219,0,0
35,-195,0,0,0,0,0,0,0,0,0,-1,1259,1219,0,0
42,-195,0,0,0,0,0,0,0,0,0,-1,1266,1219,0,0
49,-195,0,0,0,0,0,0,0,0,0,-1,1273,1219,0,0
56,-195,0,0,0,0,0,0,0,0,0,-1,1280,1219,0,0
63,-195,0,0,0,0,0,0,0,0,0,-1,1287,1219,0,0
70,-195,0,0,0,0,0,0,0,0,0,-1,1294,1219,0,0
77,-195,0,0,0,0,0,0,0,0,0,-1,1301,1219,0,0
84,-195,0,0,0,0,0,0,0,0,0,-1,1308,1219,0,0
91,-195,0,0,0,0,0,0,0,0,0,-1,1315,1219,0,0
98,-195,0,0,0,0,0,0,0,0,0,-1,1322,1219,0,0
105,-195,0,0,0,0,0,0,0,0,0,-1,1329,1219,0,0
112,-195,0,0,0,0,0,0,0,0,0,-1,1336,1219,0,0
119,-195,0,0,0,0,0,0,0,0,0,-1,1343,1219,0,0
126,-195,0,0,0,0,0,0,0,0,0,-1,1350,1219,0,0
133,-195,0,0,0,0,0,0,0,0,0,-1,1357,1219,0,0
140,-195,0,0,0,0,0,0,0,0,0,-1,1364,1219,0,0
147,-195,0,0,0,0,0,0,0,0,0,-1,1371,1219,0,0
154,-195,0,0,0,0,0,0,0,0,0,-1,1378,1219,0,0
161,-195,0,0,0,0,0,0,0,0,0,-1,1385,1219,0,0
168,-195,0,0,0,0,0,0,0,0,0,-1,1392,1219,0,0
175,-195,0,0,0,0,0,0,0,0,0,-1,1399,1219,0,0
182,-195,0,0,0,0,0,0,0,0,0,-1,1406,1219,0,0
189,-195,0,0,0,0,0,0,0,0,0,-1,1413,1219,0,0
196,-195,0,0,0,0,0,0,0,0,0,-1,1420,1219,0,0
203,-195,0,0,0,0,0,0,0,0,0,-1,1427,1219,0,0
210,-195,0,0,0,0,0,0,0,0,0,-1,1434,1219,0,0
217,-195,0,0,0,0,0,0,0,0,0,-1,1441,1219,0,0
224,-195,0,0,0,0,0,0,0,0,0,-1,1448,1219,0,0
231,-195,0,0,0,0,0,0,0,0,0,-1,1455,1219,0,0
238,-195,0,0,0,0,0,0,0,0,0,-1,1462,1219,0,0
245,-195,0,0,0,0,0,0,0,0,0,-1,1469,1219,0,0
252,-195,0,0,0,0,0,0,0,0,0,-1,1476,1219,0,0
259,-195,0,0,0,0,0,0,0,0,0,-1,1483,1219,0,0
266,-195,0,0,0,0,0,0,0,0,0,-1,1490,1219,0,0
273,-195,0,0,0,0,0,0,0,0,0,-1,1497,1219,0,0
280,-195,0,0,0,0,0,0,0,0,0,-1,1504,1219,0,0
287,-195,0,0,0,0,0,0,0,0,0,-1,1511,1219,0,0
294,-195,0,0,0,0,0,0,0,0,0,-1,1518,1219,0,0
301,-195,0,0,0,0,0,0,0,0,0,-1,1525,1219,0,0
308,-195,0,0,0,0,0,0,0,0,0,-1,1532,1219,0,0
315,-195,0,0,0,0,0,0,0,0,0,-1,1539,1219,0,0
322,-195,0,0,0,0,0,0,0,0,0,-1,1546,1219,0,0
329,-195,0,0,0,0,0,0,0,0,0,-1,1553,1219,0,0
336,-195,0,0,0,0,0,0,0,0,0,-1,1560,1219,0,0
343,-195,0,0,0,0,0,0,0,0,0,-1,1567,1219,0,0
350,-195,0,0,0,0,0,0,0,0,0,-1,1574,1219,0,0
357,-195,0,0,0,0,0,0,0,0,0,-1,1581,1219,0,0
364,-195,0,0,0,0,0,0,0,0,0,-1,1588,1219,0,0
371,-195,0,0,0,0,0,0,0,0,0,-1,1595,1219,0,0
378,-195,0,0,0,0,0,0,0,0,0,-1,1602,1219,0,0
385,-195,0,0,0,0,0,0,0,0,0,-1,1609,1219,0,0
392,-195,0,0,0,0,0,0,0,0,0,-1,1616,1219,0,0
399,-195,0,0,0,0,0,0,0,0,0,-1,1623,1219,0,0
406,-195,0,0,0,0,0,0,0,0,0,-1,1630,1219,0,0
413,-195,0,0,0,0,0,0,0,0,0,-1,1637,1219,0,0
420,-195,0,0,0,0,0,0,0,0,0,-1,1644,1219,0,0
427,-195,0,0,0,0,0,0,0,0,0,-1,1651,1219,0,0
434,-195,0,0,0,0,0,0,0,0,0,-1,1658,1219,0,0
441,-195,0,0,0,0,0,0,0,0,0,-1,1665,1219,0,0
448,-195,0,0,0,0,0,0,0,0,0,-1,1672,1219,0,0
455,-195,0,0,0,0,0,0,0,0,0,-1,1679,1219,0,0
462,-195,0,0,0,0,0,0,0,0,0,-1,1686,1219,0,0
469,-195,0,0,0,0,0,0,0,0,0,-1,1693,1219,0,0
476,-195,0,0,0,0,0,0,0,0,0,-1,1700,1219,0,0
483,-195,0,0,0,0,0,0,0,0,0,-1,1707,1219,0,0
490,-195,0,0,0,0,0,0,0,0,0,-1,1714,1219,0,0
497,-195,0,0,0,0,0,0,0,0,0,-1,1721,1219,0,0
504,-195,0,0,0,0,0,0,0,0,0,-1,1728,1219,0,0
511,-195,0,0,0,0,0,0,0,0,0,-1,1735,1219,0,0
518,-195,0,0,0,0,0,0,0,0,0,-1,1742,1219,0,0
525,-195,0,0,0,0,0,0,0,0,0,-1,1749,1219,0,0
532,-195,0,0,0,0,0,0,0,0,0,-1,1756,1219,0,0
539,-195,0,0,0,0,0,0,0,0,0,-1,1763,1219,0,0
546,-195,0,0,0,0,0,0,0,0,0,-1,1770,1219,0,0
553,-195,0,0,0,0,0,0,0,0,0,-1,1777,1219,0,0
560,-195,0,0,0,0,0,0,0,0,0,-1,1784,1219,0,0
567,-195,0,0,0,0,0,0,0,0,0,-1,1791,1219,0,0
574,-195,0,0,0,0,0,0,0,0,0,-1,1798,1219,0,0
581,-195,0,0,0,0,0,0,0,0,0,-1,1805,1219,0,0
588,-195,0,0,0,0,0,0,0,0,0,-1,1812,1219,0,0
595,-195,0,0,0,0,0,0,0,0,0,-1,1819,1219,0,0
602,-195,0,0,0,0,0,0,0,0,0,-1,1826,1219,0,0
609,-195,0,0,0,0,0,0,0,0,0,-1,1833,1219,0,0
616,-195,0,0,0,0,0,0,0,0,0,-1,1840,1219,0,0
623,-195,0,0,0,0,0,0,0,0,0,-1,1847,1219,0,0
630,-195,14.0697,1.8208,-0.0060605,3.74733e-05,0.00199907,0.000634388,-0.00665741,1.28063,0.00466414,0.0420074,1854,1219,14.0697,-1.82074
637,-195,14.0432,1.81812,-0.00206633,0.000417436,0.000523994,0.000523456,-0.00217235,1.37116,0.00165062,0.0390231,1861,1219,14.0432,-1.81815
644,-195,14.0588,1.89368,0.000362408,0.000382881,-9.3504e-05,0.000466707,0.000278582,-0.839918,0.000271135,0.0337456,1868,1219,14.0588,-1.89362
651,-195,14.0769,1.87939,0.000702018,-0.000336049,0.000645016,0.0010109,-0.000644929,0.446603,0.000963744,0.0268662,1875,1219,14.0769,-1.87942
658,-195,14.0674,1.86658,8.60132e-05,-0.00117664,0.001761,0.00132543,-0.00241606,0.613283,0.00219053,0.0244498,1882,1219,14.0674,-1.86657
665,-195,14.0504,1.8927,-0.00095856,-0.00198409,0.00290383,0.00147743,-0.00442008,0.698008,0.0035434,0.0211009,1889,1219,14.0504,-1.89273
672,-195,14.0688,1.88013,-0.00220544,-0.00273289,0.00396517,0.00150476,-0.0064431,0.752192,0.00487502,0.0289573,1896,1219,14.0688,-1.88008
679,-195,14.076,1.75708,-0.00346238,-0.00324125,0.00487042,0.00151986,-0.00822349,0.796747,0.00605289,0.0432501,1903,1219,14.0761,-1.75711
686,-195,13.9431,1.6311,-0.00450183,-0.00361194,0.00556183,0.00152272,-0.00963649,0.825313,0.00698743,0.0425359,1910,1219,13.9431,-1.63115
693,-195,13.0933,2.73914,-0.00542891,-0.00377975,0.00603987,0.00149157,-0.0107002,0.85324,0.00767911,0.0413714,1917,1219,13.0933,-2.73909
700,-195,12.7485,3.04224,-0.00608177,-0.00378971,0.00620883,0.00137797,-0.0112494,0.876661,0.00799862,0.0235041,1924,1219,12.7485,-3.04224
707,-195,12.6917,3.04346,-0.00636897,-0.00366039,0.00599564,0.00113202,-0.0111614,0.896474,0.00784552,0.0118053,1931,1219,12.6916,-3.04342
714,-195,12.7008,2.95715,-0.00632912,-0.00324143,0.00548984,0.000917512,-0.0104881,0.922467,0.00731708,0.0138829,1938,1219,12.7008,-2.95713
721,-195,12.7004,2.89355,-0.00552204,-0.00255705,0.00476148,0.000947379,-0.00902648,0.936318,0.00635702,0.0116646,1945,1219,12.7004,-2.89357
728,-195,12.6926,2.82104,-0.00391306,-0.00188658,0.00397323,0.00120057,-0.00700021,0.910246,0.00511419,0.00974881,1952,1219,12.6927,-2.82103
735,-195,12.6678,2.70251,-0.00191965,-0.00101344,0.0030446,0.00161158,-0.00454467,0.859267,0.00368633,0.0121615,1959,1219,12.6679,-2.70248
742,-195,12.6819,2.6134,0.000862656,0.000424106,0.00219826,0.00285255,-0.00156579,0.735688,0.00258673,0.0132157,1966,1219,12.6819,-2.61339
749,-195,12.7113,2.55432,0.00379754,0.00180177,0.00134529,0.00447464,0.00112467,0.466294,0.00268781,0.012963,1973,1219,12.7113,-2.55434
756,-195,12.6982,2.46655,0.0067141,0.00312266,0.00126549,0.00711521,0.00272155,0.306945,0.00414561,0.0129551,1980,1219,12.6982,-2.46656
763,-195,12.6886,2.35754,0.00976732,0.00466445,0.00178352,0.0103289,0.00410288,0.305036,0.00600523,0.0137431,1987,1219,12.6886,-2.3575
770,-195,12.7424,2.29932,0.0134626,0.00674042,0.00263622,0.0143731,0.00582991,0.332558,0.00834746,0.0254326,1994,1219,12.7424,-2.29933
777,-195,13.2007,1.97302,0.0179041,0.00953521,0.00387101,0.01942,0.00801927,0.373255,0.0112687,0.0452527,2001,1219,13.2007,-1.97302
784,-195,13.6091,1.65234,0,0,0,0,0,0,0,-1,2008,1219,13.6092,-1.65238
791,-195,14.4601,2.93372,0,0,0,0,0,0,0,-1,2015,1219,14.46,-2.93373
798,-195,14.8879,2.08801,0,0,0,0,0,0,0,-1,2022,1219,14.8879,-2.08804
805,-195,0,0,0,0,0,0,0,0,0,-1,2029,1219,0,0
812,-195,0,0,0,0,0,0,0,0,0,-1,2036,1219,0,0
-700,-202,0,0,0,0,0,0,0,0,0,-1,524,1226,0,0
-693,-202,0,0,0,0,0,0,0,0,0,-1,531,1226,0,0
-686,-202,0,0,0,0,0,0,0,0,0,-1,538,1226,0,0
-679,-202,-8.36481,2.67725,0,0,0,0,0,0,0,-1,545,1226,-8.36481,-2.67726
-672,-202,-5.02679,2.12439,0,0,0,0,0,0,0,-1,552,1226,-5.02679,-2.12442
-665,-202,-7.42438,1.0387,0.0163326,0.057044,-0.0162497,0.0627345,0.010642,-1.23395,0.0387657,0.0463616,559,1226,-7.42435,-1.03875
-658,-202,-6.72626,0.422852,0.0124026,0.0464458,-0.013118,0.0509142,0.00793429,-1.2425,0.0316315,0.0454617,566,1226,-6.72627,-0.422873
-651,-202,-6.83881,0.514526,0.00923056,0.0369347,-0.0104245,0.040419,0.00574628,-1.24823,0.0252495,0.0470718,573,1226,-6.8388,-0.514574
-644,-202,-6.29474,0.0151367,0.00666436,0.0286483,-0.00812546,0.0313255,0.00398714,-1.25251,0.0196896,0.0465098,580,1226,-6.29471,-0.0151014
-637,-202,-6.4527,0.265869,0.0046334,0.0216259,-0.00620265,0.0236491,0.00261018,-1.25549,0.014972,0.0310798,587,1226,-6.45272,-0.265851
-630,-202,-6.56079,0.433594,0.0028138,0.0159645,-0.00468669,0.0174638,0.00131448,-1.26117,0.01123,0.0121511,594,1226,-6.56076,-0.433606
-623,-202,-6.59436,0.5177,0.00117955,0.0108071,-0.00337778,0.0118739,0.000112692,-1.26487,0.00787865,0.00767707,601,1226,-6.59438,-0.517746
-616,-202,-6.60291,0.626465,0.000291475,0.0072124,-0.00274879,0.00817129,-0.000667411,-1.23516,0.00568307,0.00851161,608,1226,-6.60289,-0.626471
-609,-202,-6.5968,0.734009,-0.0006787,0.00323467,-0.0026568,0.00457756,-0.00202159,-1.1028,0.00390412,0.0206716,615,1226,-6.59682,-0.734065
-602,-202,-6.62427,0.817383,-0.00131266,0.0010512,-0.00248598,0.00262192,-0.00288338,-1.0073,0.00317968,0.0210144,622,1226,-6.62425,-0.817398
-595,-202,-6.64215,0.956909,-0.0022515,-0.000355114,-0.00255367,0.00142072,-0.00402733,-0.963162,0.00326323,0.0152976,629,1226,-6.64214,-0.956937
-588,-202,-6.60449,1.07922,-0.0033369,-0.00121276,-0.00284428,0.000761275,-0.00531093,-0.964084,0.00381975,0.00770221,636,1226,-6.60448,-1.07928
-581,-202,-6.58557,1.15845,-0.00371097,-0.00203695,-0.00324079,0.000473177,-0.0062211,-0.911773,0.00431378,0.00967813,643,1226,-6.58558,-1.15848
-574,-202,-6.59973,1.17859,-0.00385481,-0.00248104,-0.00352314,0.000421548,-0.0067574,-0.881673,0.00465182,0.0139801,650,1226,-6.59975,-1.17863
-567,-202,-6.62708,1.22949,-0.00388903,-0.00288539,-0.00380381,0.000449564,-0.00722398,-0.850982,0.00497262,0.0341609,657,1226,-6.62705,-1.22949
-560,-202,-8.15027,0.144897,0,0,0,0,0,0,0,-1,664,1226,-8.15026,-0.14492
-553,-202,-7.99786,0.206055,-0.00348441,-0.00353418,-0.00424477,0.000735547,-0.00775413,-0.782467,0.00543123,0.0452449,671,1226,-7.99783,-0.206012
-546,-202,-8.01141,0.375977,-0.00304382,-0.00387423,-0.0042722,0.000833311,-0.00775135,-0.736956,0.00546655,0.0439659,678,1226,-8.01143,-0.376021
-539,-202,-8.02319,0.212769,-0.00215028,-0.00406274,-0.00427299,0.00127217,-0.00748519,-0.675319,0.00546377,0.0378891,685,1226,-8.0232,-0.212752
-532,-202,-8.09393,0.244751,-0.000654487,-0.00407069,-0.0041975,0.00216915,-0.00689432,-0.592164,0.0054647,0.0277746,692,1226,-8.09392,-0.2447
-525,-202,-8.10211,0.211304,0.00164039,-0.00377347,-0.00404193,0.00379809,-0.00593118,-0.490344,0.00566202,0.0365047,699,1226,-8.10213,-0.211319
-518,-202,-8.0932,0.214966,0.00481974,-0.00307446,-0.00392754,0.00644087,-0.00469558,-0.391457,0.0064559,0.0434651,706,1226,-8.09321,-0.21501
-511,-202,-8.07562,0.301392,0.00942053,-0.00237754,-0.00405796,0.0106815,-0.00363851,-0.30128,0.00859452,0.0419331,713,1226,-8.07559,-0.301437
-504,-202,0,0,0,0,0,0,0,0,0,-1,720,1226,0,0
-497,-202,0,0,0,0,0,0,0,0,0,-1,727,1226,0,0
-490,-202,0,0,0,0,0,0,0,0,0,-1,734,1226,0,0
-483,-202,0,0,0,0,0,0,0,0,0,-1,741,1226,0,0
-476,-202,0,0,0,0,0,0,0,0,0,-1,748,1226,0,0
-469,-202,0,0,0,0,0,0,0,0,0,-1,755,1226,0,0
-462,-202,0,0,0,0,0,0,0,0,0,-1,762,1226,0,0
-455,-202,0,0,0,0,0,0,0,0,0,-1,769,1226,0,0
-448,-202,0,0,0,0,0,0,0,0,0,-1,776,1226,0,0
-441,-202,0,0,0,0,0,0,0,0,0,-1,783,1226,0,0
-434,-202,0,0,0,0,0,0,0,0,0,-1,790,1226,0,0
-427,-202,0,0,0,0,0,0,0,0,0,-1,797,1226,0,0
-420,-202,0,0,0,0,0,0,0,0,0,-1,804,1226,0,0
-413,-202,0,0,0,0,0,0,0,0,0,-1,811,1226,0,0
-406,-202,0,0,0,0,0,0,0,0,0,-1,818,1226,0,0
-399,-202,0,0,0,0,0,0,0,0,0,-1,825,1226,0,0
-392,-202,0,0,0,0,0,0,0,0,0,-1,832,1226,0,0
-385,-202,0,0,0,0,0,0,0,0,0,-1,839,1226,0,0
-378,-202,0,0,0,0,0,0,0,0,0,-1,846,1226,0,0
-371,-202,0,0,0,0,0,0,0,0,0,-1,853,1226,0,0
-364,-202,0,0,0,0,0,0,0,0,0,-1,860,1226,0,0
-357,-202,0,0,0,0,0,0,0,0,0,-1,867,1226,0,0
-350,-202,0,0,0,0,0,0,0,0,0,-1,874,1226,0,0
-343,-202,0,0,0,0,0,0,0,0,0,-1,881,1226,0,0
-336,-202,0,0,0,0,0,0,0,0,0,-1,888,1226,0,0
-329,-202,0,0,0,0,0,0,0,0,0,-1,895,1226,0,0
-322,-202,0,0,0,0,0,0,0,0,0,-1,902,1226,0,0
-315,-202,0,0,0,0,0,0,0,0,0,-1,909,1226,0,0
-308,-202,0,0,0,0,0,0,0,0,0,-1,916,1226,0,0
-301,-202,0,0,0,0,0,0,0,0,0,-1,923,1226,0,0
-294,-202,0,0,0,0,0,0,0,0,0,-1,930,1226,0,0
-287,-202,0,0,0,0,0,0,0,0,0,-1,937,1226,0,0
-280,-202,0,0,0,0,0,0,0,0,0,-1,944,1226,0,0
-273,-202,0,0,0,0,0,0,0,0,0,-1,951,1226,0,0
-266,-202,0,0,0,0,0,0,0,0,0,-1,958,1226,0,0
-259,-202,0,0,0,0,0,0,0,0,0,-1,965,1226,0,0
-252,-202,0,0,0,0,0,0,0,0,0,-1,972,1226,0,0
-245,-202,0,0,0,0,0,0,0,0,0,-1,979,1226,0,0
-238,-202,0,0,0,0,0,0,0,0,0,-1,986,1226,0,0
-231,-202,0,0,0,0,0,0,0,0,0,-1,993,1226,0,0
-224,-202,0,0,0,0,0,0,0,0,0,-1,1000,1226,0,0
-217,-202,0,0,0,0,0,0,0,0,0,-1,1007,1226,0,0
-210,-202,0,0,0,0,0,0,0,0,0,-1,1014,1226,0,0
-203,-202,0,0,0,0,0,0,0,0,0,-1,1021,1226,0,0
-196,-202,0,0,0,0,0,0,0,0,0,-1,1028,1226,0,0
-189,-202,0,0,0,0,0,0,0,0,0,-1,1035,1226,0,0
-182,-202,0,0,0,0,0,0,0,0,0,-1,1042,1226,0,0
-175,-202,0,0,0,0,0,0,0,0,0,-1,1049,1226,0,0
-168,-202,0,0,0,0,0,0,0,0,0,-1,1056,1226,0,0
-161,-202,0,0,0,0,0,0,0,0,0,-1,1063,1226,0,0
-154,-202,0,0,0,0,0,0,0,0,0,-1,1070,1226,0,0
-147,-202,0,0,0,0,0,0,0,0,0,-1,1077,1226,0,0
-140,-202,0,0,0,0,0,0,0,0,0,-1,1084,1226,0,0
-133,-202,0,0,0,0,0,0,0,0,0,-1,1091,1226,0,0
-126,-202,0,0,0,0,0,0,0,0,0,-1,1098,1226,0,0
-119,-202,0,0,0,0,0,0,0,0,0,-1,1105,1226,0,0
-112,-202,0,0,0,0,0,0,0,0,0,-1,1112,1226,0,0
-105,-202,0,0,0,0,0,0,0,0,0,-1,1119,1226,0,0
-98,-202,0,0,0,0,0,0,0,0,0,-1,1126,1226,0,0
-91,-202,0,0,0,0,0,0,0,0,0,-1,1133,1226,0,0
-84,-202,0,0,0,0,0,0,0,0,0,-1,1140,1226,0,0
-77,-202,0,0,0,0,0,0,0,0,0,-1,1147,1226,0,0
-70,-202,0,0,0,0,0,0,0,0,0,-1,1154,1226,0,0
-63,-202,0,0,0,0,0,0,0,0,0,-1,1161,1226,0,0
-56,-202,0,0,0,0,0,0,0,0,0,-1,1168,1226,0,0
-49,-202,0,0,0,0,0,0,0,0,0,-1,1175,1226,0,0
-42,-202,0,0,0,0,0,0,0,0,0,-1,1182,1226,0,0
-35,-202,0,0,0,0,0,0,0,0,0,-1,1189,1226,0,0
-28,-202,0,0,0,0,0,0,0,0,0,-1,1196,1226,0,0
-21,-202,0,0,0,0,0,0,0,0,0,-1,1203,1226,0,0
-14,-202,0,0,0,0,0,0,0,0,0,-1,1210,1226,0,0
-7,-202,0,0,0,0,0,0,0,0,0,-1,1217,1226,0,0
0,-202,0,0,0,0,0,0,0,0,0,-1,1224,1226,0,0
7,-202,0,0,0,0,0,0,0,0,0,-1,1231,1226,0,0
14,-202,0,0,0,0,0,0,0,0,0,-1,1238,1226,0,0
21,-202,0,0,0,0,0,0,0,0,0,-1,1245,1226,0,0
28,-202,0,0,0,0,0,0,0,0,0,-1,1252,1226,0,0
35,-202,0,0,0,0,0,0,0,0,0,-1,1259,1226,0,0
42,-202,0,0,0,0,0,0,0,0,0,-1,1266,1226,0,0
49,-202,0,0,0,0,0,0,0,0,0,-1,1273,1226,0,0
56,-202,0,0,0,0,0,0,0,0,0,-1,1280,1226,0,0
63,-202,0,0,0,0,0,0,0,0,0,-1,1287,1226,0,0
70,-202,0,0,0,0,0,0,0,0,0,-1,1294,1226,0,0
77,-202,0,0,0,0,0,0,0,0,0,-1,1301,1226,0,0
84,-202,0,0,0,0,0,0,0,0,0,-1,1308,1226,0,0
91,-202,0,0,0,0,0,0,0,0,0,-1,1315,1226,0,0
98,-202,0,0,0,0,0,0,0,0,0,-1,1322,1226,0,0
105,-202,0,0,0,0,0,0,0,0,0,-1,1329,1226,0,0
112,-202,0,0,0,0,0,0,0,0,0,-1,1336,1226,0,0
119,-202,0,0,0,0,0,0,0,0,0,-1,1343,1226,0,0
126,-202,0,0,0,0,0,0,0,0,0,-1,1350,1226,0,0
133,-202,0,0,0,0,0,0,0,0,0,-1,1357,1226,0,0
140,-202,0,0,0,0,0,0,0,0,0,-1,1364,1226,0,0
147,-202,0,0,0,0,0,0,0,0,0,-1,1371,1226,0,0
154,-202,0,0,0,0,0,0,0,0,0,-1,1378,1226,0,0
161,-202,0,0,0,0,0,0,0,0,0,-1,1385,1226,0,0
168,-202,0,0,0,0,0,0,0,0,0,-1,1392,1226,0,0
175,-202,0,0,0,0,0,0,0,0,0,-1,1399,1226,0,0
182,-202,0,0,0,0,0,0,0,0,0,-1,1406,1226,0,0
189,-202,0,0,0,0,0,0,0,0,0,-1,1413,1226,0,0
196,-202,0,0,0,0,0,0,0,0,0,-1,1420,1226,0,0
203,-202,0,0,0,0,0,0,0,0,0,-1,1427,1226,0,0
210,-202,0,0,0,0,0,0,0,0,0,-1,1434,1226,0,0
217,-202,0,0,0,0,0,0,0,0,0,-1,1441,1226,0,0
224,-202,0,0,0,0,0,0,0,0,0,-1,1448,1226,0,0
231,-202,0,0,0,0,0,0,0,0,0,-1,1455,1226,0,0
238,-202,0,0,0,0,0,0,0,0,0,-1,1462,1226,0,0
245,-202,0,0,0,0,0,0,0,0,0,-1,1469,1226,0,0
252,-202,0,0,0,0,0,0,0,0,0,-1,1476,1226,0,0
259,-202,0,0,0,0,0,0,0,0,0,-1,1483,1226,0,0
266,-202,0,0,0,0,0,0,0,0,0,-1,1490,1226,0,0
273,-202,0,0,0,0,0,0,0,0,0,-1,1497,1226,0,0
280,-202,0,0,0,0,0,0,0,0,0,-1,1504,1226,0,0
287,-202,0,0,0,0,0,0,0,0,0,-1,1511,1226,0,0
294,-202,0,0,0,0,0,0,0,0,0,-1,1518,1226,0,0
301,-202,0,0,0,0,0,0,0,0,0,-1,1525,1226,0,0
308,-202,0,0,0,0,0,0,0,0,0,-1,1532,1226,0,0
315,-202,0,0,0,0,0,0,0,0,0,-1,1539,1226,0,0
322,-202,0,0,0,0,0,0,0,0,0,-1,1546,1226,0,0
329,-202,0,0,0,0,0,0,0,0,0,-1,1553,1226,0,0
336,-202,0,0,0,0,0,0,0,0,0,-1,1560,1226,0,0
343,-202,0,0,0,0,0,0,0,0,0,-1,1567,1226,0,0
350,-202,0,0,0,0,0,0,0,0,0,-1,1574,1226,0,0
357,-202,0,0,0,0,0,0,0,0,0,-1,1581,1226,0,0
364,-202,0,0,0,0,0,0,0,0,0,-1,1588,1226,0,0
371,-202,0,0,0,0,0,0,0,0,0,-1,1595,1226,0,0
378,-202,0,0,0,0,0,0,0,0,0,-1,1602,1226,0,0
385,-202,0,0,0,0,0,0,0,0,0,-1,1609,1226,0,0
392,-202,0,0,0,0,0,0,0,0,0,-1,1616,1226,0,0
399,-202,0,0,0,0,0,0,0,0,0,-1,1623,1226,0,0
406,-202,0,0,0,0,0,0,0,0,0,-1,1630,1226,0,0
413,-202,0,0,0,0,0,0,0,0,0,-1,1637,1226,0,0
420,-202,0,0,0,0,0,0,0,0,0,-1,1644,1226,0,0
427,-202,0,0,0,0,0,0,0,0,0,-1,1651,1226,0,0
434,-202,0,0,0,0,0,0,0,0,0,-1,1658,1226,0,0
441,-202,0,0,0,0,0,0,0,0,0,-1,1665,1226,0,0
448,-202,0,0,0,0,0,0,0,0,0,-1,1672,1226,0,0
455,-202,0,0,0,0,0,0,0,0,0,-1,1679,1226,0,0
462,-202,0,0,0,0,0,0,0,0,0,-1,1686,1226,0,0
469,-202,0,0,0,0,0,0,0,0,0,-1,1693,1226,0,0
476,-202,0,0,0,0,0,0,0,0,0,-1,1700,1226,0,0
483,-202,0,0,0,0,0,0,0,0,0,-1,1707,1226,0,0
490,-202,0,0,0,0,0,0,0,0,0,-1,1714,1226,0,0
497,-202,0,0,0,0,0,0,0,0,0,-1,1721,1226,0,0
504,-202,0,0,0,0,0,0,0,0,0,-1,1728,1226,0,0
511,-202,0,0,0,0,0,0,0,0,0,-1,1735,1226,0,0
518,-202,0,0,0,0,0,0,0,0,0,-1,1742,1226,0,0
525,-202,0,0,0,0,0,0,0,0,0,-1,1749,1226,0,0
532,-202,0,0,0,0,0,0,0,0,0,-1,1756,1226,0,0
539,-202,0,0,0,0,0,0,0,0,0,-1,1763,1226,0,0
546,-202,0,0,0,0,0,0,0,0,0,-1,1770,1226,0,0
553,-202,0,0,0,0,0,0,0,0,0,-1,1777,1226,0,0
560,-202,0,0,0,0,0,0,0,0,0,-1,1784,1226,0,0
567,-202,0,0,0,0,0,0,0,0,0,-1,1791,1226,0,0
574,-202,0,0,0,0,0,0,0,0,0,-1,1798,1226,0,0
581,-202,0,0,0,0,0,0,0,0,0,-1,1805,1226,0,0
588,-202,0,0,0,0,0,0,0,0,0,-1,1812,1226,0,0
595,-202,0,0,0,0,0,0,0,0,0,-1,1819,1226,0,0
602,-202,0,0,0,0,0,0,0,0,0,-1,1826,1226,0,0
609,-202,0,0,0,0,0,0,0,0,0,-1,1833,1226,0,0
616,-202,0,0,0,0,0,0,0,0,0,-1,1840,1226,0,0
623,-202,0,0,0,0,0,0,0,0,0,-1,1847,1226,0,0
630,-202,14.0623,1.85925,-0.00540775,-0.000424223,0.00136915,-7.28432e-05,-0.00575913,1.31958,0.00381537,0.0392946,1854,1226,14.0623,-1.85931
637,-202,14.0624,1.92212,-0.00172898,0.00011412,-0.000193557,0.000134228,-0.00174909,-1.46728,0.00121328,0.0365068,1861,1226,14.0623,-1.92209
644,-202,14.0712,1.92529,0.000473952,-5.03886e-06,-0.000625478,0.000904219,-0.000435305,-0.602559,0.000789012,0.0332687,1868,1226,14.0712,-1.92529
651,-202,14.0747,1.89966,0.000949355,-0.000727665,0.000120752,0.000958005,-0.000736315,0.0715125,0.000981003,0.0269707,1875,1226,14.0747,-1.89967
658,-202,14.0515,1.88806,0.000675442,-0.00151864,0.0011401,0.00116059,-0.00200378,0.402321,0.00184845,0.0215606,1882,1226,14.0515,-1.88802
665,-202,14.048,1.8573,-8.93971e-06,-0.00227235,0.00219214,0.00132638,-0.00360767,0.547114,0.00294842,0.0192202,1889,1226,14.0479,-1.85727
672,-202,14.1409,1.88892,-0.000938793,-0.00296645,0.0031737,0.00137907,-0.00528432,0.630797,0.00406138,0.0380929,1896,1226,14.1408,-1.88897
679,-202,14.1354,1.77429,-0.00195259,-0.00340428,0.00402874,0.00141516,-0.00677203,0.696271,0.00505291,0.0440555,1903,1226,14.1353,-1.7743
686,-202,14.0425,1.62329,-0.00286718,-0.00374186,0.00471905,0.00143475,-0.00804379,0.739192,0.00589922,0.0461926,1910,1226,14.0425,-1.62331
693,-202,13.1144,2.79565,-0.00375944,-0.00387482,0.00524732,0.0014305,-0.00906476,0.779901,0.00657211,0.0449644,1917,1226,13.1144,-2.79563
700,-202,12.5779,3.16846,-0.00446029,-0.0038477,0.00550858,0.00136309,-0.00967108,0.813171,0.00694647,0.0186765,1924,1226,12.5779,-3.16846
707,-202,12.5801,3.04968,-0.00488699,-0.00369231,0.005385,0.00112838,-0.00970768,0.840635,0.00687883,0.0164061,1931,1226,12.5801,-3.04968
714,-202,12.6077,2.97913,-0.00507345,-0.00319021,0.00491737,0.000874882,-0.00913855,0.879997,0.00640394,0.0150236,1938,1226,12.6077,-2.97918
721,-202,12.6223,2.8938,-0.00453433,-0.0024265,0.00426847,0.00091624,-0.00787707,0.906431,0.00558192,0.0120685,1945,1226,12.6224,-2.89379
728,-202,12.6155,2.80774,-0.00325635,-0.00173316,0.00366146,0.00124508,-0.00623458,0.887938,0.00462759,0.00989564,1952,1226,12.6155,-2.80768
735,-202,12.5912,2.71143,-0.00168945,-0.000861274,0.00300818,0.00176118,-0.00431191,0.853795,0.00360791,0.0107397,1959,1226,12.5911,-2.71145
742,-202,12.592,2.63672,0.000688139,0.000564188,0.00245536,0.0030823,-0.00182998,0.77278,0.00286666,0.0102965,1966,1226,12.5921,-2.63676
749,-202,12.6072,2.5459,0.00311904,0.00186653,0.0020024,0.00459083,0.000394741,0.63384,0.00293782,0.0103266,1973,1226,12.6072,-2.54587
756,-202,12.5999,2.43433,0.00538593,0.00313484,0.00242194,0.00693108,0.00158969,0.567881,0.00419252,0.0109492,1980,1226,12.5998,-2.43437
763,-202,12.6117,2.34521,0.00778892,0.00463744,0.00350213,0.0100535,0.00237289,0.573997,0.00606803,0.0144623,1987,1226,12.6117,-2.34526
770,-202,12.6912,2.33606,0.0107051,0.00669203,0.0050704,0.0141516,0.00324558,0.596985,0.00856013,0.0364789,1994,1226,12.6911,-2.33611
777,-202,12.8293,2.34741,0.0141812,0.00952466,0.00724927,0.0194669,0.00423892,0.630016,0.0118211,0.0487208,2001,1226,12.8293,-2.34741
784,-202,12.9484,2.34192,0,0,0,0,0,0,0,-1,2008,1226,12.9483,-2.34196
791,-202,13.624,2.63611,0.0226586,0.0188909,0.0141192,0.0350191,0.0065304,0.719078,0.0215024,0.0442255,2015,1226,13.6241,-2.63609
798,-202,13.9083,2.14771,0,0,0,0,0,0,0,-1,2022,1226,13.9084,-2.14771
805,-202,0,0,0,0,0,0,0,0,0,-1,2029,1226,0,0
812,-202,0,0,0,0,0,0,0,0,0,-1,2036,1226,0,0
-700,-209,0,0,0,0,0,0,0,0,0,-1,524,1233,0,0
-693,-209,0,0,0,0,0,0,0,0,0,-1,531,1233,0,0
-686,-209,0,0,0,0,0,0,0,0,0,-1,538,1233,0,0
-679,-209,-7.93909,1.47888,0.0251207,0.0912345,-0.0204896,0.0970695,0.0192857,-1.29336,0.0593385,0.044186,545,1233,-7.93907,-1.47887
-672,-209,-7.3941,0.786621,0,0,0,0,0,0,0,-1,552,1233,-7.39409,-0.786606
-665,-209,-6.97418,0.492798,0.0162328,0.0627986,-0.0129616,0.0661634,0.0128681,-1.31681,0.0405067,0.0442121,559,1233,-6.9742,-0.492805
-658,-209,-6.85815,0.360352,0.0125791,0.0504704,-0.0101668,0.053026,0.0100235,-1.32454,0.0325284,0.04754,566,1233,-6.85815,-0.360383
-651,-209,-6.81604,0.178833,0.0094868,0.0397106,-0.00790759,0.0416545,0.00754292,-1.32975,0.0256281,0.0492621,573,1233,-6.81604,-0.178784
-644,-209,-6.13312,-0.173462,0.00689095,0.0305318,-0.00606735,0.031998,0.00542472,-1.33368,0.0197734,0.048452,580,1233,-6.13309,0.173477
-637,-209,-6.31812,0.174561,0.00477599,0.0228773,-0.00458035,0.0239703,0.00368298,-1.33655,0.014905,0.0400297,587,1233,-6.31809,-0.174617
-630,-209,-6.4411,0.393799,0.00293577,0.0167508,-0.00343255,0.0175567,0.00212991,-1.3402,0.011063,0.0193284,594,1233,-6.44108,-0.393745
-623,-209,-6.48596,0.515381,0.00133995,0.0113372,-0.00238853,0.0118785,0.000798598,-1.34792,0.0076667,0.0102874,601,1233,-6.48595,-0.515344
-616,-209,-6.49011,0.641846,0.000608412,0.00752676,-0.00191458,0.00802126,0.000113916,-1.31804,0.00530994,0.0115352,608,1233,-6.49009,-0.641893
-609,-209,-6.48145,0.741821,-0.000230312,0.00360883,-0.00187534,0.00437285,-0.000994326,-1.18393,0.00329704,0.0140729,615,1233,-6.48144,-0.741863
-602,-209,-6.49255,0.85083,-0.000752359,0.00134597,-0.00178645,0.00236856,-0.00177494,-1.05091,0.00240042,0.0158662,622,1233,-6.49258,-0.850778
-595,-209,-6.47894,0.959961,-0.00147414,-8.43737e-05,-0.00187983,0.0012249,-0.00278341,-0.962435,0.00237179,0.011441,629,1233,-6.47893,-0.959943
-588,-209,-6.46472,1.07996,-0.00258166,-0.00111595,-0.00218826,0.000458907,-0.00415652,-0.946979,0.00293596,0.0123234,636,1233,-6.4647,-1.0799
-581,-209,-6.45532,1.18835,-0.00308708,-0.00215041,-0.0025752,-1.2978e-06,-0.00523619,-0.875346,0.00349036,0.0108519,643,1233,-6.45531,-1.18837
-574,-209,-6.51678,1.25745,-0.0033628,-0.00278085,-0.00289236,-0.000164861,-0.00597879,-0.83553,0.00393206,0.0113407,650,1233,-6.51679,-1.25739
-567,-209,-6.56891,1.37366,-0.00347844,-0.00327266,-0.003294,-7.99433e-05,-0.00667116,-0.801011,0.00442103,0.0250219,657,1233,-6.56888,-1.37366
-560,-209,-6.61267,1.54211,0,0,0,0,0,0,0,-1,664,1233,-6.61267,-1.54217
-553,-209,-7.85803,0.03479,0,0,0,0,0,0,0,-1,671,1233,-7.85801,-0.0348276
-546,-209,-8.11346,0.425171,-0.00314453,-0.00494532,-0.00436876,0.000415653,-0.0085055,-0.683772,0.00581384,0.0428492,678,1233,-8.11346,-0.425223
-539,-209,-7.99268,0.193359,-0.00249773,-0.00535434,-0.0047187,0.0010041,-0.00885617,-0.638437,0.00626569,0.0370721,685,1233,-7.9927,-0.19338
-532,-209,-8.05273,0.28894,-0.00118253,-0.00554507,-0.00505712,0.00214368,-0.00887129,-0.581789,0.0067433,0.0288227,692,1233,-8.05275,-0.288912
-525,-209,-8.10889,0.330811,0.00105374,-0.00535265,-0.00536273,0.00409709,-0.008396,-0.51618,0.00735386,0.0361374,699,1233,-8.10887,-0.330814
-518,-209,-8.0968,0.395996,0.00443929,-0.00459189,-0.00565456,0.00716004,-0.00731264,-0.448463,0.00835596,0.0451602,706,1233,-8.0968,-0.396008
-511,-209,-8.09625,0.380615,0.00963927,-0.00338165,-0.00591255,0.0119234,-0.00566575,-0.368653,0.0103671,0.0429684,713,1233,-8.09622,-0.380602
-504,-209,0,0,0,0,0,0,0,0,0,-1,720,1233,0,0
-497,-209,0,0,0,0,0,0,0,0,0,-1,727,1233,0,0
-490,-209,0,0,0,0,0,0,0,0,0,-1,734,1233,0,0
-483,-209,0,0,0,0,0,0,0,0,0,-1,741,1233,0,0
-476,-209,0,0,0,0,0,0,0,0,0,-1,748,1233,0,0
-469,-209,0,0,0,0,0,0,0,0,0,-1,755,1233,0,0
-462,-209,0,0,0,0,0,0,0,0,0,-1,762,1233,0,0
-455,-209,0,0,0,0,0,0,0,0,0,-1,769,1233,0,0
-448,-209,0,0,0,0,0,0,0,0,0,-1,776,1233,0,0
-441,-209,0,0,0,0,0,0,0,0,0,-1,783,1233,0,0
-434,-209,0,0,0,0,0,0,0,0,0,-1,790,1233,0,0
-427,-209,0,0,0,0,0,0,0,0,0,-1,797,1233,0,0
-420,-209,0,0,0,0,0,0,0,0,0,-1,804,1233,0,0
-413,-209,0,0,0,0,0,0,0,0,0,-1,811,1233,0,0
-406,-209,0,0,0,0,0,0,0,0,0,-1,818,1233,0,0
-399,-209,0,0,0,0,0,0,0,0,0,-1,825,1233,0,0
-392,-209,0,0,0,0,0,0,0,0,0,-1,832,1233,0,0
-385,-209,0,0,0,0,0,0,0,0,0,-1,839,1233,0,0
-378,-209,0,0,0,0,0,0,0,0,0,-1,846,1233,0,0
-371,-209,0,0,0,0,0,0,0,0,0,-1,853,1233,0,0
-364,-209,0,0,0,0,0,0,0,0,0,-1,860,1233,0,0
-357,-209,0,0,0,0,0,0,0,0,0,-1,867,1233,0,0
-350,-209,0,0,0,0,0,0,0,0,0,-1,874,1233,0,0
-343,-209,0,0,0,0,0,0,0,0,0,-1,881,1233,0,0
-336,-209,0,0,0,0,0,0,0,0,0,-1,888,1233,0,0
-329,-209,0,0,0,0,0,0,0,0,0,-1,895,1233,0,0
-322,-209,0,0,0,0,0,0,0,0,0,-1,902,1233,0,0
-315,-209,0,0,0,0,0,0,0,0,0,-1,909,1233,0,0
-308,-209,0,0,0,0,0,0,0,0,0,-1,916,1233,0,0
-301,-209,0,0,0,0,0,0,0,0,0,-1,923,1233,0,0
-294,-209,0,0,0,0,0,0,0,0,0,-1,930,1233,0,0
-287,-209,0,0,0,0,0,0,0,0,0,-1,937,1233,0,0
-280,-209,0,0,0,0,0,0,0,0,0,-1,944,1233,0,0
-273,-209,0,0,0,0,0,0,0,0,0,-1,951,1233,0,0
-266,-209,0,0,0,0,0,0,0,0,0,-1,958,1233,0,0
-259,-209,0,0,0,0,0,0,0,0,0,-1,965,1233,0,0
-252,-209,0,0,0,0,0,0,0,0,0,-1,972,1233,0,0
-245,-209,0,0,0,0,0,0,0,0,0,-1,979,1233,0,0
-238,-209,0,0,0,0,0,0,0,0,0,-1,986,1233,0,0
-231,-209,0,0,0,0,0,0,0,0,0,-1,993,1233,0,0
-224,-209,0,0,0,0,0,0,0,0,0,-1,1000,1233,0,0
-217,-209,0,0,0,0,0,0,0,0,0,-1,1007,1233,0,0
-210,-209,0,0,0,0,0,0,0,0,0,-1,1014,1233,0,0
-203,-209,0,0,0,0,0,0,0,0,0,-1,1021,1233,0,0
-196,-209,0,0,0,0,0,0,0,0,0,-1,1028,1233,0,0
-189,-209,0,0,0,0,0,0,0,0,0,-1,1035,1233,0,0
-182,-209,0,0,0,0,0,0,0,0,0,-1,1042,1233,0,0
-175,-209,0,0,0,0,0,0,0,0,0,-1,1049,1233,0,0
-168,-209,0,0,0,0,0,0,0,0,0,-1,1056,1233,0,0
-161,-209,0,0,0,0,0,0,0,0,0,-1,1063,1233,0,0
-154,-209,0,0,0,0,0,0,0,0,0,-1,1070,1233,0,0
-147,-209,0,0,0,0,0,0,0,0,0,-1,1077,1233,0,0
-140,-209,0,0,0,0,0,0,0,0,0,-1,1084,1233,0,0
-133,-209,0,0,0,0,0,0,0,0,0,-1,1091,1233,0,0
-126,-209,0,0,0,0,0,0,0,0,0,-1,1098,1233,0,0
-119,-209,0,0,0,0,0,0,0,0,0,-1,1105,1233,0,0
-112,-209,0,0,0,0,0,0,0,0,0,-1,1112,1233,0,0
-105,-209,0,0,0,0,0,0,0,0,0,-1,1119,1233,0,0
-98,-209,0,0,0,0,0,0,0,0,0,-1,1126,1233,0,0
-91,-209,0,0,0,0,0,0,0,0,0,-1,1133,1233,0,0
-84,-209,0,0,0,0,0,0,0,0,0,-1,1140,1233,0,0
-77,-209,0,0,0,0,0,0,0,0,0,-1,1147,1233,0,0
-70,-209,0,0,0,0,0,0,0,0,0,-1,1154,1233,0,0
-63,-209,0,0,0,0,0,0,0,0,0,-1,1161,1233,0,0
-56,-209,0,0,0,0,0,0,0,0,0,-1,1168,1233,0,0
-49,-209,0,0,0,0,0,0,0,0,0,-1,1175,1233,0,0
-42,-209,0,0,0,0,0,0,0,0,0,-1,1182,1233,0,0
-35,-209,0,0,0,0,0,0,0,0,0,-1,1189,1233,0,0
-28,-209,0,0,0,0,0,0,0,0,0,-1,1196,1233,0,0
-21,-209,0,0,0,0,0,0,0,0,0,-1,1203,1233,0,0
-14,-209,0,0,0,0,0,0,0,0,0,-1,1210,1233,0,0
-7,-209,0,0,0,0,0,0,0,0,0,-1,1217,1233,0,0
0,-209,0,0,0,0,0,0,0,0,0,-1,1224,1233,0,0
7,-209,0,0,0,0,0,0,0,0,0,-1,1231,1233,0,0
14,-209,0,0,0,0,0,0,0,0,0,-1,1238,1233,0,0
21,-209,0,0,0,0,0,0,0,0,0,-1,1245,1233,0,0
28,-209,0,0,0,0,0,0,0,0,0,-1,1252,1233,0,0
35,-209,0,0,0,0,0,0,0,0,0,-1,1259,1233,0,0
42,-209,0,0,0,0,0,0,0,0,0,-1,1266,1233,0,0
49,-209,0,0,0,0,0,0,0,0,0,-1,1273,1233,0,0
56,-209,0,0,0,0,0,0,0,0,0,-1,1280,1233,0,0
63,-209,0,0,0,0,0,0,0,0,0,-1,1287,1233,0,0
70,-209,0,0,0,0,0,0,0,0,0,-1,1294,1233,0,0
77,-209,0,0,0,0,0,0,0,0,0,-1,1301,1233,0,0
84,-209,0,0,0,0,0,0,0,0,0,-1,1308,1233,0,0
91,-209,0,0,0,0,0,0,0,0,0,-1,1315,1233,0,0
98,-209,0,0,0,0,0,0,0,0,0,-1,1322,1233,0,0
105,-209,0,0,0,0,0,0,0,0,0,-1,1329,1233,0,0
112,-209,0,0,0,0,0,0,0,0,0,-1,1336,1233,0,0
119,-209,0,0,0,0,0,0,0,0,0,-1,1343,1233,0,0
126,-209,0,0,0,0,0,0,0,0,0,-1,1350,1233,0,0
133,-209,0,0,0,0,0,0,0,0,0,-1,1357,1233,0,0
140,-209,0,0,0,0,0,0,0,0,0,-1,1364,1233,0,0
147,-209,0,0,0,0,0,0,0,0,0,-1,1371,1233,0,0
154,-209,0,0,0,0,0,0,0,0,0,-1,1378,1233,0,0
161,-209,0,0,0,0,0,0,0,0,0,-1,1385,1233,0,0
168,-209,0,0,0,0,0,0,0,0,0,-1,1392,1233,0,0
175,-209,0,0,0,0,0,0,0,0,0,-1,1399,1233,0,0
182,-209,0,0,0,0,0,0,0,0,0,-1,1406,1233,0,0
189,-209,0,0,0,0,0,0,0,0,0,-1,1413,1233,0,0
196,-209,0,0,0,0,0,0,0,0,0,-1,1420,1233,0,0
203,-209,0,0,0,0,0,0,0,0,0,-1,1427,1233,0,0
210,-209,0,0,0,0,0,0,0,0,0,-1,1434,1233,0,0
217,-209,0,0,0,0,0,0,0,0,0,-1,1441,1233,0,0
224,-209,0,0,0,0,0,0,0,0,0,-1,1448,1233,0,0
231,-209,0,0,0,0,0,0,0,0,0,-1,1455,1233,0,0
238,-209,0,0,0,0,0,0,0,0,0,-1,1462,1233,0,0
245,-209,0,0,0,0,0,0,0,0,0,-1,1469,1233,0,0
252,-209,0,0,0,0,0,0,0,0,0,-1,1476,1233,0,0
259,-209,0,0,0,0,0,0,0,0,0,-1,1483,1233,0,0
266,-209,0,0,0,0,0,0,0,0,0,-1,1490,1233,0,0
273,-209,0,0,0,0,0,0,0,0,0,-1,1497,1233,0,0
280,-209,0,0,0,0,0,0,0,0,0,-1,1504,1233,0,0
287,-209,0,0,0,0,0,0,0,0,0,-1,1511,1233,0,0
294,-209,0,0,0,0,0,0,0,0,0,-1,1518,1233,0,0
301,-209,0,0,0,0,0,0,0,0,0,-1,1525,1233,0,0
308,-209,0,0,0,0,0,0,0,0,0,-1,1532,1233,0,0
315,-209,0,0,0,0,0,0,0,0,0,-1,1539,1233,0,0
322,-209,0,0,0,0,0,0,0,0,0,-1,1546,1233,0,0
329,-209,0,0,0,0,0,0,0,0,0,-1,1553,1233,0,0
336,-209,0,0,0,0,0,0,0,0,0,-1,1560,1233,0,0
343,-209,0,0,0,0,0,0,0,0,0,-1,1567,1233,0,0
350,-209,0,0,0,0,0,0,0,0,0,-1,1574,1233,0,0
357,-209,0,0,0,0,0,0,0,0,0,-1,1581,1233,0,0
364,-209,0,0,0,0,0,0,0,0,0,-1,1588,1233,0,0
371,-209,0,0,0,0,0,0,0,0,0,-1,1595,1233,0,0
378,-209,0,0,0,0,0,0,0,0,0,-1,1602,1233,0,0
385,-209,0,0,0,0,0,0,0,0,0,-1,1609,1233,0,0
392,-209,0,0,0,0,0,0,0,0,0,-1,1616,1233,0,0
399,-209,0,0,0,0,0,0,0,0,0,-1,1623,1233,0,0
406,-209,0,0,0,0,0,0,0,0,0,-1,1630,1233,0,0
413,-209,0,0,0,0,0,0,0,0,0,-1,1637,1233,0,0
420,-209,0,0,0,0,0,0,0,0,0,-1,1644,1233,0,0
427,-209,0,0,0,0,0,0,0,0,0,-1,1651,1233,0,0
434,-209,0,0,0,0,0,0,0,0,0,-1,1658,1233,0,0
441,-209,0,0,0,0,0,0,0,0,0,-1,1665,1233,0,0
448,-209,0,0,0,0,0,0,0,0,0,-1,1672,1233,0,0
455,-209,0,0,0,0,0,0,0,0,0,-1,1679,1233,0,0
462,-209,0,0,0,0,0,0,0,0,0,-1,1686,1233,0,0
469,-209,0,0,0,0,0,0,0,0,0,-1,1693,1233,0,0
476,-209,0,0,0,0,0,0,0,0,0,-1,1700,1233,0,0
483,-209,0,0,0,0,0,0,0,0,0,-1,1707,1233,0,0
490,-209,0,0,0,0,0,0,0,0,0,-1,1714,1233,0,0
497,-209,0,0,0,0,0,0,0,0,0,-1,1721,1233,0,0
504,-209,0,0,0,0,0,0,0,0,0,-1,1728,1233,0,0
511,-209,0,0,0,0,0,0,0,0,0,-1,1735,1233,0,0
518,-209,0,0,0,0,0,0,0,0,0,-1,1742,1233,0,0
525,-209,0,0,0,0,0,0,0,0,0,-1,1749,1233,0,0
532,-209,0,0,0,0,0,0,0,0,0,-1,1756,1233,0,0
539,-209,0,0,0,0,0,0,0,0,0,-1,1763,1233,0,0
546,-209,0,0,0,0,0,0,0,0,0,-1,1770,1233,0,0
553,-209,0,0,0,0,0,0,0,0,0,-1,1777,1233,0,0
560,-209,0,0,0,0,0,0,0,0,0,-1,1784,1233,0,0
567,-209,0,0,0,0,0,0,0,0,0,-1,1791,1233,0,0
574,-209,0,0,0,0,0,0,0,0,0,-1,1798,1233,0,0
581,-209,0,0,0,0,0,0,0,0,0,-1,1805,1233,0,0
588,-209,0,0,0,0,0,0,0,0,0,-1,1812,1233,0,0
595,-209,0,0,0,0,0,0,0,0,0,-1,1819,1233,0,0
602,-209,0,0,0,0,0,0,0,0,0,-1,1826,1233,0,0
609,-209,0,0,0,0,0,0,0,0,0,-1,1833,1233,0,0
616,-209,0,0,0,0,0,0,0,0,0,-1,1840,1233,0,0
623,-209,14.072,1.84058,-0.00731512,-0.00081531,0.00183389,-0.000333587,-0.00779684,1.31392,0.00509034,0.0354544,1847,1233,14.072,-1.84061
630,-209,14.0641,1.83435,-0.00433567,-0.000210582,0.000454868,-0.00016102,-0.00438524,1.46227,0.00287132,0.0384552,1854,1233,14.0641,-1.83433
637,-209,14.0201,1.87354,-0.00113358,0.000283187,-0.0012244,0.000989357,-0.00183975,-1.04765,0.0016578,0.0364935,1861,1233,14.0201,-1.8735
644,-209,14.0255,1.88623,0.000743813,-2.3459e-06,-0.00152461,0.00194033,-0.00119886,-0.665404,0.00182919,0.0297032,1868,1233,14.0255,-1.88621
651,-209,14.0159,1.90002,0.00128181,-0.000745156,-0.000804073,0.00156203,-0.00102538,-0.335345,0.00150452,0.0235417,1875,1233,14.0158,-1.90001
658,-209,14.0259,1.90454,0.00125632,-0.0015112,0.000151438,0.00126458,-0.00151946,0.0545028,0.00160961,0.0202132,1882,1233,14.0259,-1.90452
665,-209,14.1312,1.91602,0.000865897,-0.00222493,0.00115464,0.0012496,-0.00260863,0.320834,0.00227315,0.0323462,1889,1233,14.1312,-1.91597
672,-209,14.3618,1.92822,0.000225816,-0.00287973,0.00209791,0.00128308,-0.00393699,0.466813,0.00314096,0.0491872,1896,1233,14.3619,-1.92826
679,-209,14.6324,2.01538,0,0,0,0,0,0,0,-1,1903,1233,14.6325,-2.01533
686,-209,12.1261,2.94397,0,0,0,0,0,0,0,-1,1910,1233,12.1261,-2.94396
693,-209,12.6306,3.276,-0.00220424,-0.00372476,0.00434153,0.00144309,-0.00737209,0.69872,0.0054597,0.0447267,1917,1233,12.6306,-3.27595
700,-209,12.5024,3.22144,-0.00292597,-0.00367884,0.00476626,0.00147871,-0.00808351,0.745991,0.00594354,0.0172222,1924,1233,12.5025,-3.22149
707,-209,12.5079,3.06958,-0.00346075,-0.00352451,0.00478332,0.00129079,-0.00827605,0.782066,0.00599414,0.0155004,1931,1233,12.508,-3.06954
714,-209,12.5226,2.98682,-0.00390246,-0.00295685,0.00436016,0.00095606,-0.00781537,0.839406,0.00555642,0.0129704,1938,1233,12.5225,-2.98685
721,-209,12.5211,2.896,-0.00361689,-0.00213027,0.00377606,0.000974948,-0.00672211,0.882579,0.00483924,0.0119153,1945,1233,12.5211,-2.896
728,-209,12.537,2.7948,-0.00270631,-0.00142117,0.00334134,0.00133882,-0.00546631,0.880393,0.00416287,0.0117694,1952,1233,12.537,-2.79483
735,-209,12.5264,2.71802,-0.00163548,-0.00056295,0.00294767,0.00189684,-0.00409527,0.875378,0.00353631,0.0126852,1959,1233,12.5264,-2.71808
742,-209,12.5223,2.64246,0.000257264,0.000824424,0.00263884,0.00319488,-0.00211319,0.838925,0.00308576,0.0107399,1966,1233,12.5223,-2.64251
749,-209,12.5217,2.54443,0.00212617,0.00204161,0.00253126,0.00461551,-0.000447723,0.777048,0.00323658,0.00988202,1973,1233,12.5218,-2.54446
756,-209,12.5133,2.43945,0.00377857,0.00329224,0.00331601,0.00686032,0.000210491,0.748799,0.00450502,0.0106277,1980,1233,12.5132,-2.43949
763,-209,12.5175,2.36584,0.00549985,0.00481974,0.00480728,0.00997908,0.000340503,0.750088,0.00654218,0.016333,1987,1233,12.5174,-2.36581
770,-209,12.5995,2.32178,0.00760217,0.00693528,0.00690695,0.0141837,0.000353728,0.761279,0.00934013,0.0402185,1994,1233,12.5995,-2.32176
777,-209,12.7478,2.26953,0.0101472,0.00991274,0.00977076,0.0198014,0.000258518,0.779399,0.0131156,0.0482594,2001,1233,12.7478,-2.26948
784,-209,12.7772,2.17163,0.0131911,0.0141657,0.0136085,0.0272956,6.11646e-05,0.803296,0.0181767,0.0442724,2008,1233,12.7772,-2.1716
791,-209,12.8761,2.2168,0.01677,0.0203273,0.0187082,0.0373412,-0.000243947,0.832792,0.0249758,0.0442559,2015,1233,12.876,-2.21681
798,-209,12.9878,2.22559,0,0,0,0,0,0,0,-1,2022,1233,12.9878,-2.22553
805,-209,0,0,0,0,0,0,0,0,0,-1,2029,1233,0,0
812,-209,0,0,0,0,0,0,0,0,0,-1,2036,1233,0,0
-700,-216,0,0,0,0,0,0,0,0,0,-1,524,1240,0,0
-693,-216,0,0,0,0,0,0,0,0,0,-1,531,1240,0,0
-686,-216,0,0,0,0,0,0,0,0,0,-1,538,1240,0,0
-679,-216,-7.4317,0.187866,0,0,0,0,0,0,0,-1,545,1240,-7.43169,-0.187871
-672,-216,-6.8056,-0.37915,0,0,0,0,0,0,0,-1,552,1240,-6.80559,0.379178
-665,-216,-6.66064,-0.115845,0.0160597,0.0694044,-0.0085457,0.0707399,0.0147242,-1.41577,0.0430986,0.0488734,559,1240,-6.66065,0.115787
-658,-216,-6.49243,0.160767,0.012428,0.0551936,-0.0060954,0.0560455,0.0115761,-1.43195,0.034165,0.0483791,566,1240,-6.49241,-0.160767
-651,-216,-6.77148,-0.110229,0.00925745,0.0430434,-0.00437691,0.0436012,0.00869964,-1.44404,0.0266453,0.0484171,573,1240,-6.77148,0.110214
-644,-216,-6.13843,0.530029,0.00655377,0.0328483,-0.00314201,0.0332185,0.00618354,-1.4535,0.0203993,0.0469357,580,1240,-6.13843,-0.530007
-637,-216,-6.17639,0.101318,0.00435057,0.024461,-0.00224384,0.0247083,0.00410325,-1.46102,0.0152891,0.0421454,587,1240,-6.17638,-0.101297
-630,-216,-6.36078,0.301025,0.00253596,0.0177596,-0.00160225,0.0179264,0.00236916,-1.46706,0.0112447,0.0250991,594,1240,-6.36081,-0.301051
-623,-216,-6.36194,0.514771,0.00103541,0.0120423,-0.000976635,0.0121283,0.000949429,-1.48298,0.00778834,0.0115847,601,1240,-6.36193,-0.514767
-616,-216,-6.36932,0.660889,0.000479875,0.00797872,-0.000794415,0.00806196,0.00039664,-1.4664,0.00524743,0.0138481,608,1240,-6.36934,-0.660909
-609,-216,-6.36078,0.764038,-0.000170322,0.00406882,-0.00089975,0.00425189,-0.000353387,-1.37007,0.00295943,0.0137554,615,1240,-6.36076,-0.763998
-602,-216,-6.34814,0.835449,-0.000500478,0.0016879,-0.000964518,0.00205232,-0.0008649,-1.20955,0.00173014,0.0128007,622,1240,-6.34812,-0.835398
-595,-216,-6.33649,0.931519,-0.000933519,0.000179121,-0.00112744,0.00088003,-0.00163443,-1.01459,0.00147334,0.0168442,629,1240,-6.33648,-0.931565
-588,-216,-6.30823,1.05518,-0.00196177,-0.00100907,-0.00144641,3.74143e-05,-0.00300825,-0.944471,0.00201808,0.0188288,636,1240,-6.30823,-1.05512
-581,-216,-6.31604,1.18457,-0.00246021,-0.0022014,-0.00183145,-0.00049479,-0.00416682,-0.820667,0.00262852,0.0162245,643,1240,-6.31601,-1.1846
-574,-216,-6.36359,1.3103,-0.00278584,-0.00302732,-0.00216598,-0.000737234,-0.00507592,-0.757555,0.00316693,0.012842,650,1240,-6.3636,-1.31031
-567,-216,-6.34839,1.45764,-0.00294283,-0.00359513,-0.00263799,-0.000610907,-0.00592705,-0.723893,0.00376429,0.0219273,657,1240,-6.34841,-1.45767
-560,-216,-6.29718,1.73535,-0.00289265,-0.00433545,-0.00310939,-0.000422075,-0.00680602,-0.671411,0.00440341,0.0446804,664,1240,-6.2972,-1.73531
-553,-216,-7.78375,0.240601,0,0,0,0,0,0,0,-1,671,1240,-7.78375,-0.240648
-546,-216,-7.98938,0.33667,-0.00291636,-0.00588721,-0.00417956,3.38946e-05,-0.00883746,-0.614658,0.00590297,0.0411905,678,1240,-7.98939,-0.336618
-539,-216,-8.04962,0.379517,-0.00246783,-0.0065319,-0.00482373,0.000734404,-0.00973413,-0.58605,0.00674756,0.038868,685,1240,-8.04964,-0.379543
-532,-216,-8.04431,0.359741,-0.00135643,-0.00698086,-0.00553198,0.00203711,-0.0103744,-0.550243,0.00768583,0.0387726,692,1240,-8.0443,-0.359762
-525,-216,-8.11334,0.368042,0.000678063,-0.00704186,-0.00626583,0.00417744,-0.0105412,-0.509335,0.0087586,0.0406791,699,1240,-8.11332,-0.368015
-518,-216,-8.12659,0.455811,0.00389004,-0.00649935,-0.00697228,0.00739003,-0.00999934,-0.465235,0.0100774,0.0425897,706,1240,-8.12658,-0.45576
-511,-216,-8.1004,0.251465,0.00894534,-0.00529714,-0.00747229,0.0121463,-0.00849806,-0.404724,0.0119809,0.0421103,713,1240,-8.10038,-0.251493
-504,-216,-7.95001,0.0174561,0.0158706,-0.00222015,-0.00738719,0.0185038,-0.00485337,-0.342415,0.0142322,0.0422469,720,1240,-7.95003,-0.0173951
-497,-216,0,0,0,0,0,0,0,0,0,-1,727,1240,0,0
-490,-216,0,0,0,0,0,0,0,0,0,-1,734,1240,0,0
-483,-216,0,0,0,0,0,0,0,0,0,-1,741,1240,0,0
-476,-216,0,0,0,0,0,0,0,0,0,-1,748,1240,0,0
-469,-216,0,0,0,0,0,0,0,0,0,-1,755,1240,0,0
-462,-216,0,0,0,0,0,0,0,0,0,-1,762,1240,0,0
-455,-216,0,0,0,0,0,0,0,0,0,-1,769,1240,0,0
-448,-216,0,0,0,0,0,0,0,0,0,-1,776,1240,0,0
-441,-216,0,0,0,0,0,0,0,0,0,-1,783,1240,0,0
-434,-216,0,0,0,0,0,0,0,0,0,-1,790,1240,0,0
-427,-216,0,0,0,0,0,0,0,0,0,-1,797,1240,0,0
-420,-216,0,0,0,0,0,0,0,0,0,-1,804,1240,0,0
-413,-216,0,0,0,0,0,0,0,0,0,-1,811,1240,0,0
-406,-216,0,0,0,0,0,0,0,0,0,-1,818,1240,0,0
-399,-216,0,0,0,0,0,0,0,0,0,-1,825,1240,0,0
-392,-216,0,0,0,0,0,0,0,0,0,-1,832,1240,0,0
-385,-216,0,0,0,0,0,0,0,0,0,-1,839,1240,0,0
-378,-216,0,0,0,0,0,0,0,0,0,-1,846,1240,0,0
-371,-216,0,0,0,0,0,0,0,0,0,-1,853,1240,0,0
-364,-216,0,0,0,0,0,0,0,0,0,-1,860,1240,0,0
-357,-216,0,0,0,0,0,0,0,0,0,-1,867,1240,0,0
-350,-216,0,0,0,0,0,0,0,0,0,-1,874,1240,0,0
-343,-216,0,0,0,0,0,0,0,0,0,-1,881,1240,0,0
-336,-216,0,0,0,0,0,0,0,0,0,-1,888,1240,0,0
-329,-216,0,0,0,0,0,0,0,0,0,-1,895,1240,0,0
-322,-216,0,0,0,0,0,0,0,0,0,-1,902,1240,0,0
-315,-216,0,0,0,0,0,0,0,0,0,-1,909,1240,0,0
-308,-216,0,0,0,0,0,0,0,0,0,-1,916,1240,0,0
-301,-216,0,0,0,0,0,0,0,0,0,-1,923,1240,0,0
-294,-216,0,0,0,0,0,0,0,0,0,-1,930,1240,0,0
-287,-216,0,0,0,0,0,0,0,0,0,-1,937,1240,0,0
-280,-216,0,0,0,0,0,0,0,0,0,-1,944,1240,0,0
-273,-216,0,0,0,0,0,0,0,0,0,-1,951,1240,0,0
-266,-216,0,0,0,0,0,0,0,0,0,-1,958,1240,0,0
-259,-216,0,0,0,0,0,0,0,0,0,-1,965,1240,0,0
-252,-216,0,0,0,0,0,0,0,0,0,-1,972,1240,0,0
-245,-216,0,0,0,0,0,0,0,0,0,-1,979,1240,0,0
-238,-216,0,0,0,0,0,0,0,0,0,-1,986,1240,0,0
-231,-216,0,0,0,0,0,0,0,0,0,-1,993,1240,0,0
-224,-216,0,0,0,0,0,0,0,0,0,-1,1000,1240,0,0
-217,-216,0,0,0,0,0,0,0,0,0,-1,1007,1240,0,0
-210,-216,0,0,0,0,0,0,0,0,0,-1,1014,1240,0,0
-203,-216,0,0,0,0,0,0,0,0,0,-1,1021,1240,0,0
-196,-216,0,0,0,0,0,0,0,0,0,-1,1028,1240,0,0
-189,-216,0,0,0,0,0,0,0,0,0,-1,1035,1240,0,0
-182,-216,0,0,0,0,0,0,0,0,0,-1,1042,1240,0,0
-175,-216,0,0,0,0,0,0,0,0,0,-1,1049,1240,0,0
-168,-216,0,0,0,0,0,0,0,0,0,-1,1056,1240,0,0
-161,-216,0,0,0,0,0,0,0,0,0,-1,1063,1240,0,0
-154,-216,0,0,0,0,0,0,0,0,0,-1,1070,1240,0,0
-147,-216,0,0,0,0,0,0,0,0,0,-1,1077,1240,0,0
-140,-216,0,0,0,0,0,0,0,0,0,-1,1084,1240,0,0
-133,-216,0,0,0,0,0,0,0,0,0,-1,1091,1240,0,0
-126,-216,0,0,0,0,0,0,0,0,0,-1,1098,1240,0,0
-119,-216,0,0,0,0,0,0,0,0,0,-1,1105,1240,0,0
-112,-216,0,0,0,0,0,0,0,0,0,-1,1112,1240,0,0
-105,-216,0,0,0,0,0,0,0,0,0,-1,1119,1240,0,0
-98,-216,0,0,0,0,0,0,0,0,0,-1,1126,1240,0,0
-91,-216,0,0,0,0,0,0,0,0,0,-1,1133,1240,0,0
-84,-216,0,0,0,0,0,0,0,0,0,-1,1140,1240,0,0
-77,-216,0,0,0,0,0,0,0,0,0,-1,1147,1240,0,0
-70,-216,0,0,0,0,0,0,0,0,0,-1,1154,1240,0,0
-63,-216,0,0,0,0,0,0,0,0,0,-1,1161,1240,0,0
-56,-216,0,0,0,0,0,0,0,0,0,-1,1168,1240,0,0
-49,-216,0,0,0,0,0,0,0,0,0,-1,1175,1240,0,0
-42,-216,0,0,0,0,0,0,0,0,0,-1,1182,1240,0,0
-35,-216,0,0,0,0,0,0,0,0,0,-1,1189,1240,0,0
-28,-216,0,0,0,0,0,0,0,0,0,-1,1196,1240,0,0
-21,-216,0,0,0,0,0,0,0,0,0,-1,1203,1240,0,0
-14,-216,0,0,0,0,0,0,0,0,0,-1,1210,1240,0,0
-7,-216,0,0,0,0,0,0,0,0,0,-1,1217,1240,0,0
0,-216,0,0,0,0,0,0,0,0,0,-1,1224,1240,0,0
7,-216,0,0,0,0,0,0,0,0,0,-1,1231,1240,0,0
14,-216,0,0,0,0,0,0,0,0,0,-1,1238,1240,0,0
21,-216,0,0,0,0,0,0,0,0,0,-1,1245,1240,0,0
28,-216,0,0,0,0,0,0,0,0,0,-1,1252,1240,0,0
35,-216,0,0,0,0,0,0,0,0,0,-1,1259,1240,0,0
42,-216,0,0,0,0,0,0,0,0,0,-1,1266,1240,0,0
49,-216,0,0,0,0,0,0,0,0,0,-1,1273,1240,0,0
56,-216,0,0,0,0,0,0,0,0,0,-1,1280,1240,0,0
63,-216,0,0,0,0,0,0,0,0,0,-1,1287,1240,0,0
70,-216,0,0,0,0,0,0,0,0,0,-1,1294,1240,0,0
77,-216,0,0,0,0,0,0,0,0,0,-1,1301,1240,0,0
84,-216,0,0,0,0,0,0,0,0,0,-1,1308,1240,0,0
91,-216,0,0,0,0,0,0,0,0,0,-1,1315,1240,0,0
98,-216,0,0,0,0,0,0,0,0,0,-1,1322,1240,0,0
105,-216,0,0,0,0,0,0,0,0,0,-1,1329,1240,0,0
112,-216,0,0,0,0,0,0,0,0,0,-1,1336,1240,0,0
119,-216,0,0,0,0,0,0,0,0,0,-1,1343,1240,0,0
126,-216,0,0,0,0,0,0,0,0,0,-1,1350,1240,0,0
133,-216,0,0,0,0,0,0,0,0,0,-1,1357,1240,0,0
140,-216,0,0,0,0,0,0,0,0,0,-1,1364,1240,0,0
147,-216,0,0,0,0,0,0,0,0,0,-1,1371,1240,0,0
154,-216,0,0,0,0,0,0,0,0,0,-1,1378,1240,0,0
161,-216,0,0,0,0,0,0,0,0,0,-1,1385,1240,0,0
168,-216,0,0,0,0,0,0,0,0,0,-1,1392,1240,0,0
175,-216,0,0,0,0,0,0,0,0,0,-1,1399,1240,0,0
182,-216,0,0,0,0,0,0,0,0,0,-1,1406,1240,0,0
189,-216,0,0,0,0,0,0,0,0,0,-1,1413,1240,0,0
196,-216,0,0,0,0,0,0,0,0,0,-1,1420,1240,0,0
203,-216,0,0,0,0,0,0,0,0,0,-1,1427,1240,0,0
210,-216,0,0,0,0,0,0,0,0,0,-1,1434,1240,0,0
217,-216,0,0,0,0,0,0,0,0,0,-1,1441,1240,0,0
224,-216,0,0,0,0,0,0,0,0,0,-1,1448,1240,0,0
231,-216,0,0,0,0,0,0,0,0,0,-1,1455,1240,0,0
238,-216,0,0,0,0,0,0,0,0,0,-1,1462,1240,0,0
245,-216,0,0,0,0,0,0,0,0,0,-1,1469,1240,0,0
252,-216,0,0,0,0,0,0,0,0,0,-1,1476,1240,0,0
259,-216,0,0,0,0,0,0,0,0,0,-1,1483,1240,0,0
266,-216,0,0,0,0,0,0,0,0,0,-1,1490,1240,0,0
273,-216,0,0,0,0,0,0,0,0,0,-1,1497,1240,0,0
280,-216,0,0,0,0,0,0,0,0,0,-1,1504,1240,0,0
287,-216,0,0,0,0,0,0,0,0,0,-1,1511,1240,0,0
294,-216,0,0,0,0,0,0,0,0,0,-1,1518,1240,0,0
301,-216,0,0,0,0,0,0,0,0,0,-1,1525,1240,0,0
308,-216,0,0,0,0,0,0,0,0,0,-1,1532,1240,0,0
315,-216,0,0,0,0,0,0,0,0,0,-1,1539,1240,0,0
322,-216,0,0,0,0,0,0,0,0,0,-1,1546,1240,0,0
329,-216,0,0,0,0,0,0,0,0,0,-1,1553,1240,0,0
336,-216,0,0,0,0,0,0,0,0,0,-1,1560,1240,0,0
343,-216,0,0,0,0,0,0,0,0,0,-1,1567,1240,0,0
350,-216,0,0,0,0,0,0,0,0,0,-1,1574,1240,0,0
357,-216,0,0,0,0,0,0,0,0,0,-1,1581,1240,0,0
364,-216,0,0,0,0,0,0,0,0,0,-1,1588,1240,0,0
371,-216,0,0,0,0,0,0,0,0,0,-1,1595,1240,0,0
378,-216,0,0,0,0,0,0,0,0,0,-1,1602,1240,0,0
385,-216,0,0,0,0,0,0,0,0,0,-1,1609,1240,0,0
392,-216,0,0,0,0,0,0,0,0,0,-1,1616,1240,0,0
399,-216,0,0,0,0,0,0,0,0,0,-1,1623,1240,0,0
406,-216,0,0,0,0,0,0,0,0,0,-1,1630,1240,0,0
413,-216,0,0,0,0,0,0,0,0,0,-1,1637,1240,0,0
420,-216,0,0,0,0,0,0,0,0,0,-1,1644,1240,0,0
427,-216,0,0,0,0,0,0,0,0,0,-1,1651,1240,0,0
434,-216,0,0,0,0,0,0,0,0,0,-1,1658,1240,0,0
441,-216,0,0,0,0,0,0,0,0,0,-1,1665,1240,0,0
448,-216,0,0,0,0,0,0,0,0,0,-1,1672,1240,0,0
455,-216,0,0,0,0,0,0,0,0,0,-1,1679,1240,0,0
462,-216,0,0,0,0,0,0,0,0,0,-1,1686,1240,0,0
469,-216,0,0,0,0,0,0,0,0,0,-1,1693,1240,0,0
476,-216,0,0,0,0,0,0,0,0,0,-1,1700,1240,0,0
483,-216,0,0,0,0,0,0,0,0,0,-1,1707,1240,0,0
490,-216,0,0,0,0,0,0,0,0,0,-1,1714,1240,0,0
497,-216,0,0,0,0,0,0,0,0,0,-1,1721,1240,0,0
504,-216,0,0,0,0,0,0,0,0,0,-1,1728,1240,0,0
511,-216,0,0,0,0,0,0,0,0,0,-1,1735,1240,0,0
518,-216,0,0,0,0,0,0,0,0,0,-1,1742,1240,0,0
525,-216,0,0,0,0,0,0,0,0,0,-1,1749,1240,0,0
532,-216,0,0,0,0,0,0,0,0,0,-1,1756,1240,0,0
539,-216,0,0,0,0,0,0,0,0,0,-1,1763,1240,0,0
546,-216,0,0,0,0,0,0,0,0,0,-1,1770,1240,0,0
553,-216,0,0,0,0,0,0,0,0,0,-1,1777,1240,0,0
560,-216,0,0,0,0,0,0,0,0,0,-1,1784,1240,0,0
567,-216,0,0,0,0,0,0,0,0,0,-1,1791,1240,0,0
574,-216,0,0,0,0,0,0,0,0,0,-1,1798,1240,0,0
581,-216,0,0,0,0,0,0,0,0,0,-1,1805,1240,0,0
588,-216,0,0,0,0,0,0,0,0,0,-1,1812,1240,0,0
595,-216,0,0,0,0,0,0,0,0,0,-1,1819,1240,0,0
602,-216,0,0,0,0,0,0,0,0,0,-1,1826,1240,0,0
609,-216,0,0,0,0,0,0,0,0,0,-1,1833,1240,0,0
616,-216,0,0,0,0,0,0,0,0,0,-1,1840,1240,0,0
623,-216,14.0709,1.88062,-0.00554386,-2.2316e-05,0.00103976,0.00016699,-0.00573316,1.3907,0.00387897,0.0406783,1847,1240,14.0709,-1.88057
630,-216,14.0646,1.948,-0.00297319,0.000612986,-0.000725689,0.000754269,-0.00311447,-1.37851,0.00236812,0.0403766,1854,1240,14.0646,-1.94804
637,-216,14.0631,1.91577,-0.000294086,0.000892671,-0.0022422,0.00261868,-0.0020201,-0.914753,0.00268562,0.0337237,1861,1240,14.0632,-1.91572
644,-216,14.0378,1.87012,0.00125063,0.000392667,-0.00232543,0.00318631,-0.00154302,-0.694186,0.00278488,0.025677,1868,1240,14.0379,-1.87007
651,-216,14.0095,1.87988,0.00185525,-0.000401389,-0.0016381,0.00271602,-0.00126216,-0.483814,0.00234738,0.0208786,1875,1240,14.0095,-1.87986
658,-216,14.0663,1.93018,0.00204809,-0.00117916,-0.000770518,0.00222262,-0.00135369,-0.222746,0.002085,0.0293721,1882,1240,14.0663,-1.93021
665,-216,14.3788,2.03015,0.00191386,-0.00188919,0.000152805,0.00191999,-0.00189532,0.0400935,0.00220278,0.0401898,1889,1240,14.3787,-2.03011
672,-216,15.1343,1.68896,0.00153302,-0.00254372,0.00102285,0.00177526,-0.00278596,0.232542,0.00265488,0.0443127,1896,1240,15.1343,-1.68892
679,-216,12.2654,2.70691,0,0,0,0,0,0,0,-1,1903,1240,12.2654,-2.70695
686,-216,12.2518,2.91382,0.00026637,-0.00330037,0.00263378,0.00166375,-0.00469775,0.487798,0.00380951,0.0497346,1910,1240,12.2518,-2.91377
693,-216,12.4111,3.20911,-0.000520506,-0.00345482,0.00333872,0.00165919,-0.00563452,0.57838,0.0044146,0.0323463,1917,1240,12.4111,-3.20914
700,-216,12.4117,3.20593,-0.00123325,-0.00341315,0.0038796,0.0017066,-0.006353,0.648457,0.0049042,0.0138243,1924,1240,12.4118,-3.20588
707,-216,12.4243,3.09473,-0.00185161,-0.00325649,0.00399703,0.00150424,-0.00661233,0.698416,0.00498585,0.0147064,1931,1240,12.4244,-3.09472
714,-216,12.4404,2.98962,-0.0025461,-0.00262172,0.00359969,0.00101598,-0.0061838,0.780146,0.00449959,0.0137816,1938,1240,12.4404,-2.98967
721,-216,12.4354,2.88904,-0.00259662,-0.00167148,0.00310561,0.00100582,-0.00527392,0.859328,0.00389475,0.0122806,1945,1240,12.4354,-2.88906
728,-216,12.4437,2.78638,-0.0022074,-0.000762948,0.00290911,0.00151225,-0.0044826,0.90707,0.00359996,0.0109517,1952,1240,12.4438,-2.78632
735,-216,12.4449,2.7052,-0.00171727,0.000209275,0.00280151,0.00220849,-0.00371649,0.950987,0.00345752,0.0103731,1959,1240,12.445,-2.70523
742,-216,12.4354,2.63354,-0.000481828,0.00172684,0.0027793,0.00361317,-0.00236816,0.974504,0.00347817,0.0107538,1966,1240,12.4354,-2.63352
749,-216,12.4441,2.53198,0.000656896,0.00311306,0.00304067,0.00516429,-0.00139433,0.977324,0.0039897,0.00862221,1973,1240,12.4441,-2.53204
756,-216,12.426,2.43384,0.00153449,0.00459589,0.00419237,0.00752826,-0.00139788,0.960437,0.00554386,0.00937682,1980,1240,12.426,-2.43383
763,-216,12.4188,2.35425,0.00241633,0.00641695,0.00605542,0.0107939,-0.00196062,0.944923,0.00793067,0.01492,1987,1240,12.4188,-2.35428
770,-216,12.5101,2.30273,0.0035306,0.00880482,0.00860906,0.0151716,-0.00283619,0.93402,0.0111804,0.0368915,1994,1240,12.5102,-2.30274
777,-216,12.6711,2.26843,0.00493645,0.0119749,0.0120157,0.0209762,-0.00406479,0.927857,0.0155175,0.0480569,2001,1240,12.6711,-2.26843
784,-216,12.6049,2.34937,0.00670487,0.0162544,0.0164869,0.028644,-0.00568471,0.926347,0.0212459,0.0463411,2008,1240,12.6048,-2.34937
791,-216,12.245,1.6283,0,0,0,0,0,0,0,-1,2015,1240,12.245,-1.62828
798,-216,0,0,0,0,0,0,0,0,0,-1,2022,1240,0,0
805,-216,0,0,0,0,0,0,0,0,0,-1,2029,1240,0,0
812,-216,0,0,0,0,0,0,0,0,0,-1,2036,1240,0,0
-700,-223,0,0,0,0,0,0,0,0,0,-1,524,1247,0,0
-693,-223,0,0,0,0,0,0,0,0,0,-1,531,1247,0,0
-686,-223,0,0,0,0,0,0,0,0,0,-1,538,1247,0,0
-679,-223,0,0,0,0,0,0,0,0,0,-1,545,1247,0,0
-672,-223,-6.60803,-0.831543,0.0209905,0.0957365,-0.00534151,0.0961163,0.0206107,-1.49981,0.0584318,0.0464956,552,1247,-6.60803,0.831576
-665,-223,-6.72296,-0.49585,0.0176836,0.0771118,-0.00213803,0.0771886,0.0176068,-1.53488,0.0467097,0.0467894,559,1247,-6.72293,0.495807
-658,-223,-6.4187,-0.306274,0.0141826,0.06107,-0.00030729,0.061072,0.0141806,-1.56424,0.0369074,0.044484,566,1247,-6.41873,0.306224
-651,-223,-6.32733,0.0238037,0.0109206,0.0475195,0.000648266,0.047531,0.0109091,1.55309,0.0287494,0.0453813,573,1247,-6.32736,-0.023851
-644,-223,-6.11627,0.160645,0.00801639,0.0362448,0.00108799,0.0362866,0.00797452,1.53233,0.0220196,0.0460521,580,1247,-6.11629,-0.1607
-637,-223,-6.1236,0.119385,0.00557575,0.0270194,0.00121611,0.0270882,0.005507,1.51433,0.0165318,0.0444026,587,1247,-6.12361,-0.119348
-630,-223,-6.19849,0.315552,0.00361087,0.0196273,0.00114872,0.0197093,0.0035289,1.49956,0.0121355,0.0338136,594,1247,-6.19848,-0.315501
-623,-223,-6.25378,0.51062,0.00195783,0.0134588,0.00116859,0.0135763,0.0018403,1.47055,0.00850409,0.0194168,601,1247,-6.25379,-0.510657
-616,-223,-6.27252,0.652222,0.00128285,0.0089979,0.000879424,0.00909688,0.00118388,1.45872,0.00571101,0.0158986,608,1247,-6.27252,-0.652192
-609,-223,-6.25592,0.757935,0.000563129,0.00491701,0.000479904,0.00496928,0.000510859,1.46231,0.00315638,0.0123458,615,1247,-6.2559,-0.757938
-602,-223,-6.25464,0.82312,0.000214959,0.00232248,0.000122942,0.00232963,0.000207812,1.51272,0.00148866,0.0143191,622,1247,-6.25461,-0.823118
-595,-223,-6.22388,0.947021,-9.51094e-05,0.000642339,-0.000262376,0.000726162,-0.000178932,-1.26157,0.000553478,0.0199695,629,1247,-6.22388,-0.947021
-588,-223,-6.20782,1.05554,-0.00118617,-0.000808878,-0.000695047,-0.000277333,-0.00171772,-0.917914,0.00106481,0.0221765,636,1247,-6.20782,-1.0555
-581,-223,-6.21722,1.16663,-0.00183566,-0.00221457,-0.00112825,-0.000881071,-0.00316917,-0.702215,0.00188887,0.0200789,643,1247,-6.21722,-1.16669
-574,-223,-6.24561,1.27209,-0.00243101,-0.00324646,-0.00155349,-0.00123263,-0.00444484,-0.657064,0.00264971,0.0174566,650,1247,-6.24563,-1.27212
-567,-223,-6.12103,1.40015,-0.00272864,-0.00386684,-0.00216955,-0.00105479,-0.00554069,-0.657131,0.00339723,0.0222779,657,1247,-6.12105,-1.40011
-560,-223,-6.07312,1.63477,-0.00273808,-0.00472449,-0.00276578,-0.000792578,-0.00666998,-0.613016,0.00420742,0.0351903,664,1247,-6.07312,-1.63482
-553,-223,-5.92719,1.99207,0,0,0,0,0,0,0,-1,671,1247,-5.92716,-1.99204
-546,-223,-7.66449,0.432861,0,0,0,0,0,0,0,-1,678,1247,-7.66446,-0.432899
-539,-223,-8.05353,1.50696,0,0,0,0,0,0,0,-1,685,1247,-8.05351,-1.50694
-532,-223,-8.28107,0.974976,-0.00201807,-0.0077708,-0.00603951,0.00179505,-0.0115839,-0.563161,0.00838526,0.0419481,692,1247,-8.28105,-0.975026
-525,-223,-8.11493,0.383301,-0.000254677,-0.0079731,-0.00706492,0.00393637,-0.0121641,-0.535418,0.00969178,0.0479437,699,1247,-8.11495,-0.383348
-518,-223,-8.13568,0.41333,0.00261853,-0.00766544,-0.00802732,0.00700954,-0.0120564,-0.500543,0.0111356,0.0434828,706,1247,-8.13567,-0.413285
-511,-223,-8.05554,0.251587,0.00714159,-0.00679478,-0.0086596,0.0112885,-0.0109416,-0.446605,0.0128351,0.039826,713,1247,-8.05552,-0.251636
-504,-223,-7.91565,0.00354004,0.0134681,-0.00460462,-0.00846281,0.0168122,-0.00794868,-0.376317,0.0145978,0.0413686,720,1247,-7.91564,-0.00359234
-497,-223,0,0,0,0,0,0,0,0,0,-1,727,1247,0,0
-490,-223,0,0,0,0,0,0,0,0,0,-1,734,1247,0,0
-483,-223,0,0,0,0,0,0,0,0,0,-1,741,1247,0,0
-476,-223,0,0,0,0,0,0,0,0,0,-1,748,1247,0,0
-469,-223,0,0,0,0,0,0,0,0,0,-1,755,1247,0,0
-462,-223,0,0,0,0,0,0,0,0,0,-1,762,1247,0,0
-455,-223,0,0,0,0,0,0,0,0,0,-1,769,1247,0,0
-448,-223,0,0,0,0,0,0,0,0,0,-1,776,1247,0,0
-441,-223,0,0,0,0,0,0,0,0,0,-1,783,1247,0,0
-434,-223,0,0,0,0,0,0,0,0,0,-1,790,1247,0,0
-427,-223,0,0,0,0,0,0,0,0,0,-1,797,1247,0,0
-420,-223,0,0,0,0,0,0,0,0,0,-1,804,1247,0,0
-413,-223,0,0,0,0,0,0,0,0,0,-1,811,1247,0,0
-406,-223,0,0,0,0,0,0,0,0,0,-1,818,1247,0,0
-399,-223,0,0,0,0,0,0,0,0,0,-1,825,1247,0,0
-392,-223,0,0,0,0,0,0,0,0,0,-1,832,1247,0,0
-385,-223,0,0,0,0,0,0,0,0,0,-1,839,1247,0,0
-378,-223,0,0,0,0,0,0,0,0,0,-1,846,1247,0,0
-371,-223,0,0,0,0,0,0,0,0,0,-1,853,1247,0,0
-364,-223,0,0,0,0,0,0,0,0,0,-1,860,1247,0,0
-357,-223,0,0,0,0,0,0,0,0,0,-1,867,1247,0,0
-350,-223,0,0,0,0,0,0,0,0,0,-1,874,1247,0,0
-343,-223,0,0,0,0,0,0,0,0,0,-1,881,1247,0,0
-336,-223,0,0,0,0,0,0,0,0,0,-1,888,1247,0,0
-329,-223,0,0,0,0,0,0,0,0,0,-1,895,1247,0,0
-322,-223,0,0,0,0,0,0,0,0,0,-1,902,1247,0,0
-315,-223,0,0,0,0,0,0,0,0,0,-1,909,1247,0,0
-308,-223,0,0,0,0,0,0,0,0,0,-1,916,1247,0,0
-301,-223,0,0,0,0,0,0,0,0,0,-1,923,1247,0,0
-294,-223,0,0,0,0,0,0,0,0,0,-1,930,1247,0,0
-287,-223,0,0,0,0,0,0,0,0,0,-1,937,1247,0,0
-280,-223,0,0,0,0,0,0,0,0,0,-1,944,1247,0,0
-273,-223,0,0,0,0,0,0,0,0,0,-1,951,1247,0,0
-266,-223,0,0,0,0,0,0,0,0,0,-1,958,1247,0,0
-259,-223,0,0,0,0,0,0,0,0,0,-1,965,1247,0,0
-252,-223,0,0,0,0,0,0,0,0,0,-1,972,1247,0,0
-245,-223,0,0,0,0,0,0,0,0,0,-1,979,1247,0,0
-238,-223,0,0,0,0,0,0,0,0,0,-1,986,1247,0,0
-231,-223,0,0,0,0,0,0,0,0,0,-1,993,1247,0,0
-224,-223,0,0,0,0,0,0,0,0,0,-1,1000,1247,0,0
-217,-223,0,0,0,0,0,0,0,0,0,-1,1007,1247,0,0
-210,-223,0,0,0,0,0,0,0,0,0,-1,1014,1247,0,0
-203,-223,0,0,0,0,0,0,0,0,0,-1,1021,1247,0,0
-196,-223,0,0,0,0,0,0,0,0,0,-1,1028,1247,0,0
-189,-223,0,0,0,0,0,0,0,0,0,-1,1035,1247,0,0
-182,-223,0,0,0,0,0,0,0,0,0,-1,1042,1247,0,0
-175,-223,0,0,0,0,0,0,0,0,0,-1,1049,1247,0,0
-168,-223,0,0,0,0,0,0,0,0,0,-1,1056,1247,0,0
-161,-223,0,0,0,0,0,0,0,0,0,-1,1063,1247,0,0
-154,-223,0,0,0,0,0,0,0,0,0,-1,1070,1247,0,0
-147,-223,0,0,0,0,0,0,0,0,0,-1,1077,1247,0,0
-140,-223,0,0,0,0,0,0,0,0,0,-1,1084,1247,0,0
-133,-223,0,0,0,0,0,0,0,0,0,-1,1091,1247,0,0
-126,-223,0,0,0,0,0,0,0,0,0,-1,1098,1247,0,0
-119,-223,0,0,0,0,0,0,0,0,0,-1,1105,1247,0,0
-112,-223,0,0,0,0,0,0,0,0,0,-1,1112,1247,0,0
-105,-223,0,0,0,0,0,0,0,0,0,-1,1119,1247,0,0
-98,-223,0,0,0,0,0,0,0,0,0,-1,1126,1247,0,0
-91,-223,0,0,0,0,0,0,0,0,0,-1,1133,1247,0,0
-84,-223,0,0,0,0,0,0,0,0,0,-1,1140,1247,0,0
-77,-223,0,0,0,0,0,0,0,0,0,-1,1147,1247,0,0
-70,-223,0,0,0,0,0,0,0,0,0,-1,1154,1247,0,0
-63,-223,0,0,0,0,0,0,0,0,0,-1,1161,1247,0,0
-56,-223,0,0,0,0,0,0,0,0,0,-1,1168,1247,0,0
-49,-223,0,0,0,0,0,0,0,0,0,-1,1175,1247,0,0
-42,-223,0,0,0,0,0,0,0,0,0,-1,1182,1247,0,0
-35,-223,0,0,0,0,0,0,0,0,0,-1,1189,1247,0,0
-28,-223,0,0,0,0,0,0,0,0,0,-1,1196,1247,0,0
-21,-223,0,0,0,0,0,0,0,0,0,-1,1203,1247,0,0
-14,-223,0,0,0,0,0,0,0,0,0,-1,1210,1247,0,0
-7,-223,0,0,0,0,0,0,0,0,0,-1,1217,1247,0,0
0,-223,0,0,0,0,0,0,0,0,0,-1,1224,1247,0,0
7,-223,0,0,0,0,0,0,0,0,0,-1,1231,1247,0,0
14,-223,0,0,0,0,0,0,0,0,0,-1,1238,1247,0,0
21,-223,0,0,0,0,0,0,0,0,0,-1,1245,1247,0,0
28,-223,0,0,0,0,0,0,0,0,0,-1,1252,1247,0,0
35,-223,0,0,0,0,0,0,0,0,0,-1,1259,1247,0,0
42,-223,0,0,0,0,0,0,0,0,0,-1,1266,1247,0,0
49,-223,0,0,0,0,0,0,0,0,0,-1,1273,1247,0,0
56,-223,0,0,0,0,0,0,0,0,0,-1,1280,1247,0,0
63,-223,0,0,0,0,0,0,0,0,0,-1,1287,1247,0,0
70,-223,0,0,0,0,0,0,0,0,0,-1,1294,1247,0,0
77,-223,0,0,0,0,0,0,0,0,0,-1,1301,1247,0,0
84,-223,0,0,0,0,0,0,0,0,0,-1,1308,1247,0,0
91,-223,0,0,0,0,0,0,0,0,0,-1,1315,1247,0,0
98,-223,0,0,0,0,0,0,0,0,0,-1,1322,1247,0,0
105,-223,0,0,0,0,0,0,0,0,0,-1,1329,1247,0,0
112,-223,0,0,0,0,0,0,0,0,0,-1,1336,1247,0,0
119,-223,0,0,0,0,0,0,0,0,0,-1,1343,1247,0,0
126,-223,0,0,0,0,0,0,0,0,0,-1,1350,1247,0,0
133,-223,0,0,0,0,0,0,0,0,0,-1,1357,1247,0,0
140,-223,0,0,0,0,0,0,0,0,0,-1,1364,1247,0,0
147,-223,0,0,0,0,0,0,0,0,0,-1,1371,1247,0,0
154,-223,0,0,0,0,0,0,0,0,0,-1,1378,1247,0,0
161,-223,0,0,0,0,0,0,0,0,0,-1,1385,1247,0,0
168,-223,0,0,0,0,0,0,0,0,0,-1,1392,1247,0,0
175,-223,0,0,0,0,0,0,0,0,0,-1,1399,1247,0,0
182,-223,0,0,0,0,0,0,0,0,0,-1,1406,1247,0,0
189,-223,0,0,0,0,0,0,0,0,0,-1,1413,1247,0,0
196,-223,0,0,0,0,0,0,0,0,0,-1,1420,1247,0,0
203,-223,0,0,0,0,0,0,0,0,0,-1,1427,1247,0,0
210,-223,0,0,0,0,0,0,0,0,0,-1,1434,1247,0,0
217,-223,0,0,0,0,0,0,0,0,0,-1,1441,1247,0,0
224,-223,0,0,0,0,0,0,0,0,0,-1,1448,1247,0,0
231,-223,0,0,0,0,0,0,0,0,0,-1,1455,1247,0,0
238,-223,0,0,0,0,0,0,0,0,0,-1,1462,1247,0,0
245,-223,0,0,0,0,0,0,0,0,0,-1,1469,1247,0,0
252,-223,0,0,0,0,0,0,0,0,0,-1,1476,1247,0,0
259,-223,0,0,0,0,0,0,0,0,0,-1,1483,1247,0,0
266,-223,0,0,0,0,0,0,0,0,0,-1,1490,1247,0,0
273,-223,0,0,0,0,0,0,0,0,0,-1,1497,1247,0,0
280,-223,0,0,0,0,0,0,0,0,0,-1,1504,1247,0,0
287,-223,0,0,0,0,0,0,0,0,0,-1,1511,1247,0,0
294,-223,0,0,0,0,0,0,0,0,0,-1,1518,1247,0,0
301,-223,0,0,0,0,0,0,0,0,0,-1,1525,1247,0,0
308,-223,0,0,0,0,0,0,0,0,0,-1,1532,1247,0,0
315,-223,0,0,0,0,0,0,0,0,0,-1,1539,1247,0,0
322,-223,0,0,0,0,0,0,0,0,0,-1,1546,1247,0,0
329,-223,0,0,0,0,0,0,0,0,0,-1,1553,1247,0,0
336,-223,0,0,0,0,0,0,0,0,0,-1,1560,1247,0,0
343,-223,0,0,0,0,0,0,0,0,0,-1,1567,1247,0,0
350,-223,0,0,0,0,0,0,0,0,0,-1,1574,1247,0,0
357,-223,0,0,0,0,0,0,0,0,0,-1,1581,1247,0,0
364,-223,0,0,0,0,0,0,0,0,0,-1,1588,1247,0,0
371,-223,0,0,0,0,0,0,0,0,0,-1,1595,1247,0,0
378,-223,0,0,0,0,0,0,0,0,0,-1,1602,1247,0,0
385,-223,0,0,0,0,0,0,0,0,0,-1,1609,1247,0,0
392,-223,0,0,0,0,0,0,0,0,0,-1,1616,1247,0,0
399,-223,0,0,0,0,0,0,0,0,0,-1,1623,1247,0,0
406,-223,0,0,0,0,0,0,0,0,0,-1,1630,1247,0,0
413,-223,0,0,0,0,0,0,0,0,0,-1,1637,1247,0,0
420,-223,0,0,0,0,0,0,0,0,0,-1,1644,1247,0,0
427,-223,0,0,0,0,0,0,0,0,0,-1,1651,1247,0,0
434,-223,0,0,0,0,0,0,0,0,0,-1,1658,1247,0,0
441,-223,0,0,0,0,0,0,0,0,0,-1,1665,1247,0,0
448,-223,0,0,0,0,0,0,0,0,0,-1,1672,1247,0,0
455,-223,0,0,0,0,0,0,0,0,0,-1,1679,1247,0,0
462,-223,0,0,0,0,0,0,0,0,0,-1,1686,1247,0,0
469,-223,0,0,0,0,0,0,0,0,0,-1,1693,1247,0,0
476,-223,0,0,0,0,0,0,0,0,0,-1,1700,1247,0,0
483,-223,0,0,0,0,0,0,0,0,0,-1,1707,1247,0,0
490,-223,0,0,0,0,0,0,0,0,0,-1,1714,1247,0,0
497,-223,0,0,0,0,0,0,0,0,0,-1,1721,1247,0,0
504,-223,0,0,0,0,0,0,0,0,0,-1,1728,1247,0,0
511,-223,0,0,0,0,0,0,0,0,0,-1,1735,1247,0,0
518,-223,0,0,0,0,0,0,0,0,0,-1,1742,1247,0,0
525,-223,0,0,0,0,0,0,0,0,0,-1,1749,1247,0,0
532,-223,0,0,0,0,0,0,0,0,0,-1,1756,1247,0,0
539,-223,0,0,0,0,0,0,0,0,0,-1,1763,1247,0,0
546,-223,0,0,0,0,0,0,0,0,0,-1,1770,1247,0,0
553,-223,0,0,0,0,0,0,0,0,0,-1,1777,1247,0,0
560,-223,0,0,0,0,0,0,0,0,0,-1,1784,1247,0,0
567,-223,0,0,0,0,0,0,0,0,0,-1,1791,1247,0,0
574,-223,0,0,0,0,0,0,0,0,0,-1,1798,1247,0,0
581,-223,0,0,0,0,0,0,0,0,0,-1,1805,1247,0,0
588,-223,0,0,0,0,0,0,0,0,0,-1,1812,1247,0,0
595,-223,0,0,0,0,0,0,0,0,0,-1,1819,1247,0,0
602,-223,0,0,0,0,0,0,0,0,0,-1,1826,1247,0,0
609,-223,0,0,0,0,0,0,0,0,0,-1,1833,1247,0,0
616,-223,0,0,0,0,0,0,0,0,0,-1,1840,1247,0,0
623,-223,14.036,1.95984,-0.00380641,0.00145581,0.000221171,0.00146509,-0.00381569,1.52886,0.00314793,0.0405565,1847,1247,14.036,-1.95982
630,-223,14.0898,1.83643,-0.00133915,0.00184616,-0.00159131,0.00250491,-0.0019979,-1.17831,0.00260519,0.0380008,1854,1247,14.0899,-1.83637
637,-223,14.0206,1.93359,0.000894961,0.0017347,-0.0027902,0.00413644,-0.00150678,-0.860078,0.00337397,0.0307619,1861,1247,14.0206,-1.9336
644,-223,14.0171,1.89392,0.00208481,0.000988137,-0.00268326,0.00427519,-0.00120224,-0.684608,0.00332414,0.0216975,1868,1247,14.017,-1.89398
651,-223,13.9987,1.85498,0.00261426,0.000107585,-0.0020566,0.00376934,-0.00104749,-0.511739,0.00292526,0.0232257,1875,1247,13.9987,-1.855
658,-223,14.1034,1.95569,0.00284988,-0.000706608,-0.00131119,0.00328102,-0.00113775,-0.317678,0.00264932,0.0410348,1882,1247,14.1035,-1.95564
665,-223,14.5065,2.02417,0.00280992,-0.00143092,-0.000512799,0.00287104,-0.00149205,-0.118641,0.00256063,0.043121,1889,1247,14.5065,-2.02414
672,-223,14.8368,2.14502,0.00256791,-0.00209326,0.00024768,0.00258103,-0.00210638,0.0529382,0.0027109,0.0490647,1896,1247,14.8368,-2.14504
679,-223,12.1636,3.0365,0,0,0,0,0,0,0,-1,1903,1247,12.1636,-3.03646
686,-223,12.2329,3.11853,0.00147275,-0.00295511,0.00176681,0.00209133,-0.00357369,0.336773,0.00330781,0.0450956,1910,1247,12.2329,-3.11855
693,-223,12.3182,3.24731,0.000737162,-0.00315205,0.0024361,0.00190962,-0.00432451,0.448563,0.00368819,0.0221502,1917,1247,12.3182,-3.24732
700,-223,12.3322,3.18323,0.000120878,-0.00314495,0.00306362,0.00195959,-0.00498366,0.540548,0.00413348,0.010671,1924,1247,12.3321,-3.1832
707,-223,12.3416,3.1062,-0.00049816,-0.00296357,0.00321924,0.00171632,-0.00517805,0.602551,0.00414434,0.0129665,1931,1247,12.3416,-3.10621
714,-223,12.3477,2.99207,-0.00138649,-0.00222707,0.00277055,0.000995467,-0.00460903,0.710123,0.00345268,0.0112242,1938,1247,12.3477,-2.99206
721,-223,12.3323,2.88037,-0.00173865,-0.00111869,0.00224951,0.000842094,-0.00369943,0.853866,0.00278968,0.0129205,1945,1247,12.3323,-2.88037
728,-223,12.33,2.79358,-0.00183672,0.000130259,0.0020783,0.00144602,-0.00315249,1.0064,0.0027152,0.0146595,1952,1247,12.33,-2.79364
735,-223,12.3267,2.70935,-0.00192061,0.00130308,0.00208055,0.0023231,-0.00294063,1.11497,0.00304598,0.0136514,1959,1247,12.3266,-2.70941
742,-223,12.3187,2.61279,-0.00137095,0.00305609,0.00210763,0.003899,-0.00221386,1.19035,0.00357368,0.0114878,1966,1247,12.3187,-2.61276
749,-223,12.3356,2.51147,-0.000998111,0.00474213,0.00246916,0.00565808,-0.00191406,1.21557,0.00454642,0.009767,1973,1247,12.3356,-2.51142
756,-223,12.3278,2.41541,-0.000962248,0.00659563,0.00369319,0.00810064,-0.00246725,1.18384,0.0063838,0.0109066,1980,1247,12.3278,-2.41543
763,-223,12.3085,2.34009,-0.00104977,0.00881678,0.00565258,0.0113861,-0.00361908,1.14417,0.00904183,0.0136432,1987,1247,12.3084,-2.34004
770,-223,12.4119,2.25952,-0.00113089,0.0115515,0.00841878,0.0157501,-0.00532946,1.10818,0.0126563,0.0347156,1994,1247,12.4118,-2.25951
777,-223,12.5343,2.17957,0,0,0,0,0,0,0,-1,2001,1247,12.5344,-2.17957
784,-223,13.4795,1.4762,-0.00123351,0.0191763,0.017352,0.0291018,-0.011159,1.05121,0.0240017,0.0448648,2008,1247,13.4795,-1.47615
791,-223,13.2081,1.58289,0,0,0,0,0,0,0,-1,2015,1247,13.2082,-1.58292
798,-223,0,0,0,0,0,0,0,0,0,-1,2022,1247,0,0
805,-223,0,0,0,0,0,0,0,0,0,-1,2029,1247,0,0
812,-223,0,0,0,0,0,0,0,0,0,-1,2036,1247,0,0
-700,-230,0,0,0,0,0,0,0,0,0,-1,524,1254,0,0
-693,-230,0,0,0,0,0,0,0,0,0,-1,531,1254,0,0
-686,-230,0,0,0,0,0,0,0,0,0,-1,538,1254,0,0
-679,-230,0,0,0,0,0,0,0,0,0,-1,545,1254,0,0
-672,-230,-6.63763,-1.63672,0.0208675,0.103945,-0.000608856,0.103949,0.020863,-1.56347,0.063498,0.047228,552,1254,-6.63762,1.63677
-665,-230,-6.43011,-1.30347,0.0177628,0.0834752,0.00225295,0.0835524,0.0176857,1.53656,0.0508423,0.0448298,559,1254,-6.43009,1.30342
-658,-230,-6.47919,-0.714233,0.0143626,0.0660477,0.00366297,0.066306,0.0141043,1.50039,0.0403331,0.0450447,566,1254,-6.4792,0.714227
-651,-230,-6.30884,-0.484985,0.0112226,0.0514247,0.00418269,0.0518553,0.0107921,1.46822,0.0315933,0.0455702,573,1254,-6.30885,0.485043
-644,-230,-6.16827,-0.248047,0.00841364,0.0393116,0.00418771,0.0398691,0.00785613,1.43844,0.0243862,0.0464269,580,1254,-6.16826,0.248026
-637,-230,-5.9632,0.0776367,0.00603256,0.029423,0.00387819,0.0300493,0.00540631,1.4107,0.018496,0.0442404,587,1254,-5.96321,-0.0775793
-630,-230,-5.99292,0.342529,0.00410022,0.0215035,0.00337723,0.0221359,0.00346782,1.38569,0.0137479,0.0395016,594,1254,-5.99291,-0.342551
-623,-230,-6.1026,0.514038,0.00245454,0.014947,0.00299197,0.0156267,0.00177493,1.34744,0.00987942,0.0245516,601,1254,-6.10259,-0.514061
-616,-230,-6.16229,0.630249,0.00187303,0.0100401,0.00241952,0.0107031,0.00121006,1.30335,0.00676821,0.0157955,608,1254,-6.16229,-0.630295
-609,-230,-6.15454,0.738525,0.00117091,0.00590884,0.00180534,0.00651834,0.000561408,1.2452,0.00417104,0.0121787,615,1254,-6.15457,-0.738578
-602,-230,-6.14069,0.847168,0.000776555,0.00316006,0.00114258,0.0036193,0.000317319,1.18863,0.00231436,0.0117907,622,1254,-6.14069,-0.847218
-595,-230,-6.13544,0.99585,0.000550354,0.00131306,0.000571107,0.00161843,0.00024498,1.07977,0.00100728,0.0192946,629,1254,-6.13545,-0.995853
-588,-230,-6.11139,1.10303,-0.000626333,-0.000401926,1.33564e-05,-0.000401134,-0.000627125,1.51156,0.000366747,0.0257436,636,1254,-6.1114,-1.10302
-581,-230,-6.10614,1.17969,-0.00142965,-0.00204019,-0.000472792,-0.00117214,-0.0022977,-0.498733,0.00132667,0.0235267,643,1254,-6.10611,-1.17973
-574,-230,-6.12628,1.30127,-0.00225898,-0.00325187,-0.000918112,-0.00171169,-0.00379916,-0.537551,0.00219702,0.0179821,650,1254,-6.12628,-1.30132
-567,-230,-6.02924,1.43311,-0.00274038,-0.00392523,-0.00164611,-0.00158334,-0.00508227,-0.612667,0.00300293,0.0186255,657,1254,-6.02926,-1.43315
-560,-230,-5.95154,1.55225,-0.00286917,-0.00490766,-0.0023694,-0.00130909,-0.00646774,-0.582278,0.00394848,0.0295259,664,1254,-5.95152,-1.5522
-553,-230,-5.79333,1.61243,0,0,0,0,0,0,0,-1,671,1254,-5.79335,-1.61238
-546,-230,-6.98364,0.322876,0,0,0,0,0,0,0,-1,678,1254,-6.98365,-0.322841
-539,-230,-7.61877,0.942505,0,0,0,0,0,0,0,-1,685,1254,-7.61879,-0.94251
-532,-230,-8.07648,0.560791,0,0,0,0,0,0,0,-1,692,1254,-8.07648,-0.560739
-525,-230,-8.14032,0.550415,-0.00143567,-0.00836222,-0.00727673,0.00315991,-0.0129578,-0.563292,0.00986205,0.0485996,699,1254,-8.14031,-0.550454
-518,-230,-8.12183,0.384277,0.00109684,-0.00820961,-0.00833409,0.00598875,-0.0131015,-0.530788,0.0112739,0.0422454,706,1254,-8.12185,-0.38427
-511,-230,-8.00403,0.118042,0.00504394,-0.00766158,-0.00900246,0.00970943,-0.0123271,-0.478138,0.0127527,0.0383566,713,1254,-8.00401,-0.117995
-504,-230,-7.86853,-0.108521,0.0106237,-0.00634463,-0.00878747,0.0143543,-0.0100752,-0.401478,0.0141764,0.0392229,720,1254,-7.86851,0.108494
-497,-230,0,0,0,0,0,0,0,0,0,-1,727,1254,0,0
-490,-230,0,0,0,0,0,0,0,0,0,-1,734,1254,0,0
-483,-230,0,0,0,0,0,0,0,0,0,-1,741,1254,0,0
-476,-230,0,0,0,0,0,0,0,0,0,-1,748,1254,0,0
-469,-230,0,0,0,0,0,0,0,0,0,-1,755,1254,0,0
-462,-230,0,0,0,0,0,0,0,0,0,-1,762,1254,0,0
-455,-230,0,0,0,0,0,0,0,0,0,-1,769,1254,0,0
-448,-230,0,0,0,0,0,0,0,0,0,-1,776,1254,0,0
-441,-230,0,0,0,0,0,0,0,0,0,-1,783,1254,0,0
-434,-230,0,0,0,0,0,0,0,0,0,-1,790,1254,0,0
-427,-230,0,0,0,0,0,0,0,0,0,-1,797,1254,0,0
-420,-230,0,0,0,0,0,0,0,0,0,-1,804,1254,0,0
-413,-230,0,0,0,0,0,0,0,0,0,-1,811,1254,0,0
-406,-230,0,0,0,0,0,0,0,0,0,-1,818,1254,0,0
-399,-230,0,0,0,0,0,0,0,0,0,-1,825,1254,0,0
-392,-230,0,0,0,0,0,0,0,0,0,-1,832,1254,0,0
-385,-230,0,0,0,0,0,0,0,0,0,-1,839,1254,0,0
-378,-230,0,0,0,0,0,0,0,0,0,-1,846,1254,0,0
-371,-230,0,0,0,0,0,0,0,0,0,-1,853,1254,0,0
-364,-230,0,0,0,0,0,0,0,0,0,-1,860,1254,0,0
-357,-230,0,0,0,0,0,0,0,0,0,-1,867,1254,0,0
-350,-230,0,0,0,0,0,0,0,0,0,-1,874,1254,0,0
-343,-230,0,0,0,0,0,0,0,0,0,-1,881,1254,0,0
-336,-230,0,0,0,0,0,0,0,0,0,-1,888,1254,0,0
-329,-230,0,0,0,0,0,0,0,0,0,-1,895,1254,0,0
-322,-230,0,0,0,0,0,0,0,0,0,-1,902,1254,0,0
-315,-230,0,0,0,0,0,0,0,0,0,-1,909,1254,0,0
-308,-230,0,0,0,0,0,0,0,0,0,-1,916,1254,0,0
-301,-230,0,0,0,0,0,0,0,0,0,-1,923,1254,0,0
-294,-230,0,0,0,0,0,0,0,0,0,-1,930,1254,0,0
-287,-230,0,0,0,0,0,0,0,0,0,-1,937,1254,0,0
-280,-230,0,0,0,0,0,0,0,0,0,-1,944,1254,0,0
-273,-230,0,0,0,0,0,0,0,0,0,-1,951,1254,0,0
-266,-230,0,0,0,0,0,0,0,0,0,-1,958,1254,0,0
-259,-230,0,0,0,0,0,0,0,0,0,-1,965,1254,0,0
-252,-230,0,0,0,0,0,0,0,0,0,-1,972,1254,0,0
-245,-230,0,0,0,0,0,0,0,0,0,-1,979,1254,0,0
-238,-230,0,0,0,0,0,0,0,0,0,-1,986,1254,0,0
-231,-230,0,0,0,0,0,0,0,0,0,-1,993,1254,0,0
-224,-230,0,0,0,0,0,0,0,0,0,-1,1000,1254,0,0
-217,-230,0,0,0,0,0,0,0,0,0,-1,1007,1254,0,0
-210,-230,0,0,0,0,0,0,0,0,0,-1,1014,1254,0,0
-203,-230,0,0,0,0,0,0,0,0,0,-1,1021,1254,0,0
-196,-230,0,0,0,0,0,0,0,0,0,-1,1028,1254,0,0
-189,-230,0,0,0,0,0,0,0,0,0,-1,1035,1254,0,0
-182,-230,0,0,0,0,0,0,0,0,0,-1,1042,1254,0,0
-175,-230,0,0,0,0,0,0,0,0,0,-1,1049,1254,0,0
-168,-230,0,0,0,0,0,0,0,0,0,-1,1056,1254,0,0
-161,-230,0,0,0,0,0,0,0,0,0,-1,1063,1254,0,0
-154,-230,0,0,0,0,0,0,0,0,0,-1,1070,1254,0,0
-147,-230,0,0,0,0,0,0,0,0,0,-1,1077,1254,0,0
-140,-230,0,0,0,0,0,0,0,0,0,-1,1084,1254,0,0
-133,-230,0,0,0,0,0,0,0,0,0,-1,1091,1254,0,0
-126,-230,0,0,0,0,0,0,0,0,0,-1,1098,1254,0,0
-119,-230,0,0,0,0,0,0,0,0,0,-1,1105,1254,0,0
-112,-230,0,0,0,0,0,0,0,0,0,-1,1112,1254,0,0
-105,-230,0,0,0,0,0,0,0,0,0,-1,1119,1254,0,0
-98,-230,0,0,0,0,0,0,0,0,0,-1,1126,1254,0,0
-91,-230,0,0,0,0,0,0,0,0,0,-1,1133,1254,0,0
-84,-230,0,0,0,0,0,0,0,0,0,-1,1140,1254,0,0
-77,-230,0,0,0,0,0,0,0,0,0,-1,1147,1254,0,0
-70,-230,0,0,0,0,0,0,0,0,0,-1,1154,1254,0,0
-63,-230,0,0,0,0,0,0,0,0,0,-1,1161,1254,0,0
-56,-230,0,0,0,0,0,0,0,0,0,-1,1168,1254,0,0
-49,-230,0,0,0,0,0,0,0,0,0,-1,1175,1254,0,0
-42,-230,0,0,0,0,0,0,0,0,0,-1,1182,1254,0,0
-35,-230,0,0,0,0,0,0,0,0,0,-1,1189,1254,0,0
-28,-230,0,0,0,0,0,0,0,0,0,-1,1196,1254,0,0
-21,-230,0,0,0,0,0,0,0,0,0,-1,1203,1254,0,0
-14,-230,0,0,0,0,0,0,0,0,0,-1,1210,1254,0,0
-7,-230,0,0,0,0,0,0,0,0,0,-1,1217,1254,0,0
0,-230,0,0,0,0,0,0,0,0,0,-1,1224,1254,0,0
7,-230,0,0,0,0,0,0,0,0,0,-1,1231,1254,0,0
14,-230,0,0,0,0,0,0,0,0,0,-1,1238,1254,0,0
21,-230,0,0,0,0,0,0,0,0,0,-1,1245,1254,0,0
28,-230,0,0,0,0,0,0,0,0,0,-1,1252,1254,0,0
35,-230,0,0,0,0,0,0,0,0,0,-1,1259,1254,0,0
42,-230,0,0,0,0,0,0,0,0,0,-1,1266,1254,0,0
49,-230,0,0,0,0,0,0,0,0,0,-1,1273,1254,0,0
56,-230,0,0,0,0,0,0,0,0,0,-1,1280,1254,0,0
63,-230,0,0,0,0,0,0,0,0,0,-1,1287,1254,0,0
70,-230,0,0,0,0,0,0,0,0,0,-1,1294,1254,0,0
77,-230,0,0,0,0,0,0,0,0,0,-1,1301,1254,0,0
84,-230,0,0,0,0,0,0,0,0,0,-1,1308,1254,0,0
91,-230,0,0,0,0,0,0,0,0,0,-1,1315,1254,0,0
98,-230,0,0,0,0,0,0,0,0,0,-1,1322,1254,0,0
105,-230,0,0,0,0,0,0,0,0,0,-1,1329,1254,0,0
112,-230,0,0,0,0,0,0,0,0,0,-1,1336,1254,0,0
119,-230,0,0,0,0,0,0,0,0,0,-1,1343,1254,0,0
126,-230,0,0,0,0,0,0,0,0,0,-1,1350,1254,0,0
133,-230,0,0,0,0,0,0,0,0,0,-1,1357,1254,0,0
140,-230,0,0,0,0,0,0,0,0,0,-1,1364,1254,0,0
147,-230,0,0,0,0,0,0,0,0,0,-1,1371,1254,0,0
154,-230,0,0,0,0,0,0,0,0,0,-1,1378,1254,0,0
161,-230,0,0,0,0,0,0,0,0,0,-1,1385,1254,0,0
168,-230,0,0,0,0,0,0,0,0,0,-1,1392,1254,0,0
175,-230,0,0,0,0,0,0,0,0,0,-1,1399,1254,0,0
182,-230,0,0,0,0,0,0,0,0,0,-1,1406,1254,0,0
189,-230,0,0,0,0,0,0,0,0,0,-1,1413,1254,0,0
196,-230,0,0,0,0,0,0,0,0,0,-1,1420,1254,0,0
203,-230,0,0,0,0,0,0,0,0,0,-1,1427,1254,0,0
210,-230,0,0,0,0,0,0,0,0,0,-1,1434,1254,0,0
217,-230,0,0,0,0,0,0,0,0,0,-1,1441,1254,0,0
224,-230,0,0,0,0,0,0,0,0,0,-1,1448,1254,0,0
231,-230,0,0,0,0,0,0,0,0,0,-1,1455,1254,0,0
238,-230,0,0,0,0,0,0,0,0,0,-1,1462,1254,0,0
245,-230,0,0,0,0,0,0,0,0,0,-1,1469,1254,0,0
252,-230,0,0,0,0,0,0,0,0,0,-1,1476,1254,0,0
259,-230,0,0,0,0,0,0,0,0,0,-1,1483,1254,0,0
266,-230,0,0,0,0,0,0,0,0,0,-1,1490,1254,0,0
273,-230,0,0,0,0,0,0,0,0,0,-1,1497,1254,0,0
280,-230,0,0,0,0,0,0,0,0,0,-1,1504,1254,0,0
287,-230,0,0,0,0,0,0,0,0,0,-1,1511,1254,0,0
294,-230,0,0,0,0,0,0,0,0,0,-1,1518,1254,0,0
301,-230,0,0,0,0,0,0,0,0,0,-1,1525,1254,0,0
308,-230,0,0,0,0,0,0,0,0,0,-1,1532,1254,0,0
315,-230,0,0,0,0,0,0,0,0,0,-1,1539,1254,0,0
322,-230,0,0,0,0,0,0,0,0,0,-1,1546,1254,0,0
329,-230,0,0,0,0,0,0,0,0,0,-1,1553,1254,0,0
336,-230,0,0,0,0,0,0,0,0,0,-1,1560,1254,0,0
343,-230,0,0,0,0,0,0,0,0,0,-1,1567,1254,0,0
350,-230,0,0,0,0,0,0,0,0,0,-1,1574,1254,0,0
357,-230,0,0,0,0,0,0,0,0,0,-1,1581,1254,0,0
364,-230,0,0,0,0,0,0,0,0,0,-1,1588,1254,0,0
371,-230,0,0,0,0,0,0,0,0,0,-1,1595,1254,0,0
378,-230,0,0,0,0,0,0,0,0,0,-1,1602,1254,0,0
385,-230,0,0,0,0,0,0,0,0,0,-1,1609,1254,0,0
392,-230,0,0,0,0,0,0,0,0,0,-1,1616,1254,0,0
399,-230,0,0,0,0,0,0,0,0,0,-1,1623,1254,0,0
406,-230,0,0,0,0,0,0,0,0,0,-1,1630,1254,0,0
413,-230,0,0,0,0,0,0,0,0,0,-1,1637,1254,0,0
420,-230,0,0,0,0,0,0,0,0,0,-1,1644,1254,0,0
427,-230,0,0,0,0,0,0,0,0,0,-1,1651,1254,0,0
434,-230,0,0,0,0,0,0,0,0,0,-1,1658,1254,0,0
441,-230,0,0,0,0,0,0,0,0,0,-1,1665,1254,0,0
448,-230,0,0,0,0,0,0,0,0,0,-1,1672,1254,0,0
455,-230,0,0,0,0,0,0,0,0,0,-1,1679,1254,0,0
462,-230,0,0,0,0,0,0,0,0,0,-1,1686,1254,0,0
469,-230,0,0,0,0,0,0,0,0,0,-1,1693,1254,0,0
476,-230,0,0,0,0,0,0,0,0,0,-1,1700,1254,0,0
483,-230,0,0,0,0,0,0,0,0,0,-1,1707,1254,0,0
490,-230,0,0,0,0,0,0,0,0,0,-1,1714,1254,0,0
497,-230,0,0,0,0,0,0,0,0,0,-1,1721,1254,0,0
504,-230,0,0,0,0,0,0,0,0,0,-1,1728,1254,0,0
511,-230,0,0,0,0,0,0,0,0,0,-1,1735,1254,0,0
518,-230,0,0,0,0,0,0,0,0,0,-1,1742,1254,0,0
525,-230,0,0,0,0,0,0,0,0,0,-1,1749,1254,0,0
532,-230,0,0,0,0,0,0,0,0,0,-1,1756,1254,0,0
539,-230,0,0,0,0,0,0,0,0,0,-1,1763,1254,0,0
546,-230,0,0,0,0,0,0,0,0,0,-1,1770,1254,0,0
553,-230,0,0,0,0,0,0,0,0,0,-1,1777,1254,0,0
560,-230,0,0,0,0,0,0,0,0,0,-1,1784,1254,0,0
567,-230,0,0,0,0,0,0,0,0,0,-1,1791,1254,0,0
574,-230,0,0,0,0,0,0,0,0,0,-1,1798,1254,0,0
581,-230,0,0,0,0,0,0,0,0,0,-1,1805,1254,0,0
588,-230,0,0,0,0,0,0,0,0,0,-1,1812,1254,0,0
595,-230,0,0,0,0,0,0,0,0,0,-1,1819,1254,0,0
602,-230,0,0,0,0,0,0,0,0,0,-1,1826,1254,0,0
609,-230,0,0,0,0,0,0,0,0,0,-1,1833,1254,0,0
616,-230,14.1439,2.09351,-0.0022686,0.00125201,0.00149258,0.00179962,-0.00281621,1.21916,0.00268641,0.0376949,1840,1254,14.144,-2.09349
623,-230,14.0978,1.98767,-0.00187725,0.00263797,-0.000411511,0.00267517,-0.00191444,-1.48065,0.00266192,0.0359676,1847,1254,14.0978,-1.98764
630,-230,14.0519,1.90149,-8.31957e-05,0.00289402,-0.00208367,0.0039662,-0.00115538,-1.09557,0.00310184,0.0327199,1854,1254,14.0518,-1.90144
637,-230,14.0095,1.92969,0.00138948,0.00251236,-0.00293739,0.00494149,-0.00103965,-0.879827,0.00369002,0.0268584,1861,1254,14.0096,-1.9297
644,-230,13.9763,1.86829,0.00211285,0.00166407,-0.00272309,0.00462078,-0.000843863,-0.74429,0.00339693,0.018528,1868,1254,13.9764,-1.86828
651,-230,13.9551,1.78308,0.00249322,0.000771696,-0.00218832,0.00398398,-0.000719059,-0.59802,0.00292528,0.0315744,1875,1254,13.955,-1.7831
658,-230,14.0818,1.88416,0.00272076,-4.17258e-05,-0.00156817,0.00342925,-0.000750218,-0.424346,0.00257296,0.0417574,1882,1254,14.0818,-1.8842
665,-230,14.6428,2.01575,0,0,0,0,0,0,0,-1,1889,1254,14.6428,-2.01579
672,-230,14.9392,2.20117,0,0,0,0,0,0,0,-1,1896,1254,14.9392,-2.20119
679,-230,12.137,3.31287,0,0,0,0,0,0,0,-1,1903,1254,12.1369,-3.31289
686,-230,12.1759,3.28613,0.00189055,-0.00237934,0.00109904,0.00215683,-0.00264561,0.237703,0.00277748,0.0386521,1910,1254,12.176,-3.28613
693,-230,12.2069,3.26196,0.00138259,-0.0026208,0.00165105,0.00197565,-0.00321385,0.344848,0.00302446,0.0179084,1917,1254,12.2069,-3.26191
700,-230,12.2362,3.19824,0.000985132,-0.0026171,0.00230477,0.00210908,-0.00374105,0.453728,0.0034211,0.0114839,1924,1254,12.2361,-3.19828
707,-230,12.2438,3.11328,0.000489261,-0.00241332,0.00243633,0.00187381,-0.00379786,0.516778,0.00333676,0.00975295,1931,1254,12.2437,-3.11333
714,-230,12.2277,2.9967,-0.000478744,-0.00158663,0.00188556,0.000932559,-0.00299794,0.642527,0.00237141,0.0118244,1938,1254,12.2276,-2.99671
721,-230,12.2328,2.87366,-0.00105484,-0.000339077,0.00127649,0.000628753,-0.00202267,0.922072,0.00159976,0.0116891,1945,1254,12.2328,-2.8736
728,-230,12.2361,2.78979,-0.00162778,0.00119942,0.00105726,0.00155106,-0.00197942,1.24971,0.00204332,0.0129827,1952,1254,12.236,-2.78983
735,-230,12.2318,2.71277,-0.00227862,0.00254377,0.00107661,0.00277321,-0.00250806,1.36082,0.00305042,0.0137756,1959,1254,12.2319,-2.71282
742,-230,12.2238,2.6012,-0.00245085,0.00449259,0.00104769,0.00464723,-0.00260549,1.42425,0.00424231,0.010792,1966,1254,12.2238,-2.60118
749,-230,12.2279,2.48181,-0.00292032,0.00643245,0.00138865,0.00663428,-0.00312214,1.42647,0.00575324,0.0103579,1973,1254,12.2279,-2.48176
756,-230,12.2195,2.39197,-0.00384188,0.0086275,0.00253043,0.00912144,-0.00433582,1.37802,0.00793162,0.0123762,1980,1254,12.2195,-2.39197
763,-230,12.1682,2.30164,-0.00507082,0.0112082,0.0044236,0.0123326,-0.00619521,1.32189,0.0108909,0.0231807,1987,1254,12.1683,-2.30165
770,-230,12.3896,2.22339,-0.00657492,0.0142382,0.00722816,0.0165022,-0.00883891,1.26726,0.014852,0.0391939,1994,1254,12.3897,-2.22339
777,-230,13.1014,1.6731,-0.0084063,0.0177812,0.0112392,0.0219434,-0.0125684,1.21613,0.020169,0.0431378,2001,1254,13.1015,-1.67314
784,-230,12.9938,1.49084,-0.0105946,0.0219294,0.01684,0.0290776,-0.0177428,1.16937,0.0272946,0.0443596,2008,1254,12.9937,-1.49087
791,-230,13.132,1.54333,0,0,0,0,0,0,0,-1,2015,1254,13.1319,-1.54336
798,-230,0,0,0,0,0,0,0,0,0,-1,2022,1254,0,0
805,-230,0,0,0,0,0,0,0,0,0,-1,2029,1254,0,0
812,-230,0,0,0,0,0,0,0,0,0,-1,2036,1254,0,0
-700,-237,0,0,0,0,0,0,0,0,0,-1,524,1261,0,0
-693,-237,0,0,0,0,0,0,0,0,0,-1,531,1261,0,0
-686,-237,0,0,0,0,0,0,0,0,0,-1,538,1261,0,0
-679,-237,0,0,0,0,0,0,0,0,0,-1,545,1261,0,0
-672,-237,-6.4209,-2.14954,0,0,0,0,0,0,0,-1,552,1261,-6.42087,2.14956
-665,-237,-6.78955,-1.52246,0,0,0,0,0,0,0,-1,559,1261,-6.78955,1.52242
-658,-237,-6.52966,-1.17041,0.0174456,0.0721512,0.00938369,0.073716,0.0158808,1.40556,0.0447987,0.0471215,566,1261,-6.52967,1.17038
-651,-237,-6.30139,-0.934692,0.0139947,0.0564881,0.00892015,0.0582846,0.0121982,1.37205,0.035496,0.0452083,573,1261,-6.3014,0.934676
-644,-237,-6.20966,-0.716064,0.0108225,0.0434601,0.00806421,0.0453439,0.00893873,1.34131,0.0277341,0.0447865,580,1261,-6.20965,0.716048
-637,-237,-5.49268,0.0345459,0,0,0,0,0,0,0,-1,587,1261,-5.49267,-0.0345558
-630,-237,-5.70233,0.242554,0.00577973,0.0242059,0.00584788,0.0259051,0.0040805,1.28801,0.0160834,0.0426531,594,1261,-5.70232,-0.242493
-623,-237,-5.92072,0.473633,0.00381849,0.0171378,0.00490313,0.0187481,0.00220822,1.25348,0.0118315,0.0264867,601,1261,-5.9207,-0.473578
-616,-237,-6.01373,0.614746,0.00284695,0.0116876,0.00382545,0.0131131,0.00142148,1.21411,0.00830885,0.0129452,608,1261,-6.01371,-0.614799
-609,-237,-6.0105,0.732666,0.0019299,0.00735862,0.00289843,0.00861523,0.000673285,1.16171,0.00553273,0.0159131,615,1261,-6.01052,-0.732692
-602,-237,-6.00836,0.848633,0.00140964,0.00436282,0.00201127,0.00538133,0.00039113,1.10204,0.00346454,0.0116173,622,1261,-6.00838,-0.848671
-595,-237,-6.01611,0.987183,0.00117416,0.00225814,0.00131652,0.00313987,0.000292433,0.980666,0.0020029,0.015026,629,1261,-6.01609,-0.987161
-588,-237,-6.01318,1.08679,-0.00013263,0.000227429,0.000663668,0.000735052,-0.000640253,0.917843,0.000794662,0.0253381,636,1261,-6.01316,-1.0868
-581,-237,-6.00732,1.19373,-0.00110723,-0.00168214,0.000126586,-0.00108059,-0.00170877,0.20741,0.00099802,0.0234332,643,1261,-6.00733,-1.19377
-574,-237,-6.00806,1.32507,-0.00215763,-0.00310009,-0.000366947,-0.00203161,-0.00322611,-0.330808,0.00188338,0.0156889,650,1261,-6.00803,-1.32507
-567,-237,-5.96063,1.46741,-0.00277393,-0.00380334,-0.00119132,-0.00199089,-0.00458639,-0.581486,0.00265561,0.0138041,657,1261,-5.96064,-1.46737
-560,-237,-5.84375,1.59521,-0.00298161,-0.00489844,-0.0020168,-0.00170708,-0.00617297,-0.563586,0.0036807,0.0212622,664,1261,-5.84376,-1.59518
-553,-237,-5.75519,1.67529,-0.0034875,-0.00584297,-0.00296818,-0.00147194,-0.00785853,-0.596531,0.00482382,0.0426855,671,1261,-5.75516,-1.67529
-546,-237,-6.80219,0.349487,0,0,0,0,0,0,0,-1,678,1261,-6.8022,-0.349542
-539,-237,-7.35529,0.549438,-0.00402249,-0.00750892,-0.0049656,-0.000503008,-0.0110284,-0.61659,0.00719046,0.0451313,685,1261,-7.35529,-0.549484
-532,-237,-8.08844,0.697021,-0.00355139,-0.00813698,-0.00615828,0.000727071,-0.0124154,-0.607193,0.00852965,0.0447648,692,1261,-8.08844,-0.69698
-525,-237,-8.16766,0.671631,-0.00218904,-0.00835036,-0.00744306,0.00278571,-0.0133251,-0.589184,0.00994291,0.048156,699,1261,-8.16767,-0.671592
-518,-237,-8.15625,0.604858,6.70295e-05,-0.00828743,-0.00861905,0.00546776,-0.0136882,-0.559752,0.0113941,0.0440754,706,1261,-8.15628,-0.604893
-511,-237,-8.09711,0.366333,0.00347716,-0.00799026,-0.00948055,0.00882299,-0.0133361,-0.513432,0.0128817,0.0388648,713,1261,-8.0971,-0.366319
-504,-237,-7.93481,0.0350342,0.00824905,-0.00735567,-0.00966398,0.0128672,-0.0119738,-0.44579,0.0143451,0.0424376,720,1261,-7.93482,-0.0350008
-497,-237,-8.05066,0.13562,0.0141483,-0.00681058,-0.00876896,0.0173332,-0.00999545,-0.348384,0.0159666,0.0479527,727,1261,-8.05069,-0.135677
-490,-237,0,0,0,0,0,0,0,0,0,-1,734,1261,0,0
-483,-237,0,0,0,0,0,0,0,0,0,-1,741,1261,0,0
-476,-237,0,0,0,0,0,0,0,0,0,-1,748,1261,0,0
-469,-237,0,0,0,0,0,0,0,0,0,-1,755,1261,0,0
-462,-237,0,0,0,0,0,0,0,0,0,-1,762,1261,0,0
-455,-237,0,0,0,0,0,0,0,0,0,-1,769,1261,0,0
-448,-237,0,0,0,0,0,0,0,0,0,-1,776,1261,0,0
-441,-237,0,0,0,0,0,0,0,0,0,-1,783,1261,0,0
-434,-237,0,0,0,0,0,0,0,0,0,-1,790,1261,0,0
-427,-237,0,0,0,0,0,0,0,0,0,-1,797,1261,0,0
-420,-237,0,0,0,0,0,0,0,0,0,-1,804,1261,0,0
-413,-237,0,0,0,0,0,0,0,0,0,-1,811,1261,0,0
-406,-237,0,0,0,0,0,0,0,0,0,-1,818,1261,0,0
-399,-237,0,0,0,0,0,0,0,0,0,-1,825,1261,0,0
-392,-237,0,0,0,0,0,0,0,0,0,-1,832,1261,0,0
-385,-237,0,0,0,0,0,0,0,0,0,-1,839,1261,0,0
-378,-237,0,0,0,0,0,0,0,0,0,-1,846,1261,0,0
-371,-237,0,0,0,0,0,0,0,0,0,-1,853,1261,0,0
-364,-237,0,0,0,0,0,0,0,0,0,-1,860,1261,0,0
-357,-237,0,0,0,0,0,0,0,0,0,-1,867,1261,0,0
-350,-237,0,0,0,0,0,0,0,0,0,-1,874,1261,0,0
-343,-237,0,0,0,0,0,0,0,0,0,-1,881,1261,0,0
-336,-237,0,0,0,0,0,0,0,0,0,-1,888,1261,0,0
-329,-237,0,0,0,0,0,0,0,0,0,-1,895,1261,0,0
-322,-237,0,0,0,0,0,0,0,0,0,-1,902,1261,0,0
-315,-237,0,0,0,0,0,0,0,0,0,-1,909,1261,0,0
-308,-237,0,0,0,0,0,0,0,0,0,-1,916,1261,0,0
-301,-237,0,0,0,0,0,0,0,0,0,-1,923,1261,0,0
-294,-237,0,0,0,0,0,0,0,0,0,-1,930,1261,0,0
-287,-237,0,0,0,0,0,0,0,0,0,-1,937,1261,0,0
-280,-237,0,0,0,0,0,0,0,0,0,-1,944,1261,0,0
-273,-237,0,0,0,0,0,0,0,0,0,-1,951,1261,0,0
-266,-237,0,0,0,0,0,0,0,0,0,-1,958,1261,0,0
-259,-237,0,0,0,0,0,0,0,0,0,-1,965,1261,0,0
-252,-237,0,0,0,0,0,0,0,0,0,-1,972,1261,0,0
-245,-237,0,0,0,0,0,0,0,0,0,-1,979,1261,0,0
-238,-237,0,0,0,0,0,0,0,0,0,-1,986,1261,0,0
-231,-237,0,0,0,0,0,0,0,0,0,-1,993,1261,0,0
-224,-237,0,0,0,0,0,0,0,0,0,-1,1000,1261,0,0
-217,-237,0,0,0,0,0,0,0,0,0,-1,1007,1261,0,0
-210,-237,0,0,0,0,0,0,0,0,0,-1,1014,1261,0,0
-203,-237,0,0,0,0,0,0,0,0,0,-1,1021,1261,0,0
-196,-237,0,0,0,0,0,0,0,0,0,-1,1028,1261,0,0
-189,-237,0,0,0,0,0,0,0,0,0,-1,1035,1261,0,0
-182,-237,0,0,0,0,0,0,0,0,0,-1,1042,1261,0,0
-175,-237,0,0,0,0,0,0,0,0,0,-1,1049,1261,0,0
-168,-237,0,0,0,0,0,0,0,0,0,-1,1056,1261,0,0
-161,-237,0,0,0,0,0,0,0,0,0,-1,1063,1261,0,0
-154,-237,0,0,0,0,0,0,0,0,0,-1,1070,1261,0,0
-147,-237,0,0,0,0,0,0,0,0,0,-1,1077,1261,0,0
-140,-237,0,0,0,0,0,0,0,0,0,-1,1084,1261,0,0
-133,-237,0,0,0,0,0,0,0,0,0,-1,1091,1261,0,0
-126,-237,0,0,0,0,0,0,0,0,0,-1,1098,1261,0,0
-119,-237,0,0,0,0,0,0,0,0,0,-1,1105,1261,0,0
-112,-237,0,0,0,0,0,0,0,0,0,-1,1112,1261,0,0
-105,-237,0,0,0,0,0,0,0,0,0,-1,1119,1261,0,0
-98,-237,0,0,0,0,0,0,0,0,0,-1,1126,1261,0,0
-91,-237,0,0,0,0,0,0,0,0,0,-1,1133,1261,0,0
-84,-237,0,0,0,0,0,0,0,0,0,-1,1140,1261,0,0
-77,-237,0,0,0,0,0,0,0,0,0,-1,1147,1261,0,0
-70,-237,0,0,0,0,0,0,0,0,0,-1,1154,1261,0,0
-63,-237,0,0,0,0,0,0,0,0,0,-1,1161,1261,0,0
-56,-237,0,0,0,0,0,0,0,0,0,-1,1168,1261,0,0
-49,-237,0,0,0,0,0,0,0,0,0,-1,1175,1261,0,0
-42,-237,0,0,0,0,0,0,0,0,0,-1,1182,1261,0,0
-35,-237,0,0,0,0,0,0,0,0,0,-1,1189,1261,0,0
-28,-237,0,0,0,0,0,0,0,0,0,-1,1196,1261,0,0
-21,-237,0,0,0,0,0,0,0,0,0,-1,1203,1261,0,0
-14,-237,0,0,0,0,0,0,0,0,0,-1,1210,1261,0,0
-7,-237,0,0,0,0,0,0,0,0,0,-1,1217,1261,0,0
0,-237,0,0,0,0,0,0,0,0,0,-1,1224,1261,0,0
7,-237,0,0,0,0,0,0,0,0,0,-1,1231,1261,0,0
14,-237,0,0,0,0,0,0,0,0,0,-1,1238,1261,0,0
21,-237,0,0,0,0,0,0,0,0,0,-1,1245,1261,0,0
28,-237,0,0,0,0,0,0,0,0,0,-1,1252,1261,0,0
35,-237,0,0,0,0,0,0,0,0,0,-1,1259,1261,0,0
42,-237,0,0,0,0,0,0,0,0,0,-1,1266,1261,0,0
49,-237,0,0,0,0,0,0,0,0,0,-1,1273,1261,0,0
56,-237,0,0,0,0,0,0,0,0,0,-1,1280,1261,0,0
63,-237,0,0,0,0,0,0,0,0,0,-1,1287,1261,0,0
70,-237,0,0,0,0,0,0,0,0,0,-1,1294,1261,0,0
77,-237,0,0,0,0,0,0,0,0,0,-1,1301,1261,0,0
84,-237,0,0,0,0,0,0,0,0,0,-1,1308,1261,0,0
91,-237,0,0,0,0,0,0,0,0,0,-1,1315,1261,0,0
98,-237,0,0,0,0,0,0,0,0,0,-1,1322,1261,0,0
105,-237,0,0,0,0,0,0,0,0,0,-1,1329,1261,0,0
112,-237,0,0,0,0,0,0,0,0,0,-1,1336,1261,0,0
119,-237,0,0,0,0,0,0,0,0,0,-1,1343,1261,0,0
126,-237,0,0,0,0,0,0,0,0,0,-1,1350,1261,0,0
133,-237,0,0,0,0,0,0,0,0,0,-1,1357,1261,0,0
140,-237,0,0,0,0,0,0,0,0,0,-1,1364,1261,0,0
147,-237,0,0,0,0,0,0,0,0,0,-1,1371,1261,0,0
154,-237,0,0,0,0,0,0,0,0,0,-1,1378,1261,0,0
161,-237,0,0,0,0,0,0,0,0,0,-1,1385,1261,0,0
168,-237,0,0,0,0,0,0,0,0,0,-1,1392,1261,0,0
175,-237,0,0,0,0,0,0,0,0,0,-1,1399,1261,0,0
182,-237,0,0,0,0,0,0,0,0,0,-1,1406,1261,0,0
189,-237,0,0,0,0,0,0,0,0,0,-1,1413,1261,0,0
196,-237,0,0,0,0,0,0,0,0,0,-1,1420,1261,0,0
203,-237,0,0,0,0,0,0,0,0,0,-1,1427,1261,0,0
210,-237,0,0,0,0,0,0,0,0,0,-1,1434,1261,0,0
217,-237,0,0,0,0,0,0,0,0,0,-1,1441,1261,0,0
224,-237,0,0,0,0,0,0,0,0,0,-1,1448,1261,0,0
231,-237,0,0,0,0,0,0,0,0,0,-1,1455,1261,0,0
238,-237,0,0,0,0,0,0,0,0,0,-1,1462,1261,0,0
245,-237,0,0,0,0,0,0,0,0,0,-1,1469,1261,0,0
252,-237,0,0,0,0,0,0,0,0,0,-1,1476,1261,0,0
259,-237,0,0,0,0,0,0,0,0,0,-1,1483,1261,0,0
266,-237,0,0,0,0,0,0,0,0,0,-1,1490,1261,0,0
273,-237,0,0,0,0,0,0,0,0,0,-1,1497,1261,0,0
280,-237,0,0,0,0,0,0,0,0,0,-1,1504,1261,0,0
287,-237,0,0,0,0,0,0,0,0,0,-1,1511,1261,0,0
294,-237,0,0,0,0,0,0,0,0,0,-1,1518,1261,0,0
301,-237,0,0,0,0,0,0,0,0,0,-1,1525,1261,0,0
308,-237,0,0,0,0,0,0,0,0,0,-1,1532,1261,0,0
315,-237,0,0,0,0,0,0,0,0,0,-1,1539,1261,0,0
322,-237,0,0,0,0,0,0,0,0,0,-1,1546,1261,0,0
329,-237,0,0,0,0,0,0,0,0,0,-1,1553,1261,0,0
336,-237,0,0,0,0,0,0,0,0,0,-1,1560,1261,0,0
343,-237,0,0,0,0,0,0,0,0,0,-1,1567,1261,0,0
350,-237,0,0,0,0,0,0,0,0,0,-1,1574,1261,0,0
357,-237,0,0,0,0,0,0,0,0,0,-1,1581,1261,0,0
364,-237,0,0,0,0,0,0,0,0,0,-1,1588,1261,0,0
371,-237,0,0,0,0,0,0,0,0,0,-1,1595,1261,0,0
378,-237,0,0,0,0,0,0,0,0,0,-1,1602,1261,0,0
385,-237,0,0,0,0,0,0,0,0,0,-1,1609,1261,0,0
392,-237,0,0,0,0,0,0,0,0,0,-1,1616,1261,0,0
399,-237,0,0,0,0,0,0,0,0,0,-1,1623,1261,0,0
406,-237,0,0,0,0,0,0,0,0,0,-1,1630,1261,0,0
413,-237,0,0,0,0,0,0,0,0,0,-1,1637,1261,0,0
420,-237,0,0,0,0,0,0,0,0,0,-1,1644,1261,0,0
427,-237,0,0,0,0,0,0,0,0,0,-1,1651,1261,0,0
434,-237,0,0,0,0,0,0,0,0,0,-1,1658,1261,0,0
441,-237,0,0,0,0,0,0,0,0,0,-1,1665,1261,0,0
448,-237,0,0,0,0,0,0,0,0,0,-1,1672,1261,0,0
455,-237,0,0,0,0,0,0,0,0,0,-1,1679,1261,0,0
462,-237,0,0,0,0,0,0,0,0,0,-1,1686,1261,0,0
469,-237,0,0,0,0,0,0,0,0,0,-1,1693,1261,0,0
476,-237,0,0,0,0,0,0,0,0,0,-1,1700,1261,0,0
483,-237,0,0,0,0,0,0,0,0,0,-1,1707,1261,0,0
490,-237,0,0,0,0,0,0,0,0,0,-1,1714,1261,0,0
497,-237,0,0,0,0,0,0,0,0,0,-1,1721,1261,0,0
504,-237,0,0,0,0,0,0,0,0,0,-1,1728,1261,0,0
511,-237,0,0,0,0,0,0,0,0,0,-1,1735,1261,0,0
518,-237,0,0,0,0,0,0,0,0,0,-1,1742,1261,0,0
525,-237,0,0,0,0,0,0,0,0,0,-1,1749,1261,0,0
532,-237,0,0,0,0,0,0,0,0,0,-1,1756,1261,0,0
539,-237,0,0,0,0,0,0,0,0,0,-1,1763,1261,0,0
546,-237,0,0,0,0,0,0,0,0,0,-1,1770,1261,0,0
553,-237,0,0,0,0,0,0,0,0,0,-1,1777,1261,0,0
560,-237,0,0,0,0,0,0,0,0,0,-1,1784,1261,0,0
567,-237,0,0,0,0,0,0,0,0,0,-1,1791,1261,0,0
574,-237,0,0,0,0,0,0,0,0,0,-1,1798,1261,0,0
581,-237,0,0,0,0,0,0,0,0,0,-1,1805,1261,0,0
588,-237,0,0,0,0,0,0,0,0,0,-1,1812,1261,0,0
595,-237,0,0,0,0,0,0,0,0,0,-1,1819,1261,0,0
602,-237,0,0,0,0,0,0,0,0,0,-1,1826,1261,0,0
609,-237,0,0,0,0,0,0,0,0,0,-1,1833,1261,0,0
616,-237,14.1039,1.95105,-0.00133484,0.00130033,0.000980926,0.00162538,-0.00165989,1.25081,0.00189678,0.0358946,1840,1261,14.1039,-1.95106
623,-237,14.0931,1.90576,-0.000545886,0.00305636,-0.000641895,0.00316732,-0.000656849,-1.39962,0.00236115,0.0305912,1847,1261,14.0932,-1.90578
630,-237,14.0538,1.92627,0.000695067,0.00351558,-0.00193271,0.00449786,-0.000287207,-1.10058,0.00309875,0.0244809,1854,1261,14.0539,-1.92628
637,-237,13.9907,1.89819,0.00155726,0.0031274,-0.00245847,0.00492311,-0.00023845,-0.939947,0.00336438,0.0187268,1861,1261,13.9907,-1.89819
644,-237,13.9487,1.81628,0.00191215,0.00231895,-0.0022279,0.00435272,-0.000121613,-0.83092,0.00294319,0.034329,1868,1261,13.9488,-1.81632
651,-237,13.8341,1.49536,0.00212691,0.00145814,-0.00182172,0.00364468,-5.96321e-05,-0.69463,0.00244991,0.041358,1875,1261,13.8341,-1.49542
658,-237,14.0381,1.82092,0,0,0,0,0,0,0,-1,1882,1261,14.0381,-1.82088
665,-237,13.5264,1.29712,0,0,0,0,0,0,0,-1,1889,1261,13.5264,-1.29718
672,-237,11.2321,3.31335,0,0,0,0,0,0,0,-1,1896,1261,11.232,-3.31336
679,-237,11.6956,3.33484,0.00216152,-0.00125182,0.00016913,0.00216988,-0.00126018,0.0493885,0.00200343,0.0475495,1903,1261,11.6955,-3.33488
686,-237,12.1472,3.37427,0.00179208,-0.00193813,0.000732836,0.00193088,-0.00207694,0.187194,0.00231443,0.0275368,1910,1261,12.1472,-3.37431
693,-237,12.1002,3.302,0.00147982,-0.00226506,0.00115013,0.00180484,-0.00259008,0.275412,0.00255087,0.0144701,1917,1261,12.1002,-3.30198
700,-237,12.1168,3.21521,0.00136793,-0.00221258,0.0017869,0.00210711,-0.00295176,0.392231,0.00293428,0.0108293,1924,1261,12.1168,-3.21519
707,-237,12.1371,3.11145,0.00108569,-0.00192098,0.00184059,0.00195886,-0.00279415,0.442957,0.00275824,0.00926934,1931,1261,12.137,-3.11148
714,-237,12.1337,3.01001,0.00014837,-0.000973455,0.00113938,0.000857422,-0.00168251,0.556665,0.001492,0.0112575,1938,1261,12.1337,-3.00995
721,-237,12.1234,2.89771,-0.000509644,0.000456354,0.00037752,0.000586388,-0.000639678,1.23908,0.000708093,0.0130935,1945,1261,12.1234,-2.89765
728,-237,12.1471,2.80676,-0.00140128,0.00237141,3.80513e-05,0.0023718,-0.00140167,1.56071,0.00220248,0.0136972,1952,1261,12.147,-2.8067
735,-237,12.1404,2.69385,-0.00250033,0.00396731,1.71091e-06,0.00396731,-0.00250033,1.57053,0.00376598,0.0180592,1959,1261,12.1403,-2.69379
742,-237,12.132,2.61084,-0.00329578,0.00621069,-0.000144113,0.00621287,-0.00329797,-1.55564,0.00557639,0.0139249,1966,1261,12.132,-2.61078
749,-237,12.131,2.4928,-0.00455235,0.00856413,9.27218e-05,0.00856478,-0.00455301,1.56373,0.00769071,0.00915809,1973,1261,12.131,-2.49283
756,-237,12.1106,2.36804,-0.00642409,0.0112715,0.00105367,0.011334,-0.00648661,1.51153,0.0104149,0.0130863,1980,1261,12.1106,-2.36804
763,-237,12.0208,2.17053,-0.0088737,0.0144039,0.00277925,0.0147311,-0.00920093,1.45359,0.0139396,0.0279484,1987,1261,12.0208,-2.17052
770,-237,11.95,1.83069,-0.011969,0.0179593,0.00549552,0.0189365,-0.0129462,1.39482,0.0185155,0.0414027,1994,1261,11.9499,-1.83074
777,-237,12.4301,1.63269,-0.0158344,0.0219175,0.00955932,0.0242001,-0.018117,1.33641,0.0245158,0.040854,2001,1261,12.4301,-1.63268
784,-237,12.5376,1.65283,-0.0205712,0.0262308,0.0154565,0.0308745,-0.0252149,1.27893,0.0324382,0.0452293,2008,1261,12.5376,-1.65288
791,-237,12.3964,1.66235,0,0,0,0,0,0,0,-1,2015,1261,12.3963,-1.66234
798,-237,0,0,0,0,0,0,0,0,0,-1,2022,1261,0,0
805,-237,0,0,0,0,0,0,0,0,0,-1,2029,1261,0,0
812,-237,0,0,0,0,0,0,0,0,0,-1,2036,1261,0,0
-700,-244,0,0,0,0,0,0,0,0,0,-1,524,1268,0,0
-693,-244,0,0,0,0,0,0,0,0,0,-1,531,1268,0,0
-686,-244,0,0,0,0,0,0,0,0,0,-1,538,1268,0,0
-679,-244,0,0,0,0,0,0,0,0,0,-1,545,1268,0,0
-672,-244,-6.12805,-2.56824,0,0,0,0,0,0,0,-1,552,1268,-6.12803,2.56823
-665,-244,-5.69861,-2.49573,0,0,0,0,0,0,0,-1,559,1268,-5.69862,2.49574
-658,-244,-6.54529,-1.66699,0,0,0,0,0,0,0,-1,566,1268,-6.54527,1.66698
-651,-244,-6.29785,-1.44055,0,0,0,0,0,0,0,-1,573,1268,-6.29782,1.44058
-644,-244,-6.14264,-1.26685,0.0122082,0.0444043,0.01147,0.0480726,0.0085399,1.26126,0.0296151,0.0452611,580,1268,-6.14263,1.26683
-637,-244,-5.47162,-0.872681,0,0,0,0,0,0,0,-1,587,1268,-5.4716,0.872699
-630,-244,-5.52936,0.177246,0,0,0,0,0,0,0,-1,594,1268,-5.52938,-0.177237
-623,-244,-5.78748,0.454468,0.00486155,0.0184299,0.00695175,0.0213592,0.00193223,1.172,0.0136411,0.031476,601,1268,-5.78748,-0.454485
-616,-244,-5.91608,0.640503,0.00359879,0.0129062,0.00541616,0.0153934,0.00111164,1.14031,0.00991249,0.0154441,608,1268,-5.91608,-0.640466
-609,-244,-5.87854,0.719604,0.00250909,0.00854869,0.00413466,0.0106489,0.000408868,1.10081,0.00696699,0.0142702,615,1268,-5.87857,-0.719578
-602,-244,-5.88458,0.841187,0.00186228,0.005408,0.00293738,0.00706607,0.000204212,1.05691,0.00464414,0.0136808,622,1268,-5.88455,-0.841176
-595,-244,-5.87268,0.973877,0.00155042,0.00308923,0.0019802,0.00444425,0.000195408,0.970697,0.00289989,0.0150752,629,1268,-5.87267,-0.973838
-588,-244,-5.87689,1.09131,0.000109436,0.000813497,0.00110234,0.00161865,-0.000695716,0.939954,0.00137116,0.0196483,636,1268,-5.87691,-1.09131
-581,-244,-5.87476,1.20447,-0.00104581,-0.00133792,0.000388365,-0.000776948,-0.00160679,0.60554,0.000927848,0.0169379,643,1268,-5.87476,-1.20448
-574,-244,-5.89075,1.3396,-0.00234826,-0.00299608,-0.000233341,-0.00227296,-0.00307138,-0.312139,0.00184012,0.0132941,650,1268,-5.89073,-1.33965
-567,-244,-5.87103,1.47546,-0.00314195,-0.00375442,-0.00115952,-0.0022489,-0.00464747,-0.656294,0.00268368,0.010192,657,1268,-5.871,-1.47552
-560,-244,-5.85248,1.58362,-0.00345061,-0.00495974,-0.00207426,-0.00199793,-0.00641242,-0.610951,0.00378883,0.0126367,664,1268,-5.85246,-1.58361
-553,-244,-5.75885,1.77466,-0.00406757,-0.00594698,-0.00309913,-0.00176882,-0.00824574,-0.638196,0.00501268,0.0336706,671,1268,-5.75885,-1.77472
-546,-244,-6.64545,-0.00842285,0,0,0,0,0,0,0,-1,678,1268,-6.64547,0.00840382
-539,-244,-7.14081,0.338135,-0.00469997,-0.00757676,-0.00516795,-0.00077398,-0.0115028,-0.649668,0.00742397,0.0472167,685,1268,-7.1408,-0.338081
-532,-244,-7.78381,0.836914,-0.00425066,-0.00827644,-0.00642736,0.000471628,-0.0129987,-0.633648,0.00882723,0.0458658,692,1268,-7.78383,-0.836926
-525,-244,-8.14673,0.751709,0,0,0,0,0,0,0,-1,699,1268,-8.1467,-0.751664
-518,-244,-8.20953,0.836304,0,0,0,0,0,0,0,-1,706,1268,-8.20954,-0.83626
-511,-244,-8.34601,0.858643,0,0,0,0,0,0,0,-1,713,1268,-8.34601,-0.858622
-504,-244,-8.00922,0.242188,0,0,0,0,0,0,0,-1,720,1268,-8.00924,-0.242165
-497,-244,-8.26825,0.408203,0,0,0,0,0,0,0,-1,727,1268,-8.26827,-0.408262
-490,-244,0,0,0,0,0,0,0,0,0,-1,734,1268,0,0
-483,-244,0,0,0,0,0,0,0,0,0,-1,741,1268,0,0
-476,-244,0,0,0,0,0,0,0,0,0,-1,748,1268,0,0
-469,-244,0,0,0,0,0,0,0,0,0,-1,755,1268,0,0
-462,-244,0,0,0,0,0,0,0,0,0,-1,762,1268,0,0
-455,-244,0,0,0,0,0,0,0,0,0,-1,769,1268,0,0
-448,-244,0,0,0,0,0,0,0,0,0,-1,776,1268,0,0
-441,-244,0,0,0,0,0,0,0,0,0,-1,783,1268,0,0
-434,-244,0,0,0,0,0,0,0,0,0,-1,790,1268,0,0
-427,-244,0,0,0,0,0,0,0,0,0,-1,797,1268,0,0
-420,-244,0,0,0,0,0,0,0,0,0,-1,804,1268,0,0
-413,-244,0,0,0,0,0,0,0,0,0,-1,811,1268,0,0
-406,-244,0,0,0,0,0,0,0,0,0,-1,818,1268,0,0
-399,-244,0,0,0,0,0,0,0,0,0,-1,825,1268,0,0
-392,-244,0,0,0,0,0,0,0,0,0,-1,832,1268,0,0
-385,-244,0,0,0,0,0,0,0,0,0,-1,839,1268,0,0
-378,-244,0,0,0,0,0,0,0,0,0,-1,846,1268,0,0
-371,-244,0,0,0,0,0,0,0,0,0,-1,853,1268,0,0
-364,-244,0,0,0,0,0,0,0,0,0,-1,860,1268,0,0
-357,-244,0,0,0,0,0,0,0,0,0,-1,867,1268,0,0
-350,-244,0,0,0,0,0,0,0,0,0,-1,874,1268,0,0
-343,-244,0,0,0,0,0,0,0,0,0,-1,881,1268,0,0
-336,-244,0,0,0,0,0,0,0,0,0,-1,888,1268,0,0
-329,-244,0,0,0,0,0,0,0,0,0,-1,895,1268,0,0
-322,-244,0,0,0,0,0,0,0,0,0,-1,902,1268,0,0
-315,-244,0,0,0,0,0,0,0,0,0,-1,909,1268,0,0
-308,-244,0,0,0,0,0,0,0,0,0,-1,916,1268,0,0
-301,-244,0,0,0,0,0,0,0,0,0,-1,923,1268,0,0
-294,-244,0,0,0,0,0,0,0,0,0,-1,930,1268,0,0
-287,-244,0,0,0,0,0,0,0,0,0,-1,937,1268,0,0
-280,-244,0,0,0,0,0,0,0,0,0,-1,944,1268,0,0
-273,-244,0,0,0,0,0,0,0,0,0,-1,951,1268,0,0
-266,-244,0,0,0,0,0,0,0,0,0,-1,958,1268,0,0
-259,-244,0,0,0,0,0,0,0,0,0,-1,965,1268,0,0
-252,-244,0,0,0,0,0,0,0,0,0,-1,972,1268,0,0
-245,-244,0,0,0,0,0,0,0,0,0,-1,979,1268,0,0
-238,-244,0,0,0,0,0,0,0,0,0,-1,986,1268,0,0
-231,-244,0,0,0,0,0,0,0,0,0,-1,993,1268,0,0
-224,-244,0,0,0,0,0,0,0,0,0,-1,1000,1268,0,0
-217,-244,0,0,0,0,0,0,0,0,0,-1,1007,1268,0,0
-210,-244,0,0,0,0,0,0,0,0,0,-1,1014,1268,0,0
-203,-244,0,0,0,0,0,0,0,0,0,-1,1021,1268,0,0
-196,-244,0,0,0,0,0,0,0,0,0,-1,1028,1268,0,0
-189,-244,0,0,0,0,0,0,0,0,0,-1,1035,1268,0,0
-182,-244,0,0,0,0,0,0,0,0,0,-1,1042,1268,0,0
-175,-244,0,0,0,0,0,0,0,0,0,-1,1049,1268,0,0
-168,-244,0,0,0,0,0,0,0,0,0,-1,1056,1268,0,0
-161,-244,0,0,0,0,0,0,0,0,0,-1,1063,1268,0,0
-154,-244,0,0,0,0,0,0,0,0,0,-1,1070,1268,0,0
-147,-244,0,0,0,0,0,0,0,0,0,-1,1077,1268,0,0
-140,-244,0,0,0,0,0,0,0,0,0,-1,1084,1268,0,0
-133,-244,0,0,0,0,0,0,0,0,0,-1,1091,1268,0,0
-126,-244,0,0,0,0,0,0,0,0,0,-1,1098,1268,0,0
-119,-244,0,0,0,0,0,0,0,0,0,-1,1105,1268,0,0
-112,-244,0,0,0,0,0,0,0,0,0,-1,1112,1268,0,0
-105,-244,0,0,0,0,0,0,0,0,0,-1,1119,1268,0,0
-98,-244,0,0,0,0,0,0,0,0,0,-1,1126,1268,0,0
-91,-244,0,0,0,0,0,0,0,0,0,-1,1133,1268,0,0
-84,-244,0,0,0,0,0,0,0,0,0,-1,1140,1268,0,0
-77,-244,0,0,0,0,0,0,0,0,0,-1,1147,1268,0,0
-70,-244,0,0,0,0,0,0,0,0,0,-1,1154,1268,0,0
-63,-244,0,0,0,0,0,0,0,0,0,-1,1161,1268,0,0
-56,-244,0,0,0,0,0,0,0,0,0,-1,1168,1268,0,0
-49,-244,0,0,0,0,0,0,0,0,0,-1,1175,1268,0,0
-42,-244,0,0,0,0,0,0,0,0,0,-1,1182,1268,0,0
-35,-244,0,0,0,0,0,0,0,0,0,-1,1189,1268,0,0
-28,-244,0,0,0,0,0,0,0,0,0,-1,1196,1268,0,0
-21,-244,0,0,0,0,0,0,0,0,0,-1,1203,1268,0,0
-14,-244,0,0,0,0,0,0,0,0,0,-1,1210,1268,0,0
-7,-244,0,0,0,0,0,0,0,0,0,-1,1217,1268,0,0
0,-244,0,0,0,0,0,0,0,0,0,-1,1224,1268,0,0
7,-244,0,0,0,0,0,0,0,0,0,-1,1231,1268,0,0
14,-244,0,0,0,0,0,0,0,0,0,-1,1238,1268,0,0
21,-244,0,0,0,0,0,0,0,0,0,-1,1245,1268,0,0
28,-244,0,0,0,0,0,0,0,0,0,-1,1252,1268,0,0
35,-244,0,0,0,0,0,0,0,0,0,-1,1259,1268,0,0
42,-244,0,0,0,0,0,0,0,0,0,-1,1266,1268,0,0
49,-244,0,0,0,0,0,0,0,0,0,-1,1273,1268,0,0
56,-244,0,0,0,0,0,0,0,0,0,-1,1280,1268,0,0
63,-244,0,0,0,0,0,0,0,0,0,-1,1287,1268,0,0
70,-244,0,0,0,0,0,0,0,0,0,-1,1294,1268,0,0
77,-244,0,0,0,0,0,0,0,0,0,-1,1301,1268,0,0
84,-244,0,0,0,0,0,0,0,0,0,-1,1308,1268,0,0
91,-244,0,0,0,0,0,0,0,0,0,-1,1315,1268,0,0
98,-244,0,0,0,0,0,0,0,0,0,-1,1322,1268,0,0
105,-244,0,0,0,0,0,0,0,0,0,-1,1329,1268,0,0
112,-244,0,0,0,0,0,0,0,0,0,-1,1336,1268,0,0
119,-244,0,0,0,0,0,0,0,0,0,-1,1343,1268,0,0
126,-244,0,0,0,0,0,0,0,0,0,-1,1350,1268,0,0
133,-244,0,0,0,0,0,0,0,0,0,-1,1357,1268,0,0
140,-244,0,0,0,0,0,0,0,0,0,-1,1364,1268,0,0
147,-244,0,0,0,0,0,0,0,0,0,-1,1371,1268,0,0
154,-244,0,0,0,0,0,0,0,0,0,-1,1378,1268,0,0
161,-244,0,0,0,0,0,0,0,0,0,-1,1385,1268,0,0
168,-244,0,0,0,0,0,0,0,0,0,-1,1392,1268,0,0
175,-244,0,0,0,0,0,0,0,0,0,-1,1399,1268,0,0
182,-244,0,0,0,0,0,0,0,0,0,-1,1406,1268,0,0
189,-244,0,0,0,0,0,0,0,0,0,-1,1413,1268,0,0
196,-244,0,0,0,0,0,0,0,0,0,-1,1420,1268,0,0
203,-244,0,0,0,0,0,0,0,0,0,-1,1427,1268,0,0
210,-244,0,0,0,0,0,0,0,0,0,-1,1434,1268,0,0
217,-244,0,0,0,0,0,0,0,0,0,-1,1441,1268,0,0
224,-244,0,0,0,0,0,0,0,0,0,-1,1448,1268,0,0
231,-244,0,0,0,0,0,0,0,0,0,-1,1455,1268,0,0
238,-244,0,0,0,0,0,0,0,0,0,-1,1462,1268,0,0
245,-244,0,0,0,0,0,0,0,0,0,-1,1469,1268,0,0
252,-244,0,0,0,0,0,0,0,0,0,-1,1476,1268,0,0
259,-244,0,0,0,0,0,0,0,0,0,-1,1483,1268,0,0
266,-244,0,0,0,0,0,0,0,0,0,-1,1490,1268,0,0
273,-244,0,0,0,0,0,0,0,0,0,-1,1497,1268,0,0
280,-244,0,0,0,0,0,0,0,0,0,-1,1504,1268,0,0
287,-244,0,0,0,0,0,0,0,0,0,-1,1511,1268,0,0
294,-244,0,0,0,0,0,0,0,0,0,-1,1518,1268,0,0
301,-244,0,0,0,0,0,0,0,0,0,-1,1525,1268,0,0
308,-244,0,0,0,0,0,0,0,0,0,-1,1532,1268,0,0
315,-244,0,0,0,0,0,0,0,0,0,-1,1539,1268,0,0
322,-244,0,0,0,0,0,0,0,0,0,-1,1546,1268,0,0
329,-244,0,0,0,0,0,0,0,0,0,-1,1553,1268,0,0
336,-244,0,0,0,0,0,0,0,0,0,-1,1560,1268,0,0
343,-244,0,0,0,0,0,0,0,0,0,-1,1567,1268,0,0
350,-244,0,0,0,0,0,0,0,0,0,-1,1574,1268,0,0
357,-244,0,0,0,0,0,0,0,0,0,-1,1581,1268,0,0
364,-244,0,0,0,0,0,0,0,0,0,-1,1588,1268,0,0
371,-244,0,0,0,0,0,0,0,0,0,-1,1595,1268,0,0
378,-244,0,0,0,0,0,0,0,0,0,-1,1602,1268,0,0
385,-244,0,0,0,0,0,0,0,0,0,-1,1609,1268,0,0
392,-244,0,0,0,0,0,0,0,0,0,-1,1616,1268,0,0
399,-244,0,0,0,0,0,0,0,0,0,-1,1623,1268,0,0
406,-244,0,0,0,0,0,0,0,0,0,-1,1630,1268,0,0
413,-244,0,0,0,0,0,0,0,0,0,-1,1637,1268,0,0
420,-244,0,0,0,0,0,0,0,0,0,-1,1644,1268,0,0
427,-244,0,0,0,0,0,0,0,0,0,-1,1651,1268,0,0
434,-244,0,0,0,0,0,0,0,0,0,-1,1658,1268,0,0
441,-244,0,0,0,0,0,0,0,0,0,-1,1665,1268,0,0
448,-244,0,0,0,0,0,0,0,0,0,-1,1672,1268,0,0
455,-244,0,0,0,0,0,0,0,0,0,-1,1679,1268,0,0
462,-244,0,0,0,0,0,0,0,0,0,-1,1686,1268,0,0
469,-244,0,0,0,0,0,0,0,0,0,-1,1693,1268,0,0
476,-244,0,0,0,0,0,0,0,0,0,-1,1700,1268,0,0
483,-244,0,0,0,0,0,0,0,0,0,-1,1707,1268,0,0
490,-244,0,0,0,0,0,0,0,0,0,-1,1714,1268,0,0
497,-244,0,0,0,0,0,0,0,0,0,-1,1721,1268,0,0
504,-244,0,0,0,0,0,0,0,0,0,-1,1728,1268,0,0
511,-244,0,0,0,0,0,0,0,0,0,-1,1735,1268,0,0
518,-244,0,0,0,0,0,0,0,0,0,-1,1742,1268,0,0
525,-244,0,0,0,0,0,0,0,0,0,-1,1749,1268,0,0
532,-244,0,0,0,0,0,0,0,0,0,-1,1756,1268,0,0
539,-244,0,0,0,0,0,0,0,0,0,-1,1763,1268,0,0
546,-244,0,0,0,0,0,0,0,0,0,-1,1770,1268,0,0
553,-244,0,0,0,0,0,0,0,0,0,-1,1777,1268,0,0
560,-244,0,0,0,0,0,0,0,0,0,-1,1784,1268,0,0
567,-244,0,0,0,0,0,0,0,0,0,-1,1791,1268,0,0
574,-244,0,0,0,0,0,0,0,0,0,-1,1798,1268,0,0
581,-244,0,0,0,0,0,0,0,0,0,-1,1805,1268,0,0
588,-244,0,0,0,0,0,0,0,0,0,-1,1812,1268,0,0
595,-244,0,0,0,0,0,0,0,0,0,-1,1819,1268,0,0
602,-244,0,0,0,0,0,0,0,0,0,-1,1826,1268,0,0
609,-244,0,0,0,0,0,0,0,0,0,-1,1833,1268,0,0
616,-244,13.9823,1.81921,-6.39553e-06,0.000908779,0.000463535,0.00110254,-0.000200154,1.17487,0.000810028,0.0330201,1840,1268,13.9823,-1.81921
623,-244,14.0168,1.8761,0.000752761,0.00281944,-0.000835162,0.00311474,0.00045746,-1.23093,0.00194205,0.0251757,1847,1268,14.0168,-1.87614
630,-244,14.0389,1.93579,0.00130904,0.00334603,-0.0017214,0.00432767,0.000327396,-1.05253,0.00278241,0.0223697,1854,1268,14.039,-1.93579
637,-244,14.0525,1.86255,0.00160549,0.00297763,-0.00198291,0.0043898,0.000193311,-0.951948,0.00286427,0.0334156,1861,1268,14.0525,-1.86249
644,-244,13.938,1.64624,0.00163872,0.00224293,-0.00177382,0.00374019,0.000141459,-0.869746,0.00244767,0.0407285,1868,1268,13.9379,-1.6462
651,-244,13.6567,1.42065,0.00166074,0.00148799,-0.00146808,0.00304498,0.000103747,-0.756014,0.0019963,0.0454602,1875,1268,13.6567,-1.42065
658,-244,13.4585,1.32288,0,0,0,0,0,0,0,-1,1882,1268,13.4585,-1.32293
665,-244,13.3544,1.22559,0,0,0,0,0,0,0,-1,1889,1268,13.3543,-1.22564
672,-244,12.0321,3.3446,0,0,0,0,0,0,0,-1,1896,1268,12.0321,-3.34456
679,-244,11.9688,3.39294,0.0017727,-0.00110835,2.17356e-05,0.00177287,-0.00110852,0.00754374,0.00167824,0.0418076,1903,1268,11.9688,-3.39298
686,-244,11.9835,3.41455,0.00148152,-0.00189358,0.000464529,0.00154429,-0.00195635,0.134308,0.00202576,0.0212651,1910,1268,11.9835,-3.41452
693,-244,11.991,3.33447,0.00136838,-0.00221745,0.000699027,0.00149983,-0.0023489,0.185877,0.00224001,0.010153,1917,1268,11.991,-3.33442
700,-244,12.0079,3.21777,0.00156091,-0.00204507,0.00124824,0.00195083,-0.00243499,0.302776,0.0025373,0.00882062,1924,1268,12.0079,-3.21779
707,-244,12.0381,3.1084,0.00150958,-0.0015543,0.00115787,0.00189792,-0.00194265,0.323607,0.0022174,0.00958421,1931,1268,12.0381,-3.10841
714,-244,12.054,3.00732,0.000655673,-0.000384688,0.000247839,0.000711698,-0.000440713,0.222315,0.000671448,0.00959742,1938,1268,12.0539,-3.00726
721,-244,12.0216,2.92505,-4.118e-05,0.00133591,-0.000751187,0.00166637,-0.000371642,-1.15636,0.0012533,0.010605,1945,1268,12.0216,-2.925
728,-244,12.0315,2.81812,-0.00120474,0.00374692,-0.00131764,0.00407571,-0.00153353,-1.32626,0.00334753,0.0149006,1952,1268,12.0315,-2.81811
735,-244,12.0291,2.66858,-0.00267334,0.00571901,-0.00154322,0.00599379,-0.00294811,-1.39459,0.00526148,0.0213822,1959,1268,12.0291,-2.66853
742,-244,12.0448,2.58728,-0.00408057,0.00840635,-0.00194893,0.00870347,-0.00437768,-1.41951,0.00768882,0.0145814,1966,1268,12.0448,-2.58729
749,-244,12.0453,2.47388,-0.00608817,0.0113633,-0.00199499,0.0115884,-0.00631332,-1.45841,0.0104841,0.0167921,1973,1268,12.0453,-2.47383
756,-244,11.9871,2.34827,-0.00891586,0.0147699,-0.00140449,0.0148529,-0.00899885,-1.51178,0.0139084,0.022986,1980,1268,11.9871,-2.34822
763,-244,11.8711,2.13818,-0.0126506,0.0186555,-3.92264e-05,0.0186556,-0.0126506,-1.56954,0.0181851,0.0395256,1987,1268,11.8711,-2.13821
770,-244,11.7787,1.85156,-0.0174735,0.0229548,0.00240963,0.0230979,-0.0176166,1.51147,0.0235774,0.0454599,1994,1268,11.7787,-1.85159
777,-244,11.7196,1.57117,-0.0235998,0.0275415,0.00639251,0.0283284,-0.0243868,1.44831,0.0304635,0.0462869,2001,1268,11.7196,-1.57116
784,-244,11.4912,1.39075,-0.0312369,0.0321831,0.0125451,0.0345745,-0.0336283,1.38243,0.0393782,0.0435517,2008,1268,11.4912,-1.39079
791,-244,0,0,0,0,0,0,0,0,0,-1,2015,1268,0,0
798,-244,0,0,0,0,0,0,0,0,0,-1,2022,1268,0,0
805,-244,0,0,0,0,0,0,0,0,0,-1,2029,1268,0,0
812,-244,0,0,0,0,0,0,0,0,0,-1,2036,1268,0,0
-700,-251,0,0,0,0,0,0,0,0,0,-1,524,1275,0,0
-693,-251,0,0,0,0,0,0,0,0,0,-1,531,1275,0,0
-686,-251,0,0,0,0,0,0,0,0,0,-1,538,1275,0,0
-679,-251,0,0,0,0,0,0,0,0,0,-1,545,1275,0,0
-672,-251,0,0,0,0,0,0,0,0,0,-1,552,1275,0,0
-665,-251,-1.66119,-1.25098,0,0,0,0,0,0,0,-1,559,1275,-1.66118,1.25092
-658,-251,-1.43903,-0.544922,0,0,0,0,0,0,0,-1,566,1275,-1.43905,0.544891
-651,-251,-1.39191,0.297607,0,0,0,0,0,0,0,-1,573,1275,-1.39194,-0.297622
-644,-251,-5.8421,-1.67737,0,0,0,0,0,0,0,-1,580,1275,-5.84208,1.67732
-637,-251,-5.39026,0.00610352,0,0,0,0,0,0,0,-1,587,1275,-5.39025,-0.00613534
-630,-251,-5.63684,0.211548,0.00738416,0.0255601,0.0100121,0.0299938,0.00295052,1.15392,0.0190885,0.0418604,594,1275,-5.63685,-0.211534
-623,-251,-5.69092,0.463989,0.00538038,0.0188955,0.00839687,0.0229163,0.00135963,1.12422,0.0148451,0.0354349,601,1275,-5.6909,-0.46399
-616,-251,-5.75574,0.636719,0.00396587,0.0135459,0.00657577,0.0168913,0.00062047,1.10018,0.0110598,0.019749,608,1275,-5.75577,-0.63677
-609,-251,-5.76813,0.713867,0.00284001,0.00933047,0.00510949,0.0121382,3.22806e-05,1.06833,0.0080814,0.0188783,615,1275,-5.76813,-0.71381
-602,-251,-5.75702,0.828735,0.00215316,0.00620001,0.00375198,0.0084394,-8.62321e-05,1.03269,0.00565523,0.0137397,622,1275,-5.757,-0.828729
-595,-251,-5.73602,0.951904,0.00177983,0.00379479,0.00262399,0.00559807,-2.34495e-05,0.968694,0.00373988,0.012398,629,1275,-5.73599,-0.951946
-588,-251,-5.72455,1.06543,0.000261708,0.00141541,0.001589,0.00252903,-0.000851904,0.959516,0.00203046,0.0144149,636,1275,-5.72457,-1.0654
-581,-251,-5.74164,1.20447,-0.00104061,-0.000918247,0.00074325,-0.000233667,-0.00172519,0.826465,0.00108069,0.0140123,643,1275,-5.74162,-1.20446
-574,-251,-5.7616,1.34668,-0.00258789,-0.00274524,1.38346e-05,-0.00258669,-0.00274645,0.0870323,0.0017801,0.0131676,650,1275,-5.76162,-1.34671
-567,-251,-5.75458,1.47986,-0.00355205,-0.00354444,-0.000967587,-0.00258065,-0.00451584,-0.787367,0.00261608,0.0110003,657,1275,-5.75459,-1.47987
-560,-251,-5.74329,1.59912,-0.00395529,-0.00479225,-0.00191631,-0.0024123,-0.00633524,-0.677896,0.00369215,0.011936,664,1275,-5.74326,-1.59908
-553,-251,-5.66162,1.65613,-0.00465605,-0.00576252,-0.00294794,-0.00220988,-0.00820869,-0.692643,0.00490469,0.0265898,671,1275,-5.66164,-1.65618
-546,-251,-5.9798,0.368408,0,0,0,0,0,0,0,-1,678,1275,-5.97981,-0.36836
-539,-251,-6.88849,0.929199,-0.00532835,-0.00721465,-0.00495445,-0.00122808,-0.0113149,-0.691342,0.00716907,0.0446721,685,1275,-6.88848,-0.929218
-532,-251,-7.41541,1.09082,-0.00490161,-0.00795395,-0.00622782,-1.56821e-05,-0.0128399,-0.665238,0.0085547,0.0442555,692,1275,-7.41539,-1.09084
-525,-251,-7.3512,0.906494,0,0,0,0,0,0,0,-1,699,1275,-7.35122,-0.906493
-518,-251,-9.2746,2.16907,-0.00177075,-0.00855976,-0.00904369,0.00449451,-0.014825,-0.605862,0.0116736,0.0441474,706,1275,-9.27458,-2.16904
-511,-251,-8.578,1.22449,0.000722561,-0.00891758,-0.0103355,0.00730672,-0.0155017,-0.567211,0.0134488,0.0434312,713,1275,-8.57801,-1.22447
-504,-251,-7.93262,0.311035,0,0,0,0,0,0,0,-1,720,1275,-7.93263,-0.311003
-497,-251,-8.15167,0.40271,0,0,0,0,0,0,0,-1,727,1275,-8.15169,-0.402723
-490,-251,0,0,0,0,0,0,0,0,0,-1,734,1275,0,0
-483,-251,0,0,0,0,0,0,0,0,0,-1,741,1275,0,0
-476,-251,0,0,0,0,0,0,0,0,0,-1,748,1275,0,0
-469,-251,0,0,0,0,0,0,0,0,0,-1,755,1275,0,0
-462,-251,0,0,0,0,0,0,0,0,0,-1,762,1275,0,0
-455,-251,0,0,0,0,0,0,0,0,0,-1,769,1275,0,0
-448,-251,0,0,0,0,0,0,0,0,0,-1,776,1275,0,0
-441,-251,0,0,0,0,0,0,0,0,0,-1,783,1275,0,0
-434,-251,0,0,0,0,0,0,0,0,0,-1,790,1275,0,0
-427,-251,0,0,0,0,0,0,0,0,0,-1,797,1275,0,0
-420,-251,0,0,0,0,0,0,0,0,0,-1,804,1275,0,0
-413,-251,0,0,0,0,0,0,0,0,0,-1,811,1275,0,0
-406,-251,0,0,0,0,0,0,0,0,0,-1,818,1275,0,0
-399,-251,0,0,0,0,0,0,0,0,0,-1,825,1275,0,0
-392,-251,0,0,0,0,0,0,0,0,0,-1,832,1275,0,0
-385,-251,0,0,0,0,0,0,0,0,0,-1,839,1275,0,0
-378,-251,0,0,0,0,0,0,0,0,0,-1,846,1275,0,0
-371,-251,0,0,0,0,0,0,0,0,0,-1,853,1275,0,0
-364,-251,0,0,0,0,0,0,0,0,0,-1,860,1275,0,0
-357,-251,0,0,0,0,0,0,0,0,0,-1,867,1275,0,0
-350,-251,0,0,0,0,0,0,0,0,0,-1,874,1275,0,0
-343,-251,0,0,0,0,0,0,0,0,0,-1,881,1275,0,0
-336,-251,0,0,0,0,0,0,0,0,0,-1,888,1275,0,0
-329,-251,0,0,0,0,0,0,0,0,0,-1,895,1275,0,0
-322,-251,0,0,0,0,0,0,0,0,0,-1,902,1275,0,0
-315,-251,0,0,0,0,0,0,0,0,0,-1,909,1275,0,0
-308,-251,0,0,0,0,0,0,0,0,0,-1,916,1275,0,0
-301,-251,0,0,0,0,0,0,0,0,0,-1,923,1275,0,0
-294,-251,0,0,0,0,0,0,0,0,0,-1,930,1275,0,0
-287,-251,0,0,0,0,0,0,0,0,0,-1,937,1275,0,0
-280,-251,0,0,0,0,0,0,0,0,0,-1,944,1275,0,0
-273,-251,0,0,0,0,0,0,0,0,0,-1,951,1275,0,0
-266,-251,0,0,0,0,0,0,0,0,0,-1,958,1275,0,0
-259,-251,0,0,0,0,0,0,0,0,0,-1,965,1275,0,0
-252,-251,0,0,0,0,0,0,0,0,0,-1,972,1275,0,0
-245,-251,0,0,0,0,0,0,0,0,0,-1,979,1275,0,0
-238,-251,0,0,0,0,0,0,0,0,0,-1,986,1275,0,0
-231,-251,0,0,0,0,0,0,0,0,0,-1,993,1275,0,0
-224,-251,0,0,0,0,0,0,0,0,0,-1,1000,1275,0,0
-217,-251,0,0,0,0,0,0,0,0,0,-1,1007,1275,0,0
-210,-251,0,0,0,0,0,0,0,0,0,-1,1014,1275,0,0
-203,-251,0,0,0,0,0,0,0,0,0,-1,1021,1275,0,0
-196,-251,0,0,0,0,0,0,0,0,0,-1,1028,1275,0,0
-189,-251,0,0,0,0,0,0,0,0,0,-1,1035,1275,0,0
-182,-251,0,0,0,0,0,0,0,0,0,-1,1042,1275,0,0
-175,-251,0,0,0,0,0,0,0,0,0,-1,1049,1275,0,0
-168,-251,0,0,0,0,0,0,0,0,0,-1,1056,1275,0,0
-161,-251,0,0,0,0,0,0,0,0,0,-1,1063,1275,0,0
-154,-251,0,0,0,0,0,0,0,0,0,-1,1070,1275,0,0
-147,-251,0,0,0,0,0,0,0,0,0,-1,1077,1275,0,0
-140,-251,0,0,0,0,0,0,0,0,0,-1,1084,1275,0,0
-133,-251,0,0,0,0,0,0,0,0,0,-1,1091,1275,0,0
-126,-251,0,0,0,0,0,0,0,0,0,-1,1098,1275,0,0
-119,-251,0,0,0,0,0,0,0,0,0,-1,1105,1275,0,0
-112,-251,0,0,0,0,0,0,0,0,0,-1,1112,1275,0,0
-105,-251,0,0,0,0,0,0,0,0,0,-1,1119,1275,0,0
-98,-251,0,0,0,0,0,0,0,0,0,-1,1126,1275,0,0
-91,-251,0,0,0,0,0,0,0,0,0,-1,1133,1275,0,0
-84,-251,0,0,0,0,0,0,0,0,0,-1,1140,1275,0,0
-77,-251,0,0,0,0,0,0,0,0,0,-1,1147,1275,0,0
-70,-251,0,0,0,0,0,0,0,0,0,-1,1154,1275,0,0
-63,-251,0,0,0,0,0,0,0,0,0,-1,1161,1275,0,0
-56,-251,0,0,0,0,0,0,0,0,0,-1,1168,1275,0,0
-49,-251,0,0,0,0,0,0,0,0,0,-1,1175,1275,0,0
-42,-251,0,0,0,0,0,0,0,0,0,-1,1182,1275,0,0
-35,-251,0,0,0,0,0,0,0,0,0,-1,1189,1275,0,0
-28,-251,0,0,0,0,0,0,0,0,0,-1,1196,1275,0,0
-21,-251,0,0,0,0,0,0,0,0,0,-1,1203,1275,0,0
-14,-251,0,0,0,0,0,0,0,0,0,-1,1210,1275,0,0
-7,-251,0,0,0,0,0,0,0,0,0,-1,1217,1275,0,0
0,-251,0,0,0,0,0,0,0,0,0,-1,1224,1275,0,0
7,-251,0,0,0,0,0,0,0,0,0,-1,1231,1275,0,0
14,-251,0,0,0,0,0,0,0,0,0,-1,1238,1275,0,0
21,-251,0,0,0,0,0,0,0,0,0,-1,1245,1275,0,0
28,-251,0,0,0,0,0,0,0,0,0,-1,1252,1275,0,0
35,-251,0,0,0,0,0,0,0,0,0,-1,1259,1275,0,0
42,-251,0,0,0,0,0,0,0,0,0,-1,1266,1275,0,0
49,-251,0,0,0,0,0,0,0,0,0,-1,1273,1275,0,0
56,-251,0,0,0,0,0,0,0,0,0,-1,1280,1275,0,0
63,-251,0,0,0,0,0,0,0,0,0,-1,1287,1275,0,0
70,-251,0,0,0,0,0,0,0,0,0,-1,1294,1275,0,0
77,-251,0,0,0,0,0,0,0,0,0,-1,1301,1275,0,0
84,-251,0,0,0,0,0,0,0,0,0,-1,1308,1275,0,0
91,-251,0,0,0,0,0,0,0,0,0,-1,1315,1275,0,0
98,-251,0,0,0,0,0,0,0,0,0,-1,1322,1275,0,0
105,-251,0,0,0,0,0,0,0,0,0,-1,1329,1275,0,0
112,-251,0,0,0,0,0,0,0,0,0,-1,1336,1275,0,0
119,-251,0,0,0,0,0,0,0,0,0,-1,1343,1275,0,0
126,-251,0,0,0,0,0,0,0,0,0,-1,1350,1275,0,0
133,-251,0,0,0,0,0,0,0,0,0,-1,1357,1275,0,0
140,-251,0,0,0,0,0,0,0,0,0,-1,1364,1275,0,0
147,-251,0,0,0,0,0,0,0,0,0,-1,1371,1275,0,0
154,-251,0,0,0,0,0,0,0,0,0,-1,1378,1275,0,0
161,-251,0,0,0,0,0,0,0,0,0,-1,1385,1275,0,0
168,-251,0,0,0,0,0,0,0,0,0,-1,1392,1275,0,0
175,-251,0,0,0,0,0,0,0,0,0,-1,1399,1275,0,0
182,-251,0,0,0,0,0,0,0,0,0,-1,1406,1275,0,0
189,-251,0,0,0,0,0,0,0,0,0,-1,1413,1275,0,0
196,-251,0,0,0,0,0,0,0,0,0,-1,1420,1275,0,0
203,-251,0,0,0,0,0,0,0,0,0,-1,1427,1275,0,0
210,-251,0,0,0,0,0,0,0,0,0,-1,1434,1275,0,0
217,-251,0,0,0,0,0,0,0,0,0,-1,1441,1275,0,0
224,-251,0,0,0,0,0,0,0,0,0,-1,1448,1275,0,0
231,-251,0,0,0,0,0,0,0,0,0,-1,1455,1275,0,0
238,-251,0,0,0,0,0,0,0,0,0,-1,1462,1275,0,0
245,-251,0,0,0,0,0,0,0,0,0,-1,1469,1275,0,0
252,-251,0,0,0,0,0,0,0,0,0,-1,1476,1275,0,0
259,-251,0,0,0,0,0,0,0,0,0,-1,1483,1275,0,0
266,-251,0,0,0,0,0,0,0,0,0,-1,1490,1275,0,0
273,-251,0,0,0,0,0,0,0,0,0,-1,1497,1275,0,0
280,-251,0,0,0,0,0,0,0,0,0,-1,1504,1275,0,0
287,-251,0,0,0,0,0,0,0,0,0,-1,1511,1275,0,0
294,-251,0,0,0,0,0,0,0,0,0,-1,1518,1275,0,0
301,-251,0,0,0,0,0,0,0,0,0,-1,1525,1275,0,0
308,-251,0,0,0,0,0,0,0,0,0,-1,1532,1275,0,0
315,-251,0,0,0,0,0,0,0,0,0,-1,1539,1275,0,0
322,-251,0,0,0,0,0,0,0,0,0,-1,1546,1275,0,0
329,-251,0,0,0,0,0,0,0,0,0,-1,1553,1275,0,0
336,-251,0,0,0,0,0,0,0,0,0,-1,1560,1275,0,0
343,-251,0,0,0,0,0,0,0,0,0,-1,1567,1275,0,0
350,-251,0,0,0,0,0,0,0,0,0,-1,1574,1275,0,0
357,-251,0,0,0,0,0,0,0,0,0,-1,1581,1275,0,0
364,-251,0,0,0,0,0,0,0,0,0,-1,1588,1275,0,0
371,-251,0,0,0,0,0,0,0,0,0,-1,1595,1275,0,0
378,-251,0,0,0,0,0,0,0,0,0,-1,1602,1275,0,0
385,-251,0,0,0,0,0,0,0,0,0,-1,1609,1275,0,0
392,-251,0,0,0,0,0,0,0,0,0,-1,1616,1275,0,0
399,-251,0,0,0,0,0,0,0,0,0,-1,1623,1275,0,0
406,-251,0,0,0,0,0,0,0,0,0,-1,1630,1275,0,0
413,-251,0,0,0,0,0,0,0,0,0,-1,1637,1275,0,0
420,-251,0,0,0,0,0,0,0,0,0,-1,1644,1275,0,0
427,-251,0,0,0,0,0,0,0,0,0,-1,1651,1275,0,0
434,-251,0,0,0,0,0,0,0,0,0,-1,1658,1275,0,0
441,-251,0,0,0,0,0,0,0,0,0,-1,1665,1275,0,0
448,-251,0,0,0,0,0,0,0,0,0,-1,1672,1275,0,0
455,-251,0,0,0,0,0,0,0,0,0,-1,1679,1275,0,0
462,-251,0,0,0,0,0,0,0,0,0,-1,1686,1275,0,0
469,-251,0,0,0,0,0,0,0,0,0,-1,1693,1275,0,0
476,-251,0,0,0,0,0,0,0,0,0,-1,1700,1275,0,0
483,-251,0,0,0,0,0,0,0,0,0,-1,1707,1275,0,0
490,-251,0,0,0,0,0,0,0,0,0,-1,1714,1275,0,0
497,-251,0,0,0,0,0,0,0,0,0,-1,1721,1275,0,0
504,-251,0,0,0,0,0,0,0,0,0,-1,1728,1275,0,0
511,-251,0,0,0,0,0,0,0,0,0,-1,1735,1275,0,0
518,-251,0,0,0,0,0,0,0,0,0,-1,1742,1275,0,0
525,-251,0,0,0,0,0,0,0,0,0,-1,1749,1275,0,0
532,-251,0,0,0,0,0,0,0,0,0,-1,1756,1275,0,0
539,-251,0,0,0,0,0,0,0,0,0,-1,1763,1275,0,0
546,-251,0,0,0,0,0,0,0,0,0,-1,1770,1275,0,0
553,-251,0,0,0,0,0,0,0,0,0,-1,1777,1275,0,0
560,-251,0,0,0,0,0,0,0,0,0,-1,1784,1275,0,0
567,-251,0,0,0,0,0,0,0,0,0,-1,1791,1275,0,0
574,-251,0,0,0,0,0,0,0,0,0,-1,1798,1275,0,0
581,-251,0,0,0,0,0,0,0,0,0,-1,1805,1275,0,0
588,-251,0,0,0,0,0,0,0,0,0,-1,1812,1275,0,0
595,-251,0,0,0,0,0,0,0,0,0,-1,1819,1275,0,0
602,-251,0,0,0,0,0,0,0,0,0,-1,1826,1275,0,0
609,-251,13.9996,1.90698,-0.0015446,-0.0036517,-6.20408e-05,-0.00154278,-0.00365352,-0.0294098,0.00211784,0.030776,1833,1275,13.9997,-1.90699
616,-251,13.9596,1.85889,3.5115e-05,0.00017437,-0.000609224,0.000717933,-0.000508448,-0.842296,0.000711486,0.0262425,1840,1275,13.9596,-1.85894
623,-251,14.0095,1.90137,0.000608318,0.0026178,-0.00110726,0.00310823,0.00011789,-1.15385,0.002034,0.0218308,1847,1275,14.0095,-1.90132
630,-251,14.0406,1.83911,0.000754783,0.00335449,-0.00140849,0.00397127,0.000138008,-1.15805,0.00260273,0.0322457,1854,1275,14.0406,-1.83914
637,-251,14.1639,1.77039,0.00080937,0.00307078,-0.00139261,0.00373391,0.000146239,-1.12639,0.00244199,0.0395697,1861,1275,14.164,-1.77044
644,-251,14.0859,1.61243,0.000780017,0.00248881,-0.00115656,0.00307233,0.000196493,-1.10353,0.00198597,0.0439691,1868,1275,14.0859,-1.61245
651,-251,13.7225,1.3717,0.000780613,0.00183153,-0.000901902,0.00234988,0.000262264,-1.04917,0.0014869,0.0482723,1875,1275,13.7225,-1.37174
658,-251,13.4955,1.20996,0,0,0,0,0,0,0,-1,1882,1275,13.4955,-1.20991
665,-251,12.0917,3.2334,0,0,0,0,0,0,0,-1,1889,1275,12.0917,-3.23337
672,-251,12.1714,3.2489,0,0,0,0,0,0,0,-1,1896,1275,12.1714,-3.24893
679,-251,11.9634,3.39124,0.00121843,-0.000882323,9.48712e-05,0.00122271,-0.000886599,0.0450384,0.00122295,0.0386106,1903,1275,11.9634,-3.3913
686,-251,11.8599,3.42566,0.000983438,-0.00174755,0.000419622,0.00104646,-0.00181057,0.149072,0.00166906,0.0183829,1910,1275,11.8599,-3.4257
693,-251,11.9038,3.33704,0.00103173,-0.00205094,0.000469961,0.00110178,-0.00212099,0.147976,0.00189143,0.00919165,1917,1275,11.9038,-3.33702
700,-251,11.9155,3.22241,0.00147815,-0.0017536,0.000930482,0.00172691,-0.00200235,0.261232,0.00215505,0.0087676,1924,1275,11.9155,-3.22237
707,-251,11.9474,3.11072,0.00159126,-0.00102961,0.00068537,0.00175967,-0.00119801,0.240943,0.00171785,0.0100493,1931,1275,11.9474,-3.11068
714,-251,11.9486,2.99988,0.000784496,0.000424463,-0.000467069,0.00110504,0.00010392,-0.601462,0.000704611,0.00971977,1938,1275,11.9486,-2.99993
721,-251,11.9141,2.89124,-2.89022e-05,0.00250278,-0.00174312,0.0033912,-0.000917319,-1.09944,0.00262064,0.00976475,1945,1275,11.914,-2.89121
728,-251,11.9261,2.79236,-0.00156258,0.00553313,-0.00261573,0.00639314,-0.0024226,-1.25314,0.00525904,0.0111901,1952,1275,11.9262,-2.7923
735,-251,11.928,2.68054,-0.00347023,0.0080209,-0.00313949,0.00882269,-0.00427203,-1.32075,0.00771091,0.0132924,1959,1275,11.928,-2.68058
742,-251,11.9457,2.57336,-0.0055136,0.0113967,-0.00393917,0.0122693,-0.00638618,-1.3528,0.0109478,0.01465,1966,1275,11.9456,-2.57336
749,-251,11.9081,2.44543,-0.00832885,0.0152492,-0.00446242,0.0160655,-0.00914516,-1.38987,0.0147371,0.0222938,1973,1275,11.9081,-2.44547
756,-251,11.7413,2.39258,-0.0121407,0.0197225,-0.00446744,0.020337,-0.0127552,-1.4341,0.0192722,0.0381772,1980,1275,11.7414,-2.39263
763,-251,11.7224,2.13489,0,0,0,0,0,0,0,-1,1987,1275,11.7224,-2.13489
770,-251,11.6158,1.91919,-0.0234976,0.0303263,-0.00190675,0.0303937,-0.0235651,-1.53543,0.0312362,0.0490608,1994,1275,11.6159,-1.91913
777,-251,11.0399,2.00757,-0.0315501,0.0361028,0.00155659,0.0361386,-0.0315859,1.5478,0.0391302,0.0475755,2001,1275,11.0399,-2.00752
784,-251,10.3601,1.74084,-0.0415321,0.0417059,0.00742435,0.042363,-0.0421891,1.48253,0.0488162,0.0461676,2008,1275,10.3601,-1.74089
791,-251,0,0,0,0,0,0,0,0,0,-1,2015,1275,0,0
798,-251,0,0,0,0,0,0,0,0,0,-1,2022,1275,0,0
805,-251,0,0,0,0,0,0,0,0,0,-1,2029,1275,0,0
812,-251,0,0,0,0,0,0,0,0,0,-1,2036,1275,0,0
-700,-258,0,0,0,0,0,0,0,0,0,-1,524,1282,0,0
-693,-258,0,0,0,0,0,0,0,0,0,-1,531,1282,0,0
-686,-258,0,0,0,0,0,0,0,0,0,-1,538,1282,0,0
-679,-258,0,0,0,0,0,0,0,0,0,-1,545,1282,0,0
-672,-258,0,0,0,0,0,0,0,0,0,-1,552,1282,0,0
-665,-258,-2.52911,-1.17065,0,0,0,0,0,0,0,-1,559,1282,-2.5291,1.17066
-658,-258,-2.46606,-0.545654,0,0,0,0,0,0,0,-1,566,1282,-2.46604,0.545713
-651,-258,-4.25183,-3.03589,0,0,0,0,0,0,0,-1,573,1282,-4.25183,3.03591
-644,-258,-4.54761,-1.81494,0,0,0,0,0,0,0,-1,580,1282,-4.5476,1.81491
-637,-258,-4.97797,-0.559692,0.00924549,0.0333091,0.0105431,0.0372748,0.00527977,1.21102,0.0232903,0.04333,587,1282,-4.97798,0.559652
-630,-258,-5.34833,0.0819092,0.00748752,0.0258183,0.00960775,0.0299312,0.00337461,1.16632,0.0189298,0.0448944,594,1282,-5.34835,-0.0818849
-623,-258,-5.54303,0.554321,0.00580834,0.0194689,0.00845799,0.0235102,0.00176709,1.12506,0.0151189,0.0418019,601,1282,-5.54305,-0.554278
-616,-258,-5.57416,0.627075,0.00451293,0.014271,0.006943,0.0178779,0.000906088,1.09168,0.0116283,0.0311408,608,1282,-5.57417,-0.627096
-609,-258,-5.60211,0.688477,0.0034749,0.010122,0.00558011,0.0132933,0.000303547,1.05399,0.00876277,0.0165827,615,1282,-5.60212,-0.688497
-602,-258,-5.60773,0.811523,0.00272143,0.00696312,0.00426168,0.00960252,8.20369e-05,1.01628,0.00637451,0.0131561,622,1282,-5.6077,-0.811484
-595,-258,-5.59418,0.936035,0.00224959,0.00448771,0.00310429,0.00666849,6.88115e-05,0.958391,0.0044229,0.0109845,629,1282,-5.59419,-0.936056
-588,-258,-5.58038,1.07642,0.000676151,0.00203052,0.00204755,0.00350996,-0.000803289,0.945101,0.00264866,0.0117538,636,1282,-5.58038,-1.07644
-581,-258,-5.61768,1.21436,-0.000708957,-0.000448726,0.00110671,0.00053549,-0.00169317,0.843914,0.00134334,0.0140879,643,1282,-5.61767,-1.21437
-574,-258,-5.61957,1.3457,-0.0024169,-0.00236422,0.000225858,-0.00216317,-0.00261795,0.84344,0.00161519,0.013906,650,1282,-5.61954,-1.34573
-567,-258,-5.63031,1.47046,-0.00350536,-0.0031416,-0.00082509,-0.00247858,-0.00416838,-0.893882,0.00242094,0.0137187,657,1282,-5.63033,-1.47049
-560,-258,-5.61877,1.61804,-0.00399986,-0.00432,-0.00181707,-0.00233582,-0.00598404,-0.741466,0.00348247,0.0189463,664,1282,-5.61876,-1.61803
-553,-258,-5.59137,1.70459,-0.00477685,-0.00518184,-0.00284257,-0.00212958,-0.00782912,-0.74984,0.00467416,0.022997,671,1282,-5.59135,-1.70461
-546,-258,-5.51617,1.33167,0,0,0,0,0,0,0,-1,678,1282,-5.51619,-1.33171
-539,-258,-6.28253,1.646,-0.00552656,-0.00628986,-0.00475012,-0.00114277,-0.0106736,-0.745312,0.00676707,0.0442445,685,1282,-6.28255,-1.64601
-532,-258,-7.35449,1.61243,-0.00517997,-0.00700238,-0.00600566,-1.67792e-05,-0.0121656,-0.71011,0.00810479,0.045281,692,1282,-7.35446,-1.61242
-525,-258,-9.48022,2.33813,0,0,0,0,0,0,0,-1,699,1282,-9.48025,-2.33811
-518,-258,-9.00189,1.6665,-0.00244105,-0.00765438,-0.00885485,0.00418283,-0.0142783,-0.642253,0.0111771,0.0441685,706,1282,-9.00187,-1.66654
-511,-258,-8.73822,1.3429,-0.000420458,-0.00823593,-0.0102382,0.00663042,-0.0152868,-0.60309,0.0129787,0.045795,713,1282,-8.73822,-1.34288
-504,-258,-7.93671,0.41626,0,0,0,0,0,0,0,-1,720,1282,-7.93673,-0.416286
-497,-258,-7.95313,0.286987,0.00494417,-0.0109803,-0.0129989,0.0122255,-0.0182617,-0.510606,0.0177165,0.0439384,727,1282,-7.95313,-0.286963
-490,-258,-7.97943,0.255005,0.00794296,-0.0135901,-0.014453,0.0151989,-0.020846,-0.465273,0.0208954,0.0440984,734,1282,-7.97944,-0.255001
-483,-258,0,0,0,0,0,0,0,0,0,-1,741,1282,0,0
-476,-258,0,0,0,0,0,0,0,0,0,-1,748,1282,0,0
-469,-258,0,0,0,0,0,0,0,0,0,-1,755,1282,0,0
-462,-258,0,0,0,0,0,0,0,0,0,-1,762,1282,0,0
-455,-258,0,0,0,0,0,0,0,0,0,-1,769,1282,0,0
-448,-258,0,0,0,0,0,0,0,0,0,-1,776,1282,0,0
-441,-258,0,0,0,0,0,0,0,0,0,-1,783,1282,0,0
-434,-258,0,0,0,0,0,0,0,0,0,-1,790,1282,0,0
-427,-258,0,0,0,0,0,0,0,0,0,-1,797,1282,0,0
-420,-258,0,0,0,0,0,0,0,0,0,-1,804,1282,0,0
-413,-258,0,0,0,0,0,0,0,0,0,-1,811,1282,0,0
-406,-258,0,0,0,0,0,0,0,0,0,-1,818,1282,0,0
-399,-258,0,0,0,0,0,0,0,0,0,-1,825,1282,0,0
-392,-258,0,0,0,0,0,0,0,0,0,-1,832,1282,0,0
-385,-258,0,0,0,0,0,0,0,0,0,-1,839,1282,0,0
-378,-258,0,0,0,0,0,0,0,0,0,-1,846,1282,0,0
-371,-258,0,0,0,0,0,0,0,0,0,-1,853,1282,0,0
-364,-258,0,0,0,0,0,0,0,0,0,-1,860,1282,0,0
-357,-258,0,0,0,0,0,0,0,0,0,-1,867,1282,0,0
-350,-258,0,0,0,0,0,0,0,0,0,-1,874,1282,0,0
-343,-258,0,0,0,0,0,0,0,0,0,-1,881,1282,0,0
-336,-258,0,0,0,0,0,0,0,0,0,-1,888,1282,0,0
-329,-258,0,0,0,0,0,0,0,0,0,-1,895,1282,0,0
-322,-258,0,0,0,0,0,0,0,0,0,-1,902,1282,0,0
-315,-258,0,0,0,0,0,0,0,0,0,-1,909,1282,0,0
-308,-258,0,0,0,0,0,0,0,0,0,-1,916,1282,0,0
-301,-258,0,0,0,0,0,0,0,0,0,-1,923,1282,0,0
-294,-258,0,0,0,0,0,0,0,0,0,-1,930,1282,0,0
-287,-258,0,0,0,0,0,0,0,0,0,-1,937,1282,0,0
-280,-258,0,0,0,0,0,0,0,0,0,-1,944,1282,0,0
-273,-258,0,0,0,0,0,0,0,0,0,-1,951,1282,0,0
-266,-258,0,0,0,0,0,0,0,0,0,-1,958,1282,0,0
-259,-258,0,0,0,0,0,0,0,0,0,-1,965,1282,0,0
-252,-258,0,0,0,0,0,0,0,0,0,-1,972,1282,0,0
-245,-258,0,0,0,0,0,0,0,0,0,-1,979,1282,0,0
-238,-258,0,0,0,0,0,0,0,0,0,-1,986,1282,0,0
-231,-258,0,0,0,0,0,0,0,0,0,-1,993,1282,0,0
-224,-258,0,0,0,0,0,0,0,0,0,-1,1000,1282,0,0
-217,-258,0,0,0,0,0,0,0,0,0,-1,1007,1282,0,0
-210,-258,0,0,0,0,0,0,0,0,0,-1,1014,1282,0,0
-203,-258,0,0,0,0,0,0,0,0,0,-1,1021,1282,0,0
-196,-258,0,0,0,0,0,0,0,0,0,-1,1028,1282,0,0
-189,-258,0,0,0,0,0,0,0,0,0,-1,1035,1282,0,0
-182,-258,0,0,0,0,0,0,0,0,0,-1,1042,1282,0,0
-175,-258,0,0,0,0,0,0,0,0,0,-1,1049,1282,0,0
-168,-258,0,0,0,0,0,0,0,0,0,-1,1056,1282,0,0
-161,-258,0,0,0,0,0,0,0,0,0,-1,1063,1282,0,0
-154,-258,0,0,0,0,0,0,0,0,0,-1,1070,1282,0,0
-147,-258,0,0,0,0,0,0,0,0,0,-1,1077,1282,0,0
-140,-258,0,0,0,0,0,0,0,0,0,-1,1084,1282,0,0
-133,-258,0,0,0,0,0,0,0,0,0,-1,1091,1282,0,0
-126,-258,0,0,0,0,0,0,0,0,0,-1,1098,1282,0,0
-119,-258,0,0,0,0,0,0,0,0,0,-1,1105,1282,0,0
-112,-258,0,0,0,0,0,0,0,0,0,-1,1112,1282,0,0
-105,-258,0,0,0,0,0,0,0,0,0,-1,1119,1282,0,0
-98,-258,0,0,0,0,0,0,0,0,0,-1,1126,1282,0,0
-91,-258,0,0,0,0,0,0,0,0,0,-1,1133,1282,0,0
-84,-258,0,0,0,0,0,0,0,0,0,-1,1140,1282,0,0
-77,-258,0,0,0,0,0,0,0,0,0,-1,1147,1282,0,0
-70,-258,0,0,0,0,0,0,0,0,0,-1,1154,1282,0,0
-63,-258,0,0,0,0,0,0,0,0,0,-1,1161,1282,0,0
-56,-258,0,0,0,0,0,0,0,0,0,-1,1168,1282,0,0
-49,-258,0,0,0,0,0,0,0,0,0,-1,1175,1282,0,0
-42,-258,0,0,0,0,0,0,0,0,0,-1,1182,1282,0,0
-35,-258,0,0,0,0,0,0,0,0,0,-1,1189,1282,0,0
-28,-258,0,0,0,0,0,0,0,0,0,-1,1196,1282,0,0
-21,-258,0,0,0,0,0,0,0,0,0,-1,1203,1282,0,0
-14,-258,0,0,0,0,0,0,0,0,0,-1,1210,1282,0,0
-7,-258,0,0,0,0,0,0,0,0,0,-1,1217,1282,0,0
0,-258,0,0,0,0,0,0,0,0,0,-1,1224,1282,0,0
7,-258,0,0,0,0,0,0,0,0,0,-1,1231,1282,0,0
14,-258,0,0,0,0,0,0,0,0,0,-1,1238,1282,0,0
21,-258,0,0,0,0,0,0,0,0,0,-1,1245,1282,0,0
28,-258,0,0,0,0,0,0,0,0,0,-1,1252,1282,0,0
35,-258,0,0,0,0,0,0,0,0,0,-1,1259,1282,0,0
42,-258,0,0,0,0,0,0,0,0,0,-1,1266,1282,0,0
49,-258,0,0,0,0,0,0,0,0,0,-1,1273,1282,0,0
56,-258,0,0,0,0,0,0,0,0,0,-1,1280,1282,0,0
63,-258,0,0,0,0,0,0,0,0,0,-1,1287,1282,0,0
70,-258,0,0,0,0,0,0,0,0,0,-1,1294,1282,0,0
77,-258,0,0,0,0,0,0,0,0,0,-1,1301,1282,0,0
84,-258,0,0,0,0,0,0,0,0,0,-1,1308,1282,0,0
91,-258,0,0,0,0,0,0,0,0,0,-1,1315,1282,0,0
98,-258,0,0,0,0,0,0,0,0,0,-1,1322,1282,0,0
105,-258,0,0,0,0,0,0,0,0,0,-1,1329,1282,0,0
112,-258,0,0,0,0,0,0,0,0,0,-1,1336,1282,0,0
119,-258,0,0,0,0,0,0,0,0,0,-1,1343,1282,0,0
126,-258,0,0,0,0,0,0,0,0,0,-1,1350,1282,0,0
133,-258,0,0,0,0,0,0,0,0,0,-1,1357,1282,0,0
140,-258,0,0,0,0,0,0,0,0,0,-1,1364,1282,0,0
147,-258,0,0,0,0,0,0,0,0,0,-1,1371,1282,0,0
154,-258,0,0,0,0,0,0,0,0,0,-1,1378,1282,0,0
161,-258,0,0,0,0,0,0,0,0,0,-1,1385,1282,0,0
168,-258,0,0,0,0,0,0,0,0,0,-1,1392,1282,0,0
175,-258,0,0,0,0,0,0,0,0,0,-1,1399,1282,0,0
182,-258,0,0,0,0,0,0,0,0,0,-1,1406,1282,0,0
189,-258,0,0,0,0,0,0,0,0,0,-1,1413,1282,0,0
196,-258,0,0,0,0,0,0,0,0,0,-1,1420,1282,0,0
203,-258,0,0,0,0,0,0,0,0,0,-1,1427,1282,0,0
210,-258,0,0,0,0,0,0,0,0,0,-1,1434,1282,0,0
217,-258,0,0,0,0,0,0,0,0,0,-1,1441,1282,0,0
224,-258,0,0,0,0,0,0,0,0,0,-1,1448,1282,0,0
231,-258,0,0,0,0,0,0,0,0,0,-1,1455,1282,0,0
238,-258,0,0,0,0,0,0,0,0,0,-1,1462,1282,0,0
245,-258,0,0,0,0,0,0,0,0,0,-1,1469,1282,0,0
252,-258,0,0,0,0,0,0,0,0,0,-1,1476,1282,0,0
259,-258,0,0,0,0,0,0,0,0,0,-1,1483,1282,0,0
266,-258,0,0,0,0,0,0,0,0,0,-1,1490,1282,0,0
273,-258,0,0,0,0,0,0,0,0,0,-1,1497,1282,0,0
280,-258,0,0,0,0,0,0,0,0,0,-1,1504,1282,0,0
287,-258,0,0,0,0,0,0,0,0,0,-1,1511,1282,0,0
294,-258,0,0,0,0,0,0,0,0,0,-1,1518,1282,0,0
301,-258,0,0,0,0,0,0,0,0,0,-1,1525,1282,0,0
308,-258,0,0,0,0,0,0,0,0,0,-1,1532,1282,0,0
315,-258,0,0,0,0,0,0,0,0,0,-1,1539,1282,0,0
322,-258,0,0,0,0,0,0,0,0,0,-1,1546,1282,0,0
329,-258,0,0,0,0,0,0,0,0,0,-1,1553,1282,0,0
336,-258,0,0,0,0,0,0,0,0,0,-1,1560,1282,0,0
343,-258,0,0,0,0,0,0,0,0,0,-1,1567,1282,0,0
350,-258,0,0,0,0,0,0,0,0,0,-1,1574,1282,0,0
357,-258,0,0,0,0,0,0,0,0,0,-1,1581,1282,0,0
364,-258,0,0,0,0,0,0,0,0,0,-1,1588,1282,0,0
371,-258,0,0,0,0,0,0,0,0,0,-1,1595,1282,0,0
378,-258,0,0,0,0,0,0,0,0,0,-1,1602,1282,0,0
385,-258,0,0,0,0,0,0,0,0,0,-1,1609,1282,0,0
392,-258,0,0,0,0,0,0,0,0,0,-1,1616,1282,0,0
399,-258,0,0,0,0,0,0,0,0,0,-1,1623,1282,0,0
406,-258,0,0,0,0,0,0,0,0,0,-1,1630,1282,0,0
413,-258,0,0,0,0,0,0,0,0,0,-1,1637,1282,0,0
420,-258,0,0,0,0,0,0,0,0,0,-1,1644,1282,0,0
427,-258,0,0,0,0,0,0,0,0,0,-1,1651,1282,0,0
434,-258,0,0,0,0,0,0,0,0,0,-1,1658,1282,0,0
441,-258,0,0,0,0,0,0,0,0,0,-1,1665,1282,0,0
448,-258,0,0,0,0,0,0,0,0,0,-1,1672,1282,0,0
455,-258,0,0,0,0,0,0,0,0,0,-1,1679,1282,0,0
462,-258,0,0,0,0,0,0,0,0,0,-1,1686,1282,0,0
469,-258,0,0,0,0,0,0,0,0,0,-1,1693,1282,0,0
476,-258,0,0,0,0,0,0,0,0,0,-1,1700,1282,0,0
483,-258,0,0,0,0,0,0,0,0,0,-1,1707,1282,0,0
490,-258,0,0,0,0,0,0,0,0,0,-1,1714,1282,0,0
497,-258,0,0,0,0,0,0,0,0,0,-1,1721,1282,0,0
504,-258,0,0,0,0,0,0,0,0,0,-1,1728,1282,0,0
511,-258,0,0,0,0,0,0,0,0,0,-1,1735,1282,0,0
518,-258,0,0,0,0,0,0,0,0,0,-1,1742,1282,0,0
525,-258,0,0,0,0,0,0,0,0,0,-1,1749,1282,0,0
532,-258,0,0,0,0,0,0,0,0,0,-1,1756,1282,0,0
539,-258,0,0,0,0,0,0,0,0,0,-1,1763,1282,0,0
546,-258,0,0,0,0,0,0,0,0,0,-1,1770,1282,0,0
553,-258,0,0,0,0,0,0,0,0,0,-1,1777,1282,0,0
560,-258,0,0,0,0,0,0,0,0,0,-1,1784,1282,0,0
567,-258,0,0,0,0,0,0,0,0,0,-1,1791,1282,0,0
574,-258,0,0,0,0,0,0,0,0,0,-1,1798,1282,0,0
581,-258,0,0,0,0,0,0,0,0,0,-1,1805,1282,0,0
588,-258,0,0,0,0,0,0,0,0,0,-1,1812,1282,0,0
595,-258,0,0,0,0,0,0,0,0,0,-1,1819,1282,0,0
602,-258,0,0,0,0,0,0,0,0,0,-1,1826,1282,0,0
609,-258,14.0125,1.90613,-0.00255554,-0.0033558,-0.00175514,-0.0011555,-0.00475584,-0.673325,0.00286417,0.0253378,1833,1282,14.0125,-1.90615
616,-258,13.9683,1.91077,-0.00111768,0.000952325,-0.00144303,0.00169315,-0.0018585,-1.0965,0.00205129,0.022746,1840,1282,13.9683,-1.91072
623,-258,13.9733,1.9054,-0.000692178,0.00323107,-0.00117081,0.00355391,-0.00101502,-1.30174,0.0027703,0.0299089,1847,1282,13.9733,-1.90544
630,-258,14.0452,1.79077,-0.000621514,0.00376148,-0.000985179,0.00397274,-0.000832773,-1.35956,0.00296532,0.0391734,1854,1282,14.0451,-1.79073
637,-258,14.3204,1.71204,-0.000529439,0.00336592,-0.000767772,0.00351178,-0.000675304,-1.38305,0.00259574,0.0427115,1861,1282,14.3205,-1.71202
644,-258,14.5195,1.76233,-0.000423247,0.00281008,-0.000508915,0.00288829,-0.000501456,-1.41831,0.00211261,0.0464024,1868,1282,14.5195,-1.76229
651,-258,14.0361,1.31885,-0.000310238,0.0021587,-0.000264262,0.00218667,-0.000338207,-1.46535,0.00158261,0.0475604,1875,1282,14.0361,-1.31879
658,-258,13.8944,1.06311,0,0,0,0,0,0,0,-1,1882,1282,13.8944,-1.06312
665,-258,11.6588,3.71008,0,0,0,0,0,0,0,-1,1889,1282,11.6588,-3.71005
672,-258,11.9067,3.17651,0,0,0,0,0,0,0,-1,1896,1282,11.9068,-3.17647
679,-258,11.8262,3.49316,0.000570635,-0.000691917,0.000295552,0.000636396,-0.000757678,0.218936,0.000805883,0.0331588,1903,1282,11.8262,-3.4932
686,-258,11.7618,3.47009,0.00036594,-0.00161377,0.000493426,0.000482106,-0.00172993,0.231217,0.00134315,0.0191453,1910,1282,11.7618,-3.47006
693,-258,11.8138,3.32007,0.000573647,-0.00181776,0.00033462,0.000619586,-0.0018637,0.136435,0.0014925,0.00984173,1917,1282,11.8139,-3.32006
700,-258,11.8191,3.20435,0.00125397,-0.00134604,0.000662029,0.00141283,-0.0015049,0.235511,0.00168483,0.00876431,1924,1282,11.819,-3.20435
707,-258,11.8409,3.10315,0.0015427,-0.000264601,0.000207521,0.00156622,-0.000288123,0.112867,0.00115226,0.00930163,1931,1282,11.8409,-3.10314
714,-258,11.8322,2.99622,0.000853519,0.00158295,-0.00126174,0.00253163,-9.51582e-05,-0.926092,0.00172035,0.008991,1938,1282,11.8321,-2.99623
721,-258,11.8251,2.8894,2.48501e-05,0.00413322,-0.00291321,0.00564365,-0.00148558,-1.09248,0.00434316,0.00959233,1945,1282,11.8251,-2.88935
728,-258,11.8151,2.79895,-0.00173645,0.00788495,-0.00422535,0.00947709,-0.00332859,-1.21044,0.00767218,0.00923769,1952,1282,11.815,-2.79893
735,-258,11.8051,2.71057,-0.00394473,0.0110626,-0.0052202,0.0126998,-0.00558194,-1.26688,0.0108183,0.012932,1959,1282,11.8051,-2.71063
742,-258,11.8279,2.63037,-0.00652304,0.0153018,-0.00662428,0.017155,-0.00837627,-1.29801,0.0150282,0.0150658,1966,1282,11.8279,-2.63036
749,-258,11.8041,2.4928,-0.0100341,0.0202499,-0.0078643,0.0221703,-0.0119546,-1.33128,0.0199941,0.0253928,1973,1282,11.8041,-2.49274
756,-258,11.6508,2.31702,-0.0147499,0.0259829,-0.00871388,0.0277688,-0.0165358,-1.36865,0.0258518,0.0410653,1980,1282,11.6508,-2.31705
763,-258,11.5616,2.16614,0,0,0,0,0,0,0,-1,1987,1282,11.5617,-2.16613
770,-258,11.4666,1.99304,0,0,0,0,0,0,0,-1,1994,1282,11.4666,-1.99303
777,-258,10.4373,2.13074,-0.0389768,0.0464002,-0.00521499,0.0467176,-0.0392942,-1.51002,0.0497205,0.045314,2001,1282,10.4372,-2.13074
784,-258,9.8114,2.06616,-0.0515715,0.0529578,0.000218852,0.0529582,-0.051572,1.5687,0.0603523,0.0450317,2008,1282,9.81144,-2.06622
791,-258,0,0,0,0,0,0,0,0,0,-1,2015,1282,0,0
798,-258,0,0,0,0,0,0,0,0,0,-1,2022,1282,0,0
805,-258,0,0,0,0,0,0,0,0,0,-1,2029,1282,0,0
812,-258,0,0,0,0,0,0,0,0,0,-1,2036,1282,0,0
-700,-265,0,0,0,0,0,0,0,0,0,-1,524,1289,0,0
-693,-265,0,0,0,0,0,0,0,0,0,-1,531,1289,0,0
-686,-265,0,0,0,0,0,0,0,0,0,-1,538,1289,0,0
-679,-265,0,0,0,0,0,0,0,0,0,-1,545,1289,0,0
-672,-265,0,0,0,0,0,0,0,0,0,-1,552,1289,0,0
-665,-265,-4.02197,-1.61182,0,0,0,0,0,0,0,-1,559,1289,-4.02198,1.61187
-658,-265,-4.02905,-0.742432,0,0,0,0,0,0,0,-1,566,1289,-4.02904,0.742478
-651,-265,-2.70972,1.52893,0,0,0,0,0,0,0,-1,573,1289,-2.70969,-1.52893
-644,-265,-3.58398,-1.99097,0,0,0,0,0,0,0,-1,580,1289,-3.58395,1.99097
-637,-265,-4.55548,-0.565796,0.00728968,0.0313821,0.00927424,0.0345386,0.00413316,1.24274,0.0217791,0.0473268,587,1289,-4.55548,0.565768
-630,-265,-5.43506,0.694824,0.00648848,0.0245651,0.00920992,0.0284308,0.00262278,1.1734,0.0181429,0.0476817,594,1289,-5.43509,-0.694794
-623,-265,-5.33228,0.75293,0.005553,0.0188536,0.00850498,0.0229997,0.00140696,1.11721,0.0148863,0.0443103,601,1289,-5.33226,-0.752968
-616,-265,-5.40668,0.685425,0.00459937,0.0139344,0.00740611,0.0180211,0.000512676,1.06657,0.0118469,0.0354438,608,1289,-5.40667,-0.685404
-609,-265,-5.47095,0.700684,0.00374644,0.0100363,0.00620106,0.0138444,-6.1593e-05,1.02008,0.00925017,0.0160568,615,1289,-5.47097,-0.700646
-602,-265,-5.48474,0.799438,0.00305016,0.00700907,0.00494046,0.0103519,-0.000292636,0.975936,0.00700083,0.0134967,622,1289,-5.48471,-0.799471
-595,-265,-5.48181,0.94043,0.00258311,0.00464128,0.00375338,0.0075041,-0.0002797,0.919198,0.00509852,0.0113487,629,1289,-5.4818,-0.940479
-588,-265,-5.48492,1.09106,0.00107667,0.00226284,0.0027309,0.00446432,-0.00112481,0.892326,0.00341349,0.0107104,636,1289,-5.48491,-1.09109
-581,-265,-5.49805,1.22449,-0.000274078,-0.000160385,0.00168588,0.0014696,-0.00190407,0.802251,0.00195317,0.0126421,643,1289,-5.49806,-1.22451
-574,-265,-5.50769,1.36829,-0.00205033,-0.00192933,0.000583742,-0.00140296,-0.0025767,0.837036,0.00148962,0.013827,650,1289,-5.50771,-1.36829
-567,-265,-5.53308,1.51025,-0.00321887,-0.00257969,-0.000565462,-0.00224975,-0.00354881,-1.04261,0.00207327,0.019236,657,1289,-5.53306,-1.51024
-560,-265,-5.53473,1.65625,-0.00377421,-0.00364178,-0.00158231,-0.0021243,-0.00529169,-0.806311,0.00307488,0.0200629,664,1289,-5.53472,-1.65621
-553,-265,-5.49933,1.79712,-0.00460002,-0.00438806,-0.00256934,-0.00192251,-0.00706557,-0.80601,0.0042182,0.021176,671,1289,-5.49931,-1.79707
-546,-265,-5.43713,1.8739,-0.00514862,-0.00493618,-0.00348978,-0.001551,-0.0085338,-0.800612,0.00524914,0.0310083,678,1289,-5.43713,-1.87386
-539,-265,-5.85925,2.06689,0,0,0,0,0,0,0,-1,685,1289,-5.85927,-2.06685
-532,-265,-7.13086,2.06653,0,0,0,0,0,0,0,-1,692,1289,-7.13085,-2.06656
-525,-265,-7.89172,3.17529,0,0,0,0,0,0,0,-1,699,1289,-7.89175,-3.17526
-518,-265,-8.56195,0.894409,0,0,0,0,0,0,0,-1,706,1289,-8.56193,-0.894404
-511,-265,-8.87177,1.42346,0,0,0,0,0,0,0,-1,713,1289,-8.87175,-1.42341
-504,-265,-8.05389,0.262329,0,0,0,0,0,0,0,-1,720,1289,-8.05386,-0.262295
-497,-265,-7.9386,0.267456,0.00417641,-0.012049,-0.01384,0.0121062,-0.0199788,-0.520301,0.0187092,0.0446084,727,1289,-7.93859,-0.267458
-490,-265,-7.95074,0.275879,0.00626775,-0.0149908,-0.0158028,0.0146834,-0.0234065,-0.489342,0.0221826,0.0424463,734,1289,-7.95075,-0.275857
-483,-265,0,0,0,0,0,0,0,0,0,-1,741,1289,0,0
-476,-265,0,0,0,0,0,0,0,0,0,-1,748,1289,0,0
-469,-265,0,0,0,0,0,0,0,0,0,-1,755,1289,0,0
-462,-265,0,0,0,0,0,0,0,0,0,-1,762,1289,0,0
-455,-265,0,0,0,0,0,0,0,0,0,-1,769,1289,0,0
-448,-265,0,0,0,0,0,0,0,0,0,-1,776,1289,0,0
-441,-265,0,0,0,0,0,0,0,0,0,-1,783,1289,0,0
-434,-265,0,0,0,0,0,0,0,0,0,-1,790,1289,0,0
-427,-265,0,0,0,0,0,0,0,0,0,-1,797,1289,0,0
-420,-265,0,0,0,0,0,0,0,0,0,-1,804,1289,0,0
-413,-265,0,0,0,0,0,0,0,0,0,-1,811,1289,0,0
-406,-265,0,0,0,0,0,0,0,0,0,-1,818,1289,0,0
-399,-265,0,0,0,0,0,0,0,0,0,-1,825,1289,0,0
-392,-265,0,0,0,0,0,0,0,0,0,-1,832,1289,0,0
-385,-265,0,0,0,0,0,0,0,0,0,-1,839,1289,0,0
-378,-265,0,0,0,0,0,0,0,0,0,-1,846,1289,0,0
-371,-265,0,0,0,0,0,0,0,0,0,-1,853,1289,0,0
-364,-265,0,0,0,0,0,0,0,0,0,-1,860,1289,0,0
-357,-265,0,0,0,0,0,0,0,0,0,-1,867,1289,0,0
-350,-265,0,0,0,0,0,0,0,0,0,-1,874,1289,0,0
-343,-265,0,0,0,0,0,0,0,0,0,-1,881,1289,0,0
-336,-265,0,0,0,0,0,0,0,0,0,-1,888,1289,0,0
-329,-265,0,0,0,0,0,0,0,0,0,-1,895,1289,0,0
-322,-265,0,0,0,0,0,0,0,0,0,-1,902,1289,0,0
-315,-265,0,0,0,0,0,0,0,0,0,-1,909,1289,0,0
-308,-265,0,0,0,0,0,0,0,0,0,-1,916,1289,0,0
-301,-265,0,0,0,0,0,0,0,0,0,-1,923,1289,0,0
-294,-265,0,0,0,0,0,0,0,0,0,-1,930,1289,0,0
-287,-265,0,0,0,0,0,0,0,0,0,-1,937,1289,0,0
-280,-265,0,0,0,0,0,0,0,0,0,-1,944,1289,0,0
-273,-265,0,0,0,0,0,0,0,0,0,-1,951,1289,0,0
-266,-265,0,0,0,0,0,0,0,0,0,-1,958,1289,0,0
-259,-265,0,0,0,0,0,0,0,0,0,-1,965,1289,0,0
-252,-265,0,0,0,0,0,0,0,0,0,-1,972,1289,0,0
-245,-265,0,0,0,0,0,0,0,0,0,-1,979,1289,0,0
-238,-265,0,0,0,0,0,0,0,0,0,-1,986,1289,0,0
-231,-265,0,0,0,0,0,0,0,0,0,-1,993,1289,0,0
-224,-265,0,0,0,0,0,0,0,0,0,-1,1000,1289,0,0
-217,-265,0,0,0,0,0,0,0,0,0,-1,1007,1289,0,0
-210,-265,0,0,0,0,0,0,0,0,0,-1,1014,1289,0,0
-203,-265,0,0,0,0,0,0,0,0,0,-1,1021,1289,0,0
-196,-265,0,0,0,0,0,0,0,0,0,-1,1028,1289,0,0
-189,-265,0,0,0,0,0,0,0,0,0,-1,1035,1289,0,0
-182,-265,0,0,0,0,0,0,0,0,0,-1,1042,1289,0,0
-175,-265,0,0,0,0,0,0,0,0,0,-1,1049,1289,0,0
-168,-265,0,0,0,0,0,0,0,0,0,-1,1056,1289,0,0
-161,-265,0,0,0,0,0,0,0,0,0,-1,1063,1289,0,0
-154,-265,0,0,0,0,0,0,0,0,0,-1,1070,1289,0,0
-147,-265,0,0,0,0,0,0,0,0,0,-1,1077,1289,0,0
-140,-265,0,0,0,0,0,0,0,0,0,-1,1084,1289,0,0
-133,-265,0,0,0,0,0,0,0,0,0,-1,1091,1289,0,0
-126,-265,0,0,0,0,0,0,0,0,0,-1,1098,1289,0,0
-119,-265,0,0,0,0,0,0,0,0,0,-1,1105,1289,0,0
-112,-265,0,0,0,0,0,0,0,0,0,-1,1112,1289,0,0
-105,-265,0,0,0,0,0,0,0,0,0,-1,1119,1289,0,0
-98,-265,0,0,0,0,0,0,0,0,0,-1,1126,1289,0,0
-91,-265,0,0,0,0,0,0,0,0,0,-1,1133,1289,0,0
-84,-265,0,0,0,0,0,0,0,0,0,-1,1140,1289,0,0
-77,-265,0,0,0,0,0,0,0,0,0,-1,1147,1289,0,0
-70,-265,0,0,0,0,0,0,0,0,0,-1,1154,1289,0,0
-63,-265,0,0,0,0,0,0,0,0,0,-1,1161,1289,0,0
-56,-265,0,0,0,0,0,0,0,0,0,-1,1168,1289,0,0
-49,-265,0,0,0,0,0,0,0,0,0,-1,1175,1289,0,0
-42,-265,0,0,0,0,0,0,0,0,0,-1,1182,1289,0,0
-35,-265,0,0,0,0,0,0,0,0,0,-1,1189,1289,0,0
-28,-265,0,0,0,0,0,0,0,0,0,-1,1196,1289,0,0
-21,-265,0,0,0,0,0,0,0,0,0,-1,1203,1289,0,0
-14,-265,0,0,0,0,0,0,0,0,0,-1,1210,1289,0,0
-7,-265,0,0,0,0,0,0,0,0,0,-1,1217,1289,0,0
0,-265,0,0,0,0,0,0,0,0,0,-1,1224,1289,0,0
7,-265,0,0,0,0,0,0,0,0,0,-1,1231,1289,0,0
14,-265,0,0,0,0,0,0,0,0,0,-1,1238,1289,0,0
21,-265,0,0,0,0,0,0,0,0,0,-1,1245,1289,0,0
28,-265,0,0,0,0,0,0,0,0,0,-1,1252,1289,0,0
35,-265,0,0,0,0,0,0,0,0,0,-1,1259,1289,0,0
42,-265,0,0,0,0,0,0,0,0,0,-1,1266,1289,0,0
49,-265,0,0,0,0,0,0,0,0,0,-1,1273,1289,0,0
56,-265,0,0,0,0,0,0,0,0,0,-1,1280,1289,0,0
63,-265,0,0,0,0,0,0,0,0,0,-1,1287,1289,0,0
70,-265,0,0,0,0,0,0,0,0,0,-1,1294,1289,0,0
77,-265,0,0,0,0,0,0,0,0,0,-1,1301,1289,0,0
84,-265,0,0,0,0,0,0,0,0,0,-1,1308,1289,0,0
91,-265,0,0,0,0,0,0,0,0,0,-1,1315,1289,0,0
98,-265,0,0,0,0,0,0,0,0,0,-1,1322,1289,0,0
105,-265,0,0,0,0,0,0,0,0,0,-1,1329,1289,0,0
112,-265,0,0,0,0,0,0,0,0,0,-1,1336,1289,0,0
119,-265,0,0,0,0,0,0,0,0,0,-1,1343,1289,0,0
126,-265,0,0,0,0,0,0,0,0,0,-1,1350,1289,0,0
133,-265,0,0,0,0,0,0,0,0,0,-1,1357,1289,0,0
140,-265,0,0,0,0,0,0,0,0,0,-1,1364,1289,0,0
147,-265,0,0,0,0,0,0,0,0,0,-1,1371,1289,0,0
154,-265,0,0,0,0,0,0,0,0,0,-1,1378,1289,0,0
161,-265,0,0,0,0,0,0,0,0,0,-1,1385,1289,0,0
168,-265,0,0,0,0,0,0,0,0,0,-1,1392,1289,0,0
175,-265,0,0,0,0,0,0,0,0,0,-1,1399,1289,0,0
182,-265,0,0,0,0,0,0,0,0,0,-1,1406,1289,0,0
189,-265,0,0,0,0,0,0,0,0,0,-1,1413,1289,0,0
196,-265,0,0,0,0,0,0,0,0,0,-1,1420,1289,0,0
203,-265,0,0,0,0,0,0,0,0,0,-1,1427,1289,0,0
210,-265,0,0,0,0,0,0,0,0,0,-1,1434,1289,0,0
217,-265,0,0,0,0,0,0,0,0,0,-1,1441,1289,0,0
224,-265,0,0,0,0,0,0,0,0,0,-1,1448,1289,0,0
231,-265,0,0,0,0,0,0,0,0,0,-1,1455,1289,0,0
238,-265,0,0,0,0,0,0,0,0,0,-1,1462,1289,0,0
245,-265,0,0,0,0,0,0,0,0,0,-1,1469,1289,0,0
252,-265,0,0,0,0,0,0,0,0,0,-1,1476,1289,0,0
259,-265,0,0,0,0,0,0,0,0,0,-1,1483,1289,0,0
266,-265,0,0,0,0,0,0,0,0,0,-1,1490,1289,0,0
273,-265,0,0,0,0,0,0,0,0,0,-1,1497,1289,0,0
280,-265,0,0,0,0,0,0,0,0,0,-1,1504,1289,0,0
287,-265,0,0,0,0,0,0,0,0,0,-1,1511,1289,0,0
294,-265,0,0,0,0,0,0,0,0,0,-1,1518,1289,0,0
301,-265,0,0,0,0,0,0,0,0,0,-1,1525,1289,0,0
308,-265,0,0,0,0,0,0,0,0,0,-1,1532,1289,0,0
315,-265,0,0,0,0,0,0,0,0,0,-1,1539,1289,0,0
322,-265,0,0,0,0,0,0,0,0,0,-1,1546,1289,0,0
329,-265,0,0,0,0,0,0,0,0,0,-1,1553,1289,0,0
336,-265,0,0,0,0,0,0,0,0,0,-1,1560,1289,0,0
343,-265,0,0,0,0,0,0,0,0,0,-1,1567,1289,0,0
350,-265,0,0,0,0,0,0,0,0,0,-1,1574,1289,0,0
357,-265,0,0,0,0,0,0,0,0,0,-1,1581,1289,0,0
364,-265,0,0,0,0,0,0,0,0,0,-1,1588,1289,0,0
371,-265,0,0,0,0,0,0,0,0,0,-1,1595,1289,0,0
378,-265,0,0,0,0,0,0,0,0,0,-1,1602,1289,0,0
385,-265,0,0,0,0,0,0,0,0,0,-1,1609,1289,0,0
392,-265,0,0,0,0,0,0,0,0,0,-1,1616,1289,0,0
399,-265,0,0,0,0,0,0,0,0,0,-1,1623,1289,0,0
406,-265,0,0,0,0,0,0,0,0,0,-1,1630,1289,0,0
413,-265,0,0,0,0,0,0,0,0,0,-1,1637,1289,0,0
420,-265,0,0,0,0,0,0,0,0,0,-1,1644,1289,0,0
427,-265,0,0,0,0,0,0,0,0,0,-1,1651,1289,0,0
434,-265,0,0,0,0,0,0,0,0,0,-1,1658,1289,0,0
441,-265,0,0,0,0,0,0,0,0,0,-1,1665,1289,0,0
448,-265,0,0,0,0,0,0,0,0,0,-1,1672,1289,0,0
455,-265,0,0,0,0,0,0,0,0,0,-1,1679,1289,0,0
462,-265,0,0,0,0,0,0,0,0,0,-1,1686,1289,0,0
469,-265,0,0,0,0,0,0,0,0,0,-1,1693,1289,0,0
476,-265,0,0,0,0,0,0,0,0,0,-1,1700,1289,0,0
483,-265,0,0,0,0,0,0,0,0,0,-1,1707,1289,0,0
490,-265,0,0,0,0,0,0,0,0,0,-1,1714,1289,0,0
497,-265,0,0,0,0,0,0,0,0,0,-1,1721,1289,0,0
504,-265,0,0,0,0,0,0,0,0,0,-1,1728,1289,0,0
511,-265,0,0,0,0,0,0,0,0,0,-1,1735,1289,0,0
518,-265,0,0,0,0,0,0,0,0,0,-1,1742,1289,0,0
525,-265,0,0,0,0,0,0,0,0,0,-1,1749,1289,0,0
532,-265,0,0,0,0,0,0,0,0,0,-1,1756,1289,0,0
539,-265,0,0,0,0,0,0,0,0,0,-1,1763,1289,0,0
546,-265,0,0,0,0,0,0,0,0,0,-1,1770,1289,0,0
553,-265,0,0,0,0,0,0,0,0,0,-1,1777,1289,0,0
560,-265,0,0,0,0,0,0,0,0,0,-1,1784,1289,0,0
567,-265,0,0,0,0,0,0,0,0,0,-1,1791,1289,0,0
574,-265,0,0,0,0,0,0,0,0,0,-1,1798,1289,0,0
581,-265,0,0,0,0,0,0,0,0,0,-1,1805,1289,0,0
588,-265,0,0,0,0,0,0,0,0,0,-1,1812,1289,0,0
595,-265,0,0,0,0,0,0,0,0,0,-1,1819,1289,0,0
602,-265,13.9972,1.8728,-0.00552348,-0.00601594,-0.00552416,-0.000240068,-0.0112994,-0.763126,0.00745417,0.0252205,1826,1289,13.9972,-1.87281
609,-265,13.9719,1.83679,-0.00453029,-0.000923546,-0.00355474,0.0012591,-0.00671294,-1.02014,0.00494867,0.0267445,1833,1289,13.9719,-1.8368
616,-265,13.9399,1.89233,-0.00364092,0.00294956,-0.00223268,0.00363471,-0.00432607,-1.27305,0.00460193,0.0309412,1840,1289,13.94,-1.89236
623,-265,13.9608,1.83728,-0.00336803,0.00452865,-0.00121376,0.004711,-0.00355038,-1.42168,0.00478537,0.0418496,1847,1289,13.9608,-1.83724
630,-265,14.2261,1.76062,-0.00318747,0.00458688,-0.000607184,0.00463401,-0.00323461,-1.49332,0.00456684,0.0440904,1854,1289,14.226,-1.76056
637,-265,14.3458,1.82983,0,0,0,0,0,0,0,-1,1861,1289,14.3458,-1.82977
644,-265,15.1051,1.80103,0,0,0,0,0,0,0,-1,1868,1289,15.1051,-1.80107
651,-265,14.3022,1.25391,0,0,0,0,0,0,0,-1,1875,1289,14.3023,-1.25387
658,-265,12.6409,0.720093,0,0,0,0,0,0,0,-1,1882,1289,12.6408,-0.720143
665,-265,11.681,3.31226,0,0,0,0,0,0,0,-1,1889,1289,11.6811,-3.3123
672,-265,11.6554,3.38635,-0.00098812,0.000225649,0.000456605,0.000378236,-0.00114071,1.24829,0.000913049,0.0496543,1896,1289,11.6554,-3.38637
679,-265,11.6864,3.52148,-0.00083246,-0.00060699,0.000811999,0.000100063,-0.00153951,0.854375,0.00106127,0.0269821,1903,1289,11.6864,-3.52154
686,-265,11.6959,3.45178,-0.00101556,-0.00155719,0.000857356,-0.000387266,-0.00218549,0.632421,0.00134659,0.0133529,1910,1289,11.6959,-3.45173
693,-265,11.7062,3.31653,-0.000617519,-0.00161908,0.000456795,-0.000440477,-0.00179612,0.369749,0.00108093,0.0100755,1917,1289,11.7061,-3.31656
700,-265,11.7052,3.20581,0.000379551,-0.000899759,0.000517006,0.000562364,-0.00108257,0.339878,0.000965404,0.0100326,1924,1289,11.7052,-3.20584
707,-265,11.7238,3.09497,0.000991647,0.000627255,-0.000299526,0.00116004,0.000458864,-0.512155,0.000674601,0.00906234,1931,1289,11.7238,-3.095
714,-265,11.7175,2.99634,0.0006367,0.00294588,-0.00224179,0.00431293,-0.000730352,-1.0232,0.00314712,0.00854971,1938,1289,11.7176,-2.99631
721,-265,11.7115,2.90076,-1.1303e-05,0.00602273,-0.00443257,0.00836762,-0.00235619,-1.08421,0.00650759,0.00873399,1945,1289,11.7116,-2.90076
728,-265,11.7021,2.80835,-0.00179995,0.0105313,-0.00633843,0.0132082,-0.00447687,-1.17119,0.0106172,0.0120918,1952,1289,11.7021,-2.80837
735,-265,11.6882,2.70532,-0.00412837,0.0145085,-0.00798597,0.0174623,-0.00708222,-1.21652,0.0145871,0.0154297,1959,1289,11.6883,-2.70536
742,-265,11.7218,2.62061,-0.00703133,0.0197498,-0.0102067,0.0231962,-0.0104778,-1.24515,0.0198986,0.0175629,1966,1289,11.7218,-2.62064
749,-265,11.7485,2.52295,-0.0110759,0.0259681,-0.0123737,0.029721,-0.0148288,-1.27631,0.0261955,0.0341001,1973,1289,11.7486,-2.52293
756,-265,11.5616,2.21033,0,0,0,0,0,0,0,-1,1980,1289,11.5616,-2.21031
763,-265,11.236,1.21008,-0.0238658,0.0412103,-0.0155234,0.0447236,-0.0273791,-1.34822,0.0420281,0.0459916,1987,1289,11.236,-1.21006
770,-265,11.0032,0.994507,-0.0333528,0.0498543,-0.015675,0.0527093,-0.0362078,-1.39064,0.0516301,0.0465889,1994,1289,11.0032,-0.994551
777,-265,9.79858,2.09485,-0.04546,0.0586404,-0.0139848,0.0604863,-0.047306,-1.43956,0.0623888,0.0426997,2001,1289,9.79853,-2.09481
784,-265,0,0,0,0,0,0,0,0,0,-1,2008,1289,0,0
791,-265,0,0,0,0,0,0,0,0,0,-1,2015,1289,0,0
798,-265,0,0,0,0,0,0,0,0,0,-1,2022,1289,0,0
805,-265,0,0,0,0,0,0,0,0,0,-1,2029,1289,0,0
812,-265,0,0,0,0,0,0,0,0,0,-1,2036,1289,0,0
-700,-272,0,0,0,0,0,0,0,0,0,-1,524,1296,0,0
-693,-272,0,0,0,0,0,0,0,0,0,-1,531,1296,0,0
-686,-272,0,0,0,0,0,0,0,0,0,-1,538,1296,0,0
-679,-272,0,0,0,0,0,0,0,0,0,-1,545,1296,0,0
-672,-272,0,0,0,0,0,0,0,0,0,-1,552,1296,0,0
-665,-272,0,0,0,0,0,0,0,0,0,-1,559,1296,0,0
-658,-272,-4.76471,-1.78857,0,0,0,0,0,0,0,-1,566,1296,-4.7647,1.78853
-651,-272,-5.00677,-1.71326,0,0,0,0,0,0,0,-1,573,1296,-5.00679,1.71323
-644,-272,-5.28149,-1.44116,0,0,0,0,0,0,0,-1,580,1296,-5.28149,1.44122
-637,-272,-4.37811,-0.516357,0,0,0,0,0,0,0,-1,587,1296,-4.37812,0.516312
-630,-272,-6.46387,-0.449463,0.00870066,0.0199141,0.0097994,0.0255973,0.00301739,1.04524,0.0161533,0.0461345,594,1296,-6.46388,0.449466
-623,-272,-5.15607,0.798218,0.00791831,0.0152343,0.00951908,0.021774,0.00137857,0.968839,0.014079,0.045234,601,1296,-5.15607,-0.798265
-616,-272,-5.24963,0.611938,0.00684662,0.0112558,0.00858952,0.0179192,0.000183295,0.911018,0.0118855,0.035344,608,1296,-5.24965,-0.611901
-609,-272,-5.32684,0.705811,0.00571518,0.00814968,0.00736578,0.0143981,-0.000533251,0.867287,0.00978134,0.018331,615,1296,-5.32683,-0.705763
-602,-272,-5.35986,0.804321,0.00463458,0.00574277,0.00597819,0.0111925,-0.000815138,0.831609,0.00774768,0.012902,622,1296,-5.35986,-0.80427
-595,-272,-5.35388,0.962158,0.00378797,0.003867,0.00461926,0.00844692,-0.000791945,0.789675,0.00591296,0.0104257,629,1296,-5.35386,-0.9622
-588,-272,-5.35626,1.10852,0.00211205,0.00193396,0.00351335,0.00553749,-0.00149147,0.772729,0.00427641,0.0101903,636,1296,-5.35625,-1.10854
-581,-272,-5.36621,1.23755,0.000614618,-0.000170383,0.00230332,0.00255864,-0.0021144,0.701005,0.00270204,0.00978016,643,1296,-5.36619,-1.23759
-574,-272,-5.37408,1.37122,-0.00137998,-0.00156208,0.000914073,-0.000552433,-0.00238963,0.735757,0.00144459,0.014027,650,1296,-5.37408,-1.37127
-567,-272,-5.40021,1.50891,-0.00271963,-0.00201599,-0.000327201,-0.00188735,-0.00284827,-1.19622,0.00167319,0.0192664,657,1296,-5.40023,-1.50887
-560,-272,-5.4151,1.66626,-0.00340157,-0.00297925,-0.00130258,-0.00187083,-0.00451,-0.865753,0.00261641,0.0192302,664,1296,-5.41508,-1.66622
-553,-272,-5.37976,1.79285,-0.00428909,-0.00365434,-0.00220592,-0.00174308,-0.00620035,-0.856844,0.00369233,0.0144365,671,1296,-5.37978,-1.79282
-546,-272,-5.34717,1.8595,-0.00487361,-0.00411458,-0.0030404,-0.0014301,-0.00755809,-0.847488,0.00463614,0.0196533,678,1296,-5.34718,-1.85947
-539,-272,-5.29224,1.83813,-0.0049117,-0.00462452,-0.00391295,-0.000852522,-0.00868369,-0.803738,0.00552692,0.0431876,685,1296,-5.29223,-1.83807
-532,-272,-7.58948,2.62158,0,0,0,0,0,0,0,-1,692,1296,-7.58948,-2.62153
-525,-272,-7.9458,2.95227,-0.00341016,-0.00632733,-0.00697308,0.00225525,-0.0119927,-0.682298,0.00884329,0.0448873,699,1296,-7.94578,-2.95231
-518,-272,-8.13403,3.03296,-0.00187442,-0.0073092,-0.0086792,0.00450284,-0.0136865,-0.633686,0.0109387,0.0422104,706,1296,-8.13403,-3.03298
-511,-272,-8.18823,2.72864,0,0,0,0,0,0,0,-1,713,1296,-8.18823,-2.72862
-504,-272,-7.96838,0.147949,0,0,0,0,0,0,0,-1,720,1296,-7.96836,-0.147949
-497,-272,-7.7771,0.391357,0.00460229,-0.0133699,-0.0136798,0.0119835,-0.0207511,-0.494797,0.0191239,0.0485439,727,1296,-7.77708,-0.391377
-490,-272,-7.79303,0.373413,0.00705715,-0.0166318,-0.0156108,0.0148083,-0.0243829,-0.460864,0.022851,0.0431176,734,1296,-7.79305,-0.373361
-483,-272,-8.04456,0.401123,0.00758652,-0.02194,-0.0176749,0.0158527,-0.0302062,-0.437458,0.0270191,0.0381862,741,1296,-8.04455,-0.401135
-476,-272,0,0,0,0,0,0,0,0,0,-1,748,1296,0,0
-469,-272,0,0,0,0,0,0,0,0,0,-1,755,1296,0,0
-462,-272,0,0,0,0,0,0,0,0,0,-1,762,1296,0,0
-455,-272,0,0,0,0,0,0,0,0,0,-1,769,1296,0,0
-448,-272,0,0,0,0,0,0,0,0,0,-1,776,1296,0,0
-441,-272,0,0,0,0,0,0,0,0,0,-1,783,1296,0,0
-434,-272,0,0,0,0,0,0,0,0,0,-1,790,1296,0,0
-427,-272,0,0,0,0,0,0,0,0,0,-1,797,1296,0,0
-420,-272,0,0,0,0,0,0,0,0,0,-1,804,1296,0,0
-413,-272,0,0,0,0,0,0,0,0,0,-1,811,1296,0,0
-406,-272,0,0,0,0,0,0,0,0,0,-1,818,1296,0,0
-399,-272,0,0,0,0,0,0,0,0,0,-1,825,1296,0,0
-392,-272,0,0,0,0,0,0,0,0,0,-1,832,1296,0,0
-385,-272,0,0,0,0,0,0,0,0,0,-1,839,1296,0,0
-378,-272,0,0,0,0,0,0,0,0,0,-1,846,1296,0,0
-371,-272,0,0,0,0,0,0,0,0,0,-1,853,1296,0,0
-364,-272,0,0,0,0,0,0,0,0,0,-1,860,1296,0,0
-357,-272,0,0,0,0,0,0,0,0,0,-1,867,1296,0,0
-350,-272,0,0,0,0,0,0,0,0,0,-1,874,1296,0,0
-343,-272,0,0,0,0,0,0,0,0,0,-1,881,1296,0,0
-336,-272,0,0,0,0,0,0,0,0,0,-1,888,1296,0,0
-329,-272,0,0,0,0,0,0,0,0,0,-1,895,1296,0,0
-322,-272,0,0,0,0,0,0,0,0,0,-1,902,1296,0,0
-315,-272,0,0,0,0,0,0,0,0,0,-1,909,1296,0,0
-308,-272,0,0,0,0,0,0,0,0,0,-1,916,1296,0,0
-301,-272,0,0,0,0,0,0,0,0,0,-1,923,1296,0,0
-294,-272,0,0,0,0,0,0,0,0,0,-1,930,1296,0,0
-287,-272,0,0,0,0,0,0,0,0,0,-1,937,1296,0,0
-280,-272,0,0,0,0,0,0,0,0,0,-1,944,1296,0,0
-273,-272,0,0,0,0,0,0,0,0,0,-1,951,1296,0,0
-266,-272,0,0,0,0,0,0,0,0,0,-1,958,1296,0,0
-259,-272,0,0,0,0,0,0,0,0,0,-1,965,1296,0,0
-252,-272,0,0,0,0,0,0,0,0,0,-1,972,1296,0,0
-245,-272,0,0,0,0,0,0,0,0,0,-1,979,1296,0,0
-238,-272,0,0,0,0,0,0,0,0,0,-1,986,1296,0,0
-231,-272,0,0,0,0,0,0,0,0,0,-1,993,1296,0,0
-224,-272,0,0,0,0,0,0,0,0,0,-1,1000,1296,0,0
-217,-272,0,0,0,0,0,0,0,0,0,-1,1007,1296,0,0
-210,-272,0,0,0,0,0,0,0,0,0,-1,1014,1296,0,0
-203,-272,0,0,0,0,0,0,0,0,0,-1,1021,1296,0,0
-196,-272,0,0,0,0,0,0,0,0,0,-1,1028,1296,0,0
-189,-272,0,0,0,0,0,0,0,0,0,-1,1035,1296,0,0
-182,-272,0,0,0,0,0,0,0,0,0,-1,1042,1296,0,0
-175,-272,0,0,0,0,0,0,0,0,0,-1,1049,1296,0,0
-168,-272,0,0,0,0,0,0,0,0,0,-1,1056,1296,0,0
-161,-272,0,0,0,0,0,0,0,0,0,-1,1063,1296,0,0
-154,-272,0,0,0,0,0,0,0,0,0,-1,1070,1296,0,0
-147,-272,0,0,0,0,0,0,0,0,0,-1,1077,1296,0,0
-140,-272,0,0,0,0,0,0,0,0,0,-1,1084,1296,0,0
-133,-272,0,0,0,0,0,0,0,0,0,-1,1091,1296,0,0
-126,-272,0,0,0,0,0,0,0,0,0,-1,1098,1296,0,0
-119,-272,0,0,0,0,0,0,0,0,0,-1,1105,1296,0,0
-112,-272,0,0,0,0,0,0,0,0,0,-1,1112,1296,0,0
-105,-272,0,0,0,0,0,0,0,0,0,-1,1119,1296,0,0
-98,-272,0,0,0,0,0,0,0,0,0,-1,1126,1296,0,0
-91,-272,0,0,0,0,0,0,0,0,0,-1,1133,1296,0,0
-84,-272,0,0,0,0,0,0,0,0,0,-1,1140,1296,0,0
-77,-272,0,0,0,0,0,0,0,0,0,-1,1147,1296,0,0
-70,-272,0,0,0,0,0,0,0,0,0,-1,1154,1296,0,0
-63,-272,0,0,0,0,0,0,0,0,0,-1,1161,1296,0,0
-56,-272,0,0,0,0,0,0,0,0,0,-1,1168,1296,0,0
-49,-272,0,0,0,0,0,0,0,0,0,-1,1175,1296,0,0
-42,-272,0,0,0,0,0,0,0,0,0,-1,1182,1296,0,0
-35,-272,0,0,0,0,0,0,0,0,0,-1,1189,1296,0,0
-28,-272,0,0,0,0,0,0,0,0,0,-1,1196,1296,0,0
-21,-272,0,0,0,0,0,0,0,0,0,-1,1203,1296,0,0
-14,-272,0,0,0,0,0,0,0,0,0,-1,1210,1296,0,0
-7,-272,0,0,0,0,0,0,0,0,0,-1,1217,1296,0,0
0,-272,0,0,0,0,0,0,0,0,0,-1,1224,1296,0,0
7,-272,0,0,0,0,0,0,0,0,0,-1,1231,1296,0,0
14,-272,0,0,0,0,0,0,0,0,0,-1,1238,1296,0,0
21,-272,0,0,0,0,0,0,0,0,0,-1,1245,1296,0,0
28,-272,0,0,0,0,0,0,0,0,0,-1,1252,1296,0,0
35,-272,0,0,0,0,0,0,0,0,0,-1,1259,1296,0,0
42,-272,0,0,0,0,0,0,0,0,0,-1,1266,1296,0,0
49,-272,0,0,0,0,0,0,0,0,0,-1,1273,1296,0,0
56,-272,0,0,0,0,0,0,0,0,0,-1,1280,1296,0,0
63,-272,0,0,0,0,0,0,0,0,0,-1,1287,1296,0,0
70,-272,0,0,0,0,0,0,0,0,0,-1,1294,1296,0,0
77,-272,0,0,0,0,0,0,0,0,0,-1,1301,1296,0,0
84,-272,0,0,0,0,0,0,0,0,0,-1,1308,1296,0,0
91,-272,0,0,0,0,0,0,0,0,0,-1,1315,1296,0,0
98,-272,0,0,0,0,0,0,0,0,0,-1,1322,1296,0,0
105,-272,0,0,0,0,0,0,0,0,0,-1,1329,1296,0,0
112,-272,0,0,0,0,0,0,0,0,0,-1,1336,1296,0,0
119,-272,0,0,0,0,0,0,0,0,0,-1,1343,1296,0,0
126,-272,0,0,0,0,0,0,0,0,0,-1,1350,1296,0,0
133,-272,0,0,0,0,0,0,0,0,0,-1,1357,1296,0,0
140,-272,0,0,0,0,0,0,0,0,0,-1,1364,1296,0,0
147,-272,0,0,0,0,0,0,0,0,0,-1,1371,1296,0,0
154,-272,0,0,0,0,0,0,0,0,0,-1,1378,1296,0,0
161,-272,0,0,0,0,0,0,0,0,0,-1,1385,1296,0,0
168,-272,0,0,0,0,0,0,0,0,0,-1,1392,1296,0,0
175,-272,0,0,0,0,0,0,0,0,0,-1,1399,1296,0,0
182,-272,0,0,0,0,0,0,0,0,0,-1,1406,1296,0,0
189,-272,0,0,0,0,0,0,0,0,0,-1,1413,1296,0,0
196,-272,0,0,0,0,0,0,0,0,0,-1,1420,1296,0,0
203,-272,0,0,0,0,0,0,0,0,0,-1,1427,1296,0,0
210,-272,0,0,0,0,0,0,0,0,0,-1,1434,1296,0,0
217,-272,0,0,0,0,0,0,0,0,0,-1,1441,1296,0,0
224,-272,0,0,0,0,0,0,0,0,0,-1,1448,1296,0,0
231,-272,0,0,0,0,0,0,0,0,0,-1,1455,1296,0,0
238,-272,0,0,0,0,0,0,0,0,0,-1,1462,1296,0,0
245,-272,0,0,0,0,0,0,0,0,0,-1,1469,1296,0,0
252,-272,0,0,0,0,0,0,0,0,0,-1,1476,1296,0,0
259,-272,0,0,0,0,0,0,0,0,0,-1,1483,1296,0,0
266,-272,0,0,0,0,0,0,0,0,0,-1,1490,1296,0,0
273,-272,0,0,0,0,0,0,0,0,0,-1,1497,1296,0,0
280,-272,0,0,0,0,0,0,0,0,0,-1,1504,1296,0,0
287,-272,0,0,0,0,0,0,0,0,0,-1,1511,1296,0,0
294,-272,0,0,0,0,0,0,0,0,0,-1,1518,1296,0,0
301,-272,0,0,0,0,0,0,0,0,0,-1,1525,1296,0,0
308,-272,0,0,0,0,0,0,0,0,0,-1,1532,1296,0,0
315,-272,0,0,0,0,0,0,0,0,0,-1,1539,1296,0,0
322,-272,0,0,0,0,0,0,0,0,0,-1,1546,1296,0,0
329,-272,0,0,0,0,0,0,0,0,0,-1,1553,1296,0,0
336,-272,0,0,0,0,0,0,0,0,0,-1,1560,1296,0,0
343,-272,0,0,0,0,0,0,0,0,0,-1,1567,1296,0,0
350,-272,0,0,0,0,0,0,0,0,0,-1,1574,1296,0,0
357,-272,0,0,0,0,0,0,0,0,0,-1,1581,1296,0,0
364,-272,0,0,0,0,0,0,0,0,0,-1,1588,1296,0,0
371,-272,0,0,0,0,0,0,0,0,0,-1,1595,1296,0,0
378,-272,0,0,0,0,0,0,0,0,0,-1,1602,1296,0,0
385,-272,0,0,0,0,0,0,0,0,0,-1,1609,1296,0,0
392,-272,0,0,0,0,0,0,0,0,0,-1,1616,1296,0,0
399,-272,0,0,0,0,0,0,0,0,0,-1,1623,1296,0,0
406,-272,0,0,0,0,0,0,0,0,0,-1,1630,1296,0,0
413,-272,0,0,0,0,0,0,0,0,0,-1,1637,1296,0,0
420,-272,0,0,0,0,0,0,0,0,0,-1,1644,1296,0,0
427,-272,0,0,0,0,0,0,0,0,0,-1,1651,1296,0,0
434,-272,0,0,0,0,0,0,0,0,0,-1,1658,1296,0,0
441,-272,0,0,0,0,0,0,0,0,0,-1,1665,1296,0,0
448,-272,0,0,0,0,0,0,0,0,0,-1,1672,1296,0,0
455,-272,0,0,0,0,0,0,0,0,0,-1,1679,1296,0,0
462,-272,0,0,0,0,0,0,0,0,0,-1,1686,1296,0,0
469,-272,0,0,0,0,0,0,0,0,0,-1,1693,1296,0,0
476,-272,0,0,0,0,0,0,0,0,0,-1,1700,1296,0,0
483,-272,0,0,0,0,0,0,0,0,0,-1,1707,1296,0,0
490,-272,0,0,0,0,0,0,0,0,0,-1,1714,1296,0,0
497,-272,0,0,0,0,0,0,0,0,0,-1,1721,1296,0,0
504,-272,0,0,0,0,0,0,0,0,0,-1,1728,1296,0,0
511,-272,0,0,0,0,0,0,0,0,0,-1,1735,1296,0,0
518,-272,0,0,0,0,0,0,0,0,0,-1,1742,1296,0,0
525,-272,0,0,0,0,0,0,0,0,0,-1,1749,1296,0,0
532,-272,0,0,0,0,0,0,0,0,0,-1,1756,1296,0,0
539,-272,0,0,0,0,0,0,0,0,0,-1,1763,1296,0,0
546,-272,0,0,0,0,0,0,0,0,0,-1,1770,1296,0,0
553,-272,0,0,0,0,0,0,0,0,0,-1,1777,1296,0,0
560,-272,0,0,0,0,0,0,0,0,0,-1,1784,1296,0,0
567,-272,0,0,0,0,0,0,0,0,0,-1,1791,1296,0,0
574,-272,0,0,0,0,0,0,0,0,0,-1,1798,1296,0,0
581,-272,0,0,0,0,0,0,0,0,0,-1,1805,1296,0,0
588,-272,0,0,0,0,0,0,0,0,0,-1,1812,1296,0,0
595,-272,0,0,0,0,0,0,0,0,0,-1,1819,1296,0,0
602,-272,13.9655,1.85193,-0.0106952,-0.00285377,-0.00785239,0.00200231,-0.0155513,-1.01694,0.0110953,0.0286204,1826,1296,13.9655,-1.85192
609,-272,13.955,1.84888,-0.00923931,0.00170589,-0.00472666,0.00346452,-0.0109979,-1.2146,0.00871933,0.0354761,1833,1296,13.955,-1.84882
616,-272,13.9434,1.93372,-0.0075659,0.00458196,-0.00238432,0.00503318,-0.00801713,-1.38376,0.00759997,0.0431218,1840,1296,13.9433,-1.93372
623,-272,13.9243,1.70837,-0.00639047,0.00537024,-0.000716867,0.00541377,-0.006434,-1.51014,0.00684876,0.0447967,1847,1296,13.9243,-1.70841
630,-272,14.2594,1.6178,-0.00546665,0.00502449,0.000220283,0.00502911,-0.00547128,1.54981,0.00606419,0.0458341,1854,1296,14.2595,-1.6178
637,-272,14.8739,1.87903,-0.00460857,0.00413136,0.000855821,0.00421438,-0.00469158,1.4741,0.00514432,0.0431814,1861,1296,14.8739,-1.87898
644,-272,15.4061,1.66406,0,0,0,0,0,0,0,-1,1868,1296,15.4061,-1.6641
651,-272,15.3311,1.07727,0,0,0,0,0,0,0,-1,1875,1296,15.3311,-1.07722
658,-272,11.3864,3.31323,0,0,0,0,0,0,0,-1,1882,1296,11.3864,-3.31322
665,-272,11.7214,3.32715,0,0,0,0,0,0,0,-1,1889,1296,11.7215,-3.32715
672,-272,11.6569,3.39355,-0.00184168,0.000268965,0.00129337,0.000882928,-0.00245564,1.12759,0.00199754,0.0457172,1896,1296,11.6569,-3.39357
679,-272,11.5897,3.47852,-0.00178977,-0.000642157,0.00150897,0.000398424,-0.00283035,0.967087,0.00203277,0.0204595,1903,1296,11.5898,-3.47853
686,-272,11.5999,3.43494,-0.00211269,-0.00157913,0.0013073,-0.00051167,-0.00318015,0.88605,0.0019718,0.0133225,1910,1296,11.5999,-3.43495
693,-272,11.5951,3.32874,-0.0016396,-0.00151563,0.000582248,-0.000992076,-0.00216315,0.838426,0.00125032,0.011495,1917,1296,11.595,-3.3287
700,-272,11.5953,3.22864,-0.000544874,-0.000561307,0.000232236,-0.000320709,-0.000785472,0.767716,0.000456028,0.0108096,1924,1296,11.5953,-3.22862
707,-272,11.6095,3.10925,0.000348335,0.00134712,-0.00109184,0.00204835,-0.0003529,-0.999887,0.00149713,0.0100305,1931,1296,11.6095,-3.10922
714,-272,11.605,2.99561,0.000384273,0.00407132,-0.00355293,0.00623053,-0.00177494,-1.02471,0.00485473,0.0096948,1938,1296,11.605,-2.9956
721,-272,11.5897,2.90161,-1.96446e-05,0.00759948,-0.00631837,0.0111679,-0.00358806,-1.05669,0.00888613,0.010653,1945,1296,11.5897,-2.90165
728,-272,11.5916,2.80493,-0.00174414,0.0127938,-0.00888949,0.0170079,-0.00595824,-1.12812,0.0137616,0.0133933,1952,1296,11.5915,-2.80488
735,-272,11.6095,2.68982,-0.00410751,0.0175947,-0.0113059,0.0224143,-0.00892703,-1.16784,0.018645,0.0127589,1959,1296,11.6095,-2.68977
742,-272,11.6418,2.57666,-0.00721483,0.023984,-0.0144337,0.0296372,-0.0128681,-1.19749,0.025169,0.0211388,1966,1296,11.6419,-2.57669
749,-272,11.6438,2.47351,-0.011659,0.0316559,-0.0176667,0.0379476,-0.0179508,-1.22867,0.0329541,0.0386235,1973,1296,11.6438,-2.47357
756,-272,11.6139,2.04688,-0.0177868,0.0405938,-0.020747,0.0472157,-0.0244087,-1.26184,0.0420454,0.0459642,1980,1296,11.6139,-2.04684
763,-272,11.4225,1.12024,-0.0259766,0.0506647,-0.0233002,0.0571924,-0.0325043,-1.29764,0.0524362,0.0460278,1987,1296,11.4225,-1.1203
770,-272,11.1448,0.21167,-0.0367217,0.061598,-0.0247984,0.0674985,-0.0426223,-1.3372,0.0641167,0.0497329,1994,1296,11.1448,-0.211682
777,-272,10.8395,-0.632202,-0.0505185,0.0728806,-0.0244269,0.07754,-0.0551778,-1.38231,0.0769864,0.0471669,2001,1296,10.8394,0.632257
784,-272,0,0,0,0,0,0,0,0,0,-1,2008,1296,0,0
791,-272,0,0,0,0,0,0,0,0,0,-1,2015,1296,0,0
798,-272,0,0,0,0,0,0,0,0,0,-1,2022,1296,0,0
805,-272,0,0,0,0,0,0,0,0,0,-1,2029,1296,0,0
812,-272,0,0,0,0,0,0,0,0,0,-1,2036,1296,0,0
-700,-279,0,0,0,0,0,0,0,0,0,-1,524,1303,0,0
-693,-279,0,0,0,0,0,0,0,0,0,-1,531,1303,0,0
-686,-279,0,0,0,0,0,0,0,0,0,-1,538,1303,0,0
-679,-279,0,0,0,0,0,0,0,0,0,-1,545,1303,0,0
-672,-279,0,0,0,0,0,0,0,0,0,-1,552,1303,0,0
-665,-279,0,0,0,0,0,0,0,0,0,-1,559,1303,0,0
-658,-279,-4.86121,-1.83813,0,0,0,0,0,0,0,-1,566,1303,-4.86122,1.83816
-651,-279,-5.11902,-1.80701,0.0042423,0.0323871,-0.00599933,0.0336125,0.00301684,-1.3693,0.0214735,0.0435225,573,1303,-5.11902,1.80703
-644,-279,-5.43146,-1.60828,0,0,0,0,0,0,0,-1,580,1303,-5.43144,1.60831
-637,-279,-6.07751,-0.0900879,0,0,0,0,0,0,0,-1,587,1303,-6.07749,0.0900608
-630,-279,-5.94891,-0.446411,0.00988715,0.0161941,0.0079666,0.0216086,0.00447259,0.973853,0.0131705,0.0419089,594,1303,-5.9489,0.44642
-623,-279,-5.82434,-0.467896,0.00947909,0.0124387,0.00870135,0.0197852,0.00213262,0.869625,0.0125398,0.042211,601,1303,-5.82437,0.467937
-616,-279,-5.08984,0.693848,0.00843665,0.00933778,0.00841827,0.0173175,0.000456894,0.812134,0.0113958,0.0404269,608,1303,-5.08982,-0.693814
-609,-279,-5.24951,0.682861,0.0071586,0.00687577,0.00754052,0.014559,-0.000524657,0.776022,0.00988555,0.0269184,615,1303,-5.2495,-0.682895
-602,-279,-5.21649,0.815552,0.00584031,0.00494771,0.00633245,0.0117422,-0.000954152,0.750217,0.00816477,0.0118805,622,1303,-5.21651,-0.815507
-595,-279,-5.22064,0.970215,0.00471645,0.00343588,0.00502971,0.00914646,-0.000994143,0.722088,0.00645459,0.00941838,629,1303,-5.22066,-0.970175
-588,-279,-5.20306,1.11475,0.00298222,0.00187435,0.00404701,0.00651303,-0.00165646,0.717383,0.00498673,0.00979618,636,1303,-5.20307,-1.1147
-581,-279,-5.21198,1.22754,0.00144109,2.4066e-05,0.002847,0.00366642,-0.00220126,0.663444,0.00342273,0.0114806,643,1303,-5.212,-1.22752
-574,-279,-5.21729,1.34741,-0.000656066,-0.00105902,0.00129588,0.000453904,-0.00216899,0.708277,0.00161865,0.0112064,650,1303,-5.21729,-1.34736
-567,-279,-5.22668,1.49438,-0.00212397,-0.0013884,2.66528e-05,-0.00138743,-0.00212493,1.53463,0.00124581,0.0149792,657,1303,-5.22667,-1.4944
-560,-279,-5.23444,1.65674,-0.00294987,-0.00222605,-0.000853333,-0.00166106,-0.00351487,-0.985958,0.00203033,0.0156009,664,1303,-5.23444,-1.65671
-553,-279,-5.22778,1.78894,-0.00388997,-0.00287164,-0.00160882,-0.00169334,-0.00506827,-0.938653,0.00297937,0.0118264,671,1303,-5.22781,-1.78896
-546,-279,-5.22681,1.89185,-0.00454232,-0.00330079,-0.00229281,-0.0015462,-0.00629691,-0.917601,0.0037892,0.0127198,678,1303,-5.22681,-1.89179
-539,-279,-5.19165,1.97913,-0.00462204,-0.00391189,-0.00303712,-0.00120917,-0.00732477,-0.84359,0.00453419,0.0383329,685,1303,-5.19167,-1.97912
-532,-279,-5.42743,1.87769,0,0,0,0,0,0,0,-1,692,1303,-5.42744,-1.87771
-525,-279,-7.99243,2.57581,-0.00337606,-0.00599902,-0.00647412,0.00191808,-0.0112932,-0.685464,0.00824285,0.0473341,699,1303,-7.99244,-2.57585
-518,-279,-8.16986,2.81165,-0.00225061,-0.00732069,-0.00844745,0.00403398,-0.0136053,-0.639626,0.0106721,0.0440845,706,1303,-8.16989,-2.8116
-511,-279,-8.35278,2.95129,0,0,0,0,0,0,0,-1,713,1303,-8.35281,-2.95127
-504,-279,-5.9375,-0.848022,0,0,0,0,0,0,0,-1,720,1303,-5.9375,0.847996
-497,-279,-7.5896,0.451294,0,0,0,0,0,0,0,-1,727,1303,-7.58962,-0.451312
-490,-279,-7.77283,0.544189,0.00236051,-0.0170069,-0.0162111,0.01156,-0.0262064,-0.516164,0.0223443,0.0430048,734,1303,-7.7728,-0.544152
-483,-279,-7.97296,0.643677,0.00228255,-0.021229,-0.018249,0.0122344,-0.0311809,-0.499259,0.0258492,0.0391691,741,1303,-7.97297,-0.643738
-476,-279,0,0,0,0,0,0,0,0,0,-1,748,1303,0,0
-469,-279,0,0,0,0,0,0,0,0,0,-1,755,1303,0,0
-462,-279,0,0,0,0,0,0,0,0,0,-1,762,1303,0,0
-455,-279,0,0,0,0,0,0,0,0,0,-1,769,1303,0,0
-448,-279,0,0,0,0,0,0,0,0,0,-1,776,1303,0,0
-441,-279,0,0,0,0,0,0,0,0,0,-1,783,1303,0,0
-434,-279,0,0,0,0,0,0,0,0,0,-1,790,1303,0,0
-427,-279,0,0,0,0,0,0,0,0,0,-1,797,1303,0,0
-420,-279,0,0,0,0,0,0,0,0,0,-1,804,1303,0,0
-413,-279,0,0,0,0,0,0,0,0,0,-1,811,1303,0,0
-406,-279,0,0,0,0,0,0,0,0,0,-1,818,1303,0,0
-399,-279,0,0,0,0,0,0,0,0,0,-1,825,1303,0,0
-392,-279,0,0,0,0,0,0,0,0,0,-1,832,1303,0,0
-385,-279,0,0,0,0,0,0,0,0,0,-1,839,1303,0,0
-378,-279,0,0,0,0,0,0,0,0,0,-1,846,1303,0,0
-371,-279,0,0,0,0,0,0,0,0,0,-1,853,1303,0,0
-364,-279,0,0,0,0,0,0,0,0,0,-1,860,1303,0,0
-357,-279,0,0,0,0,0,0,0,0,0,-1,867,1303,0,0
-350,-279,0,0,0,0,0,0,0,0,0,-1,874,1303,0,0
-343,-279,0,0,0,0,0,0,0,0,0,-1,881,1303,0,0
-336,-279,0,0,0,0,0,0,0,0,0,-1,888,1303,0,0
-329,-279,0,0,0,0,0,0,0,0,0,-1,895,1303,0,0
-322,-279,0,0,0,0,0,0,0,0,0,-1,902,1303,0,0
-315,-279,0,0,0,0,0,0,0,0,0,-1,909,1303,0,0
-308,-279,0,0,0,0,0,0,0,0,0,-1,916,1303,0,0
-301,-279,0,0,0,0,0,0,0,0,0,-1,923,1303,0,0
-294,-279,0,0,0,0,0,0,0,0,0,-1,930,1303,0,0
-287,-279,0,0,0,0,0,0,0,0,0,-1,937,1303,0,0
-280,-279,0,0,0,0,0,0,0,0,0,-1,944,1303,0,0
-273,-279,0,0,0,0,0,0,0,0,0,-1,951,1303,0,0
-266,-279,0,0,0,0,0,0,0,0,0,-1,958,1303,0,0
-259,-279,0,0,0,0,0,0,0,0,0,-1,965,1303,0,0
-252,-279,0,0,0,0,0,0,0,0,0,-1,972,1303,0,0
-245,-279,0,0,0,0,0,0,0,0,0,-1,979,1303,0,0
-238,-279,0,0,0,0,0,0,0,0,0,-1,986,1303,0,0
-231,-279,0,0,0,0,0,0,0,0,0,-1,993,1303,0,0
-224,-279,0,0,0,0,0,0,0,0,0,-1,1000,1303,0,0
-217,-279,0,0,0,0,0,0,0,0,0,-1,1007,1303,0,0
-210,-279,0,0,0,0,0,0,0,0,0,-1,1014,1303,0,0
-203,-279,0,0,0,0,0,0,0,0,0,-1,1021,1303,0,0
-196,-279,0,0,0,0,0,0,0,0,0,-1,1028,1303,0,0
-189,-279,0,0,0,0,0,0,0,0,0,-1,1035,1303,0,0
-182,-279,0,0,0,0,0,0,0,0,0,-1,1042,1303,0,0
-175,-279,0,0,0,0,0,0,0,0,0,-1,1049,1303,0,0
-168,-279,0,0,0,0,0,0,0,0,0,-1,1056,1303,0,0
-161,-279,0,0,0,0,0,0,0,0,0,-1,1063,1303,0,0
-154,-279,0,0,0,0,0,0,0,0,0,-1,1070,1303,0,0
-147,-279,0,0,0,0,0,0,0,0,0,-1,1077,1303,0,0
-140,-279,0,0,0,0,0,0,0,0,0,-1,1084,1303,0,0
-133,-279,0,0,0,0,0,0,0,0,0,-1,1091,1303,0,0
-126,-279,0,0,0,0,0,0,0,0,0,-1,1098,1303,0,0
-119,-279,0,0,0,0,0,0,0,0,0,-1,1105,1303,0,0
-112,-279,0,0,0,0,0,0,0,0,0,-1,1112,1303,0,0
-105,-279,0,0,0,0,0,0,0,0,0,-1,1119,1303,0,0
-98,-279,0,0,0,0,0,0,0,0,0,-1,1126,1303,0,0
-91,-279,0,0,0,0,0,0,0,0,0,-1,1133,1303,0,0
-84,-279,0,0,0,0,0,0,0,0,0,-1,1140,1303,0,0
-77,-279,0,0,0,0,0,0,0,0,0,-1,1147,1303,0,0
-70,-279,0,0,0,0,0,0,0,0,0,-1,1154,1303,0,0
-63,-279,0,0,0,0,0,0,0,0,0,-1,1161,1303,0,0
-56,-279,0,0,0,0,0,0,0,0,0,-1,1168,1303,0,0
-49,-279,0,0,0,0,0,0,0,0,0,-1,1175,1303,0,0
-42,-279,0,0,0,0,0,0,0,0,0,-1,1182,1303,0,0
-35,-279,0,0,0,0,0,0,0,0,0,-1,1189,1303,0,0
-28,-279,0,0,0,0,0,0,0,0,0,-1,1196,1303,0,0
-21,-279,0,0,0,0,0,0,0,0,0,-1,1203,1303,0,0
-14,-279,0,0,0,0,0,0,0,0,0,-1,1210,1303,0,0
-7,-279,0,0,0,0,0,0,0,0,0,-1,1217,1303,0,0
0,-279,0,0,0,0,0,0,0,0,0,-1,1224,1303,0,0
7,-279,0,0,0,0,0,0,0,0,0,-1,1231,1303,0,0
14,-279,0,0,0,0,0,0,0,0,0,-1,1238,1303,0,0
21,-279,0,0,0,0,0,0,0,0,0,-1,1245,1303,0,0
28,-279,0,0,0,0,0,0,0,0,0,-1,1252,1303,0,0
35,-279,0,0,0,0,0,0,0,0,0,-1,1259,1303,0,0
42,-279,0,0,0,0,0,0,0,0,0,-1,1266,1303,0,0
49,-279,0,0,0,0,0,0,0,0,0,-1,1273,1303,0,0
56,-279,0,0,0,0,0,0,0,0,0,-1,1280,1303,0,0
63,-279,0,0,0,0,0,0,0,0,0,-1,1287,1303,0,0
70,-279,0,0,0,0,0,0,0,0,0,-1,1294,1303,0,0
77,-279,0,0,0,0,0,0,0,0,0,-1,1301,1303,0,0
84,-279,0,0,0,0,0,0,0,0,0,-1,1308,1303,0,0
91,-279,0,0,0,0,0,0,0,0,0,-1,1315,1303,0,0
98,-279,0,0,0,0,0,0,0,0,0,-1,1322,1303,0,0
105,-279,0,0,0,0,0,0,0,0,0,-1,1329,1303,0,0
112,-279,0,0,0,0,0,0,0,0,0,-1,1336,1303,0,0
119,-279,0,0,0,0,0,0,0,0,0,-1,1343,1303,0,0
126,-279,0,0,0,0,0,0,0,0,0,-1,1350,1303,0,0
133,-279,0,0,0,0,0,0,0,0,0,-1,1357,1303,0,0
140,-279,0,0,0,0,0,0,0,0,0,-1,1364,1303,0,0
147,-279,0,0,0,0,0,0,0,0,0,-1,1371,1303,0,0
154,-279,0,0,0,0,0,0,0,0,0,-1,1378,1303,0,0
161,-279,0,0,0,0,0,0,0,0,0,-1,1385,1303,0,0
168,-279,0,0,0,0,0,0,0,0,0,-1,1392,1303,0,0
175,-279,0,0,0,0,0,0,0,0,0,-1,1399,1303,0,0
182,-279,0,0,0,0,0,0,0,0,0,-1,1406,1303,0,0
189,-279,0,0,0,0,0,0,0,0,0,-1,1413,1303,0,0
196,-279,0,0,0,0,0,0,0,0,0,-1,1420,1303,0,0
203,-279,0,0,0,0,0,0,0,0,0,-1,1427,1303,0,0
210,-279,0,0,0,0,0,0,0,0,0,-1,1434,1303,0,0
217,-279,0,0,0,0,0,0,0,0,0,-1,1441,1303,0,0
224,-279,0,0,0,0,0,0,0,0,0,-1,1448,1303,0,0
231,-279,0,0,0,0,0,0,0,0,0,-1,1455,1303,0,0
238,-279,0,0,0,0,0,0,0,0,0,-1,1462,1303,0,0
245,-279,0,0,0,0,0,0,0,0,0,-1,1469,1303,0,0
252,-279,0,0,0,0,0,0,0,0,0,-1,1476,1303,0,0
259,-279,0,0,0,0,0,0,0,0,0,-1,1483,1303,0,0
266,-279,0,0,0,0,0,0,0,0,0,-1,1490,1303,0,0
273,-279,0,0,0,0,0,0,0,0,0,-1,1497,1303,0,0
280,-279,0,0,0,0,0,0,0,0,0,-1,1504,1303,0,0
287,-279,0,0,0,0,0,0,0,0,0,-1,1511,1303,0,0
294,-279,0,0,0,0,0,0,0,0,0,-1,1518,1303,0,0
301,-279,0,0,0,0,0,0,0,0,0,-1,1525,1303,0,0
308,-279,0,0,0,0,0,0,0,0,0,-1,1532,1303,0,0
315,-279,0,0,0,0,0,0,0,0,0,-1,1539,1303,0,0
322,-279,0,0,0,0,0,0,0,0,0,-1,1546,1303,0,0
329,-279,0,0,0,0,0,0,0,0,0,-1,1553,1303,0,0
336,-279,0,0,0,0,0,0,0,0,0,-1,1560,1303,0,0
343,-279,0,0,0,0,0,0,0,0,0,-1,1567,1303,0,0
350,-279,0,0,0,0,0,0,0,0,0,-1,1574,1303,0,0
357,-279,0,0,0,0,0,0,0,0,0,-1,1581,1303,0,0
364,-279,0,0,0,0,0,0,0,0,0,-1,1588,1303,0,0
371,-279,0,0,0,0,0,0,0,0,0,-1,1595,1303,0,0
378,-279,0,0,0,0,0,0,0,0,0,-1,1602,1303,0,0
385,-279,0,0,0,0,0,0,0,0,0,-1,1609,1303,0,0
392,-279,0,0,0,0,0,0,0,0,0,-1,1616,1303,0,0
399,-279,0,0,0,0,0,0,0,0,0,-1,1623,1303,0,0
406,-279,0,0,0,0,0,0,0,0,0,-1,1630,1303,0,0
413,-279,0,0,0,0,0,0,0,0,0,-1,1637,1303,0,0
420,-279,0,0,0,0,0,0,0,0,0,-1,1644,1303,0,0
427,-279,0,0,0,0,0,0,0,0,0,-1,1651,1303,0,0
434,-279,0,0,0,0,0,0,0,0,0,-1,1658,1303,0,0
441,-279,0,0,0,0,0,0,0,0,0,-1,1665,1303,0,0
448,-279,0,0,0,0,0,0,0,0,0,-1,1672,1303,0,0
455,-279,0,0,0,0,0,0,0,0,0,-1,1679,1303,0,0
462,-279,0,0,0,0,0,0,0,0,0,-1,1686,1303,0,0
469,-279,0,0,0,0,0,0,0,0,0,-1,1693,1303,0,0
476,-279,0,0,0,0,0,0,0,0,0,-1,1700,1303,0,0
483,-279,0,0,0,0,0,0,0,0,0,-1,1707,1303,0,0
490,-279,0,0,0,0,0,0,0,0,0,-1,1714,1303,0,0
497,-279,0,0,0,0,0,0,0,0,0,-1,1721,1303,0,0
504,-279,0,0,0,0,0,0,0,0,0,-1,1728,1303,0,0
511,-279,0,0,0,0,0,0,0,0,0,-1,1735,1303,0,0
518,-279,0,0,0,0,0,0,0,0,0,-1,1742,1303,0,0
525,-279,0,0,0,0,0,0,0,0,0,-1,1749,1303,0,0
532,-279,0,0,0,0,0,0,0,0,0,-1,1756,1303,0,0
539,-279,0,0,0,0,0,0,0,0,0,-1,1763,1303,0,0
546,-279,0,0,0,0,0,0,0,0,0,-1,1770,1303,0,0
553,-279,0,0,0,0,0,0,0,0,0,-1,1777,1303,0,0
560,-279,0,0,0,0,0,0,0,0,0,-1,1784,1303,0,0
567,-279,0,0,0,0,0,0,0,0,0,-1,1791,1303,0,0
574,-279,0,0,0,0,0,0,0,0,0,-1,1798,1303,0,0
581,-279,0,0,0,0,0,0,0,0,0,-1,1805,1303,0,0
588,-279,0,0,0,0,0,0,0,0,0,-1,1812,1303,0,0
595,-279,0,0,0,0,0,0,0,0,0,-1,1819,1303,0,0
602,-279,14.0082,1.87219,-0.0166311,0.00120802,-0.0100398,0.00571817,-0.0211412,-1.14859,0.0163373,0.0397065,1826,1303,14.0082,-1.87222
609,-279,13.9838,1.84912,-0.0151509,0.00440791,-0.00588524,0.00604222,-0.0167852,-1.29993,0.0136572,0.0463764,1833,1303,13.9837,-1.84906
616,-279,13.9729,2.09619,-0.01287,0.00592057,-0.0027018,0.00630133,-0.0132507,-1.43079,0.0115236,0.0467547,1840,1303,13.9729,-2.09615
623,-279,14.0433,1.84045,-0.0107508,0.00590578,-0.000555506,0.00592429,-0.0107693,-1.5375,0.0097724,0.0477549,1847,1303,14.0433,-1.84042
630,-279,14.2292,1.40637,-0.0089548,0.00518877,0.000644047,0.00521804,-0.00898407,1.52539,0.00829513,0.0453726,1854,1303,14.2292,-1.40632
637,-279,13.97,2.14514,-0.00732748,0.00410605,0.00147235,0.00429261,-0.00751403,1.44476,0.00690063,0.0441806,1861,1303,13.97,-2.14512
644,-279,15.6444,1.51868,0,0,0,0,0,0,0,-1,1868,1303,15.6444,-1.51866
651,-279,10.7561,3.78394,0,0,0,0,0,0,0,-1,1875,1303,10.7561,-3.78389
658,-279,12.22,3.68921,0,0,0,0,0,0,0,-1,1882,1303,12.22,-3.68926
665,-279,11.8427,3.58752,-0.00323674,0.00108692,0.00237902,0.00213962,-0.00428945,1.1542,0.00378037,0.0480048,1889,1303,11.8426,-3.58748
672,-279,11.6608,3.52051,-0.00248351,0.00020797,0.00189949,0.00119012,-0.00346567,1.09359,0.00279299,0.0375939,1896,1303,11.6608,-3.52053
679,-279,11.4847,3.54822,-0.00235318,-0.000761861,0.00193422,0.000533954,-0.00364899,0.980529,0.00262879,0.0228888,1903,1303,11.4847,-3.54825
686,-279,11.4803,3.42847,-0.00265373,-0.00161221,0.00150524,-0.000540195,-0.00372574,0.951937,0.00232478,0.0191824,1910,1303,11.4804,-3.42846
693,-279,11.4752,3.33032,-0.00200381,-0.00139793,0.000507388,-0.00110992,-0.00229181,1.05453,0.0013234,0.014955,1917,1303,11.4753,-3.33038
700,-279,11.4841,3.23718,-0.000725814,-0.000253875,-0.000227199,-0.000162276,-0.000817413,-1.18756,0.000499711,0.0106198,1924,1303,11.4841,-3.23715
707,-279,11.4858,3.12476,0.000433626,0.00196738,-0.00201357,0.00335516,-0.000954155,-0.967345,0.00261354,0.00869756,1931,1303,11.4859,-3.12472
714,-279,11.4783,3.00098,0.000821012,0.00497979,-0.00490563,0.00822854,-0.00242774,-0.985858,0.0064491,0.00986553,1938,1303,11.4782,-3.00093
721,-279,11.474,2.89661,0.000685387,0.00882835,-0.00817521,0.0138898,-0.0043761,-1.01643,0.0110123,0.0114268,1945,1303,11.474,-2.89657
728,-279,11.4838,2.78674,-0.000876295,0.0145444,-0.0113893,0.0205879,-0.00691972,-1.08295,0.0165221,0.0121467,1952,1303,11.4837,-2.78668
735,-279,11.5126,2.66699,-0.00311484,0.0201559,-0.0146697,0.0272444,-0.0102033,-1.12068,0.0223542,0.0116811,1959,1303,11.5126,-2.66697
742,-279,11.5088,2.5094,-0.00626676,0.0276973,-0.0188194,0.036064,-0.0146335,-1.15246,0.0301293,0.021573,1966,1303,11.5088,-2.50942
749,-279,11.5988,2.21155,-0.0109412,0.0368857,-0.0232772,0.0463441,-0.0203996,-1.18484,0.039493,0.0390151,1973,1303,11.5987,-2.2116
756,-279,11.7096,1.63989,-0.017531,0.0477294,-0.0277699,0.0579466,-0.0277481,-1.21825,0.0504895,0.0456827,1980,1303,11.7096,-1.63992
763,-279,11.6063,0.765381,-0.026486,0.0601236,-0.0319141,0.0706129,-0.0369754,-1.25324,0.06312,0.0458163,1987,1303,11.6064,-0.765328
770,-279,11.4092,-0.0587158,-0.0383876,0.0738075,-0.0351554,0.083913,-0.0484931,-1.29089,0.077351,0.0481469,1994,1303,11.4092,0.0587493
777,-279,10.9346,-0.89563,-0.0538476,0.0882421,-0.0366071,0.0971188,-0.0627243,-1.3329,0.0929948,0.0467501,2001,1303,10.9346,0.895572
784,-279,0,0,0,0,0,0,0,0,0,-1,2008,1303,0,0
791,-279,0,0,0,0,0,0,0,0,0,-1,2015,1303,0,0
798,-279,0,0,0,0,0,0,0,0,0,-1,2022,1303,0,0
805,-279,0,0,0,0,0,0,0,0,0,-1,2029,1303,0,0
812,-279,0,0,0,0,0,0,0,0,0,-1,2036,1303,0,0
-700,-286,0,0,0,0,0,0,0,0,0,-1,524,1310,0,0
-693,-286,0,0,0,0,0,0,0,0,0,-1,531,1310,0,0
-686,-286,0,0,0,0,0,0,0,0,0,-1,538,1310,0,0
-679,-286,0,0,0,0,0,0,0,0,0,-1,545,1310,0,0
-672,-286,0,0,0,0,0,0,0,0,0,-1,552,1310,0,0
-665,-286,0,0,0,0,0,0,0,0,0,-1,559,1310,0,0
-658,-286,-4.80798,-1.88464,0,0,0,0,0,0,0,-1,566,1310,-4.80797,1.88463
-651,-286,-4.99567,-1.87964,0,0,0,0,0,0,0,-1,573,1310,-4.99567,1.87968
-644,-286,-5.87292,-1.17114,0,0,0,0,0,0,0,-1,580,1310,-5.87295,1.17118
-637,-286,-5.76556,-0.878784,0.0115401,0.0149656,0.000455739,0.0150252,0.0114805,1.44077,0.00906913,0.0470703,587,1310,-5.76558,0.878833
-630,-286,-5.63324,-0.647827,0.0133618,0.0114003,0.00467285,0.0171557,0.00760637,0.68196,0.00992599,0.0442198,594,1310,-5.63322,0.647855
-623,-286,-5.48505,-0.551025,0.0133536,0.00858366,0.00672716,0.0181061,0.00383122,0.615045,0.011018,0.0427559,601,1310,-5.48502,0.550969
-616,-286,-5.30048,-0.0229492,0.0121925,0.00640351,0.00732772,0.0171767,0.00141932,0.597302,0.0110085,0.042951,608,1310,-5.30045,0.0229977
-609,-286,-5.14825,0.5,0.0104491,0.0047361,0.00701282,0.0151649,2.03387e-05,0.591995,0.0101032,0.0316858,615,1310,-5.14827,-0.499957
-602,-286,-5.09436,0.804077,0.00853788,0.00342496,0.00616529,0.0126557,-0.000692881,0.588861,0.00867733,0.0124816,622,1310,-5.09439,-0.804126
-595,-286,-5.08044,0.959106,0.00680277,0.00243109,0.00507045,0.0101385,-0.000904608,0.581888,0.0070798,0.00928708,629,1310,-5.08043,-0.959136
-588,-286,-5.06256,1.08948,0.0047456,0.00134931,0.0043419,0.00770961,-0.00161471,0.59899,0.005754,0.00997109,636,1310,-5.06258,-1.0895
-581,-286,-5.0611,1.20947,0.00294724,-0.000168271,0.00325165,0.00499501,-0.00221605,0.562018,0.00426511,0.0132192,643,1310,-5.0611,-1.20944
-574,-286,-5.06653,1.33936,0.00059233,-0.000819388,0.00157518,0.00161257,-0.00183963,0.574756,0.00199456,0.0140067,650,1310,-5.06651,-1.33935
-567,-286,-5.08148,1.49341,-0.0011916,-0.000965325,0.000323822,-0.000735445,-0.00142148,0.953461,0.000820857,0.0129501,657,1310,-5.08146,-1.49335
-560,-286,-5.08063,1.65063,-0.00226622,-0.00162885,-0.000473331,-0.00137692,-0.00251815,-1.08168,0.00145597,0.0124446,664,1310,-5.08062,-1.65062
-553,-286,-5.08618,1.78687,-0.00324073,-0.00221634,-0.00112169,-0.00149544,-0.00396163,-0.999574,0.00231002,0.00913899,671,1310,-5.08615,-1.78692
-546,-286,-5.07928,1.92383,-0.00395809,-0.00261581,-0.00167811,-0.00147961,-0.0050943,-0.975624,0.00302607,0.0107335,678,1310,-5.07926,-1.9238
-539,-286,-5.06067,2.07983,-0.00409757,-0.00331238,-0.00231788,-0.00135408,-0.00605587,-0.86929,0.00367012,0.0273679,685,1310,-5.06068,-2.0798
-532,-286,-5.02686,2.23987,0,0,0,0,0,0,0,-1,692,1310,-5.02686,-2.2399
-525,-286,-5.01184,2.18201,0,0,0,0,0,0,0,-1,699,1310,-5.01184,-2.18205
-518,-286,-8.27594,2.67749,-0.00285841,-0.00708072,-0.00853816,0.00382573,-0.0137649,-0.664198,0.0106827,0.0442463,706,1310,-8.27596,-2.67748
-511,-286,-8.28931,2.89587,-0.00276818,-0.00875637,-0.0101189,0.00479028,-0.0163148,-0.641556,0.0127763,0.0454308,713,1310,-8.28933,-2.89591
-504,-286,-8.12067,3.06519,0,0,0,0,0,0,0,-1,720,1310,-8.12064,-3.06518
-497,-286,-4.87054,-1.93518,0,0,0,0,0,0,0,-1,727,1310,-4.87055,1.93514
-490,-286,-7.78223,0.731689,0,0,0,0,0,0,0,-1,734,1310,-7.78221,-0.731678
-483,-286,-7.83057,0.819092,-0.00358066,-0.0179366,-0.0198027,0.0103049,-0.0318221,-0.611526,0.0253575,0.0423165,741,1310,-7.83054,-0.819143
-476,-286,-7.76154,0.484741,-0.0064783,-0.0212079,-0.020998,0.00840905,-0.0360952,-0.616733,0.0273016,0.0386851,748,1310,-7.76155,-0.484792
-469,-286,0,0,0,0,0,0,0,0,0,-1,755,1310,0,0
-462,-286,0,0,0,0,0,0,0,0,0,-1,762,1310,0,0
-455,-286,0,0,0,0,0,0,0,0,0,-1,769,1310,0,0
-448,-286,0,0,0,0,0,0,0,0,0,-1,776,1310,0,0
-441,-286,0,0,0,0,0,0,0,0,0,-1,783,1310,0,0
-434,-286,0,0,0,0,0,0,0,0,0,-1,790,1310,0,0
-427,-286,0,0,0,0,0,0,0,0,0,-1,797,1310,0,0
-420,-286,0,0,0,0,0,0,0,0,0,-1,804,1310,0,0
-413,-286,0,0,0,0,0,0,0,0,0,-1,811,1310,0,0
-406,-286,0,0,0,0,0,0,0,0,0,-1,818,1310,0,0
-399,-286,0,0,0,0,0,0,0,0,0,-1,825,1310,0,0
-392,-286,0,0,0,0,0,0,0,0,0,-1,832,1310,0,0
-385,-286,0,0,0,0,0,0,0,0,0,-1,839,1310,0,0
-378,-286,0,0,0,0,0,0,0,0,0,-1,846,1310,0,0
-371,-286,0,0,0,0,0,0,0,0,0,-1,853,1310,0,0
-364,-286,0,0,0,0,0,0,0,0,0,-1,860,1310,0,0
-357,-286,0,0,0,0,0,0,0,0,0,-1,867,1310,0,0
-350,-286,0,0,0,0,0,0,0,0,0,-1,874,1310,0,0
-343,-286,0,0,0,0,0,0,0,0,0,-1,881,1310,0,0
-336,-286,0,0,0,0,0,0,0,0,0,-1,888,1310,0,0
-329,-286,0,0,0,0,0,0,0,0,0,-1,895,1310,0,0
-322,-286,0,0,0,0,0,0,0,0,0,-1,902,1310,0,0
-315,-286,0,0,0,0,0,0,0,0,0,-1,909,1310,0,0
-308,-286,0,0,0,0,0,0,0,0,0,-1,916,1310,0,0
-301,-286,0,0,0,0,0,0,0,0,0,-1,923,1310,0,0
-294,-286,0,0,0,0,0,0,0,0,0,-1,930,1310,0,0
-287,-286,0,0,0,0,0,0,0,0,0,-1,937,1310,0,0
-280,-286,0,0,0,0,0,0,0,0,0,-1,944,1310,0,0
-273,-286,0,0,0,0,0,0,0,0,0,-1,951,1310,0,0
-266,-286,0,0,0,0,0,0,0,0,0,-1,958,1310,0,0
-259,-286,0,0,0,0,0,0,0,0,0,-1,965,1310,0,0
-252,-286,0,0,0,0,0,0,0,0,0,-1,972,1310,0,0
-245,-286,0,0,0,0,0,0,0,0,0,-1,979,1310,0,0
-238,-286,0,0,0,0,0,0,0,0,0,-1,986,1310,0,0
-231,-286,0,0,0,0,0,0,0,0,0,-1,993,1310,0,0
-224,-286,0,0,0,0,0,0,0,0,0,-1,1000,1310,0,0
-217,-286,0,0,0,0,0,0,0,0,0,-1,1007,1310,0,0
-210,-286,0,0,0,0,0,0,0,0,0,-1,1014,1310,0,0
-203,-286,0,0,0,0,0,0,0,0,0,-1,1021,1310,0,0
-196,-286,0,0,0,0,0,0,0,0,0,-1,1028,1310,0,0
-189,-286,0,0,0,0,0,0,0,0,0,-1,1035,1310,0,0
-182,-286,0,0,0,0,0,0,0,0,0,-1,1042,1310,0,0
-175,-286,0,0,0,0,0,0,0,0,0,-1,1049,1310,0,0
-168,-286,0,0,0,0,0,0,0,0,0,-1,1056,1310,0,0
-161,-286,0,0,0,0,0,0,0,0,0,-1,1063,1310,0,0
-154,-286,0,0,0,0,0,0,0,0,0,-1,1070,1310,0,0
-147,-286,0,0,0,0,0,0,0,0,0,-1,1077,1310,0,0
-140,-286,0,0,0,0,0,0,0,0,0,-1,1084,1310,0,0
-133,-286,0,0,0,0,0,0,0,0,0,-1,1091,1310,0,0
-126,-286,0,0,0,0,0,0,0,0,0,-1,1098,1310,0,0
-119,-286,0,0,0,0,0,0,0,0,0,-1,1105,1310,0,0
-112,-286,0,0,0,0,0,0,0,0,0,-1,1112,1310,0,0
-105,-286,0,0,0,0,0,0,0,0,0,-1,1119,1310,0,0
-98,-286,0,0,0,0,0,0,0,0,0,-1,1126,1310,0,0
-91,-286,0,0,0,0,0,0,0,0,0,-1,1133,1310,0,0
-84,-286,0,0,0,0,0,0,0,0,0,-1,1140,1310,0,0
-77,-286,0,0,0,0,0,0,0,0,0,-1,1147,1310,0,0
-70,-286,0,0,0,0,0,0,0,0,0,-1,1154,1310,0,0
-63,-286,0,0,0,0,0,0,0,0,0,-1,1161,1310,0,0
-56,-286,0,0,0,0,0,0,0,0,0,-1,1168,1310,0,0
-49,-286,0,0,0,0,0,0,0,0,0,-1,1175,1310,0,0
-42,-286,0,0,0,0,0,0,0,0,0,-1,1182,1310,0,0
-35,-286,0,0,0,0,0,0,0,0,0,-1,1189,1310,0,0
-28,-286,0,0,0,0,0,0,0,0,0,-1,1196,1310,0,0
-21,-286,0,0,0,0,0,0,0,0,0,-1,1203,1310,0,0
-14,-286,0,0,0,0,0,0,0,0,0,-1,1210,1310,0,0
-7,-286,0,0,0,0,0,0,0,0,0,-1,1217,1310,0,0
0,-286,0,0,0,0,0,0,0,0,0,-1,1224,1310,0,0
7,-286,0,0,0,0,0,0,0,0,0,-1,1231,1310,0,0
14,-286,0,0,0,0,0,0,0,0,0,-1,1238,1310,0,0
21,-286,0,0,0,0,0,0,0,0,0,-1,1245,1310,0,0
28,-286,0,0,0,0,0,0,0,0,0,-1,1252,1310,0,0
35,-286,0,0,0,0,0,0,0,0,0,-1,1259,1310,0,0
42,-286,0,0,0,0,0,0,0,0,0,-1,1266,1310,0,0
49,-286,0,0,0,0,0,0,0,0,0,-1,1273,1310,0,0
56,-286,0,0,0,0,0,0,0,0,0,-1,1280,1310,0,0
63,-286,0,0,0,0,0,0,0,0,0,-1,1287,1310,0,0
70,-286,0,0,0,0,0,0,0,0,0,-1,1294,1310,0,0
77,-286,0,0,0,0,0,0,0,0,0,-1,1301,1310,0,0
84,-286,0,0,0,0,0,0,0,0,0,-1,1308,1310,0,0
91,-286,0,0,0,0,0,0,0,0,0,-1,1315,1310,0,0
98,-286,0,0,0,0,0,0,0,0,0,-1,1322,1310,0,0
105,-286,0,0,0,0,0,0,0,0,0,-1,1329,1310,0,0
112,-286,0,0,0,0,0,0,0,0,0,-1,1336,1310,0,0
119,-286,0,0,0,0,0,0,0,0,0,-1,1343,1310,0,0
126,-286,0,0,0,0,0,0,0,0,0,-1,1350,1310,0,0
133,-286,0,0,0,0,0,0,0,0,0,-1,1357,1310,0,0
140,-286,0,0,0,0,0,0,0,0,0,-1,1364,1310,0,0
147,-286,0,0,0,0,0,0,0,0,0,-1,1371,1310,0,0
154,-286,0,0,0,0,0,0,0,0,0,-1,1378,1310,0,0
161,-286,0,0,0,0,0,0,0,0,0,-1,1385,1310,0,0
168,-286,0,0,0,0,0,0,0,0,0,-1,1392,1310,0,0
175,-286,0,0,0,0,0,0,0,0,0,-1,1399,1310,0,0
182,-286,0,0,0,0,0,0,0,0,0,-1,1406,1310,0,0
189,-286,0,0,0,0,0,0,0,0,0,-1,1413,1310,0,0
196,-286,0,0,0,0,0,0,0,0,0,-1,1420,1310,0,0
203,-286,0,0,0,0,0,0,0,0,0,-1,1427,1310,0,0
210,-286,0,0,0,0,0,0,0,0,0,-1,1434,1310,0,0
217,-286,0,0,0,0,0,0,0,0,0,-1,1441,1310,0,0
224,-286,0,0,0,0,0,0,0,0,0,-1,1448,1310,0,0
231,-286,0,0,0,0,0,0,0,0,0,-1,1455,1310,0,0
238,-286,0,0,0,0,0,0,0,0,0,-1,1462,1310,0,0
245,-286,0,0,0,0,0,0,0,0,0,-1,1469,1310,0,0
252,-286,0,0,0,0,0,0,0,0,0,-1,1476,1310,0,0
259,-286,0,0,0,0,0,0,0,0,0,-1,1483,1310,0,0
266,-286,0,0,0,0,0,0,0,0,0,-1,1490,1310,0,0
273,-286,0,0,0,0,0,0,0,0,0,-1,1497,1310,0,0
280,-286,0,0,0,0,0,0,0,0,0,-1,1504,1310,0,0
287,-286,0,0,0,0,0,0,0,0,0,-1,1511,1310,0,0
294,-286,0,0,0,0,0,0,0,0,0,-1,1518,1310,0,0
301,-286,0,0,0,0,0,0,0,0,0,-1,1525,1310,0,0
308,-286,0,0,0,0,0,0,0,0,0,-1,1532,1310,0,0
315,-286,0,0,0,0,0,0,0,0,0,-1,1539,1310,0,0
322,-286,0,0,0,0,0,0,0,0,0,-1,1546,1310,0,0
329,-286,0,0,0,0,0,0,0,0,0,-1,1553,1310,0,0
336,-286,0,0,0,0,0,0,0,0,0,-1,1560,1310,0,0
343,-286,0,0,0,0,0,0,0,0,0,-1,1567,1310,0,0
350,-286,0,0,0,0,0,0,0,0,0,-1,1574,1310,0,0
357,-286,0,0,0,0,0,0,0,0,0,-1,1581,1310,0,0
364,-286,0,0,0,0,0,0,0,0,0,-1,1588,1310,0,0
371,-286,0,0,0,0,0,0,0,0,0,-1,1595,1310,0,0
378,-286,0,0,0,0,0,0,0,0,0,-1,1602,1310,0,0
385,-286,0,0,0,0,0,0,0,0,0,-1,1609,1310,0,0
392,-286,0,0,0,0,0,0,0,0,0,-1,1616,1310,0,0
399,-286,0,0,0,0,0,0,0,0,0,-1,1623,1310,0,0
406,-286,0,0,0,0,0,0,0,0,0,-1,1630,1310,0,0
413,-286,0,0,0,0,0,0,0,0,0,-1,1637,1310,0,0
420,-286,0,0,0,0,0,0,0,0,0,-1,1644,1310,0,0
427,-286,0,0,0,0,0,0,0,0,0,-1,1651,1310,0,0
434,-286,0,0,0,0,0,0,0,0,0,-1,1658,1310,0,0
441,-286,0,0,0,0,0,0,0,0,0,-1,1665,1310,0,0
448,-286,0,0,0,0,0,0,0,0,0,-1,1672,1310,0,0
455,-286,0,0,0,0,0,0,0,0,0,-1,1679,1310,0,0
462,-286,0,0,0,0,0,0,0,0,0,-1,1686,1310,0,0
469,-286,0,0,0,0,0,0,0,0,0,-1,1693,1310,0,0
476,-286,0,0,0,0,0,0,0,0,0,-1,1700,1310,0,0
483,-286,0,0,0,0,0,0,0,0,0,-1,1707,1310,0,0
490,-286,0,0,0,0,0,0,0,0,0,-1,1714,1310,0,0
497,-286,0,0,0,0,0,0,0,0,0,-1,1721,1310,0,0
504,-286,0,0,0,0,0,0,0,0,0,-1,1728,1310,0,0
511,-286,0,0,0,0,0,0,0,0,0,-1,1735,1310,0,0
518,-286,0,0,0,0,0,0,0,0,0,-1,1742,1310,0,0
525,-286,0,0,0,0,0,0,0,0,0,-1,1749,1310,0,0
532,-286,0,0,0,0,0,0,0,0,0,-1,1756,1310,0,0
539,-286,0,0,0,0,0,0,0,0,0,-1,1763,1310,0,0
546,-286,0,0,0,0,0,0,0,0,0,-1,1770,1310,0,0
553,-286,0,0,0,0,0,0,0,0,0,-1,1777,1310,0,0
560,-286,0,0,0,0,0,0,0,0,0,-1,1784,1310,0,0
567,-286,0,0,0,0,0,0,0,0,0,-1,1791,1310,0,0
574,-286,0,0,0,0,0,0,0,0,0,-1,1798,1310,0,0
581,-286,0,0,0,0,0,0,0,0,0,-1,1805,1310,0,0
588,-286,0,0,0,0,0,0,0,0,0,-1,1812,1310,0,0
595,-286,14.1248,1.99963,-0.0202549,0.00128555,-0.0186195,0.0120254,-0.0309947,-1.04761,0.0256299,0.0363825,1819,1310,14.1248,-1.99959
602,-286,14.0835,1.88,-0.0231211,0.00476466,-0.0126714,0.0096624,-0.0280188,-1.20197,0.0225994,0.0452531,1826,1310,14.0836,-1.88003
609,-286,13.6719,1.9408,-0.0223891,0.0063506,-0.00806825,0.00846071,-0.0244992,-1.31499,0.0197662,0.0461858,1833,1310,13.6718,-1.94074
616,-286,13.5715,2.22009,-0.0197199,0.0065861,-0.00431635,0.00727623,-0.02041,-1.41225,0.0165733,0.0464265,1840,1310,13.5715,-2.2201
623,-286,13.2063,2.49219,0,0,0,0,0,0,0,-1,1847,1310,13.2063,-2.49217
630,-286,14.4718,0.992432,-0.0137761,0.00489742,-6.05101e-06,0.00489743,-0.0137761,-1.57047,0.01118,0.0445728,1854,1310,14.4718,-0.992468
637,-286,14.4974,1.79126,-0.0111467,0.00363639,0.00123313,0.00373854,-0.0112488,1.48814,0.00900781,0.0442108,1861,1310,14.4975,-1.79122
644,-286,14.5311,2.53967,0,0,0,0,0,0,0,-1,1868,1310,14.5312,-2.53971
651,-286,12.1426,3.60596,0,0,0,0,0,0,0,-1,1875,1310,12.1426,-3.60593
658,-286,12.0287,3.5968,0,0,0,0,0,0,0,-1,1882,1310,12.0287,-3.59683
665,-286,11.7087,3.65466,-0.00400343,0.000671389,0.0030373,0.00216656,-0.0054986,1.11335,0.00456273,0.0437148,1889,1310,11.7087,-3.65472
672,-286,11.4482,3.71057,-0.00257412,-0.000320928,0.00256225,0.00135146,-0.00424651,0.992522,0.00337299,0.0258411,1896,1310,11.4483,-3.71062
679,-286,11.3501,3.57971,-0.00231563,-0.00127337,0.00240207,0.000663443,-0.00425245,0.892218,0.00308002,0.0216254,1903,1310,11.3501,-3.57968
686,-286,11.3546,3.44104,-0.00256326,-0.00189424,0.00170759,-0.000488705,-0.00396879,0.882122,0.00249894,0.020118,1910,1310,11.3547,-3.441
693,-286,11.3464,3.32532,-0.00180367,-0.00137793,0.000408351,-0.00113029,-0.00205131,1.02567,0.00118638,0.0144438,1917,1310,11.3464,-3.32531
700,-286,11.3616,3.22351,-0.000510057,7.33045e-05,-0.000762635,0.000598135,-0.00103489,-0.968047,0.000954,0.0107647,1924,1310,11.3616,-3.22354
707,-286,11.3602,3.13342,0.000702608,0.00272016,-0.00301576,0.0048914,-0.00146863,-0.946799,0.00384513,0.00877477,1931,1310,11.3602,-3.1334
714,-286,11.3582,3.01306,0.00121075,0.00612618,-0.00631005,0.0104402,-0.00310332,-0.971106,0.00819292,0.00866329,1938,1310,11.3581,-3.01303
721,-286,11.3594,2.88843,0.0011676,0.0103605,-0.0100594,0.0168238,-0.0052957,-0.9997,0.0133363,0.0104058,1945,1310,11.3594,-2.88842
728,-286,11.3486,2.76794,-0.000327522,0.0166697,-0.0139721,0.0245249,-0.00818271,-1.05863,0.0196538,0.0127465,1952,1310,11.3486,-2.76798
735,-286,11.3479,2.6438,-0.00251269,0.0232928,-0.0182209,0.0327168,-0.0119366,-1.09348,0.026695,0.0140581,1959,1310,11.3479,-2.64378
742,-286,11.377,2.46191,-0.00575013,0.0321504,-0.0234972,0.0433867,-0.0169864,-1.12474,0.0359501,0.0233314,1966,1310,11.377,-2.46188
749,-286,11.6344,1.92908,-0.0106711,0.0430391,-0.0293056,0.0559334,-0.0235654,-1.15629,0.0471498,0.0367366,1973,1310,11.6344,-1.92905
756,-286,11.8514,1.22961,-0.0177097,0.0560105,-0.0353629,0.0702308,-0.0319299,-1.18846,0.0603484,0.0444557,1980,1310,11.8514,-1.22956
763,-286,11.7869,0.476196,0,0,0,0,0,0,0,-1,1987,1310,11.7868,-0.476137
770,-286,11.5996,-0.373535,0,0,0,0,0,0,0,-1,1994,1310,11.5996,0.373581
777,-286,0,0,0,0,0,0,0,0,0,-1,2001,1310,0,0
784,-286,0,0,0,0,0,0,0,0,0,-1,2008,1310,0,0
791,-286,0,0,0,0,0,0,0,0,0,-1,2015,1310,0,0
798,-286,0,0,0,0,0,0,0,0,0,-1,2022,1310,0,0
805,-286,0,0,0,0,0,0,0,0,0,-1,2029,1310,0,0
812,-286,0,0,0,0,0,0,0,0,0,-1,2036,1310,0,0
-700,-293,0,0,0,0,0,0,0,0,0,-1,524,1317,0,0
-693,-293,0,0,0,0,0,0,0,0,0,-1,531,1317,0,0
-686,-293,0,0,0,0,0,0,0,0,0,-1,538,1317,0,0
-679,-293,0,0,0,0,0,0,0,0,0,-1,545,1317,0,0
-672,-293,0,0,0,0,0,0,0,0,0,-1,552,1317,0,0
-665,-293,0,0,0,0,0,0,0,0,0,-1,559,1317,0,0
-658,-293,0,0,0,0,0,0,0,0,0,-1,566,1317,0,0
-651,-293,-5.01202,-1.69617,0,0,0,0,0,0,0,-1,573,1317,-5.01201,1.69612
-644,-293,-5.17291,-1.63794,0.00965013,0.0130866,-0.0148764,0.0263437,-0.0036069,-0.842894,0.0188799,0.0450761,580,1317,-5.17291,1.63792
-637,-293,-5.38367,-1.62,0.0165952,0.00891637,-0.00501289,0.0190701,0.00644151,-0.458595,0.0112016,0.0447504,587,1317,-5.38366,1.62002
-630,-293,-5.55322,-1.27625,0.0192734,0.00598577,0.000932827,0.0193386,0.00592061,0.0697467,0.0114414,0.0455923,594,1317,-5.5532,1.27627
-623,-293,-5.15808,-0.656006,0.0191858,0.00399992,0.00419184,0.0202661,0.00291967,0.252215,0.0126503,0.0446448,601,1317,-5.15807,0.656005
-616,-293,-4.84058,-0.366455,0.0174384,0.00269564,0.00564263,0.0193502,0.000783893,0.326667,0.0126469,0.0431747,608,1317,-4.8406,0.366415
-609,-293,-4.94727,0.460327,0.0148566,0.00185772,0.00591946,0.0171482,-0.000433894,0.369365,0.0115795,0.0363607,615,1317,-4.94724,-0.460307
-602,-293,-4.92151,0.77832,0.0120375,0.00131426,0.00547737,0.0143407,-0.000988878,0.398038,0.00990653,0.0236546,622,1317,-4.9215,-0.778292
-595,-293,-4.94928,0.946289,0.00942888,0.000951917,0.00465855,0.0114886,-0.00110776,0.416289,0.00805372,0.0133105,629,1317,-4.94928,-0.946326
-588,-293,-4.93518,1.06262,0.00686675,0.000417297,0.00424583,0.00897362,-0.00168957,0.46062,0.00661789,0.0135508,636,1317,-4.93521,-1.06268
-581,-293,-4.92407,1.22192,0.00466649,-0.000663122,0.00334494,0.00627834,-0.00227497,0.449045,0.00511539,0.0171288,643,1317,-4.92408,-1.22186
-574,-293,-4.92804,1.38135,0.00200355,-0.000797199,0.00161875,0.0027436,-0.00153725,0.428802,0.00250405,0.0164256,650,1317,-4.92802,-1.38133
-567,-293,-4.94958,1.52148,-0.000125376,-0.000713764,0.000443469,0.000112609,-0.00095175,0.492532,0.000675174,0.0157683,657,1317,-4.9496,-1.52148
-560,-293,-4.95508,1.6637,-0.00141309,-0.00117576,-0.000240213,-0.0010265,-0.00156235,-1.01482,0.000916733,0.0155346,664,1317,-4.95507,-1.66365
-553,-293,-4.94061,1.79834,-0.00225496,-0.00166013,-0.000825746,-0.00107987,-0.00283522,-0.958254,0.00165233,0.010203,671,1317,-4.94063,-1.79838
-546,-293,-4.9259,1.93555,-0.00289321,-0.00196789,-0.00132524,-0.00102687,-0.00383423,-0.953341,0.00229187,0.00981386,678,1317,-4.92588,-1.9356
-539,-293,-4.90399,2.07898,-0.00297647,-0.00268088,-0.00193097,-0.000892052,-0.0047653,-0.823593,0.00292521,0.020651,685,1317,-4.90397,-2.07903
-532,-293,-4.98541,2.11829,-0.00311962,-0.00397008,-0.00365878,0.00013856,-0.00722826,-0.727547,0.00486568,0.0416562,692,1317,-4.98541,-2.11832
-525,-293,-4.99121,2.14319,-0.0024894,-0.00498396,-0.00635028,0.00273493,-0.0102083,-0.688426,0.00787705,0.0498981,699,1317,-4.99121,-2.14314
-518,-293,-5.0675,2.11536,0,0,0,0,0,0,0,-1,706,1317,-5.06751,-2.1153
-511,-293,-8.30896,2.82666,0,0,0,0,0,0,0,-1,713,1317,-8.30898,-2.82671
-504,-293,-8.00336,2.91003,0,0,0,0,0,0,0,-1,720,1317,-8.00338,-2.91
-497,-293,-7.60535,2.55334,0,0,0,0,0,0,0,-1,727,1317,-7.60538,-2.55339
-490,-293,-7.89502,1.51672,0,0,0,0,0,0,0,-1,734,1317,-7.89502,-1.51668
-483,-293,-7.72186,1.13733,-0.00574112,-0.0165514,-0.0209333,0.0104736,-0.0327661,-0.659053,0.0260469,0.0446827,741,1317,-7.72185,-1.13739
-476,-293,-7.58417,0.401733,-0.00884999,-0.0189574,-0.0221835,0.00884823,-0.0366556,-0.673403,0.0278588,0.0441468,748,1317,-7.58415,-0.401762
-469,-293,0,0,0,0,0,0,0,0,0,-1,755,1317,0,0
-462,-293,0,0,0,0,0,0,0,0,0,-1,762,1317,0,0
-455,-293,0,0,0,0,0,0,0,0,0,-1,769,1317,0,0
-448,-293,0,0,0,0,0,0,0,0,0,-1,776,1317,0,0
-441,-293,0,0,0,0,0,0,0,0,0,-1,783,1317,0,0
-434,-293,0,0,0,0,0,0,0,0,0,-1,790,1317,0,0
-427,-293,0,0,0,0,0,0,0,0,0,-1,797,1317,0,0
-420,-293,0,0,0,0,0,0,0,0,0,-1,804,1317,0,0
-413,-293,0,0,0,0,0,0,0,0,0,-1,811,1317,0,0
-406,-293,0,0,0,0,0,0,0,0,0,-1,818,1317,0,0
-399,-293,0,0,0,0,0,0,0,0,0,-1,825,1317,0,0
-392,-293,0,0,0,0,0,0,0,0,0,-1,832,1317,0,0
-385,-293,0,0,0,0,0,0,0,0,0,-1,839,1317,0,0
-378,-293,0,0,0,0,0,0,0,0,0,-1,846,1317,0,0
-371,-293,0,0,0,0,0,0,0,0,0,-1,853,1317,0,0
-364,-293,0,0,0,0,0,0,0,0,0,-1,860,1317,0,0
-357,-293,0,0,0,0,0,0,0,0,0,-1,867,1317,0,0
-350,-293,0,0,0,0,0,0,0,0,0,-1,874,1317,0,0
-343,-293,0,0,0,0,0,0,0,0,0,-1,881,1317,0,0
-336,-293,0,0,0,0,0,0,0,0,0,-1,888,1317,0,0
-329,-293,0,0,0,0,0,0,0,0,0,-1,895,1317,0,0
-322,-293,0,0,0,0,0,0,0,0,0,-1,902,1317,0,0
-315,-293,0,0,0,0,0,0,0,0,0,-1,909,1317,0,0
-308,-293,0,0,0,0,0,0,0,0,0,-1,916,1317,0,0
-301,-293,0,0,0,0,0,0,0,0,0,-1,923,1317,0,0
-294,-293,0,0,0,0,0,0,0,0,0,-1,930,1317,0,0
-287,-293,0,0,0,0,0,0,0,0,0,-1,937,1317,0,0
-280,-293,0,0,0,0,0,0,0,0,0,-1,944,1317,0,0
-273,-293,0,0,0,0,0,0,0,0,0,-1,951,1317,0,0
-266,-293,0,0,0,0,0,0,0,0,0,-1,958,1317,0,0
-259,-293,0,0,0,0,0,0,0,0,0,-1,965,1317,0,0
-252,-293,0,0,0,0,0,0,0,0,0,-1,972,1317,0,0
-245,-293,0,0,0,0,0,0,0,0,0,-1,979,1317,0,0
-238,-293,0,0,0,0,0,0,0,0,0,-1,986,1317,0,0
-231,-293,0,0,0,0,0,0,0,0,0,-1,993,1317,0,0
-224,-293,0,0,0,0,0,0,0,0,0,-1,1000,1317,0,0
-217,-293,0,0,0,0,0,0,0,0,0,-1,1007,1317,0,0
-210,-293,0,0,0,0,0,0,0,0,0,-1,1014,1317,0,0
-203,-293,0,0,0,0,0,0,0,0,0,-1,1021,1317,0,0
-196,-293,0,0,0,0,0,0,0,0,0,-1,1028,1317,0,0
-189,-293,0,0,0,0,0,0,0,0,0,-1,1035,1317,0,0
-182,-293,0,0,0,0,0,0,0,0,0,-1,1042,1317,0,0
-175,-293,0,0,0,0,0,0,0,0,0,-1,1049,1317,0,0
-168,-293,0,0,0,0,0,0,0,0,0,-1,1056,1317,0,0
-161,-293,0,0,0,0,0,0,0,0,0,-1,1063,1317,0,0
-154,-293,0,0,0,0,0,0,0,0,0,-1,1070,1317,0,0
-147,-293,0,0,0,0,0,0,0,0,0,-1,1077,1317,0,0
-140,-293,0,0,0,0,0,0,0,0,0,-1,1084,1317,0,0
-133,-293,0,0,0,0,0,0,0,0,0,-1,1091,1317,0,0
-126,-293,0,0,0,0,0,0,0,0,0,-1,1098,1317,0,0
-119,-293,0,0,0,0,0,0,0,0,0,-1,1105,1317,0,0
-112,-293,0,0,0,0,0,0,0,0,0,-1,1112,1317,0,0
-105,-293,0,0,0,0,0,0,0,0,0,-1,1119,1317,0,0
-98,-293,0,0,0,0,0,0,0,0,0,-1,1126,1317,0,0
-91,-293,0,0,0,0,0,0,0,0,0,-1,1133,1317,0,0
-84,-293,0,0,0,0,0,0,0,0,0,-1,1140,1317,0,0
-77,-293,0,0,0,0,0,0,0,0,0,-1,1147,1317,0,0
-70,-293,0,0,0,0,0,0,0,0,0,-1,1154,1317,0,0
-63,-293,0,0,0,0,0,0,0,0,0,-1,1161,1317,0,0
-56,-293,0,0,0,0,0,0,0,0,0,-1,1168,1317,0,0
-49,-293,0,0,0,0,0,0,0,0,0,-1,1175,1317,0,0
-42,-293,0,0,0,0,0,0,0,0,0,-1,1182,1317,0,0
-35,-293,0,0,0,0,0,0,0,0,0,-1,1189,1317,0,0
-28,-293,0,0,0,0,0,0,0,0,0,-1,1196,1317,0,0
-21,-293,0,0,0,0,0,0,0,0,0,-1,1203,1317,0,0
-14,-293,0,0,0,0,0,0,0,0,0,-1,1210,1317,0,0
-7,-293,0,0,0,0,0,0,0,0,0,-1,1217,1317,0,0
0,-293,0,0,0,0,0,0,0,0,0,-1,1224,1317,0,0
7,-293,0,0,0,0,0,0,0,0,0,-1,1231,1317,0,0
14,-293,0,0,0,0,0,0,0,0,0,-1,1238,1317,0,0
21,-293,0,0,0,0,0,0,0,0,0,-1,1245,1317,0,0
28,-293,0,0,0,0,0,0,0,0,0,-1,1252,1317,0,0
35,-293,0,0,0,0,0,0,0,0,0,-1,1259,1317,0,0
42,-293,0,0,0,0,0,0,0,0,0,-1,1266,1317,0,0
49,-293,0,0,0,0,0,0,0,0,0,-1,1273,1317,0,0
56,-293,0,0,0,0,0,0,0,0,0,-1,1280,1317,0,0
63,-293,0,0,0,0,0,0,0,0,0,-1,1287,1317,0,0
70,-293,0,0,0,0,0,0,0,0,0,-1,1294,1317,0,0
77,-293,0,0,0,0,0,0,0,0,0,-1,1301,1317,0,0
84,-293,0,0,0,0,0,0,0,0,0,-1,1308,1317,0,0
91,-293,0,0,0,0,0,0,0,0,0,-1,1315,1317,0,0
98,-293,0,0,0,0,0,0,0,0,0,-1,1322,1317,0,0
105,-293,0,0,0,0,0,0,0,0,0,-1,1329,1317,0,0
112,-293,0,0,0,0,0,0,0,0,0,-1,1336,1317,0,0
119,-293,0,0,0,0,0,0,0,0,0,-1,1343,1317,0,0
126,-293,0,0,0,0,0,0,0,0,0,-1,1350,1317,0,0
133,-293,0,0,0,0,0,0,0,0,0,-1,1357,1317,0,0
140,-293,0,0,0,0,0,0,0,0,0,-1,1364,1317,0,0
147,-293,0,0,0,0,0,0,0,0,0,-1,1371,1317,0,0
154,-293,0,0,0,0,0,0,0,0,0,-1,1378,1317,0,0
161,-293,0,0,0,0,0,0,0,0,0,-1,1385,1317,0,0
168,-293,0,0,0,0,0,0,0,0,0,-1,1392,1317,0,0
175,-293,0,0,0,0,0,0,0,0,0,-1,1399,1317,0,0
182,-293,0,0,0,0,0,0,0,0,0,-1,1406,1317,0,0
189,-293,0,0,0,0,0,0,0,0,0,-1,1413,1317,0,0
196,-293,0,0,0,0,0,0,0,0,0,-1,1420,1317,0,0
203,-293,0,0,0,0,0,0,0,0,0,-1,1427,1317,0,0
210,-293,0,0,0,0,0,0,0,0,0,-1,1434,1317,0,0
217,-293,0,0,0,0,0,0,0,0,0,-1,1441,1317,0,0
224,-293,0,0,0,0,0,0,0,0,0,-1,1448,1317,0,0
231,-293,0,0,0,0,0,0,0,0,0,-1,1455,1317,0,0
238,-293,0,0,0,0,0,0,0,0,0,-1,1462,1317,0,0
245,-293,0,0,0,0,0,0,0,0,0,-1,1469,1317,0,0
252,-293,0,0,0,0,0,0,0,0,0,-1,1476,1317,0,0
259,-293,0,0,0,0,0,0,0,0,0,-1,1483,1317,0,0
266,-293,0,0,0,0,0,0,0,0,0,-1,1490,1317,0,0
273,-293,0,0,0,0,0,0,0,0,0,-1,1497,1317,0,0
280,-293,0,0,0,0,0,0,0,0,0,-1,1504,1317,0,0
287,-293,0,0,0,0,0,0,0,0,0,-1,1511,1317,0,0
294,-293,0,0,0,0,0,0,0,0,0,-1,1518,1317,0,0
301,-293,0,0,0,0,0,0,0,0,0,-1,1525,1317,0,0
308,-293,0,0,0,0,0,0,0,0,0,-1,1532,1317,0,0
315,-293,0,0,0,0,0,0,0,0,0,-1,1539,1317,0,0
322,-293,0,0,0,0,0,0,0,0,0,-1,1546,1317,0,0
329,-293,0,0,0,0,0,0,0,0,0,-1,1553,1317,0,0
336,-293,0,0,0,0,0,0,0,0,0,-1,1560,1317,0,0
343,-293,0,0,0,0,0,0,0,0,0,-1,1567,1317,0,0
350,-293,0,0,0,0,0,0,0,0,0,-1,1574,1317,0,0
357,-293,0,0,0,0,0,0,0,0,0,-1,1581,1317,0,0
364,-293,0,0,0,0,0,0,0,0,0,-1,1588,1317,0,0
371,-293,0,0,0,0,0,0,0,0,0,-1,1595,1317,0,0
378,-293,0,0,0,0,0,0,0,0,0,-1,1602,1317,0,0
385,-293,0,0,0,0,0,0,0,0,0,-1,1609,1317,0,0
392,-293,0,0,0,0,0,0,0,0,0,-1,1616,1317,0,0
399,-293,0,0,0,0,0,0,0,0,0,-1,1623,1317,0,0
406,-293,0,0,0,0,0,0,0,0,0,-1,1630,1317,0,0
413,-293,0,0,0,0,0,0,0,0,0,-1,1637,1317,0,0
420,-293,0,0,0,0,0,0,0,0,0,-1,1644,1317,0,0
427,-293,0,0,0,0,0,0,0,0,0,-1,1651,1317,0,0
434,-293,0,0,0,0,0,0,0,0,0,-1,1658,1317,0,0
441,-293,0,0,0,0,0,0,0,0,0,-1,1665,1317,0,0
448,-293,0,0,0,0,0,0,0,0,0,-1,1672,1317,0,0
455,-293,0,0,0,0,0,0,0,0,0,-1,1679,1317,0,0
462,-293,0,0,0,0,0,0,0,0,0,-1,1686,1317,0,0
469,-293,0,0,0,0,0,0,0,0,0,-1,1693,1317,0,0
476,-293,0,0,0,0,0,0,0,0,0,-1,1700,1317,0,0
483,-293,0,0,0,0,0,0,0,0,0,-1,1707,1317,0,0
490,-293,0,0,0,0,0,0,0,0,0,-1,1714,1317,0,0
497,-293,0,0,0,0,0,0,0,0,0,-1,1721,1317,0,0
504,-293,0,0,0,0,0,0,0,0,0,-1,1728,1317,0,0
511,-293,0,0,0,0,0,0,0,0,0,-1,1735,1317,0,0
518,-293,0,0,0,0,0,0,0,0,0,-1,1742,1317,0,0
525,-293,0,0,0,0,0,0,0,0,0,-1,1749,1317,0,0
532,-293,0,0,0,0,0,0,0,0,0,-1,1756,1317,0,0
539,-293,0,0,0,0,0,0,0,0,0,-1,1763,1317,0,0
546,-293,0,0,0,0,0,0,0,0,0,-1,1770,1317,0,0
553,-293,0,0,0,0,0,0,0,0,0,-1,1777,1317,0,0
560,-293,0,0,0,0,0,0,0,0,0,-1,1784,1317,0,0
567,-293,0,0,0,0,0,0,0,0,0,-1,1791,1317,0,0
574,-293,0,0,0,0,0,0,0,0,0,-1,1798,1317,0,0
581,-293,0,0,0,0,0,0,0,0,0,-1,1805,1317,0,0
588,-293,0,0,0,0,0,0,0,0,0,-1,1812,1317,0,0
595,-293,14.0471,1.99341,-0.0268168,0.00535225,-0.0217799,0.0163431,-0.0378077,-1.10345,0.0320722,0.0431533,1819,1317,14.0472,-1.99342
602,-293,14.1201,1.91895,-0.0305898,0.00746701,-0.015424,0.0129331,-0.0360559,-1.23022,0.0293152,0.0481958,1826,1317,14.1201,-1.91893
609,-293,13.5096,2.06226,0,0,0,0,0,0,0,-1,1833,1317,13.5096,-2.06226
616,-293,13.1936,2.06873,0,0,0,0,0,0,0,-1,1840,1317,13.1936,-2.06868
623,-293,13.0358,2.47827,0,0,0,0,0,0,0,-1,1847,1317,13.0358,-2.47824
630,-293,14.8121,0.602417,0,0,0,0,0,0,0,-1,1854,1317,14.8121,-0.602368
637,-293,14.9958,1.25989,0,0,0,0,0,0,0,-1,1861,1317,14.9959,-1.25988
644,-293,14.9752,2.09839,0,0,0,0,0,0,0,-1,1868,1317,14.9752,-2.09844
651,-293,11.6486,3.59314,0,0,0,0,0,0,0,-1,1875,1317,11.6486,-3.59315
658,-293,11.8373,3.50439,0,0,0,0,0,0,0,-1,1882,1317,11.8373,-3.50441
665,-293,11.4772,3.61719,-0.00444202,0.000228135,0.00380107,0.00235408,-0.00656796,1.06084,0.00533922,0.0305226,1889,1317,11.4772,-3.61715
672,-293,11.2563,3.71082,-0.00252936,-0.000861324,0.00324981,0.00165978,-0.00505046,0.911005,0.00403566,0.0157811,1896,1317,11.2563,-3.71087
679,-293,11.2543,3.5686,-0.00216006,-0.00173478,0.00285154,0.00091204,-0.00480687,0.822614,0.00354789,0.0125273,1903,1317,11.2543,-3.56866
686,-293,11.2571,3.42151,-0.0023706,-0.00211868,0.00180771,-0.000432544,-0.00405673,0.820181,0.00257246,0.0147199,1910,1317,11.257,-3.42148
693,-293,11.2609,3.32166,-0.00154149,-0.0013785,0.000135378,-0.00130198,-0.00161801,1.05633,0.000990284,0.0115905,1917,1317,11.2608,-3.32161
700,-293,11.2521,3.20874,-0.00028377,0.000178997,-0.00155705,0.00152176,-0.00162654,-0.85916,0.00181801,0.010892,1924,1317,11.2521,-3.20874
707,-293,11.238,3.11829,0.000953043,0.00297909,-0.0043298,0.0064128,-0.00248066,-0.900314,0.00529929,0.0112064,1931,1317,11.238,-3.11824
714,-293,11.2393,3.01013,0.00157708,0.00650407,-0.00807378,0.0124818,-0.00440067,-0.933473,0.0101125,0.007672,1938,1317,11.2392,-3.01016
721,-293,11.2592,2.88477,0.0016856,0.0108506,-0.0123934,0.0194815,-0.00694537,-0.962479,0.0158195,0.00865501,1945,1317,11.2591,-2.88473
728,-293,11.2539,2.7511,0.000340047,0.0174204,-0.0171234,0.0280151,-0.0102547,-1.01672,0.0228745,0.0105622,1952,1317,11.2539,-2.75111
735,-293,11.2339,2.62378,-0.00175079,0.0247187,-0.0224858,0.0375755,-0.0146076,-1.05139,0.0310854,0.0139961,1959,1317,11.2339,-2.62382
742,-293,11.2349,2.44714,-0.00502934,0.0345302,-0.0290015,0.0498549,-0.020354,-1.08468,0.0417109,0.0237708,1966,1317,11.2348,-2.44717
749,-293,11.5844,1.46069,-0.0101414,0.0467724,-0.0362481,0.0643994,-0.0277683,-1.11818,0.054596,0.0372941,1973,1317,11.5843,-1.46067
756,-293,11.6738,0.412964,-0.017594,0.061574,-0.0439326,0.0811252,-0.0371452,-1.15209,0.0698394,0.0423074,1980,1317,11.6738,-0.412937
763,-293,11.3689,-0.390381,0,0,0,0,0,0,0,-1,1987,1317,11.3689,0.390394
770,-293,13.8317,2.21094,0,0,0,0,0,0,0,-1,1994,1317,13.8317,-2.21088
777,-293,0,0,0,0,0,0,0,0,0,-1,2001,1317,0,0
784,-293,0,0,0,0,0,0,0,0,0,-1,2008,1317,0,0
791,-293,0,0,0,0,0,0,0,0,0,-1,2015,1317,0,0
798,-293,0,0,0,0,0,0,0,0,0,-1,2022,1317,0,0
805,-293,0,0,0,0,0,0,0,0,0,-1,2029,1317,0,0
812,-293,0,0,0,0,0,0,0,0,0,-1,2036,1317,0,0
-700,-300,0,0,0,0,0,0,0,0,0,-1,524,1324,0,0
-693,-300,0,0,0,0,0,0,0,0,0,-1,531,1324,0,0
-686,-300,0,0,0,0,0,0,0,0,0,-1,538,1324,0,0
-679,-300,0,0,0,0,0,0,0,0,0,-1,545,1324,0,0
-672,-300,0,0,0,0,0,0,0,0,0,-1,552,1324,0,0
-665,-300,0,0,0,0,0,0,0,0,0,-1,559,1324,0,0
-658,-300,0,0,0,0,0,0,0,0,0,-1,566,1324,0,0
-651,-300,-5.05219,-1.50476,0,0,0,0,0,0,0,-1,573,1324,-5.05221,1.50473
-644,-300,-5.19635,-0.925537,0.0164517,0.00485396,-0.0227518,0.034132,-0.0128264,-0.660617,0.0280262,0.045711,580,1324,-5.19634,0.925547
-637,-300,-5.56793,-1.4425,0.0235874,0.00104741,-0.0105697,0.0277683,-0.0031335,-0.376671,0.0196402,0.0433166,587,1324,-5.56795,1.44255
-630,-300,-4.95953,-1.18652,0,0,0,0,0,0,0,-1,594,1324,-4.95952,1.18649
-623,-300,-4.81598,-0.820679,0.0248436,-0.00186708,0.00147482,0.0249248,-0.00194827,0.0549916,0.0173026,0.044604,601,1324,-4.81596,0.820715
-616,-300,-4.66876,-0.375122,0.0221116,-0.0020233,0.00378682,0.0226918,-0.00260352,0.152036,0.0160662,0.0417171,608,1324,-4.66874,0.375103
-609,-300,-4.76874,0.411621,0.0185363,-0.00178888,0.00467141,0.0195585,-0.00281111,0.215432,0.01407,0.0384972,615,1324,-4.76873,-0.411664
-602,-300,-4.74377,0.772217,0.0147919,-0.00139483,0.00464347,0.0160293,-0.00263229,0.260443,0.0116631,0.0298683,622,1324,-4.7438,-0.772267
-595,-300,-4.82166,0.94519,0.0113963,-0.000994038,0.00410471,0.0126328,-0.00223047,0.292578,0.00925536,0.0171115,629,1324,-4.82167,-0.945186
-588,-300,-4.79895,1.08154,0.00842387,-0.000868097,0.00400832,0.00991399,-0.00235822,0.355925,0.00751969,0.0199101,636,1324,-4.79896,-1.08149
-581,-300,-4.78302,1.25049,0.00592067,-0.00139899,0.00328586,0.0071793,-0.00265762,0.365804,0.00587594,0.019792,643,1324,-4.78305,-1.25047
-574,-300,-4.78864,1.40808,0.00309166,-0.000926118,0.00151771,0.00360052,-0.00143498,0.323505,0.00299552,0.0153209,650,1324,-4.78866,-1.40811
-567,-300,-4.80957,1.53064,0.000746637,-0.000564132,0.000401985,0.000860097,-0.000677592,0.275092,0.000889867,0.0157703,657,1324,-4.80957,-1.5306
-560,-300,-4.82013,1.68152,-0.000674088,-0.000837714,-0.00017288,-0.000564639,-0.000947163,-0.564395,0.000550204,0.0143649,664,1324,-4.82013,-1.68148
-553,-300,-4.79193,1.81641,-0.00128994,-0.00127176,-0.000725768,-0.000555022,-0.00200667,-0.791661,0.00119648,0.00990561,671,1324,-4.79193,-1.81639
-546,-300,-4.78082,1.94666,-0.00169895,-0.00160325,-0.00118015,-0.00046998,-0.00283222,-0.805661,0.00175262,0.00901688,678,1324,-4.78084,-1.94662
-539,-300,-4.77051,2.08472,-0.00162766,-0.00240678,-0.00174916,-0.000225205,-0.00380924,-0.675829,0.00246785,0.0127323,685,1324,-4.77051,-2.08468
-532,-300,-4.83344,2.14844,-0.0017957,-0.00373017,-0.00353502,0.000902024,-0.0064279,-0.65186,0.00461541,0.0270748,692,1324,-4.83345,-2.14843
-525,-300,-4.89758,2.63892,-0.00128535,-0.0048392,-0.00639843,0.00357831,-0.00970287,-0.649955,0.00793501,0.0422107,699,1324,-4.89757,-2.63888
-518,-300,-5.03278,2.89685,0,0,0,0,0,0,0,-1,706,1324,-5.03279,-2.89685
-511,-300,-8.26294,2.84253,0,0,0,0,0,0,0,-1,713,1324,-8.26295,-2.8425
-504,-300,-8.30853,2.73877,0,0,0,0,0,0,0,-1,720,1324,-8.30852,-2.73882
-497,-300,-8.2619,2.33325,0,0,0,0,0,0,0,-1,727,1324,-8.2619,-2.33331
-490,-300,-8.16357,1.88074,0,0,0,0,0,0,0,-1,734,1324,-8.1636,-1.8808
-483,-300,-7.83148,1.32666,-0.010637,-0.0132075,-0.0225588,0.0106732,-0.0345177,-0.756941,0.0272747,0.0448431,741,1324,-7.8315,-1.32662
-476,-300,-7.78912,0.704346,-0.0154059,-0.0135669,-0.0242831,0.00981415,-0.0387869,-0.804322,0.0296753,0.0451327,748,1324,-7.7891,-0.704348
-469,-300,0,0,0,0,0,0,0,0,0,-1,755,1324,0,0
-462,-300,0,0,0,0,0,0,0,0,0,-1,762,1324,0,0
-455,-300,0,0,0,0,0,0,0,0,0,-1,769,1324,0,0
-448,-300,0,0,0,0,0,0,0,0,0,-1,776,1324,0,0
-441,-300,0,0,0,0,0,0,0,0,0,-1,783,1324,0,0
-434,-300,0,0,0,0,0,0,0,0,0,-1,790,1324,0,0
-427,-300,0,0,0,0,0,0,0,0,0,-1,797,1324,0,0
-420,-300,0,0,0,0,0,0,0,0,0,-1,804,1324,0,0
-413,-300,0,0,0,0,0,0,0,0,0,-1,811,1324,0,0
-406,-300,0,0,0,0,0,0,0,0,0,-1,818,1324,0,0
-399,-300,0,0,0,0,0,0,0,0,0,-1,825,1324,0,0
-392,-300,0,0,0,0,0,0,0,0,0,-1,832,1324,0,0
-385,-300,0,0,0,0,0,0,0,0,0,-1,839,1324,0,0
-378,-300,0,0,0,0,0,0,0,0,0,-1,846,1324,0,0
-371,-300,0,0,0,0,0,0,0,0,0,-1,853,1324,0,0
-364,-300,0,0,0,0,0,0,0,0,0,-1,860,1324,0,0
-357,-300,0,0,0,0,0,0,0,0,0,-1,867,1324,0,0
-350,-300,0,0,0,0,0,0,0,0,0,-1,874,1324,0,0
-343,-300,0,0,0,0,0,0,0,0,0,-1,881,1324,0,0
-336,-300,0,0,0,0,0,0,0,0,0,-1,888,1324,0,0
-329,-300,0,0,0,0,0,0,0,0,0,-1,895,1324,0,0
-322,-300,0,0,0,0,0,0,0,0,0,-1,902,1324,0,0
-315,-300,0,0,0,0,0,0,0,0,0,-1,909,1324,0,0
-308,-300,0,0,0,0,0,0,0,0,0,-1,916,1324,0,0
-301,-300,0,0,0,0,0,0,0,0,0,-1,923,1324,0,0
-294,-300,0,0,0,0,0,0,0,0,0,-1,930,1324,0,0
-287,-300,0,0,0,0,0,0,0,0,0,-1,937,1324,0,0
-280,-300,0,0,0,0,0,0,0,0,0,-1,944,1324,0,0
-273,-300,0,0,0,0,0,0,0,0,0,-1,951,1324,0,0
-266,-300,0,0,0,0,0,0,0,0,0,-1,958,1324,0,0
-259,-300,0,0,0,0,0,0,0,0,0,-1,965,1324,0,0
-252,-300,0,0,0,0,0,0,0,0,0,-1,972,1324,0,0
-245,-300,0,0,0,0,0,0,0,0,0,-1,979,1324,0,0
-238,-300,0,0,0,0,0,0,0,0,0,-1,986,1324,0,0
-231,-300,0,0,0,0,0,0,0,0,0,-1,993,1324,0,0
-224,-300,0,0,0,0,0,0,0,0,0,-1,1000,1324,0,0
-217,-300,0,0,0,0,0,0,0,0,0,-1,1007,1324,0,0
-210,-300,0,0,0,0,0,0,0,0,0,-1,1014,1324,0,0
-203,-300,0,0,0,0,0,0,0,0,0,-1,1021,1324,0,0
-196,-300,0,0,0,0,0,0,0,0,0,-1,1028,1324,0,0
-189,-300,0,0,0,0,0,0,0,0,0,-1,1035,1324,0,0
-182,-300,0,0,0,0,0,0,0,0,0,-1,1042,1324,0,0
-175,-300,0,0,0,0,0,0,0,0,0,-1,1049,1324,0,0
-168,-300,0,0,0,0,0,0,0,0,0,-1,1056,1324,0,0
-161,-300,0,0,0,0,0,0,0,0,0,-1,1063,1324,0,0
-154,-300,0,0,0,0,0,0,0,0,0,-1,1070,1324,0,0
-147,-300,0,0,0,0,0,0,0,0,0,-1,1077,1324,0,0
-140,-300,0,0,0,0,0,0,0,0,0,-1,1084,1324,0,0
-133,-300,0,0,0,0,0,0,0,0,0,-1,1091,1324,0,0
-126,-300,0,0,0,0,0,0,0,0,0,-1,1098,1324,0,0
-119,-300,0,0,0,0,0,0,0,0,0,-1,1105,1324,0,0
-112,-300,0,0,0,0,0,0,0,0,0,-1,1112,1324,0,0
-105,-300,0,0,0,0,0,0,0,0,0,-1,1119,1324,0,0
-98,-300,0,0,0,0,0,0,0,0,0,-1,1126,1324,0,0
-91,-300,0,0,0,0,0,0,0,0,0,-1,1133,1324,0,0
-84,-300,0,0,0,0,0,0,0,0,0,-1,1140,1324,0,0
-77,-300,0,0,0,0,0,0,0,0,0,-1,1147,1324,0,0
-70,-300,0,0,0,0,0,0,0,0,0,-1,1154,1324,0,0
-63,-300,0,0,0,0,0,0,0,0,0,-1,1161,1324,0,0
-56,-300,0,0,0,0,0,0,0,0,0,-1,1168,1324,0,0
-49,-300,0,0,0,0,0,0,0,0,0,-1,1175,1324,0,0
-42,-300,0,0,0,0,0,0,0,0,0,-1,1182,1324,0,0
-35,-300,0,0,0,0,0,0,0,0,0,-1,1189,1324,0,0
-28,-300,0,0,0,0,0,0,0,0,0,-1,1196,1324,0,0
-21,-300,0,0,0,0,0,0,0,0,0,-1,1203,1324,0,0
-14,-300,0,0,0,0,0,0,0,0,0,-1,1210,1324,0,0
-7,-300,0,0,0,0,0,0,0,0,0,-1,1217,1324,0,0
0,-300,0,0,0,0,0,0,0,0,0,-1,1224,1324,0,0
7,-300,0,0,0,0,0,0,0,0,0,-1,1231,1324,0,0
14,-300,0,0,0,0,0,0,0,0,0,-1,1238,1324,0,0
21,-300,0,0,0,0,0,0,0,0,0,-1,1245,1324,0,0
28,-300,0,0,0,0,0,0,0,0,0,-1,1252,1324,0,0
35,-300,0,0,0,0,0,0,0,0,0,-1,1259,1324,0,0
42,-300,0,0,0,0,0,0,0,0,0,-1,1266,1324,0,0
49,-300,0,0,0,0,0,0,0,0,0,-1,1273,1324,0,0
56,-300,0,0,0,0,0,0,0,0,0,-1,1280,1324,0,0
63,-300,0,0,0,0,0,0,0,0,0,-1,1287,1324,0,0
70,-300,0,0,0,0,0,0,0,0,0,-1,1294,1324,0,0
77,-300,0,0,0,0,0,0,0,0,0,-1,1301,1324,0,0
84,-300,0,0,0,0,0,0,0,0,0,-1,1308,1324,0,0
91,-300,0,0,0,0,0,0,0,0,0,-1,1315,1324,0,0
98,-300,0,0,0,0,0,0,0,0,0,-1,1322,1324,0,0
105,-300,0,0,0,0,0,0,0,0,0,-1,1329,1324,0,0
112,-300,0,0,0,0,0,0,0,0,0,-1,1336,1324,0,0
119,-300,0,0,0,0,0,0,0,0,0,-1,1343,1324,0,0
126,-300,0,0,0,0,0,0,0,0,0,-1,1350,1324,0,0
133,-300,0,0,0,0,0,0,0,0,0,-1,1357,1324,0,0
140,-300,0,0,0,0,0,0,0,0,0,-1,1364,1324,0,0
147,-300,0,0,0,0,0,0,0,0,0,-1,1371,1324,0,0
154,-300,0,0,0,0,0,0,0,0,0,-1,1378,1324,0,0
161,-300,0,0,0,0,0,0,0,0,0,-1,1385,1324,0,0
168,-300,0,0,0,0,0,0,0,0,0,-1,1392,1324,0,0
175,-300,0,0,0,0,0,0,0,0,0,-1,1399,1324,0,0
182,-300,0,0,0,0,0,0,0,0,0,-1,1406,1324,0,0
189,-300,0,0,0,0,0,0,0,0,0,-1,1413,1324,0,0
196,-300,0,0,0,0,0,0,0,0,0,-1,1420,1324,0,0
203,-300,0,0,0,0,0,0,0,0,0,-1,1427,1324,0,0
210,-300,0,0,0,0,0,0,0,0,0,-1,1434,1324,0,0
217,-300,0,0,0,0,0,0,0,0,0,-1,1441,1324,0,0
224,-300,0,0,0,0,0,0,0,0,0,-1,1448,1324,0,0
231,-300,0,0,0,0,0,0,0,0,0,-1,1455,1324,0,0
238,-300,0,0,0,0,0,0,0,0,0,-1,1462,1324,0,0
245,-300,0,0,0,0,0,0,0,0,0,-1,1469,1324,0,0
252,-300,0,0,0,0,0,0,0,0,0,-1,1476,1324,0,0
259,-300,0,0,0,0,0,0,0,0,0,-1,1483,1324,0,0
266,-300,0,0,0,0,0,0,0,0,0,-1,1490,1324,0,0
273,-300,0,0,0,0,0,0,0,0,0,-1,1497,1324,0,0
280,-300,0,0,0,0,0,0,0,0,0,-1,1504,1324,0,0
287,-300,0,0,0,0,0,0,0,0,0,-1,1511,1324,0,0
294,-300,0,0,0,0,0,0,0,0,0,-1,1518,1324,0,0
301,-300,0,0,0,0,0,0,0,0,0,-1,1525,1324,0,0
308,-300,0,0,0,0,0,0,0,0,0,-1,1532,1324,0,0
315,-300,0,0,0,0,0,0,0,0,0,-1,1539,1324,0,0
322,-300,0,0,0,0,0,0,0,0,0,-1,1546,1324,0,0
329,-300,0,0,0,0,0,0,0,0,0,-1,1553,1324,0,0
336,-300,0,0,0,0,0,0,0,0,0,-1,1560,1324,0,0
343,-300,0,0,0,0,0,0,0,0,0,-1,1567,1324,0,0
350,-300,0,0,0,0,0,0,0,0,0,-1,1574,1324,0,0
357,-300,0,0,0,0,0,0,0,0,0,-1,1581,1324,0,0
364,-300,0,0,0,0,0,0,0,0,0,-1,1588,1324,0,0
371,-300,0,0,0,0,0,0,0,0,0,-1,1595,1324,0,0
378,-300,0,0,0,0,0,0,0,0,0,-1,1602,1324,0,0
385,-300,0,0,0,0,0,0,0,0,0,-1,1609,1324,0,0
392,-300,0,0,0,0,0,0,0,0,0,-1,1616,1324,0,0
399,-300,0,0,0,0,0,0,0,0,0,-1,1623,1324,0,0
406,-300,0,0,0,0,0,0,0,0,0,-1,1630,1324,0,0
413,-300,0,0,0,0,0,0,0,0,0,-1,1637,1324,0,0
420,-300,0,0,0,0,0,0,0,0,0,-1,1644,1324,0,0
427,-300,0,0,0,0,0,0,0,0,0,-1,1651,1324,0,0
434,-300,0,0,0,0,0,0,0,0,0,-1,1658,1324,0,0
441,-300,0,0,0,0,0,0,0,0,0,-1,1665,1324,0,0
448,-300,0,0,0,0,0,0,0,0,0,-1,1672,1324,0,0
455,-300,0,0,0,0,0,0,0,0,0,-1,1679,1324,0,0
462,-300,0,0,0,0,0,0,0,0,0,-1,1686,1324,0,0
469,-300,0,0,0,0,0,0,0,0,0,-1,1693,1324,0,0
476,-300,0,0,0,0,0,0,0,0,0,-1,1700,1324,0,0
483,-300,0,0,0,0,0,0,0,0,0,-1,1707,1324,0,0
490,-300,0,0,0,0,0,0,0,0,0,-1,1714,1324,0,0
497,-300,0,0,0,0,0,0,0,0,0,-1,1721,1324,0,0
504,-300,0,0,0,0,0,0,0,0,0,-1,1728,1324,0,0
511,-300,0,0,0,0,0,0,0,0,0,-1,1735,1324,0,0
518,-300,0,0,0,0,0,0,0,0,0,-1,1742,1324,0,0
525,-300,0,0,0,0,0,0,0,0,0,-1,1749,1324,0,0
532,-300,0,0,0,0,0,0,0,0,0,-1,1756,1324,0,0
539,-300,0,0,0,0,0,0,0,0,0,-1,1763,1324,0,0
546,-300,0,0,0,0,0,0,0,0,0,-1,1770,1324,0,0
553,-300,0,0,0,0,0,0,0,0,0,-1,1777,1324,0,0
560,-300,0,0,0,0,0,0,0,0,0,-1,1784,1324,0,0
567,-300,0,0,0,0,0,0,0,0,0,-1,1791,1324,0,0
574,-300,0,0,0,0,0,0,0,0,0,-1,1798,1324,0,0
581,-300,0,0,0,0,0,0,0,0,0,-1,1805,1324,0,0
588,-300,14.4235,2.36609,-0.0260373,0.00579697,-0.0326385,0.0261927,-0.046433,-1.01227,0.0424698,0.0404137,1812,1324,14.4235,-2.36606
595,-300,14.2317,2.35901,-0.0367171,0.00906396,-0.0249959,0.020067,-0.0477201,-1.15613,0.0402078,0.0405333,1819,1324,14.2317,-2.359
602,-300,14.1632,1.97522,-0.038611,0.00974958,-0.0179125,0.0156616,-0.044523,-1.25201,0.0360548,0.0465246,1826,1324,14.1632,-1.97526
609,-300,14.0496,1.8678,0,0,0,0,0,0,0,-1,1833,1324,14.0496,-1.86774
616,-300,13.5284,2.25452,-0.0308717,0.00786232,-0.0068518,0.00903863,-0.0320481,-1.40077,0.0249305,0.0489956,1840,1324,13.5285,-2.25453
623,-300,13.1263,2.3186,-0.025955,0.00636081,-0.0032977,0.00669389,-0.0262881,-1.47013,0.0201312,0.0470399,1847,1324,13.1263,-2.3186
630,-300,12.8258,2.20923,0,0,0,0,0,0,0,-1,1854,1324,12.8258,-2.20926
637,-300,15.3722,0.876221,0,0,0,0,0,0,0,-1,1861,1324,15.3722,-0.876236
644,-300,10.714,4.97107,0,0,0,0,0,0,0,-1,1868,1324,10.714,-4.97104
651,-300,11.4541,3.60718,0,0,0,0,0,0,0,-1,1875,1324,11.4541,-3.60719
658,-300,11.26,3.75232,-0.00814919,0.000359703,0.004218,0.00209624,-0.00988573,1.18025,0.00738902,0.0406419,1882,1324,11.26,-3.75233
665,-300,11.1771,3.80664,-0.00444292,-5.98509e-05,0.00441731,0.00267969,-0.00718246,1.01567,0.00588842,0.0257251,1889,1324,11.1772,-3.8067
672,-300,11.1093,3.73486,-0.00203578,-0.00130438,0.00375224,0.00209995,-0.0054401,0.833976,0.00449337,0.0114948,1896,1324,11.1093,-3.73492
679,-300,11.1267,3.5885,-0.00151538,-0.00211364,0.00307116,0.00127119,-0.0049002,0.736852,0.0037628,0.0114163,1903,1324,11.1267,-3.58852
686,-300,11.1558,3.45557,-0.00165745,-0.00225447,0.00169069,-0.000239116,-0.0036728,0.698018,0.00237285,0.0113517,1910,1324,11.1558,-3.45559
693,-300,11.1467,3.34729,-0.000817149,-0.00130908,-0.000313569,-0.000664586,-0.00146164,-0.45282,0.000845032,0.0102454,1917,1324,11.1467,-3.34735
700,-300,11.1394,3.22302,0.00033693,0.000299449,-0.00241775,0.00273601,-0.00209963,-0.781523,0.0027999,0.0117393,1924,1324,11.1394,-3.22301
707,-300,11.1327,3.08862,0.00153687,0.00318032,-0.00559931,0.00801789,-0.00330069,-0.858256,0.0067213,0.00847757,1931,1324,11.1327,-3.08863
714,-300,11.1404,2.97925,0.00222203,0.00682496,-0.00971691,0.0145092,-0.00546225,-0.901681,0.0119184,0.00970851,1938,1324,11.1404,-2.97923
721,-300,11.1453,2.86609,0.00248647,0.0113143,-0.0145558,0.0221107,-0.00830993,-0.932612,0.0181558,0.0112779,1945,1324,11.1452,-2.8661
728,-300,11.1488,2.74219,0.001377,0.0181703,-0.0200896,0.0315474,-0.0120001,-0.983344,0.0259727,0.00988208,1952,1324,11.1488,-2.74214
735,-300,11.0912,2.65674,-0.00050171,0.0262016,-0.0265931,0.0426066,-0.0169067,-1.01805,0.0354119,0.0144974,1959,1324,11.0912,-2.6567
742,-300,11.1735,1.86658,0,0,0,0,0,0,0,-1,1966,1324,11.1735,-1.86658
749,-300,11.9877,0.317139,0,0,0,0,0,0,0,-1,1973,1324,11.9877,-0.317094
756,-300,11.4027,-0.371704,-0.0166436,0.0673822,-0.0524664,0.092584,-0.0418453,-1.123,0.0794342,0.0455893,1980,1324,11.4027,0.371648
763,-300,10.8219,-1.07336,-0.0276809,0.0872013,-0.0620022,0.114281,-0.0547605,-1.15901,0.0995923,0.0485126,1987,1324,10.822,1.07335
770,-300,10.3925,-1.73364,0,0,0,0,0,0,0,-1,1994,1324,10.3925,1.73365
777,-300,0,0,0,0,0,0,0,0,0,-1,2001,1324,0,0
784,-300,0,0,0,0,0,0,0,0,0,-1,2008,1324,0,0
791,-300,0,0,0,0,0,0,0,0,0,-1,2015,1324,0,0
798,-300,0,0,0,0,0,0,0,0,0,-1,2022,1324,0,0
805,-300,0,0,0,0,0,0,0,0,0,-1,2029,1324,0,0
812,-300,0,0,0,0,0,0,0,0,0,-1,2036,1324,0,0
-700,-307,0,0,0,0,0,0,0,0,0,-1,524,1331,0,0
-693,-307,0,0,0,0,0,0,0,0,0,-1,531,1331,0,0
-686,-307,0,0,0,0,0,0,0,0,0,-1,538,1331,0,0
-679,-307,0,0,0,0,0,0,0,0,0,-1,545,1331,0,0
-672,-307,0,0,0,0,0,0,0,0,0,-1,552,1331,0,0
-665,-307,0,0,0,0,0,0,0,0,0,-1,559,1331,0,0
-658,-307,0,0,0,0,0,0,0,0,0,-1,566,1331,0,0
-651,-307,-5.20813,0.391357,0,0,0,0,0,0,0,-1,573,1331,-5.20814,-0.391315
-644,-307,-4.97955,-0.445923,0.0291186,-0.00429205,-0.0308765,0.0475192,-0.0226926,-0.53743,0.0413729,0.0449494,580,1331,-4.97955,0.445963
-637,-307,-4.65338,-1.16394,0.034555,-0.00754616,-0.0165564,0.0402858,-0.013277,-0.33323,0.0322083,0.0447528,587,1331,-4.65341,1.16392
-630,-307,-4.526,-1.3855,0.0349031,-0.00859798,-0.00737674,0.03612,-0.00981485,-0.163489,0.0279325,0.0448786,594,1331,-4.52597,1.3855
-623,-307,-4.40533,-1.02417,0.0321003,-0.00827788,-0.00171395,0.0321729,-0.0083505,-0.0423459,0.0247071,0.0447044,601,1331,-4.40532,1.02417
-616,-307,-4.54663,-0.374634,0.0276437,-0.00722108,0.00152123,0.02771,-0.00728732,0.043522,0.0213217,0.0441015,608,1331,-4.54663,0.374601
-609,-307,-4.71417,0.239136,0.0225577,-0.00585474,0.00310111,0.0228923,-0.00618927,0.10746,0.0176893,0.0417053,615,1331,-4.71415,-0.239143
-602,-307,-4.63495,0.606079,0.0175469,-0.0044659,0.00358928,0.0181173,-0.00503636,0.157617,0.0140609,0.0309502,622,1331,-4.63494,-0.606116
-595,-307,-4.67792,0.951172,0.0131509,-0.0032483,0.00342184,0.0138363,-0.00393365,0.197673,0.0107774,0.0151567,629,1331,-4.67789,-0.951175
-588,-307,-4.65875,1.0863,0.00957323,-0.00246894,0.00370992,0.0106244,-0.00352012,0.276107,0.00850277,0.0187306,636,1331,-4.65877,-1.0863
-581,-307,-4.65399,1.23328,0.00668852,-0.0023836,0.00323887,0.00772616,-0.00342124,0.310039,0.00659399,0.0160423,643,1331,-4.65401,-1.23332
-574,-307,-4.66229,1.37683,0.00366668,-0.00122265,0.00149307,0.00408657,-0.00164253,0.274142,0.00340655,0.0123474,650,1331,-4.66231,-1.37688
-567,-307,-4.68201,1.52026,0.00102637,-0.000562699,0.00055089,0.00119867,-0.000734997,0.303125,0.00112705,0.0121044,657,1331,-4.68201,-1.52023
-560,-307,-4.67035,1.67883,-0.000649892,-0.000604868,0.000198742,-0.000427366,-0.000827393,0.841794,0.000477782,0.0127321,664,1331,-4.67036,-1.67888
-553,-307,-4.64923,1.81494,-0.00116084,-0.000966686,-0.000235557,-0.000808987,-0.00131854,-0.980855,0.000767776,0.00996863,671,1331,-4.64923,-1.81489
-546,-307,-4.64246,1.94958,-0.00150202,-0.00131996,-0.000560231,-0.000843413,-0.00197857,-0.865937,0.00114646,0.0100171,678,1331,-4.64248,-1.94961
-539,-307,-4.63342,2.09338,-0.00147896,-0.00220309,-0.00100093,-0.000776623,-0.00290543,-0.611856,0.00173695,0.0121083,685,1331,-4.63339,-2.09344
-532,-307,-4.58716,2.18896,-0.00183102,-0.00356832,-0.00276856,0.000201967,-0.0056013,-0.633384,0.00380331,0.0220695,692,1331,-4.58718,-2.18902
-525,-307,-4.6059,2.24402,-0.00156676,-0.00477411,-0.00574697,0.00279609,-0.00913697,-0.649336,0.00720648,0.0406362,699,1331,-4.60588,-2.244
-518,-307,-4.57843,2.44397,-0.00197827,-0.00668732,-0.00863738,0.00461976,-0.0132853,-0.652333,0.0107335,0.0460321,706,1331,-4.57841,-2.44394
-511,-307,-4.45776,2.34412,0,0,0,0,0,0,0,-1,713,1331,-4.45776,-2.34407
-504,-307,-8.61365,2.56763,0,0,0,0,0,0,0,-1,720,1331,-8.61365,-2.56763
-497,-307,-8.91846,2.11328,0,0,0,0,0,0,0,-1,727,1331,-8.91843,-2.11322
-490,-307,-8.58539,1.66785,0,0,0,0,0,0,0,-1,734,1331,-8.58537,-1.66779
-483,-307,-7.99933,1.55347,0,0,0,0,0,0,0,-1,741,1331,-7.99932,-1.55345
-476,-307,-8.09479,1.26575,0,0,0,0,0,0,0,-1,748,1331,-8.09477,-1.26575
-469,-307,-5.25323,0.880615,0,0,0,0,0,0,0,-1,755,1331,-5.25322,-0.880633
-462,-307,0,0,0,0,0,0,0,0,0,-1,762,1331,0,0
-455,-307,0,0,0,0,0,0,0,0,0,-1,769,1331,0,0
-448,-307,0,0,0,0,0,0,0,0,0,-1,776,1331,0,0
-441,-307,0,0,0,0,0,0,0,0,0,-1,783,1331,0,0
-434,-307,0,0,0,0,0,0,0,0,0,-1,790,1331,0,0
-427,-307,0,0,0,0,0,0,0,0,0,-1,797,1331,0,0
-420,-307,0,0,0,0,0,0,0,0,0,-1,804,1331,0,0
-413,-307,0,0,0,0,0,0,0,0,0,-1,811,1331,0,0
-406,-307,0,0,0,0,0,0,0,0,0,-1,818,1331,0,0
-399,-307,0,0,0,0,0,0,0,0,0,-1,825,1331,0,0
-392,-307,0,0,0,0,0,0,0,0,0,-1,832,1331,0,0
-385,-307,0,0,0,0,0,0,0,0,0,-1,839,1331,0,0
-378,-307,0,0,0,0,0,0,0,0,0,-1,846,1331,0,0
-371,-307,0,0,0,0,0,0,0,0,0,-1,853,1331,0,0
-364,-307,0,0,0,0,0,0,0,0,0,-1,860,1331,0,0
-357,-307,0,0,0,0,0,0,0,0,0,-1,867,1331,0,0
-350,-307,0,0,0,0,0,0,0,0,0,-1,874,1331,0,0
-343,-307,0,0,0,0,0,0,0,0,0,-1,881,1331,0,0
-336,-307,0,0,0,0,0,0,0,0,0,-1,888,1331,0,0
-329,-307,0,0,0,0,0,0,0,0,0,-1,895,1331,0,0
-322,-307,0,0,0,0,0,0,0,0,0,-1,902,1331,0,0
-315,-307,0,0,0,0,0,0,0,0,0,-1,909,1331,0,0
-308,-307,0,0,0,0,0,0,0,0,0,-1,916,1331,0,0
-301,-307,0,0,0,0,0,0,0,0,0,-1,923,1331,0,0
-294,-307,0,0,0,0,0,0,0,0,0,-1,930,1331,0,0
-287,-307,0,0,0,0,0,0,0,0,0,-1,937,1331,0,0
-280,-307,0,0,0,0,0,0,0,0,0,-1,944,1331,0,0
-273,-307,0,0,0,0,0,0,0,0,0,-1,951,1331,0,0
-266,-307,0,0,0,0,0,0,0,0,0,-1,958,1331,0,0
-259,-307,0,0,0,0,0,0,0,0,0,-1,965,1331,0,0
-252,-307,0,0,0,0,0,0,0,0,0,-1,972,1331,0,0
-245,-307,0,0,0,0,0,0,0,0,0,-1,979,1331,0,0
-238,-307,0,0,0,0,0,0,0,0,0,-1,986,1331,0,0
-231,-307,0,0,0,0,0,0,0,0,0,-1,993,1331,0,0
-224,-307,0,0,0,0,0,0,0,0,0,-1,1000,1331,0,0
-217,-307,0,0,0,0,0,0,0,0,0,-1,1007,1331,0,0
-210,-307,0,0,0,0,0,0,0,0,0,-1,1014,1331,0,0
-203,-307,0,0,0,0,0,0,0,0,0,-1,1021,1331,0,0
-196,-307,0,0,0,0,0,0,0,0,0,-1,1028,1331,0,0
-189,-307,0,0,0,0,0,0,0,0,0,-1,1035,1331,0,0
-182,-307,0,0,0,0,0,0,0,0,0,-1,1042,1331,0,0
-175,-307,0,0,0,0,0,0,0,0,0,-1,1049,1331,0,0
-168,-307,0,0,0,0,0,0,0,0,0,-1,1056,1331,0,0
-161,-307,0,0,0,0,0,0,0,0,0,-1,1063,1331,0,0
-154,-307,0,0,0,0,0,0,0,0,0,-1,1070,1331,0,0
-147,-307,0,0,0,0,0,0,0,0,0,-1,1077,1331,0,0
-140,-307,0,0,0,0,0,0,0,0,0,-1,1084,1331,0,0
-133,-307,0,0,0,0,0,0,0,0,0,-1,1091,1331,0,0
-126,-307,0,0,0,0,0,0,0,0,0,-1,1098,1331,0,0
-119,-307,0,0,0,0,0,0,0,0,0,-1,1105,1331,0,0
-112,-307,0,0,0,0,0,0,0,0,0,-1,1112,1331,0,0
-105,-307,0,0,0,0,0,0,0,0,0,-1,1119,1331,0,0
-98,-307,0,0,0,0,0,0,0,0,0,-1,1126,1331,0,0
-91,-307,0,0,0,0,0,0,0,0,0,-1,1133,1331,0,0
-84,-307,0,0,0,0,0,0,0,0,0,-1,1140,1331,0,0
-77,-307,0,0,0,0,0,0,0,0,0,-1,1147,1331,0,0
-70,-307,0,0,0,0,0,0,0,0,0,-1,1154,1331,0,0
-63,-307,0,0,0,0,0,0,0,0,0,-1,1161,1331,0,0
-56,-307,0,0,0,0,0,0,0,0,0,-1,1168,1331,0,0
-49,-307,0,0,0,0,0,0,0,0,0,-1,1175,1331,0,0
-42,-307,0,0,0,0,0,0,0,0,0,-1,1182,1331,0,0
-35,-307,0,0,0,0,0,0,0,0,0,-1,1189,1331,0,0
-28,-307,0,0,0,0,0,0,0,0,0,-1,1196,1331,0,0
-21,-307,0,0,0,0,0,0,0,0,0,-1,1203,1331,0,0
-14,-307,0,0,0,0,0,0,0,0,0,-1,1210,1331,0,0
-7,-307,0,0,0,0,0,0,0,0,0,-1,1217,1331,0,0
0,-307,0,0,0,0,0,0,0,0,0,-1,1224,1331,0,0
7,-307,0,0,0,0,0,0,0,0,0,-1,1231,1331,0,0
14,-307,0,0,0,0,0,0,0,0,0,-1,1238,1331,0,0
21,-307,0,0,0,0,0,0,0,0,0,-1,1245,1331,0,0
28,-307,0,0,0,0,0,0,0,0,0,-1,1252,1331,0,0
35,-307,0,0,0,0,0,0,0,0,0,-1,1259,1331,0,0
42,-307,0,0,0,0,0,0,0,0,0,-1,1266,1331,0,0
49,-307,0,0,0,0,0,0,0,0,0,-1,1273,1331,0,0
56,-307,0,0,0,0,0,0,0,0,0,-1,1280,1331,0,0
63,-307,0,0,0,0,0,0,0,0,0,-1,1287,1331,0,0
70,-307,0,0,0,0,0,0,0,0,0,-1,1294,1331,0,0
77,-307,0,0,0,0,0,0,0,0,0,-1,1301,1331,0,0
84,-307,0,0,0,0,0,0,0,0,0,-1,1308,1331,0,0
91,-307,0,0,0,0,0,0,0,0,0,-1,1315,1331,0,0
98,-307,0,0,0,0,0,0,0,0,0,-1,1322,1331,0,0
105,-307,0,0,0,0,0,0,0,0,0,-1,1329,1331,0,0
112,-307,0,0,0,0,0,0,0,0,0,-1,1336,1331,0,0
119,-307,0,0,0,0,0,0,0,0,0,-1,1343,1331,0,0
126,-307,0,0,0,0,0,0,0,0,0,-1,1350,1331,0,0
133,-307,0,0,0,0,0,0,0,0,0,-1,1357,1331,0,0
140,-307,0,0,0,0,0,0,0,0,0,-1,1364,1331,0,0
147,-307,0,0,0,0,0,0,0,0,0,-1,1371,1331,0,0
154,-307,0,0,0,0,0,0,0,0,0,-1,1378,1331,0,0
161,-307,0,0,0,0,0,0,0,0,0,-1,1385,1331,0,0
168,-307,0,0,0,0,0,0,0,0,0,-1,1392,1331,0,0
175,-307,0,0,0,0,0,0,0,0,0,-1,1399,1331,0,0
182,-307,0,0,0,0,0,0,0,0,0,-1,1406,1331,0,0
189,-307,0,0,0,0,0,0,0,0,0,-1,1413,1331,0,0
196,-307,0,0,0,0,0,0,0,0,0,-1,1420,1331,0,0
203,-307,0,0,0,0,0,0,0,0,0,-1,1427,1331,0,0
210,-307,0,0,0,0,0,0,0,0,0,-1,1434,1331,0,0
217,-307,0,0,0,0,0,0,0,0,0,-1,1441,1331,0,0
224,-307,0,0,0,0,0,0,0,0,0,-1,1448,1331,0,0
231,-307,0,0,0,0,0,0,0,0,0,-1,1455,1331,0,0
238,-307,0,0,0,0,0,0,0,0,0,-1,1462,1331,0,0
245,-307,0,0,0,0,0,0,0,0,0,-1,1469,1331,0,0
252,-307,0,0,0,0,0,0,0,0,0,-1,1476,1331,0,0
259,-307,0,0,0,0,0,0,0,0,0,-1,1483,1331,0,0
266,-307,0,0,0,0,0,0,0,0,0,-1,1490,1331,0,0
273,-307,0,0,0,0,0,0,0,0,0,-1,1497,1331,0,0
280,-307,0,0,0,0,0,0,0,0,0,-1,1504,1331,0,0
287,-307,0,0,0,0,0,0,0,0,0,-1,1511,1331,0,0
294,-307,0,0,0,0,0,0,0,0,0,-1,1518,1331,0,0
301,-307,0,0,0,0,0,0,0,0,0,-1,1525,1331,0,0
308,-307,0,0,0,0,0,0,0,0,0,-1,1532,1331,0,0
315,-307,0,0,0,0,0,0,0,0,0,-1,1539,1331,0,0
322,-307,0,0,0,0,0,0,0,0,0,-1,1546,1331,0,0
329,-307,0,0,0,0,0,0,0,0,0,-1,1553,1331,0,0
336,-307,0,0,0,0,0,0,0,0,0,-1,1560,1331,0,0
343,-307,0,0,0,0,0,0,0,0,0,-1,1567,1331,0,0
350,-307,0,0,0,0,0,0,0,0,0,-1,1574,1331,0,0
357,-307,0,0,0,0,0,0,0,0,0,-1,1581,1331,0,0
364,-307,0,0,0,0,0,0,0,0,0,-1,1588,1331,0,0
371,-307,0,0,0,0,0,0,0,0,0,-1,1595,1331,0,0
378,-307,0,0,0,0,0,0,0,0,0,-1,1602,1331,0,0
385,-307,0,0,0,0,0,0,0,0,0,-1,1609,1331,0,0
392,-307,0,0,0,0,0,0,0,0,0,-1,1616,1331,0,0
399,-307,0,0,0,0,0,0,0,0,0,-1,1623,1331,0,0
406,-307,0,0,0,0,0,0,0,0,0,-1,1630,1331,0,0
413,-307,0,0,0,0,0,0,0,0,0,-1,1637,1331,0,0
420,-307,0,0,0,0,0,0,0,0,0,-1,1644,1331,0,0
427,-307,0,0,0,0,0,0,0,0,0,-1,1651,1331,0,0
434,-307,0,0,0,0,0,0,0,0,0,-1,1658,1331,0,0
441,-307,0,0,0,0,0,0,0,0,0,-1,1665,1331,0,0
448,-307,0,0,0,0,0,0,0,0,0,-1,1672,1331,0,0
455,-307,0,0,0,0,0,0,0,0,0,-1,1679,1331,0,0
462,-307,0,0,0,0,0,0,0,0,0,-1,1686,1331,0,0
469,-307,0,0,0,0,0,0,0,0,0,-1,1693,1331,0,0
476,-307,0,0,0,0,0,0,0,0,0,-1,1700,1331,0,0
483,-307,0,0,0,0,0,0,0,0,0,-1,1707,1331,0,0
490,-307,0,0,0,0,0,0,0,0,0,-1,1714,1331,0,0
497,-307,0,0,0,0,0,0,0,0,0,-1,1721,1331,0,0
504,-307,0,0,0,0,0,0,0,0,0,-1,1728,1331,0,0
511,-307,0,0,0,0,0,0,0,0,0,-1,1735,1331,0,0
518,-307,0,0,0,0,0,0,0,0,0,-1,1742,1331,0,0
525,-307,0,0,0,0,0,0,0,0,0,-1,1749,1331,0,0
532,-307,0,0,0,0,0,0,0,0,0,-1,1756,1331,0,0
539,-307,0,0,0,0,0,0,0,0,0,-1,1763,1331,0,0
546,-307,0,0,0,0,0,0,0,0,0,-1,1770,1331,0,0
553,-307,0,0,0,0,0,0,0,0,0,-1,1777,1331,0,0
560,-307,0,0,0,0,0,0,0,0,0,-1,1784,1331,0,0
567,-307,0,0,0,0,0,0,0,0,0,-1,1791,1331,0,0
574,-307,0,0,0,0,0,0,0,0,0,-1,1798,1331,0,0
581,-307,0,0,0,0,0,0,0,0,0,-1,1805,1331,0,0
588,-307,14.7467,2.89722,-0.0380815,0.0102781,-0.0360161,0.0294783,-0.0572817,-1.08102,0.0509411,0.0411885,1812,1331,14.7466,-2.89719
595,-307,14.5374,2.87561,-0.0450644,0.0124041,-0.0275123,0.0234515,-0.0561119,-1.18896,0.0472084,0.0411912,1819,1331,14.5374,-2.87567
602,-307,14.1788,2.05078,-0.0445353,0.0121677,-0.0196566,0.0183153,-0.0506829,-1.26768,0.0412714,0.0447475,1826,1331,14.1788,-2.05082
609,-307,13.8719,2.01685,-0.0402388,0.0108906,-0.0128965,0.0139593,-0.0433075,-1.33719,0.0344799,0.045011,1833,1331,13.872,-2.01686
616,-307,13.4271,1.93347,-0.0346574,0.00916461,-0.00756939,0.0104352,-0.0359281,-1.40448,0.0280843,0.0434031,1840,1331,13.4271,-1.93351
623,-307,13.1505,1.95032,-0.0292625,0.00736204,-0.00369301,0.00773071,-0.0296312,-1.4713,0.0227727,0.0423575,1847,1331,13.1505,-1.95031
630,-307,12.8556,1.78223,0,0,0,0,0,0,0,-1,1854,1331,12.8556,-1.78218
637,-307,10.0575,4.46033,0,0,0,0,0,0,0,-1,1861,1331,10.0575,-4.46029
644,-307,11.1794,3.80762,0,0,0,0,0,0,0,-1,1868,1331,11.1795,-3.80758
651,-307,11.1434,3.73022,-0.0112771,0.00123719,0.00419008,0.00251056,-0.0125504,1.27576,0.00931725,0.0489291,1875,1331,11.1434,-3.73019
658,-307,11.1154,3.75684,-0.00857487,0.000240465,0.00477596,0.00233183,-0.0106662,1.15806,0.00800216,0.0399777,1882,1331,11.1153,-3.75689
665,-307,11.035,3.81665,-0.0041739,-0.000207435,0.00499222,0.00318107,-0.0075624,0.974471,0.00637236,0.0152952,1889,1331,11.035,-3.81663
672,-307,11.0082,3.72644,-0.00137235,-0.00162551,0.00414999,0.00265299,-0.00565085,0.770153,0.00489726,0.00944108,1896,1331,11.0081,-3.72643
679,-307,11.0087,3.59814,-0.000757394,-0.00231344,0.00313479,0.00169448,-0.00476531,0.663761,0.00386748,0.00995939,1903,1331,11.0087,-3.59818
686,-307,11.0228,3.4751,-0.000777154,-0.00224252,0.00140703,7.65272e-05,-0.00309621,0.545351,0.00209011,0.00966993,1910,1331,11.0229,-3.47516
693,-307,11.0127,3.35461,0.000122888,-0.00112865,-0.000853582,0.000555507,-0.00156127,-0.469096,0.00126727,0.0110497,1917,1331,11.0127,-3.3546
700,-307,11.0134,3.23254,0.00124849,0.000444979,-0.00325444,0.00412588,-0.00243241,-0.723985,0.00382828,0.0108328,1924,1331,11.0134,-3.23248
707,-307,11.015,3.08838,0.0024987,0.00326962,-0.00673314,0.00962832,-0.00386,-0.813991,0.00802134,0.0123396,1931,1331,11.015,-3.08841
714,-307,11.0205,2.97839,0.00330911,0.00688917,-0.0111306,0.0163728,-0.0061745,-0.865126,0.0134542,0.0118452,1938,1331,11.0205,-2.97844
721,-307,11.0353,2.86548,0.00386272,0.0113556,-0.0164473,0.0244777,-0.00925944,-0.897379,0.0201279,0.0136129,1945,1331,11.0352,-2.86552
728,-307,11.014,2.7832,0.00318707,0.0182776,-0.0227658,0.034716,-0.0132513,-0.945417,0.0286032,0.0166737,1952,1331,11.014,-2.78326
735,-307,11.0486,2.04895,0,0,0,0,0,0,0,-1,1959,1331,11.0486,-2.04895
742,-307,11.194,0.714844,-0.0010671,0.0384133,-0.0394788,0.0628121,-0.0254659,-1.01723,0.0524656,0.0435669,1966,1331,11.194,-0.714863
749,-307,11.5787,-0.378418,0,0,0,0,0,0,0,-1,1973,1331,11.5787,0.378381
756,-307,11.2223,-1.14294,-0.014098,0.0716763,-0.0606789,0.103094,-0.0455159,-1.09303,0.0879204,0.0484786,1980,1331,11.2223,1.14289
763,-307,10.7064,-1.9707,-0.0258344,0.0938269,-0.0719207,0.12755,-0.0595574,-1.13234,0.110378,0.0482475,1987,1331,10.7064,1.97073
770,-307,0,0,0,0,0,0,0,0,0,-1,1994,1331,0,0
777,-307,0,0,0,0,0,0,0,0,0,-1,2001,1331,0,0
784,-307,0,0,0,0,0,0,0,0,0,-1,2008,1331,0,0
791,-307,0,0,0,0,0,0,0,0,0,-1,2015,1331,0,0
798,-307,0,0,0,0,0,0,0,0,0,-1,2022,1331,0,0
805,-307,0,0,0,0,0,0,0,0,0,-1,2029,1331,0,0
812,-307,0,0,0,0,0,0,0,0,0,-1,2036,1331,0,0
-700,-314,0,0,0,0,0,0,0,0,0,-1,524,1338,0,0
-693,-314,0,0,0,0,0,0,0,0,0,-1,531,1338,0,0
-686,-314,0,0,0,0,0,0,0,0,0,-1,538,1338,0,0
-679,-314,0,0,0,0,0,0,0,0,0,-1,545,1338,0,0
-672,-314,0,0,0,0,0,0,0,0,0,-1,552,1338,0,0
-665,-314,0,0,0,0,0,0,0,0,0,-1,559,1338,0,0
-658,-314,0,0,0,0,0,0,0,0,0,-1,566,1338,0,0
-651,-314,0,0,0,0,0,0,0,0,0,-1,573,1338,0,0
-644,-314,-3.46021,-1.26941,0.0460364,-0.0140988,-0.040086,0.0660782,-0.0341406,-0.463623,0.0588326,0.0495586,580,1338,-3.46021,1.26941
-637,-314,-3.40082,-1.91309,0.0494783,-0.0167368,-0.0236179,0.0570391,-0.0242976,-0.309822,0.0482114,0.046182,587,1338,-3.40082,1.91312
-630,-314,-4.0481,-1.43323,0.0473902,-0.016698,-0.0128032,0.0498532,-0.0191611,-0.190058,0.0411379,0.044038,594,1338,-4.04807,1.43321
-623,-314,-4.06696,-1.27026,0.0421374,-0.0151227,-0.00584703,0.0427283,-0.0157136,-0.100728,0.0349224,0.0466167,601,1338,-4.06697,1.27024
-616,-314,-5.08508,0.741455,0.0354161,-0.0128072,-0.00157255,0.0354673,-0.0128584,-0.0325635,0.0289008,0.0478372,608,1338,-5.0851,-0.741474
-609,-314,-4.56085,0.415649,0.0283415,-0.0102774,0.00084222,0.0283599,-0.0102957,0.0217947,0.0231159,0.0447776,615,1338,-4.56086,-0.415642
-602,-314,-4.35156,0.684814,0.0216575,-0.00786652,0.00198754,0.0217907,-0.00799972,0.066917,0.0178033,0.0377096,622,1338,-4.35155,-0.684796
-595,-314,-4.44104,0.957642,0.0159147,-0.00579213,0.00231527,0.0161589,-0.00603633,0.105085,0.0132512,0.0262475,629,1338,-4.44104,-0.957683
-588,-314,-4.51288,1.07983,0.0114572,-0.00437764,0.00306603,0.0120301,-0.00495057,0.184734,0.0100838,0.0143781,636,1338,-4.51286,-1.07989
-581,-314,-4.51648,1.22583,0.00797527,-0.00366126,0.00289795,0.00865703,-0.00434302,0.231055,0.00764209,0.0127123,643,1338,-4.5165,-1.22579
-574,-314,-4.53168,1.35706,0.00462136,-0.00180659,0.00124668,0.00485468,-0.00203991,0.185013,0.00408968,0.0121707,650,1338,-4.53167,-1.35708
-567,-314,-4.52856,1.51331,0.00165638,-0.000811371,0.000489653,0.00174999,-0.000904977,0.18889,0.00155851,0.0130302,657,1338,-4.52858,-1.51331
-560,-314,-4.50903,1.66602,-0.000190581,-0.000576948,0.000331156,-3.79921e-07,-0.000767149,0.521351,0.000511306,0.0133238,664,1338,-4.50906,-1.66598
-553,-314,-4.50769,1.79395,-0.000446442,-0.000804409,-6.2193e-05,-0.000435944,-0.000814907,-0.167213,0.00047087,0.0160061,671,1338,-4.50766,-1.79391
-546,-314,-4.49609,1.94312,-0.000502543,-0.00112852,-0.00037214,-0.00032927,-0.00130179,-0.435761,0.000781576,0.0163125,678,1338,-4.49612,-1.94312
-539,-314,-4.49219,2.08997,-0.000305206,-0.00199978,-0.000787152,4.01167e-06,-0.002309,-0.374311,0.00154067,0.0157125,685,1338,-4.49218,-2.08995
-532,-314,-4.42438,2.24353,-0.000742272,-0.00340082,-0.00257729,0.000828351,-0.00497144,-0.547309,0.00362212,0.0213691,692,1338,-4.4244,-2.24351
-525,-314,-4.50037,2.3053,-0.000755942,-0.00472075,-0.00566165,0.00326034,-0.00873702,-0.616996,0.00716321,0.036159,699,1338,-4.50035,-2.30526
-518,-314,-4.3645,2.21167,-0.00155956,-0.00679382,-0.00869494,0.00490358,-0.013257,-0.639214,0.0108484,0.0417692,706,1338,-4.36449,-2.21166
-511,-314,-4.21985,1.97864,-0.00438198,-0.00817458,-0.0108615,0.0047475,-0.0173041,-0.698975,0.0134018,0.0457299,713,1338,-4.21982,-1.97869
-504,-314,-3.94232,1.85828,0,0,0,0,0,0,0,-1,720,1338,-3.94234,-1.85826
-497,-314,-9.44397,3.2113,0,0,0,0,0,0,0,-1,727,1338,-9.44399,-3.21125
-490,-314,-8.76349,2.57288,-0.0152119,-0.00893662,-0.0219612,0.0101099,-0.0342584,-0.856354,0.026851,0.0462406,734,1338,-8.76347,-2.57284
-483,-314,-8.04962,1.98877,0,0,0,0,0,0,0,-1,741,1338,-8.04964,-1.9888
-476,-314,-7.75122,1.39465,0,0,0,0,0,0,0,-1,748,1338,-7.75123,-1.3947
-469,-314,-7.62262,0.759888,0,0,0,0,0,0,0,-1,755,1338,-7.62261,-0.759889
-462,-314,0,0,0,0,0,0,0,0,0,-1,762,1338,0,0
-455,-314,0,0,0,0,0,0,0,0,0,-1,769,1338,0,0
-448,-314,0,0,0,0,0,0,0,0,0,-1,776,1338,0,0
-441,-314,0,0,0,0,0,0,0,0,0,-1,783,1338,0,0
-434,-314,0,0,0,0,0,0,0,0,0,-1,790,1338,0,0
-427,-314,0,0,0,0,0,0,0,0,0,-1,797,1338,0,0
-420,-314,0,0,0,0,0,0,0,0,0,-1,804,1338,0,0
-413,-314,0,0,0,0,0,0,0,0,0,-1,811,1338,0,0
-406,-314,0,0,0,0,0,0,0,0,0,-1,818,1338,0,0
-399,-314,0,0,0,0,0,0,0,0,0,-1,825,1338,0,0
-392,-314,0,0,0,0,0,0,0,0,0,-1,832,1338,0,0
-385,-314,0,0,0,0,0,0,0,0,0,-1,839,1338,0,0
-378,-314,0,0,0,0,0,0,0,0,0,-1,846,1338,0,0
-371,-314,0,0,0,0,0,0,0,0,0,-1,853,1338,0,0
-364,-314,0,0,0,0,0,0,0,0,0,-1,860,1338,0,0
-357,-314,0,0,0,0,0,0,0,0,0,-1,867,1338,0,0
-350,-314,0,0,0,0,0,0,0,0,0,-1,874,1338,0,0
-343,-314,0,0,0,0,0,0,0,0,0,-1,881,1338,0,0
-336,-314,0,0,0,0,0,0,0,0,0,-1,888,1338,0,0
-329,-314,0,0,0,0,0,0,0,0,0,-1,895,1338,0,0
-322,-314,0,0,0,0,0,0,0,0,0,-1,902,1338,0,0
-315,-314,0,0,0,0,0,0,0,0,0,-1,909,1338,0,0
-308,-314,0,0,0,0,0,0,0,0,0,-1,916,1338,0,0
-301,-314,0,0,0,0,0,0,0,0,0,-1,923,1338,0,0
-294,-314,0,0,0,0,0,0,0,0,0,-1,930,1338,0,0
-287,-314,0,0,0,0,0,0,0,0,0,-1,937,1338,0,0
-280,-314,0,0,0,0,0,0,0,0,0,-1,944,1338,0,0
-273,-314,0,0,0,0,0,0,0,0,0,-1,951,1338,0,0
-266,-314,0,0,0,0,0,0,0,0,0,-1,958,1338,0,0
-259,-314,0,0,0,0,0,0,0,0,0,-1,965,1338,0,0
-252,-314,0,0,0,0,0,0,0,0,0,-1,972,1338,0,0
-245,-314,0,0,0,0,0,0,0,0,0,-1,979,1338,0,0
-238,-314,0,0,0,0,0,0,0,0,0,-1,986,1338,0,0
-231,-314,0,0,0,0,0,0,0,0,0,-1,993,1338,0,0
-224,-314,0,0,0,0,0,0,0,0,0,-1,1000,1338,0,0
-217,-314,0,0,0,0,0,0,0,0,0,-1,1007,1338,0,0
-210,-314,0,0,0,0,0,0,0,0,0,-1,1014,1338,0,0
-203,-314,0,0,0,0,0,0,0,0,0,-1,1021,1338,0,0
-196,-314,0,0,0,0,0,0,0,0,0,-1,1028,1338,0,0
-189,-314,0,0,0,0,0,0,0,0,0,-1,1035,1338,0,0
-182,-314,0,0,0,0,0,0,0,0,0,-1,1042,1338,0,0
-175,-314,0,0,0,0,0,0,0,0,0,-1,1049,1338,0,0
-168,-314,0,0,0,0,0,0,0,0,0,-1,1056,1338,0,0
-161,-314,0,0,0,0,0,0,0,0,0,-1,1063,1338,0,0
-154,-314,0,0,0,0,0,0,0,0,0,-1,1070,1338,0,0
-147,-314,0,0,0,0,0,0,0,0,0,-1,1077,1338,0,0
-140,-314,0,0,0,0,0,0,0,0,0,-1,1084,1338,0,0
-133,-314,0,0,0,0,0,0,0,0,0,-1,1091,1338,0,0
-126,-314,0,0,0,0,0,0,0,0,0,-1,1098,1338,0,0
-119,-314,0,0,0,0,0,0,0,0,0,-1,1105,1338,0,0
-112,-314,0,0,0,0,0,0,0,0,0,-1,1112,1338,0,0
-105,-314,0,0,0,0,0,0,0,0,0,-1,1119,1338,0,0
-98,-314,0,0,0,0,0,0,0,0,0,-1,1126,1338,0,0
-91,-314,0,0,0,0,0,0,0,0,0,-1,1133,1338,0,0
-84,-314,0,0,0,0,0,0,0,0,0,-1,1140,1338,0,0
-77,-314,0,0,0,0,0,0,0,0,0,-1,1147,1338,0,0
-70,-314,0,0,0,0,0,0,0,0,0,-1,1154,1338,0,0
-63,-314,0,0,0,0,0,0,0,0,0,-1,1161,1338,0,0
-56,-314,0,0,0,0,0,0,0,0,0,-1,1168,1338,0,0
-49,-314,0,0,0,0,0,0,0,0,0,-1,1175,1338,0,0
-42,-314,0,0,0,0,0,0,0,0,0,-1,1182,1338,0,0
-35,-314,0,0,0,0,0,0,0,0,0,-1,1189,1338,0,0
-28,-314,0,0,0,0,0,0,0,0,0,-1,1196,1338,0,0
-21,-314,0,0,0,0,0,0,0,0,0,-1,1203,1338,0,0
-14,-314,0,0,0,0,0,0,0,0,0,-1,1210,1338,0,0
-7,-314,0,0,0,0,0,0,0,0,0,-1,1217,1338,0,0
0,-314,0,0,0,0,0,0,0,0,0,-1,1224,1338,0,0
7,-314,0,0,0,0,0,0,0,0,0,-1,1231,1338,0,0
14,-314,0,0,0,0,0,0,0,0,0,-1,1238,1338,0,0
21,-314,0,0,0,0,0,0,0,0,0,-1,1245,1338,0,0
28,-314,0,0,0,0,0,0,0,0,0,-1,1252,1338,0,0
35,-314,0,0,0,0,0,0,0,0,0,-1,1259,1338,0,0
42,-314,0,0,0,0,0,0,0,0,0,-1,1266,1338,0,0
49,-314,0,0,0,0,0,0,0,0,0,-1,1273,1338,0,0
56,-314,0,0,0,0,0,0,0,0,0,-1,1280,1338,0,0
63,-314,0,0,0,0,0,0,0,0,0,-1,1287,1338,0,0
70,-314,0,0,0,0,0,0,0,0,0,-1,1294,1338,0,0
77,-314,0,0,0,0,0,0,0,0,0,-1,1301,1338,0,0
84,-314,0,0,0,0,0,0,0,0,0,-1,1308,1338,0,0
91,-314,0,0,0,0,0,0,0,0,0,-1,1315,1338,0,0
98,-314,0,0,0,0,0,0,0,0,0,-1,1322,1338,0,0
105,-314,0,0,0,0,0,0,0,0,0,-1,1329,1338,0,0
112,-314,0,0,0,0,0,0,0,0,0,-1,1336,1338,0,0
119,-314,0,0,0,0,0,0,0,0,0,-1,1343,1338,0,0
126,-314,0,0,0,0,0,0,0,0,0,-1,1350,1338,0,0
133,-314,0,0,0,0,0,0,0,0,0,-1,1357,1338,0,0
140,-314,0,0,0,0,0,0,0,0,0,-1,1364,1338,0,0
147,-314,0,0,0,0,0,0,0,0,0,-1,1371,1338,0,0
154,-314,0,0,0,0,0,0,0,0,0,-1,1378,1338,0,0
161,-314,0,0,0,0,0,0,0,0,0,-1,1385,1338,0,0
168,-314,0,0,0,0,0,0,0,0,0,-1,1392,1338,0,0
175,-314,0,0,0,0,0,0,0,0,0,-1,1399,1338,0,0
182,-314,0,0,0,0,0,0,0,0,0,-1,1406,1338,0,0
189,-314,0,0,0,0,0,0,0,0,0,-1,1413,1338,0,0
196,-314,0,0,0,0,0,0,0,0,0,-1,1420,1338,0,0
203,-314,0,0,0,0,0,0,0,0,0,-1,1427,1338,0,0
210,-314,0,0,0,0,0,0,0,0,0,-1,1434,1338,0,0
217,-314,0,0,0,0,0,0,0,0,0,-1,1441,1338,0,0
224,-314,0,0,0,0,0,0,0,0,0,-1,1448,1338,0,0
231,-314,0,0,0,0,0,0,0,0,0,-1,1455,1338,0,0
238,-314,0,0,0,0,0,0,0,0,0,-1,1462,1338,0,0
245,-314,0,0,0,0,0,0,0,0,0,-1,1469,1338,0,0
252,-314,0,0,0,0,0,0,0,0,0,-1,1476,1338,0,0
259,-314,0,0,0,0,0,0,0,0,0,-1,1483,1338,0,0
266,-314,0,0,0,0,0,0,0,0,0,-1,1490,1338,0,0
273,-314,0,0,0,0,0,0,0,0,0,-1,1497,1338,0,0
280,-314,0,0,0,0,0,0,0,0,0,-1,1504,1338,0,0
287,-314,0,0,0,0,0,0,0,0,0,-1,1511,1338,0,0
294,-314,0,0,0,0,0,0,0,0,0,-1,1518,1338,0,0
301,-314,0,0,0,0,0,0,0,0,0,-1,1525,1338,0,0
308,-314,0,0,0,0,0,0,0,0,0,-1,1532,1338,0,0
315,-314,0,0,0,0,0,0,0,0,0,-1,1539,1338,0,0
322,-314,0,0,0,0,0,0,0,0,0,-1,1546,1338,0,0
329,-314,0,0,0,0,0,0,0,0,0,-1,1553,1338,0,0
336,-314,0,0,0,0,0,0,0,0,0,-1,1560,1338,0,0
343,-314,0,0,0,0,0,0,0,0,0,-1,1567,1338,0,0
350,-314,0,0,0,0,0,0,0,0,0,-1,1574,1338,0,0
357,-314,0,0,0,0,0,0,0,0,0,-1,1581,1338,0,0
364,-314,0,0,0,0,0,0,0,0,0,-1,1588,1338,0,0
371,-314,0,0,0,0,0,0,0,0,0,-1,1595,1338,0,0
378,-314,0,0,0,0,0,0,0,0,0,-1,1602,1338,0,0
385,-314,0,0,0,0,0,0,0,0,0,-1,1609,1338,0,0
392,-314,0,0,0,0,0,0,0,0,0,-1,1616,1338,0,0
399,-314,0,0,0,0,0,0,0,0,0,-1,1623,1338,0,0
406,-314,0,0,0,0,0,0,0,0,0,-1,1630,1338,0,0
413,-314,0,0,0,0,0,0,0,0,0,-1,1637,1338,0,0
420,-314,0,0,0,0,0,0,0,0,0,-1,1644,1338,0,0
427,-314,0,0,0,0,0,0,0,0,0,-1,1651,1338,0,0
434,-314,0,0,0,0,0,0,0,0,0,-1,1658,1338,0,0
441,-314,0,0,0,0,0,0,0,0,0,-1,1665,1338,0,0
448,-314,0,0,0,0,0,0,0,0,0,-1,1672,1338,0,0
455,-314,0,0,0,0,0,0,0,0,0,-1,1679,1338,0,0
462,-314,0,0,0,0,0,0,0,0,0,-1,1686,1338,0,0
469,-314,0,0,0,0,0,0,0,0,0,-1,1693,1338,0,0
476,-314,0,0,0,0,0,0,0,0,0,-1,1700,1338,0,0
483,-314,0,0,0,0,0,0,0,0,0,-1,1707,1338,0,0
490,-314,0,0,0,0,0,0,0,0,0,-1,1714,1338,0,0
497,-314,0,0,0,0,0,0,0,0,0,-1,1721,1338,0,0
504,-314,0,0,0,0,0,0,0,0,0,-1,1728,1338,0,0
511,-314,0,0,0,0,0,0,0,0,0,-1,1735,1338,0,0
518,-314,0,0,0,0,0,0,0,0,0,-1,1742,1338,0,0
525,-314,0,0,0,0,0,0,0,0,0,-1,1749,1338,0,0
532,-314,0,0,0,0,0,0,0,0,0,-1,1756,1338,0,0
539,-314,0,0,0,0,0,0,0,0,0,-1,1763,1338,0,0
546,-314,0,0,0,0,0,0,0,0,0,-1,1770,1338,0,0
553,-314,0,0,0,0,0,0,0,0,0,-1,1777,1338,0,0
560,-314,0,0,0,0,0,0,0,0,0,-1,1784,1338,0,0
567,-314,0,0,0,0,0,0,0,0,0,-1,1791,1338,0,0
574,-314,0,0,0,0,0,0,0,0,0,-1,1798,1338,0,0
581,-314,15.4657,3.04443,-0.0393256,0.0123714,-0.0459384,0.0392342,-0.0661884,-1.04166,0.0615253,0.0463169,1805,1338,15.4657,-3.04448
588,-314,15.053,2.70703,-0.0467076,0.0140218,-0.0382664,0.0325071,-0.065193,-1.12078,0.0574498,0.0446734,1812,1338,15.053,-2.70697
595,-314,14.5016,2.28955,-0.0508961,0.0152833,-0.0294705,0.0265043,-0.0621171,-1.20699,0.0525246,0.0441826,1819,1338,14.5016,-2.28956
602,-314,14.3518,1.83203,-0.0489951,0.0144123,-0.0213341,0.020922,-0.0555048,-1.27464,0.045606,0.0423116,1826,1338,14.3518,-1.83204
609,-314,14.0044,1.81848,-0.044185,0.0126373,-0.0143046,0.0160352,-0.0475829,-1.33758,0.0382057,0.0401662,1833,1338,14.0044,-1.81843
616,-314,13.2789,1.73218,-0.0382642,0.0105096,-0.00869128,0.012012,-0.0397667,-1.39962,0.0312933,0.0416417,1840,1338,13.2789,-1.7322
623,-314,12.9353,1.73523,-0.0326471,0.0084318,-0.00449227,0.00891732,-0.0331326,-1.46313,0.0255842,0.0418726,1847,1338,12.9353,-1.73526
630,-314,12.1748,1.70251,0,0,0,0,0,0,0,-1,1854,1338,12.1748,-1.70251
637,-314,11.1989,1.64636,0,0,0,0,0,0,0,-1,1861,1338,11.1989,-1.64638
644,-314,11.7273,4.36597,0,0,0,0,0,0,0,-1,1868,1338,11.7273,-4.36599
651,-314,11.3199,4.11829,-0.0122546,0.00120561,0.0045578,0.00260372,-0.0136527,1.27316,0.0100824,0.0460859,1875,1338,11.3199,-4.11829
658,-314,11.0161,3.74927,-0.00898854,6.80585e-05,0.00511408,0.00237052,-0.011291,1.14776,0.00842936,0.0316435,1882,1338,11.0161,-3.74926
665,-314,10.889,3.84009,-0.00393065,-0.000385283,0.0053596,0.00348718,-0.00780311,0.94511,0.00667532,0.0135566,1889,1338,10.889,-3.84007
672,-314,10.9003,3.74243,-0.000806712,-0.00193871,0.00437273,0.0030365,-0.00578192,0.721037,0.00517291,0.011419,1896,1338,10.9003,-3.74245
679,-314,10.8999,3.60742,-6.79381e-05,-0.00237997,0.00307059,0.00205704,-0.00450495,0.605365,0.00387544,0.00948302,1903,1338,10.8999,-3.60741
686,-314,10.8916,3.45044,0.000150559,-0.00215003,0.0010276,0.000542709,-0.00254219,0.36456,0.00190168,0.0116515,1910,1338,10.8916,-3.45038
693,-314,10.8812,3.32813,0.00120876,-0.000935628,-0.00139678,0.00189742,-0.00162428,-0.458057,0.00203529,0.0115477,1917,1338,10.8812,-3.32813
700,-314,10.8867,3.22412,0.00246068,0.000519114,-0.00397251,0.00557931,-0.00259952,-0.665559,0.00482538,0.011352,1924,1338,10.8868,-3.22413
707,-314,10.8961,3.09399,0.00393612,0.00312841,-0.00760713,0.0111501,-0.00408558,-0.758879,0.00910608,0.0117366,1931,1338,10.8961,-3.09402
714,-314,10.8838,2.97705,0.0050718,0.00655679,-0.0121634,0.0180004,-0.00637177,-0.815882,0.0145954,0.0111718,1938,1338,10.8838,-2.97711
721,-314,10.9017,2.87195,0.00607673,0.010755,-0.0177687,0.0263379,-0.00950611,-0.850844,0.0214416,0.0150932,1945,1338,10.9018,-2.87191
728,-314,10.8788,2.71472,0,0,0,0,0,0,0,-1,1952,1338,10.8787,-2.71474
735,-314,10.7266,1.45776,0.00548199,0.0260734,-0.0332223,0.0505587,-0.0190034,-0.935657,0.0415163,0.0382179,1959,1338,10.7265,-1.45777
742,-314,10.7577,-0.0773926,0.00326008,0.0378937,-0.0433435,0.0672516,-0.0260978,-0.975446,0.0556137,0.0488923,1966,1338,10.7577,0.0774148
749,-314,11.4226,-2.06763,0,0,0,0,0,0,0,-1,1973,1338,11.4226,2.0676
756,-314,10.9966,-2.17725,0,0,0,0,0,0,0,-1,1980,1338,10.9965,2.17721
763,-314,10.4427,-2.76221,0,0,0,0,0,0,0,-1,1987,1338,10.4427,2.76225
770,-314,0,0,0,0,0,0,0,0,0,-1,1994,1338,0,0
777,-314,0,0,0,0,0,0,0,0,0,-1,2001,1338,0,0
784,-314,0,0,0,0,0,0,0,0,0,-1,2008,1338,0,0
791,-314,0,0,0,0,0,0,0,0,0,-1,2015,1338,0,0
798,-314,0,0,0,0,0,0,0,0,0,-1,2022,1338,0,0
805,-314,0,0,0,0,0,0,0,0,0,-1,2029,1338,0,0
812,-314,0,0,0,0,0,0,0,0,0,-1,2036,1338,0,0
-700,-321,0,0,0,0,0,0,0,0,0,-1,524,1345,0,0
-693,-321,0,0,0,0,0,0,0,0,0,-1,531,1345,0,0
-686,-321,0,0,0,0,0,0,0,0,0,-1,538,1345,0,0
-679,-321,0,0,0,0,0,0,0,0,0,-1,545,1345,0,0
-672,-321,0,0,0,0,0,0,0,0,0,-1,552,1345,0,0
-665,-321,0,0,0,0,0,0,0,0,0,-1,559,1345,0,0
-658,-321,0,0,0,0,0,0,0,0,0,-1,566,1345,0,0
-651,-321,0,0,0,0,0,0,0,0,0,-1,573,1345,0,0
-644,-321,-1.87732,-2.12183,0,0,0,0,0,0,0,-1,580,1345,-1.87732,2.12178
-637,-321,-7.75903,2.96069,0,0,0,0,0,0,0,-1,587,1345,-7.75901,-2.96067
-630,-321,-6.82446,2.27332,0.0628531,-0.0248836,-0.0194659,0.066978,-0.0290086,-0.208816,0.0568448,0.0472945,594,1345,-6.82449,-2.27334
-623,-321,-5.81024,1.76404,0.0542121,-0.0221241,-0.0111303,0.0558018,-0.0237138,-0.141872,0.0471379,0.0453629,601,1345,-5.81025,-1.76409
-616,-321,-4.77429,1.23901,0.0445211,-0.018621,-0.00570288,0.0450321,-0.0191319,-0.0893546,0.0380378,0.0476156,608,1345,-4.77427,-1.23899
-609,-321,-4.44672,0.566772,0,0,0,0,0,0,0,-1,615,1345,-4.44671,-0.566745
-602,-321,-4.41687,0.709351,0.0262563,-0.0116038,-0.000385243,0.0262602,-0.0116077,-0.010174,0.0224019,0.04332,622,1345,-4.4169,-0.709341
-595,-321,-4.39691,0.887695,0.018937,-0.00868306,0.00056126,0.0189485,-0.00869446,0.0203095,0.0163215,0.042694,629,1345,-4.39692,-0.887687
-588,-321,-4.37433,1.05225,0.0133938,-0.00666837,0.00182751,0.0135589,-0.00683348,0.0901043,0.0119851,0.0152734,636,1345,-4.37433,-1.05226
-581,-321,-4.37744,1.2384,0.00909548,-0.00535568,0.0020283,0.00937477,-0.00563497,0.136834,0.00875508,0.0118298,643,1345,-4.37745,-1.23836
-574,-321,-4.38452,1.37756,0.00525817,-0.00284593,0.000576858,0.00529902,-0.00288678,0.0707059,0.00479399,0.0141238,650,1345,-4.38454,-1.37756
-567,-321,-4.36987,1.52625,0.00183308,-0.00154812,4.46324e-05,0.00183367,-0.00154871,0.0131971,0.00195513,0.018451,657,1345,-4.36986,-1.52627
-560,-321,-4.36792,1.66309,-0.000331283,-0.00106982,0.000101874,-0.000317488,-0.00108361,0.134593,0.000643249,0.0216535,664,1345,-4.36794,-1.66311
-553,-321,-4.362,1.80847,-0.000511394,-0.0011694,-0.000254862,-0.000424228,-0.00125657,-0.329544,0.000738126,0.0248536,671,1345,-4.362,-1.80851
-546,-321,-4.32922,1.93811,-0.000424592,-0.00143363,-0.000585318,-0.000156365,-0.00170186,-0.429701,0.00108621,0.0238175,678,1345,-4.32923,-1.93812
-539,-321,-4.3623,2.052,-0.000188651,-0.00217952,-0.0010441,0.000258492,-0.00262667,-0.404626,0.00184333,0.0213836,685,1345,-4.36228,-2.05195
-532,-321,-4.3432,2.23511,-0.000666957,-0.00349175,-0.00281588,0.00107089,-0.0052296,-0.552941,0.00389277,0.0156843,692,1345,-4.34323,-2.2351
-525,-321,-4.27557,2.29651,0,0,0,0,0,0,0,-1,699,1345,-4.27558,-2.29645
-518,-321,-4.28607,2.24194,-0.00192023,-0.00687539,-0.00895981,0.00489824,-0.0136939,-0.650508,0.0111274,0.0384104,706,1345,-4.28605,-2.24198
-511,-321,-4.32776,2.18311,-0.00533317,-0.00808671,-0.0113661,0.00473927,-0.0181592,-0.725127,0.0139567,0.0435485,713,1345,-4.32775,-2.18307
-504,-321,-4.38141,2.19165,0,0,0,0,0,0,0,-1,720,1345,-4.3814,-2.1917
-497,-321,-8.68195,4.44519,0,0,0,0,0,0,0,-1,727,1345,-8.68197,-4.44521
-490,-321,-8.57513,3.24146,0,0,0,0,0,0,0,-1,734,1345,-8.57514,-3.24149
-483,-321,-8.1684,2.51001,0,0,0,0,0,0,0,-1,741,1345,-8.16841,-2.51
-476,-321,-7.87097,1.6665,-0.0334374,-0.00253304,-0.0304405,0.0161527,-0.052123,-1.02026,0.0412022,0.042931,748,1345,-7.87097,-1.66656
-469,-321,-7.6601,0.7229,-0.0439719,0.00302899,-0.032907,0.0199654,-0.0609083,-1.09548,0.0486461,0.0417874,755,1345,-7.66011,-0.722866
-462,-321,-7.05145,0.0913086,-0.0581834,0.0133135,-0.0332903,0.0264138,-0.0712837,-1.19589,0.058355,0.0461337,762,1345,-7.05146,-0.0912594
-455,-321,0,0,0,0,0,0,0,0,0,-1,769,1345,0,0
-448,-321,0,0,0,0,0,0,0,0,0,-1,776,1345,0,0
-441,-321,0,0,0,0,0,0,0,0,0,-1,783,1345,0,0
-434,-321,0,0,0,0,0,0,0,0,0,-1,790,1345,0,0
-427,-321,0,0,0,0,0,0,0,0,0,-1,797,1345,0,0
-420,-321,0,0,0,0,0,0,0,0,0,-1,804,1345,0,0
-413,-321,0,0,0,0,0,0,0,0,0,-1,811,1345,0,0
-406,-321,0,0,0,0,0,0,0,0,0,-1,818,1345,0,0
-399,-321,0,0,0,0,0,0,0,0,0,-1,825,1345,0,0
-392,-321,0,0,0,0,0,0,0,0,0,-1,832,1345,0,0
-385,-321,0,0,0,0,0,0,0,0,0,-1,839,1345,0,0
-378,-321,0,0,0,0,0,0,0,0,0,-1,846,1345,0,0
-371,-321,0,0,0,0,0,0,0,0,0,-1,853,1345,0,0
-364,-321,0,0,0,0,0,0,0,0,0,-1,860,1345,0,0
-357,-321,0,0,0,0,0,0,0,0,0,-1,867,1345,0,0
-350,-321,0,0,0,0,0,0,0,0,0,-1,874,1345,0,0
-343,-321,0,0,0,0,0,0,0,0,0,-1,881,1345,0,0
-336,-321,0,0,0,0,0,0,0,0,0,-1,888,1345,0,0
-329,-321,0,0,0,0,0,0,0,0,0,-1,895,1345,0,0
-322,-321,0,0,0,0,0,0,0,0,0,-1,902,1345,0,0
-315,-321,0,0,0,0,0,0,0,0,0,-1,909,1345,0,0
-308,-321,0,0,0,0,0,0,0,0,0,-1,916,1345,0,0
-301,-321,0,0,0,0,0,0,0,0,0,-1,923,1345,0,0
-294,-321,0,0,0,0,0,0,0,0,0,-1,930,1345,0,0
-287,-321,0,0,0,0,0,0,0,0,0,-1,937,1345,0,0
-280,-321,0,0,0,0,0,0,0,0,0,-1,944,1345,0,0
-273,-321,0,0,0,0,0,0,0,0,0,-1,951,1345,0,0
-266,-321,0,0,0,0,0,0,0,0,0,-1,958,1345,0,0
-259,-321,0,0,0,0,0,0,0,0,0,-1,965,1345,0,0
-252,-321,0,0,0,0,0,0,0,0,0,-1,972,1345,0,0
-245,-321,0,0,0,0,0,0,0,0,0,-1,979,1345,0,0
-238,-321,0,0,0,0,0,0,0,0,0,-1,986,1345,0,0
-231,-321,0,0,0,0,0,0,0,0,0,-1,993,1345,0,0
-224,-321,0,0,0,0,0,0,0,0,0,-1,1000,1345,0,0
-217,-321,0,0,0,0,0,0,0,0,0,-1,1007,1345,0,0
-210,-321,0,0,0,0,0,0,0,0,0,-1,1014,1345,0,0
-203,-321,0,0,0,0,0,0,0,0,0,-1,1021,1345,0,0
-196,-321,0,0,0,0,0,0,0,0,0,-1,1028,1345,0,0
-189,-321,0,0,0,0,0,0,0,0,0,-1,1035,1345,0,0
-182,-321,0,0,0,0,0,0,0,0,0,-1,1042,1345,0,0
-175,-321,0,0,0,0,0,0,0,0,0,-1,1049,1345,0,0
-168,-321,0,0,0,0,0,0,0,0,0,-1,1056,1345,0,0
-161,-321,0,0,0,0,0,0,0,0,0,-1,1063,1345,0,0
-154,-321,0,0,0,0,0,0,0,0,0,-1,1070,1345,0,0
-147,-321,0,0,0,0,0,0,0,0,0,-1,1077,1345,0,0
-140,-321,0,0,0,0,0,0,0,0,0,-1,1084,1345,0,0
-133,-321,0,0,0,0,0,0,0,0,0,-1,1091,1345,0,0
-126,-321,0,0,0,0,0,0,0,0,0,-1,1098,1345,0,0
-119,-321,0,0,0,0,0,0,0,0,0,-1,1105,1345,0,0
-112,-321,0,0,0,0,0,0,0,0,0,-1,1112,1345,0,0
-105,-321,0,0,0,0,0,0,0,0,0,-1,1119,1345,0,0
-98,-321,0,0,0,0,0,0,0,0,0,-1,1126,1345,0,0
-91,-321,0,0,0,0,0,0,0,0,0,-1,1133,1345,0,0
-84,-321,0,0,0,0,0,0,0,0,0,-1,1140,1345,0,0
-77,-321,0,0,0,0,0,0,0,0,0,-1,1147,1345,0,0
-70,-321,0,0,0,0,0,0,0,0,0,-1,1154,1345,0,0
-63,-321,0,0,0,0,0,0,0,0,0,-1,1161,1345,0,0
-56,-321,0,0,0,0,0,0,0,0,0,-1,1168,1345,0,0
-49,-321,0,0,0,0,0,0,0,0,0,-1,1175,1345,0,0
-42,-321,0,0,0,0,0,0,0,0,0,-1,1182,1345,0,0
-35,-321,0,0,0,0,0,0,0,0,0,-1,1189,1345,0,0
-28,-321,0,0,0,0,0,0,0,0,0,-1,1196,1345,0,0
-21,-321,0,0,0,0,0,0,0,0,0,-1,1203,1345,0,0
-14,-321,0,0,0,0,0,0,0,0,0,-1,1210,1345,0,0
-7,-321,0,0,0,0,0,0,0,0,0,-1,1217,1345,0,0
0,-321,0,0,0,0,0,0,0,0,0,-1,1224,1345,0,0
7,-321,0,0,0,0,0,0,0,0,0,-1,1231,1345,0,0
14,-321,0,0,0,0,0,0,0,0,0,-1,1238,1345,0,0
21,-321,0,0,0,0,0,0,0,0,0,-1,1245,1345,0,0
28,-321,0,0,0,0,0,0,0,0,0,-1,1252,1345,0,0
35,-321,0,0,0,0,0,0,0,0,0,-1,1259,1345,0,0
42,-321,0,0,0,0,0,0,0,0,0,-1,1266,1345,0,0
49,-321,0,0,0,0,0,0,0,0,0,-1,1273,1345,0,0
56,-321,0,0,0,0,0,0,0,0,0,-1,1280,1345,0,0
63,-321,0,0,0,0,0,0,0,0,0,-1,1287,1345,0,0
70,-321,0,0,0,0,0,0,0,0,0,-1,1294,1345,0,0
77,-321,0,0,0,0,0,0,0,0,0,-1,1301,1345,0,0
84,-321,0,0,0,0,0,0,0,0,0,-1,1308,1345,0,0
91,-321,0,0,0,0,0,0,0,0,0,-1,1315,1345,0,0
98,-321,0,0,0,0,0,0,0,0,0,-1,1322,1345,0,0
105,-321,0,0,0,0,0,0,0,0,0,-1,1329,1345,0,0
112,-321,0,0,0,0,0,0,0,0,0,-1,1336,1345,0,0
119,-321,0,0,0,0,0,0,0,0,0,-1,1343,1345,0,0
126,-321,0,0,0,0,0,0,0,0,0,-1,1350,1345,0,0
133,-321,0,0,0,0,0,0,0,0,0,-1,1357,1345,0,0
140,-321,0,0,0,0,0,0,0,0,0,-1,1364,1345,0,0
147,-321,0,0,0,0,0,0,0,0,0,-1,1371,1345,0,0
154,-321,0,0,0,0,0,0,0,0,0,-1,1378,1345,0,0
161,-321,0,0,0,0,0,0,0,0,0,-1,1385,1345,0,0
168,-321,0,0,0,0,0,0,0,0,0,-1,1392,1345,0,0
175,-321,0,0,0,0,0,0,0,0,0,-1,1399,1345,0,0
182,-321,0,0,0,0,0,0,0,0,0,-1,1406,1345,0,0
189,-321,0,0,0,0,0,0,0,0,0,-1,1413,1345,0,0
196,-321,0,0,0,0,0,0,0,0,0,-1,1420,1345,0,0
203,-321,0,0,0,0,0,0,0,0,0,-1,1427,1345,0,0
210,-321,0,0,0,0,0,0,0,0,0,-1,1434,1345,0,0
217,-321,0,0,0,0,0,0,0,0,0,-1,1441,1345,0,0
224,-321,0,0,0,0,0,0,0,0,0,-1,1448,1345,0,0
231,-321,0,0,0,0,0,0,0,0,0,-1,1455,1345,0,0
238,-321,0,0,0,0,0,0,0,0,0,-1,1462,1345,0,0
245,-321,0,0,0,0,0,0,0,0,0,-1,1469,1345,0,0
252,-321,0,0,0,0,0,0,0,0,0,-1,1476,1345,0,0
259,-321,0,0,0,0,0,0,0,0,0,-1,1483,1345,0,0
266,-321,0,0,0,0,0,0,0,0,0,-1,1490,1345,0,0
273,-321,0,0,0,0,0,0,0,0,0,-1,1497,1345,0,0
280,-321,0,0,0,0,0,0,0,0,0,-1,1504,1345,0,0
287,-321,0,0,0,0,0,0,0,0,0,-1,1511,1345,0,0
294,-321,0,0,0,0,0,0,0,0,0,-1,1518,1345,0,0
301,-321,0,0,0,0,0,0,0,0,0,-1,1525,1345,0,0
308,-321,0,0,0,0,0,0,0,0,0,-1,1532,1345,0,0
315,-321,0,0,0,0,0,0,0,0,0,-1,1539,1345,0,0
322,-321,0,0,0,0,0,0,0,0,0,-1,1546,1345,0,0
329,-321,0,0,0,0,0,0,0,0,0,-1,1553,1345,0,0
336,-321,0,0,0,0,0,0,0,0,0,-1,1560,1345,0,0
343,-321,0,0,0,0,0,0,0,0,0,-1,1567,1345,0,0
350,-321,0,0,0,0,0,0,0,0,0,-1,1574,1345,0,0
357,-321,0,0,0,0,0,0,0,0,0,-1,1581,1345,0,0
364,-321,0,0,0,0,0,0,0,0,0,-1,1588,1345,0,0
371,-321,0,0,0,0,0,0,0,0,0,-1,1595,1345,0,0
378,-321,0,0,0,0,0,0,0,0,0,-1,1602,1345,0,0
385,-321,0,0,0,0,0,0,0,0,0,-1,1609,1345,0,0
392,-321,0,0,0,0,0,0,0,0,0,-1,1616,1345,0,0
399,-321,0,0,0,0,0,0,0,0,0,-1,1623,1345,0,0
406,-321,0,0,0,0,0,0,0,0,0,-1,1630,1345,0,0
413,-321,0,0,0,0,0,0,0,0,0,-1,1637,1345,0,0
420,-321,0,0,0,0,0,0,0,0,0,-1,1644,1345,0,0
427,-321,0,0,0,0,0,0,0,0,0,-1,1651,1345,0,0
434,-321,0,0,0,0,0,0,0,0,0,-1,1658,1345,0,0
441,-321,0,0,0,0,0,0,0,0,0,-1,1665,1345,0,0
448,-321,0,0,0,0,0,0,0,0,0,-1,1672,1345,0,0
455,-321,0,0,0,0,0,0,0,0,0,-1,1679,1345,0,0
462,-321,0,0,0,0,0,0,0,0,0,-1,1686,1345,0,0
469,-321,0,0,0,0,0,0,0,0,0,-1,1693,1345,0,0
476,-321,0,0,0,0,0,0,0,0,0,-1,1700,1345,0,0
483,-321,0,0,0,0,0,0,0,0,0,-1,1707,1345,0,0
490,-321,0,0,0,0,0,0,0,0,0,-1,1714,1345,0,0
497,-321,0,0,0,0,0,0,0,0,0,-1,1721,1345,0,0
504,-321,0,0,0,0,0,0,0,0,0,-1,1728,1345,0,0
511,-321,0,0,0,0,0,0,0,0,0,-1,1735,1345,0,0
518,-321,0,0,0,0,0,0,0,0,0,-1,1742,1345,0,0
525,-321,0,0,0,0,0,0,0,0,0,-1,1749,1345,0,0
532,-321,0,0,0,0,0,0,0,0,0,-1,1756,1345,0,0
539,-321,0,0,0,0,0,0,0,0,0,-1,1763,1345,0,0
546,-321,0,0,0,0,0,0,0,0,0,-1,1770,1345,0,0
553,-321,0,0,0,0,0,0,0,0,0,-1,1777,1345,0,0
560,-321,0,0,0,0,0,0,0,0,0,-1,1784,1345,0,0
567,-321,0,0,0,0,0,0,0,0,0,-1,1791,1345,0,0
574,-321,0,0,0,0,0,0,0,0,0,-1,1798,1345,0,0
581,-321,15.9012,2.58813,-0.047197,0.0158871,-0.0483358,0.042062,-0.0733719,-1.07448,0.067458,0.0437261,1805,1345,15.9013,-2.58817
588,-321,15.2738,2.39417,-0.0534886,0.0172982,-0.0400164,0.0353277,-0.071518,-1.14748,0.0628559,0.0472046,1812,1345,15.2739,-2.39421
595,-321,14.6858,2.13599,0,0,0,0,0,0,0,-1,1819,1345,14.6858,-2.13599
602,-321,14.3992,1.7876,0,0,0,0,0,0,0,-1,1826,1345,14.3992,-1.7876
609,-321,14.2139,1.72437,-0.0481507,0.0139608,-0.0159492,0.0178169,-0.0520068,-1.33358,0.0418927,0.0421,1833,1345,14.2138,-1.72437
616,-321,13.0527,1.61646,-0.0419911,0.0115115,-0.0102512,0.0134084,-0.043888,-1.38783,0.0346051,0.0451354,1840,1345,13.0528,-1.61646
623,-321,12.6975,1.62988,-0.0361462,0.00919894,-0.00579004,0.00992659,-0.0368738,-1.44578,0.0284742,0.0466315,1847,1345,12.6974,-1.62988
630,-321,12.2708,1.87805,0,0,0,0,0,0,0,-1,1854,1345,12.2707,-1.87807
637,-321,9.90015,3.08362,0,0,0,0,0,0,0,-1,1861,1345,9.90017,-3.08363
644,-321,9.9043,3.25574,-0.0176791,0.00234985,0.00319465,0.00284706,-0.0181763,1.4164,0.0131695,0.044,1868,1345,9.90434,-3.25577
651,-321,11.1543,3.83936,-0.0130432,0.000868922,0.00419083,0.00203381,-0.0142081,1.29968,0.0102177,0.0457173,1875,1345,11.1543,-3.83931
658,-321,10.8148,3.92603,-0.00909951,-0.000320014,0.00465503,0.00168861,-0.0111081,1.16344,0.00802771,0.0230926,1882,1345,10.8148,-3.92597
665,-321,10.7411,3.8584,-0.00366779,-0.000663229,0.00492136,0.00298004,-0.00731106,0.933535,0.00611444,0.0141317,1889,1345,10.7411,-3.85842
672,-321,10.759,3.73938,-0.000429919,-0.00213696,0.00390207,0.00271089,-0.00527776,0.677727,0.00469094,0.0118185,1896,1345,10.759,-3.73939
679,-321,10.7697,3.60461,0.000412815,-0.0022911,0.00249825,0.00190146,-0.00377975,0.537382,0.00333927,0.0101484,1903,1345,10.7696,-3.60459
686,-321,10.7488,3.47534,0.000892431,-0.00200558,0.000318198,0.000926957,-0.0020401,0.108083,0.00175276,0.0108655,1910,1345,10.7488,-3.47535
693,-321,10.7491,3.35132,0.00206139,-0.000809127,-0.00211707,0.00318385,-0.00193159,-0.487512,0.00298275,0.0118744,1917,1345,10.7492,-3.35132
700,-321,10.7668,3.22156,0.00343095,0.000427902,-0.00476165,0.00692221,-0.00306336,-0.632665,0.00590692,0.0113931,1924,1345,10.7668,-3.22154
707,-321,10.776,3.09583,0.00509529,0.00266653,-0.00848576,0.0124531,-0.0046913,-0.714327,0.0102309,0.0129768,1931,1345,10.7761,-3.09577
714,-321,10.7687,2.9635,0.00653574,0.00573348,-0.0132146,0.0193553,-0.00708603,-0.770225,0.0158042,0.0128022,1938,1345,10.7687,-2.96352
721,-321,10.7574,2.83545,0.00806235,0.00938836,-0.0192243,0.027961,-0.0105103,-0.802635,0.0229605,0.0166953,1945,1345,10.7575,-2.83543
728,-321,10.774,2.73828,0.00893763,0.015107,-0.0269374,0.0391358,-0.0150911,-0.842406,0.0323176,0.0253966,1952,1345,10.774,-2.73833
735,-321,10.7255,1.06445,0.00913489,0.0230365,-0.0364674,0.0532097,-0.0210382,-0.87957,0.044188,0.0422792,1959,1345,10.7254,-1.06445
742,-321,10.5034,-0.979492,0,0,0,0,0,0,0,-1,1966,1345,10.5034,0.979469
749,-321,11.8132,2.23645,0,0,0,0,0,0,0,-1,1973,1345,11.8132,-2.23639
756,-321,10.1508,-1.41516,0,0,0,0,0,0,0,-1,1980,1345,10.1508,1.41516
763,-321,10.095,-2.69519,0,0,0,0,0,0,0,-1,1987,1345,10.095,2.69521
770,-321,0,0,0,0,0,0,0,0,0,-1,1994,1345,0,0
777,-321,0,0,0,0,0,0,0,0,0,-1,2001,1345,0,0
784,-321,0,0,0,0,0,0,0,0,0,-1,2008,1345,0,0
791,-321,0,0,0,0,0,0,0,0,0,-1,2015,1345,0,0
798,-321,0,0,0,0,0,0,0,0,0,-1,2022,1345,0,0
805,-321,0,0,0,0,0,0,0,0,0,-1,2029,1345,0,0
812,-321,0,0,0,0,0,0,0,0,0,-1,2036,1345,0,0
-700,-328,0,0,0,0,0,0,0,0,0,-1,524,1352,0,0
-693,-328,0,0,0,0,0,0,0,0,0,-1,531,1352,0,0
-686,-328,0,0,0,0,0,0,0,0,0,-1,538,1352,0,0
-679,-328,0,0,0,0,0,0,0,0,0,-1,545,1352,0,0
-672,-328,0,0,0,0,0,0,0,0,0,-1,552,1352,0,0
-665,-328,0,0,0,0,0,0,0,0,0,-1,559,1352,0,0
-658,-328,0,0,0,0,0,0,0,0,0,-1,566,1352,0,0
-651,-328,0,0,0,0,0,0,0,0,0,-1,573,1352,0,0
-644,-328,0,0,0,0,0,0,0,0,0,-1,580,1352,0,0
-637,-328,-1.62659,-0.395752,0,0,0,0,0,0,0,-1,587,1352,-1.6266,0.39579
-630,-328,-6.54974,2.35193,0,0,0,0,0,0,0,-1,594,1352,-6.54972,-2.35196
-623,-328,-5.77167,1.98413,0,0,0,0,0,0,0,-1,601,1352,-5.77164,-1.98408
-616,-328,-4.66541,1.56299,0.0539664,-0.0238824,-0.0106679,0.0554018,-0.0253178,-0.133749,0.0476702,0.0444431,608,1352,-4.66538,-1.56302
-609,-328,-4.21686,0.209351,0,0,0,0,0,0,0,-1,615,1352,-4.21684,-0.209406
-602,-328,-4.35748,0.371338,0.0304088,-0.0153722,-0.00346059,0.0306689,-0.0156323,-0.0750219,0.0271978,0.0485652,622,1352,-4.35749,-0.37135
-595,-328,-4.30554,0.664063,0.0214756,-0.011741,-0.00180334,0.0215732,-0.0118386,-0.0540784,0.0195613,0.0479654,629,1352,-4.30557,-0.664077
-588,-328,-4.21857,1.02209,0.0148638,-0.00917387,3.11497e-05,0.0148639,-0.00917391,0.00129587,0.0140072,0.0280542,636,1352,-4.21857,-1.02213
-581,-328,-4.22699,1.23279,0.00988134,-0.00725186,0.000647712,0.00990579,-0.00727631,0.0377327,0.00995874,0.012352,643,1352,-4.22698,-1.23276
-574,-328,-4.22229,1.36975,0.0057422,-0.00411887,-0.000455046,0.00576315,-0.00413982,-0.0460153,0.00574303,0.0130977,650,1352,-4.22231,-1.36979
-567,-328,-4.22583,1.49634,0.00194874,-0.00249932,-0.000618065,0.00203303,-0.0025836,-0.135532,0.00267172,0.0170698,657,1352,-4.22583,-1.49628
-560,-328,-4.22296,1.65356,-0.000447921,-0.00177806,-0.000289065,-0.000387817,-0.00183816,-0.205003,0.0011188,0.0240089,664,1352,-4.22294,-1.65362
-553,-328,-4.19324,1.83337,-0.000518412,-0.00171945,-0.000536626,-0.00031358,-0.00192428,-0.364635,0.00119215,0.0276296,671,1352,-4.19327,-1.83334
-546,-328,-4.21082,1.96509,-0.000267101,-0.00188869,-0.000813087,7.03635e-05,-0.00222615,-0.393405,0.0015081,0.0262832,678,1352,-4.21083,-1.96512
-539,-328,-4.27588,2.06702,9.94435e-06,-0.00250091,-0.00124529,0.000522804,-0.00301377,-0.390672,0.00220421,0.0207385,685,1352,-4.27587,-2.067
-532,-328,-4.25812,2.23059,-0.000480077,-0.00375399,-0.00292933,0.00123865,-0.00547272,-0.530605,0.00412384,0.014346,692,1352,-4.25811,-2.23059
-525,-328,-4.19574,2.41113,-0.000869902,-0.00508204,-0.00588021,0.00327002,-0.00922196,-0.613434,0.00748015,0.010848,699,1352,-4.19574,-2.4111
-518,-328,-4.17072,2.54663,-0.00209058,-0.00715273,-0.0089553,0.00468445,-0.0139278,-0.647673,0.0111788,0.0273846,706,1352,-4.17071,-2.54668
-511,-328,-4.32025,2.61267,-0.00596749,-0.00821588,-0.0116174,0.00458002,-0.0187634,-0.737165,0.0142825,0.0392294,713,1352,-4.32027,-2.61266
-504,-328,-4.38953,2.71204,-0.0105301,-0.00800476,-0.0156596,0.00644302,-0.0249779,-0.825627,0.0191641,0.0449366,720,1352,-4.38954,-2.71203
-497,-328,-4.40662,2.68726,0,0,0,0,0,0,0,-1,727,1352,-4.40664,-2.68731
-490,-328,-8.3291,3.6748,0,0,0,0,0,0,0,-1,734,1352,-8.32912,-3.67486
-483,-328,-7.51855,2.50867,-0.0289556,-0.00357715,-0.0284514,0.0148865,-0.0474192,-0.995158,0.0375712,0.0482987,741,1352,-7.51855,-2.50862
-476,-328,-7.78748,1.75732,-0.0383944,0.000568465,-0.0323687,0.0188661,-0.0566921,-1.05629,0.0454092,0.045941,748,1352,-7.78749,-1.75734
-469,-328,-7.46844,1.02832,-0.0502672,0.00742335,-0.0357041,0.0244783,-0.0673221,-1.12517,0.0548914,0.0482187,755,1352,-7.46843,-1.02834
-462,-328,-9.59009,1.03406,-0.0657221,0.0189833,-0.0378063,0.0334027,-0.0801415,-1.20643,0.0673807,0.0470675,762,1352,-9.59011,-1.03406
-455,-328,0,0,0,0,0,0,0,0,0,-1,769,1352,0,0
-448,-328,0,0,0,0,0,0,0,0,0,-1,776,1352,0,0
-441,-328,0,0,0,0,0,0,0,0,0,-1,783,1352,0,0
-434,-328,0,0,0,0,0,0,0,0,0,-1,790,1352,0,0
-427,-328,0,0,0,0,0,0,0,0,0,-1,797,1352,0,0
-420,-328,0,0,0,0,0,0,0,0,0,-1,804,1352,0,0
-413,-328,0,0,0,0,0,0,0,0,0,-1,811,1352,0,0
-406,-328,0,0,0,0,0,0,0,0,0,-1,818,1352,0,0
-399,-328,0,0,0,0,0,0,0,0,0,-1,825,1352,0,0
-392,-328,0,0,0,0,0,0,0,0,0,-1,832,1352,0,0
-385,-328,0,0,0,0,0,0,0,0,0,-1,839,1352,0,0
-378,-328,0,0,0,0,0,0,0,0,0,-1,846,1352,0,0
-371,-328,0,0,0,0,0,0,0,0,0,-1,853,1352,0,0
-364,-328,0,0,0,0,0,0,0,0,0,-1,860,1352,0,0
-357,-328,0,0,0,0,0,0,0,0,0,-1,867,1352,0,0
-350,-328,0,0,0,0,0,0,0,0,0,-1,874,1352,0,0
-343,-328,0,0,0,0,0,0,0,0,0,-1,881,1352,0,0
-336,-328,0,0,0,0,0,0,0,0,0,-1,888,1352,0,0
-329,-328,0,0,0,0,0,0,0,0,0,-1,895,1352,0,0
-322,-328,0,0,0,0,0,0,0,0,0,-1,902,1352,0,0
-315,-328,0,0,0,0,0,0,0,0,0,-1,909,1352,0,0
-308,-328,0,0,0,0,0,0,0,0,0,-1,916,1352,0,0
-301,-328,0,0,0,0,0,0,0,0,0,-1,923,1352,0,0
-294,-328,0,0,0,0,0,0,0,0,0,-1,930,1352,0,0
-287,-328,0,0,0,0,0,0,0,0,0,-1,937,1352,0,0
-280,-328,0,0,0,0,0,0,0,0,0,-1,944,1352,0,0
-273,-328,0,0,0,0,0,0,0,0,0,-1,951,1352,0,0
-266,-328,0,0,0,0,0,0,0,0,0,-1,958,1352,0,0
-259,-328,0,0,0,0,0,0,0,0,0,-1,965,1352,0,0
-252,-328,0,0,0,0,0,0,0,0,0,-1,972,1352,0,0
-245,-328,0,0,0,0,0,0,0,0,0,-1,979,1352,0,0
-238,-328,0,0,0,0,0,0,0,0,0,-1,986,1352,0,0
-231,-328,0,0,0,0,0,0,0,0,0,-1,993,1352,0,0
-224,-328,0,0,0,0,0,0,0,0,0,-1,1000,1352,0,0
-217,-328,0,0,0,0,0,0,0,0,0,-1,1007,1352,0,0
-210,-328,0,0,0,0,0,0,0,0,0,-1,1014,1352,0,0
-203,-328,0,0,0,0,0,0,0,0,0,-1,1021,1352,0,0
-196,-328,0,0,0,0,0,0,0,0,0,-1,1028,1352,0,0
-189,-328,0,0,0,0,0,0,0,0,0,-1,1035,1352,0,0
-182,-328,0,0,0,0,0,0,0,0,0,-1,1042,1352,0,0
-175,-328,0,0,0,0,0,0,0,0,0,-1,1049,1352,0,0
-168,-328,0,0,0,0,0,0,0,0,0,-1,1056,1352,0,0
-161,-328,0,0,0,0,0,0,0,0,0,-1,1063,1352,0,0
-154,-328,0,0,0,0,0,0,0,0,0,-1,1070,1352,0,0
-147,-328,0,0,0,0,0,0,0,0,0,-1,1077,1352,0,0
-140,-328,0,0,0,0,0,0,0,0,0,-1,1084,1352,0,0
-133,-328,0,0,0,0,0,0,0,0,0,-1,1091,1352,0,0
-126,-328,0,0,0,0,0,0,0,0,0,-1,1098,1352,0,0
-119,-328,0,0,0,0,0,0,0,0,0,-1,1105,1352,0,0
-112,-328,0,0,0,0,0,0,0,0,0,-1,1112,1352,0,0
-105,-328,0,0,0,0,0,0,0,0,0,-1,1119,1352,0,0
-98,-328,0,0,0,0,0,0,0,0,0,-1,1126,1352,0,0
-91,-328,0,0,0,0,0,0,0,0,0,-1,1133,1352,0,0
-84,-328,0,0,0,0,0,0,0,0,0,-1,1140,1352,0,0
-77,-328,0,0,0,0,0,0,0,0,0,-1,1147,1352,0,0
-70,-328,0,0,0,0,0,0,0,0,0,-1,1154,1352,0,0
-63,-328,0,0,0,0,0,0,0,0,0,-1,1161,1352,0,0
-56,-328,0,0,0,0,0,0,0,0,0,-1,1168,1352,0,0
-49,-328,0,0,0,0,0,0,0,0,0,-1,1175,1352,0,0
-42,-328,0,0,0,0,0,0,0,0,0,-1,1182,1352,0,0
-35,-328,0,0,0,0,0,0,0,0,0,-1,1189,1352,0,0
-28,-328,0,0,0,0,0,0,0,0,0,-1,1196,1352,0,0
-21,-328,0,0,0,0,0,0,0,0,0,-1,1203,1352,0,0
-14,-328,0,0,0,0,0,0,0,0,0,-1,1210,1352,0,0
-7,-328,0,0,0,0,0,0,0,0,0,-1,1217,1352,0,0
0,-328,0,0,0,0,0,0,0,0,0,-1,1224,1352,0,0
7,-328,0,0,0,0,0,0,0,0,0,-1,1231,1352,0,0
14,-328,0,0,0,0,0,0,0,0,0,-1,1238,1352,0,0
21,-328,0,0,0,0,0,0,0,0,0,-1,1245,1352,0,0
28,-328,0,0,0,0,0,0,0,0,0,-1,1252,1352,0,0
35,-328,0,0,0,0,0,0,0,0,0,-1,1259,1352,0,0
42,-328,0,0,0,0,0,0,0,0,0,-1,1266,1352,0,0
49,-328,0,0,0,0,0,0,0,0,0,-1,1273,1352,0,0
56,-328,0,0,0,0,0,0,0,0,0,-1,1280,1352,0,0
63,-328,0,0,0,0,0,0,0,0,0,-1,1287,1352,0,0
70,-328,0,0,0,0,0,0,0,0,0,-1,1294,1352,0,0
77,-328,0,0,0,0,0,0,0,0,0,-1,1301,1352,0,0
84,-328,0,0,0,0,0,0,0,0,0,-1,1308,1352,0,0
91,-328,0,0,0,0,0,0,0,0,0,-1,1315,1352,0,0
98,-328,0,0,0,0,0,0,0,0,0,-1,1322,1352,0,0
105,-328,0,0,0,0,0,0,0,0,0,-1,1329,1352,0,0
112,-328,0,0,0,0,0,0,0,0,0,-1,1336,1352,0,0
119,-328,0,0,0,0,0,0,0,0,0,-1,1343,1352,0,0
126,-328,0,0,0,0,0,0,0,0,0,-1,1350,1352,0,0
133,-328,0,0,0,0,0,0,0,0,0,-1,1357,1352,0,0
140,-328,0,0,0,0,0,0,0,0,0,-1,1364,1352,0,0
147,-328,0,0,0,0,0,0,0,0,0,-1,1371,1352,0,0
154,-328,0,0,0,0,0,0,0,0,0,-1,1378,1352,0,0
161,-328,0,0,0,0,0,0,0,0,0,-1,1385,1352,0,0
168,-328,0,0,0,0,0,0,0,0,0,-1,1392,1352,0,0
175,-328,0,0,0,0,0,0,0,0,0,-1,1399,1352,0,0
182,-328,0,0,0,0,0,0,0,0,0,-1,1406,1352,0,0
189,-328,0,0,0,0,0,0,0,0,0,-1,1413,1352,0,0
196,-328,0,0,0,0,0,0,0,0,0,-1,1420,1352,0,0
203,-328,0,0,0,0,0,0,0,0,0,-1,1427,1352,0,0
210,-328,0,0,0,0,0,0,0,0,0,-1,1434,1352,0,0
217,-328,0,0,0,0,0,0,0,0,0,-1,1441,1352,0,0
224,-328,0,0,0,0,0,0,0,0,0,-1,1448,1352,0,0
231,-328,0,0,0,0,0,0,0,0,0,-1,1455,1352,0,0
238,-328,0,0,0,0,0,0,0,0,0,-1,1462,1352,0,0
245,-328,0,0,0,0,0,0,0,0,0,-1,1469,1352,0,0
252,-328,0,0,0,0,0,0,0,0,0,-1,1476,1352,0,0
259,-328,0,0,0,0,0,0,0,0,0,-1,1483,1352,0,0
266,-328,0,0,0,0,0,0,0,0,0,-1,1490,1352,0,0
273,-328,0,0,0,0,0,0,0,0,0,-1,1497,1352,0,0
280,-328,0,0,0,0,0,0,0,0,0,-1,1504,1352,0,0
287,-328,0,0,0,0,0,0,0,0,0,-1,1511,1352,0,0
294,-328,0,0,0,0,0,0,0,0,0,-1,1518,1352,0,0
301,-328,0,0,0,0,0,0,0,0,0,-1,1525,1352,0,0
308,-328,0,0,0,0,0,0,0,0,0,-1,1532,1352,0,0
315,-328,0,0,0,0,0,0,0,0,0,-1,1539,1352,0,0
322,-328,0,0,0,0,0,0,0,0,0,-1,1546,1352,0,0
329,-328,0,0,0,0,0,0,0,0,0,-1,1553,1352,0,0
336,-328,0,0,0,0,0,0,0,0,0,-1,1560,1352,0,0
343,-328,0,0,0,0,0,0,0,0,0,-1,1567,1352,0,0
350,-328,0,0,0,0,0,0,0,0,0,-1,1574,1352,0,0
357,-328,0,0,0,0,0,0,0,0,0,-1,1581,1352,0,0
364,-328,0,0,0,0,0,0,0,0,0,-1,1588,1352,0,0
371,-328,0,0,0,0,0,0,0,0,0,-1,1595,1352,0,0
378,-328,0,0,0,0,0,0,0,0,0,-1,1602,1352,0,0
385,-328,0,0,0,0,0,0,0,0,0,-1,1609,1352,0,0
392,-328,0,0,0,0,0,0,0,0,0,-1,1616,1352,0,0
399,-328,0,0,0,0,0,0,0,0,0,-1,1623,1352,0,0
406,-328,0,0,0,0,0,0,0,0,0,-1,1630,1352,0,0
413,-328,0,0,0,0,0,0,0,0,0,-1,1637,1352,0,0
420,-328,0,0,0,0,0,0,0,0,0,-1,1644,1352,0,0
427,-328,0,0,0,0,0,0,0,0,0,-1,1651,1352,0,0
434,-328,0,0,0,0,0,0,0,0,0,-1,1658,1352,0,0
441,-328,0,0,0,0,0,0,0,0,0,-1,1665,1352,0,0
448,-328,0,0,0,0,0,0,0,0,0,-1,1672,1352,0,0
455,-328,0,0,0,0,0,0,0,0,0,-1,1679,1352,0,0
462,-328,0,0,0,0,0,0,0,0,0,-1,1686,1352,0,0
469,-328,0,0,0,0,0,0,0,0,0,-1,1693,1352,0,0
476,-328,0,0,0,0,0,0,0,0,0,-1,1700,1352,0,0
483,-328,0,0,0,0,0,0,0,0,0,-1,1707,1352,0,0
490,-328,0,0,0,0,0,0,0,0,0,-1,1714,1352,0,0
497,-328,0,0,0,0,0,0,0,0,0,-1,1721,1352,0,0
504,-328,0,0,0,0,0,0,0,0,0,-1,1728,1352,0,0
511,-328,0,0,0,0,0,0,0,0,0,-1,1735,1352,0,0
518,-328,0,0,0,0,0,0,0,0,0,-1,1742,1352,0,0
525,-328,0,0,0,0,0,0,0,0,0,-1,1749,1352,0,0
532,-328,0,0,0,0,0,0,0,0,0,-1,1756,1352,0,0
539,-328,0,0,0,0,0,0,0,0,0,-1,1763,1352,0,0
546,-328,0,0,0,0,0,0,0,0,0,-1,1770,1352,0,0
553,-328,0,0,0,0,0,0,0,0,0,-1,1777,1352,0,0
560,-328,0,0,0,0,0,0,0,0,0,-1,1784,1352,0,0
567,-328,0,0,0,0,0,0,0,0,0,-1,1791,1352,0,0
574,-328,16.9092,2.98987,0,0,0,0,0,0,0,-1,1798,1352,16.9091,-2.98983
581,-328,16.1277,2.32861,-0.0524028,0.0186504,-0.0494149,0.043984,-0.0777364,-1.09706,0.0711702,0.0424262,1805,1352,16.1277,-2.32859
588,-328,15.3806,1.72461,-0.057586,0.01947,-0.0404166,0.0367802,-0.0748962,-1.16614,0.0657163,0.0458837,1812,1352,15.3806,-1.72461
595,-328,14.8156,1.10718,0,0,0,0,0,0,0,-1,1819,1352,14.8156,-1.10714
602,-328,15.6709,2.36096,0,0,0,0,0,0,0,-1,1826,1352,15.6709,-2.36094
609,-328,14.5751,2.10913,-0.0509097,0.0148418,-0.0165723,0.0187826,-0.0548504,-1.33734,0.0441794,0.0455223,1833,1352,14.5751,-2.10915
616,-328,12.4805,1.37195,-0.0447238,0.0122392,-0.010968,0.0142781,-0.0467627,-1.387,0.0368679,0.0444787,1840,1352,12.4804,-1.372
623,-328,12.3007,1.43213,-0.038869,0.00981673,-0.00642495,0.0106503,-0.0397026,-1.44177,0.0306418,0.0476843,1847,1352,12.3007,-1.43214
630,-328,10.2115,3.39844,0,0,0,0,0,0,0,-1,1854,1352,10.2115,-3.39847
637,-328,10.2603,3.51343,0,0,0,0,0,0,0,-1,1861,1352,10.2603,-3.51339
644,-328,10.4513,3.63342,-0.0190332,0.00238708,0.00289496,0.00277143,-0.0194176,1.4388,0.0139609,0.0413086,1868,1352,10.4513,-3.63337
651,-328,10.7759,3.97656,-0.0136488,0.000703674,0.00376857,0.00163302,-0.0145781,1.32902,0.0103063,0.0353954,1875,1352,10.7759,-3.9766
658,-328,10.6312,3.97705,-0.00907497,-0.000473343,0.00409233,0.00116252,-0.0107108,1.19051,0.00755793,0.016248,1882,1352,10.6312,-3.97703
665,-328,10.6039,3.86218,-0.00341674,-0.000710004,0.00435083,0.00249309,-0.00661983,0.936184,0.0054382,0.0113331,1889,1352,10.6038,-3.86218
672,-328,10.6036,3.74072,-0.000165457,-0.0021103,0.00333197,0.00233309,-0.00460885,0.643418,0.00407909,0.0107158,1896,1352,10.6036,-3.74072
679,-328,10.6259,3.60815,0.000827125,-0.00203826,0.00189125,0.00176707,-0.00297821,0.461244,0.00276927,0.0125037,1903,1352,10.6259,-3.6082
686,-328,10.6256,3.47717,0.00159427,-0.00178993,-0.000317888,0.00162387,-0.00181953,-0.0928508,0.00198912,0.0116395,1910,1352,10.6257,-3.47713
693,-328,10.6333,3.35999,0.0029178,-0.000715365,-0.0026776,0.00433688,-0.00213444,-0.487344,0.00380766,0.00892208,1917,1352,10.6333,-3.35995
700,-328,10.6404,3.24548,0.00444532,0.000221979,-0.0053167,0.00805436,-0.00338705,-0.596363,0.00678643,0.0122553,1924,1352,10.6404,-3.24546
707,-328,10.65,3.11536,0.0063687,0.00193768,-0.00902038,0.0134417,-0.00513529,-0.664976,0.011077,0.0144657,1931,1352,10.65,-3.11533
714,-328,10.6794,2.98364,0.00819017,0.00443635,-0.0137837,0.0202242,-0.00759763,-0.71773,0.0166052,0.0130499,1938,1352,10.6794,-2.98359
721,-328,10.6317,2.83447,0.0102979,0.0073562,-0.0199311,0.0288123,-0.0111582,-0.748566,0.0238155,0.0217067,1945,1352,10.6317,-2.83447
728,-328,10.6796,2.60767,0.0119959,0.0118416,-0.0278615,0.0397804,-0.0159429,-0.784014,0.0331385,0.0357968,1952,1352,10.6795,-2.60761
735,-328,11.4258,2.38562,0.0130584,0.0186268,-0.0378164,0.0537614,-0.0220762,-0.822144,0.0450406,0.0439818,1959,1352,11.4258,-2.38557
742,-328,12.2731,2.12695,0,0,0,0,0,0,0,-1,1966,1352,12.2731,-2.12693
749,-328,10.415,0.914795,0,0,0,0,0,0,0,-1,1973,1352,10.415,-0.9148
756,-328,10.8457,3.07959,0,0,0,0,0,0,0,-1,1980,1352,10.8457,-3.07957
763,-328,0,0,0,0,0,0,0,0,0,-1,1987,1352,0,0
770,-328,0,0,0,0,0,0,0,0,0,-1,1994,1352,0,0
777,-328,0,0,0,0,0,0,0,0,0,-1,2001,1352,0,0
784,-328,0,0,0,0,0,0,0,0,0,-1,2008,1352,0,0
791,-328,0,0,0,0,0,0,0,0,0,-1,2015,1352,0,0
798,-328,0,0,0,0,0,0,0,0,0,-1,2022,1352,0,0
805,-328,0,0,0,0,0,0,0,0,0,-1,2029,1352,0,0
812,-328,0,0,0,0,0,0,0,0,0,-1,2036,1352,0,0
-700,-335,0,0,0,0,0,0,0,0,0,-1,524,1359,0,0
-693,-335,0,0,0,0,0,0,0,0,0,-1,531,1359,0,0
-686,-335,0,0,0,0,0,0,0,0,0,-1,538,1359,0,0
-679,-335,0,0,0,0,0,0,0,0,0,-1,545,1359,0,0
-672,-335,0,0,0,0,0,0,0,0,0,-1,552,1359,0,0
-665,-335,0,0,0,0,0,0,0,0,0,-1,559,1359,0,0
-658,-335,0,0,0,0,0,0,0,0,0,-1,566,1359,0,0
-651,-335,0,0,0,0,0,0,0,0,0,-1,573,1359,0,0
-644,-335,0,0,0,0,0,0,0,0,0,-1,580,1359,0,0
-637,-335,-1.0719,-3.11389,0,0,0,0,0,0,0,-1,587,1359,-1.07188,3.11392
-630,-335,-7.8551,3.20483,0,0,0,0,0,0,0,-1,594,1359,-7.8551,-3.20487
-623,-335,-6.12933,2.44568,0.0841771,-0.0318989,-0.0240561,0.0889651,-0.0366869,-0.196467,0.0746088,0.0416547,601,1359,-6.12931,-2.44566
-616,-335,-4.55798,1.77405,0.0652186,-0.0277338,-0.0161653,0.0679497,-0.0304649,-0.167365,0.0581773,0.0433237,608,1359,-4.55797,-1.77407
-609,-335,-4.06342,-0.214966,0,0,0,0,0,0,0,-1,615,1359,-4.06339,0.214972
-602,-335,-4.31299,-0.0196533,0,0,0,0,0,0,0,-1,622,1359,-4.31301,0.0197077
-595,-335,-4.27673,0.660278,0.0239352,-0.0145041,-0.00439986,0.0244324,-0.0150013,-0.112524,0.0229831,0.0439818,629,1359,-4.27674,-0.660282
-588,-335,-4.01825,1.16309,0.0160495,-0.0115138,-0.00198254,0.0161914,-0.0116557,-0.0714365,0.0161485,0.0320257,636,1359,-4.01824,-1.1631
-581,-335,-4.07648,1.24622,0.0102702,-0.00903909,-0.000926797,0.0103145,-0.00908347,-0.047851,0.011207,0.0159872,643,1359,-4.07646,-1.2462
-574,-335,-4.0849,1.36743,0.00571184,-0.0054003,-0.00168334,0.00596125,-0.00564971,-0.147091,0.00670439,0.0111778,650,1359,-4.08492,-1.36741
-567,-335,-4.0769,1.49634,0.0015895,-0.0034798,-0.00142256,0.00196141,-0.00385171,-0.255718,0.00341485,0.0156572,657,1359,-4.07693,-1.49637
-560,-335,-4.05005,1.60864,-0.000888855,-0.00246517,-0.000786283,-0.000563714,-0.00279031,-0.392104,0.00170368,0.0243049,664,1359,-4.05006,-1.60862
-553,-335,-4.06317,1.76843,-0.00074644,-0.00220182,-0.000928893,-0.000294142,-0.00265412,-0.453131,0.00167997,0.0274033,671,1359,-4.06317,-1.76841
-546,-335,-4.09894,1.97217,-0.000248989,-0.00224397,-0.0011631,0.000285766,-0.00277873,-0.430948,0.00195472,0.0249257,678,1359,-4.09894,-1.97214
-539,-335,-4.12805,2.11279,0.000109735,-0.00266878,-0.00157125,0.000817823,-0.00337686,-0.423397,0.00256764,0.0190374,685,1359,-4.12808,-2.11275
-532,-335,-4.10767,2.25391,-0.000373596,-0.00384201,-0.00312915,0.00146977,-0.00568538,-0.532363,0.00436348,0.0146597,692,1359,-4.10767,-2.25393
-525,-335,-4.04248,2.40857,-0.000922791,-0.00517468,-0.00589871,0.00322139,-0.00931886,-0.61244,0.00751999,0.010402,699,1359,-4.04245,-2.40857
-518,-335,-4.06323,2.54651,-0.00228081,-0.00720147,-0.0088545,0.00444882,-0.0139311,-0.649886,0.0110724,0.0152571,706,1359,-4.06323,-2.54648
-511,-335,-4.14581,2.60315,-0.00648256,-0.00818025,-0.0117671,0.00446626,-0.0191291,-0.749392,0.014473,0.034482,713,1359,-4.14583,-2.6032
-504,-335,-4.48053,2.91235,-0.0115928,-0.00774128,-0.0160048,0.00645325,-0.0257873,-0.845271,0.0196982,0.0462262,720,1359,-4.48052,-2.91239
-497,-335,-4.76703,3.0105,0,0,0,0,0,0,0,-1,727,1359,-4.767,-3.01051
-490,-335,-6.80505,3.22363,0,0,0,0,0,0,0,-1,734,1359,-6.80508,-3.22367
-483,-335,-6.95557,2.52917,-0.0327025,-0.00171491,-0.0298259,0.0164015,-0.0508189,-1.02495,0.0404699,0.0471527,741,1359,-6.95556,-2.52916
-476,-335,-7.35077,1.69653,-0.0432341,0.00323076,-0.0342977,0.0214239,-0.0614273,-1.08309,0.0496579,0.0463908,748,1359,-7.35077,-1.69657
-469,-335,-8.2002,1.20618,-0.0563676,0.0111475,-0.0384903,0.0285864,-0.0738065,-1.14539,0.061008,0.0483942,755,1359,-8.20019,-1.20623
-462,-335,-8.87335,0.621826,-0.0729384,0.0238221,-0.0420958,0.0395722,-0.0886885,-1.21277,0.0758397,0.0452506,762,1359,-8.87335,-0.6218
-455,-335,-9.83044,0.584961,-0.0945607,0.0438379,-0.0441447,0.0567196,-0.107442,-1.28687,0.0962753,0.0493014,769,1359,-9.83042,-0.584914
-448,-335,0,0,0,0,0,0,0,0,0,-1,776,1359,0,0
-441,-335,0,0,0,0,0,0,0,0,0,-1,783,1359,0,0
-434,-335,0,0,0,0,0,0,0,0,0,-1,790,1359,0,0
-427,-335,0,0,0,0,0,0,0,0,0,-1,797,1359,0,0
-420,-335,0,0,0,0,0,0,0,0,0,-1,804,1359,0,0
-413,-335,0,0,0,0,0,0,0,0,0,-1,811,1359,0,0
-406,-335,0,0,0,0,0,0,0,0,0,-1,818,1359,0,0
-399,-335,0,0,0,0,0,0,0,0,0,-1,825,1359,0,0
-392,-335,0,0,0,0,0,0,0,0,0,-1,832,1359,0,0
-385,-335,0,0,0,0,0,0,0,0,0,-1,839,1359,0,0
-378,-335,0,0,0,0,0,0,0,0,0,-1,846,1359,0,0
-371,-335,0,0,0,0,0,0,0,0,0,-1,853,1359,0,0
-364,-335,0,0,0,0,0,0,0,0,0,-1,860,1359,0,0
-357,-335,0,0,0,0,0,0,0,0,0,-1,867,1359,0,0
-350,-335,0,0,0,0,0,0,0,0,0,-1,874,1359,0,0
-343,-335,0,0,0,0,0,0,0,0,0,-1,881,1359,0,0
-336,-335,0,0,0,0,0,0,0,0,0,-1,888,1359,0,0
-329,-335,0,0,0,0,0,0,0,0,0,-1,895,1359,0,0
-322,-335,0,0,0,0,0,0,0,0,0,-1,902,1359,0,0
-315,-335,0,0,0,0,0,0,0,0,0,-1,909,1359,0,0
-308,-335,0,0,0,0,0,0,0,0,0,-1,916,1359,0,0
-301,-335,0,0,0,0,0,0,0,0,0,-1,923,1359,0,0
-294,-335,0,0,0,0,0,0,0,0,0,-1,930,1359,0,0
-287,-335,0,0,0,0,0,0,0,0,0,-1,937,1359,0,0
-280,-335,0,0,0,0,0,0,0,0,0,-1,944,1359,0,0
-273,-335,0,0,0,0,0,0,0,0,0,-1,951,1359,0,0
-266,-335,0,0,0,0,0,0,0,0,0,-1,958,1359,0,0
-259,-335,0,0,0,0,0,0,0,0,0,-1,965,1359,0,0
-252,-335,0,0,0,0,0,0,0,0,0,-1,972,1359,0,0
-245,-335,0,0,0,0,0,0,0,0,0,-1,979,1359,0,0
-238,-335,0,0,0,0,0,0,0,0,0,-1,986,1359,0,0
-231,-335,0,0,0,0,0,0,0,0,0,-1,993,1359,0,0
-224,-335,0,0,0,0,0,0,0,0,0,-1,1000,1359,0,0
-217,-335,0,0,0,0,0,0,0,0,0,-1,1007,1359,0,0
-210,-335,0,0,0,0,0,0,0,0,0,-1,1014,1359,0,0
-203,-335,0,0,0,0,0,0,0,0,0,-1,1021,1359,0,0
-196,-335,0,0,0,0,0,0,0,0,0,-1,1028,1359,0,0
-189,-335,0,0,0,0,0,0,0,0,0,-1,1035,1359,0,0
-182,-335,0,0,0,0,0,0,0,0,0,-1,1042,1359,0,0
-175,-335,0,0,0,0,0,0,0,0,0,-1,1049,1359,0,0
-168,-335,0,0,0,0,0,0,0,0,0,-1,1056,1359,0,0
-161,-335,0,0,0,0,0,0,0,0,0,-1,1063,1359,0,0
-154,-335,0,0,0,0,0,0,0,0,0,-1,1070,1359,0,0
-147,-335,0,0,0,0,0,0,0,0,0,-1,1077,1359,0,0
-140,-335,0,0,0,0,0,0,0,0,0,-1,1084,1359,0,0
-133,-335,0,0,0,0,0,0,0,0,0,-1,1091,1359,0,0
-126,-335,0,0,0,0,0,0,0,0,0,-1,1098,1359,0,0
-119,-335,0,0,0,0,0,0,0,0,0,-1,1105,1359,0,0
-112,-335,0,0,0,0,0,0,0,0,0,-1,1112,1359,0,0
-105,-335,0,0,0,0,0,0,0,0,0,-1,1119,1359,0,0
-98,-335,0,0,0,0,0,0,0,0,0,-1,1126,1359,0,0
-91,-335,0,0,0,0,0,0,0,0,0,-1,1133,1359,0,0
-84,-335,0,0,0,0,0,0,0,0,0,-1,1140,1359,0,0
-77,-335,0,0,0,0,0,0,0,0,0,-1,1147,1359,0,0
-70,-335,0,0,0,0,0,0,0,0,0,-1,1154,1359,0,0
-63,-335,0,0,0,0,0,0,0,0,0,-1,1161,1359,0,0
-56,-335,0,0,0,0,0,0,0,0,0,-1,1168,1359,0,0
-49,-335,0,0,0,0,0,0,0,0,0,-1,1175,1359,0,0
-42,-335,0,0,0,0,0,0,0,0,0,-1,1182,1359,0,0
-35,-335,0,0,0,0,0,0,0,0,0,-1,1189,1359,0,0
-28,-335,0,0,0,0,0,0,0,0,0,-1,1196,1359,0,0
-21,-335,0,0,0,0,0,0,0,0,0,-1,1203,1359,0,0
-14,-335,0,0,0,0,0,0,0,0,0,-1,1210,1359,0,0
-7,-335,0,0,0,0,0,0,0,0,0,-1,1217,1359,0,0
0,-335,0,0,0,0,0,0,0,0,0,-1,1224,1359,0,0
7,-335,0,0,0,0,0,0,0,0,0,-1,1231,1359,0,0
14,-335,0,0,0,0,0,0,0,0,0,-1,1238,1359,0,0
21,-335,0,0,0,0,0,0,0,0,0,-1,1245,1359,0,0
28,-335,0,0,0,0,0,0,0,0,0,-1,1252,1359,0,0
35,-335,0,0,0,0,0,0,0,0,0,-1,1259,1359,0,0
42,-335,0,0,0,0,0,0,0,0,0,-1,1266,1359,0,0
49,-335,0,0,0,0,0,0,0,0,0,-1,1273,1359,0,0
56,-335,0,0,0,0,0,0,0,0,0,-1,1280,1359,0,0
63,-335,0,0,0,0,0,0,0,0,0,-1,1287,1359,0,0
70,-335,0,0,0,0,0,0,0,0,0,-1,1294,1359,0,0
77,-335,0,0,0,0,0,0,0,0,0,-1,1301,1359,0,0
84,-335,0,0,0,0,0,0,0,0,0,-1,1308,1359,0,0
91,-335,0,0,0,0,0,0,0,0,0,-1,1315,1359,0,0
98,-335,0,0,0,0,0,0,0,0,0,-1,1322,1359,0,0
105,-335,0,0,0,0,0,0,0,0,0,-1,1329,1359,0,0
112,-335,0,0,0,0,0,0,0,0,0,-1,1336,1359,0,0
119,-335,0,0,0,0,0,0,0,0,0,-1,1343,1359,0,0
126,-335,0,0,0,0,0,0,0,0,0,-1,1350,1359,0,0
133,-335,0,0,0,0,0,0,0,0,0,-1,1357,1359,0,0
140,-335,0,0,0,0,0,0,0,0,0,-1,1364,1359,0,0
147,-335,0,0,0,0,0,0,0,0,0,-1,1371,1359,0,0
154,-335,0,0,0,0,0,0,0,0,0,-1,1378,1359,0,0
161,-335,0,0,0,0,0,0,0,0,0,-1,1385,1359,0,0
168,-335,0,0,0,0,0,0,0,0,0,-1,1392,1359,0,0
175,-335,0,0,0,0,0,0,0,0,0,-1,1399,1359,0,0
182,-335,0,0,0,0,0,0,0,0,0,-1,1406,1359,0,0
189,-335,0,0,0,0,0,0,0,0,0,-1,1413,1359,0,0
196,-335,0,0,0,0,0,0,0,0,0,-1,1420,1359,0,0
203,-335,0,0,0,0,0,0,0,0,0,-1,1427,1359,0,0
210,-335,0,0,0,0,0,0,0,0,0,-1,1434,1359,0,0
217,-335,0,0,0,0,0,0,0,0,0,-1,1441,1359,0,0
224,-335,0,0,0,0,0,0,0,0,0,-1,1448,1359,0,0
231,-335,0,0,0,0,0,0,0,0,0,-1,1455,1359,0,0
238,-335,0,0,0,0,0,0,0,0,0,-1,1462,1359,0,0
245,-335,0,0,0,0,0,0,0,0,0,-1,1469,1359,0,0
252,-335,0,0,0,0,0,0,0,0,0,-1,1476,1359,0,0
259,-335,0,0,0,0,0,0,0,0,0,-1,1483,1359,0,0
266,-335,0,0,0,0,0,0,0,0,0,-1,1490,1359,0,0
273,-335,0,0,0,0,0,0,0,0,0,-1,1497,1359,0,0
280,-335,0,0,0,0,0,0,0,0,0,-1,1504,1359,0,0
287,-335,0,0,0,0,0,0,0,0,0,-1,1511,1359,0,0
294,-335,0,0,0,0,0,0,0,0,0,-1,1518,1359,0,0
301,-335,0,0,0,0,0,0,0,0,0,-1,1525,1359,0,0
308,-335,0,0,0,0,0,0,0,0,0,-1,1532,1359,0,0
315,-335,0,0,0,0,0,0,0,0,0,-1,1539,1359,0,0
322,-335,0,0,0,0,0,0,0,0,0,-1,1546,1359,0,0
329,-335,0,0,0,0,0,0,0,0,0,-1,1553,1359,0,0
336,-335,0,0,0,0,0,0,0,0,0,-1,1560,1359,0,0
343,-335,0,0,0,0,0,0,0,0,0,-1,1567,1359,0,0
350,-335,0,0,0,0,0,0,0,0,0,-1,1574,1359,0,0
357,-335,0,0,0,0,0,0,0,0,0,-1,1581,1359,0,0
364,-335,0,0,0,0,0,0,0,0,0,-1,1588,1359,0,0
371,-335,0,0,0,0,0,0,0,0,0,-1,1595,1359,0,0
378,-335,0,0,0,0,0,0,0,0,0,-1,1602,1359,0,0
385,-335,0,0,0,0,0,0,0,0,0,-1,1609,1359,0,0
392,-335,0,0,0,0,0,0,0,0,0,-1,1616,1359,0,0
399,-335,0,0,0,0,0,0,0,0,0,-1,1623,1359,0,0
406,-335,0,0,0,0,0,0,0,0,0,-1,1630,1359,0,0
413,-335,0,0,0,0,0,0,0,0,0,-1,1637,1359,0,0
420,-335,0,0,0,0,0,0,0,0,0,-1,1644,1359,0,0
427,-335,0,0,0,0,0,0,0,0,0,-1,1651,1359,0,0
434,-335,0,0,0,0,0,0,0,0,0,-1,1658,1359,0,0
441,-335,0,0,0,0,0,0,0,0,0,-1,1665,1359,0,0
448,-335,0,0,0,0,0,0,0,0,0,-1,1672,1359,0,0
455,-335,0,0,0,0,0,0,0,0,0,-1,1679,1359,0,0
462,-335,0,0,0,0,0,0,0,0,0,-1,1686,1359,0,0
469,-335,0,0,0,0,0,0,0,0,0,-1,1693,1359,0,0
476,-335,0,0,0,0,0,0,0,0,0,-1,1700,1359,0,0
483,-335,0,0,0,0,0,0,0,0,0,-1,1707,1359,0,0
490,-335,0,0,0,0,0,0,0,0,0,-1,1714,1359,0,0
497,-335,0,0,0,0,0,0,0,0,0,-1,1721,1359,0,0
504,-335,0,0,0,0,0,0,0,0,0,-1,1728,1359,0,0
511,-335,0,0,0,0,0,0,0,0,0,-1,1735,1359,0,0
518,-335,0,0,0,0,0,0,0,0,0,-1,1742,1359,0,0
525,-335,0,0,0,0,0,0,0,0,0,-1,1749,1359,0,0
532,-335,0,0,0,0,0,0,0,0,0,-1,1756,1359,0,0
539,-335,0,0,0,0,0,0,0,0,0,-1,1763,1359,0,0
546,-335,0,0,0,0,0,0,0,0,0,-1,1770,1359,0,0
553,-335,0,0,0,0,0,0,0,0,0,-1,1777,1359,0,0
560,-335,0,0,0,0,0,0,0,0,0,-1,1784,1359,0,0
567,-335,0,0,0,0,0,0,0,0,0,-1,1791,1359,0,0
574,-335,16.5774,3.08228,-0.0458595,0.0178336,-0.0581269,0.0522663,-0.0802922,-1.03601,0.0771007,0.0424401,1798,1359,16.5774,-3.08233
581,-335,16.167,1.96582,-0.0546112,0.019866,-0.0488178,0.0440268,-0.078772,-1.11122,0.0718377,0.044011,1805,1359,16.167,-1.96576
588,-335,15.5054,1.03821,-0.0591938,0.0203494,-0.0394944,0.0366277,-0.075472,-1.17985,0.0660033,0.0457422,1812,1359,15.5054,-1.03823
595,-335,14.9298,0.318726,0,0,0,0,0,0,0,-1,1819,1359,14.9298,-0.318786
602,-335,15.9939,2.98328,0,0,0,0,0,0,0,-1,1826,1359,15.9939,-2.9833
609,-335,14.7223,2.97852,-0.052215,0.0153316,-0.0161697,0.0190028,-0.0558863,-1.34754,0.0449513,0.0458517,1833,1359,14.7223,-2.97853
616,-335,11.822,1.22217,-0.0459546,0.0126614,-0.0107121,0.0145577,-0.0478509,-1.39559,0.037702,0.0453327,1840,1359,11.8221,-1.22213
623,-335,10.8331,4.58472,0,0,0,0,0,0,0,-1,1847,1359,10.8331,-4.58471
630,-335,10.8865,3.64746,0,0,0,0,0,0,0,-1,1854,1359,10.8864,-3.64742
637,-335,10.7032,4.10864,0,0,0,0,0,0,0,-1,1861,1359,10.7032,-4.10862
644,-335,10.6215,4.09546,-0.018962,0.00234026,0.00304591,0.00276722,-0.019389,1.43153,0.0139403,0.0375477,1868,1359,10.6215,-4.09548
651,-335,10.5201,4.09497,-0.0130222,0.00054274,0.00369116,0.00148209,-0.0139615,1.3216,0.009839,0.0167333,1875,1359,10.5201,-4.09494
658,-335,10.4968,4.00269,-0.00808543,-0.000555748,0.00378622,0.00101884,-0.00966001,1.17668,0.00680509,0.0122752,1882,1359,10.4969,-4.00264
665,-335,10.4846,3.85828,-0.00260546,-0.000751614,0.0039248,0.00235423,-0.00571131,0.901359,0.00478921,0.0126051,1889,1359,10.4847,-3.85822
672,-335,10.4976,3.72058,0.000461504,-0.00200952,0.00288486,0.00236428,-0.0039123,0.583077,0.00366034,0.0156402,1896,1359,10.4975,-3.72052
679,-335,10.5098,3.6145,0.00144708,-0.00175736,0.00143596,0.0019964,-0.00230667,0.365365,0.00248653,0.0134873,1903,1359,10.5097,-3.6145
686,-335,10.5267,3.47705,0.00230431,-0.00158163,-0.000739669,0.00244034,-0.00171766,-0.181875,0.00241268,0.0105658,1910,1359,10.5267,-3.47707
693,-335,10.5345,3.33521,0.00366609,-0.000673127,-0.00296802,0.00517294,-0.00217997,-0.469784,0.00436086,0.00966104,1917,1359,10.5346,-3.33521
700,-335,10.5201,3.25012,0.00536178,-8.89291e-05,-0.0055111,0.00878458,-0.00351173,-0.555771,0.00731361,0.0100292,1924,1359,10.5201,-3.25007
707,-335,10.5089,3.13232,0.00756106,0.00102941,-0.00909256,0.0139565,-0.00536604,-0.612985,0.0115175,0.0131288,1931,1359,10.5089,-3.13232
714,-335,10.5475,2.96851,0.00981392,0.00278567,-0.0137963,0.0205367,-0.00793706,-0.660693,0.0169673,0.0173894,1938,1359,10.5475,-2.96852
721,-335,10.4622,2.70605,0.0126391,0.00479271,-0.0199712,0.0290688,-0.011637,-0.688412,0.0242092,0.0317125,1945,1359,10.4622,-2.70604
728,-335,10.4463,2.4054,0.0154837,0.00823132,-0.0281404,0.0402306,-0.0165155,-0.721321,0.0337026,0.0451144,1952,1359,10.4463,-2.40539
735,-335,10.4445,2.14526,0,0,0,0,0,0,0,-1,1959,1359,10.4445,-2.14523
742,-335,10.2426,1.54395,0,0,0,0,0,0,0,-1,1966,1359,10.2426,-1.54389
749,-335,10.2457,1.08655,0,0,0,0,0,0,0,-1,1973,1359,10.2457,-1.08653
756,-335,10.3704,0.90625,0,0,0,0,0,0,0,-1,1980,1359,10.3704,-0.906192
763,-335,0,0,0,0,0,0,0,0,0,-1,1987,1359,0,0
770,-335,0,0,0,0,0,0,0,0,0,-1,1994,1359,0,0
777,-335,0,0,0,0,0,0,0,0,0,-1,2001,1359,0,0
784,-335,0,0,0,0,0,0,0,0,0,-1,2008,1359,0,0
791,-335,0,0,0,0,0,0,0,0,0,-1,2015,1359,0,0
798,-335,0,0,0,0,0,0,0,0,0,-1,2022,1359,0,0
805,-335,0,0,0,0,0,0,0,0,0,-1,2029,1359,0,0
812,-335,0,0,0,0,0,0,0,0,0,-1,2036,1359,0,0
-700,-342,0,0,0,0,0,0,0,0,0,-1,524,1366,0,0
-693,-342,0,0,0,0,0,0,0,0,0,-1,531,1366,0,0
-686,-342,0,0,0,0,0,0,0,0,0,-1,538,1366,0,0
-679,-342,0,0,0,0,0,0,0,0,0,-1,545,1366,0,0
-672,-342,0,0,0,0,0,0,0,0,0,-1,552,1366,0,0
-665,-342,0,0,0,0,0,0,0,0,0,-1,559,1366,0,0
-658,-342,0,0,0,0,0,0,0,0,0,-1,566,1366,0,0
-651,-342,0,0,0,0,0,0,0,0,0,-1,573,1366,0,0
-644,-342,0,0,0,0,0,0,0,0,0,-1,580,1366,0,0
-637,-342,-0.6521,-4.38562,0,0,0,0,0,0,0,-1,587,1366,-0.652124,4.38563
-630,-342,-7.35138,2.73364,0,0,0,0,0,0,0,-1,594,1366,-7.35138,-2.7336
-623,-342,-5.59827,2.09692,0.101315,-0.0335039,-0.0319622,0.108509,-0.0406975,-0.221377,0.0890604,0.0448293,601,1366,-5.59826,-2.09688
-616,-342,-4.08685,1.73218,0.0762337,-0.0302233,-0.022303,0.0807174,-0.034707,-0.198391,0.0683824,0.0469034,608,1366,-4.08685,-1.73215
-609,-342,-2.62463,1.02979,0,0,0,0,0,0,0,-1,615,1366,-2.62463,-1.02981
-602,-342,-3.6944,1.10889,0,0,0,0,0,0,0,-1,622,1366,-3.69439,-1.10889
-595,-342,-3.78613,1.2218,0.0257715,-0.0170638,-0.00714723,0.0269326,-0.0182249,-0.161044,0.0262328,0.0427225,629,1366,-3.7861,-1.22176
-588,-342,-3.81165,1.24438,0.0166096,-0.0137179,-0.00412935,0.0171618,-0.0142701,-0.132935,0.0181728,0.0391785,636,1366,-3.81164,-1.24443
-581,-342,-3.90997,1.21033,0.0100356,-0.0106447,-0.00262367,0.0103632,-0.0109723,-0.124246,0.0123198,0.0266804,643,1366,-3.90996,-1.21036
-574,-342,-3.94818,1.36914,0.00513966,-0.00658679,-0.00295068,0.00584027,-0.0072874,-0.233123,0.00759459,0.00949187,650,1366,-3.94815,-1.36908
-567,-342,-3.94257,1.52197,0.000758299,-0.00444637,-0.00227615,0.00161328,-0.00530135,-0.359318,0.00417716,0.0164622,657,1366,-3.94254,-1.52196
-560,-342,-3.92841,1.62939,-0.00169236,-0.00309715,-0.00135246,-0.000870782,-0.00391873,-0.545896,0.00237602,0.0260458,664,1366,-3.92843,-1.62933
-553,-342,-3.93292,1.74768,-0.00129189,-0.00257138,-0.00135402,-0.00043409,-0.00342917,-0.564703,0.00215604,0.0278434,671,1366,-3.93295,-1.74768
-546,-342,-3.91315,1.92419,-0.000552871,-0.00241591,-0.00151315,0.000292499,-0.00326128,-0.509486,0.00227796,0.0251058,678,1366,-3.91312,-1.9242
-539,-342,-3.91333,2.12634,-0.000138102,-0.00260238,-0.00185936,0.000860318,-0.0036008,-0.492784,0.00273282,0.0215769,685,1366,-3.91331,-2.12635
-532,-342,-3.91681,2.27356,-0.000636166,-0.0036414,-0.00319421,0.0013912,-0.00566877,-0.565546,0.00431827,0.0177641,692,1366,-3.91682,-2.27353
-525,-342,-3.89752,2.41833,-0.00135207,-0.00495815,-0.00562598,0.00275274,-0.00906296,-0.630327,0.00713871,0.011327,699,1366,-3.89753,-2.41836
-518,-342,-3.90717,2.57983,-0.00282526,-0.00692329,-0.00830499,0.00367974,-0.0134283,-0.664453,0.0103981,0.0116091,706,1366,-3.90718,-2.57988
-511,-342,-3.93146,2.69617,-0.0072044,-0.00792118,-0.01132,0.00376285,-0.0188884,-0.769573,0.014016,0.0290785,713,1366,-3.93144,-2.69614
-504,-342,-4.0885,2.79639,-0.0127336,-0.00745166,-0.0155956,0.005725,-0.0259103,-0.869273,0.0194645,0.0491442,720,1366,-4.08847,-2.79636
-497,-342,-4.25702,2.74121,0,0,0,0,0,0,0,-1,727,1366,-4.25704,-2.74119
-490,-342,-3.42413,2.94495,0,0,0,0,0,0,0,-1,734,1366,-3.42413,-2.94489
-483,-342,-6.38617,2.56531,0,0,0,0,0,0,0,-1,741,1366,-6.38616,-2.56535
-476,-342,-6.6441,1.36523,0,0,0,0,0,0,0,-1,748,1366,-6.64413,-1.36526
-469,-342,-7.43567,0.94458,0,0,0,0,0,0,0,-1,755,1366,-7.43567,-0.944596
-462,-342,-8.15204,0.258057,0,0,0,0,0,0,0,-1,762,1366,-8.15207,-0.258112
-455,-342,-9.60529,0.157837,0,0,0,0,0,0,0,-1,769,1366,-9.60531,-0.157848
-448,-342,-10.4358,-0.313721,0,0,0,0,0,0,0,-1,776,1366,-10.4358,0.313683
-441,-342,0,0,0,0,0,0,0,0,0,-1,783,1366,0,0
-434,-342,0,0,0,0,0,0,0,0,0,-1,790,1366,0,0
-427,-342,0,0,0,0,0,0,0,0,0,-1,797,1366,0,0
-420,-342,0,0,0,0,0,0,0,0,0,-1,804,1366,0,0
-413,-342,0,0,0,0,0,0,0,0,0,-1,811,1366,0,0
-406,-342,0,0,0,0,0,0,0,0,0,-1,818,1366,0,0
-399,-342,0,0,0,0,0,0,0,0,0,-1,825,1366,0,0
-392,-342,0,0,0,0,0,0,0,0,0,-1,832,1366,0,0
-385,-342,0,0,0,0,0,0,0,0,0,-1,839,1366,0,0
-378,-342,0,0,0,0,0,0,0,0,0,-1,846,1366,0,0
-371,-342,0,0,0,0,0,0,0,0,0,-1,853,1366,0,0
-364,-342,0,0,0,0,0,0,0,0,0,-1,860,1366,0,0
-357,-342,0,0,0,0,0,0,0,0,0,-1,867,1366,0,0
-350,-342,0,0,0,0,0,0,0,0,0,-1,874,1366,0,0
-343,-342,0,0,0,0,0,0,0,0,0,-1,881,1366,0,0
-336,-342,0,0,0,0,0,0,0,0,0,-1,888,1366,0,0
-329,-342,0,0,0,0,0,0,0,0,0,-1,895,1366,0,0
-322,-342,0,0,0,0,0,0,0,0,0,-1,902,1366,0,0
-315,-342,0,0,0,0,0,0,0,0,0,-1,909,1366,0,0
-308,-342,0,0,0,0,0,0,0,0,0,-1,916,1366,0,0
-301,-342,0,0,0,0,0,0,0,0,0,-1,923,1366,0,0
-294,-342,0,0,0,0,0,0,0,0,0,-1,930,1366,0,0
-287,-342,0,0,0,0,0,0,0,0,0,-1,937,1366,0,0
-280,-342,0,0,0,0,0,0,0,0,0,-1,944,1366,0,0
-273,-342,0,0,0,0,0,0,0,0,0,-1,951,1366,0,0
-266,-342,0,0,0,0,0,0,0,0,0,-1,958,1366,0,0
-259,-342,0,0,0,0,0,0,0,0,0,-1,965,1366,0,0
-252,-342,0,0,0,0,0,0,0,0,0,-1,972,1366,0,0
-245,-342,0,0,0,0,0,0,0,0,0,-1,979,1366,0,0
-238,-342,0,0,0,0,0,0,0,0,0,-1,986,1366,0,0
-231,-342,0,0,0,0,0,0,0,0,0,-1,993,1366,0,0
-224,-342,0,0,0,0,0,0,0,0,0,-1,1000,1366,0,0
-217,-342,0,0,0,0,0,0,0,0,0,-1,1007,1366,0,0
-210,-342,0,0,0,0,0,0,0,0,0,-1,1014,1366,0,0
-203,-342,0,0,0,0,0,0,0,0,0,-1,1021,1366,0,0
-196,-342,0,0,0,0,0,0,0,0,0,-1,1028,1366,0,0
-189,-342,0,0,0,0,0,0,0,0,0,-1,1035,1366,0,0
-182,-342,0,0,0,0,0,0,0,0,0,-1,1042,1366,0,0
-175,-342,0,0,0,0,0,0,0,0,0,-1,1049,1366,0,0
-168,-342,0,0,0,0,0,0,0,0,0,-1,1056,1366,0,0
-161,-342,0,0,0,0,0,0,0,0,0,-1,1063,1366,0,0
-154,-342,0,0,0,0,0,0,0,0,0,-1,1070,1366,0,0
-147,-342,0,0,0,0,0,0,0,0,0,-1,1077,1366,0,0
-140,-342,0,0,0,0,0,0,0,0,0,-1,1084,1366,0,0
-133,-342,0,0,0,0,0,0,0,0,0,-1,1091,1366,0,0
-126,-342,0,0,0,0,0,0,0,0,0,-1,1098,1366,0,0
-119,-342,0,0,0,0,0,0,0,0,0,-1,1105,1366,0,0
-112,-342,0,0,0,0,0,0,0,0,0,-1,1112,1366,0,0
-105,-342,0,0,0,0,0,0,0,0,0,-1,1119,1366,0,0
-98,-342,0,0,0,0,0,0,0,0,0,-1,1126,1366,0,0
-91,-342,0,0,0,0,0,0,0,0,0,-1,1133,1366,0,0
-84,-342,0,0,0,0,0,0,0,0,0,-1,1140,1366,0,0
-77,-342,0,0,0,0,0,0,0,0,0,-1,1147,1366,0,0
-70,-342,0,0,0,0,0,0,0,0,0,-1,1154,1366,0,0
-63,-342,0,0,0,0,0,0,0,0,0,-1,1161,1366,0,0
-56,-342,0,0,0,0,0,0,0,0,0,-1,1168,1366,0,0
-49,-342,0,0,0,0,0,0,0,0,0,-1,1175,1366,0,0
-42,-342,0,0,0,0,0,0,0,0,0,-1,1182,1366,0,0
-35,-342,0,0,0,0,0,0,0,0,0,-1,1189,1366,0,0
-28,-342,0,0,0,0,0,0,0,0,0,-1,1196,1366,0,0
-21,-342,0,0,0,0,0,0,0,0,0,-1,1203,1366,0,0
-14,-342,0,0,0,0,0,0,0,0,0,-1,1210,1366,0,0
-7,-342,0,0,0,0,0,0,0,0,0,-1,1217,1366,0,0
0,-342,0,0,0,0,0,0,0,0,0,-1,1224,1366,0,0
7,-342,0,0,0,0,0,0,0,0,0,-1,1231,1366,0,0
14,-342,0,0,0,0,0,0,0,0,0,-1,1238,1366,0,0
21,-342,0,0,0,0,0,0,0,0,0,-1,1245,1366,0,0
28,-342,0,0,0,0,0,0,0,0,0,-1,1252,1366,0,0
35,-342,0,0,0,0,0,0,0,0,0,-1,1259,1366,0,0
42,-342,0,0,0,0,0,0,0,0,0,-1,1266,1366,0,0
49,-342,0,0,0,0,0,0,0,0,0,-1,1273,1366,0,0
56,-342,0,0,0,0,0,0,0,0,0,-1,1280,1366,0,0
63,-342,0,0,0,0,0,0,0,0,0,-1,1287,1366,0,0
70,-342,0,0,0,0,0,0,0,0,0,-1,1294,1366,0,0
77,-342,0,0,0,0,0,0,0,0,0,-1,1301,1366,0,0
84,-342,0,0,0,0,0,0,0,0,0,-1,1308,1366,0,0
91,-342,0,0,0,0,0,0,0,0,0,-1,1315,1366,0,0
98,-342,0,0,0,0,0,0,0,0,0,-1,1322,1366,0,0
105,-342,0,0,0,0,0,0,0,0,0,-1,1329,1366,0,0
112,-342,0,0,0,0,0,0,0,0,0,-1,1336,1366,0,0
119,-342,0,0,0,0,0,0,0,0,0,-1,1343,1366,0,0
126,-342,0,0,0,0,0,0,0,0,0,-1,1350,1366,0,0
133,-342,0,0,0,0,0,0,0,0,0,-1,1357,1366,0,0
140,-342,0,0,0,0,0,0,0,0,0,-1,1364,1366,0,0
147,-342,0,0,0,0,0,0,0,0,0,-1,1371,1366,0,0
154,-342,0,0,0,0,0,0,0,0,0,-1,1378,1366,0,0
161,-342,0,0,0,0,0,0,0,0,0,-1,1385,1366,0,0
168,-342,0,0,0,0,0,0,0,0,0,-1,1392,1366,0,0
175,-342,0,0,0,0,0,0,0,0,0,-1,1399,1366,0,0
182,-342,0,0,0,0,0,0,0,0,0,-1,1406,1366,0,0
189,-342,0,0,0,0,0,0,0,0,0,-1,1413,1366,0,0
196,-342,0,0,0,0,0,0,0,0,0,-1,1420,1366,0,0
203,-342,0,0,0,0,0,0,0,0,0,-1,1427,1366,0,0
210,-342,0,0,0,0,0,0,0,0,0,-1,1434,1366,0,0
217,-342,0,0,0,0,0,0,0,0,0,-1,1441,1366,0,0
224,-342,0,0,0,0,0,0,0,0,0,-1,1448,1366,0,0
231,-342,0,0,0,0,0,0,0,0,0,-1,1455,1366,0,0
238,-342,0,0,0,0,0,0,0,0,0,-1,1462,1366,0,0
245,-342,0,0,0,0,0,0,0,0,0,-1,1469,1366,0,0
252,-342,0,0,0,0,0,0,0,0,0,-1,1476,1366,0,0
259,-342,0,0,0,0,0,0,0,0,0,-1,1483,1366,0,0
266,-342,0,0,0,0,0,0,0,0,0,-1,1490,1366,0,0
273,-342,0,0,0,0,0,0,0,0,0,-1,1497,1366,0,0
280,-342,0,0,0,0,0,0,0,0,0,-1,1504,1366,0,0
287,-342,0,0,0,0,0,0,0,0,0,-1,1511,1366,0,0
294,-342,0,0,0,0,0,0,0,0,0,-1,1518,1366,0,0
301,-342,0,0,0,0,0,0,0,0,0,-1,1525,1366,0,0
308,-342,0,0,0,0,0,0,0,0,0,-1,1532,1366,0,0
315,-342,0,0,0,0,0,0,0,0,0,-1,1539,1366,0,0
322,-342,0,0,0,0,0,0,0,0,0,-1,1546,1366,0,0
329,-342,0,0,0,0,0,0,0,0,0,-1,1553,1366,0,0
336,-342,0,0,0,0,0,0,0,0,0,-1,1560,1366,0,0
343,-342,0,0,0,0,0,0,0,0,0,-1,1567,1366,0,0
350,-342,0,0,0,0,0,0,0,0,0,-1,1574,1366,0,0
357,-342,0,0,0,0,0,0,0,0,0,-1,1581,1366,0,0
364,-342,0,0,0,0,0,0,0,0,0,-1,1588,1366,0,0
371,-342,0,0,0,0,0,0,0,0,0,-1,1595,1366,0,0
378,-342,0,0,0,0,0,0,0,0,0,-1,1602,1366,0,0
385,-342,0,0,0,0,0,0,0,0,0,-1,1609,1366,0,0
392,-342,0,0,0,0,0,0,0,0,0,-1,1616,1366,0,0
399,-342,0,0,0,0,0,0,0,0,0,-1,1623,1366,0,0
406,-342,0,0,0,0,0,0,0,0,0,-1,1630,1366,0,0
413,-342,0,0,0,0,0,0,0,0,0,-1,1637,1366,0,0
420,-342,0,0,0,0,0,0,0,0,0,-1,1644,1366,0,0
427,-342,0,0,0,0,0,0,0,0,0,-1,1651,1366,0,0
434,-342,0,0,0,0,0,0,0,0,0,-1,1658,1366,0,0
441,-342,0,0,0,0,0,0,0,0,0,-1,1665,1366,0,0
448,-342,0,0,0,0,0,0,0,0,0,-1,1672,1366,0,0
455,-342,0,0,0,0,0,0,0,0,0,-1,1679,1366,0,0
462,-342,0,0,0,0,0,0,0,0,0,-1,1686,1366,0,0
469,-342,0,0,0,0,0,0,0,0,0,-1,1693,1366,0,0
476,-342,0,0,0,0,0,0,0,0,0,-1,1700,1366,0,0
483,-342,0,0,0,0,0,0,0,0,0,-1,1707,1366,0,0
490,-342,0,0,0,0,0,0,0,0,0,-1,1714,1366,0,0
497,-342,0,0,0,0,0,0,0,0,0,-1,1721,1366,0,0
504,-342,0,0,0,0,0,0,0,0,0,-1,1728,1366,0,0
511,-342,0,0,0,0,0,0,0,0,0,-1,1735,1366,0,0
518,-342,0,0,0,0,0,0,0,0,0,-1,1742,1366,0,0
525,-342,0,0,0,0,0,0,0,0,0,-1,1749,1366,0,0
532,-342,0,0,0,0,0,0,0,0,0,-1,1756,1366,0,0
539,-342,0,0,0,0,0,0,0,0,0,-1,1763,1366,0,0
546,-342,0,0,0,0,0,0,0,0,0,-1,1770,1366,0,0
553,-342,0,0,0,0,0,0,0,0,0,-1,1777,1366,0,0
560,-342,0,0,0,0,0,0,0,0,0,-1,1784,1366,0,0
567,-342,16.6669,4.2699,-0.0302766,0.0161875,-0.0596412,0.0569617,-0.0710508,-0.971122,0.0740571,0.0419771,1791,1366,16.6669,-4.26994
574,-342,16.4456,3.15112,-0.0453165,0.0180224,-0.0536268,0.0486329,-0.0759269,-1.05212,0.0724878,0.0449327,1798,1366,16.4456,-3.15117
581,-342,16.0155,2.01709,-0.0534407,0.0199298,-0.0450949,0.0413768,-0.0748877,-1.12686,0.0680484,0.0446076,1805,1366,16.0155,-2.01705
588,-342,15.6461,0.390259,0,0,0,0,0,0,0,-1,1812,1366,15.6461,-0.390232
595,-342,12.0447,-0.174438,0,0,0,0,0,0,0,-1,1819,1366,12.0447,0.174447
602,-342,6.38452,2.97925,0,0,0,0,0,0,0,-1,1826,1366,6.38451,-2.97925
609,-342,14.8408,3.78223,0,0,0,0,0,0,0,-1,1833,1366,14.8408,-3.78228
616,-342,10.7643,4.4469,0,0,0,0,0,0,0,-1,1840,1366,10.7643,-4.44689
623,-342,10.614,4.24585,0,0,0,0,0,0,0,-1,1847,1366,10.614,-4.24582
630,-342,9.94373,4.04578,0,0,0,0,0,0,0,-1,1854,1366,9.94376,-4.04578
637,-342,10.4935,4.08594,0,0,0,0,0,0,0,-1,1861,1366,10.4935,-4.0859
644,-342,10.3535,4.24402,-0.0177759,0.0019995,0.00339819,0.00256715,-0.0183436,1.40528,0.0131685,0.0325123,1868,1366,10.3535,-4.24403
651,-342,10.3789,4.1571,-0.0116262,0.000162711,0.00372679,0.00124204,-0.0127055,1.2889,0.00891323,0.0177425,1875,1366,10.3789,-4.15715
658,-342,10.3646,3.97839,-0.00678917,-0.000787352,0.00356134,0.00086884,-0.00844536,1.1355,0.00594107,0.0188426,1882,1366,10.3646,-3.97842
665,-342,10.3804,3.84326,-0.00188391,-0.00092056,0.00346208,0.0020932,-0.00489766,0.854519,0.00414302,0.0161964,1889,1366,10.3804,-3.84323
672,-342,10.3953,3.73096,0.000857409,-0.00195878,0.00241753,0.00224702,-0.0033484,0.521689,0.00325131,0.0123222,1896,1366,10.3953,-3.73097
679,-342,10.3755,3.60913,0.00187446,-0.00152114,0.00104087,0.00216813,-0.0018148,0.274988,0.00230256,0.0120723,1903,1366,10.3755,-3.60914
686,-342,10.3934,3.50378,0.00288368,-0.00140786,-0.00104779,0.00312584,-0.00165002,-0.227124,0.00280088,0.0103287,1910,1366,10.3934,-3.50376
693,-342,10.4071,3.35608,0.00435714,-0.000668244,-0.00312069,0.00585098,-0.00216209,-0.446455,0.00478697,0.0114835,1917,1366,10.4071,-3.35605
700,-342,10.384,3.22644,0.00629834,-0.000439558,-0.00550682,0.009385,-0.00352622,-0.510881,0.00770587,0.0128954,1924,1366,10.384,-3.22644
707,-342,10.3862,3.10986,0.00883576,4.18441e-05,-0.00888994,0.0143567,-0.00547907,-0.555739,0.0118283,0.0121023,1931,1366,10.3862,-3.1099
714,-342,10.3923,2.96985,0.0115873,0.000990216,-0.0134721,0.0207654,-0.00818788,-0.598041,0.0172339,0.0224953,1938,1366,10.3924,-2.9699
721,-342,10.3627,2.65796,0.0151488,0.00191344,-0.0196174,0.0292346,-0.0121724,-0.622723,0.0245735,0.0359445,1945,1366,10.3626,-2.65799
728,-342,10.3029,2.17822,0.0190029,0.0038723,-0.0279182,0.0403627,-0.0174875,-0.653085,0.0342591,0.0489448,1952,1366,10.3029,-2.17822
735,-342,10.2233,1.99561,0.0225882,0.00760594,-0.0386702,0.0544862,-0.024292,-0.689724,0.0465829,0.0478388,1959,1366,10.2232,-1.99559
742,-342,10.4198,1.6814,0,0,0,0,0,0,0,-1,1966,1366,10.4198,-1.68146
749,-342,10.1855,1.41016,0,0,0,0,0,0,0,-1,1973,1366,10.1855,-1.41014
756,-342,0,0,0,0,0,0,0,0,0,-1,1980,1366,0,0
763,-342,0,0,0,0,0,0,0,0,0,-1,1987,1366,0,0
770,-342,0,0,0,0,0,0,0,0,0,-1,1994,1366,0,0
777,-342,0,0,0,0,0,0,0,0,0,-1,2001,1366,0,0
784,-342,0,0,0,0,0,0,0,0,0,-1,2008,1366,0,0
791,-342,0,0,0,0,0,0,0,0,0,-1,2015,1366,0,0
798,-342,0,0,0,0,0,0,0,0,0,-1,2022,1366,0,0
805,-342,0,0,0,0,0,0,0,0,0,-1,2029,1366,0,0
812,-342,0,0,0,0,0,0,0,0,0,-1,2036,1366,0,0
-700,-349,0,0,0,0,0,0,0,0,0,-1,524,1373,0,0
-693,-349,0,0,0,0,0,0,0,0,0,-1,531,1373,0,0
-686,-349,0,0,0,0,0,0,0,0,0,-1,538,1373,0,0
-679,-349,0,0,0,0,0,0,0,0,0,-1,545,1373,0,0
-672,-349,0,0,0,0,0,0,0,0,0,-1,552,1373,0,0
-665,-349,0,0,0,0,0,0,0,0,0,-1,559,1373,0,0
-658,-349,0,0,0,0,0,0,0,0,0,-1,566,1373,0,0
-651,-349,0,0,0,0,0,0,0,0,0,-1,573,1373,0,0
-644,-349,0,0,0,0,0,0,0,0,0,-1,580,1373,0,0
-637,-349,0,0,0,0,0,0,0,0,0,-1,587,1373,0,0
-630,-349,-1.29895,-4.70081,0,0,0,0,0,0,0,-1,594,1373,-1.29892,4.70082
-623,-349,-4.83478,2.06677,0,0,0,0,0,0,0,-1,601,1373,-4.83478,-2.06674
-616,-349,-3.54596,1.703,0,0,0,0,0,0,0,-1,608,1373,-3.54595,-1.70304
-609,-349,-2.60413,1.86401,0,0,0,0,0,0,0,-1,615,1373,-2.60413,-1.86407
-602,-349,-3.35907,1.61597,0.0420505,-0.0234703,-0.0139296,0.0448889,-0.0263088,-0.201019,0.04157,0.0488639,622,1373,-3.35906,-1.61597
-595,-349,-3.93597,1.45276,0.027121,-0.0190151,-0.00971877,0.0290847,-0.0209789,-0.19937,0.0290302,0.0437197,629,1373,-3.936,-1.4527
-588,-349,-3.52649,1.24194,0.0166471,-0.0154712,-0.00608454,0.0177611,-0.0165852,-0.181086,0.0198337,0.0432122,636,1373,-3.52651,-1.242
-581,-349,-3.61163,1.25159,0.00936959,-0.0119255,-0.00409682,0.0101306,-0.0126865,-0.183653,0.013201,0.0339905,643,1373,-3.61161,-1.25156
-574,-349,-3.76782,1.34229,0.00428142,-0.00754984,-0.00393345,0.00546978,-0.0087382,-0.293398,0.00827502,0.0159255,650,1373,-3.76782,-1.34228
-567,-349,-3.79895,1.5282,-0.000179562,-0.00520407,-0.00285187,0.00110879,-0.00649242,-0.424313,0.00474129,0.0159118,657,1373,-3.79894,-1.52822
-560,-349,-3.80243,1.69226,-0.00246576,-0.00355026,-0.00169002,-0.00123312,-0.0047829,-0.630159,0.00286735,0.0206906,664,1373,-3.80243,-1.69229
-553,-349,-3.77118,1.77063,-0.00180429,-0.00273334,-0.0015411,-0.000659235,-0.0038784,-0.639016,0.00239628,0.0250232,671,1373,-3.77116,-1.7706
-546,-349,-3.74371,1.90234,-0.000841835,-0.00234109,-0.00160847,0.000183117,-0.00336604,-0.567338,0.00230749,0.0269207,678,1373,-3.74368,-1.90238
-539,-349,-3.77979,2.11768,-0.000355182,-0.00226441,-0.00187294,0.000792389,-0.00341198,-0.549714,0.00257967,0.0226371,685,1373,-3.77977,-2.11765
-532,-349,-3.78027,2.26062,-0.000822697,-0.0031421,-0.0029525,0.00118969,-0.00515449,-0.598262,0.00389395,0.0174205,692,1373,-3.7803,-2.26058
-525,-349,-3.7782,2.40674,-0.00164344,-0.0043408,-0.00496051,0.00214847,-0.00813271,-0.652665,0.00626204,0.0125969,699,1373,-3.77821,-2.40673
-518,-349,-3.77039,2.59521,-0.00313745,-0.00606707,-0.00719964,0.00274489,-0.0119494,-0.68504,0.00902152,0.0114576,706,1373,-3.77039,-2.59517
-511,-349,-3.69409,2.77722,-0.00740727,-0.00707993,-0.0101236,0.00288129,-0.0173685,-0.793481,0.0126493,0.0232937,713,1373,-3.69412,-2.77719
-504,-349,-3.80054,2.80469,-0.0130354,-0.00668729,-0.0142355,0.00472373,-0.0244464,-0.895087,0.0180791,0.0449693,720,1373,-3.80054,-2.80465
-497,-349,-3.63055,2.76038,-0.0198313,-0.00486156,-0.0189972,0.00807214,-0.032765,-0.973059,0.0249728,0.0480622,727,1373,-3.63054,-2.76035
-490,-349,-3.31793,2.54541,0,0,0,0,0,0,0,-1,734,1373,-3.31796,-2.54544
-483,-349,-3.14178,1.62,0,0,0,0,0,0,0,-1,741,1373,-3.14179,-1.61998
-476,-349,-6.00275,0.943237,0,0,0,0,0,0,0,-1,748,1373,-6.00275,-0.943188
-469,-349,-6.43036,0.574707,0,0,0,0,0,0,0,-1,755,1373,-6.43036,-0.574743
-462,-349,-8.49884,0.358276,-0.0803304,0.0290024,-0.0461116,0.0458531,-0.097181,-1.22044,0.0843346,0.0455074,762,1373,-8.49881,-0.358227
-455,-349,-9.43335,-0.465576,-0.101358,0.0503195,-0.0524283,0.0666776,-0.117716,-1.26836,0.107811,0.0470056,769,1373,-9.43337,0.465541
-448,-349,-10.1943,-0.954468,-0.126842,0.0846565,-0.0589322,0.0999689,-0.142154,-1.31659,0.140495,0.0481025,776,1373,-10.1943,0.954509
-441,-349,0,0,0,0,0,0,0,0,0,-1,783,1373,0,0
-434,-349,0,0,0,0,0,0,0,0,0,-1,790,1373,0,0
-427,-349,0,0,0,0,0,0,0,0,0,-1,797,1373,0,0
-420,-349,0,0,0,0,0,0,0,0,0,-1,804,1373,0,0
-413,-349,0,0,0,0,0,0,0,0,0,-1,811,1373,0,0
-406,-349,0,0,0,0,0,0,0,0,0,-1,818,1373,0,0
-399,-349,0,0,0,0,0,0,0,0,0,-1,825,1373,0,0
-392,-349,0,0,0,0,0,0,0,0,0,-1,832,1373,0,0
-385,-349,0,0,0,0,0,0,0,0,0,-1,839,1373,0,0
-378,-349,0,0,0,0,0,0,0,0,0,-1,846,1373,0,0
-371,-349,0,0,0,0,0,0,0,0,0,-1,853,1373,0,0
-364,-349,0,0,0,0,0,0,0,0,0,-1,860,1373,0,0
-357,-349,0,0,0,0,0,0,0,0,0,-1,867,1373,0,0
-350,-349,0,0,0,0,0,0,0,0,0,-1,874,1373,0,0
-343,-349,0,0,0,0,0,0,0,0,0,-1,881,1373,0,0
-336,-349,0,0,0,0,0,0,0,0,0,-1,888,1373,0,0
-329,-349,0,0,0,0,0,0,0,0,0,-1,895,1373,0,0
-322,-349,0,0,0,0,0,0,0,0,0,-1,902,1373,0,0
-315,-349,0,0,0,0,0,0,0,0,0,-1,909,1373,0,0
-308,-349,0,0,0,0,0,0,0,0,0,-1,916,1373,0,0
-301,-349,0,0,0,0,0,0,0,0,0,-1,923,1373,0,0
-294,-349,0,0,0,0,0,0,0,0,0,-1,930,1373,0,0
-287,-349,0,0,0,0,0,0,0,0,0,-1,937,1373,0,0
-280,-349,0,0,0,0,0,0,0,0,0,-1,944,1373,0,0
-273,-349,0,0,0,0,0,0,0,0,0,-1,951,1373,0,0
-266,-349,0,0,0,0,0,0,0,0,0,-1,958,1373,0,0
-259,-349,0,0,0,0,0,0,0,0,0,-1,965,1373,0,0
-252,-349,0,0,0,0,0,0,0,0,0,-1,972,1373,0,0
-245,-349,0,0,0,0,0,0,0,0,0,-1,979,1373,0,0
-238,-349,0,0,0,0,0,0,0,0,0,-1,986,1373,0,0
-231,-349,0,0,0,0,0,0,0,0,0,-1,993,1373,0,0
-224,-349,0,0,0,0,0,0,0,0,0,-1,1000,1373,0,0
-217,-349,0,0,0,0,0,0,0,0,0,-1,1007,1373,0,0
-210,-349,0,0,0,0,0,0,0,0,0,-1,1014,1373,0,0
-203,-349,0,0,0,0,0,0,0,0,0,-1,1021,1373,0,0
-196,-349,0,0,0,0,0,0,0,0,0,-1,1028,1373,0,0
-189,-349,0,0,0,0,0,0,0,0,0,-1,1035,1373,0,0
-182,-349,0,0,0,0,0,0,0,0,0,-1,1042,1373,0,0
-175,-349,0,0,0,0,0,0,0,0,0,-1,1049,1373,0,0
-168,-349,0,0,0,0,0,0,0,0,0,-1,1056,1373,0,0
-161,-349,0,0,0,0,0,0,0,0,0,-1,1063,1373,0,0
-154,-349,0,0,0,0,0,0,0,0,0,-1,1070,1373,0,0
-147,-349,0,0,0,0,0,0,0,0,0,-1,1077,1373,0,0
-140,-349,0,0,0,0,0,0,0,0,0,-1,1084,1373,0,0
-133,-349,0,0,0,0,0,0,0,0,0,-1,1091,1373,0,0
-126,-349,0,0,0,0,0,0,0,0,0,-1,1098,1373,0,0
-119,-349,0,0,0,0,0,0,0,0,0,-1,1105,1373,0,0
-112,-349,0,0,0,0,0,0,0,0,0,-1,1112,1373,0,0
-105,-349,0,0,0,0,0,0,0,0,0,-1,1119,1373,0,0
-98,-349,0,0,0,0,0,0,0,0,0,-1,1126,1373,0,0
-91,-349,0,0,0,0,0,0,0,0,0,-1,1133,1373,0,0
-84,-349,0,0,0,0,0,0,0,0,0,-1,1140,1373,0,0
-77,-349,0,0,0,0,0,0,0,0,0,-1,1147,1373,0,0
-70,-349,0,0,0,0,0,0,0,0,0,-1,1154,1373,0,0
-63,-349,0,0,0,0,0,0,0,0,0,-1,1161,1373,0,0
-56,-349,0,0,0,0,0,0,0,0,0,-1,1168,1373,0,0
-49,-349,0,0,0,0,0,0,0,0,0,-1,1175,1373,0,0
-42,-349,0,0,0,0,0,0,0,0,0,-1,1182,1373,0,0
-35,-349,0,0,0,0,0,0,0,0,0,-1,1189,1373,0,0
-28,-349,0,0,0,0,0,0,0,0,0,-1,1196,1373,0,0
-21,-349,0,0,0,0,0,0,0,0,0,-1,1203,1373,0,0
-14,-349,0,0,0,0,0,0,0,0,0,-1,1210,1373,0,0
-7,-349,0,0,0,0,0,0,0,0,0,-1,1217,1373,0,0
0,-349,0,0,0,0,0,0,0,0,0,-1,1224,1373,0,0
7,-349,0,0,0,0,0,0,0,0,0,-1,1231,1373,0,0
14,-349,0,0,0,0,0,0,0,0,0,-1,1238,1373,0,0
21,-349,0,0,0,0,0,0,0,0,0,-1,1245,1373,0,0
28,-349,0,0,0,0,0,0,0,0,0,-1,1252,1373,0,0
35,-349,0,0,0,0,0,0,0,0,0,-1,1259,1373,0,0
42,-349,0,0,0,0,0,0,0,0,0,-1,1266,1373,0,0
49,-349,0,0,0,0,0,0,0,0,0,-1,1273,1373,0,0
56,-349,0,0,0,0,0,0,0,0,0,-1,1280,1373,0,0
63,-349,0,0,0,0,0,0,0,0,0,-1,1287,1373,0,0
70,-349,0,0,0,0,0,0,0,0,0,-1,1294,1373,0,0
77,-349,0,0,0,0,0,0,0,0,0,-1,1301,1373,0,0
84,-349,0,0,0,0,0,0,0,0,0,-1,1308,1373,0,0
91,-349,0,0,0,0,0,0,0,0,0,-1,1315,1373,0,0
98,-349,0,0,0,0,0,0,0,0,0,-1,1322,1373,0,0
105,-349,0,0,0,0,0,0,0,0,0,-1,1329,1373,0,0
112,-349,0,0,0,0,0,0,0,0,0,-1,1336,1373,0,0
119,-349,0,0,0,0,0,0,0,0,0,-1,1343,1373,0,0
126,-349,0,0,0,0,0,0,0,0,0,-1,1350,1373,0,0
133,-349,0,0,0,0,0,0,0,0,0,-1,1357,1373,0,0
140,-349,0,0,0,0,0,0,0,0,0,-1,1364,1373,0,0
147,-349,0,0,0,0,0,0,0,0,0,-1,1371,1373,0,0
154,-349,0,0,0,0,0,0,0,0,0,-1,1378,1373,0,0
161,-349,0,0,0,0,0,0,0,0,0,-1,1385,1373,0,0
168,-349,0,0,0,0,0,0,0,0,0,-1,1392,1373,0,0
175,-349,0,0,0,0,0,0,0,0,0,-1,1399,1373,0,0
182,-349,0,0,0,0,0,0,0,0,0,-1,1406,1373,0,0
189,-349,0,0,0,0,0,0,0,0,0,-1,1413,1373,0,0
196,-349,0,0,0,0,0,0,0,0,0,-1,1420,1373,0,0
203,-349,0,0,0,0,0,0,0,0,0,-1,1427,1373,0,0
210,-349,0,0,0,0,0,0,0,0,0,-1,1434,1373,0,0
217,-349,0,0,0,0,0,0,0,0,0,-1,1441,1373,0,0
224,-349,0,0,0,0,0,0,0,0,0,-1,1448,1373,0,0
231,-349,0,0,0,0,0,0,0,0,0,-1,1455,1373,0,0
238,-349,0,0,0,0,0,0,0,0,0,-1,1462,1373,0,0
245,-349,0,0,0,0,0,0,0,0,0,-1,1469,1373,0,0
252,-349,0,0,0,0,0,0,0,0,0,-1,1476,1373,0,0
259,-349,0,0,0,0,0,0,0,0,0,-1,1483,1373,0,0
266,-349,0,0,0,0,0,0,0,0,0,-1,1490,1373,0,0
273,-349,0,0,0,0,0,0,0,0,0,-1,1497,1373,0,0
280,-349,0,0,0,0,0,0,0,0,0,-1,1504,1373,0,0
287,-349,0,0,0,0,0,0,0,0,0,-1,1511,1373,0,0
294,-349,0,0,0,0,0,0,0,0,0,-1,1518,1373,0,0
301,-349,0,0,0,0,0,0,0,0,0,-1,1525,1373,0,0
308,-349,0,0,0,0,0,0,0,0,0,-1,1532,1373,0,0
315,-349,0,0,0,0,0,0,0,0,0,-1,1539,1373,0,0
322,-349,0,0,0,0,0,0,0,0,0,-1,1546,1373,0,0
329,-349,0,0,0,0,0,0,0,0,0,-1,1553,1373,0,0
336,-349,0,0,0,0,0,0,0,0,0,-1,1560,1373,0,0
343,-349,0,0,0,0,0,0,0,0,0,-1,1567,1373,0,0
350,-349,0,0,0,0,0,0,0,0,0,-1,1574,1373,0,0
357,-349,0,0,0,0,0,0,0,0,0,-1,1581,1373,0,0
364,-349,0,0,0,0,0,0,0,0,0,-1,1588,1373,0,0
371,-349,0,0,0,0,0,0,0,0,0,-1,1595,1373,0,0
378,-349,0,0,0,0,0,0,0,0,0,-1,1602,1373,0,0
385,-349,0,0,0,0,0,0,0,0,0,-1,1609,1373,0,0
392,-349,0,0,0,0,0,0,0,0,0,-1,1616,1373,0,0
399,-349,0,0,0,0,0,0,0,0,0,-1,1623,1373,0,0
406,-349,0,0,0,0,0,0,0,0,0,-1,1630,1373,0,0
413,-349,0,0,0,0,0,0,0,0,0,-1,1637,1373,0,0
420,-349,0,0,0,0,0,0,0,0,0,-1,1644,1373,0,0
427,-349,0,0,0,0,0,0,0,0,0,-1,1651,1373,0,0
434,-349,0,0,0,0,0,0,0,0,0,-1,1658,1373,0,0
441,-349,0,0,0,0,0,0,0,0,0,-1,1665,1373,0,0
448,-349,0,0,0,0,0,0,0,0,0,-1,1672,1373,0,0
455,-349,0,0,0,0,0,0,0,0,0,-1,1679,1373,0,0
462,-349,0,0,0,0,0,0,0,0,0,-1,1686,1373,0,0
469,-349,0,0,0,0,0,0,0,0,0,-1,1693,1373,0,0
476,-349,0,0,0,0,0,0,0,0,0,-1,1700,1373,0,0
483,-349,0,0,0,0,0,0,0,0,0,-1,1707,1373,0,0
490,-349,0,0,0,0,0,0,0,0,0,-1,1714,1373,0,0
497,-349,0,0,0,0,0,0,0,0,0,-1,1721,1373,0,0
504,-349,0,0,0,0,0,0,0,0,0,-1,1728,1373,0,0
511,-349,0,0,0,0,0,0,0,0,0,-1,1735,1373,0,0
518,-349,0,0,0,0,0,0,0,0,0,-1,1742,1373,0,0
525,-349,0,0,0,0,0,0,0,0,0,-1,1749,1373,0,0
532,-349,0,0,0,0,0,0,0,0,0,-1,1756,1373,0,0
539,-349,0,0,0,0,0,0,0,0,0,-1,1763,1373,0,0
546,-349,0,0,0,0,0,0,0,0,0,-1,1770,1373,0,0
553,-349,0,0,0,0,0,0,0,0,0,-1,1777,1373,0,0
560,-349,16.6694,5.0874,0,0,0,0,0,0,0,-1,1784,1373,16.6694,-5.08734
567,-349,16.5624,4.08411,-0.0287701,0.0153147,-0.0534425,0.0510821,-0.0645374,-0.980995,0.0669034,0.0452707,1791,1373,16.5624,-4.08407
574,-349,16.3967,3.31384,-0.0431828,0.0170509,-0.0482893,0.0438452,-0.0699772,-1.06422,0.0662902,0.0453916,1798,1373,16.3967,-3.31378
581,-349,15.6248,2.20862,-0.0509697,0.0186967,-0.0405543,0.0373238,-0.0695968,-1.14023,0.062661,0.0454935,1805,1373,15.6247,-2.20857
588,-349,15.1228,1.05908,0,0,0,0,0,0,0,-1,1812,1373,15.1229,-1.05908
595,-349,6.38538,2.17188,0,0,0,0,0,0,0,-1,1819,1373,6.38537,-2.1719
602,-349,9.30493,4.45679,0,0,0,0,0,0,0,-1,1826,1373,9.30499,-4.45683
609,-349,9.7135,4.1626,0,0,0,0,0,0,0,-1,1833,1373,9.71351,-4.1626
616,-349,10.3202,3.96631,-0.0433368,0.0124176,-0.0073795,0.0133778,-0.044297,-1.44141,0.0348571,0.041974,1840,1373,10.3202,-3.96634
623,-349,10.4971,4.04492,-0.0377603,0.00995643,-0.00306766,0.0101528,-0.0379567,-1.50686,0.0292815,0.0423235,1847,1373,10.4971,-4.04496
630,-349,10.2222,3.97034,-0.0310162,0.00773032,0.000596565,0.0077395,-0.0310254,1.5554,0.0236887,0.045566,1854,1373,10.2222,-3.97039
637,-349,10.4113,4.09595,-0.0231,0.00498512,0.00314146,0.00533222,-0.0234471,1.46075,0.0176789,0.0423865,1861,1373,10.4113,-4.09593
644,-349,10.1926,4.30664,-0.0158583,0.00198657,0.00424193,0.00294361,-0.0168153,1.3489,0.0123093,0.0322791,1868,1373,10.1927,-4.30662
651,-349,10.2599,4.12439,-0.00991938,0.000191983,0.00409399,0.00164173,-0.0113691,1.23046,0.00818175,0.0210485,1875,1373,10.2599,-4.12439
658,-349,10.215,3.9812,-0.00545906,-0.000619592,0.00357533,0.00127786,-0.00735651,1.08289,0.00538111,0.0246316,1882,1373,10.215,-3.98123
665,-349,10.2625,3.87402,-0.00132835,-0.000724526,0.00314605,0.00213406,-0.00418694,0.833235,0.00371303,0.018463,1889,1373,10.2625,-3.87398
672,-349,10.251,3.73975,0.0010282,-0.00160019,0.00206177,0.002159,-0.00273099,0.501661,0.00282967,0.0132549,1896,1373,10.251,-3.73973
679,-349,10.2264,3.6167,0.00208771,-0.00111156,0.000782523,0.00226885,-0.0012927,0.227481,0.00208185,0.0125211,1903,1373,10.2265,-3.61673
686,-349,10.2562,3.50977,0.00322386,-0.00115634,-0.00117085,0.00351719,-0.00144967,-0.245475,0.00294927,0.0110472,1910,1373,10.2562,-3.50981
693,-349,10.2777,3.36646,0.00481649,-0.00065719,-0.0030178,0.00615364,-0.00199434,-0.417091,0.00490429,0.013766,1917,1373,10.2777,-3.3664
700,-349,10.2687,3.23096,0.00705483,-0.000789653,-0.00515643,0.00961122,-0.00334605,-0.460257,0.00776692,0.015908,1924,1373,10.2687,-3.23095
707,-349,10.2894,3.09692,0.010026,-0.000962884,-0.00820818,0.014409,-0.00534585,-0.490457,0.0117988,0.0173712,1931,1373,10.2894,-3.09688
714,-349,10.2645,2.96936,0.0134265,-0.000895633,-0.0124887,0.0206616,-0.00813072,-0.525082,0.01714,0.0218335,1938,1373,10.2645,-2.96935
721,-349,10.314,2.74524,0.0179629,-0.00118887,-0.0183714,0.0291043,-0.0123303,-0.545151,0.024567,0.0379736,1945,1373,10.314,-2.74528
728,-349,10.4495,2.47742,0,0,0,0,0,0,0,-1,1952,1373,10.4495,-2.47747
735,-349,11.9368,3.54041,0,0,0,0,0,0,0,-1,1959,1373,11.9368,-3.54046
742,-349,12.4191,3.73315,0,0,0,0,0,0,0,-1,1966,1373,12.4191,-3.7331
749,-349,10.3197,1.36328,0,0,0,0,0,0,0,-1,1973,1373,10.3197,-1.36333
756,-349,0,0,0,0,0,0,0,0,0,-1,1980,1373,0,0
763,-349,0,0,0,0,0,0,0,0,0,-1,1987,1373,0,0
770,-349,0,0,0,0,0,0,0,0,0,-1,1994,1373,0,0
777,-349,0,0,0,0,0,0,0,0,0,-1,2001,1373,0,0
784,-349,0,0,0,0,0,0,0,0,0,-1,2008,1373,0,0
791,-349,0,0,0,0,0,0,0,0,0,-1,2015,1373,0,0
798,-349,0,0,0,0,0,0,0,0,0,-1,2022,1373,0,0
805,-349,0,0,0,0,0,0,0,0,0,-1,2029,1373,0,0
812,-349,0,0,0,0,0,0,0,0,0,-1,2036,1373,0,0
-700,-356,0,0,0,0,0,0,0,0,0,-1,524,1380,0,0
-693,-356,0,0,0,0,0,0,0,0,0,-1,531,1380,0,0
-686,-356,0,0,0,0,0,0,0,0,0,-1,538,1380,0,0
-679,-356,0,0,0,0,0,0,0,0,0,-1,545,1380,0,0
-672,-356,0,0,0,0,0,0,0,0,0,-1,552,1380,0,0
-665,-356,0,0,0,0,0,0,0,0,0,-1,559,1380,0,0
-658,-356,0,0,0,0,0,0,0,0,0,-1,566,1380,0,0
-651,-356,0,0,0,0,0,0,0,0,0,-1,573,1380,0,0
-644,-356,0,0,0,0,0,0,0,0,0,-1,580,1380,0,0
-637,-356,0,0,0,0,0,0,0,0,0,-1,587,1380,0,0
-630,-356,-0.911926,-5.17993,0,0,0,0,0,0,0,-1,594,1380,-0.91193,5.1799
-623,-356,-1.44391,-5.71765,0,0,0,0,0,0,0,-1,601,1380,-1.4439,5.7176
-616,-356,-2.42114,-1.85852,0,0,0,0,0,0,0,-1,608,1380,-2.42116,1.85857
-609,-356,-3.5766,2.08484,0,0,0,0,0,0,0,-1,615,1380,-3.57657,-2.08484
-602,-356,-3.58838,1.77844,0.0449816,-0.0243732,-0.0163085,0.0486251,-0.0280167,-0.2198,0.0447792,0.0491476,622,1380,-3.5884,-1.77846
-595,-356,-4.21332,1.60156,0.028202,-0.0202043,-0.0114395,0.0307692,-0.0227716,-0.220762,0.0310266,0.0443812,629,1380,-4.21333,-1.60155
-588,-356,-3.1217,0.996338,0,0,0,0,0,0,0,-1,636,1380,-3.12173,-0.996349
-581,-356,-3.29681,1.07166,0.00861521,-0.012877,-0.00514701,0.00978424,-0.0140461,-0.223339,0.0138316,0.0362102,643,1380,-3.29679,-1.07169
-574,-356,-3.53674,1.41003,0.00347758,-0.00840193,-0.00455745,0.00502455,-0.0099489,-0.327234,0.00879938,0.022298,650,1380,-3.53673,-1.41
-567,-356,-3.63599,1.49805,-0.00093985,-0.00589578,-0.00315797,0.000596298,-0.00743192,-0.452737,0.00516487,0.0149982,657,1380,-3.636,-1.49806
-560,-356,-3.61847,1.66516,-0.0029659,-0.00400989,-0.0018507,-0.00156499,-0.0054108,-0.647943,0.00321511,0.0171451,664,1380,-3.61848,-1.66513
-553,-356,-3.61261,1.79883,-0.00208163,-0.00294813,-0.00160325,-0.000854122,-0.00417563,-0.653434,0.00254724,0.0193891,671,1380,-3.61258,-1.79882
-546,-356,-3.63477,1.9292,-0.000965609,-0.00237333,-0.00162059,9.7369e-05,-0.00343631,-0.580527,0.00232401,0.0218198,678,1380,-3.63475,-1.92915
-539,-356,-3.65356,2.11475,-0.000435294,-0.00212552,-0.00185388,0.000757014,-0.00331783,-0.571539,0.00250268,0.0156674,685,1380,-3.65357,-2.11478
-532,-356,-3.6579,2.25586,-0.000849718,-0.00290602,-0.00276361,0.00107079,-0.00482653,-0.607315,0.00362768,0.014903,692,1380,-3.65789,-2.25589
-525,-356,-3.65131,2.40894,-0.00169954,-0.00400638,-0.00445655,0.00175043,-0.00745635,-0.658769,0.00564557,0.0123871,699,1380,-3.65133,-2.40899
-518,-356,-3.60101,2.604,-0.00310538,-0.00551727,-0.0063423,0.00214461,-0.0107673,-0.691448,0.00798957,0.0117154,706,1380,-3.60102,-2.60406
-511,-356,-3.52441,2.78711,-0.00699073,-0.00650591,-0.00906971,0.00232463,-0.0158213,-0.798759,0.0114017,0.0177157,713,1380,-3.52439,-2.78708
-504,-356,-3.56592,2.80969,-0.0123537,-0.00626158,-0.01292,0.00396661,-0.0225819,-0.901166,0.0165362,0.0369994,720,1380,-3.56593,-2.80968
-497,-356,-3.48401,2.67615,-0.0190379,-0.0045498,-0.0175037,0.00714963,-0.0307373,-0.981596,0.0232442,0.0435025,727,1380,-3.48402,-2.67617
-490,-356,-2.8891,1.33984,0,0,0,0,0,0,0,-1,734,1380,-2.88908,-1.33987
-483,-356,-3.38879,1.60547,0,0,0,0,0,0,0,-1,741,1380,-3.38882,-1.60543
-476,-356,-3.88855,1.87097,0,0,0,0,0,0,0,-1,748,1380,-3.88857,-1.871
-469,-356,-7.52393,1.63672,0,0,0,0,0,0,0,-1,755,1380,-7.52395,-1.63668
-462,-356,-8.11835,0.0981445,-0.0774678,0.0296627,-0.0448118,0.0459353,-0.0937405,-1.22247,0.0822012,0.0436845,762,1380,-8.11838,-0.098133
-455,-356,-9.09387,-1.05994,-0.0963017,0.05094,-0.051138,0.066958,-0.11232,-1.26725,0.104605,0.0471201,769,1380,-9.09389,1.05992
-448,-356,-9.80743,-1.75134,-0.118621,0.0857331,-0.0580433,0.101069,-0.133956,-1.31249,0.136134,0.0465176,776,1380,-9.80743,1.7514
-441,-356,-10.6353,-2.24585,0,0,0,0,0,0,0,-1,783,1380,-10.6353,2.24582
-434,-356,0,0,0,0,0,0,0,0,0,-1,790,1380,0,0
-427,-356,0,0,0,0,0,0,0,0,0,-1,797,1380,0,0
-420,-356,0,0,0,0,0,0,0,0,0,-1,804,1380,0,0
-413,-356,0,0,0,0,0,0,0,0,0,-1,811,1380,0,0
-406,-356,0,0,0,0,0,0,0,0,0,-1,818,1380,0,0
-399,-356,0,0,0,0,0,0,0,0,0,-1,825,1380,0,0
-392,-356,0,0,0,0,0,0,0,0,0,-1,832,1380,0,0
-385,-356,0,0,0,0,0,0,0,0,0,-1,839,1380,0,0
-378,-356,0,0,0,0,0,0,0,0,0,-1,846,1380,0,0
-371,-356,0,0,0,0,0,0,0,0,0,-1,853,1380,0,0
-364,-356,0,0,0,0,0,0,0,0,0,-1,860,1380,0,0
-357,-356,0,0,0,0,0,0,0,0,0,-1,867,1380,0,0
-350,-356,0,0,0,0,0,0,0,0,0,-1,874,1380,0,0
-343,-356,0,0,0,0,0,0,0,0,0,-1,881,1380,0,0
-336,-356,0,0,0,0,0,0,0,0,0,-1,888,1380,0,0
-329,-356,0,0,0,0,0,0,0,0,0,-1,895,1380,0,0
-322,-356,0,0,0,0,0,0,0,0,0,-1,902,1380,0,0
-315,-356,0,0,0,0,0,0,0,0,0,-1,909,1380,0,0
-308,-356,0,0,0,0,0,0,0,0,0,-1,916,1380,0,0
-301,-356,0,0,0,0,0,0,0,0,0,-1,923,1380,0,0
-294,-356,0,0,0,0,0,0,0,0,0,-1,930,1380,0,0
-287,-356,0,0,0,0,0,0,0,0,0,-1,937,1380,0,0
-280,-356,0,0,0,0,0,0,0,0,0,-1,944,1380,0,0
-273,-356,0,0,0,0,0,0,0,0,0,-1,951,1380,0,0
-266,-356,0,0,0,0,0,0,0,0,0,-1,958,1380,0,0
-259,-356,0,0,0,0,0,0,0,0,0,-1,965,1380,0,0
-252,-356,0,0,0,0,0,0,0,0,0,-1,972,1380,0,0
-245,-356,0,0,0,0,0,0,0,0,0,-1,979,1380,0,0
-238,-356,0,0,0,0,0,0,0,0,0,-1,986,1380,0,0
-231,-356,0,0,0,0,0,0,0,0,0,-1,993,1380,0,0
-224,-356,0,0,0,0,0,0,0,0,0,-1,1000,1380,0,0
-217,-356,0,0,0,0,0,0,0,0,0,-1,1007,1380,0,0
-210,-356,0,0,0,0,0,0,0,0,0,-1,1014,1380,0,0
-203,-356,0,0,0,0,0,0,0,0,0,-1,1021,1380,0,0
-196,-356,0,0,0,0,0,0,0,0,0,-1,1028,1380,0,0
-189,-356,0,0,0,0,0,0,0,0,0,-1,1035,1380,0,0
-182,-356,0,0,0,0,0,0,0,0,0,-1,1042,1380,0,0
-175,-356,0,0,0,0,0,0,0,0,0,-1,1049,1380,0,0
-168,-356,0,0,0,0,0,0,0,0,0,-1,1056,1380,0,0
-161,-356,0,0,0,0,0,0,0,0,0,-1,1063,1380,0,0
-154,-356,0,0,0,0,0,0,0,0,0,-1,1070,1380,0,0
-147,-356,0,0,0,0,0,0,0,0,0,-1,1077,1380,0,0
-140,-356,0,0,0,0,0,0,0,0,0,-1,1084,1380,0,0
-133,-356,0,0,0,0,0,0,0,0,0,-1,1091,1380,0,0
-126,-356,0,0,0,0,0,0,0,0,0,-1,1098,1380,0,0
-119,-356,0,0,0,0,0,0,0,0,0,-1,1105,1380,0,0
-112,-356,0,0,0,0,0,0,0,0,0,-1,1112,1380,0,0
-105,-356,0,0,0,0,0,0,0,0,0,-1,1119,1380,0,0
-98,-356,0,0,0,0,0,0,0,0,0,-1,1126,1380,0,0
-91,-356,0,0,0,0,0,0,0,0,0,-1,1133,1380,0,0
-84,-356,0,0,0,0,0,0,0,0,0,-1,1140,1380,0,0
-77,-356,0,0,0,0,0,0,0,0,0,-1,1147,1380,0,0
-70,-356,0,0,0,0,0,0,0,0,0,-1,1154,1380,0,0
-63,-356,0,0,0,0,0,0,0,0,0,-1,1161,1380,0,0
-56,-356,0,0,0,0,0,0,0,0,0,-1,1168,1380,0,0
-49,-356,0,0,0,0,0,0,0,0,0,-1,1175,1380,0,0
-42,-356,0,0,0,0,0,0,0,0,0,-1,1182,1380,0,0
-35,-356,0,0,0,0,0,0,0,0,0,-1,1189,1380,0,0
-28,-356,0,0,0,0,0,0,0,0,0,-1,1196,1380,0,0
-21,-356,0,0,0,0,0,0,0,0,0,-1,1203,1380,0,0
-14,-356,0,0,0,0,0,0,0,0,0,-1,1210,1380,0,0
-7,-356,0,0,0,0,0,0,0,0,0,-1,1217,1380,0,0
0,-356,0,0,0,0,0,0,0,0,0,-1,1224,1380,0,0
7,-356,0,0,0,0,0,0,0,0,0,-1,1231,1380,0,0
14,-356,0,0,0,0,0,0,0,0,0,-1,1238,1380,0,0
21,-356,0,0,0,0,0,0,0,0,0,-1,1245,1380,0,0
28,-356,0,0,0,0,0,0,0,0,0,-1,1252,1380,0,0
35,-356,0,0,0,0,0,0,0,0,0,-1,1259,1380,0,0
42,-356,0,0,0,0,0,0,0,0,0,-1,1266,1380,0,0
49,-356,0,0,0,0,0,0,0,0,0,-1,1273,1380,0,0
56,-356,0,0,0,0,0,0,0,0,0,-1,1280,1380,0,0
63,-356,0,0,0,0,0,0,0,0,0,-1,1287,1380,0,0
70,-356,0,0,0,0,0,0,0,0,0,-1,1294,1380,0,0
77,-356,0,0,0,0,0,0,0,0,0,-1,1301,1380,0,0
84,-356,0,0,0,0,0,0,0,0,0,-1,1308,1380,0,0
91,-356,0,0,0,0,0,0,0,0,0,-1,1315,1380,0,0
98,-356,0,0,0,0,0,0,0,0,0,-1,1322,1380,0,0
105,-356,0,0,0,0,0,0,0,0,0,-1,1329,1380,0,0
112,-356,0,0,0,0,0,0,0,0,0,-1,1336,1380,0,0
119,-356,0,0,0,0,0,0,0,0,0,-1,1343,1380,0,0
126,-356,0,0,0,0,0,0,0,0,0,-1,1350,1380,0,0
133,-356,0,0,0,0,0,0,0,0,0,-1,1357,1380,0,0
140,-356,0,0,0,0,0,0,0,0,0,-1,1364,1380,0,0
147,-356,0,0,0,0,0,0,0,0,0,-1,1371,1380,0,0
154,-356,0,0,0,0,0,0,0,0,0,-1,1378,1380,0,0
161,-356,0,0,0,0,0,0,0,0,0,-1,1385,1380,0,0
168,-356,0,0,0,0,0,0,0,0,0,-1,1392,1380,0,0
175,-356,0,0,0,0,0,0,0,0,0,-1,1399,1380,0,0
182,-356,0,0,0,0,0,0,0,0,0,-1,1406,1380,0,0
189,-356,0,0,0,0,0,0,0,0,0,-1,1413,1380,0,0
196,-356,0,0,0,0,0,0,0,0,0,-1,1420,1380,0,0
203,-356,0,0,0,0,0,0,0,0,0,-1,1427,1380,0,0
210,-356,0,0,0,0,0,0,0,0,0,-1,1434,1380,0,0
217,-356,0,0,0,0,0,0,0,0,0,-1,1441,1380,0,0
224,-356,0,0,0,0,0,0,0,0,0,-1,1448,1380,0,0
231,-356,0,0,0,0,0,0,0,0,0,-1,1455,1380,0,0
238,-356,0,0,0,0,0,0,0,0,0,-1,1462,1380,0,0
245,-356,0,0,0,0,0,0,0,0,0,-1,1469,1380,0,0
252,-356,0,0,0,0,0,0,0,0,0,-1,1476,1380,0,0
259,-356,0,0,0,0,0,0,0,0,0,-1,1483,1380,0,0
266,-356,0,0,0,0,0,0,0,0,0,-1,1490,1380,0,0
273,-356,0,0,0,0,0,0,0,0,0,-1,1497,1380,0,0
280,-356,0,0,0,0,0,0,0,0,0,-1,1504,1380,0,0
287,-356,0,0,0,0,0,0,0,0,0,-1,1511,1380,0,0
294,-356,0,0,0,0,0,0,0,0,0,-1,1518,1380,0,0
301,-356,0,0,0,0,0,0,0,0,0,-1,1525,1380,0,0
308,-356,0,0,0,0,0,0,0,0,0,-1,1532,1380,0,0
315,-356,0,0,0,0,0,0,0,0,0,-1,1539,1380,0,0
322,-356,0,0,0,0,0,0,0,0,0,-1,1546,1380,0,0
329,-356,0,0,0,0,0,0,0,0,0,-1,1553,1380,0,0
336,-356,0,0,0,0,0,0,0,0,0,-1,1560,1380,0,0
343,-356,0,0,0,0,0,0,0,0,0,-1,1567,1380,0,0
350,-356,0,0,0,0,0,0,0,0,0,-1,1574,1380,0,0
357,-356,0,0,0,0,0,0,0,0,0,-1,1581,1380,0,0
364,-356,0,0,0,0,0,0,0,0,0,-1,1588,1380,0,0
371,-356,0,0,0,0,0,0,0,0,0,-1,1595,1380,0,0
378,-356,0,0,0,0,0,0,0,0,0,-1,1602,1380,0,0
385,-356,0,0,0,0,0,0,0,0,0,-1,1609,1380,0,0
392,-356,0,0,0,0,0,0,0,0,0,-1,1616,1380,0,0
399,-356,0,0,0,0,0,0,0,0,0,-1,1623,1380,0,0
406,-356,0,0,0,0,0,0,0,0,0,-1,1630,1380,0,0
413,-356,0,0,0,0,0,0,0,0,0,-1,1637,1380,0,0
420,-356,0,0,0,0,0,0,0,0,0,-1,1644,1380,0,0
427,-356,0,0,0,0,0,0,0,0,0,-1,1651,1380,0,0
434,-356,0,0,0,0,0,0,0,0,0,-1,1658,1380,0,0
441,-356,0,0,0,0,0,0,0,0,0,-1,1665,1380,0,0
448,-356,0,0,0,0,0,0,0,0,0,-1,1672,1380,0,0
455,-356,0,0,0,0,0,0,0,0,0,-1,1679,1380,0,0
462,-356,0,0,0,0,0,0,0,0,0,-1,1686,1380,0,0
469,-356,0,0,0,0,0,0,0,0,0,-1,1693,1380,0,0
476,-356,0,0,0,0,0,0,0,0,0,-1,1700,1380,0,0
483,-356,0,0,0,0,0,0,0,0,0,-1,1707,1380,0,0
490,-356,0,0,0,0,0,0,0,0,0,-1,1714,1380,0,0
497,-356,0,0,0,0,0,0,0,0,0,-1,1721,1380,0,0
504,-356,0,0,0,0,0,0,0,0,0,-1,1728,1380,0,0
511,-356,0,0,0,0,0,0,0,0,0,-1,1735,1380,0,0
518,-356,0,0,0,0,0,0,0,0,0,-1,1742,1380,0,0
525,-356,0,0,0,0,0,0,0,0,0,-1,1749,1380,0,0
532,-356,0,0,0,0,0,0,0,0,0,-1,1756,1380,0,0
539,-356,0,0,0,0,0,0,0,0,0,-1,1763,1380,0,0
546,-356,0,0,0,0,0,0,0,0,0,-1,1770,1380,0,0
553,-356,0,0,0,0,0,0,0,0,0,-1,1777,1380,0,0
560,-356,16.4126,4.73291,0,0,0,0,0,0,0,-1,1784,1380,16.4126,-4.73292
567,-356,16.3823,4.03638,-0.0202271,0.0133906,-0.0362854,0.0365714,-0.0434079,-1.0023,0.0462322,0.0475514,1791,1380,16.3823,-4.03641
574,-356,16.1912,3.28516,-0.0361565,0.01443,-0.0355144,0.0327374,-0.054464,-1.09483,0.050864,0.0444208,1798,1380,16.1911,-3.28513
581,-356,15.2246,2.37268,0,0,0,0,0,0,0,-1,1805,1380,15.2246,-2.37271
588,-356,13.1212,1.85583,0,0,0,0,0,0,0,-1,1812,1380,13.1213,-1.85589
595,-356,8.88721,3.94238,0,0,0,0,0,0,0,-1,1819,1380,8.88722,-3.9424
602,-356,9.23743,3.73962,0,0,0,0,0,0,0,-1,1826,1380,9.23745,-3.73961
609,-356,9.46741,3.70129,-0.0478838,0.0135991,-0.00884974,0.0148476,-0.0491323,-1.43065,0.0386662,0.0417382,1833,1380,9.46739,-3.70125
616,-356,9.86877,3.64001,-0.0415488,0.011275,-0.00440443,0.0116397,-0.0419135,-1.48818,0.0325241,0.0395323,1840,1380,9.86876,-3.63996
623,-356,10.1272,3.68933,-0.0358889,0.0089648,-0.000440501,0.00896913,-0.0358932,-1.56098,0.0274121,0.0393681,1847,1380,10.1272,-3.68933
630,-356,10.3123,3.97986,-0.0290058,0.00683658,0.0027755,0.00705023,-0.0292195,1.49397,0.022206,0.0382031,1854,1380,10.3123,-3.97983
637,-356,10.158,4.13586,-0.0210419,0.0043033,0.00465668,0.00513179,-0.0218704,1.39472,0.0165581,0.0301608,1861,1380,10.158,-4.13584
644,-356,10.1315,4.3175,-0.0140257,0.00156076,0.00504921,0.00305349,-0.0155184,1.28335,0.0114994,0.0206856,1868,1380,10.1314,-4.31755
651,-356,10.1346,4.11084,-0.00844854,1.12762e-05,0.00439501,0.00188122,-0.0103185,1.16853,0.00758424,0.0152398,1875,1380,10.1347,-4.11081
658,-356,10.1123,3.9613,-0.00438533,-0.00057499,0.00354708,0.00154619,-0.0065065,1.03184,0.00493448,0.0135572,1882,1380,10.1123,-3.96136
665,-356,10.1082,3.89294,-0.000938689,-0.00063049,0.00282331,0.00204293,-0.00361211,0.812662,0.00330657,0.0122446,1889,1380,10.1082,-3.89297
672,-356,10.1075,3.77197,0.00104578,-0.00129227,0.00172311,0.001959,-0.00220549,0.487345,0.00240577,0.013171,1896,1380,10.1076,-3.77191
679,-356,10.0918,3.6217,0.00215032,-0.000756549,0.000561342,0.00225495,-0.000861183,0.184284,0.00185812,0.0148987,1903,1380,10.0918,-3.6217
686,-356,10.0989,3.49146,0.0034113,-0.00092699,-0.00120479,0.00372343,-0.00123912,-0.253499,0.0029824,0.0137413,1910,1380,10.0989,-3.49144
693,-356,10.1516,3.36194,0.00516332,-0.000668304,-0.00280492,0.00629343,-0.00179842,-0.383008,0.00490622,0.0124921,1917,1380,10.1516,-3.36195
700,-356,10.1693,3.22839,0.00777886,-0.00107468,-0.0047137,0.00981856,-0.00311439,-0.408389,0.00779408,0.0168256,1924,1380,10.1693,-3.22844
707,-356,10.177,2.98328,0.0114269,-0.00179974,-0.00743167,0.0147618,-0.00513456,-0.421798,0.011927,0.0271487,1931,1380,10.177,-2.98329
714,-356,9.94678,2.73352,0.0159885,-0.00279225,-0.0113428,0.0213236,-0.00812734,-0.439646,0.0175633,0.0376727,1938,1380,9.94675,-2.73354
721,-356,10.5319,3.0603,0.0222219,-0.0044685,-0.0168755,0.0303913,-0.0126379,-0.450845,0.025538,0.0431614,1945,1380,10.5318,-3.06035
728,-356,10.8561,3.42224,0,0,0,0,0,0,0,-1,1952,1380,10.856,-3.42225
735,-356,11.8516,4.09888,0,0,0,0,0,0,0,-1,1959,1380,11.8516,-4.09892
742,-356,12.6075,4.78271,0,0,0,0,0,0,0,-1,1966,1380,12.6075,-4.78272
749,-356,12.6805,0.473511,0,0,0,0,0,0,0,-1,1973,1380,12.6805,-0.473507
756,-356,0,0,0,0,0,0,0,0,0,-1,1980,1380,0,0
763,-356,0,0,0,0,0,0,0,0,0,-1,1987,1380,0,0
770,-356,0,0,0,0,0,0,0,0,0,-1,1994,1380,0,0
777,-356,0,0,0,0,0,0,0,0,0,-1,2001,1380,0,0
784,-356,0,0,0,0,0,0,0,0,0,-1,2008,1380,0,0
791,-356,0,0,0,0,0,0,0,0,0,-1,2015,1380,0,0
798,-356,0,0,0,0,0,0,0,0,0,-1,2022,1380,0,0
805,-356,0,0,0,0,0,0,0,0,0,-1,2029,1380,0,0
812,-356,0,0,0,0,0,0,0,0,0,-1,2036,1380,0,0
-700,-363,0,0,0,0,0,0,0,0,0,-1,524,1387,0,0
-693,-363,0,0,0,0,0,0,0,0,0,-1,531,1387,0,0
-686,-363,0,0,0,0,0,0,0,0,0,-1,538,1387,0,0
-679,-363,0,0,0,0,0,0,0,0,0,-1,545,1387,0,0
-672,-363,0,0,0,0,0,0,0,0,0,-1,552,1387,0,0
-665,-363,0,0,0,0,0,0,0,0,0,-1,559,1387,0,0
-658,-363,0,0,0,0,0,0,0,0,0,-1,566,1387,0,0
-651,-363,0,0,0,0,0,0,0,0,0,-1,573,1387,0,0
-644,-363,0,0,0,0,0,0,0,0,0,-1,580,1387,0,0
-637,-363,0,0,0,0,0,0,0,0,0,-1,587,1387,0,0
-630,-363,0,0,0,0,0,0,0,0,0,-1,594,1387,0,0
-623,-363,-0.99939,-6.95337,0,0,0,0,0,0,0,-1,601,1387,-0.999365,6.95331
-616,-363,-2.31677,-1.86182,0,0,0,0,0,0,0,-1,608,1387,-2.31679,1.86176
-609,-363,-2.03168,-1.56396,0,0,0,0,0,0,0,-1,615,1387,-2.03168,1.56394
-602,-363,-3.71832,1.83618,0,0,0,0,0,0,0,-1,622,1387,-3.71832,-1.83616
-595,-363,-4.37646,1.76501,0,0,0,0,0,0,0,-1,629,1387,-4.37649,-1.76498
-588,-363,-5.03467,1.69385,0,0,0,0,0,0,0,-1,636,1387,-5.03466,-1.6938
-581,-363,-3.45068,1.32642,0.00724629,-0.0135865,-0.0065499,0.00913447,-0.0154747,-0.280666,0.0143644,0.0393179,643,1387,-3.4507,-1.32636
-574,-363,-3.39795,1.47595,0.00214913,-0.00901288,-0.00554301,0.00443404,-0.0112978,-0.390991,0.0093665,0.0280462,650,1387,-3.39793,-1.47594
-567,-363,-3.47864,1.51868,-0.0020859,-0.00637833,-0.00380493,0.000136379,-0.00860061,-0.528611,0.00577974,0.0177149,657,1387,-3.47862,-1.51871
-560,-363,-3.47272,1.63782,-0.00375128,-0.00435652,-0.0023133,-0.0017209,-0.00638691,-0.720359,0.00381593,0.01223,664,1387,-3.47271,-1.63787
-553,-363,-3.47156,1.81177,-0.00262418,-0.00309948,-0.00189725,-0.00094975,-0.00477391,-0.723092,0.00291801,0.012796,671,1387,-3.47156,-1.81181
-546,-363,-3.47156,1.95349,-0.00134961,-0.0023882,-0.00177478,-1.9713e-05,-0.0037181,-0.643073,0.00247219,0.0128938,678,1387,-3.47158,-1.95353
-539,-363,-3.45239,2.09692,-0.000731089,-0.00204203,-0.00188856,0.000612519,-0.00338563,-0.618366,0.00248654,0.0144584,685,1387,-3.45236,-2.09691
-532,-363,-3.46881,2.28503,-0.00101691,-0.00277764,-0.00258623,0.000834684,-0.00462923,-0.621348,0.00339872,0.0121382,692,1387,-3.46883,-2.28508
-525,-363,-3.4682,2.43323,-0.00178927,-0.00384142,-0.00395263,0.00126829,-0.00689898,-0.658405,0.00507519,0.0103611,699,1387,-3.46821,-2.43329
-518,-363,-3.46051,2.58911,-0.00298977,-0.00521052,-0.00547649,0.00148778,-0.00968807,-0.685377,0.00700748,0.00964518,706,1387,-3.46054,-2.58912
-511,-363,-3.42175,2.75586,-0.00626875,-0.00625577,-0.00790563,0.00164338,-0.0141679,-0.785809,0.010038,0.0146527,713,1387,-3.42172,-2.7559
-504,-363,-3.34991,2.91956,-0.01105,-0.00629781,-0.0113623,0.00293416,-0.020282,-0.888474,0.014598,0.0275673,720,1387,-3.34989,-2.91956
-497,-363,-3.38263,2.85596,-0.0171902,-0.00497425,-0.0155755,0.00564813,-0.0278126,-0.972259,0.0206831,0.038794,727,1387,-3.38262,-2.85592
-490,-363,-3.02197,2.00305,0,0,0,0,0,0,0,-1,734,1387,-3.02199,-2.00308
-483,-363,-3.37817,1.80579,-0.0338135,-0.00018139,-0.0251563,0.0132618,-0.0472567,-1.08002,0.0367319,0.0441341,741,1387,-3.3782,-1.80579
-476,-363,-3.77014,1.78906,-0.0447764,0.00542801,-0.0305352,0.0198545,-0.0592029,-1.12943,0.047491,0.0448814,748,1387,-3.77015,-1.78908
-469,-363,-3.9353,1.87439,0,0,0,0,0,0,0,-1,755,1387,-3.9353,-1.87442
-462,-363,-7.466,-0.0045166,0,0,0,0,0,0,0,-1,762,1387,-7.46602,0.00457337
-455,-363,-8.79797,-1.67444,0,0,0,0,0,0,0,-1,769,1387,-8.79797,1.67438
-448,-363,-9.2793,-2.43274,0,0,0,0,0,0,0,-1,776,1387,-9.27928,2.43271
-441,-363,-10.1223,-2.94299,0,0,0,0,0,0,0,-1,783,1387,-10.1223,2.94298
-434,-363,-4.94177,-0.313965,0,0,0,0,0,0,0,-1,790,1387,-4.94176,0.313987
-427,-363,0,0,0,0,0,0,0,0,0,-1,797,1387,0,0
-420,-363,0,0,0,0,0,0,0,0,0,-1,804,1387,0,0
-413,-363,0,0,0,0,0,0,0,0,0,-1,811,1387,0,0
-406,-363,0,0,0,0,0,0,0,0,0,-1,818,1387,0,0
-399,-363,0,0,0,0,0,0,0,0,0,-1,825,1387,0,0
-392,-363,0,0,0,0,0,0,0,0,0,-1,832,1387,0,0
-385,-363,0,0,0,0,0,0,0,0,0,-1,839,1387,0,0
-378,-363,0,0,0,0,0,0,0,0,0,-1,846,1387,0,0
-371,-363,0,0,0,0,0,0,0,0,0,-1,853,1387,0,0
-364,-363,0,0,0,0,0,0,0,0,0,-1,860,1387,0,0
-357,-363,0,0,0,0,0,0,0,0,0,-1,867,1387,0,0
-350,-363,0,0,0,0,0,0,0,0,0,-1,874,1387,0,0
-343,-363,0,0,0,0,0,0,0,0,0,-1,881,1387,0,0
-336,-363,0,0,0,0,0,0,0,0,0,-1,888,1387,0,0
-329,-363,0,0,0,0,0,0,0,0,0,-1,895,1387,0,0
-322,-363,0,0,0,0,0,0,0,0,0,-1,902,1387,0,0
-315,-363,0,0,0,0,0,0,0,0,0,-1,909,1387,0,0
-308,-363,0,0,0,0,0,0,0,0,0,-1,916,1387,0,0
-301,-363,0,0,0,0,0,0,0,0,0,-1,923,1387,0,0
-294,-363,0,0,0,0,0,0,0,0,0,-1,930,1387,0,0
-287,-363,0,0,0,0,0,0,0,0,0,-1,937,1387,0,0
-280,-363,0,0,0,0,0,0,0,0,0,-1,944,1387,0,0
-273,-363,0,0,0,0,0,0,0,0,0,-1,951,1387,0,0
-266,-363,0,0,0,0,0,0,0,0,0,-1,958,1387,0,0
-259,-363,0,0,0,0,0,0,0,0,0,-1,965,1387,0,0
-252,-363,0,0,0,0,0,0,0,0,0,-1,972,1387,0,0
-245,-363,0,0,0,0,0,0,0,0,0,-1,979,1387,0,0
-238,-363,0,0,0,0,0,0,0,0,0,-1,986,1387,0,0
-231,-363,0,0,0,0,0,0,0,0,0,-1,993,1387,0,0
-224,-363,0,0,0,0,0,0,0,0,0,-1,1000,1387,0,0
-217,-363,0,0,0,0,0,0,0,0,0,-1,1007,1387,0,0
-210,-363,0,0,0,0,0,0,0,0,0,-1,1014,1387,0,0
-203,-363,0,0,0,0,0,0,0,0,0,-1,1021,1387,0,0
-196,-363,0,0,0,0,0,0,0,0,0,-1,1028,1387,0,0
-189,-363,0,0,0,0,0,0,0,0,0,-1,1035,1387,0,0
-182,-363,0,0,0,0,0,0,0,0,0,-1,1042,1387,0,0
-175,-363,0,0,0,0,0,0,0,0,0,-1,1049,1387,0,0
-168,-363,0,0,0,0,0,0,0,0,0,-1,1056,1387,0,0
-161,-363,0,0,0,0,0,0,0,0,0,-1,1063,1387,0,0
-154,-363,0,0,0,0,0,0,0,0,0,-1,1070,1387,0,0
-147,-363,0,0,0,0,0,0,0,0,0,-1,1077,1387,0,0
-140,-363,0,0,0,0,0,0,0,0,0,-1,1084,1387,0,0
-133,-363,0,0,0,0,0,0,0,0,0,-1,1091,1387,0,0
-126,-363,0,0,0,0,0,0,0,0,0,-1,1098,1387,0,0
-119,-363,0,0,0,0,0,0,0,0,0,-1,1105,1387,0,0
-112,-363,0,0,0,0,0,0,0,0,0,-1,1112,1387,0,0
-105,-363,0,0,0,0,0,0,0,0,0,-1,1119,1387,0,0
-98,-363,0,0,0,0,0,0,0,0,0,-1,1126,1387,0,0
-91,-363,0,0,0,0,0,0,0,0,0,-1,1133,1387,0,0
-84,-363,0,0,0,0,0,0,0,0,0,-1,1140,1387,0,0
-77,-363,0,0,0,0,0,0,0,0,0,-1,1147,1387,0,0
-70,-363,0,0,0,0,0,0,0,0,0,-1,1154,1387,0,0
-63,-363,0,0,0,0,0,0,0,0,0,-1,1161,1387,0,0
-56,-363,0,0,0,0,0,0,0,0,0,-1,1168,1387,0,0
-49,-363,0,0,0,0,0,0,0,0,0,-1,1175,1387,0,0
-42,-363,0,0,0,0,0,0,0,0,0,-1,1182,1387,0,0
-35,-363,0,0,0,0,0,0,0,0,0,-1,1189,1387,0,0
-28,-363,0,0,0,0,0,0,0,0,0,-1,1196,1387,0,0
-21,-363,0,0,0,0,0,0,0,0,0,-1,1203,1387,0,0
-14,-363,0,0,0,0,0,0,0,0,0,-1,1210,1387,0,0
-7,-363,0,0,0,0,0,0,0,0,0,-1,1217,1387,0,0
0,-363,0,0,0,0,0,0,0,0,0,-1,1224,1387,0,0
7,-363,0,0,0,0,0,0,0,0,0,-1,1231,1387,0,0
14,-363,0,0,0,0,0,0,0,0,0,-1,1238,1387,0,0
21,-363,0,0,0,0,0,0,0,0,0,-1,1245,1387,0,0
28,-363,0,0,0,0,0,0,0,0,0,-1,1252,1387,0,0
35,-363,0,0,0,0,0,0,0,0,0,-1,1259,1387,0,0
42,-363,0,0,0,0,0,0,0,0,0,-1,1266,1387,0,0
49,-363,0,0,0,0,0,0,0,0,0,-1,1273,1387,0,0
56,-363,0,0,0,0,0,0,0,0,0,-1,1280,1387,0,0
63,-363,0,0,0,0,0,0,0,0,0,-1,1287,1387,0,0
70,-363,0,0,0,0,0,0,0,0,0,-1,1294,1387,0,0
77,-363,0,0,0,0,0,0,0,0,0,-1,1301,1387,0,0
84,-363,0,0,0,0,0,0,0,0,0,-1,1308,1387,0,0
91,-363,0,0,0,0,0,0,0,0,0,-1,1315,1387,0,0
98,-363,0,0,0,0,0,0,0,0,0,-1,1322,1387,0,0
105,-363,0,0,0,0,0,0,0,0,0,-1,1329,1387,0,0
112,-363,0,0,0,0,0,0,0,0,0,-1,1336,1387,0,0
119,-363,0,0,0,0,0,0,0,0,0,-1,1343,1387,0,0
126,-363,0,0,0,0,0,0,0,0,0,-1,1350,1387,0,0
133,-363,0,0,0,0,0,0,0,0,0,-1,1357,1387,0,0
140,-363,0,0,0,0,0,0,0,0,0,-1,1364,1387,0,0
147,-363,0,0,0,0,0,0,0,0,0,-1,1371,1387,0,0
154,-363,0,0,0,0,0,0,0,0,0,-1,1378,1387,0,0
161,-363,0,0,0,0,0,0,0,0,0,-1,1385,1387,0,0
168,-363,0,0,0,0,0,0,0,0,0,-1,1392,1387,0,0
175,-363,0,0,0,0,0,0,0,0,0,-1,1399,1387,0,0
182,-363,0,0,0,0,0,0,0,0,0,-1,1406,1387,0,0
189,-363,0,0,0,0,0,0,0,0,0,-1,1413,1387,0,0
196,-363,0,0,0,0,0,0,0,0,0,-1,1420,1387,0,0
203,-363,0,0,0,0,0,0,0,0,0,-1,1427,1387,0,0
210,-363,0,0,0,0,0,0,0,0,0,-1,1434,1387,0,0
217,-363,0,0,0,0,0,0,0,0,0,-1,1441,1387,0,0
224,-363,0,0,0,0,0,0,0,0,0,-1,1448,1387,0,0
231,-363,0,0,0,0,0,0,0,0,0,-1,1455,1387,0,0
238,-363,0,0,0,0,0,0,0,0,0,-1,1462,1387,0,0
245,-363,0,0,0,0,0,0,0,0,0,-1,1469,1387,0,0
252,-363,0,0,0,0,0,0,0,0,0,-1,1476,1387,0,0
259,-363,0,0,0,0,0,0,0,0,0,-1,1483,1387,0,0
266,-363,0,0,0,0,0,0,0,0,0,-1,1490,1387,0,0
273,-363,0,0,0,0,0,0,0,0,0,-1,1497,1387,0,0
280,-363,0,0,0,0,0,0,0,0,0,-1,1504,1387,0,0
287,-363,0,0,0,0,0,0,0,0,0,-1,1511,1387,0,0
294,-363,0,0,0,0,0,0,0,0,0,-1,1518,1387,0,0
301,-363,0,0,0,0,0,0,0,0,0,-1,1525,1387,0,0
308,-363,0,0,0,0,0,0,0,0,0,-1,1532,1387,0,0
315,-363,0,0,0,0,0,0,0,0,0,-1,1539,1387,0,0
322,-363,0,0,0,0,0,0,0,0,0,-1,1546,1387,0,0
329,-363,0,0,0,0,0,0,0,0,0,-1,1553,1387,0,0
336,-363,0,0,0,0,0,0,0,0,0,-1,1560,1387,0,0
343,-363,0,0,0,0,0,0,0,0,0,-1,1567,1387,0,0
350,-363,0,0,0,0,0,0,0,0,0,-1,1574,1387,0,0
357,-363,0,0,0,0,0,0,0,0,0,-1,1581,1387,0,0
364,-363,0,0,0,0,0,0,0,0,0,-1,1588,1387,0,0
371,-363,0,0,0,0,0,0,0,0,0,-1,1595,1387,0,0
378,-363,0,0,0,0,0,0,0,0,0,-1,1602,1387,0,0
385,-363,0,0,0,0,0,0,0,0,0,-1,1609,1387,0,0
392,-363,0,0,0,0,0,0,0,0,0,-1,1616,1387,0,0
399,-363,0,0,0,0,0,0,0,0,0,-1,1623,1387,0,0
406,-363,0,0,0,0,0,0,0,0,0,-1,1630,1387,0,0
413,-363,0,0,0,0,0,0,0,0,0,-1,1637,1387,0,0
420,-363,0,0,0,0,0,0,0,0,0,-1,1644,1387,0,0
427,-363,0,0,0,0,0,0,0,0,0,-1,1651,1387,0,0
434,-363,0,0,0,0,0,0,0,0,0,-1,1658,1387,0,0
441,-363,0,0,0,0,0,0,0,0,0,-1,1665,1387,0,0
448,-363,0,0,0,0,0,0,0,0,0,-1,1672,1387,0,0
455,-363,0,0,0,0,0,0,0,0,0,-1,1679,1387,0,0
462,-363,0,0,0,0,0,0,0,0,0,-1,1686,1387,0,0
469,-363,0,0,0,0,0,0,0,0,0,-1,1693,1387,0,0
476,-363,0,0,0,0,0,0,0,0,0,-1,1700,1387,0,0
483,-363,0,0,0,0,0,0,0,0,0,-1,1707,1387,0,0
490,-363,0,0,0,0,0,0,0,0,0,-1,1714,1387,0,0
497,-363,0,0,0,0,0,0,0,0,0,-1,1721,1387,0,0
504,-363,0,0,0,0,0,0,0,0,0,-1,1728,1387,0,0
511,-363,0,0,0,0,0,0,0,0,0,-1,1735,1387,0,0
518,-363,0,0,0,0,0,0,0,0,0,-1,1742,1387,0,0
525,-363,0,0,0,0,0,0,0,0,0,-1,1749,1387,0,0
532,-363,0,0,0,0,0,0,0,0,0,-1,1756,1387,0,0
539,-363,0,0,0,0,0,0,0,0,0,-1,1763,1387,0,0
546,-363,0,0,0,0,0,0,0,0,0,-1,1770,1387,0,0
553,-363,13.1947,4.07129,0,0,0,0,0,0,0,-1,1777,1387,13.1947,-4.07128
560,-363,16.1643,4.58777,0,0,0,0,0,0,0,-1,1784,1387,16.1643,-4.58778
567,-363,16.1381,3.92395,-0.0107009,0.0117679,-0.0178006,0.0215828,-0.0205158,-1.06689,0.0243083,0.0480416,1791,1387,16.138,-3.92392
574,-363,15.9786,3.12122,-0.0271064,0.0116526,-0.0205485,0.0205185,-0.0359724,-1.16346,0.0330193,0.0434435,1798,1387,15.9786,-3.12123
581,-363,15.9231,2.48267,0,0,0,0,0,0,0,-1,1805,1387,15.9231,-2.48271
588,-363,13.9803,2.20813,0,0,0,0,0,0,0,-1,1812,1387,13.9804,-2.20809
595,-363,13.8008,5.56311,0,0,0,0,0,0,0,-1,1819,1387,13.8007,-5.56313
602,-363,9.16992,3.02234,0,0,0,0,0,0,0,-1,1826,1387,9.16992,-3.02239
609,-363,9.19287,3.26965,-0.0460358,0.0112676,-0.00518515,0.011733,-0.0465012,-1.48128,0.0355629,0.0474796,1833,1387,9.19289,-3.2696
616,-363,9.24158,2.74866,-0.0394712,0.00933448,-0.00125067,0.00936651,-0.0395033,-1.54519,0.0299499,0.0476549,1840,1387,9.2416,-2.74861
623,-363,9.72473,3.31433,0,0,0,0,0,0,0,-1,1847,1387,9.7247,-3.31432
630,-363,10.0034,4.0509,-0.026677,0.00544176,0.00491135,0.00617598,-0.0274112,1.4224,0.0206431,0.0319139,1854,1387,10.0034,-4.05086
637,-363,9.89832,4.3219,-0.0188847,0.00331158,0.00602257,0.00484039,-0.0204135,1.3222,0.0154769,0.0229654,1861,1387,9.89837,-4.32187
644,-363,9.99854,4.27454,-0.0123468,0.0010625,0.00571667,0.00316879,-0.0144531,1.21778,0.0108471,0.0106553,1868,1387,9.99853,-4.27454
651,-363,10.014,4.11987,-0.00727403,-0.000146617,0.00463598,0.0021371,-0.00955775,1.11308,0.00719085,0.0103534,1875,1387,10.014,-4.11985
658,-363,10.0018,3.98657,-0.00367977,-0.000555213,0.00354288,0.00175455,-0.00598953,0.993055,0.00468861,0.0110984,1882,1387,10.0018,-3.98662
665,-363,9.98193,3.87915,-0.000901393,-0.000608613,0.00257538,0.00182453,-0.00333454,0.813789,0.00302082,0.0105742,1889,1387,9.98199,-3.8792
672,-363,9.98621,3.76477,0.000718472,-0.00113012,0.00151065,0.00156516,-0.00197681,0.510854,0.00204956,0.0120236,1896,1387,9.98615,-3.76482
679,-363,9.98853,3.62219,0.00180435,-0.000653323,0.000515597,0.00190813,-0.000757108,0.198637,0.00158589,0.0135736,1903,1387,9.98851,-3.62222
686,-363,9.98792,3.49182,0.00306517,-0.000967343,-0.000994687,0.00329718,-0.00119935,-0.22915,0.0026886,0.0139997,1910,1387,9.98793,-3.49177
693,-363,10.0024,3.34094,0.00484517,-0.00106247,-0.00227371,0.00561892,-0.00183622,-0.328011,0.00448511,0.0126526,1917,1387,10.0024,-3.34096
700,-363,10.0588,3.19519,0.00772869,-0.00181006,-0.00387891,0.00910691,-0.00318828,-0.341397,0.00736768,0.0150425,1924,1387,10.0588,-3.1952
707,-363,10.026,2.95251,0.0119347,-0.00309233,-0.00612462,0.0141147,-0.00527231,-0.341954,0.0115747,0.0290441,1931,1387,10.026,-2.95251
714,-363,9.64331,2.47205,0,0,0,0,0,0,0,-1,1938,1387,9.64335,-2.47205
721,-363,10.7301,2.90442,0.0255723,-0.00854833,-0.014331,0.0307927,-0.0137687,-0.349335,0.0263459,0.0480471,1945,1387,10.7302,-2.90446
728,-363,11.309,3.6554,0.0363902,-0.013709,-0.0214888,0.0443444,-0.0216632,-0.354516,0.0388522,0.0449187,1952,1387,11.309,-3.65539
735,-363,12.2932,4.11963,0,0,0,0,0,0,0,-1,1959,1387,12.2932,-4.11961
742,-363,12.9918,4.80286,0,0,0,0,0,0,0,-1,1966,1387,12.9918,-4.80288
749,-363,0,0,0,0,0,0,0,0,0,-1,1973,1387,0,0
756,-363,0,0,0,0,0,0,0,0,0,-1,1980,1387,0,0
763,-363,0,0,0,0,0,0,0,0,0,-1,1987,1387,0,0
770,-363,0,0,0,0,0,0,0,0,0,-1,1994,1387,0,0
777,-363,0,0,0,0,0,0,0,0,0,-1,2001,1387,0,0
784,-363,0,0,0,0,0,0,0,0,0,-1,2008,1387,0,0
791,-363,0,0,0,0,0,0,0,0,0,-1,2015,1387,0,0
798,-363,0,0,0,0,0,0,0,0,0,-1,2022,1387,0,0
805,-363,0,0,0,0,0,0,0,0,0,-1,2029,1387,0,0
812,-363,0,0,0,0,0,0,0,0,0,-1,2036,1387,0,0
-700,-370,0,0,0,0,0,0,0,0,0,-1,524,1394,0,0
-693,-370,0,0,0,0,0,0,0,0,0,-1,531,1394,0,0
-686,-370,0,0,0,0,0,0,0,0,0,-1,538,1394,0,0
-679,-370,0,0,0,0,0,0,0,0,0,-1,545,1394,0,0
-672,-370,0,0,0,0,0,0,0,0,0,-1,552,1394,0,0
-665,-370,0,0,0,0,0,0,0,0,0,-1,559,1394,0,0
-658,-370,0,0,0,0,0,0,0,0,0,-1,566,1394,0,0
-651,-370,0,0,0,0,0,0,0,0,0,-1,573,1394,0,0
-644,-370,0,0,0,0,0,0,0,0,0,-1,580,1394,0,0
-637,-370,0,0,0,0,0,0,0,0,0,-1,587,1394,0,0
-630,-370,0,0,0,0,0,0,0,0,0,-1,594,1394,0,0
-623,-370,-5.0614,-1.82788,0,0,0,0,0,0,0,-1,601,1394,-5.06138,1.82785
-616,-370,-6.69342,0.710571,0,0,0,0,0,0,0,-1,608,1394,-6.6934,-0.710511
-609,-370,-1.97607,-1.70178,0,0,0,0,0,0,0,-1,615,1394,-1.9761,1.70181
-602,-370,-4.05438,2.23352,0,0,0,0,0,0,0,-1,622,1394,-4.05437,-2.23352
-595,-370,-4.76788,1.88733,0,0,0,0,0,0,0,-1,629,1394,-4.76788,-1.8873
-588,-370,-3.52783,2.10229,0,0,0,0,0,0,0,-1,636,1394,-3.5278,-2.10227
-581,-370,-3.46088,1.9718,0.00530129,-0.0123361,-0.00788675,0.00831349,-0.0153483,-0.364834,0.013861,0.0436437,643,1394,-3.4609,-1.97184
-574,-370,-3.3045,1.64233,0.000268324,-0.00834186,-0.00617089,0.00348744,-0.011561,-0.480826,0.00909546,0.0356746,650,1394,-3.30449,-1.6423
-567,-370,-3.29498,1.54492,-0.00361549,-0.00592918,-0.00408645,-0.00052529,-0.00901938,-0.647461,0.0058457,0.021843,657,1394,-3.29497,-1.54491
-560,-370,-3.33936,1.63855,-0.00478033,-0.00391472,-0.00251166,-0.00179885,-0.00689621,-0.870719,0.00413055,0.0136523,664,1394,-3.33933,-1.63858
-553,-370,-3.31934,1.80798,-0.00338366,-0.00256405,-0.00199831,-0.000933956,-0.00501376,-0.886533,0.00307877,0.0109545,671,1394,-3.31935,-1.80795
-546,-370,-3.28284,1.94299,-0.00197787,-0.0017938,-0.0017598,-0.000123629,-0.00364805,-0.811523,0.00239189,0.0138271,678,1394,-3.28282,-1.94303
-539,-370,-3.27405,2.12549,-0.00129196,-0.00140061,-0.0017569,0.000411452,-0.00310402,-0.769943,0.00221925,0.0169422,685,1394,-3.27406,-2.12553
-532,-370,-3.29547,2.27966,-0.00145156,-0.00209579,-0.00226414,0.000513259,-0.00406061,-0.714739,0.00289337,0.0184701,692,1394,-3.2955,-2.27965
-525,-370,-3.28735,2.43604,-0.0021484,-0.0031224,-0.00334343,0.000743316,-0.00601411,-0.713077,0.00427875,0.0130459,699,1394,-3.28733,-2.43603
-518,-370,-3.30896,2.56372,-0.00318386,-0.00434779,-0.00453419,0.00080556,-0.00833721,-0.721572,0.00584519,0.0101681,706,1394,-3.30896,-2.56371
-511,-370,-3.28802,2.71826,-0.00589681,-0.00542754,-0.00660742,0.000949412,-0.0122738,-0.803146,0.00851664,0.014067,713,1394,-3.28805,-2.71832
-504,-370,-3.24969,2.91333,-0.0100862,-0.00571972,-0.00962208,0.00196369,-0.0177696,-0.896959,0.0125523,0.0195394,720,1394,-3.24966,-2.91331
-497,-370,-3.11713,3.05151,-0.0154824,-0.00473576,-0.0134575,0.00438148,-0.0245996,-0.975341,0.0180385,0.0339226,727,1394,-3.11713,-3.05149
-490,-370,-3.26373,2.80945,-0.0219878,-0.0036484,-0.0178161,0.0072193,-0.0328555,-1.02306,0.0246649,0.0377023,734,1394,-3.26375,-2.80944
-483,-370,-3.33551,2.13623,-0.0297704,-0.00141011,-0.0230019,0.0114312,-0.0426118,-1.06162,0.0328873,0.0434395,741,1394,-3.33549,-2.13618
-476,-370,-3.65942,2.00488,-0.0379963,0.00270429,-0.0287953,0.0176145,-0.0529066,-1.09301,0.0423808,0.0426038,748,1394,-3.65941,-2.00491
-469,-370,-3.95819,2.15442,0,0,0,0,0,0,0,-1,755,1394,-3.9582,-2.1544
-462,-370,-3.99823,2.43494,0,0,0,0,0,0,0,-1,762,1394,-3.9982,-2.43498
-455,-370,-3.50055,1.57727,0,0,0,0,0,0,0,-1,769,1394,-3.50052,-1.57726
-448,-370,-8.86993,-2.77124,0,0,0,0,0,0,0,-1,776,1394,-8.86995,2.77127
-441,-370,-3.77136,-0.700073,0,0,0,0,0,0,0,-1,783,1394,-3.77136,0.700131
-434,-370,-7.71454,1.03479,0,0,0,0,0,0,0,-1,790,1394,-7.71456,-1.03475
-427,-370,0,0,0,0,0,0,0,0,0,-1,797,1394,0,0
-420,-370,0,0,0,0,0,0,0,0,0,-1,804,1394,0,0
-413,-370,0,0,0,0,0,0,0,0,0,-1,811,1394,0,0
-406,-370,0,0,0,0,0,0,0,0,0,-1,818,1394,0,0
-399,-370,0,0,0,0,0,0,0,0,0,-1,825,1394,0,0
-392,-370,0,0,0,0,0,0,0,0,0,-1,832,1394,0,0
-385,-370,0,0,0,0,0,0,0,0,0,-1,839,1394,0,0
-378,-370,0,0,0,0,0,0,0,0,0,-1,846,1394,0,0
-371,-370,0,0,0,0,0,0,0,0,0,-1,853,1394,0,0
-364,-370,0,0,0,0,0,0,0,0,0,-1,860,1394,0,0
-357,-370,0,0,0,0,0,0,0,0,0,-1,867,1394,0,0
-350,-370,0,0,0,0,0,0,0,0,0,-1,874,1394,0,0
-343,-370,0,0,0,0,0,0,0,0,0,-1,881,1394,0,0
-336,-370,0,0,0,0,0,0,0,0,0,-1,888,1394,0,0
-329,-370,0,0,0,0,0,0,0,0,0,-1,895,1394,0,0
-322,-370,0,0,0,0,0,0,0,0,0,-1,902,1394,0,0
-315,-370,0,0,0,0,0,0,0,0,0,-1,909,1394,0,0
-308,-370,0,0,0,0,0,0,0,0,0,-1,916,1394,0,0
-301,-370,0,0,0,0,0,0,0,0,0,-1,923,1394,0,0
-294,-370,0,0,0,0,0,0,0,0,0,-1,930,1394,0,0
-287,-370,0,0,0,0,0,0,0,0,0,-1,937,1394,0,0
-280,-370,0,0,0,0,0,0,0,0,0,-1,944,1394,0,0
-273,-370,0,0,0,0,0,0,0,0,0,-1,951,1394,0,0
-266,-370,0,0,0,0,0,0,0,0,0,-1,958,1394,0,0
-259,-370,0,0,0,0,0,0,0,0,0,-1,965,1394,0,0
-252,-370,0,0,0,0,0,0,0,0,0,-1,972,1394,0,0
-245,-370,0,0,0,0,0,0,0,0,0,-1,979,1394,0,0
-238,-370,0,0,0,0,0,0,0,0,0,-1,986,1394,0,0
-231,-370,0,0,0,0,0,0,0,0,0,-1,993,1394,0,0
-224,-370,0,0,0,0,0,0,0,0,0,-1,1000,1394,0,0
-217,-370,0,0,0,0,0,0,0,0,0,-1,1007,1394,0,0
-210,-370,0,0,0,0,0,0,0,0,0,-1,1014,1394,0,0
-203,-370,0,0,0,0,0,0,0,0,0,-1,1021,1394,0,0
-196,-370,0,0,0,0,0,0,0,0,0,-1,1028,1394,0,0
-189,-370,0,0,0,0,0,0,0,0,0,-1,1035,1394,0,0
-182,-370,0,0,0,0,0,0,0,0,0,-1,1042,1394,0,0
-175,-370,0,0,0,0,0,0,0,0,0,-1,1049,1394,0,0
-168,-370,0,0,0,0,0,0,0,0,0,-1,1056,1394,0,0
-161,-370,0,0,0,0,0,0,0,0,0,-1,1063,1394,0,0
-154,-370,0,0,0,0,0,0,0,0,0,-1,1070,1394,0,0
-147,-370,0,0,0,0,0,0,0,0,0,-1,1077,1394,0,0
-140,-370,0,0,0,0,0,0,0,0,0,-1,1084,1394,0,0
-133,-370,0,0,0,0,0,0,0,0,0,-1,1091,1394,0,0
-126,-370,0,0,0,0,0,0,0,0,0,-1,1098,1394,0,0
-119,-370,0,0,0,0,0,0,0,0,0,-1,1105,1394,0,0
-112,-370,0,0,0,0,0,0,0,0,0,-1,1112,1394,0,0
-105,-370,0,0,0,0,0,0,0,0,0,-1,1119,1394,0,0
-98,-370,0,0,0,0,0,0,0,0,0,-1,1126,1394,0,0
-91,-370,0,0,0,0,0,0,0,0,0,-1,1133,1394,0,0
-84,-370,0,0,0,0,0,0,0,0,0,-1,1140,1394,0,0
-77,-370,0,0,0,0,0,0,0,0,0,-1,1147,1394,0,0
-70,-370,0,0,0,0,0,0,0,0,0,-1,1154,1394,0,0
-63,-370,0,0,0,0,0,0,0,0,0,-1,1161,1394,0,0
-56,-370,0,0,0,0,0,0,0,0,0,-1,1168,1394,0,0
-49,-370,0,0,0,0,0,0,0,0,0,-1,1175,1394,0,0
-42,-370,0,0,0,0,0,0,0,0,0,-1,1182,1394,0,0
-35,-370,0,0,0,0,0,0,0,0,0,-1,1189,1394,0,0
-28,-370,0,0,0,0,0,0,0,0,0,-1,1196,1394,0,0
-21,-370,0,0,0,0,0,0,0,0,0,-1,1203,1394,0,0
-14,-370,0,0,0,0,0,0,0,0,0,-1,1210,1394,0,0
-7,-370,0,0,0,0,0,0,0,0,0,-1,1217,1394,0,0
0,-370,0,0,0,0,0,0,0,0,0,-1,1224,1394,0,0
7,-370,0,0,0,0,0,0,0,0,0,-1,1231,1394,0,0
14,-370,0,0,0,0,0,0,0,0,0,-1,1238,1394,0,0
21,-370,0,0,0,0,0,0,0,0,0,-1,1245,1394,0,0
28,-370,0,0,0,0,0,0,0,0,0,-1,1252,1394,0,0
35,-370,0,0,0,0,0,0,0,0,0,-1,1259,1394,0,0
42,-370,0,0,0,0,0,0,0,0,0,-1,1266,1394,0,0
49,-370,0,0,0,0,0,0,0,0,0,-1,1273,1394,0,0
56,-370,0,0,0,0,0,0,0,0,0,-1,1280,1394,0,0
63,-370,0,0,0,0,0,0,0,0,0,-1,1287,1394,0,0
70,-370,0,0,0,0,0,0,0,0,0,-1,1294,1394,0,0
77,-370,0,0,0,0,0,0,0,0,0,-1,1301,1394,0,0
84,-370,0,0,0,0,0,0,0,0,0,-1,1308,1394,0,0
91,-370,0,0,0,0,0,0,0,0,0,-1,1315,1394,0,0
98,-370,0,0,0,0,0,0,0,0,0,-1,1322,1394,0,0
105,-370,0,0,0,0,0,0,0,0,0,-1,1329,1394,0,0
112,-370,0,0,0,0,0,0,0,0,0,-1,1336,1394,0,0
119,-370,0,0,0,0,0,0,0,0,0,-1,1343,1394,0,0
126,-370,0,0,0,0,0,0,0,0,0,-1,1350,1394,0,0
133,-370,0,0,0,0,0,0,0,0,0,-1,1357,1394,0,0
140,-370,0,0,0,0,0,0,0,0,0,-1,1364,1394,0,0
147,-370,0,0,0,0,0,0,0,0,0,-1,1371,1394,0,0
154,-370,0,0,0,0,0,0,0,0,0,-1,1378,1394,0,0
161,-370,0,0,0,0,0,0,0,0,0,-1,1385,1394,0,0
168,-370,0,0,0,0,0,0,0,0,0,-1,1392,1394,0,0
175,-370,0,0,0,0,0,0,0,0,0,-1,1399,1394,0,0
182,-370,0,0,0,0,0,0,0,0,0,-1,1406,1394,0,0
189,-370,0,0,0,0,0,0,0,0,0,-1,1413,1394,0,0
196,-370,0,0,0,0,0,0,0,0,0,-1,1420,1394,0,0
203,-370,0,0,0,0,0,0,0,0,0,-1,1427,1394,0,0
210,-370,0,0,0,0,0,0,0,0,0,-1,1434,1394,0,0
217,-370,0,0,0,0,0,0,0,0,0,-1,1441,1394,0,0
224,-370,0,0,0,0,0,0,0,0,0,-1,1448,1394,0,0
231,-370,0,0,0,0,0,0,0,0,0,-1,1455,1394,0,0
238,-370,0,0,0,0,0,0,0,0,0,-1,1462,1394,0,0
245,-370,0,0,0,0,0,0,0,0,0,-1,1469,1394,0,0
252,-370,0,0,0,0,0,0,0,0,0,-1,1476,1394,0,0
259,-370,0,0,0,0,0,0,0,0,0,-1,1483,1394,0,0
266,-370,0,0,0,0,0,0,0,0,0,-1,1490,1394,0,0
273,-370,0,0,0,0,0,0,0,0,0,-1,1497,1394,0,0
280,-370,0,0,0,0,0,0,0,0,0,-1,1504,1394,0,0
287,-370,0,0,0,0,0,0,0,0,0,-1,1511,1394,0,0
294,-370,0,0,0,0,0,0,0,0,0,-1,1518,1394,0,0
301,-370,0,0,0,0,0,0,0,0,0,-1,1525,1394,0,0
308,-370,0,0,0,0,0,0,0,0,0,-1,1532,1394,0,0
315,-370,0,0,0,0,0,0,0,0,0,-1,1539,1394,0,0
322,-370,0,0,0,0,0,0,0,0,0,-1,1546,1394,0,0
329,-370,0,0,0,0,0,0,0,0,0,-1,1553,1394,0,0
336,-370,0,0,0,0,0,0,0,0,0,-1,1560,1394,0,0
343,-370,0,0,0,0,0,0,0,0,0,-1,1567,1394,0,0
350,-370,0,0,0,0,0,0,0,0,0,-1,1574,1394,0,0
357,-370,0,0,0,0,0,0,0,0,0,-1,1581,1394,0,0
364,-370,0,0,0,0,0,0,0,0,0,-1,1588,1394,0,0
371,-370,0,0,0,0,0,0,0,0,0,-1,1595,1394,0,0
378,-370,0,0,0,0,0,0,0,0,0,-1,1602,1394,0,0
385,-370,0,0,0,0,0,0,0,0,0,-1,1609,1394,0,0
392,-370,0,0,0,0,0,0,0,0,0,-1,1616,1394,0,0
399,-370,0,0,0,0,0,0,0,0,0,-1,1623,1394,0,0
406,-370,0,0,0,0,0,0,0,0,0,-1,1630,1394,0,0
413,-370,0,0,0,0,0,0,0,0,0,-1,1637,1394,0,0
420,-370,0,0,0,0,0,0,0,0,0,-1,1644,1394,0,0
427,-370,0,0,0,0,0,0,0,0,0,-1,1651,1394,0,0
434,-370,0,0,0,0,0,0,0,0,0,-1,1658,1394,0,0
441,-370,0,0,0,0,0,0,0,0,0,-1,1665,1394,0,0
448,-370,0,0,0,0,0,0,0,0,0,-1,1672,1394,0,0
455,-370,0,0,0,0,0,0,0,0,0,-1,1679,1394,0,0
462,-370,0,0,0,0,0,0,0,0,0,-1,1686,1394,0,0
469,-370,0,0,0,0,0,0,0,0,0,-1,1693,1394,0,0
476,-370,0,0,0,0,0,0,0,0,0,-1,1700,1394,0,0
483,-370,0,0,0,0,0,0,0,0,0,-1,1707,1394,0,0
490,-370,0,0,0,0,0,0,0,0,0,-1,1714,1394,0,0
497,-370,0,0,0,0,0,0,0,0,0,-1,1721,1394,0,0
504,-370,0,0,0,0,0,0,0,0,0,-1,1728,1394,0,0
511,-370,0,0,0,0,0,0,0,0,0,-1,1735,1394,0,0
518,-370,0,0,0,0,0,0,0,0,0,-1,1742,1394,0,0
525,-370,0,0,0,0,0,0,0,0,0,-1,1749,1394,0,0
532,-370,0,0,0,0,0,0,0,0,0,-1,1756,1394,0,0
539,-370,0,0,0,0,0,0,0,0,0,-1,1763,1394,0,0
546,-370,13.6754,3.76978,0,0,0,0,0,0,0,-1,1770,1394,13.6755,-3.76978
553,-370,13.4493,3.54456,0,0,0,0,0,0,0,-1,1777,1394,13.4493,-3.54453
560,-370,14.6135,3.87341,0,0,0,0,0,0,0,-1,1784,1394,14.6136,-3.87338
567,-370,15.892,3.7998,0,0,0,0,0,0,0,-1,1791,1394,15.892,-3.79983
574,-370,15.777,2.99756,0,0,0,0,0,0,0,-1,1798,1394,15.777,-2.99762
581,-370,14.1818,1.81995,0,0,0,0,0,0,0,-1,1805,1394,14.1817,-1.81995
588,-370,14.5476,4.82312,0,0,0,0,0,0,0,-1,1812,1394,14.5476,-4.82307
595,-370,13.6327,5.0697,-0.0533415,0.00967274,-0.0111064,0.011573,-0.0552417,-1.40134,0.0412305,0.0437351,1819,1394,13.6326,-5.06972
602,-370,12.7445,4.64844,-0.0498457,0.00936847,-0.00563384,0.00989973,-0.0503769,-1.47678,0.0373247,0.0462256,1826,1394,12.7445,-4.64842
609,-370,8.96143,2.65601,0,0,0,0,0,0,0,-1,1833,1394,8.96139,-2.65606
616,-370,8.55493,2.06519,0,0,0,0,0,0,0,-1,1840,1394,8.55498,-2.06517
623,-370,9.91235,4.1405,0,0,0,0,0,0,0,-1,1847,1394,9.91236,-4.14052
630,-370,9.90698,4.39893,-0.0238421,0.00358197,0.00691061,0.00522496,-0.025485,1.33738,0.018973,0.0281033,1854,1394,9.90699,-4.39897
637,-370,9.79761,4.44604,-0.0163883,0.00203339,0.00708084,0.00444055,-0.0187955,1.2431,0.0142431,0.0183724,1861,1394,9.7976,-4.44606
644,-370,9.86169,4.27222,-0.0104914,0.000397376,0.00611412,0.00313979,-0.0132338,1.14916,0.0100343,0.010179,1868,1394,9.86166,-4.27223
651,-370,9.8811,4.12354,-0.00597499,-0.000405051,0.00473381,0.00230225,-0.00868229,1.05129,0.00668901,0.0101634,1875,1394,9.88112,-4.12356
658,-370,9.88696,4.00098,-0.00285811,-0.000649785,0.00349142,0.00190791,-0.00541581,0.938547,0.00438705,0.0109666,1882,1394,9.88697,-4.00094
665,-370,9.86975,3.86548,-0.000693558,-0.000700994,0.00235078,0.00165351,-0.00304806,0.784607,0.00275397,0.0120088,1889,1394,9.8697,-3.86547
672,-370,9.8623,3.73364,0.000581328,-0.00108005,0.0013655,0.00134896,-0.00184768,0.512134,0.00185305,0.0136809,1896,1394,9.86236,-3.73361
679,-370,9.86975,3.61145,0.00160525,-0.000695171,0.000563503,0.00173586,-0.000825789,0.227773,0.00150976,0.0133091,1903,1394,9.8697,-3.61148
686,-370,9.86719,3.48071,0.00279359,-0.00117472,-0.000588264,0.00287895,-0.00126009,-0.144113,0.00244985,0.0134042,1910,1394,9.86715,-3.48071
693,-370,9.86072,3.32849,0.00457287,-0.00162976,-0.00145236,0.0048961,-0.00195299,-0.218986,0.0040742,0.0118038,1917,1394,9.86071,-3.32849
700,-370,9.91614,3.16553,0.00764682,-0.00274578,-0.00262787,0.00827351,-0.00337247,-0.234106,0.00691943,0.0148835,1924,1394,9.91613,-3.16549
707,-370,9.85999,3.02209,0.0122236,-0.00441591,-0.00424366,0.0132434,-0.00543569,-0.235836,0.011094,0.0262243,1931,1394,9.85996,-3.02204
714,-370,9.99658,2.46094,0.0185385,-0.00706941,-0.00676131,0.020214,-0.00874498,-0.242923,0.017151,0.041344,1938,1394,9.99661,-2.46089
721,-370,10.1899,1.91663,0,0,0,0,0,0,0,-1,1945,1394,10.1899,-1.91666
728,-370,11.8503,3.66675,0,0,0,0,0,0,0,-1,1952,1394,11.8503,-3.6667
735,-370,12.5602,4.34631,0,0,0,0,0,0,0,-1,1959,1394,12.5602,-4.34635
742,-370,11.752,2.67212,0,0,0,0,0,0,0,-1,1966,1394,11.752,-2.67216
749,-370,0,0,0,0,0,0,0,0,0,-1,1973,1394,0,0
756,-370,0,0,0,0,0,0,0,0,0,-1,1980,1394,0,0
763,-370,0,0,0,0,0,0,0,0,0,-1,1987,1394,0,0
770,-370,0,0,0,0,0,0,0,0,0,-1,1994,1394,0,0
777,-370,0,0,0,0,0,0,0,0,0,-1,2001,1394,0,0
784,-370,0,0,0,0,0,0,0,0,0,-1,2008,1394,0,0
791,-370,0,0,0,0,0,0,0,0,0,-1,2015,1394,0,0
798,-370,0,0,0,0,0,0,0,0,0,-1,2022,1394,0,0
805,-370,0,0,0,0,0,0,0,0,0,-1,2029,1394,0,0
812,-370,0,0,0,0,0,0,0,0,0,-1,2036,1394,0,0
-700,-377,0,0,0,0,0,0,0,0,0,-1,524,1401,0,0
-693,-377,0,0,0,0,0,0,0,0,0,-1,531,1401,0,0
-686,-377,0,0,0,0,0,0,0,0,0,-1,538,1401,0,0
-679,-377,0,0,0,0,0,0,0,0,0,-1,545,1401,0,0
-672,-377,0,0,0,0,0,0,0,0,0,-1,552,1401,0,0
-665,-377,0,0,0,0,0,0,0,0,0,-1,559,1401,0,0
-658,-377,0,0,0,0,0,0,0,0,0,-1,566,1401,0,0
-651,-377,0,0,0,0,0,0,0,0,0,-1,573,1401,0,0
-644,-377,0,0,0,0,0,0,0,0,0,-1,580,1401,0,0
-637,-377,0,0,0,0,0,0,0,0,0,-1,587,1401,0,0
-630,-377,0,0,0,0,0,0,0,0,0,-1,594,1401,0,0
-623,-377,0,0,0,0,0,0,0,0,0,-1,601,1401,0,0
-616,-377,-2.3645,-3.54041,0,0,0,0,0,0,0,-1,608,1401,-2.3645,3.54044
-609,-377,-2.35083,-2.27917,0,0,0,0,0,0,0,-1,615,1401,-2.35081,2.27922
-602,-377,-2.14899,-1.89526,0,0,0,0,0,0,0,-1,622,1401,-2.149,1.89532
-595,-377,-5.49274,1.90808,0,0,0,0,0,0,0,-1,629,1401,-5.49277,-1.90812
-588,-377,-3.34998,2.42786,0,0,0,0,0,0,0,-1,636,1401,-3.34997,-2.42784
-581,-377,-3.3559,2.22913,0.0012005,-0.0088552,-0.00792066,0.00555434,-0.013209,-0.502599,0.0111295,0.0499012,643,1401,-3.35589,-2.22914
-574,-377,-3.22131,1.94983,-0.00237955,-0.00637298,-0.00529328,0.00128109,-0.0100336,-0.605042,0.00715444,0.044133,650,1401,-3.22132,-1.94984
-567,-377,-3.09119,1.66772,-0.00518775,-0.00462725,-0.00312144,-0.00177351,-0.00804149,-0.830169,0.00487849,0.0279883,657,1401,-3.0912,-1.66768
-560,-377,-3.18292,1.66064,-0.0055984,-0.00267691,-0.00180509,-0.00181556,-0.00645975,-1.12557,0.00384688,0.0173077,664,1401,-3.18291,-1.66062
-553,-377,-3.14777,1.79285,-0.0040252,-0.00133614,-0.0013432,-0.000780158,-0.00458118,-1.17834,0.00283014,0.0125551,671,1401,-3.14778,-1.79287
-546,-377,-3.14636,1.96033,-0.00251093,-0.00059378,-0.00113478,-6.68968e-05,-0.00303781,-1.13611,0.00200328,0.0158359,678,1401,-3.14633,-1.96036
-539,-377,-3.14087,2.10754,-0.0016725,-0.000303327,-0.00118537,0.000380938,-0.00235677,-1.04727,0.00171234,0.019844,685,1401,-3.14087,-2.10759
-532,-377,-3.15515,2.25684,-0.0016076,-0.00104933,-0.0016671,0.000361841,-0.00301877,-0.868347,0.00214333,0.0184876,692,1401,-3.15516,-2.25682
-525,-377,-3.10437,2.44055,-0.00212692,-0.00213182,-0.00258659,0.000457219,-0.00471596,-0.784925,0.00330693,0.01642,699,1401,-3.10439,-2.44051
-518,-377,-3.14099,2.57361,-0.00294236,-0.00332155,-0.00355068,0.000423785,-0.0066877,-0.758725,0.00460623,0.0110488,706,1401,-3.141,-2.5736
-511,-377,-3.14978,2.73193,-0.00513139,-0.0044704,-0.00543233,0.000641475,-0.0102433,-0.81578,0.0070524,0.0111828,713,1401,-3.14977,-2.73193
-504,-377,-3.14545,2.89758,-0.00875001,-0.00504276,-0.00810669,0.00141953,-0.0152123,-0.897793,0.0106463,0.0112938,720,1401,-3.14543,-2.8976
-497,-377,-3.0235,3.0564,-0.0135031,-0.00443968,-0.0116416,0.00352112,-0.0214639,-0.971009,0.0156159,0.0166026,727,1401,-3.02349,-3.05645
-490,-377,-3.04132,2.94897,-0.0193132,-0.00377729,-0.0158573,0.00611249,-0.029203,-1.01315,0.0217938,0.0353275,734,1401,-3.0413,-2.94895
-483,-377,-3.2677,2.63037,-0.0261591,-0.00237057,-0.021317,0.0101459,-0.0386756,-1.03987,0.0297482,0.0441658,741,1401,-3.26768,-2.63037
-476,-377,-3.57727,2.36462,-0.0328158,0.000431721,-0.0278245,0.0162202,-0.0486043,-1.05467,0.0389521,0.0456801,748,1401,-3.57726,-2.36466
-469,-377,-3.90979,2.29504,0,0,0,0,0,0,0,-1,755,1401,-3.90978,-2.295
-462,-377,-2.49591,1.04395,0,0,0,0,0,0,0,-1,762,1401,-2.49588,-1.0439
-455,-377,-1.83484,1.34021,0,0,0,0,0,0,0,-1,769,1401,-1.83483,-1.34018
-448,-377,-2.71375,-1.16174,0,0,0,0,0,0,0,-1,776,1401,-2.71377,1.16169
-441,-377,-7.06641,0.654663,0,0,0,0,0,0,0,-1,783,1401,-7.06641,-0.654675
-434,-377,-6.90076,0.886108,0,0,0,0,0,0,0,-1,790,1401,-6.90078,-0.886068
-427,-377,-6.73157,1.24084,0,0,0,0,0,0,0,-1,797,1401,-6.73154,-1.2408
-420,-377,0,0,0,0,0,0,0,0,0,-1,804,1401,0,0
-413,-377,0,0,0,0,0,0,0,0,0,-1,811,1401,0,0
-406,-377,0,0,0,0,0,0,0,0,0,-1,818,1401,0,0
-399,-377,0,0,0,0,0,0,0,0,0,-1,825,1401,0,0
-392,-377,0,0,0,0,0,0,0,0,0,-1,832,1401,0,0
-385,-377,0,0,0,0,0,0,0,0,0,-1,839,1401,0,0
-378,-377,0,0,0,0,0,0,0,0,0,-1,846,1401,0,0
-371,-377,0,0,0,0,0,0,0,0,0,-1,853,1401,0,0
-364,-377,0,0,0,0,0,0,0,0,0,-1,860,1401,0,0
-357,-377,0,0,0,0,0,0,0,0,0,-1,867,1401,0,0
-350,-377,0,0,0,0,0,0,0,0,0,-1,874,1401,0,0
-343,-377,0,0,0,0,0,0,0,0,0,-1,881,1401,0,0
-336,-377,0,0,0,0,0,0,0,0,0,-1,888,1401,0,0
-329,-377,0,0,0,0,0,0,0,0,0,-1,895,1401,0,0
-322,-377,0,0,0,0,0,0,0,0,0,-1,902,1401,0,0
-315,-377,0,0,0,0,0,0,0,0,0,-1,909,1401,0,0
-308,-377,0,0,0,0,0,0,0,0,0,-1,916,1401,0,0
-301,-377,0,0,0,0,0,0,0,0,0,-1,923,1401,0,0
-294,-377,0,0,0,0,0,0,0,0,0,-1,930,1401,0,0
-287,-377,0,0,0,0,0,0,0,0,0,-1,937,1401,0,0
-280,-377,0,0,0,0,0,0,0,0,0,-1,944,1401,0,0
-273,-377,0,0,0,0,0,0,0,0,0,-1,951,1401,0,0
-266,-377,0,0,0,0,0,0,0,0,0,-1,958,1401,0,0
-259,-377,0,0,0,0,0,0,0,0,0,-1,965,1401,0,0
-252,-377,0,0,0,0,0,0,0,0,0,-1,972,1401,0,0
-245,-377,0,0,0,0,0,0,0,0,0,-1,979,1401,0,0
-238,-377,0,0,0,0,0,0,0,0,0,-1,986,1401,0,0
-231,-377,0,0,0,0,0,0,0,0,0,-1,993,1401,0,0
-224,-377,0,0,0,0,0,0,0,0,0,-1,1000,1401,0,0
-217,-377,0,0,0,0,0,0,0,0,0,-1,1007,1401,0,0
-210,-377,0,0,0,0,0,0,0,0,0,-1,1014,1401,0,0
-203,-377,0,0,0,0,0,0,0,0,0,-1,1021,1401,0,0
-196,-377,0,0,0,0,0,0,0,0,0,-1,1028,1401,0,0
-189,-377,0,0,0,0,0,0,0,0,0,-1,1035,1401,0,0
-182,-377,0,0,0,0,0,0,0,0,0,-1,1042,1401,0,0
-175,-377,0,0,0,0,0,0,0,0,0,-1,1049,1401,0,0
-168,-377,0,0,0,0,0,0,0,0,0,-1,1056,1401,0,0
-161,-377,0,0,0,0,0,0,0,0,0,-1,1063,1401,0,0
-154,-377,0,0,0,0,0,0,0,0,0,-1,1070,1401,0,0
-147,-377,0,0,0,0,0,0,0,0,0,-1,1077,1401,0,0
-140,-377,0,0,0,0,0,0,0,0,0,-1,1084,1401,0,0
-133,-377,0,0,0,0,0,0,0,0,0,-1,1091,1401,0,0
-126,-377,0,0,0,0,0,0,0,0,0,-1,1098,1401,0,0
-119,-377,0,0,0,0,0,0,0,0,0,-1,1105,1401,0,0
-112,-377,0,0,0,0,0,0,0,0,0,-1,1112,1401,0,0
-105,-377,0,0,0,0,0,0,0,0,0,-1,1119,1401,0,0
-98,-377,0,0,0,0,0,0,0,0,0,-1,1126,1401,0,0
-91,-377,0,0,0,0,0,0,0,0,0,-1,1133,1401,0,0
-84,-377,0,0,0,0,0,0,0,0,0,-1,1140,1401,0,0
-77,-377,0,0,0,0,0,0,0,0,0,-1,1147,1401,0,0
-70,-377,0,0,0,0,0,0,0,0,0,-1,1154,1401,0,0
-63,-377,0,0,0,0,0,0,0,0,0,-1,1161,1401,0,0
-56,-377,0,0,0,0,0,0,0,0,0,-1,1168,1401,0,0
-49,-377,0,0,0,0,0,0,0,0,0,-1,1175,1401,0,0
-42,-377,0,0,0,0,0,0,0,0,0,-1,1182,1401,0,0
-35,-377,0,0,0,0,0,0,0,0,0,-1,1189,1401,0,0
-28,-377,0,0,0,0,0,0,0,0,0,-1,1196,1401,0,0
-21,-377,0,0,0,0,0,0,0,0,0,-1,1203,1401,0,0
-14,-377,0,0,0,0,0,0,0,0,0,-1,1210,1401,0,0
-7,-377,0,0,0,0,0,0,0,0,0,-1,1217,1401,0,0
0,-377,0,0,0,0,0,0,0,0,0,-1,1224,1401,0,0
7,-377,0,0,0,0,0,0,0,0,0,-1,1231,1401,0,0
14,-377,0,0,0,0,0,0,0,0,0,-1,1238,1401,0,0
21,-377,0,0,0,0,0,0,0,0,0,-1,1245,1401,0,0
28,-377,0,0,0,0,0,0,0,0,0,-1,1252,1401,0,0
35,-377,0,0,0,0,0,0,0,0,0,-1,1259,1401,0,0
42,-377,0,0,0,0,0,0,0,0,0,-1,1266,1401,0,0
49,-377,0,0,0,0,0,0,0,0,0,-1,1273,1401,0,0
56,-377,0,0,0,0,0,0,0,0,0,-1,1280,1401,0,0
63,-377,0,0,0,0,0,0,0,0,0,-1,1287,1401,0,0
70,-377,0,0,0,0,0,0,0,0,0,-1,1294,1401,0,0
77,-377,0,0,0,0,0,0,0,0,0,-1,1301,1401,0,0
84,-377,0,0,0,0,0,0,0,0,0,-1,1308,1401,0,0
91,-377,0,0,0,0,0,0,0,0,0,-1,1315,1401,0,0
98,-377,0,0,0,0,0,0,0,0,0,-1,1322,1401,0,0
105,-377,0,0,0,0,0,0,0,0,0,-1,1329,1401,0,0
112,-377,0,0,0,0,0,0,0,0,0,-1,1336,1401,0,0
119,-377,0,0,0,0,0,0,0,0,0,-1,1343,1401,0,0
126,-377,0,0,0,0,0,0,0,0,0,-1,1350,1401,0,0
133,-377,0,0,0,0,0,0,0,0,0,-1,1357,1401,0,0
140,-377,0,0,0,0,0,0,0,0,0,-1,1364,1401,0,0
147,-377,0,0,0,0,0,0,0,0,0,-1,1371,1401,0,0
154,-377,0,0,0,0,0,0,0,0,0,-1,1378,1401,0,0
161,-377,0,0,0,0,0,0,0,0,0,-1,1385,1401,0,0
168,-377,0,0,0,0,0,0,0,0,0,-1,1392,1401,0,0
175,-377,0,0,0,0,0,0,0,0,0,-1,1399,1401,0,0
182,-377,0,0,0,0,0,0,0,0,0,-1,1406,1401,0,0
189,-377,0,0,0,0,0,0,0,0,0,-1,1413,1401,0,0
196,-377,0,0,0,0,0,0,0,0,0,-1,1420,1401,0,0
203,-377,0,0,0,0,0,0,0,0,0,-1,1427,1401,0,0
210,-377,0,0,0,0,0,0,0,0,0,-1,1434,1401,0,0
217,-377,0,0,0,0,0,0,0,0,0,-1,1441,1401,0,0
224,-377,0,0,0,0,0,0,0,0,0,-1,1448,1401,0,0
231,-377,0,0,0,0,0,0,0,0,0,-1,1455,1401,0,0
238,-377,0,0,0,0,0,0,0,0,0,-1,1462,1401,0,0
245,-377,0,0,0,0,0,0,0,0,0,-1,1469,1401,0,0
252,-377,0,0,0,0,0,0,0,0,0,-1,1476,1401,0,0
259,-377,0,0,0,0,0,0,0,0,0,-1,1483,1401,0,0
266,-377,0,0,0,0,0,0,0,0,0,-1,1490,1401,0,0
273,-377,0,0,0,0,0,0,0,0,0,-1,1497,1401,0,0
280,-377,0,0,0,0,0,0,0,0,0,-1,1504,1401,0,0
287,-377,0,0,0,0,0,0,0,0,0,-1,1511,1401,0,0
294,-377,0,0,0,0,0,0,0,0,0,-1,1518,1401,0,0
301,-377,0,0,0,0,0,0,0,0,0,-1,1525,1401,0,0
308,-377,0,0,0,0,0,0,0,0,0,-1,1532,1401,0,0
315,-377,0,0,0,0,0,0,0,0,0,-1,1539,1401,0,0
322,-377,0,0,0,0,0,0,0,0,0,-1,1546,1401,0,0
329,-377,0,0,0,0,0,0,0,0,0,-1,1553,1401,0,0
336,-377,0,0,0,0,0,0,0,0,0,-1,1560,1401,0,0
343,-377,0,0,0,0,0,0,0,0,0,-1,1567,1401,0,0
350,-377,0,0,0,0,0,0,0,0,0,-1,1574,1401,0,0
357,-377,0,0,0,0,0,0,0,0,0,-1,1581,1401,0,0
364,-377,0,0,0,0,0,0,0,0,0,-1,1588,1401,0,0
371,-377,0,0,0,0,0,0,0,0,0,-1,1595,1401,0,0
378,-377,0,0,0,0,0,0,0,0,0,-1,1602,1401,0,0
385,-377,0,0,0,0,0,0,0,0,0,-1,1609,1401,0,0
392,-377,0,0,0,0,0,0,0,0,0,-1,1616,1401,0,0
399,-377,0,0,0,0,0,0,0,0,0,-1,1623,1401,0,0
406,-377,0,0,0,0,0,0,0,0,0,-1,1630,1401,0,0
413,-377,0,0,0,0,0,0,0,0,0,-1,1637,1401,0,0
420,-377,0,0,0,0,0,0,0,0,0,-1,1644,1401,0,0
427,-377,0,0,0,0,0,0,0,0,0,-1,1651,1401,0,0
434,-377,0,0,0,0,0,0,0,0,0,-1,1658,1401,0,0
441,-377,0,0,0,0,0,0,0,0,0,-1,1665,1401,0,0
448,-377,0,0,0,0,0,0,0,0,0,-1,1672,1401,0,0
455,-377,0,0,0,0,0,0,0,0,0,-1,1679,1401,0,0
462,-377,0,0,0,0,0,0,0,0,0,-1,1686,1401,0,0
469,-377,0,0,0,0,0,0,0,0,0,-1,1693,1401,0,0
476,-377,0,0,0,0,0,0,0,0,0,-1,1700,1401,0,0
483,-377,0,0,0,0,0,0,0,0,0,-1,1707,1401,0,0
490,-377,0,0,0,0,0,0,0,0,0,-1,1714,1401,0,0
497,-377,0,0,0,0,0,0,0,0,0,-1,1721,1401,0,0
504,-377,0,0,0,0,0,0,0,0,0,-1,1728,1401,0,0
511,-377,0,0,0,0,0,0,0,0,0,-1,1735,1401,0,0
518,-377,0,0,0,0,0,0,0,0,0,-1,1742,1401,0,0
525,-377,0,0,0,0,0,0,0,0,0,-1,1749,1401,0,0
532,-377,0,0,0,0,0,0,0,0,0,-1,1756,1401,0,0
539,-377,0,0,0,0,0,0,0,0,0,-1,1763,1401,0,0
546,-377,13.151,1.45496,0,0,0,0,0,0,0,-1,1770,1401,13.151,-1.45498
553,-377,15.6658,3.59143,0,0,0,0,0,0,0,-1,1777,1401,15.6657,-3.59141
560,-377,15.3103,3.67798,0,0,0,0,0,0,0,-1,1784,1401,15.3102,-3.67798
567,-377,14.8861,3.38879,0,0,0,0,0,0,0,-1,1791,1401,14.8862,-3.38885
574,-377,13.9768,3.18567,0,0,0,0,0,0,0,-1,1798,1401,13.9768,-3.18572
581,-377,14.9554,4.87756,0,0,0,0,0,0,0,-1,1805,1401,14.9555,-4.87751
588,-377,14.123,4.74121,0,0,0,0,0,0,0,-1,1812,1401,14.123,-4.74124
595,-377,13.2811,4.63452,-0.0509959,0.00652317,-0.00596528,0.00713531,-0.0516081,-1.46854,0.0370138,0.0412956,1819,1401,13.2811,-4.63449
602,-377,12.5105,4.56848,-0.0469285,0.00639814,-0.00100751,0.00641717,-0.0469476,-1.55191,0.0336421,0.0422737,1826,1401,12.5105,-4.56851
609,-377,11.6223,4.16479,-0.0409765,0.0056285,0.00271642,0.0057863,-0.0411343,1.51277,0.0295411,0.0454124,1833,1401,11.6224,-4.16483
616,-377,10.0072,4.20459,0,0,0,0,0,0,0,-1,1840,1401,10.0072,-4.20464
623,-377,9.90369,4.46716,-0.0279111,0.00318805,0.00717291,0.00476273,-0.0294857,1.35469,0.0214219,0.0458383,1847,1401,9.9037,-4.4672
630,-377,9.72693,4.59888,-0.021271,0.00209372,0.00800976,0.00457589,-0.0237532,1.27029,0.0175606,0.0238226,1854,1401,9.72692,-4.59888
637,-377,9.7002,4.44092,-0.0147102,0.00108376,0.00735136,0.00397589,-0.0176023,1.19598,0.0132604,0.0120697,1861,1401,9.70022,-4.44094
644,-377,9.71252,4.28369,-0.00964337,-5.85349e-06,0.00596441,0.00284316,-0.0124924,1.12517,0.00942009,0.00967836,1868,1401,9.71248,-4.28364
651,-377,9.72009,4.12854,-0.00563928,-0.000535599,0.00450281,0.00208819,-0.00826307,1.04319,0.00632082,0.0110184,1875,1401,9.72014,-4.12849
658,-377,9.73621,4.00281,-0.00286543,-0.000683375,0.00328915,0.00169097,-0.00523978,0.945541,0.00417266,0.0122827,1882,1401,9.73615,-4.0028
665,-377,9.7511,3.86328,-0.00109914,-0.000756974,0.00214739,0.00122614,-0.00308225,0.825149,0.00256324,0.0145359,1889,1401,9.75109,-3.86323
672,-377,9.76685,3.72351,3.83824e-05,-0.00103818,0.00138573,0.000986703,-0.0019865,0.600144,0.00174863,0.0161521,1896,1401,9.76687,-3.72354
679,-377,9.72363,3.60645,0.00113395,-0.000815725,0.000927137,0.00150444,-0.00118621,0.380162,0.00155706,0.0165404,1903,1401,9.72359,-3.6064
686,-377,9.72168,3.47168,0.002347,-0.00141716,0.000274782,0.00236695,-0.00143711,0.0724873,0.00221804,0.0143073,1910,1401,9.72169,-3.47167
693,-377,9.74426,3.31531,0.00420898,-0.00207914,-0.000132775,0.00421179,-0.00208194,-0.0211027,0.00370239,0.0115591,1917,1401,9.74421,-3.31533
700,-377,9.73877,3.16992,0.00728839,-0.00334064,-0.000797845,0.00734795,-0.00340019,-0.0745064,0.00634343,0.0200344,1924,1401,9.73881,-3.16994
707,-377,9.6676,3.01807,0.0120306,-0.00514199,-0.00187751,0.0122335,-0.00534487,-0.107638,0.0104054,0.0371851,1931,1401,9.66764,-3.01804
714,-377,9.81177,2.55908,0.0189911,-0.00781835,-0.00366316,0.0194826,-0.00830986,-0.13338,0.0164725,0.043703,1938,1401,9.81174,-2.5591
721,-377,10.0574,1.99695,0,0,0,0,0,0,0,-1,1945,1401,10.0574,-1.99693
728,-377,12.3326,3.64917,0,0,0,0,0,0,0,-1,1952,1401,12.3326,-3.64918
735,-377,11.4497,3.11182,0,0,0,0,0,0,0,-1,1959,1401,11.4497,-3.11184
742,-377,0,0,0,0,0,0,0,0,0,-1,1966,1401,0,0
749,-377,0,0,0,0,0,0,0,0,0,-1,1973,1401,0,0
756,-377,0,0,0,0,0,0,0,0,0,-1,1980,1401,0,0
763,-377,0,0,0,0,0,0,0,0,0,-1,1987,1401,0,0
770,-377,0,0,0,0,0,0,0,0,0,-1,1994,1401,0,0
777,-377,0,0,0,0,0,0,0,0,0,-1,2001,1401,0,0
784,-377,0,0,0,0,0,0,0,0,0,-1,2008,1401,0,0
791,-377,0,0,0,0,0,0,0,0,0,-1,2015,1401,0,0
798,-377,0,0,0,0,0,0,0,0,0,-1,2022,1401,0,0
805,-377,0,0,0,0,0,0,0,0,0,-1,2029,1401,0,0
812,-377,0,0,0,0,0,0,0,0,0,-1,2036,1401,0,0
-700,-384,0,0,0,0,0,0,0,0,0,-1,524,1408,0,0
-693,-384,0,0,0,0,0,0,0,0,0,-1,531,1408,0,0
-686,-384,0,0,0,0,0,0,0,0,0,-1,538,1408,0,0
-679,-384,0,0,0,0,0,0,0,0,0,-1,545,1408,0,0
-672,-384,0,0,0,0,0,0,0,0,0,-1,552,1408,0,0
-665,-384,0,0,0,0,0,0,0,0,0,-1,559,1408,0,0
-658,-384,0,0,0,0,0,0,0,0,0,-1,566,1408,0,0
-651,-384,0,0,0,0,0,0,0,0,0,-1,573,1408,0,0
-644,-384,0,0,0,0,0,0,0,0,0,-1,580,1408,0,0
-637,-384,0,0,0,0,0,0,0,0,0,-1,587,1408,0,0
-630,-384,0,0,0,0,0,0,0,0,0,-1,594,1408,0,0
-623,-384,0,0,0,0,0,0,0,0,0,-1,601,1408,0,0
-616,-384,-2.07581,-3.60217,0,0,0,0,0,0,0,-1,608,1408,-2.07579,3.6022
-609,-384,-1.98767,-2.38391,0,0,0,0,0,0,0,-1,615,1408,-1.98769,2.38387
-602,-384,-1.97278,-1.51038,0,0,0,0,0,0,0,-1,622,1408,-1.97277,1.51042
-595,-384,-1.84631,-0.596924,0,0,0,0,0,0,0,-1,629,1408,-1.84631,0.596972
-588,-384,-1.85291,0.334595,0,0,0,0,0,0,0,-1,636,1408,-1.85291,-0.334537
-581,-384,-3.37183,2.49927,0,0,0,0,0,0,0,-1,643,1408,-3.37181,-2.4993
-574,-384,-2.40204,1.71191,0,0,0,0,0,0,0,-1,650,1408,-2.40201,-1.7119
-567,-384,-2.66302,1.68079,-0.00608163,-0.0026675,-0.00113564,-0.00232426,-0.00642487,-1.27728,0.00375636,0.0424364,657,1408,-2.66304,-1.68078
-560,-384,-2.95197,1.64038,-0.00589014,-0.000850619,-0.000296197,-0.00083327,-0.00590749,-1.51229,0.00369205,0.0254097,664,1408,-2.95197,-1.64043
-553,-384,-2.99396,1.80396,-0.00421406,0.000333035,-3.69261e-06,0.000333038,-0.00421406,-1.56998,0.00292671,0.0177324,671,1408,-2.99396,-1.8039
-546,-384,-3.00848,1.96375,-0.00265646,0.00094699,6.19157e-05,0.000948054,-0.00265752,1.55362,0.00215826,0.0143265,678,1408,-3.00848,-1.96371
-539,-384,-3.02069,2.0968,-0.00173243,0.00104077,-0.000137758,0.0010476,-0.00173926,-1.52128,0.00162543,0.0153562,685,1408,-3.02067,-2.09675
-532,-384,-2.97089,2.28467,-0.00149858,0.000188002,-0.000683128,0.000429978,-0.00174056,-1.23037,0.00132712,0.0211167,692,1408,-2.97086,-2.28464
-525,-384,-2.94019,2.46338,-0.0018589,-0.000993852,-0.00156605,0.000198307,-0.00305106,-0.920133,0.00210326,0.0192651,699,1408,-2.94021,-2.4634
-518,-384,-3.00513,2.59412,-0.00238473,-0.00221212,-0.00246446,0.000167547,-0.0047644,-0.8029,0.00323356,0.011227,706,1408,-3.00511,-2.59407
-511,-384,-3.01917,2.76404,-0.00373639,-0.00348326,-0.00408733,0.000479467,-0.00769912,-0.800876,0.0052998,0.00932536,713,1408,-3.01915,-2.7641
-504,-384,-3.00085,2.92468,-0.006449,-0.00434307,-0.00638919,0.00107934,-0.0118714,-0.867066,0.00829749,0.0107768,720,1408,-3.00083,-2.92471
-497,-384,-2.97412,3.09314,-0.00999155,-0.0042333,-0.0094942,0.00280873,-0.0170336,-0.932616,0.0123985,0.0128085,727,1408,-2.9741,-3.09313
-490,-384,-2.8996,3.24304,-0.0142644,-0.00418935,-0.0133469,0.00503906,-0.0234928,-0.965847,0.0175839,0.0232105,734,1408,-2.89961,-3.24308
-483,-384,-3.18909,3.26465,-0.0191533,-0.00385164,-0.0186686,0.00867301,-0.031678,-0.979872,0.0245263,0.040629,741,1408,-3.18909,-3.26469
-476,-384,-3.43152,2.74585,-0.0232531,-0.00273407,-0.0252802,0.0142891,-0.0402763,-0.97816,0.0326726,0.0440906,748,1408,-3.43152,-2.74582
-469,-384,-3.76013,2.58655,0,0,0,0,0,0,0,-1,755,1408,-3.76014,-2.58652
-462,-384,-2.23645,1.61475,0,0,0,0,0,0,0,-1,762,1408,-2.23647,-1.61471
-455,-384,-2.04144,1.76526,0,0,0,0,0,0,0,-1,769,1408,-2.04145,-1.76524
-448,-384,-1.89233,1.6134,0,0,0,0,0,0,0,-1,776,1408,-1.89231,-1.61337
-441,-384,-2.54742,0.868164,0,0,0,0,0,0,0,-1,783,1408,-2.54745,-0.868223
-434,-384,-5.99164,0.274902,0,0,0,0,0,0,0,-1,790,1408,-5.99164,-0.274901
-427,-384,-5.77826,1.16138,0,0,0,0,0,0,0,-1,797,1408,-5.77824,-1.16133
-420,-384,-5.56482,2.04773,0,0,0,0,0,0,0,-1,804,1408,-5.56483,-2.04776
-413,-384,0,0,0,0,0,0,0,0,0,-1,811,1408,0,0
-406,-384,0,0,0,0,0,0,0,0,0,-1,818,1408,0,0
-399,-384,0,0,0,0,0,0,0,0,0,-1,825,1408,0,0
-392,-384,0,0,0,0,0,0,0,0,0,-1,832,1408,0,0
-385,-384,0,0,0,0,0,0,0,0,0,-1,839,1408,0,0
-378,-384,0,0,0,0,0,0,0,0,0,-1,846,1408,0,0
-371,-384,0,0,0,0,0,0,0,0,0,-1,853,1408,0,0
-364,-384,0,0,0,0,0,0,0,0,0,-1,860,1408,0,0
-357,-384,0,0,0,0,0,0,0,0,0,-1,867,1408,0,0
-350,-384,0,0,0,0,0,0,0,0,0,-1,874,1408,0,0
-343,-384,0,0,0,0,0,0,0,0,0,-1,881,1408,0,0
-336,-384,0,0,0,0,0,0,0,0,0,-1,888,1408,0,0
-329,-384,0,0,0,0,0,0,0,0,0,-1,895,1408,0,0
-322,-384,0,0,0,0,0,0,0,0,0,-1,902,1408,0,0
-315,-384,0,0,0,0,0,0,0,0,0,-1,909,1408,0,0
-308,-384,0,0,0,0,0,0,0,0,0,-1,916,1408,0,0
-301,-384,0,0,0,0,0,0,0,0,0,-1,923,1408,0,0
-294,-384,0,0,0,0,0,0,0,0,0,-1,930,1408,0,0
-287,-384,0,0,0,0,0,0,0,0,0,-1,937,1408,0,0
-280,-384,0,0,0,0,0,0,0,0,0,-1,944,1408,0,0
-273,-384,0,0,0,0,0,0,0,0,0,-1,951,1408,0,0
-266,-384,0,0,0,0,0,0,0,0,0,-1,958,1408,0,0
-259,-384,0,0,0,0,0,0,0,0,0,-1,965,1408,0,0
-252,-384,0,0,0,0,0,0,0,0,0,-1,972,1408,0,0
-245,-384,0,0,0,0,0,0,0,0,0,-1,979,1408,0,0
-238,-384,0,0,0,0,0,0,0,0,0,-1,986,1408,0,0
-231,-384,0,0,0,0,0,0,0,0,0,-1,993,1408,0,0
-224,-384,0,0,0,0,0,0,0,0,0,-1,1000,1408,0,0
-217,-384,0,0,0,0,0,0,0,0,0,-1,1007,1408,0,0
-210,-384,0,0,0,0,0,0,0,0,0,-1,1014,1408,0,0
-203,-384,0,0,0,0,0,0,0,0,0,-1,1021,1408,0,0
-196,-384,0,0,0,0,0,0,0,0,0,-1,1028,1408,0,0
-189,-384,0,0,0,0,0,0,0,0,0,-1,1035,1408,0,0
-182,-384,0,0,0,0,0,0,0,0,0,-1,1042,1408,0,0
-175,-384,0,0,0,0,0,0,0,0,0,-1,1049,1408,0,0
-168,-384,0,0,0,0,0,0,0,0,0,-1,1056,1408,0,0
-161,-384,0,0,0,0,0,0,0,0,0,-1,1063,1408,0,0
-154,-384,0,0,0,0,0,0,0,0,0,-1,1070,1408,0,0
-147,-384,0,0,0,0,0,0,0,0,0,-1,1077,1408,0,0
-140,-384,0,0,0,0,0,0,0,0,0,-1,1084,1408,0,0
-133,-384,0,0,0,0,0,0,0,0,0,-1,1091,1408,0,0
-126,-384,0,0,0,0,0,0,0,0,0,-1,1098,1408,0,0
-119,-384,0,0,0,0,0,0,0,0,0,-1,1105,1408,0,0
-112,-384,0,0,0,0,0,0,0,0,0,-1,1112,1408,0,0
-105,-384,0,0,0,0,0,0,0,0,0,-1,1119,1408,0,0
-98,-384,0,0,0,0,0,0,0,0,0,-1,1126,1408,0,0
-91,-384,0,0,0,0,0,0,0,0,0,-1,1133,1408,0,0
-84,-384,0,0,0,0,0,0,0,0,0,-1,1140,1408,0,0
-77,-384,0,0,0,0,0,0,0,0,0,-1,1147,1408,0,0
-70,-384,0,0,0,0,0,0,0,0,0,-1,1154,1408,0,0
-63,-384,0,0,0,0,0,0,0,0,0,-1,1161,1408,0,0
-56,-384,0,0,0,0,0,0,0,0,0,-1,1168,1408,0,0
-49,-384,0,0,0,0,0,0,0,0,0,-1,1175,1408,0,0
-42,-384,0,0,0,0,0,0,0,0,0,-1,1182,1408,0,0
-35,-384,0,0,0,0,0,0,0,0,0,-1,1189,1408,0,0
-28,-384,0,0,0,0,0,0,0,0,0,-1,1196,1408,0,0
-21,-384,0,0,0,0,0,0,0,0,0,-1,1203,1408,0,0
-14,-384,0,0,0,0,0,0,0,0,0,-1,1210,1408,0,0
-7,-384,0,0,0,0,0,0,0,0,0,-1,1217,1408,0,0
0,-384,0,0,0,0,0,0,0,0,0,-1,1224,1408,0,0
7,-384,0,0,0,0,0,0,0,0,0,-1,1231,1408,0,0
14,-384,0,0,0,0,0,0,0,0,0,-1,1238,1408,0,0
21,-384,0,0,0,0,0,0,0,0,0,-1,1245,1408,0,0
28,-384,0,0,0,0,0,0,0,0,0,-1,1252,1408,0,0
35,-384,0,0,0,0,0,0,0,0,0,-1,1259,1408,0,0
42,-384,0,0,0,0,0,0,0,0,0,-1,1266,1408,0,0
49,-384,0,0,0,0,0,0,0,0,0,-1,1273,1408,0,0
56,-384,0,0,0,0,0,0,0,0,0,-1,1280,1408,0,0
63,-384,0,0,0,0,0,0,0,0,0,-1,1287,1408,0,0
70,-384,0,0,0,0,0,0,0,0,0,-1,1294,1408,0,0
77,-384,0,0,0,0,0,0,0,0,0,-1,1301,1408,0,0
84,-384,0,0,0,0,0,0,0,0,0,-1,1308,1408,0,0
91,-384,0,0,0,0,0,0,0,0,0,-1,1315,1408,0,0
98,-384,0,0,0,0,0,0,0,0,0,-1,1322,1408,0,0
105,-384,0,0,0,0,0,0,0,0,0,-1,1329,1408,0,0
112,-384,0,0,0,0,0,0,0,0,0,-1,1336,1408,0,0
119,-384,0,0,0,0,0,0,0,0,0,-1,1343,1408,0,0
126,-384,0,0,0,0,0,0,0,0,0,-1,1350,1408,0,0
133,-384,0,0,0,0,0,0,0,0,0,-1,1357,1408,0,0
140,-384,0,0,0,0,0,0,0,0,0,-1,1364,1408,0,0
147,-384,0,0,0,0,0,0,0,0,0,-1,1371,1408,0,0
154,-384,0,0,0,0,0,0,0,0,0,-1,1378,1408,0,0
161,-384,0,0,0,0,0,0,0,0,0,-1,1385,1408,0,0
168,-384,0,0,0,0,0,0,0,0,0,-1,1392,1408,0,0
175,-384,0,0,0,0,0,0,0,0,0,-1,1399,1408,0,0
182,-384,0,0,0,0,0,0,0,0,0,-1,1406,1408,0,0
189,-384,0,0,0,0,0,0,0,0,0,-1,1413,1408,0,0
196,-384,0,0,0,0,0,0,0,0,0,-1,1420,1408,0,0
203,-384,0,0,0,0,0,0,0,0,0,-1,1427,1408,0,0
210,-384,0,0,0,0,0,0,0,0,0,-1,1434,1408,0,0
217,-384,0,0,0,0,0,0,0,0,0,-1,1441,1408,0,0
224,-384,0,0,0,0,0,0,0,0,0,-1,1448,1408,0,0
231,-384,0,0,0,0,0,0,0,0,0,-1,1455,1408,0,0
238,-384,0,0,0,0,0,0,0,0,0,-1,1462,1408,0,0
245,-384,0,0,0,0,0,0,0,0,0,-1,1469,1408,0,0
252,-384,0,0,0,0,0,0,0,0,0,-1,1476,1408,0,0
259,-384,0,0,0,0,0,0,0,0,0,-1,1483,1408,0,0
266,-384,0,0,0,0,0,0,0,0,0,-1,1490,1408,0,0
273,-384,0,0,0,0,0,0,0,0,0,-1,1497,1408,0,0
280,-384,0,0,0,0,0,0,0,0,0,-1,1504,1408,0,0
287,-384,0,0,0,0,0,0,0,0,0,-1,1511,1408,0,0
294,-384,0,0,0,0,0,0,0,0,0,-1,1518,1408,0,0
301,-384,0,0,0,0,0,0,0,0,0,-1,1525,1408,0,0
308,-384,0,0,0,0,0,0,0,0,0,-1,1532,1408,0,0
315,-384,0,0,0,0,0,0,0,0,0,-1,1539,1408,0,0
322,-384,0,0,0,0,0,0,0,0,0,-1,1546,1408,0,0
329,-384,0,0,0,0,0,0,0,0,0,-1,1553,1408,0,0
336,-384,0,0,0,0,0,0,0,0,0,-1,1560,1408,0,0
343,-384,0,0,0,0,0,0,0,0,0,-1,1567,1408,0,0
350,-384,0,0,0,0,0,0,0,0,0,-1,1574,1408,0,0
357,-384,0,0,0,0,0,0,0,0,0,-1,1581,1408,0,0
364,-384,0,0,0,0,0,0,0,0,0,-1,1588,1408,0,0
371,-384,0,0,0,0,0,0,0,0,0,-1,1595,1408,0,0
378,-384,0,0,0,0,0,0,0,0,0,-1,1602,1408,0,0
385,-384,0,0,0,0,0,0,0,0,0,-1,1609,1408,0,0
392,-384,0,0,0,0,0,0,0,0,0,-1,1616,1408,0,0
399,-384,0,0,0,0,0,0,0,0,0,-1,1623,1408,0,0
406,-384,0,0,0,0,0,0,0,0,0,-1,1630,1408,0,0
413,-384,0,0,0,0,0,0,0,0,0,-1,1637,1408,0,0
420,-384,0,0,0,0,0,0,0,0,0,-1,1644,1408,0,0
427,-384,0,0,0,0,0,0,0,0,0,-1,1651,1408,0,0
434,-384,0,0,0,0,0,0,0,0,0,-1,1658,1408,0,0
441,-384,0,0,0,0,0,0,0,0,0,-1,1665,1408,0,0
448,-384,0,0,0,0,0,0,0,0,0,-1,1672,1408,0,0
455,-384,0,0,0,0,0,0,0,0,0,-1,1679,1408,0,0
462,-384,0,0,0,0,0,0,0,0,0,-1,1686,1408,0,0
469,-384,0,0,0,0,0,0,0,0,0,-1,1693,1408,0,0
476,-384,0,0,0,0,0,0,0,0,0,-1,1700,1408,0,0
483,-384,0,0,0,0,0,0,0,0,0,-1,1707,1408,0,0
490,-384,0,0,0,0,0,0,0,0,0,-1,1714,1408,0,0
497,-384,0,0,0,0,0,0,0,0,0,-1,1721,1408,0,0
504,-384,0,0,0,0,0,0,0,0,0,-1,1728,1408,0,0
511,-384,0,0,0,0,0,0,0,0,0,-1,1735,1408,0,0
518,-384,0,0,0,0,0,0,0,0,0,-1,1742,1408,0,0
525,-384,0,0,0,0,0,0,0,0,0,-1,1749,1408,0,0
532,-384,0,0,0,0,0,0,0,0,0,-1,1756,1408,0,0
539,-384,16.3219,1.28052,0,0,0,0,0,0,0,-1,1763,1408,16.3219,-1.28054
546,-384,13.307,2.17627,0,0,0,0,0,0,0,-1,1770,1408,13.307,-2.1763
553,-384,16.4163,3.34314,0,0,0,0,0,0,0,-1,1777,1408,16.4163,-3.34314
560,-384,16.0007,3.48987,0,0,0,0,0,0,0,-1,1784,1408,16.0007,-3.48987
567,-384,15.2776,3.84827,0,0,0,0,0,0,0,-1,1791,1408,15.2776,-3.84828
574,-384,14.3341,4.11096,0,0,0,0,0,0,0,-1,1798,1408,14.3341,-4.11094
581,-384,13.9615,4.53687,0,0,0,0,0,0,0,-1,1805,1408,13.9615,-4.53692
588,-384,13.6984,4.65942,0,0,0,0,0,0,0,-1,1812,1408,13.6984,-4.65942
595,-384,12.7412,4.73669,0,0,0,0,0,0,0,-1,1819,1408,12.7412,-4.7367
602,-384,11.9771,4.71436,-0.0431029,0.0028343,0.00414862,0.00320596,-0.0434745,1.48145,0.0301086,0.0456559,1826,1408,11.977,-4.7144
609,-384,11.0854,4.48743,-0.0368494,0.00267652,0.00689897,0.00384608,-0.0380189,1.40287,0.0267204,0.0448639,1833,1408,11.0855,-4.48737
616,-384,10.1935,4.40149,-0.0299727,0.00203338,0.00819499,0.00400963,-0.031949,1.33416,0.0227539,0.0473257,1840,1408,10.1935,-4.4015
623,-384,9.65637,4.64539,-0.0239775,0.00125479,0.00907022,0.00417686,-0.0268995,1.25913,0.0194752,0.036977,1847,1408,9.65639,-4.64534
630,-384,9.59058,4.5437,-0.0179078,0.000658516,0.00884658,0.00419873,-0.0214481,1.19014,0.0158843,0.0177148,1854,1408,9.59062,-4.54373
637,-384,9.58044,4.44629,-0.0123778,0.000215485,0.00745616,0.00367804,-0.0158404,1.13604,0.011976,0.0144451,1861,1408,9.58047,-4.44626
644,-384,9.56934,4.30688,-0.00819457,-0.000383421,0.00577436,0.00268214,-0.0112601,1.08274,0.00854233,0.0137124,1868,1408,9.56937,-4.30692
651,-384,9.57361,4.13989,-0.00483529,-0.000650889,0.00430506,0.00204344,-0.00752962,1.01159,0.00582169,0.0134564,1875,1408,9.57358,-4.13985
658,-384,9.59265,4.00391,-0.00259287,-0.000729259,0.00317966,0.00165232,-0.00497444,0.927933,0.003983,0.0134,1882,1408,9.59265,-4.00386
665,-384,9.61853,3.89148,-0.00136366,-0.000837247,0.00214287,0.00105852,-0.00325943,0.846507,0.00259868,0.0145185,1889,1408,9.61857,-3.89148
672,-384,9.64075,3.73999,-0.000556893,-0.00106457,0.00167126,0.000879695,-0.00250116,0.710032,0.00202539,0.0140602,1896,1408,9.64074,-3.73993
679,-384,9.59753,3.58679,0.000296449,-0.00104281,0.00154298,0.00130884,-0.0020552,0.58067,0.0019581,0.0148036,1903,1408,9.59751,-3.58677
686,-384,9.58521,3.45618,0.00115201,-0.00168703,0.00133657,0.00168223,-0.00221724,0.377655,0.00225841,0.0119985,1910,1408,9.58517,-3.45614
693,-384,9.60547,3.30469,0.00273365,-0.00249447,0.00134322,0.00305856,-0.00281938,0.237331,0.00339457,0.0153656,1917,1408,9.60549,-3.30471
700,-384,9.49536,3.23669,0.00552218,-0.00373389,0.00111001,0.00565343,-0.00386514,0.1177,0.00552779,0.0350402,1924,1408,9.49534,-3.23667
707,-384,9.48608,3.15723,0.0101158,-0.00541957,0.000425589,0.0101274,-0.00543122,0.0273675,0.00911816,0.0474793,1931,1408,9.48611,-3.15728
714,-384,9.55676,3.08337,0,0,0,0,0,0,0,-1,1938,1408,9.55682,-3.0834
721,-384,9.76685,3.14343,0,0,0,0,0,0,0,-1,1945,1408,9.76687,-3.14338
728,-384,10.3801,3.28577,0,0,0,0,0,0,0,-1,1952,1408,10.3802,-3.28573
735,-384,11.5321,3.15649,0,0,0,0,0,0,0,-1,1959,1408,11.5321,-3.15648
742,-384,0,0,0,0,0,0,0,0,0,-1,1966,1408,0,0
749,-384,0,0,0,0,0,0,0,0,0,-1,1973,1408,0,0
756,-384,0,0,0,0,0,0,0,0,0,-1,1980,1408,0,0
763,-384,0,0,0,0,0,0,0,0,0,-1,1987,1408,0,0
770,-384,0,0,0,0,0,0,0,0,0,-1,1994,1408,0,0
777,-384,0,0,0,0,0,0,0,0,0,-1,2001,1408,0,0
784,-384,0,0,0,0,0,0,0,0,0,-1,2008,1408,0,0
791,-384,0,0,0,0,0,0,0,0,0,-1,2015,1408,0,0
798,-384,0,0,0,0,0,0,0,0,0,-1,2022,1408,0,0
805,-384,0,0,0,0,0,0,0,0,0,-1,2029,1408,0,0
812,-384,0,0,0,0,0,0,0,0,0,-1,2036,1408,0,0
-700,-391,0,0,0,0,0,0,0,0,0,-1,524,1415,0,0
-693,-391,0,0,0,0,0,0,0,0,0,-1,531,1415,0,0
-686,-391,0,0,0,0,0,0,0,0,0,-1,538,1415,0,0
-679,-391,0,0,0,0,0,0,0,0,0,-1,545,1415,0,0
-672,-391,0,0,0,0,0,0,0,0,0,-1,552,1415,0,0
-665,-391,0,0,0,0,0,0,0,0,0,-1,559,1415,0,0
-658,-391,0,0,0,0,0,0,0,0,0,-1,566,1415,0,0
-651,-391,0,0,0,0,0,0,0,0,0,-1,573,1415,0,0
-644,-391,0,0,0,0,0,0,0,0,0,-1,580,1415,0,0
-637,-391,0,0,0,0,0,0,0,0,0,-1,587,1415,0,0
-630,-391,0,0,0,0,0,0,0,0,0,-1,594,1415,0,0
-623,-391,0,0,0,0,0,0,0,0,0,-1,601,1415,0,0
-616,-391,0,0,0,0,0,0,0,0,0,-1,608,1415,0,0
-609,-391,-1.61505,-2.45898,0,0,0,0,0,0,0,-1,615,1415,-1.61502,2.45893
-602,-391,-1.54004,-1.42468,0,0,0,0,0,0,0,-1,622,1415,-1.54003,1.4247
-595,-391,-0.992126,-0.620117,0,0,0,0,0,0,0,-1,629,1415,-0.992147,0.62008
-588,-391,-1.24866,0.73999,0,0,0,0,0,0,0,-1,636,1415,-1.24867,-0.739987
-581,-391,-1.30768,1.36609,0,0,0,0,0,0,0,-1,643,1415,-1.30767,-1.36603
-574,-391,-1.8811,1.52637,0,0,0,0,0,0,0,-1,650,1415,-1.8811,-1.52634
-567,-391,-2.28436,1.62439,-0.00701727,0.00119897,0.000865305,0.00128911,-0.00710742,1.467,0.0052213,0.0495511,657,1415,-2.28435,-1.62433
-560,-391,-2.71216,1.72107,-0.00590233,0.00238719,0.0011567,0.00254557,-0.00606071,1.43472,0.00510512,0.0370567,664,1415,-2.71217,-1.72109
-553,-391,-2.82397,1.79724,-0.00428357,0.00293599,0.00118595,0.00312582,-0.00447339,1.41208,0.00441034,0.0220426,671,1415,-2.82398,-1.79722
-546,-391,-2.85425,1.96667,-0.00276991,0.00301491,0.00104613,0.00319828,-0.00295328,1.39727,0.00355254,0.0114532,678,1415,-2.85423,-1.96669
-539,-391,-2.81738,2.11353,-0.00178156,0.00264853,0.000713271,0.00276053,-0.00189357,1.41503,0.00270254,0.0141584,685,1415,-2.81738,-2.11349
-532,-391,-2.74005,2.30347,-0.00139361,0.00154709,0.000119019,0.0015519,-0.00139842,1.53041,0.00170414,0.025469,692,1415,-2.74003,-2.30345
-525,-391,-2.72925,2.48755,-0.00153862,0.00017469,-0.000705448,0.000427772,-0.0017917,-1.22634,0.00135968,0.0217617,699,1415,-2.72927,-2.48751
-518,-391,-2.84796,2.6095,-0.0017705,-0.00115464,-0.00150963,7.81466e-05,-0.00300328,-0.886007,0.00202874,0.0131287,706,1415,-2.84797,-2.60948
-511,-391,-2.85016,2.75793,-0.00250221,-0.00258874,-0.00277115,0.000226015,-0.00531697,-0.777592,0.00362233,0.0115534,713,1415,-2.85016,-2.75793
-504,-391,-2.83405,2.92346,-0.00433777,-0.00380742,-0.00462225,0.000557255,-0.00870245,-0.814051,0.00599602,0.00996777,720,1415,-2.83402,-2.92345
-497,-391,-2.82623,3.08521,-0.0067376,-0.00421782,-0.00716782,0.0018,-0.0127554,-0.872395,0.00916273,0.00883566,727,1415,-2.82624,-3.08516
-490,-391,-2.79553,3.24915,-0.00955509,-0.00493183,-0.0104716,0.00348028,-0.0179672,-0.894032,0.013291,0.0119076,734,1415,-2.79551,-3.24919
-483,-391,-2.76709,3.30811,-0.0125567,-0.00597658,-0.0153993,0.00648015,-0.0250134,-0.890641,0.0192037,0.0280838,741,1415,-2.76707,-3.30812
-476,-391,-2.9137,3.30688,-0.0142548,-0.00683895,-0.0218244,0.0115903,-0.032684,-0.869543,0.0265112,0.0427121,748,1415,-2.9137,-3.30688
-469,-391,-3.03717,3.37366,0,0,0,0,0,0,0,-1,755,1415,-3.03715,-3.37365
-462,-391,-2.21326,2.3949,0,0,0,0,0,0,0,-1,762,1415,-2.21325,-2.3949
-455,-391,-2.00342,2.48022,0,0,0,0,0,0,0,-1,769,1415,-2.00344,-2.48017
-448,-391,-2.74487,3.34155,0,0,0,0,0,0,0,-1,776,1415,-2.74489,-3.3415
-441,-391,-2.80511,1.66772,0,0,0,0,0,0,0,-1,783,1415,-2.80509,-1.66773
-434,-391,-4.99182,0.0065918,0,0,0,0,0,0,0,-1,790,1415,-4.99185,-0.00653608
-427,-391,-4.73364,0.990479,0,0,0,0,0,0,0,-1,797,1415,-4.73362,-0.990476
-420,-391,-4.47412,1.97998,0,0,0,0,0,0,0,-1,804,1415,-4.47412,-1.97998
-413,-391,0,0,0,0,0,0,0,0,0,-1,811,1415,0,0
-406,-391,0,0,0,0,0,0,0,0,0,-1,818,1415,0,0
-399,-391,0,0,0,0,0,0,0,0,0,-1,825,1415,0,0
-392,-391,0,0,0,0,0,0,0,0,0,-1,832,1415,0,0
-385,-391,0,0,0,0,0,0,0,0,0,-1,839,1415,0,0
-378,-391,0,0,0,0,0,0,0,0,0,-1,846,1415,0,0
-371,-391,0,0,0,0,0,0,0,0,0,-1,853,1415,0,0
-364,-391,0,0,0,0,0,0,0,0,0,-1,860,1415,0,0
-357,-391,0,0,0,0,0,0,0,0,0,-1,867,1415,0,0
-350,-391,0,0,0,0,0,0,0,0,0,-1,874,1415,0,0
-343,-391,0,0,0,0,0,0,0,0,0,-1,881,1415,0,0
-336,-391,0,0,0,0,0,0,0,0,0,-1,888,1415,0,0
-329,-391,0,0,0,0,0,0,0,0,0,-1,895,1415,0,0
-322,-391,0,0,0,0,0,0,0,0,0,-1,902,1415,0,0
-315,-391,0,0,0,0,0,0,0,0,0,-1,909,1415,0,0
-308,-391,0,0,0,0,0,0,0,0,0,-1,916,1415,0,0
-301,-391,0,0,0,0,0,0,0,0,0,-1,923,1415,0,0
-294,-391,0,0,0,0,0,0,0,0,0,-1,930,1415,0,0
-287,-391,0,0,0,0,0,0,0,0,0,-1,937,1415,0,0
-280,-391,0,0,0,0,0,0,0,0,0,-1,944,1415,0,0
-273,-391,0,0,0,0,0,0,0,0,0,-1,951,1415,0,0
-266,-391,0,0,0,0,0,0,0,0,0,-1,958,1415,0,0
-259,-391,0,0,0,0,0,0,0,0,0,-1,965,1415,0,0
-252,-391,0,0,0,0,0,0,0,0,0,-1,972,1415,0,0
-245,-391,0,0,0,0,0,0,0,0,0,-1,979,1415,0,0
-238,-391,0,0,0,0,0,0,0,0,0,-1,986,1415,0,0
-231,-391,0,0,0,0,0,0,0,0,0,-1,993,1415,0,0
-224,-391,0,0,0,0,0,0,0,0,0,-1,1000,1415,0,0
-217,-391,0,0,0,0,0,0,0,0,0,-1,1007,1415,0,0
-210,-391,0,0,0,0,0,0,0,0,0,-1,1014,1415,0,0
-203,-391,0,0,0,0,0,0,0,0,0,-1,1021,1415,0,0
-196,-391,0,0,0,0,0,0,0,0,0,-1,1028,1415,0,0
-189,-391,0,0,0,0,0,0,0,0,0,-1,1035,1415,0,0
-182,-391,0,0,0,0,0,0,0,0,0,-1,1042,1415,0,0
-175,-391,0,0,0,0,0,0,0,0,0,-1,1049,1415,0,0
-168,-391,0,0,0,0,0,0,0,0,0,-1,1056,1415,0,0
-161,-391,0,0,0,0,0,0,0,0,0,-1,1063,1415,0,0
-154,-391,0,0,0,0,0,0,0,0,0,-1,1070,1415,0,0
-147,-391,0,0,0,0,0,0,0,0,0,-1,1077,1415,0,0
-140,-391,0,0,0,0,0,0,0,0,0,-1,1084,1415,0,0
-133,-391,0,0,0,0,0,0,0,0,0,-1,1091,1415,0,0
-126,-391,0,0,0,0,0,0,0,0,0,-1,1098,1415,0,0
-119,-391,0,0,0,0,0,0,0,0,0,-1,1105,1415,0,0
-112,-391,0,0,0,0,0,0,0,0,0,-1,1112,1415,0,0
-105,-391,0,0,0,0,0,0,0,0,0,-1,1119,1415,0,0
-98,-391,0,0,0,0,0,0,0,0,0,-1,1126,1415,0,0
-91,-391,0,0,0,0,0,0,0,0,0,-1,1133,1415,0,0
-84,-391,0,0,0,0,0,0,0,0,0,-1,1140,1415,0,0
-77,-391,0,0,0,0,0,0,0,0,0,-1,1147,1415,0,0
-70,-391,0,0,0,0,0,0,0,0,0,-1,1154,1415,0,0
-63,-391,0,0,0,0,0,0,0,0,0,-1,1161,1415,0,0
-56,-391,0,0,0,0,0,0,0,0,0,-1,1168,1415,0,0
-49,-391,0,0,0,0,0,0,0,0,0,-1,1175,1415,0,0
-42,-391,0,0,0,0,0,0,0,0,0,-1,1182,1415,0,0
-35,-391,0,0,0,0,0,0,0,0,0,-1,1189,1415,0,0
-28,-391,0,0,0,0,0,0,0,0,0,-1,1196,1415,0,0
-21,-391,0,0,0,0,0,0,0,0,0,-1,1203,1415,0,0
-14,-391,0,0,0,0,0,0,0,0,0,-1,1210,1415,0,0
-7,-391,0,0,0,0,0,0,0,0,0,-1,1217,1415,0,0
0,-391,0,0,0,0,0,0,0,0,0,-1,1224,1415,0,0
7,-391,0,0,0,0,0,0,0,0,0,-1,1231,1415,0,0
14,-391,0,0,0,0,0,0,0,0,0,-1,1238,1415,0,0
21,-391,0,0,0,0,0,0,0,0,0,-1,1245,1415,0,0
28,-391,0,0,0,0,0,0,0,0,0,-1,1252,1415,0,0
35,-391,0,0,0,0,0,0,0,0,0,-1,1259,1415,0,0
42,-391,0,0,0,0,0,0,0,0,0,-1,1266,1415,0,0
49,-391,0,0,0,0,0,0,0,0,0,-1,1273,1415,0,0
56,-391,0,0,0,0,0,0,0,0,0,-1,1280,1415,0,0
63,-391,0,0,0,0,0,0,0,0,0,-1,1287,1415,0,0
70,-391,0,0,0,0,0,0,0,0,0,-1,1294,1415,0,0
77,-391,0,0,0,0,0,0,0,0,0,-1,1301,1415,0,0
84,-391,0,0,0,0,0,0,0,0,0,-1,1308,1415,0,0
91,-391,0,0,0,0,0,0,0,0,0,-1,1315,1415,0,0
98,-391,0,0,0,0,0,0,0,0,0,-1,1322,1415,0,0
105,-391,0,0,0,0,0,0,0,0,0,-1,1329,1415,0,0
112,-391,0,0,0,0,0,0,0,0,0,-1,1336,1415,0,0
119,-391,0,0,0,0,0,0,0,0,0,-1,1343,1415,0,0
126,-391,0,0,0,0,0,0,0,0,0,-1,1350,1415,0,0
133,-391,0,0,0,0,0,0,0,0,0,-1,1357,1415,0,0
140,-391,0,0,0,0,0,0,0,0,0,-1,1364,1415,0,0
147,-391,0,0,0,0,0,0,0,0,0,-1,1371,1415,0,0
154,-391,0,0,0,0,0,0,0,0,0,-1,1378,1415,0,0
161,-391,0,0,0,0,0,0,0,0,0,-1,1385,1415,0,0
168,-391,0,0,0,0,0,0,0,0,0,-1,1392,1415,0,0
175,-391,0,0,0,0,0,0,0,0,0,-1,1399,1415,0,0
182,-391,0,0,0,0,0,0,0,0,0,-1,1406,1415,0,0
189,-391,0,0,0,0,0,0,0,0,0,-1,1413,1415,0,0
196,-391,0,0,0,0,0,0,0,0,0,-1,1420,1415,0,0
203,-391,0,0,0,0,0,0,0,0,0,-1,1427,1415,0,0
210,-391,0,0,0,0,0,0,0,0,0,-1,1434,1415,0,0
217,-391,0,0,0,0,0,0,0,0,0,-1,1441,1415,0,0
224,-391,0,0,0,0,0,0,0,0,0,-1,1448,1415,0,0
231,-391,0,0,0,0,0,0,0,0,0,-1,1455,1415,0,0
238,-391,0,0,0,0,0,0,0,0,0,-1,1462,1415,0,0
245,-391,0,0,0,0,0,0,0,0,0,-1,1469,1415,0,0
252,-391,0,0,0,0,0,0,0,0,0,-1,1476,1415,0,0
259,-391,0,0,0,0,0,0,0,0,0,-1,1483,1415,0,0
266,-391,0,0,0,0,0,0,0,0,0,-1,1490,1415,0,0
273,-391,0,0,0,0,0,0,0,0,0,-1,1497,1415,0,0
280,-391,0,0,0,0,0,0,0,0,0,-1,1504,1415,0,0
287,-391,0,0,0,0,0,0,0,0,0,-1,1511,1415,0,0
294,-391,0,0,0,0,0,0,0,0,0,-1,1518,1415,0,0
301,-391,0,0,0,0,0,0,0,0,0,-1,1525,1415,0,0
308,-391,0,0,0,0,0,0,0,0,0,-1,1532,1415,0,0
315,-391,0,0,0,0,0,0,0,0,0,-1,1539,1415,0,0
322,-391,0,0,0,0,0,0,0,0,0,-1,1546,1415,0,0
329,-391,0,0,0,0,0,0,0,0,0,-1,1553,1415,0,0
336,-391,0,0,0,0,0,0,0,0,0,-1,1560,1415,0,0
343,-391,0,0,0,0,0,0,0,0,0,-1,1567,1415,0,0
350,-391,0,0,0,0,0,0,0,0,0,-1,1574,1415,0,0
357,-391,0,0,0,0,0,0,0,0,0,-1,1581,1415,0,0
364,-391,0,0,0,0,0,0,0,0,0,-1,1588,1415,0,0
371,-391,0,0,0,0,0,0,0,0,0,-1,1595,1415,0,0
378,-391,0,0,0,0,0,0,0,0,0,-1,1602,1415,0,0
385,-391,0,0,0,0,0,0,0,0,0,-1,1609,1415,0,0
392,-391,0,0,0,0,0,0,0,0,0,-1,1616,1415,0,0
399,-391,0,0,0,0,0,0,0,0,0,-1,1623,1415,0,0
406,-391,0,0,0,0,0,0,0,0,0,-1,1630,1415,0,0
413,-391,0,0,0,0,0,0,0,0,0,-1,1637,1415,0,0
420,-391,0,0,0,0,0,0,0,0,0,-1,1644,1415,0,0
427,-391,0,0,0,0,0,0,0,0,0,-1,1651,1415,0,0
434,-391,0,0,0,0,0,0,0,0,0,-1,1658,1415,0,0
441,-391,0,0,0,0,0,0,0,0,0,-1,1665,1415,0,0
448,-391,0,0,0,0,0,0,0,0,0,-1,1672,1415,0,0
455,-391,0,0,0,0,0,0,0,0,0,-1,1679,1415,0,0
462,-391,0,0,0,0,0,0,0,0,0,-1,1686,1415,0,0
469,-391,0,0,0,0,0,0,0,0,0,-1,1693,1415,0,0
476,-391,0,0,0,0,0,0,0,0,0,-1,1700,1415,0,0
483,-391,0,0,0,0,0,0,0,0,0,-1,1707,1415,0,0
490,-391,0,0,0,0,0,0,0,0,0,-1,1714,1415,0,0
497,-391,0,0,0,0,0,0,0,0,0,-1,1721,1415,0,0
504,-391,0,0,0,0,0,0,0,0,0,-1,1728,1415,0,0
511,-391,0,0,0,0,0,0,0,0,0,-1,1735,1415,0,0
518,-391,0,0,0,0,0,0,0,0,0,-1,1742,1415,0,0
525,-391,0,0,0,0,0,0,0,0,0,-1,1749,1415,0,0
532,-391,15.1768,1.33142,0.0779225,0.0190636,0.0655755,0.12037,-0.0233835,0.574475,0.08907,0.0434345,1756,1415,15.1768,-1.33144
539,-391,15.8317,1.88757,0,0,0,0,0,0,0,-1,1763,1415,15.8317,-1.88753
546,-391,16.9968,1.98975,0,0,0,0,0,0,0,-1,1770,1415,16.9968,-1.98976
553,-391,16.4384,3.59814,0,0,0,0,0,0,0,-1,1777,1415,16.4383,-3.59812
560,-391,15.9547,3.82971,0,0,0,0,0,0,0,-1,1784,1415,15.9547,-3.82966
567,-391,15.3812,4.3584,0,0,0,0,0,0,0,-1,1791,1415,15.3813,-4.35834
574,-391,14.7817,4.76294,0,0,0,0,0,0,0,-1,1798,1415,14.7817,-4.763
581,-391,14.1359,5.11072,0,0,0,0,0,0,0,-1,1805,1415,14.1359,-5.11073
588,-391,13.4515,5.59692,0,0,0,0,0,0,0,-1,1812,1415,13.4516,-5.59696
595,-391,11.7814,5.52307,0,0,0,0,0,0,0,-1,1819,1415,11.7814,-5.52305
602,-391,9.73755,2.93774,0,0,0,0,0,0,0,-1,1826,1415,9.73752,-2.9378
609,-391,9.76831,3.828,-0.032175,-0.000122979,0.011993,0.00386763,-0.0361656,1.24958,0.0254975,0.0478424,1833,1415,9.76832,-3.82801
616,-391,9.63892,4.67847,-0.0253832,-0.000225122,0.0116834,0.00436367,-0.029972,1.19655,0.0215834,0.0325635,1840,1415,9.63888,-4.67842
623,-391,9.46667,4.68127,-0.0195723,-0.000434888,0.0111034,0.00465398,-0.0246612,1.14105,0.0181917,0.0182639,1847,1415,9.46663,-4.68128
630,-391,9.45996,4.53857,-0.0142352,-0.000509603,0.00966165,0.00447858,-0.0192234,1.0942,0.0145402,0.0160569,1854,1415,9.45998,-4.5386
637,-391,9.4436,4.43616,-0.00984364,-0.000485101,0.00761678,0.00377492,-0.0141037,1.06085,0.0108812,0.0151074,1861,1415,9.44365,-4.43621
644,-391,9.41956,4.30823,-0.00661824,-0.000692641,0.0056569,0.00273038,-0.0100413,1.02663,0.00776597,0.0148164,1868,1415,9.41961,-4.30821
651,-391,9.42847,4.15332,-0.00404201,-0.000700913,0.00413174,0.00208522,-0.00682815,0.977511,0.00538351,0.015084,1875,1415,9.42851,-4.1533
658,-391,9.45972,4.01318,-0.0024993,-0.00070613,0.00303002,0.00155717,-0.0047626,0.929244,0.00380195,0.0143711,1882,1415,9.4597,-4.0132
665,-391,9.47449,3.89636,-0.00191369,-0.000807755,0.00207912,0.000790677,-0.00351213,0.915371,0.00264467,0.0118723,1889,1415,9.47449,-3.89637
672,-391,9.48108,3.73926,-0.00160493,-0.000988202,0.00183283,0.000562026,-0.00315515,0.868739,0.00231365,0.0117862,1896,1415,9.48114,-3.73929
679,-391,9.45947,3.5979,-0.0011857,-0.00113085,0.00195953,0.000801446,-0.00311799,0.792396,0.00239101,0.0118483,1903,1415,9.45949,-3.59793
686,-391,9.46033,3.46472,-0.000785554,-0.00196469,0.00205431,0.00076212,-0.00351236,0.645659,0.00263264,0.0124799,1910,1415,9.46038,-3.46474
693,-391,9.44116,3.3844,0.000364955,-0.00301983,0.00235469,0.00157235,-0.00422722,0.473804,0.00346335,0.0238643,1917,1415,9.44116,-3.38439
700,-391,9.26672,3.3114,0,0,0,0,0,0,0,-1,1924,1415,9.26677,-3.3114
707,-391,9.26001,3.19275,0,0,0,0,0,0,0,-1,1931,1415,9.25997,-3.19272
714,-391,9.80701,3.26929,0,0,0,0,0,0,0,-1,1938,1415,9.80698,-3.26932
721,-391,9.67871,3.38293,0,0,0,0,0,0,0,-1,1945,1415,9.67876,-3.3829
728,-391,10.337,3.27954,0,0,0,0,0,0,0,-1,1952,1415,10.337,-3.27958
735,-391,0,0,0,0,0,0,0,0,0,-1,1959,1415,0,0
742,-391,0,0,0,0,0,0,0,0,0,-1,1966,1415,0,0
749,-391,0,0,0,0,0,0,0,0,0,-1,1973,1415,0,0
756,-391,0,0,0,0,0,0,0,0,0,-1,1980,1415,0,0
763,-391,0,0,0,0,0,0,0,0,0,-1,1987,1415,0,0
770,-391,0,0,0,0,0,0,0,0,0,-1,1994,1415,0,0
777,-391,0,0,0,0,0,0,0,0,0,-1,2001,1415,0,0
784,-391,0,0,0,0,0,0,0,0,0,-1,2008,1415,0,0
791,-391,0,0,0,0,0,0,0,0,0,-1,2015,1415,0,0
798,-391,0,0,0,0,0,0,0,0,0,-1,2022,1415,0,0
805,-391,0,0,0,0,0,0,0,0,0,-1,2029,1415,0,0
812,-391,0,0,0,0,0,0,0,0,0,-1,2036,1415,0,0
-700,-398,0,0,0,0,0,0,0,0,0,-1,524,1422,0,0
-693,-398,0,0,0,0,0,0,0,0,0,-1,531,1422,0,0
-686,-398,0,0,0,0,0,0,0,0,0,-1,538,1422,0,0
-679,-398,0,0,0,0,0,0,0,0,0,-1,545,1422,0,0
-672,-398,0,0,0,0,0,0,0,0,0,-1,552,1422,0,0
-665,-398,0,0,0,0,0,0,0,0,0,-1,559,1422,0,0
-658,-398,0,0,0,0,0,0,0,0,0,-1,566,1422,0,0
-651,-398,0,0,0,0,0,0,0,0,0,-1,573,1422,0,0
-644,-398,0,0,0,0,0,0,0,0,0,-1,580,1422,0,0
-637,-398,0,0,0,0,0,0,0,0,0,-1,587,1422,0,0
-630,-398,0,0,0,0,0,0,0,0,0,-1,594,1422,0,0
-623,-398,0,0,0,0,0,0,0,0,0,-1,601,1422,0,0
-616,-398,0,0,0,0,0,0,0,0,0,-1,608,1422,0,0
-609,-398,-0.956055,-2.82178,0,0,0,0,0,0,0,-1,615,1422,-0.956085,2.82183
-602,-398,-2.68988,0.369019,0,0,0,0,0,0,0,-1,622,1422,-2.68985,-0.368988
-595,-398,-0.431641,-0.835083,0,0,0,0,0,0,0,-1,629,1422,-0.431644,0.835029
-588,-398,-0.802063,1.04736,0,0,0,0,0,0,0,-1,636,1422,-0.802088,-1.04734
-581,-398,-0.792236,1.47583,0,0,0,0,0,0,0,-1,643,1422,-0.792266,-1.47586
-574,-398,-1.92072,1.17419,0,0,0,0,0,0,0,-1,650,1422,-1.92074,-1.17421
-567,-398,-2.4209,1.36694,-0.00592687,0.00700698,0.00454299,0.00844321,-0.0073631,1.2646,0.00913288,0.0463178,657,1422,-2.42089,-1.367
-560,-398,-2.65533,1.61365,-0.00422477,0.00725392,0.00393581,0.00847379,-0.00544464,1.27024,0.008099,0.0412397,664,1422,-2.65536,-1.61362
-553,-398,-2.63672,1.83447,-0.00301107,0.00685817,0.00339113,0.00791106,-0.00406395,1.26975,0.0070317,0.026553,671,1422,-2.6367,-1.83452
-546,-398,-2.67926,1.98462,-0.00184196,0.00611521,0.00281134,0.00700826,-0.002735,1.26322,0.00580281,0.0122843,678,1422,-2.67927,-1.98459
-539,-398,-2.65717,2.14587,-0.0010767,0.00505009,0.00214747,0.00572782,-0.00175443,1.26509,0.00451836,0.013065,685,1422,-2.65715,-2.14587
-532,-398,-2.60773,2.30945,-0.000788234,0.00352105,0.00132036,0.00389343,-0.00116061,1.29591,0.00305684,0.0212979,692,1422,-2.60776,-2.30949
-525,-398,-2.60345,2.45862,-0.000958373,0.00184938,0.000373462,0.00189821,-0.0010072,1.4408,0.00170353,0.0195063,699,1422,-2.60348,-2.45858
-518,-398,-2.63892,2.60669,-0.00121275,0.000319446,-0.000491886,0.000463765,-0.00135706,-1.28541,0.00109261,0.0164649,706,1422,-2.63893,-2.60664
-511,-398,-2.66858,2.73596,-0.00174342,-0.00120432,-0.00163541,0.000183607,-0.00313135,-0.867073,0.00215138,0.0122399,713,1422,-2.66858,-2.73596
-504,-398,-2.67267,2.90906,-0.00322175,-0.00257878,-0.00324835,0.000363959,-0.00616449,-0.834722,0.0042362,0.0117631,720,1422,-2.67265,-2.90906
-497,-398,-2.66968,3.06799,-0.00494208,-0.00326175,-0.00540368,0.00136669,-0.00957052,-0.862521,0.0068813,0.00891381,727,1422,-2.66968,-3.06803
-490,-398,-2.66425,3.22485,-0.00683073,-0.00430826,-0.00823327,0.00275982,-0.0138988,-0.861401,0.0103097,0.00842379,734,1422,-2.66426,-3.22486
-483,-398,-2.60364,3.40027,-0.0085624,-0.00601456,-0.0126562,0.0054317,-0.0200087,-0.835557,0.0154709,0.0162256,741,1422,-2.60361,-3.40021
-476,-398,-2.62714,3.40735,-0.00847128,-0.00807074,-0.0185811,0.0103112,-0.0268532,-0.790787,0.022154,0.0369575,748,1422,-2.62715,-3.4074
-469,-398,-2.81329,4.15405,-0.00839275,-0.0103531,-0.0260736,0.0167191,-0.0354649,-0.766611,0.0307696,0.0473996,755,1422,-2.8133,-4.15403
-462,-398,-2.8255,4.37671,0,0,0,0,0,0,0,-1,762,1422,-2.82552,-4.37672
-455,-398,-2.64819,3.30554,0,0,0,0,0,0,0,-1,769,1422,-2.64822,-3.3055
-448,-398,-1.66412,2.70886,0,0,0,0,0,0,0,-1,776,1422,-1.66411,-2.70884
-441,-398,-2.95306,2.51233,0,0,0,0,0,0,0,-1,783,1422,-2.95305,-2.51227
-434,-398,-3.71259,0.368286,0,0,0,0,0,0,0,-1,790,1422,-3.7126,-0.368295
-427,-398,-3.55646,1.08508,0,0,0,0,0,0,0,-1,797,1422,-3.55649,-1.0851
-420,-398,-2.02679,3.55188,0,0,0,0,0,0,0,-1,804,1422,-2.02678,-3.5519
-413,-398,-1.77942,2.48938,0,0,0,0,0,0,0,-1,811,1422,-1.77943,-2.48934
-406,-398,0,0,0,0,0,0,0,0,0,-1,818,1422,0,0
-399,-398,0,0,0,0,0,0,0,0,0,-1,825,1422,0,0
-392,-398,0,0,0,0,0,0,0,0,0,-1,832,1422,0,0
-385,-398,0,0,0,0,0,0,0,0,0,-1,839,1422,0,0
-378,-398,0,0,0,0,0,0,0,0,0,-1,846,1422,0,0
-371,-398,0,0,0,0,0,0,0,0,0,-1,853,1422,0,0
-364,-398,0,0,0,0,0,0,0,0,0,-1,860,1422,0,0
-357,-398,0,0,0,0,0,0,0,0,0,-1,867,1422,0,0
-350,-398,0,0,0,0,0,0,0,0,0,-1,874,1422,0,0
-343,-398,0,0,0,0,0,0,0,0,0,-1,881,1422,0,0
-336,-398,0,0,0,0,0,0,0,0,0,-1,888,1422,0,0
-329,-398,0,0,0,0,0,0,0,0,0,-1,895,1422,0,0
-322,-398,0,0,0,0,0,0,0,0,0,-1,902,1422,0,0
-315,-398,0,0,0,0,0,0,0,0,0,-1,909,1422,0,0
-308,-398,0,0,0,0,0,0,0,0,0,-1,916,1422,0,0
-301,-398,0,0,0,0,0,0,0,0,0,-1,923,1422,0,0
-294,-398,0,0,0,0,0,0,0,0,0,-1,930,1422,0,0
-287,-398,0,0,0,0,0,0,0,0,0,-1,937,1422,0,0
-280,-398,0,0,0,0,0,0,0,0,0,-1,944,1422,0,0
-273,-398,0,0,0,0,0,0,0,0,0,-1,951,1422,0,0
-266,-398,0,0,0,0,0,0,0,0,0,-1,958,1422,0,0
-259,-398,0,0,0,0,0,0,0,0,0,-1,965,1422,0,0
-252,-398,0,0,0,0,0,0,0,0,0,-1,972,1422,0,0
-245,-398,0,0,0,0,0,0,0,0,0,-1,979,1422,0,0
-238,-398,0,0,0,0,0,0,0,0,0,-1,986,1422,0,0
-231,-398,0,0,0,0,0,0,0,0,0,-1,993,1422,0,0
-224,-398,0,0,0,0,0,0,0,0,0,-1,1000,1422,0,0
-217,-398,0,0,0,0,0,0,0,0,0,-1,1007,1422,0,0
-210,-398,0,0,0,0,0,0,0,0,0,-1,1014,1422,0,0
-203,-398,0,0,0,0,0,0,0,0,0,-1,1021,1422,0,0
-196,-398,0,0,0,0,0,0,0,0,0,-1,1028,1422,0,0
-189,-398,0,0,0,0,0,0,0,0,0,-1,1035,1422,0,0
-182,-398,0,0,0,0,0,0,0,0,0,-1,1042,1422,0,0
-175,-398,0,0,0,0,0,0,0,0,0,-1,1049,1422,0,0
-168,-398,0,0,0,0,0,0,0,0,0,-1,1056,1422,0,0
-161,-398,0,0,0,0,0,0,0,0,0,-1,1063,1422,0,0
-154,-398,0,0,0,0,0,0,0,0,0,-1,1070,1422,0,0
-147,-398,0,0,0,0,0,0,0,0,0,-1,1077,1422,0,0
-140,-398,0,0,0,0,0,0,0,0,0,-1,1084,1422,0,0
-133,-398,0,0,0,0,0,0,0,0,0,-1,1091,1422,0,0
-126,-398,0,0,0,0,0,0,0,0,0,-1,1098,1422,0,0
-119,-398,0,0,0,0,0,0,0,0,0,-1,1105,1422,0,0
-112,-398,0,0,0,0,0,0,0,0,0,-1,1112,1422,0,0
-105,-398,0,0,0,0,0,0,0,0,0,-1,1119,1422,0,0
-98,-398,0,0,0,0,0,0,0,0,0,-1,1126,1422,0,0
-91,-398,0,0,0,0,0,0,0,0,0,-1,1133,1422,0,0
-84,-398,0,0,0,0,0,0,0,0,0,-1,1140,1422,0,0
-77,-398,0,0,0,0,0,0,0,0,0,-1,1147,1422,0,0
-70,-398,0,0,0,0,0,0,0,0,0,-1,1154,1422,0,0
-63,-398,0,0,0,0,0,0,0,0,0,-1,1161,1422,0,0
-56,-398,0,0,0,0,0,0,0,0,0,-1,1168,1422,0,0
-49,-398,0,0,0,0,0,0,0,0,0,-1,1175,1422,0,0
-42,-398,0,0,0,0,0,0,0,0,0,-1,1182,1422,0,0
-35,-398,0,0,0,0,0,0,0,0,0,-1,1189,1422,0,0
-28,-398,0,0,0,0,0,0,0,0,0,-1,1196,1422,0,0
-21,-398,0,0,0,0,0,0,0,0,0,-1,1203,1422,0,0
-14,-398,0,0,0,0,0,0,0,0,0,-1,1210,1422,0,0
-7,-398,0,0,0,0,0,0,0,0,0,-1,1217,1422,0,0
0,-398,0,0,0,0,0,0,0,0,0,-1,1224,1422,0,0
7,-398,0,0,0,0,0,0,0,0,0,-1,1231,1422,0,0
14,-398,0,0,0,0,0,0,0,0,0,-1,1238,1422,0,0
21,-398,0,0,0,0,0,0,0,0,0,-1,1245,1422,0,0
28,-398,0,0,0,0,0,0,0,0,0,-1,1252,1422,0,0
35,-398,0,0,0,0,0,0,0,0,0,-1,1259,1422,0,0
42,-398,0,0,0,0,0,0,0,0,0,-1,1266,1422,0,0
49,-398,0,0,0,0,0,0,0,0,0,-1,1273,1422,0,0
56,-398,0,0,0,0,0,0,0,0,0,-1,1280,1422,0,0
63,-398,0,0,0,0,0,0,0,0,0,-1,1287,1422,0,0
70,-398,0,0,0,0,0,0,0,0,0,-1,1294,1422,0,0
77,-398,0,0,0,0,0,0,0,0,0,-1,1301,1422,0,0
84,-398,0,0,0,0,0,0,0,0,0,-1,1308,1422,0,0
91,-398,0,0,0,0,0,0,0,0,0,-1,1315,1422,0,0
98,-398,0,0,0,0,0,0,0,0,0,-1,1322,1422,0,0
105,-398,0,0,0,0,0,0,0,0,0,-1,1329,1422,0,0
112,-398,0,0,0,0,0,0,0,0,0,-1,1336,1422,0,0
119,-398,0,0,0,0,0,0,0,0,0,-1,1343,1422,0,0
126,-398,0,0,0,0,0,0,0,0,0,-1,1350,1422,0,0
133,-398,0,0,0,0,0,0,0,0,0,-1,1357,1422,0,0
140,-398,0,0,0,0,0,0,0,0,0,-1,1364,1422,0,0
147,-398,0,0,0,0,0,0,0,0,0,-1,1371,1422,0,0
154,-398,0,0,0,0,0,0,0,0,0,-1,1378,1422,0,0
161,-398,0,0,0,0,0,0,0,0,0,-1,1385,1422,0,0
168,-398,0,0,0,0,0,0,0,0,0,-1,1392,1422,0,0
175,-398,0,0,0,0,0,0,0,0,0,-1,1399,1422,0,0
182,-398,0,0,0,0,0,0,0,0,0,-1,1406,1422,0,0
189,-398,0,0,0,0,0,0,0,0,0,-1,1413,1422,0,0
196,-398,0,0,0,0,0,0,0,0,0,-1,1420,1422,0,0
203,-398,0,0,0,0,0,0,0,0,0,-1,1427,1422,0,0
210,-398,0,0,0,0,0,0,0,0,0,-1,1434,1422,0,0
217,-398,0,0,0,0,0,0,0,0,0,-1,1441,1422,0,0
224,-398,0,0,0,0,0,0,0,0,0,-1,1448,1422,0,0
231,-398,0,0,0,0,0,0,0,0,0,-1,1455,1422,0,0
238,-398,0,0,0,0,0,0,0,0,0,-1,1462,1422,0,0
245,-398,0,0,0,0,0,0,0,0,0,-1,1469,1422,0,0
252,-398,0,0,0,0,0,0,0,0,0,-1,1476,1422,0,0
259,-398,0,0,0,0,0,0,0,0,0,-1,1483,1422,0,0
266,-398,0,0,0,0,0,0,0,0,0,-1,1490,1422,0,0
273,-398,0,0,0,0,0,0,0,0,0,-1,1497,1422,0,0
280,-398,0,0,0,0,0,0,0,0,0,-1,1504,1422,0,0
287,-398,0,0,0,0,0,0,0,0,0,-1,1511,1422,0,0
294,-398,0,0,0,0,0,0,0,0,0,-1,1518,1422,0,0
301,-398,0,0,0,0,0,0,0,0,0,-1,1525,1422,0,0
308,-398,0,0,0,0,0,0,0,0,0,-1,1532,1422,0,0
315,-398,0,0,0,0,0,0,0,0,0,-1,1539,1422,0,0
322,-398,0,0,0,0,0,0,0,0,0,-1,1546,1422,0,0
329,-398,0,0,0,0,0,0,0,0,0,-1,1553,1422,0,0
336,-398,0,0,0,0,0,0,0,0,0,-1,1560,1422,0,0
343,-398,0,0,0,0,0,0,0,0,0,-1,1567,1422,0,0
350,-398,0,0,0,0,0,0,0,0,0,-1,1574,1422,0,0
357,-398,0,0,0,0,0,0,0,0,0,-1,1581,1422,0,0
364,-398,0,0,0,0,0,0,0,0,0,-1,1588,1422,0,0
371,-398,0,0,0,0,0,0,0,0,0,-1,1595,1422,0,0
378,-398,0,0,0,0,0,0,0,0,0,-1,1602,1422,0,0
385,-398,0,0,0,0,0,0,0,0,0,-1,1609,1422,0,0
392,-398,0,0,0,0,0,0,0,0,0,-1,1616,1422,0,0
399,-398,0,0,0,0,0,0,0,0,0,-1,1623,1422,0,0
406,-398,0,0,0,0,0,0,0,0,0,-1,1630,1422,0,0
413,-398,0,0,0,0,0,0,0,0,0,-1,1637,1422,0,0
420,-398,0,0,0,0,0,0,0,0,0,-1,1644,1422,0,0
427,-398,0,0,0,0,0,0,0,0,0,-1,1651,1422,0,0
434,-398,0,0,0,0,0,0,0,0,0,-1,1658,1422,0,0
441,-398,0,0,0,0,0,0,0,0,0,-1,1665,1422,0,0
448,-398,0,0,0,0,0,0,0,0,0,-1,1672,1422,0,0
455,-398,0,0,0,0,0,0,0,0,0,-1,1679,1422,0,0
462,-398,0,0,0,0,0,0,0,0,0,-1,1686,1422,0,0
469,-398,0,0,0,0,0,0,0,0,0,-1,1693,1422,0,0
476,-398,0,0,0,0,0,0,0,0,0,-1,1700,1422,0,0
483,-398,0,0,0,0,0,0,0,0,0,-1,1707,1422,0,0
490,-398,0,0,0,0,0,0,0,0,0,-1,1714,1422,0,0
497,-398,0,0,0,0,0,0,0,0,0,-1,1721,1422,0,0
504,-398,0,0,0,0,0,0,0,0,0,-1,1728,1422,0,0
511,-398,0,0,0,0,0,0,0,0,0,-1,1735,1422,0,0
518,-398,0,0,0,0,0,0,0,0,0,-1,1742,1422,0,0
525,-398,0,0,0,0,0,0,0,0,0,-1,1749,1422,0,0
532,-398,14.5569,1.29419,0,0,0,0,0,0,0,-1,1756,1422,14.5569,-1.29422
539,-398,15.1139,1.93787,0,0,0,0,0,0,0,-1,1763,1422,15.1139,-1.93788
546,-398,16.1237,2.21838,0,0,0,0,0,0,0,-1,1770,1422,16.1237,-2.21843
553,-398,17.1334,2.49902,0,0,0,0,0,0,0,-1,1777,1422,17.1335,-2.49897
560,-398,15.7297,4.01672,0,0,0,0,0,0,0,-1,1784,1422,15.7298,-4.01677
567,-398,15.2578,4.96338,0,0,0,0,0,0,0,-1,1791,1422,15.2579,-4.96344
574,-398,14.9908,5.37744,0,0,0,0,0,0,0,-1,1798,1422,14.9908,-5.37742
581,-398,14.3447,6.12915,0,0,0,0,0,0,0,-1,1805,1422,14.3447,-6.12917
588,-398,13.4268,6.89148,0,0,0,0,0,0,0,-1,1812,1422,13.4268,-6.8915
595,-398,10.5126,3.71863,0,0,0,0,0,0,0,-1,1819,1422,10.5125,-3.71867
602,-398,9.8855,4.58301,0,0,0,0,0,0,0,-1,1826,1422,9.88546,-4.58297
609,-398,9.45581,4.59473,-0.0299674,-0.00270674,0.014159,0.00331649,-0.0359906,1.16859,0.0251722,0.0362159,1833,1422,9.45585,-4.59472
616,-398,9.3562,4.80908,-0.023248,-0.00231679,0.0124409,0.00347505,-0.0290398,1.13509,0.0206161,0.0144178,1840,1422,9.35614,-4.80913
623,-398,9.30835,4.72168,-0.0175492,-0.00193917,0.0106858,0.00348855,-0.0229769,1.10082,0.0166034,0.0101195,1847,1422,9.30832,-4.72169
630,-398,9.31763,4.57446,-0.0126852,-0.00150199,0.00871709,0.00326275,-0.0174499,1.07057,0.0128596,0.0110139,1854,1422,9.31758,-4.57446
637,-398,9.31506,4.41846,-0.00884491,-0.00105575,0.00664229,0.00274952,-0.0126502,1.05055,0.00948376,0.0126725,1861,1422,9.31507,-4.4184
644,-398,9.27234,4.26611,-0.00594188,-0.000901874,0.00485378,0.00204709,-0.00889085,1.02484,0.00671444,0.0180603,1868,1422,9.2723,-4.26606
651,-398,9.28308,4.11267,-0.00366943,-0.000551395,0.00348119,0.00170394,-0.00592476,0.995926,0.00462369,0.0245505,1875,1422,9.28314,-4.11272
658,-398,9.33972,4.01465,-0.00240354,-0.000356566,0.00253065,0.00134973,-0.00410984,0.977561,0.00328361,0.0189475,1882,1422,9.3397,-4.01465
665,-398,9.33032,3.88757,-0.00202736,-0.000291518,0.00177708,0.00081826,-0.00313714,1.01256,0.00241092,0.0131908,1889,1422,9.33032,-3.8876
672,-398,9.32996,3.73743,-0.00195554,-0.000313398,0.00172772,0.000778429,-0.00304737,1.00722,0.00233472,0.0128353,1896,1422,9.32994,-3.73744
679,-398,9.32568,3.60034,-0.00181438,-0.000453236,0.00201208,0.000990253,-0.00325786,0.948479,0.00256648,0.0119403,1903,1422,9.32563,-3.60039
686,-398,9.34985,3.48315,-0.00166896,-0.000991912,0.00250982,0.00120212,-0.00386298,0.852433,0.00305589,0.0166925,1910,1422,9.34989,-3.4832
693,-398,9.22668,3.48108,-0.000760746,-0.00181445,0.00317537,0.00193119,-0.00450638,0.703188,0.00381457,0.0395401,1917,1422,9.22672,-3.48105
700,-398,9.12329,3.47144,0,0,0,0,0,0,0,-1,1924,1422,9.12328,-3.47142
707,-398,8.47034,3.30957,0,0,0,0,0,0,0,-1,1931,1422,8.47035,-3.30952
714,-398,7.05786,4.02783,0,0,0,0,0,0,0,-1,1938,1422,7.05788,-4.02779
721,-398,9.38574,3.31934,0,0,0,0,0,0,0,-1,1945,1422,9.38576,-3.31936
728,-398,10.4528,3.38147,0,0,0,0,0,0,0,-1,1952,1422,10.4528,-3.38152
735,-398,0,0,0,0,0,0,0,0,0,-1,1959,1422,0,0
742,-398,0,0,0,0,0,0,0,0,0,-1,1966,1422,0,0
749,-398,0,0,0,0,0,0,0,0,0,-1,1973,1422,0,0
756,-398,0,0,0,0,0,0,0,0,0,-1,1980,1422,0,0
763,-398,0,0,0,0,0,0,0,0,0,-1,1987,1422,0,0
770,-398,0,0,0,0,0,0,0,0,0,-1,1994,1422,0,0
777,-398,0,0,0,0,0,0,0,0,0,-1,2001,1422,0,0
784,-398,0,0,0,0,0,0,0,0,0,-1,2008,1422,0,0
791,-398,0,0,0,0,0,0,0,0,0,-1,2015,1422,0,0
798,-398,0,0,0,0,0,0,0,0,0,-1,2022,1422,0,0
805,-398,0,0,0,0,0,0,0,0,0,-1,2029,1422,0,0
812,-398,0,0,0,0,0,0,0,0,0,-1,2036,1422,0,0
-700,-405,0,0,0,0,0,0,0,0,0,-1,524,1429,0,0
-693,-405,0,0,0,0,0,0,0,0,0,-1,531,1429,0,0
-686,-405,0,0,0,0,0,0,0,0,0,-1,538,1429,0,0
-679,-405,0,0,0,0,0,0,0,0,0,-1,545,1429,0,0
-672,-405,0,0,0,0,0,0,0,0,0,-1,552,1429,0,0
-665,-405,0,0,0,0,0,0,0,0,0,-1,559,1429,0,0
-658,-405,0,0,0,0,0,0,0,0,0,-1,566,1429,0,0
-651,-405,0,0,0,0,0,0,0,0,0,-1,573,1429,0,0
-644,-405,0,0,0,0,0,0,0,0,0,-1,580,1429,0,0
-637,-405,0,0,0,0,0,0,0,0,0,-1,587,1429,0,0
-630,-405,0,0,0,0,0,0,0,0,0,-1,594,1429,0,0
-623,-405,0,0,0,0,0,0,0,0,0,-1,601,1429,0,0
-616,-405,0,0,0,0,0,0,0,0,0,-1,608,1429,0,0
-609,-405,0,0,0,0,0,0,0,0,0,-1,615,1429,0,0
-602,-405,-2.73499,0.252808,0,0,0,0,0,0,0,-1,622,1429,-2.73497,-0.252794
-595,-405,-0.854675,-2.74475,0,0,0,0,0,0,0,-1,629,1429,-0.854689,2.74469
-588,-405,-1.53949,-1.44751,0,0,0,0,0,0,0,-1,636,1429,-1.53951,1.44746
-581,-405,-2.18311,-0.0930176,0,0,0,0,0,0,0,-1,643,1429,-2.18309,0.0930562
-574,-405,-2.4361,1.10522,0,0,0,0,0,0,0,-1,650,1429,-2.4361,-1.10521
-567,-405,-2.82159,1.34045,-0.0020668,0.0136728,0.00840627,0.0173182,-0.00571218,1.16162,0.0138479,0.0480474,657,1429,-2.82157,-1.34049
-560,-405,-2.92914,1.40979,-0.00122602,0.0129128,0.00714062,0.0158915,-0.00420475,1.17559,0.0122391,0.0441548,664,1429,-2.92911,-1.40985
-553,-405,-2.37469,1.7981,-0.000703815,0.0115174,0.00597591,0.0139538,-0.00314019,1.18367,0.0105069,0.0377386,671,1429,-2.37467,-1.79805
-546,-405,-2.50342,1.97119,-0.000180852,0.00985056,0.00489462,0.011843,-0.00217332,1.18421,0.00871065,0.0171587,678,1429,-2.50339,-1.97124
-539,-405,-2.52472,2.11304,0.00016313,0.00800795,0.00384472,0.009578,-0.00140692,1.1831,0.00690227,0.0116686,685,1429,-2.52471,-2.11308
-532,-405,-2.51361,2.26782,0.000188979,0.00594057,0.00272802,0.00702864,-0.000899096,1.19128,0.00501241,0.0155083,692,1429,-2.5136,-2.26781
-525,-405,-2.50317,2.45996,-0.000157804,0.00386982,0.00160948,0.00443397,-0.000721952,1.23366,0.00322369,0.014901,699,1429,-2.50318,-2.45999
-518,-405,-2.48901,2.61426,-0.000561634,0.00203164,0.000630291,0.00217672,-0.000706709,1.34456,0.00173536,0.0153147,706,1429,-2.48899,-2.61425
-511,-405,-2.50421,2.7511,-0.00100557,0.000302437,-0.000445301,0.000439644,-0.00114277,-1.27191,0.000943195,0.0151997,713,1429,-2.50419,-2.7511
-504,-405,-2.51031,2.89441,-0.00219804,-0.0013609,-0.00186937,0.000136192,-0.00369513,-0.895535,0.00251005,0.0167185,720,1429,-2.51032,-2.89441
-497,-405,-2.49634,3.05591,-0.00331429,-0.00250354,-0.00370606,0.000819254,-0.00663708,-0.839872,0.00472156,0.0134415,727,1429,-2.49634,-3.05591
-490,-405,-2.50757,3.2229,-0.00431538,-0.00404048,-0.00610386,0.00192747,-0.0102833,-0.796655,0.00758018,0.0105098,734,1429,-2.5076,-3.22284
-483,-405,-2.49023,3.37292,-0.00479561,-0.00652579,-0.00999752,0.00437417,-0.0156956,-0.74224,0.0121863,0.00968892,741,1429,-2.49021,-3.37294
-476,-405,-2.44196,3.51367,-0.00309316,-0.00975787,-0.0153245,0.0092571,-0.0221081,-0.678338,0.0186085,0.023935,748,1429,-2.44193,-3.51373
-469,-405,-2.48718,3.651,-0.00100154,-0.013779,-0.0221271,0.0156407,-0.0304212,-0.644856,0.0270464,0.0383274,755,1429,-2.4872,-3.65099
-462,-405,-2.54102,4.13867,0.00234022,-0.0188811,-0.0309257,0.024425,-0.0409658,-0.620141,0.0381539,0.0458403,762,1429,-2.54099,-4.13867
-455,-405,-2.32672,4.41492,0,0,0,0,0,0,0,-1,769,1429,-2.3267,-4.41487
-448,-405,-2.82855,3.58142,0,0,0,0,0,0,0,-1,776,1429,-2.82854,-3.58136
-441,-405,-3.09326,2.71838,0,0,0,0,0,0,0,-1,783,1429,-3.09327,-2.71841
-434,-405,-1.48053,1.55676,0,0,0,0,0,0,0,-1,790,1429,-1.48053,-1.55682
-427,-405,-1.79303,0.0323486,0,0,0,0,0,0,0,-1,797,1429,-1.79303,-0.0323082
-420,-405,-2.51123,1.51331,0,0,0,0,0,0,0,-1,804,1429,-2.51123,-1.51333
-413,-405,-2.64545,2.01294,0,0,0,0,0,0,0,-1,811,1429,-2.64547,-2.01294
-406,-405,-4.23456,1.06335,0,0,0,0,0,0,0,-1,818,1429,-4.23453,-1.06332
-399,-405,0,0,0,0,0,0,0,0,0,-1,825,1429,0,0
-392,-405,0,0,0,0,0,0,0,0,0,-1,832,1429,0,0
-385,-405,0,0,0,0,0,0,0,0,0,-1,839,1429,0,0
-378,-405,0,0,0,0,0,0,0,0,0,-1,846,1429,0,0
-371,-405,0,0,0,0,0,0,0,0,0,-1,853,1429,0,0
-364,-405,0,0,0,0,0,0,0,0,0,-1,860,1429,0,0
-357,-405,0,0,0,0,0,0,0,0,0,-1,867,1429,0,0
-350,-405,0,0,0,0,0,0,0,0,0,-1,874,1429,0,0
-343,-405,0,0,0,0,0,0,0,0,0,-1,881,1429,0,0
-336,-405,0,0,0,0,0,0,0,0,0,-1,888,1429,0,0
-329,-405,0,0,0,0,0,0,0,0,0,-1,895,1429,0,0
-322,-405,0,0,0,0,0,0,0,0,0,-1,902,1429,0,0
-315,-405,0,0,0,0,0,0,0,0,0,-1,909,1429,0,0
-308,-405,0,0,0,0,0,0,0,0,0,-1,916,1429,0,0
-301,-405,0,0,0,0,0,0,0,0,0,-1,923,1429,0,0
-294,-405,0,0,0,0,0,0,0,0,0,-1,930,1429,0,0
-287,-405,0,0,0,0,0,0,0,0,0,-1,937,1429,0,0
-280,-405,0,0,0,0,0,0,0,0,0,-1,944,1429,0,0
-273,-405,0,0,0,0,0,0,0,0,0,-1,951,1429,0,0
-266,-405,0,0,0,0,0,0,0,0,0,-1,958,1429,0,0
-259,-405,0,0,0,0,0,0,0,0,0,-1,965,1429,0,0
-252,-405,0,0,0,0,0,0,0,0,0,-1,972,1429,0,0
-245,-405,0,0,0,0,0,0,0,0,0,-1,979,1429,0,0
-238,-405,0,0,0,0,0,0,0,0,0,-1,986,1429,0,0
-231,-405,0,0,0,0,0,0,0,0,0,-1,993,1429,0,0
-224,-405,0,0,0,0,0,0,0,0,0,-1,1000,1429,0,0
-217,-405,0,0,0,0,0,0,0,0,0,-1,1007,1429,0,0
-210,-405,0,0,0,0,0,0,0,0,0,-1,1014,1429,0,0
-203,-405,0,0,0,0,0,0,0,0,0,-1,1021,1429,0,0
-196,-405,0,0,0,0,0,0,0,0,0,-1,1028,1429,0,0
-189,-405,0,0,0,0,0,0,0,0,0,-1,1035,1429,0,0
-182,-405,0,0,0,0,0,0,0,0,0,-1,1042,1429,0,0
-175,-405,0,0,0,0,0,0,0,0,0,-1,1049,1429,0,0
-168,-405,0,0,0,0,0,0,0,0,0,-1,1056,1429,0,0
-161,-405,0,0,0,0,0,0,0,0,0,-1,1063,1429,0,0
-154,-405,0,0,0,0,0,0,0,0,0,-1,1070,1429,0,0
-147,-405,0,0,0,0,0,0,0,0,0,-1,1077,1429,0,0
-140,-405,0,0,0,0,0,0,0,0,0,-1,1084,1429,0,0
-133,-405,0,0,0,0,0,0,0,0,0,-1,1091,1429,0,0
-126,-405,0,0,0,0,0,0,0,0,0,-1,1098,1429,0,0
-119,-405,0,0,0,0,0,0,0,0,0,-1,1105,1429,0,0
-112,-405,0,0,0,0,0,0,0,0,0,-1,1112,1429,0,0
-105,-405,0,0,0,0,0,0,0,0,0,-1,1119,1429,0,0
-98,-405,0,0,0,0,0,0,0,0,0,-1,1126,1429,0,0
-91,-405,0,0,0,0,0,0,0,0,0,-1,1133,1429,0,0
-84,-405,0,0,0,0,0,0,0,0,0,-1,1140,1429,0,0
-77,-405,0,0,0,0,0,0,0,0,0,-1,1147,1429,0,0
-70,-405,0,0,0,0,0,0,0,0,0,-1,1154,1429,0,0
-63,-405,0,0,0,0,0,0,0,0,0,-1,1161,1429,0,0
-56,-405,0,0,0,0,0,0,0,0,0,-1,1168,1429,0,0
-49,-405,0,0,0,0,0,0,0,0,0,-1,1175,1429,0,0
-42,-405,0,0,0,0,0,0,0,0,0,-1,1182,1429,0,0
-35,-405,0,0,0,0,0,0,0,0,0,-1,1189,1429,0,0
-28,-405,0,0,0,0,0,0,0,0,0,-1,1196,1429,0,0
-21,-405,0,0,0,0,0,0,0,0,0,-1,1203,1429,0,0
-14,-405,0,0,0,0,0,0,0,0,0,-1,1210,1429,0,0
-7,-405,0,0,0,0,0,0,0,0,0,-1,1217,1429,0,0
0,-405,0,0,0,0,0,0,0,0,0,-1,1224,1429,0,0
7,-405,0,0,0,0,0,0,0,0,0,-1,1231,1429,0,0
14,-405,0,0,0,0,0,0,0,0,0,-1,1238,1429,0,0
21,-405,0,0,0,0,0,0,0,0,0,-1,1245,1429,0,0
28,-405,0,0,0,0,0,0,0,0,0,-1,1252,1429,0,0
35,-405,0,0,0,0,0,0,0,0,0,-1,1259,1429,0,0
42,-405,0,0,0,0,0,0,0,0,0,-1,1266,1429,0,0
49,-405,0,0,0,0,0,0,0,0,0,-1,1273,1429,0,0
56,-405,0,0,0,0,0,0,0,0,0,-1,1280,1429,0,0
63,-405,0,0,0,0,0,0,0,0,0,-1,1287,1429,0,0
70,-405,0,0,0,0,0,0,0,0,0,-1,1294,1429,0,0
77,-405,0,0,0,0,0,0,0,0,0,-1,1301,1429,0,0
84,-405,0,0,0,0,0,0,0,0,0,-1,1308,1429,0,0
91,-405,0,0,0,0,0,0,0,0,0,-1,1315,1429,0,0
98,-405,0,0,0,0,0,0,0,0,0,-1,1322,1429,0,0
105,-405,0,0,0,0,0,0,0,0,0,-1,1329,1429,0,0
112,-405,0,0,0,0,0,0,0,0,0,-1,1336,1429,0,0
119,-405,0,0,0,0,0,0,0,0,0,-1,1343,1429,0,0
126,-405,0,0,0,0,0,0,0,0,0,-1,1350,1429,0,0
133,-405,0,0,0,0,0,0,0,0,0,-1,1357,1429,0,0
140,-405,0,0,0,0,0,0,0,0,0,-1,1364,1429,0,0
147,-405,0,0,0,0,0,0,0,0,0,-1,1371,1429,0,0
154,-405,0,0,0,0,0,0,0,0,0,-1,1378,1429,0,0
161,-405,0,0,0,0,0,0,0,0,0,-1,1385,1429,0,0
168,-405,0,0,0,0,0,0,0,0,0,-1,1392,1429,0,0
175,-405,0,0,0,0,0,0,0,0,0,-1,1399,1429,0,0
182,-405,0,0,0,0,0,0,0,0,0,-1,1406,1429,0,0
189,-405,0,0,0,0,0,0,0,0,0,-1,1413,1429,0,0
196,-405,0,0,0,0,0,0,0,0,0,-1,1420,1429,0,0
203,-405,0,0,0,0,0,0,0,0,0,-1,1427,1429,0,0
210,-405,0,0,0,0,0,0,0,0,0,-1,1434,1429,0,0
217,-405,0,0,0,0,0,0,0,0,0,-1,1441,1429,0,0
224,-405,0,0,0,0,0,0,0,0,0,-1,1448,1429,0,0
231,-405,0,0,0,0,0,0,0,0,0,-1,1455,1429,0,0
238,-405,0,0,0,0,0,0,0,0,0,-1,1462,1429,0,0
245,-405,0,0,0,0,0,0,0,0,0,-1,1469,1429,0,0
252,-405,0,0,0,0,0,0,0,0,0,-1,1476,1429,0,0
259,-405,0,0,0,0,0,0,0,0,0,-1,1483,1429,0,0
266,-405,0,0,0,0,0,0,0,0,0,-1,1490,1429,0,0
273,-405,0,0,0,0,0,0,0,0,0,-1,1497,1429,0,0
280,-405,0,0,0,0,0,0,0,0,0,-1,1504,1429,0,0
287,-405,0,0,0,0,0,0,0,0,0,-1,1511,1429,0,0
294,-405,0,0,0,0,0,0,0,0,0,-1,1518,1429,0,0
301,-405,0,0,0,0,0,0,0,0,0,-1,1525,1429,0,0
308,-405,0,0,0,0,0,0,0,0,0,-1,1532,1429,0,0
315,-405,0,0,0,0,0,0,0,0,0,-1,1539,1429,0,0
322,-405,0,0,0,0,0,0,0,0,0,-1,1546,1429,0,0
329,-405,0,0,0,0,0,0,0,0,0,-1,1553,1429,0,0
336,-405,0,0,0,0,0,0,0,0,0,-1,1560,1429,0,0
343,-405,0,0,0,0,0,0,0,0,0,-1,1567,1429,0,0
350,-405,0,0,0,0,0,0,0,0,0,-1,1574,1429,0,0
357,-405,0,0,0,0,0,0,0,0,0,-1,1581,1429,0,0
364,-405,0,0,0,0,0,0,0,0,0,-1,1588,1429,0,0
371,-405,0,0,0,0,0,0,0,0,0,-1,1595,1429,0,0
378,-405,0,0,0,0,0,0,0,0,0,-1,1602,1429,0,0
385,-405,0,0,0,0,0,0,0,0,0,-1,1609,1429,0,0
392,-405,0,0,0,0,0,0,0,0,0,-1,1616,1429,0,0
399,-405,0,0,0,0,0,0,0,0,0,-1,1623,1429,0,0
406,-405,0,0,0,0,0,0,0,0,0,-1,1630,1429,0,0
413,-405,0,0,0,0,0,0,0,0,0,-1,1637,1429,0,0
420,-405,0,0,0,0,0,0,0,0,0,-1,1644,1429,0,0
427,-405,0,0,0,0,0,0,0,0,0,-1,1651,1429,0,0
434,-405,0,0,0,0,0,0,0,0,0,-1,1658,1429,0,0
441,-405,0,0,0,0,0,0,0,0,0,-1,1665,1429,0,0
448,-405,0,0,0,0,0,0,0,0,0,-1,1672,1429,0,0
455,-405,0,0,0,0,0,0,0,0,0,-1,1679,1429,0,0
462,-405,0,0,0,0,0,0,0,0,0,-1,1686,1429,0,0
469,-405,0,0,0,0,0,0,0,0,0,-1,1693,1429,0,0
476,-405,0,0,0,0,0,0,0,0,0,-1,1700,1429,0,0
483,-405,0,0,0,0,0,0,0,0,0,-1,1707,1429,0,0
490,-405,0,0,0,0,0,0,0,0,0,-1,1714,1429,0,0
497,-405,0,0,0,0,0,0,0,0,0,-1,1721,1429,0,0
504,-405,0,0,0,0,0,0,0,0,0,-1,1728,1429,0,0
511,-405,0,0,0,0,0,0,0,0,0,-1,1735,1429,0,0
518,-405,0,0,0,0,0,0,0,0,0,-1,1742,1429,0,0
525,-405,12.7587,0.700928,0,0,0,0,0,0,0,-1,1749,1429,12.7587,-0.700965
532,-405,13.5316,1.33911,0.0730428,0.00487513,0.075161,0.121487,-0.0435691,0.572527,0.0987712,0.0458192,1756,1429,13.5317,-1.3391
539,-405,14.3346,2.0498,0.0614574,0.00186161,0.0660504,0.10412,-0.0408013,0.573498,0.0862916,0.0436803,1763,1429,14.3345,-2.04984
546,-405,15.184,2.37415,0,0,0,0,0,0,0,-1,1770,1429,15.184,-2.3742
553,-405,16.1368,2.6908,0,0,0,0,0,0,0,-1,1777,1429,16.1369,-2.69085
560,-405,17.0276,3.0144,0,0,0,0,0,0,0,-1,1784,1429,17.0276,-3.0144
567,-405,14.7983,5.66309,0,0,0,0,0,0,0,-1,1791,1429,14.7983,-5.66303
574,-405,11.7933,3.04883,0,0,0,0,0,0,0,-1,1798,1429,11.7934,-3.04877
581,-405,14.5927,7.22681,0,0,0,0,0,0,0,-1,1805,1429,14.5926,-7.22684
588,-405,10.4624,4.05676,0,0,0,0,0,0,0,-1,1812,1429,10.4624,-4.05679
595,-405,10.0974,4.35193,-0.0414526,-0.0103214,0.0172114,-0.00268097,-0.049093,1.15301,0.0318726,0.0441059,1819,1429,10.0974,-4.35194
602,-405,9.58228,4.76379,-0.0340423,-0.00666169,0.01652,0.00110346,-0.0418074,1.1314,0.0282466,0.0354821,1826,1429,9.58226,-4.76376
609,-405,9.21326,4.91333,-0.0269412,-0.00496762,0.0146935,0.00239252,-0.0343013,1.10642,0.0237053,0.0153588,1833,1429,9.21323,-4.91327
616,-405,9.17383,4.86011,-0.0206503,-0.00406121,0.0120688,0.00228856,-0.027,1.08646,0.0188094,0.00835255,1840,1429,9.17377,-4.86005
623,-405,9.16553,4.72839,-0.0153668,-0.00313413,0.00968097,0.00220075,-0.0207017,1.06713,0.0145902,0.00865112,1847,1429,9.16549,-4.7284
630,-405,9.17407,4.56616,-0.0111047,-0.00223954,0.0075252,0.0020615,-0.0154058,1.05156,0.0110221,0.00965933,1854,1429,9.17406,-4.56612
637,-405,9.16394,4.41028,-0.00783285,-0.0014281,0.00555162,0.00177856,-0.0110395,1.047,0.00801855,0.0103441,1861,1429,9.1639,-4.41025
644,-405,9.15247,4.23889,-0.0052812,-0.000947413,0.00395789,0.00139794,-0.00762655,1.03585,0.00560872,0.0272222,1868,1429,9.15243,-4.2389
651,-405,9.14282,4.09106,-0.00337211,-0.000265468,0.00278209,0.00136756,-0.00500514,1.04001,0.00387393,0.0292412,1875,1429,9.14282,-4.09105
658,-405,9.16821,3.98535,-0.00247039,0.000148511,0.00203832,0.00126174,-0.00358362,1.07091,0.00290256,0.0211404,1882,1429,9.16822,-3.98537
665,-405,9.18518,3.86536,-0.00243871,0.000386207,0.00156201,0.00107967,-0.00313217,1.15298,0.00252612,0.0173559,1889,1429,9.18513,-3.86539
672,-405,9.19995,3.71851,-0.00278821,0.000533616,0.00178145,0.00130831,-0.00356291,1.1606,0.00291108,0.0215304,1896,1429,9.19994,-3.71852
679,-405,9.21753,3.54126,-0.00314425,0.000436518,0.00226955,0.00153687,-0.00424459,1.11936,0.0034578,0.0204102,1903,1429,9.21749,-3.54128
686,-405,9.13818,3.37646,-0.00354495,-6.18494e-05,0.00298311,0.00165086,-0.00525767,1.04961,0.0041659,0.031425,1910,1429,9.13821,-3.37647
693,-405,9.08142,3.58752,0,0,0,0,0,0,0,-1,1917,1429,9.08136,-3.58756
700,-405,7.92126,3.46375,0,0,0,0,0,0,0,-1,1924,1429,7.92128,-3.4637
707,-405,7.40308,3.83191,0,0,0,0,0,0,0,-1,1931,1429,7.40311,-3.83194
714,-405,7.33252,3.47388,0,0,0,0,0,0,0,-1,1938,1429,7.33255,-3.47383
721,-405,9.23523,0.993896,0,0,0,0,0,0,0,-1,1945,1429,9.23523,-0.993884
728,-405,0,0,0,0,0,0,0,0,0,-1,1952,1429,0,0
735,-405,0,0,0,0,0,0,0,0,0,-1,1959,1429,0,0
742,-405,0,0,0,0,0,0,0,0,0,-1,1966,1429,0,0
749,-405,0,0,0,0,0,0,0,0,0,-1,1973,1429,0,0
756,-405,0,0,0,0,0,0,0,0,0,-1,1980,1429,0,0
763,-405,0,0,0,0,0,0,0,0,0,-1,1987,1429,0,0
770,-405,0,0,0,0,0,0,0,0,0,-1,1994,1429,0,0
777,-405,0,0,0,0,0,0,0,0,0,-1,2001,1429,0,0
784,-405,0,0,0,0,0,0,0,0,0,-1,2008,1429,0,0
791,-405,0,0,0,0,0,0,0,0,0,-1,2015,1429,0,0
798,-405,0,0,0,0,0,0,0,0,0,-1,2022,1429,0,0
805,-405,0,0,0,0,0,0,0,0,0,-1,2029,1429,0,0
812,-405,0,0,0,0,0,0,0,0,0,-1,2036,1429,0,0
-700,-412,0,0,0,0,0,0,0,0,0,-1,524,1436,0,0
-693,-412,0,0,0,0,0,0,0,0,0,-1,531,1436,0,0
-686,-412,0,0,0,0,0,0,0,0,0,-1,538,1436,0,0
-679,-412,0,0,0,0,0,0,0,0,0,-1,545,1436,0,0
-672,-412,0,0,0,0,0,0,0,0,0,-1,552,1436,0,0
-665,-412,0,0,0,0,0,0,0,0,0,-1,559,1436,0,0
-658,-412,0,0,0,0,0,0,0,0,0,-1,566,1436,0,0
-651,-412,0,0,0,0,0,0,0,0,0,-1,573,1436,0,0
-644,-412,0,0,0,0,0,0,0,0,0,-1,580,1436,0,0
-637,-412,0,0,0,0,0,0,0,0,0,-1,587,1436,0,0
-630,-412,0,0,0,0,0,0,0,0,0,-1,594,1436,0,0
-623,-412,0,0,0,0,0,0,0,0,0,-1,601,1436,0,0
-616,-412,0,0,0,0,0,0,0,0,0,-1,608,1436,0,0
-609,-412,0,0,0,0,0,0,0,0,0,-1,615,1436,0,0
-602,-412,-2.61816,0.0783691,0,0,0,0,0,0,0,-1,622,1436,-2.61815,-0.0783951
-595,-412,-2.15741,0.36377,0,0,0,0,0,0,0,-1,629,1436,-2.15742,-0.3638
-588,-412,-1.92999,-1.75696,0,0,0,0,0,0,0,-1,636,1436,-1.92999,1.75693
-581,-412,-2.37183,-0.307739,0,0,0,0,0,0,0,-1,643,1436,-2.37185,0.307754
-574,-412,-3.23303,1.08374,0,0,0,0,0,0,0,-1,650,1436,-3.23301,-1.08377
-567,-412,-3.30878,1.34082,0,0,0,0,0,0,0,-1,657,1436,-3.30875,-1.34084
-560,-412,-2.08221,1.91479,0,0,0,0,0,0,0,-1,664,1436,-2.08221,-1.91481
-553,-412,-2.17554,2.01355,0.00243472,0.0166564,0.00861096,0.0207131,-0.00162191,1.13053,0.0143799,0.0420102,671,1436,-2.17553,-2.01361
-546,-412,-2.22565,2.01526,0.00203054,0.013854,0.0070465,0.0171402,-0.00125564,1.13442,0.0118675,0.02733,678,1436,-2.22562,-2.01529
-539,-412,-2.35944,2.09045,0.001738,0.011117,0.00560982,0.0137393,-0.000884227,1.13354,0.00946803,0.0139211,685,1436,-2.35946,-2.09045
-532,-412,-2.367,2.26196,0.00140136,0.00843819,0.0042149,0.0104102,-0.000570645,1.13319,0.00713795,0.0134783,692,1436,-2.36699,-2.262
-525,-412,-2.36615,2.44495,0.000834302,0.00592346,0.00291491,0.00724819,-0.000490434,1.14423,0.00500362,0.0154666,699,1436,-2.36617,-2.44493
-518,-412,-2.34149,2.62256,0.00026856,0.00375461,0.00178553,0.00450683,-0.000483663,1.17207,0.00317807,0.0167786,706,1436,-2.34151,-2.62251
-511,-412,-2.34991,2.76746,-0.00017489,0.00183386,0.000709944,0.00205944,-0.00040047,1.26314,0.00152409,0.0196002,713,1436,-2.34994,-2.76744
-504,-412,-2.34448,2.91516,-0.00120053,-4.33809e-05,-0.000604966,0.000215142,-0.00145905,-1.16695,0.00105177,0.0191579,720,1436,-2.34451,-2.91514
-497,-412,-2.32251,3.08179,-0.00193356,-0.00147064,-0.00221901,0.000528942,-0.00393315,-0.837364,0.00281503,0.0142541,727,1436,-2.3225,-3.08177
-490,-412,-2.33887,3.23401,-0.00234442,-0.00327936,-0.00427924,0.00149281,-0.00711658,-0.730993,0.00531237,0.0120151,734,1436,-2.33885,-3.23397
-483,-412,-2.34692,3.37231,-0.00199584,-0.00613526,-0.00768532,0.00389358,-0.0120247,-0.653865,0.00958174,0.00852254,741,1436,-2.34693,-3.3723
-476,-412,-2.28302,3.57776,0.000669803,-0.00990853,-0.0123537,0.008819,-0.0180577,-0.583133,0.0158199,0.015129,748,1436,-2.28305,-3.57778
-469,-412,-2.3103,3.68652,0.00396735,-0.0147026,-0.018246,0.0151277,-0.0258629,-0.548949,0.0239349,0.024701,755,1436,-2.31031,-3.68649
-462,-412,-2.35999,3.79651,0.00876523,-0.020971,-0.0259372,0.0237936,-0.0359994,-0.525145,0.0347604,0.0370181,762,1436,-2.36,-3.79646
-455,-412,-2.80365,3.94617,0.0110949,-0.0288927,-0.0331094,0.029779,-0.0475769,-0.513768,0.0450538,0.0441673,769,1436,-2.80362,-3.94617
-448,-412,-3.09668,4.06641,0,0,0,0,0,0,0,-1,776,1436,-3.09671,-4.06642
-441,-412,-1.97711,2.02832,0,0,0,0,0,0,0,-1,783,1436,-1.97714,-2.02829
-434,-412,-3.15759,0.86731,0,0,0,0,0,0,0,-1,790,1436,-3.15758,-0.867362
-427,-412,-1.56287,0.230347,0,0,0,0,0,0,0,-1,797,1436,-1.56286,-0.230348
-420,-412,0.0318604,-0.406616,0,0,0,0,0,0,0,-1,804,1436,0.0318517,0.406665
-413,-412,-4.17712,2.08008,0,0,0,0,0,0,0,-1,811,1436,-4.1771,-2.08005
-406,-412,-4.73376,1.40955,-0.0259391,-0.0731702,-0.04596,0.00211751,-0.101227,-0.548074,0.0682014,0.0482166,818,1436,-4.73377,-1.40955
-399,-412,-5.20538,0.748047,-0.0488767,-0.070786,-0.0318633,-0.0261375,-0.0935252,-0.619828,0.05572,0.0450477,825,1436,-5.20536,-0.748058
-392,-412,0,0,0,0,0,0,0,0,0,-1,832,1436,0,0
-385,-412,0,0,0,0,0,0,0,0,0,-1,839,1436,0,0
-378,-412,0,0,0,0,0,0,0,0,0,-1,846,1436,0,0
-371,-412,0,0,0,0,0,0,0,0,0,-1,853,1436,0,0
-364,-412,0,0,0,0,0,0,0,0,0,-1,860,1436,0,0
-357,-412,0,0,0,0,0,0,0,0,0,-1,867,1436,0,0
-350,-412,0,0,0,0,0,0,0,0,0,-1,874,1436,0,0
-343,-412,0,0,0,0,0,0,0,0,0,-1,881,1436,0,0
-336,-412,0,0,0,0,0,0,0,0,0,-1,888,1436,0,0
-329,-412,0,0,0,0,0,0,0,0,0,-1,895,1436,0,0
-322,-412,0,0,0,0,0,0,0,0,0,-1,902,1436,0,0
-315,-412,0,0,0,0,0,0,0,0,0,-1,909,1436,0,0
-308,-412,0,0,0,0,0,0,0,0,0,-1,916,1436,0,0
-301,-412,0,0,0,0,0,0,0,0,0,-1,923,1436,0,0
-294,-412,0,0,0,0,0,0,0,0,0,-1,930,1436,0,0
-287,-412,0,0,0,0,0,0,0,0,0,-1,937,1436,0,0
-280,-412,0,0,0,0,0,0,0,0,0,-1,944,1436,0,0
-273,-412,0,0,0,0,0,0,0,0,0,-1,951,1436,0,0
-266,-412,0,0,0,0,0,0,0,0,0,-1,958,1436,0,0
-259,-412,0,0,0,0,0,0,0,0,0,-1,965,1436,0,0
-252,-412,0,0,0,0,0,0,0,0,0,-1,972,1436,0,0
-245,-412,0,0,0,0,0,0,0,0,0,-1,979,1436,0,0
-238,-412,0,0,0,0,0,0,0,0,0,-1,986,1436,0,0
-231,-412,0,0,0,0,0,0,0,0,0,-1,993,1436,0,0
-224,-412,0,0,0,0,0,0,0,0,0,-1,1000,1436,0,0
-217,-412,0,0,0,0,0,0,0,0,0,-1,1007,1436,0,0
-210,-412,0,0,0,0,0,0,0,0,0,-1,1014,1436,0,0
-203,-412,0,0,0,0,0,0,0,0,0,-1,1021,1436,0,0
-196,-412,0,0,0,0,0,0,0,0,0,-1,1028,1436,0,0
-189,-412,0,0,0,0,0,0,0,0,0,-1,1035,1436,0,0
-182,-412,0,0,0,0,0,0,0,0,0,-1,1042,1436,0,0
-175,-412,0,0,0,0,0,0,0,0,0,-1,1049,1436,0,0
-168,-412,0,0,0,0,0,0,0,0,0,-1,1056,1436,0,0
-161,-412,0,0,0,0,0,0,0,0,0,-1,1063,1436,0,0
-154,-412,0,0,0,0,0,0,0,0,0,-1,1070,1436,0,0
-147,-412,0,0,0,0,0,0,0,0,0,-1,1077,1436,0,0
-140,-412,0,0,0,0,0,0,0,0,0,-1,1084,1436,0,0
-133,-412,0,0,0,0,0,0,0,0,0,-1,1091,1436,0,0
-126,-412,0,0,0,0,0,0,0,0,0,-1,1098,1436,0,0
-119,-412,0,0,0,0,0,0,0,0,0,-1,1105,1436,0,0
-112,-412,0,0,0,0,0,0,0,0,0,-1,1112,1436,0,0
-105,-412,0,0,0,0,0,0,0,0,0,-1,1119,1436,0,0
-98,-412,0,0,0,0,0,0,0,0,0,-1,1126,1436,0,0
-91,-412,0,0,0,0,0,0,0,0,0,-1,1133,1436,0,0
-84,-412,0,0,0,0,0,0,0,0,0,-1,1140,1436,0,0
-77,-412,0,0,0,0,0,0,0,0,0,-1,1147,1436,0,0
-70,-412,0,0,0,0,0,0,0,0,0,-1,1154,1436,0,0
-63,-412,0,0,0,0,0,0,0,0,0,-1,1161,1436,0,0
-56,-412,0,0,0,0,0,0,0,0,0,-1,1168,1436,0,0
-49,-412,0,0,0,0,0,0,0,0,0,-1,1175,1436,0,0
-42,-412,0,0,0,0,0,0,0,0,0,-1,1182,1436,0,0
-35,-412,0,0,0,0,0,0,0,0,0,-1,1189,1436,0,0
-28,-412,0,0,0,0,0,0,0,0,0,-1,1196,1436,0,0
-21,-412,0,0,0,0,0,0,0,0,0,-1,1203,1436,0,0
-14,-412,0,0,0,0,0,0,0,0,0,-1,1210,1436,0,0
-7,-412,0,0,0,0,0,0,0,0,0,-1,1217,1436,0,0
0,-412,0,0,0,0,0,0,0,0,0,-1,1224,1436,0,0
7,-412,0,0,0,0,0,0,0,0,0,-1,1231,1436,0,0
14,-412,0,0,0,0,0,0,0,0,0,-1,1238,1436,0,0
21,-412,0,0,0,0,0,0,0,0,0,-1,1245,1436,0,0
28,-412,0,0,0,0,0,0,0,0,0,-1,1252,1436,0,0
35,-412,0,0,0,0,0,0,0,0,0,-1,1259,1436,0,0
42,-412,0,0,0,0,0,0,0,0,0,-1,1266,1436,0,0
49,-412,0,0,0,0,0,0,0,0,0,-1,1273,1436,0,0
56,-412,0,0,0,0,0,0,0,0,0,-1,1280,1436,0,0
63,-412,0,0,0,0,0,0,0,0,0,-1,1287,1436,0,0
70,-412,0,0,0,0,0,0,0,0,0,-1,1294,1436,0,0
77,-412,0,0,0,0,0,0,0,0,0,-1,1301,1436,0,0
84,-412,0,0,0,0,0,0,0,0,0,-1,1308,1436,0,0
91,-412,0,0,0,0,0,0,0,0,0,-1,1315,1436,0,0
98,-412,0,0,0,0,0,0,0,0,0,-1,1322,1436,0,0
105,-412,0,0,0,0,0,0,0,0,0,-1,1329,1436,0,0
112,-412,0,0,0,0,0,0,0,0,0,-1,1336,1436,0,0
119,-412,0,0,0,0,0,0,0,0,0,-1,1343,1436,0,0
126,-412,0,0,0,0,0,0,0,0,0,-1,1350,1436,0,0
133,-412,0,0,0,0,0,0,0,0,0,-1,1357,1436,0,0
140,-412,0,0,0,0,0,0,0,0,0,-1,1364,1436,0,0
147,-412,0,0,0,0,0,0,0,0,0,-1,1371,1436,0,0
154,-412,0,0,0,0,0,0,0,0,0,-1,1378,1436,0,0
161,-412,0,0,0,0,0,0,0,0,0,-1,1385,1436,0,0
168,-412,0,0,0,0,0,0,0,0,0,-1,1392,1436,0,0
175,-412,0,0,0,0,0,0,0,0,0,-1,1399,1436,0,0
182,-412,0,0,0,0,0,0,0,0,0,-1,1406,1436,0,0
189,-412,0,0,0,0,0,0,0,0,0,-1,1413,1436,0,0
196,-412,0,0,0,0,0,0,0,0,0,-1,1420,1436,0,0
203,-412,0,0,0,0,0,0,0,0,0,-1,1427,1436,0,0
210,-412,0,0,0,0,0,0,0,0,0,-1,1434,1436,0,0
217,-412,0,0,0,0,0,0,0,0,0,-1,1441,1436,0,0
224,-412,0,0,0,0,0,0,0,0,0,-1,1448,1436,0,0
231,-412,0,0,0,0,0,0,0,0,0,-1,1455,1436,0,0
238,-412,0,0,0,0,0,0,0,0,0,-1,1462,1436,0,0
245,-412,0,0,0,0,0,0,0,0,0,-1,1469,1436,0,0
252,-412,0,0,0,0,0,0,0,0,0,-1,1476,1436,0,0
259,-412,0,0,0,0,0,0,0,0,0,-1,1483,1436,0,0
266,-412,0,0,0,0,0,0,0,0,0,-1,1490,1436,0,0
273,-412,0,0,0,0,0,0,0,0,0,-1,1497,1436,0,0
280,-412,0,0,0,0,0,0,0,0,0,-1,1504,1436,0,0
287,-412,0,0,0,0,0,0,0,0,0,-1,1511,1436,0,0
294,-412,0,0,0,0,0,0,0,0,0,-1,1518,1436,0,0
301,-412,0,0,0,0,0,0,0,0,0,-1,1525,1436,0,0
308,-412,0,0,0,0,0,0,0,0,0,-1,1532,1436,0,0
315,-412,0,0,0,0,0,0,0,0,0,-1,1539,1436,0,0
322,-412,0,0,0,0,0,0,0,0,0,-1,1546,1436,0,0
329,-412,0,0,0,0,0,0,0,0,0,-1,1553,1436,0,0
336,-412,0,0,0,0,0,0,0,0,0,-1,1560,1436,0,0
343,-412,0,0,0,0,0,0,0,0,0,-1,1567,1436,0,0
350,-412,0,0,0,0,0,0,0,0,0,-1,1574,1436,0,0
357,-412,0,0,0,0,0,0,0,0,0,-1,1581,1436,0,0
364,-412,0,0,0,0,0,0,0,0,0,-1,1588,1436,0,0
371,-412,0,0,0,0,0,0,0,0,0,-1,1595,1436,0,0
378,-412,0,0,0,0,0,0,0,0,0,-1,1602,1436,0,0
385,-412,0,0,0,0,0,0,0,0,0,-1,1609,1436,0,0
392,-412,0,0,0,0,0,0,0,0,0,-1,1616,1436,0,0
399,-412,0,0,0,0,0,0,0,0,0,-1,1623,1436,0,0
406,-412,0,0,0,0,0,0,0,0,0,-1,1630,1436,0,0
413,-412,0,0,0,0,0,0,0,0,0,-1,1637,1436,0,0
420,-412,0,0,0,0,0,0,0,0,0,-1,1644,1436,0,0
427,-412,0,0,0,0,0,0,0,0,0,-1,1651,1436,0,0
434,-412,0,0,0,0,0,0,0,0,0,-1,1658,1436,0,0
441,-412,0,0,0,0,0,0,0,0,0,-1,1665,1436,0,0
448,-412,0,0,0,0,0,0,0,0,0,-1,1672,1436,0,0
455,-412,0,0,0,0,0,0,0,0,0,-1,1679,1436,0,0
462,-412,0,0,0,0,0,0,0,0,0,-1,1686,1436,0,0
469,-412,0,0,0,0,0,0,0,0,0,-1,1693,1436,0,0
476,-412,0,0,0,0,0,0,0,0,0,-1,1700,1436,0,0
483,-412,0,0,0,0,0,0,0,0,0,-1,1707,1436,0,0
490,-412,0,0,0,0,0,0,0,0,0,-1,1714,1436,0,0
497,-412,0,0,0,0,0,0,0,0,0,-1,1721,1436,0,0
504,-412,0,0,0,0,0,0,0,0,0,-1,1728,1436,0,0
511,-412,0,0,0,0,0,0,0,0,0,-1,1735,1436,0,0
518,-412,11.3726,0.608398,0,0,0,0,0,0,0,-1,1742,1436,11.3726,-0.608403
525,-412,12.0381,0.915283,0.0639834,0.00094834,0.0792679,0.11777,-0.052838,0.596177,0.10085,0.0426833,1749,1436,12.038,-0.915288
532,-412,12.5677,1.45825,0.0625466,-0.00321558,0.0757365,0.112232,-0.0529008,0.5806,0.0973689,0.0430905,1756,1436,12.5678,-1.4583
539,-412,13.5907,1.93762,0.0562064,-0.00368369,0.0709713,0.103291,-0.0507687,0.585764,0.0906533,0.0447289,1763,1436,13.5907,-1.93767
546,-412,14.3087,2.58972,0,0,0,0,0,0,0,-1,1770,1436,14.3087,-2.58977
553,-412,15.2601,2.93982,0,0,0,0,0,0,0,-1,1777,1436,15.2601,-2.93976
560,-412,13.4691,4.30554,0,0,0,0,0,0,0,-1,1784,1436,13.4691,-4.30554
567,-412,13.1708,5.01221,0,0,0,0,0,0,0,-1,1791,1436,13.1708,-5.01225
574,-412,11.2314,3.81702,0,0,0,0,0,0,0,-1,1798,1436,11.2315,-3.81707
581,-412,10.9302,4.54285,0,0,0,0,0,0,0,-1,1805,1436,10.9302,-4.54282
588,-412,10.7041,5.53772,0,0,0,0,0,0,0,-1,1812,1436,10.7041,-5.53773
595,-412,9.60852,4.96765,-0.0390284,-0.0144283,0.0180635,-0.00487468,-0.048582,1.08431,0.0308916,0.0415863,1819,1436,9.60853,-4.96761
602,-412,9.19238,5.04993,-0.0311201,-0.00958776,0.016228,-0.000879407,-0.0398284,1.07828,0.0262641,0.0222593,1826,1436,9.19237,-5.0499
609,-412,9.04529,4.9856,-0.0241041,-0.0070551,0.013728,0.00057973,-0.0317389,1.06324,0.0213552,0.00812049,1833,1436,9.04532,-4.98561
616,-412,9.01294,4.86633,-0.0182796,-0.00552136,0.0107479,0.000597901,-0.0243989,1.05322,0.0164688,0.0068742,1840,1436,9.01294,-4.86638
623,-412,9.02686,4.71606,-0.0134234,-0.00405349,0.00814805,0.000660479,-0.0181373,1.04631,0.0123176,0.00847458,1847,1436,9.02683,-4.71605
630,-412,9.04517,4.54492,-0.00966301,-0.00271349,0.00604663,0.000785679,-0.0131622,1.04619,0.00904806,0.0105809,1854,1436,9.04521,-4.54497
637,-412,9.03247,4.40942,-0.00683031,-0.00157423,0.0042869,0.000826052,-0.0092306,1.06037,0.00644675,0.0125195,1861,1436,9.03253,-4.40937
644,-412,9.04126,4.26135,-0.00459795,-0.000809422,0.00288511,0.0007477,-0.00615508,1.07589,0.00437397,0.0138019,1868,1436,9.04126,-4.26135
651,-412,9.0531,4.07703,-0.00304092,0.000151531,0.00191089,0.00104518,-0.00393457,1.13336,0.00303209,0.0230493,1875,1436,9.05309,-4.07705
658,-412,9.04297,3.97278,-0.00248028,0.000786159,0.00137346,0.0012869,-0.00298102,1.22119,0.00252797,0.016103,1882,1436,9.04303,-3.9728
665,-412,9.05396,3.87061,-0.00281788,0.00119122,0.00115431,0.00149982,-0.00312648,1.30956,0.00272547,0.0204528,1889,1436,9.05391,-3.87058
672,-412,9.07532,3.7345,-0.00373542,0.0014599,0.00156021,0.00189244,-0.00416795,1.30036,0.00358024,0.0247598,1896,1436,9.07534,-3.73452
679,-412,9.12988,3.56018,-0.00478521,0.00141894,0.00215064,0.00209154,-0.00545781,1.26769,0.00450073,0.0317134,1903,1436,9.12986,-3.56022
686,-412,8.6991,3.55688,-0.00604026,0.0010181,0.00290841,0.0020621,-0.00708426,1.22616,0.00553965,0.0454259,1910,1436,8.69916,-3.55687
693,-412,8.04797,3.60425,0,0,0,0,0,0,0,-1,1917,1436,8.04801,-3.6043
700,-412,7.40198,3.64758,0,0,0,0,0,0,0,-1,1924,1436,7.402,-3.64753
707,-412,6.59998,1.68994,0,0,0,0,0,0,0,-1,1931,1436,6.60002,-1.68995
714,-412,4.77283,-2.39832,0,0,0,0,0,0,0,-1,1938,1436,4.77288,2.39835
721,-412,0,0,0,0,0,0,0,0,0,-1,1945,1436,0,0
728,-412,0,0,0,0,0,0,0,0,0,-1,1952,1436,0,0
735,-412,0,0,0,0,0,0,0,0,0,-1,1959,1436,0,0
742,-412,0,0,0,0,0,0,0,0,0,-1,1966,1436,0,0
749,-412,0,0,0,0,0,0,0,0,0,-1,1973,1436,0,0
756,-412,0,0,0,0,0,0,0,0,0,-1,1980,1436,0,0
763,-412,0,0,0,0,0,0,0,0,0,-1,1987,1436,0,0
770,-412,0,0,0,0,0,0,0,0,0,-1,1994,1436,0,0
777,-412,0,0,0,0,0,0,0,0,0,-1,2001,1436,0,0
784,-412,0,0,0,0,0,0,0,0,0,-1,2008,1436,0,0
791,-412,0,0,0,0,0,0,0,0,0,-1,2015,1436,0,0
798,-412,0,0,0,0,0,0,0,0,0,-1,2022,1436,0,0
805,-412,0,0,0,0,0,0,0,0,0,-1,2029,1436,0,0
812,-412,0,0,0,0,0,0,0,0,0,-1,2036,1436,0,0
-700,-419,0,0,0,0,0,0,0,0,0,-1,524,1443,0,0
-693,-419,0,0,0,0,0,0,0,0,0,-1,531,1443,0,0
-686,-419,0,0,0,0,0,0,0,0,0,-1,538,1443,0,0
-679,-419,0,0,0,0,0,0,0,0,0,-1,545,1443,0,0
-672,-419,0,0,0,0,0,0,0,0,0,-1,552,1443,0,0
-665,-419,0,0,0,0,0,0,0,0,0,-1,559,1443,0,0
-658,-419,0,0,0,0,0,0,0,0,0,-1,566,1443,0,0
-651,-419,0,0,0,0,0,0,0,0,0,-1,573,1443,0,0
-644,-419,0,0,0,0,0,0,0,0,0,-1,580,1443,0,0
-637,-419,0,0,0,0,0,0,0,0,0,-1,587,1443,0,0
-630,-419,0,0,0,0,0,0,0,0,0,-1,594,1443,0,0
-623,-419,0,0,0,0,0,0,0,0,0,-1,601,1443,0,0
-616,-419,0,0,0,0,0,0,0,0,0,-1,608,1443,0,0
-609,-419,0,0,0,0,0,0,0,0,0,-1,615,1443,0,0
-602,-419,0,0,0,0,0,0,0,0,0,-1,622,1443,0,0
-595,-419,-2.38776,0.0588379,0,0,0,0,0,0,0,-1,629,1443,-2.38774,-0.0588422
-588,-419,-1.95459,0.319092,0,0,0,0,0,0,0,-1,636,1443,-1.95458,-0.319094
-581,-419,-1.64758,0.931152,0,0,0,0,0,0,0,-1,643,1443,-1.64758,-0.931172
-574,-419,-3.88306,0.721313,0,0,0,0,0,0,0,-1,650,1443,-3.88308,-0.721316
-567,-419,-3.76215,1.37549,0,0,0,0,0,0,0,-1,657,1443,-3.76215,-1.37547
-560,-419,-1.54846,1.4834,0,0,0,0,0,0,0,-1,664,1443,-1.54849,-1.48343
-553,-419,-1.70819,1.71411,0.00589562,0.0221514,0.0114738,0.0280845,-3.74792e-05,1.09356,0.0187355,0.0442388,671,1443,-1.70819,-1.71406
-546,-419,-1.8338,1.90942,0.00478419,0.0180169,0.00934899,0.0228539,-5.2833e-05,1.09334,0.0152536,0.0389365,678,1443,-1.8338,-1.90937
-539,-419,-2.07666,2.07886,0.00387208,0.0142473,0.00745825,0.0181447,-2.52863e-05,1.08927,0.0121049,0.027966,685,1443,-2.07664,-2.07887
-532,-419,-2.19604,2.25818,0.0030523,0.0108355,0.00572787,0.0138687,1.90875e-05,1.08379,0.00923945,0.0135314,692,1443,-2.19605,-2.25823
-525,-419,-2.19885,2.45935,0.00219434,0.00778731,0.00418663,0.0100255,-4.38765e-05,1.07985,0.00669836,0.0135517,699,1443,-2.19886,-2.45933
-518,-419,-2.20215,2.61707,0.00141187,0.00527241,0.00286296,0.00679504,-0.000110759,1.08201,0.00456739,0.0172796,706,1443,-2.20215,-2.61706
-511,-419,-2.19806,2.771,0.000830032,0.00319913,0.00166994,0.00406199,-3.28254e-05,1.09388,0.002719,0.0188624,713,1443,-2.19805,-2.77097
-504,-419,-2.19281,2.93677,-0.000200687,0.00125051,0.000301541,0.00131068,-0.000260849,1.37387,0.000972466,0.0187573,720,1443,-2.19282,-2.93673
-497,-419,-2.18457,3.08838,-0.000833101,-0.00018289,-0.0013229,0.00085427,-0.00187026,-0.905886,0.00160905,0.0129014,727,1443,-2.18456,-3.08842
-490,-419,-2.18738,3.23303,-0.00102299,-0.00193811,-0.00330157,0.00185257,-0.00481368,-0.716543,0.00397331,0.0104763,734,1443,-2.18735,-3.23307
-483,-419,-2.17822,3.39307,-0.000391088,-0.00462375,-0.00650262,0.00433092,-0.00934577,-0.628075,0.00807124,0.00936984,741,1443,-2.17825,-3.39302
-476,-419,-2.17126,3.55615,0.00239984,-0.00811701,-0.0108356,0.00918552,-0.0149027,-0.559492,0.0140373,0.00989765,748,1443,-2.17125,-3.55611
-469,-419,-2.14673,3.73938,0.00579468,-0.0124708,-0.016191,0.015251,-0.0219272,-0.528609,0.0215799,0.0137422,755,1443,-2.14675,-3.73939
-462,-419,-2.10736,3.86694,0.0104952,-0.0181033,-0.0230401,0.0233127,-0.0309208,-0.507675,0.0314142,0.0229234,762,1443,-2.10734,-3.86697
-455,-419,-2.2782,3.94067,0.0133288,-0.0253897,-0.0297608,0.0294729,-0.0415338,-0.497037,0.0411924,0.0368441,769,1443,-2.27818,-3.94072
-448,-419,-2.6004,3.82947,0.0142061,-0.0331049,-0.0354556,0.0331732,-0.052072,-0.491217,0.0496179,0.0433656,776,1443,-2.60042,-3.82946
-441,-419,-1.9472,2.62402,0.0164315,-0.0419883,-0.0422721,0.0386039,-0.0641608,-0.483069,0.0599397,0.043082,783,1443,-1.94718,-2.624
-434,-419,-2.57098,1.08325,0.0168064,-0.0508093,-0.0477843,0.0415333,-0.0755361,-0.477524,0.0685338,0.0480219,790,1443,-2.57101,-1.0832
-427,-419,-1.27759,0.477539,0.0147066,-0.0586764,-0.0514198,0.0411837,-0.0851535,-0.475512,0.0743987,0.0452277,797,1443,-1.27756,-0.477519
-420,-419,0.148254,-0.222534,0,0,0,0,0,0,0,-1,804,1443,0.148278,0.222523
-413,-419,1.35791,-1.06958,0,0,0,0,0,0,0,-1,811,1443,1.35794,1.0696
-406,-419,-5.16132,1.70483,-0.0146259,-0.0746923,-0.04416,0.00874599,-0.0980642,-0.486776,0.0684779,0.0440751,818,1443,-5.16129,-1.70478
-399,-419,-5.74261,0.997314,-0.0386481,-0.0708791,-0.0300938,-0.0206264,-0.0889008,-0.539573,0.0537281,0.0420968,825,1443,-5.74262,-0.997306
-392,-419,0,0,0,0,0,0,0,0,0,-1,832,1443,0,0
-385,-419,0,0,0,0,0,0,0,0,0,-1,839,1443,0,0
-378,-419,0,0,0,0,0,0,0,0,0,-1,846,1443,0,0
-371,-419,0,0,0,0,0,0,0,0,0,-1,853,1443,0,0
-364,-419,0,0,0,0,0,0,0,0,0,-1,860,1443,0,0
-357,-419,0,0,0,0,0,0,0,0,0,-1,867,1443,0,0
-350,-419,0,0,0,0,0,0,0,0,0,-1,874,1443,0,0
-343,-419,0,0,0,0,0,0,0,0,0,-1,881,1443,0,0
-336,-419,0,0,0,0,0,0,0,0,0,-1,888,1443,0,0
-329,-419,0,0,0,0,0,0,0,0,0,-1,895,1443,0,0
-322,-419,0,0,0,0,0,0,0,0,0,-1,902,1443,0,0
-315,-419,0,0,0,0,0,0,0,0,0,-1,909,1443,0,0
-308,-419,0,0,0,0,0,0,0,0,0,-1,916,1443,0,0
-301,-419,0,0,0,0,0,0,0,0,0,-1,923,1443,0,0
-294,-419,0,0,0,0,0,0,0,0,0,-1,930,1443,0,0
-287,-419,0,0,0,0,0,0,0,0,0,-1,937,1443,0,0
-280,-419,0,0,0,0,0,0,0,0,0,-1,944,1443,0,0
-273,-419,0,0,0,0,0,0,0,0,0,-1,951,1443,0,0
-266,-419,0,0,0,0,0,0,0,0,0,-1,958,1443,0,0
-259,-419,0,0,0,0,0,0,0,0,0,-1,965,1443,0,0
-252,-419,0,0,0,0,0,0,0,0,0,-1,972,1443,0,0
-245,-419,0,0,0,0,0,0,0,0,0,-1,979,1443,0,0
-238,-419,0,0,0,0,0,0,0,0,0,-1,986,1443,0,0
-231,-419,0,0,0,0,0,0,0,0,0,-1,993,1443,0,0
-224,-419,0,0,0,0,0,0,0,0,0,-1,1000,1443,0,0
-217,-419,0,0,0,0,0,0,0,0,0,-1,1007,1443,0,0
-210,-419,0,0,0,0,0,0,0,0,0,-1,1014,1443,0,0
-203,-419,0,0,0,0,0,0,0,0,0,-1,1021,1443,0,0
-196,-419,0,0,0,0,0,0,0,0,0,-1,1028,1443,0,0
-189,-419,0,0,0,0,0,0,0,0,0,-1,1035,1443,0,0
-182,-419,0,0,0,0,0,0,0,0,0,-1,1042,1443,0,0
-175,-419,0,0,0,0,0,0,0,0,0,-1,1049,1443,0,0
-168,-419,0,0,0,0,0,0,0,0,0,-1,1056,1443,0,0
-161,-419,0,0,0,0,0,0,0,0,0,-1,1063,1443,0,0
-154,-419,0,0,0,0,0,0,0,0,0,-1,1070,1443,0,0
-147,-419,0,0,0,0,0,0,0,0,0,-1,1077,1443,0,0
-140,-419,0,0,0,0,0,0,0,0,0,-1,1084,1443,0,0
-133,-419,0,0,0,0,0,0,0,0,0,-1,1091,1443,0,0
-126,-419,0,0,0,0,0,0,0,0,0,-1,1098,1443,0,0
-119,-419,0,0,0,0,0,0,0,0,0,-1,1105,1443,0,0
-112,-419,0,0,0,0,0,0,0,0,0,-1,1112,1443,0,0
-105,-419,0,0,0,0,0,0,0,0,0,-1,1119,1443,0,0
-98,-419,0,0,0,0,0,0,0,0,0,-1,1126,1443,0,0
-91,-419,0,0,0,0,0,0,0,0,0,-1,1133,1443,0,0
-84,-419,0,0,0,0,0,0,0,0,0,-1,1140,1443,0,0
-77,-419,0,0,0,0,0,0,0,0,0,-1,1147,1443,0,0
-70,-419,0,0,0,0,0,0,0,0,0,-1,1154,1443,0,0
-63,-419,0,0,0,0,0,0,0,0,0,-1,1161,1443,0,0
-56,-419,0,0,0,0,0,0,0,0,0,-1,1168,1443,0,0
-49,-419,0,0,0,0,0,0,0,0,0,-1,1175,1443,0,0
-42,-419,0,0,0,0,0,0,0,0,0,-1,1182,1443,0,0
-35,-419,0,0,0,0,0,0,0,0,0,-1,1189,1443,0,0
-28,-419,0,0,0,0,0,0,0,0,0,-1,1196,1443,0,0
-21,-419,0,0,0,0,0,0,0,0,0,-1,1203,1443,0,0
-14,-419,0,0,0,0,0,0,0,0,0,-1,1210,1443,0,0
-7,-419,0,0,0,0,0,0,0,0,0,-1,1217,1443,0,0
0,-419,0,0,0,0,0,0,0,0,0,-1,1224,1443,0,0
7,-419,0,0,0,0,0,0,0,0,0,-1,1231,1443,0,0
14,-419,0,0,0,0,0,0,0,0,0,-1,1238,1443,0,0
21,-419,0,0,0,0,0,0,0,0,0,-1,1245,1443,0,0
28,-419,0,0,0,0,0,0,0,0,0,-1,1252,1443,0,0
35,-419,0,0,0,0,0,0,0,0,0,-1,1259,1443,0,0
42,-419,0,0,0,0,0,0,0,0,0,-1,1266,1443,0,0
49,-419,0,0,0,0,0,0,0,0,0,-1,1273,1443,0,0
56,-419,0,0,0,0,0,0,0,0,0,-1,1280,1443,0,0
63,-419,0,0,0,0,0,0,0,0,0,-1,1287,1443,0,0
70,-419,0,0,0,0,0,0,0,0,0,-1,1294,1443,0,0
77,-419,0,0,0,0,0,0,0,0,0,-1,1301,1443,0,0
84,-419,0,0,0,0,0,0,0,0,0,-1,1308,1443,0,0
91,-419,0,0,0,0,0,0,0,0,0,-1,1315,1443,0,0
98,-419,0,0,0,0,0,0,0,0,0,-1,1322,1443,0,0
105,-419,0,0,0,0,0,0,0,0,0,-1,1329,1443,0,0
112,-419,0,0,0,0,0,0,0,0,0,-1,1336,1443,0,0
119,-419,0,0,0,0,0,0,0,0,0,-1,1343,1443,0,0
126,-419,0,0,0,0,0,0,0,0,0,-1,1350,1443,0,0
133,-419,0,0,0,0,0,0,0,0,0,-1,1357,1443,0,0
140,-419,0,0,0,0,0,0,0,0,0,-1,1364,1443,0,0
147,-419,0,0,0,0,0,0,0,0,0,-1,1371,1443,0,0
154,-419,0,0,0,0,0,0,0,0,0,-1,1378,1443,0,0
161,-419,0,0,0,0,0,0,0,0,0,-1,1385,1443,0,0
168,-419,0,0,0,0,0,0,0,0,0,-1,1392,1443,0,0
175,-419,0,0,0,0,0,0,0,0,0,-1,1399,1443,0,0
182,-419,0,0,0,0,0,0,0,0,0,-1,1406,1443,0,0
189,-419,0,0,0,0,0,0,0,0,0,-1,1413,1443,0,0
196,-419,0,0,0,0,0,0,0,0,0,-1,1420,1443,0,0
203,-419,0,0,0,0,0,0,0,0,0,-1,1427,1443,0,0
210,-419,0,0,0,0,0,0,0,0,0,-1,1434,1443,0,0
217,-419,0,0,0,0,0,0,0,0,0,-1,1441,1443,0,0
224,-419,0,0,0,0,0,0,0,0,0,-1,1448,1443,0,0
231,-419,0,0,0,0,0,0,0,0,0,-1,1455,1443,0,0
238,-419,0,0,0,0,0,0,0,0,0,-1,1462,1443,0,0
245,-419,0,0,0,0,0,0,0,0,0,-1,1469,1443,0,0
252,-419,0,0,0,0,0,0,0,0,0,-1,1476,1443,0,0
259,-419,0,0,0,0,0,0,0,0,0,-1,1483,1443,0,0
266,-419,0,0,0,0,0,0,0,0,0,-1,1490,1443,0,0
273,-419,0,0,0,0,0,0,0,0,0,-1,1497,1443,0,0
280,-419,0,0,0,0,0,0,0,0,0,-1,1504,1443,0,0
287,-419,0,0,0,0,0,0,0,0,0,-1,1511,1443,0,0
294,-419,0,0,0,0,0,0,0,0,0,-1,1518,1443,0,0
301,-419,0,0,0,0,0,0,0,0,0,-1,1525,1443,0,0
308,-419,0,0,0,0,0,0,0,0,0,-1,1532,1443,0,0
315,-419,0,0,0,0,0,0,0,0,0,-1,1539,1443,0,0
322,-419,0,0,0,0,0,0,0,0,0,-1,1546,1443,0,0
329,-419,0,0,0,0,0,0,0,0,0,-1,1553,1443,0,0
336,-419,0,0,0,0,0,0,0,0,0,-1,1560,1443,0,0
343,-419,0,0,0,0,0,0,0,0,0,-1,1567,1443,0,0
350,-419,0,0,0,0,0,0,0,0,0,-1,1574,1443,0,0
357,-419,0,0,0,0,0,0,0,0,0,-1,1581,1443,0,0
364,-419,0,0,0,0,0,0,0,0,0,-1,1588,1443,0,0
371,-419,0,0,0,0,0,0,0,0,0,-1,1595,1443,0,0
378,-419,0,0,0,0,0,0,0,0,0,-1,1602,1443,0,0
385,-419,0,0,0,0,0,0,0,0,0,-1,1609,1443,0,0
392,-419,0,0,0,0,0,0,0,0,0,-1,1616,1443,0,0
399,-419,0,0,0,0,0,0,0,0,0,-1,1623,1443,0,0
406,-419,0,0,0,0,0,0,0,0,0,-1,1630,1443,0,0
413,-419,0,0,0,0,0,0,0,0,0,-1,1637,1443,0,0
420,-419,0,0,0,0,0,0,0,0,0,-1,1644,1443,0,0
427,-419,0,0,0,0,0,0,0,0,0,-1,1651,1443,0,0
434,-419,0,0,0,0,0,0,0,0,0,-1,1658,1443,0,0
441,-419,0,0,0,0,0,0,0,0,0,-1,1665,1443,0,0
448,-419,0,0,0,0,0,0,0,0,0,-1,1672,1443,0,0
455,-419,0,0,0,0,0,0,0,0,0,-1,1679,1443,0,0
462,-419,0,0,0,0,0,0,0,0,0,-1,1686,1443,0,0
469,-419,0,0,0,0,0,0,0,0,0,-1,1693,1443,0,0
476,-419,0,0,0,0,0,0,0,0,0,-1,1700,1443,0,0
483,-419,0,0,0,0,0,0,0,0,0,-1,1707,1443,0,0
490,-419,0,0,0,0,0,0,0,0,0,-1,1714,1443,0,0
497,-419,0,0,0,0,0,0,0,0,0,-1,1721,1443,0,0
504,-419,0,0,0,0,0,0,0,0,0,-1,1728,1443,0,0
511,-419,12.6509,-0.385132,0,0,0,0,0,0,0,-1,1735,1443,12.6508,0.385172
518,-419,10.6952,0.75354,0,0,0,0,0,0,0,-1,1742,1443,10.6952,-0.753596
525,-419,11.1481,1.05884,0.0418902,-0.0107598,0.0684256,0.0888801,-0.0577497,0.601764,0.0852903,0.0467937,1749,1443,11.1481,-1.05878
532,-419,11.7695,1.42798,0.0439016,-0.0124067,0.0687691,0.0900565,-0.0585616,0.591106,0.0864446,0.0470812,1756,1443,11.7695,-1.42798
539,-419,12.6608,1.98975,0,0,0,0,0,0,0,-1,1763,1443,12.6608,-1.98979
546,-419,8.7373,2.51929,0,0,0,0,0,0,0,-1,1770,1443,8.73733,-2.51927
553,-419,14.1544,2.91223,0,0,0,0,0,0,0,-1,1777,1443,14.1545,-2.91224
560,-419,12.7379,4.45239,0,0,0,0,0,0,0,-1,1784,1443,12.7379,-4.45234
567,-419,12.2025,5.31335,0,0,0,0,0,0,0,-1,1791,1443,12.2025,-5.31338
574,-419,10.6627,4.56982,0,0,0,0,0,0,0,-1,1798,1443,10.6627,-4.56977
581,-419,10.3461,5.91211,0,0,0,0,0,0,0,-1,1805,1443,10.346,-5.91215
588,-419,9.82019,5.48621,-0.0336801,-0.0199922,0.0224432,-0.00337259,-0.0502997,0.933392,0.0324674,0.0467199,1812,1443,9.82021,-5.48615
595,-419,9.14636,5.23743,-0.0338802,-0.0166393,0.0178401,-0.00544612,-0.0450735,1.01046,0.0284081,0.0329703,1819,1443,9.14634,-5.23739
602,-419,8.93176,5.12,-0.0262566,-0.0110028,0.0153098,-0.00152539,-0.035734,1.01649,0.0233309,0.0143072,1826,1443,8.9318,-5.11996
609,-419,8.89063,4.98547,-0.0198887,-0.00789617,0.0125067,-2.2606e-05,-0.0277622,1.00893,0.0185006,0.00985064,1833,1443,8.89059,-4.98547
616,-419,8.87976,4.86658,-0.0148786,-0.00597657,0.00942404,-5.30016e-06,-0.0208499,1.00602,0.0138982,0.0107076,1840,1443,8.87977,-4.86662
623,-419,8.89063,4.71045,-0.0107031,-0.00420904,0.00676042,4.37037e-05,-0.0149558,1.00928,0.00998514,0.00914706,1847,1443,8.89063,-4.7105
630,-419,8.91321,4.54944,-0.00759635,-0.00263893,0.00471869,0.000212461,-0.0104477,1.02724,0.00703705,0.011313,1854,1443,8.91323,-4.54943
637,-419,8.89832,4.4209,-0.0052902,-0.00137257,0.00307407,0.00031373,-0.0069765,1.06906,0.00475903,0.0124855,1861,1443,8.89834,-4.42092
644,-419,8.89172,4.29114,-0.00345724,-0.000482905,0.00175238,0.000328296,-0.00426844,1.13725,0.00296113,0.0109701,1868,1443,8.89176,-4.29116
651,-419,8.89514,4.15161,-0.00228798,0.00059691,0.000850528,0.000828993,-0.00252006,1.30441,0.00201407,0.0109622,1875,1443,8.89509,-4.15161
658,-419,8.88696,4.02515,-0.00205877,0.00136753,0.000359155,0.00140477,-0.00209601,1.46747,0.00203427,0.0130244,1882,1443,8.887,-4.0251
665,-419,8.91516,3.91028,-0.00267647,0.00191709,0.000238845,0.00192948,-0.00268886,1.51899,0.00267838,0.0187153,1889,1443,8.91513,-3.91027
672,-419,8.94482,3.73291,-0.00405085,0.00223642,0.000614908,0.002296,-0.00411042,1.47421,0.00374787,0.0229874,1896,1443,8.94486,-3.73287
679,-419,8.99341,3.72449,-0.00601451,0.00236083,0.0011549,0.00251717,-0.00617084,1.43625,0.00516176,0.0381609,1903,1443,8.99335,-3.72453
686,-419,9.04968,3.84949,0,0,0,0,0,0,0,-1,1910,1443,9.04963,-3.84943
693,-419,7.70715,3.61829,0,0,0,0,0,0,0,-1,1917,1443,7.70713,-3.6183
700,-419,7.0708,0.878418,0,0,0,0,0,0,0,-1,1924,1443,7.07081,-0.878367
707,-419,6.43237,-0.0690918,0,0,0,0,0,0,0,-1,1931,1443,6.4324,0.0691481
714,-419,5.77576,-1.25061,0,0,0,0,0,0,0,-1,1938,1443,5.7757,1.25056
721,-419,0,0,0,0,0,0,0,0,0,-1,1945,1443,0,0
728,-419,0,0,0,0,0,0,0,0,0,-1,1952,1443,0,0
735,-419,0,0,0,0,0,0,0,0,0,-1,1959,1443,0,0
742,-419,0,0,0,0,0,0,0,0,0,-1,1966,1443,0,0
749,-419,0,0,0,0,0,0,0,0,0,-1,1973,1443,0,0
756,-419,0,0,0,0,0,0,0,0,0,-1,1980,1443,0,0
763,-419,0,0,0,0,0,0,0,0,0,-1,1987,1443,0,0
770,-419,0,0,0,0,0,0,0,0,0,-1,1994,1443,0,0
777,-419,0,0,0,0,0,0,0,0,0,-1,2001,1443,0,0
784,-419,0,0,0,0,0,0,0,0,0,-1,2008,1443,0,0
791,-419,0,0,0,0,0,0,0,0,0,-1,2015,1443,0,0
798,-419,0,0,0,0,0,0,0,0,0,-1,2022,1443,0,0
805,-419,0,0,0,0,0,0,0,0,0,-1,2029,1443,0,0
812,-419,0,0,0,0,0,0,0,0,0,-1,2036,1443,0,0
-700,-426,0,0,0,0,0,0,0,0,0,-1,524,1450,0,0
-693,-426,0,0,0,0,0,0,0,0,0,-1,531,1450,0,0
-686,-426,0,0,0,0,0,0,0,0,0,-1,538,1450,0,0
-679,-426,0,0,0,0,0,0,0,0,0,-1,545,1450,0,0
-672,-426,0,0,0,0,0,0,0,0,0,-1,552,1450,0,0
-665,-426,0,0,0,0,0,0,0,0,0,-1,559,1450,0,0
-658,-426,0,0,0,0,0,0,0,0,0,-1,566,1450,0,0
-651,-426,0,0,0,0,0,0,0,0,0,-1,573,1450,0,0
-644,-426,0,0,0,0,0,0,0,0,0,-1,580,1450,0,0
-637,-426,0,0,0,0,0,0,0,0,0,-1,587,1450,0,0
-630,-426,0,0,0,0,0,0,0,0,0,-1,594,1450,0,0
-623,-426,0,0,0,0,0,0,0,0,0,-1,601,1450,0,0
-616,-426,0,0,0,0,0,0,0,0,0,-1,608,1450,0,0
-609,-426,0,0,0,0,0,0,0,0,0,-1,615,1450,0,0
-602,-426,0,0,0,0,0,0,0,0,0,-1,622,1450,0,0
-595,-426,0,0,0,0,0,0,0,0,0,-1,629,1450,0,0
-588,-426,-2.0177,0.214233,0,0,0,0,0,0,0,-1,636,1450,-2.01768,-0.214254
-581,-426,-3.50061,2.95642,0,0,0,0,0,0,0,-1,643,1450,-3.50059,-2.95639
-574,-426,-3.30939,0.535156,0,0,0,0,0,0,0,-1,650,1450,-3.30939,-0.535128
-567,-426,-4.19232,1.27112,0,0,0,0,0,0,0,-1,657,1450,-4.1923,-1.27108
-560,-426,-1.84064,0.874756,0,0,0,0,0,0,0,-1,664,1450,-1.84062,-0.874725
-553,-426,-1.80481,1.08447,0.00949331,0.0281168,0.0148355,0.0363208,0.0012893,1.06566,0.0237958,0.046934,671,1450,-1.80481,-1.08446
-546,-426,-1.74652,1.63281,0.00754774,0.0223584,0.011901,0.02897,0.000936165,1.06371,0.019009,0.0464955,678,1450,-1.74651,-1.63282
-539,-426,-1.80811,1.99622,0.00590306,0.0173542,0.0093795,0.0226176,0.000639667,1.05943,0.0148697,0.0388875,685,1450,-1.8081,-1.99624
-532,-426,-1.96179,2.24377,0.00450975,0.0130663,0.00721509,0.0171762,0.000399872,1.05301,0.0113199,0.0229106,692,1450,-1.96178,-2.24383
-525,-426,-2.03345,2.45129,0.00328957,0.00940907,0.00536039,0.0125215,0.000177134,1.04474,0.00828926,0.0130572,699,1450,-2.03345,-2.45127
-518,-426,-2.03796,2.61926,0.00225945,0.00649513,0.00382559,0.00874997,4.60027e-06,1.0382,0.00583178,0.0157772,706,1450,-2.03797,-2.61931
-511,-426,-2.03491,2.77319,0.00151798,0.00423751,0.00252433,0.00574501,1.04834e-05,1.03245,0.00382652,0.0148411,713,1450,-2.03489,-2.77321
-504,-426,-2.04376,2.92517,0.000468104,0.0021941,0.00112692,0.00275051,-8.83036e-05,1.11217,0.0018638,0.0145007,720,1450,-2.04377,-2.92518
-497,-426,-2.03528,3.08069,-0.00011597,0.00072919,-0.00046816,0.000937282,-0.000324062,-1.15253,0.000756381,0.0116033,727,1450,-2.03527,-3.08074
-490,-426,-2.03082,3.25342,-0.000176645,-0.000981465,-0.00231665,0.00177229,-0.0029304,-0.699405,0.0027424,0.0112697,734,1450,-2.03079,-3.25345
-483,-426,-2.00848,3.41064,0.000594948,-0.00350229,-0.00523763,0.00417035,-0.00707769,-0.598978,0.00656597,0.0108561,741,1450,-2.00846,-3.41061
-476,-426,-2.00977,3.56152,0.00332438,-0.00672268,-0.00916588,0.00875308,-0.0121514,-0.534718,0.0121222,0.00898515,748,1450,-2.00976,-3.56151
-469,-426,-2.02985,3.71851,0.00662371,-0.01065,-0.013911,0.0143609,-0.0183873,-0.507588,0.0189548,0.00719574,755,1450,-2.02985,-3.71849
-462,-426,-1.94318,3.89319,0.011015,-0.0156776,-0.0198625,0.0215986,-0.0262612,-0.489577,0.0276756,0.0138651,762,1450,-1.94318,-3.89317
-455,-426,-1.95844,3.9447,0.0141188,-0.0222817,-0.0259629,0.0276253,-0.0357882,-0.479696,0.0367128,0.0276452,769,1450,-1.95844,-3.94469
-448,-426,-1.92975,3.51294,0.0159423,-0.029685,-0.0316015,0.0321045,-0.0458472,-0.472756,0.0452379,0.0399086,776,1450,-1.92973,-3.51295
-441,-426,-1.70056,3.11902,0.0190014,-0.0382793,-0.0382478,0.0381435,-0.0574214,-0.464028,0.0555474,0.0412509,783,1450,-1.70055,-3.11899
-434,-426,-1.45074,2.67639,0.0206022,-0.0471484,-0.0439698,0.0422326,-0.0687788,-0.457177,0.0647004,0.0478355,790,1450,-1.45076,-2.67638
-427,-426,-1.06689,0.884155,0.0199019,-0.0555431,-0.047947,0.0431868,-0.078828,-0.452092,0.07144,0.0438335,797,1450,-1.06689,-0.884167
-420,-426,0.0741577,0.408936,0,0,0,0,0,0,0,-1,804,1450,0.0741582,-0.408878
-413,-426,-5.06677,3.03699,0,0,0,0,0,0,0,-1,811,1450,-5.0668,-3.03693
-406,-426,-5.63165,2.34802,-0.00630177,-0.0700416,-0.0403682,0.0132606,-0.089604,-0.451251,0.0646114,0.0498054,818,1450,-5.63168,-2.34797
-399,-426,-6.14514,1.53101,-0.0292568,-0.0657564,-0.0272738,-0.0146902,-0.080323,-0.490544,0.0493857,0.0467293,825,1450,-6.14514,-1.53097
-392,-426,-6.60645,0.629883,0,0,0,0,0,0,0,-1,832,1450,-6.60644,-0.629899
-385,-426,0,0,0,0,0,0,0,0,0,-1,839,1450,0,0
-378,-426,0,0,0,0,0,0,0,0,0,-1,846,1450,0,0
-371,-426,0,0,0,0,0,0,0,0,0,-1,853,1450,0,0
-364,-426,0,0,0,0,0,0,0,0,0,-1,860,1450,0,0
-357,-426,0,0,0,0,0,0,0,0,0,-1,867,1450,0,0
-350,-426,0,0,0,0,0,0,0,0,0,-1,874,1450,0,0
-343,-426,0,0,0,0,0,0,0,0,0,-1,881,1450,0,0
-336,-426,0,0,0,0,0,0,0,0,0,-1,888,1450,0,0
-329,-426,0,0,0,0,0,0,0,0,0,-1,895,1450,0,0
-322,-426,0,0,0,0,0,0,0,0,0,-1,902,1450,0,0
-315,-426,0,0,0,0,0,0,0,0,0,-1,909,1450,0,0
-308,-426,0,0,0,0,0,0,0,0,0,-1,916,1450,0,0
-301,-426,0,0,0,0,0,0,0,0,0,-1,923,1450,0,0
-294,-426,0,0,0,0,0,0,0,0,0,-1,930,1450,0,0
-287,-426,0,0,0,0,0,0,0,0,0,-1,937,1450,0,0
-280,-426,0,0,0,0,0,0,0,0,0,-1,944,1450,0,0
-273,-426,0,0,0,0,0,0,0,0,0,-1,951,1450,0,0
-266,-426,0,0,0,0,0,0,0,0,0,-1,958,1450,0,0
-259,-426,0,0,0,0,0,0,0,0,0,-1,965,1450,0,0
-252,-426,0,0,0,0,0,0,0,0,0,-1,972,1450,0,0
-245,-426,0,0,0,0,0,0,0,0,0,-1,979,1450,0,0
-238,-426,0,0,0,0,0,0,0,0,0,-1,986,1450,0,0
-231,-426,0,0,0,0,0,0,0,0,0,-1,993,1450,0,0
-224,-426,0,0,0,0,0,0,0,0,0,-1,1000,1450,0,0
-217,-426,0,0,0,0,0,0,0,0,0,-1,1007,1450,0,0
-210,-426,0,0,0,0,0,0,0,0,0,-1,1014,1450,0,0
-203,-426,0,0,0,0,0,0,0,0,0,-1,1021,1450,0,0
-196,-426,0,0,0,0,0,0,0,0,0,-1,1028,1450,0,0
-189,-426,0,0,0,0,0,0,0,0,0,-1,1035,1450,0,0
-182,-426,0,0,0,0,0,0,0,0,0,-1,1042,1450,0,0
-175,-426,0,0,0,0,0,0,0,0,0,-1,1049,1450,0,0
-168,-426,0,0,0,0,0,0,0,0,0,-1,1056,1450,0,0
-161,-426,0,0,0,0,0,0,0,0,0,-1,1063,1450,0,0
-154,-426,0,0,0,0,0,0,0,0,0,-1,1070,1450,0,0
-147,-426,0,0,0,0,0,0,0,0,0,-1,1077,1450,0,0
-140,-426,0,0,0,0,0,0,0,0,0,-1,1084,1450,0,0
-133,-426,0,0,0,0,0,0,0,0,0,-1,1091,1450,0,0
-126,-426,0,0,0,0,0,0,0,0,0,-1,1098,1450,0,0
-119,-426,0,0,0,0,0,0,0,0,0,-1,1105,1450,0,0
-112,-426,0,0,0,0,0,0,0,0,0,-1,1112,1450,0,0
-105,-426,0,0,0,0,0,0,0,0,0,-1,1119,1450,0,0
-98,-426,0,0,0,0,0,0,0,0,0,-1,1126,1450,0,0
-91,-426,0,0,0,0,0,0,0,0,0,-1,1133,1450,0,0
-84,-426,0,0,0,0,0,0,0,0,0,-1,1140,1450,0,0
-77,-426,0,0,0,0,0,0,0,0,0,-1,1147,1450,0,0
-70,-426,0,0,0,0,0,0,0,0,0,-1,1154,1450,0,0
-63,-426,0,0,0,0,0,0,0,0,0,-1,1161,1450,0,0
-56,-426,0,0,0,0,0,0,0,0,0,-1,1168,1450,0,0
-49,-426,0,0,0,0,0,0,0,0,0,-1,1175,1450,0,0
-42,-426,0,0,0,0,0,0,0,0,0,-1,1182,1450,0,0
-35,-426,0,0,0,0,0,0,0,0,0,-1,1189,1450,0,0
-28,-426,0,0,0,0,0,0,0,0,0,-1,1196,1450,0,0
-21,-426,0,0,0,0,0,0,0,0,0,-1,1203,1450,0,0
-14,-426,0,0,0,0,0,0,0,0,0,-1,1210,1450,0,0
-7,-426,0,0,0,0,0,0,0,0,0,-1,1217,1450,0,0
0,-426,0,0,0,0,0,0,0,0,0,-1,1224,1450,0,0
7,-426,0,0,0,0,0,0,0,0,0,-1,1231,1450,0,0
14,-426,0,0,0,0,0,0,0,0,0,-1,1238,1450,0,0
21,-426,0,0,0,0,0,0,0,0,0,-1,1245,1450,0,0
28,-426,0,0,0,0,0,0,0,0,0,-1,1252,1450,0,0
35,-426,0,0,0,0,0,0,0,0,0,-1,1259,1450,0,0
42,-426,0,0,0,0,0,0,0,0,0,-1,1266,1450,0,0
49,-426,0,0,0,0,0,0,0,0,0,-1,1273,1450,0,0
56,-426,0,0,0,0,0,0,0,0,0,-1,1280,1450,0,0
63,-426,0,0,0,0,0,0,0,0,0,-1,1287,1450,0,0
70,-426,0,0,0,0,0,0,0,0,0,-1,1294,1450,0,0
77,-426,0,0,0,0,0,0,0,0,0,-1,1301,1450,0,0
84,-426,0,0,0,0,0,0,0,0,0,-1,1308,1450,0,0
91,-426,0,0,0,0,0,0,0,0,0,-1,1315,1450,0,0
98,-426,0,0,0,0,0,0,0,0,0,-1,1322,1450,0,0
105,-426,0,0,0,0,0,0,0,0,0,-1,1329,1450,0,0
112,-426,0,0,0,0,0,0,0,0,0,-1,1336,1450,0,0
119,-426,0,0,0,0,0,0,0,0,0,-1,1343,1450,0,0
126,-426,0,0,0,0,0,0,0,0,0,-1,1350,1450,0,0
133,-426,0,0,0,0,0,0,0,0,0,-1,1357,1450,0,0
140,-426,0,0,0,0,0,0,0,0,0,-1,1364,1450,0,0
147,-426,0,0,0,0,0,0,0,0,0,-1,1371,1450,0,0
154,-426,0,0,0,0,0,0,0,0,0,-1,1378,1450,0,0
161,-426,0,0,0,0,0,0,0,0,0,-1,1385,1450,0,0
168,-426,0,0,0,0,0,0,0,0,0,-1,1392,1450,0,0
175,-426,0,0,0,0,0,0,0,0,0,-1,1399,1450,0,0
182,-426,0,0,0,0,0,0,0,0,0,-1,1406,1450,0,0
189,-426,0,0,0,0,0,0,0,0,0,-1,1413,1450,0,0
196,-426,0,0,0,0,0,0,0,0,0,-1,1420,1450,0,0
203,-426,0,0,0,0,0,0,0,0,0,-1,1427,1450,0,0
210,-426,0,0,0,0,0,0,0,0,0,-1,1434,1450,0,0
217,-426,0,0,0,0,0,0,0,0,0,-1,1441,1450,0,0
224,-426,0,0,0,0,0,0,0,0,0,-1,1448,1450,0,0
231,-426,0,0,0,0,0,0,0,0,0,-1,1455,1450,0,0
238,-426,0,0,0,0,0,0,0,0,0,-1,1462,1450,0,0
245,-426,0,0,0,0,0,0,0,0,0,-1,1469,1450,0,0
252,-426,0,0,0,0,0,0,0,0,0,-1,1476,1450,0,0
259,-426,0,0,0,0,0,0,0,0,0,-1,1483,1450,0,0
266,-426,0,0,0,0,0,0,0,0,0,-1,1490,1450,0,0
273,-426,0,0,0,0,0,0,0,0,0,-1,1497,1450,0,0
280,-426,0,0,0,0,0,0,0,0,0,-1,1504,1450,0,0
287,-426,0,0,0,0,0,0,0,0,0,-1,1511,1450,0,0
294,-426,0,0,0,0,0,0,0,0,0,-1,1518,1450,0,0
301,-426,0,0,0,0,0,0,0,0,0,-1,1525,1450,0,0
308,-426,0,0,0,0,0,0,0,0,0,-1,1532,1450,0,0
315,-426,0,0,0,0,0,0,0,0,0,-1,1539,1450,0,0
322,-426,0,0,0,0,0,0,0,0,0,-1,1546,1450,0,0
329,-426,0,0,0,0,0,0,0,0,0,-1,1553,1450,0,0
336,-426,0,0,0,0,0,0,0,0,0,-1,1560,1450,0,0
343,-426,0,0,0,0,0,0,0,0,0,-1,1567,1450,0,0
350,-426,0,0,0,0,0,0,0,0,0,-1,1574,1450,0,0
357,-426,0,0,0,0,0,0,0,0,0,-1,1581,1450,0,0
364,-426,0,0,0,0,0,0,0,0,0,-1,1588,1450,0,0
371,-426,0,0,0,0,0,0,0,0,0,-1,1595,1450,0,0
378,-426,0,0,0,0,0,0,0,0,0,-1,1602,1450,0,0
385,-426,0,0,0,0,0,0,0,0,0,-1,1609,1450,0,0
392,-426,0,0,0,0,0,0,0,0,0,-1,1616,1450,0,0
399,-426,0,0,0,0,0,0,0,0,0,-1,1623,1450,0,0
406,-426,0,0,0,0,0,0,0,0,0,-1,1630,1450,0,0
413,-426,0,0,0,0,0,0,0,0,0,-1,1637,1450,0,0
420,-426,0,0,0,0,0,0,0,0,0,-1,1644,1450,0,0
427,-426,0,0,0,0,0,0,0,0,0,-1,1651,1450,0,0
434,-426,0,0,0,0,0,0,0,0,0,-1,1658,1450,0,0
441,-426,0,0,0,0,0,0,0,0,0,-1,1665,1450,0,0
448,-426,0,0,0,0,0,0,0,0,0,-1,1672,1450,0,0
455,-426,0,0,0,0,0,0,0,0,0,-1,1679,1450,0,0
462,-426,0,0,0,0,0,0,0,0,0,-1,1686,1450,0,0
469,-426,0,0,0,0,0,0,0,0,0,-1,1693,1450,0,0
476,-426,0,0,0,0,0,0,0,0,0,-1,1700,1450,0,0
483,-426,0,0,0,0,0,0,0,0,0,-1,1707,1450,0,0
490,-426,0,0,0,0,0,0,0,0,0,-1,1714,1450,0,0
497,-426,0,0,0,0,0,0,0,0,0,-1,1721,1450,0,0
504,-426,11.3325,-0.0932617,0,0,0,0,0,0,0,-1,1728,1450,11.3325,0.0932552
511,-426,11.0135,0.0611572,0.0061007,-0.020496,0.0490261,0.0436,-0.0579953,0.65296,0.058852,0.0456137,1735,1450,11.0136,-0.0611674
518,-426,10.746,0.292603,0.0165573,-0.0204193,0.0522264,0.0534713,-0.0573333,0.61528,0.063986,0.0484085,1742,1450,10.746,-0.29259
525,-426,10.6035,0.81311,0.0218107,-0.0203256,0.0542311,0.0589224,-0.0574372,0.600127,0.067182,0.0485161,1749,1450,10.6036,-0.813083
532,-426,10.9277,1.47229,0,0,0,0,0,0,0,-1,1756,1450,10.9277,-1.47229
539,-426,9.31567,3.62378,0,0,0,0,0,0,0,-1,1763,1450,9.3157,-3.62377
546,-426,9.15637,3.43542,0,0,0,0,0,0,0,-1,1770,1450,9.15638,-3.43547
553,-426,8.99707,3.24719,0,0,0,0,0,0,0,-1,1777,1450,8.99707,-3.24717
560,-426,8.65479,5.46631,0,0,0,0,0,0,0,-1,1784,1450,8.65479,-5.46625
567,-426,8.64246,5.17102,0,0,0,0,0,0,0,-1,1791,1450,8.6425,-5.17103
574,-426,8.96362,4.10254,0,0,0,0,0,0,0,-1,1798,1450,8.96359,-4.10256
581,-426,9.10437,4.73328,0,0,0,0,0,0,0,-1,1805,1450,9.10433,-4.73333
588,-426,8.92212,5.27417,-0.0264215,-0.0197743,0.0194715,-0.00334477,-0.042851,0.869929,0.0275202,0.0406812,1812,1450,8.92212,-5.27423
595,-426,8.76282,5.29565,-0.0256975,-0.0158054,0.015373,-0.00460239,-0.0369005,0.941038,0.0232188,0.0249866,1819,1450,8.76278,-5.29569
602,-426,8.77515,5.11426,-0.0196264,-0.010314,0.0130243,-0.00113863,-0.0288018,0.957069,0.0188331,0.0150013,1826,1450,8.7752,-5.11427
609,-426,8.7572,4.9613,-0.0146096,-0.00720582,0.0105022,0.000227879,-0.0220433,0.954841,0.014772,0.0110269,1833,1450,8.75718,-4.96127
616,-426,8.7583,4.84692,-0.0108161,-0.00529977,0.00774197,0.000160671,-0.0162766,0.95652,0.010905,0.0130521,1840,1450,8.75835,-4.84697
623,-426,8.76392,4.70007,-0.00762196,-0.00356687,0.0053432,0.000120546,-0.0113094,0.966737,0.00758008,0.011161,1847,1450,8.76396,-4.70012
630,-426,8.76758,4.5603,-0.00533412,-0.00200329,0.00350753,0.000214127,-0.00755154,1.00704,0.00510723,0.01192,1854,1450,8.76759,-4.5603
637,-426,8.77246,4.4198,-0.00366517,-0.000769309,0.00201114,0.000260903,-0.00469538,1.09739,0.00322074,0.011857,1861,1450,8.7725,-4.41982
644,-426,8.74841,4.29578,-0.0023564,0.000142393,0.000798077,0.000375534,-0.00258954,1.28658,0.00186419,0.0107968,1868,1450,8.74846,-4.29574
651,-426,8.73047,4.17419,-0.0016815,0.00125551,-3.61297e-05,0.00125595,-0.00168194,-1.5585,0.00170213,0.0114672,1875,1450,8.73047,-4.17421
658,-426,8.75098,4.01672,-0.00183144,0.00213468,-0.00050897,0.00219895,-0.00189571,-1.44518,0.00236622,0.0118532,1882,1450,8.751,-4.01677
665,-426,8.78418,3.83691,-0.00278662,0.00290463,-0.000576809,0.0029625,-0.00284449,-1.4708,0.0033529,0.0166877,1889,1450,8.78413,-3.83696
672,-426,8.79907,3.66333,-0.00448032,0.00358014,-0.000248864,0.00358781,-0.004488,-1.53996,0.00467222,0.0281101,1896,1450,8.79906,-3.66333
679,-426,8.71216,3.86462,-0.00690505,0.00422962,0.000213632,0.00423372,-0.00690915,1.55162,0.00649485,0.0407249,1903,1450,8.71211,-3.86461
686,-426,8.82019,4.27368,0,0,0,0,0,0,0,-1,1910,1450,8.82014,-4.27365
693,-426,8.91089,4.48853,0,0,0,0,0,0,0,-1,1917,1450,8.91093,-4.48853
700,-426,7.23096,-0.289307,0,0,0,0,0,0,0,-1,1924,1450,7.23101,0.289246
707,-426,8.44519,-1.21448,0,0,0,0,0,0,0,-1,1931,1450,8.44514,1.21454
714,-426,0,0,0,0,0,0,0,0,0,-1,1938,1450,0,0
721,-426,0,0,0,0,0,0,0,0,0,-1,1945,1450,0,0
728,-426,0,0,0,0,0,0,0,0,0,-1,1952,1450,0,0
735,-426,0,0,0,0,0,0,0,0,0,-1,1959,1450,0,0
742,-426,0,0,0,0,0,0,0,0,0,-1,1966,1450,0,0
749,-426,0,0,0,0,0,0,0,0,0,-1,1973,1450,0,0
756,-426,0,0,0,0,0,0,0,0,0,-1,1980,1450,0,0
763,-426,0,0,0,0,0,0,0,0,0,-1,1987,1450,0,0
770,-426,0,0,0,0,0,0,0,0,0,-1,1994,1450,0,0
777,-426,0,0,0,0,0,0,0,0,0,-1,2001,1450,0,0
784,-426,0,0,0,0,0,0,0,0,0,-1,2008,1450,0,0
791,-426,0,0,0,0,0,0,0,0,0,-1,2015,1450,0,0
798,-426,0,0,0,0,0,0,0,0,0,-1,2022,1450,0,0
805,-426,0,0,0,0,0,0,0,0,0,-1,2029,1450,0,0
812,-426,0,0,0,0,0,0,0,0,0,-1,2036,1450,0,0
-700,-433,0,0,0,0,0,0,0,0,0,-1,524,1457,0,0
-693,-433,0,0,0,0,0,0,0,0,0,-1,531,1457,0,0
-686,-433,0,0,0,0,0,0,0,0,0,-1,538,1457,0,0
-679,-433,0,0,0,0,0,0,0,0,0,-1,545,1457,0,0
-672,-433,0,0,0,0,0,0,0,0,0,-1,552,1457,0,0
-665,-433,0,0,0,0,0,0,0,0,0,-1,559,1457,0,0
-658,-433,0,0,0,0,0,0,0,0,0,-1,566,1457,0,0
-651,-433,0,0,0,0,0,0,0,0,0,-1,573,1457,0,0
-644,-433,0,0,0,0,0,0,0,0,0,-1,580,1457,0,0
-637,-433,0,0,0,0,0,0,0,0,0,-1,587,1457,0,0
-630,-433,0,0,0,0,0,0,0,0,0,-1,594,1457,0,0
-623,-433,0,0,0,0,0,0,0,0,0,-1,601,1457,0,0
-616,-433,0,0,0,0,0,0,0,0,0,-1,608,1457,0,0
-609,-433,0,0,0,0,0,0,0,0,0,-1,615,1457,0,0
-602,-433,0,0,0,0,0,0,0,0,0,-1,622,1457,0,0
-595,-433,0,0,0,0,0,0,0,0,0,-1,629,1457,0,0
-588,-433,-3.99652,1.85754,0,0,0,0,0,0,0,-1,636,1457,-3.9965,-1.85758
-581,-433,-3.40753,1.9729,0,0,0,0,0,0,0,-1,643,1457,-3.40755,-1.97295
-574,-433,-2.67371,1.70447,0,0,0,0,0,0,0,-1,650,1457,-2.67368,-1.70447
-567,-433,-2.67297,1.44958,0,0,0,0,0,0,0,-1,657,1457,-2.67298,-1.44954
-560,-433,-2.3725,1.3833,0,0,0,0,0,0,0,-1,664,1457,-2.37253,-1.38328
-553,-433,-2.2699,0.873291,0.0141033,0.0338626,0.0191026,0.0454892,0.00247674,1.02405,0.0295352,0.0450401,671,1457,-2.26992,-0.873271
-546,-433,-2.08923,1.01404,0.0111601,0.0265655,0.0152896,0.035983,0.00174258,1.01873,0.0234294,0.0440714,678,1457,-2.08926,-1.01407
-539,-433,-2.00702,1.77759,0.00861658,0.0204084,0.0120458,0.0279238,0.00110122,1.01299,0.0182599,0.0421887,685,1457,-2.00699,-1.77762
-532,-433,-1.79468,2.2699,0.00649427,0.0152992,0.00932106,0.0212052,0.000588314,1.00603,0.0139448,0.0289088,692,1457,-1.79469,-2.26988
-525,-433,-1.84033,2.44629,0.00475839,0.0110819,0.00701773,0.0156172,0.000223054,0.997049,0.0103379,0.0153122,699,1457,-1.84033,-2.44624
-518,-433,-1.86127,2.60181,0.00336627,0.00777461,0.00513657,0.01116,-1.9074e-05,0.988073,0.00744634,0.0155567,706,1457,-1.86128,-2.60177
-511,-433,-1.87018,2.76794,0.00236556,0.00530174,0.00358728,0.00770971,-4.24117e-05,0.979625,0.005154,0.0161843,713,1457,-1.8702,-2.76789
-504,-433,-1.87555,2.91089,0.0012142,0.0031157,0.00204602,0.00442108,-9.11739e-05,1.0029,0.00297824,0.0125534,720,1457,-1.87556,-2.91089
-497,-433,-1.86505,3.06616,0.000577173,0.00155594,0.000399327,0.00169819,0.000434925,1.22859,0.00101859,0.0126905,727,1457,-1.86506,-3.06617
-490,-433,-1.86273,3.25671,0.000515576,-0.00015885,-0.00138083,0.00159977,-0.00124304,-0.665637,0.0016456,0.0143443,734,1457,-1.86274,-3.25666
-483,-433,-1.85413,3.43127,0.00125863,-0.00255919,-0.00405746,0.0038338,-0.00513435,-0.565525,0.00519588,0.0144167,741,1457,-1.85411,-3.43128
-476,-433,-1.85162,3.57593,0.00378391,-0.00552986,-0.00757105,0.00801563,-0.00976158,-0.509677,0.0102802,0.0101876,748,1457,-1.8516,-3.57595
-469,-433,-1.85278,3.73462,0.00687788,-0.00903627,-0.0116793,0.0130531,-0.0152115,-0.486367,0.0163344,0.010247,755,1457,-1.85278,-3.73467
-462,-433,-1.85907,3.89526,0.0108557,-0.0134407,-0.0167157,0.0193713,-0.0219563,-0.47117,0.023876,0.00988986,762,1457,-1.85907,-3.8953
-455,-433,-1.75146,4.06677,0.0139987,-0.0192882,-0.0220314,0.0249666,-0.0302561,-0.461911,0.0319316,0.0202243,769,1457,-1.75145,-4.06676
-448,-433,-1.68579,3.81531,0.0163624,-0.0261168,-0.0272232,0.0296514,-0.0394059,-0.454122,0.0400026,0.031942,776,1457,-1.68577,-3.81536
-441,-433,-1.53412,3.44067,0.0197663,-0.0340059,-0.0331974,0.0355994,-0.049839,-0.445028,0.0495558,0.0396922,783,1457,-1.53414,-3.44065
-434,-433,-1.52545,2.58618,0.0220654,-0.0423375,-0.0385682,0.0401078,-0.0603798,-0.437561,0.0584087,0.0434643,790,1457,-1.52543,-2.58615
-427,-433,-1.1922,1.80286,0.0223632,-0.0504297,-0.0424659,0.0418958,-0.0699623,-0.431105,0.0652554,0.0423411,797,1457,-1.19222,-1.80288
-420,-433,-0.647766,1.13416,0.0197496,-0.0575358,-0.0441442,0.0397752,-0.0775614,-0.425877,0.0689053,0.0460864,804,1457,-0.64777,-1.1342
-413,-433,-0.420959,0.450806,0,0,0,0,0,0,0,-1,811,1457,-0.420986,-0.450764
-406,-433,-6.18463,3.06677,0,0,0,0,0,0,0,-1,818,1457,-6.18463,-3.06682
-399,-433,-6.81622,2.36292,0,0,0,0,0,0,0,-1,825,1457,-6.8162,-2.36292
-392,-433,-7.32813,1.44543,0,0,0,0,0,0,0,-1,832,1457,-7.3281,-1.44546
-385,-433,-1.65833,1.2821,0,0,0,0,0,0,0,-1,839,1457,-1.65834,-1.28209
-378,-433,0,0,0,0,0,0,0,0,0,-1,846,1457,0,0
-371,-433,0,0,0,0,0,0,0,0,0,-1,853,1457,0,0
-364,-433,0,0,0,0,0,0,0,0,0,-1,860,1457,0,0
-357,-433,0,0,0,0,0,0,0,0,0,-1,867,1457,0,0
-350,-433,0,0,0,0,0,0,0,0,0,-1,874,1457,0,0
-343,-433,0,0,0,0,0,0,0,0,0,-1,881,1457,0,0
-336,-433,0,0,0,0,0,0,0,0,0,-1,888,1457,0,0
-329,-433,0,0,0,0,0,0,0,0,0,-1,895,1457,0,0
-322,-433,0,0,0,0,0,0,0,0,0,-1,902,1457,0,0
-315,-433,0,0,0,0,0,0,0,0,0,-1,909,1457,0,0
-308,-433,0,0,0,0,0,0,0,0,0,-1,916,1457,0,0
-301,-433,0,0,0,0,0,0,0,0,0,-1,923,1457,0,0
-294,-433,0,0,0,0,0,0,0,0,0,-1,930,1457,0,0
-287,-433,0,0,0,0,0,0,0,0,0,-1,937,1457,0,0
-280,-433,0,0,0,0,0,0,0,0,0,-1,944,1457,0,0
-273,-433,0,0,0,0,0,0,0,0,0,-1,951,1457,0,0
-266,-433,0,0,0,0,0,0,0,0,0,-1,958,1457,0,0
-259,-433,0,0,0,0,0,0,0,0,0,-1,965,1457,0,0
-252,-433,0,0,0,0,0,0,0,0,0,-1,972,1457,0,0
-245,-433,0,0,0,0,0,0,0,0,0,-1,979,1457,0,0
-238,-433,0,0,0,0,0,0,0,0,0,-1,986,1457,0,0
-231,-433,0,0,0,0,0,0,0,0,0,-1,993,1457,0,0
-224,-433,0,0,0,0,0,0,0,0,0,-1,1000,1457,0,0
-217,-433,0,0,0,0,0,0,0,0,0,-1,1007,1457,0,0
-210,-433,0,0,0,0,0,0,0,0,0,-1,1014,1457,0,0
-203,-433,0,0,0,0,0,0,0,0,0,-1,1021,1457,0,0
-196,-433,0,0,0,0,0,0,0,0,0,-1,1028,1457,0,0
-189,-433,0,0,0,0,0,0,0,0,0,-1,1035,1457,0,0
-182,-433,0,0,0,0,0,0,0,0,0,-1,1042,1457,0,0
-175,-433,0,0,0,0,0,0,0,0,0,-1,1049,1457,0,0
-168,-433,0,0,0,0,0,0,0,0,0,-1,1056,1457,0,0
-161,-433,0,0,0,0,0,0,0,0,0,-1,1063,1457,0,0
-154,-433,0,0,0,0,0,0,0,0,0,-1,1070,1457,0,0
-147,-433,0,0,0,0,0,0,0,0,0,-1,1077,1457,0,0
-140,-433,0,0,0,0,0,0,0,0,0,-1,1084,1457,0,0
-133,-433,0,0,0,0,0,0,0,0,0,-1,1091,1457,0,0
-126,-433,0,0,0,0,0,0,0,0,0,-1,1098,1457,0,0
-119,-433,0,0,0,0,0,0,0,0,0,-1,1105,1457,0,0
-112,-433,0,0,0,0,0,0,0,0,0,-1,1112,1457,0,0
-105,-433,0,0,0,0,0,0,0,0,0,-1,1119,1457,0,0
-98,-433,0,0,0,0,0,0,0,0,0,-1,1126,1457,0,0
-91,-433,0,0,0,0,0,0,0,0,0,-1,1133,1457,0,0
-84,-433,0,0,0,0,0,0,0,0,0,-1,1140,1457,0,0
-77,-433,0,0,0,0,0,0,0,0,0,-1,1147,1457,0,0
-70,-433,0,0,0,0,0,0,0,0,0,-1,1154,1457,0,0
-63,-433,0,0,0,0,0,0,0,0,0,-1,1161,1457,0,0
-56,-433,0,0,0,0,0,0,0,0,0,-1,1168,1457,0,0
-49,-433,0,0,0,0,0,0,0,0,0,-1,1175,1457,0,0
-42,-433,0,0,0,0,0,0,0,0,0,-1,1182,1457,0,0
-35,-433,0,0,0,0,0,0,0,0,0,-1,1189,1457,0,0
-28,-433,0,0,0,0,0,0,0,0,0,-1,1196,1457,0,0
-21,-433,0,0,0,0,0,0,0,0,0,-1,1203,1457,0,0
-14,-433,0,0,0,0,0,0,0,0,0,-1,1210,1457,0,0
-7,-433,0,0,0,0,0,0,0,0,0,-1,1217,1457,0,0
0,-433,0,0,0,0,0,0,0,0,0,-1,1224,1457,0,0
7,-433,0,0,0,0,0,0,0,0,0,-1,1231,1457,0,0
14,-433,0,0,0,0,0,0,0,0,0,-1,1238,1457,0,0
21,-433,0,0,0,0,0,0,0,0,0,-1,1245,1457,0,0
28,-433,0,0,0,0,0,0,0,0,0,-1,1252,1457,0,0
35,-433,0,0,0,0,0,0,0,0,0,-1,1259,1457,0,0
42,-433,0,0,0,0,0,0,0,0,0,-1,1266,1457,0,0
49,-433,0,0,0,0,0,0,0,0,0,-1,1273,1457,0,0
56,-433,0,0,0,0,0,0,0,0,0,-1,1280,1457,0,0
63,-433,0,0,0,0,0,0,0,0,0,-1,1287,1457,0,0
70,-433,0,0,0,0,0,0,0,0,0,-1,1294,1457,0,0
77,-433,0,0,0,0,0,0,0,0,0,-1,1301,1457,0,0
84,-433,0,0,0,0,0,0,0,0,0,-1,1308,1457,0,0
91,-433,0,0,0,0,0,0,0,0,0,-1,1315,1457,0,0
98,-433,0,0,0,0,0,0,0,0,0,-1,1322,1457,0,0
105,-433,0,0,0,0,0,0,0,0,0,-1,1329,1457,0,0
112,-433,0,0,0,0,0,0,0,0,0,-1,1336,1457,0,0
119,-433,0,0,0,0,0,0,0,0,0,-1,1343,1457,0,0
126,-433,0,0,0,0,0,0,0,0,0,-1,1350,1457,0,0
133,-433,0,0,0,0,0,0,0,0,0,-1,1357,1457,0,0
140,-433,0,0,0,0,0,0,0,0,0,-1,1364,1457,0,0
147,-433,0,0,0,0,0,0,0,0,0,-1,1371,1457,0,0
154,-433,0,0,0,0,0,0,0,0,0,-1,1378,1457,0,0
161,-433,0,0,0,0,0,0,0,0,0,-1,1385,1457,0,0
168,-433,0,0,0,0,0,0,0,0,0,-1,1392,1457,0,0
175,-433,0,0,0,0,0,0,0,0,0,-1,1399,1457,0,0
182,-433,0,0,0,0,0,0,0,0,0,-1,1406,1457,0,0
189,-433,0,0,0,0,0,0,0,0,0,-1,1413,1457,0,0
196,-433,0,0,0,0,0,0,0,0,0,-1,1420,1457,0,0
203,-433,0,0,0,0,0,0,0,0,0,-1,1427,1457,0,0
210,-433,0,0,0,0,0,0,0,0,0,-1,1434,1457,0,0
217,-433,0,0,0,0,0,0,0,0,0,-1,1441,1457,0,0
224,-433,0,0,0,0,0,0,0,0,0,-1,1448,1457,0,0
231,-433,0,0,0,0,0,0,0,0,0,-1,1455,1457,0,0
238,-433,0,0,0,0,0,0,0,0,0,-1,1462,1457,0,0
245,-433,0,0,0,0,0,0,0,0,0,-1,1469,1457,0,0
252,-433,0,0,0,0,0,0,0,0,0,-1,1476,1457,0,0
259,-433,0,0,0,0,0,0,0,0,0,-1,1483,1457,0,0
266,-433,0,0,0,0,0,0,0,0,0,-1,1490,1457,0,0
273,-433,0,0,0,0,0,0,0,0,0,-1,1497,1457,0,0
280,-433,0,0,0,0,0,0,0,0,0,-1,1504,1457,0,0
287,-433,0,0,0,0,0,0,0,0,0,-1,1511,1457,0,0
294,-433,0,0,0,0,0,0,0,0,0,-1,1518,1457,0,0
301,-433,0,0,0,0,0,0,0,0,0,-1,1525,1457,0,0
308,-433,0,0,0,0,0,0,0,0,0,-1,1532,1457,0,0
315,-433,0,0,0,0,0,0,0,0,0,-1,1539,1457,0,0
322,-433,0,0,0,0,0,0,0,0,0,-1,1546,1457,0,0
329,-433,0,0,0,0,0,0,0,0,0,-1,1553,1457,0,0
336,-433,0,0,0,0,0,0,0,0,0,-1,1560,1457,0,0
343,-433,0,0,0,0,0,0,0,0,0,-1,1567,1457,0,0
350,-433,0,0,0,0,0,0,0,0,0,-1,1574,1457,0,0
357,-433,0,0,0,0,0,0,0,0,0,-1,1581,1457,0,0
364,-433,0,0,0,0,0,0,0,0,0,-1,1588,1457,0,0
371,-433,0,0,0,0,0,0,0,0,0,-1,1595,1457,0,0
378,-433,0,0,0,0,0,0,0,0,0,-1,1602,1457,0,0
385,-433,0,0,0,0,0,0,0,0,0,-1,1609,1457,0,0
392,-433,0,0,0,0,0,0,0,0,0,-1,1616,1457,0,0
399,-433,0,0,0,0,0,0,0,0,0,-1,1623,1457,0,0
406,-433,0,0,0,0,0,0,0,0,0,-1,1630,1457,0,0
413,-433,0,0,0,0,0,0,0,0,0,-1,1637,1457,0,0
420,-433,0,0,0,0,0,0,0,0,0,-1,1644,1457,0,0
427,-433,0,0,0,0,0,0,0,0,0,-1,1651,1457,0,0
434,-433,0,0,0,0,0,0,0,0,0,-1,1658,1457,0,0
441,-433,0,0,0,0,0,0,0,0,0,-1,1665,1457,0,0
448,-433,0,0,0,0,0,0,0,0,0,-1,1672,1457,0,0
455,-433,0,0,0,0,0,0,0,0,0,-1,1679,1457,0,0
462,-433,0,0,0,0,0,0,0,0,0,-1,1686,1457,0,0
469,-433,0,0,0,0,0,0,0,0,0,-1,1693,1457,0,0
476,-433,0,0,0,0,0,0,0,0,0,-1,1700,1457,0,0
483,-433,0,0,0,0,0,0,0,0,0,-1,1707,1457,0,0
490,-433,0,0,0,0,0,0,0,0,0,-1,1714,1457,0,0
497,-433,0,0,0,0,0,0,0,0,0,-1,1721,1457,0,0
504,-433,10.751,-0.256714,0,0,0,0,0,0,0,-1,1728,1457,10.7509,0.256771
511,-433,10.6105,0.11145,-0.0045375,-0.0318898,0.0384806,0.022625,-0.0590523,0.614658,0.0486946,0.0435483,1735,1457,10.6105,-0.111511
518,-433,10.3679,0.297241,0.00390189,-0.0295571,0.0412346,0.0316715,-0.0573266,0.592687,0.0520898,0.0438617,1742,1457,10.3679,-0.297302
525,-433,10.014,0.498901,0,0,0,0,0,0,0,-1,1749,1457,10.014,-0.498962
532,-433,12.3329,5.5874,0,0,0,0,0,0,0,-1,1756,1457,12.3329,-5.58737
539,-433,9.81079,4.54944,0,0,0,0,0,0,0,-1,1763,1457,9.81082,-4.5495
546,-433,9.599,4.38977,0.00524572,-0.0254085,0.040223,0.0329629,-0.0531257,0.603365,0.0501556,0.0465553,1770,1457,9.59901,-4.3898
553,-433,8.98193,4.6886,0.00109566,-0.0246441,0.0373461,0.0277272,-0.0512756,0.619465,0.0462828,0.0433158,1777,1457,8.98196,-4.68865
560,-433,8.93347,5.24512,0,0,0,0,0,0,0,-1,1784,1457,8.93348,-5.24506
567,-433,10.1456,4.78015,0,0,0,0,0,0,0,-1,1791,1457,10.1457,-4.78019
574,-433,9.06299,4.77563,0,0,0,0,0,0,0,-1,1798,1457,9.06299,-4.77558
581,-433,8.86951,5.05603,-0.0162618,-0.0211028,0.020982,0.00243886,-0.0398035,0.727971,0.0273848,0.0418498,1805,1457,8.86949,-5.05607
588,-433,8.64551,5.34387,-0.0202627,-0.0181132,0.0159139,-0.00323776,-0.0351381,0.819115,0.0224242,0.0288738,1812,1457,8.6455,-5.34384
595,-433,8.61243,5.27954,-0.0189676,-0.0140182,0.012504,-0.00374633,-0.0292394,0.883092,0.0183719,0.020048,1819,1457,8.61245,-5.27952
602,-433,8.63098,5.13806,-0.0141501,-0.00902909,0.0104856,-0.000795852,-0.0223833,0.90515,0.0146641,0.0180107,1826,1457,8.63098,-5.1381
609,-433,8.64355,4.98767,-0.010215,-0.006164,0.00834449,0.000397297,-0.0167763,0.904463,0.011319,0.0141176,1833,1457,8.64361,-4.98763
616,-433,8.63794,4.84961,-0.00738773,-0.00443556,0.00599585,0.000263232,-0.0120865,0.90609,0.00814684,0.0126049,1840,1457,8.63794,-4.84965
623,-433,8.60583,4.69653,-0.00498892,-0.00285374,0.00391815,0.000139663,-0.00798232,0.918405,0.00536871,0.0105983,1847,1457,8.60585,-4.69651
630,-433,8.5907,4.5575,-0.00336863,-0.00137628,0.0023011,0.000135016,-0.00487993,0.989675,0.00329921,0.013694,1854,1457,8.59072,-4.55744
637,-433,8.61707,4.41187,-0.00222887,-0.000228639,0.000954751,0.000153916,-0.00261143,1.1897,0.00179446,0.0130046,1861,1457,8.61712,-4.41183
644,-433,8.62158,4.29041,-0.00137482,0.000699506,-0.000171712,0.000713624,-0.00138894,-1.48876,0.00123461,0.0124398,1868,1457,8.6216,-4.29035
651,-433,8.60144,4.17566,-0.00110106,0.00183939,-0.00100196,0.00214834,-0.00141002,-1.2717,0.00206911,0.0106573,1875,1457,8.60144,-4.17567
658,-433,8.61365,3.99536,-0.00152942,0.0029062,-0.0015785,0.00341058,-0.00203381,-1.26152,0.00317664,0.0127666,1882,1457,8.61368,-3.9954
665,-433,8.62073,3.80994,-0.00266839,0.00405877,-0.00178958,0.00450521,-0.00311483,-1.32632,0.00442378,0.0192982,1889,1457,8.62075,-3.80996
672,-433,8.56067,3.72986,-0.00458178,0.00531318,-0.00174096,0.00561056,-0.00487916,-1.40162,0.00606115,0.0391067,1896,1457,8.5607,-3.72989
679,-433,8.30188,3.87903,-0.00733215,0.00682692,-0.00166049,0.00701904,-0.00752428,-1.4556,0.00839828,0.0452591,1903,1457,8.30192,-3.879
686,-433,8.54407,4.52942,0,0,0,0,0,0,0,-1,1910,1457,8.54406,-4.52942
693,-433,9.3092,3.70325,0,0,0,0,0,0,0,-1,1917,1457,9.30916,-3.70329
700,-433,7.16809,-1.5166,0,0,0,0,0,0,0,-1,1924,1457,7.16806,1.51656
707,-433,8.68359,-2.82202,0,0,0,0,0,0,0,-1,1931,1457,8.68359,2.82197
714,-433,0,0,0,0,0,0,0,0,0,-1,1938,1457,0,0
721,-433,0,0,0,0,0,0,0,0,0,-1,1945,1457,0,0
728,-433,0,0,0,0,0,0,0,0,0,-1,1952,1457,0,0
735,-433,0,0,0,0,0,0,0,0,0,-1,1959,1457,0,0
742,-433,0,0,0,0,0,0,0,0,0,-1,1966,1457,0,0
749,-433,0,0,0,0,0,0,0,0,0,-1,1973,1457,0,0
756,-433,0,0,0,0,0,0,0,0,0,-1,1980,1457,0,0
763,-433,0,0,0,0,0,0,0,0,0,-1,1987,1457,0,0
770,-433,0,0,0,0,0,0,0,0,0,-1,1994,1457,0,0
777,-433,0,0,0,0,0,0,0,0,0,-1,2001,1457,0,0
784,-433,0,0,0,0,0,0,0,0,0,-1,2008,1457,0,0
791,-433,0,0,0,0,0,0,0,0,0,-1,2015,1457,0,0
798,-433,0,0,0,0,0,0,0,0,0,-1,2022,1457,0,0
805,-433,0,0,0,0,0,0,0,0,0,-1,2029,1457,0,0
812,-433,0,0,0,0,0,0,0,0,0,-1,2036,1457,0,0
-700,-440,0,0,0,0,0,0,0,0,0,-1,524,1464,0,0
-693,-440,0,0,0,0,0,0,0,0,0,-1,531,1464,0,0
-686,-440,0,0,0,0,0,0,0,0,0,-1,538,1464,0,0
-679,-440,0,0,0,0,0,0,0,0,0,-1,545,1464,0,0
-672,-440,0,0,0,0,0,0,0,0,0,-1,552,1464,0,0
-665,-440,0,0,0,0,0,0,0,0,0,-1,559,1464,0,0
-658,-440,0,0,0,0,0,0,0,0,0,-1,566,1464,0,0
-651,-440,0,0,0,0,0,0,0,0,0,-1,573,1464,0,0
-644,-440,0,0,0,0,0,0,0,0,0,-1,580,1464,0,0
-637,-440,0,0,0,0,0,0,0,0,0,-1,587,1464,0,0
-630,-440,0,0,0,0,0,0,0,0,0,-1,594,1464,0,0
-623,-440,0,0,0,0,0,0,0,0,0,-1,601,1464,0,0
-616,-440,0,0,0,0,0,0,0,0,0,-1,608,1464,0,0
-609,-440,0,0,0,0,0,0,0,0,0,-1,615,1464,0,0
-602,-440,0,0,0,0,0,0,0,0,0,-1,622,1464,0,0
-595,-440,0,0,0,0,0,0,0,0,0,-1,629,1464,0,0
-588,-440,0,0,0,0,0,0,0,0,0,-1,636,1464,0,0
-581,-440,-3.6532,0.822876,0,0,0,0,0,0,0,-1,643,1464,-3.65319,-0.822889
-574,-440,-3.13501,0.681763,0,0,0,0,0,0,0,-1,650,1464,-3.13501,-0.68175
-567,-440,-2.91583,0.426636,0,0,0,0,0,0,0,-1,657,1464,-2.91586,-0.426692
-560,-440,-2.55817,0.763672,0.0253264,0.0469669,0.0276419,0.0658309,0.00646243,0.971952,0.0418996,0.0484162,664,1464,-2.55819,-0.763629
-553,-440,-2.30054,1.18835,0.0200894,0.0372814,0.0227235,0.0529805,0.00439039,0.966222,0.0339516,0.0463294,671,1464,-2.30055,-1.1883
-546,-440,-2.48224,0.563232,0.0156263,0.029079,0.0183888,0.0419331,0.00277222,0.960732,0.0270787,0.0442835,678,1464,-2.48224,-0.563267
-539,-440,-1.89844,2.05054,0,0,0,0,0,0,0,-1,685,1464,-1.89847,-2.05054
-532,-440,-1.75159,2.26428,0.00876672,0.0166089,0.0114259,0.0247678,0.000607833,0.950689,0.016313,0.0367655,692,1464,-1.7516,-2.26428
-525,-440,-1.68494,2.43201,0.00633444,0.0120672,0.00871929,0.0183792,2.24775e-05,0.944204,0.0122453,0.0160972,699,1464,-1.68493,-2.43196
-518,-440,-1.69922,2.58313,0.00445793,0.00851873,0.00649429,0.0132926,-0.000315958,0.936906,0.00896892,0.0119989,706,1464,-1.6992,-2.5831
-511,-440,-1.70593,2.76917,0.00310542,0.00588374,0.00466447,0.00936151,-0.000372354,0.930125,0.00636876,0.0151367,713,1464,-1.70595,-2.76922
-504,-440,-1.71051,2.92322,0.00179818,0.00358634,0.00295441,0.00577899,-0.000394473,0.93233,0.00399065,0.0175922,720,1464,-1.71049,-2.92318
-497,-440,-1.70398,3.0592,0.00104972,0.0019514,0.00125008,0.00282945,0.000171663,0.958463,0.00183177,0.0203125,727,1464,-1.70401,-3.05926
-490,-440,-1.70166,3.19031,0.000908254,0.00026304,-0.000465656,0.00115214,1.91567e-05,-0.482459,0.000761786,0.020989,734,1464,-1.70169,-3.19027
-483,-440,-1.70264,3.39307,0.00150888,-0.00196674,-0.0028889,0.00314238,-0.00360024,-0.51462,0.00389584,0.0182685,741,1464,-1.70265,-3.3931
-476,-440,-1.69958,3.55676,0.00374789,-0.00465336,-0.0059769,0.00685265,-0.00775812,-0.479093,0.00844093,0.0126089,748,1464,-1.69957,-3.55671
-469,-440,-1.69946,3.73596,0.00658202,-0.00768503,-0.00943671,0.0112781,-0.0123811,-0.461754,0.0136646,0.0121856,755,1464,-1.69947,-3.73592
-462,-440,-1.69476,3.91956,0.0100911,-0.0114092,-0.0135653,0.0166494,-0.0179676,-0.450332,0.0199909,0.0139222,762,1464,-1.69474,-3.91959
-455,-440,-1.66022,4.10291,0.0130983,-0.0164141,-0.0180212,0.0216339,-0.0249497,-0.44234,0.0269178,0.0148364,769,1464,-1.66024,-4.10284
-448,-440,-1.56403,4.2157,0.0156828,-0.0224632,-0.0225544,0.0261476,-0.032928,-0.434419,0.0341821,0.0234456,776,1464,-1.56403,-4.21574
-441,-440,-1.49841,3.8623,0.0191075,-0.0294121,-0.0276457,0.0316284,-0.041933,-0.425269,0.0426094,0.0361091,783,1464,-1.49843,-3.86225
-434,-440,-1.29541,3.3584,0.0217206,-0.0368833,-0.0323435,0.0360616,-0.0512243,-0.417349,0.0506474,0.0420717,790,1464,-1.2954,-3.35838
-427,-440,-0.83783,2.52087,0.0227698,-0.0443587,-0.035991,0.0384185,-0.0600074,-0.410137,0.0572801,0.0398698,797,1464,-0.837814,-2.52082
-420,-440,-0.345947,1.81323,0.0213776,-0.051226,-0.0378496,0.0375202,-0.0673686,-0.403134,0.0613694,0.0450689,804,1464,-0.345967,-1.81318
-413,-440,0.0679321,1.14771,0,0,0,0,0,0,0,-1,811,1464,0.0679204,-1.14775
-406,-440,-0.20874,0.559814,0,0,0,0,0,0,0,-1,818,1464,-0.208755,-0.559796
-399,-440,-0.269287,0.251465,0,0,0,0,0,0,0,-1,825,1464,-0.26931,-0.251435
-392,-440,0.510254,0.437744,0,0,0,0,0,0,0,-1,832,1464,0.510244,-0.43771
-385,-440,6.70496,1.25854,0,0,0,0,0,0,0,-1,839,1464,6.70498,-1.25858
-378,-440,7.93719,1.35864,0,0,0,0,0,0,0,-1,846,1464,7.93722,-1.35859
-371,-440,0,0,0,0,0,0,0,0,0,-1,853,1464,0,0
-364,-440,0,0,0,0,0,0,0,0,0,-1,860,1464,0,0
-357,-440,0,0,0,0,0,0,0,0,0,-1,867,1464,0,0
-350,-440,0,0,0,0,0,0,0,0,0,-1,874,1464,0,0
-343,-440,0,0,0,0,0,0,0,0,0,-1,881,1464,0,0
-336,-440,0,0,0,0,0,0,0,0,0,-1,888,1464,0,0
-329,-440,0,0,0,0,0,0,0,0,0,-1,895,1464,0,0
-322,-440,0,0,0,0,0,0,0,0,0,-1,902,1464,0,0
-315,-440,0,0,0,0,0,0,0,0,0,-1,909,1464,0,0
-308,-440,0,0,0,0,0,0,0,0,0,-1,916,1464,0,0
-301,-440,0,0,0,0,0,0,0,0,0,-1,923,1464,0,0
-294,-440,0,0,0,0,0,0,0,0,0,-1,930,1464,0,0
-287,-440,0,0,0,0,0,0,0,0,0,-1,937,1464,0,0
-280,-440,0,0,0,0,0,0,0,0,0,-1,944,1464,0,0
-273,-440,0,0,0,0,0,0,0,0,0,-1,951,1464,0,0
-266,-440,0,0,0,0,0,0,0,0,0,-1,958,1464,0,0
-259,-440,0,0,0,0,0,0,0,0,0,-1,965,1464,0,0
-252,-440,0,0,0,0,0,0,0,0,0,-1,972,1464,0,0
-245,-440,0,0,0,0,0,0,0,0,0,-1,979,1464,0,0
-238,-440,0,0,0,0,0,0,0,0,0,-1,986,1464,0,0
-231,-440,0,0,0,0,0,0,0,0,0,-1,993,1464,0,0
-224,-440,0,0,0,0,0,0,0,0,0,-1,1000,1464,0,0
-217,-440,0,0,0,0,0,0,0,0,0,-1,1007,1464,0,0
-210,-440,0,0,0,0,0,0,0,0,0,-1,1014,1464,0,0
-203,-440,0,0,0,0,0,0,0,0,0,-1,1021,1464,0,0
-196,-440,0,0,0,0,0,0,0,0,0,-1,1028,1464,0,0
-189,-440,0,0,0,0,0,0,0,0,0,-1,1035,1464,0,0
-182,-440,0,0,0,0,0,0,0,0,0,-1,1042,1464,0,0
-175,-440,0,0,0,0,0,0,0,0,0,-1,1049,1464,0,0
-168,-440,0,0,0,0,0,0,0,0,0,-1,1056,1464,0,0
-161,-440,0,0,0,0,0,0,0,0,0,-1,1063,1464,0,0
-154,-440,0,0,0,0,0,0,0,0,0,-1,1070,1464,0,0
-147,-440,0,0,0,0,0,0,0,0,0,-1,1077,1464,0,0
-140,-440,0,0,0,0,0,0,0,0,0,-1,1084,1464,0,0
-133,-440,0,0,0,0,0,0,0,0,0,-1,1091,1464,0,0
-126,-440,0,0,0,0,0,0,0,0,0,-1,1098,1464,0,0
-119,-440,0,0,0,0,0,0,0,0,0,-1,1105,1464,0,0
-112,-440,0,0,0,0,0,0,0,0,0,-1,1112,1464,0,0
-105,-440,0,0,0,0,0,0,0,0,0,-1,1119,1464,0,0
-98,-440,0,0,0,0,0,0,0,0,0,-1,1126,1464,0,0
-91,-440,0,0,0,0,0,0,0,0,0,-1,1133,1464,0,0
-84,-440,0,0,0,0,0,0,0,0,0,-1,1140,1464,0,0
-77,-440,0,0,0,0,0,0,0,0,0,-1,1147,1464,0,0
-70,-440,0,0,0,0,0,0,0,0,0,-1,1154,1464,0,0
-63,-440,0,0,0,0,0,0,0,0,0,-1,1161,1464,0,0
-56,-440,0,0,0,0,0,0,0,0,0,-1,1168,1464,0,0
-49,-440,0,0,0,0,0,0,0,0,0,-1,1175,1464,0,0
-42,-440,0,0,0,0,0,0,0,0,0,-1,1182,1464,0,0
-35,-440,0,0,0,0,0,0,0,0,0,-1,1189,1464,0,0
-28,-440,0,0,0,0,0,0,0,0,0,-1,1196,1464,0,0
-21,-440,0,0,0,0,0,0,0,0,0,-1,1203,1464,0,0
-14,-440,0,0,0,0,0,0,0,0,0,-1,1210,1464,0,0
-7,-440,0,0,0,0,0,0,0,0,0,-1,1217,1464,0,0
0,-440,0,0,0,0,0,0,0,0,0,-1,1224,1464,0,0
7,-440,0,0,0,0,0,0,0,0,0,-1,1231,1464,0,0
14,-440,0,0,0,0,0,0,0,0,0,-1,1238,1464,0,0
21,-440,0,0,0,0,0,0,0,0,0,-1,1245,1464,0,0
28,-440,0,0,0,0,0,0,0,0,0,-1,1252,1464,0,0
35,-440,0,0,0,0,0,0,0,0,0,-1,1259,1464,0,0
42,-440,0,0,0,0,0,0,0,0,0,-1,1266,1464,0,0
49,-440,0,0,0,0,0,0,0,0,0,-1,1273,1464,0,0
56,-440,0,0,0,0,0,0,0,0,0,-1,1280,1464,0,0
63,-440,0,0,0,0,0,0,0,0,0,-1,1287,1464,0,0
70,-440,0,0,0,0,0,0,0,0,0,-1,1294,1464,0,0
77,-440,0,0,0,0,0,0,0,0,0,-1,1301,1464,0,0
84,-440,0,0,0,0,0,0,0,0,0,-1,1308,1464,0,0
91,-440,0,0,0,0,0,0,0,0,0,-1,1315,1464,0,0
98,-440,0,0,0,0,0,0,0,0,0,-1,1322,1464,0,0
105,-440,0,0,0,0,0,0,0,0,0,-1,1329,1464,0,0
112,-440,0,0,0,0,0,0,0,0,0,-1,1336,1464,0,0
119,-440,0,0,0,0,0,0,0,0,0,-1,1343,1464,0,0
126,-440,0,0,0,0,0,0,0,0,0,-1,1350,1464,0,0
133,-440,0,0,0,0,0,0,0,0,0,-1,1357,1464,0,0
140,-440,0,0,0,0,0,0,0,0,0,-1,1364,1464,0,0
147,-440,0,0,0,0,0,0,0,0,0,-1,1371,1464,0,0
154,-440,0,0,0,0,0,0,0,0,0,-1,1378,1464,0,0
161,-440,0,0,0,0,0,0,0,0,0,-1,1385,1464,0,0
168,-440,0,0,0,0,0,0,0,0,0,-1,1392,1464,0,0
175,-440,0,0,0,0,0,0,0,0,0,-1,1399,1464,0,0
182,-440,0,0,0,0,0,0,0,0,0,-1,1406,1464,0,0
189,-440,0,0,0,0,0,0,0,0,0,-1,1413,1464,0,0
196,-440,0,0,0,0,0,0,0,0,0,-1,1420,1464,0,0
203,-440,0,0,0,0,0,0,0,0,0,-1,1427,1464,0,0
210,-440,0,0,0,0,0,0,0,0,0,-1,1434,1464,0,0
217,-440,0,0,0,0,0,0,0,0,0,-1,1441,1464,0,0
224,-440,0,0,0,0,0,0,0,0,0,-1,1448,1464,0,0
231,-440,0,0,0,0,0,0,0,0,0,-1,1455,1464,0,0
238,-440,0,0,0,0,0,0,0,0,0,-1,1462,1464,0,0
245,-440,0,0,0,0,0,0,0,0,0,-1,1469,1464,0,0
252,-440,0,0,0,0,0,0,0,0,0,-1,1476,1464,0,0
259,-440,0,0,0,0,0,0,0,0,0,-1,1483,1464,0,0
266,-440,0,0,0,0,0,0,0,0,0,-1,1490,1464,0,0
273,-440,0,0,0,0,0,0,0,0,0,-1,1497,1464,0,0
280,-440,0,0,0,0,0,0,0,0,0,-1,1504,1464,0,0
287,-440,0,0,0,0,0,0,0,0,0,-1,1511,1464,0,0
294,-440,0,0,0,0,0,0,0,0,0,-1,1518,1464,0,0
301,-440,0,0,0,0,0,0,0,0,0,-1,1525,1464,0,0
308,-440,0,0,0,0,0,0,0,0,0,-1,1532,1464,0,0
315,-440,0,0,0,0,0,0,0,0,0,-1,1539,1464,0,0
322,-440,0,0,0,0,0,0,0,0,0,-1,1546,1464,0,0
329,-440,0,0,0,0,0,0,0,0,0,-1,1553,1464,0,0
336,-440,0,0,0,0,0,0,0,0,0,-1,1560,1464,0,0
343,-440,0,0,0,0,0,0,0,0,0,-1,1567,1464,0,0
350,-440,0,0,0,0,0,0,0,0,0,-1,1574,1464,0,0
357,-440,0,0,0,0,0,0,0,0,0,-1,1581,1464,0,0
364,-440,0,0,0,0,0,0,0,0,0,-1,1588,1464,0,0
371,-440,0,0,0,0,0,0,0,0,0,-1,1595,1464,0,0
378,-440,0,0,0,0,0,0,0,0,0,-1,1602,1464,0,0
385,-440,0,0,0,0,0,0,0,0,0,-1,1609,1464,0,0
392,-440,0,0,0,0,0,0,0,0,0,-1,1616,1464,0,0
399,-440,0,0,0,0,0,0,0,0,0,-1,1623,1464,0,0
406,-440,0,0,0,0,0,0,0,0,0,-1,1630,1464,0,0
413,-440,0,0,0,0,0,0,0,0,0,-1,1637,1464,0,0
420,-440,0,0,0,0,0,0,0,0,0,-1,1644,1464,0,0
427,-440,0,0,0,0,0,0,0,0,0,-1,1651,1464,0,0
434,-440,0,0,0,0,0,0,0,0,0,-1,1658,1464,0,0
441,-440,0,0,0,0,0,0,0,0,0,-1,1665,1464,0,0
448,-440,0,0,0,0,0,0,0,0,0,-1,1672,1464,0,0
455,-440,0,0,0,0,0,0,0,0,0,-1,1679,1464,0,0
462,-440,0,0,0,0,0,0,0,0,0,-1,1686,1464,0,0
469,-440,0,0,0,0,0,0,0,0,0,-1,1693,1464,0,0
476,-440,0,0,0,0,0,0,0,0,0,-1,1700,1464,0,0
483,-440,0,0,0,0,0,0,0,0,0,-1,1707,1464,0,0
490,-440,0,0,0,0,0,0,0,0,0,-1,1714,1464,0,0
497,-440,9.12512,0.587646,0,0,0,0,0,0,0,-1,1721,1464,9.1251,-0.587658
504,-440,7.79651,0.616943,0,0,0,0,0,0,0,-1,1728,1464,7.79649,-0.616957
511,-440,10.6055,0.713013,-0.0103789,-0.0403513,0.0310117,0.00907774,-0.059808,0.560322,0.0432169,0.0461463,1735,1464,10.6055,-0.713022
518,-440,10.1204,0.547607,-0.00402197,-0.0365878,0.0328491,0.0163584,-0.0569681,0.555302,0.0444466,0.047326,1742,1464,10.1204,-0.547577
525,-440,10.0325,0.758545,0,0,0,0,0,0,0,-1,1749,1464,10.0324,-0.758504
532,-440,11.1841,5.70776,0,0,0,0,0,0,0,-1,1756,1464,11.184,-5.70774
539,-440,10.1704,5.74866,0,0,0,0,0,0,0,-1,1763,1464,10.1704,-5.74867
546,-440,9.81995,5.44885,-0.00101008,-0.0279919,0.0319603,0.02019,-0.049192,0.585686,0.0412078,0.046445,1770,1464,9.81998,-5.44891
553,-440,9.33423,5.19971,-0.00328035,-0.02605,0.0301716,0.0175829,-0.0469133,0.604989,0.0384989,0.0433441,1777,1464,9.33426,-5.19967
560,-440,9.18188,4.94775,0,0,0,0,0,0,0,-1,1784,1464,9.18192,-4.94775
567,-440,9.50366,5.14441,-0.00899408,-0.0225586,0.0243831,0.00953246,-0.0410852,0.64975,0.0310591,0.0476906,1791,1464,9.50363,-5.14438
574,-440,8.86572,5.04834,-0.0107615,-0.0208955,0.0208092,0.00558866,-0.0372457,0.665973,0.0268876,0.0486747,1798,1464,8.86568,-5.04835
581,-440,8.55103,5.4104,-0.0135848,-0.0189941,0.0163314,0.000264388,-0.0328432,0.703337,0.0219841,0.0320102,1805,1464,8.55103,-5.41044
588,-440,8.45313,5.46155,-0.0152647,-0.0154881,0.0122773,-0.00309855,-0.0276542,0.78085,0.017495,0.020889,1812,1464,8.45307,-5.46158
595,-440,8.45789,5.30676,-0.0136739,-0.0117047,0.00958678,-0.00305211,-0.0223265,0.83657,0.0139785,0.0177888,1819,1464,8.45783,-5.30681
602,-440,8.4823,5.13867,-0.00992252,-0.00751601,0.00795758,-0.000671229,-0.0167673,0.860434,0.0109613,0.0175354,1826,1464,8.48231,-5.13871
609,-440,8.47852,5.01147,-0.00689302,-0.00509054,0.00623788,0.000310868,-0.0122944,0.857141,0.00830185,0.0152399,1833,1464,8.47846,-5.01145
616,-440,8.45544,4.87585,-0.00485559,-0.00366804,0.00436759,0.000145951,-0.00866959,0.852959,0.00582898,0.0164604,1840,1464,8.45549,-4.87588
623,-440,8.46631,4.70288,-0.00314199,-0.00233333,0.00267581,-3.14754e-05,-0.00544385,0.860384,0.00361878,0.0130558,1847,1464,8.46625,-4.70292
630,-440,8.43396,4.5354,-0.0021012,-0.00101176,0.00131404,-0.000134008,-0.00297895,0.981885,0.00194284,0.0110338,1854,1464,8.43397,-4.53541
637,-440,8.45581,4.4137,-0.00142744,6.42568e-06,0.000147885,2.15191e-05,-0.00144254,1.46909,0.000968945,0.0151045,1861,1464,8.45579,-4.41375
644,-440,8.47888,4.29443,-0.000975602,0.000955224,-0.00089743,0.00130792,-0.0013283,-1.19634,0.00152203,0.0130301,1868,1464,8.47887,-4.29441
651,-440,8.48987,4.16077,-0.00102247,0.00214602,-0.0017918,0.0029535,-0.00182995,-1.1474,0.00278701,0.0106071,1875,1464,8.48985,-4.16078
658,-440,8.46228,4.01892,-0.00158141,0.00350921,-0.00262385,0.00461947,-0.00269167,-1.1705,0.00426972,0.0155205,1882,1464,8.46233,-4.01888
665,-440,8.55396,3.89697,-0.0026418,0.00510762,-0.00329973,0.00632226,-0.00385645,-1.21808,0.00593389,0.0298611,1889,1464,8.55392,-3.89699
672,-440,8.46423,3.8252,-0.00431749,0.00719334,-0.00398743,0.00843966,-0.00556382,-1.26785,0.00814154,0.0466629,1896,1464,8.46429,-3.82522
679,-440,7.89905,3.63586,-0.00685422,0.0098914,-0.00486132,0.0112004,-0.00816317,-1.30778,0.0112253,0.0488743,1903,1464,7.89909,-3.63582
686,-440,8.25,4.30042,0,0,0,0,0,0,0,-1,1910,1464,8.25006,-4.30039
693,-440,9.85132,3.9718,0,0,0,0,0,0,0,-1,1917,1464,9.85127,-3.97186
700,-440,7.07825,-2.62061,0,0,0,0,0,0,0,-1,1924,1464,7.07829,2.62057
707,-440,0,0,0,0,0,0,0,0,0,-1,1931,1464,0,0
714,-440,0,0,0,0,0,0,0,0,0,-1,1938,1464,0,0
721,-440,0,0,0,0,0,0,0,0,0,-1,1945,1464,0,0
728,-440,0,0,0,0,0,0,0,0,0,-1,1952,1464,0,0
735,-440,0,0,0,0,0,0,0,0,0,-1,1959,1464,0,0
742,-440,0,0,0,0,0,0,0,0,0,-1,1966,1464,0,0
749,-440,0,0,0,0,0,0,0,0,0,-1,1973,1464,0,0
756,-440,0,0,0,0,0,0,0,0,0,-1,1980,1464,0,0
763,-440,0,0,0,0,0,0,0,0,0,-1,1987,1464,0,0
770,-440,0,0,0,0,0,0,0,0,0,-1,1994,1464,0,0
777,-440,0,0,0,0,0,0,0,0,0,-1,2001,1464,0,0
784,-440,0,0,0,0,0,0,0,0,0,-1,2008,1464,0,0
791,-440,0,0,0,0,0,0,0,0,0,-1,2015,1464,0,0
798,-440,0,0,0,0,0,0,0,0,0,-1,2022,1464,0,0
805,-440,0,0,0,0,0,0,0,0,0,-1,2029,1464,0,0
812,-440,0,0,0,0,0,0,0,0,0,-1,2036,1464,0,0
-700,-447,0,0,0,0,0,0,0,0,0,-1,524,1471,0,0
-693,-447,0,0,0,0,0,0,0,0,0,-1,531,1471,0,0
-686,-447,0,0,0,0,0,0,0,0,0,-1,538,1471,0,0
-679,-447,0,0,0,0,0,0,0,0,0,-1,545,1471,0,0
-672,-447,0,0,0,0,0,0,0,0,0,-1,552,1471,0,0
-665,-447,0,0,0,0,0,0,0,0,0,-1,559,1471,0,0
-658,-447,0,0,0,0,0,0,0,0,0,-1,566,1471,0,0
-651,-447,0,0,0,0,0,0,0,0,0,-1,573,1471,0,0
-644,-447,0,0,0,0,0,0,0,0,0,-1,580,1471,0,0
-637,-447,0,0,0,0,0,0,0,0,0,-1,587,1471,0,0
-630,-447,0,0,0,0,0,0,0,0,0,-1,594,1471,0,0
-623,-447,0,0,0,0,0,0,0,0,0,-1,601,1471,0,0
-616,-447,0,0,0,0,0,0,0,0,0,-1,608,1471,0,0
-609,-447,0,0,0,0,0,0,0,0,0,-1,615,1471,0,0
-602,-447,0,0,0,0,0,0,0,0,0,-1,622,1471,0,0
-595,-447,0,0,0,0,0,0,0,0,0,-1,629,1471,0,0
-588,-447,0,0,0,0,0,0,0,0,0,-1,636,1471,0,0
-581,-447,-4.09711,-0.208008,0,0,0,0,0,0,0,-1,643,1471,-4.09708,0.20803
-574,-447,-3.59631,-0.340942,0,0,0,0,0,0,0,-1,650,1471,-3.59634,0.340969
-567,-447,-2.90039,-0.440674,0,0,0,0,0,0,0,-1,657,1471,-2.90039,0.440699
-560,-447,-2.56262,0.177002,0.0315611,0.0498892,0.0302662,0.0723483,0.00910202,0.932402,0.0455027,0.044716,664,1471,-2.56263,-0.177055
-553,-447,-2.31592,0.713501,0.0243055,0.0391857,0.0251344,0.0579581,0.00553316,0.929295,0.0369327,0.0449151,671,1471,-2.31593,-0.713513
-546,-447,-2.17816,1.15906,0.0184591,0.0303225,0.0205401,0.0457703,0.00301133,0.925967,0.0295609,0.0452452,678,1471,-2.17817,-1.15909
-539,-447,-2.06927,1.74133,0.0136882,0.0230351,0.0165057,0.0355162,0.00120712,0.923357,0.0232855,0.0482611,685,1471,-2.06925,-1.74139
-532,-447,-1.72675,2.14954,0.00989331,0.0171149,0.0130087,0.0270046,3.60236e-06,0.920775,0.0180019,0.0433088,692,1471,-1.72677,-2.14953
-525,-447,-1.47424,2.45862,0.00697827,0.0123865,0.0100276,0.0200682,-0.000703432,0.917098,0.0136193,0.026192,699,1471,-1.47422,-2.45863
-518,-447,-1.53845,2.57971,0.00479907,0.00869946,0.00754746,0.0145446,-0.00104609,0.911828,0.0100632,0.0164667,706,1471,-1.53848,-2.57966
-511,-447,-1.54016,2.76147,0.00323579,0.0059633,0.00550262,0.0102686,-0.00106955,0.906869,0.0072287,0.013904,713,1471,-1.54013,-2.76143
-504,-447,-1.53223,2.92773,0.00187593,0.00359594,0.0036563,0.00649201,-0.00102014,0.900904,0.00470506,0.018398,720,1471,-1.53226,-2.92772
-497,-447,-1.55707,3.08472,0.00107362,0.00191212,0.00191496,0.00345319,-0.000467441,0.893165,0.00247271,0.0229302,727,1471,-1.55704,-3.08472
-490,-447,-1.57611,3.20251,0.000867032,0.000289372,0.000271208,0.000974404,0.000181999,0.376971,0.000598237,0.0230819,734,1471,-1.57613,-3.20257
-483,-447,-1.55804,3.37048,0.00133894,-0.00170162,-0.00188314,0.00223888,-0.00260156,-0.445807,0.00279724,0.0203767,741,1471,-1.55806,-3.37051
-476,-447,-1.54675,3.55737,0.00327857,-0.00404481,-0.00454961,0.00545699,-0.00622323,-0.446557,0.00674842,0.0134853,748,1471,-1.54674,-3.55741
-469,-447,-1.5448,3.74683,0.00581563,-0.00655443,-0.00740168,0.0092763,-0.0100151,-0.437354,0.0111406,0.0125597,755,1471,-1.5448,-3.74685
-462,-447,-1.5462,3.92981,0.00885364,-0.00957347,-0.0107004,0.0137606,-0.0144804,-0.429961,0.0163067,0.0117661,762,1471,-1.54622,-3.92979
-455,-447,-1.55591,4.08301,0.0116397,-0.0136861,-0.0142998,0.0180774,-0.0201238,-0.423017,0.022066,0.0119645,769,1471,-1.55588,-4.08306
-448,-447,-1.51465,4.2384,0.0142394,-0.0188145,-0.0180574,0.0221912,-0.0267663,-0.414811,0.0283068,0.016786,776,1471,-1.51467,-4.23838
-441,-447,-1.44165,4.25928,0,0,0,0,0,0,0,-1,783,1471,-1.44165,-4.25923
-434,-447,-0.935669,4.04016,0,0,0,0,0,0,0,-1,790,1471,-0.935654,-4.04017
-427,-447,-0.444031,3.11011,0.0217147,-0.0376358,-0.0294099,0.0338193,-0.0497405,-0.390454,0.0485343,0.0390975,797,1471,-0.444003,-3.11006
-420,-447,0.039856,2.30176,0.0213828,-0.0440042,-0.0314559,0.0340582,-0.0566796,-0.383054,0.0529274,0.0455198,804,1471,0.0398692,-2.3017
-413,-447,0.406128,1.53186,0,0,0,0,0,0,0,-1,811,1471,0.40613,-1.53184
-406,-447,0.0906372,0.994385,0,0,0,0,0,0,0,-1,818,1471,0.090617,-0.994329
-399,-447,0.0134888,0.687622,0.000545122,-0.0567401,-0.0246556,0.00969535,-0.0658903,-0.355366,0.0474897,0.0471029,825,1471,0.0134841,-0.68767
-392,-447,0.271057,0.278809,0,0,0,0,0,0,0,-1,832,1471,0.27108,-0.278763
-385,-447,0.327515,-0.0834961,0,0,0,0,0,0,0,-1,839,1471,0.327498,0.0834516
-378,-447,6.5293,1.50708,0,0,0,0,0,0,0,-1,846,1471,6.52927,-1.50709
-371,-447,7.32819,1.62622,0,0,0,0,0,0,0,-1,853,1471,7.3282,-1.62617
-364,-447,0,0,0,0,0,0,0,0,0,-1,860,1471,0,0
-357,-447,0,0,0,0,0,0,0,0,0,-1,867,1471,0,0
-350,-447,0,0,0,0,0,0,0,0,0,-1,874,1471,0,0
-343,-447,0,0,0,0,0,0,0,0,0,-1,881,1471,0,0
-336,-447,0,0,0,0,0,0,0,0,0,-1,888,1471,0,0
-329,-447,0,0,0,0,0,0,0,0,0,-1,895,1471,0,0
-322,-447,0,0,0,0,0,0,0,0,0,-1,902,1471,0,0
-315,-447,0,0,0,0,0,0,0,0,0,-1,909,1471,0,0
-308,-447,0,0,0,0,0,0,0,0,0,-1,916,1471,0,0
-301,-447,0,0,0,0,0,0,0,0,0,-1,923,1471,0,0
-294,-447,0,0,0,0,0,0,0,0,0,-1,930,1471,0,0
-287,-447,0,0,0,0,0,0,0,0,0,-1,937,1471,0,0
-280,-447,0,0,0,0,0,0,0,0,0,-1,944,1471,0,0
-273,-447,0,0,0,0,0,0,0,0,0,-1,951,1471,0,0
-266,-447,0,0,0,0,0,0,0,0,0,-1,958,1471,0,0
-259,-447,0,0,0,0,0,0,0,0,0,-1,965,1471,0,0
-252,-447,0,0,0,0,0,0,0,0,0,-1,972,1471,0,0
-245,-447,0,0,0,0,0,0,0,0,0,-1,979,1471,0,0
-238,-447,0,0,0,0,0,0,0,0,0,-1,986,1471,0,0
-231,-447,0,0,0,0,0,0,0,0,0,-1,993,1471,0,0
-224,-447,0,0,0,0,0,0,0,0,0,-1,1000,1471,0,0
-217,-447,0,0,0,0,0,0,0,0,0,-1,1007,1471,0,0
-210,-447,0,0,0,0,0,0,0,0,0,-1,1014,1471,0,0
-203,-447,0,0,0,0,0,0,0,0,0,-1,1021,1471,0,0
-196,-447,0,0,0,0,0,0,0,0,0,-1,1028,1471,0,0
-189,-447,0,0,0,0,0,0,0,0,0,-1,1035,1471,0,0
-182,-447,0,0,0,0,0,0,0,0,0,-1,1042,1471,0,0
-175,-447,0,0,0,0,0,0,0,0,0,-1,1049,1471,0,0
-168,-447,0,0,0,0,0,0,0,0,0,-1,1056,1471,0,0
-161,-447,0,0,0,0,0,0,0,0,0,-1,1063,1471,0,0
-154,-447,0,0,0,0,0,0,0,0,0,-1,1070,1471,0,0
-147,-447,0,0,0,0,0,0,0,0,0,-1,1077,1471,0,0
-140,-447,0,0,0,0,0,0,0,0,0,-1,1084,1471,0,0
-133,-447,0,0,0,0,0,0,0,0,0,-1,1091,1471,0,0
-126,-447,0,0,0,0,0,0,0,0,0,-1,1098,1471,0,0
-119,-447,0,0,0,0,0,0,0,0,0,-1,1105,1471,0,0
-112,-447,0,0,0,0,0,0,0,0,0,-1,1112,1471,0,0
-105,-447,0,0,0,0,0,0,0,0,0,-1,1119,1471,0,0
-98,-447,0,0,0,0,0,0,0,0,0,-1,1126,1471,0,0
-91,-447,0,0,0,0,0,0,0,0,0,-1,1133,1471,0,0
-84,-447,0,0,0,0,0,0,0,0,0,-1,1140,1471,0,0
-77,-447,0,0,0,0,0,0,0,0,0,-1,1147,1471,0,0
-70,-447,0,0,0,0,0,0,0,0,0,-1,1154,1471,0,0
-63,-447,0,0,0,0,0,0,0,0,0,-1,1161,1471,0,0
-56,-447,0,0,0,0,0,0,0,0,0,-1,1168,1471,0,0
-49,-447,0,0,0,0,0,0,0,0,0,-1,1175,1471,0,0
-42,-447,0,0,0,0,0,0,0,0,0,-1,1182,1471,0,0
-35,-447,0,0,0,0,0,0,0,0,0,-1,1189,1471,0,0
-28,-447,0,0,0,0,0,0,0,0,0,-1,1196,1471,0,0
-21,-447,0,0,0,0,0,0,0,0,0,-1,1203,1471,0,0
-14,-447,0,0,0,0,0,0,0,0,0,-1,1210,1471,0,0
-7,-447,0,0,0,0,0,0,0,0,0,-1,1217,1471,0,0
0,-447,0,0,0,0,0,0,0,0,0,-1,1224,1471,0,0
7,-447,0,0,0,0,0,0,0,0,0,-1,1231,1471,0,0
14,-447,0,0,0,0,0,0,0,0,0,-1,1238,1471,0,0
21,-447,0,0,0,0,0,0,0,0,0,-1,1245,1471,0,0
28,-447,0,0,0,0,0,0,0,0,0,-1,1252,1471,0,0
35,-447,0,0,0,0,0,0,0,0,0,-1,1259,1471,0,0
42,-447,0,0,0,0,0,0,0,0,0,-1,1266,1471,0,0
49,-447,0,0,0,0,0,0,0,0,0,-1,1273,1471,0,0
56,-447,0,0,0,0,0,0,0,0,0,-1,1280,1471,0,0
63,-447,0,0,0,0,0,0,0,0,0,-1,1287,1471,0,0
70,-447,0,0,0,0,0,0,0,0,0,-1,1294,1471,0,0
77,-447,0,0,0,0,0,0,0,0,0,-1,1301,1471,0,0
84,-447,0,0,0,0,0,0,0,0,0,-1,1308,1471,0,0
91,-447,0,0,0,0,0,0,0,0,0,-1,1315,1471,0,0
98,-447,0,0,0,0,0,0,0,0,0,-1,1322,1471,0,0
105,-447,0,0,0,0,0,0,0,0,0,-1,1329,1471,0,0
112,-447,0,0,0,0,0,0,0,0,0,-1,1336,1471,0,0
119,-447,0,0,0,0,0,0,0,0,0,-1,1343,1471,0,0
126,-447,0,0,0,0,0,0,0,0,0,-1,1350,1471,0,0
133,-447,0,0,0,0,0,0,0,0,0,-1,1357,1471,0,0
140,-447,0,0,0,0,0,0,0,0,0,-1,1364,1471,0,0
147,-447,0,0,0,0,0,0,0,0,0,-1,1371,1471,0,0
154,-447,0,0,0,0,0,0,0,0,0,-1,1378,1471,0,0
161,-447,0,0,0,0,0,0,0,0,0,-1,1385,1471,0,0
168,-447,0,0,0,0,0,0,0,0,0,-1,1392,1471,0,0
175,-447,0,0,0,0,0,0,0,0,0,-1,1399,1471,0,0
182,-447,0,0,0,0,0,0,0,0,0,-1,1406,1471,0,0
189,-447,0,0,0,0,0,0,0,0,0,-1,1413,1471,0,0
196,-447,0,0,0,0,0,0,0,0,0,-1,1420,1471,0,0
203,-447,0,0,0,0,0,0,0,0,0,-1,1427,1471,0,0
210,-447,0,0,0,0,0,0,0,0,0,-1,1434,1471,0,0
217,-447,0,0,0,0,0,0,0,0,0,-1,1441,1471,0,0
224,-447,0,0,0,0,0,0,0,0,0,-1,1448,1471,0,0
231,-447,0,0,0,0,0,0,0,0,0,-1,1455,1471,0,0
238,-447,0,0,0,0,0,0,0,0,0,-1,1462,1471,0,0
245,-447,0,0,0,0,0,0,0,0,0,-1,1469,1471,0,0
252,-447,0,0,0,0,0,0,0,0,0,-1,1476,1471,0,0
259,-447,0,0,0,0,0,0,0,0,0,-1,1483,1471,0,0
266,-447,0,0,0,0,0,0,0,0,0,-1,1490,1471,0,0
273,-447,0,0,0,0,0,0,0,0,0,-1,1497,1471,0,0
280,-447,0,0,0,0,0,0,0,0,0,-1,1504,1471,0,0
287,-447,0,0,0,0,0,0,0,0,0,-1,1511,1471,0,0
294,-447,0,0,0,0,0,0,0,0,0,-1,1518,1471,0,0
301,-447,0,0,0,0,0,0,0,0,0,-1,1525,1471,0,0
308,-447,0,0,0,0,0,0,0,0,0,-1,1532,1471,0,0
315,-447,0,0,0,0,0,0,0,0,0,-1,1539,1471,0,0
322,-447,0,0,0,0,0,0,0,0,0,-1,1546,1471,0,0
329,-447,0,0,0,0,0,0,0,0,0,-1,1553,1471,0,0
336,-447,0,0,0,0,0,0,0,0,0,-1,1560,1471,0,0
343,-447,0,0,0,0,0,0,0,0,0,-1,1567,1471,0,0
350,-447,0,0,0,0,0,0,0,0,0,-1,1574,1471,0,0
357,-447,0,0,0,0,0,0,0,0,0,-1,1581,1471,0,0
364,-447,0,0,0,0,0,0,0,0,0,-1,1588,1471,0,0
371,-447,0,0,0,0,0,0,0,0,0,-1,1595,1471,0,0
378,-447,0,0,0,0,0,0,0,0,0,-1,1602,1471,0,0
385,-447,0,0,0,0,0,0,0,0,0,-1,1609,1471,0,0
392,-447,0,0,0,0,0,0,0,0,0,-1,1616,1471,0,0
399,-447,0,0,0,0,0,0,0,0,0,-1,1623,1471,0,0
406,-447,0,0,0,0,0,0,0,0,0,-1,1630,1471,0,0
413,-447,0,0,0,0,0,0,0,0,0,-1,1637,1471,0,0
420,-447,0,0,0,0,0,0,0,0,0,-1,1644,1471,0,0
427,-447,0,0,0,0,0,0,0,0,0,-1,1651,1471,0,0
434,-447,0,0,0,0,0,0,0,0,0,-1,1658,1471,0,0
441,-447,0,0,0,0,0,0,0,0,0,-1,1665,1471,0,0
448,-447,0,0,0,0,0,0,0,0,0,-1,1672,1471,0,0
455,-447,0,0,0,0,0,0,0,0,0,-1,1679,1471,0,0
462,-447,0,0,0,0,0,0,0,0,0,-1,1686,1471,0,0
469,-447,0,0,0,0,0,0,0,0,0,-1,1693,1471,0,0
476,-447,0,0,0,0,0,0,0,0,0,-1,1700,1471,0,0
483,-447,0,0,0,0,0,0,0,0,0,-1,1707,1471,0,0
490,-447,10.2278,1.05029,-0.0375263,-0.0555891,0.0223933,-0.0224118,-0.0707037,0.593721,0.0417224,0.0465308,1714,1471,10.2278,-1.05027
497,-447,9.38342,0.837769,-0.0272813,-0.0535992,0.0244769,-0.0126503,-0.0682301,0.538759,0.0419113,0.0476399,1721,1471,9.38337,-0.837821
504,-447,8.21399,0.746948,0,0,0,0,0,0,0,-1,1728,1471,8.21401,-0.746891
511,-447,9.5968,0.45813,0,0,0,0,0,0,0,-1,1735,1471,9.59676,-0.458082
518,-447,9.83704,0.668823,0,0,0,0,0,0,0,-1,1742,1471,9.837,-0.668841
525,-447,10.0773,0.879639,0,0,0,0,0,0,0,-1,1749,1471,10.0772,-0.879601
532,-447,9.80176,6.0155,0,0,0,0,0,0,0,-1,1756,1471,9.80182,-6.01547
539,-447,10.0072,5.23486,0,0,0,0,0,0,0,-1,1763,1471,10.0071,-5.23492
546,-447,9.59106,5.84253,0,0,0,0,0,0,0,-1,1770,1471,9.59103,-5.84253
553,-447,9.16028,5.63098,-0.00650832,-0.0264427,0.0239261,0.00944368,-0.0423947,0.588038,0.0318808,0.0413783,1777,1471,9.16022,-5.63104
560,-447,8.82898,5.47314,0,0,0,0,0,0,0,-1,1784,1471,8.82899,-5.47312
567,-447,8.55249,5.48218,-0.0101541,-0.0213343,0.0188627,0.00392939,-0.0354178,0.641342,0.0250247,0.0421521,1791,1471,8.55247,-5.48218
574,-447,8.35547,5.56567,-0.0107277,-0.018975,0.0157929,0.00147103,-0.0311737,0.657695,0.0212897,0.0262699,1798,1471,8.3555,-5.56572
581,-447,8.33484,5.57458,-0.0119828,-0.0164625,0.0121514,-0.00186655,-0.0265788,0.694255,0.0171309,0.0123,1805,1471,8.33479,-5.57454
588,-447,8.33435,5.45215,-0.0121145,-0.0127845,0.0091257,-0.00331766,-0.0215814,0.767051,0.0134191,0.0124609,1812,1471,8.33435,-5.45218
595,-447,8.31335,5.29114,-0.0105206,-0.00948897,0.00705342,-0.00293255,-0.0170771,0.8219,0.010544,0.0122821,1819,1471,8.31336,-5.29112
602,-447,8.3313,5.13489,-0.00760458,-0.0061193,0.00574723,-0.00106693,-0.0126569,0.849651,0.00810576,0.0113734,1826,1471,8.33135,-5.13494
609,-447,8.33203,4.99585,-0.00520438,-0.00415172,0.00436827,-0.000278184,-0.00907792,0.845353,0.00596138,0.0124265,1833,1471,8.33208,-4.99585
616,-447,8.34521,4.85486,-0.00360089,-0.00303872,0.00291943,-0.000386876,-0.00625274,0.833391,0.0040457,0.0133293,1840,1471,8.34516,-4.85489
623,-447,8.33508,4.71521,-0.0022577,-0.00197141,0.00158857,-0.000519549,-0.00370956,0.830332,0.00231933,0.0140974,1847,1471,8.33506,-4.71522
630,-447,8.3219,4.56055,-0.00148808,-0.000836602,0.000455839,-0.000602077,-0.0017226,1.09562,0.00100945,0.00892254,1854,1471,8.32189,-4.56058
637,-447,8.3385,4.41077,-0.000981741,2.8832e-05,-0.000552562,0.000272304,-0.00122521,-1.15577,0.000921093,0.0102006,1861,1471,8.33845,-4.41073
644,-447,8.35559,4.27942,-0.000666266,0.000993186,-0.00155521,0.00192616,-0.00159924,-1.03045,0.0020383,0.00991561,1868,1471,8.35563,-4.27941
651,-447,8.37073,4.13318,-0.000768837,0.00221559,-0.00257639,0.00370071,-0.00225396,-1.04789,0.00347159,0.0148325,1875,1471,8.37077,-4.13312
658,-447,8.31799,4.0293,-0.00122019,0.00383288,-0.00376775,0.00584278,-0.0032301,-1.08075,0.00531013,0.0243448,1882,1471,8.31802,-4.0293
665,-447,8.34021,3.83948,-0.00201738,0.00589609,-0.00520628,0.00847855,-0.00459984,-1.11033,0.00766071,0.0400597,1889,1471,8.34024,-3.83946
672,-447,8.52966,3.60938,-0.0032775,0.00883979,-0.0069777,0.0120221,-0.00645982,-1.14291,0.0108304,0.046917,1896,1471,8.52969,-3.60938
679,-447,8.82056,3.48999,-0.00528437,0.0127453,-0.00917418,0.0165925,-0.00913161,-1.17372,0.0150586,0.0455092,1903,1471,8.82058,-3.49
686,-447,8.90027,3.13379,0,0,0,0,0,0,0,-1,1910,1471,8.90024,-3.1338
693,-447,10.3082,3.50696,0,0,0,0,0,0,0,-1,1917,1471,10.3083,-3.507
700,-447,0,0,0,0,0,0,0,0,0,-1,1924,1471,0,0
707,-447,0,0,0,0,0,0,0,0,0,-1,1931,1471,0,0
714,-447,0,0,0,0,0,0,0,0,0,-1,1938,1471,0,0
721,-447,0,0,0,0,0,0,0,0,0,-1,1945,1471,0,0
728,-447,0,0,0,0,0,0,0,0,0,-1,1952,1471,0,0
735,-447,0,0,0,0,0,0,0,0,0,-1,1959,1471,0,0
742,-447,0,0,0,0,0,0,0,0,0,-1,1966,1471,0,0
749,-447,0,0,0,0,0,0,0,0,0,-1,1973,1471,0,0
756,-447,0,0,0,0,0,0,0,0,0,-1,1980,1471,0,0
763,-447,0,0,0,0,0,0,0,0,0,-1,1987,1471,0,0
770,-447,0,0,0,0,0,0,0,0,0,-1,1994,1471,0,0
777,-447,0,0,0,0,0,0,0,0,0,-1,2001,1471,0,0
784,-447,0,0,0,0,0,0,0,0,0,-1,2008,1471,0,0
791,-447,0,0,0,0,0,0,0,0,0,-1,2015,1471,0,0
798,-447,0,0,0,0,0,0,0,0,0,-1,2022,1471,0,0
805,-447,0,0,0,0,0,0,0,0,0,-1,2029,1471,0,0
812,-447,0,0,0,0,0,0,0,0,0,-1,2036,1471,0,0
-700,-454,0,0,0,0,0,0,0,0,0,-1,524,1478,0,0
-693,-454,0,0,0,0,0,0,0,0,0,-1,531,1478,0,0
-686,-454,0,0,0,0,0,0,0,0,0,-1,538,1478,0,0
-679,-454,0,0,0,0,0,0,0,0,0,-1,545,1478,0,0
-672,-454,0,0,0,0,0,0,0,0,0,-1,552,1478,0,0
-665,-454,0,0,0,0,0,0,0,0,0,-1,559,1478,0,0
-658,-454,0,0,0,0,0,0,0,0,0,-1,566,1478,0,0
-651,-454,0,0,0,0,0,0,0,0,0,-1,573,1478,0,0
-644,-454,0,0,0,0,0,0,0,0,0,-1,580,1478,0,0
-637,-454,0,0,0,0,0,0,0,0,0,-1,587,1478,0,0
-630,-454,0,0,0,0,0,0,0,0,0,-1,594,1478,0,0
-623,-454,0,0,0,0,0,0,0,0,0,-1,601,1478,0,0
-616,-454,0,0,0,0,0,0,0,0,0,-1,608,1478,0,0
-609,-454,0,0,0,0,0,0,0,0,0,-1,615,1478,0,0
-602,-454,0,0,0,0,0,0,0,0,0,-1,622,1478,0,0
-595,-454,0,0,0,0,0,0,0,0,0,-1,629,1478,0,0
-588,-454,0,0,0,0,0,0,0,0,0,-1,636,1478,0,0
-581,-454,0,0,0,0,0,0,0,0,0,-1,643,1478,0,0
-574,-454,-6.9444,1.31116,0,0,0,0,0,0,0,-1,650,1478,-6.94443,-1.31121
-567,-454,-3.93115,-1.81128,0,0,0,0,0,0,0,-1,657,1478,-3.93117,1.81127
-560,-454,-2.65723,-0.342896,0,0,0,0,0,0,0,-1,664,1478,-2.65721,0.342939
-553,-454,-2.24884,0.331421,0.0286537,0.0403633,0.0274872,0.0626123,0.00640473,0.89033,0.0397789,0.0472032,671,1478,-2.24886,-0.331448
-546,-454,-1.72986,0.852295,0.0213952,0.0308986,0.0227773,0.0494146,0.00287923,0.888232,0.0320265,0.0480035,678,1478,-1.72984,-0.852257
-539,-454,-1.58887,1.33435,0.0156123,0.0232673,0.0185195,0.0383508,0.000528878,0.887301,0.0253927,0.0477143,685,1478,-1.58886,-1.3343
-532,-454,-1.61261,1.81519,0.0110844,0.0171438,0.0147205,0.0291431,-0.000914939,0.886889,0.0197408,0.0444372,692,1478,-1.61261,-1.81517
-525,-454,-1.33752,2.33374,0.00765029,0.0123167,0.0114163,0.0216358,-0.0016688,0.886198,0.0150111,0.0378063,699,1478,-1.33755,-2.33371
-518,-454,-1.34741,2.67627,0.00512606,0.00856275,0.00860809,0.0156223,-0.00193352,0.883913,0.0111156,0.0224805,706,1478,-1.34739,-2.67629
-511,-454,-1.38745,2.76367,0.00333025,0.00575032,0.00627171,0.0109277,-0.00184709,0.880695,0.00797245,0.0131337,713,1478,-1.38744,-2.7637
-504,-454,-1.35828,2.92542,0.00189068,0.00334425,0.00421847,0.00689809,-0.00166315,0.870704,0.00524181,0.0136374,720,1478,-1.35828,-2.92536
-497,-454,-1.38208,3.08362,0.000998986,0.00162859,0.00237943,0.00371395,-0.00108637,0.851167,0.00290657,0.0174757,727,1478,-1.38209,-3.08362
-490,-454,-1.38715,3.2572,0.00068234,9.23895e-05,0.000752645,0.00119575,-0.000421019,0.598638,0.000968505,0.0170341,734,1478,-1.38712,-3.25726
-483,-454,-1.38116,3.42224,0.000959977,-0.00164536,-0.00119886,0.00142768,-0.00211306,-0.371962,0.00205697,0.0159208,741,1478,-1.38116,-3.42223
-476,-454,-1.38446,3.57837,0.00259471,-0.00362309,-0.00348428,0.00415544,-0.00518382,-0.421136,0.00540291,0.0131643,748,1478,-1.38447,-3.57839
-469,-454,-1.3866,3.73572,0.00485607,-0.00561742,-0.00578252,0.00742068,-0.00818202,-0.417444,0.0090118,0.00986393,755,1478,-1.38658,-3.73573
-462,-454,-1.39008,3.89233,0.00746393,-0.00797715,-0.0083457,0.0111125,-0.0116258,-0.412145,0.0131291,0.00924107,762,1478,-1.39009,-3.89238
-455,-454,-1.38947,4.05176,0.00997992,-0.0112433,-0.0111392,0.014753,-0.0160163,-0.404825,0.0177696,0.0101897,769,1478,-1.38948,-4.05177
-448,-454,-1.37689,4.20044,0.0124627,-0.01542,-0.0140875,0.018341,-0.0212983,-0.395306,0.022907,0.0116915,776,1478,-1.37688,-4.20038
-441,-454,-1.26471,4.35217,0.015424,-0.0202055,-0.0172658,0.0224179,-0.0271995,-0.384875,0.0286909,0.0211208,783,1478,-1.26473,-4.35215
-434,-454,-1.0448,4.47461,0.0180491,-0.025491,-0.0203735,0.0260954,-0.0335373,-0.376136,0.0345182,0.0296897,790,1478,-1.04479,-4.47467
-427,-454,-0.0805054,3.85095,0,0,0,0,0,0,0,-1,797,1478,-0.0804857,-3.85099
-420,-454,0.462891,3.0365,0,0,0,0,0,0,0,-1,804,1478,0.462897,-3.03647
-413,-454,0.921509,2.00488,0,0,0,0,0,0,0,-1,811,1478,0.921531,-2.00484
-406,-454,0.390015,1.42883,0,0,0,0,0,0,0,-1,818,1478,0.389989,-1.42886
-399,-454,0.20929,1.13904,0,0,0,0,0,0,0,-1,825,1478,0.209311,-1.13907
-392,-454,0.0967407,0.985474,0,0,0,0,0,0,0,-1,832,1478,0.0967364,-0.985529
-385,-454,2.38629,3.297,0,0,0,0,0,0,0,-1,839,1478,2.38629,-3.29702
-378,-454,3.80048,3.42151,0,0,0,0,0,0,0,-1,846,1478,3.80046,-3.4215
-371,-454,1.25891,1.51331,0,0,0,0,0,0,0,-1,853,1478,1.25891,-1.51328
-364,-454,1.08124,0.819458,0,0,0,0,0,0,0,-1,860,1478,1.08124,-0.819513
-357,-454,0,0,0,0,0,0,0,0,0,-1,867,1478,0,0
-350,-454,0,0,0,0,0,0,0,0,0,-1,874,1478,0,0
-343,-454,0,0,0,0,0,0,0,0,0,-1,881,1478,0,0
-336,-454,0,0,0,0,0,0,0,0,0,-1,888,1478,0,0
-329,-454,0,0,0,0,0,0,0,0,0,-1,895,1478,0,0
-322,-454,0,0,0,0,0,0,0,0,0,-1,902,1478,0,0
-315,-454,0,0,0,0,0,0,0,0,0,-1,909,1478,0,0
-308,-454,0,0,0,0,0,0,0,0,0,-1,916,1478,0,0
-301,-454,0,0,0,0,0,0,0,0,0,-1,923,1478,0,0
-294,-454,0,0,0,0,0,0,0,0,0,-1,930,1478,0,0
-287,-454,0,0,0,0,0,0,0,0,0,-1,937,1478,0,0
-280,-454,0,0,0,0,0,0,0,0,0,-1,944,1478,0,0
-273,-454,0,0,0,0,0,0,0,0,0,-1,951,1478,0,0
-266,-454,0,0,0,0,0,0,0,0,0,-1,958,1478,0,0
-259,-454,0,0,0,0,0,0,0,0,0,-1,965,1478,0,0
-252,-454,0,0,0,0,0,0,0,0,0,-1,972,1478,0,0
-245,-454,0,0,0,0,0,0,0,0,0,-1,979,1478,0,0
-238,-454,0,0,0,0,0,0,0,0,0,-1,986,1478,0,0
-231,-454,0,0,0,0,0,0,0,0,0,-1,993,1478,0,0
-224,-454,0,0,0,0,0,0,0,0,0,-1,1000,1478,0,0
-217,-454,0,0,0,0,0,0,0,0,0,-1,1007,1478,0,0
-210,-454,0,0,0,0,0,0,0,0,0,-1,1014,1478,0,0
-203,-454,0,0,0,0,0,0,0,0,0,-1,1021,1478,0,0
-196,-454,0,0,0,0,0,0,0,0,0,-1,1028,1478,0,0
-189,-454,0,0,0,0,0,0,0,0,0,-1,1035,1478,0,0
-182,-454,0,0,0,0,0,0,0,0,0,-1,1042,1478,0,0
-175,-454,0,0,0,0,0,0,0,0,0,-1,1049,1478,0,0
-168,-454,0,0,0,0,0,0,0,0,0,-1,1056,1478,0,0
-161,-454,0,0,0,0,0,0,0,0,0,-1,1063,1478,0,0
-154,-454,0,0,0,0,0,0,0,0,0,-1,1070,1478,0,0
-147,-454,0,0,0,0,0,0,0,0,0,-1,1077,1478,0,0
-140,-454,0,0,0,0,0,0,0,0,0,-1,1084,1478,0,0
-133,-454,0,0,0,0,0,0,0,0,0,-1,1091,1478,0,0
-126,-454,0,0,0,0,0,0,0,0,0,-1,1098,1478,0,0
-119,-454,0,0,0,0,0,0,0,0,0,-1,1105,1478,0,0
-112,-454,0,0,0,0,0,0,0,0,0,-1,1112,1478,0,0
-105,-454,0,0,0,0,0,0,0,0,0,-1,1119,1478,0,0
-98,-454,0,0,0,0,0,0,0,0,0,-1,1126,1478,0,0
-91,-454,0,0,0,0,0,0,0,0,0,-1,1133,1478,0,0
-84,-454,0,0,0,0,0,0,0,0,0,-1,1140,1478,0,0
-77,-454,0,0,0,0,0,0,0,0,0,-1,1147,1478,0,0
-70,-454,0,0,0,0,0,0,0,0,0,-1,1154,1478,0,0
-63,-454,0,0,0,0,0,0,0,0,0,-1,1161,1478,0,0
-56,-454,0,0,0,0,0,0,0,0,0,-1,1168,1478,0,0
-49,-454,0,0,0,0,0,0,0,0,0,-1,1175,1478,0,0
-42,-454,0,0,0,0,0,0,0,0,0,-1,1182,1478,0,0
-35,-454,0,0,0,0,0,0,0,0,0,-1,1189,1478,0,0
-28,-454,0,0,0,0,0,0,0,0,0,-1,1196,1478,0,0
-21,-454,0,0,0,0,0,0,0,0,0,-1,1203,1478,0,0
-14,-454,0,0,0,0,0,0,0,0,0,-1,1210,1478,0,0
-7,-454,0,0,0,0,0,0,0,0,0,-1,1217,1478,0,0
0,-454,0,0,0,0,0,0,0,0,0,-1,1224,1478,0,0
7,-454,0,0,0,0,0,0,0,0,0,-1,1231,1478,0,0
14,-454,0,0,0,0,0,0,0,0,0,-1,1238,1478,0,0
21,-454,0,0,0,0,0,0,0,0,0,-1,1245,1478,0,0
28,-454,0,0,0,0,0,0,0,0,0,-1,1252,1478,0,0
35,-454,0,0,0,0,0,0,0,0,0,-1,1259,1478,0,0
42,-454,0,0,0,0,0,0,0,0,0,-1,1266,1478,0,0
49,-454,0,0,0,0,0,0,0,0,0,-1,1273,1478,0,0
56,-454,0,0,0,0,0,0,0,0,0,-1,1280,1478,0,0
63,-454,0,0,0,0,0,0,0,0,0,-1,1287,1478,0,0
70,-454,0,0,0,0,0,0,0,0,0,-1,1294,1478,0,0
77,-454,0,0,0,0,0,0,0,0,0,-1,1301,1478,0,0
84,-454,0,0,0,0,0,0,0,0,0,-1,1308,1478,0,0
91,-454,0,0,0,0,0,0,0,0,0,-1,1315,1478,0,0
98,-454,0,0,0,0,0,0,0,0,0,-1,1322,1478,0,0
105,-454,0,0,0,0,0,0,0,0,0,-1,1329,1478,0,0
112,-454,0,0,0,0,0,0,0,0,0,-1,1336,1478,0,0
119,-454,0,0,0,0,0,0,0,0,0,-1,1343,1478,0,0
126,-454,0,0,0,0,0,0,0,0,0,-1,1350,1478,0,0
133,-454,0,0,0,0,0,0,0,0,0,-1,1357,1478,0,0
140,-454,0,0,0,0,0,0,0,0,0,-1,1364,1478,0,0
147,-454,0,0,0,0,0,0,0,0,0,-1,1371,1478,0,0
154,-454,0,0,0,0,0,0,0,0,0,-1,1378,1478,0,0
161,-454,0,0,0,0,0,0,0,0,0,-1,1385,1478,0,0
168,-454,0,0,0,0,0,0,0,0,0,-1,1392,1478,0,0
175,-454,0,0,0,0,0,0,0,0,0,-1,1399,1478,0,0
182,-454,0,0,0,0,0,0,0,0,0,-1,1406,1478,0,0
189,-454,0,0,0,0,0,0,0,0,0,-1,1413,1478,0,0
196,-454,0,0,0,0,0,0,0,0,0,-1,1420,1478,0,0
203,-454,0,0,0,0,0,0,0,0,0,-1,1427,1478,0,0
210,-454,0,0,0,0,0,0,0,0,0,-1,1434,1478,0,0
217,-454,0,0,0,0,0,0,0,0,0,-1,1441,1478,0,0
224,-454,0,0,0,0,0,0,0,0,0,-1,1448,1478,0,0
231,-454,0,0,0,0,0,0,0,0,0,-1,1455,1478,0,0
238,-454,0,0,0,0,0,0,0,0,0,-1,1462,1478,0,0
245,-454,0,0,0,0,0,0,0,0,0,-1,1469,1478,0,0
252,-454,0,0,0,0,0,0,0,0,0,-1,1476,1478,0,0
259,-454,0,0,0,0,0,0,0,0,0,-1,1483,1478,0,0
266,-454,0,0,0,0,0,0,0,0,0,-1,1490,1478,0,0
273,-454,0,0,0,0,0,0,0,0,0,-1,1497,1478,0,0
280,-454,0,0,0,0,0,0,0,0,0,-1,1504,1478,0,0
287,-454,0,0,0,0,0,0,0,0,0,-1,1511,1478,0,0
294,-454,0,0,0,0,0,0,0,0,0,-1,1518,1478,0,0
301,-454,0,0,0,0,0,0,0,0,0,-1,1525,1478,0,0
308,-454,0,0,0,0,0,0,0,0,0,-1,1532,1478,0,0
315,-454,0,0,0,0,0,0,0,0,0,-1,1539,1478,0,0
322,-454,0,0,0,0,0,0,0,0,0,-1,1546,1478,0,0
329,-454,0,0,0,0,0,0,0,0,0,-1,1553,1478,0,0
336,-454,0,0,0,0,0,0,0,0,0,-1,1560,1478,0,0
343,-454,0,0,0,0,0,0,0,0,0,-1,1567,1478,0,0
350,-454,0,0,0,0,0,0,0,0,0,-1,1574,1478,0,0
357,-454,0,0,0,0,0,0,0,0,0,-1,1581,1478,0,0
364,-454,0,0,0,0,0,0,0,0,0,-1,1588,1478,0,0
371,-454,0,0,0,0,0,0,0,0,0,-1,1595,1478,0,0
378,-454,0,0,0,0,0,0,0,0,0,-1,1602,1478,0,0
385,-454,0,0,0,0,0,0,0,0,0,-1,1609,1478,0,0
392,-454,0,0,0,0,0,0,0,0,0,-1,1616,1478,0,0
399,-454,0,0,0,0,0,0,0,0,0,-1,1623,1478,0,0
406,-454,0,0,0,0,0,0,0,0,0,-1,1630,1478,0,0
413,-454,0,0,0,0,0,0,0,0,0,-1,1637,1478,0,0
420,-454,0,0,0,0,0,0,0,0,0,-1,1644,1478,0,0
427,-454,0,0,0,0,0,0,0,0,0,-1,1651,1478,0,0
434,-454,0,0,0,0,0,0,0,0,0,-1,1658,1478,0,0
441,-454,0,0,0,0,0,0,0,0,0,-1,1665,1478,0,0
448,-454,0,0,0,0,0,0,0,0,0,-1,1672,1478,0,0
455,-454,0,0,0,0,0,0,0,0,0,-1,1679,1478,0,0
462,-454,0,0,0,0,0,0,0,0,0,-1,1686,1478,0,0
469,-454,0,0,0,0,0,0,0,0,0,-1,1693,1478,0,0
476,-454,0,0,0,0,0,0,0,0,0,-1,1700,1478,0,0
483,-454,10.4727,1.37341,0,0,0,0,0,0,0,-1,1707,1478,10.4727,-1.37342
490,-454,9.95398,1.27612,-0.0283226,-0.0609681,0.0206428,-0.0183288,-0.0709619,0.450869,0.0425357,0.0462483,1714,1478,9.95401,-1.27617
497,-454,9.37903,1.04199,-0.0231756,-0.0592501,0.022395,-0.0124573,-0.0699684,0.446381,0.0430975,0.0469146,1721,1478,9.37904,-1.04194
504,-454,9.15845,0.736328,0,0,0,0,0,0,0,-1,1728,1478,9.15847,-0.736316
511,-454,9.61292,3.88049,0,0,0,0,0,0,0,-1,1735,1478,9.61293,-3.88046
518,-454,7.81665,5.00159,0,0,0,0,0,0,0,-1,1742,1478,7.8167,-5.00158
525,-454,7.99585,5.13928,0,0,0,0,0,0,0,-1,1749,1478,7.99584,-5.13927
532,-454,7.88855,5.07068,0,0,0,0,0,0,0,-1,1756,1478,7.88849,-5.07068
539,-454,9.69543,6.54773,0,0,0,0,0,0,0,-1,1763,1478,9.69549,-6.54772
546,-454,9.27246,6.26147,0,0,0,0,0,0,0,-1,1770,1478,9.27241,-6.2615
553,-454,8.83948,6.03137,0,0,0,0,0,0,0,-1,1777,1478,8.83943,-6.03142
560,-454,8.47607,5.99854,0,0,0,0,0,0,0,-1,1784,1478,8.47607,-5.99849
567,-454,8.22351,5.82336,-0.0093596,-0.0188897,0.0146655,0.00129552,-0.0295448,0.628321,0.0201422,0.0224754,1791,1478,8.22353,-5.82341
574,-454,8.16968,5.67261,-0.0092465,-0.0161842,0.012128,-0.000101063,-0.0253297,0.646106,0.0168529,0.0119867,1798,1478,8.16962,-5.67259
581,-454,8.19104,5.54199,-0.00961278,-0.0135152,0.00928299,-0.00207815,-0.0210498,0.68181,0.0133943,0.0109046,1805,1478,8.19103,-5.54199
588,-454,8.1958,5.41895,-0.00923623,-0.010158,0.0070271,-0.0026549,-0.0167393,0.752653,0.0103883,0.0126326,1812,1478,8.19576,-5.4189
595,-454,8.17529,5.28564,-0.00782323,-0.00741395,0.00544076,-0.00217399,-0.0130632,0.804196,0.00808219,0.0118705,1819,1478,8.17528,-5.28569
602,-454,8.17969,5.14001,-0.00561508,-0.00482094,0.00436398,-0.000836001,-0.00960002,0.830768,0.00614035,0.0087588,1826,1478,8.17974,-5.14004
609,-454,8.20129,5.01013,-0.00375478,-0.00332349,0.00320073,-0.000331147,-0.00674712,0.819034,0.00439186,0.0102963,1833,1478,8.20126,-5.01016
616,-454,8.21252,4.86108,-0.00250159,-0.00254907,0.00202342,-0.000501767,-0.00454889,0.779532,0.00287995,0.012522,1840,1478,8.21254,-4.86103
623,-454,8.20483,4.71313,-0.00147778,-0.00180597,0.000932014,-0.000695525,-0.00258822,0.698259,0.00154668,0.00994941,1847,1478,8.20488,-4.71311
630,-454,8.20496,4.57349,-0.000930355,-0.00094154,-9.25154e-05,-0.000843263,-0.00102863,-0.75521,0.000633076,0.00932306,1854,1478,8.20495,-4.57348
637,-454,8.21191,4.43762,-0.00055016,-0.000314427,-0.0010633,0.000637515,-0.0015021,-0.840598,0.00126848,0.00935888,1861,1478,8.21196,-4.43768
644,-454,8.21509,4.28552,-0.000317962,0.000580081,-0.00215278,0.00233017,-0.00206805,-0.888213,0.00254081,0.0131843,1868,1478,8.21511,-4.28556
651,-454,8.13916,4.14526,-0.000395654,0.00175317,-0.00345987,0.00430161,-0.0029441,-0.935945,0.00420771,0.0221131,1875,1478,8.13914,-4.1453
658,-454,8.12842,3.84668,-0.000616652,0.00354472,-0.00520894,0.00707316,-0.0041451,-0.975412,0.00654999,0.0326492,1882,1478,8.12847,-3.8467
665,-454,8.11902,3.50488,-0.000949429,0.0061849,-0.0075746,0.0109903,-0.00575479,-1.00546,0.00982401,0.0448168,1889,1478,8.119,-3.50487
672,-454,8.08643,3.18872,0,0,0,0,0,0,0,-1,1896,1478,8.0864,-3.18867
679,-454,9.47717,2.92615,0,0,0,0,0,0,0,-1,1903,1478,9.47716,-2.92621
686,-454,9.86414,2.35681,0,0,0,0,0,0,0,-1,1910,1478,9.86409,-2.35684
693,-454,12.4622,3.90857,0,0,0,0,0,0,0,-1,1917,1478,12.4621,-3.90858
700,-454,0,0,0,0,0,0,0,0,0,-1,1924,1478,0,0
707,-454,0,0,0,0,0,0,0,0,0,-1,1931,1478,0,0
714,-454,0,0,0,0,0,0,0,0,0,-1,1938,1478,0,0
721,-454,0,0,0,0,0,0,0,0,0,-1,1945,1478,0,0
728,-454,0,0,0,0,0,0,0,0,0,-1,1952,1478,0,0
735,-454,0,0,0,0,0,0,0,0,0,-1,1959,1478,0,0
742,-454,0,0,0,0,0,0,0,0,0,-1,1966,1478,0,0
749,-454,0,0,0,0,0,0,0,0,0,-1,1973,1478,0,0
756,-454,0,0,0,0,0,0,0,0,0,-1,1980,1478,0,0
763,-454,0,0,0,0,0,0,0,0,0,-1,1987,1478,0,0
770,-454,0,0,0,0,0,0,0,0,0,-1,1994,1478,0,0
777,-454,0,0,0,0,0,0,0,0,0,-1,2001,1478,0,0
784,-454,0,0,0,0,0,0,0,0,0,-1,2008,1478,0,0
791,-454,0,0,0,0,0,0,0,0,0,-1,2015,1478,0,0
798,-454,0,0,0,0,0,0,0,0,0,-1,2022,1478,0,0
805,-454,0,0,0,0,0,0,0,0,0,-1,2029,1478,0,0
812,-454,0,0,0,0,0,0,0,0,0,-1,2036,1478,0,0
-700,-461,0,0,0,0,0,0,0,0,0,-1,524,1485,0,0
-693,-461,0,0,0,0,0,0,0,0,0,-1,531,1485,0,0
-686,-461,0,0,0,0,0,0,0,0,0,-1,538,1485,0,0
-679,-461,0,0,0,0,0,0,0,0,0,-1,545,1485,0,0
-672,-461,0,0,0,0,0,0,0,0,0,-1,552,1485,0,0
-665,-461,0,0,0,0,0,0,0,0,0,-1,559,1485,0,0
-658,-461,0,0,0,0,0,0,0,0,0,-1,566,1485,0,0
-651,-461,0,0,0,0,0,0,0,0,0,-1,573,1485,0,0
-644,-461,0,0,0,0,0,0,0,0,0,-1,580,1485,0,0
-637,-461,0,0,0,0,0,0,0,0,0,-1,587,1485,0,0
-630,-461,0,0,0,0,0,0,0,0,0,-1,594,1485,0,0
-623,-461,0,0,0,0,0,0,0,0,0,-1,601,1485,0,0
-616,-461,0,0,0,0,0,0,0,0,0,-1,608,1485,0,0
-609,-461,0,0,0,0,0,0,0,0,0,-1,615,1485,0,0
-602,-461,0,0,0,0,0,0,0,0,0,-1,622,1485,0,0
-595,-461,0,0,0,0,0,0,0,0,0,-1,629,1485,0,0
-588,-461,0,0,0,0,0,0,0,0,0,-1,636,1485,0,0
-581,-461,0,0,0,0,0,0,0,0,0,-1,643,1485,0,0
-574,-461,0,0,0,0,0,0,0,0,0,-1,650,1485,0,0
-567,-461,-3.03693,-0.829834,0,0,0,0,0,0,0,-1,657,1485,-3.03694,0.829884
-560,-461,-1.93726,3.13428,0,0,0,0,0,0,0,-1,664,1485,-1.93727,-3.13427
-553,-461,-1.94141,0.131226,0,0,0,0,0,0,0,-1,671,1485,-1.94143,-0.131207
-546,-461,-1.50903,0.56604,0.0228754,0.0301343,0.0251637,0.0519289,0.00108075,0.857021,0.0342647,0.0486639,678,1485,-1.509,-0.56598
-539,-461,-1.27808,1.00891,0.0163672,0.0223814,0.0206665,0.0402584,-0.00150985,0.857644,0.0273561,0.0451263,685,1485,-1.27808,-1.00893
-532,-461,-1.28387,1.53784,0,0,0,0,0,0,0,-1,692,1485,-1.28385,-1.53787
-525,-461,-1.22003,2.13452,0.00764467,0.0115846,0.0128334,0.0225983,-0.00336908,0.861554,0.016305,0.040793,699,1485,-1.22004,-2.13457
-518,-461,-1.22504,2.51563,0.00494335,0.00796506,0.00966265,0.0162343,-0.00332585,0.862951,0.012085,0.0328133,706,1485,-1.22504,-2.51561
-511,-461,-1.1983,2.80237,0.00304807,0.00522828,0.00700063,0.0112232,-0.00294682,0.862635,0.00863368,0.0154696,713,1485,-1.1983,-2.80233
-504,-461,-1.20587,2.9353,0.00162122,0.00290434,0.00471845,0.00702464,-0.00249908,0.852968,0.0057017,0.00919272,720,1485,-1.2059,-2.93535
-497,-461,-1.18976,3.11914,0.000694085,0.001246,0.00277134,0.00375508,-0.001815,0.835023,0.00328027,0.00987958,727,1485,-1.18977,-3.11916
-490,-461,-1.20154,3.276,0.000277473,-0.000136056,0.00114527,0.00123449,-0.00109307,0.696091,0.00134464,0.0117435,734,1485,-1.20154,-3.276
-483,-461,-1.21558,3.43396,0.000359722,-0.00157037,-0.000643578,0.000554636,-0.00176528,-0.294078,0.00139888,0.0120614,741,1485,-1.21559,-3.434
-476,-461,-1.23077,3.60083,0.00172576,-0.00317376,-0.00258573,0.00283793,-0.00428593,-0.406197,0.00414118,0.0103577,748,1485,-1.23074,-3.60083
-469,-461,-1.21857,3.73718,0.00374267,-0.0046861,-0.00439012,0.00561386,-0.00655729,-0.40291,0.00703405,0.0115355,755,1485,-1.21858,-3.73719
-462,-461,-1.19678,3.87073,0.00596572,-0.00646016,-0.00631445,0.00861128,-0.00910572,-0.39675,0.0102302,0.0154448,762,1485,-1.19676,-3.8707
-455,-461,-1.21533,4.06531,0.00819242,-0.00898868,-0.0083986,0.0116158,-0.012412,-0.38705,0.013875,0.0198745,769,1485,-1.21534,-4.06536
-448,-461,-1.22357,4.25757,0.0104754,-0.0123089,-0.0106021,0.0146455,-0.016479,-0.374747,0.0179801,0.0164936,776,1485,-1.22359,-4.25753
-441,-461,-1.19806,4.38855,0.0131034,-0.0161177,-0.0129131,0.017992,-0.0210063,-0.361901,0.0225381,0.013178,783,1485,-1.19805,-4.38851
-434,-461,-1.0614,4.50012,0.0155376,-0.0203657,-0.0152259,0.0211251,-0.0259531,-0.351714,0.0272283,0.0173577,790,1485,-1.06141,-4.50018
-427,-461,-0.972412,4.61169,0.017475,-0.0248474,-0.0174864,0.023765,-0.0311375,-0.345299,0.0317931,0.0242836,797,1485,-0.972399,-4.61166
-420,-461,-1.05225,4.91907,0.018529,-0.0293659,-0.0194287,0.025419,-0.036256,-0.340798,0.0357909,0.0418482,804,1485,-1.05224,-4.91912
-413,-461,-1.01196,5.20898,0,0,0,0,0,0,0,-1,811,1485,-1.01197,-5.20896
-406,-461,-0.188782,5.4314,0,0,0,0,0,0,0,-1,818,1485,-0.18878,-5.43141
-399,-461,0.25885,1.54077,0,0,0,0,0,0,0,-1,825,1485,0.258844,-1.54075
-392,-461,0.405701,6.5343,0,0,0,0,0,0,0,-1,832,1485,0.405713,-6.53429
-385,-461,1.71509,3.35254,0,0,0,0,0,0,0,-1,839,1485,1.71511,-3.35255
-378,-461,1.95996,3.01111,0,0,0,0,0,0,0,-1,846,1485,1.95993,-3.01111
-371,-461,0.702881,2.33459,0,0,0,0,0,0,0,-1,853,1485,0.702859,-2.33459
-364,-461,-1.93097,2.56458,0,0,0,0,0,0,0,-1,860,1485,-1.93095,-2.56456
-357,-461,-2.41516,3.49487,0,0,0,0,0,0,0,-1,867,1485,-2.41517,-3.49487
-350,-461,0,0,0,0,0,0,0,0,0,-1,874,1485,0,0
-343,-461,0,0,0,0,0,0,0,0,0,-1,881,1485,0,0
-336,-461,0,0,0,0,0,0,0,0,0,-1,888,1485,0,0
-329,-461,0,0,0,0,0,0,0,0,0,-1,895,1485,0,0
-322,-461,0,0,0,0,0,0,0,0,0,-1,902,1485,0,0
-315,-461,0,0,0,0,0,0,0,0,0,-1,909,1485,0,0
-308,-461,0,0,0,0,0,0,0,0,0,-1,916,1485,0,0
-301,-461,0,0,0,0,0,0,0,0,0,-1,923,1485,0,0
-294,-461,0,0,0,0,0,0,0,0,0,-1,930,1485,0,0
-287,-461,0,0,0,0,0,0,0,0,0,-1,937,1485,0,0
-280,-461,0,0,0,0,0,0,0,0,0,-1,944,1485,0,0
-273,-461,0,0,0,0,0,0,0,0,0,-1,951,1485,0,0
-266,-461,0,0,0,0,0,0,0,0,0,-1,958,1485,0,0
-259,-461,0,0,0,0,0,0,0,0,0,-1,965,1485,0,0
-252,-461,0,0,0,0,0,0,0,0,0,-1,972,1485,0,0
-245,-461,0,0,0,0,0,0,0,0,0,-1,979,1485,0,0
-238,-461,0,0,0,0,0,0,0,0,0,-1,986,1485,0,0
-231,-461,0,0,0,0,0,0,0,0,0,-1,993,1485,0,0
-224,-461,0,0,0,0,0,0,0,0,0,-1,1000,1485,0,0
-217,-461,0,0,0,0,0,0,0,0,0,-1,1007,1485,0,0
-210,-461,0,0,0,0,0,0,0,0,0,-1,1014,1485,0,0
-203,-461,0,0,0,0,0,0,0,0,0,-1,1021,1485,0,0
-196,-461,0,0,0,0,0,0,0,0,0,-1,1028,1485,0,0
-189,-461,0,0,0,0,0,0,0,0,0,-1,1035,1485,0,0
-182,-461,0,0,0,0,0,0,0,0,0,-1,1042,1485,0,0
-175,-461,0,0,0,0,0,0,0,0,0,-1,1049,1485,0,0
-168,-461,0,0,0,0,0,0,0,0,0,-1,1056,1485,0,0
-161,-461,0,0,0,0,0,0,0,0,0,-1,1063,1485,0,0
-154,-461,0,0,0,0,0,0,0,0,0,-1,1070,1485,0,0
-147,-461,0,0,0,0,0,0,0,0,0,-1,1077,1485,0,0
-140,-461,0,0,0,0,0,0,0,0,0,-1,1084,1485,0,0
-133,-461,0,0,0,0,0,0,0,0,0,-1,1091,1485,0,0
-126,-461,0,0,0,0,0,0,0,0,0,-1,1098,1485,0,0
-119,-461,0,0,0,0,0,0,0,0,0,-1,1105,1485,0,0
-112,-461,0,0,0,0,0,0,0,0,0,-1,1112,1485,0,0
-105,-461,0,0,0,0,0,0,0,0,0,-1,1119,1485,0,0
-98,-461,0,0,0,0,0,0,0,0,0,-1,1126,1485,0,0
-91,-461,0,0,0,0,0,0,0,0,0,-1,1133,1485,0,0
-84,-461,0,0,0,0,0,0,0,0,0,-1,1140,1485,0,0
-77,-461,0,0,0,0,0,0,0,0,0,-1,1147,1485,0,0
-70,-461,0,0,0,0,0,0,0,0,0,-1,1154,1485,0,0
-63,-461,0,0,0,0,0,0,0,0,0,-1,1161,1485,0,0
-56,-461,0,0,0,0,0,0,0,0,0,-1,1168,1485,0,0
-49,-461,0,0,0,0,0,0,0,0,0,-1,1175,1485,0,0
-42,-461,0,0,0,0,0,0,0,0,0,-1,1182,1485,0,0
-35,-461,0,0,0,0,0,0,0,0,0,-1,1189,1485,0,0
-28,-461,0,0,0,0,0,0,0,0,0,-1,1196,1485,0,0
-21,-461,0,0,0,0,0,0,0,0,0,-1,1203,1485,0,0
-14,-461,0,0,0,0,0,0,0,0,0,-1,1210,1485,0,0
-7,-461,0,0,0,0,0,0,0,0,0,-1,1217,1485,0,0
0,-461,0,0,0,0,0,0,0,0,0,-1,1224,1485,0,0
7,-461,0,0,0,0,0,0,0,0,0,-1,1231,1485,0,0
14,-461,0,0,0,0,0,0,0,0,0,-1,1238,1485,0,0
21,-461,0,0,0,0,0,0,0,0,0,-1,1245,1485,0,0
28,-461,0,0,0,0,0,0,0,0,0,-1,1252,1485,0,0
35,-461,0,0,0,0,0,0,0,0,0,-1,1259,1485,0,0
42,-461,0,0,0,0,0,0,0,0,0,-1,1266,1485,0,0
49,-461,0,0,0,0,0,0,0,0,0,-1,1273,1485,0,0
56,-461,0,0,0,0,0,0,0,0,0,-1,1280,1485,0,0
63,-461,0,0,0,0,0,0,0,0,0,-1,1287,1485,0,0
70,-461,0,0,0,0,0,0,0,0,0,-1,1294,1485,0,0
77,-461,0,0,0,0,0,0,0,0,0,-1,1301,1485,0,0
84,-461,0,0,0,0,0,0,0,0,0,-1,1308,1485,0,0
91,-461,0,0,0,0,0,0,0,0,0,-1,1315,1485,0,0
98,-461,0,0,0,0,0,0,0,0,0,-1,1322,1485,0,0
105,-461,0,0,0,0,0,0,0,0,0,-1,1329,1485,0,0
112,-461,0,0,0,0,0,0,0,0,0,-1,1336,1485,0,0
119,-461,0,0,0,0,0,0,0,0,0,-1,1343,1485,0,0
126,-461,0,0,0,0,0,0,0,0,0,-1,1350,1485,0,0
133,-461,0,0,0,0,0,0,0,0,0,-1,1357,1485,0,0
140,-461,0,0,0,0,0,0,0,0,0,-1,1364,1485,0,0
147,-461,0,0,0,0,0,0,0,0,0,-1,1371,1485,0,0
154,-461,0,0,0,0,0,0,0,0,0,-1,1378,1485,0,0
161,-461,0,0,0,0,0,0,0,0,0,-1,1385,1485,0,0
168,-461,0,0,0,0,0,0,0,0,0,-1,1392,1485,0,0
175,-461,0,0,0,0,0,0,0,0,0,-1,1399,1485,0,0
182,-461,0,0,0,0,0,0,0,0,0,-1,1406,1485,0,0
189,-461,0,0,0,0,0,0,0,0,0,-1,1413,1485,0,0
196,-461,0,0,0,0,0,0,0,0,0,-1,1420,1485,0,0
203,-461,0,0,0,0,0,0,0,0,0,-1,1427,1485,0,0
210,-461,0,0,0,0,0,0,0,0,0,-1,1434,1485,0,0
217,-461,0,0,0,0,0,0,0,0,0,-1,1441,1485,0,0
224,-461,0,0,0,0,0,0,0,0,0,-1,1448,1485,0,0
231,-461,0,0,0,0,0,0,0,0,0,-1,1455,1485,0,0
238,-461,0,0,0,0,0,0,0,0,0,-1,1462,1485,0,0
245,-461,0,0,0,0,0,0,0,0,0,-1,1469,1485,0,0
252,-461,0,0,0,0,0,0,0,0,0,-1,1476,1485,0,0
259,-461,0,0,0,0,0,0,0,0,0,-1,1483,1485,0,0
266,-461,0,0,0,0,0,0,0,0,0,-1,1490,1485,0,0
273,-461,0,0,0,0,0,0,0,0,0,-1,1497,1485,0,0
280,-461,0,0,0,0,0,0,0,0,0,-1,1504,1485,0,0
287,-461,0,0,0,0,0,0,0,0,0,-1,1511,1485,0,0
294,-461,0,0,0,0,0,0,0,0,0,-1,1518,1485,0,0
301,-461,0,0,0,0,0,0,0,0,0,-1,1525,1485,0,0
308,-461,0,0,0,0,0,0,0,0,0,-1,1532,1485,0,0
315,-461,0,0,0,0,0,0,0,0,0,-1,1539,1485,0,0
322,-461,0,0,0,0,0,0,0,0,0,-1,1546,1485,0,0
329,-461,0,0,0,0,0,0,0,0,0,-1,1553,1485,0,0
336,-461,0,0,0,0,0,0,0,0,0,-1,1560,1485,0,0
343,-461,0,0,0,0,0,0,0,0,0,-1,1567,1485,0,0
350,-461,0,0,0,0,0,0,0,0,0,-1,1574,1485,0,0
357,-461,0,0,0,0,0,0,0,0,0,-1,1581,1485,0,0
364,-461,0,0,0,0,0,0,0,0,0,-1,1588,1485,0,0
371,-461,0,0,0,0,0,0,0,0,0,-1,1595,1485,0,0
378,-461,0,0,0,0,0,0,0,0,0,-1,1602,1485,0,0
385,-461,0,0,0,0,0,0,0,0,0,-1,1609,1485,0,0
392,-461,0,0,0,0,0,0,0,0,0,-1,1616,1485,0,0
399,-461,0,0,0,0,0,0,0,0,0,-1,1623,1485,0,0
406,-461,0,0,0,0,0,0,0,0,0,-1,1630,1485,0,0
413,-461,0,0,0,0,0,0,0,0,0,-1,1637,1485,0,0
420,-461,0,0,0,0,0,0,0,0,0,-1,1644,1485,0,0
427,-461,0,0,0,0,0,0,0,0,0,-1,1651,1485,0,0
434,-461,0,0,0,0,0,0,0,0,0,-1,1658,1485,0,0
441,-461,0,0,0,0,0,0,0,0,0,-1,1665,1485,0,0
448,-461,0,0,0,0,0,0,0,0,0,-1,1672,1485,0,0
455,-461,0,0,0,0,0,0,0,0,0,-1,1679,1485,0,0
462,-461,0,0,0,0,0,0,0,0,0,-1,1686,1485,0,0
469,-461,0,0,0,0,0,0,0,0,0,-1,1693,1485,0,0
476,-461,10.917,1.40881,0,0,0,0,0,0,0,-1,1700,1485,10.917,-1.40879
483,-461,19.5126,-2.29724,0,0,0,0,0,0,0,-1,1707,1485,19.5126,2.29722
490,-461,9.37024,1.8717,0,0,0,0,0,0,0,-1,1714,1485,9.37029,-1.87173
497,-461,9.31677,1.72754,-0.0197834,-0.0591928,0.0225515,-0.00954065,-0.0694355,0.426334,0.0434606,0.0438102,1721,1485,9.31683,-1.72749
504,-461,9.61914,1.67603,-0.016303,-0.0546001,0.0209225,-0.00708922,-0.0638138,0.41482,0.0403874,0.0453164,1728,1485,9.61909,-1.67604
511,-461,7.39709,4.4436,0,0,0,0,0,0,0,-1,1735,1485,7.39708,-4.4436
518,-461,7.62964,4.79065,0,0,0,0,0,0,0,-1,1742,1485,7.62964,-4.79062
525,-461,7.84131,4.99329,-0.00991205,-0.0400631,0.0175594,-0.00184444,-0.0481307,0.430682,0.0314903,0.0487405,1749,1485,7.84132,-4.9933
532,-461,7.87671,5.00964,-0.00892618,-0.0352933,0.0162525,-0.00118249,-0.043037,0.44464,0.0283054,0.0483109,1756,1485,7.87671,-5.0096
539,-461,7.74573,5.1261,0,0,0,0,0,0,0,-1,1763,1485,7.74575,-5.12608
546,-461,8.46704,5.93652,0,0,0,0,0,0,0,-1,1770,1485,8.46702,-5.93658
553,-461,8.29065,5.90649,0,0,0,0,0,0,0,-1,1777,1485,8.29068,-5.90652
560,-461,8.11438,5.87646,0,0,0,0,0,0,0,-1,1784,1485,8.11435,-5.87646
567,-461,8.05566,5.8252,-0.00866872,-0.016411,0.0107104,-0.00115135,-0.0239284,0.611984,0.0155827,0.012228,1791,1485,8.05563,-5.82519
574,-461,8.05469,5.68042,-0.00780938,-0.0135013,0.00873659,-0.00146689,-0.0198438,0.627943,0.0127683,0.0128694,1798,1485,8.0547,-5.68038
581,-461,8.06873,5.54846,-0.00742578,-0.0108272,0.00659868,-0.00231215,-0.0159408,0.659276,0.00994647,0.0126501,1805,1485,8.06871,-5.54844
588,-461,8.05469,5.42615,-0.00654632,-0.00777253,0.0050239,-0.00209825,-0.0122206,0.72468,0.00754553,0.0102989,1812,1485,8.05472,-5.42619
595,-461,8.04077,5.28821,-0.00513832,-0.00537787,0.00371672,-0.00153944,-0.00897674,0.769291,0.00554307,0.00809708,1819,1485,8.04073,-5.28823
602,-461,8.04419,5.13843,-0.00339133,-0.00327944,0.00262219,-0.000712596,-0.00595817,0.796064,0.00375718,0.00812949,1826,1485,8.04418,-5.13842
609,-461,8.05713,4.99841,-0.00184782,-0.00197897,0.00136759,-0.000544235,-0.00328255,0.761441,0.0020314,0.0102263,1833,1485,8.05717,-4.99846
616,-461,8.06799,4.85376,-0.00072282,-0.00121459,4.56394e-05,-0.00071862,-0.00121879,0.0917627,0.000707425,0.0123806,1840,1485,8.06801,-4.85371
623,-461,8.05127,4.71228,0.000222808,-0.000424409,-0.00128382,0.00122318,-0.00142478,-0.661937,0.00153028,0.0112929,1847,1485,8.05124,-4.71231
630,-461,8.05554,4.57495,0.000822722,0.000568633,-0.00273364,0.00343227,-0.00204091,-0.762178,0.0031938,0.00992754,1854,1485,8.05559,-4.57498
637,-461,8.07959,4.44177,0.00137867,0.00143999,-0.00429761,0.00570705,-0.00288839,-0.788965,0.00505074,0.0112188,1861,1485,8.07964,-4.44174
644,-461,8.07031,4.30518,0.00186282,0.00274536,-0.0061616,0.00848147,-0.00387329,-0.821145,0.00729654,0.0184067,1868,1485,8.07031,-4.30521
651,-461,7.97437,4.08984,0.00227738,0.00449431,-0.00856671,0.012024,-0.00525228,-0.849737,0.0102267,0.0256314,1875,1485,7.97433,-4.08981
658,-461,8.03308,3.62073,0.00280613,0.00701751,-0.0117074,0.0168071,-0.00698345,-0.874377,0.0141204,0.0393819,1882,1485,8.03307,-3.62072
665,-461,7.95984,3.29041,0,0,0,0,0,0,0,-1,1889,1485,7.95988,-3.2904
672,-461,9.7334,2.94971,0,0,0,0,0,0,0,-1,1896,1485,9.73341,-2.9497
679,-461,10.2764,2.39587,0,0,0,0,0,0,0,-1,1903,1485,10.2764,-2.39582
686,-461,10.8195,1.84192,0,0,0,0,0,0,0,-1,1910,1485,10.8194,-1.84195
693,-461,0,0,0,0,0,0,0,0,0,-1,1917,1485,0,0
700,-461,0,0,0,0,0,0,0,0,0,-1,1924,1485,0,0
707,-461,0,0,0,0,0,0,0,0,0,-1,1931,1485,0,0
714,-461,0,0,0,0,0,0,0,0,0,-1,1938,1485,0,0
721,-461,0,0,0,0,0,0,0,0,0,-1,1945,1485,0,0
728,-461,0,0,0,0,0,0,0,0,0,-1,1952,1485,0,0
735,-461,0,0,0,0,0,0,0,0,0,-1,1959,1485,0,0
742,-461,0,0,0,0,0,0,0,0,0,-1,1966,1485,0,0
749,-461,0,0,0,0,0,0,0,0,0,-1,1973,1485,0,0
756,-461,0,0,0,0,0,0,0,0,0,-1,1980,1485,0,0
763,-461,0,0,0,0,0,0,0,0,0,-1,1987,1485,0,0
770,-461,0,0,0,0,0,0,0,0,0,-1,1994,1485,0,0
777,-461,0,0,0,0,0,0,0,0,0,-1,2001,1485,0,0
784,-461,0,0,0,0,0,0,0,0,0,-1,2008,1485,0,0
791,-461,0,0,0,0,0,0,0,0,0,-1,2015,1485,0,0
798,-461,0,0,0,0,0,0,0,0,0,-1,2022,1485,0,0
805,-461,0,0,0,0,0,0,0,0,0,-1,2029,1485,0,0
812,-461,0,0,0,0,0,0,0,0,0,-1,2036,1485,0,0
-700,-468,0,0,0,0,0,0,0,0,0,-1,524,1492,0,0
-693,-468,0,0,0,0,0,0,0,0,0,-1,531,1492,0,0
-686,-468,0,0,0,0,0,0,0,0,0,-1,538,1492,0,0
-679,-468,0,0,0,0,0,0,0,0,0,-1,545,1492,0,0
-672,-468,0,0,0,0,0,0,0,0,0,-1,552,1492,0,0
-665,-468,0,0,0,0,0,0,0,0,0,-1,559,1492,0,0
-658,-468,0,0,0,0,0,0,0,0,0,-1,566,1492,0,0
-651,-468,0,0,0,0,0,0,0,0,0,-1,573,1492,0,0
-644,-468,0,0,0,0,0,0,0,0,0,-1,580,1492,0,0
-637,-468,0,0,0,0,0,0,0,0,0,-1,587,1492,0,0
-630,-468,0,0,0,0,0,0,0,0,0,-1,594,1492,0,0
-623,-468,0,0,0,0,0,0,0,0,0,-1,601,1492,0,0
-616,-468,0,0,0,0,0,0,0,0,0,-1,608,1492,0,0
-609,-468,0,0,0,0,0,0,0,0,0,-1,615,1492,0,0
-602,-468,0,0,0,0,0,0,0,0,0,-1,622,1492,0,0
-595,-468,0,0,0,0,0,0,0,0,0,-1,629,1492,0,0
-588,-468,0,0,0,0,0,0,0,0,0,-1,636,1492,0,0
-581,-468,0,0,0,0,0,0,0,0,0,-1,643,1492,0,0
-574,-468,0,0,0,0,0,0,0,0,0,-1,650,1492,0,0
-567,-468,-0.0491333,0.895996,0,0,0,0,0,0,0,-1,657,1492,-0.0491181,-0.896051
-560,-468,-1.50757,1.52332,0,0,0,0,0,0,0,-1,664,1492,-1.5076,-1.52335
-553,-468,-1.91345,-0.149536,0,0,0,0,0,0,0,-1,671,1492,-1.91342,0.149526
-546,-468,-1.40356,0.395752,0.0228429,0.027044,0.0280628,0.0530848,-0.00319789,0.822755,0.0365025,0.0468255,678,1492,-1.40354,-0.395705
-539,-468,-1.01154,0.764893,0.0158971,0.0197969,0.0232119,0.0411406,-0.00544668,0.827302,0.0294112,0.0438585,685,1492,-1.01152,-0.764859
-532,-468,-0.711731,1.63953,0,0,0,0,0,0,0,-1,692,1492,-0.711702,-1.63954
-525,-468,-0.994934,2.21033,0.00689995,0.0100273,0.0145377,0.0230852,-0.00615789,0.838973,0.0178014,0.0416702,699,1492,-0.994936,-2.2103
-518,-468,-1.1778,2.53064,0.0041982,0.006843,0.0109698,0.0165698,-0.0055286,0.845384,0.0132787,0.0414675,706,1492,-1.17779,-2.5307
-511,-468,-1.11591,2.79773,0.00234688,0.00443939,0.00794616,0.0114079,-0.00462161,0.850855,0.00952708,0.0301878,713,1492,-1.11589,-2.79769
-504,-468,-1.02997,2.93689,0.00101159,0.00236944,0.00540229,0.0071353,-0.00375427,0.847907,0.00638731,0.0115254,720,1492,-1.02998,-2.93685
-497,-468,-1.04028,3.12622,0.000124171,0.000905597,0.00331937,0.00385717,-0.0028274,0.843982,0.00387458,0.00814211,727,1492,-1.04026,-3.12623
-490,-468,-1.04156,3.2865,-0.000315087,-0.000236385,0.00167127,0.001396,-0.00194747,0.797169,0.00193908,0.00760089,734,1492,-1.04159,-3.28654
-483,-468,-1.05627,3.4408,-0.000373031,-0.00130787,-1.06191e-06,-0.00037303,-0.00130787,-0.00113593,0.000777974,0.0079468,741,1492,-1.05625,-3.44079
-476,-468,-1.0575,3.60046,0.000819948,-0.00253106,-0.00165127,0.00149689,-0.003208,-0.389056,0.00277561,0.00828136,748,1492,-1.0575,-3.60041
-469,-468,-1.04779,3.7511,0.00267563,-0.00359743,-0.00303051,0.0039005,-0.00482229,-0.384104,0.00504547,0.0117786,755,1492,-1.0478,-3.75109
-462,-468,-1.03326,3.90222,0.00460699,-0.0048726,-0.00443183,0.00635617,-0.00662178,-0.375916,0.00749334,0.0194501,762,1492,-1.03327,-3.90221
-455,-468,-1.04156,4.05237,0.00664194,-0.0068022,-0.0059548,0.00890017,-0.00906043,-0.362473,0.0103697,0.0201446,769,1492,-1.04156,-4.05237
-448,-468,-1.06781,4.22827,0.00882025,-0.00944215,-0.00758254,0.0115581,-0.01218,-0.346502,0.0137067,0.0123628,776,1492,-1.06782,-4.22825
-441,-468,-1.05585,4.38257,0.0112337,-0.0125045,-0.00924588,0.0144099,-0.0156808,-0.330898,0.017378,0.0108585,783,1492,-1.05587,-4.38253
-434,-468,-1.01642,4.54578,0.0135786,-0.0159387,-0.0109493,0.0171967,-0.0195567,-0.319145,0.0212342,0.010841,790,1492,-1.0164,-4.54583
-427,-468,-0.965454,4.6676,0.0157078,-0.0196478,-0.0127726,0.0198393,-0.0237793,-0.31284,0.0252174,0.013309,797,1492,-0.965454,-4.66757
-420,-468,-0.875061,4.81006,0.0173914,-0.0235475,-0.014567,0.0220456,-0.0282016,-0.309249,0.0290827,0.0234655,804,1492,-0.87504,-4.81004
-413,-468,-0.667969,4.90051,0.0183308,-0.0279836,-0.0160638,0.0233569,-0.0330097,-0.303237,0.032702,0.0414974,811,1492,-0.667943,-4.90056
-406,-468,-0.39978,4.80908,0.0181263,-0.0325074,-0.0172276,0.0234318,-0.037813,-0.298752,0.0356832,0.0433033,818,1492,-0.399799,-4.80903
-399,-468,-0.34491,4.91541,0,0,0,0,0,0,0,-1,825,1492,-0.34489,-4.91545
-392,-468,-0.0227051,5.08057,0,0,0,0,0,0,0,-1,832,1492,-0.0227256,-5.08058
-385,-468,0.465759,5.35864,0,0,0,0,0,0,0,-1,839,1492,0.465732,-5.35864
-378,-468,1.99835,3.25391,0,0,0,0,0,0,0,-1,846,1492,1.99837,-3.2539
-371,-468,-0.31842,3.1532,0,0,0,0,0,0,0,-1,853,1492,-0.318441,-3.15324
-364,-468,-0.752136,1.72119,0,0,0,0,0,0,0,-1,860,1492,-0.752112,-1.72116
-357,-468,-3.06787,3.22742,0,0,0,0,0,0,0,-1,867,1492,-3.06784,-3.2274
-350,-468,-3.18658,4.12659,0,0,0,0,0,0,0,-1,874,1492,-3.18659,-4.12658
-343,-468,0,0,0,0,0,0,0,0,0,-1,881,1492,0,0
-336,-468,0,0,0,0,0,0,0,0,0,-1,888,1492,0,0
-329,-468,0,0,0,0,0,0,0,0,0,-1,895,1492,0,0
-322,-468,0,0,0,0,0,0,0,0,0,-1,902,1492,0,0
-315,-468,0,0,0,0,0,0,0,0,0,-1,909,1492,0,0
-308,-468,0,0,0,0,0,0,0,0,0,-1,916,1492,0,0
-301,-468,0,0,0,0,0,0,0,0,0,-1,923,1492,0,0
-294,-468,0,0,0,0,0,0,0,0,0,-1,930,1492,0,0
-287,-468,0,0,0,0,0,0,0,0,0,-1,937,1492,0,0
-280,-468,0,0,0,0,0,0,0,0,0,-1,944,1492,0,0
-273,-468,0,0,0,0,0,0,0,0,0,-1,951,1492,0,0
-266,-468,0,0,0,0,0,0,0,0,0,-1,958,1492,0,0
-259,-468,0,0,0,0,0,0,0,0,0,-1,965,1492,0,0
-252,-468,0,0,0,0,0,0,0,0,0,-1,972,1492,0,0
-245,-468,0,0,0,0,0,0,0,0,0,-1,979,1492,0,0
-238,-468,0,0,0,0,0,0,0,0,0,-1,986,1492,0,0
-231,-468,0,0,0,0,0,0,0,0,0,-1,993,1492,0,0
-224,-468,0,0,0,0,0,0,0,0,0,-1,1000,1492,0,0
-217,-468,0,0,0,0,0,0,0,0,0,-1,1007,1492,0,0
-210,-468,0,0,0,0,0,0,0,0,0,-1,1014,1492,0,0
-203,-468,0,0,0,0,0,0,0,0,0,-1,1021,1492,0,0
-196,-468,0,0,0,0,0,0,0,0,0,-1,1028,1492,0,0
-189,-468,0,0,0,0,0,0,0,0,0,-1,1035,1492,0,0
-182,-468,0,0,0,0,0,0,0,0,0,-1,1042,1492,0,0
-175,-468,0,0,0,0,0,0,0,0,0,-1,1049,1492,0,0
-168,-468,0,0,0,0,0,0,0,0,0,-1,1056,1492,0,0
-161,-468,0,0,0,0,0,0,0,0,0,-1,1063,1492,0,0
-154,-468,0,0,0,0,0,0,0,0,0,-1,1070,1492,0,0
-147,-468,0,0,0,0,0,0,0,0,0,-1,1077,1492,0,0
-140,-468,0,0,0,0,0,0,0,0,0,-1,1084,1492,0,0
-133,-468,0,0,0,0,0,0,0,0,0,-1,1091,1492,0,0
-126,-468,0,0,0,0,0,0,0,0,0,-1,1098,1492,0,0
-119,-468,0,0,0,0,0,0,0,0,0,-1,1105,1492,0,0
-112,-468,0,0,0,0,0,0,0,0,0,-1,1112,1492,0,0
-105,-468,0,0,0,0,0,0,0,0,0,-1,1119,1492,0,0
-98,-468,0,0,0,0,0,0,0,0,0,-1,1126,1492,0,0
-91,-468,0,0,0,0,0,0,0,0,0,-1,1133,1492,0,0
-84,-468,0,0,0,0,0,0,0,0,0,-1,1140,1492,0,0
-77,-468,0,0,0,0,0,0,0,0,0,-1,1147,1492,0,0
-70,-468,0,0,0,0,0,0,0,0,0,-1,1154,1492,0,0
-63,-468,0,0,0,0,0,0,0,0,0,-1,1161,1492,0,0
-56,-468,0,0,0,0,0,0,0,0,0,-1,1168,1492,0,0
-49,-468,0,0,0,0,0,0,0,0,0,-1,1175,1492,0,0
-42,-468,0,0,0,0,0,0,0,0,0,-1,1182,1492,0,0
-35,-468,0,0,0,0,0,0,0,0,0,-1,1189,1492,0,0
-28,-468,0,0,0,0,0,0,0,0,0,-1,1196,1492,0,0
-21,-468,0,0,0,0,0,0,0,0,0,-1,1203,1492,0,0
-14,-468,0,0,0,0,0,0,0,0,0,-1,1210,1492,0,0
-7,-468,0,0,0,0,0,0,0,0,0,-1,1217,1492,0,0
0,-468,0,0,0,0,0,0,0,0,0,-1,1224,1492,0,0
7,-468,0,0,0,0,0,0,0,0,0,-1,1231,1492,0,0
14,-468,0,0,0,0,0,0,0,0,0,-1,1238,1492,0,0
21,-468,0,0,0,0,0,0,0,0,0,-1,1245,1492,0,0
28,-468,0,0,0,0,0,0,0,0,0,-1,1252,1492,0,0
35,-468,0,0,0,0,0,0,0,0,0,-1,1259,1492,0,0
42,-468,0,0,0,0,0,0,0,0,0,-1,1266,1492,0,0
49,-468,0,0,0,0,0,0,0,0,0,-1,1273,1492,0,0
56,-468,0,0,0,0,0,0,0,0,0,-1,1280,1492,0,0
63,-468,0,0,0,0,0,0,0,0,0,-1,1287,1492,0,0
70,-468,0,0,0,0,0,0,0,0,0,-1,1294,1492,0,0
77,-468,0,0,0,0,0,0,0,0,0,-1,1301,1492,0,0
84,-468,0,0,0,0,0,0,0,0,0,-1,1308,1492,0,0
91,-468,0,0,0,0,0,0,0,0,0,-1,1315,1492,0,0
98,-468,0,0,0,0,0,0,0,0,0,-1,1322,1492,0,0
105,-468,0,0,0,0,0,0,0,0,0,-1,1329,1492,0,0
112,-468,0,0,0,0,0,0,0,0,0,-1,1336,1492,0,0
119,-468,0,0,0,0,0,0,0,0,0,-1,1343,1492,0,0
126,-468,0,0,0,0,0,0,0,0,0,-1,1350,1492,0,0
133,-468,0,0,0,0,0,0,0,0,0,-1,1357,1492,0,0
140,-468,0,0,0,0,0,0,0,0,0,-1,1364,1492,0,0
147,-468,0,0,0,0,0,0,0,0,0,-1,1371,1492,0,0
154,-468,0,0,0,0,0,0,0,0,0,-1,1378,1492,0,0
161,-468,0,0,0,0,0,0,0,0,0,-1,1385,1492,0,0
168,-468,0,0,0,0,0,0,0,0,0,-1,1392,1492,0,0
175,-468,0,0,0,0,0,0,0,0,0,-1,1399,1492,0,0
182,-468,0,0,0,0,0,0,0,0,0,-1,1406,1492,0,0
189,-468,0,0,0,0,0,0,0,0,0,-1,1413,1492,0,0
196,-468,0,0,0,0,0,0,0,0,0,-1,1420,1492,0,0
203,-468,0,0,0,0,0,0,0,0,0,-1,1427,1492,0,0
210,-468,0,0,0,0,0,0,0,0,0,-1,1434,1492,0,0
217,-468,0,0,0,0,0,0,0,0,0,-1,1441,1492,0,0
224,-468,0,0,0,0,0,0,0,0,0,-1,1448,1492,0,0
231,-468,0,0,0,0,0,0,0,0,0,-1,1455,1492,0,0
238,-468,0,0,0,0,0,0,0,0,0,-1,1462,1492,0,0
245,-468,0,0,0,0,0,0,0,0,0,-1,1469,1492,0,0
252,-468,0,0,0,0,0,0,0,0,0,-1,1476,1492,0,0
259,-468,0,0,0,0,0,0,0,0,0,-1,1483,1492,0,0
266,-468,0,0,0,0,0,0,0,0,0,-1,1490,1492,0,0
273,-468,0,0,0,0,0,0,0,0,0,-1,1497,1492,0,0
280,-468,0,0,0,0,0,0,0,0,0,-1,1504,1492,0,0
287,-468,0,0,0,0,0,0,0,0,0,-1,1511,1492,0,0
294,-468,0,0,0,0,0,0,0,0,0,-1,1518,1492,0,0
301,-468,0,0,0,0,0,0,0,0,0,-1,1525,1492,0,0
308,-468,0,0,0,0,0,0,0,0,0,-1,1532,1492,0,0
315,-468,0,0,0,0,0,0,0,0,0,-1,1539,1492,0,0
322,-468,0,0,0,0,0,0,0,0,0,-1,1546,1492,0,0
329,-468,0,0,0,0,0,0,0,0,0,-1,1553,1492,0,0
336,-468,0,0,0,0,0,0,0,0,0,-1,1560,1492,0,0
343,-468,0,0,0,0,0,0,0,0,0,-1,1567,1492,0,0
350,-468,0,0,0,0,0,0,0,0,0,-1,1574,1492,0,0
357,-468,0,0,0,0,0,0,0,0,0,-1,1581,1492,0,0
364,-468,0,0,0,0,0,0,0,0,0,-1,1588,1492,0,0
371,-468,0,0,0,0,0,0,0,0,0,-1,1595,1492,0,0
378,-468,0,0,0,0,0,0,0,0,0,-1,1602,1492,0,0
385,-468,0,0,0,0,0,0,0,0,0,-1,1609,1492,0,0
392,-468,0,0,0,0,0,0,0,0,0,-1,1616,1492,0,0
399,-468,0,0,0,0,0,0,0,0,0,-1,1623,1492,0,0
406,-468,0,0,0,0,0,0,0,0,0,-1,1630,1492,0,0
413,-468,0,0,0,0,0,0,0,0,0,-1,1637,1492,0,0
420,-468,0,0,0,0,0,0,0,0,0,-1,1644,1492,0,0
427,-468,0,0,0,0,0,0,0,0,0,-1,1651,1492,0,0
434,-468,0,0,0,0,0,0,0,0,0,-1,1658,1492,0,0
441,-468,0,0,0,0,0,0,0,0,0,-1,1665,1492,0,0
448,-468,0,0,0,0,0,0,0,0,0,-1,1672,1492,0,0
455,-468,0,0,0,0,0,0,0,0,0,-1,1679,1492,0,0
462,-468,0,0,0,0,0,0,0,0,0,-1,1686,1492,0,0
469,-468,12.1157,1.57886,0,0,0,0,0,0,0,-1,1693,1492,12.1157,-1.57884
476,-468,18.3877,-1.65625,0,0,0,0,0,0,0,-1,1700,1492,18.3876,1.65621
483,-468,17.9138,-1.89941,0,0,0,0,0,0,0,-1,1707,1492,17.9138,1.8994
490,-468,9.08923,3.00879,0,0,0,0,0,0,0,-1,1714,1492,9.08921,-3.00881
497,-468,9.37561,2.81689,-0.0170391,-0.0589323,0.0247929,-0.00552889,-0.0704426,0.434646,0.0452315,0.0429368,1721,1492,9.37566,-2.81692
504,-468,9.75269,2.6272,-0.0152292,-0.054326,0.0217945,-0.00550066,-0.0640545,0.419837,0.0409927,0.046779,1728,1492,9.75274,-2.62725
511,-468,9.93481,2.58667,0,0,0,0,0,0,0,-1,1735,1492,9.93486,-2.58667
518,-468,7.38977,4.88257,0,0,0,0,0,0,0,-1,1742,1492,7.38982,-4.88254
525,-468,7.51929,5.05762,-0.0114408,-0.0399466,0.0146871,-0.00522774,-0.0461597,0.400201,0.029187,0.0461599,1749,1492,7.5193,-5.05766
532,-468,7.60559,5.20789,-0.0104627,-0.0345958,0.0125468,-0.00512171,-0.0399368,0.402454,0.0250922,0.0444599,1756,1492,7.60553,-5.20788
539,-468,7.66748,5.45874,-0.0098034,-0.0296393,0.0113754,-0.00462947,-0.0348132,0.426868,0.0218299,0.0465046,1763,1492,7.6675,-5.45879
546,-468,8.13684,5.97668,0,0,0,0,0,0,0,-1,1770,1492,8.13679,-5.97668
553,-468,8.05713,5.95801,-0.00849418,-0.0213685,0.0102398,-0.00283629,-0.0270264,0.504791,0.0171505,0.0349472,1777,1492,8.05708,-5.95795
560,-468,7.95471,5.94739,-0.00865748,-0.0169588,0.00915285,-0.00275813,-0.0228581,0.572525,0.0144076,0.0177738,1784,1492,7.95475,-5.94745
567,-468,7.91052,5.84314,-0.00748799,-0.01379,0.00768413,-0.00233388,-0.0189441,0.590822,0.0119278,0.0130056,1791,1492,7.91046,-5.84312
574,-468,7.91431,5.69214,-0.0061534,-0.0109241,0.00618141,-0.00191306,-0.0151644,0.601256,0.00953612,0.0130444,1798,1492,7.91426,-5.69213
581,-468,7.922,5.55481,-0.00521936,-0.00836716,0.00458564,-0.00194504,-0.0116415,0.620086,0.00720074,0.0134431,1805,1492,7.92203,-5.55476
588,-468,7.92065,5.42029,-0.00406276,-0.00556566,0.00324106,-0.00148717,-0.00814124,0.671484,0.00500596,0.0117002,1812,1492,7.9207,-5.42024
595,-468,7.91699,5.28015,-0.00254468,-0.0032749,0.0017774,-0.00109528,-0.0047243,0.684097,0.00285534,0.00948443,1819,1492,7.91699,-5.2802
602,-468,7.91138,5.1283,-0.000917277,-0.00130916,0.000316203,-0.000741228,-0.00148521,0.508019,0.000857488,0.00817925,1826,1492,7.91133,-5.12826
609,-468,7.90198,4.9845,0.000644618,0.000160425,-0.00143601,0.00185879,-0.00105375,-0.701888,0.00170284,0.00870086,1833,1492,7.90197,-4.98455
616,-468,7.90723,4.8468,0.00198838,0.00133298,-0.00341385,0.00509022,-0.00176886,-0.737549,0.00411194,0.0089084,1840,1492,7.90718,-4.84678
623,-468,7.90784,4.71021,0.00321612,0.00263967,-0.00557152,0.00850686,-0.00265107,-0.759556,0.00673126,0.00983375,1847,1492,7.90788,-4.71018
630,-468,7.92749,4.5636,0.00426146,0.00428765,-0.00811115,0.0123857,-0.0038366,-0.786205,0.00978989,0.0102567,1854,1492,7.92747,-4.56361
637,-468,7.95081,4.42322,0.005448,0.00602266,-0.0110567,0.0167958,-0.00532514,-0.798389,0.0133316,0.0137523,1861,1492,7.95083,-4.42321
644,-468,7.90881,4.31189,0.0066854,0.00841293,-0.0146108,0.0221855,-0.00708715,-0.814923,0.017634,0.0259857,1868,1492,7.90878,-4.31186
651,-468,7.96753,4.1427,0.00815562,0.011497,-0.0190882,0.0289875,-0.00933488,-0.829049,0.0230748,0.0441898,1875,1492,7.96751,-4.14272
658,-468,8.10571,3.67834,0.00998103,0.0155107,-0.0246151,0.0375157,-0.012024,-0.841325,0.0298373,0.043461,1882,1492,8.10567,-3.67838
665,-468,8.33728,3.00781,0.011972,0.0206317,-0.0312014,0.0478023,-0.0151986,-0.854344,0.0379625,0.0461193,1889,1492,8.33732,-3.00787
672,-468,10.5131,2.41638,0,0,0,0,0,0,0,-1,1896,1492,10.5131,-2.41639
679,-468,11.2191,1.91968,0,0,0,0,0,0,0,-1,1903,1492,11.2191,-1.91965
686,-468,11.9252,1.42285,0,0,0,0,0,0,0,-1,1910,1492,11.9252,-1.42291
693,-468,0,0,0,0,0,0,0,0,0,-1,1917,1492,0,0
700,-468,0,0,0,0,0,0,0,0,0,-1,1924,1492,0,0
707,-468,0,0,0,0,0,0,0,0,0,-1,1931,1492,0,0
714,-468,0,0,0,0,0,0,0,0,0,-1,1938,1492,0,0
721,-468,0,0,0,0,0,0,0,0,0,-1,1945,1492,0,0
728,-468,0,0,0,0,0,0,0,0,0,-1,1952,1492,0,0
735,-468,0,0,0,0,0,0,0,0,0,-1,1959,1492,0,0
742,-468,0,0,0,0,0,0,0,0,0,-1,1966,1492,0,0
749,-468,0,0,0,0,0,0,0,0,0,-1,1973,1492,0,0
756,-468,0,0,0,0,0,0,0,0,0,-1,1980,1492,0,0
763,-468,0,0,0,0,0,0,0,0,0,-1,1987,1492,0,0
770,-468,0,0,0,0,0,0,0,0,0,-1,1994,1492,0,0
777,-468,0,0,0,0,0,0,0,0,0,-1,2001,1492,0,0
784,-468,0,0,0,0,0,0,0,0,0,-1,2008,1492,0,0
791,-468,0,0,0,0,0,0,0,0,0,-1,2015,1492,0,0
798,-468,0,0,0,0,0,0,0,0,0,-1,2022,1492,0,0
805,-468,0,0,0,0,0,0,0,0,0,-1,2029,1492,0,0
812,-468,0,0,0,0,0,0,0,0,0,-1,2036,1492,0,0
-700,-475,0,0,0,0,0,0,0,0,0,-1,524,1499,0,0
-693,-475,0,0,0,0,0,0,0,0,0,-1,531,1499,0,0
-686,-475,0,0,0,0,0,0,0,0,0,-1,538,1499,0,0
-679,-475,0,0,0,0,0,0,0,0,0,-1,545,1499,0,0
-672,-475,0,0,0,0,0,0,0,0,0,-1,552,1499,0,0
-665,-475,0,0,0,0,0,0,0,0,0,-1,559,1499,0,0
-658,-475,0,0,0,0,0,0,0,0,0,-1,566,1499,0,0
-651,-475,0,0,0,0,0,0,0,0,0,-1,573,1499,0,0
-644,-475,0,0,0,0,0,0,0,0,0,-1,580,1499,0,0
-637,-475,0,0,0,0,0,0,0,0,0,-1,587,1499,0,0
-630,-475,0,0,0,0,0,0,0,0,0,-1,594,1499,0,0
-623,-475,0,0,0,0,0,0,0,0,0,-1,601,1499,0,0
-616,-475,0,0,0,0,0,0,0,0,0,-1,608,1499,0,0
-609,-475,0,0,0,0,0,0,0,0,0,-1,615,1499,0,0
-602,-475,0,0,0,0,0,0,0,0,0,-1,622,1499,0,0
-595,-475,0,0,0,0,0,0,0,0,0,-1,629,1499,0,0
-588,-475,0,0,0,0,0,0,0,0,0,-1,636,1499,0,0
-581,-475,0,0,0,0,0,0,0,0,0,-1,643,1499,0,0
-574,-475,0,0,0,0,0,0,0,0,0,-1,650,1499,0,0
-567,-475,0,0,0,0,0,0,0,0,0,-1,657,1499,0,0
-560,-475,-2.45673,0.628418,0,0,0,0,0,0,0,-1,664,1499,-2.45673,-0.628446
-553,-475,-1.17047,-3.17639,0,0,0,0,0,0,0,-1,671,1499,-1.17046,3.17644
-546,-475,-0.778381,-0.597046,0,0,0,0,0,0,0,-1,678,1499,-0.778369,0.596994
-539,-475,-0.490356,0.564941,0,0,0,0,0,0,0,-1,685,1499,-0.490355,-0.564962
-532,-475,-0.202332,1.72693,0,0,0,0,0,0,0,-1,692,1499,-0.202341,-1.72692
-525,-475,-0.50708,2.47424,0.00544915,0.00846281,0.0161035,0.0231298,-0.00921785,0.832048,0.019243,0.0425743,699,1499,-0.507075,-2.47428
-518,-475,-0.936462,2.93469,0.00304022,0.00606917,0.0121626,0.0168112,-0.0077018,0.847339,0.0144746,0.0461599,706,1499,-0.936478,-2.93471
-511,-475,-1.04803,2.80298,0.00142457,0.0042069,0.00878973,0.0117149,-0.00608341,0.863883,0.0104459,0.0447015,713,1499,-1.04806,-2.80302
-504,-475,-0.873108,2.96021,0.000279136,0.00251152,0.00596969,0.00746847,-0.00467781,0.877819,0.00707408,0.0244506,720,1499,-0.873097,-2.96026
-497,-475,-0.87915,3.13196,-0.000500056,0.00131946,0.00372311,0.00424236,-0.00342295,0.905227,0.00443399,0.0117689,727,1499,-0.879144,-3.13191
-490,-475,-0.887817,3.2688,-0.000938434,0.000379595,0.00204075,0.0018651,-0.00242394,0.941576,0.00248327,0.00813154,734,1499,-0.88781,-3.26884
-483,-475,-0.886414,3.43884,-0.00112551,-0.00038591,0.000470406,-0.000157351,-0.00135407,1.11851,0.0008551,0.00797529,741,1499,-0.886417,-3.43878
-476,-475,-0.880005,3.60059,-0.000132243,-0.00133244,-0.000863548,0.000319246,-0.00178392,-0.481744,0.00130874,0.00937223,748,1499,-0.880019,-3.60057
-469,-475,-0.861145,3.776,0.00149081,-0.00208015,-0.0017782,0.00222524,-0.00281458,-0.391677,0.00291636,0.0113689,755,1499,-0.861146,-3.77599
-462,-475,-0.846436,3.93872,0.0030274,-0.00298674,-0.00259685,0.0039935,-0.00395285,-0.356163,0.00458784,0.0154527,762,1499,-0.846441,-3.93866
-455,-475,-0.871826,4.08044,0.00470487,-0.00443036,-0.00349693,0.00588979,-0.00561527,-0.326703,0.00664308,0.013495,769,1499,-0.871827,-4.08046
-448,-475,-0.906128,4.2168,0.00656956,-0.0064719,-0.00447998,0.00796023,-0.00786256,-0.300987,0.00913535,0.0120913,776,1499,-0.906141,-4.21675
-441,-475,-0.905029,4.37122,0.00857293,-0.00887297,-0.00546987,0.0101461,-0.0104461,-0.280042,0.0118893,0.0144562,783,1499,-0.905016,-4.37118
-434,-475,-0.871338,4.5166,0.0105631,-0.0115292,-0.00650871,0.012338,-0.0133041,-0.266232,0.014808,0.00949725,790,1499,-0.87133,-4.51661
-427,-475,-0.840088,4.68481,0.0125236,-0.0143884,-0.0077584,0.0146,-0.0164648,-0.261509,0.0179461,0.0111878,797,1499,-0.840078,-4.68484
-420,-475,-0.793396,4.83691,0.0143364,-0.0174367,-0.00913464,0.0167753,-0.0198756,-0.260914,0.0211857,0.0161379,804,1499,-0.793407,-4.83694
-413,-475,-0.658752,4.82727,0.0158232,-0.0211499,-0.0104267,0.0185609,-0.0238876,-0.25677,0.0245719,0.030898,811,1499,-0.658774,-4.8273
-406,-475,-0.400513,4.77844,0.0167641,-0.0251852,-0.0116605,0.0197874,-0.0282085,-0.253694,0.0278523,0.047117,818,1499,-0.40054,-4.77849
-399,-475,-0.0664673,4.45776,0,0,0,0,0,0,0,-1,825,1499,-0.0664582,-4.45773
-392,-475,0.515686,4.35669,0,0,0,0,0,0,0,-1,832,1499,0.515704,-4.3567
-385,-475,-0.329346,5.18591,0,0,0,0,0,0,0,-1,839,1499,-0.329376,-5.18588
-378,-475,1.31409,2.90149,0,0,0,0,0,0,0,-1,846,1499,1.31411,-2.90151
-371,-475,2.3476,3.31116,0,0,0,0,0,0,0,-1,853,1499,2.34761,-3.31121
-364,-475,1.04462,9.05823,0,0,0,0,0,0,0,-1,860,1499,1.04461,-9.05825
-357,-475,-0.262756,7.97205,0,0,0,0,0,0,0,-1,867,1499,-0.262784,-7.97205
-350,-475,-2.77173,4.35486,0,0,0,0,0,0,0,-1,874,1499,-2.77175,-4.35491
-343,-475,-6.81641,-1.95203,0,0,0,0,0,0,0,-1,881,1499,-6.81643,1.95198
-336,-475,0,0,0,0,0,0,0,0,0,-1,888,1499,0,0
-329,-475,0,0,0,0,0,0,0,0,0,-1,895,1499,0,0
-322,-475,0,0,0,0,0,0,0,0,0,-1,902,1499,0,0
-315,-475,0,0,0,0,0,0,0,0,0,-1,909,1499,0,0
-308,-475,0,0,0,0,0,0,0,0,0,-1,916,1499,0,0
-301,-475,0,0,0,0,0,0,0,0,0,-1,923,1499,0,0
-294,-475,0,0,0,0,0,0,0,0,0,-1,930,1499,0,0
-287,-475,0,0,0,0,0,0,0,0,0,-1,937,1499,0,0
-280,-475,0,0,0,0,0,0,0,0,0,-1,944,1499,0,0
-273,-475,0,0,0,0,0,0,0,0,0,-1,951,1499,0,0
-266,-475,0,0,0,0,0,0,0,0,0,-1,958,1499,0,0
-259,-475,0,0,0,0,0,0,0,0,0,-1,965,1499,0,0
-252,-475,0,0,0,0,0,0,0,0,0,-1,972,1499,0,0
-245,-475,0,0,0,0,0,0,0,0,0,-1,979,1499,0,0
-238,-475,0,0,0,0,0,0,0,0,0,-1,986,1499,0,0
-231,-475,0,0,0,0,0,0,0,0,0,-1,993,1499,0,0
-224,-475,0,0,0,0,0,0,0,0,0,-1,1000,1499,0,0
-217,-475,0,0,0,0,0,0,0,0,0,-1,1007,1499,0,0
-210,-475,0,0,0,0,0,0,0,0,0,-1,1014,1499,0,0
-203,-475,0,0,0,0,0,0,0,0,0,-1,1021,1499,0,0
-196,-475,0,0,0,0,0,0,0,0,0,-1,1028,1499,0,0
-189,-475,0,0,0,0,0,0,0,0,0,-1,1035,1499,0,0
-182,-475,0,0,0,0,0,0,0,0,0,-1,1042,1499,0,0
-175,-475,0,0,0,0,0,0,0,0,0,-1,1049,1499,0,0
-168,-475,0,0,0,0,0,0,0,0,0,-1,1056,1499,0,0
-161,-475,0,0,0,0,0,0,0,0,0,-1,1063,1499,0,0
-154,-475,0,0,0,0,0,0,0,0,0,-1,1070,1499,0,0
-147,-475,0,0,0,0,0,0,0,0,0,-1,1077,1499,0,0
-140,-475,0,0,0,0,0,0,0,0,0,-1,1084,1499,0,0
-133,-475,0,0,0,0,0,0,0,0,0,-1,1091,1499,0,0
-126,-475,0,0,0,0,0,0,0,0,0,-1,1098,1499,0,0
-119,-475,0,0,0,0,0,0,0,0,0,-1,1105,1499,0,0
-112,-475,0,0,0,0,0,0,0,0,0,-1,1112,1499,0,0
-105,-475,0,0,0,0,0,0,0,0,0,-1,1119,1499,0,0
-98,-475,0,0,0,0,0,0,0,0,0,-1,1126,1499,0,0
-91,-475,0,0,0,0,0,0,0,0,0,-1,1133,1499,0,0
-84,-475,0,0,0,0,0,0,0,0,0,-1,1140,1499,0,0
-77,-475,0,0,0,0,0,0,0,0,0,-1,1147,1499,0,0
-70,-475,0,0,0,0,0,0,0,0,0,-1,1154,1499,0,0
-63,-475,0,0,0,0,0,0,0,0,0,-1,1161,1499,0,0
-56,-475,0,0,0,0,0,0,0,0,0,-1,1168,1499,0,0
-49,-475,0,0,0,0,0,0,0,0,0,-1,1175,1499,0,0
-42,-475,0,0,0,0,0,0,0,0,0,-1,1182,1499,0,0
-35,-475,0,0,0,0,0,0,0,0,0,-1,1189,1499,0,0
-28,-475,0,0,0,0,0,0,0,0,0,-1,1196,1499,0,0
-21,-475,0,0,0,0,0,0,0,0,0,-1,1203,1499,0,0
-14,-475,0,0,0,0,0,0,0,0,0,-1,1210,1499,0,0
-7,-475,0,0,0,0,0,0,0,0,0,-1,1217,1499,0,0
0,-475,0,0,0,0,0,0,0,0,0,-1,1224,1499,0,0
7,-475,0,0,0,0,0,0,0,0,0,-1,1231,1499,0,0
14,-475,0,0,0,0,0,0,0,0,0,-1,1238,1499,0,0
21,-475,0,0,0,0,0,0,0,0,0,-1,1245,1499,0,0
28,-475,0,0,0,0,0,0,0,0,0,-1,1252,1499,0,0
35,-475,0,0,0,0,0,0,0,0,0,-1,1259,1499,0,0
42,-475,0,0,0,0,0,0,0,0,0,-1,1266,1499,0,0
49,-475,0,0,0,0,0,0,0,0,0,-1,1273,1499,0,0
56,-475,0,0,0,0,0,0,0,0,0,-1,1280,1499,0,0
63,-475,0,0,0,0,0,0,0,0,0,-1,1287,1499,0,0
70,-475,0,0,0,0,0,0,0,0,0,-1,1294,1499,0,0
77,-475,0,0,0,0,0,0,0,0,0,-1,1301,1499,0,0
84,-475,0,0,0,0,0,0,0,0,0,-1,1308,1499,0,0
91,-475,0,0,0,0,0,0,0,0,0,-1,1315,1499,0,0
98,-475,0,0,0,0,0,0,0,0,0,-1,1322,1499,0,0
105,-475,0,0,0,0,0,0,0,0,0,-1,1329,1499,0,0
112,-475,0,0,0,0,0,0,0,0,0,-1,1336,1499,0,0
119,-475,0,0,0,0,0,0,0,0,0,-1,1343,1499,0,0
126,-475,0,0,0,0,0,0,0,0,0,-1,1350,1499,0,0
133,-475,0,0,0,0,0,0,0,0,0,-1,1357,1499,0,0
140,-475,0,0,0,0,0,0,0,0,0,-1,1364,1499,0,0
147,-475,0,0,0,0,0,0,0,0,0,-1,1371,1499,0,0
154,-475,0,0,0,0,0,0,0,0,0,-1,1378,1499,0,0
161,-475,0,0,0,0,0,0,0,0,0,-1,1385,1499,0,0
168,-475,0,0,0,0,0,0,0,0,0,-1,1392,1499,0,0
175,-475,0,0,0,0,0,0,0,0,0,-1,1399,1499,0,0
182,-475,0,0,0,0,0,0,0,0,0,-1,1406,1499,0,0
189,-475,0,0,0,0,0,0,0,0,0,-1,1413,1499,0,0
196,-475,0,0,0,0,0,0,0,0,0,-1,1420,1499,0,0
203,-475,0,0,0,0,0,0,0,0,0,-1,1427,1499,0,0
210,-475,0,0,0,0,0,0,0,0,0,-1,1434,1499,0,0
217,-475,0,0,0,0,0,0,0,0,0,-1,1441,1499,0,0
224,-475,0,0,0,0,0,0,0,0,0,-1,1448,1499,0,0
231,-475,0,0,0,0,0,0,0,0,0,-1,1455,1499,0,0
238,-475,0,0,0,0,0,0,0,0,0,-1,1462,1499,0,0
245,-475,0,0,0,0,0,0,0,0,0,-1,1469,1499,0,0
252,-475,0,0,0,0,0,0,0,0,0,-1,1476,1499,0,0
259,-475,0,0,0,0,0,0,0,0,0,-1,1483,1499,0,0
266,-475,0,0,0,0,0,0,0,0,0,-1,1490,1499,0,0
273,-475,0,0,0,0,0,0,0,0,0,-1,1497,1499,0,0
280,-475,0,0,0,0,0,0,0,0,0,-1,1504,1499,0,0
287,-475,0,0,0,0,0,0,0,0,0,-1,1511,1499,0,0
294,-475,0,0,0,0,0,0,0,0,0,-1,1518,1499,0,0
301,-475,0,0,0,0,0,0,0,0,0,-1,1525,1499,0,0
308,-475,0,0,0,0,0,0,0,0,0,-1,1532,1499,0,0
315,-475,0,0,0,0,0,0,0,0,0,-1,1539,1499,0,0
322,-475,0,0,0,0,0,0,0,0,0,-1,1546,1499,0,0
329,-475,0,0,0,0,0,0,0,0,0,-1,1553,1499,0,0
336,-475,0,0,0,0,0,0,0,0,0,-1,1560,1499,0,0
343,-475,0,0,0,0,0,0,0,0,0,-1,1567,1499,0,0
350,-475,0,0,0,0,0,0,0,0,0,-1,1574,1499,0,0
357,-475,0,0,0,0,0,0,0,0,0,-1,1581,1499,0,0
364,-475,0,0,0,0,0,0,0,0,0,-1,1588,1499,0,0
371,-475,0,0,0,0,0,0,0,0,0,-1,1595,1499,0,0
378,-475,0,0,0,0,0,0,0,0,0,-1,1602,1499,0,0
385,-475,0,0,0,0,0,0,0,0,0,-1,1609,1499,0,0
392,-475,0,0,0,0,0,0,0,0,0,-1,1616,1499,0,0
399,-475,0,0,0,0,0,0,0,0,0,-1,1623,1499,0,0
406,-475,0,0,0,0,0,0,0,0,0,-1,1630,1499,0,0
413,-475,0,0,0,0,0,0,0,0,0,-1,1637,1499,0,0
420,-475,0,0,0,0,0,0,0,0,0,-1,1644,1499,0,0
427,-475,0,0,0,0,0,0,0,0,0,-1,1651,1499,0,0
434,-475,0,0,0,0,0,0,0,0,0,-1,1658,1499,0,0
441,-475,0,0,0,0,0,0,0,0,0,-1,1665,1499,0,0
448,-475,0,0,0,0,0,0,0,0,0,-1,1672,1499,0,0
455,-475,0,0,0,0,0,0,0,0,0,-1,1679,1499,0,0
462,-475,12.6372,0.275391,0,0,0,0,0,0,0,-1,1686,1499,12.6372,-0.27536
469,-475,11.9341,1.77429,0,0,0,0,0,0,0,-1,1693,1499,11.9341,-1.77433
476,-475,16.1622,-1.2688,0,0,0,0,0,0,0,-1,1700,1499,16.1622,1.26879
483,-475,16.135,-1.3772,0,0,0,0,0,0,0,-1,1707,1499,16.135,1.37714
490,-475,8.67163,3.84253,0,0,0,0,0,0,0,-1,1714,1499,8.67164,-3.84258
497,-475,9.21558,3.86768,0,0,0,0,0,0,0,-1,1721,1499,9.21559,-3.86768
504,-475,9.75952,3.89282,0,0,0,0,0,0,0,-1,1728,1499,9.75955,-3.89277
511,-475,7.9314,4.58923,0,0,0,0,0,0,0,-1,1735,1499,7.93134,-4.58924
518,-475,7.63037,4.90308,0,0,0,0,0,0,0,-1,1742,1499,7.63038,-4.90312
525,-475,7.45984,5.15869,-0.0103651,-0.038467,0.0137777,-0.00473722,-0.0440948,0.38779,0.0279516,0.0455674,1749,1499,7.45988,-5.15865
532,-475,7.54382,5.36572,-0.0092753,-0.032462,0.0108252,-0.00500703,-0.0367303,0.375574,0.0230003,0.0428024,1756,1499,7.54378,-5.36576
539,-475,7.65198,5.68054,-0.00829789,-0.0270012,0.00927152,-0.00448084,-0.0308182,0.390548,0.0192267,0.0430879,1763,1499,7.65192,-5.68057
546,-475,7.78088,5.99036,-0.0071553,-0.0230695,0.00835428,-0.0035751,-0.0266497,0.404871,0.0167028,0.038137,1770,1499,7.78094,-5.9903
553,-475,7.83289,6.06433,-0.00662675,-0.0183309,0.00782669,-0.00270622,-0.0222515,0.464381,0.0140196,0.0187763,1777,1499,7.83293,-6.06437
560,-475,7.7511,5.99121,-0.00637964,-0.0141136,0.0069014,-0.00233568,-0.0181575,0.530034,0.0114065,0.0135461,1784,1499,7.75109,-5.99116
567,-475,7.77625,5.83435,-0.00508938,-0.0111519,0.0056464,-0.00171203,-0.0145293,0.539052,0.00916894,0.0136483,1791,1499,7.77629,-5.83434
574,-475,7.7655,5.69263,-0.00370106,-0.00857297,0.0043159,-0.00118112,-0.0110929,0.528477,0.0070347,0.0133807,1798,1499,7.76545,-5.69269
581,-475,7.77063,5.57153,-0.00259108,-0.00622722,0.00283851,-0.00103832,-0.00777998,0.500564,0.00487753,0.011312,1805,1499,7.77059,-5.57156
588,-475,7.77112,5.4325,-0.0013614,-0.00360417,0.00129209,-0.000771933,-0.00419363,0.428006,0.00257727,0.00975876,1812,1499,7.77114,-5.43253
595,-475,7.78528,5.29053,0.000163398,-0.00132638,-0.000674103,0.000423136,-0.00158612,-0.367777,0.0012231,0.0110522,1819,1499,7.7853,-5.29053
602,-475,7.79761,5.14075,0.00183728,0.000703695,-0.00278615,0.0041137,-0.00157273,-0.685052,0.00339056,0.0129527,1826,1499,7.79761,-5.14069
609,-475,7.78955,4.98547,0.00356184,0.00251934,-0.00536854,0.00843437,-0.00235319,-0.737003,0.00654977,0.0115856,1833,1499,7.78957,-4.98543
616,-475,7.75977,4.85706,0.00525275,0.00428266,-0.00840521,0.0131869,-0.00365149,-0.756576,0.0102281,0.0102873,1840,1499,7.75972,-4.85704
623,-475,7.76025,4.70532,0.00692142,0.00633465,-0.0118895,0.0185212,-0.00526512,-0.773063,0.0144264,0.0100208,1847,1499,7.76029,-4.70537
630,-475,7.79443,4.5697,0.00856743,0.0089253,-0.0160984,0.0248457,-0.00735301,-0.790956,0.019483,0.0119847,1854,1499,7.79441,-4.56969
637,-475,7.82666,4.4895,0.0105038,0.0118601,-0.0210727,0.0322656,-0.00990166,-0.801483,0.025461,0.023358,1861,1499,7.82665,-4.48956
644,-475,7.72717,4.54773,0.0127592,0.0156745,-0.0270839,0.0413399,-0.0129062,-0.812282,0.0327217,0.0477281,1868,1499,7.72721,-4.54767
651,-475,7.74524,4.45398,0,0,0,0,0,0,0,-1,1875,1499,7.74521,-4.45401
658,-475,8.01257,3.90295,0,0,0,0,0,0,0,-1,1882,1499,8.01262,-3.90295
665,-475,8.22778,3.22974,0,0,0,0,0,0,0,-1,1889,1499,8.22777,-3.22977
672,-475,9.38635,1.10474,0,0,0,0,0,0,0,-1,1896,1499,9.38629,-1.10475
679,-475,12.2594,1.31079,0,0,0,0,0,0,0,-1,1903,1499,12.2594,-1.31077
686,-475,0,0,0,0,0,0,0,0,0,-1,1910,1499,0,0
693,-475,0,0,0,0,0,0,0,0,0,-1,1917,1499,0,0
700,-475,0,0,0,0,0,0,0,0,0,-1,1924,1499,0,0
707,-475,0,0,0,0,0,0,0,0,0,-1,1931,1499,0,0
714,-475,0,0,0,0,0,0,0,0,0,-1,1938,1499,0,0
721,-475,0,0,0,0,0,0,0,0,0,-1,1945,1499,0,0
728,-475,0,0,0,0,0,0,0,0,0,-1,1952,1499,0,0
735,-475,0,0,0,0,0,0,0,0,0,-1,1959,1499,0,0
742,-475,0,0,0,0,0,0,0,0,0,-1,1966,1499,0,0
749,-475,0,0,0,0,0,0,0,0,0,-1,1973,1499,0,0
756,-475,0,0,0,0,0,0,0,0,0,-1,1980,1499,0,0
763,-475,0,0,0,0,0,0,0,0,0,-1,1987,1499,0,0
770,-475,0,0,0,0,0,0,0,0,0,-1,1994,1499,0,0
777,-475,0,0,0,0,0,0,0,0,0,-1,2001,1499,0,0
784,-475,0,0,0,0,0,0,0,0,0,-1,2008,1499,0,0
791,-475,0,0,0,0,0,0,0,0,0,-1,2015,1499,0,0
798,-475,0,0,0,0,0,0,0,0,0,-1,2022,1499,0,0
805,-475,0,0,0,0,0,0,0,0,0,-1,2029,1499,0,0
812,-475,0,0,0,0,0,0,0,0,0,-1,2036,1499,0,0
-700,-482,0,0,0,0,0,0,0,0,0,-1,524,1506,0,0
-693,-482,0,0,0,0,0,0,0,0,0,-1,531,1506,0,0
-686,-482,0,0,0,0,0,0,0,0,0,-1,538,1506,0,0
-679,-482,0,0,0,0,0,0,0,0,0,-1,545,1506,0,0
-672,-482,0,0,0,0,0,0,0,0,0,-1,552,1506,0,0
-665,-482,0,0,0,0,0,0,0,0,0,-1,559,1506,0,0
-658,-482,0,0,0,0,0,0,0,0,0,-1,566,1506,0,0
-651,-482,0,0,0,0,0,0,0,0,0,-1,573,1506,0,0
-644,-482,0,0,0,0,0,0,0,0,0,-1,580,1506,0,0
-637,-482,0,0,0,0,0,0,0,0,0,-1,587,1506,0,0
-630,-482,0,0,0,0,0,0,0,0,0,-1,594,1506,0,0
-623,-482,0,0,0,0,0,0,0,0,0,-1,601,1506,0,0
-616,-482,0,0,0,0,0,0,0,0,0,-1,608,1506,0,0
-609,-482,0,0,0,0,0,0,0,0,0,-1,615,1506,0,0
-602,-482,0,0,0,0,0,0,0,0,0,-1,622,1506,0,0
-595,-482,0,0,0,0,0,0,0,0,0,-1,629,1506,0,0
-588,-482,0,0,0,0,0,0,0,0,0,-1,636,1506,0,0
-581,-482,0,0,0,0,0,0,0,0,0,-1,643,1506,0,0
-574,-482,0,0,0,0,0,0,0,0,0,-1,650,1506,0,0
-567,-482,0,0,0,0,0,0,0,0,0,-1,657,1506,0,0
-560,-482,0,0,0,0,0,0,0,0,0,-1,664,1506,0,0
-553,-482,-0.766541,-2.18811,0,0,0,0,0,0,0,-1,671,1506,-0.76653,2.18805
-546,-482,-0.387024,-0.890503,0,0,0,0,0,0,0,-1,678,1506,-0.387019,0.890494
-539,-482,0.121582,0.531128,0.00993267,0.0116678,0.0277565,0.0385703,-0.0169698,0.801021,0.0328645,0.0437851,685,1506,0.121598,-0.53109
-532,-482,0.482727,1.89331,0.00587055,0.00891843,0.022296,0.0297425,-0.0149536,0.81952,0.026272,0.0448208,692,1506,0.48272,-1.89327
-525,-482,0.0678711,2.5813,0.00315475,0.00707632,0.0174521,0.0226774,-0.0124464,0.84134,0.0205635,0.0443249,699,1506,0.0678978,-2.5813
-518,-482,-0.805908,3.02283,0,0,0,0,0,0,0,-1,706,1506,-0.805916,-3.02282
-511,-482,-0.972656,2.79004,0,0,0,0,0,0,0,-1,713,1506,-0.972634,-2.79008
-504,-482,-0.750671,2.85315,-0.000627207,0.00295182,0.00644919,0.00785517,-0.00553056,0.920733,0.007767,0.0389875,720,1506,-0.750658,-2.85312
-497,-482,-0.685913,3.10059,-0.00119627,0.00198819,0.0040468,0.00474472,-0.0039528,0.972824,0.00502845,0.0208851,727,1506,-0.685893,-3.10062
-490,-482,-0.727905,3.24536,-0.00156213,0.00118673,0.00230105,0.00249258,-0.00286798,1.05462,0.00309745,0.0128972,734,1506,-0.727918,-3.24535
-483,-482,-0.718933,3.41797,-0.00180881,0.000616105,0.00072856,0.000818163,-0.00201086,1.30026,0.00168103,0.00825444,741,1506,-0.718947,-3.41795
-476,-482,-0.710571,3.58691,-0.000902333,-0.000191822,-0.000424032,6.10406e-06,-0.00110026,-1.13408,0.000735549,0.0094292,748,1506,-0.710588,-3.58691
-469,-482,-0.70813,3.7677,0.000541496,-0.000747718,-0.00100042,0.001087,-0.00129322,-0.499206,0.00137593,0.0108604,755,1506,-0.708123,-3.76764
-462,-482,-0.700317,3.92834,0.00177305,-0.00141875,-0.0014006,0.0023005,-0.00194619,-0.360157,0.00245467,0.0118387,762,1506,-0.700321,-3.9283
-455,-482,-0.718201,4.07935,0.0031588,-0.0025098,-0.00184402,0.00370587,-0.00305687,-0.288402,0.00391046,0.0121789,769,1506,-0.718193,-4.07932
-448,-482,-0.730896,4.2301,0.00475224,-0.00405935,-0.00232972,0.00533028,-0.00463739,-0.243205,0.00575947,0.0124087,776,1506,-0.730917,-4.23014
-441,-482,-0.721741,4.37842,0.00642592,-0.00592099,-0.00281103,0.00703579,-0.00653086,-0.213643,0.00783452,0.0117179,783,1506,-0.721748,-4.37839
-434,-482,-0.705688,4.53333,0.00808917,-0.00791978,-0.00331362,0.00874793,-0.00857855,-0.196246,0.0100036,0.0138544,790,1506,-0.705667,-4.53327
-427,-482,-0.695618,4.71301,0.00980946,-0.0100071,-0.00403893,0.010601,-0.0107987,-0.193534,0.0123553,0.015241,797,1506,-0.695637,-4.71306
-420,-482,-0.674072,4.95789,0.0115362,-0.0121897,-0.0049365,0.0125223,-0.0131759,-0.197166,0.0148385,0.0192926,804,1506,-0.674087,-4.95788
-413,-482,-0.586792,5.02795,0.0131354,-0.0150078,-0.0058104,0.0142878,-0.0161602,-0.195796,0.0175902,0.0249317,811,1506,-0.586787,-5.02798
-406,-482,-0.378296,4.79211,0.0144998,-0.0181592,-0.00672417,0.0158301,-0.0194894,-0.19531,0.0204282,0.0389683,818,1506,-0.378292,-4.79217
-399,-482,-0.117004,4.63232,0.015712,-0.0219224,-0.00777454,0.0172548,-0.0234652,-0.1959,0.0236007,0.0479349,825,1506,-0.117017,-4.63228
-392,-482,-0.0581055,4.60498,0.0185084,-0.0283923,-0.00711712,0.0195646,-0.0294486,-0.147331,0.0284889,0.049317,832,1506,-0.0581217,-4.60496
-385,-482,0.0323486,4.62524,0,0,0,0,0,0,0,-1,839,1506,0.0323747,-4.62527
-378,-482,0.280212,4.70142,0,0,0,0,0,0,0,-1,846,1506,0.280206,-4.70137
-371,-482,-0.10907,8.10437,0,0,0,0,0,0,0,-1,853,1506,-0.109063,-8.10433
-364,-482,-0.154968,10.5032,0,0,0,0,0,0,0,-1,860,1506,-0.154976,-10.5032
-357,-482,2.14807,4.60144,0,0,0,0,0,0,0,-1,867,1506,2.14807,-4.60144
-350,-482,-7.5813,-1.45935,0,0,0,0,0,0,0,-1,874,1506,-7.58133,1.45937
-343,-482,-7.19983,-1.26416,0.0629102,-0.0491091,0.0304667,0.0706602,-0.0568591,0.249095,0.0737669,0.0460284,881,1506,-7.19981,1.26414
-336,-482,-6.78491,-1.18127,0.0734737,-0.0465582,0.0355272,0.0832008,-0.0562854,0.267244,0.0810306,0.040788,888,1506,-6.78488,1.18125
-329,-482,0,0,0,0,0,0,0,0,0,-1,895,1506,0,0
-322,-482,0,0,0,0,0,0,0,0,0,-1,902,1506,0,0
-315,-482,0,0,0,0,0,0,0,0,0,-1,909,1506,0,0
-308,-482,0,0,0,0,0,0,0,0,0,-1,916,1506,0,0
-301,-482,0,0,0,0,0,0,0,0,0,-1,923,1506,0,0
-294,-482,0,0,0,0,0,0,0,0,0,-1,930,1506,0,0
-287,-482,0,0,0,0,0,0,0,0,0,-1,937,1506,0,0
-280,-482,0,0,0,0,0,0,0,0,0,-1,944,1506,0,0
-273,-482,0,0,0,0,0,0,0,0,0,-1,951,1506,0,0
-266,-482,0,0,0,0,0,0,0,0,0,-1,958,1506,0,0
-259,-482,0,0,0,0,0,0,0,0,0,-1,965,1506,0,0
-252,-482,0,0,0,0,0,0,0,0,0,-1,972,1506,0,0
-245,-482,0,0,0,0,0,0,0,0,0,-1,979,1506,0,0
-238,-482,0,0,0,0,0,0,0,0,0,-1,986,1506,0,0
-231,-482,0,0,0,0,0,0,0,0,0,-1,993,1506,0,0
-224,-482,0,0,0,0,0,0,0,0,0,-1,1000,1506,0,0
-217,-482,0,0,0,0,0,0,0,0,0,-1,1007,1506,0,0
-210,-482,0,0,0,0,0,0,0,0,0,-1,1014,1506,0,0
-203,-482,0,0,0,0,0,0,0,0,0,-1,1021,1506,0,0
-196,-482,0,0,0,0,0,0,0,0,0,-1,1028,1506,0,0
-189,-482,0,0,0,0,0,0,0,0,0,-1,1035,1506,0,0
-182,-482,0,0,0,0,0,0,0,0,0,-1,1042,1506,0,0
-175,-482,0,0,0,0,0,0,0,0,0,-1,1049,1506,0,0
-168,-482,0,0,0,0,0,0,0,0,0,-1,1056,1506,0,0
-161,-482,0,0,0,0,0,0,0,0,0,-1,1063,1506,0,0
-154,-482,0,0,0,0,0,0,0,0,0,-1,1070,1506,0,0
-147,-482,0,0,0,0,0,0,0,0,0,-1,1077,1506,0,0
-140,-482,0,0,0,0,0,0,0,0,0,-1,1084,1506,0,0
-133,-482,0,0,0,0,0,0,0,0,0,-1,1091,1506,0,0
-126,-482,0,0,0,0,0,0,0,0,0,-1,1098,1506,0,0
-119,-482,0,0,0,0,0,0,0,0,0,-1,1105,1506,0,0
-112,-482,0,0,0,0,0,0,0,0,0,-1,1112,1506,0,0
-105,-482,0,0,0,0,0,0,0,0,0,-1,1119,1506,0,0
-98,-482,0,0,0,0,0,0,0,0,0,-1,1126,1506,0,0
-91,-482,0,0,0,0,0,0,0,0,0,-1,1133,1506,0,0
-84,-482,0,0,0,0,0,0,0,0,0,-1,1140,1506,0,0
-77,-482,0,0,0,0,0,0,0,0,0,-1,1147,1506,0,0
-70,-482,0,0,0,0,0,0,0,0,0,-1,1154,1506,0,0
-63,-482,0,0,0,0,0,0,0,0,0,-1,1161,1506,0,0
-56,-482,0,0,0,0,0,0,0,0,0,-1,1168,1506,0,0
-49,-482,0,0,0,0,0,0,0,0,0,-1,1175,1506,0,0
-42,-482,0,0,0,0,0,0,0,0,0,-1,1182,1506,0,0
-35,-482,0,0,0,0,0,0,0,0,0,-1,1189,1506,0,0
-28,-482,0,0,0,0,0,0,0,0,0,-1,1196,1506,0,0
-21,-482,0,0,0,0,0,0,0,0,0,-1,1203,1506,0,0
-14,-482,0,0,0,0,0,0,0,0,0,-1,1210,1506,0,0
-7,-482,0,0,0,0,0,0,0,0,0,-1,1217,1506,0,0
0,-482,0,0,0,0,0,0,0,0,0,-1,1224,1506,0,0
7,-482,0,0,0,0,0,0,0,0,0,-1,1231,1506,0,0
14,-482,0,0,0,0,0,0,0,0,0,-1,1238,1506,0,0
21,-482,0,0,0,0,0,0,0,0,0,-1,1245,1506,0,0
28,-482,0,0,0,0,0,0,0,0,0,-1,1252,1506,0,0
35,-482,0,0,0,0,0,0,0,0,0,-1,1259,1506,0,0
42,-482,0,0,0,0,0,0,0,0,0,-1,1266,1506,0,0
49,-482,0,0,0,0,0,0,0,0,0,-1,1273,1506,0,0
56,-482,0,0,0,0,0,0,0,0,0,-1,1280,1506,0,0
63,-482,0,0,0,0,0,0,0,0,0,-1,1287,1506,0,0
70,-482,0,0,0,0,0,0,0,0,0,-1,1294,1506,0,0
77,-482,0,0,0,0,0,0,0,0,0,-1,1301,1506,0,0
84,-482,0,0,0,0,0,0,0,0,0,-1,1308,1506,0,0
91,-482,0,0,0,0,0,0,0,0,0,-1,1315,1506,0,0
98,-482,0,0,0,0,0,0,0,0,0,-1,1322,1506,0,0
105,-482,0,0,0,0,0,0,0,0,0,-1,1329,1506,0,0
112,-482,0,0,0,0,0,0,0,0,0,-1,1336,1506,0,0
119,-482,0,0,0,0,0,0,0,0,0,-1,1343,1506,0,0
126,-482,0,0,0,0,0,0,0,0,0,-1,1350,1506,0,0
133,-482,0,0,0,0,0,0,0,0,0,-1,1357,1506,0,0
140,-482,0,0,0,0,0,0,0,0,0,-1,1364,1506,0,0
147,-482,0,0,0,0,0,0,0,0,0,-1,1371,1506,0,0
154,-482,0,0,0,0,0,0,0,0,0,-1,1378,1506,0,0
161,-482,0,0,0,0,0,0,0,0,0,-1,1385,1506,0,0
168,-482,0,0,0,0,0,0,0,0,0,-1,1392,1506,0,0
175,-482,0,0,0,0,0,0,0,0,0,-1,1399,1506,0,0
182,-482,0,0,0,0,0,0,0,0,0,-1,1406,1506,0,0
189,-482,0,0,0,0,0,0,0,0,0,-1,1413,1506,0,0
196,-482,0,0,0,0,0,0,0,0,0,-1,1420,1506,0,0
203,-482,0,0,0,0,0,0,0,0,0,-1,1427,1506,0,0
210,-482,0,0,0,0,0,0,0,0,0,-1,1434,1506,0,0
217,-482,0,0,0,0,0,0,0,0,0,-1,1441,1506,0,0
224,-482,0,0,0,0,0,0,0,0,0,-1,1448,1506,0,0
231,-482,0,0,0,0,0,0,0,0,0,-1,1455,1506,0,0
238,-482,0,0,0,0,0,0,0,0,0,-1,1462,1506,0,0
245,-482,0,0,0,0,0,0,0,0,0,-1,1469,1506,0,0
252,-482,0,0,0,0,0,0,0,0,0,-1,1476,1506,0,0
259,-482,0,0,0,0,0,0,0,0,0,-1,1483,1506,0,0
266,-482,0,0,0,0,0,0,0,0,0,-1,1490,1506,0,0
273,-482,0,0,0,0,0,0,0,0,0,-1,1497,1506,0,0
280,-482,0,0,0,0,0,0,0,0,0,-1,1504,1506,0,0
287,-482,0,0,0,0,0,0,0,0,0,-1,1511,1506,0,0
294,-482,0,0,0,0,0,0,0,0,0,-1,1518,1506,0,0
301,-482,0,0,0,0,0,0,0,0,0,-1,1525,1506,0,0
308,-482,0,0,0,0,0,0,0,0,0,-1,1532,1506,0,0
315,-482,0,0,0,0,0,0,0,0,0,-1,1539,1506,0,0
322,-482,0,0,0,0,0,0,0,0,0,-1,1546,1506,0,0
329,-482,0,0,0,0,0,0,0,0,0,-1,1553,1506,0,0
336,-482,0,0,0,0,0,0,0,0,0,-1,1560,1506,0,0
343,-482,0,0,0,0,0,0,0,0,0,-1,1567,1506,0,0
350,-482,0,0,0,0,0,0,0,0,0,-1,1574,1506,0,0
357,-482,0,0,0,0,0,0,0,0,0,-1,1581,1506,0,0
364,-482,0,0,0,0,0,0,0,0,0,-1,1588,1506,0,0
371,-482,0,0,0,0,0,0,0,0,0,-1,1595,1506,0,0
378,-482,0,0,0,0,0,0,0,0,0,-1,1602,1506,0,0
385,-482,0,0,0,0,0,0,0,0,0,-1,1609,1506,0,0
392,-482,0,0,0,0,0,0,0,0,0,-1,1616,1506,0,0
399,-482,0,0,0,0,0,0,0,0,0,-1,1623,1506,0,0
406,-482,0,0,0,0,0,0,0,0,0,-1,1630,1506,0,0
413,-482,0,0,0,0,0,0,0,0,0,-1,1637,1506,0,0
420,-482,0,0,0,0,0,0,0,0,0,-1,1644,1506,0,0
427,-482,0,0,0,0,0,0,0,0,0,-1,1651,1506,0,0
434,-482,0,0,0,0,0,0,0,0,0,-1,1658,1506,0,0
441,-482,0,0,0,0,0,0,0,0,0,-1,1665,1506,0,0
448,-482,4.24146,1.55383,0,0,0,0,0,0,0,-1,1672,1506,4.24149,-1.55381
455,-482,12.4122,1.09729,0,0,0,0,0,0,0,-1,1679,1506,12.4122,-1.09734
462,-482,12.5951,0.685303,0,0,0,0,0,0,0,-1,1686,1506,12.5951,-0.685337
469,-482,12.7781,0.273315,0,0,0,0,0,0,0,-1,1693,1506,12.778,-0.27333
476,-482,14.9156,-0.399048,-0.00053805,-0.0577918,0.0217314,0.00677602,-0.0651059,0.324658,0.0458299,0.0466553,1700,1506,14.9157,0.399072
483,-482,14.6901,-0.605713,-0.00417688,-0.0586205,0.0259626,0.00621888,-0.0690163,0.380863,0.0482177,0.0479614,1707,1506,14.6901,0.60566
490,-482,8.13062,4.31091,0,0,0,0,0,0,0,-1,1714,1506,8.13058,-4.31092
497,-482,9.02148,4.43091,0,0,0,0,0,0,0,-1,1721,1506,9.02143,-4.43093
504,-482,9.91223,4.5509,0,0,0,0,0,0,0,-1,1728,1506,9.91229,-4.55095
511,-482,8.01624,5.35583,0,0,0,0,0,0,0,-1,1735,1506,8.01618,-5.35587
518,-482,7.91919,4.89526,0,0,0,0,0,0,0,-1,1742,1506,7.91916,-4.89523
525,-482,7.71558,6.37842,0,0,0,0,0,0,0,-1,1749,1506,7.71553,-6.37837
532,-482,7.62415,6.06201,-0.00647824,-0.0297655,0.00977744,-0.00291751,-0.0333262,0.34925,0.0213116,0.0429909,1756,1506,7.6241,-6.06202
539,-482,7.65588,6.02783,-0.00558313,-0.0238296,0.00788679,-0.00264674,-0.026766,0.356418,0.0170305,0.031387,1763,1506,7.65594,-6.02778
546,-482,7.64783,6.19287,-0.00471056,-0.0196675,0.00673603,-0.00212416,-0.0222539,0.366607,0.014181,0.0166469,1770,1506,7.64778,-6.19282
553,-482,7.62048,6.10596,-0.00427791,-0.0151069,0.00608178,-0.00154963,-0.0178352,0.421688,0.0114087,0.013503,1777,1506,7.62054,-6.10596
560,-482,7.62073,5.97681,-0.00399614,-0.0112451,0.00520493,-0.00127805,-0.0139632,0.481261,0.00891336,0.0121165,1784,1506,7.6207,-5.97676
567,-482,7.64819,5.84216,-0.00288386,-0.00852154,0.00406931,-0.000752436,-0.010653,0.482491,0.00686492,0.0148218,1791,1506,7.6482,-5.84222
574,-482,7.64087,5.72815,-0.00154352,-0.00620958,0.00267578,-0.000326498,-0.0074266,0.426861,0.0048459,0.0137048,1798,1506,7.6409,-5.7282
581,-482,7.63428,5.60107,-0.000334017,-0.00401599,0.000980852,-8.90265e-05,-0.00426098,0.244766,0.00281145,0.00965557,1805,1506,7.63424,-5.60102
588,-482,7.63281,5.44604,0.00111674,-0.00140073,-0.00118734,0.00158838,-0.00187237,-0.378109,0.0020003,0.0101882,1812,1506,7.6328,-5.44608
595,-482,7.64404,5.27417,0.00299251,0.00108222,-0.00396794,0.00611865,-0.00204392,-0.667288,0.00490448,0.0163948,1819,1506,7.64401,-5.27422
602,-482,7.68884,5.104,0.00510672,0.00342653,-0.00711541,0.0114315,-0.0028982,-0.726637,0.00874855,0.0213912,1826,1506,7.68879,-5.10399
609,-482,7.66418,4.98547,0.00742194,0.00584043,-0.0110002,0.0176598,-0.00439744,-0.749517,0.0134803,0.0163991,1833,1506,7.66423,-4.98542
616,-482,7.63123,4.85107,0.00991633,0.00847353,-0.0156712,0.0248827,-0.00649289,-0.762398,0.0191238,0.0113902,1840,1506,7.6312,-4.85108
623,-482,7.62549,4.71387,0.0125538,0.0116382,-0.0212169,0.0333179,-0.00912587,-0.774611,0.0257977,0.0102884,1847,1506,7.62546,-4.7139
630,-482,7.67273,4.61462,0.0153721,0.0155987,-0.0279797,0.0434653,-0.0124946,-0.787422,0.0339177,0.0193513,1854,1506,7.67269,-4.61462
637,-482,7.57788,4.68396,0.0186843,0.0202695,-0.0360269,0.0555125,-0.0165588,-0.796396,0.0435893,0.0425543,1861,1506,7.57786,-4.68401
644,-482,7.46863,4.65051,0,0,0,0,0,0,0,-1,1868,1506,7.46857,-4.65054
651,-482,4.03845,7.05273,0,0,0,0,0,0,0,-1,1875,1506,4.03843,-7.05279
658,-482,2.6803,3.83582,0,0,0,0,0,0,0,-1,1882,1506,2.68028,-3.83587
665,-482,8.15198,3.22229,0,0,0,0,0,0,0,-1,1889,1506,8.15199,-3.22232
672,-482,9.87415,1.3147,0,0,0,0,0,0,0,-1,1896,1506,9.87416,-1.31473
679,-482,0,0,0,0,0,0,0,0,0,-1,1903,1506,0,0
686,-482,0,0,0,0,0,0,0,0,0,-1,1910,1506,0,0
693,-482,0,0,0,0,0,0,0,0,0,-1,1917,1506,0,0
700,-482,0,0,0,0,0,0,0,0,0,-1,1924,1506,0,0
707,-482,0,0,0,0,0,0,0,0,0,-1,1931,1506,0,0
714,-482,0,0,0,0,0,0,0,0,0,-1,1938,1506,0,0
721,-482,0,0,0,0,0,0,0,0,0,-1,1945,1506,0,0
728,-482,0,0,0,0,0,0,0,0,0,-1,1952,1506,0,0
735,-482,0,0,0,0,0,0,0,0,0,-1,1959,1506,0,0
742,-482,0,0,0,0,0,0,0,0,0,-1,1966,1506,0,0
749,-482,0,0,0,0,0,0,0,0,0,-1,1973,1506,0,0
756,-482,0,0,0,0,0,0,0,0,0,-1,1980,1506,0,0
763,-482,0,0,0,0,0,0,0,0,0,-1,1987,1506,0,0
770,-482,0,0,0,0,0,0,0,0,0,-1,1994,1506,0,0
777,-482,0,0,0,0,0,0,0,0,0,-1,2001,1506,0,0
784,-482,0,0,0,0,0,0,0,0,0,-1,2008,1506,0,0
791,-482,0,0,0,0,0,0,0,0,0,-1,2015,1506,0,0
798,-482,0,0,0,0,0,0,0,0,0,-1,2022,1506,0,0
805,-482,0,0,0,0,0,0,0,0,0,-1,2029,1506,0,0
812,-482,0,0,0,0,0,0,0,0,0,-1,2036,1506,0,0
-700,-489,0,0,0,0,0,0,0,0,0,-1,524,1513,0,0
-693,-489,0,0,0,0,0,0,0,0,0,-1,531,1513,0,0
-686,-489,0,0,0,0,0,0,0,0,0,-1,538,1513,0,0
-679,-489,0,0,0,0,0,0,0,0,0,-1,545,1513,0,0
-672,-489,0,0,0,0,0,0,0,0,0,-1,552,1513,0,0
-665,-489,0,0,0,0,0,0,0,0,0,-1,559,1513,0,0
-658,-489,0,0,0,0,0,0,0,0,0,-1,566,1513,0,0
-651,-489,0,0,0,0,0,0,0,0,0,-1,573,1513,0,0
-644,-489,0,0,0,0,0,0,0,0,0,-1,580,1513,0,0
-637,-489,0,0,0,0,0,0,0,0,0,-1,587,1513,0,0
-630,-489,0,0,0,0,0,0,0,0,0,-1,594,1513,0,0
-623,-489,0,0,0,0,0,0,0,0,0,-1,601,1513,0,0
-616,-489,0,0,0,0,0,0,0,0,0,-1,608,1513,0,0
-609,-489,0,0,0,0,0,0,0,0,0,-1,615,1513,0,0
-602,-489,0,0,0,0,0,0,0,0,0,-1,622,1513,0,0
-595,-489,0,0,0,0,0,0,0,0,0,-1,629,1513,0,0
-588,-489,0,0,0,0,0,0,0,0,0,-1,636,1513,0,0
-581,-489,0,0,0,0,0,0,0,0,0,-1,643,1513,0,0
-574,-489,0,0,0,0,0,0,0,0,0,-1,650,1513,0,0
-567,-489,0,0,0,0,0,0,0,0,0,-1,657,1513,0,0
-560,-489,0,0,0,0,0,0,0,0,0,-1,664,1513,0,0
-553,-489,-0.162048,-1.1333,0,0,0,0,0,0,0,-1,671,1513,-0.162038,1.13325
-546,-489,-0.112671,-1.05566,0,0,0,0,0,0,0,-1,678,1513,-0.112645,1.05571
-539,-489,0.378967,0.359985,0.00436791,0.00680895,0.030397,0.0360099,-0.024833,0.805464,0.0353247,0.0497906,685,1513,0.378952,-0.360037
-532,-489,0.732544,1.74182,0.00185186,0.00608281,0.0242247,0.0282842,-0.0203496,0.828951,0.028203,0.0471101,692,1513,0.732524,-1.74186
-525,-489,0.382813,2.53247,0.000324528,0.00564096,0.018959,0.0221272,-0.0161617,0.855048,0.0221954,0.0477283,699,1513,0.382802,-2.53253
-518,-489,0.0701294,3.28113,0,0,0,0,0,0,0,-1,706,1513,0.0701527,-3.28118
-511,-489,-0.453552,2.63379,0,0,0,0,0,0,0,-1,713,1513,-0.453571,-2.63376
-504,-489,-0.444885,2.83582,-0.00160292,0.00306793,0.00701984,0.00813063,-0.00666562,0.945983,0.00855657,0.0453026,720,1513,-0.444894,-2.83587
-497,-489,-0.486084,3.04114,-0.00188827,0.00221598,0.00440521,0.0050236,-0.00469589,1.00337,0.00561261,0.0351094,727,1513,-0.486091,-3.04111
-490,-489,-0.548157,3.28137,-0.00211237,0.00153296,0.0025506,0.00284521,-0.00342462,1.09563,0.00362504,0.0195576,734,1513,-0.548155,-3.28136
-483,-489,-0.561035,3.41479,-0.00232748,0.00114383,0.000920094,0.00137262,-0.00255628,1.32707,0.00230241,0.0101341,741,1513,-0.56104,-3.41476
-476,-489,-0.548584,3.58655,-0.00141942,0.000433285,-0.000180876,0.000450778,-0.00143692,-1.47438,0.00113835,0.00913289,748,1513,-0.548565,-3.5865
-469,-489,-0.563232,3.74817,-0.000135258,7.38738e-05,-0.000546945,0.000526159,-0.000587544,-0.879849,0.000643322,0.0106234,755,1513,-0.56326,-3.74822
-462,-489,-0.558167,3.91333,0.00082191,-0.000341924,-0.000685653,0.0011393,-0.000659311,-0.433527,0.00105068,0.0152256,762,1513,-0.558184,-3.91332
-455,-489,-0.574951,4.09497,0.00189041,-0.00111454,-0.000853382,0.00211585,-0.00133998,-0.258273,0.00201192,0.0183332,769,1513,-0.574981,-4.09496
-448,-489,-0.580566,4.26404,0.00312594,-0.00226048,-0.00103125,0.00331663,-0.00245117,-0.182843,0.00334251,0.0163699,776,1513,-0.580576,-4.26399
-441,-489,-0.556763,4.3999,0.00440067,-0.00368055,-0.00120788,0.00457735,-0.00385723,-0.14524,0.00487562,0.0138351,783,1513,-0.556746,-4.3999
-434,-489,-0.576477,4.55554,0.00560916,-0.00518683,-0.00137717,0.00578207,-0.00535974,-0.124899,0.00643427,0.0164722,790,1513,-0.576452,-4.55559
-427,-489,-0.583618,4.73572,0.00685114,-0.00673028,-0.00175274,0.00707369,-0.00695283,-0.126297,0.00809832,0.018057,797,1513,-0.583644,-4.73569
-420,-489,-0.568848,4.93335,0.00810808,-0.00834437,-0.00232102,0.00842924,-0.00866554,-0.1375,0.00986999,0.0166682,804,1513,-0.568843,-4.93333
-413,-489,-0.419006,5.04346,0.00923979,-0.010577,-0.00287607,0.00964876,-0.0109859,-0.141252,0.0119218,0.0205323,811,1513,-0.418997,-5.04344
-406,-489,-0.476929,5.06934,0.0102093,-0.0131386,-0.00350498,0.0107241,-0.0136534,-0.145838,0.0141082,0.0276272,818,1513,-0.4769,-5.0693
-399,-489,-0.332275,4.94495,0.0111582,-0.0163872,-0.00430517,0.0118154,-0.0170443,-0.151483,0.0167531,0.0347032,825,1513,-0.332262,-4.945
-392,-489,-0.292175,4.99097,0.0134067,-0.0218875,-0.00391276,0.0138353,-0.0223161,-0.109096,0.0210626,0.0394965,832,1513,-0.292185,-4.99098
-385,-489,-0.293274,5.16101,0.016547,-0.0282106,-0.0023296,0.0166679,-0.0283316,-0.0518625,0.0262697,0.0447125,839,1513,-0.293272,-5.16101
-378,-489,-0.531372,5.61548,0,0,0,0,0,0,0,-1,846,1513,-0.531402,-5.61542
-371,-489,-0.300171,7.18091,0,0,0,0,0,0,0,-1,853,1513,-0.300183,-7.18094
-364,-489,-0.503113,8.98486,0,0,0,0,0,0,0,-1,860,1513,-0.503097,-8.98482
-357,-489,-0.609924,10.9606,0,0,0,0,0,0,0,-1,867,1513,-0.609947,-10.9605
-350,-489,-7.94659,-0.358887,0,0,0,0,0,0,0,-1,874,1513,-7.94657,0.358912
-343,-489,-7.49323,-0.437866,0.0543005,-0.0394923,0.0259711,0.0610117,-0.0462034,0.252877,0.0620971,0.04544,881,1513,-7.49322,0.437823
-336,-489,-7.02332,-0.53125,0.0628011,-0.0377294,0.0304825,0.0713217,-0.04625,0.272568,0.0683926,0.0412112,888,1513,-7.0233,0.531295
-329,-489,-6.70221,-0.242432,0.0697776,-0.0351506,0.0355454,0.0806851,-0.0460581,0.297739,0.0740799,0.045694,895,1513,-6.70221,0.2424
-322,-489,0,0,0,0,0,0,0,0,0,-1,902,1513,0,0
-315,-489,0,0,0,0,0,0,0,0,0,-1,909,1513,0,0
-308,-489,0,0,0,0,0,0,0,0,0,-1,916,1513,0,0
-301,-489,0,0,0,0,0,0,0,0,0,-1,923,1513,0,0
-294,-489,0,0,0,0,0,0,0,0,0,-1,930,1513,0,0
-287,-489,0,0,0,0,0,0,0,0,0,-1,937,1513,0,0
-280,-489,0,0,0,0,0,0,0,0,0,-1,944,1513,0,0
-273,-489,0,0,0,0,0,0,0,0,0,-1,951,1513,0,0
-266,-489,0,0,0,0,0,0,0,0,0,-1,958,1513,0,0
-259,-489,0,0,0,0,0,0,0,0,0,-1,965,1513,0,0
-252,-489,0,0,0,0,0,0,0,0,0,-1,972,1513,0,0
-245,-489,0,0,0,0,0,0,0,0,0,-1,979,1513,0,0
-238,-489,0,0,0,0,0,0,0,0,0,-1,986,1513,0,0
-231,-489,0,0,0,0,0,0,0,0,0,-1,993,1513,0,0
-224,-489,0,0,0,0,0,0,0,0,0,-1,1000,1513,0,0
-217,-489,0,0,0,0,0,0,0,0,0,-1,1007,1513,0,0
-210,-489,0,0,0,0,0,0,0,0,0,-1,1014,1513,0,0
-203,-489,0,0,0,0,0,0,0,0,0,-1,1021,1513,0,0
-196,-489,0,0,0,0,0,0,0,0,0,-1,1028,1513,0,0
-189,-489,0,0,0,0,0,0,0,0,0,-1,1035,1513,0,0
-182,-489,0,0,0,0,0,0,0,0,0,-1,1042,1513,0,0
-175,-489,0,0,0,0,0,0,0,0,0,-1,1049,1513,0,0
-168,-489,0,0,0,0,0,0,0,0,0,-1,1056,1513,0,0
-161,-489,0,0,0,0,0,0,0,0,0,-1,1063,1513,0,0
-154,-489,0,0,0,0,0,0,0,0,0,-1,1070,1513,0,0
-147,-489,0,0,0,0,0,0,0,0,0,-1,1077,1513,0,0
-140,-489,0,0,0,0,0,0,0,0,0,-1,1084,1513,0,0
-133,-489,0,0,0,0,0,0,0,0,0,-1,1091,1513,0,0
-126,-489,0,0,0,0,0,0,0,0,0,-1,1098,1513,0,0
-119,-489,0,0,0,0,0,0,0,0,0,-1,1105,1513,0,0
-112,-489,0,0,0,0,0,0,0,0,0,-1,1112,1513,0,0
-105,-489,0,0,0,0,0,0,0,0,0,-1,1119,1513,0,0
-98,-489,0,0,0,0,0,0,0,0,0,-1,1126,1513,0,0
-91,-489,0,0,0,0,0,0,0,0,0,-1,1133,1513,0,0
-84,-489,0,0,0,0,0,0,0,0,0,-1,1140,1513,0,0
-77,-489,0,0,0,0,0,0,0,0,0,-1,1147,1513,0,0
-70,-489,0,0,0,0,0,0,0,0,0,-1,1154,1513,0,0
-63,-489,0,0,0,0,0,0,0,0,0,-1,1161,1513,0,0
-56,-489,0,0,0,0,0,0,0,0,0,-1,1168,1513,0,0
-49,-489,0,0,0,0,0,0,0,0,0,-1,1175,1513,0,0
-42,-489,0,0,0,0,0,0,0,0,0,-1,1182,1513,0,0
-35,-489,0,0,0,0,0,0,0,0,0,-1,1189,1513,0,0
-28,-489,0,0,0,0,0,0,0,0,0,-1,1196,1513,0,0
-21,-489,0,0,0,0,0,0,0,0,0,-1,1203,1513,0,0
-14,-489,0,0,0,0,0,0,0,0,0,-1,1210,1513,0,0
-7,-489,0,0,0,0,0,0,0,0,0,-1,1217,1513,0,0
0,-489,0,0,0,0,0,0,0,0,0,-1,1224,1513,0,0
7,-489,0,0,0,0,0,0,0,0,0,-1,1231,1513,0,0
14,-489,0,0,0,0,0,0,0,0,0,-1,1238,1513,0,0
21,-489,0,0,0,0,0,0,0,0,0,-1,1245,1513,0,0
28,-489,0,0,0,0,0,0,0,0,0,-1,1252,1513,0,0
35,-489,0,0,0,0,0,0,0,0,0,-1,1259,1513,0,0
42,-489,0,0,0,0,0,0,0,0,0,-1,1266,1513,0,0
49,-489,0,0,0,0,0,0,0,0,0,-1,1273,1513,0,0
56,-489,0,0,0,0,0,0,0,0,0,-1,1280,1513,0,0
63,-489,0,0,0,0,0,0,0,0,0,-1,1287,1513,0,0
70,-489,0,0,0,0,0,0,0,0,0,-1,1294,1513,0,0
77,-489,0,0,0,0,0,0,0,0,0,-1,1301,1513,0,0
84,-489,0,0,0,0,0,0,0,0,0,-1,1308,1513,0,0
91,-489,0,0,0,0,0,0,0,0,0,-1,1315,1513,0,0
98,-489,0,0,0,0,0,0,0,0,0,-1,1322,1513,0,0
105,-489,0,0,0,0,0,0,0,0,0,-1,1329,1513,0,0
112,-489,0,0,0,0,0,0,0,0,0,-1,1336,1513,0,0
119,-489,0,0,0,0,0,0,0,0,0,-1,1343,1513,0,0
126,-489,0,0,0,0,0,0,0,0,0,-1,1350,1513,0,0
133,-489,0,0,0,0,0,0,0,0,0,-1,1357,1513,0,0
140,-489,0,0,0,0,0,0,0,0,0,-1,1364,1513,0,0
147,-489,0,0,0,0,0,0,0,0,0,-1,1371,1513,0,0
154,-489,0,0,0,0,0,0,0,0,0,-1,1378,1513,0,0
161,-489,0,0,0,0,0,0,0,0,0,-1,1385,1513,0,0
168,-489,0,0,0,0,0,0,0,0,0,-1,1392,1513,0,0
175,-489,0,0,0,0,0,0,0,0,0,-1,1399,1513,0,0
182,-489,0,0,0,0,0,0,0,0,0,-1,1406,1513,0,0
189,-489,0,0,0,0,0,0,0,0,0,-1,1413,1513,0,0
196,-489,0,0,0,0,0,0,0,0,0,-1,1420,1513,0,0
203,-489,0,0,0,0,0,0,0,0,0,-1,1427,1513,0,0
210,-489,0,0,0,0,0,0,0,0,0,-1,1434,1513,0,0
217,-489,0,0,0,0,0,0,0,0,0,-1,1441,1513,0,0
224,-489,0,0,0,0,0,0,0,0,0,-1,1448,1513,0,0
231,-489,0,0,0,0,0,0,0,0,0,-1,1455,1513,0,0
238,-489,0,0,0,0,0,0,0,0,0,-1,1462,1513,0,0
245,-489,0,0,0,0,0,0,0,0,0,-1,1469,1513,0,0
252,-489,0,0,0,0,0,0,0,0,0,-1,1476,1513,0,0
259,-489,0,0,0,0,0,0,0,0,0,-1,1483,1513,0,0
266,-489,0,0,0,0,0,0,0,0,0,-1,1490,1513,0,0
273,-489,0,0,0,0,0,0,0,0,0,-1,1497,1513,0,0
280,-489,0,0,0,0,0,0,0,0,0,-1,1504,1513,0,0
287,-489,0,0,0,0,0,0,0,0,0,-1,1511,1513,0,0
294,-489,0,0,0,0,0,0,0,0,0,-1,1518,1513,0,0
301,-489,0,0,0,0,0,0,0,0,0,-1,1525,1513,0,0
308,-489,0,0,0,0,0,0,0,0,0,-1,1532,1513,0,0
315,-489,0,0,0,0,0,0,0,0,0,-1,1539,1513,0,0
322,-489,0,0,0,0,0,0,0,0,0,-1,1546,1513,0,0
329,-489,0,0,0,0,0,0,0,0,0,-1,1553,1513,0,0
336,-489,0,0,0,0,0,0,0,0,0,-1,1560,1513,0,0
343,-489,0,0,0,0,0,0,0,0,0,-1,1567,1513,0,0
350,-489,0,0,0,0,0,0,0,0,0,-1,1574,1513,0,0
357,-489,0,0,0,0,0,0,0,0,0,-1,1581,1513,0,0
364,-489,0,0,0,0,0,0,0,0,0,-1,1588,1513,0,0
371,-489,0,0,0,0,0,0,0,0,0,-1,1595,1513,0,0
378,-489,0,0,0,0,0,0,0,0,0,-1,1602,1513,0,0
385,-489,0,0,0,0,0,0,0,0,0,-1,1609,1513,0,0
392,-489,0,0,0,0,0,0,0,0,0,-1,1616,1513,0,0
399,-489,0,0,0,0,0,0,0,0,0,-1,1623,1513,0,0
406,-489,0,0,0,0,0,0,0,0,0,-1,1630,1513,0,0
413,-489,0,0,0,0,0,0,0,0,0,-1,1637,1513,0,0
420,-489,0,0,0,0,0,0,0,0,0,-1,1644,1513,0,0
427,-489,0,0,0,0,0,0,0,0,0,-1,1651,1513,0,0
434,-489,0,0,0,0,0,0,0,0,0,-1,1658,1513,0,0
441,-489,11.4602,2.56787,0,0,0,0,0,0,0,-1,1665,1513,11.4602,-2.56786
448,-489,12.4425,1.72351,0,0,0,0,0,0,0,-1,1672,1513,12.4425,-1.72349
455,-489,12.5575,1.37463,0.0340081,-0.0316072,-0.0123925,0.0362706,-0.0338697,-0.180581,0.0405034,0.0460073,1679,1513,12.5575,-1.37469
462,-489,12.5341,1.14465,0.0201494,-0.0420658,0.00830338,0.0212386,-0.0431549,0.130421,0.0378886,0.0424396,1686,1513,12.534,-1.14468
469,-489,13.6294,0.711182,0,0,0,0,0,0,0,-1,1693,1513,13.6294,-0.711137
476,-489,13.7004,0.542358,0.00294548,-0.0531416,0.0284531,0.0148521,-0.0650483,0.396323,0.0490712,0.0445549,1700,1513,13.7004,-0.542301
483,-489,13.4481,0.355957,-0.000845987,-0.0541276,0.0307134,0.0131709,-0.0681445,0.428143,0.0503969,0.0498397,1707,1513,13.4482,-0.355944
490,-489,8.02783,4.8512,0,0,0,0,0,0,0,-1,1714,1513,8.02782,-4.85121
497,-489,8.75623,5.05249,0,0,0,0,0,0,0,-1,1721,1513,8.75622,-5.05248
504,-489,9.58191,5.20789,0,0,0,0,0,0,0,-1,1728,1513,9.58196,-5.20783
511,-489,9.01257,5.38892,0,0,0,0,0,0,0,-1,1735,1513,9.01253,-5.38891
518,-489,7.7627,6.229,0,0,0,0,0,0,0,-1,1742,1513,7.76273,-6.22899
525,-489,7.63062,6.37317,-0.00489927,-0.0317136,0.0137366,0.00088853,-0.0375014,0.398768,0.0253023,0.0469523,1749,1513,7.63061,-6.37312
532,-489,7.55469,6.33252,-0.00395085,-0.0247353,0.00950346,-0.000260674,-0.0284255,0.370378,0.018864,0.0366959,1756,1513,7.55464,-6.33255
539,-489,7.50061,6.32617,-0.00312512,-0.0188811,0.00726911,-0.000283846,-0.0217224,0.372611,0.0143879,0.0176378,1763,1513,7.5006,-6.3262
546,-489,7.46667,6.25391,-0.00249561,-0.01499,0.0057995,-0.000218628,-0.017267,0.374126,0.0114392,0.0107892,1770,1513,7.46672,-6.25391
553,-489,7.48071,6.11511,-0.0021129,-0.0110321,0.00491203,6.19558e-05,-0.013207,0.416819,0.00882536,0.012595,1777,1513,7.48074,-6.11507
560,-489,7.50513,5.97778,-0.00177443,-0.00782623,0.00394634,0.00017256,-0.00977322,0.458327,0.00657376,0.0123314,1784,1513,7.50516,-5.97784
567,-489,7.51477,5.85266,-0.0008177,-0.00557688,0.00279935,0.000476779,-0.00687136,0.433136,0.00474782,0.0144948,1791,1513,7.51481,-5.85264
574,-489,7.47888,5.75085,0.000531493,-0.00357118,0.00116862,0.000841013,-0.0038807,0.258915,0.00290829,0.0145452,1798,1513,7.4789,-5.7508
581,-489,7.49158,5.60364,0.00189816,-0.00151062,-0.000977606,0.00215862,-0.00177109,-0.260384,0.0022725,0.0104662,1805,1513,7.49155,-5.60367
588,-489,7.4939,5.44507,0.00363298,0.00123114,-0.00389275,0.00650584,-0.00164172,-0.635779,0.00497559,0.0127091,1812,1513,7.49387,-5.44508
595,-489,7.49548,5.28455,0.00591695,0.00407317,-0.00763286,0.0126834,-0.00269327,-0.7253,0.00948172,0.0187336,1819,1513,7.49544,-5.28455
602,-489,7.51697,5.12756,0.0085318,0.0069135,-0.0119967,0.0197466,-0.00430128,-0.751725,0.0148079,0.025175,1826,1513,7.51694,-5.12755
609,-489,7.50342,4.99255,0.0115191,0.0101654,-0.0174093,0.0282647,-0.00658024,-0.765968,0.0213769,0.0174331,1833,1513,7.50341,-4.99253
616,-489,7.48706,4.83875,0.0148848,0.0139379,-0.0239548,0.0383708,-0.00954815,-0.775518,0.0292867,0.0101285,1840,1513,7.48703,-4.83881
623,-489,7.51392,4.73267,0.0185848,0.0185512,-0.0318711,0.0504391,-0.013303,-0.785135,0.0388276,0.0135443,1847,1513,7.5139,-4.73267
630,-489,7.50867,4.72937,0.0226938,0.0242079,-0.0415174,0.0649751,-0.0180734,-0.794514,0.0504325,0.0318446,1854,1513,7.50864,-4.72939
637,-489,6.97852,4.97522,0.0274452,0.0309544,-0.0529246,0.0821535,-0.0237539,-0.801968,0.0641696,0.0453595,1861,1513,6.97848,-4.97524
644,-489,6.41553,4.98022,0,0,0,0,0,0,0,-1,1868,1513,6.41556,-4.98019
651,-489,5.2113,5.91199,0,0,0,0,0,0,0,-1,1875,1513,5.21129,-5.91204
658,-489,3.45959,6.10022,0,0,0,0,0,0,0,-1,1882,1513,3.45959,-6.10021
665,-489,3.25195,7.02124,0,0,0,0,0,0,0,-1,1889,1513,3.25199,-7.02128
672,-489,0,0,0,0,0,0,0,0,0,-1,1896,1513,0,0
679,-489,0,0,0,0,0,0,0,0,0,-1,1903,1513,0,0
686,-489,0,0,0,0,0,0,0,0,0,-1,1910,1513,0,0
693,-489,0,0,0,0,0,0,0,0,0,-1,1917,1513,0,0
700,-489,0,0,0,0,0,0,0,0,0,-1,1924,1513,0,0
707,-489,0,0,0,0,0,0,0,0,0,-1,1931,1513,0,0
714,-489,0,0,0,0,0,0,0,0,0,-1,1938,1513,0,0
721,-489,0,0,0,0,0,0,0,0,0,-1,1945,1513,0,0
728,-489,0,0,0,0,0,0,0,0,0,-1,1952,1513,0,0
735,-489,0,0,0,0,0,0,0,0,0,-1,1959,1513,0,0
742,-489,0,0,0,0,0,0,0,0,0,-1,1966,1513,0,0
749,-489,0,0,0,0,0,0,0,0,0,-1,1973,1513,0,0
756,-489,0,0,0,0,0,0,0,0,0,-1,1980,1513,0,0
763,-489,0,0,0,0,0,0,0,0,0,-1,1987,1513,0,0
770,-489,0,0,0,0,0,0,0,0,0,-1,1994,1513,0,0
777,-489,0,0,0,0,0,0,0,0,0,-1,2001,1513,0,0
784,-489,0,0,0,0,0,0,0,0,0,-1,2008,1513,0,0
791,-489,0,0,0,0,0,0,0,0,0,-1,2015,1513,0,0
798,-489,0,0,0,0,0,0,0,0,0,-1,2022,1513,0,0
805,-489,0,0,0,0,0,0,0,0,0,-1,2029,1513,0,0
812,-489,0,0,0,0,0,0,0,0,0,-1,2036,1513,0,0
-700,-496,0,0,0,0,0,0,0,0,0,-1,524,1520,0,0
-693,-496,0,0,0,0,0,0,0,0,0,-1,531,1520,0,0
-686,-496,0,0,0,0,0,0,0,0,0,-1,538,1520,0,0
-679,-496,0,0,0,0,0,0,0,0,0,-1,545,1520,0,0
-672,-496,0,0,0,0,0,0,0,0,0,-1,552,1520,0,0
-665,-496,0,0,0,0,0,0,0,0,0,-1,559,1520,0,0
-658,-496,0,0,0,0,0,0,0,0,0,-1,566,1520,0,0
-651,-496,0,0,0,0,0,0,0,0,0,-1,573,1520,0,0
-644,-496,0,0,0,0,0,0,0,0,0,-1,580,1520,0,0
-637,-496,0,0,0,0,0,0,0,0,0,-1,587,1520,0,0
-630,-496,0,0,0,0,0,0,0,0,0,-1,594,1520,0,0
-623,-496,0,0,0,0,0,0,0,0,0,-1,601,1520,0,0
-616,-496,0,0,0,0,0,0,0,0,0,-1,608,1520,0,0
-609,-496,0,0,0,0,0,0,0,0,0,-1,615,1520,0,0
-602,-496,0,0,0,0,0,0,0,0,0,-1,622,1520,0,0
-595,-496,0,0,0,0,0,0,0,0,0,-1,629,1520,0,0
-588,-496,0,0,0,0,0,0,0,0,0,-1,636,1520,0,0
-581,-496,0,0,0,0,0,0,0,0,0,-1,643,1520,0,0
-574,-496,0,0,0,0,0,0,0,0,0,-1,650,1520,0,0
-567,-496,0,0,0,0,0,0,0,0,0,-1,657,1520,0,0
-560,-496,0,0,0,0,0,0,0,0,0,-1,664,1520,0,0
-553,-496,0,0,0,0,0,0,0,0,0,-1,671,1520,0,0
-546,-496,1.9436,0.875732,0,0,0,0,0,0,0,-1,678,1520,1.94363,-0.875678
-539,-496,1.47705,1.22522,-0.00266843,0.00140814,0.0322344,0.0316687,-0.032929,0.816973,0.0372978,0.0481535,685,1520,1.47702,-1.22518
-532,-496,0.976624,1.6582,-0.00286378,0.0035073,0.0257875,0.0263052,-0.0256617,0.846852,0.0300039,0.0477101,692,1520,0.976607,-1.65824
-525,-496,0.622253,2.45898,0,0,0,0,0,0,0,-1,699,1520,0.622239,-2.45903
-518,-496,0.356873,3.18677,0,0,0,0,0,0,0,-1,706,1520,0.356889,-3.18677
-511,-496,-1.54205,3.51099,0,0,0,0,0,0,0,-1,713,1520,-1.54204,-3.51103
-504,-496,-0.273987,2.84485,0,0,0,0,0,0,0,-1,720,1520,-0.273981,-2.84479
-497,-496,-0.308655,3.00684,-0.00258373,0.00320245,0.00479374,0.00590846,-0.00528975,1.0569,0.00646857,0.0483328,727,1520,-0.308627,-3.00685
-490,-496,-0.344421,3.36926,-0.00265276,0.0024517,0.00268188,0.00360168,-0.00380274,1.16571,0.00427547,0.0349537,734,1520,-0.344448,-3.3693
-483,-496,-0.39563,3.47473,-0.00280045,0.00210135,0.000891344,0.0022584,-0.0029575,1.39639,0.00302041,0.016552,741,1520,-0.395629,-3.4747
-476,-496,-0.4021,3.59216,-0.00184716,0.00134237,-0.000238859,0.00136016,-0.00186495,-1.49646,0.0018696,0.00954968,748,1520,-0.402092,-3.59214
-469,-496,-0.414368,3.76477,-0.000694469,0.00101883,-0.000462806,0.00113585,-0.000811492,-1.32313,0.00112948,0.0101936,755,1520,-0.414372,-3.76482
-462,-496,-0.408081,3.92542,1.44208e-05,0.000705524,-0.000399909,0.000888492,-0.000168548,-1.1417,0.000655771,0.0147861,762,1520,-0.408069,-3.92547
-455,-496,-0.44928,4.0979,0.00080864,0.000106115,-0.000362294,0.000961998,-4.72429e-05,-0.400429,0.000657645,0.0190356,769,1520,-0.449253,-4.09784
-448,-496,-0.437744,4.28296,0.00175277,-0.00077802,-0.000319181,0.0017924,-0.000817654,-0.123542,0.00154155,0.0182702,776,1520,-0.437735,-4.28295
-441,-496,-0.395386,4.44043,0.00272517,-0.00190497,-0.000289589,0.00274321,-0.00192301,-0.0622213,0.00270788,0.014462,783,1520,-0.395375,-4.44037
-434,-496,-0.417725,4.57935,0.0036041,-0.00310595,-0.000235694,0.00361237,-0.00311422,-0.0350679,0.00388715,0.0136728,790,1520,-0.417727,-4.57936
-427,-496,-0.417664,4.74805,0.00451533,-0.00431122,-0.000382457,0.00453187,-0.00432777,-0.0432223,0.00511556,0.0164518,797,1520,-0.417679,-4.74803
-420,-496,-0.404541,4.8916,0.00545868,-0.00557373,-0.000755905,0.00551023,-0.00562528,-0.0680926,0.0064292,0.0162998,804,1520,-0.404535,-4.89162
-413,-496,-0.366943,5.05713,0.00628277,-0.00741604,-0.00113607,0.00637635,-0.00750961,-0.0821837,0.00802596,0.0149634,811,1520,-0.366963,-5.05719
-406,-496,-0.366882,5.23132,0.00700227,-0.00956561,-0.00161493,0.00715821,-0.00972155,-0.0962661,0.00978292,0.0206663,818,1520,-0.366853,-5.23136
-399,-496,-0.242432,5.3999,0.00780455,-0.0124287,-0.00228339,0.00805904,-0.0126832,-0.110993,0.0120743,0.030527,825,1520,-0.24243,-5.39996
-392,-496,-0.304016,5.38586,0.00961968,-0.0170113,-0.00214839,0.00979188,-0.0171835,-0.0799833,0.0157679,0.0348455,832,1520,-0.304035,-5.38589
-385,-496,-0.420654,5.50598,0.0121941,-0.0223468,-0.00115411,0.0122326,-0.0223853,-0.0333632,0.0202711,0.0443582,839,1520,-0.42067,-5.50595
-378,-496,-0.471436,5.64478,0.0167435,-0.0264567,0.00171311,0.0168113,-0.0265245,0.0395723,0.0252286,0.0465594,846,1520,-0.471465,-5.64482
-371,-496,-0.379883,6.04333,0,0,0,0,0,0,0,-1,853,1520,-0.37987,-6.04336
-364,-496,-0.146179,6.87915,0,0,0,0,0,0,0,-1,860,1520,-0.146176,-6.87916
-357,-496,0.323792,7.56812,0,0,0,0,0,0,0,-1,867,1520,0.323782,-7.56806
-350,-496,2.1535,7.18945,0,0,0,0,0,0,0,-1,874,1520,2.15348,-7.1894
-343,-496,-7.56244,0.335327,0,0,0,0,0,0,0,-1,881,1520,-7.56242,-0.335322
-336,-496,-7.664,-0.446289,0,0,0,0,0,0,0,-1,888,1520,-7.66398,0.446252
-329,-496,-6.93689,-0.100342,0.0581219,-0.03031,0.0303475,0.0675345,-0.0397226,0.300752,0.062615,0.0454341,895,1520,-6.93686,0.1003
-322,-496,-6.17505,0.494385,0.0613835,-0.0291834,0.034049,0.0727563,-0.0405561,0.32236,0.0662956,0.0418877,902,1520,-6.17507,-0.49437
-315,-496,-5.46338,1.0459,0.0620326,-0.0279365,0.035334,0.0742503,-0.0401542,0.332909,0.0670222,0.0456742,909,1520,-5.46338,-1.04587
-308,-496,0,0,0,0,0,0,0,0,0,-1,916,1520,0,0
-301,-496,0,0,0,0,0,0,0,0,0,-1,923,1520,0,0
-294,-496,0,0,0,0,0,0,0,0,0,-1,930,1520,0,0
-287,-496,0,0,0,0,0,0,0,0,0,-1,937,1520,0,0
-280,-496,0,0,0,0,0,0,0,0,0,-1,944,1520,0,0
-273,-496,0,0,0,0,0,0,0,0,0,-1,951,1520,0,0
-266,-496,0,0,0,0,0,0,0,0,0,-1,958,1520,0,0
-259,-496,0,0,0,0,0,0,0,0,0,-1,965,1520,0,0
-252,-496,0,0,0,0,0,0,0,0,0,-1,972,1520,0,0
-245,-496,0,0,0,0,0,0,0,0,0,-1,979,1520,0,0
-238,-496,0,0,0,0,0,0,0,0,0,-1,986,1520,0,0
-231,-496,0,0,0,0,0,0,0,0,0,-1,993,1520,0,0
-224,-496,0,0,0,0,0,0,0,0,0,-1,1000,1520,0,0
-217,-496,0,0,0,0,0,0,0,0,0,-1,1007,1520,0,0
-210,-496,0,0,0,0,0,0,0,0,0,-1,1014,1520,0,0
-203,-496,0,0,0,0,0,0,0,0,0,-1,1021,1520,0,0
-196,-496,0,0,0,0,0,0,0,0,0,-1,1028,1520,0,0
-189,-496,0,0,0,0,0,0,0,0,0,-1,1035,1520,0,0
-182,-496,0,0,0,0,0,0,0,0,0,-1,1042,1520,0,0
-175,-496,0,0,0,0,0,0,0,0,0,-1,1049,1520,0,0
-168,-496,0,0,0,0,0,0,0,0,0,-1,1056,1520,0,0
-161,-496,0,0,0,0,0,0,0,0,0,-1,1063,1520,0,0
-154,-496,0,0,0,0,0,0,0,0,0,-1,1070,1520,0,0
-147,-496,0,0,0,0,0,0,0,0,0,-1,1077,1520,0,0
-140,-496,0,0,0,0,0,0,0,0,0,-1,1084,1520,0,0
-133,-496,0,0,0,0,0,0,0,0,0,-1,1091,1520,0,0
-126,-496,0,0,0,0,0,0,0,0,0,-1,1098,1520,0,0
-119,-496,0,0,0,0,0,0,0,0,0,-1,1105,1520,0,0
-112,-496,0,0,0,0,0,0,0,0,0,-1,1112,1520,0,0
-105,-496,0,0,0,0,0,0,0,0,0,-1,1119,1520,0,0
-98,-496,0,0,0,0,0,0,0,0,0,-1,1126,1520,0,0
-91,-496,0,0,0,0,0,0,0,0,0,-1,1133,1520,0,0
-84,-496,0,0,0,0,0,0,0,0,0,-1,1140,1520,0,0
-77,-496,0,0,0,0,0,0,0,0,0,-1,1147,1520,0,0
-70,-496,0,0,0,0,0,0,0,0,0,-1,1154,1520,0,0
-63,-496,0,0,0,0,0,0,0,0,0,-1,1161,1520,0,0
-56,-496,0,0,0,0,0,0,0,0,0,-1,1168,1520,0,0
-49,-496,0,0,0,0,0,0,0,0,0,-1,1175,1520,0,0
-42,-496,0,0,0,0,0,0,0,0,0,-1,1182,1520,0,0
-35,-496,0,0,0,0,0,0,0,0,0,-1,1189,1520,0,0
-28,-496,0,0,0,0,0,0,0,0,0,-1,1196,1520,0,0
-21,-496,0,0,0,0,0,0,0,0,0,-1,1203,1520,0,0
-14,-496,0,0,0,0,0,0,0,0,0,-1,1210,1520,0,0
-7,-496,0,0,0,0,0,0,0,0,0,-1,1217,1520,0,0
0,-496,0,0,0,0,0,0,0,0,0,-1,1224,1520,0,0
7,-496,0,0,0,0,0,0,0,0,0,-1,1231,1520,0,0
14,-496,0,0,0,0,0,0,0,0,0,-1,1238,1520,0,0
21,-496,0,0,0,0,0,0,0,0,0,-1,1245,1520,0,0
28,-496,0,0,0,0,0,0,0,0,0,-1,1252,1520,0,0
35,-496,0,0,0,0,0,0,0,0,0,-1,1259,1520,0,0
42,-496,0,0,0,0,0,0,0,0,0,-1,1266,1520,0,0
49,-496,0,0,0,0,0,0,0,0,0,-1,1273,1520,0,0
56,-496,0,0,0,0,0,0,0,0,0,-1,1280,1520,0,0
63,-496,0,0,0,0,0,0,0,0,0,-1,1287,1520,0,0
70,-496,0,0,0,0,0,0,0,0,0,-1,1294,1520,0,0
77,-496,0,0,0,0,0,0,0,0,0,-1,1301,1520,0,0
84,-496,0,0,0,0,0,0,0,0,0,-1,1308,1520,0,0
91,-496,0,0,0,0,0,0,0,0,0,-1,1315,1520,0,0
98,-496,0,0,0,0,0,0,0,0,0,-1,1322,1520,0,0
105,-496,0,0,0,0,0,0,0,0,0,-1,1329,1520,0,0
112,-496,0,0,0,0,0,0,0,0,0,-1,1336,1520,0,0
119,-496,0,0,0,0,0,0,0,0,0,-1,1343,1520,0,0
126,-496,0,0,0,0,0,0,0,0,0,-1,1350,1520,0,0
133,-496,0,0,0,0,0,0,0,0,0,-1,1357,1520,0,0
140,-496,0,0,0,0,0,0,0,0,0,-1,1364,1520,0,0
147,-496,0,0,0,0,0,0,0,0,0,-1,1371,1520,0,0
154,-496,0,0,0,0,0,0,0,0,0,-1,1378,1520,0,0
161,-496,0,0,0,0,0,0,0,0,0,-1,1385,1520,0,0
168,-496,0,0,0,0,0,0,0,0,0,-1,1392,1520,0,0
175,-496,0,0,0,0,0,0,0,0,0,-1,1399,1520,0,0
182,-496,0,0,0,0,0,0,0,0,0,-1,1406,1520,0,0
189,-496,0,0,0,0,0,0,0,0,0,-1,1413,1520,0,0
196,-496,0,0,0,0,0,0,0,0,0,-1,1420,1520,0,0
203,-496,0,0,0,0,0,0,0,0,0,-1,1427,1520,0,0
210,-496,0,0,0,0,0,0,0,0,0,-1,1434,1520,0,0
217,-496,0,0,0,0,0,0,0,0,0,-1,1441,1520,0,0
224,-496,0,0,0,0,0,0,0,0,0,-1,1448,1520,0,0
231,-496,0,0,0,0,0,0,0,0,0,-1,1455,1520,0,0
238,-496,0,0,0,0,0,0,0,0,0,-1,1462,1520,0,0
245,-496,0,0,0,0,0,0,0,0,0,-1,1469,1520,0,0
252,-496,0,0,0,0,0,0,0,0,0,-1,1476,1520,0,0
259,-496,0,0,0,0,0,0,0,0,0,-1,1483,1520,0,0
266,-496,0,0,0,0,0,0,0,0,0,-1,1490,1520,0,0
273,-496,0,0,0,0,0,0,0,0,0,-1,1497,1520,0,0
280,-496,0,0,0,0,0,0,0,0,0,-1,1504,1520,0,0
287,-496,0,0,0,0,0,0,0,0,0,-1,1511,1520,0,0
294,-496,0,0,0,0,0,0,0,0,0,-1,1518,1520,0,0
301,-496,0,0,0,0,0,0,0,0,0,-1,1525,1520,0,0
308,-496,0,0,0,0,0,0,0,0,0,-1,1532,1520,0,0
315,-496,0,0,0,0,0,0,0,0,0,-1,1539,1520,0,0
322,-496,0,0,0,0,0,0,0,0,0,-1,1546,1520,0,0
329,-496,0,0,0,0,0,0,0,0,0,-1,1553,1520,0,0
336,-496,0,0,0,0,0,0,0,0,0,-1,1560,1520,0,0
343,-496,0,0,0,0,0,0,0,0,0,-1,1567,1520,0,0
350,-496,0,0,0,0,0,0,0,0,0,-1,1574,1520,0,0
357,-496,0,0,0,0,0,0,0,0,0,-1,1581,1520,0,0
364,-496,0,0,0,0,0,0,0,0,0,-1,1588,1520,0,0
371,-496,0,0,0,0,0,0,0,0,0,-1,1595,1520,0,0
378,-496,0,0,0,0,0,0,0,0,0,-1,1602,1520,0,0
385,-496,0,0,0,0,0,0,0,0,0,-1,1609,1520,0,0
392,-496,0,0,0,0,0,0,0,0,0,-1,1616,1520,0,0
399,-496,0,0,0,0,0,0,0,0,0,-1,1623,1520,0,0
406,-496,0,0,0,0,0,0,0,0,0,-1,1630,1520,0,0
413,-496,0,0,0,0,0,0,0,0,0,-1,1637,1520,0,0
420,-496,0,0,0,0,0,0,0,0,0,-1,1644,1520,0,0
427,-496,0,0,0,0,0,0,0,0,0,-1,1651,1520,0,0
434,-496,11.0457,3.37732,0,0,0,0,0,0,0,-1,1658,1520,11.0456,-3.37736
441,-496,11.788,2.75488,0.0685168,0.00133535,-0.0489287,0.0942755,-0.0244233,-0.484586,0.0723783,0.046966,1665,1520,11.7879,-2.75485
448,-496,12.2146,2.18494,0,0,0,0,0,0,0,-1,1672,1520,12.2146,-2.18489
455,-496,12.3489,1.65173,0.0337911,-0.0243371,0.00386275,0.0340467,-0.0245927,0.0660651,0.0340018,0.0439553,1679,1520,12.3489,-1.65178
462,-496,12.1912,1.32361,0.0211201,-0.0360272,0.0203265,0.0276124,-0.0425195,0.309159,0.0407945,0.0448426,1686,1520,12.1911,-1.32357
469,-496,12.2969,1.06616,0.0114633,-0.0444342,0.0302146,0.0246735,-0.0576444,0.412168,0.0487804,0.0444973,1693,1520,12.2968,-1.0662
476,-496,12.5187,1.18274,0.00533777,-0.0475785,0.0345764,0.0224176,-0.0646584,0.458816,0.0522079,0.0454172,1700,1520,12.5186,-1.18271
483,-496,7.88464,4.94641,0,0,0,0,0,0,0,-1,1707,1520,7.88462,-4.94646
490,-496,8.07117,5.29297,-0.00242305,-0.0495412,0.0367418,0.0176641,-0.0696283,0.500314,0.0532918,0.0485676,1714,1520,8.07113,-5.29293
497,-496,8.33972,5.68506,0,0,0,0,0,0,0,-1,1721,1520,8.33973,-5.68508
504,-496,8.84351,5.92126,0,0,0,0,0,0,0,-1,1728,1520,8.84345,-5.92128
511,-496,7.59521,6.73669,0,0,0,0,0,0,0,-1,1735,1520,7.59519,-6.73673
518,-496,7.48718,6.64929,-0.00343369,-0.033085,0.0198161,0.00648897,-0.0430077,0.464237,0.0310615,0.0492723,1742,1520,7.48714,-6.64934
525,-496,7.47388,6.51184,-0.00286419,-0.0264644,0.0140734,0.00370153,-0.0330301,0.436518,0.0233519,0.0422475,1749,1520,7.47392,-6.51181
532,-496,7.38245,6.47888,-0.00199315,-0.0196371,0.00935035,0.00204009,-0.0236703,0.407233,0.0165023,0.0231822,1756,1520,7.38249,-6.47888
539,-496,7.3175,6.38953,-0.001297,-0.0142433,0.00681973,0.00163252,-0.0171729,0.405732,0.0120297,0.012322,1763,1520,7.31752,-6.38952
546,-496,7.31604,6.2522,-0.0008447,-0.010838,0.00503144,0.00124963,-0.0129323,0.394435,0.00906682,0.00935549,1770,1520,7.31604,-6.25223
553,-496,7.36243,6.1073,-0.000422879,-0.00758828,0.00389744,0.00128836,-0.00929951,0.413725,0.00667073,0.015286,1777,1520,7.36244,-6.10733
560,-496,7.38733,5.97644,9.53761e-05,-0.00501367,0.00279991,0.00133098,-0.00624928,0.415597,0.00467345,0.014233,1784,1520,7.38729,-5.97648
567,-496,7.36536,5.84448,0.00108484,-0.00313393,0.00154768,0.00159172,-0.0036408,0.316497,0.00309725,0.0113327,1791,1520,7.36536,-5.84449
574,-496,7.35522,5.71106,0.00267385,-0.00119636,-0.000339302,0.00270337,-0.00122588,-0.0867879,0.0023214,0.0119878,1798,1520,7.35527,-5.71104
581,-496,7.35571,5.58386,0.00442037,0.000957625,-0.00296681,0.00612406,-0.000746062,-0.521269,0.00435276,0.0129684,1805,1520,7.3557,-5.58387
588,-496,7.34473,5.43103,0.00668535,0.00410093,-0.00669298,0.0122097,-0.00142344,-0.690037,0.00865341,0.0146637,1812,1520,7.34477,-5.43104
595,-496,7.34229,5.302,0.00962134,0.00760846,-0.011413,0.0200722,-0.00284241,-0.74142,0.0144226,0.0157521,1819,1520,7.34234,-5.30199
602,-496,7.35645,5.16882,0.013022,0.0113553,-0.0170219,0.029231,-0.00485365,-0.760939,0.0212904,0.017863,1826,1520,7.35645,-5.16881
609,-496,7.34729,5.01111,0.0169657,0.015886,-0.0240298,0.0404617,-0.00760999,-0.774168,0.0298364,0.0150016,1833,1520,7.34731,-5.01112
616,-496,7.35583,4.83264,0.0214621,0.0212785,-0.0325791,0.0539495,-0.011209,-0.78399,0.0402266,0.0118212,1840,1520,7.35584,-4.83261
623,-496,7.38684,4.7583,0.0265273,0.0278523,-0.0430307,0.0702256,-0.015846,-0.793096,0.0528962,0.0247257,1847,1520,7.38685,-4.75831
630,-496,7.33179,4.83044,0.0322575,0.0357348,-0.0556399,0.0896632,-0.0216708,-0.801017,0.0681573,0.044044,1854,1520,7.33183,-4.83042
637,-496,7.24475,4.88916,0,0,0,0,0,0,0,-1,1861,1520,7.2448,-4.88912
644,-496,7.43518,3.96179,0,0,0,0,0,0,0,-1,1868,1520,7.4352,-3.96176
651,-496,4.67346,4.26172,0,0,0,0,0,0,0,-1,1875,1520,4.67348,-4.26175
658,-496,4.53979,4.94995,0,0,0,0,0,0,0,-1,1882,1520,4.53981,-4.95
665,-496,4.25964,5.37122,0,0,0,0,0,0,0,-1,1889,1520,4.25962,-5.37126
672,-496,0,0,0,0,0,0,0,0,0,-1,1896,1520,0,0
679,-496,0,0,0,0,0,0,0,0,0,-1,1903,1520,0,0
686,-496,0,0,0,0,0,0,0,0,0,-1,1910,1520,0,0
693,-496,0,0,0,0,0,0,0,0,0,-1,1917,1520,0,0
700,-496,0,0,0,0,0,0,0,0,0,-1,1924,1520,0,0
707,-496,0,0,0,0,0,0,0,0,0,-1,1931,1520,0,0
714,-496,0,0,0,0,0,0,0,0,0,-1,1938,1520,0,0
721,-496,0,0,0,0,0,0,0,0,0,-1,1945,1520,0,0
728,-496,0,0,0,0,0,0,0,0,0,-1,1952,1520,0,0
735,-496,0,0,0,0,0,0,0,0,0,-1,1959,1520,0,0
742,-496,0,0,0,0,0,0,0,0,0,-1,1966,1520,0,0
749,-496,0,0,0,0,0,0,0,0,0,-1,1973,1520,0,0
756,-496,0,0,0,0,0,0,0,0,0,-1,1980,1520,0,0
763,-496,0,0,0,0,0,0,0,0,0,-1,1987,1520,0,0
770,-496,0,0,0,0,0,0,0,0,0,-1,1994,1520,0,0
777,-496,0,0,0,0,0,0,0,0,0,-1,2001,1520,0,0
784,-496,0,0,0,0,0,0,0,0,0,-1,2008,1520,0,0
791,-496,0,0,0,0,0,0,0,0,0,-1,2015,1520,0,0
798,-496,0,0,0,0,0,0,0,0,0,-1,2022,1520,0,0
805,-496,0,0,0,0,0,0,0,0,0,-1,2029,1520,0,0
812,-496,0,0,0,0,0,0,0,0,0,-1,2036,1520,0,0
-700,-503,0,0,0,0,0,0,0,0,0,-1,524,1527,0,0
-693,-503,0,0,0,0,0,0,0,0,0,-1,531,1527,0,0
-686,-503,0,0,0,0,0,0,0,0,0,-1,538,1527,0,0
-679,-503,0,0,0,0,0,0,0,0,0,-1,545,1527,0,0
-672,-503,0,0,0,0,0,0,0,0,0,-1,552,1527,0,0
-665,-503,0,0,0,0,0,0,0,0,0,-1,559,1527,0,0
-658,-503,0,0,0,0,0,0,0,0,0,-1,566,1527,0,0
-651,-503,0,0,0,0,0,0,0,0,0,-1,573,1527,0,0
-644,-503,0,0,0,0,0,0,0,0,0,-1,580,1527,0,0
-637,-503,0,0,0,0,0,0,0,0,0,-1,587,1527,0,0
-630,-503,0,0,0,0,0,0,0,0,0,-1,594,1527,0,0
-623,-503,0,0,0,0,0,0,0,0,0,-1,601,1527,0,0
-616,-503,0,0,0,0,0,0,0,0,0,-1,608,1527,0,0
-609,-503,0,0,0,0,0,0,0,0,0,-1,615,1527,0,0
-602,-503,0,0,0,0,0,0,0,0,0,-1,622,1527,0,0
-595,-503,0,0,0,0,0,0,0,0,0,-1,629,1527,0,0
-588,-503,0,0,0,0,0,0,0,0,0,-1,636,1527,0,0
-581,-503,0,0,0,0,0,0,0,0,0,-1,643,1527,0,0
-574,-503,0,0,0,0,0,0,0,0,0,-1,650,1527,0,0
-567,-503,0,0,0,0,0,0,0,0,0,-1,657,1527,0,0
-560,-503,0,0,0,0,0,0,0,0,0,-1,664,1527,0,0
-553,-503,0,0,0,0,0,0,0,0,0,-1,671,1527,0,0
-546,-503,0,0,0,0,0,0,0,0,0,-1,678,1527,0,0
-539,-503,1.79205,1.19653,0,0,0,0,0,0,0,-1,685,1527,1.79206,-1.19653
-532,-503,1.22003,1.62378,0,0,0,0,0,0,0,-1,692,1527,1.22004,-1.6238
-525,-503,-0.801819,2.73218,0,0,0,0,0,0,0,-1,699,1527,-0.801824,-2.73221
-518,-503,-0.993164,3.16772,0,0,0,0,0,0,0,-1,706,1527,-0.993188,-3.16777
-511,-503,-1.25562,3.82214,0,0,0,0,0,0,0,-1,713,1527,-1.25562,-3.82219
-504,-503,0.929626,2.50598,0,0,0,0,0,0,0,-1,720,1527,0.929644,-2.50601
-497,-503,-0.0904541,3.00989,0,0,0,0,0,0,0,-1,727,1527,-0.0904699,-3.00987
-490,-503,-0.0917358,3.45947,-0.00219374,0.00846355,0.00166907,0.00871883,-0.00244903,1.41902,0.00677802,0.0469743,734,1527,-0.0917364,-3.45945
-483,-503,-0.122192,3.55505,-0.00229615,0.00750465,-8.18186e-05,0.00750533,-0.00229683,-1.56245,0.00591961,0.033752,741,1527,-0.122204,-3.55509
-476,-503,-0.18866,3.60986,-0.00136488,0.00583175,-0.00111116,0.0059994,-0.00153254,-1.42104,0.00459641,0.0154842,748,1527,-0.188672,-3.60983
-469,-503,-0.235046,3.76294,-0.000444788,0.00460106,-0.00113665,0.00484529,-0.000689015,-1.35915,0.00348266,0.00909127,755,1527,-0.23507,-3.76299
-462,-503,-0.245422,3.94348,-4.01062e-05,0.0034885,-0.000839867,0.00367821,-0.00022981,-1.34865,0.00253222,0.0114173,762,1527,-0.245436,-3.94351
-455,-503,-0.281555,4.09741,0.000451652,0.00230212,-0.000583888,0.00247095,0.000282818,-1.28932,0.00156159,0.0163937,769,1527,-0.281568,-4.09738
-448,-503,-0.256653,4.27271,0.00108358,0.00106599,-0.000317854,0.00139276,0.00075681,-0.771566,0.00080512,0.0150898,776,1527,-0.256643,-4.27269
-441,-503,-0.221558,4.44604,0.00175552,-0.000255218,-9.77823e-05,0.00176026,-0.000259962,-0.0484776,0.00126907,0.0132587,783,1527,-0.221559,-4.44607
-434,-503,-0.234375,4.57385,0.00233447,-0.00158228,0.000146623,0.00233995,-0.00158776,0.0373653,0.00228148,0.0113648,790,1527,-0.234387,-4.57382
-427,-503,-0.25116,4.70691,0.002955,-0.0027607,0.000181902,0.00296079,-0.00276649,0.031782,0.00330728,0.0162159,797,1527,-0.251157,-4.7069
-420,-503,-0.253601,4.87402,0.00363969,-0.00388977,-4.27356e-05,0.00363994,-0.00389002,-0.00567554,0.00434822,0.017397,804,1527,-0.253614,-4.87399
-413,-503,-0.251892,5.04639,0.00423362,-0.00542813,-0.000297668,0.00424278,-0.0054373,-0.03077,0.00560296,0.0151663,811,1527,-0.2519,-5.0464
-406,-503,-0.226624,5.2052,0.00477662,-0.00719839,-0.000676513,0.00481472,-0.00723649,-0.0562551,0.00700444,0.0125461,818,1527,-0.226644,-5.20515
-399,-503,-0.145569,5.3988,0.00546549,-0.00965235,-0.0012293,0.00556479,-0.00975165,-0.0806088,0.00895241,0.0144558,825,1527,-0.145571,-5.39877
-392,-503,-0.0466919,5.58496,0.00691627,-0.013333,-0.00120991,0.0069883,-0.013405,-0.0594687,0.0119668,0.0245233,832,1527,-0.0466966,-5.58494
-385,-503,-0.137756,5.48865,0.00899349,-0.0176378,-0.000541151,0.00900448,-0.0176488,-0.0203089,0.0156557,0.036718,839,1527,-0.137737,-5.48868
-378,-503,-0.144531,5.49219,0.0127349,-0.0210984,0.00169572,0.0128197,-0.0211832,0.049953,0.0198285,0.0446994,846,1527,-0.144525,-5.49215
-371,-503,-0.360229,5.78784,0.018202,-0.0228512,0.00463421,0.0187187,-0.0233678,0.111022,0.024348,0.0456497,853,1527,-0.360202,-5.78785
-364,-503,-0.418396,6.14905,0,0,0,0,0,0,0,-1,860,1527,-0.418393,-6.1491
-357,-503,-0.0958862,6.4856,0,0,0,0,0,0,0,-1,867,1527,-0.0958678,-6.48555
-350,-503,0.219971,6.84827,0,0,0,0,0,0,0,-1,874,1527,0.21996,-6.84831
-343,-503,0.895691,7.56384,0,0,0,0,0,0,0,-1,881,1527,0.8957,-7.56384
-336,-503,1.26941,8.81177,0,0,0,0,0,0,0,-1,888,1527,1.26943,-8.81178
-329,-503,-6.71832,-0.386597,0,0,0,0,0,0,0,-1,895,1527,-6.71832,0.386628
-322,-503,-6.18427,0.137573,0.0505465,-0.0269099,0.0284796,0.0598908,-0.0362542,0.317036,0.0560657,0.0423357,902,1527,-6.18427,-0.137575
-315,-503,-5.76038,0.790649,0.0511226,-0.0277283,0.0292609,0.0607947,-0.0374003,0.31924,0.0572267,0.0431913,909,1527,-5.76037,-0.790667
-308,-503,-5.62927,1.49963,0,0,0,0,0,0,0,-1,916,1527,-5.62925,-1.49969
-301,-503,0,0,0,0,0,0,0,0,0,-1,923,1527,0,0
-294,-503,0,0,0,0,0,0,0,0,0,-1,930,1527,0,0
-287,-503,0,0,0,0,0,0,0,0,0,-1,937,1527,0,0
-280,-503,0,0,0,0,0,0,0,0,0,-1,944,1527,0,0
-273,-503,0,0,0,0,0,0,0,0,0,-1,951,1527,0,0
-266,-503,0,0,0,0,0,0,0,0,0,-1,958,1527,0,0
-259,-503,0,0,0,0,0,0,0,0,0,-1,965,1527,0,0
-252,-503,0,0,0,0,0,0,0,0,0,-1,972,1527,0,0
-245,-503,0,0,0,0,0,0,0,0,0,-1,979,1527,0,0
-238,-503,0,0,0,0,0,0,0,0,0,-1,986,1527,0,0
-231,-503,0,0,0,0,0,0,0,0,0,-1,993,1527,0,0
-224,-503,0,0,0,0,0,0,0,0,0,-1,1000,1527,0,0
-217,-503,0,0,0,0,0,0,0,0,0,-1,1007,1527,0,0
-210,-503,0,0,0,0,0,0,0,0,0,-1,1014,1527,0,0
-203,-503,0,0,0,0,0,0,0,0,0,-1,1021,1527,0,0
-196,-503,0,0,0,0,0,0,0,0,0,-1,1028,1527,0,0
-189,-503,0,0,0,0,0,0,0,0,0,-1,1035,1527,0,0
-182,-503,0,0,0,0,0,0,0,0,0,-1,1042,1527,0,0
-175,-503,0,0,0,0,0,0,0,0,0,-1,1049,1527,0,0
-168,-503,0,0,0,0,0,0,0,0,0,-1,1056,1527,0,0
-161,-503,0,0,0,0,0,0,0,0,0,-1,1063,1527,0,0
-154,-503,0,0,0,0,0,0,0,0,0,-1,1070,1527,0,0
-147,-503,0,0,0,0,0,0,0,0,0,-1,1077,1527,0,0
-140,-503,0,0,0,0,0,0,0,0,0,-1,1084,1527,0,0
-133,-503,0,0,0,0,0,0,0,0,0,-1,1091,1527,0,0
-126,-503,0,0,0,0,0,0,0,0,0,-1,1098,1527,0,0
-119,-503,0,0,0,0,0,0,0,0,0,-1,1105,1527,0,0
-112,-503,0,0,0,0,0,0,0,0,0,-1,1112,1527,0,0
-105,-503,0,0,0,0,0,0,0,0,0,-1,1119,1527,0,0
-98,-503,0,0,0,0,0,0,0,0,0,-1,1126,1527,0,0
-91,-503,0,0,0,0,0,0,0,0,0,-1,1133,1527,0,0
-84,-503,0,0,0,0,0,0,0,0,0,-1,1140,1527,0,0
-77,-503,0,0,0,0,0,0,0,0,0,-1,1147,1527,0,0
-70,-503,0,0,0,0,0,0,0,0,0,-1,1154,1527,0,0
-63,-503,0,0,0,0,0,0,0,0,0,-1,1161,1527,0,0
-56,-503,0,0,0,0,0,0,0,0,0,-1,1168,1527,0,0
-49,-503,0,0,0,0,0,0,0,0,0,-1,1175,1527,0,0
-42,-503,0,0,0,0,0,0,0,0,0,-1,1182,1527,0,0
-35,-503,0,0,0,0,0,0,0,0,0,-1,1189,1527,0,0
-28,-503,0,0,0,0,0,0,0,0,0,-1,1196,1527,0,0
-21,-503,0,0,0,0,0,0,0,0,0,-1,1203,1527,0,0
-14,-503,0,0,0,0,0,0,0,0,0,-1,1210,1527,0,0
-7,-503,0,0,0,0,0,0,0,0,0,-1,1217,1527,0,0
0,-503,0,0,0,0,0,0,0,0,0,-1,1224,1527,0,0
7,-503,0,0,0,0,0,0,0,0,0,-1,1231,1527,0,0
14,-503,0,0,0,0,0,0,0,0,0,-1,1238,1527,0,0
21,-503,0,0,0,0,0,0,0,0,0,-1,1245,1527,0,0
28,-503,0,0,0,0,0,0,0,0,0,-1,1252,1527,0,0
35,-503,0,0,0,0,0,0,0,0,0,-1,1259,1527,0,0
42,-503,0,0,0,0,0,0,0,0,0,-1,1266,1527,0,0
49,-503,0,0,0,0,0,0,0,0,0,-1,1273,1527,0,0
56,-503,0,0,0,0,0,0,0,0,0,-1,1280,1527,0,0
63,-503,0,0,0,0,0,0,0,0,0,-1,1287,1527,0,0
70,-503,0,0,0,0,0,0,0,0,0,-1,1294,1527,0,0
77,-503,0,0,0,0,0,0,0,0,0,-1,1301,1527,0,0
84,-503,0,0,0,0,0,0,0,0,0,-1,1308,1527,0,0
91,-503,0,0,0,0,0,0,0,0,0,-1,1315,1527,0,0
98,-503,0,0,0,0,0,0,0,0,0,-1,1322,1527,0,0
105,-503,0,0,0,0,0,0,0,0,0,-1,1329,1527,0,0
112,-503,0,0,0,0,0,0,0,0,0,-1,1336,1527,0,0
119,-503,0,0,0,0,0,0,0,0,0,-1,1343,1527,0,0
126,-503,0,0,0,0,0,0,0,0,0,-1,1350,1527,0,0
133,-503,0,0,0,0,0,0,0,0,0,-1,1357,1527,0,0
140,-503,0,0,0,0,0,0,0,0,0,-1,1364,1527,0,0
147,-503,0,0,0,0,0,0,0,0,0,-1,1371,1527,0,0
154,-503,0,0,0,0,0,0,0,0,0,-1,1378,1527,0,0
161,-503,0,0,0,0,0,0,0,0,0,-1,1385,1527,0,0
168,-503,0,0,0,0,0,0,0,0,0,-1,1392,1527,0,0
175,-503,0,0,0,0,0,0,0,0,0,-1,1399,1527,0,0
182,-503,0,0,0,0,0,0,0,0,0,-1,1406,1527,0,0
189,-503,0,0,0,0,0,0,0,0,0,-1,1413,1527,0,0
196,-503,0,0,0,0,0,0,0,0,0,-1,1420,1527,0,0
203,-503,0,0,0,0,0,0,0,0,0,-1,1427,1527,0,0
210,-503,0,0,0,0,0,0,0,0,0,-1,1434,1527,0,0
217,-503,0,0,0,0,0,0,0,0,0,-1,1441,1527,0,0
224,-503,0,0,0,0,0,0,0,0,0,-1,1448,1527,0,0
231,-503,0,0,0,0,0,0,0,0,0,-1,1455,1527,0,0
238,-503,0,0,0,0,0,0,0,0,0,-1,1462,1527,0,0
245,-503,0,0,0,0,0,0,0,0,0,-1,1469,1527,0,0
252,-503,0,0,0,0,0,0,0,0,0,-1,1476,1527,0,0
259,-503,0,0,0,0,0,0,0,0,0,-1,1483,1527,0,0
266,-503,0,0,0,0,0,0,0,0,0,-1,1490,1527,0,0
273,-503,0,0,0,0,0,0,0,0,0,-1,1497,1527,0,0
280,-503,0,0,0,0,0,0,0,0,0,-1,1504,1527,0,0
287,-503,0,0,0,0,0,0,0,0,0,-1,1511,1527,0,0
294,-503,0,0,0,0,0,0,0,0,0,-1,1518,1527,0,0
301,-503,0,0,0,0,0,0,0,0,0,-1,1525,1527,0,0
308,-503,0,0,0,0,0,0,0,0,0,-1,1532,1527,0,0
315,-503,0,0,0,0,0,0,0,0,0,-1,1539,1527,0,0
322,-503,0,0,0,0,0,0,0,0,0,-1,1546,1527,0,0
329,-503,0,0,0,0,0,0,0,0,0,-1,1553,1527,0,0
336,-503,0,0,0,0,0,0,0,0,0,-1,1560,1527,0,0
343,-503,0,0,0,0,0,0,0,0,0,-1,1567,1527,0,0
350,-503,0,0,0,0,0,0,0,0,0,-1,1574,1527,0,0
357,-503,0,0,0,0,0,0,0,0,0,-1,1581,1527,0,0
364,-503,0,0,0,0,0,0,0,0,0,-1,1588,1527,0,0
371,-503,0,0,0,0,0,0,0,0,0,-1,1595,1527,0,0
378,-503,0,0,0,0,0,0,0,0,0,-1,1602,1527,0,0
385,-503,0,0,0,0,0,0,0,0,0,-1,1609,1527,0,0
392,-503,0,0,0,0,0,0,0,0,0,-1,1616,1527,0,0
399,-503,0,0,0,0,0,0,0,0,0,-1,1623,1527,0,0
406,-503,0,0,0,0,0,0,0,0,0,-1,1630,1527,0,0
413,-503,0,0,0,0,0,0,0,0,0,-1,1637,1527,0,0
420,-503,0,0,0,0,0,0,0,0,0,-1,1644,1527,0,0
427,-503,10.5968,4.9856,0,0,0,0,0,0,0,-1,1651,1527,10.5969,-4.98563
434,-503,11.4329,3.97217,0.0856663,0.0298728,-0.0548793,0.119332,-0.00379317,-0.550254,0.0808489,0.0487687,1658,1527,11.4328,-3.97222
441,-503,12.0957,2.96509,0.0635397,0.0122328,-0.0240714,0.0730649,0.00270764,-0.376796,0.0478329,0.0433519,1665,1527,12.0957,-2.96512
448,-503,12.3259,2.53894,0,0,0,0,0,0,0,-1,1672,1527,12.326,-2.53895
455,-503,12.1669,2.18762,0,0,0,0,0,0,0,-1,1679,1527,12.1668,-2.18767
462,-503,11.59,2.60791,0,0,0,0,0,0,0,-1,1686,1527,11.5899,-2.60794
469,-503,11.1625,1.61853,0,0,0,0,0,0,0,-1,1693,1527,11.1625,-1.61856
476,-503,11.4286,1.63379,0,0,0,0,0,0,0,-1,1700,1527,11.4286,-1.63374
483,-503,8.08386,5.40405,0,0,0,0,0,0,0,-1,1707,1527,8.08386,-5.40408
490,-503,7.91736,5.80225,0,0,0,0,0,0,0,-1,1714,1527,7.91732,-5.80226
497,-503,8.17981,6.11401,0,0,0,0,0,0,0,-1,1721,1527,8.17975,-6.11402
504,-503,8.02991,6.67346,0,0,0,0,0,0,0,-1,1728,1527,8.0299,-6.67352
511,-503,7.72375,6.78491,0,0,0,0,0,0,0,-1,1735,1527,7.72377,-6.78497
518,-503,7.39966,6.66931,-0.00241754,-0.0285435,0.0197757,0.00822012,-0.0391812,0.493518,0.0292484,0.0424942,1742,1527,7.39969,-6.66934
525,-503,7.25952,6.55762,-0.00206214,-0.0221179,0.0135228,0.0047452,-0.0289252,0.466362,0.0210443,0.0293338,1749,1527,7.25947,-6.55767
532,-503,7.20825,6.51685,-0.00142182,-0.015702,0.00857073,0.00259329,-0.0197171,0.438105,0.0140889,0.0112236,1756,1527,7.20829,-6.51681
539,-503,7.19324,6.39722,-0.000909907,-0.0109283,0.0059388,0.00185016,-0.0136883,0.435053,0.00980067,0.0108641,1763,1527,7.19324,-6.3972
546,-503,7.18237,6.25488,-0.000616278,-0.00801143,0.00398846,0.00112488,-0.00975259,0.411613,0.00690729,0.010963,1770,1527,7.18235,-6.2549
553,-503,7.2113,6.11267,-9.76841e-05,-0.00539266,0.00274182,0.00106623,-0.00655657,0.40145,0.00476637,0.0143825,1777,1527,7.21127,-6.11272
560,-503,7.23291,5.98059,0.00079468,-0.00326897,0.00162009,0.00136151,-0.0038358,0.336564,0.00311195,0.0133337,1784,1527,7.23289,-5.98063
567,-503,7.23218,5.84448,0.00207067,-0.0014917,0.000360112,0.00210671,-0.00152774,0.0997432,0.00210721,0.0107068,1791,1527,7.23221,-5.8445
574,-503,7.21875,5.71338,0.00413925,0.000590501,-0.00187192,0.00494412,-0.000214362,-0.406071,0.00336981,0.0115079,1798,1527,7.21876,-5.71332
581,-503,7.19495,5.58313,0.00650358,0.00306175,-0.00521255,0.010272,-0.000706621,-0.625958,0.00709525,0.0126178,1805,1527,7.1949,-5.58308
588,-503,7.17371,5.44275,0.00959219,0.0068849,-0.0101021,0.018431,-0.00195387,-0.718797,0.0129877,0.0151067,1812,1527,7.17375,-5.44276
595,-503,7.18591,5.29919,0.0134655,0.0113156,-0.0161655,0.0285918,-0.00381062,-0.752198,0.0204501,0.0118154,1819,1527,7.18591,-5.29916
602,-503,7.21326,5.15674,0.0179495,0.0162498,-0.0234333,0.0405484,-0.00634903,-0.767272,0.0293782,0.0127745,1826,1527,7.21322,-5.15677
609,-503,7.2417,4.99805,0.0231594,0.0223055,-0.0325861,0.0553213,-0.0098564,-0.778847,0.0405674,0.0161104,1833,1527,7.24173,-4.99801
616,-503,7.20227,4.89148,0.0290655,0.0295599,-0.043802,0.0731154,-0.0144899,-0.78822,0.0542228,0.0184591,1840,1527,7.20225,-4.89148
623,-503,7.37695,4.77759,0.0356111,0.0383057,-0.0574983,0.0944725,-0.0205557,-0.797112,0.0708349,0.0351187,1847,1527,7.37699,-4.77759
630,-503,7.17627,4.88684,0,0,0,0,0,0,0,-1,1854,1527,7.17622,-4.88683
637,-503,7.6709,4.0918,0,0,0,0,0,0,0,-1,1861,1527,7.67085,-4.09178
644,-503,8.18445,2.65186,0,0,0,0,0,0,0,-1,1868,1527,8.18441,-2.65182
651,-503,8.42883,0.91272,0,0,0,0,0,0,0,-1,1875,1527,8.42884,-0.912712
658,-503,5.60913,3.79626,0,0,0,0,0,0,0,-1,1882,1527,5.60907,-3.79628
665,-503,0,0,0,0,0,0,0,0,0,-1,1889,1527,0,0
672,-503,0,0,0,0,0,0,0,0,0,-1,1896,1527,0,0
679,-503,0,0,0,0,0,0,0,0,0,-1,1903,1527,0,0
686,-503,0,0,0,0,0,0,0,0,0,-1,1910,1527,0,0
693,-503,0,0,0,0,0,0,0,0,0,-1,1917,1527,0,0
700,-503,0,0,0,0,0,0,0,0,0,-1,1924,1527,0,0
707,-503,0,0,0,0,0,0,0,0,0,-1,1931,1527,0,0
714,-503,0,0,0,0,0,0,0,0,0,-1,1938,1527,0,0
721,-503,0,0,0,0,0,0,0,0,0,-1,1945,1527,0,0
728,-503,0,0,0,0,0,0,0,0,0,-1,1952,1527,0,0
735,-503,0,0,0,0,0,0,0,0,0,-1,1959,1527,0,0
742,-503,0,0,0,0,0,0,0,0,0,-1,1966,1527,0,0
749,-503,0,0,0,0,0,0,0,0,0,-1,1973,1527,0,0
756,-503,0,0,0,0,0,0,0,0,0,-1,1980,1527,0,0
763,-503,0,0,0,0,0,0,0,0,0,-1,1987,1527,0,0
770,-503,0,0,0,0,0,0,0,0,0,-1,1994,1527,0,0
777,-503,0,0,0,0,0,0,0,0,0,-1,2001,1527,0,0
784,-503,0,0,0,0,0,0,0,0,0,-1,2008,1527,0,0
791,-503,0,0,0,0,0,0,0,0,0,-1,2015,1527,0,0
798,-503,0,0,0,0,0,0,0,0,0,-1,2022,1527,0,0
805,-503,0,0,0,0,0,0,0,0,0,-1,2029,1527,0,0
812,-503,0,0,0,0,0,0,0,0,0,-1,2036,1527,0,0
-700,-510,0,0,0,0,0,0,0,0,0,-1,524,1534,0,0
-693,-510,0,0,0,0,0,0,0,0,0,-1,531,1534,0,0
-686,-510,0,0,0,0,0,0,0,0,0,-1,538,1534,0,0
-679,-510,0,0,0,0,0,0,0,0,0,-1,545,1534,0,0
-672,-510,0,0,0,0,0,0,0,0,0,-1,552,1534,0,0
-665,-510,0,0,0,0,0,0,0,0,0,-1,559,1534,0,0
-658,-510,0,0,0,0,0,0,0,0,0,-1,566,1534,0,0
-651,-510,0,0,0,0,0,0,0,0,0,-1,573,1534,0,0
-644,-510,0,0,0,0,0,0,0,0,0,-1,580,1534,0,0
-637,-510,0,0,0,0,0,0,0,0,0,-1,587,1534,0,0
-630,-510,0,0,0,0,0,0,0,0,0,-1,594,1534,0,0
-623,-510,0,0,0,0,0,0,0,0,0,-1,601,1534,0,0
-616,-510,0,0,0,0,0,0,0,0,0,-1,608,1534,0,0
-609,-510,0,0,0,0,0,0,0,0,0,-1,615,1534,0,0
-602,-510,0,0,0,0,0,0,0,0,0,-1,622,1534,0,0
-595,-510,0,0,0,0,0,0,0,0,0,-1,629,1534,0,0
-588,-510,0,0,0,0,0,0,0,0,0,-1,636,1534,0,0
-581,-510,0,0,0,0,0,0,0,0,0,-1,643,1534,0,0
-574,-510,0,0,0,0,0,0,0,0,0,-1,650,1534,0,0
-567,-510,0,0,0,0,0,0,0,0,0,-1,657,1534,0,0
-560,-510,0,0,0,0,0,0,0,0,0,-1,664,1534,0,0
-553,-510,0,0,0,0,0,0,0,0,0,-1,671,1534,0,0
-546,-510,0,0,0,0,0,0,0,0,0,-1,678,1534,0,0
-539,-510,0,0,0,0,0,0,0,0,0,-1,685,1534,0,0
-532,-510,-0.870117,3.41309,0,0,0,0,0,0,0,-1,692,1534,-0.870118,-3.41313
-525,-510,-1.00848,5.14966,0,0,0,0,0,0,0,-1,699,1534,-1.00849,-5.14961
-518,-510,-1.12897,6.83179,0,0,0,0,0,0,0,-1,706,1534,-1.12894,-6.83174
-511,-510,1.06183,2.54553,0,0,0,0,0,0,0,-1,713,1534,1.06181,-2.54552
-504,-510,0.460083,2.64954,0,0,0,0,0,0,0,-1,720,1534,0.460081,-2.64956
-497,-510,0.102966,3.34814,0,0,0,0,0,0,0,-1,727,1534,0.102954,-3.3481
-490,-510,0.142395,3.64636,-0.00087946,0.016939,0.000403603,0.0169482,-0.000888598,1.54816,0.0116063,0.0491781,734,1534,0.142395,-3.64633
-483,-510,0.240295,3.67017,-0.000999202,0.015013,-0.00111772,0.0150907,-0.00107685,-1.50144,0.0104379,0.0405795,741,1534,0.240271,-3.67014
-476,-510,0.0490723,3.57043,-0.000252801,0.0121005,-0.00187383,0.0123785,-0.000530779,-1.42352,0.00843483,0.0247611,748,1534,0.049085,-3.57049
-469,-510,-0.0557861,3.7478,0.000338866,0.00958272,-0.00166681,0.00987409,4.74988e-05,-1.39774,0.00656695,0.0098362,755,1534,-0.0557931,-3.7478
-462,-510,-0.069458,3.92676,0.000419016,0.00731045,-0.00121154,0.00751724,0.000212229,-1.40174,0.00494227,0.0110141,762,1534,-0.0694742,-3.92673
-455,-510,-0.0823364,4.09656,0.00060593,0.00521107,-0.000850799,0.00536322,0.000453772,-1.39383,0.00343423,0.0132559,769,1534,-0.0823339,-4.09654
-448,-510,-0.0756226,4.27515,0.00095461,0.00330059,-0.000524338,0.00341245,0.000842751,-1.36061,0.00205256,0.0117006,776,1534,-0.0755991,-4.27519
-441,-510,-0.0837402,4.43701,0.00136693,0.00151688,-0.000273001,0.00172501,0.00115879,-0.919407,0.00101533,0.0130996,783,1534,-0.0837238,-4.43697
-434,-510,-0.122559,4.55701,0.00171675,-0.000208806,2.64913e-06,0.00171675,-0.000208809,0.00137577,0.00122007,0.0148765,790,1534,-0.122548,-4.55704
-427,-510,-0.110413,4.67493,0.00212446,-0.00160875,6.29678e-05,0.00212553,-0.00160981,0.0168605,0.00216344,0.0216664,797,1534,-0.110429,-4.67492
-420,-510,-0.0975952,4.85132,0.00262237,-0.00284762,-0.000157831,0.00262692,-0.00285217,-0.028822,0.00316425,0.0207841,804,1534,-0.0975823,-4.85133
-413,-510,-0.0839844,5.06543,0.00307455,-0.00427602,-0.000416249,0.00309805,-0.00429951,-0.0563879,0.00428972,0.0114468,811,1534,-0.0839588,-5.06542
-406,-510,-0.0910034,5.2113,0.0035441,-0.00580939,-0.000811176,0.00361393,-0.00587922,-0.0858701,0.00553264,0.0109038,818,1534,-0.0909793,-5.2113
-399,-510,-0.0769043,5.34729,0.00420067,-0.00794892,-0.0013089,0.00434009,-0.00808833,-0.10611,0.00728351,0.011356,825,1534,-0.076916,-5.34727
-392,-510,-0.00714111,5.55554,0.00536609,-0.0108573,-0.00136786,0.00548061,-0.0109718,-0.0835282,0.00967357,0.0171545,832,1534,-0.00715038,-5.5556
-385,-510,-0.00378418,5.65723,0.00698753,-0.0141612,-0.000896238,0.00702544,-0.0141991,-0.0422768,0.0124851,0.0270216,839,1534,-0.00378592,-5.65723
-378,-510,-0.0362549,5.51929,0.00991907,-0.0168581,0.000906792,0.00994974,-0.0168887,0.0338128,0.0156669,0.0338098,846,1534,-0.036226,-5.51924
-371,-510,0.15863,5.32654,0.0142778,-0.018381,0.00332441,0.0146128,-0.018716,0.10042,0.0192909,0.0441857,853,1534,0.158606,-5.32659
-364,-510,0.39032,5.19812,0,0,0,0,0,0,0,-1,860,1534,0.39029,-5.19815
-357,-510,-0.515503,5.40308,0,0,0,0,0,0,0,-1,867,1534,-0.515517,-5.40304
-350,-510,-0.385437,4.60083,0,0,0,0,0,0,0,-1,874,1534,-0.385463,-4.60078
-343,-510,-0.248047,5.14624,0,0,0,0,0,0,0,-1,881,1534,-0.248023,-5.1462
-336,-510,-2.29181,7.53674,0,0,0,0,0,0,0,-1,888,1534,-2.29181,-7.5367
-329,-510,2.02997,7.40417,0,0,0,0,0,0,0,-1,895,1534,2.02997,-7.40421
-322,-510,-5.68488,0.149414,0,0,0,0,0,0,0,-1,902,1534,-5.68485,-0.149464
-315,-510,-5.5177,0.817505,0.0397154,-0.0273837,0.0218922,0.0462263,-0.0338946,0.289076,0.0464401,0.044449,909,1534,-5.51771,-0.817527
-308,-510,-5.3678,1.49011,0.0385199,-0.0305692,0.0189263,0.0433649,-0.0354141,0.250607,0.0455602,0.0455748,916,1534,-5.36782,-1.49012
-301,-510,-5.35419,2.30542,0.0373964,-0.0367034,0.0143358,0.0400732,-0.0393801,0.184595,0.045873,0.0454551,923,1534,-5.35421,-2.30548
-294,-510,0,0,0,0,0,0,0,0,0,-1,930,1534,0,0
-287,-510,0,0,0,0,0,0,0,0,0,-1,937,1534,0,0
-280,-510,0,0,0,0,0,0,0,0,0,-1,944,1534,0,0
-273,-510,0,0,0,0,0,0,0,0,0,-1,951,1534,0,0
-266,-510,0,0,0,0,0,0,0,0,0,-1,958,1534,0,0
-259,-510,0,0,0,0,0,0,0,0,0,-1,965,1534,0,0
-252,-510,0,0,0,0,0,0,0,0,0,-1,972,1534,0,0
-245,-510,0,0,0,0,0,0,0,0,0,-1,979,1534,0,0
-238,-510,0,0,0,0,0,0,0,0,0,-1,986,1534,0,0
-231,-510,0,0,0,0,0,0,0,0,0,-1,993,1534,0,0
-224,-510,0,0,0,0,0,0,0,0,0,-1,1000,1534,0,0
-217,-510,0,0,0,0,0,0,0,0,0,-1,1007,1534,0,0
-210,-510,0,0,0,0,0,0,0,0,0,-1,1014,1534,0,0
-203,-510,0,0,0,0,0,0,0,0,0,-1,1021,1534,0,0
-196,-510,0,0,0,0,0,0,0,0,0,-1,1028,1534,0,0
-189,-510,0,0,0,0,0,0,0,0,0,-1,1035,1534,0,0
-182,-510,0,0,0,0,0,0,0,0,0,-1,1042,1534,0,0
-175,-510,0,0,0,0,0,0,0,0,0,-1,1049,1534,0,0
-168,-510,0,0,0,0,0,0,0,0,0,-1,1056,1534,0,0
-161,-510,0,0,0,0,0,0,0,0,0,-1,1063,1534,0,0
-154,-510,0,0,0,0,0,0,0,0,0,-1,1070,1534,0,0
-147,-510,0,0,0,0,0,0,0,0,0,-1,1077,1534,0,0
-140,-510,0,0,0,0,0,0,0,0,0,-1,1084,1534,0,0
-133,-510,0,0,0,0,0,0,0,0,0,-1,1091,1534,0,0
-126,-510,0,0,0,0,0,0,0,0,0,-1,1098,1534,0,0
-119,-510,0,0,0,0,0,0,0,0,0,-1,1105,1534,0,0
-112,-510,0,0,0,0,0,0,0,0,0,-1,1112,1534,0,0
-105,-510,0,0,0,0,0,0,0,0,0,-1,1119,1534,0,0
-98,-510,0,0,0,0,0,0,0,0,0,-1,1126,1534,0,0
-91,-510,0,0,0,0,0,0,0,0,0,-1,1133,1534,0,0
-84,-510,0,0,0,0,0,0,0,0,0,-1,1140,1534,0,0
-77,-510,0,0,0,0,0,0,0,0,0,-1,1147,1534,0,0
-70,-510,0,0,0,0,0,0,0,0,0,-1,1154,1534,0,0
-63,-510,0,0,0,0,0,0,0,0,0,-1,1161,1534,0,0
-56,-510,0,0,0,0,0,0,0,0,0,-1,1168,1534,0,0
-49,-510,0,0,0,0,0,0,0,0,0,-1,1175,1534,0,0
-42,-510,0,0,0,0,0,0,0,0,0,-1,1182,1534,0,0
-35,-510,0,0,0,0,0,0,0,0,0,-1,1189,1534,0,0
-28,-510,0,0,0,0,0,0,0,0,0,-1,1196,1534,0,0
-21,-510,0,0,0,0,0,0,0,0,0,-1,1203,1534,0,0
-14,-510,0,0,0,0,0,0,0,0,0,-1,1210,1534,0,0
-7,-510,0,0,0,0,0,0,0,0,0,-1,1217,1534,0,0
0,-510,0,0,0,0,0,0,0,0,0,-1,1224,1534,0,0
7,-510,0,0,0,0,0,0,0,0,0,-1,1231,1534,0,0
14,-510,0,0,0,0,0,0,0,0,0,-1,1238,1534,0,0
21,-510,0,0,0,0,0,0,0,0,0,-1,1245,1534,0,0
28,-510,0,0,0,0,0,0,0,0,0,-1,1252,1534,0,0
35,-510,0,0,0,0,0,0,0,0,0,-1,1259,1534,0,0
42,-510,0,0,0,0,0,0,0,0,0,-1,1266,1534,0,0
49,-510,0,0,0,0,0,0,0,0,0,-1,1273,1534,0,0
56,-510,0,0,0,0,0,0,0,0,0,-1,1280,1534,0,0
63,-510,0,0,0,0,0,0,0,0,0,-1,1287,1534,0,0
70,-510,0,0,0,0,0,0,0,0,0,-1,1294,1534,0,0
77,-510,0,0,0,0,0,0,0,0,0,-1,1301,1534,0,0
84,-510,0,0,0,0,0,0,0,0,0,-1,1308,1534,0,0
91,-510,0,0,0,0,0,0,0,0,0,-1,1315,1534,0,0
98,-510,0,0,0,0,0,0,0,0,0,-1,1322,1534,0,0
105,-510,0,0,0,0,0,0,0,0,0,-1,1329,1534,0,0
112,-510,0,0,0,0,0,0,0,0,0,-1,1336,1534,0,0
119,-510,0,0,0,0,0,0,0,0,0,-1,1343,1534,0,0
126,-510,0,0,0,0,0,0,0,0,0,-1,1350,1534,0,0
133,-510,0,0,0,0,0,0,0,0,0,-1,1357,1534,0,0
140,-510,0,0,0,0,0,0,0,0,0,-1,1364,1534,0,0
147,-510,0,0,0,0,0,0,0,0,0,-1,1371,1534,0,0
154,-510,0,0,0,0,0,0,0,0,0,-1,1378,1534,0,0
161,-510,0,0,0,0,0,0,0,0,0,-1,1385,1534,0,0
168,-510,0,0,0,0,0,0,0,0,0,-1,1392,1534,0,0
175,-510,0,0,0,0,0,0,0,0,0,-1,1399,1534,0,0
182,-510,0,0,0,0,0,0,0,0,0,-1,1406,1534,0,0
189,-510,0,0,0,0,0,0,0,0,0,-1,1413,1534,0,0
196,-510,0,0,0,0,0,0,0,0,0,-1,1420,1534,0,0
203,-510,0,0,0,0,0,0,0,0,0,-1,1427,1534,0,0
210,-510,0,0,0,0,0,0,0,0,0,-1,1434,1534,0,0
217,-510,0,0,0,0,0,0,0,0,0,-1,1441,1534,0,0
224,-510,0,0,0,0,0,0,0,0,0,-1,1448,1534,0,0
231,-510,0,0,0,0,0,0,0,0,0,-1,1455,1534,0,0
238,-510,0,0,0,0,0,0,0,0,0,-1,1462,1534,0,0
245,-510,0,0,0,0,0,0,0,0,0,-1,1469,1534,0,0
252,-510,0,0,0,0,0,0,0,0,0,-1,1476,1534,0,0
259,-510,0,0,0,0,0,0,0,0,0,-1,1483,1534,0,0
266,-510,0,0,0,0,0,0,0,0,0,-1,1490,1534,0,0
273,-510,0,0,0,0,0,0,0,0,0,-1,1497,1534,0,0
280,-510,0,0,0,0,0,0,0,0,0,-1,1504,1534,0,0
287,-510,0,0,0,0,0,0,0,0,0,-1,1511,1534,0,0
294,-510,0,0,0,0,0,0,0,0,0,-1,1518,1534,0,0
301,-510,0,0,0,0,0,0,0,0,0,-1,1525,1534,0,0
308,-510,0,0,0,0,0,0,0,0,0,-1,1532,1534,0,0
315,-510,0,0,0,0,0,0,0,0,0,-1,1539,1534,0,0
322,-510,0,0,0,0,0,0,0,0,0,-1,1546,1534,0,0
329,-510,0,0,0,0,0,0,0,0,0,-1,1553,1534,0,0
336,-510,0,0,0,0,0,0,0,0,0,-1,1560,1534,0,0
343,-510,0,0,0,0,0,0,0,0,0,-1,1567,1534,0,0
350,-510,0,0,0,0,0,0,0,0,0,-1,1574,1534,0,0
357,-510,0,0,0,0,0,0,0,0,0,-1,1581,1534,0,0
364,-510,0,0,0,0,0,0,0,0,0,-1,1588,1534,0,0
371,-510,0,0,0,0,0,0,0,0,0,-1,1595,1534,0,0
378,-510,0,0,0,0,0,0,0,0,0,-1,1602,1534,0,0
385,-510,0,0,0,0,0,0,0,0,0,-1,1609,1534,0,0
392,-510,0,0,0,0,0,0,0,0,0,-1,1616,1534,0,0
399,-510,0,0,0,0,0,0,0,0,0,-1,1623,1534,0,0
406,-510,0,0,0,0,0,0,0,0,0,-1,1630,1534,0,0
413,-510,0,0,0,0,0,0,0,0,0,-1,1637,1534,0,0
420,-510,13.1918,5.99402,0,0,0,0,0,0,0,-1,1644,1534,13.1917,-5.994
427,-510,10.9799,5.12341,0,0,0,0,0,0,0,-1,1651,1534,10.9798,-5.12337
434,-510,11.8219,4.07898,0.0744388,0.0435121,-0.0244971,0.0879448,0.0300061,-0.503864,0.0516216,0.0479476,1658,1534,11.8219,-4.07895
441,-510,12.6812,3.02991,0.0564189,0.022614,-0.00325115,0.0567287,0.0223041,-0.0950135,0.0330006,0.0444474,1665,1534,12.6811,-3.0299
448,-510,13.2379,2.2804,0,0,0,0,0,0,0,-1,1672,1534,13.2379,-2.28037
455,-510,9.76892,2.20642,0,0,0,0,0,0,0,-1,1679,1534,9.76894,-2.20647
462,-510,9.84692,2.49182,0.0208329,-0.0245318,0.0359381,0.0406481,-0.0443469,0.503894,0.0490874,0.0429743,1686,1534,9.84695,-2.49185
469,-510,9.99475,2.57556,0.0133404,-0.033173,0.0411446,0.0373464,-0.0571789,0.528163,0.0549731,0.0449641,1693,1534,9.99477,-2.57556
476,-510,9.94727,3.302,0,0,0,0,0,0,0,-1,1700,1534,9.94725,-3.30196
483,-510,8.20508,5.73486,0,0,0,0,0,0,0,-1,1707,1534,8.20502,-5.7349
490,-510,7.93372,6.19543,-3.76982e-05,-0.0406052,0.0408645,0.0253002,-0.0659432,0.55503,0.0543936,0.0492604,1714,1534,7.93371,-6.19549
497,-510,7.76111,6.42639,-0.00303441,-0.0396638,0.0390819,0.0218114,-0.0645095,0.566282,0.0518299,0.0417958,1721,1534,7.76113,-6.42635
504,-510,7.55896,6.44897,-0.00278902,-0.0339195,0.0314891,0.0167718,-0.0534803,0.555858,0.0423656,0.0398801,1728,1534,7.55892,-6.44898
511,-510,7.69458,6.698,0,0,0,0,0,0,0,-1,1735,1534,7.69453,-6.69802
518,-510,7.24939,6.72192,-0.00237065,-0.023933,0.018774,0.00849758,-0.0348013,0.524759,0.0264916,0.0319664,1742,1534,7.24944,-6.7219
525,-510,7.10132,6.65808,-0.00199487,-0.0179949,0.0124722,0.00482253,-0.0248123,0.500235,0.0183614,0.0168639,1749,1534,7.10136,-6.65812
532,-510,7.07593,6.53772,-0.00141962,-0.0122404,0.00763602,0.00252848,-0.0161885,0.477183,0.0117263,0.0118947,1756,1534,7.07595,-6.53768
539,-510,7.07373,6.39758,-0.000951131,-0.00820226,0.0050891,0.0016718,-0.0108252,0.475892,0.00783375,0.0125384,1763,1534,7.07369,-6.3976
546,-510,7.06299,6.27795,-0.000601262,-0.00579813,0.00312197,0.000862149,-0.00726154,0.438333,0.00515251,0.0120018,1770,1534,7.06301,-6.27798
553,-510,7.04297,6.13586,0.000102559,-0.00375567,0.00185015,0.000846374,-0.00449948,0.382254,0.00331796,0.0125692,1777,1534,7.043,-6.13586
560,-510,7.0625,5.98462,0.00135041,-0.00198805,0.00069785,0.00149041,-0.00212805,0.197992,0.00209991,0.0123213,1784,1534,7.06253,-5.98467
567,-510,7.07642,5.8512,0.00296928,-0.000211243,-0.000632885,0.00309059,-0.000332552,-0.18938,0.00217972,0.0118181,1791,1534,7.07644,-5.85125
574,-510,7.05981,5.72156,0.00562229,0.00221013,-0.00330713,0.00763748,0.000194948,-0.547263,0.00502793,0.0127184,1798,1534,7.05979,-5.72153
581,-510,7.04382,5.60242,0.00875859,0.00518521,-0.00756761,0.0147476,-0.000803767,-0.669472,0.0101103,0.0114893,1805,1534,7.04384,-5.60238
588,-510,7.05481,5.4436,0.0128672,0.0099283,-0.0138685,0.0253439,-0.00254838,-0.732618,0.0178063,0.0120294,1812,1534,7.0548,-5.44359
595,-510,7.06531,5.26001,0.0178719,0.0155299,-0.0214912,0.038224,-0.00482223,-0.758182,0.0272327,0.0114597,1819,1534,7.06528,-5.26005
602,-510,7.07849,5.09802,0.0236495,0.0219374,-0.0306602,0.0534657,-0.00787874,-0.771441,0.0385394,0.017013,1826,1534,7.0785,-5.09804
609,-510,7.12183,5.0592,0.0303528,0.0298345,-0.0422253,0.0723198,-0.0121325,-0.782329,0.0527247,0.026893,1833,1534,7.12189,-5.05917
616,-510,7.48596,5.04944,0.0379216,0.0392787,-0.0564225,0.0950267,-0.0178264,-0.791411,0.0700535,0.0380194,1840,1534,7.48591,-5.04945
623,-510,7.67749,4.84045,0.0461767,0.0504882,-0.0735923,0.121956,-0.0252914,-0.80004,0.0909149,0.040453,1847,1534,7.67745,-4.84042
630,-510,7.91541,4.61755,0,0,0,0,0,0,0,-1,1854,1534,7.91536,-4.61751
637,-510,8.41321,2.98523,0.0643644,0.078074,-0.117392,0.188811,-0.0463724,-0.814561,0.143845,0.0433211,1861,1534,8.41324,-2.98527
644,-510,8.94739,1.27234,0.0739337,0.0941667,-0.144176,0.22858,-0.0604801,-0.820425,0.176045,0.0475949,1868,1534,8.94739,-1.27234
651,-510,9.39368,-0.546143,0,0,0,0,0,0,0,-1,1875,1534,9.39371,0.546191
658,-510,0,0,0,0,0,0,0,0,0,-1,1882,1534,0,0
665,-510,0,0,0,0,0,0,0,0,0,-1,1889,1534,0,0
672,-510,0,0,0,0,0,0,0,0,0,-1,1896,1534,0,0
679,-510,0,0,0,0,0,0,0,0,0,-1,1903,1534,0,0
686,-510,0,0,0,0,0,0,0,0,0,-1,1910,1534,0,0
693,-510,0,0,0,0,0,0,0,0,0,-1,1917,1534,0,0
700,-510,0,0,0,0,0,0,0,0,0,-1,1924,1534,0,0
707,-510,0,0,0,0,0,0,0,0,0,-1,1931,1534,0,0
714,-510,0,0,0,0,0,0,0,0,0,-1,1938,1534,0,0
721,-510,0,0,0,0,0,0,0,0,0,-1,1945,1534,0,0
728,-510,0,0,0,0,0,0,0,0,0,-1,1952,1534,0,0
735,-510,0,0,0,0,0,0,0,0,0,-1,1959,1534,0,0
742,-510,0,0,0,0,0,0,0,0,0,-1,1966,1534,0,0
749,-510,0,0,0,0,0,0,0,0,0,-1,1973,1534,0,0
756,-510,0,0,0,0,0,0,0,0,0,-1,1980,1534,0,0
763,-510,0,0,0,0,0,0,0,0,0,-1,1987,1534,0,0
770,-510,0,0,0,0,0,0,0,0,0,-1,1994,1534,0,0
777,-510,0,0,0,0,0,0,0,0,0,-1,2001,1534,0,0
784,-510,0,0,0,0,0,0,0,0,0,-1,2008,1534,0,0
791,-510,0,0,0,0,0,0,0,0,0,-1,2015,1534,0,0
798,-510,0,0,0,0,0,0,0,0,0,-1,2022,1534,0,0
805,-510,0,0,0,0,0,0,0,0,0,-1,2029,1534,0,0
812,-510,0,0,0,0,0,0,0,0,0,-1,2036,1534,0,0
-700,-517,0,0,0,0,0,0,0,0,0,-1,524,1541,0,0
-693,-517,0,0,0,0,0,0,0,0,0,-1,531,1541,0,0
-686,-517,0,0,0,0,0,0,0,0,0,-1,538,1541,0,0
-679,-517,0,0,0,0,0,0,0,0,0,-1,545,1541,0,0
-672,-517,0,0,0,0,0,0,0,0,0,-1,552,1541,0,0
-665,-517,0,0,0,0,0,0,0,0,0,-1,559,1541,0,0
-658,-517,0,0,0,0,0,0,0,0,0,-1,566,1541,0,0
-651,-517,0,0,0,0,0,0,0,0,0,-1,573,1541,0,0
-644,-517,0,0,0,0,0,0,0,0,0,-1,580,1541,0,0
-637,-517,0,0,0,0,0,0,0,0,0,-1,587,1541,0,0
-630,-517,0,0,0,0,0,0,0,0,0,-1,594,1541,0,0
-623,-517,0,0,0,0,0,0,0,0,0,-1,601,1541,0,0
-616,-517,0,0,0,0,0,0,0,0,0,-1,608,1541,0,0
-609,-517,0,0,0,0,0,0,0,0,0,-1,615,1541,0,0
-602,-517,0,0,0,0,0,0,0,0,0,-1,622,1541,0,0
-595,-517,0,0,0,0,0,0,0,0,0,-1,629,1541,0,0
-588,-517,0,0,0,0,0,0,0,0,0,-1,636,1541,0,0
-581,-517,0,0,0,0,0,0,0,0,0,-1,643,1541,0,0
-574,-517,0,0,0,0,0,0,0,0,0,-1,650,1541,0,0
-567,-517,0,0,0,0,0,0,0,0,0,-1,657,1541,0,0
-560,-517,0,0,0,0,0,0,0,0,0,-1,664,1541,0,0
-553,-517,0,0,0,0,0,0,0,0,0,-1,671,1541,0,0
-546,-517,0,0,0,0,0,0,0,0,0,-1,678,1541,0,0
-539,-517,0,0,0,0,0,0,0,0,0,-1,685,1541,0,0
-532,-517,0,0,0,0,0,0,0,0,0,-1,692,1541,0,0
-525,-517,-1.10199,5.8042,0,0,0,0,0,0,0,-1,699,1541,-1.10197,-5.80418
-518,-517,-0.386108,1.21472,0,0,0,0,0,0,0,-1,706,1541,-0.386078,-1.21472
-511,-517,-0.265015,1.6781,0,0,0,0,0,0,0,-1,713,1541,-0.264985,-1.6781
-504,-517,0.239441,2.9043,0,0,0,0,0,0,0,-1,720,1541,0.239415,-2.90435
-497,-517,0.196838,3.28967,0,0,0,0,0,0,0,-1,727,1541,0.196855,-3.28963
-490,-517,0.308899,3.88037,0,0,0,0,0,0,0,-1,734,1541,0.3089,-3.88035
-483,-517,0.510986,3.73328,0,0,0,0,0,0,0,-1,741,1541,0.510971,-3.73329
-476,-517,0.230896,3.54456,0.00137368,0.0195401,-0.00250545,0.0198793,0.00103447,-1.43623,0.0129218,0.0315575,748,1541,0.230869,-3.54454
-469,-517,0.109314,3.73816,0.00156978,0.0156269,-0.00203758,0.0159163,0.00128039,-1.42971,0.0102109,0.0122653,755,1541,0.10931,-3.73817
-462,-517,0.0712891,3.91699,0.00132704,0.0120895,-0.00141393,0.0122721,0.00114439,-1.44232,0.00782788,0.0123791,762,1541,0.0712988,-3.91703
-455,-517,0.0794067,4.10571,0.00120826,0.00895682,-0.000952021,0.00907208,0.00109301,-1.45032,0.00571864,0.0124901,769,1541,0.0793792,-4.1057
-448,-517,0.081604,4.27979,0.00126825,0.0062392,-0.000577697,0.00630545,0.001202,-1.45661,0.00386577,0.0126174,776,1541,0.0816096,-4.27981
-441,-517,0.0621948,4.43066,0.00141922,0.00385862,-0.000306396,0.00389651,0.00138132,-1.44774,0.00228118,0.0113619,783,1541,0.0622066,-4.43062
-434,-517,0.0722656,4.57935,0.00155331,0.00162985,-1.54694e-05,0.00163286,0.0015503,-1.37873,0.00106212,0.0137608,790,1541,0.072248,-4.57939
-427,-517,0.0725708,4.72339,0.0017377,-0.000152783,6.38022e-05,0.00173985,-0.000154934,0.0336981,0.00121484,0.0134766,797,1541,0.0725561,-4.72344
-420,-517,0.0768433,4.90369,0.0020323,-0.00164863,-0.000155343,0.00203884,-0.00165517,-0.0421024,0.00213657,0.0190922,804,1541,0.0768533,-4.90368
-413,-517,0.0733643,5.05872,0.00233701,-0.00309676,-0.000420757,0.00236939,-0.00312915,-0.0768236,0.00318467,0.0100782,811,1541,0.0733426,-5.05872
-406,-517,0.057373,5.20837,0.0027234,-0.00450653,-0.000838223,0.00281931,-0.00460244,-0.113925,0.00432598,0.0104327,818,1541,0.0573791,-5.20836
-399,-517,0.0636597,5.35828,0.00331871,-0.00640962,-0.00127914,0.00348409,-0.006575,-0.128575,0.0058983,0.0106758,825,1541,0.0636746,-5.35829
-392,-517,0.0845337,5.51208,0.00423993,-0.00874022,-0.00137333,0.00438364,-0.00888393,-0.104264,0.00780554,0.0113747,832,1541,0.084551,-5.51209
-385,-517,0.122314,5.75488,0.00547899,-0.0112525,-0.00102328,0.00554134,-0.0113149,-0.0608567,0.00992041,0.0149749,839,1541,0.122311,-5.75492
-378,-517,0.133545,5.80017,0.00770127,-0.0132699,0.000435974,0.00771033,-0.013279,0.0207772,0.0122595,0.0267291,846,1541,0.133553,-5.80016
-371,-517,0.225342,5.61267,0.0110285,-0.0145154,0.00241203,0.0112543,-0.0147411,0.0933277,0.0150534,0.038252,853,1541,0.225328,-5.61266
-364,-517,0.31012,5.52844,0.0153214,-0.0150765,0.00558748,0.016316,-0.016071,0.176144,0.0186988,0.047099,860,1541,0.310093,-5.52845
-357,-517,0.435364,5.49609,0,0,0,0,0,0,0,-1,867,1541,0.435341,-5.49607
-350,-517,0.06073,5.19666,0.0211824,-0.016838,0.0114979,0.0243891,-0.0200447,0.27198,0.0256947,0.0462613,874,1541,0.0607069,-5.19666
-343,-517,0.185059,5.59033,0,0,0,0,0,0,0,-1,881,1541,0.185088,-5.59031
-336,-517,0.385803,6.3291,0,0,0,0,0,0,0,-1,888,1541,0.385784,-6.32905
-329,-517,2.86243,6.30566,0,0,0,0,0,0,0,-1,895,1541,2.86245,-6.30572
-322,-517,2.30371,5.94287,0,0,0,0,0,0,0,-1,902,1541,2.30373,-5.9429
-315,-517,-5.06683,0.952148,0,0,0,0,0,0,0,-1,909,1541,-5.06683,-0.95216
-308,-517,-5.04541,1.51904,0.0280505,-0.0301201,0.0110178,0.0300674,-0.032137,0.181053,0.0359203,0.0464842,916,1541,-5.04541,-1.519
-301,-517,-5.06262,2.40283,0.0263971,-0.0368974,0.00535937,0.0268477,-0.037348,0.0838776,0.0372283,0.0464754,923,1541,-5.06261,-2.40285
-294,-517,-5.43335,3.34314,0.0255779,-0.047279,-0.0019635,0.0256307,-0.0473319,-0.0269241,0.0427416,0.0484835,930,1541,-5.43333,-3.3432
-287,-517,-5.28577,3.87378,0,0,0,0,0,0,0,-1,937,1541,-5.28576,-3.87378
-280,-517,0,0,0,0,0,0,0,0,0,-1,944,1541,0,0
-273,-517,0,0,0,0,0,0,0,0,0,-1,951,1541,0,0
-266,-517,0,0,0,0,0,0,0,0,0,-1,958,1541,0,0
-259,-517,0,0,0,0,0,0,0,0,0,-1,965,1541,0,0
-252,-517,0,0,0,0,0,0,0,0,0,-1,972,1541,0,0
-245,-517,0,0,0,0,0,0,0,0,0,-1,979,1541,0,0
-238,-517,0,0,0,0,0,0,0,0,0,-1,986,1541,0,0
-231,-517,0,0,0,0,0,0,0,0,0,-1,993,1541,0,0
-224,-517,0,0,0,0,0,0,0,0,0,-1,1000,1541,0,0
-217,-517,0,0,0,0,0,0,0,0,0,-1,1007,1541,0,0
-210,-517,0,0,0,0,0,0,0,0,0,-1,1014,1541,0,0
-203,-517,0,0,0,0,0,0,0,0,0,-1,1021,1541,0,0
-196,-517,0,0,0,0,0,0,0,0,0,-1,1028,1541,0,0
-189,-517,0,0,0,0,0,0,0,0,0,-1,1035,1541,0,0
-182,-517,0,0,0,0,0,0,0,0,0,-1,1042,1541,0,0
-175,-517,0,0,0,0,0,0,0,0,0,-1,1049,1541,0,0
-168,-517,0,0,0,0,0,0,0,0,0,-1,1056,1541,0,0
-161,-517,0,0,0,0,0,0,0,0,0,-1,1063,1541,0,0
-154,-517,0,0,0,0,0,0,0,0,0,-1,1070,1541,0,0
-147,-517,0,0,0,0,0,0,0,0,0,-1,1077,1541,0,0
-140,-517,0,0,0,0,0,0,0,0,0,-1,1084,1541,0,0
-133,-517,0,0,0,0,0,0,0,0,0,-1,1091,1541,0,0
-126,-517,0,0,0,0,0,0,0,0,0,-1,1098,1541,0,0
-119,-517,0,0,0,0,0,0,0,0,0,-1,1105,1541,0,0
-112,-517,0,0,0,0,0,0,0,0,0,-1,1112,1541,0,0
-105,-517,0,0,0,0,0,0,0,0,0,-1,1119,1541,0,0
-98,-517,0,0,0,0,0,0,0,0,0,-1,1126,1541,0,0
-91,-517,0,0,0,0,0,0,0,0,0,-1,1133,1541,0,0
-84,-517,0,0,0,0,0,0,0,0,0,-1,1140,1541,0,0
-77,-517,0,0,0,0,0,0,0,0,0,-1,1147,1541,0,0
-70,-517,0,0,0,0,0,0,0,0,0,-1,1154,1541,0,0
-63,-517,0,0,0,0,0,0,0,0,0,-1,1161,1541,0,0
-56,-517,0,0,0,0,0,0,0,0,0,-1,1168,1541,0,0
-49,-517,0,0,0,0,0,0,0,0,0,-1,1175,1541,0,0
-42,-517,0,0,0,0,0,0,0,0,0,-1,1182,1541,0,0
-35,-517,0,0,0,0,0,0,0,0,0,-1,1189,1541,0,0
-28,-517,0,0,0,0,0,0,0,0,0,-1,1196,1541,0,0
-21,-517,0,0,0,0,0,0,0,0,0,-1,1203,1541,0,0
-14,-517,0,0,0,0,0,0,0,0,0,-1,1210,1541,0,0
-7,-517,0,0,0,0,0,0,0,0,0,-1,1217,1541,0,0
0,-517,0,0,0,0,0,0,0,0,0,-1,1224,1541,0,0
7,-517,0,0,0,0,0,0,0,0,0,-1,1231,1541,0,0
14,-517,0,0,0,0,0,0,0,0,0,-1,1238,1541,0,0
21,-517,0,0,0,0,0,0,0,0,0,-1,1245,1541,0,0
28,-517,0,0,0,0,0,0,0,0,0,-1,1252,1541,0,0
35,-517,0,0,0,0,0,0,0,0,0,-1,1259,1541,0,0
42,-517,0,0,0,0,0,0,0,0,0,-1,1266,1541,0,0
49,-517,0,0,0,0,0,0,0,0,0,-1,1273,1541,0,0
56,-517,0,0,0,0,0,0,0,0,0,-1,1280,1541,0,0
63,-517,0,0,0,0,0,0,0,0,0,-1,1287,1541,0,0
70,-517,0,0,0,0,0,0,0,0,0,-1,1294,1541,0,0
77,-517,0,0,0,0,0,0,0,0,0,-1,1301,1541,0,0
84,-517,0,0,0,0,0,0,0,0,0,-1,1308,1541,0,0
91,-517,0,0,0,0,0,0,0,0,0,-1,1315,1541,0,0
98,-517,0,0,0,0,0,0,0,0,0,-1,1322,1541,0,0
105,-517,0,0,0,0,0,0,0,0,0,-1,1329,1541,0,0
112,-517,0,0,0,0,0,0,0,0,0,-1,1336,1541,0,0
119,-517,0,0,0,0,0,0,0,0,0,-1,1343,1541,0,0
126,-517,0,0,0,0,0,0,0,0,0,-1,1350,1541,0,0
133,-517,0,0,0,0,0,0,0,0,0,-1,1357,1541,0,0
140,-517,0,0,0,0,0,0,0,0,0,-1,1364,1541,0,0
147,-517,0,0,0,0,0,0,0,0,0,-1,1371,1541,0,0
154,-517,0,0,0,0,0,0,0,0,0,-1,1378,1541,0,0
161,-517,0,0,0,0,0,0,0,0,0,-1,1385,1541,0,0
168,-517,0,0,0,0,0,0,0,0,0,-1,1392,1541,0,0
175,-517,0,0,0,0,0,0,0,0,0,-1,1399,1541,0,0
182,-517,0,0,0,0,0,0,0,0,0,-1,1406,1541,0,0
189,-517,0,0,0,0,0,0,0,0,0,-1,1413,1541,0,0
196,-517,0,0,0,0,0,0,0,0,0,-1,1420,1541,0,0
203,-517,0,0,0,0,0,0,0,0,0,-1,1427,1541,0,0
210,-517,0,0,0,0,0,0,0,0,0,-1,1434,1541,0,0
217,-517,0,0,0,0,0,0,0,0,0,-1,1441,1541,0,0
224,-517,0,0,0,0,0,0,0,0,0,-1,1448,1541,0,0
231,-517,0,0,0,0,0,0,0,0,0,-1,1455,1541,0,0
238,-517,0,0,0,0,0,0,0,0,0,-1,1462,1541,0,0
245,-517,0,0,0,0,0,0,0,0,0,-1,1469,1541,0,0
252,-517,0,0,0,0,0,0,0,0,0,-1,1476,1541,0,0
259,-517,0,0,0,0,0,0,0,0,0,-1,1483,1541,0,0
266,-517,0,0,0,0,0,0,0,0,0,-1,1490,1541,0,0
273,-517,0,0,0,0,0,0,0,0,0,-1,1497,1541,0,0
280,-517,0,0,0,0,0,0,0,0,0,-1,1504,1541,0,0
287,-517,0,0,0,0,0,0,0,0,0,-1,1511,1541,0,0
294,-517,0,0,0,0,0,0,0,0,0,-1,1518,1541,0,0
301,-517,0,0,0,0,0,0,0,0,0,-1,1525,1541,0,0
308,-517,0,0,0,0,0,0,0,0,0,-1,1532,1541,0,0
315,-517,0,0,0,0,0,0,0,0,0,-1,1539,1541,0,0
322,-517,0,0,0,0,0,0,0,0,0,-1,1546,1541,0,0
329,-517,0,0,0,0,0,0,0,0,0,-1,1553,1541,0,0
336,-517,0,0,0,0,0,0,0,0,0,-1,1560,1541,0,0
343,-517,0,0,0,0,0,0,0,0,0,-1,1567,1541,0,0
350,-517,0,0,0,0,0,0,0,0,0,-1,1574,1541,0,0
357,-517,0,0,0,0,0,0,0,0,0,-1,1581,1541,0,0
364,-517,0,0,0,0,0,0,0,0,0,-1,1588,1541,0,0
371,-517,0,0,0,0,0,0,0,0,0,-1,1595,1541,0,0
378,-517,0,0,0,0,0,0,0,0,0,-1,1602,1541,0,0
385,-517,0,0,0,0,0,0,0,0,0,-1,1609,1541,0,0
392,-517,0,0,0,0,0,0,0,0,0,-1,1616,1541,0,0
399,-517,0,0,0,0,0,0,0,0,0,-1,1623,1541,0,0
406,-517,12.1469,6.22412,0,0,0,0,0,0,0,-1,1630,1541,12.1468,-6.22408
413,-517,12.2695,6.3324,0,0,0,0,0,0,0,-1,1637,1541,12.2696,-6.33243
420,-517,12.4789,6.20337,0,0,0,0,0,0,0,-1,1644,1541,12.4789,-6.20333
427,-517,11.647,4.66516,0,0,0,0,0,0,0,-1,1651,1541,11.647,-4.66519
434,-517,12.3719,3.92773,0.0631489,0.0534673,-0.00102717,0.0632567,0.0533595,-0.104544,0.0392898,0.0491208,1658,1541,12.3719,-3.92776
441,-517,13.146,3.14124,0.0481806,0.0307321,0.0126738,0.0548426,0.02407,0.483961,0.0317421,0.047923,1665,1541,13.146,-3.14121
448,-517,13.8861,2.36682,0,0,0,0,0,0,0,-1,1672,1541,13.8861,-2.36684
455,-517,8.35681,0.38208,0,0,0,0,0,0,0,-1,1679,1541,8.35681,-0.382065
462,-517,8.50793,1.59912,0.0172742,-0.0182767,0.0397715,0.0430618,-0.0440643,0.575245,0.0503034,0.0420686,1686,1541,8.50799,-1.59913
469,-517,8.79614,2.86072,0.0105838,-0.02694,0.0431526,0.0388767,-0.0552329,0.580336,0.0546071,0.0467568,1693,1541,8.79608,-2.86067
476,-517,8.61658,3.97998,0.00532403,-0.0318398,0.0434914,0.0340368,-0.0605526,0.583509,0.0553219,0.0484559,1700,1541,8.61656,-3.97998
483,-517,7.54175,4.73828,0,0,0,0,0,0,0,-1,1707,1541,7.54175,-4.73831
490,-517,7.42188,6.08704,-0.00178678,-0.0354453,0.0399845,0.0247658,-0.0619978,0.586204,0.0516075,0.0464399,1714,1541,7.42192,-6.08701
497,-517,7.35046,6.61462,-0.0043532,-0.0344061,0.0373637,0.0208924,-0.0596518,0.594211,0.0482636,0.041738,1721,1541,7.35051,-6.6146
504,-517,7.19592,6.78894,-0.00394425,-0.0287822,0.0297465,0.0158716,-0.048598,0.58765,0.0387872,0.0369935,1728,1541,7.19593,-6.7889
511,-517,7.02539,6.89392,-0.00344188,-0.0234771,0.0234193,0.0120123,-0.0389313,0.583299,0.0307506,0.0291674,1735,1541,7.0254,-6.89397
518,-517,6.92346,6.81079,-0.00313999,-0.019294,0.0170265,0.00762816,-0.0300621,0.563928,0.0230095,0.0196104,1742,1541,6.92351,-6.81076
525,-517,6.9281,6.65979,-0.00249996,-0.0140252,0.011024,0.00417677,-0.0207019,0.544565,0.0153837,0.0108331,1749,1541,6.92811,-6.65974
532,-517,6.93506,6.52234,-0.00179244,-0.00904296,0.00652435,0.00204619,-0.0128816,0.531813,0.00934477,0.0106637,1756,1541,6.93511,-6.52237
539,-517,6.95154,6.37842,-0.00121097,-0.00574321,0.00417348,0.00127194,-0.00822612,0.536679,0.00595352,0.0119853,1763,1541,6.95152,-6.37843
546,-517,6.94128,6.25439,-0.000657672,-0.00381845,0.0022988,0.000551582,-0.0050277,0.48426,0.00354998,0.0124081,1770,1541,6.94124,-6.25444
553,-517,6.90588,6.13135,0.000280327,-0.00226917,0.00106873,0.000669059,-0.0026579,0.348856,0.00203201,0.0146605,1777,1541,6.90583,-6.13129
560,-517,6.91187,5.97986,0.00183438,-0.000814831,-0.000109447,0.00183889,-0.000819345,-0.0412196,0.00157191,0.0147125,1784,1541,6.91186,-5.97988
567,-517,6.93066,5.86475,0.00379915,0.00102269,-0.00154171,0.00448554,0.000336299,-0.418866,0.0028848,0.0130422,1791,1541,6.9306,-5.86479
574,-517,6.92798,5.71875,0.00708968,0.00393381,-0.0046906,0.0104606,0.000562844,-0.623143,0.00679393,0.0140077,1798,1541,6.92795,-5.7187
581,-517,6.93835,5.57031,0.0111,0.00754927,-0.0100042,0.0194851,-0.000835873,-0.697582,0.0132775,0.0149012,1805,1541,6.93829,-5.57029
588,-517,6.95093,5.42566,0.0163679,0.013378,-0.0178606,0.0327961,-0.00305013,-0.743644,0.0229484,0.014565,1812,1541,6.95099,-5.42565
595,-517,6.94189,5.25781,0.0226511,0.0203204,-0.0271534,0.0486642,-0.00569268,-0.763952,0.0344973,0.0142516,1819,1541,6.94188,-5.25786
602,-517,6.91443,5.08667,0.0299013,0.0284178,-0.0383523,0.0675191,-0.00919988,-0.775729,0.0483718,0.0193378,1826,1541,6.91449,-5.08666
609,-517,7.25635,4.93359,0.0383017,0.0384095,-0.0524643,0.09082,-0.0141087,-0.785912,0.065756,0.0370254,1833,1541,7.2564,-4.93357
616,-517,7.91602,4.30579,0.0477175,0.0503435,-0.0697161,0.118759,-0.020698,-0.794814,0.0868975,0.0425314,1840,1541,7.91602,-4.30579
623,-517,8.26563,4.84412,0.0577361,0.0642451,-0.0903426,0.151392,-0.0294106,-0.803403,0.112026,0.0452185,1847,1541,8.26564,-4.84411
630,-517,8.8468,3.54358,0.0683134,0.0801474,-0.114583,0.188966,-0.0405051,-0.811195,0.141426,0.045275,1854,1541,8.84675,-3.5436
637,-517,9.28638,1.93713,0.0791974,0.0979826,-0.142598,0.231497,-0.0543174,-0.818284,0.175266,0.0471177,1861,1541,9.28633,-1.93714
644,-517,9.68384,0.293701,0.0899175,0.117383,-0.174433,0.278623,-0.071323,-0.824681,0.213531,0.0470182,1868,1541,9.68382,-0.293759
651,-517,0,0,0,0,0,0,0,0,0,-1,1875,1541,0,0
658,-517,0,0,0,0,0,0,0,0,0,-1,1882,1541,0,0
665,-517,0,0,0,0,0,0,0,0,0,-1,1889,1541,0,0
672,-517,0,0,0,0,0,0,0,0,0,-1,1896,1541,0,0
679,-517,0,0,0,0,0,0,0,0,0,-1,1903,1541,0,0
686,-517,0,0,0,0,0,0,0,0,0,-1,1910,1541,0,0
693,-517,0,0,0,0,0,0,0,0,0,-1,1917,1541,0,0
700,-517,0,0,0,0,0,0,0,0,0,-1,1924,1541,0,0
707,-517,0,0,0,0,0,0,0,0,0,-1,1931,1541,0,0
714,-517,0,0,0,0,0,0,0,0,0,-1,1938,1541,0,0
721,-517,0,0,0,0,0,0,0,0,0,-1,1945,1541,0,0
728,-517,0,0,0,0,0,0,0,0,0,-1,1952,1541,0,0
735,-517,0,0,0,0,0,0,0,0,0,-1,1959,1541,0,0
742,-517,0,0,0,0,0,0,0,0,0,-1,1966,1541,0,0
749,-517,0,0,0,0,0,0,0,0,0,-1,1973,1541,0,0
756,-517,0,0,0,0,0,0,0,0,0,-1,1980,1541,0,0
763,-517,0,0,0,0,0,0,0,0,0,-1,1987,1541,0,0
770,-517,0,0,0,0,0,0,0,0,0,-1,1994,1541,0,0
777,-517,0,0,0,0,0,0,0,0,0,-1,2001,1541,0,0
784,-517,0,0,0,0,0,0,0,0,0,-1,2008,1541,0,0
791,-517,0,0,0,0,0,0,0,0,0,-1,2015,1541,0,0
798,-517,0,0,0,0,0,0,0,0,0,-1,2022,1541,0,0
805,-517,0,0,0,0,0,0,0,0,0,-1,2029,1541,0,0
812,-517,0,0,0,0,0,0,0,0,0,-1,2036,1541,0,0
-700,-524,0,0,0,0,0,0,0,0,0,-1,524,1548,0,0
-693,-524,0,0,0,0,0,0,0,0,0,-1,531,1548,0,0
-686,-524,0,0,0,0,0,0,0,0,0,-1,538,1548,0,0
-679,-524,0,0,0,0,0,0,0,0,0,-1,545,1548,0,0
-672,-524,0,0,0,0,0,0,0,0,0,-1,552,1548,0,0
-665,-524,0,0,0,0,0,0,0,0,0,-1,559,1548,0,0
-658,-524,0,0,0,0,0,0,0,0,0,-1,566,1548,0,0
-651,-524,0,0,0,0,0,0,0,0,0,-1,573,1548,0,0
-644,-524,0,0,0,0,0,0,0,0,0,-1,580,1548,0,0
-637,-524,0,0,0,0,0,0,0,0,0,-1,587,1548,0,0
-630,-524,0,0,0,0,0,0,0,0,0,-1,594,1548,0,0
-623,-524,0,0,0,0,0,0,0,0,0,-1,601,1548,0,0
-616,-524,0,0,0,0,0,0,0,0,0,-1,608,1548,0,0
-609,-524,0,0,0,0,0,0,0,0,0,-1,615,1548,0,0
-602,-524,0,0,0,0,0,0,0,0,0,-1,622,1548,0,0
-595,-524,0,0,0,0,0,0,0,0,0,-1,629,1548,0,0
-588,-524,0,0,0,0,0,0,0,0,0,-1,636,1548,0,0
-581,-524,0,0,0,0,0,0,0,0,0,-1,643,1548,0,0
-574,-524,0,0,0,0,0,0,0,0,0,-1,650,1548,0,0
-567,-524,0,0,0,0,0,0,0,0,0,-1,657,1548,0,0
-560,-524,0,0,0,0,0,0,0,0,0,-1,664,1548,0,0
-553,-524,0,0,0,0,0,0,0,0,0,-1,671,1548,0,0
-546,-524,0,0,0,0,0,0,0,0,0,-1,678,1548,0,0
-539,-524,0,0,0,0,0,0,0,0,0,-1,685,1548,0,0
-532,-524,0,0,0,0,0,0,0,0,0,-1,692,1548,0,0
-525,-524,-1.07629,0.363037,0,0,0,0,0,0,0,-1,699,1548,-1.07628,-0.362988
-518,-524,-0.567444,0.495605,0,0,0,0,0,0,0,-1,706,1548,-0.567473,-0.495585
-511,-524,-0.109192,0.705444,0,0,0,0,0,0,0,-1,713,1548,-0.109186,-0.705397
-504,-524,0.498596,0.950562,0,0,0,0,0,0,0,-1,720,1548,0.498573,-0.950584
-497,-524,0.212158,3.15906,0,0,0,0,0,0,0,-1,727,1548,0.212152,-3.15911
-490,-524,0.216797,3.27502,0.00339682,0.0390959,-0.00189528,0.0391963,0.00329648,-1.5179,0.0251043,0.0470943,734,1548,0.216777,-3.27499
-483,-524,0.25238,3.3125,0.00330069,0.0346156,-0.00275917,0.0348568,0.00305944,-1.48358,0.0222882,0.0485298,741,1548,0.252354,-3.31249
-476,-524,0.29718,3.4895,0.00343984,0.0286561,-0.00286253,0.028977,0.00311898,-1.45917,0.0183668,0.0436248,748,1548,0.297182,-3.48954
-469,-524,0.278992,3.68286,0.00324443,0.0230784,-0.00215705,0.0233102,0.00301255,-1.46371,0.0146397,0.0296418,755,1548,0.278976,-3.68289
-462,-524,0.25177,3.93286,0.00270627,0.0180748,-0.00137732,0.0181973,0.00258382,-1.48212,0.0113686,0.0219572,762,1548,0.251744,-3.93287
-455,-524,0.22052,4.11914,0.00228616,0.0137181,-0.000811322,0.0137754,0.00222887,-1.5003,0.00853815,0.0153901,769,1548,0.220534,-4.11911
-448,-524,0.237671,4.28369,0.00203768,0.0100049,-0.000385561,0.0100235,0.00201906,-1.52255,0.00612132,0.0118755,776,1548,0.237658,-4.28369
-441,-524,0.231567,4.42798,0.00189602,0.00685369,-9.02491e-05,0.00685534,0.00189438,-1.5526,0.0040878,0.0106142,783,1548,0.231555,-4.42797
-434,-524,0.270508,4.59033,0.00179189,0.00396655,0.000218148,0.00398822,0.00177022,1.4718,0.00230743,0.0121718,790,1548,0.270532,-4.59035
-427,-524,0.275513,4.74915,0.0017306,0.00169115,0.000313344,0.00202484,0.00139691,0.753966,0.00119681,0.0133412,797,1548,0.275524,-4.74912
-420,-524,0.236633,4.90198,0.00176237,-0.000229687,8.94819e-05,0.00176638,-0.000233698,0.0447992,0.00126271,0.0108612,804,1548,0.23665,-4.90201
-413,-524,0.239929,5.06165,0.00185567,-0.00182574,-0.00018999,0.00186545,-0.00183552,-0.0514259,0.00213678,0.0101893,811,1548,0.239957,-5.06159
-406,-524,0.234253,5.22595,0.00209775,-0.00321721,-0.000641223,0.00217402,-0.00329348,-0.118382,0.00317864,0.0107209,818,1548,0.234268,-5.22594
-399,-524,0.230225,5.37463,0.00257966,-0.00495046,-0.00104333,0.00272155,-0.00509234,-0.135163,0.00458005,0.00882606,825,1548,0.23023,-5.37469
-392,-524,0.245972,5.52393,0.00326959,-0.00687714,-0.0011717,0.00340314,-0.00701069,-0.113486,0.0061315,0.00985415,832,1548,0.245989,-5.52388
-385,-524,0.242432,5.70227,0.00419202,-0.00881237,-0.000918668,0.0042566,-0.00887694,-0.0701784,0.00773748,0.0110892,839,1548,0.242444,-5.70222
-378,-524,0.259399,5.89587,0.00584708,-0.0102924,0.000257106,0.00585118,-0.0102964,0.0159249,0.00943986,0.0159959,846,1548,0.259382,-5.89592
-371,-524,0.338074,5.99512,0.00832211,-0.0112755,0.00182534,0.00849067,-0.011444,0.0920857,0.0115513,0.0316503,853,1548,0.338064,-5.99508
-364,-524,0.30835,5.90259,0.0116479,-0.0117184,0.00443033,0.0124597,-0.0125302,0.181227,0.014428,0.038922,860,1548,0.308354,-5.90261
-357,-524,0.348572,5.70581,0.0147161,-0.0117012,0.00757364,0.0167334,-0.0137185,0.260309,0.0176101,0.0448686,867,1548,0.348585,-5.70581
-350,-524,0.519592,5.67029,0.0159982,-0.012902,0.00938725,0.0187796,-0.0156835,0.288058,0.019924,0.0474519,874,1548,0.519569,-5.67031
-343,-524,0.728088,6.25549,0,0,0,0,0,0,0,-1,881,1548,0.728073,-6.25546
-336,-524,0.673828,6.89307,0,0,0,0,0,0,0,-1,888,1548,0.673835,-6.8931
-329,-524,0.752075,7.43347,0,0,0,0,0,0,0,-1,895,1548,0.752081,-7.43345
-322,-524,0.97113,8.00793,0,0,0,0,0,0,0,-1,902,1548,0.971104,-8.0079
-315,-524,-0.63031,6.23889,0,0,0,0,0,0,0,-1,909,1548,-0.630332,-6.23893
-308,-524,-4.53119,2.56079,0,0,0,0,0,0,0,-1,916,1548,-4.53118,-2.56085
-301,-524,-4.58661,3.03088,0.0173372,-0.0352646,-0.0023248,0.0174398,-0.0353672,-0.0440816,0.0310682,0.0467058,923,1548,-4.5866,-3.03094
-294,-524,-4.59277,3.58789,0.0159747,-0.0449931,-0.0103408,0.0176808,-0.0466992,-0.16352,0.0384078,0.0466218,930,1548,-4.59277,-3.58788
-287,-524,-4.46375,4.18494,0.0159298,-0.0577416,-0.0194236,0.0207372,-0.062549,-0.242626,0.0500644,0.0470552,937,1548,-4.46373,-4.18494
-280,-524,-4.03204,4.59973,0.0185145,-0.0736216,-0.0284414,0.0265868,-0.0816939,-0.276549,0.0651587,0.0469744,944,1548,-4.03203,-4.59968
-273,-524,0,0,0,0,0,0,0,0,0,-1,951,1548,0,0
-266,-524,0,0,0,0,0,0,0,0,0,-1,958,1548,0,0
-259,-524,0,0,0,0,0,0,0,0,0,-1,965,1548,0,0
-252,-524,0,0,0,0,0,0,0,0,0,-1,972,1548,0,0
-245,-524,0,0,0,0,0,0,0,0,0,-1,979,1548,0,0
-238,-524,0,0,0,0,0,0,0,0,0,-1,986,1548,0,0
-231,-524,0,0,0,0,0,0,0,0,0,-1,993,1548,0,0
-224,-524,0,0,0,0,0,0,0,0,0,-1,1000,1548,0,0
-217,-524,0,0,0,0,0,0,0,0,0,-1,1007,1548,0,0
-210,-524,0,0,0,0,0,0,0,0,0,-1,1014,1548,0,0
-203,-524,0,0,0,0,0,0,0,0,0,-1,1021,1548,0,0
-196,-524,0,0,0,0,0,0,0,0,0,-1,1028,1548,0,0
-189,-524,0,0,0,0,0,0,0,0,0,-1,1035,1548,0,0
-182,-524,0,0,0,0,0,0,0,0,0,-1,1042,1548,0,0
-175,-524,0,0,0,0,0,0,0,0,0,-1,1049,1548,0,0
-168,-524,0,0,0,0,0,0,0,0,0,-1,1056,1548,0,0
-161,-524,0,0,0,0,0,0,0,0,0,-1,1063,1548,0,0
-154,-524,0,0,0,0,0,0,0,0,0,-1,1070,1548,0,0
-147,-524,0,0,0,0,0,0,0,0,0,-1,1077,1548,0,0
-140,-524,0,0,0,0,0,0,0,0,0,-1,1084,1548,0,0
-133,-524,0,0,0,0,0,0,0,0,0,-1,1091,1548,0,0
-126,-524,0,0,0,0,0,0,0,0,0,-1,1098,1548,0,0
-119,-524,0,0,0,0,0,0,0,0,0,-1,1105,1548,0,0
-112,-524,0,0,0,0,0,0,0,0,0,-1,1112,1548,0,0
-105,-524,0,0,0,0,0,0,0,0,0,-1,1119,1548,0,0
-98,-524,0,0,0,0,0,0,0,0,0,-1,1126,1548,0,0
-91,-524,0,0,0,0,0,0,0,0,0,-1,1133,1548,0,0
-84,-524,0,0,0,0,0,0,0,0,0,-1,1140,1548,0,0
-77,-524,0,0,0,0,0,0,0,0,0,-1,1147,1548,0,0
-70,-524,0,0,0,0,0,0,0,0,0,-1,1154,1548,0,0
-63,-524,0,0,0,0,0,0,0,0,0,-1,1161,1548,0,0
-56,-524,0,0,0,0,0,0,0,0,0,-1,1168,1548,0,0
-49,-524,0,0,0,0,0,0,0,0,0,-1,1175,1548,0,0
-42,-524,0,0,0,0,0,0,0,0,0,-1,1182,1548,0,0
-35,-524,0,0,0,0,0,0,0,0,0,-1,1189,1548,0,0
-28,-524,0,0,0,0,0,0,0,0,0,-1,1196,1548,0,0
-21,-524,0,0,0,0,0,0,0,0,0,-1,1203,1548,0,0
-14,-524,0,0,0,0,0,0,0,0,0,-1,1210,1548,0,0
-7,-524,0,0,0,0,0,0,0,0,0,-1,1217,1548,0,0
0,-524,0,0,0,0,0,0,0,0,0,-1,1224,1548,0,0
7,-524,0,0,0,0,0,0,0,0,0,-1,1231,1548,0,0
14,-524,0,0,0,0,0,0,0,0,0,-1,1238,1548,0,0
21,-524,0,0,0,0,0,0,0,0,0,-1,1245,1548,0,0
28,-524,0,0,0,0,0,0,0,0,0,-1,1252,1548,0,0
35,-524,0,0,0,0,0,0,0,0,0,-1,1259,1548,0,0
42,-524,0,0,0,0,0,0,0,0,0,-1,1266,1548,0,0
49,-524,0,0,0,0,0,0,0,0,0,-1,1273,1548,0,0
56,-524,0,0,0,0,0,0,0,0,0,-1,1280,1548,0,0
63,-524,0,0,0,0,0,0,0,0,0,-1,1287,1548,0,0
70,-524,0,0,0,0,0,0,0,0,0,-1,1294,1548,0,0
77,-524,0,0,0,0,0,0,0,0,0,-1,1301,1548,0,0
84,-524,0,0,0,0,0,0,0,0,0,-1,1308,1548,0,0
91,-524,0,0,0,0,0,0,0,0,0,-1,1315,1548,0,0
98,-524,0,0,0,0,0,0,0,0,0,-1,1322,1548,0,0
105,-524,0,0,0,0,0,0,0,0,0,-1,1329,1548,0,0
112,-524,0,0,0,0,0,0,0,0,0,-1,1336,1548,0,0
119,-524,0,0,0,0,0,0,0,0,0,-1,1343,1548,0,0
126,-524,0,0,0,0,0,0,0,0,0,-1,1350,1548,0,0
133,-524,0,0,0,0,0,0,0,0,0,-1,1357,1548,0,0
140,-524,0,0,0,0,0,0,0,0,0,-1,1364,1548,0,0
147,-524,0,0,0,0,0,0,0,0,0,-1,1371,1548,0,0
154,-524,0,0,0,0,0,0,0,0,0,-1,1378,1548,0,0
161,-524,0,0,0,0,0,0,0,0,0,-1,1385,1548,0,0
168,-524,0,0,0,0,0,0,0,0,0,-1,1392,1548,0,0
175,-524,0,0,0,0,0,0,0,0,0,-1,1399,1548,0,0
182,-524,0,0,0,0,0,0,0,0,0,-1,1406,1548,0,0
189,-524,0,0,0,0,0,0,0,0,0,-1,1413,1548,0,0
196,-524,0,0,0,0,0,0,0,0,0,-1,1420,1548,0,0
203,-524,0,0,0,0,0,0,0,0,0,-1,1427,1548,0,0
210,-524,0,0,0,0,0,0,0,0,0,-1,1434,1548,0,0
217,-524,0,0,0,0,0,0,0,0,0,-1,1441,1548,0,0
224,-524,0,0,0,0,0,0,0,0,0,-1,1448,1548,0,0
231,-524,0,0,0,0,0,0,0,0,0,-1,1455,1548,0,0
238,-524,0,0,0,0,0,0,0,0,0,-1,1462,1548,0,0
245,-524,0,0,0,0,0,0,0,0,0,-1,1469,1548,0,0
252,-524,0,0,0,0,0,0,0,0,0,-1,1476,1548,0,0
259,-524,0,0,0,0,0,0,0,0,0,-1,1483,1548,0,0
266,-524,0,0,0,0,0,0,0,0,0,-1,1490,1548,0,0
273,-524,0,0,0,0,0,0,0,0,0,-1,1497,1548,0,0
280,-524,0,0,0,0,0,0,0,0,0,-1,1504,1548,0,0
287,-524,0,0,0,0,0,0,0,0,0,-1,1511,1548,0,0
294,-524,0,0,0,0,0,0,0,0,0,-1,1518,1548,0,0
301,-524,0,0,0,0,0,0,0,0,0,-1,1525,1548,0,0
308,-524,0,0,0,0,0,0,0,0,0,-1,1532,1548,0,0
315,-524,0,0,0,0,0,0,0,0,0,-1,1539,1548,0,0
322,-524,0,0,0,0,0,0,0,0,0,-1,1546,1548,0,0
329,-524,0,0,0,0,0,0,0,0,0,-1,1553,1548,0,0
336,-524,0,0,0,0,0,0,0,0,0,-1,1560,1548,0,0
343,-524,0,0,0,0,0,0,0,0,0,-1,1567,1548,0,0
350,-524,0,0,0,0,0,0,0,0,0,-1,1574,1548,0,0
357,-524,0,0,0,0,0,0,0,0,0,-1,1581,1548,0,0
364,-524,0,0,0,0,0,0,0,0,0,-1,1588,1548,0,0
371,-524,0,0,0,0,0,0,0,0,0,-1,1595,1548,0,0
378,-524,0,0,0,0,0,0,0,0,0,-1,1602,1548,0,0
385,-524,0,0,0,0,0,0,0,0,0,-1,1609,1548,0,0
392,-524,0,0,0,0,0,0,0,0,0,-1,1616,1548,0,0
399,-524,8.13403,4.49084,0,0,0,0,0,0,0,-1,1623,1548,8.13399,-4.4909
406,-524,8.64294,6.06799,0,0,0,0,0,0,0,-1,1630,1548,8.6429,-6.06805
413,-524,11.677,6.41858,0,0,0,0,0,0,0,-1,1637,1548,11.677,-6.41864
420,-524,11.4913,6.36401,0,0,0,0,0,0,0,-1,1644,1548,11.4913,-6.36402
427,-524,11.4014,6.26514,0,0,0,0,0,0,0,-1,1651,1548,11.4013,-6.26513
434,-524,9.63916,7.99463,0,0,0,0,0,0,0,-1,1658,1548,9.63919,-7.99464
441,-524,9.62512,7.96204,0,0,0,0,0,0,0,-1,1665,1548,9.62518,-7.96205
448,-524,9.70105,2.55945,0,0,0,0,0,0,0,-1,1672,1548,9.70107,-2.5594
455,-524,8.66772,1.40906,0,0,0,0,0,0,0,-1,1679,1548,8.6677,-1.40904
462,-524,8.05969,2.40405,0.0135695,-0.0133054,0.0412276,0.0434942,-0.0432301,0.62786,0.0500704,0.0469091,1686,1548,8.05967,-2.404
469,-524,7.53259,3.53931,0.00781259,-0.0218333,0.0429711,0.0384455,-0.0524662,0.619313,0.0526955,0.0469963,1693,1548,7.53263,-3.53927
476,-524,7.10156,4.77271,0.00310064,-0.027047,0.0423113,0.0329431,-0.0568895,0.614278,0.0524755,0.0458491,1700,1548,7.10152,-4.7727
483,-524,6.78589,5.74023,8.16268e-05,-0.0294227,0.0392812,0.0272894,-0.0566305,0.605771,0.0494285,0.0425248,1707,1548,6.78584,-5.74018
490,-524,6.83032,6.49597,-0.00300652,-0.030786,0.0373598,0.022962,-0.0567545,0.607425,0.0473827,0.0389767,1714,1548,6.83029,-6.49599
497,-524,6.88025,7.08936,-0.00502617,-0.0295787,0.0340596,0.018902,-0.0535069,0.612428,0.0433675,0.0296142,1721,1548,6.88022,-7.08939
504,-524,6.82629,7.00098,-0.00449097,-0.0241508,0.026814,0.0142382,-0.0428799,0.609707,0.0343314,0.0176659,1728,1548,6.82627,-7.00103
511,-524,6.77576,6.90491,-0.00388703,-0.0191704,0.0207243,0.0105596,-0.033617,0.608767,0.0266382,0.01576,1735,1548,6.77575,-6.90494
518,-524,6.78479,6.78943,-0.00342667,-0.0152111,0.0147412,0.00655628,-0.0251941,0.595269,0.0193552,0.0149693,1742,1548,6.78477,-6.78937
525,-524,6.79736,6.66956,-0.00262954,-0.0105885,0.00927284,0.00348165,-0.0166997,0.582705,0.012457,0.0134962,1749,1548,6.79737,-6.66954
532,-524,6.8075,6.52319,-0.00187087,-0.00635209,0.00525296,0.00159937,-0.00982234,0.58381,0.0071413,0.00924836,1756,1548,6.80746,-6.52314
539,-524,6.80762,6.37109,-0.00124196,-0.00369849,0.00314408,0.000905253,-0.00584571,0.599184,0.00423129,0.0100859,1763,1548,6.8076,-6.37112
546,-524,6.77673,6.24927,-0.000543799,-0.00215674,0.00140194,0.00026708,-0.00296762,0.524385,0.00207318,0.0136877,1770,1548,6.77672,-6.24926
553,-524,6.76917,6.17224,0.000549892,-0.000975579,0.000239714,0.000586674,-0.00101236,0.152254,0.000934045,0.0206265,1777,1548,6.76914,-6.17229
560,-524,6.77222,5.94482,0.00234577,0.00026071,-0.000953063,0.00271575,-0.000109275,-0.370298,0.001848,0.0278403,1784,1548,6.77221,-5.94481
567,-524,6.78992,5.84705,0.00466554,0.00221344,-0.00251931,0.0062413,0.000637687,-0.558938,0.00396543,0.0172795,1791,1548,6.78992,-5.84704
574,-524,6.79016,5.70996,0.00864576,0.00577822,-0.00614946,0.0135264,0.000897601,-0.670867,0.00873377,0.0129782,1798,1548,6.79018,-5.70991
581,-524,6.79883,5.55847,0.0135945,0.0101694,-0.0126055,0.0246033,-0.000839343,-0.717883,0.016689,0.0139932,1805,1548,6.79888,-5.55845
588,-524,6.81689,5.41516,0.0201096,0.0172495,-0.0220728,0.0407986,-0.00343952,-0.75305,0.028415,0.0135066,1812,1548,6.81687,-5.41511
595,-524,6.79626,5.24841,0.0277645,0.0257084,-0.0330313,0.0597837,-0.0063108,-0.769841,0.0421173,0.0132794,1819,1548,6.79631,-5.24845
602,-524,6.85901,5.02173,0.0366278,0.0357163,-0.0462395,0.0824138,-0.0100697,-0.78047,0.0585883,0.0264295,1826,1548,6.85902,-5.02168
609,-524,7.3075,4.73071,0.0468512,0.0479456,-0.06279,0.110191,-0.0153939,-0.789756,0.0790927,0.0398162,1833,1548,7.30749,-4.73077
616,-524,7.67126,4.43713,0,0,0,0,0,0,0,-1,1840,1548,7.67124,-4.43714
623,-524,9.37048,4.55847,0.0699215,0.0793862,-0.106921,0.18168,-0.0323721,-0.807514,0.133228,0.0436943,1847,1548,9.37054,-4.55848
630,-524,9.84399,2.84131,0.0821844,0.0986355,-0.135254,0.225914,-0.0450943,-0.815769,0.167675,0.0482442,1854,1548,9.84402,-2.84126
637,-524,10.1802,1.08569,0.0945149,0.120444,-0.168448,0.276426,-0.0614669,-0.823805,0.207825,0.0488596,1861,1548,10.1802,-1.0857
644,-524,10.6909,-0.662476,0,0,0,0,0,0,0,-1,1868,1548,10.6909,0.662492
651,-524,0,0,0,0,0,0,0,0,0,-1,1875,1548,0,0
658,-524,0,0,0,0,0,0,0,0,0,-1,1882,1548,0,0
665,-524,0,0,0,0,0,0,0,0,0,-1,1889,1548,0,0
672,-524,0,0,0,0,0,0,0,0,0,-1,1896,1548,0,0
679,-524,0,0,0,0,0,0,0,0,0,-1,1903,1548,0,0
686,-524,0,0,0,0,0,0,0,0,0,-1,1910,1548,0,0
693,-524,0,0,0,0,0,0,0,0,0,-1,1917,1548,0,0
700,-524,0,0,0,0,0,0,0,0,0,-1,1924,1548,0,0
707,-524,0,0,0,0,0,0,0,0,0,-1,1931,1548,0,0
714,-524,0,0,0,0,0,0,0,0,0,-1,1938,1548,0,0
721,-524,0,0,0,0,0,0,0,0,0,-1,1945,1548,0,0
728,-524,0,0,0,0,0,0,0,0,0,-1,1952,1548,0,0
735,-524,0,0,0,0,0,0,0,0,0,-1,1959,1548,0,0
742,-524,0,0,0,0,0,0,0,0,0,-1,1966,1548,0,0
749,-524,0,0,0,0,0,0,0,0,0,-1,1973,1548,0,0
756,-524,0,0,0,0,0,0,0,0,0,-1,1980,1548,0,0
763,-524,0,0,0,0,0,0,0,0,0,-1,1987,1548,0,0
770,-524,0,0,0,0,0,0,0,0,0,-1,1994,1548,0,0
777,-524,0,0,0,0,0,0,0,0,0,-1,2001,1548,0,0
784,-524,0,0,0,0,0,0,0,0,0,-1,2008,1548,0,0
791,-524,0,0,0,0,0,0,0,0,0,-1,2015,1548,0,0
798,-524,0,0,0,0,0,0,0,0,0,-1,2022,1548,0,0
805,-524,0,0,0,0,0,0,0,0,0,-1,2029,1548,0,0
812,-524,0,0,0,0,0,0,0,0,0,-1,2036,1548,0,0
-700,-531,0,0,0,0,0,0,0,0,0,-1,524,1555,0,0
-693,-531,0,0,0,0,0,0,0,0,0,-1,531,1555,0,0
-686,-531,0,0,0,0,0,0,0,0,0,-1,538,1555,0,0
-679,-531,0,0,0,0,0,0,0,0,0,-1,545,1555,0,0
-672,-531,0,0,0,0,0,0,0,0,0,-1,552,1555,0,0
-665,-531,0,0,0,0,0,0,0,0,0,-1,559,1555,0,0
-658,-531,0,0,0,0,0,0,0,0,0,-1,566,1555,0,0
-651,-531,0,0,0,0,0,0,0,0,0,-1,573,1555,0,0
-644,-531,0,0,0,0,0,0,0,0,0,-1,580,1555,0,0
-637,-531,0,0,0,0,0,0,0,0,0,-1,587,1555,0,0
-630,-531,0,0,0,0,0,0,0,0,0,-1,594,1555,0,0
-623,-531,0,0,0,0,0,0,0,0,0,-1,601,1555,0,0
-616,-531,0,0,0,0,0,0,0,0,0,-1,608,1555,0,0
-609,-531,0,0,0,0,0,0,0,0,0,-1,615,1555,0,0
-602,-531,0,0,0,0,0,0,0,0,0,-1,622,1555,0,0
-595,-531,0,0,0,0,0,0,0,0,0,-1,629,1555,0,0
-588,-531,0,0,0,0,0,0,0,0,0,-1,636,1555,0,0
-581,-531,0,0,0,0,0,0,0,0,0,-1,643,1555,0,0
-574,-531,0,0,0,0,0,0,0,0,0,-1,650,1555,0,0
-567,-531,0,0,0,0,0,0,0,0,0,-1,657,1555,0,0
-560,-531,0,0,0,0,0,0,0,0,0,-1,664,1555,0,0
-553,-531,0,0,0,0,0,0,0,0,0,-1,671,1555,0,0
-546,-531,0,0,0,0,0,0,0,0,0,-1,678,1555,0,0
-539,-531,0,0,0,0,0,0,0,0,0,-1,685,1555,0,0
-532,-531,0,0,0,0,0,0,0,0,0,-1,692,1555,0,0
-525,-531,0,0,0,0,0,0,0,0,0,-1,699,1555,0,0
-518,-531,-1.07977,-0.437622,0,0,0,0,0,0,0,-1,706,1555,-1.07978,0.43766
-511,-531,-0.528015,0.20752,0,0,0,0,0,0,0,-1,713,1555,-0.528,-0.207482
-504,-531,0.0524292,-0.0650635,0,0,0,0,0,0,0,-1,720,1555,0.0524201,0.0650886
-497,-531,0.278748,2.88672,0,0,0,0,0,0,0,-1,727,1555,0.278749,-2.88674
-490,-531,0.373535,2.85339,0.00668433,0.0535164,-0.00349219,0.0537754,0.00642535,-1.49677,0.033912,0.0468839,734,1555,0.373564,-2.85342
-483,-531,0.33844,2.84387,0.00625643,0.047038,-0.0039076,0.047409,0.00588539,-1.47613,0.0298383,0.0461826,741,1555,0.33841,-2.84385
-476,-531,0.394226,3.16919,0.0059299,0.0391088,-0.0035883,0.0394924,0.00554626,-1.46429,0.0246881,0.0452077,748,1555,0.394253,-3.16919
-469,-531,0.453003,3.49976,0.00522547,0.0316424,-0.0025717,0.0318905,0.00497744,-1.47465,0.0198107,0.0410924,755,1555,0.453019,-3.4998
-462,-531,0.386963,3.93311,0.00433779,0.0250289,-0.00156387,0.0251465,0.00422025,-1.49578,0.0155496,0.0390652,762,1555,0.386953,-3.93307
-455,-531,0.391052,4.16113,0.00358158,0.0193194,-0.000805942,0.0193605,0.00354042,-1.51976,0.0119037,0.0268371,769,1555,0.391045,-4.16117
-448,-531,0.407532,4.25635,0.00298859,0.0144807,-0.000245603,0.0144859,0.00298335,-1.54944,0.0088324,0.0123521,776,1555,0.407545,-4.25635
-441,-531,0.385498,4.41565,0.00252527,0.0104391,0.000143883,0.0104417,0.00252266,1.55262,0.00629114,0.0118001,783,1555,0.385495,-4.41569
-434,-531,0.395752,4.58862,0.00217099,0.00676529,0.000529867,0.00682561,0.00211067,1.45745,0.00403525,0.011816,790,1555,0.395733,-4.58866
-427,-531,0.416504,4.74829,0.00185238,0.0038886,0.000700632,0.00410639,0.0016346,1.26943,0.00238719,0.0132508,797,1555,0.416511,-4.74826
-420,-531,0.390259,4.90515,0.00161988,0.00146502,0.000527274,0.00207538,0.00100952,0.712494,0.00119837,0.0116023,804,1555,0.390271,-4.90521
-413,-531,0.38739,5.07263,0.00152427,-0.000320308,0.00026857,0.00156258,-0.000358616,0.141681,0.00117957,0.0102781,811,1555,0.387397,-5.07268
-406,-531,0.400269,5.21887,0.00165702,-0.00173327,-0.000212131,0.00167024,-0.00174649,-0.0622465,0.00197281,0.0112594,818,1555,0.400251,-5.21885
-399,-531,0.406982,5.37573,0.00205006,-0.0033378,-0.000583927,0.00211262,-0.00340036,-0.106727,0.00321174,0.0124438,825,1555,0.406957,-5.37568
-392,-531,0.406433,5.53589,0.00256901,-0.00499046,-0.000759915,0.00264464,-0.0050661,-0.0992024,0.00452438,0.0164254,832,1555,0.406442,-5.53586
-385,-531,0.381531,5.69226,0.00325968,-0.00653169,-0.000608666,0.00329737,-0.00656938,-0.0618462,0.00580004,0.0142178,839,1555,0.381542,-5.69226
-378,-531,0.383057,5.8219,0.00448046,-0.00763091,0.000312158,0.0044885,-0.00763895,0.0257511,0.0070801,0.0105765,846,1555,0.383077,-5.82193
-371,-531,0.412537,6.01306,0.00622936,-0.00842113,0.00149193,0.00637974,-0.00857152,0.100461,0.00866298,0.0128876,853,1555,0.412555,-6.01305
-364,-531,0.456299,6.14038,0.00864981,-0.00876604,0.00354378,0.00934328,-0.00945951,0.193246,0.0108559,0.0246038,860,1555,0.456274,-6.14044
-357,-531,0.355042,6.1377,0.0109771,-0.00857062,0.00617708,0.0127655,-0.010359,0.281809,0.013375,0.0333842,867,1555,0.355017,-6.13774
-350,-531,0.52771,6.14661,0.0116259,-0.00946613,0.00751261,0.0140282,-0.0118684,0.309488,0.0149687,0.0420708,874,1555,0.527698,-6.14659
-343,-531,0.84259,6.52222,0.0120077,-0.0114907,0.00723908,0.0140588,-0.0135418,0.276099,0.0159361,0.0466665,881,1555,0.842564,-6.52226
-336,-531,0.749146,7.04211,0.0131492,-0.0132807,0.00686347,0.0148252,-0.0149567,0.239513,0.0171947,0.0478734,888,1555,0.749123,-7.0421
-329,-531,0.809753,7.67078,0.0141452,-0.0156574,0.00620486,0.0153854,-0.0168976,0.197281,0.0186454,0.0487303,895,1555,0.809779,-7.67073
-322,-531,0.995483,8.25647,0,0,0,0,0,0,0,-1,902,1555,0.995503,-8.25651
-315,-531,-4.17731,3.92468,0,0,0,0,0,0,0,-1,909,1555,-4.17729,-3.92472
-308,-531,-4.24542,3.81287,0,0,0,0,0,0,0,-1,916,1555,-4.24542,-3.81287
-301,-531,-4.01685,3.81836,0.0100012,-0.0326302,-0.00863402,0.0116835,-0.0343125,-0.192428,0.0276063,0.04518,923,1555,-4.01683,-3.81833
-294,-531,-3.86292,4.18677,0.00846074,-0.0415735,-0.0168995,0.0136338,-0.0467466,-0.297053,0.0365663,0.0463922,930,1555,-3.86292,-4.18682
-287,-531,-3.79559,4.71277,0.00789889,-0.0533709,-0.0266544,0.0178713,-0.0633434,-0.358014,0.0492783,0.0461939,937,1555,-3.79558,-4.71273
-280,-531,-3.46399,5.19666,0.00940261,-0.0676525,-0.0367122,0.0240931,-0.082343,-0.380638,0.0644455,0.0461623,944,1555,-3.46397,-5.19668
-273,-531,-3.05054,5.66785,0,0,0,0,0,0,0,-1,951,1555,-3.05051,-5.66779
-266,-531,-2.64716,6.08423,0,0,0,0,0,0,0,-1,958,1555,-2.64718,-6.08419
-259,-531,0,0,0,0,0,0,0,0,0,-1,965,1555,0,0
-252,-531,0,0,0,0,0,0,0,0,0,-1,972,1555,0,0
-245,-531,0,0,0,0,0,0,0,0,0,-1,979,1555,0,0
-238,-531,0,0,0,0,0,0,0,0,0,-1,986,1555,0,0
-231,-531,0,0,0,0,0,0,0,0,0,-1,993,1555,0,0
-224,-531,0,0,0,0,0,0,0,0,0,-1,1000,1555,0,0
-217,-531,0,0,0,0,0,0,0,0,0,-1,1007,1555,0,0
-210,-531,0,0,0,0,0,0,0,0,0,-1,1014,1555,0,0
-203,-531,0,0,0,0,0,0,0,0,0,-1,1021,1555,0,0
-196,-531,0,0,0,0,0,0,0,0,0,-1,1028,1555,0,0
-189,-531,0,0,0,0,0,0,0,0,0,-1,1035,1555,0,0
-182,-531,0,0,0,0,0,0,0,0,0,-1,1042,1555,0,0
-175,-531,0,0,0,0,0,0,0,0,0,-1,1049,1555,0,0
-168,-531,0,0,0,0,0,0,0,0,0,-1,1056,1555,0,0
-161,-531,0,0,0,0,0,0,0,0,0,-1,1063,1555,0,0
-154,-531,0,0,0,0,0,0,0,0,0,-1,1070,1555,0,0
-147,-531,0,0,0,0,0,0,0,0,0,-1,1077,1555,0,0
-140,-531,0,0,0,0,0,0,0,0,0,-1,1084,1555,0,0
-133,-531,0,0,0,0,0,0,0,0,0,-1,1091,1555,0,0
-126,-531,0,0,0,0,0,0,0,0,0,-1,1098,1555,0,0
-119,-531,0,0,0,0,0,0,0,0,0,-1,1105,1555,0,0
-112,-531,0,0,0,0,0,0,0,0,0,-1,1112,1555,0,0
-105,-531,0,0,0,0,0,0,0,0,0,-1,1119,1555,0,0
-98,-531,0,0,0,0,0,0,0,0,0,-1,1126,1555,0,0
-91,-531,0,0,0,0,0,0,0,0,0,-1,1133,1555,0,0
-84,-531,0,0,0,0,0,0,0,0,0,-1,1140,1555,0,0
-77,-531,0,0,0,0,0,0,0,0,0,-1,1147,1555,0,0
-70,-531,0,0,0,0,0,0,0,0,0,-1,1154,1555,0,0
-63,-531,0,0,0,0,0,0,0,0,0,-1,1161,1555,0,0
-56,-531,0,0,0,0,0,0,0,0,0,-1,1168,1555,0,0
-49,-531,0,0,0,0,0,0,0,0,0,-1,1175,1555,0,0
-42,-531,0,0,0,0,0,0,0,0,0,-1,1182,1555,0,0
-35,-531,0,0,0,0,0,0,0,0,0,-1,1189,1555,0,0
-28,-531,0,0,0,0,0,0,0,0,0,-1,1196,1555,0,0
-21,-531,0,0,0,0,0,0,0,0,0,-1,1203,1555,0,0
-14,-531,0,0,0,0,0,0,0,0,0,-1,1210,1555,0,0
-7,-531,0,0,0,0,0,0,0,0,0,-1,1217,1555,0,0
0,-531,0,0,0,0,0,0,0,0,0,-1,1224,1555,0,0
7,-531,0,0,0,0,0,0,0,0,0,-1,1231,1555,0,0
14,-531,0,0,0,0,0,0,0,0,0,-1,1238,1555,0,0
21,-531,0,0,0,0,0,0,0,0,0,-1,1245,1555,0,0
28,-531,0,0,0,0,0,0,0,0,0,-1,1252,1555,0,0
35,-531,0,0,0,0,0,0,0,0,0,-1,1259,1555,0,0
42,-531,0,0,0,0,0,0,0,0,0,-1,1266,1555,0,0
49,-531,0,0,0,0,0,0,0,0,0,-1,1273,1555,0,0
56,-531,0,0,0,0,0,0,0,0,0,-1,1280,1555,0,0
63,-531,0,0,0,0,0,0,0,0,0,-1,1287,1555,0,0
70,-531,0,0,0,0,0,0,0,0,0,-1,1294,1555,0,0
77,-531,0,0,0,0,0,0,0,0,0,-1,1301,1555,0,0
84,-531,0,0,0,0,0,0,0,0,0,-1,1308,1555,0,0
91,-531,0,0,0,0,0,0,0,0,0,-1,1315,1555,0,0
98,-531,0,0,0,0,0,0,0,0,0,-1,1322,1555,0,0
105,-531,0,0,0,0,0,0,0,0,0,-1,1329,1555,0,0
112,-531,0,0,0,0,0,0,0,0,0,-1,1336,1555,0,0
119,-531,0,0,0,0,0,0,0,0,0,-1,1343,1555,0,0
126,-531,0,0,0,0,0,0,0,0,0,-1,1350,1555,0,0
133,-531,0,0,0,0,0,0,0,0,0,-1,1357,1555,0,0
140,-531,0,0,0,0,0,0,0,0,0,-1,1364,1555,0,0
147,-531,0,0,0,0,0,0,0,0,0,-1,1371,1555,0,0
154,-531,0,0,0,0,0,0,0,0,0,-1,1378,1555,0,0
161,-531,0,0,0,0,0,0,0,0,0,-1,1385,1555,0,0
168,-531,0,0,0,0,0,0,0,0,0,-1,1392,1555,0,0
175,-531,0,0,0,0,0,0,0,0,0,-1,1399,1555,0,0
182,-531,0,0,0,0,0,0,0,0,0,-1,1406,1555,0,0
189,-531,0,0,0,0,0,0,0,0,0,-1,1413,1555,0,0
196,-531,0,0,0,0,0,0,0,0,0,-1,1420,1555,0,0
203,-531,0,0,0,0,0,0,0,0,0,-1,1427,1555,0,0
210,-531,0,0,0,0,0,0,0,0,0,-1,1434,1555,0,0
217,-531,0,0,0,0,0,0,0,0,0,-1,1441,1555,0,0
224,-531,0,0,0,0,0,0,0,0,0,-1,1448,1555,0,0
231,-531,0,0,0,0,0,0,0,0,0,-1,1455,1555,0,0
238,-531,0,0,0,0,0,0,0,0,0,-1,1462,1555,0,0
245,-531,0,0,0,0,0,0,0,0,0,-1,1469,1555,0,0
252,-531,0,0,0,0,0,0,0,0,0,-1,1476,1555,0,0
259,-531,0,0,0,0,0,0,0,0,0,-1,1483,1555,0,0
266,-531,0,0,0,0,0,0,0,0,0,-1,1490,1555,0,0
273,-531,0,0,0,0,0,0,0,0,0,-1,1497,1555,0,0
280,-531,0,0,0,0,0,0,0,0,0,-1,1504,1555,0,0
287,-531,0,0,0,0,0,0,0,0,0,-1,1511,1555,0,0
294,-531,0,0,0,0,0,0,0,0,0,-1,1518,1555,0,0
301,-531,0,0,0,0,0,0,0,0,0,-1,1525,1555,0,0
308,-531,0,0,0,0,0,0,0,0,0,-1,1532,1555,0,0
315,-531,0,0,0,0,0,0,0,0,0,-1,1539,1555,0,0
322,-531,0,0,0,0,0,0,0,0,0,-1,1546,1555,0,0
329,-531,0,0,0,0,0,0,0,0,0,-1,1553,1555,0,0
336,-531,0,0,0,0,0,0,0,0,0,-1,1560,1555,0,0
343,-531,0,0,0,0,0,0,0,0,0,-1,1567,1555,0,0
350,-531,0,0,0,0,0,0,0,0,0,-1,1574,1555,0,0
357,-531,0,0,0,0,0,0,0,0,0,-1,1581,1555,0,0
364,-531,0,0,0,0,0,0,0,0,0,-1,1588,1555,0,0
371,-531,0,0,0,0,0,0,0,0,0,-1,1595,1555,0,0
378,-531,0,0,0,0,0,0,0,0,0,-1,1602,1555,0,0
385,-531,3.13403,1.88721,0,0,0,0,0,0,0,-1,1609,1555,3.13401,-1.88726
392,-531,8.49451,7.77673,0,0,0,0,0,0,0,-1,1616,1555,8.49447,-7.77677
399,-531,8.26306,5.29602,0,0,0,0,0,0,0,-1,1623,1555,8.26302,-5.29607
406,-531,8.26147,5.42712,0,0,0,0,0,0,0,-1,1630,1555,8.26145,-5.42716
413,-531,8.20618,5.75012,0,0,0,0,0,0,0,-1,1637,1555,8.20619,-5.75017
420,-531,7.7887,6.08801,0,0,0,0,0,0,0,-1,1644,1555,7.78865,-6.08796
427,-531,9.30164,7.01782,0,0,0,0,0,0,0,-1,1651,1555,9.30165,-7.01785
434,-531,8.97852,7.14722,0.039853,0.0563107,0.0259266,0.075283,0.0208808,0.939065,0.044878,0.0479625,1658,1555,8.97849,-7.14726
441,-531,8.79541,7.45947,0.0305169,0.0352024,0.0306727,0.0636217,0.00209759,0.823514,0.0417329,0.0460167,1665,1555,8.79541,-7.45947
448,-531,9.3114,7.08252,0,0,0,0,0,0,0,-1,1672,1555,9.31141,-7.08258
455,-531,7.97046,2.12183,0,0,0,0,0,0,0,-1,1679,1555,7.97044,-2.12185
462,-531,7.31494,3.19067,0,0,0,0,0,0,0,-1,1686,1555,7.31497,-3.19065
469,-531,7.85156,5.89319,0,0,0,0,0,0,0,-1,1693,1555,7.85152,-5.89324
476,-531,6.50854,5.47668,0.00150416,-0.0234159,0.0388695,0.0298619,-0.0517737,0.630292,0.0476949,0.048696,1700,1555,6.50858,-5.47672
483,-531,6.65869,6.65112,-0.000864343,-0.0258639,0.0352512,0.0240377,-0.0507659,0.615019,0.0440973,0.0417527,1707,1555,6.65864,-6.6511
490,-531,6.75391,7.17261,-0.0031657,-0.0270862,0.0326533,0.0196488,-0.0499007,0.609846,0.0414013,0.0293422,1714,1555,6.75393,-7.17256
497,-531,6.64783,7.18762,-0.00453315,-0.0257051,0.0289207,0.0156781,-0.0459163,0.609954,0.0369624,0.014448,1721,1555,6.64782,-7.1876
504,-531,6.63733,7.07764,-0.00397627,-0.0205314,0.022522,0.0117411,-0.0362488,0.609294,0.0288862,0.0107817,1728,1555,6.6373,-7.07758
511,-531,6.63464,6.93176,-0.00340215,-0.0158683,0.0170983,0.00856375,-0.0278342,0.610612,0.0219742,0.0130423,1735,1555,6.63462,-6.93182
518,-531,6.63611,6.80432,-0.00292312,-0.0120482,0.0118758,0.00523638,-0.0202077,0.601997,0.0155147,0.0142367,1742,1555,6.6361,-6.80436
525,-531,6.65027,6.68396,-0.00214219,-0.00794653,0.0072198,0.00273691,-0.0128256,0.594295,0.00959375,0.0134592,1749,1555,6.65027,-6.68396
532,-531,6.68408,6.54468,-0.0014639,-0.00433488,0.00386311,0.0012218,-0.00702058,0.607509,0.00513632,0.00960527,1756,1555,6.68407,-6.54467
539,-531,6.66077,6.39172,-0.000879848,-0.00216972,0.00207999,0.000652899,-0.00370246,0.635065,0.00271226,0.01109,1763,1555,6.66082,-6.39167
546,-531,6.61707,6.2655,-9.8743e-05,-0.000892746,0.000532785,0.000168688,-0.00116018,0.465205,0.000835377,0.0152814,1770,1555,6.61702,-6.26554
553,-531,6.64929,6.20679,0.00107076,5.99645e-05,-0.000520675,0.00129099,-0.000160261,-0.400142,0.00091875,0.0281394,1777,1555,6.64927,-6.20673
560,-531,6.59424,6.01428,0.00306431,0.00113366,-0.00171533,0.00406729,0.000130678,-0.529104,0.00266903,0.0295115,1784,1555,6.59425,-6.01429
567,-531,6.5957,5.8407,0.00577776,0.00324449,-0.0034627,0.00819822,0.000824037,-0.61006,0.00521256,0.0172136,1791,1555,6.5957,-5.84067
574,-531,6.63208,5.70691,0.0105213,0.00766187,-0.00758298,0.0168082,0.001375,-0.692221,0.0107764,0.0123719,1798,1555,6.63213,-5.70691
581,-531,6.65137,5.54504,0.016459,0.0129918,-0.0152807,0.0301041,-0.00065329,-0.728914,0.0202907,0.011399,1805,1555,6.65143,-5.54504
588,-531,6.67371,5.36963,0.0242532,0.0215243,-0.0263789,0.049303,-0.00352538,-0.759559,0.0341046,0.0146363,1812,1555,6.67371,-5.36965
595,-531,6.67932,5.15747,0.0332569,0.0316574,-0.0388687,0.0713341,-0.00641972,-0.775112,0.049834,0.0284298,1819,1555,6.67936,-5.15741
602,-531,6.81824,4.93799,0.0436559,0.0436901,-0.0537607,0.0974336,-0.0100877,-0.785557,0.0685661,0.0424629,1826,1555,6.81823,-4.93801
609,-531,7.33496,4.45996,0.0556457,0.0581047,-0.072236,0.129122,-0.0153713,-0.793908,0.0916357,0.0410832,1833,1555,7.335,-4.45993
616,-531,7.56335,4.05688,0,0,0,0,0,0,0,-1,1840,1555,7.56338,-4.05691
623,-531,10.3086,4.25586,0.0822591,0.0945676,-0.120965,0.209534,-0.0327077,-0.810814,0.151772,0.0408269,1847,1555,10.3085,-4.2559
630,-531,10.7917,2.39355,0.0962071,0.116501,-0.152242,0.258933,-0.0462253,-0.818674,0.189915,0.0446473,1854,1555,10.7917,-2.39358
637,-531,11.4474,0.141479,0.11024,0.141132,-0.18907,0.315386,-0.0640141,-0.826154,0.234526,0.0463232,1861,1555,11.4474,-0.141529
644,-531,0,0,0,0,0,0,0,0,0,-1,1868,1555,0,0
651,-531,0,0,0,0,0,0,0,0,0,-1,1875,1555,0,0
658,-531,0,0,0,0,0,0,0,0,0,-1,1882,1555,0,0
665,-531,0,0,0,0,0,0,0,0,0,-1,1889,1555,0,0
672,-531,0,0,0,0,0,0,0,0,0,-1,1896,1555,0,0
679,-531,0,0,0,0,0,0,0,0,0,-1,1903,1555,0,0
686,-531,0,0,0,0,0,0,0,0,0,-1,1910,1555,0,0
693,-531,0,0,0,0,0,0,0,0,0,-1,1917,1555,0,0
700,-531,0,0,0,0,0,0,0,0,0,-1,1924,1555,0,0
707,-531,0,0,0,0,0,0,0,0,0,-1,1931,1555,0,0
714,-531,0,0,0,0,0,0,0,0,0,-1,1938,1555,0,0
721,-531,0,0,0,0,0,0,0,0,0,-1,1945,1555,0,0
728,-531,0,0,0,0,0,0,0,0,0,-1,1952,1555,0,0
735,-531,0,0,0,0,0,0,0,0,0,-1,1959,1555,0,0
742,-531,0,0,0,0,0,0,0,0,0,-1,1966,1555,0,0
749,-531,0,0,0,0,0,0,0,0,0,-1,1973,1555,0,0
756,-531,0,0,0,0,0,0,0,0,0,-1,1980,1555,0,0
763,-531,0,0,0,0,0,0,0,0,0,-1,1987,1555,0,0
770,-531,0,0,0,0,0,0,0,0,0,-1,1994,1555,0,0
777,-531,0,0,0,0,0,0,0,0,0,-1,2001,1555,0,0
784,-531,0,0,0,0,0,0,0,0,0,-1,2008,1555,0,0
791,-531,0,0,0,0,0,0,0,0,0,-1,2015,1555,0,0
798,-531,0,0,0,0,0,0,0,0,0,-1,2022,1555,0,0
805,-531,0,0,0,0,0,0,0,0,0,-1,2029,1555,0,0
812,-531,0,0,0,0,0,0,0,0,0,-1,2036,1555,0,0
-700,-538,0,0,0,0,0,0,0,0,0,-1,524,1562,0,0
-693,-538,0,0,0,0,0,0,0,0,0,-1,531,1562,0,0
-686,-538,0,0,0,0,0,0,0,0,0,-1,538,1562,0,0
-679,-538,0,0,0,0,0,0,0,0,0,-1,545,1562,0,0
-672,-538,0,0,0,0,0,0,0,0,0,-1,552,1562,0,0
-665,-538,0,0,0,0,0,0,0,0,0,-1,559,1562,0,0
-658,-538,0,0,0,0,0,0,0,0,0,-1,566,1562,0,0
-651,-538,0,0,0,0,0,0,0,0,0,-1,573,1562,0,0
-644,-538,0,0,0,0,0,0,0,0,0,-1,580,1562,0,0
-637,-538,0,0,0,0,0,0,0,0,0,-1,587,1562,0,0
-630,-538,0,0,0,0,0,0,0,0,0,-1,594,1562,0,0
-623,-538,0,0,0,0,0,0,0,0,0,-1,601,1562,0,0
-616,-538,0,0,0,0,0,0,0,0,0,-1,608,1562,0,0
-609,-538,0,0,0,0,0,0,0,0,0,-1,615,1562,0,0
-602,-538,0,0,0,0,0,0,0,0,0,-1,622,1562,0,0
-595,-538,0,0,0,0,0,0,0,0,0,-1,629,1562,0,0
-588,-538,0,0,0,0,0,0,0,0,0,-1,636,1562,0,0
-581,-538,0,0,0,0,0,0,0,0,0,-1,643,1562,0,0
-574,-538,0,0,0,0,0,0,0,0,0,-1,650,1562,0,0
-567,-538,0,0,0,0,0,0,0,0,0,-1,657,1562,0,0
-560,-538,0,0,0,0,0,0,0,0,0,-1,664,1562,0,0
-553,-538,0,0,0,0,0,0,0,0,0,-1,671,1562,0,0
-546,-538,0,0,0,0,0,0,0,0,0,-1,678,1562,0,0
-539,-538,0,0,0,0,0,0,0,0,0,-1,685,1562,0,0
-532,-538,0,0,0,0,0,0,0,0,0,-1,692,1562,0,0
-525,-538,0,0,0,0,0,0,0,0,0,-1,699,1562,0,0
-518,-538,0,0,0,0,0,0,0,0,0,-1,706,1562,0,0
-511,-538,1.66724,3.72461,0,0,0,0,0,0,0,-1,713,1562,1.66721,-3.72467
-504,-538,-0.320435,-1.36462,0,0,0,0,0,0,0,-1,720,1562,-0.320404,1.36464
-497,-538,1.18811,4.76306,0,0,0,0,0,0,0,-1,727,1562,1.18809,-4.76307
-490,-538,0.575439,2.87048,0,0,0,0,0,0,0,-1,734,1562,0.575441,-2.87051
-483,-538,0.487122,3.00977,0.00959686,0.0608799,-0.00556349,0.0614766,0.00900025,-1.46397,0.0383381,0.0464885,741,1562,0.487092,-3.00975
-476,-538,0.476318,3.24048,0.00884582,0.0509345,-0.00442343,0.0513944,0.00838594,-1.46721,0.0318379,0.0441709,748,1562,0.476316,-3.24046
-469,-538,0.595642,3.58997,0.00768243,0.0416075,-0.00298769,0.0418686,0.00742132,-1.48362,0.0257969,0.044609,755,1562,0.595671,-3.58997
-462,-538,0.543091,3.95251,0.00648464,0.0333824,-0.00173446,0.0334938,0.00637326,-1.50667,0.0205371,0.042569,762,1562,0.543087,-3.95251
-455,-538,0.672852,4.08948,0.0053785,0.0261761,-0.000773273,0.0262048,0.00534979,-1.53368,0.0159878,0.0386094,769,1562,0.67283,-4.08945
-448,-538,0.579651,4.25232,0.00441685,0.0200113,-6.60384e-05,0.0200116,0.00441657,-1.56656,0.0121397,0.0167125,776,1562,0.579679,-4.25238
-441,-538,0.559265,4.45398,0.00358271,0.0148404,0.000414582,0.0148556,0.00356746,1.53404,0.0089547,0.0146595,783,1562,0.559287,-4.45392
-434,-538,0.550171,4.59985,0.00293344,0.0101439,0.000870951,0.0102476,0.00282973,1.45228,0.00611093,0.0115672,790,1562,0.550185,-4.59982
-427,-538,0.544312,4.75305,0.00230278,0.00645318,0.00111621,0.00673433,0.00202163,1.32405,0.0039902,0.0128121,797,1562,0.544314,-4.75303
-420,-538,0.533447,4.92102,0.0017397,0.00334389,0.000986552,0.00381327,0.00127032,1.12672,0.00224209,0.016869,804,1562,0.533423,-4.92105
-413,-538,0.534485,5.07458,0.00140711,0.00127045,0.000736812,0.00207875,0.000598804,0.739161,0.00123559,0.0175475,811,1562,0.534513,-5.07463
-406,-538,0.54541,5.21252,0.00139653,-0.00020209,0.000212989,0.00142442,-0.000229981,0.130208,0.00103483,0.0141138,818,1562,0.545438,-5.21253
-399,-538,0.552368,5.37463,0.00166748,-0.00167687,-0.000137674,0.00167313,-0.00168253,-0.0410737,0.00193739,0.0129754,825,1562,0.552384,-5.37465
-392,-538,0.556519,5.53198,0.00198697,-0.00306163,-0.000379894,0.0020154,-0.00309005,-0.074687,0.00296932,0.0144415,832,1562,0.556491,-5.53194
-385,-538,0.545898,5.67188,0.00242732,-0.0042439,-0.00035031,0.00244567,-0.00426224,-0.0523188,0.00391986,0.0123542,839,1562,0.545926,-5.67184
-378,-538,0.550903,5.82373,0.0032767,-0.005012,0.000339968,0.00329062,-0.00502592,0.0409242,0.00483627,0.00953843,846,1562,0.550924,-5.82378
-371,-538,0.555908,5.98071,0.00442485,-0.00556694,0.00118457,0.00456336,-0.00570546,0.116404,0.00594092,0.00965662,853,1562,0.555889,-5.98076
-364,-538,0.565857,6.15686,0.00608042,-0.00571083,0.00276091,0.00669486,-0.00632527,0.218983,0.00751819,0.0094262,860,1562,0.565868,-6.15687
-357,-538,0.58905,6.26819,0.00772711,-0.0052913,0.00488264,0.00935485,-0.00691904,0.321787,0.00943075,0.0170533,867,1562,0.589076,-6.26825
-350,-538,0.60968,6.34558,0.00784176,-0.00582094,0.00579763,0.00997032,-0.00794949,0.351864,0.0103679,0.0320647,874,1562,0.609674,-6.34558
-343,-538,0.708496,6.54321,0.00773895,-0.0077442,0.00506309,0.0092476,-0.00925286,0.289595,0.0106813,0.0434775,881,1562,0.708492,-6.54324
-336,-538,0.755615,6.93384,0.0082771,-0.00954481,0.00410593,0.00917755,-0.0104453,0.215888,0.0113371,0.0450195,888,1562,0.755634,-6.93389
-329,-538,0.607971,7.56274,0.00868325,-0.011996,0.00285187,0.00906934,-0.0123821,0.134564,0.0124341,0.0432209,895,1562,0.60797,-7.56276
-322,-538,0.809998,8.15698,0,0,0,0,0,0,0,-1,902,1562,0.810004,-8.15704
-315,-538,2.63141,5.5188,0,0,0,0,0,0,0,-1,909,1562,2.63141,-5.51881
-308,-538,-2.99902,3.9342,0,0,0,0,0,0,0,-1,916,1562,-2.99903,-3.93419
-301,-538,-3.03284,4.26379,0.00471798,-0.0290671,-0.0131179,0.00921325,-0.0335623,-0.33014,0.025996,0.0451187,923,1562,-3.03281,-4.26375
-294,-538,-3.03271,4.60229,0.00384741,-0.0373645,-0.0209945,0.0126587,-0.0461758,-0.397369,0.0357583,0.0429207,930,1562,-3.03269,-4.60224
-287,-538,-3.40222,5.2439,0,0,0,0,0,0,0,-1,937,1562,-3.40225,-5.24392
-280,-538,-3.63989,6.03638,0,0,0,0,0,0,0,-1,944,1562,-3.63988,-6.03641
-273,-538,-2.87311,6.72925,0,0,0,0,0,0,0,-1,951,1562,-2.87312,-6.72928
-266,-538,-2.64929,6.92761,0,0,0,0,0,0,0,-1,958,1562,-2.64931,-6.92762
-259,-538,-3.38068,7.46619,0,0,0,0,0,0,0,-1,965,1562,-3.38066,-7.46615
-252,-538,0,0,0,0,0,0,0,0,0,-1,972,1562,0,0
-245,-538,0,0,0,0,0,0,0,0,0,-1,979,1562,0,0
-238,-538,0,0,0,0,0,0,0,0,0,-1,986,1562,0,0
-231,-538,0,0,0,0,0,0,0,0,0,-1,993,1562,0,0
-224,-538,0,0,0,0,0,0,0,0,0,-1,1000,1562,0,0
-217,-538,0,0,0,0,0,0,0,0,0,-1,1007,1562,0,0
-210,-538,0,0,0,0,0,0,0,0,0,-1,1014,1562,0,0
-203,-538,0,0,0,0,0,0,0,0,0,-1,1021,1562,0,0
-196,-538,0,0,0,0,0,0,0,0,0,-1,1028,1562,0,0
-189,-538,0,0,0,0,0,0,0,0,0,-1,1035,1562,0,0
-182,-538,0,0,0,0,0,0,0,0,0,-1,1042,1562,0,0
-175,-538,0,0,0,0,0,0,0,0,0,-1,1049,1562,0,0
-168,-538,0,0,0,0,0,0,0,0,0,-1,1056,1562,0,0
-161,-538,0,0,0,0,0,0,0,0,0,-1,1063,1562,0,0
-154,-538,0,0,0,0,0,0,0,0,0,-1,1070,1562,0,0
-147,-538,0,0,0,0,0,0,0,0,0,-1,1077,1562,0,0
-140,-538,0,0,0,0,0,0,0,0,0,-1,1084,1562,0,0
-133,-538,0,0,0,0,0,0,0,0,0,-1,1091,1562,0,0
-126,-538,0,0,0,0,0,0,0,0,0,-1,1098,1562,0,0
-119,-538,0,0,0,0,0,0,0,0,0,-1,1105,1562,0,0
-112,-538,0,0,0,0,0,0,0,0,0,-1,1112,1562,0,0
-105,-538,0,0,0,0,0,0,0,0,0,-1,1119,1562,0,0
-98,-538,0,0,0,0,0,0,0,0,0,-1,1126,1562,0,0
-91,-538,0,0,0,0,0,0,0,0,0,-1,1133,1562,0,0
-84,-538,0,0,0,0,0,0,0,0,0,-1,1140,1562,0,0
-77,-538,0,0,0,0,0,0,0,0,0,-1,1147,1562,0,0
-70,-538,0,0,0,0,0,0,0,0,0,-1,1154,1562,0,0
-63,-538,0,0,0,0,0,0,0,0,0,-1,1161,1562,0,0
-56,-538,0,0,0,0,0,0,0,0,0,-1,1168,1562,0,0
-49,-538,0,0,0,0,0,0,0,0,0,-1,1175,1562,0,0
-42,-538,0,0,0,0,0,0,0,0,0,-1,1182,1562,0,0
-35,-538,0,0,0,0,0,0,0,0,0,-1,1189,1562,0,0
-28,-538,0,0,0,0,0,0,0,0,0,-1,1196,1562,0,0
-21,-538,0,0,0,0,0,0,0,0,0,-1,1203,1562,0,0
-14,-538,0,0,0,0,0,0,0,0,0,-1,1210,1562,0,0
-7,-538,0,0,0,0,0,0,0,0,0,-1,1217,1562,0,0
0,-538,0,0,0,0,0,0,0,0,0,-1,1224,1562,0,0
7,-538,0,0,0,0,0,0,0,0,0,-1,1231,1562,0,0
14,-538,0,0,0,0,0,0,0,0,0,-1,1238,1562,0,0
21,-538,0,0,0,0,0,0,0,0,0,-1,1245,1562,0,0
28,-538,0,0,0,0,0,0,0,0,0,-1,1252,1562,0,0
35,-538,0,0,0,0,0,0,0,0,0,-1,1259,1562,0,0
42,-538,0,0,0,0,0,0,0,0,0,-1,1266,1562,0,0
49,-538,0,0,0,0,0,0,0,0,0,-1,1273,1562,0,0
56,-538,0,0,0,0,0,0,0,0,0,-1,1280,1562,0,0
63,-538,0,0,0,0,0,0,0,0,0,-1,1287,1562,0,0
70,-538,0,0,0,0,0,0,0,0,0,-1,1294,1562,0,0
77,-538,0,0,0,0,0,0,0,0,0,-1,1301,1562,0,0
84,-538,0,0,0,0,0,0,0,0,0,-1,1308,1562,0,0
91,-538,0,0,0,0,0,0,0,0,0,-1,1315,1562,0,0
98,-538,0,0,0,0,0,0,0,0,0,-1,1322,1562,0,0
105,-538,0,0,0,0,0,0,0,0,0,-1,1329,1562,0,0
112,-538,0,0,0,0,0,0,0,0,0,-1,1336,1562,0,0
119,-538,0,0,0,0,0,0,0,0,0,-1,1343,1562,0,0
126,-538,0,0,0,0,0,0,0,0,0,-1,1350,1562,0,0
133,-538,0,0,0,0,0,0,0,0,0,-1,1357,1562,0,0
140,-538,0,0,0,0,0,0,0,0,0,-1,1364,1562,0,0
147,-538,0,0,0,0,0,0,0,0,0,-1,1371,1562,0,0
154,-538,0,0,0,0,0,0,0,0,0,-1,1378,1562,0,0
161,-538,0,0,0,0,0,0,0,0,0,-1,1385,1562,0,0
168,-538,0,0,0,0,0,0,0,0,0,-1,1392,1562,0,0
175,-538,0,0,0,0,0,0,0,0,0,-1,1399,1562,0,0
182,-538,0,0,0,0,0,0,0,0,0,-1,1406,1562,0,0
189,-538,0,0,0,0,0,0,0,0,0,-1,1413,1562,0,0
196,-538,0,0,0,0,0,0,0,0,0,-1,1420,1562,0,0
203,-538,0,0,0,0,0,0,0,0,0,-1,1427,1562,0,0
210,-538,0,0,0,0,0,0,0,0,0,-1,1434,1562,0,0
217,-538,0,0,0,0,0,0,0,0,0,-1,1441,1562,0,0
224,-538,0,0,0,0,0,0,0,0,0,-1,1448,1562,0,0
231,-538,0,0,0,0,0,0,0,0,0,-1,1455,1562,0,0
238,-538,0,0,0,0,0,0,0,0,0,-1,1462,1562,0,0
245,-538,0,0,0,0,0,0,0,0,0,-1,1469,1562,0,0
252,-538,0,0,0,0,0,0,0,0,0,-1,1476,1562,0,0
259,-538,0,0,0,0,0,0,0,0,0,-1,1483,1562,0,0
266,-538,0,0,0,0,0,0,0,0,0,-1,1490,1562,0,0
273,-538,0,0,0,0,0,0,0,0,0,-1,1497,1562,0,0
280,-538,0,0,0,0,0,0,0,0,0,-1,1504,1562,0,0
287,-538,0,0,0,0,0,0,0,0,0,-1,1511,1562,0,0
294,-538,0,0,0,0,0,0,0,0,0,-1,1518,1562,0,0
301,-538,0,0,0,0,0,0,0,0,0,-1,1525,1562,0,0
308,-538,0,0,0,0,0,0,0,0,0,-1,1532,1562,0,0
315,-538,0,0,0,0,0,0,0,0,0,-1,1539,1562,0,0
322,-538,0,0,0,0,0,0,0,0,0,-1,1546,1562,0,0
329,-538,0,0,0,0,0,0,0,0,0,-1,1553,1562,0,0
336,-538,0,0,0,0,0,0,0,0,0,-1,1560,1562,0,0
343,-538,0,0,0,0,0,0,0,0,0,-1,1567,1562,0,0
350,-538,0,0,0,0,0,0,0,0,0,-1,1574,1562,0,0
357,-538,0,0,0,0,0,0,0,0,0,-1,1581,1562,0,0
364,-538,0,0,0,0,0,0,0,0,0,-1,1588,1562,0,0
371,-538,0,0,0,0,0,0,0,0,0,-1,1595,1562,0,0
378,-538,7.65637,4.13477,0,0,0,0,0,0,0,-1,1602,1562,7.65643,-4.13477
385,-538,8.69836,7.6283,0,0,0,0,0,0,0,-1,1609,1562,8.69835,-7.62829
392,-538,8.20361,7.07214,0,0,0,0,0,0,0,-1,1616,1562,8.20362,-7.07211
399,-538,7.85425,4.70508,0,0,0,0,0,0,0,-1,1623,1562,7.85425,-4.70512
406,-538,7.77734,4.96094,0,0,0,0,0,0,0,-1,1630,1562,7.77729,-4.96097
413,-538,7.71777,5.26636,0,0,0,0,0,0,0,-1,1637,1562,7.71773,-5.26641
420,-538,7.44604,5.45898,0.0447356,0.0852815,0.0296097,0.100893,0.0291236,1.08558,0.0599603,0.0498177,1644,1562,7.44604,-5.45895
427,-538,8.37146,5.8053,0.0370375,0.0691941,0.0294458,0.0866653,0.0195663,1.03529,0.0524849,0.0477029,1651,1562,8.37142,-5.80528
434,-538,8.01331,6.3125,0.0292821,0.0503812,0.0317839,0.0733206,0.0063427,0.945634,0.0469093,0.0468923,1658,1562,8.01329,-6.31246
441,-538,7.89099,6.61987,0.0224514,0.0322142,0.0341285,0.0618087,-0.00714304,0.856431,0.0437815,0.0471619,1665,1562,7.89097,-6.61983
448,-538,7.66333,6.74988,0,0,0,0,0,0,0,-1,1672,1562,7.66335,-6.74986
455,-538,7.19739,6.67969,0,0,0,0,0,0,0,-1,1679,1562,7.19744,-6.67966
462,-538,7.81824,6.06897,0,0,0,0,0,0,0,-1,1686,1562,7.81826,-6.06896
469,-538,7.26636,6.33582,0.00352791,-0.0147573,0.0367267,0.0322328,-0.0434623,0.663409,0.0438626,0.0442617,1693,1562,7.26635,-6.33576
476,-538,6.73987,6.80371,0.000401483,-0.0196033,0.0343486,0.0261744,-0.0453762,0.643715,0.0418027,0.0431223,1700,1562,6.73981,-6.80372
483,-538,6.55713,7.35681,-0.00133321,-0.021867,0.030393,0.0204802,-0.0436804,0.622513,0.0378418,0.0273208,1707,1562,6.55709,-7.35677
490,-538,6.53491,7.29529,-0.00289562,-0.0228714,0.027401,0.016281,-0.0420481,0.610627,0.0347544,0.0129235,1714,1562,6.53493,-7.29535
497,-538,6.51892,7.19763,-0.0036826,-0.0214538,0.0236007,0.0126498,-0.0377862,0.605357,0.0303007,0.00930019,1721,1562,6.51897,-7.19769
504,-538,6.4978,7.07886,-0.00310722,-0.0167426,0.0181847,0.00949577,-0.0293456,0.60605,0.0233809,0.00838824,1728,1562,6.49781,-7.07885
511,-538,6.49927,6.94714,-0.00255853,-0.0125585,0.0135673,0.00690075,-0.0220178,0.608853,0.01744,0.00890944,1735,1562,6.49932,-6.94708
518,-538,6.49756,6.81433,-0.00206774,-0.00902463,0.00917632,0.0042673,-0.0153597,0.604232,0.0119196,0.00930352,1742,1562,6.49754,-6.81438
525,-538,6.49451,6.67395,-0.0013256,-0.00548853,0.00534775,0.00233148,-0.00914561,0.599807,0.00700478,0.0103437,1749,1562,6.49449,-6.67399
532,-538,6.51465,6.54553,-0.000735312,-0.00254061,0.00267028,0.00118076,-0.00445668,0.62241,0.00343307,0.0115065,1756,1562,6.51469,-6.54559
539,-538,6.50977,6.41089,-0.000196122,-0.000863966,0.00121039,0.000725564,-0.00178565,0.650806,0.00149229,0.0146872,1763,1562,6.50981,-6.41086
546,-538,6.50317,6.25977,0.000652356,0.000165613,-0.000157075,0.000698643,0.000119326,-0.286572,0.000431522,0.0169781,1770,1562,6.50322,-6.25976
553,-538,6.53333,6.14539,0.001866,0.000914791,-0.00113499,0.00262101,0.000159783,-0.586993,0.00169659,0.0260541,1777,1562,6.53334,-6.14535
560,-538,6.49475,6.01343,0.00400888,0.00184115,-0.00237448,0.00553517,0.000314865,-0.57129,0.00358977,0.0263546,1784,1562,6.4947,-6.01348
567,-538,6.44128,5.88745,0.00710625,0.00418011,-0.00437712,0.0102583,0.00102802,-0.624109,0.00652328,0.0187149,1791,1562,6.44134,-5.88739
574,-538,6.49829,5.70544,0.0126528,0.00965919,-0.00897737,0.0202573,0.00205468,-0.702793,0.0128747,0.0119944,1798,1562,6.49832,-5.70549
581,-538,6.54431,5.53296,0.0196201,0.0161107,-0.0179855,0.0359363,-0.000205472,-0.736772,0.0240263,0.0137775,1805,1562,6.54434,-5.53298
588,-538,6.56982,5.33142,0.0286608,0.0262848,-0.0306278,0.0581237,-0.00317806,-0.766014,0.0398507,0.0305252,1812,1562,6.56988,-5.33144
595,-538,6.65088,4.98889,0.0388688,0.0381919,-0.0442933,0.082825,-0.00576423,-0.781577,0.0572349,0.0441393,1819,1562,6.65085,-4.98887
602,-538,6.77063,4.8302,0,0,0,0,0,0,0,-1,1826,1562,6.77059,-4.83014
609,-538,7.61743,3.94226,0,0,0,0,0,0,0,-1,1833,1562,7.61738,-3.94222
616,-538,7.98962,4.245,0,0,0,0,0,0,0,-1,1840,1562,7.9896,-4.24499
623,-538,11.275,3.64001,0.0939853,0.109976,-0.130644,0.232869,-0.0289084,-0.815959,0.165725,0.0404594,1847,1562,11.275,-3.64001
630,-538,11.485,1.88977,0.109301,0.134299,-0.163504,0.285781,-0.0421807,-0.823545,0.206025,0.0423646,1854,1562,11.485,-1.88976
637,-538,0,0,0,0,0,0,0,0,0,-1,1861,1562,0,0
644,-538,0,0,0,0,0,0,0,0,0,-1,1868,1562,0,0
651,-538,0,0,0,0,0,0,0,0,0,-1,1875,1562,0,0
658,-538,0,0,0,0,0,0,0,0,0,-1,1882,1562,0,0
665,-538,0,0,0,0,0,0,0,0,0,-1,1889,1562,0,0
672,-538,0,0,0,0,0,0,0,0,0,-1,1896,1562,0,0
679,-538,0,0,0,0,0,0,0,0,0,-1,1903,1562,0,0
686,-538,0,0,0,0,0,0,0,0,0,-1,1910,1562,0,0
693,-538,0,0,0,0,0,0,0,0,0,-1,1917,1562,0,0
700,-538,0,0,0,0,0,0,0,0,0,-1,1924,1562,0,0
707,-538,0,0,0,0,0,0,0,0,0,-1,1931,1562,0,0
714,-538,0,0,0,0,0,0,0,0,0,-1,1938,1562,0,0
721,-538,0,0,0,0,0,0,0,0,0,-1,1945,1562,0,0
728,-538,0,0,0,0,0,0,0,0,0,-1,1952,1562,0,0
735,-538,0,0,0,0,0,0,0,0,0,-1,1959,1562,0,0
742,-538,0,0,0,0,0,0,0,0,0,-1,1966,1562,0,0
749,-538,0,0,0,0,0,0,0,0,0,-1,1973,1562,0,0
756,-538,0,0,0,0,0,0,0,0,0,-1,1980,1562,0,0
763,-538,0,0,0,0,0,0,0,0,0,-1,1987,1562,0,0
770,-538,0,0,0,0,0,0,0,0,0,-1,1994,1562,0,0
777,-538,0,0,0,0,0,0,0,0,0,-1,2001,1562,0,0
784,-538,0,0,0,0,0,0,0,0,0,-1,2008,1562,0,0
791,-538,0,0,0,0,0,0,0,0,0,-1,2015,1562,0,0
798,-538,0,0,0,0,0,0,0,0,0,-1,2022,1562,0,0
805,-538,0,0,0,0,0,0,0,0,0,-1,2029,1562,0,0
812,-538,0,0,0,0,0,0,0,0,0,-1,2036,1562,0,0
-700,-545,0,0,0,0,0,0,0,0,0,-1,524,1569,0,0
-693,-545,0,0,0,0,0,0,0,0,0,-1,531,1569,0,0
-686,-545,0,0,0,0,0,0,0,0,0,-1,538,1569,0,0
-679,-545,0,0,0,0,0,0,0,0,0,-1,545,1569,0,0
-672,-545,0,0,0,0,0,0,0,0,0,-1,552,1569,0,0
-665,-545,0,0,0,0,0,0,0,0,0,-1,559,1569,0,0
-658,-545,0,0,0,0,0,0,0,0,0,-1,566,1569,0,0
-651,-545,0,0,0,0,0,0,0,0,0,-1,573,1569,0,0
-644,-545,0,0,0,0,0,0,0,0,0,-1,580,1569,0,0
-637,-545,0,0,0,0,0,0,0,0,0,-1,587,1569,0,0
-630,-545,0,0,0,0,0,0,0,0,0,-1,594,1569,0,0
-623,-545,0,0,0,0,0,0,0,0,0,-1,601,1569,0,0
-616,-545,0,0,0,0,0,0,0,0,0,-1,608,1569,0,0
-609,-545,0,0,0,0,0,0,0,0,0,-1,615,1569,0,0
-602,-545,0,0,0,0,0,0,0,0,0,-1,622,1569,0,0
-595,-545,0,0,0,0,0,0,0,0,0,-1,629,1569,0,0
-588,-545,0,0,0,0,0,0,0,0,0,-1,636,1569,0,0
-581,-545,0,0,0,0,0,0,0,0,0,-1,643,1569,0,0
-574,-545,0,0,0,0,0,0,0,0,0,-1,650,1569,0,0
-567,-545,0,0,0,0,0,0,0,0,0,-1,657,1569,0,0
-560,-545,0,0,0,0,0,0,0,0,0,-1,664,1569,0,0
-553,-545,0,0,0,0,0,0,0,0,0,-1,671,1569,0,0
-546,-545,0,0,0,0,0,0,0,0,0,-1,678,1569,0,0
-539,-545,0,0,0,0,0,0,0,0,0,-1,685,1569,0,0
-532,-545,0,0,0,0,0,0,0,0,0,-1,692,1569,0,0
-525,-545,0,0,0,0,0,0,0,0,0,-1,699,1569,0,0
-518,-545,0,0,0,0,0,0,0,0,0,-1,706,1569,0,0
-511,-545,0,0,0,0,0,0,0,0,0,-1,713,1569,0,0
-504,-545,2.2439,3.20935,0,0,0,0,0,0,0,-1,720,1569,2.24391,-3.2093
-497,-545,0.119141,5.68481,0,0,0,0,0,0,0,-1,727,1569,0.119132,-5.68483
-490,-545,-0.21521,6.06287,0,0,0,0,0,0,0,-1,734,1569,-0.21523,-6.06284
-483,-545,0.646729,3.30176,0,0,0,0,0,0,0,-1,741,1569,0.646723,-3.30181
-476,-545,0.563354,3.49329,0,0,0,0,0,0,0,-1,748,1569,0.563345,-3.49334
-469,-545,0.704163,3.79419,0,0,0,0,0,0,0,-1,755,1569,0.704185,-3.79416
-462,-545,0.686951,3.99805,0,0,0,0,0,0,0,-1,762,1569,0.686972,-3.99805
-455,-545,0.75354,4.34412,0.00770825,0.0343634,-0.000550964,0.0343748,0.00769687,-1.55014,0.0208304,0.0419252,769,1569,0.753567,-4.34417
-448,-545,0.743896,4.224,0.00636203,0.0266987,0.000314625,0.0267035,0.00635716,1.55533,0.016107,0.0291623,776,1569,0.74389,-4.22398
-441,-545,0.7771,4.43433,0.00509829,0.0201353,0.00088552,0.0201873,0.00504632,1.51218,0.0121312,0.0169078,783,1569,0.777071,-4.43437
-434,-545,0.726318,4.60559,0.00409804,0.0141269,0.00140506,0.01432,0.00390491,1.4342,0.00854773,0.0124652,790,1569,0.726305,-4.60563
-427,-545,0.704956,4.75317,0.00309595,0.00933959,0.00172241,0.00978322,0.00265232,1.31871,0.0058423,0.0158752,797,1569,0.704963,-4.7532
-420,-545,0.703918,4.91711,0.00213828,0.00529267,0.00161828,0.00597521,0.00145574,1.17167,0.00359777,0.0233234,804,1569,0.703932,-4.91707
-413,-545,0.717468,5.06165,0.00152655,0.0027629,0.00134544,0.00362538,0.000664071,1.00074,0.00222879,0.0229047,811,1569,0.717442,-5.06163
-406,-545,0.71521,5.18347,0.00134605,0.0011349,0.000741391,0.00198935,0.000491606,0.714671,0.00119651,0.0169713,818,1569,0.715236,-5.18345
-399,-545,0.71405,5.36121,0.00146717,-0.000248114,0.000367704,0.00154267,-0.000323616,0.202517,0.00115158,0.01122,825,1569,0.714036,-5.36119
-392,-545,0.727966,5.52417,0.00160984,-0.00145749,4.02522e-05,0.00161037,-0.00145802,0.0131199,0.00177226,0.0113762,832,1569,0.72797,-5.5242
-385,-545,0.721436,5.66772,0.00185768,-0.002406,-5.42297e-05,0.00185837,-0.00240669,-0.0127162,0.00246921,0.00951867,839,1569,0.721448,-5.66778
-378,-545,0.709106,5.82593,0.0024004,-0.00296267,0.000397617,0.00242972,-0.00299199,0.0736036,0.00313583,0.0110371,846,1569,0.709109,-5.82595
-371,-545,0.705322,5.99097,0.003081,-0.00336779,0.000943192,0.00321612,-0.00350291,0.142289,0.00388041,0.01439,853,1569,0.705327,-5.99094
-364,-545,0.704895,6.13855,0.00412523,-0.00336463,0.00210242,0.00467503,-0.00391442,0.255778,0.0049656,0.00979808,860,1569,0.704922,-6.13854
-357,-545,0.734314,6.28516,0.0051894,-0.00282137,0.00373685,0.0066619,-0.00429387,0.375364,0.00637437,0.0105261,867,1569,0.734287,-6.28517
-350,-545,0.778992,6.42651,0.004878,-0.00300829,0.00429804,0.00676766,-0.00489795,0.414218,0.00676391,0.0152971,874,1569,0.779002,-6.42652
-343,-545,0.793518,6.53577,0.00441865,-0.00470358,0.00323697,0.00545054,-0.00573547,0.308599,0.00645895,0.0255165,881,1569,0.793488,-6.53578
-336,-545,0.807007,6.68542,0.00448474,-0.00636627,0.00185747,0.00479389,-0.00667542,0.164926,0.00665145,0.033973,888,1569,0.806989,-6.68539
-329,-545,0.95166,7.27087,0.00437724,-0.00875331,0.000155274,0.00437908,-0.00875515,0.0118232,0.00772207,0.0406223,895,1569,0.951671,-7.27084
-322,-545,1.22882,7.82239,0,0,0,0,0,0,0,-1,902,1569,1.22879,-7.82242
-315,-545,1.52313,7.94397,0,0,0,0,0,0,0,-1,909,1569,1.52311,-7.94397
-308,-545,2.05792,7.7937,0,0,0,0,0,0,0,-1,916,1569,2.0579,-7.7937
-301,-545,-2.13873,4.97534,0,0,0,0,0,0,0,-1,923,1569,-2.13874,-4.97535
-294,-545,-2.27106,5.20801,0.000439463,-0.0326523,-0.0230458,0.0122639,-0.0444768,-0.47406,0.0344741,0.0447041,930,1569,-2.27107,-5.20795
-287,-545,-2.28992,5.48413,0.00210481,-0.0416665,-0.0303209,0.0176135,-0.0571752,-0.472794,0.0451482,0.0463022,937,1569,-2.28993,-5.48413
-280,-545,-2.4812,6.2583,0.00671349,-0.0517434,-0.0366777,0.0243845,-0.0694144,-0.448975,0.0561965,0.0478415,944,1569,-2.4812,-6.25835
-273,-545,-2.67072,7.02087,0,0,0,0,0,0,0,-1,951,1569,-2.6707,-7.02091
-266,-545,-3.19171,7.69739,0,0,0,0,0,0,0,-1,958,1569,-3.19172,-7.69734
-259,-545,-3.98706,7.8916,0,0,0,0,0,0,0,-1,965,1569,-3.98704,-7.89159
-252,-545,-4.75641,8.30005,0,0,0,0,0,0,0,-1,972,1569,-4.75641,-8.3001
-245,-545,0.484619,5.7207,0,0,0,0,0,0,0,-1,979,1569,0.484599,-5.72068
-238,-545,0,0,0,0,0,0,0,0,0,-1,986,1569,0,0
-231,-545,0,0,0,0,0,0,0,0,0,-1,993,1569,0,0
-224,-545,0,0,0,0,0,0,0,0,0,-1,1000,1569,0,0
-217,-545,0,0,0,0,0,0,0,0,0,-1,1007,1569,0,0
-210,-545,0,0,0,0,0,0,0,0,0,-1,1014,1569,0,0
-203,-545,0,0,0,0,0,0,0,0,0,-1,1021,1569,0,0
-196,-545,0,0,0,0,0,0,0,0,0,-1,1028,1569,0,0
-189,-545,0,0,0,0,0,0,0,0,0,-1,1035,1569,0,0
-182,-545,0,0,0,0,0,0,0,0,0,-1,1042,1569,0,0
-175,-545,0,0,0,0,0,0,0,0,0,-1,1049,1569,0,0
-168,-545,0,0,0,0,0,0,0,0,0,-1,1056,1569,0,0
-161,-545,0,0,0,0,0,0,0,0,0,-1,1063,1569,0,0
-154,-545,0,0,0,0,0,0,0,0,0,-1,1070,1569,0,0
-147,-545,0,0,0,0,0,0,0,0,0,-1,1077,1569,0,0
-140,-545,0,0,0,0,0,0,0,0,0,-1,1084,1569,0,0
-133,-545,0,0,0,0,0,0,0,0,0,-1,1091,1569,0,0
-126,-545,0,0,0,0,0,0,0,0,0,-1,1098,1569,0,0
-119,-545,0,0,0,0,0,0,0,0,0,-1,1105,1569,0,0
-112,-545,0,0,0,0,0,0,0,0,0,-1,1112,1569,0,0
-105,-545,0,0,0,0,0,0,0,0,0,-1,1119,1569,0,0
-98,-545,0,0,0,0,0,0,0,0,0,-1,1126,1569,0,0
-91,-545,0,0,0,0,0,0,0,0,0,-1,1133,1569,0,0
-84,-545,0,0,0,0,0,0,0,0,0,-1,1140,1569,0,0
-77,-545,0,0,0,0,0,0,0,0,0,-1,1147,1569,0,0
-70,-545,0,0,0,0,0,0,0,0,0,-1,1154,1569,0,0
-63,-545,0,0,0,0,0,0,0,0,0,-1,1161,1569,0,0
-56,-545,0,0,0,0,0,0,0,0,0,-1,1168,1569,0,0
-49,-545,0,0,0,0,0,0,0,0,0,-1,1175,1569,0,0
-42,-545,0,0,0,0,0,0,0,0,0,-1,1182,1569,0,0
-35,-545,0,0,0,0,0,0,0,0,0,-1,1189,1569,0,0
-28,-545,0,0,0,0,0,0,0,0,0,-1,1196,1569,0,0
-21,-545,0,0,0,0,0,0,0,0,0,-1,1203,1569,0,0
-14,-545,0,0,0,0,0,0,0,0,0,-1,1210,1569,0,0
-7,-545,0,0,0,0,0,0,0,0,0,-1,1217,1569,0,0
0,-545,0,0,0,0,0,0,0,0,0,-1,1224,1569,0,0
7,-545,0,0,0,0,0,0,0,0,0,-1,1231,1569,0,0
14,-545,0,0,0,0,0,0,0,0,0,-1,1238,1569,0,0
21,-545,0,0,0,0,0,0,0,0,0,-1,1245,1569,0,0
28,-545,0,0,0,0,0,0,0,0,0,-1,1252,1569,0,0
35,-545,0,0,0,0,0,0,0,0,0,-1,1259,1569,0,0
42,-545,0,0,0,0,0,0,0,0,0,-1,1266,1569,0,0
49,-545,0,0,0,0,0,0,0,0,0,-1,1273,1569,0,0
56,-545,0,0,0,0,0,0,0,0,0,-1,1280,1569,0,0
63,-545,0,0,0,0,0,0,0,0,0,-1,1287,1569,0,0
70,-545,0,0,0,0,0,0,0,0,0,-1,1294,1569,0,0
77,-545,0,0,0,0,0,0,0,0,0,-1,1301,1569,0,0
84,-545,0,0,0,0,0,0,0,0,0,-1,1308,1569,0,0
91,-545,0,0,0,0,0,0,0,0,0,-1,1315,1569,0,0
98,-545,0,0,0,0,0,0,0,0,0,-1,1322,1569,0,0
105,-545,0,0,0,0,0,0,0,0,0,-1,1329,1569,0,0
112,-545,0,0,0,0,0,0,0,0,0,-1,1336,1569,0,0
119,-545,0,0,0,0,0,0,0,0,0,-1,1343,1569,0,0
126,-545,0,0,0,0,0,0,0,0,0,-1,1350,1569,0,0
133,-545,0,0,0,0,0,0,0,0,0,-1,1357,1569,0,0
140,-545,0,0,0,0,0,0,0,0,0,-1,1364,1569,0,0
147,-545,0,0,0,0,0,0,0,0,0,-1,1371,1569,0,0
154,-545,0,0,0,0,0,0,0,0,0,-1,1378,1569,0,0
161,-545,0,0,0,0,0,0,0,0,0,-1,1385,1569,0,0
168,-545,0,0,0,0,0,0,0,0,0,-1,1392,1569,0,0
175,-545,0,0,0,0,0,0,0,0,0,-1,1399,1569,0,0
182,-545,0,0,0,0,0,0,0,0,0,-1,1406,1569,0,0
189,-545,0,0,0,0,0,0,0,0,0,-1,1413,1569,0,0
196,-545,0,0,0,0,0,0,0,0,0,-1,1420,1569,0,0
203,-545,0,0,0,0,0,0,0,0,0,-1,1427,1569,0,0
210,-545,0,0,0,0,0,0,0,0,0,-1,1434,1569,0,0
217,-545,0,0,0,0,0,0,0,0,0,-1,1441,1569,0,0
224,-545,0,0,0,0,0,0,0,0,0,-1,1448,1569,0,0
231,-545,0,0,0,0,0,0,0,0,0,-1,1455,1569,0,0
238,-545,0,0,0,0,0,0,0,0,0,-1,1462,1569,0,0
245,-545,0,0,0,0,0,0,0,0,0,-1,1469,1569,0,0
252,-545,0,0,0,0,0,0,0,0,0,-1,1476,1569,0,0
259,-545,0,0,0,0,0,0,0,0,0,-1,1483,1569,0,0
266,-545,0,0,0,0,0,0,0,0,0,-1,1490,1569,0,0
273,-545,0,0,0,0,0,0,0,0,0,-1,1497,1569,0,0
280,-545,0,0,0,0,0,0,0,0,0,-1,1504,1569,0,0
287,-545,0,0,0,0,0,0,0,0,0,-1,1511,1569,0,0
294,-545,0,0,0,0,0,0,0,0,0,-1,1518,1569,0,0
301,-545,0,0,0,0,0,0,0,0,0,-1,1525,1569,0,0
308,-545,0,0,0,0,0,0,0,0,0,-1,1532,1569,0,0
315,-545,0,0,0,0,0,0,0,0,0,-1,1539,1569,0,0
322,-545,0,0,0,0,0,0,0,0,0,-1,1546,1569,0,0
329,-545,0,0,0,0,0,0,0,0,0,-1,1553,1569,0,0
336,-545,0,0,0,0,0,0,0,0,0,-1,1560,1569,0,0
343,-545,0,0,0,0,0,0,0,0,0,-1,1567,1569,0,0
350,-545,0,0,0,0,0,0,0,0,0,-1,1574,1569,0,0
357,-545,0,0,0,0,0,0,0,0,0,-1,1581,1569,0,0
364,-545,5.47632,4.19043,0,0,0,0,0,0,0,-1,1588,1569,5.47628,-4.19048
371,-545,7.62146,5.18079,0,0,0,0,0,0,0,-1,1595,1569,7.62146,-5.1808
378,-545,7.24146,4.54224,0,0,0,0,0,0,0,-1,1602,1569,7.24145,-4.54226
385,-545,8.58447,1.16125,0,0,0,0,0,0,0,-1,1609,1569,8.5845,-1.1612
392,-545,7.91272,6.36743,0,0,0,0,0,0,0,-1,1616,1569,7.91276,-6.36745
399,-545,7.62476,5.90527,0,0,0,0,0,0,0,-1,1623,1569,7.62481,-5.90528
406,-545,7.25378,4.53357,0,0,0,0,0,0,0,-1,1630,1569,7.25379,-4.53355
413,-545,6.85388,4.70593,0,0,0,0,0,0,0,-1,1637,1569,6.85387,-4.70597
420,-545,6.89917,4.93921,0.0315401,0.0715438,0.034533,0.0914494,0.0116346,1.04789,0.0574819,0.0478004,1644,1569,6.89921,-4.93924
427,-545,6.90625,5.15234,0.0263535,0.0583575,0.0341707,0.0800875,0.00462352,1.00438,0.0519191,0.0482954,1651,1569,6.90621,-5.1523
434,-545,7.08582,5.34692,0.0209653,0.0429065,0.0348935,0.0685133,-0.00464155,0.937707,0.0472987,0.0456942,1658,1569,7.08583,-5.34691
441,-545,7.03467,5.82593,0.01602,0.0278566,0.0355526,0.0579801,-0.0141035,0.867875,0.0441126,0.0438822,1665,1569,7.03466,-5.82594
448,-545,6.80676,6.05188,0,0,0,0,0,0,0,-1,1672,1569,6.80681,-6.05193
455,-545,6.39783,6.38794,0,0,0,0,0,0,0,-1,1679,1569,6.39782,-6.38788
462,-545,6.49292,6.80737,0.00457514,-0.00589008,0.0345878,0.0343239,-0.0356389,0.710325,0.0403954,0.0423345,1686,1569,6.49289,-6.80737
469,-545,6.56506,7.06519,0.00197941,-0.0121258,0.0326056,0.0282864,-0.0384328,0.678889,0.0386686,0.0401094,1693,1569,6.56503,-7.06524
476,-545,6.32642,7.37073,-0.000446477,-0.0163738,0.0296756,0.0223154,-0.0391357,0.654308,0.0359191,0.0302331,1700,1569,6.32638,-7.37076
483,-545,6.35608,7.43408,-0.0016261,-0.0183077,0.0255311,0.0168921,-0.0368259,0.627517,0.0317179,0.0129105,1707,1569,6.35611,-7.43409
490,-545,6.37598,7.32971,-0.00255016,-0.0190122,0.0223167,0.013005,-0.0345674,0.608723,0.0283908,0.0108609,1714,1569,6.37597,-7.32976
497,-545,6.37854,7.21094,-0.00286063,-0.0175719,0.0186317,0.00981485,-0.0302474,0.597394,0.0241119,0.0155592,1721,1569,6.37859,-7.21098
504,-545,6.38892,7.08435,-0.00229037,-0.0133642,0.0141468,0.0073645,-0.023019,0.598868,0.0183016,0.0144905,1728,1569,6.38891,-7.08434
511,-545,6.37866,6.95007,-0.00177376,-0.00967377,0.0102907,0.00529898,-0.0167465,0.602148,0.0132877,0.0106784,1735,1569,6.37869,-6.95006
518,-545,6.37061,6.80481,-0.00129028,-0.0064729,0.00669454,0.00329697,-0.0110602,0.60074,0.00868362,0.0113858,1742,1569,6.37066,-6.80485
525,-545,6.36462,6.67737,-0.000623722,-0.00347737,0.00364906,0.00186755,-0.00596864,0.599031,0.00472624,0.0117286,1749,1569,6.36458,-6.67733
532,-545,6.37427,6.54626,-0.000132253,-0.00110905,0.00158999,0.00104266,-0.00228396,0.636387,0.00196469,0.0128492,1756,1569,6.37423,-6.54629
539,-545,6.37305,6.39465,0.000359518,0.000176049,0.000415653,0.00069344,-0.000157872,0.676789,0.000522922,0.0164372,1763,1569,6.37308,-6.39465
546,-545,6.36865,6.22839,0.00125721,0.00100528,-0.000773559,0.00191499,0.000347497,-0.704688,0.00117804,0.0180701,1770,1569,6.36866,-6.22845
553,-545,6.42346,6.09863,0.00249522,0.00161221,-0.00167459,0.00378553,0.000321898,-0.656507,0.00242353,0.023935,1777,1569,6.42346,-6.09861
560,-545,6.43005,5.94604,0.00476321,0.00244279,-0.00296272,0.00678479,0.000421208,-0.598775,0.00438954,0.0238455,1784,1569,6.43005,-5.94598
567,-545,6.32678,5.87012,0.00828909,0.00512712,-0.00527309,0.0122131,0.0012031,-0.639752,0.00777214,0.0287729,1791,1569,6.32674,-5.87011
574,-545,6.33179,5.69788,0.0147621,0.0119588,-0.0103196,0.0237748,0.00294613,-0.717897,0.0149648,0.0270219,1798,1569,6.33183,-5.69783
581,-545,6.40369,5.57202,0.0228446,0.0197594,-0.0206475,0.0420071,0.000596976,-0.748111,0.0278079,0.038168,1805,1569,6.40367,-5.57198
588,-545,6.39209,5.45911,0.0331275,0.0317147,-0.0346312,0.0670595,-0.00221736,-0.775201,0.0454635,0.0489792,1812,1569,6.39205,-5.45905
595,-545,6.73401,4.87549,0.0443014,0.0454886,-0.0489079,0.0938065,-0.00401653,-0.791466,0.0639186,0.0488266,1819,1569,6.73395,-4.87555
602,-545,7.30652,4.30298,0,0,0,0,0,0,0,-1,1826,1569,7.30655,-4.30294
609,-545,7.79126,3.90674,0,0,0,0,0,0,0,-1,1833,1569,7.79128,-3.90677
616,-545,8.38757,3.23279,0.0874058,0.101059,-0.104878,0.199332,-0.0108671,-0.817898,0.136654,0.0427858,1840,1569,8.38761,-3.23275
623,-545,9.05688,2.55688,0.103063,0.125045,-0.132188,0.246698,-0.0185897,-0.826876,0.170999,0.0449041,1847,1569,9.05683,-2.55686
630,-545,0,0,0,0,0,0,0,0,0,-1,1854,1569,0,0
637,-545,0,0,0,0,0,0,0,0,0,-1,1861,1569,0,0
644,-545,0,0,0,0,0,0,0,0,0,-1,1868,1569,0,0
651,-545,0,0,0,0,0,0,0,0,0,-1,1875,1569,0,0
658,-545,0,0,0,0,0,0,0,0,0,-1,1882,1569,0,0
665,-545,0,0,0,0,0,0,0,0,0,-1,1889,1569,0,0
672,-545,0,0,0,0,0,0,0,0,0,-1,1896,1569,0,0
679,-545,0,0,0,0,0,0,0,0,0,-1,1903,1569,0,0
686,-545,0,0,0,0,0,0,0,0,0,-1,1910,1569,0,0
693,-545,0,0,0,0,0,0,0,0,0,-1,1917,1569,0,0
700,-545,0,0,0,0,0,0,0,0,0,-1,1924,1569,0,0
707,-545,0,0,0,0,0,0,0,0,0,-1,1931,1569,0,0
714,-545,0,0,0,0,0,0,0,0,0,-1,1938,1569,0,0
721,-545,0,0,0,0,0,0,0,0,0,-1,1945,1569,0,0
728,-545,0,0,0,0,0,0,0,0,0,-1,1952,1569,0,0
735,-545,0,0,0,0,0,0,0,0,0,-1,1959,1569,0,0
742,-545,0,0,0,0,0,0,0,0,0,-1,1966,1569,0,0
749,-545,0,0,0,0,0,0,0,0,0,-1,1973,1569,0,0
756,-545,0,0,0,0,0,0,0,0,0,-1,1980,1569,0,0
763,-545,0,0,0,0,0,0,0,0,0,-1,1987,1569,0,0
770,-545,0,0,0,0,0,0,0,0,0,-1,1994,1569,0,0
777,-545,0,0,0,0,0,0,0,0,0,-1,2001,1569,0,0
784,-545,0,0,0,0,0,0,0,0,0,-1,2008,1569,0,0
791,-545,0,0,0,0,0,0,0,0,0,-1,2015,1569,0,0
798,-545,0,0,0,0,0,0,0,0,0,-1,2022,1569,0,0
805,-545,0,0,0,0,0,0,0,0,0,-1,2029,1569,0,0
812,-545,0,0,0,0,0,0,0,0,0,-1,2036,1569,0,0
-700,-552,0,0,0,0,0,0,0,0,0,-1,524,1576,0,0
-693,-552,0,0,0,0,0,0,0,0,0,-1,531,1576,0,0
-686,-552,0,0,0,0,0,0,0,0,0,-1,538,1576,0,0
-679,-552,0,0,0,0,0,0,0,0,0,-1,545,1576,0,0
-672,-552,0,0,0,0,0,0,0,0,0,-1,552,1576,0,0
-665,-552,0,0,0,0,0,0,0,0,0,-1,559,1576,0,0
-658,-552,0,0,0,0,0,0,0,0,0,-1,566,1576,0,0
-651,-552,0,0,0,0,0,0,0,0,0,-1,573,1576,0,0
-644,-552,0,0,0,0,0,0,0,0,0,-1,580,1576,0,0
-637,-552,0,0,0,0,0,0,0,0,0,-1,587,1576,0,0
-630,-552,0,0,0,0,0,0,0,0,0,-1,594,1576,0,0
-623,-552,0,0,0,0,0,0,0,0,0,-1,601,1576,0,0
-616,-552,0,0,0,0,0,0,0,0,0,-1,608,1576,0,0
-609,-552,0,0,0,0,0,0,0,0,0,-1,615,1576,0,0
-602,-552,0,0,0,0,0,0,0,0,0,-1,622,1576,0,0
-595,-552,0,0,0,0,0,0,0,0,0,-1,629,1576,0,0
-588,-552,0,0,0,0,0,0,0,0,0,-1,636,1576,0,0
-581,-552,0,0,0,0,0,0,0,0,0,-1,643,1576,0,0
-574,-552,0,0,0,0,0,0,0,0,0,-1,650,1576,0,0
-567,-552,0,0,0,0,0,0,0,0,0,-1,657,1576,0,0
-560,-552,0,0,0,0,0,0,0,0,0,-1,664,1576,0,0
-553,-552,0,0,0,0,0,0,0,0,0,-1,671,1576,0,0
-546,-552,0,0,0,0,0,0,0,0,0,-1,678,1576,0,0
-539,-552,0,0,0,0,0,0,0,0,0,-1,685,1576,0,0
-532,-552,0,0,0,0,0,0,0,0,0,-1,692,1576,0,0
-525,-552,0,0,0,0,0,0,0,0,0,-1,699,1576,0,0
-518,-552,0,0,0,0,0,0,0,0,0,-1,706,1576,0,0
-511,-552,0,0,0,0,0,0,0,0,0,-1,713,1576,0,0
-504,-552,0,0,0,0,0,0,0,0,0,-1,720,1576,0,0
-497,-552,0.311096,4.75586,0,0,0,0,0,0,0,-1,727,1576,0.3111,-4.75582
-490,-552,0.0426636,5.11902,0.0196745,0.10943,-0.012074,0.111025,0.0180787,-1.43939,0.0687872,0.049291,734,1576,0.0426872,-5.11898
-483,-552,0.067749,5.08923,0.0180564,0.0933564,-0.00840816,0.0942838,0.017129,-1.46094,0.0579956,0.0439815,741,1576,0.0677483,-5.08918
-476,-552,0.408691,5.06335,0.0160988,0.0788372,-0.0056085,0.0793346,0.0156014,-1.48234,0.0485325,0.0424345,748,1576,0.408676,-5.06333
-469,-552,0.621216,4.52295,0.014237,0.0657686,-0.00329041,0.0659778,0.0140278,-1.50729,0.0401349,0.0428876,755,1576,0.621232,-4.52293
-462,-552,1.13062,4.07312,0,0,0,0,0,0,0,-1,762,1576,1.13064,-4.07318
-455,-552,0.947876,4.22437,0.0105632,0.0438443,2.25557e-05,0.0438443,0.0105632,1.57012,0.026422,0.0436013,769,1576,0.947886,-4.22441
-448,-552,0.84436,4.05371,0.00883137,0.034602,0.00104726,0.0346445,0.00878888,1.53025,0.0207953,0.0424526,776,1576,0.844337,-4.05371
-441,-552,0.895142,4.33789,0.00702711,0.0263903,0.00168275,0.0265354,0.00688196,1.48475,0.0159007,0.0343067,783,1576,0.895133,-4.33793
-434,-552,0.923218,4.59302,0.00557445,0.0187622,0.00224425,0.0191337,0.00520299,1.40677,0.0114235,0.0175096,790,1576,0.923238,-4.59307
-427,-552,0.860901,4.73669,0.00411031,0.0125141,0.00262428,0.0132662,0.00335814,1.29166,0.00796438,0.0139765,797,1576,0.86088,-4.73666
-420,-552,0.881775,4.90967,0.0026727,0.00720051,0.00251661,0.00832166,0.00155155,1.15169,0.00510972,0.0181861,804,1576,0.881763,-4.90961
-413,-552,0.894287,5.06079,0.00172257,0.00396375,0.00218905,0.00530236,0.00038396,1.02196,0.00341412,0.0165588,811,1576,0.894304,-5.06084
-406,-552,0.893921,5.18176,0.00134161,0.00199892,0.0014786,0.00318495,0.000155573,0.894758,0.00207339,0.0128058,818,1576,0.893946,-5.18177
-399,-552,0.89502,5.3728,0.00129898,0.000597078,0.00104966,0.0020548,-0.000158745,0.624067,0.00142573,0.0124859,825,1576,0.895002,-5.37277
-392,-552,0.875549,5.52844,0.00131664,-0.000592436,0.000626095,0.00150366,-0.000779449,0.29026,0.00134007,0.0140954,832,1576,0.875529,-5.52845
-385,-552,0.860657,5.67969,0.00146512,-0.00149127,0.00041569,0.00152245,-0.00154861,0.137067,0.0017731,0.0127612,839,1576,0.860656,-5.67974
-378,-552,0.858215,5.81812,0.00180706,-0.00199321,0.000648108,0.00191455,-0.0021007,0.164355,0.00231904,0.0146398,846,1576,0.858215,-5.81817
-371,-552,0.853333,5.98254,0.00212595,-0.00242818,0.00090706,0.00229996,-0.00260219,0.18954,0.00283205,0.019355,853,1576,0.853323,-5.98256
-364,-552,0.86853,6.1261,0.00264252,-0.00247262,0.00164927,0.00312818,-0.00295828,0.286375,0.00351448,0.0151353,860,1576,0.868536,-6.12609
-357,-552,0.873413,6.2749,0.003195,-0.00204308,0.00278013,0.00439545,-0.00324353,0.407612,0.00442705,0.0102811,867,1576,0.873401,-6.27495
-350,-552,0.882324,6.43005,0.00252886,-0.00201431,0.00300018,0.00402041,-0.00350586,0.461368,0.00434868,0.00906708,874,1576,0.882346,-6.43
-343,-552,0.885315,6.58496,0.0017307,-0.00342451,0.00169744,0.00223941,-0.00393322,0.291176,0.00360822,0.00970929,881,1576,0.885289,-6.58499
-336,-552,0.933838,6.71265,0.00131564,-0.00487981,-1.90613e-05,0.00131569,-0.00487987,-0.00307662,0.00376915,0.0148191,888,1576,0.93382,-6.71262
-329,-552,1.05048,6.98645,0.000694582,-0.0070618,-0.00207327,0.00121398,-0.0075812,-0.24547,0.00550361,0.0314235,895,1576,1.0505,-6.9864
-322,-552,0.953796,7.28699,-0.000367247,-0.00943649,-0.00463814,0.00158466,-0.0113884,-0.398341,0.00817186,0.0482969,902,1576,0.953804,-7.28701
-315,-552,0.962708,7.36926,0,0,0,0,0,0,0,-1,909,1576,0.962702,-7.36932
-308,-552,0.934753,7.72375,0,0,0,0,0,0,0,-1,916,1576,0.934748,-7.72379
-301,-552,0.892029,8.00415,-0.00292915,-0.0221701,-0.0181711,0.00801108,-0.0331103,-0.541938,0.0251725,0.0443676,923,1576,0.892001,-8.00411
-294,-552,-1.52582,5.98804,-0.00260021,-0.0286117,-0.0240717,0.0117545,-0.0429665,-0.537718,0.0332622,0.044297,930,1576,-1.52583,-5.98803
-287,-552,-1.37378,5.91174,-0.000204895,-0.0358034,-0.0299139,0.0168047,-0.052813,-0.517025,0.0419477,0.0449252,937,1576,-1.37379,-5.91172
-280,-552,-1.26196,6.46204,0.00475758,-0.0439606,-0.0349431,0.0229941,-0.0621971,-0.481007,0.0508915,0.0462942,944,1576,-1.26194,-6.46205
-273,-552,-1.3598,7.24158,0,0,0,0,0,0,0,-1,951,1576,-1.35983,-7.24154
-266,-552,-1.32678,8.05688,0,0,0,0,0,0,0,-1,958,1576,-1.32677,-8.05683
-259,-552,-5.54321,8.31213,0,0,0,0,0,0,0,-1,965,1576,-5.54324,-8.31214
-252,-552,-6.49988,8.56104,0,0,0,0,0,0,0,-1,972,1576,-6.49986,-8.56109
-245,-552,-7.40472,8.78979,0,0,0,0,0,0,0,-1,979,1576,-7.40475,-8.78975
-238,-552,-2.04474,1.87451,0,0,0,0,0,0,0,-1,986,1576,-2.04473,-1.87452
-231,-552,-2.03931,2.02283,0,0,0,0,0,0,0,-1,993,1576,-2.03933,-2.02287
-224,-552,0,0,0,0,0,0,0,0,0,-1,1000,1576,0,0
-217,-552,0,0,0,0,0,0,0,0,0,-1,1007,1576,0,0
-210,-552,0,0,0,0,0,0,0,0,0,-1,1014,1576,0,0
-203,-552,0,0,0,0,0,0,0,0,0,-1,1021,1576,0,0
-196,-552,0,0,0,0,0,0,0,0,0,-1,1028,1576,0,0
-189,-552,0,0,0,0,0,0,0,0,0,-1,1035,1576,0,0
-182,-552,0,0,0,0,0,0,0,0,0,-1,1042,1576,0,0
-175,-552,0,0,0,0,0,0,0,0,0,-1,1049,1576,0,0
-168,-552,0,0,0,0,0,0,0,0,0,-1,1056,1576,0,0
-161,-552,0,0,0,0,0,0,0,0,0,-1,1063,1576,0,0
-154,-552,0,0,0,0,0,0,0,0,0,-1,1070,1576,0,0
-147,-552,0,0,0,0,0,0,0,0,0,-1,1077,1576,0,0
-140,-552,0,0,0,0,0,0,0,0,0,-1,1084,1576,0,0
-133,-552,0,0,0,0,0,0,0,0,0,-1,1091,1576,0,0
-126,-552,0,0,0,0,0,0,0,0,0,-1,1098,1576,0,0
-119,-552,0,0,0,0,0,0,0,0,0,-1,1105,1576,0,0
-112,-552,0,0,0,0,0,0,0,0,0,-1,1112,1576,0,0
-105,-552,0,0,0,0,0,0,0,0,0,-1,1119,1576,0,0
-98,-552,0,0,0,0,0,0,0,0,0,-1,1126,1576,0,0
-91,-552,0,0,0,0,0,0,0,0,0,-1,1133,1576,0,0
-84,-552,0,0,0,0,0,0,0,0,0,-1,1140,1576,0,0
-77,-552,0,0,0,0,0,0,0,0,0,-1,1147,1576,0,0
-70,-552,0,0,0,0,0,0,0,0,0,-1,1154,1576,0,0
-63,-552,0,0,0,0,0,0,0,0,0,-1,1161,1576,0,0
-56,-552,0,0,0,0,0,0,0,0,0,-1,1168,1576,0,0
-49,-552,0,0,0,0,0,0,0,0,0,-1,1175,1576,0,0
-42,-552,0,0,0,0,0,0,0,0,0,-1,1182,1576,0,0
-35,-552,0,0,0,0,0,0,0,0,0,-1,1189,1576,0,0
-28,-552,0,0,0,0,0,0,0,0,0,-1,1196,1576,0,0
-21,-552,0,0,0,0,0,0,0,0,0,-1,1203,1576,0,0
-14,-552,0,0,0,0,0,0,0,0,0,-1,1210,1576,0,0
-7,-552,0,0,0,0,0,0,0,0,0,-1,1217,1576,0,0
0,-552,0,0,0,0,0,0,0,0,0,-1,1224,1576,0,0
7,-552,0,0,0,0,0,0,0,0,0,-1,1231,1576,0,0
14,-552,0,0,0,0,0,0,0,0,0,-1,1238,1576,0,0
21,-552,0,0,0,0,0,0,0,0,0,-1,1245,1576,0,0
28,-552,0,0,0,0,0,0,0,0,0,-1,1252,1576,0,0
35,-552,0,0,0,0,0,0,0,0,0,-1,1259,1576,0,0
42,-552,0,0,0,0,0,0,0,0,0,-1,1266,1576,0,0
49,-552,0,0,0,0,0,0,0,0,0,-1,1273,1576,0,0
56,-552,0,0,0,0,0,0,0,0,0,-1,1280,1576,0,0
63,-552,0,0,0,0,0,0,0,0,0,-1,1287,1576,0,0
70,-552,0,0,0,0,0,0,0,0,0,-1,1294,1576,0,0
77,-552,0,0,0,0,0,0,0,0,0,-1,1301,1576,0,0
84,-552,0,0,0,0,0,0,0,0,0,-1,1308,1576,0,0
91,-552,0,0,0,0,0,0,0,0,0,-1,1315,1576,0,0
98,-552,0,0,0,0,0,0,0,0,0,-1,1322,1576,0,0
105,-552,0,0,0,0,0,0,0,0,0,-1,1329,1576,0,0
112,-552,0,0,0,0,0,0,0,0,0,-1,1336,1576,0,0
119,-552,0,0,0,0,0,0,0,0,0,-1,1343,1576,0,0
126,-552,0,0,0,0,0,0,0,0,0,-1,1350,1576,0,0
133,-552,0,0,0,0,0,0,0,0,0,-1,1357,1576,0,0
140,-552,0,0,0,0,0,0,0,0,0,-1,1364,1576,0,0
147,-552,0,0,0,0,0,0,0,0,0,-1,1371,1576,0,0
154,-552,0,0,0,0,0,0,0,0,0,-1,1378,1576,0,0
161,-552,0,0,0,0,0,0,0,0,0,-1,1385,1576,0,0
168,-552,0,0,0,0,0,0,0,0,0,-1,1392,1576,0,0
175,-552,0,0,0,0,0,0,0,0,0,-1,1399,1576,0,0
182,-552,0,0,0,0,0,0,0,0,0,-1,1406,1576,0,0
189,-552,0,0,0,0,0,0,0,0,0,-1,1413,1576,0,0
196,-552,0,0,0,0,0,0,0,0,0,-1,1420,1576,0,0
203,-552,0,0,0,0,0,0,0,0,0,-1,1427,1576,0,0
210,-552,0,0,0,0,0,0,0,0,0,-1,1434,1576,0,0
217,-552,0,0,0,0,0,0,0,0,0,-1,1441,1576,0,0
224,-552,0,0,0,0,0,0,0,0,0,-1,1448,1576,0,0
231,-552,0,0,0,0,0,0,0,0,0,-1,1455,1576,0,0
238,-552,0,0,0,0,0,0,0,0,0,-1,1462,1576,0,0
245,-552,0,0,0,0,0,0,0,0,0,-1,1469,1576,0,0
252,-552,0,0,0,0,0,0,0,0,0,-1,1476,1576,0,0
259,-552,0,0,0,0,0,0,0,0,0,-1,1483,1576,0,0
266,-552,0,0,0,0,0,0,0,0,0,-1,1490,1576,0,0
273,-552,0,0,0,0,0,0,0,0,0,-1,1497,1576,0,0
280,-552,0,0,0,0,0,0,0,0,0,-1,1504,1576,0,0
287,-552,0,0,0,0,0,0,0,0,0,-1,1511,1576,0,0
294,-552,0,0,0,0,0,0,0,0,0,-1,1518,1576,0,0
301,-552,0,0,0,0,0,0,0,0,0,-1,1525,1576,0,0
308,-552,0,0,0,0,0,0,0,0,0,-1,1532,1576,0,0
315,-552,0,0,0,0,0,0,0,0,0,-1,1539,1576,0,0
322,-552,0,0,0,0,0,0,0,0,0,-1,1546,1576,0,0
329,-552,0,0,0,0,0,0,0,0,0,-1,1553,1576,0,0
336,-552,0,0,0,0,0,0,0,0,0,-1,1560,1576,0,0
343,-552,0,0,0,0,0,0,0,0,0,-1,1567,1576,0,0
350,-552,5.03149,3.31958,0,0,0,0,0,0,0,-1,1574,1576,5.03152,-3.31962
357,-552,5.18469,4.10706,0,0,0,0,0,0,0,-1,1581,1576,5.1847,-4.10702
364,-552,4.6189,3.48181,0,0,0,0,0,0,0,-1,1588,1576,4.61895,-3.48178
371,-552,7.10657,5.64783,0,0,0,0,0,0,0,-1,1595,1576,7.10651,-5.64786
378,-552,6.44446,4.91492,0,0,0,0,0,0,0,-1,1602,1576,6.44448,-4.91496
385,-552,7.89954,0.97937,0,0,0,0,0,0,0,-1,1609,1576,7.89949,-0.979358
392,-552,7.74719,1.49023,0,0,0,0,0,0,0,-1,1616,1576,7.7472,-1.49022
399,-552,5.28796,6.40576,0,0,0,0,0,0,0,-1,1623,1576,5.28795,-6.40582
406,-552,7.95886,7.21057,0,0,0,0,0,0,0,-1,1630,1576,7.95884,-7.21056
413,-552,7.66931,7.36536,0,0,0,0,0,0,0,-1,1637,1576,7.66926,-7.36534
420,-552,6.44153,4.29297,0,0,0,0,0,0,0,-1,1644,1576,6.44149,-4.29294
427,-552,6.43201,4.43616,0,0,0,0,0,0,0,-1,1651,1576,6.43204,-4.43613
434,-552,6.57751,4.58716,0,0,0,0,0,0,0,-1,1658,1576,6.57749,-4.58721
441,-552,6.19763,5.03967,0,0,0,0,0,0,0,-1,1665,1576,6.19769,-5.03973
448,-552,5.95032,5.354,0,0,0,0,0,0,0,-1,1672,1576,5.95028,-5.354
455,-552,5.59814,6.09607,0,0,0,0,0,0,0,-1,1679,1576,5.59819,-6.0961
462,-552,6.36206,7.45886,0.00185479,-0.00474211,0.0307266,0.0294594,-0.0323467,0.731929,0.0356968,0.0382479,1686,1576,6.36211,-7.45892
469,-552,6.22974,7.54407,7.89367e-05,-0.0099534,0.0280318,0.0235399,-0.0334144,0.696863,0.0330469,0.0305698,1693,1576,6.22975,-7.54405
476,-552,6.19775,7.58618,-0.00166644,-0.0134725,0.0247598,0.0178842,-0.0330232,0.668376,0.0298215,0.014447,1700,1576,6.19777,-7.5862
483,-552,6.23743,7.48035,-0.00230672,-0.0149752,0.0206556,0.0129641,-0.030246,0.63662,0.0256038,0.013088,1707,1576,6.23738,-7.48029
490,-552,6.23938,7.35229,-0.00262047,-0.0152318,0.0174056,0.00958651,-0.0274388,0.611613,0.0221894,0.0134969,1714,1576,6.23941,-7.35225
497,-552,6.26147,7.22388,-0.00243351,-0.0136749,0.0139156,0.00695369,-0.0230621,0.593461,0.0181424,0.020635,1721,1576,6.26152,-7.22387
504,-552,6.26257,7.08582,-0.00177369,-0.0098425,0.0102719,0.00522771,-0.0168439,0.598273,0.0133183,0.0216506,1728,1576,6.26262,-7.08584
511,-552,6.23315,6.94324,-0.00117931,-0.00645364,0.00706732,0.00372685,-0.0113598,0.606824,0.00907428,0.0156122,1735,1576,6.23312,-6.94327
518,-552,6.23254,6.81067,-0.000585991,-0.00337012,0.00407748,0.00233051,-0.00628662,0.6209,0.0051469,0.0132704,1742,1576,6.23256,-6.81067
525,-552,6.23499,6.68408,0.000137016,-0.000567188,0.00156269,0.00138678,-0.00181696,0.67459,0.00185523,0.0125324,1749,1576,6.23496,-6.68409
532,-552,6.25537,6.54822,0.000682404,0.00164821,-0.000167433,0.00167642,0.000654201,-1.40392,0.000975622,0.0139113,1756,1576,6.25541,-6.54819
539,-552,6.24597,6.38745,0.00126057,0.0029732,-0.00130962,0.00368161,0.000552152,-1.07494,0.00229263,0.0175055,1763,1576,6.24595,-6.38745
546,-552,6.23401,6.2478,0.00228954,0.00396678,-0.00253272,0.00579611,0.000460211,-0.945275,0.00372017,0.0209588,1770,1576,6.23404,-6.24777
553,-552,6.29077,6.09314,0.00363939,0.00478361,-0.00355008,0.00780738,0.000615621,-0.865288,0.00501233,0.0235948,1777,1576,6.2908,-6.09317
560,-552,6.27588,6.07239,0.00609606,0.00580562,-0.00504131,0.0109942,0.000907442,-0.770999,0.00704652,0.040697,1784,1576,6.27584,-6.07235
567,-552,6.34119,5.79016,0,0,0,0,0,0,0,-1,1791,1576,6.34117,-5.79011
574,-552,6.29309,5.66382,0,0,0,0,0,0,0,-1,1798,1576,6.29303,-5.66384
581,-552,6.33215,5.57373,0,0,0,0,0,0,0,-1,1805,1576,6.33214,-5.57375
588,-552,6.39514,6.41846,0,0,0,0,0,0,0,-1,1812,1576,6.39512,-6.4185
595,-552,6.97742,5.19727,0,0,0,0,0,0,0,-1,1819,1576,6.97738,-5.19726
602,-552,7.55969,3.97607,0,0,0,0,0,0,0,-1,1826,1576,7.55964,-3.97603
609,-552,8.22217,2.92639,0,0,0,0,0,0,0,-1,1833,1576,8.22211,-2.92642
616,-552,8.70496,2.2627,0,0,0,0,0,0,0,-1,1840,1576,8.70495,-2.26274
623,-552,0,0,0,0,0,0,0,0,0,-1,1847,1576,0,0
630,-552,0,0,0,0,0,0,0,0,0,-1,1854,1576,0,0
637,-552,0,0,0,0,0,0,0,0,0,-1,1861,1576,0,0
644,-552,0,0,0,0,0,0,0,0,0,-1,1868,1576,0,0
651,-552,0,0,0,0,0,0,0,0,0,-1,1875,1576,0,0
658,-552,0,0,0,0,0,0,0,0,0,-1,1882,1576,0,0
665,-552,0,0,0,0,0,0,0,0,0,-1,1889,1576,0,0
672,-552,0,0,0,0,0,0,0,0,0,-1,1896,1576,0,0
679,-552,0,0,0,0,0,0,0,0,0,-1,1903,1576,0,0
686,-552,0,0,0,0,0,0,0,0,0,-1,1910,1576,0,0
693,-552,0,0,0,0,0,0,0,0,0,-1,1917,1576,0,0
700,-552,0,0,0,0,0,0,0,0,0,-1,1924,1576,0,0
707,-552,0,0,0,0,0,0,0,0,0,-1,1931,1576,0,0
714,-552,0,0,0,0,0,0,0,0,0,-1,1938,1576,0,0
721,-552,0,0,0,0,0,0,0,0,0,-1,1945,1576,0,0
728,-552,0,0,0,0,0,0,0,0,0,-1,1952,1576,0,0
735,-552,0,0,0,0,0,0,0,0,0,-1,1959,1576,0,0
742,-552,0,0,0,0,0,0,0,0,0,-1,1966,1576,0,0
749,-552,0,0,0,0,0,0,0,0,0,-1,1973,1576,0,0
756,-552,0,0,0,0,0,0,0,0,0,-1,1980,1576,0,0
763,-552,0,0,0,0,0,0,0,0,0,-1,1987,1576,0,0
770,-552,0,0,0,0,0,0,0,0,0,-1,1994,1576,0,0
777,-552,0,0,0,0,0,0,0,0,0,-1,2001,1576,0,0
784,-552,0,0,0,0,0,0,0,0,0,-1,2008,1576,0,0
791,-552,0,0,0,0,0,0,0,0,0,-1,2015,1576,0,0
798,-552,0,0,0,0,0,0,0,0,0,-1,2022,1576,0,0
805,-552,0,0,0,0,0,0,0,0,0,-1,2029,1576,0,0
812,-552,0,0,0,0,0,0,0,0,0,-1,2036,1576,0,0
-700,-559,0,0,0,0,0,0,0,0,0,-1,524,1583,0,0
-693,-559,0,0,0,0,0,0,0,0,0,-1,531,1583,0,0
-686,-559,0,0,0,0,0,0,0,0,0,-1,538,1583,0,0
-679,-559,0,0,0,0,0,0,0,0,0,-1,545,1583,0,0
-672,-559,0,0,0,0,0,0,0,0,0,-1,552,1583,0,0
-665,-559,0,0,0,0,0,0,0,0,0,-1,559,1583,0,0
-658,-559,0,0,0,0,0,0,0,0,0,-1,566,1583,0,0
-651,-559,0,0,0,0,0,0,0,0,0,-1,573,1583,0,0
-644,-559,0,0,0,0,0,0,0,0,0,-1,580,1583,0,0
-637,-559,0,0,0,0,0,0,0,0,0,-1,587,1583,0,0
-630,-559,0,0,0,0,0,0,0,0,0,-1,594,1583,0,0
-623,-559,0,0,0,0,0,0,0,0,0,-1,601,1583,0,0
-616,-559,0,0,0,0,0,0,0,0,0,-1,608,1583,0,0
-609,-559,0,0,0,0,0,0,0,0,0,-1,615,1583,0,0
-602,-559,0,0,0,0,0,0,0,0,0,-1,622,1583,0,0
-595,-559,0,0,0,0,0,0,0,0,0,-1,629,1583,0,0
-588,-559,0,0,0,0,0,0,0,0,0,-1,636,1583,0,0
-581,-559,0,0,0,0,0,0,0,0,0,-1,643,1583,0,0
-574,-559,0,0,0,0,0,0,0,0,0,-1,650,1583,0,0
-567,-559,0,0,0,0,0,0,0,0,0,-1,657,1583,0,0
-560,-559,0,0,0,0,0,0,0,0,0,-1,664,1583,0,0
-553,-559,0,0,0,0,0,0,0,0,0,-1,671,1583,0,0
-546,-559,0,0,0,0,0,0,0,0,0,-1,678,1583,0,0
-539,-559,0,0,0,0,0,0,0,0,0,-1,685,1583,0,0
-532,-559,0,0,0,0,0,0,0,0,0,-1,692,1583,0,0
-525,-559,0,0,0,0,0,0,0,0,0,-1,699,1583,0,0
-518,-559,0,0,0,0,0,0,0,0,0,-1,706,1583,0,0
-511,-559,0,0,0,0,0,0,0,0,0,-1,713,1583,0,0
-504,-559,0,0,0,0,0,0,0,0,0,-1,720,1583,0,0
-497,-559,0,0,0,0,0,0,0,0,0,-1,727,1583,0,0
-490,-559,0.280151,4.19458,0.0244637,0.128821,-0.0127868,0.130365,0.0229198,-1.45064,0.0803667,0.0470941,734,1583,0.280144,-4.19453
-483,-559,0.307495,4.17371,0.0225532,0.110598,-0.00868963,0.111447,0.0217037,-1.47335,0.0682243,0.0449676,741,1583,0.307516,-4.17371
-476,-559,0.530273,3.76978,0.0203239,0.0942028,-0.00544038,0.0946013,0.0199254,-1.49768,0.0575865,0.0460791,748,1583,0.530285,-3.76976
-469,-559,0.911438,3.89075,0.0182492,0.079428,-0.00276805,0.079553,0.0181242,-1.52567,0.0481448,0.0446817,755,1583,0.911419,-3.89069
-462,-559,1.14636,3.8772,0.0161255,0.0665832,-0.000569091,0.0665896,0.0161191,-1.55952,0.0401145,0.0424456,762,1583,1.14639,-3.87716
-455,-559,1.11292,4.08691,0.0139705,0.0546012,0.00111614,0.0546318,0.0139399,1.54335,0.032778,0.0429136,769,1583,1.11293,-4.08694
-448,-559,1.12817,4.29541,0,0,0,0,0,0,0,-1,776,1583,1.12818,-4.29543
-441,-559,1.04321,4.47766,0.00945274,0.0338374,0.00290259,0.0341781,0.00911199,1.45394,0.0204368,0.0431918,783,1583,1.04324,-4.4777
-434,-559,1.01874,4.64258,0.00748063,0.0244228,0.0034441,0.0250962,0.00680725,1.37772,0.0149862,0.0329832,790,1583,1.01875,-4.64255
-427,-559,1.03308,4.77637,0.00557461,0.0162977,0.0037963,0.0175056,0.00436668,1.26274,0.0105214,0.0204569,797,1583,1.03308,-4.77634
-420,-559,1.01752,4.89734,0.00362077,0.00941507,0.00356269,0.0111099,0.00192595,1.12676,0.00685539,0.0179009,804,1583,1.01751,-4.89737
-413,-559,1.04248,5.05652,0.0022781,0.00518056,0.00308663,0.0071401,0.000318557,1.00515,0.00465751,0.0110439,811,1583,1.04249,-5.05656
-406,-559,1.04016,5.22046,0.00166264,0.00265907,0.00218934,0.00440617,-8.44607e-05,0.897275,0.002966,0.00907158,818,1583,1.04018,-5.2205
-399,-559,1.03412,5.37305,0.00143305,0.00109368,0.0016325,0.00290466,-0.000377924,0.733613,0.00207392,0.0115578,825,1583,1.03411,-5.37309
-392,-559,1.00885,5.5144,0.001303,-0.000192324,0.00105845,0.00185122,-0.000740548,0.477903,0.00154148,0.0149972,832,1583,1.00886,-5.51436
-385,-559,0.995361,5.67688,0.00133093,-0.0011421,0.00069183,0.00151131,-0.00132248,0.255054,0.0016373,0.0149873,839,1583,0.995367,-5.67689
-378,-559,1.02466,5.83276,0.00155337,-0.00167478,0.00074027,0.00171503,-0.00183644,0.215006,0.00205084,0.0142,846,1583,1.02467,-5.83277
-371,-559,1.01062,5.98828,0.00167546,-0.00213561,0.00079077,0.00183302,-0.00229318,0.196679,0.0023872,0.0212415,853,1583,1.01064,-5.98832
-364,-559,1.03027,6.12012,0.00194466,-0.00215538,0.00128349,0.0023133,-0.00252403,0.279691,0.00279372,0.0187684,860,1583,1.03029,-6.12015
-357,-559,1.02808,6.27502,0.00227483,-0.00177926,0.00207718,0.00315013,-0.00265456,0.398807,0.00335541,0.0115992,867,1583,1.02807,-6.27508
-350,-559,1.026,6.43127,0.0015945,-0.0014741,0.00214623,0.00269845,-0.00257805,0.475076,0.00304666,0.00962707,874,1583,1.026,-6.43123
-343,-559,1.02454,6.59119,0.000790498,-0.00239633,0.000872979,0.00101397,-0.0026198,0.250602,0.00216516,0.00984493,881,1583,1.02455,-6.59116
-336,-559,1.04065,6.72192,0.000247698,-0.00342393,-0.000864654,0.00044113,-0.00361736,-0.220086,0.00257126,0.0113034,888,1583,1.04063,-6.7219
-329,-559,1.08771,6.89697,-0.000588561,-0.0051714,-0.00298437,0.000882609,-0.00664257,-0.457998,0.00475,0.0153268,895,1583,1.08773,-6.89697
-322,-559,1.09863,7.09277,-0.00179826,-0.00713447,-0.00560754,0.00174357,-0.0106763,-0.563345,0.00776425,0.0340904,902,1583,1.09866,-7.09278
-315,-559,1.02399,7.25732,-0.00311804,-0.00992241,-0.00906343,0.00316072,-0.0162012,-0.605848,0.011994,0.0401107,909,1583,1.02401,-7.25736
-308,-559,0.940918,7.60071,-0.00406357,-0.0135649,-0.0134835,0.00548169,-0.0231101,-0.616023,0.0175222,0.038819,916,1583,0.940893,-7.60068
-301,-559,0.872253,7.98816,-0.00411978,-0.0184311,-0.0182672,0.00834331,-0.0308942,-0.598723,0.0238684,0.0426497,923,1583,0.872229,-7.98811
-294,-559,0.909485,8.53394,-0.00364147,-0.0240734,-0.0233196,0.0116017,-0.0393166,-0.578948,0.0308151,0.0453032,930,1583,0.909483,-8.53391
-287,-559,0.200012,6.26672,-0.00128802,-0.0300604,-0.0282339,0.0160135,-0.047362,-0.549774,0.0380527,0.0468491,937,1583,0.200009,-6.26673
-280,-559,-0.113525,6.61694,0.00311801,-0.0370902,-0.032581,0.0212983,-0.0552705,-0.508967,0.0456344,0.0476746,944,1583,-0.113517,-6.61692
-273,-559,-0.676025,6.78943,0,0,0,0,0,0,0,-1,951,1583,-0.676053,-6.78942
-266,-559,-0.597046,6.68933,0,0,0,0,0,0,0,-1,958,1583,-0.597031,-6.68937
-259,-559,-7.00311,8.62756,0,0,0,0,0,0,0,-1,965,1583,-7.00312,-8.6275
-252,-559,-8.16071,8.59155,0,0,0,0,0,0,0,-1,972,1583,-8.16071,-8.5915
-245,-559,-4.11566,3.56042,0,0,0,0,0,0,0,-1,979,1583,-4.11564,-3.56039
-238,-559,-3.22314,2.91785,0,0,0,0,0,0,0,-1,986,1583,-3.22316,-2.91789
-231,-559,-2.42377,2.27722,0,0,0,0,0,0,0,-1,993,1583,-2.42378,-2.27726
-224,-559,-2.11206,2.69836,0,0,0,0,0,0,0,-1,1000,1583,-2.11204,-2.69831
-217,-559,0,0,0,0,0,0,0,0,0,-1,1007,1583,0,0
-210,-559,0,0,0,0,0,0,0,0,0,-1,1014,1583,0,0
-203,-559,0,0,0,0,0,0,0,0,0,-1,1021,1583,0,0
-196,-559,0,0,0,0,0,0,0,0,0,-1,1028,1583,0,0
-189,-559,0,0,0,0,0,0,0,0,0,-1,1035,1583,0,0
-182,-559,0,0,0,0,0,0,0,0,0,-1,1042,1583,0,0
-175,-559,0,0,0,0,0,0,0,0,0,-1,1049,1583,0,0
-168,-559,0,0,0,0,0,0,0,0,0,-1,1056,1583,0,0
-161,-559,0,0,0,0,0,0,0,0,0,-1,1063,1583,0,0
-154,-559,0,0,0,0,0,0,0,0,0,-1,1070,1583,0,0
-147,-559,0,0,0,0,0,0,0,0,0,-1,1077,1583,0,0
-140,-559,0,0,0,0,0,0,0,0,0,-1,1084,1583,0,0
-133,-559,0,0,0,0,0,0,0,0,0,-1,1091,1583,0,0
-126,-559,0,0,0,0,0,0,0,0,0,-1,1098,1583,0,0
-119,-559,0,0,0,0,0,0,0,0,0,-1,1105,1583,0,0
-112,-559,0,0,0,0,0,0,0,0,0,-1,1112,1583,0,0
-105,-559,0,0,0,0,0,0,0,0,0,-1,1119,1583,0,0
-98,-559,0,0,0,0,0,0,0,0,0,-1,1126,1583,0,0
-91,-559,0,0,0,0,0,0,0,0,0,-1,1133,1583,0,0
-84,-559,0,0,0,0,0,0,0,0,0,-1,1140,1583,0,0
-77,-559,0,0,0,0,0,0,0,0,0,-1,1147,1583,0,0
-70,-559,0,0,0,0,0,0,0,0,0,-1,1154,1583,0,0
-63,-559,0,0,0,0,0,0,0,0,0,-1,1161,1583,0,0
-56,-559,0,0,0,0,0,0,0,0,0,-1,1168,1583,0,0
-49,-559,0,0,0,0,0,0,0,0,0,-1,1175,1583,0,0
-42,-559,0,0,0,0,0,0,0,0,0,-1,1182,1583,0,0
-35,-559,0,0,0,0,0,0,0,0,0,-1,1189,1583,0,0
-28,-559,0,0,0,0,0,0,0,0,0,-1,1196,1583,0,0
-21,-559,0,0,0,0,0,0,0,0,0,-1,1203,1583,0,0
-14,-559,0,0,0,0,0,0,0,0,0,-1,1210,1583,0,0
-7,-559,0,0,0,0,0,0,0,0,0,-1,1217,1583,0,0
0,-559,0,0,0,0,0,0,0,0,0,-1,1224,1583,0,0
7,-559,0,0,0,0,0,0,0,0,0,-1,1231,1583,0,0
14,-559,0,0,0,0,0,0,0,0,0,-1,1238,1583,0,0
21,-559,0,0,0,0,0,0,0,0,0,-1,1245,1583,0,0
28,-559,0,0,0,0,0,0,0,0,0,-1,1252,1583,0,0
35,-559,0,0,0,0,0,0,0,0,0,-1,1259,1583,0,0
42,-559,0,0,0,0,0,0,0,0,0,-1,1266,1583,0,0
49,-559,0,0,0,0,0,0,0,0,0,-1,1273,1583,0,0
56,-559,0,0,0,0,0,0,0,0,0,-1,1280,1583,0,0
63,-559,0,0,0,0,0,0,0,0,0,-1,1287,1583,0,0
70,-559,0,0,0,0,0,0,0,0,0,-1,1294,1583,0,0
77,-559,0,0,0,0,0,0,0,0,0,-1,1301,1583,0,0
84,-559,0,0,0,0,0,0,0,0,0,-1,1308,1583,0,0
91,-559,0,0,0,0,0,0,0,0,0,-1,1315,1583,0,0
98,-559,0,0,0,0,0,0,0,0,0,-1,1322,1583,0,0
105,-559,0,0,0,0,0,0,0,0,0,-1,1329,1583,0,0
112,-559,0,0,0,0,0,0,0,0,0,-1,1336,1583,0,0
119,-559,0,0,0,0,0,0,0,0,0,-1,1343,1583,0,0
126,-559,0,0,0,0,0,0,0,0,0,-1,1350,1583,0,0
133,-559,0,0,0,0,0,0,0,0,0,-1,1357,1583,0,0
140,-559,0,0,0,0,0,0,0,0,0,-1,1364,1583,0,0
147,-559,0,0,0,0,0,0,0,0,0,-1,1371,1583,0,0
154,-559,0,0,0,0,0,0,0,0,0,-1,1378,1583,0,0
161,-559,0,0,0,0,0,0,0,0,0,-1,1385,1583,0,0
168,-559,0,0,0,0,0,0,0,0,0,-1,1392,1583,0,0
175,-559,0,0,0,0,0,0,0,0,0,-1,1399,1583,0,0
182,-559,0,0,0,0,0,0,0,0,0,-1,1406,1583,0,0
189,-559,0,0,0,0,0,0,0,0,0,-1,1413,1583,0,0
196,-559,0,0,0,0,0,0,0,0,0,-1,1420,1583,0,0
203,-559,0,0,0,0,0,0,0,0,0,-1,1427,1583,0,0
210,-559,0,0,0,0,0,0,0,0,0,-1,1434,1583,0,0
217,-559,0,0,0,0,0,0,0,0,0,-1,1441,1583,0,0
224,-559,0,0,0,0,0,0,0,0,0,-1,1448,1583,0,0
231,-559,0,0,0,0,0,0,0,0,0,-1,1455,1583,0,0
238,-559,0,0,0,0,0,0,0,0,0,-1,1462,1583,0,0
245,-559,0,0,0,0,0,0,0,0,0,-1,1469,1583,0,0
252,-559,0,0,0,0,0,0,0,0,0,-1,1476,1583,0,0
259,-559,0,0,0,0,0,0,0,0,0,-1,1483,1583,0,0
266,-559,0,0,0,0,0,0,0,0,0,-1,1490,1583,0,0
273,-559,0,0,0,0,0,0,0,0,0,-1,1497,1583,0,0
280,-559,0,0,0,0,0,0,0,0,0,-1,1504,1583,0,0
287,-559,0,0,0,0,0,0,0,0,0,-1,1511,1583,0,0
294,-559,0,0,0,0,0,0,0,0,0,-1,1518,1583,0,0
301,-559,0,0,0,0,0,0,0,0,0,-1,1525,1583,0,0
308,-559,0,0,0,0,0,0,0,0,0,-1,1532,1583,0,0
315,-559,0,0,0,0,0,0,0,0,0,-1,1539,1583,0,0
322,-559,0,0,0,0,0,0,0,0,0,-1,1546,1583,0,0
329,-559,0,0,0,0,0,0,0,0,0,-1,1553,1583,0,0
336,-559,5.84851,3.87512,0,0,0,0,0,0,0,-1,1560,1583,5.84849,-3.87516
343,-559,5.31299,3.53284,0,0,0,0,0,0,0,-1,1567,1583,5.31302,-3.53284
350,-559,4.92236,2.85144,0,0,0,0,0,0,0,-1,1574,1583,4.92232,-2.85148
357,-559,4.25781,3.47522,0,0,0,0,0,0,0,-1,1581,1583,4.25786,-3.47525
364,-559,5.00928,5.32605,0,0,0,0,0,0,0,-1,1588,1583,5.00928,-5.32607
371,-559,1.84436,2.52441,0,0,0,0,0,0,0,-1,1595,1583,1.84441,-2.52447
378,-559,6.34753,1.53137,0,0,0,0,0,0,0,-1,1602,1583,6.34752,-1.53139
385,-559,6.95911,1.48181,0,0,0,0,0,0,0,-1,1609,1583,6.95916,-1.48175
392,-559,7.03137,1.30005,0,0,0,0,0,0,0,-1,1616,1583,7.03137,-1.30009
399,-559,7.00757,1.10596,0,0,0,0,0,0,0,-1,1623,1583,7.00761,-1.10592
406,-559,5.25708,5.33411,0,0,0,0,0,0,0,-1,1630,1583,5.25714,-5.33406
413,-559,6.66516,7.46582,0,0,0,0,0,0,0,-1,1637,1583,6.66515,-7.46584
420,-559,6.20435,7.99402,0,0,0,0,0,0,0,-1,1644,1583,6.2043,-7.994
427,-559,6.22241,7.95386,0,0,0,0,0,0,0,-1,1651,1583,6.22247,-7.95387
434,-559,6.57788,7.73547,0,0,0,0,0,0,0,-1,1658,1583,6.57783,-7.73545
441,-559,6.37122,7.76819,0,0,0,0,0,0,0,-1,1665,1583,6.37126,-7.76819
448,-559,6.27002,7.54956,0.00192409,0.00857607,0.0313438,0.0367698,-0.0262697,0.838257,0.0365638,0.0459978,1672,1583,6.27001,-7.5496
455,-559,6.24707,7.62488,0.000332098,0.00100242,0.0286044,0.0292737,-0.0279392,0.791256,0.0330348,0.0380774,1679,1583,6.24706,-7.62492
462,-559,6.20068,7.71912,-0.000506485,-0.0047065,0.0257599,0.0232389,-0.0284518,0.744727,0.0298942,0.0278752,1686,1583,6.20072,-7.71906
469,-559,6.11353,7.70923,-0.00130972,-0.00858444,0.0227161,0.0180584,-0.0279526,0.706011,0.0267684,0.0151945,1693,1583,6.11351,-7.70924
476,-559,6.08545,7.60474,-0.00226882,-0.0110767,0.0194487,0.0132683,-0.0266138,0.674057,0.0234517,0.00970922,1700,1583,6.08551,-7.60471
483,-559,6.11169,7.47827,-0.00239137,-0.0119267,0.0157346,0.00928201,-0.0236001,0.638292,0.0195752,0.0117526,1707,1583,6.11165,-7.47829
490,-559,6.11108,7.35034,-0.00214086,-0.0115579,0.0126221,0.00662239,-0.0203211,0.606874,0.0162122,0.0139901,1714,1583,6.11114,-7.35039
497,-559,6.1095,7.22083,-0.00164251,-0.00988829,0.00958587,0.0046695,-0.0162003,0.582307,0.0126474,0.0168096,1721,1583,6.10948,-7.22082
504,-559,6.09277,7.07776,-0.00104663,-0.0065045,0.00676484,0.00351897,-0.0110701,0.593681,0.00879104,0.0216101,1728,1583,6.09277,-7.07774
511,-559,6.08496,6.94287,-0.000497156,-0.00346328,0.00421694,0.00248991,-0.00645035,0.616308,0.00532781,0.0195586,1735,1583,6.08491,-6.94289
518,-559,6.10718,6.81274,9.15962e-05,-0.000583865,0.00179895,0.00158424,-0.00207651,0.692609,0.0021199,0.0125186,1742,1583,6.10712,-6.8127
525,-559,6.10486,6.67383,0.000763997,0.00200583,-0.000250526,0.00205447,0.000715362,-1.37905,0.00120423,0.0108436,1749,1583,6.10481,-6.67379
532,-559,6.09961,6.54175,0.00129942,0.0040596,-0.00169281,0.00486359,0.00049542,-1.12739,0.00309052,0.0132453,1756,1583,6.09959,-6.54177
539,-559,6.11084,6.39819,0.00193477,0.00541661,-0.00278352,0.0069588,0.000392584,-1.06486,0.00451403,0.0171908,1763,1583,6.1109,-6.39823
546,-559,6.10217,6.26025,0.00307717,0.00659243,-0.00403946,0.00924008,0.000429517,-0.990601,0.00602199,0.0155307,1770,1583,6.10222,-6.26024
553,-559,6.19775,6.09338,0.00453873,0.00766494,-0.00518525,0.0115176,0.000686105,-0.931793,0.0074602,0.0215072,1777,1583,6.1978,-6.09334
560,-559,6.17786,6.10681,0.00718877,0.0089648,-0.00691838,0.0150519,0.00110165,-0.849227,0.00968831,0.03935,1784,1583,6.17787,-6.10685
567,-559,6.30481,5.53748,0,0,0,0,0,0,0,-1,1791,1583,6.30478,-5.53742
574,-559,6.53455,4.8811,0,0,0,0,0,0,0,-1,1798,1583,6.5345,-4.88116
581,-559,5.97095,5.96179,0,0,0,0,0,0,0,-1,1805,1583,5.97093,-5.96181
588,-559,6.29565,6.24658,0,0,0,0,0,0,0,-1,1812,1583,6.29571,-6.24653
595,-559,7.07544,5.3291,0,0,0,0,0,0,0,-1,1819,1583,7.07543,-5.32907
602,-559,5.28284,3.00122,0,0,0,0,0,0,0,-1,1826,1583,5.28286,-3.00121
609,-559,5.72681,0.13562,0,0,0,0,0,0,0,-1,1833,1583,5.72678,-0.135584
616,-559,0,0,0,0,0,0,0,0,0,-1,1840,1583,0,0
623,-559,0,0,0,0,0,0,0,0,0,-1,1847,1583,0,0
630,-559,0,0,0,0,0,0,0,0,0,-1,1854,1583,0,0
637,-559,0,0,0,0,0,0,0,0,0,-1,1861,1583,0,0
644,-559,0,0,0,0,0,0,0,0,0,-1,1868,1583,0,0
651,-559,0,0,0,0,0,0,0,0,0,-1,1875,1583,0,0
658,-559,0,0,0,0,0,0,0,0,0,-1,1882,1583,0,0
665,-559,0,0,0,0,0,0,0,0,0,-1,1889,1583,0,0
672,-559,0,0,0,0,0,0,0,0,0,-1,1896,1583,0,0
679,-559,0,0,0,0,0,0,0,0,0,-1,1903,1583,0,0
686,-559,0,0,0,0,0,0,0,0,0,-1,1910,1583,0,0
693,-559,0,0,0,0,0,0,0,0,0,-1,1917,1583,0,0
700,-559,0,0,0,0,0,0,0,0,0,-1,1924,1583,0,0
707,-559,0,0,0,0,0,0,0,0,0,-1,1931,1583,0,0
714,-559,0,0,0,0,0,0,0,0,0,-1,1938,1583,0,0
721,-559,0,0,0,0,0,0,0,0,0,-1,1945,1583,0,0
728,-559,0,0,0,0,0,0,0,0,0,-1,1952,1583,0,0
735,-559,0,0,0,0,0,0,0,0,0,-1,1959,1583,0,0
742,-559,0,0,0,0,0,0,0,0,0,-1,1966,1583,0,0
749,-559,0,0,0,0,0,0,0,0,0,-1,1973,1583,0,0
756,-559,0,0,0,0,0,0,0,0,0,-1,1980,1583,0,0
763,-559,0,0,0,0,0,0,0,0,0,-1,1987,1583,0,0
770,-559,0,0,0,0,0,0,0,0,0,-1,1994,1583,0,0
777,-559,0,0,0,0,0,0,0,0,0,-1,2001,1583,0,0
784,-559,0,0,0,0,0,0,0,0,0,-1,2008,1583,0,0
791,-559,0,0,0,0,0,0,0,0,0,-1,2015,1583,0,0
798,-559,0,0,0,0,0,0,0,0,0,-1,2022,1583,0,0
805,-559,0,0,0,0,0,0,0,0,0,-1,2029,1583,0,0
812,-559,0,0,0,0,0,0,0,0,0,-1,2036,1583,0,0
-700,-566,0,0,0,0,0,0,0,0,0,-1,524,1590,0,0
-693,-566,0,0,0,0,0,0,0,0,0,-1,531,1590,0,0
-686,-566,0,0,0,0,0,0,0,0,0,-1,538,1590,0,0
-679,-566,0,0,0,0,0,0,0,0,0,-1,545,1590,0,0
-672,-566,0,0,0,0,0,0,0,0,0,-1,552,1590,0,0
-665,-566,0,0,0,0,0,0,0,0,0,-1,559,1590,0,0
-658,-566,0,0,0,0,0,0,0,0,0,-1,566,1590,0,0
-651,-566,0,0,0,0,0,0,0,0,0,-1,573,1590,0,0
-644,-566,0,0,0,0,0,0,0,0,0,-1,580,1590,0,0
-637,-566,0,0,0,0,0,0,0,0,0,-1,587,1590,0,0
-630,-566,0,0,0,0,0,0,0,0,0,-1,594,1590,0,0
-623,-566,0,0,0,0,0,0,0,0,0,-1,601,1590,0,0
-616,-566,0,0,0,0,0,0,0,0,0,-1,608,1590,0,0
-609,-566,0,0,0,0,0,0,0,0,0,-1,615,1590,0,0
-602,-566,0,0,0,0,0,0,0,0,0,-1,622,1590,0,0
-595,-566,0,0,0,0,0,0,0,0,0,-1,629,1590,0,0
-588,-566,0,0,0,0,0,0,0,0,0,-1,636,1590,0,0
-581,-566,0,0,0,0,0,0,0,0,0,-1,643,1590,0,0
-574,-566,0,0,0,0,0,0,0,0,0,-1,650,1590,0,0
-567,-566,0,0,0,0,0,0,0,0,0,-1,657,1590,0,0
-560,-566,0,0,0,0,0,0,0,0,0,-1,664,1590,0,0
-553,-566,0,0,0,0,0,0,0,0,0,-1,671,1590,0,0
-546,-566,0,0,0,0,0,0,0,0,0,-1,678,1590,0,0
-539,-566,0,0,0,0,0,0,0,0,0,-1,685,1590,0,0
-532,-566,0,0,0,0,0,0,0,0,0,-1,692,1590,0,0
-525,-566,0,0,0,0,0,0,0,0,0,-1,699,1590,0,0
-518,-566,0,0,0,0,0,0,0,0,0,-1,706,1590,0,0
-511,-566,0,0,0,0,0,0,0,0,0,-1,713,1590,0,0
-504,-566,0,0,0,0,0,0,0,0,0,-1,720,1590,0,0
-497,-566,0,0,0,0,0,0,0,0,0,-1,727,1590,0,0
-490,-566,0,0,0,0,0,0,0,0,0,-1,734,1590,0,0
-483,-566,0.474548,3.36011,0.0271815,0.128001,-0.00848078,0.128709,0.026473,-1.48746,0.0784843,0.0446702,741,1590,0.474534,-3.36014
-476,-566,0.689514,3.24023,0.0248336,0.109876,-0.00465488,0.11013,0.0245796,-1.51628,0.0667529,0.0443594,748,1590,0.689502,-3.24022
-469,-566,1.00311,3.30676,0.0226902,0.0935905,-0.00158285,0.0936258,0.0226549,-1.54849,0.0564031,0.0440721,755,1590,1.00312,-3.30678
-462,-566,1.0238,3.49512,0.0203635,0.0797871,0.00098746,0.0798035,0.0203471,1.55419,0.0478834,0.0454229,762,1590,1.0238,-3.4951
-455,-566,1.08069,3.70911,0.0179171,0.0664773,0.00291776,0.066652,0.0177425,1.511,0.0398592,0.0473801,769,1590,1.08071,-3.7091
-448,-566,1.36096,3.89722,0,0,0,0,0,0,0,-1,776,1590,1.36095,-3.89725
-441,-566,1.24414,4.27576,0,0,0,0,0,0,0,-1,783,1590,1.24415,-4.27578
-434,-566,0.927979,4.42041,0,0,0,0,0,0,0,-1,790,1590,0.928004,-4.42044
-427,-566,1.01892,4.66675,0.00726775,0.0207339,0.00533925,0.022594,0.0054077,1.23557,0.0136227,0.0402556,797,1590,1.01894,-4.66677
-420,-566,1.09888,4.95349,0.00471022,0.011981,0.00483781,0.0143971,0.00229411,1.10761,0.00893209,0.0264137,804,1590,1.09888,-4.95346
-413,-566,1.17773,5.06494,0.00286755,0.00647668,0.00414214,0.00919028,0.000153949,0.990831,0.00607619,0.0116443,811,1590,1.17776,-5.06493
-406,-566,1.18506,5.22046,0.00192072,0.0032638,0.00298803,0.00565482,-0.000470307,0.895933,0.00393603,0.00831399,818,1590,1.18508,-5.22044
-399,-566,1.18256,5.37097,0.00141345,0.00148921,0.00224978,0.00370143,-0.000798763,0.793816,0.0027725,0.00941456,825,1590,1.18254,-5.37092
-392,-566,1.16455,5.51575,0.00106085,0.000105829,0.0014946,0.00215237,-0.000985689,0.630778,0.00185303,0.0115528,832,1590,1.16453,-5.5157
-385,-566,1.19269,5.69153,0.000920121,-0.000897066,0.000951188,0.00132694,-0.00130388,0.404148,0.00151892,0.0141243,839,1590,1.1927,-5.69148
-378,-566,1.1983,5.86951,0.00100333,-0.00147754,0.00080204,0.00124004,-0.00171424,0.286984,0.00171296,0.0147363,846,1590,1.19831,-5.86946
-371,-566,1.13232,5.99524,0.00100065,-0.00193149,0.000687355,0.00115378,-0.00208462,0.219206,0.00189526,0.0198308,853,1590,1.13234,-5.99528
-364,-566,1.14496,6.13403,0.00116952,-0.00188744,0.00100938,0.00147273,-0.00219066,0.291819,0.00212855,0.0209284,860,1590,1.14495,-6.13407
-357,-566,1.17352,6.27161,0.00143214,-0.00153482,0.00154262,0.00208884,-0.00219152,0.402469,0.00247151,0.018009,867,1590,1.17353,-6.27166
-350,-566,1.18939,6.43811,0.000921212,-0.000976924,0.00153783,0.00177925,-0.00183497,0.508931,0.00208675,0.0203961,874,1590,1.18938,-6.43817
-343,-566,1.19031,6.5354,0.00028535,-0.00140351,0.000414064,0.000381404,-0.00149957,0.227947,0.00114816,0.0241208,881,1590,1.19029,-6.53539
-336,-566,1.15417,6.70874,-0.000174773,-0.00198223,-0.0011754,0.000404159,-0.00256117,-0.457663,0.00185688,0.0228065,888,1590,1.15415,-6.70879
-329,-566,1.19958,6.85474,-0.00100573,-0.00327101,-0.00318133,0.00123857,-0.00551531,-0.614381,0.00415178,0.0131048,895,1590,1.19959,-6.85468
-322,-566,1.23267,7.00403,-0.00215806,-0.00479962,-0.00568713,0.00235964,-0.00931732,-0.671301,0.00712947,0.0139555,902,1590,1.23266,-7.00401
-315,-566,1.15643,7.13269,-0.00339684,-0.007136,-0.00894428,0.00387117,-0.014404,-0.682369,0.01112,0.0264011,909,1590,1.15641,-7.13272
-308,-566,1.11133,7.35571,-0.00422781,-0.0103281,-0.013043,0.00611697,-0.0206728,-0.670537,0.0162103,0.0339642,916,1590,1.11132,-7.35575
-301,-566,1.14362,7.56677,-0.00410031,-0.0146866,-0.0172996,0.00869783,-0.0274847,-0.636937,0.0218084,0.0406239,923,1590,1.14363,-7.56674
-294,-566,1.11853,7.76318,-0.00357489,-0.0196139,-0.021698,0.0115382,-0.0347269,-0.608386,0.0278071,0.045531,930,1590,1.11851,-7.76318
-287,-566,1.19208,7.93823,0,0,0,0,0,0,0,-1,937,1590,1.19208,-7.93823
-280,-566,0.874268,7.10583,0.00230003,-0.0304551,-0.0298276,0.0199506,-0.0481056,-0.534332,0.0403975,0.0467472,944,1590,0.874264,-7.10581
-273,-566,0.476318,7.1991,0,0,0,0,0,0,0,-1,951,1590,0.476323,-7.19913
-266,-566,0.392151,6.90295,0,0,0,0,0,0,0,-1,958,1590,0.392151,-6.90294
-259,-566,0.343628,6.47437,0,0,0,0,0,0,0,-1,965,1590,0.34363,-6.47438
-252,-566,-5.41388,1.76697,0,0,0,0,0,0,0,-1,972,1590,-5.4139,-1.76701
-245,-566,-1.85248,3.42993,0,0,0,0,0,0,0,-1,979,1590,-1.85251,-3.42997
-238,-566,-2.49677,3.25525,0,0,0,0,0,0,0,-1,986,1590,-2.49675,-3.25523
-231,-566,-2.95654,3.09192,0,0,0,0,0,0,0,-1,993,1590,-2.95653,-3.09193
-224,-566,-0.554321,4.6925,0,0,0,0,0,0,0,-1,1000,1590,-0.554325,-4.69255
-217,-566,0.155884,4.03638,0,0,0,0,0,0,0,-1,1007,1590,0.155904,-4.0364
-210,-566,0.722107,3.68506,0,0,0,0,0,0,0,-1,1014,1590,0.722101,-3.68512
-203,-566,0,0,0,0,0,0,0,0,0,-1,1021,1590,0,0
-196,-566,0,0,0,0,0,0,0,0,0,-1,1028,1590,0,0
-189,-566,0,0,0,0,0,0,0,0,0,-1,1035,1590,0,0
-182,-566,0,0,0,0,0,0,0,0,0,-1,1042,1590,0,0
-175,-566,0,0,0,0,0,0,0,0,0,-1,1049,1590,0,0
-168,-566,0,0,0,0,0,0,0,0,0,-1,1056,1590,0,0
-161,-566,0,0,0,0,0,0,0,0,0,-1,1063,1590,0,0
-154,-566,0,0,0,0,0,0,0,0,0,-1,1070,1590,0,0
-147,-566,0,0,0,0,0,0,0,0,0,-1,1077,1590,0,0
-140,-566,0,0,0,0,0,0,0,0,0,-1,1084,1590,0,0
-133,-566,0,0,0,0,0,0,0,0,0,-1,1091,1590,0,0
-126,-566,0,0,0,0,0,0,0,0,0,-1,1098,1590,0,0
-119,-566,0,0,0,0,0,0,0,0,0,-1,1105,1590,0,0
-112,-566,0,0,0,0,0,0,0,0,0,-1,1112,1590,0,0
-105,-566,0,0,0,0,0,0,0,0,0,-1,1119,1590,0,0
-98,-566,0,0,0,0,0,0,0,0,0,-1,1126,1590,0,0
-91,-566,0,0,0,0,0,0,0,0,0,-1,1133,1590,0,0
-84,-566,0,0,0,0,0,0,0,0,0,-1,1140,1590,0,0
-77,-566,0,0,0,0,0,0,0,0,0,-1,1147,1590,0,0
-70,-566,0,0,0,0,0,0,0,0,0,-1,1154,1590,0,0
-63,-566,0,0,0,0,0,0,0,0,0,-1,1161,1590,0,0
-56,-566,0,0,0,0,0,0,0,0,0,-1,1168,1590,0,0
-49,-566,0,0,0,0,0,0,0,0,0,-1,1175,1590,0,0
-42,-566,0,0,0,0,0,0,0,0,0,-1,1182,1590,0,0
-35,-566,0,0,0,0,0,0,0,0,0,-1,1189,1590,0,0
-28,-566,0,0,0,0,0,0,0,0,0,-1,1196,1590,0,0
-21,-566,0,0,0,0,0,0,0,0,0,-1,1203,1590,0,0
-14,-566,0,0,0,0,0,0,0,0,0,-1,1210,1590,0,0
-7,-566,0,0,0,0,0,0,0,0,0,-1,1217,1590,0,0
0,-566,0,0,0,0,0,0,0,0,0,-1,1224,1590,0,0
7,-566,0,0,0,0,0,0,0,0,0,-1,1231,1590,0,0
14,-566,0,0,0,0,0,0,0,0,0,-1,1238,1590,0,0
21,-566,0,0,0,0,0,0,0,0,0,-1,1245,1590,0,0
28,-566,0,0,0,0,0,0,0,0,0,-1,1252,1590,0,0
35,-566,0,0,0,0,0,0,0,0,0,-1,1259,1590,0,0
42,-566,0,0,0,0,0,0,0,0,0,-1,1266,1590,0,0
49,-566,0,0,0,0,0,0,0,0,0,-1,1273,1590,0,0
56,-566,0,0,0,0,0,0,0,0,0,-1,1280,1590,0,0
63,-566,0,0,0,0,0,0,0,0,0,-1,1287,1590,0,0
70,-566,0,0,0,0,0,0,0,0,0,-1,1294,1590,0,0
77,-566,0,0,0,0,0,0,0,0,0,-1,1301,1590,0,0
84,-566,0,0,0,0,0,0,0,0,0,-1,1308,1590,0,0
91,-566,0,0,0,0,0,0,0,0,0,-1,1315,1590,0,0
98,-566,0,0,0,0,0,0,0,0,0,-1,1322,1590,0,0
105,-566,0,0,0,0,0,0,0,0,0,-1,1329,1590,0,0
112,-566,0,0,0,0,0,0,0,0,0,-1,1336,1590,0,0
119,-566,0,0,0,0,0,0,0,0,0,-1,1343,1590,0,0
126,-566,0,0,0,0,0,0,0,0,0,-1,1350,1590,0,0
133,-566,0,0,0,0,0,0,0,0,0,-1,1357,1590,0,0
140,-566,0,0,0,0,0,0,0,0,0,-1,1364,1590,0,0
147,-566,0,0,0,0,0,0,0,0,0,-1,1371,1590,0,0
154,-566,0,0,0,0,0,0,0,0,0,-1,1378,1590,0,0
161,-566,0,0,0,0,0,0,0,0,0,-1,1385,1590,0,0
168,-566,0,0,0,0,0,0,0,0,0,-1,1392,1590,0,0
175,-566,0,0,0,0,0,0,0,0,0,-1,1399,1590,0,0
182,-566,0,0,0,0,0,0,0,0,0,-1,1406,1590,0,0
189,-566,0,0,0,0,0,0,0,0,0,-1,1413,1590,0,0
196,-566,0,0,0,0,0,0,0,0,0,-1,1420,1590,0,0
203,-566,0,0,0,0,0,0,0,0,0,-1,1427,1590,0,0
210,-566,0,0,0,0,0,0,0,0,0,-1,1434,1590,0,0
217,-566,0,0,0,0,0,0,0,0,0,-1,1441,1590,0,0
224,-566,0,0,0,0,0,0,0,0,0,-1,1448,1590,0,0
231,-566,0,0,0,0,0,0,0,0,0,-1,1455,1590,0,0
238,-566,0,0,0,0,0,0,0,0,0,-1,1462,1590,0,0
245,-566,0,0,0,0,0,0,0,0,0,-1,1469,1590,0,0
252,-566,0,0,0,0,0,0,0,0,0,-1,1476,1590,0,0
259,-566,0,0,0,0,0,0,0,0,0,-1,1483,1590,0,0
266,-566,0,0,0,0,0,0,0,0,0,-1,1490,1590,0,0
273,-566,0,0,0,0,0,0,0,0,0,-1,1497,1590,0,0
280,-566,0,0,0,0,0,0,0,0,0,-1,1504,1590,0,0
287,-566,0,0,0,0,0,0,0,0,0,-1,1511,1590,0,0
294,-566,0,0,0,0,0,0,0,0,0,-1,1518,1590,0,0
301,-566,0,0,0,0,0,0,0,0,0,-1,1525,1590,0,0
308,-566,0,0,0,0,0,0,0,0,0,-1,1532,1590,0,0
315,-566,0,0,0,0,0,0,0,0,0,-1,1539,1590,0,0
322,-566,4.51013,3.82666,0,0,0,0,0,0,0,-1,1546,1590,4.51009,-3.82667
329,-566,11.1523,8.87378,0,0,0,0,0,0,0,-1,1553,1590,11.1524,-8.87379
336,-566,11.9181,9.53345,0,0,0,0,0,0,0,-1,1560,1590,11.918,-9.53346
343,-566,2.61194,2.01282,0,0,0,0,0,0,0,-1,1567,1590,2.61195,-2.01279
350,-566,4.32666,2.5553,0,0,0,0,0,0,0,-1,1574,1590,4.32671,-2.55536
357,-566,6.34058,5.18579,0,0,0,0,0,0,0,-1,1581,1590,6.34059,-5.1858
364,-566,6.06262,4.20251,0,0,0,0,0,0,0,-1,1588,1590,6.06259,-4.20246
371,-566,5.78455,3.21912,0,0,0,0,0,0,0,-1,1595,1590,5.7846,-3.21912
378,-566,5.7439,0.695557,0,0,0,0,0,0,0,-1,1602,1590,5.74392,-0.695531
385,-566,5.67615,-0.573975,0,0,0,0,0,0,0,-1,1609,1590,5.67612,0.573956
392,-566,5.78638,1.82434,0,0,0,0,0,0,0,-1,1616,1590,5.78637,-1.82439
399,-566,5.36621,1.7373,0,0,0,0,0,0,0,-1,1623,1590,5.36627,-1.7373
406,-566,4.30359,5.26868,0,0,0,0,0,0,0,-1,1630,1590,4.30364,-5.26867
413,-566,4.27124,5.79492,0,0,0,0,0,0,0,-1,1637,1590,4.27123,-5.7949
420,-566,7.19812,8.25146,0,0,0,0,0,0,0,-1,1644,1590,7.19817,-8.25149
427,-566,7.64417,7.33008,0,0,0,0,0,0,0,-1,1651,1590,7.64419,-7.33005
434,-566,6.09265,7.8855,0,0,0,0,0,0,0,-1,1658,1590,6.09259,-7.88544
441,-566,6.11023,7.91113,-0.000886833,0.0111392,0.0294109,0.0351454,-0.0248931,0.886233,0.0348313,0.0446121,1665,1590,6.11023,-7.91112
448,-566,6.06091,7.8916,-0.00156985,0.00437016,0.0263424,0.0279095,-0.0251091,0.841534,0.0306245,0.0336542,1672,1590,6.06089,-7.89157
455,-566,5.99219,7.9176,-0.00206407,-0.00121246,0.0232133,0.0215789,-0.0248555,0.794569,0.0268311,0.0217666,1679,1590,5.99224,-7.91755
462,-566,5.97815,7.83154,-0.001987,-0.00526441,0.0202166,0.0166572,-0.0239086,0.744958,0.0235451,0.0136824,1686,1590,5.97814,-7.83153
469,-566,5.95764,7.7207,-0.00207033,-0.00782063,0.0172843,0.0125763,-0.0224673,0.702981,0.0204993,0.0115633,1693,1590,5.95761,-7.72074
476,-566,5.95898,7.59277,-0.00244623,-0.00930111,0.0143223,0.00885305,-0.0206004,0.667953,0.01745,0.00972953,1700,1590,5.95897,-7.59272
483,-566,5.97717,7.46265,-0.00221723,-0.00948452,0.0111659,0.00589139,-0.0175931,0.628091,0.0141087,0.00977502,1707,1590,5.97715,-7.4627
490,-566,5.96704,7.33606,-0.00159723,-0.00847699,0.00837081,0.00401293,-0.0140871,0.590448,0.0109764,0.00966156,1714,1590,5.96709,-7.33608
497,-566,5.9613,7.21838,-0.00091624,-0.00661945,0.00582034,0.00271351,-0.0102492,0.557615,0.00789432,0.0125322,1721,1590,5.96135,-7.21842
504,-566,5.98145,7.08789,-0.000353409,-0.00346318,0.0036212,0.00203261,-0.0058492,0.582609,0.00472506,0.018434,1728,1590,5.98142,-7.08783
511,-566,5.96204,6.93481,0.000179179,-0.000567694,0.00157651,0.00142588,-0.00181439,0.669104,0.00187525,0.0195507,1735,1590,5.96208,-6.93482
518,-566,5.9679,6.81177,0.000786002,0.00227934,-0.000397979,0.00237878,0.000686561,-1.32595,0.00141371,0.0117942,1742,1590,5.96788,-6.81178
525,-566,5.96155,6.66113,0.00143055,0.00482932,-0.00210873,0.00583819,0.000421682,-1.12456,0.00375946,0.011009,1749,1590,5.96153,-6.66114
532,-566,5.97302,6.53003,0.00198863,0.00693207,-0.00338265,0.00864983,0.000270871,-1.10092,0.00567842,0.0135573,1756,1590,5.97307,-6.52999
539,-566,5.99463,6.38098,0.00271757,0.00855922,-0.00451855,0.0110188,0.000258014,-1.07232,0.00726138,0.0161136,1763,1590,5.99458,-6.381
546,-566,6.02576,6.20117,0.00402483,0.0101494,-0.00595421,0.0137827,0.000391576,-1.02291,0.00906074,0.0167745,1770,1590,6.02576,-6.20113
553,-566,6.04163,6.12622,0.0056759,0.0117953,-0.00741719,0.0167591,0.000712116,-0.981023,0.0109431,0.0312812,1777,1590,6.04163,-6.12628
560,-566,5.88196,5.97266,0.00856253,0.0137515,-0.00958611,0.0210881,0.00122603,-0.917558,0.0136684,0.045078,1784,1590,5.88201,-5.97266
567,-566,5.88416,5.75977,0,0,0,0,0,0,0,-1,1791,1590,5.88411,-5.75975
574,-566,7.99548,3.14514,0,0,0,0,0,0,0,-1,1798,1590,7.99543,-3.14511
581,-566,2.54102,5.1311,0,0,0,0,0,0,0,-1,1805,1590,2.54099,-5.13111
588,-566,-1.91321,8.39197,0,0,0,0,0,0,0,-1,1812,1590,-1.91316,-8.39199
595,-566,4.9917,3.92407,0,0,0,0,0,0,0,-1,1819,1590,4.99173,-3.92401
602,-566,5.41614,0.198242,0,0,0,0,0,0,0,-1,1826,1590,5.41619,-0.198251
609,-566,0,0,0,0,0,0,0,0,0,-1,1833,1590,0,0
616,-566,0,0,0,0,0,0,0,0,0,-1,1840,1590,0,0
623,-566,0,0,0,0,0,0,0,0,0,-1,1847,1590,0,0
630,-566,0,0,0,0,0,0,0,0,0,-1,1854,1590,0,0
637,-566,0,0,0,0,0,0,0,0,0,-1,1861,1590,0,0
644,-566,0,0,0,0,0,0,0,0,0,-1,1868,1590,0,0
651,-566,0,0,0,0,0,0,0,0,0,-1,1875,1590,0,0
658,-566,0,0,0,0,0,0,0,0,0,-1,1882,1590,0,0
665,-566,0,0,0,0,0,0,0,0,0,-1,1889,1590,0,0
672,-566,0,0,0,0,0,0,0,0,0,-1,1896,1590,0,0
679,-566,0,0,0,0,0,0,0,0,0,-1,1903,1590,0,0
686,-566,0,0,0,0,0,0,0,0,0,-1,1910,1590,0,0
693,-566,0,0,0,0,0,0,0,0,0,-1,1917,1590,0,0
700,-566,0,0,0,0,0,0,0,0,0,-1,1924,1590,0,0
707,-566,0,0,0,0,0,0,0,0,0,-1,1931,1590,0,0
714,-566,0,0,0,0,0,0,0,0,0,-1,1938,1590,0,0
721,-566,0,0,0,0,0,0,0,0,0,-1,1945,1590,0,0
728,-566,0,0,0,0,0,0,0,0,0,-1,1952,1590,0,0
735,-566,0,0,0,0,0,0,0,0,0,-1,1959,1590,0,0
742,-566,0,0,0,0,0,0,0,0,0,-1,1966,1590,0,0
749,-566,0,0,0,0,0,0,0,0,0,-1,1973,1590,0,0
756,-566,0,0,0,0,0,0,0,0,0,-1,1980,1590,0,0
763,-566,0,0,0,0,0,0,0,0,0,-1,1987,1590,0,0
770,-566,0,0,0,0,0,0,0,0,0,-1,1994,1590,0,0
777,-566,0,0,0,0,0,0,0,0,0,-1,2001,1590,0,0
784,-566,0,0,0,0,0,0,0,0,0,-1,2008,1590,0,0
791,-566,0,0,0,0,0,0,0,0,0,-1,2015,1590,0,0
798,-566,0,0,0,0,0,0,0,0,0,-1,2022,1590,0,0
805,-566,0,0,0,0,0,0,0,0,0,-1,2029,1590,0,0
812,-566,0,0,0,0,0,0,0,0,0,-1,2036,1590,0,0
-700,-573,0,0,0,0,0,0,0,0,0,-1,524,1597,0,0
-693,-573,0,0,0,0,0,0,0,0,0,-1,531,1597,0,0
-686,-573,0,0,0,0,0,0,0,0,0,-1,538,1597,0,0
-679,-573,0,0,0,0,0,0,0,0,0,-1,545,1597,0,0
-672,-573,0,0,0,0,0,0,0,0,0,-1,552,1597,0,0
-665,-573,0,0,0,0,0,0,0,0,0,-1,559,1597,0,0
-658,-573,0,0,0,0,0,0,0,0,0,-1,566,1597,0,0
-651,-573,0,0,0,0,0,0,0,0,0,-1,573,1597,0,0
-644,-573,0,0,0,0,0,0,0,0,0,-1,580,1597,0,0
-637,-573,0,0,0,0,0,0,0,0,0,-1,587,1597,0,0
-630,-573,0,0,0,0,0,0,0,0,0,-1,594,1597,0,0
-623,-573,0,0,0,0,0,0,0,0,0,-1,601,1597,0,0
-616,-573,0,0,0,0,0,0,0,0,0,-1,608,1597,0,0
-609,-573,0,0,0,0,0,0,0,0,0,-1,615,1597,0,0
-602,-573,0,0,0,0,0,0,0,0,0,-1,622,1597,0,0
-595,-573,0,0,0,0,0,0,0,0,0,-1,629,1597,0,0
-588,-573,0,0,0,0,0,0,0,0,0,-1,636,1597,0,0
-581,-573,0,0,0,0,0,0,0,0,0,-1,643,1597,0,0
-574,-573,0,0,0,0,0,0,0,0,0,-1,650,1597,0,0
-567,-573,0,0,0,0,0,0,0,0,0,-1,657,1597,0,0
-560,-573,0,0,0,0,0,0,0,0,0,-1,664,1597,0,0
-553,-573,0,0,0,0,0,0,0,0,0,-1,671,1597,0,0
-546,-573,0,0,0,0,0,0,0,0,0,-1,678,1597,0,0
-539,-573,0,0,0,0,0,0,0,0,0,-1,685,1597,0,0
-532,-573,0,0,0,0,0,0,0,0,0,-1,692,1597,0,0
-525,-573,0,0,0,0,0,0,0,0,0,-1,699,1597,0,0
-518,-573,0,0,0,0,0,0,0,0,0,-1,706,1597,0,0
-511,-573,0,0,0,0,0,0,0,0,0,-1,713,1597,0,0
-504,-573,0,0,0,0,0,0,0,0,0,-1,720,1597,0,0
-497,-573,0,0,0,0,0,0,0,0,0,-1,727,1597,0,0
-490,-573,0,0,0,0,0,0,0,0,0,-1,734,1597,0,0
-483,-573,0,0,0,0,0,0,0,0,0,-1,741,1597,0,0
-476,-573,0.715027,2.47424,0.0295601,0.12566,-0.00243932,0.125722,0.0294982,-1.54543,0.0759167,0.0454444,748,1597,0.714997,-2.47427
-469,-573,0.902832,2.77588,0.0275175,0.108263,0.00105765,0.108277,0.0275036,1.5577,0.0649865,0.043976,755,1597,0.90281,-2.77582
-462,-573,1.05658,2.93591,0.0250996,0.0940554,0.0039552,0.0942815,0.0248735,1.51369,0.0564214,0.0480692,762,1597,1.05658,-2.93587
-455,-573,1.09076,3.27808,0,0,0,0,0,0,0,-1,769,1597,1.09075,-3.27807
-448,-573,1.34943,1.80408,0,0,0,0,0,0,0,-1,776,1597,1.34943,-1.80413
-441,-573,1.49323,3.78369,0,0,0,0,0,0,0,-1,783,1597,1.4932,-3.78372
-434,-573,0.542175,4.14734,0,0,0,0,0,0,0,-1,790,1597,0.542179,-4.14731
-427,-573,0.839111,4.43323,0.00913166,0.0255209,0.00722876,0.0282536,0.00639894,1.20937,0.0171065,0.0481611,797,1597,0.839106,-4.43326
-420,-573,1.22229,4.88208,0.00597853,0.014544,0.00634176,0.0179137,0.00260883,1.08238,0.0111748,0.0409903,804,1597,1.2223,-4.88203
-413,-573,1.36816,5.04126,0.00362036,0.00747489,0.0053433,0.0112279,-0.000132625,0.95848,0.00752984,0.0291793,811,1597,1.36817,-5.04127
-406,-573,1.35925,5.20105,0.00230938,0.00342263,0.00385761,0.00676357,-0.00103155,0.85705,0.0048893,0.014694,818,1597,1.35925,-5.20111
-399,-573,1.3479,5.38037,0.00151523,0.00136508,0.00285265,0.0042938,-0.00141349,0.772242,0.00343213,0.0102432,825,1597,1.3479,-5.38038
-392,-573,1.34857,5.53723,0.000934325,-6.61976e-05,0.00184367,0.0023444,-0.00147628,0.652918,0.00222477,0.0106819,832,1597,1.34857,-5.53722
-385,-573,1.34503,5.69531,0.000631962,-0.0010427,0.00107821,0.00115979,-0.00157053,0.455246,0.00158228,0.0128595,839,1597,1.34502,-5.69537
-378,-573,1.34808,5.84045,0.000582545,-0.00158711,0.000712754,0.000795743,-0.0018003,0.290648,0.00153578,0.0151695,846,1597,1.34807,-5.84048
-371,-573,1.33997,5.97949,0.000471132,-0.00196073,0.000437677,0.000547505,-0.0020371,0.172757,0.00157266,0.0161143,853,1597,1.33997,-5.97943
-364,-573,1.30103,6.12036,0.00057156,-0.00179386,0.000630898,0.00072931,-0.00195161,0.245018,0.00160056,0.0188403,860,1597,1.301,-6.12038
-357,-573,1.29309,6.2655,0.00079606,-0.00143437,0.000972675,0.00116064,-0.00179895,0.358617,0.00172192,0.022939,867,1597,1.29311,-6.26545
-350,-573,1.34912,6.42419,0.000498182,-0.000676438,0.000975983,0.00104994,-0.0012282,0.514541,0.00131662,0.0174322,874,1597,1.34911,-6.42422
-343,-573,1.34412,6.54785,9.66985e-05,-0.000651548,0.000105373,0.000111255,-0.000666104,0.13727,0.000485423,0.0198953,881,1597,1.34414,-6.54789
-336,-573,1.34515,6.72107,-0.000190166,-0.000833943,-0.00119374,0.000724326,-0.00174843,-0.653707,0.00146789,0.0163273,888,1597,1.34516,-6.72106
-329,-573,1.33728,6.88806,-0.000876931,-0.00166697,-0.00291376,0.00166846,-0.00421236,-0.718024,0.00349958,0.0170029,895,1597,1.33727,-6.88805
-322,-573,1.35913,7.02026,-0.00184811,-0.00274867,-0.00510712,0.00282854,-0.00742532,-0.741429,0.00611515,0.0122415,902,1597,1.3591,-7.02022
-315,-573,1.38794,7.17493,-0.0028829,-0.00464093,-0.00796466,0.00425111,-0.0117749,-0.730438,0.00958651,0.016278,909,1597,1.38796,-7.17487
-308,-573,1.38611,7.24146,-0.00347659,-0.00734239,-0.0116156,0.00636586,-0.0171848,-0.702951,0.0140671,0.0241144,916,1597,1.38612,-7.24151
-301,-573,1.40759,7.3418,-0.00310659,-0.0111321,-0.0152963,0.00869456,-0.0229333,-0.657121,0.0188671,0.0267503,923,1597,1.40761,-7.34185
-294,-573,1.43066,7.46692,-0.00244525,-0.0153764,-0.019058,0.011214,-0.0290357,-0.621861,0.0239855,0.0314921,930,1597,1.43065,-7.46696
-287,-573,1.59302,7.51855,-0.00038805,-0.0193205,-0.0227197,0.0147586,-0.0344672,-0.588008,0.0291699,0.0424162,937,1597,1.59302,-7.51851
-280,-573,1.68732,7.68372,0.00280403,-0.0242839,-0.0262378,0.0187874,-0.0402673,-0.547136,0.0348389,0.0476412,944,1597,1.6873,-7.68374
-273,-573,1.48828,7.78699,0,0,0,0,0,0,0,-1,951,1597,1.48826,-7.78694
-266,-573,1.31116,7.1814,0,0,0,0,0,0,0,-1,958,1597,1.31118,-7.18142
-259,-573,1.2514,6.70959,0,0,0,0,0,0,0,-1,965,1597,1.25137,-6.70965
-252,-573,1.2088,6.22607,0,0,0,0,0,0,0,-1,972,1597,1.20881,-6.2261
-245,-573,1.27161,4.14307,0,0,0,0,0,0,0,-1,979,1597,1.27162,-4.14309
-238,-573,3.11401,5.78491,0,0,0,0,0,0,0,-1,986,1597,3.11401,-5.78491
-231,-573,-0.49054,5.40637,0,0,0,0,0,0,0,-1,993,1597,-0.490523,-5.40641
-224,-573,0.160522,4.73511,0,0,0,0,0,0,0,-1,1000,1597,0.160551,-4.7351
-217,-573,0.79126,4.07227,0,0,0,0,0,0,0,-1,1007,1597,0.791254,-4.07224
-210,-573,1.43866,3.4397,0,0,0,0,0,0,0,-1,1014,1597,1.43869,-3.43971
-203,-573,-0.649231,4.36084,0,0,0,0,0,0,0,-1,1021,1597,-0.649217,-4.36081
-196,-573,-1.89539,6.12012,0,0,0,0,0,0,0,-1,1028,1597,-1.89541,-6.12017
-189,-573,-2.11987,3.57178,0,0,0,0,0,0,0,-1,1035,1597,-2.11987,-3.57176
-182,-573,0,0,0,0,0,0,0,0,0,-1,1042,1597,0,0
-175,-573,0,0,0,0,0,0,0,0,0,-1,1049,1597,0,0
-168,-573,0,0,0,0,0,0,0,0,0,-1,1056,1597,0,0
-161,-573,0,0,0,0,0,0,0,0,0,-1,1063,1597,0,0
-154,-573,0,0,0,0,0,0,0,0,0,-1,1070,1597,0,0
-147,-573,0,0,0,0,0,0,0,0,0,-1,1077,1597,0,0
-140,-573,0,0,0,0,0,0,0,0,0,-1,1084,1597,0,0
-133,-573,0,0,0,0,0,0,0,0,0,-1,1091,1597,0,0
-126,-573,0,0,0,0,0,0,0,0,0,-1,1098,1597,0,0
-119,-573,0,0,0,0,0,0,0,0,0,-1,1105,1597,0,0
-112,-573,0,0,0,0,0,0,0,0,0,-1,1112,1597,0,0
-105,-573,0,0,0,0,0,0,0,0,0,-1,1119,1597,0,0
-98,-573,0,0,0,0,0,0,0,0,0,-1,1126,1597,0,0
-91,-573,0,0,0,0,0,0,0,0,0,-1,1133,1597,0,0
-84,-573,0,0,0,0,0,0,0,0,0,-1,1140,1597,0,0
-77,-573,0,0,0,0,0,0,0,0,0,-1,1147,1597,0,0
-70,-573,0,0,0,0,0,0,0,0,0,-1,1154,1597,0,0
-63,-573,0,0,0,0,0,0,0,0,0,-1,1161,1597,0,0
-56,-573,0,0,0,0,0,0,0,0,0,-1,1168,1597,0,0
-49,-573,0,0,0,0,0,0,0,0,0,-1,1175,1597,0,0
-42,-573,0,0,0,0,0,0,0,0,0,-1,1182,1597,0,0
-35,-573,0,0,0,0,0,0,0,0,0,-1,1189,1597,0,0
-28,-573,0,0,0,0,0,0,0,0,0,-1,1196,1597,0,0
-21,-573,0,0,0,0,0,0,0,0,0,-1,1203,1597,0,0
-14,-573,0,0,0,0,0,0,0,0,0,-1,1210,1597,0,0
-7,-573,0,0,0,0,0,0,0,0,0,-1,1217,1597,0,0
0,-573,0,0,0,0,0,0,0,0,0,-1,1224,1597,0,0
7,-573,0,0,0,0,0,0,0,0,0,-1,1231,1597,0,0
14,-573,0,0,0,0,0,0,0,0,0,-1,1238,1597,0,0
21,-573,0,0,0,0,0,0,0,0,0,-1,1245,1597,0,0
28,-573,0,0,0,0,0,0,0,0,0,-1,1252,1597,0,0
35,-573,0,0,0,0,0,0,0,0,0,-1,1259,1597,0,0
42,-573,0,0,0,0,0,0,0,0,0,-1,1266,1597,0,0
49,-573,0,0,0,0,0,0,0,0,0,-1,1273,1597,0,0
56,-573,0,0,0,0,0,0,0,0,0,-1,1280,1597,0,0
63,-573,0,0,0,0,0,0,0,0,0,-1,1287,1597,0,0
70,-573,0,0,0,0,0,0,0,0,0,-1,1294,1597,0,0
77,-573,0,0,0,0,0,0,0,0,0,-1,1301,1597,0,0
84,-573,0,0,0,0,0,0,0,0,0,-1,1308,1597,0,0
91,-573,0,0,0,0,0,0,0,0,0,-1,1315,1597,0,0
98,-573,0,0,0,0,0,0,0,0,0,-1,1322,1597,0,0
105,-573,0,0,0,0,0,0,0,0,0,-1,1329,1597,0,0
112,-573,0,0,0,0,0,0,0,0,0,-1,1336,1597,0,0
119,-573,0,0,0,0,0,0,0,0,0,-1,1343,1597,0,0
126,-573,0,0,0,0,0,0,0,0,0,-1,1350,1597,0,0
133,-573,0,0,0,0,0,0,0,0,0,-1,1357,1597,0,0
140,-573,0,0,0,0,0,0,0,0,0,-1,1364,1597,0,0
147,-573,0,0,0,0,0,0,0,0,0,-1,1371,1597,0,0
154,-573,0,0,0,0,0,0,0,0,0,-1,1378,1597,0,0
161,-573,0,0,0,0,0,0,0,0,0,-1,1385,1597,0,0
168,-573,0,0,0,0,0,0,0,0,0,-1,1392,1597,0,0
175,-573,0,0,0,0,0,0,0,0,0,-1,1399,1597,0,0
182,-573,0,0,0,0,0,0,0,0,0,-1,1406,1597,0,0
189,-573,0,0,0,0,0,0,0,0,0,-1,1413,1597,0,0
196,-573,0,0,0,0,0,0,0,0,0,-1,1420,1597,0,0
203,-573,0,0,0,0,0,0,0,0,0,-1,1427,1597,0,0
210,-573,0,0,0,0,0,0,0,0,0,-1,1434,1597,0,0
217,-573,0,0,0,0,0,0,0,0,0,-1,1441,1597,0,0
224,-573,0,0,0,0,0,0,0,0,0,-1,1448,1597,0,0
231,-573,0,0,0,0,0,0,0,0,0,-1,1455,1597,0,0
238,-573,0,0,0,0,0,0,0,0,0,-1,1462,1597,0,0
245,-573,0,0,0,0,0,0,0,0,0,-1,1469,1597,0,0
252,-573,0,0,0,0,0,0,0,0,0,-1,1476,1597,0,0
259,-573,0,0,0,0,0,0,0,0,0,-1,1483,1597,0,0
266,-573,0,0,0,0,0,0,0,0,0,-1,1490,1597,0,0
273,-573,0,0,0,0,0,0,0,0,0,-1,1497,1597,0,0
280,-573,0,0,0,0,0,0,0,0,0,-1,1504,1597,0,0
287,-573,0,0,0,0,0,0,0,0,0,-1,1511,1597,0,0
294,-573,0,0,0,0,0,0,0,0,0,-1,1518,1597,0,0
301,-573,0,0,0,0,0,0,0,0,0,-1,1525,1597,0,0
308,-573,9.99329,6.14063,0,0,0,0,0,0,0,-1,1532,1597,9.99331,-6.14065
315,-573,10.5015,6.63318,0,0,0,0,0,0,0,-1,1539,1597,10.5014,-6.63316
322,-573,10.3269,7.77563,0,0,0,0,0,0,0,-1,1546,1597,10.327,-7.77565
329,-573,10.8032,8.85364,0,0,0,0,0,0,0,-1,1553,1597,10.8032,-8.85363
336,-573,11.3068,9.83105,0,0,0,0,0,0,0,-1,1560,1597,11.3067,-9.83105
343,-573,11.8665,10.9055,0,0,0,0,0,0,0,-1,1567,1597,11.8664,-10.9055
350,-573,2.53748,1.56433,0,0,0,0,0,0,0,-1,1574,1597,2.53753,-1.5643
357,-573,7.40247,4.03613,0,0,0,0,0,0,0,-1,1581,1597,7.40244,-4.03614
364,-573,7.14551,3.02087,0,0,0,0,0,0,0,-1,1588,1597,7.14556,-3.02084
371,-573,6.88867,2.00549,0,0,0,0,0,0,0,-1,1595,1597,6.88868,-2.00553
378,-573,5.49219,7.27686,0,0,0,0,0,0,0,-1,1602,1597,5.49217,-7.2768
385,-573,6.54346,-0.951904,0,0,0,0,0,0,0,-1,1609,1597,6.54349,0.951901
392,-573,6.41833,-2.18225,0,0,0,0,0,0,0,-1,1616,1597,6.41831,2.18228
399,-573,4.26282,4.73657,0,0,0,0,0,0,0,-1,1623,1597,4.26285,-4.73652
406,-573,6.4541,8.72241,0,0,0,0,0,0,0,-1,1630,1597,6.45412,-8.72245
413,-573,5.9436,8.58765,0,0,0,0,0,0,0,-1,1637,1597,5.94355,-8.58771
420,-573,5.94836,8.30286,0,0,0,0,0,0,0,-1,1644,1597,5.94835,-8.30281
427,-573,6.07813,8.10095,0,0,0,0,0,0,0,-1,1651,1597,6.07809,-8.10098
434,-573,5.92102,8.15454,-0.00391786,0.0119502,0.0258409,0.0310477,-0.0230153,0.934347,0.0313279,0.0399054,1658,1597,5.92104,-8.15452
441,-573,5.83569,8.1106,-0.00382626,0.00647138,0.0227399,0.0246381,-0.0219929,0.896732,0.0269368,0.0270041,1665,1597,5.83569,-8.11056
448,-573,5.82727,8.09546,-0.0036556,0.00187932,0.0196573,0.018963,-0.0207393,0.855331,0.0229298,0.0170197,1672,1597,5.82729,-8.09542
455,-573,5.8396,7.96887,-0.00342913,-0.00184292,0.0166906,0.0140735,-0.0193455,0.809139,0.0193743,0.0146503,1679,1597,5.83961,-7.96887
462,-573,5.83362,7.82874,-0.00278665,-0.00448782,0.0140046,0.0103932,-0.0176677,0.755067,0.0163814,0.0174223,1686,1597,5.83362,-7.82877
469,-573,5.83691,7.68823,-0.0024561,-0.00598778,0.0115393,0.00745167,-0.0158955,0.709473,0.0137702,0.0146656,1693,1597,5.83691,-7.68822
476,-573,5.85632,7.5575,-0.00248134,-0.00671428,0.00914321,0.00478716,-0.0139828,0.671661,0.011262,0.0141259,1700,1597,5.85634,-7.55744
483,-573,5.85339,7.45435,-0.00208354,-0.00648804,0.00673937,0.00280428,-0.0113759,0.627481,0.00867115,0.011032,1707,1597,5.85341,-7.4544
490,-573,5.83679,7.34607,-0.00128101,-0.00503162,0.00444384,0.00166701,-0.00797965,0.585734,0.00595374,0.00954282,1714,1597,5.83681,-7.3461
497,-573,5.83813,7.23682,-0.000516197,-0.00313072,0.00247462,0.000975232,-0.00462214,0.542396,0.00345273,0.0147565,1721,1597,5.83815,-7.23679
504,-573,5.85315,7.05725,2.44346e-05,-0.000240487,0.000849837,0.000752072,-0.000968124,0.708087,0.000995763,0.0172627,1728,1597,5.85312,-7.05729
511,-573,5.854,6.88806,0.000570187,0.00252667,-0.000741802,0.00277612,0.000320737,-1.2464,0.00175364,0.0183787,1735,1597,5.85404,-6.88801
518,-573,5.84827,6.77649,0.00123273,0.00536074,-0.0023708,0.00644011,0.000153359,-1.14356,0.00424321,0.0139662,1742,1597,5.8483,-6.77652
525,-573,5.85217,6.66931,0.00192006,0.00806881,-0.00388889,0.00995178,3.70909e-05,-1.11988,0.00662219,0.0161747,1749,1597,5.85221,-6.66934
532,-573,5.86389,6.53088,0.00262407,0.0105393,-0.00522242,0.0131342,2.90885e-05,-1.10964,0.00874648,0.0155367,1756,1597,5.86394,-6.53094
539,-573,5.85925,6.39563,0.00359125,0.0128236,-0.00660232,0.0162635,0.000151401,-1.09048,0.0107922,0.0178313,1763,1597,5.85927,-6.39559
546,-573,5.8811,6.21326,0.00521586,0.0152956,-0.00850768,0.0201441,0.000367304,-1.0528,0.0133087,0.0272672,1770,1597,5.88108,-6.21321
553,-573,5.72485,5.89551,0.00722779,0.0181027,-0.0106303,0.0246055,0.000725035,-1.0218,0.0161674,0.0439688,1777,1597,5.72484,-5.8955
560,-573,5.75293,5.62952,0,0,0,0,0,0,0,-1,1784,1597,5.75298,-5.62952
567,-573,4.99597,2.77759,0,0,0,0,0,0,0,-1,1791,1597,4.99596,-2.7776
574,-573,0.83374,5.7041,0,0,0,0,0,0,0,-1,1798,1597,0.833718,-5.70405
581,-573,-0.224854,7.41602,0,0,0,0,0,0,0,-1,1805,1597,-0.224904,-7.41596
588,-573,-0.134033,7.67065,0,0,0,0,0,0,0,-1,1812,1597,-0.134037,-7.67063
595,-573,-0.0825195,8.35083,0,0,0,0,0,0,0,-1,1819,1597,-0.0824684,-8.35088
602,-573,0,0,0,0,0,0,0,0,0,-1,1826,1597,0,0
609,-573,0,0,0,0,0,0,0,0,0,-1,1833,1597,0,0
616,-573,0,0,0,0,0,0,0,0,0,-1,1840,1597,0,0
623,-573,0,0,0,0,0,0,0,0,0,-1,1847,1597,0,0
630,-573,0,0,0,0,0,0,0,0,0,-1,1854,1597,0,0
637,-573,0,0,0,0,0,0,0,0,0,-1,1861,1597,0,0
644,-573,0,0,0,0,0,0,0,0,0,-1,1868,1597,0,0
651,-573,0,0,0,0,0,0,0,0,0,-1,1875,1597,0,0
658,-573,0,0,0,0,0,0,0,0,0,-1,1882,1597,0,0
665,-573,0,0,0,0,0,0,0,0,0,-1,1889,1597,0,0
672,-573,0,0,0,0,0,0,0,0,0,-1,1896,1597,0,0
679,-573,0,0,0,0,0,0,0,0,0,-1,1903,1597,0,0
686,-573,0,0,0,0,0,0,0,0,0,-1,1910,1597,0,0
693,-573,0,0,0,0,0,0,0,0,0,-1,1917,1597,0,0
700,-573,0,0,0,0,0,0,0,0,0,-1,1924,1597,0,0
707,-573,0,0,0,0,0,0,0,0,0,-1,1931,1597,0,0
714,-573,0,0,0,0,0,0,0,0,0,-1,1938,1597,0,0
721,-573,0,0,0,0,0,0,0,0,0,-1,1945,1597,0,0
728,-573,0,0,0,0,0,0,0,0,0,-1,1952,1597,0,0
735,-573,0,0,0,0,0,0,0,0,0,-1,1959,1597,0,0
742,-573,0,0,0,0,0,0,0,0,0,-1,1966,1597,0,0
749,-573,0,0,0,0,0,0,0,0,0,-1,1973,1597,0,0
756,-573,0,0,0,0,0,0,0,0,0,-1,1980,1597,0,0
763,-573,0,0,0,0,0,0,0,0,0,-1,1987,1597,0,0
770,-573,0,0,0,0,0,0,0,0,0,-1,1994,1597,0,0
777,-573,0,0,0,0,0,0,0,0,0,-1,2001,1597,0,0
784,-573,0,0,0,0,0,0,0,0,0,-1,2008,1597,0,0
791,-573,0,0,0,0,0,0,0,0,0,-1,2015,1597,0,0
798,-573,0,0,0,0,0,0,0,0,0,-1,2022,1597,0,0
805,-573,0,0,0,0,0,0,0,0,0,-1,2029,1597,0,0
812,-573,0,0,0,0,0,0,0,0,0,-1,2036,1597,0,0
-700,-580,0,0,0,0,0,0,0,0,0,-1,524,1604,0,0
-693,-580,0,0,0,0,0,0,0,0,0,-1,531,1604,0,0
-686,-580,0,0,0,0,0,0,0,0,0,-1,538,1604,0,0
-679,-580,0,0,0,0,0,0,0,0,0,-1,545,1604,0,0
-672,-580,0,0,0,0,0,0,0,0,0,-1,552,1604,0,0
-665,-580,0,0,0,0,0,0,0,0,0,-1,559,1604,0,0
-658,-580,0,0,0,0,0,0,0,0,0,-1,566,1604,0,0
-651,-580,0,0,0,0,0,0,0,0,0,-1,573,1604,0,0
-644,-580,0,0,0,0,0,0,0,0,0,-1,580,1604,0,0
-637,-580,0,0,0,0,0,0,0,0,0,-1,587,1604,0,0
-630,-580,0,0,0,0,0,0,0,0,0,-1,594,1604,0,0
-623,-580,0,0,0,0,0,0,0,0,0,-1,601,1604,0,0
-616,-580,0,0,0,0,0,0,0,0,0,-1,608,1604,0,0
-609,-580,0,0,0,0,0,0,0,0,0,-1,615,1604,0,0
-602,-580,0,0,0,0,0,0,0,0,0,-1,622,1604,0,0
-595,-580,0,0,0,0,0,0,0,0,0,-1,629,1604,0,0
-588,-580,0,0,0,0,0,0,0,0,0,-1,636,1604,0,0
-581,-580,0,0,0,0,0,0,0,0,0,-1,643,1604,0,0
-574,-580,0,0,0,0,0,0,0,0,0,-1,650,1604,0,0
-567,-580,0,0,0,0,0,0,0,0,0,-1,657,1604,0,0
-560,-580,0,0,0,0,0,0,0,0,0,-1,664,1604,0,0
-553,-580,0,0,0,0,0,0,0,0,0,-1,671,1604,0,0
-546,-580,0,0,0,0,0,0,0,0,0,-1,678,1604,0,0
-539,-580,0,0,0,0,0,0,0,0,0,-1,685,1604,0,0
-532,-580,0,0,0,0,0,0,0,0,0,-1,692,1604,0,0
-525,-580,0,0,0,0,0,0,0,0,0,-1,699,1604,0,0
-518,-580,0,0,0,0,0,0,0,0,0,-1,706,1604,0,0
-511,-580,0,0,0,0,0,0,0,0,0,-1,713,1604,0,0
-504,-580,0,0,0,0,0,0,0,0,0,-1,720,1604,0,0
-497,-580,0,0,0,0,0,0,0,0,0,-1,727,1604,0,0
-490,-580,0,0,0,0,0,0,0,0,0,-1,734,1604,0,0
-483,-580,0,0,0,0,0,0,0,0,0,-1,741,1604,0,0
-476,-580,0,0,0,0,0,0,0,0,0,-1,748,1604,0,0
-469,-580,0.724915,1.98462,0,0,0,0,0,0,0,-1,755,1604,0.724943,-1.98464
-462,-580,1.11407,2.35034,0,0,0,0,0,0,0,-1,762,1604,1.11408,-2.35038
-455,-580,-0.526428,0.741821,0,0,0,0,0,0,0,-1,769,1604,-0.526408,-0.741874
-448,-580,-0.957214,3.25195,0,0,0,0,0,0,0,-1,776,1604,-0.957227,-3.25199
-441,-580,0.192444,3.79419,0,0,0,0,0,0,0,-1,783,1604,0.192432,-3.79415
-434,-580,1.30188,4.32104,0,0,0,0,0,0,0,-1,790,1604,1.30186,-4.32111
-427,-580,0.661499,4.21252,0,0,0,0,0,0,0,-1,797,1604,0.661498,-4.21257
-420,-580,1.39154,4.78479,0,0,0,0,0,0,0,-1,804,1604,1.39151,-4.78475
-413,-580,1.5213,4.56409,0.0043853,0.00808238,0.00663528,0.0131218,-0.000654126,0.92125,0.00897386,0.0459817,811,1604,1.5213,-4.56414
-406,-580,1.54547,5.229,0.00272353,0.00288808,0.00473879,0.0075453,-0.0019337,0.794079,0.00578354,0.0357702,818,1604,1.54548,-5.22905
-399,-580,1.52661,5.38501,0.00168805,0.000400447,0.00337465,0.00447976,-0.00239126,0.691142,0.00402761,0.0148305,825,1604,1.52661,-5.38502
-392,-580,1.50854,5.54529,0.000915654,-0.00110233,0.00205692,0.00219773,-0.0023844,0.557374,0.00264622,0.0105982,832,1604,1.50855,-5.54531
-385,-580,1.50458,5.69824,0.000484567,-0.00203447,0.00105267,0.00086654,-0.00241644,0.348087,0.00196458,0.0107861,839,1604,1.50459,-5.69826
-378,-580,1.48962,5.84521,0.000330984,-0.00249675,0.000485509,0.000412021,-0.00257779,0.165387,0.00187105,0.0144563,846,1604,1.48964,-5.84523
-371,-580,1.48523,6.00732,0.000144102,-0.0027369,8.40497e-05,0.000146552,-0.00273935,0.0291407,0.00187699,0.0139406,853,1604,1.48526,-6.00735
-364,-580,1.46582,6.1626,0.000203344,-0.00239357,0.000192196,0.000217491,-0.00240772,0.0734758,0.00168234,0.0185703,860,1604,1.46583,-6.16258
-357,-580,1.46411,6.2832,0.000401781,-0.00197171,0.000424659,0.000475472,-0.0020454,0.171819,0.00154665,0.0135671,867,1604,1.4641,-6.28321
-350,-580,1.48859,6.42822,0.000281754,-0.00102067,0.000509044,0.000457103,-0.00119602,0.331737,0.000985699,0.010689,874,1604,1.48859,-6.42817
-343,-580,1.50397,6.56287,3.58254e-05,-0.000567651,-3.40131e-05,3.77364e-05,-0.000569562,-0.056125,0.000392891,0.0103281,881,1604,1.50394,-6.56291
-336,-580,1.5105,6.69897,-0.000144538,-0.000332303,-0.000951672,0.000717871,-0.00119471,-0.736232,0.00111561,0.0175458,888,1604,1.51047,-6.69895
-329,-580,1.49402,6.85706,-0.000752096,-0.000640698,-0.00227437,0.00157866,-0.00297145,-0.797641,0.00266771,0.0168712,895,1604,1.49402,-6.85711
-322,-580,1.48425,7.01917,-0.00163172,-0.00119733,-0.00400735,0.00259871,-0.00542775,-0.812471,0.00472906,0.0189094,902,1604,1.48423,-7.01915
-315,-580,1.48987,7.1377,-0.00256639,-0.0025442,-0.00631454,0.00375926,-0.00886985,-0.786277,0.00748777,0.0154861,909,1604,1.48986,-7.13767
-308,-580,1.50262,7.31592,-0.00306335,-0.00463363,-0.00938634,0.00557063,-0.0132676,-0.743672,0.0111748,0.015863,916,1604,1.5026,-7.31592
-301,-580,1.54541,7.39954,-0.00262261,-0.00776227,-0.012423,0.00749355,-0.0178784,-0.683406,0.015052,0.0135105,923,1604,1.54543,-7.39954
-294,-580,1.58026,7.44067,-0.00199025,-0.0112131,-0.0155224,0.00959128,-0.0227946,-0.64101,0.019209,0.017506,930,1604,1.58027,-7.44064
-287,-580,1.71411,7.50427,-0.000176265,-0.0141733,-0.0186218,0.0127187,-0.0270683,-0.605651,0.0234637,0.0365577,937,1604,1.71412,-7.50431
-280,-580,1.76819,7.65552,0.00246269,-0.0181637,-0.0217496,0.0162203,-0.0319214,-0.564009,0.0282831,0.045945,944,1604,1.76819,-7.65557
-273,-580,1.78394,7.75208,0,0,0,0,0,0,0,-1,951,1604,1.78393,-7.75204
-266,-580,0.556946,7.13635,0,0,0,0,0,0,0,-1,958,1604,0.55693,-7.13631
-259,-580,-0.345093,7.0177,0,0,0,0,0,0,0,-1,965,1604,-0.345085,-7.01764
-252,-580,2.03021,6.2124,0,0,0,0,0,0,0,-1,972,1604,2.03018,-6.21246
-245,-580,1.53613,5.22131,0,0,0,0,0,0,0,-1,979,1604,1.53611,-5.22132
-238,-580,0.99707,5.7821,0,0,0,0,0,0,0,-1,986,1604,0.997088,-5.78214
-231,-580,0.257324,5.49207,0,0,0,0,0,0,0,-1,993,1604,0.257308,-5.49207
-224,-580,0.918091,4.76208,0,0,0,0,0,0,0,-1,1000,1604,0.918103,-4.76213
-217,-580,1.55963,4.01013,0,0,0,0,0,0,0,-1,1007,1604,1.55966,-4.01013
-210,-580,2.24384,3.29724,0,0,0,0,0,0,0,-1,1014,1604,2.24386,-3.29723
-203,-580,-0.534668,4.14832,0,0,0,0,0,0,0,-1,1021,1604,-0.534685,-4.14826
-196,-580,-0.778687,4.67432,0,0,0,0,0,0,0,-1,1028,1604,-0.778679,-4.67434
-189,-580,-2.00122,4.41125,0,0,0,0,0,0,0,-1,1035,1604,-2.00127,-4.41123
-182,-580,-2.39868,4.69312,0,0,0,0,0,0,0,-1,1042,1604,-2.39869,-4.69314
-175,-580,5.3407,4.08362,0,0,0,0,0,0,0,-1,1049,1604,5.34067,-4.08361
-168,-580,0,0,0,0,0,0,0,0,0,-1,1056,1604,0,0
-161,-580,0,0,0,0,0,0,0,0,0,-1,1063,1604,0,0
-154,-580,0,0,0,0,0,0,0,0,0,-1,1070,1604,0,0
-147,-580,0,0,0,0,0,0,0,0,0,-1,1077,1604,0,0
-140,-580,0,0,0,0,0,0,0,0,0,-1,1084,1604,0,0
-133,-580,0,0,0,0,0,0,0,0,0,-1,1091,1604,0,0
-126,-580,0,0,0,0,0,0,0,0,0,-1,1098,1604,0,0
-119,-580,0,0,0,0,0,0,0,0,0,-1,1105,1604,0,0
-112,-580,0,0,0,0,0,0,0,0,0,-1,1112,1604,0,0
-105,-580,0,0,0,0,0,0,0,0,0,-1,1119,1604,0,0
-98,-580,0,0,0,0,0,0,0,0,0,-1,1126,1604,0,0
-91,-580,0,0,0,0,0,0,0,0,0,-1,1133,1604,0,0
-84,-580,0,0,0,0,0,0,0,0,0,-1,1140,1604,0,0
-77,-580,0,0,0,0,0,0,0,0,0,-1,1147,1604,0,0
-70,-580,0,0,0,0,0,0,0,0,0,-1,1154,1604,0,0
-63,-580,0,0,0,0,0,0,0,0,0,-1,1161,1604,0,0
-56,-580,0,0,0,0,0,0,0,0,0,-1,1168,1604,0,0
-49,-580,0,0,0,0,0,0,0,0,0,-1,1175,1604,0,0
-42,-580,0,0,0,0,0,0,0,0,0,-1,1182,1604,0,0
-35,-580,0,0,0,0,0,0,0,0,0,-1,1189,1604,0,0
-28,-580,0,0,0,0,0,0,0,0,0,-1,1196,1604,0,0
-21,-580,0,0,0,0,0,0,0,0,0,-1,1203,1604,0,0
-14,-580,0,0,0,0,0,0,0,0,0,-1,1210,1604,0,0
-7,-580,0,0,0,0,0,0,0,0,0,-1,1217,1604,0,0
0,-580,0,0,0,0,0,0,0,0,0,-1,1224,1604,0,0
7,-580,0,0,0,0,0,0,0,0,0,-1,1231,1604,0,0
14,-580,0,0,0,0,0,0,0,0,0,-1,1238,1604,0,0
21,-580,0,0,0,0,0,0,0,0,0,-1,1245,1604,0,0
28,-580,0,0,0,0,0,0,0,0,0,-1,1252,1604,0,0
35,-580,0,0,0,0,0,0,0,0,0,-1,1259,1604,0,0
42,-580,0,0,0,0,0,0,0,0,0,-1,1266,1604,0,0
49,-580,0,0,0,0,0,0,0,0,0,-1,1273,1604,0,0
56,-580,0,0,0,0,0,0,0,0,0,-1,1280,1604,0,0
63,-580,0,0,0,0,0,0,0,0,0,-1,1287,1604,0,0
70,-580,0,0,0,0,0,0,0,0,0,-1,1294,1604,0,0
77,-580,0,0,0,0,0,0,0,0,0,-1,1301,1604,0,0
84,-580,0,0,0,0,0,0,0,0,0,-1,1308,1604,0,0
91,-580,0,0,0,0,0,0,0,0,0,-1,1315,1604,0,0
98,-580,0,0,0,0,0,0,0,0,0,-1,1322,1604,0,0
105,-580,0,0,0,0,0,0,0,0,0,-1,1329,1604,0,0
112,-580,0,0,0,0,0,0,0,0,0,-1,1336,1604,0,0
119,-580,0,0,0,0,0,0,0,0,0,-1,1343,1604,0,0
126,-580,0,0,0,0,0,0,0,0,0,-1,1350,1604,0,0
133,-580,0,0,0,0,0,0,0,0,0,-1,1357,1604,0,0
140,-580,0,0,0,0,0,0,0,0,0,-1,1364,1604,0,0
147,-580,0,0,0,0,0,0,0,0,0,-1,1371,1604,0,0
154,-580,0,0,0,0,0,0,0,0,0,-1,1378,1604,0,0
161,-580,0,0,0,0,0,0,0,0,0,-1,1385,1604,0,0
168,-580,0,0,0,0,0,0,0,0,0,-1,1392,1604,0,0
175,-580,0,0,0,0,0,0,0,0,0,-1,1399,1604,0,0
182,-580,0,0,0,0,0,0,0,0,0,-1,1406,1604,0,0
189,-580,0,0,0,0,0,0,0,0,0,-1,1413,1604,0,0
196,-580,0,0,0,0,0,0,0,0,0,-1,1420,1604,0,0
203,-580,0,0,0,0,0,0,0,0,0,-1,1427,1604,0,0
210,-580,0,0,0,0,0,0,0,0,0,-1,1434,1604,0,0
217,-580,0,0,0,0,0,0,0,0,0,-1,1441,1604,0,0
224,-580,0,0,0,0,0,0,0,0,0,-1,1448,1604,0,0
231,-580,0,0,0,0,0,0,0,0,0,-1,1455,1604,0,0
238,-580,0,0,0,0,0,0,0,0,0,-1,1462,1604,0,0
245,-580,0,0,0,0,0,0,0,0,0,-1,1469,1604,0,0
252,-580,0,0,0,0,0,0,0,0,0,-1,1476,1604,0,0
259,-580,0,0,0,0,0,0,0,0,0,-1,1483,1604,0,0
266,-580,0,0,0,0,0,0,0,0,0,-1,1490,1604,0,0
273,-580,0,0,0,0,0,0,0,0,0,-1,1497,1604,0,0
280,-580,0,0,0,0,0,0,0,0,0,-1,1504,1604,0,0
287,-580,0,0,0,0,0,0,0,0,0,-1,1511,1604,0,0
294,-580,5.51282,1.73914,0,0,0,0,0,0,0,-1,1518,1604,5.51287,-1.73914
301,-580,5.53796,3.15222,0,0,0,0,0,0,0,-1,1525,1604,5.538,-3.15223
308,-580,5.5979,4.69128,0,0,0,0,0,0,0,-1,1532,1604,5.59784,-4.69123
315,-580,10.5341,6.62097,0,0,0,0,0,0,0,-1,1539,1604,10.5341,-6.62096
322,-580,10.2366,7.50281,0,0,0,0,0,0,0,-1,1546,1604,10.2366,-7.50282
329,-580,10.5962,8.69641,0,0,0,0,0,0,0,-1,1553,1604,10.5962,-8.69642
336,-580,10.9558,9.89001,0,0,0,0,0,0,0,-1,1560,1604,10.9558,-9.89003
343,-580,3.32227,1.39636,0,0,0,0,0,0,0,-1,1567,1604,3.32222,-1.39633
350,-580,8.71277,4.0564,0,0,0,0,0,0,0,-1,1574,1604,8.71271,-4.05638
357,-580,8.52332,3.08154,0,0,0,0,0,0,0,-1,1581,1604,8.52332,-3.08157
364,-580,8.25818,2.07605,0,0,0,0,0,0,0,-1,1588,1604,8.25812,-2.07608
371,-580,4.62683,7.12463,0,0,0,0,0,0,0,-1,1595,1604,4.6268,-7.12468
378,-580,5.3988,7.32397,0,0,0,0,0,0,0,-1,1602,1604,5.39886,-7.32403
385,-580,6.1709,7.52344,0,0,0,0,0,0,0,-1,1609,1604,6.17091,-7.52339
392,-580,6.5498,-2.15625,0,0,0,0,0,0,0,-1,1616,1604,6.54984,2.15626
399,-580,6.59998,8.88428,0,0,0,0,0,0,0,-1,1623,1604,6.60003,-8.88433
406,-580,6.21045,8.70508,-0.0048777,0.0193741,0.0249886,0.0350235,-0.0205271,1.01129,0.0324341,0.0470734,1630,1604,6.2105,-8.70504
413,-580,5.67554,8.55225,-0.00442739,0.0167777,0.0232799,0.0317558,-0.0194054,0.999082,0.0298234,0.0452444,1637,1604,5.67559,-8.55229
420,-580,5.74194,8.37683,-0.00419455,0.0136339,0.0214654,0.0279624,-0.0185231,0.982205,0.0270222,0.0430784,1644,1604,5.74195,-8.37688
427,-580,5.95337,8.38965,0,0,0,0,0,0,0,-1,1651,1604,5.95342,-8.38962
434,-580,5.8197,8.21277,-0.00353811,0.00666103,0.017256,0.0195553,-0.0164323,0.929071,0.0208035,0.0235795,1658,1604,5.81971,-8.21278
441,-580,5.69287,8.17444,-0.00314154,0.00348176,0.014903,0.0154366,-0.0150964,0.894729,0.0176286,0.0116371,1665,1604,5.69287,-8.17445
448,-580,5.6864,8.08008,-0.00277766,0.000879245,0.0126115,0.0117941,-0.0136926,0.857388,0.0147284,0.0110861,1672,1604,5.68634,-8.08009
455,-580,5.7323,7.96155,-0.00246551,-0.00123928,0.010443,0.00860859,-0.0123134,0.81472,0.0121423,0.0175432,1679,1604,5.73231,-7.96159
462,-580,5.70276,7.83044,-0.00186332,-0.00272769,0.00850775,0.00622321,-0.0108142,0.76002,0.0099549,0.0207649,1686,1604,5.70271,-7.83045
469,-580,5.68909,7.67407,-0.00164985,-0.00342114,0.00679726,0.00431921,-0.00939021,0.720616,0.00809362,0.0184362,1693,1604,5.68906,-7.67413
476,-580,5.72412,7.53088,-0.0017618,-0.00363353,0.00513824,0.0025251,-0.00792044,0.695317,0.00629318,0.0147591,1700,1604,5.72409,-7.5309
483,-580,5.71545,7.43762,-0.00157808,-0.00321653,0.00353748,0.00123379,-0.0060284,0.671611,0.0044871,0.0122156,1707,1604,5.71545,-7.43757
490,-580,5.69873,7.3479,-0.000944533,-0.00148368,0.00176028,0.000566691,-0.0029949,0.709417,0.00220985,0.013849,1714,1604,5.69875,-7.34791
497,-580,5.68921,7.22803,-0.000334296,0.000370613,0.000289779,0.000474443,-0.000438127,1.22674,0.000527012,0.0114408,1721,1604,5.68924,-7.22807
504,-580,5.70361,7.06641,0.000101521,0.00302127,-0.000982356,0.00332102,-0.000198222,-1.27464,0.00228295,0.0167499,1728,1604,5.70359,-7.0664
511,-580,5.72961,6.89844,0.000627133,0.00573603,-0.00234624,0.00665002,-0.000286852,-1.19933,0.00453199,0.016767,1735,1604,5.72957,-6.89846
518,-580,5.73401,6.78223,0.00136806,0.00870234,-0.00391303,0.010398,-0.00032761,-1.16188,0.00704375,0.0151127,1742,1604,5.73407,-6.78225
525,-580,5.73462,6.66553,0.00222857,0.0118422,-0.00556854,0.0143916,-0.000320856,-1.14145,0.00970311,0.0164784,1749,1604,5.73457,-6.66559
532,-580,5.74231,6.5354,0.00328265,0.015092,-0.00734142,0.0186086,-0.000234029,-1.12407,0.0124845,0.018912,1756,1604,5.74231,-6.53536
539,-580,5.76221,6.43909,0.00472437,0.0186537,-0.00938651,0.0233772,8.69855e-07,-1.10457,0.0155845,0.0247299,1763,1604,5.76221,-6.43903
546,-580,5.93518,6.24451,0.00688284,0.0227253,-0.0122251,0.0293711,0.000237056,-1.07286,0.0195022,0.0405299,1770,1604,5.93514,-6.24456
553,-580,5.33228,5.65002,0,0,0,0,0,0,0,-1,1777,1604,5.33228,-5.65003
560,-580,6.14734,5.29004,0,0,0,0,0,0,0,-1,1784,1604,6.14733,-5.2901
567,-580,2.20801,6.05261,0,0,0,0,0,0,0,-1,1791,1604,2.20799,-6.0526
574,-580,1.93652,6.33667,0,0,0,0,0,0,0,-1,1798,1604,1.93653,-6.33667
581,-580,1.60876,6.67664,0,0,0,0,0,0,0,-1,1805,1604,1.60873,-6.67667
588,-580,1.38684,7.14441,0,0,0,0,0,0,0,-1,1812,1604,1.38689,-7.14443
595,-580,0,0,0,0,0,0,0,0,0,-1,1819,1604,0,0
602,-580,0,0,0,0,0,0,0,0,0,-1,1826,1604,0,0
609,-580,0,0,0,0,0,0,0,0,0,-1,1833,1604,0,0
616,-580,0,0,0,0,0,0,0,0,0,-1,1840,1604,0,0
623,-580,0,0,0,0,0,0,0,0,0,-1,1847,1604,0,0
630,-580,0,0,0,0,0,0,0,0,0,-1,1854,1604,0,0
637,-580,0,0,0,0,0,0,0,0,0,-1,1861,1604,0,0
644,-580,0,0,0,0,0,0,0,0,0,-1,1868,1604,0,0
651,-580,0,0,0,0,0,0,0,0,0,-1,1875,1604,0,0
658,-580,0,0,0,0,0,0,0,0,0,-1,1882,1604,0,0
665,-580,0,0,0,0,0,0,0,0,0,-1,1889,1604,0,0
672,-580,0,0,0,0,0,0,0,0,0,-1,1896,1604,0,0
679,-580,0,0,0,0,0,0,0,0,0,-1,1903,1604,0,0
686,-580,0,0,0,0,0,0,0,0,0,-1,1910,1604,0,0
693,-580,0,0,0,0,0,0,0,0,0,-1,1917,1604,0,0
700,-580,0,0,0,0,0,0,0,0,0,-1,1924,1604,0,0
707,-580,0,0,0,0,0,0,0,0,0,-1,1931,1604,0,0
714,-580,0,0,0,0,0,0,0,0,0,-1,1938,1604,0,0
721,-580,0,0,0,0,0,0,0,0,0,-1,1945,1604,0,0
728,-580,0,0,0,0,0,0,0,0,0,-1,1952,1604,0,0
735,-580,0,0,0,0,0,0,0,0,0,-1,1959,1604,0,0
742,-580,0,0,0,0,0,0,0,0,0,-1,1966,1604,0,0
749,-580,0,0,0,0,0,0,0,0,0,-1,1973,1604,0,0
756,-580,0,0,0,0,0,0,0,0,0,-1,1980,1604,0,0
763,-580,0,0,0,0,0,0,0,0,0,-1,1987,1604,0,0
770,-580,0,0,0,0,0,0,0,0,0,-1,1994,1604,0,0
777,-580,0,0,0,0,0,0,0,0,0,-1,2001,1604,0,0
784,-580,0,0,0,0,0,0,0,0,0,-1,2008,1604,0,0
791,-580,0,0,0,0,0,0,0,0,0,-1,2015,1604,0,0
798,-580,0,0,0,0,0,0,0,0,0,-1,2022,1604,0,0
805,-580,0,0,0,0,0,0,0,0,0,-1,2029,1604,0,0
812,-580,0,0,0,0,0,0,0,0,0,-1,2036,1604,0,0
-700,-587,0,0,0,0,0,0,0,0,0,-1,524,1611,0,0
-693,-587,0,0,0,0,0,0,0,0,0,-1,531,1611,0,0
-686,-587,0,0,0,0,0,0,0,0,0,-1,538,1611,0,0
-679,-587,0,0,0,0,0,0,0,0,0,-1,545,1611,0,0
-672,-587,0,0,0,0,0,0,0,0,0,-1,552,1611,0,0
-665,-587,0,0,0,0,0,0,0,0,0,-1,559,1611,0,0
-658,-587,0,0,0,0,0,0,0,0,0,-1,566,1611,0,0
-651,-587,0,0,0,0,0,0,0,0,0,-1,573,1611,0,0
-644,-587,0,0,0,0,0,0,0,0,0,-1,580,1611,0,0
-637,-587,0,0,0,0,0,0,0,0,0,-1,587,1611,0,0
-630,-587,0,0,0,0,0,0,0,0,0,-1,594,1611,0,0
-623,-587,0,0,0,0,0,0,0,0,0,-1,601,1611,0,0
-616,-587,0,0,0,0,0,0,0,0,0,-1,608,1611,0,0
-609,-587,0,0,0,0,0,0,0,0,0,-1,615,1611,0,0
-602,-587,0,0,0,0,0,0,0,0,0,-1,622,1611,0,0
-595,-587,0,0,0,0,0,0,0,0,0,-1,629,1611,0,0
-588,-587,0,0,0,0,0,0,0,0,0,-1,636,1611,0,0
-581,-587,0,0,0,0,0,0,0,0,0,-1,643,1611,0,0
-574,-587,0,0,0,0,0,0,0,0,0,-1,650,1611,0,0
-567,-587,0,0,0,0,0,0,0,0,0,-1,657,1611,0,0
-560,-587,0,0,0,0,0,0,0,0,0,-1,664,1611,0,0
-553,-587,0,0,0,0,0,0,0,0,0,-1,671,1611,0,0
-546,-587,0,0,0,0,0,0,0,0,0,-1,678,1611,0,0
-539,-587,0,0,0,0,0,0,0,0,0,-1,685,1611,0,0
-532,-587,0,0,0,0,0,0,0,0,0,-1,692,1611,0,0
-525,-587,0,0,0,0,0,0,0,0,0,-1,699,1611,0,0
-518,-587,0,0,0,0,0,0,0,0,0,-1,706,1611,0,0
-511,-587,0,0,0,0,0,0,0,0,0,-1,713,1611,0,0
-504,-587,0,0,0,0,0,0,0,0,0,-1,720,1611,0,0
-497,-587,0,0,0,0,0,0,0,0,0,-1,727,1611,0,0
-490,-587,0,0,0,0,0,0,0,0,0,-1,734,1611,0,0
-483,-587,0,0,0,0,0,0,0,0,0,-1,741,1611,0,0
-476,-587,0,0,0,0,0,0,0,0,0,-1,748,1611,0,0
-469,-587,0,0,0,0,0,0,0,0,0,-1,755,1611,0,0
-462,-587,-2.24438,-1.07532,0,0,0,0,0,0,0,-1,762,1611,-2.24437,1.07528
-455,-587,-0.536316,-0.557861,0,0,0,0,0,0,0,-1,769,1611,-0.536344,0.55785
-448,-587,-1.95197,3.1217,0,0,0,0,0,0,0,-1,776,1611,-1.95196,-3.12171
-441,-587,-0.623413,3.65979,0,0,0,0,0,0,0,-1,783,1611,-0.623425,-3.65983
-434,-587,0.666077,4.16943,0,0,0,0,0,0,0,-1,790,1611,0.666081,-4.16949
-427,-587,1.763,4.59753,0,0,0,0,0,0,0,-1,797,1611,1.76302,-4.5975
-420,-587,1.72522,3.4762,0,0,0,0,0,0,0,-1,804,1611,1.72522,-3.47616
-413,-587,1.28992,5.00464,0,0,0,0,0,0,0,-1,811,1611,1.28992,-5.00462
-406,-587,1.60919,5.11548,0,0,0,0,0,0,0,-1,818,1611,1.6092,-5.11549
-399,-587,1.92847,5.22632,0,0,0,0,0,0,0,-1,825,1611,1.92849,-5.22635
-392,-587,1.70221,5.50525,-0.000179124,-0.00123838,0.000922409,0.000354895,-0.0017724,0.52479,0.00131595,0.0235466,832,1611,1.70221,-5.50528
-385,-587,1.62512,5.68445,-0.000470819,-0.00243132,-1.84908e-05,-0.000470645,-0.0024315,-0.00943052,0.00148912,0.0140324,839,1611,1.62514,-5.6844
-378,-587,1.61481,5.85132,-0.000488007,-0.00307999,-0.000536959,-0.000381174,-0.00318683,-0.196396,0.00200958,0.0121851,846,1611,1.61481,-5.85137
-371,-587,1.61084,6.03137,-0.000562365,-0.00340629,-0.000894941,-0.000304179,-0.00366448,-0.280868,0.00234817,0.0131404,853,1611,1.61081,-6.0314
-364,-587,1.62939,6.16479,-0.000393152,-0.00307905,-0.000747001,-0.000199376,-0.00327283,-0.25381,0.00211856,0.0161967,860,1611,1.62942,-6.16483
-357,-587,1.63342,6.29504,-0.000114202,-0.00271667,-0.000527177,-1.14682e-05,-0.0028194,-0.192463,0.00187579,0.0159917,867,1611,1.63341,-6.29502
-350,-587,1.62909,6.43835,-2.33833e-05,-0.00173833,-0.00032248,3.52513e-05,-0.00179697,-0.179859,0.0012099,0.0101192,874,1611,1.6291,-6.4383
-343,-587,1.61279,6.59448,-0.000101709,-0.00102157,-0.000543638,0.000150454,-0.00127374,-0.434307,0.000903494,0.0119477,881,1611,1.61281,-6.59447
-336,-587,1.61371,6.71216,-0.000149241,-0.000505613,-0.00109442,0.000781404,-0.00143626,-0.7047,0.00129884,0.0111211,888,1611,1.6137,-6.71213
-329,-587,1.61584,6.85291,-0.0005783,-0.000457746,-0.00196041,0.00144331,-0.00247936,-0.800767,0.00229093,0.0132125,895,1611,1.61585,-6.85285
-322,-587,1.63202,7.01807,-0.00135096,-0.000561636,-0.00323443,0.00230213,-0.00421472,-0.846107,0.00381613,0.0175051,902,1611,1.63203,-7.01809
-315,-587,1.62988,7.12622,-0.0021356,-0.00142791,-0.00495952,0.00319038,-0.00675388,-0.821011,0.00586291,0.014581,909,1611,1.6299,-7.12622
-308,-587,1.62097,7.28186,-0.00249191,-0.00296048,-0.00738134,0.00465886,-0.0101112,-0.769533,0.00871905,0.0135867,916,1611,1.62098,-7.28184
-301,-587,1.646,7.41907,-0.00197161,-0.00545903,-0.00971929,0.00615915,-0.0135898,-0.696639,0.011668,0.0117691,923,1611,1.64597,-7.41901
-294,-587,1.66461,7.52856,-0.00128726,-0.00817741,-0.0120626,0.00781262,-0.0172773,-0.646302,0.0148252,0.0126067,930,1611,1.6646,-7.52853
-287,-587,1.67285,7.69592,0.000410681,-0.0102958,-0.0144271,0.0104457,-0.0203308,-0.607745,0.0180718,0.0222629,937,1611,1.67287,-7.69589
-280,-587,1.70306,7.81543,0.00270118,-0.0133861,-0.0168863,0.0133618,-0.0240467,-0.563127,0.0218895,0.0346077,944,1611,1.70309,-7.81542
-273,-587,1.39667,7.44836,0.00624676,-0.0165314,-0.0190877,0.0170849,-0.0273696,-0.516413,0.0258938,0.040489,951,1611,1.39665,-7.44841
-266,-587,1.14526,7.37524,0.0112819,-0.0191564,-0.020622,0.0216926,-0.0295672,-0.467508,0.029711,0.0479862,958,1611,1.14525,-7.37529
-259,-587,0.829712,7.19788,0.0177699,-0.0211866,-0.0214151,0.0272401,-0.0306568,-0.416363,0.0334462,0.0452973,965,1611,0.829729,-7.19786
-252,-587,2.16327,7.01672,0.0257664,-0.0221299,-0.0214952,0.0339983,-0.0303619,-0.365736,0.0371782,0.0471012,972,1611,2.16326,-7.01674
-245,-587,2.25372,6.99023,0,0,0,0,0,0,0,-1,979,1611,2.2537,-6.99026
-238,-587,2.85248,7.69055,0,0,0,0,0,0,0,-1,986,1611,2.8525,-7.69054
-231,-587,0.795715,7.18701,0,0,0,0,0,0,0,-1,993,1611,0.795715,-7.18701
-224,-587,1.60474,4.80469,0,0,0,0,0,0,0,-1,1000,1611,1.60476,-4.80464
-217,-587,1.88129,11.3152,0,0,0,0,0,0,0,-1,1007,1611,1.88126,-11.3152
-210,-587,1.84253,10.515,0,0,0,0,0,0,0,-1,1014,1611,1.84254,-10.5151
-203,-587,-0.471313,4.26697,0,0,0,0,0,0,0,-1,1021,1611,-0.47134,-4.26694
-196,-587,-1.38281,4.77917,0,0,0,0,0,0,0,-1,1028,1611,-1.38284,-4.77924
-189,-587,-1.9812,5.2428,0,0,0,0,0,0,0,-1,1035,1611,-1.98114,-5.24279
-182,-587,7.22449,5.36182,0,0,0,0,0,0,0,-1,1042,1611,7.2245,-5.36183
-175,-587,5.90735,5.73206,0,0,0,0,0,0,0,-1,1049,1611,5.90739,-5.73212
-168,-587,4.63953,5.99097,0,0,0,0,0,0,0,-1,1056,1611,4.63952,-5.99095
-161,-587,3.30396,6.20801,0,0,0,0,0,0,0,-1,1063,1611,3.30389,-6.20796
-154,-587,2.24536,7.14172,0,0,0,0,0,0,0,-1,1070,1611,2.24539,-7.14174
-147,-587,0,0,0,0,0,0,0,0,0,-1,1077,1611,0,0
-140,-587,0,0,0,0,0,0,0,0,0,-1,1084,1611,0,0
-133,-587,0,0,0,0,0,0,0,0,0,-1,1091,1611,0,0
-126,-587,0,0,0,0,0,0,0,0,0,-1,1098,1611,0,0
-119,-587,0,0,0,0,0,0,0,0,0,-1,1105,1611,0,0
-112,-587,0,0,0,0,0,0,0,0,0,-1,1112,1611,0,0
-105,-587,0,0,0,0,0,0,0,0,0,-1,1119,1611,0,0
-98,-587,0,0,0,0,0,0,0,0,0,-1,1126,1611,0,0
-91,-587,0,0,0,0,0,0,0,0,0,-1,1133,1611,0,0
-84,-587,0,0,0,0,0,0,0,0,0,-1,1140,1611,0,0
-77,-587,0,0,0,0,0,0,0,0,0,-1,1147,1611,0,0
-70,-587,0,0,0,0,0,0,0,0,0,-1,1154,1611,0,0
-63,-587,0,0,0,0,0,0,0,0,0,-1,1161,1611,0,0
-56,-587,0,0,0,0,0,0,0,0,0,-1,1168,1611,0,0
-49,-587,0,0,0,0,0,0,0,0,0,-1,1175,1611,0,0
-42,-587,0,0,0,0,0,0,0,0,0,-1,1182,1611,0,0
-35,-587,0,0,0,0,0,0,0,0,0,-1,1189,1611,0,0
-28,-587,0,0,0,0,0,0,0,0,0,-1,1196,1611,0,0
-21,-587,0,0,0,0,0,0,0,0,0,-1,1203,1611,0,0
-14,-587,0,0,0,0,0,0,0,0,0,-1,1210,1611,0,0
-7,-587,0,0,0,0,0,0,0,0,0,-1,1217,1611,0,0
0,-587,0,0,0,0,0,0,0,0,0,-1,1224,1611,0,0
7,-587,0,0,0,0,0,0,0,0,0,-1,1231,1611,0,0
14,-587,0,0,0,0,0,0,0,0,0,-1,1238,1611,0,0
21,-587,0,0,0,0,0,0,0,0,0,-1,1245,1611,0,0
28,-587,0,0,0,0,0,0,0,0,0,-1,1252,1611,0,0
35,-587,0,0,0,0,0,0,0,0,0,-1,1259,1611,0,0
42,-587,0,0,0,0,0,0,0,0,0,-1,1266,1611,0,0
49,-587,0,0,0,0,0,0,0,0,0,-1,1273,1611,0,0
56,-587,0,0,0,0,0,0,0,0,0,-1,1280,1611,0,0
63,-587,0,0,0,0,0,0,0,0,0,-1,1287,1611,0,0
70,-587,0,0,0,0,0,0,0,0,0,-1,1294,1611,0,0
77,-587,0,0,0,0,0,0,0,0,0,-1,1301,1611,0,0
84,-587,0,0,0,0,0,0,0,0,0,-1,1308,1611,0,0
91,-587,0,0,0,0,0,0,0,0,0,-1,1315,1611,0,0
98,-587,0,0,0,0,0,0,0,0,0,-1,1322,1611,0,0
105,-587,0,0,0,0,0,0,0,0,0,-1,1329,1611,0,0
112,-587,0,0,0,0,0,0,0,0,0,-1,1336,1611,0,0
119,-587,0,0,0,0,0,0,0,0,0,-1,1343,1611,0,0
126,-587,0,0,0,0,0,0,0,0,0,-1,1350,1611,0,0
133,-587,0,0,0,0,0,0,0,0,0,-1,1357,1611,0,0
140,-587,0,0,0,0,0,0,0,0,0,-1,1364,1611,0,0
147,-587,0,0,0,0,0,0,0,0,0,-1,1371,1611,0,0
154,-587,0,0,0,0,0,0,0,0,0,-1,1378,1611,0,0
161,-587,0,0,0,0,0,0,0,0,0,-1,1385,1611,0,0
168,-587,0,0,0,0,0,0,0,0,0,-1,1392,1611,0,0
175,-587,0,0,0,0,0,0,0,0,0,-1,1399,1611,0,0
182,-587,0,0,0,0,0,0,0,0,0,-1,1406,1611,0,0
189,-587,0,0,0,0,0,0,0,0,0,-1,1413,1611,0,0
196,-587,0,0,0,0,0,0,0,0,0,-1,1420,1611,0,0
203,-587,0,0,0,0,0,0,0,0,0,-1,1427,1611,0,0
210,-587,0,0,0,0,0,0,0,0,0,-1,1434,1611,0,0
217,-587,0,0,0,0,0,0,0,0,0,-1,1441,1611,0,0
224,-587,0,0,0,0,0,0,0,0,0,-1,1448,1611,0,0
231,-587,0,0,0,0,0,0,0,0,0,-1,1455,1611,0,0
238,-587,0,0,0,0,0,0,0,0,0,-1,1462,1611,0,0
245,-587,0,0,0,0,0,0,0,0,0,-1,1469,1611,0,0
252,-587,0,0,0,0,0,0,0,0,0,-1,1476,1611,0,0
259,-587,0,0,0,0,0,0,0,0,0,-1,1483,1611,0,0
266,-587,0,0,0,0,0,0,0,0,0,-1,1490,1611,0,0
273,-587,10.2936,6.35083,0,0,0,0,0,0,0,-1,1497,1611,10.2936,-6.35087
280,-587,2.09204,1.1217,0,0,0,0,0,0,0,-1,1504,1611,2.092,-1.12176
287,-587,3.27588,1.01624,0,0,0,0,0,0,0,-1,1511,1611,3.27588,-1.01626
294,-587,4.45972,0.910767,0,0,0,0,0,0,0,-1,1518,1611,4.45977,-0.910755
301,-587,5.69031,3.74695,0,0,0,0,0,0,0,-1,1525,1611,5.69032,-3.74691
308,-587,6.12231,5.86035,0,0,0,0,0,0,0,-1,1532,1611,6.12227,-5.86035
315,-587,4.76758,6.91736,0,0,0,0,0,0,0,-1,1539,1611,4.76758,-6.9174
322,-587,10.4526,6.38245,0,0,0,0,0,0,0,-1,1546,1611,10.4526,-6.38245
329,-587,10.7738,8.42444,0,0,0,0,0,0,0,-1,1553,1611,10.7738,-8.42438
336,-587,7.5531,5.96619,0,0,0,0,0,0,0,-1,1560,1611,7.55311,-5.96617
343,-587,9.57495,4.38391,0,0,0,0,0,0,0,-1,1567,1611,9.57494,-4.38397
350,-587,9.50378,3.45093,0,0,0,0,0,0,0,-1,1574,1611,9.50376,-3.4509
357,-587,9.40027,2.50806,0,0,0,0,0,0,0,-1,1581,1611,9.40022,-2.50803
364,-587,9.26477,1.34131,0,0,0,0,0,0,0,-1,1588,1611,9.26479,-1.34126
371,-587,4.62366,7.27026,0,0,0,0,0,0,0,-1,1595,1611,4.62362,-7.27032
378,-587,5.80188,8.02661,0,0,0,0,0,0,0,-1,1602,1611,5.8019,-8.02656
385,-587,5.80115,7.47205,0,0,0,0,0,0,0,-1,1609,1611,5.80117,-7.47201
392,-587,5.3916,8.21436,0,0,0,0,0,0,0,-1,1616,1611,5.39157,-8.21437
399,-587,5.90588,8.58582,0,0,0,0,0,0,0,-1,1623,1611,5.90593,-8.58587
406,-587,5.94922,8.67383,-0.00515105,0.00771272,0.0159725,0.0184998,-0.0159381,0.976807,0.019901,0.0408348,1630,1611,5.94917,-8.67388
413,-587,5.58972,8.4928,-0.00450858,0.00637041,0.014864,0.016759,-0.0148971,0.960805,0.0182872,0.0331982,1637,1611,5.58966,-8.49279
420,-587,5.62427,8.43835,-0.00402632,0.004756,0.0136945,0.0147461,-0.0140165,0.940545,0.0166079,0.0284635,1644,1611,5.62423,-8.43837
427,-587,5.68005,8.39771,-0.00363098,0.00306925,0.0124001,0.0125638,-0.0131256,0.917332,0.014833,0.02014,1651,1611,5.68002,-8.39775
434,-587,5.59424,8.30908,-0.00318638,0.0015069,0.0108938,0.010304,-0.0119835,0.891482,0.0128798,0.0131741,1658,1611,5.59425,-8.30914
441,-587,5.58423,8.21216,-0.0027683,9.17519e-05,0.00934605,0.00811655,-0.0107931,0.861314,0.0109539,0.01548,1665,1611,5.58419,-8.21216
448,-587,5.58154,8.09753,-0.0024362,-0.000940604,0.00786579,0.00621286,-0.00958966,0.832791,0.00919276,0.014437,1672,1611,5.58154,-8.09752
455,-587,5.57751,7.97021,-0.00218983,-0.00172495,0.00644817,0.00449497,-0.00840974,0.803414,0.00756395,0.0135194,1679,1611,5.57745,-7.97016
462,-587,5.57043,7.8324,-0.00172526,-0.0021681,0.00517866,0.0032367,-0.00713007,0.764033,0.00612434,0.0163906,1686,1611,5.57048,-7.83234
469,-587,5.57666,7.70667,-0.00165192,-0.00204181,0.00408382,0.00224161,-0.00593534,0.761548,0.00487888,0.0148808,1693,1611,5.5766,-7.70663
476,-587,5.59436,7.5813,-0.0018397,-0.00166874,0.00300302,0.00125002,-0.00475846,0.799627,0.00366082,0.00977766,1700,1611,5.59432,-7.58134
483,-587,5.57751,7.44507,-0.00179813,-0.000905417,0.00197529,0.000673322,-0.00337687,0.896517,0.00250602,0.0129282,1707,1611,5.5775,-7.44511
490,-587,5.57043,7.32507,-0.00123888,0.00133124,0.000469109,0.00141419,-0.00132182,1.39579,0.00157994,0.0159806,1714,1611,5.57046,-7.32511
497,-587,5.55823,7.20581,-0.000681224,0.00334929,-0.000769855,0.00349133,-0.000823265,-1.38834,0.00264503,0.0121526,1721,1611,5.55826,-7.2058
504,-587,5.54321,7.08521,-0.000227477,0.00601274,-0.00199231,0.00659457,-0.000809308,-1.28666,0.00468949,0.0117376,1728,1611,5.54316,-7.08526
511,-587,5.56787,6.94385,0.000401929,0.00896672,-0.00343588,0.0101747,-0.000806049,-1.23272,0.00706716,0.0133423,1735,1611,5.56785,-6.94382
518,-587,5.59351,6.79663,0.00134022,0.0124191,-0.00526514,0.0145221,-0.000762791,-1.19079,0.00994545,0.0133664,1742,1611,5.59349,-6.79664
525,-587,5.59668,6.65308,0.00250727,0.0164313,-0.00738141,0.019616,-0.000677376,-1.16348,0.0133089,0.0168472,1749,1611,5.59672,-6.65312
532,-587,5.61133,6.53406,0.00401032,0.0211503,-0.0100206,0.0257658,-0.000605181,-1.13916,0.0173824,0.0294129,1756,1611,5.61127,-6.53401
539,-587,5.68494,6.37354,0.00604674,0.0268122,-0.0132626,0.0332728,-0.000413846,-1.1175,0.0223211,0.0403733,1763,1611,5.68497,-6.37348
546,-587,5.90759,6.19568,0.00901576,0.0334406,-0.0175753,0.0426299,-0.000173587,-1.08903,0.028478,0.0493534,1770,1611,5.90761,-6.19563
553,-587,6.06335,6.07019,0,0,0,0,0,0,0,-1,1777,1611,6.06335,-6.07015
560,-587,4.21179,5.23547,0,0,0,0,0,0,0,-1,1784,1611,4.21185,-5.23553
567,-587,4.03711,5.46387,0,0,0,0,0,0,0,-1,1791,1611,4.03715,-5.46382
574,-587,3.83142,5.68884,0,0,0,0,0,0,0,-1,1798,1611,3.83141,-5.68881
581,-587,3.47168,6.00977,0,0,0,0,0,0,0,-1,1805,1611,3.47167,-6.00983
588,-587,0,0,0,0,0,0,0,0,0,-1,1812,1611,0,0
595,-587,0,0,0,0,0,0,0,0,0,-1,1819,1611,0,0
602,-587,0,0,0,0,0,0,0,0,0,-1,1826,1611,0,0
609,-587,0,0,0,0,0,0,0,0,0,-1,1833,1611,0,0
616,-587,0,0,0,0,0,0,0,0,0,-1,1840,1611,0,0
623,-587,0,0,0,0,0,0,0,0,0,-1,1847,1611,0,0
630,-587,0,0,0,0,0,0,0,0,0,-1,1854,1611,0,0
637,-587,0,0,0,0,0,0,0,0,0,-1,1861,1611,0,0
644,-587,0,0,0,0,0,0,0,0,0,-1,1868,1611,0,0
651,-587,0,0,0,0,0,0,0,0,0,-1,1875,1611,0,0
658,-587,0,0,0,0,0,0,0,0,0,-1,1882,1611,0,0
665,-587,0,0,0,0,0,0,0,0,0,-1,1889,1611,0,0
672,-587,0,0,0,0,0,0,0,0,0,-1,1896,1611,0,0
679,-587,0,0,0,0,0,0,0,0,0,-1,1903,1611,0,0
686,-587,0,0,0,0,0,0,0,0,0,-1,1910,1611,0,0
693,-587,0,0,0,0,0,0,0,0,0,-1,1917,1611,0,0
700,-587,0,0,0,0,0,0,0,0,0,-1,1924,1611,0,0
707,-587,0,0,0,0,0,0,0,0,0,-1,1931,1611,0,0
714,-587,0,0,0,0,0,0,0,0,0,-1,1938,1611,0,0
721,-587,0,0,0,0,0,0,0,0,0,-1,1945,1611,0,0
728,-587,0,0,0,0,0,0,0,0,0,-1,1952,1611,0,0
735,-587,0,0,0,0,0,0,0,0,0,-1,1959,1611,0,0
742,-587,0,0,0,0,0,0,0,0,0,-1,1966,1611,0,0
749,-587,0,0,0,0,0,0,0,0,0,-1,1973,1611,0,0
756,-587,0,0,0,0,0,0,0,0,0,-1,1980,1611,0,0
763,-587,0,0,0,0,0,0,0,0,0,-1,1987,1611,0,0
770,-587,0,0,0,0,0,0,0,0,0,-1,1994,1611,0,0
777,-587,0,0,0,0,0,0,0,0,0,-1,2001,1611,0,0
784,-587,0,0,0,0,0,0,0,0,0,-1,2008,1611,0,0
791,-587,0,0,0,0,0,0,0,0,0,-1,2015,1611,0,0
798,-587,0,0,0,0,0,0,0,0,0,-1,2022,1611,0,0
805,-587,0,0,0,0,0,0,0,0,0,-1,2029,1611,0,0
812,-587,0,0,0,0,0,0,0,0,0,-1,2036,1611,0,0
-700,-594,0,0,0,0,0,0,0,0,0,-1,524,1618,0,0
-693,-594,0,0,0,0,0,0,0,0,0,-1,531,1618,0,0
-686,-594,0,0,0,0,0,0,0,0,0,-1,538,1618,0,0
-679,-594,0,0,0,0,0,0,0,0,0,-1,545,1618,0,0
-672,-594,0,0,0,0,0,0,0,0,0,-1,552,1618,0,0
-665,-594,0,0,0,0,0,0,0,0,0,-1,559,1618,0,0
-658,-594,0,0,0,0,0,0,0,0,0,-1,566,1618,0,0
-651,-594,0,0,0,0,0,0,0,0,0,-1,573,1618,0,0
-644,-594,0,0,0,0,0,0,0,0,0,-1,580,1618,0,0
-637,-594,0,0,0,0,0,0,0,0,0,-1,587,1618,0,0
-630,-594,0,0,0,0,0,0,0,0,0,-1,594,1618,0,0
-623,-594,0,0,0,0,0,0,0,0,0,-1,601,1618,0,0
-616,-594,0,0,0,0,0,0,0,0,0,-1,608,1618,0,0
-609,-594,0,0,0,0,0,0,0,0,0,-1,615,1618,0,0
-602,-594,0,0,0,0,0,0,0,0,0,-1,622,1618,0,0
-595,-594,0,0,0,0,0,0,0,0,0,-1,629,1618,0,0
-588,-594,0,0,0,0,0,0,0,0,0,-1,636,1618,0,0
-581,-594,0,0,0,0,0,0,0,0,0,-1,643,1618,0,0
-574,-594,0,0,0,0,0,0,0,0,0,-1,650,1618,0,0
-567,-594,0,0,0,0,0,0,0,0,0,-1,657,1618,0,0
-560,-594,0,0,0,0,0,0,0,0,0,-1,664,1618,0,0
-553,-594,0,0,0,0,0,0,0,0,0,-1,671,1618,0,0
-546,-594,0,0,0,0,0,0,0,0,0,-1,678,1618,0,0
-539,-594,0,0,0,0,0,0,0,0,0,-1,685,1618,0,0
-532,-594,0,0,0,0,0,0,0,0,0,-1,692,1618,0,0
-525,-594,0,0,0,0,0,0,0,0,0,-1,699,1618,0,0
-518,-594,0,0,0,0,0,0,0,0,0,-1,706,1618,0,0
-511,-594,0,0,0,0,0,0,0,0,0,-1,713,1618,0,0
-504,-594,0,0,0,0,0,0,0,0,0,-1,720,1618,0,0
-497,-594,0,0,0,0,0,0,0,0,0,-1,727,1618,0,0
-490,-594,0,0,0,0,0,0,0,0,0,-1,734,1618,0,0
-483,-594,0,0,0,0,0,0,0,0,0,-1,741,1618,0,0
-476,-594,0,0,0,0,0,0,0,0,0,-1,748,1618,0,0
-469,-594,0,0,0,0,0,0,0,0,0,-1,755,1618,0,0
-462,-594,0,0,0,0,0,0,0,0,0,-1,762,1618,0,0
-455,-594,-0.213623,-1.19202,0,0,0,0,0,0,0,-1,769,1618,-0.213642,1.19196
-448,-594,-6.3302,4.81067,0,0,0,0,0,0,0,-1,776,1618,-6.33022,-4.81061
-441,-594,-1.45959,3.63,0,0,0,0,0,0,0,-1,783,1618,-1.45956,-3.62995
-434,-594,0.0168457,3.98303,0,0,0,0,0,0,0,-1,790,1618,0.0168213,-3.98309
-427,-594,-5.52771,6.32642,0,0,0,0,0,0,0,-1,797,1618,-5.52772,-6.32647
-420,-594,-4.45959,7.5907,0,0,0,0,0,0,0,-1,804,1618,-4.45958,-7.59074
-413,-594,-3.75879,8.23376,0,0,0,0,0,0,0,-1,811,1618,-3.75878,-8.23381
-406,-594,1.86609,4.89661,0,0,0,0,0,0,0,-1,818,1618,1.86612,-4.89666
-399,-594,2.12787,5.2937,0,0,0,0,0,0,0,-1,825,1618,2.12786,-5.2937
-392,-594,1.94055,5.5553,-0.00128942,-0.00206223,-0.000362224,-0.00114619,-0.00220546,-0.376554,0.00127365,0.0412611,832,1618,1.94054,-5.55532
-385,-594,1.78235,5.72742,-0.00138229,-0.00348966,-0.00114915,-0.000876875,-0.00399508,-0.414355,0.00242454,0.027106,839,1618,1.78234,-5.72736
-378,-594,1.75183,5.84985,-0.00125422,-0.00426678,-0.00152944,-0.000613859,-0.00490715,-0.396514,0.00308722,0.0110495,846,1618,1.75182,-5.8498
-371,-594,1.76398,6.01929,-0.00117398,-0.00465455,-0.00176838,-0.000433185,-0.00539534,-0.396702,0.00346154,0.0106114,853,1618,1.76395,-6.0193
-364,-594,1.78015,6.15381,-0.000856543,-0.00430169,-0.00151579,-0.000284581,-0.00487365,-0.360816,0.00315852,0.00969468,860,1618,1.78014,-6.1538
-357,-594,1.7937,6.29846,-0.000469763,-0.00394004,-0.00124627,-6.8577e-05,-0.00434122,-0.311435,0.00287156,0.0100514,867,1618,1.79372,-6.29846
-350,-594,1.77344,6.46765,-0.00016,-0.00293937,-0.000903074,0.000107653,-0.00320702,-0.288132,0.00217479,0.0154148,874,1618,1.77342,-6.46766
-343,-594,1.75482,6.62341,-6.43776e-05,-0.00200021,-0.000810536,0.000230176,-0.00229476,-0.348568,0.00161205,0.0160575,881,1618,1.75481,-6.62347
-336,-594,1.74945,6.729,4.42097e-05,-0.00126883,-0.00102756,0.000607077,-0.0018317,-0.501129,0.00146601,0.0126544,888,1618,1.74946,-6.72895
-329,-594,1.75909,6.8877,-0.000149515,-0.000952681,-0.00148168,0.000984035,-0.00208623,-0.653061,0.00181029,0.0128367,895,1618,1.75911,-6.88768
-322,-594,1.77539,7.0509,-0.000754438,-0.000704432,-0.00233645,0.00160715,-0.00306602,-0.790749,0.00274153,0.0154542,902,1618,1.7754,-7.05084
-315,-594,1.77734,7.15259,-0.001311,-0.00120952,-0.0035275,0.0022676,-0.00478812,-0.79259,0.00415936,0.0161152,909,1618,1.77734,-7.15262
-308,-594,1.7771,7.28223,-0.00145732,-0.00230407,-0.00532966,0.00346576,-0.00722714,-0.745763,0.00629958,0.0139476,916,1618,1.77712,-7.28225
-301,-594,1.76227,7.4187,-0.000836121,-0.00427286,-0.00702383,0.00467648,-0.00978547,-0.66543,0.00852151,0.0109101,923,1618,1.76225,-7.41872
-294,-594,1.77686,7.55566,-5.92486e-05,-0.00640307,-0.00867149,0.00600225,-0.0124646,-0.610064,0.0108773,0.010436,930,1618,1.77683,-7.55564
-287,-594,1.79559,7.70288,0.00156422,-0.0079281,-0.0103338,0.00818969,-0.0145536,-0.570124,0.0133011,0.0110488,937,1618,1.79562,-7.70284
-280,-594,1.79352,7.82007,0.00358772,-0.0102959,-0.0120592,0.0105604,-0.0172686,-0.524239,0.0162219,0.0142541,944,1618,1.79351,-7.8201
-273,-594,1.7937,7.83313,0.00656996,-0.0127299,-0.0136155,0.0136084,-0.0197684,-0.477112,0.0193792,0.0253521,951,1618,1.79371,-7.83311
-266,-594,1.7666,7.76587,0.0106445,-0.0148628,-0.0147607,0.0173981,-0.0216164,-0.429107,0.0225689,0.0343408,958,1618,1.76663,-7.76584
-259,-594,1.96075,7.62085,0.0157861,-0.0166551,-0.0153498,0.0218976,-0.0227667,-0.378912,0.0257886,0.0365038,965,1618,1.96077,-7.62088
-252,-594,2.14435,7.70374,0.0219721,-0.0176812,-0.0154395,0.0272746,-0.0229837,-0.330817,0.0290518,0.0445258,972,1618,2.14435,-7.70378
-245,-594,2.3894,7.84045,0.0260381,-0.0157236,-0.0133455,0.0299386,-0.0196241,-0.284346,0.0288208,0.0471336,979,1618,2.38943,-7.84046
-238,-594,2.78571,8.22339,0.0263182,-0.00827302,-0.00948351,0.0287476,-0.0107024,-0.250776,0.0235573,0.0486751,986,1618,2.78572,-8.22341
-231,-594,3.12543,8.56885,0,0,0,0,0,0,0,-1,993,1618,3.12546,-8.56886
-224,-594,3.07306,11.3452,0,0,0,0,0,0,0,-1,1000,1618,3.07306,-11.3452
-217,-594,2.60095,10.7722,0,0,0,0,0,0,0,-1,1007,1618,2.60098,-10.7722
-210,-594,2.33838,10.1172,0,0,0,0,0,0,0,-1,1014,1618,2.33836,-10.1172
-203,-594,2.05292,9.37537,0,0,0,0,0,0,0,-1,1021,1618,2.05293,-9.37537
-196,-594,3.04919,10.7037,0,0,0,0,0,0,0,-1,1028,1618,3.04913,-10.7038
-189,-594,3.01477,8.9408,0,0,0,0,0,0,0,-1,1035,1618,3.01482,-8.9408
-182,-594,7.52148,7.16602,0,0,0,0,0,0,0,-1,1042,1618,7.52147,-7.16604
-175,-594,6.09314,7.20532,0,0,0,0,0,0,0,-1,1049,1618,6.09318,-7.20536
-168,-594,4.94568,7.34058,0,0,0,0,0,0,0,-1,1056,1618,4.94565,-7.34057
-161,-594,3.61719,7.39136,0,0,0,0,0,0,0,-1,1063,1618,3.61723,-7.39141
-154,-594,2.54785,7.72693,0,0,0,0,0,0,0,-1,1070,1618,2.54782,-7.72696
-147,-594,2.1825,8.4668,0,0,0,0,0,0,0,-1,1077,1618,2.18253,-8.46674
-140,-594,2.76843,9.64172,0,0,0,0,0,0,0,-1,1084,1618,2.76845,-9.64167
-133,-594,0,0,0,0,0,0,0,0,0,-1,1091,1618,0,0
-126,-594,0,0,0,0,0,0,0,0,0,-1,1098,1618,0,0
-119,-594,0,0,0,0,0,0,0,0,0,-1,1105,1618,0,0
-112,-594,0,0,0,0,0,0,0,0,0,-1,1112,1618,0,0
-105,-594,0,0,0,0,0,0,0,0,0,-1,1119,1618,0,0
-98,-594,0,0,0,0,0,0,0,0,0,-1,1126,1618,0,0
-91,-594,0,0,0,0,0,0,0,0,0,-1,1133,1618,0,0
-84,-594,0,0,0,0,0,0,0,0,0,-1,1140,1618,0,0
-77,-594,0,0,0,0,0,0,0,0,0,-1,1147,1618,0,0
-70,-594,0,0,0,0,0,0,0,0,0,-1,1154,1618,0,0
-63,-594,0,0,0,0,0,0,0,0,0,-1,1161,1618,0,0
-56,-594,0,0,0,0,0,0,0,0,0,-1,1168,1618,0,0
-49,-594,0,0,0,0,0,0,0,0,0,-1,1175,1618,0,0
-42,-594,0,0,0,0,0,0,0,0,0,-1,1182,1618,0,0
-35,-594,0,0,0,0,0,0,0,0,0,-1,1189,1618,0,0
-28,-594,0,0,0,0,0,0,0,0,0,-1,1196,1618,0,0
-21,-594,0,0,0,0,0,0,0,0,0,-1,1203,1618,0,0
-14,-594,0,0,0,0,0,0,0,0,0,-1,1210,1618,0,0
-7,-594,0,0,0,0,0,0,0,0,0,-1,1217,1618,0,0
0,-594,0,0,0,0,0,0,0,0,0,-1,1224,1618,0,0
7,-594,0,0,0,0,0,0,0,0,0,-1,1231,1618,0,0
14,-594,0,0,0,0,0,0,0,0,0,-1,1238,1618,0,0
21,-594,0,0,0,0,0,0,0,0,0,-1,1245,1618,0,0
28,-594,0,0,0,0,0,0,0,0,0,-1,1252,1618,0,0
35,-594,0,0,0,0,0,0,0,0,0,-1,1259,1618,0,0
42,-594,0,0,0,0,0,0,0,0,0,-1,1266,1618,0,0
49,-594,0,0,0,0,0,0,0,0,0,-1,1273,1618,0,0
56,-594,0,0,0,0,0,0,0,0,0,-1,1280,1618,0,0
63,-594,0,0,0,0,0,0,0,0,0,-1,1287,1618,0,0
70,-594,0,0,0,0,0,0,0,0,0,-1,1294,1618,0,0
77,-594,0,0,0,0,0,0,0,0,0,-1,1301,1618,0,0
84,-594,0,0,0,0,0,0,0,0,0,-1,1308,1618,0,0
91,-594,0,0,0,0,0,0,0,0,0,-1,1315,1618,0,0
98,-594,0,0,0,0,0,0,0,0,0,-1,1322,1618,0,0
105,-594,0,0,0,0,0,0,0,0,0,-1,1329,1618,0,0
112,-594,0,0,0,0,0,0,0,0,0,-1,1336,1618,0,0
119,-594,0,0,0,0,0,0,0,0,0,-1,1343,1618,0,0
126,-594,0,0,0,0,0,0,0,0,0,-1,1350,1618,0,0
133,-594,0,0,0,0,0,0,0,0,0,-1,1357,1618,0,0
140,-594,0,0,0,0,0,0,0,0,0,-1,1364,1618,0,0
147,-594,0,0,0,0,0,0,0,0,0,-1,1371,1618,0,0
154,-594,0,0,0,0,0,0,0,0,0,-1,1378,1618,0,0
161,-594,0,0,0,0,0,0,0,0,0,-1,1385,1618,0,0
168,-594,0,0,0,0,0,0,0,0,0,-1,1392,1618,0,0
175,-594,0,0,0,0,0,0,0,0,0,-1,1399,1618,0,0
182,-594,0,0,0,0,0,0,0,0,0,-1,1406,1618,0,0
189,-594,0,0,0,0,0,0,0,0,0,-1,1413,1618,0,0
196,-594,0,0,0,0,0,0,0,0,0,-1,1420,1618,0,0
203,-594,0,0,0,0,0,0,0,0,0,-1,1427,1618,0,0
210,-594,0,0,0,0,0,0,0,0,0,-1,1434,1618,0,0
217,-594,0,0,0,0,0,0,0,0,0,-1,1441,1618,0,0
224,-594,0,0,0,0,0,0,0,0,0,-1,1448,1618,0,0
231,-594,0,0,0,0,0,0,0,0,0,-1,1455,1618,0,0
238,-594,0,0,0,0,0,0,0,0,0,-1,1462,1618,0,0
245,-594,0,0,0,0,0,0,0,0,0,-1,1469,1618,0,0
252,-594,3.03674,1.20996,0,0,0,0,0,0,0,-1,1476,1618,3.0368,-1.20999
259,-594,4.79834,1.53113,0,0,0,0,0,0,0,-1,1483,1618,4.79837,-1.53118
266,-594,3.71606,2.68152,0,0,0,0,0,0,0,-1,1490,1618,3.71609,-2.68149
273,-594,9.7655,6.33557,0,0,0,0,0,0,0,-1,1497,1618,9.76555,-6.33554
280,-594,3.33911,1.44812,0,0,0,0,0,0,0,-1,1504,1618,3.33908,-1.44816
287,-594,4.24121,1.9563,0,0,0,0,0,0,0,-1,1511,1618,4.24127,-1.95634
294,-594,5.14343,2.46448,0,0,0,0,0,0,0,-1,1518,1618,5.14346,-2.46451
301,-594,4.96985,4.57715,0,0,0,0,0,0,0,-1,1525,1618,4.96984,-4.57712
308,-594,5.98193,5.73877,0,0,0,0,0,0,0,-1,1532,1618,5.98189,-5.73879
315,-594,6.9939,6.90051,0,0,0,0,0,0,0,-1,1539,1618,6.99394,-6.90046
322,-594,5.22778,7.07495,0,0,0,0,0,0,0,-1,1546,1618,5.22777,-7.07497
329,-594,9.43713,5.62012,0,0,0,0,0,0,0,-1,1553,1618,9.4371,-5.62006
336,-594,10.1353,4.66528,0,0,0,0,0,0,0,-1,1560,1618,10.1353,-4.66533
343,-594,10.5729,3.71228,0,0,0,0,0,0,0,-1,1567,1618,10.5729,-3.71232
350,-594,10.219,2.98792,0,0,0,0,0,0,0,-1,1574,1618,10.219,-2.98797
357,-594,9.83154,1.96326,0,0,0,0,0,0,0,-1,1581,1618,9.8315,-1.96321
364,-594,9.74939,0.700562,0,0,0,0,0,0,0,-1,1588,1618,9.74939,-0.700615
371,-594,6.09485,8.93787,0,0,0,0,0,0,0,-1,1595,1618,6.0948,-8.93782
378,-594,5.42188,9.00964,0,0,0,0,0,0,0,-1,1602,1618,5.42183,-9.0096
385,-594,5.3761,7.7843,0,0,0,0,0,0,0,-1,1609,1618,5.37608,-7.78431
392,-594,5.5293,8.76917,0,0,0,0,0,0,0,-1,1616,1618,5.52929,-8.76912
399,-594,5.57751,8.71472,-0.00754688,-0.000851577,0.00863427,0.0050613,-0.0134598,0.970335,0.0110535,0.0395812,1623,1618,5.57748,-8.71476
406,-594,5.50366,8.64661,-0.00660367,-0.000889986,0.00822384,0.0049591,-0.0124528,0.95257,0.0103584,0.0265049,1630,1618,5.50361,-8.64665
413,-594,5.46289,8.55151,-0.00567898,-0.00119825,0.00770993,0.00459022,-0.0114674,0.926795,0.00955011,0.0196676,1637,1618,5.46292,-8.55155
420,-594,5.47571,8.46216,-0.00478516,-0.00146154,0.00711097,0.00417921,-0.0104259,0.900186,0.00868556,0.0153245,1644,1618,5.47568,-8.4622
427,-594,5.47351,8.41772,-0.00403061,-0.00174217,0.00649754,0.00371113,-0.00948391,0.872554,0.00785742,0.0119157,1651,1618,5.47347,-8.4177
434,-594,5.4574,8.30225,-0.00330351,-0.00195401,0.00572289,0.00313376,-0.00839129,0.844079,0.00688091,0.0157918,1658,1618,5.45738,-8.3022
441,-594,5.46863,8.20117,-0.00267387,-0.00210058,0.00492381,0.00254492,-0.00731938,0.814473,0.00591334,0.0154217,1665,1618,5.46858,-8.20121
448,-594,5.46655,8.09741,-0.00222618,-0.00199825,0.00416062,0.00204996,-0.00627439,0.799091,0.00500811,0.0151425,1672,1618,5.46652,-8.09746
455,-594,5.45337,7.97388,-0.00191183,-0.00181484,0.00340241,0.00153942,-0.00526609,0.792524,0.00412086,0.0114025,1679,1618,5.4534,-7.97391
462,-594,5.45276,7.83191,-0.00150027,-0.00148959,0.00270973,0.00121481,-0.00420467,0.786383,0.00328382,0.0131617,1686,1618,5.45274,-7.83194
469,-594,5.46533,7.70508,-0.0015165,-0.000745711,0.00214457,0.00104782,-0.00331003,0.874303,0.00262657,0.0120437,1693,1618,5.46532,-7.70507
476,-594,5.46069,7.59619,-0.00175603,0.000104051,0.00158877,0.00101498,-0.00266696,1.0502,0.00219593,0.0116448,1700,1618,5.4607,-7.59619
483,-594,5.46094,7.45801,-0.00192701,0.00116541,0.00106821,0.00149852,-0.00226012,1.26851,0.00218485,0.0149924,1707,1618,5.46089,-7.458
490,-594,5.45801,7.32019,-0.00155419,0.00383006,-0.000258111,0.00384241,-0.00156654,-1.523,0.00321368,0.0131624,1714,1618,5.45797,-7.32025
497,-594,5.44519,7.19824,-0.00118239,0.00604988,-0.00133724,0.00628921,-0.00142172,-1.3937,0.00473835,0.00991806,1721,1618,5.4452,-7.19829
504,-594,5.43994,7.06873,-0.000841973,0.00894091,-0.00256349,0.00957194,-0.001473,-1.32943,0.00692471,0.00996544,1728,1618,5.44,-7.06876
511,-594,5.4552,6.94104,-0.000219106,0.0124028,-0.00416541,0.0136536,-0.00146981,-1.2791,0.00962977,0.0116904,1735,1618,5.45521,-6.94104
518,-594,5.45728,6.79883,0.000823755,0.0167101,-0.00636846,0.0189479,-0.001414,-1.23289,0.0131287,0.0151673,1742,1618,5.45723,-6.79889
525,-594,5.3927,6.65515,0.00234512,0.0221794,-0.00922399,0.025806,-0.00128143,-1.1962,0.0176466,0.027261,1749,1618,5.39266,-6.65518
532,-594,5.36243,6.46277,0.00450131,0.029103,-0.0130127,0.0347086,-0.00110432,-1.16404,0.0235158,0.0442795,1756,1618,5.36244,-6.46279
539,-594,5.59399,6.32153,0,0,0,0,0,0,0,-1,1763,1618,5.59402,-6.32148
546,-594,5.88123,6.01721,0,0,0,0,0,0,0,-1,1770,1618,5.88123,-6.01721
553,-594,3.69714,5.68762,0,0,0,0,0,0,0,-1,1777,1618,3.69715,-5.68764
560,-594,6.06616,4.44482,0,0,0,0,0,0,0,-1,1784,1618,6.06621,-4.44477
567,-594,5.97266,4.73303,0,0,0,0,0,0,0,-1,1791,1618,5.97271,-4.73309
574,-594,5.9906,4.96326,0,0,0,0,0,0,0,-1,1798,1618,5.99065,-4.96326
581,-594,0,0,0,0,0,0,0,0,0,-1,1805,1618,0,0
588,-594,0,0,0,0,0,0,0,0,0,-1,1812,1618,0,0
595,-594,0,0,0,0,0,0,0,0,0,-1,1819,1618,0,0
602,-594,0,0,0,0,0,0,0,0,0,-1,1826,1618,0,0
609,-594,0,0,0,0,0,0,0,0,0,-1,1833,1618,0,0
616,-594,0,0,0,0,0,0,0,0,0,-1,1840,1618,0,0
623,-594,0,0,0,0,0,0,0,0,0,-1,1847,1618,0,0
630,-594,0,0,0,0,0,0,0,0,0,-1,1854,1618,0,0
637,-594,0,0,0,0,0,0,0,0,0,-1,1861,1618,0,0
644,-594,0,0,0,0,0,0,0,0,0,-1,1868,1618,0,0
651,-594,0,0,0,0,0,0,0,0,0,-1,1875,1618,0,0
658,-594,0,0,0,0,0,0,0,0,0,-1,1882,1618,0,0
665,-594,0,0,0,0,0,0,0,0,0,-1,1889,1618,0,0
672,-594,0,0,0,0,0,0,0,0,0,-1,1896,1618,0,0
679,-594,0,0,0,0,0,0,0,0,0,-1,1903,1618,0,0
686,-594,0,0,0,0,0,0,0,0,0,-1,1910,1618,0,0
693,-594,0,0,0,0,0,0,0,0,0,-1,1917,1618,0,0
700,-594,0,0,0,0,0,0,0,0,0,-1,1924,1618,0,0
707,-594,0,0,0,0,0,0,0,0,0,-1,1931,1618,0,0
714,-594,0,0,0,0,0,0,0,0,0,-1,1938,1618,0,0
721,-594,0,0,0,0,0,0,0,0,0,-1,1945,1618,0,0
728,-594,0,0,0,0,0,0,0,0,0,-1,1952,1618,0,0
735,-594,0,0,0,0,0,0,0,0,0,-1,1959,1618,0,0
742,-594,0,0,0,0,0,0,0,0,0,-1,1966,1618,0,0
749,-594,0,0,0,0,0,0,0,0,0,-1,1973,1618,0,0
756,-594,0,0,0,0,0,0,0,0,0,-1,1980,1618,0,0
763,-594,0,0,0,0,0,0,0,0,0,-1,1987,1618,0,0
770,-594,0,0,0,0,0,0,0,0,0,-1,1994,1618,0,0
777,-594,0,0,0,0,0,0,0,0,0,-1,2001,1618,0,0
784,-594,0,0,0,0,0,0,0,0,0,-1,2008,1618,0,0
791,-594,0,0,0,0,0,0,0,0,0,-1,2015,1618,0,0
798,-594,0,0,0,0,0,0,0,0,0,-1,2022,1618,0,0
805,-594,0,0,0,0,0,0,0,0,0,-1,2029,1618,0,0
812,-594,0,0,0,0,0,0,0,0,0,-1,2036,1618,0,0
-700,-601,0,0,0,0,0,0,0,0,0,-1,524,1625,0,0
-693,-601,0,0,0,0,0,0,0,0,0,-1,531,1625,0,0
-686,-601,0,0,0,0,0,0,0,0,0,-1,538,1625,0,0
-679,-601,0,0,0,0,0,0,0,0,0,-1,545,1625,0,0
-672,-601,0,0,0,0,0,0,0,0,0,-1,552,1625,0,0
-665,-601,0,0,0,0,0,0,0,0,0,-1,559,1625,0,0
-658,-601,0,0,0,0,0,0,0,0,0,-1,566,1625,0,0
-651,-601,0,0,0,0,0,0,0,0,0,-1,573,1625,0,0
-644,-601,0,0,0,0,0,0,0,0,0,-1,580,1625,0,0
-637,-601,0,0,0,0,0,0,0,0,0,-1,587,1625,0,0
-630,-601,0,0,0,0,0,0,0,0,0,-1,594,1625,0,0
-623,-601,0,0,0,0,0,0,0,0,0,-1,601,1625,0,0
-616,-601,0,0,0,0,0,0,0,0,0,-1,608,1625,0,0
-609,-601,0,0,0,0,0,0,0,0,0,-1,615,1625,0,0
-602,-601,0,0,0,0,0,0,0,0,0,-1,622,1625,0,0
-595,-601,0,0,0,0,0,0,0,0,0,-1,629,1625,0,0
-588,-601,0,0,0,0,0,0,0,0,0,-1,636,1625,0,0
-581,-601,0,0,0,0,0,0,0,0,0,-1,643,1625,0,0
-574,-601,0,0,0,0,0,0,0,0,0,-1,650,1625,0,0
-567,-601,0,0,0,0,0,0,0,0,0,-1,657,1625,0,0
-560,-601,0,0,0,0,0,0,0,0,0,-1,664,1625,0,0
-553,-601,0,0,0,0,0,0,0,0,0,-1,671,1625,0,0
-546,-601,0,0,0,0,0,0,0,0,0,-1,678,1625,0,0
-539,-601,0,0,0,0,0,0,0,0,0,-1,685,1625,0,0
-532,-601,0,0,0,0,0,0,0,0,0,-1,692,1625,0,0
-525,-601,0,0,0,0,0,0,0,0,0,-1,699,1625,0,0
-518,-601,0,0,0,0,0,0,0,0,0,-1,706,1625,0,0
-511,-601,0,0,0,0,0,0,0,0,0,-1,713,1625,0,0
-504,-601,0,0,0,0,0,0,0,0,0,-1,720,1625,0,0
-497,-601,0,0,0,0,0,0,0,0,0,-1,727,1625,0,0
-490,-601,0,0,0,0,0,0,0,0,0,-1,734,1625,0,0
-483,-601,0,0,0,0,0,0,0,0,0,-1,741,1625,0,0
-476,-601,0,0,0,0,0,0,0,0,0,-1,748,1625,0,0
-469,-601,0,0,0,0,0,0,0,0,0,-1,755,1625,0,0
-462,-601,0,0,0,0,0,0,0,0,0,-1,762,1625,0,0
-455,-601,0,0,0,0,0,0,0,0,0,-1,769,1625,0,0
-448,-601,-6.38489,3.49182,0,0,0,0,0,0,0,-1,776,1625,-6.38491,-3.49183
-441,-601,-6.19275,3.92273,0,0,0,0,0,0,0,-1,783,1625,-6.19275,-3.92273
-434,-601,-5.9259,4.47095,0,0,0,0,0,0,0,-1,790,1625,-5.92591,-4.47097
-427,-601,-5.64215,5.07947,0,0,0,0,0,0,0,-1,797,1625,-5.64218,-5.07949
-420,-601,-5.13074,5.84302,0,0,0,0,0,0,0,-1,804,1625,-5.13076,-5.84304
-413,-601,-4.35278,6.54846,0,0,0,0,0,0,0,-1,811,1625,-4.3528,-6.54842
-406,-601,-3.57666,7.20972,0,0,0,0,0,0,0,-1,818,1625,-3.57668,-7.20972
-399,-601,2.24182,5.47205,0,0,0,0,0,0,0,-1,825,1625,2.2418,-5.472
-392,-601,2.09259,5.66284,-0.00334776,-0.0023336,-0.0029987,0.000200593,-0.00588195,-0.869155,0.00398985,0.0494293,832,1625,2.09256,-5.66289
-385,-601,1.90826,5.92908,-0.0029083,-0.00420445,-0.00329689,-0.000196388,-0.00691636,-0.68835,0.00454686,0.0445424,839,1625,1.90825,-5.92906
-378,-601,1.86163,5.92822,-0.00235472,-0.00521154,-0.00323451,-0.000247254,-0.00731901,-0.577469,0.00479904,0.0299116,846,1625,1.86163,-5.92825
-371,-601,1.90601,6.00684,-0.00196216,-0.00579497,-0.00309433,-0.000238857,-0.00751827,-0.508142,0.00493449,0.013987,853,1625,1.90598,-6.00678
-364,-601,1.914,6.14429,-0.00139675,-0.00551726,-0.00253352,-0.000191526,-0.00672249,-0.44403,0.0044192,0.00952832,860,1625,1.91397,-6.14431
-357,-601,1.90387,6.28516,-0.000853894,-0.00520585,-0.00204318,-4.50022e-05,-0.00601474,-0.376966,0.00399491,0.00937767,867,1625,1.90384,-6.28514
-350,-601,1.93188,6.48413,-0.000350954,-0.00424103,-0.00147345,0.000144135,-0.00473612,-0.324155,0.00320654,0.0205749,874,1625,1.9319,-6.48408
-343,-601,1.90967,6.64832,-0.00012148,-0.00319611,-0.0010644,0.000211039,-0.00352863,-0.302795,0.00242583,0.0198176,881,1625,1.90967,-6.64829
-336,-601,1.88287,6.72974,9.89034e-05,-0.00229937,-0.000974844,0.000445163,-0.00264563,-0.341295,0.00192934,0.0160851,888,1625,1.88289,-6.72978
-329,-601,1.89124,6.88281,0.000115386,-0.00177189,-0.0010415,0.000577156,-0.00223366,-0.417328,0.00171419,0.0137985,895,1625,1.89124,-6.88279
-322,-601,1.90924,7.04407,-0.000370357,-0.00118283,-0.00155747,0.000832987,-0.00238617,-0.657825,0.00192935,0.0120204,902,1625,1.90922,-7.04412
-315,-601,1.90308,7.14331,-0.000746722,-0.00134002,-0.00232549,0.00130097,-0.0033877,-0.721959,0.00279494,0.0123433,909,1625,1.9031,-7.14331
-308,-601,1.90277,7.28455,-0.000748792,-0.00200876,-0.00363609,0.00231148,-0.00506903,-0.699621,0.00435916,0.0109429,916,1625,1.90278,-7.28457
-301,-601,1.90723,7.42639,-0.000105389,-0.00345425,-0.00484624,0.00334753,-0.00690717,-0.619063,0.00603828,0.00909949,923,1625,1.9072,-7.42637
-294,-601,1.90808,7.55481,0.000691998,-0.00503612,-0.00599238,0.00446959,-0.00881371,-0.562472,0.00780462,0.00917816,930,1625,1.9081,-7.55482
-287,-601,1.909,7.68567,0.00217799,-0.00606496,-0.00715533,0.00631395,-0.0102009,-0.524105,0.0096225,0.00890528,937,1625,1.909,-7.68568
-280,-601,1.9129,7.81238,0.00393154,-0.00781358,-0.00835143,0.00826846,-0.0121505,-0.47897,0.0118597,0.00896352,944,1625,1.91287,-7.8124
-273,-601,1.92871,7.93079,0.00641053,-0.00961144,-0.00942619,0.01077,-0.0139709,-0.43319,0.014324,0.00982998,951,1625,1.9287,-7.93082
-266,-601,1.94824,8.03491,0.00964315,-0.0112832,-0.0102579,0.0138327,-0.0154728,-0.387745,0.0169284,0.012609,958,1625,1.94827,-8.03496
-259,-601,1.97644,8.07336,0.0136355,-0.0128321,-0.0106822,0.0174088,-0.0166054,-0.339555,0.0196399,0.0227579,965,1625,1.97645,-8.07333
-252,-601,2.00739,8.03333,0.0183203,-0.0138463,-0.0107549,0.0215849,-0.0171109,-0.294705,0.0223908,0.039853,972,1625,2.0074,-8.03327
-245,-601,2.29895,7.70032,0.0211832,-0.0124955,-0.00913414,0.023501,-0.0148133,-0.248506,0.0223095,0.0424246,979,1625,2.29892,-7.7003
-238,-601,2.85706,7.58276,0.0209927,-0.00708152,-0.00630005,0.0223416,-0.00843047,-0.210934,0.0183614,0.0446812,986,1625,2.85703,-7.58277
-231,-601,3.45081,7.70508,0,0,0,0,0,0,0,-1,993,1625,3.45083,-7.70512
-224,-601,3.94336,10.8114,0,0,0,0,0,0,0,-1,1000,1625,3.94336,-10.8114
-217,-601,3.39429,10.3898,0,0,0,0,0,0,0,-1,1007,1625,3.39431,-10.3898
-210,-601,2.92413,9.79773,0,0,0,0,0,0,0,-1,1014,1625,2.92411,-9.79773
-203,-601,3.76807,10.0903,0,0,0,0,0,0,0,-1,1021,1625,3.76804,-10.0904
-196,-601,3.29346,10.351,0,0,0,0,0,0,0,-1,1028,1625,3.29348,-10.3509
-189,-601,2.96082,11.0533,0,0,0,0,0,0,0,-1,1035,1625,2.96082,-11.0534
-182,-601,2.24927,10.5371,0,0,0,0,0,0,0,-1,1042,1625,2.24924,-10.5371
-175,-601,6.32422,8.81738,0,0,0,0,0,0,0,-1,1049,1625,6.32421,-8.81733
-168,-601,5.26648,8.73572,0,0,0,0,0,0,0,-1,1056,1625,5.2665,-8.73574
-161,-601,-1.26624,9.79602,0,0,0,0,0,0,0,-1,1063,1625,-1.26626,-9.79602
-154,-601,2.62634,7.78003,0,0,0,0,0,0,0,-1,1070,1625,2.62639,-7.78001
-147,-601,2.44922,8.26306,0,0,0,0,0,0,0,-1,1077,1625,2.44927,-8.26304
-140,-601,2.90527,9.27393,0,0,0,0,0,0,0,-1,1084,1625,2.90529,-9.27389
-133,-601,3.54932,10.5123,0,0,0,0,0,0,0,-1,1091,1625,3.54929,-10.5123
-126,-601,4.15466,12.4275,0,0,0,0,0,0,0,-1,1098,1625,4.1547,-12.4275
-119,-601,1.22485,9.43457,0,0,0,0,0,0,0,-1,1105,1625,1.22489,-9.43456
-112,-601,0,0,0,0,0,0,0,0,0,-1,1112,1625,0,0
-105,-601,0,0,0,0,0,0,0,0,0,-1,1119,1625,0,0
-98,-601,0,0,0,0,0,0,0,0,0,-1,1126,1625,0,0
-91,-601,0,0,0,0,0,0,0,0,0,-1,1133,1625,0,0
-84,-601,0,0,0,0,0,0,0,0,0,-1,1140,1625,0,0
-77,-601,0,0,0,0,0,0,0,0,0,-1,1147,1625,0,0
-70,-601,0,0,0,0,0,0,0,0,0,-1,1154,1625,0,0
-63,-601,0,0,0,0,0,0,0,0,0,-1,1161,1625,0,0
-56,-601,0,0,0,0,0,0,0,0,0,-1,1168,1625,0,0
-49,-601,0,0,0,0,0,0,0,0,0,-1,1175,1625,0,0
-42,-601,0,0,0,0,0,0,0,0,0,-1,1182,1625,0,0
-35,-601,0,0,0,0,0,0,0,0,0,-1,1189,1625,0,0
-28,-601,0,0,0,0,0,0,0,0,0,-1,1196,1625,0,0
-21,-601,0,0,0,0,0,0,0,0,0,-1,1203,1625,0,0
-14,-601,0,0,0,0,0,0,0,0,0,-1,1210,1625,0,0
-7,-601,0,0,0,0,0,0,0,0,0,-1,1217,1625,0,0
0,-601,0,0,0,0,0,0,0,0,0,-1,1224,1625,0,0
7,-601,0,0,0,0,0,0,0,0,0,-1,1231,1625,0,0
14,-601,0,0,0,0,0,0,0,0,0,-1,1238,1625,0,0
21,-601,0,0,0,0,0,0,0,0,0,-1,1245,1625,0,0
28,-601,0,0,0,0,0,0,0,0,0,-1,1252,1625,0,0
35,-601,0,0,0,0,0,0,0,0,0,-1,1259,1625,0,0
42,-601,0,0,0,0,0,0,0,0,0,-1,1266,1625,0,0
49,-601,0,0,0,0,0,0,0,0,0,-1,1273,1625,0,0
56,-601,0,0,0,0,0,0,0,0,0,-1,1280,1625,0,0
63,-601,0,0,0,0,0,0,0,0,0,-1,1287,1625,0,0
70,-601,0,0,0,0,0,0,0,0,0,-1,1294,1625,0,0
77,-601,0,0,0,0,0,0,0,0,0,-1,1301,1625,0,0
84,-601,0,0,0,0,0,0,0,0,0,-1,1308,1625,0,0
91,-601,0,0,0,0,0,0,0,0,0,-1,1315,1625,0,0
98,-601,0,0,0,0,0,0,0,0,0,-1,1322,1625,0,0
105,-601,0,0,0,0,0,0,0,0,0,-1,1329,1625,0,0
112,-601,0,0,0,0,0,0,0,0,0,-1,1336,1625,0,0
119,-601,0,0,0,0,0,0,0,0,0,-1,1343,1625,0,0
126,-601,0,0,0,0,0,0,0,0,0,-1,1350,1625,0,0
133,-601,0,0,0,0,0,0,0,0,0,-1,1357,1625,0,0
140,-601,0,0,0,0,0,0,0,0,0,-1,1364,1625,0,0
147,-601,0,0,0,0,0,0,0,0,0,-1,1371,1625,0,0
154,-601,0,0,0,0,0,0,0,0,0,-1,1378,1625,0,0
161,-601,0,0,0,0,0,0,0,0,0,-1,1385,1625,0,0
168,-601,0,0,0,0,0,0,0,0,0,-1,1392,1625,0,0
175,-601,0,0,0,0,0,0,0,0,0,-1,1399,1625,0,0
182,-601,0,0,0,0,0,0,0,0,0,-1,1406,1625,0,0
189,-601,0,0,0,0,0,0,0,0,0,-1,1413,1625,0,0
196,-601,0,0,0,0,0,0,0,0,0,-1,1420,1625,0,0
203,-601,0,0,0,0,0,0,0,0,0,-1,1427,1625,0,0
210,-601,0,0,0,0,0,0,0,0,0,-1,1434,1625,0,0
217,-601,0,0,0,0,0,0,0,0,0,-1,1441,1625,0,0
224,-601,0,0,0,0,0,0,0,0,0,-1,1448,1625,0,0
231,-601,-0.0371094,0.525879,0,0,0,0,0,0,0,-1,1455,1625,-0.0371518,-0.525824
238,-601,2.03369,-1.32861,0,0,0,0,0,0,0,-1,1462,1625,2.03364,1.32858
245,-601,2.71375,2.44983,0,0,0,0,0,0,0,-1,1469,1625,2.71371,-2.44979
252,-601,4.66943,2.28381,0,0,0,0,0,0,0,-1,1476,1625,4.66947,-2.28376
259,-601,6.42712,2.61987,0,0,0,0,0,0,0,-1,1483,1625,6.42711,-2.61985
266,-601,6.75317,1.68701,0,0,0,0,0,0,0,-1,1490,1625,6.75323,-1.687
273,-601,5.4314,2.92053,0,0,0,0,0,0,0,-1,1497,1625,5.43144,-2.92051
280,-601,4.53711,2.09058,0,0,0,0,0,0,0,-1,1504,1625,4.53706,-2.09056
287,-601,5.21082,2.94202,0,0,0,0,0,0,0,-1,1511,1625,5.21086,-2.94207
294,-601,5.88416,3.81384,0,0,0,0,0,0,0,-1,1518,1625,5.88417,-3.81387
301,-601,6.11011,4.85205,0,0,0,0,0,0,0,-1,1525,1625,6.11005,-4.85201
308,-601,5.84155,5.61719,0,0,0,0,0,0,0,-1,1532,1625,5.84151,-5.61722
315,-601,5.63831,8.42468,0,0,0,0,0,0,0,-1,1539,1625,5.63834,-8.42468
322,-601,4.18652,8.92029,0,0,0,0,0,0,0,-1,1546,1625,4.18652,-8.92023
329,-601,3.6687,9.27234,0,0,0,0,0,0,0,-1,1553,1625,3.66869,-9.27228
336,-601,12.0363,3.21594,0,0,0,0,0,0,0,-1,1560,1625,12.0363,-3.21591
343,-601,11.1404,3.14575,0,0,0,0,0,0,0,-1,1567,1625,11.1404,-3.1458
350,-601,10.9462,2.37769,0,0,0,0,0,0,0,-1,1574,1625,10.9461,-2.37764
357,-601,10.7518,1.6095,0,0,0,0,0,0,0,-1,1581,1625,10.7518,-1.60948
364,-601,5.33643,9.74426,0,0,0,0,0,0,0,-1,1588,1625,5.33637,-9.74429
371,-601,5.06763,9.22278,0,0,0,0,0,0,0,-1,1595,1625,5.06758,-9.22276
378,-601,5.23206,9.03076,0,0,0,0,0,0,0,-1,1602,1625,5.23207,-9.03079
385,-601,5.4231,8.84546,0,0,0,0,0,0,0,-1,1609,1625,5.42306,-8.84549
392,-601,5.29346,8.66504,-0.00601552,-0.00533336,0.00455114,-0.00111054,-0.0102383,0.8228,0.00648715,0.0412927,1616,1625,5.29345,-8.66499
399,-601,5.25269,8.78748,-0.00558437,-0.00510532,0.00422901,-0.00110906,-0.00958063,0.813687,0.00605137,0.0208712,1623,1625,5.25264,-8.78743
406,-601,5.34326,8.69397,-0.00496323,-0.0048312,0.00393317,-0.000963491,-0.00883094,0.793789,0.00559386,0.0141322,1630,1625,5.3432,-8.69393
413,-601,5.33618,8.59961,-0.00437067,-0.00454152,0.00363809,-0.000817002,-0.00809518,0.77366,0.00514612,0.0119361,1637,1625,5.33621,-8.59964
420,-601,5.33521,8.53918,-0.00371624,-0.00414379,0.00329174,-0.000631341,-0.00722869,0.752972,0.00462307,0.00918792,1644,1625,5.33518,-8.53924
427,-601,5.35938,8.43298,-0.00315552,-0.00376032,0.00299097,-0.000451697,-0.00646414,0.735018,0.00416703,0.0135334,1651,1625,5.35936,-8.43296
434,-601,5.34363,8.3031,-0.00261332,-0.00330541,0.00260127,-0.000335175,-0.00558355,0.719272,0.00361583,0.0146783,1658,1625,5.34357,-8.30313
441,-601,5.34521,8.18579,-0.0021707,-0.00278955,0.00221567,-0.000242955,-0.0047173,0.716021,0.00306709,0.0163993,1665,1625,5.34526,-8.18583
448,-601,5.32983,8.07874,-0.00193223,-0.00208748,0.00186095,-0.000147288,-0.00387242,0.764554,0.00253395,0.0144915,1672,1625,5.32984,-8.07867
455,-601,5.34229,7.95398,-0.00180609,-0.00137076,0.00150205,-7.06845e-05,-0.00310616,0.857354,0.00204762,0.0127588,1679,1625,5.34234,-7.95396
462,-601,5.35449,7.82129,-0.00163999,-0.000606334,0.00116671,0.000152897,-0.00239923,0.993898,0.00165281,0.01104,1686,1625,5.35444,-7.82125
469,-601,5.34265,7.69714,-0.00189051,0.000511811,0.000939322,0.000835482,-0.00221419,1.23896,0.00181971,0.0107364,1693,1625,5.34259,-7.6972
476,-601,5.33057,7.58691,-0.0023689,0.00165828,0.000743252,0.00179108,-0.0025017,1.39399,0.00248973,0.0128317,1700,1625,5.33056,-7.58696
483,-601,5.31738,7.45483,-0.00283361,0.00293075,0.000576188,0.00298778,-0.00289064,1.47214,0.00339406,0.0156785,1707,1625,5.31738,-7.45477
490,-601,5.32764,7.32568,-0.00272172,0.00599168,-0.000632943,0.00603742,-0.00276746,-1.49866,0.00519904,0.0121365,1714,1625,5.32758,-7.32568
497,-601,5.33496,7.20081,-0.00262252,0.00848447,-0.00160218,0.00871097,-0.00284901,-1.43036,0.00695431,0.00970707,1721,1625,5.335,-7.20079
504,-601,5.3374,7.04968,-0.00249818,0.0118252,-0.00286635,0.0123775,-0.00305049,-1.38044,0.00943437,0.0119499,1728,1625,5.33736,-7.04963
511,-601,5.33362,6.92432,-0.00201988,0.016094,-0.00465563,0.0172205,-0.00314641,-1.33339,0.0126601,0.0212262,1735,1625,5.33366,-6.92435
518,-601,5.26892,6.77173,-0.00100655,0.0216516,-0.00730914,0.0238048,-0.00315973,-1.28431,0.0170212,0.0318053,1742,1625,5.26886,-6.7717
525,-601,5.20496,6.65332,0.000774093,0.0290576,-0.0110348,0.0328535,-0.00302173,-1.23949,0.0229759,0.0427112,1749,1625,5.20496,-6.65334
532,-601,5.18384,6.48279,0,0,0,0,0,0,0,-1,1756,1625,5.18381,-6.48279
539,-601,5.98364,2.99072,0.0074698,0.0512381,-0.0232355,0.0612727,-0.00256478,-1.16313,0.0417297,0.0474835,1763,1625,5.98358,-2.99068
546,-601,6.56873,3.62354,0,0,0,0,0,0,0,-1,1770,1625,6.56867,-3.62352
553,-601,7.03015,4.25049,0,0,0,0,0,0,0,-1,1777,1625,7.03011,-4.25048
560,-601,7.50745,4.83374,0,0,0,0,0,0,0,-1,1784,1625,7.50744,-4.83376
567,-601,7.82043,3.83301,0,0,0,0,0,0,0,-1,1791,1625,7.82041,-3.83303
574,-601,0,0,0,0,0,0,0,0,0,-1,1798,1625,0,0
581,-601,0,0,0,0,0,0,0,0,0,-1,1805,1625,0,0
588,-601,0,0,0,0,0,0,0,0,0,-1,1812,1625,0,0
595,-601,0,0,0,0,0,0,0,0,0,-1,1819,1625,0,0
602,-601,0,0,0,0,0,0,0,0,0,-1,1826,1625,0,0
609,-601,0,0,0,0,0,0,0,0,0,-1,1833,1625,0,0
616,-601,0,0,0,0,0,0,0,0,0,-1,1840,1625,0,0
623,-601,0,0,0,0,0,0,0,0,0,-1,1847,1625,0,0
630,-601,0,0,0,0,0,0,0,0,0,-1,1854,1625,0,0
637,-601,0,0,0,0,0,0,0,0,0,-1,1861,1625,0,0
644,-601,0,0,0,0,0,0,0,0,0,-1,1868,1625,0,0
651,-601,0,0,0,0,0,0,0,0,0,-1,1875,1625,0,0
658,-601,0,0,0,0,0,0,0,0,0,-1,1882,1625,0,0
665,-601,0,0,0,0,0,0,0,0,0,-1,1889,1625,0,0
672,-601,0,0,0,0,0,0,0,0,0,-1,1896,1625,0,0
679,-601,0,0,0,0,0,0,0,0,0,-1,1903,1625,0,0
686,-601,0,0,0,0,0,0,0,0,0,-1,1910,1625,0,0
693,-601,0,0,0,0,0,0,0,0,0,-1,1917,1625,0,0
700,-601,0,0,0,0,0,0,0,0,0,-1,1924,1625,0,0
707,-601,0,0,0,0,0,0,0,0,0,-1,1931,1625,0,0
714,-601,0,0,0,0,0,0,0,0,0,-1,1938,1625,0,0
721,-601,0,0,0,0,0,0,0,0,0,-1,1945,1625,0,0
728,-601,0,0,0,0,0,0,0,0,0,-1,1952,1625,0,0
735,-601,0,0,0,0,0,0,0,0,0,-1,1959,1625,0,0
742,-601,0,0,0,0,0,0,0,0,0,-1,1966,1625,0,0
749,-601,0,0,0,0,0,0,0,0,0,-1,1973,1625,0,0
756,-601,0,0,0,0,0,0,0,0,0,-1,1980,1625,0,0
763,-601,0,0,0,0,0,0,0,0,0,-1,1987,1625,0,0
770,-601,0,0,0,0,0,0,0,0,0,-1,1994,1625,0,0
777,-601,0,0,0,0,0,0,0,0,0,-1,2001,1625,0,0
784,-601,0,0,0,0,0,0,0,0,0,-1,2008,1625,0,0
791,-601,0,0,0,0,0,0,0,0,0,-1,2015,1625,0,0
798,-601,0,0,0,0,0,0,0,0,0,-1,2022,1625,0,0
805,-601,0,0,0,0,0,0,0,0,0,-1,2029,1625,0,0
812,-601,0,0,0,0,0,0,0,0,0,-1,2036,1625,0,0
-700,-608,0,0,0,0,0,0,0,0,0,-1,524,1632,0,0
-693,-608,0,0,0,0,0,0,0,0,0,-1,531,1632,0,0
-686,-608,0,0,0,0,0,0,0,0,0,-1,538,1632,0,0
-679,-608,0,0,0,0,0,0,0,0,0,-1,545,1632,0,0
-672,-608,0,0,0,0,0,0,0,0,0,-1,552,1632,0,0
-665,-608,0,0,0,0,0,0,0,0,0,-1,559,1632,0,0
-658,-608,0,0,0,0,0,0,0,0,0,-1,566,1632,0,0
-651,-608,0,0,0,0,0,0,0,0,0,-1,573,1632,0,0
-644,-608,0,0,0,0,0,0,0,0,0,-1,580,1632,0,0
-637,-608,0,0,0,0,0,0,0,0,0,-1,587,1632,0,0
-630,-608,0,0,0,0,0,0,0,0,0,-1,594,1632,0,0
-623,-608,0,0,0,0,0,0,0,0,0,-1,601,1632,0,0
-616,-608,0,0,0,0,0,0,0,0,0,-1,608,1632,0,0
-609,-608,0,0,0,0,0,0,0,0,0,-1,615,1632,0,0
-602,-608,0,0,0,0,0,0,0,0,0,-1,622,1632,0,0
-595,-608,0,0,0,0,0,0,0,0,0,-1,629,1632,0,0
-588,-608,0,0,0,0,0,0,0,0,0,-1,636,1632,0,0
-581,-608,0,0,0,0,0,0,0,0,0,-1,643,1632,0,0
-574,-608,0,0,0,0,0,0,0,0,0,-1,650,1632,0,0
-567,-608,0,0,0,0,0,0,0,0,0,-1,657,1632,0,0
-560,-608,0,0,0,0,0,0,0,0,0,-1,664,1632,0,0
-553,-608,0,0,0,0,0,0,0,0,0,-1,671,1632,0,0
-546,-608,0,0,0,0,0,0,0,0,0,-1,678,1632,0,0
-539,-608,0,0,0,0,0,0,0,0,0,-1,685,1632,0,0
-532,-608,0,0,0,0,0,0,0,0,0,-1,692,1632,0,0
-525,-608,0,0,0,0,0,0,0,0,0,-1,699,1632,0,0
-518,-608,0,0,0,0,0,0,0,0,0,-1,706,1632,0,0
-511,-608,0,0,0,0,0,0,0,0,0,-1,713,1632,0,0
-504,-608,0,0,0,0,0,0,0,0,0,-1,720,1632,0,0
-497,-608,0,0,0,0,0,0,0,0,0,-1,727,1632,0,0
-490,-608,0,0,0,0,0,0,0,0,0,-1,734,1632,0,0
-483,-608,0,0,0,0,0,0,0,0,0,-1,741,1632,0,0
-476,-608,0,0,0,0,0,0,0,0,0,-1,748,1632,0,0
-469,-608,0,0,0,0,0,0,0,0,0,-1,755,1632,0,0
-462,-608,0,0,0,0,0,0,0,0,0,-1,762,1632,0,0
-455,-608,0,0,0,0,0,0,0,0,0,-1,769,1632,0,0
-448,-608,0,0,0,0,0,0,0,0,0,-1,776,1632,0,0
-441,-608,-6.32678,2.71777,0,0,0,0,0,0,0,-1,783,1632,-6.32678,-2.71781
-434,-608,-6.13354,3.21924,0,0,0,0,0,0,0,-1,790,1632,-6.13352,-3.21929
-427,-608,-6.1748,3.7915,0,0,0,0,0,0,0,-1,797,1632,-6.17482,-3.7915
-420,-608,-6.05768,4.29639,0,0,0,0,0,0,0,-1,804,1632,-6.05765,-4.2964
-413,-608,-4.70862,5.37256,0,0,0,0,0,0,0,-1,811,1632,-4.70864,-5.37253
-406,-608,-3.46881,5.92822,0,0,0,0,0,0,0,-1,818,1632,-3.46882,-5.92821
-399,-608,-2.31787,6.57324,0,0,0,0,0,0,0,-1,825,1632,-2.31784,-6.57323
-392,-608,2.28595,5.77002,0,0,0,0,0,0,0,-1,832,1632,2.28594,-5.77001
-385,-608,2.0592,6.12012,0,0,0,0,0,0,0,-1,839,1632,2.05919,-6.12017
-378,-608,1.75348,6.48352,-0.0042005,-0.0055242,-0.00606907,0.0012427,-0.0109674,-0.731086,0.00775907,0.045885,846,1632,1.75349,-6.48357
-371,-608,2.09784,6.07434,-0.00324864,-0.00651629,-0.00508862,0.000462017,-0.0102269,-0.63006,0.00697707,0.0371251,853,1632,2.09785,-6.0743
-364,-608,2.06897,6.10596,-0.00221156,-0.00650239,-0.00388363,7.98469e-05,-0.00879379,-0.533046,0.00588932,0.0146612,860,1632,2.06895,-6.10591
-357,-608,2.04852,6.27698,-0.00132934,-0.00635906,-0.00294207,2.62426e-05,-0.00771463,-0.431763,0.00515186,0.0110989,867,1632,2.04853,-6.277
-350,-608,2.05267,6.46619,-0.000674875,-0.00549281,-0.00210017,0.00011207,-0.00627976,-0.358512,0.00422436,0.0169944,874,1632,2.05266,-6.46617
-343,-608,2.04535,6.63879,-0.000242401,-0.00447142,-0.00135297,0.000153401,-0.00486723,-0.284603,0.00329714,0.0214208,881,1632,2.04535,-6.63877
-336,-608,2.05658,6.72754,0.000201546,-0.00346254,-0.000926177,0.000422351,-0.00368335,-0.234036,0.00260777,0.0140983,888,1632,2.05656,-6.72756
-329,-608,2.03522,6.875,0.000545654,-0.00279543,-0.000546361,0.000632729,-0.00288251,-0.158045,0.00216364,0.0128773,895,1632,2.03521,-6.87497
-322,-608,2.02472,7.01965,0.00028412,-0.00187165,-0.000685043,0.000483389,-0.00207091,-0.283073,0.0015668,0.0130006,902,1632,2.02475,-7.01968
-315,-608,2.03992,7.1394,0.000167373,-0.00169097,-0.00100768,0.000608891,-0.00213249,-0.412956,0.00166222,0.0116748,909,1632,2.03991,-7.13936
-308,-608,2.03577,7.28186,0.000342832,-0.00195224,-0.00181906,0.00134607,-0.00295548,-0.504004,0.00254078,0.0122183,916,1632,2.03577,-7.2818
-301,-608,2.04474,7.42871,0.000990518,-0.00289713,-0.00257734,0.00227488,-0.00418148,-0.462308,0.00378137,0.00977936,923,1632,2.04475,-7.42868
-294,-608,2.05414,7.55103,0.00174833,-0.00397821,-0.00329903,0.00325335,-0.00548323,-0.427997,0.00509854,0.00982362,930,1632,2.05412,-7.55107
-287,-608,2.03113,7.67493,0.00300352,-0.00460021,-0.00406484,0.00476736,-0.00636405,-0.409408,0.00644872,0.0100151,937,1632,2.03115,-7.67491
-280,-608,2.03308,7.8042,0.00438867,-0.00582206,-0.00486829,0.00633774,-0.00777113,-0.380817,0.00815976,0.00837439,944,1632,2.03307,-7.80418
-273,-608,2.02435,7.94153,0.00626635,-0.00707843,-0.00560949,0.00831103,-0.0091231,-0.349536,0.0100692,0.00812165,951,1632,2.02438,-7.94156
-266,-608,2.05383,8.07532,0.00862132,-0.00827004,-0.00620837,0.0106577,-0.0103064,-0.316946,0.0121042,0.00790794,958,1632,2.05382,-8.07528
-259,-608,2.07727,8.15894,0.0114932,-0.00952855,-0.0065504,0.0133672,-0.0114026,-0.278653,0.0143159,0.0106948,965,1632,2.07728,-8.15897
-252,-608,2.0553,8.24316,0.0148052,-0.0104292,-0.00667368,0.0164615,-0.0120855,-0.243263,0.016546,0.0224631,972,1632,2.05527,-8.24315
-245,-608,2.04236,8.41602,0.0163575,-0.00946933,-0.00565373,0.017541,-0.0106528,-0.206339,0.0164388,0.0361064,979,1632,2.04233,-8.41606
-238,-608,3.30457,8.02148,0,0,0,0,0,0,0,-1,986,1632,3.30457,-8.02154
-231,-608,1.87634,8.46338,0,0,0,0,0,0,0,-1,993,1632,1.87634,-8.46343
-224,-608,2.17542,8.41687,0,0,0,0,0,0,0,-1,1000,1632,2.17544,-8.41688
-217,-608,3.67822,10.219,0,0,0,0,0,0,0,-1,1007,1632,3.67825,-10.2189
-210,-608,4.19153,9.40759,0,0,0,0,0,0,0,-1,1014,1632,4.19152,-9.40765
-203,-608,3.76404,9.7135,0,0,0,0,0,0,0,-1,1021,1632,3.76399,-9.71348
-196,-608,3.29565,10.0216,-0.0228384,0.0446018,0.007743,0.0454794,-0.023716,1.45794,0.0406033,0.0470869,1028,1632,3.2957,-10.0216
-189,-608,2.90332,10.397,-0.0341071,0.0552951,0.00609649,0.0557089,-0.0345209,1.50302,0.0525708,0.0410627,1035,1632,2.90332,-10.397
-182,-608,1.88452,10.2228,0,0,0,0,0,0,0,-1,1042,1632,1.88457,-10.2227
-175,-608,0.834473,9.66211,0,0,0,0,0,0,0,-1,1049,1632,0.834413,-9.6621
-168,-608,1.13831,10.4353,0,0,0,0,0,0,0,-1,1056,1632,1.13828,-10.4353
-161,-608,-0.199463,9.08765,0,0,0,0,0,0,0,-1,1063,1632,-0.199523,-9.08763
-154,-608,-1.00415,7.28113,0,0,0,0,0,0,0,-1,1070,1632,-1.00413,-7.28117
-147,-608,2.42468,8.17383,0,0,0,0,0,0,0,-1,1077,1632,2.42469,-8.17389
-140,-608,2.81531,9.28625,0,0,0,0,0,0,0,-1,1084,1632,2.81536,-9.28626
-133,-608,3.26477,10.4989,0,0,0,0,0,0,0,-1,1091,1632,3.26472,-10.499
-126,-608,1.52026,10.3997,0,0,0,0,0,0,0,-1,1098,1632,1.52029,-10.3997
-119,-608,2.94373,10.7039,0,0,0,0,0,0,0,-1,1105,1632,2.94376,-10.7038
-112,-608,0.745117,10.5587,0,0,0,0,0,0,0,-1,1112,1632,0.745145,-10.5587
-105,-608,-0.252319,1.42419,0,0,0,0,0,0,0,-1,1119,1632,-0.252331,-1.42418
-98,-608,-1.67896,0.994629,0,0,0,0,0,0,0,-1,1126,1632,-1.67895,-0.994599
-91,-608,-2.99451,0.744629,0,0,0,0,0,0,0,-1,1133,1632,-2.99453,-0.744605
-84,-608,0,0,0,0,0,0,0,0,0,-1,1140,1632,0,0
-77,-608,0,0,0,0,0,0,0,0,0,-1,1147,1632,0,0
-70,-608,0,0,0,0,0,0,0,0,0,-1,1154,1632,0,0
-63,-608,0,0,0,0,0,0,0,0,0,-1,1161,1632,0,0
-56,-608,0,0,0,0,0,0,0,0,0,-1,1168,1632,0,0
-49,-608,0,0,0,0,0,0,0,0,0,-1,1175,1632,0,0
-42,-608,0,0,0,0,0,0,0,0,0,-1,1182,1632,0,0
-35,-608,0,0,0,0,0,0,0,0,0,-1,1189,1632,0,0
-28,-608,0,0,0,0,0,0,0,0,0,-1,1196,1632,0,0
-21,-608,0,0,0,0,0,0,0,0,0,-1,1203,1632,0,0
-14,-608,0,0,0,0,0,0,0,0,0,-1,1210,1632,0,0
-7,-608,0,0,0,0,0,0,0,0,0,-1,1217,1632,0,0
0,-608,0,0,0,0,0,0,0,0,0,-1,1224,1632,0,0
7,-608,0,0,0,0,0,0,0,0,0,-1,1231,1632,0,0
14,-608,0,0,0,0,0,0,0,0,0,-1,1238,1632,0,0
21,-608,0,0,0,0,0,0,0,0,0,-1,1245,1632,0,0
28,-608,0,0,0,0,0,0,0,0,0,-1,1252,1632,0,0
35,-608,0,0,0,0,0,0,0,0,0,-1,1259,1632,0,0
42,-608,0,0,0,0,0,0,0,0,0,-1,1266,1632,0,0
49,-608,0,0,0,0,0,0,0,0,0,-1,1273,1632,0,0
56,-608,0,0,0,0,0,0,0,0,0,-1,1280,1632,0,0
63,-608,0,0,0,0,0,0,0,0,0,-1,1287,1632,0,0
70,-608,0,0,0,0,0,0,0,0,0,-1,1294,1632,0,0
77,-608,0,0,0,0,0,0,0,0,0,-1,1301,1632,0,0
84,-608,0,0,0,0,0,0,0,0,0,-1,1308,1632,0,0
91,-608,0,0,0,0,0,0,0,0,0,-1,1315,1632,0,0
98,-608,0,0,0,0,0,0,0,0,0,-1,1322,1632,0,0
105,-608,0,0,0,0,0,0,0,0,0,-1,1329,1632,0,0
112,-608,0,0,0,0,0,0,0,0,0,-1,1336,1632,0,0
119,-608,0,0,0,0,0,0,0,0,0,-1,1343,1632,0,0
126,-608,0,0,0,0,0,0,0,0,0,-1,1350,1632,0,0
133,-608,0,0,0,0,0,0,0,0,0,-1,1357,1632,0,0
140,-608,0,0,0,0,0,0,0,0,0,-1,1364,1632,0,0
147,-608,0,0,0,0,0,0,0,0,0,-1,1371,1632,0,0
154,-608,0,0,0,0,0,0,0,0,0,-1,1378,1632,0,0
161,-608,0,0,0,0,0,0,0,0,0,-1,1385,1632,0,0
168,-608,0,0,0,0,0,0,0,0,0,-1,1392,1632,0,0
175,-608,0,0,0,0,0,0,0,0,0,-1,1399,1632,0,0
182,-608,0,0,0,0,0,0,0,0,0,-1,1406,1632,0,0
189,-608,0,0,0,0,0,0,0,0,0,-1,1413,1632,0,0
196,-608,0,0,0,0,0,0,0,0,0,-1,1420,1632,0,0
203,-608,0,0,0,0,0,0,0,0,0,-1,1427,1632,0,0
210,-608,5.7157,-0.333008,0,0,0,0,0,0,0,-1,1434,1632,5.71566,0.333004
217,-608,4.49402,-0.831787,0,0,0,0,0,0,0,-1,1441,1632,4.49396,0.831738
224,-608,4.18018,-1.11792,0,0,0,0,0,0,0,-1,1448,1632,4.1802,1.11796
231,-608,0.361816,0.825195,0,0,0,0,0,0,0,-1,1455,1632,0.36185,-0.825226
238,-608,2.85388,-0.28833,0,0,0,0,0,0,0,-1,1462,1632,2.85391,0.288282
245,-608,3.87537,4.02173,0,0,0,0,0,0,0,-1,1469,1632,3.87538,-4.02168
252,-608,5.66956,3.5282,0,0,0,0,0,0,0,-1,1476,1632,5.6696,-3.52815
259,-608,7.47437,3.07178,0,0,0,0,0,0,0,-1,1483,1632,7.4744,-3.07172
266,-608,9.46936,2.34766,0,0,0,0,0,0,0,-1,1490,1632,9.46932,-2.34764
273,-608,6.03003,3.34241,0,0,0,0,0,0,0,-1,1497,1632,6.02997,-3.34245
280,-608,6.43201,2.97571,0,0,0,0,0,0,0,-1,1504,1632,6.43203,-2.97567
287,-608,5.74915,3.70764,0,0,0,0,0,0,0,-1,1511,1632,5.74914,-3.70758
294,-608,6.21948,4.65015,0,0,0,0,0,0,0,-1,1518,1632,6.21952,-4.65009
301,-608,6.31677,5.4845,0,0,0,0,0,0,0,-1,1525,1632,6.31676,-5.48454
308,-608,5.40222,9.1532,0,0,0,0,0,0,0,-1,1532,1632,5.40216,-9.15325
315,-608,4.97791,9.41272,0,0,0,0,0,0,0,-1,1539,1632,4.97796,-9.41271
322,-608,4.39844,9.93701,0,0,0,0,0,0,0,-1,1546,1632,4.3984,-9.93702
329,-608,4.10803,9.92224,0,0,0,0,0,0,0,-1,1553,1632,4.10808,-9.92218
336,-608,4.01758,9.37366,0,0,0,0,0,0,0,-1,1560,1632,4.01759,-9.37368
343,-608,5.47192,5.61047,0,0,0,0,0,0,0,-1,1567,1632,5.47192,-5.61045
350,-608,11.6957,1.71387,0,0,0,0,0,0,0,-1,1574,1632,11.6957,-1.71388
357,-608,3.77002,5.10046,0,0,0,0,0,0,0,-1,1581,1632,3.77002,-5.10043
364,-608,4.88794,9.21838,0,0,0,0,0,0,0,-1,1588,1632,4.888,-9.21844
371,-608,4.94751,9.15845,-0.00198645,-0.0025107,0.00429613,0.00205554,-0.00655269,0.754929,0.00519112,0.0455164,1595,1632,4.94749,-9.15843
378,-608,5.12671,9.09314,-0.00309596,-0.00331536,0.00394016,0.000736032,-0.00714735,0.771481,0.00502823,0.0372511,1602,1632,5.12669,-9.09317
385,-608,5.23816,8.97388,-0.00365158,-0.00430641,0.00368356,-0.000280915,-0.00767708,0.741072,0.00502703,0.0318756,1609,1632,5.23816,-8.9739
392,-608,5.20068,8.89331,-0.00365198,-0.00444936,0.00356435,-0.000464088,-0.00763725,0.729702,0.00494407,0.0209751,1616,1632,5.20072,-8.89332
399,-608,5.19849,8.83984,-0.0034628,-0.00410313,0.0031866,-0.00058032,-0.00698561,0.73533,0.00447619,0.0110096,1623,1632,5.19854,-8.83988
406,-608,5.2179,8.74841,-0.00317888,-0.0037404,0.00292522,-0.000520978,-0.0063983,0.737556,0.00410292,0.00933129,1630,1632,5.21786,-8.74844
413,-608,5.21411,8.6405,-0.00283232,-0.00334135,0.00269312,-0.000381722,-0.00579195,0.738285,0.00374056,0.00910187,1637,1632,5.21416,-8.64046
420,-608,5.21399,8.52588,-0.00242999,-0.00288192,0.00241833,-0.000227094,-0.00508482,0.738815,0.00331677,0.0143002,1644,1632,5.21404,-8.52588
427,-608,5.24097,8.40186,-0.002087,-0.00247591,0.0022229,-5.00621e-05,-0.00451285,0.74177,0.00299202,0.0171268,1651,1632,5.241,-8.40191
434,-608,5.22583,8.27698,-0.00173973,-0.00202619,0.00195999,8.22567e-05,-0.00384817,0.748925,0.0025933,0.0142389,1658,1632,5.22584,-8.27692
441,-608,5.20386,8.1842,-0.00151414,-0.00152057,0.00170421,0.000186859,-0.00322157,0.784454,0.00221263,0.012539,1665,1632,5.20383,-8.18419
448,-608,5.21814,8.08032,-0.00152958,-0.000818899,0.00147886,0.000346708,-0.00269519,0.903303,0.00192281,0.0150918,1672,1632,5.21809,-8.08037
455,-608,5.23694,7.9563,-0.00160857,-8.59124e-05,0.00125266,0.00061863,-0.00231311,1.05845,0.0017844,0.0119537,1679,1632,5.23693,-7.95627
462,-608,5.22949,7.82202,-0.00171099,0.0007034,0.00102108,0.00107732,-0.00208491,1.21976,0.00185635,0.0106803,1686,1632,5.22951,-7.82206
469,-608,5.21082,7.70984,-0.00220727,0.00187759,0.000876706,0.0020578,-0.00238749,1.36807,0.00256884,0.00809325,1693,1632,5.21077,-7.70984
476,-608,5.21008,7.5885,-0.00292981,0.00307749,0.000785766,0.00317856,-0.00303089,1.44286,0.00358537,0.00841968,1700,1632,5.21003,-7.58848
483,-608,5.21289,7.45862,-0.00370997,0.00445769,0.000732018,0.00452278,-0.00377506,1.48211,0.00479724,0.00814391,1707,1632,5.21291,-7.45862
490,-608,5.22327,7.32727,-0.00390623,0.00793331,-0.000506045,0.0079549,-0.00392782,-1.52816,0.00699058,0.00871413,1714,1632,5.22331,-7.32724
497,-608,5.2135,7.19641,-0.00410613,0.0108699,-0.00148306,0.0110154,-0.00425159,-1.47303,0.00909818,0.012524,1721,1632,5.21351,-7.19635
504,-608,5.20215,7.03564,-0.00426283,0.0149605,-0.00292462,0.0153956,-0.00469793,-1.42311,0.0121367,0.0252165,1728,1632,5.20213,-7.0357
511,-608,5.22961,6.82153,-0.00406799,0.0204505,-0.00504111,0.0214465,-0.005064,-1.37573,0.0162509,0.0395701,1735,1632,5.2296,-6.82159
518,-608,5.06128,6.42688,-0.00303338,0.0276327,-0.0082936,0.029732,-0.00513266,-1.32288,0.0217352,0.0476135,1742,1632,5.0613,-6.42684
525,-608,5.02087,6.56116,0,0,0,0,0,0,0,-1,1749,1632,5.02082,-6.56122
532,-608,8.54419,1.06445,0,0,0,0,0,0,0,-1,1756,1632,8.54425,-1.06448
539,-608,9.40796,1.43457,0,0,0,0,0,0,0,-1,1763,1632,9.40801,-1.43463
546,-608,9.94031,2.1134,0,0,0,0,0,0,0,-1,1770,1632,9.94031,-2.11346
553,-608,10.363,2.81335,0,0,0,0,0,0,0,-1,1777,1632,10.3631,-2.81333
560,-608,9.23999,4.5636,0,0,0,0,0,0,0,-1,1784,1632,9.24,-4.56354
567,-608,0,0,0,0,0,0,0,0,0,-1,1791,1632,0,0
574,-608,0,0,0,0,0,0,0,0,0,-1,1798,1632,0,0
581,-608,0,0,0,0,0,0,0,0,0,-1,1805,1632,0,0
588,-608,0,0,0,0,0,0,0,0,0,-1,1812,1632,0,0
595,-608,0,0,0,0,0,0,0,0,0,-1,1819,1632,0,0
602,-608,0,0,0,0,0,0,0,0,0,-1,1826,1632,0,0
609,-608,0,0,0,0,0,0,0,0,0,-1,1833,1632,0,0
616,-608,0,0,0,0,0,0,0,0,0,-1,1840,1632,0,0
623,-608,0,0,0,0,0,0,0,0,0,-1,1847,1632,0,0
630,-608,0,0,0,0,0,0,0,0,0,-1,1854,1632,0,0
637,-608,0,0,0,0,0,0,0,0,0,-1,1861,1632,0,0
644,-608,0,0,0,0,0,0,0,0,0,-1,1868,1632,0,0
651,-608,0,0,0,0,0,0,0,0,0,-1,1875,1632,0,0
658,-608,0,0,0,0,0,0,0,0,0,-1,1882,1632,0,0
665,-608,0,0,0,0,0,0,0,0,0,-1,1889,1632,0,0
672,-608,0,0,0,0,0,0,0,0,0,-1,1896,1632,0,0
679,-608,0,0,0,0,0,0,0,0,0,-1,1903,1632,0,0
686,-608,0,0,0,0,0,0,0,0,0,-1,1910,1632,0,0
693,-608,0,0,0,0,0,0,0,0,0,-1,1917,1632,0,0
700,-608,0,0,0,0,0,0,0,0,0,-1,1924,1632,0,0
707,-608,0,0,0,0,0,0,0,0,0,-1,1931,1632,0,0
714,-608,0,0,0,0,0,0,0,0,0,-1,1938,1632,0,0
721,-608,0,0,0,0,0,0,0,0,0,-1,1945,1632,0,0
728,-608,0,0,0,0,0,0,0,0,0,-1,1952,1632,0,0
735,-608,0,0,0,0,0,0,0,0,0,-1,1959,1632,0,0
742,-608,0,0,0,0,0,0,0,0,0,-1,1966,1632,0,0
749,-608,0,0,0,0,0,0,0,0,0,-1,1973,1632,0,0
756,-608,0,0,0,0,0,0,0,0,0,-1,1980,1632,0,0
763,-608,0,0,0,0,0,0,0,0,0,-1,1987,1632,0,0
770,-608,0,0,0,0,0,0,0,0,0,-1,1994,1632,0,0
777,-608,0,0,0,0,0,0,0,0,0,-1,2001,1632,0,0
784,-608,0,0,0,0,0,0,0,0,0,-1,2008,1632,0,0
791,-608,0,0,0,0,0,0,0,0,0,-1,2015,1632,0,0
798,-608,0,0,0,0,0,0,0,0,0,-1,2022,1632,0,0
805,-608,0,0,0,0,0,0,0,0,0,-1,2029,1632,0,0
812,-608,0,0,0,0,0,0,0,0,0,-1,2036,1632,0,0
-700,-615,0,0,0,0,0,0,0,0,0,-1,524,1639,0,0
-693,-615,0,0,0,0,0,0,0,0,0,-1,531,1639,0,0
-686,-615,0,0,0,0,0,0,0,0,0,-1,538,1639,0,0
-679,-615,0,0,0,0,0,0,0,0,0,-1,545,1639,0,0
-672,-615,0,0,0,0,0,0,0,0,0,-1,552,1639,0,0
-665,-615,0,0,0,0,0,0,0,0,0,-1,559,1639,0,0
-658,-615,0,0,0,0,0,0,0,0,0,-1,566,1639,0,0
-651,-615,0,0,0,0,0,0,0,0,0,-1,573,1639,0,0
-644,-615,0,0,0,0,0,0,0,0,0,-1,580,1639,0,0
-637,-615,0,0,0,0,0,0,0,0,0,-1,587,1639,0,0
-630,-615,0,0,0,0,0,0,0,0,0,-1,594,1639,0,0
-623,-615,0,0,0,0,0,0,0,0,0,-1,601,1639,0,0
-616,-615,0,0,0,0,0,0,0,0,0,-1,608,1639,0,0
-609,-615,0,0,0,0,0,0,0,0,0,-1,615,1639,0,0
-602,-615,0,0,0,0,0,0,0,0,0,-1,622,1639,0,0
-595,-615,0,0,0,0,0,0,0,0,0,-1,629,1639,0,0
-588,-615,0,0,0,0,0,0,0,0,0,-1,636,1639,0,0
-581,-615,0,0,0,0,0,0,0,0,0,-1,643,1639,0,0
-574,-615,0,0,0,0,0,0,0,0,0,-1,650,1639,0,0
-567,-615,0,0,0,0,0,0,0,0,0,-1,657,1639,0,0
-560,-615,0,0,0,0,0,0,0,0,0,-1,664,1639,0,0
-553,-615,0,0,0,0,0,0,0,0,0,-1,671,1639,0,0
-546,-615,0,0,0,0,0,0,0,0,0,-1,678,1639,0,0
-539,-615,0,0,0,0,0,0,0,0,0,-1,685,1639,0,0
-532,-615,0,0,0,0,0,0,0,0,0,-1,692,1639,0,0
-525,-615,0,0,0,0,0,0,0,0,0,-1,699,1639,0,0
-518,-615,0,0,0,0,0,0,0,0,0,-1,706,1639,0,0
-511,-615,0,0,0,0,0,0,0,0,0,-1,713,1639,0,0
-504,-615,0,0,0,0,0,0,0,0,0,-1,720,1639,0,0
-497,-615,0,0,0,0,0,0,0,0,0,-1,727,1639,0,0
-490,-615,0,0,0,0,0,0,0,0,0,-1,734,1639,0,0
-483,-615,0,0,0,0,0,0,0,0,0,-1,741,1639,0,0
-476,-615,0,0,0,0,0,0,0,0,0,-1,748,1639,0,0
-469,-615,0,0,0,0,0,0,0,0,0,-1,755,1639,0,0
-462,-615,0,0,0,0,0,0,0,0,0,-1,762,1639,0,0
-455,-615,0,0,0,0,0,0,0,0,0,-1,769,1639,0,0
-448,-615,0,0,0,0,0,0,0,0,0,-1,776,1639,0,0
-441,-615,0,0,0,0,0,0,0,0,0,-1,783,1639,0,0
-434,-615,-6.40979,1.90869,0,0,0,0,0,0,0,-1,790,1639,-6.4098,-1.90863
-427,-615,-6.76465,2.85071,0,0,0,0,0,0,0,-1,797,1639,-6.76462,-2.85075
-420,-615,-5.97089,3.30005,0,0,0,0,0,0,0,-1,804,1639,-5.97087,-3.30005
-413,-615,-4.54907,3.84106,0,0,0,0,0,0,0,-1,811,1639,-4.54904,-3.84112
-406,-615,-3.71051,4.62024,0,0,0,0,0,0,0,-1,818,1639,-3.71048,-4.62028
-399,-615,-2.7702,3.57324,0,0,0,0,0,0,0,-1,825,1639,-2.77022,-3.5733
-392,-615,1.80219,6.14233,0,0,0,0,0,0,0,-1,832,1639,1.80218,-6.14234
-385,-615,2.1228,6.42383,0,0,0,0,0,0,0,-1,839,1639,2.12281,-6.42381
-378,-615,2.38074,6.19861,0,0,0,0,0,0,0,-1,846,1639,2.38073,-6.19855
-371,-615,2.3103,6.1814,-0.00528264,-0.0063995,-0.00807643,0.00225464,-0.0139368,-0.750881,0.0101267,0.0454276,853,1639,2.31032,-6.18143
-364,-615,2.22919,6.24341,-0.00353435,-0.00697851,-0.00575308,0.000748856,-0.0112617,-0.639977,0.00776947,0.0317738,860,1639,2.22919,-6.2434
-357,-615,2.24158,6.35022,-0.00215544,-0.00717674,-0.00406427,0.000111104,-0.00944329,-0.508718,0.00633289,0.0268322,867,1639,2.24159,-6.35018
-350,-615,2.19263,6.45081,-0.00120181,-0.00651012,-0.00271093,-6.20615e-05,-0.00764987,-0.39799,0.00507935,0.0245551,874,1639,2.19262,-6.45078
-343,-615,2.14832,6.62085,-0.000611363,-0.00564526,-0.00169335,-9.47567e-05,-0.00616187,-0.296111,0.00407669,0.0192911,881,1639,2.14834,-6.62082
-336,-615,2.20276,6.73767,-6.94497e-05,-0.00463377,-0.00107105,0.000169382,-0.0048726,-0.219399,0.00330631,0.0105429,888,1639,2.20273,-6.73771
-329,-615,2.19019,6.87219,0.000476045,-0.00398509,-0.000346441,0.000502789,-0.00401183,-0.0770422,0.00285694,0.0104686,895,1639,2.1902,-6.87216
-322,-615,2.17432,7.026,0.000269345,-0.00281786,-0.000259612,0.000291025,-0.00283954,-0.0833132,0.00199711,0.0103207,902,1639,2.17431,-7.02595
-315,-615,2.18085,7.16138,0.000243163,-0.00239992,-0.00029939,0.000276651,-0.00243341,-0.111393,0.00172191,0.0109371,909,1639,2.18087,-7.16139
-308,-615,2.17157,7.27161,0.000448451,-0.00235965,-0.000766496,0.000644048,-0.00255525,-0.249852,0.00195389,0.0170189,916,1639,2.17158,-7.27156
-301,-615,2.18036,7.40625,0.00100186,-0.00290411,-0.0012179,0.00135049,-0.00325274,-0.2788,0.00273227,0.0125575,923,1639,2.18033,-7.40628
-294,-615,2.19904,7.55334,0.00166945,-0.00358323,-0.00165456,0.00214718,-0.00406096,-0.281088,0.0036406,0.0105396,930,1639,2.19904,-7.55335
-287,-615,2.17108,7.67944,0.00270491,-0.00390148,-0.00213716,0.003336,-0.00453257,-0.287131,0.00456039,0.00837962,937,1639,2.17106,-7.67939
-280,-615,2.18158,7.79761,0.00380052,-0.00469239,-0.00265324,0.00456127,-0.00545314,-0.279232,0.00578946,0.00887589,944,1639,2.18159,-7.79762
-273,-615,2.1745,7.93823,0.00524333,-0.00549974,-0.00314274,0.00609515,-0.00635157,-0.264686,0.00718662,0.00899474,951,1639,2.17453,-7.93822
-266,-615,2.15979,8.08069,0.00697022,-0.00624704,-0.00356274,0.00786939,-0.00714621,-0.24722,0.00867261,0.00888271,958,1639,2.1598,-8.08073
-259,-615,2.18774,8.1925,0.00901636,-0.00715119,-0.00380484,0.00986702,-0.00800185,-0.219957,0.0103353,0.0100526,965,1639,2.18774,-8.19245
-252,-615,2.198,8.28699,0.0112939,-0.0077944,-0.0039136,0.0120651,-0.00856563,-0.194571,0.0119681,0.0110234,972,1639,2.19799,-8.28701
-245,-615,2.15637,8.40222,0.0122502,-0.00708194,-0.00316974,0.0127567,-0.00758839,-0.158437,0.0118719,0.0171321,979,1639,2.15636,-8.40216
-238,-615,2.16394,8.53821,0.0116059,-0.00441028,-0.00209457,0.0118753,-0.00467967,-0.127913,0.00985435,0.0259133,986,1639,2.16395,-8.53824
-231,-615,2.19397,8.64209,0.0110234,-0.00162658,-0.00108412,0.0111156,-0.00171882,-0.0848767,0.00804481,0.0341946,993,1639,2.19399,-8.64207
-224,-615,2.35107,8.71777,0,0,0,0,0,0,0,-1,1000,1639,2.35109,-8.71772
-217,-615,2.50311,8.66187,0,0,0,0,0,0,0,-1,1007,1639,2.50312,-8.66182
-210,-615,2.75781,8.31775,0,0,0,0,0,0,0,-1,1014,1639,2.75778,-8.31781
-203,-615,3.48059,9.58765,0,0,0,0,0,0,0,-1,1021,1639,3.48057,-9.5876
-196,-615,3.08997,9.64038,-0.0156001,0.0298253,0.00493948,0.0303563,-0.016131,1.46373,0.0272551,0.0477305,1028,1639,3.08996,-9.64042
-189,-615,2.70068,9.69006,-0.022626,0.0377486,0.00367217,0.0379711,-0.0228485,1.51027,0.0354742,0.0490337,1035,1639,2.70069,-9.69009
-182,-615,2.29297,9.74121,0,0,0,0,0,0,0,-1,1042,1639,2.29298,-9.74115
-175,-615,3.3385,11.2841,0,0,0,0,0,0,0,-1,1049,1639,3.33856,-11.284
-168,-615,2.02783,9.96631,0,0,0,0,0,0,0,-1,1056,1639,2.0278,-9.96637
-161,-615,0.920532,8.41772,0,0,0,0,0,0,0,-1,1063,1639,0.92055,-8.4177
-154,-615,-0.166504,6.7478,0,0,0,0,0,0,0,-1,1070,1639,-0.166529,-6.74776
-147,-615,2.59143,8.1311,0,0,0,0,0,0,0,-1,1077,1639,2.5914,-8.13115
-140,-615,2.9209,9.29688,0,0,0,0,0,0,0,-1,1084,1639,2.92089,-9.29682
-133,-615,0.599121,10.6404,0,0,0,0,0,0,0,-1,1091,1639,0.599089,-10.6404
-126,-615,1.86658,10.9803,0.160006,-0.0660527,0.00821091,0.160304,-0.0663505,0.0362583,0.134555,0.0408004,1098,1639,1.86661,-10.9803
-119,-615,3.16663,11.4897,0.179729,-0.0805542,0.0150626,0.180598,-0.081423,0.0576137,0.154848,0.0422693,1105,1639,3.16666,-11.4897
-112,-615,4.28369,11.9426,0,0,0,0,0,0,0,-1,1112,1639,4.28367,-11.9426
-105,-615,0.958496,2.45398,0,0,0,0,0,0,0,-1,1119,1639,0.958452,-2.45398
-98,-615,-0.647705,2.12109,0,0,0,0,0,0,0,-1,1126,1639,-0.647756,-2.12105
-91,-615,-1.48572,0.604492,0,0,0,0,0,0,0,-1,1133,1639,-1.48576,-0.604443
-84,-615,-2.46509,0.703247,0,0,0,0,0,0,0,-1,1140,1639,-2.46505,-0.703273
-77,-615,-3.17859,1.23755,0,0,0,0,0,0,0,-1,1147,1639,-3.17865,-1.23752
-70,-615,-4.03943,1.43335,0,0,0,0,0,0,0,-1,1154,1639,-4.03942,-1.43339
-63,-615,-4.8877,1.45544,0,0,0,0,0,0,0,-1,1161,1639,-4.88766,-1.45549
-56,-615,0,0,0,0,0,0,0,0,0,-1,1168,1639,0,0
-49,-615,0,0,0,0,0,0,0,0,0,-1,1175,1639,0,0
-42,-615,0,0,0,0,0,0,0,0,0,-1,1182,1639,0,0
-35,-615,0,0,0,0,0,0,0,0,0,-1,1189,1639,0,0
-28,-615,0,0,0,0,0,0,0,0,0,-1,1196,1639,0,0
-21,-615,0,0,0,0,0,0,0,0,0,-1,1203,1639,0,0
-14,-615,0,0,0,0,0,0,0,0,0,-1,1210,1639,0,0
-7,-615,0,0,0,0,0,0,0,0,0,-1,1217,1639,0,0
0,-615,0,0,0,0,0,0,0,0,0,-1,1224,1639,0,0
7,-615,0,0,0,0,0,0,0,0,0,-1,1231,1639,0,0
14,-615,0,0,0,0,0,0,0,0,0,-1,1238,1639,0,0
21,-615,0,0,0,0,0,0,0,0,0,-1,1245,1639,0,0
28,-615,0,0,0,0,0,0,0,0,0,-1,1252,1639,0,0
35,-615,0,0,0,0,0,0,0,0,0,-1,1259,1639,0,0
42,-615,0,0,0,0,0,0,0,0,0,-1,1266,1639,0,0
49,-615,0,0,0,0,0,0,0,0,0,-1,1273,1639,0,0
56,-615,0,0,0,0,0,0,0,0,0,-1,1280,1639,0,0
63,-615,0,0,0,0,0,0,0,0,0,-1,1287,1639,0,0
70,-615,0,0,0,0,0,0,0,0,0,-1,1294,1639,0,0
77,-615,0,0,0,0,0,0,0,0,0,-1,1301,1639,0,0
84,-615,0,0,0,0,0,0,0,0,0,-1,1308,1639,0,0
91,-615,0,0,0,0,0,0,0,0,0,-1,1315,1639,0,0
98,-615,0,0,0,0,0,0,0,0,0,-1,1322,1639,0,0
105,-615,0,0,0,0,0,0,0,0,0,-1,1329,1639,0,0
112,-615,0,0,0,0,0,0,0,0,0,-1,1336,1639,0,0
119,-615,0,0,0,0,0,0,0,0,0,-1,1343,1639,0,0
126,-615,0,0,0,0,0,0,0,0,0,-1,1350,1639,0,0
133,-615,0,0,0,0,0,0,0,0,0,-1,1357,1639,0,0
140,-615,0,0,0,0,0,0,0,0,0,-1,1364,1639,0,0
147,-615,0,0,0,0,0,0,0,0,0,-1,1371,1639,0,0
154,-615,0,0,0,0,0,0,0,0,0,-1,1378,1639,0,0
161,-615,0,0,0,0,0,0,0,0,0,-1,1385,1639,0,0
168,-615,0,0,0,0,0,0,0,0,0,-1,1392,1639,0,0
175,-615,5.39648,-2.00879,0,0,0,0,0,0,0,-1,1399,1639,5.3965,2.00881
182,-615,5.65393,-1.51025,0,0,0,0,0,0,0,-1,1406,1639,5.65388,1.51028
189,-615,5.58972,-1.35608,0,0,0,0,0,0,0,-1,1413,1639,5.58967,1.35607
196,-615,5.49915,-0.693604,0,0,0,0,0,0,0,-1,1420,1639,5.4991,0.693602
203,-615,5.33411,-0.226685,0,0,0,0,0,0,0,-1,1427,1639,5.33414,0.226689
210,-615,5.60278,0.108276,0,0,0,0,0,0,0,-1,1434,1639,5.60284,-0.10831
217,-615,6.26331,-0.307373,0,0,0,0,0,0,0,-1,1441,1639,6.26331,0.307372
224,-615,5.45422,-0.333984,0,0,0,0,0,0,0,-1,1448,1639,5.45422,0.333992
231,-615,4.92542,1.80298,0,0,0,0,0,0,0,-1,1455,1639,4.92537,-1.80297
238,-615,4.76355,1.96729,0,0,0,0,0,0,0,-1,1462,1639,4.76357,-1.96734
245,-615,4.08643,3.15906,0,0,0,0,0,0,0,-1,1469,1639,4.08638,-3.159
252,-615,6.37805,3.73889,0,0,0,0,0,0,0,-1,1476,1639,6.37806,-3.73891
259,-615,8.35974,3.16443,0,0,0,0,0,0,0,-1,1483,1639,8.35975,-3.16444
266,-615,10.3414,2.58997,0,0,0,0,0,0,0,-1,1490,1639,10.3414,-2.58996
273,-615,6.65723,3.51746,0,0,0,0,0,0,0,-1,1497,1639,6.65725,-3.51747
280,-615,8.15344,3.8269,0,0,0,0,0,0,0,-1,1504,1639,8.15348,-3.82695
287,-615,6.26807,4.58826,0,0,0,0,0,0,0,-1,1511,1639,6.26805,-4.58824
294,-615,6.68994,5.66199,0,0,0,0,0,0,0,-1,1518,1639,6.6899,-5.66204
301,-615,5.51306,8.88123,0,0,0,0,0,0,0,-1,1525,1639,5.51311,-8.88128
308,-615,4.96448,9.50452,0,0,0,0,0,0,0,-1,1532,1639,4.96442,-9.50448
315,-615,4.31763,10.4008,0,0,0,0,0,0,0,-1,1539,1639,4.31757,-10.4007
322,-615,4.67993,10.853,0,0,0,0,0,0,0,-1,1546,1639,4.67991,-10.853
329,-615,4.48877,10.301,0,0,0,0,0,0,0,-1,1553,1639,4.48877,-10.301
336,-615,4.29761,9.74902,0,0,0,0,0,0,0,-1,1560,1639,4.29763,-9.74902
343,-615,2.40491,6.50134,0,0,0,0,0,0,0,-1,1567,1639,2.40489,-6.50137
350,-615,5.34778,9.67017,0,0,0,0,0,0,0,-1,1574,1639,5.34781,-9.67015
357,-615,5.23889,9.4823,0,0,0,0,0,0,0,-1,1581,1639,5.23884,-9.48224
364,-615,5.28796,9.20728,0,0,0,0,0,0,0,-1,1588,1639,5.28791,-9.20724
371,-615,5.1239,9.14355,-0.000824843,-0.00170765,0.0035319,0.00229313,-0.00482562,0.723233,0.00419581,0.0373968,1595,1639,5.12393,-9.14349
378,-615,5.0675,9.18689,-0.00163959,-0.00243699,0.00318114,0.00116774,-0.00524432,0.723057,0.00394352,0.0195232,1602,1639,5.0675,-9.18691
385,-615,5.07544,9.05823,-0.00206257,-0.00336593,0.00289342,0.000251647,-0.00568015,0.674632,0.00387337,0.0110924,1609,1639,5.07547,-9.05823
392,-615,5.08057,8.95325,-0.00208973,-0.00346883,0.00269937,6.76792e-06,-0.00556533,0.660348,0.00371248,0.0092482,1616,1639,5.08053,-8.95327
399,-615,5.06934,8.86377,-0.0020352,-0.00306734,0.00235069,-0.000144596,-0.00495794,0.677342,0.00325816,0.0104184,1623,1639,5.06937,-8.86378
406,-615,5.0741,8.75684,-0.00195315,-0.00272775,0.00217383,-0.000132388,-0.00454851,0.697241,0.00298919,0.0110489,1630,1639,5.07415,-8.75685
413,-615,5.06934,8.64246,-0.00185514,-0.00230306,0.00204621,-2.06663e-05,-0.00413753,0.73089,0.00275149,0.0117118,1637,1639,5.0694,-8.6425
420,-615,5.08081,8.521,-0.00173026,-0.00183738,0.00189467,0.000111607,-0.00367925,0.771268,0.00249087,0.012037,1644,1639,5.08086,-8.52098
427,-615,5.1123,8.40808,-0.00164328,-0.00143214,0.00184786,0.000313164,-0.00338859,0.813933,0.00237035,0.0138602,1651,1639,5.11225,-8.40809
434,-615,5.1167,8.29956,-0.00153745,-0.000992963,0.00174941,0.000505256,-0.00303567,0.86259,0.00221152,0.0134263,1658,1639,5.11673,-8.29958
441,-615,5.10962,8.19678,-0.00156849,-0.000493913,0.0016483,0.000702462,-0.00276486,0.94295,0.00211662,0.0130875,1665,1639,5.10963,-8.19681
448,-615,5.10974,8.10352,-0.00186661,0.000225331,0.0015595,0.00105715,-0.00269843,1.0808,0.00223624,0.0147672,1672,1639,5.10975,-8.10352
455,-615,5.11133,7.9884,-0.00217885,0.00100606,0.00147959,0.00158734,-0.00276012,1.19646,0.00254027,0.0147716,1679,1639,5.11128,-7.98839
462,-615,5.09827,7.86792,-0.00255486,0.00185133,0.00135558,0.00223497,-0.00293851,1.295,0.0029961,0.01484,1686,1639,5.09825,-7.86796
469,-615,5.08459,7.72449,-0.00329245,0.00312448,0.00128818,0.00337342,-0.00354139,1.3799,0.00399266,0.0123862,1693,1639,5.08457,-7.7245
476,-615,5.10278,7.58398,-0.00424701,0.00445844,0.00128477,0.00464409,-0.00443266,1.42729,0.00524094,0.0108934,1700,1639,5.10278,-7.584
483,-615,5.11279,7.44385,-0.00533355,0.00604761,0.00132103,0.00619893,-0.00548487,1.45674,0.00674984,0.014423,1707,1639,5.1128,-7.44382
490,-615,5.12927,7.33081,-0.00589345,0.00997891,7.92249e-05,0.0099793,-0.00589384,1.56581,0.00926499,0.0163329,1714,1639,5.12929,-7.3308
497,-615,5.08044,7.21777,-0.0064534,0.0135116,-0.000929558,0.0135548,-0.00649659,-1.52437,0.0118133,0.0233062,1721,1639,5.08049,-7.21773
504,-615,5.05945,6.93347,-0.00688761,0.0185906,-0.00260456,0.0188541,-0.00715114,-1.46996,0.0155126,0.0434218,1728,1639,5.05939,-6.93352
511,-615,5.13354,6.67542,0,0,0,0,0,0,0,-1,1735,1639,5.13353,-6.67547
518,-615,4.86169,6.15784,0,0,0,0,0,0,0,-1,1742,1639,4.86173,-6.1579
525,-615,4.37524,3.90491,0,0,0,0,0,0,0,-1,1749,1639,4.37518,-3.90495
532,-615,7.3645,0.848145,0,0,0,0,0,0,0,-1,1756,1639,7.36451,-0.848093
539,-615,12.8112,-0.0476074,0,0,0,0,0,0,0,-1,1763,1639,12.8111,0.0475553
546,-615,8.33813,2.94556,0,0,0,0,0,0,0,-1,1770,1639,8.33813,-2.9455
553,-615,5.82532,-2.04199,0,0,0,0,0,0,0,-1,1777,1639,5.82534,2.04195
560,-615,0,0,0,0,0,0,0,0,0,-1,1784,1639,0,0
567,-615,0,0,0,0,0,0,0,0,0,-1,1791,1639,0,0
574,-615,0,0,0,0,0,0,0,0,0,-1,1798,1639,0,0
581,-615,0,0,0,0,0,0,0,0,0,-1,1805,1639,0,0
588,-615,0,0,0,0,0,0,0,0,0,-1,1812,1639,0,0
595,-615,0,0,0,0,0,0,0,0,0,-1,1819,1639,0,0
602,-615,0,0,0,0,0,0,0,0,0,-1,1826,1639,0,0
609,-615,0,0,0,0,0,0,0,0,0,-1,1833,1639,0,0
616,-615,0,0,0,0,0,0,0,0,0,-1,1840,1639,0,0
623,-615,0,0,0,0,0,0,0,0,0,-1,1847,1639,0,0
630,-615,0,0,0,0,0,0,0,0,0,-1,1854,1639,0,0
637,-615,0,0,0,0,0,0,0,0,0,-1,1861,1639,0,0
644,-615,0,0,0,0,0,0,0,0,0,-1,1868,1639,0,0
651,-615,0,0,0,0,0,0,0,0,0,-1,1875,1639,0,0
658,-615,0,0,0,0,0,0,0,0,0,-1,1882,1639,0,0
665,-615,0,0,0,0,0,0,0,0,0,-1,1889,1639,0,0
672,-615,0,0,0,0,0,0,0,0,0,-1,1896,1639,0,0
679,-615,0,0,0,0,0,0,0,0,0,-1,1903,1639,0,0
686,-615,0,0,0,0,0,0,0,0,0,-1,1910,1639,0,0
693,-615,0,0,0,0,0,0,0,0,0,-1,1917,1639,0,0
700,-615,0,0,0,0,0,0,0,0,0,-1,1924,1639,0,0
707,-615,0,0,0,0,0,0,0,0,0,-1,1931,1639,0,0
714,-615,0,0,0,0,0,0,0,0,0,-1,1938,1639,0,0
721,-615,0,0,0,0,0,0,0,0,0,-1,1945,1639,0,0
728,-615,0,0,0,0,0,0,0,0,0,-1,1952,1639,0,0
735,-615,0,0,0,0,0,0,0,0,0,-1,1959,1639,0,0
742,-615,0,0,0,0,0,0,0,0,0,-1,1966,1639,0,0
749,-615,0,0,0,0,0,0,0,0,0,-1,1973,1639,0,0
756,-615,0,0,0,0,0,0,0,0,0,-1,1980,1639,0,0
763,-615,0,0,0,0,0,0,0,0,0,-1,1987,1639,0,0
770,-615,0,0,0,0,0,0,0,0,0,-1,1994,1639,0,0
777,-615,0,0,0,0,0,0,0,0,0,-1,2001,1639,0,0
784,-615,0,0,0,0,0,0,0,0,0,-1,2008,1639,0,0
791,-615,0,0,0,0,0,0,0,0,0,-1,2015,1639,0,0
798,-615,0,0,0,0,0,0,0,0,0,-1,2022,1639,0,0
805,-615,0,0,0,0,0,0,0,0,0,-1,2029,1639,0,0
812,-615,0,0,0,0,0,0,0,0,0,-1,2036,1639,0,0
-700,-622,0,0,0,0,0,0,0,0,0,-1,524,1646,0,0
-693,-622,0,0,0,0,0,0,0,0,0,-1,531,1646,0,0
-686,-622,0,0,0,0,0,0,0,0,0,-1,538,1646,0,0
-679,-622,0,0,0,0,0,0,0,0,0,-1,545,1646,0,0
-672,-622,0,0,0,0,0,0,0,0,0,-1,552,1646,0,0
-665,-622,0,0,0,0,0,0,0,0,0,-1,559,1646,0,0
-658,-622,0,0,0,0,0,0,0,0,0,-1,566,1646,0,0
-651,-622,0,0,0,0,0,0,0,0,0,-1,573,1646,0,0
-644,-622,0,0,0,0,0,0,0,0,0,-1,580,1646,0,0
-637,-622,0,0,0,0,0,0,0,0,0,-1,587,1646,0,0
-630,-622,0,0,0,0,0,0,0,0,0,-1,594,1646,0,0
-623,-622,0,0,0,0,0,0,0,0,0,-1,601,1646,0,0
-616,-622,0,0,0,0,0,0,0,0,0,-1,608,1646,0,0
-609,-622,0,0,0,0,0,0,0,0,0,-1,615,1646,0,0
-602,-622,0,0,0,0,0,0,0,0,0,-1,622,1646,0,0
-595,-622,0,0,0,0,0,0,0,0,0,-1,629,1646,0,0
-588,-622,0,0,0,0,0,0,0,0,0,-1,636,1646,0,0
-581,-622,0,0,0,0,0,0,0,0,0,-1,643,1646,0,0
-574,-622,0,0,0,0,0,0,0,0,0,-1,650,1646,0,0
-567,-622,0,0,0,0,0,0,0,0,0,-1,657,1646,0,0
-560,-622,0,0,0,0,0,0,0,0,0,-1,664,1646,0,0
-553,-622,0,0,0,0,0,0,0,0,0,-1,671,1646,0,0
-546,-622,0,0,0,0,0,0,0,0,0,-1,678,1646,0,0
-539,-622,0,0,0,0,0,0,0,0,0,-1,685,1646,0,0
-532,-622,0,0,0,0,0,0,0,0,0,-1,692,1646,0,0
-525,-622,0,0,0,0,0,0,0,0,0,-1,699,1646,0,0
-518,-622,0,0,0,0,0,0,0,0,0,-1,706,1646,0,0
-511,-622,0,0,0,0,0,0,0,0,0,-1,713,1646,0,0
-504,-622,0,0,0,0,0,0,0,0,0,-1,720,1646,0,0
-497,-622,0,0,0,0,0,0,0,0,0,-1,727,1646,0,0
-490,-622,0,0,0,0,0,0,0,0,0,-1,734,1646,0,0
-483,-622,0,0,0,0,0,0,0,0,0,-1,741,1646,0,0
-476,-622,0,0,0,0,0,0,0,0,0,-1,748,1646,0,0
-469,-622,0,0,0,0,0,0,0,0,0,-1,755,1646,0,0
-462,-622,0,0,0,0,0,0,0,0,0,-1,762,1646,0,0
-455,-622,0,0,0,0,0,0,0,0,0,-1,769,1646,0,0
-448,-622,0,0,0,0,0,0,0,0,0,-1,776,1646,0,0
-441,-622,0,0,0,0,0,0,0,0,0,-1,783,1646,0,0
-434,-622,0,0,0,0,0,0,0,0,0,-1,790,1646,0,0
-427,-622,-7.07007,2.0033,0,0,0,0,0,0,0,-1,797,1646,-7.07008,-2.00326
-420,-622,-5.52557,1.57642,0,0,0,0,0,0,0,-1,804,1646,-5.52557,-1.57638
-413,-622,-4.8988,2.47632,0,0,0,0,0,0,0,-1,811,1646,-4.89878,-2.47637
-406,-622,-4.44318,2.16858,0,0,0,0,0,0,0,-1,818,1646,-4.44315,-2.16859
-399,-622,-3.35645,3.16223,0,0,0,0,0,0,0,-1,825,1646,-3.35647,-3.16226
-392,-622,-2.1485,4.26294,0,0,0,0,0,0,0,-1,832,1646,-2.14853,-4.2629
-385,-622,1.15784,8.37317,0,0,0,0,0,0,0,-1,839,1646,1.15783,-8.37311
-378,-622,1.17975,7.99084,0,0,0,0,0,0,0,-1,846,1646,1.17973,-7.99082
-371,-622,2.42999,6.23145,0,0,0,0,0,0,0,-1,853,1646,2.43001,-6.23144
-364,-622,1.99805,6.53772,0,0,0,0,0,0,0,-1,860,1646,1.99802,-6.53773
-357,-622,1.72852,6.97205,0,0,0,0,0,0,0,-1,867,1646,1.7285,-6.97201
-350,-622,2.30792,6.56909,-0.00196039,-0.00735819,-0.00369351,-8.47881e-05,-0.0092338,-0.469876,0.0061278,0.0380647,874,1646,2.3079,-6.56903
-343,-622,2.242,6.64404,-0.00109562,-0.00664974,-0.00219104,-0.000335346,-0.00741001,-0.333992,0.00483211,0.0240788,881,1646,2.242,-6.6441
-336,-622,2.32263,6.72742,-0.000370067,-0.00568552,-0.00130001,-6.91561e-05,-0.00598643,-0.227462,0.0039681,0.00961617,888,1646,2.32265,-6.72742
-329,-622,2.31555,6.87854,0.0003928,-0.00519579,-0.000273978,0.0004062,-0.00520919,-0.0488683,0.00361581,0.00907468,895,1646,2.31553,-6.87852
-322,-622,2.31055,7.03796,0.000201924,-0.0038013,-9.23407e-05,0.000204053,-0.00380343,-0.0230503,0.0026063,0.0102798,902,1646,2.31055,-7.03797
-315,-622,2.30945,7.17224,0.000222398,-0.00317696,-1.28446e-05,0.000222447,-0.00317701,-0.00377846,0.00219592,0.0127596,909,1646,2.30942,-7.1722
-308,-622,2.30127,7.26831,0.000401098,-0.00286899,-0.000318203,0.000431773,-0.00289966,-0.096106,0.00209194,0.013626,916,1646,2.30125,-7.26834
-301,-622,2.31403,7.39136,0.000804768,-0.0030468,-0.000649204,0.000911251,-0.00315328,-0.162574,0.00246279,0.0143514,923,1646,2.31401,-7.39138
-294,-622,2.31396,7.53516,0.00133105,-0.00336946,-0.000979884,0.00152714,-0.00356555,-0.197507,0.00301775,0.0110608,930,1646,2.31399,-7.53515
-287,-622,2.30267,7.67188,0.00211093,-0.00345945,-0.00133009,0.00241223,-0.00376076,-0.222767,0.00359221,0.00860613,937,1646,2.30267,-7.67187
-280,-622,2.30975,7.80103,0.00292233,-0.00390001,-0.00169185,0.00331885,-0.00429652,-0.230211,0.00440879,0.00854614,944,1646,2.30976,-7.80108
-273,-622,2.32202,7.91199,0.00399117,-0.00435177,-0.00202635,0.00445729,-0.00481789,-0.226098,0.00535638,0.0114862,951,1646,2.32205,-7.91196
-266,-622,2.28949,8.06067,0.00522225,-0.00474002,-0.00232104,0.00573647,-0.00525424,-0.218026,0.00634753,0.0113921,958,1646,2.28946,-8.06063
-259,-622,2.29462,8.21033,0.00664471,-0.0053489,-0.00247911,0.00713695,-0.00584114,-0.196005,0.00750534,0.0110236,965,1646,2.29463,-8.21035
-252,-622,2.31488,8.30579,0.00819027,-0.00578421,-0.00254115,0.00863801,-0.00623195,-0.174407,0.00862256,0.0114123,972,1646,2.31486,-8.30574
-245,-622,2.33051,8.41846,0.00877785,-0.00525349,-0.00197394,0.00905026,-0.0055259,-0.137136,0.00849715,0.00869644,979,1646,2.33049,-8.41849
-238,-622,2.32458,8.54126,0.00825771,-0.00330485,-0.00118578,0.00837806,-0.0034252,-0.101151,0.00701175,0.00945307,986,1646,2.32461,-8.54123
-231,-622,2.33691,8.66418,0.00783525,-0.00143607,-0.000493091,0.0078614,-0.00146222,-0.0529853,0.00579022,0.0137453,993,1646,2.33693,-8.66417
-224,-622,2.42328,8.76294,0.00665397,0.000943631,0.000563202,0.00670898,0.000888614,0.0973785,0.00420784,0.0233539,1000,1646,2.42326,-8.76289
-217,-622,2.47748,8.77295,0.00449385,0.0041102,0.00199149,0.00630273,0.00230132,0.737386,0.00368275,0.0359739,1007,1646,2.4775,-8.77293
-210,-622,2.66071,8.55029,0.000449723,0.00751364,0.00211327,0.00809758,-0.000134218,1.3012,0.00544368,0.0472469,1014,1646,2.66071,-8.55025
-203,-622,2.44025,8.93445,0,0,0,0,0,0,0,-1,1021,1646,2.44025,-8.9345
-196,-622,2.88928,9.26086,0,0,0,0,0,0,0,-1,1028,1646,2.88927,-9.26088
-189,-622,2.78992,9.32349,0,0,0,0,0,0,0,-1,1035,1646,2.78996,-9.32349
-182,-622,2.79431,9.47925,0,0,0,0,0,0,0,-1,1042,1646,2.79428,-9.47931
-175,-622,1.47424,9.31897,0,0,0,0,0,0,0,-1,1049,1646,1.47425,-9.319
-168,-622,1.36499,8.89404,0,0,0,0,0,0,0,-1,1056,1646,1.36505,-8.89404
-161,-622,1.57837,8.32007,0.02376,0.00957686,-0.000574993,0.0237833,0.00955359,-0.0404521,0.0138195,0.0485107,1063,1646,1.57835,-8.32006
-154,-622,0.833008,7.27686,0,0,0,0,0,0,0,-1,1070,1646,0.833054,-7.27682
-147,-622,1.0061,11.4728,0,0,0,0,0,0,0,-1,1077,1646,1.00613,-11.4728
-140,-622,0.961548,11.916,0,0,0,0,0,0,0,-1,1084,1646,0.961541,-11.916
-133,-622,1.05566,11.0734,0,0,0,0,0,0,0,-1,1091,1646,1.05568,-11.0734
-126,-622,2.24744,11.5171,0.130331,-0.0503195,0.00796028,0.130681,-0.0506696,0.043951,0.108046,0.0446783,1098,1646,2.24746,-11.5171
-119,-622,3.2251,12.1982,0.146067,-0.0633899,0.0122644,0.146782,-0.0641056,0.0582881,0.124836,0.0458981,1105,1646,3.22509,-12.1982
-112,-622,4.58203,13.2788,0,0,0,0,0,0,0,-1,1112,1646,4.58199,-13.2789
-105,-622,0.306519,4.38159,0,0,0,0,0,0,0,-1,1119,1646,0.306536,-4.38159
-98,-622,-0.510376,3.5033,0,0,0,0,0,0,0,-1,1126,1646,-0.510393,-3.50324
-91,-622,-1.146,0.975952,0,0,0,0,0,0,0,-1,1133,1646,-1.14599,-0.97597
-84,-622,-2.04895,1.31787,0,0,0,0,0,0,0,-1,1140,1646,-2.0489,-1.31781
-77,-622,-1.80627,0.332275,0,0,0,0,0,0,0,-1,1147,1646,-1.80622,-0.33223
-70,-622,-3.65588,2.28149,0,0,0,0,0,0,0,-1,1154,1646,-3.65589,-2.28155
-63,-622,-2.49683,1.27087,0,0,0,0,0,0,0,-1,1161,1646,-2.49679,-1.27093
-56,-622,-2.44238,-0.575562,0,0,0,0,0,0,0,-1,1168,1646,-2.44242,0.575508
-49,-622,-2.41089,1.38818,0,0,0,0,0,0,0,-1,1175,1646,-2.41088,-1.38815
-42,-622,-2.71497,2.85242,0,0,0,0,0,0,0,-1,1182,1646,-2.71491,-2.85247
-35,-622,-3.0177,4.25842,0,0,0,0,0,0,0,-1,1189,1646,-3.01773,-4.25838
-28,-622,-0.896606,0.678833,0,0,0,0,0,0,0,-1,1196,1646,-0.89661,-0.678835
-21,-622,2.86902,10.8785,0,0,0,0,0,0,0,-1,1203,1646,2.86905,-10.8785
-14,-622,3.35547,10.1379,0,0,0,0,0,0,0,-1,1210,1646,3.35552,-10.138
-7,-622,3.84204,9.39746,0,0,0,0,0,0,0,-1,1217,1646,3.842,-9.39743
0,-622,0,0,0,0,0,0,0,0,0,-1,1224,1646,0,0
7,-622,0,0,0,0,0,0,0,0,0,-1,1231,1646,0,0
14,-622,0,0,0,0,0,0,0,0,0,-1,1238,1646,0,0
21,-622,0,0,0,0,0,0,0,0,0,-1,1245,1646,0,0
28,-622,0,0,0,0,0,0,0,0,0,-1,1252,1646,0,0
35,-622,0,0,0,0,0,0,0,0,0,-1,1259,1646,0,0
42,-622,0,0,0,0,0,0,0,0,0,-1,1266,1646,0,0
49,-622,0,0,0,0,0,0,0,0,0,-1,1273,1646,0,0
56,-622,0,0,0,0,0,0,0,0,0,-1,1280,1646,0,0
63,-622,0,0,0,0,0,0,0,0,0,-1,1287,1646,0,0
70,-622,0,0,0,0,0,0,0,0,0,-1,1294,1646,0,0
77,-622,0,0,0,0,0,0,0,0,0,-1,1301,1646,0,0
84,-622,0,0,0,0,0,0,0,0,0,-1,1308,1646,0,0
91,-622,0,0,0,0,0,0,0,0,0,-1,1315,1646,0,0
98,-622,0,0,0,0,0,0,0,0,0,-1,1322,1646,0,0
105,-622,0,0,0,0,0,0,0,0,0,-1,1329,1646,0,0
112,-622,0,0,0,0,0,0,0,0,0,-1,1336,1646,0,0
119,-622,0,0,0,0,0,0,0,0,0,-1,1343,1646,0,0
126,-622,6.17554,11.8604,0,0,0,0,0,0,0,-1,1350,1646,6.17552,-11.8603
133,-622,6.87964,10.8065,0,0,0,0,0,0,0,-1,1357,1646,6.87967,-10.8065
140,-622,7.50916,9.79553,0,0,0,0,0,0,0,-1,1364,1646,7.50916,-9.79552
147,-622,8.23511,8.77979,0,0,0,0,0,0,0,-1,1371,1646,8.23516,-8.77973
154,-622,9.22742,7.69604,0,0,0,0,0,0,0,-1,1378,1646,9.22739,-7.69608
161,-622,10.6884,6.46448,0,0,0,0,0,0,0,-1,1385,1646,10.6883,-6.46442
168,-622,12.2402,5.18091,0,0,0,0,0,0,0,-1,1392,1646,12.2403,-5.1809
175,-622,5.64355,-1.77075,0,0,0,0,0,0,0,-1,1399,1646,5.64351,1.77077
182,-622,5.88586,-1.32251,0,0,0,0,0,0,0,-1,1406,1646,5.88587,1.32256
189,-622,5.97986,-1.18005,0,0,0,0,0,0,0,-1,1413,1646,5.97986,1.18003
196,-622,5.85022,-0.244507,0,0,0,0,0,0,0,-1,1420,1646,5.85026,0.244478
203,-622,5.25159,0.138794,0,0,0,0,0,0,0,-1,1427,1646,5.25162,-0.138822
210,-622,6.66833,0.0397949,0,0,0,0,0,0,0,-1,1434,1646,6.6684,-0.0398278
217,-622,6.12061,0.0506592,0,0,0,0,0,0,0,-1,1441,1646,6.12058,-0.0507181
224,-622,5.57275,0.0616455,0,0,0,0,0,0,0,-1,1448,1646,5.57276,-0.0616084
231,-622,5.31348,1.3949,0,0,0,0,0,0,0,-1,1455,1646,5.31342,-1.39495
238,-622,3.76477,2.90686,0,0,0,0,0,0,0,-1,1462,1646,3.7648,-2.90686
245,-622,5.13794,2.67993,0,0,0,0,0,0,0,-1,1469,1646,5.13796,-2.67992
252,-622,6.66528,2.53992,0,0,0,0,0,0,0,-1,1476,1646,6.66522,-2.53991
259,-622,8.93787,3.31458,0,0,0,0,0,0,0,-1,1483,1646,8.93791,-3.31454
266,-622,5.72644,3.11926,0,0,0,0,0,0,0,-1,1490,1646,5.72647,-3.1192
273,-622,7.28076,3.61218,0,0,0,0,0,0,0,-1,1497,1646,7.28071,-3.61212
280,-622,8.7229,4.19141,0,0,0,0,0,0,0,-1,1504,1646,8.72289,-4.19138
287,-622,10.0002,4.90894,0,0,0,0,0,0,0,-1,1511,1646,10.0002,-4.90899
294,-622,5.7594,8.24548,0,0,0,0,0,0,0,-1,1518,1646,5.75945,-8.24547
301,-622,4.79944,9.18982,0,0,0,0,0,0,0,-1,1525,1646,4.79945,-9.18976
308,-622,4.62317,9.51477,0,0,0,0,0,0,0,-1,1532,1646,4.6232,-9.51472
315,-622,4.07275,10.1528,0,0,0,0,0,0,0,-1,1539,1646,4.07271,-10.1529
322,-622,4.65063,9.86536,0,0,0,0,0,0,0,-1,1546,1646,4.65061,-9.86538
329,-622,4.78918,10.342,0,0,0,0,0,0,0,-1,1553,1646,4.78925,-10.3421
336,-622,4.95349,10.0206,0,0,0,0,0,0,0,-1,1560,1646,4.95353,-10.0206
343,-622,5.22949,9.68579,0,0,0,0,0,0,0,-1,1567,1646,5.22944,-9.68585
350,-622,5.16504,9.60217,0.00322294,0.00174789,0.00306666,0.00563952,-0.000668689,0.667391,0.00400124,0.0471029,1574,1646,5.16507,-9.60215
357,-622,5.08362,9.45142,0.00134416,0.000798548,0.00331402,0.00439658,-0.00225387,0.744331,0.0039055,0.040794,1581,1646,5.0836,-9.45144
364,-622,5.08081,9.29102,0.000318863,-0.00023027,0.00297501,0.00303194,-0.00294335,0.739383,0.00344997,0.0324767,1588,1646,5.08085,-9.29098
371,-622,5.02295,9.25146,-0.000216369,-0.001058,0.00288532,0.00227866,-0.00355303,0.712985,0.00339362,0.0191168,1595,1646,5.02296,-9.25145
378,-622,4.97668,9.18835,-0.000841138,-0.00164685,0.00254748,0.00133514,-0.00382313,0.706978,0.00309145,0.0101053,1602,1646,4.97669,-9.18841
385,-622,4.9408,9.07507,-0.00115611,-0.00242404,0.0022461,0.000543781,-0.00412393,0.64785,0.00294731,0.00920562,1609,1646,4.94077,-9.07513
392,-622,4.95483,8.99084,-0.00124231,-0.0024632,0.0020372,0.000273936,-0.00397945,0.639832,0.00274883,0.0107093,1616,1646,4.95485,-8.9909
399,-622,4.95081,8.88306,-0.00132878,-0.00212075,0.00178701,0.000105598,-0.00355513,0.676364,0.00240606,0.0108726,1623,1646,4.95077,-8.88306
406,-622,4.94836,8.76855,-0.00131862,-0.00188504,0.00165807,8.02517e-05,-0.00328392,0.700812,0.00221651,0.0132135,1630,1646,4.94838,-8.76858
413,-622,4.94299,8.63416,-0.00133305,-0.00150772,0.00158108,0.00016311,-0.00300387,0.757808,0.00205911,0.0143348,1637,1646,4.94301,-8.63417
420,-622,4.95642,8.51172,-0.00134589,-0.00110194,0.00148846,0.000269533,-0.00271737,0.82628,0.00190778,0.0143806,1644,1646,4.95642,-8.51168
427,-622,4.98694,8.40125,-0.00139065,-0.000749561,0.00153831,0.00050125,-0.00264146,0.888115,0.00194965,0.0115427,1651,1646,4.98697,-8.40121
434,-622,5.01013,8.29663,-0.00141262,-0.000360054,0.00156572,0.000765462,-0.00253814,0.947531,0.00199677,0.0118634,1658,1646,5.01014,-8.29667
441,-622,5.00208,8.20508,-0.0016157,0.000116879,0.00159585,0.00106641,-0.00256523,1.03406,0.00215543,0.0132077,1665,1646,5.00209,-8.20509
448,-622,4.97607,8.09753,-0.00216627,0.000871559,0.00163822,0.00158667,-0.00288138,1.15921,0.00261548,0.0129482,1672,1646,4.97609,-8.09757
455,-622,4.95935,7.96619,-0.00272206,0.00174975,0.00173118,0.00234162,-0.00331392,1.24137,0.00328127,0.0153153,1679,1646,4.95934,-7.96613
462,-622,4.97449,7.85571,-0.00339993,0.00271543,0.0017454,0.00317852,-0.00386302,1.31145,0.00407183,0.017245,1686,1646,4.97454,-7.85565
469,-622,4.95984,7.71912,-0.00443514,0.00417564,0.00179468,0.00453471,-0.00479422,1.37333,0.00538676,0.0183291,1693,1646,4.9599,-7.71914
476,-622,4.99109,7.5769,-0.00571077,0.00579437,0.00193234,0.00611024,-0.00602664,1.40876,0.00700729,0.0175302,1700,1646,4.99105,-7.57696
483,-622,4.97693,7.41687,-0.00723139,0.00774483,0.00207262,0.00802637,-0.00751294,1.43578,0.00897326,0.0240771,1707,1646,4.97696,-7.41687
490,-622,4.98462,7.32153,-0.00834406,0.0121985,0.000925722,0.0122402,-0.00838569,1.52585,0.0119775,0.031495,1714,1646,4.98456,-7.3215
497,-622,4.8064,7.20801,-0.00944322,0.0164721,-4.73242e-05,0.0164722,-0.0094433,-1.56897,0.0151447,0.0407491,1721,1646,4.8064,-7.20799
504,-622,4.9425,6.8772,0,0,0,0,0,0,0,-1,1728,1646,4.94249,-6.8772
511,-622,5.29004,4.14587,0,0,0,0,0,0,0,-1,1735,1646,5.29008,-4.14589
518,-622,5.6001,1.55359,0,0,0,0,0,0,0,-1,1742,1646,5.60015,-1.5536
525,-622,5.68213,1.32361,0,0,0,0,0,0,0,-1,1749,1646,5.68209,-1.32361
532,-622,5.44202,0.57373,0,0,0,0,0,0,0,-1,1756,1646,5.44196,-0.573705
539,-622,9.32129,1.06116,0,0,0,0,0,0,0,-1,1763,1646,9.32131,-1.0612
546,-622,6.50977,-3.45618,0,0,0,0,0,0,0,-1,1770,1646,6.50981,3.4562
553,-622,0,0,0,0,0,0,0,0,0,-1,1777,1646,0,0
560,-622,0,0,0,0,0,0,0,0,0,-1,1784,1646,0,0
567,-622,0,0,0,0,0,0,0,0,0,-1,1791,1646,0,0
574,-622,0,0,0,0,0,0,0,0,0,-1,1798,1646,0,0
581,-622,0,0,0,0,0,0,0,0,0,-1,1805,1646,0,0
588,-622,0,0,0,0,0,0,0,0,0,-1,1812,1646,0,0
595,-622,0,0,0,0,0,0,0,0,0,-1,1819,1646,0,0
602,-622,0,0,0,0,0,0,0,0,0,-1,1826,1646,0,0
609,-622,0,0,0,0,0,0,0,0,0,-1,1833,1646,0,0
616,-622,0,0,0,0,0,0,0,0,0,-1,1840,1646,0,0
623,-622,0,0,0,0,0,0,0,0,0,-1,1847,1646,0,0
630,-622,0,0,0,0,0,0,0,0,0,-1,1854,1646,0,0
637,-622,0,0,0,0,0,0,0,0,0,-1,1861,1646,0,0
644,-622,0,0,0,0,0,0,0,0,0,-1,1868,1646,0,0
651,-622,0,0,0,0,0,0,0,0,0,-1,1875,1646,0,0
658,-622,0,0,0,0,0,0,0,0,0,-1,1882,1646,0,0
665,-622,0,0,0,0,0,0,0,0,0,-1,1889,1646,0,0
672,-622,0,0,0,0,0,0,0,0,0,-1,1896,1646,0,0
679,-622,0,0,0,0,0,0,0,0,0,-1,1903,1646,0,0
686,-622,0,0,0,0,0,0,0,0,0,-1,1910,1646,0,0
693,-622,0,0,0,0,0,0,0,0,0,-1,1917,1646,0,0
700,-622,0,0,0,0,0,0,0,0,0,-1,1924,1646,0,0
707,-622,0,0,0,0,0,0,0,0,0,-1,1931,1646,0,0
714,-622,0,0,0,0,0,0,0,0,0,-1,1938,1646,0,0
721,-622,0,0,0,0,0,0,0,0,0,-1,1945,1646,0,0
728,-622,0,0,0,0,0,0,0,0,0,-1,1952,1646,0,0
735,-622,0,0,0,0,0,0,0,0,0,-1,1959,1646,0,0
742,-622,0,0,0,0,0,0,0,0,0,-1,1966,1646,0,0
749,-622,0,0,0,0,0,0,0,0,0,-1,1973,1646,0,0
756,-622,0,0,0,0,0,0,0,0,0,-1,1980,1646,0,0
763,-622,0,0,0,0,0,0,0,0,0,-1,1987,1646,0,0
770,-622,0,0,0,0,0,0,0,0,0,-1,1994,1646,0,0
777,-622,0,0,0,0,0,0,0,0,0,-1,2001,1646,0,0
784,-622,0,0,0,0,0,0,0,0,0,-1,2008,1646,0,0
791,-622,0,0,0,0,0,0,0,0,0,-1,2015,1646,0,0
798,-622,0,0,0,0,0,0,0,0,0,-1,2022,1646,0,0
805,-622,0,0,0,0,0,0,0,0,0,-1,2029,1646,0,0
812,-622,0,0,0,0,0,0,0,0,0,-1,2036,1646,0,0
-700,-629,0,0,0,0,0,0,0,0,0,-1,524,1653,0,0
-693,-629,0,0,0,0,0,0,0,0,0,-1,531,1653,0,0
-686,-629,0,0,0,0,0,0,0,0,0,-1,538,1653,0,0
-679,-629,0,0,0,0,0,0,0,0,0,-1,545,1653,0,0
-672,-629,0,0,0,0,0,0,0,0,0,-1,552,1653,0,0
-665,-629,0,0,0,0,0,0,0,0,0,-1,559,1653,0,0
-658,-629,0,0,0,0,0,0,0,0,0,-1,566,1653,0,0
-651,-629,0,0,0,0,0,0,0,0,0,-1,573,1653,0,0
-644,-629,0,0,0,0,0,0,0,0,0,-1,580,1653,0,0
-637,-629,0,0,0,0,0,0,0,0,0,-1,587,1653,0,0
-630,-629,0,0,0,0,0,0,0,0,0,-1,594,1653,0,0
-623,-629,0,0,0,0,0,0,0,0,0,-1,601,1653,0,0
-616,-629,0,0,0,0,0,0,0,0,0,-1,608,1653,0,0
-609,-629,0,0,0,0,0,0,0,0,0,-1,615,1653,0,0
-602,-629,0,0,0,0,0,0,0,0,0,-1,622,1653,0,0
-595,-629,0,0,0,0,0,0,0,0,0,-1,629,1653,0,0
-588,-629,0,0,0,0,0,0,0,0,0,-1,636,1653,0,0
-581,-629,0,0,0,0,0,0,0,0,0,-1,643,1653,0,0
-574,-629,0,0,0,0,0,0,0,0,0,-1,650,1653,0,0
-567,-629,0,0,0,0,0,0,0,0,0,-1,657,1653,0,0
-560,-629,0,0,0,0,0,0,0,0,0,-1,664,1653,0,0
-553,-629,0,0,0,0,0,0,0,0,0,-1,671,1653,0,0
-546,-629,0,0,0,0,0,0,0,0,0,-1,678,1653,0,0
-539,-629,0,0,0,0,0,0,0,0,0,-1,685,1653,0,0
-532,-629,0,0,0,0,0,0,0,0,0,-1,692,1653,0,0
-525,-629,0,0,0,0,0,0,0,0,0,-1,699,1653,0,0
-518,-629,0,0,0,0,0,0,0,0,0,-1,706,1653,0,0
-511,-629,0,0,0,0,0,0,0,0,0,-1,713,1653,0,0
-504,-629,0,0,0,0,0,0,0,0,0,-1,720,1653,0,0
-497,-629,0,0,0,0,0,0,0,0,0,-1,727,1653,0,0
-490,-629,0,0,0,0,0,0,0,0,0,-1,734,1653,0,0
-483,-629,0,0,0,0,0,0,0,0,0,-1,741,1653,0,0
-476,-629,0,0,0,0,0,0,0,0,0,-1,748,1653,0,0
-469,-629,0,0,0,0,0,0,0,0,0,-1,755,1653,0,0
-462,-629,0,0,0,0,0,0,0,0,0,-1,762,1653,0,0
-455,-629,0,0,0,0,0,0,0,0,0,-1,769,1653,0,0
-448,-629,0,0,0,0,0,0,0,0,0,-1,776,1653,0,0
-441,-629,0,0,0,0,0,0,0,0,0,-1,783,1653,0,0
-434,-629,0,0,0,0,0,0,0,0,0,-1,790,1653,0,0
-427,-629,0,0,0,0,0,0,0,0,0,-1,797,1653,0,0
-420,-629,-3.87103,3.37634,0,0,0,0,0,0,0,-1,804,1653,-3.87101,-3.37633
-413,-629,-5.69751,1.33582,0,0,0,0,0,0,0,-1,811,1653,-5.69754,-1.3358
-406,-629,-4.80127,2.0271,0,0,0,0,0,0,0,-1,818,1653,-4.80127,-2.02711
-399,-629,-3.96466,2.78967,0,0,0,0,0,0,0,-1,825,1653,-3.96469,-2.78972
-392,-629,1.99213,7.97876,0,0,0,0,0,0,0,-1,832,1653,1.99211,-7.9787
-385,-629,1.53235,8.38196,0,0,0,0,0,0,0,-1,839,1653,1.53234,-8.38191
-378,-629,0.994629,7.45032,0,0,0,0,0,0,0,-1,846,1653,0.994615,-7.45036
-371,-629,0.682617,6.54236,0,0,0,0,0,0,0,-1,853,1653,0.682611,-6.54233
-364,-629,1.7832,6.93347,0,0,0,0,0,0,0,-1,860,1653,1.78319,-6.93352
-357,-629,2.27606,6.60303,0,0,0,0,0,0,0,-1,867,1653,2.27608,-6.60297
-350,-629,2.34314,6.69202,-0.00289302,-0.00807282,-0.00504255,0.000185851,-0.0111517,-0.54816,0.00749718,0.0451658,874,1653,2.34311,-6.69205
-343,-629,2.38629,6.76807,-0.0015724,-0.00769196,-0.00290311,-0.000414324,-0.00885003,-0.379564,0.00576688,0.0357998,881,1653,2.38628,-6.76806
-336,-629,2.45154,6.73218,-0.000519242,-0.00677357,-0.00167378,-9.94781e-05,-0.00719333,-0.24572,0.00476274,0.0179186,888,1653,2.45151,-6.73224
-329,-629,2.44843,6.88,0.000528361,-0.00644812,-0.000278986,0.0005395,-0.00645926,-0.0399046,0.0044968,0.0120481,895,1653,2.44842,-6.88004
-322,-629,2.45721,7.02771,0.000274378,-0.00471096,-1.35129e-05,0.000274414,-0.00471099,-0.00271051,0.00323601,0.0122743,902,1653,2.45724,-7.02777
-315,-629,2.44684,7.1582,0.00026913,-0.00379321,0.000147508,0.000274479,-0.00379856,0.0362474,0.00262865,0.0151472,909,1653,2.44683,-7.15821
-308,-629,2.43738,7.28955,0.00034925,-0.00315586,-5.71774e-05,0.000350182,-0.00315679,-0.0163068,0.00223044,0.012693,916,1653,2.43739,-7.28955
-301,-629,2.45471,7.43835,0.000556425,-0.00295848,-0.000323274,0.00058591,-0.00298796,-0.0909556,0.00221328,0.011873,923,1653,2.45474,-7.43829
-294,-629,2.44952,7.55371,0.000902462,-0.00295643,-0.000599587,0.000993478,-0.00304745,-0.150647,0.00243142,0.0127423,930,1653,2.44955,-7.55376
-287,-629,2.43738,7.68005,0.00141879,-0.00287265,-0.000870355,0.00158859,-0.00304245,-0.192673,0.00271729,0.0096058,937,1653,2.43739,-7.68004
-280,-629,2.42883,7.80969,0.00196618,-0.00305656,-0.00113602,0.00221117,-0.00330155,-0.212404,0.00320345,0.00902079,944,1653,2.42885,-7.80975
-273,-629,2.44147,7.90112,0.00272484,-0.00326914,-0.00136842,0.00302247,-0.00356676,-0.214163,0.00380862,0.0117175,951,1653,2.44148,-7.90109
-266,-629,2.42889,8.04639,0.00359015,-0.0034216,-0.00158107,0.00393018,-0.00376162,-0.211833,0.00444122,0.012828,958,1653,2.42888,-8.04635
-259,-629,2.41876,8.22192,0.00457049,-0.00383926,-0.00168363,0.00489503,-0.0041638,-0.190426,0.00523579,0.0141527,965,1653,2.41875,-8.22187
-252,-629,2.43805,8.3175,0.00561333,-0.00416173,-0.00170433,0.00590197,-0.00445036,-0.167762,0.00599647,0.0108912,972,1653,2.43803,-8.31747
-245,-629,2.45563,8.42053,0.00600878,-0.00382768,-0.0012581,0.00616714,-0.00398605,-0.125217,0.00590686,0.00820124,979,1653,2.45564,-8.42055
-238,-629,2.45435,8.5415,0.00568437,-0.00250655,-0.000671163,0.005739,-0.00256118,-0.081218,0.00490778,0.00978442,986,1653,2.45433,-8.54156
-231,-629,2.45276,8.6665,0.00543194,-0.00128911,-0.00017549,0.00543652,-0.00129369,-0.0260868,0.00412378,0.00971003,993,1653,2.45277,-8.66648
-224,-629,2.48975,8.77515,0.00465214,0.000143897,0.000540634,0.00471606,7.99699e-05,0.117698,0.00311773,0.0100427,1000,1653,2.48978,-8.77518
-217,-629,2.48529,8.8584,0.00322831,0.00205055,0.00149048,0.00424202,0.00103684,0.597262,0.00255356,0.0139376,1007,1653,2.48529,-8.85845
-210,-629,2.47827,8.90088,0.000511782,0.00404454,0.00144988,0.00456338,-7.05966e-06,1.22714,0.00304461,0.0272624,1014,1653,2.47827,-8.90083
-203,-629,2.53583,8.94568,-0.00270345,0.00720833,0.00220187,0.00767545,-0.00317058,1.36175,0.00643949,0.0407495,1021,1653,2.53582,-8.94569
-196,-629,2.73083,9.10461,-0.00596131,0.0117943,0.00185026,0.0119851,-0.00615207,1.46806,0.0106505,0.0417618,1028,1653,2.73087,-9.10456
-189,-629,2.73889,9.27393,-0.00815053,0.0161277,0.00122797,0.0161897,-0.00821249,1.52039,0.0143373,0.0418987,1035,1653,2.7389,-9.27391
-182,-629,2.75891,9.4469,-0.0106574,0.0181663,0.000176007,0.0181673,-0.0106584,1.56469,0.0168297,0.0484736,1042,1653,2.75896,-9.44693
-175,-629,2.57947,9.39868,0,0,0,0,0,0,0,-1,1049,1653,2.57948,-9.39866
-168,-629,2.32129,8.81799,0,0,0,0,0,0,0,-1,1056,1653,2.32133,-8.81803
-161,-629,2.2627,8.3717,0,0,0,0,0,0,0,-1,1063,1653,2.2627,-8.37167
-154,-629,1.61206,10.8169,0,0,0,0,0,0,0,-1,1070,1653,1.61211,-10.8169
-147,-629,1.76111,11.2395,0.0486051,-0.00411426,0.00102335,0.048625,-0.00413412,0.0194016,0.0338789,0.0484818,1077,1653,1.7611,-11.2395
-140,-629,1.90564,11.6199,0,0,0,0,0,0,0,-1,1084,1653,1.90559,-11.6198
-133,-629,2.151,12.1036,0,0,0,0,0,0,0,-1,1091,1653,2.15101,-12.1036
-126,-629,2.65637,12.1021,0,0,0,0,0,0,0,-1,1098,1653,2.65643,-12.1021
-119,-629,3.60181,12.8916,0,0,0,0,0,0,0,-1,1105,1653,3.60176,-12.8916
-112,-629,0.0380859,6.21252,0,0,0,0,0,0,0,-1,1112,1653,0.0380893,-6.21252
-105,-629,2.15881,4.38342,0,0,0,0,0,0,0,-1,1119,1653,2.15878,-4.38347
-98,-629,0.825806,4.19385,0,0,0,0,0,0,0,-1,1126,1653,0.825779,-4.1939
-91,-629,-0.452271,3.64465,0,0,0,0,0,0,0,-1,1133,1653,-0.452278,-3.6446
-84,-629,-2.12976,-0.649902,0,0,0,0,0,0,0,-1,1140,1653,-2.12982,0.649886
-77,-629,-1.71143,0.768555,0,0,0,0,0,0,0,-1,1147,1653,-1.71137,-0.768609
-70,-629,-1.20886,2.52502,0,0,0,0,0,0,0,-1,1154,1653,-1.20886,-2.525
-63,-629,-0.960693,4.30212,0,0,0,0,0,0,0,-1,1161,1653,-0.960691,-4.30215
-56,-629,-1.31934,5.64343,0,0,0,0,0,0,0,-1,1168,1653,-1.31928,-5.6434
-49,-629,-2.15662,2.57458,0,0,0,0,0,0,0,-1,1175,1653,-2.15656,-2.57459
-42,-629,-2.46326,3.91467,0,0,0,0,0,0,0,-1,1182,1653,-2.4633,-3.91466
-35,-629,-2.67261,5.24292,0,0,0,0,0,0,0,-1,1189,1653,-2.67257,-5.24298
-28,-629,-0.402954,-0.866577,0,0,0,0,0,0,0,-1,1196,1653,-0.402943,0.866612
-21,-629,3.44202,10.6176,0,0,0,0,0,0,0,-1,1203,1653,3.44199,-10.6175
-14,-629,3.61938,10.2632,0,0,0,0,0,0,0,-1,1210,1653,3.6194,-10.2632
-7,-629,2.82043,10.0723,0,0,0,0,0,0,0,-1,1217,1653,2.82047,-10.0723
0,-629,2.73291,10.0402,0,0,0,0,0,0,0,-1,1224,1653,2.73297,-10.0402
7,-629,2.79968,10.0162,0,0,0,0,0,0,0,-1,1231,1653,2.79971,-10.0162
14,-629,2.82458,9.94666,0,0,0,0,0,0,0,-1,1238,1653,2.82455,-9.94669
21,-629,4.26489,5.59265,0,0,0,0,0,0,0,-1,1245,1653,4.26489,-5.59259
28,-629,4.77502,6.78027,0.0766022,0.0222033,0.0332943,0.0923948,0.00641069,0.442905,0.0595748,0.0485347,1252,1653,4.77498,-6.78033
35,-629,5.25476,7.97131,0.0681839,0.0420206,0.0573408,0.113916,-0.0037118,0.673248,0.0772112,0.0458488,1259,1653,5.25478,-7.97136
42,-629,5.56042,9.45752,0,0,0,0,0,0,0,-1,1266,1653,5.56046,-9.45755
49,-629,6.63135,11.639,0,0,0,0,0,0,0,-1,1273,1653,6.63141,-11.639
56,-629,5.92847,15.6635,0,0,0,0,0,0,0,-1,1280,1653,5.92843,-15.6634
63,-629,5.9397,16.333,0,0,0,0,0,0,0,-1,1287,1653,5.93967,-16.333
70,-629,5.93042,16.8862,0.0149276,0.162206,0.124067,0.232842,-0.0557084,1.05323,0.176749,0.0441564,1294,1653,5.93044,-16.8862
77,-629,5.91772,17.6498,0.00416729,0.183589,0.128484,0.250582,-0.0628258,1.09017,0.191464,0.0453637,1301,1653,5.91768,-17.6497
84,-629,6.41858,18.9468,-0.0019097,0.213439,0.123115,0.269322,-0.0577931,1.14469,0.201593,0.0433274,1308,1653,6.41855,-18.9468
91,-629,6.79773,19.9377,0,0,0,0,0,0,0,-1,1315,1653,6.79775,-19.9378
98,-629,3.31055,13.2939,0,0,0,0,0,0,0,-1,1322,1653,3.31056,-13.2939
105,-629,2.66443,7.90662,0,0,0,0,0,0,0,-1,1329,1653,2.66438,-7.90658
112,-629,3.40198,8.28528,0,0,0,0,0,0,0,-1,1336,1653,3.40193,-8.28527
119,-629,2.71985,8.62964,0,0,0,0,0,0,0,-1,1343,1653,2.71989,-8.62968
126,-629,16.0626,17.8867,0,0,0,0,0,0,0,-1,1350,1653,16.0627,-17.8868
133,-629,6.78455,11.2227,0,0,0,0,0,0,0,-1,1357,1653,6.78454,-11.2227
140,-629,7.74475,9.91223,0,0,0,0,0,0,0,-1,1364,1653,7.7447,-9.91217
147,-629,8.70483,8.60168,0,0,0,0,0,0,0,-1,1371,1653,8.70487,-8.60166
154,-629,9.14783,7.88013,0,0,0,0,0,0,0,-1,1378,1653,9.14786,-7.88011
161,-629,10.5461,6.83752,0,0,0,0,0,0,0,-1,1385,1653,10.5461,-6.83758
168,-629,12.0059,5.56348,0,0,0,0,0,0,0,-1,1392,1653,12.0059,-5.56352
175,-629,5.84485,-1.78845,0,0,0,0,0,0,0,-1,1399,1653,5.84479,1.7884
182,-629,5.99036,-1.27783,0,0,0,0,0,0,0,-1,1406,1653,5.99041,1.27778
189,-629,5.97668,-0.748535,0,0,0,0,0,0,0,-1,1413,1653,5.97671,0.748544
196,-629,4.52869,9.24695,0,0,0,0,0,0,0,-1,1420,1653,4.52869,-9.2469
203,-629,3.75085,6.88037,0,0,0,0,0,0,0,-1,1427,1653,3.75087,-6.88032
210,-629,3.5907,6.52637,0,0,0,0,0,0,0,-1,1434,1653,3.59067,-6.52642
217,-629,2.4585,4.84448,0,0,0,0,0,0,0,-1,1441,1653,2.45855,-4.84448
224,-629,1.31982,3.68481,0,0,0,0,0,0,0,-1,1448,1653,1.31986,-3.68487
231,-629,3.63025,1.73499,0,0,0,0,0,0,0,-1,1455,1653,3.6303,-1.735
238,-629,4.26428,2.11255,0,0,0,0,0,0,0,-1,1462,1653,4.26429,-2.11253
245,-629,5.61816,1.95361,0,0,0,0,0,0,0,-1,1469,1653,5.61815,-1.95359
252,-629,7.27136,2.18982,0,0,0,0,0,0,0,-1,1476,1653,7.27131,-2.18985
259,-629,8.67334,2.18628,0,0,0,0,0,0,0,-1,1483,1653,8.6733,-2.18633
266,-629,6.86475,3.72058,0,0,0,0,0,0,0,-1,1490,1653,6.86479,-3.72063
273,-629,7.9021,3.8717,0,0,0,0,0,0,0,-1,1497,1653,7.90205,-3.87171
280,-629,9.70837,4.39087,0,0,0,0,0,0,0,-1,1504,1653,9.7084,-4.39082
287,-629,6.26892,8.87463,0,0,0,0,0,0,0,-1,1511,1653,6.26893,-8.87469
294,-629,4.56628,10.6339,0,0,0,0,0,0,0,-1,1518,1653,4.56631,-10.6339
301,-629,4.82715,9.64673,0,0,0,0,0,0,0,-1,1525,1653,4.82719,-9.64671
308,-629,5.66858,9.71729,0,0,0,0,0,0,0,-1,1532,1653,5.66854,-9.71731
315,-629,4.55457,9.86072,0,0,0,0,0,0,0,-1,1539,1653,4.55454,-9.86072
322,-629,4.62891,9.78552,0.00717142,0.00695464,-0.000561437,0.00763484,0.00649123,-0.690043,0.00475475,0.0455377,1546,1653,4.62885,-9.78551
329,-629,4.86804,10.1771,0.00605809,0.00555624,0.000606863,0.00646386,0.00515048,0.589363,0.00394501,0.0396344,1553,1653,4.86809,-10.1772
336,-629,4.85498,9.84436,0.00483322,0.00434045,0.00144517,0.00605286,0.00312081,0.700966,0.00349519,0.0436422,1560,1653,4.85504,-9.84437
343,-629,5.02161,9.58679,0.00355896,0.00288528,0.0018921,0.00514397,0.00130027,0.697308,0.00308851,0.042597,1567,1653,5.02161,-9.58675
350,-629,4.95935,9.50562,0.00240891,0.00145609,0.00254262,0.00451936,-0.000654372,0.692787,0.00325305,0.0273722,1574,1653,4.95936,-9.50562
357,-629,4.90173,9.43176,0.001155,0.000789964,0.0026727,0.0036514,-0.00170644,0.751307,0.00316056,0.0156403,1581,1653,4.90177,-9.43179
364,-629,4.87305,9.34412,0.000403899,2.04743e-05,0.00236786,0.00258779,-0.00216342,0.745004,0.00274676,0.0120265,1588,1653,4.87302,-9.34411
371,-629,4.87012,9.25122,-4.35443e-05,-0.000609159,0.00222938,0.00192089,-0.0025736,0.722308,0.002604,0.00962222,1595,1653,4.87017,-9.25124
378,-629,4.85388,9.14844,-0.000475307,-0.00105239,0.00190186,0.00115978,-0.00268748,0.710114,0.00227884,0.00936167,1602,1653,4.85384,-9.1484
385,-629,4.84302,9.05774,-0.000614864,-0.00164791,0.00160059,0.000550483,-0.00281325,0.62932,0.00208338,0.011849,1609,1653,4.843,-9.05774
392,-629,4.83801,8.9812,-0.000653358,-0.00161057,0.00141999,0.000366514,-0.00263044,0.622853,0.0018877,0.0110229,1616,1653,4.83802,-8.98117
399,-629,4.84082,8.88257,-0.000764721,-0.00134041,0.00132724,0.000305532,-0.00241066,0.678615,0.00171803,0.0110452,1623,1653,4.84083,-8.88263
406,-629,4.84814,8.75146,-0.000703337,-0.00122271,0.00130032,0.000362978,-0.00228903,0.68684,0.00166029,0.0134751,1630,1653,4.84812,-8.75141
413,-629,4.85388,8.65503,-0.000726594,-0.000903054,0.00132492,0.000513028,-0.00214268,0.752151,0.00162665,0.0217421,1637,1653,4.85388,-8.65505
420,-629,4.85413,8.57703,-0.000804676,-0.000573438,0.00133682,0.000652756,-0.00203087,0.828535,0.00161606,0.0203967,1644,1653,4.85414,-8.57709
427,-629,4.87109,8.4248,-0.00094789,-0.000297719,0.00153024,0.000941588,-0.0021872,0.890062,0.00185351,0.0121151,1651,1653,4.87105,-8.42481
434,-629,4.88257,8.29578,-0.00109535,1.93258e-05,0.00172181,0.00127175,-0.00234778,0.941923,0.0021203,0.00918975,1658,1653,4.88253,-8.29572
441,-629,4.89038,8.21387,-0.00149467,0.000460677,0.00190868,0.00162751,-0.0026615,1.02209,0.00250013,0.0128355,1665,1653,4.89044,-8.21386
448,-629,4.86731,8.08008,-0.00235496,0.00124938,0.00209419,0.00221008,-0.00331566,1.14069,0.0032115,0.0133267,1672,1653,4.86732,-8.08012
455,-629,4.84656,7.94885,-0.00324164,0.0022569,0.00238107,0.00314466,-0.0041294,1.21392,0.00421249,0.0139098,1679,1653,4.84653,-7.94888
462,-629,4.86414,7.87256,-0.00431893,0.00339794,0.0025378,0.00415773,-0.00507871,1.2799,0.00534149,0.017142,1686,1653,4.86419,-7.8725
469,-629,4.8667,7.70654,-0.00579745,0.00512747,0.00269868,0.00575774,-0.00642772,1.34136,0.00703882,0.0193186,1693,1653,4.86671,-7.70658
476,-629,4.86963,7.57764,-0.00757569,0.00716613,0.00294596,0.00773304,-0.00814261,1.38068,0.00916683,0.0248728,1700,1653,4.86961,-7.57759
483,-629,4.81201,7.37439,-0.00960549,0.00962837,0.00315372,0.0101323,-0.0101094,1.41235,0.0116865,0.037113,1707,1653,4.81203,-7.37444
490,-629,4.70471,7.21411,-0.0113925,0.0146276,0.00214915,0.014804,-0.0115688,1.48894,0.0152645,0.0438827,1714,1653,4.70468,-7.21415
497,-629,4.47693,7.18103,-0.0131558,0.0197512,0.00125389,0.0197989,-0.0132036,1.53277,0.0191804,0.0449975,1721,1653,4.4769,-7.18101
504,-629,4.23608,7.18579,0,0,0,0,0,0,0,-1,1728,1653,4.23606,-7.18585
511,-629,6.29138,3.40295,0,0,0,0,0,0,0,-1,1735,1653,6.29137,-3.403
518,-629,5.84387,1.41858,0,0,0,0,0,0,0,-1,1742,1653,5.84391,-1.4186
525,-629,6.4729,1.02319,0,0,0,0,0,0,0,-1,1749,1653,6.47284,-1.02316
532,-629,6.86511,0.903687,0,0,0,0,0,0,0,-1,1756,1653,6.86514,-0.903691
539,-629,6.60803,0.746704,0,0,0,0,0,0,0,-1,1763,1653,6.60809,-0.746691
546,-629,0,0,0,0,0,0,0,0,0,-1,1770,1653,0,0
553,-629,0,0,0,0,0,0,0,0,0,-1,1777,1653,0,0
560,-629,0,0,0,0,0,0,0,0,0,-1,1784,1653,0,0
567,-629,0,0,0,0,0,0,0,0,0,-1,1791,1653,0,0
574,-629,0,0,0,0,0,0,0,0,0,-1,1798,1653,0,0
581,-629,0,0,0,0,0,0,0,0,0,-1,1805,1653,0,0
588,-629,0,0,0,0,0,0,0,0,0,-1,1812,1653,0,0
595,-629,0,0,0,0,0,0,0,0,0,-1,1819,1653,0,0
602,-629,0,0,0,0,0,0,0,0,0,-1,1826,1653,0,0
609,-629,0,0,0,0,0,0,0,0,0,-1,1833,1653,0,0
616,-629,0,0,0,0,0,0,0,0,0,-1,1840,1653,0,0
623,-629,0,0,0,0,0,0,0,0,0,-1,1847,1653,0,0
630,-629,0,0,0,0,0,0,0,0,0,-1,1854,1653,0,0
637,-629,0,0,0,0,0,0,0,0,0,-1,1861,1653,0,0
644,-629,0,0,0,0,0,0,0,0,0,-1,1868,1653,0,0
651,-629,0,0,0,0,0,0,0,0,0,-1,1875,1653,0,0
658,-629,0,0,0,0,0,0,0,0,0,-1,1882,1653,0,0
665,-629,0,0,0,0,0,0,0,0,0,-1,1889,1653,0,0
672,-629,0,0,0,0,0,0,0,0,0,-1,1896,1653,0,0
679,-629,0,0,0,0,0,0,0,0,0,-1,1903,1653,0,0
686,-629,0,0,0,0,0,0,0,0,0,-1,1910,1653,0,0
693,-629,0,0,0,0,0,0,0,0,0,-1,1917,1653,0,0
700,-629,0,0,0,0,0,0,0,0,0,-1,1924,1653,0,0
707,-629,0,0,0,0,0,0,0,0,0,-1,1931,1653,0,0
714,-629,0,0,0,0,0,0,0,0,0,-1,1938,1653,0,0
721,-629,0,0,0,0,0,0,0,0,0,-1,1945,1653,0,0
728,-629,0,0,0,0,0,0,0,0,0,-1,1952,1653,0,0
735,-629,0,0,0,0,0,0,0,0,0,-1,1959,1653,0,0
742,-629,0,0,0,0,0,0,0,0,0,-1,1966,1653,0,0
749,-629,0,0,0,0,0,0,0,0,0,-1,1973,1653,0,0
756,-629,0,0,0,0,0,0,0,0,0,-1,1980,1653,0,0
763,-629,0,0,0,0,0,0,0,0,0,-1,1987,1653,0,0
770,-629,0,0,0,0,0,0,0,0,0,-1,1994,1653,0,0
777,-629,0,0,0,0,0,0,0,0,0,-1,2001,1653,0,0
784,-629,0,0,0,0,0,0,0,0,0,-1,2008,1653,0,0
791,-629,0,0,0,0,0,0,0,0,0,-1,2015,1653,0,0
798,-629,0,0,0,0,0,0,0,0,0,-1,2022,1653,0,0
805,-629,0,0,0,0,0,0,0,0,0,-1,2029,1653,0,0
812,-629,0,0,0,0,0,0,0,0,0,-1,2036,1653,0,0
-700,-636,0,0,0,0,0,0,0,0,0,-1,524,1660,0,0
-693,-636,0,0,0,0,0,0,0,0,0,-1,531,1660,0,0
-686,-636,0,0,0,0,0,0,0,0,0,-1,538,1660,0,0
-679,-636,0,0,0,0,0,0,0,0,0,-1,545,1660,0,0
-672,-636,0,0,0,0,0,0,0,0,0,-1,552,1660,0,0
-665,-636,0,0,0,0,0,0,0,0,0,-1,559,1660,0,0
-658,-636,0,0,0,0,0,0,0,0,0,-1,566,1660,0,0
-651,-636,0,0,0,0,0,0,0,0,0,-1,573,1660,0,0
-644,-636,0,0,0,0,0,0,0,0,0,-1,580,1660,0,0
-637,-636,0,0,0,0,0,0,0,0,0,-1,587,1660,0,0
-630,-636,0,0,0,0,0,0,0,0,0,-1,594,1660,0,0
-623,-636,0,0,0,0,0,0,0,0,0,-1,601,1660,0,0
-616,-636,0,0,0,0,0,0,0,0,0,-1,608,1660,0,0
-609,-636,0,0,0,0,0,0,0,0,0,-1,615,1660,0,0
-602,-636,0,0,0,0,0,0,0,0,0,-1,622,1660,0,0
-595,-636,0,0,0,0,0,0,0,0,0,-1,629,1660,0,0
-588,-636,0,0,0,0,0,0,0,0,0,-1,636,1660,0,0
-581,-636,0,0,0,0,0,0,0,0,0,-1,643,1660,0,0
-574,-636,0,0,0,0,0,0,0,0,0,-1,650,1660,0,0
-567,-636,0,0,0,0,0,0,0,0,0,-1,657,1660,0,0
-560,-636,0,0,0,0,0,0,0,0,0,-1,664,1660,0,0
-553,-636,0,0,0,0,0,0,0,0,0,-1,671,1660,0,0
-546,-636,0,0,0,0,0,0,0,0,0,-1,678,1660,0,0
-539,-636,0,0,0,0,0,0,0,0,0,-1,685,1660,0,0
-532,-636,0,0,0,0,0,0,0,0,0,-1,692,1660,0,0
-525,-636,0,0,0,0,0,0,0,0,0,-1,699,1660,0,0
-518,-636,0,0,0,0,0,0,0,0,0,-1,706,1660,0,0
-511,-636,0,0,0,0,0,0,0,0,0,-1,713,1660,0,0
-504,-636,0,0,0,0,0,0,0,0,0,-1,720,1660,0,0
-497,-636,0,0,0,0,0,0,0,0,0,-1,727,1660,0,0
-490,-636,0,0,0,0,0,0,0,0,0,-1,734,1660,0,0
-483,-636,0,0,0,0,0,0,0,0,0,-1,741,1660,0,0
-476,-636,0,0,0,0,0,0,0,0,0,-1,748,1660,0,0
-469,-636,0,0,0,0,0,0,0,0,0,-1,755,1660,0,0
-462,-636,0,0,0,0,0,0,0,0,0,-1,762,1660,0,0
-455,-636,0,0,0,0,0,0,0,0,0,-1,769,1660,0,0
-448,-636,0,0,0,0,0,0,0,0,0,-1,776,1660,0,0
-441,-636,0,0,0,0,0,0,0,0,0,-1,783,1660,0,0
-434,-636,0,0,0,0,0,0,0,0,0,-1,790,1660,0,0
-427,-636,0,0,0,0,0,0,0,0,0,-1,797,1660,0,0
-420,-636,0,0,0,0,0,0,0,0,0,-1,804,1660,0,0
-413,-636,0,0,0,0,0,0,0,0,0,-1,811,1660,0,0
-406,-636,-5.62274,1.81348,0,0,0,0,0,0,0,-1,818,1660,-5.62276,-1.81351
-399,-636,2.01935,10.4464,0,0,0,0,0,0,0,-1,825,1660,2.01933,-10.4465
-392,-636,2.17908,8.96277,0,0,0,0,0,0,0,-1,832,1660,2.17905,-8.9628
-385,-636,1.51154,7.78967,-0.039536,0.0302863,-0.0522813,0.0582411,-0.0674908,-1.07978,0.0726568,0.0435007,839,1660,1.51152,-7.78965
-378,-636,0.843323,6.6283,0,0,0,0,0,0,0,-1,846,1660,0.843314,-6.62826
-371,-636,0.201721,5.46936,0,0,0,0,0,0,0,-1,853,1660,0.20171,-5.46938
-364,-636,2.36298,6.72449,0,0,0,0,0,0,0,-1,860,1660,2.36299,-6.72453
-357,-636,2.33917,6.60693,0,0,0,0,0,0,0,-1,867,1660,2.33918,-6.60689
-350,-636,2.40393,6.77307,0,0,0,0,0,0,0,-1,874,1660,2.40395,-6.77309
-343,-636,2.44409,6.73669,0,0,0,0,0,0,0,-1,881,1660,2.44412,-6.73672
-336,-636,2.55933,6.80884,-0.000670655,-0.00814398,-0.00199496,-0.000171456,-0.00864317,-0.245195,0.00570582,0.0365228,888,1660,2.55933,-6.80878
-329,-636,2.60992,6.88672,0.000843347,-0.00803699,-0.000182727,0.000847105,-0.00804075,-0.020565,0.00566402,0.0190744,895,1660,2.60991,-6.88678
-322,-636,2.58191,7.01538,0.000572757,-0.0058825,7.87089e-05,0.000573716,-0.00588346,0.0121906,0.00412686,0.0116978,902,1660,2.58194,-7.01532
-315,-636,2.55457,7.15466,0.000632357,-0.00460838,0.00019107,0.000639314,-0.00461533,0.0363943,0.00331063,0.0117859,909,1660,2.55454,-7.15468
-308,-636,2.5564,7.29395,0.000680163,-0.00357654,-4.33e-05,0.000680604,-0.00357699,-0.0101708,0.00264092,0.0107027,916,1660,2.55641,-7.29389
-301,-636,2.57568,7.45679,0.000738823,-0.00296734,-0.000351989,0.000771957,-0.00300047,-0.093856,0.00230121,0.0112696,923,1660,2.57569,-7.45682
-294,-636,2.57477,7.59973,0.000939665,-0.00258194,-0.000649034,0.00105547,-0.00269774,-0.176575,0.002235,0.0145875,930,1660,2.57476,-7.59977
-287,-636,2.57751,7.70154,0.00123963,-0.00228282,-0.000904743,0.00145842,-0.00250161,-0.237274,0.00231262,0.0123012,937,1660,2.5775,-7.70158
-280,-636,2.56647,7.82153,0.0015619,-0.00220859,-0.00112844,0.00187382,-0.00252051,-0.269683,0.00254621,0.0109028,944,1660,2.56647,-7.82157
-273,-636,2.5625,7.91797,0.00205056,-0.00220097,-0.00129292,0.00241287,-0.00256329,-0.273219,0.00287342,0.0113549,951,1660,2.5625,-7.91801
-266,-636,2.57007,8.04248,0.00260593,-0.00214607,-0.00143926,0.00300785,-0.00254799,-0.272319,0.00321133,0.0133626,958,1660,2.57005,-8.04247
-259,-636,2.58032,8.20142,0.00321182,-0.00240052,-0.00147199,0.00357446,-0.00276316,-0.241548,0.00366901,0.0142463,965,1660,2.58034,-8.20145
-252,-636,2.57635,8.3241,0.00383943,-0.0026497,-0.00140656,0.0041312,-0.00294146,-0.20453,0.00410261,0.0109406,972,1660,2.57634,-8.32415
-245,-636,2.58905,8.44995,0.00406331,-0.00250749,-0.000994565,0.00421055,-0.00265473,-0.146976,0.00399746,0.0105005,979,1660,2.58903,-8.45001
-238,-636,2.59406,8.55762,0.00386678,-0.00170925,-0.000501695,0.00391156,-0.00175403,-0.0890209,0.00334915,0.011282,986,1660,2.59406,-8.55759
-231,-636,2.57751,8.6676,0.00371234,-0.0010192,-9.05325e-05,0.00371407,-0.00102093,-0.0191245,0.00287738,0.0102761,993,1660,2.57749,-8.66764
-224,-636,2.58856,8.7843,0.00324224,-0.000272549,0.000453207,0.00329974,-0.000330047,0.126193,0.00231769,0.00882616,1000,1660,2.58858,-8.78436
-217,-636,2.58331,8.90271,0.00237535,0.000737822,0.00108256,0.00291391,0.000199268,0.46163,0.00187971,0.010532,1007,1660,2.58333,-8.90271
-210,-636,2.59308,8.98682,0.000650454,0.00176225,0.000976239,0.00232977,8.29358e-05,1.04422,0.00152629,0.014068,1014,1660,2.5931,-8.98684
-203,-636,2.63635,9.08008,-0.00133481,0.00370218,0.00141758,0.00407372,-0.00170636,1.31446,0.00342916,0.0174176,1021,1660,2.63633,-9.08012
-196,-636,2.71252,9.16919,-0.00319476,0.00680519,0.00112366,0.0069299,-0.00331946,1.46027,0.00603861,0.0187823,1028,1660,2.71258,-9.16914
-189,-636,2.75293,9.27368,-0.00420703,0.0100341,0.000743243,0.0100728,-0.00424572,1.51879,0.00849193,0.022348,1035,1660,2.75295,-9.2737
-182,-636,2.83435,9.13281,-0.00541131,0.0116427,6.25749e-05,0.011643,-0.00541154,1.56713,0.0100631,0.0399245,1042,1660,2.83439,-9.13281
-175,-636,2.78223,9.22571,0,0,0,0,0,0,0,-1,1049,1660,2.78227,-9.22566
-168,-636,2.703,9.255,0,0,0,0,0,0,0,-1,1056,1660,2.70295,-9.25506
-161,-636,2.6062,9.25354,0,0,0,0,0,0,0,-1,1063,1660,2.60624,-9.2535
-154,-636,2.0022,10.4742,0,0,0,0,0,0,0,-1,1070,1660,2.00223,-10.4743
-147,-636,2.37219,10.9589,0,0,0,0,0,0,0,-1,1077,1660,2.37216,-10.9589
-140,-636,3.05969,11.2738,0,0,0,0,0,0,0,-1,1084,1660,3.05969,-11.2738
-133,-636,2.83289,9.0946,0,0,0,0,0,0,0,-1,1091,1660,2.83286,-9.09454
-126,-636,2.95288,12.5918,0,0,0,0,0,0,0,-1,1098,1660,2.95289,-12.5918
-119,-636,3.53723,11.4589,0,0,0,0,0,0,0,-1,1105,1660,3.53721,-11.4589
-112,-636,-1.24963,9.7998,0,0,0,0,0,0,0,-1,1112,1660,-1.24968,-9.79978
-105,-636,3.51624,4.72791,0,0,0,0,0,0,0,-1,1119,1660,3.51618,-4.7279
-98,-636,1.54504,5.11914,0,0,0,0,0,0,0,-1,1126,1660,1.54503,-5.11912
-91,-636,-0.683716,1.89026,0,0,0,0,0,0,0,-1,1133,1660,-0.683726,-1.89031
-84,-636,-1.49976,0.145508,0,0,0,0,0,0,0,-1,1140,1660,-1.49977,-0.145448
-77,-636,-2.43152,1.93555,0,0,0,0,0,0,0,-1,1147,1660,-2.43149,-1.93559
-70,-636,-2.5116,3.94458,0,0,0,0,0,0,0,-1,1154,1660,-2.51159,-3.94455
-63,-636,-2.57678,6.03491,0,0,0,0,0,0,0,-1,1161,1660,-2.57683,-6.0349
-56,-636,-2.23694,8.49023,0,0,0,0,0,0,0,-1,1168,1660,-2.23692,-8.4902
-49,-636,-3.13,10.4113,0,0,0,0,0,0,0,-1,1175,1660,-3.12996,-10.4112
-42,-636,-2.27771,4.90173,0,0,0,0,0,0,0,-1,1182,1660,-2.27775,-4.90173
-35,-636,-2.27698,5.89685,0,0,0,0,0,0,0,-1,1189,1660,-2.27695,-5.89686
-28,-636,-1.70654,4.83936,0,0,0,0,0,0,0,-1,1196,1660,-1.70656,-4.8393
-21,-636,3.64148,10.7141,0,0,0,0,0,0,0,-1,1203,1660,3.64145,-10.7142
-14,-636,3.7572,10.5397,0,0,0,0,0,0,0,-1,1210,1660,3.75721,-10.5396
-7,-636,2.72339,10.269,0,0,0,0,0,0,0,-1,1217,1660,2.72337,-10.2691
0,-636,2.72192,10.2843,0,0,0,0,0,0,0,-1,1224,1660,2.7219,-10.2843
7,-636,2.76013,10.2925,0.0672188,0.0017406,-0.0343783,0.0819531,-0.0129936,-0.404908,0.0594419,0.0462974,1231,1660,2.76017,-10.2925
14,-636,2.79529,10.295,0,0,0,0,0,0,0,-1,1238,1660,2.79528,-10.2951
21,-636,2.64111,10.3792,0.0700771,0.00603213,0.00466465,0.0704151,0.00569417,0.0723252,0.0451651,0.0442283,1245,1660,2.64114,-10.3792
28,-636,4.44202,7.61597,0.0643538,0.0136549,0.024038,0.0739389,0.00406991,0.379425,0.0479935,0.0468498,1252,1660,4.44201,-7.61593
35,-636,4.89722,8.83276,0.0569723,0.0288065,0.0445451,0.0896077,-0.00382884,0.632295,0.0610548,0.0440086,1259,1660,4.89717,-8.83272
42,-636,5.91809,10.9058,0,0,0,0,0,0,0,-1,1266,1660,5.91808,-10.9058
49,-636,5.85571,11.8588,0,0,0,0,0,0,0,-1,1273,1660,5.85572,-11.8588
56,-636,5.79333,12.8118,0,0,0,0,0,0,0,-1,1280,1660,5.79337,-12.8118
63,-636,5.77075,14.2965,0,0,0,0,0,0,0,-1,1287,1660,5.77072,-14.2965
70,-636,5.72742,15.656,0.0117466,0.122075,0.093596,0.175554,-0.0417322,1.05169,0.133145,0.0475413,1294,1660,5.72744,-15.656
77,-636,5.57947,16.4208,0.00308069,0.137538,0.0951825,0.18684,-0.0462213,1.09287,0.142488,0.0480886,1301,1660,5.57943,-16.4208
84,-636,4.82312,16.9694,-0.00228721,0.160661,0.0889982,0.199846,-0.0414726,1.15604,0.148992,0.0477366,1308,1660,4.82311,-16.9693
91,-636,3.23169,13.3441,0,0,0,0,0,0,0,-1,1315,1660,3.23167,-13.3441
98,-636,3.24146,12.9249,0,0,0,0,0,0,0,-1,1322,1660,3.24144,-12.925
105,-636,3.25122,12.5059,0,0,0,0,0,0,0,-1,1329,1660,3.2512,-12.5058
112,-636,4.06653,10.9003,0,0,0,0,0,0,0,-1,1336,1660,4.06652,-10.9002
119,-636,2.8363,8.60486,0,0,0,0,0,0,0,-1,1343,1660,2.83628,-8.60483
126,-636,14.4976,16.8718,0,0,0,0,0,0,0,-1,1350,1660,14.4976,-16.8719
133,-636,6.49609,11.2874,0,0,0,0,0,0,0,-1,1357,1660,6.49606,-11.2874
140,-636,7.82239,9.93176,0,0,0,0,0,0,0,-1,1364,1660,7.82238,-9.93173
147,-636,8.99854,8.53333,0,0,0,0,0,0,0,-1,1371,1660,8.99858,-8.53336
154,-636,10.4495,7.66443,0,0,0,0,0,0,0,-1,1378,1660,10.4494,-7.66442
161,-636,10.2961,7.13025,0,0,0,0,0,0,0,-1,1385,1660,10.2961,-7.13021
168,-636,11.7659,5.83899,0,0,0,0,0,0,0,-1,1392,1660,11.7658,-5.83899
175,-636,5.94592,-1.72888,0,0,0,0,0,0,0,-1,1399,1660,5.94598,1.72886
182,-636,5.93994,-1.11938,0,0,0,0,0,0,0,-1,1406,1660,5.93998,1.11936
189,-636,5.32544,11.9595,0,0,0,0,0,0,0,-1,1413,1660,5.32542,-11.9595
196,-636,5.3623,9.38025,0,0,0,0,0,0,0,-1,1420,1660,5.36225,-9.38027
203,-636,5.18542,9.02429,0,0,0,0,0,0,0,-1,1427,1660,5.18547,-9.0243
210,-636,4.09167,7.17041,0,0,0,0,0,0,0,-1,1434,1660,4.09173,-7.17041
217,-636,2.94897,5.28992,0,0,0,0,0,0,0,-1,1441,1660,2.94899,-5.28991
224,-636,1.49194,3.63916,0,0,0,0,0,0,0,-1,1448,1660,1.49197,-3.63918
231,-636,0.17749,2.24854,0,0,0,0,0,0,0,-1,1455,1660,0.177501,-2.24855
238,-636,-0.764648,1.00598,0,0,0,0,0,0,0,-1,1462,1660,-0.764704,-1.00595
245,-636,6.21204,1.18005,0,0,0,0,0,0,0,-1,1469,1660,6.21206,-1.18001
252,-636,7.70251,0.865723,0,0,0,0,0,0,0,-1,1476,1660,7.7025,-0.865692
259,-636,9.03601,0.787231,0,0,0,0,0,0,0,-1,1483,1660,9.03598,-0.787243
266,-636,10.1071,3.24109,0,0,0,0,0,0,0,-1,1490,1660,10.1071,-3.24103
273,-636,8.48535,5.02466,0,0,0,0,0,0,0,-1,1497,1660,8.48533,-5.02472
280,-636,8.81384,5.66992,0,0,0,0,0,0,0,-1,1504,1660,8.81381,-5.66998
287,-636,4.50195,10.7633,0,0,0,0,0,0,0,-1,1511,1660,4.50196,-10.7633
294,-636,4.55737,10.3521,0.00719526,0.00713443,-0.00776111,0.014926,-0.000596327,-0.783439,0.0101553,0.0499191,1518,1660,4.55732,-10.3521
301,-636,4.69495,9.8501,0.00706191,0.00636908,-0.00531062,0.0120374,0.00139359,-0.752829,0.00760309,0.0444602,1525,1660,4.69498,-9.85004
308,-636,4.76282,9.81055,0,0,0,0,0,0,0,-1,1532,1660,4.76282,-9.8106
315,-636,4.55884,9.90259,0.00600933,0.00524774,-0.00152119,0.00719666,0.00406041,-0.662755,0.0041664,0.0486686,1539,1660,4.55888,-9.90265
322,-636,4.63232,9.755,0.00516717,0.00454291,-0.000344097,0.00531961,0.00439047,-0.417038,0.00328085,0.0386498,1546,1660,4.63231,-9.75501
329,-636,4.71948,9.75769,0.00448452,0.0036461,0.0005518,0.00475829,0.00337233,0.460553,0.00282587,0.0271854,1553,1660,4.71954,-9.75772
336,-636,4.73022,9.67163,0.00361373,0.0029126,0.00122347,0.00453587,0.00199046,0.645869,0.00262531,0.0226951,1560,1660,4.73027,-9.6716
343,-636,4.73096,9.61841,0.00267434,0.00204612,0.00156645,0.00395786,0.00076259,0.68645,0.00242469,0.0209278,1567,1660,4.73091,-9.61843
350,-636,4.72937,9.52527,0.00182047,0.00110424,0.00203319,0.00352684,-0.000602132,0.698225,0.00257551,0.0120999,1574,1660,4.72935,-9.52527
357,-636,4.75232,9.43921,0.00108607,0.000704609,0.00208726,0.00299129,-0.00120062,0.739836,0.00249272,0.00988025,1581,1660,4.75237,-9.43923
364,-636,4.76025,9.3562,0.000645563,0.000170311,0.00181809,0.00224149,-0.00142561,0.720416,0.0021346,0.00940411,1588,1660,4.76021,-9.35619
371,-636,4.75256,9.26501,0.000363005,-0.000284682,0.00164656,0.00171726,-0.00163894,0.688298,0.00193788,0.00871752,1595,1660,4.75257,-9.265
378,-636,4.76111,9.1499,9.53792e-05,-0.000574071,0.00134535,0.00114702,-0.00162571,0.663473,0.00160876,0.00936546,1602,1660,4.76116,-9.1499
385,-636,4.76746,9.0426,8.9321e-05,-0.000951114,0.00107917,0.000767112,-0.0016289,0.560804,0.00141285,0.0142836,1609,1660,4.76743,-9.04265
392,-636,4.75854,8.94788,5.01972e-05,-0.000794312,0.000988979,0.000703293,-0.00144741,0.583633,0.00126624,0.0145996,1616,1660,4.75849,-8.94786
399,-636,4.75391,8.84558,-0.000143888,-0.000549988,0.00112818,0.000799368,-0.00149324,0.696361,0.0013437,0.0112398,1623,1660,4.75395,-8.84553
406,-636,4.76306,8.75525,-8.2153e-05,-0.000501599,0.00127599,0.00100123,-0.00158498,0.703946,0.00150578,0.0134105,1630,1660,4.76301,-8.75522
413,-636,4.76453,8.67249,-0.000165689,-0.000198064,0.00148106,0.00129927,-0.00166302,0.779934,0.00171457,0.0212828,1637,1660,4.7645,-8.67243
420,-636,4.75354,8.56091,-0.000352753,8.47715e-05,0.00167398,0.00155422,-0.0018222,0.850372,0.00195143,0.0209335,1644,1660,4.75355,-8.56088
427,-636,4.7478,8.42297,-0.000633851,0.000297083,0.00208671,0.00196961,-0.00230638,0.895133,0.00247129,0.0119391,1651,1660,4.74784,-8.423
434,-636,4.74829,8.30359,-0.000937837,0.000536851,0.00250638,0.0024121,-0.00281308,0.928456,0.00301972,0.00999405,1658,1660,4.7483,-8.30361
441,-636,4.77075,8.17615,-0.00155297,0.000914685,0.00289216,0.00282521,-0.00346349,0.987015,0.00363701,0.0100737,1665,1660,4.77073,-8.17614
448,-636,4.80664,8.06848,-0.00274262,0.00170967,0.00323652,0.00341172,-0.00444468,1.08665,0.00454895,0.0125101,1672,1660,4.80668,-8.06852
455,-636,4.79114,7.93262,-0.00399616,0.00283732,0.00372931,0.00447843,-0.00563728,1.15624,0.00585307,0.014484,1679,1660,4.79113,-7.93262
462,-636,4.72192,7.79419,-0.00547424,0.00415175,0.0039997,0.00559675,-0.00691925,1.22411,0.00723955,0.018211,1686,1660,4.72193,-7.79422
469,-636,4.7146,7.65967,-0.00741852,0.00615263,0.00423623,0.00736641,-0.0086323,1.29175,0.00924649,0.0265469,1693,1660,4.71459,-7.6597
476,-636,4.51538,7.52368,-0.00979117,0.00862354,0.004502,0.00966525,-0.0108329,1.34341,0.011841,0.0381811,1700,1660,4.51533,-7.52368
483,-636,4.49548,7.25305,-0.0125219,0.0116285,0.00463056,0.0124859,-0.0133793,1.3877,0.0149362,0.0482461,1707,1660,4.49546,-7.25307
490,-636,4.48132,7.09619,-0.0151213,0.0171186,0.00380751,0.0175622,-0.0155648,1.45482,0.0191375,0.0492026,1714,1660,4.48137,-7.09616
497,-636,4.2876,6.96716,-0.0177554,0.0230954,0.00301928,0.0233173,-0.0179773,1.49742,0.0239078,0.0469585,1721,1660,4.28755,-6.96713
504,-636,3.97668,6.93176,0,0,0,0,0,0,0,-1,1728,1660,3.97673,-6.93172
511,-636,4.76794,2.83276,0,0,0,0,0,0,0,-1,1735,1660,4.7679,-2.83272
518,-636,6.72791,1.07605,0,0,0,0,0,0,0,-1,1742,1660,6.7279,-1.0761
525,-636,7.04309,0.93335,0,0,0,0,0,0,0,-1,1749,1660,7.04308,-0.933298
532,-636,0,0,0,0,0,0,0,0,0,-1,1756,1660,0,0
539,-636,0,0,0,0,0,0,0,0,0,-1,1763,1660,0,0
546,-636,0,0,0,0,0,0,0,0,0,-1,1770,1660,0,0
553,-636,0,0,0,0,0,0,0,0,0,-1,1777,1660,0,0
560,-636,0,0,0,0,0,0,0,0,0,-1,1784,1660,0,0
567,-636,0,0,0,0,0,0,0,0,0,-1,1791,1660,0,0
574,-636,0,0,0,0,0,0,0,0,0,-1,1798,1660,0,0
581,-636,0,0,0,0,0,0,0,0,0,-1,1805,1660,0,0
588,-636,0,0,0,0,0,0,0,0,0,-1,1812,1660,0,0
595,-636,0,0,0,0,0,0,0,0,0,-1,1819,1660,0,0
602,-636,0,0,0,0,0,0,0,0,0,-1,1826,1660,0,0
609,-636,0,0,0,0,0,0,0,0,0,-1,1833,1660,0,0
616,-636,0,0,0,0,0,0,0,0,0,-1,1840,1660,0,0
623,-636,0,0,0,0,0,0,0,0,0,-1,1847,1660,0,0
630,-636,0,0,0,0,0,0,0,0,0,-1,1854,1660,0,0
637,-636,0,0,0,0,0,0,0,0,0,-1,1861,1660,0,0
644,-636,0,0,0,0,0,0,0,0,0,-1,1868,1660,0,0
651,-636,0,0,0,0,0,0,0,0,0,-1,1875,1660,0,0
658,-636,0,0,0,0,0,0,0,0,0,-1,1882,1660,0,0
665,-636,0,0,0,0,0,0,0,0,0,-1,1889,1660,0,0
672,-636,0,0,0,0,0,0,0,0,0,-1,1896,1660,0,0
679,-636,0,0,0,0,0,0,0,0,0,-1,1903,1660,0,0
686,-636,0,0,0,0,0,0,0,0,0,-1,1910,1660,0,0
693,-636,0,0,0,0,0,0,0,0,0,-1,1917,1660,0,0
700,-636,0,0,0,0,0,0,0,0,0,-1,1924,1660,0,0
707,-636,0,0,0,0,0,0,0,0,0,-1,1931,1660,0,0
714,-636,0,0,0,0,0,0,0,0,0,-1,1938,1660,0,0
721,-636,0,0,0,0,0,0,0,0,0,-1,1945,1660,0,0
728,-636,0,0,0,0,0,0,0,0,0,-1,1952,1660,0,0
735,-636,0,0,0,0,0,0,0,0,0,-1,1959,1660,0,0
742,-636,0,0,0,0,0,0,0,0,0,-1,1966,1660,0,0
749,-636,0,0,0,0,0,0,0,0,0,-1,1973,1660,0,0
756,-636,0,0,0,0,0,0,0,0,0,-1,1980,1660,0,0
763,-636,0,0,0,0,0,0,0,0,0,-1,1987,1660,0,0
770,-636,0,0,0,0,0,0,0,0,0,-1,1994,1660,0,0
777,-636,0,0,0,0,0,0,0,0,0,-1,2001,1660,0,0
784,-636,0,0,0,0,0,0,0,0,0,-1,2008,1660,0,0
791,-636,0,0,0,0,0,0,0,0,0,-1,2015,1660,0,0
798,-636,0,0,0,0,0,0,0,0,0,-1,2022,1660,0,0
805,-636,0,0,0,0,0,0,0,0,0,-1,2029,1660,0,0
812,-636,0,0,0,0,0,0,0,0,0,-1,2036,1660,0,0
-700,-643,0,0,0,0,0,0,0,0,0,-1,524,1667,0,0
-693,-643,0,0,0,0,0,0,0,0,0,-1,531,1667,0,0
-686,-643,0,0,0,0,0,0,0,0,0,-1,538,1667,0,0
-679,-643,0,0,0,0,0,0,0,0,0,-1,545,1667,0,0
-672,-643,0,0,0,0,0,0,0,0,0,-1,552,1667,0,0
-665,-643,0,0,0,0,0,0,0,0,0,-1,559,1667,0,0
-658,-643,0,0,0,0,0,0,0,0,0,-1,566,1667,0,0
-651,-643,0,0,0,0,0,0,0,0,0,-1,573,1667,0,0
-644,-643,0,0,0,0,0,0,0,0,0,-1,580,1667,0,0
-637,-643,0,0,0,0,0,0,0,0,0,-1,587,1667,0,0
-630,-643,0,0,0,0,0,0,0,0,0,-1,594,1667,0,0
-623,-643,0,0,0,0,0,0,0,0,0,-1,601,1667,0,0
-616,-643,0,0,0,0,0,0,0,0,0,-1,608,1667,0,0
-609,-643,0,0,0,0,0,0,0,0,0,-1,615,1667,0,0
-602,-643,0,0,0,0,0,0,0,0,0,-1,622,1667,0,0
-595,-643,0,0,0,0,0,0,0,0,0,-1,629,1667,0,0
-588,-643,0,0,0,0,0,0,0,0,0,-1,636,1667,0,0
-581,-643,0,0,0,0,0,0,0,0,0,-1,643,1667,0,0
-574,-643,0,0,0,0,0,0,0,0,0,-1,650,1667,0,0
-567,-643,0,0,0,0,0,0,0,0,0,-1,657,1667,0,0
-560,-643,0,0,0,0,0,0,0,0,0,-1,664,1667,0,0
-553,-643,0,0,0,0,0,0,0,0,0,-1,671,1667,0,0
-546,-643,0,0,0,0,0,0,0,0,0,-1,678,1667,0,0
-539,-643,0,0,0,0,0,0,0,0,0,-1,685,1667,0,0
-532,-643,0,0,0,0,0,0,0,0,0,-1,692,1667,0,0
-525,-643,0,0,0,0,0,0,0,0,0,-1,699,1667,0,0
-518,-643,0,0,0,0,0,0,0,0,0,-1,706,1667,0,0
-511,-643,0,0,0,0,0,0,0,0,0,-1,713,1667,0,0
-504,-643,0,0,0,0,0,0,0,0,0,-1,720,1667,0,0
-497,-643,0,0,0,0,0,0,0,0,0,-1,727,1667,0,0
-490,-643,0,0,0,0,0,0,0,0,0,-1,734,1667,0,0
-483,-643,0,0,0,0,0,0,0,0,0,-1,741,1667,0,0
-476,-643,0,0,0,0,0,0,0,0,0,-1,748,1667,0,0
-469,-643,0,0,0,0,0,0,0,0,0,-1,755,1667,0,0
-462,-643,0,0,0,0,0,0,0,0,0,-1,762,1667,0,0
-455,-643,0,0,0,0,0,0,0,0,0,-1,769,1667,0,0
-448,-643,0,0,0,0,0,0,0,0,0,-1,776,1667,0,0
-441,-643,0,0,0,0,0,0,0,0,0,-1,783,1667,0,0
-434,-643,0,0,0,0,0,0,0,0,0,-1,790,1667,0,0
-427,-643,0,0,0,0,0,0,0,0,0,-1,797,1667,0,0
-420,-643,0,0,0,0,0,0,0,0,0,-1,804,1667,0,0
-413,-643,0,0,0,0,0,0,0,0,0,-1,811,1667,0,0
-406,-643,0,0,0,0,0,0,0,0,0,-1,818,1667,0,0
-399,-643,1.73962,9.50439,0,0,0,0,0,0,0,-1,825,1667,1.7396,-9.50444
-392,-643,2.12469,8.55945,0,0,0,0,0,0,0,-1,832,1667,2.12471,-8.55949
-385,-643,1.4986,7.11096,0,0,0,0,0,0,0,-1,839,1667,1.49861,-7.11098
-378,-643,0.872498,5.66248,0,0,0,0,0,0,0,-1,846,1667,0.872511,-5.66247
-371,-643,-0.328857,4.89856,0,0,0,0,0,0,0,-1,853,1667,-0.328874,-4.89861
-364,-643,-1.28375,3.60229,0,0,0,0,0,0,0,-1,860,1667,-1.28373,-3.6023
-357,-643,-3.7207,1.09961,0,0,0,0,0,0,0,-1,867,1667,-3.72071,-1.09957
-350,-643,-4.98132,-0.492676,0,0,0,0,0,0,0,-1,874,1667,-4.98133,0.492708
-343,-643,2.61505,6.17407,0,0,0,0,0,0,0,-1,881,1667,2.61504,-6.17412
-336,-643,2.67761,6.86438,0,0,0,0,0,0,0,-1,888,1667,2.67763,-6.86434
-329,-643,2.78235,6.95276,0.00140321,-0.00995037,-6.25828e-05,0.00140355,-0.00995072,-0.00551195,0.00714774,0.0405863,895,1667,2.78233,-6.95275
-322,-643,2.70062,7.04541,0.00132045,-0.00751946,-5.5071e-05,0.00132079,-0.0075198,-0.0062295,0.00550652,0.0247467,902,1667,2.70064,-7.04539
-315,-643,2.64783,7.16003,0.00149949,-0.00588919,-0.000106539,0.00150102,-0.00589073,-0.0144152,0.00451151,0.016308,909,1667,2.64783,-7.16002
-308,-643,2.67542,7.28064,0.00167583,-0.00444948,-0.000454935,0.00170944,-0.00448309,-0.0737321,0.00369286,0.0125294,916,1667,2.6754,-7.28066
-301,-643,2.69476,7.4364,0.00162671,-0.00340324,-0.000858426,0.00176917,-0.0035457,-0.164464,0.00312516,0.0138842,923,1667,2.69477,-7.43637
-294,-643,2.69116,7.56982,0.00161864,-0.00248889,-0.00114711,0.00191728,-0.00278753,-0.254689,0.00273177,0.0122659,930,1667,2.69117,-7.56988
-287,-643,2.69012,7.68738,0.00164225,-0.00182345,-0.00131126,0.00208246,-0.00226366,-0.32389,0.00250996,0.00984636,937,1667,2.69013,-7.68738
-280,-643,2.6958,7.81812,0.00163371,-0.00136046,-0.00140326,0.00218855,-0.0019153,-0.376529,0.00237111,0.012986,944,1667,2.69581,-7.81814
-273,-643,2.68829,7.92993,0.00172481,-0.00102118,-0.00141352,0.00232238,-0.00161876,-0.39997,0.00228748,0.011752,951,1667,2.68831,-7.92995
-266,-643,2.69257,8.04102,0.00186808,-0.000658874,-0.0014212,0.00250623,-0.00129702,-0.42204,0.0022325,0.011788,958,1667,2.69257,-8.04096
-259,-643,2.71252,8.17395,0.00202307,-0.000656601,-0.00131834,0.00256291,-0.00119644,-0.388657,0.00221774,0.0106915,965,1667,2.71252,-8.17396
-252,-643,2.71643,8.31653,0.00220458,-0.000750081,-0.00110856,0.00257425,-0.00111975,-0.321873,0.00218715,0.0114092,972,1667,2.7164,-8.31647
-245,-643,2.70953,8.45654,0.00222406,-0.000703694,-0.000673991,0.00237177,-0.0008514,-0.215741,0.00192867,0.011297,979,1667,2.70951,-8.4566
-238,-643,2.73456,8.56323,0.00208417,-0.000288892,-0.000226897,0.00210567,-0.000310392,-0.0944732,0.00151786,0.0143818,986,1667,2.73454,-8.56327
-231,-643,2.69958,8.6687,0.00199543,-1.54744e-05,0.000130804,0.0020039,-2.39472e-05,0.0646841,0.00134399,0.0108253,993,1667,2.69956,-8.66875
-224,-643,2.70099,8.77332,0.00176041,0.000184093,0.000541632,0.00192857,1.59253e-05,0.301046,0.00128044,0.00963025,1000,1667,2.70101,-8.77326
-217,-643,2.70081,8.87048,0.00133578,0.000493561,0.000903553,0.00191153,-8.21959e-05,0.567335,0.00130262,0.00889603,1007,1667,2.70081,-8.87051
-210,-643,2.7157,8.99329,0.000337261,0.000778872,0.000737483,0.0013279,-0.000211762,0.930853,0.000963638,0.0106583,1014,1667,2.71572,-8.99325
-203,-643,2.74457,9.10535,-0.000696624,0.00176826,0.000928225,0.00207871,-0.00100707,1.24804,0.00181704,0.0116525,1021,1667,2.74459,-9.10539
-196,-643,2.74158,9.20532,-0.00147502,0.00369208,0.000678352,0.00377965,-0.00156259,1.44241,0.00317164,0.0117309,1028,1667,2.74162,-9.20537
-189,-643,2.7655,9.30872,-0.00180962,0.00604544,0.000448825,0.006071,-0.00183519,1.5139,0.00477802,0.0113226,1035,1667,2.76551,-9.30874
-182,-643,2.80908,9.3595,-0.00225285,0.00725032,3.72911e-05,0.00725047,-0.002253,1.56687,0.00573413,0.018265,1042,1667,2.80912,-9.35949
-175,-643,2.8208,9.34033,0.000927556,0.00726517,-0.000201519,0.00727157,0.000921155,-1.53904,0.0045717,0.0324403,1049,1667,2.82083,-9.34036
-168,-643,2.75781,9.40442,0.00615258,0.00616888,5.36414e-05,0.00621499,0.00610647,0.860768,0.00410763,0.0416024,1056,1667,2.75785,-9.40444
-161,-643,2.66626,9.43738,0.0112379,0.00562173,0.000181988,0.0112438,0.00561584,0.032359,0.00649161,0.0470478,1063,1667,2.66631,-9.43739
-154,-643,2.74426,10.1632,0.0178781,0.00432724,0.000552969,0.0179006,0.00430471,0.0407168,0.010789,0.0452279,1070,1667,2.74424,-10.1633
-147,-643,2.48035,10.5216,0.0259602,0.00149616,0.0013348,0.0260328,0.00142355,0.0543468,0.0169007,0.0488794,1077,1667,2.48038,-10.5216
-140,-643,3.1073,10.7888,0.0355062,-0.00327797,0.00186162,0.0355953,-0.00336712,0.0478529,0.0249285,0.0483554,1084,1667,3.10734,-10.7888
-133,-643,3.15918,9.47388,0,0,0,0,0,0,0,-1,1091,1667,3.15918,-9.4739
-126,-643,3.10364,9.56128,0,0,0,0,0,0,0,-1,1098,1667,3.10361,-9.56127
-119,-643,3.77991,9.22595,0,0,0,0,0,0,0,-1,1105,1667,3.77985,-9.22598
-112,-643,4.83691,11.9102,0,0,0,0,0,0,0,-1,1112,1667,4.83695,-11.9101
-105,-643,-2.23413,10.0996,0,0,0,0,0,0,0,-1,1119,1667,-2.23415,-10.0996
-98,-643,3.11035,4.68066,0,0,0,0,0,0,0,-1,1126,1667,3.11041,-4.68071
-91,-643,-1.74146,-2.5885,0,0,0,0,0,0,0,-1,1133,1667,-1.74146,2.58856
-84,-643,-2.66321,-0.724854,0,0,0,0,0,0,0,-1,1140,1667,-2.66319,0.724859
-77,-643,-3.41113,1.38452,0,0,0,0,0,0,0,-1,1147,1667,-3.41112,-1.38447
-70,-643,-3.45691,3.40881,0,0,0,0,0,0,0,-1,1154,1667,-3.45691,-3.40883
-63,-643,-3.58789,5.37854,0,0,0,0,0,0,0,-1,1161,1667,-3.58783,-5.37852
-56,-643,-3.65552,7.49316,0,0,0,0,0,0,0,-1,1168,1667,-3.65548,-7.49313
-49,-643,-4.13489,9.21753,0,0,0,0,0,0,0,-1,1175,1667,-4.13492,-9.21753
-42,-643,-4.25195,10.7059,0,0,0,0,0,0,0,-1,1182,1667,-4.25192,-10.706
-35,-643,-4.10986,11.6588,0,0,0,0,0,0,0,-1,1189,1667,-4.10982,-11.6589
-28,-643,-1.38513,5.604,0,0,0,0,0,0,0,-1,1196,1667,-1.3851,-5.60403
-21,-643,3.64307,10.9258,0,0,0,0,0,0,0,-1,1203,1667,3.64305,-10.9257
-14,-643,3.77893,10.6642,0,0,0,0,0,0,0,-1,1210,1667,3.77887,-10.6641
-7,-643,3.91467,10.4026,0,0,0,0,0,0,0,-1,1217,1667,3.9147,-10.4025
0,-643,1.75647,11.1414,0,0,0,0,0,0,0,-1,1224,1667,1.75644,-11.1414
7,-643,2.44775,10.7836,0,0,0,0,0,0,0,-1,1231,1667,2.44771,-10.7836
14,-643,1.48633,10.6312,0,0,0,0,0,0,0,-1,1238,1667,1.48627,-10.6313
21,-643,4.48047,7.74426,0.0589682,0.00193757,0.00161497,0.0590139,0.00189187,0.0282874,0.0387274,0.0408222,1245,1667,4.48042,-7.74421
28,-643,4.37549,8.73718,0.0543947,0.0076508,0.0173838,0.0601508,0.00189468,0.319757,0.0394842,0.0425475,1252,1667,4.37554,-8.73714
35,-643,4.59949,9.78528,0.0480445,0.0189459,0.0336462,0.0701524,-0.00316194,0.581329,0.047857,0.042918,1259,1667,4.59947,-9.78532
42,-643,5.2998,11.4154,0,0,0,0,0,0,0,-1,1266,1667,5.29977,-11.4154
49,-643,5.17822,12.2549,0.0323312,0.0433003,0.0562223,0.094305,-0.0186735,0.83402,0.0699305,0.0465098,1273,1667,5.17823,-12.2549
56,-643,5.08496,13.1183,0.0243628,0.0571433,0.0626656,0.105527,-0.0240205,0.913308,0.0795757,0.0463755,1280,1667,5.08497,-13.1182
63,-643,4.98865,14.0989,0.0172082,0.0733081,0.0669307,0.117829,-0.0273126,0.983825,0.0890639,0.0487033,1287,1667,4.98864,-14.0989
70,-643,5.20959,14.7518,0.0101658,0.0888713,0.0675496,0.127695,-0.0286581,1.04915,0.0961176,0.0462396,1294,1667,5.20958,-14.7519
77,-643,5.34009,15.7386,0.00299769,0.0997085,0.0676859,0.134537,-0.0318312,1.09556,0.101972,0.0453857,1301,1667,5.34014,-15.7386
84,-643,5.42761,16.7446,0,0,0,0,0,0,0,-1,1308,1667,5.42759,-16.7446
91,-643,3.21423,13.0198,0,0,0,0,0,0,0,-1,1315,1667,3.21419,-13.0198
98,-643,3.23169,12.5323,0,0,0,0,0,0,0,-1,1322,1667,3.23174,-12.5323
105,-643,3.24927,12.0449,0,0,0,0,0,0,0,-1,1329,1667,3.24929,-12.0449
112,-643,3.33691,10.5137,0,0,0,0,0,0,0,-1,1336,1667,3.33695,-10.5137
119,-643,2.90173,9.62524,0,0,0,0,0,0,0,-1,1343,1667,2.90178,-9.62523
126,-643,13.6875,15.3385,0,0,0,0,0,0,0,-1,1350,1667,13.6875,-15.3385
133,-643,6.55261,10.6722,0,0,0,0,0,0,0,-1,1357,1667,6.5526,-10.6722
140,-643,8.03223,9.64551,0,0,0,0,0,0,0,-1,1364,1667,8.03221,-9.64557
147,-643,9.37537,8.44385,0,0,0,0,0,0,0,-1,1371,1667,9.37538,-8.44385
154,-643,10.7915,7.22852,0,0,0,0,0,0,0,-1,1378,1667,10.7915,-7.22852
161,-643,12.2321,5.97412,0,0,0,0,0,0,0,-1,1385,1667,12.232,-5.97411
168,-643,10.5563,10.9818,0,0,0,0,0,0,0,-1,1392,1667,10.5562,-10.9819
175,-643,5.88525,-1.1698,0,0,0,0,0,0,0,-1,1399,1667,5.88526,1.16977
182,-643,5.80945,-0.418701,0,0,0,0,0,0,0,-1,1406,1667,5.80949,0.418712
189,-643,5.42297,12.9208,0,0,0,0,0,0,0,-1,1413,1667,5.42298,-12.9208
196,-643,5.51953,11.2415,0,0,0,0,0,0,0,-1,1420,1667,5.51948,-11.2414
203,-643,5.60828,9.82153,0,0,0,0,0,0,0,-1,1427,1667,5.60833,-9.82148
210,-643,4.73218,7.58728,0,0,0,0,0,0,0,-1,1434,1667,4.73222,-7.58728
217,-643,3.8031,5.28955,0,0,0,0,0,0,0,-1,1441,1667,3.80305,-5.28955
224,-643,2.96436,2.97095,0,0,0,0,0,0,0,-1,1448,1667,2.96432,-2.97095
231,-643,2.13403,1.08472,0,0,0,0,0,0,0,-1,1455,1667,2.13403,-1.08467
238,-643,1.18152,-0.261963,0,0,0,0,0,0,0,-1,1462,1667,1.18152,0.26192
245,-643,-0.157471,-1.79016,0,0,0,0,0,0,0,-1,1469,1667,-0.157517,1.7901
252,-643,8.08789,0.0202637,0,0,0,0,0,0,0,-1,1476,1667,8.08791,-0.0203056
259,-643,9.02979,-0.46936,0,0,0,0,0,0,0,-1,1483,1667,9.02974,0.46933
266,-643,4.55066,5.17554,0,0,0,0,0,0,0,-1,1490,1667,4.55063,-5.17556
273,-643,4.34363,6.56836,0,0,0,0,0,0,0,-1,1497,1667,4.34363,-6.5684
280,-643,4.38281,10.4628,0,0,0,0,0,0,0,-1,1504,1667,4.38287,-10.4627
287,-643,4.54236,10.2786,0,0,0,0,0,0,0,-1,1511,1667,4.5424,-10.2785
294,-643,4.57776,10.1364,0.00442572,0.00461326,-0.00523515,0.00975548,-0.000716499,-0.794353,0.00675517,0.0445296,1518,1667,4.57777,-10.1364
301,-643,4.60181,9.88953,0.00457798,0.004052,-0.00363803,0.00796251,0.000667465,-0.749317,0.00510043,0.0359537,1525,1667,4.60178,-9.88957
308,-643,4.61646,9.94238,0.0045024,0.00364092,-0.00228637,0.00639825,0.00174507,-0.692293,0.0038191,0.0323008,1532,1667,4.61642,-9.94244
315,-643,4.58472,9.92517,0.0041837,0.00333269,-0.00110537,0.00494264,0.00257376,-0.60167,0.00285445,0.0260706,1539,1667,4.58469,-9.92523
322,-643,4.60791,9.86646,0.00368077,0.00292163,-0.000239235,0.00374987,0.00285253,-0.281191,0.00226096,0.0150455,1546,1667,4.60785,-9.86646
329,-643,4.60217,9.7771,0.00330016,0.00233827,0.000435522,0.00346805,0.00217038,0.36794,0.0020233,0.0113276,1553,1667,4.60219,-9.77707
336,-643,4.59058,9.72559,0.00271171,0.00192098,0.000969602,0.00336345,0.00126923,0.591809,0.00196127,0.010947,1560,1667,4.59052,-9.72561
343,-643,4.5929,9.64844,0.00203473,0.00147041,0.0012253,0.00300994,0.000495201,0.672233,0.00186362,0.0130109,1567,1667,4.59288,-9.6485
350,-643,4.6239,9.53967,0.00140669,0.000908553,0.00155925,0.00273664,-0.000421393,0.706199,0.00197989,0.0126501,1574,1667,4.62392,-9.53969
357,-643,4.64832,9.45068,0.000937834,0.000729233,0.00157001,0.002407,-0.000739938,0.75223,0.00189997,0.0109688,1581,1667,4.6483,-9.45073
364,-643,4.65881,9.36255,0.000681817,0.000413965,0.00132688,0.00188152,-0.000785734,0.735102,0.00158266,0.00933975,1588,1667,4.6588,-9.36257
371,-643,4.64807,9.26709,0.000537264,0.000124703,0.00114501,0.00149443,-0.000832459,0.696276,0.00136143,0.00790638,1595,1667,4.64811,-9.26713
378,-643,4.64954,9.16541,0.000409376,-7.83538e-06,0.000885803,0.0011108,-0.000709264,0.669756,0.00105931,0.0098928,1602,1667,4.64954,-9.16543
385,-643,4.66577,9.0592,0.000497598,-0.000176157,0.000637192,0.000881485,-0.000560043,0.54223,0.000839135,0.0150487,1609,1667,4.66573,-9.05917
392,-643,4.65881,8.94666,0.000433255,9.25673e-05,0.000613076,0.000899213,-0.00037339,0.649891,0.000755354,0.0149392,1616,1667,4.65879,-8.94668
399,-643,4.6532,8.87012,0.000139941,0.00029523,0.000969909,0.0011906,-0.000755427,0.82534,0.00113286,0.0129673,1623,1667,4.65315,-8.87008
406,-643,4.66223,8.76611,0.000210512,0.000248726,0.00127842,0.00150818,-0.00104895,0.792871,0.00148427,0.0121982,1630,1667,4.6622,-8.76607
413,-643,4.66992,8.66394,7.47083e-05,0.000505566,0.00165851,0.00196258,-0.00138231,0.849983,0.00194084,0.0165118,1637,1667,4.66986,-8.6639
420,-643,4.64893,8.54028,-0.000208601,0.000711486,0.00205602,0.00235831,-0.00185542,0.895462,0.00243857,0.0155272,1644,1667,4.64897,-8.5403
427,-643,4.6377,8.42517,-0.000622637,0.00082067,0.00274659,0.00293883,-0.0027408,0.913867,0.0032798,0.0137028,1651,1667,4.63767,-8.42513
434,-643,4.64014,8.31128,-0.00107539,0.000935126,0.00348521,0.00355715,-0.00369742,0.925805,0.00418869,0.0151243,1658,1667,4.64011,-8.31132
441,-643,4.67883,8.16321,-0.00189096,0.00118741,0.0041673,0.00409069,-0.00479424,0.962301,0.00513508,0.0143217,1665,1667,4.67888,-8.16322
448,-643,4.74426,8.04626,-0.00342642,0.00197669,0.00474382,0.00473428,-0.006184,1.04424,0.00632217,0.0185609,1672,1667,4.74431,-8.04625
455,-643,4.61548,7.9541,-0.00509118,0.0032388,0.00553517,0.00600095,-0.00785333,1.10793,0.00802257,0.0247969,1679,1667,4.61553,-7.95409
462,-643,4.53931,7.79016,-0.00698418,0.00472509,0.00598096,0.00723996,-0.00949905,1.17276,0.00969356,0.0346159,1686,1667,4.53934,-7.79016
469,-643,4.58472,7.65466,-0.00946512,0.0070177,0.00634549,0.00917754,-0.011625,1.24272,0.012038,0.0393902,1693,1667,4.58476,-7.65471
476,-643,4.23291,7.44104,0,0,0,0,0,0,0,-1,1700,1667,4.23292,-7.44109
483,-643,4.19397,7.17505,0,0,0,0,0,0,0,-1,1707,1667,4.19391,-7.17503
490,-643,4.17102,6.95374,-0.0195444,0.0193906,0.0059933,0.0202923,-0.020446,1.42147,0.0235203,0.0480056,1714,1667,4.17102,-6.95378
497,-643,3.93286,6.54834,-0.023196,0.0261661,0.00526225,0.0267208,-0.0237507,1.46576,0.0291566,0.04376,1721,1667,3.93287,-6.54838
504,-643,3.89441,5.85571,-0.0270273,0.0357343,0.00369827,0.0359515,-0.0272445,1.51214,0.0366015,0.0469155,1728,1667,3.89439,-5.85568
511,-643,3.86475,4.87097,0,0,0,0,0,0,0,-1,1735,1667,3.86479,-4.87094
518,-643,7.40564,0.922607,0,0,0,0,0,0,0,-1,1742,1667,7.4057,-0.922598
525,-643,0,0,0,0,0,0,0,0,0,-1,1749,1667,0,0
532,-643,0,0,0,0,0,0,0,0,0,-1,1756,1667,0,0
539,-643,0,0,0,0,0,0,0,0,0,-1,1763,1667,0,0
546,-643,0,0,0,0,0,0,0,0,0,-1,1770,1667,0,0
553,-643,0,0,0,0,0,0,0,0,0,-1,1777,1667,0,0
560,-643,0,0,0,0,0,0,0,0,0,-1,1784,1667,0,0
567,-643,0,0,0,0,0,0,0,0,0,-1,1791,1667,0,0
574,-643,0,0,0,0,0,0,0,0,0,-1,1798,1667,0,0
581,-643,0,0,0,0,0,0,0,0,0,-1,1805,1667,0,0
588,-643,0,0,0,0,0,0,0,0,0,-1,1812,1667,0,0
595,-643,0,0,0,0,0,0,0,0,0,-1,1819,1667,0,0
602,-643,0,0,0,0,0,0,0,0,0,-1,1826,1667,0,0
609,-643,0,0,0,0,0,0,0,0,0,-1,1833,1667,0,0
616,-643,0,0,0,0,0,0,0,0,0,-1,1840,1667,0,0
623,-643,0,0,0,0,0,0,0,0,0,-1,1847,1667,0,0
630,-643,0,0,0,0,0,0,0,0,0,-1,1854,1667,0,0
637,-643,0,0,0,0,0,0,0,0,0,-1,1861,1667,0,0
644,-643,0,0,0,0,0,0,0,0,0,-1,1868,1667,0,0
651,-643,0,0,0,0,0,0,0,0,0,-1,1875,1667,0,0
658,-643,0,0,0,0,0,0,0,0,0,-1,1882,1667,0,0
665,-643,0,0,0,0,0,0,0,0,0,-1,1889,1667,0,0
672,-643,0,0,0,0,0,0,0,0,0,-1,1896,1667,0,0
679,-643,0,0,0,0,0,0,0,0,0,-1,1903,1667,0,0
686,-643,0,0,0,0,0,0,0,0,0,-1,1910,1667,0,0
693,-643,0,0,0,0,0,0,0,0,0,-1,1917,1667,0,0
700,-643,0,0,0,0,0,0,0,0,0,-1,1924,1667,0,0
707,-643,0,0,0,0,0,0,0,0,0,-1,1931,1667,0,0
714,-643,0,0,0,0,0,0,0,0,0,-1,1938,1667,0,0
721,-643,0,0,0,0,0,0,0,0,0,-1,1945,1667,0,0
728,-643,0,0,0,0,0,0,0,0,0,-1,1952,1667,0,0
735,-643,0,0,0,0,0,0,0,0,0,-1,1959,1667,0,0
742,-643,0,0,0,0,0,0,0,0,0,-1,1966,1667,0,0
749,-643,0,0,0,0,0,0,0,0,0,-1,1973,1667,0,0
756,-643,0,0,0,0,0,0,0,0,0,-1,1980,1667,0,0
763,-643,0,0,0,0,0,0,0,0,0,-1,1987,1667,0,0
770,-643,0,0,0,0,0,0,0,0,0,-1,1994,1667,0,0
777,-643,0,0,0,0,0,0,0,0,0,-1,2001,1667,0,0
784,-643,0,0,0,0,0,0,0,0,0,-1,2008,1667,0,0
791,-643,0,0,0,0,0,0,0,0,0,-1,2015,1667,0,0
798,-643,0,0,0,0,0,0,0,0,0,-1,2022,1667,0,0
805,-643,0,0,0,0,0,0,0,0,0,-1,2029,1667,0,0
812,-643,0,0,0,0,0,0,0,0,0,-1,2036,1667,0,0
-700,-650,0,0,0,0,0,0,0,0,0,-1,524,1674,0,0
-693,-650,0,0,0,0,0,0,0,0,0,-1,531,1674,0,0
-686,-650,0,0,0,0,0,0,0,0,0,-1,538,1674,0,0
-679,-650,0,0,0,0,0,0,0,0,0,-1,545,1674,0,0
-672,-650,0,0,0,0,0,0,0,0,0,-1,552,1674,0,0
-665,-650,0,0,0,0,0,0,0,0,0,-1,559,1674,0,0
-658,-650,0,0,0,0,0,0,0,0,0,-1,566,1674,0,0
-651,-650,0,0,0,0,0,0,0,0,0,-1,573,1674,0,0
-644,-650,0,0,0,0,0,0,0,0,0,-1,580,1674,0,0
-637,-650,0,0,0,0,0,0,0,0,0,-1,587,1674,0,0
-630,-650,0,0,0,0,0,0,0,0,0,-1,594,1674,0,0
-623,-650,0,0,0,0,0,0,0,0,0,-1,601,1674,0,0
-616,-650,0,0,0,0,0,0,0,0,0,-1,608,1674,0,0
-609,-650,0,0,0,0,0,0,0,0,0,-1,615,1674,0,0
-602,-650,0,0,0,0,0,0,0,0,0,-1,622,1674,0,0
-595,-650,0,0,0,0,0,0,0,0,0,-1,629,1674,0,0
-588,-650,0,0,0,0,0,0,0,0,0,-1,636,1674,0,0
-581,-650,0,0,0,0,0,0,0,0,0,-1,643,1674,0,0
-574,-650,0,0,0,0,0,0,0,0,0,-1,650,1674,0,0
-567,-650,0,0,0,0,0,0,0,0,0,-1,657,1674,0,0
-560,-650,0,0,0,0,0,0,0,0,0,-1,664,1674,0,0
-553,-650,0,0,0,0,0,0,0,0,0,-1,671,1674,0,0
-546,-650,0,0,0,0,0,0,0,0,0,-1,678,1674,0,0
-539,-650,0,0,0,0,0,0,0,0,0,-1,685,1674,0,0
-532,-650,0,0,0,0,0,0,0,0,0,-1,692,1674,0,0
-525,-650,0,0,0,0,0,0,0,0,0,-1,699,1674,0,0
-518,-650,0,0,0,0,0,0,0,0,0,-1,706,1674,0,0
-511,-650,0,0,0,0,0,0,0,0,0,-1,713,1674,0,0
-504,-650,0,0,0,0,0,0,0,0,0,-1,720,1674,0,0
-497,-650,0,0,0,0,0,0,0,0,0,-1,727,1674,0,0
-490,-650,0,0,0,0,0,0,0,0,0,-1,734,1674,0,0
-483,-650,0,0,0,0,0,0,0,0,0,-1,741,1674,0,0
-476,-650,0,0,0,0,0,0,0,0,0,-1,748,1674,0,0
-469,-650,0,0,0,0,0,0,0,0,0,-1,755,1674,0,0
-462,-650,0,0,0,0,0,0,0,0,0,-1,762,1674,0,0
-455,-650,0,0,0,0,0,0,0,0,0,-1,769,1674,0,0
-448,-650,0,0,0,0,0,0,0,0,0,-1,776,1674,0,0
-441,-650,0,0,0,0,0,0,0,0,0,-1,783,1674,0,0
-434,-650,0,0,0,0,0,0,0,0,0,-1,790,1674,0,0
-427,-650,0,0,0,0,0,0,0,0,0,-1,797,1674,0,0
-420,-650,0,0,0,0,0,0,0,0,0,-1,804,1674,0,0
-413,-650,0,0,0,0,0,0,0,0,0,-1,811,1674,0,0
-406,-650,0,0,0,0,0,0,0,0,0,-1,818,1674,0,0
-399,-650,0,0,0,0,0,0,0,0,0,-1,825,1674,0,0
-392,-650,1.72925,8.36951,0,0,0,0,0,0,0,-1,832,1674,1.72927,-8.36954
-385,-650,1.4787,6.38037,0,0,0,0,0,0,0,-1,839,1674,1.47868,-6.38036
-378,-650,1.22809,4.39111,0,0,0,0,0,0,0,-1,846,1674,1.22809,-4.39117
-371,-650,-1.35962,5.05627,0,0,0,0,0,0,0,-1,853,1674,-1.35961,-5.05633
-364,-650,-2.5766,3.37585,0,0,0,0,0,0,0,-1,860,1674,-2.57662,-3.37586
-357,-650,-3.83185,1.63733,0,0,0,0,0,0,0,-1,867,1674,-3.83184,-1.63728
-350,-650,-5.04651,0.108032,0,0,0,0,0,0,0,-1,874,1674,-5.0465,-0.10798
-343,-650,-6.21338,-1.4425,0,0,0,0,0,0,0,-1,881,1674,-6.21341,1.44248
-336,-650,-7.48254,-3.47656,0,0,0,0,0,0,0,-1,888,1674,-7.48257,3.47656
-329,-650,2.93213,7.03455,0,0,0,0,0,0,0,-1,895,1674,2.93214,-7.0346
-322,-650,2.82898,7.3175,0.00307864,-0.0095644,-0.000867532,0.00313789,-0.00962365,-0.0681914,0.00767851,0.0416982,902,1674,2.829,-7.31754
-315,-650,2.78387,7.21228,0.00344748,-0.00763722,-0.00119386,0.00357461,-0.00776434,-0.106082,0.00669386,0.0383525,909,1674,2.78384,-7.21232
-308,-650,2.82745,7.26501,0.00372321,-0.0058879,-0.00173482,0.00402676,-0.00619145,-0.173222,0.00594345,0.022149,916,1674,2.82742,-7.26502
-301,-650,2.81744,7.42651,0.0035888,-0.00451481,-0.00223642,0.00416503,-0.00509104,-0.252172,0.0053529,0.0118113,923,1674,2.81742,-7.4265
-294,-650,2.79291,7.54639,0.00340743,-0.00317156,-0.00252314,0.00426366,-0.00402779,-0.327155,0.00478771,0.00996954,930,1674,2.79294,-7.54644
-287,-650,2.78113,7.66162,0.00316987,-0.0021919,-0.00261686,0.00423533,-0.00325736,-0.386656,0.00433817,0.0125082,937,1674,2.78114,-7.66158
-280,-650,2.80774,7.79773,0.00284998,-0.00138086,-0.00253673,0.00403759,-0.00256847,-0.437857,0.00384532,0.013255,944,1674,2.80776,-7.79772
-273,-650,2.81683,7.9303,0.00256525,-0.000774928,-0.00236237,0.00378825,-0.00199793,-0.477709,0.00339354,0.0134791,951,1674,2.81685,-7.93025
-266,-650,2.80554,8.04675,0.00232668,-0.000165852,-0.00220208,0.00361069,-0.00144987,-0.527895,0.00300919,0.0115369,958,1674,2.80557,-8.04672
-259,-650,2.81873,8.15857,0.00205943,6.35207e-05,-0.00192551,0.00323023,-0.00110728,-0.546316,0.00260233,0.0133981,965,1674,2.81871,-8.15862
-252,-650,2.8324,8.2832,0.00180977,0.000126896,-0.00153002,0.00271446,-0.000777796,-0.533994,0.00211708,0.0116071,972,1674,2.83238,-8.28326
-245,-650,2.81879,8.41724,0.00157002,0.000160099,-0.000997621,0.00208662,-0.000356505,-0.477814,0.00152388,0.0114087,979,1674,2.81876,-8.41723
-238,-650,2.80725,8.54053,0.00135104,0.000371028,-0.000504685,0.00156446,0.000157605,-0.400077,0.000994612,0.0127163,986,1674,2.80726,-8.54056
-231,-650,2.80493,8.6554,0.0011672,0.000444781,-9.10502e-05,0.0011785,0.000433482,-0.123463,0.000688285,0.0171356,993,1674,2.80491,-8.65542
-224,-650,2.80969,8.77771,0.000960818,0.000363694,0.000320428,0.00110022,0.000224291,0.410354,0.000671324,0.0146525,1000,1674,2.80971,-8.77773
-217,-650,2.81537,8.88293,0.000736276,0.000352957,0.000577285,0.00115289,-6.3652e-05,0.625122,0.000790662,0.0101848,1007,1674,2.8154,-8.88291
-210,-650,2.83893,8.98389,0.000183535,0.000265994,0.000458149,0.000684765,-0.000235237,0.830273,0.000551894,0.00907572,1014,1674,2.8389,-8.98391
-203,-650,2.85889,9.10779,-0.000366987,0.000703213,0.000591151,0.000965478,-0.000629253,1.15323,0.000927514,0.0134233,1021,1674,2.85886,-9.10773
-196,-650,2.8551,9.19666,-0.000649382,0.00190222,0.000453304,0.00198036,-0.000727521,1.4001,0.00161821,0.0132681,1028,1674,2.85508,-9.19661
-189,-650,2.84583,9.28979,-0.000551139,0.00354557,0.000325196,0.00357122,-0.000576792,1.49207,0.00259454,0.0102176,1035,1674,2.84579,-9.28977
-182,-650,2.87085,9.39832,-0.000537951,0.00444883,7.29882e-05,0.0044499,-0.000539019,1.55616,0.00316163,0.00838818,1042,1674,2.87086,-9.39828
-175,-650,2.87476,9.49084,0.00155539,0.00467163,-2.79637e-05,0.00467188,0.00155514,-1.56182,0.00274708,0.0132193,1049,1674,2.87478,-9.49084
-168,-650,2.84216,9.59753,0.00490768,0.00436926,0.000182298,0.0049636,0.00431335,0.297616,0.00311502,0.0188979,1056,1674,2.84214,-9.59756
-161,-650,2.81433,9.70447,0.00827152,0.00440016,0.000357175,0.0083042,0.00436748,0.0912346,0.00479658,0.0270027,1063,1674,2.81437,-9.70452
-154,-650,2.85779,9.77917,0.0126613,0.00395288,0.00070129,0.0127174,0.00389677,0.0798444,0.00752361,0.0295301,1070,1674,2.85773,-9.77919
-147,-650,2.85632,9.87036,0.0179844,0.00242042,0.00132159,0.0180958,0.00230899,0.0841108,0.0113726,0.0378528,1077,1674,2.85635,-9.8703
-140,-650,3.07971,10.3135,0.0242061,-0.000649628,0.00171351,0.0243237,-0.000767198,0.0685061,0.0164775,0.0451249,1084,1674,3.07975,-10.3135
-133,-650,3.15125,9.66064,0.0307239,-0.00535069,0.00225312,0.0308641,-0.00549086,0.0621355,0.0226295,0.0456605,1091,1674,3.15121,-9.66066
-126,-650,3.16345,9.79529,0.0364199,-0.00999738,0.00335508,0.0366611,-0.0102386,0.0717836,0.028474,0.0450589,1098,1674,3.1634,-9.79532
-119,-650,3.17297,10.1918,0,0,0,0,0,0,0,-1,1105,1674,3.17294,-10.1918
-112,-650,4.44983,11.4351,0,0,0,0,0,0,0,-1,1112,1674,4.44987,-11.435
-105,-650,4.9259,12.0626,0,0,0,0,0,0,0,-1,1119,1674,4.92591,-12.0626
-98,-650,3.3761,6.78003,0,0,0,0,0,0,0,-1,1126,1674,3.37611,-6.78009
-91,-650,3.66809,7.04443,0,0,0,0,0,0,0,-1,1133,1674,3.66806,-7.04439
-84,-650,-3.82666,-1.59521,0,0,0,0,0,0,0,-1,1140,1674,-3.82661,1.59517
-77,-650,-4.39075,0.833374,0,0,0,0,0,0,0,-1,1147,1674,-4.39075,-0.833349
-70,-650,-4.40222,2.87305,0,0,0,0,0,0,0,-1,1154,1674,-4.40223,-2.8731
-63,-650,-4.59888,4.72217,0,0,0,0,0,0,0,-1,1161,1674,-4.59883,-4.72214
-56,-650,-5.18176,6.61133,0,0,0,0,0,0,0,-1,1168,1674,-5.18181,-6.61131
-49,-650,-5.11316,8.23706,0,0,0,0,0,0,0,-1,1175,1674,-5.11317,-8.23708
-42,-650,-4.99487,9.6792,0,0,0,0,0,0,0,-1,1182,1674,-4.99484,-9.67921
-35,-650,-4.77771,11.3369,0,0,0,0,0,0,0,-1,1189,1674,-4.77769,-11.3369
-28,-650,-4.1936,13.1501,0,0,0,0,0,0,0,-1,1196,1674,-4.19358,-13.1501
-21,-650,3.38782,10.7932,0,0,0,0,0,0,0,-1,1203,1674,3.38782,-10.7932
-14,-650,3.71082,10.4817,0,0,0,0,0,0,0,-1,1210,1674,3.71081,-10.4817
-7,-650,2.13379,11.4159,0,0,0,0,0,0,0,-1,1217,1674,2.13384,-11.4159
0,-650,2.02405,11.3342,0.042042,-0.00533619,-0.0317088,0.0579335,-0.0212277,-0.464583,0.0473131,0.0484922,1224,1674,2.02409,-11.3342
7,-650,2.26904,11.0066,0.048518,-0.00567189,-0.0223435,0.0565424,-0.0136963,-0.344792,0.0429938,0.0441997,1231,1674,2.26901,-11.0066
14,-650,1.88489,10.9114,0.0510558,-0.00434535,-0.0117588,0.0534482,-0.0067378,-0.200722,0.0380773,0.0443904,1238,1674,1.88484,-10.9113
21,-650,1.43347,10.8676,0,0,0,0,0,0,0,-1,1245,1674,1.43347,-10.8676
28,-650,4.25916,9.64417,0.0462943,0.0030321,0.0122347,0.0495146,-0.000188211,0.257374,0.0330726,0.043128,1252,1674,4.25921,-9.64418
35,-650,4.37366,10.5288,0.0409338,0.011225,0.0245693,0.0547901,-0.00263129,0.513503,0.0374347,0.0447625,1259,1674,4.37369,-10.5289
42,-650,4.57141,11.2731,0.0346039,0.0190855,0.034381,0.0620904,-0.00840096,0.674416,0.0444593,0.0455687,1266,1674,4.57143,-11.2731
49,-650,4.41809,12.1039,0.0279001,0.0286875,0.0404587,0.0687544,-0.0121669,0.790264,0.050384,0.0425066,1273,1674,4.41811,-12.1039
56,-650,4.30664,12.9827,0.0211442,0.0387596,0.0447907,0.0756004,-0.0156966,0.88248,0.0563658,0.0457786,1280,1674,4.30666,-12.9826
63,-650,4.19446,13.9003,0.0151632,0.0507716,0.0472536,0.0834639,-0.0175291,0.965563,0.062313,0.0496287,1287,1674,4.19444,-13.9003
70,-650,4.05737,14.7379,0,0,0,0,0,0,0,-1,1294,1674,4.05739,-14.7379
77,-650,4.85559,14.9821,0,0,0,0,0,0,0,-1,1301,1674,4.85559,-14.9821
84,-650,3.64978,12.8413,0,0,0,0,0,0,0,-1,1308,1674,3.64981,-12.8413
91,-650,3.49976,11.9789,0,0,0,0,0,0,0,-1,1315,1674,3.4997,-11.9789
98,-650,3.13293,11.9158,-0.00660653,0.0995404,0.0281056,0.106523,-0.013589,1.32729,0.0759512,0.0456941,1322,1674,3.13296,-11.9158
105,-650,2.96045,10.8013,-0.0090768,0.104639,0.022878,0.109069,-0.0135069,1.37952,0.0776077,0.0453734,1329,1674,2.96042,-10.8013
112,-650,2.61365,10.1368,0,0,0,0,0,0,0,-1,1336,1674,2.61371,-10.1369
119,-650,2.14429,9.26062,0,0,0,0,0,0,0,-1,1343,1674,2.14434,-9.26066
126,-650,5.80383,11.0126,0,0,0,0,0,0,0,-1,1350,1674,5.80383,-11.0126
133,-650,6.95325,10.2365,0,0,0,0,0,0,0,-1,1357,1674,6.95321,-10.2365
140,-650,8.4552,9.10828,0,0,0,0,0,0,0,-1,1364,1674,8.45514,-9.10822
147,-650,9.88245,7.93323,0,0,0,0,0,0,0,-1,1371,1674,9.88241,-7.93326
154,-650,11.1335,6.7926,0,0,0,0,0,0,0,-1,1378,1674,11.1336,-6.79262
161,-650,11.2434,8.83008,0,0,0,0,0,0,0,-1,1385,1674,11.2434,-8.83004
168,-650,11.2113,7.87231,0,0,0,0,0,0,0,-1,1392,1674,11.2113,-7.87236
175,-650,5.62537,-0.230713,0,0,0,0,0,0,0,-1,1399,1674,5.62538,0.230745
182,-650,5.56006,0.421631,0,0,0,0,0,0,0,-1,1406,1674,5.56,-0.421652
189,-650,4.81543,11.0654,0,0,0,0,0,0,0,-1,1413,1674,4.81542,-11.0654
196,-650,5.39575,11.9077,0,0,0,0,0,0,0,-1,1420,1674,5.39575,-11.9078
203,-650,3.93628,11.8215,0,0,0,0,0,0,0,-1,1427,1674,3.93624,-11.8216
210,-650,5.40955,8.08594,0,0,0,0,0,0,0,-1,1434,1674,5.40958,-8.086
217,-650,5.12451,4.69739,0,0,0,0,0,0,0,-1,1441,1674,5.12451,-4.69738
224,-650,4.79041,1.45813,0,0,0,0,0,0,0,-1,1448,1674,4.79046,-1.45816
231,-650,4.04102,-0.642212,0,0,0,0,0,0,0,-1,1455,1674,4.04101,0.642209
238,-650,3.23022,-1.43396,0,0,0,0,0,0,0,-1,1462,1674,3.23023,1.43394
245,-650,1.65894,-2.55042,0,0,0,0,0,0,0,-1,1469,1674,1.65889,2.55036
252,-650,8.75342,0.355103,0,0,0,0,0,0,0,-1,1476,1674,8.75337,-0.355147
259,-650,5.61255,3.17566,0,0,0,0,0,0,0,-1,1483,1674,5.61257,-3.17572
266,-650,4.00403,6.10229,0,0,0,0,0,0,0,-1,1490,1674,4.00401,-6.10225
273,-650,4.49695,10.5425,0,0,0,0,0,0,0,-1,1497,1674,4.4969,-10.5425
280,-650,4.42273,10.397,0.0012506,0.00403874,-0.00504481,0.00787855,-0.00258921,-0.920203,0.00629549,0.0428444,1504,1674,4.42275,-10.3969
287,-650,4.50378,10.2119,0.00202731,0.00358085,-0.00442983,0.0073015,-0.00169334,-0.87219,0.00551939,0.0386486,1511,1674,4.50383,-10.212
294,-650,4.55566,10.1,0.00262887,0.00293249,-0.00339895,0.00618302,-0.00062166,-0.807716,0.00434409,0.0341883,1518,1674,4.55562,-10.0999
301,-650,4.51331,10.012,0.00295127,0.00256802,-0.00239746,0.00516475,0.000354538,-0.745519,0.00333128,0.0255209,1525,1674,4.51336,-10.012
308,-650,4.51794,9.99585,0.0030284,0.00226008,-0.0015604,0.00425124,0.00103724,-0.664702,0.00255946,0.0154418,1532,1674,4.51792,-9.9958
315,-650,4.51746,9.97034,0.00285951,0.0020857,-0.00078809,0.00335055,0.00159466,-0.557212,0.00193519,0.0103707,1539,1674,4.51748,-9.97028
322,-650,4.52783,9.87927,0.0025668,0.00186998,-0.000165955,0.00260431,0.00183248,-0.222263,0.0015446,0.00920835,1546,1674,4.52787,-9.87928
329,-650,4.53918,9.75818,0.00237352,0.0015085,0.000338337,0.00249013,0.00139189,0.331917,0.00144101,0.0143976,1553,1674,4.53918,-9.75822
336,-650,4.52539,9.71265,0.00197449,0.00133568,0.000773243,0.0024917,0.000818469,0.589537,0.00146653,0.0137297,1560,1674,4.52544,-9.7126
343,-650,4.51184,9.65027,0.00148504,0.00116704,0.000976974,0.00231587,0.00033621,0.704732,0.00144494,0.0132033,1567,1674,4.51182,-9.6503
350,-650,4.53979,9.5271,0.00104089,0.000898779,0.00120925,0.00218117,-0.000241505,0.756052,0.00154094,0.0161204,1574,1674,4.53984,-9.52714
357,-650,4.55103,9.43164,0.000732694,0.000894911,0.00119592,0.00201247,-0.000384866,0.819257,0.00148664,0.013828,1581,1674,4.55101,-9.43162
364,-650,4.54761,9.35046,0.000618709,0.000760433,0.000972727,0.00166488,-0.000285734,0.821758,0.0012164,0.0094339,1588,1674,4.54763,-9.35042
371,-650,4.53064,9.25,0.000626841,0.000608744,0.0007836,0.00140144,-0.000165859,0.779625,0.000994205,0.0111747,1595,1674,4.53063,-9.25003
378,-650,4.5282,9.15234,0.000652176,0.000623878,0.000575209,0.00121341,6.26443e-05,0.773102,0.000788888,0.0119728,1602,1674,4.52818,-9.15235
385,-650,4.5426,9.06116,0.000845333,0.000653281,0.000349582,0.00111184,0.000386777,0.65136,0.000651748,0.0132464,1609,1674,4.54256,-9.06118
392,-650,4.55457,8.95886,0.000773167,0.00102886,0.000400162,0.0013211,0.000480925,0.940017,0.000772082,0.0167956,1616,1674,4.55459,-8.9589
399,-650,4.56152,8.87292,0.000398154,0.00118809,0.00099196,0.00186082,-0.000274579,0.974862,0.00134147,0.0158102,1623,1674,4.56149,-8.87288
406,-650,4.55298,8.77576,0.000519835,0.00105493,0.00149264,0.00230381,-0.000729047,0.874078,0.00182801,0.0138418,1630,1674,4.553,-8.77582
413,-650,4.55615,8.66541,0.000350254,0.00123761,0.00208139,0.00292209,-0.00133423,0.890409,0.00251374,0.0135156,1637,1674,4.55616,-8.66541
420,-650,4.53882,8.54944,-4.37402e-05,0.00134511,0.00275211,0.00348905,-0.00218768,0.908981,0.00330605,0.0137035,1644,1674,4.53884,-8.54941
427,-650,4.52979,8.44006,-0.000578989,0.00133613,0.0038305,0.00432694,-0.0035698,0.907879,0.00456617,0.013808,1651,1674,4.52978,-8.44006
434,-650,4.54004,8.31226,-0.00117908,0.00129884,0.00501205,0.00522279,-0.00510303,0.906567,0.00596175,0.0183485,1658,1674,4.54002,-8.31225
441,-650,4.59119,8.14148,-0.00220061,0.00139095,0.00611353,0.00596699,-0.00677665,0.92825,0.00736249,0.0305275,1665,1674,4.59117,-8.14151
448,-650,4.37622,8.06165,-0.00412768,0.0021414,0.00701466,0.00669,-0.00867629,0.995516,0.0088964,0.040623,1672,1674,4.37628,-8.06161
455,-650,4.35864,7.94666,-0.00626817,0.00353925,0.0081705,0.00816462,-0.0108935,1.05567,0.0110408,0.0403652,1679,1674,4.35862,-7.94663
462,-650,4.61292,7.68298,-0.00867833,0.00518332,0.008826,0.00947455,-0.0129696,1.11825,0.0130104,0.0476564,1686,1674,4.61292,-7.68296
469,-650,4.66858,7.68799,-0.0118501,0.00777338,0.00935218,0.0115165,-0.0155932,1.19008,0.0157107,0.0494728,1693,1674,4.66862,-7.688
476,-650,4.59485,7.58472,0,0,0,0,0,0,0,-1,1700,1674,4.59486,-7.58477
483,-650,4.24243,7.20618,0,0,0,0,0,0,0,-1,1707,1674,4.24242,-7.20616
490,-650,3.87732,6.78369,0,0,0,0,0,0,0,-1,1714,1674,3.87737,-6.78367
497,-650,3.22363,6.42383,-0.02901,0.0284171,0.008097,0.0295369,-0.0301298,1.43337,0.0344492,0.0411475,1721,1674,3.22364,-6.42381
504,-650,2.72314,5.67078,-0.0338315,0.0388543,0.00651443,0.0394335,-0.0344107,1.48211,0.0426668,0.0448836,1728,1674,2.72313,-5.67072
511,-650,2.23401,4.8822,0,0,0,0,0,0,0,-1,1735,1674,2.23404,-4.8822
518,-650,0,0,0,0,0,0,0,0,0,-1,1742,1674,0,0
525,-650,0,0,0,0,0,0,0,0,0,-1,1749,1674,0,0
532,-650,0,0,0,0,0,0,0,0,0,-1,1756,1674,0,0
539,-650,0,0,0,0,0,0,0,0,0,-1,1763,1674,0,0
546,-650,0,0,0,0,0,0,0,0,0,-1,1770,1674,0,0
553,-650,0,0,0,0,0,0,0,0,0,-1,1777,1674,0,0
560,-650,0,0,0,0,0,0,0,0,0,-1,1784,1674,0,0
567,-650,0,0,0,0,0,0,0,0,0,-1,1791,1674,0,0
574,-650,0,0,0,0,0,0,0,0,0,-1,1798,1674,0,0
581,-650,0,0,0,0,0,0,0,0,0,-1,1805,1674,0,0
588,-650,0,0,0,0,0,0,0,0,0,-1,1812,1674,0,0
595,-650,0,0,0,0,0,0,0,0,0,-1,1819,1674,0,0
602,-650,0,0,0,0,0,0,0,0,0,-1,1826,1674,0,0
609,-650,0,0,0,0,0,0,0,0,0,-1,1833,1674,0,0
616,-650,0,0,0,0,0,0,0,0,0,-1,1840,1674,0,0
623,-650,0,0,0,0,0,0,0,0,0,-1,1847,1674,0,0
630,-650,0,0,0,0,0,0,0,0,0,-1,1854,1674,0,0
637,-650,0,0,0,0,0,0,0,0,0,-1,1861,1674,0,0
644,-650,0,0,0,0,0,0,0,0,0,-1,1868,1674,0,0
651,-650,0,0,0,0,0,0,0,0,0,-1,1875,1674,0,0
658,-650,0,0,0,0,0,0,0,0,0,-1,1882,1674,0,0
665,-650,0,0,0,0,0,0,0,0,0,-1,1889,1674,0,0
672,-650,0,0,0,0,0,0,0,0,0,-1,1896,1674,0,0
679,-650,0,0,0,0,0,0,0,0,0,-1,1903,1674,0,0
686,-650,0,0,0,0,0,0,0,0,0,-1,1910,1674,0,0
693,-650,0,0,0,0,0,0,0,0,0,-1,1917,1674,0,0
700,-650,0,0,0,0,0,0,0,0,0,-1,1924,1674,0,0
707,-650,0,0,0,0,0,0,0,0,0,-1,1931,1674,0,0
714,-650,0,0,0,0,0,0,0,0,0,-1,1938,1674,0,0
721,-650,0,0,0,0,0,0,0,0,0,-1,1945,1674,0,0
728,-650,0,0,0,0,0,0,0,0,0,-1,1952,1674,0,0
735,-650,0,0,0,0,0,0,0,0,0,-1,1959,1674,0,0
742,-650,0,0,0,0,0,0,0,0,0,-1,1966,1674,0,0
749,-650,0,0,0,0,0,0,0,0,0,-1,1973,1674,0,0
756,-650,0,0,0,0,0,0,0,0,0,-1,1980,1674,0,0
763,-650,0,0,0,0,0,0,0,0,0,-1,1987,1674,0,0
770,-650,0,0,0,0,0,0,0,0,0,-1,1994,1674,0,0
777,-650,0,0,0,0,0,0,0,0,0,-1,2001,1674,0,0
784,-650,0,0,0,0,0,0,0,0,0,-1,2008,1674,0,0
791,-650,0,0,0,0,0,0,0,0,0,-1,2015,1674,0,0
798,-650,0,0,0,0,0,0,0,0,0,-1,2022,1674,0,0
805,-650,0,0,0,0,0,0,0,0,0,-1,2029,1674,0,0
812,-650,0,0,0,0,0,0,0,0,0,-1,2036,1674,0,0
-700,-657,0,0,0,0,0,0,0,0,0,-1,524,1681,0,0
-693,-657,0,0,0,0,0,0,0,0,0,-1,531,1681,0,0
-686,-657,0,0,0,0,0,0,0,0,0,-1,538,1681,0,0
-679,-657,0,0,0,0,0,0,0,0,0,-1,545,1681,0,0
-672,-657,0,0,0,0,0,0,0,0,0,-1,552,1681,0,0
-665,-657,0,0,0,0,0,0,0,0,0,-1,559,1681,0,0
-658,-657,0,0,0,0,0,0,0,0,0,-1,566,1681,0,0
-651,-657,0,0,0,0,0,0,0,0,0,-1,573,1681,0,0
-644,-657,0,0,0,0,0,0,0,0,0,-1,580,1681,0,0
-637,-657,0,0,0,0,0,0,0,0,0,-1,587,1681,0,0
-630,-657,0,0,0,0,0,0,0,0,0,-1,594,1681,0,0
-623,-657,0,0,0,0,0,0,0,0,0,-1,601,1681,0,0
-616,-657,0,0,0,0,0,0,0,0,0,-1,608,1681,0,0
-609,-657,0,0,0,0,0,0,0,0,0,-1,615,1681,0,0
-602,-657,0,0,0,0,0,0,0,0,0,-1,622,1681,0,0
-595,-657,0,0,0,0,0,0,0,0,0,-1,629,1681,0,0
-588,-657,0,0,0,0,0,0,0,0,0,-1,636,1681,0,0
-581,-657,0,0,0,0,0,0,0,0,0,-1,643,1681,0,0
-574,-657,0,0,0,0,0,0,0,0,0,-1,650,1681,0,0
-567,-657,0,0,0,0,0,0,0,0,0,-1,657,1681,0,0
-560,-657,0,0,0,0,0,0,0,0,0,-1,664,1681,0,0
-553,-657,0,0,0,0,0,0,0,0,0,-1,671,1681,0,0
-546,-657,0,0,0,0,0,0,0,0,0,-1,678,1681,0,0
-539,-657,0,0,0,0,0,0,0,0,0,-1,685,1681,0,0
-532,-657,0,0,0,0,0,0,0,0,0,-1,692,1681,0,0
-525,-657,0,0,0,0,0,0,0,0,0,-1,699,1681,0,0
-518,-657,0,0,0,0,0,0,0,0,0,-1,706,1681,0,0
-511,-657,0,0,0,0,0,0,0,0,0,-1,713,1681,0,0
-504,-657,0,0,0,0,0,0,0,0,0,-1,720,1681,0,0
-497,-657,0,0,0,0,0,0,0,0,0,-1,727,1681,0,0
-490,-657,0,0,0,0,0,0,0,0,0,-1,734,1681,0,0
-483,-657,0,0,0,0,0,0,0,0,0,-1,741,1681,0,0
-476,-657,0,0,0,0,0,0,0,0,0,-1,748,1681,0,0
-469,-657,0,0,0,0,0,0,0,0,0,-1,755,1681,0,0
-462,-657,0,0,0,0,0,0,0,0,0,-1,762,1681,0,0
-455,-657,0,0,0,0,0,0,0,0,0,-1,769,1681,0,0
-448,-657,0,0,0,0,0,0,0,0,0,-1,776,1681,0,0
-441,-657,0,0,0,0,0,0,0,0,0,-1,783,1681,0,0
-434,-657,0,0,0,0,0,0,0,0,0,-1,790,1681,0,0
-427,-657,0,0,0,0,0,0,0,0,0,-1,797,1681,0,0
-420,-657,0,0,0,0,0,0,0,0,0,-1,804,1681,0,0
-413,-657,0,0,0,0,0,0,0,0,0,-1,811,1681,0,0
-406,-657,0,0,0,0,0,0,0,0,0,-1,818,1681,0,0
-399,-657,0,0,0,0,0,0,0,0,0,-1,825,1681,0,0
-392,-657,0,0,0,0,0,0,0,0,0,-1,832,1681,0,0
-385,-657,1.67822,5.90381,0,0,0,0,0,0,0,-1,839,1681,1.67823,-5.9038
-378,-657,1.46515,3.85718,0,0,0,0,0,0,0,-1,846,1681,1.46517,-3.85721
-371,-657,-2.36639,5.16479,0,0,0,0,0,0,0,-1,853,1681,-2.36641,-5.16474
-364,-657,-3.10522,3.5072,0,0,0,0,0,0,0,-1,860,1681,-3.10525,-3.50723
-357,-657,-3.97162,2.20276,0,0,0,0,0,0,0,-1,867,1681,-3.97159,-2.20277
-350,-657,-5.17291,0.715698,0,0,0,0,0,0,0,-1,874,1681,-5.17294,-0.715695
-343,-657,-6.50574,-0.622192,0,0,0,0,0,0,0,-1,881,1681,-6.50574,0.622157
-336,-657,-7.74731,-1.99902,0,0,0,0,0,0,0,-1,888,1681,-7.74732,1.99908
-329,-657,2.63916,7.50073,0,0,0,0,0,0,0,-1,895,1681,2.63917,-7.50075
-322,-657,2.67725,7.5011,0.00527427,-0.0115723,-0.00166901,0.00543803,-0.0117361,-0.0978046,0.0101353,0.0450088,902,1681,2.67724,-7.5011
-315,-657,2.65936,7.44995,0.00586134,-0.00933219,-0.00235324,0.00621748,-0.00968832,-0.150197,0.00925581,0.0397469,909,1681,2.65935,-7.44994
-308,-657,2.76178,7.43054,0.00622077,-0.0073075,-0.00315514,0.00692045,-0.00800718,-0.218225,0.00862608,0.0343725,916,1681,2.76181,-7.43056
-301,-657,2.96185,7.44556,0.00596075,-0.00565907,-0.00388223,0.00713845,-0.00683678,-0.294535,0.00806923,0.0290676,923,1681,2.96186,-7.44552
-294,-657,2.93164,7.54602,0.0055953,-0.00392891,-0.00424257,0.00721106,-0.00554466,-0.363883,0.00738544,0.0166566,930,1681,2.93167,-7.54606
-287,-657,2.91229,7.67053,0.00510151,-0.00259136,-0.00431702,0.00703709,-0.00452695,-0.42149,0.00672873,0.0110071,937,1681,2.91231,-7.67051
-280,-657,2.91956,7.79321,0.00442526,-0.00144486,-0.00410006,0.00653252,-0.00355213,-0.474753,0.00590652,0.0128987,944,1681,2.91956,-7.79325
-273,-657,2.92682,7.92371,0.00371397,-0.000569941,-0.00374464,0.00588598,-0.00274195,-0.525608,0.00509039,0.0100391,951,1681,2.92684,-7.92368
-266,-657,2.91095,8.0564,0.00306664,0.000265734,-0.00339493,0.00533863,-0.00200625,-0.589775,0.00438364,0.0142578,958,1681,2.91098,-8.05635
-259,-657,2.8996,8.1698,0.00236487,0.000724759,-0.00290575,0.00456406,-0.00147443,-0.647866,0.00363526,0.0176388,965,1681,2.89961,-8.16979
-252,-657,2.91925,8.26208,0.00169701,0.000956413,-0.00225754,0.00361441,-0.000960994,-0.704109,0.00278575,0.0123619,972,1681,2.91922,-8.26204
-245,-657,2.91467,8.39697,0.00118819,0.00101893,-0.00154307,0.00264895,-0.000441824,-0.758002,0.00193017,0.0146131,979,1681,2.91469,-8.39701
-238,-657,2.91949,8.50269,0.000847068,0.00111025,-0.000908011,0.00189615,6.116e-05,-0.857357,0.00124422,0.0192729,986,1681,2.91952,-8.50273
-231,-657,2.92786,8.61658,0.000530176,0.00106122,-0.00034088,0.00122779,0.00036361,-1.11628,0.000728238,0.020578,993,1681,2.92788,-8.61663
-224,-657,2.93719,8.77661,0.000289292,0.000805164,0.000179978,0.000861748,0.000232708,1.26618,0.000514772,0.0156134,1000,1681,2.93717,-8.77666
-217,-657,2.93604,8.91345,0.000181253,0.000639239,0.0004435,0.000909376,-8.88832e-05,1.02371,0.000637946,0.00957541,1007,1681,2.93606,-8.91349
-210,-657,2.95691,9.00818,-6.61765e-05,0.000332261,0.000422706,0.000600341,-0.000334257,1.00561,0.000546832,0.010192,1014,1681,2.9569,-9.00815
-203,-657,2.95959,9.11938,-0.000297663,0.000389608,0.000557575,0.000700934,-0.00060899,1.06156,0.000756906,0.012346,1021,1681,2.9596,-9.11934
-196,-657,2.96045,9.18726,-0.000249263,0.0010687,0.000486156,0.00122862,-0.000409186,1.25299,0.000984251,0.0131197,1028,1681,2.96047,-9.18721
-189,-657,2.95264,9.28027,6.87693e-05,0.00209273,0.000370011,0.00215826,3.24706e-06,1.39553,0.00143776,0.00994597,1035,1681,2.95268,-9.28022
-182,-657,2.95972,9.39038,0.000296116,0.00271486,0.000160918,0.00272552,0.000285457,1.50466,0.00172973,0.0080023,1042,1681,2.95971,-9.39044
-175,-657,2.96777,9.49561,0.00167382,0.00295245,9.14081e-05,0.00295895,0.00166732,1.49979,0.00171293,0.00952741,1049,1681,2.96782,-9.49564
-168,-657,2.94421,9.60437,0.00379442,0.00304007,0.000250074,0.00386979,0.0029647,0.292738,0.00233732,0.0108435,1056,1681,2.94423,-9.6044
-161,-657,2.94165,9.67505,0.00598243,0.00331763,0.000431724,0.00605062,0.00324943,0.156673,0.00349652,0.0105846,1063,1681,2.94165,-9.67502
-154,-657,2.96008,9.76147,0.00879965,0.00328686,0.000729613,0.00889458,0.00319193,0.129382,0.00520304,0.0105678,1070,1681,2.96003,-9.76149
-147,-657,2.95422,9.85986,0.0121587,0.00252005,0.00120961,0.0123082,0.00237057,0.122955,0.00754054,0.0151502,1077,1681,2.95426,-9.85989
-140,-657,2.9176,9.92651,0.0160113,0.0005762,0.00148289,0.0161525,0.000435026,0.0949155,0.0106263,0.0266459,1084,1681,2.91764,-9.92646
-133,-657,3.00122,9.927,0.0199981,-0.00265819,0.00179408,0.0201393,-0.00279937,0.0785345,0.01445,0.0348225,1091,1681,3.00128,-9.92701
-126,-657,3.19275,9.97034,0.0235395,-0.00596222,0.00252587,0.0237542,-0.00617692,0.0847954,0.018247,0.0365888,1098,1681,3.19275,-9.97034
-119,-657,3.15051,10.2036,0.0263742,-0.0093096,0.00313094,0.0266468,-0.00958223,0.0868568,0.0216765,0.0458629,1105,1681,3.15048,-10.2036
-112,-657,3.15955,10.5088,0,0,0,0,0,0,0,-1,1112,1681,3.15951,-10.5088
-105,-657,4.15442,11.1697,0,0,0,0,0,0,0,-1,1119,1681,4.15447,-11.1696
-98,-657,3.78662,8.16785,0,0,0,0,0,0,0,-1,1126,1681,3.78663,-8.16786
-91,-657,3.06238,9.50293,0,0,0,0,0,0,0,-1,1133,1681,3.06236,-9.50295
-84,-657,2.86316,9.27588,0,0,0,0,0,0,0,-1,1140,1681,2.86317,-9.27588
-77,-657,-5.29846,0.396606,0,0,0,0,0,0,0,-1,1147,1681,-5.29842,-0.396573
-70,-657,-4.14893,2.14575,0,0,0,0,0,0,0,-1,1154,1681,-4.14893,-2.1458
-63,-657,-4.1239,3.177,0,0,0,0,0,0,0,-1,1161,1681,-4.12391,-3.17698
-56,-657,-6.40576,5.73987,0,0,0,0,0,0,0,-1,1168,1681,-6.40577,-5.7399
-49,-657,-5.98462,7.54053,0,0,0,0,0,0,0,-1,1175,1681,-5.98466,-7.5405
-42,-657,-5.71948,9.28955,0,0,0,0,0,0,0,-1,1182,1681,-5.71951,-9.2895
-35,-657,-5.44556,11.015,0,0,0,0,0,0,0,-1,1189,1681,-5.44555,-11.015
-28,-657,-1.3446,8.92847,0,0,0,0,0,0,0,-1,1196,1681,-1.34459,-8.92848
-21,-657,3.42493,10.74,0,0,0,0,0,0,0,-1,1203,1681,3.42488,-10.74
-14,-657,3.64099,10.4241,0,0,0,0,0,0,0,-1,1210,1681,3.64094,-10.424
-7,-657,2.46497,11.6311,0,0,0,0,0,0,0,-1,1217,1681,2.46494,-11.6311
0,-657,2.3313,11.5515,0.0371293,-0.00734592,-0.0240235,0.0476276,-0.0178443,-0.411992,0.0390822,0.0482394,1224,1681,2.33125,-11.5516
7,-657,2.21643,11.4482,0.0415524,-0.00705022,-0.0173467,0.0471084,-0.0126063,-0.309969,0.0363439,0.046216,1231,1681,2.21644,-11.4483
14,-657,2.1178,11.3405,0.0433019,-0.00571195,-0.00970809,0.0451547,-0.00756478,-0.188586,0.0329158,0.0437794,1238,1681,2.11783,-11.3405
21,-657,2.04797,11.2218,0.042356,-0.00312029,-0.00106481,0.0423809,-0.00314521,-0.0233976,0.0293586,0.0451296,1245,1681,2.04795,-11.2218
28,-657,4.01697,9.74036,0,0,0,0,0,0,0,-1,1252,1681,4.01697,-9.7403
35,-657,3.97998,10.4591,0.0350104,0.00544324,0.017035,0.0427822,-0.00232858,0.42802,0.0293285,0.0427132,1259,1681,3.98002,-10.4592
42,-657,3.922,11.1638,0.0298045,0.0107793,0.0238342,0.0459543,-0.00537053,0.595527,0.0325743,0.0430005,1266,1681,3.922,-11.1639
49,-657,3.80042,11.8883,0.0243143,0.0174454,0.0276113,0.0487039,-0.00694425,0.723523,0.0350143,0.0431093,1273,1681,3.80042,-11.8884
56,-657,3.30225,11.533,0,0,0,0,0,0,0,-1,1280,1681,3.30223,-11.5329
63,-657,3.41138,13.7067,0,0,0,0,0,0,0,-1,1287,1681,3.4114,-13.7067
70,-657,3.63171,10.7806,0,0,0,0,0,0,0,-1,1294,1681,3.63171,-10.7806
77,-657,3.52905,13.7,0,0,0,0,0,0,0,-1,1301,1681,3.52903,-13.7
84,-657,3.2981,12.9192,0.000272005,0.0568137,0.0248832,0.0662047,-0.00911898,1.20992,0.047469,0.0438312,1308,1681,3.29813,-12.9192
91,-657,3.28467,12.0135,-0.0022075,0.0650814,0.01858,0.0698708,-0.00699697,1.31851,0.0490794,0.045546,1315,1681,3.28467,-12.0135
98,-657,3.01123,11.4792,-0.0037859,0.0690707,0.0131857,0.0713836,-0.00609883,1.39715,0.0497468,0.0448247,1322,1681,3.01119,-11.4793
105,-657,2.45837,10.7937,-0.00534718,0.0726621,0.00808333,0.0734908,-0.00617598,1.46862,0.0511769,0.0436719,1329,1681,2.45837,-10.7937
112,-657,1.87268,10.1464,0,0,0,0,0,0,0,-1,1336,1681,1.87272,-10.1464
119,-657,5.32166,11.1168,0,0,0,0,0,0,0,-1,1343,1681,5.32162,-11.1168
126,-657,6.14233,10.6233,0,0,0,0,0,0,0,-1,1350,1681,6.1423,-10.6233
133,-657,7.40857,9.80493,0,0,0,0,0,0,0,-1,1357,1681,7.40853,-9.80498
140,-657,8.85681,8.62268,0,0,0,0,0,0,0,-1,1364,1681,8.85683,-8.62269
147,-657,10.3,7.39563,0,0,0,0,0,0,0,-1,1371,1681,10.3,-7.39567
154,-657,12.2501,7.70422,0,0,0,0,0,0,0,-1,1378,1681,12.2501,-7.70418
161,-657,12.8524,6.43372,0,0,0,0,0,0,0,-1,1385,1681,12.8524,-6.43366
168,-657,5.21643,0.70105,0,0,0,0,0,0,0,-1,1392,1681,5.21648,-0.7011
175,-657,5.52771,0.649048,0,0,0,0,0,0,0,-1,1399,1681,5.52774,-0.649019
182,-657,5.73999,1.02612,0,0,0,0,0,0,0,-1,1406,1681,5.73995,-1.02611
189,-657,5.92126,1.44116,0,0,0,0,0,0,0,-1,1413,1681,5.92126,-1.44115
196,-657,4.92834,9.59021,0,0,0,0,0,0,0,-1,1420,1681,4.9284,-9.59018
203,-657,6.26343,5.16492,0,0,0,0,0,0,0,-1,1427,1681,6.26345,-5.16488
210,-657,3.9856,5.28088,0,0,0,0,0,0,0,-1,1434,1681,3.98555,-5.28084
217,-657,3.95178,5.2843,0,0,0,0,0,0,0,-1,1441,1681,3.95174,-5.28431
224,-657,6.66736,-0.250244,0,0,0,0,0,0,0,-1,1448,1681,6.66737,0.250229
231,-657,6.85498,-1.70752,0,0,0,0,0,0,0,-1,1455,1681,6.855,1.70758
238,-657,5.34143,-2.89819,0,0,0,0,0,0,0,-1,1462,1681,5.34143,2.89813
245,-657,8.66003,-0.102783,0,0,0,0,0,0,0,-1,1469,1681,8.66,0.102824
252,-657,4.78955,0.623779,0,0,0,0,0,0,0,-1,1476,1681,4.7895,-0.623826
259,-657,2.61523,4.31909,0,0,0,0,0,0,0,-1,1483,1681,2.61523,-4.31908
266,-657,4.73706,11.0052,0,0,0,0,0,0,0,-1,1490,1681,4.73706,-11.0053
273,-657,4.64893,10.6787,-0.00081443,0.00176649,-0.00318499,0.00391252,-0.00296046,-0.977875,0.00398078,0.0472667,1497,1681,4.64887,-10.6787
280,-657,4.46265,10.2899,0.000334932,0.00240312,-0.00304094,0.00458098,-0.00184293,-0.949294,0.00381949,0.0325456,1504,1681,4.4626,-10.2899
287,-657,4.39734,10.2,0.000965524,0.00224766,-0.00277213,0.00445188,-0.00123869,-0.899028,0.00345563,0.0259525,1511,1681,4.39733,-10.2
294,-657,4.39978,10.1676,0.00147637,0.00190842,-0.00216394,0.00386709,-0.000482299,-0.835147,0.00275295,0.0212504,1518,1681,4.39974,-10.1676
301,-657,4.41223,10.1237,0.00184751,0.00167945,-0.00155196,0.00331771,0.000209249,-0.758352,0.00214546,0.0151996,1525,1681,4.41227,-10.1237
308,-657,4.43091,10.0487,0.0019641,0.00143212,-0.00102598,0.00275801,0.000638217,-0.658564,0.00166716,0.011872,1532,1681,4.43091,-10.0487
315,-657,4.42981,9.97192,0.00185039,0.00133032,-0.000517931,0.0021699,0.00101081,-0.552745,0.00125377,0.0108041,1539,1681,4.4298,-9.97196
322,-657,4.44446,9.85718,0.00167937,0.00121542,-6.38862e-05,0.00168801,0.00120678,-0.134368,0.00100413,0.0127857,1546,1681,4.44451,-9.85712
329,-657,4.46106,9.71765,0.00160058,0.000987999,0.000325061,0.00174092,0.00084766,0.407559,0.00100524,0.0186846,1553,1681,4.46101,-9.71764
336,-657,4.43445,9.66797,0.00134543,0.000974513,0.000691575,0.00187598,0.000443962,0.654396,0.00113207,0.0166555,1560,1681,4.43447,-9.66798
343,-657,4.44299,9.63245,0.00102633,0.00101914,0.000855756,0.00187849,0.000166968,0.783299,0.00120055,0.0131171,1567,1681,4.44303,-9.63241
350,-657,4.46033,9.51099,0.000748576,0.000986619,0.00101777,0.0018923,-0.000157107,0.843606,0.00131703,0.0153107,1574,1681,4.4603,-9.51102
357,-657,4.45239,9.41992,0.000603826,0.00114346,0.000997502,0.00190699,-0.000159709,0.917483,0.00132777,0.0144681,1581,1681,4.45243,-9.41987
364,-657,4.45276,9.35181,0.000657994,0.00118255,0.000789532,0.00175223,8.83152e-05,0.94576,0.00113985,0.0105258,1588,1681,4.45277,-9.35182
371,-657,4.45447,9.26245,0.000855554,0.00117602,0.00060045,0.00163725,0.000394324,0.915786,0.000986681,0.0143543,1595,1681,4.45449,-9.2624
378,-657,4.43787,9.15527,0.00107069,0.00135297,0.000457795,0.00169089,0.000732772,0.93493,0.000979122,0.0133171,1602,1681,4.43792,-9.15528
385,-657,4.43787,9.06458,0.00140352,0.00158583,0.000269141,0.00177883,0.00121051,0.94868,0.00104908,0.0121657,1609,1681,4.43787,-9.06452
392,-657,4.4425,8.95715,0.00136463,0.00209295,0.000409529,0.00227681,0.00118077,1.14881,0.00131482,0.0131607,1616,1681,4.44253,-8.95712
399,-657,4.46472,8.86072,0.000940875,0.00224396,0.00125398,0.00300556,0.000179276,1.02499,0.0019467,0.0129504,1623,1681,4.46476,-8.86069
406,-657,4.46802,8.77087,0.00118171,0.00203989,0.00199118,0.00364768,-0.000426091,0.891523,0.00258555,0.0141367,1630,1681,4.46797,-8.77087
413,-657,4.4646,8.65271,0.00100758,0.00208121,0.00283386,0.00442865,-0.00133986,0.879003,0.00348597,0.0134053,1637,1681,4.46462,-8.65269
420,-657,4.46375,8.49963,0.000377282,0.00203134,0.00384265,0.00513495,-0.00272633,0.891393,0.00460918,0.0134353,1644,1681,4.46369,-8.49969
427,-657,4.43848,8.36987,-0.000264008,0.00188339,0.00543667,0.00635138,-0.00473199,0.88289,0.00642171,0.016751,1651,1681,4.43845,-8.36986
434,-657,4.47876,8.23999,-0.00101626,0.00165649,0.00721924,0.007662,-0.00702177,0.876919,0.00848037,0.0267361,1658,1681,4.47871,-8.24001
441,-657,4.47034,7.96179,-0.00226401,0.00152233,0.00891232,0.00874033,-0.00948201,0.890053,0.0105236,0.0443381,1665,1681,4.47032,-7.9618
448,-657,3.76929,8.26025,-0.00463743,0.00223092,0.0102302,0.00958797,-0.0119945,0.947333,0.0124864,0.0456315,1672,1681,3.76931,-8.26023
455,-657,4.35718,8.50635,-0.00737913,0.0037473,0.0118587,0.0112829,-0.0149147,1.00472,0.0151736,0.0475418,1679,1681,4.35724,-8.50632
462,-657,4.83569,7.70605,0,0,0,0,0,0,0,-1,1686,1681,4.83564,-7.70601
469,-657,5.40515,7.49866,0,0,0,0,0,0,0,-1,1693,1681,5.40517,-7.49864
476,-657,4.69641,7.37366,0,0,0,0,0,0,0,-1,1700,1681,4.69647,-7.37372
483,-657,3.96106,7.01111,0,0,0,0,0,0,0,-1,1707,1681,3.96101,-7.01109
490,-657,3.00195,7.22131,0,0,0,0,0,0,0,-1,1714,1681,3.00196,-7.22134
497,-657,2.49353,6.45837,0,0,0,0,0,0,0,-1,1721,1681,2.49357,-6.45839
504,-657,0,0,0,0,0,0,0,0,0,-1,1728,1681,0,0
511,-657,0,0,0,0,0,0,0,0,0,-1,1735,1681,0,0
518,-657,0,0,0,0,0,0,0,0,0,-1,1742,1681,0,0
525,-657,0,0,0,0,0,0,0,0,0,-1,1749,1681,0,0
532,-657,0,0,0,0,0,0,0,0,0,-1,1756,1681,0,0
539,-657,0,0,0,0,0,0,0,0,0,-1,1763,1681,0,0
546,-657,0,0,0,0,0,0,0,0,0,-1,1770,1681,0,0
553,-657,0,0,0,0,0,0,0,0,0,-1,1777,1681,0,0
560,-657,0,0,0,0,0,0,0,0,0,-1,1784,1681,0,0
567,-657,0,0,0,0,0,0,0,0,0,-1,1791,1681,0,0
574,-657,0,0,0,0,0,0,0,0,0,-1,1798,1681,0,0
581,-657,0,0,0,0,0,0,0,0,0,-1,1805,1681,0,0
588,-657,0,0,0,0,0,0,0,0,0,-1,1812,1681,0,0
595,-657,0,0,0,0,0,0,0,0,0,-1,1819,1681,0,0
602,-657,0,0,0,0,0,0,0,0,0,-1,1826,1681,0,0
609,-657,0,0,0,0,0,0,0,0,0,-1,1833,1681,0,0
616,-657,0,0,0,0,0,0,0,0,0,-1,1840,1681,0,0
623,-657,0,0,0,0,0,0,0,0,0,-1,1847,1681,0,0
630,-657,0,0,0,0,0,0,0,0,0,-1,1854,1681,0,0
637,-657,0,0,0,0,0,0,0,0,0,-1,1861,1681,0,0
644,-657,0,0,0,0,0,0,0,0,0,-1,1868,1681,0,0
651,-657,0,0,0,0,0,0,0,0,0,-1,1875,1681,0,0
658,-657,0,0,0,0,0,0,0,0,0,-1,1882,1681,0,0
665,-657,0,0,0,0,0,0,0,0,0,-1,1889,1681,0,0
672,-657,0,0,0,0,0,0,0,0,0,-1,1896,1681,0,0
679,-657,0,0,0,0,0,0,0,0,0,-1,1903,1681,0,0
686,-657,0,0,0,0,0,0,0,0,0,-1,1910,1681,0,0
693,-657,0,0,0,0,0,0,0,0,0,-1,1917,1681,0,0
700,-657,0,0,0,0,0,0,0,0,0,-1,1924,1681,0,0
707,-657,0,0,0,0,0,0,0,0,0,-1,1931,1681,0,0
714,-657,0,0,0,0,0,0,0,0,0,-1,1938,1681,0,0
721,-657,0,0,0,0,0,0,0,0,0,-1,1945,1681,0,0
728,-657,0,0,0,0,0,0,0,0,0,-1,1952,1681,0,0
735,-657,0,0,0,0,0,0,0,0,0,-1,1959,1681,0,0
742,-657,0,0,0,0,0,0,0,0,0,-1,1966,1681,0,0
749,-657,0,0,0,0,0,0,0,0,0,-1,1973,1681,0,0
756,-657,0,0,0,0,0,0,0,0,0,-1,1980,1681,0,0
763,-657,0,0,0,0,0,0,0,0,0,-1,1987,1681,0,0
770,-657,0,0,0,0,0,0,0,0,0,-1,1994,1681,0,0
777,-657,0,0,0,0,0,0,0,0,0,-1,2001,1681,0,0
784,-657,0,0,0,0,0,0,0,0,0,-1,2008,1681,0,0
791,-657,0,0,0,0,0,0,0,0,0,-1,2015,1681,0,0
798,-657,0,0,0,0,0,0,0,0,0,-1,2022,1681,0,0
805,-657,0,0,0,0,0,0,0,0,0,-1,2029,1681,0,0
812,-657,0,0,0,0,0,0,0,0,0,-1,2036,1681,0,0
-700,-664,0,0,0,0,0,0,0,0,0,-1,524,1688,0,0
-693,-664,0,0,0,0,0,0,0,0,0,-1,531,1688,0,0
-686,-664,0,0,0,0,0,0,0,0,0,-1,538,1688,0,0
-679,-664,0,0,0,0,0,0,0,0,0,-1,545,1688,0,0
-672,-664,0,0,0,0,0,0,0,0,0,-1,552,1688,0,0
-665,-664,0,0,0,0,0,0,0,0,0,-1,559,1688,0,0
-658,-664,0,0,0,0,0,0,0,0,0,-1,566,1688,0,0
-651,-664,0,0,0,0,0,0,0,0,0,-1,573,1688,0,0
-644,-664,0,0,0,0,0,0,0,0,0,-1,580,1688,0,0
-637,-664,0,0,0,0,0,0,0,0,0,-1,587,1688,0,0
-630,-664,0,0,0,0,0,0,0,0,0,-1,594,1688,0,0
-623,-664,0,0,0,0,0,0,0,0,0,-1,601,1688,0,0
-616,-664,0,0,0,0,0,0,0,0,0,-1,608,1688,0,0
-609,-664,0,0,0,0,0,0,0,0,0,-1,615,1688,0,0
-602,-664,0,0,0,0,0,0,0,0,0,-1,622,1688,0,0
-595,-664,0,0,0,0,0,0,0,0,0,-1,629,1688,0,0
-588,-664,0,0,0,0,0,0,0,0,0,-1,636,1688,0,0
-581,-664,0,0,0,0,0,0,0,0,0,-1,643,1688,0,0
-574,-664,0,0,0,0,0,0,0,0,0,-1,650,1688,0,0
-567,-664,0,0,0,0,0,0,0,0,0,-1,657,1688,0,0
-560,-664,0,0,0,0,0,0,0,0,0,-1,664,1688,0,0
-553,-664,0,0,0,0,0,0,0,0,0,-1,671,1688,0,0
-546,-664,0,0,0,0,0,0,0,0,0,-1,678,1688,0,0
-539,-664,0,0,0,0,0,0,0,0,0,-1,685,1688,0,0
-532,-664,0,0,0,0,0,0,0,0,0,-1,692,1688,0,0
-525,-664,0,0,0,0,0,0,0,0,0,-1,699,1688,0,0
-518,-664,0,0,0,0,0,0,0,0,0,-1,706,1688,0,0
-511,-664,0,0,0,0,0,0,0,0,0,-1,713,1688,0,0
-504,-664,0,0,0,0,0,0,0,0,0,-1,720,1688,0,0
-497,-664,0,0,0,0,0,0,0,0,0,-1,727,1688,0,0
-490,-664,0,0,0,0,0,0,0,0,0,-1,734,1688,0,0
-483,-664,0,0,0,0,0,0,0,0,0,-1,741,1688,0,0
-476,-664,0,0,0,0,0,0,0,0,0,-1,748,1688,0,0
-469,-664,0,0,0,0,0,0,0,0,0,-1,755,1688,0,0
-462,-664,0,0,0,0,0,0,0,0,0,-1,762,1688,0,0
-455,-664,0,0,0,0,0,0,0,0,0,-1,769,1688,0,0
-448,-664,0,0,0,0,0,0,0,0,0,-1,776,1688,0,0
-441,-664,0,0,0,0,0,0,0,0,0,-1,783,1688,0,0
-434,-664,0,0,0,0,0,0,0,0,0,-1,790,1688,0,0
-427,-664,0,0,0,0,0,0,0,0,0,-1,797,1688,0,0
-420,-664,0,0,0,0,0,0,0,0,0,-1,804,1688,0,0
-413,-664,0,0,0,0,0,0,0,0,0,-1,811,1688,0,0
-406,-664,0,0,0,0,0,0,0,0,0,-1,818,1688,0,0
-399,-664,0,0,0,0,0,0,0,0,0,-1,825,1688,0,0
-392,-664,0,0,0,0,0,0,0,0,0,-1,832,1688,0,0
-385,-664,0,0,0,0,0,0,0,0,0,-1,839,1688,0,0
-378,-664,0,0,0,0,0,0,0,0,0,-1,846,1688,0,0
-371,-664,-1.61676,5.92737,0,0,0,0,0,0,0,-1,853,1688,-1.61675,-5.92735
-364,-664,-2.84229,4.37683,0,0,0,0,0,0,0,-1,860,1688,-2.84232,-4.37685
-357,-664,-4.0437,2.82947,0,0,0,0,0,0,0,-1,867,1688,-4.04369,-2.82946
-350,-664,-5.24695,1.2782,0,0,0,0,0,0,0,-1,874,1688,-5.24693,-1.27815
-343,-664,-6.67126,0.569946,0,0,0,0,0,0,0,-1,881,1688,-6.67128,-0.569944
-336,-664,2.2038,8.07959,0,0,0,0,0,0,0,-1,888,1688,2.20378,-8.07954
-329,-664,2.29327,7.87793,0,0,0,0,0,0,0,-1,895,1688,2.29326,-7.87793
-322,-664,2.35162,7.62073,0.00863927,-0.0136845,-0.00307346,0.00905469,-0.0140999,-0.134347,0.0134737,0.047938,902,1688,2.35164,-7.62077
-315,-664,2.33136,7.49866,0.00960006,-0.0110932,-0.0043113,0.0104624,-0.0119555,-0.197404,0.0129525,0.0438564,909,1688,2.33133,-7.4986
-308,-664,3.17627,7.33923,0,0,0,0,0,0,0,-1,916,1688,3.17627,-7.33923
-301,-664,3.12317,7.47253,0.00958978,-0.00695532,-0.00640821,0.0117815,-0.00914701,-0.329541,0.0121149,0.0457399,923,1688,3.12317,-7.47256
-294,-664,3.07678,7.60864,0.00893101,-0.00491536,-0.00681962,0.0117257,-0.00771008,-0.388931,0.0113008,0.0431717,930,1688,3.07679,-7.60869
-287,-664,3.01385,7.7439,0.00808951,-0.00323537,-0.0068416,0.011308,-0.00645385,-0.439711,0.0103817,0.0284139,937,1688,3.01387,-7.74388
-280,-664,2.98962,7.8396,0.00698447,-0.00171018,-0.00641773,0.0103887,-0.0051144,-0.487702,0.00912175,0.0179515,944,1688,2.98965,-7.83964
-273,-664,3.01294,7.93994,0.00571652,-0.000513824,-0.00572002,0.00911463,-0.00391194,-0.536051,0.00771825,0.014561,951,1688,3.01296,-7.93996
-266,-664,3.01483,8.06226,0.00453753,0.000558577,-0.00503157,0.00795867,-0.00286256,-0.597131,0.00647446,0.0202534,958,1688,3.01486,-8.06228
-259,-664,3.01233,8.17273,0.00333167,0.00130875,-0.00420458,0.00664473,-0.00200432,-0.66736,0.00522761,0.0173363,965,1688,3.01232,-8.17267
-252,-664,3.04492,8.28052,0.00222743,0.00177637,-0.00317127,0.00518118,-0.00117738,-0.749899,0.00390618,0.0165855,972,1688,3.04494,-8.28048
-245,-664,3.02307,8.41125,0.00141571,0.0019412,-0.00216009,0.00385447,-0.000497558,-0.845919,0.00275054,0.020372,979,1688,3.02309,-8.41122
-238,-664,3.05109,8.51941,0.000911409,0.00197004,-0.00128303,0.00282865,5.27977e-05,-0.981037,0.00186841,0.0224039,986,1688,3.0511,-8.51943
-231,-664,3.05383,8.63354,0.000425225,0.00183536,-0.000457847,0.00197097,0.000289612,-1.28283,0.00122887,0.019997,993,1688,3.05385,-8.63357
-224,-664,3.04089,8.79504,0.000117324,0.00141922,0.000234144,0.00146005,7.64946e-05,1.39815,0.0009489,0.0139325,1000,1688,3.04087,-8.79501
-217,-664,3.05334,8.91382,9.71298e-05,0.00110495,0.000525597,0.00132917,-0.000127093,1.16757,0.000931375,0.00997726,1007,1688,3.05335,-8.91387
-210,-664,3.06421,9.00818,9.98635e-05,0.000557589,0.000561089,0.000934696,-0.000277244,0.979043,0.00073323,0.0110886,1014,1688,3.06418,-9.0082
-203,-664,3.06812,9.11621,0.000118003,0.000242964,0.00065864,0.00084208,-0.000481114,0.832688,0.000773364,0.0127467,1021,1688,3.06811,-9.11623
-196,-664,3.06348,9.18433,0.000395894,0.000452368,0.000604872,0.00102966,-0.0001814,0.808723,0.000754215,0.013152,1028,1688,3.06346,-9.18429
-189,-664,3.04163,9.28467,0.000780156,0.000924111,0.000439192,0.00129718,0.000407082,0.866619,0.000766041,0.00977168,1035,1688,3.04159,-9.28467
-182,-664,3.04993,9.40295,0.00103337,0.00123311,0.000203698,0.0013601,0.000906376,1.01332,0.00079962,0.0094139,1042,1688,3.04998,-9.40293
-175,-664,3.06335,9.46716,0.00193811,0.00142601,9.27726e-05,0.0019544,0.00140972,0.173807,0.00116463,0.0121214,1049,1688,3.06336,-9.46722
-168,-664,3.06738,9.56104,0.00325385,0.0016963,0.000184619,0.00327543,0.00167472,0.116383,0.00189123,0.0128278,1056,1688,3.06734,-9.56107
-161,-664,3.06799,9.65991,0.00462487,0.0020976,0.000342022,0.00467033,0.00205213,0.132166,0.00270301,0.00918472,1063,1688,3.06805,-9.65992
-154,-664,3.07043,9.74658,0.00634789,0.00228508,0.000588356,0.00643138,0.00220159,0.140958,0.0037742,0.00885731,1070,1688,3.07047,-9.74663
-147,-664,3.0686,9.82471,0.00834914,0.00198057,0.000949444,0.00848767,0.00184204,0.144886,0.00515532,0.0099567,1077,1688,3.06861,-9.82472
-140,-664,3.07629,9.90759,0.0105416,0.000823615,0.00116725,0.0106799,0.000685381,0.117878,0.00690281,0.0104878,1084,1688,3.07627,-9.90764
-133,-664,3.09814,9.99695,0.0127347,-0.00129706,0.00135174,0.0128637,-0.0014261,0.0951679,0.00908855,0.0109752,1091,1688,3.09814,-9.99692
-126,-664,3.18286,10.0759,0.0147909,-0.0036122,0.00185095,0.0149752,-0.00379652,0.0992533,0.0114606,0.0189951,1098,1688,3.18287,-10.076
-119,-664,3.24158,10.1129,0.0163441,-0.0058978,0.0022533,0.0165701,-0.00612379,0.0999552,0.0135572,0.0337579,1105,1688,3.24164,-10.1129
-112,-664,3.32483,10.2719,0.0175536,-0.00844862,0.0025129,0.0177942,-0.00868925,0.0954647,0.0155885,0.0428968,1112,1688,3.32479,-10.2718
-105,-664,3.37927,10.424,0,0,0,0,0,0,0,-1,1119,1688,3.37921,-10.4239
-98,-664,3.53088,9.92078,0,0,0,0,0,0,0,-1,1126,1688,3.53084,-9.92077
-91,-664,3.28931,9.90979,0.0178084,-0.0179692,0.00280406,0.0180268,-0.0181876,0.0777424,0.0209085,0.0424191,1133,1688,3.28926,-9.9098
-84,-664,3.29907,9.71204,0.0157775,-0.0205811,0.00237381,0.0159319,-0.0207354,0.0649213,0.0212303,0.0468104,1140,1688,3.29901,-9.71202
-77,-664,3.49084,9.7229,0,0,0,0,0,0,0,-1,1147,1688,3.49086,-9.72288
-70,-664,4.20374,8.24524,0,0,0,0,0,0,0,-1,1154,1688,4.20379,-8.24519
-63,-664,-4.677,2.40503,0,0,0,0,0,0,0,-1,1161,1688,-4.67702,-2.40498
-56,-664,-4.66504,3.32727,0,0,0,0,0,0,0,-1,1168,1688,-4.6651,-3.32724
-49,-664,-2.54297,3.31848,0,0,0,0,0,0,0,-1,1175,1688,-2.54297,-3.31852
-42,-664,-0.359253,4.38684,0,0,0,0,0,0,0,-1,1182,1688,-0.359261,-4.38685
-35,-664,-0.705566,3.55017,0,0,0,0,0,0,0,-1,1189,1688,-0.705567,-3.55023
-28,-664,-1.54236,10.2538,0,0,0,0,0,0,0,-1,1196,1688,-1.54236,-10.2538
-21,-664,3.41919,10.8983,0,0,0,0,0,0,0,-1,1203,1688,3.41925,-10.8983
-14,-664,3.42542,10.6902,0,0,0,0,0,0,0,-1,1210,1688,3.42536,-10.6902
-7,-664,2.81421,11.8047,0,0,0,0,0,0,0,-1,1217,1688,2.81423,-11.8047
0,-664,2.65405,11.7157,0,0,0,0,0,0,0,-1,1224,1688,2.65408,-11.7157
7,-664,2.61292,12.0217,0,0,0,0,0,0,0,-1,1231,1688,2.61292,-12.0218
14,-664,2.72266,12.1327,0,0,0,0,0,0,0,-1,1238,1688,2.72267,-12.1326
21,-664,2.88843,11.7842,0.0357847,-0.00430514,-0.00190385,0.035875,-0.00439535,-0.0473476,0.0255083,0.0447674,1245,1688,2.88845,-11.7842
28,-664,3.46021,9.52893,0.0335106,-0.00253749,0.00467647,0.0341074,-0.00313428,0.12693,0.0238518,0.0467586,1252,1688,3.46024,-9.52891
35,-664,3.47241,10.257,0.0298416,0.00129308,0.0109457,0.0335552,-0.00242051,0.327087,0.0232191,0.0456199,1259,1688,3.47237,-10.257
42,-664,3.08728,11.3306,0.0256184,0.00471043,0.0153738,0.0337558,-0.00342696,0.486814,0.0237288,0.0463356,1266,1688,3.08734,-11.3306
49,-664,3.29761,11.5411,0.0211794,0.00912096,0.0174644,0.0336261,-0.00332569,0.619189,0.0236042,0.0436952,1273,1688,3.29762,-11.5412
56,-664,3.23254,11.7115,0.0165239,0.0137444,0.0190015,0.0341864,-0.00391813,0.748895,0.0242029,0.0483892,1280,1688,3.23252,-11.7116
63,-664,3.13831,11.9161,0,0,0,0,0,0,0,-1,1287,1688,3.13828,-11.9161
70,-664,1.76563,8.06909,0,0,0,0,0,0,0,-1,1294,1688,1.76559,-8.06905
77,-664,3.7926,13.2959,0,0,0,0,0,0,0,-1,1301,1688,3.79259,-13.2959
84,-664,3.47192,12.5692,0.00135988,0.0362221,0.0129331,0.040496,-0.00291406,1.25163,0.0280193,0.0451845,1308,1688,3.47193,-12.5692
91,-664,3.34656,11.8566,-0.000329287,0.0422714,0.00725606,0.0434734,-0.00153128,1.40663,0.0295059,0.041617,1315,1688,3.34651,-11.8566
98,-664,3.0531,11.4086,-0.00133025,0.0453389,0.00252798,0.0454754,-0.00146679,1.51684,0.0308175,0.0469937,1322,1688,3.05305,-11.4085
105,-664,2.96204,10.5453,0,0,0,0,0,0,0,-1,1329,1688,2.96205,-10.5453
112,-664,4.21521,11.1268,0,0,0,0,0,0,0,-1,1336,1688,4.21523,-11.1268
119,-664,5.4281,10.4275,0,0,0,0,0,0,0,-1,1343,1688,5.42805,-10.4275
126,-664,1.46716,11.3541,0,0,0,0,0,0,0,-1,1350,1688,1.46719,-11.3542
133,-664,1.35315,11.5892,0,0,0,0,0,0,0,-1,1357,1688,1.35315,-11.5893
140,-664,2.06616,11.5916,0,0,0,0,0,0,0,-1,1364,1688,2.06615,-11.5916
147,-664,4.13635,12.1241,0,0,0,0,0,0,0,-1,1371,1688,4.13633,-12.1242
154,-664,13.5482,5.89453,0,0,0,0,0,0,0,-1,1378,1688,13.5482,-5.8945
161,-664,4.60132,1.56238,0,0,0,0,0,0,0,-1,1385,1688,4.60134,-1.56233
168,-664,5.172,1.25488,0,0,0,0,0,0,0,-1,1392,1688,5.17203,-1.25484
175,-664,5.58313,1.16467,0,0,0,0,0,0,0,-1,1399,1688,5.58317,-1.16466
182,-664,5.74268,1.41113,0,0,0,0,0,0,0,-1,1406,1688,5.74263,-1.41115
189,-664,5.87744,1.87061,0,0,0,0,0,0,0,-1,1413,1688,5.87745,-1.87065
196,-664,6.7594,5.97473,0,0,0,0,0,0,0,-1,1420,1688,6.75943,-5.97478
203,-664,5.38452,5.22034,0,0,0,0,0,0,0,-1,1427,1688,5.38453,-5.2203
210,-664,5.25549,6.45715,0,0,0,0,0,0,0,-1,1434,1688,5.25549,-6.45721
217,-664,5.72009,6.73975,0,0,0,0,0,0,0,-1,1441,1688,5.72014,-6.73972
224,-664,5.05725,7.42908,0,0,0,0,0,0,0,-1,1448,1688,5.05723,-7.42912
231,-664,5.13318,7.60864,0,0,0,0,0,0,0,-1,1455,1688,5.13313,-7.60862
238,-664,4.23193,6.45471,0,0,0,0,0,0,0,-1,1462,1688,4.23197,-6.45476
245,-664,4.42004,6.80896,0,0,0,0,0,0,0,-1,1469,1688,4.4201,-6.80901
252,-664,3.67346,6.85461,0,0,0,0,0,0,0,-1,1476,1688,3.6734,-6.85462
259,-664,4.37439,10.2749,0,0,0,0,0,0,0,-1,1483,1688,4.37439,-10.2749
266,-664,4.51685,10.5054,0,0,0,0,0,0,0,-1,1490,1688,4.5169,-10.5053
273,-664,4.51013,10.4349,-0.00100941,0.000718761,-0.00163782,0.00170646,-0.0019971,-1.02813,0.00214045,0.0345858,1497,1688,4.51013,-10.4349
280,-664,4.31909,10.3411,-0.000119955,0.00133054,-0.00170992,0.00246266,-0.00125208,-0.985969,0.00218234,0.02137,1504,1688,4.31903,-10.3411
287,-664,4.2666,10.2454,0.000349418,0.00138494,-0.00168112,0.00262623,-0.00089187,-0.934782,0.00211185,0.018682,1511,1688,4.26662,-10.2454
294,-664,4.31213,10.1848,0.00074774,0.0012446,-0.00134176,0.00236074,-0.000368393,-0.876938,0.0017099,0.0140853,1518,1688,4.31214,-10.1848
301,-664,4.34595,10.1233,0.00103625,0.00105146,-0.000996393,0.00204028,4.74332e-05,-0.789216,0.00134465,0.0104119,1525,1688,4.34593,-10.1233
308,-664,4.3584,10.0472,0.00110645,0.000839712,-0.000654371,0.00164091,0.000305259,-0.684868,0.00100772,0.0108428,1532,1688,4.35838,-10.0472
315,-664,4.35657,9.95496,0.00107543,0.000750463,-0.000299967,0.0012541,0.000571801,-0.537183,0.000724988,0.0113911,1539,1688,4.35659,-9.95502
322,-664,4.37292,9.87109,0.000941152,0.000625722,5.60541e-05,0.000950817,0.000616057,0.170745,0.000556905,0.0149777,1546,1688,4.37297,-9.87107
329,-664,4.37195,9.7865,0.000888198,0.000437413,0.000377221,0.00110223,0.000223377,0.516105,0.000672839,0.0175397,1553,1688,4.37199,-9.78646
336,-664,4.35864,9.71082,0.000699915,0.000490415,0.000699993,0.00130295,-0.000112622,0.711127,0.000908505,0.0148139,1560,1688,4.35865,-9.71085
343,-664,4.36328,9.63379,0.000474582,0.000624712,0.000851857,0.00140481,-0.000305512,0.829344,0.00105325,0.0114118,1567,1688,4.36332,-9.63384
350,-664,4.36218,9.52185,0.000308501,0.000747631,0.000972865,0.0015254,-0.000469268,0.896383,0.00120423,0.0129977,1574,1688,4.36213,-9.52189
357,-664,4.3551,9.43018,0.000290798,0.00101932,0.000947791,0.00167044,-0.000360318,0.96886,0.00125115,0.0125675,1581,1688,4.35514,-9.43014
364,-664,4.36694,9.35168,0.000493943,0.00121112,0.000743619,0.0016781,2.69692e-05,1.01006,0.00110985,0.0104547,1588,1688,4.36696,-9.35168
371,-664,4.38733,9.26135,0.000897092,0.00136453,0.000558832,0.00173655,0.000525075,0.983459,0.00102837,0.0129566,1595,1688,4.38731,-9.26131
378,-664,4.36816,9.15845,0.00135145,0.00173795,0.000507491,0.00208774,0.00100166,0.967321,0.00120569,0.0116923,1602,1688,4.36816,-9.15849
385,-664,4.35498,9.07495,0.00190753,0.00222234,0.000346903,0.00244588,0.00168399,0.998381,0.0014452,0.0123856,1609,1688,4.35502,-9.07496
392,-664,4.32495,8.99292,0.00200838,0.00297043,0.000564356,0.00323094,0.00174786,1.13832,0.00186747,0.0158378,1616,1688,4.32499,-8.99295
399,-664,4.34863,8.87622,0.00166701,0.00326793,0.00168966,0.00433714,0.0005978,1.00661,0.00271419,0.0130177,1623,1688,4.34866,-8.87622
406,-664,4.37854,8.76892,0.00219214,0.0030981,0.00272063,0.0054032,-0.000112965,0.86789,0.00364037,0.011967,1630,1688,4.37851,-8.76889
413,-664,4.38379,8.6322,0.00209942,0.00302021,0.00388868,0.00647565,-0.00135603,0.84432,0.00483295,0.0114657,1637,1688,4.38375,-8.63223
420,-664,4.36963,8.47449,0.00129724,0.00283008,0.00536268,0.00748083,-0.00335351,0.856376,0.00640472,0.0236242,1644,1688,4.36959,-8.47449
427,-664,4.20984,8.25952,0.00054911,0.00253818,0.00765153,0.00925953,-0.00617225,0.850025,0.00896878,0.0403558,1651,1688,4.20979,-8.2595
434,-664,4.04419,7.99255,-0.000386056,0.00211077,0.010238,0.0111762,-0.00945149,0.846068,0.0119233,0.0419536,1658,1688,4.04425,-7.9925
441,-664,4.04541,7.70752,-0.00188015,0.0016843,0.0127377,0.0127638,-0.0129597,0.854906,0.0148516,0.045663,1665,1688,4.04538,-7.70756
448,-664,3.22522,8.50647,-0.00476033,0.00226802,0.014671,0.0138399,-0.0163322,0.902949,0.0174397,0.0468135,1672,1688,3.22528,-8.50641
455,-664,3.33777,8.38464,0,0,0,0,0,0,0,-1,1679,1688,3.33776,-8.3846
462,-664,4.3147,4.25439,0,0,0,0,0,0,0,-1,1686,1688,4.31467,-4.25435
469,-664,6.05469,7.49341,0,0,0,0,0,0,0,-1,1693,1688,6.05474,-7.49339
476,-664,4.54004,2.92297,0,0,0,0,0,0,0,-1,1700,1688,4.54002,-2.92299
483,-664,3.73853,6.81189,0,0,0,0,0,0,0,-1,1707,1688,3.73847,-6.81185
490,-664,3.18042,4.85559,0,0,0,0,0,0,0,-1,1714,1688,3.18045,-4.85561
497,-664,0,0,0,0,0,0,0,0,0,-1,1721,1688,0,0
504,-664,0,0,0,0,0,0,0,0,0,-1,1728,1688,0,0
511,-664,0,0,0,0,0,0,0,0,0,-1,1735,1688,0,0
518,-664,0,0,0,0,0,0,0,0,0,-1,1742,1688,0,0
525,-664,0,0,0,0,0,0,0,0,0,-1,1749,1688,0,0
532,-664,0,0,0,0,0,0,0,0,0,-1,1756,1688,0,0
539,-664,0,0,0,0,0,0,0,0,0,-1,1763,1688,0,0
546,-664,0,0,0,0,0,0,0,0,0,-1,1770,1688,0,0
553,-664,0,0,0,0,0,0,0,0,0,-1,1777,1688,0,0
560,-664,0,0,0,0,0,0,0,0,0,-1,1784,1688,0,0
567,-664,0,0,0,0,0,0,0,0,0,-1,1791,1688,0,0
574,-664,0,0,0,0,0,0,0,0,0,-1,1798,1688,0,0
581,-664,0,0,0,0,0,0,0,0,0,-1,1805,1688,0,0
588,-664,0,0,0,0,0,0,0,0,0,-1,1812,1688,0,0
595,-664,0,0,0,0,0,0,0,0,0,-1,1819,1688,0,0
602,-664,0,0,0,0,0,0,0,0,0,-1,1826,1688,0,0
609,-664,0,0,0,0,0,0,0,0,0,-1,1833,1688,0,0
616,-664,0,0,0,0,0,0,0,0,0,-1,1840,1688,0,0
623,-664,0,0,0,0,0,0,0,0,0,-1,1847,1688,0,0
630,-664,0,0,0,0,0,0,0,0,0,-1,1854,1688,0,0
637,-664,0,0,0,0,0,0,0,0,0,-1,1861,1688,0,0
644,-664,0,0,0,0,0,0,0,0,0,-1,1868,1688,0,0
651,-664,0,0,0,0,0,0,0,0,0,-1,1875,1688,0,0
658,-664,0,0,0,0,0,0,0,0,0,-1,1882,1688,0,0
665,-664,0,0,0,0,0,0,0,0,0,-1,1889,1688,0,0
672,-664,0,0,0,0,0,0,0,0,0,-1,1896,1688,0,0
679,-664,0,0,0,0,0,0,0,0,0,-1,1903,1688,0,0
686,-664,0,0,0,0,0,0,0,0,0,-1,1910,1688,0,0
693,-664,0,0,0,0,0,0,0,0,0,-1,1917,1688,0,0
700,-664,0,0,0,0,0,0,0,0,0,-1,1924,1688,0,0
707,-664,0,0,0,0,0,0,0,0,0,-1,1931,1688,0,0
714,-664,0,0,0,0,0,0,0,0,0,-1,1938,1688,0,0
721,-664,0,0,0,0,0,0,0,0,0,-1,1945,1688,0,0
728,-664,0,0,0,0,0,0,0,0,0,-1,1952,1688,0,0
735,-664,0,0,0,0,0,0,0,0,0,-1,1959,1688,0,0
742,-664,0,0,0,0,0,0,0,0,0,-1,1966,1688,0,0
749,-664,0,0,0,0,0,0,0,0,0,-1,1973,1688,0,0
756,-664,0,0,0,0,0,0,0,0,0,-1,1980,1688,0,0
763,-664,0,0,0,0,0,0,0,0,0,-1,1987,1688,0,0
770,-664,0,0,0,0,0,0,0,0,0,-1,1994,1688,0,0
777,-664,0,0,0,0,0,0,0,0,0,-1,2001,1688,0,0
784,-664,0,0,0,0,0,0,0,0,0,-1,2008,1688,0,0
791,-664,0,0,0,0,0,0,0,0,0,-1,2015,1688,0,0
798,-664,0,0,0,0,0,0,0,0,0,-1,2022,1688,0,0
805,-664,0,0,0,0,0,0,0,0,0,-1,2029,1688,0,0
812,-664,0,0,0,0,0,0,0,0,0,-1,2036,1688,0,0
-700,-671,0,0,0,0,0,0,0,0,0,-1,524,1695,0,0
-693,-671,0,0,0,0,0,0,0,0,0,-1,531,1695,0,0
-686,-671,0,0,0,0,0,0,0,0,0,-1,538,1695,0,0
-679,-671,0,0,0,0,0,0,0,0,0,-1,545,1695,0,0
-672,-671,0,0,0,0,0,0,0,0,0,-1,552,1695,0,0
-665,-671,0,0,0,0,0,0,0,0,0,-1,559,1695,0,0
-658,-671,0,0,0,0,0,0,0,0,0,-1,566,1695,0,0
-651,-671,0,0,0,0,0,0,0,0,0,-1,573,1695,0,0
-644,-671,0,0,0,0,0,0,0,0,0,-1,580,1695,0,0
-637,-671,0,0,0,0,0,0,0,0,0,-1,587,1695,0,0
-630,-671,0,0,0,0,0,0,0,0,0,-1,594,1695,0,0
-623,-671,0,0,0,0,0,0,0,0,0,-1,601,1695,0,0
-616,-671,0,0,0,0,0,0,0,0,0,-1,608,1695,0,0
-609,-671,0,0,0,0,0,0,0,0,0,-1,615,1695,0,0
-602,-671,0,0,0,0,0,0,0,0,0,-1,622,1695,0,0
-595,-671,0,0,0,0,0,0,0,0,0,-1,629,1695,0,0
-588,-671,0,0,0,0,0,0,0,0,0,-1,636,1695,0,0
-581,-671,0,0,0,0,0,0,0,0,0,-1,643,1695,0,0
-574,-671,0,0,0,0,0,0,0,0,0,-1,650,1695,0,0
-567,-671,0,0,0,0,0,0,0,0,0,-1,657,1695,0,0
-560,-671,0,0,0,0,0,0,0,0,0,-1,664,1695,0,0
-553,-671,0,0,0,0,0,0,0,0,0,-1,671,1695,0,0
-546,-671,0,0,0,0,0,0,0,0,0,-1,678,1695,0,0
-539,-671,0,0,0,0,0,0,0,0,0,-1,685,1695,0,0
-532,-671,0,0,0,0,0,0,0,0,0,-1,692,1695,0,0
-525,-671,0,0,0,0,0,0,0,0,0,-1,699,1695,0,0
-518,-671,0,0,0,0,0,0,0,0,0,-1,706,1695,0,0
-511,-671,0,0,0,0,0,0,0,0,0,-1,713,1695,0,0
-504,-671,0,0,0,0,0,0,0,0,0,-1,720,1695,0,0
-497,-671,0,0,0,0,0,0,0,0,0,-1,727,1695,0,0
-490,-671,0,0,0,0,0,0,0,0,0,-1,734,1695,0,0
-483,-671,0,0,0,0,0,0,0,0,0,-1,741,1695,0,0
-476,-671,0,0,0,0,0,0,0,0,0,-1,748,1695,0,0
-469,-671,0,0,0,0,0,0,0,0,0,-1,755,1695,0,0
-462,-671,0,0,0,0,0,0,0,0,0,-1,762,1695,0,0
-455,-671,0,0,0,0,0,0,0,0,0,-1,769,1695,0,0
-448,-671,0,0,0,0,0,0,0,0,0,-1,776,1695,0,0
-441,-671,0,0,0,0,0,0,0,0,0,-1,783,1695,0,0
-434,-671,0,0,0,0,0,0,0,0,0,-1,790,1695,0,0
-427,-671,0,0,0,0,0,0,0,0,0,-1,797,1695,0,0
-420,-671,0,0,0,0,0,0,0,0,0,-1,804,1695,0,0
-413,-671,0,0,0,0,0,0,0,0,0,-1,811,1695,0,0
-406,-671,0,0,0,0,0,0,0,0,0,-1,818,1695,0,0
-399,-671,0,0,0,0,0,0,0,0,0,-1,825,1695,0,0
-392,-671,0,0,0,0,0,0,0,0,0,-1,832,1695,0,0
-385,-671,0,0,0,0,0,0,0,0,0,-1,839,1695,0,0
-378,-671,0,0,0,0,0,0,0,0,0,-1,846,1695,0,0
-371,-671,0,0,0,0,0,0,0,0,0,-1,853,1695,0,0
-364,-671,-3.11877,5.00476,0,0,0,0,0,0,0,-1,860,1695,-3.11877,-5.00472
-357,-671,-4.34961,3.50598,0,0,0,0,0,0,0,-1,867,1695,-4.34958,-3.50602
-350,-671,-5.52405,2.1637,0,0,0,0,0,0,0,-1,874,1695,-5.52408,-2.16372
-343,-671,-7.383,2.349,0,0,0,0,0,0,0,-1,881,1695,-7.38297,-2.34903
-336,-671,-8.31433,1.04541,0,0,0,0,0,0,0,-1,888,1695,-8.31432,-1.04541
-329,-671,2.36383,7.59912,0,0,0,0,0,0,0,-1,895,1695,2.36384,-7.59914
-322,-671,2.07776,7.55249,0,0,0,0,0,0,0,-1,902,1695,2.07778,-7.55251
-315,-671,2.00464,7.45728,0,0,0,0,0,0,0,-1,909,1695,2.00462,-7.45732
-308,-671,2.11066,8.70508,0,0,0,0,0,0,0,-1,916,1695,2.11064,-8.7051
-301,-671,3.27747,7.50647,0,0,0,0,0,0,0,-1,923,1695,3.27746,-7.50648
-294,-671,3.20709,7.65906,0,0,0,0,0,0,0,-1,930,1695,3.20708,-7.65905
-287,-671,3.18109,7.7229,0.0125137,-0.00407742,-0.0104915,0.017593,-0.00915679,-0.450879,0.0156979,0.041744,937,1695,3.18109,-7.72287
-280,-671,3.28528,7.84558,0.0107849,-0.00212489,-0.00972432,0.0160017,-0.00734168,-0.492394,0.013783,0.0360812,944,1695,3.28526,-7.84556
-273,-671,3.13831,7.9541,0.00885363,-0.000592266,-0.00832078,0.0136984,-0.00543705,-0.527267,0.0113859,0.0346977,951,1695,3.13828,-7.95416
-266,-671,3.15051,8.11401,0.00709756,0.000696114,-0.00703749,0.011628,-0.00383433,-0.571975,0.00929751,0.0237781,958,1695,3.15049,-8.11396
-259,-671,3.11115,8.20471,0.00529592,0.00173421,-0.00565118,0.00944021,-0.00241008,-0.632759,0.00723195,0.020589,965,1695,3.11112,-8.20477
-252,-671,3.14392,8.30127,0.00369547,0.00242447,-0.00404862,0.00715816,-0.00103823,-0.70755,0.00515317,0.0182089,972,1695,3.14391,-8.30123
-245,-671,3.15094,8.42175,0.00251009,0.0027181,-0.00258145,0.00519764,3.05474e-05,-0.805531,0.00345496,0.0212885,979,1695,3.15094,-8.42177
-238,-671,3.16553,8.54663,0.0017272,0.00276794,-0.00134114,0.00368612,0.00080902,-0.970461,0.00223705,0.0200173,986,1695,3.1655,-8.54661
-231,-671,3.15424,8.67432,0.00109071,0.00260544,-0.000125369,0.00261575,0.0010804,-1.48877,0.0015178,0.0152622,993,1695,3.15422,-8.67427
-224,-671,3.14081,8.77539,0.000679967,0.00209572,0.000824323,0.0024744,0.000301291,1.14017,0.00155891,0.0123038,1000,1695,3.14079,-8.77538
-217,-671,3.14795,8.88184,0.000646474,0.00172891,0.00118903,0.0024941,-0.000118719,0.998973,0.00170369,0.0109703,1007,1695,3.14797,-8.88184
-210,-671,3.14685,8.98352,0.000765782,0.00102197,0.00126973,0.00217004,-0.000382297,0.835669,0.00158953,0.010644,1014,1695,3.14682,-8.98349
-203,-671,3.1322,9.07446,0.000892434,0.000430456,0.00132779,0.00200918,-0.000686288,0.699278,0.0016175,0.0175371,1021,1695,3.13218,-9.07447
-196,-671,3.15173,9.19373,0.00127346,0.000280701,0.00126972,0.00214038,-0.000586218,0.599064,0.00165725,0.0147896,1028,1695,3.15173,-9.1937
-189,-671,3.14929,9.31982,0.0015824,0.000322354,0.0010038,0.00213751,-0.000232759,0.505152,0.00150859,0.0115228,1035,1695,3.14932,-9.31983
-182,-671,3.13733,9.4137,0.00171626,0.000406767,0.000684576,0.00200879,0.000114235,0.403833,0.00130279,0.00956169,1042,1695,3.13731,-9.41374
-175,-671,3.14734,9.47522,0.00207219,0.000582001,0.000457455,0.00220141,0.000452779,0.275309,0.00134238,0.012041,1049,1695,3.14738,-9.47526
-168,-671,3.16052,9.56067,0.0025536,0.00101084,0.000383208,0.00264354,0.000920902,0.230536,0.00154947,0.0130901,1056,1695,3.16048,-9.56064
-161,-671,3.16541,9.67041,0.00312826,0.00152534,0.00044276,0.00324243,0.00141117,0.252358,0.00187725,0.00906892,1063,1695,3.16542,-9.67035
-154,-671,3.15845,9.7522,0.00385864,0.00188632,0.000572136,0.00401259,0.00173237,0.262853,0.00232386,0.00820128,1070,1695,3.15845,-9.75216
-147,-671,3.16296,9.83728,0.00465577,0.00193172,0.000762738,0.0048548,0.00173269,0.255245,0.00284093,0.00937909,1077,1695,3.16297,-9.83727
-140,-671,3.18054,9.9447,0.00549119,0.00135519,0.000847205,0.005658,0.00118838,0.194409,0.00344489,0.0101347,1084,1695,3.18053,-9.94467
-133,-671,3.19177,10.0386,0.00632976,4.48221e-05,0.000897254,0.00645535,-8.07627e-05,0.139062,0.00433074,0.0114026,1091,1695,3.19174,-10.0386
-126,-671,3.20911,10.1007,0.00712831,-0.00145359,0.00120636,0.00729466,-0.00161994,0.137033,0.00548344,0.0136358,1098,1695,3.20914,-10.1007
-119,-671,3.27173,10.1661,0.00764032,-0.00290634,0.00146548,0.00784017,-0.00310619,0.135532,0.0065139,0.0256884,1105,1695,3.27176,-10.1661
-112,-671,3.31421,10.2513,0.00793472,-0.00457815,0.00161993,0.00814104,-0.00478446,0.126679,0.00754595,0.0328777,1112,1695,3.31422,-10.2514
-105,-671,3.46484,10.2542,0.00807595,-0.00631586,0.001898,0.00832205,-0.00656197,0.128944,0.00861329,0.0365089,1119,1695,3.46489,-10.2542
-98,-671,3.43066,10.2297,0.00770285,-0.00863634,0.00175653,0.00788956,-0.00882304,0.105892,0.00965404,0.0370089,1126,1695,3.43071,-10.2297
-91,-671,3.36743,10.1547,0.00683767,-0.0111107,0.00181277,0.00701893,-0.011292,0.0996577,0.0106673,0.0372421,1133,1695,3.36743,-10.1547
-84,-671,3.42725,10.0403,0.00534117,-0.0128419,0.00158995,0.00547916,-0.0129799,0.0865659,0.0109467,0.044299,1140,1695,3.42731,-10.0403
-77,-671,3.70496,9.96973,0,0,0,0,0,0,0,-1,1147,1695,3.70494,-9.9697
-70,-671,3.06067,10.7737,0,0,0,0,0,0,0,-1,1154,1695,3.0607,-10.7737
-63,-671,2.94592,6.90198,0,0,0,0,0,0,0,-1,1161,1695,2.94594,-6.90198
-56,-671,-3.07678,2.87976,0,0,0,0,0,0,0,-1,1168,1695,-3.07675,-2.87979
-49,-671,-1.05957,4.76917,0,0,0,0,0,0,0,-1,1175,1695,-1.05958,-4.76921
-42,-671,0.539307,3.7865,0,0,0,0,0,0,0,-1,1182,1695,0.539266,-3.78648
-35,-671,-0.272461,0.347534,0,0,0,0,0,0,0,-1,1189,1695,-0.272434,-0.347569
-28,-671,-0.662964,5.40405,0,0,0,0,0,0,0,-1,1196,1695,-0.662966,-5.40405
-21,-671,3.44873,10.7302,0,0,0,0,0,0,0,-1,1203,1695,3.44869,-10.7302
-14,-671,3.79272,10.5631,0,0,0,0,0,0,0,-1,1210,1695,3.79268,-10.5632
-7,-671,3.10559,12.0698,0,0,0,0,0,0,0,-1,1217,1695,3.10556,-12.0699
0,-671,2.9353,11.9474,0,0,0,0,0,0,0,-1,1224,1695,2.93535,-11.9474
7,-671,2.82507,11.911,0,0,0,0,0,0,0,-1,1231,1695,2.82502,-11.911
14,-671,2.95386,11.9017,0.0306138,-0.00601546,-0.00674361,0.0318159,-0.00721754,-0.176402,0.0239813,0.0466324,1238,1695,2.95391,-11.9018
21,-671,3.10278,11.7112,0.0298964,-0.00484286,-0.00250917,0.0300767,-0.00502316,-0.0717323,0.0219182,0.0457606,1245,1695,3.10276,-11.7112
28,-671,5.36182,11.236,0.0281205,-0.00391133,0.00207411,0.0282542,-0.00404508,0.0643932,0.0203192,0.0462557,1252,1695,5.36181,-11.236
35,-671,3.1759,11.3485,0,0,0,0,0,0,0,-1,1259,1695,3.17588,-11.3486
42,-671,3.2179,11.4904,0.0217877,0.000518416,0.00889339,0.0250162,-0.00271013,0.348233,0.0176504,0.0474852,1266,1695,3.21793,-11.4904
49,-671,3.24939,11.623,0.0182575,0.00326173,0.00980791,0.0231052,-0.00158597,0.459048,0.0159584,0.0434356,1273,1695,3.24942,-11.623
56,-671,3.22046,11.7582,0.014505,0.00604953,0.0104788,0.0215767,-0.00102221,0.593657,0.014737,0.0466816,1280,1695,3.22044,-11.7582
63,-671,2.1908,8.30835,0.0113325,0.00972637,0.0101749,0.020736,0.00032288,0.746017,0.0137176,0.0467853,1287,1695,2.19081,-8.30833
70,-671,2.26514,8.87781,0.00842614,0.0131704,0.00897978,0.0200861,0.00151047,0.914531,0.0129167,0.0444414,1294,1695,2.26514,-8.87785
77,-671,2.82092,9.82971,0.005054,0.0151067,0.00785468,0.0194056,0.000755093,1.07003,0.0126928,0.0445592,1301,1695,2.82097,-9.82968
84,-671,3.71228,12.1005,0,0,0,0,0,0,0,-1,1308,1695,3.71223,-12.1005
91,-671,2.40637,11.6722,0,0,0,0,0,0,0,-1,1315,1695,2.40642,-11.6722
98,-671,2.79053,11.114,0.00058832,0.0274709,-0.00444813,0.0281878,-0.000128572,-1.411,0.0188349,0.0455948,1322,1695,2.79049,-11.114
105,-671,3.24255,10.536,0,0,0,0,0,0,0,-1,1329,1695,3.2425,-10.536
112,-671,3.81934,9.91614,0,0,0,0,0,0,0,-1,1336,1695,3.81938,-9.91612
119,-671,2.8811,11.0753,0,0,0,0,0,0,0,-1,1343,1695,2.88112,-11.0753
126,-671,2.65588,11.2791,-0.000627076,0.028489,-0.0173573,0.0365852,-0.00872326,-1.13435,0.0277586,0.0497602,1350,1695,2.65589,-11.2791
133,-671,2.89319,11.4117,0,0,0,0,0,0,0,-1,1357,1695,2.89319,-11.4117
140,-671,3.54956,11.401,0,0,0,0,0,0,0,-1,1364,1695,3.54951,-11.401
147,-671,4.83948,11.9722,0,0,0,0,0,0,0,-1,1371,1695,4.83942,-11.9721
154,-671,5.85339,12.5175,0,0,0,0,0,0,0,-1,1378,1695,5.85335,-12.5175
161,-671,4.49292,4.91272,0,0,0,0,0,0,0,-1,1385,1695,4.49297,-4.91273
168,-671,5.17639,6.1416,0,0,0,0,0,0,0,-1,1392,1695,5.1764,-6.14164
175,-671,5.6731,1.64685,0,0,0,0,0,0,0,-1,1399,1695,5.67313,-1.64691
182,-671,5.56812,1.71692,0,0,0,0,0,0,0,-1,1406,1695,5.56809,-1.71686
189,-671,6.98315,6.36169,0,0,0,0,0,0,0,-1,1413,1695,6.98312,-6.36175
196,-671,5.38123,5.69775,0,0,0,0,0,0,0,-1,1420,1695,5.38125,-5.69769
203,-671,5.95117,8.11658,0,0,0,0,0,0,0,-1,1427,1695,5.9512,-8.11662
210,-671,4.73596,8.39624,0,0,0,0,0,0,0,-1,1434,1695,4.736,-8.39618
217,-671,5.09912,10.6888,0,0,0,0,0,0,0,-1,1441,1695,5.09916,-10.6888
224,-671,4.62207,10.3761,0,0,0,0,0,0,0,-1,1448,1695,4.62208,-10.3761
231,-671,4.45618,10.3387,0,0,0,0,0,0,0,-1,1455,1695,4.45618,-10.3388
238,-671,4.5083,9.07385,0,0,0,0,0,0,0,-1,1462,1695,4.50835,-9.07383
245,-671,4.21875,8.86206,0,0,0,0,0,0,0,-1,1469,1695,4.21878,-8.86203
252,-671,4.22437,10.3411,0,0,0,0,0,0,0,-1,1476,1695,4.22432,-10.341
259,-671,4.23804,10.4058,-0.00301336,-0.000634039,0.000274045,-0.000602883,-0.00304452,1.45759,0.00186155,0.0432803,1483,1695,4.23803,-10.4057
266,-671,4.23596,10.4501,-0.00226401,-0.000243092,-0.000270768,-0.000207443,-0.00229966,-1.43989,0.00146885,0.0164931,1490,1695,4.23597,-10.4501
273,-671,4.22693,10.4133,-0.00121952,0.000145508,-0.000662474,0.000414149,-0.00148817,-1.18555,0.00115518,0.00893143,1497,1695,4.22687,-10.4133
280,-671,4.229,10.3462,-0.000528211,0.000706881,-0.000839019,0.00113112,-0.00095245,-1.10265,0.00120442,0.00856973,1504,1695,4.22906,-10.3462
287,-671,4.22778,10.2397,-9.65761e-05,0.00081008,-0.000934315,0.00139524,-0.000681733,-1.01127,0.0012225,0.0105693,1511,1695,4.22784,-10.2398
294,-671,4.22156,10.15,0.000312852,0.000713154,-0.000814405,0.00135164,-0.000325637,-0.905892,0.001027,0.0106928,1518,1695,4.22156,-10.15
301,-671,4.2373,10.1013,0.000586919,0.000522949,-0.00069583,0.0012515,-0.000141631,-0.762431,0.000885327,0.0107522,1525,1695,4.23736,-10.1013
308,-671,4.26306,10.0471,0.000689514,0.000362701,-0.000500788,0.00105288,-6.65197e-07,-0.627695,0.000702142,0.012121,1532,1695,4.26305,-10.0471
315,-671,4.27539,9.9585,0.000803232,0.000307997,-0.000266025,0.000919048,0.000192181,-0.41061,0.000559745,0.0129652,1539,1695,4.27536,-9.95844
322,-671,4.27173,9.88904,0.000758495,0.000201375,-9.78215e-06,0.000758667,0.000201204,-0.0175512,0.000453829,0.0146801,1546,1695,4.27174,-9.88906
329,-671,4.24231,9.84058,0.000754151,7.13522e-05,0.000252678,0.000837487,-1.19832e-05,0.318575,0.000562361,0.0141643,1553,1695,4.24233,-9.84062
336,-671,4.25415,9.73889,0.000627667,0.000204629,0.000544769,0.00100054,-0.000168244,0.60022,0.000729603,0.0107827,1560,1695,4.25418,-9.7389
343,-671,4.27783,9.63074,0.000474462,0.000429666,0.000708766,0.00116118,-0.000257056,0.769603,0.000872522,0.00977717,1567,1695,4.27787,-9.63076
350,-671,4.28015,9.5177,0.000393486,0.000712027,0.000827995,0.00139593,-0.000290418,0.880416,0.00104102,0.0101404,1574,1695,4.2801,-9.5177
357,-671,4.27173,9.42773,0.000472874,0.0011122,0.00083533,0.00168694,-0.000101869,0.96814,0.00116008,0.00994358,1581,1695,4.27176,-9.42773
364,-671,4.26172,9.34619,0.000781643,0.00146083,0.000670453,0.00187279,0.000369683,1.01982,0.00114536,0.0121138,1588,1695,4.26172,-9.34618
371,-671,4.2616,9.26086,0.00131803,0.00178203,0.00054683,0.00214404,0.000956022,0.986019,0.00124027,0.0139194,1595,1695,4.26159,-9.26082
378,-671,4.27637,9.1604,0.00192064,0.00234247,0.000700103,0.00286274,0.00140037,0.931705,0.00165293,0.0116502,1602,1695,4.27639,-9.16036
385,-671,4.25073,9.06201,0.00272139,0.00307585,0.000605508,0.00352954,0.00226771,0.92777,0.00206518,0.0136216,1609,1695,4.25079,-9.06206
392,-671,4.22498,9.01563,0.00301257,0.00406704,0.000944421,0.00462143,0.00245818,1.03998,0.00266999,0.0181095,1616,1695,4.22494,-9.01557
399,-671,4.26123,8.89368,0.0028225,0.00454566,0.0023863,0.00622116,0.001147,0.958642,0.0038229,0.0136112,1623,1695,4.26123,-8.89365
406,-671,4.30615,8.7616,0.00374035,0.00447368,0.00379109,0.00791579,0.000298234,0.833607,0.00518065,0.0174577,1630,1695,4.30611,-8.76166
413,-671,4.33093,8.68457,0.00382486,0.00425315,0.00537563,0.00941889,-0.00134089,0.805306,0.00677063,0.0273836,1637,1695,4.33093,-8.68454
420,-671,4.22925,8.50439,0.00281369,0.00390376,0.00747305,0.0108516,-0.00413418,0.8218,0.00893711,0.0456642,1644,1695,4.2293,-8.50444
427,-671,3.97876,8.18018,0,0,0,0,0,0,0,-1,1651,1695,3.97873,-8.18014
434,-671,3.60474,7.81091,0,0,0,0,0,0,0,-1,1658,1695,3.6047,-7.81095
441,-671,3.29407,7.80542,0,0,0,0,0,0,0,-1,1665,1695,3.29412,-7.80538
448,-671,2.74377,8.79211,0,0,0,0,0,0,0,-1,1672,1695,2.74372,-8.79206
455,-671,3.49036,7.3363,0,0,0,0,0,0,0,-1,1679,1695,3.4904,-7.33633
462,-671,5.86255,4.47961,0,0,0,0,0,0,0,-1,1686,1695,5.8625,-4.4796
469,-671,3.71301,3.76978,0,0,0,0,0,0,0,-1,1693,1695,3.71297,-3.76974
476,-671,3.75574,3.18848,0,0,0,0,0,0,0,-1,1700,1695,3.7558,-3.18847
483,-671,3.56714,2.76868,0,0,0,0,0,0,0,-1,1707,1695,3.56713,-2.7687
490,-671,0,0,0,0,0,0,0,0,0,-1,1714,1695,0,0
497,-671,0,0,0,0,0,0,0,0,0,-1,1721,1695,0,0
504,-671,0,0,0,0,0,0,0,0,0,-1,1728,1695,0,0
511,-671,0,0,0,0,0,0,0,0,0,-1,1735,1695,0,0
518,-671,0,0,0,0,0,0,0,0,0,-1,1742,1695,0,0
525,-671,0,0,0,0,0,0,0,0,0,-1,1749,1695,0,0
532,-671,0,0,0,0,0,0,0,0,0,-1,1756,1695,0,0
539,-671,0,0,0,0,0,0,0,0,0,-1,1763,1695,0,0
546,-671,0,0,0,0,0,0,0,0,0,-1,1770,1695,0,0
553,-671,0,0,0,0,0,0,0,0,0,-1,1777,1695,0,0
560,-671,0,0,0,0,0,0,0,0,0,-1,1784,1695,0,0
567,-671,0,0,0,0,0,0,0,0,0,-1,1791,1695,0,0
574,-671,0,0,0,0,0,0,0,0,0,-1,1798,1695,0,0
581,-671,0,0,0,0,0,0,0,0,0,-1,1805,1695,0,0
588,-671,0,0,0,0,0,0,0,0,0,-1,1812,1695,0,0
595,-671,0,0,0,0,0,0,0,0,0,-1,1819,1695,0,0
602,-671,0,0,0,0,0,0,0,0,0,-1,1826,1695,0,0
609,-671,0,0,0,0,0,0,0,0,0,-1,1833,1695,0,0
616,-671,0,0,0,0,0,0,0,0,0,-1,1840,1695,0,0
623,-671,0,0,0,0,0,0,0,0,0,-1,1847,1695,0,0
630,-671,0,0,0,0,0,0,0,0,0,-1,1854,1695,0,0
637,-671,0,0,0,0,0,0,0,0,0,-1,1861,1695,0,0
644,-671,0,0,0,0,0,0,0,0,0,-1,1868,1695,0,0
651,-671,0,0,0,0,0,0,0,0,0,-1,1875,1695,0,0
658,-671,0,0,0,0,0,0,0,0,0,-1,1882,1695,0,0
665,-671,0,0,0,0,0,0,0,0,0,-1,1889,1695,0,0
672,-671,0,0,0,0,0,0,0,0,0,-1,1896,1695,0,0
679,-671,0,0,0,0,0,0,0,0,0,-1,1903,1695,0,0
686,-671,0,0,0,0,0,0,0,0,0,-1,1910,1695,0,0
693,-671,0,0,0,0,0,0,0,0,0,-1,1917,1695,0,0
700,-671,0,0,0,0,0,0,0,0,0,-1,1924,1695,0,0
707,-671,0,0,0,0,0,0,0,0,0,-1,1931,1695,0,0
714,-671,0,0,0,0,0,0,0,0,0,-1,1938,1695,0,0
721,-671,0,0,0,0,0,0,0,0,0,-1,1945,1695,0,0
728,-671,0,0,0,0,0,0,0,0,0,-1,1952,1695,0,0
735,-671,0,0,0,0,0,0,0,0,0,-1,1959,1695,0,0
742,-671,0,0,0,0,0,0,0,0,0,-1,1966,1695,0,0
749,-671,0,0,0,0,0,0,0,0,0,-1,1973,1695,0,0
756,-671,0,0,0,0,0,0,0,0,0,-1,1980,1695,0,0
763,-671,0,0,0,0,0,0,0,0,0,-1,1987,1695,0,0
770,-671,0,0,0,0,0,0,0,0,0,-1,1994,1695,0,0
777,-671,0,0,0,0,0,0,0,0,0,-1,2001,1695,0,0
784,-671,0,0,0,0,0,0,0,0,0,-1,2008,1695,0,0
791,-671,0,0,0,0,0,0,0,0,0,-1,2015,1695,0,0
798,-671,0,0,0,0,0,0,0,0,0,-1,2022,1695,0,0
805,-671,0,0,0,0,0,0,0,0,0,-1,2029,1695,0,0
812,-671,0,0,0,0,0,0,0,0,0,-1,2036,1695,0,0
-700,-678,0,0,0,0,0,0,0,0,0,-1,524,1702,0,0
-693,-678,0,0,0,0,0,0,0,0,0,-1,531,1702,0,0
-686,-678,0,0,0,0,0,0,0,0,0,-1,538,1702,0,0
-679,-678,0,0,0,0,0,0,0,0,0,-1,545,1702,0,0
-672,-678,0,0,0,0,0,0,0,0,0,-1,552,1702,0,0
-665,-678,0,0,0,0,0,0,0,0,0,-1,559,1702,0,0
-658,-678,0,0,0,0,0,0,0,0,0,-1,566,1702,0,0
-651,-678,0,0,0,0,0,0,0,0,0,-1,573,1702,0,0
-644,-678,0,0,0,0,0,0,0,0,0,-1,580,1702,0,0
-637,-678,0,0,0,0,0,0,0,0,0,-1,587,1702,0,0
-630,-678,0,0,0,0,0,0,0,0,0,-1,594,1702,0,0
-623,-678,0,0,0,0,0,0,0,0,0,-1,601,1702,0,0
-616,-678,0,0,0,0,0,0,0,0,0,-1,608,1702,0,0
-609,-678,0,0,0,0,0,0,0,0,0,-1,615,1702,0,0
-602,-678,0,0,0,0,0,0,0,0,0,-1,622,1702,0,0
-595,-678,0,0,0,0,0,0,0,0,0,-1,629,1702,0,0
-588,-678,0,0,0,0,0,0,0,0,0,-1,636,1702,0,0
-581,-678,0,0,0,0,0,0,0,0,0,-1,643,1702,0,0
-574,-678,0,0,0,0,0,0,0,0,0,-1,650,1702,0,0
-567,-678,0,0,0,0,0,0,0,0,0,-1,657,1702,0,0
-560,-678,0,0,0,0,0,0,0,0,0,-1,664,1702,0,0
-553,-678,0,0,0,0,0,0,0,0,0,-1,671,1702,0,0
-546,-678,0,0,0,0,0,0,0,0,0,-1,678,1702,0,0
-539,-678,0,0,0,0,0,0,0,0,0,-1,685,1702,0,0
-532,-678,0,0,0,0,0,0,0,0,0,-1,692,1702,0,0
-525,-678,0,0,0,0,0,0,0,0,0,-1,699,1702,0,0
-518,-678,0,0,0,0,0,0,0,0,0,-1,706,1702,0,0
-511,-678,0,0,0,0,0,0,0,0,0,-1,713,1702,0,0
-504,-678,0,0,0,0,0,0,0,0,0,-1,720,1702,0,0
-497,-678,0,0,0,0,0,0,0,0,0,-1,727,1702,0,0
-490,-678,0,0,0,0,0,0,0,0,0,-1,734,1702,0,0
-483,-678,0,0,0,0,0,0,0,0,0,-1,741,1702,0,0
-476,-678,0,0,0,0,0,0,0,0,0,-1,748,1702,0,0
-469,-678,0,0,0,0,0,0,0,0,0,-1,755,1702,0,0
-462,-678,0,0,0,0,0,0,0,0,0,-1,762,1702,0,0
-455,-678,0,0,0,0,0,0,0,0,0,-1,769,1702,0,0
-448,-678,0,0,0,0,0,0,0,0,0,-1,776,1702,0,0
-441,-678,0,0,0,0,0,0,0,0,0,-1,783,1702,0,0
-434,-678,0,0,0,0,0,0,0,0,0,-1,790,1702,0,0
-427,-678,0,0,0,0,0,0,0,0,0,-1,797,1702,0,0
-420,-678,0,0,0,0,0,0,0,0,0,-1,804,1702,0,0
-413,-678,0,0,0,0,0,0,0,0,0,-1,811,1702,0,0
-406,-678,0,0,0,0,0,0,0,0,0,-1,818,1702,0,0
-399,-678,0,0,0,0,0,0,0,0,0,-1,825,1702,0,0
-392,-678,0,0,0,0,0,0,0,0,0,-1,832,1702,0,0
-385,-678,0,0,0,0,0,0,0,0,0,-1,839,1702,0,0
-378,-678,0,0,0,0,0,0,0,0,0,-1,846,1702,0,0
-371,-678,0,0,0,0,0,0,0,0,0,-1,853,1702,0,0
-364,-678,0,0,0,0,0,0,0,0,0,-1,860,1702,0,0
-357,-678,0,0,0,0,0,0,0,0,0,-1,867,1702,0,0
-350,-678,-6.99811,5.05383,0,0,0,0,0,0,0,-1,874,1702,-6.99808,-5.05378
-343,-678,-7.84955,3.83276,0,0,0,0,0,0,0,-1,881,1702,-7.84957,-3.83272
-336,-678,-8.64886,2.68469,0,0,0,0,0,0,0,-1,888,1702,-8.64884,-2.68464
-329,-678,-9.40521,1.52869,0,0,0,0,0,0,0,-1,895,1702,-9.40522,-1.52871
-322,-678,-10.1475,0.373291,0,0,0,0,0,0,0,-1,902,1702,-10.1475,-0.373341
-315,-678,2.04156,8.37341,0,0,0,0,0,0,0,-1,909,1702,2.04159,-8.37337
-308,-678,2.9834,7.51685,0,0,0,0,0,0,0,-1,916,1702,2.98341,-7.51689
-301,-678,3.12079,7.54834,0.0226016,-0.0103012,-0.0153152,0.0286269,-0.0163266,-0.374823,0.0262758,0.0473114,923,1702,3.1208,-7.54835
-294,-678,3.28516,7.56616,0,0,0,0,0,0,0,-1,930,1702,3.28513,-7.56615
-287,-678,3.45001,7.62988,0.018828,-0.0053002,-0.0155163,0.0264184,-0.0128906,-0.454959,0.0231387,0.0432381,937,1702,3.45001,-7.6299
-280,-678,3.638,7.70483,0.0162343,-0.00279667,-0.0142502,0.023854,-0.0104163,-0.491024,0.0202866,0.0469642,944,1702,3.63802,-7.70484
-273,-678,3.23236,7.99084,0.0132841,-0.000822159,-0.0118973,0.0200618,-0.00759983,-0.51783,0.0165018,0.0473477,951,1702,3.23239,-7.99081
-266,-678,3.13251,8.22937,0.0105958,0.000714704,-0.00979223,0.0166232,-0.00531274,-0.551763,0.013214,0.0362283,958,1702,3.13249,-8.22936
-259,-678,3.26422,8.23181,0.0079103,0.00208458,-0.00764394,0.0131776,-0.00318269,-0.603358,0.0100159,0.0216938,965,1702,3.26422,-8.23181
-252,-678,3.25336,8.31726,0.00555779,0.00305348,-0.00527908,0.00973118,-0.00111991,-0.668954,0.00689116,0.0191522,972,1702,3.25337,-8.31725
-245,-678,3.28912,8.42114,0.00377663,0.00353473,-0.00321187,0.00686983,0.000441529,-0.766579,0.00444003,0.0197529,979,1702,3.28912,-8.4212
-238,-678,3.30487,8.53455,0.00251273,0.00369267,-0.00148624,0.00470176,0.00150364,-0.974337,0.0027727,0.0151293,986,1702,3.30487,-8.53451
-231,-678,3.24921,8.67224,0.00154558,0.00357866,0.000209249,0.00359998,0.00152427,1.46929,0.00208656,0.0127091,993,1702,3.24923,-8.67223
-224,-678,3.23041,8.75671,0.000865951,0.00305528,0.00149009,0.00380958,0.000111655,1.10219,0.00250333,0.0129899,1000,1702,3.23044,-8.75676
-217,-678,3.25104,8.87195,0.000686258,0.00274633,0.00196861,0.00393809,-0.000505509,1.02643,0.0028091,0.0127595,1007,1702,3.25103,-8.872
-210,-678,3.23871,9.00867,0.000854823,0.00196121,0.00211747,0.00359656,-0.000780526,0.913168,0.00269581,0.0129417,1014,1702,3.23869,-9.00865
-203,-678,3.19873,9.06567,0.00105662,0.00117771,0.00217555,0.00329356,-0.00105922,0.799309,0.00262112,0.0168895,1021,1702,3.19873,-9.0657
-196,-678,3.21521,9.17163,0.00155377,0.000755583,0.00214658,0.00333803,-0.00102869,0.693488,0.00263603,0.0172112,1028,1702,3.21526,-9.17169
-189,-678,3.23328,9.31262,0.00182859,0.000437833,0.00180635,0.00306878,-0.00080236,0.601659,0.00235923,0.00997885,1035,1702,3.23324,-9.31262
-182,-678,3.24219,9.41553,0.00190511,0.000349649,0.00143337,0.00275815,-0.000503393,0.536831,0.0020275,0.00931654,1042,1702,3.2422,-9.41553
-175,-678,3.24683,9.50769,0.00203422,0.000433246,0.00111125,0.00260328,-0.000135809,0.473271,0.00178251,0.0102825,1049,1702,3.24682,-9.50775
-168,-678,3.24695,9.60083,0.00217427,0.000841406,0.000908823,0.00263482,0.000380855,0.469037,0.00164436,0.010167,1056,1702,3.24698,-9.60088
-161,-678,3.24951,9.67102,0.00240799,0.00132354,0.000892098,0.00290972,0.000821806,0.512326,0.00173213,0.00885015,1063,1702,3.24953,-9.67097
-154,-678,3.23877,9.75281,0.00272456,0.00164032,0.000930084,0.00325899,0.0011059,0.521533,0.00191368,0.00825946,1070,1702,3.23871,-9.75279
-147,-678,3.23682,9.8562,0.00299557,0.00176955,0.000972927,0.0035325,0.00123261,0.504281,0.00207029,0.00997924,1077,1702,3.23688,-9.85625
-140,-678,3.25378,9.9491,0.00326833,0.00142198,0.000925878,0.00365264,0.00103768,0.39343,0.0021734,0.0113548,1084,1702,3.25377,-9.94914
-133,-678,3.27637,10.0229,0.0035492,0.000502603,0.000844334,0.00376755,0.000284253,0.253062,0.00242251,0.0114569,1091,1702,3.27633,-10.023
-126,-678,3.28076,10.0992,0.00373826,-0.000507481,0.000944264,0.00393879,-0.000708016,0.209263,0.00289091,0.00867839,1098,1702,3.28082,-10.0993
-119,-678,3.30701,10.1974,0.00376702,-0.00145885,0.00105662,0.00397257,-0.00166441,0.192138,0.00334422,0.016733,1105,1702,3.30698,-10.1973
-112,-678,3.33167,10.282,0.0036996,-0.00257401,0.00111149,0.0038907,-0.00276511,0.170267,0.00386101,0.0243644,1112,1702,3.33171,-10.282
-105,-678,3.36133,10.3385,0.00344566,-0.00372977,0.00112722,0.00361857,-0.00390268,0.152211,0.00434343,0.0257842,1119,1702,3.36138,-10.3384
-98,-678,3.31433,10.3131,0.0030972,-0.00531847,0.00108085,0.0032338,-0.00545507,0.125715,0.00507087,0.0187635,1126,1702,3.31429,-10.3131
-91,-678,3.31934,10.3535,0.00247955,-0.00689049,0.00117422,0.00262446,-0.0070354,0.122787,0.00576768,0.0184287,1133,1702,3.31931,-10.3535
-84,-678,3.3573,10.3617,0.00157974,-0.00788577,0.00110952,0.00170806,-0.00801409,0.115138,0.00599376,0.0270915,1140,1702,3.35726,-10.3617
-77,-678,3.42041,10.4695,0.0013266,-0.00725252,0.00103146,0.00144887,-0.00737479,0.117989,0.00546389,0.0357159,1147,1702,3.42041,-10.4694
-70,-678,3.30627,10.8712,0.0015578,-0.00654687,0.000595585,0.00160133,-0.0065904,0.0729642,0.00501336,0.0470499,1154,1702,3.30628,-10.8712
-63,-678,3.41687,11.0365,0,0,0,0,0,0,0,-1,1161,1702,3.41682,-11.0365
-56,-678,1.72388,6.13159,0,0,0,0,0,0,0,-1,1168,1702,1.72388,-6.13157
-49,-678,-0.241699,5.29895,0,0,0,0,0,0,0,-1,1175,1702,-0.241682,-5.29897
-42,-678,0.297119,3.90649,0,0,0,0,0,0,0,-1,1182,1702,0.297139,-3.90655
-35,-678,0.498413,3.64038,0,0,0,0,0,0,0,-1,1189,1702,0.498471,-3.64038
-28,-678,0.132446,3.55994,0,0,0,0,0,0,0,-1,1196,1702,0.132432,-3.55993
-21,-678,3.41956,10.8661,0,0,0,0,0,0,0,-1,1203,1702,3.41957,-10.8661
-14,-678,3.73718,10.7218,0.0197976,-0.00634617,-0.0121516,0.0245733,-0.0111219,-0.374465,0.0210907,0.0405685,1210,1702,3.73722,-10.7218
-7,-678,3.86841,10.582,0.021883,-0.0071345,-0.011558,0.025924,-0.0111755,-0.33634,0.0219763,0.0432494,1217,1702,3.86839,-10.5821
0,-678,3.23572,12.1643,0,0,0,0,0,0,0,-1,1224,1702,3.23572,-12.1644
7,-678,3.1853,11.627,0,0,0,0,0,0,0,-1,1231,1702,3.18531,-11.6269
14,-678,3.23254,11.597,0.0251248,-0.00544956,-0.0056181,0.0261244,-0.00644921,-0.176091,0.0199172,0.0446073,1238,1702,3.23254,-11.597
21,-678,4.02734,10.8633,0.0245205,-0.00488239,-0.0028323,0.0247909,-0.00515273,-0.0951614,0.0184858,0.045244,1245,1702,4.02734,-10.8633
28,-678,4.39075,10.9839,0.0231596,-0.00456963,0.000235041,0.0231616,-0.00457162,0.00847547,0.017169,0.0447607,1252,1702,4.39074,-10.9839
35,-678,4.35498,10.9921,0.0208187,-0.00320311,0.00285155,0.0211526,-0.00353697,0.116549,0.0154165,0.043928,1259,1702,4.35494,-10.9921
42,-678,3.90295,11.1953,0,0,0,0,0,0,0,-1,1266,1702,3.9029,-11.1953
49,-678,3.54712,11.4547,0.0154369,-0.000557309,0.00440523,0.01657,-0.00169036,0.251748,0.0116511,0.0461027,1273,1702,3.54714,-11.4547
56,-678,3.55347,11.5673,0.0124883,0.00090218,0.00449136,0.0140255,-0.000634956,0.329748,0.00956899,0.0455725,1280,1702,3.55346,-11.5672
63,-678,2.67017,9.12695,0.0100227,0.00299659,0.00384893,0.0117208,0.00129852,0.415494,0.00741899,0.0468845,1287,1702,2.67015,-9.12693
70,-678,2.8396,9.78723,0.00773251,0.00495722,0.00270342,0.00938362,0.00330611,0.548286,0.00549583,0.0445209,1294,1702,2.83958,-9.78723
77,-678,3.12244,10.4805,0.00502364,0.00605833,0.00162004,0.00724163,0.00384035,0.93995,0.00418352,0.0441873,1301,1702,3.12241,-10.4805
84,-678,3.12976,10.7059,0,0,0,0,0,0,0,-1,1308,1702,3.12977,-10.706
91,-678,2.74084,11.4421,0.0021491,0.012974,-0.00518536,0.015057,6.60419e-05,-1.18881,0.0100161,0.0467971,1315,1702,2.74088,-11.4422
98,-678,3.05457,10.9951,0.00188005,0.0147242,-0.008293,0.018791,-0.00218676,-1.11487,0.0133163,0.0441628,1322,1702,3.0546,-10.9951
105,-678,3.40637,10.7788,0,0,0,0,0,0,0,-1,1329,1702,3.40639,-10.7788
112,-678,3.67273,11.1947,0,0,0,0,0,0,0,-1,1336,1702,3.67278,-11.1948
119,-678,3.48877,11.2059,0.001779,0.017618,-0.0143288,0.0260703,-0.00667324,-1.03785,0.0199796,0.0436447,1343,1702,3.48874,-11.206
126,-678,3.55396,11.0035,0.00168651,0.0167348,-0.016264,0.0271308,-0.00870943,-1.00205,0.0215842,0.0463417,1350,1702,3.5539,-11.0035
133,-678,3.4231,11.1115,0,0,0,0,0,0,0,-1,1357,1702,3.42305,-11.1115
140,-678,3.56335,11.4296,0,0,0,0,0,0,0,-1,1364,1702,3.56341,-11.4296
147,-678,3.68835,11.3613,0,0,0,0,0,0,0,-1,1371,1702,3.68832,-11.3613
154,-678,4.86035,10.9071,0,0,0,0,0,0,0,-1,1378,1702,4.86041,-10.9071
161,-678,3.44202,4.53992,0,0,0,0,0,0,0,-1,1385,1702,3.442,-4.53996
168,-678,4.21863,5.25781,0,0,0,0,0,0,0,-1,1392,1702,4.21865,-5.25781
175,-678,5.21899,5.9635,0,0,0,0,0,0,0,-1,1399,1702,5.21894,-5.96346
182,-678,7.31262,6.75122,0,0,0,0,0,0,0,-1,1406,1702,7.3126,-6.75123
189,-678,5.96021,6.36853,0,0,0,0,0,0,0,-1,1413,1702,5.96018,-6.36851
196,-678,5.01599,8.15771,0,0,0,0,0,0,0,-1,1420,1702,5.01596,-8.15767
203,-678,4.38269,11.3191,0,0,0,0,0,0,0,-1,1427,1702,4.38269,-11.3191
210,-678,4.21301,11.0575,0,0,0,0,0,0,0,-1,1434,1702,4.21301,-11.0575
217,-678,4.57727,10.7291,-0.00711499,-0.00393534,0.00566834,0.000361905,-0.0114122,0.922123,0.00773161,0.0488272,1441,1702,4.57722,-10.7291
224,-678,4.20081,10.5558,-0.00682658,-0.00305634,0.00506289,0.000461002,-0.0103439,0.963617,0.00705464,0.0420761,1448,1702,4.20086,-10.5558
231,-678,4.12781,10.6943,-0.00590975,-0.00239922,0.00389021,0.000113381,-0.00842235,0.997325,0.00565307,0.0351511,1455,1702,4.12781,-10.6943
238,-678,4.14087,10.6636,0,0,0,0,0,0,0,-1,1462,1702,4.14086,-10.6636
245,-678,4.13953,10.6464,0,0,0,0,0,0,0,-1,1469,1702,4.13955,-10.6463
252,-678,4.14258,10.5721,-0.00278373,-0.000917738,0.00121108,-0.000321943,-0.00337953,1.11361,0.00215374,0.0202201,1476,1702,4.14257,-10.5721
259,-678,4.13452,10.5354,-0.00216296,-0.000775876,0.000650933,-0.000518253,-0.00242058,1.19394,0.00147171,0.013353,1483,1702,4.13453,-10.5354
266,-678,4.17273,10.4718,-0.00168811,-0.000458363,0.00017156,-0.000434878,-0.00171159,1.43475,0.00102726,0.0102378,1490,1702,4.17272,-10.4718
273,-678,4.1748,10.4156,-0.000966337,-9.81394e-05,-0.000255816,-2.83698e-05,-0.00103611,-1.30454,0.000681478,0.0100264,1497,1702,4.17483,-10.4156
280,-678,4.16321,10.3484,-0.000487499,0.00037347,-0.000478764,0.000586827,-0.000700856,-1.15157,0.000744415,0.0103082,1504,1702,4.16317,-10.3484
287,-678,4.17444,10.2358,-0.000158129,0.000450934,-0.000612815,0.000830714,-0.000537909,-1.016,0.00079618,0.00999385,1511,1702,4.17441,-10.2358
294,-678,4.17065,10.1537,0.000175961,0.000310857,-0.000605214,0.00085237,-0.000365552,-0.840892,0.000721649,0.0106012,1518,1702,4.17061,-10.1537
301,-678,4.15967,10.115,0.000328141,5.15376e-05,-0.000615444,0.000820632,-0.000440953,-0.674875,0.00073929,0.0114625,1525,1702,4.15967,-10.115
308,-678,4.16711,10.0398,0.000370774,-9.57089e-05,-0.0004765,0.000668055,-0.00039299,-0.557797,0.000619418,0.0139679,1532,1702,4.16715,-10.0398
315,-678,4.17969,9.9585,0.00057932,-0.00013895,-0.000278198,0.000674467,-0.000234096,-0.32954,0.000544711,0.0147923,1539,1702,4.17967,-9.95851
322,-678,4.15808,9.91431,0.000561424,-0.000256154,-6.16912e-05,0.000566053,-0.000260783,-0.0748909,0.000488099,0.017112,1546,1702,4.15813,-9.91434
329,-678,4.14819,9.8385,0.000569578,-0.000358839,0.000188549,0.000606409,-0.00039567,0.192908,0.0005828,0.01514,1553,1702,4.14816,-9.83847
336,-678,4.16077,9.73938,0.000495115,-0.000171324,0.000477008,0.000743765,-0.000419974,0.480518,0.000680498,0.0120468,1560,1702,4.16076,-9.73933
343,-678,4.16943,9.63647,0.000391835,0.000124568,0.000682438,0.0009536,-0.000437197,0.688713,0.00082122,0.0108979,1567,1702,4.16946,-9.63644
350,-678,4.18018,9.53027,0.000384949,0.000558447,0.000833306,0.00130951,-0.000366111,0.837262,0.00101724,0.0109253,1574,1702,4.18022,-9.53023
357,-678,4.19263,9.43323,0.000563951,0.00110708,0.000899028,0.00177466,-0.000103633,0.932072,0.00121912,0.0090934,1581,1702,4.19261,-9.43319
364,-678,4.16199,9.35706,0.00100153,0.00165124,0.000790964,0.00218146,0.000471311,0.98025,0.00132544,0.0115301,1588,1702,4.16198,-9.35709
371,-678,4.13916,9.25659,0.00172317,0.00219813,0.000756198,0.00275326,0.00116804,0.937544,0.00159567,0.0123083,1595,1702,4.13915,-9.25657
378,-678,4.16504,9.12817,0.0025549,0.00302142,0.00115396,0.00396546,0.00161085,0.885123,0.00230284,0.0133365,1602,1702,4.16505,-9.12812
385,-678,4.16724,9.0426,0.00368558,0.00407915,0.0011677,0.00506654,0.0026982,0.868875,0.00292723,0.014627,1609,1702,4.16719,-9.04255
392,-678,4.18726,8.98926,0.00429351,0.00543837,0.00166878,0.00663017,0.00310171,0.950622,0.00383057,0.0230451,1616,1702,4.18728,-8.9893
399,-678,4.19604,8.87109,0.00442225,0.00627719,0.00349905,0.0089696,0.00172984,0.914951,0.00549465,0.0342416,1623,1702,4.19601,-8.87107
406,-678,4.2594,8.75354,0.00601591,0.00642516,0.0053864,0.0116108,0.000830248,0.804384,0.00747917,0.0384581,1630,1702,4.25944,-8.75357
413,-678,4.44763,8.7168,0.00647184,0.00600342,0.00746351,0.0137048,-0.00122956,0.769713,0.00957275,0.0427192,1637,1702,4.4476,-8.71674
420,-678,4.98181,8.87939,0.00522059,0.00546647,0.0103046,0.0156489,-0.00496183,0.791363,0.0124214,0.0482205,1644,1702,4.98186,-8.87943
427,-678,5.30652,8.82642,0,0,0,0,0,0,0,-1,1651,1702,5.30653,-8.82641
434,-678,4.97021,9.18188,0,0,0,0,0,0,0,-1,1658,1702,4.97024,-9.18192
441,-678,2.66626,7.73022,0,0,0,0,0,0,0,-1,1665,1702,2.66631,-7.73021
448,-678,3.53296,7.79639,0,0,0,0,0,0,0,-1,1672,1702,3.533,-7.79638
455,-678,5.44678,5.54297,0,0,0,0,0,0,0,-1,1679,1702,5.44676,-5.54294
462,-678,3.86792,2.87402,0,0,0,0,0,0,0,-1,1686,1702,3.86796,-2.87406
469,-678,2.26587,1.98755,0,0,0,0,0,0,0,-1,1693,1702,2.26592,-1.98755
476,-678,0,0,0,0,0,0,0,0,0,-1,1700,1702,0,0
483,-678,0,0,0,0,0,0,0,0,0,-1,1707,1702,0,0
490,-678,0,0,0,0,0,0,0,0,0,-1,1714,1702,0,0
497,-678,0,0,0,0,0,0,0,0,0,-1,1721,1702,0,0
504,-678,0,0,0,0,0,0,0,0,0,-1,1728,1702,0,0
511,-678,0,0,0,0,0,0,0,0,0,-1,1735,1702,0,0
518,-678,0,0,0,0,0,0,0,0,0,-1,1742,1702,0,0
525,-678,0,0,0,0,0,0,0,0,0,-1,1749,1702,0,0
532,-678,0,0,0,0,0,0,0,0,0,-1,1756,1702,0,0
539,-678,0,0,0,0,0,0,0,0,0,-1,1763,1702,0,0
546,-678,0,0,0,0,0,0,0,0,0,-1,1770,1702,0,0
553,-678,0,0,0,0,0,0,0,0,0,-1,1777,1702,0,0
560,-678,0,0,0,0,0,0,0,0,0,-1,1784,1702,0,0
567,-678,0,0,0,0,0,0,0,0,0,-1,1791,1702,0,0
574,-678,0,0,0,0,0,0,0,0,0,-1,1798,1702,0,0
581,-678,0,0,0,0,0,0,0,0,0,-1,1805,1702,0,0
588,-678,0,0,0,0,0,0,0,0,0,-1,1812,1702,0,0
595,-678,0,0,0,0,0,0,0,0,0,-1,1819,1702,0,0
602,-678,0,0,0,0,0,0,0,0,0,-1,1826,1702,0,0
609,-678,0,0,0,0,0,0,0,0,0,-1,1833,1702,0,0
616,-678,0,0,0,0,0,0,0,0,0,-1,1840,1702,0,0
623,-678,0,0,0,0,0,0,0,0,0,-1,1847,1702,0,0
630,-678,0,0,0,0,0,0,0,0,0,-1,1854,1702,0,0
637,-678,0,0,0,0,0,0,0,0,0,-1,1861,1702,0,0
644,-678,0,0,0,0,0,0,0,0,0,-1,1868,1702,0,0
651,-678,0,0,0,0,0,0,0,0,0,-1,1875,1702,0,0
658,-678,0,0,0,0,0,0,0,0,0,-1,1882,1702,0,0
665,-678,0,0,0,0,0,0,0,0,0,-1,1889,1702,0,0
672,-678,0,0,0,0,0,0,0,0,0,-1,1896,1702,0,0
679,-678,0,0,0,0,0,0,0,0,0,-1,1903,1702,0,0
686,-678,0,0,0,0,0,0,0,0,0,-1,1910,1702,0,0
693,-678,0,0,0,0,0,0,0,0,0,-1,1917,1702,0,0
700,-678,0,0,0,0,0,0,0,0,0,-1,1924,1702,0,0
707,-678,0,0,0,0,0,0,0,0,0,-1,1931,1702,0,0
714,-678,0,0,0,0,0,0,0,0,0,-1,1938,1702,0,0
721,-678,0,0,0,0,0,0,0,0,0,-1,1945,1702,0,0
728,-678,0,0,0,0,0,0,0,0,0,-1,1952,1702,0,0
735,-678,0,0,0,0,0,0,0,0,0,-1,1959,1702,0,0
742,-678,0,0,0,0,0,0,0,0,0,-1,1966,1702,0,0
749,-678,0,0,0,0,0,0,0,0,0,-1,1973,1702,0,0
756,-678,0,0,0,0,0,0,0,0,0,-1,1980,1702,0,0
763,-678,0,0,0,0,0,0,0,0,0,-1,1987,1702,0,0
770,-678,0,0,0,0,0,0,0,0,0,-1,1994,1702,0,0
777,-678,0,0,0,0,0,0,0,0,0,-1,2001,1702,0,0
784,-678,0,0,0,0,0,0,0,0,0,-1,2008,1702,0,0
791,-678,0,0,0,0,0,0,0,0,0,-1,2015,1702,0,0
798,-678,0,0,0,0,0,0,0,0,0,-1,2022,1702,0,0
805,-678,0,0,0,0,0,0,0,0,0,-1,2029,1702,0,0
812,-678,0,0,0,0,0,0,0,0,0,-1,2036,1702,0,0
-700,-685,0,0,0,0,0,0,0,0,0,-1,524,1709,0,0
-693,-685,0,0,0,0,0,0,0,0,0,-1,531,1709,0,0
-686,-685,0,0,0,0,0,0,0,0,0,-1,538,1709,0,0
-679,-685,0,0,0,0,0,0,0,0,0,-1,545,1709,0,0
-672,-685,0,0,0,0,0,0,0,0,0,-1,552,1709,0,0
-665,-685,0,0,0,0,0,0,0,0,0,-1,559,1709,0,0
-658,-685,0,0,0,0,0,0,0,0,0,-1,566,1709,0,0
-651,-685,0,0,0,0,0,0,0,0,0,-1,573,1709,0,0
-644,-685,0,0,0,0,0,0,0,0,0,-1,580,1709,0,0
-637,-685,0,0,0,0,0,0,0,0,0,-1,587,1709,0,0
-630,-685,0,0,0,0,0,0,0,0,0,-1,594,1709,0,0
-623,-685,0,0,0,0,0,0,0,0,0,-1,601,1709,0,0
-616,-685,0,0,0,0,0,0,0,0,0,-1,608,1709,0,0
-609,-685,0,0,0,0,0,0,0,0,0,-1,615,1709,0,0
-602,-685,0,0,0,0,0,0,0,0,0,-1,622,1709,0,0
-595,-685,0,0,0,0,0,0,0,0,0,-1,629,1709,0,0
-588,-685,0,0,0,0,0,0,0,0,0,-1,636,1709,0,0
-581,-685,0,0,0,0,0,0,0,0,0,-1,643,1709,0,0
-574,-685,0,0,0,0,0,0,0,0,0,-1,650,1709,0,0
-567,-685,0,0,0,0,0,0,0,0,0,-1,657,1709,0,0
-560,-685,0,0,0,0,0,0,0,0,0,-1,664,1709,0,0
-553,-685,0,0,0,0,0,0,0,0,0,-1,671,1709,0,0
-546,-685,0,0,0,0,0,0,0,0,0,-1,678,1709,0,0
-539,-685,0,0,0,0,0,0,0,0,0,-1,685,1709,0,0
-532,-685,0,0,0,0,0,0,0,0,0,-1,692,1709,0,0
-525,-685,0,0,0,0,0,0,0,0,0,-1,699,1709,0,0
-518,-685,0,0,0,0,0,0,0,0,0,-1,706,1709,0,0
-511,-685,0,0,0,0,0,0,0,0,0,-1,713,1709,0,0
-504,-685,0,0,0,0,0,0,0,0,0,-1,720,1709,0,0
-497,-685,0,0,0,0,0,0,0,0,0,-1,727,1709,0,0
-490,-685,0,0,0,0,0,0,0,0,0,-1,734,1709,0,0
-483,-685,0,0,0,0,0,0,0,0,0,-1,741,1709,0,0
-476,-685,0,0,0,0,0,0,0,0,0,-1,748,1709,0,0
-469,-685,0,0,0,0,0,0,0,0,0,-1,755,1709,0,0
-462,-685,0,0,0,0,0,0,0,0,0,-1,762,1709,0,0
-455,-685,0,0,0,0,0,0,0,0,0,-1,769,1709,0,0
-448,-685,0,0,0,0,0,0,0,0,0,-1,776,1709,0,0
-441,-685,0,0,0,0,0,0,0,0,0,-1,783,1709,0,0
-434,-685,0,0,0,0,0,0,0,0,0,-1,790,1709,0,0
-427,-685,0,0,0,0,0,0,0,0,0,-1,797,1709,0,0
-420,-685,0,0,0,0,0,0,0,0,0,-1,804,1709,0,0
-413,-685,0,0,0,0,0,0,0,0,0,-1,811,1709,0,0
-406,-685,0,0,0,0,0,0,0,0,0,-1,818,1709,0,0
-399,-685,0,0,0,0,0,0,0,0,0,-1,825,1709,0,0
-392,-685,0,0,0,0,0,0,0,0,0,-1,832,1709,0,0
-385,-685,0,0,0,0,0,0,0,0,0,-1,839,1709,0,0
-378,-685,0,0,0,0,0,0,0,0,0,-1,846,1709,0,0
-371,-685,0,0,0,0,0,0,0,0,0,-1,853,1709,0,0
-364,-685,0,0,0,0,0,0,0,0,0,-1,860,1709,0,0
-357,-685,0,0,0,0,0,0,0,0,0,-1,867,1709,0,0
-350,-685,0,0,0,0,0,0,0,0,0,-1,874,1709,0,0
-343,-685,-7.97491,5.63452,0,0,0,0,0,0,0,-1,881,1709,-7.97492,-5.63451
-336,-685,-8.73004,4.33813,0,0,0,0,0,0,0,-1,888,1709,-8.73002,-4.33818
-329,-685,-9.43805,3.16907,0,0,0,0,0,0,0,-1,895,1709,-9.43805,-3.16908
-322,-685,-10.121,1.96362,0,0,0,0,0,0,0,-1,902,1709,-10.121,-1.96362
-315,-685,4.32922,3.88074,0,0,0,0,0,0,0,-1,909,1709,4.32925,-3.88075
-308,-685,3.21075,7.45447,0,0,0,0,0,0,0,-1,916,1709,3.21075,-7.45447
-301,-685,3.36353,7.46338,0,0,0,0,0,0,0,-1,923,1709,3.36351,-7.46336
-294,-685,3.51508,7.5752,0,0,0,0,0,0,0,-1,930,1709,3.51509,-7.57517
-287,-685,3.70776,7.61499,0.0275085,-0.00718874,-0.0222026,0.0383367,-0.0180169,-0.453757,0.0332333,0.047752,937,1709,3.70776,-7.61498
-280,-685,3.91003,7.61414,0.0237589,-0.00395131,-0.0202428,0.0344341,-0.0146265,-0.485292,0.0290845,0.0489695,944,1709,3.91002,-7.61417
-273,-685,3.2403,8.04724,0,0,0,0,0,0,0,-1,951,1709,3.24027,-8.04726
-266,-685,3.3938,8.35754,0.015503,0.000397503,-0.0131112,0.0230813,-0.00718075,-0.524085,0.018258,0.0438529,958,1709,3.39379,-8.35756
-259,-685,3.75861,8.16174,0.0116664,0.00215789,-0.00991422,0.0179073,-0.00408308,-0.561826,0.0135066,0.0372329,965,1709,3.75861,-8.16173
-252,-685,3.62518,8.28198,0.00838728,0.003443,-0.00655544,0.0129212,-0.00109095,-0.605087,0.00899987,0.0347992,972,1709,3.6252,-8.28196
-245,-685,3.41315,8.43591,0.00586268,0.00414963,-0.00371414,0.00881778,0.00119453,-0.672073,0.00552357,0.0327762,979,1709,3.41315,-8.4359
-238,-685,3.45056,8.51538,0.00398439,0.00443434,-0.00137771,0.00560533,0.0028134,-0.866332,0.00323624,0.0239312,986,1709,3.45056,-8.51536
-231,-685,3.3714,8.66736,0.00262462,0.00440734,0.000910343,0.00479004,0.00224191,1.17283,0.00276742,0.016217,993,1709,3.37142,-8.6673
-224,-685,3.34741,8.76099,0.00162063,0.00385953,0.00256539,0.00553908,-5.89245e-05,0.991127,0.00371252,0.0144963,1000,1709,3.34743,-8.76104
-217,-685,3.35944,8.89258,0.00125898,0.00359564,0.00313206,0.00577018,-0.000915561,0.963916,0.00418549,0.0111599,1007,1709,3.35944,-8.89255
-210,-685,3.35278,9.02393,0.00143071,0.0026846,0.00322133,0.00533943,-0.00122412,0.881508,0.00403011,0.0144716,1014,1709,3.3528,-9.0239
-203,-685,3.33765,9.10779,0.00165509,0.00170366,0.00316813,0.0048476,-0.00148885,0.789231,0.00382584,0.0150026,1021,1709,3.3376,-9.10782
-196,-685,3.33069,9.20532,0.00218952,0.00103795,0.00305755,0.00472502,-0.00149756,0.69233,0.00375023,0.0134127,1028,1709,3.33073,-9.20527
-189,-685,3.33423,9.29663,0.00231971,0.000427597,0.00254467,0.00408849,-0.00134119,0.607426,0.00326585,0.00898418,1035,1709,3.3342,-9.29662
-182,-685,3.33215,9.40002,0.00220953,0.000245715,0.00202416,0.00347737,-0.00102212,0.559571,0.00272365,0.0127328,1042,1709,3.33216,-9.39999
-175,-685,3.3363,9.5033,0.00213767,0.000235648,0.00154174,0.00299812,-0.000624802,0.509043,0.0022363,0.0131403,1049,1709,3.33636,-9.5033
-168,-685,3.33167,9.59961,0.00206863,0.000537491,0.00117916,0.00270894,-0.000102822,0.497474,0.00184119,0.0101582,1056,1709,3.33166,-9.59958
-161,-685,3.33752,9.67554,0.00206736,0.000957679,0.00107647,0.00272357,0.000301472,0.547442,0.00172403,0.0107732,1063,1709,3.33755,-9.67556
-154,-685,3.34302,9.75696,0.00218068,0.00116478,0.00103899,0.00282924,0.000516225,0.558039,0.0017398,0.0103325,1070,1709,3.34305,-9.75698
-147,-685,3.32556,9.84619,0.00226214,0.00121976,0.000984879,0.00285524,0.000626668,0.542033,0.00173279,0.00948865,1077,1709,3.32556,-9.84618
-140,-685,3.33252,9.92432,0.00237775,0.000920469,0.000901773,0.00280847,0.000489752,0.445595,0.0017323,0.0114305,1084,1709,3.3325,-9.92432
-133,-685,3.35583,10.0105,0.0025407,0.000191495,0.000802063,0.00278842,-5.62229e-05,0.299557,0.00187797,0.0103935,1091,1709,3.35578,-10.0105
-126,-685,3.35522,10.089,0.00259253,-0.000577863,0.000799197,0.00278259,-0.000767931,0.233486,0.0021571,0.00885614,1098,1709,3.35526,-10.089
-119,-685,3.3689,10.1648,0.00257876,-0.00130806,0.000882727,0.00276984,-0.00149914,0.213177,0.00250083,0.0122026,1105,1709,3.36885,-10.1648
-112,-685,3.36621,10.2546,0.00254691,-0.00212837,0.000943778,0.00273023,-0.0023117,0.191859,0.0029143,0.0124849,1112,1709,3.36616,-10.2546
-105,-685,3.35071,10.3171,0.00239902,-0.00293504,0.000988442,0.0025763,-0.00311232,0.17746,0.00328918,0.0108022,1119,1709,3.35068,-10.3171
-98,-685,3.39282,10.3534,0.00217192,-0.00398527,0.00100675,0.00233235,-0.0041457,0.158027,0.00378864,0.0144719,1126,1709,3.39277,-10.3534
-91,-685,3.40234,10.4131,0.00177932,-0.00484565,0.0011008,0.00195744,-0.00502377,0.160418,0.00415818,0.017104,1133,1709,3.40235,-10.413
-84,-685,3.39954,10.5002,0.00119662,-0.00531456,0.00112736,0.00138629,-0.00550423,0.16668,0.00420839,0.0140272,1140,1709,3.39949,-10.5002
-77,-685,3.41248,10.6157,0.00104437,-0.00469393,0.00110922,0.00125132,-0.00490088,0.184451,0.00375452,0.0131717,1147,1709,3.41248,-10.6157
-70,-685,3.46729,10.7146,0.0012411,-0.00402001,0.00083257,0.00136971,-0.00414862,0.153262,0.00331794,0.0196492,1154,1709,3.46732,-10.7146
-63,-685,3.41565,10.8854,0.00174504,-0.00411586,0.000655695,0.0018175,-0.00418832,0.110063,0.00355638,0.047881,1161,1709,3.41569,-10.8854
-56,-685,3.60828,11.2949,0,0,0,0,0,0,0,-1,1168,1709,3.60822,-11.2949
-49,-685,3.07471,9.86011,0,0,0,0,0,0,0,-1,1175,1709,3.07467,-9.86009
-42,-685,2.70618,7.54504,0,0,0,0,0,0,0,-1,1182,1709,2.7062,-7.54504
-35,-685,2.95264,7.91516,0,0,0,0,0,0,0,-1,1189,1709,2.95262,-7.91517
-28,-685,3.36523,10.9619,0,0,0,0,0,0,0,-1,1196,1709,3.36526,-10.9619
-21,-685,3.50867,10.9049,0.0141598,-0.00312119,-0.00999433,0.0187309,-0.00769223,-0.42896,0.0156929,0.0413106,1203,1709,3.50872,-10.905
-14,-685,3.63757,10.8308,0.0161016,-0.00477236,-0.00941152,0.0197183,-0.00838911,-0.36689,0.0166614,0.0254188,1210,1709,3.63759,-10.8308
-7,-685,3.62561,10.8191,0.017755,-0.00543848,-0.00896236,0.0208146,-0.00849808,-0.328978,0.0174145,0.0374407,1217,1709,3.62557,-10.8191
0,-685,3.66956,10.8402,0.0189748,-0.00510291,-0.00777593,0.0212677,-0.00739581,-0.286745,0.0171827,0.0425539,1224,1709,3.66959,-10.8402
7,-685,3.62354,11.0148,0.0197151,-0.00428505,-0.00668591,0.021452,-0.0060219,-0.25416,0.0166751,0.0405996,1231,1709,3.6235,-11.0148
14,-685,3.50562,11.2979,0.0199172,-0.00397298,-0.00532769,0.0210514,-0.00510725,-0.209768,0.0160106,0.0377368,1238,1709,3.50559,-11.2979
21,-685,3.61902,11.1063,0.0194601,-0.00400637,-0.00360827,0.0200024,-0.00454866,-0.149173,0.0150816,0.0344938,1245,1709,3.61904,-11.1063
28,-685,3.97241,10.9902,0.0184426,-0.00432488,-0.00166717,0.0185641,-0.00444631,-0.0727087,0.0140939,0.0342996,1252,1709,3.97247,-10.9902
35,-685,4.02075,11.0162,0.0165896,-0.00405722,-0.000270043,0.0165932,-0.00406075,-0.0130762,0.0126351,0.0365109,1259,1709,4.02069,-11.0163
42,-685,3.83057,11.1936,0.0145454,-0.00389757,0.000238768,0.0145485,-0.00390066,0.0129434,0.0112274,0.0417725,1266,1709,3.83061,-11.1936
49,-685,3.81677,11.212,0.0124207,-0.00345864,-0.000135956,0.0124218,-0.0034598,-0.00856101,0.00964362,0.0438282,1273,1709,3.81674,-11.212
56,-685,3.99158,10.9641,0.0101119,-0.00328382,-0.00051867,0.010132,-0.00330387,-0.0386418,0.00808421,0.0445328,1280,1709,3.99158,-10.9641
63,-685,2.96484,10.5857,0,0,0,0,0,0,0,-1,1287,1709,2.9648,-10.5857
70,-685,3.86829,10.9915,0.00633059,-0.00212276,-0.00265774,0.00709675,-0.00288892,-0.280664,0.00593339,0.0470532,1294,1709,3.86831,-10.9915
77,-685,3.50757,10.9264,0.00410956,-0.00189969,-0.00375759,0.0059161,-0.00370622,-0.448146,0.00560407,0.0415465,1301,1709,3.50752,-10.9264
84,-685,3.51428,11.2125,0.00224056,0.000571655,-0.00605762,0.00752093,-0.00470872,-0.716953,0.00712274,0.0437872,1308,1709,3.51423,-11.2126
91,-685,3.46265,11.2599,0.00203243,0.00228145,-0.00928753,0.0114453,-0.00713143,-0.792101,0.0108212,0.0437267,1315,1709,3.4626,-11.2599
98,-685,3.50696,11.0503,0.00193881,0.00365193,-0.0116678,0.0144946,-0.00890381,-0.822039,0.013637,0.0373234,1322,1709,3.50691,-11.0503
105,-685,3.57678,10.9585,0.00191475,0.00454146,-0.0136817,0.0169726,-0.0105164,-0.833248,0.0160161,0.0410585,1329,1709,3.57681,-10.9585
112,-685,3.72485,11.1898,0.00219948,0.00540097,-0.0142218,0.0181118,-0.0105114,-0.84144,0.0167187,0.0437299,1336,1709,3.72481,-11.1898
119,-685,3.71997,11.158,0.0023276,0.00686786,-0.0146193,0.0193922,-0.0101968,-0.862425,0.017356,0.0391638,1343,1709,3.71999,-11.1579
126,-685,3.72266,11.0355,0.00237332,0.00759976,-0.0150263,0.0202384,-0.0102653,-0.871492,0.0179223,0.0421472,1350,1709,3.72268,-11.0355
133,-685,3.65515,11.1057,0.00251229,0.00771836,-0.0152518,0.0205877,-0.010357,-0.869919,0.0181885,0.0473461,1357,1709,3.65517,-11.1057
140,-685,3.69739,11.3199,0.00366862,0.00597376,-0.0139274,0.0187962,-0.00915382,-0.826682,0.0164539,0.046917,1364,1709,3.69736,-11.3199
147,-685,3.74866,11.287,0.00435149,0.00560082,-0.0113256,0.0163189,-0.00636662,-0.812948,0.0135111,0.0460512,1371,1709,3.74862,-11.287
154,-685,3.88928,11.3379,0,0,0,0,0,0,0,-1,1378,1709,3.88926,-11.3378
161,-685,4.32825,11.1553,0,0,0,0,0,0,0,-1,1385,1709,4.32822,-11.1552
168,-685,4.37524,10.8778,0,0,0,0,0,0,0,-1,1392,1709,4.37525,-10.8778
175,-685,3.97522,8.94324,0,0,0,0,0,0,0,-1,1399,1709,3.97519,-8.94328
182,-685,3.98218,9.19739,0,0,0,0,0,0,0,-1,1406,1709,3.98221,-9.1974
189,-685,3.90552,10.3271,0,0,0,0,0,0,0,-1,1413,1709,3.90548,-10.3272
196,-685,4.04956,11.1233,0,0,0,0,0,0,0,-1,1420,1709,4.04959,-11.1233
203,-685,4.09753,11.1147,-0.00354676,-0.000828303,0.00401309,0.00204949,-0.00642456,0.948684,0.00510523,0.0399492,1427,1709,4.09757,-11.1148
210,-685,4.08936,10.9891,-0.00436682,-0.00180556,0.00424998,0.00135254,-0.00752493,0.931734,0.00552295,0.0234559,1434,1709,4.08934,-10.9892
217,-685,4.06702,10.8339,-0.00473037,-0.00228164,0.00412788,0.000799632,-0.00781164,0.929569,0.00549373,0.0215183,1441,1709,4.06702,-10.8339
224,-685,4.02124,10.7716,-0.0045313,-0.00193627,0.00383496,0.000814729,-0.0072823,0.948522,0.00514798,0.0163013,1448,1709,4.0213,-10.7716
231,-685,4.03162,10.7411,-0.00402094,-0.0016697,0.00313152,0.000499598,-0.00619024,0.964966,0.00430304,0.0161573,1455,1709,4.03157,-10.741
238,-685,4.06873,10.6565,-0.00341417,-0.0014557,0.00254398,0.000290998,-0.00516087,0.969119,0.00354157,0.0189031,1462,1709,4.06869,-10.6565
245,-685,4.07031,10.6008,-0.00267334,-0.00105801,0.00180353,0.000110449,-0.00384179,0.995919,0.00259879,0.0209176,1469,1709,4.07034,-10.6009
252,-685,4.06934,10.5894,-0.00204295,-0.000872883,0.00117355,-0.000146628,-0.00276921,1.01663,0.00179926,0.0147009,1476,1709,4.06933,-10.5894
259,-685,4.09094,10.5449,-0.00160274,-0.00079359,0.000674127,-0.000411955,-0.00198438,1.05566,0.00120922,0.0100433,1483,1709,4.09094,-10.545
266,-685,4.12549,10.4711,-0.00125204,-0.000570459,0.00022747,-0.000501517,-0.00132098,1.27651,0.000769998,0.010755,1490,1709,4.12549,-10.471
273,-685,4.12158,10.3936,-0.000722363,-0.000254036,-0.000273975,-0.000127791,-0.000848609,-1.139,0.000528319,0.0137623,1497,1709,4.1216,-10.3936
280,-685,4.10034,10.326,-0.000379936,9.9864e-05,-0.000543922,0.000454441,-0.000734513,-0.993094,0.000692762,0.0153227,1504,1709,4.10037,-10.326
287,-685,4.0968,10.2627,-0.000102813,0.000110258,-0.000685284,0.000697238,-0.000689793,-0.862512,0.000800806,0.0105431,1511,1709,4.09684,-10.2627
294,-685,4.09106,10.1899,0.000184786,-0.000120909,-0.000748908,0.000796284,-0.000732408,-0.684734,0.000882848,0.00921533,1518,1709,4.09108,-10.1899
301,-685,4.0813,10.135,0.000200813,-0.000478036,-0.000834897,0.000762644,-0.00103987,-0.592329,0.00104477,0.0120317,1525,1709,4.08129,-10.135
308,-685,4.09167,10.0463,0.000157142,-0.00062825,-0.000697374,0.000564783,-0.00103589,-0.528973,0.000937397,0.0142,1532,1709,4.0917,-10.0462
315,-685,4.10974,9.95227,0.000454954,-0.000671173,-0.000473528,0.0006276,-0.00084382,-0.349619,0.000852577,0.0126142,1539,1709,4.10975,-9.95229
322,-685,4.10156,9.88171,0.000464999,-0.000812555,-0.000236892,0.00050751,-0.000855066,-0.177565,0.000795169,0.0194548,1546,1709,4.10157,-9.88167
329,-685,4.08643,9.81128,0.000487482,-0.000907746,5.51525e-05,0.000489659,-0.000909923,0.0394473,0.000820102,0.0183138,1553,1709,4.08638,-9.81124
336,-685,4.0946,9.72937,0.00044156,-0.000680568,0.000383626,0.000560173,-0.000799181,0.299867,0.000788857,0.0132049,1560,1709,4.09466,-9.72931
343,-685,4.09717,9.63513,0.000379138,-0.00031392,0.000682695,0.000798217,-0.000732998,0.550548,0.000884315,0.0109506,1567,1709,4.09718,-9.63514
350,-685,4.09021,9.52734,0.00044765,0.000290059,0.000931463,0.00130364,-0.000565935,0.743202,0.00110706,0.011153,1574,1709,4.0902,-9.52738
357,-685,4.09802,9.4353,0.00074622,0.00104533,0.00111756,0.0020233,-0.000231751,0.851914,0.00143238,0.00995316,1581,1709,4.09804,-9.43536
364,-685,4.07434,9.33215,0.00134924,0.00186729,0.00111717,0.00275507,0.000461465,0.899314,0.00170385,0.009954,1588,1709,4.07438,-9.33215
371,-685,4.09253,9.22095,0.00229517,0.00273929,0.00123436,0.0037714,0.00126306,0.874395,0.00221663,0.0153217,1595,1709,4.09247,-9.22091
378,-685,4.04529,9.15198,0.00336949,0.00391634,0.0019793,0.00564102,0.00164482,0.854035,0.00334983,0.020802,1602,1709,4.04533,-9.15199
385,-685,4.09131,9.09583,0.00494288,0.00533705,0.00214418,0.00729318,0.00298675,0.831228,0.00423364,0.034639,1609,1709,4.09133,-9.09579
392,-685,4.1875,8.8927,0.00601531,0.00720255,0.00287788,0.00954739,0.00367047,0.887107,0.00556104,0.0379331,1616,1709,4.18751,-8.89264
399,-685,4.18372,8.78479,0.00667537,0.00868469,0.00516301,0.0129399,0.00242018,0.881491,0.00794371,0.0450012,1623,1709,4.18372,-8.78475
406,-685,4.2157,8.75623,0,0,0,0,0,0,0,-1,1630,1709,4.21567,-8.75628
413,-685,4.33594,8.79272,0,0,0,0,0,0,0,-1,1637,1709,4.33596,-8.79273
420,-685,4.40869,8.7439,0.00893492,0.00786203,0.0140228,0.0224315,-0.00563456,0.76628,0.017144,0.0474691,1644,1709,4.40871,-8.74386
427,-685,4.46509,8.77527,0.00881335,0.00730409,0.0198374,0.0279105,-0.011793,0.766387,0.023544,0.0483531,1651,1709,4.46509,-8.77521
434,-685,4.87769,8.91418,0,0,0,0,0,0,0,-1,1658,1709,4.87768,-8.91413
441,-685,5.62,8.75549,0,0,0,0,0,0,0,-1,1665,1709,5.61996,-8.75545
448,-685,6.4043,8.58972,0,0,0,0,0,0,0,-1,1672,1709,6.40435,-8.58971
455,-685,2.31958,4.09802,0,0,0,0,0,0,0,-1,1679,1709,2.31957,-4.09803
462,-685,0,0,0,0,0,0,0,0,0,-1,1686,1709,0,0
469,-685,0,0,0,0,0,0,0,0,0,-1,1693,1709,0,0
476,-685,0,0,0,0,0,0,0,0,0,-1,1700,1709,0,0
483,-685,0,0,0,0,0,0,0,0,0,-1,1707,1709,0,0
490,-685,0,0,0,0,0,0,0,0,0,-1,1714,1709,0,0
497,-685,0,0,0,0,0,0,0,0,0,-1,1721,1709,0,0
504,-685,0,0,0,0,0,0,0,0,0,-1,1728,1709,0,0
511,-685,0,0,0,0,0,0,0,0,0,-1,1735,1709,0,0
518,-685,0,0,0,0,0,0,0,0,0,-1,1742,1709,0,0
525,-685,0,0,0,0,0,0,0,0,0,-1,1749,1709,0,0
532,-685,0,0,0,0,0,0,0,0,0,-1,1756,1709,0,0
539,-685,0,0,0,0,0,0,0,0,0,-1,1763,1709,0,0
546,-685,0,0,0,0,0,0,0,0,0,-1,1770,1709,0,0
553,-685,0,0,0,0,0,0,0,0,0,-1,1777,1709,0,0
560,-685,0,0,0,0,0,0,0,0,0,-1,1784,1709,0,0
567,-685,0,0,0,0,0,0,0,0,0,-1,1791,1709,0,0
574,-685,0,0,0,0,0,0,0,0,0,-1,1798,1709,0,0
581,-685,0,0,0,0,0,0,0,0,0,-1,1805,1709,0,0
588,-685,0,0,0,0,0,0,0,0,0,-1,1812,1709,0,0
595,-685,0,0,0,0,0,0,0,0,0,-1,1819,1709,0,0
602,-685,0,0,0,0,0,0,0,0,0,-1,1826,1709,0,0
609,-685,0,0,0,0,0,0,0,0,0,-1,1833,1709,0,0
616,-685,0,0,0,0,0,0,0,0,0,-1,1840,1709,0,0
623,-685,0,0,0,0,0,0,0,0,0,-1,1847,1709,0,0
630,-685,0,0,0,0,0,0,0,0,0,-1,1854,1709,0,0
637,-685,0,0,0,0,0,0,0,0,0,-1,1861,1709,0,0
644,-685,0,0,0,0,0,0,0,0,0,-1,1868,1709,0,0
651,-685,0,0,0,0,0,0,0,0,0,-1,1875,1709,0,0
658,-685,0,0,0,0,0,0,0,0,0,-1,1882,1709,0,0
665,-685,0,0,0,0,0,0,0,0,0,-1,1889,1709,0,0
672,-685,0,0,0,0,0,0,0,0,0,-1,1896,1709,0,0
679,-685,0,0,0,0,0,0,0,0,0,-1,1903,1709,0,0
686,-685,0,0,0,0,0,0,0,0,0,-1,1910,1709,0,0
693,-685,0,0,0,0,0,0,0,0,0,-1,1917,1709,0,0
700,-685,0,0,0,0,0,0,0,0,0,-1,1924,1709,0,0
707,-685,0,0,0,0,0,0,0,0,0,-1,1931,1709,0,0
714,-685,0,0,0,0,0,0,0,0,0,-1,1938,1709,0,0
721,-685,0,0,0,0,0,0,0,0,0,-1,1945,1709,0,0
728,-685,0,0,0,0,0,0,0,0,0,-1,1952,1709,0,0
735,-685,0,0,0,0,0,0,0,0,0,-1,1959,1709,0,0
742,-685,0,0,0,0,0,0,0,0,0,-1,1966,1709,0,0
749,-685,0,0,0,0,0,0,0,0,0,-1,1973,1709,0,0
756,-685,0,0,0,0,0,0,0,0,0,-1,1980,1709,0,0
763,-685,0,0,0,0,0,0,0,0,0,-1,1987,1709,0,0
770,-685,0,0,0,0,0,0,0,0,0,-1,1994,1709,0,0
777,-685,0,0,0,0,0,0,0,0,0,-1,2001,1709,0,0
784,-685,0,0,0,0,0,0,0,0,0,-1,2008,1709,0,0
791,-685,0,0,0,0,0,0,0,0,0,-1,2015,1709,0,0
798,-685,0,0,0,0,0,0,0,0,0,-1,2022,1709,0,0
805,-685,0,0,0,0,0,0,0,0,0,-1,2029,1709,0,0
812,-685,0,0,0,0,0,0,0,0,0,-1,2036,1709,0,0
-700,-692,0,0,0,0,0,0,0,0,0,-1,524,1716,0,0
-693,-692,0,0,0,0,0,0,0,0,0,-1,531,1716,0,0
-686,-692,0,0,0,0,0,0,0,0,0,-1,538,1716,0,0
-679,-692,0,0,0,0,0,0,0,0,0,-1,545,1716,0,0
-672,-692,0,0,0,0,0,0,0,0,0,-1,552,1716,0,0
-665,-692,0,0,0,0,0,0,0,0,0,-1,559,1716,0,0
-658,-692,0,0,0,0,0,0,0,0,0,-1,566,1716,0,0
-651,-692,0,0,0,0,0,0,0,0,0,-1,573,1716,0,0
-644,-692,0,0,0,0,0,0,0,0,0,-1,580,1716,0,0
-637,-692,0,0,0,0,0,0,0,0,0,-1,587,1716,0,0
-630,-692,0,0,0,0,0,0,0,0,0,-1,594,1716,0,0
-623,-692,0,0,0,0,0,0,0,0,0,-1,601,1716,0,0
-616,-692,0,0,0,0,0,0,0,0,0,-1,608,1716,0,0
-609,-692,0,0,0,0,0,0,0,0,0,-1,615,1716,0,0
-602,-692,0,0,0,0,0,0,0,0,0,-1,622,1716,0,0
-595,-692,0,0,0,0,0,0,0,0,0,-1,629,1716,0,0
-588,-692,0,0,0,0,0,0,0,0,0,-1,636,1716,0,0
-581,-692,0,0,0,0,0,0,0,0,0,-1,643,1716,0,0
-574,-692,0,0,0,0,0,0,0,0,0,-1,650,1716,0,0
-567,-692,0,0,0,0,0,0,0,0,0,-1,657,1716,0,0
-560,-692,0,0,0,0,0,0,0,0,0,-1,664,1716,0,0
-553,-692,0,0,0,0,0,0,0,0,0,-1,671,1716,0,0
-546,-692,0,0,0,0,0,0,0,0,0,-1,678,1716,0,0
-539,-692,0,0,0,0,0,0,0,0,0,-1,685,1716,0,0
-532,-692,0,0,0,0,0,0,0,0,0,-1,692,1716,0,0
-525,-692,0,0,0,0,0,0,0,0,0,-1,699,1716,0,0
-518,-692,0,0,0,0,0,0,0,0,0,-1,706,1716,0,0
-511,-692,0,0,0,0,0,0,0,0,0,-1,713,1716,0,0
-504,-692,0,0,0,0,0,0,0,0,0,-1,720,1716,0,0
-497,-692,0,0,0,0,0,0,0,0,0,-1,727,1716,0,0
-490,-692,0,0,0,0,0,0,0,0,0,-1,734,1716,0,0
-483,-692,0,0,0,0,0,0,0,0,0,-1,741,1716,0,0
-476,-692,0,0,0,0,0,0,0,0,0,-1,748,1716,0,0
-469,-692,0,0,0,0,0,0,0,0,0,-1,755,1716,0,0
-462,-692,0,0,0,0,0,0,0,0,0,-1,762,1716,0,0
-455,-692,0,0,0,0,0,0,0,0,0,-1,769,1716,0,0
-448,-692,0,0,0,0,0,0,0,0,0,-1,776,1716,0,0
-441,-692,0,0,0,0,0,0,0,0,0,-1,783,1716,0,0
-434,-692,0,0,0,0,0,0,0,0,0,-1,790,1716,0,0
-427,-692,0,0,0,0,0,0,0,0,0,-1,797,1716,0,0
-420,-692,0,0,0,0,0,0,0,0,0,-1,804,1716,0,0
-413,-692,0,0,0,0,0,0,0,0,0,-1,811,1716,0,0
-406,-692,0,0,0,0,0,0,0,0,0,-1,818,1716,0,0
-399,-692,0,0,0,0,0,0,0,0,0,-1,825,1716,0,0
-392,-692,0,0,0,0,0,0,0,0,0,-1,832,1716,0,0
-385,-692,0,0,0,0,0,0,0,0,0,-1,839,1716,0,0
-378,-692,0,0,0,0,0,0,0,0,0,-1,846,1716,0,0
-371,-692,0,0,0,0,0,0,0,0,0,-1,853,1716,0,0
-364,-692,0,0,0,0,0,0,0,0,0,-1,860,1716,0,0
-357,-692,0,0,0,0,0,0,0,0,0,-1,867,1716,0,0
-350,-692,0,0,0,0,0,0,0,0,0,-1,874,1716,0,0
-343,-692,0,0,0,0,0,0,0,0,0,-1,881,1716,0,0
-336,-692,0,0,0,0,0,0,0,0,0,-1,888,1716,0,0
-329,-692,3.12396,3.50745,0,0,0,0,0,0,0,-1,895,1716,3.12398,-3.50748
-322,-692,3.23596,4.03162,0,0,0,0,0,0,0,-1,902,1716,3.23596,-4.03162
-315,-692,3.14917,4.474,0,0,0,0,0,0,0,-1,909,1716,3.14919,-4.47401
-308,-692,2.92108,4.76416,0,0,0,0,0,0,0,-1,916,1716,2.92107,-4.76417
-301,-692,3.55682,7.37976,0,0,0,0,0,0,0,-1,923,1716,3.55684,-7.37979
-294,-692,5.36365,5.27319,0,0,0,0,0,0,0,-1,930,1716,5.36364,-5.27319
-287,-692,3.95496,7.5509,0,0,0,0,0,0,0,-1,937,1716,3.95498,-7.55086
-280,-692,4.14618,7.50146,0.0338464,-0.00577154,-0.0279275,0.0482769,-0.020202,-0.476928,0.0406288,0.0453401,944,1716,4.14618,-7.50142
-273,-692,4.77814,7.25488,0.0277441,-0.00253463,-0.021833,0.0391732,-0.0139637,-0.482252,0.0318086,0.044738,951,1716,4.77813,-7.25486
-266,-692,5.51807,7.06396,0,0,0,0,0,0,0,-1,958,1716,5.51809,-7.06396
-259,-692,4.45001,8.06726,0,0,0,0,0,0,0,-1,965,1716,4.44998,-8.06721
-252,-692,4.18555,8.21582,0.0125195,0.00343799,-0.00769594,0.0169144,-0.000956908,-0.518874,0.0116084,0.0470384,972,1716,4.18556,-8.21582
-245,-692,3.40076,7.69238,0.00905513,0.00444401,-0.00390016,0.0112802,0.00221891,-0.518457,0.00690048,0.0434322,979,1716,3.40073,-7.69235
-238,-692,3.5155,8.1344,0.00639243,0.00490327,-0.000826909,0.00676058,0.00453512,-0.41887,0.00397843,0.0398403,986,1716,3.51553,-8.13443
-231,-692,3.56049,8.56348,0.00457256,0.00501826,0.00217756,0.00698434,0.00260648,0.836391,0.00407541,0.0319041,993,1716,3.56049,-8.56348
-224,-692,3.45715,8.77917,0.00315249,0.00446095,0.00426202,0.00811866,-0.000505222,0.861555,0.00558847,0.0157948,1000,1716,3.45716,-8.77913
-217,-692,3.43274,8.89502,0.00252101,0.00425621,0.00489096,0.00835593,-0.00157871,0.87318,0.00616461,0.0113233,1007,1716,3.43275,-8.89502
-210,-692,3.43457,9.00513,0.00266025,0.00319729,0.00485554,0.00779172,-0.00193419,0.813021,0.00594503,0.0124011,1014,1716,3.43457,-9.00516
-203,-692,3.43896,9.10327,0.00285422,0.00203975,0.00462506,0.00708994,-0.00219596,0.741487,0.00560392,0.0150379,1021,1716,3.43892,-9.10331
-196,-692,3.45264,9.22827,0.00336606,0.00120693,0.00436545,0.00678345,-0.00221046,0.664181,0.00541175,0.0175592,1028,1716,3.4527,-9.22827
-189,-692,3.42908,9.28149,0.00329574,0.000399811,0.00362476,0.00575104,-0.00205549,0.595376,0.00467242,0.00902035,1035,1716,3.42903,-9.28145
-182,-692,3.4165,9.38379,0.00291021,0.000310453,0.00291879,0.00480548,-0.00158482,0.575909,0.00384246,0.0130578,1042,1716,3.41654,-9.38384
-175,-692,3.40173,9.50696,0.00257001,0.000395117,0.00227064,0.00400017,-0.00103505,0.562079,0.00307051,0.0144822,1049,1716,3.40176,-9.50694
-168,-692,3.42432,9.60547,0.00225497,0.000721977,0.00171673,0.00336854,-0.000391598,0.575434,0.00238696,0.0114334,1056,1716,3.42426,-9.60543
-161,-692,3.43701,9.68469,0.00201034,0.00124686,0.0014905,0.00316721,8.99917e-05,0.660035,0.00208212,0.0133803,1063,1716,3.43705,-9.68473
-154,-692,3.42676,9.77966,0.00192195,0.00149706,0.00134049,0.00306672,0.00035229,0.70681,0.00193776,0.0142769,1070,1716,3.42677,-9.77968
-147,-692,3.43347,9.8562,0.00179704,0.00159216,0.00116649,0.00286558,0.000523624,0.741602,0.00176197,0.0131406,1077,1716,3.43346,-9.85624
-140,-692,3.43286,9.92566,0.00175394,0.0014092,0.00102254,0.00261853,0.000544604,0.701897,0.00159544,0.00970754,1084,1716,3.43281,-9.92565
-133,-692,3.43408,10.0216,0.00181345,0.000879228,0.000874418,0.0023377,0.000354976,0.540084,0.00145465,0.00876385,1091,1716,3.43404,-10.0216
-126,-692,3.43567,10.0865,0.00174082,0.000277815,0.000740609,0.00205028,-3.1642e-05,0.395791,0.00137752,0.0071768,1098,1716,3.43564,-10.0866
-119,-692,3.43665,10.1553,0.00167188,-0.000320799,0.000770333,0.00193495,-0.000583865,0.32908,0.00152238,0.0108343,1105,1716,3.43665,-10.1552
-112,-692,3.43054,10.2345,0.00166243,-0.000987542,0.000807744,0.00188923,-0.00121434,0.273733,0.00180592,0.0109045,1112,1716,3.43058,-10.2345
-105,-692,3.46423,10.3064,0.00158486,-0.00163932,0.000843942,0.0017924,-0.00184687,0.241138,0.00210121,0.0153626,1119,1716,3.46418,-10.3065
-98,-692,3.49243,10.3612,0.00143411,-0.00242506,0.00087819,0.00162455,-0.0026155,0.213551,0.00247018,0.017257,1126,1716,3.49242,-10.3612
-91,-692,3.48938,10.4209,0.00117339,-0.00301368,0.000975123,0.00138935,-0.00322964,0.217949,0.00273642,0.0196042,1133,1716,3.48938,-10.4208
-84,-692,3.48877,10.4768,0.000820549,-0.00329404,0.00103305,0.00106535,-0.00353885,0.23268,0.00278317,0.021734,1140,1716,3.48875,-10.4768
-77,-692,3.47888,10.5768,0.000753861,-0.0028111,0.00104762,0.00103892,-0.00309616,0.265674,0.00248393,0.0146113,1147,1716,3.47888,-10.5768
-70,-692,3.49109,10.6499,0.000939367,-0.00226579,0.000905606,0.00117754,-0.00250397,0.257179,0.00217102,0.0149887,1154,1716,3.49114,-10.6499
-63,-692,3.49805,10.7058,0.00133314,-0.00228872,0.00078911,0.0014976,-0.00245317,0.20547,0.00230311,0.0190303,1161,1716,3.4981,-10.7058
-56,-692,3.47058,10.9316,0.00174992,-0.00272314,0.000776161,0.00188077,-0.00285399,0.167017,0.0027528,0.0340901,1168,1716,3.47055,-10.9317
-49,-692,3.46008,11.3202,0,0,0,0,0,0,0,-1,1175,1716,3.4601,-11.3201
-42,-692,3.55347,11.0059,0,0,0,0,0,0,0,-1,1182,1716,3.55349,-11.0058
-35,-692,3.4823,10.9761,0,0,0,0,0,0,0,-1,1189,1716,3.48228,-10.9761
-28,-692,3.47388,10.9597,0.00633664,-0.00133799,-0.00396214,0.00801508,-0.00301643,-0.4007,0.00658339,0.0368942,1196,1716,3.4739,-10.9598
-21,-692,3.59155,10.9248,0.00972603,-0.00348295,-0.00554116,0.0117427,-0.00549958,-0.349036,0.01017,0.0233064,1203,1716,3.59152,-10.9248
-14,-692,3.61182,10.9315,0.0111079,-0.00472247,-0.00524884,0.0126901,-0.00630468,-0.292777,0.0111713,0.0140717,1210,1716,3.61181,-10.9315
-7,-692,3.59534,10.9904,0.0122907,-0.0054161,-0.00482566,0.0135204,-0.00664584,-0.249522,0.0118664,0.0145404,1217,1716,3.59538,-10.9904
0,-692,3.61328,11.0372,0.013169,-0.00515896,-0.00399841,0.0140033,-0.00599327,-0.205709,0.0118498,0.0167791,1224,1716,3.61323,-11.0372
7,-692,3.62195,11.0521,0.0136659,-0.00442981,-0.00350741,0.0143219,-0.00508586,-0.184908,0.0116203,0.0211895,1231,1716,3.62196,-11.0521
14,-692,3.67932,11.1216,0.0138189,-0.00424054,-0.00285608,0.0142598,-0.00468146,-0.15317,0.0113923,0.0230042,1238,1716,3.67937,-11.1216
21,-692,3.73035,11.1086,0.013566,-0.00452334,-0.00199739,0.013784,-0.00474126,-0.108674,0.0111122,0.0237174,1245,1716,3.73037,-11.1087
28,-692,3.71448,11.0934,0.0129992,-0.00501726,-0.000989368,0.0130533,-0.00507143,-0.0546956,0.0107973,0.0234938,1252,1716,3.71448,-11.0934
35,-692,3.70032,11.1523,0.0118705,-0.00522487,-0.000525331,0.0118866,-0.00524099,-0.0306908,0.0101337,0.0225336,1259,1716,3.70026,-11.1524
42,-692,3.74939,11.2271,0.0105922,-0.00539181,-0.000727861,0.0106253,-0.00542489,-0.0454115,0.00942732,0.0204001,1266,1716,3.74934,-11.227
49,-692,3.78613,11.2264,0.00929785,-0.00541982,-0.00154722,0.00945874,-0.00558072,-0.103617,0.00877873,0.0230192,1273,1716,3.78613,-11.2265
56,-692,3.72827,11.1733,0.00787001,-0.00580132,-0.00231865,0.00825255,-0.00618386,-0.16351,0.00836334,0.0297484,1280,1716,3.72823,-11.1733
63,-692,3.7583,11.1501,0.00671013,-0.00595141,-0.00345896,0.00759345,-0.00683473,-0.250027,0.00833395,0.0293665,1287,1716,3.75831,-11.1502
70,-692,3.82129,11.1687,0.00554655,-0.00607342,-0.0046495,0.00717793,-0.00770479,-0.33745,0.00859433,0.0255598,1294,1716,3.82134,-11.1687
77,-692,3.84424,11.2357,0.00421855,-0.00594294,-0.00593499,0.00695049,-0.00867488,-0.431396,0.0090396,0.0280854,1301,1716,3.84419,-11.2357
84,-692,3.81384,11.2008,0.00301247,-0.00451856,-0.00771371,0.00783068,-0.00933677,-0.558333,0.00992434,0.0339542,1308,1716,3.81383,-11.2008
91,-692,3.79431,11.2242,0.00307099,-0.00347099,-0.0100144,0.0103351,-0.0107351,-0.627546,0.0121656,0.03234,1315,1716,3.79436,-11.2242
98,-692,3.80701,11.2567,0.00306035,-0.00232636,-0.0116056,0.0122811,-0.0115471,-0.67138,0.0137594,0.0257263,1322,1716,3.80696,-11.2568
105,-692,3.81348,11.2518,0.00306538,-0.00149172,-0.0127715,0.01376,-0.0121864,-0.697123,0.0149894,0.0322563,1329,1716,3.81343,-11.2518
112,-692,3.83105,11.2056,0.00327975,-0.000529754,-0.012589,0.0141073,-0.0113573,-0.710316,0.0147306,0.0362318,1336,1716,3.83108,-11.2055
119,-692,3.82043,11.1655,0.00331541,0.00118095,-0.0122635,0.0145581,-0.0100617,-0.741995,0.014293,0.0303005,1343,1716,3.82043,-11.1655
126,-692,3.85901,11.1307,0.00323972,0.00271763,-0.0118747,0.0148563,-0.00889893,-0.774408,0.0138581,0.029349,1350,1716,3.85903,-11.1308
133,-692,3.91382,11.1313,0.00308787,0.00358199,-0.0113674,0.014705,-0.00803517,-0.796264,0.013316,0.0235077,1357,1716,3.91384,-11.1313
140,-692,3.86414,11.165,0.00352678,0.00339178,-0.00965626,0.0131158,-0.00619722,-0.781903,0.0113864,0.0268656,1364,1716,3.8641,-11.165
147,-692,3.82422,11.228,0.00380752,0.00317416,-0.00757275,0.0110702,-0.00408852,-0.764501,0.00905603,0.0299363,1371,1716,3.82418,-11.228
154,-692,3.86462,11.2338,0.00387107,0.00300042,-0.00527487,0.00872855,-0.00185705,-0.744227,0.00652672,0.0273271,1378,1716,3.86463,-11.2338
161,-692,4.11487,11.151,0.00438468,0.00380374,-0.00407009,0.00817465,1.37752e-05,-0.749775,0.00544518,0.0409881,1385,1716,4.11484,-11.151
168,-692,3.96545,11.1547,0,0,0,0,0,0,0,-1,1392,1716,3.96547,-11.1547
175,-692,3.93799,11.069,0,0,0,0,0,0,0,-1,1399,1716,3.93795,-11.0689
182,-692,3.95874,11.0398,0,0,0,0,0,0,0,-1,1406,1716,3.95879,-11.0398
189,-692,3.97632,11.0685,0,0,0,0,0,0,0,-1,1413,1716,3.97629,-11.0685
196,-692,3.97119,11.0244,-0.00141324,0.000487442,0.00254106,0.00225005,-0.00317585,0.964343,0.00314781,0.0188453,1420,1716,3.97121,-11.0244
203,-692,3.97852,10.9771,-0.00222757,-0.000176305,0.00293687,0.00190887,-0.00431275,0.953391,0.00368035,0.0146485,1427,1716,3.97848,-10.977
210,-692,4.00037,10.9296,-0.00282108,-0.000851652,0.0030765,0.00139388,-0.00506661,0.940284,0.00392574,0.0160626,1434,1716,4.00036,-10.9296
217,-692,3.99646,10.8608,-0.0031383,-0.00122598,0.00294531,0.000914483,-0.00527877,0.942351,0.00386028,0.0173969,1441,1716,3.99643,-10.8609
224,-692,4.00916,10.819,-0.00301491,-0.00116712,0.00272174,0.00078326,-0.00496529,0.949022,0.00359979,0.0135379,1448,1716,4.0091,-10.819
231,-692,4.00061,10.774,-0.0027135,-0.00114488,0.00224027,0.000444408,-0.00430279,0.953778,0.00302755,0.0109993,1455,1716,4.00055,-10.7741
238,-692,4.00745,10.6737,-0.00231318,-0.00110725,0.00176259,0.000152655,-0.00357308,0.950204,0.00243454,0.0172817,1462,1716,4.00739,-10.6737
245,-692,4.01038,10.6074,-0.00186798,-0.000985473,0.00124309,-0.000107645,-0.00274581,0.955944,0.00179573,0.0200324,1469,1716,4.01037,-10.6075
252,-692,4.01306,10.5818,-0.00149258,-0.000886551,0.000772567,-0.0003597,-0.00201943,0.972289,0.00124385,0.0181047,1476,1716,4.01306,-10.5818
259,-692,4.02527,10.5441,-0.00119011,-0.00085751,0.000364059,-0.000623566,-0.00142405,0.999641,0.000824289,0.00962542,1483,1716,4.02523,-10.544
266,-692,4.04138,10.4932,-0.000923518,-0.00070338,7.25098e-06,-0.000703141,-0.000923756,1.53791,0.000557057,0.00956479,1490,1716,4.04137,-10.4932
273,-692,4.02954,10.3898,-0.000472936,-0.000399111,-0.000479076,4.4473e-05,-0.00091652,-0.823847,0.000626364,0.0141928,1497,1716,4.0295,-10.3898
280,-692,4.04077,10.3137,-0.000199845,-7.79231e-05,-0.000713853,0.000577567,-0.000855335,-0.827994,0.000832451,0.0144253,1504,1716,4.04074,-10.3137
287,-692,4.0271,10.2731,8.96631e-05,-0.000100989,-0.000815744,0.000815632,-0.000826958,-0.727233,0.000948357,0.0113577,1511,1716,4.02704,-10.273
294,-692,4.0155,10.2073,0.000390095,-0.000426011,-0.00091741,0.000986107,-0.00102202,-0.576143,0.00115946,0.00979485,1518,1716,4.01552,-10.2073
301,-692,4.02063,10.1384,0.000301327,-0.000873069,-0.00104782,0.000915262,-0.001487,-0.530001,0.00139998,0.0131149,1525,1716,4.02057,-10.1384
308,-692,4.0166,10.0607,0.000213036,-0.00103223,-0.000894456,0.000680229,-0.00149943,-0.481345,0.00128771,0.0169989,1532,1716,4.01658,-10.0607
315,-692,4.03967,9.96692,0.000656344,-0.00109356,-0.000652781,0.000873025,-0.00131025,-0.320492,0.00126891,0.0149235,1539,1716,4.03965,-9.96687
322,-692,3.9967,9.84509,0.000712942,-0.00129962,-0.000410681,0.000793518,-0.0013802,-0.193742,0.00127014,0.0179997,1546,1716,3.99669,-9.84504
329,-692,3.98474,9.75244,0.000748331,-0.00143762,-8.35566e-05,0.00075152,-0.00144081,-0.0381501,0.00128643,0.0156511,1553,1716,3.98473,-9.7525
336,-692,4.00134,9.68396,0.000716507,-0.00123159,0.000284585,0.000757229,-0.00127231,0.142128,0.00118427,0.0117495,1560,1716,4.00131,-9.68398
343,-692,4.01453,9.60059,0.000657484,-0.000855668,0.000700278,0.000931828,-0.00113001,0.373387,0.00119224,0.0117419,1567,1716,4.01447,-9.60057
350,-692,4.01196,9.5105,0.000763001,-0.000141255,0.0011053,0.00150507,-0.000883323,0.591254,0.00139443,0.011349,1574,1716,4.01195,-9.5105
357,-692,3.9939,9.43628,0.00115616,0.000813523,0.00147438,0.00246914,-0.000499455,0.727558,0.00183537,0.016258,1581,1716,3.99391,-9.43632
364,-692,3.94556,9.30872,0.00194069,0.00194282,0.00162582,0.00356757,0.000315943,0.785726,0.00228038,0.022771,1588,1716,3.94553,-9.30877
371,-692,3.94641,9.1687,0.00311487,0.00321051,0.00197873,0.005142,0.00118338,0.797479,0.00310953,0.031354,1595,1716,3.94646,-9.16868
378,-692,3.94592,9.0542,0.0044485,0.00482386,0.00325892,0.0079005,0.00137185,0.814161,0.00487449,0.0382976,1602,1716,3.94593,-9.05419
385,-692,3.89966,8.87683,0.00662508,0.00670721,0.00364288,0.0103093,0.00302303,0.791034,0.00611934,0.0488048,1609,1716,3.89968,-8.87683
392,-692,4.172,8.72864,0,0,0,0,0,0,0,-1,1616,1716,4.17203,-8.72867
399,-692,4.19104,8.66418,0,0,0,0,0,0,0,-1,1623,1716,4.19105,-8.6642
406,-692,3.93835,7.90723,0,0,0,0,0,0,0,-1,1630,1716,3.93838,-7.90717
413,-692,4.5155,7.74878,0,0,0,0,0,0,0,-1,1637,1716,4.51549,-7.74883
420,-692,3.74963,8.32117,0,0,0,0,0,0,0,-1,1644,1716,3.74965,-8.32115
427,-692,3.79578,8.60339,0,0,0,0,0,0,0,-1,1651,1716,3.79577,-8.6034
434,-692,4.78516,8.64636,0,0,0,0,0,0,0,-1,1658,1716,4.78512,-8.64634
441,-692,5.8208,8.74036,0,0,0,0,0,0,0,-1,1665,1716,5.82084,-8.7404
448,-692,6.73792,8.51013,0,0,0,0,0,0,0,-1,1672,1716,6.73793,-8.5101
455,-692,0,0,0,0,0,0,0,0,0,-1,1679,1716,0,0
462,-692,0,0,0,0,0,0,0,0,0,-1,1686,1716,0,0
469,-692,0,0,0,0,0,0,0,0,0,-1,1693,1716,0,0
476,-692,0,0,0,0,0,0,0,0,0,-1,1700,1716,0,0
483,-692,0,0,0,0,0,0,0,0,0,-1,1707,1716,0,0
490,-692,0,0,0,0,0,0,0,0,0,-1,1714,1716,0,0
497,-692,0,0,0,0,0,0,0,0,0,-1,1721,1716,0,0
504,-692,0,0,0,0,0,0,0,0,0,-1,1728,1716,0,0
511,-692,0,0,0,0,0,0,0,0,0,-1,1735,1716,0,0
518,-692,0,0,0,0,0,0,0,0,0,-1,1742,1716,0,0
525,-692,0,0,0,0,0,0,0,0,0,-1,1749,1716,0,0
532,-692,0,0,0,0,0,0,0,0,0,-1,1756,1716,0,0
539,-692,0,0,0,0,0,0,0,0,0,-1,1763,1716,0,0
546,-692,0,0,0,0,0,0,0,0,0,-1,1770,1716,0,0
553,-692,0,0,0,0,0,0,0,0,0,-1,1777,1716,0,0
560,-692,0,0,0,0,0,0,0,0,0,-1,1784,1716,0,0
567,-692,0,0,0,0,0,0,0,0,0,-1,1791,1716,0,0
574,-692,0,0,0,0,0,0,0,0,0,-1,1798,1716,0,0
581,-692,0,0,0,0,0,0,0,0,0,-1,1805,1716,0,0
588,-692,0,0,0,0,0,0,0,0,0,-1,1812,1716,0,0
595,-692,0,0,0,0,0,0,0,0,0,-1,1819,1716,0,0
602,-692,0,0,0,0,0,0,0,0,0,-1,1826,1716,0,0
609,-692,0,0,0,0,0,0,0,0,0,-1,1833,1716,0,0
616,-692,0,0,0,0,0,0,0,0,0,-1,1840,1716,0,0
623,-692,0,0,0,0,0,0,0,0,0,-1,1847,1716,0,0
630,-692,0,0,0,0,0,0,0,0,0,-1,1854,1716,0,0
637,-692,0,0,0,0,0,0,0,0,0,-1,1861,1716,0,0
644,-692,0,0,0,0,0,0,0,0,0,-1,1868,1716,0,0
651,-692,0,0,0,0,0,0,0,0,0,-1,1875,1716,0,0
658,-692,0,0,0,0,0,0,0,0,0,-1,1882,1716,0,0
665,-692,0,0,0,0,0,0,0,0,0,-1,1889,1716,0,0
672,-692,0,0,0,0,0,0,0,0,0,-1,1896,1716,0,0
679,-692,0,0,0,0,0,0,0,0,0,-1,1903,1716,0,0
686,-692,0,0,0,0,0,0,0,0,0,-1,1910,1716,0,0
693,-692,0,0,0,0,0,0,0,0,0,-1,1917,1716,0,0
700,-692,0,0,0,0,0,0,0,0,0,-1,1924,1716,0,0
707,-692,0,0,0,0,0,0,0,0,0,-1,1931,1716,0,0
714,-692,0,0,0,0,0,0,0,0,0,-1,1938,1716,0,0
721,-692,0,0,0,0,0,0,0,0,0,-1,1945,1716,0,0
728,-692,0,0,0,0,0,0,0,0,0,-1,1952,1716,0,0
735,-692,0,0,0,0,0,0,0,0,0,-1,1959,1716,0,0
742,-692,0,0,0,0,0,0,0,0,0,-1,1966,1716,0,0
749,-692,0,0,0,0,0,0,0,0,0,-1,1973,1716,0,0
756,-692,0,0,0,0,0,0,0,0,0,-1,1980,1716,0,0
763,-692,0,0,0,0,0,0,0,0,0,-1,1987,1716,0,0
770,-692,0,0,0,0,0,0,0,0,0,-1,1994,1716,0,0
777,-692,0,0,0,0,0,0,0,0,0,-1,2001,1716,0,0
784,-692,0,0,0,0,0,0,0,0,0,-1,2008,1716,0,0
791,-692,0,0,0,0,0,0,0,0,0,-1,2015,1716,0,0
798,-692,0,0,0,0,0,0,0,0,0,-1,2022,1716,0,0
805,-692,0,0,0,0,0,0,0,0,0,-1,2029,1716,0,0
812,-692,0,0,0,0,0,0,0,0,0,-1,2036,1716,0,0
-700,-699,0,0,0,0,0,0,0,0,0,-1,524,1723,0,0
-693,-699,0,0,0,0,0,0,0,0,0,-1,531,1723,0,0
-686,-699,0,0,0,0,0,0,0,0,0,-1,538,1723,0,0
-679,-699,0,0,0,0,0,0,0,0,0,-1,545,1723,0,0
-672,-699,0,0,0,0,0,0,0,0,0,-1,552,1723,0,0
-665,-699,0,0,0,0,0,0,0,0,0,-1,559,1723,0,0
-658,-699,0,0,0,0,0,0,0,0,0,-1,566,1723,0,0
-651,-699,0,0,0,0,0,0,0,0,0,-1,573,1723,0,0
-644,-699,0,0,0,0,0,0,0,0,0,-1,580,1723,0,0
-637,-699,0,0,0,0,0,0,0,0,0,-1,587,1723,0,0
-630,-699,0,0,0,0,0,0,0,0,0,-1,594,1723,0,0
-623,-699,0,0,0,0,0,0,0,0,0,-1,601,1723,0,0
-616,-699,0,0,0,0,0,0,0,0,0,-1,608,1723,0,0
-609,-699,0,0,0,0,0,0,0,0,0,-1,615,1723,0,0
-602,-699,0,0,0,0,0,0,0,0,0,-1,622,1723,0,0
-595,-699,0,0,0,0,0,0,0,0,0,-1,629,1723,0,0
-588,-699,0,0,0,0,0,0,0,0,0,-1,636,1723,0,0
-581,-699,0,0,0,0,0,0,0,0,0,-1,643,1723,0,0
-574,-699,0,0,0,0,0,0,0,0,0,-1,650,1723,0,0
-567,-699,0,0,0,0,0,0,0,0,0,-1,657,1723,0,0
-560,-699,0,0,0,0,0,0,0,0,0,-1,664,1723,0,0
-553,-699,0,0,0,0,0,0,0,0,0,-1,671,1723,0,0
-546,-699,0,0,0,0,0,0,0,0,0,-1,678,1723,0,0
-539,-699,0,0,0,0,0,0,0,0,0,-1,685,1723,0,0
-532,-699,0,0,0,0,0,0,0,0,0,-1,692,1723,0,0
-525,-699,0,0,0,0,0,0,0,0,0,-1,699,1723,0,0
-518,-699,0,0,0,0,0,0,0,0,0,-1,706,1723,0,0
-511,-699,0,0,0,0,0,0,0,0,0,-1,713,1723,0,0
-504,-699,0,0,0,0,0,0,0,0,0,-1,720,1723,0,0
-497,-699,0,0,0,0,0,0,0,0,0,-1,727,1723,0,0
-490,-699,0,0,0,0,0,0,0,0,0,-1,734,1723,0,0
-483,-699,0,0,0,0,0,0,0,0,0,-1,741,1723,0,0
-476,-699,0,0,0,0,0,0,0,0,0,-1,748,1723,0,0
-469,-699,0,0,0,0,0,0,0,0,0,-1,755,1723,0,0
-462,-699,0,0,0,0,0,0,0,0,0,-1,762,1723,0,0
-455,-699,0,0,0,0,0,0,0,0,0,-1,769,1723,0,0
-448,-699,0,0,0,0,0,0,0,0,0,-1,776,1723,0,0
-441,-699,0,0,0,0,0,0,0,0,0,-1,783,1723,0,0
-434,-699,0,0,0,0,0,0,0,0,0,-1,790,1723,0,0
-427,-699,0,0,0,0,0,0,0,0,0,-1,797,1723,0,0
-420,-699,0,0,0,0,0,0,0,0,0,-1,804,1723,0,0
-413,-699,0,0,0,0,0,0,0,0,0,-1,811,1723,0,0
-406,-699,0,0,0,0,0,0,0,0,0,-1,818,1723,0,0
-399,-699,0,0,0,0,0,0,0,0,0,-1,825,1723,0,0
-392,-699,0,0,0,0,0,0,0,0,0,-1,832,1723,0,0
-385,-699,0,0,0,0,0,0,0,0,0,-1,839,1723,0,0
-378,-699,0,0,0,0,0,0,0,0,0,-1,846,1723,0,0
-371,-699,0,0,0,0,0,0,0,0,0,-1,853,1723,0,0
-364,-699,0,0,0,0,0,0,0,0,0,-1,860,1723,0,0
-357,-699,0,0,0,0,0,0,0,0,0,-1,867,1723,0,0
-350,-699,0,0,0,0,0,0,0,0,0,-1,874,1723,0,0
-343,-699,0,0,0,0,0,0,0,0,0,-1,881,1723,0,0
-336,-699,0,0,0,0,0,0,0,0,0,-1,888,1723,0,0
-329,-699,0,0,0,0,0,0,0,0,0,-1,895,1723,0,0
-322,-699,0,0,0,0,0,0,0,0,0,-1,902,1723,0,0
-315,-699,1.47852,5.25037,0,0,0,0,0,0,0,-1,909,1723,1.47853,-5.25039
-308,-699,2.01111,5.2334,0,0,0,0,0,0,0,-1,916,1723,2.01109,-5.23345
-301,-699,2.41266,5.38928,0,0,0,0,0,0,0,-1,923,1723,2.41267,-5.38929
-294,-699,4.30652,9.12256,0,0,0,0,0,0,0,-1,930,1723,4.30653,-9.12261
-287,-699,4.32532,8.34094,0.0540938,-0.0137568,-0.0414946,0.0737664,-0.0334293,-0.442713,0.0633332,0.0462952,937,1723,4.3253,-8.34091
-280,-699,4.63452,7.61169,0.04702,-0.00834753,-0.0373894,0.0658589,-0.0271864,-0.466728,0.0552447,0.0449175,944,1723,4.63455,-7.61167
-273,-699,5.24066,7.71545,0.0386928,-0.00436997,-0.0278044,0.052328,-0.0180052,-0.455935,0.0421878,0.0416295,951,1723,5.24068,-7.71543
-266,-699,5.70032,7.59485,0,0,0,0,0,0,0,-1,958,1723,5.70033,-7.59485
-259,-699,6.3576,7.43506,0,0,0,0,0,0,0,-1,965,1723,6.35759,-7.435
-252,-699,4.76385,8.18506,0,0,0,0,0,0,0,-1,972,1723,4.76388,-8.18508
-245,-699,3.43134,7.01697,0,0,0,0,0,0,0,-1,979,1723,3.43135,-7.01696
-238,-699,3.60992,7.64795,0,0,0,0,0,0,0,-1,986,1723,3.60995,-7.64795
-231,-699,3.41443,8.24207,0.00772464,0.0052997,0.00433566,0.0110142,0.00201017,0.649056,0.0067729,0.0417226,993,1723,3.41442,-8.24205
-224,-699,3.57239,8.82751,0.00577048,0.00474881,0.00685837,0.012137,-0.00161772,0.748225,0.00868097,0.0345653,1000,1723,3.57241,-8.82753
-217,-699,3.53149,8.91895,0.00473132,0.00460974,0.00745994,0.0121307,-0.00278966,0.781324,0.00915975,0.0232859,1007,1723,3.53149,-8.91891
-210,-699,3.54388,8.99084,0.00477597,0.0033678,0.0071771,0.0112834,-0.00313967,0.736504,0.00875848,0.0164466,1014,1723,3.54388,-8.99082
-203,-699,3.55786,9.08643,0.00485505,0.00210073,0.0066586,0.0102774,-0.00332164,0.683424,0.00818662,0.0199979,1021,1723,3.55787,-9.08645
-196,-699,3.54773,9.17773,0.00525327,0.00120256,0.00612737,0.00968134,-0.00322551,0.62578,0.00775627,0.0173394,1028,1723,3.54773,-9.17769
-189,-699,3.53235,9.28931,0.00489586,0.000329862,0.00506562,0.00816916,-0.00294345,0.573686,0.00664813,0.00910923,1035,1723,3.53233,-9.28925
-182,-699,3.50671,9.38367,0.00412187,0.000397551,0.00408687,0.00675083,-0.00223141,0.571629,0.00540028,0.0116948,1042,1723,3.50675,-9.38363
-175,-699,3.49524,9.49438,0.0034062,0.000606331,0.00319748,0.00549678,-0.00148425,0.579057,0.00424663,0.0141342,1049,1723,3.49525,-9.49437
-168,-699,3.52039,9.60388,0.00274941,0.000969793,0.00236682,0.00438816,-0.000668958,0.605596,0.00317203,0.0153745,1056,1723,3.52042,-9.60385
-161,-699,3.53125,9.69019,0.00215849,0.00161523,0.00194921,0.00385491,-8.11878e-05,0.716167,0.00259743,0.0133607,1063,1723,3.53125,-9.69014
-154,-699,3.50586,9.77576,0.00178002,0.0018857,0.00162774,0.00346146,0.000204267,0.801623,0.00224265,0.0132092,1070,1723,3.50587,-9.77571
-147,-699,3.50623,9.85413,0.00138514,0.0019957,0.00130067,0.00302644,0.000354401,0.900666,0.00191048,0.0142673,1077,1723,3.50623,-9.85417
-140,-699,3.50806,9.92554,0.00113152,0.00190198,0.00106653,0.00265072,0.000382785,0.958707,0.00165438,0.00940184,1084,1723,3.5081,-9.9255
-133,-699,3.50916,10.0226,0.00105083,0.00155386,0.000854504,0.00219309,0.000411594,0.928526,0.00134601,0.00824369,1091,1723,3.50914,-10.0226
-126,-699,3.51733,10.0917,0.000825141,0.00112256,0.000591321,0.00158359,0.000364118,0.908588,0.000957708,0.010339,1098,1723,3.51731,-10.0917
-119,-699,3.52625,10.1625,0.000700914,0.000670815,0.000574284,0.00126035,0.000111383,0.772298,0.000805673,0.0155354,1105,1723,3.52624,-10.1625
-112,-699,3.50562,10.2485,0.000733428,0.000173008,0.000598458,0.00111403,-0.000207591,0.566447,0.000820681,0.0114996,1112,1723,3.5056,-10.2485
-105,-699,3.51819,10.3197,0.000751944,-0.000321036,0.000638277,0.00104925,-0.000618343,0.435913,0.000973442,0.0122459,1119,1723,3.51815,-10.3197
-98,-699,3.54822,10.3802,0.000696885,-0.000851319,0.000696264,0.000963944,-0.00111838,0.366255,0.00120333,0.0144004,1126,1723,3.54826,-10.3802
-91,-699,3.56824,10.442,0.000583955,-0.00120875,0.000791053,0.000883099,-0.00150789,0.361538,0.00139606,0.0206871,1133,1723,3.56827,-10.442
-84,-699,3.56677,10.5157,0.000465015,-0.00137534,0.000874981,0.000814608,-0.00172494,0.380113,0.00149728,0.0249519,1140,1723,3.56681,-10.5158
-77,-699,3.55042,10.5652,0.000491358,-0.00114698,0.00088741,0.000879888,-0.00153551,0.412683,0.00141155,0.0171584,1147,1723,3.55045,-10.5652
-70,-699,3.53967,10.6494,0.000667106,-0.00083796,0.000788728,0.00100471,-0.00117556,0.404439,0.00126007,0.0170962,1154,1723,3.53963,-10.6494
-63,-699,3.54431,10.7192,0.000954671,-0.000843685,0.00070263,0.00119664,-0.00108565,0.331652,0.0013182,0.0137729,1161,1723,3.5443,-10.7192
-56,-699,3.54785,10.751,0.00127297,-0.00114858,0.000675691,0.00144875,-0.00132436,0.254507,0.00160159,0.00965657,1168,1723,3.54787,-10.751
-49,-699,3.57068,10.8181,0.00157707,-0.00156345,0.000383987,0.00162333,-0.00160972,0.119915,0.00186661,0.0199263,1175,1723,3.57063,-10.8181
-42,-699,3.57251,10.9244,0.0017641,-0.00219474,0.000298751,0.00178652,-0.00221715,0.0748991,0.00231597,0.0215401,1182,1723,3.57245,-10.9245
-35,-699,3.54138,10.9564,0.00261578,-0.00185306,-0.000564309,0.00268594,-0.00192322,-0.12369,0.00267321,0.0202054,1189,1723,3.54138,-10.9564
-28,-699,3.60217,10.9419,0.00481113,-0.00161979,-0.00232739,0.00556505,-0.00237371,-0.313265,0.00470527,0.0156579,1196,1723,3.60222,-10.9419
-21,-699,3.62036,10.9476,0.0073446,-0.00311836,-0.00353809,0.0084287,-0.00420245,-0.297324,0.00742742,0.0108971,1203,1723,3.62039,-10.9476
-14,-699,3.61487,10.9829,0.008479,-0.00410795,-0.0035534,0.00941287,-0.00504182,-0.256998,0.00847165,0.0103805,1210,1723,3.61489,-10.9829
-7,-699,3.61768,11.0314,0.00945984,-0.00479392,-0.00336844,0.0102158,-0.00554985,-0.22076,0.00923421,0.00845382,1217,1723,3.6177,-11.0314
0,-699,3.62891,11.0704,0.0102412,-0.00472621,-0.00304038,0.0108352,-0.00532024,-0.192948,0.0095068,0.00996103,1224,1723,3.62896,-11.0704
7,-699,3.63721,11.0983,0.0106865,-0.00420812,-0.00306166,0.0112913,-0.0048129,-0.195023,0.00954525,0.0147497,1231,1723,3.63719,-11.0982
14,-699,3.6604,11.1351,0.0108536,-0.00418113,-0.00298553,0.0114248,-0.00475229,-0.189024,0.009601,0.0159608,1238,1723,3.6604,-11.1351
21,-699,3.67334,11.1558,0.0106739,-0.00463139,-0.00272056,0.0111431,-0.0051006,-0.170785,0.00959218,0.0171459,1245,1723,3.67338,-11.1558
28,-699,3.68274,11.1644,0.0102487,-0.00520785,-0.00233402,0.0105934,-0.00555262,-0.14665,0.00947214,0.0169645,1252,1723,3.68278,-11.1644
35,-699,3.69373,11.2068,0.00937552,-0.00546893,-0.00231646,0.00972861,-0.00582201,-0.151259,0.0090721,0.0139821,1259,1723,3.69367,-11.2068
42,-699,3.70886,11.2319,0.00839322,-0.00568957,-0.00279865,0.008929,-0.00622536,-0.189156,0.00879567,0.0118772,1266,1723,3.70883,-11.2319
49,-699,3.73132,11.2466,0.00739755,-0.00582707,-0.00363901,0.00833276,-0.00676228,-0.251552,0.00873083,0.013491,1273,1723,3.73136,-11.2465
56,-699,3.74731,11.2422,0.00629685,-0.00628771,-0.00437454,0.00766808,-0.00765894,-0.303756,0.00884906,0.014591,1280,1723,3.74727,-11.2422
63,-699,3.76038,11.2461,0.00538596,-0.00656939,-0.00529663,0.00739495,-0.00857839,-0.362532,0.00923065,0.0122524,1287,1723,3.76039,-11.2461
70,-699,3.78882,11.2595,0.0044351,-0.00683786,-0.00613837,0.00713226,-0.00953501,-0.413998,0.00965613,0.0102889,1294,1723,3.78887,-11.2595
77,-699,3.78406,11.255,0.00335063,-0.00654496,-0.00696348,0.00694513,-0.0101395,-0.476517,0.00992109,0.0103706,1301,1723,3.7841,-11.255
84,-699,3.7666,11.2483,0.00242101,-0.00562669,-0.00802133,0.00737119,-0.0105769,-0.552917,0.0104173,0.0134588,1308,1723,3.76655,-11.2483
91,-699,3.76599,11.2607,0.00255803,-0.00485593,-0.00936698,0.00892488,-0.0112228,-0.59698,0.0116574,0.0129489,1315,1723,3.76603,-11.2607
98,-699,3.79602,11.2675,0.00259562,-0.00386136,-0.0101636,0.0100312,-0.0112969,-0.631613,0.012321,0.0116315,1322,1723,3.79602,-11.2675
105,-699,3.82227,11.2889,0.00262595,-0.00305646,-0.010484,0.0106469,-0.0110774,-0.653074,0.0125433,0.0166119,1329,1723,3.82221,-11.2889
112,-699,3.82629,11.2834,0.00281833,-0.00213892,-0.00978117,0.01043,-0.00975063,-0.661306,0.0116535,0.0226188,1336,1723,3.82635,-11.2834
119,-699,3.80566,11.2637,0.00287897,-0.000588805,-0.00905154,0.0103612,-0.00807102,-0.690766,0.0106692,0.0161123,1343,1723,3.80569,-11.2636
126,-699,3.83032,11.2351,0.00288166,0.000953922,-0.0084391,0.0104118,-0.00657617,-0.728537,0.00989096,0.0165289,1350,1723,3.8303,-11.2352
133,-699,3.86658,11.2206,0.00278489,0.00185827,-0.0077811,0.0101165,-0.0054733,-0.755662,0.00913285,0.0152011,1357,1723,3.86663,-11.2206
140,-699,3.88953,11.2117,0.00304055,0.00183474,-0.00653667,0.00900207,-0.00412677,-0.739411,0.00775219,0.0163724,1364,1723,3.88951,-11.2117
147,-699,3.87549,11.1956,0.00313419,0.00177905,-0.00501927,0.00752141,-0.00260817,-0.718307,0.00607331,0.0139572,1371,1723,3.87554,-11.1955
154,-699,3.86377,11.173,0.00303077,0.00190538,-0.0034725,0.00598587,-0.00104972,-0.705075,0.00438259,0.0139136,1378,1723,3.86373,-11.173
161,-699,3.90491,11.1406,0.00320892,0.00256169,-0.00265422,0.00555918,0.000211432,-0.724735,0.00363769,0.00978147,1385,1723,3.90488,-11.1406
168,-699,3.90979,11.1228,0.00234237,0.0024847,-0.00162843,0.00404352,0.000783546,-0.807235,0.00247617,0.010485,1392,1723,3.90974,-11.1228
175,-699,3.89417,11.0858,0.00147684,0.00200049,-0.000477509,0.00228324,0.00119408,-1.03617,0.0013187,0.0123598,1399,1723,3.89415,-11.0858
182,-699,3.93054,11.0669,0.000483439,0.00144609,0.00102342,0.00209572,-0.000166194,1.0052,0.00145571,0.0133406,1406,1723,3.93054,-11.0669
189,-699,3.92493,11.0461,-0.000182245,0.00126898,0.00138388,0.00210594,-0.00101921,1.02686,0.00184031,0.0152742,1413,1723,3.9249,-11.0461
196,-699,3.922,11.0237,-0.000824946,0.000717015,0.00168491,0.00179896,-0.00190689,0.999967,0.00213988,0.0147041,1420,1723,3.92199,-11.0237
203,-699,3.92322,10.9762,-0.00135951,0.000251948,0.00192319,0.00153137,-0.00263893,0.983768,0.00243586,0.0123936,1427,1723,3.92324,-10.9762
210,-699,3.92761,10.9105,-0.0017351,-0.000246832,0.00195506,0.00110092,-0.00308285,0.967243,0.00250422,0.0127197,1434,1723,3.92761,-10.9105
217,-699,3.9436,10.8569,-0.00194461,-0.000577614,0.00176804,0.000634447,-0.00315667,0.969843,0.00234472,0.0143372,1441,1723,3.94356,-10.857
224,-699,3.95178,10.8146,-0.00182918,-0.000690358,0.00152811,0.000370979,-0.00289052,0.963742,0.00206183,0.0156301,1448,1723,3.95176,-10.8146
231,-699,3.96826,10.7734,-0.00162818,-0.00083189,0.00115212,-1.10653e-05,-0.00244901,0.951763,0.001629,0.0115834,1455,1723,3.96827,-10.7735
238,-699,3.94727,10.709,-0.00133602,-0.000910624,0.000723495,-0.000369211,-0.00187744,0.928365,0.00114851,0.0101029,1462,1723,3.94721,-10.7089
245,-699,3.93884,10.6431,-0.00105346,-0.00092666,0.00029071,-0.000692516,-0.0012876,0.892759,0.000744106,0.0117534,1469,1723,3.93885,-10.643
252,-699,3.93262,10.5918,-0.000854175,-0.000884323,-9.65596e-05,-0.00077152,-0.000966978,-0.707967,0.000590385,0.0106256,1476,1723,3.93256,-10.5918
259,-699,3.94238,10.5397,-0.000686275,-0.000869748,-0.000412416,-0.000355516,-0.00120051,-0.675961,0.000712057,0.0109204,1483,1723,3.94243,-10.5396
266,-699,3.94885,10.4852,-0.00047306,-0.000762553,-0.000680688,7.81011e-05,-0.00131371,-0.680635,0.00090297,0.0125675,1490,1723,3.9489,-10.4852
273,-699,3.95801,10.3994,-5.56242e-05,-0.00045376,-0.00117188,0.000933979,-0.00144336,-0.701266,0.00138302,0.011465,1497,1723,3.95798,-10.3994
280,-699,3.97266,10.3141,0.000176476,-0.000127787,-0.00134778,0.00138068,-0.00133199,-0.729198,0.00156625,0.0122527,1504,1723,3.97265,-10.314
287,-699,3.96179,10.2471,0.000517331,-0.000189138,-0.00136859,0.00157754,-0.00124935,-0.659104,0.00163577,0.0111814,1511,1723,3.96182,-10.2471
294,-699,3.95935,10.1857,0.000874177,-0.000659314,-0.00147901,0.00177338,-0.00155851,-0.546262,0.001925,0.0106085,1518,1723,3.95937,-10.1856
301,-699,3.96997,10.1302,0.000702961,-0.00125112,-0.0016234,0.00162066,-0.00216882,-0.51451,0.00219547,0.011908,1525,1723,3.96999,-10.1302
308,-699,3.96814,10.0582,0.000588447,-0.00146982,-0.00141927,0.00131244,-0.00219381,-0.471707,0.00204554,0.0169628,1532,1723,3.96813,-10.0582
315,-699,3.979,9.95789,0.00120728,-0.00160305,-0.00110703,0.00159097,-0.00198674,-0.333638,0.0020698,0.0186374,1539,1723,3.97904,-9.95794
322,-699,3.94812,9.87024,0.0013277,-0.00194497,-0.00080407,0.00151458,-0.00213185,-0.228366,0.0021153,0.0182424,1546,1723,3.94812,-9.87019
329,-699,3.91968,9.77173,0.00138846,-0.00222136,-0.000388799,0.00142986,-0.00226276,-0.106085,0.00214994,0.0139902,1553,1723,3.91966,-9.77168
336,-699,3.92505,9.67993,0.00135484,-0.00213817,5.99881e-05,0.00135587,-0.0021392,0.017167,0.0020347,0.0129022,1560,1723,3.9251,-9.67988
343,-699,3.93982,9.59888,0.00125298,-0.0018443,0.000660412,0.00138792,-0.00197923,0.201548,0.00195399,0.0168264,1567,1723,3.93978,-9.5989
350,-699,3.854,9.48901,0.00136743,-0.00108923,0.00130662,0.00193243,-0.00165423,0.408136,0.00207284,0.0261194,1574,1723,3.85402,-9.48903
357,-699,3.49304,9.37878,0.0018597,7.71248e-05,0.00191685,0.00308235,-0.00114552,0.567779,0.00252489,0.0362367,1581,1723,3.493,-9.37881
364,-699,3.74023,9.31787,0.00285424,0.00157922,0.00226776,0.00457239,-0.000138936,0.648375,0.00309561,0.0418448,1588,1723,3.74029,-9.31793
371,-699,4.03491,9.20874,0,0,0,0,0,0,0,-1,1595,1723,4.03495,-9.20873
378,-699,3.88855,8.86804,0,0,0,0,0,0,0,-1,1602,1723,3.88852,-8.86804
385,-699,3.82727,8.74744,0,0,0,0,0,0,0,-1,1609,1723,3.8273,-8.74745
392,-699,3.52039,9.8374,0,0,0,0,0,0,0,-1,1616,1723,3.52036,-9.83746
399,-699,3.91516,9.81726,0,0,0,0,0,0,0,-1,1623,1723,3.9152,-9.81721
406,-699,3.91016,10.458,0,0,0,0,0,0,0,-1,1630,1723,3.91015,-10.458
413,-699,4.92773,3.5918,0,0,0,0,0,0,0,-1,1637,1723,4.92777,-3.59182
420,-699,2.15076,7.65527,0,0,0,0,0,0,0,-1,1644,1723,2.15079,-7.65522
427,-699,3.36328,8.2428,0,0,0,0,0,0,0,-1,1651,1723,3.36332,-8.24283
434,-699,4.66455,8.90222,0,0,0,0,0,0,0,-1,1658,1723,4.66456,-8.90223
441,-699,0,0,0,0,0,0,0,0,0,-1,1665,1723,0,0
448,-699,0,0,0,0,0,0,0,0,0,-1,1672,1723,0,0
455,-699,0,0,0,0,0,0,0,0,0,-1,1679,1723,0,0
462,-699,0,0,0,0,0,0,0,0,0,-1,1686,1723,0,0
469,-699,0,0,0,0,0,0,0,0,0,-1,1693,1723,0,0
476,-699,0,0,0,0,0,0,0,0,0,-1,1700,1723,0,0
483,-699,0,0,0,0,0,0,0,0,0,-1,1707,1723,0,0
490,-699,0,0,0,0,0,0,0,0,0,-1,1714,1723,0,0
497,-699,0,0,0,0,0,0,0,0,0,-1,1721,1723,0,0
504,-699,0,0,0,0,0,0,0,0,0,-1,1728,1723,0,0
511,-699,0,0,0,0,0,0,0,0,0,-1,1735,1723,0,0
518,-699,0,0,0,0,0,0,0,0,0,-1,1742,1723,0,0
525,-699,0,0,0,0,0,0,0,0,0,-1,1749,1723,0,0
532,-699,0,0,0,0,0,0,0,0,0,-1,1756,1723,0,0
539,-699,0,0,0,0,0,0,0,0,0,-1,1763,1723,0,0
546,-699,0,0,0,0,0,0,0,0,0,-1,1770,1723,0,0
553,-699,0,0,0,0,0,0,0,0,0,-1,1777,1723,0,0
560,-699,0,0,0,0,0,0,0,0,0,-1,1784,1723,0,0
567,-699,0,0,0,0,0,0,0,0,0,-1,1791,1723,0,0
574,-699,0,0,0,0,0,0,0,0,0,-1,1798,1723,0,0
581,-699,0,0,0,0,0,0,0,0,0,-1,1805,1723,0,0
588,-699,0,0,0,0,0,0,0,0,0,-1,1812,1723,0,0
595,-699,0,0,0,0,0,0,0,0,0,-1,1819,1723,0,0
602,-699,0,0,0,0,0,0,0,0,0,-1,1826,1723,0,0
609,-699,0,0,0,0,0,0,0,0,0,-1,1833,1723,0,0
616,-699,0,0,0,0,0,0,0,0,0,-1,1840,1723,0,0
623,-699,0,0,0,0,0,0,0,0,0,-1,1847,1723,0,0
630,-699,0,0,0,0,0,0,0,0,0,-1,1854,1723,0,0
637,-699,0,0,0,0,0,0,0,0,0,-1,1861,1723,0,0
644,-699,0,0,0,0,0,0,0,0,0,-1,1868,1723,0,0
651,-699,0,0,0,0,0,0,0,0,0,-1,1875,1723,0,0
658,-699,0,0,0,0,0,0,0,0,0,-1,1882,1723,0,0
665,-699,0,0,0,0,0,0,0,0,0,-1,1889,1723,0,0
672,-699,0,0,0,0,0,0,0,0,0,-1,1896,1723,0,0
679,-699,0,0,0,0,0,0,0,0,0,-1,1903,1723,0,0
686,-699,0,0,0,0,0,0,0,0,0,-1,1910,1723,0,0
693,-699,0,0,0,0,0,0,0,0,0,-1,1917,1723,0,0
700,-699,0,0,0,0,0,0,0,0,0,-1,1924,1723,0,0
707,-699,0,0,0,0,0,0,0,0,0,-1,1931,1723,0,0
714,-699,0,0,0,0,0,0,0,0,0,-1,1938,1723,0,0
721,-699,0,0,0,0,0,0,0,0,0,-1,1945,1723,0,0
728,-699,0,0,0,0,0,0,0,0,0,-1,1952,1723,0,0
735,-699,0,0,0,0,0,0,0,0,0,-1,1959,1723,0,0
742,-699,0,0,0,0,0,0,0,0,0,-1,1966,1723,0,0
749,-699,0,0,0,0,0,0,0,0,0,-1,1973,1723,0,0
756,-699,0,0,0,0,0,0,0,0,0,-1,1980,1723,0,0
763,-699,0,0,0,0,0,0,0,0,0,-1,1987,1723,0,0
770,-699,0,0,0,0,0,0,0,0,0,-1,1994,1723,0,0
777,-699,0,0,0,0,0,0,0,0,0,-1,2001,1723,0,0
784,-699,0,0,0,0,0,0,0,0,0,-1,2008,1723,0,0
791,-699,0,0,0,0,0,0,0,0,0,-1,2015,1723,0,0
798,-699,0,0,0,0,0,0,0,0,0,-1,2022,1723,0,0
805,-699,0,0,0,0,0,0,0,0,0,-1,2029,1723,0,0
812,-699,0,0,0,0,0,0,0,0,0,-1,2036,1723,0,0
-700,-706,0,0,0,0,0,0,0,0,0,-1,524,1730,0,0
-693,-706,0,0,0,0,0,0,0,0,0,-1,531,1730,0,0
-686,-706,0,0,0,0,0,0,0,0,0,-1,538,1730,0,0
-679,-706,0,0,0,0,0,0,0,0,0,-1,545,1730,0,0
-672,-706,0,0,0,0,0,0,0,0,0,-1,552,1730,0,0
-665,-706,0,0,0,0,0,0,0,0,0,-1,559,1730,0,0
-658,-706,0,0,0,0,0,0,0,0,0,-1,566,1730,0,0
-651,-706,0,0,0,0,0,0,0,0,0,-1,573,1730,0,0
-644,-706,0,0,0,0,0,0,0,0,0,-1,580,1730,0,0
-637,-706,0,0,0,0,0,0,0,0,0,-1,587,1730,0,0
-630,-706,0,0,0,0,0,0,0,0,0,-1,594,1730,0,0
-623,-706,0,0,0,0,0,0,0,0,0,-1,601,1730,0,0
-616,-706,0,0,0,0,0,0,0,0,0,-1,608,1730,0,0
-609,-706,0,0,0,0,0,0,0,0,0,-1,615,1730,0,0
-602,-706,0,0,0,0,0,0,0,0,0,-1,622,1730,0,0
-595,-706,0,0,0,0,0,0,0,0,0,-1,629,1730,0,0
-588,-706,0,0,0,0,0,0,0,0,0,-1,636,1730,0,0
-581,-706,0,0,0,0,0,0,0,0,0,-1,643,1730,0,0
-574,-706,0,0,0,0,0,0,0,0,0,-1,650,1730,0,0
-567,-706,0,0,0,0,0,0,0,0,0,-1,657,1730,0,0
-560,-706,0,0,0,0,0,0,0,0,0,-1,664,1730,0,0
-553,-706,0,0,0,0,0,0,0,0,0,-1,671,1730,0,0
-546,-706,0,0,0,0,0,0,0,0,0,-1,678,1730,0,0
-539,-706,0,0,0,0,0,0,0,0,0,-1,685,1730,0,0
-532,-706,0,0,0,0,0,0,0,0,0,-1,692,1730,0,0
-525,-706,0,0,0,0,0,0,0,0,0,-1,699,1730,0,0
-518,-706,0,0,0,0,0,0,0,0,0,-1,706,1730,0,0
-511,-706,0,0,0,0,0,0,0,0,0,-1,713,1730,0,0
-504,-706,0,0,0,0,0,0,0,0,0,-1,720,1730,0,0
-497,-706,0,0,0,0,0,0,0,0,0,-1,727,1730,0,0
-490,-706,0,0,0,0,0,0,0,0,0,-1,734,1730,0,0
-483,-706,0,0,0,0,0,0,0,0,0,-1,741,1730,0,0
-476,-706,0,0,0,0,0,0,0,0,0,-1,748,1730,0,0
-469,-706,0,0,0,0,0,0,0,0,0,-1,755,1730,0,0
-462,-706,0,0,0,0,0,0,0,0,0,-1,762,1730,0,0
-455,-706,0,0,0,0,0,0,0,0,0,-1,769,1730,0,0
-448,-706,0,0,0,0,0,0,0,0,0,-1,776,1730,0,0
-441,-706,0,0,0,0,0,0,0,0,0,-1,783,1730,0,0
-434,-706,0,0,0,0,0,0,0,0,0,-1,790,1730,0,0
-427,-706,0,0,0,0,0,0,0,0,0,-1,797,1730,0,0
-420,-706,0,0,0,0,0,0,0,0,0,-1,804,1730,0,0
-413,-706,0,0,0,0,0,0,0,0,0,-1,811,1730,0,0
-406,-706,0,0,0,0,0,0,0,0,0,-1,818,1730,0,0
-399,-706,0,0,0,0,0,0,0,0,0,-1,825,1730,0,0
-392,-706,0,0,0,0,0,0,0,0,0,-1,832,1730,0,0
-385,-706,0,0,0,0,0,0,0,0,0,-1,839,1730,0,0
-378,-706,0,0,0,0,0,0,0,0,0,-1,846,1730,0,0
-371,-706,0,0,0,0,0,0,0,0,0,-1,853,1730,0,0
-364,-706,0,0,0,0,0,0,0,0,0,-1,860,1730,0,0
-357,-706,0,0,0,0,0,0,0,0,0,-1,867,1730,0,0
-350,-706,0,0,0,0,0,0,0,0,0,-1,874,1730,0,0
-343,-706,0,0,0,0,0,0,0,0,0,-1,881,1730,0,0
-336,-706,0,0,0,0,0,0,0,0,0,-1,888,1730,0,0
-329,-706,0,0,0,0,0,0,0,0,0,-1,895,1730,0,0
-322,-706,0,0,0,0,0,0,0,0,0,-1,902,1730,0,0
-315,-706,0,0,0,0,0,0,0,0,0,-1,909,1730,0,0
-308,-706,1.51831,5.71399,0,0,0,0,0,0,0,-1,916,1730,1.51833,-5.71397
-301,-706,1.76807,5.80627,0,0,0,0,0,0,0,-1,923,1730,1.76804,-5.80621
-294,-706,4.53351,9.59802,0,0,0,0,0,0,0,-1,930,1730,4.53351,-9.59808
-287,-706,4.48505,8.58557,0,0,0,0,0,0,0,-1,937,1730,4.48503,-8.58561
-280,-706,4.98645,7.59802,0,0,0,0,0,0,0,-1,944,1730,4.98645,-7.59799
-273,-706,5.02936,8.01587,0,0,0,0,0,0,0,-1,951,1730,5.02934,-8.01581
-266,-706,5.3291,7.76172,0,0,0,0,0,0,0,-1,958,1730,5.3291,-7.7617
-259,-706,2.37415,11.0209,0,0,0,0,0,0,0,-1,965,1730,2.37413,-11.0208
-252,-706,3.05963,10.0499,0,0,0,0,0,0,0,-1,972,1730,3.05962,-10.05
-245,-706,3.63794,9.28613,0,0,0,0,0,0,0,-1,979,1730,3.63792,-9.28608
-238,-706,3.95563,8.72009,0,0,0,0,0,0,0,-1,986,1730,3.95564,-8.72012
-231,-706,3.84491,8.84949,0,0,0,0,0,0,0,-1,993,1730,3.84492,-8.84947
-224,-706,3.74036,8.94153,0.00999129,0.00461941,0.0107231,0.0183597,-0.00374898,0.662682,0.013662,0.0446815,1000,1730,3.74038,-8.94158
-217,-706,3.66876,9.05176,0.00834837,0.00461151,0.0111447,0.0177802,-0.00482029,0.702345,0.0137449,0.0387522,1007,1730,3.66877,-9.05177
-210,-706,3.66284,9.04065,0.00815313,0.00320148,0.0104098,0.0163774,-0.00502283,0.668649,0.0129222,0.0388749,1014,1730,3.66283,-9.04067
-203,-706,3.58386,9.12683,0.00796305,0.00188416,0.00942762,0.0148291,-0.00498186,0.62946,0.0118995,0.0325481,1021,1730,3.58389,-9.12689
-196,-706,3.61072,9.20435,0.00807931,0.00101023,0.00848695,0.0137383,-0.00464877,0.588087,0.0110397,0.0223872,1028,1730,3.61072,-9.20438
-189,-706,3.62646,9.29553,0.00727184,0.000243455,0.00700316,0.0115931,-0.00407778,0.552855,0.00938797,0.0175115,1035,1730,3.62645,-9.29558
-182,-706,3.60791,9.3877,0.00594009,0.000629463,0.00568741,0.0095615,-0.00299195,0.566999,0.00757134,0.012736,1042,1730,3.60795,-9.38774
-175,-706,3.59314,9.4696,0.00471718,0.00111418,0.00453382,0.0077943,-0.00196294,0.59629,0.00595927,0.0138933,1049,1730,3.59314,-9.46961
-168,-706,3.61389,9.56885,0.00362102,0.00161282,0.00336315,0.00612677,-0.000892923,0.640331,0.00441237,0.0149268,1056,1730,3.61395,-9.56884
-161,-706,3.6106,9.68542,0.00263246,0.00249219,0.00271571,0.00527895,-0.000154293,0.772488,0.00357184,0.0125479,1063,1730,3.61058,-9.68538
-154,-706,3.6084,9.78394,0.00195906,0.00288454,0.00219116,0.00466129,0.000182306,0.889461,0.00304858,0.0131061,1070,1730,3.6084,-9.78387
-147,-706,3.59485,9.85083,0.00129677,0.0030917,0.00169862,0.00411537,0.000273102,1.02843,0.00265723,0.0122169,1077,1730,3.59483,-9.85077
-140,-706,3.60583,9.93066,0.000749237,0.00302706,0.00124807,0.00357776,0.000198535,1.15525,0.00232183,0.0102733,1084,1730,3.6059,-9.93066
-133,-706,3.60596,10.0081,0.000509437,0.00281924,0.000903102,0.00313042,0.000198259,1.23897,0.0020241,0.00825644,1091,1730,3.60594,-10.0081
-126,-706,3.60608,10.0723,9.69853e-05,0.00248737,0.00043547,0.00256423,2.01246e-05,1.39609,0.00170282,0.0128871,1098,1730,3.60607,-10.0722
-119,-706,3.62244,10.1604,-0.000120424,0.00207512,0.00029506,0.00211408,-0.000159386,1.43951,0.00146541,0.0168381,1105,1730,3.62238,-10.1604
-112,-706,3.60461,10.27,-9.13257e-05,0.00161657,0.000228145,0.00164652,-0.000121277,1.44026,0.00114026,0.0119424,1112,1730,3.6046,-10.2701
-105,-706,3.59387,10.337,-4.5068e-05,0.0011418,0.000188575,0.00117104,-7.43092e-05,1.41696,0.000806607,0.0092644,1119,1730,3.59388,-10.337
-98,-706,3.61536,10.3954,-6.29047e-05,0.000673202,0.000195894,0.000722087,-0.00011179,1.32624,0.000522655,0.011405,1126,1730,3.61533,-10.3954
-91,-706,3.6283,10.4747,-0.000103667,0.000356194,0.000279548,0.000488224,-0.000235696,1.12956,0.000426348,0.0152083,1133,1730,3.62826,-10.4747
-84,-706,3.60498,10.5428,-0.000101002,0.000188812,0.000385498,0.000455739,-0.000367928,0.965176,0.000476445,0.017941,1140,1730,3.60494,-10.5428
-77,-706,3.60022,10.5734,4.81475e-05,0.00018867,0.000439103,0.000563098,-0.00032628,0.864731,0.000519515,0.0168583,1147,1730,3.60018,-10.5733
-70,-706,3.58105,10.6624,0.000269795,0.000288539,0.000426401,0.000705671,-0.000147337,0.796386,0.000526477,0.0185874,1154,1730,3.58102,-10.6623
-63,-706,3.5791,10.7122,0.000516867,0.000249329,0.000437979,0.000841049,-7.48533e-05,0.637186,0.000587243,0.0132542,1161,1730,3.57914,-10.7122
-56,-706,3.61328,10.7373,0.000788581,-1.88918e-05,0.000494227,0.00102302,-0.000253328,0.442916,0.000780284,0.0121069,1168,1730,3.61329,-10.7373
-49,-706,3.60352,10.8015,0.00100692,-0.00034463,0.000448469,0.00114219,-0.000479902,0.292952,0.000962183,0.012329,1175,1730,3.60346,-10.8015
-42,-706,3.60413,10.8868,0.00121323,-0.000729131,0.000436756,0.00130692,-0.00082282,0.211309,0.00124015,0.0164486,1182,1730,3.60416,-10.8869
-35,-706,3.61292,10.9175,0.00194463,-0.000508554,-5.47034e-05,0.00194585,-0.000509773,-0.0222842,0.00149639,0.0159486,1189,1730,3.61286,-10.9175
-28,-706,3.63513,10.9303,0.00343176,-0.000440387,-0.00111037,0.00372757,-0.000736197,-0.260359,0.00276333,0.0100185,1196,1730,3.63515,-10.9304
-21,-706,3.65869,10.9655,0.00521081,-0.00132561,-0.00191793,0.00573202,-0.00184681,-0.265345,0.00456327,0.00999862,1203,1730,3.65866,-10.9655
-14,-706,3.65991,10.9987,0.00612007,-0.00202007,-0.00202983,0.00659815,-0.00249815,-0.231312,0.00542667,0.00976991,1210,1730,3.65994,-10.9986
-7,-706,3.65125,11.0519,0.0069401,-0.00256529,-0.00206835,0.00737067,-0.00299586,-0.205237,0.00616021,0.00889526,1217,1730,3.65126,-11.0519
0,-706,3.66833,11.0994,0.0076356,-0.00258795,-0.00206782,0.008038,-0.00299035,-0.192199,0.00658578,0.0123945,1224,1730,3.66828,-11.0994
7,-706,3.67175,11.1162,0.00805726,-0.00227077,-0.00240457,0.00858965,-0.00280316,-0.217892,0.00685461,0.0133145,1231,1730,3.67175,-11.1162
14,-706,3.66382,11.1388,0.00826491,-0.00239921,-0.00272317,0.00892004,-0.00305435,-0.236092,0.00718459,0.0132632,1238,1730,3.66383,-11.1388
21,-706,3.67102,11.152,0.00816071,-0.00293095,-0.00282051,0.00883674,-0.00360698,-0.235245,0.00739285,0.0125744,1245,1730,3.67105,-11.152
28,-706,3.68237,11.1743,0.00785236,-0.00354785,-0.00280158,0.00850363,-0.00419913,-0.22841,0.00747298,0.0134365,1252,1730,3.68239,-11.1743
35,-706,3.70178,11.2146,0.00720106,-0.00390997,-0.00302537,0.00797142,-0.00468032,-0.249333,0.0073864,0.015004,1259,1730,3.70179,-11.2146
42,-706,3.71277,11.2427,0.00647137,-0.00421061,-0.0035837,0.00756226,-0.0053015,-0.295492,0.00746503,0.0126078,1266,1730,3.71271,-11.2427
49,-706,3.72583,11.2462,0.0057495,-0.0045479,-0.00426424,0.00728607,-0.00608447,-0.345855,0.00772987,0.013576,1273,1730,3.72585,-11.2462
56,-706,3.75598,11.2501,0.0049715,-0.00511074,-0.00480999,0.00689809,-0.00703732,-0.38097,0.00804575,0.0124101,1280,1730,3.75597,-11.2501
63,-706,3.76111,11.262,0.00428892,-0.00551713,-0.00537991,0.00666484,-0.00789305,-0.415871,0.00841497,0.0105578,1287,1730,3.76114,-11.262
70,-706,3.75806,11.2582,0.00354731,-0.00589888,-0.00581933,0.00631902,-0.0086706,-0.444505,0.00868969,0.0113795,1294,1730,3.75805,-11.2582
77,-706,3.75195,11.2577,0.00275927,-0.00578762,-0.00620113,0.00601685,-0.0090452,-0.483698,0.00875447,0.0106083,1301,1730,3.75197,-11.2577
84,-706,3.75684,11.2695,0.00210864,-0.00522871,-0.00667911,0.00606032,-0.00918038,-0.534255,0.00886047,0.00876993,1308,1730,3.75688,-11.2695
91,-706,3.78479,11.2969,0.0022589,-0.00463368,-0.00731645,0.00690009,-0.00927487,-0.565295,0.00937211,0.00988828,1315,1730,3.78477,-11.2968
98,-706,3.7926,11.3063,0.00230671,-0.00382251,-0.00754908,0.00738951,-0.00890532,-0.592582,0.00942138,0.0142979,1322,1730,3.79256,-11.3063
105,-706,3.82263,11.324,0.00232904,-0.00315264,-0.00746704,0.00754238,-0.00836598,-0.609503,0.00918879,0.0174739,1329,1730,3.82264,-11.3239
112,-706,3.79822,11.316,0.00246501,-0.00239539,-0.00668916,0.00715174,-0.00708212,-0.611159,0.00821795,0.0162024,1336,1730,3.79818,-11.316
119,-706,3.80273,11.3007,0.00249257,-0.00114981,-0.00597163,0.00691455,-0.00557178,-0.637391,0.00722287,0.0122379,1343,1730,3.80279,-11.3006
126,-706,3.82532,11.2726,0.0025048,8.376e-05,-0.00551664,0.00694217,-0.00435361,-0.677394,0.00657845,0.0128299,1350,1730,3.82531,-11.2726
133,-706,3.84497,11.2404,0.00241544,0.000818777,-0.00502097,0.00670115,-0.00346693,-0.706558,0.00596871,0.0117882,1357,1730,3.84498,-11.2404
140,-706,3.86389,11.2174,0.00254047,0.000890314,-0.00416416,0.0059605,-0.00252972,-0.687596,0.00503346,0.0118706,1364,1730,3.86389,-11.2175
147,-706,3.88538,11.1819,0.00252042,0.00091015,-0.00312779,0.00494504,-0.00151447,-0.659426,0.00390078,0.0207331,1371,1730,3.88533,-11.1819
154,-706,3.87012,11.1718,0.00231965,0.00118722,-0.00220671,0.00403163,-0.000524762,-0.659813,0.00287866,0.0193575,1378,1730,3.87017,-11.1717
161,-706,3.85718,11.1488,0.00227767,0.00166508,-0.0016989,0.00369767,0.000245086,-0.696212,0.00238761,0.00998353,1385,1730,3.85715,-11.1488
168,-706,3.86841,11.1069,0.00176181,0.0016887,-0.00105334,0.00277923,0.000671277,-0.768053,0.00167453,0.00961479,1392,1730,3.8684,-11.107
175,-706,3.86572,11.0806,0.00122558,0.00145837,-0.000349004,0.00170988,0.000974073,-0.946352,0.000990387,0.0102955,1399,1730,3.86572,-11.0805
182,-706,3.87915,11.0569,0.000612817,0.0012042,0.000501738,0.0014909,0.000326123,1.05167,0.000905026,0.010976,1406,1730,3.87918,-11.0568
189,-706,3.89172,11.0114,0.000193644,0.00111443,0.000687435,0.0014814,-0.000173325,1.08046,0.00105016,0.0129859,1413,1730,3.89171,-11.0114
196,-706,3.88208,10.986,-0.000204528,0.000749636,0.000817922,0.00121945,-0.000674338,1.04942,0.00110837,0.0107845,1420,1730,3.88202,-10.9859
203,-706,3.86572,10.9531,-0.000494923,0.000428965,0.000898931,0.000977699,-0.00104366,1.02274,0.00116724,0.0122155,1427,1730,3.86573,-10.9531
210,-706,3.87659,10.8904,-0.000686493,6.50272e-05,0.000821908,0.000592997,-0.00121446,0.999803,0.0010639,0.0119048,1434,1730,3.87665,-10.8904
217,-706,3.88354,10.8523,-0.000810064,-0.000235751,0.000565238,0.00011109,-0.00115691,1.02042,0.000810841,0.0129242,1441,1730,3.88352,-10.8523
224,-706,3.87903,10.8154,-0.000737249,-0.000443355,0.000279249,-0.00027475,-0.000905854,1.0276,0.000536315,0.0185913,1448,1730,3.87908,-10.8154
231,-706,3.89441,10.7551,-0.000657303,-0.000706735,-2.64445e-05,-0.000645823,-0.000718215,-0.409589,0.000456596,0.0139362,1455,1730,3.89439,-10.7551
238,-706,3.89075,10.6962,-0.000480467,-0.000866618,-0.000430022,-0.000202165,-0.00114492,-0.574392,0.000705613,0.00875336,1462,1730,3.89072,-10.6962
245,-706,3.89148,10.6398,-0.000349954,-0.000952515,-0.000835103,0.000236553,-0.00153902,-0.612279,0.00111327,0.0110578,1469,1730,3.89146,-10.6397
252,-706,3.89124,10.5891,-0.000324529,-0.000952544,-0.00116792,0.000570863,-0.00184794,-0.654074,0.00145993,0.0109943,1476,1730,3.89122,-10.5891
259,-706,3.89795,10.5187,-0.000294523,-0.00094591,-0.00140362,0.000820696,-0.00206113,-0.671397,0.00171443,0.0121687,1483,1730,3.89794,-10.5187
266,-706,3.89233,10.4722,-0.00011599,-0.00087715,-0.00159999,0.00114806,-0.0021412,-0.668636,0.0019277,0.0128719,1490,1730,3.89236,-10.4722
273,-706,3.89526,10.399,0.000334126,-0.000557773,-0.00213115,0.00206549,-0.00228913,-0.68226,0.00251525,0.01201,1497,1730,3.8952,-10.3991
280,-706,3.90625,10.3195,0.000571872,-0.000227217,-0.00226153,0.00246888,-0.00212422,-0.697965,0.00265432,0.0100857,1504,1730,3.90623,-10.3194
287,-706,3.88037,10.2462,0.0010176,-0.000346924,-0.00220375,0.00264228,-0.00197161,-0.635282,0.00267319,0.011125,1511,1730,3.88039,-10.2462
294,-706,3.89209,10.1906,0.00149305,-0.00100192,-0.00231755,0.00287753,-0.0023864,-0.538499,0.00304354,0.0106577,1518,1730,3.89206,-10.1905
301,-706,3.89771,10.1107,0.00129662,-0.00178383,-0.00246198,0.00266047,-0.00314769,-0.505882,0.00335727,0.009599,1525,1730,3.89776,-10.1107
308,-706,3.90735,10.022,0.00121557,-0.00211981,-0.00219831,0.00230719,-0.00321142,-0.4609,0.0032004,0.0114387,1532,1730,3.90732,-10.022
315,-706,3.91577,9.94397,0.00209065,-0.00237333,-0.00180454,0.00272888,-0.00301156,-0.339948,0.00331558,0.0177353,1539,1730,3.91578,-9.94401
322,-706,3.91907,9.86768,0.00235676,-0.00290984,-0.00142632,0.00271823,-0.00327131,-0.248204,0.00346298,0.0182987,1546,1730,3.91912,-9.86762
329,-706,3.88843,9.78271,0.00252255,-0.00341652,-0.000907661,0.00265817,-0.00355214,-0.14832,0.00359789,0.0165429,1553,1730,3.88848,-9.78271
336,-706,3.86401,9.68848,0.00250001,-0.00356427,-0.000359328,0.00252122,-0.00358549,-0.0589782,0.00354351,0.023407,1560,1730,3.86402,-9.68842
343,-706,3.83691,9.63464,0.00231015,-0.00343377,0.000477058,0.0023495,-0.00347312,0.082303,0.00338249,0.0315297,1567,1730,3.83692,-9.63463
350,-706,3.78174,9.66699,0.00241532,-0.00266217,0.0014268,0.00278879,-0.00303564,0.256009,0.00336374,0.0400449,1574,1730,3.7818,-9.66693
357,-706,2.88623,9.06494,0.00301974,-0.0012272,0.00235329,0.00406598,-0.00227345,0.418345,0.00370852,0.0439377,1581,1730,2.88619,-9.0649
364,-706,3.35474,9.0127,0.00424952,0.000757258,0.00299176,0.00596743,-0.000960652,0.521244,0.00433414,0.0492095,1588,1730,3.35479,-9.0127
371,-706,4.48926,8.93115,0,0,0,0,0,0,0,-1,1595,1730,4.48924,-8.93116
378,-706,5.38708,9.15186,0,0,0,0,0,0,0,-1,1602,1730,5.38711,-9.15187
385,-706,6.14478,9.57715,0,0,0,0,0,0,0,-1,1609,1730,6.14473,-9.57711
392,-706,6.88953,10.0787,0,0,0,0,0,0,0,-1,1616,1730,6.88957,-10.0788
399,-706,2.84668,8.81799,0,0,0,0,0,0,0,-1,1623,1730,2.84668,-8.81796
406,-706,2.85352,9.40063,0,0,0,0,0,0,0,-1,1630,1730,2.85346,-9.40059
413,-706,2.87476,10.0918,0,0,0,0,0,0,0,-1,1637,1730,2.87471,-10.0919
420,-706,5.7926,4.15125,0,0,0,0,0,0,0,-1,1644,1730,5.79255,-4.15128
427,-706,0,0,0,0,0,0,0,0,0,-1,1651,1730,0,0
434,-706,0,0,0,0,0,0,0,0,0,-1,1658,1730,0,0
441,-706,0,0,0,0,0,0,0,0,0,-1,1665,1730,0,0
448,-706,0,0,0,0,0,0,0,0,0,-1,1672,1730,0,0
455,-706,0,0,0,0,0,0,0,0,0,-1,1679,1730,0,0
462,-706,0,0,0,0,0,0,0,0,0,-1,1686,1730,0,0
469,-706,0,0,0,0,0,0,0,0,0,-1,1693,1730,0,0
476,-706,0,0,0,0,0,0,0,0,0,-1,1700,1730,0,0
483,-706,0,0,0,0,0,0,0,0,0,-1,1707,1730,0,0
490,-706,0,0,0,0,0,0,0,0,0,-1,1714,1730,0,0
497,-706,0,0,0,0,0,0,0,0,0,-1,1721,1730,0,0
504,-706,0,0,0,0,0,0,0,0,0,-1,1728,1730,0,0
511,-706,0,0,0,0,0,0,0,0,0,-1,1735,1730,0,0
518,-706,0,0,0,0,0,0,0,0,0,-1,1742,1730,0,0
525,-706,0,0,0,0,0,0,0,0,0,-1,1749,1730,0,0
532,-706,0,0,0,0,0,0,0,0,0,-1,1756,1730,0,0
539,-706,0,0,0,0,0,0,0,0,0,-1,1763,1730,0,0
546,-706,0,0,0,0,0,0,0,0,0,-1,1770,1730,0,0
553,-706,0,0,0,0,0,0,0,0,0,-1,1777,1730,0,0
560,-706,0,0,0,0,0,0,0,0,0,-1,1784,1730,0,0
567,-706,0,0,0,0,0,0,0,0,0,-1,1791,1730,0,0
574,-706,0,0,0,0,0,0,0,0,0,-1,1798,1730,0,0
581,-706,0,0,0,0,0,0,0,0,0,-1,1805,1730,0,0
588,-706,0,0,0,0,0,0,0,0,0,-1,1812,1730,0,0
595,-706,0,0,0,0,0,0,0,0,0,-1,1819,1730,0,0
602,-706,0,0,0,0,0,0,0,0,0,-1,1826,1730,0,0
609,-706,0,0,0,0,0,0,0,0,0,-1,1833,1730,0,0
616,-706,0,0,0,0,0,0,0,0,0,-1,1840,1730,0,0
623,-706,0,0,0,0,0,0,0,0,0,-1,1847,1730,0,0
630,-706,0,0,0,0,0,0,0,0,0,-1,1854,1730,0,0
637,-706,0,0,0,0,0,0,0,0,0,-1,1861,1730,0,0
644,-706,0,0,0,0,0,0,0,0,0,-1,1868,1730,0,0
651,-706,0,0,0,0,0,0,0,0,0,-1,1875,1730,0,0
658,-706,0,0,0,0,0,0,0,0,0,-1,1882,1730,0,0
665,-706,0,0,0,0,0,0,0,0,0,-1,1889,1730,0,0
672,-706,0,0,0,0,0,0,0,0,0,-1,1896,1730,0,0
679,-706,0,0,0,0,0,0,0,0,0,-1,1903,1730,0,0
686,-706,0,0,0,0,0,0,0,0,0,-1,1910,1730,0,0
693,-706,0,0,0,0,0,0,0,0,0,-1,1917,1730,0,0
700,-706,0,0,0,0,0,0,0,0,0,-1,1924,1730,0,0
707,-706,0,0,0,0,0,0,0,0,0,-1,1931,1730,0,0
714,-706,0,0,0,0,0,0,0,0,0,-1,1938,1730,0,0
721,-706,0,0,0,0,0,0,0,0,0,-1,1945,1730,0,0
728,-706,0,0,0,0,0,0,0,0,0,-1,1952,1730,0,0
735,-706,0,0,0,0,0,0,0,0,0,-1,1959,1730,0,0
742,-706,0,0,0,0,0,0,0,0,0,-1,1966,1730,0,0
749,-706,0,0,0,0,0,0,0,0,0,-1,1973,1730,0,0
756,-706,0,0,0,0,0,0,0,0,0,-1,1980,1730,0,0
763,-706,0,0,0,0,0,0,0,0,0,-1,1987,1730,0,0
770,-706,0,0,0,0,0,0,0,0,0,-1,1994,1730,0,0
777,-706,0,0,0,0,0,0,0,0,0,-1,2001,1730,0,0
784,-706,0,0,0,0,0,0,0,0,0,-1,2008,1730,0,0
791,-706,0,0,0,0,0,0,0,0,0,-1,2015,1730,0,0
798,-706,0,0,0,0,0,0,0,0,0,-1,2022,1730,0,0
805,-706,0,0,0,0,0,0,0,0,0,-1,2029,1730,0,0
812,-706,0,0,0,0,0,0,0,0,0,-1,2036,1730,0,0
-700,-713,0,0,0,0,0,0,0,0,0,-1,524,1737,0,0
-693,-713,0,0,0,0,0,0,0,0,0,-1,531,1737,0,0
-686,-713,0,0,0,0,0,0,0,0,0,-1,538,1737,0,0
-679,-713,0,0,0,0,0,0,0,0,0,-1,545,1737,0,0
-672,-713,0,0,0,0,0,0,0,0,0,-1,552,1737,0,0
-665,-713,0,0,0,0,0,0,0,0,0,-1,559,1737,0,0
-658,-713,0,0,0,0,0,0,0,0,0,-1,566,1737,0,0
-651,-713,0,0,0,0,0,0,0,0,0,-1,573,1737,0,0
-644,-713,0,0,0,0,0,0,0,0,0,-1,580,1737,0,0
-637,-713,0,0,0,0,0,0,0,0,0,-1,587,1737,0,0
-630,-713,0,0,0,0,0,0,0,0,0,-1,594,1737,0,0
-623,-713,0,0,0,0,0,0,0,0,0,-1,601,1737,0,0
-616,-713,0,0,0,0,0,0,0,0,0,-1,608,1737,0,0
-609,-713,0,0,0,0,0,0,0,0,0,-1,615,1737,0,0
-602,-713,0,0,0,0,0,0,0,0,0,-1,622,1737,0,0
-595,-713,0,0,0,0,0,0,0,0,0,-1,629,1737,0,0
-588,-713,0,0,0,0,0,0,0,0,0,-1,636,1737,0,0
-581,-713,0,0,0,0,0,0,0,0,0,-1,643,1737,0,0
-574,-713,0,0,0,0,0,0,0,0,0,-1,650,1737,0,0
-567,-713,0,0,0,0,0,0,0,0,0,-1,657,1737,0,0
-560,-713,0,0,0,0,0,0,0,0,0,-1,664,1737,0,0
-553,-713,0,0,0,0,0,0,0,0,0,-1,671,1737,0,0
-546,-713,0,0,0,0,0,0,0,0,0,-1,678,1737,0,0
-539,-713,0,0,0,0,0,0,0,0,0,-1,685,1737,0,0
-532,-713,0,0,0,0,0,0,0,0,0,-1,692,1737,0,0
-525,-713,0,0,0,0,0,0,0,0,0,-1,699,1737,0,0
-518,-713,0,0,0,0,0,0,0,0,0,-1,706,1737,0,0
-511,-713,0,0,0,0,0,0,0,0,0,-1,713,1737,0,0
-504,-713,0,0,0,0,0,0,0,0,0,-1,720,1737,0,0
-497,-713,0,0,0,0,0,0,0,0,0,-1,727,1737,0,0
-490,-713,0,0,0,0,0,0,0,0,0,-1,734,1737,0,0
-483,-713,0,0,0,0,0,0,0,0,0,-1,741,1737,0,0
-476,-713,0,0,0,0,0,0,0,0,0,-1,748,1737,0,0
-469,-713,0,0,0,0,0,0,0,0,0,-1,755,1737,0,0
-462,-713,0,0,0,0,0,0,0,0,0,-1,762,1737,0,0
-455,-713,0,0,0,0,0,0,0,0,0,-1,769,1737,0,0
-448,-713,0,0,0,0,0,0,0,0,0,-1,776,1737,0,0
-441,-713,0,0,0,0,0,0,0,0,0,-1,783,1737,0,0
-434,-713,0,0,0,0,0,0,0,0,0,-1,790,1737,0,0
-427,-713,0,0,0,0,0,0,0,0,0,-1,797,1737,0,0
-420,-713,0,0,0,0,0,0,0,0,0,-1,804,1737,0,0
-413,-713,0,0,0,0,0,0,0,0,0,-1,811,1737,0,0
-406,-713,0,0,0,0,0,0,0,0,0,-1,818,1737,0,0
-399,-713,0,0,0,0,0,0,0,0,0,-1,825,1737,0,0
-392,-713,0,0,0,0,0,0,0,0,0,-1,832,1737,0,0
-385,-713,0,0,0,0,0,0,0,0,0,-1,839,1737,0,0
-378,-713,0,0,0,0,0,0,0,0,0,-1,846,1737,0,0
-371,-713,0,0,0,0,0,0,0,0,0,-1,853,1737,0,0
-364,-713,0,0,0,0,0,0,0,0,0,-1,860,1737,0,0
-357,-713,0,0,0,0,0,0,0,0,0,-1,867,1737,0,0
-350,-713,0,0,0,0,0,0,0,0,0,-1,874,1737,0,0
-343,-713,0,0,0,0,0,0,0,0,0,-1,881,1737,0,0
-336,-713,0,0,0,0,0,0,0,0,0,-1,888,1737,0,0
-329,-713,0,0,0,0,0,0,0,0,0,-1,895,1737,0,0
-322,-713,0,0,0,0,0,0,0,0,0,-1,902,1737,0,0
-315,-713,0,0,0,0,0,0,0,0,0,-1,909,1737,0,0
-308,-713,0,0,0,0,0,0,0,0,0,-1,916,1737,0,0
-301,-713,0,0,0,0,0,0,0,0,0,-1,923,1737,0,0
-294,-713,1.52808,6.30286,0,0,0,0,0,0,0,-1,930,1737,1.5281,-6.30288
-287,-713,4.67902,8.8783,0,0,0,0,0,0,0,-1,937,1737,4.67903,-8.87835
-280,-713,4.65051,8.70508,0,0,0,0,0,0,0,-1,944,1737,4.65053,-8.70506
-273,-713,4.94794,8.16626,0,0,0,0,0,0,0,-1,951,1737,4.94794,-8.16627
-266,-713,5.24536,7.62744,0,0,0,0,0,0,0,-1,958,1737,5.24535,-7.62748
-259,-713,2.67322,10.5743,0,0,0,0,0,0,0,-1,965,1737,2.67324,-10.5743
-252,-713,3.55267,8.86694,0,0,0,0,0,0,0,-1,972,1737,3.55265,-8.86693
-245,-713,4.22144,8.90198,0,0,0,0,0,0,0,-1,979,1737,4.22145,-8.90194
-238,-713,4.34009,8.74182,0,0,0,0,0,0,0,-1,986,1737,4.34009,-8.74184
-231,-713,4.04175,8.2832,0,0,0,0,0,0,0,-1,993,1737,4.04174,-8.28314
-224,-713,3.94904,8.7373,0.0165585,0.00372487,0.016323,0.0276806,-0.0073973,0.59812,0.021351,0.0455636,1000,1737,3.94906,-8.73735
-217,-713,3.71637,9.29578,0.01403,0.00404072,0.0162999,0.0260834,-0.00801264,0.636729,0.0205863,0.0438866,1007,1737,3.71636,-9.2958
-210,-713,3.76392,9.08948,0,0,0,0,0,0,0,-1,1014,1737,3.76393,-9.08949
-203,-713,3.45728,9.07434,0.0126227,0.00136251,0.0131493,0.0212966,-0.00731134,0.583123,0.0171621,0.0474384,1021,1737,3.45724,-9.07429
-196,-713,3.67676,9.11267,0.012153,0.000599298,0.0115865,0.0193229,-0.00657062,0.554141,0.0155422,0.0443558,1028,1737,3.67675,-9.11264
-189,-713,3.70435,9.25244,0.0105964,0.000131004,0.00952949,0.0162353,-0.00550793,0.53432,0.0130528,0.0391892,1035,1737,3.70439,-9.25249
-182,-713,3.63123,9.44983,0.00844331,0.00106068,0.00778302,0.013366,-0.00386202,0.563968,0.0104389,0.0224386,1042,1737,3.63122,-9.44982
-175,-713,3.72571,9.46582,0.00651686,0.00198929,0.00632267,0.0109688,-0.00246265,0.613488,0.00825675,0.0208299,1049,1737,3.72573,-9.46585
-168,-713,3.76294,9.52905,0.00482724,0.00269752,0.0047185,0.00859954,-0.00107478,0.674419,0.00612281,0.0245814,1056,1737,3.76295,-9.52903
-161,-713,3.72192,9.6781,0.00332431,0.00390203,0.00376362,0.00738786,-0.00016152,0.823698,0.00497995,0.0128971,1063,1737,3.72196,-9.67812
-154,-713,3.70105,9.74854,0.00228712,0.00446957,0.00297058,0.00654301,0.000213678,0.961419,0.00429256,0.0116326,1070,1737,3.7011,-9.7485
-147,-713,3.6781,9.83728,0.00130729,0.00480994,0.0022681,0.00592417,0.000193061,1.11416,0.00388669,0.0180371,1077,1737,3.67812,-9.8373
-140,-713,3.70117,9.93091,0.000464018,0.00479231,0.00158186,0.0053088,-5.24737e-05,1.2552,0.00355682,0.0162365,1084,1737,3.70122,-9.93087
-133,-713,3.69775,10.0011,6.23912e-05,0.00469276,0.00106927,0.00492776,-0.000172606,1.35446,0.00334419,0.0102557,1091,1737,3.69775,-10.0011
-126,-713,3.68579,10.0726,-0.00054088,0.00440442,0.000367501,0.00443158,-0.000568041,1.49702,0.00316079,0.0163651,1098,1737,3.68573,-10.0726
-119,-713,3.69116,10.1412,-0.000845245,0.00395757,7.77939e-05,0.00395883,-0.000846504,1.5546,0.00296199,0.0258414,1105,1737,3.69112,-10.1412
-112,-713,3.68103,10.267,-0.000816328,0.00344669,-0.000109036,0.00344948,-0.000819115,-1.54524,0.0026158,0.0131472,1112,1737,3.68105,-10.267
-105,-713,3.68433,10.3385,-0.000757827,0.00288028,-0.000259169,0.00289865,-0.000776197,-1.50004,0.00223652,0.0107036,1119,1737,3.68428,-10.3386
-98,-713,3.68774,10.3954,-0.000768355,0.00232832,-0.000342186,0.00236569,-0.000805716,-1.46204,0.00190341,0.01029,1126,1737,3.68779,-10.3954
-91,-713,3.67554,10.4532,-0.000787424,0.00189653,-0.000318978,0.00193392,-0.000824813,-1.45412,0.0016351,0.0103061,1133,1737,3.67559,-10.4532
-84,-713,3.65784,10.5131,-0.000726854,0.00157572,-0.000242845,0.00160105,-0.000752187,-1.46685,0.0013878,0.00947682,1140,1737,3.65783,-10.5131
-77,-713,3.66187,10.5861,-0.000504988,0.0012764,-0.000200042,0.00129859,-0.000527176,-1.46033,0.00108502,0.0124826,1147,1737,3.66191,-10.5861
-70,-713,3.6499,10.6549,-0.00026885,0.00111126,-0.000185085,0.00113565,-0.00029324,-1.43977,0.000871452,0.0146225,1154,1737,3.64989,-10.6548
-63,-713,3.66016,10.6958,-1.06024e-05,0.000904968,-7.00805e-05,0.000910301,-1.59355e-05,-1.49484,0.000612248,0.0125837,1161,1737,3.66013,-10.6959
-56,-713,3.67346,10.7529,0.000279291,0.000586982,0.000137907,0.000639744,0.000226529,1.20539,0.000374562,0.0122252,1168,1737,3.67342,-10.7529
-49,-713,3.64783,10.8047,0.000572459,0.000247088,0.00029732,0.000748692,7.08552e-05,0.535063,0.000477266,0.0139683,1175,1737,3.64779,-10.8046
-42,-713,3.65979,10.8438,0.000866786,-2.79732e-05,0.000361356,0.000994495,-0.000155682,0.339714,0.000720519,0.0161495,1182,1737,3.65982,-10.8437
-35,-713,3.68005,10.8768,0.00147961,6.59432e-05,0.000200857,0.00150759,3.79589e-05,0.138434,0.000992649,0.013951,1189,1737,3.68006,-10.8768
-28,-713,3.6792,10.9303,0.00240263,2.46934e-05,-0.000299411,0.00243975,-1.24269e-05,-0.123348,0.00163065,0.0118859,1196,1737,3.67916,-10.9304
-21,-713,3.69373,10.9688,0.00355273,-0.000568903,-0.000710934,0.00367192,-0.000688085,-0.166096,0.00270662,0.00856375,1203,1737,3.69368,-10.9688
-14,-713,3.69324,11.0023,0.00429324,-0.00112829,-0.000826208,0.00441635,-0.0012514,-0.147922,0.00343814,0.00984779,1210,1737,3.69323,-11.0024
-7,-713,3.69604,11.0616,0.00498621,-0.00155242,-0.000942132,0.00511925,-0.00168547,-0.140286,0.00409204,0.00986108,1217,1737,3.69606,-11.0616
0,-713,3.69653,11.1005,0.00560434,-0.00163445,-0.0010896,0.00576479,-0.0017949,-0.146207,0.00456078,0.014709,1224,1737,3.6965,-11.1004
7,-713,3.70117,11.1168,0.00598054,-0.00144234,-0.0014625,0.00625829,-0.0017201,-0.187684,0.00484836,0.0176018,1231,1737,3.70119,-11.1168
14,-713,3.71387,11.134,0.00616356,-0.0015855,-0.00185069,0.00658287,-0.00200481,-0.222806,0.00518763,0.0128926,1238,1737,3.71387,-11.1341
21,-713,3.71265,11.167,0.00608574,-0.00205478,-0.00208429,0.00658836,-0.0025574,-0.236632,0.00544859,0.0105906,1245,1737,3.71263,-11.167
28,-713,3.6958,11.1925,0.00583423,-0.00257413,-0.00222642,0.00638737,-0.00312727,-0.243512,0.00559973,0.0113804,1252,1737,3.6958,-11.1925
35,-713,3.70142,11.2203,0.00534174,-0.00293059,-0.00248329,0.00602995,-0.0036188,-0.270351,0.00562839,0.0114922,1259,1737,3.70141,-11.2203
42,-713,3.72266,11.2477,0.0047897,-0.00318646,-0.00295606,0.0057658,-0.00416256,-0.31893,0.005757,0.0112511,1266,1737,3.72261,-11.2477
49,-713,3.74048,11.236,0.00428508,-0.00356819,-0.00346245,0.00559361,-0.00487673,-0.36133,0.00604977,0.0107617,1273,1737,3.74046,-11.236
56,-713,3.74597,11.2404,0.00376594,-0.0041026,-0.00382983,0.00532221,-0.00565887,-0.385974,0.00634093,0.0110057,1280,1737,3.74598,-11.2404
63,-713,3.7395,11.2716,0.00329046,-0.00452207,-0.00413658,0.00507368,-0.00630528,-0.407013,0.00658246,0.0115994,1287,1737,3.73956,-11.2716
70,-713,3.74219,11.2744,0.00278203,-0.00490949,-0.00432382,0.00472292,-0.00685038,-0.421925,0.00671937,0.0115958,1294,1737,3.74215,-11.2744
77,-713,3.74707,11.2742,0.0022662,-0.00492573,-0.00449982,0.00443039,-0.00708991,-0.448291,0.00671007,0.0118283,1301,1737,3.74705,-11.2742
84,-713,3.7677,11.2897,0.00185113,-0.00452833,-0.00475187,0.00438457,-0.00706177,-0.489811,0.00666852,0.011297,1308,1737,3.76772,-11.2897
91,-713,3.776,11.3066,0.00198479,-0.00398226,-0.00505207,0.00486853,-0.006866,-0.518675,0.00680758,0.0117002,1315,1737,3.77604,-11.3066
98,-713,3.78308,11.2908,0.00204182,-0.00326339,-0.0050815,0.00512139,-0.00634297,-0.544847,0.00663147,0.0122456,1322,1737,3.7831,-11.2907
105,-713,3.79236,11.2986,0.00205669,-0.00264513,-0.00491776,0.00515657,-0.00574501,-0.562433,0.00629709,0.0143956,1329,1737,3.7923,-11.2986
112,-713,3.79614,11.3076,0.00214764,-0.00196951,-0.00436426,0.00491447,-0.00473634,-0.565027,0.00557221,0.0141061,1336,1737,3.79609,-11.3077
119,-713,3.79932,11.2906,0.00215019,-0.000921478,-0.00388305,0.0047901,-0.00356139,-0.597078,0.0048391,0.0134596,1343,1737,3.79932,-11.2906
126,-713,3.80664,11.2897,0.00215669,0.000126988,-0.00359014,0.00487267,-0.00258899,-0.647653,0.00437472,0.012634,1350,1737,3.80669,-11.2897
133,-713,3.80237,11.2516,0.0020693,0.000775301,-0.00323777,0.00472408,-0.00187948,-0.686783,0.00392871,0.0118195,1357,1737,3.80237,-11.2516
140,-713,3.80493,11.2321,0.00210233,0.00096849,-0.00269639,0.00429075,-0.00121993,-0.681782,0.0033422,0.0132526,1364,1737,3.80499,-11.232
147,-713,3.81604,11.2137,0.00201605,0.00104127,-0.00202681,0.00361325,-0.000555929,-0.667402,0.00261392,0.0143697,1371,1737,3.81603,-11.2137
154,-713,3.79407,11.1949,0.00177818,0.00129324,-0.00146207,0.00301775,5.36694e-05,-0.703225,0.00199418,0.0140831,1378,1737,3.79412,-11.195
161,-713,3.81946,11.1583,0.00163266,0.00158896,-0.00113921,0.00275023,0.000471394,-0.77581,0.00169831,0.0100392,1385,1737,3.8194,-11.1583
168,-713,3.8335,11.1062,0.00135845,0.00160715,-0.000760282,0.00225318,0.000712414,-0.866458,0.00132986,0.00960013,1392,1737,3.83355,-11.1063
175,-713,3.84314,11.0652,0.00106681,0.00146556,-0.000406165,0.00171864,0.000813727,-1.01355,0.000992725,0.0133071,1399,1737,3.84315,-11.0651
182,-713,3.83606,11.048,0.000751387,0.00132726,-4.00559e-05,0.00133003,0.000748614,-1.50168,0.000769913,0.011908,1406,1737,3.83603,-11.048
189,-713,3.84766,10.9968,0.000552883,0.00117928,2.29018e-05,0.00118011,0.000552046,1.5343,0.00068181,0.0107443,1413,1737,3.8476,-10.9969
196,-713,3.84607,10.9694,0.000357303,0.000794615,-6.51558e-06,0.000794712,0.000357206,-1.5559,0.000459607,0.0116674,1420,1737,3.84613,-10.9694
203,-713,3.81592,10.949,0.000268997,0.000476768,-9.33033e-05,0.000512516,0.000233249,-1.2049,0.000296299,0.0158972,1427,1737,3.81589,-10.949
210,-713,3.83655,10.8818,0.000258973,0.000206756,-0.00028761,0.000521657,-5.59284e-05,-0.740133,0.000367834,0.0126999,1434,1737,3.8365,-10.8819
217,-713,3.85205,10.8457,0.000229229,-9.13626e-05,-0.000637811,0.000726579,-0.000588713,-0.662287,0.000760773,0.010143,1441,1737,3.8521,-10.8457
224,-713,3.84644,10.8026,0.000270453,-0.000384817,-0.000994854,0.000990233,-0.0011046,-0.626327,0.00121005,0.0117709,1448,1737,3.84644,-10.8026
231,-713,3.849,10.7527,0.000280542,-0.000740598,-0.0013027,0.00116916,-0.00162921,-0.598633,0.0016229,0.0110036,1455,1737,3.84898,-10.7527
238,-713,3.8446,10.6864,0.000397214,-0.000965667,-0.00174348,0.00158769,-0.00215615,-0.599101,0.0021698,0.00810766,1462,1737,3.84465,-10.6864
245,-713,3.85889,10.6512,0.000408513,-0.00110686,-0.00217711,0.00195602,-0.00265436,-0.617942,0.00267196,0.0105144,1469,1737,3.85887,-10.6512
252,-713,3.86121,10.5975,0.000266805,-0.00115143,-0.0025027,0.00215891,-0.00304353,-0.647346,0.00301807,0.0108054,1476,1737,3.86116,-10.5975
259,-713,3.85864,10.514,0.000146168,-0.00115128,-0.00269631,0.0022707,-0.0032758,-0.667344,0.00321975,0.011011,1483,1737,3.8586,-10.514
266,-713,3.83716,10.4695,0.000273296,-0.0011087,-0.0028496,0.00251448,-0.00334989,-0.666449,0.00339723,0.0109986,1490,1737,3.83716,-10.4695
273,-713,3.83386,10.4102,0.000756841,-0.000758647,-0.00346559,0.00354656,-0.00354836,-0.677768,0.00409625,0.00938172,1497,1737,3.83384,-10.4101
280,-713,3.82092,10.3348,0.000985665,-0.000401212,-0.00356448,0.00392353,-0.00333908,-0.689328,0.0041976,0.00968533,1504,1737,3.82092,-10.3348
287,-713,3.80823,10.2423,0.00154269,-0.000571621,-0.00342396,0.00406898,-0.00309791,-0.635664,0.00415045,0.0106826,1511,1737,3.80822,-10.2423
294,-713,3.8241,10.1726,0.00217774,-0.00143587,-0.00354393,0.00434887,-0.003607,-0.549657,0.00459998,0.0142733,1518,1737,3.82407,-10.1726
301,-713,3.79565,10.0717,0.00201588,-0.0024495,-0.00367515,0.00408338,-0.004517,-0.512437,0.00496754,0.0151313,1525,1737,3.79563,-10.0716
308,-713,3.78699,9.98047,0.00204863,-0.00297658,-0.00334733,0.00372146,-0.00464941,-0.463446,0.00484281,0.0177702,1532,1737,3.78702,-9.98048
315,-713,3.84778,9.95337,0.00330665,-0.00341798,-0.00286984,0.00436487,-0.0044762,-0.35327,0.00510453,0.0248468,1539,1737,3.84783,-9.95339
322,-713,3.86011,9.83582,0.00386992,-0.00423644,-0.00241023,0.0045324,-0.00489892,-0.268239,0.00544655,0.0315736,1546,1737,3.86007,-9.83578
329,-713,3.83411,9.73999,0.00433662,-0.00517165,-0.00175902,0.0046516,-0.00548664,-0.177189,0.00585993,0.0388443,1553,1737,3.83414,-9.73993
336,-713,3.69141,10.0811,0.0044322,-0.005717,-0.00112162,0.00455468,-0.00583947,-0.108764,0.00601633,0.0420753,1560,1737,3.69141,-10.0811
343,-713,3.87732,10.286,0.00413556,-0.0059189,-1.62026e-05,0.00413559,-0.00591892,-0.00161147,0.00583533,0.0470309,1567,1737,3.87732,-10.286
350,-713,3.56836,9.92175,0.00420049,-0.00526397,0.00130375,0.0043768,-0.00544027,0.134417,0.00567896,0.0488134,1574,1737,3.56832,-9.92175
357,-713,4.67456,10.1205,0,0,0,0,0,0,0,-1,1581,1737,4.67452,-10.1205
364,-713,2.91858,8.64612,0,0,0,0,0,0,0,-1,1588,1737,2.91862,-8.64608
371,-713,4.02344,8.36243,0,0,0,0,0,0,0,-1,1595,1737,4.02343,-8.36246
378,-713,4.81311,8.66296,0,0,0,0,0,0,0,-1,1602,1737,4.81316,-8.66291
385,-713,5.60291,9.0282,0,0,0,0,0,0,0,-1,1609,1737,5.60293,-9.02823
392,-713,1.27368,8.29321,0,0,0,0,0,0,0,-1,1616,1737,1.27368,-8.29317
399,-713,1.02551,8.88037,0,0,0,0,0,0,0,-1,1623,1737,1.02556,-8.88039
406,-713,1.65259,8.20483,0,0,0,0,0,0,0,-1,1630,1737,1.65258,-8.20488
413,-713,1.80371,8.875,0,0,0,0,0,0,0,-1,1637,1737,1.80372,-8.87503
420,-713,0,0,0,0,0,0,0,0,0,-1,1644,1737,0,0
427,-713,0,0,0,0,0,0,0,0,0,-1,1651,1737,0,0
434,-713,0,0,0,0,0,0,0,0,0,-1,1658,1737,0,0
441,-713,0,0,0,0,0,0,0,0,0,-1,1665,1737,0,0
448,-713,0,0,0,0,0,0,0,0,0,-1,1672,1737,0,0
455,-713,0,0,0,0,0,0,0,0,0,-1,1679,1737,0,0
462,-713,0,0,0,0,0,0,0,0,0,-1,1686,1737,0,0
469,-713,0,0,0,0,0,0,0,0,0,-1,1693,1737,0,0
476,-713,0,0,0,0,0,0,0,0,0,-1,1700,1737,0,0
483,-713,0,0,0,0,0,0,0,0,0,-1,1707,1737,0,0
490,-713,0,0,0,0,0,0,0,0,0,-1,1714,1737,0,0
497,-713,0,0,0,0,0,0,0,0,0,-1,1721,1737,0,0
504,-713,0,0,0,0,0,0,0,0,0,-1,1728,1737,0,0
511,-713,0,0,0,0,0,0,0,0,0,-1,1735,1737,0,0
518,-713,0,0,0,0,0,0,0,0,0,-1,1742,1737,0,0
525,-713,0,0,0,0,0,0,0,0,0,-1,1749,1737,0,0
532,-713,0,0,0,0,0,0,0,0,0,-1,1756,1737,0,0
539,-713,0,0,0,0,0,0,0,0,0,-1,1763,1737,0,0
546,-713,0,0,0,0,0,0,0,0,0,-1,1770,1737,0,0
553,-713,0,0,0,0,0,0,0,0,0,-1,1777,1737,0,0
560,-713,0,0,0,0,0,0,0,0,0,-1,1784,1737,0,0
567,-713,0,0,0,0,0,0,0,0,0,-1,1791,1737,0,0
574,-713,0,0,0,0,0,0,0,0,0,-1,1798,1737,0,0
581,-713,0,0,0,0,0,0,0,0,0,-1,1805,1737,0,0
588,-713,0,0,0,0,0,0,0,0,0,-1,1812,1737,0,0
595,-713,0,0,0,0,0,0,0,0,0,-1,1819,1737,0,0
602,-713,0,0,0,0,0,0,0,0,0,-1,1826,1737,0,0
609,-713,0,0,0,0,0,0,0,0,0,-1,1833,1737,0,0
616,-713,0,0,0,0,0,0,0,0,0,-1,1840,1737,0,0
623,-713,0,0,0,0,0,0,0,0,0,-1,1847,1737,0,0
630,-713,0,0,0,0,0,0,0,0,0,-1,1854,1737,0,0
637,-713,0,0,0,0,0,0,0,0,0,-1,1861,1737,0,0
644,-713,0,0,0,0,0,0,0,0,0,-1,1868,1737,0,0
651,-713,0,0,0,0,0,0,0,0,0,-1,1875,1737,0,0
658,-713,0,0,0,0,0,0,0,0,0,-1,1882,1737,0,0
665,-713,0,0,0,0,0,0,0,0,0,-1,1889,1737,0,0
672,-713,0,0,0,0,0,0,0,0,0,-1,1896,1737,0,0
679,-713,0,0,0,0,0,0,0,0,0,-1,1903,1737,0,0
686,-713,0,0,0,0,0,0,0,0,0,-1,1910,1737,0,0
693,-713,0,0,0,0,0,0,0,0,0,-1,1917,1737,0,0
700,-713,0,0,0,0,0,0,0,0,0,-1,1924,1737,0,0
707,-713,0,0,0,0,0,0,0,0,0,-1,1931,1737,0,0
714,-713,0,0,0,0,0,0,0,0,0,-1,1938,1737,0,0
721,-713,0,0,0,0,0,0,0,0,0,-1,1945,1737,0,0
728,-713,0,0,0,0,0,0,0,0,0,-1,1952,1737,0,0
735,-713,0,0,0,0,0,0,0,0,0,-1,1959,1737,0,0
742,-713,0,0,0,0,0,0,0,0,0,-1,1966,1737,0,0
749,-713,0,0,0,0,0,0,0,0,0,-1,1973,1737,0,0
756,-713,0,0,0,0,0,0,0,0,0,-1,1980,1737,0,0
763,-713,0,0,0,0,0,0,0,0,0,-1,1987,1737,0,0
770,-713,0,0,0,0,0,0,0,0,0,-1,1994,1737,0,0
777,-713,0,0,0,0,0,0,0,0,0,-1,2001,1737,0,0
784,-713,0,0,0,0,0,0,0,0,0,-1,2008,1737,0,0
791,-713,0,0,0,0,0,0,0,0,0,-1,2015,1737,0,0
798,-713,0,0,0,0,0,0,0,0,0,-1,2022,1737,0,0
805,-713,0,0,0,0,0,0,0,0,0,-1,2029,1737,0,0
812,-713,0,0,0,0,0,0,0,0,0,-1,2036,1737,0,0
-700,-720,0,0,0,0,0,0,0,0,0,-1,524,1744,0,0
-693,-720,0,0,0,0,0,0,0,0,0,-1,531,1744,0,0
-686,-720,0,0,0,0,0,0,0,0,0,-1,538,1744,0,0
-679,-720,0,0,0,0,0,0,0,0,0,-1,545,1744,0,0
-672,-720,0,0,0,0,0,0,0,0,0,-1,552,1744,0,0
-665,-720,0,0,0,0,0,0,0,0,0,-1,559,1744,0,0
-658,-720,0,0,0,0,0,0,0,0,0,-1,566,1744,0,0
-651,-720,0,0,0,0,0,0,0,0,0,-1,573,1744,0,0
-644,-720,0,0,0,0,0,0,0,0,0,-1,580,1744,0,0
-637,-720,0,0,0,0,0,0,0,0,0,-1,587,1744,0,0
-630,-720,0,0,0,0,0,0,0,0,0,-1,594,1744,0,0
-623,-720,0,0,0,0,0,0,0,0,0,-1,601,1744,0,0
-616,-720,0,0,0,0,0,0,0,0,0,-1,608,1744,0,0
-609,-720,0,0,0,0,0,0,0,0,0,-1,615,1744,0,0
-602,-720,0,0,0,0,0,0,0,0,0,-1,622,1744,0,0
-595,-720,0,0,0,0,0,0,0,0,0,-1,629,1744,0,0
-588,-720,0,0,0,0,0,0,0,0,0,-1,636,1744,0,0
-581,-720,0,0,0,0,0,0,0,0,0,-1,643,1744,0,0
-574,-720,0,0,0,0,0,0,0,0,0,-1,650,1744,0,0
-567,-720,0,0,0,0,0,0,0,0,0,-1,657,1744,0,0
-560,-720,0,0,0,0,0,0,0,0,0,-1,664,1744,0,0
-553,-720,0,0,0,0,0,0,0,0,0,-1,671,1744,0,0
-546,-720,0,0,0,0,0,0,0,0,0,-1,678,1744,0,0
-539,-720,0,0,0,0,0,0,0,0,0,-1,685,1744,0,0
-532,-720,0,0,0,0,0,0,0,0,0,-1,692,1744,0,0
-525,-720,0,0,0,0,0,0,0,0,0,-1,699,1744,0,0
-518,-720,0,0,0,0,0,0,0,0,0,-1,706,1744,0,0
-511,-720,0,0,0,0,0,0,0,0,0,-1,713,1744,0,0
-504,-720,0,0,0,0,0,0,0,0,0,-1,720,1744,0,0
-497,-720,0,0,0,0,0,0,0,0,0,-1,727,1744,0,0
-490,-720,0,0,0,0,0,0,0,0,0,-1,734,1744,0,0
-483,-720,0,0,0,0,0,0,0,0,0,-1,741,1744,0,0
-476,-720,0,0,0,0,0,0,0,0,0,-1,748,1744,0,0
-469,-720,0,0,0,0,0,0,0,0,0,-1,755,1744,0,0
-462,-720,0,0,0,0,0,0,0,0,0,-1,762,1744,0,0
-455,-720,0,0,0,0,0,0,0,0,0,-1,769,1744,0,0
-448,-720,0,0,0,0,0,0,0,0,0,-1,776,1744,0,0
-441,-720,0,0,0,0,0,0,0,0,0,-1,783,1744,0,0
-434,-720,0,0,0,0,0,0,0,0,0,-1,790,1744,0,0
-427,-720,0,0,0,0,0,0,0,0,0,-1,797,1744,0,0
-420,-720,0,0,0,0,0,0,0,0,0,-1,804,1744,0,0
-413,-720,0,0,0,0,0,0,0,0,0,-1,811,1744,0,0
-406,-720,0,0,0,0,0,0,0,0,0,-1,818,1744,0,0
-399,-720,0,0,0,0,0,0,0,0,0,-1,825,1744,0,0
-392,-720,0,0,0,0,0,0,0,0,0,-1,832,1744,0,0
-385,-720,0,0,0,0,0,0,0,0,0,-1,839,1744,0,0
-378,-720,0,0,0,0,0,0,0,0,0,-1,846,1744,0,0
-371,-720,0,0,0,0,0,0,0,0,0,-1,853,1744,0,0
-364,-720,0,0,0,0,0,0,0,0,0,-1,860,1744,0,0
-357,-720,0,0,0,0,0,0,0,0,0,-1,867,1744,0,0
-350,-720,0,0,0,0,0,0,0,0,0,-1,874,1744,0,0
-343,-720,0,0,0,0,0,0,0,0,0,-1,881,1744,0,0
-336,-720,0,0,0,0,0,0,0,0,0,-1,888,1744,0,0
-329,-720,0,0,0,0,0,0,0,0,0,-1,895,1744,0,0
-322,-720,0,0,0,0,0,0,0,0,0,-1,902,1744,0,0
-315,-720,0,0,0,0,0,0,0,0,0,-1,909,1744,0,0
-308,-720,0,0,0,0,0,0,0,0,0,-1,916,1744,0,0
-301,-720,0,0,0,0,0,0,0,0,0,-1,923,1744,0,0
-294,-720,0,0,0,0,0,0,0,0,0,-1,930,1744,0,0
-287,-720,0,0,0,0,0,0,0,0,0,-1,937,1744,0,0
-280,-720,2.31964,5.77417,0,0,0,0,0,0,0,-1,944,1744,2.31963,-5.77417
-273,-720,5.17963,8.19495,0,0,0,0,0,0,0,-1,951,1744,5.17961,-8.19489
-266,-720,4.37134,7.47217,0,0,0,0,0,0,0,-1,958,1744,4.37132,-7.47215
-259,-720,2.38904,5.20947,0,0,0,0,0,0,0,-1,965,1744,2.38906,-5.20952
-252,-720,3.71014,6.78967,0,0,0,0,0,0,0,-1,972,1744,3.71016,-6.78973
-245,-720,5.30713,8.33936,0,0,0,0,0,0,0,-1,979,1744,5.3071,-8.33937
-238,-720,4.30365,9.28394,0,0,0,0,0,0,0,-1,986,1744,4.30367,-9.28391
-231,-720,3.39594,8.78235,0,0,0,0,0,0,0,-1,993,1744,3.39592,-8.78235
-224,-720,3.55029,8.78088,0.0265382,0.00158486,0.0243377,0.0414109,-0.0132879,0.548541,0.0329424,0.0464539,1000,1744,3.5503,-8.78089
-217,-720,4.11713,9.50598,0.0227286,0.00249061,0.023449,0.0381488,-0.0129296,0.581703,0.0306649,0.0462264,1007,1744,4.11713,-9.50597
-210,-720,4.11945,8.89099,0,0,0,0,0,0,0,-1,1014,1744,4.11945,-8.89099
-203,-720,3.40063,9.03076,0,0,0,0,0,0,0,-1,1021,1744,3.40069,-9.03072
-196,-720,3.74939,9.03394,0,0,0,0,0,0,0,-1,1028,1744,3.74944,-9.03392
-189,-720,3.77661,9.15015,0,0,0,0,0,0,0,-1,1035,1744,3.77658,-9.15018
-182,-720,2.87109,9.48218,0.0117992,0.00174745,0.0104873,0.0184027,-0.00485604,0.561949,0.0141673,0.0385285,1042,1744,2.87108,-9.48215
-175,-720,3.59509,9.495,0.00887925,0.00337814,0.00865876,0.0152138,-0.00295644,0.631608,0.0112582,0.0419562,1049,1744,3.59505,-9.49503
-168,-720,3.89978,9.61853,0.00640664,0.00435784,0.00648155,0.0119442,-0.00117976,0.707022,0.00838379,0.0371963,1056,1744,3.89975,-9.61856
-161,-720,3.77783,9.70581,0.00425622,0.00597233,0.00511391,0.0102997,-7.11149e-05,0.868518,0.00689028,0.0257162,1063,1744,3.77783,-9.70579
-154,-720,3.78235,9.77515,0.0027574,0.00674483,0.00395511,0.00918031,0.000321917,1.01885,0.00601577,0.0187872,1070,1744,3.7824,-9.77513
-147,-720,3.77576,9.87585,0.00138881,0.00723174,0.00299508,0.00849422,0.000126325,1.17188,0.00562118,0.0187572,1077,1744,3.77571,-9.87588
-140,-720,3.78577,9.96301,9.1645e-05,0.00672996,0.00187055,0.00722076,-0.000399154,1.3142,0.00495226,0.0158973,1084,1744,3.78574,-9.96305
-133,-720,3.77136,10.0133,-0.000583405,0.00613424,0.00101552,0.0062844,-0.000733567,1.42399,0.0044543,0.0113292,1091,1744,3.77142,-10.0133
-126,-720,3.76257,10.0889,-0.00144358,0.00554011,-1.99088e-05,0.00554017,-0.00144363,-1.56795,0.00425705,0.0118362,1098,1744,3.76255,-10.0889
-119,-720,3.75317,10.1709,-0.00188936,0.0046815,-0.000551733,0.0047275,-0.00193536,-1.48761,0.00395779,0.0153869,1105,1744,3.75315,-10.1709
-112,-720,3.73682,10.2515,-0.00191974,0.00374077,-0.000943885,0.00389401,-0.00207299,-1.40985,0.00349811,0.0140424,1112,1744,3.73684,-10.2515
-105,-720,3.73901,10.3323,-0.0019161,0.00272117,-0.0012792,0.00305064,-0.00224556,-1.31872,0.00306952,0.0123826,1119,1744,3.73906,-10.3323
-98,-720,3.74182,10.3876,-0.00197571,0.0017957,-0.00150807,0.00232456,-0.00250457,-1.23351,0.00278875,0.0100661,1126,1744,3.7418,-10.3876
-91,-720,3.73389,10.444,-0.00200911,0.00106478,-0.00157541,0.00172877,-0.0026731,-1.17192,0.00256084,0.0094007,1133,1744,3.73388,-10.4439
-84,-720,3.7207,10.5237,-0.00190502,0.000548362,-0.00152704,0.0012804,-0.00263706,-1.12378,0.00230651,0.00971872,1140,1744,3.72075,-10.5237
-77,-720,3.71887,10.6067,-0.0016003,7.88021e-05,-0.00146215,0.000925287,-0.00244678,-1.04601,0.00201184,0.0119354,1147,1744,3.71885,-10.6067
-70,-720,3.71826,10.6573,-0.0013001,-0.000124274,-0.00137234,0.000780788,-0.00220516,-0.987771,0.00178812,0.0108611,1154,1744,3.7183,-10.6574
-63,-720,3.71326,10.6995,-0.000936055,-0.000231399,-0.00106413,0.000537218,-0.00170467,-0.945265,0.00135159,0.0105011,1161,1744,3.71323,-10.6994
-56,-720,3.71753,10.7694,-0.000526892,-0.000349619,-0.000584225,0.000152656,-0.00102917,-0.860682,0.000742247,0.013003,1168,1744,3.71753,-10.7695
-49,-720,3.69922,10.8049,-8.22018e-05,-0.000473394,-0.000148772,-3.20521e-05,-0.000523543,-0.325128,0.00033885,0.0190098,1175,1744,3.69922,-10.805
-42,-720,3.72168,10.8191,0.00037325,-0.000466845,7.95428e-05,0.000380715,-0.00047431,0.093575,0.000494634,0.0192442,1182,1744,3.72168,-10.8191
-35,-720,3.73608,10.8704,0.00103236,-0.000147786,0.000290278,0.00109989,-0.00021532,0.228588,0.000814578,0.016642,1189,1744,3.7361,-10.8703
-28,-720,3.72852,10.9327,0.00148898,-0.000133029,0.000209659,0.00151565,-0.000159691,0.12649,0.00106765,0.0108379,1196,1744,3.72856,-10.9327
-21,-720,3.72949,10.9807,0.00202321,-0.000522316,0.000120898,0.00202894,-0.000528045,0.0473522,0.00155875,0.00885583,1203,1744,3.72953,-10.9808
-14,-720,3.724,11.0029,0.00248568,-0.000982448,9.13263e-05,0.00248808,-0.000984851,0.0263087,0.00206676,0.010696,1210,1744,3.72406,-11.0029
-7,-720,3.72827,11.0635,0.00293228,-0.0012875,4.1539e-05,0.00293268,-0.00128791,0.00984262,0.00249768,0.0115862,1217,1744,3.72831,-11.0635
0,-720,3.73901,11.1104,0.00338876,-0.0013308,-8.37772e-05,0.00339024,-0.00133229,-0.0177436,0.00281153,0.0124599,1224,1744,3.73901,-11.1103
7,-720,3.74268,11.1262,0.00370061,-0.00115888,-0.000344171,0.00372487,-0.00118314,-0.0703565,0.00295759,0.0155722,1231,1744,3.74269,-11.1262
14,-720,3.75793,11.1465,0.00388876,-0.00119388,-0.000659962,0.00397305,-0.00127818,-0.12704,0.00316208,0.0141622,1238,1744,3.75791,-11.1465
21,-720,3.74878,11.1803,0.00393168,-0.00146938,-0.000923177,0.00408511,-0.00162282,-0.164698,0.00339615,0.0104345,1245,1744,3.7488,-11.1803
28,-720,3.7345,11.2087,0.00387655,-0.001784,-0.00116123,0.00410551,-0.00201296,-0.194671,0.00360071,0.0105933,1252,1744,3.73446,-11.2088
35,-720,3.73059,11.2352,0.00369302,-0.00203569,-0.00147746,0.00405161,-0.00239428,-0.238107,0.00376232,0.0104118,1259,1744,3.73064,-11.2352
42,-720,3.73413,11.2507,0.00343364,-0.00218809,-0.00194139,0.00403891,-0.00279336,-0.302219,0.0039664,0.0107144,1266,1744,3.73411,-11.2507
49,-720,3.74719,11.2366,0.00318651,-0.00255537,-0.00238457,0.00404766,-0.00341651,-0.346558,0.00431457,0.0110566,1273,1744,3.74718,-11.2366
56,-720,3.75549,11.25,0.00288866,-0.00303183,-0.002694,0.003931,-0.00407417,-0.369172,0.00462203,0.00993932,1280,1744,3.75547,-11.2499
63,-720,3.75952,11.271,0.00257775,-0.00344375,-0.00290904,0.00375354,-0.00461954,-0.384109,0.00484281,0.0119619,1287,1744,3.75958,-11.271
70,-720,3.77319,11.2847,0.00221426,-0.00382247,-0.00300562,0.0034555,-0.00506371,-0.391642,0.0049477,0.0128951,1294,1744,3.77321,-11.2846
77,-720,3.7738,11.2791,0.0018723,-0.00394395,-0.0031373,0.003242,-0.00531366,-0.411644,0.00498765,0.0144417,1301,1744,3.77379,-11.2791
84,-720,3.77759,11.2638,0.00153576,-0.0037668,-0.00331095,0.00312614,-0.00535718,-0.447796,0.00495399,0.0134064,1308,1744,3.77756,-11.2638
91,-720,3.78003,11.2891,0.0015047,-0.00328289,-0.00337982,0.00325258,-0.00503077,-0.477274,0.00481899,0.0128849,1315,1744,3.78003,-11.2891
98,-720,3.7793,11.283,0.00144026,-0.00265925,-0.00328826,0.00326531,-0.0044843,-0.50669,0.00449265,0.0122842,1322,1744,3.77932,-11.283
105,-720,3.77771,11.2969,0.00135139,-0.00210924,-0.00309521,0.0031671,-0.00392495,-0.530523,0.00410238,0.0115261,1329,1744,3.77772,-11.2968
112,-720,3.78442,11.2975,0.00136551,-0.00148409,-0.00272224,0.00301327,-0.00313185,-0.544305,0.00354811,0.0107154,1336,1744,3.78445,-11.2975
119,-720,3.78662,11.2731,0.00135699,-0.000585089,-0.00243688,0.00300917,-0.00223727,-0.595802,0.00303995,0.0108556,1343,1744,3.78666,-11.2731
126,-720,3.79724,11.254,0.00139237,0.000350935,-0.00229631,0.00322626,-0.00148295,-0.673902,0.00278027,0.010982,1350,1744,3.79727,-11.254
133,-720,3.78784,11.2423,0.00135839,0.00100992,-0.00208389,0.00327531,-0.000907004,-0.743689,0.00254043,0.0119664,1357,1744,3.78778,-11.2423
140,-720,3.7937,11.2599,0.00139221,0.00139563,-0.0017742,0.00316811,-0.000380282,-0.78588,0.00224958,0.0179997,1364,1744,3.79373,-11.2599
147,-720,3.78796,11.2234,0.00137911,0.00163174,-0.00140259,0.00291369,9.71507e-05,-0.830306,0.0019109,0.0191598,1371,1744,3.78793,-11.2233
154,-720,3.77759,11.1713,0.00126671,0.0019598,-0.00112026,0.00278589,0.000440621,-0.935403,0.0017292,0.0129624,1378,1744,3.77761,-11.1713
161,-720,3.80298,11.1492,0.00120056,0.00219612,-0.000945415,0.00276679,0.000629883,-1.02772,0.00167453,0.00957862,1385,1744,3.80293,-11.1491
168,-720,3.81775,11.1138,0.00112797,0.00220305,-0.000757427,0.0025943,0.000736725,-1.094,0.00154371,0.0092876,1392,1744,3.81771,-11.1138
175,-720,3.82483,11.0776,0.00103139,0.00202202,-0.000658288,0.00235053,0.000702887,-1.10793,0.00139314,0.013738,1399,1744,3.82485,-11.0776
182,-720,3.81384,11.0558,0.000951533,0.00181341,-0.000640281,0.00215426,0.000610675,-1.0816,0.00128205,0.013859,1406,1744,3.81384,-11.0557
189,-720,3.80225,11.0123,0.000953589,0.00143318,-0.000639855,0.0018767,0.000510073,-0.964682,0.0011205,0.0125057,1413,1744,3.8022,-11.0123
196,-720,3.80212,10.9774,0.000926912,0.000841849,-0.000824457,0.00170993,5.88274e-05,-0.759627,0.00112086,0.0132519,1420,1744,3.80212,-10.9774
203,-720,3.79858,10.9359,0.0010094,0.000414121,-0.00109189,0.00184349,-0.000419968,-0.652335,0.00139029,0.0152985,1427,1744,3.79858,-10.9359
210,-720,3.79297,10.8944,0.00117945,0.000198562,-0.00141377,0.00218543,-0.00080742,-0.618442,0.00178793,0.0130369,1434,1744,3.79294,-10.8944
217,-720,3.77905,10.8384,0.00125107,-0.000124118,-0.00188147,0.00256665,-0.0014397,-0.610209,0.00234337,0.0120067,1441,1744,3.77911,-10.8383
224,-720,3.79517,10.7847,0.00125243,-0.000463352,-0.00236282,0.00290828,-0.0021192,-0.611258,0.00291451,0.00915557,1448,1744,3.79521,-10.7846
231,-720,3.79675,10.7313,0.00119255,-0.000901945,-0.00273689,0.00307571,-0.00278511,-0.602672,0.00338513,0.00917093,1455,1744,3.79678,-10.7313
238,-720,3.79053,10.673,0.00125649,-0.00118251,-0.0032749,0.00353158,-0.0034576,-0.607163,0.00403528,0.00840989,1462,1744,3.7905,-10.673
245,-720,3.7948,10.6608,0.00114907,-0.00137328,-0.00378881,0.00388109,-0.0041053,-0.624732,0.00461155,0.0104489,1469,1744,3.79479,-10.6608
252,-720,3.79346,10.6084,0.00082598,-0.00146429,-0.00415233,0.00398818,-0.0046265,-0.650852,0.00497824,0.0104367,1476,1744,3.79342,-10.6083
259,-720,3.78113,10.5305,0.000527184,-0.00147988,-0.00433625,0.00397451,-0.00492721,-0.671686,0.00514921,0.00902437,1483,1744,3.78118,-10.5305
266,-720,3.76794,10.4662,0.000578844,-0.00146547,-0.00445951,0.00413184,-0.00501846,-0.67274,0.00529119,0.00865129,1490,1744,3.76795,-10.4662
273,-720,3.75793,10.3915,0.00109772,-0.00108551,-0.00518338,0.00530319,-0.00529098,-0.681615,0.00611655,0.0140407,1497,1744,3.75799,-10.3914
280,-720,3.72729,10.3236,0.00132215,-0.000699541,-0.00524109,0.00564899,-0.00502638,-0.690134,0.00616692,0.0163676,1504,1744,3.72727,-10.3237
287,-720,3.74036,10.217,0.00202739,-0.000924168,-0.00499589,0.00576091,-0.00465769,-0.641783,0.00602641,0.0241462,1511,1744,3.74034,-10.217
294,-720,3.79626,10.1273,0.00290698,-0.00202138,-0.00512188,0.00612662,-0.00524103,-0.561188,0.00656975,0.030968,1518,1744,3.79629,-10.1273
301,-720,3.67566,10.0558,0.00289952,-0.00331174,-0.00522514,0.00587229,-0.00628451,-0.517266,0.00702008,0.0314862,1525,1744,3.67564,-10.0557
308,-720,3.65735,10.001,0.00319457,-0.00413977,-0.0048428,0.005602,-0.00654721,-0.461338,0.00702142,0.0321056,1532,1744,3.65739,-10.001
315,-720,3.79993,10.002,0.00503774,-0.00487036,-0.00431163,0.00665124,-0.00648387,-0.358088,0.00758377,0.0389241,1539,1744,3.79997,-10.002
322,-720,4.49353,9.71838,0.00617122,-0.00610251,-0.00379072,0.00724759,-0.00717887,-0.276665,0.00832915,0.0473237,1546,1744,4.49348,-9.7184
329,-720,3.77405,9.68555,0,0,0,0,0,0,0,-1,1553,1744,3.77401,-9.68554
336,-720,3.66699,10.4827,0,0,0,0,0,0,0,-1,1560,1744,3.66698,-10.4827
343,-720,3.8374,10.8151,0,0,0,0,0,0,0,-1,1567,1744,3.8374,-10.815
350,-720,3.13672,10.1118,0,0,0,0,0,0,0,-1,1574,1744,3.13677,-10.1118
357,-720,3.75342,8.75659,0,0,0,0,0,0,0,-1,1581,1744,3.75344,-8.75664
364,-720,4.11401,8.16846,0,0,0,0,0,0,0,-1,1588,1744,4.11401,-8.16848
371,-720,0.243042,7.12195,0,0,0,0,0,0,0,-1,1595,1744,0.24301,-7.12199
378,-720,-0.00817871,6.55554,0,0,0,0,0,0,0,-1,1602,1744,-0.00813838,-6.55549
385,-720,-0.210205,6.66614,0,0,0,0,0,0,0,-1,1609,1744,-0.210197,-6.6661
392,-720,-0.422241,7.79395,0,0,0,0,0,0,0,-1,1616,1744,-0.422286,-7.79399
399,-720,-0.44812,8.08728,0,0,0,0,0,0,0,-1,1623,1744,-0.448159,-8.08728
406,-720,0,0,0,0,0,0,0,0,0,-1,1630,1744,0,0
413,-720,0,0,0,0,0,0,0,0,0,-1,1637,1744,0,0
420,-720,0,0,0,0,0,0,0,0,0,-1,1644,1744,0,0
427,-720,0,0,0,0,0,0,0,0,0,-1,1651,1744,0,0
434,-720,0,0,0,0,0,0,0,0,0,-1,1658,1744,0,0
441,-720,0,0,0,0,0,0,0,0,0,-1,1665,1744,0,0
448,-720,0,0,0,0,0,0,0,0,0,-1,1672,1744,0,0
455,-720,0,0,0,0,0,0,0,0,0,-1,1679,1744,0,0
462,-720,0,0,0,0,0,0,0,0,0,-1,1686,1744,0,0
469,-720,0,0,0,0,0,0,0,0,0,-1,1693,1744,0,0
476,-720,0,0,0,0,0,0,0,0,0,-1,1700,1744,0,0
483,-720,0,0,0,0,0,0,0,0,0,-1,1707,1744,0,0
490,-720,0,0,0,0,0,0,0,0,0,-1,1714,1744,0,0
497,-720,0,0,0,0,0,0,0,0,0,-1,1721,1744,0,0
504,-720,0,0,0,0,0,0,0,0,0,-1,1728,1744,0,0
511,-720,0,0,0,0,0,0,0,0,0,-1,1735,1744,0,0
518,-720,0,0,0,0,0,0,0,0,0,-1,1742,1744,0,0
525,-720,0,0,0,0,0,0,0,0,0,-1,1749,1744,0,0
532,-720,0,0,0,0,0,0,0,0,0,-1,1756,1744,0,0
539,-720,0,0,0,0,0,0,0,0,0,-1,1763,1744,0,0
546,-720,0,0,0,0,0,0,0,0,0,-1,1770,1744,0,0
553,-720,0,0,0,0,0,0,0,0,0,-1,1777,1744,0,0
560,-720,0,0,0,0,0,0,0,0,0,-1,1784,1744,0,0
567,-720,0,0,0,0,0,0,0,0,0,-1,1791,1744,0,0
574,-720,0,0,0,0,0,0,0,0,0,-1,1798,1744,0,0
581,-720,0,0,0,0,0,0,0,0,0,-1,1805,1744,0,0
588,-720,0,0,0,0,0,0,0,0,0,-1,1812,1744,0,0
595,-720,0,0,0,0,0,0,0,0,0,-1,1819,1744,0,0
602,-720,0,0,0,0,0,0,0,0,0,-1,1826,1744,0,0
609,-720,0,0,0,0,0,0,0,0,0,-1,1833,1744,0,0
616,-720,0,0,0,0,0,0,0,0,0,-1,1840,1744,0,0
623,-720,0,0,0,0,0,0,0,0,0,-1,1847,1744,0,0
630,-720,0,0,0,0,0,0,0,0,0,-1,1854,1744,0,0
637,-720,0,0,0,0,0,0,0,0,0,-1,1861,1744,0,0
644,-720,0,0,0,0,0,0,0,0,0,-1,1868,1744,0,0
651,-720,0,0,0,0,0,0,0,0,0,-1,1875,1744,0,0
658,-720,0,0,0,0,0,0,0,0,0,-1,1882,1744,0,0
665,-720,0,0,0,0,0,0,0,0,0,-1,1889,1744,0,0
672,-720,0,0,0,0,0,0,0,0,0,-1,1896,1744,0,0
679,-720,0,0,0,0,0,0,0,0,0,-1,1903,1744,0,0
686,-720,0,0,0,0,0,0,0,0,0,-1,1910,1744,0,0
693,-720,0,0,0,0,0,0,0,0,0,-1,1917,1744,0,0
700,-720,0,0,0,0,0,0,0,0,0,-1,1924,1744,0,0
707,-720,0,0,0,0,0,0,0,0,0,-1,1931,1744,0,0
714,-720,0,0,0,0,0,0,0,0,0,-1,1938,1744,0,0
721,-720,0,0,0,0,0,0,0,0,0,-1,1945,1744,0,0
728,-720,0,0,0,0,0,0,0,0,0,-1,1952,1744,0,0
735,-720,0,0,0,0,0,0,0,0,0,-1,1959,1744,0,0
742,-720,0,0,0,0,0,0,0,0,0,-1,1966,1744,0,0
749,-720,0,0,0,0,0,0,0,0,0,-1,1973,1744,0,0
756,-720,0,0,0,0,0,0,0,0,0,-1,1980,1744,0,0
763,-720,0,0,0,0,0,0,0,0,0,-1,1987,1744,0,0
770,-720,0,0,0,0,0,0,0,0,0,-1,1994,1744,0,0
777,-720,0,0,0,0,0,0,0,0,0,-1,2001,1744,0,0
784,-720,0,0,0,0,0,0,0,0,0,-1,2008,1744,0,0
791,-720,0,0,0,0,0,0,0,0,0,-1,2015,1744,0,0
798,-720,0,0,0,0,0,0,0,0,0,-1,2022,1744,0,0
805,-720,0,0,0,0,0,0,0,0,0,-1,2029,1744,0,0
812,-720,0,0,0,0,0,0,0,0,0,-1,2036,1744,0,0
-700,-727,0,0,0,0,0,0,0,0,0,-1,524,1751,0,0
-693,-727,0,0,0,0,0,0,0,0,0,-1,531,1751,0,0
-686,-727,0,0,0,0,0,0,0,0,0,-1,538,1751,0,0
-679,-727,0,0,0,0,0,0,0,0,0,-1,545,1751,0,0
-672,-727,0,0,0,0,0,0,0,0,0,-1,552,1751,0,0
-665,-727,0,0,0,0,0,0,0,0,0,-1,559,1751,0,0
-658,-727,0,0,0,0,0,0,0,0,0,-1,566,1751,0,0
-651,-727,0,0,0,0,0,0,0,0,0,-1,573,1751,0,0
-644,-727,0,0,0,0,0,0,0,0,0,-1,580,1751,0,0
-637,-727,0,0,0,0,0,0,0,0,0,-1,587,1751,0,0
-630,-727,0,0,0,0,0,0,0,0,0,-1,594,1751,0,0
-623,-727,0,0,0,0,0,0,0,0,0,-1,601,1751,0,0
-616,-727,0,0,0,0,0,0,0,0,0,-1,608,1751,0,0
-609,-727,0,0,0,0,0,0,0,0,0,-1,615,1751,0,0
-602,-727,0,0,0,0,0,0,0,0,0,-1,622,1751,0,0
-595,-727,0,0,0,0,0,0,0,0,0,-1,629,1751,0,0
-588,-727,0,0,0,0,0,0,0,0,0,-1,636,1751,0,0
-581,-727,0,0,0,0,0,0,0,0,0,-1,643,1751,0,0
-574,-727,0,0,0,0,0,0,0,0,0,-1,650,1751,0,0
-567,-727,0,0,0,0,0,0,0,0,0,-1,657,1751,0,0
-560,-727,0,0,0,0,0,0,0,0,0,-1,664,1751,0,0
-553,-727,0,0,0,0,0,0,0,0,0,-1,671,1751,0,0
-546,-727,0,0,0,0,0,0,0,0,0,-1,678,1751,0,0
-539,-727,0,0,0,0,0,0,0,0,0,-1,685,1751,0,0
-532,-727,0,0,0,0,0,0,0,0,0,-1,692,1751,0,0
-525,-727,0,0,0,0,0,0,0,0,0,-1,699,1751,0,0
-518,-727,0,0,0,0,0,0,0,0,0,-1,706,1751,0,0
-511,-727,0,0,0,0,0,0,0,0,0,-1,713,1751,0,0
-504,-727,0,0,0,0,0,0,0,0,0,-1,720,1751,0,0
-497,-727,0,0,0,0,0,0,0,0,0,-1,727,1751,0,0
-490,-727,0,0,0,0,0,0,0,0,0,-1,734,1751,0,0
-483,-727,0,0,0,0,0,0,0,0,0,-1,741,1751,0,0
-476,-727,0,0,0,0,0,0,0,0,0,-1,748,1751,0,0
-469,-727,0,0,0,0,0,0,0,0,0,-1,755,1751,0,0
-462,-727,0,0,0,0,0,0,0,0,0,-1,762,1751,0,0
-455,-727,0,0,0,0,0,0,0,0,0,-1,769,1751,0,0
-448,-727,0,0,0,0,0,0,0,0,0,-1,776,1751,0,0
-441,-727,0,0,0,0,0,0,0,0,0,-1,783,1751,0,0
-434,-727,0,0,0,0,0,0,0,0,0,-1,790,1751,0,0
-427,-727,0,0,0,0,0,0,0,0,0,-1,797,1751,0,0
-420,-727,0,0,0,0,0,0,0,0,0,-1,804,1751,0,0
-413,-727,0,0,0,0,0,0,0,0,0,-1,811,1751,0,0
-406,-727,0,0,0,0,0,0,0,0,0,-1,818,1751,0,0
-399,-727,0,0,0,0,0,0,0,0,0,-1,825,1751,0,0
-392,-727,0,0,0,0,0,0,0,0,0,-1,832,1751,0,0
-385,-727,0,0,0,0,0,0,0,0,0,-1,839,1751,0,0
-378,-727,0,0,0,0,0,0,0,0,0,-1,846,1751,0,0
-371,-727,0,0,0,0,0,0,0,0,0,-1,853,1751,0,0
-364,-727,0,0,0,0,0,0,0,0,0,-1,860,1751,0,0
-357,-727,0,0,0,0,0,0,0,0,0,-1,867,1751,0,0
-350,-727,0,0,0,0,0,0,0,0,0,-1,874,1751,0,0
-343,-727,0,0,0,0,0,0,0,0,0,-1,881,1751,0,0
-336,-727,0,0,0,0,0,0,0,0,0,-1,888,1751,0,0
-329,-727,0,0,0,0,0,0,0,0,0,-1,895,1751,0,0
-322,-727,0,0,0,0,0,0,0,0,0,-1,902,1751,0,0
-315,-727,0,0,0,0,0,0,0,0,0,-1,909,1751,0,0
-308,-727,0,0,0,0,0,0,0,0,0,-1,916,1751,0,0
-301,-727,0,0,0,0,0,0,0,0,0,-1,923,1751,0,0
-294,-727,0,0,0,0,0,0,0,0,0,-1,930,1751,0,0
-287,-727,0,0,0,0,0,0,0,0,0,-1,937,1751,0,0
-280,-727,0,0,0,0,0,0,0,0,0,-1,944,1751,0,0
-273,-727,0,0,0,0,0,0,0,0,0,-1,951,1751,0,0
-266,-727,4.24805,7.61145,0,0,0,0,0,0,0,-1,958,1751,4.24802,-7.6115
-259,-727,3.65228,5.4082,0,0,0,0,0,0,0,-1,965,1751,3.65229,-5.40818
-252,-727,4.98651,6.28906,0,0,0,0,0,0,0,-1,972,1751,4.98649,-6.28908
-245,-727,6.25244,7.34888,0,0,0,0,0,0,0,-1,979,1751,6.25241,-7.3489
-238,-727,4.69525,9.31335,0,0,0,0,0,0,0,-1,986,1751,4.69522,-9.31334
-231,-727,4.70813,8.34924,0,0,0,0,0,0,0,-1,993,1751,4.70813,-8.34924
-224,-727,3.10895,8.55676,0,0,0,0,0,0,0,-1,1000,1751,3.10894,-8.5568
-217,-727,4.80597,9.479,0,0,0,0,0,0,0,-1,1007,1751,4.806,-9.47898
-210,-727,5.1499,8.92102,0,0,0,0,0,0,0,-1,1014,1751,5.14993,-8.92107
-203,-727,8.32153,7.95459,0,0,0,0,0,0,0,-1,1021,1751,8.32154,-7.95453
-196,-727,8.78979,8.04773,0,0,0,0,0,0,0,-1,1028,1751,8.78983,-8.04774
-189,-727,3.35596,9.55933,0,0,0,0,0,0,0,-1,1035,1751,3.35598,-9.55933
-182,-727,2.27637,9.50879,0,0,0,0,0,0,0,-1,1042,1751,2.27634,-9.50874
-175,-727,3.41455,9.52051,0,0,0,0,0,0,0,-1,1049,1751,3.41449,-9.52054
-168,-727,3.96582,9.63147,0.00835841,0.00684386,0.00887259,0.016506,-0.00130372,0.742826,0.0114633,0.049296,1056,1751,3.96585,-9.63144
-161,-727,3.87195,9.69373,0.00539773,0.00892513,0.00686905,0.0142533,6.95684e-05,0.911064,0.00947909,0.0491543,1063,1751,3.87196,-9.69375
-154,-727,3.77295,9.81604,0.00336032,0.00988544,0.005204,0.012765,0.000480732,1.06539,0.00835438,0.0427569,1070,1751,3.77297,-9.81605
-147,-727,3.79004,9.85303,0.0015206,0.0105079,0.00391533,0.0119743,5.4149e-05,1.21243,0.00796489,0.0355014,1077,1751,3.79,-9.85304
-140,-727,3.79871,9.83167,-0.000425381,0.00867998,0.00207135,0.00912904,-0.000874437,1.35731,0.00639746,0.0244652,1084,1751,3.79871,-9.83163
-133,-727,3.83215,9.94019,-0.00146667,0.00679772,0.000694367,0.00685565,-0.0015246,1.48755,0.00515435,0.0175182,1091,1751,3.83216,-9.94018
-126,-727,3.78809,10.0565,-0.00263609,0.00550583,-0.000786917,0.00558119,-0.00271145,-1.47532,0.00488238,0.0123882,1098,1751,3.78807,-10.0565
-119,-727,3.78308,10.1738,-0.00326141,0.00383042,-0.00165643,0.00419823,-0.00362922,-1.35229,0.00452316,0.0114439,1105,1751,3.78305,-10.1738
-112,-727,3.79407,10.2496,-0.0033981,0.00206483,-0.00233697,0.00292813,-0.0042614,-1.21694,0.0041746,0.013363,1112,1751,3.7941,-10.2497
-105,-727,3.77795,10.33,-0.00350921,0.000203665,-0.00293067,0.0018164,-0.00512194,-1.06772,0.00415463,0.0124044,1119,1751,3.77801,-10.33
-98,-727,3.79846,10.3853,-0.00367775,-0.00144894,-0.00336453,0.000980942,-0.00610763,-0.945323,0.00443504,0.0107718,1126,1751,3.79845,-10.3852
-91,-727,3.80542,10.451,-0.00378027,-0.00277782,-0.00356649,0.000322498,-0.00688059,-0.85521,0.00469825,0.0104622,1133,1751,3.80536,-10.4511
-84,-727,3.77429,10.509,-0.00367352,-0.0036689,-0.00356455,-0.000106664,-0.00723576,-0.785722,0.00478868,0.0107792,1140,1751,3.77425,-10.5091
-77,-727,3.76416,10.587,-0.00329843,-0.0043328,-0.00346343,-0.000313784,-0.00731745,-0.711282,0.00477714,0.0121993,1147,1751,3.76416,-10.587
-70,-727,3.75977,10.6547,-0.00291081,-0.00445724,-0.00326308,-0.000330582,-0.00703747,-0.669065,0.00458542,0.0125942,1154,1751,3.75972,-10.6547
-63,-727,3.76123,10.7035,-0.00233638,-0.00422483,-0.0026707,-0.000447908,-0.00611331,-0.615481,0.00393474,0.0101925,1161,1751,3.7612,-10.7035
-56,-727,3.74902,10.756,-0.00169778,-0.00381232,-0.00182129,-0.000649123,-0.00486098,-0.522418,0.00304741,0.010752,1168,1751,3.749,-10.756
-49,-727,3.75537,10.7947,-0.000972109,-0.00331252,-0.000974631,-0.000619394,-0.00366523,-0.347233,0.00226543,0.0141193,1175,1751,3.7554,-10.7947
-42,-727,3.7782,10.8534,-0.00020907,-0.00251752,-0.000434925,-0.000129846,-0.00259675,-0.180179,0.00168955,0.0164717,1182,1751,3.77822,-10.8534
-35,-727,3.77734,10.8878,0.000717717,-0.00115153,0.000274545,0.000757206,-0.00119102,0.142856,0.00113407,0.0140146,1189,1751,3.77737,-10.8878
-28,-727,3.75598,10.9326,0.00103597,-0.000609186,0.000453283,0.0011526,-0.000725809,0.251824,0.00109379,0.00883963,1196,1751,3.75601,-10.9326
-21,-727,3.75513,10.9833,0.00119893,-0.00103718,0.000401836,0.00126895,-0.00110719,0.172515,0.00137293,0.00979455,1203,1751,3.75518,-10.9833
-14,-727,3.75854,11.0104,0.00149855,-0.00150174,0.000404832,0.00155222,-0.00155541,0.131791,0.00179419,0.0110732,1210,1751,3.75854,-11.0104
-7,-727,3.76758,11.0643,0.00178263,-0.00183606,0.000345198,0.00181527,-0.00186869,0.0942602,0.00212701,0.0143792,1217,1751,3.7676,-11.0644
0,-727,3.77478,11.114,0.00207993,-0.00192949,0.000173943,0.00208746,-0.00193702,0.0432753,0.00232408,0.0142253,1224,1751,3.77479,-11.114
7,-727,3.77197,11.1199,0.00225825,-0.0018373,1.95017e-05,0.00225834,-0.00183739,0.00476153,0.00236883,0.0137398,1231,1751,3.77203,-11.1198
14,-727,3.77563,11.1443,0.00238785,-0.00177756,-0.00016467,0.00239435,-0.00178406,-0.0394507,0.00242097,0.01369,1238,1751,3.77566,-11.1443
21,-727,3.76099,11.1932,0.00247393,-0.00181451,-0.000352083,0.00250264,-0.00184323,-0.0813742,0.0025187,0.012062,1245,1751,3.76097,-11.1933
28,-727,3.76721,11.2126,0.00251685,-0.00183304,-0.000551929,0.00258579,-0.00190198,-0.12426,0.00260102,0.0110667,1252,1751,3.76726,-11.2127
35,-727,3.78455,11.2219,0.00245689,-0.00184296,-0.000790127,0.00259748,-0.00198356,-0.176096,0.00265277,0.011118,1259,1751,3.78452,-11.2219
42,-727,3.76147,11.2379,0.00230904,-0.00175991,-0.00111728,0.00259564,-0.00204652,-0.251105,0.00268639,0.0114702,1266,1751,3.76144,-11.2379
49,-727,3.74573,11.2351,0.00209449,-0.00196775,-0.00136313,0.00250951,-0.00238276,-0.295541,0.00282487,0.0105887,1273,1751,3.74569,-11.235
56,-727,3.74561,11.26,0.00181534,-0.00226678,-0.00152236,0.00232055,-0.002772,-0.320425,0.00294403,0.00924541,1280,1751,3.74563,-11.26
63,-727,3.78186,11.272,0.00148606,-0.00257735,-0.00160925,0.00204617,-0.00313746,-0.334943,0.0030148,0.0117594,1287,1751,3.78182,-11.2719
70,-727,3.79993,11.2797,0.00115019,-0.0028594,-0.00163213,0.00173056,-0.00343977,-0.341644,0.00303898,0.0139214,1294,1751,3.79999,-11.2796
77,-727,3.79297,11.2684,0.000865634,-0.00303844,-0.00170773,0.0015072,-0.00368001,-0.35937,0.00308117,0.0151882,1301,1751,3.79293,-11.2684
84,-727,3.77405,11.2583,0.000578055,-0.00306061,-0.00185693,0.00135837,-0.00384093,-0.397813,0.00311379,0.0152408,1308,1751,3.77406,-11.2583
91,-727,3.76819,11.2705,0.000322938,-0.00275775,-0.00191797,0.00124253,-0.00367734,-0.447081,0.00295416,0.0157065,1315,1751,3.76823,-11.2705
98,-727,3.77759,11.2804,0.000153267,-0.00228639,-0.00184502,0.00114525,-0.00327837,-0.493313,0.00265111,0.0135781,1322,1751,3.77759,-11.2804
105,-727,3.79822,11.2954,6.2112e-05,-0.0018602,-0.00171167,0.00106402,-0.00286211,-0.529572,0.00234466,0.0132843,1329,1751,3.7982,-11.2954
112,-727,3.78699,11.2991,0.000180579,-0.0012927,-0.00159011,0.00119639,-0.00230851,-0.568484,0.00205723,0.011358,1336,1751,3.78694,-11.299
119,-727,3.77869,11.2721,0.000341838,-0.000502992,-0.00152437,0.00150124,-0.0016624,-0.650236,0.00182732,0.00868248,1343,1751,3.77863,-11.2721
126,-727,3.78564,11.2235,0.000577271,0.000409293,-0.00153568,0.00203126,-0.0010447,-0.75808,0.0018061,0.0100289,1350,1751,3.78561,-11.2236
133,-727,3.78186,11.2332,0.000740335,0.00118763,-0.00146402,0.00244498,-0.00051702,-0.861193,0.00182688,0.0136909,1357,1751,3.78183,-11.2331
140,-727,3.79553,11.2423,0.000929802,0.00185443,-0.00134598,0.00281527,-3.10448e-05,-0.950824,0.00188728,0.0203994,1364,1751,3.79557,-11.2423
147,-727,3.78284,11.1914,0.00109262,0.00238239,-0.00123577,0.00313142,0.000343592,-1.02589,0.00198303,0.0179406,1371,1751,3.78282,-11.1914
154,-727,3.76599,11.1432,0.00115563,0.00290732,-0.00120827,0.0035238,0.000539154,-1.09901,0.0021917,0.0111693,1378,1751,3.76598,-11.1432
161,-727,3.76843,11.135,0.00117962,0.00323136,-0.00117159,0.00376274,0.000648241,-1.14499,0.00232276,0.00906661,1385,1751,3.7684,-11.135
168,-727,3.77734,11.1213,0.00124701,0.00330017,-0.00110515,0.00378197,0.000765203,-1.15968,0.00230891,0.011054,1392,1751,3.77732,-11.1213
175,-727,3.80334,11.0892,0.00123076,0.00305323,-0.00114326,0.00360398,0.000680015,-1.12187,0.00221112,0.0147726,1399,1751,3.80338,-11.0893
182,-727,3.79968,11.0519,0.00126076,0.00269084,-0.00131298,0.00347086,0.00048074,-1.03474,0.00217147,0.0173058,1406,1751,3.79969,-11.0519
189,-727,3.76636,11.0131,0.00145721,0.00194211,-0.00132125,0.00304297,0.00035635,-0.87614,0.00192091,0.0114649,1413,1751,3.76642,-11.0131
196,-727,3.75952,10.989,0.00157687,0.000945289,-0.00166009,0.00295094,-0.000428783,-0.691409,0.00212469,0.0128257,1420,1751,3.75958,-10.989
203,-727,3.75806,10.9407,0.00179667,0.000254058,-0.00213138,0.00329201,-0.00124128,-0.611788,0.00270509,0.0158777,1427,1751,3.75807,-10.9407
210,-727,3.74426,10.8929,0.00214884,5.02475e-05,-0.00259096,0.00389492,-0.00169583,-0.593001,0.00331001,0.0151777,1434,1751,3.7443,-10.893
217,-727,3.74463,10.8467,0.00233228,-0.000326024,-0.00319939,0.00446763,-0.00246137,-0.588526,0.00405597,0.0114437,1441,1751,3.74459,-10.8467
224,-727,3.73767,10.7782,0.00230215,-0.000717388,-0.00382439,0.00490399,-0.00331923,-0.597402,0.00477697,0.0116715,1448,1751,3.73763,-10.7782
231,-727,3.74866,10.7219,0.00218579,-0.00125653,-0.00430244,0.00509857,-0.00416931,-0.595127,0.00535977,0.00921657,1455,1751,3.74871,-10.7219
238,-727,3.7572,10.6632,0.00221105,-0.00160569,-0.00498761,0.00564291,-0.00503756,-0.60268,0.00616967,0.0098964,1462,1751,3.75716,-10.6632
245,-727,3.75305,10.6365,0.00199682,-0.00186166,-0.00562897,0.00601798,-0.00588282,-0.620305,0.00687108,0.00968964,1469,1751,3.75309,-10.6364
252,-727,3.73962,10.5846,0.00149698,-0.0020235,-0.00607843,0.00606492,-0.00659143,-0.644459,0.00730925,0.0102392,1476,1751,3.73959,-10.5846
259,-727,3.75464,10.5118,0.00101926,-0.00209417,-0.00630181,0.00595378,-0.0070287,-0.664309,0.007504,0.0132736,1483,1751,3.75458,-10.5119
266,-727,3.77686,10.4917,0.000998905,-0.00214259,-0.00643486,0.00605195,-0.00719564,-0.665689,0.007658,0.0204444,1490,1751,3.77688,-10.4916
273,-727,3.77112,10.4651,0.0015839,-0.00176989,-0.00732625,0.00742272,-0.00760871,-0.672892,0.00867862,0.0339309,1497,1751,3.77118,-10.4651
280,-727,3.5238,10.3958,0.00184646,-0.00137864,-0.00737231,0.00778052,-0.0073127,-0.677729,0.00871547,0.0460361,1504,1751,3.52382,-10.3958
287,-727,3.67969,10.2327,0,0,0,0,0,0,0,-1,1511,1751,3.6797,-10.2327
294,-727,3.8042,10.0609,0,0,0,0,0,0,0,-1,1518,1751,3.80421,-10.061
301,-727,3.54956,10.0004,0,0,0,0,0,0,0,-1,1525,1751,3.54958,-10.0004
308,-727,3.56482,9.9281,0,0,0,0,0,0,0,-1,1532,1751,3.56486,-9.92815
315,-727,3.70801,9.94385,0,0,0,0,0,0,0,-1,1539,1751,3.70803,-9.94381
322,-727,4.89441,9.52026,0,0,0,0,0,0,0,-1,1546,1751,4.89445,-9.5203
329,-727,3.49524,7.44324,0,0,0,0,0,0,0,-1,1553,1751,3.49526,-7.44328
336,-727,3.34875,7.61792,0,0,0,0,0,0,0,-1,1560,1751,3.34872,-7.61791
343,-727,2.41699,8.72095,0,0,0,0,0,0,0,-1,1567,1751,2.41702,-8.72098
350,-727,3.89783,7.50195,0,0,0,0,0,0,0,-1,1574,1751,3.89782,-7.50193
357,-727,4.93799,7.35535,0,0,0,0,0,0,0,-1,1581,1751,4.93793,-7.35529
364,-727,5.97803,7.20862,0,0,0,0,0,0,0,-1,1588,1751,5.97804,-7.20865
371,-727,-0.840576,4.72192,0,0,0,0,0,0,0,-1,1595,1751,-0.840568,-4.72191
378,-727,-1.02466,6.29736,0,0,0,0,0,0,0,-1,1602,1751,-1.02461,-6.29734
385,-727,-1.09619,7.97229,0,0,0,0,0,0,0,-1,1609,1751,-1.09623,-7.9723
392,-727,0,0,0,0,0,0,0,0,0,-1,1616,1751,0,0
399,-727,0,0,0,0,0,0,0,0,0,-1,1623,1751,0,0
406,-727,0,0,0,0,0,0,0,0,0,-1,1630,1751,0,0
413,-727,0,0,0,0,0,0,0,0,0,-1,1637,1751,0,0
420,-727,0,0,0,0,0,0,0,0,0,-1,1644,1751,0,0
427,-727,0,0,0,0,0,0,0,0,0,-1,1651,1751,0,0
434,-727,0,0,0,0,0,0,0,0,0,-1,1658,1751,0,0
441,-727,0,0,0,0,0,0,0,0,0,-1,1665,1751,0,0
448,-727,0,0,0,0,0,0,0,0,0,-1,1672,1751,0,0
455,-727,0,0,0,0,0,0,0,0,0,-1,1679,1751,0,0
462,-727,0,0,0,0,0,0,0,0,0,-1,1686,1751,0,0
469,-727,0,0,0,0,0,0,0,0,0,-1,1693,1751,0,0
476,-727,0,0,0,0,0,0,0,0,0,-1,1700,1751,0,0
483,-727,0,0,0,0,0,0,0,0,0,-1,1707,1751,0,0
490,-727,0,0,0,0,0,0,0,0,0,-1,1714,1751,0,0
497,-727,0,0,0,0,0,0,0,0,0,-1,1721,1751,0,0
504,-727,0,0,0,0,0,0,0,0,0,-1,1728,1751,0,0
511,-727,0,0,0,0,0,0,0,0,0,-1,1735,1751,0,0
518,-727,0,0,0,0,0,0,0,0,0,-1,1742,1751,0,0
525,-727,0,0,0,0,0,0,0,0,0,-1,1749,1751,0,0
532,-727,0,0,0,0,0,0,0,0,0,-1,1756,1751,0,0
539,-727,0,0,0,0,0,0,0,0,0,-1,1763,1751,0,0
546,-727,0,0,0,0,0,0,0,0,0,-1,1770,1751,0,0
553,-727,0,0,0,0,0,0,0,0,0,-1,1777,1751,0,0
560,-727,0,0,0,0,0,0,0,0,0,-1,1784,1751,0,0
567,-727,0,0,0,0,0,0,0,0,0,-1,1791,1751,0,0
574,-727,0,0,0,0,0,0,0,0,0,-1,1798,1751,0,0
581,-727,0,0,0,0,0,0,0,0,0,-1,1805,1751,0,0
588,-727,0,0,0,0,0,0,0,0,0,-1,1812,1751,0,0
595,-727,0,0,0,0,0,0,0,0,0,-1,1819,1751,0,0
602,-727,0,0,0,0,0,0,0,0,0,-1,1826,1751,0,0
609,-727,0,0,0,0,0,0,0,0,0,-1,1833,1751,0,0
616,-727,0,0,0,0,0,0,0,0,0,-1,1840,1751,0,0
623,-727,0,0,0,0,0,0,0,0,0,-1,1847,1751,0,0
630,-727,0,0,0,0,0,0,0,0,0,-1,1854,1751,0,0
637,-727,0,0,0,0,0,0,0,0,0,-1,1861,1751,0,0
644,-727,0,0,0,0,0,0,0,0,0,-1,1868,1751,0,0
651,-727,0,0,0,0,0,0,0,0,0,-1,1875,1751,0,0
658,-727,0,0,0,0,0,0,0,0,0,-1,1882,1751,0,0
665,-727,0,0,0,0,0,0,0,0,0,-1,1889,1751,0,0
672,-727,0,0,0,0,0,0,0,0,0,-1,1896,1751,0,0
679,-727,0,0,0,0,0,0,0,0,0,-1,1903,1751,0,0
686,-727,0,0,0,0,0,0,0,0,0,-1,1910,1751,0,0
693,-727,0,0,0,0,0,0,0,0,0,-1,1917,1751,0,0
700,-727,0,0,0,0,0,0,0,0,0,-1,1924,1751,0,0
707,-727,0,0,0,0,0,0,0,0,0,-1,1931,1751,0,0
714,-727,0,0,0,0,0,0,0,0,0,-1,1938,1751,0,0
721,-727,0,0,0,0,0,0,0,0,0,-1,1945,1751,0,0
728,-727,0,0,0,0,0,0,0,0,0,-1,1952,1751,0,0
735,-727,0,0,0,0,0,0,0,0,0,-1,1959,1751,0,0
742,-727,0,0,0,0,0,0,0,0,0,-1,1966,1751,0,0
749,-727,0,0,0,0,0,0,0,0,0,-1,1973,1751,0,0
756,-727,0,0,0,0,0,0,0,0,0,-1,1980,1751,0,0
763,-727,0,0,0,0,0,0,0,0,0,-1,1987,1751,0,0
770,-727,0,0,0,0,0,0,0,0,0,-1,1994,1751,0,0
777,-727,0,0,0,0,0,0,0,0,0,-1,2001,1751,0,0
784,-727,0,0,0,0,0,0,0,0,0,-1,2008,1751,0,0
791,-727,0,0,0,0,0,0,0,0,0,-1,2015,1751,0,0
798,-727,0,0,0,0,0,0,0,0,0,-1,2022,1751,0,0
805,-727,0,0,0,0,0,0,0,0,0,-1,2029,1751,0,0
812,-727,0,0,0,0,0,0,0,0,0,-1,2036,1751,0,0
-700,-734,0,0,0,0,0,0,0,0,0,-1,524,1758,0,0
-693,-734,0,0,0,0,0,0,0,0,0,-1,531,1758,0,0
-686,-734,0,0,0,0,0,0,0,0,0,-1,538,1758,0,0
-679,-734,0,0,0,0,0,0,0,0,0,-1,545,1758,0,0
-672,-734,0,0,0,0,0,0,0,0,0,-1,552,1758,0,0
-665,-734,0,0,0,0,0,0,0,0,0,-1,559,1758,0,0
-658,-734,0,0,0,0,0,0,0,0,0,-1,566,1758,0,0
-651,-734,0,0,0,0,0,0,0,0,0,-1,573,1758,0,0
-644,-734,0,0,0,0,0,0,0,0,0,-1,580,1758,0,0
-637,-734,0,0,0,0,0,0,0,0,0,-1,587,1758,0,0
-630,-734,0,0,0,0,0,0,0,0,0,-1,594,1758,0,0
-623,-734,0,0,0,0,0,0,0,0,0,-1,601,1758,0,0
-616,-734,0,0,0,0,0,0,0,0,0,-1,608,1758,0,0
-609,-734,0,0,0,0,0,0,0,0,0,-1,615,1758,0,0
-602,-734,0,0,0,0,0,0,0,0,0,-1,622,1758,0,0
-595,-734,0,0,0,0,0,0,0,0,0,-1,629,1758,0,0
-588,-734,0,0,0,0,0,0,0,0,0,-1,636,1758,0,0
-581,-734,0,0,0,0,0,0,0,0,0,-1,643,1758,0,0
-574,-734,0,0,0,0,0,0,0,0,0,-1,650,1758,0,0
-567,-734,0,0,0,0,0,0,0,0,0,-1,657,1758,0,0
-560,-734,0,0,0,0,0,0,0,0,0,-1,664,1758,0,0
-553,-734,0,0,0,0,0,0,0,0,0,-1,671,1758,0,0
-546,-734,0,0,0,0,0,0,0,0,0,-1,678,1758,0,0
-539,-734,0,0,0,0,0,0,0,0,0,-1,685,1758,0,0
-532,-734,0,0,0,0,0,0,0,0,0,-1,692,1758,0,0
-525,-734,0,0,0,0,0,0,0,0,0,-1,699,1758,0,0
-518,-734,0,0,0,0,0,0,0,0,0,-1,706,1758,0,0
-511,-734,0,0,0,0,0,0,0,0,0,-1,713,1758,0,0
-504,-734,0,0,0,0,0,0,0,0,0,-1,720,1758,0,0
-497,-734,0,0,0,0,0,0,0,0,0,-1,727,1758,0,0
-490,-734,0,0,0,0,0,0,0,0,0,-1,734,1758,0,0
-483,-734,0,0,0,0,0,0,0,0,0,-1,741,1758,0,0
-476,-734,0,0,0,0,0,0,0,0,0,-1,748,1758,0,0
-469,-734,0,0,0,0,0,0,0,0,0,-1,755,1758,0,0
-462,-734,0,0,0,0,0,0,0,0,0,-1,762,1758,0,0
-455,-734,0,0,0,0,0,0,0,0,0,-1,769,1758,0,0
-448,-734,0,0,0,0,0,0,0,0,0,-1,776,1758,0,0
-441,-734,0,0,0,0,0,0,0,0,0,-1,783,1758,0,0
-434,-734,0,0,0,0,0,0,0,0,0,-1,790,1758,0,0
-427,-734,0,0,0,0,0,0,0,0,0,-1,797,1758,0,0
-420,-734,0,0,0,0,0,0,0,0,0,-1,804,1758,0,0
-413,-734,0,0,0,0,0,0,0,0,0,-1,811,1758,0,0
-406,-734,0,0,0,0,0,0,0,0,0,-1,818,1758,0,0
-399,-734,0,0,0,0,0,0,0,0,0,-1,825,1758,0,0
-392,-734,0,0,0,0,0,0,0,0,0,-1,832,1758,0,0
-385,-734,0,0,0,0,0,0,0,0,0,-1,839,1758,0,0
-378,-734,0,0,0,0,0,0,0,0,0,-1,846,1758,0,0
-371,-734,0,0,0,0,0,0,0,0,0,-1,853,1758,0,0
-364,-734,0,0,0,0,0,0,0,0,0,-1,860,1758,0,0
-357,-734,0,0,0,0,0,0,0,0,0,-1,867,1758,0,0
-350,-734,0,0,0,0,0,0,0,0,0,-1,874,1758,0,0
-343,-734,0,0,0,0,0,0,0,0,0,-1,881,1758,0,0
-336,-734,0,0,0,0,0,0,0,0,0,-1,888,1758,0,0
-329,-734,0,0,0,0,0,0,0,0,0,-1,895,1758,0,0
-322,-734,0,0,0,0,0,0,0,0,0,-1,902,1758,0,0
-315,-734,0,0,0,0,0,0,0,0,0,-1,909,1758,0,0
-308,-734,0,0,0,0,0,0,0,0,0,-1,916,1758,0,0
-301,-734,0,0,0,0,0,0,0,0,0,-1,923,1758,0,0
-294,-734,0,0,0,0,0,0,0,0,0,-1,930,1758,0,0
-287,-734,0,0,0,0,0,0,0,0,0,-1,937,1758,0,0
-280,-734,0,0,0,0,0,0,0,0,0,-1,944,1758,0,0
-273,-734,0,0,0,0,0,0,0,0,0,-1,951,1758,0,0
-266,-734,0,0,0,0,0,0,0,0,0,-1,958,1758,0,0
-259,-734,0,0,0,0,0,0,0,0,0,-1,965,1758,0,0
-252,-734,5.57068,5.35791,0,0,0,0,0,0,0,-1,972,1758,5.57068,-5.3579
-245,-734,6.83002,6.19312,0,0,0,0,0,0,0,-1,979,1758,6.83001,-6.19311
-238,-734,4.79346,4.72571,0,0,0,0,0,0,0,-1,986,1758,4.79348,-4.72568
-231,-734,5.5426,9.08521,0,0,0,0,0,0,0,-1,993,1758,5.5426,-9.08519
-224,-734,5.27783,9.44458,0,0,0,0,0,0,0,-1,1000,1758,5.2778,-9.44461
-217,-734,5.65533,9.09021,0,0,0,0,0,0,0,-1,1007,1758,5.65536,-9.09025
-210,-734,6.0329,8.73584,0,0,0,0,0,0,0,-1,1014,1758,6.03292,-8.73588
-203,-734,8.72131,8.42029,0,0,0,0,0,0,0,-1,1021,1758,8.72128,-8.42027
-196,-734,9.37708,8.68909,0,0,0,0,0,0,0,-1,1028,1758,9.3771,-8.68909
-189,-734,2.21704,11.171,0,0,0,0,0,0,0,-1,1035,1758,2.21704,-11.171
-182,-734,2.76392,10,0,0,0,0,0,0,0,-1,1042,1758,2.7639,-10
-175,-734,3.69153,8.91016,0,0,0,0,0,0,0,-1,1049,1758,3.69151,-8.91017
-168,-734,4.00244,9.52844,0,0,0,0,0,0,0,-1,1056,1758,4.00244,-9.52844
-161,-734,3.94897,9.74841,0,0,0,0,0,0,0,-1,1063,1758,3.94897,-9.7484
-154,-734,3.7771,9.91382,0,0,0,0,0,0,0,-1,1070,1758,3.77715,-9.91378
-147,-734,3.87793,9.9292,0,0,0,0,0,0,0,-1,1077,1758,3.87788,-9.92918
-140,-734,4.01746,9.67126,-0.00120966,0.0111388,0.00216335,0.0115068,-0.00157769,1.40229,0.00824755,0.0405369,1084,1758,4.01746,-9.67122
-133,-734,3.86646,9.96851,-0.0026569,0.00742147,0.000123259,0.00742298,-0.00265841,1.55857,0.00603328,0.0361347,1091,1758,3.86641,-9.96845
-126,-734,3.81091,10.0602,-0.00416053,0.00513854,-0.00188253,0.00550519,-0.00452718,-1.37844,0.00580136,0.0322622,1098,1758,3.81086,-10.0602
-119,-734,3.81567,10.1444,-0.00499256,0.00240201,-0.00316844,0.0035739,-0.00616446,-1.21653,0.00568837,0.0337705,1105,1758,3.81564,-10.1444
-112,-734,3.89307,10.1927,-0.00525844,-0.000439465,-0.00422149,0.00201177,-0.00770967,-1.04472,0.00592532,0.0277079,1112,1758,3.89309,-10.1928
-105,-734,3.8772,10.303,-0.00552331,-0.00338458,-0.00514609,0.000802076,-0.00970996,-0.887841,0.00675656,0.0206851,1119,1758,3.87723,-10.303
-98,-734,3.86877,10.3784,-0.00584542,-0.00599813,-0.00583879,-8.24886e-05,-0.0117611,-0.77886,0.00781336,0.015527,1126,1758,3.86876,-10.3785
-91,-734,3.87219,10.423,-0.00606273,-0.00814716,-0.006208,-0.000810065,-0.0133998,-0.702233,0.00867581,0.0162449,1133,1758,3.87225,-10.423
-84,-734,3.83667,10.488,-0.00598996,-0.00957849,-0.00624944,-0.00128231,-0.0142861,-0.645604,0.00912673,0.013719,1140,1758,3.83665,-10.4881
-77,-734,3.80774,10.5607,-0.00554945,-0.0105013,-0.00606235,-0.00147693,-0.0145738,-0.59153,0.00926291,0.0134666,1147,1758,3.80775,-10.5607
-70,-734,3.78113,10.6033,-0.00504971,-0.010521,-0.00567856,-0.00148221,-0.0140885,-0.560926,0.00893935,0.0121146,1154,1758,3.78112,-10.6032
-63,-734,3.79846,10.6821,-0.00412309,-0.00987544,-0.00468,-0.0015061,-0.0124924,-0.509867,0.00787441,0.0111644,1161,1758,3.79852,-10.6821
-56,-734,3.79956,10.7314,-0.00311918,-0.00879255,-0.00336449,-0.00155512,-0.0103566,-0.435153,0.00644884,0.0109584,1168,1758,3.79953,-10.7314
-49,-734,3.80676,10.7874,-0.00197771,-0.00751272,-0.00200181,-0.00132962,-0.00816081,-0.313105,0.00505595,0.0119641,1175,1758,3.80672,-10.7873
-42,-734,3.81226,10.8624,-0.000754156,-0.00566601,-0.00105724,-0.000536259,-0.00588391,-0.203254,0.00375663,0.0141631,1182,1758,3.81225,-10.8625
-35,-734,3.80981,10.8904,0.000545886,-0.00278375,0.000275294,0.000568494,-0.00280636,0.0819384,0.00208638,0.0137323,1189,1758,3.80984,-10.8904
-28,-734,3.797,10.925,0.00079362,-0.00140488,0.000752347,0.00102643,-0.00163769,0.300096,0.00155156,0.00907042,1196,1758,3.79697,-10.925
-21,-734,3.8324,10.9742,0.000745598,-0.0019389,0.000733725,0.00093305,-0.00212635,0.25013,0.00181058,0.0132373,1203,1758,3.83238,-10.9742
-14,-734,3.80408,11.0361,0.0010372,-0.00236824,0.00075031,0.00119518,-0.00252623,0.207527,0.00219389,0.0144079,1210,1758,3.80411,-11.0361
-7,-734,3.80017,11.0793,0.00139112,-0.00271765,0.000647167,0.00149064,-0.00281717,0.152588,0.00252612,0.0176477,1217,1758,3.80023,-11.0793
0,-734,3.7915,11.1094,0.0018159,-0.00284418,0.000369409,0.001845,-0.00287328,0.0786167,0.00274558,0.0174896,1224,1758,3.79145,-11.1093
7,-734,3.77625,11.132,0.00207154,-0.00281987,0.000186812,0.00207866,-0.002827,0.0381178,0.00284325,0.0128396,1231,1758,3.77627,-11.1319
14,-734,3.77466,11.1549,0.00235859,-0.00274245,-1.93514e-05,0.00235866,-0.00274253,-0.00379355,0.00294795,0.0132863,1238,1758,3.77467,-11.1549
21,-734,3.76929,11.1788,0.00267674,-0.00264847,-0.00022627,0.00268634,-0.00265807,-0.0423884,0.00308561,0.0123362,1245,1758,3.76928,-11.1788
28,-734,3.7804,11.2001,0.00289914,-0.00252123,-0.000386774,0.0029266,-0.00254869,-0.0708771,0.00316367,0.0117532,1252,1758,3.78034,-11.2001
35,-734,3.79688,11.2156,0.00297356,-0.00242259,-0.000541885,0.00302744,-0.00247647,-0.099102,0.00318299,0.0135946,1259,1758,3.79683,-11.2155
42,-734,3.78943,11.2227,0.0028504,-0.00225569,-0.000690068,0.00294202,-0.00234731,-0.131992,0.00306022,0.0116791,1266,1758,3.78946,-11.2226
49,-734,3.76099,11.2417,0.00252759,-0.00243241,-0.00067447,0.00261767,-0.00252249,-0.132771,0.00296784,0.0100308,1273,1758,3.76096,-11.2417
56,-734,3.75146,11.2565,0.00205574,-0.00270189,-0.000594348,0.00212886,-0.00277501,-0.122419,0.00283943,0.00934297,1280,1758,3.75148,-11.2565
63,-734,3.78137,11.2574,0.00150024,-0.00302493,-0.000466305,0.00154779,-0.00307248,-0.101624,0.0027155,0.0127663,1287,1758,3.78141,-11.2574
70,-734,3.76697,11.2775,0.00106763,-0.00331781,-0.000344532,0.00109454,-0.00334471,-0.0779254,0.0026705,0.0134239,1294,1758,3.76693,-11.2775
77,-734,3.77588,11.3087,0.000627358,-0.00359198,-0.000299532,0.000648516,-0.00361314,-0.0705189,0.0026515,0.0170711,1301,1758,3.7759,-11.3088
84,-734,3.75671,11.2883,7.66482e-05,-0.00374049,-0.000336459,0.000106078,-0.00376992,-0.0872478,0.00254938,0.0155792,1308,1758,3.75675,-11.2884
91,-734,3.7384,11.2883,-0.000439149,-0.0036012,-0.000388503,-0.000392115,-0.00364823,-0.120477,0.00231256,0.0166933,1315,1758,3.7384,-11.2884
98,-734,3.76416,11.2964,-0.000736646,-0.00320398,-0.000390789,-0.000676231,-0.0032644,-0.153385,0.00198954,0.0130255,1322,1758,3.76413,-11.2964
105,-734,3.81714,11.2817,-0.000831525,-0.00280263,-0.000399756,-0.000753537,-0.00288062,-0.192669,0.001725,0.014776,1329,1758,3.81708,-11.2817
112,-734,3.80542,11.2823,-0.000512591,-0.00216027,-0.000588076,-0.000324233,-0.00234863,-0.309972,0.00146965,0.0129464,1336,1758,3.80544,-11.2824
119,-734,3.75659,11.2595,-9.89709e-05,-0.00128325,-0.000827584,0.000326496,-0.00170872,-0.47487,0.00126213,0.0130473,1343,1758,3.75659,-11.2595
126,-734,3.76001,11.2159,0.000387363,-0.00017814,-0.00113681,0.00127606,-0.00106684,-0.66351,0.00135447,0.0145979,1350,1758,3.76001,-11.2159
133,-734,3.75952,11.215,0.00081262,0.000944554,-0.00138676,0.00226691,-0.000509738,-0.809165,0.00170675,0.01334,1357,1758,3.75947,-11.215
140,-734,3.76294,11.2057,0.00121615,0.0020547,-0.00156468,0.0032553,1.55512e-05,-0.916304,0.00216504,0.0193913,1364,1758,3.76299,-11.2057
147,-734,3.75317,11.1615,0.00156403,0.00303595,-0.0017327,0.00418251,0.000417464,-0.986227,0.00266013,0.0143613,1371,1758,3.75313,-11.1615
154,-734,3.73279,11.1619,0.00175198,0.00390586,-0.00193011,0.00503915,0.000618689,-1.03987,0.00317337,0.00956645,1378,1758,3.73284,-11.1619
161,-734,3.73743,11.1537,0.00183412,0.00451214,-0.00200808,0.00558671,0.000759561,-1.07945,0.00349887,0.00862224,1385,1758,3.73747,-11.1537
168,-734,3.73926,11.1243,0.00192365,0.00477485,-0.00194851,0.00576359,0.000934914,-1.10122,0.00357178,0.0130206,1392,1758,3.73921,-11.1243
175,-734,3.76489,11.0903,0.00176853,0.00453928,-0.00194208,0.00553948,0.000768333,-1.09521,0.00346539,0.0153969,1399,1758,3.76488,-11.0903
182,-734,3.76343,11.0463,0.00166227,0.00406767,-0.00206199,0.00525208,0.000477859,-1.04941,0.00335347,0.0143621,1406,1758,3.76345,-11.0463
189,-734,3.73279,11.0111,0.00200325,0.00276773,-0.00198684,0.00440877,0.000362217,-0.88043,0.00282619,0.0106502,1413,1758,3.73276,-11.0111
196,-734,3.72864,10.9904,0.00219535,0.00107695,-0.00245344,0.00415251,-0.000880213,-0.67335,0.00310363,0.0105548,1420,1758,3.72867,-10.9903
203,-734,3.7356,10.9379,0.00246413,-0.00013577,-0.0031448,0.00456706,-0.00223871,-0.589411,0.00400523,0.0114582,1427,1758,3.73555,-10.9378
210,-734,3.73181,10.886,0.00298666,-0.000388539,-0.0037504,0.00541166,-0.00281354,-0.57398,0.00482715,0.0131056,1434,1758,3.73185,-10.886
217,-734,3.71667,10.8511,0.00330538,-0.000855275,-0.0045314,0.00621117,-0.00376106,-0.570204,0.00581511,0.0110396,1441,1758,3.7167,-10.8511
224,-734,3.6991,10.7996,0.00328311,-0.00132845,-0.00533896,0.00679292,-0.00483826,-0.581557,0.0067468,0.0117507,1448,1758,3.69908,-10.7996
231,-734,3.70569,10.7587,0.00314691,-0.00200533,-0.00597893,0.00708109,-0.00593951,-0.581984,0.00752707,0.0125523,1455,1758,3.70569,-10.7587
238,-734,3.73108,10.6875,0.003152,-0.00246102,-0.0068845,0.00778006,-0.00708908,-0.591853,0.0085878,0.015668,1462,1758,3.73104,-10.6875
245,-734,3.69519,10.5798,0.00282998,-0.0028239,-0.00772934,0.00823312,-0.00822704,-0.610083,0.00950328,0.0210225,1469,1758,3.69523,-10.5798
252,-734,3.68237,10.514,0.00213427,-0.00309968,-0.00834982,0.00826761,-0.00923302,-0.633538,0.0101091,0.0273215,1476,1758,3.68237,-10.5141
259,-734,4.03052,10.5845,0.00144985,-0.00326117,-0.00870956,0.00811681,-0.00992813,-0.653332,0.0104357,0.0364144,1483,1758,4.03049,-10.5845
266,-734,4.06921,10.6484,0.00135116,-0.00339302,-0.00894742,0.00823559,-0.0102774,-0.655822,0.0107102,0.0447315,1490,1758,4.06925,-10.6484
273,-734,3.89661,10.4932,0.00216725,-0.00300819,-0.0101904,0.0100933,-0.0109343,-0.661057,0.0121435,0.0486708,1497,1758,3.89666,-10.4931
280,-734,3.33716,10.6234,0,0,0,0,0,0,0,-1,1504,1758,3.33717,-10.6234
287,-734,3.62073,9.07349,0,0,0,0,0,0,0,-1,1511,1758,3.62078,-9.07353
294,-734,4.2616,9.82397,0,0,0,0,0,0,0,-1,1518,1758,4.2616,-9.82395
301,-734,3.66772,9.61658,0,0,0,0,0,0,0,-1,1525,1758,3.66772,-9.61662
308,-734,3.53967,9.81787,0,0,0,0,0,0,0,-1,1532,1758,3.53969,-9.81788
315,-734,3.20972,9.33997,0,0,0,0,0,0,0,-1,1539,1758,3.20978,-9.34002
322,-734,3.08936,9.1062,0,0,0,0,0,0,0,-1,1546,1758,3.08939,-9.10625
329,-734,4.50171,9.42297,0,0,0,0,0,0,0,-1,1553,1758,4.50173,-9.42299
336,-734,4.58252,10.3401,0,0,0,0,0,0,0,-1,1560,1758,4.58252,-10.3401
343,-734,5.54968,5.14221,0,0,0,0,0,0,0,-1,1567,1758,5.54973,-5.14225
350,-734,5.07397,6.73242,0,0,0,0,0,0,0,-1,1574,1758,5.07402,-6.73243
357,-734,5.05542,7.19189,0,0,0,0,0,0,0,-1,1581,1758,5.05541,-7.19184
364,-734,3.85803,5.07251,0,0,0,0,0,0,0,-1,1588,1758,3.85797,-5.07248
371,-734,-1.73291,4.3396,0,0,0,0,0,0,0,-1,1595,1758,-1.73286,-4.33965
378,-734,0,0,0,0,0,0,0,0,0,-1,1602,1758,0,0
385,-734,0,0,0,0,0,0,0,0,0,-1,1609,1758,0,0
392,-734,0,0,0,0,0,0,0,0,0,-1,1616,1758,0,0
399,-734,0,0,0,0,0,0,0,0,0,-1,1623,1758,0,0
406,-734,0,0,0,0,0,0,0,0,0,-1,1630,1758,0,0
413,-734,0,0,0,0,0,0,0,0,0,-1,1637,1758,0,0
420,-734,0,0,0,0,0,0,0,0,0,-1,1644,1758,0,0
427,-734,0,0,0,0,0,0,0,0,0,-1,1651,1758,0,0
434,-734,0,0,0,0,0,0,0,0,0,-1,1658,1758,0,0
441,-734,0,0,0,0,0,0,0,0,0,-1,1665,1758,0,0
448,-734,0,0,0,0,0,0,0,0,0,-1,1672,1758,0,0
455,-734,0,0,0,0,0,0,0,0,0,-1,1679,1758,0,0
462,-734,0,0,0,0,0,0,0,0,0,-1,1686,1758,0,0
469,-734,0,0,0,0,0,0,0,0,0,-1,1693,1758,0,0
476,-734,0,0,0,0,0,0,0,0,0,-1,1700,1758,0,0
483,-734,0,0,0,0,0,0,0,0,0,-1,1707,1758,0,0
490,-734,0,0,0,0,0,0,0,0,0,-1,1714,1758,0,0
497,-734,0,0,0,0,0,0,0,0,0,-1,1721,1758,0,0
504,-734,0,0,0,0,0,0,0,0,0,-1,1728,1758,0,0
511,-734,0,0,0,0,0,0,0,0,0,-1,1735,1758,0,0
518,-734,0,0,0,0,0,0,0,0,0,-1,1742,1758,0,0
525,-734,0,0,0,0,0,0,0,0,0,-1,1749,1758,0,0
532,-734,0,0,0,0,0,0,0,0,0,-1,1756,1758,0,0
539,-734,0,0,0,0,0,0,0,0,0,-1,1763,1758,0,0
546,-734,0,0,0,0,0,0,0,0,0,-1,1770,1758,0,0
553,-734,0,0,0,0,0,0,0,0,0,-1,1777,1758,0,0
560,-734,0,0,0,0,0,0,0,0,0,-1,1784,1758,0,0
567,-734,0,0,0,0,0,0,0,0,0,-1,1791,1758,0,0
574,-734,0,0,0,0,0,0,0,0,0,-1,1798,1758,0,0
581,-734,0,0,0,0,0,0,0,0,0,-1,1805,1758,0,0
588,-734,0,0,0,0,0,0,0,0,0,-1,1812,1758,0,0
595,-734,0,0,0,0,0,0,0,0,0,-1,1819,1758,0,0
602,-734,0,0,0,0,0,0,0,0,0,-1,1826,1758,0,0
609,-734,0,0,0,0,0,0,0,0,0,-1,1833,1758,0,0
616,-734,0,0,0,0,0,0,0,0,0,-1,1840,1758,0,0
623,-734,0,0,0,0,0,0,0,0,0,-1,1847,1758,0,0
630,-734,0,0,0,0,0,0,0,0,0,-1,1854,1758,0,0
637,-734,0,0,0,0,0,0,0,0,0,-1,1861,1758,0,0
644,-734,0,0,0,0,0,0,0,0,0,-1,1868,1758,0,0
651,-734,0,0,0,0,0,0,0,0,0,-1,1875,1758,0,0
658,-734,0,0,0,0,0,0,0,0,0,-1,1882,1758,0,0
665,-734,0,0,0,0,0,0,0,0,0,-1,1889,1758,0,0
672,-734,0,0,0,0,0,0,0,0,0,-1,1896,1758,0,0
679,-734,0,0,0,0,0,0,0,0,0,-1,1903,1758,0,0
686,-734,0,0,0,0,0,0,0,0,0,-1,1910,1758,0,0
693,-734,0,0,0,0,0,0,0,0,0,-1,1917,1758,0,0
700,-734,0,0,0,0,0,0,0,0,0,-1,1924,1758,0,0
707,-734,0,0,0,0,0,0,0,0,0,-1,1931,1758,0,0
714,-734,0,0,0,0,0,0,0,0,0,-1,1938,1758,0,0
721,-734,0,0,0,0,0,0,0,0,0,-1,1945,1758,0,0
728,-734,0,0,0,0,0,0,0,0,0,-1,1952,1758,0,0
735,-734,0,0,0,0,0,0,0,0,0,-1,1959,1758,0,0
742,-734,0,0,0,0,0,0,0,0,0,-1,1966,1758,0,0
749,-734,0,0,0,0,0,0,0,0,0,-1,1973,1758,0,0
756,-734,0,0,0,0,0,0,0,0,0,-1,1980,1758,0,0
763,-734,0,0,0,0,0,0,0,0,0,-1,1987,1758,0,0
770,-734,0,0,0,0,0,0,0,0,0,-1,1994,1758,0,0
777,-734,0,0,0,0,0,0,0,0,0,-1,2001,1758,0,0
784,-734,0,0,0,0,0,0,0,0,0,-1,2008,1758,0,0
791,-734,0,0,0,0,0,0,0,0,0,-1,2015,1758,0,0
798,-734,0,0,0,0,0,0,0,0,0,-1,2022,1758,0,0
805,-734,0,0,0,0,0,0,0,0,0,-1,2029,1758,0,0
812,-734,0,0,0,0,0,0,0,0,0,-1,2036,1758,0,0
-700,-741,0,0,0,0,0,0,0,0,0,-1,524,1765,0,0
-693,-741,0,0,0,0,0,0,0,0,0,-1,531,1765,0,0
-686,-741,0,0,0,0,0,0,0,0,0,-1,538,1765,0,0
-679,-741,0,0,0,0,0,0,0,0,0,-1,545,1765,0,0
-672,-741,0,0,0,0,0,0,0,0,0,-1,552,1765,0,0
-665,-741,0,0,0,0,0,0,0,0,0,-1,559,1765,0,0
-658,-741,0,0,0,0,0,0,0,0,0,-1,566,1765,0,0
-651,-741,0,0,0,0,0,0,0,0,0,-1,573,1765,0,0
-644,-741,0,0,0,0,0,0,0,0,0,-1,580,1765,0,0
-637,-741,0,0,0,0,0,0,0,0,0,-1,587,1765,0,0
-630,-741,0,0,0,0,0,0,0,0,0,-1,594,1765,0,0
-623,-741,0,0,0,0,0,0,0,0,0,-1,601,1765,0,0
-616,-741,0,0,0,0,0,0,0,0,0,-1,608,1765,0,0
-609,-741,0,0,0,0,0,0,0,0,0,-1,615,1765,0,0
-602,-741,0,0,0,0,0,0,0,0,0,-1,622,1765,0,0
-595,-741,0,0,0,0,0,0,0,0,0,-1,629,1765,0,0
-588,-741,0,0,0,0,0,0,0,0,0,-1,636,1765,0,0
-581,-741,0,0,0,0,0,0,0,0,0,-1,643,1765,0,0
-574,-741,0,0,0,0,0,0,0,0,0,-1,650,1765,0,0
-567,-741,0,0,0,0,0,0,0,0,0,-1,657,1765,0,0
-560,-741,0,0,0,0,0,0,0,0,0,-1,664,1765,0,0
-553,-741,0,0,0,0,0,0,0,0,0,-1,671,1765,0,0
-546,-741,0,0,0,0,0,0,0,0,0,-1,678,1765,0,0
-539,-741,0,0,0,0,0,0,0,0,0,-1,685,1765,0,0
-532,-741,0,0,0,0,0,0,0,0,0,-1,692,1765,0,0
-525,-741,0,0,0,0,0,0,0,0,0,-1,699,1765,0,0
-518,-741,0,0,0,0,0,0,0,0,0,-1,706,1765,0,0
-511,-741,0,0,0,0,0,0,0,0,0,-1,713,1765,0,0
-504,-741,0,0,0,0,0,0,0,0,0,-1,720,1765,0,0
-497,-741,0,0,0,0,0,0,0,0,0,-1,727,1765,0,0
-490,-741,0,0,0,0,0,0,0,0,0,-1,734,1765,0,0
-483,-741,0,0,0,0,0,0,0,0,0,-1,741,1765,0,0
-476,-741,0,0,0,0,0,0,0,0,0,-1,748,1765,0,0
-469,-741,0,0,0,0,0,0,0,0,0,-1,755,1765,0,0
-462,-741,0,0,0,0,0,0,0,0,0,-1,762,1765,0,0
-455,-741,0,0,0,0,0,0,0,0,0,-1,769,1765,0,0
-448,-741,0,0,0,0,0,0,0,0,0,-1,776,1765,0,0
-441,-741,0,0,0,0,0,0,0,0,0,-1,783,1765,0,0
-434,-741,0,0,0,0,0,0,0,0,0,-1,790,1765,0,0
-427,-741,0,0,0,0,0,0,0,0,0,-1,797,1765,0,0
-420,-741,0,0,0,0,0,0,0,0,0,-1,804,1765,0,0
-413,-741,0,0,0,0,0,0,0,0,0,-1,811,1765,0,0
-406,-741,0,0,0,0,0,0,0,0,0,-1,818,1765,0,0
-399,-741,0,0,0,0,0,0,0,0,0,-1,825,1765,0,0
-392,-741,0,0,0,0,0,0,0,0,0,-1,832,1765,0,0
-385,-741,0,0,0,0,0,0,0,0,0,-1,839,1765,0,0
-378,-741,0,0,0,0,0,0,0,0,0,-1,846,1765,0,0
-371,-741,0,0,0,0,0,0,0,0,0,-1,853,1765,0,0
-364,-741,0,0,0,0,0,0,0,0,0,-1,860,1765,0,0
-357,-741,0,0,0,0,0,0,0,0,0,-1,867,1765,0,0
-350,-741,0,0,0,0,0,0,0,0,0,-1,874,1765,0,0
-343,-741,0,0,0,0,0,0,0,0,0,-1,881,1765,0,0
-336,-741,0,0,0,0,0,0,0,0,0,-1,888,1765,0,0
-329,-741,0,0,0,0,0,0,0,0,0,-1,895,1765,0,0
-322,-741,0,0,0,0,0,0,0,0,0,-1,902,1765,0,0
-315,-741,0,0,0,0,0,0,0,0,0,-1,909,1765,0,0
-308,-741,0,0,0,0,0,0,0,0,0,-1,916,1765,0,0
-301,-741,0,0,0,0,0,0,0,0,0,-1,923,1765,0,0
-294,-741,0,0,0,0,0,0,0,0,0,-1,930,1765,0,0
-287,-741,0,0,0,0,0,0,0,0,0,-1,937,1765,0,0
-280,-741,0,0,0,0,0,0,0,0,0,-1,944,1765,0,0
-273,-741,0,0,0,0,0,0,0,0,0,-1,951,1765,0,0
-266,-741,0,0,0,0,0,0,0,0,0,-1,958,1765,0,0
-259,-741,0,0,0,0,0,0,0,0,0,-1,965,1765,0,0
-252,-741,0,0,0,0,0,0,0,0,0,-1,972,1765,0,0
-245,-741,0,0,0,0,0,0,0,0,0,-1,979,1765,0,0
-238,-741,5.22742,8.96448,0,0,0,0,0,0,0,-1,986,1765,5.22743,-8.96451
-231,-741,5.8396,8.90515,0,0,0,0,0,0,0,-1,993,1765,5.83959,-8.90517
-224,-741,6.37439,8.85596,0,0,0,0,0,0,0,-1,1000,1765,6.37438,-8.85594
-217,-741,6.78021,8.96521,0,0,0,0,0,0,0,-1,1007,1765,6.78021,-8.96518
-210,-741,7.24286,8.7926,0,0,0,0,0,0,0,-1,1014,1765,7.24288,-8.79266
-203,-741,8.78491,8.92944,0,0,0,0,0,0,0,-1,1021,1765,8.78494,-8.92946
-196,-741,9.46216,9.47375,0,0,0,0,0,0,0,-1,1028,1765,9.46219,-9.47373
-189,-741,2.59912,11.9658,0,0,0,0,0,0,0,-1,1035,1765,2.59913,-11.9658
-182,-741,3.12854,10.7032,0,0,0,0,0,0,0,-1,1042,1765,3.12857,-10.7033
-175,-741,3.6322,9.13147,0,0,0,0,0,0,0,-1,1049,1765,3.63218,-9.13149
-168,-741,4.06885,7.97266,0,0,0,0,0,0,0,-1,1056,1765,4.06885,-7.97269
-161,-741,4.46948,7.00818,0,0,0,0,0,0,0,-1,1063,1765,4.46948,-7.00819
-154,-741,-3.24292,10.8829,0,0,0,0,0,0,0,-1,1070,1765,-3.24297,-10.883
-147,-741,4.229,9.21167,0,0,0,0,0,0,0,-1,1077,1765,4.22896,-9.21167
-140,-741,4.13501,9.59058,0,0,0,0,0,0,0,-1,1084,1765,4.13507,-9.59056
-133,-741,3.89917,9.328,-0.00446895,0.00653478,-0.00118078,0.00666006,-0.00459423,-1.46509,0.00653405,0.0443601,1091,1765,3.89915,-9.32804
-126,-741,3.74207,9.59033,-0.00633896,0.00271714,-0.00382845,0.00411871,-0.00774052,-1.21986,0.00695255,0.0449119,1098,1765,3.74205,-9.59033
-119,-741,3.87207,10.182,-0.00741236,-0.00160562,-0.00563199,0.00182732,-0.0108453,-1.02339,0.00790999,0.0472985,1105,1765,3.87201,-10.182
-112,-741,4.01135,10.2008,-0.00788527,-0.00597992,-0.00712721,0.000257998,-0.0141232,-0.851838,0.00950263,0.0431227,1112,1765,4.01133,-10.2008
-105,-741,4.21143,10.1973,-0.00837835,-0.0104616,-0.00844071,-0.00091522,-0.0179247,-0.724007,0.0116567,0.0342412,1119,1765,4.21145,-10.1973
-98,-741,3.99707,10.3334,-0.00892918,-0.0144442,-0.00943642,-0.00185562,-0.0215178,-0.643246,0.0137684,0.0334893,1126,1765,3.99703,-10.3333
-91,-741,3.83716,10.3488,-0.00932769,-0.01775,-0.0100063,-0.00268249,-0.0243952,-0.586224,0.0154471,0.0409722,1133,1765,3.83712,-10.3488
-84,-741,3.86047,10.4578,-0.00933376,-0.019894,-0.0100973,-0.00321933,-0.0260085,-0.544489,0.0163717,0.044414,1140,1765,3.86043,-10.4578
-77,-741,3.89221,10.5261,-0.00881555,-0.0209607,-0.00976403,-0.00338975,-0.0263865,-0.507204,0.016577,0.0461739,1147,1765,3.89223,-10.5262
-70,-741,3.85059,10.5831,-0.00812869,-0.0205987,-0.00910805,-0.00332595,-0.0254015,-0.485254,0.0159417,0.0453897,1154,1765,3.85059,-10.5831
-63,-741,3.854,10.5874,-0.00660318,-0.0191311,-0.00751768,-0.0030818,-0.0226524,-0.43806,0.0141864,0.0475249,1161,1765,3.85396,-10.5874
-56,-741,3.75684,10.5662,0,0,0,0,0,0,0,-1,1168,1765,3.7568,-10.5662
-49,-741,3.849,10.8157,0,0,0,0,0,0,0,-1,1175,1765,3.84897,-10.8157
-42,-741,3.81726,10.7709,0,0,0,0,0,0,0,-1,1182,1765,3.81729,-10.7708
-35,-741,3.84192,10.892,0.000161334,-0.00572919,0.000436228,0.000193464,-0.00576132,0.0735214,0.00390697,0.015845,1189,1765,3.84189,-10.892
-28,-741,3.85266,10.9376,0.000320708,-0.00280723,0.00157204,0.000974238,-0.00346076,0.393986,0.00269135,0.0126414,1196,1765,3.85264,-10.9376
-21,-741,3.86938,10.9867,5.49409e-05,-0.00345189,0.00171462,0.000753947,-0.0041509,0.387105,0.0030498,0.0152065,1203,1765,3.86933,-10.9867
-14,-741,3.83789,11.0262,0.000383808,-0.00379472,0.00177697,0.00103729,-0.0044482,0.352399,0.00336495,0.0168519,1210,1765,3.83786,-11.0262
-7,-741,3.83545,11.0421,0.000845243,-0.00404191,0.00161949,0.00133319,-0.00452985,0.292644,0.00354877,0.0162554,1217,1765,3.83542,-11.0421
0,-741,3.8324,11.0754,0.00145129,-0.00403595,0.00117527,0.00169241,-0.00427708,0.202359,0.00355255,0.0160152,1224,1765,3.83237,-11.0755
7,-741,3.82593,11.1168,0.00171277,-0.00399295,0.000954815,0.00186831,-0.00414849,0.161484,0.00355598,0.0169207,1231,1765,3.82599,-11.1169
14,-741,3.8064,11.1616,0.00213997,-0.0038639,0.000628929,0.00220514,-0.00392908,0.10326,0.00358791,0.0148735,1238,1765,3.80637,-11.1616
21,-741,3.79993,11.1521,0.00255136,-0.003752,0.000398748,0.00257648,-0.00377712,0.0629254,0.00369002,0.0120192,1245,1765,3.79996,-11.1521
28,-741,3.79309,11.1885,0.00281251,-0.00361768,0.00028012,0.00282469,-0.00362986,0.0434535,0.00373619,0.0126352,1252,1765,3.79311,-11.1885
35,-741,3.80969,11.1987,0.00282576,-0.00356829,0.000215098,0.00283299,-0.00357552,0.0335897,0.00370822,0.0141082,1259,1765,3.80969,-11.1987
42,-741,3.8103,11.2103,0.00259416,-0.00345079,0.000197739,0.00260062,-0.00345725,0.0326648,0.00350915,0.0142765,1266,1765,3.81033,-11.2104
49,-741,3.78687,11.2338,0.0020672,-0.00373358,0.000418286,0.0020972,-0.00376358,0.0716149,0.00342901,0.00954069,1273,1765,3.78685,-11.2338
56,-741,3.76379,11.2373,0.00135963,-0.00414879,0.000679948,0.00144232,-0.00423148,0.121018,0.00340515,0.00966045,1280,1765,3.76375,-11.2373
63,-741,3.76733,11.2412,0.000600619,-0.0045969,0.000950026,0.000768825,-0.0047651,0.175239,0.00346159,0.0149527,1287,1765,3.76739,-11.2412
70,-741,3.75146,11.2632,0.00016756,-0.00498466,0.00113067,0.000404768,-0.00522187,0.206795,0.00362371,0.0168064,1294,1765,3.75151,-11.2631
77,-741,3.75793,11.3116,-0.000240665,-0.00538489,0.00111615,-8.93255e-06,-0.00561663,0.20471,0.00374144,0.0135071,1301,1765,3.75796,-11.3116
84,-741,3.75281,11.3005,-0.000843461,-0.00560861,0.00101683,-0.00063555,-0.00581652,0.201689,0.00368415,0.0148757,1308,1765,3.75282,-11.3005
91,-741,3.7345,11.3121,-0.00139265,-0.00554024,0.00084866,-0.00122572,-0.00570717,0.194219,0.00346915,0.0117479,1315,1765,3.73447,-11.3121
98,-741,3.74658,11.3092,-0.00157954,-0.00510769,0.000657251,-0.00146108,-0.00522615,0.178322,0.00311352,0.00995904,1322,1765,3.74659,-11.3092
105,-741,3.78625,11.2727,-0.00143879,-0.00465364,0.000379908,-0.0013945,-0.00469792,0.116043,0.00278599,0.010829,1329,1765,3.78628,-11.2727
112,-741,3.78784,11.2715,-0.00067402,-0.00383625,-0.000234862,-0.000656671,-0.0038536,-0.0737317,0.00238056,0.0107398,1336,1765,3.78789,-11.2714
119,-741,3.76917,11.2474,0.000117295,-0.00277497,-0.000844843,0.000345994,-0.00300367,-0.264364,0.00212718,0.013427,1343,1765,3.76921,-11.2475
126,-741,3.75989,11.1978,0.00100528,-0.0013754,-0.00157921,0.00179251,-0.00216264,-0.462448,0.00228684,0.0184103,1350,1765,3.75984,-11.1977
133,-741,3.76135,11.2106,0.00181628,0.000143342,-0.00223,0.00336153,-0.00140191,-0.60597,0.00282668,0.0143111,1357,1765,3.76137,-11.2105
140,-741,3.73975,11.1915,0.00257165,0.00173826,-0.00276045,0.00494667,-0.000636763,-0.710488,0.00352924,0.0116546,1364,1765,3.73969,-11.1915
147,-741,3.72717,11.1781,0.0031128,0.00321134,-0.00315201,0.00631446,9.67807e-06,-0.793213,0.00420642,0.0108639,1371,1765,3.7272,-11.1781
154,-741,3.71655,11.1874,0.00341154,0.00452956,-0.003514,0.00752874,0.000412361,-0.864277,0.00488751,0.00877286,1378,1765,3.71653,-11.1874
161,-741,3.72534,11.1687,0.0034751,0.00571686,-0.003645,0.00840942,0.000782534,-0.934565,0.0053645,0.0102596,1385,1765,3.7253,-11.1686
168,-741,3.74268,11.1404,0.00343768,0.00641612,-0.00348534,0.00871707,0.00113672,-0.987299,0.00547197,0.0198608,1392,1765,3.74266,-11.1403
175,-741,3.89832,10.978,0.00289805,0.00652046,-0.00330019,0.00847379,0.000944724,-1.03637,0.0053621,0.0430559,1399,1765,3.89834,-10.978
182,-741,3.7074,11.0586,0,0,0,0,0,0,0,-1,1406,1765,3.70736,-11.0586
189,-741,3.68591,11.0236,0,0,0,0,0,0,0,-1,1413,1765,3.6859,-11.0235
196,-741,3.6825,10.9835,0,0,0,0,0,0,0,-1,1420,1765,3.68247,-10.9835
203,-741,3.71948,10.856,0.00351001,-0.000575051,-0.00436644,0.00628803,-0.00335307,-0.566628,0.00565161,0.0344801,1427,1765,3.71954,-10.856
210,-741,3.64526,10.8765,0.0042731,-0.000929026,-0.00516943,0.00745896,-0.00411489,-0.552311,0.0067745,0.022688,1434,1765,3.64522,-10.8765
217,-741,3.6604,10.8457,0.00478971,-0.00154806,-0.00617787,0.00856402,-0.00532236,-0.548425,0.0080898,0.0202838,1441,1765,3.66037,-10.8457
224,-741,3.65894,10.7864,0.00482357,-0.00216613,-0.00722721,0.00935658,-0.00669914,-0.56019,0.009312,0.0262157,1448,1765,3.65899,-10.7864
231,-741,3.66943,10.7489,0.00472745,-0.00304099,-0.00812714,0.00985087,-0.00816441,-0.562479,0.0104163,0.0340904,1455,1765,3.66941,-10.7489
238,-741,3.75903,10.7697,0.00476819,-0.0036531,-0.00938168,0.0108408,-0.00972572,-0.574464,0.0118799,0.0383483,1462,1765,3.75899,-10.7697
245,-741,3.86816,10.6313,0.00437844,-0.00417355,-0.0105683,0.011503,-0.0112981,-0.593162,0.0131644,0.0440123,1469,1765,3.86814,-10.6313
252,-741,3.94434,10.4884,0.00349452,-0.00461865,-0.0115086,0.0116405,-0.0127647,-0.615956,0.0140953,0.0493212,1476,1765,3.94431,-10.4884
259,-741,4.01843,10.533,0,0,0,0,0,0,0,-1,1483,1765,4.01842,-10.533
266,-741,4.3302,10.8163,0,0,0,0,0,0,0,-1,1490,1765,4.33015,-10.8163
273,-741,3.87952,10.4268,0,0,0,0,0,0,0,-1,1497,1765,3.87947,-10.4268
280,-741,3.35974,3.5481,0,0,0,0,0,0,0,-1,1504,1765,3.35976,-3.5481
287,-741,3.57422,7.95532,0,0,0,0,0,0,0,-1,1511,1765,3.57418,-7.95532
294,-741,4.078,7.42786,0,0,0,0,0,0,0,-1,1518,1765,4.07796,-7.42782
301,-741,5.38013,8.82874,0,0,0,0,0,0,0,-1,1525,1765,5.38016,-8.82871
308,-741,3.32117,9.40039,0,0,0,0,0,0,0,-1,1532,1765,3.32113,-9.40044
315,-741,3.06226,8.83374,0,0,0,0,0,0,0,-1,1539,1765,3.06223,-8.83373
322,-741,4.2959,9.59692,0,0,0,0,0,0,0,-1,1546,1765,4.29588,-9.59689
329,-741,4.39771,10.4552,0,0,0,0,0,0,0,-1,1553,1765,4.39773,-10.4552
336,-741,4.57361,10.9913,0,0,0,0,0,0,0,-1,1560,1765,4.57358,-10.9914
343,-741,5.42297,5.93701,0,0,0,0,0,0,0,-1,1567,1765,5.42296,-5.937
350,-741,4.90369,5.44666,0,0,0,0,0,0,0,-1,1574,1765,4.90368,-5.44664
357,-741,4.02063,5.16626,0,0,0,0,0,0,0,-1,1581,1765,4.02058,-5.1662
364,-741,0,0,0,0,0,0,0,0,0,-1,1588,1765,0,0
371,-741,0,0,0,0,0,0,0,0,0,-1,1595,1765,0,0
378,-741,0,0,0,0,0,0,0,0,0,-1,1602,1765,0,0
385,-741,0,0,0,0,0,0,0,0,0,-1,1609,1765,0,0
392,-741,0,0,0,0,0,0,0,0,0,-1,1616,1765,0,0
399,-741,0,0,0,0,0,0,0,0,0,-1,1623,1765,0,0
406,-741,0,0,0,0,0,0,0,0,0,-1,1630,1765,0,0
413,-741,0,0,0,0,0,0,0,0,0,-1,1637,1765,0,0
420,-741,0,0,0,0,0,0,0,0,0,-1,1644,1765,0,0
427,-741,0,0,0,0,0,0,0,0,0,-1,1651,1765,0,0
434,-741,0,0,0,0,0,0,0,0,0,-1,1658,1765,0,0
441,-741,0,0,0,0,0,0,0,0,0,-1,1665,1765,0,0
448,-741,0,0,0,0,0,0,0,0,0,-1,1672,1765,0,0
455,-741,0,0,0,0,0,0,0,0,0,-1,1679,1765,0,0
462,-741,0,0,0,0,0,0,0,0,0,-1,1686,1765,0,0
469,-741,0,0,0,0,0,0,0,0,0,-1,1693,1765,0,0
476,-741,0,0,0,0,0,0,0,0,0,-1,1700,1765,0,0
483,-741,0,0,0,0,0,0,0,0,0,-1,1707,1765,0,0
490,-741,0,0,0,0,0,0,0,0,0,-1,1714,1765,0,0
497,-741,0,0,0,0,0,0,0,0,0,-1,1721,1765,0,0
504,-741,0,0,0,0,0,0,0,0,0,-1,1728,1765,0,0
511,-741,0,0,0,0,0,0,0,0,0,-1,1735,1765,0,0
518,-741,0,0,0,0,0,0,0,0,0,-1,1742,1765,0,0
525,-741,0,0,0,0,0,0,0,0,0,-1,1749,1765,0,0
532,-741,0,0,0,0,0,0,0,0,0,-1,1756,1765,0,0
539,-741,0,0,0,0,0,0,0,0,0,-1,1763,1765,0,0
546,-741,0,0,0,0,0,0,0,0,0,-1,1770,1765,0,0
553,-741,0,0,0,0,0,0,0,0,0,-1,1777,1765,0,0
560,-741,0,0,0,0,0,0,0,0,0,-1,1784,1765,0,0
567,-741,0,0,0,0,0,0,0,0,0,-1,1791,1765,0,0
574,-741,0,0,0,0,0,0,0,0,0,-1,1798,1765,0,0
581,-741,0,0,0,0,0,0,0,0,0,-1,1805,1765,0,0
588,-741,0,0,0,0,0,0,0,0,0,-1,1812,1765,0,0
595,-741,0,0,0,0,0,0,0,0,0,-1,1819,1765,0,0
602,-741,0,0,0,0,0,0,0,0,0,-1,1826,1765,0,0
609,-741,0,0,0,0,0,0,0,0,0,-1,1833,1765,0,0
616,-741,0,0,0,0,0,0,0,0,0,-1,1840,1765,0,0
623,-741,0,0,0,0,0,0,0,0,0,-1,1847,1765,0,0
630,-741,0,0,0,0,0,0,0,0,0,-1,1854,1765,0,0
637,-741,0,0,0,0,0,0,0,0,0,-1,1861,1765,0,0
644,-741,0,0,0,0,0,0,0,0,0,-1,1868,1765,0,0
651,-741,0,0,0,0,0,0,0,0,0,-1,1875,1765,0,0
658,-741,0,0,0,0,0,0,0,0,0,-1,1882,1765,0,0
665,-741,0,0,0,0,0,0,0,0,0,-1,1889,1765,0,0
672,-741,0,0,0,0,0,0,0,0,0,-1,1896,1765,0,0
679,-741,0,0,0,0,0,0,0,0,0,-1,1903,1765,0,0
686,-741,0,0,0,0,0,0,0,0,0,-1,1910,1765,0,0
693,-741,0,0,0,0,0,0,0,0,0,-1,1917,1765,0,0
700,-741,0,0,0,0,0,0,0,0,0,-1,1924,1765,0,0
707,-741,0,0,0,0,0,0,0,0,0,-1,1931,1765,0,0
714,-741,0,0,0,0,0,0,0,0,0,-1,1938,1765,0,0
721,-741,0,0,0,0,0,0,0,0,0,-1,1945,1765,0,0
728,-741,0,0,0,0,0,0,0,0,0,-1,1952,1765,0,0
735,-741,0,0,0,0,0,0,0,0,0,-1,1959,1765,0,0
742,-741,0,0,0,0,0,0,0,0,0,-1,1966,1765,0,0
749,-741,0,0,0,0,0,0,0,0,0,-1,1973,1765,0,0
756,-741,0,0,0,0,0,0,0,0,0,-1,1980,1765,0,0
763,-741,0,0,0,0,0,0,0,0,0,-1,1987,1765,0,0
770,-741,0,0,0,0,0,0,0,0,0,-1,1994,1765,0,0
777,-741,0,0,0,0,0,0,0,0,0,-1,2001,1765,0,0
784,-741,0,0,0,0,0,0,0,0,0,-1,2008,1765,0,0
791,-741,0,0,0,0,0,0,0,0,0,-1,2015,1765,0,0
798,-741,0,0,0,0,0,0,0,0,0,-1,2022,1765,0,0
805,-741,0,0,0,0,0,0,0,0,0,-1,2029,1765,0,0
812,-741,0,0,0,0,0,0,0,0,0,-1,2036,1765,0,0
-700,-748,0,0,0,0,0,0,0,0,0,-1,524,1772,0,0
-693,-748,0,0,0,0,0,0,0,0,0,-1,531,1772,0,0
-686,-748,0,0,0,0,0,0,0,0,0,-1,538,1772,0,0
-679,-748,0,0,0,0,0,0,0,0,0,-1,545,1772,0,0
-672,-748,0,0,0,0,0,0,0,0,0,-1,552,1772,0,0
-665,-748,0,0,0,0,0,0,0,0,0,-1,559,1772,0,0
-658,-748,0,0,0,0,0,0,0,0,0,-1,566,1772,0,0
-651,-748,0,0,0,0,0,0,0,0,0,-1,573,1772,0,0
-644,-748,0,0,0,0,0,0,0,0,0,-1,580,1772,0,0
-637,-748,0,0,0,0,0,0,0,0,0,-1,587,1772,0,0
-630,-748,0,0,0,0,0,0,0,0,0,-1,594,1772,0,0
-623,-748,0,0,0,0,0,0,0,0,0,-1,601,1772,0,0
-616,-748,0,0,0,0,0,0,0,0,0,-1,608,1772,0,0
-609,-748,0,0,0,0,0,0,0,0,0,-1,615,1772,0,0
-602,-748,0,0,0,0,0,0,0,0,0,-1,622,1772,0,0
-595,-748,0,0,0,0,0,0,0,0,0,-1,629,1772,0,0
-588,-748,0,0,0,0,0,0,0,0,0,-1,636,1772,0,0
-581,-748,0,0,0,0,0,0,0,0,0,-1,643,1772,0,0
-574,-748,0,0,0,0,0,0,0,0,0,-1,650,1772,0,0
-567,-748,0,0,0,0,0,0,0,0,0,-1,657,1772,0,0
-560,-748,0,0,0,0,0,0,0,0,0,-1,664,1772,0,0
-553,-748,0,0,0,0,0,0,0,0,0,-1,671,1772,0,0
-546,-748,0,0,0,0,0,0,0,0,0,-1,678,1772,0,0
-539,-748,0,0,0,0,0,0,0,0,0,-1,685,1772,0,0
-532,-748,0,0,0,0,0,0,0,0,0,-1,692,1772,0,0
-525,-748,0,0,0,0,0,0,0,0,0,-1,699,1772,0,0
-518,-748,0,0,0,0,0,0,0,0,0,-1,706,1772,0,0
-511,-748,0,0,0,0,0,0,0,0,0,-1,713,1772,0,0
-504,-748,0,0,0,0,0,0,0,0,0,-1,720,1772,0,0
-497,-748,0,0,0,0,0,0,0,0,0,-1,727,1772,0,0
-490,-748,0,0,0,0,0,0,0,0,0,-1,734,1772,0,0
-483,-748,0,0,0,0,0,0,0,0,0,-1,741,1772,0,0
-476,-748,0,0,0,0,0,0,0,0,0,-1,748,1772,0,0
-469,-748,0,0,0,0,0,0,0,0,0,-1,755,1772,0,0
-462,-748,0,0,0,0,0,0,0,0,0,-1,762,1772,0,0
-455,-748,0,0,0,0,0,0,0,0,0,-1,769,1772,0,0
-448,-748,0,0,0,0,0,0,0,0,0,-1,776,1772,0,0
-441,-748,0,0,0,0,0,0,0,0,0,-1,783,1772,0,0
-434,-748,0,0,0,0,0,0,0,0,0,-1,790,1772,0,0
-427,-748,0,0,0,0,0,0,0,0,0,-1,797,1772,0,0
-420,-748,0,0,0,0,0,0,0,0,0,-1,804,1772,0,0
-413,-748,0,0,0,0,0,0,0,0,0,-1,811,1772,0,0
-406,-748,0,0,0,0,0,0,0,0,0,-1,818,1772,0,0
-399,-748,0,0,0,0,0,0,0,0,0,-1,825,1772,0,0
-392,-748,0,0,0,0,0,0,0,0,0,-1,832,1772,0,0
-385,-748,0,0,0,0,0,0,0,0,0,-1,839,1772,0,0
-378,-748,0,0,0,0,0,0,0,0,0,-1,846,1772,0,0
-371,-748,0,0,0,0,0,0,0,0,0,-1,853,1772,0,0
-364,-748,0,0,0,0,0,0,0,0,0,-1,860,1772,0,0
-357,-748,0,0,0,0,0,0,0,0,0,-1,867,1772,0,0
-350,-748,0,0,0,0,0,0,0,0,0,-1,874,1772,0,0
-343,-748,0,0,0,0,0,0,0,0,0,-1,881,1772,0,0
-336,-748,0,0,0,0,0,0,0,0,0,-1,888,1772,0,0
-329,-748,0,0,0,0,0,0,0,0,0,-1,895,1772,0,0
-322,-748,0,0,0,0,0,0,0,0,0,-1,902,1772,0,0
-315,-748,0,0,0,0,0,0,0,0,0,-1,909,1772,0,0
-308,-748,0,0,0,0,0,0,0,0,0,-1,916,1772,0,0
-301,-748,0,0,0,0,0,0,0,0,0,-1,923,1772,0,0
-294,-748,0,0,0,0,0,0,0,0,0,-1,930,1772,0,0
-287,-748,0,0,0,0,0,0,0,0,0,-1,937,1772,0,0
-280,-748,0,0,0,0,0,0,0,0,0,-1,944,1772,0,0
-273,-748,0,0,0,0,0,0,0,0,0,-1,951,1772,0,0
-266,-748,0,0,0,0,0,0,0,0,0,-1,958,1772,0,0
-259,-748,0,0,0,0,0,0,0,0,0,-1,965,1772,0,0
-252,-748,0,0,0,0,0,0,0,0,0,-1,972,1772,0,0
-245,-748,0,0,0,0,0,0,0,0,0,-1,979,1772,0,0
-238,-748,0,0,0,0,0,0,0,0,0,-1,986,1772,0,0
-231,-748,0,0,0,0,0,0,0,0,0,-1,993,1772,0,0
-224,-748,0,0,0,0,0,0,0,0,0,-1,1000,1772,0,0
-217,-748,7.80432,8.96252,0,0,0,0,0,0,0,-1,1007,1772,7.80431,-8.96246
-210,-748,8.3371,9.15466,0,0,0,0,0,0,0,-1,1014,1772,8.33709,-9.1547
-203,-748,8.94604,9.58765,0,0,0,0,0,0,0,-1,1021,1772,8.94601,-9.58764
-196,-748,9.6189,10.1901,0,0,0,0,0,0,0,-1,1028,1772,9.61891,-10.19
-189,-748,3.41113,12.5135,0,0,0,0,0,0,0,-1,1035,1772,3.41114,-12.5136
-182,-748,3.6189,11.4628,0,0,0,0,0,0,0,-1,1042,1772,3.61887,-11.4628
-175,-748,3.73718,9.88293,0,0,0,0,0,0,0,-1,1049,1772,3.73717,-9.88289
-168,-748,4.1217,7.36377,0,0,0,0,0,0,0,-1,1056,1772,4.12169,-7.36378
-161,-748,-2.55762,10.576,0,0,0,0,0,0,0,-1,1063,1772,-2.55764,-10.5761
-154,-748,-3.82056,10.7404,0,0,0,0,0,0,0,-1,1070,1772,-3.82062,-10.7403
-147,-748,-4.87122,10.7748,0,0,0,0,0,0,0,-1,1077,1772,-4.87117,-10.7748
-140,-748,5.38965,8.78552,0,0,0,0,0,0,0,-1,1084,1772,5.38969,-8.78552
-133,-748,3.77014,8.78333,0,0,0,0,0,0,0,-1,1091,1772,3.77014,-8.78338
-126,-748,3.63,8.96228,0,0,0,0,0,0,0,-1,1098,1772,3.62998,-8.96226
-119,-748,4.84717,9.84863,0,0,0,0,0,0,0,-1,1105,1772,4.84716,-9.84859
-112,-748,4.73242,9.97473,-0.0114963,-0.0162779,-0.0113643,-0.00227399,-0.0255002,-0.681721,0.0162951,0.0445947,1112,1772,4.73238,-9.97478
-105,-748,4.63965,10.0879,-0.0122939,-0.0226445,-0.013091,-0.00339231,-0.0315461,-0.597162,0.0199961,0.0425688,1119,1772,4.63965,-10.0878
-98,-748,4.15234,10.2939,0,0,0,0,0,0,0,-1,1126,1772,4.15237,-10.294
-91,-748,3.78809,10.1036,0,0,0,0,0,0,0,-1,1133,1772,3.78803,-10.1036
-84,-748,3.92322,10.2388,0,0,0,0,0,0,0,-1,1140,1772,3.92324,-10.2388
-77,-748,3.9668,10.4276,0,0,0,0,0,0,0,-1,1147,1772,3.96684,-10.4277
-70,-748,3.96533,10.3513,0,0,0,0,0,0,0,-1,1154,1772,3.96535,-10.3513
-63,-748,3.95081,10.634,0,0,0,0,0,0,0,-1,1161,1772,3.95078,-10.634
-56,-748,3.05762,7.87817,0,0,0,0,0,0,0,-1,1168,1772,3.05768,-7.87822
-49,-748,3.04102,7.82471,0,0,0,0,0,0,0,-1,1175,1772,3.04096,-7.82468
-42,-748,3.62585,10.0979,0,0,0,0,0,0,0,-1,1182,1772,3.62584,-10.0979
-35,-748,3.91528,10.8525,0,0,0,0,0,0,0,-1,1189,1772,3.91529,-10.8525
-28,-748,3.87793,10.9794,-6.25848e-05,-0.004803,0.00289308,0.00130723,-0.00617281,0.442208,0.00461311,0.0458253,1196,1772,3.87787,-10.9794
-21,-748,3.88867,11.0072,-0.000535072,-0.00556884,0.00333967,0.00112992,-0.00723384,0.462487,0.00523997,0.0221213,1203,1772,3.88872,-11.0073
-14,-748,3.8689,11.0063,6.45359e-05,-0.00564576,0.00348649,0.00171577,-0.00729699,0.442313,0.00552609,0.0165043,1210,1772,3.86886,-11.0063
-7,-748,3.87305,11.0242,0.000729552,-0.00570663,0.0033083,0.00212676,-0.00710384,0.39961,0.00558155,0.0163709,1217,1772,3.87311,-11.0241
0,-748,3.87793,11.058,0.00160526,-0.00545804,0.00271442,0.00252789,-0.00638067,0.327649,0.00530127,0.0153334,1224,1772,3.87797,-11.058
7,-748,3.87305,11.0919,0.00203984,-0.00525799,0.00238926,0.00275248,-0.00597063,0.289866,0.00514927,0.0138052,1231,1772,3.87304,-11.0919
14,-748,3.84485,11.1356,0.00275482,-0.00496861,0.00187796,0.00318724,-0.00540103,0.226315,0.00501305,0.014488,1238,1772,3.84488,-11.1356
21,-748,3.83289,11.1514,0.00330615,-0.00482777,0.0015773,0.0036013,-0.00512293,0.184987,0.00506241,0.0108215,1245,1772,3.83294,-11.1513
28,-748,3.82959,11.1854,0.00356795,-0.004739,0.00146032,0.00381719,-0.00498824,0.169045,0.00509878,0.0112502,1252,1772,3.82961,-11.1854
35,-748,3.828,11.1982,0.00337079,-0.00481253,0.00146242,0.00362428,-0.00506602,0.171633,0.00504031,0.0122861,1259,1772,3.82802,-11.1982
42,-748,3.84253,11.208,0.00287709,-0.00483893,0.00153281,0.00317043,-0.00513228,0.189091,0.00483797,0.0134396,1266,1772,3.84255,-11.208
49,-748,3.81677,11.2244,0.00194143,-0.00536157,0.00191989,0.00241539,-0.00583553,0.24203,0.00489819,0.0101348,1273,1772,3.81673,-11.2243
56,-748,3.78589,11.2372,0.000763695,-0.00606574,0.00233865,0.00148777,-0.00678982,0.300251,0.00509539,0.00990091,1280,1772,3.78591,-11.2372
63,-748,3.77722,11.2344,-0.000340668,-0.00678235,0.00271346,0.000649982,-0.007773,0.350053,0.00541169,0.0124108,1287,1772,3.77719,-11.2344
70,-748,3.77734,11.2505,-0.000770592,-0.00741048,0.0029168,0.000328709,-0.00850978,0.360424,0.00578587,0.0136042,1294,1772,3.7773,-11.2504
77,-748,3.77087,11.2706,-0.000975312,-0.0080281,0.0026401,-9.65321e-05,-0.00890688,0.321324,0.005906,0.0122713,1301,1772,3.77093,-11.2707
84,-748,3.75842,11.3036,-0.00153571,-0.00840515,0.00239535,-0.000782948,-0.00915791,0.304487,0.00586175,0.0133622,1308,1772,3.75848,-11.3036
91,-748,3.74841,11.3104,-0.00193868,-0.00847681,0.00201966,-0.00136511,-0.00905037,0.276706,0.00563395,0.0105232,1315,1772,3.74843,-11.3104
98,-748,3.74316,11.2968,-0.00167923,-0.00798092,0.0015186,-0.00133237,-0.00832779,0.224558,0.00516534,0.0109111,1322,1772,3.74318,-11.2967
105,-748,3.74915,11.2762,-0.000889129,-0.00742166,0.000833046,-0.00078457,-0.00752622,0.124861,0.00477748,0.0120559,1329,1772,3.74915,-11.2763
112,-748,3.78857,11.2654,0.000775914,-0.00636761,-0.000370435,0.000795072,-0.00638676,-0.0516713,0.0045461,0.0136016,1336,1772,3.78855,-11.2654
119,-748,3.77319,11.2529,0.00245357,-0.00501772,-0.0015558,0.00276459,-0.00532874,-0.197314,0.00475022,0.0128011,1343,1772,3.77323,-11.2529
126,-748,3.78003,11.2388,0.0042529,-0.00321434,-0.00293023,0.00526546,-0.00422689,-0.332709,0.00549133,0.0150466,1350,1772,3.77997,-11.2388
133,-748,3.71985,11.2257,0.00593537,-0.00121459,-0.00419563,0.00787254,-0.00315176,-0.43255,0.00655652,0.00931642,1357,1772,3.71979,-11.2257
140,-748,3.71741,11.1903,0.00748642,0.000903277,-0.00527655,0.0104139,-0.00202419,-0.506526,0.00770644,0.0121446,1364,1772,3.71746,-11.1903
147,-748,3.74438,11.1841,0.00846552,0.00290603,-0.00600085,0.0122992,-0.00092763,-0.568499,0.0085255,0.013026,1371,1772,3.74437,-11.1841
154,-748,3.7157,11.1838,0.00899883,0.00471268,-0.00657771,0.0137738,-6.22631e-05,-0.627917,0.00920334,0.0110992,1378,1772,3.71572,-11.1839
161,-748,3.70886,11.1826,0.0091098,0.00651087,-0.00676555,0.0146995,0.000921124,-0.690518,0.00950754,0.018418,1385,1772,3.70888,-11.1826
168,-748,3.73889,11.1705,0,0,0,0,0,0,0,-1,1392,1772,3.73885,-11.1705
175,-748,3.8949,10.9098,0,0,0,0,0,0,0,-1,1399,1772,3.89486,-10.9098
182,-748,7.62476,10.3058,0,0,0,0,0,0,0,-1,1406,1772,7.62476,-10.3058
189,-748,6.15857,6.95898,0,0,0,0,0,0,0,-1,1413,1772,6.15862,-6.95896
196,-748,3.9425,8.46021,0,0,0,0,0,0,0,-1,1420,1772,3.9425,-8.46026
203,-748,3.69312,10.6312,0,0,0,0,0,0,0,-1,1427,1772,3.69306,-10.6313
210,-748,3.54919,10.8499,0,0,0,0,0,0,0,-1,1434,1772,3.54924,-10.8499
217,-748,3.6698,10.8458,0.0069751,-0.00239093,-0.00828567,0.0118096,-0.00722542,-0.528181,0.0110956,0.0393807,1441,1772,3.66985,-10.8459
224,-748,3.88086,10.8682,0.0071289,-0.00323575,-0.0096558,0.0129052,-0.00901203,-0.539109,0.0127203,0.0431457,1448,1772,3.88089,-10.8681
231,-748,3.93762,10.8269,0.00713686,-0.00439428,-0.0109443,0.0137414,-0.0109988,-0.542965,0.014313,0.0446289,1455,1772,3.93759,-10.8269
238,-748,3.78894,10.8903,0,0,0,0,0,0,0,-1,1462,1772,3.78893,-10.8902
245,-748,4.17529,10.7845,0,0,0,0,0,0,0,-1,1469,1772,4.17529,-10.7846
252,-748,4.2876,10.4052,0,0,0,0,0,0,0,-1,1476,1772,4.28765,-10.4051
259,-748,4.04822,10.3733,0,0,0,0,0,0,0,-1,1483,1772,4.04822,-10.3733
266,-748,3.45898,10.9454,0,0,0,0,0,0,0,-1,1490,1772,3.45897,-10.9454
273,-748,4.08313,10.0565,0,0,0,0,0,0,0,-1,1497,1772,4.08308,-10.0565
280,-748,5.2157,8.86853,0,0,0,0,0,0,0,-1,1504,1772,5.21574,-8.86854
287,-748,11.6401,6.0033,0,0,0,0,0,0,0,-1,1511,1772,11.6402,-6.00334
294,-748,4.29724,7.19885,0,0,0,0,0,0,0,-1,1518,1772,4.29729,-7.19883
301,-748,8.95642,7.54529,0,0,0,0,0,0,0,-1,1525,1772,8.95648,-7.54535
308,-748,7.4115,7.69897,0,0,0,0,0,0,0,-1,1532,1772,7.41155,-7.69895
315,-748,5.97766,7.90857,0,0,0,0,0,0,0,-1,1539,1772,5.97761,-7.90861
322,-748,4.04858,10.8451,0,0,0,0,0,0,0,-1,1546,1772,4.04864,-10.8451
329,-748,4.02124,11.4072,0,0,0,0,0,0,0,-1,1553,1772,4.02123,-11.4072
336,-748,4.12537,11.9,0,0,0,0,0,0,0,-1,1560,1772,4.12538,-11.9
343,-748,0,0,0,0,0,0,0,0,0,-1,1567,1772,0,0
350,-748,0,0,0,0,0,0,0,0,0,-1,1574,1772,0,0
357,-748,0,0,0,0,0,0,0,0,0,-1,1581,1772,0,0
364,-748,0,0,0,0,0,0,0,0,0,-1,1588,1772,0,0
371,-748,0,0,0,0,0,0,0,0,0,-1,1595,1772,0,0
378,-748,0,0,0,0,0,0,0,0,0,-1,1602,1772,0,0
385,-748,0,0,0,0,0,0,0,0,0,-1,1609,1772,0,0
392,-748,0,0,0,0,0,0,0,0,0,-1,1616,1772,0,0
399,-748,0,0,0,0,0,0,0,0,0,-1,1623,1772,0,0
406,-748,0,0,0,0,0,0,0,0,0,-1,1630,1772,0,0
413,-748,0,0,0,0,0,0,0,0,0,-1,1637,1772,0,0
420,-748,0,0,0,0,0,0,0,0,0,-1,1644,1772,0,0
427,-748,0,0,0,0,0,0,0,0,0,-1,1651,1772,0,0
434,-748,0,0,0,0,0,0,0,0,0,-1,1658,1772,0,0
441,-748,0,0,0,0,0,0,0,0,0,-1,1665,1772,0,0
448,-748,0,0,0,0,0,0,0,0,0,-1,1672,1772,0,0
455,-748,0,0,0,0,0,0,0,0,0,-1,1679,1772,0,0
462,-748,0,0,0,0,0,0,0,0,0,-1,1686,1772,0,0
469,-748,0,0,0,0,0,0,0,0,0,-1,1693,1772,0,0
476,-748,0,0,0,0,0,0,0,0,0,-1,1700,1772,0,0
483,-748,0,0,0,0,0,0,0,0,0,-1,1707,1772,0,0
490,-748,0,0,0,0,0,0,0,0,0,-1,1714,1772,0,0
497,-748,0,0,0,0,0,0,0,0,0,-1,1721,1772,0,0
504,-748,0,0,0,0,0,0,0,0,0,-1,1728,1772,0,0
511,-748,0,0,0,0,0,0,0,0,0,-1,1735,1772,0,0
518,-748,0,0,0,0,0,0,0,0,0,-1,1742,1772,0,0
525,-748,0,0,0,0,0,0,0,0,0,-1,1749,1772,0,0
532,-748,0,0,0,0,0,0,0,0,0,-1,1756,1772,0,0
539,-748,0,0,0,0,0,0,0,0,0,-1,1763,1772,0,0
546,-748,0,0,0,0,0,0,0,0,0,-1,1770,1772,0,0
553,-748,0,0,0,0,0,0,0,0,0,-1,1777,1772,0,0
560,-748,0,0,0,0,0,0,0,0,0,-1,1784,1772,0,0
567,-748,0,0,0,0,0,0,0,0,0,-1,1791,1772,0,0
574,-748,0,0,0,0,0,0,0,0,0,-1,1798,1772,0,0
581,-748,0,0,0,0,0,0,0,0,0,-1,1805,1772,0,0
588,-748,0,0,0,0,0,0,0,0,0,-1,1812,1772,0,0
595,-748,0,0,0,0,0,0,0,0,0,-1,1819,1772,0,0
602,-748,0,0,0,0,0,0,0,0,0,-1,1826,1772,0,0
609,-748,0,0,0,0,0,0,0,0,0,-1,1833,1772,0,0
616,-748,0,0,0,0,0,0,0,0,0,-1,1840,1772,0,0
623,-748,0,0,0,0,0,0,0,0,0,-1,1847,1772,0,0
630,-748,0,0,0,0,0,0,0,0,0,-1,1854,1772,0,0
637,-748,0,0,0,0,0,0,0,0,0,-1,1861,1772,0,0
644,-748,0,0,0,0,0,0,0,0,0,-1,1868,1772,0,0
651,-748,0,0,0,0,0,0,0,0,0,-1,1875,1772,0,0
658,-748,0,0,0,0,0,0,0,0,0,-1,1882,1772,0,0
665,-748,0,0,0,0,0,0,0,0,0,-1,1889,1772,0,0
672,-748,0,0,0,0,0,0,0,0,0,-1,1896,1772,0,0
679,-748,0,0,0,0,0,0,0,0,0,-1,1903,1772,0,0
686,-748,0,0,0,0,0,0,0,0,0,-1,1910,1772,0,0
693,-748,0,0,0,0,0,0,0,0,0,-1,1917,1772,0,0
700,-748,0,0,0,0,0,0,0,0,0,-1,1924,1772,0,0
707,-748,0,0,0,0,0,0,0,0,0,-1,1931,1772,0,0
714,-748,0,0,0,0,0,0,0,0,0,-1,1938,1772,0,0
721,-748,0,0,0,0,0,0,0,0,0,-1,1945,1772,0,0
728,-748,0,0,0,0,0,0,0,0,0,-1,1952,1772,0,0
735,-748,0,0,0,0,0,0,0,0,0,-1,1959,1772,0,0
742,-748,0,0,0,0,0,0,0,0,0,-1,1966,1772,0,0
749,-748,0,0,0,0,0,0,0,0,0,-1,1973,1772,0,0
756,-748,0,0,0,0,0,0,0,0,0,-1,1980,1772,0,0
763,-748,0,0,0,0,0,0,0,0,0,-1,1987,1772,0,0
770,-748,0,0,0,0,0,0,0,0,0,-1,1994,1772,0,0
777,-748,0,0,0,0,0,0,0,0,0,-1,2001,1772,0,0
784,-748,0,0,0,0,0,0,0,0,0,-1,2008,1772,0,0
791,-748,0,0,0,0,0,0,0,0,0,-1,2015,1772,0,0
798,-748,0,0,0,0,0,0,0,0,0,-1,2022,1772,0,0
805,-748,0,0,0,0,0,0,0,0,0,-1,2029,1772,0,0
812,-748,0,0,0,0,0,0,0,0,0,-1,2036,1772,0,0
-700,-755,0,0,0,0,0,0,0,0,0,-1,524,1779,0,0
-693,-755,0,0,0,0,0,0,0,0,0,-1,531,1779,0,0
-686,-755,0,0,0,0,0,0,0,0,0,-1,538,1779,0,0
-679,-755,0,0,0,0,0,0,0,0,0,-1,545,1779,0,0
-672,-755,0,0,0,0,0,0,0,0,0,-1,552,1779,0,0
-665,-755,0,0,0,0,0,0,0,0,0,-1,559,1779,0,0
-658,-755,0,0,0,0,0,0,0,0,0,-1,566,1779,0,0
-651,-755,0,0,0,0,0,0,0,0,0,-1,573,1779,0,0
-644,-755,0,0,0,0,0,0,0,0,0,-1,580,1779,0,0
-637,-755,0,0,0,0,0,0,0,0,0,-1,587,1779,0,0
-630,-755,0,0,0,0,0,0,0,0,0,-1,594,1779,0,0
-623,-755,0,0,0,0,0,0,0,0,0,-1,601,1779,0,0
-616,-755,0,0,0,0,0,0,0,0,0,-1,608,1779,0,0
-609,-755,0,0,0,0,0,0,0,0,0,-1,615,1779,0,0
-602,-755,0,0,0,0,0,0,0,0,0,-1,622,1779,0,0
-595,-755,0,0,0,0,0,0,0,0,0,-1,629,1779,0,0
-588,-755,0,0,0,0,0,0,0,0,0,-1,636,1779,0,0
-581,-755,0,0,0,0,0,0,0,0,0,-1,643,1779,0,0
-574,-755,0,0,0,0,0,0,0,0,0,-1,650,1779,0,0
-567,-755,0,0,0,0,0,0,0,0,0,-1,657,1779,0,0
-560,-755,0,0,0,0,0,0,0,0,0,-1,664,1779,0,0
-553,-755,0,0,0,0,0,0,0,0,0,-1,671,1779,0,0
-546,-755,0,0,0,0,0,0,0,0,0,-1,678,1779,0,0
-539,-755,0,0,0,0,0,0,0,0,0,-1,685,1779,0,0
-532,-755,0,0,0,0,0,0,0,0,0,-1,692,1779,0,0
-525,-755,0,0,0,0,0,0,0,0,0,-1,699,1779,0,0
-518,-755,0,0,0,0,0,0,0,0,0,-1,706,1779,0,0
-511,-755,0,0,0,0,0,0,0,0,0,-1,713,1779,0,0
-504,-755,0,0,0,0,0,0,0,0,0,-1,720,1779,0,0
-497,-755,0,0,0,0,0,0,0,0,0,-1,727,1779,0,0
-490,-755,0,0,0,0,0,0,0,0,0,-1,734,1779,0,0
-483,-755,0,0,0,0,0,0,0,0,0,-1,741,1779,0,0
-476,-755,0,0,0,0,0,0,0,0,0,-1,748,1779,0,0
-469,-755,0,0,0,0,0,0,0,0,0,-1,755,1779,0,0
-462,-755,0,0,0,0,0,0,0,0,0,-1,762,1779,0,0
-455,-755,0,0,0,0,0,0,0,0,0,-1,769,1779,0,0
-448,-755,0,0,0,0,0,0,0,0,0,-1,776,1779,0,0
-441,-755,0,0,0,0,0,0,0,0,0,-1,783,1779,0,0
-434,-755,0,0,0,0,0,0,0,0,0,-1,790,1779,0,0
-427,-755,0,0,0,0,0,0,0,0,0,-1,797,1779,0,0
-420,-755,0,0,0,0,0,0,0,0,0,-1,804,1779,0,0
-413,-755,0,0,0,0,0,0,0,0,0,-1,811,1779,0,0
-406,-755,0,0,0,0,0,0,0,0,0,-1,818,1779,0,0
-399,-755,0,0,0,0,0,0,0,0,0,-1,825,1779,0,0
-392,-755,0,0,0,0,0,0,0,0,0,-1,832,1779,0,0
-385,-755,0,0,0,0,0,0,0,0,0,-1,839,1779,0,0
-378,-755,0,0,0,0,0,0,0,0,0,-1,846,1779,0,0
-371,-755,0,0,0,0,0,0,0,0,0,-1,853,1779,0,0
-364,-755,0,0,0,0,0,0,0,0,0,-1,860,1779,0,0
-357,-755,0,0,0,0,0,0,0,0,0,-1,867,1779,0,0
-350,-755,0,0,0,0,0,0,0,0,0,-1,874,1779,0,0
-343,-755,0,0,0,0,0,0,0,0,0,-1,881,1779,0,0
-336,-755,0,0,0,0,0,0,0,0,0,-1,888,1779,0,0
-329,-755,0,0,0,0,0,0,0,0,0,-1,895,1779,0,0
-322,-755,0,0,0,0,0,0,0,0,0,-1,902,1779,0,0
-315,-755,0,0,0,0,0,0,0,0,0,-1,909,1779,0,0
-308,-755,0,0,0,0,0,0,0,0,0,-1,916,1779,0,0
-301,-755,0,0,0,0,0,0,0,0,0,-1,923,1779,0,0
-294,-755,0,0,0,0,0,0,0,0,0,-1,930,1779,0,0
-287,-755,0,0,0,0,0,0,0,0,0,-1,937,1779,0,0
-280,-755,0,0,0,0,0,0,0,0,0,-1,944,1779,0,0
-273,-755,0,0,0,0,0,0,0,0,0,-1,951,1779,0,0
-266,-755,0,0,0,0,0,0,0,0,0,-1,958,1779,0,0
-259,-755,0,0,0,0,0,0,0,0,0,-1,965,1779,0,0
-252,-755,0,0,0,0,0,0,0,0,0,-1,972,1779,0,0
-245,-755,0,0,0,0,0,0,0,0,0,-1,979,1779,0,0
-238,-755,0,0,0,0,0,0,0,0,0,-1,986,1779,0,0
-231,-755,0,0,0,0,0,0,0,0,0,-1,993,1779,0,0
-224,-755,0,0,0,0,0,0,0,0,0,-1,1000,1779,0,0
-217,-755,0,0,0,0,0,0,0,0,0,-1,1007,1779,0,0
-210,-755,0,0,0,0,0,0,0,0,0,-1,1014,1779,0,0
-203,-755,9.17322,10.2322,0,0,0,0,0,0,0,-1,1021,1779,9.17323,-10.2322
-196,-755,5.41724,13.5709,0,0,0,0,0,0,0,-1,1028,1779,5.41718,-13.571
-189,-755,4.85864,12.9271,0,0,0,0,0,0,0,-1,1035,1779,4.85866,-12.9272
-182,-755,4.35339,12.1057,0,0,0,0,0,0,0,-1,1042,1779,4.35337,-12.1057
-175,-755,3.88025,10.7515,0,0,0,0,0,0,0,-1,1049,1779,3.88029,-10.7515
-168,-755,3.58789,9.15454,0,0,0,0,0,0,0,-1,1056,1779,3.58791,-9.15456
-161,-755,-2.95337,11.1847,0,0,0,0,0,0,0,-1,1063,1779,-2.9534,-11.1847
-154,-755,-4.14355,11.0377,0,0,0,0,0,0,0,-1,1070,1779,-4.1436,-11.0378
-147,-755,-5.40332,10.7094,0,0,0,0,0,0,0,-1,1077,1779,-5.40328,-10.7094
-140,-755,6.6571,9.41382,0,0,0,0,0,0,0,-1,1084,1779,6.65706,-9.41378
-133,-755,6.52356,9.61902,0,0,0,0,0,0,0,-1,1091,1779,6.52352,-9.61906
-126,-755,6.14978,9.66614,0,0,0,0,0,0,0,-1,1098,1779,6.14982,-9.66616
-119,-755,5.29761,9.8269,0,0,0,0,0,0,0,-1,1105,1779,5.29765,-9.82688
-112,-755,4.87524,9.90857,-0.0162473,-0.0332834,-0.0170569,-0.00569985,-0.0438309,-0.553818,0.0275181,0.0426283,1112,1779,4.87525,-9.90862
-105,-755,4.90588,9.99634,-0.0173727,-0.0416995,-0.019205,-0.00680333,-0.0522689,-0.503109,0.0328141,0.0431354,1119,1779,4.90589,-9.99637
-98,-755,4.99084,10.2214,0,0,0,0,0,0,0,-1,1126,1779,4.99081,-10.2215
-91,-755,1.19263,9.63843,-0.0195089,-0.0559976,-0.0218949,-0.00925342,-0.0662531,-0.438047,0.0414302,0.0453337,1133,1779,1.19258,-9.63847
-84,-755,0.32251,8.17041,0,0,0,0,0,0,0,-1,1140,1779,0.322463,-8.17038
-77,-755,-0.369141,6.3689,0,0,0,0,0,0,0,-1,1147,1779,-0.369121,-6.36889
-70,-755,4.04346,9.93164,0,0,0,0,0,0,0,-1,1154,1779,4.04344,-9.93159
-63,-755,-1.36316,7.3147,0,0,0,0,0,0,0,-1,1161,1779,-1.36312,-7.31473
-56,-755,0.0483398,5.06079,0,0,0,0,0,0,0,-1,1168,1779,0.0483138,-5.06084
-49,-755,-1.32263,5.33716,0,0,0,0,0,0,0,-1,1175,1779,-1.32264,-5.33718
-42,-755,-2.03613,4.01672,0,0,0,0,0,0,0,-1,1182,1779,-2.0361,-4.01671
-35,-755,-2.72498,2.37476,0,0,0,0,0,0,0,-1,1189,1779,-2.72502,-2.37473
-28,-755,3.57336,11.156,0,0,0,0,0,0,0,-1,1196,1779,3.57334,-11.156
-21,-755,3.82886,11.0873,0,0,0,0,0,0,0,-1,1203,1779,3.8288,-11.0873
-14,-755,3.90967,10.9843,-0.000897233,-0.00839291,0.00572705,0.0021993,-0.0114894,0.495664,0.00848824,0.0346681,1210,1779,3.90962,-10.9842
-7,-755,3.89368,11.0096,2.69516e-05,-0.00822322,0.00547851,0.00275974,-0.010956,0.462703,0.00837684,0.0237112,1217,1779,3.89364,-11.0097
0,-755,3.89905,11.0491,0.00126979,-0.00769132,0.00468762,0.00327376,-0.0096953,0.40399,0.00778764,0.0136326,1224,1779,3.89901,-11.0491
7,-755,3.89941,11.0889,0.00198593,-0.00731155,0.00421639,0.00361323,-0.00893885,0.368333,0.00746121,0.0122092,1231,1779,3.89946,-11.0889
14,-755,3.8783,11.1285,0.00315901,-0.00683498,0.00346731,0.00424413,-0.0079201,0.303303,0.00712912,0.0109224,1238,1779,3.87836,-11.1285
21,-755,3.88062,11.1824,0.00387689,-0.0067299,0.00316439,0.0047492,-0.00760221,0.268984,0.00719422,0.0149284,1245,1779,3.88061,-11.1824
28,-755,3.88489,11.1956,0.00406295,-0.00680794,0.00316173,0.00491564,-0.00766063,0.263423,0.00731834,0.0178495,1252,1779,3.88484,-11.1956
35,-755,3.87256,11.2279,0.00349953,-0.00712222,0.00335912,0.00447269,-0.00809538,0.281987,0.00735598,0.0177042,1259,1779,3.87262,-11.2279
42,-755,3.85193,11.2139,0.00261311,-0.00740139,0.00363352,0.00379254,-0.00858082,0.313868,0.0073199,0.0142507,1266,1779,3.85196,-11.2138
49,-755,3.83801,11.222,0.00111297,-0.00827248,0.00430678,0.00278971,-0.00994922,0.37127,0.00773232,0.0098487,1273,1779,3.83797,-11.222
56,-755,3.81091,11.2462,-0.000674703,-0.00936581,0.00496773,0.0015799,-0.0116204,0.426052,0.00832371,0.00886265,1280,1779,3.81096,-11.2462
63,-755,3.80542,11.2455,-0.0022444,-0.0104023,0.00548308,0.00051054,-0.0131572,0.4656,0.00894654,0.00944596,1287,1779,3.80544,-11.2455
70,-755,3.81836,11.238,-0.00276904,-0.0112982,0.00571702,9.87709e-05,-0.014166,0.464949,0.00947709,0.0120446,1294,1779,3.81837,-11.238
77,-755,3.79504,11.245,-0.0029082,-0.0121216,0.00520267,-0.000565839,-0.014464,0.423039,0.00945967,0.0113202,1301,1779,3.795,-11.245
84,-755,3.78528,11.278,-0.00349995,-0.0126467,0.00476496,-0.00146874,-0.0146779,0.402955,0.0093343,0.0111187,1308,1779,3.78534,-11.278
91,-755,3.78149,11.2704,-0.00377916,-0.0128246,0.00408441,-0.00220783,-0.0143959,0.36726,0.00895254,0.0103006,1315,1779,3.78152,-11.2704
98,-755,3.76575,11.2667,-0.00301969,-0.0122008,0.00313038,-0.00205394,-0.0131665,0.299244,0.00817944,0.0121403,1322,1779,3.76572,-11.2667
105,-755,3.77502,11.2782,-0.00142129,-0.0114254,0.00185878,-0.00108709,-0.0117596,0.177895,0.00750364,0.0155245,1329,1779,3.77499,-11.2782
112,-755,3.75305,11.266,0.00141801,-0.00997962,-0.000147924,0.00141993,-0.00998154,-0.0129755,0.00717466,0.0195669,1336,1779,3.75308,-11.266
119,-755,3.72424,11.2552,0.00425852,-0.00816005,-0.00211422,0.00460859,-0.00851012,-0.164091,0.00768493,0.0195999,1343,1779,3.72423,-11.2552
126,-755,3.70825,11.299,0.00731249,-0.00575281,-0.00436421,0.00863616,-0.00707649,-0.294483,0.00908659,0.0223308,1350,1779,3.70828,-11.299
133,-755,3.60046,11.2562,0.0102368,-0.00304894,-0.00646188,0.0128613,-0.00567341,-0.385794,0.010966,0.0236496,1357,1779,3.60049,-11.2562
140,-755,3.58887,11.2115,0.0129675,-0.000222395,-0.00830128,0.0169746,-0.00422955,-0.449725,0.0129584,0.0286949,1364,1779,3.58882,-11.2116
147,-755,3.71167,11.2305,0.014604,0.00242146,-0.0094684,0.0197713,-0.00274578,-0.499563,0.014185,0.0279957,1371,1779,3.7117,-11.2304
154,-755,3.74841,11.202,0.0155465,0.00473075,-0.0103526,0.0218185,-0.0015413,-0.544707,0.0150857,0.0303547,1378,1779,3.74846,-11.202
161,-755,3.69312,11.2059,0,0,0,0,0,0,0,-1,1385,1779,3.69307,-11.2059
168,-755,3.98181,7.35901,0,0,0,0,0,0,0,-1,1392,1779,3.98184,-7.35904
175,-755,8.17065,1.34363,0,0,0,0,0,0,0,-1,1399,1779,8.1706,-1.34368
182,-755,8.09216,2.96924,0,0,0,0,0,0,0,-1,1406,1779,8.09213,-2.9693
189,-755,8.04419,4.68042,0,0,0,0,0,0,0,-1,1413,1779,8.04419,-4.68046
196,-755,7.74841,7.4541,0,0,0,0,0,0,0,-1,1420,1779,7.74842,-7.45405
203,-755,4.80554,6.88696,0,0,0,0,0,0,0,-1,1427,1779,4.80554,-6.88697
210,-755,3.81226,9.90247,0,0,0,0,0,0,0,-1,1434,1779,3.81222,-9.90248
217,-755,3.71912,10.8947,0,0,0,0,0,0,0,-1,1441,1779,3.71913,-10.8946
224,-755,4.10815,11.0184,0,0,0,0,0,0,0,-1,1448,1779,4.10814,-11.0184
231,-755,4.33264,10.9038,0,0,0,0,0,0,0,-1,1455,1779,4.3327,-10.9038
238,-755,4.11816,11.5162,0,0,0,0,0,0,0,-1,1462,1779,4.11817,-11.5162
245,-755,4.65613,11.13,0,0,0,0,0,0,0,-1,1469,1779,4.65615,-11.13
252,-755,5.19409,10.7437,0,0,0,0,0,0,0,-1,1476,1779,5.19413,-10.7437
259,-755,3.22913,10.627,0,0,0,0,0,0,0,-1,1483,1779,3.22908,-10.6269
266,-755,4.24548,10.5674,0,0,0,0,0,0,0,-1,1490,1779,4.24553,-10.5674
273,-755,5.42371,10.0529,0,0,0,0,0,0,0,-1,1497,1779,5.4237,-10.0529
280,-755,6.5282,9.25281,0,0,0,0,0,0,0,-1,1504,1779,6.52818,-9.25283
287,-755,7.72681,8.83936,0,0,0,0,0,0,0,-1,1511,1779,7.72678,-8.83941
294,-755,10.0045,6.88745,0,0,0,0,0,0,0,-1,1518,1779,10.0046,-6.88743
301,-755,8.78479,7.66235,0,0,0,0,0,0,0,-1,1525,1779,8.78476,-7.66232
308,-755,6.96912,8.09277,0,0,0,0,0,0,0,-1,1532,1779,6.96916,-8.09279
315,-755,5.29932,8.15173,0,0,0,0,0,0,0,-1,1539,1779,5.29937,-8.15173
322,-755,0,0,0,0,0,0,0,0,0,-1,1546,1779,0,0
329,-755,0,0,0,0,0,0,0,0,0,-1,1553,1779,0,0
336,-755,0,0,0,0,0,0,0,0,0,-1,1560,1779,0,0
343,-755,0,0,0,0,0,0,0,0,0,-1,1567,1779,0,0
350,-755,0,0,0,0,0,0,0,0,0,-1,1574,1779,0,0
357,-755,0,0,0,0,0,0,0,0,0,-1,1581,1779,0,0
364,-755,0,0,0,0,0,0,0,0,0,-1,1588,1779,0,0
371,-755,0,0,0,0,0,0,0,0,0,-1,1595,1779,0,0
378,-755,0,0,0,0,0,0,0,0,0,-1,1602,1779,0,0
385,-755,0,0,0,0,0,0,0,0,0,-1,1609,1779,0,0
392,-755,0,0,0,0,0,0,0,0,0,-1,1616,1779,0,0
399,-755,0,0,0,0,0,0,0,0,0,-1,1623,1779,0,0
406,-755,0,0,0,0,0,0,0,0,0,-1,1630,1779,0,0
413,-755,0,0,0,0,0,0,0,0,0,-1,1637,1779,0,0
420,-755,0,0,0,0,0,0,0,0,0,-1,1644,1779,0,0
427,-755,0,0,0,0,0,0,0,0,0,-1,1651,1779,0,0
434,-755,0,0,0,0,0,0,0,0,0,-1,1658,1779,0,0
441,-755,0,0,0,0,0,0,0,0,0,-1,1665,1779,0,0
448,-755,0,0,0,0,0,0,0,0,0,-1,1672,1779,0,0
455,-755,0,0,0,0,0,0,0,0,0,-1,1679,1779,0,0
462,-755,0,0,0,0,0,0,0,0,0,-1,1686,1779,0,0
469,-755,0,0,0,0,0,0,0,0,0,-1,1693,1779,0,0
476,-755,0,0,0,0,0,0,0,0,0,-1,1700,1779,0,0
483,-755,0,0,0,0,0,0,0,0,0,-1,1707,1779,0,0
490,-755,0,0,0,0,0,0,0,0,0,-1,1714,1779,0,0
497,-755,0,0,0,0,0,0,0,0,0,-1,1721,1779,0,0
504,-755,0,0,0,0,0,0,0,0,0,-1,1728,1779,0,0
511,-755,0,0,0,0,0,0,0,0,0,-1,1735,1779,0,0
518,-755,0,0,0,0,0,0,0,0,0,-1,1742,1779,0,0
525,-755,0,0,0,0,0,0,0,0,0,-1,1749,1779,0,0
532,-755,0,0,0,0,0,0,0,0,0,-1,1756,1779,0,0
539,-755,0,0,0,0,0,0,0,0,0,-1,1763,1779,0,0
546,-755,0,0,0,0,0,0,0,0,0,-1,1770,1779,0,0
553,-755,0,0,0,0,0,0,0,0,0,-1,1777,1779,0,0
560,-755,0,0,0,0,0,0,0,0,0,-1,1784,1779,0,0
567,-755,0,0,0,0,0,0,0,0,0,-1,1791,1779,0,0
574,-755,0,0,0,0,0,0,0,0,0,-1,1798,1779,0,0
581,-755,0,0,0,0,0,0,0,0,0,-1,1805,1779,0,0
588,-755,0,0,0,0,0,0,0,0,0,-1,1812,1779,0,0
595,-755,0,0,0,0,0,0,0,0,0,-1,1819,1779,0,0
602,-755,0,0,0,0,0,0,0,0,0,-1,1826,1779,0,0
609,-755,0,0,0,0,0,0,0,0,0,-1,1833,1779,0,0
616,-755,0,0,0,0,0,0,0,0,0,-1,1840,1779,0,0
623,-755,0,0,0,0,0,0,0,0,0,-1,1847,1779,0,0
630,-755,0,0,0,0,0,0,0,0,0,-1,1854,1779,0,0
637,-755,0,0,0,0,0,0,0,0,0,-1,1861,1779,0,0
644,-755,0,0,0,0,0,0,0,0,0,-1,1868,1779,0,0
651,-755,0,0,0,0,0,0,0,0,0,-1,1875,1779,0,0
658,-755,0,0,0,0,0,0,0,0,0,-1,1882,1779,0,0
665,-755,0,0,0,0,0,0,0,0,0,-1,1889,1779,0,0
672,-755,0,0,0,0,0,0,0,0,0,-1,1896,1779,0,0
679,-755,0,0,0,0,0,0,0,0,0,-1,1903,1779,0,0
686,-755,0,0,0,0,0,0,0,0,0,-1,1910,1779,0,0
693,-755,0,0,0,0,0,0,0,0,0,-1,1917,1779,0,0
700,-755,0,0,0,0,0,0,0,0,0,-1,1924,1779,0,0
707,-755,0,0,0,0,0,0,0,0,0,-1,1931,1779,0,0
714,-755,0,0,0,0,0,0,0,0,0,-1,1938,1779,0,0
721,-755,0,0,0,0,0,0,0,0,0,-1,1945,1779,0,0
728,-755,0,0,0,0,0,0,0,0,0,-1,1952,1779,0,0
735,-755,0,0,0,0,0,0,0,0,0,-1,1959,1779,0,0
742,-755,0,0,0,0,0,0,0,0,0,-1,1966,1779,0,0
749,-755,0,0,0,0,0,0,0,0,0,-1,1973,1779,0,0
756,-755,0,0,0,0,0,0,0,0,0,-1,1980,1779,0,0
763,-755,0,0,0,0,0,0,0,0,0,-1,1987,1779,0,0
770,-755,0,0,0,0,0,0,0,0,0,-1,1994,1779,0,0
777,-755,0,0,0,0,0,0,0,0,0,-1,2001,1779,0,0
784,-755,0,0,0,0,0,0,0,0,0,-1,2008,1779,0,0
791,-755,0,0,0,0,0,0,0,0,0,-1,2015,1779,0,0
798,-755,0,0,0,0,0,0,0,0,0,-1,2022,1779,0,0
805,-755,0,0,0,0,0,0,0,0,0,-1,2029,1779,0,0
812,-755,0,0,0,0,0,0,0,0,0,-1,2036,1779,0,0
-700,-762,0,0,0,0,0,0,0,0,0,-1,524,1786,0,0
-693,-762,0,0,0,0,0,0,0,0,0,-1,531,1786,0,0
-686,-762,0,0,0,0,0,0,0,0,0,-1,538,1786,0,0
-679,-762,0,0,0,0,0,0,0,0,0,-1,545,1786,0,0
-672,-762,0,0,0,0,0,0,0,0,0,-1,552,1786,0,0
-665,-762,0,0,0,0,0,0,0,0,0,-1,559,1786,0,0
-658,-762,0,0,0,0,0,0,0,0,0,-1,566,1786,0,0
-651,-762,0,0,0,0,0,0,0,0,0,-1,573,1786,0,0
-644,-762,0,0,0,0,0,0,0,0,0,-1,580,1786,0,0
-637,-762,0,0,0,0,0,0,0,0,0,-1,587,1786,0,0
-630,-762,0,0,0,0,0,0,0,0,0,-1,594,1786,0,0
-623,-762,0,0,0,0,0,0,0,0,0,-1,601,1786,0,0
-616,-762,0,0,0,0,0,0,0,0,0,-1,608,1786,0,0
-609,-762,0,0,0,0,0,0,0,0,0,-1,615,1786,0,0
-602,-762,0,0,0,0,0,0,0,0,0,-1,622,1786,0,0
-595,-762,0,0,0,0,0,0,0,0,0,-1,629,1786,0,0
-588,-762,0,0,0,0,0,0,0,0,0,-1,636,1786,0,0
-581,-762,0,0,0,0,0,0,0,0,0,-1,643,1786,0,0
-574,-762,0,0,0,0,0,0,0,0,0,-1,650,1786,0,0
-567,-762,0,0,0,0,0,0,0,0,0,-1,657,1786,0,0
-560,-762,0,0,0,0,0,0,0,0,0,-1,664,1786,0,0
-553,-762,0,0,0,0,0,0,0,0,0,-1,671,1786,0,0
-546,-762,0,0,0,0,0,0,0,0,0,-1,678,1786,0,0
-539,-762,0,0,0,0,0,0,0,0,0,-1,685,1786,0,0
-532,-762,0,0,0,0,0,0,0,0,0,-1,692,1786,0,0
-525,-762,0,0,0,0,0,0,0,0,0,-1,699,1786,0,0
-518,-762,0,0,0,0,0,0,0,0,0,-1,706,1786,0,0
-511,-762,0,0,0,0,0,0,0,0,0,-1,713,1786,0,0
-504,-762,0,0,0,0,0,0,0,0,0,-1,720,1786,0,0
-497,-762,0,0,0,0,0,0,0,0,0,-1,727,1786,0,0
-490,-762,0,0,0,0,0,0,0,0,0,-1,734,1786,0,0
-483,-762,0,0,0,0,0,0,0,0,0,-1,741,1786,0,0
-476,-762,0,0,0,0,0,0,0,0,0,-1,748,1786,0,0
-469,-762,0,0,0,0,0,0,0,0,0,-1,755,1786,0,0
-462,-762,0,0,0,0,0,0,0,0,0,-1,762,1786,0,0
-455,-762,0,0,0,0,0,0,0,0,0,-1,769,1786,0,0
-448,-762,0,0,0,0,0,0,0,0,0,-1,776,1786,0,0
-441,-762,0,0,0,0,0,0,0,0,0,-1,783,1786,0,0
-434,-762,0,0,0,0,0,0,0,0,0,-1,790,1786,0,0
-427,-762,0,0,0,0,0,0,0,0,0,-1,797,1786,0,0
-420,-762,0,0,0,0,0,0,0,0,0,-1,804,1786,0,0
-413,-762,0,0,0,0,0,0,0,0,0,-1,811,1786,0,0
-406,-762,0,0,0,0,0,0,0,0,0,-1,818,1786,0,0
-399,-762,0,0,0,0,0,0,0,0,0,-1,825,1786,0,0
-392,-762,0,0,0,0,0,0,0,0,0,-1,832,1786,0,0
-385,-762,0,0,0,0,0,0,0,0,0,-1,839,1786,0,0
-378,-762,0,0,0,0,0,0,0,0,0,-1,846,1786,0,0
-371,-762,0,0,0,0,0,0,0,0,0,-1,853,1786,0,0
-364,-762,0,0,0,0,0,0,0,0,0,-1,860,1786,0,0
-357,-762,0,0,0,0,0,0,0,0,0,-1,867,1786,0,0
-350,-762,0,0,0,0,0,0,0,0,0,-1,874,1786,0,0
-343,-762,0,0,0,0,0,0,0,0,0,-1,881,1786,0,0
-336,-762,0,0,0,0,0,0,0,0,0,-1,888,1786,0,0
-329,-762,0,0,0,0,0,0,0,0,0,-1,895,1786,0,0
-322,-762,0,0,0,0,0,0,0,0,0,-1,902,1786,0,0
-315,-762,0,0,0,0,0,0,0,0,0,-1,909,1786,0,0
-308,-762,0,0,0,0,0,0,0,0,0,-1,916,1786,0,0
-301,-762,0,0,0,0,0,0,0,0,0,-1,923,1786,0,0
-294,-762,0,0,0,0,0,0,0,0,0,-1,930,1786,0,0
-287,-762,0,0,0,0,0,0,0,0,0,-1,937,1786,0,0
-280,-762,0,0,0,0,0,0,0,0,0,-1,944,1786,0,0
-273,-762,0,0,0,0,0,0,0,0,0,-1,951,1786,0,0
-266,-762,0,0,0,0,0,0,0,0,0,-1,958,1786,0,0
-259,-762,0,0,0,0,0,0,0,0,0,-1,965,1786,0,0
-252,-762,0,0,0,0,0,0,0,0,0,-1,972,1786,0,0
-245,-762,0,0,0,0,0,0,0,0,0,-1,979,1786,0,0
-238,-762,0,0,0,0,0,0,0,0,0,-1,986,1786,0,0
-231,-762,0,0,0,0,0,0,0,0,0,-1,993,1786,0,0
-224,-762,0,0,0,0,0,0,0,0,0,-1,1000,1786,0,0
-217,-762,0,0,0,0,0,0,0,0,0,-1,1007,1786,0,0
-210,-762,0,0,0,0,0,0,0,0,0,-1,1014,1786,0,0
-203,-762,0,0,0,0,0,0,0,0,0,-1,1021,1786,0,0
-196,-762,0,0,0,0,0,0,0,0,0,-1,1028,1786,0,0
-189,-762,0,0,0,0,0,0,0,0,0,-1,1035,1786,0,0
-182,-762,4.44226,13.2462,0,0,0,0,0,0,0,-1,1042,1786,4.44227,-13.2462
-175,-762,4.07861,11.6385,0,0,0,0,0,0,0,-1,1049,1786,4.07866,-11.6386
-168,-762,3.71509,10.031,0,0,0,0,0,0,0,-1,1056,1786,3.71504,-10.031
-161,-762,-3.15735,11.7089,0,0,0,0,0,0,0,-1,1063,1786,-3.15736,-11.7088
-154,-762,-4.57129,10.9923,0,0,0,0,0,0,0,-1,1070,1786,-4.57132,-10.9923
-147,-762,-1.09119,4.58313,0,0,0,0,0,0,0,-1,1077,1786,-1.09124,-4.58313
-140,-762,4.99792,5.28589,0,0,0,0,0,0,0,-1,1084,1786,4.99793,-5.28587
-133,-762,6.52161,8.30859,0,0,0,0,0,0,0,-1,1091,1786,6.52163,-8.30863
-126,-762,6.25391,8.83728,0,0,0,0,0,0,0,-1,1098,1786,6.25388,-8.83727
-119,-762,5.51233,9.49365,0,0,0,0,0,0,0,-1,1105,1786,5.51231,-9.49359
-112,-762,5.16895,9.89172,0,0,0,0,0,0,0,-1,1112,1786,5.16889,-9.89178
-105,-762,5.27893,9.9751,0,0,0,0,0,0,0,-1,1119,1786,5.27897,-9.97508
-98,-762,1.67358,11.218,0,0,0,0,0,0,0,-1,1126,1786,1.67355,-11.2181
-91,-762,1.20752,10.2523,0,0,0,0,0,0,0,-1,1133,1786,1.20749,-10.2523
-84,-762,0.741455,9.28662,0,0,0,0,0,0,0,-1,1140,1786,0.741428,-9.28659
-77,-762,0.0256348,7.2218,0,0,0,0,0,0,0,-1,1147,1786,0.0255824,-7.22184
-70,-762,-1.15259,5.96057,0,0,0,0,0,0,0,-1,1154,1786,-1.15258,-5.96057
-63,-762,0.350098,6.29749,0,0,0,0,0,0,0,-1,1161,1786,0.350114,-6.29743
-56,-762,-0.578979,5.10254,0,0,0,0,0,0,0,-1,1168,1786,-0.578951,-5.10249
-49,-762,-2.04541,3.66321,0,0,0,0,0,0,0,-1,1175,1786,-2.0454,-3.66319
-42,-762,-2.23462,3.474,0,0,0,0,0,0,0,-1,1182,1786,-2.23459,-3.47399
-35,-762,-3.28992,1.68164,0,0,0,0,0,0,0,-1,1189,1786,-3.28998,-1.68164
-28,-762,-3.75378,1.37769,0,0,0,0,0,0,0,-1,1196,1786,-3.75373,-1.37767
-21,-762,3.50989,11.3092,0,0,0,0,0,0,0,-1,1203,1786,3.50993,-11.3092
-14,-762,3.36877,11.5276,-0.00280192,-0.0117565,0.00907972,0.0028444,-0.0174028,0.556339,0.012657,0.0484797,1210,1786,3.36872,-11.5275
-7,-762,3.67456,10.9768,-0.00162689,-0.0112407,0.00873478,0.0035363,-0.0164039,0.533855,0.0122855,0.0489594,1217,1786,3.67453,-10.9768
0,-762,3.84668,11.0382,6.05322e-05,-0.0103529,0.00774214,0.00418391,-0.0144763,0.489377,0.0113065,0.0348447,1224,1786,3.84672,-11.0382
7,-762,3.8772,11.1023,0.00125167,-0.00974608,0.00705765,0.00469975,-0.0131942,0.454453,0.010712,0.0206636,1231,1786,3.87714,-11.1023
14,-762,3.95154,11.1541,0.00313558,-0.00904844,0.00599373,0.00558976,-0.0115026,0.388633,0.0100632,0.0347985,1238,1786,3.95152,-11.154
21,-762,3.98267,11.1621,0.00422059,-0.00897659,0.00561047,0.00628333,-0.0110393,0.35232,0.0101261,0.0424777,1245,1786,3.98269,-11.1621
28,-762,3.94507,11.2557,0.00444174,-0.00924757,0.00567437,0.00648797,-0.0112938,0.346095,0.0103905,0.0402233,1252,1786,3.94502,-11.2558
35,-762,3.87085,11.2805,0.00353385,-0.009854,0.00605521,0.00586623,-0.0121864,0.367671,0.0106335,0.0403071,1259,1786,3.87088,-11.2806
42,-762,3.83923,11.2107,0.00222553,-0.0104726,0.00654333,0.0049938,-0.0132409,0.400233,0.0108808,0.0406055,1266,1786,3.83918,-11.2107
49,-762,3.81787,11.2245,7.12835e-05,-0.011777,0.00752988,0.0037281,-0.0154338,0.452094,0.011731,0.0329598,1273,1786,3.81787,-11.2245
56,-762,3.90674,11.2491,-0.00242894,-0.0133648,0.00844254,0.00216169,-0.0179554,0.498033,0.0127521,0.0215681,1280,1786,3.90675,-11.2491
63,-762,3.84253,11.2791,-0.00450569,-0.0147986,0.00906347,0.000770542,-0.0200749,0.527185,0.0136473,0.0201134,1287,1786,3.8425,-11.2791
70,-762,3.80737,11.2665,-0.00502739,-0.0160423,0.00926257,0.000241395,-0.0213111,0.517182,0.0142885,0.0196438,1294,1786,3.80736,-11.2665
77,-762,3.87781,11.2548,-0.00496042,-0.0171438,0.00835573,-0.000711556,-0.0213926,0.470422,0.0140306,0.0270499,1301,1786,3.8778,-11.2548
84,-762,3.95532,11.2161,-0.00552143,-0.0178988,0.00764368,-0.00187519,-0.021545,0.4451,0.0137809,0.0326505,1308,1786,3.95534,-11.2161
91,-762,4.01074,11.2179,-0.0055611,-0.0182909,0.0065411,-0.00279923,-0.0210528,0.399524,0.0132014,0.0380306,1315,1786,4.01074,-11.2179
98,-762,3.97961,11.3684,-0.00403814,-0.0175806,0.00494407,-0.00242526,-0.0191935,0.31534,0.0120688,0.0388648,1322,1786,3.97964,-11.3684
105,-762,3.87988,11.3225,-0.00123242,-0.0165794,0.00283731,-0.00072467,-0.0170872,0.177082,0.0111578,0.0378909,1329,1786,3.87994,-11.3225
112,-762,3.70239,11.3331,0.00328655,-0.0147017,-0.000269418,0.00329058,-0.0147057,-0.014973,0.011065,0.0413804,1336,1786,3.70238,-11.3332
119,-762,3.61426,11.3561,0.00779738,-0.0123456,-0.00332064,0.00833068,-0.0128789,-0.159242,0.0123389,0.0413854,1343,1786,3.61426,-11.3561
126,-762,3.67322,11.3721,0.0126093,-0.00927646,-0.00672052,0.0145082,-0.0111754,-0.275378,0.01487,0.0439558,1350,1786,3.67321,-11.3721
133,-762,3.75403,11.334,0.0172741,-0.00578771,-0.00991008,0.0209475,-0.00946113,-0.354974,0.0179691,0.0468175,1357,1786,3.75407,-11.334
140,-762,3.5343,10.5111,0.0216322,-0.00217902,-0.0127593,0.0271778,-0.00772462,-0.409999,0.0211685,0.0446306,1364,1786,3.53432,-10.5111
147,-762,3.71106,10.5759,0.0243089,0.00114886,-0.0145752,0.0313443,-0.0058865,-0.449708,0.0231096,0.0399971,1371,1786,3.7111,-10.576
154,-762,3.77527,11.2361,0,0,0,0,0,0,0,-1,1378,1786,3.77529,-11.2361
161,-762,7.93408,-0.126221,0,0,0,0,0,0,0,-1,1385,1786,7.93402,0.126232
168,-762,8.19287,0.880615,0,0,0,0,0,0,0,-1,1392,1786,8.19291,-0.880603
175,-762,8.33997,1.95947,0,0,0,0,0,0,0,-1,1399,1786,8.33997,-1.95942
182,-762,8.28418,3.56482,0,0,0,0,0,0,0,-1,1406,1786,8.28415,-3.56485
189,-762,8.21179,5.23389,0,0,0,0,0,0,0,-1,1413,1786,8.21183,-5.23383
196,-762,8.05969,6.95483,0,0,0,0,0,0,0,-1,1420,1786,8.05972,-6.9548
203,-762,7.88794,8.74133,0,0,0,0,0,0,0,-1,1427,1786,7.88797,-8.74137
210,-762,5.69043,6.71973,0,0,0,0,0,0,0,-1,1434,1786,5.69042,-6.71972
217,-762,3.28259,12.9219,0,0,0,0,0,0,0,-1,1441,1786,3.28256,-12.9219
224,-762,2.97473,11.9316,0,0,0,0,0,0,0,-1,1448,1786,2.97475,-11.9316
231,-762,4.83142,11.2694,0,0,0,0,0,0,0,-1,1455,1786,4.83141,-11.2695
238,-762,3.39148,9.62634,0,0,0,0,0,0,0,-1,1462,1786,3.39148,-9.62635
245,-762,5.20398,11.1837,0,0,0,0,0,0,0,-1,1469,1786,5.20397,-11.1837
252,-762,2.13416,6.62622,0,0,0,0,0,0,0,-1,1476,1786,2.13414,-6.62621
259,-762,4.67188,9.57422,0,0,0,0,0,0,0,-1,1483,1786,4.67187,-9.5742
266,-762,5.0321,10.1895,0,0,0,0,0,0,0,-1,1490,1786,5.03209,-10.1894
273,-762,6.76428,10.0492,0,0,0,0,0,0,0,-1,1497,1786,6.76431,-10.0492
280,-762,7.84058,9.63708,0,0,0,0,0,0,0,-1,1504,1786,7.84062,-9.63712
287,-762,10.739,7.04712,0,0,0,0,0,0,0,-1,1511,1786,10.739,-7.04717
294,-762,9.58179,7.32849,0,0,0,0,0,0,0,-1,1518,1786,9.58176,-7.32843
301,-762,8.4801,8.08313,0,0,0,0,0,0,0,-1,1525,1786,8.48013,-8.08309
308,-762,0,0,0,0,0,0,0,0,0,-1,1532,1786,0,0
315,-762,0,0,0,0,0,0,0,0,0,-1,1539,1786,0,0
322,-762,0,0,0,0,0,0,0,0,0,-1,1546,1786,0,0
329,-762,0,0,0,0,0,0,0,0,0,-1,1553,1786,0,0
336,-762,0,0,0,0,0,0,0,0,0,-1,1560,1786,0,0
343,-762,0,0,0,0,0,0,0,0,0,-1,1567,1786,0,0
350,-762,0,0,0,0,0,0,0,0,0,-1,1574,1786,0,0
357,-762,0,0,0,0,0,0,0,0,0,-1,1581,1786,0,0
364,-762,0,0,0,0,0,0,0,0,0,-1,1588,1786,0,0
371,-762,0,0,0,0,0,0,0,0,0,-1,1595,1786,0,0
378,-762,0,0,0,0,0,0,0,0,0,-1,1602,1786,0,0
385,-762,0,0,0,0,0,0,0,0,0,-1,1609,1786,0,0
392,-762,0,0,0,0,0,0,0,0,0,-1,1616,1786,0,0
399,-762,0,0,0,0,0,0,0,0,0,-1,1623,1786,0,0
406,-762,0,0,0,0,0,0,0,0,0,-1,1630,1786,0,0
413,-762,0,0,0,0,0,0,0,0,0,-1,1637,1786,0,0
420,-762,0,0,0,0,0,0,0,0,0,-1,1644,1786,0,0
427,-762,0,0,0,0,0,0,0,0,0,-1,1651,1786,0,0
434,-762,0,0,0,0,0,0,0,0,0,-1,1658,1786,0,0
441,-762,0,0,0,0,0,0,0,0,0,-1,1665,1786,0,0
448,-762,0,0,0,0,0,0,0,0,0,-1,1672,1786,0,0
455,-762,0,0,0,0,0,0,0,0,0,-1,1679,1786,0,0
462,-762,0,0,0,0,0,0,0,0,0,-1,1686,1786,0,0
469,-762,0,0,0,0,0,0,0,0,0,-1,1693,1786,0,0
476,-762,0,0,0,0,0,0,0,0,0,-1,1700,1786,0,0
483,-762,0,0,0,0,0,0,0,0,0,-1,1707,1786,0,0
490,-762,0,0,0,0,0,0,0,0,0,-1,1714,1786,0,0
497,-762,0,0,0,0,0,0,0,0,0,-1,1721,1786,0,0
504,-762,0,0,0,0,0,0,0,0,0,-1,1728,1786,0,0
511,-762,0,0,0,0,0,0,0,0,0,-1,1735,1786,0,0
518,-762,0,0,0,0,0,0,0,0,0,-1,1742,1786,0,0
525,-762,0,0,0,0,0,0,0,0,0,-1,1749,1786,0,0
532,-762,0,0,0,0,0,0,0,0,0,-1,1756,1786,0,0
539,-762,0,0,0,0,0,0,0,0,0,-1,1763,1786,0,0
546,-762,0,0,0,0,0,0,0,0,0,-1,1770,1786,0,0
553,-762,0,0,0,0,0,0,0,0,0,-1,1777,1786,0,0
560,-762,0,0,0,0,0,0,0,0,0,-1,1784,1786,0,0
567,-762,0,0,0,0,0,0,0,0,0,-1,1791,1786,0,0
574,-762,0,0,0,0,0,0,0,0,0,-1,1798,1786,0,0
581,-762,0,0,0,0,0,0,0,0,0,-1,1805,1786,0,0
588,-762,0,0,0,0,0,0,0,0,0,-1,1812,1786,0,0
595,-762,0,0,0,0,0,0,0,0,0,-1,1819,1786,0,0
602,-762,0,0,0,0,0,0,0,0,0,-1,1826,1786,0,0
609,-762,0,0,0,0,0,0,0,0,0,-1,1833,1786,0,0
616,-762,0,0,0,0,0,0,0,0,0,-1,1840,1786,0,0
623,-762,0,0,0,0,0,0,0,0,0,-1,1847,1786,0,0
630,-762,0,0,0,0,0,0,0,0,0,-1,1854,1786,0,0
637,-762,0,0,0,0,0,0,0,0,0,-1,1861,1786,0,0
644,-762,0,0,0,0,0,0,0,0,0,-1,1868,1786,0,0
651,-762,0,0,0,0,0,0,0,0,0,-1,1875,1786,0,0
658,-762,0,0,0,0,0,0,0,0,0,-1,1882,1786,0,0
665,-762,0,0,0,0,0,0,0,0,0,-1,1889,1786,0,0
672,-762,0,0,0,0,0,0,0,0,0,-1,1896,1786,0,0
679,-762,0,0,0,0,0,0,0,0,0,-1,1903,1786,0,0
686,-762,0,0,0,0,0,0,0,0,0,-1,1910,1786,0,0
693,-762,0,0,0,0,0,0,0,0,0,-1,1917,1786,0,0
700,-762,0,0,0,0,0,0,0,0,0,-1,1924,1786,0,0
707,-762,0,0,0,0,0,0,0,0,0,-1,1931,1786,0,0
714,-762,0,0,0,0,0,0,0,0,0,-1,1938,1786,0,0
721,-762,0,0,0,0,0,0,0,0,0,-1,1945,1786,0,0
728,-762,0,0,0,0,0,0,0,0,0,-1,1952,1786,0,0
735,-762,0,0,0,0,0,0,0,0,0,-1,1959,1786,0,0
742,-762,0,0,0,0,0,0,0,0,0,-1,1966,1786,0,0
749,-762,0,0,0,0,0,0,0,0,0,-1,1973,1786,0,0
756,-762,0,0,0,0,0,0,0,0,0,-1,1980,1786,0,0
763,-762,0,0,0,0,0,0,0,0,0,-1,1987,1786,0,0
770,-762,0,0,0,0,0,0,0,0,0,-1,1994,1786,0,0
777,-762,0,0,0,0,0,0,0,0,0,-1,2001,1786,0,0
784,-762,0,0,0,0,0,0,0,0,0,-1,2008,1786,0,0
791,-762,0,0,0,0,0,0,0,0,0,-1,2015,1786,0,0
798,-762,0,0,0,0,0,0,0,0,0,-1,2022,1786,0,0
805,-762,0,0,0,0,0,0,0,0,0,-1,2029,1786,0,0
812,-762,0,0,0,0,0,0,0,0,0,-1,2036,1786,0,0
-700,-769,0,0,0,0,0,0,0,0,0,-1,524,1793,0,0
-693,-769,0,0,0,0,0,0,0,0,0,-1,531,1793,0,0
-686,-769,0,0,0,0,0,0,0,0,0,-1,538,1793,0,0
-679,-769,0,0,0,0,0,0,0,0,0,-1,545,1793,0,0
-672,-769,0,0,0,0,0,0,0,0,0,-1,552,1793,0,0
-665,-769,0,0,0,0,0,0,0,0,0,-1,559,1793,0,0
-658,-769,0,0,0,0,0,0,0,0,0,-1,566,1793,0,0
-651,-769,0,0,0,0,0,0,0,0,0,-1,573,1793,0,0
-644,-769,0,0,0,0,0,0,0,0,0,-1,580,1793,0,0
-637,-769,0,0,0,0,0,0,0,0,0,-1,587,1793,0,0
-630,-769,0,0,0,0,0,0,0,0,0,-1,594,1793,0,0
-623,-769,0,0,0,0,0,0,0,0,0,-1,601,1793,0,0
-616,-769,0,0,0,0,0,0,0,0,0,-1,608,1793,0,0
-609,-769,0,0,0,0,0,0,0,0,0,-1,615,1793,0,0
-602,-769,0,0,0,0,0,0,0,0,0,-1,622,1793,0,0
-595,-769,0,0,0,0,0,0,0,0,0,-1,629,1793,0,0
-588,-769,0,0,0,0,0,0,0,0,0,-1,636,1793,0,0
-581,-769,0,0,0,0,0,0,0,0,0,-1,643,1793,0,0
-574,-769,0,0,0,0,0,0,0,0,0,-1,650,1793,0,0
-567,-769,0,0,0,0,0,0,0,0,0,-1,657,1793,0,0
-560,-769,0,0,0,0,0,0,0,0,0,-1,664,1793,0,0
-553,-769,0,0,0,0,0,0,0,0,0,-1,671,1793,0,0
-546,-769,0,0,0,0,0,0,0,0,0,-1,678,1793,0,0
-539,-769,0,0,0,0,0,0,0,0,0,-1,685,1793,0,0
-532,-769,0,0,0,0,0,0,0,0,0,-1,692,1793,0,0
-525,-769,0,0,0,0,0,0,0,0,0,-1,699,1793,0,0
-518,-769,0,0,0,0,0,0,0,0,0,-1,706,1793,0,0
-511,-769,0,0,0,0,0,0,0,0,0,-1,713,1793,0,0
-504,-769,0,0,0,0,0,0,0,0,0,-1,720,1793,0,0
-497,-769,0,0,0,0,0,0,0,0,0,-1,727,1793,0,0
-490,-769,0,0,0,0,0,0,0,0,0,-1,734,1793,0,0
-483,-769,0,0,0,0,0,0,0,0,0,-1,741,1793,0,0
-476,-769,0,0,0,0,0,0,0,0,0,-1,748,1793,0,0
-469,-769,0,0,0,0,0,0,0,0,0,-1,755,1793,0,0
-462,-769,0,0,0,0,0,0,0,0,0,-1,762,1793,0,0
-455,-769,0,0,0,0,0,0,0,0,0,-1,769,1793,0,0
-448,-769,0,0,0,0,0,0,0,0,0,-1,776,1793,0,0
-441,-769,0,0,0,0,0,0,0,0,0,-1,783,1793,0,0
-434,-769,0,0,0,0,0,0,0,0,0,-1,790,1793,0,0
-427,-769,0,0,0,0,0,0,0,0,0,-1,797,1793,0,0
-420,-769,0,0,0,0,0,0,0,0,0,-1,804,1793,0,0
-413,-769,0,0,0,0,0,0,0,0,0,-1,811,1793,0,0
-406,-769,0,0,0,0,0,0,0,0,0,-1,818,1793,0,0
-399,-769,0,0,0,0,0,0,0,0,0,-1,825,1793,0,0
-392,-769,0,0,0,0,0,0,0,0,0,-1,832,1793,0,0
-385,-769,0,0,0,0,0,0,0,0,0,-1,839,1793,0,0
-378,-769,0,0,0,0,0,0,0,0,0,-1,846,1793,0,0
-371,-769,0,0,0,0,0,0,0,0,0,-1,853,1793,0,0
-364,-769,0,0,0,0,0,0,0,0,0,-1,860,1793,0,0
-357,-769,0,0,0,0,0,0,0,0,0,-1,867,1793,0,0
-350,-769,0,0,0,0,0,0,0,0,0,-1,874,1793,0,0
-343,-769,0,0,0,0,0,0,0,0,0,-1,881,1793,0,0
-336,-769,0,0,0,0,0,0,0,0,0,-1,888,1793,0,0
-329,-769,0,0,0,0,0,0,0,0,0,-1,895,1793,0,0
-322,-769,0,0,0,0,0,0,0,0,0,-1,902,1793,0,0
-315,-769,0,0,0,0,0,0,0,0,0,-1,909,1793,0,0
-308,-769,0,0,0,0,0,0,0,0,0,-1,916,1793,0,0
-301,-769,0,0,0,0,0,0,0,0,0,-1,923,1793,0,0
-294,-769,0,0,0,0,0,0,0,0,0,-1,930,1793,0,0
-287,-769,0,0,0,0,0,0,0,0,0,-1,937,1793,0,0
-280,-769,0,0,0,0,0,0,0,0,0,-1,944,1793,0,0
-273,-769,0,0,0,0,0,0,0,0,0,-1,951,1793,0,0
-266,-769,0,0,0,0,0,0,0,0,0,-1,958,1793,0,0
-259,-769,0,0,0,0,0,0,0,0,0,-1,965,1793,0,0
-252,-769,0,0,0,0,0,0,0,0,0,-1,972,1793,0,0
-245,-769,0,0,0,0,0,0,0,0,0,-1,979,1793,0,0
-238,-769,0,0,0,0,0,0,0,0,0,-1,986,1793,0,0
-231,-769,0,0,0,0,0,0,0,0,0,-1,993,1793,0,0
-224,-769,0,0,0,0,0,0,0,0,0,-1,1000,1793,0,0
-217,-769,0,0,0,0,0,0,0,0,0,-1,1007,1793,0,0
-210,-769,0,0,0,0,0,0,0,0,0,-1,1014,1793,0,0
-203,-769,0,0,0,0,0,0,0,0,0,-1,1021,1793,0,0
-196,-769,0,0,0,0,0,0,0,0,0,-1,1028,1793,0,0
-189,-769,0,0,0,0,0,0,0,0,0,-1,1035,1793,0,0
-182,-769,0,0,0,0,0,0,0,0,0,-1,1042,1793,0,0
-175,-769,0,0,0,0,0,0,0,0,0,-1,1049,1793,0,0
-168,-769,0,0,0,0,0,0,0,0,0,-1,1056,1793,0,0
-161,-769,-3.39258,12.5125,0,0,0,0,0,0,0,-1,1063,1793,-3.39257,-12.5125
-154,-769,-0.813232,5.32874,0,0,0,0,0,0,0,-1,1070,1793,-0.813269,-5.32872
-147,-769,4.26587,4.7002,0,0,0,0,0,0,0,-1,1077,1793,4.26593,-4.70022
-140,-769,4.10376,5.28589,0,0,0,0,0,0,0,-1,1084,1793,4.10371,-5.28584
-133,-769,6.422,8.21777,0,0,0,0,0,0,0,-1,1091,1793,6.42198,-8.21773
-126,-769,5.75916,8.83643,0,0,0,0,0,0,0,-1,1098,1793,5.75917,-8.83644
-119,-769,6.32886,11.4741,0,0,0,0,0,0,0,-1,1105,1793,6.32882,-11.4741
-112,-769,5.29175,10.1808,0,0,0,0,0,0,0,-1,1112,1793,5.2918,-10.1808
-105,-769,3.05103,9.60181,0,0,0,0,0,0,0,-1,1119,1793,3.05098,-9.60185
-98,-769,1.7345,12.4449,0,0,0,0,0,0,0,-1,1126,1793,1.73446,-12.4449
-91,-769,1.20496,11.5605,-0.0342162,-0.125101,-0.038521,-0.0200861,-0.139231,-0.351575,0.0869027,0.0447816,1133,1793,1.2049,-11.5606
-84,-769,0.857544,10.744,-0.0351582,-0.132771,-0.0390113,-0.021483,-0.146446,-0.33716,0.0913158,0.0465075,1140,1793,0.857525,-10.744
-77,-769,0.665771,9.61877,0,0,0,0,0,0,0,-1,1147,1793,0.665754,-9.61882
-70,-769,0.99707,7.63843,0,0,0,0,0,0,0,-1,1154,1793,0.997071,-7.63837
-63,-769,-0.0517578,6.57178,0,0,0,0,0,0,0,-1,1161,1793,-0.0517467,-6.5718
-56,-769,-1.22949,5.21887,0,0,0,0,0,0,0,-1,1168,1793,-1.22948,-5.21891
-49,-769,-2.41443,3.95471,0,0,0,0,0,0,0,-1,1175,1793,-2.41446,-3.95471
-42,-769,-3.1991,2.64941,0,0,0,0,0,0,0,-1,1182,1793,-3.19914,-2.64944
-35,-769,-3.50183,1.73389,0,0,0,0,0,0,0,-1,1189,1793,-3.50189,-1.7339
-28,-769,-3.96985,1.14075,0,0,0,0,0,0,0,-1,1196,1793,-3.96985,-1.14078
-21,-769,3.54541,10.4323,0,0,0,0,0,0,0,-1,1203,1793,3.54539,-10.4322
-14,-769,2.79883,12.0947,0,0,0,0,0,0,0,-1,1210,1793,2.79887,-12.0947
-7,-769,3.48877,10.9628,0,0,0,0,0,0,0,-1,1217,1793,3.48873,-10.9627
0,-769,3.49292,11.2847,0,0,0,0,0,0,0,-1,1224,1793,3.49294,-11.2847
7,-769,3.67639,11.5375,0,0,0,0,0,0,0,-1,1231,1793,3.67638,-11.5375
14,-769,4.39624,11.1564,0,0,0,0,0,0,0,-1,1238,1793,4.39627,-11.1564
21,-769,4.07385,11.1498,0,0,0,0,0,0,0,-1,1245,1793,4.07389,-11.1498
28,-769,3.98706,11.3081,0,0,0,0,0,0,0,-1,1252,1793,3.98701,-11.3081
35,-769,3.73853,11.4766,0.00281401,-0.0131253,0.0100368,0.00766043,-0.0179717,0.449848,0.0151926,0.0465423,1259,1793,3.7385,-11.4765
42,-769,3.99939,11.4349,0.0009568,-0.0142678,0.0108243,0.00657753,-0.0198885,0.478944,0.0159113,0.0476598,1266,1793,3.99944,-11.4349
49,-769,4.59155,11.3632,-0.00202636,-0.0161727,0.0122144,0.00501503,-0.0232141,0.522949,0.0173905,0.0447303,1273,1793,4.59153,-11.3631
56,-769,3.94812,11.3811,0,0,0,0,0,0,0,-1,1280,1793,3.94814,-11.3812
63,-769,3.84338,11.3138,-0.00802458,-0.0203419,0.0141471,0.00124622,-0.0296127,0.580104,0.02017,0.0452289,1287,1793,3.84344,-11.3138
70,-769,3.74768,11.2374,-0.00844342,-0.0220192,0.0142555,0.00055779,-0.0310204,0.563201,0.0208687,0.0439,1294,1793,3.74774,-11.2374
77,-769,3.84229,11.1548,-0.00799974,-0.0234646,0.0127943,-0.00078281,-0.0306816,0.513585,0.0201985,0.0466275,1301,1793,3.84224,-11.1548
84,-769,4.16492,11.0673,-0.00838742,-0.0245138,0.0116927,-0.00224727,-0.0306539,0.483546,0.0197296,0.0454914,1308,1793,4.16494,-11.0673
91,-769,4.50806,11.0939,0,0,0,0,0,0,0,-1,1315,1793,4.50806,-11.0939
98,-769,4.03406,11.4661,-0.00514898,-0.0243912,0.007418,-0.00262132,-0.0269189,0.328407,0.0171391,0.0453862,1322,1793,4.03404,-11.4661
105,-769,3.71875,11.7782,-0.0004874,-0.0231023,0.00406854,0.00022228,-0.023812,0.172694,0.0159493,0.0448769,1329,1793,3.71876,-11.7782
112,-769,3.52319,11.6603,0.0064453,-0.0207238,-0.000584553,0.00645787,-0.0207364,-0.0215021,0.0164062,0.0454823,1336,1793,3.52317,-11.6602
119,-769,3.5199,11.3993,0.0133918,-0.0177399,-0.00518889,0.0142339,-0.018582,-0.160883,0.0190016,0.0435861,1343,1793,3.51992,-11.3993
126,-769,3.63538,11.4604,0,0,0,0,0,0,0,-1,1350,1793,3.63543,-11.4605
133,-769,4.63586,10.2646,0,0,0,0,0,0,0,-1,1357,1793,4.63585,-10.2647
140,-769,3.48328,9.98511,0,0,0,0,0,0,0,-1,1364,1793,3.48331,-9.98506
147,-769,3.80713,10.0741,0,0,0,0,0,0,0,-1,1371,1793,3.8071,-10.0741
154,-769,6.37561,1.00024,0,0,0,0,0,0,0,-1,1378,1793,6.37566,-1.00028
161,-769,6.57019,1.53223,0,0,0,0,0,0,0,-1,1385,1793,6.57019,-1.53226
168,-769,8.27637,0.756958,0,0,0,0,0,0,0,-1,1392,1793,8.27639,-0.756944
175,-769,8.47144,2.41174,0,0,0,0,0,0,0,-1,1399,1793,8.47147,-2.4118
182,-769,8.41479,4.05994,0,0,0,0,0,0,0,-1,1406,1793,8.41479,-4.05997
189,-769,8.25049,5.68433,0,0,0,0,0,0,0,-1,1413,1793,8.25054,-5.68428
196,-769,7.97729,7.42847,0,0,0,0,0,0,0,-1,1420,1793,7.9773,-7.42848
203,-769,7.96704,9.02502,0,0,0,0,0,0,0,-1,1427,1793,7.96709,-9.02499
210,-769,1.82837,7.81482,0,0,0,0,0,0,0,-1,1434,1793,1.82842,-7.81485
217,-769,3.27539,15.0372,0,0,0,0,0,0,0,-1,1441,1793,3.27541,-15.0373
224,-769,3.1051,13.2957,0,0,0,0,0,0,0,-1,1448,1793,3.10508,-13.2957
231,-769,2.73877,11.4291,0,0,0,0,0,0,0,-1,1455,1793,2.73873,-11.4291
238,-769,3.94336,7.16125,0,0,0,0,0,0,0,-1,1462,1793,3.94331,-7.16124
245,-769,3.97449,5.78943,0,0,0,0,0,0,0,-1,1469,1793,3.97448,-5.78944
252,-769,1.08972,6.7511,0,0,0,0,0,0,0,-1,1476,1793,1.08974,-6.75115
259,-769,1.76099,7.37598,0,0,0,0,0,0,0,-1,1483,1793,1.76101,-7.37595
266,-769,2.3844,8.43884,0,0,0,0,0,0,0,-1,1490,1793,2.38435,-8.4388
273,-769,3.10999,9.1925,0,0,0,0,0,0,0,-1,1497,1793,3.10995,-9.19251
280,-769,11.1288,8.04041,0,0,0,0,0,0,0,-1,1504,1793,11.1288,-8.04046
287,-769,0,0,0,0,0,0,0,0,0,-1,1511,1793,0,0
294,-769,0,0,0,0,0,0,0,0,0,-1,1518,1793,0,0
301,-769,0,0,0,0,0,0,0,0,0,-1,1525,1793,0,0
308,-769,0,0,0,0,0,0,0,0,0,-1,1532,1793,0,0
315,-769,0,0,0,0,0,0,0,0,0,-1,1539,1793,0,0
322,-769,0,0,0,0,0,0,0,0,0,-1,1546,1793,0,0
329,-769,0,0,0,0,0,0,0,0,0,-1,1553,1793,0,0
336,-769,0,0,0,0,0,0,0,0,0,-1,1560,1793,0,0
343,-769,0,0,0,0,0,0,0,0,0,-1,1567,1793,0,0
350,-769,0,0,0,0,0,0,0,0,0,-1,1574,1793,0,0
357,-769,0,0,0,0,0,0,0,0,0,-1,1581,1793,0,0
364,-769,0,0,0,0,0,0,0,0,0,-1,1588,1793,0,0
371,-769,0,0,0,0,0,0,0,0,0,-1,1595,1793,0,0
378,-769,0,0,0,0,0,0,0,0,0,-1,1602,1793,0,0
385,-769,0,0,0,0,0,0,0,0,0,-1,1609,1793,0,0
392,-769,0,0,0,0,0,0,0,0,0,-1,1616,1793,0,0
399,-769,0,0,0,0,0,0,0,0,0,-1,1623,1793,0,0
406,-769,0,0,0,0,0,0,0,0,0,-1,1630,1793,0,0
413,-769,0,0,0,0,0,0,0,0,0,-1,1637,1793,0,0
420,-769,0,0,0,0,0,0,0,0,0,-1,1644,1793,0,0
427,-769,0,0,0,0,0,0,0,0,0,-1,1651,1793,0,0
434,-769,0,0,0,0,0,0,0,0,0,-1,1658,1793,0,0
441,-769,0,0,0,0,0,0,0,0,0,-1,1665,1793,0,0
448,-769,0,0,0,0,0,0,0,0,0,-1,1672,1793,0,0
455,-769,0,0,0,0,0,0,0,0,0,-1,1679,1793,0,0
462,-769,0,0,0,0,0,0,0,0,0,-1,1686,1793,0,0
469,-769,0,0,0,0,0,0,0,0,0,-1,1693,1793,0,0
476,-769,0,0,0,0,0,0,0,0,0,-1,1700,1793,0,0
483,-769,0,0,0,0,0,0,0,0,0,-1,1707,1793,0,0
490,-769,0,0,0,0,0,0,0,0,0,-1,1714,1793,0,0
497,-769,0,0,0,0,0,0,0,0,0,-1,1721,1793,0,0
504,-769,0,0,0,0,0,0,0,0,0,-1,1728,1793,0,0
511,-769,0,0,0,0,0,0,0,0,0,-1,1735,1793,0,0
518,-769,0,0,0,0,0,0,0,0,0,-1,1742,1793,0,0
525,-769,0,0,0,0,0,0,0,0,0,-1,1749,1793,0,0
532,-769,0,0,0,0,0,0,0,0,0,-1,1756,1793,0,0
539,-769,0,0,0,0,0,0,0,0,0,-1,1763,1793,0,0
546,-769,0,0,0,0,0,0,0,0,0,-1,1770,1793,0,0
553,-769,0,0,0,0,0,0,0,0,0,-1,1777,1793,0,0
560,-769,0,0,0,0,0,0,0,0,0,-1,1784,1793,0,0
567,-769,0,0,0,0,0,0,0,0,0,-1,1791,1793,0,0
574,-769,0,0,0,0,0,0,0,0,0,-1,1798,1793,0,0
581,-769,0,0,0,0,0,0,0,0,0,-1,1805,1793,0,0
588,-769,0,0,0,0,0,0,0,0,0,-1,1812,1793,0,0
595,-769,0,0,0,0,0,0,0,0,0,-1,1819,1793,0,0
602,-769,0,0,0,0,0,0,0,0,0,-1,1826,1793,0,0
609,-769,0,0,0,0,0,0,0,0,0,-1,1833,1793,0,0
616,-769,0,0,0,0,0,0,0,0,0,-1,1840,1793,0,0
623,-769,0,0,0,0,0,0,0,0,0,-1,1847,1793,0,0
630,-769,0,0,0,0,0,0,0,0,0,-1,1854,1793,0,0
637,-769,0,0,0,0,0,0,0,0,0,-1,1861,1793,0,0
644,-769,0,0,0,0,0,0,0,0,0,-1,1868,1793,0,0
651,-769,0,0,0,0,0,0,0,0,0,-1,1875,1793,0,0
658,-769,0,0,0,0,0,0,0,0,0,-1,1882,1793,0,0
665,-769,0,0,0,0,0,0,0,0,0,-1,1889,1793,0,0
672,-769,0,0,0,0,0,0,0,0,0,-1,1896,1793,0,0
679,-769,0,0,0,0,0,0,0,0,0,-1,1903,1793,0,0
686,-769,0,0,0,0,0,0,0,0,0,-1,1910,1793,0,0
693,-769,0,0,0,0,0,0,0,0,0,-1,1917,1793,0,0
700,-769,0,0,0,0,0,0,0,0,0,-1,1924,1793,0,0
707,-769,0,0,0,0,0,0,0,0,0,-1,1931,1793,0,0
714,-769,0,0,0,0,0,0,0,0,0,-1,1938,1793,0,0
721,-769,0,0,0,0,0,0,0,0,0,-1,1945,1793,0,0
728,-769,0,0,0,0,0,0,0,0,0,-1,1952,1793,0,0
735,-769,0,0,0,0,0,0,0,0,0,-1,1959,1793,0,0
742,-769,0,0,0,0,0,0,0,0,0,-1,1966,1793,0,0
749,-769,0,0,0,0,0,0,0,0,0,-1,1973,1793,0,0
756,-769,0,0,0,0,0,0,0,0,0,-1,1980,1793,0,0
763,-769,0,0,0,0,0,0,0,0,0,-1,1987,1793,0,0
770,-769,0,0,0,0,0,0,0,0,0,-1,1994,1793,0,0
777,-769,0,0,0,0,0,0,0,0,0,-1,2001,1793,0,0
784,-769,0,0,0,0,0,0,0,0,0,-1,2008,1793,0,0
791,-769,0,0,0,0,0,0,0,0,0,-1,2015,1793,0,0
798,-769,0,0,0,0,0,0,0,0,0,-1,2022,1793,0,0
805,-769,0,0,0,0,0,0,0,0,0,-1,2029,1793,0,0
812,-769,0,0,0,0,0,0,0,0,0,-1,2036,1793,0,0
-700,-776,0,0,0,0,0,0,0,0,0,-1,524,1800,0,0
-693,-776,0,0,0,0,0,0,0,0,0,-1,531,1800,0,0
-686,-776,0,0,0,0,0,0,0,0,0,-1,538,1800,0,0
-679,-776,0,0,0,0,0,0,0,0,0,-1,545,1800,0,0
-672,-776,0,0,0,0,0,0,0,0,0,-1,552,1800,0,0
-665,-776,0,0,0,0,0,0,0,0,0,-1,559,1800,0,0
-658,-776,0,0,0,0,0,0,0,0,0,-1,566,1800,0,0
-651,-776,0,0,0,0,0,0,0,0,0,-1,573,1800,0,0
-644,-776,0,0,0,0,0,0,0,0,0,-1,580,1800,0,0
-637,-776,0,0,0,0,0,0,0,0,0,-1,587,1800,0,0
-630,-776,0,0,0,0,0,0,0,0,0,-1,594,1800,0,0
-623,-776,0,0,0,0,0,0,0,0,0,-1,601,1800,0,0
-616,-776,0,0,0,0,0,0,0,0,0,-1,608,1800,0,0
-609,-776,0,0,0,0,0,0,0,0,0,-1,615,1800,0,0
-602,-776,0,0,0,0,0,0,0,0,0,-1,622,1800,0,0
-595,-776,0,0,0,0,0,0,0,0,0,-1,629,1800,0,0
-588,-776,0,0,0,0,0,0,0,0,0,-1,636,1800,0,0
-581,-776,0,0,0,0,0,0,0,0,0,-1,643,1800,0,0
-574,-776,0,0,0,0,0,0,0,0,0,-1,650,1800,0,0
-567,-776,0,0,0,0,0,0,0,0,0,-1,657,1800,0,0
-560,-776,0,0,0,0,0,0,0,0,0,-1,664,1800,0,0
-553,-776,0,0,0,0,0,0,0,0,0,-1,671,1800,0,0
-546,-776,0,0,0,0,0,0,0,0,0,-1,678,1800,0,0
-539,-776,0,0,0,0,0,0,0,0,0,-1,685,1800,0,0
-532,-776,0,0,0,0,0,0,0,0,0,-1,692,1800,0,0
-525,-776,0,0,0,0,0,0,0,0,0,-1,699,1800,0,0
-518,-776,0,0,0,0,0,0,0,0,0,-1,706,1800,0,0
-511,-776,0,0,0,0,0,0,0,0,0,-1,713,1800,0,0
-504,-776,0,0,0,0,0,0,0,0,0,-1,720,1800,0,0
-497,-776,0,0,0,0,0,0,0,0,0,-1,727,1800,0,0
-490,-776,0,0,0,0,0,0,0,0,0,-1,734,1800,0,0
-483,-776,0,0,0,0,0,0,0,0,0,-1,741,1800,0,0
-476,-776,0,0,0,0,0,0,0,0,0,-1,748,1800,0,0
-469,-776,0,0,0,0,0,0,0,0,0,-1,755,1800,0,0
-462,-776,0,0,0,0,0,0,0,0,0,-1,762,1800,0,0
-455,-776,0,0,0,0,0,0,0,0,0,-1,769,1800,0,0
-448,-776,0,0,0,0,0,0,0,0,0,-1,776,1800,0,0
-441,-776,0,0,0,0,0,0,0,0,0,-1,783,1800,0,0
-434,-776,0,0,0,0,0,0,0,0,0,-1,790,1800,0,0
-427,-776,0,0,0,0,0,0,0,0,0,-1,797,1800,0,0
-420,-776,0,0,0,0,0,0,0,0,0,-1,804,1800,0,0
-413,-776,0,0,0,0,0,0,0,0,0,-1,811,1800,0,0
-406,-776,0,0,0,0,0,0,0,0,0,-1,818,1800,0,0
-399,-776,0,0,0,0,0,0,0,0,0,-1,825,1800,0,0
-392,-776,0,0,0,0,0,0,0,0,0,-1,832,1800,0,0
-385,-776,0,0,0,0,0,0,0,0,0,-1,839,1800,0,0
-378,-776,0,0,0,0,0,0,0,0,0,-1,846,1800,0,0
-371,-776,0,0,0,0,0,0,0,0,0,-1,853,1800,0,0
-364,-776,0,0,0,0,0,0,0,0,0,-1,860,1800,0,0
-357,-776,0,0,0,0,0,0,0,0,0,-1,867,1800,0,0
-350,-776,0,0,0,0,0,0,0,0,0,-1,874,1800,0,0
-343,-776,0,0,0,0,0,0,0,0,0,-1,881,1800,0,0
-336,-776,0,0,0,0,0,0,0,0,0,-1,888,1800,0,0
-329,-776,0,0,0,0,0,0,0,0,0,-1,895,1800,0,0
-322,-776,0,0,0,0,0,0,0,0,0,-1,902,1800,0,0
-315,-776,0,0,0,0,0,0,0,0,0,-1,909,1800,0,0
-308,-776,0,0,0,0,0,0,0,0,0,-1,916,1800,0,0
-301,-776,0,0,0,0,0,0,0,0,0,-1,923,1800,0,0
-294,-776,0,0,0,0,0,0,0,0,0,-1,930,1800,0,0
-287,-776,0,0,0,0,0,0,0,0,0,-1,937,1800,0,0
-280,-776,0,0,0,0,0,0,0,0,0,-1,944,1800,0,0
-273,-776,0,0,0,0,0,0,0,0,0,-1,951,1800,0,0
-266,-776,0,0,0,0,0,0,0,0,0,-1,958,1800,0,0
-259,-776,0,0,0,0,0,0,0,0,0,-1,965,1800,0,0
-252,-776,0,0,0,0,0,0,0,0,0,-1,972,1800,0,0
-245,-776,0,0,0,0,0,0,0,0,0,-1,979,1800,0,0
-238,-776,0,0,0,0,0,0,0,0,0,-1,986,1800,0,0
-231,-776,0,0,0,0,0,0,0,0,0,-1,993,1800,0,0
-224,-776,0,0,0,0,0,0,0,0,0,-1,1000,1800,0,0
-217,-776,0,0,0,0,0,0,0,0,0,-1,1007,1800,0,0
-210,-776,0,0,0,0,0,0,0,0,0,-1,1014,1800,0,0
-203,-776,0,0,0,0,0,0,0,0,0,-1,1021,1800,0,0
-196,-776,0,0,0,0,0,0,0,0,0,-1,1028,1800,0,0
-189,-776,0,0,0,0,0,0,0,0,0,-1,1035,1800,0,0
-182,-776,0,0,0,0,0,0,0,0,0,-1,1042,1800,0,0
-175,-776,0,0,0,0,0,0,0,0,0,-1,1049,1800,0,0
-168,-776,0,0,0,0,0,0,0,0,0,-1,1056,1800,0,0
-161,-776,0,0,0,0,0,0,0,0,0,-1,1063,1800,0,0
-154,-776,0,0,0,0,0,0,0,0,0,-1,1070,1800,0,0
-147,-776,0,0,0,0,0,0,0,0,0,-1,1077,1800,0,0
-140,-776,2.98499,5.20911,0,0,0,0,0,0,0,-1,1084,1800,2.98493,-5.2091
-133,-776,6.72363,9.35828,0,0,0,0,0,0,0,-1,1091,1800,6.72358,-9.35824
-126,-776,7.24695,13.6088,0,0,0,0,0,0,0,-1,1098,1800,7.247,-13.6087
-119,-776,6.21912,13.6016,0,0,0,0,0,0,0,-1,1105,1800,6.2191,-13.6016
-112,-776,5.14148,13.3198,0,0,0,0,0,0,0,-1,1112,1800,5.14149,-13.3199
-105,-776,4,12.9982,0,0,0,0,0,0,0,-1,1119,1800,3.99996,-12.9981
-98,-776,1.49365,13.6974,0,0,0,0,0,0,0,-1,1126,1800,1.4937,-13.6974
-91,-776,1.18811,12.9747,-0.0424832,-0.170736,-0.0473565,-0.0268924,-0.186327,-0.318046,0.116295,0.0470084,1133,1800,1.18815,-12.9747
-84,-776,0.895386,12.2875,-0.0437421,-0.180093,-0.0479162,-0.0285878,-0.195248,-0.306313,0.12176,0.046277,1140,1800,0.895385,-12.2874
-77,-776,0.5448,11.2938,0,0,0,0,0,0,0,-1,1147,1800,0.544827,-11.2939
-70,-776,-2.7771,5.02222,0,0,0,0,0,0,0,-1,1154,1800,-2.77711,-5.02221
-63,-776,-0.453613,6.84619,0,0,0,0,0,0,0,-1,1161,1800,-0.453608,-6.84617
-56,-776,-2.95715,5.41614,0,0,0,0,0,0,0,-1,1168,1800,-2.95718,-5.4161
-49,-776,-2.81018,4.39587,0,0,0,0,0,0,0,-1,1175,1800,-2.8102,-4.39592
-42,-776,-3.41272,3.0249,0,0,0,0,0,0,0,-1,1182,1800,-3.41269,-3.02488
-35,-776,-3.71753,1.63635,0,0,0,0,0,0,0,-1,1189,1800,-3.71755,-1.63631
-28,-776,-4.03979,0.716064,0,0,0,0,0,0,0,-1,1196,1800,-4.03977,-0.716055
-21,-776,1.77356,10.4634,0,0,0,0,0,0,0,-1,1203,1800,1.77354,-10.4633
-14,-776,2.10437,10.6187,0,0,0,0,0,0,0,-1,1210,1800,2.10438,-10.6187
-7,-776,2.56763,10.6722,0,0,0,0,0,0,0,-1,1217,1800,2.5676,-10.6722
0,-776,3.29358,11.6516,0,0,0,0,0,0,0,-1,1224,1800,3.29352,-11.6516
7,-776,4.22021,9.5647,0,0,0,0,0,0,0,-1,1231,1800,4.22024,-9.5647
14,-776,3.86646,9.58618,9.00805e-05,-0.0136871,0.0149784,0.00968797,-0.023285,0.569869,0.019569,0.0426612,1238,1800,3.86647,-9.58617
21,-776,3.59546,9.88184,0.00252946,-0.0139401,0.0143253,0.0108182,-0.0222288,0.52454,0.0194551,0.0436205,1245,1800,3.5954,-9.88182
28,-776,2.60474,11.255,0,0,0,0,0,0,0,-1,1252,1800,2.60471,-11.2551
35,-776,3.4436,11.4645,0.000932481,-0.0168346,0.0155687,0.00997388,-0.025876,0.526137,0.0213659,0.0462783,1259,1800,3.44358,-11.4645
42,-776,4.24402,11.6488,-0.00162157,-0.018736,0.016748,0.00862871,-0.0289863,0.549218,0.0227525,0.0441487,1266,1800,4.24405,-11.6488
49,-776,5.12,11.3823,-0.00562372,-0.0214466,0.0186305,0.00670552,-0.0337759,0.584611,0.0250533,0.0454463,1273,1800,5.11997,-11.3823
56,-776,5.11792,11.4181,0,0,0,0,0,0,0,-1,1280,1800,5.11794,-11.4181
63,-776,3.87195,11.3444,0,0,0,0,0,0,0,-1,1287,1800,3.87198,-11.3444
70,-776,3.72913,11.2726,0,0,0,0,0,0,0,-1,1294,1800,3.72908,-11.2726
77,-776,3.90527,11.1094,0,0,0,0,0,0,0,-1,1301,1800,3.90523,-11.1094
84,-776,4.48938,11.2321,-0.0123654,-0.0325035,0.0171145,-0.00257765,-0.0422912,0.519499,0.0273754,0.0476512,1308,1800,4.48943,-11.2321
91,-776,3.90674,11.4237,-0.0109945,-0.0335291,0.0145468,-0.00386169,-0.0406618,0.455883,0.0259167,0.0477528,1315,1800,3.90676,-11.4237
98,-776,3.60168,11.7866,-0.00630043,-0.0326143,0.0106133,-0.00255328,-0.0363614,0.339399,0.0234363,0.0493878,1322,1800,3.60169,-11.7866
105,-776,3.38,11.9843,0.00108626,-0.0309614,0.00549827,0.00200332,-0.0318785,0.165271,0.0219506,0.0475063,1329,1800,3.38004,-11.9843
112,-776,3.15271,11.8961,0.0113492,-0.0280302,-0.00123899,0.0113881,-0.0280692,-0.0314215,0.0234495,0.0437958,1336,1800,3.15276,-11.8962
119,-776,3.46545,11.4269,0.0217198,-0.0243526,-0.00798696,0.0230651,-0.025698,-0.166872,0.028167,0.041166,1343,1800,3.46544,-11.4269
126,-776,3.80151,10.8734,0.0326187,-0.0197164,-0.015183,0.0367045,-0.0238022,-0.262875,0.0351973,0.0454364,1350,1800,3.80149,-10.8734
133,-776,4.1001,10.4836,0,0,0,0,0,0,0,-1,1357,1800,4.10005,-10.4836
140,-776,4.39331,10.0631,0,0,0,0,0,0,0,-1,1364,1800,4.39332,-10.0631
147,-776,6.46301,-0.617188,0,0,0,0,0,0,0,-1,1371,1800,6.46305,0.61724
154,-776,6.43774,0.344116,0,0,0,0,0,0,0,-1,1378,1800,6.43776,-0.344162
161,-776,6.50293,1.1731,0,0,0,0,0,0,0,-1,1385,1800,6.5029,-1.17313
168,-776,8.44971,1.22913,0,0,0,0,0,0,0,-1,1392,1800,8.44974,-1.22915
175,-776,8.61523,2.87061,0,0,0,0,0,0,0,-1,1399,1800,8.6152,-2.87063
182,-776,8.54065,4.60645,0,0,0,0,0,0,0,-1,1406,1800,8.5407,-4.60643
189,-776,8.35303,6.28223,0,0,0,0,0,0,0,-1,1413,1800,8.35297,-6.28225
196,-776,8.0387,8.21704,0,0,0,0,0,0,0,-1,1420,1800,8.03865,-8.217
203,-776,7.91736,9.79919,0,0,0,0,0,0,0,-1,1427,1800,7.91735,-9.79922
210,-776,7.35693,11.3057,0,0,0,0,0,0,0,-1,1434,1800,7.35692,-11.3057
217,-776,1.48315,8.46082,0,0,0,0,0,0,0,-1,1441,1800,1.48314,-8.46081
224,-776,3.09253,14.9313,0,0,0,0,0,0,0,-1,1448,1800,3.09254,-14.9313
231,-776,4.26697,8.9408,0,0,0,0,0,0,0,-1,1455,1800,4.26698,-8.94077
238,-776,4.06323,7.35266,0,0,0,0,0,0,0,-1,1462,1800,4.06325,-7.35271
245,-776,-0.578613,6.22168,0,0,0,0,0,0,0,-1,1469,1800,-0.578634,-6.22162
252,-776,0.0723877,6.86108,0,0,0,0,0,0,0,-1,1476,1800,0.0724335,-6.86106
259,-776,1.33936,7.49463,0,0,0,0,0,0,0,-1,1483,1800,1.3393,-7.49465
266,-776,0,0,0,0,0,0,0,0,0,-1,1490,1800,0,0
273,-776,0,0,0,0,0,0,0,0,0,-1,1497,1800,0,0
280,-776,0,0,0,0,0,0,0,0,0,-1,1504,1800,0,0
287,-776,0,0,0,0,0,0,0,0,0,-1,1511,1800,0,0
294,-776,0,0,0,0,0,0,0,0,0,-1,1518,1800,0,0
301,-776,0,0,0,0,0,0,0,0,0,-1,1525,1800,0,0
308,-776,0,0,0,0,0,0,0,0,0,-1,1532,1800,0,0
315,-776,0,0,0,0,0,0,0,0,0,-1,1539,1800,0,0
322,-776,0,0,0,0,0,0,0,0,0,-1,1546,1800,0,0
329,-776,0,0,0,0,0,0,0,0,0,-1,1553,1800,0,0
336,-776,0,0,0,0,0,0,0,0,0,-1,1560,1800,0,0
343,-776,0,0,0,0,0,0,0,0,0,-1,1567,1800,0,0
350,-776,0,0,0,0,0,0,0,0,0,-1,1574,1800,0,0
357,-776,0,0,0,0,0,0,0,0,0,-1,1581,1800,0,0
364,-776,0,0,0,0,0,0,0,0,0,-1,1588,1800,0,0
371,-776,0,0,0,0,0,0,0,0,0,-1,1595,1800,0,0
378,-776,0,0,0,0,0,0,0,0,0,-1,1602,1800,0,0
385,-776,0,0,0,0,0,0,0,0,0,-1,1609,1800,0,0
392,-776,0,0,0,0,0,0,0,0,0,-1,1616,1800,0,0
399,-776,0,0,0,0,0,0,0,0,0,-1,1623,1800,0,0
406,-776,0,0,0,0,0,0,0,0,0,-1,1630,1800,0,0
413,-776,0,0,0,0,0,0,0,0,0,-1,1637,1800,0,0
420,-776,0,0,0,0,0,0,0,0,0,-1,1644,1800,0,0
427,-776,0,0,0,0,0,0,0,0,0,-1,1651,1800,0,0
434,-776,0,0,0,0,0,0,0,0,0,-1,1658,1800,0,0
441,-776,0,0,0,0,0,0,0,0,0,-1,1665,1800,0,0
448,-776,0,0,0,0,0,0,0,0,0,-1,1672,1800,0,0
455,-776,0,0,0,0,0,0,0,0,0,-1,1679,1800,0,0
462,-776,0,0,0,0,0,0,0,0,0,-1,1686,1800,0,0
469,-776,0,0,0,0,0,0,0,0,0,-1,1693,1800,0,0
476,-776,0,0,0,0,0,0,0,0,0,-1,1700,1800,0,0
483,-776,0,0,0,0,0,0,0,0,0,-1,1707,1800,0,0
490,-776,0,0,0,0,0,0,0,0,0,-1,1714,1800,0,0
497,-776,0,0,0,0,0,0,0,0,0,-1,1721,1800,0,0
504,-776,0,0,0,0,0,0,0,0,0,-1,1728,1800,0,0
511,-776,0,0,0,0,0,0,0,0,0,-1,1735,1800,0,0
518,-776,0,0,0,0,0,0,0,0,0,-1,1742,1800,0,0
525,-776,0,0,0,0,0,0,0,0,0,-1,1749,1800,0,0
532,-776,0,0,0,0,0,0,0,0,0,-1,1756,1800,0,0
539,-776,0,0,0,0,0,0,0,0,0,-1,1763,1800,0,0
546,-776,0,0,0,0,0,0,0,0,0,-1,1770,1800,0,0
553,-776,0,0,0,0,0,0,0,0,0,-1,1777,1800,0,0
560,-776,0,0,0,0,0,0,0,0,0,-1,1784,1800,0,0
567,-776,0,0,0,0,0,0,0,0,0,-1,1791,1800,0,0
574,-776,0,0,0,0,0,0,0,0,0,-1,1798,1800,0,0
581,-776,0,0,0,0,0,0,0,0,0,-1,1805,1800,0,0
588,-776,0,0,0,0,0,0,0,0,0,-1,1812,1800,0,0
595,-776,0,0,0,0,0,0,0,0,0,-1,1819,1800,0,0
602,-776,0,0,0,0,0,0,0,0,0,-1,1826,1800,0,0
609,-776,0,0,0,0,0,0,0,0,0,-1,1833,1800,0,0
616,-776,0,0,0,0,0,0,0,0,0,-1,1840,1800,0,0
623,-776,0,0,0,0,0,0,0,0,0,-1,1847,1800,0,0
630,-776,0,0,0,0,0,0,0,0,0,-1,1854,1800,0,0
637,-776,0,0,0,0,0,0,0,0,0,-1,1861,1800,0,0
644,-776,0,0,0,0,0,0,0,0,0,-1,1868,1800,0,0
651,-776,0,0,0,0,0,0,0,0,0,-1,1875,1800,0,0
658,-776,0,0,0,0,0,0,0,0,0,-1,1882,1800,0,0
665,-776,0,0,0,0,0,0,0,0,0,-1,1889,1800,0,0
672,-776,0,0,0,0,0,0,0,0,0,-1,1896,1800,0,0
679,-776,0,0,0,0,0,0,0,0,0,-1,1903,1800,0,0
686,-776,0,0,0,0,0,0,0,0,0,-1,1910,1800,0,0
693,-776,0,0,0,0,0,0,0,0,0,-1,1917,1800,0,0
700,-776,0,0,0,0,0,0,0,0,0,-1,1924,1800,0,0
707,-776,0,0,0,0,0,0,0,0,0,-1,1931,1800,0,0
714,-776,0,0,0,0,0,0,0,0,0,-1,1938,1800,0,0
721,-776,0,0,0,0,0,0,0,0,0,-1,1945,1800,0,0
728,-776,0,0,0,0,0,0,0,0,0,-1,1952,1800,0,0
735,-776,0,0,0,0,0,0,0,0,0,-1,1959,1800,0,0
742,-776,0,0,0,0,0,0,0,0,0,-1,1966,1800,0,0
749,-776,0,0,0,0,0,0,0,0,0,-1,1973,1800,0,0
756,-776,0,0,0,0,0,0,0,0,0,-1,1980,1800,0,0
763,-776,0,0,0,0,0,0,0,0,0,-1,1987,1800,0,0
770,-776,0,0,0,0,0,0,0,0,0,-1,1994,1800,0,0
777,-776,0,0,0,0,0,0,0,0,0,-1,2001,1800,0,0
784,-776,0,0,0,0,0,0,0,0,0,-1,2008,1800,0,0
791,-776,0,0,0,0,0,0,0,0,0,-1,2015,1800,0,0
798,-776,0,0,0,0,0,0,0,0,0,-1,2022,1800,0,0
805,-776,0,0,0,0,0,0,0,0,0,-1,2029,1800,0,0
812,-776,0,0,0,0,0,0,0,0,0,-1,2036,1800,0,0
-700,-783,0,0,0,0,0,0,0,0,0,-1,524,1807,0,0
-693,-783,0,0,0,0,0,0,0,0,0,-1,531,1807,0,0
-686,-783,0,0,0,0,0,0,0,0,0,-1,538,1807,0,0
-679,-783,0,0,0,0,0,0,0,0,0,-1,545,1807,0,0
-672,-783,0,0,0,0,0,0,0,0,0,-1,552,1807,0,0
-665,-783,0,0,0,0,0,0,0,0,0,-1,559,1807,0,0
-658,-783,0,0,0,0,0,0,0,0,0,-1,566,1807,0,0
-651,-783,0,0,0,0,0,0,0,0,0,-1,573,1807,0,0
-644,-783,0,0,0,0,0,0,0,0,0,-1,580,1807,0,0
-637,-783,0,0,0,0,0,0,0,0,0,-1,587,1807,0,0
-630,-783,0,0,0,0,0,0,0,0,0,-1,594,1807,0,0
-623,-783,0,0,0,0,0,0,0,0,0,-1,601,1807,0,0
-616,-783,0,0,0,0,0,0,0,0,0,-1,608,1807,0,0
-609,-783,0,0,0,0,0,0,0,0,0,-1,615,1807,0,0
-602,-783,0,0,0,0,0,0,0,0,0,-1,622,1807,0,0
-595,-783,0,0,0,0,0,0,0,0,0,-1,629,1807,0,0
-588,-783,0,0,0,0,0,0,0,0,0,-1,636,1807,0,0
-581,-783,0,0,0,0,0,0,0,0,0,-1,643,1807,0,0
-574,-783,0,0,0,0,0,0,0,0,0,-1,650,1807,0,0
-567,-783,0,0,0,0,0,0,0,0,0,-1,657,1807,0,0
-560,-783,0,0,0,0,0,0,0,0,0,-1,664,1807,0,0
-553,-783,0,0,0,0,0,0,0,0,0,-1,671,1807,0,0
-546,-783,0,0,0,0,0,0,0,0,0,-1,678,1807,0,0
-539,-783,0,0,0,0,0,0,0,0,0,-1,685,1807,0,0
-532,-783,0,0,0,0,0,0,0,0,0,-1,692,1807,0,0
-525,-783,0,0,0,0,0,0,0,0,0,-1,699,1807,0,0
-518,-783,0,0,0,0,0,0,0,0,0,-1,706,1807,0,0
-511,-783,0,0,0,0,0,0,0,0,0,-1,713,1807,0,0
-504,-783,0,0,0,0,0,0,0,0,0,-1,720,1807,0,0
-497,-783,0,0,0,0,0,0,0,0,0,-1,727,1807,0,0
-490,-783,0,0,0,0,0,0,0,0,0,-1,734,1807,0,0
-483,-783,0,0,0,0,0,0,0,0,0,-1,741,1807,0,0
-476,-783,0,0,0,0,0,0,0,0,0,-1,748,1807,0,0
-469,-783,0,0,0,0,0,0,0,0,0,-1,755,1807,0,0
-462,-783,0,0,0,0,0,0,0,0,0,-1,762,1807,0,0
-455,-783,0,0,0,0,0,0,0,0,0,-1,769,1807,0,0
-448,-783,0,0,0,0,0,0,0,0,0,-1,776,1807,0,0
-441,-783,0,0,0,0,0,0,0,0,0,-1,783,1807,0,0
-434,-783,0,0,0,0,0,0,0,0,0,-1,790,1807,0,0
-427,-783,0,0,0,0,0,0,0,0,0,-1,797,1807,0,0
-420,-783,0,0,0,0,0,0,0,0,0,-1,804,1807,0,0
-413,-783,0,0,0,0,0,0,0,0,0,-1,811,1807,0,0
-406,-783,0,0,0,0,0,0,0,0,0,-1,818,1807,0,0
-399,-783,0,0,0,0,0,0,0,0,0,-1,825,1807,0,0
-392,-783,0,0,0,0,0,0,0,0,0,-1,832,1807,0,0
-385,-783,0,0,0,0,0,0,0,0,0,-1,839,1807,0,0
-378,-783,0,0,0,0,0,0,0,0,0,-1,846,1807,0,0
-371,-783,0,0,0,0,0,0,0,0,0,-1,853,1807,0,0
-364,-783,0,0,0,0,0,0,0,0,0,-1,860,1807,0,0
-357,-783,0,0,0,0,0,0,0,0,0,-1,867,1807,0,0
-350,-783,0,0,0,0,0,0,0,0,0,-1,874,1807,0,0
-343,-783,0,0,0,0,0,0,0,0,0,-1,881,1807,0,0
-336,-783,0,0,0,0,0,0,0,0,0,-1,888,1807,0,0
-329,-783,0,0,0,0,0,0,0,0,0,-1,895,1807,0,0
-322,-783,0,0,0,0,0,0,0,0,0,-1,902,1807,0,0
-315,-783,0,0,0,0,0,0,0,0,0,-1,909,1807,0,0
-308,-783,0,0,0,0,0,0,0,0,0,-1,916,1807,0,0
-301,-783,0,0,0,0,0,0,0,0,0,-1,923,1807,0,0
-294,-783,0,0,0,0,0,0,0,0,0,-1,930,1807,0,0
-287,-783,0,0,0,0,0,0,0,0,0,-1,937,1807,0,0
-280,-783,0,0,0,0,0,0,0,0,0,-1,944,1807,0,0
-273,-783,0,0,0,0,0,0,0,0,0,-1,951,1807,0,0
-266,-783,0,0,0,0,0,0,0,0,0,-1,958,1807,0,0
-259,-783,0,0,0,0,0,0,0,0,0,-1,965,1807,0,0
-252,-783,0,0,0,0,0,0,0,0,0,-1,972,1807,0,0
-245,-783,0,0,0,0,0,0,0,0,0,-1,979,1807,0,0
-238,-783,0,0,0,0,0,0,0,0,0,-1,986,1807,0,0
-231,-783,0,0,0,0,0,0,0,0,0,-1,993,1807,0,0
-224,-783,0,0,0,0,0,0,0,0,0,-1,1000,1807,0,0
-217,-783,0,0,0,0,0,0,0,0,0,-1,1007,1807,0,0
-210,-783,0,0,0,0,0,0,0,0,0,-1,1014,1807,0,0
-203,-783,0,0,0,0,0,0,0,0,0,-1,1021,1807,0,0
-196,-783,0,0,0,0,0,0,0,0,0,-1,1028,1807,0,0
-189,-783,0,0,0,0,0,0,0,0,0,-1,1035,1807,0,0
-182,-783,0,0,0,0,0,0,0,0,0,-1,1042,1807,0,0
-175,-783,0,0,0,0,0,0,0,0,0,-1,1049,1807,0,0
-168,-783,0,0,0,0,0,0,0,0,0,-1,1056,1807,0,0
-161,-783,0,0,0,0,0,0,0,0,0,-1,1063,1807,0,0
-154,-783,0,0,0,0,0,0,0,0,0,-1,1070,1807,0,0
-147,-783,0,0,0,0,0,0,0,0,0,-1,1077,1807,0,0
-140,-783,0,0,0,0,0,0,0,0,0,-1,1084,1807,0,0
-133,-783,0,0,0,0,0,0,0,0,0,-1,1091,1807,0,0
-126,-783,0,0,0,0,0,0,0,0,0,-1,1098,1807,0,0
-119,-783,0,0,0,0,0,0,0,0,0,-1,1105,1807,0,0
-112,-783,5.35229,15.2482,0,0,0,0,0,0,0,-1,1112,1807,5.35229,-15.2482
-105,-783,4.41919,14.488,0,0,0,0,0,0,0,-1,1119,1807,4.41917,-14.4881
-98,-783,3.11047,14.0786,0,0,0,0,0,0,0,-1,1126,1807,3.11046,-14.0786
-91,-783,1.07239,14.4102,0,0,0,0,0,0,0,-1,1133,1807,1.07236,-14.4102
-84,-783,0.684692,13.7784,0,0,0,0,0,0,0,-1,1140,1807,0.684752,-13.7784
-77,-783,0.332764,12.7788,0,0,0,0,0,0,0,-1,1147,1807,0.332743,-12.7788
-70,-783,-1.93176,5.12817,0,0,0,0,0,0,0,-1,1154,1807,-1.93171,-5.12813
-63,-783,-2.46729,4.38416,0,0,0,0,0,0,0,-1,1161,1807,-2.46723,-4.38411
-56,-783,-2.11902,6.73853,0,0,0,0,0,0,0,-1,1168,1807,-2.11904,-6.73854
-49,-783,-3.17688,4.59705,0,0,0,0,0,0,0,-1,1175,1807,-3.17685,-4.5971
-42,-783,-3.72876,3.1405,0,0,0,0,0,0,0,-1,1182,1807,-3.72874,-3.14055
-35,-783,-3.97046,1.59399,0,0,0,0,0,0,0,-1,1189,1807,-3.97041,-1.59401
-28,-783,-4.12195,0.270386,0,0,0,0,0,0,0,-1,1196,1807,-4.12197,-0.270408
-21,-783,1.88123,10.1625,0,0,0,0,0,0,0,-1,1203,1807,1.88128,-10.1625
-14,-783,2.29333,10.2833,0,0,0,0,0,0,0,-1,1210,1807,2.29335,-10.2833
-7,-783,2.58447,10.3861,0,0,0,0,0,0,0,-1,1217,1807,2.58446,-10.386
0,-783,2.91101,10.4451,0,0,0,0,0,0,0,-1,1224,1807,2.91096,-10.4451
7,-783,5.16895,9.22473,0,0,0,0,0,0,0,-1,1231,1807,5.16894,-9.22479
14,-783,4.5282,9.83057,-0.00391262,-0.0154637,0.022082,0.0131367,-0.032513,0.657489,0.0271357,0.0460473,1238,1807,4.52822,-9.83062
21,-783,3.80334,10.501,-0.000332881,-0.0161085,0.0211851,0.0143853,-0.0308266,0.607186,0.0266722,0.0465079,1245,1807,3.80332,-10.501
28,-783,3.4209,11.069,0.000142868,-0.0181196,0.0215826,0.0144464,-0.0324231,0.585276,0.0277157,0.0459114,1252,1807,3.42085,-11.069
35,-783,3.75415,11.2942,-0.00257351,-0.0208221,0.0229634,0.0130119,-0.0364075,0.596292,0.0295789,0.0488733,1259,1807,3.75409,-11.2942
42,-783,4.46094,11.5088,-0.00599268,-0.0237773,0.0246227,0.0112943,-0.0410642,0.612115,0.0318163,0.0454858,1266,1807,4.46099,-11.5088
49,-783,5.31628,11.509,-0.0112082,-0.0275422,0.027069,0.00889906,-0.0476494,0.638886,0.0351106,0.0453832,1273,1807,5.31626,-11.509
56,-783,5.40662,11.8276,0,0,0,0,0,0,0,-1,1280,1807,5.40658,-11.8276
63,-783,5.98218,11.0079,0,0,0,0,0,0,0,-1,1287,1807,5.98222,-11.008
70,-783,5.15784,11.4603,0,0,0,0,0,0,0,-1,1294,1807,5.15782,-11.4603
77,-783,4.45203,11.6534,-0.0184321,-0.0400535,0.0264099,-0.000705931,-0.0577797,0.59113,0.0382866,0.0479082,1301,1807,4.452,-11.6534
84,-783,3.78882,11.8146,-0.0177567,-0.0418623,0.0241088,-0.00285573,-0.0567633,0.553601,0.0369271,0.0464021,1308,1807,3.78886,-11.8146
91,-783,3.48083,12.0139,-0.014923,-0.0432724,0.0203948,-0.00426078,-0.0539345,0.481712,0.0346236,0.0481617,1315,1807,3.48081,-12.014
98,-783,3.19336,12.2006,-0.00738806,-0.0422016,0.0145675,-0.00209661,-0.047493,0.348417,0.0309868,0.0486814,1322,1807,3.19336,-12.2006
105,-783,3.0564,12.318,0.00385061,-0.0400965,0.00703895,0.0049505,-0.0411964,0.155005,0.0292544,0.0491765,1329,1807,3.05641,-12.3181
112,-783,3.05676,12.1185,0.0185327,-0.0365836,-0.00239392,0.0186365,-0.0366874,-0.0433251,0.0325031,0.0472695,1336,1807,3.05679,-12.1186
119,-783,3.52405,11.5234,0.0335464,-0.0321736,-0.0119932,0.0356666,-0.0342938,-0.174978,0.0403943,0.0427605,1343,1807,3.5241,-11.5234
126,-783,3.90308,10.9309,0.0492306,-0.0266795,-0.0220834,0.0551875,-0.0326364,-0.263476,0.0512593,0.0466601,1350,1807,3.90304,-10.9309
133,-783,4.06519,10.6355,0,0,0,0,0,0,0,-1,1357,1807,4.06514,-10.6354
140,-783,5.98425,10.7552,0,0,0,0,0,0,0,-1,1364,1807,5.98426,-10.7552
147,-783,6.45825,-1.2334,0,0,0,0,0,0,0,-1,1371,1807,6.45822,1.23339
154,-783,6.37024,-0.145874,0,0,0,0,0,0,0,-1,1378,1807,6.37018,0.145866
161,-783,6.57568,1.16174,0,0,0,0,0,0,0,-1,1385,1807,6.57562,-1.1617
168,-783,8.62561,1.79944,0,0,0,0,0,0,0,-1,1392,1807,8.62561,-1.79946
175,-783,8.78699,3.40857,0,0,0,0,0,0,0,-1,1399,1807,8.78697,-3.40854
182,-783,8.70984,5.14661,0,0,0,0,0,0,0,-1,1406,1807,8.70989,-5.14666
189,-783,8.55762,6.79871,0,0,0,0,0,0,0,-1,1413,1807,8.55766,-6.79872
196,-783,8.25488,8.66626,0,0,0,0,0,0,0,-1,1420,1807,8.25492,-8.66628
203,-783,7.86755,10.5735,0,0,0,0,0,0,0,-1,1427,1807,7.8676,-10.5734
210,-783,5.6969,8.99231,0,0,0,0,0,0,0,-1,1434,1807,5.69693,-8.99234
217,-783,5.28503,3.80872,0,0,0,0,0,0,0,-1,1441,1807,5.285,-3.80868
224,-783,3.22571,6.62903,0,0,0,0,0,0,0,-1,1448,1807,3.2257,-6.62907
231,-783,4.27942,4.56262,0,0,0,0,0,0,0,-1,1455,1807,4.27948,-4.56267
238,-783,0,0,0,0,0,0,0,0,0,-1,1462,1807,0,0
245,-783,0,0,0,0,0,0,0,0,0,-1,1469,1807,0,0
252,-783,0,0,0,0,0,0,0,0,0,-1,1476,1807,0,0
259,-783,0,0,0,0,0,0,0,0,0,-1,1483,1807,0,0
266,-783,0,0,0,0,0,0,0,0,0,-1,1490,1807,0,0
273,-783,0,0,0,0,0,0,0,0,0,-1,1497,1807,0,0
280,-783,0,0,0,0,0,0,0,0,0,-1,1504,1807,0,0
287,-783,0,0,0,0,0,0,0,0,0,-1,1511,1807,0,0
294,-783,0,0,0,0,0,0,0,0,0,-1,1518,1807,0,0
301,-783,0,0,0,0,0,0,0,0,0,-1,1525,1807,0,0
308,-783,0,0,0,0,0,0,0,0,0,-1,1532,1807,0,0
315,-783,0,0,0,0,0,0,0,0,0,-1,1539,1807,0,0
322,-783,0,0,0,0,0,0,0,0,0,-1,1546,1807,0,0
329,-783,0,0,0,0,0,0,0,0,0,-1,1553,1807,0,0
336,-783,0,0,0,0,0,0,0,0,0,-1,1560,1807,0,0
343,-783,0,0,0,0,0,0,0,0,0,-1,1567,1807,0,0
350,-783,0,0,0,0,0,0,0,0,0,-1,1574,1807,0,0
357,-783,0,0,0,0,0,0,0,0,0,-1,1581,1807,0,0
364,-783,0,0,0,0,0,0,0,0,0,-1,1588,1807,0,0
371,-783,0,0,0,0,0,0,0,0,0,-1,1595,1807,0,0
378,-783,0,0,0,0,0,0,0,0,0,-1,1602,1807,0,0
385,-783,0,0,0,0,0,0,0,0,0,-1,1609,1807,0,0
392,-783,0,0,0,0,0,0,0,0,0,-1,1616,1807,0,0
399,-783,0,0,0,0,0,0,0,0,0,-1,1623,1807,0,0
406,-783,0,0,0,0,0,0,0,0,0,-1,1630,1807,0,0
413,-783,0,0,0,0,0,0,0,0,0,-1,1637,1807,0,0
420,-783,0,0,0,0,0,0,0,0,0,-1,1644,1807,0,0
427,-783,0,0,0,0,0,0,0,0,0,-1,1651,1807,0,0
434,-783,0,0,0,0,0,0,0,0,0,-1,1658,1807,0,0
441,-783,0,0,0,0,0,0,0,0,0,-1,1665,1807,0,0
448,-783,0,0,0,0,0,0,0,0,0,-1,1672,1807,0,0
455,-783,0,0,0,0,0,0,0,0,0,-1,1679,1807,0,0
462,-783,0,0,0,0,0,0,0,0,0,-1,1686,1807,0,0
469,-783,0,0,0,0,0,0,0,0,0,-1,1693,1807,0,0
476,-783,0,0,0,0,0,0,0,0,0,-1,1700,1807,0,0
483,-783,0,0,0,0,0,0,0,0,0,-1,1707,1807,0,0
490,-783,0,0,0,0,0,0,0,0,0,-1,1714,1807,0,0
497,-783,0,0,0,0,0,0,0,0,0,-1,1721,1807,0,0
504,-783,0,0,0,0,0,0,0,0,0,-1,1728,1807,0,0
511,-783,0,0,0,0,0,0,0,0,0,-1,1735,1807,0,0
518,-783,0,0,0,0,0,0,0,0,0,-1,1742,1807,0,0
525,-783,0,0,0,0,0,0,0,0,0,-1,1749,1807,0,0
532,-783,0,0,0,0,0,0,0,0,0,-1,1756,1807,0,0
539,-783,0,0,0,0,0,0,0,0,0,-1,1763,1807,0,0
546,-783,0,0,0,0,0,0,0,0,0,-1,1770,1807,0,0
553,-783,0,0,0,0,0,0,0,0,0,-1,1777,1807,0,0
560,-783,0,0,0,0,0,0,0,0,0,-1,1784,1807,0,0
567,-783,0,0,0,0,0,0,0,0,0,-1,1791,1807,0,0
574,-783,0,0,0,0,0,0,0,0,0,-1,1798,1807,0,0
581,-783,0,0,0,0,0,0,0,0,0,-1,1805,1807,0,0
588,-783,0,0,0,0,0,0,0,0,0,-1,1812,1807,0,0
595,-783,0,0,0,0,0,0,0,0,0,-1,1819,1807,0,0
602,-783,0,0,0,0,0,0,0,0,0,-1,1826,1807,0,0
609,-783,0,0,0,0,0,0,0,0,0,-1,1833,1807,0,0
616,-783,0,0,0,0,0,0,0,0,0,-1,1840,1807,0,0
623,-783,0,0,0,0,0,0,0,0,0,-1,1847,1807,0,0
630,-783,0,0,0,0,0,0,0,0,0,-1,1854,1807,0,0
637,-783,0,0,0,0,0,0,0,0,0,-1,1861,1807,0,0
644,-783,0,0,0,0,0,0,0,0,0,-1,1868,1807,0,0
651,-783,0,0,0,0,0,0,0,0,0,-1,1875,1807,0,0
658,-783,0,0,0,0,0,0,0,0,0,-1,1882,1807,0,0
665,-783,0,0,0,0,0,0,0,0,0,-1,1889,1807,0,0
672,-783,0,0,0,0,0,0,0,0,0,-1,1896,1807,0,0
679,-783,0,0,0,0,0,0,0,0,0,-1,1903,1807,0,0
686,-783,0,0,0,0,0,0,0,0,0,-1,1910,1807,0,0
693,-783,0,0,0,0,0,0,0,0,0,-1,1917,1807,0,0
700,-783,0,0,0,0,0,0,0,0,0,-1,1924,1807,0,0
707,-783,0,0,0,0,0,0,0,0,0,-1,1931,1807,0,0
714,-783,0,0,0,0,0,0,0,0,0,-1,1938,1807,0,0
721,-783,0,0,0,0,0,0,0,0,0,-1,1945,1807,0,0
728,-783,0,0,0,0,0,0,0,0,0,-1,1952,1807,0,0
735,-783,0,0,0,0,0,0,0,0,0,-1,1959,1807,0,0
742,-783,0,0,0,0,0,0,0,0,0,-1,1966,1807,0,0
749,-783,0,0,0,0,0,0,0,0,0,-1,1973,1807,0,0
756,-783,0,0,0,0,0,0,0,0,0,-1,1980,1807,0,0
763,-783,0,0,0,0,0,0,0,0,0,-1,1987,1807,0,0
770,-783,0,0,0,0,0,0,0,0,0,-1,1994,1807,0,0
777,-783,0,0,0,0,0,0,0,0,0,-1,2001,1807,0,0
784,-783,0,0,0,0,0,0,0,0,0,-1,2008,1807,0,0
791,-783,0,0,0,0,0,0,0,0,0,-1,2015,1807,0,0
798,-783,0,0,0,0,0,0,0,0,0,-1,2022,1807,0,0
805,-783,0,0,0,0,0,0,0,0,0,-1,2029,1807,0,0
812,-783,0,0,0,0,0,0,0,0,0,-1,2036,1807,0,0
-700,-790,0,0,0,0,0,0,0,0,0,-1,524,1814,0,0
-693,-790,0,0,0,0,0,0,0,0,0,-1,531,1814,0,0
-686,-790,0,0,0,0,0,0,0,0,0,-1,538,1814,0,0
-679,-790,0,0,0,0,0,0,0,0,0,-1,545,1814,0,0
-672,-790,0,0,0,0,0,0,0,0,0,-1,552,1814,0,0
-665,-790,0,0,0,0,0,0,0,0,0,-1,559,1814,0,0
-658,-790,0,0,0,0,0,0,0,0,0,-1,566,1814,0,0
-651,-790,0,0,0,0,0,0,0,0,0,-1,573,1814,0,0
-644,-790,0,0,0,0,0,0,0,0,0,-1,580,1814,0,0
-637,-790,0,0,0,0,0,0,0,0,0,-1,587,1814,0,0
-630,-790,0,0,0,0,0,0,0,0,0,-1,594,1814,0,0
-623,-790,0,0,0,0,0,0,0,0,0,-1,601,1814,0,0
-616,-790,0,0,0,0,0,0,0,0,0,-1,608,1814,0,0
-609,-790,0,0,0,0,0,0,0,0,0,-1,615,1814,0,0
-602,-790,0,0,0,0,0,0,0,0,0,-1,622,1814,0,0
-595,-790,0,0,0,0,0,0,0,0,0,-1,629,1814,0,0
-588,-790,0,0,0,0,0,0,0,0,0,-1,636,1814,0,0
-581,-790,0,0,0,0,0,0,0,0,0,-1,643,1814,0,0
-574,-790,0,0,0,0,0,0,0,0,0,-1,650,1814,0,0
-567,-790,0,0,0,0,0,0,0,0,0,-1,657,1814,0,0
-560,-790,0,0,0,0,0,0,0,0,0,-1,664,1814,0,0
-553,-790,0,0,0,0,0,0,0,0,0,-1,671,1814,0,0
-546,-790,0,0,0,0,0,0,0,0,0,-1,678,1814,0,0
-539,-790,0,0,0,0,0,0,0,0,0,-1,685,1814,0,0
-532,-790,0,0,0,0,0,0,0,0,0,-1,692,1814,0,0
-525,-790,0,0,0,0,0,0,0,0,0,-1,699,1814,0,0
-518,-790,0,0,0,0,0,0,0,0,0,-1,706,1814,0,0
-511,-790,0,0,0,0,0,0,0,0,0,-1,713,1814,0,0
-504,-790,0,0,0,0,0,0,0,0,0,-1,720,1814,0,0
-497,-790,0,0,0,0,0,0,0,0,0,-1,727,1814,0,0
-490,-790,0,0,0,0,0,0,0,0,0,-1,734,1814,0,0
-483,-790,0,0,0,0,0,0,0,0,0,-1,741,1814,0,0
-476,-790,0,0,0,0,0,0,0,0,0,-1,748,1814,0,0
-469,-790,0,0,0,0,0,0,0,0,0,-1,755,1814,0,0
-462,-790,0,0,0,0,0,0,0,0,0,-1,762,1814,0,0
-455,-790,0,0,0,0,0,0,0,0,0,-1,769,1814,0,0
-448,-790,0,0,0,0,0,0,0,0,0,-1,776,1814,0,0
-441,-790,0,0,0,0,0,0,0,0,0,-1,783,1814,0,0
-434,-790,0,0,0,0,0,0,0,0,0,-1,790,1814,0,0
-427,-790,0,0,0,0,0,0,0,0,0,-1,797,1814,0,0
-420,-790,0,0,0,0,0,0,0,0,0,-1,804,1814,0,0
-413,-790,0,0,0,0,0,0,0,0,0,-1,811,1814,0,0
-406,-790,0,0,0,0,0,0,0,0,0,-1,818,1814,0,0
-399,-790,0,0,0,0,0,0,0,0,0,-1,825,1814,0,0
-392,-790,0,0,0,0,0,0,0,0,0,-1,832,1814,0,0
-385,-790,0,0,0,0,0,0,0,0,0,-1,839,1814,0,0
-378,-790,0,0,0,0,0,0,0,0,0,-1,846,1814,0,0
-371,-790,0,0,0,0,0,0,0,0,0,-1,853,1814,0,0
-364,-790,0,0,0,0,0,0,0,0,0,-1,860,1814,0,0
-357,-790,0,0,0,0,0,0,0,0,0,-1,867,1814,0,0
-350,-790,0,0,0,0,0,0,0,0,0,-1,874,1814,0,0
-343,-790,0,0,0,0,0,0,0,0,0,-1,881,1814,0,0
-336,-790,0,0,0,0,0,0,0,0,0,-1,888,1814,0,0
-329,-790,0,0,0,0,0,0,0,0,0,-1,895,1814,0,0
-322,-790,0,0,0,0,0,0,0,0,0,-1,902,1814,0,0
-315,-790,0,0,0,0,0,0,0,0,0,-1,909,1814,0,0
-308,-790,0,0,0,0,0,0,0,0,0,-1,916,1814,0,0
-301,-790,0,0,0,0,0,0,0,0,0,-1,923,1814,0,0
-294,-790,0,0,0,0,0,0,0,0,0,-1,930,1814,0,0
-287,-790,0,0,0,0,0,0,0,0,0,-1,937,1814,0,0
-280,-790,0,0,0,0,0,0,0,0,0,-1,944,1814,0,0
-273,-790,0,0,0,0,0,0,0,0,0,-1,951,1814,0,0
-266,-790,0,0,0,0,0,0,0,0,0,-1,958,1814,0,0
-259,-790,0,0,0,0,0,0,0,0,0,-1,965,1814,0,0
-252,-790,0,0,0,0,0,0,0,0,0,-1,972,1814,0,0
-245,-790,0,0,0,0,0,0,0,0,0,-1,979,1814,0,0
-238,-790,0,0,0,0,0,0,0,0,0,-1,986,1814,0,0
-231,-790,0,0,0,0,0,0,0,0,0,-1,993,1814,0,0
-224,-790,0,0,0,0,0,0,0,0,0,-1,1000,1814,0,0
-217,-790,0,0,0,0,0,0,0,0,0,-1,1007,1814,0,0
-210,-790,0,0,0,0,0,0,0,0,0,-1,1014,1814,0,0
-203,-790,0,0,0,0,0,0,0,0,0,-1,1021,1814,0,0
-196,-790,0,0,0,0,0,0,0,0,0,-1,1028,1814,0,0
-189,-790,0,0,0,0,0,0,0,0,0,-1,1035,1814,0,0
-182,-790,0,0,0,0,0,0,0,0,0,-1,1042,1814,0,0
-175,-790,0,0,0,0,0,0,0,0,0,-1,1049,1814,0,0
-168,-790,0,0,0,0,0,0,0,0,0,-1,1056,1814,0,0
-161,-790,0,0,0,0,0,0,0,0,0,-1,1063,1814,0,0
-154,-790,0,0,0,0,0,0,0,0,0,-1,1070,1814,0,0
-147,-790,0,0,0,0,0,0,0,0,0,-1,1077,1814,0,0
-140,-790,0,0,0,0,0,0,0,0,0,-1,1084,1814,0,0
-133,-790,0,0,0,0,0,0,0,0,0,-1,1091,1814,0,0
-126,-790,0,0,0,0,0,0,0,0,0,-1,1098,1814,0,0
-119,-790,0,0,0,0,0,0,0,0,0,-1,1105,1814,0,0
-112,-790,0,0,0,0,0,0,0,0,0,-1,1112,1814,0,0
-105,-790,0,0,0,0,0,0,0,0,0,-1,1119,1814,0,0
-98,-790,0,0,0,0,0,0,0,0,0,-1,1126,1814,0,0
-91,-790,0,0,0,0,0,0,0,0,0,-1,1133,1814,0,0
-84,-790,0,0,0,0,0,0,0,0,0,-1,1140,1814,0,0
-77,-790,-0.969238,5.30847,0,0,0,0,0,0,0,-1,1147,1814,-0.969277,-5.3085
-70,-790,-1.23169,4.98914,0,0,0,0,0,0,0,-1,1154,1814,-1.23163,-4.98916
-63,-790,-1.69128,4.32263,0,0,0,0,0,0,0,-1,1161,1814,-1.69128,-4.32258
-56,-790,-2.24756,3.75305,0,0,0,0,0,0,0,-1,1168,1814,-2.24758,-3.75302
-49,-790,-3.11011,3.35779,0,0,0,0,0,0,0,-1,1175,1814,-3.11006,-3.35781
-42,-790,0.593262,1.19165,0,0,0,0,0,0,0,-1,1182,1814,0.593225,-1.19165
-35,-790,0.307129,-0.20105,0,0,0,0,0,0,0,-1,1189,1814,0.307178,0.201006
-28,-790,-2.78467,0.785156,0,0,0,0,0,0,0,-1,1196,1814,-2.78471,-0.785183
-21,-790,2.02429,9.71326,0,0,0,0,0,0,0,-1,1203,1814,2.02435,-9.71329
-14,-790,2.45264,9.90222,0,0,0,0,0,0,0,-1,1210,1814,2.45266,-9.90227
-7,-790,2.6593,10.3413,0,0,0,0,0,0,0,-1,1217,1814,2.65926,-10.3413
0,-790,3.06042,10.5417,0,0,0,0,0,0,0,-1,1224,1814,3.06046,-10.5418
7,-790,5.32837,9.36951,0,0,0,0,0,0,0,-1,1231,1814,5.32831,-9.36954
14,-790,4.56592,9.93835,-0.0103366,-0.0162223,0.0313973,0.0182555,-0.0448143,0.73867,0.0374741,0.0441862,1238,1814,4.56588,-9.9383
21,-790,3.88062,10.6483,-0.00520033,-0.0175043,0.030188,0.0194562,-0.0421608,0.68488,0.0363707,0.0431197,1245,1814,3.8806,-10.6484
28,-790,3.75745,11.4374,-0.00463359,-0.0207942,0.0307609,0.0190906,-0.0445184,0.656959,0.0376901,0.0436148,1252,1814,3.7574,-11.4374
35,-790,3.7572,11.329,0,0,0,0,0,0,0,-1,1259,1814,3.75716,-11.329
42,-790,4.43933,11.5775,0,0,0,0,0,0,0,-1,1266,1814,4.43938,-11.5775
49,-790,5.46521,11.6545,0,0,0,0,0,0,0,-1,1273,1814,5.46517,-11.6545
56,-790,5.68127,11.3774,-0.0261642,-0.0397175,0.0402456,0.00787129,-0.073753,0.701989,0.0519915,0.048501,1280,1814,5.68128,-11.3774
63,-790,4.95984,11.6409,0,0,0,0,0,0,0,-1,1287,1814,4.95981,-11.6408
70,-790,4.26587,11.8878,-0.0297323,-0.0473342,0.0403261,0.00274206,-0.0798085,0.677961,0.0541429,0.0445749,1294,1814,4.26583,-11.8878
77,-790,3.49084,12.1147,-0.0266566,-0.0502725,0.0360496,-0.000530433,-0.0763987,0.627131,0.0507566,0.0432789,1301,1814,3.49085,-12.1147
84,-790,2.65039,12.355,-0.024897,-0.0525288,0.0328854,-0.00304314,-0.0743827,0.586532,0.0486058,0.0444494,1308,1814,2.6504,-12.3549
91,-790,3.03784,12.6228,0,0,0,0,0,0,0,-1,1315,1814,3.03784,-12.6228
98,-790,2.50732,13.2828,0,0,0,0,0,0,0,-1,1322,1814,2.50735,-13.2828
105,-790,2.8573,12.8553,0.00829001,-0.0503785,0.00857941,0.00951889,-0.0516073,0.142268,0.0379776,0.0491367,1329,1814,2.85725,-12.8553
112,-790,3.06067,12.3654,0.0286112,-0.0462873,-0.00419531,0.0288454,-0.0465216,-0.0557806,0.0439103,0.0499254,1336,1814,3.06067,-12.3654
119,-790,3.37329,11.8978,0.0497029,-0.0411411,-0.017445,0.0529377,-0.0443759,-0.183347,0.0562565,0.0456904,1343,1814,3.37325,-11.8978
126,-790,3.87415,11.5049,0.0716632,-0.0347689,-0.0312669,0.0801689,-0.0432745,-0.265606,0.0723234,0.0475697,1350,1814,3.87421,-11.5048
133,-790,4.33887,11.1101,0,0,0,0,0,0,0,-1,1357,1814,4.33892,-11.1101
140,-790,6.94873,10.6707,0,0,0,0,0,0,0,-1,1364,1814,6.94869,-10.6707
147,-790,6.44666,-1.87561,0,0,0,0,0,0,0,-1,1371,1814,6.4466,1.87567
154,-790,6.34485,-0.540405,0,0,0,0,0,0,0,-1,1378,1814,6.34482,0.540409
161,-790,6.62683,1.1134,0,0,0,0,0,0,0,-1,1385,1814,6.62682,-1.11344
168,-790,7.04077,2.23279,0,0,0,0,0,0,0,-1,1392,1814,7.04082,-2.23275
175,-790,9.03918,3.98535,0,0,0,0,0,0,0,-1,1399,1814,9.0392,-3.98535
182,-790,8.96997,5.67896,0,0,0,0,0,0,0,-1,1406,1814,8.97001,-5.6789
189,-790,8.59729,6.86975,0,0,0,0,0,0,0,-1,1413,1814,8.59728,-6.86972
196,-790,8.21924,9.29053,0,0,0,0,0,0,0,-1,1420,1814,8.21924,-9.29048
203,-790,0,0,0,0,0,0,0,0,0,-1,1427,1814,0,0
210,-790,0,0,0,0,0,0,0,0,0,-1,1434,1814,0,0
217,-790,0,0,0,0,0,0,0,0,0,-1,1441,1814,0,0
224,-790,0,0,0,0,0,0,0,0,0,-1,1448,1814,0,0
231,-790,0,0,0,0,0,0,0,0,0,-1,1455,1814,0,0
238,-790,0,0,0,0,0,0,0,0,0,-1,1462,1814,0,0
245,-790,0,0,0,0,0,0,0,0,0,-1,1469,1814,0,0
252,-790,0,0,0,0,0,0,0,0,0,-1,1476,1814,0,0
259,-790,0,0,0,0,0,0,0,0,0,-1,1483,1814,0,0
266,-790,0,0,0,0,0,0,0,0,0,-1,1490,1814,0,0
273,-790,0,0,0,0,0,0,0,0,0,-1,1497,1814,0,0
280,-790,0,0,0,0,0,0,0,0,0,-1,1504,1814,0,0
287,-790,0,0,0,0,0,0,0,0,0,-1,1511,1814,0,0
294,-790,0,0,0,0,0,0,0,0,0,-1,1518,1814,0,0
301,-790,0,0,0,0,0,0,0,0,0,-1,1525,1814,0,0
308,-790,0,0,0,0,0,0,0,0,0,-1,1532,1814,0,0
315,-790,0,0,0,0,0,0,0,0,0,-1,1539,1814,0,0
322,-790,0,0,0,0,0,0,0,0,0,-1,1546,1814,0,0
329,-790,0,0,0,0,0,0,0,0,0,-1,1553,1814,0,0
336,-790,0,0,0,0,0,0,0,0,0,-1,1560,1814,0,0
343,-790,0,0,0,0,0,0,0,0,0,-1,1567,1814,0,0
350,-790,0,0,0,0,0,0,0,0,0,-1,1574,1814,0,0
357,-790,0,0,0,0,0,0,0,0,0,-1,1581,1814,0,0
364,-790,0,0,0,0,0,0,0,0,0,-1,1588,1814,0,0
371,-790,0,0,0,0,0,0,0,0,0,-1,1595,1814,0,0
378,-790,0,0,0,0,0,0,0,0,0,-1,1602,1814,0,0
385,-790,0,0,0,0,0,0,0,0,0,-1,1609,1814,0,0
392,-790,0,0,0,0,0,0,0,0,0,-1,1616,1814,0,0
399,-790,0,0,0,0,0,0,0,0,0,-1,1623,1814,0,0
406,-790,0,0,0,0,0,0,0,0,0,-1,1630,1814,0,0
413,-790,0,0,0,0,0,0,0,0,0,-1,1637,1814,0,0
420,-790,0,0,0,0,0,0,0,0,0,-1,1644,1814,0,0
427,-790,0,0,0,0,0,0,0,0,0,-1,1651,1814,0,0
434,-790,0,0,0,0,0,0,0,0,0,-1,1658,1814,0,0
441,-790,0,0,0,0,0,0,0,0,0,-1,1665,1814,0,0
448,-790,0,0,0,0,0,0,0,0,0,-1,1672,1814,0,0
455,-790,0,0,0,0,0,0,0,0,0,-1,1679,1814,0,0
462,-790,0,0,0,0,0,0,0,0,0,-1,1686,1814,0,0
469,-790,0,0,0,0,0,0,0,0,0,-1,1693,1814,0,0
476,-790,0,0,0,0,0,0,0,0,0,-1,1700,1814,0,0
483,-790,0,0,0,0,0,0,0,0,0,-1,1707,1814,0,0
490,-790,0,0,0,0,0,0,0,0,0,-1,1714,1814,0,0
497,-790,0,0,0,0,0,0,0,0,0,-1,1721,1814,0,0
504,-790,0,0,0,0,0,0,0,0,0,-1,1728,1814,0,0
511,-790,0,0,0,0,0,0,0,0,0,-1,1735,1814,0,0
518,-790,0,0,0,0,0,0,0,0,0,-1,1742,1814,0,0
525,-790,0,0,0,0,0,0,0,0,0,-1,1749,1814,0,0
532,-790,0,0,0,0,0,0,0,0,0,-1,1756,1814,0,0
539,-790,0,0,0,0,0,0,0,0,0,-1,1763,1814,0,0
546,-790,0,0,0,0,0,0,0,0,0,-1,1770,1814,0,0
553,-790,0,0,0,0,0,0,0,0,0,-1,1777,1814,0,0
560,-790,0,0,0,0,0,0,0,0,0,-1,1784,1814,0,0
567,-790,0,0,0,0,0,0,0,0,0,-1,1791,1814,0,0
574,-790,0,0,0,0,0,0,0,0,0,-1,1798,1814,0,0
581,-790,0,0,0,0,0,0,0,0,0,-1,1805,1814,0,0
588,-790,0,0,0,0,0,0,0,0,0,-1,1812,1814,0,0
595,-790,0,0,0,0,0,0,0,0,0,-1,1819,1814,0,0
602,-790,0,0,0,0,0,0,0,0,0,-1,1826,1814,0,0
609,-790,0,0,0,0,0,0,0,0,0,-1,1833,1814,0,0
616,-790,0,0,0,0,0,0,0,0,0,-1,1840,1814,0,0
623,-790,0,0,0,0,0,0,0,0,0,-1,1847,1814,0,0
630,-790,0,0,0,0,0,0,0,0,0,-1,1854,1814,0,0
637,-790,0,0,0,0,0,0,0,0,0,-1,1861,1814,0,0
644,-790,0,0,0,0,0,0,0,0,0,-1,1868,1814,0,0
651,-790,0,0,0,0,0,0,0,0,0,-1,1875,1814,0,0
658,-790,0,0,0,0,0,0,0,0,0,-1,1882,1814,0,0
665,-790,0,0,0,0,0,0,0,0,0,-1,1889,1814,0,0
672,-790,0,0,0,0,0,0,0,0,0,-1,1896,1814,0,0
679,-790,0,0,0,0,0,0,0,0,0,-1,1903,1814,0,0
686,-790,0,0,0,0,0,0,0,0,0,-1,1910,1814,0,0
693,-790,0,0,0,0,0,0,0,0,0,-1,1917,1814,0,0
700,-790,0,0,0,0,0,0,0,0,0,-1,1924,1814,0,0
707,-790,0,0,0,0,0,0,0,0,0,-1,1931,1814,0,0
714,-790,0,0,0,0,0,0,0,0,0,-1,1938,1814,0,0
721,-790,0,0,0,0,0,0,0,0,0,-1,1945,1814,0,0
728,-790,0,0,0,0,0,0,0,0,0,-1,1952,1814,0,0
735,-790,0,0,0,0,0,0,0,0,0,-1,1959,1814,0,0
742,-790,0,0,0,0,0,0,0,0,0,-1,1966,1814,0,0
749,-790,0,0,0,0,0,0,0,0,0,-1,1973,1814,0,0
756,-790,0,0,0,0,0,0,0,0,0,-1,1980,1814,0,0
763,-790,0,0,0,0,0,0,0,0,0,-1,1987,1814,0,0
770,-790,0,0,0,0,0,0,0,0,0,-1,1994,1814,0,0
777,-790,0,0,0,0,0,0,0,0,0,-1,2001,1814,0,0
784,-790,0,0,0,0,0,0,0,0,0,-1,2008,1814,0,0
791,-790,0,0,0,0,0,0,0,0,0,-1,2015,1814,0,0
798,-790,0,0,0,0,0,0,0,0,0,-1,2022,1814,0,0
805,-790,0,0,0,0,0,0,0,0,0,-1,2029,1814,0,0
812,-790,0,0,0,0,0,0,0,0,0,-1,2036,1814,0,0
-700,-797,0,0,0,0,0,0,0,0,0,-1,524,1821,0,0
-693,-797,0,0,0,0,0,0,0,0,0,-1,531,1821,0,0
-686,-797,0,0,0,0,0,0,0,0,0,-1,538,1821,0,0
-679,-797,0,0,0,0,0,0,0,0,0,-1,545,1821,0,0
-672,-797,0,0,0,0,0,0,0,0,0,-1,552,1821,0,0
-665,-797,0,0,0,0,0,0,0,0,0,-1,559,1821,0,0
-658,-797,0,0,0,0,0,0,0,0,0,-1,566,1821,0,0
-651,-797,0,0,0,0,0,0,0,0,0,-1,573,1821,0,0
-644,-797,0,0,0,0,0,0,0,0,0,-1,580,1821,0,0
-637,-797,0,0,0,0,0,0,0,0,0,-1,587,1821,0,0
-630,-797,0,0,0,0,0,0,0,0,0,-1,594,1821,0,0
-623,-797,0,0,0,0,0,0,0,0,0,-1,601,1821,0,0
-616,-797,0,0,0,0,0,0,0,0,0,-1,608,1821,0,0
-609,-797,0,0,0,0,0,0,0,0,0,-1,615,1821,0,0
-602,-797,0,0,0,0,0,0,0,0,0,-1,622,1821,0,0
-595,-797,0,0,0,0,0,0,0,0,0,-1,629,1821,0,0
-588,-797,0,0,0,0,0,0,0,0,0,-1,636,1821,0,0
-581,-797,0,0,0,0,0,0,0,0,0,-1,643,1821,0,0
-574,-797,0,0,0,0,0,0,0,0,0,-1,650,1821,0,0
-567,-797,0,0,0,0,0,0,0,0,0,-1,657,1821,0,0
-560,-797,0,0,0,0,0,0,0,0,0,-1,664,1821,0,0
-553,-797,0,0,0,0,0,0,0,0,0,-1,671,1821,0,0
-546,-797,0,0,0,0,0,0,0,0,0,-1,678,1821,0,0
-539,-797,0,0,0,0,0,0,0,0,0,-1,685,1821,0,0
-532,-797,0,0,0,0,0,0,0,0,0,-1,692,1821,0,0
-525,-797,0,0,0,0,0,0,0,0,0,-1,699,1821,0,0
-518,-797,0,0,0,0,0,0,0,0,0,-1,706,1821,0,0
-511,-797,0,0,0,0,0,0,0,0,0,-1,713,1821,0,0
-504,-797,0,0,0,0,0,0,0,0,0,-1,720,1821,0,0
-497,-797,0,0,0,0,0,0,0,0,0,-1,727,1821,0,0
-490,-797,0,0,0,0,0,0,0,0,0,-1,734,1821,0,0
-483,-797,0,0,0,0,0,0,0,0,0,-1,741,1821,0,0
-476,-797,0,0,0,0,0,0,0,0,0,-1,748,1821,0,0
-469,-797,0,0,0,0,0,0,0,0,0,-1,755,1821,0,0
-462,-797,0,0,0,0,0,0,0,0,0,-1,762,1821,0,0
-455,-797,0,0,0,0,0,0,0,0,0,-1,769,1821,0,0
-448,-797,0,0,0,0,0,0,0,0,0,-1,776,1821,0,0
-441,-797,0,0,0,0,0,0,0,0,0,-1,783,1821,0,0
-434,-797,0,0,0,0,0,0,0,0,0,-1,790,1821,0,0
-427,-797,0,0,0,0,0,0,0,0,0,-1,797,1821,0,0
-420,-797,0,0,0,0,0,0,0,0,0,-1,804,1821,0,0
-413,-797,0,0,0,0,0,0,0,0,0,-1,811,1821,0,0
-406,-797,0,0,0,0,0,0,0,0,0,-1,818,1821,0,0
-399,-797,0,0,0,0,0,0,0,0,0,-1,825,1821,0,0
-392,-797,0,0,0,0,0,0,0,0,0,-1,832,1821,0,0
-385,-797,0,0,0,0,0,0,0,0,0,-1,839,1821,0,0
-378,-797,0,0,0,0,0,0,0,0,0,-1,846,1821,0,0
-371,-797,0,0,0,0,0,0,0,0,0,-1,853,1821,0,0
-364,-797,0,0,0,0,0,0,0,0,0,-1,860,1821,0,0
-357,-797,0,0,0,0,0,0,0,0,0,-1,867,1821,0,0
-350,-797,0,0,0,0,0,0,0,0,0,-1,874,1821,0,0
-343,-797,0,0,0,0,0,0,0,0,0,-1,881,1821,0,0
-336,-797,0,0,0,0,0,0,0,0,0,-1,888,1821,0,0
-329,-797,0,0,0,0,0,0,0,0,0,-1,895,1821,0,0
-322,-797,0,0,0,0,0,0,0,0,0,-1,902,1821,0,0
-315,-797,0,0,0,0,0,0,0,0,0,-1,909,1821,0,0
-308,-797,0,0,0,0,0,0,0,0,0,-1,916,1821,0,0
-301,-797,0,0,0,0,0,0,0,0,0,-1,923,1821,0,0
-294,-797,0,0,0,0,0,0,0,0,0,-1,930,1821,0,0
-287,-797,0,0,0,0,0,0,0,0,0,-1,937,1821,0,0
-280,-797,0,0,0,0,0,0,0,0,0,-1,944,1821,0,0
-273,-797,0,0,0,0,0,0,0,0,0,-1,951,1821,0,0
-266,-797,0,0,0,0,0,0,0,0,0,-1,958,1821,0,0
-259,-797,0,0,0,0,0,0,0,0,0,-1,965,1821,0,0
-252,-797,0,0,0,0,0,0,0,0,0,-1,972,1821,0,0
-245,-797,0,0,0,0,0,0,0,0,0,-1,979,1821,0,0
-238,-797,0,0,0,0,0,0,0,0,0,-1,986,1821,0,0
-231,-797,0,0,0,0,0,0,0,0,0,-1,993,1821,0,0
-224,-797,0,0,0,0,0,0,0,0,0,-1,1000,1821,0,0
-217,-797,0,0,0,0,0,0,0,0,0,-1,1007,1821,0,0
-210,-797,0,0,0,0,0,0,0,0,0,-1,1014,1821,0,0
-203,-797,0,0,0,0,0,0,0,0,0,-1,1021,1821,0,0
-196,-797,0,0,0,0,0,0,0,0,0,-1,1028,1821,0,0
-189,-797,0,0,0,0,0,0,0,0,0,-1,1035,1821,0,0
-182,-797,0,0,0,0,0,0,0,0,0,-1,1042,1821,0,0
-175,-797,0,0,0,0,0,0,0,0,0,-1,1049,1821,0,0
-168,-797,0,0,0,0,0,0,0,0,0,-1,1056,1821,0,0
-161,-797,0,0,0,0,0,0,0,0,0,-1,1063,1821,0,0
-154,-797,0,0,0,0,0,0,0,0,0,-1,1070,1821,0,0
-147,-797,0,0,0,0,0,0,0,0,0,-1,1077,1821,0,0
-140,-797,0,0,0,0,0,0,0,0,0,-1,1084,1821,0,0
-133,-797,0,0,0,0,0,0,0,0,0,-1,1091,1821,0,0
-126,-797,0,0,0,0,0,0,0,0,0,-1,1098,1821,0,0
-119,-797,0,0,0,0,0,0,0,0,0,-1,1105,1821,0,0
-112,-797,0,0,0,0,0,0,0,0,0,-1,1112,1821,0,0
-105,-797,0,0,0,0,0,0,0,0,0,-1,1119,1821,0,0
-98,-797,0,0,0,0,0,0,0,0,0,-1,1126,1821,0,0
-91,-797,0,0,0,0,0,0,0,0,0,-1,1133,1821,0,0
-84,-797,0,0,0,0,0,0,0,0,0,-1,1140,1821,0,0
-77,-797,0,0,0,0,0,0,0,0,0,-1,1147,1821,0,0
-70,-797,0,0,0,0,0,0,0,0,0,-1,1154,1821,0,0
-63,-797,0,0,0,0,0,0,0,0,0,-1,1161,1821,0,0
-56,-797,0,0,0,0,0,0,0,0,0,-1,1168,1821,0,0
-49,-797,0,0,0,0,0,0,0,0,0,-1,1175,1821,0,0
-42,-797,0.579834,0.692871,0,0,0,0,0,0,0,-1,1182,1821,0.579856,-0.692816
-35,-797,-0.185425,5.55396,0,0,0,0,0,0,0,-1,1189,1821,-0.18542,-5.55396
-28,-797,-0.310181,4.71509,0,0,0,0,0,0,0,-1,1196,1821,-0.310228,-4.71503
-21,-797,2.2428,9.03809,0,0,0,0,0,0,0,-1,1203,1821,2.24275,-9.03814
-14,-797,2.84094,9.82861,0,0,0,0,0,0,0,-1,1210,1821,2.84094,-9.8286
-7,-797,2.78113,10.5461,0,0,0,0,0,0,0,-1,1217,1821,2.78112,-10.5462
0,-797,3.81995,9.40601,0,0,0,0,0,0,0,-1,1224,1821,3.82001,-9.40595
7,-797,4.16187,9.7301,0,0,0,0,0,0,0,-1,1231,1821,4.16184,-9.73015
14,-797,4.46252,10.2451,0,0,0,0,0,0,0,-1,1238,1821,4.46257,-10.2451
21,-797,3.729,10.4996,-0.0128468,-0.017465,0.0418201,0.0267279,-0.0570397,0.757819,0.0494074,0.0441058,1245,1821,3.72897,-10.4996
28,-797,3.65356,11.4734,-0.0123325,-0.0226301,0.0426558,0.0254841,-0.0604467,0.725336,0.0509626,0.0431027,1252,1821,3.65361,-11.4734
35,-797,3.84583,11.3566,-0.0171373,-0.0285161,0.0449641,0.0224959,-0.0681493,0.722467,0.0545017,0.0465658,1259,1821,3.84577,-11.3565
42,-797,4.40857,11.6385,0,0,0,0,0,0,0,-1,1266,1821,4.40853,-11.6386
49,-797,5.10608,11.9094,0,0,0,0,0,0,0,-1,1273,1821,5.10605,-11.9094
56,-797,4.6748,12.0381,0,0,0,0,0,0,0,-1,1280,1821,4.6748,-12.0381
63,-797,3.93738,12.2737,0,0,0,0,0,0,0,-1,1287,1821,3.93741,-12.2736
70,-797,3.22534,12.4818,-0.0422962,-0.0579517,0.0535608,0.00400589,-0.104254,0.712838,0.0708756,0.0435329,1294,1821,3.2254,-12.4819
77,-797,2.65698,12.6406,-0.0376066,-0.0615679,0.047869,-0.000241734,-0.0989328,0.662778,0.0658748,0.0413574,1301,1821,2.65694,-12.6406
84,-797,1.86633,12.7367,-0.034176,-0.0642822,0.0436059,-0.00309815,-0.0953601,0.619198,0.0625663,0.0479131,1308,1821,1.8663,-12.7366
91,-797,1.09412,12.8,0,0,0,0,0,0,0,-1,1315,1821,1.09418,-12.8001
98,-797,5.6405,8.07825,0,0,0,0,0,0,0,-1,1322,1821,5.64046,-8.07831
105,-797,2.92383,13.1099,0,0,0,0,0,0,0,-1,1329,1821,2.92387,-13.1099
112,-797,2.81519,12.5671,0.0423286,-0.0569068,-0.00681858,0.0427949,-0.0573731,-0.0682834,0.0580359,0.0460508,1336,1821,2.81522,-12.5671
119,-797,3.28357,12.3091,0.0710576,-0.0511173,-0.0245347,0.0758004,-0.0558601,-0.190956,0.0763043,0.0447201,1343,1821,3.28357,-12.3091
126,-797,5.1189,11.8604,0.100987,-0.0439269,-0.0430264,0.1128,-0.055739,-0.267931,0.0991473,0.0450483,1350,1821,5.11894,-11.8603
133,-797,6.64771,11.2979,0,0,0,0,0,0,0,-1,1357,1821,6.64771,-11.2978
140,-797,8.08594,10.7717,0,0,0,0,0,0,0,-1,1364,1821,8.08597,-10.7718
147,-797,7.0835,11.9205,0,0,0,0,0,0,0,-1,1371,1821,7.08348,-11.9205
154,-797,6.33545,-1.19055,0,0,0,0,0,0,0,-1,1378,1821,6.33548,1.19052
161,-797,6.79199,1.12952,0,0,0,0,0,0,0,-1,1385,1821,6.79203,-1.12957
168,-797,0,0,0,0,0,0,0,0,0,-1,1392,1821,0,0
175,-797,0,0,0,0,0,0,0,0,0,-1,1399,1821,0,0
182,-797,0,0,0,0,0,0,0,0,0,-1,1406,1821,0,0
189,-797,0,0,0,0,0,0,0,0,0,-1,1413,1821,0,0
196,-797,0,0,0,0,0,0,0,0,0,-1,1420,1821,0,0
203,-797,0,0,0,0,0,0,0,0,0,-1,1427,1821,0,0
210,-797,0,0,0,0,0,0,0,0,0,-1,1434,1821,0,0
217,-797,0,0,0,0,0,0,0,0,0,-1,1441,1821,0,0
224,-797,0,0,0,0,0,0,0,0,0,-1,1448,1821,0,0
231,-797,0,0,0,0,0,0,0,0,0,-1,1455,1821,0,0
238,-797,0,0,0,0,0,0,0,0,0,-1,1462,1821,0,0
245,-797,0,0,0,0,0,0,0,0,0,-1,1469,1821,0,0
252,-797,0,0,0,0,0,0,0,0,0,-1,1476,1821,0,0
259,-797,0,0,0,0,0,0,0,0,0,-1,1483,1821,0,0
266,-797,0,0,0,0,0,0,0,0,0,-1,1490,1821,0,0
273,-797,0,0,0,0,0,0,0,0,0,-1,1497,1821,0,0
280,-797,0,0,0,0,0,0,0,0,0,-1,1504,1821,0,0
287,-797,0,0,0,0,0,0,0,0,0,-1,1511,1821,0,0
294,-797,0,0,0,0,0,0,0,0,0,-1,1518,1821,0,0
301,-797,0,0,0,0,0,0,0,0,0,-1,1525,1821,0,0
308,-797,0,0,0,0,0,0,0,0,0,-1,1532,1821,0,0
315,-797,0,0,0,0,0,0,0,0,0,-1,1539,1821,0,0
322,-797,0,0,0,0,0,0,0,0,0,-1,1546,1821,0,0
329,-797,0,0,0,0,0,0,0,0,0,-1,1553,1821,0,0
336,-797,0,0,0,0,0,0,0,0,0,-1,1560,1821,0,0
343,-797,0,0,0,0,0,0,0,0,0,-1,1567,1821,0,0
350,-797,0,0,0,0,0,0,0,0,0,-1,1574,1821,0,0
357,-797,0,0,0,0,0,0,0,0,0,-1,1581,1821,0,0
364,-797,0,0,0,0,0,0,0,0,0,-1,1588,1821,0,0
371,-797,0,0,0,0,0,0,0,0,0,-1,1595,1821,0,0
378,-797,0,0,0,0,0,0,0,0,0,-1,1602,1821,0,0
385,-797,0,0,0,0,0,0,0,0,0,-1,1609,1821,0,0
392,-797,0,0,0,0,0,0,0,0,0,-1,1616,1821,0,0
399,-797,0,0,0,0,0,0,0,0,0,-1,1623,1821,0,0
406,-797,0,0,0,0,0,0,0,0,0,-1,1630,1821,0,0
413,-797,0,0,0,0,0,0,0,0,0,-1,1637,1821,0,0
420,-797,0,0,0,0,0,0,0,0,0,-1,1644,1821,0,0
427,-797,0,0,0,0,0,0,0,0,0,-1,1651,1821,0,0
434,-797,0,0,0,0,0,0,0,0,0,-1,1658,1821,0,0
441,-797,0,0,0,0,0,0,0,0,0,-1,1665,1821,0,0
448,-797,0,0,0,0,0,0,0,0,0,-1,1672,1821,0,0
455,-797,0,0,0,0,0,0,0,0,0,-1,1679,1821,0,0
462,-797,0,0,0,0,0,0,0,0,0,-1,1686,1821,0,0
469,-797,0,0,0,0,0,0,0,0,0,-1,1693,1821,0,0
476,-797,0,0,0,0,0,0,0,0,0,-1,1700,1821,0,0
483,-797,0,0,0,0,0,0,0,0,0,-1,1707,1821,0,0
490,-797,0,0,0,0,0,0,0,0,0,-1,1714,1821,0,0
497,-797,0,0,0,0,0,0,0,0,0,-1,1721,1821,0,0
504,-797,0,0,0,0,0,0,0,0,0,-1,1728,1821,0,0
511,-797,0,0,0,0,0,0,0,0,0,-1,1735,1821,0,0
518,-797,0,0,0,0,0,0,0,0,0,-1,1742,1821,0,0
525,-797,0,0,0,0,0,0,0,0,0,-1,1749,1821,0,0
532,-797,0,0,0,0,0,0,0,0,0,-1,1756,1821,0,0
539,-797,0,0,0,0,0,0,0,0,0,-1,1763,1821,0,0
546,-797,0,0,0,0,0,0,0,0,0,-1,1770,1821,0,0
553,-797,0,0,0,0,0,0,0,0,0,-1,1777,1821,0,0
560,-797,0,0,0,0,0,0,0,0,0,-1,1784,1821,0,0
567,-797,0,0,0,0,0,0,0,0,0,-1,1791,1821,0,0
574,-797,0,0,0,0,0,0,0,0,0,-1,1798,1821,0,0
581,-797,0,0,0,0,0,0,0,0,0,-1,1805,1821,0,0
588,-797,0,0,0,0,0,0,0,0,0,-1,1812,1821,0,0
595,-797,0,0,0,0,0,0,0,0,0,-1,1819,1821,0,0
602,-797,0,0,0,0,0,0,0,0,0,-1,1826,1821,0,0
609,-797,0,0,0,0,0,0,0,0,0,-1,1833,1821,0,0
616,-797,0,0,0,0,0,0,0,0,0,-1,1840,1821,0,0
623,-797,0,0,0,0,0,0,0,0,0,-1,1847,1821,0,0
630,-797,0,0,0,0,0,0,0,0,0,-1,1854,1821,0,0
637,-797,0,0,0,0,0,0,0,0,0,-1,1861,1821,0,0
644,-797,0,0,0,0,0,0,0,0,0,-1,1868,1821,0,0
651,-797,0,0,0,0,0,0,0,0,0,-1,1875,1821,0,0
658,-797,0,0,0,0,0,0,0,0,0,-1,1882,1821,0,0
665,-797,0,0,0,0,0,0,0,0,0,-1,1889,1821,0,0
672,-797,0,0,0,0,0,0,0,0,0,-1,1896,1821,0,0
679,-797,0,0,0,0,0,0,0,0,0,-1,1903,1821,0,0
686,-797,0,0,0,0,0,0,0,0,0,-1,1910,1821,0,0
693,-797,0,0,0,0,0,0,0,0,0,-1,1917,1821,0,0
700,-797,0,0,0,0,0,0,0,0,0,-1,1924,1821,0,0
707,-797,0,0,0,0,0,0,0,0,0,-1,1931,1821,0,0
714,-797,0,0,0,0,0,0,0,0,0,-1,1938,1821,0,0
721,-797,0,0,0,0,0,0,0,0,0,-1,1945,1821,0,0
728,-797,0,0,0,0,0,0,0,0,0,-1,1952,1821,0,0
735,-797,0,0,0,0,0,0,0,0,0,-1,1959,1821,0,0
742,-797,0,0,0,0,0,0,0,0,0,-1,1966,1821,0,0
749,-797,0,0,0,0,0,0,0,0,0,-1,1973,1821,0,0
756,-797,0,0,0,0,0,0,0,0,0,-1,1980,1821,0,0
763,-797,0,0,0,0,0,0,0,0,0,-1,1987,1821,0,0
770,-797,0,0,0,0,0,0,0,0,0,-1,1994,1821,0,0
777,-797,0,0,0,0,0,0,0,0,0,-1,2001,1821,0,0
784,-797,0,0,0,0,0,0,0,0,0,-1,2008,1821,0,0
791,-797,0,0,0,0,0,0,0,0,0,-1,2015,1821,0,0
798,-797,0,0,0,0,0,0,0,0,0,-1,2022,1821,0,0
805,-797,0,0,0,0,0,0,0,0,0,-1,2029,1821,0,0
812,-797,0,0,0,0,0,0,0,0,0,-1,2036,1821,0,0
-700,-804,0,0,0,0,0,0,0,0,0,-1,524,1828,0,0
-693,-804,0,0,0,0,0,0,0,0,0,-1,531,1828,0,0
-686,-804,0,0,0,0,0,0,0,0,0,-1,538,1828,0,0
-679,-804,0,0,0,0,0,0,0,0,0,-1,545,1828,0,0
-672,-804,0,0,0,0,0,0,0,0,0,-1,552,1828,0,0
-665,-804,0,0,0,0,0,0,0,0,0,-1,559,1828,0,0
-658,-804,0,0,0,0,0,0,0,0,0,-1,566,1828,0,0
-651,-804,0,0,0,0,0,0,0,0,0,-1,573,1828,0,0
-644,-804,0,0,0,0,0,0,0,0,0,-1,580,1828,0,0
-637,-804,0,0,0,0,0,0,0,0,0,-1,587,1828,0,0
-630,-804,0,0,0,0,0,0,0,0,0,-1,594,1828,0,0
-623,-804,0,0,0,0,0,0,0,0,0,-1,601,1828,0,0
-616,-804,0,0,0,0,0,0,0,0,0,-1,608,1828,0,0
-609,-804,0,0,0,0,0,0,0,0,0,-1,615,1828,0,0
-602,-804,0,0,0,0,0,0,0,0,0,-1,622,1828,0,0
-595,-804,0,0,0,0,0,0,0,0,0,-1,629,1828,0,0
-588,-804,0,0,0,0,0,0,0,0,0,-1,636,1828,0,0
-581,-804,0,0,0,0,0,0,0,0,0,-1,643,1828,0,0
-574,-804,0,0,0,0,0,0,0,0,0,-1,650,1828,0,0
-567,-804,0,0,0,0,0,0,0,0,0,-1,657,1828,0,0
-560,-804,0,0,0,0,0,0,0,0,0,-1,664,1828,0,0
-553,-804,0,0,0,0,0,0,0,0,0,-1,671,1828,0,0
-546,-804,0,0,0,0,0,0,0,0,0,-1,678,1828,0,0
-539,-804,0,0,0,0,0,0,0,0,0,-1,685,1828,0,0
-532,-804,0,0,0,0,0,0,0,0,0,-1,692,1828,0,0
-525,-804,0,0,0,0,0,0,0,0,0,-1,699,1828,0,0
-518,-804,0,0,0,0,0,0,0,0,0,-1,706,1828,0,0
-511,-804,0,0,0,0,0,0,0,0,0,-1,713,1828,0,0
-504,-804,0,0,0,0,0,0,0,0,0,-1,720,1828,0,0
-497,-804,0,0,0,0,0,0,0,0,0,-1,727,1828,0,0
-490,-804,0,0,0,0,0,0,0,0,0,-1,734,1828,0,0
-483,-804,0,0,0,0,0,0,0,0,0,-1,741,1828,0,0
-476,-804,0,0,0,0,0,0,0,0,0,-1,748,1828,0,0
-469,-804,0,0,0,0,0,0,0,0,0,-1,755,1828,0,0
-462,-804,0,0,0,0,0,0,0,0,0,-1,762,1828,0,0
-455,-804,0,0,0,0,0,0,0,0,0,-1,769,1828,0,0
-448,-804,0,0,0,0,0,0,0,0,0,-1,776,1828,0,0
-441,-804,0,0,0,0,0,0,0,0,0,-1,783,1828,0,0
-434,-804,0,0,0,0,0,0,0,0,0,-1,790,1828,0,0
-427,-804,0,0,0,0,0,0,0,0,0,-1,797,1828,0,0
-420,-804,0,0,0,0,0,0,0,0,0,-1,804,1828,0,0
-413,-804,0,0,0,0,0,0,0,0,0,-1,811,1828,0,0
-406,-804,0,0,0,0,0,0,0,0,0,-1,818,1828,0,0
-399,-804,0,0,0,0,0,0,0,0,0,-1,825,1828,0,0
-392,-804,0,0,0,0,0,0,0,0,0,-1,832,1828,0,0
-385,-804,0,0,0,0,0,0,0,0,0,-1,839,1828,0,0
-378,-804,0,0,0,0,0,0,0,0,0,-1,846,1828,0,0
-371,-804,0,0,0,0,0,0,0,0,0,-1,853,1828,0,0
-364,-804,0,0,0,0,0,0,0,0,0,-1,860,1828,0,0
-357,-804,0,0,0,0,0,0,0,0,0,-1,867,1828,0,0
-350,-804,0,0,0,0,0,0,0,0,0,-1,874,1828,0,0
-343,-804,0,0,0,0,0,0,0,0,0,-1,881,1828,0,0
-336,-804,0,0,0,0,0,0,0,0,0,-1,888,1828,0,0
-329,-804,0,0,0,0,0,0,0,0,0,-1,895,1828,0,0
-322,-804,0,0,0,0,0,0,0,0,0,-1,902,1828,0,0
-315,-804,0,0,0,0,0,0,0,0,0,-1,909,1828,0,0
-308,-804,0,0,0,0,0,0,0,0,0,-1,916,1828,0,0
-301,-804,0,0,0,0,0,0,0,0,0,-1,923,1828,0,0
-294,-804,0,0,0,0,0,0,0,0,0,-1,930,1828,0,0
-287,-804,0,0,0,0,0,0,0,0,0,-1,937,1828,0,0
-280,-804,0,0,0,0,0,0,0,0,0,-1,944,1828,0,0
-273,-804,0,0,0,0,0,0,0,0,0,-1,951,1828,0,0
-266,-804,0,0,0,0,0,0,0,0,0,-1,958,1828,0,0
-259,-804,0,0,0,0,0,0,0,0,0,-1,965,1828,0,0
-252,-804,0,0,0,0,0,0,0,0,0,-1,972,1828,0,0
-245,-804,0,0,0,0,0,0,0,0,0,-1,979,1828,0,0
-238,-804,0,0,0,0,0,0,0,0,0,-1,986,1828,0,0
-231,-804,0,0,0,0,0,0,0,0,0,-1,993,1828,0,0
-224,-804,0,0,0,0,0,0,0,0,0,-1,1000,1828,0,0
-217,-804,0,0,0,0,0,0,0,0,0,-1,1007,1828,0,0
-210,-804,0,0,0,0,0,0,0,0,0,-1,1014,1828,0,0
-203,-804,0,0,0,0,0,0,0,0,0,-1,1021,1828,0,0
-196,-804,0,0,0,0,0,0,0,0,0,-1,1028,1828,0,0
-189,-804,0,0,0,0,0,0,0,0,0,-1,1035,1828,0,0
-182,-804,0,0,0,0,0,0,0,0,0,-1,1042,1828,0,0
-175,-804,0,0,0,0,0,0,0,0,0,-1,1049,1828,0,0
-168,-804,0,0,0,0,0,0,0,0,0,-1,1056,1828,0,0
-161,-804,0,0,0,0,0,0,0,0,0,-1,1063,1828,0,0
-154,-804,0,0,0,0,0,0,0,0,0,-1,1070,1828,0,0
-147,-804,0,0,0,0,0,0,0,0,0,-1,1077,1828,0,0
-140,-804,0,0,0,0,0,0,0,0,0,-1,1084,1828,0,0
-133,-804,0,0,0,0,0,0,0,0,0,-1,1091,1828,0,0
-126,-804,0,0,0,0,0,0,0,0,0,-1,1098,1828,0,0
-119,-804,0,0,0,0,0,0,0,0,0,-1,1105,1828,0,0
-112,-804,0,0,0,0,0,0,0,0,0,-1,1112,1828,0,0
-105,-804,0,0,0,0,0,0,0,0,0,-1,1119,1828,0,0
-98,-804,0,0,0,0,0,0,0,0,0,-1,1126,1828,0,0
-91,-804,0,0,0,0,0,0,0,0,0,-1,1133,1828,0,0
-84,-804,0,0,0,0,0,0,0,0,0,-1,1140,1828,0,0
-77,-804,0,0,0,0,0,0,0,0,0,-1,1147,1828,0,0
-70,-804,0,0,0,0,0,0,0,0,0,-1,1154,1828,0,0
-63,-804,0,0,0,0,0,0,0,0,0,-1,1161,1828,0,0
-56,-804,0,0,0,0,0,0,0,0,0,-1,1168,1828,0,0
-49,-804,0,0,0,0,0,0,0,0,0,-1,1175,1828,0,0
-42,-804,0,0,0,0,0,0,0,0,0,-1,1182,1828,0,0
-35,-804,0,0,0,0,0,0,0,0,0,-1,1189,1828,0,0
-28,-804,0,0,0,0,0,0,0,0,0,-1,1196,1828,0,0
-21,-804,0,0,0,0,0,0,0,0,0,-1,1203,1828,0,0
-14,-804,0,0,0,0,0,0,0,0,0,-1,1210,1828,0,0
-7,-804,0,0,0,0,0,0,0,0,0,-1,1217,1828,0,0
0,-804,0,0,0,0,0,0,0,0,0,-1,1224,1828,0,0
7,-804,0,0,0,0,0,0,0,0,0,-1,1231,1828,0,0
14,-804,0,0,0,0,0,0,0,0,0,-1,1238,1828,0,0
21,-804,0,0,0,0,0,0,0,0,0,-1,1245,1828,0,0
28,-804,0,0,0,0,0,0,0,0,0,-1,1252,1828,0,0
35,-804,3.87244,11.0938,0,0,0,0,0,0,0,-1,1259,1828,3.87249,-11.0937
42,-804,4.3678,11.7367,0,0,0,0,0,0,0,-1,1266,1828,4.36778,-11.7367
49,-804,6.75317,11.4664,0,0,0,0,0,0,0,-1,1273,1828,6.75322,-11.4664
56,-804,3.66296,12.755,0,0,0,0,0,0,0,-1,1280,1828,3.66299,-12.755
63,-804,2.75244,12.9999,0,0,0,0,0,0,0,-1,1287,1828,2.75239,-12.9999
70,-804,2.09485,13.1675,-0.0590821,-0.0692124,0.0695238,0.00556085,-0.133855,0.749035,0.0911471,0.0447728,1294,1828,2.09488,-13.1674
77,-804,1.51196,13.4423,-0.0521385,-0.0735526,0.0620751,0.000146247,-0.125837,0.699996,0.0839403,0.0431329,1301,1828,1.51195,-13.4423
84,-804,0.815063,13.2855,-0.0461235,-0.0766453,0.0563966,-0.00295947,-0.119809,0.653263,0.0789049,0.045546,1308,1828,0.815095,-13.2855
91,-804,0,0,0,0,0,0,0,0,0,-1,1315,1828,0,0
98,-804,0,0,0,0,0,0,0,0,0,-1,1322,1828,0,0
105,-804,0,0,0,0,0,0,0,0,0,-1,1329,1828,0,0
112,-804,0,0,0,0,0,0,0,0,0,-1,1336,1828,0,0
119,-804,0,0,0,0,0,0,0,0,0,-1,1343,1828,0,0
126,-804,0,0,0,0,0,0,0,0,0,-1,1350,1828,0,0
133,-804,0,0,0,0,0,0,0,0,0,-1,1357,1828,0,0
140,-804,0,0,0,0,0,0,0,0,0,-1,1364,1828,0,0
147,-804,0,0,0,0,0,0,0,0,0,-1,1371,1828,0,0
154,-804,0,0,0,0,0,0,0,0,0,-1,1378,1828,0,0
161,-804,0,0,0,0,0,0,0,0,0,-1,1385,1828,0,0
168,-804,0,0,0,0,0,0,0,0,0,-1,1392,1828,0,0
175,-804,0,0,0,0,0,0,0,0,0,-1,1399,1828,0,0
182,-804,0,0,0,0,0,0,0,0,0,-1,1406,1828,0,0
189,-804,0,0,0,0,0,0,0,0,0,-1,1413,1828,0,0
196,-804,0,0,0,0,0,0,0,0,0,-1,1420,1828,0,0
203,-804,0,0,0,0,0,0,0,0,0,-1,1427,1828,0,0
210,-804,0,0,0,0,0,0,0,0,0,-1,1434,1828,0,0
217,-804,0,0,0,0,0,0,0,0,0,-1,1441,1828,0,0
224,-804,0,0,0,0,0,0,0,0,0,-1,1448,1828,0,0
231,-804,0,0,0,0,0,0,0,0,0,-1,1455,1828,0,0
238,-804,0,0,0,0,0,0,0,0,0,-1,1462,1828,0,0
245,-804,0,0,0,0,0,0,0,0,0,-1,1469,1828,0,0
252,-804,0,0,0,0,0,0,0,0,0,-1,1476,1828,0,0
259,-804,0,0,0,0,0,0,0,0,0,-1,1483,1828,0,0
266,-804,0,0,0,0,0,0,0,0,0,-1,1490,1828,0,0
273,-804,0,0,0,0,0,0,0,0,0,-1,1497,1828,0,0
280,-804,0,0,0,0,0,0,0,0,0,-1,1504,1828,0,0
287,-804,0,0,0,0,0,0,0,0,0,-1,1511,1828,0,0
294,-804,0,0,0,0,0,0,0,0,0,-1,1518,1828,0,0
301,-804,0,0,0,0,0,0,0,0,0,-1,1525,1828,0,0
308,-804,0,0,0,0,0,0,0,0,0,-1,1532,1828,0,0
315,-804,0,0,0,0,0,0,0,0,0,-1,1539,1828,0,0
322,-804,0,0,0,0,0,0,0,0,0,-1,1546,1828,0,0
329,-804,0,0,0,0,0,0,0,0,0,-1,1553,1828,0,0
336,-804,0,0,0,0,0,0,0,0,0,-1,1560,1828,0,0
343,-804,0,0,0,0,0,0,0,0,0,-1,1567,1828,0,0
350,-804,0,0,0,0,0,0,0,0,0,-1,1574,1828,0,0
357,-804,0,0,0,0,0,0,0,0,0,-1,1581,1828,0,0
364,-804,0,0,0,0,0,0,0,0,0,-1,1588,1828,0,0
371,-804,0,0,0,0,0,0,0,0,0,-1,1595,1828,0,0
378,-804,0,0,0,0,0,0,0,0,0,-1,1602,1828,0,0
385,-804,0,0,0,0,0,0,0,0,0,-1,1609,1828,0,0
392,-804,0,0,0,0,0,0,0,0,0,-1,1616,1828,0,0
399,-804,0,0,0,0,0,0,0,0,0,-1,1623,1828,0,0
406,-804,0,0,0,0,0,0,0,0,0,-1,1630,1828,0,0
413,-804,0,0,0,0,0,0,0,0,0,-1,1637,1828,0,0
420,-804,0,0,0,0,0,0,0,0,0,-1,1644,1828,0,0
427,-804,0,0,0,0,0,0,0,0,0,-1,1651,1828,0,0
434,-804,0,0,0,0,0,0,0,0,0,-1,1658,1828,0,0
441,-804,0,0,0,0,0,0,0,0,0,-1,1665,1828,0,0
448,-804,0,0,0,0,0,0,0,0,0,-1,1672,1828,0,0
455,-804,0,0,0,0,0,0,0,0,0,-1,1679,1828,0,0
462,-804,0,0,0,0,0,0,0,0,0,-1,1686,1828,0,0
469,-804,0,0,0,0,0,0,0,0,0,-1,1693,1828,0,0
476,-804,0,0,0,0,0,0,0,0,0,-1,1700,1828,0,0
483,-804,0,0,0,0,0,0,0,0,0,-1,1707,1828,0,0
490,-804,0,0,0,0,0,0,0,0,0,-1,1714,1828,0,0
497,-804,0,0,0,0,0,0,0,0,0,-1,1721,1828,0,0
504,-804,0,0,0,0,0,0,0,0,0,-1,1728,1828,0,0
511,-804,0,0,0,0,0,0,0,0,0,-1,1735,1828,0,0
518,-804,0,0,0,0,0,0,0,0,0,-1,1742,1828,0,0
525,-804,0,0,0,0,0,0,0,0,0,-1,1749,1828,0,0
532,-804,0,0,0,0,0,0,0,0,0,-1,1756,1828,0,0
539,-804,0,0,0,0,0,0,0,0,0,-1,1763,1828,0,0
546,-804,0,0,0,0,0,0,0,0,0,-1,1770,1828,0,0
553,-804,0,0,0,0,0,0,0,0,0,-1,1777,1828,0,0
560,-804,0,0,0,0,0,0,0,0,0,-1,1784,1828,0,0
567,-804,0,0,0,0,0,0,0,0,0,-1,1791,1828,0,0
574,-804,0,0,0,0,0,0,0,0,0,-1,1798,1828,0,0
581,-804,0,0,0,0,0,0,0,0,0,-1,1805,1828,0,0
588,-804,0,0,0,0,0,0,0,0,0,-1,1812,1828,0,0
595,-804,0,0,0,0,0,0,0,0,0,-1,1819,1828,0,0
602,-804,0,0,0,0,0,0,0,0,0,-1,1826,1828,0,0
609,-804,0,0,0,0,0,0,0,0,0,-1,1833,1828,0,0
616,-804,0,0,0,0,0,0,0,0,0,-1,1840,1828,0,0
623,-804,0,0,0,0,0,0,0,0,0,-1,1847,1828,0,0
630,-804,0,0,0,0,0,0,0,0,0,-1,1854,1828,0,0
637,-804,0,0,0,0,0,0,0,0,0,-1,1861,1828,0,0
644,-804,0,0,0,0,0,0,0,0,0,-1,1868,1828,0,0
651,-804,0,0,0,0,0,0,0,0,0,-1,1875,1828,0,0
658,-804,0,0,0,0,0,0,0,0,0,-1,1882,1828,0,0
665,-804,0,0,0,0,0,0,0,0,0,-1,1889,1828,0,0
672,-804,0,0,0,0,0,0,0,0,0,-1,1896,1828,0,0
679,-804,0,0,0,0,0,0,0,0,0,-1,1903,1828,0,0
686,-804,0,0,0,0,0,0,0,0,0,-1,1910,1828,0,0
693,-804,0,0,0,0,0,0,0,0,0,-1,1917,1828,0,0
700,-804,0,0,0,0,0,0,0,0,0,-1,1924,1828,0,0
707,-804,0,0,0,0,0,0,0,0,0,-1,1931,1828,0,0
714,-804,0,0,0,0,0,0,0,0,0,-1,1938,1828,0,0
721,-804,0,0,0,0,0,0,0,0,0,-1,1945,1828,0,0
728,-804,0,0,0,0,0,0,0,0,0,-1,1952,1828,0,0
735,-804,0,0,0,0,0,0,0,0,0,-1,1959,1828,0,0
742,-804,0,0,0,0,0,0,0,0,0,-1,1966,1828,0,0
749,-804,0,0,0,0,0,0,0,0,0,-1,1973,1828,0,0
756,-804,0,0,0,0,0,0,0,0,0,-1,1980,1828,0,0
763,-804,0,0,0,0,0,0,0,0,0,-1,1987,1828,0,0
770,-804,0,0,0,0,0,0,0,0,0,-1,1994,1828,0,0
777,-804,0,0,0,0,0,0,0,0,0,-1,2001,1828,0,0
784,-804,0,0,0,0,0,0,0,0,0,-1,2008,1828,0,0
791,-804,0,0,0,0,0,0,0,0,0,-1,2015,1828,0,0
798,-804,0,0,0,0,0,0,0,0,0,-1,2022,1828,0,0
805,-804,0,0,0,0,0,0,0,0,0,-1,2029,1828,0,0
812,-804,0,0,0,0,0,0,0,0,0,-1,2036,1828,0,0

